 "x_c",  "y_c",  "u_c",  "v_c",  "exx",  "eyy",  "exy",  "e1",  "e2",  "gamma",  "e_vonmises",  "sigma",  "x",  "y",  "u",  "v"
-700,715,0,0,0,0,0,0,0,0,0,-1,524,309,0,0
-693,715,0,0,0,0,0,0,0,0,0,-1,531,309,0,0
-686,715,0,0,0,0,0,0,0,0,0,-1,538,309,0,0
-679,715,0,0,0,0,0,0,0,0,0,-1,545,309,0,0
-672,715,0,0,0,0,0,0,0,0,0,-1,552,309,0,0
-665,715,0,0,0,0,0,0,0,0,0,-1,559,309,0,0
-658,715,0,0,0,0,0,0,0,0,0,-1,566,309,0,0
-651,715,0,0,0,0,0,0,0,0,0,-1,573,309,0,0
-644,715,0,0,0,0,0,0,0,0,0,-1,580,309,0,0
-637,715,0,0,0,0,0,0,0,0,0,-1,587,309,0,0
-630,715,0,0,0,0,0,0,0,0,0,-1,594,309,0,0
-623,715,0,0,0,0,0,0,0,0,0,-1,601,309,0,0
-616,715,0,0,0,0,0,0,0,0,0,-1,608,309,0,0
-609,715,0,0,0,0,0,0,0,0,0,-1,615,309,0,0
-602,715,0,0,0,0,0,0,0,0,0,-1,622,309,0,0
-595,715,0,0,0,0,0,0,0,0,0,-1,629,309,0,0
-588,715,0,0,0,0,0,0,0,0,0,-1,636,309,0,0
-581,715,0,0,0,0,0,0,0,0,0,-1,643,309,0,0
-574,715,0,0,0,0,0,0,0,0,0,-1,650,309,0,0
-567,715,0,0,0,0,0,0,0,0,0,-1,657,309,0,0
-560,715,0,0,0,0,0,0,0,0,0,-1,664,309,0,0
-553,715,0,0,0,0,0,0,0,0,0,-1,671,309,0,0
-546,715,0,0,0,0,0,0,0,0,0,-1,678,309,0,0
-539,715,0,0,0,0,0,0,0,0,0,-1,685,309,0,0
-532,715,0,0,0,0,0,0,0,0,0,-1,692,309,0,0
-525,715,0,0,0,0,0,0,0,0,0,-1,699,309,0,0
-518,715,0,0,0,0,0,0,0,0,0,-1,706,309,0,0
-511,715,0,0,0,0,0,0,0,0,0,-1,713,309,0,0
-504,715,0,0,0,0,0,0,0,0,0,-1,720,309,0,0
-497,715,0,0,0,0,0,0,0,0,0,-1,727,309,0,0
-490,715,0,0,0,0,0,0,0,0,0,-1,734,309,0,0
-483,715,0,0,0,0,0,0,0,0,0,-1,741,309,0,0
-476,715,0,0,0,0,0,0,0,0,0,-1,748,309,0,0
-469,715,0,0,0,0,0,0,0,0,0,-1,755,309,0,0
-462,715,0,0,0,0,0,0,0,0,0,-1,762,309,0,0
-455,715,0,0,0,0,0,0,0,0,0,-1,769,309,0,0
-448,715,0,0,0,0,0,0,0,0,0,-1,776,309,0,0
-441,715,0,0,0,0,0,0,0,0,0,-1,783,309,0,0
-434,715,0,0,0,0,0,0,0,0,0,-1,790,309,0,0
-427,715,0,0,0,0,0,0,0,0,0,-1,797,309,0,0
-420,715,0,0,0,0,0,0,0,0,0,-1,804,309,0,0
-413,715,0,0,0,0,0,0,0,0,0,-1,811,309,0,0
-406,715,0,0,0,0,0,0,0,0,0,-1,818,309,0,0
-399,715,0,0,0,0,0,0,0,0,0,-1,825,309,0,0
-392,715,0,0,0,0,0,0,0,0,0,-1,832,309,0,0
-385,715,0,0,0,0,0,0,0,0,0,-1,839,309,0,0
-378,715,0,0,0,0,0,0,0,0,0,-1,846,309,0,0
-371,715,0,0,0,0,0,0,0,0,0,-1,853,309,0,0
-364,715,0,0,0,0,0,0,0,0,0,-1,860,309,0,0
-357,715,0,0,0,0,0,0,0,0,0,-1,867,309,0,0
-350,715,0,0,0,0,0,0,0,0,0,-1,874,309,0,0
-343,715,0,0,0,0,0,0,0,0,0,-1,881,309,0,0
-336,715,0,0,0,0,0,0,0,0,0,-1,888,309,0,0
-329,715,0,0,0,0,0,0,0,0,0,-1,895,309,0,0
-322,715,0,0,0,0,0,0,0,0,0,-1,902,309,0,0
-315,715,0,0,0,0,0,0,0,0,0,-1,909,309,0,0
-308,715,0,0,0,0,0,0,0,0,0,-1,916,309,0,0
-301,715,0,0,0,0,0,0,0,0,0,-1,923,309,0,0
-294,715,0,0,0,0,0,0,0,0,0,-1,930,309,0,0
-287,715,0,0,0,0,0,0,0,0,0,-1,937,309,0,0
-280,715,0,0,0,0,0,0,0,0,0,-1,944,309,0,0
-273,715,0,0,0,0,0,0,0,0,0,-1,951,309,0,0
-266,715,0,0,0,0,0,0,0,0,0,-1,958,309,0,0
-259,715,0,0,0,0,0,0,0,0,0,-1,965,309,0,0
-252,715,0,0,0,0,0,0,0,0,0,-1,972,309,0,0
-245,715,0,0,0,0,0,0,0,0,0,-1,979,309,0,0
-238,715,0,0,0,0,0,0,0,0,0,-1,986,309,0,0
-231,715,0,0,0,0,0,0,0,0,0,-1,993,309,0,0
-224,715,0,0,0,0,0,0,0,0,0,-1,1000,309,0,0
-217,715,0,0,0,0,0,0,0,0,0,-1,1007,309,0,0
-210,715,0,0,0,0,0,0,0,0,0,-1,1014,309,0,0
-203,715,0,0,0,0,0,0,0,0,0,-1,1021,309,0,0
-196,715,0,0,0,0,0,0,0,0,0,-1,1028,309,0,0
-189,715,0,0,0,0,0,0,0,0,0,-1,1035,309,0,0
-182,715,0,0,0,0,0,0,0,0,0,-1,1042,309,0,0
-175,715,0,0,0,0,0,0,0,0,0,-1,1049,309,0,0
-168,715,0,0,0,0,0,0,0,0,0,-1,1056,309,0,0
-161,715,0,0,0,0,0,0,0,0,0,-1,1063,309,0,0
-154,715,0,0,0,0,0,0,0,0,0,-1,1070,309,0,0
-147,715,0,0,0,0,0,0,0,0,0,-1,1077,309,0,0
-140,715,0,0,0,0,0,0,0,0,0,-1,1084,309,0,0
-133,715,0,0,0,0,0,0,0,0,0,-1,1091,309,0,0
-126,715,0,0,0,0,0,0,0,0,0,-1,1098,309,0,0
-119,715,0,0,0,0,0,0,0,0,0,-1,1105,309,0,0
-112,715,0,0,0,0,0,0,0,0,0,-1,1112,309,0,0
-105,715,0,0,0,0,0,0,0,0,0,-1,1119,309,0,0
-98,715,0,0,0,0,0,0,0,0,0,-1,1126,309,0,0
-91,715,0,0,0,0,0,0,0,0,0,-1,1133,309,0,0
-84,715,0,0,0,0,0,0,0,0,0,-1,1140,309,0,0
-77,715,0,0,0,0,0,0,0,0,0,-1,1147,309,0,0
-70,715,0,0,0,0,0,0,0,0,0,-1,1154,309,0,0
-63,715,0,0,0,0,0,0,0,0,0,-1,1161,309,0,0
-56,715,0,0,0,0,0,0,0,0,0,-1,1168,309,0,0
-49,715,0,0,0,0,0,0,0,0,0,-1,1175,309,0,0
-42,715,0,0,0,0,0,0,0,0,0,-1,1182,309,0,0
-35,715,0,0,0,0,0,0,0,0,0,-1,1189,309,0,0
-28,715,0,0,0,0,0,0,0,0,0,-1,1196,309,0,0
-21,715,0,0,0,0,0,0,0,0,0,-1,1203,309,0,0
-14,715,0,0,0,0,0,0,0,0,0,-1,1210,309,0,0
-7,715,0,0,0,0,0,0,0,0,0,-1,1217,309,0,0
0,715,0,0,0,0,0,0,0,0,0,-1,1224,309,0,0
7,715,0,0,0,0,0,0,0,0,0,-1,1231,309,0,0
14,715,0,0,0,0,0,0,0,0,0,-1,1238,309,0,0
21,715,0,0,0,0,0,0,0,0,0,-1,1245,309,0,0
28,715,0,0,0,0,0,0,0,0,0,-1,1252,309,0,0
35,715,0,0,0,0,0,0,0,0,0,-1,1259,309,0,0
42,715,0,0,0,0,0,0,0,0,0,-1,1266,309,0,0
49,715,0,0,0,0,0,0,0,0,0,-1,1273,309,0,0
56,715,0,0,0,0,0,0,0,0,0,-1,1280,309,0,0
63,715,2.67883,-11.3928,0.0255733,0.111591,-0.00341323,0.111726,0.025438,-1.5312,0.067619,0.0430106,1287,309,2.67881,11.3928
70,715,2.45496,-11.6418,0.026213,0.10832,-0.0151377,0.111022,0.023511,-1.39417,0.0675555,0.0437129,1294,309,2.45498,11.6418
77,715,0,0,0,0,0,0,0,0,0,-1,1301,309,0,0
84,715,0,0,0,0,0,0,0,0,0,-1,1308,309,0,0
91,715,0,0,0,0,0,0,0,0,0,-1,1315,309,0,0
98,715,0,0,0,0,0,0,0,0,0,-1,1322,309,0,0
105,715,0,0,0,0,0,0,0,0,0,-1,1329,309,0,0
112,715,0,0,0,0,0,0,0,0,0,-1,1336,309,0,0
119,715,0,0,0,0,0,0,0,0,0,-1,1343,309,0,0
126,715,0,0,0,0,0,0,0,0,0,-1,1350,309,0,0
133,715,0,0,0,0,0,0,0,0,0,-1,1357,309,0,0
140,715,0,0,0,0,0,0,0,0,0,-1,1364,309,0,0
147,715,0,0,0,0,0,0,0,0,0,-1,1371,309,0,0
154,715,0,0,0,0,0,0,0,0,0,-1,1378,309,0,0
161,715,0,0,0,0,0,0,0,0,0,-1,1385,309,0,0
168,715,0,0,0,0,0,0,0,0,0,-1,1392,309,0,0
175,715,0,0,0,0,0,0,0,0,0,-1,1399,309,0,0
182,715,0,0,0,0,0,0,0,0,0,-1,1406,309,0,0
189,715,0,0,0,0,0,0,0,0,0,-1,1413,309,0,0
196,715,0,0,0,0,0,0,0,0,0,-1,1420,309,0,0
203,715,0,0,0,0,0,0,0,0,0,-1,1427,309,0,0
210,715,0,0,0,0,0,0,0,0,0,-1,1434,309,0,0
217,715,0,0,0,0,0,0,0,0,0,-1,1441,309,0,0
224,715,0,0,0,0,0,0,0,0,0,-1,1448,309,0,0
231,715,0,0,0,0,0,0,0,0,0,-1,1455,309,0,0
238,715,0,0,0,0,0,0,0,0,0,-1,1462,309,0,0
245,715,0,0,0,0,0,0,0,0,0,-1,1469,309,0,0
252,715,0,0,0,0,0,0,0,0,0,-1,1476,309,0,0
259,715,0,0,0,0,0,0,0,0,0,-1,1483,309,0,0
266,715,0,0,0,0,0,0,0,0,0,-1,1490,309,0,0
273,715,0,0,0,0,0,0,0,0,0,-1,1497,309,0,0
280,715,0,0,0,0,0,0,0,0,0,-1,1504,309,0,0
287,715,0,0,0,0,0,0,0,0,0,-1,1511,309,0,0
294,715,0,0,0,0,0,0,0,0,0,-1,1518,309,0,0
301,715,0,0,0,0,0,0,0,0,0,-1,1525,309,0,0
308,715,0,0,0,0,0,0,0,0,0,-1,1532,309,0,0
315,715,0,0,0,0,0,0,0,0,0,-1,1539,309,0,0
322,715,0,0,0,0,0,0,0,0,0,-1,1546,309,0,0
329,715,0,0,0,0,0,0,0,0,0,-1,1553,309,0,0
336,715,0,0,0,0,0,0,0,0,0,-1,1560,309,0,0
343,715,0,0,0,0,0,0,0,0,0,-1,1567,309,0,0
350,715,0,0,0,0,0,0,0,0,0,-1,1574,309,0,0
357,715,0,0,0,0,0,0,0,0,0,-1,1581,309,0,0
364,715,0,0,0,0,0,0,0,0,0,-1,1588,309,0,0
371,715,0,0,0,0,0,0,0,0,0,-1,1595,309,0,0
378,715,0,0,0,0,0,0,0,0,0,-1,1602,309,0,0
385,715,0,0,0,0,0,0,0,0,0,-1,1609,309,0,0
392,715,0,0,0,0,0,0,0,0,0,-1,1616,309,0,0
399,715,0,0,0,0,0,0,0,0,0,-1,1623,309,0,0
406,715,0,0,0,0,0,0,0,0,0,-1,1630,309,0,0
413,715,0,0,0,0,0,0,0,0,0,-1,1637,309,0,0
420,715,0,0,0,0,0,0,0,0,0,-1,1644,309,0,0
427,715,0,0,0,0,0,0,0,0,0,-1,1651,309,0,0
434,715,0,0,0,0,0,0,0,0,0,-1,1658,309,0,0
441,715,0,0,0,0,0,0,0,0,0,-1,1665,309,0,0
448,715,0,0,0,0,0,0,0,0,0,-1,1672,309,0,0
455,715,0,0,0,0,0,0,0,0,0,-1,1679,309,0,0
462,715,0,0,0,0,0,0,0,0,0,-1,1686,309,0,0
469,715,0,0,0,0,0,0,0,0,0,-1,1693,309,0,0
476,715,0,0,0,0,0,0,0,0,0,-1,1700,309,0,0
483,715,0,0,0,0,0,0,0,0,0,-1,1707,309,0,0
490,715,0,0,0,0,0,0,0,0,0,-1,1714,309,0,0
497,715,0,0,0,0,0,0,0,0,0,-1,1721,309,0,0
504,715,0,0,0,0,0,0,0,0,0,-1,1728,309,0,0
511,715,0,0,0,0,0,0,0,0,0,-1,1735,309,0,0
518,715,0,0,0,0,0,0,0,0,0,-1,1742,309,0,0
525,715,0,0,0,0,0,0,0,0,0,-1,1749,309,0,0
532,715,0,0,0,0,0,0,0,0,0,-1,1756,309,0,0
539,715,0,0,0,0,0,0,0,0,0,-1,1763,309,0,0
546,715,0,0,0,0,0,0,0,0,0,-1,1770,309,0,0
553,715,0,0,0,0,0,0,0,0,0,-1,1777,309,0,0
560,715,0,0,0,0,0,0,0,0,0,-1,1784,309,0,0
567,715,0,0,0,0,0,0,0,0,0,-1,1791,309,0,0
574,715,0,0,0,0,0,0,0,0,0,-1,1798,309,0,0
581,715,0,0,0,0,0,0,0,0,0,-1,1805,309,0,0
588,715,0,0,0,0,0,0,0,0,0,-1,1812,309,0,0
595,715,0,0,0,0,0,0,0,0,0,-1,1819,309,0,0
602,715,0,0,0,0,0,0,0,0,0,-1,1826,309,0,0
609,715,0,0,0,0,0,0,0,0,0,-1,1833,309,0,0
616,715,0,0,0,0,0,0,0,0,0,-1,1840,309,0,0
623,715,0,0,0,0,0,0,0,0,0,-1,1847,309,0,0
630,715,0,0,0,0,0,0,0,0,0,-1,1854,309,0,0
637,715,0,0,0,0,0,0,0,0,0,-1,1861,309,0,0
644,715,0,0,0,0,0,0,0,0,0,-1,1868,309,0,0
651,715,0,0,0,0,0,0,0,0,0,-1,1875,309,0,0
658,715,0,0,0,0,0,0,0,0,0,-1,1882,309,0,0
665,715,0,0,0,0,0,0,0,0,0,-1,1889,309,0,0
672,715,0,0,0,0,0,0,0,0,0,-1,1896,309,0,0
679,715,0,0,0,0,0,0,0,0,0,-1,1903,309,0,0
686,715,0,0,0,0,0,0,0,0,0,-1,1910,309,0,0
693,715,0,0,0,0,0,0,0,0,0,-1,1917,309,0,0
700,715,0,0,0,0,0,0,0,0,0,-1,1924,309,0,0
707,715,0,0,0,0,0,0,0,0,0,-1,1931,309,0,0
714,715,0,0,0,0,0,0,0,0,0,-1,1938,309,0,0
721,715,0,0,0,0,0,0,0,0,0,-1,1945,309,0,0
728,715,0,0,0,0,0,0,0,0,0,-1,1952,309,0,0
735,715,0,0,0,0,0,0,0,0,0,-1,1959,309,0,0
742,715,0,0,0,0,0,0,0,0,0,-1,1966,309,0,0
749,715,0,0,0,0,0,0,0,0,0,-1,1973,309,0,0
756,715,0,0,0,0,0,0,0,0,0,-1,1980,309,0,0
763,715,0,0,0,0,0,0,0,0,0,-1,1987,309,0,0
770,715,0,0,0,0,0,0,0,0,0,-1,1994,309,0,0
777,715,0,0,0,0,0,0,0,0,0,-1,2001,309,0,0
784,715,0,0,0,0,0,0,0,0,0,-1,2008,309,0,0
791,715,0,0,0,0,0,0,0,0,0,-1,2015,309,0,0
798,715,0,0,0,0,0,0,0,0,0,-1,2022,309,0,0
805,715,0,0,0,0,0,0,0,0,0,-1,2029,309,0,0
812,715,0,0,0,0,0,0,0,0,0,-1,2036,309,0,0
-700,708,0,0,0,0,0,0,0,0,0,-1,524,316,0,0
-693,708,0,0,0,0,0,0,0,0,0,-1,531,316,0,0
-686,708,0,0,0,0,0,0,0,0,0,-1,538,316,0,0
-679,708,0,0,0,0,0,0,0,0,0,-1,545,316,0,0
-672,708,0,0,0,0,0,0,0,0,0,-1,552,316,0,0
-665,708,0,0,0,0,0,0,0,0,0,-1,559,316,0,0
-658,708,0,0,0,0,0,0,0,0,0,-1,566,316,0,0
-651,708,0,0,0,0,0,0,0,0,0,-1,573,316,0,0
-644,708,0,0,0,0,0,0,0,0,0,-1,580,316,0,0
-637,708,0,0,0,0,0,0,0,0,0,-1,587,316,0,0
-630,708,0,0,0,0,0,0,0,0,0,-1,594,316,0,0
-623,708,0,0,0,0,0,0,0,0,0,-1,601,316,0,0
-616,708,0,0,0,0,0,0,0,0,0,-1,608,316,0,0
-609,708,0,0,0,0,0,0,0,0,0,-1,615,316,0,0
-602,708,0,0,0,0,0,0,0,0,0,-1,622,316,0,0
-595,708,0,0,0,0,0,0,0,0,0,-1,629,316,0,0
-588,708,0,0,0,0,0,0,0,0,0,-1,636,316,0,0
-581,708,0,0,0,0,0,0,0,0,0,-1,643,316,0,0
-574,708,0,0,0,0,0,0,0,0,0,-1,650,316,0,0
-567,708,0,0,0,0,0,0,0,0,0,-1,657,316,0,0
-560,708,0,0,0,0,0,0,0,0,0,-1,664,316,0,0
-553,708,0,0,0,0,0,0,0,0,0,-1,671,316,0,0
-546,708,0,0,0,0,0,0,0,0,0,-1,678,316,0,0
-539,708,0,0,0,0,0,0,0,0,0,-1,685,316,0,0
-532,708,0,0,0,0,0,0,0,0,0,-1,692,316,0,0
-525,708,0,0,0,0,0,0,0,0,0,-1,699,316,0,0
-518,708,0,0,0,0,0,0,0,0,0,-1,706,316,0,0
-511,708,0,0,0,0,0,0,0,0,0,-1,713,316,0,0
-504,708,0,0,0,0,0,0,0,0,0,-1,720,316,0,0
-497,708,0,0,0,0,0,0,0,0,0,-1,727,316,0,0
-490,708,0,0,0,0,0,0,0,0,0,-1,734,316,0,0
-483,708,0,0,0,0,0,0,0,0,0,-1,741,316,0,0
-476,708,0,0,0,0,0,0,0,0,0,-1,748,316,0,0
-469,708,0,0,0,0,0,0,0,0,0,-1,755,316,0,0
-462,708,0,0,0,0,0,0,0,0,0,-1,762,316,0,0
-455,708,0,0,0,0,0,0,0,0,0,-1,769,316,0,0
-448,708,0,0,0,0,0,0,0,0,0,-1,776,316,0,0
-441,708,0,0,0,0,0,0,0,0,0,-1,783,316,0,0
-434,708,0,0,0,0,0,0,0,0,0,-1,790,316,0,0
-427,708,0,0,0,0,0,0,0,0,0,-1,797,316,0,0
-420,708,0,0,0,0,0,0,0,0,0,-1,804,316,0,0
-413,708,0,0,0,0,0,0,0,0,0,-1,811,316,0,0
-406,708,0,0,0,0,0,0,0,0,0,-1,818,316,0,0
-399,708,0,0,0,0,0,0,0,0,0,-1,825,316,0,0
-392,708,0,0,0,0,0,0,0,0,0,-1,832,316,0,0
-385,708,0,0,0,0,0,0,0,0,0,-1,839,316,0,0
-378,708,0,0,0,0,0,0,0,0,0,-1,846,316,0,0
-371,708,0,0,0,0,0,0,0,0,0,-1,853,316,0,0
-364,708,0,0,0,0,0,0,0,0,0,-1,860,316,0,0
-357,708,0,0,0,0,0,0,0,0,0,-1,867,316,0,0
-350,708,0,0,0,0,0,0,0,0,0,-1,874,316,0,0
-343,708,0,0,0,0,0,0,0,0,0,-1,881,316,0,0
-336,708,0,0,0,0,0,0,0,0,0,-1,888,316,0,0
-329,708,0,0,0,0,0,0,0,0,0,-1,895,316,0,0
-322,708,0,0,0,0,0,0,0,0,0,-1,902,316,0,0
-315,708,0,0,0,0,0,0,0,0,0,-1,909,316,0,0
-308,708,0,0,0,0,0,0,0,0,0,-1,916,316,0,0
-301,708,0,0,0,0,0,0,0,0,0,-1,923,316,0,0
-294,708,0,0,0,0,0,0,0,0,0,-1,930,316,0,0
-287,708,0,0,0,0,0,0,0,0,0,-1,937,316,0,0
-280,708,0,0,0,0,0,0,0,0,0,-1,944,316,0,0
-273,708,0,0,0,0,0,0,0,0,0,-1,951,316,0,0
-266,708,0,0,0,0,0,0,0,0,0,-1,958,316,0,0
-259,708,0,0,0,0,0,0,0,0,0,-1,965,316,0,0
-252,708,0,0,0,0,0,0,0,0,0,-1,972,316,0,0
-245,708,0,0,0,0,0,0,0,0,0,-1,979,316,0,0
-238,708,0,0,0,0,0,0,0,0,0,-1,986,316,0,0
-231,708,0,0,0,0,0,0,0,0,0,-1,993,316,0,0
-224,708,0,0,0,0,0,0,0,0,0,-1,1000,316,0,0
-217,708,0,0,0,0,0,0,0,0,0,-1,1007,316,0,0
-210,708,0,0,0,0,0,0,0,0,0,-1,1014,316,0,0
-203,708,0,0,0,0,0,0,0,0,0,-1,1021,316,0,0
-196,708,0,0,0,0,0,0,0,0,0,-1,1028,316,0,0
-189,708,0,0,0,0,0,0,0,0,0,-1,1035,316,0,0
-182,708,0,0,0,0,0,0,0,0,0,-1,1042,316,0,0
-175,708,0,0,0,0,0,0,0,0,0,-1,1049,316,0,0
-168,708,0,0,0,0,0,0,0,0,0,-1,1056,316,0,0
-161,708,0,0,0,0,0,0,0,0,0,-1,1063,316,0,0
-154,708,0,0,0,0,0,0,0,0,0,-1,1070,316,0,0
-147,708,0,0,0,0,0,0,0,0,0,-1,1077,316,0,0
-140,708,0,0,0,0,0,0,0,0,0,-1,1084,316,0,0
-133,708,0,0,0,0,0,0,0,0,0,-1,1091,316,0,0
-126,708,0,0,0,0,0,0,0,0,0,-1,1098,316,0,0
-119,708,0,0,0,0,0,0,0,0,0,-1,1105,316,0,0
-112,708,0,0,0,0,0,0,0,0,0,-1,1112,316,0,0
-105,708,0,0,0,0,0,0,0,0,0,-1,1119,316,0,0
-98,708,0,0,0,0,0,0,0,0,0,-1,1126,316,0,0
-91,708,0,0,0,0,0,0,0,0,0,-1,1133,316,0,0
-84,708,0,0,0,0,0,0,0,0,0,-1,1140,316,0,0
-77,708,0,0,0,0,0,0,0,0,0,-1,1147,316,0,0
-70,708,0,0,0,0,0,0,0,0,0,-1,1154,316,0,0
-63,708,0,0,0,0,0,0,0,0,0,-1,1161,316,0,0
-56,708,0,0,0,0,0,0,0,0,0,-1,1168,316,0,0
-49,708,0,0,0,0,0,0,0,0,0,-1,1175,316,0,0
-42,708,0,0,0,0,0,0,0,0,0,-1,1182,316,0,0
-35,708,-2.71204,-6.31558,0,0,0,0,0,0,0,-1,1189,316,-2.712,6.3156
-28,708,-2.92371,-5.53253,0,0,0,0,0,0,0,-1,1196,316,-2.92375,5.53254
-21,708,-5.32227,-7.36841,0,0,0,0,0,0,0,-1,1203,316,-5.32232,7.3684
-14,708,1.34778,-13.8938,0,0,0,0,0,0,0,-1,1210,316,1.34782,13.8938
-7,708,-0.717041,-13.5523,0,0,0,0,0,0,0,-1,1217,316,-0.716997,13.5523
0,708,1.42236,-12.9735,0,0,0,0,0,0,0,-1,1224,316,1.42241,12.9735
7,708,1.45117,-12.4814,0,0,0,0,0,0,0,-1,1231,316,1.45113,12.4814
14,708,1.51477,-11.9616,0.053255,0.108911,0.0400176,0.129825,0.0323407,1.08921,0.0780365,0.0415043,1238,316,1.51475,11.9616
21,708,1.72998,-11.677,0.0468144,0.104806,0.0381054,0.123693,0.0279272,1.11063,0.0749087,0.0444795,1245,316,1.73001,11.677
28,708,2.05225,-11.5784,0.0400926,0.100212,0.0345754,0.115967,0.0243369,1.14322,0.0706113,0.0478894,1252,316,2.05225,11.5784
35,708,4.02222,-12.4019,0.0343417,0.0955807,0.0288391,0.107024,0.0228988,1.19306,0.0650733,0.0474344,1259,316,4.02217,12.4019
42,708,3.30762,-11.7106,0.0301234,0.0930001,0.0223239,0.10012,0.0230037,1.26206,0.0605531,0.0444692,1266,316,3.30756,11.7106
49,708,2.68164,-11.4524,0.0260285,0.0904327,0.0143552,0.0934875,0.0229738,1.36112,0.0562532,0.0431726,1273,316,2.68167,11.4524
56,708,2.4032,-11.4455,0.0232649,0.0884996,0.00514919,0.0889035,0.0228609,1.49251,0.0533085,0.0443027,1280,316,2.40317,11.4455
63,708,2.32495,-11.7017,0.0221135,0.0874159,-0.00472256,0.0877556,0.0217738,-1.49898,0.0527652,0.0429472,1287,316,2.325,11.7017
70,708,2.47058,-12.2104,0.0221728,0.0829959,-0.0139457,0.0860409,0.0191278,-1.35582,0.052167,0.0411481,1294,316,2.47055,12.2105
77,708,2.56238,-12.6246,0.0242356,0.0750683,-0.0219939,0.0832634,0.0160406,-1.21413,0.0510098,0.0424592,1301,316,2.56237,12.6246
84,708,2.59485,-12.9379,0.027837,0.059679,-0.02714,0.0752232,0.0122928,-1.05066,0.0465949,0.0458954,1308,316,2.5948,12.9379
91,708,3.47827,-13.4132,0.031832,0.0447946,-0.0331161,0.0720577,0.00456893,-0.882034,0.0465903,0.0488151,1315,316,3.47822,13.4132
98,708,3.97644,-13.6243,0,0,0,0,0,0,0,-1,1322,316,3.97638,13.6243
105,708,1.52283,-16.4234,0,0,0,0,0,0,0,-1,1329,316,1.5228,16.4234
112,708,1.57776,-17.2245,0.0475234,-0.0302162,-0.0367908,0.0621739,-0.0448667,-0.378963,0.0620686,0.0484744,1336,316,1.57775,17.2245
119,708,1.62781,-18.0279,0,0,0,0,0,0,0,-1,1343,316,1.62781,18.0279
126,708,1.6283,-18.8098,0.0571711,-0.0998189,-0.0327761,0.0637393,-0.106387,-0.197774,0.0992459,0.0448492,1350,316,1.62825,18.8098
133,708,1.6936,-19.5649,0,0,0,0,0,0,0,-1,1357,316,1.6936,19.5649
140,708,1.74561,-20.3285,0,0,0,0,0,0,0,-1,1364,316,1.74564,20.3285
147,708,2.74109,-12.0951,0,0,0,0,0,0,0,-1,1371,316,2.74111,12.0951
154,708,0,0,0,0,0,0,0,0,0,-1,1378,316,0,0
161,708,0,0,0,0,0,0,0,0,0,-1,1385,316,0,0
168,708,0,0,0,0,0,0,0,0,0,-1,1392,316,0,0
175,708,0,0,0,0,0,0,0,0,0,-1,1399,316,0,0
182,708,0,0,0,0,0,0,0,0,0,-1,1406,316,0,0
189,708,0,0,0,0,0,0,0,0,0,-1,1413,316,0,0
196,708,0,0,0,0,0,0,0,0,0,-1,1420,316,0,0
203,708,0,0,0,0,0,0,0,0,0,-1,1427,316,0,0
210,708,0,0,0,0,0,0,0,0,0,-1,1434,316,0,0
217,708,0,0,0,0,0,0,0,0,0,-1,1441,316,0,0
224,708,0,0,0,0,0,0,0,0,0,-1,1448,316,0,0
231,708,0,0,0,0,0,0,0,0,0,-1,1455,316,0,0
238,708,0,0,0,0,0,0,0,0,0,-1,1462,316,0,0
245,708,0,0,0,0,0,0,0,0,0,-1,1469,316,0,0
252,708,0,0,0,0,0,0,0,0,0,-1,1476,316,0,0
259,708,0,0,0,0,0,0,0,0,0,-1,1483,316,0,0
266,708,0,0,0,0,0,0,0,0,0,-1,1490,316,0,0
273,708,0,0,0,0,0,0,0,0,0,-1,1497,316,0,0
280,708,0,0,0,0,0,0,0,0,0,-1,1504,316,0,0
287,708,0,0,0,0,0,0,0,0,0,-1,1511,316,0,0
294,708,0,0,0,0,0,0,0,0,0,-1,1518,316,0,0
301,708,0,0,0,0,0,0,0,0,0,-1,1525,316,0,0
308,708,0,0,0,0,0,0,0,0,0,-1,1532,316,0,0
315,708,0,0,0,0,0,0,0,0,0,-1,1539,316,0,0
322,708,0,0,0,0,0,0,0,0,0,-1,1546,316,0,0
329,708,0,0,0,0,0,0,0,0,0,-1,1553,316,0,0
336,708,0,0,0,0,0,0,0,0,0,-1,1560,316,0,0
343,708,0,0,0,0,0,0,0,0,0,-1,1567,316,0,0
350,708,0,0,0,0,0,0,0,0,0,-1,1574,316,0,0
357,708,0,0,0,0,0,0,0,0,0,-1,1581,316,0,0
364,708,0,0,0,0,0,0,0,0,0,-1,1588,316,0,0
371,708,0,0,0,0,0,0,0,0,0,-1,1595,316,0,0
378,708,0,0,0,0,0,0,0,0,0,-1,1602,316,0,0
385,708,0,0,0,0,0,0,0,0,0,-1,1609,316,0,0
392,708,0,0,0,0,0,0,0,0,0,-1,1616,316,0,0
399,708,0,0,0,0,0,0,0,0,0,-1,1623,316,0,0
406,708,0,0,0,0,0,0,0,0,0,-1,1630,316,0,0
413,708,0,0,0,0,0,0,0,0,0,-1,1637,316,0,0
420,708,0,0,0,0,0,0,0,0,0,-1,1644,316,0,0
427,708,0,0,0,0,0,0,0,0,0,-1,1651,316,0,0
434,708,0,0,0,0,0,0,0,0,0,-1,1658,316,0,0
441,708,0,0,0,0,0,0,0,0,0,-1,1665,316,0,0
448,708,0,0,0,0,0,0,0,0,0,-1,1672,316,0,0
455,708,0,0,0,0,0,0,0,0,0,-1,1679,316,0,0
462,708,0,0,0,0,0,0,0,0,0,-1,1686,316,0,0
469,708,0,0,0,0,0,0,0,0,0,-1,1693,316,0,0
476,708,0,0,0,0,0,0,0,0,0,-1,1700,316,0,0
483,708,0,0,0,0,0,0,0,0,0,-1,1707,316,0,0
490,708,0,0,0,0,0,0,0,0,0,-1,1714,316,0,0
497,708,0,0,0,0,0,0,0,0,0,-1,1721,316,0,0
504,708,0,0,0,0,0,0,0,0,0,-1,1728,316,0,0
511,708,0,0,0,0,0,0,0,0,0,-1,1735,316,0,0
518,708,0,0,0,0,0,0,0,0,0,-1,1742,316,0,0
525,708,0,0,0,0,0,0,0,0,0,-1,1749,316,0,0
532,708,0,0,0,0,0,0,0,0,0,-1,1756,316,0,0
539,708,0,0,0,0,0,0,0,0,0,-1,1763,316,0,0
546,708,0,0,0,0,0,0,0,0,0,-1,1770,316,0,0
553,708,0,0,0,0,0,0,0,0,0,-1,1777,316,0,0
560,708,0,0,0,0,0,0,0,0,0,-1,1784,316,0,0
567,708,0,0,0,0,0,0,0,0,0,-1,1791,316,0,0
574,708,0,0,0,0,0,0,0,0,0,-1,1798,316,0,0
581,708,0,0,0,0,0,0,0,0,0,-1,1805,316,0,0
588,708,0,0,0,0,0,0,0,0,0,-1,1812,316,0,0
595,708,0,0,0,0,0,0,0,0,0,-1,1819,316,0,0
602,708,0,0,0,0,0,0,0,0,0,-1,1826,316,0,0
609,708,0,0,0,0,0,0,0,0,0,-1,1833,316,0,0
616,708,0,0,0,0,0,0,0,0,0,-1,1840,316,0,0
623,708,0,0,0,0,0,0,0,0,0,-1,1847,316,0,0
630,708,0,0,0,0,0,0,0,0,0,-1,1854,316,0,0
637,708,0,0,0,0,0,0,0,0,0,-1,1861,316,0,0
644,708,0,0,0,0,0,0,0,0,0,-1,1868,316,0,0
651,708,0,0,0,0,0,0,0,0,0,-1,1875,316,0,0
658,708,0,0,0,0,0,0,0,0,0,-1,1882,316,0,0
665,708,0,0,0,0,0,0,0,0,0,-1,1889,316,0,0
672,708,0,0,0,0,0,0,0,0,0,-1,1896,316,0,0
679,708,0,0,0,0,0,0,0,0,0,-1,1903,316,0,0
686,708,0,0,0,0,0,0,0,0,0,-1,1910,316,0,0
693,708,0,0,0,0,0,0,0,0,0,-1,1917,316,0,0
700,708,0,0,0,0,0,0,0,0,0,-1,1924,316,0,0
707,708,0,0,0,0,0,0,0,0,0,-1,1931,316,0,0
714,708,0,0,0,0,0,0,0,0,0,-1,1938,316,0,0
721,708,0,0,0,0,0,0,0,0,0,-1,1945,316,0,0
728,708,0,0,0,0,0,0,0,0,0,-1,1952,316,0,0
735,708,0,0,0,0,0,0,0,0,0,-1,1959,316,0,0
742,708,0,0,0,0,0,0,0,0,0,-1,1966,316,0,0
749,708,0,0,0,0,0,0,0,0,0,-1,1973,316,0,0
756,708,0,0,0,0,0,0,0,0,0,-1,1980,316,0,0
763,708,0,0,0,0,0,0,0,0,0,-1,1987,316,0,0
770,708,0,0,0,0,0,0,0,0,0,-1,1994,316,0,0
777,708,0,0,0,0,0,0,0,0,0,-1,2001,316,0,0
784,708,0,0,0,0,0,0,0,0,0,-1,2008,316,0,0
791,708,0,0,0,0,0,0,0,0,0,-1,2015,316,0,0
798,708,0,0,0,0,0,0,0,0,0,-1,2022,316,0,0
805,708,0,0,0,0,0,0,0,0,0,-1,2029,316,0,0
812,708,0,0,0,0,0,0,0,0,0,-1,2036,316,0,0
-700,701,0,0,0,0,0,0,0,0,0,-1,524,323,0,0
-693,701,0,0,0,0,0,0,0,0,0,-1,531,323,0,0
-686,701,0,0,0,0,0,0,0,0,0,-1,538,323,0,0
-679,701,0,0,0,0,0,0,0,0,0,-1,545,323,0,0
-672,701,0,0,0,0,0,0,0,0,0,-1,552,323,0,0
-665,701,0,0,0,0,0,0,0,0,0,-1,559,323,0,0
-658,701,0,0,0,0,0,0,0,0,0,-1,566,323,0,0
-651,701,0,0,0,0,0,0,0,0,0,-1,573,323,0,0
-644,701,0,0,0,0,0,0,0,0,0,-1,580,323,0,0
-637,701,0,0,0,0,0,0,0,0,0,-1,587,323,0,0
-630,701,0,0,0,0,0,0,0,0,0,-1,594,323,0,0
-623,701,0,0,0,0,0,0,0,0,0,-1,601,323,0,0
-616,701,0,0,0,0,0,0,0,0,0,-1,608,323,0,0
-609,701,0,0,0,0,0,0,0,0,0,-1,615,323,0,0
-602,701,0,0,0,0,0,0,0,0,0,-1,622,323,0,0
-595,701,0,0,0,0,0,0,0,0,0,-1,629,323,0,0
-588,701,0,0,0,0,0,0,0,0,0,-1,636,323,0,0
-581,701,0,0,0,0,0,0,0,0,0,-1,643,323,0,0
-574,701,0,0,0,0,0,0,0,0,0,-1,650,323,0,0
-567,701,0,0,0,0,0,0,0,0,0,-1,657,323,0,0
-560,701,0,0,0,0,0,0,0,0,0,-1,664,323,0,0
-553,701,0,0,0,0,0,0,0,0,0,-1,671,323,0,0
-546,701,0,0,0,0,0,0,0,0,0,-1,678,323,0,0
-539,701,0,0,0,0,0,0,0,0,0,-1,685,323,0,0
-532,701,0,0,0,0,0,0,0,0,0,-1,692,323,0,0
-525,701,0,0,0,0,0,0,0,0,0,-1,699,323,0,0
-518,701,0,0,0,0,0,0,0,0,0,-1,706,323,0,0
-511,701,0,0,0,0,0,0,0,0,0,-1,713,323,0,0
-504,701,0,0,0,0,0,0,0,0,0,-1,720,323,0,0
-497,701,0,0,0,0,0,0,0,0,0,-1,727,323,0,0
-490,701,0,0,0,0,0,0,0,0,0,-1,734,323,0,0
-483,701,0,0,0,0,0,0,0,0,0,-1,741,323,0,0
-476,701,0,0,0,0,0,0,0,0,0,-1,748,323,0,0
-469,701,0,0,0,0,0,0,0,0,0,-1,755,323,0,0
-462,701,0,0,0,0,0,0,0,0,0,-1,762,323,0,0
-455,701,0,0,0,0,0,0,0,0,0,-1,769,323,0,0
-448,701,0,0,0,0,0,0,0,0,0,-1,776,323,0,0
-441,701,0,0,0,0,0,0,0,0,0,-1,783,323,0,0
-434,701,0,0,0,0,0,0,0,0,0,-1,790,323,0,0
-427,701,0,0,0,0,0,0,0,0,0,-1,797,323,0,0
-420,701,0,0,0,0,0,0,0,0,0,-1,804,323,0,0
-413,701,0,0,0,0,0,0,0,0,0,-1,811,323,0,0
-406,701,0,0,0,0,0,0,0,0,0,-1,818,323,0,0
-399,701,0,0,0,0,0,0,0,0,0,-1,825,323,0,0
-392,701,0,0,0,0,0,0,0,0,0,-1,832,323,0,0
-385,701,0,0,0,0,0,0,0,0,0,-1,839,323,0,0
-378,701,0,0,0,0,0,0,0,0,0,-1,846,323,0,0
-371,701,0,0,0,0,0,0,0,0,0,-1,853,323,0,0
-364,701,0,0,0,0,0,0,0,0,0,-1,860,323,0,0
-357,701,0,0,0,0,0,0,0,0,0,-1,867,323,0,0
-350,701,0,0,0,0,0,0,0,0,0,-1,874,323,0,0
-343,701,0,0,0,0,0,0,0,0,0,-1,881,323,0,0
-336,701,0,0,0,0,0,0,0,0,0,-1,888,323,0,0
-329,701,0,0,0,0,0,0,0,0,0,-1,895,323,0,0
-322,701,0,0,0,0,0,0,0,0,0,-1,902,323,0,0
-315,701,0,0,0,0,0,0,0,0,0,-1,909,323,0,0
-308,701,0,0,0,0,0,0,0,0,0,-1,916,323,0,0
-301,701,0,0,0,0,0,0,0,0,0,-1,923,323,0,0
-294,701,0,0,0,0,0,0,0,0,0,-1,930,323,0,0
-287,701,0,0,0,0,0,0,0,0,0,-1,937,323,0,0
-280,701,0,0,0,0,0,0,0,0,0,-1,944,323,0,0
-273,701,0,0,0,0,0,0,0,0,0,-1,951,323,0,0
-266,701,0,0,0,0,0,0,0,0,0,-1,958,323,0,0
-259,701,0,0,0,0,0,0,0,0,0,-1,965,323,0,0
-252,701,0,0,0,0,0,0,0,0,0,-1,972,323,0,0
-245,701,0,0,0,0,0,0,0,0,0,-1,979,323,0,0
-238,701,0,0,0,0,0,0,0,0,0,-1,986,323,0,0
-231,701,0,0,0,0,0,0,0,0,0,-1,993,323,0,0
-224,701,0,0,0,0,0,0,0,0,0,-1,1000,323,0,0
-217,701,0,0,0,0,0,0,0,0,0,-1,1007,323,0,0
-210,701,0,0,0,0,0,0,0,0,0,-1,1014,323,0,0
-203,701,0,0,0,0,0,0,0,0,0,-1,1021,323,0,0
-196,701,0,0,0,0,0,0,0,0,0,-1,1028,323,0,0
-189,701,0,0,0,0,0,0,0,0,0,-1,1035,323,0,0
-182,701,0,0,0,0,0,0,0,0,0,-1,1042,323,0,0
-175,701,0,0,0,0,0,0,0,0,0,-1,1049,323,0,0
-168,701,0,0,0,0,0,0,0,0,0,-1,1056,323,0,0
-161,701,0,0,0,0,0,0,0,0,0,-1,1063,323,0,0
-154,701,0,0,0,0,0,0,0,0,0,-1,1070,323,0,0
-147,701,0,0,0,0,0,0,0,0,0,-1,1077,323,0,0
-140,701,0,0,0,0,0,0,0,0,0,-1,1084,323,0,0
-133,701,0,0,0,0,0,0,0,0,0,-1,1091,323,0,0
-126,701,0,0,0,0,0,0,0,0,0,-1,1098,323,0,0
-119,701,0,0,0,0,0,0,0,0,0,-1,1105,323,0,0
-112,701,0,0,0,0,0,0,0,0,0,-1,1112,323,0,0
-105,701,0,0,0,0,0,0,0,0,0,-1,1119,323,0,0
-98,701,0,0,0,0,0,0,0,0,0,-1,1126,323,0,0
-91,701,0,0,0,0,0,0,0,0,0,-1,1133,323,0,0
-84,701,0,0,0,0,0,0,0,0,0,-1,1140,323,0,0
-77,701,0,0,0,0,0,0,0,0,0,-1,1147,323,0,0
-70,701,-2.36731,-1.49271,0,0,0,0,0,0,0,-1,1154,323,-2.36729,1.4927
-63,701,-2.479,-0.295959,0,0,0,0,0,0,0,-1,1161,323,-2.47895,0.295961
-56,701,-0.420166,-0.101776,0,0,0,0,0,0,0,-1,1168,323,-0.420119,0.101777
-49,701,-1.09021,-0.155762,0,0,0,0,0,0,0,-1,1175,323,-1.09024,0.155768
-42,701,-0.210327,-0.299133,0,0,0,0,0,0,0,-1,1182,323,-0.210379,0.29914
-35,701,-2.9635,-7.98676,0,0,0,0,0,0,0,-1,1189,323,-2.9635,7.98676
-28,701,-6.64417,-5.4917,0,0,0,0,0,0,0,-1,1196,323,-6.64411,5.4917
-21,701,0.375,-14.0435,0,0,0,0,0,0,0,-1,1203,323,0.375038,14.0435
-14,701,1.77515,-13.5345,0,0,0,0,0,0,0,-1,1210,323,1.77516,13.5345
-7,701,3.17529,-13.0254,0,0,0,0,0,0,0,-1,1217,323,3.17528,13.0254
0,701,4.16638,-12.7989,0,0,0,0,0,0,0,-1,1224,323,4.16636,12.7989
7,701,1.10669,-13.3603,0,0,0,0,0,0,0,-1,1231,323,1.10666,13.3603
14,701,1.16516,-12.9989,0.0412859,0.0806228,0.0287178,0.0957618,0.0261469,1.08565,0.0571552,0.0452438,1238,323,1.16519,12.9989
21,701,1.45654,-12.5934,0.0365258,0.0782234,0.0274011,0.0918056,0.0229436,1.11061,0.0551697,0.0478635,1245,323,1.45658,12.5934
28,701,1.76062,-12.4775,0.0317061,0.0750839,0.024844,0.0863743,0.0204157,1.14425,0.0521277,0.0485228,1252,323,1.76068,12.4775
35,701,2.02844,-12.3595,0.0275466,0.0722755,0.0206883,0.0803771,0.0194451,1.19755,0.0484224,0.0466036,1259,323,2.02838,12.3595
42,701,2.39844,-12.2122,0.0244702,0.0711029,0.015953,0.0760381,0.019535,1.27078,0.0455973,0.0461666,1266,323,2.39842,12.2122
49,701,2.53516,-12.1801,0.0213542,0.0695758,0.0100179,0.0715741,0.0193558,1.3739,0.0427506,0.0445878,1273,323,2.53512,12.18
56,701,2.55212,-12.1308,0.019157,0.067941,0.00285897,0.068108,0.01899,1.51246,0.0405843,0.0457605,1280,323,2.55217,12.1308
63,701,2.35632,-12.2819,0.0181478,0.0671991,-0.00494571,0.0676928,0.0176541,-1.4713,0.0405459,0.0449766,1287,323,2.35632,12.2819
70,701,2.36743,-12.7385,0.0178546,0.0624033,-0.012033,0.0654457,0.0148122,-1.32315,0.0396268,0.0409801,1294,323,2.36747,12.7385
77,701,2.39331,-13.2664,0.0191846,0.0547749,-0.0181519,0.0623995,0.0115601,-1.17313,0.0383318,0.0429125,1301,323,2.39334,13.2664
84,701,3.05017,-13.7438,0.0218919,0.0408235,-0.0217944,0.055119,0.0075965,-0.990269,0.0344938,0.0456795,1308,323,3.05017,13.7438
91,701,3.78137,-14.011,0.024588,0.0275575,-0.0261418,0.0522567,-0.000111211,-0.813766,0.0348749,0.04515,1315,323,3.78137,14.0111
98,701,4.26343,-14.2465,0,0,0,0,0,0,0,-1,1322,323,4.26342,14.2465
105,701,1.82996,-16.5766,0,0,0,0,0,0,0,-1,1329,323,1.82994,16.5766
112,701,1.77393,-17.4483,0,0,0,0,0,0,0,-1,1336,323,1.7739,17.4483
119,701,1.75793,-18.1961,0,0,0,0,0,0,0,-1,1343,323,1.75794,18.1961
126,701,1.60486,-18.6548,0,0,0,0,0,0,0,-1,1350,323,1.60484,18.6549
133,701,1.86255,-19.8275,0,0,0,0,0,0,0,-1,1357,323,1.86256,19.8275
140,701,2.59119,-11.4565,0,0,0,0,0,0,0,-1,1364,323,2.59118,11.4565
147,701,2.72498,-12.005,0,0,0,0,0,0,0,-1,1371,323,2.72502,12.005
154,701,3.31958,-10.9825,0,0,0,0,0,0,0,-1,1378,323,3.31954,10.9825
161,701,3.99817,-10.0332,0,0,0,0,0,0,0,-1,1385,323,3.9982,10.0332
168,701,6.88513,-0.0237427,0,0,0,0,0,0,0,-1,1392,323,6.88517,0.0237498
175,701,6.94556,0.0693054,0,0,0,0,0,0,0,-1,1399,323,6.94555,-0.0692958
182,701,8.80652,5.42807,0,0,0,0,0,0,0,-1,1406,323,8.8065,-5.42808
189,701,8.58081,4.24493,0,0,0,0,0,0,0,-1,1413,323,8.58082,-4.24494
196,701,0,0,0,0,0,0,0,0,0,-1,1420,323,0,0
203,701,0,0,0,0,0,0,0,0,0,-1,1427,323,0,0
210,701,0,0,0,0,0,0,0,0,0,-1,1434,323,0,0
217,701,0,0,0,0,0,0,0,0,0,-1,1441,323,0,0
224,701,0,0,0,0,0,0,0,0,0,-1,1448,323,0,0
231,701,0,0,0,0,0,0,0,0,0,-1,1455,323,0,0
238,701,0,0,0,0,0,0,0,0,0,-1,1462,323,0,0
245,701,0,0,0,0,0,0,0,0,0,-1,1469,323,0,0
252,701,0,0,0,0,0,0,0,0,0,-1,1476,323,0,0
259,701,0,0,0,0,0,0,0,0,0,-1,1483,323,0,0
266,701,0,0,0,0,0,0,0,0,0,-1,1490,323,0,0
273,701,0,0,0,0,0,0,0,0,0,-1,1497,323,0,0
280,701,0,0,0,0,0,0,0,0,0,-1,1504,323,0,0
287,701,0,0,0,0,0,0,0,0,0,-1,1511,323,0,0
294,701,0,0,0,0,0,0,0,0,0,-1,1518,323,0,0
301,701,0,0,0,0,0,0,0,0,0,-1,1525,323,0,0
308,701,0,0,0,0,0,0,0,0,0,-1,1532,323,0,0
315,701,0,0,0,0,0,0,0,0,0,-1,1539,323,0,0
322,701,0,0,0,0,0,0,0,0,0,-1,1546,323,0,0
329,701,0,0,0,0,0,0,0,0,0,-1,1553,323,0,0
336,701,0,0,0,0,0,0,0,0,0,-1,1560,323,0,0
343,701,0,0,0,0,0,0,0,0,0,-1,1567,323,0,0
350,701,0,0,0,0,0,0,0,0,0,-1,1574,323,0,0
357,701,0,0,0,0,0,0,0,0,0,-1,1581,323,0,0
364,701,0,0,0,0,0,0,0,0,0,-1,1588,323,0,0
371,701,0,0,0,0,0,0,0,0,0,-1,1595,323,0,0
378,701,0,0,0,0,0,0,0,0,0,-1,1602,323,0,0
385,701,0,0,0,0,0,0,0,0,0,-1,1609,323,0,0
392,701,0,0,0,0,0,0,0,0,0,-1,1616,323,0,0
399,701,0,0,0,0,0,0,0,0,0,-1,1623,323,0,0
406,701,0,0,0,0,0,0,0,0,0,-1,1630,323,0,0
413,701,0,0,0,0,0,0,0,0,0,-1,1637,323,0,0
420,701,0,0,0,0,0,0,0,0,0,-1,1644,323,0,0
427,701,0,0,0,0,0,0,0,0,0,-1,1651,323,0,0
434,701,0,0,0,0,0,0,0,0,0,-1,1658,323,0,0
441,701,0,0,0,0,0,0,0,0,0,-1,1665,323,0,0
448,701,0,0,0,0,0,0,0,0,0,-1,1672,323,0,0
455,701,0,0,0,0,0,0,0,0,0,-1,1679,323,0,0
462,701,0,0,0,0,0,0,0,0,0,-1,1686,323,0,0
469,701,0,0,0,0,0,0,0,0,0,-1,1693,323,0,0
476,701,0,0,0,0,0,0,0,0,0,-1,1700,323,0,0
483,701,0,0,0,0,0,0,0,0,0,-1,1707,323,0,0
490,701,0,0,0,0,0,0,0,0,0,-1,1714,323,0,0
497,701,0,0,0,0,0,0,0,0,0,-1,1721,323,0,0
504,701,0,0,0,0,0,0,0,0,0,-1,1728,323,0,0
511,701,0,0,0,0,0,0,0,0,0,-1,1735,323,0,0
518,701,0,0,0,0,0,0,0,0,0,-1,1742,323,0,0
525,701,0,0,0,0,0,0,0,0,0,-1,1749,323,0,0
532,701,0,0,0,0,0,0,0,0,0,-1,1756,323,0,0
539,701,0,0,0,0,0,0,0,0,0,-1,1763,323,0,0
546,701,0,0,0,0,0,0,0,0,0,-1,1770,323,0,0
553,701,0,0,0,0,0,0,0,0,0,-1,1777,323,0,0
560,701,0,0,0,0,0,0,0,0,0,-1,1784,323,0,0
567,701,0,0,0,0,0,0,0,0,0,-1,1791,323,0,0
574,701,0,0,0,0,0,0,0,0,0,-1,1798,323,0,0
581,701,0,0,0,0,0,0,0,0,0,-1,1805,323,0,0
588,701,0,0,0,0,0,0,0,0,0,-1,1812,323,0,0
595,701,0,0,0,0,0,0,0,0,0,-1,1819,323,0,0
602,701,0,0,0,0,0,0,0,0,0,-1,1826,323,0,0
609,701,0,0,0,0,0,0,0,0,0,-1,1833,323,0,0
616,701,0,0,0,0,0,0,0,0,0,-1,1840,323,0,0
623,701,0,0,0,0,0,0,0,0,0,-1,1847,323,0,0
630,701,0,0,0,0,0,0,0,0,0,-1,1854,323,0,0
637,701,0,0,0,0,0,0,0,0,0,-1,1861,323,0,0
644,701,0,0,0,0,0,0,0,0,0,-1,1868,323,0,0
651,701,0,0,0,0,0,0,0,0,0,-1,1875,323,0,0
658,701,0,0,0,0,0,0,0,0,0,-1,1882,323,0,0
665,701,0,0,0,0,0,0,0,0,0,-1,1889,323,0,0
672,701,0,0,0,0,0,0,0,0,0,-1,1896,323,0,0
679,701,0,0,0,0,0,0,0,0,0,-1,1903,323,0,0
686,701,0,0,0,0,0,0,0,0,0,-1,1910,323,0,0
693,701,0,0,0,0,0,0,0,0,0,-1,1917,323,0,0
700,701,0,0,0,0,0,0,0,0,0,-1,1924,323,0,0
707,701,0,0,0,0,0,0,0,0,0,-1,1931,323,0,0
714,701,0,0,0,0,0,0,0,0,0,-1,1938,323,0,0
721,701,0,0,0,0,0,0,0,0,0,-1,1945,323,0,0
728,701,0,0,0,0,0,0,0,0,0,-1,1952,323,0,0
735,701,0,0,0,0,0,0,0,0,0,-1,1959,323,0,0
742,701,0,0,0,0,0,0,0,0,0,-1,1966,323,0,0
749,701,0,0,0,0,0,0,0,0,0,-1,1973,323,0,0
756,701,0,0,0,0,0,0,0,0,0,-1,1980,323,0,0
763,701,0,0,0,0,0,0,0,0,0,-1,1987,323,0,0
770,701,0,0,0,0,0,0,0,0,0,-1,1994,323,0,0
777,701,0,0,0,0,0,0,0,0,0,-1,2001,323,0,0
784,701,0,0,0,0,0,0,0,0,0,-1,2008,323,0,0
791,701,0,0,0,0,0,0,0,0,0,-1,2015,323,0,0
798,701,0,0,0,0,0,0,0,0,0,-1,2022,323,0,0
805,701,0,0,0,0,0,0,0,0,0,-1,2029,323,0,0
812,701,0,0,0,0,0,0,0,0,0,-1,2036,323,0,0
-700,694,0,0,0,0,0,0,0,0,0,-1,524,330,0,0
-693,694,0,0,0,0,0,0,0,0,0,-1,531,330,0,0
-686,694,0,0,0,0,0,0,0,0,0,-1,538,330,0,0
-679,694,0,0,0,0,0,0,0,0,0,-1,545,330,0,0
-672,694,0,0,0,0,0,0,0,0,0,-1,552,330,0,0
-665,694,0,0,0,0,0,0,0,0,0,-1,559,330,0,0
-658,694,0,0,0,0,0,0,0,0,0,-1,566,330,0,0
-651,694,0,0,0,0,0,0,0,0,0,-1,573,330,0,0
-644,694,0,0,0,0,0,0,0,0,0,-1,580,330,0,0
-637,694,0,0,0,0,0,0,0,0,0,-1,587,330,0,0
-630,694,0,0,0,0,0,0,0,0,0,-1,594,330,0,0
-623,694,0,0,0,0,0,0,0,0,0,-1,601,330,0,0
-616,694,0,0,0,0,0,0,0,0,0,-1,608,330,0,0
-609,694,0,0,0,0,0,0,0,0,0,-1,615,330,0,0
-602,694,0,0,0,0,0,0,0,0,0,-1,622,330,0,0
-595,694,0,0,0,0,0,0,0,0,0,-1,629,330,0,0
-588,694,0,0,0,0,0,0,0,0,0,-1,636,330,0,0
-581,694,0,0,0,0,0,0,0,0,0,-1,643,330,0,0
-574,694,0,0,0,0,0,0,0,0,0,-1,650,330,0,0
-567,694,0,0,0,0,0,0,0,0,0,-1,657,330,0,0
-560,694,0,0,0,0,0,0,0,0,0,-1,664,330,0,0
-553,694,0,0,0,0,0,0,0,0,0,-1,671,330,0,0
-546,694,0,0,0,0,0,0,0,0,0,-1,678,330,0,0
-539,694,0,0,0,0,0,0,0,0,0,-1,685,330,0,0
-532,694,0,0,0,0,0,0,0,0,0,-1,692,330,0,0
-525,694,0,0,0,0,0,0,0,0,0,-1,699,330,0,0
-518,694,0,0,0,0,0,0,0,0,0,-1,706,330,0,0
-511,694,0,0,0,0,0,0,0,0,0,-1,713,330,0,0
-504,694,0,0,0,0,0,0,0,0,0,-1,720,330,0,0
-497,694,0,0,0,0,0,0,0,0,0,-1,727,330,0,0
-490,694,0,0,0,0,0,0,0,0,0,-1,734,330,0,0
-483,694,0,0,0,0,0,0,0,0,0,-1,741,330,0,0
-476,694,0,0,0,0,0,0,0,0,0,-1,748,330,0,0
-469,694,0,0,0,0,0,0,0,0,0,-1,755,330,0,0
-462,694,0,0,0,0,0,0,0,0,0,-1,762,330,0,0
-455,694,0,0,0,0,0,0,0,0,0,-1,769,330,0,0
-448,694,0,0,0,0,0,0,0,0,0,-1,776,330,0,0
-441,694,0,0,0,0,0,0,0,0,0,-1,783,330,0,0
-434,694,0,0,0,0,0,0,0,0,0,-1,790,330,0,0
-427,694,0,0,0,0,0,0,0,0,0,-1,797,330,0,0
-420,694,0,0,0,0,0,0,0,0,0,-1,804,330,0,0
-413,694,0,0,0,0,0,0,0,0,0,-1,811,330,0,0
-406,694,0,0,0,0,0,0,0,0,0,-1,818,330,0,0
-399,694,0,0,0,0,0,0,0,0,0,-1,825,330,0,0
-392,694,0,0,0,0,0,0,0,0,0,-1,832,330,0,0
-385,694,0,0,0,0,0,0,0,0,0,-1,839,330,0,0
-378,694,0,0,0,0,0,0,0,0,0,-1,846,330,0,0
-371,694,0,0,0,0,0,0,0,0,0,-1,853,330,0,0
-364,694,0,0,0,0,0,0,0,0,0,-1,860,330,0,0
-357,694,0,0,0,0,0,0,0,0,0,-1,867,330,0,0
-350,694,0,0,0,0,0,0,0,0,0,-1,874,330,0,0
-343,694,0,0,0,0,0,0,0,0,0,-1,881,330,0,0
-336,694,0,0,0,0,0,0,0,0,0,-1,888,330,0,0
-329,694,0,0,0,0,0,0,0,0,0,-1,895,330,0,0
-322,694,0,0,0,0,0,0,0,0,0,-1,902,330,0,0
-315,694,0,0,0,0,0,0,0,0,0,-1,909,330,0,0
-308,694,0,0,0,0,0,0,0,0,0,-1,916,330,0,0
-301,694,0,0,0,0,0,0,0,0,0,-1,923,330,0,0
-294,694,0,0,0,0,0,0,0,0,0,-1,930,330,0,0
-287,694,0,0,0,0,0,0,0,0,0,-1,937,330,0,0
-280,694,0,0,0,0,0,0,0,0,0,-1,944,330,0,0
-273,694,0,0,0,0,0,0,0,0,0,-1,951,330,0,0
-266,694,0,0,0,0,0,0,0,0,0,-1,958,330,0,0
-259,694,0,0,0,0,0,0,0,0,0,-1,965,330,0,0
-252,694,0,0,0,0,0,0,0,0,0,-1,972,330,0,0
-245,694,0,0,0,0,0,0,0,0,0,-1,979,330,0,0
-238,694,0,0,0,0,0,0,0,0,0,-1,986,330,0,0
-231,694,0,0,0,0,0,0,0,0,0,-1,993,330,0,0
-224,694,0,0,0,0,0,0,0,0,0,-1,1000,330,0,0
-217,694,0,0,0,0,0,0,0,0,0,-1,1007,330,0,0
-210,694,0,0,0,0,0,0,0,0,0,-1,1014,330,0,0
-203,694,0,0,0,0,0,0,0,0,0,-1,1021,330,0,0
-196,694,0,0,0,0,0,0,0,0,0,-1,1028,330,0,0
-189,694,0,0,0,0,0,0,0,0,0,-1,1035,330,0,0
-182,694,0,0,0,0,0,0,0,0,0,-1,1042,330,0,0
-175,694,0,0,0,0,0,0,0,0,0,-1,1049,330,0,0
-168,694,0,0,0,0,0,0,0,0,0,-1,1056,330,0,0
-161,694,0,0,0,0,0,0,0,0,0,-1,1063,330,0,0
-154,694,0,0,0,0,0,0,0,0,0,-1,1070,330,0,0
-147,694,0,0,0,0,0,0,0,0,0,-1,1077,330,0,0
-140,694,0,0,0,0,0,0,0,0,0,-1,1084,330,0,0
-133,694,0,0,0,0,0,0,0,0,0,-1,1091,330,0,0
-126,694,0,0,0,0,0,0,0,0,0,-1,1098,330,0,0
-119,694,0,0,0,0,0,0,0,0,0,-1,1105,330,0,0
-112,694,0,0,0,0,0,0,0,0,0,-1,1112,330,0,0
-105,694,-1.35962,-7.57141,0,0,0,0,0,0,0,-1,1119,330,-1.3596,7.57142
-98,694,1.34875,-10.1051,0,0,0,0,0,0,0,-1,1126,330,1.34874,10.1051
-91,694,1.35474,-9.22229,0,0,0,0,0,0,0,-1,1133,330,1.35476,9.22229
-84,694,-4.39136,-4.62332,0,0,0,0,0,0,0,-1,1140,330,-4.3914,4.62331
-77,694,-4.93396,-10.2672,0,0,0,0,0,0,0,-1,1147,330,-4.9339,10.2672
-70,694,-6.49402,-10.0714,0,0,0,0,0,0,0,-1,1154,330,-6.49399,10.0714
-63,694,-5.80835,-4.75275,0,0,0,0,0,0,0,-1,1161,330,-5.80834,4.75274
-56,694,-6.50623,-0.649139,0,0,0,0,0,0,0,-1,1168,330,-6.5062,0.649126
-49,694,-1.11426,0.0341797,0,0,0,0,0,0,0,-1,1175,330,-1.11424,-0.0341846
-42,694,-0.346313,-0.709595,0,0,0,0,0,0,0,-1,1182,330,-0.346298,0.709581
-35,694,-0.459106,-1.24713,0,0,0,0,0,0,0,-1,1189,330,-0.459142,1.24714
-28,694,-6.48413,-3.95972,0,0,0,0,0,0,0,-1,1196,330,-6.48414,3.9597
-21,694,0.960938,-13.5858,0,0,0,0,0,0,0,-1,1203,330,0.960971,13.5858
-14,694,1.9281,-13.2338,0,0,0,0,0,0,0,-1,1210,330,1.92813,13.2338
-7,694,2.14697,-12.9357,0,0,0,0,0,0,0,-1,1217,330,2.14698,12.9357
0,694,3.25513,-12.5828,0,0,0,0,0,0,0,-1,1224,330,3.25517,12.5828
7,694,0.775757,-14.4336,0,0,0,0,0,0,0,-1,1231,330,0.77579,14.4336
14,694,1.16943,-14.2148,0,0,0,0,0,0,0,-1,1238,330,1.16945,14.2147
21,694,1.16821,-13.5553,0,0,0,0,0,0,0,-1,1245,330,1.16825,13.5553
28,694,1.46277,-13.3889,0.0242717,0.0549586,0.0173533,0.0627788,0.0164515,1.1474,0.0375886,0.0478759,1252,330,1.46272,13.3889
35,694,1.94543,-12.7976,0.0213282,0.0534353,0.0144342,0.0589703,0.0157933,1.20463,0.0352489,0.0447038,1259,330,1.94542,12.7976
42,694,2.34753,-12.4445,0,0,0,0,0,0,0,-1,1266,330,2.34756,12.4445
49,694,2.52356,-12.541,0,0,0,0,0,0,0,-1,1273,330,2.52362,12.541
56,694,2.68628,-12.6239,0,0,0,0,0,0,0,-1,1280,330,2.68629,12.6239
63,694,2.19531,-12.6505,0.0142616,0.0505198,-0.00461939,0.051099,0.0136824,-1.44605,0.0305444,0.0447645,1287,330,2.19532,12.6505
70,694,2.25952,-13.0649,0.0137777,0.0458168,-0.00993016,0.0486449,0.0109496,-1.29334,0.0294662,0.043394,1294,330,2.2595,13.0649
77,694,2.38147,-13.7503,0.0145772,0.0389195,-0.014485,0.045668,0.00782874,-1.1348,0.0282003,0.0442707,1301,330,2.38152,13.7503
84,694,2.19763,-14.7018,0.0165849,0.0268675,-0.0170249,0.0395105,0.00394191,-0.932038,0.0251296,0.0426784,1308,330,2.19765,14.7018
91,694,2.15576,-15.7516,0.0183585,0.0155018,-0.0201048,0.0370857,-0.00322529,-0.749935,0.025866,0.0458354,1315,330,2.15573,15.7516
98,694,2.15063,-16.6738,0,0,0,0,0,0,0,-1,1322,330,2.15064,16.6738
105,694,2.01648,-16.848,0.0243056,-0.016066,-0.0211246,0.0333382,-0.0250986,-0.40406,0.0338501,0.0454362,1329,330,2.01652,16.848
112,694,1.93152,-17.6046,0.0271292,-0.0361293,-0.0196575,0.0327401,-0.0417402,-0.278038,0.0431057,0.0428133,1336,330,1.93158,17.6046
119,694,1.86084,-18.3408,0,0,0,0,0,0,0,-1,1343,330,1.86081,18.3408
126,694,1.80103,-18.015,0.0331475,-0.0804766,-0.0136944,0.0347747,-0.0821038,-0.118267,0.0692995,0.0431719,1350,330,1.80104,18.015
133,694,1.99219,-19.0817,0.0348415,-0.101152,-0.0089291,0.0354253,-0.101736,-0.0652848,0.0822167,0.0497661,1357,330,1.99213,19.0817
140,694,2.18896,-20.1782,0,0,0,0,0,0,0,-1,1364,330,2.18894,20.1781
147,694,2.42065,-11.7136,0,0,0,0,0,0,0,-1,1371,330,2.42066,11.7136
154,694,2.75391,-11.2273,0,0,0,0,0,0,0,-1,1378,330,2.75386,11.2273
161,694,3.07007,-10.4028,0,0,0,0,0,0,0,-1,1385,330,3.07004,10.4028
168,694,6.77161,1.01288,0,0,0,0,0,0,0,-1,1392,330,6.77156,-1.01287
175,694,6.72839,0.473175,0,0,0,0,0,0,0,-1,1399,330,6.72838,-0.473182
182,694,8.29028,5.75238,0,0,0,0,0,0,0,-1,1406,330,8.29034,-5.75237
189,694,7.9801,4.46118,0,0,0,0,0,0,0,-1,1413,330,7.9801,-4.46118
196,694,7.39331,3.32632,0,0,0,0,0,0,0,-1,1420,330,7.39329,-3.32633
203,694,7.04492,2.20529,0,0,0,0,0,0,0,-1,1427,330,7.04496,-2.20529
210,694,6.44714,0.646912,0,0,0,0,0,0,0,-1,1434,330,6.44717,-0.646903
217,694,7.12061,-0.644958,0,0,0,0,0,0,0,-1,1441,330,7.12059,0.644961
224,694,6.74011,-1.70544,0,0,0,0,0,0,0,-1,1448,330,6.74013,1.70546
231,694,0,0,0,0,0,0,0,0,0,-1,1455,330,0,0
238,694,0,0,0,0,0,0,0,0,0,-1,1462,330,0,0
245,694,0,0,0,0,0,0,0,0,0,-1,1469,330,0,0
252,694,0,0,0,0,0,0,0,0,0,-1,1476,330,0,0
259,694,0,0,0,0,0,0,0,0,0,-1,1483,330,0,0
266,694,0,0,0,0,0,0,0,0,0,-1,1490,330,0,0
273,694,0,0,0,0,0,0,0,0,0,-1,1497,330,0,0
280,694,0,0,0,0,0,0,0,0,0,-1,1504,330,0,0
287,694,0,0,0,0,0,0,0,0,0,-1,1511,330,0,0
294,694,0,0,0,0,0,0,0,0,0,-1,1518,330,0,0
301,694,0,0,0,0,0,0,0,0,0,-1,1525,330,0,0
308,694,0,0,0,0,0,0,0,0,0,-1,1532,330,0,0
315,694,0,0,0,0,0,0,0,0,0,-1,1539,330,0,0
322,694,0,0,0,0,0,0,0,0,0,-1,1546,330,0,0
329,694,0,0,0,0,0,0,0,0,0,-1,1553,330,0,0
336,694,0,0,0,0,0,0,0,0,0,-1,1560,330,0,0
343,694,0,0,0,0,0,0,0,0,0,-1,1567,330,0,0
350,694,0,0,0,0,0,0,0,0,0,-1,1574,330,0,0
357,694,0,0,0,0,0,0,0,0,0,-1,1581,330,0,0
364,694,0,0,0,0,0,0,0,0,0,-1,1588,330,0,0
371,694,0,0,0,0,0,0,0,0,0,-1,1595,330,0,0
378,694,0,0,0,0,0,0,0,0,0,-1,1602,330,0,0
385,694,0,0,0,0,0,0,0,0,0,-1,1609,330,0,0
392,694,0,0,0,0,0,0,0,0,0,-1,1616,330,0,0
399,694,0,0,0,0,0,0,0,0,0,-1,1623,330,0,0
406,694,0,0,0,0,0,0,0,0,0,-1,1630,330,0,0
413,694,0,0,0,0,0,0,0,0,0,-1,1637,330,0,0
420,694,0,0,0,0,0,0,0,0,0,-1,1644,330,0,0
427,694,0,0,0,0,0,0,0,0,0,-1,1651,330,0,0
434,694,0,0,0,0,0,0,0,0,0,-1,1658,330,0,0
441,694,0,0,0,0,0,0,0,0,0,-1,1665,330,0,0
448,694,0,0,0,0,0,0,0,0,0,-1,1672,330,0,0
455,694,0,0,0,0,0,0,0,0,0,-1,1679,330,0,0
462,694,0,0,0,0,0,0,0,0,0,-1,1686,330,0,0
469,694,0,0,0,0,0,0,0,0,0,-1,1693,330,0,0
476,694,0,0,0,0,0,0,0,0,0,-1,1700,330,0,0
483,694,0,0,0,0,0,0,0,0,0,-1,1707,330,0,0
490,694,0,0,0,0,0,0,0,0,0,-1,1714,330,0,0
497,694,0,0,0,0,0,0,0,0,0,-1,1721,330,0,0
504,694,0,0,0,0,0,0,0,0,0,-1,1728,330,0,0
511,694,0,0,0,0,0,0,0,0,0,-1,1735,330,0,0
518,694,0,0,0,0,0,0,0,0,0,-1,1742,330,0,0
525,694,0,0,0,0,0,0,0,0,0,-1,1749,330,0,0
532,694,0,0,0,0,0,0,0,0,0,-1,1756,330,0,0
539,694,0,0,0,0,0,0,0,0,0,-1,1763,330,0,0
546,694,0,0,0,0,0,0,0,0,0,-1,1770,330,0,0
553,694,0,0,0,0,0,0,0,0,0,-1,1777,330,0,0
560,694,0,0,0,0,0,0,0,0,0,-1,1784,330,0,0
567,694,0,0,0,0,0,0,0,0,0,-1,1791,330,0,0
574,694,0,0,0,0,0,0,0,0,0,-1,1798,330,0,0
581,694,0,0,0,0,0,0,0,0,0,-1,1805,330,0,0
588,694,0,0,0,0,0,0,0,0,0,-1,1812,330,0,0
595,694,0,0,0,0,0,0,0,0,0,-1,1819,330,0,0
602,694,0,0,0,0,0,0,0,0,0,-1,1826,330,0,0
609,694,0,0,0,0,0,0,0,0,0,-1,1833,330,0,0
616,694,0,0,0,0,0,0,0,0,0,-1,1840,330,0,0
623,694,0,0,0,0,0,0,0,0,0,-1,1847,330,0,0
630,694,0,0,0,0,0,0,0,0,0,-1,1854,330,0,0
637,694,0,0,0,0,0,0,0,0,0,-1,1861,330,0,0
644,694,0,0,0,0,0,0,0,0,0,-1,1868,330,0,0
651,694,0,0,0,0,0,0,0,0,0,-1,1875,330,0,0
658,694,0,0,0,0,0,0,0,0,0,-1,1882,330,0,0
665,694,0,0,0,0,0,0,0,0,0,-1,1889,330,0,0
672,694,0,0,0,0,0,0,0,0,0,-1,1896,330,0,0
679,694,0,0,0,0,0,0,0,0,0,-1,1903,330,0,0
686,694,0,0,0,0,0,0,0,0,0,-1,1910,330,0,0
693,694,0,0,0,0,0,0,0,0,0,-1,1917,330,0,0
700,694,0,0,0,0,0,0,0,0,0,-1,1924,330,0,0
707,694,0,0,0,0,0,0,0,0,0,-1,1931,330,0,0
714,694,0,0,0,0,0,0,0,0,0,-1,1938,330,0,0
721,694,0,0,0,0,0,0,0,0,0,-1,1945,330,0,0
728,694,0,0,0,0,0,0,0,0,0,-1,1952,330,0,0
735,694,0,0,0,0,0,0,0,0,0,-1,1959,330,0,0
742,694,0,0,0,0,0,0,0,0,0,-1,1966,330,0,0
749,694,0,0,0,0,0,0,0,0,0,-1,1973,330,0,0
756,694,0,0,0,0,0,0,0,0,0,-1,1980,330,0,0
763,694,0,0,0,0,0,0,0,0,0,-1,1987,330,0,0
770,694,0,0,0,0,0,0,0,0,0,-1,1994,330,0,0
777,694,0,0,0,0,0,0,0,0,0,-1,2001,330,0,0
784,694,0,0,0,0,0,0,0,0,0,-1,2008,330,0,0
791,694,0,0,0,0,0,0,0,0,0,-1,2015,330,0,0
798,694,0,0,0,0,0,0,0,0,0,-1,2022,330,0,0
805,694,0,0,0,0,0,0,0,0,0,-1,2029,330,0,0
812,694,0,0,0,0,0,0,0,0,0,-1,2036,330,0,0
-700,687,0,0,0,0,0,0,0,0,0,-1,524,337,0,0
-693,687,0,0,0,0,0,0,0,0,0,-1,531,337,0,0
-686,687,0,0,0,0,0,0,0,0,0,-1,538,337,0,0
-679,687,0,0,0,0,0,0,0,0,0,-1,545,337,0,0
-672,687,0,0,0,0,0,0,0,0,0,-1,552,337,0,0
-665,687,0,0,0,0,0,0,0,0,0,-1,559,337,0,0
-658,687,0,0,0,0,0,0,0,0,0,-1,566,337,0,0
-651,687,0,0,0,0,0,0,0,0,0,-1,573,337,0,0
-644,687,0,0,0,0,0,0,0,0,0,-1,580,337,0,0
-637,687,0,0,0,0,0,0,0,0,0,-1,587,337,0,0
-630,687,0,0,0,0,0,0,0,0,0,-1,594,337,0,0
-623,687,0,0,0,0,0,0,0,0,0,-1,601,337,0,0
-616,687,0,0,0,0,0,0,0,0,0,-1,608,337,0,0
-609,687,0,0,0,0,0,0,0,0,0,-1,615,337,0,0
-602,687,0,0,0,0,0,0,0,0,0,-1,622,337,0,0
-595,687,0,0,0,0,0,0,0,0,0,-1,629,337,0,0
-588,687,0,0,0,0,0,0,0,0,0,-1,636,337,0,0
-581,687,0,0,0,0,0,0,0,0,0,-1,643,337,0,0
-574,687,0,0,0,0,0,0,0,0,0,-1,650,337,0,0
-567,687,0,0,0,0,0,0,0,0,0,-1,657,337,0,0
-560,687,0,0,0,0,0,0,0,0,0,-1,664,337,0,0
-553,687,0,0,0,0,0,0,0,0,0,-1,671,337,0,0
-546,687,0,0,0,0,0,0,0,0,0,-1,678,337,0,0
-539,687,0,0,0,0,0,0,0,0,0,-1,685,337,0,0
-532,687,0,0,0,0,0,0,0,0,0,-1,692,337,0,0
-525,687,0,0,0,0,0,0,0,0,0,-1,699,337,0,0
-518,687,0,0,0,0,0,0,0,0,0,-1,706,337,0,0
-511,687,0,0,0,0,0,0,0,0,0,-1,713,337,0,0
-504,687,0,0,0,0,0,0,0,0,0,-1,720,337,0,0
-497,687,0,0,0,0,0,0,0,0,0,-1,727,337,0,0
-490,687,0,0,0,0,0,0,0,0,0,-1,734,337,0,0
-483,687,0,0,0,0,0,0,0,0,0,-1,741,337,0,0
-476,687,0,0,0,0,0,0,0,0,0,-1,748,337,0,0
-469,687,0,0,0,0,0,0,0,0,0,-1,755,337,0,0
-462,687,0,0,0,0,0,0,0,0,0,-1,762,337,0,0
-455,687,0,0,0,0,0,0,0,0,0,-1,769,337,0,0
-448,687,0,0,0,0,0,0,0,0,0,-1,776,337,0,0
-441,687,0,0,0,0,0,0,0,0,0,-1,783,337,0,0
-434,687,0,0,0,0,0,0,0,0,0,-1,790,337,0,0
-427,687,0,0,0,0,0,0,0,0,0,-1,797,337,0,0
-420,687,0,0,0,0,0,0,0,0,0,-1,804,337,0,0
-413,687,0,0,0,0,0,0,0,0,0,-1,811,337,0,0
-406,687,0,0,0,0,0,0,0,0,0,-1,818,337,0,0
-399,687,0,0,0,0,0,0,0,0,0,-1,825,337,0,0
-392,687,0,0,0,0,0,0,0,0,0,-1,832,337,0,0
-385,687,0,0,0,0,0,0,0,0,0,-1,839,337,0,0
-378,687,0,0,0,0,0,0,0,0,0,-1,846,337,0,0
-371,687,0,0,0,0,0,0,0,0,0,-1,853,337,0,0
-364,687,0,0,0,0,0,0,0,0,0,-1,860,337,0,0
-357,687,0,0,0,0,0,0,0,0,0,-1,867,337,0,0
-350,687,0,0,0,0,0,0,0,0,0,-1,874,337,0,0
-343,687,0,0,0,0,0,0,0,0,0,-1,881,337,0,0
-336,687,0,0,0,0,0,0,0,0,0,-1,888,337,0,0
-329,687,0,0,0,0,0,0,0,0,0,-1,895,337,0,0
-322,687,0,0,0,0,0,0,0,0,0,-1,902,337,0,0
-315,687,0,0,0,0,0,0,0,0,0,-1,909,337,0,0
-308,687,0,0,0,0,0,0,0,0,0,-1,916,337,0,0
-301,687,0,0,0,0,0,0,0,0,0,-1,923,337,0,0
-294,687,0,0,0,0,0,0,0,0,0,-1,930,337,0,0
-287,687,0,0,0,0,0,0,0,0,0,-1,937,337,0,0
-280,687,0,0,0,0,0,0,0,0,0,-1,944,337,0,0
-273,687,0,0,0,0,0,0,0,0,0,-1,951,337,0,0
-266,687,0,0,0,0,0,0,0,0,0,-1,958,337,0,0
-259,687,0,0,0,0,0,0,0,0,0,-1,965,337,0,0
-252,687,0,0,0,0,0,0,0,0,0,-1,972,337,0,0
-245,687,0,0,0,0,0,0,0,0,0,-1,979,337,0,0
-238,687,0,0,0,0,0,0,0,0,0,-1,986,337,0,0
-231,687,0,0,0,0,0,0,0,0,0,-1,993,337,0,0
-224,687,0,0,0,0,0,0,0,0,0,-1,1000,337,0,0
-217,687,0,0,0,0,0,0,0,0,0,-1,1007,337,0,0
-210,687,0,0,0,0,0,0,0,0,0,-1,1014,337,0,0
-203,687,0,0,0,0,0,0,0,0,0,-1,1021,337,0,0
-196,687,0,0,0,0,0,0,0,0,0,-1,1028,337,0,0
-189,687,0,0,0,0,0,0,0,0,0,-1,1035,337,0,0
-182,687,0,0,0,0,0,0,0,0,0,-1,1042,337,0,0
-175,687,0,0,0,0,0,0,0,0,0,-1,1049,337,0,0
-168,687,0,0,0,0,0,0,0,0,0,-1,1056,337,0,0
-161,687,0,0,0,0,0,0,0,0,0,-1,1063,337,0,0
-154,687,0,0,0,0,0,0,0,0,0,-1,1070,337,0,0
-147,687,0,0,0,0,0,0,0,0,0,-1,1077,337,0,0
-140,687,0,0,0,0,0,0,0,0,0,-1,1084,337,0,0
-133,687,1.63049,-10.3847,0,0,0,0,0,0,0,-1,1091,337,1.63044,10.3847
-126,687,1.1925,-12.9811,0,0,0,0,0,0,0,-1,1098,337,1.19252,12.9811
-119,687,0.577881,-11.4252,0,0,0,0,0,0,0,-1,1105,337,0.57784,11.4252
-112,687,0.14917,-11.9645,0,0,0,0,0,0,0,-1,1112,337,0.149153,11.9645
-105,687,-0.227173,-12.5151,0,0,0,0,0,0,0,-1,1119,337,-0.227166,12.5151
-98,687,-1.97437,-6.83603,0,0,0,0,0,0,0,-1,1126,337,-1.97434,6.83603
-91,687,2.28162,-7.72437,0,0,0,0,0,0,0,-1,1133,337,2.28167,7.72437
-84,687,-0.867676,-5.7392,0,0,0,0,0,0,0,-1,1140,337,-0.867619,5.73919
-77,687,-3.63806,-12.9185,0,0,0,0,0,0,0,-1,1147,337,-3.6381,12.9185
-70,687,-6.24756,-13.2618,0,0,0,0,0,0,0,-1,1154,337,-6.24752,13.2618
-63,687,-8.10986,-13.0526,0,0,0,0,0,0,0,-1,1161,337,-8.10984,13.0526
-56,687,-7.86511,-5.93417,0,0,0,0,0,0,0,-1,1168,337,-7.86511,5.93419
-49,687,-7.44934,-0.550262,0,0,0,0,0,0,0,-1,1175,337,-7.44938,0.550261
-42,687,-4.2019,-0.405609,0,0,0,0,0,0,0,-1,1182,337,-4.20192,0.405614
-35,687,-4.42273,-0.688171,0,0,0,0,0,0,0,-1,1189,337,-4.42276,0.688178
-28,687,-1.14038,-1.39072,0,0,0,0,0,0,0,-1,1196,337,-1.14035,1.3907
-21,687,1.35303,-12.8873,0,0,0,0,0,0,0,-1,1203,337,1.35301,12.8873
-14,687,1.92114,-12.8596,0.0292343,0.0321121,0.00642319,0.0372556,0.0240908,0.895587,0.0218157,0.0456625,1210,337,1.92111,12.8596
-7,687,2.21082,-12.86,0.0277804,0.0359842,0.00958712,0.04231,0.0214545,0.98754,0.0244285,0.0481275,1217,337,2.21077,12.86
0,687,2.09009,-12.5706,0,0,0,0,0,0,0,-1,1224,337,2.09004,12.5706
7,687,2.14917,-12.2879,0,0,0,0,0,0,0,-1,1231,337,2.1492,12.2879
14,687,1.56506,-12.8385,0,0,0,0,0,0,0,-1,1238,337,1.56503,12.8385
21,687,1.76123,-12.7941,0.020254,0.0404715,0.012932,0.0467769,0.0139486,1.11713,0.0277302,0.0499675,1245,337,1.7612,12.7941
28,687,1.93347,-12.7365,0.0179519,0.0391457,0.0117191,0.0443485,0.012749,1.15298,0.0263644,0.0471075,1252,337,1.93343,12.7365
35,687,2.11938,-12.7295,0.0159221,0.0384751,0.00974573,0.0421029,0.0122943,1.21444,0.0249994,0.0443897,1259,337,2.11936,12.7295
42,687,2.30774,-12.719,0.0143692,0.0387627,0.00744212,0.0408539,0.012278,1.29686,0.0242046,0.0460138,1266,337,2.30773,12.719
49,687,2.43945,-12.7902,0.0126946,0.0384421,0.00444701,0.0391885,0.0119482,1.4045,0.0231926,0.0481625,1273,337,2.43947,12.7902
56,687,2.69983,-12.8907,0.0114129,0.0373349,0.000475046,0.0373436,0.0114042,1.55248,0.022098,0.0461432,1280,337,2.69979,12.8907
63,687,2.94971,-12.913,0.0107394,0.0369828,-0.0040033,0.0375799,0.0101423,-1.42274,0.0224496,0.0465064,1287,337,2.9497,12.913
70,687,2.19434,-13.2403,0.0101818,0.0326732,-0.00787567,0.0351567,0.00769826,-1.26532,0.0213397,0.0423416,1294,337,2.1943,13.2403
77,687,2.39917,-13.6782,0.0106077,0.0267249,-0.0111826,0.03245,0.00488252,-1.09762,0.0202035,0.0445748,1301,337,2.3992,13.6782
84,687,2.27576,-14.8083,0,0,0,0,0,0,0,-1,1308,337,2.27582,14.8083
91,687,2.23022,-15.8499,0.0131898,0.00729037,-0.0150266,0.0255535,-0.00507334,-0.688481,0.0189545,0.0453531,1315,337,2.23023,15.85
98,687,2.33728,-16.5835,0,0,0,0,0,0,0,-1,1322,337,2.33725,16.5835
105,687,2.23682,-17.2224,0.017401,-0.0178866,-0.0151872,0.0230372,-0.0235228,-0.355356,0.0268819,0.0447464,1329,337,2.23676,17.2224
112,687,2.14612,-17.889,0.0194516,-0.0334436,-0.0137244,0.0228006,-0.0367926,-0.239338,0.0347208,0.0456846,1336,337,2.14608,17.8891
119,687,2.23035,-18.1879,0.021824,-0.0501365,-0.0114396,0.0235988,-0.0519113,-0.153917,0.0446056,0.0435491,1343,337,2.23036,18.1879
126,687,2.39954,-17.5127,0.0238984,-0.0668191,-0.00812536,0.0246204,-0.0675411,-0.0886277,0.0550993,0.0411968,1350,337,2.3995,17.5127
133,687,2.20447,-12.6478,0.0251422,-0.081386,-0.00412562,0.0253018,-0.0815455,-0.0386508,0.0644743,0.0465431,1357,337,2.20444,12.6478
140,687,2.93115,-12.963,0,0,0,0,0,0,0,-1,1364,337,2.93111,12.963
147,687,1.92896,-12.344,0,0,0,0,0,0,0,-1,1371,337,1.92892,12.344
154,687,2.22168,-12.0728,0,0,0,0,0,0,0,-1,1378,337,2.22173,12.0727
161,687,2.62097,-10.8349,0,0,0,0,0,0,0,-1,1385,337,2.62097,10.8349
168,687,6.66968,1.37039,0,0,0,0,0,0,0,-1,1392,337,6.6697,-1.37039
175,687,6.64075,0.771606,0,0,0,0,0,0,0,-1,1399,337,6.64073,-0.771595
182,687,6.67249,0.289917,0,0,0,0,0,0,0,-1,1406,337,6.67247,-0.289916
189,687,7.76062,4.53635,0,0,0,0,0,0,0,-1,1413,337,7.76064,-4.53636
196,687,6.99048,3.2966,0,0,0,0,0,0,0,-1,1420,337,6.99046,-3.2966
203,687,6.36499,2.1445,0,0,0,0,0,0,0,-1,1427,337,6.36499,-2.14451
210,687,6.68066,0.674652,0,0,0,0,0,0,0,-1,1434,337,6.68062,-0.674655
217,687,5.99683,-0.630493,0,0,0,0,0,0,0,-1,1441,337,5.99684,0.630497
224,687,5.52917,0.524902,0,0,0,0,0,0,0,-1,1448,337,5.5292,-0.524915
231,687,5.85583,-1.73651,0,0,0,0,0,0,0,-1,1455,337,5.85577,1.73651
238,687,5.96582,-2.96774,0,0,0,0,0,0,0,-1,1462,337,5.96577,2.96773
245,687,1.28259,2.32211,0,0,0,0,0,0,0,-1,1469,337,1.28258,-2.32211
252,687,1.97278,3.88422,0,0,0,0,0,0,0,-1,1476,337,1.97281,-3.88421
259,687,0,0,0,0,0,0,0,0,0,-1,1483,337,0,0
266,687,0,0,0,0,0,0,0,0,0,-1,1490,337,0,0
273,687,0,0,0,0,0,0,0,0,0,-1,1497,337,0,0
280,687,0,0,0,0,0,0,0,0,0,-1,1504,337,0,0
287,687,0,0,0,0,0,0,0,0,0,-1,1511,337,0,0
294,687,0,0,0,0,0,0,0,0,0,-1,1518,337,0,0
301,687,0,0,0,0,0,0,0,0,0,-1,1525,337,0,0
308,687,0,0,0,0,0,0,0,0,0,-1,1532,337,0,0
315,687,0,0,0,0,0,0,0,0,0,-1,1539,337,0,0
322,687,0,0,0,0,0,0,0,0,0,-1,1546,337,0,0
329,687,0,0,0,0,0,0,0,0,0,-1,1553,337,0,0
336,687,0,0,0,0,0,0,0,0,0,-1,1560,337,0,0
343,687,0,0,0,0,0,0,0,0,0,-1,1567,337,0,0
350,687,0,0,0,0,0,0,0,0,0,-1,1574,337,0,0
357,687,0,0,0,0,0,0,0,0,0,-1,1581,337,0,0
364,687,0,0,0,0,0,0,0,0,0,-1,1588,337,0,0
371,687,0,0,0,0,0,0,0,0,0,-1,1595,337,0,0
378,687,0,0,0,0,0,0,0,0,0,-1,1602,337,0,0
385,687,0,0,0,0,0,0,0,0,0,-1,1609,337,0,0
392,687,0,0,0,0,0,0,0,0,0,-1,1616,337,0,0
399,687,0,0,0,0,0,0,0,0,0,-1,1623,337,0,0
406,687,0,0,0,0,0,0,0,0,0,-1,1630,337,0,0
413,687,0,0,0,0,0,0,0,0,0,-1,1637,337,0,0
420,687,0,0,0,0,0,0,0,0,0,-1,1644,337,0,0
427,687,0,0,0,0,0,0,0,0,0,-1,1651,337,0,0
434,687,0,0,0,0,0,0,0,0,0,-1,1658,337,0,0
441,687,0,0,0,0,0,0,0,0,0,-1,1665,337,0,0
448,687,0,0,0,0,0,0,0,0,0,-1,1672,337,0,0
455,687,0,0,0,0,0,0,0,0,0,-1,1679,337,0,0
462,687,0,0,0,0,0,0,0,0,0,-1,1686,337,0,0
469,687,0,0,0,0,0,0,0,0,0,-1,1693,337,0,0
476,687,0,0,0,0,0,0,0,0,0,-1,1700,337,0,0
483,687,0,0,0,0,0,0,0,0,0,-1,1707,337,0,0
490,687,0,0,0,0,0,0,0,0,0,-1,1714,337,0,0
497,687,0,0,0,0,0,0,0,0,0,-1,1721,337,0,0
504,687,0,0,0,0,0,0,0,0,0,-1,1728,337,0,0
511,687,0,0,0,0,0,0,0,0,0,-1,1735,337,0,0
518,687,0,0,0,0,0,0,0,0,0,-1,1742,337,0,0
525,687,0,0,0,0,0,0,0,0,0,-1,1749,337,0,0
532,687,0,0,0,0,0,0,0,0,0,-1,1756,337,0,0
539,687,0,0,0,0,0,0,0,0,0,-1,1763,337,0,0
546,687,0,0,0,0,0,0,0,0,0,-1,1770,337,0,0
553,687,0,0,0,0,0,0,0,0,0,-1,1777,337,0,0
560,687,0,0,0,0,0,0,0,0,0,-1,1784,337,0,0
567,687,0,0,0,0,0,0,0,0,0,-1,1791,337,0,0
574,687,0,0,0,0,0,0,0,0,0,-1,1798,337,0,0
581,687,0,0,0,0,0,0,0,0,0,-1,1805,337,0,0
588,687,0,0,0,0,0,0,0,0,0,-1,1812,337,0,0
595,687,0,0,0,0,0,0,0,0,0,-1,1819,337,0,0
602,687,0,0,0,0,0,0,0,0,0,-1,1826,337,0,0
609,687,0,0,0,0,0,0,0,0,0,-1,1833,337,0,0
616,687,0,0,0,0,0,0,0,0,0,-1,1840,337,0,0
623,687,0,0,0,0,0,0,0,0,0,-1,1847,337,0,0
630,687,0,0,0,0,0,0,0,0,0,-1,1854,337,0,0
637,687,0,0,0,0,0,0,0,0,0,-1,1861,337,0,0
644,687,0,0,0,0,0,0,0,0,0,-1,1868,337,0,0
651,687,0,0,0,0,0,0,0,0,0,-1,1875,337,0,0
658,687,0,0,0,0,0,0,0,0,0,-1,1882,337,0,0
665,687,0,0,0,0,0,0,0,0,0,-1,1889,337,0,0
672,687,0,0,0,0,0,0,0,0,0,-1,1896,337,0,0
679,687,0,0,0,0,0,0,0,0,0,-1,1903,337,0,0
686,687,0,0,0,0,0,0,0,0,0,-1,1910,337,0,0
693,687,0,0,0,0,0,0,0,0,0,-1,1917,337,0,0
700,687,0,0,0,0,0,0,0,0,0,-1,1924,337,0,0
707,687,0,0,0,0,0,0,0,0,0,-1,1931,337,0,0
714,687,0,0,0,0,0,0,0,0,0,-1,1938,337,0,0
721,687,0,0,0,0,0,0,0,0,0,-1,1945,337,0,0
728,687,0,0,0,0,0,0,0,0,0,-1,1952,337,0,0
735,687,0,0,0,0,0,0,0,0,0,-1,1959,337,0,0
742,687,0,0,0,0,0,0,0,0,0,-1,1966,337,0,0
749,687,0,0,0,0,0,0,0,0,0,-1,1973,337,0,0
756,687,0,0,0,0,0,0,0,0,0,-1,1980,337,0,0
763,687,0,0,0,0,0,0,0,0,0,-1,1987,337,0,0
770,687,0,0,0,0,0,0,0,0,0,-1,1994,337,0,0
777,687,0,0,0,0,0,0,0,0,0,-1,2001,337,0,0
784,687,0,0,0,0,0,0,0,0,0,-1,2008,337,0,0
791,687,0,0,0,0,0,0,0,0,0,-1,2015,337,0,0
798,687,0,0,0,0,0,0,0,0,0,-1,2022,337,0,0
805,687,0,0,0,0,0,0,0,0,0,-1,2029,337,0,0
812,687,0,0,0,0,0,0,0,0,0,-1,2036,337,0,0
-700,680,0,0,0,0,0,0,0,0,0,-1,524,344,0,0
-693,680,0,0,0,0,0,0,0,0,0,-1,531,344,0,0
-686,680,0,0,0,0,0,0,0,0,0,-1,538,344,0,0
-679,680,0,0,0,0,0,0,0,0,0,-1,545,344,0,0
-672,680,0,0,0,0,0,0,0,0,0,-1,552,344,0,0
-665,680,0,0,0,0,0,0,0,0,0,-1,559,344,0,0
-658,680,0,0,0,0,0,0,0,0,0,-1,566,344,0,0
-651,680,0,0,0,0,0,0,0,0,0,-1,573,344,0,0
-644,680,0,0,0,0,0,0,0,0,0,-1,580,344,0,0
-637,680,0,0,0,0,0,0,0,0,0,-1,587,344,0,0
-630,680,0,0,0,0,0,0,0,0,0,-1,594,344,0,0
-623,680,0,0,0,0,0,0,0,0,0,-1,601,344,0,0
-616,680,0,0,0,0,0,0,0,0,0,-1,608,344,0,0
-609,680,0,0,0,0,0,0,0,0,0,-1,615,344,0,0
-602,680,0,0,0,0,0,0,0,0,0,-1,622,344,0,0
-595,680,0,0,0,0,0,0,0,0,0,-1,629,344,0,0
-588,680,0,0,0,0,0,0,0,0,0,-1,636,344,0,0
-581,680,0,0,0,0,0,0,0,0,0,-1,643,344,0,0
-574,680,0,0,0,0,0,0,0,0,0,-1,650,344,0,0
-567,680,0,0,0,0,0,0,0,0,0,-1,657,344,0,0
-560,680,0,0,0,0,0,0,0,0,0,-1,664,344,0,0
-553,680,0,0,0,0,0,0,0,0,0,-1,671,344,0,0
-546,680,0,0,0,0,0,0,0,0,0,-1,678,344,0,0
-539,680,0,0,0,0,0,0,0,0,0,-1,685,344,0,0
-532,680,0,0,0,0,0,0,0,0,0,-1,692,344,0,0
-525,680,0,0,0,0,0,0,0,0,0,-1,699,344,0,0
-518,680,0,0,0,0,0,0,0,0,0,-1,706,344,0,0
-511,680,0,0,0,0,0,0,0,0,0,-1,713,344,0,0
-504,680,0,0,0,0,0,0,0,0,0,-1,720,344,0,0
-497,680,0,0,0,0,0,0,0,0,0,-1,727,344,0,0
-490,680,0,0,0,0,0,0,0,0,0,-1,734,344,0,0
-483,680,0,0,0,0,0,0,0,0,0,-1,741,344,0,0
-476,680,0,0,0,0,0,0,0,0,0,-1,748,344,0,0
-469,680,0,0,0,0,0,0,0,0,0,-1,755,344,0,0
-462,680,0,0,0,0,0,0,0,0,0,-1,762,344,0,0
-455,680,0,0,0,0,0,0,0,0,0,-1,769,344,0,0
-448,680,0,0,0,0,0,0,0,0,0,-1,776,344,0,0
-441,680,0,0,0,0,0,0,0,0,0,-1,783,344,0,0
-434,680,0,0,0,0,0,0,0,0,0,-1,790,344,0,0
-427,680,0,0,0,0,0,0,0,0,0,-1,797,344,0,0
-420,680,0,0,0,0,0,0,0,0,0,-1,804,344,0,0
-413,680,0,0,0,0,0,0,0,0,0,-1,811,344,0,0
-406,680,0,0,0,0,0,0,0,0,0,-1,818,344,0,0
-399,680,0,0,0,0,0,0,0,0,0,-1,825,344,0,0
-392,680,0,0,0,0,0,0,0,0,0,-1,832,344,0,0
-385,680,0,0,0,0,0,0,0,0,0,-1,839,344,0,0
-378,680,0,0,0,0,0,0,0,0,0,-1,846,344,0,0
-371,680,0,0,0,0,0,0,0,0,0,-1,853,344,0,0
-364,680,0,0,0,0,0,0,0,0,0,-1,860,344,0,0
-357,680,0,0,0,0,0,0,0,0,0,-1,867,344,0,0
-350,680,0,0,0,0,0,0,0,0,0,-1,874,344,0,0
-343,680,0,0,0,0,0,0,0,0,0,-1,881,344,0,0
-336,680,0,0,0,0,0,0,0,0,0,-1,888,344,0,0
-329,680,0,0,0,0,0,0,0,0,0,-1,895,344,0,0
-322,680,0,0,0,0,0,0,0,0,0,-1,902,344,0,0
-315,680,0,0,0,0,0,0,0,0,0,-1,909,344,0,0
-308,680,0,0,0,0,0,0,0,0,0,-1,916,344,0,0
-301,680,0,0,0,0,0,0,0,0,0,-1,923,344,0,0
-294,680,0,0,0,0,0,0,0,0,0,-1,930,344,0,0
-287,680,0,0,0,0,0,0,0,0,0,-1,937,344,0,0
-280,680,0,0,0,0,0,0,0,0,0,-1,944,344,0,0
-273,680,0,0,0,0,0,0,0,0,0,-1,951,344,0,0
-266,680,0,0,0,0,0,0,0,0,0,-1,958,344,0,0
-259,680,0,0,0,0,0,0,0,0,0,-1,965,344,0,0
-252,680,0,0,0,0,0,0,0,0,0,-1,972,344,0,0
-245,680,0,0,0,0,0,0,0,0,0,-1,979,344,0,0
-238,680,0,0,0,0,0,0,0,0,0,-1,986,344,0,0
-231,680,0,0,0,0,0,0,0,0,0,-1,993,344,0,0
-224,680,0,0,0,0,0,0,0,0,0,-1,1000,344,0,0
-217,680,0,0,0,0,0,0,0,0,0,-1,1007,344,0,0
-210,680,0,0,0,0,0,0,0,0,0,-1,1014,344,0,0
-203,680,0,0,0,0,0,0,0,0,0,-1,1021,344,0,0
-196,680,0,0,0,0,0,0,0,0,0,-1,1028,344,0,0
-189,680,0,0,0,0,0,0,0,0,0,-1,1035,344,0,0
-182,680,0,0,0,0,0,0,0,0,0,-1,1042,344,0,0
-175,680,0,0,0,0,0,0,0,0,0,-1,1049,344,0,0
-168,680,0,0,0,0,0,0,0,0,0,-1,1056,344,0,0
-161,680,0,0,0,0,0,0,0,0,0,-1,1063,344,0,0
-154,680,-1.22534,-3.19229,0,0,0,0,0,0,0,-1,1070,344,-1.22529,3.1923
-147,680,0.0123291,-14.0207,0,0,0,0,0,0,0,-1,1077,344,0.0123694,14.0207
-140,680,0.468506,-13.4847,0,0,0,0,0,0,0,-1,1084,344,0.468524,13.4847
-133,680,0.971069,-13.0368,0,0,0,0,0,0,0,-1,1091,344,0.971035,13.0368
-126,680,1.53198,-11.9723,0,0,0,0,0,0,0,-1,1098,344,1.53196,11.9723
-119,680,1.50562,-11.3097,0,0,0,0,0,0,0,-1,1105,344,1.50566,11.3097
-112,680,0.719482,-10.732,0,0,0,0,0,0,0,-1,1112,344,0.719423,10.732
-105,680,1.61389,-10.9674,0,0,0,0,0,0,0,-1,1119,344,1.61384,10.9674
-98,680,2.50513,-11.6189,0,0,0,0,0,0,0,-1,1126,344,2.50514,11.6189
-91,680,2.31226,-10.6064,0,0,0,0,0,0,0,-1,1133,344,2.31228,10.6064
-84,680,1.92285,-8.71033,0,0,0,0,0,0,0,-1,1140,344,1.92286,8.71034
-77,680,-0.118652,-5.75586,0,0,0,0,0,0,0,-1,1147,344,-0.118628,5.75586
-70,680,-4.04382,-16.124,0,0,0,0,0,0,0,-1,1154,344,-4.04388,16.124
-63,680,-5.41333,-13.0013,0,0,0,0,0,0,0,-1,1161,344,-5.41332,13.0013
-56,680,-6.96912,-8.83356,0,0,0,0,0,0,0,-1,1168,344,-6.96907,8.83354
-49,680,-6.7677,-2.24063,0,0,0,0,0,0,0,-1,1175,344,-6.76772,2.24063
-42,680,-1.02368,0.618805,0,0,0,0,0,0,0,-1,1182,344,-1.0237,-0.618797
-35,680,-0.947876,-0.942719,0,0,0,0,0,0,0,-1,1189,344,-0.947842,0.942731
-28,680,-1.46118,-1.10574,0,0,0,0,0,0,0,-1,1196,344,-1.4612,1.10575
-21,680,1.9137,-12.6036,0,0,0,0,0,0,0,-1,1203,344,1.91373,12.6036
-14,680,2.13354,-12.7285,0.020119,0.0202246,0.00314309,0.0233153,0.0170283,0.793803,0.0139291,0.0454408,1210,344,2.13354,12.7285
-7,680,2.36926,-12.789,0.019229,0.0232795,0.00547072,0.0270878,0.0154207,0.962673,0.0156891,0.0484195,1217,344,2.3693,12.789
0,680,2.42773,-12.4786,0,0,0,0,0,0,0,-1,1224,344,2.42778,12.4786
7,680,2.4552,-12.63,0,0,0,0,0,0,0,-1,1231,344,2.45516,12.63
14,680,2.46851,-12.7867,0.0159328,0.0278565,0.00863642,0.032389,0.0114003,1.0875,0.018971,0.0440922,1238,344,2.46847,12.7867
21,680,2.02991,-13.0368,0.0142931,0.0278487,0.00840715,0.0318699,0.0102719,1.12465,0.0187834,0.0478597,1245,344,2.02988,13.0368
28,680,2.40198,-12.8001,0.0127923,0.0270447,0.00763561,0.0303629,0.00947407,1.16085,0.0179382,0.0448224,1252,344,2.40195,12.8001
35,680,2.37427,-12.9458,0.0114368,0.0268956,0.00636259,0.0291775,0.00915487,1.22644,0.0172307,0.0424454,1259,344,2.37427,12.9458
42,680,2.33594,-12.7999,0.0103634,0.027444,0.00483984,0.0287201,0.00908738,1.31301,0.01695,0.0420309,1266,344,2.33595,12.7999
49,680,2.2583,-12.7057,0.00917977,0.0274061,0.00281871,0.0278321,0.00875381,1.42081,0.0164333,0.0403905,1273,344,2.25831,12.7057
56,680,2.24512,-12.6868,0.00824472,0.0265295,-1.02477e-05,0.0265295,0.00824472,-1.57024,0.0156782,0.0407389,1280,344,2.24515,12.6868
63,680,2.24597,-12.6711,0.00773368,0.0262819,-0.00325128,0.0268353,0.00718028,-1.4022,0.0160417,0.0401714,1287,344,2.24602,12.6711
70,680,2.20178,-12.6108,0.00718372,0.0225435,-0.00598802,0.024602,0.00512517,-1.23968,0.014988,0.0377193,1294,344,2.20175,12.6108
77,680,2.21021,-12.7092,0.0073586,0.0176208,-0.00831796,0.022263,0.00271644,-1.06176,0.0140245,0.0408662,1301,344,2.21019,12.7092
84,680,2.04187,-12.6055,0.00838843,0.00960091,-0.00947261,0.0184867,-0.000497313,-0.817354,0.0124935,0.0459446,1308,344,2.04184,12.6055
91,680,1.86792,-12.1956,0,0,0,0,0,0,0,-1,1315,344,1.86787,12.1955
98,680,2.55493,-16.9014,0,0,0,0,0,0,0,-1,1322,344,2.5549,16.9014
105,680,2.11658,-13.2183,0,0,0,0,0,0,0,-1,1329,344,2.11656,13.2183
112,680,2.3623,-18.2647,0,0,0,0,0,0,0,-1,1336,344,2.36231,18.2647
119,680,2.5127,-12.2274,0.0150887,-0.0414034,-0.00716058,0.0159822,-0.0422969,-0.124138,0.034772,0.0446706,1343,344,2.51273,12.2274
126,680,1.61096,-11.9875,0.0165542,-0.0531876,-0.00437617,0.0168277,-0.0534611,-0.0624218,0.0423787,0.0428698,1350,344,1.611,11.9875
133,680,2.07983,-12.5898,0.017418,-0.0629817,-0.00120669,0.0174361,-0.0629999,-0.0150041,0.0488602,0.0430493,1357,344,2.07981,12.5899
140,680,2.61829,-13.077,0.0178725,-0.0712137,0.00198819,0.0179169,-0.071258,0.0223028,0.0544689,0.0470749,1364,344,2.61833,13.077
147,680,1.98218,-12.4261,0.0177343,-0.0765309,0.00498831,0.0179975,-0.0767942,0.0527216,0.0581315,0.0449781,1371,344,1.98216,12.4261
154,680,2.15247,-12.3405,0.0185496,-0.074166,0.00712158,0.0190934,-0.0747098,0.0762153,0.0572425,0.048221,1378,344,2.15242,12.3404
161,680,2.34851,-12.1949,0,0,0,0,0,0,0,-1,1385,344,2.34846,12.1949
168,680,6.85046,1.69257,0,0,0,0,0,0,0,-1,1392,344,6.85045,-1.69257
175,680,6.66541,0.942078,0,0,0,0,0,0,0,-1,1399,344,6.66538,-0.942088
182,680,6.52917,0.532379,0,0,0,0,0,0,0,-1,1406,344,6.52922,-0.532385
189,680,7.55884,4.77695,0,0,0,0,0,0,0,-1,1413,344,7.55886,-4.77694
196,680,6.55627,3.35254,0,0,0,0,0,0,0,-1,1420,344,6.55622,-3.35255
203,680,5.7334,1.90753,0,0,0,0,0,0,0,-1,1427,344,5.73341,-1.90754
210,680,5.27515,0.493622,0,0,0,0,0,0,0,-1,1434,344,5.27514,-0.493632
217,680,3.96936,1.3656,0,0,0,0,0,0,0,-1,1441,344,3.96942,-1.36559
224,680,3.9491,-0.640228,0,0,0,0,0,0,0,-1,1448,344,3.94908,0.64024
231,680,4.24866,-1.96881,0,0,0,0,0,0,0,-1,1455,344,4.2486,1.96882
238,680,4.29333,-3.23984,0,0,0,0,0,0,0,-1,1462,344,4.29332,3.23984
245,680,2.44397,0.985382,0,0,0,0,0,0,0,-1,1469,344,2.44402,-0.985394
252,680,3.07349,2.18951,0,0,0,0,0,0,0,-1,1476,344,3.0735,-2.18952
259,680,2.82971,1.30682,0,0,0,0,0,0,0,-1,1483,344,2.82972,-1.30684
266,680,2.67554,1.44067,0,0,0,0,0,0,0,-1,1490,344,2.67551,-1.44066
273,680,2.46411,1.54666,0,0,0,0,0,0,0,-1,1497,344,2.46407,-1.54666
280,680,0,0,0,0,0,0,0,0,0,-1,1504,344,0,0
287,680,0,0,0,0,0,0,0,0,0,-1,1511,344,0,0
294,680,0,0,0,0,0,0,0,0,0,-1,1518,344,0,0
301,680,0,0,0,0,0,0,0,0,0,-1,1525,344,0,0
308,680,0,0,0,0,0,0,0,0,0,-1,1532,344,0,0
315,680,0,0,0,0,0,0,0,0,0,-1,1539,344,0,0
322,680,0,0,0,0,0,0,0,0,0,-1,1546,344,0,0
329,680,0,0,0,0,0,0,0,0,0,-1,1553,344,0,0
336,680,0,0,0,0,0,0,0,0,0,-1,1560,344,0,0
343,680,0,0,0,0,0,0,0,0,0,-1,1567,344,0,0
350,680,0,0,0,0,0,0,0,0,0,-1,1574,344,0,0
357,680,0,0,0,0,0,0,0,0,0,-1,1581,344,0,0
364,680,0,0,0,0,0,0,0,0,0,-1,1588,344,0,0
371,680,0,0,0,0,0,0,0,0,0,-1,1595,344,0,0
378,680,0,0,0,0,0,0,0,0,0,-1,1602,344,0,0
385,680,0,0,0,0,0,0,0,0,0,-1,1609,344,0,0
392,680,0,0,0,0,0,0,0,0,0,-1,1616,344,0,0
399,680,0,0,0,0,0,0,0,0,0,-1,1623,344,0,0
406,680,0,0,0,0,0,0,0,0,0,-1,1630,344,0,0
413,680,0,0,0,0,0,0,0,0,0,-1,1637,344,0,0
420,680,0,0,0,0,0,0,0,0,0,-1,1644,344,0,0
427,680,0,0,0,0,0,0,0,0,0,-1,1651,344,0,0
434,680,0,0,0,0,0,0,0,0,0,-1,1658,344,0,0
441,680,0,0,0,0,0,0,0,0,0,-1,1665,344,0,0
448,680,0,0,0,0,0,0,0,0,0,-1,1672,344,0,0
455,680,0,0,0,0,0,0,0,0,0,-1,1679,344,0,0
462,680,0,0,0,0,0,0,0,0,0,-1,1686,344,0,0
469,680,0,0,0,0,0,0,0,0,0,-1,1693,344,0,0
476,680,0,0,0,0,0,0,0,0,0,-1,1700,344,0,0
483,680,0,0,0,0,0,0,0,0,0,-1,1707,344,0,0
490,680,0,0,0,0,0,0,0,0,0,-1,1714,344,0,0
497,680,0,0,0,0,0,0,0,0,0,-1,1721,344,0,0
504,680,0,0,0,0,0,0,0,0,0,-1,1728,344,0,0
511,680,0,0,0,0,0,0,0,0,0,-1,1735,344,0,0
518,680,0,0,0,0,0,0,0,0,0,-1,1742,344,0,0
525,680,0,0,0,0,0,0,0,0,0,-1,1749,344,0,0
532,680,0,0,0,0,0,0,0,0,0,-1,1756,344,0,0
539,680,0,0,0,0,0,0,0,0,0,-1,1763,344,0,0
546,680,0,0,0,0,0,0,0,0,0,-1,1770,344,0,0
553,680,0,0,0,0,0,0,0,0,0,-1,1777,344,0,0
560,680,0,0,0,0,0,0,0,0,0,-1,1784,344,0,0
567,680,0,0,0,0,0,0,0,0,0,-1,1791,344,0,0
574,680,0,0,0,0,0,0,0,0,0,-1,1798,344,0,0
581,680,0,0,0,0,0,0,0,0,0,-1,1805,344,0,0
588,680,0,0,0,0,0,0,0,0,0,-1,1812,344,0,0
595,680,0,0,0,0,0,0,0,0,0,-1,1819,344,0,0
602,680,0,0,0,0,0,0,0,0,0,-1,1826,344,0,0
609,680,0,0,0,0,0,0,0,0,0,-1,1833,344,0,0
616,680,0,0,0,0,0,0,0,0,0,-1,1840,344,0,0
623,680,0,0,0,0,0,0,0,0,0,-1,1847,344,0,0
630,680,0,0,0,0,0,0,0,0,0,-1,1854,344,0,0
637,680,0,0,0,0,0,0,0,0,0,-1,1861,344,0,0
644,680,0,0,0,0,0,0,0,0,0,-1,1868,344,0,0
651,680,0,0,0,0,0,0,0,0,0,-1,1875,344,0,0
658,680,0,0,0,0,0,0,0,0,0,-1,1882,344,0,0
665,680,0,0,0,0,0,0,0,0,0,-1,1889,344,0,0
672,680,0,0,0,0,0,0,0,0,0,-1,1896,344,0,0
679,680,0,0,0,0,0,0,0,0,0,-1,1903,344,0,0
686,680,0,0,0,0,0,0,0,0,0,-1,1910,344,0,0
693,680,0,0,0,0,0,0,0,0,0,-1,1917,344,0,0
700,680,0,0,0,0,0,0,0,0,0,-1,1924,344,0,0
707,680,0,0,0,0,0,0,0,0,0,-1,1931,344,0,0
714,680,0,0,0,0,0,0,0,0,0,-1,1938,344,0,0
721,680,0,0,0,0,0,0,0,0,0,-1,1945,344,0,0
728,680,0,0,0,0,0,0,0,0,0,-1,1952,344,0,0
735,680,0,0,0,0,0,0,0,0,0,-1,1959,344,0,0
742,680,0,0,0,0,0,0,0,0,0,-1,1966,344,0,0
749,680,0,0,0,0,0,0,0,0,0,-1,1973,344,0,0
756,680,0,0,0,0,0,0,0,0,0,-1,1980,344,0,0
763,680,0,0,0,0,0,0,0,0,0,-1,1987,344,0,0
770,680,0,0,0,0,0,0,0,0,0,-1,1994,344,0,0
777,680,0,0,0,0,0,0,0,0,0,-1,2001,344,0,0
784,680,0,0,0,0,0,0,0,0,0,-1,2008,344,0,0
791,680,0,0,0,0,0,0,0,0,0,-1,2015,344,0,0
798,680,0,0,0,0,0,0,0,0,0,-1,2022,344,0,0
805,680,0,0,0,0,0,0,0,0,0,-1,2029,344,0,0
812,680,0,0,0,0,0,0,0,0,0,-1,2036,344,0,0
-700,673,0,0,0,0,0,0,0,0,0,-1,524,351,0,0
-693,673,0,0,0,0,0,0,0,0,0,-1,531,351,0,0
-686,673,0,0,0,0,0,0,0,0,0,-1,538,351,0,0
-679,673,0,0,0,0,0,0,0,0,0,-1,545,351,0,0
-672,673,0,0,0,0,0,0,0,0,0,-1,552,351,0,0
-665,673,0,0,0,0,0,0,0,0,0,-1,559,351,0,0
-658,673,0,0,0,0,0,0,0,0,0,-1,566,351,0,0
-651,673,0,0,0,0,0,0,0,0,0,-1,573,351,0,0
-644,673,0,0,0,0,0,0,0,0,0,-1,580,351,0,0
-637,673,0,0,0,0,0,0,0,0,0,-1,587,351,0,0
-630,673,0,0,0,0,0,0,0,0,0,-1,594,351,0,0
-623,673,0,0,0,0,0,0,0,0,0,-1,601,351,0,0
-616,673,0,0,0,0,0,0,0,0,0,-1,608,351,0,0
-609,673,0,0,0,0,0,0,0,0,0,-1,615,351,0,0
-602,673,0,0,0,0,0,0,0,0,0,-1,622,351,0,0
-595,673,0,0,0,0,0,0,0,0,0,-1,629,351,0,0
-588,673,0,0,0,0,0,0,0,0,0,-1,636,351,0,0
-581,673,0,0,0,0,0,0,0,0,0,-1,643,351,0,0
-574,673,0,0,0,0,0,0,0,0,0,-1,650,351,0,0
-567,673,0,0,0,0,0,0,0,0,0,-1,657,351,0,0
-560,673,0,0,0,0,0,0,0,0,0,-1,664,351,0,0
-553,673,0,0,0,0,0,0,0,0,0,-1,671,351,0,0
-546,673,0,0,0,0,0,0,0,0,0,-1,678,351,0,0
-539,673,0,0,0,0,0,0,0,0,0,-1,685,351,0,0
-532,673,0,0,0,0,0,0,0,0,0,-1,692,351,0,0
-525,673,0,0,0,0,0,0,0,0,0,-1,699,351,0,0
-518,673,0,0,0,0,0,0,0,0,0,-1,706,351,0,0
-511,673,0,0,0,0,0,0,0,0,0,-1,713,351,0,0
-504,673,0,0,0,0,0,0,0,0,0,-1,720,351,0,0
-497,673,0,0,0,0,0,0,0,0,0,-1,727,351,0,0
-490,673,0,0,0,0,0,0,0,0,0,-1,734,351,0,0
-483,673,0,0,0,0,0,0,0,0,0,-1,741,351,0,0
-476,673,0,0,0,0,0,0,0,0,0,-1,748,351,0,0
-469,673,0,0,0,0,0,0,0,0,0,-1,755,351,0,0
-462,673,0,0,0,0,0,0,0,0,0,-1,762,351,0,0
-455,673,0,0,0,0,0,0,0,0,0,-1,769,351,0,0
-448,673,0,0,0,0,0,0,0,0,0,-1,776,351,0,0
-441,673,0,0,0,0,0,0,0,0,0,-1,783,351,0,0
-434,673,0,0,0,0,0,0,0,0,0,-1,790,351,0,0
-427,673,0,0,0,0,0,0,0,0,0,-1,797,351,0,0
-420,673,0,0,0,0,0,0,0,0,0,-1,804,351,0,0
-413,673,0,0,0,0,0,0,0,0,0,-1,811,351,0,0
-406,673,0,0,0,0,0,0,0,0,0,-1,818,351,0,0
-399,673,0,0,0,0,0,0,0,0,0,-1,825,351,0,0
-392,673,0,0,0,0,0,0,0,0,0,-1,832,351,0,0
-385,673,0,0,0,0,0,0,0,0,0,-1,839,351,0,0
-378,673,0,0,0,0,0,0,0,0,0,-1,846,351,0,0
-371,673,0,0,0,0,0,0,0,0,0,-1,853,351,0,0
-364,673,0,0,0,0,0,0,0,0,0,-1,860,351,0,0
-357,673,0,0,0,0,0,0,0,0,0,-1,867,351,0,0
-350,673,0,0,0,0,0,0,0,0,0,-1,874,351,0,0
-343,673,0,0,0,0,0,0,0,0,0,-1,881,351,0,0
-336,673,0,0,0,0,0,0,0,0,0,-1,888,351,0,0
-329,673,0,0,0,0,0,0,0,0,0,-1,895,351,0,0
-322,673,0,0,0,0,0,0,0,0,0,-1,902,351,0,0
-315,673,0,0,0,0,0,0,0,0,0,-1,909,351,0,0
-308,673,0,0,0,0,0,0,0,0,0,-1,916,351,0,0
-301,673,0,0,0,0,0,0,0,0,0,-1,923,351,0,0
-294,673,0,0,0,0,0,0,0,0,0,-1,930,351,0,0
-287,673,0,0,0,0,0,0,0,0,0,-1,937,351,0,0
-280,673,0,0,0,0,0,0,0,0,0,-1,944,351,0,0
-273,673,0,0,0,0,0,0,0,0,0,-1,951,351,0,0
-266,673,0,0,0,0,0,0,0,0,0,-1,958,351,0,0
-259,673,0,0,0,0,0,0,0,0,0,-1,965,351,0,0
-252,673,0,0,0,0,0,0,0,0,0,-1,972,351,0,0
-245,673,0,0,0,0,0,0,0,0,0,-1,979,351,0,0
-238,673,0,0,0,0,0,0,0,0,0,-1,986,351,0,0
-231,673,0,0,0,0,0,0,0,0,0,-1,993,351,0,0
-224,673,0,0,0,0,0,0,0,0,0,-1,1000,351,0,0
-217,673,0,0,0,0,0,0,0,0,0,-1,1007,351,0,0
-210,673,0,0,0,0,0,0,0,0,0,-1,1014,351,0,0
-203,673,0,0,0,0,0,0,0,0,0,-1,1021,351,0,0
-196,673,0,0,0,0,0,0,0,0,0,-1,1028,351,0,0
-189,673,0,0,0,0,0,0,0,0,0,-1,1035,351,0,0
-182,673,0,0,0,0,0,0,0,0,0,-1,1042,351,0,0
-175,673,5.71729,-7.07901,0,0,0,0,0,0,0,-1,1049,351,5.71723,7.079
-168,673,4.18384,-14.0605,0,0,0,0,0,0,0,-1,1056,351,4.18386,14.0604
-161,673,4.29407,-14.5498,0,0,0,0,0,0,0,-1,1063,351,4.29411,14.5498
-154,673,0.592529,-13.7958,0,0,0,0,0,0,0,-1,1070,351,0.592583,13.7958
-147,673,0.822754,-13.3571,0,0,0,0,0,0,0,-1,1077,351,0.822763,13.3571
-140,673,1.11951,-12.703,0.00561012,-0.0493255,-7.62438e-05,0.00561023,-0.0493256,-0.00138787,0.0349044,0.0401147,1084,351,1.11956,12.703
-133,673,1.45728,-12.0434,0,0,0,0,0,0,0,-1,1091,351,1.45728,12.0434
-126,673,1.80103,-11.055,0,0,0,0,0,0,0,-1,1098,351,1.80097,11.055
-119,673,2.04395,-10.1857,0,0,0,0,0,0,0,-1,1105,351,2.04391,10.1857
-112,673,2.70483,-10.8539,0,0,0,0,0,0,0,-1,1112,351,2.70489,10.8539
-105,673,1.88782,-11.39,0,0,0,0,0,0,0,-1,1119,351,1.88781,11.39
-98,673,2.18018,-11.5153,-0.016381,0.0430682,0.0109902,0.0450349,-0.0183476,1.39372,0.0376596,0.0441922,1126,351,2.18019,11.5153
-91,673,2.11169,-10.9789,-0.0164396,0.0469403,0.0117721,0.0490562,-0.0185555,1.39296,0.0403379,0.0470665,1133,351,2.1117,10.9789
-84,673,1.99487,-9.96609,0,0,0,0,0,0,0,-1,1140,351,1.99493,9.9661
-77,673,1.60266,-8.87473,0,0,0,0,0,0,0,-1,1147,351,1.60268,8.87474
-70,673,1.88684,-4.7381,0,0,0,0,0,0,0,-1,1154,351,1.88682,4.73809
-63,673,1.11719,-2.95016,0,0,0,0,0,0,0,-1,1161,351,1.11724,2.95016
-56,673,-6.18872,-9.52338,0,0,0,0,0,0,0,-1,1168,351,-6.18874,9.52336
-49,673,-0.926758,-0.115448,0,0,0,0,0,0,0,-1,1175,351,-0.926732,0.115444
-42,673,-1.15015,0.289917,0,0,0,0,0,0,0,-1,1182,351,-1.15017,-0.289932
-35,673,-0.919556,-1.00711,0,0,0,0,0,0,0,-1,1189,351,-0.919514,1.00711
-28,673,1.03564,-2.58228,0,0,0,0,0,0,0,-1,1196,351,1.0356,2.58229
-21,673,2.18579,-12.5844,0,0,0,0,0,0,0,-1,1203,351,2.18574,12.5844
-14,673,2.27148,-12.6846,0.0131877,0.0122774,0.00120109,0.014017,0.0114481,0.604286,0.00861697,0.0438056,1210,351,2.27152,12.6846
-7,673,2.36841,-12.6496,0.0127073,0.0145336,0.00281349,0.0165784,0.0106625,0.942314,0.00970141,0.0415802,1217,351,2.3684,12.6496
0,673,2.41504,-12.5872,0.0121921,0.0163352,0.0039508,0.0187246,0.00980271,1.02686,0.0108146,0.0446614,1224,351,2.41505,12.5872
7,673,2.41638,-12.6982,0.0116756,0.0176171,0.00486976,0.0203507,0.00894194,1.05928,0.0117782,0.0441656,1231,351,2.41632,12.6982
14,673,2.44275,-12.7969,0.0107441,0.018318,0.00530719,0.0210508,0.00801131,1.09528,0.0122687,0.0372068,1238,351,2.44275,12.7969
21,673,2.39734,-12.7808,0.00968666,0.0185423,0.00524598,0.0209793,0.00724964,1.13591,0.0123035,0.0247098,1245,351,2.39734,12.7808
28,673,2.37964,-12.7621,0.00876002,0.0180829,0.0047881,0.0201039,0.00673903,1.1714,0.0118153,0.017418,1252,351,2.37969,12.7621
35,673,2.36243,-12.7966,0.00788699,0.0182136,0.00401023,0.019588,0.00651258,1.24062,0.0115188,0.0245607,1259,351,2.36238,12.7966
42,673,2.29468,-12.7372,0.00715876,0.0188353,0.00304773,0.019583,0.00641113,1.33024,0.0115286,0.0279117,1266,351,2.29467,12.7372
49,673,2.25427,-12.7253,0.00633983,0.0189403,0.00173185,0.019174,0.00610613,1.43667,0.0113107,0.0168727,1273,351,2.25423,12.7253
56,673,2.25281,-12.717,0.00567902,0.0182662,-0.000221669,0.0182701,0.00567511,-1.55319,0.0107975,0.0138809,1280,351,2.25278,12.717
63,673,2.29041,-12.7017,0.00531078,0.0180854,-0.00248993,0.0185536,0.00484262,-1.38494,0.0111123,0.0169493,1287,351,2.29041,12.7017
70,673,2.28003,-12.6516,0.00481981,0.0149999,-0.00435447,0.0166083,0.00321134,-1.21696,0.0101722,0.0252979,1294,351,2.28004,12.6516
77,673,2.36316,-12.787,0.00483964,0.0110859,-0.00593718,0.0146713,0.00125428,-1.02753,0.00939074,0.0347124,1301,351,2.3631,12.787
84,673,2.39478,-12.8131,0.00554201,0.00489022,-0.00667846,0.0119025,-0.00147029,-0.761018,0.00846777,0.0405366,1308,351,2.39483,12.8131
91,673,2.24243,-12.7429,0.00591346,-0.000994549,-0.00753658,0.0107498,-0.00583091,-0.570531,0.00971229,0.0428966,1315,351,2.24237,12.7429
98,673,2.13025,-12.6699,0.00679744,-0.00791526,-0.00767088,0.0100693,-0.0111871,-0.403163,0.012278,0.0432491,1322,351,2.13028,12.6699
105,673,2.03186,-12.6882,0.00782262,-0.0155251,-0.00696562,0.00974283,-0.0174453,-0.268989,0.0159057,0.0394318,1329,351,2.0319,12.6882
112,673,2.05066,-12.7848,0.00879564,-0.0239374,-0.00584633,0.00980849,-0.0249502,-0.171543,0.0206929,0.039217,1336,351,2.0506,12.7848
119,673,2.33435,-12.5192,0.00998244,-0.0326953,-0.00415751,0.0103837,-0.0330965,-0.0962111,0.0262201,0.038499,1343,351,2.33437,12.5192
126,673,2.2688,-12.4473,0.0109871,-0.0406661,-0.00195755,0.0110611,-0.0407402,-0.0378257,0.0315013,0.0395396,1350,351,2.26882,12.4473
133,673,2.05408,-12.444,0.0115632,-0.0469287,0.000428483,0.0115663,-0.0469318,0.00732499,0.0357722,0.0398852,1357,351,2.05403,12.444
140,673,2.01526,-12.5012,0.0119021,-0.0520111,0.00272975,0.0120185,-0.0521275,0.0426068,0.0393741,0.039537,1364,351,2.01523,12.5012
147,673,1.98413,-12.4256,0.0117688,-0.0549026,0.00484929,0.0121196,-0.0552534,0.0722276,0.0414701,0.0380362,1371,351,1.98418,12.4256
154,673,1.98096,-12.2734,0.012208,-0.0525778,0.00623507,0.0128026,-0.0531724,0.0950785,0.0403978,0.0363064,1378,351,1.98094,12.2734
161,673,2.04504,-12.2664,0,0,0,0,0,0,0,-1,1385,351,2.045,12.2664
168,673,6.87061,1.83954,0,0,0,0,0,0,0,-1,1392,351,6.87063,-1.83953
175,673,6.6228,1.1459,0,0,0,0,0,0,0,-1,1399,351,6.62276,-1.14591
182,673,6.37244,0.796112,0,0,0,0,0,0,0,-1,1406,351,6.3724,-0.796102
189,673,6.12097,0.265472,0,0,0,0,0,0,0,-1,1413,351,6.121,-0.265482
196,673,6.02173,3.12717,0,0,0,0,0,0,0,-1,1420,351,6.02176,-3.12717
203,673,5.04456,1.6351,0,0,0,0,0,0,0,-1,1427,351,5.04455,-1.63509
210,673,4.79224,0.447479,0,0,0,0,0,0,0,-1,1434,351,4.79229,-0.447469
217,673,2.01648,0.972687,0,0,0,0,0,0,0,-1,1441,351,2.01644,-0.972691
224,673,2.3689,-1.80539,0,0,0,0,0,0,0,-1,1448,351,2.36896,1.80539
231,673,2.65857,-2.18497,0,0,0,0,0,0,0,-1,1455,351,2.65852,2.18496
238,673,3.24146,-1.01593,0,0,0,0,0,0,0,-1,1462,351,3.24142,1.01593
245,673,3.5376,-0.190399,0,0,0,0,0,0,0,-1,1469,351,3.53759,0.1904
252,673,3.80518,0.55603,0,0,0,0,0,0,0,-1,1476,351,3.80519,-0.556022
259,673,3.88562,1.29617,0,0,0,0,0,0,0,-1,1483,351,3.88562,-1.29618
266,673,4.22424,2.04834,0,0,0,0,0,0,0,-1,1490,351,4.22429,-2.04834
273,673,6.07886,0.385895,0,0,0,0,0,0,0,-1,1497,351,6.0789,-0.385906
280,673,6.97534,-0.0820007,0,0,0,0,0,0,0,-1,1504,351,6.97536,0.0820122
287,673,7.66968,-0.348541,0,0,0,0,0,0,0,-1,1511,351,7.66969,0.348534
294,673,8.20996,0.28537,0,0,0,0,0,0,0,-1,1518,351,8.20993,-0.28536
301,673,0,0,0,0,0,0,0,0,0,-1,1525,351,0,0
308,673,0,0,0,0,0,0,0,0,0,-1,1532,351,0,0
315,673,0,0,0,0,0,0,0,0,0,-1,1539,351,0,0
322,673,0,0,0,0,0,0,0,0,0,-1,1546,351,0,0
329,673,0,0,0,0,0,0,0,0,0,-1,1553,351,0,0
336,673,0,0,0,0,0,0,0,0,0,-1,1560,351,0,0
343,673,0,0,0,0,0,0,0,0,0,-1,1567,351,0,0
350,673,0,0,0,0,0,0,0,0,0,-1,1574,351,0,0
357,673,0,0,0,0,0,0,0,0,0,-1,1581,351,0,0
364,673,0,0,0,0,0,0,0,0,0,-1,1588,351,0,0
371,673,0,0,0,0,0,0,0,0,0,-1,1595,351,0,0
378,673,0,0,0,0,0,0,0,0,0,-1,1602,351,0,0
385,673,0,0,0,0,0,0,0,0,0,-1,1609,351,0,0
392,673,0,0,0,0,0,0,0,0,0,-1,1616,351,0,0
399,673,0,0,0,0,0,0,0,0,0,-1,1623,351,0,0
406,673,0,0,0,0,0,0,0,0,0,-1,1630,351,0,0
413,673,0,0,0,0,0,0,0,0,0,-1,1637,351,0,0
420,673,0,0,0,0,0,0,0,0,0,-1,1644,351,0,0
427,673,0,0,0,0,0,0,0,0,0,-1,1651,351,0,0
434,673,0,0,0,0,0,0,0,0,0,-1,1658,351,0,0
441,673,0,0,0,0,0,0,0,0,0,-1,1665,351,0,0
448,673,0,0,0,0,0,0,0,0,0,-1,1672,351,0,0
455,673,0,0,0,0,0,0,0,0,0,-1,1679,351,0,0
462,673,0,0,0,0,0,0,0,0,0,-1,1686,351,0,0
469,673,0,0,0,0,0,0,0,0,0,-1,1693,351,0,0
476,673,0,0,0,0,0,0,0,0,0,-1,1700,351,0,0
483,673,0,0,0,0,0,0,0,0,0,-1,1707,351,0,0
490,673,0,0,0,0,0,0,0,0,0,-1,1714,351,0,0
497,673,0,0,0,0,0,0,0,0,0,-1,1721,351,0,0
504,673,0,0,0,0,0,0,0,0,0,-1,1728,351,0,0
511,673,0,0,0,0,0,0,0,0,0,-1,1735,351,0,0
518,673,0,0,0,0,0,0,0,0,0,-1,1742,351,0,0
525,673,0,0,0,0,0,0,0,0,0,-1,1749,351,0,0
532,673,0,0,0,0,0,0,0,0,0,-1,1756,351,0,0
539,673,0,0,0,0,0,0,0,0,0,-1,1763,351,0,0
546,673,0,0,0,0,0,0,0,0,0,-1,1770,351,0,0
553,673,0,0,0,0,0,0,0,0,0,-1,1777,351,0,0
560,673,0,0,0,0,0,0,0,0,0,-1,1784,351,0,0
567,673,0,0,0,0,0,0,0,0,0,-1,1791,351,0,0
574,673,0,0,0,0,0,0,0,0,0,-1,1798,351,0,0
581,673,0,0,0,0,0,0,0,0,0,-1,1805,351,0,0
588,673,0,0,0,0,0,0,0,0,0,-1,1812,351,0,0
595,673,0,0,0,0,0,0,0,0,0,-1,1819,351,0,0
602,673,0,0,0,0,0,0,0,0,0,-1,1826,351,0,0
609,673,0,0,0,0,0,0,0,0,0,-1,1833,351,0,0
616,673,0,0,0,0,0,0,0,0,0,-1,1840,351,0,0
623,673,0,0,0,0,0,0,0,0,0,-1,1847,351,0,0
630,673,0,0,0,0,0,0,0,0,0,-1,1854,351,0,0
637,673,0,0,0,0,0,0,0,0,0,-1,1861,351,0,0
644,673,0,0,0,0,0,0,0,0,0,-1,1868,351,0,0
651,673,0,0,0,0,0,0,0,0,0,-1,1875,351,0,0
658,673,0,0,0,0,0,0,0,0,0,-1,1882,351,0,0
665,673,0,0,0,0,0,0,0,0,0,-1,1889,351,0,0
672,673,0,0,0,0,0,0,0,0,0,-1,1896,351,0,0
679,673,0,0,0,0,0,0,0,0,0,-1,1903,351,0,0
686,673,0,0,0,0,0,0,0,0,0,-1,1910,351,0,0
693,673,0,0,0,0,0,0,0,0,0,-1,1917,351,0,0
700,673,0,0,0,0,0,0,0,0,0,-1,1924,351,0,0
707,673,0,0,0,0,0,0,0,0,0,-1,1931,351,0,0
714,673,0,0,0,0,0,0,0,0,0,-1,1938,351,0,0
721,673,0,0,0,0,0,0,0,0,0,-1,1945,351,0,0
728,673,0,0,0,0,0,0,0,0,0,-1,1952,351,0,0
735,673,0,0,0,0,0,0,0,0,0,-1,1959,351,0,0
742,673,0,0,0,0,0,0,0,0,0,-1,1966,351,0,0
749,673,0,0,0,0,0,0,0,0,0,-1,1973,351,0,0
756,673,0,0,0,0,0,0,0,0,0,-1,1980,351,0,0
763,673,0,0,0,0,0,0,0,0,0,-1,1987,351,0,0
770,673,0,0,0,0,0,0,0,0,0,-1,1994,351,0,0
777,673,0,0,0,0,0,0,0,0,0,-1,2001,351,0,0
784,673,0,0,0,0,0,0,0,0,0,-1,2008,351,0,0
791,673,0,0,0,0,0,0,0,0,0,-1,2015,351,0,0
798,673,0,0,0,0,0,0,0,0,0,-1,2022,351,0,0
805,673,0,0,0,0,0,0,0,0,0,-1,2029,351,0,0
812,673,0,0,0,0,0,0,0,0,0,-1,2036,351,0,0
-700,666,0,0,0,0,0,0,0,0,0,-1,524,358,0,0
-693,666,0,0,0,0,0,0,0,0,0,-1,531,358,0,0
-686,666,0,0,0,0,0,0,0,0,0,-1,538,358,0,0
-679,666,0,0,0,0,0,0,0,0,0,-1,545,358,0,0
-672,666,0,0,0,0,0,0,0,0,0,-1,552,358,0,0
-665,666,0,0,0,0,0,0,0,0,0,-1,559,358,0,0
-658,666,0,0,0,0,0,0,0,0,0,-1,566,358,0,0
-651,666,0,0,0,0,0,0,0,0,0,-1,573,358,0,0
-644,666,0,0,0,0,0,0,0,0,0,-1,580,358,0,0
-637,666,0,0,0,0,0,0,0,0,0,-1,587,358,0,0
-630,666,0,0,0,0,0,0,0,0,0,-1,594,358,0,0
-623,666,0,0,0,0,0,0,0,0,0,-1,601,358,0,0
-616,666,0,0,0,0,0,0,0,0,0,-1,608,358,0,0
-609,666,0,0,0,0,0,0,0,0,0,-1,615,358,0,0
-602,666,0,0,0,0,0,0,0,0,0,-1,622,358,0,0
-595,666,0,0,0,0,0,0,0,0,0,-1,629,358,0,0
-588,666,0,0,0,0,0,0,0,0,0,-1,636,358,0,0
-581,666,0,0,0,0,0,0,0,0,0,-1,643,358,0,0
-574,666,0,0,0,0,0,0,0,0,0,-1,650,358,0,0
-567,666,0,0,0,0,0,0,0,0,0,-1,657,358,0,0
-560,666,0,0,0,0,0,0,0,0,0,-1,664,358,0,0
-553,666,0,0,0,0,0,0,0,0,0,-1,671,358,0,0
-546,666,0,0,0,0,0,0,0,0,0,-1,678,358,0,0
-539,666,0,0,0,0,0,0,0,0,0,-1,685,358,0,0
-532,666,0,0,0,0,0,0,0,0,0,-1,692,358,0,0
-525,666,0,0,0,0,0,0,0,0,0,-1,699,358,0,0
-518,666,0,0,0,0,0,0,0,0,0,-1,706,358,0,0
-511,666,0,0,0,0,0,0,0,0,0,-1,713,358,0,0
-504,666,0,0,0,0,0,0,0,0,0,-1,720,358,0,0
-497,666,0,0,0,0,0,0,0,0,0,-1,727,358,0,0
-490,666,0,0,0,0,0,0,0,0,0,-1,734,358,0,0
-483,666,0,0,0,0,0,0,0,0,0,-1,741,358,0,0
-476,666,0,0,0,0,0,0,0,0,0,-1,748,358,0,0
-469,666,0,0,0,0,0,0,0,0,0,-1,755,358,0,0
-462,666,0,0,0,0,0,0,0,0,0,-1,762,358,0,0
-455,666,0,0,0,0,0,0,0,0,0,-1,769,358,0,0
-448,666,0,0,0,0,0,0,0,0,0,-1,776,358,0,0
-441,666,0,0,0,0,0,0,0,0,0,-1,783,358,0,0
-434,666,0,0,0,0,0,0,0,0,0,-1,790,358,0,0
-427,666,0,0,0,0,0,0,0,0,0,-1,797,358,0,0
-420,666,0,0,0,0,0,0,0,0,0,-1,804,358,0,0
-413,666,0,0,0,0,0,0,0,0,0,-1,811,358,0,0
-406,666,0,0,0,0,0,0,0,0,0,-1,818,358,0,0
-399,666,0,0,0,0,0,0,0,0,0,-1,825,358,0,0
-392,666,0,0,0,0,0,0,0,0,0,-1,832,358,0,0
-385,666,0,0,0,0,0,0,0,0,0,-1,839,358,0,0
-378,666,0,0,0,0,0,0,0,0,0,-1,846,358,0,0
-371,666,0,0,0,0,0,0,0,0,0,-1,853,358,0,0
-364,666,0,0,0,0,0,0,0,0,0,-1,860,358,0,0
-357,666,0,0,0,0,0,0,0,0,0,-1,867,358,0,0
-350,666,0,0,0,0,0,0,0,0,0,-1,874,358,0,0
-343,666,0,0,0,0,0,0,0,0,0,-1,881,358,0,0
-336,666,0,0,0,0,0,0,0,0,0,-1,888,358,0,0
-329,666,0,0,0,0,0,0,0,0,0,-1,895,358,0,0
-322,666,0,0,0,0,0,0,0,0,0,-1,902,358,0,0
-315,666,0,0,0,0,0,0,0,0,0,-1,909,358,0,0
-308,666,0,0,0,0,0,0,0,0,0,-1,916,358,0,0
-301,666,0,0,0,0,0,0,0,0,0,-1,923,358,0,0
-294,666,0,0,0,0,0,0,0,0,0,-1,930,358,0,0
-287,666,0,0,0,0,0,0,0,0,0,-1,937,358,0,0
-280,666,0,0,0,0,0,0,0,0,0,-1,944,358,0,0
-273,666,0,0,0,0,0,0,0,0,0,-1,951,358,0,0
-266,666,0,0,0,0,0,0,0,0,0,-1,958,358,0,0
-259,666,0,0,0,0,0,0,0,0,0,-1,965,358,0,0
-252,666,0,0,0,0,0,0,0,0,0,-1,972,358,0,0
-245,666,0,0,0,0,0,0,0,0,0,-1,979,358,0,0
-238,666,0,0,0,0,0,0,0,0,0,-1,986,358,0,0
-231,666,0,0,0,0,0,0,0,0,0,-1,993,358,0,0
-224,666,0,0,0,0,0,0,0,0,0,-1,1000,358,0,0
-217,666,0,0,0,0,0,0,0,0,0,-1,1007,358,0,0
-210,666,0,0,0,0,0,0,0,0,0,-1,1014,358,0,0
-203,666,0,0,0,0,0,0,0,0,0,-1,1021,358,0,0
-196,666,1.68958,-9.41406,0,0,0,0,0,0,0,-1,1028,358,1.68961,9.41406
-189,666,1.56323,-9.65897,0,0,0,0,0,0,0,-1,1035,358,1.56321,9.65897
-182,666,6.93665,-11.2356,0,0,0,0,0,0,0,-1,1042,358,6.93664,11.2356
-175,666,3.77075,-12.9751,0,0,0,0,0,0,0,-1,1049,358,3.77074,12.9751
-168,666,3.89209,-13.4684,0.0119227,-0.0869643,-0.00338989,0.0120388,-0.0870804,-0.0342269,0.0624545,0.0466461,1056,358,3.89205,13.4684
-161,666,4.00537,-13.9631,0.00911888,-0.0774411,-0.00297932,0.0092213,-0.0775435,-0.0343649,0.0550276,0.048389,1063,358,4.00538,13.9631
-154,666,4.16418,-14.5771,0.00674818,-0.0671892,-0.00258523,0.00683846,-0.0672795,-0.0349083,0.0472976,0.0452164,1070,358,4.16413,14.5771
-147,666,2.17163,-12.9633,0,0,0,0,0,0,0,-1,1077,358,2.17157,12.9633
-140,666,1.78699,-12.0313,0,0,0,0,0,0,0,-1,1084,358,1.78693,12.0313
-133,666,2.16809,-11.2352,0,0,0,0,0,0,0,-1,1091,358,2.16806,11.2352
-126,666,2.2146,-10.0772,0,0,0,0,0,0,0,-1,1098,358,2.21456,10.0772
-119,666,2.74854,-11.2774,0,0,0,0,0,0,0,-1,1105,358,2.74851,11.2774
-112,666,2.60303,-11.1183,-0.0101121,0.0143788,0.00431351,0.0151163,-0.0108496,1.40146,0.0150587,0.0446838,1112,358,2.60304,11.1183
-105,666,1.83618,-11.8454,0,0,0,0,0,0,0,-1,1119,358,1.83614,11.8454
-98,666,1.94617,-11.8299,-0.0136261,0.0318862,0.00640848,0.0327713,-0.0145113,1.43354,0.0279689,0.046478,1126,358,1.94621,11.8299
-91,666,2.04395,-11.5749,-0.0134574,0.0346516,0.00663812,0.0355507,-0.0143566,1.43617,0.0296674,0.0472379,1133,358,2.04389,11.5749
-84,666,1.21863,-11.2328,0,0,0,0,0,0,0,-1,1140,358,1.2186,11.2328
-77,666,0.964722,-10.3601,0,0,0,0,0,0,0,-1,1147,358,0.964669,10.3601
-70,666,2.05957,-6.51086,0,0,0,0,0,0,0,-1,1154,358,2.05959,6.51088
-63,666,1.47485,-3.79593,0,0,0,0,0,0,0,-1,1161,358,1.47481,3.79593
-56,666,0.424683,-2.04132,0,0,0,0,0,0,0,-1,1168,358,0.424665,2.04132
-49,666,0.754395,-2.23169,0,0,0,0,0,0,0,-1,1175,358,0.754383,2.23169
-42,666,1.34473,-3.53897,0,0,0,0,0,0,0,-1,1182,358,1.34476,3.53896
-35,666,2.20581,-12.8286,0,0,0,0,0,0,0,-1,1189,358,2.20585,12.8287
-28,666,2.41516,-12.7104,0,0,0,0,0,0,0,-1,1196,358,2.41521,12.7105
-21,666,2.40405,-12.5827,0.00749982,0.00596134,-0.00101413,0.00800345,0.00545772,-0.460933,0.00472164,0.0323758,1203,358,2.404,12.5827
-14,666,2.39392,-12.6689,0.00822779,0.00716507,0.000190923,0.00826105,0.00713181,0.172472,0.00517221,0.0232746,1210,358,2.39393,12.6689
-7,666,2.38489,-12.6822,0.0080074,0.00874246,0.00124271,0.00967086,0.00707901,0.929174,0.00578034,0.0159181,1217,358,2.38483,12.6822
0,666,2.40845,-12.6894,0.00774804,0.0100292,0.00203088,0.0112178,0.00655936,1.04125,0.00650754,0.0118589,1224,358,2.40849,12.6894
7,666,2.37708,-12.7454,0.00750336,0.0109911,0.00272182,0.0124798,0.00601468,1.0703,0.00720676,0.0158024,1231,358,2.37709,12.7454
14,666,2.33789,-12.7626,0.00694719,0.0116311,0.00309609,0.0131712,0.00540706,1.1092,0.00764487,0.0154414,1238,358,2.33784,12.7626
21,666,2.32507,-12.772,0.00630021,0.011939,0.00312669,0.0133297,0.00490948,1.15228,0.00778439,0.0109045,1245,358,2.32507,12.772
28,666,2.3042,-12.7729,0.00576688,0.0116937,0.00287709,0.0128606,0.00459999,1.18549,0.00752469,0.0107828,1252,358,2.30421,12.7729
35,666,2.31506,-12.7643,0.00522765,0.0119346,0.00243103,0.0127231,0.00443918,1.25717,0.00745662,0.0102491,1259,358,2.31507,12.7643
42,666,2.29199,-12.7854,0.0047429,0.0125086,0.00185538,0.0129291,0.00432239,1.34792,0.00760003,0.0120043,1266,358,2.29202,12.7854
49,666,2.2605,-12.7868,0.00418634,0.0126589,0.00103086,0.0127825,0.00406272,1.45145,0.00754151,0.0100949,1273,358,2.26052,12.7868
56,666,2.27185,-12.7711,0.00373267,0.0121523,-0.000277019,0.0121614,0.00372357,-1.53794,0.00719508,0.0110367,1280,358,2.27183,12.771
63,666,2.25525,-12.7622,0.00348046,0.0120134,-0.00181054,0.0123817,0.00311218,-1.37013,0.00743736,0.0131037,1287,358,2.25526,12.7622
70,666,2.23633,-12.7404,0.00307435,0.00958857,-0.00303033,0.0107802,0.00188268,-1.19612,0.00664872,0.012864,1294,358,2.23638,12.7404
77,666,2.24902,-12.7346,0.0030105,0.00660295,-0.00406064,0.00924691,0.000366537,-0.993635,0.00604613,0.0161921,1301,358,2.24898,12.7346
84,666,2.21729,-12.7291,0.00347024,0.00199497,-0.00451481,0.00730728,-0.00184207,-0.704423,0.00558769,0.0211659,1308,358,2.21729,12.7291
91,666,2.18994,-12.7042,0.00364293,-0.00241928,-0.00501006,0.00646745,-0.0052438,-0.513353,0.00677378,0.0195305,1315,358,2.18998,12.7042
98,666,2.14929,-12.6596,0.00417686,-0.00746218,-0.00499558,0.00602694,-0.00931226,-0.35468,0.00892354,0.0183723,1322,358,2.14934,12.6596
105,666,2.10327,-12.6014,0.0048581,-0.0128994,-0.00437375,0.00587692,-0.0139182,-0.228858,0.0117389,0.0200556,1329,358,2.10322,12.6014
112,666,2.12,-12.5674,0.00550118,-0.01875,-0.0034765,0.00598971,-0.0192385,-0.139609,0.0152203,0.0217441,1336,358,2.12002,12.5674
119,666,2.16748,-12.5013,0.00630321,-0.0247129,-0.00215961,0.00645286,-0.0248626,-0.0691835,0.019093,0.0217081,1343,358,2.16753,12.5014
126,666,2.14209,-12.4274,0.00697423,-0.0298768,-0.000511459,0.00698133,-0.0298839,-0.0138755,0.0226118,0.021933,1350,358,2.14214,12.4274
133,666,2.09802,-12.3856,0.00734767,-0.0336793,0.00120367,0.00738295,-0.0337146,0.0293049,0.025299,0.0207935,1357,358,2.09808,12.3856
140,666,2.02734,-12.3908,0.0076012,-0.0366288,0.00279469,0.00777708,-0.0368046,0.0628523,0.0274979,0.0198913,1364,358,2.0274,12.3908
147,666,2.01611,-12.3581,0.00749805,-0.0379811,0.00422569,0.00788734,-0.0383704,0.091867,0.0285746,0.0185911,1371,358,2.01611,12.3581
154,666,2.0094,-12.2529,0.00772379,-0.0359466,0.00509186,0.00830963,-0.0365325,0.11455,0.0275459,0.0170039,1378,358,2.00935,12.2529
161,666,2.08032,-12.2301,0.00777592,-0.0338069,0.00628376,0.00870474,-0.0347357,0.14675,0.0265389,0.0241976,1385,358,2.0803,12.2301
168,666,2.1355,-12.2233,0,0,0,0,0,0,0,-1,1392,358,2.13551,12.2233
175,666,2.27563,-12.329,0,0,0,0,0,0,0,-1,1399,358,2.27568,12.329
182,666,2.60876,-5.17068,0,0,0,0,0,0,0,-1,1406,358,2.6088,5.17068
189,666,2.46973,-5.49979,0,0,0,0,0,0,0,-1,1413,358,2.46975,5.49979
196,666,2.32458,-5.23651,0,0,0,0,0,0,0,-1,1420,358,2.32461,5.23653
203,666,2.28064,-3.88004,0,0,0,0,0,0,0,-1,1427,358,2.28059,3.88003
210,666,3.02576,-5.83548,0,0,0,0,0,0,0,-1,1434,358,3.02581,5.83547
217,666,2.30444,-5.36011,0,0,0,0,0,0,0,-1,1441,358,2.30447,5.3601
224,666,1.82324,-6.03101,0,0,0,0,0,0,0,-1,1448,358,1.82322,6.031
231,666,2.29797,-10.1093,0,0,0,0,0,0,0,-1,1455,358,2.29801,10.1093
238,666,2.52429,-6.10568,0,0,0,0,0,0,0,-1,1462,358,2.52423,6.10567
245,666,4.53345,-1.38205,0,0,0,0,0,0,0,-1,1469,358,4.53349,1.38204
252,666,4.77405,-0.246979,0,0,0,0,0,0,0,-1,1476,358,4.77405,0.246993
259,666,4.83655,1.14087,0,0,0,0,0,0,0,-1,1483,358,4.83652,-1.14087
266,666,6.14148,0.749512,0,0,0,0,0,0,0,-1,1490,358,6.14144,-0.749519
273,666,2.61304,-1.53772,0,0,0,0,0,0,0,-1,1497,358,2.613,1.53773
280,666,8.70898,-0.836975,0,0,0,0,0,0,0,-1,1504,358,8.70894,0.836988
287,666,2.27039,-4.09058,0,0,0,0,0,0,0,-1,1511,358,2.27042,4.09059
294,666,9.87,-1.10745,0,0,0,0,0,0,0,-1,1518,358,9.87,1.10745
301,666,3.61511,-3.23752,0,0,0,0,0,0,0,-1,1525,358,3.61511,3.23753
308,666,1.08496,-1.87576,0,0,0,0,0,0,0,-1,1532,358,1.08491,1.87575
315,666,1.76294,-0.284027,0,0,0,0,0,0,0,-1,1539,358,1.76291,0.284016
322,666,0,0,0,0,0,0,0,0,0,-1,1546,358,0,0
329,666,0,0,0,0,0,0,0,0,0,-1,1553,358,0,0
336,666,0,0,0,0,0,0,0,0,0,-1,1560,358,0,0
343,666,0,0,0,0,0,0,0,0,0,-1,1567,358,0,0
350,666,0,0,0,0,0,0,0,0,0,-1,1574,358,0,0
357,666,0,0,0,0,0,0,0,0,0,-1,1581,358,0,0
364,666,0,0,0,0,0,0,0,0,0,-1,1588,358,0,0
371,666,0,0,0,0,0,0,0,0,0,-1,1595,358,0,0
378,666,0,0,0,0,0,0,0,0,0,-1,1602,358,0,0
385,666,0,0,0,0,0,0,0,0,0,-1,1609,358,0,0
392,666,0,0,0,0,0,0,0,0,0,-1,1616,358,0,0
399,666,0,0,0,0,0,0,0,0,0,-1,1623,358,0,0
406,666,0,0,0,0,0,0,0,0,0,-1,1630,358,0,0
413,666,0,0,0,0,0,0,0,0,0,-1,1637,358,0,0
420,666,0,0,0,0,0,0,0,0,0,-1,1644,358,0,0
427,666,0,0,0,0,0,0,0,0,0,-1,1651,358,0,0
434,666,0,0,0,0,0,0,0,0,0,-1,1658,358,0,0
441,666,0,0,0,0,0,0,0,0,0,-1,1665,358,0,0
448,666,0,0,0,0,0,0,0,0,0,-1,1672,358,0,0
455,666,0,0,0,0,0,0,0,0,0,-1,1679,358,0,0
462,666,0,0,0,0,0,0,0,0,0,-1,1686,358,0,0
469,666,0,0,0,0,0,0,0,0,0,-1,1693,358,0,0
476,666,0,0,0,0,0,0,0,0,0,-1,1700,358,0,0
483,666,0,0,0,0,0,0,0,0,0,-1,1707,358,0,0
490,666,0,0,0,0,0,0,0,0,0,-1,1714,358,0,0
497,666,0,0,0,0,0,0,0,0,0,-1,1721,358,0,0
504,666,0,0,0,0,0,0,0,0,0,-1,1728,358,0,0
511,666,0,0,0,0,0,0,0,0,0,-1,1735,358,0,0
518,666,0,0,0,0,0,0,0,0,0,-1,1742,358,0,0
525,666,0,0,0,0,0,0,0,0,0,-1,1749,358,0,0
532,666,0,0,0,0,0,0,0,0,0,-1,1756,358,0,0
539,666,0,0,0,0,0,0,0,0,0,-1,1763,358,0,0
546,666,0,0,0,0,0,0,0,0,0,-1,1770,358,0,0
553,666,0,0,0,0,0,0,0,0,0,-1,1777,358,0,0
560,666,0,0,0,0,0,0,0,0,0,-1,1784,358,0,0
567,666,0,0,0,0,0,0,0,0,0,-1,1791,358,0,0
574,666,0,0,0,0,0,0,0,0,0,-1,1798,358,0,0
581,666,0,0,0,0,0,0,0,0,0,-1,1805,358,0,0
588,666,0,0,0,0,0,0,0,0,0,-1,1812,358,0,0
595,666,0,0,0,0,0,0,0,0,0,-1,1819,358,0,0
602,666,0,0,0,0,0,0,0,0,0,-1,1826,358,0,0
609,666,0,0,0,0,0,0,0,0,0,-1,1833,358,0,0
616,666,0,0,0,0,0,0,0,0,0,-1,1840,358,0,0
623,666,0,0,0,0,0,0,0,0,0,-1,1847,358,0,0
630,666,0,0,0,0,0,0,0,0,0,-1,1854,358,0,0
637,666,0,0,0,0,0,0,0,0,0,-1,1861,358,0,0
644,666,0,0,0,0,0,0,0,0,0,-1,1868,358,0,0
651,666,0,0,0,0,0,0,0,0,0,-1,1875,358,0,0
658,666,0,0,0,0,0,0,0,0,0,-1,1882,358,0,0
665,666,0,0,0,0,0,0,0,0,0,-1,1889,358,0,0
672,666,0,0,0,0,0,0,0,0,0,-1,1896,358,0,0
679,666,0,0,0,0,0,0,0,0,0,-1,1903,358,0,0
686,666,0,0,0,0,0,0,0,0,0,-1,1910,358,0,0
693,666,0,0,0,0,0,0,0,0,0,-1,1917,358,0,0
700,666,0,0,0,0,0,0,0,0,0,-1,1924,358,0,0
707,666,0,0,0,0,0,0,0,0,0,-1,1931,358,0,0
714,666,0,0,0,0,0,0,0,0,0,-1,1938,358,0,0
721,666,0,0,0,0,0,0,0,0,0,-1,1945,358,0,0
728,666,0,0,0,0,0,0,0,0,0,-1,1952,358,0,0
735,666,0,0,0,0,0,0,0,0,0,-1,1959,358,0,0
742,666,0,0,0,0,0,0,0,0,0,-1,1966,358,0,0
749,666,0,0,0,0,0,0,0,0,0,-1,1973,358,0,0
756,666,0,0,0,0,0,0,0,0,0,-1,1980,358,0,0
763,666,0,0,0,0,0,0,0,0,0,-1,1987,358,0,0
770,666,0,0,0,0,0,0,0,0,0,-1,1994,358,0,0
777,666,0,0,0,0,0,0,0,0,0,-1,2001,358,0,0
784,666,0,0,0,0,0,0,0,0,0,-1,2008,358,0,0
791,666,0,0,0,0,0,0,0,0,0,-1,2015,358,0,0
798,666,0,0,0,0,0,0,0,0,0,-1,2022,358,0,0
805,666,0,0,0,0,0,0,0,0,0,-1,2029,358,0,0
812,666,0,0,0,0,0,0,0,0,0,-1,2036,358,0,0
-700,659,0,0,0,0,0,0,0,0,0,-1,524,365,0,0
-693,659,0,0,0,0,0,0,0,0,0,-1,531,365,0,0
-686,659,0,0,0,0,0,0,0,0,0,-1,538,365,0,0
-679,659,0,0,0,0,0,0,0,0,0,-1,545,365,0,0
-672,659,0,0,0,0,0,0,0,0,0,-1,552,365,0,0
-665,659,0,0,0,0,0,0,0,0,0,-1,559,365,0,0
-658,659,0,0,0,0,0,0,0,0,0,-1,566,365,0,0
-651,659,0,0,0,0,0,0,0,0,0,-1,573,365,0,0
-644,659,0,0,0,0,0,0,0,0,0,-1,580,365,0,0
-637,659,0,0,0,0,0,0,0,0,0,-1,587,365,0,0
-630,659,0,0,0,0,0,0,0,0,0,-1,594,365,0,0
-623,659,0,0,0,0,0,0,0,0,0,-1,601,365,0,0
-616,659,0,0,0,0,0,0,0,0,0,-1,608,365,0,0
-609,659,0,0,0,0,0,0,0,0,0,-1,615,365,0,0
-602,659,0,0,0,0,0,0,0,0,0,-1,622,365,0,0
-595,659,0,0,0,0,0,0,0,0,0,-1,629,365,0,0
-588,659,0,0,0,0,0,0,0,0,0,-1,636,365,0,0
-581,659,0,0,0,0,0,0,0,0,0,-1,643,365,0,0
-574,659,0,0,0,0,0,0,0,0,0,-1,650,365,0,0
-567,659,0,0,0,0,0,0,0,0,0,-1,657,365,0,0
-560,659,0,0,0,0,0,0,0,0,0,-1,664,365,0,0
-553,659,0,0,0,0,0,0,0,0,0,-1,671,365,0,0
-546,659,0,0,0,0,0,0,0,0,0,-1,678,365,0,0
-539,659,0,0,0,0,0,0,0,0,0,-1,685,365,0,0
-532,659,0,0,0,0,0,0,0,0,0,-1,692,365,0,0
-525,659,0,0,0,0,0,0,0,0,0,-1,699,365,0,0
-518,659,0,0,0,0,0,0,0,0,0,-1,706,365,0,0
-511,659,0,0,0,0,0,0,0,0,0,-1,713,365,0,0
-504,659,0,0,0,0,0,0,0,0,0,-1,720,365,0,0
-497,659,0,0,0,0,0,0,0,0,0,-1,727,365,0,0
-490,659,0,0,0,0,0,0,0,0,0,-1,734,365,0,0
-483,659,0,0,0,0,0,0,0,0,0,-1,741,365,0,0
-476,659,0,0,0,0,0,0,0,0,0,-1,748,365,0,0
-469,659,0,0,0,0,0,0,0,0,0,-1,755,365,0,0
-462,659,0,0,0,0,0,0,0,0,0,-1,762,365,0,0
-455,659,0,0,0,0,0,0,0,0,0,-1,769,365,0,0
-448,659,0,0,0,0,0,0,0,0,0,-1,776,365,0,0
-441,659,0,0,0,0,0,0,0,0,0,-1,783,365,0,0
-434,659,0,0,0,0,0,0,0,0,0,-1,790,365,0,0
-427,659,0,0,0,0,0,0,0,0,0,-1,797,365,0,0
-420,659,0,0,0,0,0,0,0,0,0,-1,804,365,0,0
-413,659,0,0,0,0,0,0,0,0,0,-1,811,365,0,0
-406,659,0,0,0,0,0,0,0,0,0,-1,818,365,0,0
-399,659,0,0,0,0,0,0,0,0,0,-1,825,365,0,0
-392,659,0,0,0,0,0,0,0,0,0,-1,832,365,0,0
-385,659,0,0,0,0,0,0,0,0,0,-1,839,365,0,0
-378,659,0,0,0,0,0,0,0,0,0,-1,846,365,0,0
-371,659,0,0,0,0,0,0,0,0,0,-1,853,365,0,0
-364,659,0,0,0,0,0,0,0,0,0,-1,860,365,0,0
-357,659,0,0,0,0,0,0,0,0,0,-1,867,365,0,0
-350,659,0,0,0,0,0,0,0,0,0,-1,874,365,0,0
-343,659,0,0,0,0,0,0,0,0,0,-1,881,365,0,0
-336,659,0,0,0,0,0,0,0,0,0,-1,888,365,0,0
-329,659,0,0,0,0,0,0,0,0,0,-1,895,365,0,0
-322,659,0,0,0,0,0,0,0,0,0,-1,902,365,0,0
-315,659,0,0,0,0,0,0,0,0,0,-1,909,365,0,0
-308,659,0,0,0,0,0,0,0,0,0,-1,916,365,0,0
-301,659,0,0,0,0,0,0,0,0,0,-1,923,365,0,0
-294,659,0,0,0,0,0,0,0,0,0,-1,930,365,0,0
-287,659,0,0,0,0,0,0,0,0,0,-1,937,365,0,0
-280,659,0,0,0,0,0,0,0,0,0,-1,944,365,0,0
-273,659,0,0,0,0,0,0,0,0,0,-1,951,365,0,0
-266,659,0,0,0,0,0,0,0,0,0,-1,958,365,0,0
-259,659,0,0,0,0,0,0,0,0,0,-1,965,365,0,0
-252,659,0,0,0,0,0,0,0,0,0,-1,972,365,0,0
-245,659,0,0,0,0,0,0,0,0,0,-1,979,365,0,0
-238,659,0,0,0,0,0,0,0,0,0,-1,986,365,0,0
-231,659,0,0,0,0,0,0,0,0,0,-1,993,365,0,0
-224,659,0,0,0,0,0,0,0,0,0,-1,1000,365,0,0
-217,659,1.62122,-1.10727,0,0,0,0,0,0,0,-1,1007,365,1.62123,1.10728
-210,659,0.368042,-7.90527,0,0,0,0,0,0,0,-1,1014,365,0.368058,7.90528
-203,659,2.09253,-9.38916,0,0,0,0,0,0,0,-1,1021,365,2.09255,9.38917
-196,659,-0.828369,-10.2602,0,0,0,0,0,0,0,-1,1028,365,-0.828398,10.2602
-189,659,6.19006,-10.8313,0,0,0,0,0,0,0,-1,1035,365,6.19,10.8313
-182,659,6.17236,-10.318,0,0,0,0,0,0,0,-1,1042,365,6.17233,10.318
-175,659,3.47668,-12.3595,0,0,0,0,0,0,0,-1,1049,365,3.47665,12.3595
-168,659,3.58716,-12.805,0.00614329,-0.0653078,-0.00139751,0.00617062,-0.0653351,-0.019549,0.0457525,0.0433197,1056,365,3.58716,12.805
-161,659,3.6947,-13.2272,0.00405267,-0.0580795,-0.00118074,0.0040751,-0.0581019,-0.0189945,0.040162,0.0467646,1063,365,3.69474,13.2272
-154,659,3.76013,-13.8826,0.0024696,-0.0504255,-0.000895392,0.00248476,-0.0504406,-0.0169212,0.0344852,0.0449619,1070,365,3.7601,13.8826
-147,659,2.82507,-12.4856,0,0,0,0,0,0,0,-1,1077,365,2.82511,12.4856
-140,659,2.33484,-11.7423,-0.00116032,-0.0287341,0.000875128,-0.00113257,-0.0287619,0.0316951,0.0188084,0.0450851,1084,365,2.33483,11.7423
-133,659,2.36804,-11.3431,-0.00353731,-0.0179446,0.00111587,-0.0034514,-0.0180305,0.076841,0.011051,0.0455623,1091,365,2.3681,11.3431
-126,659,2.60217,-10.7816,0,0,0,0,0,0,0,-1,1098,365,2.60222,10.7816
-119,659,2.65967,-11.4838,-0.00709889,0.00136136,0.0019981,0.00180953,-0.00754705,1.35015,0.00573058,0.0444678,1105,365,2.6597,11.4838
-112,659,2.55542,-11.432,-0.00860519,0.0105862,0.00242643,0.0108883,-0.00890722,1.44696,0.011448,0.0404474,1112,365,2.55537,11.432
-105,659,2.49292,-11.5122,0,0,0,0,0,0,0,-1,1119,365,2.49294,11.5122
-98,659,2.48376,-11.9344,-0.010913,0.0231548,0.00357694,0.0235263,-0.0112845,1.46731,0.0205081,0.0402979,1126,365,2.48381,11.9344
-91,659,2.39014,-11.9625,-0.0106308,0.025139,0.00353424,0.0254849,-0.0109766,1.47325,0.0215994,0.0419652,1133,365,2.39008,11.9625
-84,659,1.83618,-11.6276,-0.0106413,0.0260399,0.00362076,0.0263938,-0.0109953,1.47334,0.0221885,0.0453013,1140,365,1.8362,11.6276
-77,659,2.48755,-11.8723,0,0,0,0,0,0,0,-1,1147,365,2.48761,11.8723
-70,659,2.46765,-11.7854,0,0,0,0,0,0,0,-1,1154,365,2.46766,11.7854
-63,659,2.11267,-9.7796,0,0,0,0,0,0,0,-1,1161,365,2.11266,9.7796
-56,659,2.11182,-9.91541,0,0,0,0,0,0,0,-1,1168,365,2.11178,9.91541
-49,659,2.42346,-12.3808,0,0,0,0,0,0,0,-1,1175,365,2.42342,12.3808
-42,659,2.17908,-12.7993,0,0,0,0,0,0,0,-1,1182,365,2.17906,12.7993
-35,659,2.38306,-12.6541,0.00176282,0.00261365,-0.00177362,0.00401216,0.000364306,-0.903102,0.00256199,0.0440213,1189,365,2.38309,12.654
-28,659,2.42432,-12.6324,0.00336182,0.00233136,-0.00109139,0.00405348,0.0016397,-0.564864,0.00235446,0.0169214,1196,365,2.42431,12.6325
-21,659,2.39404,-12.6393,0.00434399,0.00334592,-0.00092607,0.00489692,0.00279298,-0.538267,0.00283655,0.0111838,1203,365,2.39401,12.6393
-14,659,2.37268,-12.6859,0.00489329,0.00406263,-0.000236036,0.00495568,0.00400024,-0.258395,0.00303584,0.00833118,1210,365,2.37268,12.6859
-7,659,2.37268,-12.7171,0.0048328,0.00508316,0.000412447,0.005389,0.00452696,0.932731,0.00334258,0.00849241,1217,365,2.37265,12.7171
0,659,2.35693,-12.7242,0.00473087,0.00593074,0.000926505,0.00643459,0.00422702,1.07272,0.00377551,0.00858015,1224,365,2.35688,12.7242
7,659,2.32861,-12.7426,0.0046484,0.00659106,0.00140902,0.00733111,0.00390835,1.08718,0.00423571,0.00827015,1231,365,2.32864,12.7426
14,659,2.31946,-12.7565,0.00437148,0.00708596,0.00170373,0.00790698,0.00355046,1.12174,0.004573,0.0106819,1238,365,2.3195,12.7565
21,659,2.30627,-12.7656,0.00403421,0.00734713,0.00178955,0.00812918,0.00325216,1.1588,0.00472453,0.0110786,1245,365,2.30627,12.7656
28,659,2.29211,-12.7731,0.00377579,0.00720118,0.00167531,0.00788431,0.00309266,1.18361,0.0045871,0.0104953,1252,365,2.29211,12.7731
35,659,2.29456,-12.7782,0.00347931,0.00743301,0.00144544,0.00790509,0.00300723,1.25512,0.00460731,0.0111017,1259,365,2.29459,12.7782
42,659,2.29211,-12.7886,0.00318577,0.00788849,0.00112992,0.00814589,0.00292837,1.34682,0.00476453,0.0115369,1266,365,2.29209,12.7886
49,659,2.25867,-12.8003,0.00283655,0.0080178,0.000638984,0.00809544,0.00275891,1.44988,0.00475222,0.0110767,1273,365,2.25867,12.8003
56,659,2.24292,-12.7923,0.0025494,0.00762877,-0.00021717,0.00763803,0.00254013,-1.52814,0.00449148,0.0144,1280,365,2.2429,12.7923
63,659,2.25562,-12.789,0.00239364,0.00751137,-0.00123151,0.00779229,0.00211271,-1.34652,0.00465334,0.0159187,1287,365,2.25561,12.789
70,659,2.24084,-12.7773,0.00207774,0.00566961,-0.00200878,0.00656823,0.00117913,-1.15015,0.0040435,0.0159594,1294,365,2.24083,12.7772
77,659,2.21399,-12.7432,0.00197412,0.00346862,-0.00266539,0.00548952,-4.67829e-05,-0.922066,0.00367538,0.0165364,1301,365,2.21397,12.7432
84,659,2.19983,-12.7361,0.00224806,0.000157411,-0.00294289,0.00432576,-0.00192029,-0.614747,0.00369423,0.0115587,1308,365,2.19984,12.7361
91,659,2.16907,-12.7062,0.00227836,-0.00302652,-0.00322253,0.00379966,-0.00454782,-0.441066,0.00482587,0.00969651,1315,365,2.16912,12.7062
98,659,2.18054,-12.6895,0.00255504,-0.00655581,-0.00315006,0.00353809,-0.00753887,-0.302498,0.00653285,0.00791104,1322,365,2.18053,12.6895
105,659,2.18616,-12.6505,0.00297283,-0.0102811,-0.00264308,0.00348047,-0.0107887,-0.189752,0.00859097,0.00968463,1329,365,2.18618,12.6504
112,659,2.17981,-12.6108,0.00336563,-0.0141698,-0.00195628,0.00358122,-0.0143854,-0.109764,0.0109804,0.0104669,1336,365,2.17979,12.6108
119,659,2.17651,-12.5544,0.00385179,-0.0179885,-0.000966762,0.0038945,-0.0180312,-0.04415,0.0135074,0.010611,1343,365,2.17656,12.5544
126,659,2.14429,-12.4972,0.00425379,-0.0210889,0.000206764,0.00425547,-0.0210906,0.00815798,0.0156727,0.010734,1350,365,2.14425,12.4972
133,659,2.11511,-12.4423,0.00448817,-0.0232686,0.00139402,0.00455801,-0.0233384,0.0500549,0.0172798,0.00997569,1357,365,2.11516,12.4423
140,659,2.09851,-12.3935,0.00467891,-0.0248652,0.00246387,0.00488298,-0.0250693,0.0826355,0.0185559,0.00872839,1364,365,2.09845,12.3935
147,659,2.08789,-12.3344,0.00461368,-0.0253461,0.00340201,0.00499513,-0.0257276,0.111659,0.0190365,0.00784945,1371,365,2.08794,12.3343
154,659,2.07776,-12.2546,0.00472737,-0.0237185,0.00393604,0.00526195,-0.0242531,0.134991,0.0181784,0.00890425,1378,365,2.07776,12.2546
161,659,2.08643,-12.2119,0.00469924,-0.0219189,0.00473469,0.00551633,-0.022736,0.170893,0.017292,0.0101345,1385,365,2.08645,12.2118
168,659,2.10864,-12.1733,0.00428984,-0.0201459,0.00564108,0.00552924,-0.0213853,0.216273,0.0164134,0.0175524,1392,365,2.1087,12.1733
175,659,2.12366,-12.1274,0.00416249,-0.0146503,0.00565802,0.00573304,-0.0162209,0.270764,0.0131484,0.0420316,1399,365,2.12367,12.1274
182,659,1.99548,-12.103,0,0,0,0,0,0,0,-1,1406,365,1.99553,12.103
189,659,2.06885,-11.8513,0,0,0,0,0,0,0,-1,1413,365,2.06886,11.8513
196,659,1.98047,-10.9119,0,0,0,0,0,0,0,-1,1420,365,1.98045,10.9119
203,659,1.78149,-10.3592,0,0,0,0,0,0,0,-1,1427,365,1.78147,10.3592
210,659,2.02698,-11.7761,0,0,0,0,0,0,0,-1,1434,365,2.02693,11.7761
217,659,1.96558,-11.1048,0,0,0,0,0,0,0,-1,1441,365,1.96559,11.1048
224,659,1.84937,-11.3423,0,0,0,0,0,0,0,-1,1448,365,1.84937,11.3423
231,659,2.07068,-11.2898,0,0,0,0,0,0,0,-1,1455,365,2.07069,11.2898
238,659,2.45752,-11.4142,0,0,0,0,0,0,0,-1,1462,365,2.45751,11.4142
245,659,2.09448,-11.5983,0,0,0,0,0,0,0,-1,1469,365,2.0945,11.5983
252,659,1.59912,-11.9131,0,0,0,0,0,0,0,-1,1476,365,1.59909,11.9131
259,659,2.33069,-3.36703,0,0,0,0,0,0,0,-1,1483,365,2.33073,3.36702
266,659,1.30371,-10.1887,0,0,0,0,0,0,0,-1,1490,365,1.30368,10.1887
273,659,1.54236,-10.1645,0,0,0,0,0,0,0,-1,1497,365,1.54236,10.1645
280,659,1.70947,-9.4129,0,0,0,0,0,0,0,-1,1504,365,1.70952,9.4129
287,659,2.37976,-9.09607,0,0,0,0,0,0,0,-1,1511,365,2.37981,9.09608
294,659,2.64307,-11.792,0,0,0,0,0,0,0,-1,1518,365,2.64309,11.792
301,659,0.770874,-5.72247,0,0,0,0,0,0,0,-1,1525,365,0.770867,5.72248
308,659,0.139404,-4.01816,0,0,0,0,0,0,0,-1,1532,365,0.139406,4.01816
315,659,0.2323,-3.07986,0,0,0,0,0,0,0,-1,1539,365,0.232355,3.07986
322,659,0.382813,-2.2424,0,0,0,0,0,0,0,-1,1546,365,0.382801,2.2424
329,659,0.604004,-1.75998,0,0,0,0,0,0,0,-1,1553,365,0.603966,1.75998
336,659,2.09851,-1.17941,0,0,0,0,0,0,0,-1,1560,365,2.09857,1.17942
343,659,0,0,0,0,0,0,0,0,0,-1,1567,365,0,0
350,659,0,0,0,0,0,0,0,0,0,-1,1574,365,0,0
357,659,0,0,0,0,0,0,0,0,0,-1,1581,365,0,0
364,659,0,0,0,0,0,0,0,0,0,-1,1588,365,0,0
371,659,0,0,0,0,0,0,0,0,0,-1,1595,365,0,0
378,659,0,0,0,0,0,0,0,0,0,-1,1602,365,0,0
385,659,0,0,0,0,0,0,0,0,0,-1,1609,365,0,0
392,659,0,0,0,0,0,0,0,0,0,-1,1616,365,0,0
399,659,0,0,0,0,0,0,0,0,0,-1,1623,365,0,0
406,659,0,0,0,0,0,0,0,0,0,-1,1630,365,0,0
413,659,0,0,0,0,0,0,0,0,0,-1,1637,365,0,0
420,659,0,0,0,0,0,0,0,0,0,-1,1644,365,0,0
427,659,0,0,0,0,0,0,0,0,0,-1,1651,365,0,0
434,659,0,0,0,0,0,0,0,0,0,-1,1658,365,0,0
441,659,0,0,0,0,0,0,0,0,0,-1,1665,365,0,0
448,659,0,0,0,0,0,0,0,0,0,-1,1672,365,0,0
455,659,0,0,0,0,0,0,0,0,0,-1,1679,365,0,0
462,659,0,0,0,0,0,0,0,0,0,-1,1686,365,0,0
469,659,0,0,0,0,0,0,0,0,0,-1,1693,365,0,0
476,659,0,0,0,0,0,0,0,0,0,-1,1700,365,0,0
483,659,0,0,0,0,0,0,0,0,0,-1,1707,365,0,0
490,659,0,0,0,0,0,0,0,0,0,-1,1714,365,0,0
497,659,0,0,0,0,0,0,0,0,0,-1,1721,365,0,0
504,659,0,0,0,0,0,0,0,0,0,-1,1728,365,0,0
511,659,0,0,0,0,0,0,0,0,0,-1,1735,365,0,0
518,659,0,0,0,0,0,0,0,0,0,-1,1742,365,0,0
525,659,0,0,0,0,0,0,0,0,0,-1,1749,365,0,0
532,659,0,0,0,0,0,0,0,0,0,-1,1756,365,0,0
539,659,0,0,0,0,0,0,0,0,0,-1,1763,365,0,0
546,659,0,0,0,0,0,0,0,0,0,-1,1770,365,0,0
553,659,0,0,0,0,0,0,0,0,0,-1,1777,365,0,0
560,659,0,0,0,0,0,0,0,0,0,-1,1784,365,0,0
567,659,0,0,0,0,0,0,0,0,0,-1,1791,365,0,0
574,659,0,0,0,0,0,0,0,0,0,-1,1798,365,0,0
581,659,0,0,0,0,0,0,0,0,0,-1,1805,365,0,0
588,659,0,0,0,0,0,0,0,0,0,-1,1812,365,0,0
595,659,0,0,0,0,0,0,0,0,0,-1,1819,365,0,0
602,659,0,0,0,0,0,0,0,0,0,-1,1826,365,0,0
609,659,0,0,0,0,0,0,0,0,0,-1,1833,365,0,0
616,659,0,0,0,0,0,0,0,0,0,-1,1840,365,0,0
623,659,0,0,0,0,0,0,0,0,0,-1,1847,365,0,0
630,659,0,0,0,0,0,0,0,0,0,-1,1854,365,0,0
637,659,0,0,0,0,0,0,0,0,0,-1,1861,365,0,0
644,659,0,0,0,0,0,0,0,0,0,-1,1868,365,0,0
651,659,0,0,0,0,0,0,0,0,0,-1,1875,365,0,0
658,659,0,0,0,0,0,0,0,0,0,-1,1882,365,0,0
665,659,0,0,0,0,0,0,0,0,0,-1,1889,365,0,0
672,659,0,0,0,0,0,0,0,0,0,-1,1896,365,0,0
679,659,0,0,0,0,0,0,0,0,0,-1,1903,365,0,0
686,659,0,0,0,0,0,0,0,0,0,-1,1910,365,0,0
693,659,0,0,0,0,0,0,0,0,0,-1,1917,365,0,0
700,659,0,0,0,0,0,0,0,0,0,-1,1924,365,0,0
707,659,0,0,0,0,0,0,0,0,0,-1,1931,365,0,0
714,659,0,0,0,0,0,0,0,0,0,-1,1938,365,0,0
721,659,0,0,0,0,0,0,0,0,0,-1,1945,365,0,0
728,659,0,0,0,0,0,0,0,0,0,-1,1952,365,0,0
735,659,0,0,0,0,0,0,0,0,0,-1,1959,365,0,0
742,659,0,0,0,0,0,0,0,0,0,-1,1966,365,0,0
749,659,0,0,0,0,0,0,0,0,0,-1,1973,365,0,0
756,659,0,0,0,0,0,0,0,0,0,-1,1980,365,0,0
763,659,0,0,0,0,0,0,0,0,0,-1,1987,365,0,0
770,659,0,0,0,0,0,0,0,0,0,-1,1994,365,0,0
777,659,0,0,0,0,0,0,0,0,0,-1,2001,365,0,0
784,659,0,0,0,0,0,0,0,0,0,-1,2008,365,0,0
791,659,0,0,0,0,0,0,0,0,0,-1,2015,365,0,0
798,659,0,0,0,0,0,0,0,0,0,-1,2022,365,0,0
805,659,0,0,0,0,0,0,0,0,0,-1,2029,365,0,0
812,659,0,0,0,0,0,0,0,0,0,-1,2036,365,0,0
-700,652,0,0,0,0,0,0,0,0,0,-1,524,372,0,0
-693,652,0,0,0,0,0,0,0,0,0,-1,531,372,0,0
-686,652,0,0,0,0,0,0,0,0,0,-1,538,372,0,0
-679,652,0,0,0,0,0,0,0,0,0,-1,545,372,0,0
-672,652,0,0,0,0,0,0,0,0,0,-1,552,372,0,0
-665,652,0,0,0,0,0,0,0,0,0,-1,559,372,0,0
-658,652,0,0,0,0,0,0,0,0,0,-1,566,372,0,0
-651,652,0,0,0,0,0,0,0,0,0,-1,573,372,0,0
-644,652,0,0,0,0,0,0,0,0,0,-1,580,372,0,0
-637,652,0,0,0,0,0,0,0,0,0,-1,587,372,0,0
-630,652,0,0,0,0,0,0,0,0,0,-1,594,372,0,0
-623,652,0,0,0,0,0,0,0,0,0,-1,601,372,0,0
-616,652,0,0,0,0,0,0,0,0,0,-1,608,372,0,0
-609,652,0,0,0,0,0,0,0,0,0,-1,615,372,0,0
-602,652,0,0,0,0,0,0,0,0,0,-1,622,372,0,0
-595,652,0,0,0,0,0,0,0,0,0,-1,629,372,0,0
-588,652,0,0,0,0,0,0,0,0,0,-1,636,372,0,0
-581,652,0,0,0,0,0,0,0,0,0,-1,643,372,0,0
-574,652,0,0,0,0,0,0,0,0,0,-1,650,372,0,0
-567,652,0,0,0,0,0,0,0,0,0,-1,657,372,0,0
-560,652,0,0,0,0,0,0,0,0,0,-1,664,372,0,0
-553,652,0,0,0,0,0,0,0,0,0,-1,671,372,0,0
-546,652,0,0,0,0,0,0,0,0,0,-1,678,372,0,0
-539,652,0,0,0,0,0,0,0,0,0,-1,685,372,0,0
-532,652,0,0,0,0,0,0,0,0,0,-1,692,372,0,0
-525,652,0,0,0,0,0,0,0,0,0,-1,699,372,0,0
-518,652,0,0,0,0,0,0,0,0,0,-1,706,372,0,0
-511,652,0,0,0,0,0,0,0,0,0,-1,713,372,0,0
-504,652,0,0,0,0,0,0,0,0,0,-1,720,372,0,0
-497,652,0,0,0,0,0,0,0,0,0,-1,727,372,0,0
-490,652,0,0,0,0,0,0,0,0,0,-1,734,372,0,0
-483,652,0,0,0,0,0,0,0,0,0,-1,741,372,0,0
-476,652,0,0,0,0,0,0,0,0,0,-1,748,372,0,0
-469,652,0,0,0,0,0,0,0,0,0,-1,755,372,0,0
-462,652,0,0,0,0,0,0,0,0,0,-1,762,372,0,0
-455,652,0,0,0,0,0,0,0,0,0,-1,769,372,0,0
-448,652,0,0,0,0,0,0,0,0,0,-1,776,372,0,0
-441,652,0,0,0,0,0,0,0,0,0,-1,783,372,0,0
-434,652,0,0,0,0,0,0,0,0,0,-1,790,372,0,0
-427,652,0,0,0,0,0,0,0,0,0,-1,797,372,0,0
-420,652,0,0,0,0,0,0,0,0,0,-1,804,372,0,0
-413,652,0,0,0,0,0,0,0,0,0,-1,811,372,0,0
-406,652,0,0,0,0,0,0,0,0,0,-1,818,372,0,0
-399,652,0,0,0,0,0,0,0,0,0,-1,825,372,0,0
-392,652,0,0,0,0,0,0,0,0,0,-1,832,372,0,0
-385,652,0,0,0,0,0,0,0,0,0,-1,839,372,0,0
-378,652,0,0,0,0,0,0,0,0,0,-1,846,372,0,0
-371,652,0,0,0,0,0,0,0,0,0,-1,853,372,0,0
-364,652,0,0,0,0,0,0,0,0,0,-1,860,372,0,0
-357,652,0,0,0,0,0,0,0,0,0,-1,867,372,0,0
-350,652,0,0,0,0,0,0,0,0,0,-1,874,372,0,0
-343,652,0,0,0,0,0,0,0,0,0,-1,881,372,0,0
-336,652,0,0,0,0,0,0,0,0,0,-1,888,372,0,0
-329,652,0,0,0,0,0,0,0,0,0,-1,895,372,0,0
-322,652,0,0,0,0,0,0,0,0,0,-1,902,372,0,0
-315,652,0,0,0,0,0,0,0,0,0,-1,909,372,0,0
-308,652,0,0,0,0,0,0,0,0,0,-1,916,372,0,0
-301,652,0,0,0,0,0,0,0,0,0,-1,923,372,0,0
-294,652,0,0,0,0,0,0,0,0,0,-1,930,372,0,0
-287,652,0,0,0,0,0,0,0,0,0,-1,937,372,0,0
-280,652,0,0,0,0,0,0,0,0,0,-1,944,372,0,0
-273,652,0,0,0,0,0,0,0,0,0,-1,951,372,0,0
-266,652,0,0,0,0,0,0,0,0,0,-1,958,372,0,0
-259,652,0,0,0,0,0,0,0,0,0,-1,965,372,0,0
-252,652,0,0,0,0,0,0,0,0,0,-1,972,372,0,0
-245,652,0,0,0,0,0,0,0,0,0,-1,979,372,0,0
-238,652,0,0,0,0,0,0,0,0,0,-1,986,372,0,0
-231,652,-3.1214,-6.93527,0,0,0,0,0,0,0,-1,993,372,-3.1214,6.93528
-224,652,-3.74396,-5.71695,0,0,0,0,0,0,0,-1,1000,372,-3.74397,5.71694
-217,652,-4.52545,-5.19208,0,0,0,0,0,0,0,-1,1007,372,-4.52543,5.19207
-210,652,2.33746,-9.61121,0,0,0,0,0,0,0,-1,1014,372,2.33747,9.61121
-203,652,-2.37793,-10.4327,0,0,0,0,0,0,0,-1,1021,372,-2.37792,10.4327
-196,652,2.53687,-12.4586,0,0,0,0,0,0,0,-1,1028,372,2.53688,12.4586
-189,652,2.7843,-11.977,0,0,0,0,0,0,0,-1,1035,372,2.78433,11.977
-182,652,1.97473,-11.8764,0,0,0,0,0,0,0,-1,1042,372,1.97473,11.8764
-175,652,3.16333,-11.5419,0,0,0,0,0,0,0,-1,1049,372,3.16329,11.5419
-168,652,3.26355,-12.0459,0,0,0,0,0,0,0,-1,1056,372,3.26352,12.0459
-161,652,2.34705,-11.318,0,0,0,0,0,0,0,-1,1063,372,2.34709,11.318
-154,652,2.62939,-11.3857,0,0,0,0,0,0,0,-1,1070,372,2.62938,11.3856
-147,652,2.90479,-11.8689,-0.00127203,-0.029365,0.000422934,-0.00126567,-0.0293714,0.0150503,0.0191729,0.0461509,1077,372,2.90473,11.8689
-140,652,2.61694,-11.5683,-0.0024761,-0.0209314,0.000958119,-0.00242649,-0.020981,0.0517303,0.0132528,0.0444528,1084,372,2.61698,11.5683
-133,652,2.49561,-11.4803,-0.00402136,-0.0130498,0.000925175,-0.00392752,-0.0131436,0.101074,0.00779056,0.0430732,1091,372,2.49563,11.4803
-126,652,2.74207,-11.3908,0,0,0,0,0,0,0,-1,1098,372,2.7421,11.3908
-119,652,2.58362,-11.5911,-0.00618075,0.000963292,0.00118472,0.00115463,-0.00637209,1.41067,0.00468065,0.0336839,1105,372,2.58363,11.5911
-112,652,2.552,-11.7146,-0.00702919,0.00765987,0.00127444,0.00776962,-0.00713894,1.48489,0.00861003,0.0246385,1112,372,2.55202,11.7146
-105,652,2.55212,-11.8001,-0.00785035,0.012935,0.00162772,0.0130617,-0.00797705,1.49312,0.0122644,0.0210559,1119,372,2.55218,11.8001
-98,652,2.4895,-11.9093,-0.00847559,0.0165243,0.00187608,0.0166643,-0.00861559,1.49631,0.0148399,0.0226437,1126,372,2.48956,11.9093
-91,652,2.46106,-11.9959,-0.00815757,0.0179732,0.00172587,0.0180867,-0.00827106,1.50513,0.0155654,0.0225238,1133,372,2.46106,11.9959
-84,652,2.48132,-12.0873,-0.00800973,0.0185076,0.00174985,0.0186225,-0.0081247,1.50519,0.015834,0.020893,1140,372,2.48137,12.0873
-77,652,2.46008,-12.1397,-0.00735599,0.0169345,0.00165856,0.0170472,-0.00746872,1.50294,0.0145099,0.0225946,1147,372,2.46004,12.1397
-70,652,2.43542,-12.1458,-0.00649235,0.0147605,0.00144965,0.014859,-0.00659078,1.50301,0.012687,0.0322867,1154,372,2.43539,12.1458
-63,652,2.45483,-12.3329,0,0,0,0,0,0,0,-1,1161,372,2.45489,12.3329
-56,652,2.42957,-12.3954,0,0,0,0,0,0,0,-1,1168,372,2.42951,12.3954
-49,652,2.41626,-12.4265,-0.00104559,0.00606963,-0.000108007,0.00607127,-0.00104723,-1.55562,0.00443797,0.029096,1175,372,2.41629,12.4265
-42,652,2.38831,-12.4868,-0.000194063,0.00387682,-0.000811946,0.00403279,-0.000350032,-1.38102,0.00281247,0.0114499,1182,372,2.38833,12.4868
-35,652,2.38367,-12.5356,0.000562477,0.00166235,-0.00135486,0.00257463,-0.000349799,-0.978189,0.00184411,0.00940822,1189,372,2.38369,12.5357
-28,652,2.37952,-12.5872,0.0016225,0.000822592,-0.00097601,0.00227732,0.000167765,-0.590943,0.0014655,0.00758931,1196,372,2.37957,12.5872
-21,652,2.35083,-12.6311,0.00205361,0.00100919,-0.000899606,0.00257159,0.00049121,-0.522422,0.00157638,0.00767469,1203,372,2.35085,12.6311
-14,652,2.35217,-12.6736,0.00231253,0.00120517,-0.000682255,0.0026375,0.000880193,-0.444528,0.00155058,0.00912657,1210,372,2.35216,12.6736
-7,652,2.35278,-12.718,0.0023534,0.00166548,-0.000433407,0.00256275,0.00145613,-0.44998,0.00148418,0.0122737,1217,372,2.35276,12.718
0,652,2.3219,-12.7265,0.00235172,0.0020577,-0.000203964,0.00245613,0.00195328,-0.473129,0.0014982,0.0130245,1224,372,2.32191,12.7265
7,652,2.30481,-12.7295,0.0023654,0.00239199,6.03813e-05,0.00244052,0.00231687,0.893741,0.0015874,0.0139938,1231,372,2.30479,12.7295
14,652,2.30798,-12.7566,0.00223145,0.00272362,0.000237102,0.00281926,0.00213581,1.18739,0.00169817,0.0115194,1238,372,2.30801,12.7566
21,652,2.30237,-12.7691,0.00206053,0.00293207,0.000311833,0.00303215,0.00196045,1.26024,0.0017755,0.0106182,1245,372,2.30235,12.7691
28,652,2.29077,-12.7954,0.00198566,0.00283392,0.000290003,0.00292359,0.00189599,1.27093,0.00171257,0.0101977,1252,372,2.29078,12.7954
35,652,2.27917,-12.8033,0.00183309,0.00303261,0.000253297,0.00308391,0.0017818,1.37099,0.00178766,0.0110884,1259,372,2.2792,12.8033
42,652,2.27417,-12.7953,0.00161246,0.00337812,0.000199335,0.00340034,0.00159024,1.45976,0.00196455,0.011616,1266,372,2.27411,12.7953
49,652,2.26526,-12.7982,0.00137723,0.00348534,3.35919e-05,0.00348588,0.00137669,1.55487,0.00202733,0.0132467,1273,372,2.26521,12.7982
56,652,2.25085,-12.8013,0.00116989,0.00321557,-0.000390642,0.00328763,0.00109784,-1.38838,0.0019327,0.0152336,1280,372,2.25087,12.8013
63,652,2.24194,-12.8081,0.00103713,0.003142,-0.000882995,0.00346336,0.000715773,-1.22176,0.00211116,0.0192597,1287,372,2.24191,12.8081
70,652,2.23694,-12.7787,0.000767532,0.00183073,-0.00121087,0.00262156,-2.32949e-05,-0.992242,0.00175552,0.0158762,1294,372,2.23698,12.7788
77,652,2.21472,-12.7494,0.000633844,0.000317778,-0.00146893,0.00195322,-0.0010016,-0.731812,0.00173521,0.0152103,1301,372,2.21472,12.7494
84,652,2.21887,-12.7504,0.00083415,-0.00192962,-0.00153871,0.00152041,-0.00261588,-0.419521,0.00241584,0.0120306,1308,372,2.2189,12.7504
91,652,2.19666,-12.7598,0.000800633,-0.00409568,-0.00156939,0.00126047,-0.00455552,-0.285029,0.00353293,0.0137569,1315,372,2.19672,12.7598
98,652,2.22668,-12.7031,0.000876526,-0.00637501,-0.0014305,0.00114852,-0.006647,-0.187895,0.00485962,0.012454,1322,372,2.22674,12.7031
105,652,2.2406,-12.6387,0.00114564,-0.00871489,-0.00104512,0.0012552,-0.00882444,-0.104444,0.00634289,0.0111126,1329,372,2.24061,12.6387
112,652,2.21716,-12.6072,0.00145263,-0.0111034,-0.000572274,0.00147866,-0.0111295,-0.0454519,0.00795845,0.00931432,1336,372,2.21716,12.6072
119,652,2.19922,-12.5519,0.00186489,-0.0134074,9.88954e-05,0.00186553,-0.0134081,0.00647511,0.00962102,0.00973557,1343,372,2.19917,12.5519
126,652,2.1731,-12.5021,0.00222694,-0.0151392,0.00087075,0.00227049,-0.0151828,0.0499736,0.0109574,0.0113812,1350,372,2.17314,12.5021
133,652,2.14978,-12.4479,0.00245308,-0.0161733,0.00164081,0.00259652,-0.0163167,0.0871961,0.0118386,0.012242,1357,372,2.14982,12.4479
140,652,2.14148,-12.3976,0.00269876,-0.0168255,0.0022897,0.00296369,-0.0170904,0.115193,0.0124992,0.00993981,1364,372,2.14146,12.3976
147,652,2.12939,-12.3454,0.00277773,-0.0167272,0.00283603,0.00318172,-0.0171312,0.141499,0.0126158,0.00887837,1371,372,2.12945,12.3454
154,652,2.13452,-12.2736,0.00284903,-0.0154258,0.00313624,0.00337228,-0.015949,0.165316,0.0119169,0.00904633,1378,372,2.13458,12.2736
161,652,2.12891,-12.2068,0.00280004,-0.0139561,0.00363491,0.00355458,-0.0147106,0.204676,0.0111819,0.0104774,1385,372,2.12885,12.2068
168,652,2.11731,-12.1436,0.00244614,-0.0122891,0.00405845,0.00348999,-0.0133329,0.251748,0.0102519,0.0104786,1392,372,2.11731,12.1436
175,652,2.11816,-12.0507,0.00231963,-0.00847714,0.00400149,0.00364096,-0.00979846,0.318935,0.00802613,0.0110951,1399,372,2.11812,12.0507
182,652,2.09473,-11.9786,0.00170208,-0.00514387,0.00406513,0.00359342,-0.00703522,0.435473,0.00624277,0.0171595,1406,372,2.09478,11.9786
189,652,2.11121,-11.884,3.93195e-05,-0.000841232,0.00373597,0.00336086,-0.00416278,0.726745,0.00435199,0.0234385,1413,372,2.11124,11.884
196,652,2.08081,-11.778,0,0,0,0,0,0,0,-1,1420,372,2.08077,11.7779
203,652,2.06409,-11.7058,0,0,0,0,0,0,0,-1,1427,372,2.06409,11.7058
210,652,2.05432,-11.7673,-0.00140571,-5.52004e-05,0.00305659,0.00239984,-0.00386075,0.894111,0.00364721,0.0331336,1434,372,2.05438,11.7673
217,652,2.06885,-11.3704,-0.00171928,0.000634166,0.00257904,0.00229225,-0.00337736,0.999423,0.00329328,0.0333116,1441,372,2.06882,11.3704
224,652,2.01501,-11.2821,-0.00168424,0.0012753,0.00195236,0.00224531,-0.00265425,1.10968,0.00283205,0.0297455,1448,372,2.01495,11.2821
231,652,2.08972,-11.1881,-0.00152887,0.00185878,0.00149639,0.00242509,-0.00209518,1.209,0.0026121,0.0370892,1455,372,2.08975,11.1881
238,652,2.23096,-11.2068,-0.00128489,0.00264005,0.00104056,0.00289885,-0.00154369,1.32703,0.00260438,0.0403509,1462,372,2.2309,11.2069
245,652,2.07397,-11.2161,-0.00114639,0.00328829,0.000318314,0.00331102,-0.00116913,1.49951,0.00268334,0.0391564,1469,372,2.07403,11.2161
252,652,1.81311,-11.221,-0.000580768,0.00446883,-0.000306884,0.00448741,-0.000599351,-1.51032,0.0032101,0.0464248,1476,372,1.81314,11.221
259,652,1.91943,-10.5864,0,0,0,0,0,0,0,-1,1483,372,1.91937,10.5864
266,652,1.66089,-10.3058,0.00261145,0.00794897,-0.00165971,0.00842297,0.00213746,-1.29261,0.00505575,0.0498727,1490,372,1.66086,10.3058
273,652,1.81042,-10.3229,0.00436033,0.00929404,-0.0019968,0.0100009,0.00365345,-1.23056,0.00584344,0.0486769,1497,372,1.81042,10.3229
280,652,1.87219,-10.4687,0,0,0,0,0,0,0,-1,1504,372,1.87219,10.4687
287,652,2.35071,-12.0234,0,0,0,0,0,0,0,-1,1511,372,2.3507,12.0234
294,652,2.42212,-11.4209,0,0,0,0,0,0,0,-1,1518,372,2.42214,11.4209
301,652,2.49353,-10.8183,0,0,0,0,0,0,0,-1,1525,372,2.49358,10.8183
308,652,3.63831,-3.87357,0,0,0,0,0,0,0,-1,1532,372,3.63836,3.87356
315,652,3.80261,-3.13852,0,0,0,0,0,0,0,-1,1539,372,3.80259,3.13852
322,652,4.0553,-2.72958,0,0,0,0,0,0,0,-1,1546,372,4.05529,2.72959
329,652,4.35828,-2.34665,0,0,0,0,0,0,0,-1,1553,372,4.35832,2.34665
336,652,4.60815,-2.13776,0,0,0,0,0,0,0,-1,1560,372,4.6082,2.13775
343,652,4.18225,-6.7092,0,0,0,0,0,0,0,-1,1567,372,4.18231,6.70921
350,652,4.64563,-7.2074,0,0,0,0,0,0,0,-1,1574,372,4.6456,7.2074
357,652,0,0,0,0,0,0,0,0,0,-1,1581,372,0,0
364,652,0,0,0,0,0,0,0,0,0,-1,1588,372,0,0
371,652,0,0,0,0,0,0,0,0,0,-1,1595,372,0,0
378,652,0,0,0,0,0,0,0,0,0,-1,1602,372,0,0
385,652,0,0,0,0,0,0,0,0,0,-1,1609,372,0,0
392,652,0,0,0,0,0,0,0,0,0,-1,1616,372,0,0
399,652,0,0,0,0,0,0,0,0,0,-1,1623,372,0,0
406,652,0,0,0,0,0,0,0,0,0,-1,1630,372,0,0
413,652,0,0,0,0,0,0,0,0,0,-1,1637,372,0,0
420,652,0,0,0,0,0,0,0,0,0,-1,1644,372,0,0
427,652,0,0,0,0,0,0,0,0,0,-1,1651,372,0,0
434,652,0,0,0,0,0,0,0,0,0,-1,1658,372,0,0
441,652,0,0,0,0,0,0,0,0,0,-1,1665,372,0,0
448,652,0,0,0,0,0,0,0,0,0,-1,1672,372,0,0
455,652,0,0,0,0,0,0,0,0,0,-1,1679,372,0,0
462,652,0,0,0,0,0,0,0,0,0,-1,1686,372,0,0
469,652,0,0,0,0,0,0,0,0,0,-1,1693,372,0,0
476,652,0,0,0,0,0,0,0,0,0,-1,1700,372,0,0
483,652,0,0,0,0,0,0,0,0,0,-1,1707,372,0,0
490,652,0,0,0,0,0,0,0,0,0,-1,1714,372,0,0
497,652,0,0,0,0,0,0,0,0,0,-1,1721,372,0,0
504,652,0,0,0,0,0,0,0,0,0,-1,1728,372,0,0
511,652,0,0,0,0,0,0,0,0,0,-1,1735,372,0,0
518,652,0,0,0,0,0,0,0,0,0,-1,1742,372,0,0
525,652,0,0,0,0,0,0,0,0,0,-1,1749,372,0,0
532,652,0,0,0,0,0,0,0,0,0,-1,1756,372,0,0
539,652,0,0,0,0,0,0,0,0,0,-1,1763,372,0,0
546,652,0,0,0,0,0,0,0,0,0,-1,1770,372,0,0
553,652,0,0,0,0,0,0,0,0,0,-1,1777,372,0,0
560,652,0,0,0,0,0,0,0,0,0,-1,1784,372,0,0
567,652,0,0,0,0,0,0,0,0,0,-1,1791,372,0,0
574,652,0,0,0,0,0,0,0,0,0,-1,1798,372,0,0
581,652,0,0,0,0,0,0,0,0,0,-1,1805,372,0,0
588,652,0,0,0,0,0,0,0,0,0,-1,1812,372,0,0
595,652,0,0,0,0,0,0,0,0,0,-1,1819,372,0,0
602,652,0,0,0,0,0,0,0,0,0,-1,1826,372,0,0
609,652,0,0,0,0,0,0,0,0,0,-1,1833,372,0,0
616,652,0,0,0,0,0,0,0,0,0,-1,1840,372,0,0
623,652,0,0,0,0,0,0,0,0,0,-1,1847,372,0,0
630,652,0,0,0,0,0,0,0,0,0,-1,1854,372,0,0
637,652,0,0,0,0,0,0,0,0,0,-1,1861,372,0,0
644,652,0,0,0,0,0,0,0,0,0,-1,1868,372,0,0
651,652,0,0,0,0,0,0,0,0,0,-1,1875,372,0,0
658,652,0,0,0,0,0,0,0,0,0,-1,1882,372,0,0
665,652,0,0,0,0,0,0,0,0,0,-1,1889,372,0,0
672,652,0,0,0,0,0,0,0,0,0,-1,1896,372,0,0
679,652,0,0,0,0,0,0,0,0,0,-1,1903,372,0,0
686,652,0,0,0,0,0,0,0,0,0,-1,1910,372,0,0
693,652,0,0,0,0,0,0,0,0,0,-1,1917,372,0,0
700,652,0,0,0,0,0,0,0,0,0,-1,1924,372,0,0
707,652,0,0,0,0,0,0,0,0,0,-1,1931,372,0,0
714,652,0,0,0,0,0,0,0,0,0,-1,1938,372,0,0
721,652,0,0,0,0,0,0,0,0,0,-1,1945,372,0,0
728,652,0,0,0,0,0,0,0,0,0,-1,1952,372,0,0
735,652,0,0,0,0,0,0,0,0,0,-1,1959,372,0,0
742,652,0,0,0,0,0,0,0,0,0,-1,1966,372,0,0
749,652,0,0,0,0,0,0,0,0,0,-1,1973,372,0,0
756,652,0,0,0,0,0,0,0,0,0,-1,1980,372,0,0
763,652,0,0,0,0,0,0,0,0,0,-1,1987,372,0,0
770,652,0,0,0,0,0,0,0,0,0,-1,1994,372,0,0
777,652,0,0,0,0,0,0,0,0,0,-1,2001,372,0,0
784,652,0,0,0,0,0,0,0,0,0,-1,2008,372,0,0
791,652,0,0,0,0,0,0,0,0,0,-1,2015,372,0,0
798,652,0,0,0,0,0,0,0,0,0,-1,2022,372,0,0
805,652,0,0,0,0,0,0,0,0,0,-1,2029,372,0,0
812,652,0,0,0,0,0,0,0,0,0,-1,2036,372,0,0
-700,645,0,0,0,0,0,0,0,0,0,-1,524,379,0,0
-693,645,0,0,0,0,0,0,0,0,0,-1,531,379,0,0
-686,645,0,0,0,0,0,0,0,0,0,-1,538,379,0,0
-679,645,0,0,0,0,0,0,0,0,0,-1,545,379,0,0
-672,645,0,0,0,0,0,0,0,0,0,-1,552,379,0,0
-665,645,0,0,0,0,0,0,0,0,0,-1,559,379,0,0
-658,645,0,0,0,0,0,0,0,0,0,-1,566,379,0,0
-651,645,0,0,0,0,0,0,0,0,0,-1,573,379,0,0
-644,645,0,0,0,0,0,0,0,0,0,-1,580,379,0,0
-637,645,0,0,0,0,0,0,0,0,0,-1,587,379,0,0
-630,645,0,0,0,0,0,0,0,0,0,-1,594,379,0,0
-623,645,0,0,0,0,0,0,0,0,0,-1,601,379,0,0
-616,645,0,0,0,0,0,0,0,0,0,-1,608,379,0,0
-609,645,0,0,0,0,0,0,0,0,0,-1,615,379,0,0
-602,645,0,0,0,0,0,0,0,0,0,-1,622,379,0,0
-595,645,0,0,0,0,0,0,0,0,0,-1,629,379,0,0
-588,645,0,0,0,0,0,0,0,0,0,-1,636,379,0,0
-581,645,0,0,0,0,0,0,0,0,0,-1,643,379,0,0
-574,645,0,0,0,0,0,0,0,0,0,-1,650,379,0,0
-567,645,0,0,0,0,0,0,0,0,0,-1,657,379,0,0
-560,645,0,0,0,0,0,0,0,0,0,-1,664,379,0,0
-553,645,0,0,0,0,0,0,0,0,0,-1,671,379,0,0
-546,645,0,0,0,0,0,0,0,0,0,-1,678,379,0,0
-539,645,0,0,0,0,0,0,0,0,0,-1,685,379,0,0
-532,645,0,0,0,0,0,0,0,0,0,-1,692,379,0,0
-525,645,0,0,0,0,0,0,0,0,0,-1,699,379,0,0
-518,645,0,0,0,0,0,0,0,0,0,-1,706,379,0,0
-511,645,0,0,0,0,0,0,0,0,0,-1,713,379,0,0
-504,645,0,0,0,0,0,0,0,0,0,-1,720,379,0,0
-497,645,0,0,0,0,0,0,0,0,0,-1,727,379,0,0
-490,645,0,0,0,0,0,0,0,0,0,-1,734,379,0,0
-483,645,0,0,0,0,0,0,0,0,0,-1,741,379,0,0
-476,645,0,0,0,0,0,0,0,0,0,-1,748,379,0,0
-469,645,0,0,0,0,0,0,0,0,0,-1,755,379,0,0
-462,645,0,0,0,0,0,0,0,0,0,-1,762,379,0,0
-455,645,0,0,0,0,0,0,0,0,0,-1,769,379,0,0
-448,645,0,0,0,0,0,0,0,0,0,-1,776,379,0,0
-441,645,0,0,0,0,0,0,0,0,0,-1,783,379,0,0
-434,645,0,0,0,0,0,0,0,0,0,-1,790,379,0,0
-427,645,0,0,0,0,0,0,0,0,0,-1,797,379,0,0
-420,645,0,0,0,0,0,0,0,0,0,-1,804,379,0,0
-413,645,0,0,0,0,0,0,0,0,0,-1,811,379,0,0
-406,645,0,0,0,0,0,0,0,0,0,-1,818,379,0,0
-399,645,0,0,0,0,0,0,0,0,0,-1,825,379,0,0
-392,645,0,0,0,0,0,0,0,0,0,-1,832,379,0,0
-385,645,0,0,0,0,0,0,0,0,0,-1,839,379,0,0
-378,645,0,0,0,0,0,0,0,0,0,-1,846,379,0,0
-371,645,0,0,0,0,0,0,0,0,0,-1,853,379,0,0
-364,645,0,0,0,0,0,0,0,0,0,-1,860,379,0,0
-357,645,0,0,0,0,0,0,0,0,0,-1,867,379,0,0
-350,645,0,0,0,0,0,0,0,0,0,-1,874,379,0,0
-343,645,0,0,0,0,0,0,0,0,0,-1,881,379,0,0
-336,645,0,0,0,0,0,0,0,0,0,-1,888,379,0,0
-329,645,0,0,0,0,0,0,0,0,0,-1,895,379,0,0
-322,645,0,0,0,0,0,0,0,0,0,-1,902,379,0,0
-315,645,0,0,0,0,0,0,0,0,0,-1,909,379,0,0
-308,645,0,0,0,0,0,0,0,0,0,-1,916,379,0,0
-301,645,0,0,0,0,0,0,0,0,0,-1,923,379,0,0
-294,645,0,0,0,0,0,0,0,0,0,-1,930,379,0,0
-287,645,0,0,0,0,0,0,0,0,0,-1,937,379,0,0
-280,645,0,0,0,0,0,0,0,0,0,-1,944,379,0,0
-273,645,0,0,0,0,0,0,0,0,0,-1,951,379,0,0
-266,645,0,0,0,0,0,0,0,0,0,-1,958,379,0,0
-259,645,0,0,0,0,0,0,0,0,0,-1,965,379,0,0
-252,645,-1.50244,-10.0362,0,0,0,0,0,0,0,-1,972,379,-1.50244,10.0362
-245,645,-3.15631,-11.1812,0,0,0,0,0,0,0,-1,979,379,-3.15633,11.1812
-238,645,-2.591,-10.3983,0,0,0,0,0,0,0,-1,986,379,-2.59098,10.3983
-231,645,-1.71124,-10.0034,0,0,0,0,0,0,0,-1,993,379,-1.71127,10.0033
-224,645,-2.58899,-7.38031,0,0,0,0,0,0,0,-1,1000,379,-2.58896,7.38031
-217,645,-3.33527,-5.9166,0,0,0,0,0,0,0,-1,1007,379,-3.33529,5.91658
-210,645,2.55573,-13.5182,0,0,0,0,0,0,0,-1,1014,379,2.55572,13.5182
-203,645,2.59467,-12.8821,0,0,0,0,0,0,0,-1,1021,379,2.59469,12.8821
-196,645,2.57666,-12.4496,0,0,0,0,0,0,0,-1,1028,379,2.57661,12.4497
-189,645,2.67126,-11.7241,0,0,0,0,0,0,0,-1,1035,379,2.67126,11.7241
-182,645,2.1803,-11.3343,0,0,0,0,0,0,0,-1,1042,379,2.18029,11.3343
-175,645,2.89819,-10.696,0,0,0,0,0,0,0,-1,1049,379,2.89824,10.696
-168,645,2.94556,-11.3252,-0.000137081,-0.0328028,0.00038466,-0.00013255,-0.0328073,0.0117735,0.0218275,0.0459317,1056,379,2.94551,11.3252
-161,645,2.41406,-11.1324,-0.00110123,-0.029309,0.000385853,-0.00109596,-0.0293143,0.0136755,0.019188,0.0453738,1063,379,2.4141,11.1324
-154,645,2.52209,-11.2015,-0.00163464,-0.0255891,0.000496588,-0.00162435,-0.0255994,0.0207186,0.0165514,0.0411826,1070,379,2.5221,11.2015
-147,645,2.74426,-11.4186,-0.00227084,-0.0206026,0.000675065,-0.00224601,-0.0206274,0.0367585,0.0130674,0.0383494,1077,379,2.74431,11.4186
-140,645,2.53455,-11.387,-0.00297282,-0.0147317,0.000908038,-0.00290311,-0.0148014,0.0766164,0.00905633,0.0349478,1084,379,2.53449,11.387
-133,645,2.43896,-11.4961,-0.003914,-0.00916905,0.000744542,-0.00381055,-0.0092725,0.138062,0.00538171,0.0298714,1091,379,2.43901,11.4961
-126,645,2.52014,-11.5724,-0.00455935,-0.00402978,0.000674529,-0.00356993,-0.0050192,0.972431,0.00298281,0.023222,1098,379,2.52012,11.5724
-119,645,2.47534,-11.672,-0.00510365,0.000740046,0.00066598,0.000814984,-0.00517858,1.45875,0.00375366,0.0158834,1105,379,2.47533,11.672
-112,645,2.45422,-11.7785,-0.00551293,0.00551916,0.000575827,0.00554913,-0.0055429,1.51879,0.00640399,0.0116195,1112,379,2.45419,11.7785
-105,645,2.43909,-11.8748,-0.00596178,0.00917883,0.000738331,0.00921475,-0.0059977,1.52219,0.00884813,0.0118486,1119,379,2.43911,11.8748
-98,645,2.42004,-11.9472,-0.00633631,0.0116269,0.000841221,0.0116663,-0.00637562,1.5241,0.0105647,0.0124882,1126,379,2.42,11.9472
-91,645,2.42786,-12.0212,-0.0060138,0.0126485,0.000656308,0.0126716,-0.00603685,1.53569,0.0110254,0.0116916,1133,379,2.42786,12.0212
-84,645,2.41882,-12.1113,-0.00577612,0.0129089,0.000662564,0.0129324,-0.00579958,1.5354,0.0110732,0.0118576,1140,379,2.41881,12.1113
-77,645,2.38696,-12.2012,-0.00528744,0.0117652,0.000637302,0.011789,-0.00531122,1.53349,0.0101062,0.0113282,1147,379,2.38702,12.2012
-70,645,2.37744,-12.2736,-0.00467036,0.010252,0.000571741,0.0102739,-0.00469223,1.53256,0.00883873,0.0100741,1154,379,2.37747,12.2736
-63,645,2.37402,-12.3359,-0.00339549,0.00820107,0.00013356,0.00820261,-0.00339703,1.55928,0.00688596,0.0109648,1161,379,2.374,12.3359
-56,645,2.36438,-12.3768,-0.00180508,0.00591832,0.000110153,0.00591989,-0.00180665,1.55654,0.00466687,0.0125232,1168,379,2.36434,12.3768
-49,645,2.36108,-12.4151,-0.00108026,0.00439981,-0.000159857,0.00440447,-0.00108492,-1.54166,0.00335691,0.0103028,1175,379,2.36107,12.4151
-42,645,2.34888,-12.4892,-0.000474985,0.00288945,-0.000520659,0.00296818,-0.000553717,-1.42072,0.00218685,0.0100312,1182,379,2.34885,12.4892
-35,645,2.33679,-12.5633,2.47321e-05,0.00106616,-0.000867339,0.00155708,-0.000466197,-1.05574,0.00122343,0.0101243,1189,379,2.33682,12.5633
-28,645,2.31909,-12.6222,0.000749239,5.21406e-05,-0.000646617,0.00113526,-0.000333885,-0.538205,0.000889283,0.00831781,1196,379,2.31905,12.6222
-21,645,2.30957,-12.6417,0.00108042,-0.000236533,-0.000672435,0.00136309,-0.000519204,-0.397943,0.00112256,0.00997796,1203,379,2.30958,12.6417
-14,645,2.328,-12.6673,0.00130753,-0.000416369,-0.000698315,0.0015549,-0.000663744,-0.340453,0.00131493,0.00962667,1210,379,2.32796,12.6673
-7,645,2.32825,-12.7236,0.00136544,-0.000365812,-0.000719335,0.00162531,-0.000625687,-0.34668,0.00134165,0.0129116,1217,379,2.3283,12.7236
0,645,2.30701,-12.7331,0.00136612,-0.000301937,-0.000719685,0.0016337,-0.000569522,-0.355969,0.00132057,0.0236693,1224,379,2.30703,12.7331
7,645,2.29895,-12.7506,0.00136597,-0.000226301,-0.000665117,0.00160724,-0.000467573,-0.347988,0.00125669,0.0163763,1231,379,2.29889,12.7506
14,645,2.30652,-12.7749,0.00124311,-6.2582e-05,-0.000613024,0.00148582,-0.000305283,-0.376974,0.00110643,0.0158949,1238,379,2.30648,12.7749
21,645,2.28772,-12.7826,0.00108597,5.95674e-05,-0.000567704,0.00133805,-0.000192518,-0.41789,0.000962648,0.0107928,1245,379,2.28773,12.7826
28,645,2.28394,-12.8124,0.00100081,-6.03417e-05,-0.000517226,0.0012112,-0.000270734,-0.386329,0.000911218,0.00943124,1252,379,2.28388,12.8124
35,645,2.276,-12.8194,0.000811302,3.5298e-05,-0.000456022,0.00102205,-0.00017545,-0.432907,0.000746752,0.00916674,1259,379,2.27601,12.8194
42,645,2.26929,-12.8202,0.00053467,0.000128371,-0.000385559,0.000767325,-0.000104284,-0.542932,0.000549619,0.00895149,1266,379,2.2693,12.8202
49,645,2.27783,-12.8093,0.000275915,3.18693e-05,-0.000370727,0.000544184,-0.0002364,-0.62641,0.000462201,0.011382,1273,379,2.2778,12.8093
56,645,2.27271,-12.8009,6.31927e-05,-0.0002724,-0.000528756,0.000450138,-0.000659345,-0.631753,0.000644345,0.011798,1280,379,2.27272,12.8009
63,645,2.26355,-12.805,-8.0672e-05,-0.000459228,-0.000752228,0.000505726,-0.00104563,-0.662145,0.000913575,0.0120875,1287,379,2.26352,12.805
70,645,2.24683,-12.7866,-0.000298488,-0.00143882,-0.00086759,0.000169519,-0.00190682,-0.494695,0.00133133,0.0147898,1294,379,2.24688,12.7866
77,645,2.24927,-12.765,-0.000418966,-0.00251729,-0.000975756,-3.5355e-05,-0.0029009,-0.374581,0.00192226,0.017781,1301,379,2.24932,12.7649
84,645,2.26257,-12.7469,-0.000295481,-0.00397716,-0.00101083,-3.62089e-05,-0.00423643,-0.251081,0.0028123,0.0127092,1308,379,2.26252,12.7469
91,645,2.23267,-12.7369,-0.000329608,-0.00532873,-0.0010229,-0.000128405,-0.00552993,-0.194219,0.00364457,0.0131843,1315,379,2.23266,12.7369
98,645,2.2478,-12.6851,-0.000278016,-0.00660229,-0.000952794,-0.000137589,-0.00674272,-0.146331,0.00444999,0.0126849,1322,379,2.24785,12.6851
105,645,2.26428,-12.63,-5.03629e-05,-0.00784414,-0.00073966,1.92127e-05,-0.00791371,-0.0937882,0.00528223,0.010313,1329,379,2.2643,12.63
112,645,2.24463,-12.6095,0.000224468,-0.00903253,-0.000458393,0.000247112,-0.00905517,-0.0493576,0.00612082,0.00843765,1336,379,2.24462,12.6095
119,645,2.23621,-12.5737,0.000583727,-0.0101003,-4.68759e-05,0.000583933,-0.0101005,-0.00438737,0.0069365,0.00790231,1343,379,2.23622,12.5737
126,645,2.21399,-12.5203,0.000911947,-0.0107447,0.000437391,0.000928335,-0.0107611,0.0374526,0.0075027,0.0103487,1350,379,2.21397,12.5203
133,645,2.20129,-12.4576,0.00115424,-0.010903,0.000933188,0.00122603,-0.0109748,0.0767868,0.0077576,0.0121041,1357,379,2.20126,12.4576
140,645,2.19983,-12.3985,0.00143806,-0.0108859,0.00139212,0.00159335,-0.0110412,0.111095,0.00794537,0.012365,1364,379,2.19988,12.3985
147,645,2.1781,-12.3684,0.00159737,-0.0104147,0.00178496,0.00185699,-0.0106744,0.14444,0.00780919,0.0125553,1371,379,2.17805,12.3684
154,645,2.18896,-12.3065,0.00167717,-0.00944791,0.00198262,0.00201994,-0.00979068,0.171193,0.00729426,0.0112375,1378,379,2.18902,12.3065
161,645,2.19702,-12.2154,0.00168174,-0.00840405,0.0023145,0.00218751,-0.00890982,0.215141,0.00678758,0.0142042,1385,379,2.19704,12.2154
168,645,2.1709,-12.125,0.0014587,-0.00720181,0.00257433,0.00216613,-0.00790924,0.268182,0.00612393,0.0161102,1392,379,2.17091,12.125
175,645,2.18835,-12.0568,0.00137543,-0.00476587,0.00251871,0.00227627,-0.00566672,0.343484,0.00472309,0.0131079,1399,379,2.18839,12.0568
182,645,2.20361,-11.966,0.00102921,-0.00266545,0.00256093,0.00233956,-0.00397581,0.472942,0.00368675,0.00954834,1406,379,2.20358,11.966
189,645,2.19324,-11.8759,9.08499e-05,-0.000235712,0.00245543,0.00238842,-0.00253328,0.752198,0.00284196,0.0106699,1413,379,2.19327,11.8759
196,645,2.15796,-11.7975,-0.000137935,0.000422587,0.0023838,0.00254254,-0.00225789,0.843914,0.00277315,0.0108253,1420,379,2.15799,11.7975
203,645,2.13757,-11.7004,-0.000517538,8.41308e-05,0.00224399,0.00204736,-0.00248077,0.852032,0.00261831,0.0106971,1427,379,2.13759,11.7004
210,645,2.15186,-11.6059,-0.00112547,0.00028114,0.00223108,0.00191714,-0.00276147,0.938084,0.00271582,0.0133892,1434,379,2.15187,11.6059
217,645,2.13733,-11.5083,-0.00137908,0.000820835,0.00191034,0.00192526,-0.0024835,1.04661,0.00255219,0.0129257,1441,379,2.13738,11.5083
224,645,2.11853,-11.3911,-0.00135687,0.00134154,0.00150367,0.00201257,-0.0020279,1.15105,0.00233278,0.0122022,1448,379,2.11855,11.3911
231,645,2.09827,-11.2775,-0.00118055,0.00183439,0.00126724,0.00229628,-0.00164244,1.22128,0.00228444,0.0136055,1455,379,2.0983,11.2775
238,645,2.08923,-11.1728,-0.00096471,0.00254547,0.00108806,0.00285538,-0.00127462,1.29332,0.00244198,0.0107737,1462,379,2.08919,11.1728
245,645,2.09973,-11.0483,-0.000890418,0.00306502,0.000687399,0.00318107,-0.00100647,1.40354,0.00252401,0.0114141,1469,379,2.09979,11.0483
252,645,2.12463,-10.8609,-0.000498137,0.00401825,0.000371881,0.00404867,-0.000528553,1.48919,0.00289144,0.0182811,1476,379,2.12466,10.8609
259,645,2.0769,-10.6555,0.000503507,0.00524961,-8.40435e-05,0.0052511,0.000502019,-1.5531,0.00334597,0.0286977,1483,379,2.07686,10.6555
266,645,2.01587,-10.529,0.00181919,0.00668207,-0.00037843,0.00671134,0.00178992,-1.4936,0.00401293,0.0265075,1490,379,2.01586,10.529
273,645,2.03967,-10.4617,0.00303469,0.00766768,-0.000517761,0.00772483,0.00297753,-1.46085,0.00449878,0.0256913,1497,379,2.03973,10.4617
280,645,2.14709,-10.2795,0.00462167,0.00874718,-0.000350844,0.0087768,0.00459205,-1.48656,0.00506911,0.04531,1504,379,2.14714,10.2795
287,645,2.21118,-10.172,0,0,0,0,0,0,0,-1,1511,379,2.21124,10.172
294,645,2.28259,-10.7076,0,0,0,0,0,0,0,-1,1518,379,2.28254,10.7075
301,645,2.16968,-10.2865,0,0,0,0,0,0,0,-1,1525,379,2.16965,10.2865
308,645,1.57544,-9.64493,0,0,0,0,0,0,0,-1,1532,379,1.57541,9.64493
315,645,2.22375,-9.56613,0,0,0,0,0,0,0,-1,1539,379,2.22377,9.56612
322,645,7.72778,-3.21677,0,0,0,0,0,0,0,-1,1546,379,7.72779,3.21678
329,645,8.11267,-2.93332,0,0,0,0,0,0,0,-1,1553,379,8.11268,2.93332
336,645,0.61792,-6.51047,0,0,0,0,0,0,0,-1,1560,379,0.617879,6.51047
343,645,3.48962,-5.22675,0,0,0,0,0,0,0,-1,1567,379,3.48959,5.22675
350,645,3.93213,-5.72198,0,0,0,0,0,0,0,-1,1574,379,3.9321,5.72198
357,645,1.63928,-6.465,0,0,0,0,0,0,0,-1,1581,379,1.63926,6.46499
364,645,-0.0794678,-3.22021,0,0,0,0,0,0,0,-1,1588,379,-0.0794987,3.22021
371,645,0,0,0,0,0,0,0,0,0,-1,1595,379,0,0
378,645,0,0,0,0,0,0,0,0,0,-1,1602,379,0,0
385,645,0,0,0,0,0,0,0,0,0,-1,1609,379,0,0
392,645,0,0,0,0,0,0,0,0,0,-1,1616,379,0,0
399,645,0,0,0,0,0,0,0,0,0,-1,1623,379,0,0
406,645,0,0,0,0,0,0,0,0,0,-1,1630,379,0,0
413,645,0,0,0,0,0,0,0,0,0,-1,1637,379,0,0
420,645,0,0,0,0,0,0,0,0,0,-1,1644,379,0,0
427,645,0,0,0,0,0,0,0,0,0,-1,1651,379,0,0
434,645,0,0,0,0,0,0,0,0,0,-1,1658,379,0,0
441,645,0,0,0,0,0,0,0,0,0,-1,1665,379,0,0
448,645,0,0,0,0,0,0,0,0,0,-1,1672,379,0,0
455,645,0,0,0,0,0,0,0,0,0,-1,1679,379,0,0
462,645,0,0,0,0,0,0,0,0,0,-1,1686,379,0,0
469,645,0,0,0,0,0,0,0,0,0,-1,1693,379,0,0
476,645,0,0,0,0,0,0,0,0,0,-1,1700,379,0,0
483,645,0,0,0,0,0,0,0,0,0,-1,1707,379,0,0
490,645,0,0,0,0,0,0,0,0,0,-1,1714,379,0,0
497,645,0,0,0,0,0,0,0,0,0,-1,1721,379,0,0
504,645,0,0,0,0,0,0,0,0,0,-1,1728,379,0,0
511,645,0,0,0,0,0,0,0,0,0,-1,1735,379,0,0
518,645,0,0,0,0,0,0,0,0,0,-1,1742,379,0,0
525,645,0,0,0,0,0,0,0,0,0,-1,1749,379,0,0
532,645,0,0,0,0,0,0,0,0,0,-1,1756,379,0,0
539,645,0,0,0,0,0,0,0,0,0,-1,1763,379,0,0
546,645,0,0,0,0,0,0,0,0,0,-1,1770,379,0,0
553,645,0,0,0,0,0,0,0,0,0,-1,1777,379,0,0
560,645,0,0,0,0,0,0,0,0,0,-1,1784,379,0,0
567,645,0,0,0,0,0,0,0,0,0,-1,1791,379,0,0
574,645,0,0,0,0,0,0,0,0,0,-1,1798,379,0,0
581,645,0,0,0,0,0,0,0,0,0,-1,1805,379,0,0
588,645,0,0,0,0,0,0,0,0,0,-1,1812,379,0,0
595,645,0,0,0,0,0,0,0,0,0,-1,1819,379,0,0
602,645,0,0,0,0,0,0,0,0,0,-1,1826,379,0,0
609,645,0,0,0,0,0,0,0,0,0,-1,1833,379,0,0
616,645,0,0,0,0,0,0,0,0,0,-1,1840,379,0,0
623,645,0,0,0,0,0,0,0,0,0,-1,1847,379,0,0
630,645,0,0,0,0,0,0,0,0,0,-1,1854,379,0,0
637,645,0,0,0,0,0,0,0,0,0,-1,1861,379,0,0
644,645,0,0,0,0,0,0,0,0,0,-1,1868,379,0,0
651,645,0,0,0,0,0,0,0,0,0,-1,1875,379,0,0
658,645,0,0,0,0,0,0,0,0,0,-1,1882,379,0,0
665,645,0,0,0,0,0,0,0,0,0,-1,1889,379,0,0
672,645,0,0,0,0,0,0,0,0,0,-1,1896,379,0,0
679,645,0,0,0,0,0,0,0,0,0,-1,1903,379,0,0
686,645,0,0,0,0,0,0,0,0,0,-1,1910,379,0,0
693,645,0,0,0,0,0,0,0,0,0,-1,1917,379,0,0
700,645,0,0,0,0,0,0,0,0,0,-1,1924,379,0,0
707,645,0,0,0,0,0,0,0,0,0,-1,1931,379,0,0
714,645,0,0,0,0,0,0,0,0,0,-1,1938,379,0,0
721,645,0,0,0,0,0,0,0,0,0,-1,1945,379,0,0
728,645,0,0,0,0,0,0,0,0,0,-1,1952,379,0,0
735,645,0,0,0,0,0,0,0,0,0,-1,1959,379,0,0
742,645,0,0,0,0,0,0,0,0,0,-1,1966,379,0,0
749,645,0,0,0,0,0,0,0,0,0,-1,1973,379,0,0
756,645,0,0,0,0,0,0,0,0,0,-1,1980,379,0,0
763,645,0,0,0,0,0,0,0,0,0,-1,1987,379,0,0
770,645,0,0,0,0,0,0,0,0,0,-1,1994,379,0,0
777,645,0,0,0,0,0,0,0,0,0,-1,2001,379,0,0
784,645,0,0,0,0,0,0,0,0,0,-1,2008,379,0,0
791,645,0,0,0,0,0,0,0,0,0,-1,2015,379,0,0
798,645,0,0,0,0,0,0,0,0,0,-1,2022,379,0,0
805,645,0,0,0,0,0,0,0,0,0,-1,2029,379,0,0
812,645,0,0,0,0,0,0,0,0,0,-1,2036,379,0,0
-700,638,0,0,0,0,0,0,0,0,0,-1,524,386,0,0
-693,638,0,0,0,0,0,0,0,0,0,-1,531,386,0,0
-686,638,0,0,0,0,0,0,0,0,0,-1,538,386,0,0
-679,638,0,0,0,0,0,0,0,0,0,-1,545,386,0,0
-672,638,0,0,0,0,0,0,0,0,0,-1,552,386,0,0
-665,638,0,0,0,0,0,0,0,0,0,-1,559,386,0,0
-658,638,0,0,0,0,0,0,0,0,0,-1,566,386,0,0
-651,638,0,0,0,0,0,0,0,0,0,-1,573,386,0,0
-644,638,0,0,0,0,0,0,0,0,0,-1,580,386,0,0
-637,638,0,0,0,0,0,0,0,0,0,-1,587,386,0,0
-630,638,0,0,0,0,0,0,0,0,0,-1,594,386,0,0
-623,638,0,0,0,0,0,0,0,0,0,-1,601,386,0,0
-616,638,0,0,0,0,0,0,0,0,0,-1,608,386,0,0
-609,638,0,0,0,0,0,0,0,0,0,-1,615,386,0,0
-602,638,0,0,0,0,0,0,0,0,0,-1,622,386,0,0
-595,638,0,0,0,0,0,0,0,0,0,-1,629,386,0,0
-588,638,0,0,0,0,0,0,0,0,0,-1,636,386,0,0
-581,638,0,0,0,0,0,0,0,0,0,-1,643,386,0,0
-574,638,0,0,0,0,0,0,0,0,0,-1,650,386,0,0
-567,638,0,0,0,0,0,0,0,0,0,-1,657,386,0,0
-560,638,0,0,0,0,0,0,0,0,0,-1,664,386,0,0
-553,638,0,0,0,0,0,0,0,0,0,-1,671,386,0,0
-546,638,0,0,0,0,0,0,0,0,0,-1,678,386,0,0
-539,638,0,0,0,0,0,0,0,0,0,-1,685,386,0,0
-532,638,0,0,0,0,0,0,0,0,0,-1,692,386,0,0
-525,638,0,0,0,0,0,0,0,0,0,-1,699,386,0,0
-518,638,0,0,0,0,0,0,0,0,0,-1,706,386,0,0
-511,638,0,0,0,0,0,0,0,0,0,-1,713,386,0,0
-504,638,0,0,0,0,0,0,0,0,0,-1,720,386,0,0
-497,638,0,0,0,0,0,0,0,0,0,-1,727,386,0,0
-490,638,0,0,0,0,0,0,0,0,0,-1,734,386,0,0
-483,638,0,0,0,0,0,0,0,0,0,-1,741,386,0,0
-476,638,0,0,0,0,0,0,0,0,0,-1,748,386,0,0
-469,638,0,0,0,0,0,0,0,0,0,-1,755,386,0,0
-462,638,0,0,0,0,0,0,0,0,0,-1,762,386,0,0
-455,638,0,0,0,0,0,0,0,0,0,-1,769,386,0,0
-448,638,0,0,0,0,0,0,0,0,0,-1,776,386,0,0
-441,638,0,0,0,0,0,0,0,0,0,-1,783,386,0,0
-434,638,0,0,0,0,0,0,0,0,0,-1,790,386,0,0
-427,638,0,0,0,0,0,0,0,0,0,-1,797,386,0,0
-420,638,0,0,0,0,0,0,0,0,0,-1,804,386,0,0
-413,638,0,0,0,0,0,0,0,0,0,-1,811,386,0,0
-406,638,0,0,0,0,0,0,0,0,0,-1,818,386,0,0
-399,638,0,0,0,0,0,0,0,0,0,-1,825,386,0,0
-392,638,0,0,0,0,0,0,0,0,0,-1,832,386,0,0
-385,638,0,0,0,0,0,0,0,0,0,-1,839,386,0,0
-378,638,0,0,0,0,0,0,0,0,0,-1,846,386,0,0
-371,638,0,0,0,0,0,0,0,0,0,-1,853,386,0,0
-364,638,0,0,0,0,0,0,0,0,0,-1,860,386,0,0
-357,638,0,0,0,0,0,0,0,0,0,-1,867,386,0,0
-350,638,0,0,0,0,0,0,0,0,0,-1,874,386,0,0
-343,638,0,0,0,0,0,0,0,0,0,-1,881,386,0,0
-336,638,0,0,0,0,0,0,0,0,0,-1,888,386,0,0
-329,638,0,0,0,0,0,0,0,0,0,-1,895,386,0,0
-322,638,0,0,0,0,0,0,0,0,0,-1,902,386,0,0
-315,638,0,0,0,0,0,0,0,0,0,-1,909,386,0,0
-308,638,0,0,0,0,0,0,0,0,0,-1,916,386,0,0
-301,638,0,0,0,0,0,0,0,0,0,-1,923,386,0,0
-294,638,0,0,0,0,0,0,0,0,0,-1,930,386,0,0
-287,638,0,0,0,0,0,0,0,0,0,-1,937,386,0,0
-280,638,0,0,0,0,0,0,0,0,0,-1,944,386,0,0
-273,638,0,0,0,0,0,0,0,0,0,-1,951,386,0,0
-266,638,0.603821,-10.3962,0,0,0,0,0,0,0,-1,958,386,0.603829,10.3962
-259,638,0.491272,-10.2385,0,0,0,0,0,0,0,-1,965,386,0.491282,10.2385
-252,638,-3.25146,-10.4954,0,0,0,0,0,0,0,-1,972,386,-3.25145,10.4954
-245,638,-2.22461,-10.5404,-0.0434358,-0.0308422,-0.0334707,-0.00308113,-0.0711969,-0.878376,0.0464716,0.0423633,979,386,-2.2246,10.5404
-238,638,-1.19867,-10.1125,-0.0282392,-0.0236717,-0.0322909,0.00641613,-0.058327,-0.820701,0.0411903,0.0461713,986,386,-1.19867,10.1125
-231,638,-0.0879517,-10.0367,0,0,0,0,0,0,0,-1,993,386,-0.0879783,10.0367
-224,638,-0.990479,-9.01202,0,0,0,0,0,0,0,-1,1000,386,-0.990463,9.01204
-217,638,2.72388,-14.4252,0,0,0,0,0,0,0,-1,1007,386,2.72386,14.4252
-210,638,2.64087,-13.6581,0,0,0,0,0,0,0,-1,1014,386,2.64086,13.658
-203,638,2.5658,-12.8549,0,0,0,0,0,0,0,-1,1021,386,2.56579,12.8549
-196,638,2.48828,-12.1541,0,0,0,0,0,0,0,-1,1028,386,2.4883,12.1542
-189,638,2.72632,-10.4073,0,0,0,0,0,0,0,-1,1035,386,2.72632,10.4073
-182,638,2.95459,-10.5186,0,0,0,0,0,0,0,-1,1042,386,2.95454,10.5186
-175,638,2.58203,-10.8435,0,0,0,0,0,0,0,-1,1049,386,2.58204,10.8435
-168,638,2.55286,-10.8616,-0.00139593,-0.0217207,0.000590736,-0.00137877,-0.0217378,0.0290322,0.0140549,0.0316004,1056,386,2.55287,10.8616
-161,638,2.49341,-11.0089,-0.00198211,-0.0195767,0.000570293,-0.00196365,-0.0195952,0.0323676,0.0124606,0.0281406,1063,386,2.49347,11.0089
-154,638,2.48181,-11.1329,-0.00222565,-0.0172031,0.000641628,-0.00219822,-0.0172305,0.0427353,0.0108289,0.0217798,1070,386,2.48176,11.1329
-147,638,2.4928,-11.2406,-0.00256344,-0.0139426,0.000715895,-0.00251857,-0.0139874,0.0625841,0.00860911,0.0172406,1077,386,2.49278,11.2406
-140,638,2.45007,-11.3476,-0.00292291,-0.0100236,0.000779895,-0.00283826,-0.0101082,0.108117,0.00602005,0.0141616,1084,386,2.45012,11.3476
-133,638,2.41956,-11.4975,-0.0034405,-0.00623009,0.000566548,-0.00332982,-0.00634077,0.192914,0.00366239,0.011382,1091,386,2.41955,11.4975
-126,638,2.42126,-11.5924,-0.00374274,-0.00269902,0.000409212,-0.00255771,-0.00388405,1.2383,0.00227971,0.0130971,1098,386,2.42127,11.5924
-119,638,2.39636,-11.6795,-0.00398295,0.000638629,0.000318389,0.00066046,-0.00400478,1.50234,0.00291506,0.0151152,1105,386,2.39635,11.6795
-112,638,2.35999,-11.7904,-0.00410515,0.00399652,0.000143302,0.00399906,-0.00410769,1.55312,0.00468057,0.013947,1112,386,2.35997,11.7904
-105,638,2.33594,-11.891,-0.00429179,0.00648321,0.000187518,0.00648647,-0.00429505,1.5534,0.00626743,0.0166124,1119,386,2.33594,11.891
-98,638,2.34546,-11.9773,-0.00447008,0.00809836,0.000196418,0.00810143,-0.00447315,1.55517,0.00735999,0.015737,1126,386,2.3455,11.9773
-91,638,2.33899,-12.0465,-0.00415365,0.00877725,9.45933e-06,0.00877726,-0.00415365,1.57006,0.00762309,0.0110868,1133,386,2.33895,12.0465
-84,638,2.31018,-12.1142,-0.0038656,0.00882215,7.52116e-06,0.00882215,-0.00386561,1.5702,0.00750929,0.0129993,1140,386,2.31014,12.1142
-77,638,2.29883,-12.2088,-0.00348071,0.00796511,2.05095e-05,0.00796515,-0.00348075,1.569,0.00677524,0.0110264,1147,386,2.29879,12.2088
-70,638,2.30957,-12.2759,-0.0030193,0.00688199,5.24747e-05,0.00688227,-0.00301958,1.5655,0.00586004,0.00999863,1154,386,2.30959,12.2759
-63,638,2.30249,-12.3334,-0.0021935,0.00551609,-0.000108912,0.00551763,-0.00219504,-1.55667,0.00458858,0.0111664,1161,386,2.3025,12.3334
-56,638,2.297,-12.3919,-0.00115649,0.00398735,-3.5058e-05,0.00398759,-0.00115673,-1.56398,0.00311637,0.0147953,1168,386,2.29694,12.3919
-49,638,2.29175,-12.4402,-0.000628887,0.00291956,-0.000113832,0.00292321,-0.000632535,-1.53876,0.00219031,0.0122684,1175,386,2.29177,12.4402
-42,638,2.30371,-12.4969,-0.000182688,0.00185798,-0.000255766,0.00188955,-0.000214256,-1.44799,0.00133685,0.0110537,1182,386,2.30368,12.497
-35,638,2.30103,-12.5623,0.000210478,0.000611321,-0.000404912,0.000862698,-4.08994e-05,-1.01521,0.000589239,0.0105374,1189,386,2.30107,12.5623
-28,638,2.2915,-12.6281,0.000757444,-0.0002223,-0.000233642,0.000810309,-0.000275164,-0.222517,0.000651591,0.0099194,1196,386,2.29153,12.6281
-21,638,2.27441,-12.6386,0.00101018,-0.000573835,-0.000324802,0.00107419,-0.000637849,-0.194591,0.000999091,0.0112064,1203,386,2.27436,12.6386
-14,638,2.27979,-12.6633,0.00118214,-0.000833877,-0.000462493,0.00128317,-0.000934914,-0.215082,0.00128586,0.0110684,1210,386,2.27974,12.6633
-7,638,2.27441,-12.7447,0.0012469,-0.000847082,-0.000619092,0.00141624,-0.00101642,-0.267001,0.00141081,0.0160946,1217,386,2.27447,12.7447
0,638,2.2843,-12.7219,0.0012262,-0.000806878,-0.000762518,0.00148041,-0.00106108,-0.321786,0.00147397,0.0291068,1224,386,2.28435,12.7219
7,638,2.26343,-12.75,0.00116174,-0.000694662,-0.000867964,0.00150433,-0.00103726,-0.375937,0.00147562,0.0220567,1231,386,2.26349,12.75
14,638,2.27539,-12.7798,0.000985865,-0.000490217,-0.000919512,0.00142689,-0.000931246,-0.447223,0.00137146,0.0122719,1238,386,2.27541,12.7798
21,638,2.27844,-12.7889,0.000776193,-0.000349509,-0.00091055,0.00128381,-0.000857126,-0.508571,0.00124423,0.0107612,1245,386,2.27845,12.7889
28,638,2.26587,-12.8104,0.000651473,-0.000450971,-0.000820576,0.00108878,-0.000888278,-0.489641,0.00114341,0.00858214,1252,386,2.26583,12.8104
35,638,2.26953,-12.8208,0.000473666,-0.000477663,-0.000712947,0.00085506,-0.000859058,-0.491219,0.000989647,0.00993985,1259,386,2.26956,12.8208
42,638,2.28491,-12.828,0.000230506,-0.000669427,-0.000535262,0.000479807,-0.000918728,-0.435879,0.000820593,0.00919733,1266,386,2.28497,12.828
49,638,2.28259,-12.8051,3.71331e-05,-0.00105956,-0.000390802,0.000162145,-0.00118457,-0.309598,0.000848937,0.00802059,1273,386,2.28259,12.8051
56,638,2.27063,-12.7884,-7.74855e-05,-0.00153911,-0.000300922,-1.79558e-05,-0.00159864,-0.195303,0.00105982,0.0110095,1280,386,2.27067,12.7884
63,638,2.27783,-12.7918,-0.000135627,-0.00202804,-0.000266587,-9.87895e-05,-0.00206488,-0.137312,0.00134486,0.013463,1287,386,2.27785,12.7918
70,638,2.26086,-12.7751,-0.000216255,-0.00300068,-0.000213847,-0.000199927,-0.00301701,-0.0762055,0.00194812,0.0177231,1294,386,2.26083,12.7751
77,638,2.26782,-12.7551,-0.000256266,-0.00395519,-0.000140945,-0.000250903,-0.00396055,-0.0380309,0.00256083,0.0179789,1301,386,2.2678,12.7551
84,638,2.30176,-12.7253,-0.000166819,-0.00480062,-9.18247e-05,-0.000165001,-0.00480244,-0.0198059,0.00314807,0.0124131,1308,386,2.3018,12.7253
91,638,2.29407,-12.6947,-0.00023257,-0.00559087,-5.65898e-05,-0.000231972,-0.00559147,-0.0105596,0.00365278,0.0125482,1315,386,2.29401,12.6947
98,638,2.28137,-12.6701,-0.000282482,-0.00621183,3.39604e-06,-0.00028248,-0.00621183,0.000572751,0.00405035,0.0118763,1322,386,2.28132,12.6701
105,638,2.27368,-12.6502,-0.000196112,-0.00665611,0.000108517,-0.00019429,-0.00665793,0.016792,0.00437529,0.00964259,1329,386,2.27363,12.6502
112,638,2.27808,-12.6342,-7.50839e-05,-0.00697672,0.000259154,-6.53667e-05,-0.00698644,0.0374793,0.00463599,0.00923186,1336,386,2.27802,12.6342
119,638,2.27954,-12.6116,8.78657e-05,-0.00711719,0.00044995,0.000115856,-0.00714518,0.0621275,0.00480253,0.0104428,1343,386,2.27954,12.6116
126,638,2.27734,-12.5582,0.000228632,-0.00692924,0.000657836,0.000288588,-0.0069892,0.0908893,0.00475858,0.0139363,1350,386,2.2773,12.5582
133,638,2.26721,-12.4589,0.000305957,-0.00645405,0.000870547,0.000416265,-0.00656435,0.12604,0.00452138,0.0150859,1357,386,2.26721,12.4588
140,638,2.2644,-12.4002,0.000459003,-0.0060071,0.00111338,0.000645344,-0.00619344,0.165828,0.00436003,0.0165116,1364,386,2.2644,12.4002
147,638,2.26538,-12.3752,0.000600539,-0.00538901,0.00130358,0.000871953,-0.00566043,0.205274,0.00409533,0.0190927,1371,386,2.2654,12.3753
154,638,2.26343,-12.3076,0.000727363,-0.00469204,0.00138933,0.00106278,-0.00502746,0.236887,0.00375635,0.0161558,1378,386,2.26337,12.3076
161,638,2.25549,-12.2122,0.0008215,-0.00407371,0.00153075,0.00126076,-0.00451297,0.279446,0.00350531,0.0187051,1385,386,2.25551,12.2122
168,638,2.26001,-12.1121,0.000749622,-0.00334916,0.00162611,0.00131638,-0.00391592,0.335371,0.00314269,0.0244497,1392,386,2.25997,12.1121
175,638,2.29199,-12.0466,0.000732497,-0.00201706,0.00156523,0.00144098,-0.00272554,0.425043,0.00244335,0.0187358,1399,386,2.29196,12.0466
182,638,2.28113,-11.9855,0.000603119,-0.000915592,0.00150005,0.00152507,-0.00183754,0.551093,0.00194419,0.0117743,1406,386,2.28112,11.9855
189,638,2.26501,-11.8952,0.000143314,-0.000117967,0.00150595,0.00152428,-0.00149893,0.742132,0.00174548,0.0108789,1413,386,2.26506,11.8952
196,638,2.24365,-11.7964,-3.33951e-05,0.000329828,0.00155329,0.00171209,-0.00141566,0.843594,0.00180851,0.0137793,1420,386,2.24367,11.7964
203,638,2.2251,-11.6987,-0.000334531,0.000160155,0.00151929,0.0014521,-0.00162648,0.866091,0.00177837,0.0188567,1427,386,2.22508,11.6987
210,638,2.229,-11.6215,-0.000772469,0.000368343,0.00157073,0.00146903,-0.00187316,0.959567,0.00193431,0.0148301,1434,386,2.22902,11.6215
217,638,2.22571,-11.5174,-0.000981083,0.00081117,0.00137637,0.00155743,-0.00172734,1.07397,0.00189731,0.0107635,1441,386,2.22572,11.5174
224,638,2.21094,-11.4083,-0.000977528,0.00121253,0.00114538,0.00170211,-0.00146711,1.16686,0.00183142,0.0103802,1448,386,2.21097,11.4083
231,638,2.19128,-11.2952,-0.000814253,0.00160995,0.00105815,0.00200684,-0.00121115,1.21195,0.00187674,0.0116439,1455,386,2.19128,11.2952
238,638,2.17615,-11.1743,-0.000638464,0.00222065,0.00104369,0.0025611,-0.000978913,1.25548,0.00211078,0.0123555,1462,386,2.17615,11.1743
245,638,2.19092,-11.0568,-0.000607713,0.00263129,0.00084451,0.00283825,-0.000814679,1.33046,0.00221426,0.0137404,1469,386,2.19093,11.0568
252,638,2.18347,-10.9371,-0.000340807,0.00338935,0.000712979,0.00352098,-0.000472441,1.38823,0.00251961,0.0141668,1476,386,2.18346,10.9371
259,638,2.17432,-10.8073,0.000382053,0.00433215,0.000454198,0.0043837,0.0003305,1.45778,0.00281877,0.013129,1483,386,2.1743,10.8073
266,638,2.14661,-10.6794,0.00130605,0.00537692,0.000326174,0.00540289,0.00128008,1.49135,0.00326011,0.0102478,1490,386,2.14661,10.6794
273,638,2.14124,-10.5602,0.00212309,0.00608375,0.000290168,0.0061049,0.00210195,1.49805,0.00358117,0.0106416,1497,386,2.14124,10.5602
280,638,2.20459,-10.3274,0.0032302,0.00685421,0.000498678,0.00692158,0.00316283,1.43652,0.00400111,0.0225257,1504,386,2.2046,10.3274
287,638,2.53247,-10.0034,0.00434324,0.007524,0.000678936,0.00766286,0.00420438,1.36906,0.00443114,0.0378307,1511,386,2.53244,10.0034
294,638,2.28894,-10.2055,0.00569073,0.00823664,0.000825578,0.00848091,0.00544645,1.28312,0.00496203,0.0459288,1518,386,2.28893,10.2055
301,638,2.07227,-9.80948,0,0,0,0,0,0,0,-1,1525,386,2.07231,9.80947
308,638,1.96997,-9.61148,0.0090484,0.00929267,0.00153698,0.0107124,0.00762871,0.825046,0.00636764,0.0467932,1532,386,1.96999,9.61147
315,638,2.31238,-9.61353,0.0103467,0.00866529,0.00177753,0.0114723,0.00753969,0.564501,0.00673181,0.0417652,1539,386,2.31237,9.61353
322,638,2.4292,-9.54138,0,0,0,0,0,0,0,-1,1546,386,2.42916,9.54138
329,638,2.02478,-8.01016,0,0,0,0,0,0,0,-1,1553,386,2.02479,8.01018
336,638,2.75012,-8.26135,0,0,0,0,0,0,0,-1,1560,386,2.75016,8.26134
343,638,1.04028,-10.3387,0,0,0,0,0,0,0,-1,1567,386,1.04031,10.3387
350,638,2.3783,-11.33,0,0,0,0,0,0,0,-1,1574,386,2.37831,11.33
357,638,0.130371,-3.02618,0,0,0,0,0,0,0,-1,1581,386,0.130345,3.0262
364,638,3.78149,-6.45215,0,0,0,0,0,0,0,-1,1588,386,3.78155,6.45216
371,638,4.18604,-6.71164,0,0,0,0,0,0,0,-1,1595,386,4.18598,6.71164
378,638,4.59045,-6.97113,0,0,0,0,0,0,0,-1,1602,386,4.5904,6.97112
385,638,0,0,0,0,0,0,0,0,0,-1,1609,386,0,0
392,638,0,0,0,0,0,0,0,0,0,-1,1616,386,0,0
399,638,0,0,0,0,0,0,0,0,0,-1,1623,386,0,0
406,638,0,0,0,0,0,0,0,0,0,-1,1630,386,0,0
413,638,0,0,0,0,0,0,0,0,0,-1,1637,386,0,0
420,638,0,0,0,0,0,0,0,0,0,-1,1644,386,0,0
427,638,0,0,0,0,0,0,0,0,0,-1,1651,386,0,0
434,638,0,0,0,0,0,0,0,0,0,-1,1658,386,0,0
441,638,0,0,0,0,0,0,0,0,0,-1,1665,386,0,0
448,638,0,0,0,0,0,0,0,0,0,-1,1672,386,0,0
455,638,0,0,0,0,0,0,0,0,0,-1,1679,386,0,0
462,638,0,0,0,0,0,0,0,0,0,-1,1686,386,0,0
469,638,0,0,0,0,0,0,0,0,0,-1,1693,386,0,0
476,638,0,0,0,0,0,0,0,0,0,-1,1700,386,0,0
483,638,0,0,0,0,0,0,0,0,0,-1,1707,386,0,0
490,638,0,0,0,0,0,0,0,0,0,-1,1714,386,0,0
497,638,0,0,0,0,0,0,0,0,0,-1,1721,386,0,0
504,638,0,0,0,0,0,0,0,0,0,-1,1728,386,0,0
511,638,0,0,0,0,0,0,0,0,0,-1,1735,386,0,0
518,638,0,0,0,0,0,0,0,0,0,-1,1742,386,0,0
525,638,0,0,0,0,0,0,0,0,0,-1,1749,386,0,0
532,638,0,0,0,0,0,0,0,0,0,-1,1756,386,0,0
539,638,0,0,0,0,0,0,0,0,0,-1,1763,386,0,0
546,638,0,0,0,0,0,0,0,0,0,-1,1770,386,0,0
553,638,0,0,0,0,0,0,0,0,0,-1,1777,386,0,0
560,638,0,0,0,0,0,0,0,0,0,-1,1784,386,0,0
567,638,0,0,0,0,0,0,0,0,0,-1,1791,386,0,0
574,638,0,0,0,0,0,0,0,0,0,-1,1798,386,0,0
581,638,0,0,0,0,0,0,0,0,0,-1,1805,386,0,0
588,638,0,0,0,0,0,0,0,0,0,-1,1812,386,0,0
595,638,0,0,0,0,0,0,0,0,0,-1,1819,386,0,0
602,638,0,0,0,0,0,0,0,0,0,-1,1826,386,0,0
609,638,0,0,0,0,0,0,0,0,0,-1,1833,386,0,0
616,638,0,0,0,0,0,0,0,0,0,-1,1840,386,0,0
623,638,0,0,0,0,0,0,0,0,0,-1,1847,386,0,0
630,638,0,0,0,0,0,0,0,0,0,-1,1854,386,0,0
637,638,0,0,0,0,0,0,0,0,0,-1,1861,386,0,0
644,638,0,0,0,0,0,0,0,0,0,-1,1868,386,0,0
651,638,0,0,0,0,0,0,0,0,0,-1,1875,386,0,0
658,638,0,0,0,0,0,0,0,0,0,-1,1882,386,0,0
665,638,0,0,0,0,0,0,0,0,0,-1,1889,386,0,0
672,638,0,0,0,0,0,0,0,0,0,-1,1896,386,0,0
679,638,0,0,0,0,0,0,0,0,0,-1,1903,386,0,0
686,638,0,0,0,0,0,0,0,0,0,-1,1910,386,0,0
693,638,0,0,0,0,0,0,0,0,0,-1,1917,386,0,0
700,638,0,0,0,0,0,0,0,0,0,-1,1924,386,0,0
707,638,0,0,0,0,0,0,0,0,0,-1,1931,386,0,0
714,638,0,0,0,0,0,0,0,0,0,-1,1938,386,0,0
721,638,0,0,0,0,0,0,0,0,0,-1,1945,386,0,0
728,638,0,0,0,0,0,0,0,0,0,-1,1952,386,0,0
735,638,0,0,0,0,0,0,0,0,0,-1,1959,386,0,0
742,638,0,0,0,0,0,0,0,0,0,-1,1966,386,0,0
749,638,0,0,0,0,0,0,0,0,0,-1,1973,386,0,0
756,638,0,0,0,0,0,0,0,0,0,-1,1980,386,0,0
763,638,0,0,0,0,0,0,0,0,0,-1,1987,386,0,0
770,638,0,0,0,0,0,0,0,0,0,-1,1994,386,0,0
777,638,0,0,0,0,0,0,0,0,0,-1,2001,386,0,0
784,638,0,0,0,0,0,0,0,0,0,-1,2008,386,0,0
791,638,0,0,0,0,0,0,0,0,0,-1,2015,386,0,0
798,638,0,0,0,0,0,0,0,0,0,-1,2022,386,0,0
805,638,0,0,0,0,0,0,0,0,0,-1,2029,386,0,0
812,638,0,0,0,0,0,0,0,0,0,-1,2036,386,0,0
-700,631,0,0,0,0,0,0,0,0,0,-1,524,393,0,0
-693,631,0,0,0,0,0,0,0,0,0,-1,531,393,0,0
-686,631,0,0,0,0,0,0,0,0,0,-1,538,393,0,0
-679,631,0,0,0,0,0,0,0,0,0,-1,545,393,0,0
-672,631,0,0,0,0,0,0,0,0,0,-1,552,393,0,0
-665,631,0,0,0,0,0,0,0,0,0,-1,559,393,0,0
-658,631,0,0,0,0,0,0,0,0,0,-1,566,393,0,0
-651,631,0,0,0,0,0,0,0,0,0,-1,573,393,0,0
-644,631,0,0,0,0,0,0,0,0,0,-1,580,393,0,0
-637,631,0,0,0,0,0,0,0,0,0,-1,587,393,0,0
-630,631,0,0,0,0,0,0,0,0,0,-1,594,393,0,0
-623,631,0,0,0,0,0,0,0,0,0,-1,601,393,0,0
-616,631,0,0,0,0,0,0,0,0,0,-1,608,393,0,0
-609,631,0,0,0,0,0,0,0,0,0,-1,615,393,0,0
-602,631,0,0,0,0,0,0,0,0,0,-1,622,393,0,0
-595,631,0,0,0,0,0,0,0,0,0,-1,629,393,0,0
-588,631,0,0,0,0,0,0,0,0,0,-1,636,393,0,0
-581,631,0,0,0,0,0,0,0,0,0,-1,643,393,0,0
-574,631,0,0,0,0,0,0,0,0,0,-1,650,393,0,0
-567,631,0,0,0,0,0,0,0,0,0,-1,657,393,0,0
-560,631,0,0,0,0,0,0,0,0,0,-1,664,393,0,0
-553,631,0,0,0,0,0,0,0,0,0,-1,671,393,0,0
-546,631,0,0,0,0,0,0,0,0,0,-1,678,393,0,0
-539,631,0,0,0,0,0,0,0,0,0,-1,685,393,0,0
-532,631,0,0,0,0,0,0,0,0,0,-1,692,393,0,0
-525,631,0,0,0,0,0,0,0,0,0,-1,699,393,0,0
-518,631,0,0,0,0,0,0,0,0,0,-1,706,393,0,0
-511,631,0,0,0,0,0,0,0,0,0,-1,713,393,0,0
-504,631,0,0,0,0,0,0,0,0,0,-1,720,393,0,0
-497,631,0,0,0,0,0,0,0,0,0,-1,727,393,0,0
-490,631,0,0,0,0,0,0,0,0,0,-1,734,393,0,0
-483,631,0,0,0,0,0,0,0,0,0,-1,741,393,0,0
-476,631,0,0,0,0,0,0,0,0,0,-1,748,393,0,0
-469,631,0,0,0,0,0,0,0,0,0,-1,755,393,0,0
-462,631,0,0,0,0,0,0,0,0,0,-1,762,393,0,0
-455,631,0,0,0,0,0,0,0,0,0,-1,769,393,0,0
-448,631,0,0,0,0,0,0,0,0,0,-1,776,393,0,0
-441,631,0,0,0,0,0,0,0,0,0,-1,783,393,0,0
-434,631,0,0,0,0,0,0,0,0,0,-1,790,393,0,0
-427,631,0,0,0,0,0,0,0,0,0,-1,797,393,0,0
-420,631,0,0,0,0,0,0,0,0,0,-1,804,393,0,0
-413,631,0,0,0,0,0,0,0,0,0,-1,811,393,0,0
-406,631,0,0,0,0,0,0,0,0,0,-1,818,393,0,0
-399,631,0,0,0,0,0,0,0,0,0,-1,825,393,0,0
-392,631,0,0,0,0,0,0,0,0,0,-1,832,393,0,0
-385,631,0,0,0,0,0,0,0,0,0,-1,839,393,0,0
-378,631,0,0,0,0,0,0,0,0,0,-1,846,393,0,0
-371,631,0,0,0,0,0,0,0,0,0,-1,853,393,0,0
-364,631,0,0,0,0,0,0,0,0,0,-1,860,393,0,0
-357,631,0,0,0,0,0,0,0,0,0,-1,867,393,0,0
-350,631,0,0,0,0,0,0,0,0,0,-1,874,393,0,0
-343,631,0,0,0,0,0,0,0,0,0,-1,881,393,0,0
-336,631,0,0,0,0,0,0,0,0,0,-1,888,393,0,0
-329,631,0,0,0,0,0,0,0,0,0,-1,895,393,0,0
-322,631,0,0,0,0,0,0,0,0,0,-1,902,393,0,0
-315,631,0,0,0,0,0,0,0,0,0,-1,909,393,0,0
-308,631,0,0,0,0,0,0,0,0,0,-1,916,393,0,0
-301,631,0,0,0,0,0,0,0,0,0,-1,923,393,0,0
-294,631,0,0,0,0,0,0,0,0,0,-1,930,393,0,0
-287,631,0,0,0,0,0,0,0,0,0,-1,937,393,0,0
-280,631,1.12305,-12.4633,0,0,0,0,0,0,0,-1,944,393,1.12305,12.4633
-273,631,1.05743,-9.98688,0,0,0,0,0,0,0,-1,951,393,1.05741,9.98687
-266,631,0.616394,-9.4404,0,0,0,0,0,0,0,-1,958,393,0.616411,9.4404
-259,631,2.60773,-10.3896,0,0,0,0,0,0,0,-1,965,393,2.60774,10.3896
-252,631,1.57312,-10.5884,-0.0595153,-0.0325546,-0.0259171,-0.0168216,-0.0752483,-1.02521,0.0456044,0.0453541,972,393,1.57315,10.5884
-245,631,-1.10205,-10.0309,-0.0451789,-0.0263281,-0.0256898,-0.00838925,-0.0631177,-0.96122,0.0395796,0.0445595,979,393,-1.10203,10.0309
-238,631,-0.136108,-10.237,-0.0325286,-0.0202757,-0.0244849,-0.00116244,-0.0516418,-0.907988,0.034047,0.0497668,986,393,-0.136091,10.237
-231,631,0.948425,-10.7484,0,0,0,0,0,0,0,-1,993,393,0.948414,10.7484
-224,631,0.539063,-9.05594,0,0,0,0,0,0,0,-1,1000,393,0.539048,9.05593
-217,631,3.75494,-9.74118,0,0,0,0,0,0,0,-1,1007,393,3.75493,9.74119
-210,631,2.25201,-10.1606,0,0,0,0,0,0,0,-1,1014,393,2.252,10.1606
-203,631,2.08124,-10.1783,0,0,0,0,0,0,0,-1,1021,393,2.08126,10.1783
-196,631,2.50903,-10.2095,0,0,0,0,0,0,0,-1,1028,393,2.50903,10.2095
-189,631,2.526,-10.3879,0.00433011,-0.0117055,-0.00277342,0.00479624,-0.0121716,-0.166512,0.0101002,0.0468185,1035,393,2.52603,10.3879
-182,631,2.63489,-10.5945,-0.00142102,-0.0133748,0.000272842,-0.00141479,-0.013381,0.022809,0.00848846,0.0411545,1042,393,2.63492,10.5944
-175,631,2.43298,-10.8527,-0.00171151,-0.0138927,0.000386318,-0.00169927,-0.013905,0.0316718,0.00875869,0.0320055,1049,393,2.433,10.8527
-168,631,2.39148,-10.9318,-0.00186281,-0.0136969,0.000564958,-0.0018359,-0.0137238,0.0475955,0.0086028,0.0168926,1056,393,2.39145,10.9318
-161,631,2.35303,-11.0573,-0.00218503,-0.012518,0.000554502,-0.00215536,-0.0125476,0.0534588,0.00774724,0.00902006,1063,393,2.35303,11.0573
-154,631,2.33789,-11.1633,-0.00224769,-0.0111127,0.000612325,-0.0022056,-0.0111548,0.0686375,0.00682126,0.00897799,1070,393,2.33783,11.1633
-147,631,2.33875,-11.2637,-0.00239261,-0.00911142,0.000644444,-0.00233135,-0.00917268,0.094765,0.00550509,0.00994651,1077,393,2.33873,11.2637
-140,631,2.33655,-11.4053,-0.00252399,-0.00662883,0.000626455,-0.00243052,-0.0067223,0.148123,0.0039304,0.00993315,1084,393,2.33657,11.4053
-133,631,2.30701,-11.5107,-0.00275276,-0.00414344,0.000409756,-0.002641,-0.00425519,0.266253,0.00248046,0.00851957,1091,393,2.307,11.5108
-126,631,2.32434,-11.5798,-0.00283784,-0.00177833,0.000221835,-0.00173375,-0.00288241,1.37251,0.00167555,0.0117853,1098,393,2.32432,11.5798
-119,631,2.32397,-11.6741,-0.0028829,0.000518063,9.93845e-05,0.000520964,-0.00288581,1.54161,0.00211898,0.0154685,1105,393,2.32392,11.6741
-112,631,2.27893,-11.7938,-0.00282291,0.0028357,-0.00010105,0.00283751,-0.00282471,-1.55295,0.00326909,0.014181,1112,393,2.27893,11.7938
-105,631,2.25549,-11.8911,-0.00282531,0.00448723,-0.000127374,0.00448945,-0.00282753,-1.55338,0.00426063,0.0182523,1119,393,2.25551,11.8911
-98,631,2.26221,-11.9893,-0.00284473,0.00551274,-0.000177487,0.0055165,-0.00284849,-1.54957,0.00491073,0.0157891,1126,393,2.26218,11.9893
-91,631,2.2605,-12.0823,-0.0025297,0.00592912,-0.000349415,0.00594353,-0.00254411,-1.52958,0.00502965,0.0168565,1133,393,2.26051,12.0823
-84,631,2.26184,-12.1443,-0.00220992,0.00582298,-0.000356464,0.00583877,-0.0022257,-1.52654,0.00480927,0.0164199,1140,393,2.26178,12.1444
-77,631,2.24194,-12.2118,-0.00187961,0.00516522,-0.000322604,0.00517996,-0.00189435,-1.52513,0.00422865,0.0103776,1147,393,2.2419,12.2118
-70,631,2.23193,-12.2548,-0.00150493,0.00435345,-0.000221646,0.00436182,-0.0015133,-1.53303,0.00352239,0.0101997,1154,393,2.23193,12.2548
-63,631,2.22986,-12.3104,-0.000993233,0.00343321,-0.000187028,0.0034411,-0.00100112,-1.52864,0.00269059,0.0103203,1161,393,2.2299,12.3104
-56,631,2.22876,-12.4023,-0.000357736,0.00244087,-4.15245e-05,0.00244149,-0.000358352,-1.55596,0.00175932,0.0117243,1168,393,2.22878,12.4023
-49,631,2.23071,-12.4664,3.20204e-05,0.00165054,-1.07962e-06,0.00165054,3.20196e-05,-1.57013,0.00108984,0.0103125,1175,393,2.23072,12.4664
-42,631,2.2356,-12.4967,0.000363495,0.000861593,-2.1378e-05,0.000862509,0.000362579,-1.52798,0.00050007,0.00842582,1182,393,2.23554,12.4967
-35,631,2.24963,-12.5393,0.000664202,-1.0157e-05,-6.56453e-05,0.000670533,-1.64878e-05,-0.096142,0.000452618,0.0093692,1189,393,2.24967,12.5394
-28,631,2.24133,-12.5907,0.00108367,-0.000750007,5.10766e-05,0.00108509,-0.000751428,0.0278261,0.00106613,0.0118894,1196,393,2.24131,12.5907
-21,631,2.2218,-12.6409,0.00134702,-0.00115218,-8.04921e-05,0.00134961,-0.00115477,-0.0321628,0.00144736,0.0111031,1203,393,2.22184,12.6409
-14,631,2.19714,-12.7056,0.00155044,-0.00147727,-0.000305817,0.00158102,-0.00150785,-0.0996648,0.00178353,0.0128198,1210,393,2.1971,12.7056
-7,631,2.20605,-12.7615,0.00159107,-0.00149489,-0.000601279,0.00170409,-0.00160791,-0.185792,0.00191245,0.0190774,1217,393,2.20611,12.7615
0,631,2.2356,-12.7722,0.00141956,-0.00142102,-0.000848071,0.00165349,-0.00165495,-0.269147,0.00191013,0.0216394,1224,393,2.23554,12.7722
7,631,2.23926,-12.7754,0.00122308,-0.00123558,-0.00108428,0.00163293,-0.00164544,-0.361394,0.00189277,0.01767,1231,393,2.23926,12.7754
14,631,2.25073,-12.7943,0.00086997,-0.000940707,-0.00120211,0.00146952,-0.00154026,-0.462649,0.00173786,0.00998335,1238,393,2.25072,12.7943
21,631,2.2605,-12.8089,0.000480135,-0.000745197,-0.00119075,0.00120659,-0.00147165,-0.5478,0.00154881,0.0120941,1245,393,2.26046,12.8089
28,631,2.23962,-12.8081,0.000159164,-0.000794876,-0.00106255,0.000846854,-0.00148257,-0.574412,0.00136148,0.0137581,1252,393,2.2396,12.8081
35,631,2.26428,-12.8089,-0.00017967,-0.000804758,-0.000911742,0.000471611,-0.00145604,-0.620276,0.0011603,0.0129775,1259,393,2.26428,12.8089
42,631,2.29309,-12.8168,-0.000539381,-0.00105904,-0.000640402,-0.000108104,-0.00149031,-0.592682,0.000959539,0.0111037,1266,393,2.29308,12.8168
49,631,2.27539,-12.7975,-0.000781839,-0.00152716,-0.000383772,-0.000619563,-0.00168943,-0.400044,0.000986877,0.0103908,1273,393,2.27539,12.7975
56,631,2.26489,-12.79,-0.000872663,-0.0018961,-0.000108923,-0.000861199,-0.00190756,-0.104864,0.00110306,0.012847,1280,393,2.26485,12.79
63,631,2.26123,-12.8059,-0.000686545,-0.00227708,4.12963e-05,-0.000685474,-0.00227815,0.0259406,0.0013496,0.0153412,1287,393,2.26117,12.8059
70,631,2.26843,-12.7837,-0.000539737,-0.00281877,0.000181404,-0.000525388,-0.00283312,0.0789343,0.00174026,0.0154989,1294,393,2.26843,12.7837
77,631,2.28174,-12.7639,-0.000365459,-0.00328781,0.000225652,-0.000348138,-0.00330513,0.0766109,0.00209703,0.0143072,1301,393,2.28175,12.7639
84,631,2.30835,-12.7479,-0.00018881,-0.00355145,0.000126718,-0.000184041,-0.00355622,0.037613,0.00231191,0.0111547,1308,393,2.3083,12.7479
91,631,2.31995,-12.7041,-0.000109062,-0.00372643,3.24373e-05,-0.000108771,-0.00372672,0.00896614,0.00244903,0.0134196,1315,393,2.31997,12.7041
98,631,2.32166,-12.6793,-7.6234e-07,-0.00379986,-7.73852e-05,8.13394e-07,-0.00380143,-0.0203581,0.00253456,0.0122064,1322,393,2.32168,12.6793
105,631,2.30237,-12.6657,0.000216928,-0.0037105,-0.000217701,0.000228959,-0.00372253,-0.0552056,0.00256142,0.0110189,1329,393,2.30235,12.6657
112,631,2.30273,-12.6328,0.000278331,-0.00353605,-0.000278742,0.000298592,-0.00355631,-0.0725627,0.00247641,0.0114067,1336,393,2.30278,12.6328
119,631,2.32434,-12.5948,0.000321908,-0.00327746,-0.000354549,0.0003565,-0.00331206,-0.0972575,0.00233596,0.0115611,1343,393,2.32437,12.5947
126,631,2.32141,-12.5252,0.000272311,-0.00285218,-0.000407048,0.00032447,-0.00290433,-0.127443,0.00205294,0.0159065,1350,393,2.32142,12.5252
133,631,2.32275,-12.4595,0.000137185,-0.00235188,-0.000377243,0.000193104,-0.0024078,-0.147159,0.00167328,0.0172521,1357,393,2.32271,12.4595
140,631,2.32947,-12.4308,6.49782e-05,-0.0021026,-0.000220532,8.71877e-05,-0.00212481,-0.100371,0.00144648,0.0194208,1364,393,2.32944,12.4308
147,631,2.33447,-12.3982,6.34754e-05,-0.0018449,-6.62638e-05,6.57736e-05,-0.0018472,-0.0346669,0.00125397,0.0241488,1371,393,2.33449,12.3982
154,631,2.30823,-12.312,9.01604e-05,-0.00163049,7.3569e-05,9.33002e-05,-0.00163363,0.0426527,0.00112148,0.0215956,1378,393,2.30819,12.312
161,631,2.33435,-12.2174,0.000143556,-0.00164756,0.000222316,0.000170738,-0.00167474,0.121662,0.00117754,0.0229946,1385,393,2.33438,12.2174
168,631,2.36023,-12.1156,6.62992e-05,-0.00145605,0.000386948,0.000159007,-0.00154876,0.235155,0.00108939,0.0281427,1392,393,2.36029,12.1156
175,631,2.37744,-12.0431,9.54248e-05,-0.0010479,0.000394876,0.000218546,-0.00117102,0.302245,0.000862806,0.0213487,1399,393,2.37739,12.0431
182,631,2.349,-11.9873,0.000128448,-0.000596138,0.000496988,0.000381178,-0.000848868,0.470443,0.000727077,0.0115535,1406,393,2.34905,11.9873
189,631,2.33704,-11.8999,9.8178e-05,-0.0002716,0.000716474,0.000653234,-0.000826655,0.659126,0.000856368,0.0107607,1413,393,2.33704,11.8999
196,631,2.33167,-11.8171,4.23311e-05,7.68148e-05,0.000807456,0.000867213,-0.000748067,0.796073,0.000933428,0.011654,1420,393,2.3317,11.8171
203,631,2.33154,-11.7258,-0.000164088,9.02692e-05,0.000837186,0.000809881,-0.0008837,0.860778,0.000978099,0.0134896,1427,393,2.3315,11.7258
210,631,2.33252,-11.6241,-0.000488424,0.000352949,0.000930257,0.000953221,-0.0010887,0.99775,0.00117977,0.014341,1434,393,2.33255,11.6241
217,631,2.32678,-11.5393,-0.000672233,0.000750346,0.000850755,0.00114798,-0.00106987,1.13357,0.00128074,0.0146712,1441,393,2.32683,11.5393
224,631,2.29993,-11.425,-0.00068634,0.00108019,0.000769832,0.00136859,-0.00097474,1.21235,0.00135928,0.0127054,1448,393,2.29989,11.425
231,631,2.28564,-11.2965,-0.000543898,0.00142049,0.000796588,0.00170292,-0.000826321,1.23008,0.0014892,0.0111235,1455,393,2.28561,11.2965
238,631,2.28247,-11.1586,-0.000394262,0.00194319,0.000887883,0.00224221,-0.000693274,1.24596,0.0017717,0.0169897,1462,393,2.2825,11.1586
245,631,2.28894,-11.0532,-0.000371457,0.00228195,0.000825852,0.00251799,-0.000607499,1.2924,0.00191358,0.0181444,1469,393,2.2889,11.0532
252,631,2.26929,-10.9644,-0.000175939,0.00288264,0.00080949,0.00308367,-0.000376967,1.32738,0.00219227,0.0168091,1476,393,2.26923,10.9644
259,631,2.25757,-10.8297,0.000346693,0.0035919,0.000680973,0.00372901,0.00020959,1.37212,0.00241917,0.0122368,1483,393,2.25752,10.8297
266,631,2.27869,-10.7072,0.000991147,0.00433133,0.000648482,0.00445281,0.000869665,1.38561,0.0027253,0.0108072,1490,393,2.27865,10.7072
273,631,2.27563,-10.5485,0.00153831,0.0048179,0.000677354,0.00495229,0.00140392,1.37493,0.0029472,0.0123971,1497,393,2.27564,10.5485
280,631,2.25964,-10.4274,0.00227964,0.00534057,0.0008884,0.00557973,0.00204048,1.30783,0.00325997,0.0125738,1504,393,2.25963,10.4274
287,631,2.27966,-10.2651,0.00300426,0.00578214,0.00106751,0.00614498,0.00264143,1.24315,0.00355943,0.0147236,1511,393,2.27963,10.2651
294,631,2.26855,-10.0696,0.00388837,0.00627727,0.00122063,0.00679064,0.003375,1.17268,0.0039206,0.0178516,1518,393,2.2686,10.0697
301,631,2.20129,-9.866,0.00496108,0.00665089,0.00145763,0.00749079,0.00412119,1.04806,0.00433206,0.0252547,1525,393,2.20127,9.866
308,631,2.24695,-9.68488,0.00610195,0.0069992,0.0018262,0.00843107,0.00467007,0.905843,0.0048771,0.0299938,1532,393,2.24695,9.68488
315,631,2.32349,-9.64536,0.00691153,0.00659028,0.00206617,0.00882331,0.0046785,0.746606,0.00509725,0.0323874,1539,393,2.3235,9.64536
322,631,2.22803,-9.52319,0.00761184,0.00603543,0.00270291,0.00963913,0.00400814,0.643526,0.00559138,0.0390393,1546,393,2.22808,9.52319
329,631,2.50769,-9.31717,0,0,0,0,0,0,0,-1,1553,393,2.50767,9.31718
336,631,1.95313,-7.34143,0,0,0,0,0,0,0,-1,1560,393,1.95311,7.34143
343,631,2.39612,-6.96481,0,0,0,0,0,0,0,-1,1567,393,2.39608,6.96482
350,631,2.1344,-9.23401,0,0,0,0,0,0,0,-1,1574,393,2.13439,9.23401
357,631,2.6449,-9.60303,0,0,0,0,0,0,0,-1,1581,393,2.64491,9.60304
364,631,3.39136,-5.7594,0,0,0,0,0,0,0,-1,1588,393,3.39137,5.75939
371,631,3.72839,-6.0574,0,0,0,0,0,0,0,-1,1595,393,3.72845,6.05742
378,631,4.06555,-6.35544,0,0,0,0,0,0,0,-1,1602,393,4.06553,6.35544
385,631,3.90442,-3.58298,0,0,0,0,0,0,0,-1,1609,393,3.90437,3.58299
392,631,0.352295,-2.21301,0,0,0,0,0,0,0,-1,1616,393,0.352345,2.213
399,631,0,0,0,0,0,0,0,0,0,-1,1623,393,0,0
406,631,0,0,0,0,0,0,0,0,0,-1,1630,393,0,0
413,631,0,0,0,0,0,0,0,0,0,-1,1637,393,0,0
420,631,0,0,0,0,0,0,0,0,0,-1,1644,393,0,0
427,631,0,0,0,0,0,0,0,0,0,-1,1651,393,0,0
434,631,0,0,0,0,0,0,0,0,0,-1,1658,393,0,0
441,631,0,0,0,0,0,0,0,0,0,-1,1665,393,0,0
448,631,0,0,0,0,0,0,0,0,0,-1,1672,393,0,0
455,631,0,0,0,0,0,0,0,0,0,-1,1679,393,0,0
462,631,0,0,0,0,0,0,0,0,0,-1,1686,393,0,0
469,631,0,0,0,0,0,0,0,0,0,-1,1693,393,0,0
476,631,0,0,0,0,0,0,0,0,0,-1,1700,393,0,0
483,631,0,0,0,0,0,0,0,0,0,-1,1707,393,0,0
490,631,0,0,0,0,0,0,0,0,0,-1,1714,393,0,0
497,631,0,0,0,0,0,0,0,0,0,-1,1721,393,0,0
504,631,0,0,0,0,0,0,0,0,0,-1,1728,393,0,0
511,631,0,0,0,0,0,0,0,0,0,-1,1735,393,0,0
518,631,0,0,0,0,0,0,0,0,0,-1,1742,393,0,0
525,631,0,0,0,0,0,0,0,0,0,-1,1749,393,0,0
532,631,0,0,0,0,0,0,0,0,0,-1,1756,393,0,0
539,631,0,0,0,0,0,0,0,0,0,-1,1763,393,0,0
546,631,0,0,0,0,0,0,0,0,0,-1,1770,393,0,0
553,631,0,0,0,0,0,0,0,0,0,-1,1777,393,0,0
560,631,0,0,0,0,0,0,0,0,0,-1,1784,393,0,0
567,631,0,0,0,0,0,0,0,0,0,-1,1791,393,0,0
574,631,0,0,0,0,0,0,0,0,0,-1,1798,393,0,0
581,631,0,0,0,0,0,0,0,0,0,-1,1805,393,0,0
588,631,0,0,0,0,0,0,0,0,0,-1,1812,393,0,0
595,631,0,0,0,0,0,0,0,0,0,-1,1819,393,0,0
602,631,0,0,0,0,0,0,0,0,0,-1,1826,393,0,0
609,631,0,0,0,0,0,0,0,0,0,-1,1833,393,0,0
616,631,0,0,0,0,0,0,0,0,0,-1,1840,393,0,0
623,631,0,0,0,0,0,0,0,0,0,-1,1847,393,0,0
630,631,0,0,0,0,0,0,0,0,0,-1,1854,393,0,0
637,631,0,0,0,0,0,0,0,0,0,-1,1861,393,0,0
644,631,0,0,0,0,0,0,0,0,0,-1,1868,393,0,0
651,631,0,0,0,0,0,0,0,0,0,-1,1875,393,0,0
658,631,0,0,0,0,0,0,0,0,0,-1,1882,393,0,0
665,631,0,0,0,0,0,0,0,0,0,-1,1889,393,0,0
672,631,0,0,0,0,0,0,0,0,0,-1,1896,393,0,0
679,631,0,0,0,0,0,0,0,0,0,-1,1903,393,0,0
686,631,0,0,0,0,0,0,0,0,0,-1,1910,393,0,0
693,631,0,0,0,0,0,0,0,0,0,-1,1917,393,0,0
700,631,0,0,0,0,0,0,0,0,0,-1,1924,393,0,0
707,631,0,0,0,0,0,0,0,0,0,-1,1931,393,0,0
714,631,0,0,0,0,0,0,0,0,0,-1,1938,393,0,0
721,631,0,0,0,0,0,0,0,0,0,-1,1945,393,0,0
728,631,0,0,0,0,0,0,0,0,0,-1,1952,393,0,0
735,631,0,0,0,0,0,0,0,0,0,-1,1959,393,0,0
742,631,0,0,0,0,0,0,0,0,0,-1,1966,393,0,0
749,631,0,0,0,0,0,0,0,0,0,-1,1973,393,0,0
756,631,0,0,0,0,0,0,0,0,0,-1,1980,393,0,0
763,631,0,0,0,0,0,0,0,0,0,-1,1987,393,0,0
770,631,0,0,0,0,0,0,0,0,0,-1,1994,393,0,0
777,631,0,0,0,0,0,0,0,0,0,-1,2001,393,0,0
784,631,0,0,0,0,0,0,0,0,0,-1,2008,393,0,0
791,631,0,0,0,0,0,0,0,0,0,-1,2015,393,0,0
798,631,0,0,0,0,0,0,0,0,0,-1,2022,393,0,0
805,631,0,0,0,0,0,0,0,0,0,-1,2029,393,0,0
812,631,0,0,0,0,0,0,0,0,0,-1,2036,393,0,0
-700,624,0,0,0,0,0,0,0,0,0,-1,524,400,0,0
-693,624,0,0,0,0,0,0,0,0,0,-1,531,400,0,0
-686,624,0,0,0,0,0,0,0,0,0,-1,538,400,0,0
-679,624,0,0,0,0,0,0,0,0,0,-1,545,400,0,0
-672,624,0,0,0,0,0,0,0,0,0,-1,552,400,0,0
-665,624,0,0,0,0,0,0,0,0,0,-1,559,400,0,0
-658,624,0,0,0,0,0,0,0,0,0,-1,566,400,0,0
-651,624,0,0,0,0,0,0,0,0,0,-1,573,400,0,0
-644,624,0,0,0,0,0,0,0,0,0,-1,580,400,0,0
-637,624,0,0,0,0,0,0,0,0,0,-1,587,400,0,0
-630,624,0,0,0,0,0,0,0,0,0,-1,594,400,0,0
-623,624,0,0,0,0,0,0,0,0,0,-1,601,400,0,0
-616,624,0,0,0,0,0,0,0,0,0,-1,608,400,0,0
-609,624,0,0,0,0,0,0,0,0,0,-1,615,400,0,0
-602,624,0,0,0,0,0,0,0,0,0,-1,622,400,0,0
-595,624,0,0,0,0,0,0,0,0,0,-1,629,400,0,0
-588,624,0,0,0,0,0,0,0,0,0,-1,636,400,0,0
-581,624,0,0,0,0,0,0,0,0,0,-1,643,400,0,0
-574,624,0,0,0,0,0,0,0,0,0,-1,650,400,0,0
-567,624,0,0,0,0,0,0,0,0,0,-1,657,400,0,0
-560,624,0,0,0,0,0,0,0,0,0,-1,664,400,0,0
-553,624,0,0,0,0,0,0,0,0,0,-1,671,400,0,0
-546,624,0,0,0,0,0,0,0,0,0,-1,678,400,0,0
-539,624,0,0,0,0,0,0,0,0,0,-1,685,400,0,0
-532,624,0,0,0,0,0,0,0,0,0,-1,692,400,0,0
-525,624,0,0,0,0,0,0,0,0,0,-1,699,400,0,0
-518,624,0,0,0,0,0,0,0,0,0,-1,706,400,0,0
-511,624,0,0,0,0,0,0,0,0,0,-1,713,400,0,0
-504,624,0,0,0,0,0,0,0,0,0,-1,720,400,0,0
-497,624,0,0,0,0,0,0,0,0,0,-1,727,400,0,0
-490,624,0,0,0,0,0,0,0,0,0,-1,734,400,0,0
-483,624,0,0,0,0,0,0,0,0,0,-1,741,400,0,0
-476,624,0,0,0,0,0,0,0,0,0,-1,748,400,0,0
-469,624,0,0,0,0,0,0,0,0,0,-1,755,400,0,0
-462,624,0,0,0,0,0,0,0,0,0,-1,762,400,0,0
-455,624,0,0,0,0,0,0,0,0,0,-1,769,400,0,0
-448,624,0,0,0,0,0,0,0,0,0,-1,776,400,0,0
-441,624,0,0,0,0,0,0,0,0,0,-1,783,400,0,0
-434,624,0,0,0,0,0,0,0,0,0,-1,790,400,0,0
-427,624,0,0,0,0,0,0,0,0,0,-1,797,400,0,0
-420,624,0,0,0,0,0,0,0,0,0,-1,804,400,0,0
-413,624,0,0,0,0,0,0,0,0,0,-1,811,400,0,0
-406,624,0,0,0,0,0,0,0,0,0,-1,818,400,0,0
-399,624,0,0,0,0,0,0,0,0,0,-1,825,400,0,0
-392,624,0,0,0,0,0,0,0,0,0,-1,832,400,0,0
-385,624,0,0,0,0,0,0,0,0,0,-1,839,400,0,0
-378,624,0,0,0,0,0,0,0,0,0,-1,846,400,0,0
-371,624,0,0,0,0,0,0,0,0,0,-1,853,400,0,0
-364,624,0,0,0,0,0,0,0,0,0,-1,860,400,0,0
-357,624,0,0,0,0,0,0,0,0,0,-1,867,400,0,0
-350,624,0,0,0,0,0,0,0,0,0,-1,874,400,0,0
-343,624,0,0,0,0,0,0,0,0,0,-1,881,400,0,0
-336,624,0,0,0,0,0,0,0,0,0,-1,888,400,0,0
-329,624,0,0,0,0,0,0,0,0,0,-1,895,400,0,0
-322,624,0,0,0,0,0,0,0,0,0,-1,902,400,0,0
-315,624,0,0,0,0,0,0,0,0,0,-1,909,400,0,0
-308,624,0,0,0,0,0,0,0,0,0,-1,916,400,0,0
-301,624,0,0,0,0,0,0,0,0,0,-1,923,400,0,0
-294,624,-0.912903,-12.9461,0,0,0,0,0,0,0,-1,930,400,-0.912926,12.9461
-287,624,-0.355164,-12.6199,0,0,0,0,0,0,0,-1,937,400,-0.355166,12.6199
-280,624,0.937683,-11.5193,0,0,0,0,0,0,0,-1,944,400,0.937667,11.5193
-273,624,1.08618,-9.31528,0,0,0,0,0,0,0,-1,951,400,1.0862,9.31527
-266,624,3.31458,-9.72238,0,0,0,0,0,0,0,-1,958,400,3.31455,9.72237
-259,624,2.49615,-10.0697,-0.0612091,-0.0312236,-0.0207755,-0.020596,-0.0718367,-1.09795,0.0427143,0.0440944,965,400,2.49614,10.0697
-252,624,1.59253,-10.2025,-0.0510173,-0.0264313,-0.020487,-0.0148321,-0.0626165,-1.05562,0.0377835,0.042162,972,400,1.5925,10.2025
-245,624,-0.18158,-9.58945,-0.0405144,-0.0214799,-0.0198311,-0.00900058,-0.0529937,-1.00912,0.0327439,0.0449237,979,400,-0.181563,9.58945
-238,624,0.0227661,-10.0513,0,0,0,0,0,0,0,-1,986,400,0.0227788,10.0513
-231,624,2.42017,-9.54053,0,0,0,0,0,0,0,-1,993,400,2.42014,9.54053
-224,624,2.43127,-9.58151,0,0,0,0,0,0,0,-1,1000,400,2.43127,9.58152
-217,624,2.44818,-9.83337,0,0,0,0,0,0,0,-1,1007,400,2.44821,9.83336
-210,624,2.20575,-10.1378,-0.00777703,-0.00732664,-0.00868115,0.00113223,-0.0162359,-0.798365,0.0112204,0.0499271,1014,400,2.20577,10.1378
-203,624,2.13507,-10.2137,-0.00347493,-0.00671202,-0.00670143,0.00180065,-0.0119876,-0.666906,0.00865461,0.0417379,1021,400,2.13509,10.2137
-196,624,2.35425,-10.3038,0.00195805,-0.00612322,-0.00499997,0.00434598,-0.00851115,-0.445558,0.00755179,0.0358462,1028,400,2.35426,10.3038
-189,624,2.3075,-10.4745,0.00252062,-0.00618495,-0.00198099,0.0029502,-0.00661454,-0.213547,0.00565568,0.0345617,1035,400,2.30755,10.4745
-182,624,2.23572,-10.6707,-0.00154462,-0.00747364,0.00021911,-0.00153653,-0.00748172,0.0368884,0.00456271,0.0282111,1042,400,2.23569,10.6707
-175,624,2.26514,-10.8349,-0.0017459,-0.00808105,0.000305474,-0.0017312,-0.00809575,0.0480702,0.00492264,0.0173246,1049,400,2.26511,10.8349
-168,624,2.27087,-10.9476,-0.00180918,-0.00822375,0.000436218,-0.00177965,-0.00825328,0.0675895,0.00501535,0.0120841,1056,400,2.2709,10.9476
-161,624,2.24109,-11.068,-0.00196067,-0.0076841,0.00043584,-0.00192767,-0.0077171,0.0755695,0.0046377,0.0105211,1063,400,2.24104,11.068
-154,624,2.22925,-11.1646,-0.00192294,-0.00694776,0.000489207,-0.00187575,-0.00699495,0.0961548,0.00418075,0.0100013,1070,400,2.22926,11.1646
-147,624,2.22144,-11.2847,-0.00195089,-0.00582706,0.000508978,-0.00188517,-0.00589278,0.12841,0.00347498,0.0111221,1077,400,2.2214,11.2847
-140,624,2.21216,-11.4251,-0.00195222,-0.00438656,0.00047809,-0.00186169,-0.00447708,0.187137,0.00259703,0.00986723,1084,400,2.21212,11.4251
-133,624,2.18738,-11.5225,-0.00200456,-0.00285578,0.000293567,-0.00191313,-0.00294721,0.301908,0.00172662,0.0106291,1091,400,2.18735,11.5225
-126,624,2.20947,-11.5878,-0.00197236,-0.00134621,0.000120181,-0.00132394,-0.00199464,1.38753,0.00117201,0.011623,1098,400,2.20943,11.5878
-119,624,2.21033,-11.6846,-0.001913,0.000175129,7.613e-06,0.000175156,-0.00191303,1.56715,0.00133757,0.0139816,1105,400,2.21037,11.6846
-112,624,2.19019,-11.7857,-0.00176049,0.0017212,-0.00017089,0.00172957,-0.00176885,-1.52187,0.00201986,0.0158598,1112,400,2.19024,11.7857
-105,624,2.19043,-11.8921,-0.00165542,0.00277942,-0.000224668,0.00279077,-0.00166677,-1.52031,0.00260069,0.0113956,1119,400,2.19045,11.8921
-98,624,2.17993,-11.9915,-0.00156588,0.00339464,-0.00029889,0.00341258,-0.00158382,-1.51083,0.00294838,0.0126014,1126,400,2.17992,11.9915
-91,624,2.16541,-12.0873,-0.00125643,0.00362104,-0.00043936,0.0036603,-0.0012957,-1.48167,0.00296792,0.018971,1133,400,2.16543,12.0873
-84,624,2.203,-12.1642,-0.000923706,0.00343078,-0.000440341,0.00347486,-0.000967788,-1.47102,0.00269767,0.0175545,1140,400,2.20305,12.1642
-77,624,2.20044,-12.2333,-0.000618497,0.00293021,-0.000391324,0.00297285,-0.000661137,-1.46226,0.00223511,0.0121346,1147,400,2.20041,12.2333
-70,624,2.17297,-12.2713,-0.000266697,0.00229982,-0.000234553,0.00232108,-0.000287956,-1.4804,0.00165176,0.0113223,1154,400,2.17297,12.2713
-63,624,2.15747,-12.3014,0.000137883,0.00165505,-8.46342e-05,0.00165976,0.000133176,-1.51524,0.00106489,0.0112236,1161,400,2.15753,12.3014
-56,624,2.1731,-12.4039,0.00058553,0.00104165,9.37298e-05,0.00106015,0.00056702,1.37582,0.000612576,0.00969208,1168,400,2.17315,12.4039
-49,624,2.18115,-12.4667,0.000900225,0.000392751,0.000197614,0.000968099,0.000324877,0.330844,0.000568916,0.0095205,1175,400,2.1812,12.4667
-42,624,2.17969,-12.506,0.00119137,-0.000264585,0.00021483,0.00122241,-0.000295622,0.14348,0.000929288,0.00935691,1182,400,2.17971,12.506
-35,624,2.18494,-12.5468,0.00153155,-0.000873098,0.000145411,0.00154031,-0.00088186,0.0601787,0.00141556,0.0131726,1189,400,2.18489,12.5468
-28,624,2.17834,-12.5941,0.00193577,-0.00158553,0.000180759,0.00194503,-0.00159478,0.0511538,0.00204704,0.01803,1196,400,2.1784,12.5941
-21,624,2.17737,-12.6526,0.00226995,-0.00211939,-5.60381e-05,0.00227067,-0.0021201,-0.0127641,0.00253551,0.0141685,1203,400,2.17739,12.6526
-14,624,2.18005,-12.7027,0.00252499,-0.00252785,-0.000423372,0.00256022,-0.00256308,-0.0830176,0.00295794,0.0148724,1210,400,2.18002,12.7027
-7,624,2.16125,-12.7215,0.00255818,-0.00256541,-0.000880852,0.00270538,-0.00271262,-0.165589,0.00312809,0.0172871,1217,400,2.16125,12.7215
0,624,2.2063,-12.7458,0.00234759,-0.00238347,-0.00135576,0.00270856,-0.00274444,-0.260215,0.00314832,0.0182918,1224,400,2.20624,12.7458
7,624,2.21606,-12.7625,0.00213681,-0.00223058,-0.00175605,0.0027553,-0.00284907,-0.338638,0.00323584,0.0140878,1231,400,2.21601,12.7625
14,624,2.23389,-12.8071,0.0016932,-0.00195594,-0.00197438,0.00255699,-0.00281972,-0.412406,0.00310548,0.011483,1238,400,2.23387,12.8071
21,624,2.24463,-12.8076,0.00118889,-0.001818,-0.00201184,0.00219699,-0.0028261,-0.464514,0.00290765,0.0117702,1245,400,2.24458,12.8076
28,624,2.23022,-12.8074,0.000736305,-0.00196107,-0.00188334,0.00170407,-0.00292884,-0.474668,0.00270578,0.0113528,1252,400,2.23028,12.8074
35,624,2.2439,-12.8112,0.00027288,-0.00206134,-0.00171154,0.00117737,-0.00296583,-0.486159,0.00246525,0.0153541,1259,400,2.24385,12.8112
42,624,2.27332,-12.8111,-0.000159172,-0.00245221,-0.00135921,0.000472496,-0.00308388,-0.435038,0.00223016,0.0165925,1266,400,2.27337,12.8111
49,624,2.29297,-12.8025,-0.000429734,-0.00304065,-0.000972001,-0.000107615,-0.00336277,-0.320008,0.00220685,0.0173639,1273,400,2.29295,12.8025
56,624,2.28943,-12.7945,-0.000545498,-0.00347488,-0.000525348,-0.000454133,-0.00356624,-0.172191,0.0022415,0.0172985,1280,400,2.28943,12.7945
63,624,2.28271,-12.8026,-0.00029028,-0.00388569,-0.000224575,-0.000276307,-0.00389966,-0.0621397,0.00251274,0.0142965,1287,400,2.28269,12.8026
70,624,2.29065,-12.8032,-1.89249e-05,-0.00434638,4.95639e-05,-1.83573e-05,-0.00434695,0.0114514,0.00289186,0.0129275,1294,400,2.29069,12.8032
77,624,2.29883,-12.7778,0.000342178,-0.00462261,0.00020714,0.000350805,-0.00463124,0.0416253,0.00321082,0.0122751,1301,400,2.29887,12.7778
84,624,2.31592,-12.7619,0.000672326,-0.00463493,0.000198931,0.000679772,-0.00464238,0.0374128,0.00334461,0.0109138,1308,400,2.31586,12.7619
91,624,2.33594,-12.7254,0.000931036,-0.00439529,0.000128325,0.000934126,-0.00439838,0.024074,0.00328816,0.0114719,1315,400,2.33596,12.7254
98,624,2.34509,-12.687,0.00124599,-0.0040768,1.23319e-05,0.00124602,-0.00407683,0.00231679,0.00321475,0.0124014,1322,400,2.34504,12.687
105,624,2.33752,-12.6655,0.00158078,-0.00368269,-0.000140331,0.00158452,-0.00368642,-0.0266362,0.00312279,0.0138879,1329,400,2.33748,12.6655
112,624,2.33655,-12.6175,0.00166296,-0.00305204,-0.000299172,0.00168187,-0.00307095,-0.0631136,0.00278283,0.0141312,1336,400,2.33658,12.6175
119,624,2.36011,-12.5652,0.00170758,-0.00243062,-0.000511564,0.00176988,-0.00249292,-0.12119,0.0024729,0.0140884,1343,400,2.36012,12.5652
126,624,2.37976,-12.4798,0.00156515,-0.00172445,-0.000695344,0.00170609,-0.00186539,-0.199983,0.00206268,0.0168036,1350,400,2.37972,12.4798
133,624,2.38184,-12.4521,0.00125697,-0.00103829,-0.000753997,0.0014825,-0.00126381,-0.290641,0.00158726,0.0176308,1357,400,2.38187,12.4521
140,624,2.36902,-12.424,0.000948145,-0.000801757,-0.000630859,0.00115186,-0.00100547,-0.312348,0.00124649,0.0181393,1364,400,2.36903,12.424
147,624,2.31909,-12.386,0.000708325,-0.000657899,-0.000506119,0.000875388,-0.000824963,-0.318826,0.000981842,0.0228328,1371,400,2.31914,12.386
154,624,2.34155,-12.351,0.000522567,-0.000654451,-0.000366282,0.000627243,-0.000759127,-0.27836,0.000801627,0.0247685,1378,400,2.34153,12.3509
161,624,2.42627,-12.2364,0.000431459,-0.000931646,-0.00026192,0.000480055,-0.000980241,-0.183449,0.00085943,0.0225992,1385,400,2.42624,12.2364
168,624,2.45447,-12.1474,0.000158643,-0.00109264,-7.26774e-05,0.00016285,-0.00109685,-0.0578231,0.000791123,0.0223149,1392,400,2.45451,12.1474
175,624,2.43799,-12.0762,7.89275e-05,-0.000962651,-0.000101535,8.8733e-05,-0.000972457,-0.0962739,0.000679815,0.0173472,1399,400,2.43799,12.0762
182,624,2.42957,-11.9986,2.5256e-05,-0.000752707,-7.20417e-05,3.1871e-05,-0.000759322,-0.0915655,0.000517166,0.011015,1406,400,2.42951,11.9986
189,624,2.41858,-11.9089,7.94355e-05,-0.000526073,6.16354e-05,8.56458e-05,-0.000532283,0.100419,0.00038658,0.0108163,1413,400,2.41856,11.9089
196,624,2.41602,-11.8404,0.000105741,-0.000274379,0.000128849,0.0001453,-0.000313939,0.297883,0.000271035,0.0115774,1420,400,2.41602,11.8404
203,624,2.42395,-11.7521,-6.56301e-05,-9.0842e-05,0.000174746,9.69645e-05,-0.000253437,0.749391,0.00020892,0.0142433,1427,400,2.42397,11.7521
210,624,2.43604,-11.6367,-0.000323906,0.000281373,0.000303992,0.000407688,-0.000450221,1.17698,0.000495517,0.0165634,1434,400,2.436,11.6368
217,624,2.42639,-11.5256,-0.000506934,0.000700526,0.000325057,0.000782473,-0.000588881,1.32384,0.000794377,0.0181942,1441,400,2.4264,11.5256
224,624,2.41223,-11.4185,-0.000536595,0.00101946,0.00037879,0.00110677,-0.000623905,1.34426,0.00101209,0.0149351,1448,400,2.41225,11.4185
231,624,2.40955,-11.3172,-0.000414964,0.00134161,0.000500774,0.00147435,-0.000547697,1.3117,0.0012076,0.0114279,1455,400,2.4096,11.3172
238,624,2.39441,-11.2064,-0.000277917,0.00179853,0.000663509,0.00199244,-0.000471826,1.28647,0.00151034,0.0168839,1462,400,2.3944,11.2064
245,624,2.39856,-11.1013,-0.000237683,0.0021041,0.000699724,0.00229725,-0.00043083,1.30147,0.00169347,0.0179095,1469,400,2.39851,11.1013
252,624,2.38879,-10.9657,-7.86887e-05,0.00259241,0.000757043,0.00279205,-0.000278329,1.31296,0.00196074,0.0128555,1476,400,2.38884,10.9657
259,624,2.38452,-10.8414,0.000303874,0.00313014,0.000718281,0.00330221,0.000131803,1.33567,0.00215888,0.0090699,1483,400,2.38454,10.8414
266,624,2.39648,-10.7046,0.000760939,0.003651,0.000740169,0.00382954,0.000582404,1.33411,0.00238273,0.0128172,1490,400,2.39643,10.7046
273,624,2.3905,-10.5552,0.00114441,0.00399028,0.000803261,0.00420135,0.000933338,1.31384,0.00254743,0.0149939,1497,400,2.3905,10.5552
280,624,2.38342,-10.441,0.00167646,0.00434218,0.00101361,0.00468381,0.00133482,1.24571,0.0027863,0.013537,1504,400,2.38348,10.441
287,624,2.36401,-10.3055,0.00216715,0.00461984,0.00117749,0.00509361,0.00169338,1.18826,0.00299533,0.0107704,1511,400,2.36401,10.3054
294,624,2.34399,-10.1347,0.00274172,0.00493149,0.0013175,0.00554967,0.00212355,1.13209,0.00323339,0.00892497,1518,400,2.34404,10.1347
301,624,2.32922,-9.99072,0.00342504,0.00512185,0.00151532,0.00601011,0.00253679,1.0406,0.00348395,0.0103012,1525,400,2.32926,9.99071
308,624,2.32104,-9.83359,0.00415195,0.00531696,0.00181571,0.00664131,0.00282759,0.940619,0.00384843,0.0137529,1532,400,2.321,9.83358
315,624,2.31519,-9.67648,0.00464484,0.00503044,0.00203667,0.00688342,0.00279186,0.83259,0.00399769,0.0146209,1539,400,2.31517,9.67648
322,624,2.32471,-9.53714,0.00502529,0.00468417,0.00251267,0.00737318,0.00233628,0.75151,0.00435105,0.0215793,1546,400,2.32476,9.53713
329,624,2.47937,-9.33905,0.00489961,0.00461425,0.00299446,0.00775479,0.00175907,0.761592,0.00469467,0.0376357,1553,400,2.47936,9.33906
336,624,2.60461,-9.05389,0,0,0,0,0,0,0,-1,1560,400,2.60463,9.05391
343,624,2.36206,-8.19647,0,0,0,0,0,0,0,-1,1567,400,2.36211,8.19646
350,624,1.99194,-7.29742,0,0,0,0,0,0,0,-1,1574,400,1.99198,7.29741
357,624,2.64075,-3.13092,0,0,0,0,0,0,0,-1,1581,400,2.64076,3.13091
364,624,3.16565,-4.9458,0,0,0,0,0,0,0,-1,1588,400,3.16564,4.94579
371,624,3.37561,-5.23529,0,0,0,0,0,0,0,-1,1595,400,3.37563,5.23529
378,624,1.50439,-5.22165,0,0,0,0,0,0,0,-1,1602,400,1.50438,5.22164
385,624,0.724731,-2.43875,0,0,0,0,0,0,0,-1,1609,400,0.724746,2.43875
392,624,4.26819,-5.14236,0,0,0,0,0,0,0,-1,1616,400,4.26818,5.14236
399,624,3.86841,-2.36917,0,0,0,0,0,0,0,-1,1623,400,3.86838,2.36916
406,624,4.35376,-2.6962,0,0,0,0,0,0,0,-1,1630,400,4.35373,2.69619
413,624,0,0,0,0,0,0,0,0,0,-1,1637,400,0,0
420,624,0,0,0,0,0,0,0,0,0,-1,1644,400,0,0
427,624,0,0,0,0,0,0,0,0,0,-1,1651,400,0,0
434,624,0,0,0,0,0,0,0,0,0,-1,1658,400,0,0
441,624,0,0,0,0,0,0,0,0,0,-1,1665,400,0,0
448,624,0,0,0,0,0,0,0,0,0,-1,1672,400,0,0
455,624,0,0,0,0,0,0,0,0,0,-1,1679,400,0,0
462,624,0,0,0,0,0,0,0,0,0,-1,1686,400,0,0
469,624,0,0,0,0,0,0,0,0,0,-1,1693,400,0,0
476,624,0,0,0,0,0,0,0,0,0,-1,1700,400,0,0
483,624,0,0,0,0,0,0,0,0,0,-1,1707,400,0,0
490,624,0,0,0,0,0,0,0,0,0,-1,1714,400,0,0
497,624,0,0,0,0,0,0,0,0,0,-1,1721,400,0,0
504,624,0,0,0,0,0,0,0,0,0,-1,1728,400,0,0
511,624,0,0,0,0,0,0,0,0,0,-1,1735,400,0,0
518,624,0,0,0,0,0,0,0,0,0,-1,1742,400,0,0
525,624,0,0,0,0,0,0,0,0,0,-1,1749,400,0,0
532,624,0,0,0,0,0,0,0,0,0,-1,1756,400,0,0
539,624,0,0,0,0,0,0,0,0,0,-1,1763,400,0,0
546,624,0,0,0,0,0,0,0,0,0,-1,1770,400,0,0
553,624,0,0,0,0,0,0,0,0,0,-1,1777,400,0,0
560,624,0,0,0,0,0,0,0,0,0,-1,1784,400,0,0
567,624,0,0,0,0,0,0,0,0,0,-1,1791,400,0,0
574,624,0,0,0,0,0,0,0,0,0,-1,1798,400,0,0
581,624,0,0,0,0,0,0,0,0,0,-1,1805,400,0,0
588,624,0,0,0,0,0,0,0,0,0,-1,1812,400,0,0
595,624,0,0,0,0,0,0,0,0,0,-1,1819,400,0,0
602,624,0,0,0,0,0,0,0,0,0,-1,1826,400,0,0
609,624,0,0,0,0,0,0,0,0,0,-1,1833,400,0,0
616,624,0,0,0,0,0,0,0,0,0,-1,1840,400,0,0
623,624,0,0,0,0,0,0,0,0,0,-1,1847,400,0,0
630,624,0,0,0,0,0,0,0,0,0,-1,1854,400,0,0
637,624,0,0,0,0,0,0,0,0,0,-1,1861,400,0,0
644,624,0,0,0,0,0,0,0,0,0,-1,1868,400,0,0
651,624,0,0,0,0,0,0,0,0,0,-1,1875,400,0,0
658,624,0,0,0,0,0,0,0,0,0,-1,1882,400,0,0
665,624,0,0,0,0,0,0,0,0,0,-1,1889,400,0,0
672,624,0,0,0,0,0,0,0,0,0,-1,1896,400,0,0
679,624,0,0,0,0,0,0,0,0,0,-1,1903,400,0,0
686,624,0,0,0,0,0,0,0,0,0,-1,1910,400,0,0
693,624,0,0,0,0,0,0,0,0,0,-1,1917,400,0,0
700,624,0,0,0,0,0,0,0,0,0,-1,1924,400,0,0
707,624,0,0,0,0,0,0,0,0,0,-1,1931,400,0,0
714,624,0,0,0,0,0,0,0,0,0,-1,1938,400,0,0
721,624,0,0,0,0,0,0,0,0,0,-1,1945,400,0,0
728,624,0,0,0,0,0,0,0,0,0,-1,1952,400,0,0
735,624,0,0,0,0,0,0,0,0,0,-1,1959,400,0,0
742,624,0,0,0,0,0,0,0,0,0,-1,1966,400,0,0
749,624,0,0,0,0,0,0,0,0,0,-1,1973,400,0,0
756,624,0,0,0,0,0,0,0,0,0,-1,1980,400,0,0
763,624,0,0,0,0,0,0,0,0,0,-1,1987,400,0,0
770,624,0,0,0,0,0,0,0,0,0,-1,1994,400,0,0
777,624,0,0,0,0,0,0,0,0,0,-1,2001,400,0,0
784,624,0,0,0,0,0,0,0,0,0,-1,2008,400,0,0
791,624,0,0,0,0,0,0,0,0,0,-1,2015,400,0,0
798,624,0,0,0,0,0,0,0,0,0,-1,2022,400,0,0
805,624,0,0,0,0,0,0,0,0,0,-1,2029,400,0,0
812,624,0,0,0,0,0,0,0,0,0,-1,2036,400,0,0
-700,617,0,0,0,0,0,0,0,0,0,-1,524,407,0,0
-693,617,0,0,0,0,0,0,0,0,0,-1,531,407,0,0
-686,617,0,0,0,0,0,0,0,0,0,-1,538,407,0,0
-679,617,0,0,0,0,0,0,0,0,0,-1,545,407,0,0
-672,617,0,0,0,0,0,0,0,0,0,-1,552,407,0,0
-665,617,0,0,0,0,0,0,0,0,0,-1,559,407,0,0
-658,617,0,0,0,0,0,0,0,0,0,-1,566,407,0,0
-651,617,0,0,0,0,0,0,0,0,0,-1,573,407,0,0
-644,617,0,0,0,0,0,0,0,0,0,-1,580,407,0,0
-637,617,0,0,0,0,0,0,0,0,0,-1,587,407,0,0
-630,617,0,0,0,0,0,0,0,0,0,-1,594,407,0,0
-623,617,0,0,0,0,0,0,0,0,0,-1,601,407,0,0
-616,617,0,0,0,0,0,0,0,0,0,-1,608,407,0,0
-609,617,0,0,0,0,0,0,0,0,0,-1,615,407,0,0
-602,617,0,0,0,0,0,0,0,0,0,-1,622,407,0,0
-595,617,0,0,0,0,0,0,0,0,0,-1,629,407,0,0
-588,617,0,0,0,0,0,0,0,0,0,-1,636,407,0,0
-581,617,0,0,0,0,0,0,0,0,0,-1,643,407,0,0
-574,617,0,0,0,0,0,0,0,0,0,-1,650,407,0,0
-567,617,0,0,0,0,0,0,0,0,0,-1,657,407,0,0
-560,617,0,0,0,0,0,0,0,0,0,-1,664,407,0,0
-553,617,0,0,0,0,0,0,0,0,0,-1,671,407,0,0
-546,617,0,0,0,0,0,0,0,0,0,-1,678,407,0,0
-539,617,0,0,0,0,0,0,0,0,0,-1,685,407,0,0
-532,617,0,0,0,0,0,0,0,0,0,-1,692,407,0,0
-525,617,0,0,0,0,0,0,0,0,0,-1,699,407,0,0
-518,617,0,0,0,0,0,0,0,0,0,-1,706,407,0,0
-511,617,0,0,0,0,0,0,0,0,0,-1,713,407,0,0
-504,617,0,0,0,0,0,0,0,0,0,-1,720,407,0,0
-497,617,0,0,0,0,0,0,0,0,0,-1,727,407,0,0
-490,617,0,0,0,0,0,0,0,0,0,-1,734,407,0,0
-483,617,0,0,0,0,0,0,0,0,0,-1,741,407,0,0
-476,617,0,0,0,0,0,0,0,0,0,-1,748,407,0,0
-469,617,0,0,0,0,0,0,0,0,0,-1,755,407,0,0
-462,617,0,0,0,0,0,0,0,0,0,-1,762,407,0,0
-455,617,0,0,0,0,0,0,0,0,0,-1,769,407,0,0
-448,617,0,0,0,0,0,0,0,0,0,-1,776,407,0,0
-441,617,0,0,0,0,0,0,0,0,0,-1,783,407,0,0
-434,617,0,0,0,0,0,0,0,0,0,-1,790,407,0,0
-427,617,0,0,0,0,0,0,0,0,0,-1,797,407,0,0
-420,617,0,0,0,0,0,0,0,0,0,-1,804,407,0,0
-413,617,0,0,0,0,0,0,0,0,0,-1,811,407,0,0
-406,617,0,0,0,0,0,0,0,0,0,-1,818,407,0,0
-399,617,0,0,0,0,0,0,0,0,0,-1,825,407,0,0
-392,617,0,0,0,0,0,0,0,0,0,-1,832,407,0,0
-385,617,0,0,0,0,0,0,0,0,0,-1,839,407,0,0
-378,617,0,0,0,0,0,0,0,0,0,-1,846,407,0,0
-371,617,0,0,0,0,0,0,0,0,0,-1,853,407,0,0
-364,617,0,0,0,0,0,0,0,0,0,-1,860,407,0,0
-357,617,0,0,0,0,0,0,0,0,0,-1,867,407,0,0
-350,617,0,0,0,0,0,0,0,0,0,-1,874,407,0,0
-343,617,0,0,0,0,0,0,0,0,0,-1,881,407,0,0
-336,617,0,0,0,0,0,0,0,0,0,-1,888,407,0,0
-329,617,0,0,0,0,0,0,0,0,0,-1,895,407,0,0
-322,617,0,0,0,0,0,0,0,0,0,-1,902,407,0,0
-315,617,0,0,0,0,0,0,0,0,0,-1,909,407,0,0
-308,617,0,0,0,0,0,0,0,0,0,-1,916,407,0,0
-301,617,-1.61346,-11.4687,0,0,0,0,0,0,0,-1,923,407,-1.61344,11.4687
-294,617,-0.867493,-11.1655,0,0,0,0,0,0,0,-1,930,407,-0.867487,11.1655
-287,617,-0.212524,-10.7744,0,0,0,0,0,0,0,-1,937,407,-0.212541,10.7743
-280,617,0.457703,-10.3054,0,0,0,0,0,0,0,-1,944,407,0.457708,10.3054
-273,617,0.775146,-9.85422,0,0,0,0,0,0,0,-1,951,407,0.775126,9.85422
-266,617,3.42584,-9.33798,0,0,0,0,0,0,0,-1,958,407,3.42586,9.338
-259,617,2.51709,-9.67413,-0.0478278,-0.0243112,-0.0167289,-0.0156216,-0.0565174,-1.09172,0.0337003,0.0455489,965,407,2.51706,9.67414
-252,617,1.57745,-9.8598,-0.0408712,-0.0206781,-0.0161092,-0.0117629,-0.0497864,-1.06533,0.0300475,0.0446727,972,407,1.57748,9.85981
-245,617,0.621094,-9.47412,-0.0333989,-0.0168154,-0.0152575,-0.00774212,-0.0424722,-1.0343,0.0261194,0.0430308,979,407,0.621088,9.47412
-238,617,2.24554,-9.79401,0,0,0,0,0,0,0,-1,986,407,2.24555,9.794
-231,617,2.24603,-9.67108,-0.0195162,-0.00935926,-0.0124709,-0.000972474,-0.027903,-0.978759,0.0182864,0.0456718,993,407,2.24604,9.67108
-224,617,2.23993,-9.69321,-0.0139708,-0.00627835,-0.0107636,0.00130556,-0.0215547,-0.956997,0.0148242,0.0429654,1000,407,2.23993,9.69319
-217,617,2.28381,-9.89499,-0.0100623,-0.00513791,-0.00839074,0.00114441,-0.0163447,-0.928114,0.0112973,0.0376384,1007,407,2.28381,9.89497
-210,617,2.18945,-10.1169,-0.00701524,-0.00437706,-0.00647884,0.000915614,-0.0123079,-0.885825,0.00852688,0.0248325,1014,407,2.18945,10.1169
-203,617,2.21143,-10.2874,-0.00344105,-0.00345259,-0.00495697,0.00151015,-0.00840379,-0.784816,0.00616785,0.0189241,1021,407,2.21144,10.2874
-196,617,2.1925,-10.3977,0.000770388,-0.00281492,-0.00364185,0.00303688,-0.00508141,-0.556689,0.00473639,0.0155947,1028,407,2.19254,10.3977
-189,617,2.14246,-10.5445,0.001376,-0.00279743,-0.00140444,0.00180461,-0.00322604,-0.296201,0.00294284,0.0134545,1035,407,2.14249,10.5445
-182,617,2.14624,-10.6805,-0.00141483,-0.0037104,0.000132268,-0.00140724,-0.003718,0.0573656,0.00216761,0.0134748,1042,407,2.14626,10.6806
-175,617,2.17114,-10.8032,-0.00155725,-0.00424584,0.000171543,-0.00154635,-0.00425674,0.0634611,0.00248807,0.0112212,1049,407,2.17116,10.8032
-168,617,2.16064,-10.9412,-0.00158145,-0.00451298,0.000234415,-0.00156283,-0.00453161,0.0792919,0.00265797,0.00992732,1056,407,2.16065,10.9412
-161,617,2.13281,-11.0774,-0.00164586,-0.00432362,0.000208328,-0.00162974,-0.00433973,0.0771805,0.00253129,0.0114142,1063,407,2.13282,11.0774
-154,617,2.11694,-11.1758,-0.00156127,-0.00396678,0.000233933,-0.00153873,-0.00398932,0.0960498,0.0023232,0.0115763,1070,407,2.11689,11.1758
-147,617,2.1123,-11.2839,-0.00152479,-0.00340172,0.00020472,-0.00150272,-0.00342379,0.107389,0.00198164,0.0155004,1077,407,2.11236,11.2839
-140,617,2.11731,-11.4466,-0.0014546,-0.00269891,0.000140228,-0.00143899,-0.00271451,0.110843,0.00156817,0.0114686,1084,407,2.11735,11.4466
-133,617,2.11023,-11.5363,-0.0013854,-0.0018504,-3.22987e-05,-0.00138316,-0.00185263,-0.0690177,0.00111213,0.0133586,1091,407,2.11018,11.5362
-126,617,2.11609,-11.599,-0.00126612,-0.000995899,-0.000198195,-0.000891142,-0.00137087,-1.08457,0.000803268,0.0131779,1098,407,2.11612,11.599
-119,617,2.10583,-11.6908,-0.00111834,-0.000110008,-0.000305766,-2.45332e-05,-0.00120382,-1.29821,0.000794494,0.0126535,1105,407,2.10586,11.6908
-112,617,2.09729,-11.7853,-0.000887457,0.000781698,-0.000450693,0.000895616,-0.00100137,-1.32322,0.0010958,0.0130487,1112,407,2.09727,11.7854
-105,617,2.08911,-11.8913,-0.000683791,0.00134314,-0.000503437,0.00146129,-0.000801945,-1.34027,0.00132503,0.0134596,1119,407,2.08913,11.8913
-98,617,2.09485,-11.985,-0.000488015,0.00162031,-0.000561099,0.00176034,-0.000628043,-1.32623,0.00142965,0.0117737,1126,407,2.09479,11.985
-91,617,2.08862,-12.0603,-0.000157689,0.00169498,-0.000623747,0.00188541,-0.000348116,-1.27449,0.00138761,0.0171348,1133,407,2.08865,12.0603
-84,617,2.12195,-12.1472,0.00019273,0.00148534,-0.000543512,0.0016835,-5.42635e-06,-1.22119,0.00112415,0.0175617,1140,407,2.12192,12.1471
-77,617,2.13794,-12.2296,0.000493372,0.00117592,-0.000415762,0.00137253,0.000296756,-1.12906,0.000833895,0.0132712,1147,407,2.13788,12.2296
-70,617,2.12012,-12.2852,0.000859937,0.000700061,-0.000139335,0.000940636,0.000619362,-0.524965,0.000552092,0.0132926,1154,407,2.12009,12.2852
-63,617,2.10852,-12.3227,0.00126982,0.000242077,0.000130976,0.00128625,0.000225649,0.124783,0.000793058,0.0138381,1161,407,2.10853,12.3227
-56,617,2.12439,-12.3931,0.00169637,-7.87395e-06,0.000300609,0.00174784,-5.93435e-05,0.169573,0.00118551,0.0102933,1168,407,2.12443,12.3931
-49,617,2.13562,-12.4579,0.00201131,-0.000631002,0.000397011,0.00206967,-0.000689365,0.145959,0.00165805,0.00918078,1175,407,2.13557,12.4579
-42,617,2.13623,-12.5371,0.0023513,-0.00123039,0.000331961,0.00238181,-0.0012609,0.0916426,0.00213605,0.0106625,1182,407,2.13627,12.5371
-35,617,2.14929,-12.5861,0.00282956,-0.00164185,0.000153801,0.00283485,-0.00164714,0.0343423,0.00261778,0.0149854,1189,407,2.14928,12.5861
-28,617,2.14722,-12.6064,0.00334922,-0.00236295,0.000129723,0.00335217,-0.00236589,0.0226944,0.00331765,0.0176241,1196,407,2.14726,12.6064
-21,617,2.17236,-12.6329,0.00384095,-0.003109,-0.000207573,0.00384715,-0.0031152,-0.0298313,0.00402711,0.0138252,1203,407,2.17235,12.6329
-14,617,2.15833,-12.6602,0.00416675,-0.00360876,-0.000711173,0.00423126,-0.00367327,-0.0904631,0.00456747,0.0152352,1210,407,2.15831,12.6603
-7,617,2.13123,-12.6978,0.00417717,-0.00364128,-0.00132017,0.00439406,-0.00385818,-0.16284,0.00476778,0.0171256,1217,407,2.13127,12.6977
0,617,2.18335,-12.7355,0.00387411,-0.00337835,-0.00195989,0.00436985,-0.00387409,-0.247751,0.00476251,0.0150923,1224,407,2.18332,12.7355
7,617,2.21155,-12.7703,0.0035704,-0.00333885,-0.00243682,0.00434336,-0.00411182,-0.307163,0.00488221,0.0102279,1231,407,2.21158,12.7703
14,617,2.21875,-12.7872,0.00293907,-0.00318565,-0.00266202,0.00393435,-0.00418092,-0.357788,0.00468607,0.0112401,1238,407,2.21878,12.7872
21,617,2.23254,-12.786,0.00222191,-0.00317208,-0.0026834,0.00332944,-0.00427961,-0.391435,0.00440449,0.0106747,1245,407,2.23257,12.7861
28,617,2.22949,-12.8008,0.00152696,-0.00350503,-0.00248671,0.00254847,-0.00452654,-0.389772,0.00413763,0.0102617,1252,407,2.22955,12.8008
35,617,2.22205,-12.821,0.000813917,-0.00379227,-0.00222897,0.0017159,-0.00469426,-0.384521,0.00383175,0.0134523,1259,407,2.2221,12.821
42,617,2.27917,-12.8093,0.000231517,-0.00443069,-0.00171888,0.000796723,-0.00499589,-0.317684,0.00362547,0.0202476,1266,407,2.27921,12.8093
49,617,2.30725,-12.8051,-9.87964e-05,-0.00522768,-0.00114909,0.00014688,-0.00547336,-0.21063,0.00369884,0.0195614,1273,407,2.30726,12.8051
56,617,2.32397,-12.8043,-0.00023925,-0.00577179,-0.000494193,-0.000195453,-0.00581559,-0.0883922,0.00381358,0.0132554,1280,407,2.32398,12.8043
63,617,2.3125,-12.8077,0.000145716,-0.00619792,-4.21368e-05,0.000145996,-0.0061982,-0.00664199,0.00418165,0.00954799,1287,407,2.31251,12.8077
70,617,2.28589,-12.8076,0.000625515,-0.00667793,0.000384992,0.000645753,-0.00669817,0.0525198,0.00469552,0.0141481,1294,407,2.28592,12.8076
77,617,2.32227,-12.7837,0.00130974,-0.00685862,0.000696519,0.0013687,-0.00691758,0.0844579,0.00512919,0.0129263,1301,407,2.32221,12.7837
84,617,2.34155,-12.7557,0.00195271,-0.00658801,0.000763643,0.00202045,-0.00665575,0.0884768,0.00524209,0.00984103,1308,407,2.34158,12.7557
91,617,2.36255,-12.7217,0.00254844,-0.00594988,0.000753872,0.0026148,-0.00601624,0.0877948,0.00511049,0.00964631,1315,407,2.3625,12.7217
98,617,2.38354,-12.6969,0.0032071,-0.00524062,0.000686171,0.00326247,-0.00529599,0.0805223,0.0049875,0.0111259,1322,407,2.38351,12.6969
105,617,2.39001,-12.6607,0.00382287,-0.00452486,0.000547241,0.0038586,-0.00456058,0.0651839,0.00486644,0.0127461,1329,407,2.38998,12.6607
112,617,2.38147,-12.6141,0.0040333,-0.0034195,0.000341128,0.00404888,-0.00343508,0.0456446,0.00432571,0.0157442,1336,407,2.38141,12.6141
119,617,2.39087,-12.5482,0.00416339,-0.00240674,6.22799e-05,0.00416398,-0.00240733,0.00947811,0.00383887,0.0186197,1343,407,2.39082,12.5481
126,617,2.41992,-12.4935,0.00395116,-0.00142647,-0.000168825,0.00395646,-0.00143176,-0.0313528,0.00322271,0.0205547,1350,407,2.41992,12.4935
133,617,2.4364,-12.4613,0.00346256,-0.000524645,-0.000262804,0.00347981,-0.000541892,-0.065534,0.00252,0.0181892,1357,407,2.43641,12.4613
140,617,2.43274,-12.4154,0.00288058,-0.000249975,-0.000166265,0.00288939,-0.000258781,-0.0529119,0.00201806,0.0160885,1364,407,2.43275,12.4154
147,617,2.36426,-12.3681,0.00228398,-0.000126948,-0.000114602,0.00228942,-0.000132383,-0.0473919,0.00157227,0.0193246,1371,407,2.36422,12.3681
154,617,2.42163,-12.3079,0.00175477,-0.000288919,-2.95275e-05,0.0017552,-0.000289345,-0.0144441,0.00127755,0.0219794,1378,407,2.42169,12.3079
161,617,2.5083,-12.2168,0.00141992,-0.000736658,-4.42108e-05,0.00142082,-0.000737564,-0.020489,0.00126679,0.0228973,1385,407,2.50832,12.2168
168,617,2.52136,-12.1497,0.000794785,-0.0011935,9.65121e-05,0.000799459,-0.00119817,0.0483887,0.00116097,0.0211106,1392,407,2.52141,12.1497
175,617,2.48389,-12.0893,0.00045616,-0.00114221,-0.000135674,0.000467594,-0.00115364,-0.0840809,0.000963553,0.0173715,1399,407,2.48388,12.0893
182,617,2.50244,-12.0072,0.000159129,-0.00103101,-0.000331204,0.000245091,-0.00111697,-0.253941,0.000838373,0.0113506,1406,407,2.50241,12.0072
189,617,2.5072,-11.9244,0.00019369,-0.00088005,-0.000297804,0.000270756,-0.000957115,-0.253224,0.000744915,0.0113375,1413,407,2.50724,11.9244
196,617,2.51013,-11.86,0.000222476,-0.000688723,-0.000398613,0.000372239,-0.000838486,-0.359392,0.000716081,0.0151901,1420,407,2.51009,11.86
203,617,2.51172,-11.7769,2.78618e-05,-0.000399654,-0.000440971,0.000304153,-0.000675945,-0.559714,0.000579272,0.0150276,1427,407,2.51174,11.7769
210,617,2.5271,-11.657,-0.000253554,0.000154988,-0.000312758,0.000324273,-0.000422839,-1.07468,0.000432595,0.0139311,1434,407,2.52712,11.657
217,617,2.53394,-11.5203,-0.000443339,0.000646525,-0.000207169,0.000684577,-0.000481391,-1.38915,0.00067657,0.0177661,1441,407,2.53389,11.5203
224,617,2.52795,-11.4314,-0.000479651,0.000992882,-3.07229e-05,0.000993523,-0.000480292,-1.54994,0.000867934,0.0178563,1448,407,2.52792,11.4314
231,617,2.5304,-11.3408,-0.000369479,0.00132056,0.00017676,0.00133885,-0.000387768,1.46769,0.00104606,0.0143436,1455,407,2.53045,11.3408
238,617,2.53125,-11.2311,-0.000227868,0.00172057,0.000387024,0.00179463,-0.000301929,1.38172,0.00130872,0.0150344,1462,407,2.53123,11.2311
245,617,2.53247,-11.1258,-0.000150742,0.00200894,0.000494619,0.00211683,-0.000258632,1.35603,0.00150485,0.0127991,1469,407,2.53242,11.1258
252,617,2.52759,-10.9761,-4.48714e-06,0.00240035,0.000599807,0.00254165,-0.000145787,1.33944,0.00174506,0.0136514,1476,407,2.52754,10.9761
259,617,2.505,-10.8414,0.000272529,0.00278455,0.000625554,0.00293171,0.000125371,1.33975,0.00191405,0.0115967,1483,407,2.50505,10.8414
266,617,2.51794,-10.6964,0.00058827,0.00312098,0.000675081,0.00328968,0.000419568,1.32591,0.0020675,0.0138236,1490,407,2.51795,10.6963
273,617,2.50867,-10.5614,0.000858915,0.00334126,0.000755194,0.00355296,0.000647219,1.29749,0.00218509,0.0142343,1497,407,2.5087,10.5614
280,617,2.49341,-10.4466,0.00124408,0.00355902,0.000954818,0.00390202,0.000901074,1.22592,0.00235907,0.01258,1504,407,2.49335,10.4466
287,617,2.48413,-10.2953,0.00157078,0.00371325,0.00109546,0.00417419,0.00110983,1.17251,0.00249648,0.0121124,1511,407,2.48417,10.2953
294,617,2.48169,-10.1458,0.00193009,0.00388637,0.00121618,0.00446895,0.00134752,1.12407,0.00264704,0.0108858,1518,407,2.48166,10.1458
301,617,2.46985,-10.0157,0.00235103,0.003947,0.00138166,0.00474456,0.00155347,1.04728,0.00279313,0.00856005,1525,407,2.46988,10.0158
308,617,2.46265,-9.86993,0.00281128,0.00404412,0.00163647,0.00517642,0.00167898,0.965518,0.00304946,0.00840536,1532,407,2.46261,9.86992
315,617,2.45483,-9.69913,0.00311336,0.00384315,0.00184162,0.00535567,0.00160084,0.8832,0.00317437,0.00916361,1539,407,2.4548,9.69913
322,617,2.45276,-9.54196,0.00330996,0.00363183,0.0022072,0.00568396,0.00125783,0.821791,0.00344739,0.0114076,1546,407,2.45274,9.54198
329,617,2.44666,-9.39072,0.00306935,0.00361458,0.00259942,0.00595564,0.000728286,0.837645,0.00375131,0.0120421,1553,407,2.44668,9.39073
336,617,2.47119,-9.1915,0.00187991,0.00387883,0.00244827,0.00552379,0.000234953,0.979189,0.00360676,0.0269682,1560,407,2.4712,9.19151
343,617,2.56067,-8.86322,0,0,0,0,0,0,0,-1,1567,407,2.56073,8.86321
350,617,2.62158,-8.84277,0,0,0,0,0,0,0,-1,1574,407,2.62159,8.84278
357,617,2.1748,-7.16504,0,0,0,0,0,0,0,-1,1581,407,2.1748,7.16505
364,617,2.30127,-7.60257,0,0,0,0,0,0,0,-1,1588,407,2.30125,7.60258
371,617,2.60266,-6.20667,0,0,0,0,0,0,0,-1,1595,407,2.60261,6.20668
378,617,2.27588,-7.47134,0,0,0,0,0,0,0,-1,1602,407,2.27582,7.47136
385,617,1.37012,-5.41284,0,0,0,0,0,0,0,-1,1609,407,1.37016,5.41286
392,617,3.40723,-2.54929,0,0,0,0,0,0,0,-1,1616,407,3.40725,2.54929
399,617,3.25,-2.14835,0,0,0,0,0,0,0,-1,1623,407,3.25006,2.14836
406,617,3.02429,-3.19577,0,0,0,0,0,0,0,-1,1630,407,3.02431,3.19577
413,617,2.92786,-3.80649,0,0,0,0,0,0,0,-1,1637,407,2.92788,3.8065
420,617,3.42737,-4.47391,0,0,0,0,0,0,0,-1,1644,407,3.42737,4.47391
427,617,0,0,0,0,0,0,0,0,0,-1,1651,407,0,0
434,617,0,0,0,0,0,0,0,0,0,-1,1658,407,0,0
441,617,0,0,0,0,0,0,0,0,0,-1,1665,407,0,0
448,617,0,0,0,0,0,0,0,0,0,-1,1672,407,0,0
455,617,0,0,0,0,0,0,0,0,0,-1,1679,407,0,0
462,617,0,0,0,0,0,0,0,0,0,-1,1686,407,0,0
469,617,0,0,0,0,0,0,0,0,0,-1,1693,407,0,0
476,617,0,0,0,0,0,0,0,0,0,-1,1700,407,0,0
483,617,0,0,0,0,0,0,0,0,0,-1,1707,407,0,0
490,617,0,0,0,0,0,0,0,0,0,-1,1714,407,0,0
497,617,0,0,0,0,0,0,0,0,0,-1,1721,407,0,0
504,617,0,0,0,0,0,0,0,0,0,-1,1728,407,0,0
511,617,0,0,0,0,0,0,0,0,0,-1,1735,407,0,0
518,617,0,0,0,0,0,0,0,0,0,-1,1742,407,0,0
525,617,0,0,0,0,0,0,0,0,0,-1,1749,407,0,0
532,617,0,0,0,0,0,0,0,0,0,-1,1756,407,0,0
539,617,0,0,0,0,0,0,0,0,0,-1,1763,407,0,0
546,617,0,0,0,0,0,0,0,0,0,-1,1770,407,0,0
553,617,0,0,0,0,0,0,0,0,0,-1,1777,407,0,0
560,617,0,0,0,0,0,0,0,0,0,-1,1784,407,0,0
567,617,0,0,0,0,0,0,0,0,0,-1,1791,407,0,0
574,617,0,0,0,0,0,0,0,0,0,-1,1798,407,0,0
581,617,0,0,0,0,0,0,0,0,0,-1,1805,407,0,0
588,617,0,0,0,0,0,0,0,0,0,-1,1812,407,0,0
595,617,0,0,0,0,0,0,0,0,0,-1,1819,407,0,0
602,617,0,0,0,0,0,0,0,0,0,-1,1826,407,0,0
609,617,0,0,0,0,0,0,0,0,0,-1,1833,407,0,0
616,617,0,0,0,0,0,0,0,0,0,-1,1840,407,0,0
623,617,0,0,0,0,0,0,0,0,0,-1,1847,407,0,0
630,617,0,0,0,0,0,0,0,0,0,-1,1854,407,0,0
637,617,0,0,0,0,0,0,0,0,0,-1,1861,407,0,0
644,617,0,0,0,0,0,0,0,0,0,-1,1868,407,0,0
651,617,0,0,0,0,0,0,0,0,0,-1,1875,407,0,0
658,617,0,0,0,0,0,0,0,0,0,-1,1882,407,0,0
665,617,0,0,0,0,0,0,0,0,0,-1,1889,407,0,0
672,617,0,0,0,0,0,0,0,0,0,-1,1896,407,0,0
679,617,0,0,0,0,0,0,0,0,0,-1,1903,407,0,0
686,617,0,0,0,0,0,0,0,0,0,-1,1910,407,0,0
693,617,0,0,0,0,0,0,0,0,0,-1,1917,407,0,0
700,617,0,0,0,0,0,0,0,0,0,-1,1924,407,0,0
707,617,0,0,0,0,0,0,0,0,0,-1,1931,407,0,0
714,617,0,0,0,0,0,0,0,0,0,-1,1938,407,0,0
721,617,0,0,0,0,0,0,0,0,0,-1,1945,407,0,0
728,617,0,0,0,0,0,0,0,0,0,-1,1952,407,0,0
735,617,0,0,0,0,0,0,0,0,0,-1,1959,407,0,0
742,617,0,0,0,0,0,0,0,0,0,-1,1966,407,0,0
749,617,0,0,0,0,0,0,0,0,0,-1,1973,407,0,0
756,617,0,0,0,0,0,0,0,0,0,-1,1980,407,0,0
763,617,0,0,0,0,0,0,0,0,0,-1,1987,407,0,0
770,617,0,0,0,0,0,0,0,0,0,-1,1994,407,0,0
777,617,0,0,0,0,0,0,0,0,0,-1,2001,407,0,0
784,617,0,0,0,0,0,0,0,0,0,-1,2008,407,0,0
791,617,0,0,0,0,0,0,0,0,0,-1,2015,407,0,0
798,617,0,0,0,0,0,0,0,0,0,-1,2022,407,0,0
805,617,0,0,0,0,0,0,0,0,0,-1,2029,407,0,0
812,617,0,0,0,0,0,0,0,0,0,-1,2036,407,0,0
-700,610,0,0,0,0,0,0,0,0,0,-1,524,414,0,0
-693,610,0,0,0,0,0,0,0,0,0,-1,531,414,0,0
-686,610,0,0,0,0,0,0,0,0,0,-1,538,414,0,0
-679,610,0,0,0,0,0,0,0,0,0,-1,545,414,0,0
-672,610,0,0,0,0,0,0,0,0,0,-1,552,414,0,0
-665,610,0,0,0,0,0,0,0,0,0,-1,559,414,0,0
-658,610,0,0,0,0,0,0,0,0,0,-1,566,414,0,0
-651,610,0,0,0,0,0,0,0,0,0,-1,573,414,0,0
-644,610,0,0,0,0,0,0,0,0,0,-1,580,414,0,0
-637,610,0,0,0,0,0,0,0,0,0,-1,587,414,0,0
-630,610,0,0,0,0,0,0,0,0,0,-1,594,414,0,0
-623,610,0,0,0,0,0,0,0,0,0,-1,601,414,0,0
-616,610,0,0,0,0,0,0,0,0,0,-1,608,414,0,0
-609,610,0,0,0,0,0,0,0,0,0,-1,615,414,0,0
-602,610,0,0,0,0,0,0,0,0,0,-1,622,414,0,0
-595,610,0,0,0,0,0,0,0,0,0,-1,629,414,0,0
-588,610,0,0,0,0,0,0,0,0,0,-1,636,414,0,0
-581,610,0,0,0,0,0,0,0,0,0,-1,643,414,0,0
-574,610,0,0,0,0,0,0,0,0,0,-1,650,414,0,0
-567,610,0,0,0,0,0,0,0,0,0,-1,657,414,0,0
-560,610,0,0,0,0,0,0,0,0,0,-1,664,414,0,0
-553,610,0,0,0,0,0,0,0,0,0,-1,671,414,0,0
-546,610,0,0,0,0,0,0,0,0,0,-1,678,414,0,0
-539,610,0,0,0,0,0,0,0,0,0,-1,685,414,0,0
-532,610,0,0,0,0,0,0,0,0,0,-1,692,414,0,0
-525,610,0,0,0,0,0,0,0,0,0,-1,699,414,0,0
-518,610,0,0,0,0,0,0,0,0,0,-1,706,414,0,0
-511,610,0,0,0,0,0,0,0,0,0,-1,713,414,0,0
-504,610,0,0,0,0,0,0,0,0,0,-1,720,414,0,0
-497,610,0,0,0,0,0,0,0,0,0,-1,727,414,0,0
-490,610,0,0,0,0,0,0,0,0,0,-1,734,414,0,0
-483,610,0,0,0,0,0,0,0,0,0,-1,741,414,0,0
-476,610,0,0,0,0,0,0,0,0,0,-1,748,414,0,0
-469,610,0,0,0,0,0,0,0,0,0,-1,755,414,0,0
-462,610,0,0,0,0,0,0,0,0,0,-1,762,414,0,0
-455,610,0,0,0,0,0,0,0,0,0,-1,769,414,0,0
-448,610,0,0,0,0,0,0,0,0,0,-1,776,414,0,0
-441,610,0,0,0,0,0,0,0,0,0,-1,783,414,0,0
-434,610,0,0,0,0,0,0,0,0,0,-1,790,414,0,0
-427,610,0,0,0,0,0,0,0,0,0,-1,797,414,0,0
-420,610,0,0,0,0,0,0,0,0,0,-1,804,414,0,0
-413,610,0,0,0,0,0,0,0,0,0,-1,811,414,0,0
-406,610,0,0,0,0,0,0,0,0,0,-1,818,414,0,0
-399,610,0,0,0,0,0,0,0,0,0,-1,825,414,0,0
-392,610,0,0,0,0,0,0,0,0,0,-1,832,414,0,0
-385,610,0,0,0,0,0,0,0,0,0,-1,839,414,0,0
-378,610,0,0,0,0,0,0,0,0,0,-1,846,414,0,0
-371,610,0,0,0,0,0,0,0,0,0,-1,853,414,0,0
-364,610,0,0,0,0,0,0,0,0,0,-1,860,414,0,0
-357,610,0,0,0,0,0,0,0,0,0,-1,867,414,0,0
-350,610,0,0,0,0,0,0,0,0,0,-1,874,414,0,0
-343,610,0,0,0,0,0,0,0,0,0,-1,881,414,0,0
-336,610,0,0,0,0,0,0,0,0,0,-1,888,414,0,0
-329,610,0,0,0,0,0,0,0,0,0,-1,895,414,0,0
-322,610,0,0,0,0,0,0,0,0,0,-1,902,414,0,0
-315,610,5.57825,-7.69159,0,0,0,0,0,0,0,-1,909,414,5.57823,7.69159
-308,610,5.54938,-7.44653,0,0,0,0,0,0,0,-1,916,414,5.54937,7.44653
-301,610,-1.54291,-9.7341,0,0,0,0,0,0,0,-1,923,414,-1.54293,9.73409
-294,610,-1.43835,-9.29047,0,0,0,0,0,0,0,-1,930,414,-1.43836,9.29047
-287,610,-0.141846,-9.6178,0,0,0,0,0,0,0,-1,937,414,-0.141819,9.61781
-280,610,0.0545654,-9.20004,0,0,0,0,0,0,0,-1,944,414,0.054548,9.20003
-273,610,0.235474,-8.77753,0,0,0,0,0,0,0,-1,951,414,0.235468,8.77751
-266,610,2.14966,-9.056,0,0,0,0,0,0,0,-1,958,414,2.14965,9.05599
-259,610,2.14368,-9.5256,-0.0354573,-0.0182896,-0.0133258,-0.0110223,-0.0427246,-1.07153,0.0256121,0.0467833,965,414,2.14366,9.52562
-252,610,1.87189,-9.61533,-0.0308982,-0.015594,-0.0125539,-0.00854383,-0.0379483,-1.0591,0.0229864,0.0499829,972,414,1.87186,9.61532
-245,610,1.31659,-9.48663,-0.0257943,-0.0126562,-0.0116496,-0.00585123,-0.0325993,-1.04212,0.0200688,0.0437563,979,414,1.3166,9.48664
-238,610,1.68304,-9.67621,-0.020468,-0.00971857,-0.0106099,-0.00319968,-0.0269869,-1.01985,0.0170252,0.0407641,986,414,1.68302,9.6762
-231,610,2.08588,-9.67096,-0.0157839,-0.00704218,-0.00922459,-0.00120534,-0.0216208,-1.00664,0.0140293,0.0340329,993,414,2.08588,9.67096
-224,610,2.07483,-9.80954,-0.0115354,-0.00469599,-0.00789473,0.000487854,-0.0167193,-0.989781,0.0113123,0.0239561,1000,414,2.07484,9.80953
-217,610,2.10516,-9.97116,-0.00837766,-0.00333584,-0.00620274,0.000838696,-0.0125522,-0.978412,0.00866124,0.0155497,1007,414,2.10516,9.97118
-210,610,2.08606,-10.1235,-0.00590247,-0.00227084,-0.00479267,0.00103846,-0.00921178,-0.966479,0.00651499,0.010786,1014,414,2.08604,10.1235
-203,610,2.07129,-10.2579,-0.00310514,-0.00108088,-0.0036399,0.00168499,-0.00587101,-0.921006,0.00458018,0.0132452,1021,414,2.0713,10.2579
-196,610,2.07996,-10.4019,5.83016e-05,-0.000351259,-0.00264828,0.00250971,-0.00280267,-0.746812,0.00306866,0.0134818,1028,414,2.07997,10.4019
-189,610,2.05908,-10.5427,0.000695972,-0.000251031,-0.00104343,0.00136831,-0.000923372,-0.572397,0.00133139,0.0104402,1035,414,2.0591,10.5427
-182,610,2.03821,-10.6767,-0.0011632,-0.000834153,-2.31535e-05,-0.000832532,-0.00116482,-1.50089,0.000692872,0.0104295,1042,414,2.03817,10.6767
-175,610,2.04102,-10.7972,-0.00122735,-0.00125482,-6.9946e-05,-0.00116981,-0.00131237,-0.688471,0.000831475,0.0106654,1049,414,2.04098,10.7973
-168,610,2.03333,-10.9487,-0.00120265,-0.00158022,-0.000111301,-0.00117228,-0.00161058,-0.266358,0.00096152,0.0107232,1056,414,2.0333,10.9487
-161,610,2.02649,-11.0901,-0.00115215,-0.00168211,-0.000175508,-0.0010993,-0.00173497,-0.292499,0.00101353,0.011311,1063,414,2.02643,11.0901
-154,610,2.01196,-11.1845,-0.00102434,-0.00165279,-0.00019452,-0.000969006,-0.00170812,-0.277156,0.000989158,0.0137737,1070,414,2.01202,11.1845
-147,610,2.02539,-11.2866,-0.000949505,-0.0015257,-0.000227111,-0.000870752,-0.00160445,-0.333786,0.000927458,0.0146502,1077,414,2.02534,11.2866
-140,610,2.03271,-11.4214,-0.00085587,-0.00140005,-0.000230986,-0.000771046,-0.00148488,-0.351935,0.000857506,0.0116887,1084,414,2.03276,11.4214
-133,610,2.0271,-11.5288,-0.00072324,-0.00111172,-0.000327334,-0.000536854,-0.00129811,-0.517619,0.000753188,0.0130704,1091,414,2.02704,11.5288
-126,610,2.03003,-11.6158,-0.000571492,-0.000792262,-0.00040026,-0.000266675,-0.00109708,-0.650851,0.000660684,0.0119013,1098,414,2.03008,11.6158
-119,610,2.00159,-11.6954,-0.000406205,-0.00042003,-0.000420001,6.93963e-06,-0.000833175,-0.77717,0.000557778,0.0099521,1105,414,2.00161,11.6954
-112,610,2.02722,-11.7849,-0.000168112,-5.55737e-05,-0.000441559,0.000333287,-0.000556972,-0.848773,0.000519372,0.0156166,1112,414,2.02728,11.7849
-105,610,2.01929,-11.8903,7.8603e-05,0.000149314,-0.000415181,0.000530643,-0.000302725,-0.827874,0.000487106,0.0153661,1119,414,2.01927,11.8903
-98,610,2.01025,-11.9826,0.000331985,0.000221085,-0.00042112,0.00070129,-0.00014822,-0.719938,0.000523969,0.0109963,1126,414,2.01029,11.9826
-91,610,2.02222,-12.0358,0.000645322,0.0002339,-0.000440702,0.00092596,-4.67377e-05,-0.567038,0.000633461,0.0123638,1133,414,2.02227,12.0358
-84,610,2.03113,-12.1212,0.000999372,0.000102799,-0.000309093,0.0010956,6.56804e-06,-0.301821,0.000728223,0.0138134,1140,414,2.03113,12.1212
-77,610,2.02979,-12.2233,0.00138786,-1.54904e-05,-0.000189853,0.00141309,-4.07213e-05,-0.132123,0.000955921,0.0108096,1147,414,2.02977,12.2233
-70,610,2.04675,-12.3012,0.00181664,-0.000414543,0.000169619,0.00182946,-0.000427364,0.0754443,0.00138426,0.0129228,1154,414,2.04679,12.3012
-63,610,2.05676,-12.3597,0.00232607,-0.000792239,0.000522764,0.00241138,-0.000877544,0.161754,0.00196649,0.0120398,1161,414,2.05676,12.3597
-56,610,2.06677,-12.3894,0.00290254,-0.000808296,0.00067669,0.00302209,-0.000927842,0.174859,0.00238495,0.0093053,1168,414,2.06678,12.3894
-49,610,2.08057,-12.4513,0.00321946,-0.00153956,0.000706897,0.00332224,-0.00164235,0.144386,0.00292049,0.00959693,1175,414,2.08052,12.4513
-42,610,2.0896,-12.5319,0.00367507,-0.00216037,0.000438266,0.0037078,-0.0021931,0.074547,0.00344409,0.0135679,1182,414,2.08954,12.5319
-35,610,2.11206,-12.5922,0.00442516,-0.00242855,1.37796e-05,0.00442519,-0.00242858,0.00201052,0.0040126,0.0140646,1189,414,2.11209,12.5922
-28,610,2.1178,-12.6247,0.00513759,-0.00314609,-4.27276e-05,0.00513781,-0.00314631,-0.00515787,0.00482868,0.011527,1196,414,2.11784,12.6247
-21,610,2.12976,-12.642,0.00581125,-0.00414144,-0.000471978,0.00583358,-0.00416377,-0.0472807,0.00579875,0.0102496,1203,414,2.12981,12.642
-14,610,2.13501,-12.6654,0.00621911,-0.00475755,-0.00112543,0.00633331,-0.00487175,-0.101127,0.00648756,0.012101,1210,414,2.13498,12.6654
-7,610,2.13501,-12.7,0.00618873,-0.00478573,-0.00190818,0.00651105,-0.00510805,-0.167334,0.00672457,0.013656,1217,414,2.13497,12.7
0,610,2.16724,-12.7392,0.00578477,-0.00454194,-0.00267867,0.00643824,-0.00519542,-0.239281,0.00672946,0.0105699,1224,414,2.16726,12.7392
7,610,2.19373,-12.747,0.00537248,-0.00473025,-0.00318408,0.00629227,-0.00565003,-0.281215,0.00689821,0.00978687,1231,414,2.19375,12.747
14,610,2.21716,-12.7564,0.00452236,-0.00483996,-0.00335955,0.00560313,-0.00592073,-0.311245,0.00665415,0.0106464,1238,414,2.21721,12.7564
21,610,2.23511,-12.7769,0.0035663,-0.00520497,-0.00327751,0.00465569,-0.00629436,-0.320895,0.00634556,0.00999752,1245,414,2.23514,12.7769
28,610,2.24048,-12.8079,0.00259945,-0.00589559,-0.00294747,0.00352195,-0.00681809,-0.30332,0.00607008,0.0114904,1252,414,2.24046,12.8079
35,610,2.27588,-12.8149,0.00155123,-0.00653898,-0.00248251,0.00225225,-0.00724,-0.275219,0.005727,0.0156605,1259,414,2.27588,12.8149
42,610,2.2876,-12.7924,0.000678804,-0.00758375,-0.00170441,0.00101658,-0.00792153,-0.195645,0.00565045,0.0155071,1266,414,2.28761,12.7923
49,610,2.29248,-12.8161,0.000177945,-0.00871823,-0.000866775,0.00026161,-0.00880189,-0.0962265,0.00595705,0.0149873,1273,414,2.29253,12.8161
56,610,2.32678,-12.8221,-8.50732e-05,-0.00950645,7.80996e-05,-8.44263e-05,-0.00950709,0.00828886,0.00631011,0.0123339,1280,414,2.3268,12.8221
63,610,2.30579,-12.8047,0.00032925,-0.010031,0.000742268,0.000382159,-0.0100839,0.0711611,0.00685357,0.0148208,1287,414,2.30577,12.8047
70,610,2.30176,-12.7677,0.000943623,-0.0104948,0.00137874,0.00110746,-0.0106586,0.118279,0.00750219,0.0212206,1294,414,2.3017,12.7677
77,610,2.34534,-12.7531,0.001891,-0.0104662,0.00186939,0.00216761,-0.0107428,0.146902,0.0079831,0.0271953,1301,414,2.34537,12.7531
84,610,2.39075,-12.729,0.00282352,-0.00976769,0.00200416,0.00313483,-0.010079,0.154099,0.00797243,0.0291557,1308,414,2.3907,12.729
91,610,2.42944,-12.7196,0.00374868,-0.00854888,0.00203644,0.00407714,-0.00887734,0.159912,0.00764851,0.0256077,1315,414,2.42939,12.7196
98,610,2.47729,-12.7113,0.0047963,-0.00720881,0.00202463,0.00512855,-0.00754106,0.162656,0.00735888,0.0235558,1322,414,2.47724,12.7113
105,610,2.4834,-12.6638,0.00576483,-0.00586528,0.0019246,0.00607504,-0.0061755,0.15981,0.00707293,0.0185227,1329,414,2.48343,12.6638
112,610,2.46924,-12.6249,0.00621897,-0.00403182,0.00168385,0.00648849,-0.00430134,0.158711,0.00627202,0.0117786,1336,414,2.46922,12.6249
119,610,2.4303,-12.5757,0.00660114,-0.00238914,0.00138448,0.00680951,-0.00259751,0.149388,0.00560969,0.0168195,1343,414,2.43031,12.5757
126,610,2.44397,-12.5166,0.00649523,-0.000841909,0.00114852,0.00667081,-0.00101749,0.151703,0.00482229,0.0245411,1350,414,2.44394,12.5166
133,610,2.49268,-12.4682,0.00597771,0.000346241,0.00110359,0.00618625,0.000137697,0.186768,0.00407905,0.0194516,1357,414,2.49272,12.4682
140,610,2.51025,-12.4174,0.00533857,0.000723352,0.00120521,0.00563435,0.00042758,0.240655,0.00362213,0.015589,1364,414,2.51028,12.4174
147,610,2.50391,-12.3463,0.00456882,0.000896336,0.0012434,0.00495019,0.00051496,0.297611,0.00314257,0.0170613,1371,414,2.50385,12.3463
154,610,2.51794,-12.255,0.00373744,0.00058834,0.00131421,0.00421383,0.000111949,0.347759,0.00277266,0.0220309,1378,414,2.51791,12.255
161,610,2.56958,-12.2009,0.00313964,-2.41345e-05,0.0011653,0.00352252,-0.000407007,0.317451,0.0024951,0.0266981,1385,414,2.56959,12.2009
168,610,2.58716,-12.1401,0.00207322,-0.000808622,0.00119821,0.00250633,-0.00124173,0.346845,0.00220461,0.0266103,1392,414,2.58721,12.1402
175,610,2.57898,-12.0553,0.00130843,-0.000866456,0.000594438,0.0014603,-0.00101832,0.250129,0.0014386,0.0217333,1399,414,2.57901,12.0553
182,610,2.57458,-11.9962,0.000600824,-0.000950706,-8.37586e-06,0.00060087,-0.000950751,-0.00539824,0.000903389,0.0147843,1406,414,2.57462,11.9962
189,610,2.59241,-11.9176,0.000559507,-0.000941257,-0.000168233,0.000578135,-0.000959884,-0.110275,0.000897047,0.0132555,1413,414,2.59241,11.9176
196,610,2.59497,-11.8343,0.000509944,-0.000870357,-0.000562512,0.000710147,-0.00107056,-0.341927,0.00103509,0.0135391,1420,414,2.59494,11.8343
203,610,2.59583,-11.7592,0.000111183,-0.00066521,-0.000905928,0.000708584,-0.00126261,-0.58298,0.00115296,0.0139564,1427,414,2.59585,11.7592
210,610,2.61035,-11.6488,-0.000315281,6.6827e-06,-0.000935001,0.000794459,-0.00110306,-0.870649,0.00110035,0.0108488,1434,414,2.61033,11.6488
217,610,2.6405,-11.516,-0.000514515,0.000624513,-0.000760349,0.00100499,-0.000894989,-1.10683,0.00109756,0.0161244,1441,414,2.64046,11.516
224,610,2.63611,-11.4237,-0.000543631,0.00103822,-0.000467928,0.00116627,-0.000671684,-1.30368,0.00107387,0.0195713,1448,414,2.63606,11.4237
231,610,2.62573,-11.342,-0.00042654,0.0013961,-0.000177893,0.0014133,-0.00044374,-1.47441,0.00111981,0.0159632,1455,414,2.62571,11.342
238,610,2.63477,-11.2237,-0.000256393,0.00175722,7.03783e-05,0.00175968,-0.00025885,1.5359,0.00126824,0.0115551,1462,414,2.63473,11.2237
245,610,2.64966,-11.0977,-0.000118398,0.00204368,0.000236369,0.00206922,-0.000143937,1.46317,0.00142988,0.0124242,1469,414,2.6497,11.0977
252,610,2.66553,-10.9837,4.08403e-05,0.00234789,0.000378455,0.00240838,-1.96561e-05,1.41229,0.00161218,0.0141756,1476,414,2.66551,10.9837
259,610,2.6416,-10.8483,0.000247728,0.00258585,0.000453199,0.00267062,0.000162957,1.38588,0.00172866,0.0126196,1483,414,2.64157,10.8483
266,610,2.64685,-10.7002,0.00046452,0.00275658,0.000512966,0.00286614,0.000354954,1.36037,0.00180412,0.0123987,1490,414,2.64688,10.7002
273,610,2.64319,-10.5709,0.000662453,0.00286021,0.000595837,0.00301135,0.000511309,1.32237,0.0018607,0.01016,1497,414,2.6432,10.5709
280,610,2.625,-10.4337,0.000951245,0.00295341,0.000778534,0.00322051,0.000684147,1.2403,0.00195919,0.00974414,1504,414,2.62504,10.4337
287,610,2.60962,-10.288,0.00116471,0.00299791,0.000886131,0.00335621,0.000806405,1.18655,0.00202298,0.0122277,1511,414,2.6096,10.288
294,610,2.62585,-10.1515,0.0013705,0.00305012,0.000976894,0.00349856,0.000922054,1.14044,0.00209383,0.0114538,1518,414,2.62589,10.1515
301,610,2.65369,-10.0369,0.00161006,0.00300836,0.00110738,0.00361883,0.000999594,1.06698,0.00215796,0.0108272,1525,414,2.65369,10.0369
308,610,2.66504,-9.87253,0.00189881,0.00304128,0.00132386,0.00391189,0.0010282,0.989076,0.00234168,0.0124166,1532,414,2.66505,9.87252
315,610,2.64075,-9.69769,0.00209067,0.00290417,0.00150942,0.00406069,0.000934151,0.91701,0.0024557,0.0139552,1539,414,2.64071,9.6977
322,610,2.61206,-9.54932,0.00218565,0.00279046,0.00179639,0.00430972,0.000666394,0.868787,0.00267879,0.0131658,1546,414,2.6121,9.54932
329,610,2.58875,-9.3851,0.00191543,0.0028146,0.00212194,0.00453406,0.000195967,0.889791,0.00295955,0.0114907,1553,414,2.5887,9.38511
336,610,2.59985,-9.17807,0.00090195,0.00308742,0.00203006,0.00430016,-0.000310787,1.0323,0.00297578,0.0119624,1560,414,2.59983,9.17807
343,610,2.62048,-9.0022,-5.25638e-05,0.00337063,0.00185821,0.0041854,-0.000867328,1.15757,0.00311982,0.0251626,1567,414,2.62053,9.00219
350,610,2.61865,-8.93414,-0.00108162,0.00415953,0.00191835,0.00478664,-0.00170873,1.25484,0.00388792,0.0468133,1574,414,2.61862,8.93413
357,610,2.69861,-8.53088,0,0,0,0,0,0,0,-1,1581,414,2.6986,8.5309
364,610,2.66467,-8.42212,0,0,0,0,0,0,0,-1,1588,414,2.66468,8.42211
371,610,2.63953,-8.16092,0,0,0,0,0,0,0,-1,1595,414,2.63947,8.16091
378,610,2.63806,-8.0025,0,0,0,0,0,0,0,-1,1602,414,2.63806,8.00251
385,610,1.67212,-7.6937,0,0,0,0,0,0,0,-1,1609,414,1.6721,7.69371
392,610,2.54626,0.0437622,0,0,0,0,0,0,0,-1,1616,414,2.54632,-0.0437683
399,610,3.03833,-2.82547,0,0,0,0,0,0,0,-1,1623,414,3.03827,2.82546
406,610,2.91687,-2.9166,0,0,0,0,0,0,0,-1,1630,414,2.91688,2.91659
413,610,3.01929,-3.20306,0,0,0,0,0,0,0,-1,1637,414,3.01929,3.20306
420,610,4.78149,-3.64041,0,0,0,0,0,0,0,-1,1644,414,4.78152,3.64042
427,610,5.20764,-4.67545,0,0,0,0,0,0,0,-1,1651,414,5.20759,4.67545
434,610,5.39233,-5.45441,0,0,0,0,0,0,0,-1,1658,414,5.39228,5.4544
441,610,0,0,0,0,0,0,0,0,0,-1,1665,414,0,0
448,610,0,0,0,0,0,0,0,0,0,-1,1672,414,0,0
455,610,0,0,0,0,0,0,0,0,0,-1,1679,414,0,0
462,610,0,0,0,0,0,0,0,0,0,-1,1686,414,0,0
469,610,0,0,0,0,0,0,0,0,0,-1,1693,414,0,0
476,610,0,0,0,0,0,0,0,0,0,-1,1700,414,0,0
483,610,0,0,0,0,0,0,0,0,0,-1,1707,414,0,0
490,610,0,0,0,0,0,0,0,0,0,-1,1714,414,0,0
497,610,0,0,0,0,0,0,0,0,0,-1,1721,414,0,0
504,610,0,0,0,0,0,0,0,0,0,-1,1728,414,0,0
511,610,0,0,0,0,0,0,0,0,0,-1,1735,414,0,0
518,610,0,0,0,0,0,0,0,0,0,-1,1742,414,0,0
525,610,0,0,0,0,0,0,0,0,0,-1,1749,414,0,0
532,610,0,0,0,0,0,0,0,0,0,-1,1756,414,0,0
539,610,0,0,0,0,0,0,0,0,0,-1,1763,414,0,0
546,610,0,0,0,0,0,0,0,0,0,-1,1770,414,0,0
553,610,0,0,0,0,0,0,0,0,0,-1,1777,414,0,0
560,610,0,0,0,0,0,0,0,0,0,-1,1784,414,0,0
567,610,0,0,0,0,0,0,0,0,0,-1,1791,414,0,0
574,610,0,0,0,0,0,0,0,0,0,-1,1798,414,0,0
581,610,0,0,0,0,0,0,0,0,0,-1,1805,414,0,0
588,610,0,0,0,0,0,0,0,0,0,-1,1812,414,0,0
595,610,0,0,0,0,0,0,0,0,0,-1,1819,414,0,0
602,610,0,0,0,0,0,0,0,0,0,-1,1826,414,0,0
609,610,0,0,0,0,0,0,0,0,0,-1,1833,414,0,0
616,610,0,0,0,0,0,0,0,0,0,-1,1840,414,0,0
623,610,0,0,0,0,0,0,0,0,0,-1,1847,414,0,0
630,610,0,0,0,0,0,0,0,0,0,-1,1854,414,0,0
637,610,0,0,0,0,0,0,0,0,0,-1,1861,414,0,0
644,610,0,0,0,0,0,0,0,0,0,-1,1868,414,0,0
651,610,0,0,0,0,0,0,0,0,0,-1,1875,414,0,0
658,610,0,0,0,0,0,0,0,0,0,-1,1882,414,0,0
665,610,0,0,0,0,0,0,0,0,0,-1,1889,414,0,0
672,610,0,0,0,0,0,0,0,0,0,-1,1896,414,0,0
679,610,0,0,0,0,0,0,0,0,0,-1,1903,414,0,0
686,610,0,0,0,0,0,0,0,0,0,-1,1910,414,0,0
693,610,0,0,0,0,0,0,0,0,0,-1,1917,414,0,0
700,610,0,0,0,0,0,0,0,0,0,-1,1924,414,0,0
707,610,0,0,0,0,0,0,0,0,0,-1,1931,414,0,0
714,610,0,0,0,0,0,0,0,0,0,-1,1938,414,0,0
721,610,0,0,0,0,0,0,0,0,0,-1,1945,414,0,0
728,610,0,0,0,0,0,0,0,0,0,-1,1952,414,0,0
735,610,0,0,0,0,0,0,0,0,0,-1,1959,414,0,0
742,610,0,0,0,0,0,0,0,0,0,-1,1966,414,0,0
749,610,0,0,0,0,0,0,0,0,0,-1,1973,414,0,0
756,610,0,0,0,0,0,0,0,0,0,-1,1980,414,0,0
763,610,0,0,0,0,0,0,0,0,0,-1,1987,414,0,0
770,610,0,0,0,0,0,0,0,0,0,-1,1994,414,0,0
777,610,0,0,0,0,0,0,0,0,0,-1,2001,414,0,0
784,610,0,0,0,0,0,0,0,0,0,-1,2008,414,0,0
791,610,0,0,0,0,0,0,0,0,0,-1,2015,414,0,0
798,610,0,0,0,0,0,0,0,0,0,-1,2022,414,0,0
805,610,0,0,0,0,0,0,0,0,0,-1,2029,414,0,0
812,610,0,0,0,0,0,0,0,0,0,-1,2036,414,0,0
-700,603,0,0,0,0,0,0,0,0,0,-1,524,421,0,0
-693,603,0,0,0,0,0,0,0,0,0,-1,531,421,0,0
-686,603,0,0,0,0,0,0,0,0,0,-1,538,421,0,0
-679,603,0,0,0,0,0,0,0,0,0,-1,545,421,0,0
-672,603,0,0,0,0,0,0,0,0,0,-1,552,421,0,0
-665,603,0,0,0,0,0,0,0,0,0,-1,559,421,0,0
-658,603,0,0,0,0,0,0,0,0,0,-1,566,421,0,0
-651,603,0,0,0,0,0,0,0,0,0,-1,573,421,0,0
-644,603,0,0,0,0,0,0,0,0,0,-1,580,421,0,0
-637,603,0,0,0,0,0,0,0,0,0,-1,587,421,0,0
-630,603,0,0,0,0,0,0,0,0,0,-1,594,421,0,0
-623,603,0,0,0,0,0,0,0,0,0,-1,601,421,0,0
-616,603,0,0,0,0,0,0,0,0,0,-1,608,421,0,0
-609,603,0,0,0,0,0,0,0,0,0,-1,615,421,0,0
-602,603,0,0,0,0,0,0,0,0,0,-1,622,421,0,0
-595,603,0,0,0,0,0,0,0,0,0,-1,629,421,0,0
-588,603,0,0,0,0,0,0,0,0,0,-1,636,421,0,0
-581,603,0,0,0,0,0,0,0,0,0,-1,643,421,0,0
-574,603,0,0,0,0,0,0,0,0,0,-1,650,421,0,0
-567,603,0,0,0,0,0,0,0,0,0,-1,657,421,0,0
-560,603,0,0,0,0,0,0,0,0,0,-1,664,421,0,0
-553,603,0,0,0,0,0,0,0,0,0,-1,671,421,0,0
-546,603,0,0,0,0,0,0,0,0,0,-1,678,421,0,0
-539,603,0,0,0,0,0,0,0,0,0,-1,685,421,0,0
-532,603,0,0,0,0,0,0,0,0,0,-1,692,421,0,0
-525,603,0,0,0,0,0,0,0,0,0,-1,699,421,0,0
-518,603,0,0,0,0,0,0,0,0,0,-1,706,421,0,0
-511,603,0,0,0,0,0,0,0,0,0,-1,713,421,0,0
-504,603,0,0,0,0,0,0,0,0,0,-1,720,421,0,0
-497,603,0,0,0,0,0,0,0,0,0,-1,727,421,0,0
-490,603,0,0,0,0,0,0,0,0,0,-1,734,421,0,0
-483,603,0,0,0,0,0,0,0,0,0,-1,741,421,0,0
-476,603,0,0,0,0,0,0,0,0,0,-1,748,421,0,0
-469,603,0,0,0,0,0,0,0,0,0,-1,755,421,0,0
-462,603,0,0,0,0,0,0,0,0,0,-1,762,421,0,0
-455,603,0,0,0,0,0,0,0,0,0,-1,769,421,0,0
-448,603,0,0,0,0,0,0,0,0,0,-1,776,421,0,0
-441,603,0,0,0,0,0,0,0,0,0,-1,783,421,0,0
-434,603,0,0,0,0,0,0,0,0,0,-1,790,421,0,0
-427,603,0,0,0,0,0,0,0,0,0,-1,797,421,0,0
-420,603,0,0,0,0,0,0,0,0,0,-1,804,421,0,0
-413,603,0,0,0,0,0,0,0,0,0,-1,811,421,0,0
-406,603,0,0,0,0,0,0,0,0,0,-1,818,421,0,0
-399,603,0,0,0,0,0,0,0,0,0,-1,825,421,0,0
-392,603,0,0,0,0,0,0,0,0,0,-1,832,421,0,0
-385,603,0,0,0,0,0,0,0,0,0,-1,839,421,0,0
-378,603,0,0,0,0,0,0,0,0,0,-1,846,421,0,0
-371,603,0,0,0,0,0,0,0,0,0,-1,853,421,0,0
-364,603,0,0,0,0,0,0,0,0,0,-1,860,421,0,0
-357,603,0,0,0,0,0,0,0,0,0,-1,867,421,0,0
-350,603,0,0,0,0,0,0,0,0,0,-1,874,421,0,0
-343,603,0,0,0,0,0,0,0,0,0,-1,881,421,0,0
-336,603,0,0,0,0,0,0,0,0,0,-1,888,421,0,0
-329,603,4.6095,-8.85309,0,0,0,0,0,0,0,-1,895,421,4.60952,8.8531
-322,603,4.4209,-8.48056,0,0,0,0,0,0,0,-1,902,421,4.42093,8.48056
-315,603,3.94946,-8.08862,0,0,0,0,0,0,0,-1,909,421,3.94948,8.08863
-308,603,3.67664,-7.59,0,0,0,0,0,0,0,-1,916,421,3.67665,7.58999
-301,603,3.79938,-6.92474,0,0,0,0,0,0,0,-1,923,421,3.79937,6.92473
-294,603,1.87543,-6.70303,0,0,0,0,0,0,0,-1,930,421,1.87541,6.70304
-287,603,2.03363,-6.82123,0,0,0,0,0,0,0,-1,937,421,2.0336,6.82123
-280,603,-0.321289,-8.09372,0,0,0,0,0,0,0,-1,944,421,-0.321311,8.09372
-273,603,1.75,-8.53586,0,0,0,0,0,0,0,-1,951,421,1.74999,8.53587
-266,603,2.04828,-8.81049,0,0,0,0,0,0,0,-1,958,421,2.04825,8.81049
-259,603,2.01447,-9.03012,-0.0249044,-0.0133064,-0.0104656,-0.00714053,-0.0310703,-1.03839,0.0187911,0.0473738,965,421,2.01446,9.03012
-252,603,2.04181,-9.31812,-0.0220924,-0.0113434,-0.00967161,-0.00565331,-0.0277825,-1.039,0.0169544,0.0441729,972,421,2.04178,9.31811
-245,603,1.97473,-9.4931,-0.0187881,-0.00916527,-0.00881297,-0.00393585,-0.0240175,-1.03526,0.0148743,0.0325031,979,421,1.97471,9.49311
-238,603,2.02203,-9.48734,-0.0151606,-0.00702243,-0.00791781,-0.00218932,-0.0199937,-1.02276,0.0126626,0.0181539,986,421,2.02204,9.48733
-231,603,1.98981,-9.6911,-0.0119526,-0.00511966,-0.00676991,-0.00095298,-0.0161192,-1.01908,0.010443,0.0122849,993,421,1.98978,9.6911
-224,603,1.95032,-9.86676,-0.00885195,-0.00342026,-0.00575395,0.000226575,-0.0124988,-1.0059,0.00840907,0.0123066,1000,421,1.9503,9.86675
-217,603,1.95154,-9.98425,-0.00642751,-0.00220224,-0.00456383,0.000714217,-0.00934397,-1.00217,0.00648052,0.0111776,1007,421,1.95152,9.98425
-210,603,1.94781,-10.1263,-0.00449132,-0.00117445,-0.00358325,0.00111555,-0.00678131,-1.00213,0.00493493,0.00968805,1014,421,1.94783,10.1263
-203,603,1.93927,-10.2679,-0.00233953,2.14357e-05,-0.00277823,0.00185958,-0.00417767,-0.986293,0.00357023,0.0157348,1021,421,1.93926,10.2679
-196,603,1.95911,-10.429,-8.833e-06,0.00076222,-0.00208696,0.00249897,-0.00174558,-0.876734,0.00246343,0.0166675,1028,421,1.9591,10.4289
-189,603,1.94043,-10.5638,0.00057076,0.000949076,-0.00102378,0.00180103,-0.00028119,-0.87675,0.00130455,0.0125727,1035,421,1.94042,10.5638
-182,603,1.91296,-10.7008,-0.00065598,0.000610197,-0.000394032,0.000722805,-0.000768587,-1.29243,0.000861191,0.00944943,1042,421,1.91291,10.7008
-175,603,1.90405,-10.8286,-0.000682037,0.000321698,-0.000488415,0.00052013,-0.00088047,-1.18489,0.000817509,0.0101931,1049,421,1.90401,10.8286
-168,603,1.90259,-10.9481,-0.000645767,4.98729e-06,-0.000587766,0.000351428,-0.000992208,-1.03819,0.000804617,0.0129486,1056,421,1.90255,10.9481
-161,603,1.89429,-11.0865,-0.000601275,-0.000243804,-0.000698151,0.000298128,-0.00114321,-0.910713,0.00087854,0.0131225,1063,421,1.89431,11.0865
-154,603,1.89771,-11.2192,-0.000479894,-0.000420164,-0.000748728,0.000299294,-0.00119935,-0.805331,0.000915783,0.0125437,1070,421,1.89774,11.2192
-147,603,1.9165,-11.3157,-0.000391414,-0.000540104,-0.000775032,0.00031283,-0.00124435,-0.737582,0.000951148,0.0136599,1077,421,1.91647,11.3157
-140,603,1.94189,-11.4109,-0.000292162,-0.000771381,-0.000708247,0.000215909,-0.00127945,-0.622285,0.0009333,0.0115528,1084,421,1.94185,11.4109
-133,603,1.92578,-11.5116,-0.000111465,-0.000889075,-0.000724487,0.000321953,-0.00132249,-0.539125,0.0010063,0.0118513,1091,421,1.92575,11.5116
-126,603,1.90942,-11.6082,5.32171e-05,-0.000944888,-0.000693285,0.000408388,-0.00130006,-0.47344,0.00103018,0.0104017,1098,421,1.90945,11.6082
-119,603,1.92419,-11.6996,0.000236024,-0.000941876,-0.000607713,0.000493346,-0.0011992,-0.400538,0.00100512,0.0101981,1105,421,1.92417,11.6996
-112,603,1.9502,-11.7996,0.000465352,-0.000936635,-0.000479503,0.000613661,-0.00108494,-0.299965,0.000993193,0.0150107,1112,421,1.95023,11.7996
-105,603,1.95459,-11.9268,0.000725633,-0.000937508,-0.000337452,0.000791494,-0.00100337,-0.192749,0.00103867,0.0146296,1119,421,1.95462,11.9268
-98,603,1.92383,-11.9791,0.000991994,-0.000948282,-0.00025573,0.00102513,-0.000981421,-0.128869,0.00115858,0.0117088,1126,421,1.92378,11.9791
-91,603,1.93347,-12.0353,0.0012462,-0.000943417,-0.000217391,0.00126757,-0.000964791,-0.0980081,0.0012928,0.00872196,1133,421,1.93348,12.0353
-84,603,1.9563,-12.1309,0.00149959,-0.000930524,-4.10352e-05,0.00150028,-0.000931216,-0.0168797,0.00141658,0.00879939,1140,421,1.95624,12.1308
-77,603,1.97717,-12.2319,0.0018382,-0.000845921,4.24787e-05,0.00183887,-0.000846593,0.0158207,0.00158534,0.0102589,1147,421,1.97718,12.2319
-70,603,2.00122,-12.3559,0.0022888,-0.00122551,0.00050502,0.00235994,-0.00129664,0.139932,0.00214067,0.0246253,1154,421,2.00119,12.3559
-63,603,2.01904,-12.494,0,0,0,0,0,0,0,-1,1161,421,2.01905,12.494
-56,603,1.99854,-12.3917,0,0,0,0,0,0,0,-1,1168,421,1.99854,12.3917
-49,603,2.03308,-12.4468,0,0,0,0,0,0,0,-1,1175,421,2.03312,12.4468
-42,603,2.03711,-12.5121,0,0,0,0,0,0,0,-1,1182,421,2.03713,12.5121
-35,603,1.9762,-12.5505,0.0062128,-0.00316331,-0.000194219,0.00621682,-0.00316733,-0.0207024,0.00551247,0.0400999,1189,421,1.97621,12.5505
-28,603,1.99304,-12.5867,0.0071913,-0.00393842,-0.000225657,0.00719587,-0.003943,-0.0202641,0.00652179,0.0225409,1196,421,1.99303,12.5867
-21,603,2.04846,-12.615,0.00807202,-0.0052621,-0.000732622,0.00811215,-0.00530223,-0.0547239,0.00780123,0.0182495,1203,421,2.04845,12.615
-14,603,2.10083,-12.6381,0.00856927,-0.00602643,-0.00155133,0.00873233,-0.0061895,-0.104728,0.00865672,0.0199226,1210,421,2.10086,12.6381
-7,603,2.13831,-12.677,0.00850128,-0.00609417,-0.00253285,0.00892833,-0.00652122,-0.167033,0.00895582,0.0217934,1217,421,2.13836,12.677
0,603,2.14319,-12.707,0.00794417,-0.00600187,-0.00341078,0.00873365,-0.00679135,-0.227461,0.00898672,0.0259847,1224,421,2.14315,12.707
7,603,2.1925,-12.683,0.00735822,-0.00661722,-0.00385956,0.00835326,-0.00761226,-0.252317,0.00922101,0.029654,1231,421,2.19246,12.683
14,603,2.25977,-12.6915,0.0062329,-0.00708562,-0.00396875,0.00732585,-0.00817856,-0.268727,0.00895599,0.0245163,1238,421,2.25972,12.6915
21,603,2.26648,-12.7332,0.00507782,-0.00803219,-0.00370308,0.00605149,-0.00900585,-0.257115,0.00874896,0.0184907,1245,421,2.26652,12.7332
28,603,2.3125,-12.769,0.00379925,-0.00921009,-0.00317345,0.00453209,-0.00994292,-0.226949,0.00854956,0.022922,1252,421,2.31251,12.769
35,603,2.2843,-12.7399,0.00242391,-0.0102945,-0.00238514,0.00285649,-0.0107271,-0.179415,0.00826968,0.0330189,1259,421,2.28431,12.7399
42,603,2.30371,-12.7465,0.00131003,-0.0117657,-0.00123965,0.00142652,-0.0118822,-0.0936931,0.00843726,0.0285403,1266,421,2.30375,12.7465
49,603,2.31567,-12.8009,0.000702501,-0.0132202,-5.06326e-05,0.000702686,-0.0132204,-0.00363663,0.00905691,0.0152734,1273,421,2.31565,12.8009
56,603,2.2644,-12.804,0.000338419,-0.014185,0.00124159,0.000443797,-0.0142904,0.0846703,0.00967824,0.0261372,1280,421,2.26437,12.804
63,603,2.24255,-12.7695,0.000864581,-0.0147369,0.00217788,0.0011629,-0.0150352,0.136128,0.0104327,0.036084,1287,421,2.24255,12.7695
70,603,2.20251,-12.7079,0.00166709,-0.015059,0.00304585,0.00220448,-0.0155964,0.174636,0.0112049,0.041856,1294,421,2.20247,12.7079
77,603,2.12952,-12.6693,0.00291053,-0.0146593,0.00370713,0.00366068,-0.0154094,0.199659,0.0116859,0.0466756,1301,421,2.12953,12.6693
84,603,2.04382,-11.9158,0,0,0,0,0,0,0,-1,1308,421,2.04381,11.9158
91,603,2.53455,-12.6141,0,0,0,0,0,0,0,-1,1315,421,2.53459,12.6141
98,603,2.27612,-12.5169,0,0,0,0,0,0,0,-1,1322,421,2.27612,12.5169
105,603,2.7168,-12.595,0.00793151,-0.007069,0.00375327,0.0088182,-0.00795569,0.231991,0.00968868,0.0389616,1329,421,2.7168,12.595
112,603,2.61218,-12.585,0.00854479,-0.00430018,0.0033986,0.00938858,-0.00514398,0.243356,0.00850884,0.0295273,1336,421,2.61217,12.585
119,603,2.58423,-12.5952,0.00904294,-0.00191206,0.003056,0.00983777,-0.00270689,0.254451,0.00762273,0.0308531,1343,421,2.58417,12.5952
126,603,2.65527,-12.5366,0.00883776,0.00044754,0.00276618,0.00966766,-0.00038236,0.291472,0.00657627,0.038272,1350,421,2.65524,12.5366
133,603,2.64575,-12.4282,0.00821082,0.00200108,0.00276381,0.00926274,0.000949163,0.363674,0.00588435,0.0343344,1357,421,2.64575,12.4282
140,603,2.65186,-12.3765,0.00743658,0.0025885,0.00284019,0.00874653,0.00127856,0.432143,0.00545501,0.0224285,1364,421,2.6519,12.3765
147,603,2.61047,-12.3235,0.0064298,0.00292659,0.00288249,0.00805115,0.00130523,0.512378,0.00498959,0.0176644,1371,421,2.61048,12.3236
154,603,2.55688,-12.2596,0.00523241,0.00249656,0.00296933,0.00713376,0.000595212,0.569546,0.00457037,0.026806,1378,421,2.55687,12.2596
161,603,2.58203,-12.1977,0.0045007,0.00180002,0.00274053,0.00620551,9.52124e-05,0.556491,0.00410564,0.0310952,1385,421,2.582,12.1977
168,603,2.69177,-12.1341,0.00295764,0.000643848,0.00267109,0.00471161,-0.00111012,0.581035,0.00356913,0.0286394,1392,421,2.69183,12.134
175,603,2.78748,-12.048,0.00174443,0.000414871,0.00165868,0.00286659,-0.000707284,0.594804,0.00218531,0.0300866,1399,421,2.78752,12.048
182,603,2.77319,-11.9887,0.000628062,2.10519e-05,0.000600038,0.000996987,-0.000347872,0.551256,0.000806039,0.0359375,1406,421,2.7732,11.9887
189,603,2.7677,-11.8798,0.000572396,-0.000263697,0.000215854,0.000624835,-0.000316135,0.238317,0.000552928,0.0312077,1413,421,2.7677,11.8798
196,603,2.71948,-11.7423,0.000470265,-0.000485313,-0.000530687,0.000706557,-0.000721605,-0.418902,0.000824565,0.0221393,1420,421,2.71944,11.7423
203,603,2.70264,-11.7048,-0.000133123,-0.000584914,-0.00126186,0.000922907,-0.00164094,-0.696828,0.00149946,0.0121384,1427,421,2.70265,11.7048
210,603,2.71973,-11.6631,-0.000547441,-0.000137609,-0.00158054,0.00125124,-0.00193629,-0.849863,0.00185443,0.0105525,1434,421,2.71977,11.6631
217,603,2.72449,-11.5274,-0.00075984,0.000668105,-0.00135125,0.00148241,-0.00157414,-1.02845,0.00176496,0.0135256,1441,421,2.72451,11.5274
224,603,2.73291,-11.4082,-0.000762711,0.0011925,-0.000944164,0.001574,-0.00114421,-1.1868,0.00157588,0.0171202,1448,421,2.73289,11.4082
231,603,2.71863,-11.3141,-0.000611469,0.00160581,-0.000567561,0.00174264,-0.000748305,-1.33422,0.00147585,0.0148477,1455,421,2.71862,11.3142
238,603,2.73511,-11.2019,-0.000381269,0.00194514,-0.000284456,0.00197941,-0.000415545,-1.45088,0.00147773,0.010997,1462,421,2.73505,11.2019
245,603,2.75854,-11.086,-0.000155505,0.00223957,-6.77516e-05,0.00224149,-0.00015742,-1.54254,0.00154947,0.0118835,1469,421,2.7586,11.086
252,603,2.78467,-10.9743,4.50471e-05,0.00246375,0.000105067,0.00246831,4.04917e-05,1.52747,0.00163221,0.0106132,1476,421,2.78462,10.9743
259,603,2.76685,-10.8543,0.000219815,0.00256121,0.000219321,0.00258158,0.000199449,1.4782,0.00165857,0.0104132,1483,421,2.76691,10.8543
266,603,2.75391,-10.7153,0.000379171,0.0025758,0.000282031,0.00261144,0.000343538,1.44512,0.00163849,0.0115641,1490,421,2.75396,10.7153
273,603,2.77112,-10.574,0.000511491,0.00253955,0.000349288,0.00259802,0.00045302,1.40493,0.00160249,0.0107642,1497,421,2.7711,10.574
280,603,2.78113,-10.4293,0.000724668,0.00250087,0.00050476,0.00263429,0.000591248,1.31238,0.00159604,0.0120069,1504,421,2.78112,10.4293
287,603,2.78418,-10.267,0.000848619,0.00243121,0.000565843,0.00261271,0.000667122,1.26041,0.00156749,0.0106959,1511,421,2.78413,10.267
294,603,2.77148,-10.1478,0.000931851,0.00236201,0.000616877,0.00259133,0.000702539,1.2149,0.00154747,0.00911239,1518,421,2.77145,10.1478
301,603,2.78174,-10.0164,0.00103619,0.00222722,0.000710343,0.00255865,0.000704764,1.13424,0.00152609,0.0107077,1525,421,2.78176,10.0164
308,603,2.78699,-9.85617,0.00121543,0.00221409,0.000897334,0.00274167,0.000687855,1.03929,0.00164709,0.0155579,1532,421,2.78696,9.85617
315,603,2.78149,-9.70557,0.00136039,0.00212529,0.00107149,0.00288054,0.000605141,0.956816,0.0017538,0.0154445,1539,421,2.78151,9.70557
322,603,2.77356,-9.5361,0.00142895,0.00208176,0.00131933,0.00311446,0.00039625,0.906664,0.00195764,0.0148762,1546,421,2.77357,9.53612
329,603,2.75073,-9.36392,0.00121212,0.00213345,0.00161951,0.00335653,-1.09713e-05,0.923962,0.00224136,0.0108858,1553,421,2.75074,9.36392
336,603,2.74426,-9.2106,0.000422868,0.00240887,0.00160888,0.00330651,-0.000474778,1.06188,0.00237845,0.00912461,1560,421,2.74426,9.2106
343,603,2.74744,-9.0481,-0.000327238,0.00270805,0.0015383,0.00335133,-0.000970521,1.17472,0.00261838,0.0108786,1567,421,2.74739,9.04809
350,603,2.73193,-8.87357,-0.00114723,0.00332547,0.0016223,0.00385193,-0.0016737,1.257,0.0032718,0.0192917,1574,421,2.7319,8.87356
357,603,2.76428,-8.65298,-0.00247445,0.00389101,0.00160154,0.00427124,-0.00285468,1.3377,0.00414116,0.0235711,1581,421,2.76424,8.65297
364,603,2.74573,-8.46945,-0.00437702,0.00452966,0.00158913,0.0048047,-0.00465206,1.39942,0.0054601,0.0218352,1588,421,2.74572,8.46945
371,603,2.72986,-8.25488,-0.00657064,0.00553839,0.00125987,0.00566808,-0.00670033,1.46822,0.00714919,0.0240213,1595,421,2.72984,8.25489
378,603,2.73425,-8.07455,-0.00875648,0.00657819,0.000723037,0.00661221,-0.0087905,1.52378,0.00892235,0.0343121,1602,421,2.73424,8.07455
385,603,2.2478,-7.77667,-0.0112136,0.00748008,-0.000237499,0.0074831,-0.0112166,-1.55809,0.0108678,0.0464924,1609,421,2.24779,7.77668
392,603,2.2627,-7.54248,0,0,0,0,0,0,0,-1,1616,421,2.26265,7.54249
399,603,2.38013,-5.37076,0,0,0,0,0,0,0,-1,1623,421,2.38016,5.37075
406,603,3.01917,-2.37219,0,0,0,0,0,0,0,-1,1630,421,3.01915,2.37219
413,603,2.38928,-2.41275,0,0,0,0,0,0,0,-1,1637,421,2.38926,2.41274
420,603,2.74866,-2.30066,0,0,0,0,0,0,0,-1,1644,421,2.74867,2.30065
427,603,7.11548,-3.35352,0,0,0,0,0,0,0,-1,1651,421,7.11549,3.35351
434,603,7.32153,-4.50525,0,0,0,0,0,0,0,-1,1658,421,7.32149,4.50525
441,603,3.18213,-0.250946,0,0,0,0,0,0,0,-1,1665,421,3.18212,0.250944
448,603,2.95667,-0.066925,0,0,0,0,0,0,0,-1,1672,421,2.95662,0.0669226
455,603,0,0,0,0,0,0,0,0,0,-1,1679,421,0,0
462,603,0,0,0,0,0,0,0,0,0,-1,1686,421,0,0
469,603,0,0,0,0,0,0,0,0,0,-1,1693,421,0,0
476,603,0,0,0,0,0,0,0,0,0,-1,1700,421,0,0
483,603,0,0,0,0,0,0,0,0,0,-1,1707,421,0,0
490,603,0,0,0,0,0,0,0,0,0,-1,1714,421,0,0
497,603,0,0,0,0,0,0,0,0,0,-1,1721,421,0,0
504,603,0,0,0,0,0,0,0,0,0,-1,1728,421,0,0
511,603,0,0,0,0,0,0,0,0,0,-1,1735,421,0,0
518,603,0,0,0,0,0,0,0,0,0,-1,1742,421,0,0
525,603,0,0,0,0,0,0,0,0,0,-1,1749,421,0,0
532,603,0,0,0,0,0,0,0,0,0,-1,1756,421,0,0
539,603,0,0,0,0,0,0,0,0,0,-1,1763,421,0,0
546,603,0,0,0,0,0,0,0,0,0,-1,1770,421,0,0
553,603,0,0,0,0,0,0,0,0,0,-1,1777,421,0,0
560,603,0,0,0,0,0,0,0,0,0,-1,1784,421,0,0
567,603,0,0,0,0,0,0,0,0,0,-1,1791,421,0,0
574,603,0,0,0,0,0,0,0,0,0,-1,1798,421,0,0
581,603,0,0,0,0,0,0,0,0,0,-1,1805,421,0,0
588,603,0,0,0,0,0,0,0,0,0,-1,1812,421,0,0
595,603,0,0,0,0,0,0,0,0,0,-1,1819,421,0,0
602,603,0,0,0,0,0,0,0,0,0,-1,1826,421,0,0
609,603,0,0,0,0,0,0,0,0,0,-1,1833,421,0,0
616,603,0,0,0,0,0,0,0,0,0,-1,1840,421,0,0
623,603,0,0,0,0,0,0,0,0,0,-1,1847,421,0,0
630,603,0,0,0,0,0,0,0,0,0,-1,1854,421,0,0
637,603,0,0,0,0,0,0,0,0,0,-1,1861,421,0,0
644,603,0,0,0,0,0,0,0,0,0,-1,1868,421,0,0
651,603,0,0,0,0,0,0,0,0,0,-1,1875,421,0,0
658,603,0,0,0,0,0,0,0,0,0,-1,1882,421,0,0
665,603,0,0,0,0,0,0,0,0,0,-1,1889,421,0,0
672,603,0,0,0,0,0,0,0,0,0,-1,1896,421,0,0
679,603,0,0,0,0,0,0,0,0,0,-1,1903,421,0,0
686,603,0,0,0,0,0,0,0,0,0,-1,1910,421,0,0
693,603,0,0,0,0,0,0,0,0,0,-1,1917,421,0,0
700,603,0,0,0,0,0,0,0,0,0,-1,1924,421,0,0
707,603,0,0,0,0,0,0,0,0,0,-1,1931,421,0,0
714,603,0,0,0,0,0,0,0,0,0,-1,1938,421,0,0
721,603,0,0,0,0,0,0,0,0,0,-1,1945,421,0,0
728,603,0,0,0,0,0,0,0,0,0,-1,1952,421,0,0
735,603,0,0,0,0,0,0,0,0,0,-1,1959,421,0,0
742,603,0,0,0,0,0,0,0,0,0,-1,1966,421,0,0
749,603,0,0,0,0,0,0,0,0,0,-1,1973,421,0,0
756,603,0,0,0,0,0,0,0,0,0,-1,1980,421,0,0
763,603,0,0,0,0,0,0,0,0,0,-1,1987,421,0,0
770,603,0,0,0,0,0,0,0,0,0,-1,1994,421,0,0
777,603,0,0,0,0,0,0,0,0,0,-1,2001,421,0,0
784,603,0,0,0,0,0,0,0,0,0,-1,2008,421,0,0
791,603,0,0,0,0,0,0,0,0,0,-1,2015,421,0,0
798,603,0,0,0,0,0,0,0,0,0,-1,2022,421,0,0
805,603,0,0,0,0,0,0,0,0,0,-1,2029,421,0,0
812,603,0,0,0,0,0,0,0,0,0,-1,2036,421,0,0
-700,596,0,0,0,0,0,0,0,0,0,-1,524,428,0,0
-693,596,0,0,0,0,0,0,0,0,0,-1,531,428,0,0
-686,596,0,0,0,0,0,0,0,0,0,-1,538,428,0,0
-679,596,0,0,0,0,0,0,0,0,0,-1,545,428,0,0
-672,596,0,0,0,0,0,0,0,0,0,-1,552,428,0,0
-665,596,0,0,0,0,0,0,0,0,0,-1,559,428,0,0
-658,596,0,0,0,0,0,0,0,0,0,-1,566,428,0,0
-651,596,0,0,0,0,0,0,0,0,0,-1,573,428,0,0
-644,596,0,0,0,0,0,0,0,0,0,-1,580,428,0,0
-637,596,0,0,0,0,0,0,0,0,0,-1,587,428,0,0
-630,596,0,0,0,0,0,0,0,0,0,-1,594,428,0,0
-623,596,0,0,0,0,0,0,0,0,0,-1,601,428,0,0
-616,596,0,0,0,0,0,0,0,0,0,-1,608,428,0,0
-609,596,0,0,0,0,0,0,0,0,0,-1,615,428,0,0
-602,596,0,0,0,0,0,0,0,0,0,-1,622,428,0,0
-595,596,0,0,0,0,0,0,0,0,0,-1,629,428,0,0
-588,596,0,0,0,0,0,0,0,0,0,-1,636,428,0,0
-581,596,0,0,0,0,0,0,0,0,0,-1,643,428,0,0
-574,596,0,0,0,0,0,0,0,0,0,-1,650,428,0,0
-567,596,0,0,0,0,0,0,0,0,0,-1,657,428,0,0
-560,596,0,0,0,0,0,0,0,0,0,-1,664,428,0,0
-553,596,0,0,0,0,0,0,0,0,0,-1,671,428,0,0
-546,596,0,0,0,0,0,0,0,0,0,-1,678,428,0,0
-539,596,0,0,0,0,0,0,0,0,0,-1,685,428,0,0
-532,596,0,0,0,0,0,0,0,0,0,-1,692,428,0,0
-525,596,0,0,0,0,0,0,0,0,0,-1,699,428,0,0
-518,596,0,0,0,0,0,0,0,0,0,-1,706,428,0,0
-511,596,0,0,0,0,0,0,0,0,0,-1,713,428,0,0
-504,596,0,0,0,0,0,0,0,0,0,-1,720,428,0,0
-497,596,0,0,0,0,0,0,0,0,0,-1,727,428,0,0
-490,596,0,0,0,0,0,0,0,0,0,-1,734,428,0,0
-483,596,0,0,0,0,0,0,0,0,0,-1,741,428,0,0
-476,596,0,0,0,0,0,0,0,0,0,-1,748,428,0,0
-469,596,0,0,0,0,0,0,0,0,0,-1,755,428,0,0
-462,596,0,0,0,0,0,0,0,0,0,-1,762,428,0,0
-455,596,0,0,0,0,0,0,0,0,0,-1,769,428,0,0
-448,596,0,0,0,0,0,0,0,0,0,-1,776,428,0,0
-441,596,0,0,0,0,0,0,0,0,0,-1,783,428,0,0
-434,596,0,0,0,0,0,0,0,0,0,-1,790,428,0,0
-427,596,0,0,0,0,0,0,0,0,0,-1,797,428,0,0
-420,596,0,0,0,0,0,0,0,0,0,-1,804,428,0,0
-413,596,0,0,0,0,0,0,0,0,0,-1,811,428,0,0
-406,596,0,0,0,0,0,0,0,0,0,-1,818,428,0,0
-399,596,0,0,0,0,0,0,0,0,0,-1,825,428,0,0
-392,596,0,0,0,0,0,0,0,0,0,-1,832,428,0,0
-385,596,0,0,0,0,0,0,0,0,0,-1,839,428,0,0
-378,596,0,0,0,0,0,0,0,0,0,-1,846,428,0,0
-371,596,0,0,0,0,0,0,0,0,0,-1,853,428,0,0
-364,596,0,0,0,0,0,0,0,0,0,-1,860,428,0,0
-357,596,0,0,0,0,0,0,0,0,0,-1,867,428,0,0
-350,596,0,0,0,0,0,0,0,0,0,-1,874,428,0,0
-343,596,0,0,0,0,0,0,0,0,0,-1,881,428,0,0
-336,596,1.89813,-9.66019,0,0,0,0,0,0,0,-1,888,428,1.89813,9.6602
-329,596,1.54865,-9.16202,0,0,0,0,0,0,0,-1,895,428,1.54866,9.16203
-322,596,2.35809,-9.06784,0,0,0,0,0,0,0,-1,902,428,2.35812,9.06783
-315,596,1.62445,-8.37375,0,0,0,0,0,0,0,-1,909,428,1.62445,8.37376
-308,596,2.77289,-6.63049,0,0,0,0,0,0,0,-1,916,428,2.77286,6.6305
-301,596,1.5498,-6.82498,0,0,0,0,0,0,0,-1,923,428,1.54978,6.82498
-294,596,1.75946,-6.73059,0,0,0,0,0,0,0,-1,930,428,1.75948,6.73059
-287,596,1.24713,-8.06445,0,0,0,0,0,0,0,-1,937,428,1.24711,8.06446
-280,596,1.8783,-8.41135,0,0,0,0,0,0,0,-1,944,428,1.87832,8.41136
-273,596,1.76343,-8.61346,-0.0190275,-0.0138369,-0.0095553,-0.00653068,-0.0263336,-0.918003,0.0158343,0.0468499,951,428,1.76343,8.61347
-266,596,1.8833,-8.81033,-0.017868,-0.0113163,-0.00845727,-0.00552263,-0.0236617,-0.970172,0.0142938,0.0425024,958,428,1.88328,8.81034
-259,596,1.8634,-9.04172,-0.0165073,-0.00938117,-0.00810541,-0.00409026,-0.0217983,-0.992482,0.0133788,0.0344321,965,428,1.86339,9.04172
-252,596,1.88141,-9.23453,-0.014908,-0.00796948,-0.00736622,-0.00329646,-0.0195811,-1.00548,0.0121058,0.0187159,972,428,1.8814,9.23453
-245,596,1.85175,-9.3775,-0.0129128,-0.00639527,-0.00659641,-0.00229657,-0.0170115,-1.01482,0.0106583,0.0133518,979,428,1.85173,9.3775
-238,596,1.84491,-9.53815,-0.010575,-0.00489794,-0.00584233,-0.00124108,-0.0142319,-1.01153,0.00910246,0.0107697,986,428,1.84493,9.53814
-231,596,1.81635,-9.6907,-0.00850989,-0.00362432,-0.004902,-0.000590175,-0.011544,-1.01655,0.00750703,0.0119068,993,428,1.81634,9.6907
-224,596,1.80725,-9.85144,-0.00634836,-0.00246713,-0.00412556,0.000151444,-0.00896693,-1.00524,0.00602907,0.0124999,1000,428,1.80725,9.85145
-217,596,1.81903,-10.0036,-0.00453192,-0.00159627,-0.00327883,0.00052829,-0.00665648,-0.995855,0.00462382,0.0132508,1007,428,1.81901,10.0036
-210,596,1.81848,-10.1558,-0.00304011,-0.000859922,-0.00262915,0.000896159,-0.00479619,-0.981921,0.00353426,0.0113081,1014,428,1.81851,10.1558
-203,596,1.80676,-10.2721,-0.00140226,6.14003e-05,-0.00212398,0.00157609,-0.00291695,-0.951307,0.00263228,0.0138828,1021,428,1.80677,10.2721
-196,596,1.8136,-10.4357,0.000301444,0.000699989,-0.00172356,0.00223575,-0.00123432,-0.842951,0.00203107,0.0141716,1028,428,1.81359,10.4357
-189,596,1.79736,-10.5914,0.000834974,0.000878459,-0.00114745,0.00200437,-0.000290938,-0.794871,0.00144304,0.0114803,1035,428,1.79742,10.5914
-182,596,1.78857,-10.6958,0.000134753,0.000710961,-0.000862014,0.00133174,-0.000486028,-0.946673,0.00108669,0.0109375,1042,428,1.78856,10.6958
-175,596,1.7948,-10.8046,0.000181895,0.000560042,-0.00104863,0.00143651,-0.000694568,-0.874593,0.00125499,0.012823,1049,428,1.79486,10.8046
-168,596,1.7948,-10.936,0.000230848,0.000337813,-0.0012309,0.00151639,-0.000947731,-0.807109,0.00143523,0.0150122,1056,428,1.79483,10.936
-161,596,1.79126,-11.0732,0.000240391,8.61858e-05,-0.00139575,0.00156117,-0.00123459,-0.757806,0.0016178,0.0137493,1063,428,1.79123,11.0732
-154,596,1.78625,-11.2263,0.000316099,-0.000154026,-0.00147421,0.00157387,-0.00141179,-0.706339,0.00172462,0.012435,1070,428,1.78625,11.2263
-147,596,1.81433,-11.3272,0.000363325,-0.000327806,-0.00149798,0.00155508,-0.00151956,-0.672037,0.00177519,0.0132012,1077,428,1.8143,11.3272
-140,596,1.82422,-11.4167,0.000352571,-0.00071639,-0.00133605,0.00125708,-0.0016209,-0.595125,0.00166602,0.0133994,1084,428,1.82419,11.4166
-133,596,1.82458,-11.5359,0.00041322,-0.00103231,-0.00124398,0.00112916,-0.00174825,-0.522229,0.00167405,0.0139389,1091,428,1.82463,11.5359
-126,596,1.81274,-11.6089,0.000474008,-0.00131829,-0.00106921,0.000972954,-0.00181724,-0.436613,0.00163531,0.010429,1098,428,1.81275,11.6089
-119,596,1.8241,-11.6899,0.000558941,-0.00157454,-0.000845439,0.00085334,-0.00186894,-0.335089,0.00160776,0.0127678,1105,428,1.82411,11.69
-112,596,1.83862,-11.7974,0.000678361,-0.00182581,-0.000534212,0.000787562,-0.00193501,-0.201637,0.00161775,0.0152292,1112,428,1.83861,11.7974
-105,596,1.85095,-11.9102,0.00089271,-0.00199345,-0.000242573,0.000912955,-0.0020137,-0.0832685,0.00172908,0.0154934,1119,428,1.851,11.9103
-98,596,1.84583,-11.9601,0.00116991,-0.00210442,-5.29015e-05,0.00117076,-0.00210528,-0.0161508,0.0019169,0.00996769,1126,428,1.84584,11.9601
-91,596,1.87573,-12.046,0.00145483,-0.0020773,1.36723e-05,0.00145488,-0.00207735,0.00387075,0.00204987,0.0102601,1133,428,1.87574,12.046
-84,596,1.92249,-12.1983,0.00176567,-0.00194524,0.000252631,0.00178278,-0.00196236,0.0676618,0.00216309,0.0153022,1140,428,1.9225,12.1983
-77,596,1.94641,-12.3292,0.00225129,-0.00170313,0.000308709,0.00227525,-0.00172708,0.0774417,0.00231796,0.0334653,1147,428,1.94638,12.3292
-70,596,2.03601,-12.5731,0,0,0,0,0,0,0,-1,1154,428,2.03605,12.5731
-63,596,1.95569,-12.2758,0,0,0,0,0,0,0,-1,1161,428,1.95563,12.2759
-56,596,1.60107,-10.5827,0,0,0,0,0,0,0,-1,1168,428,1.60108,10.5827
-49,596,1.59473,-10.0393,0,0,0,0,0,0,0,-1,1175,428,1.59472,10.0393
-42,596,1.99585,-6.6246,0,0,0,0,0,0,0,-1,1182,428,1.99586,6.62459
-35,596,1.67041,-12.4136,0,0,0,0,0,0,0,-1,1189,428,1.6704,12.4136
-28,596,1.82703,-12.5268,0,0,0,0,0,0,0,-1,1196,428,1.82699,12.5268
-21,596,1.69885,-12.417,0.0106622,-0.00615246,-0.000999052,0.0107214,-0.00621161,-0.0591381,0.00989117,0.0487976,1203,428,1.69891,12.417
-14,596,1.86304,-12.5002,0.011277,-0.00710098,-0.00193449,0.0114784,-0.0073024,-0.103747,0.0109321,0.0453815,1210,428,1.86306,12.5002
-7,596,2.13452,-12.6022,0.0112374,-0.00730512,-0.00309663,0.0117409,-0.00780859,-0.161177,0.0113627,0.045698,1217,428,2.13454,12.6022
0,596,2.23804,-12.5716,0.0106077,-0.00742163,-0.0041261,0.0115071,-0.00832104,-0.214623,0.0114969,0.0466659,1224,428,2.23799,12.5716
7,596,2.33728,-12.6049,0.00986061,-0.00853017,-0.00457654,0.0109365,-0.00960609,-0.230903,0.0118686,0.0432731,1231,428,2.33726,12.6049
14,596,2.30383,-12.6995,0.00844522,-0.00950163,-0.00463843,0.00957315,-0.0106296,-0.238541,0.0116694,0.0417437,1238,428,2.30385,12.6995
21,596,2.34753,-12.8014,0.00700885,-0.0111017,-0.00421572,0.00794208,-0.0120349,-0.217857,0.0116141,0.0408648,1245,428,2.34759,12.8014
28,596,2.5575,-12.8057,0.00533545,-0.0128838,-0.00348116,0.00597794,-0.0135263,-0.182508,0.0115384,0.0411174,1252,428,2.55746,12.8057
35,596,2.50281,-12.8022,0.00352093,-0.0145293,-0.00235473,0.00382306,-0.0148314,-0.12761,0.0113781,0.0443316,1259,428,2.50287,12.8023
42,596,2.32947,-12.768,0.00207808,-0.0164953,-0.000811512,0.00211347,-0.0165307,-0.0435815,0.0117883,0.0432816,1266,428,2.32944,12.768
49,596,2.3551,-12.799,0.0013101,-0.0182872,0.000766885,0.00134006,-0.0183171,0.0390526,0.0126817,0.039595,1273,428,2.3551,12.799
56,596,2.29089,-12.894,0.000807629,-0.0194445,0.00244601,0.00109886,-0.0197358,0.118507,0.0135383,0.0407552,1280,428,2.29087,12.894
63,596,2.23218,-12.9125,0.00144293,-0.0199896,0.00370845,0.00206646,-0.0206132,0.166579,0.0144802,0.0463468,1287,428,2.23217,12.9125
70,596,2.09387,-12.566,0.0024869,-0.0200702,0.00488431,0.00349909,-0.0210824,0.20434,0.0153547,0.0457969,1294,428,2.09392,12.566
77,596,2.13928,-12.0935,0.00414072,-0.0191338,0.00579977,0.00550589,-0.0204989,0.231175,0.0158238,0.0433252,1301,428,2.13924,12.0935
84,596,2.29639,-11.5742,0.00584321,-0.0170429,0.00609117,0.00736341,-0.0185631,0.244577,0.0154272,0.0438828,1308,428,2.29637,11.5742
91,596,2.17871,-11.5818,0.00756542,-0.0141056,0.00618234,0.00920507,-0.0157452,0.259247,0.0145691,0.0422289,1315,428,2.17876,11.5818
98,596,1.92932,-11.4719,0.00944523,-0.0109987,0.00620418,0.0111807,-0.0127342,0.272756,0.013817,0.0475618,1322,428,1.92931,11.4719
105,596,2.18408,-9.13602,0,0,0,0,0,0,0,-1,1329,428,2.18404,9.136
112,596,2.77686,-12.4723,0.0118221,-0.00399926,0.00572405,0.0136758,-0.00585299,0.313191,0.0115725,0.0411779,1336,428,2.77687,12.4723
119,596,2.75464,-12.5609,0.0125473,-0.000742788,0.00538161,0.0144532,-0.00264867,0.340364,0.0106289,0.0440791,1343,428,2.75465,12.5608
126,596,2.77783,-12.463,0.0123319,0.00241363,0.00511188,0.0144948,0.000250661,0.400283,0.00958076,0.046126,1350,428,2.77778,12.463
133,596,2.83057,-12.4057,0.0115839,0.00428407,0.00519589,0.0142837,0.00158425,0.47921,0.00904079,0.0437508,1357,428,2.83052,12.4057
140,596,2.8064,-12.3624,0.0106616,0.00502876,0.00529428,0.013842,0.00184838,0.540949,0.00867772,0.0427579,1364,428,2.80643,12.3624
147,596,2.61487,-12.2561,0.009376,0.00546512,0.00536794,0.0131336,0.00170755,0.610728,0.00824568,0.0404704,1371,428,2.61482,12.2561
154,596,2.57385,-12.1147,0.00774641,0.00482213,0.00546636,0.0119428,0.000625738,0.654718,0.0077617,0.0446973,1378,428,2.5739,12.1147
161,596,2.57092,-12.0124,0.0068179,0.00409157,0.00515572,0.0107876,0.000121852,0.656156,0.00715147,0.0479393,1385,428,2.57094,12.0124
168,596,2.82788,-12.0324,0,0,0,0,0,0,0,-1,1392,428,2.82786,12.0324
175,596,2.97388,-11.8997,0,0,0,0,0,0,0,-1,1399,428,2.97394,11.8997
182,596,2.95679,-11.9523,0,0,0,0,0,0,0,-1,1406,428,2.95677,11.9523
189,596,2.92346,-11.857,0,0,0,0,0,0,0,-1,1413,428,2.92352,11.857
196,596,2.8916,-11.5966,0,0,0,0,0,0,0,-1,1420,428,2.89156,11.5966
203,596,2.81226,-11.6685,0,0,0,0,0,0,0,-1,1427,428,2.81229,11.6685
210,596,2.82715,-11.6924,-0.00114692,-0.000398259,-0.00224311,0.00150154,-0.00304672,-0.868077,0.00267597,0.0339588,1434,428,2.82712,11.6924
217,596,2.82166,-11.5357,-0.00135168,0.000711577,-0.00204737,0.00197255,-0.00261265,-1.01877,0.00265585,0.012457,1441,428,2.82161,11.5357
224,596,2.81982,-11.4277,-0.00126961,0.00143058,-0.00156446,0.00214696,-0.00198598,-1.14139,0.00238676,0.0117203,1448,428,2.81984,11.4277
231,596,2.8418,-11.3141,-0.00103088,0.00194524,-0.00110172,0.0023087,-0.00139434,-1.25214,0.00215956,0.0118146,1455,428,2.84178,11.3141
238,596,2.86353,-11.1912,-0.000675453,0.00228826,-0.000782765,0.0024823,-0.00086949,-1.32781,0.00200844,0.0142346,1462,428,2.86348,11.1912
245,596,2.89075,-11.0843,-0.000304992,0.00261049,-0.00050504,0.0026955,-0.00039,-1.40404,0.00194011,0.0131562,1469,428,2.89075,11.0843
252,596,2.90576,-10.9665,-1.6116e-05,0.00276249,-0.00028158,0.00279074,-4.43638e-05,-1.47081,0.00187546,0.00987639,1476,428,2.9058,10.9665
259,596,2.89648,-10.8496,0.000174688,0.0027222,-0.000107464,0.00272673,0.000170163,-1.52871,0.00176384,0.00866383,1483,428,2.89648,10.8496
266,596,2.87598,-10.7217,0.000321854,0.00258774,-1.75349e-05,0.00258787,0.000321718,-1.56306,0.00162863,0.010265,1490,428,2.87603,10.7217
273,596,2.89355,-10.5734,0.000424469,0.00241262,6.42975e-05,0.0024147,0.000422392,1.5385,0.00148911,0.0120569,1497,428,2.89361,10.5734
280,596,2.9115,-10.4396,0.000600708,0.00224348,0.000206669,0.00226908,0.000575107,1.44755,0.00136211,0.0120807,1504,428,2.91146,10.4396
287,596,2.92798,-10.2948,0.000656789,0.00206313,0.000214183,0.00209503,0.000624893,1.42296,0.00124195,0.010258,1511,428,2.92793,10.2948
294,596,2.90845,-10.1548,0.000630752,0.00186688,0.000219384,0.00190466,0.000592971,1.40026,0.00112545,0.00822931,1518,428,2.9084,10.1548
301,596,2.90686,-10.0133,0.00061004,0.00163304,0.000262219,0.00169633,0.000546744,1.33394,0.000999782,0.00926881,1525,428,2.90688,10.0133
308,596,2.91541,-9.85776,0.000689716,0.00155313,0.000395742,0.00170707,0.000535775,1.19982,0.00100809,0.0147425,1532,428,2.91543,9.85774
315,596,2.91919,-9.69629,0.000804146,0.00149007,0.000543296,0.0017896,0.000504618,1.06694,0.00106546,0.015917,1539,428,2.91916,9.6963
322,596,2.92249,-9.52609,0.000862127,0.00149398,0.00074058,0.0019832,0.000372902,0.987007,0.00121703,0.0137319,1546,428,2.92248,9.5261
329,596,2.91223,-9.36545,0.000706635,0.00154845,0.00100864,0.00222048,3.46038e-05,0.983064,0.00146892,0.0102788,1553,428,2.91227,9.36544
336,596,2.8905,-9.22214,0.000117196,0.00179825,0.00107846,0.00232504,-0.000409599,1.11642,0.00170306,0.00898279,1560,428,2.89055,9.22214
343,596,2.90076,-9.05072,-0.00045561,0.0020741,0.00110754,0.00249047,-0.000871978,1.2112,0.00201488,0.0110021,1567,428,2.90072,9.05073
350,596,2.90588,-8.87137,-0.00108281,0.00254326,0.00123728,0.00292521,-0.00146477,1.27138,0.00258088,0.0112662,1574,428,2.90586,8.87137
357,596,2.89392,-8.69992,-0.0020384,0.00300159,0.00128176,0.00330884,-0.00234564,1.33553,0.00328036,0.00954104,1581,428,2.89389,8.69991
364,596,2.88269,-8.51929,-0.00334143,0.00351401,0.00128734,0.00374778,-0.0035752,1.39116,0.00422832,0.0089199,1588,428,2.88271,8.51927
371,596,2.87085,-8.31729,-0.00479953,0.0042412,0.00108384,0.00436932,-0.00492765,1.45313,0.00537083,0.00912104,1595,428,2.87081,8.31729
378,596,2.8606,-8.12692,-0.0062553,0.00493175,0.000717133,0.00497754,-0.00630108,1.50704,0.00652664,0.0135799,1602,428,2.86062,8.12692
385,596,2.81934,-7.8573,-0.00780717,0.00547254,1.9802e-06,0.00547255,-0.00780718,1.57065,0.00770644,0.0252293,1609,428,2.81936,7.8573
392,596,2.67004,-7.62686,-0.00885563,0.00575638,-0.000667963,0.00578685,-0.0088861,-1.52521,0.00853419,0.0368586,1616,428,2.67006,7.62686
399,596,2.56201,-7.43121,0,0,0,0,0,0,0,-1,1623,428,2.562,7.43122
406,596,2.42261,-6.35526,0,0,0,0,0,0,0,-1,1630,428,2.42257,6.35526
413,596,3.39124,-2.63528,0,0,0,0,0,0,0,-1,1637,428,3.39122,2.6353
420,596,2.6344,-3.06308,0,0,0,0,0,0,0,-1,1644,428,2.63439,3.06308
427,596,2.99329,-1.90512,0,0,0,0,0,0,0,-1,1651,428,2.99327,1.90512
434,596,3.80896,-0.253998,0,0,0,0,0,0,0,-1,1658,428,3.80902,0.254004
441,596,3.86401,-0.131622,0,0,0,0,0,0,0,-1,1665,428,3.86406,0.131613
448,596,1.0769,0.0083313,0,0,0,0,0,0,0,-1,1672,428,1.07684,-0.00832231
455,596,2.00769,-1.43329,0,0,0,0,0,0,0,-1,1679,428,2.00765,1.4333
462,596,0,0,0,0,0,0,0,0,0,-1,1686,428,0,0
469,596,0,0,0,0,0,0,0,0,0,-1,1693,428,0,0
476,596,0,0,0,0,0,0,0,0,0,-1,1700,428,0,0
483,596,0,0,0,0,0,0,0,0,0,-1,1707,428,0,0
490,596,0,0,0,0,0,0,0,0,0,-1,1714,428,0,0
497,596,0,0,0,0,0,0,0,0,0,-1,1721,428,0,0
504,596,0,0,0,0,0,0,0,0,0,-1,1728,428,0,0
511,596,0,0,0,0,0,0,0,0,0,-1,1735,428,0,0
518,596,0,0,0,0,0,0,0,0,0,-1,1742,428,0,0
525,596,0,0,0,0,0,0,0,0,0,-1,1749,428,0,0
532,596,0,0,0,0,0,0,0,0,0,-1,1756,428,0,0
539,596,0,0,0,0,0,0,0,0,0,-1,1763,428,0,0
546,596,0,0,0,0,0,0,0,0,0,-1,1770,428,0,0
553,596,0,0,0,0,0,0,0,0,0,-1,1777,428,0,0
560,596,0,0,0,0,0,0,0,0,0,-1,1784,428,0,0
567,596,0,0,0,0,0,0,0,0,0,-1,1791,428,0,0
574,596,0,0,0,0,0,0,0,0,0,-1,1798,428,0,0
581,596,0,0,0,0,0,0,0,0,0,-1,1805,428,0,0
588,596,0,0,0,0,0,0,0,0,0,-1,1812,428,0,0
595,596,0,0,0,0,0,0,0,0,0,-1,1819,428,0,0
602,596,0,0,0,0,0,0,0,0,0,-1,1826,428,0,0
609,596,0,0,0,0,0,0,0,0,0,-1,1833,428,0,0
616,596,0,0,0,0,0,0,0,0,0,-1,1840,428,0,0
623,596,0,0,0,0,0,0,0,0,0,-1,1847,428,0,0
630,596,0,0,0,0,0,0,0,0,0,-1,1854,428,0,0
637,596,0,0,0,0,0,0,0,0,0,-1,1861,428,0,0
644,596,0,0,0,0,0,0,0,0,0,-1,1868,428,0,0
651,596,0,0,0,0,0,0,0,0,0,-1,1875,428,0,0
658,596,0,0,0,0,0,0,0,0,0,-1,1882,428,0,0
665,596,0,0,0,0,0,0,0,0,0,-1,1889,428,0,0
672,596,0,0,0,0,0,0,0,0,0,-1,1896,428,0,0
679,596,0,0,0,0,0,0,0,0,0,-1,1903,428,0,0
686,596,0,0,0,0,0,0,0,0,0,-1,1910,428,0,0
693,596,0,0,0,0,0,0,0,0,0,-1,1917,428,0,0
700,596,0,0,0,0,0,0,0,0,0,-1,1924,428,0,0
707,596,0,0,0,0,0,0,0,0,0,-1,1931,428,0,0
714,596,0,0,0,0,0,0,0,0,0,-1,1938,428,0,0
721,596,0,0,0,0,0,0,0,0,0,-1,1945,428,0,0
728,596,0,0,0,0,0,0,0,0,0,-1,1952,428,0,0
735,596,0,0,0,0,0,0,0,0,0,-1,1959,428,0,0
742,596,0,0,0,0,0,0,0,0,0,-1,1966,428,0,0
749,596,0,0,0,0,0,0,0,0,0,-1,1973,428,0,0
756,596,0,0,0,0,0,0,0,0,0,-1,1980,428,0,0
763,596,0,0,0,0,0,0,0,0,0,-1,1987,428,0,0
770,596,0,0,0,0,0,0,0,0,0,-1,1994,428,0,0
777,596,0,0,0,0,0,0,0,0,0,-1,2001,428,0,0
784,596,0,0,0,0,0,0,0,0,0,-1,2008,428,0,0
791,596,0,0,0,0,0,0,0,0,0,-1,2015,428,0,0
798,596,0,0,0,0,0,0,0,0,0,-1,2022,428,0,0
805,596,0,0,0,0,0,0,0,0,0,-1,2029,428,0,0
812,596,0,0,0,0,0,0,0,0,0,-1,2036,428,0,0
-700,589,0,0,0,0,0,0,0,0,0,-1,524,435,0,0
-693,589,0,0,0,0,0,0,0,0,0,-1,531,435,0,0
-686,589,0,0,0,0,0,0,0,0,0,-1,538,435,0,0
-679,589,0,0,0,0,0,0,0,0,0,-1,545,435,0,0
-672,589,0,0,0,0,0,0,0,0,0,-1,552,435,0,0
-665,589,0,0,0,0,0,0,0,0,0,-1,559,435,0,0
-658,589,0,0,0,0,0,0,0,0,0,-1,566,435,0,0
-651,589,0,0,0,0,0,0,0,0,0,-1,573,435,0,0
-644,589,0,0,0,0,0,0,0,0,0,-1,580,435,0,0
-637,589,0,0,0,0,0,0,0,0,0,-1,587,435,0,0
-630,589,0,0,0,0,0,0,0,0,0,-1,594,435,0,0
-623,589,0,0,0,0,0,0,0,0,0,-1,601,435,0,0
-616,589,0,0,0,0,0,0,0,0,0,-1,608,435,0,0
-609,589,0,0,0,0,0,0,0,0,0,-1,615,435,0,0
-602,589,0,0,0,0,0,0,0,0,0,-1,622,435,0,0
-595,589,0,0,0,0,0,0,0,0,0,-1,629,435,0,0
-588,589,0,0,0,0,0,0,0,0,0,-1,636,435,0,0
-581,589,0,0,0,0,0,0,0,0,0,-1,643,435,0,0
-574,589,0,0,0,0,0,0,0,0,0,-1,650,435,0,0
-567,589,0,0,0,0,0,0,0,0,0,-1,657,435,0,0
-560,589,0,0,0,0,0,0,0,0,0,-1,664,435,0,0
-553,589,0,0,0,0,0,0,0,0,0,-1,671,435,0,0
-546,589,0,0,0,0,0,0,0,0,0,-1,678,435,0,0
-539,589,0,0,0,0,0,0,0,0,0,-1,685,435,0,0
-532,589,0,0,0,0,0,0,0,0,0,-1,692,435,0,0
-525,589,0,0,0,0,0,0,0,0,0,-1,699,435,0,0
-518,589,0,0,0,0,0,0,0,0,0,-1,706,435,0,0
-511,589,0,0,0,0,0,0,0,0,0,-1,713,435,0,0
-504,589,0,0,0,0,0,0,0,0,0,-1,720,435,0,0
-497,589,0,0,0,0,0,0,0,0,0,-1,727,435,0,0
-490,589,0,0,0,0,0,0,0,0,0,-1,734,435,0,0
-483,589,0,0,0,0,0,0,0,0,0,-1,741,435,0,0
-476,589,0,0,0,0,0,0,0,0,0,-1,748,435,0,0
-469,589,0,0,0,0,0,0,0,0,0,-1,755,435,0,0
-462,589,0,0,0,0,0,0,0,0,0,-1,762,435,0,0
-455,589,0,0,0,0,0,0,0,0,0,-1,769,435,0,0
-448,589,0,0,0,0,0,0,0,0,0,-1,776,435,0,0
-441,589,0,0,0,0,0,0,0,0,0,-1,783,435,0,0
-434,589,0,0,0,0,0,0,0,0,0,-1,790,435,0,0
-427,589,0,0,0,0,0,0,0,0,0,-1,797,435,0,0
-420,589,0,0,0,0,0,0,0,0,0,-1,804,435,0,0
-413,589,0,0,0,0,0,0,0,0,0,-1,811,435,0,0
-406,589,0,0,0,0,0,0,0,0,0,-1,818,435,0,0
-399,589,0,0,0,0,0,0,0,0,0,-1,825,435,0,0
-392,589,0,0,0,0,0,0,0,0,0,-1,832,435,0,0
-385,589,0,0,0,0,0,0,0,0,0,-1,839,435,0,0
-378,589,0,0,0,0,0,0,0,0,0,-1,846,435,0,0
-371,589,0,0,0,0,0,0,0,0,0,-1,853,435,0,0
-364,589,0,0,0,0,0,0,0,0,0,-1,860,435,0,0
-357,589,0,0,0,0,0,0,0,0,0,-1,867,435,0,0
-350,589,-0.262695,-13.5742,0,0,0,0,0,0,0,-1,874,435,-0.262715,13.5742
-343,589,0.187195,-13.2853,0,0,0,0,0,0,0,-1,881,435,0.187181,13.2853
-336,589,0.677856,-12.7685,0,0,0,0,0,0,0,-1,888,435,0.677838,12.7685
-329,589,0.0882568,-9.79782,0,0,0,0,0,0,0,-1,895,435,0.0882795,9.79781
-322,589,-0.481873,-9.3327,0,0,0,0,0,0,0,-1,902,435,-0.481902,9.33269
-315,589,2.05621,-8.34326,0,0,0,0,0,0,0,-1,909,435,2.0562,8.34326
-308,589,1.14636,-8.24533,0,0,0,0,0,0,0,-1,916,435,1.14637,8.24534
-301,589,1.24097,-8.59686,0,0,0,0,0,0,0,-1,923,435,1.24099,8.59687
-294,589,1.26727,-8.52338,0,0,0,0,0,0,0,-1,930,435,1.26729,8.52337
-287,589,1.10449,-8.2677,-0.0140686,-0.0137191,-0.00834629,-0.00554571,-0.0222419,-0.795864,0.0133685,0.0418578,937,435,1.10452,8.26769
-280,589,1.72046,-8.43301,-0.0128875,-0.0115755,-0.00786919,-0.004335,-0.020128,-0.826983,0.0122324,0.0333308,944,435,1.72049,8.43303
-273,589,1.75433,-8.7142,-0.0115579,-0.00986255,-0.00749589,-0.00316656,-0.0182539,-0.841702,0.0112631,0.0206431,951,435,1.75436,8.7142
-266,589,1.74457,-8.88333,-0.0109518,-0.00790968,-0.00651591,-0.00273966,-0.0161218,-0.900064,0.00996106,0.0177448,958,435,1.74457,8.88332
-259,589,1.71216,-9.03455,-0.0102594,-0.00640931,-0.00618587,-0.00185589,-0.0148129,-0.93625,0.00931843,0.015549,965,435,1.71218,9.03455
-252,589,1.69659,-9.22189,-0.00945233,-0.00540147,-0.00552635,-0.00154107,-0.0133127,-0.961049,0.00840866,0.0107887,972,435,1.69659,9.2219
-245,589,1.70142,-9.39175,-0.00836229,-0.00427709,-0.00484257,-0.00106396,-0.0115754,-0.984977,0.00738787,0.0103448,979,435,1.70141,9.39176
-238,589,1.69733,-9.56909,-0.00695664,-0.00325667,-0.00419971,-0.000517536,-0.00969577,-0.992863,0.00629843,0.0135376,986,435,1.69731,9.56909
-231,589,1.68195,-9.6962,-0.00573276,-0.00244007,-0.00341568,-0.000294671,-0.00787816,-1.00997,0.00515669,0.013849,993,435,1.68193,9.69619
-224,589,1.65759,-9.85175,-0.00430938,-0.0016921,-0.00280003,9.00046e-05,-0.00609149,-1.004,0.00409132,0.0131468,1000,435,1.65761,9.85176
-217,589,1.67169,-10.0149,-0.00297203,-0.00106675,-0.00221181,0.000388851,-0.00442763,-0.988746,0.00308954,0.0144687,1007,435,1.6717,10.0148
-210,589,1.67938,-10.1505,-0.00185062,-0.000545066,-0.00181364,0.000729694,-0.00312538,-0.958144,0.00236465,0.0141849,1014,435,1.67941,10.1505
-203,589,1.67358,-10.2706,-0.000651195,0.000164871,-0.00155426,0.00136377,-0.00185009,-0.913764,0.00186259,0.0106386,1021,435,1.6736,10.2706
-196,589,1.65662,-10.4268,0.00053749,0.00069325,-0.00138633,0.00200388,-0.000773143,-0.813457,0.00165497,0.0130175,1028,435,1.65659,10.4268
-189,589,1.63477,-10.5908,0.000974917,0.000873357,-0.00122171,0.0021469,-0.00029863,-0.764628,0.00154049,0.0164657,1035,435,1.63473,10.5908
-182,589,1.65515,-10.6824,0.000604943,0.00082769,-0.00122222,0.0019436,-0.000510971,-0.830835,0.00149545,0.0123548,1042,435,1.65515,10.6824
-175,589,1.6781,-10.7813,0.000693949,0.000775936,-0.00152778,0.00226327,-0.000793386,-0.798811,0.00183152,0.0152018,1049,435,1.67813,10.7813
-168,589,1.68689,-10.9319,0.00073637,0.000609951,-0.00182635,0.0025006,-0.00115428,-0.7681,0.00215734,0.0126608,1056,435,1.68685,10.9319
-161,589,1.6853,-11.0552,0.000695658,0.00031925,-0.00208934,0.00260525,-0.00159034,-0.74048,0.00244584,0.0116439,1063,435,1.68536,11.0552
-154,589,1.6814,-11.183,0.000720725,6.58503e-06,-0.00223137,0.00262341,-0.0018961,-0.706059,0.00262058,0.0120156,1070,435,1.68138,11.183
-147,589,1.69666,-11.2974,0.000755688,-0.000217995,-0.00229523,0.00261514,-0.00207745,-0.680892,0.00271519,0.0125033,1077,435,1.69664,11.2974
-140,589,1.71545,-11.4063,0.000683368,-0.000764905,-0.0020798,0.00216149,-0.00224303,-0.617873,0.00254309,0.0135047,1084,435,1.71551,11.4063
-133,589,1.72717,-11.5202,0.000604111,-0.00127816,-0.00189767,0.0017812,-0.00245525,-0.5552,0.00245622,0.0137574,1091,435,1.7272,11.5202
-126,589,1.7262,-11.6079,0.000555453,-0.00181857,-0.00156749,0.00133466,-0.00259778,-0.46133,0.00230911,0.0105593,1098,435,1.72626,11.6079
-119,589,1.71887,-11.7012,0.000546633,-0.00236655,-0.00118291,0.000966456,-0.00278637,-0.34104,0.00225002,0.0162535,1105,435,1.71883,11.7012
-112,589,1.72034,-11.809,0.000602988,-0.00289463,-0.000662926,0.00072442,-0.00301607,-0.181168,0.00229069,0.0179545,1112,435,1.72037,11.809
-105,589,1.73328,-11.9096,0.000817263,-0.00327933,-0.000151072,0.000822827,-0.00328489,-0.0368108,0.00250958,0.0179351,1119,435,1.73333,11.9096
-98,589,1.77161,-11.9804,0.00110302,-0.00356255,0.000235836,0.00111491,-0.00357444,0.0503771,0.00282881,0.0189442,1126,435,1.77155,11.9804
-91,589,1.85229,-12.071,0.00141012,-0.00356766,0.000415821,0.00144462,-0.00360216,0.0827708,0.0030012,0.0241295,1133,435,1.85224,12.071
-84,589,1.92444,-12.2238,0.00182019,-0.0034112,0.000841711,0.00195228,-0.00354329,0.155664,0.00321689,0.0338948,1140,435,1.92443,12.2238
-77,589,1.99438,-12.4575,0,0,0,0,0,0,0,-1,1147,435,1.99442,12.4575
-70,589,1.48267,-9.90961,0,0,0,0,0,0,0,-1,1154,435,1.48264,9.9096
-63,589,0.880127,-5.50586,0,0,0,0,0,0,0,-1,1161,435,0.880186,5.50587
-56,589,-2.78052,-7.28082,0,0,0,0,0,0,0,-1,1168,435,-2.78053,7.28082
-49,589,-0.525757,-2.76703,0,0,0,0,0,0,0,-1,1175,435,-0.525771,2.76702
-42,589,-2.7738,-2.87921,0,0,0,0,0,0,0,-1,1182,435,-2.77383,2.87922
-35,589,-2.55225,-3.27551,0,0,0,0,0,0,0,-1,1189,435,-2.55223,3.27552
-28,589,-0.0632324,-3.42938,0,0,0,0,0,0,0,-1,1196,435,-0.063241,3.42938
-21,589,1.38696,-12.2057,0,0,0,0,0,0,0,-1,1203,435,1.3869,12.2057
-14,589,1.65918,-12.3174,0,0,0,0,0,0,0,-1,1210,435,1.65922,12.3174
-7,589,2.12451,-12.524,0,0,0,0,0,0,0,-1,1217,435,2.12447,12.524
0,589,2.36816,-12.3375,0.0137742,-0.00875331,-0.0046572,0.0146991,-0.00967815,-0.196031,0.0141734,0.0490771,1224,435,2.36812,12.3375
7,589,2.49268,-12.4803,0.0128755,-0.0105668,-0.00507221,0.0139259,-0.0116172,-0.204204,0.0147674,0.0457052,1231,435,2.49268,12.4803
14,589,2.33569,-12.7336,0,0,0,0,0,0,0,-1,1238,435,2.33568,12.7336
21,589,2.39697,-12.8813,0,0,0,0,0,0,0,-1,1245,435,2.39692,12.8813
28,589,2.81226,-12.8884,0,0,0,0,0,0,0,-1,1252,435,2.81231,12.8884
35,589,2.86389,-12.8886,0,0,0,0,0,0,0,-1,1259,435,2.86391,12.8886
42,589,2.33618,-12.4679,0.0032614,-0.0225252,0.000190684,0.00326281,-0.0225266,0.00739415,0.0162152,0.0475032,1266,435,2.33615,12.4679
49,589,2.32324,-12.7295,0.00231718,-0.0247016,0.00222331,0.00249891,-0.0248833,0.0815567,0.0174815,0.0444189,1273,435,2.32327,12.7295
56,589,2.31165,-12.9633,0.00161984,-0.0260465,0.00431842,0.00227823,-0.0267049,0.151296,0.0186092,0.0439104,1280,435,2.31169,12.9634
63,589,2.25354,-13.0051,0.00230487,-0.0265364,0.00596414,0.00348954,-0.027721,0.196081,0.0197469,0.0453365,1287,435,2.25349,13.0051
70,589,2.37488,-12.3559,0.00357386,-0.0261856,0.00748677,0.0053512,-0.0279629,0.233083,0.020658,0.0446483,1294,435,2.37483,12.3559
77,589,2.20129,-11.7571,0.00565569,-0.0244463,0.00868467,0.00798157,-0.0267722,0.261674,0.02102,0.0422856,1301,435,2.20126,11.7571
84,589,2.55103,-11.2492,0.00789267,-0.0212381,0.00910699,0.0105054,-0.0238509,0.279389,0.0203283,0.0407771,1308,435,2.55098,11.2492
91,589,2.49683,-10.862,0.0101722,-0.0170281,0.00925733,0.0130238,-0.0198798,0.29882,0.0191339,0.0419581,1315,435,2.49687,10.862
98,589,2.61865,-10.1576,0.0125852,-0.0126363,0.00932062,0.0156558,-0.0157069,0.318245,0.0181073,0.044029,1322,435,2.61865,10.1576
105,589,2.901,-9.28598,0.0143567,-0.00829117,0.00929119,0.0176805,-0.011615,0.343556,0.0170342,0.0476055,1329,435,2.901,9.28597
112,589,3.19373,-8.4552,0,0,0,0,0,0,0,-1,1336,435,3.19378,8.4552
119,589,6.37158,-7.56903,0,0,0,0,0,0,0,-1,1343,435,6.37164,7.56902
126,589,6.7926,-6.76337,0,0,0,0,0,0,0,-1,1350,435,6.79259,6.76336
133,589,3.01904,-12.4767,0.015451,0.00738511,0.00853098,0.0208543,0.00198182,0.564597,0.0132916,0.0485558,1357,435,3.01908,12.4767
140,589,2.65161,-12.4185,0.0144063,0.00831866,0.00865332,0.0205355,0.00218943,0.616281,0.013022,0.046191,1364,435,2.65162,12.4185
147,589,2.61646,-12.1594,0,0,0,0,0,0,0,-1,1371,435,2.6164,12.1594
154,589,2.90283,-11.8626,0,0,0,0,0,0,0,-1,1378,435,2.90281,11.8626
161,589,2.57422,-11.8835,0,0,0,0,0,0,0,-1,1385,435,2.57425,11.8835
168,589,1.9303,-11.3237,0,0,0,0,0,0,0,-1,1392,435,1.93036,11.3237
175,589,8.66992,-7.65527,0,0,0,0,0,0,0,-1,1399,435,8.66994,7.65528
182,589,3.8136,-2.45389,0,0,0,0,0,0,0,-1,1406,435,3.81363,2.4539
189,589,3.69983,-3.68149,0,0,0,0,0,0,0,-1,1413,435,3.69987,3.68147
196,589,3.31055,-5.31677,0,0,0,0,0,0,0,-1,1420,435,3.31059,5.31678
203,589,2.72559,-8.84338,0,0,0,0,0,0,0,-1,1427,435,2.72558,8.84338
210,589,2.83508,-11.7593,0,0,0,0,0,0,0,-1,1434,435,2.83505,11.7593
217,589,3.03162,-11.4958,-0.00239101,0.00107473,-0.00279694,0.00263211,-0.00394838,-1.06274,0.0038245,0.0291317,1441,435,3.03158,11.4958
224,589,2.96692,-11.4254,-0.00214454,0.00207404,-0.00218002,0.00299816,-0.00306866,-1.16985,0.00350276,0.0217268,1448,435,2.96696,11.4255
231,589,2.94666,-11.3432,-0.00171684,0.00272025,-0.00159542,0.00323434,-0.00223093,-1.25907,0.00317305,0.0195229,1455,435,2.94665,11.3432
238,589,2.97449,-11.2386,-0.00115529,0.00304657,-0.00125208,0.00339138,-0.00150009,-1.30207,0.0028936,0.0222318,1462,435,2.97446,11.2387
245,589,2.99707,-11.0431,-0.000575143,0.00336761,-0.000937906,0.00357935,-0.000786883,-1.34876,0.00268721,0.020119,1469,435,2.99712,11.0431
252,589,3.0271,-10.9432,-0.000152586,0.003392,-0.000694922,0.00352337,-0.000283958,-1.38396,0.00244906,0.0128492,1476,435,3.02709,10.9432
259,589,3.02722,-10.8476,9.56106e-05,0.00315194,-0.000499407,0.00323147,1.60767e-05,-1.41287,0.00214898,0.00943006,1483,435,3.02724,10.8476
266,589,3.01208,-10.6991,0.000268671,0.00283228,-0.000421743,0.00289988,0.000201072,-1.41186,0.00186984,0.0101445,1490,435,3.0121,10.6991
273,589,3.0177,-10.5755,0.000356209,0.00245295,-0.000362675,0.00251391,0.000295249,-1.40427,0.00158671,0.0119539,1497,435,3.01771,10.5755
280,589,3.03442,-10.4506,0.000523764,0.00211703,-0.000242742,0.0021532,0.000487602,-1.42291,0.00130369,0.0115225,1504,435,3.03446,10.4506
287,589,3.05261,-10.3315,0.000530761,0.00180135,-0.000292996,0.00186566,0.000466451,-1.35473,0.00112111,0.0105232,1511,435,3.05261,10.3315
294,589,3.05493,-10.1755,0.000419123,0.00146693,-0.000330743,0.0015626,0.000323457,-1.28924,0.000952401,0.00932786,1518,435,3.05489,10.1755
301,589,3.05957,-10.0269,0.000309366,0.0011337,-0.000322663,0.00124498,0.00019809,-1.2387,0.00077247,0.00962693,1525,435,3.05952,10.0269
308,589,3.06677,-9.8728,0.000295263,0.000990679,-0.000227082,0.00105826,0.000227679,-1.28153,0.000643191,0.00973353,1532,435,3.06677,9.8728
315,589,3.0741,-9.71365,0.000356246,0.00092915,-0.000108528,0.00094902,0.000336376,-1.38972,0.000555602,0.0107686,1539,435,3.07406,9.71367
322,589,3.09546,-9.55072,0.000382436,0.000950807,6.22982e-05,0.000957555,0.000375688,1.46289,0.0005571,0.0120114,1546,435,3.09542,9.55073
329,589,3.08325,-9.38629,0.000276165,0.00100178,0.000310067,0.00111623,0.00016172,1.21721,0.000696532,0.0104311,1553,435,3.0832,9.3863
336,589,3.05432,-9.22937,-0.000117516,0.00124346,0.000444616,0.00137583,-0.000249892,1.28142,0.00101087,0.00934901,1560,435,3.05429,9.22937
343,589,3.05139,-9.05618,-0.000521905,0.00151298,0.000553787,0.00165393,-0.000662854,1.32157,0.00137779,0.0101548,1567,435,3.05137,9.05618
350,589,3.05273,-8.87878,-0.000961998,0.0019003,0.000727444,0.00207457,-0.00113626,1.33567,0.00187997,0.0154985,1574,435,3.0527,8.87878
357,589,3.04028,-8.67697,-0.00160737,0.0023047,0.000837054,0.00247627,-0.00177895,1.36862,0.00246773,0.0131165,1581,435,3.04023,8.67698
364,589,3.04297,-8.50348,-0.00246671,0.00274814,0.000900121,0.00289913,-0.00261771,1.40459,0.00318653,0.0107485,1588,435,3.04301,8.50349
371,589,3.0376,-8.3284,-0.00341264,0.00330322,0.00082662,0.00340347,-0.00351289,1.45011,0.00399332,0.0114476,1595,435,3.03763,8.32839
378,589,3.03259,-8.15259,-0.00435164,0.00378977,0.000624366,0.00383738,-0.00439925,1.4947,0.00475911,0.0126995,1602,435,3.03255,8.1526
385,589,3.04395,-7.96704,-0.0052907,0.00409991,0.000153236,0.00410241,-0.0052932,1.55448,0.00543906,0.0147524,1609,435,3.04391,7.96705
392,589,3.02527,-7.73322,-0.00587185,0.00413997,-0.000299819,0.00414894,-0.00588082,-1.54089,0.00581939,0.0164101,1616,435,3.0253,7.73321
399,589,3.02429,-7.52487,-0.00621483,0.00425937,-0.000525722,0.00428569,-0.00624115,-1.52077,0.00611253,0.0230812,1623,435,3.02424,7.52488
406,589,3.00195,-7.3252,0,0,0,0,0,0,0,-1,1630,435,3.00201,7.3252
413,589,2.94666,-7.19031,0,0,0,0,0,0,0,-1,1637,435,2.94664,7.1903
420,589,2.79724,-5.79956,0,0,0,0,0,0,0,-1,1644,435,2.7973,5.79955
427,589,2.87976,-5.28177,0,0,0,0,0,0,0,-1,1651,435,2.87972,5.28177
434,589,2.52734,-2.73029,0,0,0,0,0,0,0,-1,1658,435,2.52736,2.73029
441,589,3.17639,-2.02435,0,0,0,0,0,0,0,-1,1665,435,3.17643,2.02435
448,589,0.453735,-3.2868,0,0,0,0,0,0,0,-1,1672,435,0.453701,3.28681
455,589,0.664307,-3.46848,0,0,0,0,0,0,0,-1,1679,435,0.66425,3.46846
462,589,3.46716,-4.41891,0,0,0,0,0,0,0,-1,1686,435,3.4672,4.41891
469,589,0.0238037,-3.81497,0,0,0,0,0,0,0,-1,1693,435,0.0237965,3.81498
476,589,0,0,0,0,0,0,0,0,0,-1,1700,435,0,0
483,589,0,0,0,0,0,0,0,0,0,-1,1707,435,0,0
490,589,0,0,0,0,0,0,0,0,0,-1,1714,435,0,0
497,589,0,0,0,0,0,0,0,0,0,-1,1721,435,0,0
504,589,0,0,0,0,0,0,0,0,0,-1,1728,435,0,0
511,589,0,0,0,0,0,0,0,0,0,-1,1735,435,0,0
518,589,0,0,0,0,0,0,0,0,0,-1,1742,435,0,0
525,589,0,0,0,0,0,0,0,0,0,-1,1749,435,0,0
532,589,0,0,0,0,0,0,0,0,0,-1,1756,435,0,0
539,589,0,0,0,0,0,0,0,0,0,-1,1763,435,0,0
546,589,0,0,0,0,0,0,0,0,0,-1,1770,435,0,0
553,589,0,0,0,0,0,0,0,0,0,-1,1777,435,0,0
560,589,0,0,0,0,0,0,0,0,0,-1,1784,435,0,0
567,589,0,0,0,0,0,0,0,0,0,-1,1791,435,0,0
574,589,0,0,0,0,0,0,0,0,0,-1,1798,435,0,0
581,589,0,0,0,0,0,0,0,0,0,-1,1805,435,0,0
588,589,0,0,0,0,0,0,0,0,0,-1,1812,435,0,0
595,589,0,0,0,0,0,0,0,0,0,-1,1819,435,0,0
602,589,0,0,0,0,0,0,0,0,0,-1,1826,435,0,0
609,589,0,0,0,0,0,0,0,0,0,-1,1833,435,0,0
616,589,0,0,0,0,0,0,0,0,0,-1,1840,435,0,0
623,589,0,0,0,0,0,0,0,0,0,-1,1847,435,0,0
630,589,0,0,0,0,0,0,0,0,0,-1,1854,435,0,0
637,589,0,0,0,0,0,0,0,0,0,-1,1861,435,0,0
644,589,0,0,0,0,0,0,0,0,0,-1,1868,435,0,0
651,589,0,0,0,0,0,0,0,0,0,-1,1875,435,0,0
658,589,0,0,0,0,0,0,0,0,0,-1,1882,435,0,0
665,589,0,0,0,0,0,0,0,0,0,-1,1889,435,0,0
672,589,0,0,0,0,0,0,0,0,0,-1,1896,435,0,0
679,589,0,0,0,0,0,0,0,0,0,-1,1903,435,0,0
686,589,0,0,0,0,0,0,0,0,0,-1,1910,435,0,0
693,589,0,0,0,0,0,0,0,0,0,-1,1917,435,0,0
700,589,0,0,0,0,0,0,0,0,0,-1,1924,435,0,0
707,589,0,0,0,0,0,0,0,0,0,-1,1931,435,0,0
714,589,0,0,0,0,0,0,0,0,0,-1,1938,435,0,0
721,589,0,0,0,0,0,0,0,0,0,-1,1945,435,0,0
728,589,0,0,0,0,0,0,0,0,0,-1,1952,435,0,0
735,589,0,0,0,0,0,0,0,0,0,-1,1959,435,0,0
742,589,0,0,0,0,0,0,0,0,0,-1,1966,435,0,0
749,589,0,0,0,0,0,0,0,0,0,-1,1973,435,0,0
756,589,0,0,0,0,0,0,0,0,0,-1,1980,435,0,0
763,589,0,0,0,0,0,0,0,0,0,-1,1987,435,0,0
770,589,0,0,0,0,0,0,0,0,0,-1,1994,435,0,0
777,589,0,0,0,0,0,0,0,0,0,-1,2001,435,0,0
784,589,0,0,0,0,0,0,0,0,0,-1,2008,435,0,0
791,589,0,0,0,0,0,0,0,0,0,-1,2015,435,0,0
798,589,0,0,0,0,0,0,0,0,0,-1,2022,435,0,0
805,589,0,0,0,0,0,0,0,0,0,-1,2029,435,0,0
812,589,0,0,0,0,0,0,0,0,0,-1,2036,435,0,0
-700,582,0,0,0,0,0,0,0,0,0,-1,524,442,0,0
-693,582,0,0,0,0,0,0,0,0,0,-1,531,442,0,0
-686,582,0,0,0,0,0,0,0,0,0,-1,538,442,0,0
-679,582,0,0,0,0,0,0,0,0,0,-1,545,442,0,0
-672,582,0,0,0,0,0,0,0,0,0,-1,552,442,0,0
-665,582,0,0,0,0,0,0,0,0,0,-1,559,442,0,0
-658,582,0,0,0,0,0,0,0,0,0,-1,566,442,0,0
-651,582,0,0,0,0,0,0,0,0,0,-1,573,442,0,0
-644,582,0,0,0,0,0,0,0,0,0,-1,580,442,0,0
-637,582,0,0,0,0,0,0,0,0,0,-1,587,442,0,0
-630,582,0,0,0,0,0,0,0,0,0,-1,594,442,0,0
-623,582,0,0,0,0,0,0,0,0,0,-1,601,442,0,0
-616,582,0,0,0,0,0,0,0,0,0,-1,608,442,0,0
-609,582,0,0,0,0,0,0,0,0,0,-1,615,442,0,0
-602,582,0,0,0,0,0,0,0,0,0,-1,622,442,0,0
-595,582,0,0,0,0,0,0,0,0,0,-1,629,442,0,0
-588,582,0,0,0,0,0,0,0,0,0,-1,636,442,0,0
-581,582,0,0,0,0,0,0,0,0,0,-1,643,442,0,0
-574,582,0,0,0,0,0,0,0,0,0,-1,650,442,0,0
-567,582,0,0,0,0,0,0,0,0,0,-1,657,442,0,0
-560,582,0,0,0,0,0,0,0,0,0,-1,664,442,0,0
-553,582,0,0,0,0,0,0,0,0,0,-1,671,442,0,0
-546,582,0,0,0,0,0,0,0,0,0,-1,678,442,0,0
-539,582,0,0,0,0,0,0,0,0,0,-1,685,442,0,0
-532,582,0,0,0,0,0,0,0,0,0,-1,692,442,0,0
-525,582,0,0,0,0,0,0,0,0,0,-1,699,442,0,0
-518,582,0,0,0,0,0,0,0,0,0,-1,706,442,0,0
-511,582,0,0,0,0,0,0,0,0,0,-1,713,442,0,0
-504,582,0,0,0,0,0,0,0,0,0,-1,720,442,0,0
-497,582,0,0,0,0,0,0,0,0,0,-1,727,442,0,0
-490,582,0,0,0,0,0,0,0,0,0,-1,734,442,0,0
-483,582,0,0,0,0,0,0,0,0,0,-1,741,442,0,0
-476,582,0,0,0,0,0,0,0,0,0,-1,748,442,0,0
-469,582,0,0,0,0,0,0,0,0,0,-1,755,442,0,0
-462,582,0,0,0,0,0,0,0,0,0,-1,762,442,0,0
-455,582,0,0,0,0,0,0,0,0,0,-1,769,442,0,0
-448,582,0,0,0,0,0,0,0,0,0,-1,776,442,0,0
-441,582,0,0,0,0,0,0,0,0,0,-1,783,442,0,0
-434,582,0,0,0,0,0,0,0,0,0,-1,790,442,0,0
-427,582,0,0,0,0,0,0,0,0,0,-1,797,442,0,0
-420,582,0,0,0,0,0,0,0,0,0,-1,804,442,0,0
-413,582,0,0,0,0,0,0,0,0,0,-1,811,442,0,0
-406,582,0,0,0,0,0,0,0,0,0,-1,818,442,0,0
-399,582,0,0,0,0,0,0,0,0,0,-1,825,442,0,0
-392,582,0,0,0,0,0,0,0,0,0,-1,832,442,0,0
-385,582,0,0,0,0,0,0,0,0,0,-1,839,442,0,0
-378,582,0,0,0,0,0,0,0,0,0,-1,846,442,0,0
-371,582,0,0,0,0,0,0,0,0,0,-1,853,442,0,0
-364,582,0,0,0,0,0,0,0,0,0,-1,860,442,0,0
-357,582,6.4043,-4.18127,0,0,0,0,0,0,0,-1,867,442,6.40427,4.18126
-350,582,-1.12933,-15.713,0,0,0,0,0,0,0,-1,874,442,-1.12935,15.713
-343,582,-0.551086,-15.4312,0,0,0,0,0,0,0,-1,881,442,-0.5511,15.4311
-336,582,0.0556641,-4.78558,0,0,0,0,0,0,0,-1,888,442,0.0556634,4.78559
-329,582,3.26788,-7.35184,0,0,0,0,0,0,0,-1,895,442,3.2679,7.35184
-322,582,1.39203,-7.75882,0,0,0,0,0,0,0,-1,902,442,1.39203,7.75883
-315,582,1.66156,-8.21689,-0.0149007,-0.0196659,-0.0065437,-0.0103193,-0.0242472,-0.610807,0.0140507,0.0467956,909,442,1.66158,8.21688
-308,582,1.24426,-7.97903,-0.0115192,-0.0168074,-0.00647629,-0.00716804,-0.0211585,-0.59159,0.0124258,0.0493426,916,442,1.24424,7.97903
-301,582,1.34406,-8.29794,-0.0112746,-0.0144508,-0.00598458,-0.00667098,-0.0190544,-0.655704,0.0111646,0.0445384,923,442,1.34404,8.29794
-294,582,1.37946,-8.3696,-0.0109668,-0.0119547,-0.0061072,-0.00533363,-0.0175879,-0.745048,0.0104131,0.0424241,930,442,1.37944,8.36959
-287,582,1.53381,-8.28055,-0.00932863,-0.00975669,-0.00620378,-0.00333519,-0.0157501,-0.768155,0.00958379,0.0323799,937,442,1.53381,8.28053
-280,582,1.60455,-8.46826,-0.00856435,-0.00814641,-0.00582365,-0.00252798,-0.0141828,-0.803332,0.00873532,0.0154261,944,442,1.60455,8.46826
-273,582,1.57343,-8.67548,-0.00765607,-0.00688045,-0.00549639,-0.0017582,-0.0127783,-0.820619,0.0079975,0.0107594,951,442,1.57344,8.67547
-266,582,1.56317,-8.86893,-0.00736508,-0.00536318,-0.00462311,-0.0016339,-0.0110944,-0.892007,0.00691624,0.0101819,958,442,1.56319,8.86891
-259,582,1.54846,-9.04596,-0.00706422,-0.00418271,-0.00431663,-0.00107275,-0.0101742,-0.946469,0.00645499,0.0087036,965,442,1.54845,9.04595
-252,582,1.54425,-9.2258,-0.00672462,-0.00344371,-0.00374865,-0.00099229,-0.00917605,-0.991651,0.00581489,0.00804338,972,442,1.54425,9.22581
-245,582,1.55487,-9.37259,-0.00615876,-0.00261513,-0.00315978,-0.000764302,-0.00800959,-1.04092,0.00510407,0.0111006,979,442,1.55487,9.37257
-238,582,1.54944,-9.52197,-0.00525437,-0.00189806,-0.0026368,-0.000450684,-0.00670175,-1.06879,0.00432544,0.0154733,986,442,1.54944,9.52198
-231,582,1.55005,-9.69296,-0.00446136,-0.00137293,-0.00201667,-0.00037715,-0.00545713,-1.11214,0.00351912,0.0121748,993,442,1.55007,9.69296
-224,582,1.54285,-9.85767,-0.00341723,-0.000907233,-0.00155824,-0.000161444,-0.00416301,-1.12441,0.00272312,0.00940057,1000,442,1.54282,9.85767
-217,582,1.539,-9.99756,-0.00234078,-0.000507416,-0.00117387,6.52934e-05,-0.00291349,-1.11689,0.00196445,0.0118227,1007,442,1.53903,9.99757
-210,582,1.54181,-10.128,-0.00139845,-0.00019102,-0.00100266,0.000375651,-0.00196512,-1.05638,0.00145159,0.0129166,1014,442,1.54182,10.128
-203,582,1.53943,-10.2694,-0.000431358,0.00029834,-0.000982972,0.000981989,-0.00111501,-0.963102,0.00121151,0.0109242,1021,442,1.53941,10.2694
-196,582,1.52319,-10.4287,0.00046539,0.000669376,-0.00104792,0.00162025,-0.000485488,-0.83391,0.00127323,0.0162006,1028,442,1.52324,10.4287
-189,582,1.48596,-10.576,0.000898566,0.000795402,-0.00128345,0.00213147,-0.000437506,-0.765314,0.00158705,0.0223807,1035,442,1.48591,10.576
-182,582,1.49646,-10.6945,0.000813528,0.000803862,-0.00156365,0.00237235,-0.00075496,-0.783853,0.00188433,0.0165367,1042,442,1.49644,10.6945
-175,582,1.54395,-10.7901,0.000964957,0.000809793,-0.00202516,0.00291402,-0.00113927,-0.766253,0.00241378,0.0134889,1049,442,1.54397,10.7901
-168,582,1.53894,-10.9283,0.00103959,0.000663867,-0.00248054,0.00333938,-0.00163592,-0.747603,0.00292807,0.0107242,1056,442,1.53896,10.9284
-161,582,1.54468,-11.0524,0.000980881,0.000295197,-0.0028991,0.00355734,-0.00228126,-0.726542,0.00339765,0.0120528,1063,442,1.54472,11.0524
-154,582,1.56335,-11.157,0.000949326,-5.09682e-05,-0.00315442,0.00364301,-0.00274465,-0.706776,0.00370005,0.0115133,1070,442,1.56334,11.1571
-147,582,1.57288,-11.2751,0.00096089,-0.00027512,-0.00330917,0.00370926,-0.00302349,-0.693084,0.00389388,0.0110489,1077,442,1.57293,11.275
-140,582,1.57434,-11.3762,0.00079265,-0.000941368,-0.00307211,0.00311775,-0.00326647,-0.647866,0.00368627,0.0117177,1084,442,1.57437,11.3762
-133,582,1.59875,-11.483,0.000528375,-0.00163257,-0.00280761,0.00245624,-0.00356044,-0.601715,0.00349318,0.0145179,1091,442,1.5987,11.483
-126,582,1.62488,-11.5732,0.000340152,-0.00244299,-0.00229003,0.00162826,-0.0037311,-0.51238,0.00317263,0.013144,1098,442,1.62485,11.5732
-119,582,1.63574,-11.6646,0.000203739,-0.00332225,-0.00169513,0.000886482,-0.004005,-0.382888,0.00300933,0.017266,1105,442,1.63569,11.6646
-112,582,1.63086,-11.805,0.000146343,-0.00419023,-0.000880193,0.000318186,-0.00436208,-0.192808,0.00301971,0.0254635,1112,442,1.63081,11.805
-105,582,1.64319,-11.9464,0.000322725,-0.00489852,-2.00221e-05,0.000322802,-0.0048986,-0.00383466,0.00337848,0.0348,1119,442,1.6432,11.9464
-98,582,1.67908,-12.0804,0.00061405,-0.00548595,0.000681095,0.000689172,-0.00556107,0.109853,0.00395716,0.0369266,1126,442,1.67902,12.0804
-91,582,1.73157,-12.0803,0.000922915,-0.00567016,0.00106213,0.0010898,-0.00583705,0.155846,0.0043009,0.038685,1133,442,1.73155,12.0803
-84,582,1.84863,-12.162,0,0,0,0,0,0,0,-1,1140,442,1.84865,12.1619
-77,582,2.30212,-11.4907,0,0,0,0,0,0,0,-1,1147,442,2.30207,11.4907
-70,582,1.49255,-6.36548,0,0,0,0,0,0,0,-1,1154,442,1.49251,6.36549
-63,582,-4.62915,-4.0347,0,0,0,0,0,0,0,-1,1161,442,-4.6292,4.03471
-56,582,-5.81714,-5.24149,0,0,0,0,0,0,0,-1,1168,442,-5.81718,5.24149
-49,582,-3.88672,-10.1064,0,0,0,0,0,0,0,-1,1175,442,-3.88678,10.1064
-42,582,-0.948975,1.13968,0,0,0,0,0,0,0,-1,1182,442,-0.949003,-1.13969
-35,582,-2.58435,-3.86911,0,0,0,0,0,0,0,-1,1189,442,-2.58437,3.86912
-28,582,-0.825317,-3.45941,0,0,0,0,0,0,0,-1,1196,442,-0.825377,3.45942
-21,582,2.33789,-12.8168,0,0,0,0,0,0,0,-1,1203,442,2.33785,12.8168
-14,582,1.52698,-12.2072,0,0,0,0,0,0,0,-1,1210,442,1.52702,12.2072
-7,582,2.37439,-13.2802,0,0,0,0,0,0,0,-1,1217,442,2.37444,13.2802
0,582,2.26025,-12.1825,0,0,0,0,0,0,0,-1,1224,442,2.26031,12.1825
7,582,2.51721,-12.4207,0,0,0,0,0,0,0,-1,1231,442,2.51715,12.4208
14,582,2.68445,-12.4551,0,0,0,0,0,0,0,-1,1238,442,2.68439,12.4551
21,582,2.828,-12.8965,0.0125784,-0.019378,-0.00407605,0.0130901,-0.0198897,-0.124886,0.0191754,0.0437162,1245,442,2.82795,12.8966
28,582,3.01636,-13.0226,0.0100461,-0.0232953,-0.00267322,0.0102591,-0.0235083,-0.0795004,0.0199896,0.0425426,1252,442,3.01632,13.0226
35,582,3.2594,-13.1872,0.0072224,-0.026797,-0.000520821,0.00723037,-0.0268049,-0.0153048,0.0207053,0.045141,1259,442,3.25934,13.1872
42,582,3.5116,-13.5436,0.00502824,-0.0300943,0.00203339,0.00514557,-0.0302116,0.0576375,0.0220573,0.0488859,1266,442,3.51154,13.5436
49,582,2.02258,-12.6812,0.00389455,-0.0327277,0.00457929,0.00445847,-0.0332916,0.122528,0.02382,0.0457551,1273,442,2.02263,12.6812
56,582,2.29712,-13.0497,0,0,0,0,0,0,0,-1,1280,442,2.29706,13.0497
63,582,3.58862,-13.3844,0.00354161,-0.034632,0.00915981,0.00562573,-0.0367161,0.22372,0.0265521,0.0430265,1287,442,3.58863,13.3844
70,582,2.98999,-12.1519,0.00496422,-0.0336199,0.0110367,0.00789811,-0.0365538,0.259821,0.0273842,0.0428064,1294,442,2.98996,12.1519
77,582,2.91931,-11.3559,0.00742869,-0.0307649,0.0125113,0.0111621,-0.0344984,0.289993,0.0274858,0.0462163,1301,442,2.9193,11.3559
84,582,2.85364,-10.9682,0.0102301,-0.0260534,0.0130591,0.0144415,-0.0302648,0.311957,0.0263446,0.0474627,1308,442,2.85361,10.9682
91,582,2.74426,-10.619,0,0,0,0,0,0,0,-1,1315,442,2.74421,10.619
98,582,3.28601,-10.4243,0.0160478,-0.0142262,0.0133108,0.0210678,-0.0192462,0.360646,0.0232832,0.0434836,1322,442,3.28595,10.4243
105,582,3.45752,-9.54868,0.0179975,-0.00843685,0.0133089,0.0235372,-0.0139766,0.394429,0.0218918,0.0436563,1329,442,3.45755,9.54867
112,582,3.69055,-8.35199,0.0195759,-0.00177319,0.0128375,0.0255971,-0.00779439,0.438567,0.0201712,0.043987,1336,442,3.69051,8.352
119,582,6.34985,-8.38394,0,0,0,0,0,0,0,-1,1343,442,6.3498,8.38394
126,582,6.71252,-7.26154,0,0,0,0,0,0,0,-1,1350,442,6.71256,7.26154
133,582,7.08057,-6.10632,0,0,0,0,0,0,0,-1,1357,442,7.08057,6.10632
140,582,5.6449,-5.93558,0,0,0,0,0,0,0,-1,1364,442,5.64487,5.93558
147,582,3.51208,-11.3698,0,0,0,0,0,0,0,-1,1371,442,3.51205,11.3698
154,582,3.35107,-11.5522,0,0,0,0,0,0,0,-1,1378,442,3.35105,11.5522
161,582,3.19006,-11.7346,0,0,0,0,0,0,0,-1,1385,442,3.19005,11.7346
168,582,2.61353,-10.6618,0,0,0,0,0,0,0,-1,1392,442,2.61354,10.6618
175,582,6.50549,-2.00424,0,0,0,0,0,0,0,-1,1399,442,6.50546,2.00425
182,582,5.18958,-2.18652,0,0,0,0,0,0,0,-1,1406,442,5.1896,2.18652
189,582,6.19751,-0.880951,0,0,0,0,0,0,0,-1,1413,442,6.19754,0.88096
196,582,4.87354,-2.22327,0,0,0,0,0,0,0,-1,1420,442,4.87348,2.22325
203,582,3.11401,-4.48257,0,0,0,0,0,0,0,-1,1427,442,3.11404,4.48259
210,582,2.93115,-11.0731,0,0,0,0,0,0,0,-1,1434,442,2.93113,11.0731
217,582,3.28223,-11.3991,0,0,0,0,0,0,0,-1,1441,442,3.28219,11.3991
224,582,3.28955,-11.3856,-0.00362583,0.00331644,-0.00295441,0.00440351,-0.00471291,-1.21822,0.00526438,0.0432843,1448,442,3.28956,11.3856
231,582,3.03882,-11.3267,-0.00279588,0.00413964,-0.00212888,0.00474097,-0.00339721,-1.2955,0.00471989,0.0437306,1455,442,3.03883,11.3267
238,582,2.99048,-11.3126,-0.00186353,0.00452105,-0.00166019,0.00492695,-0.00226942,-1.33101,0.00424821,0.0413782,1462,442,2.99047,11.3126
245,582,3.04065,-11.2873,-0.00104064,0.00476047,-0.00130868,0.00504203,-0.0013222,-1.35888,0.00387797,0.0395201,1469,442,3.04063,11.2873
252,582,3.19666,-11.0547,-0.000409919,0.00457339,-0.00101993,0.00477405,-0.000610586,-1.37653,0.00340453,0.0258636,1476,442,3.19666,11.0547
259,582,3.13062,-10.919,3.45984e-05,0.00405766,-0.000841818,0.00422671,-0.000134447,-1.37262,0.00286367,0.0196554,1483,442,3.13066,10.919
266,582,3.12866,-10.7669,0.000357231,0.0034853,-0.000799618,0.00367785,0.00016468,-1.33449,0.00239889,0.0149366,1490,442,3.12872,10.7669
273,582,3.16772,-10.6014,0.000444816,0.00279363,-0.000803594,0.00304225,0.0001962,-1.27076,0.00196603,0.0130728,1497,442,3.16779,10.6014
280,582,3.18042,-10.4638,0.000625868,0.00221739,-0.000742399,0.00250992,0.000333331,-1.19544,0.00157398,0.0113877,1504,442,3.18036,10.4638
287,582,3.20923,-10.3156,0.000578193,0.00171473,-0.000889116,0.00220167,9.12569e-05,-1.06975,0.00143832,0.0111943,1511,442,3.20926,10.3156
294,582,3.20911,-10.1707,0.00035397,0.00120526,-0.000986484,0.00185401,-0.000294779,-0.989071,0.00134508,0.00889248,1518,442,3.20916,10.1707
301,582,3.21521,-10.0211,0.000120043,0.000754413,-0.00101277,0.00149851,-0.000624054,-0.937152,0.00125965,0.00929184,1525,442,3.21525,10.0211
308,582,3.22327,-9.87604,-1.88044e-05,0.000540488,-0.000939849,0.00124141,-0.000719729,-0.929999,0.00114554,0.0114938,1532,442,3.22327,9.87604
315,582,3.22607,-9.73547,-7.49693e-05,0.00044804,-0.000850601,0.00107643,-0.000703356,-0.93453,0.00103506,0.0135984,1539,442,3.22613,9.73546
322,582,3.24023,-9.55991,-0.000134374,0.000465212,-0.000680893,0.000909389,-0.000578551,-0.992775,0.000866112,0.0110843,1546,442,3.24022,9.5599
329,582,3.23804,-9.39441,-0.000230545,0.000498449,-0.000431441,0.000698752,-0.000430848,-1.13614,0.00065826,0.010942,1553,442,3.23805,9.39442
336,582,3.22473,-9.22894,-0.00047021,0.000723786,-0.000229475,0.000766371,-0.000512794,-1.38731,0.000743348,0.0112721,1560,442,3.22472,9.22894
343,582,3.21594,-9.03845,-0.000736927,0.000986712,-4.04865e-05,0.000987663,-0.000737877,-1.54732,0.000999714,0.0127713,1567,442,3.21596,9.03844
350,582,3.21497,-8.87076,-0.00103239,0.00128866,0.000168716,0.00130086,-0.00104459,1.49861,0.00135684,0.0160045,1574,442,3.21491,8.87077
357,582,3.21167,-8.6734,-0.00142024,0.00163267,0.000338756,0.00166981,-0.00145738,1.4616,0.00180687,0.0137011,1581,442,3.21167,8.67341
364,582,3.21582,-8.49442,-0.00190894,0.00201099,0.0004554,0.0020632,-0.00196115,1.45665,0.00232371,0.0107555,1588,442,3.21579,8.49441
371,582,3.21265,-8.33423,-0.00244852,0.00243004,0.000499043,0.00248056,-0.00249905,1.4699,0.00287498,0.0149217,1595,442,3.2127,8.33423
378,582,3.1908,-8.15805,-0.00301914,0.00278443,0.000445171,0.00281838,-0.00305309,1.49468,0.0033908,0.0158659,1602,442,3.19074,8.15804
385,582,3.19885,-7.97769,-0.00356218,0.00295654,0.000173325,0.00296115,-0.00356678,1.54423,0.0037743,0.0111344,1609,442,3.19883,7.9777
392,582,3.19897,-7.78662,-0.0038627,0.00287548,-9.60749e-05,0.00287685,-0.00386407,-1.55654,0.00390576,0.0098293,1616,442,3.19894,7.78662
399,582,3.18542,-7.59613,-0.00400664,0.00290857,-0.000182394,0.00291338,-0.00401145,-1.54444,0.00401477,0.0138019,1623,442,3.18542,7.59613
406,582,3.17419,-7.34286,-0.00404584,0.00288852,-0.000332102,0.00290438,-0.00406171,-1.52305,0.00404034,0.0201751,1630,442,3.17423,7.34288
413,582,3.14709,-7.15991,-0.00477959,0.00284213,-0.000649475,0.00289708,-0.00483454,-1.48639,0.00451033,0.0388605,1637,442,3.1471,7.15992
420,582,3.16931,-6.89288,0,0,0,0,0,0,0,-1,1644,442,3.1693,6.89289
427,582,3.06177,-6.79907,0,0,0,0,0,0,0,-1,1651,442,3.06177,6.79908
434,582,2.84509,-6.60938,0,0,0,0,0,0,0,-1,1658,442,2.8451,6.60939
441,582,2.92627,-6.48605,0,0,0,0,0,0,0,-1,1665,442,2.92628,6.48606
448,582,1.52722,-2.85928,0,0,0,0,0,0,0,-1,1672,442,1.52724,2.85927
455,582,3.6698,-4.4032,0,0,0,0,0,0,0,-1,1679,442,3.66983,4.40319
462,582,1.38074,-3.94418,0,0,0,0,0,0,0,-1,1686,442,1.38074,3.94419
469,582,0.935181,-4.08994,0,0,0,0,0,0,0,-1,1693,442,0.93512,4.08994
476,582,0.489502,-4.23569,0,0,0,0,0,0,0,-1,1700,442,0.489502,4.23569
483,582,0,0,0,0,0,0,0,0,0,-1,1707,442,0,0
490,582,0,0,0,0,0,0,0,0,0,-1,1714,442,0,0
497,582,0,0,0,0,0,0,0,0,0,-1,1721,442,0,0
504,582,0,0,0,0,0,0,0,0,0,-1,1728,442,0,0
511,582,0,0,0,0,0,0,0,0,0,-1,1735,442,0,0
518,582,0,0,0,0,0,0,0,0,0,-1,1742,442,0,0
525,582,0,0,0,0,0,0,0,0,0,-1,1749,442,0,0
532,582,0,0,0,0,0,0,0,0,0,-1,1756,442,0,0
539,582,0,0,0,0,0,0,0,0,0,-1,1763,442,0,0
546,582,0,0,0,0,0,0,0,0,0,-1,1770,442,0,0
553,582,0,0,0,0,0,0,0,0,0,-1,1777,442,0,0
560,582,0,0,0,0,0,0,0,0,0,-1,1784,442,0,0
567,582,0,0,0,0,0,0,0,0,0,-1,1791,442,0,0
574,582,0,0,0,0,0,0,0,0,0,-1,1798,442,0,0
581,582,0,0,0,0,0,0,0,0,0,-1,1805,442,0,0
588,582,0,0,0,0,0,0,0,0,0,-1,1812,442,0,0
595,582,0,0,0,0,0,0,0,0,0,-1,1819,442,0,0
602,582,0,0,0,0,0,0,0,0,0,-1,1826,442,0,0
609,582,0,0,0,0,0,0,0,0,0,-1,1833,442,0,0
616,582,0,0,0,0,0,0,0,0,0,-1,1840,442,0,0
623,582,0,0,0,0,0,0,0,0,0,-1,1847,442,0,0
630,582,0,0,0,0,0,0,0,0,0,-1,1854,442,0,0
637,582,0,0,0,0,0,0,0,0,0,-1,1861,442,0,0
644,582,0,0,0,0,0,0,0,0,0,-1,1868,442,0,0
651,582,0,0,0,0,0,0,0,0,0,-1,1875,442,0,0
658,582,0,0,0,0,0,0,0,0,0,-1,1882,442,0,0
665,582,0,0,0,0,0,0,0,0,0,-1,1889,442,0,0
672,582,0,0,0,0,0,0,0,0,0,-1,1896,442,0,0
679,582,0,0,0,0,0,0,0,0,0,-1,1903,442,0,0
686,582,0,0,0,0,0,0,0,0,0,-1,1910,442,0,0
693,582,0,0,0,0,0,0,0,0,0,-1,1917,442,0,0
700,582,0,0,0,0,0,0,0,0,0,-1,1924,442,0,0
707,582,0,0,0,0,0,0,0,0,0,-1,1931,442,0,0
714,582,0,0,0,0,0,0,0,0,0,-1,1938,442,0,0
721,582,0,0,0,0,0,0,0,0,0,-1,1945,442,0,0
728,582,0,0,0,0,0,0,0,0,0,-1,1952,442,0,0
735,582,0,0,0,0,0,0,0,0,0,-1,1959,442,0,0
742,582,0,0,0,0,0,0,0,0,0,-1,1966,442,0,0
749,582,0,0,0,0,0,0,0,0,0,-1,1973,442,0,0
756,582,0,0,0,0,0,0,0,0,0,-1,1980,442,0,0
763,582,0,0,0,0,0,0,0,0,0,-1,1987,442,0,0
770,582,0,0,0,0,0,0,0,0,0,-1,1994,442,0,0
777,582,0,0,0,0,0,0,0,0,0,-1,2001,442,0,0
784,582,0,0,0,0,0,0,0,0,0,-1,2008,442,0,0
791,582,0,0,0,0,0,0,0,0,0,-1,2015,442,0,0
798,582,0,0,0,0,0,0,0,0,0,-1,2022,442,0,0
805,582,0,0,0,0,0,0,0,0,0,-1,2029,442,0,0
812,582,0,0,0,0,0,0,0,0,0,-1,2036,442,0,0
-700,575,0,0,0,0,0,0,0,0,0,-1,524,449,0,0
-693,575,0,0,0,0,0,0,0,0,0,-1,531,449,0,0
-686,575,0,0,0,0,0,0,0,0,0,-1,538,449,0,0
-679,575,0,0,0,0,0,0,0,0,0,-1,545,449,0,0
-672,575,0,0,0,0,0,0,0,0,0,-1,552,449,0,0
-665,575,0,0,0,0,0,0,0,0,0,-1,559,449,0,0
-658,575,0,0,0,0,0,0,0,0,0,-1,566,449,0,0
-651,575,0,0,0,0,0,0,0,0,0,-1,573,449,0,0
-644,575,0,0,0,0,0,0,0,0,0,-1,580,449,0,0
-637,575,0,0,0,0,0,0,0,0,0,-1,587,449,0,0
-630,575,0,0,0,0,0,0,0,0,0,-1,594,449,0,0
-623,575,0,0,0,0,0,0,0,0,0,-1,601,449,0,0
-616,575,0,0,0,0,0,0,0,0,0,-1,608,449,0,0
-609,575,0,0,0,0,0,0,0,0,0,-1,615,449,0,0
-602,575,0,0,0,0,0,0,0,0,0,-1,622,449,0,0
-595,575,0,0,0,0,0,0,0,0,0,-1,629,449,0,0
-588,575,0,0,0,0,0,0,0,0,0,-1,636,449,0,0
-581,575,0,0,0,0,0,0,0,0,0,-1,643,449,0,0
-574,575,0,0,0,0,0,0,0,0,0,-1,650,449,0,0
-567,575,0,0,0,0,0,0,0,0,0,-1,657,449,0,0
-560,575,0,0,0,0,0,0,0,0,0,-1,664,449,0,0
-553,575,0,0,0,0,0,0,0,0,0,-1,671,449,0,0
-546,575,0,0,0,0,0,0,0,0,0,-1,678,449,0,0
-539,575,0,0,0,0,0,0,0,0,0,-1,685,449,0,0
-532,575,0,0,0,0,0,0,0,0,0,-1,692,449,0,0
-525,575,0,0,0,0,0,0,0,0,0,-1,699,449,0,0
-518,575,0,0,0,0,0,0,0,0,0,-1,706,449,0,0
-511,575,0,0,0,0,0,0,0,0,0,-1,713,449,0,0
-504,575,0,0,0,0,0,0,0,0,0,-1,720,449,0,0
-497,575,0,0,0,0,0,0,0,0,0,-1,727,449,0,0
-490,575,0,0,0,0,0,0,0,0,0,-1,734,449,0,0
-483,575,0,0,0,0,0,0,0,0,0,-1,741,449,0,0
-476,575,0,0,0,0,0,0,0,0,0,-1,748,449,0,0
-469,575,0,0,0,0,0,0,0,0,0,-1,755,449,0,0
-462,575,0,0,0,0,0,0,0,0,0,-1,762,449,0,0
-455,575,0,0,0,0,0,0,0,0,0,-1,769,449,0,0
-448,575,0,0,0,0,0,0,0,0,0,-1,776,449,0,0
-441,575,0,0,0,0,0,0,0,0,0,-1,783,449,0,0
-434,575,0,0,0,0,0,0,0,0,0,-1,790,449,0,0
-427,575,0,0,0,0,0,0,0,0,0,-1,797,449,0,0
-420,575,0,0,0,0,0,0,0,0,0,-1,804,449,0,0
-413,575,0,0,0,0,0,0,0,0,0,-1,811,449,0,0
-406,575,0,0,0,0,0,0,0,0,0,-1,818,449,0,0
-399,575,0,0,0,0,0,0,0,0,0,-1,825,449,0,0
-392,575,0,0,0,0,0,0,0,0,0,-1,832,449,0,0
-385,575,0,0,0,0,0,0,0,0,0,-1,839,449,0,0
-378,575,0,0,0,0,0,0,0,0,0,-1,846,449,0,0
-371,575,0.56897,-3.52304,0,0,0,0,0,0,0,-1,853,449,0.568955,3.52306
-364,575,1.49805,-4.67191,0,0,0,0,0,0,0,-1,860,449,1.49803,4.6719
-357,575,7.00562,-3.99518,0,0,0,0,0,0,0,-1,867,449,7.0056,3.99517
-350,575,1.67273,-7.16425,0,0,0,0,0,0,0,-1,874,449,1.67271,7.16423
-343,575,0.124512,-6.51617,0,0,0,0,0,0,0,-1,881,449,0.124497,6.51618
-336,575,2.22784,-7.2562,0,0,0,0,0,0,0,-1,888,449,2.22785,7.2562
-329,575,2.31573,-7.09222,-0.0244441,-0.0195837,-0.00206874,-0.0188224,-0.0252054,-1.21818,0.0151315,0.047418,895,449,2.31573,7.09224
-322,575,1.15723,-7.79904,-0.0178859,-0.0171239,-0.00339699,-0.0140866,-0.0209232,-0.841241,0.0123194,0.0471941,902,449,1.15723,7.79905
-315,575,1.26965,-7.82562,-0.0122698,-0.0144079,-0.00426446,-0.00894241,-0.0177353,-0.662582,0.0102396,0.0448729,909,449,1.26964,7.82561
-308,575,1.39648,-7.91348,-0.00900484,-0.0123209,-0.00451985,-0.00584851,-0.0154772,-0.609602,0.0090242,0.0420998,916,449,1.39651,7.91348
-301,575,1.52271,-8.0148,-0.00703597,-0.0103648,-0.00455389,-0.00385187,-0.0135489,-0.610193,0.00806147,0.0316295,923,449,1.52273,8.01479
-294,575,1.49445,-8.17142,-0.00594924,-0.00838281,-0.00465177,-0.00235775,-0.0119743,-0.657477,0.00732456,0.02223,930,449,1.49444,8.17142
-287,575,1.4433,-8.32904,-0.00469779,-0.0067136,-0.00461897,-0.00097804,-0.0104334,-0.677977,0.00665356,0.0148211,937,449,1.4433,8.32906
-280,575,1.43463,-8.4924,-0.0039685,-0.00549315,-0.00433242,-0.000331851,-0.0091298,-0.69831,0.00597899,0.011447,944,449,1.43463,8.49239
-273,575,1.41754,-8.69037,-0.00322905,-0.00454285,-0.00406083,0.000227663,-0.00799957,-0.70521,0.00541053,0.0105211,951,449,1.41757,8.69037
-266,575,1.41144,-8.89581,-0.00307284,-0.00333293,-0.00328565,8.53366e-05,-0.00649111,-0.765618,0.00435613,0.0120424,958,449,1.41146,8.8958
-259,575,1.40497,-9.06311,-0.00300471,-0.00241326,-0.00297678,0.000282446,-0.00570042,-0.834908,0.00389784,0.0121442,965,449,1.405,9.0631
-252,575,1.39191,-9.20749,-0.00303508,-0.00189641,-0.00246366,6.28438e-05,-0.00499433,-0.898952,0.0033507,0.0109754,972,449,1.39193,9.2075
-245,575,1.38501,-9.37018,-0.00295866,-0.00132685,-0.00192096,-5.57061e-05,-0.00422981,-0.986222,0.00280149,0.0139492,979,449,1.385,9.37017
-238,575,1.37952,-9.52444,-0.00260093,-0.000876055,-0.00146394,-3.93975e-05,-0.00343759,-1.05159,0.00227871,0.0137884,986,449,1.3795,9.52445
-231,575,1.37775,-9.69138,-0.00232678,-0.000597567,-0.000960896,-0.000169553,-0.00275479,-1.15175,0.0017827,0.0116395,993,449,1.37775,9.69138
-224,575,1.3808,-9.8436,-0.0018046,-0.000373438,-0.000598195,-0.000156339,-0.0020217,-1.22265,0.00129883,0.0110015,1000,449,1.38083,9.8436
-217,575,1.40027,-9.99597,-0.00116716,-0.000192303,-0.000349327,-8.00511e-05,-0.00127941,-1.25988,0.000827546,0.0101906,1007,449,1.40024,9.99599
-210,575,1.4137,-10.1445,-0.000582891,-6.91783e-05,-0.000354326,0.000111598,-0.000763667,-1.09902,0.000550097,0.00971257,1014,449,1.41371,10.1445
-203,575,1.40454,-10.2796,3.81845e-05,0.000225458,-0.000537944,0.000677854,-0.000414211,-0.871567,0.000636599,0.0119915,1021,449,1.40454,10.2796
-196,575,1.40515,-10.4325,0.00059285,0.000466699,-0.000802844,0.00133509,-0.000275543,-0.746196,0.000994713,0.0148696,1028,449,1.40519,10.4325
-189,575,1.39111,-10.5625,0.000903404,0.00059781,-0.00138234,0.00214137,-0.000640153,-0.730354,0.00168207,0.015974,1035,449,1.39108,10.5625
-182,575,1.39819,-10.6755,0.000934259,0.000669477,-0.00189934,0.00270582,-0.00110208,-0.750603,0.00226255,0.0146781,1042,449,1.39815,10.6755
-175,575,1.41919,-10.8019,0.00113251,0.000761425,-0.00256072,0.0035144,-0.00162046,-0.749233,0.00303109,0.0122278,1049,449,1.41913,10.8019
-168,575,1.4032,-10.9282,0.00121665,0.000683568,-0.00322861,0.0041897,-0.00228949,-0.744214,0.00379401,0.0106533,1056,449,1.40317,10.9282
-161,575,1.41321,-11.0508,0.00110987,0.000287929,-0.00386923,0.00458989,-0.00319209,-0.732489,0.00451703,0.0142349,1063,449,1.41322,11.0508
-154,575,1.44421,-11.1552,0.000991835,-3.39375e-05,-0.00430666,0.00481604,-0.00385815,-0.726132,0.00501821,0.0153542,1070,449,1.4442,11.1551
-147,575,1.47522,-11.2307,0.000966963,-0.000189572,-0.00462274,0.00504747,-0.00427007,-0.723175,0.00538572,0.0150653,1077,449,1.47526,11.2307
-140,575,1.4248,-11.3212,0.000673458,-0.000940637,-0.00442252,0.00436196,-0.00462914,-0.695148,0.00519178,0.0262583,1084,449,1.42477,11.3212
-133,575,1.50281,-11.5367,0.000100331,-0.00182768,-0.00407087,0.00331978,-0.00504712,-0.669137,0.00486483,0.0367046,1091,449,1.50278,11.5368
-126,575,1.56152,-11.4973,-0.000296368,-0.0029827,-0.00331844,0.00194043,-0.00521949,-0.593097,0.00427584,0.0420257,1098,449,1.56157,11.4973
-119,575,1.5415,-11.4666,-0.000609931,-0.00428206,-0.00243223,0.000601443,-0.00549344,-0.462087,0.00387835,0.0408942,1105,449,1.54155,11.4666
-112,575,1.45972,-11.5586,-0.000857939,-0.00566914,-0.00118855,-0.000580338,-0.00594675,-0.229449,0.00378591,0.0416618,1112,449,1.45972,11.5586
-105,575,1.40662,-11.7431,-0.000764897,-0.00689473,0.000181283,-0.000759541,-0.00690009,0.0295394,0.00436894,0.0469682,1119,449,1.40657,11.7431
-98,575,1.71216,-12.117,-0.000494091,-0.00799827,0.00136798,-0.000252494,-0.00823987,0.174807,0.00541104,0.0468094,1126,449,1.71211,12.117
-91,575,1.45544,-11.8709,-0.000237951,-0.00858413,0.00210854,0.000264493,-0.00908657,0.233927,0.00614777,0.0438124,1133,449,1.45539,11.871
-84,575,1.16553,-11.9056,0,0,0,0,0,0,0,-1,1140,449,1.16558,11.9056
-77,575,0.205078,-11.2584,0,0,0,0,0,0,0,-1,1147,449,0.205117,11.2584
-70,575,-4.2467,-1.78738,0,0,0,0,0,0,0,-1,1154,449,-4.24674,1.78739
-63,575,-4.52209,-3.48798,0,0,0,0,0,0,0,-1,1161,449,-4.5221,3.48796
-56,575,-5.5968,-5.4928,0,0,0,0,0,0,0,-1,1168,449,-5.59683,5.49281
-49,575,-5.96863,-7.17612,0,0,0,0,0,0,0,-1,1175,449,-5.96868,7.1761
-42,575,-0.830322,0.773499,0,0,0,0,0,0,0,-1,1182,449,-0.83038,-0.77351
-35,575,-0.62085,0.205139,0,0,0,0,0,0,0,-1,1189,449,-0.620855,-0.205126
-28,575,0.49292,-3.87988,0,0,0,0,0,0,0,-1,1196,449,0.492941,3.87989
-21,575,0.910889,-15.0618,0,0,0,0,0,0,0,-1,1203,449,0.910846,15.0618
-14,575,1.62207,-14.9751,0,0,0,0,0,0,0,-1,1210,449,1.62204,14.9751
-7,575,2.55249,-12.4977,0,0,0,0,0,0,0,-1,1217,449,2.55245,12.4977
0,575,2.60303,-12.5684,0.0216033,-0.0103439,-0.00449781,0.0222245,-0.0109651,-0.137235,0.0195261,0.0451302,1224,449,2.60307,12.5684
7,575,2.47131,-12.474,0.0205173,-0.014385,-0.00470923,0.0211415,-0.0150093,-0.131787,0.0209715,0.0457141,1231,449,2.47128,12.474
14,575,2.59839,-12.5909,0.0184262,-0.018802,-0.00437537,0.0189336,-0.0193093,-0.115433,0.0220799,0.0464764,1238,449,2.59843,12.5909
21,575,3.03577,-12.6355,0.0164039,-0.0247215,-0.0029217,0.0166104,-0.024928,-0.0705714,0.024142,0.041786,1245,449,3.03572,12.6355
28,575,3.26587,-12.724,0.0134835,-0.030404,-0.000970939,0.013505,-0.0304254,-0.0221089,0.0259828,0.0413867,1252,449,3.26583,12.724
35,575,3.51392,-12.8849,0.0101572,-0.0353048,0.00192347,0.0102384,-0.0353861,0.0422088,0.0276429,0.0426615,1259,449,3.51387,12.8849
42,575,3.34509,-13.0116,0.00757965,-0.0394425,0.00506819,0.00811971,-0.0399826,0.106158,0.0297335,0.0456301,1266,449,3.34507,13.0116
49,575,3.50916,-13.2308,0.006243,-0.0426283,0.00817719,0.00757491,-0.0439602,0.161464,0.0321308,0.0447135,1273,449,3.50921,13.2308
56,575,3.90808,-13.5626,0.00488274,-0.0442791,0.0110487,0.0072517,-0.0466481,0.211212,0.0337764,0.0436149,1280,449,3.90807,13.5626
63,575,3.67029,-12.5488,0.00525047,-0.0445197,0.0135625,0.00870635,-0.0479755,0.249501,0.0352461,0.0438053,1287,449,3.67034,12.5488
70,575,3.53748,-11.6355,0.00668103,-0.0425896,0.0157523,0.0112867,-0.0471952,0.284451,0.0358234,0.0435883,1294,449,3.53744,11.6355
77,575,3.30481,-10.8416,0.00939487,-0.0382843,0.0174449,0.0150959,-0.0439854,0.315863,0.0354438,0.0453075,1301,449,3.30477,10.8416
84,575,3.09351,-10.6646,0,0,0,0,0,0,0,-1,1308,449,3.09346,10.6646
91,575,3.64441,-11.7829,0.0161886,-0.0237938,0.0182213,0.0232467,-0.0308519,0.369557,0.0313365,0.0453806,1315,449,3.64442,11.7829
98,575,4.06384,-10.9734,0.0195955,-0.015865,0.0182346,0.0272988,-0.0235683,0.39971,0.0293944,0.0432261,1322,449,4.0639,10.9734
105,575,3.9707,-10.0949,0,0,0,0,0,0,0,-1,1329,449,3.97065,10.0949
112,575,4.99036,-9.59351,0,0,0,0,0,0,0,-1,1336,449,4.99041,9.5935
119,575,5.71155,-8.67282,0,0,0,0,0,0,0,-1,1343,449,5.71151,8.67283
126,575,6.51843,-7.74982,0,0,0,0,0,0,0,-1,1350,449,6.51839,7.74981
133,575,6.86548,-6.59903,0,0,0,0,0,0,0,-1,1357,449,6.86553,6.59904
140,575,6.32849,-6.08624,0.0223794,0.0170342,0.0178601,0.0377657,0.00164782,0.711128,0.0246462,0.04776,1364,449,6.32845,6.08623
147,575,6.4541,-5.03189,0.0202014,0.0179606,0.0181017,0.0372173,0.000944713,0.754491,0.0245027,0.0480517,1371,449,6.45413,5.0319
154,575,6.31982,-3.99759,0,0,0,0,0,0,0,-1,1378,449,6.31988,3.9976
161,575,3.53992,-13.1912,0,0,0,0,0,0,0,-1,1385,449,3.53992,13.1912
168,575,9.2522,-0.307129,0,0,0,0,0,0,0,-1,1392,449,9.25225,0.307127
175,575,4.32617,1.93634,0,0,0,0,0,0,0,-1,1399,449,4.32612,-1.93634
182,575,6.3147,-2.88345,0,0,0,0,0,0,0,-1,1406,449,6.31466,2.88346
189,575,6.10449,-1.30817,0,0,0,0,0,0,0,-1,1413,449,6.10455,1.30817
196,575,5.79895,0.818359,0,0,0,0,0,0,0,-1,1420,449,5.79895,-0.81837
203,575,3.29724,-1.46378,0,0,0,0,0,0,0,-1,1427,449,3.29722,1.46377
210,575,2.32739,-7.74503,0,0,0,0,0,0,0,-1,1434,449,2.32741,7.74502
217,575,3.22815,-11.0961,0,0,0,0,0,0,0,-1,1441,449,3.2282,11.0961
224,575,3.61487,-11.3967,0,0,0,0,0,0,0,-1,1448,449,3.61488,11.3967
231,575,3.14258,-11.4528,0,0,0,0,0,0,0,-1,1455,449,3.1426,11.4527
238,575,3.15759,-11.5114,0,0,0,0,0,0,0,-1,1462,449,3.15757,11.5114
245,575,3.20691,-11.6683,0,0,0,0,0,0,0,-1,1469,449,3.20691,11.6683
252,575,3.36377,-11.3082,0,0,0,0,0,0,0,-1,1476,449,3.36374,11.3082
259,575,3.2655,-11.1476,0,0,0,0,0,0,0,-1,1483,449,3.26552,11.1476
266,575,3.27209,-10.9469,0,0,0,0,0,0,0,-1,1490,449,3.27208,10.9469
273,575,3.39758,-10.7042,0.000280919,0.00344664,-0.00113607,0.00381214,-8.45795e-05,-1.25953,0.00257009,0.0396063,1497,449,3.39758,10.7042
280,575,3.37732,-10.4242,0.000528236,0.00258098,-0.00116686,0.00310864,5.77536e-07,-1.14611,0.00207223,0.0251653,1504,449,3.37726,10.4242
287,575,3.33313,-10.3348,0.000476593,0.0018548,-0.00147188,0.00279091,-0.000459513,-1.00433,0.00203118,0.0142381,1511,449,3.33309,10.3348
294,575,3.36719,-10.174,0.000195842,0.00112867,-0.00167869,0.00240454,-0.00108002,-0.920903,0.00205969,0.00984213,1518,449,3.3672,10.174
301,575,3.36731,-10.0222,-8.89837e-05,0.000527226,-0.00178598,0.00203149,-0.00159324,-0.870814,0.00209783,0.00915941,1525,449,3.36734,10.0222
308,575,3.38245,-9.88528,-0.000287116,0.000198701,-0.00178452,0.00175676,-0.00184518,-0.853042,0.00207979,0.0101024,1532,449,3.3824,9.88528
315,575,3.38586,-9.73416,-0.000390262,4.08574e-05,-0.00174873,0.00158726,-0.00193666,-0.846722,0.00203787,0.0111468,1539,449,3.38587,9.73417
322,575,3.39783,-9.55643,-0.000473836,2.9116e-05,-0.00158673,0.00138418,-0.0018289,-0.863988,0.00186098,0.0103895,1546,449,3.39778,9.55642
329,575,3.38745,-9.39966,-0.000529831,3.27763e-05,-0.00133449,0.00111529,-0.00161235,-0.889274,0.0015835,0.0111315,1553,449,3.38748,9.39965
336,575,3.3833,-9.2117,-0.000639964,0.000233407,-0.00106299,0.000945909,-0.00135247,-0.980294,0.00133387,0.0128392,1560,449,3.38331,9.21171
343,575,3.39832,-9.03503,-0.000807113,0.000457668,-0.00079043,0.000837551,-0.001187,-1.12279,0.00117466,0.0124677,1567,449,3.39831,9.03503
350,575,3.39661,-8.86664,-0.000983347,0.000697544,-0.000507743,0.000839011,-0.00112481,-1.29907,0.00113781,0.0115924,1574,449,3.39665,8.86664
357,575,3.39307,-8.68988,-0.00120211,0.000990544,-0.000262533,0.00102154,-0.00123311,-1.45328,0.00130363,0.0108928,1581,449,3.39302,8.68987
364,575,3.39014,-8.51526,-0.00149073,0.0013144,-5.61149e-05,0.00131553,-0.00149185,-1.5508,0.00162191,0.0108195,1588,449,3.39015,8.51527
371,575,3.41138,-8.35831,-0.00181648,0.00163835,0.000100988,0.0016413,-0.00181943,1.5416,0.00199893,0.0195621,1595,449,3.4114,8.35829
378,575,3.41187,-8.15659,-0.00214062,0.00192631,0.000177383,0.00193403,-0.00214834,1.52729,0.00235804,0.0186484,1602,449,3.41189,8.15657
385,575,3.38013,-7.95993,-0.00243891,0.00204122,6.633e-05,0.00204221,-0.00243989,1.556,0.00259113,0.011536,1609,449,3.38009,7.95992
392,575,3.37915,-7.77069,-0.00257896,0.00193047,-5.92929e-05,0.00193124,-0.00257974,-1.55765,0.00261337,0.00910708,1616,449,3.37916,7.7707
399,575,3.36914,-7.58963,-0.00260973,0.00194473,-5.25263e-05,0.00194533,-0.00261033,-1.55927,0.00263954,0.0100794,1623,449,3.3692,7.58964
406,575,3.35071,-7.37723,-0.00257499,0.0019134,-0.000101332,0.00191568,-0.00257727,-1.54824,0.00260337,0.0112149,1630,449,3.3507,7.37722
413,575,3.33362,-7.16574,-0.00312696,0.00192268,-0.000266087,0.00193666,-0.00314094,-1.5183,0.00295891,0.0117097,1637,449,3.3336,7.16575
420,575,3.3158,-6.96231,-0.00396174,0.00178296,-0.000731242,0.00187458,-0.00405336,-1.44615,0.00349871,0.0130939,1644,449,3.31581,6.96231
427,575,3.27954,-6.80505,-0.00502658,0.00148348,-0.00133321,0.00174593,-0.00528903,-1.37643,0.00422986,0.0190703,1651,449,3.27957,6.80507
434,575,3.2135,-6.66684,-0.00628904,-0.0012345,-0.00339453,0.000470245,-0.00799379,-1.10539,0.00549265,0.0285042,1658,449,3.21351,6.66684
441,575,3.28723,-6.53763,-0.00747085,-0.00315609,-0.00476725,-8.07848e-05,-0.0105462,-0.997881,0.007004,0.0458946,1665,449,3.28726,6.53763
448,575,3.38757,-6.40323,0,0,0,0,0,0,0,-1,1672,449,3.38755,6.40323
455,575,2.88135,-4.53244,0,0,0,0,0,0,0,-1,1679,449,2.8814,4.53243
462,575,3.32581,-5.28757,0,0,0,0,0,0,0,-1,1686,449,3.32582,5.28758
469,575,2.46802,-5.37778,0,0,0,0,0,0,0,-1,1693,449,2.46802,5.37779
476,575,2.23242,-5.28415,0,0,0,0,0,0,0,-1,1700,449,2.23241,5.28416
483,575,1.63,-5.52939,-0.0270616,-0.0308158,-0.0262635,-0.00260816,-0.0552692,-0.749723,0.0360082,0.0442118,1707,449,1.63006,5.52939
490,575,1.55469,-5.33722,0,0,0,0,0,0,0,-1,1714,449,1.55467,5.33722
497,575,0,0,0,0,0,0,0,0,0,-1,1721,449,0,0
504,575,0,0,0,0,0,0,0,0,0,-1,1728,449,0,0
511,575,0,0,0,0,0,0,0,0,0,-1,1735,449,0,0
518,575,0,0,0,0,0,0,0,0,0,-1,1742,449,0,0
525,575,0,0,0,0,0,0,0,0,0,-1,1749,449,0,0
532,575,0,0,0,0,0,0,0,0,0,-1,1756,449,0,0
539,575,0,0,0,0,0,0,0,0,0,-1,1763,449,0,0
546,575,0,0,0,0,0,0,0,0,0,-1,1770,449,0,0
553,575,0,0,0,0,0,0,0,0,0,-1,1777,449,0,0
560,575,0,0,0,0,0,0,0,0,0,-1,1784,449,0,0
567,575,0,0,0,0,0,0,0,0,0,-1,1791,449,0,0
574,575,0,0,0,0,0,0,0,0,0,-1,1798,449,0,0
581,575,0,0,0,0,0,0,0,0,0,-1,1805,449,0,0
588,575,0,0,0,0,0,0,0,0,0,-1,1812,449,0,0
595,575,0,0,0,0,0,0,0,0,0,-1,1819,449,0,0
602,575,0,0,0,0,0,0,0,0,0,-1,1826,449,0,0
609,575,0,0,0,0,0,0,0,0,0,-1,1833,449,0,0
616,575,0,0,0,0,0,0,0,0,0,-1,1840,449,0,0
623,575,0,0,0,0,0,0,0,0,0,-1,1847,449,0,0
630,575,0,0,0,0,0,0,0,0,0,-1,1854,449,0,0
637,575,0,0,0,0,0,0,0,0,0,-1,1861,449,0,0
644,575,0,0,0,0,0,0,0,0,0,-1,1868,449,0,0
651,575,0,0,0,0,0,0,0,0,0,-1,1875,449,0,0
658,575,0,0,0,0,0,0,0,0,0,-1,1882,449,0,0
665,575,0,0,0,0,0,0,0,0,0,-1,1889,449,0,0
672,575,0,0,0,0,0,0,0,0,0,-1,1896,449,0,0
679,575,0,0,0,0,0,0,0,0,0,-1,1903,449,0,0
686,575,0,0,0,0,0,0,0,0,0,-1,1910,449,0,0
693,575,0,0,0,0,0,0,0,0,0,-1,1917,449,0,0
700,575,0,0,0,0,0,0,0,0,0,-1,1924,449,0,0
707,575,0,0,0,0,0,0,0,0,0,-1,1931,449,0,0
714,575,0,0,0,0,0,0,0,0,0,-1,1938,449,0,0
721,575,0,0,0,0,0,0,0,0,0,-1,1945,449,0,0
728,575,0,0,0,0,0,0,0,0,0,-1,1952,449,0,0
735,575,0,0,0,0,0,0,0,0,0,-1,1959,449,0,0
742,575,0,0,0,0,0,0,0,0,0,-1,1966,449,0,0
749,575,0,0,0,0,0,0,0,0,0,-1,1973,449,0,0
756,575,0,0,0,0,0,0,0,0,0,-1,1980,449,0,0
763,575,0,0,0,0,0,0,0,0,0,-1,1987,449,0,0
770,575,0,0,0,0,0,0,0,0,0,-1,1994,449,0,0
777,575,0,0,0,0,0,0,0,0,0,-1,2001,449,0,0
784,575,0,0,0,0,0,0,0,0,0,-1,2008,449,0,0
791,575,0,0,0,0,0,0,0,0,0,-1,2015,449,0,0
798,575,0,0,0,0,0,0,0,0,0,-1,2022,449,0,0
805,575,0,0,0,0,0,0,0,0,0,-1,2029,449,0,0
812,575,0,0,0,0,0,0,0,0,0,-1,2036,449,0,0
-700,568,0,0,0,0,0,0,0,0,0,-1,524,456,0,0
-693,568,0,0,0,0,0,0,0,0,0,-1,531,456,0,0
-686,568,0,0,0,0,0,0,0,0,0,-1,538,456,0,0
-679,568,0,0,0,0,0,0,0,0,0,-1,545,456,0,0
-672,568,0,0,0,0,0,0,0,0,0,-1,552,456,0,0
-665,568,0,0,0,0,0,0,0,0,0,-1,559,456,0,0
-658,568,0,0,0,0,0,0,0,0,0,-1,566,456,0,0
-651,568,0,0,0,0,0,0,0,0,0,-1,573,456,0,0
-644,568,0,0,0,0,0,0,0,0,0,-1,580,456,0,0
-637,568,0,0,0,0,0,0,0,0,0,-1,587,456,0,0
-630,568,0,0,0,0,0,0,0,0,0,-1,594,456,0,0
-623,568,0,0,0,0,0,0,0,0,0,-1,601,456,0,0
-616,568,0,0,0,0,0,0,0,0,0,-1,608,456,0,0
-609,568,0,0,0,0,0,0,0,0,0,-1,615,456,0,0
-602,568,0,0,0,0,0,0,0,0,0,-1,622,456,0,0
-595,568,0,0,0,0,0,0,0,0,0,-1,629,456,0,0
-588,568,0,0,0,0,0,0,0,0,0,-1,636,456,0,0
-581,568,0,0,0,0,0,0,0,0,0,-1,643,456,0,0
-574,568,0,0,0,0,0,0,0,0,0,-1,650,456,0,0
-567,568,0,0,0,0,0,0,0,0,0,-1,657,456,0,0
-560,568,0,0,0,0,0,0,0,0,0,-1,664,456,0,0
-553,568,0,0,0,0,0,0,0,0,0,-1,671,456,0,0
-546,568,0,0,0,0,0,0,0,0,0,-1,678,456,0,0
-539,568,0,0,0,0,0,0,0,0,0,-1,685,456,0,0
-532,568,0,0,0,0,0,0,0,0,0,-1,692,456,0,0
-525,568,0,0,0,0,0,0,0,0,0,-1,699,456,0,0
-518,568,0,0,0,0,0,0,0,0,0,-1,706,456,0,0
-511,568,0,0,0,0,0,0,0,0,0,-1,713,456,0,0
-504,568,0,0,0,0,0,0,0,0,0,-1,720,456,0,0
-497,568,0,0,0,0,0,0,0,0,0,-1,727,456,0,0
-490,568,0,0,0,0,0,0,0,0,0,-1,734,456,0,0
-483,568,0,0,0,0,0,0,0,0,0,-1,741,456,0,0
-476,568,0,0,0,0,0,0,0,0,0,-1,748,456,0,0
-469,568,0,0,0,0,0,0,0,0,0,-1,755,456,0,0
-462,568,0,0,0,0,0,0,0,0,0,-1,762,456,0,0
-455,568,0,0,0,0,0,0,0,0,0,-1,769,456,0,0
-448,568,0,0,0,0,0,0,0,0,0,-1,776,456,0,0
-441,568,0,0,0,0,0,0,0,0,0,-1,783,456,0,0
-434,568,0,0,0,0,0,0,0,0,0,-1,790,456,0,0
-427,568,0,0,0,0,0,0,0,0,0,-1,797,456,0,0
-420,568,0,0,0,0,0,0,0,0,0,-1,804,456,0,0
-413,568,0,0,0,0,0,0,0,0,0,-1,811,456,0,0
-406,568,0,0,0,0,0,0,0,0,0,-1,818,456,0,0
-399,568,0,0,0,0,0,0,0,0,0,-1,825,456,0,0
-392,568,0,0,0,0,0,0,0,0,0,-1,832,456,0,0
-385,568,0,0,0,0,0,0,0,0,0,-1,839,456,0,0
-378,568,0.0559082,-3.97311,0,0,0,0,0,0,0,-1,846,456,0.0559355,3.97311
-371,568,0.428345,-4.25775,0,0,0,0,0,0,0,-1,853,456,0.428339,4.25776
-364,568,1.06445,-4.49878,0,0,0,0,0,0,0,-1,860,456,1.06443,4.49877
-357,568,1.72162,-7.40503,0,0,0,0,0,0,0,-1,867,456,1.72162,7.40502
-350,568,0.518005,-6.60342,0,0,0,0,0,0,0,-1,874,456,0.518007,6.60342
-343,568,0.648132,-6.31827,0,0,0,0,0,0,0,-1,881,456,0.648129,6.31826
-336,568,1.63416,-6.9964,0,0,0,0,0,0,0,-1,888,456,1.63418,6.99641
-329,568,1.63214,-6.9664,-0.0182432,-0.0135856,-0.000906425,-0.0134154,-0.0184134,-1.38521,0.010995,0.0444417,895,456,1.63213,6.96639
-322,568,1.85413,-6.98001,-0.0137482,-0.012019,-0.00190304,-0.0107934,-0.0149739,-0.998629,0.00892176,0.0409098,902,456,1.85413,6.98001
-315,568,1.435,-7.66644,-0.00978878,-0.0102148,-0.00261446,-0.00737867,-0.0126249,-0.744751,0.00732358,0.0363304,909,456,1.43501,7.66644
-308,568,1.30457,-7.85864,-0.00687861,-0.0087311,-0.00297893,-0.00468525,-0.0109245,-0.634671,0.00632847,0.0257925,916,456,1.30455,7.85865
-301,568,1.3277,-8.00476,-0.00473004,-0.00722615,-0.00319788,-0.0025453,-0.00941089,-0.599351,0.00562099,0.014395,923,456,1.3277,8.00477
-294,568,1.29071,-8.15344,-0.00318554,-0.00574216,-0.00335871,-0.000870099,-0.0080576,-0.603564,0.00510647,0.0109891,930,456,1.29071,8.15345
-287,568,1.26068,-8.34106,-0.00191705,-0.00446151,-0.0034102,0.000450501,-0.00682907,-0.606861,0.00471007,0.0098064,937,456,1.2607,8.34108
-280,568,1.27057,-8.51511,-0.00109028,-0.00353957,-0.00324655,0.00115493,-0.00578477,-0.605043,0.00429358,0.0100241,944,456,1.2706,8.51509
-273,568,1.27209,-8.69656,-0.0003547,-0.00281195,-0.00306621,0.00171988,-0.00488653,-0.594844,0.00395757,0.0103996,951,456,1.27211,8.69657
-266,568,1.25964,-8.88849,-0.000159577,-0.00181451,-0.00242899,0.00157902,-0.00355311,-0.621231,0.00303522,0.0106358,958,456,1.25965,8.8885
-259,568,1.24854,-9.05658,-0.000127837,-0.00108098,-0.00214826,0.00159608,-0.0028049,-0.676245,0.00257265,0.0118727,965,456,1.24851,9.05659
-252,568,1.21887,-9.20245,-0.000342229,-0.00071484,-0.00169847,0.00118012,-0.00223719,-0.730771,0.0020042,0.0117588,972,456,1.21887,9.20247
-245,568,1.22565,-9.37317,-0.00059314,-0.000339583,-0.00118929,0.000729664,-0.00166239,-0.838498,0.00141562,0.0135856,979,456,1.22567,9.37317
-238,568,1.24518,-9.54721,-0.000607144,-7.35333e-05,-0.000757388,0.000462669,-0.00114335,-0.954746,0.00095459,0.0117609,986,456,1.24515,9.54722
-231,568,1.21606,-9.69412,-0.000726707,4.54783e-05,-0.000308027,0.000153297,-0.000834526,-1.2341,0.000613863,0.00986526,993,456,1.21608,9.69413
-224,568,1.21448,-9.84906,-0.000654651,9.25312e-05,4.51484e-05,9.52494e-05,-0.00065737,1.51066,0.000473203,0.0109881,1000,456,1.21451,9.84905
-217,568,1.24445,-9.99667,-0.000417049,0.000117213,0.000258588,0.00022187,-0.000521707,1.18622,0.000440785,0.0106801,1007,456,1.24447,9.99667
-210,568,1.25214,-10.1458,-0.000169007,9.926e-05,0.000171805,0.000183091,-0.000252839,1.11684,0.000252756,0.0112028,1014,456,1.25216,10.1457
-203,568,1.24597,-10.2986,0.000138981,0.000243173,-0.000141323,0.000341696,4.04577e-05,-0.961986,0.00021558,0.00985765,1021,456,1.24595,10.2986
-196,568,1.27051,-10.4276,0.00052719,0.000414137,-0.000565027,0.00103851,-9.71834e-05,-0.735543,0.000726904,0.0127899,1028,456,1.27046,10.4276
-189,568,1.29028,-10.5403,0.000780434,0.000580751,-0.00144009,0.00212414,-0.000762951,-0.750789,0.00172751,0.0129016,1035,456,1.29028,10.5403
-182,568,1.28333,-10.671,0.000837358,0.000700322,-0.0021802,0.00295011,-0.00141243,-0.76969,0.00257034,0.0137145,1042,456,1.28334,10.671
-175,568,1.29651,-10.8153,0.00108199,0.000886604,-0.00310878,0.00409461,-0.00212602,-0.769691,0.00365094,0.0120242,1049,456,1.29656,10.8153
-168,568,1.31201,-10.9244,0.00118484,0.000875382,-0.00407047,0.00510352,-0.0030433,-0.766401,0.00475344,0.0161696,1056,456,1.31203,10.9244
-161,568,1.30701,-11.0314,0.00102393,0.000415252,-0.00504126,0.00577004,-0.00433085,-0.75525,0.00585145,0.0254353,1063,456,1.30696,11.0314
-154,568,1.42297,-11.2843,0.00079166,0.000153773,-0.00575452,0.00623607,-0.00529064,-0.757714,0.00666241,0.0321296,1070,456,1.42294,11.2843
-147,568,1.51538,-11.3338,0.000711053,0.000112599,-0.00632436,0.00674327,-0.00591961,-0.761759,0.00731607,0.0382485,1077,456,1.5154,11.3338
-140,568,1.45154,-11.4171,0.000259433,-0.000709333,-0.00627648,0.00607019,-0.00652009,-0.746887,0.00727055,0.0442992,1084,456,1.45156,11.4172
-133,568,1.40515,-11.4413,-0.000760806,-0.00183081,-0.00585587,0.00458445,-0.00717606,-0.739844,0.00684467,0.0479359,1091,456,1.40518,11.4413
-126,568,1.56384,-11.5156,0,0,0,0,0,0,0,-1,1098,456,1.56384,11.5156
-119,568,1.38245,-11.1618,0,0,0,0,0,0,0,-1,1105,456,1.38247,11.1618
-112,568,1.27625,-11.1902,0,0,0,0,0,0,0,-1,1112,456,1.27627,11.1902
-105,568,1.23718,-11.4586,0,0,0,0,0,0,0,-1,1119,456,1.2372,11.4586
-98,568,1.72205,-11.8731,0,0,0,0,0,0,0,-1,1126,456,1.72209,11.8731
-91,568,1.11621,-11.1853,0,0,0,0,0,0,0,-1,1133,456,1.11626,11.1853
-84,568,0.461792,-9.7959,0,0,0,0,0,0,0,-1,1140,456,0.461793,9.7959
-77,568,-1.13806,-8.57822,0,0,0,0,0,0,0,-1,1147,456,-1.13807,8.57821
-70,568,-4.09766,-1.42911,0,0,0,0,0,0,0,-1,1154,456,-4.09767,1.4291
-63,568,-5.92273,-3.70752,0,0,0,0,0,0,0,-1,1161,456,-5.92272,3.70751
-56,568,-5.24158,-6.01385,0,0,0,0,0,0,0,-1,1168,456,-5.24161,6.01386
-49,568,-5.24365,-8.33557,0,0,0,0,0,0,0,-1,1175,456,-5.24371,8.33557
-42,568,-0.664795,0.521973,0,0,0,0,0,0,0,-1,1182,456,-0.664829,-0.521984
-35,568,-0.153076,-1.67731,0,0,0,0,0,0,0,-1,1189,456,-0.153068,1.67731
-28,568,1.25439,-4.48798,0,0,0,0,0,0,0,-1,1196,456,1.2544,4.48797
-21,568,1.05359,-11.6162,0,0,0,0,0,0,0,-1,1203,456,1.0536,11.6162
-14,568,2.19751,-12.472,0,0,0,0,0,0,0,-1,1210,456,2.19751,12.472
-7,568,2.39087,-12.4985,0.0250551,-0.00569287,-0.00207496,0.0251945,-0.00583226,-0.0670775,0.0190405,0.0477295,1217,456,2.39088,12.4985
0,568,2.4845,-12.4499,0.0261966,-0.0102,-0.00349069,0.0265283,-0.0105317,-0.0947562,0.022051,0.0486308,1224,456,2.48445,12.4499
7,568,2.52417,-12.5334,0.0251281,-0.0158822,-0.00344309,0.0254152,-0.0161693,-0.0831807,0.0242058,0.0449602,1231,456,2.52412,12.5334
14,568,2.78027,-12.631,0.0229997,-0.0224711,-0.0027377,0.0231639,-0.0226354,-0.0599194,0.0264428,0.0431992,1238,456,2.78029,12.631
21,568,3.15991,-12.4293,0.021065,-0.0311072,-0.000565335,0.0210711,-0.0311133,-0.0108343,0.0303141,0.0404125,1245,456,3.15994,12.4293
28,568,3.47876,-12.1945,0.0178601,-0.0391915,0.00215454,0.0179413,-0.0392728,0.0376932,0.0337892,0.041495,1252,456,3.47871,12.1946
35,568,3.76135,-12.2665,0,0,0,0,0,0,0,-1,1259,456,3.76141,12.2665
42,568,3.22974,-12.7032,0,0,0,0,0,0,0,-1,1266,456,3.22968,12.7032
49,568,3.41626,-12.9557,0,0,0,0,0,0,0,-1,1273,456,3.41629,12.9558
56,568,4.15735,-12.582,0.00770053,-0.0564202,0.0165438,0.0117174,-0.0604371,0.238191,0.0447119,0.0458179,1280,456,4.15735,12.582
63,568,4.01685,-11.6651,0.00753714,-0.0564803,0.0194749,0.0129961,-0.0619393,0.273296,0.0462378,0.0457855,1287,456,4.01689,11.6651
70,568,4.10083,-10.9742,0,0,0,0,0,0,0,-1,1294,456,4.10085,10.9742
77,568,3.9425,-10.2692,0,0,0,0,0,0,0,-1,1301,456,3.94248,10.2692
84,568,3.78406,-9.56418,0,0,0,0,0,0,0,-1,1308,456,3.7841,9.56419
91,568,3.95544,-11.9302,0.0191267,-0.0279627,0.0242716,0.0293971,-0.0382331,0.4003,0.0391572,0.0428208,1315,456,3.95544,11.9302
98,568,4.48938,-11.4015,0.0228597,-0.0177825,0.0241408,0.0340937,-0.0290165,0.435548,0.036476,0.0454641,1322,456,4.48934,11.4015
105,568,5.00134,-10.8397,0,0,0,0,0,0,0,-1,1329,456,5.00133,10.8397
112,568,5.27148,-9.98724,0,0,0,0,0,0,0,-1,1336,456,5.27149,9.98725
119,568,5.87756,-9.0975,0.028615,0.00993209,0.0231899,0.0442743,-0.00572715,0.593929,0.0315987,0.0455802,1343,456,5.87752,9.09751
126,568,6.36682,-8.2561,0.0282702,0.0177377,0.0231548,0.0467501,-0.000742158,0.673581,0.031417,0.0472142,1350,456,6.36687,8.25611
133,568,6.69189,-7.18707,0,0,0,0,0,0,0,-1,1357,456,6.69194,7.18706
140,568,7.09338,-6.22198,0.0259409,0.0221992,0.0235499,0.0476941,0.000445934,0.74576,0.0316485,0.0457206,1364,456,7.09341,6.22199
147,568,7.24023,-5.22195,0.023374,0.0233807,0.0237754,0.0471527,-0.000398014,0.785468,0.0315687,0.0459052,1371,456,7.24028,5.22196
154,568,7.30054,-4.13367,0.0193767,0.0223163,0.0235165,0.0444089,-0.00271593,0.816607,0.0305515,0.0493005,1378,456,7.30057,4.13365
161,568,7.38342,-3.11777,0,0,0,0,0,0,0,-1,1385,456,7.38346,3.11777
168,568,9.09583,-0.563782,0,0,0,0,0,0,0,-1,1392,456,9.09586,0.563788
175,568,10.5151,0.747498,0,0,0,0,0,0,0,-1,1399,456,10.5152,-0.747501
182,568,6.35095,-3.63361,0,0,0,0,0,0,0,-1,1406,456,6.35093,3.63359
189,568,6.17493,-1.70911,0,0,0,0,0,0,0,-1,1413,456,6.17497,1.70911
196,568,6.04724,0.200836,0,0,0,0,0,0,0,-1,1420,456,6.04724,-0.200835
203,568,5.9281,2.08649,0,0,0,0,0,0,0,-1,1427,456,5.92812,-2.08648
210,568,1.46216,-2.50446,0,0,0,0,0,0,0,-1,1434,456,1.46219,2.50446
217,568,2.62366,-7.86703,0,0,0,0,0,0,0,-1,1441,456,2.62365,7.86704
224,568,1.89819,-7.62418,0,0,0,0,0,0,0,-1,1448,456,1.89817,7.62418
231,568,4.38245,-9.3205,0,0,0,0,0,0,0,-1,1455,456,4.38244,9.32048
238,568,3.88123,-9.43616,0,0,0,0,0,0,0,-1,1462,456,3.88117,9.43617
245,568,3.34387,-10.6774,0,0,0,0,0,0,0,-1,1469,456,3.34389,10.6774
252,568,3.56946,-9.28928,0,0,0,0,0,0,0,-1,1476,456,3.56948,9.28928
259,568,3.38843,-8.73068,0,0,0,0,0,0,0,-1,1483,456,3.38842,8.73068
266,568,3.104,-9.16876,0,0,0,0,0,0,0,-1,1490,456,3.10397,9.16876
273,568,3.51099,-10.9314,0,0,0,0,0,0,0,-1,1497,456,3.51098,10.9314
280,568,3.40601,-10.6299,0,0,0,0,0,0,0,-1,1504,456,3.40596,10.6299
287,568,3.55762,-10.304,0.000329678,0.00209042,-0.00215239,0.00353552,-0.00111542,-0.979527,0.00280378,0.0373189,1511,456,3.55763,10.304
294,568,3.57092,-10.1863,8.55235e-06,0.00114033,-0.00245833,0.00309706,-0.00194817,-0.898524,0.00293793,0.0267415,1518,456,3.57088,10.1863
301,568,3.53882,-10.0323,-0.000318364,0.00039545,-0.00264064,0.00270319,-0.0026261,-0.852571,0.00307698,0.0198396,1525,456,3.53882,10.0323
308,568,3.54077,-9.86206,-0.000603352,-5.92357e-05,-0.00272272,0.00240498,-0.00306757,-0.835194,0.00316729,0.0124082,1532,456,3.54078,9.86205
315,568,3.54761,-9.71707,-0.000804926,-0.000292963,-0.0027561,0.00221902,-0.00331691,-0.831704,0.00321705,0.00829809,1539,456,3.54764,9.71706
322,568,3.56201,-9.55981,-0.000947435,-0.000335984,-0.00260123,0.00197743,-0.00326085,-0.843895,0.00305443,0.00988746,1546,456,3.56201,9.55983
329,568,3.56506,-9.38489,-0.000984283,-0.000366058,-0.00233998,0.00168513,-0.00303547,-0.851068,0.00276236,0.0102732,1553,456,3.56501,9.38488
336,568,3.57104,-9.20004,-0.000991838,-0.000204311,-0.00199624,0.00143663,-0.00263278,-0.882774,0.00238307,0.0109822,1560,456,3.57104,9.20003
343,568,3.59241,-9.0361,-0.00110713,-9.53256e-05,-0.00167091,0.00114459,-0.00234705,-0.932396,0.00205536,0.0111631,1567,456,3.59238,9.03609
350,568,3.58459,-8.87863,-0.00119915,4.4409e-05,-0.0013361,0.000896322,-0.00205106,-1.00318,0.00174466,0.0101354,1574,456,3.58458,8.87864
357,568,3.58081,-8.69424,-0.00127924,0.000255916,-0.00102436,0.000768371,-0.0017917,-1.10693,0.00151691,0.00923582,1581,456,3.58086,8.69423
364,568,3.58545,-8.5351,-0.0014079,0.000521158,-0.000722101,0.000761513,-0.00164826,-1.24948,0.00142233,0.0115155,1588,456,3.58546,8.53511
371,568,3.61438,-8.35049,-0.00155499,0.000774523,-0.000458424,0.000861489,-0.00164196,-1.38332,0.00146859,0.021206,1595,456,3.61439,8.35048
378,568,3.6333,-8.14783,-0.00165689,0.00104479,-0.000250584,0.00106784,-0.00167994,-1.47909,0.00159949,0.0196303,1602,456,3.63327,8.14783
385,568,3.57739,-7.96509,-0.00175261,0.00116852,-0.000193022,0.00118122,-0.0017653,-1.5051,0.00171228,0.00926072,1609,456,3.5774,7.96509
392,568,3.5658,-7.77512,-0.00176918,0.00111229,-0.000167388,0.00112198,-0.00177887,-1.51296,0.00168906,0.00973682,1616,456,3.56583,7.77512
399,568,3.53687,-7.61014,-0.00170616,0.00118529,-5.92698e-05,0.00118651,-0.00170737,-1.55031,0.00167978,0.0169157,1623,456,3.53691,7.61014
406,568,3.55017,-7.3877,-0.00160498,0.00123238,6.58055e-06,0.00123239,-0.00160499,1.56848,0.00164286,0.0163591,1630,456,3.55016,7.3877
413,568,3.53748,-7.16324,-0.00197381,0.0013528,-5.0127e-06,0.00135281,-0.00197381,-1.56929,0.00193175,0.0114748,1637,456,3.5375,7.16323
420,568,3.53406,-6.95172,-0.00257166,0.00133821,-0.000254387,0.00135469,-0.00258814,-1.5061,0.00231323,0.00964297,1644,456,3.53405,6.95173
427,568,3.52478,-6.73929,-0.0033652,0.00121053,-0.000627862,0.00129512,-0.00344979,-1.43688,0.00283206,0.0116569,1651,456,3.5248,6.73928
434,568,3.53442,-6.5737,-0.00437573,-0.000636901,-0.00204295,0.000262866,-0.0052755,-1.15593,0.00360782,0.0146865,1658,456,3.53447,6.5737
441,568,3.51086,-6.44653,-0.00541097,-0.00186975,-0.00300656,-0.000151169,-0.00712955,-1.05151,0.00470345,0.0225063,1665,456,3.51085,6.44652
448,568,3.56128,-6.01224,-0.00733035,-0.00352723,-0.00455452,-0.000493246,-0.0103643,-0.983153,0.00675115,0.0406779,1672,456,3.56133,6.01224
455,568,3.55444,-5.63129,0,0,0,0,0,0,0,-1,1679,456,3.55439,5.6313
462,568,3.52734,-5.46045,-0.012352,-0.00828794,-0.00908385,-0.00101161,-0.0196283,-0.895435,0.0127617,0.0475941,1686,456,3.52733,5.46046
469,568,3.0675,-5.40271,-0.0150045,-0.0118039,-0.0117296,-0.00156593,-0.0252424,-0.853195,0.0163313,0.041756,1693,456,3.06744,5.40272
476,568,2.83704,-5.18231,-0.0176066,-0.0165499,-0.014776,-0.00229282,-0.0318637,-0.803269,0.0205209,0.0463783,1700,456,2.83703,5.1823
483,568,2.56848,-4.88461,-0.0198875,-0.0226129,-0.017922,-0.00327651,-0.0392239,-0.747454,0.0251284,0.0480352,1707,456,2.56853,4.88461
490,568,2.37109,-4.57193,0,0,0,0,0,0,0,-1,1714,456,2.37115,4.57194
497,568,6.58289,-3.47745,0,0,0,0,0,0,0,-1,1721,456,6.58294,3.47744
504,568,0,0,0,0,0,0,0,0,0,-1,1728,456,0,0
511,568,0,0,0,0,0,0,0,0,0,-1,1735,456,0,0
518,568,0,0,0,0,0,0,0,0,0,-1,1742,456,0,0
525,568,0,0,0,0,0,0,0,0,0,-1,1749,456,0,0
532,568,0,0,0,0,0,0,0,0,0,-1,1756,456,0,0
539,568,0,0,0,0,0,0,0,0,0,-1,1763,456,0,0
546,568,0,0,0,0,0,0,0,0,0,-1,1770,456,0,0
553,568,0,0,0,0,0,0,0,0,0,-1,1777,456,0,0
560,568,0,0,0,0,0,0,0,0,0,-1,1784,456,0,0
567,568,0,0,0,0,0,0,0,0,0,-1,1791,456,0,0
574,568,0,0,0,0,0,0,0,0,0,-1,1798,456,0,0
581,568,0,0,0,0,0,0,0,0,0,-1,1805,456,0,0
588,568,0,0,0,0,0,0,0,0,0,-1,1812,456,0,0
595,568,0,0,0,0,0,0,0,0,0,-1,1819,456,0,0
602,568,0,0,0,0,0,0,0,0,0,-1,1826,456,0,0
609,568,0,0,0,0,0,0,0,0,0,-1,1833,456,0,0
616,568,0,0,0,0,0,0,0,0,0,-1,1840,456,0,0
623,568,0,0,0,0,0,0,0,0,0,-1,1847,456,0,0
630,568,0,0,0,0,0,0,0,0,0,-1,1854,456,0,0
637,568,0,0,0,0,0,0,0,0,0,-1,1861,456,0,0
644,568,0,0,0,0,0,0,0,0,0,-1,1868,456,0,0
651,568,0,0,0,0,0,0,0,0,0,-1,1875,456,0,0
658,568,0,0,0,0,0,0,0,0,0,-1,1882,456,0,0
665,568,0,0,0,0,0,0,0,0,0,-1,1889,456,0,0
672,568,0,0,0,0,0,0,0,0,0,-1,1896,456,0,0
679,568,0,0,0,0,0,0,0,0,0,-1,1903,456,0,0
686,568,0,0,0,0,0,0,0,0,0,-1,1910,456,0,0
693,568,0,0,0,0,0,0,0,0,0,-1,1917,456,0,0
700,568,0,0,0,0,0,0,0,0,0,-1,1924,456,0,0
707,568,0,0,0,0,0,0,0,0,0,-1,1931,456,0,0
714,568,0,0,0,0,0,0,0,0,0,-1,1938,456,0,0
721,568,0,0,0,0,0,0,0,0,0,-1,1945,456,0,0
728,568,0,0,0,0,0,0,0,0,0,-1,1952,456,0,0
735,568,0,0,0,0,0,0,0,0,0,-1,1959,456,0,0
742,568,0,0,0,0,0,0,0,0,0,-1,1966,456,0,0
749,568,0,0,0,0,0,0,0,0,0,-1,1973,456,0,0
756,568,0,0,0,0,0,0,0,0,0,-1,1980,456,0,0
763,568,0,0,0,0,0,0,0,0,0,-1,1987,456,0,0
770,568,0,0,0,0,0,0,0,0,0,-1,1994,456,0,0
777,568,0,0,0,0,0,0,0,0,0,-1,2001,456,0,0
784,568,0,0,0,0,0,0,0,0,0,-1,2008,456,0,0
791,568,0,0,0,0,0,0,0,0,0,-1,2015,456,0,0
798,568,0,0,0,0,0,0,0,0,0,-1,2022,456,0,0
805,568,0,0,0,0,0,0,0,0,0,-1,2029,456,0,0
812,568,0,0,0,0,0,0,0,0,0,-1,2036,456,0,0
-700,561,0,0,0,0,0,0,0,0,0,-1,524,463,0,0
-693,561,0,0,0,0,0,0,0,0,0,-1,531,463,0,0
-686,561,0,0,0,0,0,0,0,0,0,-1,538,463,0,0
-679,561,0,0,0,0,0,0,0,0,0,-1,545,463,0,0
-672,561,0,0,0,0,0,0,0,0,0,-1,552,463,0,0
-665,561,0,0,0,0,0,0,0,0,0,-1,559,463,0,0
-658,561,0,0,0,0,0,0,0,0,0,-1,566,463,0,0
-651,561,0,0,0,0,0,0,0,0,0,-1,573,463,0,0
-644,561,0,0,0,0,0,0,0,0,0,-1,580,463,0,0
-637,561,0,0,0,0,0,0,0,0,0,-1,587,463,0,0
-630,561,0,0,0,0,0,0,0,0,0,-1,594,463,0,0
-623,561,0,0,0,0,0,0,0,0,0,-1,601,463,0,0
-616,561,0,0,0,0,0,0,0,0,0,-1,608,463,0,0
-609,561,0,0,0,0,0,0,0,0,0,-1,615,463,0,0
-602,561,0,0,0,0,0,0,0,0,0,-1,622,463,0,0
-595,561,0,0,0,0,0,0,0,0,0,-1,629,463,0,0
-588,561,0,0,0,0,0,0,0,0,0,-1,636,463,0,0
-581,561,0,0,0,0,0,0,0,0,0,-1,643,463,0,0
-574,561,0,0,0,0,0,0,0,0,0,-1,650,463,0,0
-567,561,0,0,0,0,0,0,0,0,0,-1,657,463,0,0
-560,561,0,0,0,0,0,0,0,0,0,-1,664,463,0,0
-553,561,0,0,0,0,0,0,0,0,0,-1,671,463,0,0
-546,561,0,0,0,0,0,0,0,0,0,-1,678,463,0,0
-539,561,0,0,0,0,0,0,0,0,0,-1,685,463,0,0
-532,561,0,0,0,0,0,0,0,0,0,-1,692,463,0,0
-525,561,0,0,0,0,0,0,0,0,0,-1,699,463,0,0
-518,561,0,0,0,0,0,0,0,0,0,-1,706,463,0,0
-511,561,0,0,0,0,0,0,0,0,0,-1,713,463,0,0
-504,561,0,0,0,0,0,0,0,0,0,-1,720,463,0,0
-497,561,0,0,0,0,0,0,0,0,0,-1,727,463,0,0
-490,561,0,0,0,0,0,0,0,0,0,-1,734,463,0,0
-483,561,0,0,0,0,0,0,0,0,0,-1,741,463,0,0
-476,561,0,0,0,0,0,0,0,0,0,-1,748,463,0,0
-469,561,0,0,0,0,0,0,0,0,0,-1,755,463,0,0
-462,561,0,0,0,0,0,0,0,0,0,-1,762,463,0,0
-455,561,0,0,0,0,0,0,0,0,0,-1,769,463,0,0
-448,561,0,0,0,0,0,0,0,0,0,-1,776,463,0,0
-441,561,0,0,0,0,0,0,0,0,0,-1,783,463,0,0
-434,561,0,0,0,0,0,0,0,0,0,-1,790,463,0,0
-427,561,0,0,0,0,0,0,0,0,0,-1,797,463,0,0
-420,561,0,0,0,0,0,0,0,0,0,-1,804,463,0,0
-413,561,0,0,0,0,0,0,0,0,0,-1,811,463,0,0
-406,561,0,0,0,0,0,0,0,0,0,-1,818,463,0,0
-399,561,0,0,0,0,0,0,0,0,0,-1,825,463,0,0
-392,561,-0.498413,-4.28265,0,0,0,0,0,0,0,-1,832,463,-0.49843,4.28265
-385,561,-0.50647,-4.17508,0,0,0,0,0,0,0,-1,839,463,-0.506441,4.17507
-378,561,-0.194885,-3.97186,0,0,0,0,0,0,0,-1,846,463,-0.194871,3.97187
-371,561,0.185974,-4.26169,0,0,0,0,0,0,0,-1,853,463,0.185967,4.2617
-364,561,0.57135,-4.56784,0,0,0,0,0,0,0,-1,860,463,0.571359,4.56785
-357,561,1.24811,-6.42285,0,0,0,0,0,0,0,-1,867,463,1.24812,6.42284
-350,561,0.878784,-6.34097,0,0,0,0,0,0,0,-1,874,463,0.878771,6.34098
-343,561,1.55988,-7.00513,0,0,0,0,0,0,0,-1,881,463,1.55988,7.00514
-336,561,1.44586,-7.05005,-0.016245,-0.00966563,0.000551186,-0.00961978,-0.0162909,1.48779,0.00945676,0.0470049,888,463,1.44586,7.05006
-329,561,1.26202,-7.18097,-0.0134015,-0.00917218,-0.000227335,-0.00915999,-0.0134137,-1.51725,0.0079152,0.035634,895,463,1.262,7.18096
-322,561,1.16663,-7.34583,-0.0103705,-0.00820787,-0.000979939,-0.00782989,-0.0107484,-1.20266,0.00641793,0.028925,902,463,1.1666,7.34582
-315,561,1.1637,-7.54065,-0.00759837,-0.00702529,-0.00151412,-0.00577084,-0.00885282,-0.878916,0.00518917,0.019835,909,463,1.16369,7.54065
-308,561,1.14111,-7.75812,-0.00527703,-0.00608576,-0.00186599,-0.00377209,-0.00759069,-0.678697,0.00438252,0.01503,916,463,1.1411,7.75811
-301,561,1.1424,-7.97955,-0.00337174,-0.00499424,-0.00211776,-0.00191517,-0.00645082,-0.602484,0.00382544,0.0119259,923,463,1.14241,7.97957
-294,561,1.11322,-8.16165,-0.00186684,-0.00395208,-0.00226896,-0.00041241,-0.00540651,-0.570029,0.00347503,0.0106855,930,463,1.11325,8.16166
-287,561,1.08246,-8.34531,-0.000704714,-0.00303081,-0.00234831,0.000752778,-0.00448831,-0.555469,0.00327212,0.00912639,937,463,1.08247,8.34532
-280,561,1.08527,-8.50693,0.000119971,-0.00238476,-0.00226317,0.00145417,-0.00371896,-0.532685,0.00308064,0.0115383,944,463,1.08528,8.50692
-273,561,1.09503,-8.69919,0.000776021,-0.00185995,-0.00213946,0.00197088,-0.00305481,-0.509335,0.00292399,0.0131518,951,463,1.09504,8.69919
-266,561,1.09143,-8.88452,0.000965741,-0.00104273,-0.00161968,0.00186725,-0.00194423,-0.507893,0.00220071,0.00902208,958,463,1.09143,8.88454
-259,561,1.07928,-9.03986,0.000972674,-0.000461631,-0.00135281,0.00178666,-0.00127562,-0.541671,0.0017762,0.00992435,965,463,1.07928,9.03985
-252,561,1.05536,-9.20007,0.000655968,-0.000181673,-0.000960842,0.0012853,-0.000811007,-0.579869,0.00122059,0.0137309,972,463,1.05538,9.20006
-245,561,1.06085,-9.37473,0.000211449,8.77891e-05,-0.000473622,0.00062726,-0.000328022,-0.720492,0.000560479,0.016317,979,463,1.06088,9.37472
-238,561,1.08569,-9.54901,-2.06014e-06,0.000284584,-6.07677e-05,0.000296934,-1.44106e-05,-1.37029,0.00020293,0.0127089,986,463,1.08572,9.54902
-231,561,1.07837,-9.70349,-0.000333729,0.000380825,0.000346572,0.000521302,-0.000474206,1.1857,0.000574971,0.00951289,993,463,1.07835,9.70349
-224,561,1.07928,-9.86288,-0.000539099,0.000378356,0.00071002,0.000764944,-0.000925687,1.0722,0.000977556,0.00948422,1000,463,1.07931,9.86287
-217,561,1.10065,-9.99487,-0.000541069,0.000371713,0.000905476,0.000929314,-0.00109867,1.01883,0.00117222,0.0104252,1007,463,1.10066,9.99487
-210,561,1.10553,-10.1309,-0.000475246,0.000328768,0.000773959,0.000798898,-0.000945375,1.02493,0.00100824,0.0114226,1014,463,1.10551,10.1309
-203,561,1.11932,-10.295,-0.000320042,0.000402106,0.000349545,0.000543582,-0.000461517,1.18621,0.000580939,0.0132228,1021,463,1.11934,10.295
-196,561,1.11829,-10.4146,4.25876e-05,0.00055245,-0.000231406,0.000641813,-4.67758e-05,-1.20226,0.000444289,0.0136984,1028,463,1.11828,10.4145
-189,561,1.13245,-10.5236,0.000340414,0.000755142,-0.00141993,0.00198277,-0.000887213,-0.857905,0.00169675,0.0158087,1035,463,1.13241,10.5236
-182,561,1.15173,-10.6763,0.000381147,0.000922173,-0.00242769,0.00309438,-0.00179106,-0.840883,0.00285387,0.0183302,1042,463,1.15171,10.6763
-175,561,1.14331,-10.8355,0.000648583,0.00118841,-0.00370844,0.00463675,-0.00279976,-0.821726,0.00433691,0.0273243,1049,463,1.14336,10.8355
-168,561,1.50781,-10.9507,0.000759512,0.0011899,-0.00505139,0.00603068,-0.00408127,-0.806686,0.00587419,0.0402935,1056,463,1.50776,10.9507
-161,561,1.66785,-11.1072,0.000531816,0.000563182,-0.00647347,0.00702098,-0.00592599,-0.78661,0.00748384,0.0411749,1063,463,1.66788,11.1072
-154,561,1.58447,-11.4735,0.00012682,0.000413793,-0.0075779,0.00784956,-0.00730895,-0.794864,0.00875363,0.0424993,1070,463,1.58447,11.4735
-147,561,1.61084,-11.5072,-6.64143e-06,0.00059281,-0.00855148,0.00884981,-0.00826364,-0.802916,0.00988239,0.0452235,1077,463,1.61088,11.5072
-140,561,1.85034,-11.5396,-0.000589694,-0.000216392,-0.00886442,0.00846334,-0.00926943,-0.795925,0.0102415,0.0454141,1084,463,1.8504,11.5396
-133,561,1.39807,-11.3572,-0.00231263,-0.00156974,-0.00842838,0.00649537,-0.0103777,-0.807419,0.00982728,0.0489782,1091,463,1.3981,11.3572
-126,561,1.87988,-11.8484,0,0,0,0,0,0,0,-1,1098,463,1.87983,11.8485
-119,561,1.17029,-10.5132,0,0,0,0,0,0,0,-1,1105,463,1.17029,10.5132
-112,561,1.15027,-10.7726,0,0,0,0,0,0,0,-1,1112,463,1.15025,10.7727
-105,561,1.13269,-10.9895,0,0,0,0,0,0,0,-1,1119,463,1.1327,10.9895
-98,561,1.5387,-7.54352,0,0,0,0,0,0,0,-1,1126,463,1.53871,7.54351
-91,561,1.29553,-6.57968,0,0,0,0,0,0,0,-1,1133,463,1.29549,6.5797
-84,561,1.23364,-5.84555,0,0,0,0,0,0,0,-1,1140,463,1.23363,5.84556
-77,561,-2.36023,1.00204,0,0,0,0,0,0,0,-1,1147,463,-2.3602,-1.00205
-70,561,-3.90015,-1.41541,0,0,0,0,0,0,0,-1,1154,463,-3.90009,1.4154
-63,561,-6.95691,-4.02756,0,0,0,0,0,0,0,-1,1161,463,-6.95696,4.02756
-56,561,-5.37988,-6.66855,0,0,0,0,0,0,0,-1,1168,463,-5.37988,6.66854
-49,561,-5.7439,-9.11029,0,0,0,0,0,0,0,-1,1175,463,-5.74387,9.1103
-42,561,-1.72644,-5.63065,0,0,0,0,0,0,0,-1,1182,463,-1.72648,5.63064
-35,561,-1.65674,-4.87994,0,0,0,0,0,0,0,-1,1189,463,-1.6567,4.87993
-28,561,-1.91418,-3.86896,0,0,0,0,0,0,0,-1,1196,463,-1.91414,3.86895
-21,561,1.34204,-12.6583,0,0,0,0,0,0,0,-1,1203,463,1.34198,12.6583
-14,561,2.0293,-12.8372,0,0,0,0,0,0,0,-1,1210,463,2.02932,12.8372
-7,561,2.56787,-12.7478,0,0,0,0,0,0,0,-1,1217,463,2.56786,12.7478
0,561,2.61365,-12.5181,0,0,0,0,0,0,0,-1,1224,463,2.61366,12.5181
7,561,2.65088,-12.5331,0.0302061,-0.0169121,-0.000979653,0.0302265,-0.0169325,-0.0207794,0.0275855,0.0464784,1231,463,2.65087,12.5331
14,561,2.87878,-12.5673,0.028218,-0.0265518,0.000417152,0.0282212,-0.0265549,0.00761587,0.0316299,0.0438339,1238,463,2.87873,12.5673
21,561,3.06006,-12.6528,0.0267122,-0.0389325,0.00364941,0.0269145,-0.0391348,0.0553659,0.0383505,0.0449158,1245,463,3.0601,12.6528
28,561,3.16541,-12.7263,0,0,0,0,0,0,0,-1,1252,463,3.16539,12.7263
35,561,4.65161,-15.2416,0,0,0,0,0,0,0,-1,1259,463,4.65166,15.2416
42,561,3.12585,-12.3647,0,0,0,0,0,0,0,-1,1266,463,3.12585,12.3647
49,561,4.2605,-12.6245,0.0143174,-0.0693825,0.0209031,0.0192473,-0.0743125,0.231615,0.0570501,0.045046,1273,463,4.26055,12.6245
56,561,4.44519,-11.6342,0.0116462,-0.0710182,0.0240209,0.0181194,-0.0774913,0.263228,0.0586413,0.0450818,1280,463,4.44523,11.6341
63,561,4.40125,-10.7291,0.0105429,-0.070886,0.0272722,0.018833,-0.079176,0.295098,0.0600542,0.0462805,1287,463,4.40128,10.7291
70,561,4.4043,-9.62137,0.0111377,-0.0663565,0.0296937,0.0212071,-0.0764259,0.32694,0.0592975,0.0468582,1294,463,4.4043,9.62138
77,561,4.54858,-9.73874,0,0,0,0,0,0,0,-1,1301,463,4.54854,9.73874
84,561,4.4646,-12.2022,0.0172397,-0.0461135,0.0317378,0.0304038,-0.0592777,0.393181,0.0526646,0.0472835,1308,463,4.46456,12.2022
91,561,3.99365,-11.8014,0.0214836,-0.0330731,0.0314476,0.0358353,-0.0474248,0.428137,0.0482252,0.0430803,1315,463,3.9937,11.8014
98,561,4.95947,-11.8084,0,0,0,0,0,0,0,-1,1322,463,4.95943,11.8084
105,561,5.43481,-11.2289,0,0,0,0,0,0,0,-1,1329,463,5.43482,11.2288
112,561,5.58154,-10.3693,0,0,0,0,0,0,0,-1,1336,463,5.58151,10.3693
119,561,6.0282,-9.00186,0.0309264,0.0131604,0.0297145,0.0530572,-0.00897044,0.640153,0.0387096,0.0442188,1343,463,6.02816,9.00186
126,561,6.3772,-8.31152,0.0305511,0.0227123,0.0297073,0.0565964,-0.00333303,0.71981,0.0388896,0.0438878,1350,463,6.37719,8.31153
133,561,6.58289,-7.69031,0,0,0,0,0,0,0,-1,1357,463,6.58285,7.6903
140,561,7.83533,-6.3779,0,0,0,0,0,0,0,-1,1364,463,7.83536,6.37791
147,561,8.19775,-5.37558,0.0257112,0.029481,0.0299659,0.0576213,-0.00242904,0.816807,0.0392489,0.0473588,1371,463,8.19779,5.37558
154,561,8.29956,-3.95633,0.020557,0.0287151,0.0292519,0.054171,-0.0048989,0.854674,0.0378528,0.0459127,1378,463,8.29954,3.95632
161,561,8.33472,-2.39648,0,0,0,0,0,0,0,-1,1385,463,8.33476,2.39648
168,561,6.14331,-9.40823,0,0,0,0,0,0,0,-1,1392,463,6.14337,9.40823
175,561,10.4185,0.276398,0,0,0,0,0,0,0,-1,1399,463,10.4185,-0.276394
182,561,6.45703,-4.02127,0,0,0,0,0,0,0,-1,1406,463,6.45704,4.02127
189,561,6.50854,-2.08685,0,0,0,0,0,0,0,-1,1413,463,6.50851,2.08686
196,561,6.44775,-0.27182,0,0,0,0,0,0,0,-1,1420,463,6.44773,0.271814
203,561,6.18591,1.1301,0,0,0,0,0,0,0,-1,1427,463,6.18592,-1.13009
210,561,5.68713,2.68427,0,0,0,0,0,0,0,-1,1434,463,5.6871,-2.68425
217,561,3.61743,-7.33582,0,0,0,0,0,0,0,-1,1441,463,3.61738,7.33581
224,561,4.27466,-8.59171,0,0,0,0,0,0,0,-1,1448,463,4.27466,8.59171
231,561,4.93188,-9.8476,0,0,0,0,0,0,0,-1,1455,463,4.93193,9.84761
238,561,2.18018,-5.18359,0,0,0,0,0,0,0,-1,1462,463,2.18023,5.18359
245,561,3.07568,-3.50238,0,0,0,0,0,0,0,-1,1469,463,3.0757,3.50238
252,561,3.47412,-3.71109,0,0,0,0,0,0,0,-1,1476,463,3.47413,3.71109
259,561,3.42212,-3.2334,0,0,0,0,0,0,0,-1,1483,463,3.42214,3.2334
266,561,4.44373,-5.90027,0,0,0,0,0,0,0,-1,1490,463,4.44372,5.90026
273,561,2.59485,-3.65268,0,0,0,0,0,0,0,-1,1497,463,2.5948,3.65268
280,561,3.10767,-6.38235,0,0,0,0,0,0,0,-1,1504,463,3.10766,6.38235
287,561,3.84814,-10.2159,0,0,0,0,0,0,0,-1,1511,463,3.84816,10.2159
294,561,3.71863,-10.1142,0,0,0,0,0,0,0,-1,1518,463,3.71864,10.1142
301,561,3.729,-10.03,-0.000852584,0.000126414,-0.00384649,0.00351443,-0.0042406,-0.848687,0.0044839,0.0413637,1525,463,3.72905,10.03
308,561,3.72363,-9.83511,-0.00120883,-0.000425024,-0.00398056,0.00318288,-0.00481673,-0.834467,0.00465058,0.0318596,1532,463,3.72359,9.8351
315,561,3.72522,-9.73016,-0.00150833,-0.00070078,-0.00404794,0.00296347,-0.00517258,-0.835108,0.00475472,0.0222805,1539,463,3.72517,9.73018
322,561,3.73035,-9.58453,-0.00167704,-0.000731982,-0.00384214,0.00266658,-0.00507559,-0.846584,0.0045415,0.0213873,1546,463,3.7304,9.58453
329,561,3.72119,-9.38141,-0.00165078,-0.000765967,-0.00351411,0.00233347,-0.00475022,-0.848016,0.00416836,0.0132988,1553,463,3.72118,9.38142
336,561,3.75793,-9.19681,-0.00152877,-0.00062956,-0.00305563,0.00200937,-0.00416769,-0.858444,0.00363817,0.0110209,1560,463,3.75795,9.19682
343,561,3.7688,-9.04135,-0.00162677,-0.000746363,-0.00271146,0.0015604,-0.00393353,-0.865871,0.00326907,0.0101156,1567,463,3.76877,9.04136
350,561,3.755,-8.87085,-0.0016762,-0.000791687,-0.00236903,0.00117602,-0.0036439,-0.877677,0.00290183,0.00952088,1574,463,3.75505,8.87084
357,561,3.75098,-8.68414,-0.00167,-0.000714172,-0.00204333,0.000906388,-0.00329056,-0.900278,0.00255011,0.00984694,1581,463,3.75102,8.68415
364,561,3.7666,-8.52875,-0.00168691,-0.000532527,-0.00170251,0.000687972,-0.00290741,-0.94883,0.00220369,0.00927856,1588,463,3.76663,8.52874
371,561,3.76526,-8.3497,-0.00170449,-0.00034922,-0.00137041,0.000501938,-0.00255565,-1.01501,0.00189339,0.0153584,1595,463,3.76524,8.3497
378,561,3.76001,-8.15741,-0.00164698,-8.2547e-05,-0.00105934,0.000452075,-0.0021816,-1.10342,0.00162617,0.0113211,1602,463,3.75996,8.15742
385,561,3.77625,-7.9729,-0.00160507,7.47368e-05,-0.000859646,0.000436678,-0.00196701,-1.17229,0.00147855,0.00956732,1609,463,3.77624,7.97291
392,561,3.76331,-7.76126,-0.0015108,0.000115936,-0.000680088,0.000362797,-0.00175766,-1.2226,0.00130957,0.0130864,1616,463,3.76327,7.76127
399,561,3.74072,-7.5549,-0.00135001,0.000297746,-0.000453114,0.000414127,-0.00146639,-1.31938,0.00114097,0.0194762,1623,463,3.74074,7.55492
406,561,3.76282,-7.36331,-0.00116095,0.000487279,-0.000237672,0.000520867,-0.00119454,-1.43041,0.00101553,0.0172903,1630,463,3.7628,7.36331
413,561,3.75208,-7.17819,-0.00132468,0.000767018,-6.31843e-05,0.000768925,-0.00132659,-1.54063,0.00122404,0.0148693,1637,463,3.75207,7.1782
420,561,3.72131,-6.95615,-0.00168003,0.000921451,-7.89066e-05,0.000923842,-0.00168242,-1.5405,0.00152582,0.012348,1644,463,3.72131,6.95614
427,561,3.73108,-6.73404,-0.00222244,0.000981178,-0.000227809,0.000997296,-0.00223856,-1.50016,0.00191349,0.0102487,1651,463,3.73106,6.73404
434,561,3.74194,-6.53674,-0.00297461,-0.000186806,-0.00113009,0.000213746,-0.00337516,-1.23017,0.00232463,0.0111081,1658,463,3.74197,6.53673
441,561,3.73889,-6.36276,-0.00378273,-0.000931144,-0.00174205,-0.000105799,-0.00460808,-1.12835,0.0030374,0.0141439,1665,463,3.73885,6.36276
448,561,3.72998,-6.14557,-0.00520025,-0.00203831,-0.00278758,-0.000414592,-0.00682398,-1.04336,0.00441761,0.0190978,1672,463,3.73003,6.14556
455,561,3.7511,-5.82065,-0.00696955,-0.00346259,-0.00427054,-0.000599558,-0.00983258,-0.980203,0.00636462,0.0356519,1679,463,3.75113,5.82066
462,561,3.71265,-5.59464,-0.00879284,-0.0055732,-0.00588862,-0.00107831,-0.0132877,-0.918827,0.00852181,0.0341882,1686,463,3.71263,5.59464
469,561,3.62854,-5.37622,-0.010605,-0.00818082,-0.00762275,-0.00167437,-0.0171114,-0.864242,0.0108925,0.0227693,1693,463,3.62856,5.37622
476,561,3.50134,-5.03275,-0.0123903,-0.0117587,-0.00962367,-0.00244566,-0.0217034,-0.801798,0.0137265,0.0397766,1700,463,3.50137,5.03276
483,561,3.3728,-4.64258,0,0,0,0,0,0,0,-1,1707,463,3.37282,4.64258
490,561,6.13135,-2.58374,0,0,0,0,0,0,0,-1,1714,463,6.13139,2.58373
497,561,7.30652,-2.46649,0,0,0,0,0,0,0,-1,1721,463,7.30649,2.4665
504,561,6.45044,-2.35263,0,0,0,0,0,0,0,-1,1728,463,6.4504,2.35263
511,561,0,0,0,0,0,0,0,0,0,-1,1735,463,0,0
518,561,0,0,0,0,0,0,0,0,0,-1,1742,463,0,0
525,561,0,0,0,0,0,0,0,0,0,-1,1749,463,0,0
532,561,0,0,0,0,0,0,0,0,0,-1,1756,463,0,0
539,561,0,0,0,0,0,0,0,0,0,-1,1763,463,0,0
546,561,0,0,0,0,0,0,0,0,0,-1,1770,463,0,0
553,561,0,0,0,0,0,0,0,0,0,-1,1777,463,0,0
560,561,0,0,0,0,0,0,0,0,0,-1,1784,463,0,0
567,561,0,0,0,0,0,0,0,0,0,-1,1791,463,0,0
574,561,0,0,0,0,0,0,0,0,0,-1,1798,463,0,0
581,561,0,0,0,0,0,0,0,0,0,-1,1805,463,0,0
588,561,0,0,0,0,0,0,0,0,0,-1,1812,463,0,0
595,561,0,0,0,0,0,0,0,0,0,-1,1819,463,0,0
602,561,0,0,0,0,0,0,0,0,0,-1,1826,463,0,0
609,561,0,0,0,0,0,0,0,0,0,-1,1833,463,0,0
616,561,0,0,0,0,0,0,0,0,0,-1,1840,463,0,0
623,561,0,0,0,0,0,0,0,0,0,-1,1847,463,0,0
630,561,0,0,0,0,0,0,0,0,0,-1,1854,463,0,0
637,561,0,0,0,0,0,0,0,0,0,-1,1861,463,0,0
644,561,0,0,0,0,0,0,0,0,0,-1,1868,463,0,0
651,561,0,0,0,0,0,0,0,0,0,-1,1875,463,0,0
658,561,0,0,0,0,0,0,0,0,0,-1,1882,463,0,0
665,561,0,0,0,0,0,0,0,0,0,-1,1889,463,0,0
672,561,0,0,0,0,0,0,0,0,0,-1,1896,463,0,0
679,561,0,0,0,0,0,0,0,0,0,-1,1903,463,0,0
686,561,0,0,0,0,0,0,0,0,0,-1,1910,463,0,0
693,561,0,0,0,0,0,0,0,0,0,-1,1917,463,0,0
700,561,0,0,0,0,0,0,0,0,0,-1,1924,463,0,0
707,561,0,0,0,0,0,0,0,0,0,-1,1931,463,0,0
714,561,0,0,0,0,0,0,0,0,0,-1,1938,463,0,0
721,561,0,0,0,0,0,0,0,0,0,-1,1945,463,0,0
728,561,0,0,0,0,0,0,0,0,0,-1,1952,463,0,0
735,561,0,0,0,0,0,0,0,0,0,-1,1959,463,0,0
742,561,0,0,0,0,0,0,0,0,0,-1,1966,463,0,0
749,561,0,0,0,0,0,0,0,0,0,-1,1973,463,0,0
756,561,0,0,0,0,0,0,0,0,0,-1,1980,463,0,0
763,561,0,0,0,0,0,0,0,0,0,-1,1987,463,0,0
770,561,0,0,0,0,0,0,0,0,0,-1,1994,463,0,0
777,561,0,0,0,0,0,0,0,0,0,-1,2001,463,0,0
784,561,0,0,0,0,0,0,0,0,0,-1,2008,463,0,0
791,561,0,0,0,0,0,0,0,0,0,-1,2015,463,0,0
798,561,0,0,0,0,0,0,0,0,0,-1,2022,463,0,0
805,561,0,0,0,0,0,0,0,0,0,-1,2029,463,0,0
812,561,0,0,0,0,0,0,0,0,0,-1,2036,463,0,0
-700,554,0,0,0,0,0,0,0,0,0,-1,524,470,0,0
-693,554,0,0,0,0,0,0,0,0,0,-1,531,470,0,0
-686,554,0,0,0,0,0,0,0,0,0,-1,538,470,0,0
-679,554,0,0,0,0,0,0,0,0,0,-1,545,470,0,0
-672,554,0,0,0,0,0,0,0,0,0,-1,552,470,0,0
-665,554,0,0,0,0,0,0,0,0,0,-1,559,470,0,0
-658,554,0,0,0,0,0,0,0,0,0,-1,566,470,0,0
-651,554,0,0,0,0,0,0,0,0,0,-1,573,470,0,0
-644,554,0,0,0,0,0,0,0,0,0,-1,580,470,0,0
-637,554,0,0,0,0,0,0,0,0,0,-1,587,470,0,0
-630,554,0,0,0,0,0,0,0,0,0,-1,594,470,0,0
-623,554,0,0,0,0,0,0,0,0,0,-1,601,470,0,0
-616,554,0,0,0,0,0,0,0,0,0,-1,608,470,0,0
-609,554,0,0,0,0,0,0,0,0,0,-1,615,470,0,0
-602,554,0,0,0,0,0,0,0,0,0,-1,622,470,0,0
-595,554,0,0,0,0,0,0,0,0,0,-1,629,470,0,0
-588,554,0,0,0,0,0,0,0,0,0,-1,636,470,0,0
-581,554,0,0,0,0,0,0,0,0,0,-1,643,470,0,0
-574,554,0,0,0,0,0,0,0,0,0,-1,650,470,0,0
-567,554,0,0,0,0,0,0,0,0,0,-1,657,470,0,0
-560,554,0,0,0,0,0,0,0,0,0,-1,664,470,0,0
-553,554,0,0,0,0,0,0,0,0,0,-1,671,470,0,0
-546,554,0,0,0,0,0,0,0,0,0,-1,678,470,0,0
-539,554,0,0,0,0,0,0,0,0,0,-1,685,470,0,0
-532,554,0,0,0,0,0,0,0,0,0,-1,692,470,0,0
-525,554,0,0,0,0,0,0,0,0,0,-1,699,470,0,0
-518,554,0,0,0,0,0,0,0,0,0,-1,706,470,0,0
-511,554,0,0,0,0,0,0,0,0,0,-1,713,470,0,0
-504,554,0,0,0,0,0,0,0,0,0,-1,720,470,0,0
-497,554,0,0,0,0,0,0,0,0,0,-1,727,470,0,0
-490,554,0,0,0,0,0,0,0,0,0,-1,734,470,0,0
-483,554,0,0,0,0,0,0,0,0,0,-1,741,470,0,0
-476,554,0,0,0,0,0,0,0,0,0,-1,748,470,0,0
-469,554,0,0,0,0,0,0,0,0,0,-1,755,470,0,0
-462,554,0,0,0,0,0,0,0,0,0,-1,762,470,0,0
-455,554,0,0,0,0,0,0,0,0,0,-1,769,470,0,0
-448,554,0,0,0,0,0,0,0,0,0,-1,776,470,0,0
-441,554,0,0,0,0,0,0,0,0,0,-1,783,470,0,0
-434,554,0,0,0,0,0,0,0,0,0,-1,790,470,0,0
-427,554,0,0,0,0,0,0,0,0,0,-1,797,470,0,0
-420,554,0,0,0,0,0,0,0,0,0,-1,804,470,0,0
-413,554,0,0,0,0,0,0,0,0,0,-1,811,470,0,0
-406,554,0,0,0,0,0,0,0,0,0,-1,818,470,0,0
-399,554,1.22241,-4.88776,0,0,0,0,0,0,0,-1,825,470,1.2224,4.88775
-392,554,-0.667969,-3.71759,0,0,0,0,0,0,0,-1,832,470,-0.667998,3.71759
-385,554,-0.377991,-4.06265,0,0,0,0,0,0,0,-1,839,470,-0.37801,4.06266
-378,554,-0.0618286,-4.44217,0,0,0,0,0,0,0,-1,846,470,-0.0618537,4.44217
-371,554,0.0684204,-4.48541,0,0,0,0,0,0,0,-1,853,470,0.0684178,4.4854
-364,554,0.372986,-4.60822,0,0,0,0,0,0,0,-1,860,470,0.372991,4.60821
-357,554,1.17639,-6.1933,0,0,0,0,0,0,0,-1,867,470,1.17639,6.19329
-350,554,1.32074,-7.04797,0,0,0,0,0,0,0,-1,874,470,1.32073,7.04797
-343,554,1.23206,-7.0582,-0.0127524,-0.00611027,0.00102389,-0.00595601,-0.0129066,1.42127,0.00745901,0.043212,881,470,1.23208,7.05819
-336,554,1.14044,-7.09033,-0.0114906,-0.00628056,0.000697386,-0.00618883,-0.0115823,1.44001,0.00669232,0.0320758,888,470,1.14043,7.09033
-329,554,0.983398,-7.22729,-0.00971345,-0.00608694,0.00017076,-0.00607891,-0.00972147,1.52385,0.00567114,0.0167294,895,470,0.983373,7.2273
-322,554,0.942505,-7.40842,-0.00765319,-0.0055104,-0.000379985,-0.00544501,-0.00771858,-1.40039,0.00458,0.0101465,902,470,0.942515,7.40843
-315,554,0.95575,-7.59247,-0.00572018,-0.00474345,-0.000773989,-0.00431663,-0.006147,-1.06684,0.00364445,0.0103723,909,470,0.955751,7.59248
-308,554,0.960815,-7.7923,-0.00400044,-0.00414785,-0.00108031,-0.00299132,-0.00515696,-0.751337,0.00299007,0.0127551,916,470,0.960846,7.7923
-301,554,0.965332,-7.97699,-0.00249236,-0.0033485,-0.00131254,-0.00153984,-0.00430101,-0.627767,0.00251634,0.0137162,923,470,0.965347,7.977
-294,554,0.923645,-8.16269,-0.00128245,-0.00261922,-0.00141497,-0.000385944,-0.00351572,-0.564748,0.00222635,0.0120067,930,470,0.923653,8.1627
-287,554,0.896729,-8.34106,-0.00038235,-0.00197724,-0.00146661,0.000489594,-0.00284919,-0.536388,0.00208193,0.0110943,937,470,0.896752,8.34105
-280,554,0.897888,-8.5144,0.00028551,-0.00155016,-0.00139797,0.00104002,-0.00230467,-0.494915,0.00197653,0.011461,944,470,0.89786,8.51439
-273,554,0.909729,-8.71259,0.000745671,-0.00117287,-0.00128159,0.00138723,-0.00181444,-0.464127,0.00185396,0.0142383,951,470,0.909756,8.7126
-266,554,0.903442,-8.89505,0.000850126,-0.000477247,-0.000843898,0.00126005,-0.000887172,-0.452185,0.00124592,0.0114375,958,470,0.903413,8.89505
-259,554,0.901794,-9.03094,0.000819343,-1.63813e-05,-0.000575871,0.00111298,-0.000310022,-0.471542,0.000864072,0.0115863,965,470,0.901809,9.03094
-252,554,0.891113,-9.17441,0.00045124,0.000211548,-0.000230496,0.000591185,7.16031e-05,-0.545659,0.000372556,0.0140482,972,470,0.89113,9.17441
-245,554,0.905762,-9.33957,-9.35711e-05,0.000409474,0.000248886,0.000511798,-0.000195896,1.18073,0.000421938,0.0156871,979,470,0.90575,9.33957
-238,554,0.932678,-9.53192,-0.000363264,0.000586876,0.000641317,0.000909915,-0.000686304,1.10418,0.000924587,0.0116023,986,470,0.932665,9.53191
-231,554,0.932495,-9.70517,-0.000745257,0.000715122,0.00100036,0.00122344,-0.00125358,1.10066,0.00143014,0.00939672,993,470,0.932512,9.70518
-224,554,0.946289,-9.84805,-0.00107048,0.000713747,0.00137215,0.0014583,-0.00181503,1.07364,0.00189359,0.0093486,1000,470,0.946317,9.84805
-217,554,0.958069,-9.97672,-0.00118741,0.000719338,0.00156054,0.00159468,-0.00206275,1.0596,0.00211738,0.00997103,1007,470,0.958044,9.97672
-210,554,0.983032,-10.1457,-0.00121793,0.00068246,0.00140141,0.00142544,-0.0019609,1.08331,0.00196323,0.012642,1014,470,0.983036,10.1457
-203,554,0.997131,-10.3297,-0.0011489,0.000725533,0.000877141,0.00107196,-0.00149533,1.19465,0.00148893,0.0189579,1021,470,0.997127,10.3297
-196,554,0.970825,-10.4168,-0.000762437,0.000877697,0.000168447,0.000894818,-0.000779559,1.4695,0.000967465,0.0240833,1028,470,0.970853,10.4168
-189,554,0.985596,-10.5101,-0.000461203,0.00109342,-0.00129369,0.00182537,-0.00119315,-1.05592,0.00175544,0.030845,1035,470,0.985576,10.5101
-182,554,1.10022,-10.6273,-0.00058664,0.00135188,-0.00253706,0.00309852,-0.00233328,-0.967863,0.00314641,0.0400465,1042,470,1.10024,10.6273
-175,554,1.03748,-10.7386,-0.000388041,0.00167478,-0.00423387,0.00500107,-0.00371432,-0.904876,0.00505008,0.0476695,1049,470,1.03749,10.7386
-168,554,1.68164,-11.0128,0,0,0,0,0,0,0,-1,1056,470,1.68159,11.0128
-161,554,1.96094,-11.1529,0,0,0,0,0,0,0,-1,1063,470,1.96091,11.1529
-154,554,2.13306,-11.6708,0,0,0,0,0,0,0,-1,1070,470,2.1331,11.6708
-147,554,1.68201,-11.6755,0,0,0,0,0,0,0,-1,1077,470,1.68206,11.6755
-140,554,2.57507,-11.3733,0,0,0,0,0,0,0,-1,1084,470,2.57505,11.3733
-133,554,3.06152,-11.1674,0,0,0,0,0,0,0,-1,1091,470,3.06152,11.1674
-126,554,-0.195923,-8.76236,0,0,0,0,0,0,0,-1,1098,470,-0.195888,8.76235
-119,554,0.902588,-9.95172,0,0,0,0,0,0,0,-1,1105,470,0.902533,9.95171
-112,554,0.944214,-10.2726,0,0,0,0,0,0,0,-1,1112,470,0.944204,10.2726
-105,554,2.82129,-9.46112,0,0,0,0,0,0,0,-1,1119,470,2.82127,9.46112
-98,554,1.51929,-7.3624,0,0,0,0,0,0,0,-1,1126,470,1.51928,7.36241
-91,554,1.41089,-6.5864,0,0,0,0,0,0,0,-1,1133,470,1.41093,6.58638
-84,554,1.62305,-5.87186,0,0,0,0,0,0,0,-1,1140,470,1.62299,5.87186
-77,554,-2.56958,1.33258,0,0,0,0,0,0,0,-1,1147,470,-2.56959,-1.33257
-70,554,-3.68164,-1.18332,0,0,0,0,0,0,0,-1,1154,470,-3.68158,1.18331
-63,554,-4.86853,-3.88708,0,0,0,0,0,0,0,-1,1161,470,-4.86853,3.88708
-56,554,-5.69958,-6.45422,0,0,0,0,0,0,0,-1,1168,470,-5.69955,6.45422
-49,554,-6.23645,-8.8569,0,0,0,0,0,0,0,-1,1175,470,-6.23643,8.85689
-42,554,-6.62524,-11.5382,0,0,0,0,0,0,0,-1,1182,470,-6.62522,11.5382
-35,554,-2.40173,-4.59482,0,0,0,0,0,0,0,-1,1189,470,-2.40169,4.59481
-28,554,-0.760132,-1.65555,0,0,0,0,0,0,0,-1,1196,470,-0.760095,1.65556
-21,554,6.67249,-10.1976,0,0,0,0,0,0,0,-1,1203,470,6.67249,10.1976
-14,554,2.07117,-12.9682,0,0,0,0,0,0,0,-1,1210,470,2.07117,12.9682
-7,554,2.72766,-12.8956,0,0,0,0,0,0,0,-1,1217,470,2.72765,12.8956
0,554,1.74451,-10.5679,0,0,0,0,0,0,0,-1,1224,470,1.74453,10.5679
7,554,2.73547,-12.5832,0,0,0,0,0,0,0,-1,1231,470,2.73549,12.5832
14,554,3.00574,-12.7007,0,0,0,0,0,0,0,-1,1238,470,3.00578,12.7007
21,554,3.15955,-12.7842,0,0,0,0,0,0,0,-1,1245,470,3.15955,12.7842
28,554,4.87341,-15.351,0,0,0,0,0,0,0,-1,1252,470,4.8734,15.351
35,554,4.95227,-14.2445,0,0,0,0,0,0,0,-1,1259,470,4.95224,14.2445
42,554,4.60815,-13.0313,0,0,0,0,0,0,0,-1,1266,470,4.60815,13.0313
49,554,4.3905,-11.734,0.0209412,-0.0873727,0.0316292,0.0295009,-0.0959324,0.264296,0.0757288,0.0475295,1273,470,4.39044,11.734
56,554,4.27063,-10.7295,0.0171976,-0.08869,0.0342926,0.0273333,-0.0988258,0.287384,0.0766373,0.0462499,1280,470,4.27063,10.7295
63,554,4.77136,-9.81146,0,0,0,0,0,0,0,-1,1287,470,4.77136,9.81145
70,554,4.76208,-8.2142,0.0139568,-0.0822224,0.0397343,0.0282484,-0.096514,0.345273,0.0755404,0.0442451,1294,470,4.76211,8.21421
77,554,5.35681,-6.83221,0,0,0,0,0,0,0,-1,1301,470,5.35685,6.83221
84,554,4.26428,-12.2076,0.0185081,-0.0561575,0.0407267,0.0364239,-0.0740733,0.414424,0.0650182,0.044404,1308,470,4.26427,12.2075
91,554,4.31335,-11.6652,0.0225743,-0.0398003,0.0398177,0.0419647,-0.0591906,0.453176,0.0586836,0.0419941,1315,470,4.3134,11.6652
98,554,4.12012,-10.9934,0,0,0,0,0,0,0,-1,1322,470,4.12016,10.9934
105,554,3.51892,-10.704,0.025449,-0.00997417,0.0379684,0.0496337,-0.0341589,0.56716,0.0486519,0.0451593,1329,470,3.51897,10.704
112,554,3.09253,-10.3712,0,0,0,0,0,0,0,-1,1336,470,3.09251,10.3712
119,554,6.2085,-9.17694,0,0,0,0,0,0,0,-1,1343,470,6.2085,9.17694
126,554,6.58569,-8.53259,0,0,0,0,0,0,0,-1,1350,470,6.58566,8.5326
133,554,5.84961,-14.9298,0,0,0,0,0,0,0,-1,1357,470,5.84959,14.9298
140,554,6.84741,-14.992,0,0,0,0,0,0,0,-1,1364,470,6.84739,14.992
147,554,9.14905,-5.54871,0,0,0,0,0,0,0,-1,1371,470,9.14903,5.54872
154,554,8.97864,-4.47839,0.019741,0.0363474,0.0349111,0.0639292,-0.00784076,0.902148,0.045459,0.0477665,1378,470,8.97869,4.47839
161,554,8.59546,-3.64279,0,0,0,0,0,0,0,-1,1385,470,8.59544,3.64281
168,554,8.50439,-2.53644,0,0,0,0,0,0,0,-1,1392,470,8.50443,2.53643
175,554,10.663,0.286957,0,0,0,0,0,0,0,-1,1399,470,10.663,-0.286966
182,554,6.71106,-4.50217,0,0,0,0,0,0,0,-1,1406,470,6.71107,4.50215
189,554,6.90479,-2.50348,0,0,0,0,0,0,0,-1,1413,470,6.90477,2.50348
196,554,6.96216,-0.740906,0,0,0,0,0,0,0,-1,1420,470,6.96214,0.740912
203,554,6.43518,0.414154,0,0,0,0,0,0,0,-1,1427,470,6.43523,-0.414141
210,554,6.21167,1.96707,0,0,0,0,0,0,0,-1,1434,470,6.21165,-1.96706
217,554,5.64551,3.4989,0,0,0,0,0,0,0,-1,1441,470,5.64555,-3.49891
224,554,4.85144,-8.85172,0,0,0,0,0,0,0,-1,1448,470,4.85146,8.85173
231,554,3.25073,-5.29642,0,0,0,0,0,0,0,-1,1455,470,3.25078,5.29642
238,554,4.28625,-3.25253,0,0,0,0,0,0,0,-1,1462,470,4.28622,3.25252
245,554,4.0752,-2.90033,0,0,0,0,0,0,0,-1,1469,470,4.07515,2.90032
252,554,3.52112,-0.934998,0,0,0,0,0,0,0,-1,1476,470,3.52113,0.934996
259,554,3.96448,-2.16425,0,0,0,0,0,0,0,-1,1483,470,3.96446,2.16424
266,554,3.0592,-2.71716,0,0,0,0,0,0,0,-1,1490,470,3.05923,2.71718
273,554,2.58521,-3.06876,0,0,0,0,0,0,0,-1,1497,470,2.58524,3.06874
280,554,2.83301,-0.991699,0,0,0,0,0,0,0,-1,1504,470,2.83303,0.991704
287,554,3.54126,-4.12277,0,0,0,0,0,0,0,-1,1511,470,3.54123,4.12277
294,554,3.62036,-8.50146,0,0,0,0,0,0,0,-1,1518,470,3.62031,8.50145
301,554,3.87878,-9.92813,0,0,0,0,0,0,0,-1,1525,470,3.87875,9.92814
308,554,3.93909,-9.8855,0,0,0,0,0,0,0,-1,1532,470,3.93913,9.8855
315,554,3.9137,-9.76187,0,0,0,0,0,0,0,-1,1539,470,3.91374,9.76188
322,554,4.0686,-9.42358,-0.00282523,-0.00126542,-0.00551806,0.00352758,-0.00761823,-0.855602,0.00657791,0.045245,1546,470,4.06863,9.42358
329,554,3.89624,-9.31729,-0.00268973,-0.00126178,-0.00503166,0.0031063,-0.00705782,-0.855876,0.00601426,0.0242873,1553,470,3.89618,9.31729
336,554,3.89746,-9.21155,-0.00240037,-0.0011268,-0.00438189,0.00266433,-0.0061915,-0.857554,0.00524635,0.0118991,1560,470,3.89751,9.21155
343,554,3.91406,-9.0574,-0.00246149,-0.00148828,-0.00397374,0.00202854,-0.00597831,-0.846322,0.00480659,0.00986802,1567,470,3.91403,9.0574
350,554,3.93298,-8.87134,-0.00244326,-0.00170436,-0.00357698,0.0015222,-0.00566982,-0.836859,0.00437642,0.00920841,1574,470,3.93304,8.87133
357,554,3.94641,-8.6796,-0.00225413,-0.00176015,-0.00326118,0.00126338,-0.00527766,-0.823195,0.00400653,0.0106551,1581,470,3.94639,8.67958
364,554,3.94592,-8.51178,-0.00215186,-0.0016319,-0.00293759,0.0010572,-0.00484096,-0.829534,0.00363137,0.008822,1588,470,3.94594,8.51177
371,554,3.93872,-8.33472,-0.00207988,-0.00148436,-0.00255074,0.00078594,-0.00435018,-0.843503,0.00319449,0.00832119,1595,470,3.93875,8.33473
378,554,3.94006,-8.14529,-0.00188795,-0.00120736,-0.00215819,0.000637197,-0.00373251,-0.863593,0.00272568,0.00924981,1602,470,3.94007,8.1453
385,554,3.96387,-7.96045,-0.00174692,-0.00101818,-0.00185542,0.000508309,-0.00327341,-0.882356,0.00236995,0.00841697,1609,470,3.96393,7.96046
392,554,3.95569,-7.75354,-0.00158676,-0.000890953,-0.00156498,0.000364326,-0.00284204,-0.894773,0.00202708,0.0122074,1616,470,3.95574,7.75353
399,554,3.93958,-7.53339,-0.00137116,-0.000635165,-0.00126321,0.000312564,-0.00231888,-0.927134,0.00165995,0.0171403,1623,470,3.93953,7.53338
406,554,3.94202,-7.34787,-0.00113686,-0.000350563,-0.000938478,0.000273789,-0.00176121,-0.983753,0.00127524,0.0156337,1630,470,3.94198,7.34788
413,554,3.94678,-7.14893,-0.00113779,4.5642e-05,-0.000607466,0.00030195,-0.00139409,-1.17153,0.00104469,0.0143573,1637,470,3.94674,7.14892
420,554,3.92029,-6.94342,-0.00129238,0.00033533,-0.000415398,0.000435212,-0.00139226,-1.33483,0.00110227,0.0158307,1644,470,3.92023,6.94344
427,554,3.93127,-6.74792,-0.0016202,0.000549892,-0.000353426,0.000606001,-0.00167631,-1.41335,0.00136514,0.0119823,1651,470,3.93126,6.74791
434,554,3.93225,-6.55078,-0.00212085,-9.83456e-05,-0.000822866,0.000194143,-0.00241334,-1.22927,0.00167736,0.0103819,1658,470,3.93225,6.55077
441,554,3.94434,-6.34897,-0.00267201,-0.000489943,-0.00110774,-2.61636e-05,-0.00313579,-1.1743,0.00208186,0.0109356,1665,470,3.94431,6.34897
448,554,3.94031,-6.13254,-0.00359742,-0.00112216,-0.00166966,-0.000281453,-0.00443813,-1.10434,0.00286954,0.0128237,1672,470,3.94033,6.13252
455,554,3.91565,-5.92041,-0.00475386,-0.00205317,-0.00256387,-0.000505785,-0.00630125,-1.02778,0.0040428,0.0138847,1679,470,3.91561,5.92041
462,554,3.89844,-5.68115,-0.0058939,-0.00366315,-0.00355026,-0.00105718,-0.00849987,-0.9376,0.00534913,0.0161325,1686,470,3.89838,5.68115
469,554,3.87805,-5.42834,-0.00706827,-0.0055838,-0.00461668,-0.00165006,-0.011002,-0.865102,0.0068512,0.0223723,1693,470,3.8781,5.42835
476,554,3.84741,-4.99881,-0.00831094,-0.00822149,-0.00584132,-0.00242473,-0.0141077,-0.789226,0.00871013,0.0430792,1700,470,3.84739,4.99881
483,554,3.80945,-4.56134,0,0,0,0,0,0,0,-1,1707,470,3.80941,4.56133
490,554,7.31543,-3.51794,0,0,0,0,0,0,0,-1,1714,470,7.3154,3.51794
497,554,7.9751,-2.43454,0,0,0,0,0,0,0,-1,1721,470,7.97505,2.43453
504,554,2.13257,-3.81628,0,0,0,0,0,0,0,-1,1728,470,2.1326,3.8163
511,554,1.31396,-4.02713,0,0,0,0,0,0,0,-1,1735,470,1.31398,4.02712
518,554,-1.15686,-2.436,0,0,0,0,0,0,0,-1,1742,470,-1.15691,2.43599
525,554,0,0,0,0,0,0,0,0,0,-1,1749,470,0,0
532,554,0,0,0,0,0,0,0,0,0,-1,1756,470,0,0
539,554,0,0,0,0,0,0,0,0,0,-1,1763,470,0,0
546,554,0,0,0,0,0,0,0,0,0,-1,1770,470,0,0
553,554,0,0,0,0,0,0,0,0,0,-1,1777,470,0,0
560,554,0,0,0,0,0,0,0,0,0,-1,1784,470,0,0
567,554,0,0,0,0,0,0,0,0,0,-1,1791,470,0,0
574,554,0,0,0,0,0,0,0,0,0,-1,1798,470,0,0
581,554,0,0,0,0,0,0,0,0,0,-1,1805,470,0,0
588,554,0,0,0,0,0,0,0,0,0,-1,1812,470,0,0
595,554,0,0,0,0,0,0,0,0,0,-1,1819,470,0,0
602,554,0,0,0,0,0,0,0,0,0,-1,1826,470,0,0
609,554,0,0,0,0,0,0,0,0,0,-1,1833,470,0,0
616,554,0,0,0,0,0,0,0,0,0,-1,1840,470,0,0
623,554,0,0,0,0,0,0,0,0,0,-1,1847,470,0,0
630,554,0,0,0,0,0,0,0,0,0,-1,1854,470,0,0
637,554,0,0,0,0,0,0,0,0,0,-1,1861,470,0,0
644,554,0,0,0,0,0,0,0,0,0,-1,1868,470,0,0
651,554,0,0,0,0,0,0,0,0,0,-1,1875,470,0,0
658,554,0,0,0,0,0,0,0,0,0,-1,1882,470,0,0
665,554,0,0,0,0,0,0,0,0,0,-1,1889,470,0,0
672,554,0,0,0,0,0,0,0,0,0,-1,1896,470,0,0
679,554,0,0,0,0,0,0,0,0,0,-1,1903,470,0,0
686,554,0,0,0,0,0,0,0,0,0,-1,1910,470,0,0
693,554,0,0,0,0,0,0,0,0,0,-1,1917,470,0,0
700,554,0,0,0,0,0,0,0,0,0,-1,1924,470,0,0
707,554,0,0,0,0,0,0,0,0,0,-1,1931,470,0,0
714,554,0,0,0,0,0,0,0,0,0,-1,1938,470,0,0
721,554,0,0,0,0,0,0,0,0,0,-1,1945,470,0,0
728,554,0,0,0,0,0,0,0,0,0,-1,1952,470,0,0
735,554,0,0,0,0,0,0,0,0,0,-1,1959,470,0,0
742,554,0,0,0,0,0,0,0,0,0,-1,1966,470,0,0
749,554,0,0,0,0,0,0,0,0,0,-1,1973,470,0,0
756,554,0,0,0,0,0,0,0,0,0,-1,1980,470,0,0
763,554,0,0,0,0,0,0,0,0,0,-1,1987,470,0,0
770,554,0,0,0,0,0,0,0,0,0,-1,1994,470,0,0
777,554,0,0,0,0,0,0,0,0,0,-1,2001,470,0,0
784,554,0,0,0,0,0,0,0,0,0,-1,2008,470,0,0
791,554,0,0,0,0,0,0,0,0,0,-1,2015,470,0,0
798,554,0,0,0,0,0,0,0,0,0,-1,2022,470,0,0
805,554,0,0,0,0,0,0,0,0,0,-1,2029,470,0,0
812,554,0,0,0,0,0,0,0,0,0,-1,2036,470,0,0
-700,547,0,0,0,0,0,0,0,0,0,-1,524,477,0,0
-693,547,0,0,0,0,0,0,0,0,0,-1,531,477,0,0
-686,547,0,0,0,0,0,0,0,0,0,-1,538,477,0,0
-679,547,0,0,0,0,0,0,0,0,0,-1,545,477,0,0
-672,547,0,0,0,0,0,0,0,0,0,-1,552,477,0,0
-665,547,0,0,0,0,0,0,0,0,0,-1,559,477,0,0
-658,547,0,0,0,0,0,0,0,0,0,-1,566,477,0,0
-651,547,0,0,0,0,0,0,0,0,0,-1,573,477,0,0
-644,547,0,0,0,0,0,0,0,0,0,-1,580,477,0,0
-637,547,0,0,0,0,0,0,0,0,0,-1,587,477,0,0
-630,547,0,0,0,0,0,0,0,0,0,-1,594,477,0,0
-623,547,0,0,0,0,0,0,0,0,0,-1,601,477,0,0
-616,547,0,0,0,0,0,0,0,0,0,-1,608,477,0,0
-609,547,0,0,0,0,0,0,0,0,0,-1,615,477,0,0
-602,547,0,0,0,0,0,0,0,0,0,-1,622,477,0,0
-595,547,0,0,0,0,0,0,0,0,0,-1,629,477,0,0
-588,547,0,0,0,0,0,0,0,0,0,-1,636,477,0,0
-581,547,0,0,0,0,0,0,0,0,0,-1,643,477,0,0
-574,547,0,0,0,0,0,0,0,0,0,-1,650,477,0,0
-567,547,0,0,0,0,0,0,0,0,0,-1,657,477,0,0
-560,547,0,0,0,0,0,0,0,0,0,-1,664,477,0,0
-553,547,0,0,0,0,0,0,0,0,0,-1,671,477,0,0
-546,547,0,0,0,0,0,0,0,0,0,-1,678,477,0,0
-539,547,0,0,0,0,0,0,0,0,0,-1,685,477,0,0
-532,547,0,0,0,0,0,0,0,0,0,-1,692,477,0,0
-525,547,0,0,0,0,0,0,0,0,0,-1,699,477,0,0
-518,547,0,0,0,0,0,0,0,0,0,-1,706,477,0,0
-511,547,0,0,0,0,0,0,0,0,0,-1,713,477,0,0
-504,547,0,0,0,0,0,0,0,0,0,-1,720,477,0,0
-497,547,0,0,0,0,0,0,0,0,0,-1,727,477,0,0
-490,547,0,0,0,0,0,0,0,0,0,-1,734,477,0,0
-483,547,0,0,0,0,0,0,0,0,0,-1,741,477,0,0
-476,547,0,0,0,0,0,0,0,0,0,-1,748,477,0,0
-469,547,0,0,0,0,0,0,0,0,0,-1,755,477,0,0
-462,547,0,0,0,0,0,0,0,0,0,-1,762,477,0,0
-455,547,0,0,0,0,0,0,0,0,0,-1,769,477,0,0
-448,547,0,0,0,0,0,0,0,0,0,-1,776,477,0,0
-441,547,0,0,0,0,0,0,0,0,0,-1,783,477,0,0
-434,547,0,0,0,0,0,0,0,0,0,-1,790,477,0,0
-427,547,0,0,0,0,0,0,0,0,0,-1,797,477,0,0
-420,547,0,0,0,0,0,0,0,0,0,-1,804,477,0,0
-413,547,0,0,0,0,0,0,0,0,0,-1,811,477,0,0
-406,547,-1.9129,-4.21432,0,0,0,0,0,0,0,-1,818,477,-1.91292,4.21433
-399,547,1.61487,-2.37161,0,0,0,0,0,0,0,-1,825,477,1.61489,2.37162
-392,547,1.35889,-1.38098,0,0,0,0,0,0,0,-1,832,477,1.35886,1.38098
-385,547,-0.308533,-4.51331,0,0,0,0,0,0,0,-1,839,477,-0.308519,4.51331
-378,547,-0.200256,-5.3024,0,0,0,0,0,0,0,-1,846,477,-0.200245,5.3024
-371,547,-0.116943,-4.61679,0,0,0,0,0,0,0,-1,853,477,-0.116958,4.61679
-364,547,0.271729,-4.58582,0,0,0,0,0,0,0,-1,860,477,0.271753,4.5858
-357,547,0.947998,-6.05045,0,0,0,0,0,0,0,-1,867,477,0.947982,6.05044
-350,547,0.898743,-6.62524,0,0,0,0,0,0,0,-1,874,477,0.898763,6.62524
-343,547,0.850342,-6.84903,-0.00843994,-0.00358687,0.000775034,-0.00346611,-0.00856071,1.41622,0.00497225,0.0337499,881,477,0.850372,6.84902
-336,547,0.796936,-7.04337,-0.00790458,-0.00389145,0.000673692,-0.00378137,-0.00801465,1.40884,0.00462971,0.0145485,888,477,0.796916,7.04336
-329,547,0.770996,-7.22809,-0.00681338,-0.00386574,0.000324292,-0.00383048,-0.00684864,1.4625,0.00396332,0.0090007,895,477,0.771004,7.2281
-322,547,0.760559,-7.42209,-0.0054095,-0.00352566,-6.75342e-05,-0.00352324,-0.00541192,-1.53501,0.00317172,0.0102063,902,477,0.760558,7.42207
-315,547,0.752808,-7.61215,-0.00406764,-0.00302886,-0.000341426,-0.00292669,-0.00416981,-1.28003,0.00247199,0.0102669,909,477,0.752817,7.61216
-308,547,0.772583,-7.79883,-0.00282876,-0.00267461,-0.000565888,-0.00218057,-0.0033228,-0.853083,0.00194939,0.0114363,916,477,0.772553,7.79882
-301,547,0.770813,-7.99115,-0.00170116,-0.00210996,-0.000753346,-0.00112498,-0.00268614,-0.652929,0.00155765,0.0110771,923,477,0.77083,7.99114
-294,547,0.730713,-8.16251,-0.000778796,-0.00162035,-0.000816975,-0.000280606,-0.00211854,-0.547593,0.00132874,0.0101155,930,477,0.730684,8.1625
-287,547,0.721313,-8.32965,-9.95269e-05,-0.00124389,-0.000837706,0.000342758,-0.00168618,-0.485774,0.00125408,0.0114455,937,477,0.721327,8.32967
-280,547,0.732422,-8.52249,0.000422835,-0.00102039,-0.000762336,0.000750928,-0.00134848,-0.406418,0.00122835,0.0126786,944,477,0.732452,8.52249
-273,547,0.733276,-8.71051,0.000685268,-0.000780232,-0.000643463,0.000927693,-0.00102266,-0.360305,0.00112648,0.0117471,951,477,0.733285,8.71052
-266,547,0.72644,-8.88593,0.000690473,-0.00018777,-0.000279478,0.000771866,-0.000269163,-0.283395,0.00062396,0.0113528,958,477,0.726425,8.88593
-259,547,0.729431,-9.04926,0.000616562,0.00015986,-1.2588e-05,0.000616908,0.000159514,-0.027535,0.000369754,0.0108509,965,477,0.72944,9.04927
-252,547,0.74292,-9.20175,0.000186081,0.00034528,0.000302863,0.000578829,-4.74681e-05,0.913903,0.000402642,0.0112188,972,477,0.742947,9.20175
-245,547,0.763428,-9.35742,-0.000478273,0.000492131,0.000793138,0.000936708,-0.00092285,1.05991,0.00107363,0.0122993,979,477,0.763455,9.35741
-238,547,0.775818,-9.53287,-0.000834068,0.000706805,0.00118574,0.00135042,-0.00147768,1.0735,0.00163336,0.00851453,986,477,0.775811,9.53285
-231,547,0.778015,-9.70026,-0.00131985,0.000945619,0.00152833,0.00171522,-0.00208945,1.10431,0.00220017,0.00791383,993,477,0.777998,9.70026
-224,547,0.784973,-9.82565,-0.00185644,0.0010274,0.00195418,0.00201405,-0.00284309,1.10324,0.00281786,0.0101579,1000,477,0.784961,9.82564
-217,547,0.811157,-9.98413,-0.00220765,0.00113653,0.00219523,0.00222395,-0.00329508,1.11087,0.00320635,0.0132558,1007,477,0.811152,9.98414
-210,547,0.852966,-10.1377,-0.00246495,0.00119856,0.00208843,0.00214472,-0.00341112,1.14541,0.00323533,0.0213591,1014,477,0.852979,10.1377
-203,547,0.837891,-10.1864,-0.00265312,0.00127776,0.00154733,0.00181375,-0.00318911,1.23733,0.00292456,0.032974,1021,477,0.837914,10.1864
-196,547,0.661255,-10.2799,-0.00238052,0.00147116,0.000782244,0.00162396,-0.00253333,1.37788,0.00241928,0.0409313,1028,477,0.661239,10.2799
-189,547,0.810181,-10.4474,-0.00217051,0.00171303,-0.00092816,0.00192345,-0.00238094,-1.34785,0.00248981,0.0494044,1035,477,0.810145,10.4474
-182,547,0.996948,-10.5509,0,0,0,0,0,0,0,-1,1042,477,0.996983,10.5509
-175,547,0.923462,-10.7401,0,0,0,0,0,0,0,-1,1049,477,0.923486,10.7401
-168,547,1.12463,-8.66785,0,0,0,0,0,0,0,-1,1056,477,1.12461,8.66786
-161,547,-0.866577,-10.5763,0,0,0,0,0,0,0,-1,1063,477,-0.866574,10.5763
-154,547,2.52441,-11.807,0,0,0,0,0,0,0,-1,1070,477,2.52436,11.807
-147,547,2.672,-10.9354,0,0,0,0,0,0,0,-1,1077,477,2.67199,10.9354
-140,547,3.08398,-10.9924,0,0,0,0,0,0,0,-1,1084,477,3.08399,10.9924
-133,547,3.49597,-11.0495,0,0,0,0,0,0,0,-1,1091,477,3.49598,11.0495
-126,547,0.784302,-9.76431,0,0,0,0,0,0,0,-1,1098,477,0.78428,9.76432
-119,547,-0.531006,-10.0229,0,0,0,0,0,0,0,-1,1105,477,-0.530984,10.0229
-112,547,4.36194,-9.23029,0,0,0,0,0,0,0,-1,1112,477,4.36195,9.23029
-105,547,4.448,-9.17819,0,0,0,0,0,0,0,-1,1119,477,4.44799,9.1782
-98,547,1.50391,-7.20621,0,0,0,0,0,0,0,-1,1126,477,1.50395,7.20621
-91,547,1.37805,-7.12024,0,0,0,0,0,0,0,-1,1133,477,1.37804,7.12025
-84,547,1.94202,-6.66241,0,0,0,0,0,0,0,-1,1140,477,1.94201,6.66241
-77,547,-2.28357,1.8588,0,0,0,0,0,0,0,-1,1147,477,-2.28356,-1.85879
-70,547,-3.70178,-0.874908,0,0,0,0,0,0,0,-1,1154,477,-3.70182,0.874918
-63,547,-5.12012,-3.60861,0,0,0,0,0,0,0,-1,1161,477,-5.12009,3.60862
-56,547,-6.01917,-6.2399,0,0,0,0,0,0,0,-1,1168,477,-6.01921,6.23991
-49,547,-6.729,-8.60349,0,0,0,0,0,0,0,-1,1175,477,-6.72899,8.60348
-42,547,-2.41736,-5.53012,0,0,0,0,0,0,0,-1,1182,477,-2.41734,5.53011
-35,547,-2.96838,-4.45734,0,0,0,0,0,0,0,-1,1189,477,-2.96839,4.45734
-28,547,-0.869141,-1.29901,0,0,0,0,0,0,0,-1,1196,477,-0.869135,1.29901
-21,547,7.02197,-10.6903,0,0,0,0,0,0,0,-1,1203,477,7.02195,10.6903
-14,547,1.01721,-13.8526,0,0,0,0,0,0,0,-1,1210,477,1.01719,13.8526
-7,547,1.21802,-11.6566,0,0,0,0,0,0,0,-1,1217,477,1.21807,11.6567
0,547,1.34045,-9.83615,0,0,0,0,0,0,0,-1,1224,477,1.34047,9.83614
7,547,1.92285,-8.45636,0,0,0,0,0,0,0,-1,1231,477,1.92288,8.45635
14,547,0,0,0,0,0,0,0,0,0,-1,1238,477,0,0
21,547,0,0,0,0,0,0,0,0,0,-1,1245,477,0,0
28,547,0,0,0,0,0,0,0,0,0,-1,1252,477,0,0
35,547,0,0,0,0,0,0,0,0,0,-1,1259,477,0,0
42,547,0,0,0,0,0,0,0,0,0,-1,1266,477,0,0
49,547,0,0,0,0,0,0,0,0,0,-1,1273,477,0,0
56,547,0,0,0,0,0,0,0,0,0,-1,1280,477,0,0
63,547,0,0,0,0,0,0,0,0,0,-1,1287,477,0,0
70,547,0,0,0,0,0,0,0,0,0,-1,1294,477,0,0
77,547,0,0,0,0,0,0,0,0,0,-1,1301,477,0,0
84,547,0,0,0,0,0,0,0,0,0,-1,1308,477,0,0
91,547,0,0,0,0,0,0,0,0,0,-1,1315,477,0,0
98,547,0,0,0,0,0,0,0,0,0,-1,1322,477,0,0
105,547,3.90308,-10.6537,0,0,0,0,0,0,0,-1,1329,477,3.90311,10.6537
112,547,3.61218,-10.4021,0,0,0,0,0,0,0,-1,1336,477,3.61213,10.4021
119,547,4.17175,-14.841,0,0,0,0,0,0,0,-1,1343,477,4.17171,14.841
126,547,5.21948,-14.5869,0,0,0,0,0,0,0,-1,1350,477,5.21951,14.5869
133,547,6.15442,-15.2622,0,0,0,0,0,0,0,-1,1357,477,6.15442,15.2622
140,547,-3.45068,-10.2094,0,0,0,0,0,0,0,-1,1364,477,-3.45064,10.2093
147,547,-3.64709,-10.4085,0,0,0,0,0,0,0,-1,1371,477,-3.64715,10.4085
154,547,9.67859,-5.13992,0,0,0,0,0,0,0,-1,1378,477,9.67863,5.13993
161,547,8.92871,-4.94177,0,0,0,0,0,0,0,-1,1385,477,8.92874,4.94177
168,547,-6.75854,-16.465,0,0,0,0,0,0,0,-1,1392,477,-6.75852,16.465
175,547,3.35034,-0.26532,0,0,0,0,0,0,0,-1,1399,477,3.3503,0.265306
182,547,4.26038,3.72672,0,0,0,0,0,0,0,-1,1406,477,4.26039,-3.7267
189,547,3.40454,1.28671,0,0,0,0,0,0,0,-1,1413,477,3.40457,-1.28673
196,547,3.53931,1.87793,0,0,0,0,0,0,0,-1,1420,477,3.53928,-1.87794
203,547,6.49414,-0.425842,0,0,0,0,0,0,0,-1,1427,477,6.4941,0.425844
210,547,4.82092,0.53595,0,0,0,0,0,0,0,-1,1434,477,4.82096,-0.535942
217,547,4.68579,0.480072,0,0,0,0,0,0,0,-1,1441,477,4.68577,-0.480069
224,547,4.55615,0.739807,0,0,0,0,0,0,0,-1,1448,477,4.55613,-0.73981
231,547,5.90869,-3.57721,0,0,0,0,0,0,0,-1,1455,477,5.90871,3.57722
238,547,5.50049,-3.15356,0,0,0,0,0,0,0,-1,1462,477,5.50045,3.15356
245,547,5.13708,-2.65213,0,0,0,0,0,0,0,-1,1469,477,5.13708,2.65212
252,547,3.73511,-0.645233,0,0,0,0,0,0,0,-1,1476,477,3.73515,0.645237
259,547,5.86816,-3.20816,0,0,0,0,0,0,0,-1,1483,477,5.86815,3.20816
266,547,5.40222,-2.45731,0,0,0,0,0,0,0,-1,1490,477,5.40221,2.45732
273,547,3.05737,0.495789,0,0,0,0,0,0,0,-1,1497,477,3.05742,-0.49578
280,547,2.0885,1.47797,0,0,0,0,0,0,0,-1,1504,477,2.08848,-1.47795
287,547,2.31177,-2.21716,0,0,0,0,0,0,0,-1,1511,477,2.31174,2.21717
294,547,2.4823,-3.03659,0,0,0,0,0,0,0,-1,1518,477,2.48229,3.0366
301,547,4.72119,-3.93454,0,0,0,0,0,0,0,-1,1525,477,4.72119,3.93453
308,547,4.07471,-5.42175,0,0,0,0,0,0,0,-1,1532,477,4.07468,5.42174
315,547,3.58496,-6.62112,0,0,0,0,0,0,0,-1,1539,477,3.58497,6.62113
322,547,4.14697,-9.51862,0,0,0,0,0,0,0,-1,1546,477,4.14692,9.51862
329,547,4.20422,-9.31592,-0.00446613,-0.00173544,-0.00690808,0.00394093,-0.0101425,-0.882963,0.00838973,0.0483108,1553,477,4.20423,9.31592
336,547,4.19971,-9.21802,-0.00414675,-0.00155889,-0.00605714,0.00334098,-0.00904662,-0.890627,0.00740054,0.0305346,1560,477,4.19973,9.21802
343,547,4.12915,-9.09744,-0.00416485,-0.00236417,-0.00561381,0.00242104,-0.00895006,-0.864911,0.00691644,0.0241712,1567,477,4.12918,9.09744
350,547,4.1438,-8.93478,-0.00403057,-0.00285468,-0.00517536,0.00176602,-0.00865127,-0.841958,0.00643745,0.0191201,1574,477,4.14384,8.93478
357,547,4.13208,-8.72318,-0.00357488,-0.00307197,-0.00486198,0.00154506,-0.00819191,-0.811234,0.0060425,0.0146772,1581,477,4.13206,8.72318
364,547,4.12024,-8.51154,-0.00324486,-0.00299388,-0.00452608,0.00140844,-0.00764718,-0.799257,0.00562667,0.0102872,1588,477,4.12029,8.51154
371,547,4.12793,-8.32098,-0.00296412,-0.00287489,-0.00404889,0.00112963,-0.00696864,-0.790907,0.00506447,0.00913077,1595,477,4.12796,8.32098
378,547,4.13367,-8.14038,-0.00251537,-0.00256979,-0.00353432,0.000991847,-0.00607701,-0.781549,0.00441922,0.0093741,1602,477,4.1337,8.14037
385,547,4.13782,-7.95367,-0.00217723,-0.00232396,-0.00310167,0.000851943,-0.00535313,-0.773574,0.00388401,0.00903687,1609,477,4.1378,7.95367
392,547,4.1272,-7.7511,-0.00186897,-0.00207843,-0.0026808,0.000709144,-0.00465655,-0.765874,0.00336574,0.0106009,1616,477,4.12717,7.7511
399,547,4.11182,-7.53912,-0.00153729,-0.00171912,-0.00229351,0.000667107,-0.00392351,-0.765588,0.00286406,0.0128708,1623,477,4.11187,7.53912
406,547,4.12415,-7.33728,-0.0012201,-0.00130326,-0.00186263,0.000601416,-0.00312478,-0.774239,0.0023099,0.0130699,1630,477,4.1241,7.33729
413,547,4.13867,-7.1474,-0.00105655,-0.000765677,-0.00139557,0.000492018,-0.00231424,-0.837316,0.00173031,0.0131113,1637,477,4.13872,7.14741
420,547,4.13013,-6.96375,-0.00104136,-0.00032423,-0.00102601,0.000404064,-0.00176966,-0.953502,0.001335,0.015417,1644,477,4.13009,6.96375
427,547,4.13831,-6.76309,-0.00120917,4.2835e-05,-0.000785084,0.000420942,-0.00158728,-1.12197,0.00122289,0.0146733,1651,477,4.13834,6.7631
434,547,4.11951,-6.56549,-0.00153593,-0.000191105,-0.000904384,0.000263448,-0.00199048,-1.10506,0.00142295,0.00964726,1658,477,4.11947,6.5655
441,547,4.12048,-6.3569,-0.0019157,-0.000315618,-0.000932116,0.000112717,-0.00234403,-1.14005,0.00160158,0.0099613,1665,477,4.12048,6.3569
448,547,4.12256,-6.12994,-0.00245923,-0.000604309,-0.00111285,-8.31095e-05,-0.00298043,-1.13279,0.00195984,0.010207,1672,477,4.12251,6.12995
455,547,4.12231,-5.91483,-0.00316203,-0.00118879,-0.00156005,-0.000329553,-0.00402127,-1.06736,0.00257802,0.00980792,1679,477,4.12234,5.91484
462,547,4.10657,-5.70938,-0.00382236,-0.00240351,-0.00202947,-0.000963043,-0.00526283,-0.95354,0.00323567,0.0102853,1686,477,4.10653,5.70937
469,547,4.09167,-5.47488,-0.00448773,-0.00381839,-0.00253669,-0.00159439,-0.00671173,-0.850986,0.00404905,0.0181314,1693,477,4.09166,5.4749
476,547,4.13843,-5.12189,-0.00523549,-0.00574606,-0.00318977,-0.00229081,-0.00869074,-0.745467,0.00520119,0.0408721,1700,477,4.13837,5.1219
483,547,4.21765,-4.70963,0,0,0,0,0,0,0,-1,1707,477,4.21763,4.70962
490,547,3.65271,-3.71707,0,0,0,0,0,0,0,-1,1714,477,3.65277,3.71708
497,547,2.55481,-3.81421,0,0,0,0,0,0,0,-1,1721,477,2.55476,3.8142
504,547,4.01953,-2.22714,0,0,0,0,0,0,0,-1,1728,477,4.0195,2.22713
511,547,4.82495,-1.45642,0,0,0,0,0,0,0,-1,1735,477,4.82495,1.45641
518,547,4.69446,-3.75436,0,0,0,0,0,0,0,-1,1742,477,4.69445,3.75438
525,547,0.781616,-3.76355,0,0,0,0,0,0,0,-1,1749,477,0.781645,3.76354
532,547,0,0,0,0,0,0,0,0,0,-1,1756,477,0,0
539,547,0,0,0,0,0,0,0,0,0,-1,1763,477,0,0
546,547,0,0,0,0,0,0,0,0,0,-1,1770,477,0,0
553,547,0,0,0,0,0,0,0,0,0,-1,1777,477,0,0
560,547,0,0,0,0,0,0,0,0,0,-1,1784,477,0,0
567,547,0,0,0,0,0,0,0,0,0,-1,1791,477,0,0
574,547,0,0,0,0,0,0,0,0,0,-1,1798,477,0,0
581,547,0,0,0,0,0,0,0,0,0,-1,1805,477,0,0
588,547,0,0,0,0,0,0,0,0,0,-1,1812,477,0,0
595,547,0,0,0,0,0,0,0,0,0,-1,1819,477,0,0
602,547,0,0,0,0,0,0,0,0,0,-1,1826,477,0,0
609,547,0,0,0,0,0,0,0,0,0,-1,1833,477,0,0
616,547,0,0,0,0,0,0,0,0,0,-1,1840,477,0,0
623,547,0,0,0,0,0,0,0,0,0,-1,1847,477,0,0
630,547,0,0,0,0,0,0,0,0,0,-1,1854,477,0,0
637,547,0,0,0,0,0,0,0,0,0,-1,1861,477,0,0
644,547,0,0,0,0,0,0,0,0,0,-1,1868,477,0,0
651,547,0,0,0,0,0,0,0,0,0,-1,1875,477,0,0
658,547,0,0,0,0,0,0,0,0,0,-1,1882,477,0,0
665,547,0,0,0,0,0,0,0,0,0,-1,1889,477,0,0
672,547,0,0,0,0,0,0,0,0,0,-1,1896,477,0,0
679,547,0,0,0,0,0,0,0,0,0,-1,1903,477,0,0
686,547,0,0,0,0,0,0,0,0,0,-1,1910,477,0,0
693,547,0,0,0,0,0,0,0,0,0,-1,1917,477,0,0
700,547,0,0,0,0,0,0,0,0,0,-1,1924,477,0,0
707,547,0,0,0,0,0,0,0,0,0,-1,1931,477,0,0
714,547,0,0,0,0,0,0,0,0,0,-1,1938,477,0,0
721,547,0,0,0,0,0,0,0,0,0,-1,1945,477,0,0
728,547,0,0,0,0,0,0,0,0,0,-1,1952,477,0,0
735,547,0,0,0,0,0,0,0,0,0,-1,1959,477,0,0
742,547,0,0,0,0,0,0,0,0,0,-1,1966,477,0,0
749,547,0,0,0,0,0,0,0,0,0,-1,1973,477,0,0
756,547,0,0,0,0,0,0,0,0,0,-1,1980,477,0,0
763,547,0,0,0,0,0,0,0,0,0,-1,1987,477,0,0
770,547,0,0,0,0,0,0,0,0,0,-1,1994,477,0,0
777,547,0,0,0,0,0,0,0,0,0,-1,2001,477,0,0
784,547,0,0,0,0,0,0,0,0,0,-1,2008,477,0,0
791,547,0,0,0,0,0,0,0,0,0,-1,2015,477,0,0
798,547,0,0,0,0,0,0,0,0,0,-1,2022,477,0,0
805,547,0,0,0,0,0,0,0,0,0,-1,2029,477,0,0
812,547,0,0,0,0,0,0,0,0,0,-1,2036,477,0,0
-700,540,0,0,0,0,0,0,0,0,0,-1,524,484,0,0
-693,540,0,0,0,0,0,0,0,0,0,-1,531,484,0,0
-686,540,0,0,0,0,0,0,0,0,0,-1,538,484,0,0
-679,540,0,0,0,0,0,0,0,0,0,-1,545,484,0,0
-672,540,0,0,0,0,0,0,0,0,0,-1,552,484,0,0
-665,540,0,0,0,0,0,0,0,0,0,-1,559,484,0,0
-658,540,0,0,0,0,0,0,0,0,0,-1,566,484,0,0
-651,540,0,0,0,0,0,0,0,0,0,-1,573,484,0,0
-644,540,0,0,0,0,0,0,0,0,0,-1,580,484,0,0
-637,540,0,0,0,0,0,0,0,0,0,-1,587,484,0,0
-630,540,0,0,0,0,0,0,0,0,0,-1,594,484,0,0
-623,540,0,0,0,0,0,0,0,0,0,-1,601,484,0,0
-616,540,0,0,0,0,0,0,0,0,0,-1,608,484,0,0
-609,540,0,0,0,0,0,0,0,0,0,-1,615,484,0,0
-602,540,0,0,0,0,0,0,0,0,0,-1,622,484,0,0
-595,540,0,0,0,0,0,0,0,0,0,-1,629,484,0,0
-588,540,0,0,0,0,0,0,0,0,0,-1,636,484,0,0
-581,540,0,0,0,0,0,0,0,0,0,-1,643,484,0,0
-574,540,0,0,0,0,0,0,0,0,0,-1,650,484,0,0
-567,540,0,0,0,0,0,0,0,0,0,-1,657,484,0,0
-560,540,0,0,0,0,0,0,0,0,0,-1,664,484,0,0
-553,540,0,0,0,0,0,0,0,0,0,-1,671,484,0,0
-546,540,0,0,0,0,0,0,0,0,0,-1,678,484,0,0
-539,540,0,0,0,0,0,0,0,0,0,-1,685,484,0,0
-532,540,0,0,0,0,0,0,0,0,0,-1,692,484,0,0
-525,540,0,0,0,0,0,0,0,0,0,-1,699,484,0,0
-518,540,0,0,0,0,0,0,0,0,0,-1,706,484,0,0
-511,540,0,0,0,0,0,0,0,0,0,-1,713,484,0,0
-504,540,0,0,0,0,0,0,0,0,0,-1,720,484,0,0
-497,540,0,0,0,0,0,0,0,0,0,-1,727,484,0,0
-490,540,0,0,0,0,0,0,0,0,0,-1,734,484,0,0
-483,540,0,0,0,0,0,0,0,0,0,-1,741,484,0,0
-476,540,0,0,0,0,0,0,0,0,0,-1,748,484,0,0
-469,540,0,0,0,0,0,0,0,0,0,-1,755,484,0,0
-462,540,0,0,0,0,0,0,0,0,0,-1,762,484,0,0
-455,540,0,0,0,0,0,0,0,0,0,-1,769,484,0,0
-448,540,0,0,0,0,0,0,0,0,0,-1,776,484,0,0
-441,540,0,0,0,0,0,0,0,0,0,-1,783,484,0,0
-434,540,0,0,0,0,0,0,0,0,0,-1,790,484,0,0
-427,540,0,0,0,0,0,0,0,0,0,-1,797,484,0,0
-420,540,0.50824,-4.86896,0,0,0,0,0,0,0,-1,804,484,0.508247,4.86897
-413,540,-1.2381,-4.07144,0,0,0,0,0,0,0,-1,811,484,-1.23807,4.07143
-406,540,1.69879,-4.28293,0,0,0,0,0,0,0,-1,818,484,1.6988,4.28293
-399,540,2.06079,-3.6463,0,0,0,0,0,0,0,-1,825,484,2.06078,3.6463
-392,540,0.883789,-2.51743,0,0,0,0,0,0,0,-1,832,484,0.883774,2.51744
-385,540,0.769104,-2.28012,0,0,0,0,0,0,0,-1,839,484,0.769126,2.28011
-378,540,-3.828,-3.2016,0,0,0,0,0,0,0,-1,846,484,-3.82798,3.20159
-371,540,-0.0177002,-4.21246,0,0,0,0,0,0,0,-1,853,484,-0.0176722,4.21247
-364,540,0.633728,-5.7272,0,0,0,0,0,0,0,-1,860,484,0.633739,5.72721
-357,540,0.593262,-6.38602,0,0,0,0,0,0,0,-1,867,484,0.593235,6.38601
-350,540,0.613159,-6.63345,-0.00467753,-0.00105655,0.00017418,-0.00104819,-0.00468589,1.52284,0.00283976,0.0312883,874,484,0.613154,6.63345
-343,540,0.599731,-6.82791,-0.00542563,-0.00188475,0.000497407,-0.0018162,-0.00549417,1.43385,0.0032322,0.0130502,881,484,0.599755,6.82793
-336,540,0.567261,-7.04691,-0.0052822,-0.00224335,0.000531434,-0.00215309,-0.00537246,1.40257,0.00312209,0.0114047,888,484,0.56729,7.04692
-329,540,0.559082,-7.21902,-0.00457976,-0.00230214,0.000292901,-0.00226508,-0.00461682,1.44493,0.00266568,0.0101623,895,484,0.559073,7.21903
-322,540,0.564636,-7.41541,-0.00358941,-0.00211934,1.86684e-05,-0.00211911,-0.00358965,1.5581,0.00208373,0.0139047,902,484,0.564609,7.4154
-315,540,0.546997,-7.61353,-0.00263667,-0.00181477,-0.000163715,-0.00178336,-0.00266808,-1.38124,0.00156927,0.0126735,909,484,0.547003,7.61351
-308,540,0.554504,-7.79025,-0.00171329,-0.00163398,-0.000317405,-0.00135376,-0.00199351,-0.847548,0.0011753,0.0118214,916,484,0.554492,7.79026
-301,540,0.539063,-7.95621,-0.000856292,-0.00126525,-0.0004625,-0.000555084,-0.00156645,-0.577261,0.000917092,0.0116895,923,484,0.539066,7.9562
-294,540,0.558105,-8.15805,-0.000152027,-0.000970719,-0.00049287,7.93178e-05,-0.00120206,-0.438855,0.000829081,0.0119793,930,484,0.558121,8.15806
-287,540,0.57489,-8.35059,0.000340578,-0.000838601,-0.000474427,0.000507756,-0.00100578,-0.338792,0.000889469,0.00876149,937,484,0.574867,8.35057
-280,540,0.568542,-8.51947,0.000727001,-0.00079546,-0.000377494,0.000815461,-0.00088392,-0.230181,0.000981403,0.00899966,944,484,0.568514,8.51945
-273,540,0.578125,-8.7023,0.000798764,-0.000670394,-0.000241738,0.000837518,-0.000709148,-0.158961,0.000893993,0.0106902,951,484,0.578101,8.70231
-266,540,0.573242,-8.88248,0.000678706,-0.000150471,7.27485e-05,0.00068504,-0.000156805,0.0868517,0.000516951,0.0118494,958,484,0.573229,8.88249
-259,540,0.570618,-9.03864,0.000515606,0.000118556,0.000354295,0.000723205,-8.90434e-05,0.530026,0.000514393,0.0118582,965,484,0.570627,9.03865
-252,540,0.590759,-9.21002,-4.88176e-05,0.000292503,0.000689172,0.000831831,-0.000588146,0.906772,0.000823838,0.0120796,972,484,0.590776,9.21003
-245,540,0.606384,-9.38782,-0.000903726,0.000447465,0.00123388,0.0011786,-0.00163486,1.03587,0.00163146,0.0125564,979,484,0.606412,9.38783
-238,540,0.600098,-9.54672,-0.00143024,0.000783494,0.00167853,0.00168725,-0.002334,1.07689,0.00233166,0.00911848,986,484,0.600114,9.54672
-231,540,0.599121,-9.6926,-0.00212693,0.00124174,0.00207066,0.0022266,-0.0031118,1.12684,0.00309622,0.0111207,993,484,0.599119,9.69258
-224,540,0.632141,-9.82361,-0.00301941,0.0015128,0.00262919,0.0027177,-0.00422431,1.14108,0.00403931,0.0160186,1000,484,0.632152,9.82362
-217,540,0.606018,-10.0728,-0.00378539,0.00182419,0.00302638,0.00314563,-0.00510683,1.15911,0.0048092,0.0260235,1007,484,0.605997,10.0728
-210,540,0.749695,-10.1452,-0.00443925,0.00209169,0.00309287,0.0033239,-0.00567146,1.19167,0.0052521,0.0422106,1014,484,0.749697,10.1452
-203,540,0.703918,-10.1031,-0.00508048,0.00220916,0.00263239,0.00306036,-0.00593168,1.25805,0.00527904,0.0453755,1021,484,0.703903,10.1032
-196,540,0.256104,-10.2118,-0.00507637,0.00242323,0.00186655,0.00286211,-0.00551525,1.33986,0.00491686,0.048719,1028,484,0.256149,10.2118
-189,540,0.155029,-10.2498,0,0,0,0,0,0,0,-1,1035,484,0.155053,10.2498
-182,540,0.889893,-7.7973,0,0,0,0,0,0,0,-1,1042,484,0.889893,7.79729
-175,540,1.02588,-7.74042,0,0,0,0,0,0,0,-1,1049,484,1.02589,7.74043
-168,540,1.18164,-7.65347,0,0,0,0,0,0,0,-1,1056,484,1.18163,7.65347
-161,540,-1.31653,-9.93869,0,0,0,0,0,0,0,-1,1063,484,-1.31651,9.93868
-154,540,-0.348145,-9.39148,0,0,0,0,0,0,0,-1,1070,484,-0.348166,9.39148
-147,540,1.22168,-8.1449,0,0,0,0,0,0,0,-1,1077,484,1.22172,8.14489
-140,540,3.28809,-10.4965,0,0,0,0,0,0,0,-1,1084,484,3.28804,10.4965
-133,540,0.733276,-8.80582,0,0,0,0,0,0,0,-1,1091,484,0.733219,8.80582
-126,540,1.06201,-9.57385,0,0,0,0,0,0,0,-1,1098,484,1.06204,9.57385
-119,540,6.18579,-10.4846,0,0,0,0,0,0,0,-1,1105,484,6.18582,10.4846
-112,540,5.8468,-9.65106,0,0,0,0,0,0,0,-1,1112,484,5.84681,9.65106
-105,540,5.50781,-8.81754,0,0,0,0,0,0,0,-1,1119,484,5.5078,8.81753
-98,540,0.73877,-3.08093,0,0,0,0,0,0,0,-1,1126,484,0.738754,3.08092
-91,540,1.56519,-7.48666,0,0,0,0,0,0,0,-1,1133,484,1.56514,7.48667
-84,540,-0.945923,4.43073,0,0,0,0,0,0,0,-1,1140,484,-0.945891,-4.43074
-77,540,-2.28894,2.14368,0,0,0,0,0,0,0,-1,1147,484,-2.28894,-2.14368
-70,540,-3.75244,-0.452576,0,0,0,0,0,0,0,-1,1154,484,-3.75244,0.452576
-63,540,-5.26257,-3.04767,0,0,0,0,0,0,0,-1,1161,484,-5.26262,3.04766
-56,540,-5.19055,-6.12595,0,0,0,0,0,0,0,-1,1168,484,-5.19057,6.12595
-49,540,-5.63867,-8.52298,0,0,0,0,0,0,0,-1,1175,484,-5.63871,8.52298
-42,540,0,0,0,0,0,0,0,0,0,-1,1182,484,0,0
-35,540,0,0,0,0,0,0,0,0,0,-1,1189,484,0,0
-28,540,0,0,0,0,0,0,0,0,0,-1,1196,484,0,0
-21,540,0,0,0,0,0,0,0,0,0,-1,1203,484,0,0
-14,540,0,0,0,0,0,0,0,0,0,-1,1210,484,0,0
-7,540,0,0,0,0,0,0,0,0,0,-1,1217,484,0,0
0,540,0,0,0,0,0,0,0,0,0,-1,1224,484,0,0
7,540,0,0,0,0,0,0,0,0,0,-1,1231,484,0,0
14,540,0,0,0,0,0,0,0,0,0,-1,1238,484,0,0
21,540,0,0,0,0,0,0,0,0,0,-1,1245,484,0,0
28,540,0,0,0,0,0,0,0,0,0,-1,1252,484,0,0
35,540,0,0,0,0,0,0,0,0,0,-1,1259,484,0,0
42,540,0,0,0,0,0,0,0,0,0,-1,1266,484,0,0
49,540,0,0,0,0,0,0,0,0,0,-1,1273,484,0,0
56,540,0,0,0,0,0,0,0,0,0,-1,1280,484,0,0
63,540,0,0,0,0,0,0,0,0,0,-1,1287,484,0,0
70,540,0,0,0,0,0,0,0,0,0,-1,1294,484,0,0
77,540,0,0,0,0,0,0,0,0,0,-1,1301,484,0,0
84,540,0,0,0,0,0,0,0,0,0,-1,1308,484,0,0
91,540,0,0,0,0,0,0,0,0,0,-1,1315,484,0,0
98,540,0,0,0,0,0,0,0,0,0,-1,1322,484,0,0
105,540,0,0,0,0,0,0,0,0,0,-1,1329,484,0,0
112,540,0,0,0,0,0,0,0,0,0,-1,1336,484,0,0
119,540,0,0,0,0,0,0,0,0,0,-1,1343,484,0,0
126,540,0,0,0,0,0,0,0,0,0,-1,1350,484,0,0
133,540,0,0,0,0,0,0,0,0,0,-1,1357,484,0,0
140,540,0,0,0,0,0,0,0,0,0,-1,1364,484,0,0
147,540,0,0,0,0,0,0,0,0,0,-1,1371,484,0,0
154,540,0,0,0,0,0,0,0,0,0,-1,1378,484,0,0
161,540,0,0,0,0,0,0,0,0,0,-1,1385,484,0,0
168,540,3.05078,-0.0010376,0,0,0,0,0,0,0,-1,1392,484,3.05084,0.00102554
175,540,3.37708,0.617035,0,0,0,0,0,0,0,-1,1399,484,3.37707,-0.617046
182,540,3.32678,1.23267,0,0,0,0,0,0,0,-1,1406,484,3.32678,-1.23266
189,540,3.5813,2.15619,0,0,0,0,0,0,0,-1,1413,484,3.58129,-2.1562
196,540,1.84448,-0.801483,0,0,0,0,0,0,0,-1,1420,484,1.84446,0.80148
203,540,4.14648,0.702087,0,0,0,0,0,0,0,-1,1427,484,4.14645,-0.702089
210,540,4.50671,-0.56076,0,0,0,0,0,0,0,-1,1434,484,4.50667,0.560771
217,540,5.00452,-0.278717,0,0,0,0,0,0,0,-1,1441,484,5.00452,0.278709
224,540,6.44458,-2.83527,0,0,0,0,0,0,0,-1,1448,484,6.44457,2.83525
231,540,6.9231,-3.10504,0,0,0,0,0,0,0,-1,1455,484,6.92307,3.10505
238,540,6.4823,-2.58365,0,0,0,0,0,0,0,-1,1462,484,6.48225,2.58363
245,540,6.02087,-1.97916,0,0,0,0,0,0,0,-1,1469,484,6.02088,1.97915
252,540,6.50647,-3.56006,0,0,0,0,0,0,0,-1,1476,484,6.50649,3.56006
259,540,6.01941,-2.798,0,0,0,0,0,0,0,-1,1483,484,6.01941,2.79801
266,540,5.5332,-2.02853,0,0,0,0,0,0,0,-1,1490,484,5.53323,2.02855
273,540,5.06787,-1.28137,0,0,0,0,0,0,0,-1,1497,484,5.06786,1.28136
280,540,1.62903,-2.14609,0,0,0,0,0,0,0,-1,1504,484,1.62906,2.1461
287,540,1.97156,-2.45053,0,0,0,0,0,0,0,-1,1511,484,1.97159,2.45053
294,540,2.44165,-2.6185,0,0,0,0,0,0,0,-1,1518,484,2.44167,2.6185
301,540,4.36169,-2.54272,0,0,0,0,0,0,0,-1,1525,484,4.36165,2.54272
308,540,4.2019,-4.30469,0,0,0,0,0,0,0,-1,1532,484,4.20193,4.3047
315,540,4.45923,-5.32101,0,0,0,0,0,0,0,-1,1539,484,4.45923,5.32103
322,540,4.71655,-6.33737,0,0,0,0,0,0,0,-1,1546,484,4.71653,6.33736
329,540,4.57861,-9.39435,0,0,0,0,0,0,0,-1,1553,484,4.57862,9.39435
336,540,4.66797,-9.30591,0,0,0,0,0,0,0,-1,1560,484,4.66799,9.30592
343,540,4.35535,-9.19965,0,0,0,0,0,0,0,-1,1567,484,4.3554,9.19966
350,540,4.32068,-9.04233,0,0,0,0,0,0,0,-1,1574,484,4.32063,9.04232
357,540,4.49756,-8.59952,-0.0054736,-0.00485842,-0.00712487,0.0019655,-0.0122975,-0.80697,0.00892594,0.0390767,1581,484,4.4976,8.59953
364,540,4.29321,-8.46539,-0.00488125,-0.00478501,-0.00677835,0.00194539,-0.0116116,-0.788948,0.00846441,0.0220304,1588,484,4.29317,8.46539
371,540,4.28284,-8.3302,-0.00439469,-0.00464621,-0.00615706,0.00163789,-0.0106788,-0.775187,0.00772327,0.0146291,1595,484,4.2828,8.3302
378,540,4.30066,-8.14587,-0.00368274,-0.00427095,-0.00546381,0.00149488,-0.00944857,-0.75851,0.00685191,0.0116312,1602,484,4.30066,8.14587
385,540,4.29431,-7.96371,-0.00316981,-0.00391659,-0.0048509,0.00132205,-0.00840845,-0.746988,0.00609431,0.0127011,1609,484,4.29431,7.9637
392,540,4.31018,-7.76382,-0.00270943,-0.00349343,-0.00424428,0.00116092,-0.00736377,-0.739349,0.0053384,0.0121136,1616,484,4.31014,7.76383
399,540,4.30164,-7.56226,-0.00223471,-0.00298096,-0.00371443,0.00112529,-0.00634096,-0.73534,0.00464804,0.0168824,1623,484,4.3016,7.56226
406,540,4.3009,-7.37491,-0.00179607,-0.00238415,-0.00312598,0.00104967,-0.00522989,-0.738504,0.00388405,0.0172491,1630,484,4.30086,7.37492
413,540,4.30334,-7.16315,-0.00143331,-0.00167012,-0.00247626,0.000927377,-0.0040308,-0.761508,0.00304379,0.0126532,1637,484,4.30329,7.16315
420,540,4.33289,-6.94983,-0.00121364,-0.00105367,-0.00189306,0.00076109,-0.00302841,-0.806512,0.00231472,0.0115022,1644,484,4.33288,6.94984
427,540,4.32422,-6.75882,-0.00119212,-0.000530007,-0.00144735,0.00062367,-0.0023458,-0.89783,0.00180797,0.012589,1651,484,4.32423,6.75881
434,540,4.31018,-6.55298,-0.0013005,-0.000419859,-0.001247,0.000462274,-0.00218264,-0.955118,0.00163117,0.0152862,1658,484,4.31023,6.55296
441,540,4.3457,-6.32504,-0.0014497,-0.000330564,-0.00102479,0.000277476,-0.00205774,-1.03529,0.00147306,0.0182932,1665,484,4.34576,6.32503
448,540,4.32263,-6.12039,-0.00167563,-0.000335406,-0.000887863,0.000106844,-0.00211788,-1.10866,0.00144885,0.0109062,1672,484,4.32264,6.1204
455,540,4.3241,-5.90631,-0.00201577,-0.000661012,-0.000984114,-0.000143686,-0.0025331,-1.08682,0.00164293,0.00945779,1679,484,4.32415,5.90631
462,540,4.3053,-5.67905,-0.00231984,-0.00157428,-0.00107821,-0.000806232,-0.00308789,-0.951836,0.00184939,0.0104474,1686,484,4.30524,5.67903
469,540,4.28931,-5.47308,-0.00261066,-0.00263293,-0.00120656,-0.00141518,-0.0038284,-0.780784,0.00223523,0.0130057,1693,484,4.28937,5.47309
476,540,4.27576,-5.31589,-0.00298083,-0.00405043,-0.00149147,-0.00193117,-0.00510009,-0.613253,0.0029733,0.0201149,1700,484,4.27574,5.3159
483,540,4.33228,-5.08716,-0.00321615,-0.00589845,-0.00170168,-0.00239064,-0.00672395,-0.451666,0.00393571,0.033938,1707,484,4.33223,5.08717
490,540,4.51843,-4.77127,0,0,0,0,0,0,0,-1,1714,484,4.51838,4.77128
497,540,4.27393,-2.67752,0,0,0,0,0,0,0,-1,1721,484,4.27395,2.67751
504,540,4.41003,-3.2067,0,0,0,0,0,0,0,-1,1728,484,4.41002,3.20671
511,540,4.88501,-4.35489,0,0,0,0,0,0,0,-1,1735,484,4.88498,4.3549
518,540,4.854,-3.87787,0,0,0,0,0,0,0,-1,1742,484,4.85401,3.87788
525,540,6.24841,-3.39841,0,0,0,0,0,0,0,-1,1749,484,6.24847,3.39839
532,540,2.84265,-1.07925,0,0,0,0,0,0,0,-1,1756,484,2.84269,1.07927
539,540,0,0,0,0,0,0,0,0,0,-1,1763,484,0,0
546,540,0,0,0,0,0,0,0,0,0,-1,1770,484,0,0
553,540,0,0,0,0,0,0,0,0,0,-1,1777,484,0,0
560,540,0,0,0,0,0,0,0,0,0,-1,1784,484,0,0
567,540,0,0,0,0,0,0,0,0,0,-1,1791,484,0,0
574,540,0,0,0,0,0,0,0,0,0,-1,1798,484,0,0
581,540,0,0,0,0,0,0,0,0,0,-1,1805,484,0,0
588,540,0,0,0,0,0,0,0,0,0,-1,1812,484,0,0
595,540,0,0,0,0,0,0,0,0,0,-1,1819,484,0,0
602,540,0,0,0,0,0,0,0,0,0,-1,1826,484,0,0
609,540,0,0,0,0,0,0,0,0,0,-1,1833,484,0,0
616,540,0,0,0,0,0,0,0,0,0,-1,1840,484,0,0
623,540,0,0,0,0,0,0,0,0,0,-1,1847,484,0,0
630,540,0,0,0,0,0,0,0,0,0,-1,1854,484,0,0
637,540,0,0,0,0,0,0,0,0,0,-1,1861,484,0,0
644,540,0,0,0,0,0,0,0,0,0,-1,1868,484,0,0
651,540,0,0,0,0,0,0,0,0,0,-1,1875,484,0,0
658,540,0,0,0,0,0,0,0,0,0,-1,1882,484,0,0
665,540,0,0,0,0,0,0,0,0,0,-1,1889,484,0,0
672,540,0,0,0,0,0,0,0,0,0,-1,1896,484,0,0
679,540,0,0,0,0,0,0,0,0,0,-1,1903,484,0,0
686,540,0,0,0,0,0,0,0,0,0,-1,1910,484,0,0
693,540,0,0,0,0,0,0,0,0,0,-1,1917,484,0,0
700,540,0,0,0,0,0,0,0,0,0,-1,1924,484,0,0
707,540,0,0,0,0,0,0,0,0,0,-1,1931,484,0,0
714,540,0,0,0,0,0,0,0,0,0,-1,1938,484,0,0
721,540,0,0,0,0,0,0,0,0,0,-1,1945,484,0,0
728,540,0,0,0,0,0,0,0,0,0,-1,1952,484,0,0
735,540,0,0,0,0,0,0,0,0,0,-1,1959,484,0,0
742,540,0,0,0,0,0,0,0,0,0,-1,1966,484,0,0
749,540,0,0,0,0,0,0,0,0,0,-1,1973,484,0,0
756,540,0,0,0,0,0,0,0,0,0,-1,1980,484,0,0
763,540,0,0,0,0,0,0,0,0,0,-1,1987,484,0,0
770,540,0,0,0,0,0,0,0,0,0,-1,1994,484,0,0
777,540,0,0,0,0,0,0,0,0,0,-1,2001,484,0,0
784,540,0,0,0,0,0,0,0,0,0,-1,2008,484,0,0
791,540,0,0,0,0,0,0,0,0,0,-1,2015,484,0,0
798,540,0,0,0,0,0,0,0,0,0,-1,2022,484,0,0
805,540,0,0,0,0,0,0,0,0,0,-1,2029,484,0,0
812,540,0,0,0,0,0,0,0,0,0,-1,2036,484,0,0
-700,533,0,0,0,0,0,0,0,0,0,-1,524,491,0,0
-693,533,0,0,0,0,0,0,0,0,0,-1,531,491,0,0
-686,533,0,0,0,0,0,0,0,0,0,-1,538,491,0,0
-679,533,0,0,0,0,0,0,0,0,0,-1,545,491,0,0
-672,533,0,0,0,0,0,0,0,0,0,-1,552,491,0,0
-665,533,0,0,0,0,0,0,0,0,0,-1,559,491,0,0
-658,533,0,0,0,0,0,0,0,0,0,-1,566,491,0,0
-651,533,0,0,0,0,0,0,0,0,0,-1,573,491,0,0
-644,533,0,0,0,0,0,0,0,0,0,-1,580,491,0,0
-637,533,0,0,0,0,0,0,0,0,0,-1,587,491,0,0
-630,533,0,0,0,0,0,0,0,0,0,-1,594,491,0,0
-623,533,0,0,0,0,0,0,0,0,0,-1,601,491,0,0
-616,533,0,0,0,0,0,0,0,0,0,-1,608,491,0,0
-609,533,0,0,0,0,0,0,0,0,0,-1,615,491,0,0
-602,533,0,0,0,0,0,0,0,0,0,-1,622,491,0,0
-595,533,0,0,0,0,0,0,0,0,0,-1,629,491,0,0
-588,533,0,0,0,0,0,0,0,0,0,-1,636,491,0,0
-581,533,0,0,0,0,0,0,0,0,0,-1,643,491,0,0
-574,533,0,0,0,0,0,0,0,0,0,-1,650,491,0,0
-567,533,0,0,0,0,0,0,0,0,0,-1,657,491,0,0
-560,533,0,0,0,0,0,0,0,0,0,-1,664,491,0,0
-553,533,0,0,0,0,0,0,0,0,0,-1,671,491,0,0
-546,533,0,0,0,0,0,0,0,0,0,-1,678,491,0,0
-539,533,0,0,0,0,0,0,0,0,0,-1,685,491,0,0
-532,533,0,0,0,0,0,0,0,0,0,-1,692,491,0,0
-525,533,0,0,0,0,0,0,0,0,0,-1,699,491,0,0
-518,533,0,0,0,0,0,0,0,0,0,-1,706,491,0,0
-511,533,0,0,0,0,0,0,0,0,0,-1,713,491,0,0
-504,533,0,0,0,0,0,0,0,0,0,-1,720,491,0,0
-497,533,0,0,0,0,0,0,0,0,0,-1,727,491,0,0
-490,533,0,0,0,0,0,0,0,0,0,-1,734,491,0,0
-483,533,0,0,0,0,0,0,0,0,0,-1,741,491,0,0
-476,533,0,0,0,0,0,0,0,0,0,-1,748,491,0,0
-469,533,0,0,0,0,0,0,0,0,0,-1,755,491,0,0
-462,533,0,0,0,0,0,0,0,0,0,-1,762,491,0,0
-455,533,0,0,0,0,0,0,0,0,0,-1,769,491,0,0
-448,533,0,0,0,0,0,0,0,0,0,-1,776,491,0,0
-441,533,0,0,0,0,0,0,0,0,0,-1,783,491,0,0
-434,533,0,0,0,0,0,0,0,0,0,-1,790,491,0,0
-427,533,-0.196228,-5.3111,0,0,0,0,0,0,0,-1,797,491,-0.19621,5.31109
-420,533,0.239624,-4.77179,0,0,0,0,0,0,0,-1,804,491,0.239601,4.77179
-413,533,0.814026,-4.50705,0,0,0,0,0,0,0,-1,811,491,0.814038,4.50706
-406,533,1.3725,-4.13541,0,0,0,0,0,0,0,-1,818,491,1.3725,4.13542
-399,533,1.72455,-3.4632,0,0,0,0,0,0,0,-1,825,491,1.72455,3.46319
-392,533,-0.105286,-6.1301,0,0,0,0,0,0,0,-1,832,491,-0.105296,6.13008
-385,533,0.109924,-4.41916,0,0,0,0,0,0,0,-1,839,491,0.109918,4.41915
-378,533,-0.761414,-5.15549,0,0,0,0,0,0,0,-1,846,491,-0.761387,5.15549
-371,533,0.39624,-5.43854,0,0,0,0,0,0,0,-1,853,491,0.396225,5.43855
-364,533,0.453125,-5.97305,0.00317745,0.00331567,-0.00209638,0.00534407,0.00114905,-0.801876,0.00324817,0.0421105,860,491,0.453142,5.97305
-357,533,0.459167,-6.43826,-0.000385329,0.00124742,-0.000948008,0.00168212,-0.00082003,-1.14086,0.00147292,0.0270121,867,491,0.459193,6.43826
-350,533,0.425537,-6.5929,-0.00248342,-0.000121221,-0.000128183,-0.000114286,-0.00249035,-1.51674,0.00162348,0.0117562,874,491,0.425547,6.59291
-343,533,0.430298,-6.83853,-0.00327967,-0.000821662,0.000195925,-0.000806143,-0.00329519,1.49175,0.00198346,0.0102048,881,491,0.430313,6.83853
-336,533,0.379944,-7.06781,-0.00338291,-0.00115368,0.000319726,-0.00110873,-0.00342786,1.43112,0.00201978,0.0142352,888,491,0.379925,7.0678
-329,533,0.3797,-7.22928,-0.00293115,-0.00121756,0.000150891,-0.00120438,-0.00294433,1.48363,0.00170926,0.0138589,895,491,0.379719,7.22927
-322,533,0.383179,-7.40634,-0.00220255,-0.00109695,-4.40823e-05,-0.0010952,-0.00220431,-1.53101,0.00127267,0.0115694,902,491,0.383164,7.40633
-315,533,0.378174,-7.61288,-0.00151434,-0.000904729,-0.000162587,-0.000864077,-0.00155499,-1.32579,0.00089963,0.0127737,909,491,0.378163,7.61288
-308,533,0.379456,-7.79376,-0.000802226,-0.000813374,-0.000257969,-0.00054977,-0.00106583,-0.774596,0.000615459,0.0120491,916,491,0.379482,7.79378
-301,533,0.3479,-7.94431,-0.000123775,-0.000587433,-0.000360592,7.30818e-05,-0.00078429,-0.49971,0.000548845,0.0128095,923,491,0.347926,7.94431
-294,533,0.369263,-8.14371,0.000448557,-0.00044533,-0.000356768,0.000573489,-0.000570263,-0.336833,0.000660346,0.0120306,930,491,0.369284,8.1437
-287,533,0.392883,-8.34955,0.000832886,-0.000524656,-0.000293059,0.000893448,-0.000585218,-0.203787,0.000859868,0.00901278,937,491,0.392859,8.34956
-280,533,0.399475,-8.52887,0.00116067,-0.000645967,-0.000168277,0.00117621,-0.000661508,-0.0920882,0.00107479,0.00816656,944,491,0.399455,8.52887
-273,533,0.404724,-8.70407,0.00112088,-0.00063786,-6.96046e-06,0.00112091,-0.000637888,-0.00395756,0.00102813,0.0111211,951,491,0.404732,8.70408
-266,533,0.40686,-8.8736,0.00091209,-0.000191574,0.000282204,0.000980063,-0.000259547,0.236361,0.000754913,0.0109349,958,491,0.406871,8.8736
-259,533,0.409058,-9.03171,0.000681273,-1.70546e-06,0.000572636,0.00100651,-0.000326944,0.516534,0.000802505,0.0117093,965,491,0.409076,9.03171
-252,533,0.422058,-9.20624,-4.27081e-05,0.000158259,0.000943883,0.00100699,-0.000891441,0.838427,0.00109674,0.0134208,972,491,0.422076,9.20622
-245,533,0.470337,-9.39105,-0.00117897,0.000316484,0.00157657,0.00131365,-0.00217614,1.00683,0.00203524,0.0182429,979,491,0.470318,9.39106
-238,533,0.442383,-9.48743,-0.00200708,0.000817799,0.00210738,0.00194229,-0.00313158,1.08063,0.0029561,0.0205573,986,491,0.442383,9.48744
-231,533,0.293152,-9.724,0,0,0,0,0,0,0,-1,993,491,0.293139,9.72399
-224,533,0.262085,-10.01,-0.00476176,0.00209747,0.00340923,0.00350367,-0.00616796,1.17959,0.0056541,0.0343978,1000,491,0.26206,10.01
-217,533,0.0495605,-10.4727,-0.00615514,0.00274427,0.00403891,0.00430395,-0.00771482,1.20228,0.00703157,0.0414606,1007,491,0.0495346,10.4727
-210,533,0.622864,-10.1457,0,0,0,0,0,0,0,-1,1014,491,0.62289,10.1457
-203,533,0.589539,-10.0247,0,0,0,0,0,0,0,-1,1021,491,0.589559,10.0247
-196,533,-0.0579834,-10.2186,0,0,0,0,0,0,0,-1,1028,491,-0.0579289,10.2186
-189,533,-1.09204,-9.45688,0,0,0,0,0,0,0,-1,1035,491,-1.09203,9.45688
-182,533,0.805786,-7.42383,0,0,0,0,0,0,0,-1,1042,491,0.805827,7.42383
-175,533,0.937744,-7.36966,0,0,0,0,0,0,0,-1,1049,491,0.937769,7.36965
-168,533,2.64807,-2.7543,0,0,0,0,0,0,0,-1,1056,491,2.64812,2.7543
-161,533,1.91833,-1.76553,0,0,0,0,0,0,0,-1,1063,491,1.91836,1.76554
-154,533,-1.24805,-5.92294,0,0,0,0,0,0,0,-1,1070,491,-1.24806,5.92295
-147,533,-0.449951,-7.10913,0,0,0,0,0,0,0,-1,1077,491,-0.449921,7.10912
-140,533,0.481812,-8.27359,0,0,0,0,0,0,0,-1,1084,491,0.481827,8.2736
-133,533,1.23474,-8.92532,0,0,0,0,0,0,0,-1,1091,491,1.2347,8.92532
-126,533,2.89612,-2.59003,0,0,0,0,0,0,0,-1,1098,491,2.89608,2.59003
-119,533,3.00842,-12.8239,0,0,0,0,0,0,0,-1,1105,491,3.00841,12.8239
-112,533,7.05884,-10.21,0,0,0,0,0,0,0,-1,1112,491,7.0588,10.21
-105,533,3.84839,1.12769,0,0,0,0,0,0,0,-1,1119,491,3.84843,-1.12769
-98,533,-1.39392,-5.16367,0,0,0,0,0,0,0,-1,1126,491,-1.39394,5.16367
-91,533,0.367432,4.49753,0,0,0,0,0,0,0,-1,1133,491,0.367468,-4.49754
-84,533,-0.88623,3.03604,0,0,0,0,0,0,0,-1,1140,491,-0.886288,-3.03605
-77,533,0,0,0,0,0,0,0,0,0,-1,1147,491,0,0
-70,533,0,0,0,0,0,0,0,0,0,-1,1154,491,0,0
-63,533,0,0,0,0,0,0,0,0,0,-1,1161,491,0,0
-56,533,0,0,0,0,0,0,0,0,0,-1,1168,491,0,0
-49,533,0,0,0,0,0,0,0,0,0,-1,1175,491,0,0
-42,533,0,0,0,0,0,0,0,0,0,-1,1182,491,0,0
-35,533,0,0,0,0,0,0,0,0,0,-1,1189,491,0,0
-28,533,0,0,0,0,0,0,0,0,0,-1,1196,491,0,0
-21,533,0,0,0,0,0,0,0,0,0,-1,1203,491,0,0
-14,533,0,0,0,0,0,0,0,0,0,-1,1210,491,0,0
-7,533,0,0,0,0,0,0,0,0,0,-1,1217,491,0,0
0,533,0,0,0,0,0,0,0,0,0,-1,1224,491,0,0
7,533,0,0,0,0,0,0,0,0,0,-1,1231,491,0,0
14,533,0,0,0,0,0,0,0,0,0,-1,1238,491,0,0
21,533,0,0,0,0,0,0,0,0,0,-1,1245,491,0,0
28,533,0,0,0,0,0,0,0,0,0,-1,1252,491,0,0
35,533,0,0,0,0,0,0,0,0,0,-1,1259,491,0,0
42,533,0,0,0,0,0,0,0,0,0,-1,1266,491,0,0
49,533,0,0,0,0,0,0,0,0,0,-1,1273,491,0,0
56,533,0,0,0,0,0,0,0,0,0,-1,1280,491,0,0
63,533,0,0,0,0,0,0,0,0,0,-1,1287,491,0,0
70,533,0,0,0,0,0,0,0,0,0,-1,1294,491,0,0
77,533,0,0,0,0,0,0,0,0,0,-1,1301,491,0,0
84,533,0,0,0,0,0,0,0,0,0,-1,1308,491,0,0
91,533,0,0,0,0,0,0,0,0,0,-1,1315,491,0,0
98,533,0,0,0,0,0,0,0,0,0,-1,1322,491,0,0
105,533,0,0,0,0,0,0,0,0,0,-1,1329,491,0,0
112,533,0,0,0,0,0,0,0,0,0,-1,1336,491,0,0
119,533,0,0,0,0,0,0,0,0,0,-1,1343,491,0,0
126,533,0,0,0,0,0,0,0,0,0,-1,1350,491,0,0
133,533,0,0,0,0,0,0,0,0,0,-1,1357,491,0,0
140,533,0,0,0,0,0,0,0,0,0,-1,1364,491,0,0
147,533,0,0,0,0,0,0,0,0,0,-1,1371,491,0,0
154,533,0,0,0,0,0,0,0,0,0,-1,1378,491,0,0
161,533,0,0,0,0,0,0,0,0,0,-1,1385,491,0,0
168,533,0,0,0,0,0,0,0,0,0,-1,1392,491,0,0
175,533,0,0,0,0,0,0,0,0,0,-1,1399,491,0,0
182,533,0,0,0,0,0,0,0,0,0,-1,1406,491,0,0
189,533,0,0,0,0,0,0,0,0,0,-1,1413,491,0,0
196,533,0,0,0,0,0,0,0,0,0,-1,1420,491,0,0
203,533,3.7887,1.16193,0,0,0,0,0,0,0,-1,1427,491,3.78872,-1.16193
210,533,5.09558,-0.216034,0,0,0,0,0,0,0,-1,1434,491,5.09559,0.216028
217,533,6.91614,-2.46814,0,0,0,0,0,0,0,-1,1441,491,6.91618,2.46814
224,533,7.23621,-2.1857,0,0,0,0,0,0,0,-1,1448,491,7.23621,2.1857
231,533,7.23474,-1.92282,0,0,0,0,0,0,0,-1,1455,491,7.2347,1.92282
238,533,7.23535,-1.67258,0,0,0,0,0,0,0,-1,1462,491,7.23539,1.67258
245,533,6.86682,-1.2301,0,0,0,0,0,0,0,-1,1469,491,6.86686,1.23011
252,533,6.63354,-3.07825,0,0,0,0,0,0,0,-1,1476,491,6.6335,3.07824
259,533,6.16431,-2.35037,0,0,0,0,0,0,0,-1,1483,491,6.1643,2.35037
266,533,5.68884,-1.6214,0,0,0,0,0,0,0,-1,1490,491,5.68885,1.6214
273,533,5.21399,-0.864227,0,0,0,0,0,0,0,-1,1497,491,5.21403,0.864227
280,533,1.41089,-1.97946,0,0,0,0,0,0,0,-1,1504,491,1.41087,1.97946
287,533,1.6814,-2.44443,0,0,0,0,0,0,0,-1,1511,491,1.6814,2.44444
294,533,2.2384,-2.57626,0,0,0,0,0,0,0,-1,1518,491,2.23839,2.57625
301,533,3.39941,-4.0817,0,0,0,0,0,0,0,-1,1525,491,3.3994,4.08171
308,533,4.13733,-4.14752,0,0,0,0,0,0,0,-1,1532,491,4.13727,4.14752
315,533,4.80762,-5.29349,0,0,0,0,0,0,0,-1,1539,491,4.80762,5.29347
322,533,5.47803,-6.43942,0,0,0,0,0,0,0,-1,1546,491,5.47798,6.43943
329,533,3.88477,-3.86301,0,0,0,0,0,0,0,-1,1553,491,3.88475,3.86299
336,533,4.89063,-9.44003,0,0,0,0,0,0,0,-1,1560,491,4.89065,9.44004
343,533,5.87952,-6.38858,0,0,0,0,0,0,0,-1,1567,491,5.87953,6.38857
350,533,5.62915,-8.02426,0,0,0,0,0,0,0,-1,1574,491,5.6291,8.02426
357,533,4.81702,-8.50421,0,0,0,0,0,0,0,-1,1581,491,4.81699,8.50422
364,533,4.66248,-8.40652,-0.00701248,-0.00737644,-0.00991789,0.0027251,-0.017114,-0.776225,0.0124178,0.0428749,1588,491,4.66249,8.40653
371,533,4.45496,-8.34665,-0.00627753,-0.00708945,-0.00906186,0.00238746,-0.0157544,-0.763014,0.0113826,0.0335756,1595,491,4.45491,8.34666
378,533,4.42542,-8.13522,-0.00524573,-0.00652801,-0.00809585,0.00223433,-0.0140081,-0.745884,0.0101657,0.0244571,1602,491,4.42538,8.13523
385,533,4.48438,-7.92944,-0.00451707,-0.00595574,-0.00722252,0.00202185,-0.0124947,-0.735764,0.00907908,0.0216328,1609,491,4.48435,7.92946
392,533,4.50757,-7.76358,-0.00386885,-0.00525779,-0.00636155,0.00183602,-0.0109627,-0.73103,0.00799107,0.0139952,1616,491,4.50752,7.76359
399,533,4.53369,-7.59204,-0.00320811,-0.00449974,-0.00560582,0.00178898,-0.00949682,-0.728049,0.00700412,0.0127481,1623,491,4.53366,7.59205
406,533,4.52405,-7.39908,-0.00260431,-0.00364546,-0.0047922,0.00169551,-0.00794528,-0.731296,0.00594319,0.015241,1630,491,4.52404,7.39909
413,533,4.53784,-7.15543,-0.00201492,-0.00269093,-0.00389317,0.00155489,-0.00626074,-0.742097,0.00477723,0.0125967,1637,491,4.53783,7.15543
420,533,4.54089,-6.94171,-0.00157344,-0.00185758,-0.00304296,0.00133076,-0.00476178,-0.762071,0.00369879,0.0115463,1644,491,4.54088,6.94172
427,533,4.5448,-6.73419,-0.00135435,-0.00115497,-0.00234968,0.00109713,-0.00360645,-0.806599,0.00284151,0.0128218,1651,491,4.54476,6.73419
434,533,4.53137,-6.53912,-0.00125695,-0.000739374,-0.00183544,0.000855431,-0.00285175,-0.855434,0.0022414,0.0131337,1658,491,4.53138,6.53914
441,533,4.54773,-6.33304,-0.00120129,-0.000458829,-0.00136094,0.000580607,-0.00224073,-0.918546,0.00172033,0.0150294,1665,491,4.5477,6.33303
448,533,4.54871,-6.12433,-0.00115967,-0.000221564,-0.000938846,0.000358881,-0.00174011,-1.01706,0.00129637,0.0154227,1672,491,4.5487,6.12432
455,533,4.52502,-5.9191,-0.00123832,-0.000338214,-0.000748627,8.52264e-05,-0.00166176,-1.05604,0.00113731,0.0147115,1679,491,4.52505,5.91909
462,533,4.50159,-5.65359,-0.00131767,-0.00101114,-0.000569553,-0.000574592,-0.00175422,-0.916834,0.00103268,0.0155935,1686,491,4.50161,5.65358
469,533,4.51221,-5.44638,-0.00137251,-0.00182545,-0.000446338,-0.00109847,-0.00209948,-0.550624,0.00121257,0.0102156,1693,491,4.51223,5.44639
476,533,4.53357,-5.24057,-0.00150502,-0.00289194,-0.000507394,-0.00133922,-0.00305775,-0.315838,0.00176991,0.0107565,1700,491,4.53362,5.24056
483,533,4.56104,-5.02124,-0.00154849,-0.00427265,-0.000507458,-0.00145703,-0.00436411,-0.178315,0.00256556,0.0175665,1707,491,4.56103,5.02124
490,533,4.6449,-4.92877,-0.00161914,-0.0059838,-0.000441119,-0.001575,-0.00602793,-0.0997226,0.00361002,0.0389774,1714,491,4.64494,4.92876
497,533,4.69421,-4.58099,0,0,0,0,0,0,0,-1,1721,491,4.6942,4.581
504,533,5.24719,-4.9993,0,0,0,0,0,0,0,-1,1728,491,5.24715,4.99931
511,533,4.9115,-4.42145,-0.000719783,-0.0114579,0.00175097,-0.000441479,-0.0117362,0.157624,0.00768119,0.049838,1735,491,4.91149,4.42146
518,533,4.92615,-4.01962,0.000446046,-0.0132323,0.00351338,0.0012957,-0.014082,0.237279,0.00984835,0.0498727,1742,491,4.92616,4.01963
525,533,5.00793,-3.79895,0,0,0,0,0,0,0,-1,1749,491,5.00799,3.79896
532,533,3.24243,0.0737,0,0,0,0,0,0,0,-1,1756,491,3.24239,-0.0737072
539,533,3.61609,1.62427,0,0,0,0,0,0,0,-1,1763,491,3.61606,-1.62426
546,533,3.59607,1.65799,0,0,0,0,0,0,0,-1,1770,491,3.59605,-1.658
553,533,0,0,0,0,0,0,0,0,0,-1,1777,491,0,0
560,533,0,0,0,0,0,0,0,0,0,-1,1784,491,0,0
567,533,0,0,0,0,0,0,0,0,0,-1,1791,491,0,0
574,533,0,0,0,0,0,0,0,0,0,-1,1798,491,0,0
581,533,0,0,0,0,0,0,0,0,0,-1,1805,491,0,0
588,533,0,0,0,0,0,0,0,0,0,-1,1812,491,0,0
595,533,0,0,0,0,0,0,0,0,0,-1,1819,491,0,0
602,533,0,0,0,0,0,0,0,0,0,-1,1826,491,0,0
609,533,0,0,0,0,0,0,0,0,0,-1,1833,491,0,0
616,533,0,0,0,0,0,0,0,0,0,-1,1840,491,0,0
623,533,0,0,0,0,0,0,0,0,0,-1,1847,491,0,0
630,533,0,0,0,0,0,0,0,0,0,-1,1854,491,0,0
637,533,0,0,0,0,0,0,0,0,0,-1,1861,491,0,0
644,533,0,0,0,0,0,0,0,0,0,-1,1868,491,0,0
651,533,0,0,0,0,0,0,0,0,0,-1,1875,491,0,0
658,533,0,0,0,0,0,0,0,0,0,-1,1882,491,0,0
665,533,0,0,0,0,0,0,0,0,0,-1,1889,491,0,0
672,533,0,0,0,0,0,0,0,0,0,-1,1896,491,0,0
679,533,0,0,0,0,0,0,0,0,0,-1,1903,491,0,0
686,533,0,0,0,0,0,0,0,0,0,-1,1910,491,0,0
693,533,0,0,0,0,0,0,0,0,0,-1,1917,491,0,0
700,533,0,0,0,0,0,0,0,0,0,-1,1924,491,0,0
707,533,0,0,0,0,0,0,0,0,0,-1,1931,491,0,0
714,533,0,0,0,0,0,0,0,0,0,-1,1938,491,0,0
721,533,0,0,0,0,0,0,0,0,0,-1,1945,491,0,0
728,533,0,0,0,0,0,0,0,0,0,-1,1952,491,0,0
735,533,0,0,0,0,0,0,0,0,0,-1,1959,491,0,0
742,533,0,0,0,0,0,0,0,0,0,-1,1966,491,0,0
749,533,0,0,0,0,0,0,0,0,0,-1,1973,491,0,0
756,533,0,0,0,0,0,0,0,0,0,-1,1980,491,0,0
763,533,0,0,0,0,0,0,0,0,0,-1,1987,491,0,0
770,533,0,0,0,0,0,0,0,0,0,-1,1994,491,0,0
777,533,0,0,0,0,0,0,0,0,0,-1,2001,491,0,0
784,533,0,0,0,0,0,0,0,0,0,-1,2008,491,0,0
791,533,0,0,0,0,0,0,0,0,0,-1,2015,491,0,0
798,533,0,0,0,0,0,0,0,0,0,-1,2022,491,0,0
805,533,0,0,0,0,0,0,0,0,0,-1,2029,491,0,0
812,533,0,0,0,0,0,0,0,0,0,-1,2036,491,0,0
-700,526,0,0,0,0,0,0,0,0,0,-1,524,498,0,0
-693,526,0,0,0,0,0,0,0,0,0,-1,531,498,0,0
-686,526,0,0,0,0,0,0,0,0,0,-1,538,498,0,0
-679,526,0,0,0,0,0,0,0,0,0,-1,545,498,0,0
-672,526,0,0,0,0,0,0,0,0,0,-1,552,498,0,0
-665,526,0,0,0,0,0,0,0,0,0,-1,559,498,0,0
-658,526,0,0,0,0,0,0,0,0,0,-1,566,498,0,0
-651,526,0,0,0,0,0,0,0,0,0,-1,573,498,0,0
-644,526,0,0,0,0,0,0,0,0,0,-1,580,498,0,0
-637,526,0,0,0,0,0,0,0,0,0,-1,587,498,0,0
-630,526,0,0,0,0,0,0,0,0,0,-1,594,498,0,0
-623,526,0,0,0,0,0,0,0,0,0,-1,601,498,0,0
-616,526,0,0,0,0,0,0,0,0,0,-1,608,498,0,0
-609,526,0,0,0,0,0,0,0,0,0,-1,615,498,0,0
-602,526,0,0,0,0,0,0,0,0,0,-1,622,498,0,0
-595,526,0,0,0,0,0,0,0,0,0,-1,629,498,0,0
-588,526,0,0,0,0,0,0,0,0,0,-1,636,498,0,0
-581,526,0,0,0,0,0,0,0,0,0,-1,643,498,0,0
-574,526,0,0,0,0,0,0,0,0,0,-1,650,498,0,0
-567,526,0,0,0,0,0,0,0,0,0,-1,657,498,0,0
-560,526,0,0,0,0,0,0,0,0,0,-1,664,498,0,0
-553,526,0,0,0,0,0,0,0,0,0,-1,671,498,0,0
-546,526,0,0,0,0,0,0,0,0,0,-1,678,498,0,0
-539,526,0,0,0,0,0,0,0,0,0,-1,685,498,0,0
-532,526,0,0,0,0,0,0,0,0,0,-1,692,498,0,0
-525,526,0,0,0,0,0,0,0,0,0,-1,699,498,0,0
-518,526,0,0,0,0,0,0,0,0,0,-1,706,498,0,0
-511,526,0,0,0,0,0,0,0,0,0,-1,713,498,0,0
-504,526,0,0,0,0,0,0,0,0,0,-1,720,498,0,0
-497,526,0,0,0,0,0,0,0,0,0,-1,727,498,0,0
-490,526,0,0,0,0,0,0,0,0,0,-1,734,498,0,0
-483,526,0,0,0,0,0,0,0,0,0,-1,741,498,0,0
-476,526,0,0,0,0,0,0,0,0,0,-1,748,498,0,0
-469,526,0,0,0,0,0,0,0,0,0,-1,755,498,0,0
-462,526,0,0,0,0,0,0,0,0,0,-1,762,498,0,0
-455,526,0,0,0,0,0,0,0,0,0,-1,769,498,0,0
-448,526,0,0,0,0,0,0,0,0,0,-1,776,498,0,0
-441,526,0,0,0,0,0,0,0,0,0,-1,783,498,0,0
-434,526,2.58533,-2.05515,0,0,0,0,0,0,0,-1,790,498,2.58533,2.05513
-427,526,-0.249756,-4.86801,0,0,0,0,0,0,0,-1,797,498,-0.249735,4.86801
-420,526,0.186462,-4.63467,0,0,0,0,0,0,0,-1,804,498,0.18648,4.63466
-413,526,0.672424,-4.45074,0,0,0,0,0,0,0,-1,811,498,0.672424,4.45076
-406,526,-0.686523,-4.12518,0,0,0,0,0,0,0,-1,818,498,-0.686532,4.12519
-399,526,-0.467285,-4.89633,0,0,0,0,0,0,0,-1,825,498,-0.467292,4.89632
-392,526,-0.246277,-5.59631,0,0,0,0,0,0,0,-1,832,498,-0.246278,5.59632
-385,526,0.351074,-5.29739,0,0,0,0,0,0,0,-1,839,498,0.351084,5.29739
-378,526,0.0826416,-5.80112,0,0,0,0,0,0,0,-1,846,498,0.0826346,5.80113
-371,526,0.109802,-6.01685,0.00777564,0.00522929,-0.00354453,0.0102687,0.00273622,-0.612977,0.00614043,0.0440474,853,498,0.109799,6.01685
-364,526,0.22644,-6.26657,0.0040233,0.00327227,-0.00224201,0.00592103,0.00137454,-0.702423,0.00357828,0.0233996,860,498,0.22641,6.26658
-357,526,0.188965,-6.39255,0.00098031,0.00160103,-0.0012213,0.00255079,3.05581e-05,-0.909827,0.00169043,0.0154591,867,498,0.18898,6.39255
-350,526,0.219788,-6.59546,-0.000903897,0.000564279,-0.000458051,0.000695463,-0.00103508,-1.29187,0.00100552,0.010786,874,498,0.219771,6.59547
-343,526,0.226624,-6.82748,-0.00164798,4.33193e-05,-0.000159976,5.8318e-05,-0.00166297,-1.47731,0.00112859,0.0140004,881,498,0.226615,6.82749
-336,526,0.189514,-7.05115,-0.00177026,-0.000208246,-2.87353e-05,-0.000207717,-0.00177079,-1.55241,0.00111774,0.014123,888,498,0.189524,7.05115
-329,526,0.196594,-7.23019,-0.00139104,-0.000229807,-0.000164874,-0.000206851,-0.00141399,-1.43246,0.000881835,0.014201,895,498,0.196614,7.23019
-322,526,0.195313,-7.41269,-0.000792962,-0.000136268,-0.000314781,-9.75409e-06,-0.000919476,-1.18864,0.000609759,0.00997431,902,498,0.195306,7.41268
-315,526,0.202271,-7.61819,-0.00025715,-4.1596e-05,-0.000398982,0.000263909,-0.000562655,-0.917315,0.000487496,0.00918316,909,498,0.202261,7.61819
-308,526,0.201477,-7.81628,0.00033155,-2.6777e-05,-0.000456103,0.000642416,-0.000337644,-0.59825,0.000574885,0.00884006,916,498,0.201484,7.81628
-301,526,0.185669,-7.97977,0.000885817,4.02416e-05,-0.000525979,0.00113787,-0.000211806,-0.446868,0.000838148,0.00979068,923,498,0.185644,7.97978
-294,526,0.197998,-8.1582,0.00134488,4.50638e-07,-0.000491893,0.00150563,-0.0001603,-0.315859,0.00106123,0.00924776,930,498,0.198009,8.15822
-287,526,0.196716,-8.3371,0.00160232,-0.000338589,-0.000372805,0.00167147,-0.000407733,-0.183386,0.00127219,0.00925195,937,498,0.196696,8.33711
-280,526,0.198486,-8.50803,0.00182293,-0.000681606,-0.000196033,0.00183818,-0.000696857,-0.0776409,0.00151224,0.0121275,944,498,0.198471,8.50803
-273,526,0.214722,-8.69931,0.00161997,-0.000886653,3.59239e-05,0.00162049,-0.000887168,0.0143277,0.00146829,0.0102887,951,498,0.214693,8.6993
-266,526,0.218689,-8.86896,0.00123859,-0.000553771,0.000324161,0.00129542,-0.000610596,0.173536,0.00112387,0.00958651,958,498,0.21866,8.86897
-259,526,0.230164,-9.03088,0.000895184,-0.000427135,0.000600177,0.00112697,-0.000658916,0.368544,0.00104282,0.0164475,965,498,0.230165,9.03089
-252,526,0.26062,-9.18335,-9.75422e-05,-0.000311832,0.00108736,0.000887943,-0.00129732,0.736288,0.00126902,0.0311388,972,498,0.260645,9.18336
-245,526,0.239258,-9.3606,-0.00166801,-0.000107049,0.00190266,0.00116899,-0.00294405,0.980034,0.00244727,0.037589,979,498,0.239284,9.36061
-238,526,0.230713,-9.41202,-0.00297007,0.000664276,0.00256064,0.001987,-0.0042928,1.09399,0.00370622,0.0383006,986,498,0.230689,9.41203
-231,526,0.076355,-9.61328,0,0,0,0,0,0,0,-1,993,498,0.0763661,9.61328
-224,526,-0.186401,-10.1426,0,0,0,0,0,0,0,-1,1000,498,-0.186402,10.1426
-217,526,-0.573853,-10.8171,0,0,0,0,0,0,0,-1,1007,498,-0.573866,10.8171
-210,526,0.171021,-8.39801,0,0,0,0,0,0,0,-1,1014,498,0.170997,8.398
-203,526,-0.338257,-8.9267,0,0,0,0,0,0,0,-1,1021,498,-0.338254,8.9267
-196,526,-1.02625,-9.08768,0,0,0,0,0,0,0,-1,1028,498,-1.02625,9.08768
-189,526,0.401245,-5.96826,0,0,0,0,0,0,0,-1,1035,498,0.401197,5.96826
-182,526,1.7323,-2.99405,0,0,0,0,0,0,0,-1,1042,498,1.73226,2.99404
-175,526,2.27637,-2.07983,0,0,0,0,0,0,0,-1,1049,498,2.27639,2.07984
-168,526,2.12036,-1.66049,0,0,0,0,0,0,0,-1,1056,498,2.12035,1.66048
-161,526,2.09082,-1.20572,0,0,0,0,0,0,0,-1,1063,498,2.09086,1.2057
-154,526,-1.3446,-5.37799,0,0,0,0,0,0,0,-1,1070,498,-1.34457,5.37799
-147,526,-0.472656,-6.64996,0,0,0,0,0,0,0,-1,1077,498,-0.472659,6.64997
-140,526,0.422852,-8.03339,0,0,0,0,0,0,0,-1,1084,498,0.422844,8.0334
-133,526,1.09583,-9.2215,0,0,0,0,0,0,0,-1,1091,498,1.09581,9.2215
-126,526,3.42529,-2.36053,0,0,0,0,0,0,0,-1,1098,498,3.42523,2.36052
-119,526,2.7771,-0.764099,0,0,0,0,0,0,0,-1,1105,498,2.7771,0.764107
-112,526,2.57715,-1.1893,0,0,0,0,0,0,0,-1,1112,498,2.57718,1.1893
-105,526,0,0,0,0,0,0,0,0,0,-1,1119,498,0,0
-98,526,0,0,0,0,0,0,0,0,0,-1,1126,498,0,0
-91,526,0,0,0,0,0,0,0,0,0,-1,1133,498,0,0
-84,526,0,0,0,0,0,0,0,0,0,-1,1140,498,0,0
-77,526,0,0,0,0,0,0,0,0,0,-1,1147,498,0,0
-70,526,0,0,0,0,0,0,0,0,0,-1,1154,498,0,0
-63,526,0,0,0,0,0,0,0,0,0,-1,1161,498,0,0
-56,526,0,0,0,0,0,0,0,0,0,-1,1168,498,0,0
-49,526,0,0,0,0,0,0,0,0,0,-1,1175,498,0,0
-42,526,0,0,0,0,0,0,0,0,0,-1,1182,498,0,0
-35,526,0,0,0,0,0,0,0,0,0,-1,1189,498,0,0
-28,526,0,0,0,0,0,0,0,0,0,-1,1196,498,0,0
-21,526,0,0,0,0,0,0,0,0,0,-1,1203,498,0,0
-14,526,0,0,0,0,0,0,0,0,0,-1,1210,498,0,0
-7,526,0,0,0,0,0,0,0,0,0,-1,1217,498,0,0
0,526,0,0,0,0,0,0,0,0,0,-1,1224,498,0,0
7,526,0,0,0,0,0,0,0,0,0,-1,1231,498,0,0
14,526,0,0,0,0,0,0,0,0,0,-1,1238,498,0,0
21,526,0,0,0,0,0,0,0,0,0,-1,1245,498,0,0
28,526,0,0,0,0,0,0,0,0,0,-1,1252,498,0,0
35,526,0,0,0,0,0,0,0,0,0,-1,1259,498,0,0
42,526,0,0,0,0,0,0,0,0,0,-1,1266,498,0,0
49,526,0,0,0,0,0,0,0,0,0,-1,1273,498,0,0
56,526,0,0,0,0,0,0,0,0,0,-1,1280,498,0,0
63,526,0,0,0,0,0,0,0,0,0,-1,1287,498,0,0
70,526,0,0,0,0,0,0,0,0,0,-1,1294,498,0,0
77,526,0,0,0,0,0,0,0,0,0,-1,1301,498,0,0
84,526,0,0,0,0,0,0,0,0,0,-1,1308,498,0,0
91,526,0,0,0,0,0,0,0,0,0,-1,1315,498,0,0
98,526,0,0,0,0,0,0,0,0,0,-1,1322,498,0,0
105,526,0,0,0,0,0,0,0,0,0,-1,1329,498,0,0
112,526,0,0,0,0,0,0,0,0,0,-1,1336,498,0,0
119,526,0,0,0,0,0,0,0,0,0,-1,1343,498,0,0
126,526,0,0,0,0,0,0,0,0,0,-1,1350,498,0,0
133,526,0,0,0,0,0,0,0,0,0,-1,1357,498,0,0
140,526,0,0,0,0,0,0,0,0,0,-1,1364,498,0,0
147,526,0,0,0,0,0,0,0,0,0,-1,1371,498,0,0
154,526,0,0,0,0,0,0,0,0,0,-1,1378,498,0,0
161,526,0,0,0,0,0,0,0,0,0,-1,1385,498,0,0
168,526,0,0,0,0,0,0,0,0,0,-1,1392,498,0,0
175,526,0,0,0,0,0,0,0,0,0,-1,1399,498,0,0
182,526,0,0,0,0,0,0,0,0,0,-1,1406,498,0,0
189,526,0,0,0,0,0,0,0,0,0,-1,1413,498,0,0
196,526,0,0,0,0,0,0,0,0,0,-1,1420,498,0,0
203,526,0,0,0,0,0,0,0,0,0,-1,1427,498,0,0
210,526,0,0,0,0,0,0,0,0,0,-1,1434,498,0,0
217,526,0,0,0,0,0,0,0,0,0,-1,1441,498,0,0
224,526,0,0,0,0,0,0,0,0,0,-1,1448,498,0,0
231,526,7.93237,-1.30618,0,0,0,0,0,0,0,-1,1455,498,7.93238,1.30618
238,526,7.97717,-1.08197,0,0,0,0,0,0,0,-1,1462,498,7.97723,1.08196
245,526,7.2793,-0.792938,0,0,0,0,0,0,0,-1,1469,498,7.27931,0.792926
252,526,6.73523,-2.23608,0,0,0,0,0,0,0,-1,1476,498,6.73525,2.23608
259,526,6.22949,-1.84967,0,0,0,0,0,0,0,-1,1483,498,6.22953,1.84968
266,526,5.72375,-1.46329,0,0,0,0,0,0,0,-1,1490,498,5.72381,1.46328
273,526,4.33984,0.49173,0,0,0,0,0,0,0,-1,1497,498,4.33979,-0.491727
280,526,1.4585,-1.59897,0,0,0,0,0,0,0,-1,1504,498,1.45846,1.59895
287,526,1.46411,-2.40134,0,0,0,0,0,0,0,-1,1511,498,1.46406,2.40133
294,526,5.57471,-4.59085,0,0,0,0,0,0,0,-1,1518,498,5.57466,4.59084
301,526,4.42786,-3.99677,0,0,0,0,0,0,0,-1,1525,498,4.42788,3.99676
308,526,5.79529,-4.19366,0,0,0,0,0,0,0,-1,1532,498,5.79528,4.19368
315,526,5.09851,-5.20068,0,0,0,0,0,0,0,-1,1539,498,5.09851,5.20068
322,526,5.50708,-4.72348,0,0,0,0,0,0,0,-1,1546,498,5.50713,4.72347
329,526,3.88672,-4.345,0,0,0,0,0,0,0,-1,1553,498,3.88674,4.34501
336,526,4.97876,-2.23828,0,0,0,0,0,0,0,-1,1560,498,4.97877,2.23828
343,526,3.31665,-2.69696,0,0,0,0,0,0,0,-1,1567,498,3.31667,2.69696
350,526,6.06287,-6.12015,0,0,0,0,0,0,0,-1,1574,498,6.06286,6.12014
357,526,5.79736,-7.7854,0,0,0,0,0,0,0,-1,1581,498,5.79734,7.78539
364,526,5.01135,-8.55545,0,0,0,0,0,0,0,-1,1588,498,5.01133,8.55546
371,526,4.70215,-8.6842,0,0,0,0,0,0,0,-1,1595,498,4.70218,8.68419
378,526,5.29504,-8.33029,0,0,0,0,0,0,0,-1,1602,498,5.295,8.3303
385,526,5.26758,-8.13437,0,0,0,0,0,0,0,-1,1609,498,5.26759,8.13436
392,526,4.78418,-7.79349,-0.00539597,-0.00756994,-0.00915826,0.00273959,-0.0157055,-0.72633,0.0114929,0.0288739,1616,498,4.78423,7.79348
399,526,4.71667,-7.59146,-0.00446399,-0.0064047,-0.00804178,0.00266577,-0.0135345,-0.725356,0.0100303,0.0173216,1623,498,4.71662,7.59147
406,526,4.76477,-7.36624,-0.0036611,-0.0051525,-0.00690605,0.00253939,-0.011353,-0.731618,0.00854189,0.0120949,1630,498,4.76475,7.36623
413,526,4.77209,-7.15063,-0.00283547,-0.00384015,-0.0056645,0.00234891,-0.00902454,-0.741173,0.00693326,0.0119086,1637,498,4.77213,7.15064
420,526,4.75391,-6.95248,-0.00217387,-0.00271922,-0.00447805,0.0020398,-0.00693289,-0.75499,0.00543108,0.0128254,1644,498,4.75391,6.95249
427,526,4.75757,-6.74292,-0.00176958,-0.00179431,-0.00348706,0.00170514,-0.00526903,-0.783626,0.00419813,0.0136263,1651,498,4.75753,6.74291
434,526,4.74951,-6.50693,-0.00149692,-0.0010902,-0.00265606,0.00137028,-0.0039574,-0.823606,0.00319454,0.0121223,1658,498,4.74954,6.50693
441,526,4.7395,-6.30655,-0.00127188,-0.000622792,-0.00192906,0.00100884,-0.00290351,-0.868737,0.00234542,0.0111008,1665,498,4.73954,6.30655
448,526,4.74658,-6.12103,-0.00100803,-0.000165862,-0.00124139,0.000723919,-0.00189781,-0.94891,0.00156342,0.0102812,1672,498,4.74659,6.12104
455,526,4.74121,-5.93594,-0.000878074,-0.000112337,-0.00080603,0.000397136,-0.00138755,-1.00712,0.00108198,0.0127422,1679,498,4.74125,5.93596
462,526,4.74023,-5.67703,-0.000788581,-0.000579471,-0.000411927,-0.000259037,-0.00110901,-0.909683,0.000669905,0.0103214,1686,498,4.74022,5.67704
469,526,4.74756,-5.44745,-0.000656088,-0.00122135,-0.000110432,-0.000635279,-0.00124216,-0.186244,0.000717224,0.00785259,1693,498,4.74761,5.44745
476,526,4.75049,-5.23001,-0.000596537,-0.00204778,-3.60294e-05,-0.000595643,-0.00204868,-0.0248062,0.00121684,0.00957097,1700,498,4.75045,5.23002
483,526,4.75476,-4.99649,-0.000497295,-0.00310899,7.2492e-05,-0.000495284,-0.003111,0.0277283,0.0019302,0.0110442,1707,498,4.75478,4.99649
490,526,4.81018,-4.75851,-0.000443478,-0.00443235,0.000211607,-0.000432283,-0.00444355,0.0528515,0.0028293,0.0193279,1714,498,4.81023,4.75853
497,526,4.76184,-4.62201,-0.0004061,-0.00581853,0.000521997,-0.000356216,-0.00586841,0.095274,0.00379911,0.0253819,1721,498,4.76184,4.622
504,526,4.73816,-4.3389,-0.000154574,-0.00716647,0.00110353,1.49964e-05,-0.00733604,0.15247,0.0048957,0.0305451,1728,498,4.73816,4.3389
511,526,4.88159,-4.18643,0.000419058,-0.00807033,0.00208703,0.000904388,-0.00855566,0.228485,0.00602789,0.0416435,1735,498,4.88164,4.18644
518,526,4.91943,-3.97601,0.00123609,-0.00900213,0.00343129,0.0022797,-0.0100457,0.295254,0.00757232,0.0483833,1742,498,4.91942,3.976
525,526,4.94666,-3.75568,0,0,0,0,0,0,0,-1,1749,498,4.94672,3.75569
532,526,3.54285,-2.81274,0,0,0,0,0,0,0,-1,1756,498,3.54284,2.81273
539,526,3.29407,0.932312,0,0,0,0,0,0,0,-1,1763,498,3.2941,-0.93232
546,526,3.36731,1.07721,0,0,0,0,0,0,0,-1,1770,498,3.36735,-1.07719
553,526,3.40796,1.37137,0,0,0,0,0,0,0,-1,1777,498,3.40792,-1.37138
560,526,0,0,0,0,0,0,0,0,0,-1,1784,498,0,0
567,526,0,0,0,0,0,0,0,0,0,-1,1791,498,0,0
574,526,0,0,0,0,0,0,0,0,0,-1,1798,498,0,0
581,526,0,0,0,0,0,0,0,0,0,-1,1805,498,0,0
588,526,0,0,0,0,0,0,0,0,0,-1,1812,498,0,0
595,526,0,0,0,0,0,0,0,0,0,-1,1819,498,0,0
602,526,0,0,0,0,0,0,0,0,0,-1,1826,498,0,0
609,526,0,0,0,0,0,0,0,0,0,-1,1833,498,0,0
616,526,0,0,0,0,0,0,0,0,0,-1,1840,498,0,0
623,526,0,0,0,0,0,0,0,0,0,-1,1847,498,0,0
630,526,0,0,0,0,0,0,0,0,0,-1,1854,498,0,0
637,526,0,0,0,0,0,0,0,0,0,-1,1861,498,0,0
644,526,0,0,0,0,0,0,0,0,0,-1,1868,498,0,0
651,526,0,0,0,0,0,0,0,0,0,-1,1875,498,0,0
658,526,0,0,0,0,0,0,0,0,0,-1,1882,498,0,0
665,526,0,0,0,0,0,0,0,0,0,-1,1889,498,0,0
672,526,0,0,0,0,0,0,0,0,0,-1,1896,498,0,0
679,526,0,0,0,0,0,0,0,0,0,-1,1903,498,0,0
686,526,0,0,0,0,0,0,0,0,0,-1,1910,498,0,0
693,526,0,0,0,0,0,0,0,0,0,-1,1917,498,0,0
700,526,0,0,0,0,0,0,0,0,0,-1,1924,498,0,0
707,526,0,0,0,0,0,0,0,0,0,-1,1931,498,0,0
714,526,0,0,0,0,0,0,0,0,0,-1,1938,498,0,0
721,526,0,0,0,0,0,0,0,0,0,-1,1945,498,0,0
728,526,0,0,0,0,0,0,0,0,0,-1,1952,498,0,0
735,526,0,0,0,0,0,0,0,0,0,-1,1959,498,0,0
742,526,0,0,0,0,0,0,0,0,0,-1,1966,498,0,0
749,526,0,0,0,0,0,0,0,0,0,-1,1973,498,0,0
756,526,0,0,0,0,0,0,0,0,0,-1,1980,498,0,0
763,526,0,0,0,0,0,0,0,0,0,-1,1987,498,0,0
770,526,0,0,0,0,0,0,0,0,0,-1,1994,498,0,0
777,526,0,0,0,0,0,0,0,0,0,-1,2001,498,0,0
784,526,0,0,0,0,0,0,0,0,0,-1,2008,498,0,0
791,526,0,0,0,0,0,0,0,0,0,-1,2015,498,0,0
798,526,0,0,0,0,0,0,0,0,0,-1,2022,498,0,0
805,526,0,0,0,0,0,0,0,0,0,-1,2029,498,0,0
812,526,0,0,0,0,0,0,0,0,0,-1,2036,498,0,0
-700,519,0,0,0,0,0,0,0,0,0,-1,524,505,0,0
-693,519,0,0,0,0,0,0,0,0,0,-1,531,505,0,0
-686,519,0,0,0,0,0,0,0,0,0,-1,538,505,0,0
-679,519,0,0,0,0,0,0,0,0,0,-1,545,505,0,0
-672,519,0,0,0,0,0,0,0,0,0,-1,552,505,0,0
-665,519,0,0,0,0,0,0,0,0,0,-1,559,505,0,0
-658,519,0,0,0,0,0,0,0,0,0,-1,566,505,0,0
-651,519,0,0,0,0,0,0,0,0,0,-1,573,505,0,0
-644,519,0,0,0,0,0,0,0,0,0,-1,580,505,0,0
-637,519,0,0,0,0,0,0,0,0,0,-1,587,505,0,0
-630,519,0,0,0,0,0,0,0,0,0,-1,594,505,0,0
-623,519,0,0,0,0,0,0,0,0,0,-1,601,505,0,0
-616,519,0,0,0,0,0,0,0,0,0,-1,608,505,0,0
-609,519,0,0,0,0,0,0,0,0,0,-1,615,505,0,0
-602,519,0,0,0,0,0,0,0,0,0,-1,622,505,0,0
-595,519,0,0,0,0,0,0,0,0,0,-1,629,505,0,0
-588,519,0,0,0,0,0,0,0,0,0,-1,636,505,0,0
-581,519,0,0,0,0,0,0,0,0,0,-1,643,505,0,0
-574,519,0,0,0,0,0,0,0,0,0,-1,650,505,0,0
-567,519,0,0,0,0,0,0,0,0,0,-1,657,505,0,0
-560,519,0,0,0,0,0,0,0,0,0,-1,664,505,0,0
-553,519,0,0,0,0,0,0,0,0,0,-1,671,505,0,0
-546,519,0,0,0,0,0,0,0,0,0,-1,678,505,0,0
-539,519,0,0,0,0,0,0,0,0,0,-1,685,505,0,0
-532,519,0,0,0,0,0,0,0,0,0,-1,692,505,0,0
-525,519,0,0,0,0,0,0,0,0,0,-1,699,505,0,0
-518,519,0,0,0,0,0,0,0,0,0,-1,706,505,0,0
-511,519,0,0,0,0,0,0,0,0,0,-1,713,505,0,0
-504,519,0,0,0,0,0,0,0,0,0,-1,720,505,0,0
-497,519,0,0,0,0,0,0,0,0,0,-1,727,505,0,0
-490,519,0,0,0,0,0,0,0,0,0,-1,734,505,0,0
-483,519,0,0,0,0,0,0,0,0,0,-1,741,505,0,0
-476,519,0,0,0,0,0,0,0,0,0,-1,748,505,0,0
-469,519,0,0,0,0,0,0,0,0,0,-1,755,505,0,0
-462,519,0,0,0,0,0,0,0,0,0,-1,762,505,0,0
-455,519,0,0,0,0,0,0,0,0,0,-1,769,505,0,0
-448,519,0,0,0,0,0,0,0,0,0,-1,776,505,0,0
-441,519,1.64478,-2.70544,0,0,0,0,0,0,0,-1,783,505,1.64479,2.70544
-434,519,1.67749,-2.85846,0,0,0,0,0,0,0,-1,790,505,1.67747,2.85846
-427,519,1.40833,-3.09689,0,0,0,0,0,0,0,-1,797,505,1.4083,3.0969
-420,519,-1.63977,-4.11566,0,0,0,0,0,0,0,-1,804,505,-1.63979,4.11566
-413,519,-1.11896,-4.22031,0,0,0,0,0,0,0,-1,811,505,-1.11897,4.2203
-406,519,-0.817078,-4.36923,0,0,0,0,0,0,0,-1,818,505,-0.8171,4.36923
-399,519,-0.410583,-5.06519,0,0,0,0,0,0,0,-1,825,505,-0.410583,5.06517
-392,519,-0.245239,-5.21118,0.024856,0.0130266,-0.0100784,0.0306271,0.00725556,-0.520043,0.0184806,0.0498987,832,505,-0.24524,5.21118
-385,519,0.0964355,-5.41986,0.0174872,0.0096283,-0.00725565,0.0218091,0.00530639,-0.537224,0.013133,0.0449836,839,505,0.0964462,5.41985
-378,519,0.131897,-5.6778,0.0119266,0.00692114,-0.00486326,0.0148933,0.0039544,-0.547762,0.00890827,0.0346494,846,505,0.131885,5.67779
-371,519,0.0736084,-5.97006,0.00775241,0.00465581,-0.00313237,0.00969825,0.00270998,-0.555863,0.00577804,0.0200382,853,505,0.0735878,5.97005
-364,519,0.00354004,-6.16922,0.00470615,0.00322496,-0.00201953,0.0061166,0.00181451,-0.609655,0.00362747,0.0125245,860,505,0.00352659,6.16923
-357,519,0.0252686,-6.38763,0.00215891,0.00192079,-0.00114383,0.00318986,0.000889843,-0.733541,0.00190071,0.00983145,867,505,0.0252853,6.38762
-350,519,0.0338745,-6.60474,0.00052744,0.00115008,-0.0004811,0.0014118,0.000265718,-1.07257,0.000866321,0.0114105,874,505,0.0338637,6.60474
-343,519,0.024353,-6.82205,-0.000142627,0.000763004,-0.000235196,0.000820442,-0.000200065,-1.33127,0.000624426,0.0135295,881,505,0.0243423,6.82204
-336,519,-0.00219727,-7.02661,-0.000275891,0.000565617,-0.000153461,0.00059273,-0.000303003,-1.39593,0.000526092,0.013508,888,505,-0.00219115,7.02663
-329,519,-0.0116577,-7.21021,1.58929e-05,0.000546153,-0.000322899,0.000698824,-0.000136778,-1.12913,0.000517536,0.0123289,895,505,-0.0116424,7.2102
-322,519,-0.00152588,-7.4068,0.00046004,0.000563887,-0.00051344,0.00102802,-4.09549e-06,-0.835791,0.000686718,0.0102351,902,505,-0.001552,7.4068
-315,519,0.00946045,-7.60718,0.000830089,0.000507226,-0.000668099,0.00135598,-1.86681e-05,-0.666856,0.000910275,0.00919367,909,505,0.00946484,7.60721
-308,519,0.00219727,-7.81232,0.00129574,0.000415105,-0.000789962,0.00175981,-4.89657e-05,-0.531147,0.00118987,0.00836438,916,505,0.00222029,7.81232
-301,519,0.0129395,-8.00018,0.00173489,0.000286759,-0.000917322,0.00217948,-0.000157829,-0.451299,0.00150835,0.0121233,923,505,0.0129645,8.00018
-294,519,0.0268555,-8.14264,0.0020931,3.97855e-05,-0.00092173,0.00244616,-0.000313272,-0.365798,0.0017446,0.014375,930,505,0.0268313,8.14261
-287,519,-0.0032959,-8.34161,0.00224434,-0.00057609,-0.000786596,0.00244888,-0.000780632,-0.2544,0.00194572,0.0103474,937,505,-0.00328218,8.3416
-280,519,-0.00427246,-8.51642,0.00239608,-0.00114749,-0.000572925,0.00248641,-0.00123782,-0.156374,0.00219009,0.0149937,944,505,-0.00429705,8.51645
-273,519,0.0415649,-8.71948,0.00221072,-0.00155938,-0.000240144,0.00222595,-0.00157462,-0.0633557,0.00220498,0.0214741,951,505,0.0415477,8.71951
-266,519,0.0164795,-8.92169,0.00171582,-0.00117585,0.000206922,0.00173055,-0.00119058,0.0710755,0.00169609,0.0283616,958,505,0.0164555,8.9217
-259,519,0.0796509,-9.03571,0.0010988,-0.00108455,0.000511731,0.00121278,-0.00119854,0.219172,0.00139218,0.046936,965,505,0.0796599,9.03573
-252,519,0.0977173,-9.2605,0,0,0,0,0,0,0,-1,972,505,0.0977289,9.26052
-245,519,-0.0361938,-9.36304,0,0,0,0,0,0,0,-1,979,505,-0.036209,9.36302
-238,519,0.09375,-9.10907,0,0,0,0,0,0,0,-1,986,505,0.0937476,9.10907
-231,519,-0.210083,-9.43372,0,0,0,0,0,0,0,-1,993,505,-0.210053,9.43374
-224,519,-0.0494995,-7.97394,0,0,0,0,0,0,0,-1,1000,505,-0.0495123,7.97392
-217,519,-2.97125,-4.84393,0,0,0,0,0,0,0,-1,1007,505,-2.97128,4.84393
-210,519,-2.14398,-4.74774,0,0,0,0,0,0,0,-1,1014,505,-2.14397,4.74775
-203,519,-0.513611,-5.39017,0,0,0,0,0,0,0,-1,1021,505,-0.513585,5.39017
-196,519,-0.374023,-5.41635,0,0,0,0,0,0,0,-1,1028,505,-0.374047,5.41635
-189,519,-0.234497,-5.44254,0,0,0,0,0,0,0,-1,1035,505,-0.234508,5.44253
-182,519,2.76697,-1.19659,0,0,0,0,0,0,0,-1,1042,505,2.76696,1.19661
-175,519,2.31323,-0.960938,0,0,0,0,0,0,0,-1,1049,505,2.31319,0.960941
-168,519,2.01074,-0.721405,0,0,0,0,0,0,0,-1,1056,505,2.01072,0.721407
-161,519,2.32056,-0.522339,0,0,0,0,0,0,0,-1,1063,505,2.32057,0.522328
-154,519,2.55566,0.116669,0,0,0,0,0,0,0,-1,1070,505,2.55563,-0.116661
-147,519,-0.55127,-6.14001,0,0,0,0,0,0,0,-1,1077,505,-0.551252,6.14001
-140,519,0.240601,-7.53503,0,0,0,0,0,0,0,-1,1084,505,0.240653,7.53501
-133,519,2.70911,-4.4516,0,0,0,0,0,0,0,-1,1091,505,2.70915,4.45161
-126,519,0,0,0,0,0,0,0,0,0,-1,1098,505,0,0
-119,519,0,0,0,0,0,0,0,0,0,-1,1105,505,0,0
-112,519,0,0,0,0,0,0,0,0,0,-1,1112,505,0,0
-105,519,0,0,0,0,0,0,0,0,0,-1,1119,505,0,0
-98,519,0,0,0,0,0,0,0,0,0,-1,1126,505,0,0
-91,519,0,0,0,0,0,0,0,0,0,-1,1133,505,0,0
-84,519,0,0,0,0,0,0,0,0,0,-1,1140,505,0,0
-77,519,0,0,0,0,0,0,0,0,0,-1,1147,505,0,0
-70,519,0,0,0,0,0,0,0,0,0,-1,1154,505,0,0
-63,519,0,0,0,0,0,0,0,0,0,-1,1161,505,0,0
-56,519,0,0,0,0,0,0,0,0,0,-1,1168,505,0,0
-49,519,0,0,0,0,0,0,0,0,0,-1,1175,505,0,0
-42,519,0,0,0,0,0,0,0,0,0,-1,1182,505,0,0
-35,519,0,0,0,0,0,0,0,0,0,-1,1189,505,0,0
-28,519,0,0,0,0,0,0,0,0,0,-1,1196,505,0,0
-21,519,0,0,0,0,0,0,0,0,0,-1,1203,505,0,0
-14,519,0,0,0,0,0,0,0,0,0,-1,1210,505,0,0
-7,519,0,0,0,0,0,0,0,0,0,-1,1217,505,0,0
0,519,0,0,0,0,0,0,0,0,0,-1,1224,505,0,0
7,519,0,0,0,0,0,0,0,0,0,-1,1231,505,0,0
14,519,0,0,0,0,0,0,0,0,0,-1,1238,505,0,0
21,519,0,0,0,0,0,0,0,0,0,-1,1245,505,0,0
28,519,0,0,0,0,0,0,0,0,0,-1,1252,505,0,0
35,519,0,0,0,0,0,0,0,0,0,-1,1259,505,0,0
42,519,0,0,0,0,0,0,0,0,0,-1,1266,505,0,0
49,519,0,0,0,0,0,0,0,0,0,-1,1273,505,0,0
56,519,0,0,0,0,0,0,0,0,0,-1,1280,505,0,0
63,519,0,0,0,0,0,0,0,0,0,-1,1287,505,0,0
70,519,0,0,0,0,0,0,0,0,0,-1,1294,505,0,0
77,519,0,0,0,0,0,0,0,0,0,-1,1301,505,0,0
84,519,0,0,0,0,0,0,0,0,0,-1,1308,505,0,0
91,519,0,0,0,0,0,0,0,0,0,-1,1315,505,0,0
98,519,0,0,0,0,0,0,0,0,0,-1,1322,505,0,0
105,519,0,0,0,0,0,0,0,0,0,-1,1329,505,0,0
112,519,0,0,0,0,0,0,0,0,0,-1,1336,505,0,0
119,519,0,0,0,0,0,0,0,0,0,-1,1343,505,0,0
126,519,0,0,0,0,0,0,0,0,0,-1,1350,505,0,0
133,519,0,0,0,0,0,0,0,0,0,-1,1357,505,0,0
140,519,0,0,0,0,0,0,0,0,0,-1,1364,505,0,0
147,519,0,0,0,0,0,0,0,0,0,-1,1371,505,0,0
154,519,0,0,0,0,0,0,0,0,0,-1,1378,505,0,0
161,519,0,0,0,0,0,0,0,0,0,-1,1385,505,0,0
168,519,0,0,0,0,0,0,0,0,0,-1,1392,505,0,0
175,519,0,0,0,0,0,0,0,0,0,-1,1399,505,0,0
182,519,0,0,0,0,0,0,0,0,0,-1,1406,505,0,0
189,519,0,0,0,0,0,0,0,0,0,-1,1413,505,0,0
196,519,0,0,0,0,0,0,0,0,0,-1,1420,505,0,0
203,519,0,0,0,0,0,0,0,0,0,-1,1427,505,0,0
210,519,0,0,0,0,0,0,0,0,0,-1,1434,505,0,0
217,519,0,0,0,0,0,0,0,0,0,-1,1441,505,0,0
224,519,0,0,0,0,0,0,0,0,0,-1,1448,505,0,0
231,519,0,0,0,0,0,0,0,0,0,-1,1455,505,0,0
238,519,0,0,0,0,0,0,0,0,0,-1,1462,505,0,0
245,519,0,0,0,0,0,0,0,0,0,-1,1469,505,0,0
252,519,5.26208,0.0938416,0,0,0,0,0,0,0,-1,1476,505,5.26207,-0.0938493
259,519,6.14246,-1.36441,0,0,0,0,0,0,0,-1,1483,505,6.14241,1.36441
266,519,5.31909,-0.400787,0,0,0,0,0,0,0,-1,1490,505,5.31912,0.400773
273,519,4.02393,0.325531,0,0,0,0,0,0,0,-1,1497,505,4.0239,-0.325522
280,519,4.68848,0.53006,0,0,0,0,0,0,0,-1,1504,505,4.68842,-0.530073
287,519,7.9519,-3.80801,0,0,0,0,0,0,0,-1,1511,505,7.95193,3.808
294,519,6.92273,-3.38889,0,0,0,0,0,0,0,-1,1518,505,6.92268,3.38888
301,519,5.35669,-2.92661,0,0,0,0,0,0,0,-1,1525,505,5.35675,2.9266
308,519,7.37549,-5.64529,0,0,0,0,0,0,0,-1,1532,505,7.3755,5.64529
315,519,6.30029,-4.53754,0,0,0,0,0,0,0,-1,1539,505,6.30024,4.53753
322,519,5.84302,-5.45117,0,0,0,0,0,0,0,-1,1546,505,5.84303,5.45116
329,519,4.92407,0.62384,0,0,0,0,0,0,0,-1,1553,505,4.92403,-0.623832
336,519,3.10095,-0.329285,0,0,0,0,0,0,0,-1,1560,505,3.1009,0.329283
343,519,2.49146,-2.31119,0,0,0,0,0,0,0,-1,1567,505,2.49145,2.31119
350,519,3.47729,-2.22516,0,0,0,0,0,0,0,-1,1574,505,3.47726,2.22515
357,519,4.51917,-4.51691,0,0,0,0,0,0,0,-1,1581,505,4.51914,4.51691
364,519,3.54626,-7.20673,0,0,0,0,0,0,0,-1,1588,505,3.54622,7.20675
371,519,5.44446,-8.43097,0,0,0,0,0,0,0,-1,1595,505,5.44452,8.43096
378,519,5.37256,-8.21075,0,0,0,0,0,0,0,-1,1602,505,5.37251,8.21078
385,519,5.29492,-7.84607,0,0,0,0,0,0,0,-1,1609,505,5.29498,7.84607
392,519,5.13855,-7.57501,-0.00747289,-0.0109028,-0.0131082,0.00403206,-0.0224078,-0.720352,0.0164481,0.0445132,1616,505,5.1386,7.57501
399,519,4.97986,-7.51068,-0.00612412,-0.00904866,-0.0113605,0.00386781,-0.0190406,-0.721392,0.0141602,0.0346642,1623,505,4.97991,7.51066
406,519,4.97742,-7.39838,-0.00500532,-0.00716238,-0.00967068,0.00364678,-0.0158145,-0.729865,0.0119456,0.0203796,1630,505,4.97736,7.39838
413,519,5.01624,-7.20142,-0.00386854,-0.00530817,-0.00789,0.0033344,-0.0125111,-0.739908,0.00964627,0.0123599,1637,505,5.01621,7.2014
420,519,4.96191,-6.97351,-0.00294544,-0.003767,-0.00621788,0.00287522,-0.00958765,-0.752414,0.0075353,0.0143047,1644,505,4.96195,6.97351
427,519,4.96191,-6.76709,-0.00231542,-0.00252775,-0.00480723,0.00238682,-0.00722998,-0.774358,0.0057822,0.0134721,1651,505,4.96186,6.7671
434,519,4.97058,-6.54471,-0.00186137,-0.0015053,-0.00360669,0.00192775,-0.00529441,-0.81006,0.00431809,0.0121667,1658,505,4.97056,6.54472
441,519,4.95386,-6.32169,-0.00147528,-0.000800337,-0.00258288,0.00146702,-0.00374264,-0.850359,0.00310197,0.0121822,1665,505,4.95391,6.32169
448,519,4.94531,-6.12451,-0.00101223,-8.70551e-05,-0.00161314,0.00112852,-0.0022278,-0.925031,0.00197211,0.00949891,1672,505,4.9453,6.12452
455,519,4.95508,-5.92142,-0.000715409,0.000167264,-0.000932676,0.000757752,-0.0013059,-1.00638,0.00120538,0.0101,1679,505,4.95503,5.92141
462,519,4.96204,-5.69141,-0.00051746,-6.3142e-05,-0.000337808,0.00011678,-0.000697383,-1.0814,0.00050834,0.0095937,1686,505,4.96202,5.6914
469,519,4.96912,-5.46191,-0.000260016,-0.00051916,0.000118565,-0.000213956,-0.00056522,0.370535,0.000329524,0.0103662,1693,505,4.96912,5.4619
476,519,4.96887,-5.22382,-8.31708e-05,-0.00111257,0.000298862,-2.69472e-06,-0.00119305,0.263036,0.000794469,0.0127747,1700,505,4.96889,5.22381
483,519,4.9696,-4.99652,6.88917e-05,-0.00189446,0.000475715,0.000178083,-0.00200366,0.225623,0.00139892,0.0144334,1707,505,4.96958,4.99652
490,519,4.96204,-4.74188,0.000162971,-0.0029057,0.00064648,0.000293604,-0.00303633,0.199384,0.00212885,0.0122618,1714,505,4.96199,4.74187
497,519,4.94678,-4.55988,0.00020217,-0.0039512,0.00092994,0.000400877,-0.00414991,0.210511,0.00290945,0.0143892,1721,505,4.94677,4.55987
504,519,4.93726,-4.31775,0.000400107,-0.00485481,0.00144051,0.000769082,-0.00522378,0.25075,0.00376516,0.0141764,1728,505,4.93727,4.31774
511,519,4.97546,-4.09366,0.000885628,-0.00526359,0.00226293,0.00162862,-0.00600658,0.317242,0.00464346,0.0199946,1735,505,4.97543,4.09367
518,519,4.95032,-4.06494,0.0014292,-0.00570217,0.00326356,0.00269724,-0.00697022,0.370594,0.00576038,0.0426672,1742,505,4.95038,4.06493
525,519,5.03711,-4.02069,0,0,0,0,0,0,0,-1,1749,505,5.03706,4.02069
532,519,3.5155,-2.86511,0,0,0,0,0,0,0,-1,1756,505,3.51554,2.8651
539,519,3.30005,0.0229797,0,0,0,0,0,0,0,-1,1763,505,3.30008,-0.0229869
546,519,4.62024,-2.89774,0,0,0,0,0,0,0,-1,1770,505,4.62023,2.89775
553,519,4.14136,0.0667419,0,0,0,0,0,0,0,-1,1777,505,4.14141,-0.0667503
560,519,3.77856,0.279724,0,0,0,0,0,0,0,-1,1784,505,3.77861,-0.279731
567,519,0,0,0,0,0,0,0,0,0,-1,1791,505,0,0
574,519,0,0,0,0,0,0,0,0,0,-1,1798,505,0,0
581,519,0,0,0,0,0,0,0,0,0,-1,1805,505,0,0
588,519,0,0,0,0,0,0,0,0,0,-1,1812,505,0,0
595,519,0,0,0,0,0,0,0,0,0,-1,1819,505,0,0
602,519,0,0,0,0,0,0,0,0,0,-1,1826,505,0,0
609,519,0,0,0,0,0,0,0,0,0,-1,1833,505,0,0
616,519,0,0,0,0,0,0,0,0,0,-1,1840,505,0,0
623,519,0,0,0,0,0,0,0,0,0,-1,1847,505,0,0
630,519,0,0,0,0,0,0,0,0,0,-1,1854,505,0,0
637,519,0,0,0,0,0,0,0,0,0,-1,1861,505,0,0
644,519,0,0,0,0,0,0,0,0,0,-1,1868,505,0,0
651,519,0,0,0,0,0,0,0,0,0,-1,1875,505,0,0
658,519,0,0,0,0,0,0,0,0,0,-1,1882,505,0,0
665,519,0,0,0,0,0,0,0,0,0,-1,1889,505,0,0
672,519,0,0,0,0,0,0,0,0,0,-1,1896,505,0,0
679,519,0,0,0,0,0,0,0,0,0,-1,1903,505,0,0
686,519,0,0,0,0,0,0,0,0,0,-1,1910,505,0,0
693,519,0,0,0,0,0,0,0,0,0,-1,1917,505,0,0
700,519,0,0,0,0,0,0,0,0,0,-1,1924,505,0,0
707,519,0,0,0,0,0,0,0,0,0,-1,1931,505,0,0
714,519,0,0,0,0,0,0,0,0,0,-1,1938,505,0,0
721,519,0,0,0,0,0,0,0,0,0,-1,1945,505,0,0
728,519,0,0,0,0,0,0,0,0,0,-1,1952,505,0,0
735,519,0,0,0,0,0,0,0,0,0,-1,1959,505,0,0
742,519,0,0,0,0,0,0,0,0,0,-1,1966,505,0,0
749,519,0,0,0,0,0,0,0,0,0,-1,1973,505,0,0
756,519,0,0,0,0,0,0,0,0,0,-1,1980,505,0,0
763,519,0,0,0,0,0,0,0,0,0,-1,1987,505,0,0
770,519,0,0,0,0,0,0,0,0,0,-1,1994,505,0,0
777,519,0,0,0,0,0,0,0,0,0,-1,2001,505,0,0
784,519,0,0,0,0,0,0,0,0,0,-1,2008,505,0,0
791,519,0,0,0,0,0,0,0,0,0,-1,2015,505,0,0
798,519,0,0,0,0,0,0,0,0,0,-1,2022,505,0,0
805,519,0,0,0,0,0,0,0,0,0,-1,2029,505,0,0
812,519,0,0,0,0,0,0,0,0,0,-1,2036,505,0,0
-700,512,0,0,0,0,0,0,0,0,0,-1,524,512,0,0
-693,512,0,0,0,0,0,0,0,0,0,-1,531,512,0,0
-686,512,0,0,0,0,0,0,0,0,0,-1,538,512,0,0
-679,512,0,0,0,0,0,0,0,0,0,-1,545,512,0,0
-672,512,0,0,0,0,0,0,0,0,0,-1,552,512,0,0
-665,512,0,0,0,0,0,0,0,0,0,-1,559,512,0,0
-658,512,0,0,0,0,0,0,0,0,0,-1,566,512,0,0
-651,512,0,0,0,0,0,0,0,0,0,-1,573,512,0,0
-644,512,0,0,0,0,0,0,0,0,0,-1,580,512,0,0
-637,512,0,0,0,0,0,0,0,0,0,-1,587,512,0,0
-630,512,0,0,0,0,0,0,0,0,0,-1,594,512,0,0
-623,512,0,0,0,0,0,0,0,0,0,-1,601,512,0,0
-616,512,0,0,0,0,0,0,0,0,0,-1,608,512,0,0
-609,512,0,0,0,0,0,0,0,0,0,-1,615,512,0,0
-602,512,0,0,0,0,0,0,0,0,0,-1,622,512,0,0
-595,512,0,0,0,0,0,0,0,0,0,-1,629,512,0,0
-588,512,0,0,0,0,0,0,0,0,0,-1,636,512,0,0
-581,512,0,0,0,0,0,0,0,0,0,-1,643,512,0,0
-574,512,0,0,0,0,0,0,0,0,0,-1,650,512,0,0
-567,512,0,0,0,0,0,0,0,0,0,-1,657,512,0,0
-560,512,0,0,0,0,0,0,0,0,0,-1,664,512,0,0
-553,512,0,0,0,0,0,0,0,0,0,-1,671,512,0,0
-546,512,0,0,0,0,0,0,0,0,0,-1,678,512,0,0
-539,512,0,0,0,0,0,0,0,0,0,-1,685,512,0,0
-532,512,0,0,0,0,0,0,0,0,0,-1,692,512,0,0
-525,512,0,0,0,0,0,0,0,0,0,-1,699,512,0,0
-518,512,0,0,0,0,0,0,0,0,0,-1,706,512,0,0
-511,512,0,0,0,0,0,0,0,0,0,-1,713,512,0,0
-504,512,0,0,0,0,0,0,0,0,0,-1,720,512,0,0
-497,512,0,0,0,0,0,0,0,0,0,-1,727,512,0,0
-490,512,0,0,0,0,0,0,0,0,0,-1,734,512,0,0
-483,512,0,0,0,0,0,0,0,0,0,-1,741,512,0,0
-476,512,0,0,0,0,0,0,0,0,0,-1,748,512,0,0
-469,512,0,0,0,0,0,0,0,0,0,-1,755,512,0,0
-462,512,0,0,0,0,0,0,0,0,0,-1,762,512,0,0
-455,512,0,0,0,0,0,0,0,0,0,-1,769,512,0,0
-448,512,1.15979,-3.66168,0,0,0,0,0,0,0,-1,776,512,1.15981,3.6617
-441,512,0.877319,-3.48383,0,0,0,0,0,0,0,-1,783,512,0.877305,3.48386
-434,512,0.756165,-3.5448,0,0,0,0,0,0,0,-1,790,512,0.756189,3.54483
-427,512,-1.96741,-4.37286,0,0,0,0,0,0,0,-1,797,512,-1.96742,4.37287
-420,512,-1.65527,-4.4455,0,0,0,0,0,0,0,-1,804,512,-1.65528,4.44548
-413,512,-1.28052,-4.4873,0.0426617,0.0232199,-0.0176376,0.0530799,0.0128018,-0.533537,0.031985,0.0439725,811,512,-1.28052,4.48728
-406,512,-0.875977,-4.64496,0.0341877,0.0181599,-0.0140295,0.0423308,0.0100167,-0.525904,0.0255449,0.0448283,818,512,-0.875986,4.64494
-399,512,-0.317627,-4.98273,0.026456,0.0140476,-0.0110196,0.0328979,0.00760574,-0.529008,0.0198875,0.0444469,825,512,-0.31765,4.98275
-392,512,-0.167664,-5.36389,0.01965,0.010514,-0.00833554,0.0245871,0.00557688,-0.534741,0.0148849,0.0349339,832,512,-0.167688,5.36387
-385,512,-0.138367,-5.54633,0.0140787,0.00778287,-0.00607032,0.0177687,0.00409277,-0.546201,0.0107446,0.0182069,839,512,-0.138394,5.5463
-378,512,-0.137085,-5.73431,0.00974808,0.00559814,-0.004275,0.0124251,0.00292114,-0.559459,0.00750171,0.0145532,846,512,-0.137087,5.73429
-371,512,-0.155273,-5.95325,0.00650149,0.00373767,-0.0028725,0.0083072,0.00193196,-0.561198,0.00501964,0.011516,853,512,-0.155297,5.95323
-364,512,-0.161194,-6.19562,0.0041621,0.00264235,-0.00197065,0.00551431,0.00129015,-0.601384,0.00333052,0.00888202,860,512,-0.161177,6.19564
-357,512,-0.155457,-6.39117,0.00217889,0.00162188,-0.0012995,0.00322939,0.000571379,-0.679836,0.00199,0.0103574,867,512,-0.155469,6.39117
-350,512,-0.145203,-6.61127,0.000912865,0.0010475,-0.000796323,0.00177935,0.00018102,-0.827566,0.00113073,0.0109763,874,512,-0.145219,6.61129
-343,512,-0.177063,-6.83295,0.000459928,0.000768038,-0.000645043,0.00127717,-4.92011e-05,-0.902617,0.000868309,0.0106863,881,512,-0.177036,6.83292
-336,512,-0.197327,-7.02075,0.000483572,0.000648563,-0.000634454,0.00120586,-7.37274e-05,-0.850048,0.000829577,0.0110316,888,512,-0.197309,7.02077
-329,512,-0.190674,-7.19617,0.000878281,0.000691288,-0.000830802,0.00162083,-5.1262e-05,-0.729365,0.00109804,0.0122484,895,512,-0.190653,7.19617
-322,512,-0.192749,-7.39813,0.00136476,0.000725622,-0.00104213,0.00213522,-4.48351e-05,-0.636625,0.00143866,0.0104691,902,512,-0.192726,7.39813
-315,512,-0.180237,-7.60345,0.00174822,0.000619697,-0.00125174,0.002557,-0.000189084,-0.573646,0.00177106,0.0107649,909,512,-0.180246,7.60348
-308,512,-0.183289,-7.8186,0.00224528,0.000547979,-0.00141758,0.00304882,-0.000255563,-0.51568,0.00212287,0.0109682,916,512,-0.183273,7.8186
-301,512,-0.182495,-8.00568,0.00268718,0.0003359,-0.00157271,0.0034751,-0.000452011,-0.46444,0.00248116,0.0139546,923,512,-0.182477,8.0057
-294,512,-0.168457,-8.14783,0.00299444,-1.09007e-05,-0.00159239,0.00368123,-0.00069769,-0.407189,0.00271675,0.0139298,930,512,-0.168479,8.14782
-287,512,-0.253784,-8.27271,0.00302291,-0.000811439,-0.00143409,0.00349993,-0.00128846,-0.321117,0.00286117,0.019301,937,512,-0.25377,8.27269
-280,512,-0.131897,-8.5271,0.00307821,-0.00159332,-0.00113733,0.00334039,-0.0018555,-0.226564,0.0030404,0.0260607,944,512,-0.131872,8.52708
-273,512,0.0800781,-8.59998,0.00270539,-0.00230435,-0.000735897,0.00281125,-0.00241021,-0.142873,0.00301758,0.0456391,951,512,0.0800523,8.59998
-266,512,-0.0321655,-8.74219,0.00202329,-0.0019893,-7.28753e-05,0.00202462,-0.00199062,-0.0181537,0.00231822,0.0488648,958,512,-0.0321498,8.74217
-259,512,-0.314575,-9.00958,0,0,0,0,0,0,0,-1,965,512,-0.314605,9.00956
-252,512,1.45941,-3.43475,0,0,0,0,0,0,0,-1,972,512,1.45938,3.43475
-245,512,4.12927,-11.272,0,0,0,0,0,0,0,-1,979,512,4.1293,11.272
-238,512,0.227051,-8.92969,0,0,0,0,0,0,0,-1,986,512,0.227073,8.92968
-231,512,-2.54437,-10.169,0,0,0,0,0,0,0,-1,993,512,-2.54439,10.169
-224,512,-4.84601,-7.52783,0,0,0,0,0,0,0,-1,1000,512,-4.84602,7.52786
-217,512,-7.37274,-3.89563,0,0,0,0,0,0,0,-1,1007,512,-7.37274,3.89561
-210,512,-3.76642,-1.94702,0,0,0,0,0,0,0,-1,1014,512,-3.76641,1.94702
-203,512,-2.48328,-5.19061,0,0,0,0,0,0,0,-1,1021,512,-2.48328,5.19059
-196,512,-1.14929,-4.63202,0,0,0,0,0,0,0,-1,1028,512,-1.14934,4.632
-189,512,0.197998,4.55505,0,0,0,0,0,0,0,-1,1035,512,0.197996,-4.55506
-182,512,2.73938,0.0778503,0,0,0,0,0,0,0,-1,1042,512,2.73944,-0.077852
-175,512,2.29565,0.209808,0,0,0,0,0,0,0,-1,1049,512,2.29565,-0.209813
-168,512,2.09399,-0.302856,0,0,0,0,0,0,0,-1,1056,512,2.09403,0.302826
-161,512,2.76636,0.0921021,0,0,0,0,0,0,0,-1,1063,512,2.76633,-0.0921104
-154,512,3.41382,0.466187,0,0,0,0,0,0,0,-1,1070,512,3.41382,-0.466178
-147,512,0,0,0,0,0,0,0,0,0,-1,1077,512,0,0
-140,512,0,0,0,0,0,0,0,0,0,-1,1084,512,0,0
-133,512,0,0,0,0,0,0,0,0,0,-1,1091,512,0,0
-126,512,0,0,0,0,0,0,0,0,0,-1,1098,512,0,0
-119,512,0,0,0,0,0,0,0,0,0,-1,1105,512,0,0
-112,512,0,0,0,0,0,0,0,0,0,-1,1112,512,0,0
-105,512,0,0,0,0,0,0,0,0,0,-1,1119,512,0,0
-98,512,0,0,0,0,0,0,0,0,0,-1,1126,512,0,0
-91,512,0,0,0,0,0,0,0,0,0,-1,1133,512,0,0
-84,512,0,0,0,0,0,0,0,0,0,-1,1140,512,0,0
-77,512,0,0,0,0,0,0,0,0,0,-1,1147,512,0,0
-70,512,0,0,0,0,0,0,0,0,0,-1,1154,512,0,0
-63,512,0,0,0,0,0,0,0,0,0,-1,1161,512,0,0
-56,512,0,0,0,0,0,0,0,0,0,-1,1168,512,0,0
-49,512,0,0,0,0,0,0,0,0,0,-1,1175,512,0,0
-42,512,0,0,0,0,0,0,0,0,0,-1,1182,512,0,0
-35,512,0,0,0,0,0,0,0,0,0,-1,1189,512,0,0
-28,512,0,0,0,0,0,0,0,0,0,-1,1196,512,0,0
-21,512,0,0,0,0,0,0,0,0,0,-1,1203,512,0,0
-14,512,0,0,0,0,0,0,0,0,0,-1,1210,512,0,0
-7,512,0,0,0,0,0,0,0,0,0,-1,1217,512,0,0
0,512,0,0,0,0,0,0,0,0,0,-1,1224,512,0,0
7,512,0,0,0,0,0,0,0,0,0,-1,1231,512,0,0
14,512,0,0,0,0,0,0,0,0,0,-1,1238,512,0,0
21,512,0,0,0,0,0,0,0,0,0,-1,1245,512,0,0
28,512,0,0,0,0,0,0,0,0,0,-1,1252,512,0,0
35,512,0,0,0,0,0,0,0,0,0,-1,1259,512,0,0
42,512,0,0,0,0,0,0,0,0,0,-1,1266,512,0,0
49,512,0,0,0,0,0,0,0,0,0,-1,1273,512,0,0
56,512,0,0,0,0,0,0,0,0,0,-1,1280,512,0,0
63,512,0,0,0,0,0,0,0,0,0,-1,1287,512,0,0
70,512,0,0,0,0,0,0,0,0,0,-1,1294,512,0,0
77,512,0,0,0,0,0,0,0,0,0,-1,1301,512,0,0
84,512,0,0,0,0,0,0,0,0,0,-1,1308,512,0,0
91,512,0,0,0,0,0,0,0,0,0,-1,1315,512,0,0
98,512,0,0,0,0,0,0,0,0,0,-1,1322,512,0,0
105,512,0,0,0,0,0,0,0,0,0,-1,1329,512,0,0
112,512,0,0,0,0,0,0,0,0,0,-1,1336,512,0,0
119,512,0,0,0,0,0,0,0,0,0,-1,1343,512,0,0
126,512,0,0,0,0,0,0,0,0,0,-1,1350,512,0,0
133,512,0,0,0,0,0,0,0,0,0,-1,1357,512,0,0
140,512,0,0,0,0,0,0,0,0,0,-1,1364,512,0,0
147,512,0,0,0,0,0,0,0,0,0,-1,1371,512,0,0
154,512,0,0,0,0,0,0,0,0,0,-1,1378,512,0,0
161,512,0,0,0,0,0,0,0,0,0,-1,1385,512,0,0
168,512,0,0,0,0,0,0,0,0,0,-1,1392,512,0,0
175,512,0,0,0,0,0,0,0,0,0,-1,1399,512,0,0
182,512,0,0,0,0,0,0,0,0,0,-1,1406,512,0,0
189,512,0,0,0,0,0,0,0,0,0,-1,1413,512,0,0
196,512,0,0,0,0,0,0,0,0,0,-1,1420,512,0,0
203,512,0,0,0,0,0,0,0,0,0,-1,1427,512,0,0
210,512,0,0,0,0,0,0,0,0,0,-1,1434,512,0,0
217,512,0,0,0,0,0,0,0,0,0,-1,1441,512,0,0
224,512,0,0,0,0,0,0,0,0,0,-1,1448,512,0,0
231,512,0,0,0,0,0,0,0,0,0,-1,1455,512,0,0
238,512,0,0,0,0,0,0,0,0,0,-1,1462,512,0,0
245,512,0,0,0,0,0,0,0,0,0,-1,1469,512,0,0
252,512,0,0,0,0,0,0,0,0,0,-1,1476,512,0,0
259,512,0,0,0,0,0,0,0,0,0,-1,1483,512,0,0
266,512,0,0,0,0,0,0,0,0,0,-1,1490,512,0,0
273,512,4.00745,0.618622,0,0,0,0,0,0,0,-1,1497,512,4.00747,-0.618611
280,512,4.49609,0.649841,0,0,0,0,0,0,0,-1,1504,512,4.49612,-0.649834
287,512,4.77234,0.458069,0,0,0,0,0,0,0,-1,1511,512,4.77233,-0.458083
294,512,8.54956,-2.36273,0,0,0,0,0,0,0,-1,1518,512,8.54952,2.36274
301,512,6.302,-1.69092,0,0,0,0,0,0,0,-1,1525,512,6.30196,1.69093
308,512,8.2439,-6.22754,0,0,0,0,0,0,0,-1,1532,512,8.24394,6.22757
315,512,7.53687,-6.04211,0,0,0,0,0,0,0,-1,1539,512,7.53691,6.04211
322,512,6.82983,-5.85663,0,0,0,0,0,0,0,-1,1546,512,6.82988,5.85666
329,512,4.38147,-0.329651,0,0,0,0,0,0,0,-1,1553,512,4.38144,0.329662
336,512,4.41467,-0.741455,0,0,0,0,0,0,0,-1,1560,512,4.41467,0.741442
343,512,4.44727,-1.21667,0,0,0,0,0,0,0,-1,1567,512,4.44732,1.21666
350,512,4.55469,-1.65082,0,0,0,0,0,0,0,-1,1574,512,4.5547,1.65083
357,512,5.79993,-2.67456,0,0,0,0,0,0,0,-1,1581,512,5.79991,2.67454
364,512,5.18298,-6.80133,0,0,0,0,0,0,0,-1,1588,512,5.18296,6.80132
371,512,5.28467,-7.69269,0,0,0,0,0,0,0,-1,1595,512,5.28464,7.69269
378,512,5.45007,-8.09125,0,0,0,0,0,0,0,-1,1602,512,5.45003,8.09127
385,512,5.32239,-7.5578,0,0,0,0,0,0,0,-1,1609,512,5.32237,7.55779
392,512,5.62781,-7.09656,-0.0100903,-0.0153751,-0.0182537,0.00571128,-0.0311767,-0.713518,0.0229266,0.0483099,1616,512,5.62785,7.09658
399,512,5.40637,-7.16785,-0.00818019,-0.0124767,-0.015551,0.00537022,-0.0260271,-0.716761,0.019391,0.0483728,1623,512,5.40643,7.16784
406,512,5.2804,-7.29321,-0.00665568,-0.00967724,-0.0130756,0.00499613,-0.021329,-0.727882,0.0161445,0.0377044,1630,512,5.28035,7.29323
413,512,5.18665,-7.27393,-0.00527184,-0.007073,-0.0106162,0.00448187,-0.0168267,-0.743084,0.0129725,0.0286008,1637,512,5.18666,7.27393
420,512,5.22302,-7.0163,-0.00410153,-0.0050027,-0.00837616,0.00383616,-0.0129404,-0.758527,0.0101502,0.0165599,1644,512,5.22299,7.01628
427,512,5.19507,-6.76501,-0.00322306,-0.00339411,-0.00647888,0.00317086,-0.00978803,-0.778798,0.00780018,0.01388,1651,512,5.19503,6.76502
434,512,5.18787,-6.55432,-0.00251709,-0.00204247,-0.00484599,0.00257201,-0.00713157,-0.809864,0.00580487,0.011059,1658,512,5.18782,6.55432
441,512,5.1748,-6.34863,-0.0018765,-0.00108073,-0.00347044,0.00201455,-0.00497179,-0.842474,0.00415227,0.0123848,1665,512,5.17476,6.34861
448,512,5.15063,-6.1438,-0.00113464,-0.000116915,-0.0021934,0.00162588,-0.00287743,-0.89938,0.00263325,0.008793,1672,512,5.15067,6.14381
455,512,5.15234,-5.91943,-0.00058585,0.000306723,-0.00125146,0.00118909,-0.00146822,-0.956675,0.00153702,0.00801838,1679,512,5.15239,5.91944
462,512,5.1626,-5.68872,-0.000200546,0.000276582,-0.000449621,0.000547009,-0.000470973,-1.02931,0.000588278,0.00887401,1686,512,5.16264,5.68874
469,512,5.15881,-5.46039,0.000250362,-4.03439e-05,0.000162038,0.000322687,-0.000112669,0.419812,0.00026092,0.0107785,1693,512,5.15884,5.4604
476,512,5.16541,-5.23309,0.000596438,-0.000472038,0.000437103,0.000752468,-0.000628068,0.342865,0.00079813,0.0132095,1700,512,5.16544,5.23312
483,512,5.17688,-4.97766,0.000824339,-0.00105939,0.000657545,0.00103116,-0.00126621,0.304735,0.0013287,0.0125922,1707,512,5.1769,4.97768
490,512,5.17981,-4.75208,0.00095074,-0.00186153,0.000828046,0.00117644,-0.00208723,0.266101,0.00190858,0.010084,1714,512,5.17982,4.75207
497,512,5.18494,-4.53998,0.000950027,-0.00269059,0.00104265,0.00122749,-0.00296806,0.260085,0.00249081,0.011059,1721,512,5.18489,4.53995
504,512,5.1875,-4.28552,0.00104853,-0.00329179,0.00144133,0.00148356,-0.00372682,0.293132,0.00309976,0.011725,1728,512,5.18747,4.2855
511,512,5.16443,-4.02771,0.00138356,-0.00338413,0.00208371,0.00216588,-0.00416644,0.359159,0.00371628,0.0134665,1735,512,5.16442,4.0277
518,512,5.21252,-3.85553,0.00156714,-0.00348513,0.00274317,0.00277013,-0.00468812,0.413282,0.00435323,0.0212876,1742,512,5.21249,3.85551
525,512,5.34766,-3.67053,0,0,0,0,0,0,0,-1,1749,512,5.3477,3.67053
532,512,4.95325,-3.35022,0,0,0,0,0,0,0,-1,1756,512,4.95325,3.35021
539,512,4.39929,-3.11737,0,0,0,0,0,0,0,-1,1763,512,4.3993,3.11735
546,512,2.77551,-0.66449,0,0,0,0,0,0,0,-1,1770,512,2.77548,0.664503
553,512,3.927,-0.448853,0,0,0,0,0,0,0,-1,1777,512,3.92704,0.448843
560,512,3.55762,-0.201233,0,0,0,0,0,0,0,-1,1784,512,3.55768,0.201259
567,512,3.09045,0.191193,0,0,0,0,0,0,0,-1,1791,512,3.09045,-0.191203
574,512,0,0,0,0,0,0,0,0,0,-1,1798,512,0,0
581,512,0,0,0,0,0,0,0,0,0,-1,1805,512,0,0
588,512,0,0,0,0,0,0,0,0,0,-1,1812,512,0,0
595,512,0,0,0,0,0,0,0,0,0,-1,1819,512,0,0
602,512,0,0,0,0,0,0,0,0,0,-1,1826,512,0,0
609,512,0,0,0,0,0,0,0,0,0,-1,1833,512,0,0
616,512,0,0,0,0,0,0,0,0,0,-1,1840,512,0,0
623,512,0,0,0,0,0,0,0,0,0,-1,1847,512,0,0
630,512,0,0,0,0,0,0,0,0,0,-1,1854,512,0,0
637,512,0,0,0,0,0,0,0,0,0,-1,1861,512,0,0
644,512,0,0,0,0,0,0,0,0,0,-1,1868,512,0,0
651,512,0,0,0,0,0,0,0,0,0,-1,1875,512,0,0
658,512,0,0,0,0,0,0,0,0,0,-1,1882,512,0,0
665,512,0,0,0,0,0,0,0,0,0,-1,1889,512,0,0
672,512,0,0,0,0,0,0,0,0,0,-1,1896,512,0,0
679,512,0,0,0,0,0,0,0,0,0,-1,1903,512,0,0
686,512,0,0,0,0,0,0,0,0,0,-1,1910,512,0,0
693,512,0,0,0,0,0,0,0,0,0,-1,1917,512,0,0
700,512,0,0,0,0,0,0,0,0,0,-1,1924,512,0,0
707,512,0,0,0,0,0,0,0,0,0,-1,1931,512,0,0
714,512,0,0,0,0,0,0,0,0,0,-1,1938,512,0,0
721,512,0,0,0,0,0,0,0,0,0,-1,1945,512,0,0
728,512,0,0,0,0,0,0,0,0,0,-1,1952,512,0,0
735,512,0,0,0,0,0,0,0,0,0,-1,1959,512,0,0
742,512,0,0,0,0,0,0,0,0,0,-1,1966,512,0,0
749,512,0,0,0,0,0,0,0,0,0,-1,1973,512,0,0
756,512,0,0,0,0,0,0,0,0,0,-1,1980,512,0,0
763,512,0,0,0,0,0,0,0,0,0,-1,1987,512,0,0
770,512,0,0,0,0,0,0,0,0,0,-1,1994,512,0,0
777,512,0,0,0,0,0,0,0,0,0,-1,2001,512,0,0
784,512,0,0,0,0,0,0,0,0,0,-1,2008,512,0,0
791,512,0,0,0,0,0,0,0,0,0,-1,2015,512,0,0
798,512,0,0,0,0,0,0,0,0,0,-1,2022,512,0,0
805,512,0,0,0,0,0,0,0,0,0,-1,2029,512,0,0
812,512,0,0,0,0,0,0,0,0,0,-1,2036,512,0,0
-700,505,0,0,0,0,0,0,0,0,0,-1,524,519,0,0
-693,505,0,0,0,0,0,0,0,0,0,-1,531,519,0,0
-686,505,0,0,0,0,0,0,0,0,0,-1,538,519,0,0
-679,505,0,0,0,0,0,0,0,0,0,-1,545,519,0,0
-672,505,0,0,0,0,0,0,0,0,0,-1,552,519,0,0
-665,505,0,0,0,0,0,0,0,0,0,-1,559,519,0,0
-658,505,0,0,0,0,0,0,0,0,0,-1,566,519,0,0
-651,505,0,0,0,0,0,0,0,0,0,-1,573,519,0,0
-644,505,0,0,0,0,0,0,0,0,0,-1,580,519,0,0
-637,505,0,0,0,0,0,0,0,0,0,-1,587,519,0,0
-630,505,0,0,0,0,0,0,0,0,0,-1,594,519,0,0
-623,505,0,0,0,0,0,0,0,0,0,-1,601,519,0,0
-616,505,0,0,0,0,0,0,0,0,0,-1,608,519,0,0
-609,505,0,0,0,0,0,0,0,0,0,-1,615,519,0,0
-602,505,0,0,0,0,0,0,0,0,0,-1,622,519,0,0
-595,505,0,0,0,0,0,0,0,0,0,-1,629,519,0,0
-588,505,0,0,0,0,0,0,0,0,0,-1,636,519,0,0
-581,505,0,0,0,0,0,0,0,0,0,-1,643,519,0,0
-574,505,0,0,0,0,0,0,0,0,0,-1,650,519,0,0
-567,505,0,0,0,0,0,0,0,0,0,-1,657,519,0,0
-560,505,0,0,0,0,0,0,0,0,0,-1,664,519,0,0
-553,505,0,0,0,0,0,0,0,0,0,-1,671,519,0,0
-546,505,0,0,0,0,0,0,0,0,0,-1,678,519,0,0
-539,505,0,0,0,0,0,0,0,0,0,-1,685,519,0,0
-532,505,0,0,0,0,0,0,0,0,0,-1,692,519,0,0
-525,505,0,0,0,0,0,0,0,0,0,-1,699,519,0,0
-518,505,0,0,0,0,0,0,0,0,0,-1,706,519,0,0
-511,505,0,0,0,0,0,0,0,0,0,-1,713,519,0,0
-504,505,0,0,0,0,0,0,0,0,0,-1,720,519,0,0
-497,505,0,0,0,0,0,0,0,0,0,-1,727,519,0,0
-490,505,0,0,0,0,0,0,0,0,0,-1,734,519,0,0
-483,505,0,0,0,0,0,0,0,0,0,-1,741,519,0,0
-476,505,0,0,0,0,0,0,0,0,0,-1,748,519,0,0
-469,505,0,0,0,0,0,0,0,0,0,-1,755,519,0,0
-462,505,0,0,0,0,0,0,0,0,0,-1,762,519,0,0
-455,505,0.12384,-4.06439,0,0,0,0,0,0,0,-1,769,519,0.123847,4.06437
-448,505,0.147827,-4.17816,0,0,0,0,0,0,0,-1,776,519,0.147853,4.17819
-441,505,0.145325,-4.2962,0,0,0,0,0,0,0,-1,783,519,0.145344,4.2962
-434,505,-0.144592,-3.50854,0,0,0,0,0,0,0,-1,790,519,-0.144573,3.50856
-427,505,-0.217468,-3.84192,0,0,0,0,0,0,0,-1,797,519,-0.217475,3.84191
-420,505,-1.58807,-4.7171,0,0,0,0,0,0,0,-1,804,519,-1.58805,4.7171
-413,505,-1.27649,-4.71906,0.0319736,0.018599,-0.0144637,0.0412212,0.00935146,-0.56886,0.0249547,0.0445034,811,519,-1.27648,4.71905
-406,505,-0.805359,-4.85706,0.0257944,0.0144549,-0.0114302,0.0328838,0.00736552,-0.555164,0.0199264,0.0454727,818,519,-0.805367,4.85706
-399,505,-0.33551,-5.1203,0.0201185,0.0112072,-0.00890282,0.0256184,0.00570732,-0.553386,0.0155301,0.0407127,825,519,-0.335535,5.12032
-392,505,-0.276733,-5.32813,0.0151735,0.00843419,-0.00675467,0.0193523,0.00425531,-0.554031,0.011743,0.0197948,832,519,-0.276762,5.3281
-385,505,-0.337097,-5.5412,0.0111426,0.00621837,-0.00497595,0.0142322,0.00312872,-0.555658,0.00863627,0.00922704,839,519,-0.337121,5.54118
-378,505,-0.364563,-5.75348,0.00795444,0.00442682,-0.00359722,0.010197,0.00218426,-0.557459,0.00619953,0.0109837,846,519,-0.36459,5.75351
-371,505,-0.366943,-5.97296,0.00553545,0.00279542,-0.00254696,0.00705748,0.00127339,-0.538644,0.0043432,0.0133718,853,519,-0.36697,5.97294
-364,505,-0.371216,-6.1983,0.00380736,0.00189208,-0.00190075,0.00497808,0.00072136,-0.552048,0.00310631,0.0136147,860,519,-0.371246,6.19829
-357,505,-0.346741,-6.39795,0.00235933,0.00105144,-0.00145621,0.00330169,0.00010908,-0.574357,0.00216568,0.0112293,867,519,-0.346743,6.39795
-350,505,-0.356079,-6.60455,0.00146055,0.000598502,-0.00114558,0.00225351,-0.000194452,-0.605464,0.00157117,0.010664,874,519,-0.356061,6.60455
-343,505,-0.390747,-6.82166,0.0012238,0.000384533,-0.00112724,0.00200698,-0.000398651,-0.607213,0.00148877,0.00867982,881,519,-0.39076,6.82167
-336,505,-0.40741,-6.99762,0.00138671,0.000337134,-0.00122374,0.00219344,-0.000469594,-0.582839,0.00164137,0.0102519,888,519,-0.407437,6.99764
-329,505,-0.398254,-7.17212,0.00185687,0.00047773,-0.00146567,0.00278709,-0.000452486,-0.565521,0.0020258,0.0134182,895,519,-0.398246,7.1721
-322,505,-0.397949,-7.39063,0.00235934,0.000607179,-0.00170198,0.00339748,-0.000430961,-0.547711,0.00242146,0.014811,902,519,-0.397922,7.39062
-315,505,-0.383728,-7.60846,0.00273655,0.000549907,-0.00196742,0.00389403,-0.000607574,-0.531789,0.00282044,0.0129845,909,519,-0.383748,7.60846
-308,505,-0.375122,-7.81561,0.00325557,0.000616529,-0.00216909,0.00447496,-0.000602863,-0.512137,0.00320323,0.0121594,916,519,-0.375134,7.81564
-301,505,-0.355835,-8.03729,0.0036926,0.000441794,-0.0023357,0.00491279,-0.000778398,-0.481415,0.00356312,0.017504,923,519,-0.355863,8.03731
-294,505,-0.36731,-8.17059,0,0,0,0,0,0,0,-1,930,519,-0.367331,8.17058
-287,505,-0.469788,-8.26044,0,0,0,0,0,0,0,-1,937,519,-0.469785,8.26042
-280,505,-0.264038,-8.73517,0,0,0,0,0,0,0,-1,944,519,-0.264008,8.73515
-273,505,-0.361389,-8.55212,0,0,0,0,0,0,0,-1,951,519,-0.361415,8.55211
-266,505,0.104614,-8.69659,0,0,0,0,0,0,0,-1,958,519,0.10462,8.69658
-259,505,0.10321,-6.69824,0,0,0,0,0,0,0,-1,965,519,0.103235,6.69826
-252,505,6.82312,-15.6972,0,0,0,0,0,0,0,-1,972,519,6.82314,15.6972
-245,505,4.26727,-12.9861,0,0,0,0,0,0,0,-1,979,519,4.2673,12.9861
-238,505,1.67432,-11.2307,0,0,0,0,0,0,0,-1,986,519,1.67429,11.2307
-231,505,-0.958435,-8.3075,0,0,0,0,0,0,0,-1,993,519,-0.958421,8.30751
-224,505,-3.69653,-5.12732,0,0,0,0,0,0,0,-1,1000,519,-3.69653,5.12733
-217,505,-6.34302,-1.65533,0,0,0,0,0,0,0,-1,1007,519,-6.34299,1.65535
-210,505,-3.06128,-0.396301,0,0,0,0,0,0,0,-1,1014,519,-3.06129,0.396294
-203,505,-4.26465,2.03607,0,0,0,0,0,0,0,-1,1021,519,-4.26462,-2.03606
-196,505,-5.47595,4.27295,0,0,0,0,0,0,0,-1,1028,519,-5.47597,-4.27292
-189,505,1.51526,5.56207,0,0,0,0,0,0,0,-1,1035,519,1.51523,-5.56209
-182,505,2.97815,7.5097,0,0,0,0,0,0,0,-1,1042,519,2.97812,-7.5097
-175,505,-2.38416,-2.17548,0,0,0,0,0,0,0,-1,1049,519,-2.38411,2.1755
-168,505,0,0,0,0,0,0,0,0,0,-1,1056,519,0,0
-161,505,0,0,0,0,0,0,0,0,0,-1,1063,519,0,0
-154,505,0,0,0,0,0,0,0,0,0,-1,1070,519,0,0
-147,505,0,0,0,0,0,0,0,0,0,-1,1077,519,0,0
-140,505,0,0,0,0,0,0,0,0,0,-1,1084,519,0,0
-133,505,0,0,0,0,0,0,0,0,0,-1,1091,519,0,0
-126,505,0,0,0,0,0,0,0,0,0,-1,1098,519,0,0
-119,505,0,0,0,0,0,0,0,0,0,-1,1105,519,0,0
-112,505,0,0,0,0,0,0,0,0,0,-1,1112,519,0,0
-105,505,0,0,0,0,0,0,0,0,0,-1,1119,519,0,0
-98,505,0,0,0,0,0,0,0,0,0,-1,1126,519,0,0
-91,505,0,0,0,0,0,0,0,0,0,-1,1133,519,0,0
-84,505,0,0,0,0,0,0,0,0,0,-1,1140,519,0,0
-77,505,0,0,0,0,0,0,0,0,0,-1,1147,519,0,0
-70,505,0,0,0,0,0,0,0,0,0,-1,1154,519,0,0
-63,505,0,0,0,0,0,0,0,0,0,-1,1161,519,0,0
-56,505,0,0,0,0,0,0,0,0,0,-1,1168,519,0,0
-49,505,0,0,0,0,0,0,0,0,0,-1,1175,519,0,0
-42,505,0,0,0,0,0,0,0,0,0,-1,1182,519,0,0
-35,505,0,0,0,0,0,0,0,0,0,-1,1189,519,0,0
-28,505,0,0,0,0,0,0,0,0,0,-1,1196,519,0,0
-21,505,0,0,0,0,0,0,0,0,0,-1,1203,519,0,0
-14,505,0,0,0,0,0,0,0,0,0,-1,1210,519,0,0
-7,505,0,0,0,0,0,0,0,0,0,-1,1217,519,0,0
0,505,0,0,0,0,0,0,0,0,0,-1,1224,519,0,0
7,505,0,0,0,0,0,0,0,0,0,-1,1231,519,0,0
14,505,0,0,0,0,0,0,0,0,0,-1,1238,519,0,0
21,505,0,0,0,0,0,0,0,0,0,-1,1245,519,0,0
28,505,0,0,0,0,0,0,0,0,0,-1,1252,519,0,0
35,505,0,0,0,0,0,0,0,0,0,-1,1259,519,0,0
42,505,0,0,0,0,0,0,0,0,0,-1,1266,519,0,0
49,505,0,0,0,0,0,0,0,0,0,-1,1273,519,0,0
56,505,0,0,0,0,0,0,0,0,0,-1,1280,519,0,0
63,505,0,0,0,0,0,0,0,0,0,-1,1287,519,0,0
70,505,0,0,0,0,0,0,0,0,0,-1,1294,519,0,0
77,505,0,0,0,0,0,0,0,0,0,-1,1301,519,0,0
84,505,0,0,0,0,0,0,0,0,0,-1,1308,519,0,0
91,505,0,0,0,0,0,0,0,0,0,-1,1315,519,0,0
98,505,0,0,0,0,0,0,0,0,0,-1,1322,519,0,0
105,505,0,0,0,0,0,0,0,0,0,-1,1329,519,0,0
112,505,0,0,0,0,0,0,0,0,0,-1,1336,519,0,0
119,505,0,0,0,0,0,0,0,0,0,-1,1343,519,0,0
126,505,0,0,0,0,0,0,0,0,0,-1,1350,519,0,0
133,505,0,0,0,0,0,0,0,0,0,-1,1357,519,0,0
140,505,0,0,0,0,0,0,0,0,0,-1,1364,519,0,0
147,505,0,0,0,0,0,0,0,0,0,-1,1371,519,0,0
154,505,0,0,0,0,0,0,0,0,0,-1,1378,519,0,0
161,505,0,0,0,0,0,0,0,0,0,-1,1385,519,0,0
168,505,0,0,0,0,0,0,0,0,0,-1,1392,519,0,0
175,505,0,0,0,0,0,0,0,0,0,-1,1399,519,0,0
182,505,0,0,0,0,0,0,0,0,0,-1,1406,519,0,0
189,505,0,0,0,0,0,0,0,0,0,-1,1413,519,0,0
196,505,0,0,0,0,0,0,0,0,0,-1,1420,519,0,0
203,505,0,0,0,0,0,0,0,0,0,-1,1427,519,0,0
210,505,0,0,0,0,0,0,0,0,0,-1,1434,519,0,0
217,505,0,0,0,0,0,0,0,0,0,-1,1441,519,0,0
224,505,0,0,0,0,0,0,0,0,0,-1,1448,519,0,0
231,505,0,0,0,0,0,0,0,0,0,-1,1455,519,0,0
238,505,0,0,0,0,0,0,0,0,0,-1,1462,519,0,0
245,505,0,0,0,0,0,0,0,0,0,-1,1469,519,0,0
252,505,0,0,0,0,0,0,0,0,0,-1,1476,519,0,0
259,505,0,0,0,0,0,0,0,0,0,-1,1483,519,0,0
266,505,0,0,0,0,0,0,0,0,0,-1,1490,519,0,0
273,505,0,0,0,0,0,0,0,0,0,-1,1497,519,0,0
280,505,0,0,0,0,0,0,0,0,0,-1,1504,519,0,0
287,505,4.39478,0.499512,0,0,0,0,0,0,0,-1,1511,519,4.39476,-0.499506
294,505,4.88867,0.0822754,0,0,0,0,0,0,0,-1,1518,519,4.88871,-0.0822748
301,505,4.82153,-0.0704346,0,0,0,0,0,0,0,-1,1525,519,4.82156,0.0704312
308,505,4.67761,-0.29187,0,0,0,0,0,0,0,-1,1532,519,4.67762,0.291845
315,505,8.44055,-6.54352,0,0,0,0,0,0,0,-1,1539,519,8.44059,6.54349
322,505,4.78955,-0.594116,0,0,0,0,0,0,0,-1,1546,519,4.78957,0.594096
329,505,5.16321,0.434631,0,0,0,0,0,0,0,-1,1553,519,5.16316,-0.434614
336,505,4.94495,-0.920471,0,0,0,0,0,0,0,-1,1560,519,4.945,0.920495
343,505,5.01855,-1.4823,0,0,0,0,0,0,0,-1,1567,519,5.01851,1.48227
350,505,5.33154,-1.77838,0,0,0,0,0,0,0,-1,1574,519,5.33152,1.77838
357,505,5.56567,-1.9425,0,0,0,0,0,0,0,-1,1581,519,5.56562,1.94248
364,505,5.85205,-2.6579,0,0,0,0,0,0,0,-1,1588,519,5.85211,2.65788
371,505,5.88477,-7.00922,0,0,0,0,0,0,0,-1,1595,519,5.88473,7.00924
378,505,5.44104,-7.10162,0,0,0,0,0,0,0,-1,1602,519,5.44099,7.10162
385,505,5.30042,-6.48242,0,0,0,0,0,0,0,-1,1609,519,5.30043,6.48243
392,505,5.90332,-6.44556,0,0,0,0,0,0,0,-1,1616,519,5.90332,6.44554
399,505,5.78223,-6.87439,0,0,0,0,0,0,0,-1,1623,519,5.78224,6.87441
406,505,5.74036,-7.12616,-0.00871116,-0.012752,-0.0172893,0.00667539,-0.0281385,-0.727232,0.0213352,0.0464022,1630,519,5.7403,7.12617
413,505,5.95068,-7.21356,-0.00696717,-0.00912388,-0.0139057,0.00590193,-0.021993,-0.746702,0.0169748,0.0483099,1637,519,5.95072,7.21357
420,505,5.48901,-7.05249,-0.0055089,-0.00636404,-0.0109271,0.00499895,-0.0168719,-0.765843,0.0132328,0.0329524,1644,519,5.48905,7.05251
427,505,5.41125,-6.76306,-0.00437847,-0.00429738,-0.00842935,0.00409153,-0.0127674,-0.787803,0.010154,0.0139858,1651,519,5.4113,6.76306
434,505,5.39624,-6.53864,-0.00343554,-0.00254588,-0.00628931,0.00331431,-0.00929573,-0.820703,0.00754849,0.0103543,1658,519,5.39625,6.53866
441,505,5.38831,-6.3266,-0.00260015,-0.0013257,-0.00455478,0.00263621,-0.00656207,-0.854899,0.00546948,0.0103826,1665,519,5.38827,6.32659
448,505,5.38953,-6.11499,-0.00166598,-0.000133694,-0.00299474,0.00219135,-0.00399102,-0.910628,0.00361945,0.010433,1672,519,5.38955,6.11499
455,505,5.39124,-5.89557,-0.000969073,0.000400091,-0.00184446,0.00168291,-0.00225189,-0.963096,0.00227966,0.0101228,1679,519,5.39122,5.89555
462,505,5.37256,-5.67474,-0.000501062,0.000508905,-0.000903119,0.00103864,-0.00103079,-1.04032,0.00119479,0.0107393,1686,519,5.37257,5.67475
469,505,5.36914,-5.45856,5.59914e-05,0.000260471,-0.000200409,0.000383213,-6.67503e-05,-1.02127,0.000280386,0.0107602,1693,519,5.36913,5.45858
476,505,5.37451,-5.23431,0.000488884,-9.56615e-05,0.000106578,0.00050771,-0.000114487,0.174834,0.000382392,0.0105554,1700,519,5.37449,5.23429
483,505,5.39441,-5.00165,0.000738549,-0.000564962,0.000330401,0.000817513,-0.000643925,0.234592,0.000845743,0.0109794,1707,519,5.39438,5.00167
490,505,5.39795,-4.77472,0.0008865,-0.00122782,0.000490197,0.000994621,-0.00133594,0.217091,0.00135035,0.0103408,1714,519,5.39795,4.7747
497,505,5.41052,-4.54053,0.000871578,-0.00191504,0.000639922,0.0010115,-0.00205496,0.215273,0.00180427,0.0106371,1721,519,5.41054,4.54053
504,505,5.41064,-4.2843,0.000926659,-0.0023212,0.000948891,0.00118356,-0.0025781,0.264404,0.00222099,0.0117423,1728,519,5.4106,4.28427
511,505,5.38074,-4.05054,0.00122175,-0.00217436,0.00150682,0.00179391,-0.00274652,0.3629,0.00264058,0.0141369,1735,519,5.38078,4.05055
518,505,5.45569,-3.87531,0.00132881,-0.00206886,0.00199223,0.00224819,-0.00298824,0.43236,0.0030333,0.025273,1742,519,5.45573,3.87533
525,505,5.20959,-3.64569,0.00161707,-0.00146447,0.00271998,0.00320236,-0.00304976,0.527701,0.00361002,0.0372493,1749,519,5.20961,3.64572
532,505,5.28528,-3.52698,0.00226594,-5.9924e-05,0.00394407,0.00521495,-0.00300894,0.642033,0.00480467,0.0489094,1756,519,5.28531,3.52699
539,505,5.11694,-3.30975,0,0,0,0,0,0,0,-1,1763,519,5.11696,3.30973
546,505,4.69727,-1.47705,0,0,0,0,0,0,0,-1,1770,519,4.69723,1.47703
553,505,2.82837,0.162659,0,0,0,0,0,0,0,-1,1777,519,2.82841,-0.162672
560,505,3.66223,-0.479797,0,0,0,0,0,0,0,-1,1784,519,3.66219,0.47982
567,505,4.65271,-0.950256,0,0,0,0,0,0,0,-1,1791,519,4.65274,0.95028
574,505,5.54443,-1.19977,0,0,0,0,0,0,0,-1,1798,519,5.54443,1.19974
581,505,0,0,0,0,0,0,0,0,0,-1,1805,519,0,0
588,505,0,0,0,0,0,0,0,0,0,-1,1812,519,0,0
595,505,0,0,0,0,0,0,0,0,0,-1,1819,519,0,0
602,505,0,0,0,0,0,0,0,0,0,-1,1826,519,0,0
609,505,0,0,0,0,0,0,0,0,0,-1,1833,519,0,0
616,505,0,0,0,0,0,0,0,0,0,-1,1840,519,0,0
623,505,0,0,0,0,0,0,0,0,0,-1,1847,519,0,0
630,505,0,0,0,0,0,0,0,0,0,-1,1854,519,0,0
637,505,0,0,0,0,0,0,0,0,0,-1,1861,519,0,0
644,505,0,0,0,0,0,0,0,0,0,-1,1868,519,0,0
651,505,0,0,0,0,0,0,0,0,0,-1,1875,519,0,0
658,505,0,0,0,0,0,0,0,0,0,-1,1882,519,0,0
665,505,0,0,0,0,0,0,0,0,0,-1,1889,519,0,0
672,505,0,0,0,0,0,0,0,0,0,-1,1896,519,0,0
679,505,0,0,0,0,0,0,0,0,0,-1,1903,519,0,0
686,505,0,0,0,0,0,0,0,0,0,-1,1910,519,0,0
693,505,0,0,0,0,0,0,0,0,0,-1,1917,519,0,0
700,505,0,0,0,0,0,0,0,0,0,-1,1924,519,0,0
707,505,0,0,0,0,0,0,0,0,0,-1,1931,519,0,0
714,505,0,0,0,0,0,0,0,0,0,-1,1938,519,0,0
721,505,0,0,0,0,0,0,0,0,0,-1,1945,519,0,0
728,505,0,0,0,0,0,0,0,0,0,-1,1952,519,0,0
735,505,0,0,0,0,0,0,0,0,0,-1,1959,519,0,0
742,505,0,0,0,0,0,0,0,0,0,-1,1966,519,0,0
749,505,0,0,0,0,0,0,0,0,0,-1,1973,519,0,0
756,505,0,0,0,0,0,0,0,0,0,-1,1980,519,0,0
763,505,0,0,0,0,0,0,0,0,0,-1,1987,519,0,0
770,505,0,0,0,0,0,0,0,0,0,-1,1994,519,0,0
777,505,0,0,0,0,0,0,0,0,0,-1,2001,519,0,0
784,505,0,0,0,0,0,0,0,0,0,-1,2008,519,0,0
791,505,0,0,0,0,0,0,0,0,0,-1,2015,519,0,0
798,505,0,0,0,0,0,0,0,0,0,-1,2022,519,0,0
805,505,0,0,0,0,0,0,0,0,0,-1,2029,519,0,0
812,505,0,0,0,0,0,0,0,0,0,-1,2036,519,0,0
-700,498,0,0,0,0,0,0,0,0,0,-1,524,526,0,0
-693,498,0,0,0,0,0,0,0,0,0,-1,531,526,0,0
-686,498,0,0,0,0,0,0,0,0,0,-1,538,526,0,0
-679,498,0,0,0,0,0,0,0,0,0,-1,545,526,0,0
-672,498,0,0,0,0,0,0,0,0,0,-1,552,526,0,0
-665,498,0,0,0,0,0,0,0,0,0,-1,559,526,0,0
-658,498,0,0,0,0,0,0,0,0,0,-1,566,526,0,0
-651,498,0,0,0,0,0,0,0,0,0,-1,573,526,0,0
-644,498,0,0,0,0,0,0,0,0,0,-1,580,526,0,0
-637,498,0,0,0,0,0,0,0,0,0,-1,587,526,0,0
-630,498,0,0,0,0,0,0,0,0,0,-1,594,526,0,0
-623,498,0,0,0,0,0,0,0,0,0,-1,601,526,0,0
-616,498,0,0,0,0,0,0,0,0,0,-1,608,526,0,0
-609,498,0,0,0,0,0,0,0,0,0,-1,615,526,0,0
-602,498,0,0,0,0,0,0,0,0,0,-1,622,526,0,0
-595,498,0,0,0,0,0,0,0,0,0,-1,629,526,0,0
-588,498,0,0,0,0,0,0,0,0,0,-1,636,526,0,0
-581,498,0,0,0,0,0,0,0,0,0,-1,643,526,0,0
-574,498,0,0,0,0,0,0,0,0,0,-1,650,526,0,0
-567,498,0,0,0,0,0,0,0,0,0,-1,657,526,0,0
-560,498,0,0,0,0,0,0,0,0,0,-1,664,526,0,0
-553,498,0,0,0,0,0,0,0,0,0,-1,671,526,0,0
-546,498,0,0,0,0,0,0,0,0,0,-1,678,526,0,0
-539,498,0,0,0,0,0,0,0,0,0,-1,685,526,0,0
-532,498,0,0,0,0,0,0,0,0,0,-1,692,526,0,0
-525,498,0,0,0,0,0,0,0,0,0,-1,699,526,0,0
-518,498,0,0,0,0,0,0,0,0,0,-1,706,526,0,0
-511,498,0,0,0,0,0,0,0,0,0,-1,713,526,0,0
-504,498,0,0,0,0,0,0,0,0,0,-1,720,526,0,0
-497,498,0,0,0,0,0,0,0,0,0,-1,727,526,0,0
-490,498,0,0,0,0,0,0,0,0,0,-1,734,526,0,0
-483,498,0,0,0,0,0,0,0,0,0,-1,741,526,0,0
-476,498,0,0,0,0,0,0,0,0,0,-1,748,526,0,0
-469,498,0,0,0,0,0,0,0,0,0,-1,755,526,0,0
-462,498,-0.642761,-3.18683,0,0,0,0,0,0,0,-1,762,526,-0.642769,3.18684
-455,498,-0.253662,-3.45422,0,0,0,0,0,0,0,-1,769,526,-0.253642,3.45424
-448,498,-0.143066,-3.96558,0,0,0,0,0,0,0,-1,776,526,-0.143058,3.9656
-441,498,-0.890503,-3.34076,0,0,0,0,0,0,0,-1,783,526,-0.890502,3.34074
-434,498,-0.921753,-3.71594,0,0,0,0,0,0,0,-1,790,526,-0.921745,3.71595
-427,498,-0.936523,-4.0929,0,0,0,0,0,0,0,-1,797,526,-0.936499,4.09287
-420,498,-0.986694,-4.66223,0,0,0,0,0,0,0,-1,804,526,-0.986695,4.6622
-413,498,-0.725647,-4.6358,0,0,0,0,0,0,0,-1,811,526,-0.725631,4.63582
-406,498,-0.695862,-4.94019,0.0189198,0.0113121,-0.00919272,0.0250646,0.00516735,-0.58923,0.0152813,0.0412063,818,526,-0.695859,4.94016
-399,498,-0.534668,-5.1203,0.0148614,0.00880806,-0.00713316,0.0195834,0.004086,-0.584756,0.0119292,0.0241138,825,526,-0.534658,5.12033
-392,498,-0.55072,-5.33252,0.0114872,0.00662989,-0.00546619,0.01504,0.00307712,-0.576343,0.00917461,0.0118558,832,526,-0.550738,5.33252
-385,498,-0.566223,-5.5448,0.00872215,0.00485296,-0.00409078,0.0113127,0.00226239,-0.564525,0.00691222,0.0083912,839,526,-0.566225,5.54479
-378,498,-0.563599,-5.74591,0.00647363,0.00339978,-0.00301878,0.00832421,0.00154921,-0.549939,0.00511193,0.01014,846,526,-0.563611,5.74589
-371,498,-0.561951,-5.95148,0.00477564,0.00200076,-0.00221516,0.00600199,0.000774405,-0.505617,0.0037698,0.0150026,853,526,-0.561967,5.95146
-364,498,-0.592896,-6.17908,0.00360884,0.00124425,-0.00175106,0.00453937,0.000313724,-0.488459,0.00292728,0.0144337,860,526,-0.592902,6.17905
-357,498,-0.58429,-6.38684,0.00267791,0.00054836,-0.00147888,0.00343544,-0.000209178,-0.473391,0.00236311,0.0101871,867,526,-0.584292,6.38686
-350,498,-0.579468,-6.59692,0.00216661,0.00018405,-0.00132407,0.00282936,-0.000478699,-0.464078,0.00206439,0.0103832,874,526,-0.57946,6.59691
-343,498,-0.586243,-6.80011,0.00217782,5.50252e-06,-0.001413,0.00287388,-0.000690559,-0.457721,0.00218282,0.0112719,881,526,-0.586225,6.80014
-336,498,-0.587463,-7.01666,0.00250204,-8.26924e-06,-0.00160635,0.00328546,-0.000791689,-0.45376,0.00249641,0.0143728,888,526,-0.587464,7.01663
-329,498,-0.585693,-7.19305,0.0030683,0.000182792,-0.00189411,0.00400655,-0.000755461,-0.459923,0.00295522,0.0184153,895,526,-0.585676,7.19305
-322,498,-0.59198,-7.40106,0.00361094,0.000364812,-0.00216832,0.00469637,-0.000720623,-0.464117,0.0033967,0.0177557,902,526,-0.591969,7.40107
-315,498,-0.585632,-7.61517,0.00400244,0.000309048,-0.0025231,0.00528246,-0.000970964,-0.469485,0.00388594,0.0158334,909,526,-0.585604,7.6152
-308,498,-0.569031,-7.81036,0.00454865,0.000471081,-0.00281723,0.00598743,-0.000967698,-0.472176,0.00435021,0.0181389,916,526,-0.56905,7.81035
-301,498,-0.47467,-8.11786,0.00494228,0.000340143,-0.00308875,0.00649287,-0.00121044,-0.465256,0.00478339,0.0303659,923,526,-0.474648,8.11786
-294,498,-0.581482,-8.16125,0,0,0,0,0,0,0,-1,930,526,-0.581503,8.16126
-287,498,-0.421082,-8.375,0,0,0,0,0,0,0,-1,937,526,-0.421107,8.37497
-280,498,-0.341614,-8.66608,0,0,0,0,0,0,0,-1,944,526,-0.341589,8.66606
-273,498,-0.988892,-8.62921,0,0,0,0,0,0,0,-1,951,526,-0.988906,8.62922
-266,498,0.362488,-6.33545,0,0,0,0,0,0,0,-1,958,526,0.362478,6.33547
-259,498,10.9454,-17.3615,0,0,0,0,0,0,0,-1,965,526,10.9454,17.3614
-252,498,8.56586,-14.6886,0,0,0,0,0,0,0,-1,972,526,8.56584,14.6886
-245,498,5.97382,-11.928,0,0,0,0,0,0,0,-1,979,526,5.97381,11.928
-238,498,3.31403,-9.40442,0,0,0,0,0,0,0,-1,986,526,3.31405,9.40443
-231,498,0.675598,-6.60547,0,0,0,0,0,0,0,-1,993,526,0.675587,6.60545
-224,498,-2.11243,-4.76312,0,0,0,0,0,0,0,-1,1000,526,-2.11245,4.76314
-217,498,-3.82239,-1.42841,0,0,0,0,0,0,0,-1,1007,526,-3.82241,1.42843
-210,498,-1.80591,-0.358215,0,0,0,0,0,0,0,-1,1014,526,-1.8059,0.3582
-203,498,-3.17316,1.06641,0,0,0,0,0,0,0,-1,1021,526,-3.17313,-1.0664
-196,498,-0.103271,5.40527,0,0,0,0,0,0,0,-1,1028,526,-0.103285,-5.40528
-189,498,3.00256,6.47137,0,0,0,0,0,0,0,-1,1035,526,3.00256,-6.47139
-182,498,0,0,0,0,0,0,0,0,0,-1,1042,526,0,0
-175,498,0,0,0,0,0,0,0,0,0,-1,1049,526,0,0
-168,498,0,0,0,0,0,0,0,0,0,-1,1056,526,0,0
-161,498,0,0,0,0,0,0,0,0,0,-1,1063,526,0,0
-154,498,0,0,0,0,0,0,0,0,0,-1,1070,526,0,0
-147,498,0,0,0,0,0,0,0,0,0,-1,1077,526,0,0
-140,498,0,0,0,0,0,0,0,0,0,-1,1084,526,0,0
-133,498,0,0,0,0,0,0,0,0,0,-1,1091,526,0,0
-126,498,0,0,0,0,0,0,0,0,0,-1,1098,526,0,0
-119,498,0,0,0,0,0,0,0,0,0,-1,1105,526,0,0
-112,498,0,0,0,0,0,0,0,0,0,-1,1112,526,0,0
-105,498,0,0,0,0,0,0,0,0,0,-1,1119,526,0,0
-98,498,0,0,0,0,0,0,0,0,0,-1,1126,526,0,0
-91,498,0,0,0,0,0,0,0,0,0,-1,1133,526,0,0
-84,498,0,0,0,0,0,0,0,0,0,-1,1140,526,0,0
-77,498,0,0,0,0,0,0,0,0,0,-1,1147,526,0,0
-70,498,0,0,0,0,0,0,0,0,0,-1,1154,526,0,0
-63,498,0,0,0,0,0,0,0,0,0,-1,1161,526,0,0
-56,498,0,0,0,0,0,0,0,0,0,-1,1168,526,0,0
-49,498,0,0,0,0,0,0,0,0,0,-1,1175,526,0,0
-42,498,0,0,0,0,0,0,0,0,0,-1,1182,526,0,0
-35,498,0,0,0,0,0,0,0,0,0,-1,1189,526,0,0
-28,498,0,0,0,0,0,0,0,0,0,-1,1196,526,0,0
-21,498,0,0,0,0,0,0,0,0,0,-1,1203,526,0,0
-14,498,0,0,0,0,0,0,0,0,0,-1,1210,526,0,0
-7,498,0,0,0,0,0,0,0,0,0,-1,1217,526,0,0
0,498,0,0,0,0,0,0,0,0,0,-1,1224,526,0,0
7,498,0,0,0,0,0,0,0,0,0,-1,1231,526,0,0
14,498,0,0,0,0,0,0,0,0,0,-1,1238,526,0,0
21,498,0,0,0,0,0,0,0,0,0,-1,1245,526,0,0
28,498,0,0,0,0,0,0,0,0,0,-1,1252,526,0,0
35,498,0,0,0,0,0,0,0,0,0,-1,1259,526,0,0
42,498,0,0,0,0,0,0,0,0,0,-1,1266,526,0,0
49,498,0,0,0,0,0,0,0,0,0,-1,1273,526,0,0
56,498,0,0,0,0,0,0,0,0,0,-1,1280,526,0,0
63,498,0,0,0,0,0,0,0,0,0,-1,1287,526,0,0
70,498,0,0,0,0,0,0,0,0,0,-1,1294,526,0,0
77,498,0,0,0,0,0,0,0,0,0,-1,1301,526,0,0
84,498,0,0,0,0,0,0,0,0,0,-1,1308,526,0,0
91,498,0,0,0,0,0,0,0,0,0,-1,1315,526,0,0
98,498,0,0,0,0,0,0,0,0,0,-1,1322,526,0,0
105,498,0,0,0,0,0,0,0,0,0,-1,1329,526,0,0
112,498,0,0,0,0,0,0,0,0,0,-1,1336,526,0,0
119,498,0,0,0,0,0,0,0,0,0,-1,1343,526,0,0
126,498,0,0,0,0,0,0,0,0,0,-1,1350,526,0,0
133,498,0,0,0,0,0,0,0,0,0,-1,1357,526,0,0
140,498,0,0,0,0,0,0,0,0,0,-1,1364,526,0,0
147,498,0,0,0,0,0,0,0,0,0,-1,1371,526,0,0
154,498,0,0,0,0,0,0,0,0,0,-1,1378,526,0,0
161,498,0,0,0,0,0,0,0,0,0,-1,1385,526,0,0
168,498,0,0,0,0,0,0,0,0,0,-1,1392,526,0,0
175,498,0,0,0,0,0,0,0,0,0,-1,1399,526,0,0
182,498,0,0,0,0,0,0,0,0,0,-1,1406,526,0,0
189,498,0,0,0,0,0,0,0,0,0,-1,1413,526,0,0
196,498,0,0,0,0,0,0,0,0,0,-1,1420,526,0,0
203,498,0,0,0,0,0,0,0,0,0,-1,1427,526,0,0
210,498,0,0,0,0,0,0,0,0,0,-1,1434,526,0,0
217,498,0,0,0,0,0,0,0,0,0,-1,1441,526,0,0
224,498,0,0,0,0,0,0,0,0,0,-1,1448,526,0,0
231,498,0,0,0,0,0,0,0,0,0,-1,1455,526,0,0
238,498,0,0,0,0,0,0,0,0,0,-1,1462,526,0,0
245,498,0,0,0,0,0,0,0,0,0,-1,1469,526,0,0
252,498,0,0,0,0,0,0,0,0,0,-1,1476,526,0,0
259,498,0,0,0,0,0,0,0,0,0,-1,1483,526,0,0
266,498,0,0,0,0,0,0,0,0,0,-1,1490,526,0,0
273,498,0,0,0,0,0,0,0,0,0,-1,1497,526,0,0
280,498,0,0,0,0,0,0,0,0,0,-1,1504,526,0,0
287,498,0,0,0,0,0,0,0,0,0,-1,1511,526,0,0
294,498,0,0,0,0,0,0,0,0,0,-1,1518,526,0,0
301,498,0,0,0,0,0,0,0,0,0,-1,1525,526,0,0
308,498,4.77942,-0.293884,0,0,0,0,0,0,0,-1,1532,526,4.77939,0.293899
315,498,4.56091,-0.564148,0,0,0,0,0,0,0,-1,1539,526,4.56097,0.564142
322,498,4.52344,-0.447266,0,0,0,0,0,0,0,-1,1546,526,4.52341,0.447295
329,498,4.63232,-0.156982,0,0,0,0,0,0,0,-1,1553,526,4.63238,0.156991
336,498,5.22644,0.0925903,0,0,0,0,0,0,0,-1,1560,526,5.22648,-0.0926188
343,498,6.22607,-1.67615,0,0,0,0,0,0,0,-1,1567,526,6.22605,1.67617
350,498,6.19373,-1.59906,0,0,0,0,0,0,0,-1,1574,526,6.19367,1.59906
357,498,6.21472,-1.58929,0,0,0,0,0,0,0,-1,1581,526,6.21476,1.58927
364,498,5.73547,-1.2019,0,0,0,0,0,0,0,-1,1588,526,5.73547,1.20192
371,498,3.27087,-4.55334,0,0,0,0,0,0,0,-1,1595,526,3.27089,4.55332
378,498,8.42944,-4.70624,0,0,0,0,0,0,0,-1,1602,526,8.42942,4.70624
385,498,4.7793,-5.15314,0,0,0,0,0,0,0,-1,1609,526,4.77935,5.15311
392,498,3.44421,-4.27454,0,0,0,0,0,0,0,-1,1616,526,3.44416,4.27456
399,498,7.71191,-6.33777,0,0,0,0,0,0,0,-1,1623,526,7.71196,6.33774
406,498,6.15283,-7.02161,0,0,0,0,0,0,0,-1,1630,526,6.15279,7.02158
413,498,6.97729,-7.21649,0,0,0,0,0,0,0,-1,1637,526,6.97727,7.21648
420,498,5.77966,-6.96521,0,0,0,0,0,0,0,-1,1644,526,5.77968,6.96523
427,498,5.6593,-6.71735,-0.00577839,-0.00517742,-0.0105942,0.00512054,-0.0160764,-0.799576,0.0127713,0.0390995,1651,526,5.65925,6.71733
434,498,5.68579,-6.52863,-0.00453503,-0.00291575,-0.00781986,0.00413628,-0.0115871,-0.836983,0.00941148,0.01895,1658,526,5.68584,6.52864
441,498,5.62329,-6.30707,-0.00347011,-0.00138671,-0.005665,0.00333157,-0.00818839,-0.876324,0.00684525,0.0102002,1665,526,5.62324,6.30706
448,498,5.63354,-6.09894,-0.00232713,4.68544e-05,-0.00380349,0.00284427,-0.00512454,-0.936649,0.00466316,0.0102252,1672,526,5.63351,6.09894
455,498,5.6438,-5.87354,-0.00145806,0.000693136,-0.00243813,0.00228238,-0.0030473,-0.993136,0.00308764,0.0137111,1679,526,5.64374,5.87352
462,498,5.63354,-5.66357,-0.000891951,0.000935263,-0.00135729,0.00165778,-0.00161447,-1.08162,0.00188929,0.0151383,1686,526,5.63355,5.66359
469,498,5.61243,-5.45905,-0.000218353,0.000741829,-0.000569171,0.00100635,-0.000482871,-1.13575,0.000877328,0.0131943,1693,526,5.61245,5.45905
476,498,5.61719,-5.22681,0.000303072,0.000436986,-0.000226314,0.00060604,0.000134018,-0.929225,0.00036759,0.00972023,1700,526,5.61713,5.22679
483,498,5.62512,-4.98895,0.0005783,5.37528e-05,1.46133e-05,0.000578707,5.33461e-05,0.0278302,0.000369309,0.00789431,1707,526,5.62512,4.98894
490,498,5.61646,-4.78046,0.000761532,-0.000504526,0.000188935,0.000789126,-0.000532119,0.145022,0.000767617,0.00971156,1714,526,5.61651,4.78045
497,498,5.63684,-4.5387,0.000751556,-0.00109756,0.000304518,0.000800414,-0.00114642,0.159088,0.00112991,0.0111877,1721,526,5.63687,4.53871
504,498,5.62195,-4.28711,0.000776469,-0.00139779,0.000553225,0.000909138,-0.00153046,0.235365,0.00142365,0.0134858,1728,526,5.62196,4.28712
511,498,5.58752,-4.04736,0.00103771,-0.00114161,0.00106332,0.00147055,-0.00157444,0.386581,0.00175837,0.0149698,1735,526,5.5875,4.04737
518,498,5.65515,-3.81219,0.00109813,-0.000952896,0.00144954,0.00184825,-0.00170301,0.477536,0.00205089,0.016493,1742,526,5.65518,3.81222
525,498,5.58936,-3.58722,0.00131194,-0.000309686,0.00202716,0.00268442,-0.00168217,0.595155,0.00254309,0.030382,1749,526,5.58941,3.58723
532,498,5.45557,-3.44653,0.00182649,0.00105254,0.00302231,0.0044865,-0.00160747,0.721725,0.00364689,0.0422897,1756,526,5.45562,3.44652
539,498,5.45642,-3.31366,0.00282549,0.00362237,0.00464825,0.00788922,-0.00144136,0.828153,0.00579994,0.0471229,1763,526,5.45645,3.31364
546,498,5.48926,-2.74445,0,0,0,0,0,0,0,-1,1770,526,5.48921,2.74442
553,498,5.65601,-2.03534,0,0,0,0,0,0,0,-1,1777,526,5.65599,2.03537
560,498,3.69385,-0.615112,0,0,0,0,0,0,0,-1,1784,526,3.69381,0.615118
567,498,5.12695,-0.581604,0,0,0,0,0,0,0,-1,1791,526,5.12699,0.58159
574,498,3.88,0.0286255,0,0,0,0,0,0,0,-1,1798,526,3.87999,-0.0286535
581,498,10.8722,2.58551,0,0,0,0,0,0,0,-1,1805,526,10.8723,-2.58551
588,498,0,0,0,0,0,0,0,0,0,-1,1812,526,0,0
595,498,0,0,0,0,0,0,0,0,0,-1,1819,526,0,0
602,498,0,0,0,0,0,0,0,0,0,-1,1826,526,0,0
609,498,0,0,0,0,0,0,0,0,0,-1,1833,526,0,0
616,498,0,0,0,0,0,0,0,0,0,-1,1840,526,0,0
623,498,0,0,0,0,0,0,0,0,0,-1,1847,526,0,0
630,498,0,0,0,0,0,0,0,0,0,-1,1854,526,0,0
637,498,0,0,0,0,0,0,0,0,0,-1,1861,526,0,0
644,498,0,0,0,0,0,0,0,0,0,-1,1868,526,0,0
651,498,0,0,0,0,0,0,0,0,0,-1,1875,526,0,0
658,498,0,0,0,0,0,0,0,0,0,-1,1882,526,0,0
665,498,0,0,0,0,0,0,0,0,0,-1,1889,526,0,0
672,498,0,0,0,0,0,0,0,0,0,-1,1896,526,0,0
679,498,0,0,0,0,0,0,0,0,0,-1,1903,526,0,0
686,498,0,0,0,0,0,0,0,0,0,-1,1910,526,0,0
693,498,0,0,0,0,0,0,0,0,0,-1,1917,526,0,0
700,498,0,0,0,0,0,0,0,0,0,-1,1924,526,0,0
707,498,0,0,0,0,0,0,0,0,0,-1,1931,526,0,0
714,498,0,0,0,0,0,0,0,0,0,-1,1938,526,0,0
721,498,0,0,0,0,0,0,0,0,0,-1,1945,526,0,0
728,498,0,0,0,0,0,0,0,0,0,-1,1952,526,0,0
735,498,0,0,0,0,0,0,0,0,0,-1,1959,526,0,0
742,498,0,0,0,0,0,0,0,0,0,-1,1966,526,0,0
749,498,0,0,0,0,0,0,0,0,0,-1,1973,526,0,0
756,498,0,0,0,0,0,0,0,0,0,-1,1980,526,0,0
763,498,0,0,0,0,0,0,0,0,0,-1,1987,526,0,0
770,498,0,0,0,0,0,0,0,0,0,-1,1994,526,0,0
777,498,0,0,0,0,0,0,0,0,0,-1,2001,526,0,0
784,498,0,0,0,0,0,0,0,0,0,-1,2008,526,0,0
791,498,0,0,0,0,0,0,0,0,0,-1,2015,526,0,0
798,498,0,0,0,0,0,0,0,0,0,-1,2022,526,0,0
805,498,0,0,0,0,0,0,0,0,0,-1,2029,526,0,0
812,498,0,0,0,0,0,0,0,0,0,-1,2036,526,0,0
-700,491,0,0,0,0,0,0,0,0,0,-1,524,533,0,0
-693,491,0,0,0,0,0,0,0,0,0,-1,531,533,0,0
-686,491,0,0,0,0,0,0,0,0,0,-1,538,533,0,0
-679,491,0,0,0,0,0,0,0,0,0,-1,545,533,0,0
-672,491,0,0,0,0,0,0,0,0,0,-1,552,533,0,0
-665,491,0,0,0,0,0,0,0,0,0,-1,559,533,0,0
-658,491,0,0,0,0,0,0,0,0,0,-1,566,533,0,0
-651,491,0,0,0,0,0,0,0,0,0,-1,573,533,0,0
-644,491,0,0,0,0,0,0,0,0,0,-1,580,533,0,0
-637,491,0,0,0,0,0,0,0,0,0,-1,587,533,0,0
-630,491,0,0,0,0,0,0,0,0,0,-1,594,533,0,0
-623,491,0,0,0,0,0,0,0,0,0,-1,601,533,0,0
-616,491,0,0,0,0,0,0,0,0,0,-1,608,533,0,0
-609,491,0,0,0,0,0,0,0,0,0,-1,615,533,0,0
-602,491,0,0,0,0,0,0,0,0,0,-1,622,533,0,0
-595,491,0,0,0,0,0,0,0,0,0,-1,629,533,0,0
-588,491,0,0,0,0,0,0,0,0,0,-1,636,533,0,0
-581,491,0,0,0,0,0,0,0,0,0,-1,643,533,0,0
-574,491,0,0,0,0,0,0,0,0,0,-1,650,533,0,0
-567,491,0,0,0,0,0,0,0,0,0,-1,657,533,0,0
-560,491,0,0,0,0,0,0,0,0,0,-1,664,533,0,0
-553,491,0,0,0,0,0,0,0,0,0,-1,671,533,0,0
-546,491,0,0,0,0,0,0,0,0,0,-1,678,533,0,0
-539,491,0,0,0,0,0,0,0,0,0,-1,685,533,0,0
-532,491,0,0,0,0,0,0,0,0,0,-1,692,533,0,0
-525,491,0,0,0,0,0,0,0,0,0,-1,699,533,0,0
-518,491,0,0,0,0,0,0,0,0,0,-1,706,533,0,0
-511,491,0,0,0,0,0,0,0,0,0,-1,713,533,0,0
-504,491,0,0,0,0,0,0,0,0,0,-1,720,533,0,0
-497,491,0,0,0,0,0,0,0,0,0,-1,727,533,0,0
-490,491,0,0,0,0,0,0,0,0,0,-1,734,533,0,0
-483,491,0,0,0,0,0,0,0,0,0,-1,741,533,0,0
-476,491,0,0,0,0,0,0,0,0,0,-1,748,533,0,0
-469,491,-5.85913,4.55011,0,0,0,0,0,0,0,-1,755,533,-5.8591,-4.55009
-462,491,-1.04462,-3.17084,0,0,0,0,0,0,0,-1,762,533,-1.04461,3.17086
-455,491,-0.613831,-3.42908,0,0,0,0,0,0,0,-1,769,533,-0.61381,3.42906
-448,491,-0.343445,-3.69183,0,0,0,0,0,0,0,-1,776,533,-0.343474,3.69183
-441,491,-0.341248,-4.26862,0,0,0,0,0,0,0,-1,783,533,-0.341247,4.2686
-434,491,-1.68018,-3.95538,0,0,0,0,0,0,0,-1,790,533,-1.68015,3.9554
-427,491,-0.939087,-3.0426,0,0,0,0,0,0,0,-1,797,533,-0.939116,3.04263
-420,491,-0.947021,-4.34442,0,0,0,0,0,0,0,-1,804,533,-0.947032,4.34444
-413,491,-0.824341,-4.64197,0.0165428,0.0114322,-0.00923963,0.023574,0.00440106,-0.65049,0.0144738,0.0419872,811,533,-0.824347,4.64194
-406,491,-0.745728,-4.91937,0.013647,0.0087716,-0.00724314,0.0188517,0.00356697,-0.623074,0.0115637,0.0216029,818,533,-0.745724,4.9194
-399,491,-0.762878,-5.11279,0.0109061,0.00678484,-0.00558943,0.0148026,0.0028883,-0.608795,0.00906044,0.0103826,825,533,-0.762906,5.11279
-392,491,-0.7854,-5.32648,0.00865266,0.00502059,-0.00427789,0.011484,0.00218922,-0.584668,0.00704066,0.00922364,832,533,-0.785407,5.32648
-385,491,-0.78241,-5.54016,0.00680439,0.00358473,-0.00321506,0.00879014,0.00159899,-0.553288,0.0054065,0.00864407,839,533,-0.782394,5.54015
-378,491,-0.769653,-5.74628,0.00525712,0.0024017,-0.00239213,0.00661521,0.00104361,-0.516353,0.00410671,0.0123279,846,533,-0.769641,5.74628
-371,491,-0.781494,-5.95288,0.00411822,0.00120757,-0.00180368,0.00498048,0.000345303,-0.445942,0.00321141,0.012775,853,533,-0.781473,5.95287
-364,491,-0.796936,-6.17242,0.00339993,0.000571906,-0.00150787,0.00405307,-8.12337e-05,-0.408756,0.00272953,0.0121866,860,533,-0.796957,6.1724
-357,491,-0.798096,-6.39252,0.00291684,7.68866e-06,-0.00140917,0.00348749,-0.000562963,-0.384772,0.00253358,0.0113566,867,533,-0.798121,6.39254
-350,491,-0.796692,-6.58875,0.00277011,-0.00027201,-0.00143387,0.00333941,-0.000841312,-0.377951,0.00255334,0.0135697,874,533,-0.796721,6.58873
-343,491,-0.768311,-6.76526,0.00303508,-0.000405812,-0.0016676,0.00371064,-0.00108137,-0.384901,0.00290217,0.0221676,881,533,-0.768323,6.76528
-336,491,-0.742249,-6.95831,0.00354312,-0.000380656,-0.00200666,0.00438759,-0.00122514,-0.39834,0.00340766,0.0227789,888,533,-0.742251,6.95832
-329,491,-0.791077,-7.22052,0.00425071,-0.000139797,-0.00239584,0.00530494,-0.00119403,-0.41453,0.00399458,0.0235064,895,533,-0.791089,7.22052
-322,491,-0.800354,-7.40686,0.00490636,9.18025e-05,-0.00276074,0.00616196,-0.0011638,-0.426843,0.00454584,0.0224155,902,533,-0.800371,7.40685
-315,491,-0.806091,-7.59308,0.00539932,1.70896e-05,-0.00325459,0.00693129,-0.00151488,-0.439943,0.00519991,0.0184957,909,533,-0.806093,7.5931
-308,491,-0.663513,-7.86572,0.00607974,0.000240077,-0.00370871,0.00788007,-0.00156025,-0.451927,0.00584332,0.0427856,916,533,-0.663523,7.86569
-301,491,-0.324341,-8.2265,0,0,0,0,0,0,0,-1,923,533,-0.32432,8.22649
-294,491,-0.898743,-8.55988,0,0,0,0,0,0,0,-1,930,533,-0.898721,8.5599
-287,491,-0.26123,-8.69055,0,0,0,0,0,0,0,-1,937,533,-0.261204,8.69053
-280,491,0.2948,-5.99219,0,0,0,0,0,0,0,-1,944,533,0.294811,5.99221
-273,491,0.369995,-5.33691,0,0,0,0,0,0,0,-1,951,533,0.369985,5.33693
-266,491,1.1167,-5.0321,0,0,0,0,0,0,0,-1,958,533,1.11668,5.0321
-259,491,12.0862,-16.9615,0,0,0,0,0,0,0,-1,965,533,12.0862,16.9615
-252,491,9.72443,-13.8417,0,0,0,0,0,0,0,-1,972,533,9.72444,13.8418
-245,491,7.36926,-10.7169,0,0,0,0,0,0,0,-1,979,533,7.36924,10.7169
-238,491,4.84167,-7.53986,0,0,0,0,0,0,0,-1,986,533,4.84169,7.53984
-231,491,2.15582,-5.05225,0,0,0,0,0,0,0,-1,993,533,2.1558,5.05223
-224,491,-0.429749,-3.09216,0,0,0,0,0,0,0,-1,1000,533,-0.429743,3.09215
-217,491,-2.92743,-1.0766,0,0,0,0,0,0,0,-1,1007,533,-2.92743,1.07659
-210,491,-0.92395,0.374512,0,0,0,0,0,0,0,-1,1014,533,-0.923959,-0.374531
-203,491,0.417419,4.77161,0,0,0,0,0,0,0,-1,1021,533,0.417446,-4.77162
-196,491,0,0,0,0,0,0,0,0,0,-1,1028,533,0,0
-189,491,0,0,0,0,0,0,0,0,0,-1,1035,533,0,0
-182,491,0,0,0,0,0,0,0,0,0,-1,1042,533,0,0
-175,491,0,0,0,0,0,0,0,0,0,-1,1049,533,0,0
-168,491,0,0,0,0,0,0,0,0,0,-1,1056,533,0,0
-161,491,0,0,0,0,0,0,0,0,0,-1,1063,533,0,0
-154,491,0,0,0,0,0,0,0,0,0,-1,1070,533,0,0
-147,491,0,0,0,0,0,0,0,0,0,-1,1077,533,0,0
-140,491,0,0,0,0,0,0,0,0,0,-1,1084,533,0,0
-133,491,0,0,0,0,0,0,0,0,0,-1,1091,533,0,0
-126,491,0,0,0,0,0,0,0,0,0,-1,1098,533,0,0
-119,491,0,0,0,0,0,0,0,0,0,-1,1105,533,0,0
-112,491,0,0,0,0,0,0,0,0,0,-1,1112,533,0,0
-105,491,0,0,0,0,0,0,0,0,0,-1,1119,533,0,0
-98,491,0,0,0,0,0,0,0,0,0,-1,1126,533,0,0
-91,491,0,0,0,0,0,0,0,0,0,-1,1133,533,0,0
-84,491,0,0,0,0,0,0,0,0,0,-1,1140,533,0,0
-77,491,0,0,0,0,0,0,0,0,0,-1,1147,533,0,0
-70,491,0,0,0,0,0,0,0,0,0,-1,1154,533,0,0
-63,491,0,0,0,0,0,0,0,0,0,-1,1161,533,0,0
-56,491,0,0,0,0,0,0,0,0,0,-1,1168,533,0,0
-49,491,0,0,0,0,0,0,0,0,0,-1,1175,533,0,0
-42,491,0,0,0,0,0,0,0,0,0,-1,1182,533,0,0
-35,491,0,0,0,0,0,0,0,0,0,-1,1189,533,0,0
-28,491,0,0,0,0,0,0,0,0,0,-1,1196,533,0,0
-21,491,0,0,0,0,0,0,0,0,0,-1,1203,533,0,0
-14,491,0,0,0,0,0,0,0,0,0,-1,1210,533,0,0
-7,491,0,0,0,0,0,0,0,0,0,-1,1217,533,0,0
0,491,0,0,0,0,0,0,0,0,0,-1,1224,533,0,0
7,491,0,0,0,0,0,0,0,0,0,-1,1231,533,0,0
14,491,0,0,0,0,0,0,0,0,0,-1,1238,533,0,0
21,491,0,0,0,0,0,0,0,0,0,-1,1245,533,0,0
28,491,0,0,0,0,0,0,0,0,0,-1,1252,533,0,0
35,491,0,0,0,0,0,0,0,0,0,-1,1259,533,0,0
42,491,0,0,0,0,0,0,0,0,0,-1,1266,533,0,0
49,491,0,0,0,0,0,0,0,0,0,-1,1273,533,0,0
56,491,0,0,0,0,0,0,0,0,0,-1,1280,533,0,0
63,491,0,0,0,0,0,0,0,0,0,-1,1287,533,0,0
70,491,0,0,0,0,0,0,0,0,0,-1,1294,533,0,0
77,491,0,0,0,0,0,0,0,0,0,-1,1301,533,0,0
84,491,0,0,0,0,0,0,0,0,0,-1,1308,533,0,0
91,491,0,0,0,0,0,0,0,0,0,-1,1315,533,0,0
98,491,0,0,0,0,0,0,0,0,0,-1,1322,533,0,0
105,491,0,0,0,0,0,0,0,0,0,-1,1329,533,0,0
112,491,0,0,0,0,0,0,0,0,0,-1,1336,533,0,0
119,491,0,0,0,0,0,0,0,0,0,-1,1343,533,0,0
126,491,0,0,0,0,0,0,0,0,0,-1,1350,533,0,0
133,491,0,0,0,0,0,0,0,0,0,-1,1357,533,0,0
140,491,0,0,0,0,0,0,0,0,0,-1,1364,533,0,0
147,491,0,0,0,0,0,0,0,0,0,-1,1371,533,0,0
154,491,0,0,0,0,0,0,0,0,0,-1,1378,533,0,0
161,491,0,0,0,0,0,0,0,0,0,-1,1385,533,0,0
168,491,0,0,0,0,0,0,0,0,0,-1,1392,533,0,0
175,491,0,0,0,0,0,0,0,0,0,-1,1399,533,0,0
182,491,0,0,0,0,0,0,0,0,0,-1,1406,533,0,0
189,491,0,0,0,0,0,0,0,0,0,-1,1413,533,0,0
196,491,0,0,0,0,0,0,0,0,0,-1,1420,533,0,0
203,491,0,0,0,0,0,0,0,0,0,-1,1427,533,0,0
210,491,0,0,0,0,0,0,0,0,0,-1,1434,533,0,0
217,491,0,0,0,0,0,0,0,0,0,-1,1441,533,0,0
224,491,0,0,0,0,0,0,0,0,0,-1,1448,533,0,0
231,491,0,0,0,0,0,0,0,0,0,-1,1455,533,0,0
238,491,0,0,0,0,0,0,0,0,0,-1,1462,533,0,0
245,491,0,0,0,0,0,0,0,0,0,-1,1469,533,0,0
252,491,0,0,0,0,0,0,0,0,0,-1,1476,533,0,0
259,491,0,0,0,0,0,0,0,0,0,-1,1483,533,0,0
266,491,0,0,0,0,0,0,0,0,0,-1,1490,533,0,0
273,491,0,0,0,0,0,0,0,0,0,-1,1497,533,0,0
280,491,0,0,0,0,0,0,0,0,0,-1,1504,533,0,0
287,491,0,0,0,0,0,0,0,0,0,-1,1511,533,0,0
294,491,0,0,0,0,0,0,0,0,0,-1,1518,533,0,0
301,491,0,0,0,0,0,0,0,0,0,-1,1525,533,0,0
308,491,0,0,0,0,0,0,0,0,0,-1,1532,533,0,0
315,491,0,0,0,0,0,0,0,0,0,-1,1539,533,0,0
322,491,4.26331,-0.734314,0,0,0,0,0,0,0,-1,1546,533,4.26326,0.734324
329,491,4.25354,-0.783752,0,0,0,0,0,0,0,-1,1553,533,4.25359,0.783734
336,491,4.81604,-0.722107,0,0,0,0,0,0,0,-1,1560,533,4.81605,0.722115
343,491,6.14478,-1.44281,0,0,0,0,0,0,0,-1,1567,533,6.14474,1.44281
350,491,6.36353,-1.30792,0,0,0,0,0,0,0,-1,1574,533,6.36352,1.3079
357,491,6.69482,-1.06018,0,0,0,0,0,0,0,-1,1581,533,6.69489,1.06018
364,491,8.01086,-1.69604,0,0,0,0,0,0,0,-1,1588,533,8.01087,1.69607
371,491,8.2135,-0.539307,0,0,0,0,0,0,0,-1,1595,533,8.21348,0.53929
378,491,13.3589,2.17267,0,0,0,0,0,0,0,-1,1602,533,13.3589,-2.17264
385,491,8.08228,-4.95471,0,0,0,0,0,0,0,-1,1609,533,8.08227,4.95474
392,491,2.88721,-4.30988,0,0,0,0,0,0,0,-1,1616,533,2.88716,4.30986
399,491,7.08691,-4.86603,0,0,0,0,0,0,0,-1,1623,533,7.08696,4.86606
406,491,7.58154,-6.24127,0,0,0,0,0,0,0,-1,1630,533,7.5816,6.24126
413,491,5.31848,-3.7124,0,0,0,0,0,0,0,-1,1637,533,5.31849,3.7124
420,491,4.86389,-3.95892,0,0,0,0,0,0,0,-1,1644,533,4.86387,3.95893
427,491,6.03821,-6.56281,0,0,0,0,0,0,0,-1,1651,533,6.03825,6.56283
434,491,6.02759,-6.47656,-0.005754,-0.0031014,-0.00942292,0.0050881,-0.0139435,-0.855315,0.0113775,0.0398287,1658,533,6.02755,6.47655
441,491,5.85986,-6.32416,-0.00440047,-0.00121419,-0.00676692,0.0041446,-0.00975926,-0.901008,0.00824268,0.0229787,1665,533,5.85982,6.32418
448,491,5.85901,-6.08783,-0.00302191,0.000477607,-0.0045663,0.00361791,-0.00616222,-0.968364,0.0057099,0.0129133,1672,533,5.85904,6.08785
455,491,5.87134,-5.8858,-0.00195752,0.00122627,-0.00296528,0.00299994,-0.00373119,-1.03174,0.00389386,0.0112494,1679,533,5.87138,5.88581
462,491,5.88293,-5.67883,-0.00125221,0.00156046,-0.00171074,0.00236871,-0.00206046,-1.12942,0.00255925,0.0135088,1686,533,5.88287,5.67886
469,491,5.85645,-5.44092,-0.000441312,0.0013976,-0.000818894,0.0017094,-0.00075311,-1.20699,0.00145703,0.0134685,1693,533,5.85643,5.44092
476,491,5.8562,-5.21143,0.00017968,0.00110807,-0.000409087,0.0012626,2.51428e-05,-1.20961,0.000833481,0.0102348,1700,533,5.85616,5.21141
483,491,5.85632,-4.98187,0.000493987,0.000766363,-0.000122916,0.000813629,0.000446721,-1.20369,0.000470502,0.011583,1707,533,5.85634,4.98189
490,491,5.84424,-4.77002,0.000729451,0.000268339,8.86585e-05,0.00074591,0.00025188,0.183555,0.00043815,0.0104591,1714,533,5.8442,4.77002
497,491,5.84973,-4.54626,0.000741662,-0.000287909,0.000186646,0.000774454,-0.0003207,0.173914,0.000650127,0.01134,1721,533,5.8497,4.54625
504,491,5.85339,-4.30963,0.000743845,-0.000563131,0.000382617,0.000847616,-0.000666903,0.264845,0.00087648,0.0130066,1728,533,5.85341,4.30961
511,491,5.8241,-4.03986,0.000962707,-0.000316476,0.000840188,0.00137905,-0.000732817,0.460068,0.00123817,0.0120587,1735,533,5.82406,4.03986
518,491,5.83936,-3.80737,0.000975903,-0.000136113,0.00113643,0.00168505,-0.000845263,0.55789,0.00148746,0.0089223,1742,533,5.83931,3.80738
525,491,5.87048,-3.56885,0.00111407,0.000463492,0.00157762,0.00239959,-0.000822031,0.683729,0.00193291,0.00886035,1749,533,5.87043,3.56884
532,491,5.87256,-3.35193,0.00149615,0.00170324,0.00236796,0.00396992,-0.000770531,0.807248,0.00293734,0.0173447,1756,533,5.8725,3.35194
539,491,5.80847,-3.21344,0.00225584,0.00381395,0.00363499,0.00675243,-0.000682637,0.890962,0.00474556,0.0249712,1763,533,5.80846,3.21345
546,491,5.70801,-2.8186,0.00343799,0.00678861,0.00536113,0.0107301,-0.000503497,0.936837,0.007327,0.034471,1770,533,5.70797,2.81859
553,491,5.71448,-2.177,0.00516708,0.0108065,0.00763516,0.016126,-0.000152415,0.962282,0.0108018,0.0444559,1777,533,5.71443,2.17698
560,491,5.54968,-1.64923,0,0,0,0,0,0,0,-1,1784,533,5.54966,1.64922
567,491,5.67651,-1.3562,0,0,0,0,0,0,0,-1,1791,533,5.67649,1.3562
574,491,8.0719,1.58325,0,0,0,0,0,0,0,-1,1798,533,8.07195,-1.58326
581,491,9.44812,1.60931,0,0,0,0,0,0,0,-1,1805,533,9.44808,-1.60933
588,491,11.0497,1.54962,0,0,0,0,0,0,0,-1,1812,533,11.0496,-1.54963
595,491,0,0,0,0,0,0,0,0,0,-1,1819,533,0,0
602,491,0,0,0,0,0,0,0,0,0,-1,1826,533,0,0
609,491,0,0,0,0,0,0,0,0,0,-1,1833,533,0,0
616,491,0,0,0,0,0,0,0,0,0,-1,1840,533,0,0
623,491,0,0,0,0,0,0,0,0,0,-1,1847,533,0,0
630,491,0,0,0,0,0,0,0,0,0,-1,1854,533,0,0
637,491,0,0,0,0,0,0,0,0,0,-1,1861,533,0,0
644,491,0,0,0,0,0,0,0,0,0,-1,1868,533,0,0
651,491,0,0,0,0,0,0,0,0,0,-1,1875,533,0,0
658,491,0,0,0,0,0,0,0,0,0,-1,1882,533,0,0
665,491,0,0,0,0,0,0,0,0,0,-1,1889,533,0,0
672,491,0,0,0,0,0,0,0,0,0,-1,1896,533,0,0
679,491,0,0,0,0,0,0,0,0,0,-1,1903,533,0,0
686,491,0,0,0,0,0,0,0,0,0,-1,1910,533,0,0
693,491,0,0,0,0,0,0,0,0,0,-1,1917,533,0,0
700,491,0,0,0,0,0,0,0,0,0,-1,1924,533,0,0
707,491,0,0,0,0,0,0,0,0,0,-1,1931,533,0,0
714,491,0,0,0,0,0,0,0,0,0,-1,1938,533,0,0
721,491,0,0,0,0,0,0,0,0,0,-1,1945,533,0,0
728,491,0,0,0,0,0,0,0,0,0,-1,1952,533,0,0
735,491,0,0,0,0,0,0,0,0,0,-1,1959,533,0,0
742,491,0,0,0,0,0,0,0,0,0,-1,1966,533,0,0
749,491,0,0,0,0,0,0,0,0,0,-1,1973,533,0,0
756,491,0,0,0,0,0,0,0,0,0,-1,1980,533,0,0
763,491,0,0,0,0,0,0,0,0,0,-1,1987,533,0,0
770,491,0,0,0,0,0,0,0,0,0,-1,1994,533,0,0
777,491,0,0,0,0,0,0,0,0,0,-1,2001,533,0,0
784,491,0,0,0,0,0,0,0,0,0,-1,2008,533,0,0
791,491,0,0,0,0,0,0,0,0,0,-1,2015,533,0,0
798,491,0,0,0,0,0,0,0,0,0,-1,2022,533,0,0
805,491,0,0,0,0,0,0,0,0,0,-1,2029,533,0,0
812,491,0,0,0,0,0,0,0,0,0,-1,2036,533,0,0
-700,484,0,0,0,0,0,0,0,0,0,-1,524,540,0,0
-693,484,0,0,0,0,0,0,0,0,0,-1,531,540,0,0
-686,484,0,0,0,0,0,0,0,0,0,-1,538,540,0,0
-679,484,0,0,0,0,0,0,0,0,0,-1,545,540,0,0
-672,484,0,0,0,0,0,0,0,0,0,-1,552,540,0,0
-665,484,0,0,0,0,0,0,0,0,0,-1,559,540,0,0
-658,484,0,0,0,0,0,0,0,0,0,-1,566,540,0,0
-651,484,0,0,0,0,0,0,0,0,0,-1,573,540,0,0
-644,484,0,0,0,0,0,0,0,0,0,-1,580,540,0,0
-637,484,0,0,0,0,0,0,0,0,0,-1,587,540,0,0
-630,484,0,0,0,0,0,0,0,0,0,-1,594,540,0,0
-623,484,0,0,0,0,0,0,0,0,0,-1,601,540,0,0
-616,484,0,0,0,0,0,0,0,0,0,-1,608,540,0,0
-609,484,0,0,0,0,0,0,0,0,0,-1,615,540,0,0
-602,484,0,0,0,0,0,0,0,0,0,-1,622,540,0,0
-595,484,0,0,0,0,0,0,0,0,0,-1,629,540,0,0
-588,484,0,0,0,0,0,0,0,0,0,-1,636,540,0,0
-581,484,0,0,0,0,0,0,0,0,0,-1,643,540,0,0
-574,484,0,0,0,0,0,0,0,0,0,-1,650,540,0,0
-567,484,0,0,0,0,0,0,0,0,0,-1,657,540,0,0
-560,484,0,0,0,0,0,0,0,0,0,-1,664,540,0,0
-553,484,0,0,0,0,0,0,0,0,0,-1,671,540,0,0
-546,484,0,0,0,0,0,0,0,0,0,-1,678,540,0,0
-539,484,0,0,0,0,0,0,0,0,0,-1,685,540,0,0
-532,484,0,0,0,0,0,0,0,0,0,-1,692,540,0,0
-525,484,0,0,0,0,0,0,0,0,0,-1,699,540,0,0
-518,484,0,0,0,0,0,0,0,0,0,-1,706,540,0,0
-511,484,0,0,0,0,0,0,0,0,0,-1,713,540,0,0
-504,484,0,0,0,0,0,0,0,0,0,-1,720,540,0,0
-497,484,0,0,0,0,0,0,0,0,0,-1,727,540,0,0
-490,484,0,0,0,0,0,0,0,0,0,-1,734,540,0,0
-483,484,0,0,0,0,0,0,0,0,0,-1,741,540,0,0
-476,484,-7.44257,1.59998,0,0,0,0,0,0,0,-1,748,540,-7.44258,-1.59999
-469,484,-6.87036,1.17047,0,0,0,0,0,0,0,-1,755,540,-6.87037,-1.17045
-462,484,-6.34863,1.11737,0,0,0,0,0,0,0,-1,762,540,-6.34864,-1.11739
-455,484,-5.68115,0.5354,0,0,0,0,0,0,0,-1,769,540,-5.68116,-0.535397
-448,484,-0.487793,-3.3941,0,0,0,0,0,0,0,-1,776,540,-0.48777,3.39409
-441,484,-0.456116,-4.11584,0,0,0,0,0,0,0,-1,783,540,-0.456113,4.11587
-434,484,-1.47559,-3.67792,0,0,0,0,0,0,0,-1,790,540,-1.4756,3.6779
-427,484,-0.999817,-3.60229,0.0163674,0.0153661,-0.0117493,0.0276267,0.00410682,-0.764105,0.017213,0.0462771,797,540,-0.999793,3.60232
-420,484,-0.912109,-4.44275,0.0135464,0.0114608,-0.00916391,0.0217267,0.00328057,-0.728746,0.0135242,0.0347877,804,540,-0.912098,4.44275
-413,484,-0.935669,-4.63922,0.0114607,0.00890319,-0.00722534,0.0175195,0.0028443,-0.697815,0.0108565,0.0204807,811,540,-0.935661,4.63922
-406,484,-0.929382,-4.88507,0.00960287,0.00677745,-0.00562166,0.0139866,0.00239371,-0.662298,0.00863778,0.0130695,818,540,-0.929411,4.88506
-399,484,-0.958191,-5.11749,0.00784946,0.00515354,-0.00429062,0.0109989,0.00200412,-0.633198,0.00676424,0.0156891,825,540,-0.958176,5.11748
-392,484,-0.973145,-5.29816,0.00641676,0.00365058,-0.00323682,0.00855361,0.00151373,-0.58349,0.00527079,0.0175636,832,540,-0.973154,5.29816
-385,484,-0.988831,-5.52057,0.00525941,0.00243216,-0.00240104,0.00663206,0.00105951,-0.519342,0.00411393,0.0119537,839,540,-0.988824,5.5206
-378,484,-0.986206,-5.74622,0.00426624,0.00141088,-0.00175679,0.00510231,0.000574809,-0.444191,0.00322705,0.0122505,846,540,-0.98619,5.74623
-371,484,-1.00116,-5.93787,0.00358749,0.00034617,-0.0013261,0.00406089,-0.000127225,-0.342883,0.00275065,0.0135812,853,540,-1.00113,5.93788
-364,484,-0.999146,-6.14709,0.00325504,-0.00025158,-0.00115191,0.00359958,-0.000596124,-0.290637,0.00262112,0.0108774,860,540,-0.999142,6.14707
-357,484,-0.998291,-6.38977,0.003181,-0.000757416,-0.00119309,0.00351424,-0.00109065,-0.272364,0.00277867,0.0125061,867,540,-0.998284,6.38978
-350,484,-0.997253,-6.58032,0.00339535,-0.00101401,-0.00138403,0.00379378,-0.00141243,-0.280294,0.00310885,0.0136841,874,540,-0.99727,6.58035
-343,484,-0.963562,-6.75159,0.00393538,-0.00114334,-0.00176866,0.00449062,-0.00169858,-0.304186,0.00369254,0.0211979,881,540,-0.963546,6.75158
-336,484,-0.930115,-6.9624,0.00465855,-0.00110584,-0.00227935,0.00545093,-0.00189822,-0.334564,0.00440519,0.0244574,888,540,-0.930107,6.9624
-329,484,-0.931396,-7.1778,0.00555322,-0.000827774,-0.00282143,0.0066218,-0.00189635,-0.362043,0.00516405,0.0299143,895,540,-0.931406,7.1778
-322,484,-0.870117,-7.4751,0.00639494,-0.000531067,-0.0033421,0.00774463,-0.00188076,-0.383817,0.00589095,0.0371078,902,540,-0.870132,7.47513
-315,484,-0.802917,-7.7262,0,0,0,0,0,0,0,-1,909,540,-0.802923,7.72622
-308,484,-0.517395,-7.86279,0,0,0,0,0,0,0,-1,916,540,-0.517381,7.8628
-301,484,-1.33453,-6.52667,0,0,0,0,0,0,0,-1,923,540,-1.33454,6.5267
-294,484,-1.61224,-8.17059,0,0,0,0,0,0,0,-1,930,540,-1.61227,8.17058
-287,484,-0.715759,-5.62103,0,0,0,0,0,0,0,-1,937,540,-0.715772,5.62105
-280,484,2.66742,-1.6795,0,0,0,0,0,0,0,-1,944,540,2.6674,1.67949
-273,484,2.53125,-2.22296,0,0,0,0,0,0,0,-1,951,540,2.53128,2.22295
-266,484,2.6778,-2.72058,0,0,0,0,0,0,0,-1,958,540,2.6778,2.72061
-259,484,2.41718,-2.59894,0,0,0,0,0,0,0,-1,965,540,2.41717,2.59892
-252,484,10.6069,-11.696,0,0,0,0,0,0,0,-1,972,540,10.6069,11.696
-245,484,8.0415,-9.22931,0,0,0,0,0,0,0,-1,979,540,8.0415,9.2293
-238,484,5.56836,-6.82672,0,0,0,0,0,0,0,-1,986,540,5.56834,6.82672
-231,484,3.39185,-3.8576,0,0,0,0,0,0,0,-1,993,540,3.39183,3.85763
-224,484,1.14313,-1.21228,0,0,0,0,0,0,0,-1,1000,540,1.14312,1.21226
-217,484,-0.745056,1.17358,0,0,0,0,0,0,0,-1,1007,540,-0.745043,-1.17359
-210,484,0,0,0,0,0,0,0,0,0,-1,1014,540,0,0
-203,484,0,0,0,0,0,0,0,0,0,-1,1021,540,0,0
-196,484,0,0,0,0,0,0,0,0,0,-1,1028,540,0,0
-189,484,0,0,0,0,0,0,0,0,0,-1,1035,540,0,0
-182,484,0,0,0,0,0,0,0,0,0,-1,1042,540,0,0
-175,484,0,0,0,0,0,0,0,0,0,-1,1049,540,0,0
-168,484,0,0,0,0,0,0,0,0,0,-1,1056,540,0,0
-161,484,0,0,0,0,0,0,0,0,0,-1,1063,540,0,0
-154,484,0,0,0,0,0,0,0,0,0,-1,1070,540,0,0
-147,484,0,0,0,0,0,0,0,0,0,-1,1077,540,0,0
-140,484,0,0,0,0,0,0,0,0,0,-1,1084,540,0,0
-133,484,0,0,0,0,0,0,0,0,0,-1,1091,540,0,0
-126,484,0,0,0,0,0,0,0,0,0,-1,1098,540,0,0
-119,484,0,0,0,0,0,0,0,0,0,-1,1105,540,0,0
-112,484,0,0,0,0,0,0,0,0,0,-1,1112,540,0,0
-105,484,0,0,0,0,0,0,0,0,0,-1,1119,540,0,0
-98,484,0,0,0,0,0,0,0,0,0,-1,1126,540,0,0
-91,484,0,0,0,0,0,0,0,0,0,-1,1133,540,0,0
-84,484,0,0,0,0,0,0,0,0,0,-1,1140,540,0,0
-77,484,0,0,0,0,0,0,0,0,0,-1,1147,540,0,0
-70,484,0,0,0,0,0,0,0,0,0,-1,1154,540,0,0
-63,484,0,0,0,0,0,0,0,0,0,-1,1161,540,0,0
-56,484,0,0,0,0,0,0,0,0,0,-1,1168,540,0,0
-49,484,0,0,0,0,0,0,0,0,0,-1,1175,540,0,0
-42,484,0,0,0,0,0,0,0,0,0,-1,1182,540,0,0
-35,484,0,0,0,0,0,0,0,0,0,-1,1189,540,0,0
-28,484,0,0,0,0,0,0,0,0,0,-1,1196,540,0,0
-21,484,0,0,0,0,0,0,0,0,0,-1,1203,540,0,0
-14,484,0,0,0,0,0,0,0,0,0,-1,1210,540,0,0
-7,484,0,0,0,0,0,0,0,0,0,-1,1217,540,0,0
0,484,0,0,0,0,0,0,0,0,0,-1,1224,540,0,0
7,484,0,0,0,0,0,0,0,0,0,-1,1231,540,0,0
14,484,0,0,0,0,0,0,0,0,0,-1,1238,540,0,0
21,484,0,0,0,0,0,0,0,0,0,-1,1245,540,0,0
28,484,0,0,0,0,0,0,0,0,0,-1,1252,540,0,0
35,484,0,0,0,0,0,0,0,0,0,-1,1259,540,0,0
42,484,0,0,0,0,0,0,0,0,0,-1,1266,540,0,0
49,484,0,0,0,0,0,0,0,0,0,-1,1273,540,0,0
56,484,0,0,0,0,0,0,0,0,0,-1,1280,540,0,0
63,484,0,0,0,0,0,0,0,0,0,-1,1287,540,0,0
70,484,0,0,0,0,0,0,0,0,0,-1,1294,540,0,0
77,484,0,0,0,0,0,0,0,0,0,-1,1301,540,0,0
84,484,0,0,0,0,0,0,0,0,0,-1,1308,540,0,0
91,484,0,0,0,0,0,0,0,0,0,-1,1315,540,0,0
98,484,0,0,0,0,0,0,0,0,0,-1,1322,540,0,0
105,484,0,0,0,0,0,0,0,0,0,-1,1329,540,0,0
112,484,0,0,0,0,0,0,0,0,0,-1,1336,540,0,0
119,484,0,0,0,0,0,0,0,0,0,-1,1343,540,0,0
126,484,0,0,0,0,0,0,0,0,0,-1,1350,540,0,0
133,484,0,0,0,0,0,0,0,0,0,-1,1357,540,0,0
140,484,0,0,0,0,0,0,0,0,0,-1,1364,540,0,0
147,484,0,0,0,0,0,0,0,0,0,-1,1371,540,0,0
154,484,0,0,0,0,0,0,0,0,0,-1,1378,540,0,0
161,484,0,0,0,0,0,0,0,0,0,-1,1385,540,0,0
168,484,0,0,0,0,0,0,0,0,0,-1,1392,540,0,0
175,484,0,0,0,0,0,0,0,0,0,-1,1399,540,0,0
182,484,0,0,0,0,0,0,0,0,0,-1,1406,540,0,0
189,484,0,0,0,0,0,0,0,0,0,-1,1413,540,0,0
196,484,0,0,0,0,0,0,0,0,0,-1,1420,540,0,0
203,484,0,0,0,0,0,0,0,0,0,-1,1427,540,0,0
210,484,0,0,0,0,0,0,0,0,0,-1,1434,540,0,0
217,484,0,0,0,0,0,0,0,0,0,-1,1441,540,0,0
224,484,0,0,0,0,0,0,0,0,0,-1,1448,540,0,0
231,484,0,0,0,0,0,0,0,0,0,-1,1455,540,0,0
238,484,0,0,0,0,0,0,0,0,0,-1,1462,540,0,0
245,484,0,0,0,0,0,0,0,0,0,-1,1469,540,0,0
252,484,0,0,0,0,0,0,0,0,0,-1,1476,540,0,0
259,484,0,0,0,0,0,0,0,0,0,-1,1483,540,0,0
266,484,0,0,0,0,0,0,0,0,0,-1,1490,540,0,0
273,484,0,0,0,0,0,0,0,0,0,-1,1497,540,0,0
280,484,0,0,0,0,0,0,0,0,0,-1,1504,540,0,0
287,484,0,0,0,0,0,0,0,0,0,-1,1511,540,0,0
294,484,0,0,0,0,0,0,0,0,0,-1,1518,540,0,0
301,484,0,0,0,0,0,0,0,0,0,-1,1525,540,0,0
308,484,0,0,0,0,0,0,0,0,0,-1,1532,540,0,0
315,484,0,0,0,0,0,0,0,0,0,-1,1539,540,0,0
322,484,0,0,0,0,0,0,0,0,0,-1,1546,540,0,0
329,484,0,0,0,0,0,0,0,0,0,-1,1553,540,0,0
336,484,4.38708,-1.64136,0,0,0,0,0,0,0,-1,1560,540,4.38704,1.64138
343,484,7.57996,-1.05457,0,0,0,0,0,0,0,-1,1567,540,7.57995,1.05454
350,484,8.10425,-1.18878,0,0,0,0,0,0,0,-1,1574,540,8.1043,1.18877
357,484,7.74902,-3.80286,0,0,0,0,0,0,0,-1,1581,540,7.74901,3.80287
364,484,6.31262,-3.87213,0,0,0,0,0,0,0,-1,1588,540,6.31263,3.87215
371,484,7.21008,0.973511,0,0,0,0,0,0,0,-1,1595,540,7.21014,-0.973541
378,484,11.0563,1.5014,0,0,0,0,0,0,0,-1,1602,540,11.0563,-1.5014
385,484,14.3469,2.5545,0,0,0,0,0,0,0,-1,1609,540,14.3469,-2.55453
392,484,7.39453,-4.95026,0,0,0,0,0,0,0,-1,1616,540,7.39448,4.95023
399,484,7.14417,-2.5639,0,0,0,0,0,0,0,-1,1623,540,7.14417,2.56391
406,484,7.88953,-2.47321,0,0,0,0,0,0,0,-1,1630,540,7.88954,2.47323
413,484,4.4895,-1.08673,0,0,0,0,0,0,0,-1,1637,540,4.48952,1.08674
420,484,4.50012,-2.11255,0,0,0,0,0,0,0,-1,1644,540,4.50012,2.11256
427,484,5.28601,-3.54053,0,0,0,0,0,0,0,-1,1651,540,5.28599,3.54051
434,484,6.45361,-6.3985,0,0,0,0,0,0,0,-1,1658,540,6.45358,6.39849
441,484,6.05212,-6.18286,0,0,0,0,0,0,0,-1,1665,540,6.05206,6.18283
448,484,6.06848,-6.05664,-0.00375885,0.00106174,-0.00536948,0.00453709,-0.0072342,-0.996363,0.00685537,0.0393434,1672,540,6.06842,6.05663
455,484,6.07275,-5.89191,-0.00243425,0.00191347,-0.00347966,0.00384249,-0.00436328,-1.0646,0.00474079,0.0190666,1679,540,6.0727,5.8919
462,484,6.09973,-5.66742,-0.00144322,0.00226029,-0.0020031,0.00313643,-0.00231935,-1.15848,0.00316165,0.01316,1686,540,6.09968,5.6674
469,484,6.09827,-5.4295,-0.000424959,0.00211231,-0.000984051,0.00244923,-0.000761875,-1.24093,0.00193737,0.0150747,1693,540,6.09825,5.42951
476,484,6.10352,-5.18805,0.000327346,0.00182347,-0.000463396,0.00195537,0.000195446,-1.29349,0.00124356,0.0155636,1700,540,6.10357,5.18802
483,484,6.09595,-4.98517,0.000705845,0.00150061,-9.9786e-05,0.00151295,0.000693507,-1.44779,0.000874508,0.0124719,1707,540,6.09595,4.98519
490,484,6.0708,-4.78638,0.00100884,0.00104086,0.000170566,0.00119616,0.000853532,0.832189,0.000711293,0.0124323,1714,540,6.07086,4.78639
497,484,6.06348,-4.56653,0.00104519,0.000483793,0.000261496,0.00114812,0.000380862,0.374997,0.000675267,0.0134467,1721,540,6.06345,4.56655
504,484,6.0791,-4.31799,0.000999954,0.000169984,0.000400791,0.0011619,8.04086e-06,0.384001,0.000771932,0.0159378,1728,540,6.07905,4.318
511,484,6.09241,-4.04346,0.00112818,0.000315901,0.00078957,0.00160994,-0.000165862,0.547856,0.00113264,0.0179099,1735,540,6.09241,4.04343
518,484,6.09961,-3.81281,0.00105171,0.000431927,0.00100138,0.00179005,-0.000306412,0.635339,0.00130753,0.0143694,1742,540,6.09961,3.81281
525,484,6.11157,-3.58752,0.00105515,0.000926096,0.00131146,0.00230367,-0.000322424,0.760817,0.00165376,0.012034,1749,540,6.11153,3.5875
532,484,6.11633,-3.35754,0.00124517,0.0019573,0.00190557,0.00353979,-0.000337318,0.87776,0.00247996,0.0143996,1756,540,6.11636,3.35752
539,484,6.0946,-3.10297,0.00172164,0.00359293,0.00284887,0.00565587,-0.000341295,0.944062,0.00388934,0.0206913,1763,540,6.0946,3.10295
546,484,6.01501,-2.90045,0.00251263,0.00589757,0.00413985,0.00867756,-0.000267349,0.979443,0.00587618,0.021718,1770,540,6.015,2.90044
553,484,5.90857,-2.44824,0.00366523,0.00881643,0.00573245,0.0125253,-4.36543e-05,0.996535,0.0083648,0.0341126,1777,540,5.9086,2.44826
560,484,6.3999,-1.62549,0.00530467,0.0124136,0.00774962,0.017385,0.000333238,1.00041,0.0114805,0.0464809,1784,540,6.39992,1.6255
567,484,6.75366,-0.96167,0,0,0,0,0,0,0,-1,1791,540,6.75362,0.96169
574,484,5.74463,1.50922,0,0,0,0,0,0,0,-1,1798,540,5.74463,-1.50924
581,484,10.34,2.9491,0,0,0,0,0,0,0,-1,1805,540,10.34,-2.94912
588,484,10.6669,2.88568,0,0,0,0,0,0,0,-1,1812,540,10.6669,-2.88567
595,484,10.7233,1.04767,0,0,0,0,0,0,0,-1,1819,540,10.7233,-1.04766
602,484,0,0,0,0,0,0,0,0,0,-1,1826,540,0,0
609,484,0,0,0,0,0,0,0,0,0,-1,1833,540,0,0
616,484,0,0,0,0,0,0,0,0,0,-1,1840,540,0,0
623,484,0,0,0,0,0,0,0,0,0,-1,1847,540,0,0
630,484,0,0,0,0,0,0,0,0,0,-1,1854,540,0,0
637,484,0,0,0,0,0,0,0,0,0,-1,1861,540,0,0
644,484,0,0,0,0,0,0,0,0,0,-1,1868,540,0,0
651,484,0,0,0,0,0,0,0,0,0,-1,1875,540,0,0
658,484,0,0,0,0,0,0,0,0,0,-1,1882,540,0,0
665,484,0,0,0,0,0,0,0,0,0,-1,1889,540,0,0
672,484,0,0,0,0,0,0,0,0,0,-1,1896,540,0,0
679,484,0,0,0,0,0,0,0,0,0,-1,1903,540,0,0
686,484,0,0,0,0,0,0,0,0,0,-1,1910,540,0,0
693,484,0,0,0,0,0,0,0,0,0,-1,1917,540,0,0
700,484,0,0,0,0,0,0,0,0,0,-1,1924,540,0,0
707,484,0,0,0,0,0,0,0,0,0,-1,1931,540,0,0
714,484,0,0,0,0,0,0,0,0,0,-1,1938,540,0,0
721,484,0,0,0,0,0,0,0,0,0,-1,1945,540,0,0
728,484,0,0,0,0,0,0,0,0,0,-1,1952,540,0,0
735,484,0,0,0,0,0,0,0,0,0,-1,1959,540,0,0
742,484,0,0,0,0,0,0,0,0,0,-1,1966,540,0,0
749,484,0,0,0,0,0,0,0,0,0,-1,1973,540,0,0
756,484,0,0,0,0,0,0,0,0,0,-1,1980,540,0,0
763,484,0,0,0,0,0,0,0,0,0,-1,1987,540,0,0
770,484,0,0,0,0,0,0,0,0,0,-1,1994,540,0,0
777,484,0,0,0,0,0,0,0,0,0,-1,2001,540,0,0
784,484,0,0,0,0,0,0,0,0,0,-1,2008,540,0,0
791,484,0,0,0,0,0,0,0,0,0,-1,2015,540,0,0
798,484,0,0,0,0,0,0,0,0,0,-1,2022,540,0,0
805,484,0,0,0,0,0,0,0,0,0,-1,2029,540,0,0
812,484,0,0,0,0,0,0,0,0,0,-1,2036,540,0,0
-700,477,0,0,0,0,0,0,0,0,0,-1,524,547,0,0
-693,477,0,0,0,0,0,0,0,0,0,-1,531,547,0,0
-686,477,0,0,0,0,0,0,0,0,0,-1,538,547,0,0
-679,477,0,0,0,0,0,0,0,0,0,-1,545,547,0,0
-672,477,0,0,0,0,0,0,0,0,0,-1,552,547,0,0
-665,477,0,0,0,0,0,0,0,0,0,-1,559,547,0,0
-658,477,0,0,0,0,0,0,0,0,0,-1,566,547,0,0
-651,477,0,0,0,0,0,0,0,0,0,-1,573,547,0,0
-644,477,0,0,0,0,0,0,0,0,0,-1,580,547,0,0
-637,477,0,0,0,0,0,0,0,0,0,-1,587,547,0,0
-630,477,0,0,0,0,0,0,0,0,0,-1,594,547,0,0
-623,477,0,0,0,0,0,0,0,0,0,-1,601,547,0,0
-616,477,0,0,0,0,0,0,0,0,0,-1,608,547,0,0
-609,477,0,0,0,0,0,0,0,0,0,-1,615,547,0,0
-602,477,0,0,0,0,0,0,0,0,0,-1,622,547,0,0
-595,477,0,0,0,0,0,0,0,0,0,-1,629,547,0,0
-588,477,0,0,0,0,0,0,0,0,0,-1,636,547,0,0
-581,477,0,0,0,0,0,0,0,0,0,-1,643,547,0,0
-574,477,0,0,0,0,0,0,0,0,0,-1,650,547,0,0
-567,477,0,0,0,0,0,0,0,0,0,-1,657,547,0,0
-560,477,0,0,0,0,0,0,0,0,0,-1,664,547,0,0
-553,477,0,0,0,0,0,0,0,0,0,-1,671,547,0,0
-546,477,0,0,0,0,0,0,0,0,0,-1,678,547,0,0
-539,477,0,0,0,0,0,0,0,0,0,-1,685,547,0,0
-532,477,0,0,0,0,0,0,0,0,0,-1,692,547,0,0
-525,477,0,0,0,0,0,0,0,0,0,-1,699,547,0,0
-518,477,0,0,0,0,0,0,0,0,0,-1,706,547,0,0
-511,477,0,0,0,0,0,0,0,0,0,-1,713,547,0,0
-504,477,0,0,0,0,0,0,0,0,0,-1,720,547,0,0
-497,477,0,0,0,0,0,0,0,0,0,-1,727,547,0,0
-490,477,0,0,0,0,0,0,0,0,0,-1,734,547,0,0
-483,477,-8.30969,1.16516,0,0,0,0,0,0,0,-1,741,547,-8.30969,-1.16514
-476,477,-7.90381,1.0343,0,0,0,0,0,0,0,-1,748,547,-7.90384,-1.03432
-469,477,-7.29449,0.745605,0,0,0,0,0,0,0,-1,755,547,-7.2945,-0.745633
-462,477,-6.69519,0.245605,0,0,0,0,0,0,0,-1,762,547,-6.69519,-0.245597
-455,477,-6.28265,-0.226318,0,0,0,0,0,0,0,-1,769,547,-6.28263,0.226343
-448,477,-5.30103,-1.02991,0,0,0,0,0,0,0,-1,776,547,-5.30104,1.02993
-441,477,-1.16968,-3.69501,0,0,0,0,0,0,0,-1,783,547,-1.16968,3.69498
-434,477,-1.41235,-3.88074,0.0145918,0.0169496,-0.0128631,0.0286877,0.00285371,-0.831096,0.0182485,0.0420538,790,547,-1.41236,3.88076
-427,477,-1.14301,-4.21625,0.0114623,0.0122277,-0.00935942,0.0212122,0.00247776,-0.805832,0.0133922,0.0232459,797,547,-1.14303,4.21625
-420,477,-1.20203,-4.36353,0.00924735,0.00889322,-0.00717252,0.016245,0.00189557,-0.773057,0.0102567,0.0184513,804,547,-1.20204,4.36355
-413,477,-1.1955,-4.61981,0.0078043,0.00683464,-0.00556257,0.0129031,0.00173581,-0.741928,0.00808583,0.0149413,811,547,-1.19548,4.61983
-406,477,-1.17542,-4.86353,0.00661727,0.00511758,-0.00422925,0.0101626,0.00157221,-0.69766,0.00631658,0.0113054,818,547,-1.17541,4.86353
-399,477,-1.15906,-5.1167,0.00549235,0.00373059,-0.00309975,0.00783395,0.00138899,-0.646959,0.00482672,0.0182932,825,547,-1.15907,5.1167
-392,477,-1.18359,-5.32928,0.00457496,0.00239659,-0.00219585,0.00593692,0.00103464,-0.55517,0.00366211,0.017273,832,547,-1.1836,5.32927
-385,477,-1.20667,-5.50562,0.00386486,0.00131331,-0.00149592,0.00455514,0.000623024,-0.432329,0.00285186,0.013854,839,547,-1.20664,5.50561
-378,477,-1.19116,-5.73401,0.00325305,0.000378426,-0.000955615,0.00354173,8.9741e-05,-0.293377,0.00233182,0.0123448,846,547,-1.19116,5.73401
-371,477,-1.19385,-5.93237,0.00291508,-0.000604795,-0.000627146,0.00302348,-0.000713197,-0.171158,0.0022907,0.0123098,853,547,-1.19385,5.93239
-364,477,-1.21564,-6.14471,0.00289407,-0.00122324,-0.000535067,0.00296247,-0.00129164,-0.127142,0.00251846,0.0123552,860,547,-1.21564,6.14471
-357,477,-1.23315,-6.37134,0.00319187,-0.0017282,-0.000692656,0.00328752,-0.00182386,-0.137229,0.00299111,0.0108689,867,547,-1.23314,6.37133
-350,477,-1.22021,-6.57349,0.00378173,-0.0020157,-0.00105038,0.00396617,-0.00220014,-0.173822,0.00360846,0.00986822,874,547,-1.2202,6.57351
-343,477,-1.14349,-6.76569,0.00465287,-0.00218041,-0.00161554,0.00501557,-0.00254311,-0.220844,0.00444114,0.017788,881,547,-1.1435,6.76568
-336,477,-1.06268,-6.9953,0.00566613,-0.00215434,-0.00235663,0.00632138,-0.00280959,-0.271195,0.00540017,0.0271296,888,547,-1.06268,6.99528
-329,477,-1.04596,-7.32428,0.00684952,-0.0018512,-0.00315215,0.00787147,-0.00287314,-0.313513,0.00642325,0.047496,895,547,-1.04594,7.32431
-322,477,-0.98114,-7.48553,0,0,0,0,0,0,0,-1,902,547,-0.981149,7.4855
-315,477,-1.41577,-7.47571,0,0,0,0,0,0,0,-1,909,547,-1.41579,7.47572
-308,477,-1.30127,-6.55188,0,0,0,0,0,0,0,-1,916,547,-1.30128,6.55185
-301,477,-1.21185,-6.28351,0,0,0,0,0,0,0,-1,923,547,-1.21184,6.28352
-294,477,-0.352905,3.27142,0,0,0,0,0,0,0,-1,930,547,-0.35292,-3.27144
-287,477,3.54364,2.15399,0,0,0,0,0,0,0,-1,937,547,3.54362,-2.15396
-280,477,1.97308,-0.954163,0,0,0,0,0,0,0,-1,944,547,1.9731,0.954178
-273,477,2.11621,-3.76709,0,0,0,0,0,0,0,-1,951,547,2.11619,3.76706
-266,477,2.04669,-3.42389,0,0,0,0,0,0,0,-1,958,547,2.04671,3.42391
-259,477,-1.33478,-3.41205,0,0,0,0,0,0,0,-1,965,547,-1.3348,3.41206
-252,477,0.597168,-5.32922,0,0,0,0,0,0,0,-1,972,547,0.597144,5.32924
-245,477,2.27161,-7.02875,0,0,0,0,0,0,0,-1,979,547,2.27158,7.02873
-238,477,7.29095,-4.50336,0,0,0,0,0,0,0,-1,986,547,7.29093,4.50335
-231,477,4.88141,-2.23413,0,0,0,0,0,0,0,-1,993,547,4.88143,2.23413
-224,477,0,0,0,0,0,0,0,0,0,-1,1000,547,0,0
-217,477,0,0,0,0,0,0,0,0,0,-1,1007,547,0,0
-210,477,0,0,0,0,0,0,0,0,0,-1,1014,547,0,0
-203,477,0,0,0,0,0,0,0,0,0,-1,1021,547,0,0
-196,477,0,0,0,0,0,0,0,0,0,-1,1028,547,0,0
-189,477,0,0,0,0,0,0,0,0,0,-1,1035,547,0,0
-182,477,0,0,0,0,0,0,0,0,0,-1,1042,547,0,0
-175,477,0,0,0,0,0,0,0,0,0,-1,1049,547,0,0
-168,477,0,0,0,0,0,0,0,0,0,-1,1056,547,0,0
-161,477,0,0,0,0,0,0,0,0,0,-1,1063,547,0,0
-154,477,0,0,0,0,0,0,0,0,0,-1,1070,547,0,0
-147,477,0,0,0,0,0,0,0,0,0,-1,1077,547,0,0
-140,477,0,0,0,0,0,0,0,0,0,-1,1084,547,0,0
-133,477,0,0,0,0,0,0,0,0,0,-1,1091,547,0,0
-126,477,0,0,0,0,0,0,0,0,0,-1,1098,547,0,0
-119,477,0,0,0,0,0,0,0,0,0,-1,1105,547,0,0
-112,477,0,0,0,0,0,0,0,0,0,-1,1112,547,0,0
-105,477,0,0,0,0,0,0,0,0,0,-1,1119,547,0,0
-98,477,0,0,0,0,0,0,0,0,0,-1,1126,547,0,0
-91,477,0,0,0,0,0,0,0,0,0,-1,1133,547,0,0
-84,477,0,0,0,0,0,0,0,0,0,-1,1140,547,0,0
-77,477,0,0,0,0,0,0,0,0,0,-1,1147,547,0,0
-70,477,0,0,0,0,0,0,0,0,0,-1,1154,547,0,0
-63,477,0,0,0,0,0,0,0,0,0,-1,1161,547,0,0
-56,477,0,0,0,0,0,0,0,0,0,-1,1168,547,0,0
-49,477,0,0,0,0,0,0,0,0,0,-1,1175,547,0,0
-42,477,0,0,0,0,0,0,0,0,0,-1,1182,547,0,0
-35,477,0,0,0,0,0,0,0,0,0,-1,1189,547,0,0
-28,477,0,0,0,0,0,0,0,0,0,-1,1196,547,0,0
-21,477,0,0,0,0,0,0,0,0,0,-1,1203,547,0,0
-14,477,0,0,0,0,0,0,0,0,0,-1,1210,547,0,0
-7,477,0,0,0,0,0,0,0,0,0,-1,1217,547,0,0
0,477,0,0,0,0,0,0,0,0,0,-1,1224,547,0,0
7,477,0,0,0,0,0,0,0,0,0,-1,1231,547,0,0
14,477,0,0,0,0,0,0,0,0,0,-1,1238,547,0,0
21,477,0,0,0,0,0,0,0,0,0,-1,1245,547,0,0
28,477,0,0,0,0,0,0,0,0,0,-1,1252,547,0,0
35,477,0,0,0,0,0,0,0,0,0,-1,1259,547,0,0
42,477,0,0,0,0,0,0,0,0,0,-1,1266,547,0,0
49,477,0,0,0,0,0,0,0,0,0,-1,1273,547,0,0
56,477,0,0,0,0,0,0,0,0,0,-1,1280,547,0,0
63,477,0,0,0,0,0,0,0,0,0,-1,1287,547,0,0
70,477,0,0,0,0,0,0,0,0,0,-1,1294,547,0,0
77,477,0,0,0,0,0,0,0,0,0,-1,1301,547,0,0
84,477,0,0,0,0,0,0,0,0,0,-1,1308,547,0,0
91,477,0,0,0,0,0,0,0,0,0,-1,1315,547,0,0
98,477,0,0,0,0,0,0,0,0,0,-1,1322,547,0,0
105,477,0,0,0,0,0,0,0,0,0,-1,1329,547,0,0
112,477,0,0,0,0,0,0,0,0,0,-1,1336,547,0,0
119,477,0,0,0,0,0,0,0,0,0,-1,1343,547,0,0
126,477,0,0,0,0,0,0,0,0,0,-1,1350,547,0,0
133,477,0,0,0,0,0,0,0,0,0,-1,1357,547,0,0
140,477,0,0,0,0,0,0,0,0,0,-1,1364,547,0,0
147,477,0,0,0,0,0,0,0,0,0,-1,1371,547,0,0
154,477,0,0,0,0,0,0,0,0,0,-1,1378,547,0,0
161,477,0,0,0,0,0,0,0,0,0,-1,1385,547,0,0
168,477,0,0,0,0,0,0,0,0,0,-1,1392,547,0,0
175,477,0,0,0,0,0,0,0,0,0,-1,1399,547,0,0
182,477,0,0,0,0,0,0,0,0,0,-1,1406,547,0,0
189,477,0,0,0,0,0,0,0,0,0,-1,1413,547,0,0
196,477,0,0,0,0,0,0,0,0,0,-1,1420,547,0,0
203,477,0,0,0,0,0,0,0,0,0,-1,1427,547,0,0
210,477,0,0,0,0,0,0,0,0,0,-1,1434,547,0,0
217,477,0,0,0,0,0,0,0,0,0,-1,1441,547,0,0
224,477,0,0,0,0,0,0,0,0,0,-1,1448,547,0,0
231,477,0,0,0,0,0,0,0,0,0,-1,1455,547,0,0
238,477,0,0,0,0,0,0,0,0,0,-1,1462,547,0,0
245,477,0,0,0,0,0,0,0,0,0,-1,1469,547,0,0
252,477,0,0,0,0,0,0,0,0,0,-1,1476,547,0,0
259,477,0,0,0,0,0,0,0,0,0,-1,1483,547,0,0
266,477,0,0,0,0,0,0,0,0,0,-1,1490,547,0,0
273,477,0,0,0,0,0,0,0,0,0,-1,1497,547,0,0
280,477,0,0,0,0,0,0,0,0,0,-1,1504,547,0,0
287,477,0,0,0,0,0,0,0,0,0,-1,1511,547,0,0
294,477,0,0,0,0,0,0,0,0,0,-1,1518,547,0,0
301,477,0,0,0,0,0,0,0,0,0,-1,1525,547,0,0
308,477,0,0,0,0,0,0,0,0,0,-1,1532,547,0,0
315,477,0,0,0,0,0,0,0,0,0,-1,1539,547,0,0
322,477,0,0,0,0,0,0,0,0,0,-1,1546,547,0,0
329,477,0,0,0,0,0,0,0,0,0,-1,1553,547,0,0
336,477,0,0,0,0,0,0,0,0,0,-1,1560,547,0,0
343,477,0,0,0,0,0,0,0,0,0,-1,1567,547,0,0
350,477,1.7699,-3.32275,0,0,0,0,0,0,0,-1,1574,547,1.7699,3.32272
357,477,3.073,-4.83313,0,0,0,0,0,0,0,-1,1581,547,3.07303,4.83316
364,477,4.30127,-4.22864,0,0,0,0,0,0,0,-1,1588,547,4.30125,4.22865
371,477,4.57703,0.283264,0,0,0,0,0,0,0,-1,1595,547,4.57706,-0.283262
378,477,8.57947,1.05969,0,0,0,0,0,0,0,-1,1602,547,8.5795,-1.05972
385,477,12.3726,2.02356,0,0,0,0,0,0,0,-1,1609,547,12.3725,-2.02355
392,477,16.4678,2.76843,0,0,0,0,0,0,0,-1,1616,547,16.4678,-2.76845
399,477,8.00037,-2.29523,0,0,0,0,0,0,0,-1,1623,547,8.00031,2.2952
406,477,4.82495,2.7475,0,0,0,0,0,0,0,-1,1630,547,4.825,-2.74752
413,477,4.88171,-0.336426,0,0,0,0,0,0,0,-1,1637,547,4.88169,0.336398
420,477,3.34875,0.102722,0,0,0,0,0,0,0,-1,1644,547,3.34871,-0.1027
427,477,1.66772,-0.373108,0,0,0,0,0,0,0,-1,1651,547,1.66768,0.373104
434,477,3.76978,-2.30798,0,0,0,0,0,0,0,-1,1658,547,3.76974,2.30801
441,477,4.05444,-2.80402,0,0,0,0,0,0,0,-1,1665,547,4.05444,2.804
448,477,6.70239,-5.96942,0,0,0,0,0,0,0,-1,1672,547,6.70236,5.96942
455,477,6.53442,-5.89734,-0.00273086,0.00266418,-0.00398806,0.00478135,-0.00484803,-1.08275,0.00555957,0.0487105,1679,547,6.53442,5.89731
462,477,6.36951,-5.76392,-0.00142995,0.00287987,-0.00217488,0.00378661,-0.0023367,-1.17579,0.00356818,0.0349984,1686,547,6.36948,5.76392
469,477,6.35876,-5.43915,-0.000221854,0.0027448,-0.000955771,0.00302606,-0.000503111,-1.2846,0.0022043,0.021969,1693,547,6.35874,5.43914
476,477,6.32703,-5.20667,0.000650978,0.00248446,-0.000274016,0.00252454,0.000610902,-1.42557,0.00152085,0.0174432,1700,547,6.32702,5.20665
483,477,6.32312,-4.9906,0.00107979,0.00220544,0.000180106,0.00223355,0.00105167,1.41594,0.00129027,0.0121136,1707,547,6.32309,4.99059
490,477,6.28894,-4.78296,0.00143078,0.00180808,0.000489902,0.0021444,0.00109446,0.969184,0.00123816,0.0119924,1714,547,6.28899,4.78298
497,477,6.28931,-4.54236,0.0014721,0.00125754,0.000531782,0.00190732,0.000822327,0.685864,0.00110467,0.0131958,1721,547,6.28927,4.54239
504,477,6.30481,-4.30554,0.00135727,0.000881505,0.000554121,0.00172242,0.000516365,0.582644,0.00102066,0.0175622,1728,547,6.30481,4.30552
511,477,6.36633,-4.07935,0.00137606,0.000875064,0.00080018,0.00196403,0.000287088,0.633705,0.00122493,0.0211271,1735,547,6.3663,4.07936
518,477,6.36169,-3.82281,0.00122217,0.000908282,0.000879087,0.00195821,0.00017224,0.697062,0.00125202,0.0178697,1742,547,6.36172,3.82284
525,477,6.33533,-3.59241,0.00111772,0.00127304,0.00102829,0.0022266,0.000164167,0.82309,0.00143281,0.0151691,1749,547,6.33528,3.59239
532,477,6.30945,-3.37793,0.0011565,0.00206391,0.00141188,0.00309319,0.000127212,0.940861,0.00202106,0.0182813,1756,547,6.30947,3.37795
539,477,6.30786,-3.08966,0.00141207,0.00326241,0.00205376,0.00458977,8.47119e-05,0.997022,0.003032,0.0167743,1763,547,6.30784,3.08969
546,477,6.31812,-2.85999,0.00192123,0.00497749,0.00297773,0.00679631,0.000102412,1.02247,0.00449712,0.0188811,1770,547,6.31809,2.85997
553,477,6.3009,-2.61804,0.00266569,0.00704514,0.0040666,0.00947409,0.000236739,1.03237,0.00623864,0.0206479,1777,547,6.30092,2.61803
560,477,6.323,-2.2912,0.00371889,0.00950255,0.00540388,0.0127397,0.000481726,1.03108,0.00833721,0.0375701,1784,547,6.32303,2.29117
567,477,6.35962,-2.07269,0,0,0,0,0,0,0,-1,1791,547,6.35959,2.07271
574,477,6.82593,-0.916992,0,0,0,0,0,0,0,-1,1798,547,6.82598,0.916977
581,477,9.29321,-0.557007,0,0,0,0,0,0,0,-1,1805,547,9.29324,0.55703
588,477,9.75195,0.422729,0,0,0,0,0,0,0,-1,1812,547,9.75198,-0.42273
595,477,9.89172,1.21326,0,0,0,0,0,0,0,-1,1819,547,9.89174,-1.21328
602,477,6.5271,-0.964417,0,0,0,0,0,0,0,-1,1826,547,6.52706,0.964427
609,477,0,0,0,0,0,0,0,0,0,-1,1833,547,0,0
616,477,0,0,0,0,0,0,0,0,0,-1,1840,547,0,0
623,477,0,0,0,0,0,0,0,0,0,-1,1847,547,0,0
630,477,0,0,0,0,0,0,0,0,0,-1,1854,547,0,0
637,477,0,0,0,0,0,0,0,0,0,-1,1861,547,0,0
644,477,0,0,0,0,0,0,0,0,0,-1,1868,547,0,0
651,477,0,0,0,0,0,0,0,0,0,-1,1875,547,0,0
658,477,0,0,0,0,0,0,0,0,0,-1,1882,547,0,0
665,477,0,0,0,0,0,0,0,0,0,-1,1889,547,0,0
672,477,0,0,0,0,0,0,0,0,0,-1,1896,547,0,0
679,477,0,0,0,0,0,0,0,0,0,-1,1903,547,0,0
686,477,0,0,0,0,0,0,0,0,0,-1,1910,547,0,0
693,477,0,0,0,0,0,0,0,0,0,-1,1917,547,0,0
700,477,0,0,0,0,0,0,0,0,0,-1,1924,547,0,0
707,477,0,0,0,0,0,0,0,0,0,-1,1931,547,0,0
714,477,0,0,0,0,0,0,0,0,0,-1,1938,547,0,0
721,477,0,0,0,0,0,0,0,0,0,-1,1945,547,0,0
728,477,0,0,0,0,0,0,0,0,0,-1,1952,547,0,0
735,477,0,0,0,0,0,0,0,0,0,-1,1959,547,0,0
742,477,0,0,0,0,0,0,0,0,0,-1,1966,547,0,0
749,477,0,0,0,0,0,0,0,0,0,-1,1973,547,0,0
756,477,0,0,0,0,0,0,0,0,0,-1,1980,547,0,0
763,477,0,0,0,0,0,0,0,0,0,-1,1987,547,0,0
770,477,0,0,0,0,0,0,0,0,0,-1,1994,547,0,0
777,477,0,0,0,0,0,0,0,0,0,-1,2001,547,0,0
784,477,0,0,0,0,0,0,0,0,0,-1,2008,547,0,0
791,477,0,0,0,0,0,0,0,0,0,-1,2015,547,0,0
798,477,0,0,0,0,0,0,0,0,0,-1,2022,547,0,0
805,477,0,0,0,0,0,0,0,0,0,-1,2029,547,0,0
812,477,0,0,0,0,0,0,0,0,0,-1,2036,547,0,0
-700,470,0,0,0,0,0,0,0,0,0,-1,524,554,0,0
-693,470,0,0,0,0,0,0,0,0,0,-1,531,554,0,0
-686,470,0,0,0,0,0,0,0,0,0,-1,538,554,0,0
-679,470,0,0,0,0,0,0,0,0,0,-1,545,554,0,0
-672,470,0,0,0,0,0,0,0,0,0,-1,552,554,0,0
-665,470,0,0,0,0,0,0,0,0,0,-1,559,554,0,0
-658,470,0,0,0,0,0,0,0,0,0,-1,566,554,0,0
-651,470,0,0,0,0,0,0,0,0,0,-1,573,554,0,0
-644,470,0,0,0,0,0,0,0,0,0,-1,580,554,0,0
-637,470,0,0,0,0,0,0,0,0,0,-1,587,554,0,0
-630,470,0,0,0,0,0,0,0,0,0,-1,594,554,0,0
-623,470,0,0,0,0,0,0,0,0,0,-1,601,554,0,0
-616,470,0,0,0,0,0,0,0,0,0,-1,608,554,0,0
-609,470,0,0,0,0,0,0,0,0,0,-1,615,554,0,0
-602,470,0,0,0,0,0,0,0,0,0,-1,622,554,0,0
-595,470,0,0,0,0,0,0,0,0,0,-1,629,554,0,0
-588,470,0,0,0,0,0,0,0,0,0,-1,636,554,0,0
-581,470,0,0,0,0,0,0,0,0,0,-1,643,554,0,0
-574,470,0,0,0,0,0,0,0,0,0,-1,650,554,0,0
-567,470,0,0,0,0,0,0,0,0,0,-1,657,554,0,0
-560,470,0,0,0,0,0,0,0,0,0,-1,664,554,0,0
-553,470,0,0,0,0,0,0,0,0,0,-1,671,554,0,0
-546,470,0,0,0,0,0,0,0,0,0,-1,678,554,0,0
-539,470,0,0,0,0,0,0,0,0,0,-1,685,554,0,0
-532,470,0,0,0,0,0,0,0,0,0,-1,692,554,0,0
-525,470,0,0,0,0,0,0,0,0,0,-1,699,554,0,0
-518,470,0,0,0,0,0,0,0,0,0,-1,706,554,0,0
-511,470,0,0,0,0,0,0,0,0,0,-1,713,554,0,0
-504,470,0,0,0,0,0,0,0,0,0,-1,720,554,0,0
-497,470,0,0,0,0,0,0,0,0,0,-1,727,554,0,0
-490,470,-10.0392,1.38037,0,0,0,0,0,0,0,-1,734,554,-10.0392,-1.38036
-483,470,-5.49719,1.94513,0,0,0,0,0,0,0,-1,741,554,-5.49718,-1.9451
-476,470,-8.63257,0.466431,0,0,0,0,0,0,0,-1,748,554,-8.63258,-0.466428
-469,470,-8.12396,0.151184,0,0,0,0,0,0,0,-1,755,554,-8.12395,-0.15119
-462,470,-7.31451,-0.536011,0,0,0,0,0,0,0,-1,762,554,-7.31449,0.535994
-455,470,-5.36963,-3.09192,0,0,0,0,0,0,0,-1,769,554,-5.36963,3.0919
-448,470,-1.3866,-3.3927,0,0,0,0,0,0,0,-1,776,554,-1.38658,3.3927
-441,470,-1.33203,-3.69238,0.0137415,0.0187456,-0.0139535,0.0304196,0.00206747,-0.874113,0.0196269,0.0493356,783,554,-1.33202,3.69236
-434,470,-1.30664,-4.02368,0.0105583,0.0137598,-0.0103833,0.022665,0.00165306,-0.861879,0.0145902,0.0260307,790,554,-1.30662,4.02367
-427,470,-1.40033,-4.19427,0.00791318,0.0096783,-0.00732963,0.0161783,0.00141317,-0.845315,0.0103467,0.0122247,797,554,-1.4003,4.19425
-420,470,-1.39801,-4.42078,0.00612108,0.00684857,-0.00544457,0.0119415,0.00102812,-0.818753,0.00764141,0.0122065,804,554,-1.39803,4.42075
-413,470,-1.40851,-4.64716,0.00505069,0.00520658,-0.00410827,0.00923764,0.00101963,-0.794883,0.00584826,0.0131018,811,554,-1.40849,4.64717
-406,470,-1.41821,-4.85529,0.0042678,0.0037931,-0.00298093,0.00702081,0.00104009,-0.745671,0.00437525,0.0105004,818,554,-1.41819,4.8553
-399,470,-1.37952,-5.1026,0.00353434,0.00255628,-0.00199768,0.00510197,0.000988646,-0.665359,0.00312435,0.0134574,825,554,-1.37952,5.1026
-392,470,-1.39697,-5.32416,0.00292997,0.00132427,-0.00119596,0.00356756,0.000686673,-0.489796,0.00218574,0.0144123,832,554,-1.39695,5.32419
-385,470,-1.42383,-5.5127,0.00250057,0.000308091,-0.000586219,0.00264747,0.000161191,-0.245532,0.00171378,0.0110401,839,554,-1.42384,5.51271
-378,470,-1.422,-5.75671,0.00214698,-0.000616081,-0.000105279,0.00215098,-0.000620087,-0.038029,0.00167929,0.015542,846,554,-1.422,5.75674
-371,470,-1.39087,-5.94891,0.00206038,-0.00158926,0.000165959,0.00206791,-0.00159679,0.0453481,0.00212164,0.0132805,853,554,-1.39088,5.94894
-364,470,-1.40674,-6.15063,0.00229126,-0.002327,0.000221849,0.00230189,-0.00233763,0.0478904,0.00267865,0.0125096,860,554,-1.40674,6.15061
-357,470,-1.4306,-6.36023,0.00292271,-0.00294982,-1.22147e-06,0.00292271,-0.00294982,-0.000207998,0.00339052,0.0133839,867,554,-1.43059,6.36021
-350,470,-1.40411,-6.56927,0.00389271,-0.00340338,-0.000478066,0.0039239,-0.00343457,-0.0651523,0.00425155,0.0101777,874,554,-1.40412,6.56927
-343,470,-1.30402,-6.79059,0.00515121,-0.00373665,-0.00119331,0.00530864,-0.00389408,-0.131169,0.00533407,0.0212096,881,554,-1.30404,6.79058
-336,470,-1.37256,-6.92914,0.00655468,-0.00386005,-0.00215454,0.0069828,-0.00428817,-0.196151,0.006569,0.034594,888,554,-1.37257,6.92914
-329,470,-1.22009,-7.12909,0,0,0,0,0,0,0,-1,895,554,-1.22011,7.12908
-322,470,-1.52979,-6.97113,0,0,0,0,0,0,0,-1,902,554,-1.52977,6.97114
-315,470,-1.38586,-7.2218,0,0,0,0,0,0,0,-1,909,554,-1.38584,7.22178
-308,470,-1.39368,-6.68152,0,0,0,0,0,0,0,-1,916,554,-1.39369,6.68149
-301,470,-0.0340576,3.34888,0,0,0,0,0,0,0,-1,923,554,-0.0340496,-3.3489
-294,470,-1.18378,3.22266,0,0,0,0,0,0,0,-1,930,554,-1.18376,-3.22268
-287,470,-2.15454,3.2204,0,0,0,0,0,0,0,-1,937,554,-2.15452,-3.22037
-280,470,-3.00537,3.099,0,0,0,0,0,0,0,-1,944,554,-3.00536,-3.09898
-273,470,1.05981,-2.39728,0,0,0,0,0,0,0,-1,951,554,1.05983,2.39727
-266,470,-3.55084,-1.16742,0,0,0,0,0,0,0,-1,958,554,-3.55086,1.16744
-259,470,-2.33282,-3.89526,0,0,0,0,0,0,0,-1,965,554,-2.33284,3.89527
-252,470,-0.369019,-4.24976,0,0,0,0,0,0,0,-1,972,554,-0.36901,4.24977
-245,470,1.10651,-6.29034,0,0,0,0,0,0,0,-1,979,554,1.1065,6.29033
-238,470,0,0,0,0,0,0,0,0,0,-1,986,554,0,0
-231,470,0,0,0,0,0,0,0,0,0,-1,993,554,0,0
-224,470,0,0,0,0,0,0,0,0,0,-1,1000,554,0,0
-217,470,0,0,0,0,0,0,0,0,0,-1,1007,554,0,0
-210,470,0,0,0,0,0,0,0,0,0,-1,1014,554,0,0
-203,470,0,0,0,0,0,0,0,0,0,-1,1021,554,0,0
-196,470,0,0,0,0,0,0,0,0,0,-1,1028,554,0,0
-189,470,0,0,0,0,0,0,0,0,0,-1,1035,554,0,0
-182,470,0,0,0,0,0,0,0,0,0,-1,1042,554,0,0
-175,470,0,0,0,0,0,0,0,0,0,-1,1049,554,0,0
-168,470,0,0,0,0,0,0,0,0,0,-1,1056,554,0,0
-161,470,0,0,0,0,0,0,0,0,0,-1,1063,554,0,0
-154,470,0,0,0,0,0,0,0,0,0,-1,1070,554,0,0
-147,470,0,0,0,0,0,0,0,0,0,-1,1077,554,0,0
-140,470,0,0,0,0,0,0,0,0,0,-1,1084,554,0,0
-133,470,0,0,0,0,0,0,0,0,0,-1,1091,554,0,0
-126,470,0,0,0,0,0,0,0,0,0,-1,1098,554,0,0
-119,470,0,0,0,0,0,0,0,0,0,-1,1105,554,0,0
-112,470,0,0,0,0,0,0,0,0,0,-1,1112,554,0,0
-105,470,0,0,0,0,0,0,0,0,0,-1,1119,554,0,0
-98,470,0,0,0,0,0,0,0,0,0,-1,1126,554,0,0
-91,470,0,0,0,0,0,0,0,0,0,-1,1133,554,0,0
-84,470,0,0,0,0,0,0,0,0,0,-1,1140,554,0,0
-77,470,0,0,0,0,0,0,0,0,0,-1,1147,554,0,0
-70,470,0,0,0,0,0,0,0,0,0,-1,1154,554,0,0
-63,470,0,0,0,0,0,0,0,0,0,-1,1161,554,0,0
-56,470,0,0,0,0,0,0,0,0,0,-1,1168,554,0,0
-49,470,0,0,0,0,0,0,0,0,0,-1,1175,554,0,0
-42,470,0,0,0,0,0,0,0,0,0,-1,1182,554,0,0
-35,470,0,0,0,0,0,0,0,0,0,-1,1189,554,0,0
-28,470,0,0,0,0,0,0,0,0,0,-1,1196,554,0,0
-21,470,0,0,0,0,0,0,0,0,0,-1,1203,554,0,0
-14,470,0,0,0,0,0,0,0,0,0,-1,1210,554,0,0
-7,470,0,0,0,0,0,0,0,0,0,-1,1217,554,0,0
0,470,0,0,0,0,0,0,0,0,0,-1,1224,554,0,0
7,470,0,0,0,0,0,0,0,0,0,-1,1231,554,0,0
14,470,0,0,0,0,0,0,0,0,0,-1,1238,554,0,0
21,470,0,0,0,0,0,0,0,0,0,-1,1245,554,0,0
28,470,0,0,0,0,0,0,0,0,0,-1,1252,554,0,0
35,470,0,0,0,0,0,0,0,0,0,-1,1259,554,0,0
42,470,0,0,0,0,0,0,0,0,0,-1,1266,554,0,0
49,470,0,0,0,0,0,0,0,0,0,-1,1273,554,0,0
56,470,0,0,0,0,0,0,0,0,0,-1,1280,554,0,0
63,470,0,0,0,0,0,0,0,0,0,-1,1287,554,0,0
70,470,0,0,0,0,0,0,0,0,0,-1,1294,554,0,0
77,470,0,0,0,0,0,0,0,0,0,-1,1301,554,0,0
84,470,0,0,0,0,0,0,0,0,0,-1,1308,554,0,0
91,470,0,0,0,0,0,0,0,0,0,-1,1315,554,0,0
98,470,0,0,0,0,0,0,0,0,0,-1,1322,554,0,0
105,470,0,0,0,0,0,0,0,0,0,-1,1329,554,0,0
112,470,0,0,0,0,0,0,0,0,0,-1,1336,554,0,0
119,470,0,0,0,0,0,0,0,0,0,-1,1343,554,0,0
126,470,0,0,0,0,0,0,0,0,0,-1,1350,554,0,0
133,470,0,0,0,0,0,0,0,0,0,-1,1357,554,0,0
140,470,0,0,0,0,0,0,0,0,0,-1,1364,554,0,0
147,470,0,0,0,0,0,0,0,0,0,-1,1371,554,0,0
154,470,0,0,0,0,0,0,0,0,0,-1,1378,554,0,0
161,470,0,0,0,0,0,0,0,0,0,-1,1385,554,0,0
168,470,0,0,0,0,0,0,0,0,0,-1,1392,554,0,0
175,470,0,0,0,0,0,0,0,0,0,-1,1399,554,0,0
182,470,0,0,0,0,0,0,0,0,0,-1,1406,554,0,0
189,470,0,0,0,0,0,0,0,0,0,-1,1413,554,0,0
196,470,0,0,0,0,0,0,0,0,0,-1,1420,554,0,0
203,470,0,0,0,0,0,0,0,0,0,-1,1427,554,0,0
210,470,0,0,0,0,0,0,0,0,0,-1,1434,554,0,0
217,470,0,0,0,0,0,0,0,0,0,-1,1441,554,0,0
224,470,0,0,0,0,0,0,0,0,0,-1,1448,554,0,0
231,470,0,0,0,0,0,0,0,0,0,-1,1455,554,0,0
238,470,0,0,0,0,0,0,0,0,0,-1,1462,554,0,0
245,470,0,0,0,0,0,0,0,0,0,-1,1469,554,0,0
252,470,0,0,0,0,0,0,0,0,0,-1,1476,554,0,0
259,470,0,0,0,0,0,0,0,0,0,-1,1483,554,0,0
266,470,0,0,0,0,0,0,0,0,0,-1,1490,554,0,0
273,470,0,0,0,0,0,0,0,0,0,-1,1497,554,0,0
280,470,0,0,0,0,0,0,0,0,0,-1,1504,554,0,0
287,470,0,0,0,0,0,0,0,0,0,-1,1511,554,0,0
294,470,0,0,0,0,0,0,0,0,0,-1,1518,554,0,0
301,470,0,0,0,0,0,0,0,0,0,-1,1525,554,0,0
308,470,0,0,0,0,0,0,0,0,0,-1,1532,554,0,0
315,470,0,0,0,0,0,0,0,0,0,-1,1539,554,0,0
322,470,0,0,0,0,0,0,0,0,0,-1,1546,554,0,0
329,470,0,0,0,0,0,0,0,0,0,-1,1553,554,0,0
336,470,0,0,0,0,0,0,0,0,0,-1,1560,554,0,0
343,470,0,0,0,0,0,0,0,0,0,-1,1567,554,0,0
350,470,0,0,0,0,0,0,0,0,0,-1,1574,554,0,0
357,470,0,0,0,0,0,0,0,0,0,-1,1581,554,0,0
364,470,1.33423,0.293335,0,0,0,0,0,0,0,-1,1588,554,1.33422,-0.293348
371,470,2.22498,-0.0305176,0,0,0,0,0,0,0,-1,1595,554,2.22494,0.0305046
378,470,6.27051,0.710083,0,0,0,0,0,0,0,-1,1602,554,6.27054,-0.710093
385,470,10.3657,1.47296,0,0,0,0,0,0,0,-1,1609,554,10.3657,-1.47299
392,470,14.4915,2.24756,0,0,0,0,0,0,0,-1,1616,554,14.4915,-2.24757
399,470,18.4479,2.93793,0,0,0,0,0,0,0,-1,1623,554,18.4479,-2.93792
406,470,15.1896,1.36676,0,0,0,0,0,0,0,-1,1630,554,15.1896,-1.36679
413,470,6.55383,1.99207,0,0,0,0,0,0,0,-1,1637,554,6.5538,-1.99208
420,470,4.47095,0.845703,0,0,0,0,0,0,0,-1,1644,554,4.47098,-0.845718
427,470,3.51038,1.19684,0,0,0,0,0,0,0,-1,1651,554,3.51039,-1.19684
434,470,3.31775,-1.37427,0,0,0,0,0,0,0,-1,1658,554,3.31781,1.37426
441,470,2.55457,-2.05902,0,0,0,0,0,0,0,-1,1665,554,2.55461,2.05904
448,470,3.27258,-2.64032,0,0,0,0,0,0,0,-1,1672,554,3.27257,2.64029
455,470,7.0686,-5.98358,0,0,0,0,0,0,0,-1,1679,554,7.06856,5.9836
462,470,6.67981,-5.83228,0,0,0,0,0,0,0,-1,1686,554,6.67982,5.83228
469,470,6.51001,-5.55908,0,0,0,0,0,0,0,-1,1693,554,6.50998,5.55907
476,470,6.49939,-5.22308,0.00130574,0.00313358,0.000134536,0.00314343,0.00129589,1.49772,0.00182415,0.0294415,1700,554,6.49941,5.22308
483,470,6.55713,-4.99359,0.0018042,0.00284713,0.000674897,0.00317855,0.00147278,1.11432,0.00183678,0.0144367,1707,554,6.55717,4.99362
490,470,6.53101,-4.76385,0.00219299,0.0024791,0.00101253,0.00335863,0.00131345,0.855578,0.00195439,0.0112921,1714,554,6.53097,4.76385
497,470,6.53442,-4.52386,0.00220863,0.0018809,0.000992888,0.00305108,0.00103845,0.703618,0.00179123,0.0117757,1721,554,6.53445,4.52388
504,470,6.55591,-4.31927,0.00197443,0.001379,0.000887853,0.00261316,0.000740275,0.623627,0.00155523,0.0181668,1728,554,6.55593,4.31929
511,470,6.58972,-4.11163,0.00182901,0.00114701,0.000980896,0.00252649,0.000449528,0.618111,0.00155628,0.0245502,1735,554,6.58969,4.11162
518,470,6.62427,-3.85931,0.00156592,0.00107688,0.000955848,0.00230803,0.000334771,0.660175,0.00144012,0.0237474,1742,554,6.62427,3.85931
525,470,6.5918,-3.57373,0.00132627,0.00130532,0.000988262,0.00230411,0.000327477,0.7801,0.00143939,0.0148512,1749,554,6.59184,3.57372
532,470,6.55298,-3.31378,0.00119751,0.00186846,0.00120463,0.00278346,0.000282512,0.921201,0.001769,0.0136204,1756,554,6.55296,3.31379
539,470,6.5437,-3.09302,0.00123237,0.00268572,0.0016007,0.00371697,0.000201121,0.998475,0.00241373,0.0157762,1763,554,6.5437,3.093
546,470,6.55469,-2.84662,0.00147919,0.0039312,0.00223566,0.00525495,0.000155439,1.0362,0.00345266,0.0144283,1770,554,6.55469,2.84661
553,470,6.57288,-2.60229,0.00188388,0.00533585,0.00293945,0.00701858,0.000201141,1.05087,0.00461347,0.0123186,1777,554,6.57288,2.60231
560,470,6.58057,-2.35443,0.00246541,0.00695102,0.00377649,0.00910049,0.000315936,1.05335,0.00596447,0.0163873,1784,554,6.58056,2.35443
567,470,6.53162,-2.11316,0.00348319,0.00860731,0.00479129,0.0114785,0.000611962,1.03092,0.00745674,0.019093,1791,554,6.5316,2.11318
574,470,6.59351,-1.73926,0,0,0,0,0,0,0,-1,1798,554,6.59349,1.73924
581,470,8.24646,-4.06317,0,0,0,0,0,0,0,-1,1805,554,8.24648,4.06318
588,470,8.83704,-2.04022,0,0,0,0,0,0,0,-1,1812,554,8.83707,2.04021
595,470,4.72192,3.44116,0,0,0,0,0,0,0,-1,1819,554,4.72191,-3.44116
602,470,14.4307,2.76141,0,0,0,0,0,0,0,-1,1826,554,14.4306,-2.76139
609,470,20.9181,4.41058,0,0,0,0,0,0,0,-1,1833,554,20.9181,-4.4106
616,470,0,0,0,0,0,0,0,0,0,-1,1840,554,0,0
623,470,0,0,0,0,0,0,0,0,0,-1,1847,554,0,0
630,470,0,0,0,0,0,0,0,0,0,-1,1854,554,0,0
637,470,0,0,0,0,0,0,0,0,0,-1,1861,554,0,0
644,470,0,0,0,0,0,0,0,0,0,-1,1868,554,0,0
651,470,0,0,0,0,0,0,0,0,0,-1,1875,554,0,0
658,470,0,0,0,0,0,0,0,0,0,-1,1882,554,0,0
665,470,0,0,0,0,0,0,0,0,0,-1,1889,554,0,0
672,470,0,0,0,0,0,0,0,0,0,-1,1896,554,0,0
679,470,0,0,0,0,0,0,0,0,0,-1,1903,554,0,0
686,470,0,0,0,0,0,0,0,0,0,-1,1910,554,0,0
693,470,0,0,0,0,0,0,0,0,0,-1,1917,554,0,0
700,470,0,0,0,0,0,0,0,0,0,-1,1924,554,0,0
707,470,0,0,0,0,0,0,0,0,0,-1,1931,554,0,0
714,470,0,0,0,0,0,0,0,0,0,-1,1938,554,0,0
721,470,0,0,0,0,0,0,0,0,0,-1,1945,554,0,0
728,470,0,0,0,0,0,0,0,0,0,-1,1952,554,0,0
735,470,0,0,0,0,0,0,0,0,0,-1,1959,554,0,0
742,470,0,0,0,0,0,0,0,0,0,-1,1966,554,0,0
749,470,0,0,0,0,0,0,0,0,0,-1,1973,554,0,0
756,470,0,0,0,0,0,0,0,0,0,-1,1980,554,0,0
763,470,0,0,0,0,0,0,0,0,0,-1,1987,554,0,0
770,470,0,0,0,0,0,0,0,0,0,-1,1994,554,0,0
777,470,0,0,0,0,0,0,0,0,0,-1,2001,554,0,0
784,470,0,0,0,0,0,0,0,0,0,-1,2008,554,0,0
791,470,0,0,0,0,0,0,0,0,0,-1,2015,554,0,0
798,470,0,0,0,0,0,0,0,0,0,-1,2022,554,0,0
805,470,0,0,0,0,0,0,0,0,0,-1,2029,554,0,0
812,470,0,0,0,0,0,0,0,0,0,-1,2036,554,0,0
-700,463,0,0,0,0,0,0,0,0,0,-1,524,561,0,0
-693,463,0,0,0,0,0,0,0,0,0,-1,531,561,0,0
-686,463,0,0,0,0,0,0,0,0,0,-1,538,561,0,0
-679,463,0,0,0,0,0,0,0,0,0,-1,545,561,0,0
-672,463,0,0,0,0,0,0,0,0,0,-1,552,561,0,0
-665,463,0,0,0,0,0,0,0,0,0,-1,559,561,0,0
-658,463,0,0,0,0,0,0,0,0,0,-1,566,561,0,0
-651,463,0,0,0,0,0,0,0,0,0,-1,573,561,0,0
-644,463,0,0,0,0,0,0,0,0,0,-1,580,561,0,0
-637,463,0,0,0,0,0,0,0,0,0,-1,587,561,0,0
-630,463,0,0,0,0,0,0,0,0,0,-1,594,561,0,0
-623,463,0,0,0,0,0,0,0,0,0,-1,601,561,0,0
-616,463,0,0,0,0,0,0,0,0,0,-1,608,561,0,0
-609,463,0,0,0,0,0,0,0,0,0,-1,615,561,0,0
-602,463,0,0,0,0,0,0,0,0,0,-1,622,561,0,0
-595,463,0,0,0,0,0,0,0,0,0,-1,629,561,0,0
-588,463,0,0,0,0,0,0,0,0,0,-1,636,561,0,0
-581,463,0,0,0,0,0,0,0,0,0,-1,643,561,0,0
-574,463,0,0,0,0,0,0,0,0,0,-1,650,561,0,0
-567,463,0,0,0,0,0,0,0,0,0,-1,657,561,0,0
-560,463,0,0,0,0,0,0,0,0,0,-1,664,561,0,0
-553,463,0,0,0,0,0,0,0,0,0,-1,671,561,0,0
-546,463,0,0,0,0,0,0,0,0,0,-1,678,561,0,0
-539,463,0,0,0,0,0,0,0,0,0,-1,685,561,0,0
-532,463,0,0,0,0,0,0,0,0,0,-1,692,561,0,0
-525,463,0,0,0,0,0,0,0,0,0,-1,699,561,0,0
-518,463,0,0,0,0,0,0,0,0,0,-1,706,561,0,0
-511,463,0,0,0,0,0,0,0,0,0,-1,713,561,0,0
-504,463,0,0,0,0,0,0,0,0,0,-1,720,561,0,0
-497,463,-11.5931,1.22791,0,0,0,0,0,0,0,-1,727,561,-11.5931,-1.2279
-490,463,-6.03046,2.0451,0,0,0,0,0,0,0,-1,734,561,-6.03045,-2.04509
-483,463,-5.01019,1.44458,0,0,0,0,0,0,0,-1,741,561,-5.01021,-1.4446
-476,463,-3.98999,0.844116,0,0,0,0,0,0,0,-1,748,561,-3.98997,-0.844116
-469,463,-3.07709,-1.4928,0,0,0,0,0,0,0,-1,755,561,-3.07709,1.49279
-462,463,-1.36017,-1.14777,0,0,0,0,0,0,0,-1,762,561,-1.36016,1.14774
-455,463,-1.34686,-2.98956,0,0,0,0,0,0,0,-1,769,561,-1.34685,2.98959
-448,463,-1.40002,-3.30579,0.0147152,0.0215242,-0.0155507,0.0340387,0.00220072,-0.893163,0.0219956,0.0447395,776,561,-1.40001,3.30581
-441,463,-1.44653,-3.72839,0.0105235,0.015582,-0.0113407,0.0246721,0.00143343,-0.895115,0.0159917,0.0328686,783,561,-1.44654,3.72839
-434,463,-1.59033,-3.97302,0.00779966,0.0112479,-0.00833442,0.0180347,0.00101291,-0.887394,0.0117001,0.0140425,790,561,-1.59034,3.97303
-427,463,-1.60992,-4.19226,0.00544994,0.00764689,-0.00567714,0.0123308,0.000765981,-0.880963,0.0079775,0.00931291,797,561,-1.60994,4.19226
-420,463,-1.5943,-4.41693,0.00378539,0.00512039,-0.00398521,0.00849361,0.000412164,-0.868375,0.00553014,0.0104516,804,561,-1.5943,4.41693
-413,463,-1.61523,-4.64978,0.00288121,0.00375637,-0.00284595,0.00619819,0.000439396,-0.861679,0.00399372,0.0096932,811,561,-1.61526,4.64977
-406,463,-1.63928,-4.86682,0.002307,0.00253776,-0.00186555,0.0042915,0.000553261,-0.816282,0.00269557,0.0093645,818,561,-1.63927,4.86684
-399,463,-1.62,-5.08386,0.00179938,0.00137697,-0.000982996,0.0025936,0.000582744,-0.679578,0.00157126,0.0100383,825,561,-1.62001,5.08384
-392,463,-1.62549,-5.29645,0.00137151,0.000202837,-0.000242708,0.00141992,0.000154437,-0.196836,0.000899561,0.00954453,832,561,-1.62547,5.29647
-385,463,-1.65613,-5.52734,0.00111665,-0.000779374,0.000316275,0.00116801,-0.00083074,0.161004,0.00115944,0.0102542,839,561,-1.6561,5.52735
-378,463,-1.64258,-5.76514,0.000953871,-0.00171866,0.000776798,0.00116325,-0.00192804,0.263285,0.00180287,0.011405,846,561,-1.64258,5.76515
-371,463,-1.61279,-5.97943,0.00108254,-0.002698,0.00103037,0.00134513,-0.00296058,0.249534,0.00254356,0.011219,853,561,-1.61279,5.97945
-364,463,-1.59546,-6.16571,0.00155493,-0.00358854,0.00108694,0.00177519,-0.00380881,0.199938,0.00329442,0.0134323,860,561,-1.59548,6.16572
-357,463,-1.61243,-6.36328,0.00251946,-0.00439017,0.000837834,0.0026196,-0.00449031,0.118959,0.004152,0.0165435,867,561,-1.61245,6.3633
-350,463,-1.57379,-6.59845,0.0039079,-0.00508875,0.000263258,0.0039156,-0.00509644,0.0292284,0.00521797,0.0180491,874,561,-1.57379,6.59844
-343,463,-1.43048,-6.73492,0.00564256,-0.00568129,-0.000609736,0.0056753,-0.00571402,-0.0536386,0.00657564,0.0319303,881,561,-1.43049,6.73492
-336,463,-1.34308,-6.93005,0.00743336,-0.00608544,-0.00177451,0.0076624,-0.00631449,-0.128366,0.00808206,0.0423522,888,561,-1.3431,6.93003
-329,463,-1.04504,-7.14221,0,0,0,0,0,0,0,-1,895,561,-1.04505,7.14218
-322,463,-0.454102,-6.53351,0,0,0,0,0,0,0,-1,902,561,-0.454091,6.53348
-315,463,-0.944763,-5.96234,0,0,0,0,0,0,0,-1,909,561,-0.94479,5.96237
-308,463,-1.1535,-3.17889,0,0,0,0,0,0,0,-1,916,561,-1.15352,3.17889
-301,463,-1.50366,-3.15338,0,0,0,0,0,0,0,-1,923,561,-1.50364,3.15341
-294,463,-2.35889,-3.93463,0,0,0,0,0,0,0,-1,930,561,-2.35886,3.93465
-287,463,-2.80322,2.73999,0,0,0,0,0,0,0,-1,937,561,-2.80322,-2.74
-280,463,-3.29858,2.24219,0,0,0,0,0,0,0,-1,944,561,-3.29859,-2.24221
-273,463,-5.54578,0.486755,0,0,0,0,0,0,0,-1,951,561,-5.54576,-0.486736
-266,463,-4.19269,-1.5509,0,0,0,0,0,0,0,-1,958,561,-4.19268,1.5509
-259,463,-2.19904,-3.58752,0,0,0,0,0,0,0,-1,965,561,-2.19904,3.58753
-252,463,0,0,0,0,0,0,0,0,0,-1,972,561,0,0
-245,463,0,0,0,0,0,0,0,0,0,-1,979,561,0,0
-238,463,0,0,0,0,0,0,0,0,0,-1,986,561,0,0
-231,463,0,0,0,0,0,0,0,0,0,-1,993,561,0,0
-224,463,0,0,0,0,0,0,0,0,0,-1,1000,561,0,0
-217,463,0,0,0,0,0,0,0,0,0,-1,1007,561,0,0
-210,463,0,0,0,0,0,0,0,0,0,-1,1014,561,0,0
-203,463,0,0,0,0,0,0,0,0,0,-1,1021,561,0,0
-196,463,0,0,0,0,0,0,0,0,0,-1,1028,561,0,0
-189,463,0,0,0,0,0,0,0,0,0,-1,1035,561,0,0
-182,463,0,0,0,0,0,0,0,0,0,-1,1042,561,0,0
-175,463,0,0,0,0,0,0,0,0,0,-1,1049,561,0,0
-168,463,0,0,0,0,0,0,0,0,0,-1,1056,561,0,0
-161,463,0,0,0,0,0,0,0,0,0,-1,1063,561,0,0
-154,463,0,0,0,0,0,0,0,0,0,-1,1070,561,0,0
-147,463,0,0,0,0,0,0,0,0,0,-1,1077,561,0,0
-140,463,0,0,0,0,0,0,0,0,0,-1,1084,561,0,0
-133,463,0,0,0,0,0,0,0,0,0,-1,1091,561,0,0
-126,463,0,0,0,0,0,0,0,0,0,-1,1098,561,0,0
-119,463,0,0,0,0,0,0,0,0,0,-1,1105,561,0,0
-112,463,0,0,0,0,0,0,0,0,0,-1,1112,561,0,0
-105,463,0,0,0,0,0,0,0,0,0,-1,1119,561,0,0
-98,463,0,0,0,0,0,0,0,0,0,-1,1126,561,0,0
-91,463,0,0,0,0,0,0,0,0,0,-1,1133,561,0,0
-84,463,0,0,0,0,0,0,0,0,0,-1,1140,561,0,0
-77,463,0,0,0,0,0,0,0,0,0,-1,1147,561,0,0
-70,463,0,0,0,0,0,0,0,0,0,-1,1154,561,0,0
-63,463,0,0,0,0,0,0,0,0,0,-1,1161,561,0,0
-56,463,0,0,0,0,0,0,0,0,0,-1,1168,561,0,0
-49,463,0,0,0,0,0,0,0,0,0,-1,1175,561,0,0
-42,463,0,0,0,0,0,0,0,0,0,-1,1182,561,0,0
-35,463,0,0,0,0,0,0,0,0,0,-1,1189,561,0,0
-28,463,0,0,0,0,0,0,0,0,0,-1,1196,561,0,0
-21,463,0,0,0,0,0,0,0,0,0,-1,1203,561,0,0
-14,463,0,0,0,0,0,0,0,0,0,-1,1210,561,0,0
-7,463,0,0,0,0,0,0,0,0,0,-1,1217,561,0,0
0,463,0,0,0,0,0,0,0,0,0,-1,1224,561,0,0
7,463,0,0,0,0,0,0,0,0,0,-1,1231,561,0,0
14,463,0,0,0,0,0,0,0,0,0,-1,1238,561,0,0
21,463,0,0,0,0,0,0,0,0,0,-1,1245,561,0,0
28,463,0,0,0,0,0,0,0,0,0,-1,1252,561,0,0
35,463,0,0,0,0,0,0,0,0,0,-1,1259,561,0,0
42,463,0,0,0,0,0,0,0,0,0,-1,1266,561,0,0
49,463,0,0,0,0,0,0,0,0,0,-1,1273,561,0,0
56,463,0,0,0,0,0,0,0,0,0,-1,1280,561,0,0
63,463,0,0,0,0,0,0,0,0,0,-1,1287,561,0,0
70,463,0,0,0,0,0,0,0,0,0,-1,1294,561,0,0
77,463,0,0,0,0,0,0,0,0,0,-1,1301,561,0,0
84,463,0,0,0,0,0,0,0,0,0,-1,1308,561,0,0
91,463,0,0,0,0,0,0,0,0,0,-1,1315,561,0,0
98,463,0,0,0,0,0,0,0,0,0,-1,1322,561,0,0
105,463,0,0,0,0,0,0,0,0,0,-1,1329,561,0,0
112,463,0,0,0,0,0,0,0,0,0,-1,1336,561,0,0
119,463,0,0,0,0,0,0,0,0,0,-1,1343,561,0,0
126,463,0,0,0,0,0,0,0,0,0,-1,1350,561,0,0
133,463,0,0,0,0,0,0,0,0,0,-1,1357,561,0,0
140,463,0,0,0,0,0,0,0,0,0,-1,1364,561,0,0
147,463,0,0,0,0,0,0,0,0,0,-1,1371,561,0,0
154,463,0,0,0,0,0,0,0,0,0,-1,1378,561,0,0
161,463,0,0,0,0,0,0,0,0,0,-1,1385,561,0,0
168,463,0,0,0,0,0,0,0,0,0,-1,1392,561,0,0
175,463,0,0,0,0,0,0,0,0,0,-1,1399,561,0,0
182,463,0,0,0,0,0,0,0,0,0,-1,1406,561,0,0
189,463,0,0,0,0,0,0,0,0,0,-1,1413,561,0,0
196,463,0,0,0,0,0,0,0,0,0,-1,1420,561,0,0
203,463,0,0,0,0,0,0,0,0,0,-1,1427,561,0,0
210,463,0,0,0,0,0,0,0,0,0,-1,1434,561,0,0
217,463,0,0,0,0,0,0,0,0,0,-1,1441,561,0,0
224,463,0,0,0,0,0,0,0,0,0,-1,1448,561,0,0
231,463,0,0,0,0,0,0,0,0,0,-1,1455,561,0,0
238,463,0,0,0,0,0,0,0,0,0,-1,1462,561,0,0
245,463,0,0,0,0,0,0,0,0,0,-1,1469,561,0,0
252,463,0,0,0,0,0,0,0,0,0,-1,1476,561,0,0
259,463,0,0,0,0,0,0,0,0,0,-1,1483,561,0,0
266,463,0,0,0,0,0,0,0,0,0,-1,1490,561,0,0
273,463,0,0,0,0,0,0,0,0,0,-1,1497,561,0,0
280,463,0,0,0,0,0,0,0,0,0,-1,1504,561,0,0
287,463,0,0,0,0,0,0,0,0,0,-1,1511,561,0,0
294,463,0,0,0,0,0,0,0,0,0,-1,1518,561,0,0
301,463,0,0,0,0,0,0,0,0,0,-1,1525,561,0,0
308,463,0,0,0,0,0,0,0,0,0,-1,1532,561,0,0
315,463,0,0,0,0,0,0,0,0,0,-1,1539,561,0,0
322,463,0,0,0,0,0,0,0,0,0,-1,1546,561,0,0
329,463,0,0,0,0,0,0,0,0,0,-1,1553,561,0,0
336,463,0,0,0,0,0,0,0,0,0,-1,1560,561,0,0
343,463,0,0,0,0,0,0,0,0,0,-1,1567,561,0,0
350,463,0,0,0,0,0,0,0,0,0,-1,1574,561,0,0
357,463,0,0,0,0,0,0,0,0,0,-1,1581,561,0,0
364,463,0,0,0,0,0,0,0,0,0,-1,1588,561,0,0
371,463,1.75842,0.152588,0,0,0,0,0,0,0,-1,1595,561,1.75844,-0.152558
378,463,4.30493,0.169861,0,0,0,0,0,0,0,-1,1602,561,4.30489,-0.169877
385,463,8.76331,1.01813,0,0,0,0,0,0,0,-1,1609,561,8.7633,-1.01813
392,463,12.6002,1.78589,0,0,0,0,0,0,0,-1,1616,561,12.6002,-1.78588
399,463,17.3484,3.3139,0,0,0,0,0,0,0,-1,1623,561,17.3483,-3.31391
406,463,7.28088,1.38538,0,0,0,0,0,0,0,-1,1630,561,7.28091,-1.38537
413,463,8.05847,1.82239,0,0,0,0,0,0,0,-1,1637,561,8.05851,-1.82241
420,463,8.849,2.26611,0,0,0,0,0,0,0,-1,1644,561,8.84899,-2.26613
427,463,5.12207,1.69183,0,0,0,0,0,0,0,-1,1651,561,5.12206,-1.69184
434,463,4.59814,1.81995,0,0,0,0,0,0,0,-1,1658,561,4.59812,-1.81994
441,463,1.76392,-5.99225,0,0,0,0,0,0,0,-1,1665,561,1.7639,5.99225
448,463,2.49939,-4.30536,0,0,0,0,0,0,0,-1,1672,561,2.49941,4.30536
455,463,4.40295,-3.02557,0,0,0,0,0,0,0,-1,1679,561,4.40299,3.02558
462,463,5.38293,-4.06445,0,0,0,0,0,0,0,-1,1686,561,5.38289,4.06444
469,463,5.94373,-4.50647,0,0,0,0,0,0,0,-1,1693,561,5.94368,4.50646
476,463,6.37158,-5.49377,0,0,0,0,0,0,0,-1,1700,561,6.37156,5.49377
483,463,6.64185,-5.16919,0.00278185,0.00346873,0.00129141,0.00446159,0.001789,0.915361,0.00259268,0.0366485,1707,561,6.64185,5.16922
490,463,6.78589,-4.78259,0.00319306,0.00312353,0.00165576,0.00481442,0.00150217,0.774902,0.00284434,0.0194801,1714,561,6.78589,4.78262
497,463,6.7915,-4.51215,0.00317278,0.00243951,0.00157309,0.0044214,0.00119089,0.670908,0.00264168,0.0124912,1721,561,6.79155,4.51214
504,463,6.78833,-4.28638,0.00279771,0.00177118,0.0013382,0.0037177,0.00085119,0.602275,0.00224908,0.0160816,1728,561,6.78831,4.28635
511,463,6.79688,-4.07037,0.00246713,0.001269,0.00127093,0.00327311,0.000463024,0.565162,0.00204528,0.0231867,1735,561,6.79691,4.0704
518,463,6.87659,-3.83539,0.00209329,0.00110027,0.00116389,0.00286215,0.000331412,0.583788,0.00180778,0.0236871,1742,561,6.87654,3.83537
525,463,6.83496,-3.57245,0.00171852,0.00121306,0.00110609,0.00260038,0.000331197,0.673082,0.00163441,0.0184386,1749,561,6.83497,3.57248
532,463,6.83118,-3.3103,0.00143007,0.0015821,0.00117596,0.0026845,0.00032767,0.817676,0.00169106,0.0158169,1756,561,6.83121,3.31031
539,463,6.80383,-3.07782,0.00126076,0.00208707,0.00135542,0.0030909,0.00025692,0.933333,0.00198053,0.0147636,1763,561,6.80385,3.07782
546,463,6.79529,-2.85596,0.00128319,0.00296747,0.00174177,0.00406,0.000190655,1.01058,0.00264541,0.0119848,1770,561,6.79529,2.85594
553,463,6.79675,-2.58813,0.00142679,0.00387248,0.00213373,0.00510893,0.000190333,1.0456,0.00334432,0.0112869,1777,561,6.79681,2.58816
560,463,6.80115,-2.30884,0.00165076,0.00488784,0.00258805,0.00632179,0.000216814,1.06484,0.00414414,0.0118071,1784,561,6.80113,2.30884
567,463,6.73889,-2.08423,0.00216658,0.00583688,0.00312633,0.00762688,0.000376582,1.0508,0.00496382,0.0169932,1791,561,6.73889,2.0842
574,463,6.72021,-2.00903,0.00268282,0.00682979,0.00359485,0.00890628,0.000606335,1.04699,0.00574608,0.0464922,1798,561,6.72026,2.00902
581,463,6.9043,-1.88416,0,0,0,0,0,0,0,-1,1805,561,6.90433,1.88414
588,463,1.97424,2.16016,0,0,0,0,0,0,0,-1,1812,561,1.97422,-2.16013
595,463,9.98657,2.99854,0,0,0,0,0,0,0,-1,1819,561,9.98662,-2.99856
602,463,15.0848,4.91132,0,0,0,0,0,0,0,-1,1826,561,15.0848,-4.91134
609,463,17.96,4.03131,0,0,0,0,0,0,0,-1,1833,561,17.96,-4.03132
616,463,20.8352,3.15131,0,0,0,0,0,0,0,-1,1840,561,20.8352,-3.1513
623,463,0,0,0,0,0,0,0,0,0,-1,1847,561,0,0
630,463,0,0,0,0,0,0,0,0,0,-1,1854,561,0,0
637,463,0,0,0,0,0,0,0,0,0,-1,1861,561,0,0
644,463,0,0,0,0,0,0,0,0,0,-1,1868,561,0,0
651,463,0,0,0,0,0,0,0,0,0,-1,1875,561,0,0
658,463,0,0,0,0,0,0,0,0,0,-1,1882,561,0,0
665,463,0,0,0,0,0,0,0,0,0,-1,1889,561,0,0
672,463,0,0,0,0,0,0,0,0,0,-1,1896,561,0,0
679,463,0,0,0,0,0,0,0,0,0,-1,1903,561,0,0
686,463,0,0,0,0,0,0,0,0,0,-1,1910,561,0,0
693,463,0,0,0,0,0,0,0,0,0,-1,1917,561,0,0
700,463,0,0,0,0,0,0,0,0,0,-1,1924,561,0,0
707,463,0,0,0,0,0,0,0,0,0,-1,1931,561,0,0
714,463,0,0,0,0,0,0,0,0,0,-1,1938,561,0,0
721,463,0,0,0,0,0,0,0,0,0,-1,1945,561,0,0
728,463,0,0,0,0,0,0,0,0,0,-1,1952,561,0,0
735,463,0,0,0,0,0,0,0,0,0,-1,1959,561,0,0
742,463,0,0,0,0,0,0,0,0,0,-1,1966,561,0,0
749,463,0,0,0,0,0,0,0,0,0,-1,1973,561,0,0
756,463,0,0,0,0,0,0,0,0,0,-1,1980,561,0,0
763,463,0,0,0,0,0,0,0,0,0,-1,1987,561,0,0
770,463,0,0,0,0,0,0,0,0,0,-1,1994,561,0,0
777,463,0,0,0,0,0,0,0,0,0,-1,2001,561,0,0
784,463,0,0,0,0,0,0,0,0,0,-1,2008,561,0,0
791,463,0,0,0,0,0,0,0,0,0,-1,2015,561,0,0
798,463,0,0,0,0,0,0,0,0,0,-1,2022,561,0,0
805,463,0,0,0,0,0,0,0,0,0,-1,2029,561,0,0
812,463,0,0,0,0,0,0,0,0,0,-1,2036,561,0,0
-700,456,0,0,0,0,0,0,0,0,0,-1,524,568,0,0
-693,456,0,0,0,0,0,0,0,0,0,-1,531,568,0,0
-686,456,0,0,0,0,0,0,0,0,0,-1,538,568,0,0
-679,456,0,0,0,0,0,0,0,0,0,-1,545,568,0,0
-672,456,0,0,0,0,0,0,0,0,0,-1,552,568,0,0
-665,456,0,0,0,0,0,0,0,0,0,-1,559,568,0,0
-658,456,0,0,0,0,0,0,0,0,0,-1,566,568,0,0
-651,456,0,0,0,0,0,0,0,0,0,-1,573,568,0,0
-644,456,0,0,0,0,0,0,0,0,0,-1,580,568,0,0
-637,456,0,0,0,0,0,0,0,0,0,-1,587,568,0,0
-630,456,0,0,0,0,0,0,0,0,0,-1,594,568,0,0
-623,456,0,0,0,0,0,0,0,0,0,-1,601,568,0,0
-616,456,0,0,0,0,0,0,0,0,0,-1,608,568,0,0
-609,456,0,0,0,0,0,0,0,0,0,-1,615,568,0,0
-602,456,0,0,0,0,0,0,0,0,0,-1,622,568,0,0
-595,456,0,0,0,0,0,0,0,0,0,-1,629,568,0,0
-588,456,0,0,0,0,0,0,0,0,0,-1,636,568,0,0
-581,456,0,0,0,0,0,0,0,0,0,-1,643,568,0,0
-574,456,0,0,0,0,0,0,0,0,0,-1,650,568,0,0
-567,456,0,0,0,0,0,0,0,0,0,-1,657,568,0,0
-560,456,0,0,0,0,0,0,0,0,0,-1,664,568,0,0
-553,456,0,0,0,0,0,0,0,0,0,-1,671,568,0,0
-546,456,0,0,0,0,0,0,0,0,0,-1,678,568,0,0
-539,456,0,0,0,0,0,0,0,0,0,-1,685,568,0,0
-532,456,0,0,0,0,0,0,0,0,0,-1,692,568,0,0
-525,456,0,0,0,0,0,0,0,0,0,-1,699,568,0,0
-518,456,0,0,0,0,0,0,0,0,0,-1,706,568,0,0
-511,456,0,0,0,0,0,0,0,0,0,-1,713,568,0,0
-504,456,-13.3015,0.873108,0,0,0,0,0,0,0,-1,720,568,-13.3015,-0.873114
-497,456,-12.4813,0.344604,0,0,0,0,0,0,0,-1,727,568,-12.4813,-0.344597
-490,456,-5.5083,1.51416,0,0,0,0,0,0,0,-1,734,568,-5.50828,-1.51418
-483,456,-4.47461,0.87439,0,0,0,0,0,0,0,-1,741,568,-4.47461,-0.874401
-476,456,-3.44092,0.234619,0,0,0,0,0,0,0,-1,748,568,-3.44094,-0.234624
-469,456,-2.81238,-3.51501,0,0,0,0,0,0,0,-1,755,568,-2.81237,3.51501
-462,456,-1.85754,-2.62897,0,0,0,0,0,0,0,-1,762,568,-1.85756,2.62898
-455,456,-1.75702,-3.0733,0,0,0,0,0,0,0,-1,769,568,-1.757,3.07333
-448,456,-1.73035,-3.43408,0.0114249,0.017769,-0.0127444,0.0277302,0.00146373,-0.907367,0.0180187,0.0331453,776,568,-1.73036,3.4341
-441,456,-1.76788,-3.76721,0.00780184,0.0128119,-0.00918587,0.0198282,0.000785555,-0.918513,0.0129649,0.0154847,783,568,-1.7679,3.7672
-434,456,-1.82086,-3.98285,0.00542484,0.00906616,-0.0066205,0.0141118,0.000379213,-0.919583,0.00928403,0.00918508,790,568,-1.82088,3.98285
-427,456,-1.82617,-4.19696,0.00332045,0.00585393,-0.00426665,0.00903791,0.000136467,-0.9297,0.0059803,0.00781118,797,568,-1.82617,4.19696
-420,456,-1.82794,-4.4129,0.0017396,0.00352538,-0.00267922,0.00545658,-0.000191596,-0.946243,0.00370324,0.00893978,804,568,-1.82793,4.4129
-413,456,-1.8396,-4.63788,0.000968522,0.00233668,-0.0016581,0.00344628,-0.000141074,-0.981045,0.00234596,0.00869517,811,568,-1.83963,4.63788
-406,456,-1.86542,-4.85529,0.000568978,0.00124115,-0.000768851,0.00174416,6.59677e-05,-0.991448,0.00114142,0.00873475,818,568,-1.86539,4.8553
-399,456,-1.86389,-5.06342,0.000251046,0.000107414,5.57709e-05,0.000270158,8.83019e-05,0.330148,0.000159063,0.00991008,825,568,-1.8639,5.06344
-392,456,-1.85425,-5.27899,-3.67993e-05,-0.00104823,0.00077207,0.000380437,-0.00146547,0.495452,0.00112543,0.00903066,832,568,-1.85422,5.27899
-385,456,-1.85693,-5.51135,-0.000163439,-0.00204282,0.00131778,0.000515377,-0.00272163,0.475671,0.00200838,0.00922179,839,568,-1.85692,5.51135
-378,456,-1.85864,-5.76556,-0.000185999,-0.0030479,0.00179754,0.000680608,-0.00391451,0.449231,0.00286363,0.0105708,846,568,-1.85863,5.76554
-371,456,-1.84406,-5.97943,0.000102357,-0.0040828,0.00208193,0.00096161,-0.00494205,0.391424,0.00365762,0.0109881,853,568,-1.84405,5.97944
-364,456,-1.82574,-6.16492,0.000754414,-0.00520015,0.00219524,0.00147622,-0.00592196,0.317671,0.00452111,0.0145451,860,568,-1.82575,6.1649
-357,456,-1.78815,-6.37579,0.00193275,-0.00630035,0.00199201,0.00238939,-0.00675699,0.225344,0.00547768,0.0176158,867,568,-1.78816,6.37582
-350,456,-1.6178,-6.46289,0.00357601,-0.0073921,0.00140618,0.00375343,-0.00756952,0.125503,0.00665991,0.0318844,874,568,-1.61779,6.46288
-343,456,-1.60809,-6.53479,0.00564071,-0.00840394,0.000490138,0.00565779,-0.00842103,0.034842,0.00818043,0.0410764,881,568,-1.60806,6.53477
-336,456,-1.48529,-6.93628,0.00792536,-0.00916342,-0.000821806,0.00796479,-0.00920285,-0.0479429,0.00992033,0.0493584,888,568,-1.48531,6.93629
-329,456,-1.16724,-7.11383,0,0,0,0,0,0,0,-1,895,568,-1.16724,7.11384
-322,456,-1.53802,-4.8894,0,0,0,0,0,0,0,-1,902,568,-1.53801,4.8894
-315,456,-0.675476,-3.38397,0,0,0,0,0,0,0,-1,909,568,-0.675473,3.38399
-308,456,-1.1618,-3.15314,0,0,0,0,0,0,0,-1,916,568,-1.16178,3.15314
-301,456,-1.83551,-3.26447,0,0,0,0,0,0,0,-1,923,568,-1.8355,3.26449
-294,456,-2.93414,-3.35449,0,0,0,0,0,0,0,-1,930,568,-2.93413,3.35451
-287,456,-3.7569,-3.53101,0,0,0,0,0,0,0,-1,937,568,-3.75692,3.53101
-280,456,-3.58478,1.37744,0,0,0,0,0,0,0,-1,944,568,-3.58476,-1.37746
-273,456,-5.48199,0.679199,0,0,0,0,0,0,0,-1,951,568,-5.482,-0.679176
-266,456,-3.95667,-0.68927,0,0,0,0,0,0,0,-1,958,568,-3.95667,0.689273
-259,456,0,0,0,0,0,0,0,0,0,-1,965,568,0,0
-252,456,0,0,0,0,0,0,0,0,0,-1,972,568,0,0
-245,456,0,0,0,0,0,0,0,0,0,-1,979,568,0,0
-238,456,0,0,0,0,0,0,0,0,0,-1,986,568,0,0
-231,456,0,0,0,0,0,0,0,0,0,-1,993,568,0,0
-224,456,0,0,0,0,0,0,0,0,0,-1,1000,568,0,0
-217,456,0,0,0,0,0,0,0,0,0,-1,1007,568,0,0
-210,456,0,0,0,0,0,0,0,0,0,-1,1014,568,0,0
-203,456,0,0,0,0,0,0,0,0,0,-1,1021,568,0,0
-196,456,0,0,0,0,0,0,0,0,0,-1,1028,568,0,0
-189,456,0,0,0,0,0,0,0,0,0,-1,1035,568,0,0
-182,456,0,0,0,0,0,0,0,0,0,-1,1042,568,0,0
-175,456,0,0,0,0,0,0,0,0,0,-1,1049,568,0,0
-168,456,0,0,0,0,0,0,0,0,0,-1,1056,568,0,0
-161,456,0,0,0,0,0,0,0,0,0,-1,1063,568,0,0
-154,456,0,0,0,0,0,0,0,0,0,-1,1070,568,0,0
-147,456,0,0,0,0,0,0,0,0,0,-1,1077,568,0,0
-140,456,0,0,0,0,0,0,0,0,0,-1,1084,568,0,0
-133,456,0,0,0,0,0,0,0,0,0,-1,1091,568,0,0
-126,456,0,0,0,0,0,0,0,0,0,-1,1098,568,0,0
-119,456,0,0,0,0,0,0,0,0,0,-1,1105,568,0,0
-112,456,0,0,0,0,0,0,0,0,0,-1,1112,568,0,0
-105,456,0,0,0,0,0,0,0,0,0,-1,1119,568,0,0
-98,456,0,0,0,0,0,0,0,0,0,-1,1126,568,0,0
-91,456,0,0,0,0,0,0,0,0,0,-1,1133,568,0,0
-84,456,0,0,0,0,0,0,0,0,0,-1,1140,568,0,0
-77,456,0,0,0,0,0,0,0,0,0,-1,1147,568,0,0
-70,456,0,0,0,0,0,0,0,0,0,-1,1154,568,0,0
-63,456,0,0,0,0,0,0,0,0,0,-1,1161,568,0,0
-56,456,0,0,0,0,0,0,0,0,0,-1,1168,568,0,0
-49,456,0,0,0,0,0,0,0,0,0,-1,1175,568,0,0
-42,456,0,0,0,0,0,0,0,0,0,-1,1182,568,0,0
-35,456,0,0,0,0,0,0,0,0,0,-1,1189,568,0,0
-28,456,0,0,0,0,0,0,0,0,0,-1,1196,568,0,0
-21,456,0,0,0,0,0,0,0,0,0,-1,1203,568,0,0
-14,456,0,0,0,0,0,0,0,0,0,-1,1210,568,0,0
-7,456,0,0,0,0,0,0,0,0,0,-1,1217,568,0,0
0,456,0,0,0,0,0,0,0,0,0,-1,1224,568,0,0
7,456,0,0,0,0,0,0,0,0,0,-1,1231,568,0,0
14,456,0,0,0,0,0,0,0,0,0,-1,1238,568,0,0
21,456,0,0,0,0,0,0,0,0,0,-1,1245,568,0,0
28,456,0,0,0,0,0,0,0,0,0,-1,1252,568,0,0
35,456,0,0,0,0,0,0,0,0,0,-1,1259,568,0,0
42,456,0,0,0,0,0,0,0,0,0,-1,1266,568,0,0
49,456,0,0,0,0,0,0,0,0,0,-1,1273,568,0,0
56,456,0,0,0,0,0,0,0,0,0,-1,1280,568,0,0
63,456,0,0,0,0,0,0,0,0,0,-1,1287,568,0,0
70,456,0,0,0,0,0,0,0,0,0,-1,1294,568,0,0
77,456,0,0,0,0,0,0,0,0,0,-1,1301,568,0,0
84,456,0,0,0,0,0,0,0,0,0,-1,1308,568,0,0
91,456,0,0,0,0,0,0,0,0,0,-1,1315,568,0,0
98,456,0,0,0,0,0,0,0,0,0,-1,1322,568,0,0
105,456,0,0,0,0,0,0,0,0,0,-1,1329,568,0,0
112,456,0,0,0,0,0,0,0,0,0,-1,1336,568,0,0
119,456,0,0,0,0,0,0,0,0,0,-1,1343,568,0,0
126,456,0,0,0,0,0,0,0,0,0,-1,1350,568,0,0
133,456,0,0,0,0,0,0,0,0,0,-1,1357,568,0,0
140,456,0,0,0,0,0,0,0,0,0,-1,1364,568,0,0
147,456,0,0,0,0,0,0,0,0,0,-1,1371,568,0,0
154,456,0,0,0,0,0,0,0,0,0,-1,1378,568,0,0
161,456,0,0,0,0,0,0,0,0,0,-1,1385,568,0,0
168,456,0,0,0,0,0,0,0,0,0,-1,1392,568,0,0
175,456,0,0,0,0,0,0,0,0,0,-1,1399,568,0,0
182,456,0,0,0,0,0,0,0,0,0,-1,1406,568,0,0
189,456,0,0,0,0,0,0,0,0,0,-1,1413,568,0,0
196,456,0,0,0,0,0,0,0,0,0,-1,1420,568,0,0
203,456,0,0,0,0,0,0,0,0,0,-1,1427,568,0,0
210,456,0,0,0,0,0,0,0,0,0,-1,1434,568,0,0
217,456,0,0,0,0,0,0,0,0,0,-1,1441,568,0,0
224,456,0,0,0,0,0,0,0,0,0,-1,1448,568,0,0
231,456,0,0,0,0,0,0,0,0,0,-1,1455,568,0,0
238,456,0,0,0,0,0,0,0,0,0,-1,1462,568,0,0
245,456,0,0,0,0,0,0,0,0,0,-1,1469,568,0,0
252,456,0,0,0,0,0,0,0,0,0,-1,1476,568,0,0
259,456,0,0,0,0,0,0,0,0,0,-1,1483,568,0,0
266,456,0,0,0,0,0,0,0,0,0,-1,1490,568,0,0
273,456,0,0,0,0,0,0,0,0,0,-1,1497,568,0,0
280,456,0,0,0,0,0,0,0,0,0,-1,1504,568,0,0
287,456,0,0,0,0,0,0,0,0,0,-1,1511,568,0,0
294,456,0,0,0,0,0,0,0,0,0,-1,1518,568,0,0
301,456,0,0,0,0,0,0,0,0,0,-1,1525,568,0,0
308,456,0,0,0,0,0,0,0,0,0,-1,1532,568,0,0
315,456,0,0,0,0,0,0,0,0,0,-1,1539,568,0,0
322,456,0,0,0,0,0,0,0,0,0,-1,1546,568,0,0
329,456,0,0,0,0,0,0,0,0,0,-1,1553,568,0,0
336,456,0,0,0,0,0,0,0,0,0,-1,1560,568,0,0
343,456,0,0,0,0,0,0,0,0,0,-1,1567,568,0,0
350,456,0,0,0,0,0,0,0,0,0,-1,1574,568,0,0
357,456,0,0,0,0,0,0,0,0,0,-1,1581,568,0,0
364,456,0,0,0,0,0,0,0,0,0,-1,1588,568,0,0
371,456,0,0,0,0,0,0,0,0,0,-1,1595,568,0,0
378,456,0,0,0,0,0,0,0,0,0,-1,1602,568,0,0
385,456,5.66284,0.660645,0,0,0,0,0,0,0,-1,1609,568,5.66285,-0.660615
392,456,13.5154,3.86682,0,0,0,0,0,0,0,-1,1616,568,13.5153,-3.86685
399,456,16.0734,3.72198,0,0,0,0,0,0,0,-1,1623,568,16.0734,-3.72199
406,456,18.6315,3.57715,0,0,0,0,0,0,0,-1,1630,568,18.6315,-3.57713
413,456,9.55115,1.49933,0,0,0,0,0,0,0,-1,1637,568,9.55119,-1.49933
420,456,6.33875,1.88824,0,0,0,0,0,0,0,-1,1644,568,6.33876,-1.88827
427,456,6.21375,2.02905,0,0,0,0,0,0,0,-1,1651,568,6.21372,-2.02904
434,456,3.0719,-4.86285,0,0,0,0,0,0,0,-1,1658,568,3.07184,4.86287
441,456,2.90344,-4.70459,0,0,0,0,0,0,0,-1,1665,568,2.90346,4.7046
448,456,3.06995,-4.93689,0,0,0,0,0,0,0,-1,1672,568,3.06991,4.93687
455,456,3.46582,-3.43701,0,0,0,0,0,0,0,-1,1679,568,3.46585,3.43698
462,456,4.68445,-4.45831,0,0,0,0,0,0,0,-1,1686,568,4.68439,4.45833
469,456,4.93201,-2.289,0,0,0,0,0,0,0,-1,1693,568,4.93197,2.28903
476,456,4.8363,-2.79364,0,0,0,0,0,0,0,-1,1700,568,4.83636,2.79363
483,456,6.56042,-5.54486,0,0,0,0,0,0,0,-1,1707,568,6.56044,5.54484
490,456,6.93481,-4.93109,0,0,0,0,0,0,0,-1,1714,568,6.93477,4.93108
497,456,7.06055,-4.58545,0.00445031,0.00296143,0.00224031,0.00606663,0.00134511,0.624991,0.00367895,0.0342121,1721,568,7.06056,4.58544
504,456,7.02307,-4.27698,0.00383851,0.00209319,0.00182486,0.00498863,0.000943073,0.562367,0.00306022,0.0114671,1728,568,7.02308,4.27699
511,456,7.05005,-4.03467,0.00325178,0.0012956,0.00155255,0.00410865,0.000438729,0.504308,0.0026052,0.0145027,1735,568,7.05005,4.03468
518,456,7.06482,-3.81726,0.00272327,0.00104052,0.00134866,0.00347148,0.000292306,0.506509,0.0022233,0.0173158,1742,568,7.06477,3.81729
525,456,7.04626,-3.58972,0.00218553,0.00106582,0.00120459,0.00295401,0.000297341,0.567865,0.00187809,0.0164393,1749,568,7.0463,3.58972
532,456,7.05676,-3.30627,0.00172945,0.00127876,0.00114488,0.00267095,0.000337263,0.688227,0.00167954,0.0149088,1756,568,7.05682,3.30629
539,456,7.03809,-3.0686,0.00137181,0.0015463,0.00114793,0.0026103,0.000307812,0.823327,0.00164721,0.0173607,1763,568,7.03803,3.06857
546,456,7.02649,-2.84137,0.00120494,0.00215052,0.00134265,0.00310119,0.000254264,0.954685,0.00198813,0.0201602,1770,568,7.02648,2.84136
553,456,7.01465,-2.58771,0.00115172,0.00270429,0.00152302,0.00363744,0.000218557,1.02109,0.00235549,0.0136306,1777,568,7.01469,2.58772
560,456,7.02441,-2.33276,0.00113387,0.00331772,0.00174064,0.00428058,0.000171009,1.06553,0.00279846,0.00970838,1784,568,7.02443,2.33279
567,456,7.03162,-2.05573,0.00133355,0.00387194,0.00202247,0.00499047,0.000215022,1.06561,0.00325767,0.0134011,1791,568,7.03161,2.05574
574,456,6.99963,-1.95612,0.00157102,0.00438822,0.00224326,0.00562846,0.000330781,1.06575,0.00364705,0.0359211,1798,568,6.99967,1.95613
581,456,7.04297,-1.82672,0,0,0,0,0,0,0,-1,1805,568,7.04292,1.8267
588,456,5.23901,-0.0901489,0,0,0,0,0,0,0,-1,1812,568,5.23906,0.0901656
595,456,6.90063,3.14886,0,0,0,0,0,0,0,-1,1819,568,6.90066,-3.14887
602,456,12.3827,4.21948,0,0,0,0,0,0,0,-1,1826,568,12.3827,-4.21951
609,456,14.9966,3.5708,0,0,0,0,0,0,0,-1,1833,568,14.9966,-3.57083
616,456,17.7407,2.6579,0,0,0,0,0,0,0,-1,1840,568,17.7408,-2.6579
623,456,20.6838,1.7121,0,0,0,0,0,0,0,-1,1847,568,20.6838,-1.71208
630,456,0,0,0,0,0,0,0,0,0,-1,1854,568,0,0
637,456,0,0,0,0,0,0,0,0,0,-1,1861,568,0,0
644,456,0,0,0,0,0,0,0,0,0,-1,1868,568,0,0
651,456,0,0,0,0,0,0,0,0,0,-1,1875,568,0,0
658,456,0,0,0,0,0,0,0,0,0,-1,1882,568,0,0
665,456,0,0,0,0,0,0,0,0,0,-1,1889,568,0,0
672,456,0,0,0,0,0,0,0,0,0,-1,1896,568,0,0
679,456,0,0,0,0,0,0,0,0,0,-1,1903,568,0,0
686,456,0,0,0,0,0,0,0,0,0,-1,1910,568,0,0
693,456,0,0,0,0,0,0,0,0,0,-1,1917,568,0,0
700,456,0,0,0,0,0,0,0,0,0,-1,1924,568,0,0
707,456,0,0,0,0,0,0,0,0,0,-1,1931,568,0,0
714,456,0,0,0,0,0,0,0,0,0,-1,1938,568,0,0
721,456,0,0,0,0,0,0,0,0,0,-1,1945,568,0,0
728,456,0,0,0,0,0,0,0,0,0,-1,1952,568,0,0
735,456,0,0,0,0,0,0,0,0,0,-1,1959,568,0,0
742,456,0,0,0,0,0,0,0,0,0,-1,1966,568,0,0
749,456,0,0,0,0,0,0,0,0,0,-1,1973,568,0,0
756,456,0,0,0,0,0,0,0,0,0,-1,1980,568,0,0
763,456,0,0,0,0,0,0,0,0,0,-1,1987,568,0,0
770,456,0,0,0,0,0,0,0,0,0,-1,1994,568,0,0
777,456,0,0,0,0,0,0,0,0,0,-1,2001,568,0,0
784,456,0,0,0,0,0,0,0,0,0,-1,2008,568,0,0
791,456,0,0,0,0,0,0,0,0,0,-1,2015,568,0,0
798,456,0,0,0,0,0,0,0,0,0,-1,2022,568,0,0
805,456,0,0,0,0,0,0,0,0,0,-1,2029,568,0,0
812,456,0,0,0,0,0,0,0,0,0,-1,2036,568,0,0
-700,449,0,0,0,0,0,0,0,0,0,-1,524,575,0,0
-693,449,0,0,0,0,0,0,0,0,0,-1,531,575,0,0
-686,449,0,0,0,0,0,0,0,0,0,-1,538,575,0,0
-679,449,0,0,0,0,0,0,0,0,0,-1,545,575,0,0
-672,449,0,0,0,0,0,0,0,0,0,-1,552,575,0,0
-665,449,0,0,0,0,0,0,0,0,0,-1,559,575,0,0
-658,449,0,0,0,0,0,0,0,0,0,-1,566,575,0,0
-651,449,0,0,0,0,0,0,0,0,0,-1,573,575,0,0
-644,449,0,0,0,0,0,0,0,0,0,-1,580,575,0,0
-637,449,0,0,0,0,0,0,0,0,0,-1,587,575,0,0
-630,449,0,0,0,0,0,0,0,0,0,-1,594,575,0,0
-623,449,0,0,0,0,0,0,0,0,0,-1,601,575,0,0
-616,449,0,0,0,0,0,0,0,0,0,-1,608,575,0,0
-609,449,0,0,0,0,0,0,0,0,0,-1,615,575,0,0
-602,449,0,0,0,0,0,0,0,0,0,-1,622,575,0,0
-595,449,0,0,0,0,0,0,0,0,0,-1,629,575,0,0
-588,449,0,0,0,0,0,0,0,0,0,-1,636,575,0,0
-581,449,0,0,0,0,0,0,0,0,0,-1,643,575,0,0
-574,449,0,0,0,0,0,0,0,0,0,-1,650,575,0,0
-567,449,0,0,0,0,0,0,0,0,0,-1,657,575,0,0
-560,449,0,0,0,0,0,0,0,0,0,-1,664,575,0,0
-553,449,0,0,0,0,0,0,0,0,0,-1,671,575,0,0
-546,449,0,0,0,0,0,0,0,0,0,-1,678,575,0,0
-539,449,0,0,0,0,0,0,0,0,0,-1,685,575,0,0
-532,449,0,0,0,0,0,0,0,0,0,-1,692,575,0,0
-525,449,0,0,0,0,0,0,0,0,0,-1,699,575,0,0
-518,449,0,0,0,0,0,0,0,0,0,-1,706,575,0,0
-511,449,-0.941345,-4.4519,0,0,0,0,0,0,0,-1,713,575,-0.941356,4.45191
-504,449,-14.1078,0.318237,0,0,0,0,0,0,0,-1,720,575,-14.1078,-0.318231
-497,449,-5.80096,1.13574,0,0,0,0,0,0,0,-1,727,575,-5.80098,-1.13577
-490,449,-4.97058,0.830383,0,0,0,0,0,0,0,-1,734,575,-4.97057,-0.830372
-483,449,-4.01819,0.273499,0,0,0,0,0,0,0,-1,741,575,-4.01817,-0.273512
-476,449,-2.62128,-0.568298,0,0,0,0,0,0,0,-1,748,575,-2.62127,0.568324
-469,449,-2.04388,-2.23688,0,0,0,0,0,0,0,-1,755,575,-2.0439,2.23688
-462,449,-2.06946,-2.81238,0.0205042,0.0280294,-0.0199974,0.0446151,0.00391857,-0.878388,0.0285271,0.048485,762,575,-2.06946,2.81239
-455,449,-2.15582,-3.25177,0.0139258,0.0203037,-0.0146389,0.032097,0.00213253,-0.892644,0.0207237,0.0473952,769,575,-2.15582,3.25178
-448,449,-2.03735,-3.50885,0.0091533,0.0145717,-0.010511,0.022717,0.001008,-0.911528,0.0148201,0.022954,776,575,-2.03736,3.50885
-441,449,-2.034,-3.7937,0.00604752,0.0104719,-0.00752299,0.0161012,0.000418216,-0.928396,0.0105975,0.0125132,783,575,-2.03398,3.79372
-434,449,-2.05591,-3.99042,0.00394197,0.00726421,-0.00528237,0.0111405,6.56969e-05,-0.937735,0.00740519,0.0105679,790,575,-2.0559,3.99039
-427,449,-2.06268,-4.20337,0.00203029,0.00441561,-0.00315954,0.00660009,-0.000154196,-0.965869,0.00445235,0.011373,797,575,-2.06266,4.20339
-420,449,-2.06342,-4.41559,0.000465248,0.00225134,-0.00159999,0.00319064,-0.000474057,-1.03994,0.00230145,0.0120569,804,575,-2.06339,4.41559
-413,449,-2.06836,-4.63251,-0.000250534,0.00118737,-0.000621008,0.00141844,-0.000481605,-1.21458,0.00114058,0.00970284,811,575,-2.06833,4.63252
-406,449,-2.08832,-4.85486,-0.000579018,0.00017247,0.000251454,0.000248846,-0.000655395,1.27591,0.000539366,0.0086398,818,575,-2.0883,4.85488
-399,449,-2.09125,-5.07886,-0.000821262,-0.000979468,0.00109325,0.000195745,-0.00199648,0.749283,0.0014008,0.00842703,825,575,-2.09127,5.07883
-392,449,-2.06256,-5.29712,-0.0010925,-0.00217015,0.00186818,0.000313005,-0.00357566,0.644997,0.00249466,0.00937844,832,575,-2.06257,5.29715
-385,449,-2.0484,-5.5094,-0.00123029,-0.00325805,0.00249064,0.000444927,-0.00493326,0.592102,0.00344673,0.0105383,839,575,-2.0484,5.5094
-378,449,-2.0611,-5.72821,-0.00127184,-0.00443231,0.00309009,0.000618631,-0.00632279,0.54904,0.0044358,0.00992843,846,575,-2.06107,5.7282
-371,449,-2.07489,-5.95715,-0.00100131,-0.00564908,0.00352484,0.000896761,-0.00754715,0.493959,0.00535544,0.0106134,853,575,-2.07492,5.95712
-364,449,-2.05591,-6.18304,-0.00035461,-0.00715138,0.00382331,0.00136235,-0.00886833,0.422085,0.00641474,0.0183723,860,575,-2.05593,6.18303
-357,449,-1.87305,-6.32745,0.000809406,-0.00875409,0.0037914,0.0021301,-0.0100748,0.335195,0.00752769,0.0323468,867,575,-1.87303,6.32745
-350,449,-1.55914,-6.05212,0.00244866,-0.010487,0.00332791,0.0032546,-0.011293,0.237603,0.00881608,0.0491626,874,575,-1.55913,6.05213
-343,449,-1.79553,-6.39746,0,0,0,0,0,0,0,-1,881,575,-1.79553,6.39745
-336,449,-1.71143,-6.97327,0,0,0,0,0,0,0,-1,888,575,-1.71142,6.97328
-329,449,-1.21906,-3.34039,0,0,0,0,0,0,0,-1,895,575,-1.21906,3.34039
-322,449,-0.628845,-3.16669,0,0,0,0,0,0,0,-1,902,575,-0.628861,3.16667
-315,449,-0.540344,-3.21918,0,0,0,0,0,0,0,-1,909,575,-0.540336,3.21917
-308,449,-1.04413,-2.99341,0,0,0,0,0,0,0,-1,916,575,-1.04415,2.99338
-301,449,-1.58691,-2.80725,0,0,0,0,0,0,0,-1,923,575,-1.58692,2.80728
-294,449,-3.71118,-2.76086,0,0,0,0,0,0,0,-1,930,575,-3.71119,2.76087
-287,449,-4.4082,-2.69525,0,0,0,0,0,0,0,-1,937,575,-4.40822,2.69526
-280,449,-5.09955,-2.96295,0,0,0,0,0,0,0,-1,944,575,-5.09953,2.96297
-273,449,0,0,0,0,0,0,0,0,0,-1,951,575,0,0
-266,449,0,0,0,0,0,0,0,0,0,-1,958,575,0,0
-259,449,0,0,0,0,0,0,0,0,0,-1,965,575,0,0
-252,449,0,0,0,0,0,0,0,0,0,-1,972,575,0,0
-245,449,0,0,0,0,0,0,0,0,0,-1,979,575,0,0
-238,449,0,0,0,0,0,0,0,0,0,-1,986,575,0,0
-231,449,0,0,0,0,0,0,0,0,0,-1,993,575,0,0
-224,449,0,0,0,0,0,0,0,0,0,-1,1000,575,0,0
-217,449,0,0,0,0,0,0,0,0,0,-1,1007,575,0,0
-210,449,0,0,0,0,0,0,0,0,0,-1,1014,575,0,0
-203,449,0,0,0,0,0,0,0,0,0,-1,1021,575,0,0
-196,449,0,0,0,0,0,0,0,0,0,-1,1028,575,0,0
-189,449,0,0,0,0,0,0,0,0,0,-1,1035,575,0,0
-182,449,0,0,0,0,0,0,0,0,0,-1,1042,575,0,0
-175,449,0,0,0,0,0,0,0,0,0,-1,1049,575,0,0
-168,449,0,0,0,0,0,0,0,0,0,-1,1056,575,0,0
-161,449,0,0,0,0,0,0,0,0,0,-1,1063,575,0,0
-154,449,0,0,0,0,0,0,0,0,0,-1,1070,575,0,0
-147,449,0,0,0,0,0,0,0,0,0,-1,1077,575,0,0
-140,449,0,0,0,0,0,0,0,0,0,-1,1084,575,0,0
-133,449,0,0,0,0,0,0,0,0,0,-1,1091,575,0,0
-126,449,0,0,0,0,0,0,0,0,0,-1,1098,575,0,0
-119,449,0,0,0,0,0,0,0,0,0,-1,1105,575,0,0
-112,449,0,0,0,0,0,0,0,0,0,-1,1112,575,0,0
-105,449,0,0,0,0,0,0,0,0,0,-1,1119,575,0,0
-98,449,0,0,0,0,0,0,0,0,0,-1,1126,575,0,0
-91,449,0,0,0,0,0,0,0,0,0,-1,1133,575,0,0
-84,449,0,0,0,0,0,0,0,0,0,-1,1140,575,0,0
-77,449,0,0,0,0,0,0,0,0,0,-1,1147,575,0,0
-70,449,0,0,0,0,0,0,0,0,0,-1,1154,575,0,0
-63,449,0,0,0,0,0,0,0,0,0,-1,1161,575,0,0
-56,449,0,0,0,0,0,0,0,0,0,-1,1168,575,0,0
-49,449,0,0,0,0,0,0,0,0,0,-1,1175,575,0,0
-42,449,0,0,0,0,0,0,0,0,0,-1,1182,575,0,0
-35,449,0,0,0,0,0,0,0,0,0,-1,1189,575,0,0
-28,449,0,0,0,0,0,0,0,0,0,-1,1196,575,0,0
-21,449,0,0,0,0,0,0,0,0,0,-1,1203,575,0,0
-14,449,0,0,0,0,0,0,0,0,0,-1,1210,575,0,0
-7,449,0,0,0,0,0,0,0,0,0,-1,1217,575,0,0
0,449,0,0,0,0,0,0,0,0,0,-1,1224,575,0,0
7,449,0,0,0,0,0,0,0,0,0,-1,1231,575,0,0
14,449,0,0,0,0,0,0,0,0,0,-1,1238,575,0,0
21,449,0,0,0,0,0,0,0,0,0,-1,1245,575,0,0
28,449,0,0,0,0,0,0,0,0,0,-1,1252,575,0,0
35,449,0,0,0,0,0,0,0,0,0,-1,1259,575,0,0
42,449,0,0,0,0,0,0,0,0,0,-1,1266,575,0,0
49,449,0,0,0,0,0,0,0,0,0,-1,1273,575,0,0
56,449,0,0,0,0,0,0,0,0,0,-1,1280,575,0,0
63,449,0,0,0,0,0,0,0,0,0,-1,1287,575,0,0
70,449,0,0,0,0,0,0,0,0,0,-1,1294,575,0,0
77,449,0,0,0,0,0,0,0,0,0,-1,1301,575,0,0
84,449,0,0,0,0,0,0,0,0,0,-1,1308,575,0,0
91,449,0,0,0,0,0,0,0,0,0,-1,1315,575,0,0
98,449,0,0,0,0,0,0,0,0,0,-1,1322,575,0,0
105,449,0,0,0,0,0,0,0,0,0,-1,1329,575,0,0
112,449,0,0,0,0,0,0,0,0,0,-1,1336,575,0,0
119,449,0,0,0,0,0,0,0,0,0,-1,1343,575,0,0
126,449,0,0,0,0,0,0,0,0,0,-1,1350,575,0,0
133,449,0,0,0,0,0,0,0,0,0,-1,1357,575,0,0
140,449,0,0,0,0,0,0,0,0,0,-1,1364,575,0,0
147,449,0,0,0,0,0,0,0,0,0,-1,1371,575,0,0
154,449,0,0,0,0,0,0,0,0,0,-1,1378,575,0,0
161,449,0,0,0,0,0,0,0,0,0,-1,1385,575,0,0
168,449,0,0,0,0,0,0,0,0,0,-1,1392,575,0,0
175,449,0,0,0,0,0,0,0,0,0,-1,1399,575,0,0
182,449,0,0,0,0,0,0,0,0,0,-1,1406,575,0,0
189,449,0,0,0,0,0,0,0,0,0,-1,1413,575,0,0
196,449,0,0,0,0,0,0,0,0,0,-1,1420,575,0,0
203,449,0,0,0,0,0,0,0,0,0,-1,1427,575,0,0
210,449,0,0,0,0,0,0,0,0,0,-1,1434,575,0,0
217,449,0,0,0,0,0,0,0,0,0,-1,1441,575,0,0
224,449,0,0,0,0,0,0,0,0,0,-1,1448,575,0,0
231,449,0,0,0,0,0,0,0,0,0,-1,1455,575,0,0
238,449,0,0,0,0,0,0,0,0,0,-1,1462,575,0,0
245,449,0,0,0,0,0,0,0,0,0,-1,1469,575,0,0
252,449,0,0,0,0,0,0,0,0,0,-1,1476,575,0,0
259,449,0,0,0,0,0,0,0,0,0,-1,1483,575,0,0
266,449,0,0,0,0,0,0,0,0,0,-1,1490,575,0,0
273,449,0,0,0,0,0,0,0,0,0,-1,1497,575,0,0
280,449,0,0,0,0,0,0,0,0,0,-1,1504,575,0,0
287,449,0,0,0,0,0,0,0,0,0,-1,1511,575,0,0
294,449,0,0,0,0,0,0,0,0,0,-1,1518,575,0,0
301,449,0,0,0,0,0,0,0,0,0,-1,1525,575,0,0
308,449,0,0,0,0,0,0,0,0,0,-1,1532,575,0,0
315,449,0,0,0,0,0,0,0,0,0,-1,1539,575,0,0
322,449,0,0,0,0,0,0,0,0,0,-1,1546,575,0,0
329,449,0,0,0,0,0,0,0,0,0,-1,1553,575,0,0
336,449,0,0,0,0,0,0,0,0,0,-1,1560,575,0,0
343,449,0,0,0,0,0,0,0,0,0,-1,1567,575,0,0
350,449,0,0,0,0,0,0,0,0,0,-1,1574,575,0,0
357,449,0,0,0,0,0,0,0,0,0,-1,1581,575,0,0
364,449,0,0,0,0,0,0,0,0,0,-1,1588,575,0,0
371,449,0,0,0,0,0,0,0,0,0,-1,1595,575,0,0
378,449,0,0,0,0,0,0,0,0,0,-1,1602,575,0,0
385,449,0,0,0,0,0,0,0,0,0,-1,1609,575,0,0
392,449,7.95471,3.66217,0,0,0,0,0,0,0,-1,1616,575,7.95471,-3.66218
399,449,14.7985,4.13007,0,0,0,0,0,0,0,-1,1623,575,14.7985,-4.13007
406,449,15.4888,3.6402,0,0,0,0,0,0,0,-1,1630,575,15.4888,-3.64021
413,449,15.5376,2.44122,0,0,0,0,0,0,0,-1,1637,575,15.5376,-2.44124
420,449,4.70264,2.21893,0,0,0,0,0,0,0,-1,1644,575,4.70263,-2.21894
427,449,8.96924,-4.53351,0,0,0,0,0,0,0,-1,1651,575,8.96925,4.53353
434,449,4.12927,-7.06952,0,0,0,0,0,0,0,-1,1658,575,4.12932,7.06952
441,449,3.89856,-6.06458,0,0,0,0,0,0,0,-1,1665,575,3.89855,6.06459
448,449,4.03198,-5.18207,0,0,0,0,0,0,0,-1,1672,575,4.03197,5.18207
455,449,4.21948,-4.09467,0,0,0,0,0,0,0,-1,1679,575,4.21952,4.09465
462,449,4.23181,-2.96924,0,0,0,0,0,0,0,-1,1686,575,4.23185,2.96926
469,449,4.51672,-2.95135,0,0,0,0,0,0,0,-1,1693,575,4.51672,2.95135
476,449,4.71838,-1.86688,0,0,0,0,0,0,0,-1,1700,575,4.71842,1.86689
483,449,4.87878,-1.73126,0,0,0,0,0,0,0,-1,1707,575,4.87875,1.73128
490,449,5.73279,-2.74573,0,0,0,0,0,0,0,-1,1714,575,5.73282,2.74575
497,449,7.20435,-4.61768,0,0,0,0,0,0,0,-1,1721,575,7.20439,4.61769
504,449,7.24573,-4.31213,0.00500224,0.0023337,0.00229028,0.00631857,0.00101738,0.521642,0.00391754,0.0365217,1728,575,7.24567,4.31214
511,449,7.29358,-4.03925,0.004118,0.00123284,0.00179567,0.00497878,0.000372056,0.447004,0.00320238,0.0108526,1735,575,7.29353,4.03922
518,449,7.29834,-3.79437,0.00341849,0.000917283,0.00150962,0.00412823,0.000207542,0.439481,0.00268565,0.0135699,1742,575,7.29829,3.79434
525,449,7.27173,-3.57324,0.00270942,0.000902114,0.00130943,0.00339674,0.000214794,0.483369,0.0021964,0.0128639,1749,575,7.27167,3.57326
532,449,7.25122,-3.33765,0.00209322,0.00101224,0.00115658,0.00282937,0.000276092,0.566817,0.00180128,0.0104763,1756,575,7.25117,3.33765
539,449,7.23926,-3.07684,0.00157439,0.00112707,0.00103444,0.00240908,0.000292389,0.67893,0.001518,0.0129018,1763,575,7.23922,3.07685
546,449,7.25098,-2.83466,0.00125374,0.00153685,0.00108975,0.0024942,0.000296387,0.849985,0.00157334,0.0227603,1770,575,7.25102,2.83463
553,449,7.25403,-2.60266,0.00105249,0.00186281,0.00113011,0.00265819,0.000257109,0.95752,0.00169295,0.0165873,1777,575,7.25404,2.60267
560,449,7.27612,-2.35437,0.000863485,0.00222447,0.00119434,0.00291857,0.000169381,1.04434,0.00189178,0.013275,1784,575,7.27617,2.35436
567,449,7.25671,-2.08575,0.000858943,0.00256048,0.00131375,0.00327488,0.000144543,1.07274,0.0021367,0.00967957,1791,575,7.25673,2.08578
574,449,7.26062,-1.81824,0.000992591,0.00284193,0.00144685,0.00363435,0.000200175,1.06973,0.00235901,0.0193382,1798,575,7.26059,1.81824
581,449,7.25378,-1.58124,0.00109458,0.00312641,0.00166558,0.00406145,0.000159536,1.05925,0.00265605,0.044463,1805,575,7.2538,1.58121
588,449,7.24792,-1.15204,0,0,0,0,0,0,0,-1,1812,575,7.2479,1.15207
595,449,7.4613,-0.736755,0,0,0,0,0,0,0,-1,1819,575,7.46133,0.736778
602,449,9.46167,4.17444,0,0,0,0,0,0,0,-1,1826,575,9.46164,-4.17442
609,449,12.2028,3.18652,0,0,0,0,0,0,0,-1,1833,575,12.2027,-3.18655
616,449,14.9438,2.19867,0,0,0,0,0,0,0,-1,1840,575,14.9438,-2.19867
623,449,9.83789,-0.0820313,0,0,0,0,0,0,0,-1,1847,575,9.83794,0.0820443
630,449,8.90686,4.99329,0,0,0,0,0,0,0,-1,1854,575,8.90685,-4.99327
637,449,0,0,0,0,0,0,0,0,0,-1,1861,575,0,0
644,449,0,0,0,0,0,0,0,0,0,-1,1868,575,0,0
651,449,0,0,0,0,0,0,0,0,0,-1,1875,575,0,0
658,449,0,0,0,0,0,0,0,0,0,-1,1882,575,0,0
665,449,0,0,0,0,0,0,0,0,0,-1,1889,575,0,0
672,449,0,0,0,0,0,0,0,0,0,-1,1896,575,0,0
679,449,0,0,0,0,0,0,0,0,0,-1,1903,575,0,0
686,449,0,0,0,0,0,0,0,0,0,-1,1910,575,0,0
693,449,0,0,0,0,0,0,0,0,0,-1,1917,575,0,0
700,449,0,0,0,0,0,0,0,0,0,-1,1924,575,0,0
707,449,0,0,0,0,0,0,0,0,0,-1,1931,575,0,0
714,449,0,0,0,0,0,0,0,0,0,-1,1938,575,0,0
721,449,0,0,0,0,0,0,0,0,0,-1,1945,575,0,0
728,449,0,0,0,0,0,0,0,0,0,-1,1952,575,0,0
735,449,0,0,0,0,0,0,0,0,0,-1,1959,575,0,0
742,449,0,0,0,0,0,0,0,0,0,-1,1966,575,0,0
749,449,0,0,0,0,0,0,0,0,0,-1,1973,575,0,0
756,449,0,0,0,0,0,0,0,0,0,-1,1980,575,0,0
763,449,0,0,0,0,0,0,0,0,0,-1,1987,575,0,0
770,449,0,0,0,0,0,0,0,0,0,-1,1994,575,0,0
777,449,0,0,0,0,0,0,0,0,0,-1,2001,575,0,0
784,449,0,0,0,0,0,0,0,0,0,-1,2008,575,0,0
791,449,0,0,0,0,0,0,0,0,0,-1,2015,575,0,0
798,449,0,0,0,0,0,0,0,0,0,-1,2022,575,0,0
805,449,0,0,0,0,0,0,0,0,0,-1,2029,575,0,0
812,449,0,0,0,0,0,0,0,0,0,-1,2036,575,0,0
-700,442,0,0,0,0,0,0,0,0,0,-1,524,582,0,0
-693,442,0,0,0,0,0,0,0,0,0,-1,531,582,0,0
-686,442,0,0,0,0,0,0,0,0,0,-1,538,582,0,0
-679,442,0,0,0,0,0,0,0,0,0,-1,545,582,0,0
-672,442,0,0,0,0,0,0,0,0,0,-1,552,582,0,0
-665,442,0,0,0,0,0,0,0,0,0,-1,559,582,0,0
-658,442,0,0,0,0,0,0,0,0,0,-1,566,582,0,0
-651,442,0,0,0,0,0,0,0,0,0,-1,573,582,0,0
-644,442,0,0,0,0,0,0,0,0,0,-1,580,582,0,0
-637,442,0,0,0,0,0,0,0,0,0,-1,587,582,0,0
-630,442,0,0,0,0,0,0,0,0,0,-1,594,582,0,0
-623,442,0,0,0,0,0,0,0,0,0,-1,601,582,0,0
-616,442,0,0,0,0,0,0,0,0,0,-1,608,582,0,0
-609,442,0,0,0,0,0,0,0,0,0,-1,615,582,0,0
-602,442,0,0,0,0,0,0,0,0,0,-1,622,582,0,0
-595,442,0,0,0,0,0,0,0,0,0,-1,629,582,0,0
-588,442,0,0,0,0,0,0,0,0,0,-1,636,582,0,0
-581,442,0,0,0,0,0,0,0,0,0,-1,643,582,0,0
-574,442,0,0,0,0,0,0,0,0,0,-1,650,582,0,0
-567,442,0,0,0,0,0,0,0,0,0,-1,657,582,0,0
-560,442,0,0,0,0,0,0,0,0,0,-1,664,582,0,0
-553,442,0,0,0,0,0,0,0,0,0,-1,671,582,0,0
-546,442,0,0,0,0,0,0,0,0,0,-1,678,582,0,0
-539,442,0,0,0,0,0,0,0,0,0,-1,685,582,0,0
-532,442,0,0,0,0,0,0,0,0,0,-1,692,582,0,0
-525,442,0,0,0,0,0,0,0,0,0,-1,699,582,0,0
-518,442,-0.493774,-5.72943,0,0,0,0,0,0,0,-1,706,582,-0.493791,5.72946
-511,442,-1.68738,-5.91357,0,0,0,0,0,0,0,-1,713,582,-1.68736,5.91359
-504,442,-3.20807,-6.34082,0,0,0,0,0,0,0,-1,720,582,-3.2081,6.34083
-497,442,-13.6886,-0.250122,0,0,0,0,0,0,0,-1,727,582,-13.6886,0.250143
-490,442,-4.63696,0.400635,0,0,0,0,0,0,0,-1,734,582,-4.63699,-0.400653
-483,442,-3.64575,-0.248413,0.0321207,0.102386,-0.056774,0.134019,0.000488281,-1.06247,0.0891835,0.0425168,741,582,-3.64575,0.248387
-476,442,-2.96283,-1.09534,0.0290963,0.0563933,-0.0348504,0.0801725,0.0053171,-0.972034,0.0517671,0.0496692,748,582,-2.96283,1.09536
-469,442,-2.16528,-2.64404,0,0,0,0,0,0,0,-1,755,582,-2.16529,2.64406
-462,442,-2.23419,-3.05701,0.0169689,0.0226895,-0.0162493,0.0363283,0.00333007,-0.872518,0.0231887,0.0354268,762,582,-2.23419,3.05701
-455,442,-2.29089,-3.29352,0.0117298,0.0165984,-0.0119638,0.026373,0.00195519,-0.885763,0.0169679,0.0256927,769,582,-2.2909,3.29352
-448,442,-2.26056,-3.53357,0.00781727,0.0119366,-0.00858116,0.0187018,0.00105206,-0.903181,0.0121324,0.0138396,776,582,-2.26058,3.5336
-441,442,-2.28656,-3.7608,0.00517748,0.008524,-0.006078,0.0131549,0.000546619,-0.91972,0.00859349,0.012868,783,582,-2.28658,3.7608
-434,442,-2.28357,-3.9726,0.00325931,0.00575081,-0.00410293,0.00879295,0.000217178,-0.932787,0.00579093,0.0124135,790,582,-2.28354,3.97262
-427,442,-2.30139,-4.20569,0.00146641,0.00321176,-0.002189,0.00469563,-1.74565e-05,-0.975074,0.00313625,0.0125748,797,582,-2.30138,4.20569
-420,442,-2.28918,-4.42798,-0.000183248,0.00116273,-0.000635885,0.00141563,-0.000436145,-1.19227,0.00111786,0.0125521,804,582,-2.28917,4.42799
-413,442,-2.28497,-4.63733,-0.000996522,0.000138134,0.000341455,0.000232964,-0.00109135,1.2999,0.000816379,0.010331,811,582,-2.28499,4.63735
-406,442,-2.29059,-4.8631,-0.00145624,-0.000873041,0.00124575,0.000114781,-0.00244407,0.900367,0.00166895,0.00876548,818,582,-2.29059,4.8631
-399,442,-2.28778,-5.09625,-0.00184631,-0.00211868,0.00216245,0.00018424,-0.00414923,0.753951,0.00282956,0.00794913,825,582,-2.2878,5.09627
-392,442,-2.28479,-5.3089,-0.00233295,-0.00342547,0.00307297,0.000241932,-0.00600035,0.697436,0.00408327,0.0104985,832,582,-2.28477,5.30892
-385,442,-2.27399,-5.50922,-0.0027239,-0.0047058,0.00387008,0.000280089,-0.00770979,0.660064,0.00523572,0.0125622,839,582,-2.27396,5.50919
-378,442,-2.27911,-5.73145,-0.00304648,-0.00617222,0.00471162,0.000354717,-0.00957342,0.625256,0.00650374,0.0126429,846,582,-2.27909,5.73147
-371,442,-2.29883,-6.01288,-0.00306723,-0.00771963,0.00545325,0.000535242,-0.0113221,0.583798,0.00773266,0.0234564,853,582,-2.29886,6.01291
-364,442,-2.29688,-6.27917,-0.00267359,-0.00974138,0.00609986,0.000842101,-0.0132571,0.522853,0.0091317,0.0361795,860,582,-2.29691,6.27919
-357,442,-2.26251,-6.54346,0,0,0,0,0,0,0,-1,867,582,-2.26249,6.54345
-350,442,-1.54712,-5.79175,0,0,0,0,0,0,0,-1,874,582,-1.54715,5.79177
-343,442,-1.57098,-4.42352,0,0,0,0,0,0,0,-1,881,582,-1.57096,4.42353
-336,442,-1.4054,-2.64313,0,0,0,0,0,0,0,-1,888,582,-1.40539,2.64315
-329,442,-0.952576,-2.76923,0,0,0,0,0,0,0,-1,895,582,-0.952571,2.7692
-322,442,-0.972534,-2.63208,0,0,0,0,0,0,0,-1,902,582,-0.972512,2.6321
-315,442,-0.445557,-2.89764,0,0,0,0,0,0,0,-1,909,582,-0.445582,2.89765
-308,442,-0.654175,-3.07831,0,0,0,0,0,0,0,-1,916,582,-0.654145,3.07832
-301,442,-1.37427,-2.41455,0,0,0,0,0,0,0,-1,923,582,-1.37425,2.41453
-294,442,-2.99963,-2.07855,0,0,0,0,0,0,0,-1,930,582,-2.99964,2.07857
-287,442,-5.62799,-2.76422,0,0,0,0,0,0,0,-1,937,582,-5.628,2.76424
-280,442,0,0,0,0,0,0,0,0,0,-1,944,582,0,0
-273,442,0,0,0,0,0,0,0,0,0,-1,951,582,0,0
-266,442,0,0,0,0,0,0,0,0,0,-1,958,582,0,0
-259,442,0,0,0,0,0,0,0,0,0,-1,965,582,0,0
-252,442,0,0,0,0,0,0,0,0,0,-1,972,582,0,0
-245,442,0,0,0,0,0,0,0,0,0,-1,979,582,0,0
-238,442,0,0,0,0,0,0,0,0,0,-1,986,582,0,0
-231,442,0,0,0,0,0,0,0,0,0,-1,993,582,0,0
-224,442,0,0,0,0,0,0,0,0,0,-1,1000,582,0,0
-217,442,0,0,0,0,0,0,0,0,0,-1,1007,582,0,0
-210,442,0,0,0,0,0,0,0,0,0,-1,1014,582,0,0
-203,442,0,0,0,0,0,0,0,0,0,-1,1021,582,0,0
-196,442,0,0,0,0,0,0,0,0,0,-1,1028,582,0,0
-189,442,0,0,0,0,0,0,0,0,0,-1,1035,582,0,0
-182,442,0,0,0,0,0,0,0,0,0,-1,1042,582,0,0
-175,442,0,0,0,0,0,0,0,0,0,-1,1049,582,0,0
-168,442,0,0,0,0,0,0,0,0,0,-1,1056,582,0,0
-161,442,0,0,0,0,0,0,0,0,0,-1,1063,582,0,0
-154,442,0,0,0,0,0,0,0,0,0,-1,1070,582,0,0
-147,442,0,0,0,0,0,0,0,0,0,-1,1077,582,0,0
-140,442,0,0,0,0,0,0,0,0,0,-1,1084,582,0,0
-133,442,0,0,0,0,0,0,0,0,0,-1,1091,582,0,0
-126,442,0,0,0,0,0,0,0,0,0,-1,1098,582,0,0
-119,442,0,0,0,0,0,0,0,0,0,-1,1105,582,0,0
-112,442,0,0,0,0,0,0,0,0,0,-1,1112,582,0,0
-105,442,0,0,0,0,0,0,0,0,0,-1,1119,582,0,0
-98,442,0,0,0,0,0,0,0,0,0,-1,1126,582,0,0
-91,442,0,0,0,0,0,0,0,0,0,-1,1133,582,0,0
-84,442,0,0,0,0,0,0,0,0,0,-1,1140,582,0,0
-77,442,0,0,0,0,0,0,0,0,0,-1,1147,582,0,0
-70,442,0,0,0,0,0,0,0,0,0,-1,1154,582,0,0
-63,442,0,0,0,0,0,0,0,0,0,-1,1161,582,0,0
-56,442,0,0,0,0,0,0,0,0,0,-1,1168,582,0,0
-49,442,0,0,0,0,0,0,0,0,0,-1,1175,582,0,0
-42,442,0,0,0,0,0,0,0,0,0,-1,1182,582,0,0
-35,442,0,0,0,0,0,0,0,0,0,-1,1189,582,0,0
-28,442,0,0,0,0,0,0,0,0,0,-1,1196,582,0,0
-21,442,0,0,0,0,0,0,0,0,0,-1,1203,582,0,0
-14,442,0,0,0,0,0,0,0,0,0,-1,1210,582,0,0
-7,442,0,0,0,0,0,0,0,0,0,-1,1217,582,0,0
0,442,0,0,0,0,0,0,0,0,0,-1,1224,582,0,0
7,442,0,0,0,0,0,0,0,0,0,-1,1231,582,0,0
14,442,0,0,0,0,0,0,0,0,0,-1,1238,582,0,0
21,442,0,0,0,0,0,0,0,0,0,-1,1245,582,0,0
28,442,0,0,0,0,0,0,0,0,0,-1,1252,582,0,0
35,442,0,0,0,0,0,0,0,0,0,-1,1259,582,0,0
42,442,0,0,0,0,0,0,0,0,0,-1,1266,582,0,0
49,442,0,0,0,0,0,0,0,0,0,-1,1273,582,0,0
56,442,0,0,0,0,0,0,0,0,0,-1,1280,582,0,0
63,442,0,0,0,0,0,0,0,0,0,-1,1287,582,0,0
70,442,0,0,0,0,0,0,0,0,0,-1,1294,582,0,0
77,442,0,0,0,0,0,0,0,0,0,-1,1301,582,0,0
84,442,0,0,0,0,0,0,0,0,0,-1,1308,582,0,0
91,442,0,0,0,0,0,0,0,0,0,-1,1315,582,0,0
98,442,0,0,0,0,0,0,0,0,0,-1,1322,582,0,0
105,442,0,0,0,0,0,0,0,0,0,-1,1329,582,0,0
112,442,0,0,0,0,0,0,0,0,0,-1,1336,582,0,0
119,442,0,0,0,0,0,0,0,0,0,-1,1343,582,0,0
126,442,0,0,0,0,0,0,0,0,0,-1,1350,582,0,0
133,442,0,0,0,0,0,0,0,0,0,-1,1357,582,0,0
140,442,0,0,0,0,0,0,0,0,0,-1,1364,582,0,0
147,442,0,0,0,0,0,0,0,0,0,-1,1371,582,0,0
154,442,0,0,0,0,0,0,0,0,0,-1,1378,582,0,0
161,442,0,0,0,0,0,0,0,0,0,-1,1385,582,0,0
168,442,0,0,0,0,0,0,0,0,0,-1,1392,582,0,0
175,442,0,0,0,0,0,0,0,0,0,-1,1399,582,0,0
182,442,0,0,0,0,0,0,0,0,0,-1,1406,582,0,0
189,442,0,0,0,0,0,0,0,0,0,-1,1413,582,0,0
196,442,0,0,0,0,0,0,0,0,0,-1,1420,582,0,0
203,442,0,0,0,0,0,0,0,0,0,-1,1427,582,0,0
210,442,0,0,0,0,0,0,0,0,0,-1,1434,582,0,0
217,442,0,0,0,0,0,0,0,0,0,-1,1441,582,0,0
224,442,0,0,0,0,0,0,0,0,0,-1,1448,582,0,0
231,442,0,0,0,0,0,0,0,0,0,-1,1455,582,0,0
238,442,0,0,0,0,0,0,0,0,0,-1,1462,582,0,0
245,442,0,0,0,0,0,0,0,0,0,-1,1469,582,0,0
252,442,0,0,0,0,0,0,0,0,0,-1,1476,582,0,0
259,442,0,0,0,0,0,0,0,0,0,-1,1483,582,0,0
266,442,0,0,0,0,0,0,0,0,0,-1,1490,582,0,0
273,442,0,0,0,0,0,0,0,0,0,-1,1497,582,0,0
280,442,0,0,0,0,0,0,0,0,0,-1,1504,582,0,0
287,442,0,0,0,0,0,0,0,0,0,-1,1511,582,0,0
294,442,0,0,0,0,0,0,0,0,0,-1,1518,582,0,0
301,442,0,0,0,0,0,0,0,0,0,-1,1525,582,0,0
308,442,0,0,0,0,0,0,0,0,0,-1,1532,582,0,0
315,442,0,0,0,0,0,0,0,0,0,-1,1539,582,0,0
322,442,0,0,0,0,0,0,0,0,0,-1,1546,582,0,0
329,442,0,0,0,0,0,0,0,0,0,-1,1553,582,0,0
336,442,0,0,0,0,0,0,0,0,0,-1,1560,582,0,0
343,442,0,0,0,0,0,0,0,0,0,-1,1567,582,0,0
350,442,0,0,0,0,0,0,0,0,0,-1,1574,582,0,0
357,442,0,0,0,0,0,0,0,0,0,-1,1581,582,0,0
364,442,0,0,0,0,0,0,0,0,0,-1,1588,582,0,0
371,442,0,0,0,0,0,0,0,0,0,-1,1595,582,0,0
378,442,0,0,0,0,0,0,0,0,0,-1,1602,582,0,0
385,442,0,0,0,0,0,0,0,0,0,-1,1609,582,0,0
392,442,0,0,0,0,0,0,0,0,0,-1,1616,582,0,0
399,442,0,0,0,0,0,0,0,0,0,-1,1623,582,0,0
406,442,13.1598,3.8465,0,0,0,0,0,0,0,-1,1630,582,13.1598,-3.84653
413,442,3.66699,2.87408,0,0,0,0,0,0,0,-1,1637,582,3.66703,-2.87408
420,442,4.69055,3.09448,0,0,0,0,0,0,0,-1,1644,582,4.69054,-3.0945
427,442,2.44519,-1.35358,0,0,0,0,0,0,0,-1,1651,582,2.44514,1.35361
434,442,8.45898,-3.86719,0,0,0,0,0,0,0,-1,1658,582,8.45904,3.86719
441,442,4.89368,-7.42456,0,0,0,0,0,0,0,-1,1665,582,4.89365,7.42457
448,442,4.7749,-5.88562,0,0,0,0,0,0,0,-1,1672,582,4.7749,5.8856
455,442,4.87024,-4.60687,0,0,0,0,0,0,0,-1,1679,582,4.87019,4.60686
462,442,5.02307,-3.72821,0,0,0,0,0,0,0,-1,1686,582,5.02311,3.7282
469,442,5.12976,-2.98834,0,0,0,0,0,0,0,-1,1693,582,5.12971,2.98834
476,442,5.4624,1.76947,0,0,0,0,0,0,0,-1,1700,582,5.46234,-1.76944
483,442,5.98486,1.87042,0,0,0,0,0,0,0,-1,1707,582,5.98492,-1.87045
490,442,5.04407,-2.35834,0,0,0,0,0,0,0,-1,1714,582,5.04411,2.35837
497,442,6.20984,-3.07831,0,0,0,0,0,0,0,-1,1721,582,6.2098,3.07833
504,442,7.42175,-4.33313,0,0,0,0,0,0,0,-1,1728,582,7.42169,4.33316
511,442,7.46313,-4.06219,0.00471665,0.00089034,0.00173196,0.00538416,0.000222828,0.367865,0.00351752,0.0230046,1735,582,7.46308,4.06217
518,442,7.53821,-3.78851,0.00382782,0.000562559,0.00139694,0.0043439,4.64846e-05,0.353879,0.00288056,0.0110877,1742,582,7.53815,3.78853
525,442,7.51697,-3.55664,0.00295351,0.000565005,0.00118651,0.00344272,7.57928e-05,0.391074,0.00227031,0.0103303,1749,582,7.51692,3.55664
532,442,7.50903,-3.29877,0.00220895,0.00063334,0.000996974,0.00269181,0.000150478,0.451032,0.00174654,0.0104056,1756,582,7.50899,3.29879
539,442,7.505,-3.05591,0.00158846,0.000684623,0.000821249,0.00207392,0.000199161,0.533869,0.00132124,0.0112182,1763,582,7.50497,3.05592
546,442,7.52087,-2.82947,0.00118744,0.000982941,0.00081166,0.00190327,0.000267116,0.722739,0.00118984,0.0145305,1770,582,7.52085,2.82946
553,442,7.49805,-2.57635,0.000928737,0.00119899,0.000805474,0.00188059,0.000247134,0.868505,0.00118001,0.0164122,1777,582,7.49802,2.57633
560,442,7.51624,-2.31653,0.000687321,0.00144133,0.000819724,0.00196659,0.000162061,1.00093,0.00126051,0.0157718,1784,582,7.51619,2.31655
567,442,7.4906,-2.07416,0.000603275,0.00169874,0.000888158,0.00219448,0.000107535,1.06171,0.00142849,0.0107405,1791,582,7.49061,2.07415
574,442,7.49597,-1.83667,0.000739067,0.00189811,0.00102611,0.00249704,0.000140135,1.04246,0.00162,0.0129533,1798,582,7.49598,1.83667
581,442,7.52454,-1.56763,0.000924034,0.00213637,0.00122685,0.00289863,0.000161775,1.01485,0.00188081,0.0183737,1805,582,7.52458,1.56763
588,442,7.48584,-1.43182,0.00123153,0.00239161,0.0015351,0.0034526,0.000170542,0.966032,0.00224704,0.0251402,1812,582,7.48584,1.43185
595,442,7.50208,-1.00507,0.0017091,0.00282666,0.00198201,0.00432716,0.000208608,0.922795,0.00281781,0.0394462,1819,582,7.50212,1.00507
602,442,7.53137,-0.47583,0,0,0,0,0,0,0,-1,1826,582,7.53132,0.475812
609,442,9.38428,2.86908,0,0,0,0,0,0,0,-1,1833,582,9.38429,-2.86906
616,442,7.16003,-1.18372,0,0,0,0,0,0,0,-1,1840,582,7.16,1.18373
623,442,9.23828,0.326721,0,0,0,0,0,0,0,-1,1847,582,9.23829,-0.326727
630,442,7.74304,2.3924,0,0,0,0,0,0,0,-1,1854,582,7.7431,-2.39238
637,442,5.87805,1.84027,0,0,0,0,0,0,0,-1,1861,582,5.87807,-1.84025
644,442,0,0,0,0,0,0,0,0,0,-1,1868,582,0,0
651,442,0,0,0,0,0,0,0,0,0,-1,1875,582,0,0
658,442,0,0,0,0,0,0,0,0,0,-1,1882,582,0,0
665,442,0,0,0,0,0,0,0,0,0,-1,1889,582,0,0
672,442,0,0,0,0,0,0,0,0,0,-1,1896,582,0,0
679,442,0,0,0,0,0,0,0,0,0,-1,1903,582,0,0
686,442,0,0,0,0,0,0,0,0,0,-1,1910,582,0,0
693,442,0,0,0,0,0,0,0,0,0,-1,1917,582,0,0
700,442,0,0,0,0,0,0,0,0,0,-1,1924,582,0,0
707,442,0,0,0,0,0,0,0,0,0,-1,1931,582,0,0
714,442,0,0,0,0,0,0,0,0,0,-1,1938,582,0,0
721,442,0,0,0,0,0,0,0,0,0,-1,1945,582,0,0
728,442,0,0,0,0,0,0,0,0,0,-1,1952,582,0,0
735,442,0,0,0,0,0,0,0,0,0,-1,1959,582,0,0
742,442,0,0,0,0,0,0,0,0,0,-1,1966,582,0,0
749,442,0,0,0,0,0,0,0,0,0,-1,1973,582,0,0
756,442,0,0,0,0,0,0,0,0,0,-1,1980,582,0,0
763,442,0,0,0,0,0,0,0,0,0,-1,1987,582,0,0
770,442,0,0,0,0,0,0,0,0,0,-1,1994,582,0,0
777,442,0,0,0,0,0,0,0,0,0,-1,2001,582,0,0
784,442,0,0,0,0,0,0,0,0,0,-1,2008,582,0,0
791,442,0,0,0,0,0,0,0,0,0,-1,2015,582,0,0
798,442,0,0,0,0,0,0,0,0,0,-1,2022,582,0,0
805,442,0,0,0,0,0,0,0,0,0,-1,2029,582,0,0
812,442,0,0,0,0,0,0,0,0,0,-1,2036,582,0,0
-700,435,0,0,0,0,0,0,0,0,0,-1,524,589,0,0
-693,435,0,0,0,0,0,0,0,0,0,-1,531,589,0,0
-686,435,0,0,0,0,0,0,0,0,0,-1,538,589,0,0
-679,435,0,0,0,0,0,0,0,0,0,-1,545,589,0,0
-672,435,0,0,0,0,0,0,0,0,0,-1,552,589,0,0
-665,435,0,0,0,0,0,0,0,0,0,-1,559,589,0,0
-658,435,0,0,0,0,0,0,0,0,0,-1,566,589,0,0
-651,435,0,0,0,0,0,0,0,0,0,-1,573,589,0,0
-644,435,0,0,0,0,0,0,0,0,0,-1,580,589,0,0
-637,435,0,0,0,0,0,0,0,0,0,-1,587,589,0,0
-630,435,0,0,0,0,0,0,0,0,0,-1,594,589,0,0
-623,435,0,0,0,0,0,0,0,0,0,-1,601,589,0,0
-616,435,0,0,0,0,0,0,0,0,0,-1,608,589,0,0
-609,435,0,0,0,0,0,0,0,0,0,-1,615,589,0,0
-602,435,0,0,0,0,0,0,0,0,0,-1,622,589,0,0
-595,435,0,0,0,0,0,0,0,0,0,-1,629,589,0,0
-588,435,0,0,0,0,0,0,0,0,0,-1,636,589,0,0
-581,435,0,0,0,0,0,0,0,0,0,-1,643,589,0,0
-574,435,0,0,0,0,0,0,0,0,0,-1,650,589,0,0
-567,435,0,0,0,0,0,0,0,0,0,-1,657,589,0,0
-560,435,0,0,0,0,0,0,0,0,0,-1,664,589,0,0
-553,435,0,0,0,0,0,0,0,0,0,-1,671,589,0,0
-546,435,0,0,0,0,0,0,0,0,0,-1,678,589,0,0
-539,435,0,0,0,0,0,0,0,0,0,-1,685,589,0,0
-532,435,0,0,0,0,0,0,0,0,0,-1,692,589,0,0
-525,435,-10.0776,10.0547,0,0,0,0,0,0,0,-1,699,589,-10.0776,-10.0547
-518,435,-0.928711,-4.91492,0,0,0,0,0,0,0,-1,706,589,-0.928723,4.91489
-511,435,-2.43555,-5.38599,0,0,0,0,0,0,0,-1,713,589,-2.43553,5.38597
-504,435,-3.89355,-5.72308,0,0,0,0,0,0,0,-1,720,589,-3.89353,5.72309
-497,435,-5.18701,-5.97711,0,0,0,0,0,0,0,-1,727,589,-5.18703,5.97714
-490,435,-3.91461,-0.269043,0,0,0,0,0,0,0,-1,734,589,-3.91459,0.269017
-483,435,-3.52026,-0.883911,0.0242051,0.0855848,-0.0464862,0.110598,-0.000808056,-1.07715,0.0740028,0.0449387,741,589,-3.52028,0.883942
-476,435,-3.27899,-1.73438,0.0223977,0.0457271,-0.0277963,0.0642071,0.00391773,-0.984062,0.0415604,0.0459686,748,589,-3.27897,1.73437
-469,435,-2.55524,-2.64996,0.0187065,0.0239959,-0.0170562,0.0386112,0.00409122,-0.862315,0.0244912,0.0307937,755,589,-2.55525,2.64998
-462,435,-2.42401,-3.08691,0.0136649,0.0180619,-0.0129317,0.0289807,0.00274614,-0.869597,0.0184732,0.0154728,762,589,-2.42398,3.0869
-455,435,-2.48035,-3.27899,0.00960363,0.0132893,-0.00955636,0.0211789,0.00171407,-0.880649,0.013584,0.0138016,769,589,-2.48033,3.279
-448,435,-2.49188,-3.52979,0.00649374,0.00951775,-0.00680366,0.0149754,0.0010361,-0.894738,0.00965678,0.0128306,776,589,-2.49187,3.52976
-441,435,-2.51416,-3.74634,0.00429527,0.00667514,-0.00471204,0.0103452,0.000625238,-0.909077,0.0066981,0.0106937,783,589,-2.51417,3.74636
-434,435,-2.51398,-3.94257,0.00257195,0.00427122,-0.00295483,0.00649615,0.000347027,-0.925392,0.00421985,0.0114912,790,589,-2.51399,3.94257
-427,435,-2.51526,-4.203,0.000928101,0.00201207,-0.00122558,0.00281016,0.000130018,-0.993585,0.00183164,0.00974402,797,589,-2.51523,4.20303
-420,435,-2.50891,-4.42932,-0.000765641,6.20846e-05,0.000334978,0.000180662,-0.000884219,1.23058,0.000658019,0.00962329,804,589,-2.5089,4.42935
-413,435,-2.50977,-4.63196,-0.00168152,-0.000982625,0.00134953,6.19683e-05,-0.00272611,0.912085,0.00183841,0.0102679,811,589,-2.50977,4.63193
-406,435,-2.50146,-4.85394,-0.002329,-0.00205065,0.00233328,0.000147607,-0.00452725,0.815187,0.00306856,0.0106935,818,589,-2.50146,4.85397
-399,435,-2.50397,-5.08057,-0.00295838,-0.00344443,0.00337725,0.000184577,-0.00658739,0.749481,0.00445439,0.00921519,825,589,-2.50398,5.08058
-392,435,-2.51984,-5.30597,-0.00378372,-0.00493738,0.00449006,0.000166409,-0.00888751,0.721514,0.00598125,0.010738,832,589,-2.51983,5.30597
-385,435,-2.51056,-5.53552,-0.00459669,-0.00650847,0.00555609,8.5135e-05,-0.0111903,0.70021,0.00748874,0.0126118,839,589,-2.51059,5.53552
-378,435,-2.49066,-5.76068,-0.00542832,-0.00839185,0.00676895,1.91517e-05,-0.0138393,0.677645,0.0092326,0.0187609,846,589,-2.49064,5.7607
-371,435,-2.53845,-6.01263,-0.00600743,-0.0104464,0.00797321,4.9443e-05,-0.0165033,0.64965,0.0110187,0.0389655,853,589,-2.53846,6.01264
-364,435,-2.64697,-6.15875,-0.00617919,-0.0131246,0.00913143,0.000117565,-0.0194214,0.603692,0.012987,0.0484948,860,589,-2.647,6.15877
-357,435,-2.57977,-6.38007,0,0,0,0,0,0,0,-1,867,589,-2.57976,6.38008
-350,435,-0.86676,-3.69836,0,0,0,0,0,0,0,-1,874,589,-0.866784,3.69834
-343,435,-1.60706,-2.36835,0,0,0,0,0,0,0,-1,881,589,-1.60706,2.36838
-336,435,-2.07263,-1.94012,0,0,0,0,0,0,0,-1,888,589,-2.07265,1.94014
-329,435,-2.55963,-1.5517,0,0,0,0,0,0,0,-1,895,589,-2.5596,1.55168
-322,435,-3.08545,-1.55255,0,0,0,0,0,0,0,-1,902,589,-3.08544,1.55254
-315,435,-0.404297,-2.63763,0,0,0,0,0,0,0,-1,909,589,-0.404276,2.63761
-308,435,-1.70056,-1.90369,0,0,0,0,0,0,0,-1,916,589,-1.70056,1.90367
-301,435,-1.25232,-2.05511,0,0,0,0,0,0,0,-1,923,589,-1.25234,2.05514
-294,435,-1.79974,-1.97321,0,0,0,0,0,0,0,-1,930,589,-1.79973,1.97322
-287,435,0,0,0,0,0,0,0,0,0,-1,937,589,0,0
-280,435,0,0,0,0,0,0,0,0,0,-1,944,589,0,0
-273,435,0,0,0,0,0,0,0,0,0,-1,951,589,0,0
-266,435,0,0,0,0,0,0,0,0,0,-1,958,589,0,0
-259,435,0,0,0,0,0,0,0,0,0,-1,965,589,0,0
-252,435,0,0,0,0,0,0,0,0,0,-1,972,589,0,0
-245,435,0,0,0,0,0,0,0,0,0,-1,979,589,0,0
-238,435,0,0,0,0,0,0,0,0,0,-1,986,589,0,0
-231,435,0,0,0,0,0,0,0,0,0,-1,993,589,0,0
-224,435,0,0,0,0,0,0,0,0,0,-1,1000,589,0,0
-217,435,0,0,0,0,0,0,0,0,0,-1,1007,589,0,0
-210,435,0,0,0,0,0,0,0,0,0,-1,1014,589,0,0
-203,435,0,0,0,0,0,0,0,0,0,-1,1021,589,0,0
-196,435,0,0,0,0,0,0,0,0,0,-1,1028,589,0,0
-189,435,0,0,0,0,0,0,0,0,0,-1,1035,589,0,0
-182,435,0,0,0,0,0,0,0,0,0,-1,1042,589,0,0
-175,435,0,0,0,0,0,0,0,0,0,-1,1049,589,0,0
-168,435,0,0,0,0,0,0,0,0,0,-1,1056,589,0,0
-161,435,0,0,0,0,0,0,0,0,0,-1,1063,589,0,0
-154,435,0,0,0,0,0,0,0,0,0,-1,1070,589,0,0
-147,435,0,0,0,0,0,0,0,0,0,-1,1077,589,0,0
-140,435,0,0,0,0,0,0,0,0,0,-1,1084,589,0,0
-133,435,0,0,0,0,0,0,0,0,0,-1,1091,589,0,0
-126,435,0,0,0,0,0,0,0,0,0,-1,1098,589,0,0
-119,435,0,0,0,0,0,0,0,0,0,-1,1105,589,0,0
-112,435,0,0,0,0,0,0,0,0,0,-1,1112,589,0,0
-105,435,0,0,0,0,0,0,0,0,0,-1,1119,589,0,0
-98,435,0,0,0,0,0,0,0,0,0,-1,1126,589,0,0
-91,435,0,0,0,0,0,0,0,0,0,-1,1133,589,0,0
-84,435,0,0,0,0,0,0,0,0,0,-1,1140,589,0,0
-77,435,0,0,0,0,0,0,0,0,0,-1,1147,589,0,0
-70,435,0,0,0,0,0,0,0,0,0,-1,1154,589,0,0
-63,435,0,0,0,0,0,0,0,0,0,-1,1161,589,0,0
-56,435,0,0,0,0,0,0,0,0,0,-1,1168,589,0,0
-49,435,0,0,0,0,0,0,0,0,0,-1,1175,589,0,0
-42,435,0,0,0,0,0,0,0,0,0,-1,1182,589,0,0
-35,435,0,0,0,0,0,0,0,0,0,-1,1189,589,0,0
-28,435,0,0,0,0,0,0,0,0,0,-1,1196,589,0,0
-21,435,0,0,0,0,0,0,0,0,0,-1,1203,589,0,0
-14,435,0,0,0,0,0,0,0,0,0,-1,1210,589,0,0
-7,435,0,0,0,0,0,0,0,0,0,-1,1217,589,0,0
0,435,0,0,0,0,0,0,0,0,0,-1,1224,589,0,0
7,435,0,0,0,0,0,0,0,0,0,-1,1231,589,0,0
14,435,0,0,0,0,0,0,0,0,0,-1,1238,589,0,0
21,435,0,0,0,0,0,0,0,0,0,-1,1245,589,0,0
28,435,0,0,0,0,0,0,0,0,0,-1,1252,589,0,0
35,435,0,0,0,0,0,0,0,0,0,-1,1259,589,0,0
42,435,0,0,0,0,0,0,0,0,0,-1,1266,589,0,0
49,435,0,0,0,0,0,0,0,0,0,-1,1273,589,0,0
56,435,0,0,0,0,0,0,0,0,0,-1,1280,589,0,0
63,435,0,0,0,0,0,0,0,0,0,-1,1287,589,0,0
70,435,0,0,0,0,0,0,0,0,0,-1,1294,589,0,0
77,435,0,0,0,0,0,0,0,0,0,-1,1301,589,0,0
84,435,0,0,0,0,0,0,0,0,0,-1,1308,589,0,0
91,435,0,0,0,0,0,0,0,0,0,-1,1315,589,0,0
98,435,0,0,0,0,0,0,0,0,0,-1,1322,589,0,0
105,435,0,0,0,0,0,0,0,0,0,-1,1329,589,0,0
112,435,0,0,0,0,0,0,0,0,0,-1,1336,589,0,0
119,435,0,0,0,0,0,0,0,0,0,-1,1343,589,0,0
126,435,0,0,0,0,0,0,0,0,0,-1,1350,589,0,0
133,435,0,0,0,0,0,0,0,0,0,-1,1357,589,0,0
140,435,0,0,0,0,0,0,0,0,0,-1,1364,589,0,0
147,435,0,0,0,0,0,0,0,0,0,-1,1371,589,0,0
154,435,0,0,0,0,0,0,0,0,0,-1,1378,589,0,0
161,435,0,0,0,0,0,0,0,0,0,-1,1385,589,0,0
168,435,0,0,0,0,0,0,0,0,0,-1,1392,589,0,0
175,435,0,0,0,0,0,0,0,0,0,-1,1399,589,0,0
182,435,0,0,0,0,0,0,0,0,0,-1,1406,589,0,0
189,435,0,0,0,0,0,0,0,0,0,-1,1413,589,0,0
196,435,0,0,0,0,0,0,0,0,0,-1,1420,589,0,0
203,435,0,0,0,0,0,0,0,0,0,-1,1427,589,0,0
210,435,0,0,0,0,0,0,0,0,0,-1,1434,589,0,0
217,435,0,0,0,0,0,0,0,0,0,-1,1441,589,0,0
224,435,0,0,0,0,0,0,0,0,0,-1,1448,589,0,0
231,435,0,0,0,0,0,0,0,0,0,-1,1455,589,0,0
238,435,0,0,0,0,0,0,0,0,0,-1,1462,589,0,0
245,435,0,0,0,0,0,0,0,0,0,-1,1469,589,0,0
252,435,0,0,0,0,0,0,0,0,0,-1,1476,589,0,0
259,435,0,0,0,0,0,0,0,0,0,-1,1483,589,0,0
266,435,0,0,0,0,0,0,0,0,0,-1,1490,589,0,0
273,435,0,0,0,0,0,0,0,0,0,-1,1497,589,0,0
280,435,0,0,0,0,0,0,0,0,0,-1,1504,589,0,0
287,435,0,0,0,0,0,0,0,0,0,-1,1511,589,0,0
294,435,0,0,0,0,0,0,0,0,0,-1,1518,589,0,0
301,435,0,0,0,0,0,0,0,0,0,-1,1525,589,0,0
308,435,0,0,0,0,0,0,0,0,0,-1,1532,589,0,0
315,435,0,0,0,0,0,0,0,0,0,-1,1539,589,0,0
322,435,0,0,0,0,0,0,0,0,0,-1,1546,589,0,0
329,435,0,0,0,0,0,0,0,0,0,-1,1553,589,0,0
336,435,0,0,0,0,0,0,0,0,0,-1,1560,589,0,0
343,435,0,0,0,0,0,0,0,0,0,-1,1567,589,0,0
350,435,0,0,0,0,0,0,0,0,0,-1,1574,589,0,0
357,435,0,0,0,0,0,0,0,0,0,-1,1581,589,0,0
364,435,0,0,0,0,0,0,0,0,0,-1,1588,589,0,0
371,435,0,0,0,0,0,0,0,0,0,-1,1595,589,0,0
378,435,0,0,0,0,0,0,0,0,0,-1,1602,589,0,0
385,435,0,0,0,0,0,0,0,0,0,-1,1609,589,0,0
392,435,0,0,0,0,0,0,0,0,0,-1,1616,589,0,0
399,435,0,0,0,0,0,0,0,0,0,-1,1623,589,0,0
406,435,0,0,0,0,0,0,0,0,0,-1,1630,589,0,0
413,435,3.62073,3.42682,0,0,0,0,0,0,0,-1,1637,589,3.62069,-3.4268
420,435,3.6062,3.71564,0,0,0,0,0,0,0,-1,1644,589,3.60616,-3.71562
427,435,3.11963,0.640198,0,0,0,0,0,0,0,-1,1651,589,3.11967,-0.640192
434,435,2.72107,-1.34802,0,0,0,0,0,0,0,-1,1658,589,2.7211,1.34803
441,435,7.33191,-1.57452,0,0,0,0,0,0,0,-1,1665,589,7.33193,1.57452
448,435,7.4585,-0.00292969,0,0,0,0,0,0,0,-1,1672,589,7.45848,0.00294131
455,435,5.49915,-5.047,0,0,0,0,0,0,0,-1,1679,589,5.49914,5.04703
462,435,5.60669,-4.71466,0,0,0,0,0,0,0,-1,1686,589,5.60675,4.71469
469,435,5.87708,1.22351,0,0,0,0,0,0,0,-1,1693,589,5.87703,-1.22351
476,435,6.14136,1.37714,0,0,0,0,0,0,0,-1,1700,589,6.14138,-1.37712
483,435,6.49243,1.36169,0,0,0,0,0,0,0,-1,1707,589,6.49242,-1.36171
490,435,4.38391,-1.36218,0,0,0,0,0,0,0,-1,1714,589,4.38389,1.3622
497,435,7.23499,-3.64551,0,0,0,0,0,0,0,-1,1721,589,7.23495,3.64551
504,435,7.17285,-4.04852,0,0,0,0,0,0,0,-1,1728,589,7.17283,4.04853
511,435,7.53772,-3.94891,0.00539756,0.000770265,0.00195098,0.00611035,5.7478e-05,0.350281,0.00405454,0.0491466,1735,589,7.53771,3.94888
518,435,7.77625,-3.81866,0.0042287,0.000354195,0.00149891,0.00474087,-0.000157977,0.329258,0.00321453,0.0168211,1742,589,7.77625,3.81865
525,435,7.75403,-3.56171,0.00313901,0.000318053,0.00119875,0.0035796,-0.000122535,0.352214,0.00242827,0.0113517,1749,589,7.75409,3.5617
532,435,7.74976,-3.3045,0.00224173,0.000294025,0.000898091,0.00259263,-5.68702e-05,0.372474,0.00174768,0.0127356,1756,589,7.74978,3.30448
539,435,7.75598,-3.04987,0.00151689,0.000262038,0.000609777,0.00176439,1.4541e-05,0.385567,0.00117144,0.0136309,1763,589,7.75593,3.04987
546,435,7.76013,-2.80194,0.00103839,0.000425924,0.000484454,0.00130529,0.000159031,0.503545,0.000822323,0.0135179,1770,589,7.76013,2.80193
553,435,7.75928,-2.58051,0.000738486,0.000544369,0.000403729,0.00105666,0.000226195,0.667434,0.000642454,0.0113667,1777,589,7.75926,2.58053
560,435,7.74927,-2.32245,0.00047957,0.00069397,0.0003592,0.000961625,0.000211915,0.930411,0.000583418,0.0105415,1784,589,7.74929,2.32246
567,435,7.74829,-2.06787,0.000354748,0.000910799,0.000385436,0.00110802,0.000157528,1.09785,0.000692172,0.00956519,1791,589,7.74829,2.06788
574,435,7.73083,-1.8302,0.00051286,0.00108007,0.000530516,0.00139803,0.000194901,1.03086,0.000874323,0.0103314,1798,589,7.73084,1.83023
581,435,7.72559,-1.5968,0.000767838,0.00131632,0.0007371,0.00182854,0.000255615,0.96349,0.00114339,0.0171248,1805,589,7.72557,1.59681
588,435,7.73401,-1.37335,0.00108983,0.00159782,0.0010412,0.00241555,0.000272092,0.905034,0.00152777,0.019926,1812,589,7.73396,1.37334
595,435,7.67896,-1.14246,0.00161572,0.00192949,0.00143013,0.00321131,0.0003339,0.840029,0.00203871,0.0219277,1819,589,7.67892,1.14247
602,435,7.71265,-0.939087,0.00211143,0.00214086,0.00173841,0.00386462,0.000387678,0.78963,0.0024574,0.0430665,1826,589,7.7126,0.939104
609,435,7.79236,-0.786011,0,0,0,0,0,0,0,-1,1833,589,7.79242,0.786041
616,435,5.05151,-2.75269,0,0,0,0,0,0,0,-1,1840,589,5.05157,2.7527
623,435,11.7588,3.9704,0,0,0,0,0,0,0,-1,1847,589,11.7587,-3.97043
630,435,4.72742,-0.87561,0,0,0,0,0,0,0,-1,1854,589,4.7274,0.875636
637,435,5.05286,1.48792,0,0,0,0,0,0,0,-1,1861,589,5.05291,-1.48792
644,435,0,0,0,0,0,0,0,0,0,-1,1868,589,0,0
651,435,0,0,0,0,0,0,0,0,0,-1,1875,589,0,0
658,435,0,0,0,0,0,0,0,0,0,-1,1882,589,0,0
665,435,0,0,0,0,0,0,0,0,0,-1,1889,589,0,0
672,435,0,0,0,0,0,0,0,0,0,-1,1896,589,0,0
679,435,0,0,0,0,0,0,0,0,0,-1,1903,589,0,0
686,435,0,0,0,0,0,0,0,0,0,-1,1910,589,0,0
693,435,0,0,0,0,0,0,0,0,0,-1,1917,589,0,0
700,435,0,0,0,0,0,0,0,0,0,-1,1924,589,0,0
707,435,0,0,0,0,0,0,0,0,0,-1,1931,589,0,0
714,435,0,0,0,0,0,0,0,0,0,-1,1938,589,0,0
721,435,0,0,0,0,0,0,0,0,0,-1,1945,589,0,0
728,435,0,0,0,0,0,0,0,0,0,-1,1952,589,0,0
735,435,0,0,0,0,0,0,0,0,0,-1,1959,589,0,0
742,435,0,0,0,0,0,0,0,0,0,-1,1966,589,0,0
749,435,0,0,0,0,0,0,0,0,0,-1,1973,589,0,0
756,435,0,0,0,0,0,0,0,0,0,-1,1980,589,0,0
763,435,0,0,0,0,0,0,0,0,0,-1,1987,589,0,0
770,435,0,0,0,0,0,0,0,0,0,-1,1994,589,0,0
777,435,0,0,0,0,0,0,0,0,0,-1,2001,589,0,0
784,435,0,0,0,0,0,0,0,0,0,-1,2008,589,0,0
791,435,0,0,0,0,0,0,0,0,0,-1,2015,589,0,0
798,435,0,0,0,0,0,0,0,0,0,-1,2022,589,0,0
805,435,0,0,0,0,0,0,0,0,0,-1,2029,589,0,0
812,435,0,0,0,0,0,0,0,0,0,-1,2036,589,0,0
-700,428,0,0,0,0,0,0,0,0,0,-1,524,596,0,0
-693,428,0,0,0,0,0,0,0,0,0,-1,531,596,0,0
-686,428,0,0,0,0,0,0,0,0,0,-1,538,596,0,0
-679,428,0,0,0,0,0,0,0,0,0,-1,545,596,0,0
-672,428,0,0,0,0,0,0,0,0,0,-1,552,596,0,0
-665,428,0,0,0,0,0,0,0,0,0,-1,559,596,0,0
-658,428,0,0,0,0,0,0,0,0,0,-1,566,596,0,0
-651,428,0,0,0,0,0,0,0,0,0,-1,573,596,0,0
-644,428,0,0,0,0,0,0,0,0,0,-1,580,596,0,0
-637,428,0,0,0,0,0,0,0,0,0,-1,587,596,0,0
-630,428,0,0,0,0,0,0,0,0,0,-1,594,596,0,0
-623,428,0,0,0,0,0,0,0,0,0,-1,601,596,0,0
-616,428,0,0,0,0,0,0,0,0,0,-1,608,596,0,0
-609,428,0,0,0,0,0,0,0,0,0,-1,615,596,0,0
-602,428,0,0,0,0,0,0,0,0,0,-1,622,596,0,0
-595,428,0,0,0,0,0,0,0,0,0,-1,629,596,0,0
-588,428,0,0,0,0,0,0,0,0,0,-1,636,596,0,0
-581,428,0,0,0,0,0,0,0,0,0,-1,643,596,0,0
-574,428,0,0,0,0,0,0,0,0,0,-1,650,596,0,0
-567,428,0,0,0,0,0,0,0,0,0,-1,657,596,0,0
-560,428,0,0,0,0,0,0,0,0,0,-1,664,596,0,0
-553,428,0,0,0,0,0,0,0,0,0,-1,671,596,0,0
-546,428,0,0,0,0,0,0,0,0,0,-1,678,596,0,0
-539,428,0,0,0,0,0,0,0,0,0,-1,685,596,0,0
-532,428,0,0,0,0,0,0,0,0,0,-1,692,596,0,0
-525,428,-9.59918,7.58618,0,0,0,0,0,0,0,-1,699,596,-9.59918,-7.5862
-518,428,-9.69434,5.60547,0,0,0,0,0,0,0,-1,706,596,-9.69436,-5.60549
-511,428,-3.32758,-4.85852,0,0,0,0,0,0,0,-1,713,596,-3.32759,4.85853
-504,428,-4.19916,-4.97797,0,0,0,0,0,0,0,-1,720,596,-4.19918,4.97795
-497,428,-2.85516,-3.52179,0,0,0,0,0,0,0,-1,727,596,-2.85517,3.52181
-490,428,-2.67657,-1.25287,0,0,0,0,0,0,0,-1,734,596,-2.67659,1.25284
-483,428,-3.42889,-1.85901,0,0,0,0,0,0,0,-1,741,596,-3.42889,1.85903
-476,428,-3.06458,-2.31439,0.016615,0.0361447,-0.0215576,0.0500459,0.00271375,-0.998057,0.0324972,0.0343687,748,596,-3.06458,2.31441
-469,428,-2.6861,-2.81091,0.0142451,0.0182993,-0.0129082,0.0293386,0.00320581,-0.863281,0.0185828,0.0186596,755,596,-2.68612,2.81089
-462,428,-2.68677,-3.03052,0.010579,0.0138187,-0.00986303,0.022194,0.0022037,-0.866789,0.0141189,0.0169673,762,596,-2.68674,3.03054
-455,428,-2.71692,-3.27179,0.00753786,0.0101102,-0.00725364,0.0161908,0.00145722,-0.873141,0.0103424,0.0114773,769,596,-2.71692,3.27179
-448,428,-2.73071,-3.51593,0.0051854,0.00709263,-0.00506006,0.0112882,0.000989877,-0.878535,0.00721814,0.0108402,776,596,-2.7307,3.51592
-441,428,-2.73901,-3.75189,0.0034365,0.00474805,-0.00335308,0.00750887,0.00067567,-0.881966,0.00479658,0.0124579,783,596,-2.73901,3.75189
-434,428,-2.73358,-3.98871,0.00194196,0.0026889,-0.00181449,0.00416796,0.00046291,-0.886895,0.00263791,0.00916781,790,596,-2.73358,3.98872
-427,428,-2.73212,-4.22107,0.000493996,0.000721817,-0.000290989,0.000920397,0.000295416,-0.971959,0.000542628,0.010011,797,596,-2.73214,4.22109
-420,428,-2.7243,-4.40302,-0.00119049,-0.00109781,0.00124526,0.000101971,-0.00239027,0.803996,0.00162857,0.0106667,804,596,-2.72433,4.40303
-413,428,-2.72205,-4.59369,-0.00220294,-0.00217037,0.00229708,0.000110481,-0.00448379,0.788942,0.00302669,0.0134409,811,596,-2.72202,4.59369
-406,428,-2.73022,-4.83417,-0.003094,-0.00331412,0.00338302,0.000180757,-0.00658887,0.769138,0.00445406,0.0161655,818,596,-2.73024,4.83417
-399,428,-2.73163,-5.08496,-0.00406514,-0.00487769,0.00459453,0.000141041,-0.00908387,0.7413,0.00610347,0.0141308,825,596,-2.73162,5.08498
-392,428,-2.71021,-5.30927,-0.00538038,-0.00661056,0.00598395,2.00081e-05,-0.012011,0.734183,0.00801398,0.0134144,832,596,-2.71024,5.30928
-385,428,-2.7113,-5.53986,-0.00684906,-0.00858408,0.0074428,-0.00022338,-0.0152098,0.727381,0.0100662,0.0201668,839,596,-2.71131,5.53987
-378,428,-2.74872,-5.67059,-0.00853259,-0.0110484,0.00921874,-0.000486335,-0.0190947,0.717591,0.0125708,0.0372069,846,596,-2.74872,5.67057
-371,428,-3.271,-5.65894,-0.0100647,-0.0139896,0.0112135,-0.000643238,-0.0234111,0.698771,0.0153975,0.0476226,853,596,-3.27103,5.65893
-364,428,-3.013,-6.06909,0,0,0,0,0,0,0,-1,860,596,-3.01297,6.06909
-357,428,-3.20996,-4.70966,0,0,0,0,0,0,0,-1,867,596,-3.20997,4.70965
-350,428,-1.62793,-3.94055,0,0,0,0,0,0,0,-1,874,596,-1.62794,3.94055
-343,428,-0.0567017,-4.80994,0,0,0,0,0,0,0,-1,881,596,-0.0567096,4.80996
-336,428,-3.29175,-1.39569,0,0,0,0,0,0,0,-1,888,596,-3.29172,1.39568
-329,428,-3.71564,-0.791321,0,0,0,0,0,0,0,-1,895,596,-3.71564,0.791299
-322,428,-5.52863,-3.59827,0,0,0,0,0,0,0,-1,902,596,-5.52865,3.59829
-315,428,-4.57172,-1.22052,0,0,0,0,0,0,0,-1,909,596,-4.57171,1.22052
-308,428,-5.26538,-1.1521,0,0,0,0,0,0,0,-1,916,596,-5.26539,1.15209
-301,428,0,0,0,0,0,0,0,0,0,-1,923,596,0,0
-294,428,0,0,0,0,0,0,0,0,0,-1,930,596,0,0
-287,428,0,0,0,0,0,0,0,0,0,-1,937,596,0,0
-280,428,0,0,0,0,0,0,0,0,0,-1,944,596,0,0
-273,428,0,0,0,0,0,0,0,0,0,-1,951,596,0,0
-266,428,0,0,0,0,0,0,0,0,0,-1,958,596,0,0
-259,428,0,0,0,0,0,0,0,0,0,-1,965,596,0,0
-252,428,0,0,0,0,0,0,0,0,0,-1,972,596,0,0
-245,428,0,0,0,0,0,0,0,0,0,-1,979,596,0,0
-238,428,0,0,0,0,0,0,0,0,0,-1,986,596,0,0
-231,428,0,0,0,0,0,0,0,0,0,-1,993,596,0,0
-224,428,0,0,0,0,0,0,0,0,0,-1,1000,596,0,0
-217,428,0,0,0,0,0,0,0,0,0,-1,1007,596,0,0
-210,428,0,0,0,0,0,0,0,0,0,-1,1014,596,0,0
-203,428,0,0,0,0,0,0,0,0,0,-1,1021,596,0,0
-196,428,0,0,0,0,0,0,0,0,0,-1,1028,596,0,0
-189,428,0,0,0,0,0,0,0,0,0,-1,1035,596,0,0
-182,428,0,0,0,0,0,0,0,0,0,-1,1042,596,0,0
-175,428,0,0,0,0,0,0,0,0,0,-1,1049,596,0,0
-168,428,0,0,0,0,0,0,0,0,0,-1,1056,596,0,0
-161,428,0,0,0,0,0,0,0,0,0,-1,1063,596,0,0
-154,428,0,0,0,0,0,0,0,0,0,-1,1070,596,0,0
-147,428,0,0,0,0,0,0,0,0,0,-1,1077,596,0,0
-140,428,0,0,0,0,0,0,0,0,0,-1,1084,596,0,0
-133,428,0,0,0,0,0,0,0,0,0,-1,1091,596,0,0
-126,428,0,0,0,0,0,0,0,0,0,-1,1098,596,0,0
-119,428,0,0,0,0,0,0,0,0,0,-1,1105,596,0,0
-112,428,0,0,0,0,0,0,0,0,0,-1,1112,596,0,0
-105,428,0,0,0,0,0,0,0,0,0,-1,1119,596,0,0
-98,428,0,0,0,0,0,0,0,0,0,-1,1126,596,0,0
-91,428,0,0,0,0,0,0,0,0,0,-1,1133,596,0,0
-84,428,0,0,0,0,0,0,0,0,0,-1,1140,596,0,0
-77,428,0,0,0,0,0,0,0,0,0,-1,1147,596,0,0
-70,428,0,0,0,0,0,0,0,0,0,-1,1154,596,0,0
-63,428,0,0,0,0,0,0,0,0,0,-1,1161,596,0,0
-56,428,0,0,0,0,0,0,0,0,0,-1,1168,596,0,0
-49,428,0,0,0,0,0,0,0,0,0,-1,1175,596,0,0
-42,428,0,0,0,0,0,0,0,0,0,-1,1182,596,0,0
-35,428,0,0,0,0,0,0,0,0,0,-1,1189,596,0,0
-28,428,0,0,0,0,0,0,0,0,0,-1,1196,596,0,0
-21,428,0,0,0,0,0,0,0,0,0,-1,1203,596,0,0
-14,428,0,0,0,0,0,0,0,0,0,-1,1210,596,0,0
-7,428,0,0,0,0,0,0,0,0,0,-1,1217,596,0,0
0,428,0,0,0,0,0,0,0,0,0,-1,1224,596,0,0
7,428,0,0,0,0,0,0,0,0,0,-1,1231,596,0,0
14,428,0,0,0,0,0,0,0,0,0,-1,1238,596,0,0
21,428,0,0,0,0,0,0,0,0,0,-1,1245,596,0,0
28,428,0,0,0,0,0,0,0,0,0,-1,1252,596,0,0
35,428,0,0,0,0,0,0,0,0,0,-1,1259,596,0,0
42,428,0,0,0,0,0,0,0,0,0,-1,1266,596,0,0
49,428,0,0,0,0,0,0,0,0,0,-1,1273,596,0,0
56,428,0,0,0,0,0,0,0,0,0,-1,1280,596,0,0
63,428,0,0,0,0,0,0,0,0,0,-1,1287,596,0,0
70,428,0,0,0,0,0,0,0,0,0,-1,1294,596,0,0
77,428,0,0,0,0,0,0,0,0,0,-1,1301,596,0,0
84,428,0,0,0,0,0,0,0,0,0,-1,1308,596,0,0
91,428,0,0,0,0,0,0,0,0,0,-1,1315,596,0,0
98,428,0,0,0,0,0,0,0,0,0,-1,1322,596,0,0
105,428,0,0,0,0,0,0,0,0,0,-1,1329,596,0,0
112,428,0,0,0,0,0,0,0,0,0,-1,1336,596,0,0
119,428,0,0,0,0,0,0,0,0,0,-1,1343,596,0,0
126,428,0,0,0,0,0,0,0,0,0,-1,1350,596,0,0
133,428,0,0,0,0,0,0,0,0,0,-1,1357,596,0,0
140,428,0,0,0,0,0,0,0,0,0,-1,1364,596,0,0
147,428,0,0,0,0,0,0,0,0,0,-1,1371,596,0,0
154,428,0,0,0,0,0,0,0,0,0,-1,1378,596,0,0
161,428,0,0,0,0,0,0,0,0,0,-1,1385,596,0,0
168,428,0,0,0,0,0,0,0,0,0,-1,1392,596,0,0
175,428,0,0,0,0,0,0,0,0,0,-1,1399,596,0,0
182,428,0,0,0,0,0,0,0,0,0,-1,1406,596,0,0
189,428,0,0,0,0,0,0,0,0,0,-1,1413,596,0,0
196,428,0,0,0,0,0,0,0,0,0,-1,1420,596,0,0
203,428,0,0,0,0,0,0,0,0,0,-1,1427,596,0,0
210,428,0,0,0,0,0,0,0,0,0,-1,1434,596,0,0
217,428,0,0,0,0,0,0,0,0,0,-1,1441,596,0,0
224,428,0,0,0,0,0,0,0,0,0,-1,1448,596,0,0
231,428,0,0,0,0,0,0,0,0,0,-1,1455,596,0,0
238,428,0,0,0,0,0,0,0,0,0,-1,1462,596,0,0
245,428,0,0,0,0,0,0,0,0,0,-1,1469,596,0,0
252,428,0,0,0,0,0,0,0,0,0,-1,1476,596,0,0
259,428,0,0,0,0,0,0,0,0,0,-1,1483,596,0,0
266,428,0,0,0,0,0,0,0,0,0,-1,1490,596,0,0
273,428,0,0,0,0,0,0,0,0,0,-1,1497,596,0,0
280,428,0,0,0,0,0,0,0,0,0,-1,1504,596,0,0
287,428,0,0,0,0,0,0,0,0,0,-1,1511,596,0,0
294,428,0,0,0,0,0,0,0,0,0,-1,1518,596,0,0
301,428,0,0,0,0,0,0,0,0,0,-1,1525,596,0,0
308,428,0,0,0,0,0,0,0,0,0,-1,1532,596,0,0
315,428,0,0,0,0,0,0,0,0,0,-1,1539,596,0,0
322,428,0,0,0,0,0,0,0,0,0,-1,1546,596,0,0
329,428,0,0,0,0,0,0,0,0,0,-1,1553,596,0,0
336,428,0,0,0,0,0,0,0,0,0,-1,1560,596,0,0
343,428,0,0,0,0,0,0,0,0,0,-1,1567,596,0,0
350,428,0,0,0,0,0,0,0,0,0,-1,1574,596,0,0
357,428,0,0,0,0,0,0,0,0,0,-1,1581,596,0,0
364,428,0,0,0,0,0,0,0,0,0,-1,1588,596,0,0
371,428,0,0,0,0,0,0,0,0,0,-1,1595,596,0,0
378,428,0,0,0,0,0,0,0,0,0,-1,1602,596,0,0
385,428,0,0,0,0,0,0,0,0,0,-1,1609,596,0,0
392,428,0,0,0,0,0,0,0,0,0,-1,1616,596,0,0
399,428,0,0,0,0,0,0,0,0,0,-1,1623,596,0,0
406,428,0,0,0,0,0,0,0,0,0,-1,1630,596,0,0
413,428,0,0,0,0,0,0,0,0,0,-1,1637,596,0,0
420,428,2.95886,0.551819,0,0,0,0,0,0,0,-1,1644,596,2.9589,-0.551797
427,428,3.19385,0.384705,0,0,0,0,0,0,0,-1,1651,596,3.19383,-0.384692
434,428,8.18152,1.80432,0,0,0,0,0,0,0,-1,1658,596,8.18148,-1.80434
441,428,8.17993,0.607483,0,0,0,0,0,0,0,-1,1665,596,8.17997,-0.607513
448,428,7.84338,-0.385986,0,0,0,0,0,0,0,-1,1672,596,7.84336,0.385978
455,428,6.64038,2.1123,0,0,0,0,0,0,0,-1,1679,596,6.64037,-2.11229
462,428,4.84106,4.12341,0,0,0,0,0,0,0,-1,1686,596,4.84107,-4.12339
469,428,7.83789,3.10083,0,0,0,0,0,0,0,-1,1693,596,7.83785,-3.10086
476,428,7.61255,1.73956,0,0,0,0,0,0,0,-1,1700,596,7.61252,-1.73958
483,428,7.22766,1.05121,0,0,0,0,0,0,0,-1,1707,596,7.2277,-1.05121
490,428,5.4071,-3.2793,0,0,0,0,0,0,0,-1,1714,596,5.40707,3.27929
497,428,7.84106,-3.65491,0,0,0,0,0,0,0,-1,1721,596,7.84107,3.65491
504,428,6.92139,-2.83356,0,0,0,0,0,0,0,-1,1728,596,6.92137,2.83353
511,428,7.72485,-4.06439,0,0,0,0,0,0,0,-1,1735,596,7.72485,4.0644
518,428,7.98706,-3.88275,0,0,0,0,0,0,0,-1,1742,596,7.98703,3.88278
525,428,7.92517,-3.64307,0.00349496,0.000663137,0.00154418,0.00417411,-1.60143e-05,0.414351,0.0027881,0.0338188,1749,596,7.92512,3.64304
532,428,7.96118,-3.30695,0.00231352,0.000442106,0.00106184,0.0027931,-3.74799e-05,0.42423,0.00187469,0.0175313,1756,596,7.96116,3.30697
539,428,8.00317,-3.05377,0.00137327,0.000235498,0.000600804,0.00163179,-2.30193e-05,0.406339,0.00109561,0.0183391,1763,596,8.00313,3.0538
546,428,7.99976,-2.80884,0.000721081,0.000160417,0.000300875,0.000851981,2.95172e-05,0.410364,0.000558408,0.0153274,1770,596,7.99973,2.80881
553,428,7.99597,-2.58807,0.000309095,0.000102857,9.96877e-05,0.000349402,6.25493e-05,0.384241,0.000215138,0.01137,1777,596,7.99594,2.58805
560,428,8.01526,-2.35211,-8.76178e-06,8.85548e-05,-4.00361e-05,0.000102909,-2.31155e-05,-1.22655,7.74691e-05,0.0122364,1784,596,8.01521,2.35211
567,428,8.00781,-2.10278,-0.000189453,0.000195691,-8.52804e-05,0.000213729,-0.000207492,-1.36235,0.000243201,0.0115828,1791,596,8.00778,2.10277
574,428,7.98975,-1.85742,-2.12519e-05,0.000278818,3.51139e-05,0.000282873,-2.53061e-05,1.45585,0.000197558,0.0130828,1798,596,7.98976,1.85743
581,428,7.97498,-1.58612,0.000296189,0.000456543,0.000227628,0.000617702,0.00013503,0.954728,0.000374985,0.0111283,1805,596,7.97503,1.5861
588,428,7.97583,-1.34076,0.000670976,0.000716002,0.000536625,0.00123059,0.000156393,0.806362,0.000773548,0.0144988,1812,596,7.97581,1.34077
595,428,7.95618,-1.10895,0.00124722,0.00095728,0.000915239,0.0020289,0.0001756,0.706854,0.00129803,0.00948844,1819,596,7.95617,1.10895
602,428,7.96729,-0.88446,0.00183868,0.00117179,0.00128078,0.00282871,0.000181761,0.658054,0.00182824,0.0202013,1826,596,7.96723,0.884441
609,428,7.98718,-0.618713,0,0,0,0,0,0,0,-1,1833,596,7.98717,0.618716
616,428,5.88977,-0.239319,0,0,0,0,0,0,0,-1,1840,596,5.88983,0.239293
623,428,6.41541,0.466675,0,0,0,0,0,0,0,-1,1847,596,6.41543,-0.466696
630,428,4.94434,0.773193,0,0,0,0,0,0,0,-1,1854,596,4.9443,-0.773171
637,428,3.95435,1.90857,0,0,0,0,0,0,0,-1,1861,596,3.95439,-1.90858
644,428,5.75476,0.888977,0,0,0,0,0,0,0,-1,1868,596,5.75472,-0.888955
651,428,0,0,0,0,0,0,0,0,0,-1,1875,596,0,0
658,428,0,0,0,0,0,0,0,0,0,-1,1882,596,0,0
665,428,0,0,0,0,0,0,0,0,0,-1,1889,596,0,0
672,428,0,0,0,0,0,0,0,0,0,-1,1896,596,0,0
679,428,0,0,0,0,0,0,0,0,0,-1,1903,596,0,0
686,428,0,0,0,0,0,0,0,0,0,-1,1910,596,0,0
693,428,0,0,0,0,0,0,0,0,0,-1,1917,596,0,0
700,428,0,0,0,0,0,0,0,0,0,-1,1924,596,0,0
707,428,0,0,0,0,0,0,0,0,0,-1,1931,596,0,0
714,428,0,0,0,0,0,0,0,0,0,-1,1938,596,0,0
721,428,0,0,0,0,0,0,0,0,0,-1,1945,596,0,0
728,428,0,0,0,0,0,0,0,0,0,-1,1952,596,0,0
735,428,0,0,0,0,0,0,0,0,0,-1,1959,596,0,0
742,428,0,0,0,0,0,0,0,0,0,-1,1966,596,0,0
749,428,0,0,0,0,0,0,0,0,0,-1,1973,596,0,0
756,428,0,0,0,0,0,0,0,0,0,-1,1980,596,0,0
763,428,0,0,0,0,0,0,0,0,0,-1,1987,596,0,0
770,428,0,0,0,0,0,0,0,0,0,-1,1994,596,0,0
777,428,0,0,0,0,0,0,0,0,0,-1,2001,596,0,0
784,428,0,0,0,0,0,0,0,0,0,-1,2008,596,0,0
791,428,0,0,0,0,0,0,0,0,0,-1,2015,596,0,0
798,428,0,0,0,0,0,0,0,0,0,-1,2022,596,0,0
805,428,0,0,0,0,0,0,0,0,0,-1,2029,596,0,0
812,428,0,0,0,0,0,0,0,0,0,-1,2036,596,0,0
-700,421,0,0,0,0,0,0,0,0,0,-1,524,603,0,0
-693,421,0,0,0,0,0,0,0,0,0,-1,531,603,0,0
-686,421,0,0,0,0,0,0,0,0,0,-1,538,603,0,0
-679,421,0,0,0,0,0,0,0,0,0,-1,545,603,0,0
-672,421,0,0,0,0,0,0,0,0,0,-1,552,603,0,0
-665,421,0,0,0,0,0,0,0,0,0,-1,559,603,0,0
-658,421,0,0,0,0,0,0,0,0,0,-1,566,603,0,0
-651,421,0,0,0,0,0,0,0,0,0,-1,573,603,0,0
-644,421,0,0,0,0,0,0,0,0,0,-1,580,603,0,0
-637,421,0,0,0,0,0,0,0,0,0,-1,587,603,0,0
-630,421,0,0,0,0,0,0,0,0,0,-1,594,603,0,0
-623,421,0,0,0,0,0,0,0,0,0,-1,601,603,0,0
-616,421,0,0,0,0,0,0,0,0,0,-1,608,603,0,0
-609,421,0,0,0,0,0,0,0,0,0,-1,615,603,0,0
-602,421,0,0,0,0,0,0,0,0,0,-1,622,603,0,0
-595,421,0,0,0,0,0,0,0,0,0,-1,629,603,0,0
-588,421,0,0,0,0,0,0,0,0,0,-1,636,603,0,0
-581,421,0,0,0,0,0,0,0,0,0,-1,643,603,0,0
-574,421,0,0,0,0,0,0,0,0,0,-1,650,603,0,0
-567,421,0,0,0,0,0,0,0,0,0,-1,657,603,0,0
-560,421,0,0,0,0,0,0,0,0,0,-1,664,603,0,0
-553,421,0,0,0,0,0,0,0,0,0,-1,671,603,0,0
-546,421,0,0,0,0,0,0,0,0,0,-1,678,603,0,0
-539,421,0,0,0,0,0,0,0,0,0,-1,685,603,0,0
-532,421,-8.97382,6.95636,-0.0241546,0.492935,-0.218587,0.572955,-0.104174,-1.21987,0.421013,0.0470799,692,603,-8.97384,-6.95634
-525,421,-9.2019,5.10803,-0.0136475,0.407888,-0.182123,0.475673,-0.0814326,-1.21449,0.347455,0.0479468,699,603,-9.20192,-5.10806
-518,421,-9.54236,3.41217,0,0,0,0,0,0,0,-1,706,603,-9.54234,-3.41218
-511,421,-4.08118,-4.24005,0,0,0,0,0,0,0,-1,713,603,-4.08115,4.24002
-504,421,-4.97272,-4.38385,0,0,0,0,0,0,0,-1,720,603,-4.9727,4.38383
-497,421,-2.75323,-1.03796,0,0,0,0,0,0,0,-1,727,603,-2.75325,1.03796
-490,421,-2.9538,-1.7829,0,0,0,0,0,0,0,-1,734,603,-2.95377,1.78291
-483,421,-3.00354,-2.25037,0.0120597,0.0550205,-0.0286872,0.0693782,-0.0022979,-1.10676,0.0470368,0.0371022,741,603,-3.00352,2.25034
-476,421,-2.9751,-2.63342,0.0118294,0.0278979,-0.0163253,0.0380588,0.00166853,-1.01407,0.024835,0.020016,748,603,-2.97508,2.6334
-469,421,-2.93823,-2.82501,0.0104108,0.0135874,-0.00951891,0.0216496,0.00234861,-0.868065,0.0137174,0.0162855,755,603,-2.93822,2.82499
-462,421,-2.92059,-3.05017,0.00781947,0.0102508,-0.00732007,0.0164554,0.00161479,-0.867683,0.0104736,0.0178674,762,603,-2.92059,3.05018
-455,421,-2.92456,-3.28107,0.0056176,0.00741626,-0.00534413,0.0119362,0.00109766,-0.868759,0.00761799,0.0177216,769,603,-2.92453,3.2811
-448,421,-2.95392,-3.50562,0.00391447,0.00502108,-0.00362254,0.00813233,0.000803216,-0.861182,0.00517463,0.0180137,776,603,-2.95393,3.50564
-441,421,-2.96179,-3.75787,0.00255743,0.00306961,-0.00223349,0.00506164,0.000565402,-0.842479,0.00320264,0.013763,783,603,-2.96181,3.75789
-434,421,-2.96265,-3.98383,0.00127214,0.00127899,-0.000865275,0.00214084,0.000410281,-0.787376,0.00131203,0.00970614,790,603,-2.96266,3.98385
-427,421,-2.95715,-4.19055,2.8385e-05,-0.000449158,0.000491057,0.000335643,-0.000756416,0.559108,0.000645913,0.00890203,797,603,-2.95713,4.19055
-420,421,-2.95044,-4.38538,-0.00160204,-0.00217168,0.00202938,0.00016241,-0.00393612,0.715679,0.00267986,0.0109098,804,603,-2.95043,4.38539
-413,421,-2.95746,-4.60577,-0.00269572,-0.00335536,0.00318777,0.000179246,-0.00623032,0.73385,0.00421457,0.0139348,811,603,-2.95743,4.60575
-406,421,-2.97974,-4.87573,-0.00386261,-0.00467044,0.0044718,0.000223481,-0.00875653,0.740358,0.00591359,0.0186826,818,603,-2.97972,4.87576
-399,421,-2.93616,-5.14514,-0.00524718,-0.00650071,0.00596647,0.000125351,-0.0118732,0.733066,0.00795761,0.0173317,825,603,-2.93617,5.14516
-392,421,-2.95764,-5.31891,-0.00718213,-0.00860235,0.00778986,-7.0083e-05,-0.0157144,0.739945,0.010453,0.019161,832,603,-2.95762,5.31892
-385,421,-3.04932,-5.56104,-0.00953503,-0.0111335,0.00984692,-0.000454961,-0.0202136,0.744904,0.0133266,0.038302,839,603,-3.04929,5.56104
-378,421,-3.12677,-5.83496,0,0,0,0,0,0,0,-1,846,603,-3.12679,5.83495
-371,421,-4.39716,-5.36115,-0.0152677,-0.0183446,0.0153686,-0.00136081,-0.0322515,0.735513,0.0210621,0.0481501,853,603,-4.39715,5.36116
-364,421,-5.06079,-5.61859,0,0,0,0,0,0,0,-1,860,603,-5.0608,5.61861
-357,421,-5.57581,-5.5918,0,0,0,0,0,0,0,-1,867,603,-5.5758,5.59181
-350,421,-5.38019,-3.75024,0,0,0,0,0,0,0,-1,874,603,-5.38017,3.75026
-343,421,-6.22797,-2.57123,0,0,0,0,0,0,0,-1,881,603,-6.22798,2.57121
-336,421,-6.22882,-2.59369,0,0,0,0,0,0,0,-1,888,603,-6.22883,2.5937
-329,421,-4.50134,-1.49469,0,0,0,0,0,0,0,-1,895,603,-4.50137,1.49468
-322,421,-6.30377,-0.285339,0,0,0,0,0,0,0,-1,902,603,-6.30379,0.285355
-315,421,-4.47821,-1.26733,0,0,0,0,0,0,0,-1,909,603,-4.47824,1.26732
-308,421,0,0,0,0,0,0,0,0,0,-1,916,603,0,0
-301,421,0,0,0,0,0,0,0,0,0,-1,923,603,0,0
-294,421,0,0,0,0,0,0,0,0,0,-1,930,603,0,0
-287,421,0,0,0,0,0,0,0,0,0,-1,937,603,0,0
-280,421,0,0,0,0,0,0,0,0,0,-1,944,603,0,0
-273,421,0,0,0,0,0,0,0,0,0,-1,951,603,0,0
-266,421,0,0,0,0,0,0,0,0,0,-1,958,603,0,0
-259,421,0,0,0,0,0,0,0,0,0,-1,965,603,0,0
-252,421,0,0,0,0,0,0,0,0,0,-1,972,603,0,0
-245,421,0,0,0,0,0,0,0,0,0,-1,979,603,0,0
-238,421,0,0,0,0,0,0,0,0,0,-1,986,603,0,0
-231,421,0,0,0,0,0,0,0,0,0,-1,993,603,0,0
-224,421,0,0,0,0,0,0,0,0,0,-1,1000,603,0,0
-217,421,0,0,0,0,0,0,0,0,0,-1,1007,603,0,0
-210,421,0,0,0,0,0,0,0,0,0,-1,1014,603,0,0
-203,421,0,0,0,0,0,0,0,0,0,-1,1021,603,0,0
-196,421,0,0,0,0,0,0,0,0,0,-1,1028,603,0,0
-189,421,0,0,0,0,0,0,0,0,0,-1,1035,603,0,0
-182,421,0,0,0,0,0,0,0,0,0,-1,1042,603,0,0
-175,421,0,0,0,0,0,0,0,0,0,-1,1049,603,0,0
-168,421,0,0,0,0,0,0,0,0,0,-1,1056,603,0,0
-161,421,0,0,0,0,0,0,0,0,0,-1,1063,603,0,0
-154,421,0,0,0,0,0,0,0,0,0,-1,1070,603,0,0
-147,421,0,0,0,0,0,0,0,0,0,-1,1077,603,0,0
-140,421,0,0,0,0,0,0,0,0,0,-1,1084,603,0,0
-133,421,0,0,0,0,0,0,0,0,0,-1,1091,603,0,0
-126,421,0,0,0,0,0,0,0,0,0,-1,1098,603,0,0
-119,421,0,0,0,0,0,0,0,0,0,-1,1105,603,0,0
-112,421,0,0,0,0,0,0,0,0,0,-1,1112,603,0,0
-105,421,0,0,0,0,0,0,0,0,0,-1,1119,603,0,0
-98,421,0,0,0,0,0,0,0,0,0,-1,1126,603,0,0
-91,421,0,0,0,0,0,0,0,0,0,-1,1133,603,0,0
-84,421,0,0,0,0,0,0,0,0,0,-1,1140,603,0,0
-77,421,0,0,0,0,0,0,0,0,0,-1,1147,603,0,0
-70,421,0,0,0,0,0,0,0,0,0,-1,1154,603,0,0
-63,421,0,0,0,0,0,0,0,0,0,-1,1161,603,0,0
-56,421,0,0,0,0,0,0,0,0,0,-1,1168,603,0,0
-49,421,0,0,0,0,0,0,0,0,0,-1,1175,603,0,0
-42,421,0,0,0,0,0,0,0,0,0,-1,1182,603,0,0
-35,421,0,0,0,0,0,0,0,0,0,-1,1189,603,0,0
-28,421,0,0,0,0,0,0,0,0,0,-1,1196,603,0,0
-21,421,0,0,0,0,0,0,0,0,0,-1,1203,603,0,0
-14,421,0,0,0,0,0,0,0,0,0,-1,1210,603,0,0
-7,421,0,0,0,0,0,0,0,0,0,-1,1217,603,0,0
0,421,0,0,0,0,0,0,0,0,0,-1,1224,603,0,0
7,421,0,0,0,0,0,0,0,0,0,-1,1231,603,0,0
14,421,0,0,0,0,0,0,0,0,0,-1,1238,603,0,0
21,421,0,0,0,0,0,0,0,0,0,-1,1245,603,0,0
28,421,0,0,0,0,0,0,0,0,0,-1,1252,603,0,0
35,421,0,0,0,0,0,0,0,0,0,-1,1259,603,0,0
42,421,0,0,0,0,0,0,0,0,0,-1,1266,603,0,0
49,421,0,0,0,0,0,0,0,0,0,-1,1273,603,0,0
56,421,0,0,0,0,0,0,0,0,0,-1,1280,603,0,0
63,421,0,0,0,0,0,0,0,0,0,-1,1287,603,0,0
70,421,0,0,0,0,0,0,0,0,0,-1,1294,603,0,0
77,421,0,0,0,0,0,0,0,0,0,-1,1301,603,0,0
84,421,0,0,0,0,0,0,0,0,0,-1,1308,603,0,0
91,421,0,0,0,0,0,0,0,0,0,-1,1315,603,0,0
98,421,0,0,0,0,0,0,0,0,0,-1,1322,603,0,0
105,421,0,0,0,0,0,0,0,0,0,-1,1329,603,0,0
112,421,0,0,0,0,0,0,0,0,0,-1,1336,603,0,0
119,421,0,0,0,0,0,0,0,0,0,-1,1343,603,0,0
126,421,0,0,0,0,0,0,0,0,0,-1,1350,603,0,0
133,421,0,0,0,0,0,0,0,0,0,-1,1357,603,0,0
140,421,0,0,0,0,0,0,0,0,0,-1,1364,603,0,0
147,421,0,0,0,0,0,0,0,0,0,-1,1371,603,0,0
154,421,0,0,0,0,0,0,0,0,0,-1,1378,603,0,0
161,421,0,0,0,0,0,0,0,0,0,-1,1385,603,0,0
168,421,0,0,0,0,0,0,0,0,0,-1,1392,603,0,0
175,421,0,0,0,0,0,0,0,0,0,-1,1399,603,0,0
182,421,0,0,0,0,0,0,0,0,0,-1,1406,603,0,0
189,421,0,0,0,0,0,0,0,0,0,-1,1413,603,0,0
196,421,0,0,0,0,0,0,0,0,0,-1,1420,603,0,0
203,421,0,0,0,0,0,0,0,0,0,-1,1427,603,0,0
210,421,0,0,0,0,0,0,0,0,0,-1,1434,603,0,0
217,421,0,0,0,0,0,0,0,0,0,-1,1441,603,0,0
224,421,0,0,0,0,0,0,0,0,0,-1,1448,603,0,0
231,421,0,0,0,0,0,0,0,0,0,-1,1455,603,0,0
238,421,0,0,0,0,0,0,0,0,0,-1,1462,603,0,0
245,421,0,0,0,0,0,0,0,0,0,-1,1469,603,0,0
252,421,0,0,0,0,0,0,0,0,0,-1,1476,603,0,0
259,421,0,0,0,0,0,0,0,0,0,-1,1483,603,0,0
266,421,0,0,0,0,0,0,0,0,0,-1,1490,603,0,0
273,421,0,0,0,0,0,0,0,0,0,-1,1497,603,0,0
280,421,0,0,0,0,0,0,0,0,0,-1,1504,603,0,0
287,421,0,0,0,0,0,0,0,0,0,-1,1511,603,0,0
294,421,0,0,0,0,0,0,0,0,0,-1,1518,603,0,0
301,421,0,0,0,0,0,0,0,0,0,-1,1525,603,0,0
308,421,0,0,0,0,0,0,0,0,0,-1,1532,603,0,0
315,421,0,0,0,0,0,0,0,0,0,-1,1539,603,0,0
322,421,0,0,0,0,0,0,0,0,0,-1,1546,603,0,0
329,421,0,0,0,0,0,0,0,0,0,-1,1553,603,0,0
336,421,0,0,0,0,0,0,0,0,0,-1,1560,603,0,0
343,421,0,0,0,0,0,0,0,0,0,-1,1567,603,0,0
350,421,0,0,0,0,0,0,0,0,0,-1,1574,603,0,0
357,421,0,0,0,0,0,0,0,0,0,-1,1581,603,0,0
364,421,0,0,0,0,0,0,0,0,0,-1,1588,603,0,0
371,421,0,0,0,0,0,0,0,0,0,-1,1595,603,0,0
378,421,0,0,0,0,0,0,0,0,0,-1,1602,603,0,0
385,421,0,0,0,0,0,0,0,0,0,-1,1609,603,0,0
392,421,0,0,0,0,0,0,0,0,0,-1,1616,603,0,0
399,421,0,0,0,0,0,0,0,0,0,-1,1623,603,0,0
406,421,0,0,0,0,0,0,0,0,0,-1,1630,603,0,0
413,421,0,0,0,0,0,0,0,0,0,-1,1637,603,0,0
420,421,0,0,0,0,0,0,0,0,0,-1,1644,603,0,0
427,421,0,0,0,0,0,0,0,0,0,-1,1651,603,0,0
434,421,3.68176,-0.0327759,0,0,0,0,0,0,0,-1,1658,603,3.6818,0.0328037
441,421,8.06689,0.527832,0,0,0,0,0,0,0,-1,1665,603,8.06693,-0.527851
448,421,6.93921,0.802246,0,0,0,0,0,0,0,-1,1672,603,6.93923,-0.802251
455,421,7.29456,2.14825,0,0,0,0,0,0,0,-1,1679,603,7.29461,-2.14827
462,421,7.86902,3.53174,0,0,0,0,0,0,0,-1,1686,603,7.869,-3.53173
469,421,8.06604,2.81213,0,0,0,0,0,0,0,-1,1693,603,8.06606,-2.81212
476,421,8.26306,2.09253,0,0,0,0,0,0,0,-1,1700,603,8.26312,-2.09251
483,421,8.05322,0.798096,0,0,0,0,0,0,0,-1,1707,603,8.05323,-0.7981
490,421,7.51233,0.213074,0,0,0,0,0,0,0,-1,1714,603,7.51235,-0.213043
497,421,7.49634,-2.86688,0,0,0,0,0,0,0,-1,1721,603,7.4963,2.86688
504,421,6.90491,-2.18671,0,0,0,0,0,0,0,-1,1728,603,6.90491,2.18669
511,421,6.31348,-1.50653,0,0,0,0,0,0,0,-1,1735,603,6.31353,1.5065
518,421,6.27588,-2.49878,0,0,0,0,0,0,0,-1,1742,603,6.2759,2.4988
525,421,8.0625,-3.73578,0,0,0,0,0,0,0,-1,1749,603,8.06254,3.7358
532,421,8.17566,-3.35077,0.00251143,0.000824797,0.00127283,0.00319496,0.000141264,0.492823,0.00208448,0.0335974,1756,603,8.17571,3.35079
539,421,8.2583,-3.05359,0.00150245,0.000552126,0.00075971,0.00192336,0.00013122,0.505936,0.00124081,0.0199196,1763,603,8.25825,3.0536
546,421,8.24719,-2.81616,0.000808768,0.000332862,0.00039612,0.00103291,0.000108718,0.514928,0.000655381,0.0121254,1770,603,8.24715,2.81616
553,421,8.25134,-2.57886,0.000383679,0.000191357,0.000165998,0.000479357,9.56789e-05,0.522872,0.000292934,0.0111612,1777,603,8.25139,2.57883
560,421,8.25854,-2.34595,7.04811e-05,8.73446e-05,-6.29795e-07,8.7368e-05,7.04576e-05,-1.53352,5.35068e-05,0.0136825,1784,603,8.25855,2.34592
567,421,8.25525,-2.11603,-0.00014119,0.000121295,-7.47728e-05,0.0001411,-0.000160995,-1.31186,0.000174541,0.0167877,1791,603,8.25529,2.11604
574,421,8.24341,-1.86029,-1.05919e-07,0.000137887,2.78923e-05,0.000143311,-5.53051e-06,1.37871,9.74366e-05,0.018064,1798,603,8.24346,1.86029
581,421,8.23718,-1.56976,0.000294945,0.000249474,0.000192192,0.000465741,7.86775e-05,0.726524,0.000287875,0.0152025,1805,603,8.23718,1.56977
588,421,8.22986,-1.35614,0.000621701,0.000446453,0.000467075,0.0010093,5.88536e-05,0.692675,0.000654132,0.0108003,1812,603,8.22982,1.35611
595,421,8.23816,-1.10858,0.00115195,0.000593285,0.00079152,0.00171198,3.32542e-05,0.615768,0.0011304,0.0139855,1819,603,8.23817,1.1086
602,421,8.22034,-0.882446,0.00173131,0.000773728,0.00114692,0.00249536,9.67388e-06,0.587666,0.00166036,0.0148778,1826,603,8.22032,0.882458
609,421,8.15613,-0.600769,0.00226876,0.000838651,0.00156673,0.00327589,-0.000168486,0.571317,0.0022422,0.0340988,1833,603,8.15607,0.600748
616,421,8.37744,-0.211426,0,0,0,0,0,0,0,-1,1840,603,8.37748,0.21145
623,421,6.19885,0.376648,0,0,0,0,0,0,0,-1,1847,603,6.19881,-0.376624
630,421,6.54993,0.778748,0,0,0,0,0,0,0,-1,1854,603,6.54991,-0.778744
637,421,3.74512,1.65405,0,0,0,0,0,0,0,-1,1861,603,3.74517,-1.65407
644,421,3.58081,0.354675,0,0,0,0,0,0,0,-1,1868,603,3.58082,-0.354704
651,421,3.28687,3.66351,0,0,0,0,0,0,0,-1,1875,603,3.28688,-3.66353
658,421,0,0,0,0,0,0,0,0,0,-1,1882,603,0,0
665,421,0,0,0,0,0,0,0,0,0,-1,1889,603,0,0
672,421,0,0,0,0,0,0,0,0,0,-1,1896,603,0,0
679,421,0,0,0,0,0,0,0,0,0,-1,1903,603,0,0
686,421,0,0,0,0,0,0,0,0,0,-1,1910,603,0,0
693,421,0,0,0,0,0,0,0,0,0,-1,1917,603,0,0
700,421,0,0,0,0,0,0,0,0,0,-1,1924,603,0,0
707,421,0,0,0,0,0,0,0,0,0,-1,1931,603,0,0
714,421,0,0,0,0,0,0,0,0,0,-1,1938,603,0,0
721,421,0,0,0,0,0,0,0,0,0,-1,1945,603,0,0
728,421,0,0,0,0,0,0,0,0,0,-1,1952,603,0,0
735,421,0,0,0,0,0,0,0,0,0,-1,1959,603,0,0
742,421,0,0,0,0,0,0,0,0,0,-1,1966,603,0,0
749,421,0,0,0,0,0,0,0,0,0,-1,1973,603,0,0
756,421,0,0,0,0,0,0,0,0,0,-1,1980,603,0,0
763,421,0,0,0,0,0,0,0,0,0,-1,1987,603,0,0
770,421,0,0,0,0,0,0,0,0,0,-1,1994,603,0,0
777,421,0,0,0,0,0,0,0,0,0,-1,2001,603,0,0
784,421,0,0,0,0,0,0,0,0,0,-1,2008,603,0,0
791,421,0,0,0,0,0,0,0,0,0,-1,2015,603,0,0
798,421,0,0,0,0,0,0,0,0,0,-1,2022,603,0,0
805,421,0,0,0,0,0,0,0,0,0,-1,2029,603,0,0
812,421,0,0,0,0,0,0,0,0,0,-1,2036,603,0,0
-700,414,0,0,0,0,0,0,0,0,0,-1,524,610,0,0
-693,414,0,0,0,0,0,0,0,0,0,-1,531,610,0,0
-686,414,0,0,0,0,0,0,0,0,0,-1,538,610,0,0
-679,414,0,0,0,0,0,0,0,0,0,-1,545,610,0,0
-672,414,0,0,0,0,0,0,0,0,0,-1,552,610,0,0
-665,414,0,0,0,0,0,0,0,0,0,-1,559,610,0,0
-658,414,0,0,0,0,0,0,0,0,0,-1,566,610,0,0
-651,414,0,0,0,0,0,0,0,0,0,-1,573,610,0,0
-644,414,0,0,0,0,0,0,0,0,0,-1,580,610,0,0
-637,414,0,0,0,0,0,0,0,0,0,-1,587,610,0,0
-630,414,0,0,0,0,0,0,0,0,0,-1,594,610,0,0
-623,414,0,0,0,0,0,0,0,0,0,-1,601,610,0,0
-616,414,0,0,0,0,0,0,0,0,0,-1,608,610,0,0
-609,414,0,0,0,0,0,0,0,0,0,-1,615,610,0,0
-602,414,0,0,0,0,0,0,0,0,0,-1,622,610,0,0
-595,414,0,0,0,0,0,0,0,0,0,-1,629,610,0,0
-588,414,0,0,0,0,0,0,0,0,0,-1,636,610,0,0
-581,414,0,0,0,0,0,0,0,0,0,-1,643,610,0,0
-574,414,0,0,0,0,0,0,0,0,0,-1,650,610,0,0
-567,414,0,0,0,0,0,0,0,0,0,-1,657,610,0,0
-560,414,0,0,0,0,0,0,0,0,0,-1,664,610,0,0
-553,414,0,0,0,0,0,0,0,0,0,-1,671,610,0,0
-546,414,0,0,0,0,0,0,0,0,0,-1,678,610,0,0
-539,414,-7.50146,5.65619,0,0,0,0,0,0,0,-1,685,610,-7.50149,-5.65617
-532,414,-8.15204,4.01605,-0.0203988,0.42636,-0.188012,0.494951,-0.0889902,-1.22098,0.363282,0.0475453,692,610,-8.15206,-4.01606
-525,414,-8.80328,2.42987,-0.0129889,0.346517,-0.153575,0.403188,-0.06966,-1.21728,0.294769,0.0475138,699,610,-8.8033,-2.42985
-518,414,-9.47467,0.875122,0,0,0,0,0,0,0,-1,706,610,-9.47467,-0.875095
-511,414,-4.86432,-3.59082,0,0,0,0,0,0,0,-1,713,610,-4.86433,3.59081
-504,414,-2.26416,-2.87775,0,0,0,0,0,0,0,-1,720,610,-2.26415,2.87776
-497,414,-3.02399,-2.39667,0,0,0,0,0,0,0,-1,727,610,-3.02398,2.39668
-490,414,-3.1778,-2.02448,0.00798365,0.0660862,-0.0322596,0.0804476,-0.00637775,-1.15196,0.0558791,0.0362921,734,610,-3.1778,2.02449
-483,414,-3.15869,-2.3476,0.00812987,0.0423833,-0.021688,0.0528916,-0.00237843,-1.11961,0.03608,0.0162285,741,610,-3.15868,2.34758
-476,414,-3.17688,-2.60205,0.00821064,0.0209383,-0.0120188,0.0281741,0.000974841,-1.02888,0.0184664,0.01085,748,610,-3.17691,2.60205
-469,414,-3.15961,-2.82318,0.00739982,0.00980194,-0.00677351,0.0154801,0.00172171,-0.873145,0.00979669,0.0117628,755,610,-3.15963,2.82316
-462,414,-3.13593,-3.05817,0.00561782,0.00735651,-0.00521841,0.0117775,0.00119684,-0.867936,0.00748468,0.0213029,762,610,-3.13591,3.05816
-455,414,-3.1593,-3.29773,0.00407275,0.00521249,-0.00373909,0.00842489,0.00086035,-0.861021,0.00535291,0.0246962,769,610,-3.1593,3.29773
-448,414,-3.21466,-3.50629,0.00288417,0.00330699,-0.00238952,0.00549443,0.00069673,-0.82952,0.00345421,0.023815,776,610,-3.21468,3.50631
-441,414,-3.20331,-3.72571,0.00181978,0.00164189,-0.00123832,0.00297234,0.000489329,-0.749546,0.00184027,0.0167029,783,610,-3.2033,3.72572
-434,414,-3.18451,-3.96814,0.000676198,3.7695e-05,1.31442e-05,0.000676468,3.74245e-05,0.0205744,0.000439036,0.00944253,790,610,-3.18453,3.96815
-427,414,-3.18054,-4.17859,-0.000413907,-0.0015222,0.00124371,0.000393525,-0.00232963,0.575821,0.00169952,0.0096923,797,610,-3.18057,4.1786
-420,414,-3.16931,-4.39093,-0.00199875,-0.00319482,0.00279723,0.000263662,-0.00545723,0.680085,0.00372915,0.0102371,804,610,-3.1693,4.39095
-413,414,-3.16553,-4.64575,-0.00320715,-0.0045872,0.0041111,0.000271432,-0.00806578,0.702251,0.00546991,0.0108718,811,610,-3.16552,4.64577
-406,414,-3.16083,-4.94141,-0.00472648,-0.00619894,0.00566846,0.000253365,-0.0111788,0.720819,0.0075384,0.0161366,818,610,-3.16085,4.94141
-399,414,-3.15906,-5.10559,-0.00664662,-0.00843775,0.0075511,6.1837e-05,-0.0151462,0.726373,0.0101181,0.0235056,825,610,-3.15905,5.10558
-392,414,-3.23511,-5.25287,-0.00935225,-0.0111002,0.00995908,-0.000228869,-0.0202236,0.741632,0.0134067,0.0287592,832,610,-3.23512,5.25285
-385,414,-3.48285,-5.50116,-0.0127581,-0.0143685,0.0128117,-0.000726243,-0.0264003,0.754015,0.0173632,0.04165,839,610,-3.48282,5.50116
-378,414,-4.06506,-5.48645,0,0,0,0,0,0,0,-1,846,610,-4.06508,5.48647
-371,414,-5.39606,-4.74817,0,0,0,0,0,0,0,-1,853,610,-5.39605,4.74819
-364,414,-6.50073,-4.5943,0,0,0,0,0,0,0,-1,860,610,-6.50071,4.59432
-357,414,-5.95874,-2.51605,0,0,0,0,0,0,0,-1,867,610,-5.95872,2.51603
-350,414,-6.4502,-2.41821,0,0,0,0,0,0,0,-1,874,610,-6.45021,2.41822
-343,414,-6.80249,-2.32117,0,0,0,0,0,0,0,-1,881,610,-6.80252,2.32116
-336,414,-7.11017,-2.52026,0,0,0,0,0,0,0,-1,888,610,-7.11016,2.52026
-329,414,-7.59747,-2.70313,0,0,0,0,0,0,0,-1,895,610,-7.59747,2.70315
-322,414,-4.42236,-1.29163,0,0,0,0,0,0,0,-1,902,610,-4.42238,1.2916
-315,414,0,0,0,0,0,0,0,0,0,-1,909,610,0,0
-308,414,0,0,0,0,0,0,0,0,0,-1,916,610,0,0
-301,414,0,0,0,0,0,0,0,0,0,-1,923,610,0,0
-294,414,0,0,0,0,0,0,0,0,0,-1,930,610,0,0
-287,414,0,0,0,0,0,0,0,0,0,-1,937,610,0,0
-280,414,0,0,0,0,0,0,0,0,0,-1,944,610,0,0
-273,414,0,0,0,0,0,0,0,0,0,-1,951,610,0,0
-266,414,0,0,0,0,0,0,0,0,0,-1,958,610,0,0
-259,414,0,0,0,0,0,0,0,0,0,-1,965,610,0,0
-252,414,0,0,0,0,0,0,0,0,0,-1,972,610,0,0
-245,414,0,0,0,0,0,0,0,0,0,-1,979,610,0,0
-238,414,0,0,0,0,0,0,0,0,0,-1,986,610,0,0
-231,414,0,0,0,0,0,0,0,0,0,-1,993,610,0,0
-224,414,0,0,0,0,0,0,0,0,0,-1,1000,610,0,0
-217,414,0,0,0,0,0,0,0,0,0,-1,1007,610,0,0
-210,414,0,0,0,0,0,0,0,0,0,-1,1014,610,0,0
-203,414,0,0,0,0,0,0,0,0,0,-1,1021,610,0,0
-196,414,0,0,0,0,0,0,0,0,0,-1,1028,610,0,0
-189,414,0,0,0,0,0,0,0,0,0,-1,1035,610,0,0
-182,414,0,0,0,0,0,0,0,0,0,-1,1042,610,0,0
-175,414,0,0,0,0,0,0,0,0,0,-1,1049,610,0,0
-168,414,0,0,0,0,0,0,0,0,0,-1,1056,610,0,0
-161,414,0,0,0,0,0,0,0,0,0,-1,1063,610,0,0
-154,414,0,0,0,0,0,0,0,0,0,-1,1070,610,0,0
-147,414,0,0,0,0,0,0,0,0,0,-1,1077,610,0,0
-140,414,0,0,0,0,0,0,0,0,0,-1,1084,610,0,0
-133,414,0,0,0,0,0,0,0,0,0,-1,1091,610,0,0
-126,414,0,0,0,0,0,0,0,0,0,-1,1098,610,0,0
-119,414,0,0,0,0,0,0,0,0,0,-1,1105,610,0,0
-112,414,0,0,0,0,0,0,0,0,0,-1,1112,610,0,0
-105,414,0,0,0,0,0,0,0,0,0,-1,1119,610,0,0
-98,414,0,0,0,0,0,0,0,0,0,-1,1126,610,0,0
-91,414,0,0,0,0,0,0,0,0,0,-1,1133,610,0,0
-84,414,0,0,0,0,0,0,0,0,0,-1,1140,610,0,0
-77,414,0,0,0,0,0,0,0,0,0,-1,1147,610,0,0
-70,414,0,0,0,0,0,0,0,0,0,-1,1154,610,0,0
-63,414,0,0,0,0,0,0,0,0,0,-1,1161,610,0,0
-56,414,0,0,0,0,0,0,0,0,0,-1,1168,610,0,0
-49,414,0,0,0,0,0,0,0,0,0,-1,1175,610,0,0
-42,414,0,0,0,0,0,0,0,0,0,-1,1182,610,0,0
-35,414,0,0,0,0,0,0,0,0,0,-1,1189,610,0,0
-28,414,0,0,0,0,0,0,0,0,0,-1,1196,610,0,0
-21,414,0,0,0,0,0,0,0,0,0,-1,1203,610,0,0
-14,414,0,0,0,0,0,0,0,0,0,-1,1210,610,0,0
-7,414,0,0,0,0,0,0,0,0,0,-1,1217,610,0,0
0,414,0,0,0,0,0,0,0,0,0,-1,1224,610,0,0
7,414,0,0,0,0,0,0,0,0,0,-1,1231,610,0,0
14,414,0,0,0,0,0,0,0,0,0,-1,1238,610,0,0
21,414,0,0,0,0,0,0,0,0,0,-1,1245,610,0,0
28,414,0,0,0,0,0,0,0,0,0,-1,1252,610,0,0
35,414,0,0,0,0,0,0,0,0,0,-1,1259,610,0,0
42,414,0,0,0,0,0,0,0,0,0,-1,1266,610,0,0
49,414,0,0,0,0,0,0,0,0,0,-1,1273,610,0,0
56,414,0,0,0,0,0,0,0,0,0,-1,1280,610,0,0
63,414,0,0,0,0,0,0,0,0,0,-1,1287,610,0,0
70,414,0,0,0,0,0,0,0,0,0,-1,1294,610,0,0
77,414,0,0,0,0,0,0,0,0,0,-1,1301,610,0,0
84,414,0,0,0,0,0,0,0,0,0,-1,1308,610,0,0
91,414,0,0,0,0,0,0,0,0,0,-1,1315,610,0,0
98,414,0,0,0,0,0,0,0,0,0,-1,1322,610,0,0
105,414,0,0,0,0,0,0,0,0,0,-1,1329,610,0,0
112,414,0,0,0,0,0,0,0,0,0,-1,1336,610,0,0
119,414,0,0,0,0,0,0,0,0,0,-1,1343,610,0,0
126,414,0,0,0,0,0,0,0,0,0,-1,1350,610,0,0
133,414,0,0,0,0,0,0,0,0,0,-1,1357,610,0,0
140,414,0,0,0,0,0,0,0,0,0,-1,1364,610,0,0
147,414,0,0,0,0,0,0,0,0,0,-1,1371,610,0,0
154,414,0,0,0,0,0,0,0,0,0,-1,1378,610,0,0
161,414,0,0,0,0,0,0,0,0,0,-1,1385,610,0,0
168,414,0,0,0,0,0,0,0,0,0,-1,1392,610,0,0
175,414,0,0,0,0,0,0,0,0,0,-1,1399,610,0,0
182,414,0,0,0,0,0,0,0,0,0,-1,1406,610,0,0
189,414,0,0,0,0,0,0,0,0,0,-1,1413,610,0,0
196,414,0,0,0,0,0,0,0,0,0,-1,1420,610,0,0
203,414,0,0,0,0,0,0,0,0,0,-1,1427,610,0,0
210,414,0,0,0,0,0,0,0,0,0,-1,1434,610,0,0
217,414,0,0,0,0,0,0,0,0,0,-1,1441,610,0,0
224,414,0,0,0,0,0,0,0,0,0,-1,1448,610,0,0
231,414,0,0,0,0,0,0,0,0,0,-1,1455,610,0,0
238,414,0,0,0,0,0,0,0,0,0,-1,1462,610,0,0
245,414,0,0,0,0,0,0,0,0,0,-1,1469,610,0,0
252,414,0,0,0,0,0,0,0,0,0,-1,1476,610,0,0
259,414,0,0,0,0,0,0,0,0,0,-1,1483,610,0,0
266,414,0,0,0,0,0,0,0,0,0,-1,1490,610,0,0
273,414,0,0,0,0,0,0,0,0,0,-1,1497,610,0,0
280,414,0,0,0,0,0,0,0,0,0,-1,1504,610,0,0
287,414,0,0,0,0,0,0,0,0,0,-1,1511,610,0,0
294,414,0,0,0,0,0,0,0,0,0,-1,1518,610,0,0
301,414,0,0,0,0,0,0,0,0,0,-1,1525,610,0,0
308,414,0,0,0,0,0,0,0,0,0,-1,1532,610,0,0
315,414,0,0,0,0,0,0,0,0,0,-1,1539,610,0,0
322,414,0,0,0,0,0,0,0,0,0,-1,1546,610,0,0
329,414,0,0,0,0,0,0,0,0,0,-1,1553,610,0,0
336,414,0,0,0,0,0,0,0,0,0,-1,1560,610,0,0
343,414,0,0,0,0,0,0,0,0,0,-1,1567,610,0,0
350,414,0,0,0,0,0,0,0,0,0,-1,1574,610,0,0
357,414,0,0,0,0,0,0,0,0,0,-1,1581,610,0,0
364,414,0,0,0,0,0,0,0,0,0,-1,1588,610,0,0
371,414,0,0,0,0,0,0,0,0,0,-1,1595,610,0,0
378,414,0,0,0,0,0,0,0,0,0,-1,1602,610,0,0
385,414,0,0,0,0,0,0,0,0,0,-1,1609,610,0,0
392,414,0,0,0,0,0,0,0,0,0,-1,1616,610,0,0
399,414,0,0,0,0,0,0,0,0,0,-1,1623,610,0,0
406,414,0,0,0,0,0,0,0,0,0,-1,1630,610,0,0
413,414,0,0,0,0,0,0,0,0,0,-1,1637,610,0,0
420,414,0,0,0,0,0,0,0,0,0,-1,1644,610,0,0
427,414,0,0,0,0,0,0,0,0,0,-1,1651,610,0,0
434,414,0,0,0,0,0,0,0,0,0,-1,1658,610,0,0
441,414,7.84375,0.584412,0,0,0,0,0,0,0,-1,1665,610,7.84379,-0.584394
448,414,7.40808,1.25446,0,0,0,0,0,0,0,-1,1672,610,7.40807,-1.25446
455,414,6.3512,1.73846,0,0,0,0,0,0,0,-1,1679,610,6.3512,-1.73847
462,414,8.18103,3.22113,0,0,0,0,0,0,0,-1,1686,610,8.18108,-3.22112
469,414,8.38513,2.49579,0,0,0,0,0,0,0,-1,1693,610,8.38516,-2.49576
476,414,8.64099,1.71161,0,0,0,0,0,0,0,-1,1700,610,8.64097,-1.71164
483,414,8.62744,0.687622,0,0,0,0,0,0,0,-1,1707,610,8.62749,-0.687615
490,414,8.38831,-0.0302734,0,0,0,0,0,0,0,-1,1714,610,8.38835,0.0302913
497,414,4.71094,-0.110046,0,0,0,0,0,0,0,-1,1721,610,4.71089,0.110024
504,414,7.19568,-1.43835,0,0,0,0,0,0,0,-1,1728,610,7.19563,1.43836
511,414,5.94153,-1.28772,0,0,0,0,0,0,0,-1,1735,610,5.94151,1.28769
518,414,4.53381,-0.0996704,0,0,0,0,0,0,0,-1,1742,610,4.53378,0.0996819
525,414,6.18811,-1.64056,0,0,0,0,0,0,0,-1,1749,610,6.18814,1.64055
532,414,8.43628,-3.565,0,0,0,0,0,0,0,-1,1756,610,8.43628,3.56499
539,414,8.4679,-3.14673,0.000945062,0.000588004,0.000617911,0.00140972,0.000123349,0.644766,0.000901513,0.0380945,1763,610,8.46793,3.14673
546,414,8.48584,-2.80304,0.000286669,0.000371125,0.000249445,0.000581891,7.59028e-05,0.869248,0.000365265,0.0125365,1770,610,8.4858,2.80304
553,414,8.50757,-2.57458,-6.11851e-05,0.000276516,5.05083e-05,0.000283908,-6.85776e-05,1.42547,0.000215795,0.0113487,1777,610,8.50762,2.57458
560,414,8.51697,-2.33484,-0.000267588,0.000194718,-8.21129e-05,0.00020887,-0.00028174,-1.40013,0.000284293,0.0137127,1784,610,8.51691,2.33485
567,414,8.5155,-2.07544,-0.000396501,0.000235333,-0.000127018,0.000259912,-0.000421079,-1.37966,0.000396824,0.0228726,1791,610,8.51546,2.07542
574,414,8.48547,-1.8371,-0.000169923,0.000258016,6.42852e-06,0.000258112,-0.000170019,1.55578,0.00024892,0.0200912,1798,610,8.48545,1.8371
581,414,8.49011,-1.58264,0.000218,0.00036312,0.000193478,0.000497197,8.39233e-05,0.964797,0.000307334,0.0153207,1805,610,8.4901,1.58263
588,414,8.47668,-1.35376,0.00062518,0.000536984,0.000474937,0.00105806,0.000104102,0.739106,0.000673362,0.0146098,1812,610,8.47667,1.35378
595,414,8.46802,-1.08044,0.0012322,0.000625112,0.000780143,0.00176577,9.15418e-05,0.599865,0.00114789,0.0203197,1819,610,8.46796,1.08043
602,414,8.48645,-0.832031,0.00192827,0.00079475,0.00115425,0.0026474,7.56242e-05,0.557178,0.00174027,0.0231352,1826,610,8.48645,0.832052
609,414,8.41882,-0.595276,0.00240684,0.000742336,0.00155812,0.00334105,-0.00019187,0.540106,0.002294,0.0241555,1833,610,8.41885,0.595271
616,414,8.73901,-0.137268,0,0,0,0,0,0,0,-1,1840,610,8.73901,0.137269
623,414,8.70325,0.0610352,0,0,0,0,0,0,0,-1,1847,610,8.70329,-0.0610619
630,414,5.47144,0.499329,0,0,0,0,0,0,0,-1,1854,610,5.47142,-0.499303
637,414,6.57898,2.38019,0,0,0,0,0,0,0,-1,1861,610,6.579,-2.38019
644,414,5.87073,1.51422,0,0,0,0,0,0,0,-1,1868,610,5.87076,-1.51424
651,414,3.6377,0.820557,0,0,0,0,0,0,0,-1,1875,610,3.6377,-0.820543
658,414,2.29761,3.87323,0,0,0,0,0,0,0,-1,1882,610,2.29758,-3.87325
665,414,0,0,0,0,0,0,0,0,0,-1,1889,610,0,0
672,414,0,0,0,0,0,0,0,0,0,-1,1896,610,0,0
679,414,0,0,0,0,0,0,0,0,0,-1,1903,610,0,0
686,414,0,0,0,0,0,0,0,0,0,-1,1910,610,0,0
693,414,0,0,0,0,0,0,0,0,0,-1,1917,610,0,0
700,414,0,0,0,0,0,0,0,0,0,-1,1924,610,0,0
707,414,0,0,0,0,0,0,0,0,0,-1,1931,610,0,0
714,414,0,0,0,0,0,0,0,0,0,-1,1938,610,0,0
721,414,0,0,0,0,0,0,0,0,0,-1,1945,610,0,0
728,414,0,0,0,0,0,0,0,0,0,-1,1952,610,0,0
735,414,0,0,0,0,0,0,0,0,0,-1,1959,610,0,0
742,414,0,0,0,0,0,0,0,0,0,-1,1966,610,0,0
749,414,0,0,0,0,0,0,0,0,0,-1,1973,610,0,0
756,414,0,0,0,0,0,0,0,0,0,-1,1980,610,0,0
763,414,0,0,0,0,0,0,0,0,0,-1,1987,610,0,0
770,414,0,0,0,0,0,0,0,0,0,-1,1994,610,0,0
777,414,0,0,0,0,0,0,0,0,0,-1,2001,610,0,0
784,414,0,0,0,0,0,0,0,0,0,-1,2008,610,0,0
791,414,0,0,0,0,0,0,0,0,0,-1,2015,610,0,0
798,414,0,0,0,0,0,0,0,0,0,-1,2022,610,0,0
805,414,0,0,0,0,0,0,0,0,0,-1,2029,610,0,0
812,414,0,0,0,0,0,0,0,0,0,-1,2036,610,0,0
-700,407,0,0,0,0,0,0,0,0,0,-1,524,617,0,0
-693,407,0,0,0,0,0,0,0,0,0,-1,531,617,0,0
-686,407,0,0,0,0,0,0,0,0,0,-1,538,617,0,0
-679,407,0,0,0,0,0,0,0,0,0,-1,545,617,0,0
-672,407,0,0,0,0,0,0,0,0,0,-1,552,617,0,0
-665,407,0,0,0,0,0,0,0,0,0,-1,559,617,0,0
-658,407,0,0,0,0,0,0,0,0,0,-1,566,617,0,0
-651,407,0,0,0,0,0,0,0,0,0,-1,573,617,0,0
-644,407,0,0,0,0,0,0,0,0,0,-1,580,617,0,0
-637,407,0,0,0,0,0,0,0,0,0,-1,587,617,0,0
-630,407,0,0,0,0,0,0,0,0,0,-1,594,617,0,0
-623,407,0,0,0,0,0,0,0,0,0,-1,601,617,0,0
-616,407,0,0,0,0,0,0,0,0,0,-1,608,617,0,0
-609,407,0,0,0,0,0,0,0,0,0,-1,615,617,0,0
-602,407,0,0,0,0,0,0,0,0,0,-1,622,617,0,0
-595,407,0,0,0,0,0,0,0,0,0,-1,629,617,0,0
-588,407,0,0,0,0,0,0,0,0,0,-1,636,617,0,0
-581,407,0,0,0,0,0,0,0,0,0,-1,643,617,0,0
-574,407,0,0,0,0,0,0,0,0,0,-1,650,617,0,0
-567,407,0,0,0,0,0,0,0,0,0,-1,657,617,0,0
-560,407,0,0,0,0,0,0,0,0,0,-1,664,617,0,0
-553,407,0,0,0,0,0,0,0,0,0,-1,671,617,0,0
-546,407,-8.54517,-0.658142,0,0,0,0,0,0,0,-1,678,617,-8.54515,0.658112
-539,407,-6.09442,-1.01154,0,0,0,0,0,0,0,-1,685,617,-6.09441,1.01155
-532,407,-7.75665,1.62152,0,0,0,0,0,0,0,-1,692,617,-7.75667,-1.62154
-525,407,-8.45776,-0.0841064,0,0,0,0,0,0,0,-1,699,617,-8.45779,0.0841091
-518,407,-1.79602,-0.880981,0,0,0,0,0,0,0,-1,706,617,-1.796,0.880991
-511,407,-1.7511,-2.38977,0,0,0,0,0,0,0,-1,713,617,-1.75107,2.38978
-504,407,-3.16095,-2.36511,0,0,0,0,0,0,0,-1,720,617,-3.16095,2.36514
-497,407,-3.24921,-2.28674,0.0039222,0.0769639,-0.0357123,0.0915228,-0.0106367,-1.18369,0.0648522,0.0426013,727,617,-3.24919,2.28676
-490,407,-3.37372,-2.18048,0.00502176,0.0501106,-0.0239868,0.0604845,-0.00535215,-1.1626,0.0422203,0.0207347,734,617,-3.37369,2.1805
-483,407,-3.3797,-2.37323,0.00529061,0.0317273,-0.0159307,0.0392095,-0.00219159,-1.1317,0.0268999,0.0113207,741,617,-3.3797,2.37323
-476,407,-3.38074,-2.5791,0.00551101,0.0151794,-0.00856383,0.0201793,0.000511155,-1.04235,0.0132857,0.00925681,748,617,-3.38073,2.57912
-469,407,-3.37714,-2.80634,0.00507319,0.00673843,-0.00463513,0.0106151,0.00119649,-0.874267,0.00671356,0.0121254,755,617,-3.37714,2.80633
-462,407,-3.36597,-3.05603,0.00386332,0.00493251,-0.00353383,0.00797195,0.000823876,-0.860469,0.0050624,0.0203776,762,617,-3.36599,3.05604
-455,407,-3.3924,-3.29364,0.00281185,0.00330206,-0.00240734,0.00547674,0.000637163,-0.836132,0.0034584,0.02275,769,617,-3.39239,3.29362
-448,407,-3.40875,-3.49078,0.00202441,0.00176736,-0.00132721,0.0032293,0.000562471,-0.73713,0.00199202,0.0186127,776,617,-3.40874,3.4908
-441,407,-3.41315,-3.70715,0.00117377,0.000300992,-0.000330482,0.00128478,0.000189975,-0.324082,0.000800746,0.0140834,783,617,-3.41312,3.70715
-434,407,-3.39813,-3.94434,0.000125102,-0.00116507,0.000859833,0.000554935,-0.0015949,0.46357,0.00128871,0.00974023,790,617,-3.39813,3.94433
-427,407,-3.38873,-4.17755,-0.000848768,-0.00259846,0.00201341,0.000471653,-0.00391888,0.58045,0.00278316,0.0101024,797,617,-3.38875,4.17755
-420,407,-3.38159,-4.39526,-0.00238806,-0.00424338,0.00360611,0.000407795,-0.00703924,0.659504,0.0048345,0.0109397,804,617,-3.38161,4.39526
-413,407,-3.36176,-4.63416,-0.0037264,-0.00591167,0.00513625,0.00043215,-0.0100702,0.680595,0.00686207,0.0116491,811,617,-3.36175,4.63416
-406,407,-3.37695,-4.81427,-0.00565979,-0.00793201,0.00706209,0.000356989,-0.0139488,0.705644,0.00942045,0.0209917,818,617,-3.37693,4.81429
-399,407,-3.32544,-4.88519,-0.00823593,-0.0107293,0.00946728,6.63958e-05,-0.0190316,0.719933,0.0127099,0.0361297,825,617,-3.32544,4.88518
-392,407,-3.367,-4.98639,-0.011824,-0.0141218,0.0125973,-0.000323348,-0.0256225,0.739923,0.0169749,0.0455032,832,617,-3.36702,4.98637
-385,407,-3.81494,-5.42426,0,0,0,0,0,0,0,-1,839,617,-3.81494,5.42425
-378,407,-4.61768,-5.20813,0,0,0,0,0,0,0,-1,846,617,-4.61769,5.20815
-371,407,-6.34863,-4.13275,0,0,0,0,0,0,0,-1,853,617,-6.34862,4.13276
-364,407,-6.26666,-1.91302,0,0,0,0,0,0,0,-1,860,617,-6.26669,1.91305
-357,407,-6.64447,-1.83337,0,0,0,0,0,0,0,-1,867,617,-6.64446,1.8334
-350,407,-7.03351,-1.77551,0,0,0,0,0,0,0,-1,874,617,-7.03349,1.77551
-343,407,-7.40967,-1.95026,0,0,0,0,0,0,0,-1,881,617,-7.40969,1.95026
-336,407,-8.10229,-2.40662,0,0,0,0,0,0,0,-1,888,617,-8.10229,2.40664
-329,407,-8.81232,-2.76331,0,0,0,0,0,0,0,-1,895,617,-8.81235,2.76331
-322,407,0,0,0,0,0,0,0,0,0,-1,902,617,0,0
-315,407,0,0,0,0,0,0,0,0,0,-1,909,617,0,0
-308,407,0,0,0,0,0,0,0,0,0,-1,916,617,0,0
-301,407,0,0,0,0,0,0,0,0,0,-1,923,617,0,0
-294,407,0,0,0,0,0,0,0,0,0,-1,930,617,0,0
-287,407,0,0,0,0,0,0,0,0,0,-1,937,617,0,0
-280,407,0,0,0,0,0,0,0,0,0,-1,944,617,0,0
-273,407,0,0,0,0,0,0,0,0,0,-1,951,617,0,0
-266,407,0,0,0,0,0,0,0,0,0,-1,958,617,0,0
-259,407,0,0,0,0,0,0,0,0,0,-1,965,617,0,0
-252,407,0,0,0,0,0,0,0,0,0,-1,972,617,0,0
-245,407,0,0,0,0,0,0,0,0,0,-1,979,617,0,0
-238,407,0,0,0,0,0,0,0,0,0,-1,986,617,0,0
-231,407,0,0,0,0,0,0,0,0,0,-1,993,617,0,0
-224,407,0,0,0,0,0,0,0,0,0,-1,1000,617,0,0
-217,407,0,0,0,0,0,0,0,0,0,-1,1007,617,0,0
-210,407,0,0,0,0,0,0,0,0,0,-1,1014,617,0,0
-203,407,0,0,0,0,0,0,0,0,0,-1,1021,617,0,0
-196,407,0,0,0,0,0,0,0,0,0,-1,1028,617,0,0
-189,407,0,0,0,0,0,0,0,0,0,-1,1035,617,0,0
-182,407,0,0,0,0,0,0,0,0,0,-1,1042,617,0,0
-175,407,0,0,0,0,0,0,0,0,0,-1,1049,617,0,0
-168,407,0,0,0,0,0,0,0,0,0,-1,1056,617,0,0
-161,407,0,0,0,0,0,0,0,0,0,-1,1063,617,0,0
-154,407,0,0,0,0,0,0,0,0,0,-1,1070,617,0,0
-147,407,0,0,0,0,0,0,0,0,0,-1,1077,617,0,0
-140,407,0,0,0,0,0,0,0,0,0,-1,1084,617,0,0
-133,407,0,0,0,0,0,0,0,0,0,-1,1091,617,0,0
-126,407,0,0,0,0,0,0,0,0,0,-1,1098,617,0,0
-119,407,0,0,0,0,0,0,0,0,0,-1,1105,617,0,0
-112,407,0,0,0,0,0,0,0,0,0,-1,1112,617,0,0
-105,407,0,0,0,0,0,0,0,0,0,-1,1119,617,0,0
-98,407,0,0,0,0,0,0,0,0,0,-1,1126,617,0,0
-91,407,0,0,0,0,0,0,0,0,0,-1,1133,617,0,0
-84,407,0,0,0,0,0,0,0,0,0,-1,1140,617,0,0
-77,407,0,0,0,0,0,0,0,0,0,-1,1147,617,0,0
-70,407,0,0,0,0,0,0,0,0,0,-1,1154,617,0,0
-63,407,0,0,0,0,0,0,0,0,0,-1,1161,617,0,0
-56,407,0,0,0,0,0,0,0,0,0,-1,1168,617,0,0
-49,407,0,0,0,0,0,0,0,0,0,-1,1175,617,0,0
-42,407,0,0,0,0,0,0,0,0,0,-1,1182,617,0,0
-35,407,0,0,0,0,0,0,0,0,0,-1,1189,617,0,0
-28,407,0,0,0,0,0,0,0,0,0,-1,1196,617,0,0
-21,407,0,0,0,0,0,0,0,0,0,-1,1203,617,0,0
-14,407,0,0,0,0,0,0,0,0,0,-1,1210,617,0,0
-7,407,0,0,0,0,0,0,0,0,0,-1,1217,617,0,0
0,407,0,0,0,0,0,0,0,0,0,-1,1224,617,0,0
7,407,0,0,0,0,0,0,0,0,0,-1,1231,617,0,0
14,407,0,0,0,0,0,0,0,0,0,-1,1238,617,0,0
21,407,0,0,0,0,0,0,0,0,0,-1,1245,617,0,0
28,407,0,0,0,0,0,0,0,0,0,-1,1252,617,0,0
35,407,0,0,0,0,0,0,0,0,0,-1,1259,617,0,0
42,407,0,0,0,0,0,0,0,0,0,-1,1266,617,0,0
49,407,0,0,0,0,0,0,0,0,0,-1,1273,617,0,0
56,407,0,0,0,0,0,0,0,0,0,-1,1280,617,0,0
63,407,0,0,0,0,0,0,0,0,0,-1,1287,617,0,0
70,407,0,0,0,0,0,0,0,0,0,-1,1294,617,0,0
77,407,0,0,0,0,0,0,0,0,0,-1,1301,617,0,0
84,407,0,0,0,0,0,0,0,0,0,-1,1308,617,0,0
91,407,0,0,0,0,0,0,0,0,0,-1,1315,617,0,0
98,407,0,0,0,0,0,0,0,0,0,-1,1322,617,0,0
105,407,0,0,0,0,0,0,0,0,0,-1,1329,617,0,0
112,407,0,0,0,0,0,0,0,0,0,-1,1336,617,0,0
119,407,0,0,0,0,0,0,0,0,0,-1,1343,617,0,0
126,407,0,0,0,0,0,0,0,0,0,-1,1350,617,0,0
133,407,0,0,0,0,0,0,0,0,0,-1,1357,617,0,0
140,407,0,0,0,0,0,0,0,0,0,-1,1364,617,0,0
147,407,0,0,0,0,0,0,0,0,0,-1,1371,617,0,0
154,407,0,0,0,0,0,0,0,0,0,-1,1378,617,0,0
161,407,0,0,0,0,0,0,0,0,0,-1,1385,617,0,0
168,407,0,0,0,0,0,0,0,0,0,-1,1392,617,0,0
175,407,0,0,0,0,0,0,0,0,0,-1,1399,617,0,0
182,407,0,0,0,0,0,0,0,0,0,-1,1406,617,0,0
189,407,0,0,0,0,0,0,0,0,0,-1,1413,617,0,0
196,407,0,0,0,0,0,0,0,0,0,-1,1420,617,0,0
203,407,0,0,0,0,0,0,0,0,0,-1,1427,617,0,0
210,407,0,0,0,0,0,0,0,0,0,-1,1434,617,0,0
217,407,0,0,0,0,0,0,0,0,0,-1,1441,617,0,0
224,407,0,0,0,0,0,0,0,0,0,-1,1448,617,0,0
231,407,0,0,0,0,0,0,0,0,0,-1,1455,617,0,0
238,407,0,0,0,0,0,0,0,0,0,-1,1462,617,0,0
245,407,0,0,0,0,0,0,0,0,0,-1,1469,617,0,0
252,407,0,0,0,0,0,0,0,0,0,-1,1476,617,0,0
259,407,0,0,0,0,0,0,0,0,0,-1,1483,617,0,0
266,407,0,0,0,0,0,0,0,0,0,-1,1490,617,0,0
273,407,0,0,0,0,0,0,0,0,0,-1,1497,617,0,0
280,407,0,0,0,0,0,0,0,0,0,-1,1504,617,0,0
287,407,0,0,0,0,0,0,0,0,0,-1,1511,617,0,0
294,407,0,0,0,0,0,0,0,0,0,-1,1518,617,0,0
301,407,0,0,0,0,0,0,0,0,0,-1,1525,617,0,0
308,407,0,0,0,0,0,0,0,0,0,-1,1532,617,0,0
315,407,0,0,0,0,0,0,0,0,0,-1,1539,617,0,0
322,407,0,0,0,0,0,0,0,0,0,-1,1546,617,0,0
329,407,0,0,0,0,0,0,0,0,0,-1,1553,617,0,0
336,407,0,0,0,0,0,0,0,0,0,-1,1560,617,0,0
343,407,0,0,0,0,0,0,0,0,0,-1,1567,617,0,0
350,407,0,0,0,0,0,0,0,0,0,-1,1574,617,0,0
357,407,0,0,0,0,0,0,0,0,0,-1,1581,617,0,0
364,407,0,0,0,0,0,0,0,0,0,-1,1588,617,0,0
371,407,0,0,0,0,0,0,0,0,0,-1,1595,617,0,0
378,407,0,0,0,0,0,0,0,0,0,-1,1602,617,0,0
385,407,0,0,0,0,0,0,0,0,0,-1,1609,617,0,0
392,407,0,0,0,0,0,0,0,0,0,-1,1616,617,0,0
399,407,0,0,0,0,0,0,0,0,0,-1,1623,617,0,0
406,407,0,0,0,0,0,0,0,0,0,-1,1630,617,0,0
413,407,0,0,0,0,0,0,0,0,0,-1,1637,617,0,0
420,407,0,0,0,0,0,0,0,0,0,-1,1644,617,0,0
427,407,0,0,0,0,0,0,0,0,0,-1,1651,617,0,0
434,407,0,0,0,0,0,0,0,0,0,-1,1658,617,0,0
441,407,0,0,0,0,0,0,0,0,0,-1,1665,617,0,0
448,407,7.02893,2.13843,0,0,0,0,0,0,0,-1,1672,617,7.02899,-2.13844
455,407,7.55237,2.29242,0,0,0,0,0,0,0,-1,1679,617,7.55236,-2.29244
462,407,8.2926,2.46173,0,0,0,0,0,0,0,-1,1686,617,8.29261,-2.46174
469,407,8.71509,2.22681,0,0,0,0,0,0,0,-1,1693,617,8.71511,-2.22681
476,407,8.89917,1.47766,0,0,0,0,0,0,0,-1,1700,617,8.89914,-1.47768
483,407,9.02612,0.682983,0,0,0,0,0,0,0,-1,1707,617,9.02608,-0.683004
490,407,9.12659,0.000671387,0,0,0,0,0,0,0,-1,1714,617,9.12653,-0.000675931
497,407,7.76819,0.855835,0,0,0,0,0,0,0,-1,1721,617,7.7682,-0.855865
504,407,4.69336,0.160706,0,0,0,0,0,0,0,-1,1728,617,4.69337,-0.1607
511,407,4.07104,-0.00140381,0,0,0,0,0,0,0,-1,1735,617,4.07109,0.00141425
518,407,6.09534,1.9411,0,0,0,0,0,0,0,-1,1742,617,6.09532,-1.94113
525,407,5.72534,-1.35986,0,0,0,0,0,0,0,-1,1749,617,5.72529,1.35988
532,407,7.31763,-2.34937,0,0,0,0,0,0,0,-1,1756,617,7.31766,2.34937
539,407,8.63928,-3.24969,0,0,0,0,0,0,0,-1,1763,617,8.63932,3.24972
546,407,8.72925,-2.79883,-0.000485504,0.000144559,-4.42602e-05,0.000147653,-0.000488598,-1.50101,0.000384519,0.014066,1770,617,8.72923,2.79884
553,407,8.73291,-2.56909,-0.000698761,0.000117721,-0.000172774,0.000152777,-0.000733817,-1.37062,0.000547291,0.0142105,1777,617,8.7329,2.56911
560,407,8.76221,-2.30658,-0.000760368,7.16123e-05,-0.000242377,0.000137072,-0.000825828,-1.30701,0.000601472,0.0153522,1784,617,8.76225,2.30656
567,407,8.74646,-2.08209,-0.000781939,0.000131334,-0.000239576,0.000190366,-0.000840971,-1.32921,0.000633706,0.0271984,1791,617,8.74642,2.08209
574,407,8.72498,-1.8559,-0.000467796,0.000192211,-6.63807e-05,0.000198821,-0.000474406,-1.47155,0.000399396,0.0231416,1798,617,8.72497,1.85589
581,407,8.72375,-1.58533,6.36419e-06,0.000341969,0.000157,0.000403963,-5.56301e-05,1.19472,0.000289639,0.015504,1805,617,8.72373,1.58532
588,407,8.71838,-1.34241,0.000489733,0.000555885,0.00045813,0.000982131,6.34859e-05,0.821435,0.000634652,0.0107792,1812,617,8.71841,1.34241
595,407,8.72949,-1.08685,0.00116173,0.000661691,0.000762508,0.00171416,0.00010926,0.626975,0.00110815,0.0204118,1819,617,8.72945,1.08688
602,407,8.75061,-0.81427,0.00191814,0.000897295,0.0011657,0.00268027,0.000135162,0.57904,0.00174354,0.0167024,1826,617,8.75057,0.814257
609,407,8.72119,-0.556396,0.0023076,0.00083934,0.00152827,0.00326892,-0.000121979,0.561488,0.00222106,0.0151377,1833,617,8.72122,0.556385
616,407,8.77441,-0.222168,0.00234483,0.000684932,0.00203312,0.00371087,-0.000681112,0.591614,0.00272943,0.0254124,1840,617,8.77439,0.222155
623,407,8.98755,0.17688,0,0,0,0,0,0,0,-1,1847,617,8.98755,-0.176907
630,407,7.06177,0.814575,0,0,0,0,0,0,0,-1,1854,617,7.06178,-0.814579
637,407,6.27808,1.17114,0,0,0,0,0,0,0,-1,1861,617,6.27803,-1.17116
644,407,5.09766,2.27747,0,0,0,0,0,0,0,-1,1868,617,5.09764,-2.27746
651,407,7.37524,0.0513916,0,0,0,0,0,0,0,-1,1875,617,7.3752,-0.0513923
658,407,3.76685,0.594177,0,0,0,0,0,0,0,-1,1882,617,3.76683,-0.594184
665,407,5.76123,0.375061,0,0,0,0,0,0,0,-1,1889,617,5.76118,-0.37509
672,407,0,0,0,0,0,0,0,0,0,-1,1896,617,0,0
679,407,0,0,0,0,0,0,0,0,0,-1,1903,617,0,0
686,407,0,0,0,0,0,0,0,0,0,-1,1910,617,0,0
693,407,0,0,0,0,0,0,0,0,0,-1,1917,617,0,0
700,407,0,0,0,0,0,0,0,0,0,-1,1924,617,0,0
707,407,0,0,0,0,0,0,0,0,0,-1,1931,617,0,0
714,407,0,0,0,0,0,0,0,0,0,-1,1938,617,0,0
721,407,0,0,0,0,0,0,0,0,0,-1,1945,617,0,0
728,407,0,0,0,0,0,0,0,0,0,-1,1952,617,0,0
735,407,0,0,0,0,0,0,0,0,0,-1,1959,617,0,0
742,407,0,0,0,0,0,0,0,0,0,-1,1966,617,0,0
749,407,0,0,0,0,0,0,0,0,0,-1,1973,617,0,0
756,407,0,0,0,0,0,0,0,0,0,-1,1980,617,0,0
763,407,0,0,0,0,0,0,0,0,0,-1,1987,617,0,0
770,407,0,0,0,0,0,0,0,0,0,-1,1994,617,0,0
777,407,0,0,0,0,0,0,0,0,0,-1,2001,617,0,0
784,407,0,0,0,0,0,0,0,0,0,-1,2008,617,0,0
791,407,0,0,0,0,0,0,0,0,0,-1,2015,617,0,0
798,407,0,0,0,0,0,0,0,0,0,-1,2022,617,0,0
805,407,0,0,0,0,0,0,0,0,0,-1,2029,617,0,0
812,407,0,0,0,0,0,0,0,0,0,-1,2036,617,0,0
-700,400,0,0,0,0,0,0,0,0,0,-1,524,624,0,0
-693,400,0,0,0,0,0,0,0,0,0,-1,531,624,0,0
-686,400,0,0,0,0,0,0,0,0,0,-1,538,624,0,0
-679,400,0,0,0,0,0,0,0,0,0,-1,545,624,0,0
-672,400,0,0,0,0,0,0,0,0,0,-1,552,624,0,0
-665,400,0,0,0,0,0,0,0,0,0,-1,559,624,0,0
-658,400,0,0,0,0,0,0,0,0,0,-1,566,624,0,0
-651,400,0,0,0,0,0,0,0,0,0,-1,573,624,0,0
-644,400,0,0,0,0,0,0,0,0,0,-1,580,624,0,0
-637,400,0,0,0,0,0,0,0,0,0,-1,587,624,0,0
-630,400,0,0,0,0,0,0,0,0,0,-1,594,624,0,0
-623,400,0,0,0,0,0,0,0,0,0,-1,601,624,0,0
-616,400,0,0,0,0,0,0,0,0,0,-1,608,624,0,0
-609,400,0,0,0,0,0,0,0,0,0,-1,615,624,0,0
-602,400,0,0,0,0,0,0,0,0,0,-1,622,624,0,0
-595,400,0,0,0,0,0,0,0,0,0,-1,629,624,0,0
-588,400,0,0,0,0,0,0,0,0,0,-1,636,624,0,0
-581,400,0,0,0,0,0,0,0,0,0,-1,643,624,0,0
-574,400,0,0,0,0,0,0,0,0,0,-1,650,624,0,0
-567,400,0,0,0,0,0,0,0,0,0,-1,657,624,0,0
-560,400,0,0,0,0,0,0,0,0,0,-1,664,624,0,0
-553,400,0,0,0,0,0,0,0,0,0,-1,671,624,0,0
-546,400,-8.41174,-1.4599,0,0,0,0,0,0,0,-1,678,624,-8.41173,1.45989
-539,400,-5.69104,-1.7337,0,0,0,0,0,0,0,-1,685,624,-5.69103,1.7337
-532,400,-3.03632,-2.03912,0,0,0,0,0,0,0,-1,692,624,-3.03632,2.03909
-525,400,-0.330627,-2.44366,0,0,0,0,0,0,0,-1,699,624,-0.330601,2.44365
-518,400,-2.65259,-0.450928,0,0,0,0,0,0,0,-1,706,624,-2.65262,0.45091
-511,400,-3.09399,-1.29883,0,0,0,0,0,0,0,-1,713,624,-3.09402,1.29881
-504,400,-3.6037,-2.11273,0,0,0,0,0,0,0,-1,720,624,-3.60368,2.11271
-497,400,-3.52222,-2.0556,0.00210167,0.0566285,-0.0259494,0.0670037,-0.00827351,-1.19044,0.0476669,0.0346778,727,624,-3.52223,2.05559
-490,400,-3.59009,-2.12683,0.00295952,0.0366373,-0.0172354,0.0438943,-0.00429741,-1.17228,0.0307954,0.0156008,734,624,-3.59008,2.12682
-483,400,-3.62048,-2.35199,0.00324052,0.0227887,-0.0112642,0.0279282,-0.00189899,-1.14274,0.019283,0.0137597,741,624,-3.62046,2.35197
-476,400,-3.6001,-2.56476,0.00350664,0.0104907,-0.00585883,0.0138192,0.000178096,-1.05414,0.00915403,0.0127187,748,624,-3.60007,2.56475
-469,400,-3.61011,-2.7962,0.00330531,0.00434559,-0.00303599,0.00690568,0.000745221,-0.870236,0.00437658,0.0147463,755,624,-3.61013,2.79621
-462,400,-3.59662,-3.06512,0.0025052,0.00297678,-0.00226385,0.00501709,0.000464899,-0.837289,0.00320103,0.0208387,762,624,-3.59664,3.06512
-455,400,-3.59973,-3.28656,0.00182149,0.00171013,-0.00139867,0.00316558,0.000366036,-0.765504,0.00199958,0.0215583,769,624,-3.59973,3.28655
-448,400,-3.63251,-3.49872,0.00133667,0.000428192,-0.000506047,0.00156244,0.000202418,-0.419649,0.00098114,0.0153701,776,624,-3.63248,3.4987
-441,400,-3.62537,-3.72931,0.000632219,-0.00094012,0.00041436,0.000734732,-0.00104263,0.242531,0.00103128,0.0141571,783,624,-3.62534,3.72932
-434,400,-3.63293,-3.93359,-0.000353331,-0.00232778,0.0016011,0.000540441,-0.00322155,0.509134,0.00234867,0.011306,790,624,-3.63295,3.93357
-427,400,-3.61053,-4.15637,-0.00123814,-0.00369355,0.00274381,0.000540107,-0.0054718,0.575035,0.00384058,0.010081,797,624,-3.61052,4.15635
-420,400,-3.57898,-4.4231,-0.00272246,-0.00534551,0.00441879,0.000575336,-0.00864331,0.641136,0.00596324,0.0125172,804,624,-3.57899,4.4231
-413,400,-3.60437,-4.633,-0.00418303,-0.0073475,0.00623946,0.000671689,-0.0122022,0.661223,0.0083677,0.0258122,811,624,-3.60436,4.633
-406,400,-3.87982,-4.73828,-0.0065597,-0.00987949,0.00865444,0.000592586,-0.0170318,0.69065,0.0115571,0.0352821,818,624,-3.87982,4.7383
-399,400,-3.52948,-4.78387,-0.00988626,-0.0132939,0.0117575,0.000290231,-0.0234704,0.713442,0.0157446,0.0466793,825,624,-3.52947,4.78389
-392,400,-3.31873,-4.95551,0,0,0,0,0,0,0,-1,832,624,-3.3187,4.95549
-385,400,-3.68738,-5.04205,0,0,0,0,0,0,0,-1,839,624,-3.68736,5.04207
-378,400,-6.84064,-1.28662,0,0,0,0,0,0,0,-1,846,624,-6.84062,1.28662
-371,400,-6.98865,-1.2572,0,0,0,0,0,0,0,-1,853,624,-6.98865,1.25721
-364,400,-6.97247,-1.24133,0,0,0,0,0,0,0,-1,860,624,-6.97249,1.24135
-357,400,-7.18329,-1.23218,0,0,0,0,0,0,0,-1,867,624,-7.18327,1.2322
-350,400,-7.40186,-1.19409,0,0,0,0,0,0,0,-1,874,624,-7.40187,1.19407
-343,400,-8.09357,-1.51147,0,0,0,0,0,0,0,-1,881,624,-8.09355,1.51148
-336,400,0,0,0,0,0,0,0,0,0,-1,888,624,0,0
-329,400,0,0,0,0,0,0,0,0,0,-1,895,624,0,0
-322,400,0,0,0,0,0,0,0,0,0,-1,902,624,0,0
-315,400,0,0,0,0,0,0,0,0,0,-1,909,624,0,0
-308,400,0,0,0,0,0,0,0,0,0,-1,916,624,0,0
-301,400,0,0,0,0,0,0,0,0,0,-1,923,624,0,0
-294,400,0,0,0,0,0,0,0,0,0,-1,930,624,0,0
-287,400,0,0,0,0,0,0,0,0,0,-1,937,624,0,0
-280,400,0,0,0,0,0,0,0,0,0,-1,944,624,0,0
-273,400,0,0,0,0,0,0,0,0,0,-1,951,624,0,0
-266,400,0,0,0,0,0,0,0,0,0,-1,958,624,0,0
-259,400,0,0,0,0,0,0,0,0,0,-1,965,624,0,0
-252,400,0,0,0,0,0,0,0,0,0,-1,972,624,0,0
-245,400,0,0,0,0,0,0,0,0,0,-1,979,624,0,0
-238,400,0,0,0,0,0,0,0,0,0,-1,986,624,0,0
-231,400,0,0,0,0,0,0,0,0,0,-1,993,624,0,0
-224,400,0,0,0,0,0,0,0,0,0,-1,1000,624,0,0
-217,400,0,0,0,0,0,0,0,0,0,-1,1007,624,0,0
-210,400,0,0,0,0,0,0,0,0,0,-1,1014,624,0,0
-203,400,0,0,0,0,0,0,0,0,0,-1,1021,624,0,0
-196,400,0,0,0,0,0,0,0,0,0,-1,1028,624,0,0
-189,400,0,0,0,0,0,0,0,0,0,-1,1035,624,0,0
-182,400,0,0,0,0,0,0,0,0,0,-1,1042,624,0,0
-175,400,0,0,0,0,0,0,0,0,0,-1,1049,624,0,0
-168,400,0,0,0,0,0,0,0,0,0,-1,1056,624,0,0
-161,400,0,0,0,0,0,0,0,0,0,-1,1063,624,0,0
-154,400,0,0,0,0,0,0,0,0,0,-1,1070,624,0,0
-147,400,0,0,0,0,0,0,0,0,0,-1,1077,624,0,0
-140,400,0,0,0,0,0,0,0,0,0,-1,1084,624,0,0
-133,400,0,0,0,0,0,0,0,0,0,-1,1091,624,0,0
-126,400,0,0,0,0,0,0,0,0,0,-1,1098,624,0,0
-119,400,0,0,0,0,0,0,0,0,0,-1,1105,624,0,0
-112,400,0,0,0,0,0,0,0,0,0,-1,1112,624,0,0
-105,400,0,0,0,0,0,0,0,0,0,-1,1119,624,0,0
-98,400,0,0,0,0,0,0,0,0,0,-1,1126,624,0,0
-91,400,0,0,0,0,0,0,0,0,0,-1,1133,624,0,0
-84,400,0,0,0,0,0,0,0,0,0,-1,1140,624,0,0
-77,400,0,0,0,0,0,0,0,0,0,-1,1147,624,0,0
-70,400,0,0,0,0,0,0,0,0,0,-1,1154,624,0,0
-63,400,0,0,0,0,0,0,0,0,0,-1,1161,624,0,0
-56,400,0,0,0,0,0,0,0,0,0,-1,1168,624,0,0
-49,400,0,0,0,0,0,0,0,0,0,-1,1175,624,0,0
-42,400,0,0,0,0,0,0,0,0,0,-1,1182,624,0,0
-35,400,0,0,0,0,0,0,0,0,0,-1,1189,624,0,0
-28,400,0,0,0,0,0,0,0,0,0,-1,1196,624,0,0
-21,400,0,0,0,0,0,0,0,0,0,-1,1203,624,0,0
-14,400,0,0,0,0,0,0,0,0,0,-1,1210,624,0,0
-7,400,0,0,0,0,0,0,0,0,0,-1,1217,624,0,0
0,400,0,0,0,0,0,0,0,0,0,-1,1224,624,0,0
7,400,0,0,0,0,0,0,0,0,0,-1,1231,624,0,0
14,400,0,0,0,0,0,0,0,0,0,-1,1238,624,0,0
21,400,0,0,0,0,0,0,0,0,0,-1,1245,624,0,0
28,400,0,0,0,0,0,0,0,0,0,-1,1252,624,0,0
35,400,0,0,0,0,0,0,0,0,0,-1,1259,624,0,0
42,400,0,0,0,0,0,0,0,0,0,-1,1266,624,0,0
49,400,0,0,0,0,0,0,0,0,0,-1,1273,624,0,0
56,400,0,0,0,0,0,0,0,0,0,-1,1280,624,0,0
63,400,0,0,0,0,0,0,0,0,0,-1,1287,624,0,0
70,400,0,0,0,0,0,0,0,0,0,-1,1294,624,0,0
77,400,0,0,0,0,0,0,0,0,0,-1,1301,624,0,0
84,400,0,0,0,0,0,0,0,0,0,-1,1308,624,0,0
91,400,0,0,0,0,0,0,0,0,0,-1,1315,624,0,0
98,400,0,0,0,0,0,0,0,0,0,-1,1322,624,0,0
105,400,0,0,0,0,0,0,0,0,0,-1,1329,624,0,0
112,400,0,0,0,0,0,0,0,0,0,-1,1336,624,0,0
119,400,0,0,0,0,0,0,0,0,0,-1,1343,624,0,0
126,400,0,0,0,0,0,0,0,0,0,-1,1350,624,0,0
133,400,0,0,0,0,0,0,0,0,0,-1,1357,624,0,0
140,400,0,0,0,0,0,0,0,0,0,-1,1364,624,0,0
147,400,0,0,0,0,0,0,0,0,0,-1,1371,624,0,0
154,400,0,0,0,0,0,0,0,0,0,-1,1378,624,0,0
161,400,0,0,0,0,0,0,0,0,0,-1,1385,624,0,0
168,400,0,0,0,0,0,0,0,0,0,-1,1392,624,0,0
175,400,0,0,0,0,0,0,0,0,0,-1,1399,624,0,0
182,400,0,0,0,0,0,0,0,0,0,-1,1406,624,0,0
189,400,0,0,0,0,0,0,0,0,0,-1,1413,624,0,0
196,400,0,0,0,0,0,0,0,0,0,-1,1420,624,0,0
203,400,0,0,0,0,0,0,0,0,0,-1,1427,624,0,0
210,400,0,0,0,0,0,0,0,0,0,-1,1434,624,0,0
217,400,0,0,0,0,0,0,0,0,0,-1,1441,624,0,0
224,400,0,0,0,0,0,0,0,0,0,-1,1448,624,0,0
231,400,0,0,0,0,0,0,0,0,0,-1,1455,624,0,0
238,400,0,0,0,0,0,0,0,0,0,-1,1462,624,0,0
245,400,0,0,0,0,0,0,0,0,0,-1,1469,624,0,0
252,400,0,0,0,0,0,0,0,0,0,-1,1476,624,0,0
259,400,0,0,0,0,0,0,0,0,0,-1,1483,624,0,0
266,400,0,0,0,0,0,0,0,0,0,-1,1490,624,0,0
273,400,0,0,0,0,0,0,0,0,0,-1,1497,624,0,0
280,400,0,0,0,0,0,0,0,0,0,-1,1504,624,0,0
287,400,0,0,0,0,0,0,0,0,0,-1,1511,624,0,0
294,400,0,0,0,0,0,0,0,0,0,-1,1518,624,0,0
301,400,0,0,0,0,0,0,0,0,0,-1,1525,624,0,0
308,400,0,0,0,0,0,0,0,0,0,-1,1532,624,0,0
315,400,0,0,0,0,0,0,0,0,0,-1,1539,624,0,0
322,400,0,0,0,0,0,0,0,0,0,-1,1546,624,0,0
329,400,0,0,0,0,0,0,0,0,0,-1,1553,624,0,0
336,400,0,0,0,0,0,0,0,0,0,-1,1560,624,0,0
343,400,0,0,0,0,0,0,0,0,0,-1,1567,624,0,0
350,400,0,0,0,0,0,0,0,0,0,-1,1574,624,0,0
357,400,0,0,0,0,0,0,0,0,0,-1,1581,624,0,0
364,400,0,0,0,0,0,0,0,0,0,-1,1588,624,0,0
371,400,0,0,0,0,0,0,0,0,0,-1,1595,624,0,0
378,400,0,0,0,0,0,0,0,0,0,-1,1602,624,0,0
385,400,0,0,0,0,0,0,0,0,0,-1,1609,624,0,0
392,400,0,0,0,0,0,0,0,0,0,-1,1616,624,0,0
399,400,0,0,0,0,0,0,0,0,0,-1,1623,624,0,0
406,400,0,0,0,0,0,0,0,0,0,-1,1630,624,0,0
413,400,0,0,0,0,0,0,0,0,0,-1,1637,624,0,0
420,400,0,0,0,0,0,0,0,0,0,-1,1644,624,0,0
427,400,0,0,0,0,0,0,0,0,0,-1,1651,624,0,0
434,400,0,0,0,0,0,0,0,0,0,-1,1658,624,0,0
441,400,0,0,0,0,0,0,0,0,0,-1,1665,624,0,0
448,400,0,0,0,0,0,0,0,0,0,-1,1672,624,0,0
455,400,8.91309,2.75885,0,0,0,0,0,0,0,-1,1679,624,8.91312,-2.75885
462,400,8.90356,2.37878,0,0,0,0,0,0,0,-1,1686,624,8.90353,-2.37878
469,400,9.14429,1.76849,0,0,0,0,0,0,0,-1,1693,624,9.14432,-1.76847
476,400,9.23254,1.25995,0,0,0,0,0,0,0,-1,1700,624,9.23252,-1.25994
483,400,9.59766,0.562439,0,0,0,0,0,0,0,-1,1707,624,9.59771,-0.56242
490,400,9.92578,-0.213745,0,0,0,0,0,0,0,-1,1714,624,9.92579,0.21376
497,400,9.19141,0.175232,0,0,0,0,0,0,0,-1,1721,624,9.19138,-0.175209
504,400,9.23438,0.00823975,0,0,0,0,0,0,0,-1,1728,624,9.23436,-0.00823766
511,400,6.16687,3.3501,0,0,0,0,0,0,0,-1,1735,624,6.16682,-3.35007
518,400,6.55237,1.74994,0,0,0,0,0,0,0,-1,1742,624,6.55236,-1.74993
525,400,6.99731,1.08783,0,0,0,0,0,0,0,-1,1749,624,6.99736,-1.08785
532,400,6.96582,-1.74982,0,0,0,0,0,0,0,-1,1756,624,6.96585,1.74983
539,400,9.0354,-3.06207,0,0,0,0,0,0,0,-1,1763,624,9.03538,3.06206
546,400,9.02808,-2.84973,-0.00177161,-0.000474479,-0.000745274,-0.000135082,-0.00211101,-1.14346,0.00136454,0.0232643,1770,624,9.02805,2.84972
553,400,8.96484,-2.57745,-0.00183204,-0.000424718,-0.000805569,-5.87623e-05,-0.002198,-1.14439,0.00144614,0.0143771,1777,624,8.96489,2.57743
560,400,8.9928,-2.29578,-0.00172224,-0.000432933,-0.00081804,-3.60642e-05,-0.00211911,-1.1191,0.00140087,0.0132847,1784,624,8.99283,2.2958
567,400,9.01379,-2.07269,-0.00161358,-0.000352594,-0.000771504,1.32762e-05,-0.00197945,-1.12798,0.00132408,0.0169113,1791,624,9.01383,2.0727
574,400,8.98877,-1.83234,-0.00118802,-0.000236052,-0.00055115,1.61986e-05,-0.00144027,-1.14157,0.000965628,0.0185037,1798,624,8.98876,1.83232
581,400,8.95642,-1.56683,-0.00058207,-7.97215e-06,-0.000255023,8.89498e-05,-0.000678992,-1.2076,0.000485038,0.0169551,1805,624,8.95644,1.56683
588,400,8.95679,-1.31409,4.51325e-05,0.000300428,0.000129364,0.000354519,-8.95825e-06,1.17476,0.000239388,0.0136387,1812,624,8.95678,1.31407
595,400,8.97449,-1.07635,0.000844782,0.000502959,0.000517849,0.0012192,0.000128547,0.626006,0.000773516,0.0129647,1819,624,8.97452,1.07634
602,400,8.9967,-0.830933,0.00173644,0.000870851,0.0010367,0.00242706,0.00018023,0.587659,0.00156143,0.0120343,1826,624,8.99675,0.830962
609,400,8.95422,-0.5802,0.00215847,0.000915953,0.00147321,0.00313606,-6.16346e-05,0.58586,0.00211155,0.011932,1833,624,8.95421,0.580217
616,400,8.94897,-0.325806,0.00213656,0.000794995,0.00193782,0.00351641,-0.000584855,0.618776,0.00256158,0.0151189,1840,624,8.94903,0.325791
623,400,9.17395,0.0359497,0.00226294,0.000523254,0.00223882,0.00379496,-0.00100877,0.600109,0.00292481,0.0379914,1847,624,9.17391,-0.0359369
630,400,9.36084,0.342041,0,0,0,0,0,0,0,-1,1854,624,9.36081,-0.342025
637,400,6.92896,1.01917,0,0,0,0,0,0,0,-1,1861,624,6.92899,-1.01918
644,400,8.65381,1.4599,0,0,0,0,0,0,0,-1,1868,624,8.65379,-1.45991
651,400,7.90601,0.424072,0,0,0,0,0,0,0,-1,1875,624,7.90598,-0.424097
658,400,8.69031,1.0484,0,0,0,0,0,0,0,-1,1882,624,8.6903,-1.0484
665,400,5.98438,0.522522,0,0,0,0,0,0,0,-1,1889,624,5.98442,-0.522552
672,400,0,0,0,0,0,0,0,0,0,-1,1896,624,0,0
679,400,0,0,0,0,0,0,0,0,0,-1,1903,624,0,0
686,400,0,0,0,0,0,0,0,0,0,-1,1910,624,0,0
693,400,0,0,0,0,0,0,0,0,0,-1,1917,624,0,0
700,400,0,0,0,0,0,0,0,0,0,-1,1924,624,0,0
707,400,0,0,0,0,0,0,0,0,0,-1,1931,624,0,0
714,400,0,0,0,0,0,0,0,0,0,-1,1938,624,0,0
721,400,0,0,0,0,0,0,0,0,0,-1,1945,624,0,0
728,400,0,0,0,0,0,0,0,0,0,-1,1952,624,0,0
735,400,0,0,0,0,0,0,0,0,0,-1,1959,624,0,0
742,400,0,0,0,0,0,0,0,0,0,-1,1966,624,0,0
749,400,0,0,0,0,0,0,0,0,0,-1,1973,624,0,0
756,400,0,0,0,0,0,0,0,0,0,-1,1980,624,0,0
763,400,0,0,0,0,0,0,0,0,0,-1,1987,624,0,0
770,400,0,0,0,0,0,0,0,0,0,-1,1994,624,0,0
777,400,0,0,0,0,0,0,0,0,0,-1,2001,624,0,0
784,400,0,0,0,0,0,0,0,0,0,-1,2008,624,0,0
791,400,0,0,0,0,0,0,0,0,0,-1,2015,624,0,0
798,400,0,0,0,0,0,0,0,0,0,-1,2022,624,0,0
805,400,0,0,0,0,0,0,0,0,0,-1,2029,624,0,0
812,400,0,0,0,0,0,0,0,0,0,-1,2036,624,0,0
-700,393,0,0,0,0,0,0,0,0,0,-1,524,631,0,0
-693,393,0,0,0,0,0,0,0,0,0,-1,531,631,0,0
-686,393,0,0,0,0,0,0,0,0,0,-1,538,631,0,0
-679,393,0,0,0,0,0,0,0,0,0,-1,545,631,0,0
-672,393,0,0,0,0,0,0,0,0,0,-1,552,631,0,0
-665,393,0,0,0,0,0,0,0,0,0,-1,559,631,0,0
-658,393,0,0,0,0,0,0,0,0,0,-1,566,631,0,0
-651,393,0,0,0,0,0,0,0,0,0,-1,573,631,0,0
-644,393,0,0,0,0,0,0,0,0,0,-1,580,631,0,0
-637,393,0,0,0,0,0,0,0,0,0,-1,587,631,0,0
-630,393,0,0,0,0,0,0,0,0,0,-1,594,631,0,0
-623,393,0,0,0,0,0,0,0,0,0,-1,601,631,0,0
-616,393,0,0,0,0,0,0,0,0,0,-1,608,631,0,0
-609,393,0,0,0,0,0,0,0,0,0,-1,615,631,0,0
-602,393,0,0,0,0,0,0,0,0,0,-1,622,631,0,0
-595,393,0,0,0,0,0,0,0,0,0,-1,629,631,0,0
-588,393,0,0,0,0,0,0,0,0,0,-1,636,631,0,0
-581,393,0,0,0,0,0,0,0,0,0,-1,643,631,0,0
-574,393,0,0,0,0,0,0,0,0,0,-1,650,631,0,0
-567,393,0,0,0,0,0,0,0,0,0,-1,657,631,0,0
-560,393,0,0,0,0,0,0,0,0,0,-1,664,631,0,0
-553,393,-2.48889,-1.87238,0,0,0,0,0,0,0,-1,671,631,-2.48891,1.87235
-546,393,-2.07355,-2.34564,0,0,0,0,0,0,0,-1,678,631,-2.07352,2.34562
-539,393,-5.2113,-2.20245,0,0,0,0,0,0,0,-1,685,631,-5.21128,2.20247
-532,393,-2.83643,-2.01624,0,0,0,0,0,0,0,-1,692,631,-2.83642,2.01626
-525,393,-3.02795,0.58905,0,0,0,0,0,0,0,-1,699,631,-3.02794,-0.589026
-518,393,-3.70667,-0.813416,0,0,0,0,0,0,0,-1,706,631,-3.70667,0.813393
-511,393,-3.48792,-1.26178,-0.00112503,0.0883338,-0.0391726,0.103062,-0.0158533,-1.21116,0.0745564,0.0464408,713,631,-3.4879,1.26179
-504,393,-3.53192,-1.74017,0.000157467,0.0607081,-0.0271018,0.0710666,-0.010201,-1.20572,0.0511185,0.0460038,720,631,-3.53193,1.74015
-497,393,-3.80475,-1.8208,0.00113878,0.0405922,-0.0183428,0.0478025,-0.00607152,-1.19626,0.034073,0.0229917,727,631,-3.80477,1.82082
-490,393,-3.80963,-2.11627,0.00174384,0.0260735,-0.0120336,0.0310198,-0.00320245,-1.18081,0.0218258,0.0143283,734,631,-3.80962,2.11629
-483,393,-3.81946,-2.34814,0.00197421,0.0157953,-0.00765862,0.0192003,-0.00143078,-1.15245,0.0133028,0.0189709,741,631,-3.81943,2.34813
-476,393,-3.82617,-2.56927,0.00221279,0.00689045,-0.00379019,0.00900534,9.78992e-05,-1.06184,0.0059712,0.0154579,748,631,-3.82616,2.56926
-469,393,-3.85052,-2.797,0.00211753,0.00252434,-0.00179401,0.00412644,0.000515432,-0.841848,0.00259626,0.0130504,755,631,-3.8505,2.79703
-462,393,-3.84698,-3.0603,0.00156932,0.00142287,-0.00121637,0.00271467,0.000277527,-0.755335,0.00172473,0.0155154,762,631,-3.847,3.06031
-455,393,-3.86725,-3.28802,0.00111642,0.000380175,-0.000514259,0.00138074,0.000115861,-0.474762,0.000884403,0.0144139,769,631,-3.86722,3.28805
-448,393,-3.87598,-3.51538,0.000812399,-0.000764888,0.000272155,0.000858038,-0.000810527,0.166148,0.000963477,0.0134271,776,631,-3.876,3.5154
-441,393,-3.86218,-3.73767,0.000171442,-0.00213717,0.00118343,0.000670294,-0.00263602,0.398928,0.00201823,0.0116169,783,631,-3.8622,3.73769
-434,393,-3.85803,-3.92487,-0.000794495,-0.00351965,0.00240652,0.000608426,-0.00492257,0.5278,0.00350218,0.0111315,790,631,-3.85806,3.92485
-427,393,-3.80945,-4.17798,-0.00163224,-0.0049013,0.00358669,0.000674809,-0.00720835,0.571598,0.00504557,0.0162554,797,631,-3.80943,4.17795
-420,393,-3.79712,-4.41791,-0.003069,-0.00663054,0.00537897,0.000816314,-0.0105158,0.625546,0.0072979,0.0306709,804,631,-3.79714,4.41793
-413,393,-4.0929,-4.47418,-0.00465154,-0.00906381,0.00754858,0.00100668,-0.014722,0.643228,0.0101669,0.0441283,811,631,-4.0929,4.47416
-406,393,-4.37555,-4.82288,0,0,0,0,0,0,0,-1,818,631,-4.37555,4.82291
-399,393,-3.83789,-4.67303,0,0,0,0,0,0,0,-1,825,631,-3.83792,4.67304
-392,393,-2.08063,-3.02386,0,0,0,0,0,0,0,-1,832,631,-2.08063,3.02384
-385,393,-3.16931,-0.624756,0,0,0,0,0,0,0,-1,839,631,-3.16928,0.624764
-378,393,-7.33081,-0.872314,0,0,0,0,0,0,0,-1,846,631,-7.33081,0.872325
-371,393,-7.47858,-0.811096,0,0,0,0,0,0,0,-1,853,631,-7.47859,0.811075
-364,393,-7.64917,-0.662415,0,0,0,0,0,0,0,-1,860,631,-7.64917,0.662406
-357,393,-8.09686,-0.726013,0,0,0,0,0,0,0,-1,867,631,-8.09689,0.726029
-350,393,-8.38788,-0.511841,0,0,0,0,0,0,0,-1,874,631,-8.38785,0.511811
-343,393,0,0,0,0,0,0,0,0,0,-1,881,631,0,0
-336,393,0,0,0,0,0,0,0,0,0,-1,888,631,0,0
-329,393,0,0,0,0,0,0,0,0,0,-1,895,631,0,0
-322,393,0,0,0,0,0,0,0,0,0,-1,902,631,0,0
-315,393,0,0,0,0,0,0,0,0,0,-1,909,631,0,0
-308,393,0,0,0,0,0,0,0,0,0,-1,916,631,0,0
-301,393,0,0,0,0,0,0,0,0,0,-1,923,631,0,0
-294,393,0,0,0,0,0,0,0,0,0,-1,930,631,0,0
-287,393,0,0,0,0,0,0,0,0,0,-1,937,631,0,0
-280,393,0,0,0,0,0,0,0,0,0,-1,944,631,0,0
-273,393,0,0,0,0,0,0,0,0,0,-1,951,631,0,0
-266,393,0,0,0,0,0,0,0,0,0,-1,958,631,0,0
-259,393,0,0,0,0,0,0,0,0,0,-1,965,631,0,0
-252,393,0,0,0,0,0,0,0,0,0,-1,972,631,0,0
-245,393,0,0,0,0,0,0,0,0,0,-1,979,631,0,0
-238,393,0,0,0,0,0,0,0,0,0,-1,986,631,0,0
-231,393,0,0,0,0,0,0,0,0,0,-1,993,631,0,0
-224,393,0,0,0,0,0,0,0,0,0,-1,1000,631,0,0
-217,393,0,0,0,0,0,0,0,0,0,-1,1007,631,0,0
-210,393,0,0,0,0,0,0,0,0,0,-1,1014,631,0,0
-203,393,0,0,0,0,0,0,0,0,0,-1,1021,631,0,0
-196,393,0,0,0,0,0,0,0,0,0,-1,1028,631,0,0
-189,393,0,0,0,0,0,0,0,0,0,-1,1035,631,0,0
-182,393,0,0,0,0,0,0,0,0,0,-1,1042,631,0,0
-175,393,0,0,0,0,0,0,0,0,0,-1,1049,631,0,0
-168,393,0,0,0,0,0,0,0,0,0,-1,1056,631,0,0
-161,393,0,0,0,0,0,0,0,0,0,-1,1063,631,0,0
-154,393,0,0,0,0,0,0,0,0,0,-1,1070,631,0,0
-147,393,0,0,0,0,0,0,0,0,0,-1,1077,631,0,0
-140,393,0,0,0,0,0,0,0,0,0,-1,1084,631,0,0
-133,393,0,0,0,0,0,0,0,0,0,-1,1091,631,0,0
-126,393,0,0,0,0,0,0,0,0,0,-1,1098,631,0,0
-119,393,0,0,0,0,0,0,0,0,0,-1,1105,631,0,0
-112,393,0,0,0,0,0,0,0,0,0,-1,1112,631,0,0
-105,393,0,0,0,0,0,0,0,0,0,-1,1119,631,0,0
-98,393,0,0,0,0,0,0,0,0,0,-1,1126,631,0,0
-91,393,0,0,0,0,0,0,0,0,0,-1,1133,631,0,0
-84,393,0,0,0,0,0,0,0,0,0,-1,1140,631,0,0
-77,393,0,0,0,0,0,0,0,0,0,-1,1147,631,0,0
-70,393,0,0,0,0,0,0,0,0,0,-1,1154,631,0,0
-63,393,0,0,0,0,0,0,0,0,0,-1,1161,631,0,0
-56,393,0,0,0,0,0,0,0,0,0,-1,1168,631,0,0
-49,393,0,0,0,0,0,0,0,0,0,-1,1175,631,0,0
-42,393,0,0,0,0,0,0,0,0,0,-1,1182,631,0,0
-35,393,0,0,0,0,0,0,0,0,0,-1,1189,631,0,0
-28,393,0,0,0,0,0,0,0,0,0,-1,1196,631,0,0
-21,393,0,0,0,0,0,0,0,0,0,-1,1203,631,0,0
-14,393,0,0,0,0,0,0,0,0,0,-1,1210,631,0,0
-7,393,0,0,0,0,0,0,0,0,0,-1,1217,631,0,0
0,393,0,0,0,0,0,0,0,0,0,-1,1224,631,0,0
7,393,0,0,0,0,0,0,0,0,0,-1,1231,631,0,0
14,393,0,0,0,0,0,0,0,0,0,-1,1238,631,0,0
21,393,0,0,0,0,0,0,0,0,0,-1,1245,631,0,0
28,393,0,0,0,0,0,0,0,0,0,-1,1252,631,0,0
35,393,0,0,0,0,0,0,0,0,0,-1,1259,631,0,0
42,393,0,0,0,0,0,0,0,0,0,-1,1266,631,0,0
49,393,0,0,0,0,0,0,0,0,0,-1,1273,631,0,0
56,393,0,0,0,0,0,0,0,0,0,-1,1280,631,0,0
63,393,0,0,0,0,0,0,0,0,0,-1,1287,631,0,0
70,393,0,0,0,0,0,0,0,0,0,-1,1294,631,0,0
77,393,0,0,0,0,0,0,0,0,0,-1,1301,631,0,0
84,393,0,0,0,0,0,0,0,0,0,-1,1308,631,0,0
91,393,0,0,0,0,0,0,0,0,0,-1,1315,631,0,0
98,393,0,0,0,0,0,0,0,0,0,-1,1322,631,0,0
105,393,0,0,0,0,0,0,0,0,0,-1,1329,631,0,0
112,393,0,0,0,0,0,0,0,0,0,-1,1336,631,0,0
119,393,0,0,0,0,0,0,0,0,0,-1,1343,631,0,0
126,393,0,0,0,0,0,0,0,0,0,-1,1350,631,0,0
133,393,0,0,0,0,0,0,0,0,0,-1,1357,631,0,0
140,393,0,0,0,0,0,0,0,0,0,-1,1364,631,0,0
147,393,0,0,0,0,0,0,0,0,0,-1,1371,631,0,0
154,393,0,0,0,0,0,0,0,0,0,-1,1378,631,0,0
161,393,0,0,0,0,0,0,0,0,0,-1,1385,631,0,0
168,393,0,0,0,0,0,0,0,0,0,-1,1392,631,0,0
175,393,0,0,0,0,0,0,0,0,0,-1,1399,631,0,0
182,393,0,0,0,0,0,0,0,0,0,-1,1406,631,0,0
189,393,0,0,0,0,0,0,0,0,0,-1,1413,631,0,0
196,393,0,0,0,0,0,0,0,0,0,-1,1420,631,0,0
203,393,0,0,0,0,0,0,0,0,0,-1,1427,631,0,0
210,393,0,0,0,0,0,0,0,0,0,-1,1434,631,0,0
217,393,0,0,0,0,0,0,0,0,0,-1,1441,631,0,0
224,393,0,0,0,0,0,0,0,0,0,-1,1448,631,0,0
231,393,0,0,0,0,0,0,0,0,0,-1,1455,631,0,0
238,393,0,0,0,0,0,0,0,0,0,-1,1462,631,0,0
245,393,0,0,0,0,0,0,0,0,0,-1,1469,631,0,0
252,393,0,0,0,0,0,0,0,0,0,-1,1476,631,0,0
259,393,0,0,0,0,0,0,0,0,0,-1,1483,631,0,0
266,393,0,0,0,0,0,0,0,0,0,-1,1490,631,0,0
273,393,0,0,0,0,0,0,0,0,0,-1,1497,631,0,0
280,393,0,0,0,0,0,0,0,0,0,-1,1504,631,0,0
287,393,0,0,0,0,0,0,0,0,0,-1,1511,631,0,0
294,393,0,0,0,0,0,0,0,0,0,-1,1518,631,0,0
301,393,0,0,0,0,0,0,0,0,0,-1,1525,631,0,0
308,393,0,0,0,0,0,0,0,0,0,-1,1532,631,0,0
315,393,0,0,0,0,0,0,0,0,0,-1,1539,631,0,0
322,393,0,0,0,0,0,0,0,0,0,-1,1546,631,0,0
329,393,0,0,0,0,0,0,0,0,0,-1,1553,631,0,0
336,393,0,0,0,0,0,0,0,0,0,-1,1560,631,0,0
343,393,0,0,0,0,0,0,0,0,0,-1,1567,631,0,0
350,393,0,0,0,0,0,0,0,0,0,-1,1574,631,0,0
357,393,0,0,0,0,0,0,0,0,0,-1,1581,631,0,0
364,393,0,0,0,0,0,0,0,0,0,-1,1588,631,0,0
371,393,0,0,0,0,0,0,0,0,0,-1,1595,631,0,0
378,393,0,0,0,0,0,0,0,0,0,-1,1602,631,0,0
385,393,0,0,0,0,0,0,0,0,0,-1,1609,631,0,0
392,393,0,0,0,0,0,0,0,0,0,-1,1616,631,0,0
399,393,0,0,0,0,0,0,0,0,0,-1,1623,631,0,0
406,393,0,0,0,0,0,0,0,0,0,-1,1630,631,0,0
413,393,0,0,0,0,0,0,0,0,0,-1,1637,631,0,0
420,393,0,0,0,0,0,0,0,0,0,-1,1644,631,0,0
427,393,0,0,0,0,0,0,0,0,0,-1,1651,631,0,0
434,393,0,0,0,0,0,0,0,0,0,-1,1658,631,0,0
441,393,0,0,0,0,0,0,0,0,0,-1,1665,631,0,0
448,393,0,0,0,0,0,0,0,0,0,-1,1672,631,0,0
455,393,0,0,0,0,0,0,0,0,0,-1,1679,631,0,0
462,393,8.51099,1.89502,0,0,0,0,0,0,0,-1,1686,631,8.51103,-1.89504
469,393,9.39465,1.51703,0,0,0,0,0,0,0,-1,1693,631,9.39465,-1.51703
476,393,9.95569,1.185,0,0,0,0,0,0,0,-1,1700,631,9.95575,-1.18497
483,393,10.5267,0.887329,0,0,0,0,0,0,0,-1,1707,631,10.5267,-0.887321
490,393,10.9303,0.761414,0,0,0,0,0,0,0,-1,1714,631,10.9303,-0.761386
497,393,8.32153,1.88104,0,0,0,0,0,0,0,-1,1721,631,8.32148,-1.88103
504,393,9.46985,1.78711,0,0,0,0,0,0,0,-1,1728,631,9.46986,-1.78713
511,393,9.66565,-0.375977,0,0,0,0,0,0,0,-1,1735,631,9.66571,0.375949
518,393,7.01599,1.62482,0,0,0,0,0,0,0,-1,1742,631,7.01597,-1.62483
525,393,7.88245,-1.13422,0,0,0,0,0,0,0,-1,1749,631,7.88246,1.13423
532,393,7.06335,-1.18103,0,0,0,0,0,0,0,-1,1756,631,7.06332,1.18101
539,393,9.70264,-2.79517,0,0,0,0,0,0,0,-1,1763,631,9.70265,2.79519
546,393,9.50012,-2.65302,-0.00316701,-0.000875878,-0.00124324,-0.000330889,-0.003712,-1.15766,0.00237207,0.0479693,1770,631,9.50007,2.65303
553,393,9.25854,-2.57703,-0.00299563,-0.000771128,-0.00125969,-0.000202926,-0.00356383,-1.14706,0.00231122,0.0205344,1777,631,9.25858,2.57701
560,393,9.24487,-2.30621,-0.00268037,-0.000756199,-0.00124534,-0.000144599,-0.00329197,-1.11429,0.00214807,0.0140023,1784,631,9.24487,2.30623
567,393,9.22852,-2.04279,-0.00244557,-0.000695473,-0.00119268,-9.12682e-05,-0.00304978,-1.10189,0.00200345,0.0135646,1791,631,9.22847,2.0428
574,393,9.22656,-1.83289,-0.0019415,-0.000575177,-0.000980677,-6.31649e-05,-0.00245351,-1.08963,0.00161503,0.0152738,1798,631,9.22656,1.83286
581,393,9.20508,-1.56116,-0.00125203,-0.00033606,-0.000670935,1.82993e-05,-0.00160639,-1.08488,0.00107708,0.0150202,1805,631,9.20509,1.56117
588,393,9.20227,-1.29498,-0.000531135,-4.86307e-06,-0.000265315,0.000105676,-0.000641674,-1.17604,0.00046701,0.0164949,1812,631,9.2023,1.29501
595,393,9.2196,-1.07916,0.000333718,0.000233576,0.000145219,0.000437256,0.000130038,0.619382,0.000259266,0.0141298,1819,631,9.21963,1.07918
602,393,9.21667,-0.852478,0.00128424,0.000649293,0.000695699,0.00173148,0.000202053,0.571342,0.00109321,0.0152343,1826,631,9.21666,0.852482
609,393,9.20166,-0.606506,0.00169961,0.000727749,0.00113071,0.00244438,-1.70246e-05,0.582452,0.00163529,0.0139999,1833,631,9.20164,0.606514
616,393,9.19702,-0.333984,0.00161666,0.000571686,0.00147565,0.00265959,-0.000471248,0.615249,0.00194923,0.0141242,1840,631,9.19697,0.333992
623,393,9.23303,-0.0402832,0.00170591,0.00036816,0.00167338,0.00283914,-0.000765072,0.595268,0.00219274,0.0203136,1847,631,9.23301,0.0402781
630,393,9.3894,0.233704,0.00145664,-0.000169959,0.00152788,0.0023742,-0.00108752,0.540819,0.00204413,0.0401459,1854,631,9.3894,-0.233708
637,393,9.46313,0.560608,0,0,0,0,0,0,0,-1,1861,631,9.46318,-0.560596
644,393,9.09717,0.562378,0,0,0,0,0,0,0,-1,1868,631,9.09715,-0.562379
651,393,9.58679,0.726563,0,0,0,0,0,0,0,-1,1875,631,9.58684,-0.726583
658,393,9.21338,1.50836,0,0,0,0,0,0,0,-1,1882,631,9.21338,-1.50834
665,393,6.1001,2.32129,0,0,0,0,0,0,0,-1,1889,631,6.10012,-2.3213
672,393,7.14575,2.43225,0,0,0,0,0,0,0,-1,1896,631,7.14572,-2.43222
679,393,0,0,0,0,0,0,0,0,0,-1,1903,631,0,0
686,393,0,0,0,0,0,0,0,0,0,-1,1910,631,0,0
693,393,0,0,0,0,0,0,0,0,0,-1,1917,631,0,0
700,393,0,0,0,0,0,0,0,0,0,-1,1924,631,0,0
707,393,0,0,0,0,0,0,0,0,0,-1,1931,631,0,0
714,393,0,0,0,0,0,0,0,0,0,-1,1938,631,0,0
721,393,0,0,0,0,0,0,0,0,0,-1,1945,631,0,0
728,393,0,0,0,0,0,0,0,0,0,-1,1952,631,0,0
735,393,0,0,0,0,0,0,0,0,0,-1,1959,631,0,0
742,393,0,0,0,0,0,0,0,0,0,-1,1966,631,0,0
749,393,0,0,0,0,0,0,0,0,0,-1,1973,631,0,0
756,393,0,0,0,0,0,0,0,0,0,-1,1980,631,0,0
763,393,0,0,0,0,0,0,0,0,0,-1,1987,631,0,0
770,393,0,0,0,0,0,0,0,0,0,-1,1994,631,0,0
777,393,0,0,0,0,0,0,0,0,0,-1,2001,631,0,0
784,393,0,0,0,0,0,0,0,0,0,-1,2008,631,0,0
791,393,0,0,0,0,0,0,0,0,0,-1,2015,631,0,0
798,393,0,0,0,0,0,0,0,0,0,-1,2022,631,0,0
805,393,0,0,0,0,0,0,0,0,0,-1,2029,631,0,0
812,393,0,0,0,0,0,0,0,0,0,-1,2036,631,0,0
-700,386,0,0,0,0,0,0,0,0,0,-1,524,638,0,0
-693,386,0,0,0,0,0,0,0,0,0,-1,531,638,0,0
-686,386,0,0,0,0,0,0,0,0,0,-1,538,638,0,0
-679,386,0,0,0,0,0,0,0,0,0,-1,545,638,0,0
-672,386,0,0,0,0,0,0,0,0,0,-1,552,638,0,0
-665,386,0,0,0,0,0,0,0,0,0,-1,559,638,0,0
-658,386,0,0,0,0,0,0,0,0,0,-1,566,638,0,0
-651,386,0,0,0,0,0,0,0,0,0,-1,573,638,0,0
-644,386,0,0,0,0,0,0,0,0,0,-1,580,638,0,0
-637,386,0,0,0,0,0,0,0,0,0,-1,587,638,0,0
-630,386,0,0,0,0,0,0,0,0,0,-1,594,638,0,0
-623,386,0,0,0,0,0,0,0,0,0,-1,601,638,0,0
-616,386,0,0,0,0,0,0,0,0,0,-1,608,638,0,0
-609,386,0,0,0,0,0,0,0,0,0,-1,615,638,0,0
-602,386,0,0,0,0,0,0,0,0,0,-1,622,638,0,0
-595,386,0,0,0,0,0,0,0,0,0,-1,629,638,0,0
-588,386,0,0,0,0,0,0,0,0,0,-1,636,638,0,0
-581,386,0,0,0,0,0,0,0,0,0,-1,643,638,0,0
-574,386,0,0,0,0,0,0,0,0,0,-1,650,638,0,0
-567,386,0,0,0,0,0,0,0,0,0,-1,657,638,0,0
-560,386,-3.93866,-1.71252,0,0,0,0,0,0,0,-1,664,638,-3.93863,1.71253
-553,386,-2.89966,-1.97101,0,0,0,0,0,0,0,-1,671,638,-2.89963,1.97099
-546,386,-1.8631,-2.5575,0,0,0,0,0,0,0,-1,678,638,-1.86308,2.55749
-539,386,-0.879456,-2.90009,0,0,0,0,0,0,0,-1,685,638,-0.879442,2.90008
-532,386,-4.69666,1.55145,0,0,0,0,0,0,0,-1,692,638,-4.69665,-1.55145
-525,386,-4.30267,-0.189697,0,0,0,0,0,0,0,-1,699,638,-4.30267,0.18969
-518,386,-4.00836,-0.904785,-0.00124832,0.0884873,-0.0389965,0.103066,-0.0158267,-1.21304,0.0745482,0.0482846,706,638,-4.00836,0.904756
-511,386,-3.896,-1.30664,-0.0011248,0.0622501,-0.0273375,0.0724128,-0.0112875,-1.21488,0.0524442,0.043477,713,638,-3.896,1.30665
-504,386,-4.01459,-1.67438,-0.000701274,0.0425672,-0.0186784,0.0495148,-0.00764889,-1.21469,0.0358327,0.0260293,720,638,-4.0146,1.67439
-497,386,-4.07745,-1.9007,-6.87066e-05,0.0281962,-0.0124218,0.0328793,-0.00475184,-1.21026,0.0236631,0.0115694,727,638,-4.07745,1.9007
-490,386,-4.05823,-2.138,0.000376881,0.0177593,-0.00793197,0.0208347,-0.00269853,-1.20092,0.0148711,0.0127009,734,638,-4.05823,2.13798
-483,386,-4.03162,-2.37585,0.000621564,0.0101635,-0.00479235,0.0121549,-0.00136977,-1.17698,0.00859629,0.0165478,741,638,-4.03159,2.37586
-476,386,-4.04529,-2.58447,0.000941339,0.00388825,-0.00213876,0.00501198,-0.000182391,-1.08703,0.00340375,0.0145003,748,638,-4.0453,2.5845
-469,386,-4.07117,-2.8089,0.00104862,0.000965258,-0.00084258,0.00185055,0.000163329,-0.760683,0.00118302,0.0115987,755,638,-4.07119,2.80888
-462,386,-4.0824,-3.04834,0.000844201,0.000174843,-0.000485479,0.00109918,-8.01384e-05,-0.483617,0.000760909,0.0107982,762,638,-4.0824,3.04837
-455,386,-4.09827,-3.28473,0.000709301,-0.000594857,2.77132e-05,0.00070989,-0.000595446,0.0212371,0.000754601,0.0110347,769,638,-4.09829,3.28472
-448,386,-4.07837,-3.51886,0.000648744,-0.00156809,0.00070138,0.000852014,-0.00177136,0.282086,0.0015453,0.0111868,776,638,-4.07839,3.51888
-441,386,-4.078,-3.73224,0.000126142,-0.0029388,0.0016153,0.000820254,-0.00363291,0.405853,0.00273665,0.0116955,783,638,-4.07801,3.73225
-434,386,-4.04352,-3.98578,-0.000776712,-0.00433059,0.00289888,0.000846495,-0.0059538,0.510445,0.00427936,0.0195153,790,638,-4.04349,3.98578
-427,386,-3.98083,-4.211,-0.00171311,-0.00591576,0.00427146,0.000945917,-0.00857479,0.556807,0.00605651,0.0468548,797,638,-3.98086,4.21101
-420,386,-4.20587,-4.09723,-0.00336023,-0.00802602,0.00633269,0.00105561,-0.0124419,0.608917,0.00866789,0.049245,804,638,-4.20585,4.09723
-413,386,-4.38489,-4.08582,0,0,0,0,0,0,0,-1,811,638,-4.38488,4.0858
-406,386,-4.51135,-4.10999,0,0,0,0,0,0,0,-1,818,638,-4.51135,4.10996
-399,386,-3.57117,-3.42126,0,0,0,0,0,0,0,-1,825,638,-3.57116,3.42129
-392,386,-4.00977,0.403625,0,0,0,0,0,0,0,-1,832,638,-4.0098,-0.403616
-385,386,-3.2406,-0.118469,0,0,0,0,0,0,0,-1,839,638,-3.24058,0.118485
-378,386,-2.55243,-1.22748,0,0,0,0,0,0,0,-1,846,638,-2.55243,1.22748
-371,386,-7.95807,-0.330261,0,0,0,0,0,0,0,-1,853,638,-7.95806,0.330284
-364,386,-8.90637,-0.665955,0,0,0,0,0,0,0,-1,860,638,-8.90635,0.665951
-357,386,-9.10364,-0.388733,0,0,0,0,0,0,0,-1,867,638,-9.10364,0.388744
-350,386,0,0,0,0,0,0,0,0,0,-1,874,638,0,0
-343,386,0,0,0,0,0,0,0,0,0,-1,881,638,0,0
-336,386,0,0,0,0,0,0,0,0,0,-1,888,638,0,0
-329,386,0,0,0,0,0,0,0,0,0,-1,895,638,0,0
-322,386,0,0,0,0,0,0,0,0,0,-1,902,638,0,0
-315,386,0,0,0,0,0,0,0,0,0,-1,909,638,0,0
-308,386,0,0,0,0,0,0,0,0,0,-1,916,638,0,0
-301,386,0,0,0,0,0,0,0,0,0,-1,923,638,0,0
-294,386,0,0,0,0,0,0,0,0,0,-1,930,638,0,0
-287,386,0,0,0,0,0,0,0,0,0,-1,937,638,0,0
-280,386,0,0,0,0,0,0,0,0,0,-1,944,638,0,0
-273,386,0,0,0,0,0,0,0,0,0,-1,951,638,0,0
-266,386,0,0,0,0,0,0,0,0,0,-1,958,638,0,0
-259,386,0,0,0,0,0,0,0,0,0,-1,965,638,0,0
-252,386,0,0,0,0,0,0,0,0,0,-1,972,638,0,0
-245,386,0,0,0,0,0,0,0,0,0,-1,979,638,0,0
-238,386,0,0,0,0,0,0,0,0,0,-1,986,638,0,0
-231,386,0,0,0,0,0,0,0,0,0,-1,993,638,0,0
-224,386,0,0,0,0,0,0,0,0,0,-1,1000,638,0,0
-217,386,0,0,0,0,0,0,0,0,0,-1,1007,638,0,0
-210,386,0,0,0,0,0,0,0,0,0,-1,1014,638,0,0
-203,386,0,0,0,0,0,0,0,0,0,-1,1021,638,0,0
-196,386,0,0,0,0,0,0,0,0,0,-1,1028,638,0,0
-189,386,0,0,0,0,0,0,0,0,0,-1,1035,638,0,0
-182,386,0,0,0,0,0,0,0,0,0,-1,1042,638,0,0
-175,386,0,0,0,0,0,0,0,0,0,-1,1049,638,0,0
-168,386,0,0,0,0,0,0,0,0,0,-1,1056,638,0,0
-161,386,0,0,0,0,0,0,0,0,0,-1,1063,638,0,0
-154,386,0,0,0,0,0,0,0,0,0,-1,1070,638,0,0
-147,386,0,0,0,0,0,0,0,0,0,-1,1077,638,0,0
-140,386,0,0,0,0,0,0,0,0,0,-1,1084,638,0,0
-133,386,0,0,0,0,0,0,0,0,0,-1,1091,638,0,0
-126,386,0,0,0,0,0,0,0,0,0,-1,1098,638,0,0
-119,386,0,0,0,0,0,0,0,0,0,-1,1105,638,0,0
-112,386,0,0,0,0,0,0,0,0,0,-1,1112,638,0,0
-105,386,0,0,0,0,0,0,0,0,0,-1,1119,638,0,0
-98,386,0,0,0,0,0,0,0,0,0,-1,1126,638,0,0
-91,386,0,0,0,0,0,0,0,0,0,-1,1133,638,0,0
-84,386,0,0,0,0,0,0,0,0,0,-1,1140,638,0,0
-77,386,0,0,0,0,0,0,0,0,0,-1,1147,638,0,0
-70,386,0,0,0,0,0,0,0,0,0,-1,1154,638,0,0
-63,386,0,0,0,0,0,0,0,0,0,-1,1161,638,0,0
-56,386,0,0,0,0,0,0,0,0,0,-1,1168,638,0,0
-49,386,0,0,0,0,0,0,0,0,0,-1,1175,638,0,0
-42,386,0,0,0,0,0,0,0,0,0,-1,1182,638,0,0
-35,386,0,0,0,0,0,0,0,0,0,-1,1189,638,0,0
-28,386,0,0,0,0,0,0,0,0,0,-1,1196,638,0,0
-21,386,0,0,0,0,0,0,0,0,0,-1,1203,638,0,0
-14,386,0,0,0,0,0,0,0,0,0,-1,1210,638,0,0
-7,386,0,0,0,0,0,0,0,0,0,-1,1217,638,0,0
0,386,0,0,0,0,0,0,0,0,0,-1,1224,638,0,0
7,386,0,0,0,0,0,0,0,0,0,-1,1231,638,0,0
14,386,0,0,0,0,0,0,0,0,0,-1,1238,638,0,0
21,386,0,0,0,0,0,0,0,0,0,-1,1245,638,0,0
28,386,0,0,0,0,0,0,0,0,0,-1,1252,638,0,0
35,386,0,0,0,0,0,0,0,0,0,-1,1259,638,0,0
42,386,0,0,0,0,0,0,0,0,0,-1,1266,638,0,0
49,386,0,0,0,0,0,0,0,0,0,-1,1273,638,0,0
56,386,0,0,0,0,0,0,0,0,0,-1,1280,638,0,0
63,386,0,0,0,0,0,0,0,0,0,-1,1287,638,0,0
70,386,0,0,0,0,0,0,0,0,0,-1,1294,638,0,0
77,386,0,0,0,0,0,0,0,0,0,-1,1301,638,0,0
84,386,0,0,0,0,0,0,0,0,0,-1,1308,638,0,0
91,386,0,0,0,0,0,0,0,0,0,-1,1315,638,0,0
98,386,0,0,0,0,0,0,0,0,0,-1,1322,638,0,0
105,386,0,0,0,0,0,0,0,0,0,-1,1329,638,0,0
112,386,0,0,0,0,0,0,0,0,0,-1,1336,638,0,0
119,386,0,0,0,0,0,0,0,0,0,-1,1343,638,0,0
126,386,0,0,0,0,0,0,0,0,0,-1,1350,638,0,0
133,386,0,0,0,0,0,0,0,0,0,-1,1357,638,0,0
140,386,0,0,0,0,0,0,0,0,0,-1,1364,638,0,0
147,386,0,0,0,0,0,0,0,0,0,-1,1371,638,0,0
154,386,0,0,0,0,0,0,0,0,0,-1,1378,638,0,0
161,386,0,0,0,0,0,0,0,0,0,-1,1385,638,0,0
168,386,0,0,0,0,0,0,0,0,0,-1,1392,638,0,0
175,386,0,0,0,0,0,0,0,0,0,-1,1399,638,0,0
182,386,0,0,0,0,0,0,0,0,0,-1,1406,638,0,0
189,386,0,0,0,0,0,0,0,0,0,-1,1413,638,0,0
196,386,0,0,0,0,0,0,0,0,0,-1,1420,638,0,0
203,386,0,0,0,0,0,0,0,0,0,-1,1427,638,0,0
210,386,0,0,0,0,0,0,0,0,0,-1,1434,638,0,0
217,386,0,0,0,0,0,0,0,0,0,-1,1441,638,0,0
224,386,0,0,0,0,0,0,0,0,0,-1,1448,638,0,0
231,386,0,0,0,0,0,0,0,0,0,-1,1455,638,0,0
238,386,0,0,0,0,0,0,0,0,0,-1,1462,638,0,0
245,386,0,0,0,0,0,0,0,0,0,-1,1469,638,0,0
252,386,0,0,0,0,0,0,0,0,0,-1,1476,638,0,0
259,386,0,0,0,0,0,0,0,0,0,-1,1483,638,0,0
266,386,0,0,0,0,0,0,0,0,0,-1,1490,638,0,0
273,386,0,0,0,0,0,0,0,0,0,-1,1497,638,0,0
280,386,0,0,0,0,0,0,0,0,0,-1,1504,638,0,0
287,386,0,0,0,0,0,0,0,0,0,-1,1511,638,0,0
294,386,0,0,0,0,0,0,0,0,0,-1,1518,638,0,0
301,386,0,0,0,0,0,0,0,0,0,-1,1525,638,0,0
308,386,0,0,0,0,0,0,0,0,0,-1,1532,638,0,0
315,386,0,0,0,0,0,0,0,0,0,-1,1539,638,0,0
322,386,0,0,0,0,0,0,0,0,0,-1,1546,638,0,0
329,386,0,0,0,0,0,0,0,0,0,-1,1553,638,0,0
336,386,0,0,0,0,0,0,0,0,0,-1,1560,638,0,0
343,386,0,0,0,0,0,0,0,0,0,-1,1567,638,0,0
350,386,0,0,0,0,0,0,0,0,0,-1,1574,638,0,0
357,386,0,0,0,0,0,0,0,0,0,-1,1581,638,0,0
364,386,0,0,0,0,0,0,0,0,0,-1,1588,638,0,0
371,386,0,0,0,0,0,0,0,0,0,-1,1595,638,0,0
378,386,0,0,0,0,0,0,0,0,0,-1,1602,638,0,0
385,386,0,0,0,0,0,0,0,0,0,-1,1609,638,0,0
392,386,0,0,0,0,0,0,0,0,0,-1,1616,638,0,0
399,386,0,0,0,0,0,0,0,0,0,-1,1623,638,0,0
406,386,0,0,0,0,0,0,0,0,0,-1,1630,638,0,0
413,386,0,0,0,0,0,0,0,0,0,-1,1637,638,0,0
420,386,0,0,0,0,0,0,0,0,0,-1,1644,638,0,0
427,386,0,0,0,0,0,0,0,0,0,-1,1651,638,0,0
434,386,0,0,0,0,0,0,0,0,0,-1,1658,638,0,0
441,386,0,0,0,0,0,0,0,0,0,-1,1665,638,0,0
448,386,0,0,0,0,0,0,0,0,0,-1,1672,638,0,0
455,386,0,0,0,0,0,0,0,0,0,-1,1679,638,0,0
462,386,0,0,0,0,0,0,0,0,0,-1,1686,638,0,0
469,386,9.84692,1.55804,0,0,0,0,0,0,0,-1,1693,638,9.84691,-1.55807
476,386,10.6145,0.986511,0,0,0,0,0,0,0,-1,1700,638,10.6145,-0.986529
483,386,11.4113,0.732971,0,0,0,0,0,0,0,-1,1707,638,11.4112,-0.732958
490,386,7.79785,1.79572,0,0,0,0,0,0,0,-1,1714,638,7.79788,-1.7957
497,386,8.96362,1.77081,0,0,0,0,0,0,0,-1,1721,638,8.96357,-1.77081
504,386,10.0555,1.69427,0,0,0,0,0,0,0,-1,1728,638,10.0555,-1.69426
511,386,11.2172,1.534,0,0,0,0,0,0,0,-1,1735,638,11.2172,-1.53398
518,386,7.41553,1.75238,0,0,0,0,0,0,0,-1,1742,638,7.41547,-1.75238
525,386,8.82422,-1.1449,0,0,0,0,0,0,0,-1,1749,638,8.82426,1.14492
532,386,10.6432,0.617371,0,0,0,0,0,0,0,-1,1756,638,10.6432,-0.617359
539,386,9.62061,-0.393616,0,0,0,0,0,0,0,-1,1763,638,9.62059,0.393634
546,386,9.92554,-2.47314,0,0,0,0,0,0,0,-1,1770,638,9.92557,2.47313
553,386,9.64197,-2.4314,-0.00446142,-0.0011096,-0.0017299,-0.000376936,-0.00519408,-1.17017,0.00334416,0.044006,1777,638,9.642,2.43142
560,386,9.52222,-2.20905,-0.00387702,-0.00112894,-0.00170431,-0.000313765,-0.00469219,-1.12466,0.00302896,0.0309443,1784,638,9.5222,2.20902
567,386,9.43616,-2.013,-0.00347296,-0.00113039,-0.00165999,-0.000270058,-0.00433329,-1.09264,0.00280318,0.0196183,1791,638,9.4361,2.01302
574,386,9.46216,-1.81195,-0.00287071,-0.0010218,-0.00147401,-0.000206342,-0.00368617,-1.06548,0.00239164,0.0138106,1798,638,9.4622,1.81195
581,386,9.45996,-1.57904,-0.00208305,-0.000783265,-0.00115886,-0.000104505,-0.00276181,-1.04095,0.00180738,0.014247,1805,638,9.45992,1.57901
588,386,9.46436,-1.32526,-0.00124881,-0.000434523,-0.000737749,9.71835e-07,-0.00168431,-1.03754,0.00112319,0.0131085,1812,638,9.4644,1.32525
595,386,9.43494,-1.09003,-0.000309506,-0.000150603,-0.000305322,8.54358e-05,-0.000545544,-0.912686,0.000395265,0.0139578,1819,638,9.43496,1.09002
602,386,9.42041,-0.852478,0.000697955,0.00030039,0.000262219,0.000828222,0.000170124,0.461073,0.000505082,0.0151754,1826,638,9.42037,0.85246
609,386,9.45569,-0.604614,0.00112902,0.000410137,0.000683145,0.00154151,-2.35828e-06,0.543222,0.00102846,0.014024,1833,638,9.45567,0.604643
616,386,9.46826,-0.326904,0.00101352,0.000222699,0.000911655,0.00161182,-0.000375602,0.580778,0.00121919,0.0115702,1840,638,9.46821,0.326896
623,386,9.45117,-0.0830688,0.00104018,5.22198e-05,0.00103026,0.00168876,-0.000596362,0.561853,0.00136864,0.0101944,1847,638,9.45119,0.0830521
630,386,9.51721,0.118347,0.000899466,-0.00044428,0.000937259,0.00138079,-0.000925606,0.474426,0.00134022,0.0200018,1854,638,9.51724,-0.118363
637,386,9.51428,0.373047,-0.000293716,-0.00188329,0.000516971,-0.000140375,-0.00203663,0.288347,0.00131346,0.0387002,1861,638,9.51426,-0.37306
644,386,9.34399,0.469238,-0.00203463,-0.00344875,-5.13908e-05,-0.00203276,-0.00345062,-0.0362773,0.00200273,0.0456597,1868,638,9.344,-0.469225
651,386,9.66089,0.596069,0,0,0,0,0,0,0,-1,1875,638,9.66085,-0.596045
658,386,9.91907,0.689819,0,0,0,0,0,0,0,-1,1882,638,9.91904,-0.689819
665,386,6.33167,1.78601,0,0,0,0,0,0,0,-1,1889,638,6.33171,-1.78601
672,386,7.23352,2.14435,0,0,0,0,0,0,0,-1,1896,638,7.23353,-2.14433
679,386,8.07764,2.57104,0,0,0,0,0,0,0,-1,1903,638,8.07758,-2.57103
686,386,0,0,0,0,0,0,0,0,0,-1,1910,638,0,0
693,386,0,0,0,0,0,0,0,0,0,-1,1917,638,0,0
700,386,0,0,0,0,0,0,0,0,0,-1,1924,638,0,0
707,386,0,0,0,0,0,0,0,0,0,-1,1931,638,0,0
714,386,0,0,0,0,0,0,0,0,0,-1,1938,638,0,0
721,386,0,0,0,0,0,0,0,0,0,-1,1945,638,0,0
728,386,0,0,0,0,0,0,0,0,0,-1,1952,638,0,0
735,386,0,0,0,0,0,0,0,0,0,-1,1959,638,0,0
742,386,0,0,0,0,0,0,0,0,0,-1,1966,638,0,0
749,386,0,0,0,0,0,0,0,0,0,-1,1973,638,0,0
756,386,0,0,0,0,0,0,0,0,0,-1,1980,638,0,0
763,386,0,0,0,0,0,0,0,0,0,-1,1987,638,0,0
770,386,0,0,0,0,0,0,0,0,0,-1,1994,638,0,0
777,386,0,0,0,0,0,0,0,0,0,-1,2001,638,0,0
784,386,0,0,0,0,0,0,0,0,0,-1,2008,638,0,0
791,386,0,0,0,0,0,0,0,0,0,-1,2015,638,0,0
798,386,0,0,0,0,0,0,0,0,0,-1,2022,638,0,0
805,386,0,0,0,0,0,0,0,0,0,-1,2029,638,0,0
812,386,0,0,0,0,0,0,0,0,0,-1,2036,638,0,0
-700,379,0,0,0,0,0,0,0,0,0,-1,524,645,0,0
-693,379,0,0,0,0,0,0,0,0,0,-1,531,645,0,0
-686,379,0,0,0,0,0,0,0,0,0,-1,538,645,0,0
-679,379,0,0,0,0,0,0,0,0,0,-1,545,645,0,0
-672,379,0,0,0,0,0,0,0,0,0,-1,552,645,0,0
-665,379,0,0,0,0,0,0,0,0,0,-1,559,645,0,0
-658,379,0,0,0,0,0,0,0,0,0,-1,566,645,0,0
-651,379,0,0,0,0,0,0,0,0,0,-1,573,645,0,0
-644,379,0,0,0,0,0,0,0,0,0,-1,580,645,0,0
-637,379,0,0,0,0,0,0,0,0,0,-1,587,645,0,0
-630,379,0,0,0,0,0,0,0,0,0,-1,594,645,0,0
-623,379,0,0,0,0,0,0,0,0,0,-1,601,645,0,0
-616,379,0,0,0,0,0,0,0,0,0,-1,608,645,0,0
-609,379,0,0,0,0,0,0,0,0,0,-1,615,645,0,0
-602,379,0,0,0,0,0,0,0,0,0,-1,622,645,0,0
-595,379,0,0,0,0,0,0,0,0,0,-1,629,645,0,0
-588,379,0,0,0,0,0,0,0,0,0,-1,636,645,0,0
-581,379,0,0,0,0,0,0,0,0,0,-1,643,645,0,0
-574,379,0,0,0,0,0,0,0,0,0,-1,650,645,0,0
-567,379,-5.41962,-1.0097,0,0,0,0,0,0,0,-1,657,645,-5.41964,1.00969
-560,379,-4.31061,-1.38812,0,0,0,0,0,0,0,-1,664,645,-4.31058,1.38815
-553,379,-3.33514,-1.66992,0,0,0,0,0,0,0,-1,671,645,-3.33517,1.6699
-546,379,-2.1358,-1.87762,0,0,0,0,0,0,0,-1,678,645,-2.13579,1.87765
-539,379,-0.71698,-2.19427,0,0,0,0,0,0,0,-1,685,645,-0.716959,2.19427
-532,379,-4.54523,-0.436157,0,0,0,0,0,0,0,-1,692,645,-4.5452,0.436149
-525,379,-4.39929,-0.70575,0.00104849,0.0846567,-0.0371688,0.0987909,-0.0130858,-1.20741,0.0706278,0.0490065,699,645,-4.3993,0.705723
-518,379,-4.38824,-1.04071,0.000334401,0.0614447,-0.0268007,0.0715331,-0.00975396,-1.21078,0.0512504,0.042928,706,645,-4.38827,1.04072
-511,379,-4.21899,-1.48206,-0.000536047,0.0428668,-0.0185066,0.0496864,-0.00735563,-1.21774,0.0358287,0.0290946,713,645,-4.219,1.48204
-504,379,-4.25555,-1.7157,-0.000690915,0.0292027,-0.0124863,0.0337319,-0.00522011,-1.22282,0.0244147,0.0162667,720,645,-4.25554,1.71569
-497,379,-4.28192,-1.90521,-0.000345978,0.0191161,-0.00808941,0.0220394,-0.00326926,-1.22403,0.0158951,0.0101366,727,645,-4.28195,1.90521
-490,379,-4.27313,-2.1308,-4.87481e-05,0.0117065,-0.00492027,0.0134941,-0.00183634,-1.22231,0.00966648,0.0107207,734,645,-4.2731,2.1308
-483,379,-4.25476,-2.36206,0.000166863,0.00609163,-0.00268743,0.007129,-0.000870503,-1.20241,0.00506782,0.0121726,741,645,-4.25476,2.36207
-476,379,-4.263,-2.55945,0.000502914,0.00180108,-0.000961635,0.00231219,-8.19785e-06,-1.08227,0.0015442,0.0120924,748,645,-4.26298,2.55944
-469,379,-4.28455,-2.77747,0.00072697,-5.24504e-05,-0.000224617,0.000787067,-0.000112548,-0.261431,0.00056597,0.0117229,755,645,-4.28455,2.77745
-462,379,-4.30579,-3.02783,0.000766595,-0.00063413,-6.92335e-05,0.000770009,-0.000637544,-0.0492668,0.00081385,0.00885862,762,645,-4.30577,3.02783
-455,379,-4.31604,-3.26355,0.000874337,-0.00121641,0.000250727,0.000903985,-0.00124606,0.117699,0.00124655,0.00893894,769,645,-4.31605,3.26354
-448,379,-4.30096,-3.48309,0.0010036,-0.00209283,0.000799572,0.00119787,-0.00228711,0.23836,0.00204456,0.0110906,776,645,-4.30096,3.48311
-441,379,-4.27258,-3.73633,0.000589758,-0.00353107,0.00169857,0.00119964,-0.00414095,0.344717,0.00323551,0.0153414,783,645,-4.27259,3.73632
-434,379,-4.12006,-4.02325,-0.000234281,-0.00500187,0.00303264,0.0012393,-0.00647546,0.45231,0.00478388,0.048295,790,645,-4.12005,4.02327
-427,379,-4.06769,-4.00964,0,0,0,0,0,0,0,-1,797,645,-4.0677,4.00962
-420,379,-4.46185,-3.74664,0,0,0,0,0,0,0,-1,804,645,-4.46187,3.74664
-413,379,-4.15887,-3.13977,0,0,0,0,0,0,0,-1,811,645,-4.15889,3.1398
-406,379,-4.64063,-4.38489,0,0,0,0,0,0,0,-1,818,645,-4.64065,4.3849
-399,379,-2.93536,-1.40118,0,0,0,0,0,0,0,-1,825,645,-2.93534,1.40119
-392,379,-4.16711,-0.466003,0,0,0,0,0,0,0,-1,832,645,-4.16714,0.465992
-385,379,-3.51862,0.441101,0,0,0,0,0,0,0,-1,839,645,-3.51859,-0.441072
-378,379,-5.3504,0.212219,0,0,0,0,0,0,0,-1,846,645,-5.35038,-0.212241
-371,379,-4.32092,-0.186707,0,0,0,0,0,0,0,-1,853,645,-4.3209,0.186707
-364,379,-3.40887,-0.549805,0,0,0,0,0,0,0,-1,860,645,-3.4089,0.549802
-357,379,0,0,0,0,0,0,0,0,0,-1,867,645,0,0
-350,379,0,0,0,0,0,0,0,0,0,-1,874,645,0,0
-343,379,0,0,0,0,0,0,0,0,0,-1,881,645,0,0
-336,379,0,0,0,0,0,0,0,0,0,-1,888,645,0,0
-329,379,0,0,0,0,0,0,0,0,0,-1,895,645,0,0
-322,379,0,0,0,0,0,0,0,0,0,-1,902,645,0,0
-315,379,0,0,0,0,0,0,0,0,0,-1,909,645,0,0
-308,379,0,0,0,0,0,0,0,0,0,-1,916,645,0,0
-301,379,0,0,0,0,0,0,0,0,0,-1,923,645,0,0
-294,379,0,0,0,0,0,0,0,0,0,-1,930,645,0,0
-287,379,0,0,0,0,0,0,0,0,0,-1,937,645,0,0
-280,379,0,0,0,0,0,0,0,0,0,-1,944,645,0,0
-273,379,0,0,0,0,0,0,0,0,0,-1,951,645,0,0
-266,379,0,0,0,0,0,0,0,0,0,-1,958,645,0,0
-259,379,0,0,0,0,0,0,0,0,0,-1,965,645,0,0
-252,379,0,0,0,0,0,0,0,0,0,-1,972,645,0,0
-245,379,0,0,0,0,0,0,0,0,0,-1,979,645,0,0
-238,379,0,0,0,0,0,0,0,0,0,-1,986,645,0,0
-231,379,0,0,0,0,0,0,0,0,0,-1,993,645,0,0
-224,379,0,0,0,0,0,0,0,0,0,-1,1000,645,0,0
-217,379,0,0,0,0,0,0,0,0,0,-1,1007,645,0,0
-210,379,0,0,0,0,0,0,0,0,0,-1,1014,645,0,0
-203,379,0,0,0,0,0,0,0,0,0,-1,1021,645,0,0
-196,379,0,0,0,0,0,0,0,0,0,-1,1028,645,0,0
-189,379,0,0,0,0,0,0,0,0,0,-1,1035,645,0,0
-182,379,0,0,0,0,0,0,0,0,0,-1,1042,645,0,0
-175,379,0,0,0,0,0,0,0,0,0,-1,1049,645,0,0
-168,379,0,0,0,0,0,0,0,0,0,-1,1056,645,0,0
-161,379,0,0,0,0,0,0,0,0,0,-1,1063,645,0,0
-154,379,0,0,0,0,0,0,0,0,0,-1,1070,645,0,0
-147,379,0,0,0,0,0,0,0,0,0,-1,1077,645,0,0
-140,379,0,0,0,0,0,0,0,0,0,-1,1084,645,0,0
-133,379,0,0,0,0,0,0,0,0,0,-1,1091,645,0,0
-126,379,0,0,0,0,0,0,0,0,0,-1,1098,645,0,0
-119,379,0,0,0,0,0,0,0,0,0,-1,1105,645,0,0
-112,379,0,0,0,0,0,0,0,0,0,-1,1112,645,0,0
-105,379,0,0,0,0,0,0,0,0,0,-1,1119,645,0,0
-98,379,0,0,0,0,0,0,0,0,0,-1,1126,645,0,0
-91,379,0,0,0,0,0,0,0,0,0,-1,1133,645,0,0
-84,379,0,0,0,0,0,0,0,0,0,-1,1140,645,0,0
-77,379,0,0,0,0,0,0,0,0,0,-1,1147,645,0,0
-70,379,0,0,0,0,0,0,0,0,0,-1,1154,645,0,0
-63,379,0,0,0,0,0,0,0,0,0,-1,1161,645,0,0
-56,379,0,0,0,0,0,0,0,0,0,-1,1168,645,0,0
-49,379,0,0,0,0,0,0,0,0,0,-1,1175,645,0,0
-42,379,0,0,0,0,0,0,0,0,0,-1,1182,645,0,0
-35,379,0,0,0,0,0,0,0,0,0,-1,1189,645,0,0
-28,379,0,0,0,0,0,0,0,0,0,-1,1196,645,0,0
-21,379,0,0,0,0,0,0,0,0,0,-1,1203,645,0,0
-14,379,0,0,0,0,0,0,0,0,0,-1,1210,645,0,0
-7,379,0,0,0,0,0,0,0,0,0,-1,1217,645,0,0
0,379,0,0,0,0,0,0,0,0,0,-1,1224,645,0,0
7,379,0,0,0,0,0,0,0,0,0,-1,1231,645,0,0
14,379,0,0,0,0,0,0,0,0,0,-1,1238,645,0,0
21,379,0,0,0,0,0,0,0,0,0,-1,1245,645,0,0
28,379,0,0,0,0,0,0,0,0,0,-1,1252,645,0,0
35,379,0,0,0,0,0,0,0,0,0,-1,1259,645,0,0
42,379,0,0,0,0,0,0,0,0,0,-1,1266,645,0,0
49,379,0,0,0,0,0,0,0,0,0,-1,1273,645,0,0
56,379,0,0,0,0,0,0,0,0,0,-1,1280,645,0,0
63,379,0,0,0,0,0,0,0,0,0,-1,1287,645,0,0
70,379,0,0,0,0,0,0,0,0,0,-1,1294,645,0,0
77,379,0,0,0,0,0,0,0,0,0,-1,1301,645,0,0
84,379,0,0,0,0,0,0,0,0,0,-1,1308,645,0,0
91,379,0,0,0,0,0,0,0,0,0,-1,1315,645,0,0
98,379,0,0,0,0,0,0,0,0,0,-1,1322,645,0,0
105,379,0,0,0,0,0,0,0,0,0,-1,1329,645,0,0
112,379,0,0,0,0,0,0,0,0,0,-1,1336,645,0,0
119,379,0,0,0,0,0,0,0,0,0,-1,1343,645,0,0
126,379,0,0,0,0,0,0,0,0,0,-1,1350,645,0,0
133,379,0,0,0,0,0,0,0,0,0,-1,1357,645,0,0
140,379,0,0,0,0,0,0,0,0,0,-1,1364,645,0,0
147,379,0,0,0,0,0,0,0,0,0,-1,1371,645,0,0
154,379,0,0,0,0,0,0,0,0,0,-1,1378,645,0,0
161,379,0,0,0,0,0,0,0,0,0,-1,1385,645,0,0
168,379,0,0,0,0,0,0,0,0,0,-1,1392,645,0,0
175,379,0,0,0,0,0,0,0,0,0,-1,1399,645,0,0
182,379,0,0,0,0,0,0,0,0,0,-1,1406,645,0,0
189,379,0,0,0,0,0,0,0,0,0,-1,1413,645,0,0
196,379,0,0,0,0,0,0,0,0,0,-1,1420,645,0,0
203,379,0,0,0,0,0,0,0,0,0,-1,1427,645,0,0
210,379,0,0,0,0,0,0,0,0,0,-1,1434,645,0,0
217,379,0,0,0,0,0,0,0,0,0,-1,1441,645,0,0
224,379,0,0,0,0,0,0,0,0,0,-1,1448,645,0,0
231,379,0,0,0,0,0,0,0,0,0,-1,1455,645,0,0
238,379,0,0,0,0,0,0,0,0,0,-1,1462,645,0,0
245,379,0,0,0,0,0,0,0,0,0,-1,1469,645,0,0
252,379,0,0,0,0,0,0,0,0,0,-1,1476,645,0,0
259,379,0,0,0,0,0,0,0,0,0,-1,1483,645,0,0
266,379,0,0,0,0,0,0,0,0,0,-1,1490,645,0,0
273,379,0,0,0,0,0,0,0,0,0,-1,1497,645,0,0
280,379,0,0,0,0,0,0,0,0,0,-1,1504,645,0,0
287,379,0,0,0,0,0,0,0,0,0,-1,1511,645,0,0
294,379,0,0,0,0,0,0,0,0,0,-1,1518,645,0,0
301,379,0,0,0,0,0,0,0,0,0,-1,1525,645,0,0
308,379,0,0,0,0,0,0,0,0,0,-1,1532,645,0,0
315,379,0,0,0,0,0,0,0,0,0,-1,1539,645,0,0
322,379,0,0,0,0,0,0,0,0,0,-1,1546,645,0,0
329,379,0,0,0,0,0,0,0,0,0,-1,1553,645,0,0
336,379,0,0,0,0,0,0,0,0,0,-1,1560,645,0,0
343,379,0,0,0,0,0,0,0,0,0,-1,1567,645,0,0
350,379,0,0,0,0,0,0,0,0,0,-1,1574,645,0,0
357,379,0,0,0,0,0,0,0,0,0,-1,1581,645,0,0
364,379,0,0,0,0,0,0,0,0,0,-1,1588,645,0,0
371,379,0,0,0,0,0,0,0,0,0,-1,1595,645,0,0
378,379,0,0,0,0,0,0,0,0,0,-1,1602,645,0,0
385,379,0,0,0,0,0,0,0,0,0,-1,1609,645,0,0
392,379,0,0,0,0,0,0,0,0,0,-1,1616,645,0,0
399,379,0,0,0,0,0,0,0,0,0,-1,1623,645,0,0
406,379,0,0,0,0,0,0,0,0,0,-1,1630,645,0,0
413,379,0,0,0,0,0,0,0,0,0,-1,1637,645,0,0
420,379,0,0,0,0,0,0,0,0,0,-1,1644,645,0,0
427,379,0,0,0,0,0,0,0,0,0,-1,1651,645,0,0
434,379,0,0,0,0,0,0,0,0,0,-1,1658,645,0,0
441,379,0,0,0,0,0,0,0,0,0,-1,1665,645,0,0
448,379,0,0,0,0,0,0,0,0,0,-1,1672,645,0,0
455,379,0,0,0,0,0,0,0,0,0,-1,1679,645,0,0
462,379,0,0,0,0,0,0,0,0,0,-1,1686,645,0,0
469,379,0,0,0,0,0,0,0,0,0,-1,1693,645,0,0
476,379,11.1787,0.830383,0,0,0,0,0,0,0,-1,1700,645,11.1787,-0.830365
483,379,7.4231,1.54321,0,0,0,0,0,0,0,-1,1707,645,7.42314,-1.54324
490,379,8.52881,1.56677,0,0,0,0,0,0,0,-1,1714,645,8.52878,-1.56677
497,379,9.63599,1.49573,0,0,0,0,0,0,0,-1,1721,645,9.63604,-1.4957
504,379,10.0833,1.35229,0,0,0,0,0,0,0,-1,1728,645,10.0832,-1.35227
511,379,8.14343,1.59912,0,0,0,0,0,0,0,-1,1735,645,8.14347,-1.59912
518,379,12.7955,-0.324097,0,0,0,0,0,0,0,-1,1742,645,12.7955,0.324101
525,379,6.03711,1.10352,0,0,0,0,0,0,0,-1,1749,645,6.03711,-1.10351
532,379,8.70947,0.887817,0,0,0,0,0,0,0,-1,1756,645,8.70953,-0.887808
539,379,9.87097,0.111389,0,0,0,0,0,0,0,-1,1763,645,9.87095,-0.111395
546,379,8.42383,-0.730652,0,0,0,0,0,0,0,-1,1770,645,8.42378,0.730638
553,379,9.94849,-2.58099,0,0,0,0,0,0,0,-1,1777,645,9.94849,2.58097
560,379,9.79907,-2.21063,-0.00548794,-0.0017874,-0.00243168,-0.000582094,-0.00669325,-1.11062,0.00428134,0.0412604,1784,645,9.7991,2.21065
567,379,9.59753,-1.96954,-0.00477449,-0.00186206,-0.00237898,-0.000528994,-0.00610755,-1.06004,0.00390733,0.0240589,1791,645,9.59756,1.96953
574,379,9.72498,-1.80432,-0.00401376,-0.00173683,-0.00217406,-0.000421188,-0.00532941,-1.0266,0.0034212,0.0126464,1798,645,9.72498,1.80431
581,379,9.72498,-1.56763,-0.00308359,-0.0014577,-0.00179171,-0.000303129,-0.00423816,-0.998372,0.00273001,0.0147537,1805,645,9.72495,1.56764
588,379,9.71936,-1.33124,-0.00208834,-0.00104264,-0.001294,-0.000169854,-0.00296113,-0.977399,0.00191997,0.0173375,1812,645,9.71937,1.33126
595,379,9.69312,-1.09125,-0.00104481,-0.000650351,-0.000778296,-4.46815e-05,-0.00165048,-0.909491,0.00108573,0.014344,1819,645,9.69307,1.09125
602,379,9.6925,-0.848633,3.42918e-05,-0.000124731,-0.000152274,0.000126564,-0.000217002,-0.54479,0.000200636,0.0139911,1826,645,9.69245,0.848637
609,379,9.69092,-0.603577,0.00051805,6.58303e-05,0.000296287,0.000664649,-8.07682e-05,0.459467,0.000472329,0.0145535,1833,645,9.69097,0.603577
616,379,9.68494,-0.338745,0.000410258,-9.89836e-05,0.000461019,0.000682297,-0.000371022,0.533095,0.000616922,0.012099,1840,645,9.68491,0.338727
623,379,9.70544,-0.0685425,0.000390541,-0.000195095,0.000549143,0.000720057,-0.000524611,0.540461,0.000721557,0.0115328,1847,645,9.70546,0.0685678
630,379,9.72168,0.144714,0.000322734,-0.000597646,0.000497846,0.000540501,-0.000815413,0.412342,0.000788182,0.012523,1854,645,9.72172,-0.144708
637,379,9.75305,0.381775,-0.000481684,-0.00151617,0.000324017,-0.000388576,-0.00160927,0.279815,0.000969634,0.0169582,1861,645,9.75301,-0.381805
644,379,9.72107,0.698181,-0.00181593,-0.00266263,-0.000112748,-0.00180118,-0.00267738,-0.130142,0.00157624,0.0286174,1868,645,9.72105,-0.698188
651,379,9.91077,1.03265,0,0,0,0,0,0,0,-1,1875,645,9.91079,-1.03268
658,379,9.33484,0.666504,0,0,0,0,0,0,0,-1,1882,645,9.3348,-0.666487
665,379,8.93787,0.850464,0,0,0,0,0,0,0,-1,1889,645,8.93784,-0.850482
672,379,7.57605,2.15326,0,0,0,0,0,0,0,-1,1896,645,7.57599,-2.15326
679,379,8.55078,2.50409,0,0,0,0,0,0,0,-1,1903,645,8.55073,-2.50406
686,379,0,0,0,0,0,0,0,0,0,-1,1910,645,0,0
693,379,0,0,0,0,0,0,0,0,0,-1,1917,645,0,0
700,379,0,0,0,0,0,0,0,0,0,-1,1924,645,0,0
707,379,0,0,0,0,0,0,0,0,0,-1,1931,645,0,0
714,379,0,0,0,0,0,0,0,0,0,-1,1938,645,0,0
721,379,0,0,0,0,0,0,0,0,0,-1,1945,645,0,0
728,379,0,0,0,0,0,0,0,0,0,-1,1952,645,0,0
735,379,0,0,0,0,0,0,0,0,0,-1,1959,645,0,0
742,379,0,0,0,0,0,0,0,0,0,-1,1966,645,0,0
749,379,0,0,0,0,0,0,0,0,0,-1,1973,645,0,0
756,379,0,0,0,0,0,0,0,0,0,-1,1980,645,0,0
763,379,0,0,0,0,0,0,0,0,0,-1,1987,645,0,0
770,379,0,0,0,0,0,0,0,0,0,-1,1994,645,0,0
777,379,0,0,0,0,0,0,0,0,0,-1,2001,645,0,0
784,379,0,0,0,0,0,0,0,0,0,-1,2008,645,0,0
791,379,0,0,0,0,0,0,0,0,0,-1,2015,645,0,0
798,379,0,0,0,0,0,0,0,0,0,-1,2022,645,0,0
805,379,0,0,0,0,0,0,0,0,0,-1,2029,645,0,0
812,379,0,0,0,0,0,0,0,0,0,-1,2036,645,0,0
-700,372,0,0,0,0,0,0,0,0,0,-1,524,652,0,0
-693,372,0,0,0,0,0,0,0,0,0,-1,531,652,0,0
-686,372,0,0,0,0,0,0,0,0,0,-1,538,652,0,0
-679,372,0,0,0,0,0,0,0,0,0,-1,545,652,0,0
-672,372,0,0,0,0,0,0,0,0,0,-1,552,652,0,0
-665,372,0,0,0,0,0,0,0,0,0,-1,559,652,0,0
-658,372,0,0,0,0,0,0,0,0,0,-1,566,652,0,0
-651,372,0,0,0,0,0,0,0,0,0,-1,573,652,0,0
-644,372,0,0,0,0,0,0,0,0,0,-1,580,652,0,0
-637,372,0,0,0,0,0,0,0,0,0,-1,587,652,0,0
-630,372,0,0,0,0,0,0,0,0,0,-1,594,652,0,0
-623,372,0,0,0,0,0,0,0,0,0,-1,601,652,0,0
-616,372,0,0,0,0,0,0,0,0,0,-1,608,652,0,0
-609,372,0,0,0,0,0,0,0,0,0,-1,615,652,0,0
-602,372,0,0,0,0,0,0,0,0,0,-1,622,652,0,0
-595,372,0,0,0,0,0,0,0,0,0,-1,629,652,0,0
-588,372,0,0,0,0,0,0,0,0,0,-1,636,652,0,0
-581,372,0,0,0,0,0,0,0,0,0,-1,643,652,0,0
-574,372,0,0,0,0,0,0,0,0,0,-1,650,652,0,0
-567,372,-5.8045,-0.655151,0,0,0,0,0,0,0,-1,657,652,-5.80453,0.65516
-560,372,-4.73248,-1.01947,0,0,0,0,0,0,0,-1,664,652,-4.7325,1.01945
-553,372,-4.55664,2.25775,0,0,0,0,0,0,0,-1,671,652,-4.55664,-2.25778
-546,372,-4.15826,1.88702,0,0,0,0,0,0,0,-1,678,652,-4.15826,-1.88703
-539,372,-4.88733,2.01349,0,0,0,0,0,0,0,-1,685,652,-4.88733,-2.01352
-532,372,-4.51703,-0.445068,0,0,0,0,0,0,0,-1,692,652,-4.51701,0.445089
-525,372,-4.48749,-0.800354,0.00294719,0.0581899,-0.0255186,0.0681735,-0.00703648,-1.19787,0.0479669,0.0459287,699,652,-4.48751,0.800368
-518,372,-4.48346,-1.17944,0.00162598,0.0422998,-0.0183922,0.049383,-0.00545725,-1.20318,0.0348837,0.0296995,706,652,-4.48348,1.17942
-511,372,-4.4978,-1.49091,0.000254885,0.0293615,-0.012587,0.0340496,-0.00443318,-1.21426,0.0243126,0.0175619,713,652,-4.49779,1.49091
-504,372,-4.51471,-1.66443,-0.000183066,0.0199733,-0.00846559,0.023057,-0.0032668,-1.22147,0.016568,0.0116387,720,652,-4.5147,1.66445
-497,372,-4.4953,-1.89673,2.0648e-05,0.0129446,-0.00542458,0.0149196,-0.00195439,-1.22162,0.0106578,0.0110542,727,652,-4.49529,1.89674
-490,372,-4.5,-2.12,0.00022495,0.00767283,-0.00320376,0.0088613,-0.000963522,-1.21557,0.0062535,0.0117706,734,652,-4.50001,2.11998
-483,372,-4.50726,-2.34094,0.000404249,0.00348559,-0.00160525,0.00416989,-0.000280053,-1.16783,0.00287782,0.0116864,741,652,-4.50724,2.34096
-476,372,-4.51984,-2.54736,0.000727809,0.000623086,-0.000525524,0.00120357,0.000147322,-0.735744,0.000758062,0.0123161,748,652,-4.51983,2.54739
-469,372,-4.51917,-2.75806,0.00100123,-0.000530676,-0.000147534,0.0010153,-0.000544755,-0.0951428,0.000914256,0.0101568,755,652,-4.51913,2.75805
-462,372,-4.51532,-3.01379,0.00117349,-0.00105726,-6.25165e-05,0.00117524,-0.00105902,-0.0279955,0.00129053,0.00905087,762,652,-4.51529,3.01377
-455,372,-4.53491,-3.25238,0.0014026,-0.00161059,0.000200922,0.00141594,-0.00162392,0.0662898,0.00175643,0.00998167,769,652,-4.53492,3.25235
-448,372,-4.52472,-3.47241,0.00159826,-0.00254043,0.000757248,0.00173246,-0.00267463,0.1754,0.00256375,0.0111857,776,652,-4.5247,3.47239
-441,372,-4.41388,-3.82806,0.00120496,-0.00416965,0.00175004,0.00172456,-0.00468925,0.288618,0.00383261,0.0302137,783,652,-4.41388,3.82809
-434,372,-4.2782,-4.19745,0,0,0,0,0,0,0,-1,790,652,-4.27822,4.19744
-427,372,-4.54248,-3.56268,0,0,0,0,0,0,0,-1,797,652,-4.54247,3.56266
-420,372,-4.53424,-3.66199,0,0,0,0,0,0,0,-1,804,652,-4.53425,3.66197
-413,372,-4.74762,-3.29541,0,0,0,0,0,0,0,-1,811,652,-4.74763,3.29542
-406,372,-0.885437,-0.583923,0,0,0,0,0,0,0,-1,818,652,-0.885437,0.5839
-399,372,-3.97357,-0.825012,0,0,0,0,0,0,0,-1,825,652,-3.97359,0.825037
-392,372,-7.64337,0.173035,0,0,0,0,0,0,0,-1,832,652,-7.64337,-0.173019
-385,372,-6.48871,-0.0271606,0,0,0,0,0,0,0,-1,839,652,-6.48874,0.0271353
-378,372,-5.33044,-0.242432,0,0,0,0,0,0,0,-1,846,652,-5.33042,0.242457
-371,372,-4.40802,-0.495667,0,0,0,0,0,0,0,-1,853,652,-4.40802,0.495661
-364,372,0,0,0,0,0,0,0,0,0,-1,860,652,0,0
-357,372,0,0,0,0,0,0,0,0,0,-1,867,652,0,0
-350,372,0,0,0,0,0,0,0,0,0,-1,874,652,0,0
-343,372,0,0,0,0,0,0,0,0,0,-1,881,652,0,0
-336,372,0,0,0,0,0,0,0,0,0,-1,888,652,0,0
-329,372,0,0,0,0,0,0,0,0,0,-1,895,652,0,0
-322,372,0,0,0,0,0,0,0,0,0,-1,902,652,0,0
-315,372,0,0,0,0,0,0,0,0,0,-1,909,652,0,0
-308,372,0,0,0,0,0,0,0,0,0,-1,916,652,0,0
-301,372,0,0,0,0,0,0,0,0,0,-1,923,652,0,0
-294,372,0,0,0,0,0,0,0,0,0,-1,930,652,0,0
-287,372,0,0,0,0,0,0,0,0,0,-1,937,652,0,0
-280,372,0,0,0,0,0,0,0,0,0,-1,944,652,0,0
-273,372,0,0,0,0,0,0,0,0,0,-1,951,652,0,0
-266,372,0,0,0,0,0,0,0,0,0,-1,958,652,0,0
-259,372,0,0,0,0,0,0,0,0,0,-1,965,652,0,0
-252,372,0,0,0,0,0,0,0,0,0,-1,972,652,0,0
-245,372,0,0,0,0,0,0,0,0,0,-1,979,652,0,0
-238,372,0,0,0,0,0,0,0,0,0,-1,986,652,0,0
-231,372,0,0,0,0,0,0,0,0,0,-1,993,652,0,0
-224,372,0,0,0,0,0,0,0,0,0,-1,1000,652,0,0
-217,372,0,0,0,0,0,0,0,0,0,-1,1007,652,0,0
-210,372,0,0,0,0,0,0,0,0,0,-1,1014,652,0,0
-203,372,0,0,0,0,0,0,0,0,0,-1,1021,652,0,0
-196,372,0,0,0,0,0,0,0,0,0,-1,1028,652,0,0
-189,372,0,0,0,0,0,0,0,0,0,-1,1035,652,0,0
-182,372,0,0,0,0,0,0,0,0,0,-1,1042,652,0,0
-175,372,0,0,0,0,0,0,0,0,0,-1,1049,652,0,0
-168,372,0,0,0,0,0,0,0,0,0,-1,1056,652,0,0
-161,372,0,0,0,0,0,0,0,0,0,-1,1063,652,0,0
-154,372,0,0,0,0,0,0,0,0,0,-1,1070,652,0,0
-147,372,0,0,0,0,0,0,0,0,0,-1,1077,652,0,0
-140,372,0,0,0,0,0,0,0,0,0,-1,1084,652,0,0
-133,372,0,0,0,0,0,0,0,0,0,-1,1091,652,0,0
-126,372,0,0,0,0,0,0,0,0,0,-1,1098,652,0,0
-119,372,0,0,0,0,0,0,0,0,0,-1,1105,652,0,0
-112,372,0,0,0,0,0,0,0,0,0,-1,1112,652,0,0
-105,372,0,0,0,0,0,0,0,0,0,-1,1119,652,0,0
-98,372,0,0,0,0,0,0,0,0,0,-1,1126,652,0,0
-91,372,0,0,0,0,0,0,0,0,0,-1,1133,652,0,0
-84,372,0,0,0,0,0,0,0,0,0,-1,1140,652,0,0
-77,372,0,0,0,0,0,0,0,0,0,-1,1147,652,0,0
-70,372,0,0,0,0,0,0,0,0,0,-1,1154,652,0,0
-63,372,0,0,0,0,0,0,0,0,0,-1,1161,652,0,0
-56,372,0,0,0,0,0,0,0,0,0,-1,1168,652,0,0
-49,372,0,0,0,0,0,0,0,0,0,-1,1175,652,0,0
-42,372,0,0,0,0,0,0,0,0,0,-1,1182,652,0,0
-35,372,0,0,0,0,0,0,0,0,0,-1,1189,652,0,0
-28,372,0,0,0,0,0,0,0,0,0,-1,1196,652,0,0
-21,372,0,0,0,0,0,0,0,0,0,-1,1203,652,0,0
-14,372,0,0,0,0,0,0,0,0,0,-1,1210,652,0,0
-7,372,0,0,0,0,0,0,0,0,0,-1,1217,652,0,0
0,372,0,0,0,0,0,0,0,0,0,-1,1224,652,0,0
7,372,0,0,0,0,0,0,0,0,0,-1,1231,652,0,0
14,372,0,0,0,0,0,0,0,0,0,-1,1238,652,0,0
21,372,0,0,0,0,0,0,0,0,0,-1,1245,652,0,0
28,372,0,0,0,0,0,0,0,0,0,-1,1252,652,0,0
35,372,0,0,0,0,0,0,0,0,0,-1,1259,652,0,0
42,372,0,0,0,0,0,0,0,0,0,-1,1266,652,0,0
49,372,0,0,0,0,0,0,0,0,0,-1,1273,652,0,0
56,372,0,0,0,0,0,0,0,0,0,-1,1280,652,0,0
63,372,0,0,0,0,0,0,0,0,0,-1,1287,652,0,0
70,372,0,0,0,0,0,0,0,0,0,-1,1294,652,0,0
77,372,0,0,0,0,0,0,0,0,0,-1,1301,652,0,0
84,372,0,0,0,0,0,0,0,0,0,-1,1308,652,0,0
91,372,0,0,0,0,0,0,0,0,0,-1,1315,652,0,0
98,372,0,0,0,0,0,0,0,0,0,-1,1322,652,0,0
105,372,0,0,0,0,0,0,0,0,0,-1,1329,652,0,0
112,372,0,0,0,0,0,0,0,0,0,-1,1336,652,0,0
119,372,0,0,0,0,0,0,0,0,0,-1,1343,652,0,0
126,372,0,0,0,0,0,0,0,0,0,-1,1350,652,0,0
133,372,0,0,0,0,0,0,0,0,0,-1,1357,652,0,0
140,372,0,0,0,0,0,0,0,0,0,-1,1364,652,0,0
147,372,0,0,0,0,0,0,0,0,0,-1,1371,652,0,0
154,372,0,0,0,0,0,0,0,0,0,-1,1378,652,0,0
161,372,0,0,0,0,0,0,0,0,0,-1,1385,652,0,0
168,372,0,0,0,0,0,0,0,0,0,-1,1392,652,0,0
175,372,0,0,0,0,0,0,0,0,0,-1,1399,652,0,0
182,372,0,0,0,0,0,0,0,0,0,-1,1406,652,0,0
189,372,0,0,0,0,0,0,0,0,0,-1,1413,652,0,0
196,372,0,0,0,0,0,0,0,0,0,-1,1420,652,0,0
203,372,0,0,0,0,0,0,0,0,0,-1,1427,652,0,0
210,372,0,0,0,0,0,0,0,0,0,-1,1434,652,0,0
217,372,0,0,0,0,0,0,0,0,0,-1,1441,652,0,0
224,372,0,0,0,0,0,0,0,0,0,-1,1448,652,0,0
231,372,0,0,0,0,0,0,0,0,0,-1,1455,652,0,0
238,372,0,0,0,0,0,0,0,0,0,-1,1462,652,0,0
245,372,0,0,0,0,0,0,0,0,0,-1,1469,652,0,0
252,372,0,0,0,0,0,0,0,0,0,-1,1476,652,0,0
259,372,0,0,0,0,0,0,0,0,0,-1,1483,652,0,0
266,372,0,0,0,0,0,0,0,0,0,-1,1490,652,0,0
273,372,0,0,0,0,0,0,0,0,0,-1,1497,652,0,0
280,372,0,0,0,0,0,0,0,0,0,-1,1504,652,0,0
287,372,0,0,0,0,0,0,0,0,0,-1,1511,652,0,0
294,372,0,0,0,0,0,0,0,0,0,-1,1518,652,0,0
301,372,0,0,0,0,0,0,0,0,0,-1,1525,652,0,0
308,372,0,0,0,0,0,0,0,0,0,-1,1532,652,0,0
315,372,0,0,0,0,0,0,0,0,0,-1,1539,652,0,0
322,372,0,0,0,0,0,0,0,0,0,-1,1546,652,0,0
329,372,0,0,0,0,0,0,0,0,0,-1,1553,652,0,0
336,372,0,0,0,0,0,0,0,0,0,-1,1560,652,0,0
343,372,0,0,0,0,0,0,0,0,0,-1,1567,652,0,0
350,372,0,0,0,0,0,0,0,0,0,-1,1574,652,0,0
357,372,0,0,0,0,0,0,0,0,0,-1,1581,652,0,0
364,372,0,0,0,0,0,0,0,0,0,-1,1588,652,0,0
371,372,0,0,0,0,0,0,0,0,0,-1,1595,652,0,0
378,372,0,0,0,0,0,0,0,0,0,-1,1602,652,0,0
385,372,0,0,0,0,0,0,0,0,0,-1,1609,652,0,0
392,372,0,0,0,0,0,0,0,0,0,-1,1616,652,0,0
399,372,0,0,0,0,0,0,0,0,0,-1,1623,652,0,0
406,372,0,0,0,0,0,0,0,0,0,-1,1630,652,0,0
413,372,0,0,0,0,0,0,0,0,0,-1,1637,652,0,0
420,372,0,0,0,0,0,0,0,0,0,-1,1644,652,0,0
427,372,0,0,0,0,0,0,0,0,0,-1,1651,652,0,0
434,372,0,0,0,0,0,0,0,0,0,-1,1658,652,0,0
441,372,0,0,0,0,0,0,0,0,0,-1,1665,652,0,0
448,372,0,0,0,0,0,0,0,0,0,-1,1672,652,0,0
455,372,0,0,0,0,0,0,0,0,0,-1,1679,652,0,0
462,372,0,0,0,0,0,0,0,0,0,-1,1686,652,0,0
469,372,0,0,0,0,0,0,0,0,0,-1,1693,652,0,0
476,372,0,0,0,0,0,0,0,0,0,-1,1700,652,0,0
483,372,8.74182,1.53125,0,0,0,0,0,0,0,-1,1707,652,8.74186,-1.53126
490,372,9.78455,1.67096,0,0,0,0,0,0,0,-1,1714,652,9.7846,-1.67093
497,372,9.97644,1.46069,0,0,0,0,0,0,0,-1,1721,652,9.97647,-1.46071
504,372,10.1216,1.28375,0,0,0,0,0,0,0,-1,1728,652,10.1216,-1.28376
511,372,11.7367,-0.0272217,0,0,0,0,0,0,0,-1,1735,652,11.7367,0.0272326
518,372,12.0657,-0.0995483,0,0,0,0,0,0,0,-1,1742,652,12.0657,0.0995285
525,372,12.3947,-0.171814,0,0,0,0,0,0,0,-1,1749,652,12.3946,0.171824
532,372,9.36597,1.72034,0,0,0,0,0,0,0,-1,1756,652,9.36597,-1.72036
539,372,7.82886,-0.0865479,0,0,0,0,0,0,0,-1,1763,652,7.82882,0.0865771
546,372,10.953,-0.187195,0,0,0,0,0,0,0,-1,1770,652,10.953,0.187181
553,372,9.26367,-2.80835,0,0,0,0,0,0,0,-1,1777,652,9.26372,2.80833
560,372,9.63062,-2.46484,-0.00731643,-0.00293388,-0.00350928,-0.000987919,-0.0092624,-1.06449,0.00587339,0.0466514,1784,652,9.63063,2.46483
567,372,9.89246,-2.07373,-0.00632251,-0.00299899,-0.00341199,-0.00086561,-0.00845589,-1.01201,0.00537202,0.0248203,1791,652,9.8924,2.07371
574,372,9.99744,-1.75763,-0.00536327,-0.00282458,-0.00312963,-0.000716677,-0.00747118,-0.978056,0.00475991,0.0161718,1798,652,9.99741,1.75763
581,372,9.97644,-1.56683,-0.00421843,-0.00245112,-0.00262567,-0.000564391,-0.00610515,-0.947717,0.00389562,0.0146659,1805,652,9.97642,1.56685
588,372,9.97534,-1.33936,-0.00300348,-0.00191497,-0.00201038,-0.000376478,-0.00454198,-0.917591,0.00291062,0.0161968,1812,652,9.9754,1.33933
595,372,9.96594,-1.08136,-0.00181936,-0.0013557,-0.00137381,-0.0001943,-0.00298077,-0.868986,0.00192568,0.0139018,1819,652,9.96589,1.08138
602,372,9.9751,-0.849182,-0.000652235,-0.000721811,-0.000670037,-1.60836e-05,-0.00135796,-0.759461,0.000899995,0.0130187,1826,652,9.97514,0.849195
609,372,9.92871,-0.592712,-6.44596e-05,-0.000399594,-0.000165602,3.56336e-06,-0.000467617,-0.38975,0.000312939,0.0129542,1833,652,9.92867,0.592733
616,372,9.91479,-0.327026,-0.000108067,-0.000485274,-1.84154e-05,-0.00010717,-0.00048617,-0.0486662,0.000294953,0.0126643,1840,652,9.91476,0.327043
623,372,9.94495,-0.0708618,-0.000139098,-0.00047128,7.65921e-05,-0.000122289,-0.000488089,0.216042,0.000293256,0.0119506,1847,652,9.94491,0.0708502
630,372,9.948,0.169922,-0.000131483,-0.000743382,7.17726e-05,-0.000123177,-0.000751688,0.115212,0.000465531,0.0154088,1854,652,9.94799,-0.169894
637,372,9.97864,0.384888,-0.000608899,-0.00116444,9.13791e-05,-0.000594254,-0.00117909,0.158909,0.000680755,0.0191241,1861,652,9.97862,-0.384892
644,372,10.0337,0.695496,-0.00158062,-0.00192508,-0.000239963,-0.00145748,-0.00204823,-0.474131,0.00121732,0.0211665,1868,652,10.0337,-0.695491
651,372,10.0476,0.539734,0,0,0,0,0,0,0,-1,1875,652,10.0476,-0.539755
658,372,9.58911,0.743958,-0.00335571,-0.00353448,-0.000825443,-0.00261483,-0.00427536,-0.731464,0.00248879,0.0415481,1882,652,9.58916,-0.743972
665,372,9.24951,1.03357,-0.00366966,-0.00442397,-0.000914192,-0.00305788,-0.00503575,-0.589756,0.0029296,0.0494527,1889,652,9.24953,-1.03356
672,372,9.34106,1.48444,0,0,0,0,0,0,0,-1,1896,652,9.34109,-1.48444
679,372,8.78052,2.13696,0,0,0,0,0,0,0,-1,1903,652,8.78057,-2.13695
686,372,8.96912,2.44781,0,0,0,0,0,0,0,-1,1910,652,8.96913,-2.44781
693,372,0,0,0,0,0,0,0,0,0,-1,1917,652,0,0
700,372,0,0,0,0,0,0,0,0,0,-1,1924,652,0,0
707,372,0,0,0,0,0,0,0,0,0,-1,1931,652,0,0
714,372,0,0,0,0,0,0,0,0,0,-1,1938,652,0,0
721,372,0,0,0,0,0,0,0,0,0,-1,1945,652,0,0
728,372,0,0,0,0,0,0,0,0,0,-1,1952,652,0,0
735,372,0,0,0,0,0,0,0,0,0,-1,1959,652,0,0
742,372,0,0,0,0,0,0,0,0,0,-1,1966,652,0,0
749,372,0,0,0,0,0,0,0,0,0,-1,1973,652,0,0
756,372,0,0,0,0,0,0,0,0,0,-1,1980,652,0,0
763,372,0,0,0,0,0,0,0,0,0,-1,1987,652,0,0
770,372,0,0,0,0,0,0,0,0,0,-1,1994,652,0,0
777,372,0,0,0,0,0,0,0,0,0,-1,2001,652,0,0
784,372,0,0,0,0,0,0,0,0,0,-1,2008,652,0,0
791,372,0,0,0,0,0,0,0,0,0,-1,2015,652,0,0
798,372,0,0,0,0,0,0,0,0,0,-1,2022,652,0,0
805,372,0,0,0,0,0,0,0,0,0,-1,2029,652,0,0
812,372,0,0,0,0,0,0,0,0,0,-1,2036,652,0,0
-700,365,0,0,0,0,0,0,0,0,0,-1,524,659,0,0
-693,365,0,0,0,0,0,0,0,0,0,-1,531,659,0,0
-686,365,0,0,0,0,0,0,0,0,0,-1,538,659,0,0
-679,365,0,0,0,0,0,0,0,0,0,-1,545,659,0,0
-672,365,0,0,0,0,0,0,0,0,0,-1,552,659,0,0
-665,365,0,0,0,0,0,0,0,0,0,-1,559,659,0,0
-658,365,0,0,0,0,0,0,0,0,0,-1,566,659,0,0
-651,365,0,0,0,0,0,0,0,0,0,-1,573,659,0,0
-644,365,0,0,0,0,0,0,0,0,0,-1,580,659,0,0
-637,365,0,0,0,0,0,0,0,0,0,-1,587,659,0,0
-630,365,0,0,0,0,0,0,0,0,0,-1,594,659,0,0
-623,365,0,0,0,0,0,0,0,0,0,-1,601,659,0,0
-616,365,0,0,0,0,0,0,0,0,0,-1,608,659,0,0
-609,365,0,0,0,0,0,0,0,0,0,-1,615,659,0,0
-602,365,0,0,0,0,0,0,0,0,0,-1,622,659,0,0
-595,365,0,0,0,0,0,0,0,0,0,-1,629,659,0,0
-588,365,0,0,0,0,0,0,0,0,0,-1,636,659,0,0
-581,365,0,0,0,0,0,0,0,0,0,-1,643,659,0,0
-574,365,-3.18237,0.413391,0,0,0,0,0,0,0,-1,650,659,-3.18235,-0.413389
-567,365,-3.39282,0.09198,0,0,0,0,0,0,0,-1,657,659,-3.39281,-0.0919552
-560,365,-4.00916,-0.314331,0,0,0,0,0,0,0,-1,664,659,-4.00914,0.314323
-553,365,-4.23236,-0.286499,0,0,0,0,0,0,0,-1,671,659,-4.23239,0.286507
-546,365,-5.48212,1.61914,0,0,0,0,0,0,0,-1,678,659,-5.48209,-1.61915
-539,365,-5.06744,1.0033,0.00936078,0.0582126,-0.024002,0.0680317,-0.000458322,-1.18247,0.045508,0.0485781,685,659,-5.06745,-1.00332
-532,365,-4.9325,0.278809,0.0061677,0.044955,-0.0187651,0.0525473,-0.00142463,-1.18633,0.0355159,0.0499703,692,659,-4.93251,-0.278779
-525,365,-4.62097,-0.783997,0.00403454,0.033778,-0.0144842,0.0396658,-0.00185332,-1.1847,0.0270828,0.0413933,699,659,-4.621,0.784023
-518,365,-4.62134,-1.30786,0.00244223,0.0245379,-0.0104016,0.028664,-0.0016839,-1.19316,0.0196946,0.0262942,706,659,-4.62137,1.30786
-511,365,-4.7439,-1.45697,0.000825152,0.0167418,-0.00694468,0.0193459,-0.00177888,-1.21205,0.0135292,0.0187783,713,659,-4.74392,1.45698
-504,365,-4.74078,-1.66003,0.000297085,0.0113203,-0.00465359,0.0130222,-0.00140474,-1.2202,0.00918556,0.0114043,720,659,-4.74079,1.66001
-497,365,-4.73914,-1.90594,0.000503502,0.00724016,-0.00297467,0.00836564,-0.000621978,-1.20909,0.00579556,0.0119252,727,659,-4.73912,1.90594
-490,365,-4.7439,-2.13696,0.000704011,0.00408011,-0.00173151,0.00481025,-2.61304e-05,-1.17174,0.00321558,0.0127935,734,659,-4.74387,2.13695
-483,365,-4.74084,-2.35114,0.000895378,0.00138036,-0.000814494,0.00198769,0.000288045,-0.93008,0.00124031,0.0120031,741,659,-4.74085,2.35115
-476,365,-4.73279,-2.56641,0.00123951,-0.000172225,-0.000346867,0.00132013,-0.000252847,-0.228375,0.000975354,0.0128187,748,659,-4.73278,2.56644
-469,365,-4.73175,-2.78448,0.00155718,-0.000878676,-0.000231273,0.00157894,-0.00090044,-0.093828,0.00144923,0.0119772,755,659,-4.73172,2.78449
-462,365,-4.73566,-3.01648,0.00181376,-0.00141708,-0.0001859,0.00182442,-0.00142774,-0.057287,0.00188229,0.0122799,762,659,-4.73569,3.01647
-455,365,-4.74414,-3.24475,0.0020901,-0.00203242,7.14342e-05,0.00209134,-0.00203366,0.0173209,0.00238164,0.0145401,769,659,-4.74415,3.24476
-448,365,-4.68201,-3.52264,0.00226757,-0.00311295,0.000697873,0.00235661,-0.003202,0.126906,0.00322161,0.0204353,776,659,-4.68204,3.52261
-441,365,-4.74963,-3.75995,0.00183653,-0.00503942,0.00184694,0.00230122,-0.00550411,0.246488,0.00463116,0.0464541,783,659,-4.74963,3.75993
-434,365,-4.86145,-4.18396,0,0,0,0,0,0,0,-1,790,659,-4.86146,4.18394
-427,365,-4.84131,-4.81696,0,0,0,0,0,0,0,-1,797,659,-4.84131,4.81695
-420,365,-4.58813,-3.16376,0,0,0,0,0,0,0,-1,804,659,-4.58816,3.16374
-413,365,0.141357,0.672729,0,0,0,0,0,0,0,-1,811,659,0.141365,-0.672714
-406,365,-1.75067,-0.934448,0,0,0,0,0,0,0,-1,818,659,-1.7507,0.934424
-399,365,-4.10242,-1.25439,0,0,0,0,0,0,0,-1,825,659,-4.10244,1.25438
-392,365,-7.46545,-0.779724,0,0,0,0,0,0,0,-1,832,659,-7.46543,0.779744
-385,365,-6.27875,-0.887573,0,0,0,0,0,0,0,-1,839,659,-6.27874,0.887545
-378,365,-5.34503,-0.263306,0,0,0,0,0,0,0,-1,846,659,-5.34504,0.263275
-371,365,0,0,0,0,0,0,0,0,0,-1,853,659,0,0
-364,365,0,0,0,0,0,0,0,0,0,-1,860,659,0,0
-357,365,0,0,0,0,0,0,0,0,0,-1,867,659,0,0
-350,365,0,0,0,0,0,0,0,0,0,-1,874,659,0,0
-343,365,0,0,0,0,0,0,0,0,0,-1,881,659,0,0
-336,365,0,0,0,0,0,0,0,0,0,-1,888,659,0,0
-329,365,0,0,0,0,0,0,0,0,0,-1,895,659,0,0
-322,365,0,0,0,0,0,0,0,0,0,-1,902,659,0,0
-315,365,0,0,0,0,0,0,0,0,0,-1,909,659,0,0
-308,365,0,0,0,0,0,0,0,0,0,-1,916,659,0,0
-301,365,0,0,0,0,0,0,0,0,0,-1,923,659,0,0
-294,365,0,0,0,0,0,0,0,0,0,-1,930,659,0,0
-287,365,0,0,0,0,0,0,0,0,0,-1,937,659,0,0
-280,365,0,0,0,0,0,0,0,0,0,-1,944,659,0,0
-273,365,0,0,0,0,0,0,0,0,0,-1,951,659,0,0
-266,365,0,0,0,0,0,0,0,0,0,-1,958,659,0,0
-259,365,0,0,0,0,0,0,0,0,0,-1,965,659,0,0
-252,365,0,0,0,0,0,0,0,0,0,-1,972,659,0,0
-245,365,0,0,0,0,0,0,0,0,0,-1,979,659,0,0
-238,365,0,0,0,0,0,0,0,0,0,-1,986,659,0,0
-231,365,0,0,0,0,0,0,0,0,0,-1,993,659,0,0
-224,365,0,0,0,0,0,0,0,0,0,-1,1000,659,0,0
-217,365,0,0,0,0,0,0,0,0,0,-1,1007,659,0,0
-210,365,0,0,0,0,0,0,0,0,0,-1,1014,659,0,0
-203,365,0,0,0,0,0,0,0,0,0,-1,1021,659,0,0
-196,365,0,0,0,0,0,0,0,0,0,-1,1028,659,0,0
-189,365,0,0,0,0,0,0,0,0,0,-1,1035,659,0,0
-182,365,0,0,0,0,0,0,0,0,0,-1,1042,659,0,0
-175,365,0,0,0,0,0,0,0,0,0,-1,1049,659,0,0
-168,365,0,0,0,0,0,0,0,0,0,-1,1056,659,0,0
-161,365,0,0,0,0,0,0,0,0,0,-1,1063,659,0,0
-154,365,0,0,0,0,0,0,0,0,0,-1,1070,659,0,0
-147,365,0,0,0,0,0,0,0,0,0,-1,1077,659,0,0
-140,365,0,0,0,0,0,0,0,0,0,-1,1084,659,0,0
-133,365,0,0,0,0,0,0,0,0,0,-1,1091,659,0,0
-126,365,0,0,0,0,0,0,0,0,0,-1,1098,659,0,0
-119,365,0,0,0,0,0,0,0,0,0,-1,1105,659,0,0
-112,365,0,0,0,0,0,0,0,0,0,-1,1112,659,0,0
-105,365,0,0,0,0,0,0,0,0,0,-1,1119,659,0,0
-98,365,0,0,0,0,0,0,0,0,0,-1,1126,659,0,0
-91,365,0,0,0,0,0,0,0,0,0,-1,1133,659,0,0
-84,365,0,0,0,0,0,0,0,0,0,-1,1140,659,0,0
-77,365,0,0,0,0,0,0,0,0,0,-1,1147,659,0,0
-70,365,0,0,0,0,0,0,0,0,0,-1,1154,659,0,0
-63,365,0,0,0,0,0,0,0,0,0,-1,1161,659,0,0
-56,365,0,0,0,0,0,0,0,0,0,-1,1168,659,0,0
-49,365,0,0,0,0,0,0,0,0,0,-1,1175,659,0,0
-42,365,0,0,0,0,0,0,0,0,0,-1,1182,659,0,0
-35,365,0,0,0,0,0,0,0,0,0,-1,1189,659,0,0
-28,365,0,0,0,0,0,0,0,0,0,-1,1196,659,0,0
-21,365,0,0,0,0,0,0,0,0,0,-1,1203,659,0,0
-14,365,0,0,0,0,0,0,0,0,0,-1,1210,659,0,0
-7,365,0,0,0,0,0,0,0,0,0,-1,1217,659,0,0
0,365,0,0,0,0,0,0,0,0,0,-1,1224,659,0,0
7,365,0,0,0,0,0,0,0,0,0,-1,1231,659,0,0
14,365,0,0,0,0,0,0,0,0,0,-1,1238,659,0,0
21,365,0,0,0,0,0,0,0,0,0,-1,1245,659,0,0
28,365,0,0,0,0,0,0,0,0,0,-1,1252,659,0,0
35,365,0,0,0,0,0,0,0,0,0,-1,1259,659,0,0
42,365,0,0,0,0,0,0,0,0,0,-1,1266,659,0,0
49,365,0,0,0,0,0,0,0,0,0,-1,1273,659,0,0
56,365,0,0,0,0,0,0,0,0,0,-1,1280,659,0,0
63,365,0,0,0,0,0,0,0,0,0,-1,1287,659,0,0
70,365,0,0,0,0,0,0,0,0,0,-1,1294,659,0,0
77,365,0,0,0,0,0,0,0,0,0,-1,1301,659,0,0
84,365,0,0,0,0,0,0,0,0,0,-1,1308,659,0,0
91,365,0,0,0,0,0,0,0,0,0,-1,1315,659,0,0
98,365,0,0,0,0,0,0,0,0,0,-1,1322,659,0,0
105,365,0,0,0,0,0,0,0,0,0,-1,1329,659,0,0
112,365,0,0,0,0,0,0,0,0,0,-1,1336,659,0,0
119,365,0,0,0,0,0,0,0,0,0,-1,1343,659,0,0
126,365,0,0,0,0,0,0,0,0,0,-1,1350,659,0,0
133,365,0,0,0,0,0,0,0,0,0,-1,1357,659,0,0
140,365,0,0,0,0,0,0,0,0,0,-1,1364,659,0,0
147,365,0,0,0,0,0,0,0,0,0,-1,1371,659,0,0
154,365,0,0,0,0,0,0,0,0,0,-1,1378,659,0,0
161,365,0,0,0,0,0,0,0,0,0,-1,1385,659,0,0
168,365,0,0,0,0,0,0,0,0,0,-1,1392,659,0,0
175,365,0,0,0,0,0,0,0,0,0,-1,1399,659,0,0
182,365,0,0,0,0,0,0,0,0,0,-1,1406,659,0,0
189,365,0,0,0,0,0,0,0,0,0,-1,1413,659,0,0
196,365,0,0,0,0,0,0,0,0,0,-1,1420,659,0,0
203,365,0,0,0,0,0,0,0,0,0,-1,1427,659,0,0
210,365,0,0,0,0,0,0,0,0,0,-1,1434,659,0,0
217,365,0,0,0,0,0,0,0,0,0,-1,1441,659,0,0
224,365,0,0,0,0,0,0,0,0,0,-1,1448,659,0,0
231,365,0,0,0,0,0,0,0,0,0,-1,1455,659,0,0
238,365,0,0,0,0,0,0,0,0,0,-1,1462,659,0,0
245,365,0,0,0,0,0,0,0,0,0,-1,1469,659,0,0
252,365,0,0,0,0,0,0,0,0,0,-1,1476,659,0,0
259,365,0,0,0,0,0,0,0,0,0,-1,1483,659,0,0
266,365,0,0,0,0,0,0,0,0,0,-1,1490,659,0,0
273,365,0,0,0,0,0,0,0,0,0,-1,1497,659,0,0
280,365,0,0,0,0,0,0,0,0,0,-1,1504,659,0,0
287,365,0,0,0,0,0,0,0,0,0,-1,1511,659,0,0
294,365,0,0,0,0,0,0,0,0,0,-1,1518,659,0,0
301,365,0,0,0,0,0,0,0,0,0,-1,1525,659,0,0
308,365,0,0,0,0,0,0,0,0,0,-1,1532,659,0,0
315,365,0,0,0,0,0,0,0,0,0,-1,1539,659,0,0
322,365,0,0,0,0,0,0,0,0,0,-1,1546,659,0,0
329,365,0,0,0,0,0,0,0,0,0,-1,1553,659,0,0
336,365,0,0,0,0,0,0,0,0,0,-1,1560,659,0,0
343,365,0,0,0,0,0,0,0,0,0,-1,1567,659,0,0
350,365,0,0,0,0,0,0,0,0,0,-1,1574,659,0,0
357,365,0,0,0,0,0,0,0,0,0,-1,1581,659,0,0
364,365,0,0,0,0,0,0,0,0,0,-1,1588,659,0,0
371,365,0,0,0,0,0,0,0,0,0,-1,1595,659,0,0
378,365,0,0,0,0,0,0,0,0,0,-1,1602,659,0,0
385,365,0,0,0,0,0,0,0,0,0,-1,1609,659,0,0
392,365,0,0,0,0,0,0,0,0,0,-1,1616,659,0,0
399,365,0,0,0,0,0,0,0,0,0,-1,1623,659,0,0
406,365,0,0,0,0,0,0,0,0,0,-1,1630,659,0,0
413,365,0,0,0,0,0,0,0,0,0,-1,1637,659,0,0
420,365,0,0,0,0,0,0,0,0,0,-1,1644,659,0,0
427,365,0,0,0,0,0,0,0,0,0,-1,1651,659,0,0
434,365,0,0,0,0,0,0,0,0,0,-1,1658,659,0,0
441,365,0,0,0,0,0,0,0,0,0,-1,1665,659,0,0
448,365,0,0,0,0,0,0,0,0,0,-1,1672,659,0,0
455,365,0,0,0,0,0,0,0,0,0,-1,1679,659,0,0
462,365,0,0,0,0,0,0,0,0,0,-1,1686,659,0,0
469,365,0,0,0,0,0,0,0,0,0,-1,1693,659,0,0
476,365,0,0,0,0,0,0,0,0,0,-1,1700,659,0,0
483,365,0,0,0,0,0,0,0,0,0,-1,1707,659,0,0
490,365,8.39551,0.471252,0,0,0,0,0,0,0,-1,1714,659,8.39551,-0.471241
497,365,9.89233,1.35394,0,0,0,0,0,0,0,-1,1721,659,9.89237,-1.35396
504,365,10.1414,1.18005,0,0,0,0,0,0,0,-1,1728,659,10.1413,-1.18004
511,365,10.5151,0.993896,0,0,0,0,0,0,0,-1,1735,659,10.5152,-0.993894
518,365,11.2029,0.398132,0,0,0,0,0,0,0,-1,1742,659,11.2029,-0.398136
525,365,15.5748,3.85303,0,0,0,0,0,0,0,-1,1749,659,15.5748,-3.85303
532,365,11.2446,1.00629,0,0,0,0,0,0,0,-1,1756,659,11.2446,-1.00631
539,365,12.6301,1.03204,0,0,0,0,0,0,0,-1,1763,659,12.6302,-1.03204
546,365,11.647,0.84198,0,0,0,0,0,0,0,-1,1770,659,11.6469,-0.841955
553,365,12.028,-0.558899,0,0,0,0,0,0,0,-1,1777,659,12.028,0.558873
560,365,9.86011,-3.05975,0,0,0,0,0,0,0,-1,1784,659,9.86008,3.05976
567,365,10.459,-2.15002,0,0,0,0,0,0,0,-1,1791,659,10.4589,2.15005
574,365,10.4099,-1.86285,-0.00715347,-0.0042949,-0.00432072,-0.0011732,-0.0102752,-0.945132,0.00649446,0.0368719,1798,659,10.41,1.86286
581,365,10.2201,-1.60645,-0.00569639,-0.00372997,-0.00363493,-0.000947626,-0.00847874,-0.917482,0.00536459,0.0182746,1805,659,10.2201,1.60644
588,365,10.1764,-1.34967,-0.00414873,-0.00297154,-0.00283479,-0.000664879,-0.00645539,-0.88776,0.00409998,0.0119036,1812,659,10.1765,1.34969
595,365,10.2035,-1.06512,-0.00273804,-0.0021649,-0.002023,-0.000408277,-0.00449466,-0.855758,0.00287005,0.0123777,1819,659,10.2035,1.06515
602,365,10.2114,-0.826782,-0.00141464,-0.00138862,-0.00121702,-0.000184548,-0.00261872,-0.790742,0.00168766,0.0133862,1826,659,10.2114,0.826772
609,365,10.1603,-0.579041,-0.000617483,-0.00088685,-0.000625746,-0.00011209,-0.00139224,-0.679397,0.000893146,0.0141778,1833,659,10.1603,0.579036
616,365,10.1763,-0.319275,-0.000493668,-0.000850299,-0.000450115,-0.000187835,-0.00115613,-0.596804,0.000716398,0.015245,1840,659,10.1763,0.319248
623,365,10.2118,-0.0775146,-0.000459196,-0.000725617,-0.000322824,-0.000243178,-0.000941635,-0.58972,0.000564437,0.0107348,1847,659,10.2118,0.0775005
630,365,10.1855,0.161133,-0.000332763,-0.000879389,-0.00027131,-0.000220966,-0.000991185,-0.39086,0.000600835,0.0145158,1854,659,10.1855,-0.161136
637,365,10.1875,0.378296,-0.000476887,-0.000908092,-7.78666e-05,-0.000463257,-0.000921722,-0.173291,0.000532159,0.0200959,1861,659,10.1876,-0.378271
644,365,10.2148,0.625,-0.00109551,-0.00138366,-0.000305293,-0.000902002,-0.00157717,-0.564928,0.000913712,0.0144537,1868,659,10.2148,-0.625015
651,365,10.2195,0.737549,0,0,0,0,0,0,0,-1,1875,659,10.2195,-0.737564
658,365,9.85315,0.855286,-0.00177987,-0.00213844,-0.000530541,-0.00139914,-0.00251917,-0.622458,0.00145742,0.0407878,1882,659,9.85313,-0.855297
665,365,9.62939,1.25604,-0.0011779,-0.00228014,-0.000265395,-0.00111733,-0.00234071,-0.224391,0.00135187,0.0487816,1889,659,9.6294,-1.25606
672,365,9.56567,1.51208,0,0,0,0,0,0,0,-1,1896,659,9.56563,-1.51211
679,365,8.83984,2.01807,0,0,0,0,0,0,0,-1,1903,659,8.83989,-2.01806
686,365,9.10181,2.29803,0,0,0,0,0,0,0,-1,1910,659,9.10176,-2.29803
693,365,15.7997,-3.09222,0,0,0,0,0,0,0,-1,1917,659,15.7997,3.09224
700,365,0,0,0,0,0,0,0,0,0,-1,1924,659,0,0
707,365,0,0,0,0,0,0,0,0,0,-1,1931,659,0,0
714,365,0,0,0,0,0,0,0,0,0,-1,1938,659,0,0
721,365,0,0,0,0,0,0,0,0,0,-1,1945,659,0,0
728,365,0,0,0,0,0,0,0,0,0,-1,1952,659,0,0
735,365,0,0,0,0,0,0,0,0,0,-1,1959,659,0,0
742,365,0,0,0,0,0,0,0,0,0,-1,1966,659,0,0
749,365,0,0,0,0,0,0,0,0,0,-1,1973,659,0,0
756,365,0,0,0,0,0,0,0,0,0,-1,1980,659,0,0
763,365,0,0,0,0,0,0,0,0,0,-1,1987,659,0,0
770,365,0,0,0,0,0,0,0,0,0,-1,1994,659,0,0
777,365,0,0,0,0,0,0,0,0,0,-1,2001,659,0,0
784,365,0,0,0,0,0,0,0,0,0,-1,2008,659,0,0
791,365,0,0,0,0,0,0,0,0,0,-1,2015,659,0,0
798,365,0,0,0,0,0,0,0,0,0,-1,2022,659,0,0
805,365,0,0,0,0,0,0,0,0,0,-1,2029,659,0,0
812,365,0,0,0,0,0,0,0,0,0,-1,2036,659,0,0
-700,358,0,0,0,0,0,0,0,0,0,-1,524,666,0,0
-693,358,0,0,0,0,0,0,0,0,0,-1,531,666,0,0
-686,358,0,0,0,0,0,0,0,0,0,-1,538,666,0,0
-679,358,0,0,0,0,0,0,0,0,0,-1,545,666,0,0
-672,358,0,0,0,0,0,0,0,0,0,-1,552,666,0,0
-665,358,0,0,0,0,0,0,0,0,0,-1,559,666,0,0
-658,358,0,0,0,0,0,0,0,0,0,-1,566,666,0,0
-651,358,0,0,0,0,0,0,0,0,0,-1,573,666,0,0
-644,358,0,0,0,0,0,0,0,0,0,-1,580,666,0,0
-637,358,0,0,0,0,0,0,0,0,0,-1,587,666,0,0
-630,358,0,0,0,0,0,0,0,0,0,-1,594,666,0,0
-623,358,0,0,0,0,0,0,0,0,0,-1,601,666,0,0
-616,358,0,0,0,0,0,0,0,0,0,-1,608,666,0,0
-609,358,0,0,0,0,0,0,0,0,0,-1,615,666,0,0
-602,358,0,0,0,0,0,0,0,0,0,-1,622,666,0,0
-595,358,0,0,0,0,0,0,0,0,0,-1,629,666,0,0
-588,358,0,0,0,0,0,0,0,0,0,-1,636,666,0,0
-581,358,-3.51141,0.990479,0.0565226,0.102984,-0.0261163,0.114707,0.0448001,-1.14889,0.0667526,0.04832,643,666,-3.51143,-0.990454
-574,358,-3.52655,0.498657,0,0,0,0,0,0,0,-1,650,666,-3.52656,-0.498669
-567,358,-3.82446,0.196594,0,0,0,0,0,0,0,-1,657,666,-3.82448,-0.196591
-560,358,-4.28162,-0.127808,0,0,0,0,0,0,0,-1,664,666,-4.28162,0.127793
-553,358,-4.55621,-0.0678101,0,0,0,0,0,0,0,-1,671,666,-4.55622,0.0678296
-546,358,-5.31824,0.428406,0,0,0,0,0,0,0,-1,678,666,-5.31821,-0.428393
-539,358,-5.21783,-0.0925903,0.0119415,0.0348706,-0.0143514,0.0417745,0.00503761,-1.12242,0.0263316,0.0487764,685,666,-5.21784,0.0925868
-532,358,-5.13953,-0.619568,0.00812504,0.0265805,-0.0111159,0.0317997,0.00290581,-1.13182,0.0203006,0.0437003,692,666,-5.13951,0.619591
-525,358,-4.89697,-1.09515,0.00552973,0.0196055,-0.00852523,0.0236226,0.00151269,-1.13046,0.0152691,0.0306685,699,666,-4.897,1.09517
-518,358,-4.88416,-1.20911,0.00358136,0.0142009,-0.00610041,0.0169787,0.000803562,-1.14351,0.011061,0.0245323,706,666,-4.88415,1.20913
-511,358,-4.95734,-1.44684,0.00166083,0.0093565,-0.00390974,0.0109943,2.30535e-05,-1.17411,0.00732185,0.0144109,713,666,-4.95734,1.44686
-504,358,-4.96313,-1.65533,0.000963221,0.00621649,-0.00261271,0.00729465,-0.000114935,-1.17943,0.00490186,0.0108738,720,666,-4.96316,1.65531
-497,358,-4.95569,-1.90649,0.00107918,0.00387619,-0.00169135,0.00467233,0.000283042,-1.13085,0.00302496,0.0108656,727,666,-4.95571,1.90647
-490,358,-4.95288,-2.14429,0.00120889,0.00197302,-0.00099592,0.00265765,0.000524262,-0.968556,0.00162544,0.0103016,734,666,-4.95286,2.14432
-483,358,-4.97137,-2.35181,0.00137815,0.000247313,-0.000489766,0.00156077,6.46877e-05,-0.356914,0.00101964,0.00961151,741,666,-4.97138,2.35182
-476,358,-4.94135,-2.55695,0.00174092,-0.000627917,-0.000327212,0.00178529,-0.000672285,-0.13477,0.00146658,0.0110423,748,666,-4.94136,2.55693
-469,358,-4.95856,-2.78955,0.00213809,-0.00128473,-0.00030578,0.00216519,-0.00131183,-0.0884029,0.00202751,0.0130939,755,666,-4.95856,2.78958
-462,358,-4.98132,-3.00964,0.00248117,-0.00187827,-0.000278441,0.00249889,-0.00189599,-0.0635267,0.00254533,0.0152637,762,666,-4.98133,3.00965
-455,358,-4.91846,-3.23566,0.00280395,-0.00261048,2.11231e-06,0.00280395,-0.00261048,0.000390125,0.00312669,0.0210536,769,666,-4.91846,3.23566
-448,358,-4.77411,-3.60913,0,0,0,0,0,0,0,-1,776,666,-4.77409,3.60913
-441,358,-5.08923,-4.05981,0,0,0,0,0,0,0,-1,783,666,-5.08926,4.05981
-434,358,-5.03284,-4.58826,0,0,0,0,0,0,0,-1,790,666,-5.03285,4.58826
-427,358,-3.56189,-3.15729,0,0,0,0,0,0,0,-1,797,666,-3.56192,3.15729
-420,358,0.200195,1.08234,0,0,0,0,0,0,0,-1,804,666,0.200174,-1.08231
-413,358,0.0325317,0.161072,0,0,0,0,0,0,0,-1,811,666,0.0325501,-0.161098
-406,358,-3.85846,0.753113,0,0,0,0,0,0,0,-1,818,666,-3.85846,-0.753129
-399,358,-1.31213,0.190735,0,0,0,0,0,0,0,-1,825,666,-1.31215,-0.190763
-392,358,-3.73914,-0.832214,0,0,0,0,0,0,0,-1,832,666,-3.73915,0.832202
-385,358,-5.95178,-1.69141,0,0,0,0,0,0,0,-1,839,666,-5.9518,1.69143
-378,358,0,0,0,0,0,0,0,0,0,-1,846,666,0,0
-371,358,0,0,0,0,0,0,0,0,0,-1,853,666,0,0
-364,358,0,0,0,0,0,0,0,0,0,-1,860,666,0,0
-357,358,0,0,0,0,0,0,0,0,0,-1,867,666,0,0
-350,358,0,0,0,0,0,0,0,0,0,-1,874,666,0,0
-343,358,0,0,0,0,0,0,0,0,0,-1,881,666,0,0
-336,358,0,0,0,0,0,0,0,0,0,-1,888,666,0,0
-329,358,0,0,0,0,0,0,0,0,0,-1,895,666,0,0
-322,358,0,0,0,0,0,0,0,0,0,-1,902,666,0,0
-315,358,0,0,0,0,0,0,0,0,0,-1,909,666,0,0
-308,358,0,0,0,0,0,0,0,0,0,-1,916,666,0,0
-301,358,0,0,0,0,0,0,0,0,0,-1,923,666,0,0
-294,358,0,0,0,0,0,0,0,0,0,-1,930,666,0,0
-287,358,0,0,0,0,0,0,0,0,0,-1,937,666,0,0
-280,358,0,0,0,0,0,0,0,0,0,-1,944,666,0,0
-273,358,0,0,0,0,0,0,0,0,0,-1,951,666,0,0
-266,358,0,0,0,0,0,0,0,0,0,-1,958,666,0,0
-259,358,0,0,0,0,0,0,0,0,0,-1,965,666,0,0
-252,358,0,0,0,0,0,0,0,0,0,-1,972,666,0,0
-245,358,0,0,0,0,0,0,0,0,0,-1,979,666,0,0
-238,358,0,0,0,0,0,0,0,0,0,-1,986,666,0,0
-231,358,0,0,0,0,0,0,0,0,0,-1,993,666,0,0
-224,358,0,0,0,0,0,0,0,0,0,-1,1000,666,0,0
-217,358,0,0,0,0,0,0,0,0,0,-1,1007,666,0,0
-210,358,0,0,0,0,0,0,0,0,0,-1,1014,666,0,0
-203,358,0,0,0,0,0,0,0,0,0,-1,1021,666,0,0
-196,358,0,0,0,0,0,0,0,0,0,-1,1028,666,0,0
-189,358,0,0,0,0,0,0,0,0,0,-1,1035,666,0,0
-182,358,0,0,0,0,0,0,0,0,0,-1,1042,666,0,0
-175,358,0,0,0,0,0,0,0,0,0,-1,1049,666,0,0
-168,358,0,0,0,0,0,0,0,0,0,-1,1056,666,0,0
-161,358,0,0,0,0,0,0,0,0,0,-1,1063,666,0,0
-154,358,0,0,0,0,0,0,0,0,0,-1,1070,666,0,0
-147,358,0,0,0,0,0,0,0,0,0,-1,1077,666,0,0
-140,358,0,0,0,0,0,0,0,0,0,-1,1084,666,0,0
-133,358,0,0,0,0,0,0,0,0,0,-1,1091,666,0,0
-126,358,0,0,0,0,0,0,0,0,0,-1,1098,666,0,0
-119,358,0,0,0,0,0,0,0,0,0,-1,1105,666,0,0
-112,358,0,0,0,0,0,0,0,0,0,-1,1112,666,0,0
-105,358,0,0,0,0,0,0,0,0,0,-1,1119,666,0,0
-98,358,0,0,0,0,0,0,0,0,0,-1,1126,666,0,0
-91,358,0,0,0,0,0,0,0,0,0,-1,1133,666,0,0
-84,358,0,0,0,0,0,0,0,0,0,-1,1140,666,0,0
-77,358,0,0,0,0,0,0,0,0,0,-1,1147,666,0,0
-70,358,0,0,0,0,0,0,0,0,0,-1,1154,666,0,0
-63,358,0,0,0,0,0,0,0,0,0,-1,1161,666,0,0
-56,358,0,0,0,0,0,0,0,0,0,-1,1168,666,0,0
-49,358,0,0,0,0,0,0,0,0,0,-1,1175,666,0,0
-42,358,0,0,0,0,0,0,0,0,0,-1,1182,666,0,0
-35,358,0,0,0,0,0,0,0,0,0,-1,1189,666,0,0
-28,358,0,0,0,0,0,0,0,0,0,-1,1196,666,0,0
-21,358,0,0,0,0,0,0,0,0,0,-1,1203,666,0,0
-14,358,0,0,0,0,0,0,0,0,0,-1,1210,666,0,0
-7,358,0,0,0,0,0,0,0,0,0,-1,1217,666,0,0
0,358,0,0,0,0,0,0,0,0,0,-1,1224,666,0,0
7,358,0,0,0,0,0,0,0,0,0,-1,1231,666,0,0
14,358,0,0,0,0,0,0,0,0,0,-1,1238,666,0,0
21,358,0,0,0,0,0,0,0,0,0,-1,1245,666,0,0
28,358,0,0,0,0,0,0,0,0,0,-1,1252,666,0,0
35,358,0,0,0,0,0,0,0,0,0,-1,1259,666,0,0
42,358,0,0,0,0,0,0,0,0,0,-1,1266,666,0,0
49,358,0,0,0,0,0,0,0,0,0,-1,1273,666,0,0
56,358,0,0,0,0,0,0,0,0,0,-1,1280,666,0,0
63,358,0,0,0,0,0,0,0,0,0,-1,1287,666,0,0
70,358,0,0,0,0,0,0,0,0,0,-1,1294,666,0,0
77,358,0,0,0,0,0,0,0,0,0,-1,1301,666,0,0
84,358,0,0,0,0,0,0,0,0,0,-1,1308,666,0,0
91,358,0,0,0,0,0,0,0,0,0,-1,1315,666,0,0
98,358,0,0,0,0,0,0,0,0,0,-1,1322,666,0,0
105,358,0,0,0,0,0,0,0,0,0,-1,1329,666,0,0
112,358,0,0,0,0,0,0,0,0,0,-1,1336,666,0,0
119,358,0,0,0,0,0,0,0,0,0,-1,1343,666,0,0
126,358,0,0,0,0,0,0,0,0,0,-1,1350,666,0,0
133,358,0,0,0,0,0,0,0,0,0,-1,1357,666,0,0
140,358,0,0,0,0,0,0,0,0,0,-1,1364,666,0,0
147,358,0,0,0,0,0,0,0,0,0,-1,1371,666,0,0
154,358,0,0,0,0,0,0,0,0,0,-1,1378,666,0,0
161,358,0,0,0,0,0,0,0,0,0,-1,1385,666,0,0
168,358,0,0,0,0,0,0,0,0,0,-1,1392,666,0,0
175,358,0,0,0,0,0,0,0,0,0,-1,1399,666,0,0
182,358,0,0,0,0,0,0,0,0,0,-1,1406,666,0,0
189,358,0,0,0,0,0,0,0,0,0,-1,1413,666,0,0
196,358,0,0,0,0,0,0,0,0,0,-1,1420,666,0,0
203,358,0,0,0,0,0,0,0,0,0,-1,1427,666,0,0
210,358,0,0,0,0,0,0,0,0,0,-1,1434,666,0,0
217,358,0,0,0,0,0,0,0,0,0,-1,1441,666,0,0
224,358,0,0,0,0,0,0,0,0,0,-1,1448,666,0,0
231,358,0,0,0,0,0,0,0,0,0,-1,1455,666,0,0
238,358,0,0,0,0,0,0,0,0,0,-1,1462,666,0,0
245,358,0,0,0,0,0,0,0,0,0,-1,1469,666,0,0
252,358,0,0,0,0,0,0,0,0,0,-1,1476,666,0,0
259,358,0,0,0,0,0,0,0,0,0,-1,1483,666,0,0
266,358,0,0,0,0,0,0,0,0,0,-1,1490,666,0,0
273,358,0,0,0,0,0,0,0,0,0,-1,1497,666,0,0
280,358,0,0,0,0,0,0,0,0,0,-1,1504,666,0,0
287,358,0,0,0,0,0,0,0,0,0,-1,1511,666,0,0
294,358,0,0,0,0,0,0,0,0,0,-1,1518,666,0,0
301,358,0,0,0,0,0,0,0,0,0,-1,1525,666,0,0
308,358,0,0,0,0,0,0,0,0,0,-1,1532,666,0,0
315,358,0,0,0,0,0,0,0,0,0,-1,1539,666,0,0
322,358,0,0,0,0,0,0,0,0,0,-1,1546,666,0,0
329,358,0,0,0,0,0,0,0,0,0,-1,1553,666,0,0
336,358,0,0,0,0,0,0,0,0,0,-1,1560,666,0,0
343,358,0,0,0,0,0,0,0,0,0,-1,1567,666,0,0
350,358,0,0,0,0,0,0,0,0,0,-1,1574,666,0,0
357,358,0,0,0,0,0,0,0,0,0,-1,1581,666,0,0
364,358,0,0,0,0,0,0,0,0,0,-1,1588,666,0,0
371,358,0,0,0,0,0,0,0,0,0,-1,1595,666,0,0
378,358,0,0,0,0,0,0,0,0,0,-1,1602,666,0,0
385,358,0,0,0,0,0,0,0,0,0,-1,1609,666,0,0
392,358,0,0,0,0,0,0,0,0,0,-1,1616,666,0,0
399,358,0,0,0,0,0,0,0,0,0,-1,1623,666,0,0
406,358,0,0,0,0,0,0,0,0,0,-1,1630,666,0,0
413,358,0,0,0,0,0,0,0,0,0,-1,1637,666,0,0
420,358,0,0,0,0,0,0,0,0,0,-1,1644,666,0,0
427,358,0,0,0,0,0,0,0,0,0,-1,1651,666,0,0
434,358,0,0,0,0,0,0,0,0,0,-1,1658,666,0,0
441,358,0,0,0,0,0,0,0,0,0,-1,1665,666,0,0
448,358,0,0,0,0,0,0,0,0,0,-1,1672,666,0,0
455,358,0,0,0,0,0,0,0,0,0,-1,1679,666,0,0
462,358,0,0,0,0,0,0,0,0,0,-1,1686,666,0,0
469,358,0,0,0,0,0,0,0,0,0,-1,1693,666,0,0
476,358,0,0,0,0,0,0,0,0,0,-1,1700,666,0,0
483,358,0,0,0,0,0,0,0,0,0,-1,1707,666,0,0
490,358,0,0,0,0,0,0,0,0,0,-1,1714,666,0,0
497,358,8.57239,1.1322,0,0,0,0,0,0,0,-1,1721,666,8.57234,-1.13219
504,358,10.5972,0.832947,0,0,0,0,0,0,0,-1,1728,666,10.5972,-0.832968
511,358,10.6873,0.868469,0,0,0,0,0,0,0,-1,1735,666,10.6872,-0.868484
518,358,16.5884,2.34894,0,0,0,0,0,0,0,-1,1742,666,16.5884,-2.34894
525,358,15.7626,3.65344,0,0,0,0,0,0,0,-1,1749,666,15.7626,-3.65342
532,358,14.9368,4.95789,0,0,0,0,0,0,0,-1,1756,666,14.9367,-4.9579
539,358,15.1597,3.42694,0,0,0,0,0,0,0,-1,1763,666,15.1597,-3.42692
546,358,12.3792,1.53558,0,0,0,0,0,0,0,-1,1770,666,12.3792,-1.5356
553,358,11.6584,1.26172,0,0,0,0,0,0,0,-1,1777,666,11.6585,-1.26175
560,358,10.8234,1.43042,0,0,0,0,0,0,0,-1,1784,666,10.8233,-1.43041
567,358,10.1333,-0.955139,0,0,0,0,0,0,0,-1,1791,666,10.1333,0.955132
574,358,10.8616,-2.07227,0,0,0,0,0,0,0,-1,1798,666,10.8615,2.07229
581,358,10.5741,-1.52557,-0.00731163,-0.00530385,-0.00478509,-0.00141848,-0.011197,-0.888797,0.00703964,0.0294575,1805,666,10.5741,1.52558
588,358,10.3833,-1.35309,-0.00537382,-0.00420825,-0.00372536,-0.00102037,-0.0085617,-0.862988,0.00539991,0.0150533,1812,666,10.3833,1.35306
595,358,10.4396,-1.05957,-0.00368168,-0.00306414,-0.00267603,-0.00067913,-0.00606669,-0.842837,0.00383816,0.0116448,1819,666,10.4396,1.05954
602,358,10.4435,-0.810974,-0.00216392,-0.00210845,-0.00174241,-0.000393555,-0.00387882,-0.793355,0.00246519,0.0124685,1826,666,10.4435,0.810974
609,358,10.3856,-0.605957,-0.00109308,-0.00137746,-0.00103164,-0.000193875,-0.00227667,-0.716914,0.00145746,0.0165462,1833,666,10.3856,0.60597
616,358,10.3929,-0.326233,-0.000750667,-0.00117136,-0.000778804,-0.000154303,-0.00176773,-0.6535,0.00113056,0.0158059,1840,666,10.393,0.326205
623,358,10.4475,-0.078064,-0.000634466,-0.000927688,-0.000591585,-0.000171595,-0.00139056,-0.663932,0.000875464,0.0136148,1847,666,10.4475,0.0780367
630,358,10.4521,0.163147,-0.000405252,-0.000959682,-0.000478904,-0.000129115,-0.00123582,-0.523036,0.00078439,0.0170781,1854,666,10.4522,-0.163168
637,358,10.4324,0.407166,-0.000272991,-0.000653845,-0.000134616,-0.000230215,-0.000696621,-0.307676,0.000409828,0.0240294,1861,666,10.4324,-0.407185
644,358,10.4435,0.641541,-0.000635778,-0.000878452,-0.000268791,-0.000462206,-0.00105202,-0.573382,0.000608874,0.0189577,1868,666,10.4435,-0.64153
651,358,10.4971,0.947144,-0.00081965,-0.00102506,-0.000333795,-0.000573116,-0.00127159,-0.636151,0.000735342,0.0203579,1875,666,10.4971,-0.947171
658,358,10.2355,1.08362,-0.000594092,-0.000969295,-0.000203121,-0.000505193,-0.00105819,-0.412549,0.000611156,0.0340929,1882,666,10.2355,-1.08365
665,358,10.007,1.24823,0.000887788,-0.000154191,0.000178115,0.000917393,-0.000183797,0.164711,0.000681178,0.0437089,1889,666,10.0069,-1.24822
672,358,9.88904,1.4978,0,0,0,0,0,0,0,-1,1896,666,9.88905,-1.4978
679,358,10.6593,2.02051,0,0,0,0,0,0,0,-1,1903,666,10.6593,-2.02051
686,358,10.7699,2.43762,0,0,0,0,0,0,0,-1,1910,666,10.7699,-2.43763
693,358,14.6539,-2.62823,0,0,0,0,0,0,0,-1,1917,666,14.6539,2.62825
700,358,0,0,0,0,0,0,0,0,0,-1,1924,666,0,0
707,358,0,0,0,0,0,0,0,0,0,-1,1931,666,0,0
714,358,0,0,0,0,0,0,0,0,0,-1,1938,666,0,0
721,358,0,0,0,0,0,0,0,0,0,-1,1945,666,0,0
728,358,0,0,0,0,0,0,0,0,0,-1,1952,666,0,0
735,358,0,0,0,0,0,0,0,0,0,-1,1959,666,0,0
742,358,0,0,0,0,0,0,0,0,0,-1,1966,666,0,0
749,358,0,0,0,0,0,0,0,0,0,-1,1973,666,0,0
756,358,0,0,0,0,0,0,0,0,0,-1,1980,666,0,0
763,358,0,0,0,0,0,0,0,0,0,-1,1987,666,0,0
770,358,0,0,0,0,0,0,0,0,0,-1,1994,666,0,0
777,358,0,0,0,0,0,0,0,0,0,-1,2001,666,0,0
784,358,0,0,0,0,0,0,0,0,0,-1,2008,666,0,0
791,358,0,0,0,0,0,0,0,0,0,-1,2015,666,0,0
798,358,0,0,0,0,0,0,0,0,0,-1,2022,666,0,0
805,358,0,0,0,0,0,0,0,0,0,-1,2029,666,0,0
812,358,0,0,0,0,0,0,0,0,0,-1,2036,666,0,0
-700,351,0,0,0,0,0,0,0,0,0,-1,524,673,0,0
-693,351,0,0,0,0,0,0,0,0,0,-1,531,673,0,0
-686,351,0,0,0,0,0,0,0,0,0,-1,538,673,0,0
-679,351,0,0,0,0,0,0,0,0,0,-1,545,673,0,0
-672,351,0,0,0,0,0,0,0,0,0,-1,552,673,0,0
-665,351,0,0,0,0,0,0,0,0,0,-1,559,673,0,0
-658,351,0,0,0,0,0,0,0,0,0,-1,566,673,0,0
-651,351,0,0,0,0,0,0,0,0,0,-1,573,673,0,0
-644,351,0,0,0,0,0,0,0,0,0,-1,580,673,0,0
-637,351,0,0,0,0,0,0,0,0,0,-1,587,673,0,0
-630,351,0,0,0,0,0,0,0,0,0,-1,594,673,0,0
-623,351,0,0,0,0,0,0,0,0,0,-1,601,673,0,0
-616,351,0,0,0,0,0,0,0,0,0,-1,608,673,0,0
-609,351,0,0,0,0,0,0,0,0,0,-1,615,673,0,0
-602,351,0,0,0,0,0,0,0,0,0,-1,622,673,0,0
-595,351,0,0,0,0,0,0,0,0,0,-1,629,673,0,0
-588,351,0,0,0,0,0,0,0,0,0,-1,636,673,0,0
-581,351,-4.08875,0.467529,0,0,0,0,0,0,0,-1,643,673,-4.08874,-0.467548
-574,351,-3.95782,0.517578,0,0,0,0,0,0,0,-1,650,673,-3.9578,-0.517556
-567,351,-4.25616,0.301208,0,0,0,0,0,0,0,-1,657,673,-4.25614,-0.301227
-560,351,-4.93732,0.648438,0,0,0,0,0,0,0,-1,664,673,-4.93729,-0.648413
-553,351,-4.86597,0.098999,0.0219468,0.0477349,-0.0174052,0.0565019,0.0131799,-1.1042,0.0341336,0.0452688,671,673,-4.866,-0.0989944
-546,351,-5.1665,-0.0586548,0.0154101,0.0378789,-0.0143981,0.044907,0.0083821,-1.1167,0.027572,0.0469075,678,673,-5.16652,0.0586273
-539,351,-5.23895,-0.302612,0.0105853,0.0294958,-0.0115477,0.0349654,0.00511569,-1.12845,0.021806,0.0448401,685,673,-5.23893,0.302601
-532,351,-5.08032,-0.807617,0.00715944,0.0225111,-0.00900673,0.0266691,0.00300145,-1.13829,0.0168682,0.0331479,692,673,-5.08035,0.807632
-525,351,-5.13672,-1.07117,0.00489187,0.0166259,-0.00695977,0.0198616,0.00165612,-1.1356,0.012725,0.0217015,699,673,-5.13672,1.07115
-518,351,-5.17975,-1.19891,0.00327554,0.0120416,-0.00506633,0.0143577,0.000959407,-1.142,0.00926857,0.0119927,706,673,-5.17974,1.19894
-511,351,-5.17035,-1.42914,0.00164516,0.00780861,-0.00329159,0.00923595,0.000217829,-1.16164,0.00608599,0.0104309,713,673,-5.17032,1.42916
-504,351,-5.17651,-1.65515,0.00114991,0.00504429,-0.00224721,0.00607056,0.000123637,-1.14239,0.00400647,0.00958956,720,673,-5.17648,1.65515
-497,351,-5.17181,-1.88226,0.00138449,0.00294863,-0.00146962,0.00383132,0.000501801,-1.02992,0.00240446,0.00994496,727,673,-5.17184,1.88226
-490,351,-5.17914,-2.11169,0.00158756,0.00118683,-0.000855567,0.00226591,0.00050848,-0.670378,0.00137287,0.0098152,734,673,-5.17916,2.11168
-483,351,-5.20184,-2.33087,0.001844,-0.000315073,-0.000434878,0.0019283,-0.000399375,-0.191475,0.00143728,0.011474,741,673,-5.20187,2.33089
-476,351,-5.20758,-2.55164,0.00229766,-0.00109158,-0.000317609,0.00232717,-0.00112108,-0.0926363,0.00203104,0.0111512,748,673,-5.20758,2.55164
-469,351,-5.203,-2.76849,0.00278035,-0.00184311,-0.000305204,0.00280041,-0.00186317,-0.0656325,0.00271058,0.0129247,755,673,-5.20299,2.7685
-462,351,-5.1886,-3.01007,0.00318944,-0.00259077,-0.000226765,0.00319832,-0.00259966,-0.0391511,0.00335341,0.0166268,762,673,-5.18857,3.01007
-455,351,-5.10773,-3.31366,0.00353052,-0.00355244,0.000121964,0.00353262,-0.00355454,0.0172125,0.00409178,0.030491,769,673,-5.10772,3.31368
-448,351,-4.83405,-3.43085,0,0,0,0,0,0,0,-1,776,673,-4.83407,3.43084
-441,351,-4.31567,-2.3009,0,0,0,0,0,0,0,-1,783,673,-4.31565,2.30089
-434,351,-3.81708,-2.28003,0,0,0,0,0,0,0,-1,790,673,-3.81706,2.28006
-427,351,-2.05157,-2.7785,0,0,0,0,0,0,0,-1,797,673,-2.05157,2.77848
-420,351,-1.06989,-2.43665,0,0,0,0,0,0,0,-1,804,673,-1.06991,2.43663
-413,351,-0.392334,-2.06671,0,0,0,0,0,0,0,-1,811,673,-0.392363,2.06672
-406,351,-1.86316,-2.58105,0,0,0,0,0,0,0,-1,818,673,-1.86313,2.58106
-399,351,1.00952,-1.53455,0,0,0,0,0,0,0,-1,825,673,1.00954,1.53457
-392,351,-1.02197,0.877136,0,0,0,0,0,0,0,-1,832,673,-1.02195,-0.877143
-385,351,-1.47205,1.04437,0,0,0,0,0,0,0,-1,839,673,-1.47207,-1.04435
-378,351,0,0,0,0,0,0,0,0,0,-1,846,673,0,0
-371,351,0,0,0,0,0,0,0,0,0,-1,853,673,0,0
-364,351,0,0,0,0,0,0,0,0,0,-1,860,673,0,0
-357,351,0,0,0,0,0,0,0,0,0,-1,867,673,0,0
-350,351,0,0,0,0,0,0,0,0,0,-1,874,673,0,0
-343,351,0,0,0,0,0,0,0,0,0,-1,881,673,0,0
-336,351,0,0,0,0,0,0,0,0,0,-1,888,673,0,0
-329,351,0,0,0,0,0,0,0,0,0,-1,895,673,0,0
-322,351,0,0,0,0,0,0,0,0,0,-1,902,673,0,0
-315,351,0,0,0,0,0,0,0,0,0,-1,909,673,0,0
-308,351,0,0,0,0,0,0,0,0,0,-1,916,673,0,0
-301,351,0,0,0,0,0,0,0,0,0,-1,923,673,0,0
-294,351,0,0,0,0,0,0,0,0,0,-1,930,673,0,0
-287,351,0,0,0,0,0,0,0,0,0,-1,937,673,0,0
-280,351,0,0,0,0,0,0,0,0,0,-1,944,673,0,0
-273,351,0,0,0,0,0,0,0,0,0,-1,951,673,0,0
-266,351,0,0,0,0,0,0,0,0,0,-1,958,673,0,0
-259,351,0,0,0,0,0,0,0,0,0,-1,965,673,0,0
-252,351,0,0,0,0,0,0,0,0,0,-1,972,673,0,0
-245,351,0,0,0,0,0,0,0,0,0,-1,979,673,0,0
-238,351,0,0,0,0,0,0,0,0,0,-1,986,673,0,0
-231,351,0,0,0,0,0,0,0,0,0,-1,993,673,0,0
-224,351,0,0,0,0,0,0,0,0,0,-1,1000,673,0,0
-217,351,0,0,0,0,0,0,0,0,0,-1,1007,673,0,0
-210,351,0,0,0,0,0,0,0,0,0,-1,1014,673,0,0
-203,351,0,0,0,0,0,0,0,0,0,-1,1021,673,0,0
-196,351,0,0,0,0,0,0,0,0,0,-1,1028,673,0,0
-189,351,0,0,0,0,0,0,0,0,0,-1,1035,673,0,0
-182,351,0,0,0,0,0,0,0,0,0,-1,1042,673,0,0
-175,351,0,0,0,0,0,0,0,0,0,-1,1049,673,0,0
-168,351,0,0,0,0,0,0,0,0,0,-1,1056,673,0,0
-161,351,0,0,0,0,0,0,0,0,0,-1,1063,673,0,0
-154,351,0,0,0,0,0,0,0,0,0,-1,1070,673,0,0
-147,351,0,0,0,0,0,0,0,0,0,-1,1077,673,0,0
-140,351,0,0,0,0,0,0,0,0,0,-1,1084,673,0,0
-133,351,0,0,0,0,0,0,0,0,0,-1,1091,673,0,0
-126,351,0,0,0,0,0,0,0,0,0,-1,1098,673,0,0
-119,351,0,0,0,0,0,0,0,0,0,-1,1105,673,0,0
-112,351,0,0,0,0,0,0,0,0,0,-1,1112,673,0,0
-105,351,0,0,0,0,0,0,0,0,0,-1,1119,673,0,0
-98,351,0,0,0,0,0,0,0,0,0,-1,1126,673,0,0
-91,351,0,0,0,0,0,0,0,0,0,-1,1133,673,0,0
-84,351,0,0,0,0,0,0,0,0,0,-1,1140,673,0,0
-77,351,0,0,0,0,0,0,0,0,0,-1,1147,673,0,0
-70,351,0,0,0,0,0,0,0,0,0,-1,1154,673,0,0
-63,351,0,0,0,0,0,0,0,0,0,-1,1161,673,0,0
-56,351,0,0,0,0,0,0,0,0,0,-1,1168,673,0,0
-49,351,0,0,0,0,0,0,0,0,0,-1,1175,673,0,0
-42,351,0,0,0,0,0,0,0,0,0,-1,1182,673,0,0
-35,351,0,0,0,0,0,0,0,0,0,-1,1189,673,0,0
-28,351,0,0,0,0,0,0,0,0,0,-1,1196,673,0,0
-21,351,0,0,0,0,0,0,0,0,0,-1,1203,673,0,0
-14,351,0,0,0,0,0,0,0,0,0,-1,1210,673,0,0
-7,351,0,0,0,0,0,0,0,0,0,-1,1217,673,0,0
0,351,0,0,0,0,0,0,0,0,0,-1,1224,673,0,0
7,351,0,0,0,0,0,0,0,0,0,-1,1231,673,0,0
14,351,0,0,0,0,0,0,0,0,0,-1,1238,673,0,0
21,351,0,0,0,0,0,0,0,0,0,-1,1245,673,0,0
28,351,0,0,0,0,0,0,0,0,0,-1,1252,673,0,0
35,351,0,0,0,0,0,0,0,0,0,-1,1259,673,0,0
42,351,0,0,0,0,0,0,0,0,0,-1,1266,673,0,0
49,351,0,0,0,0,0,0,0,0,0,-1,1273,673,0,0
56,351,0,0,0,0,0,0,0,0,0,-1,1280,673,0,0
63,351,0,0,0,0,0,0,0,0,0,-1,1287,673,0,0
70,351,0,0,0,0,0,0,0,0,0,-1,1294,673,0,0
77,351,0,0,0,0,0,0,0,0,0,-1,1301,673,0,0
84,351,0,0,0,0,0,0,0,0,0,-1,1308,673,0,0
91,351,0,0,0,0,0,0,0,0,0,-1,1315,673,0,0
98,351,0,0,0,0,0,0,0,0,0,-1,1322,673,0,0
105,351,0,0,0,0,0,0,0,0,0,-1,1329,673,0,0
112,351,0,0,0,0,0,0,0,0,0,-1,1336,673,0,0
119,351,0,0,0,0,0,0,0,0,0,-1,1343,673,0,0
126,351,0,0,0,0,0,0,0,0,0,-1,1350,673,0,0
133,351,0,0,0,0,0,0,0,0,0,-1,1357,673,0,0
140,351,0,0,0,0,0,0,0,0,0,-1,1364,673,0,0
147,351,0,0,0,0,0,0,0,0,0,-1,1371,673,0,0
154,351,0,0,0,0,0,0,0,0,0,-1,1378,673,0,0
161,351,0,0,0,0,0,0,0,0,0,-1,1385,673,0,0
168,351,0,0,0,0,0,0,0,0,0,-1,1392,673,0,0
175,351,0,0,0,0,0,0,0,0,0,-1,1399,673,0,0
182,351,0,0,0,0,0,0,0,0,0,-1,1406,673,0,0
189,351,0,0,0,0,0,0,0,0,0,-1,1413,673,0,0
196,351,0,0,0,0,0,0,0,0,0,-1,1420,673,0,0
203,351,0,0,0,0,0,0,0,0,0,-1,1427,673,0,0
210,351,0,0,0,0,0,0,0,0,0,-1,1434,673,0,0
217,351,0,0,0,0,0,0,0,0,0,-1,1441,673,0,0
224,351,0,0,0,0,0,0,0,0,0,-1,1448,673,0,0
231,351,0,0,0,0,0,0,0,0,0,-1,1455,673,0,0
238,351,0,0,0,0,0,0,0,0,0,-1,1462,673,0,0
245,351,0,0,0,0,0,0,0,0,0,-1,1469,673,0,0
252,351,0,0,0,0,0,0,0,0,0,-1,1476,673,0,0
259,351,0,0,0,0,0,0,0,0,0,-1,1483,673,0,0
266,351,0,0,0,0,0,0,0,0,0,-1,1490,673,0,0
273,351,0,0,0,0,0,0,0,0,0,-1,1497,673,0,0
280,351,0,0,0,0,0,0,0,0,0,-1,1504,673,0,0
287,351,0,0,0,0,0,0,0,0,0,-1,1511,673,0,0
294,351,0,0,0,0,0,0,0,0,0,-1,1518,673,0,0
301,351,0,0,0,0,0,0,0,0,0,-1,1525,673,0,0
308,351,0,0,0,0,0,0,0,0,0,-1,1532,673,0,0
315,351,0,0,0,0,0,0,0,0,0,-1,1539,673,0,0
322,351,0,0,0,0,0,0,0,0,0,-1,1546,673,0,0
329,351,0,0,0,0,0,0,0,0,0,-1,1553,673,0,0
336,351,0,0,0,0,0,0,0,0,0,-1,1560,673,0,0
343,351,0,0,0,0,0,0,0,0,0,-1,1567,673,0,0
350,351,0,0,0,0,0,0,0,0,0,-1,1574,673,0,0
357,351,0,0,0,0,0,0,0,0,0,-1,1581,673,0,0
364,351,0,0,0,0,0,0,0,0,0,-1,1588,673,0,0
371,351,0,0,0,0,0,0,0,0,0,-1,1595,673,0,0
378,351,0,0,0,0,0,0,0,0,0,-1,1602,673,0,0
385,351,0,0,0,0,0,0,0,0,0,-1,1609,673,0,0
392,351,0,0,0,0,0,0,0,0,0,-1,1616,673,0,0
399,351,0,0,0,0,0,0,0,0,0,-1,1623,673,0,0
406,351,0,0,0,0,0,0,0,0,0,-1,1630,673,0,0
413,351,0,0,0,0,0,0,0,0,0,-1,1637,673,0,0
420,351,0,0,0,0,0,0,0,0,0,-1,1644,673,0,0
427,351,0,0,0,0,0,0,0,0,0,-1,1651,673,0,0
434,351,0,0,0,0,0,0,0,0,0,-1,1658,673,0,0
441,351,0,0,0,0,0,0,0,0,0,-1,1665,673,0,0
448,351,0,0,0,0,0,0,0,0,0,-1,1672,673,0,0
455,351,0,0,0,0,0,0,0,0,0,-1,1679,673,0,0
462,351,0,0,0,0,0,0,0,0,0,-1,1686,673,0,0
469,351,0,0,0,0,0,0,0,0,0,-1,1693,673,0,0
476,351,0,0,0,0,0,0,0,0,0,-1,1700,673,0,0
483,351,0,0,0,0,0,0,0,0,0,-1,1707,673,0,0
490,351,0,0,0,0,0,0,0,0,0,-1,1714,673,0,0
497,351,0,0,0,0,0,0,0,0,0,-1,1721,673,0,0
504,351,10.8842,1.61615,0,0,0,0,0,0,0,-1,1728,673,10.8842,-1.61618
511,351,15.4548,0.0236816,0,0,0,0,0,0,0,-1,1735,673,15.4549,-0.0236664
518,351,16.7448,2.49268,0,0,0,0,0,0,0,-1,1742,673,16.7448,-2.49269
525,351,16.0701,3.43225,0,0,0,0,0,0,0,-1,1749,673,16.07,-3.43227
532,351,16.4181,3.33472,0,0,0,0,0,0,0,-1,1756,673,16.4181,-3.33473
539,351,15.3387,3.54486,0,0,0,0,0,0,0,-1,1763,673,15.3387,-3.54485
546,351,13.9387,4.59357,0,0,0,0,0,0,0,-1,1770,673,13.9388,-4.59359
553,351,12.0682,2.02832,0,0,0,0,0,0,0,-1,1777,673,12.0683,-2.02831
560,351,12.0173,0.55304,0,0,0,0,0,0,0,-1,1784,673,12.0174,-0.553028
567,351,10.7827,0.130188,0,0,0,0,0,0,0,-1,1791,673,10.7827,-0.130183
574,351,11.5809,-0.614136,0,0,0,0,0,0,0,-1,1798,673,11.5809,0.614153
581,351,11.101,-0.884583,-0.00889923,-0.00707138,-0.0058783,-0.00203638,-0.0139342,-0.862518,0.00869059,0.046621,1805,673,11.101,0.884598
588,351,10.6198,-1.26074,-0.00652161,-0.00552872,-0.00452163,-0.00147637,-0.010574,-0.840076,0.00661236,0.0315618,1812,673,10.6197,1.26077
595,351,10.671,-1.1037,-0.00453556,-0.00401036,-0.00324078,-0.00102155,-0.00752436,-0.825825,0.00471278,0.0182021,1819,673,10.671,1.10371
602,351,10.6819,-0.8349,-0.00281201,-0.00285411,-0.00218832,-0.000644642,-0.00502148,-0.780589,0.0031548,0.0179509,1826,673,10.6819,0.834872
609,351,10.6765,-0.603943,-0.00144236,-0.00187462,-0.00135031,-0.000290988,-0.00302599,-0.706041,0.00192766,0.0184465,1833,673,10.6765,0.603951
616,351,10.6659,-0.350037,-0.00087383,-0.00148352,-0.00100072,-0.000132556,-0.00222479,-0.63755,0.00144104,0.0147149,1840,673,10.6659,0.350017
623,351,10.7075,-0.078125,-0.000692778,-0.00113359,-0.00074856,-0.000132849,-0.00169352,-0.642225,0.00108744,0.0150137,1847,673,10.7075,0.0781441
630,351,10.7004,0.149292,-0.000411703,-0.00105418,-0.000590395,-6.08104e-05,-0.00140507,-0.536244,0.000917116,0.0241612,1854,673,10.7005,-0.149277
637,351,10.7229,0.432739,-8.7357e-05,-0.000500745,-0.000148482,-3.95527e-05,-0.00054855,-0.311474,0.000353254,0.0271053,1861,673,10.7229,-0.432727
644,351,10.6895,0.681885,-0.000257631,-0.000526148,-0.000212041,-0.000140917,-0.000642861,-0.503171,0.000390178,0.019943,1868,673,10.6895,-0.681855
651,351,10.6781,0.928162,-0.000228454,-0.000449132,-0.00018474,-0.00012361,-0.000553975,-0.516195,0.000335785,0.0153108,1875,673,10.6781,-0.928168
658,351,10.6649,1.16547,0.000255382,-0.000114601,6.75088e-05,0.000267315,-0.000126534,0.174956,0.000232181,0.0228995,1882,673,10.6649,-1.16546
665,351,10.4426,1.2688,0.00216166,0.00147435,0.000550614,0.00246706,0.00116895,0.506409,0.00142501,0.0289136,1889,673,10.4427,-1.26879
672,351,10.4568,1.68164,0.00608736,0.00434821,0.00166898,0.00709972,0.00333585,0.545238,0.0041015,0.0420981,1896,673,10.4568,-1.68165
679,351,10.9435,1.7038,0.0120851,0.00887099,0.00349484,0.0143246,0.00663141,0.569899,0.0082779,0.0472015,1903,673,10.9435,-1.70377
686,351,11.4121,1.61084,0,0,0,0,0,0,0,-1,1910,673,11.4121,-1.61085
693,351,12.0637,2.77539,0,0,0,0,0,0,0,-1,1917,673,12.0637,-2.77538
700,351,14.5629,-2.40173,0,0,0,0,0,0,0,-1,1924,673,14.5629,2.40172
707,351,0,0,0,0,0,0,0,0,0,-1,1931,673,0,0
714,351,0,0,0,0,0,0,0,0,0,-1,1938,673,0,0
721,351,0,0,0,0,0,0,0,0,0,-1,1945,673,0,0
728,351,0,0,0,0,0,0,0,0,0,-1,1952,673,0,0
735,351,0,0,0,0,0,0,0,0,0,-1,1959,673,0,0
742,351,0,0,0,0,0,0,0,0,0,-1,1966,673,0,0
749,351,0,0,0,0,0,0,0,0,0,-1,1973,673,0,0
756,351,0,0,0,0,0,0,0,0,0,-1,1980,673,0,0
763,351,0,0,0,0,0,0,0,0,0,-1,1987,673,0,0
770,351,0,0,0,0,0,0,0,0,0,-1,1994,673,0,0
777,351,0,0,0,0,0,0,0,0,0,-1,2001,673,0,0
784,351,0,0,0,0,0,0,0,0,0,-1,2008,673,0,0
791,351,0,0,0,0,0,0,0,0,0,-1,2015,673,0,0
798,351,0,0,0,0,0,0,0,0,0,-1,2022,673,0,0
805,351,0,0,0,0,0,0,0,0,0,-1,2029,673,0,0
812,351,0,0,0,0,0,0,0,0,0,-1,2036,673,0,0
-700,344,0,0,0,0,0,0,0,0,0,-1,524,680,0,0
-693,344,0,0,0,0,0,0,0,0,0,-1,531,680,0,0
-686,344,0,0,0,0,0,0,0,0,0,-1,538,680,0,0
-679,344,0,0,0,0,0,0,0,0,0,-1,545,680,0,0
-672,344,0,0,0,0,0,0,0,0,0,-1,552,680,0,0
-665,344,0,0,0,0,0,0,0,0,0,-1,559,680,0,0
-658,344,0,0,0,0,0,0,0,0,0,-1,566,680,0,0
-651,344,0,0,0,0,0,0,0,0,0,-1,573,680,0,0
-644,344,0,0,0,0,0,0,0,0,0,-1,580,680,0,0
-637,344,0,0,0,0,0,0,0,0,0,-1,587,680,0,0
-630,344,0,0,0,0,0,0,0,0,0,-1,594,680,0,0
-623,344,0,0,0,0,0,0,0,0,0,-1,601,680,0,0
-616,344,0,0,0,0,0,0,0,0,0,-1,608,680,0,0
-609,344,0,0,0,0,0,0,0,0,0,-1,615,680,0,0
-602,344,0,0,0,0,0,0,0,0,0,-1,622,680,0,0
-595,344,0,0,0,0,0,0,0,0,0,-1,629,680,0,0
-588,344,-7.89941,5.00134,0,0,0,0,0,0,0,-1,636,680,-7.89941,-5.00132
-581,344,-7.30463,3.9386,0,0,0,0,0,0,0,-1,643,680,-7.30465,-3.93857
-574,344,-6.97876,3.05481,0,0,0,0,0,0,0,-1,650,680,-6.97878,-3.0548
-567,344,-6.88641,2.65393,0,0,0,0,0,0,0,-1,657,680,-6.88639,-2.65392
-560,344,-5.15167,0.608459,0.0289305,0.0494771,-0.0163058,0.058476,0.0199315,-1.06651,0.0343265,0.047728,664,680,-5.15165,-0.608479
-553,344,-5.1579,0.181091,0.0204475,0.039577,-0.013658,0.0466864,0.0133381,-1.09086,0.0277674,0.0447088,671,680,-5.15788,-0.181085
-546,344,-5.23608,0.0759888,0.014071,0.0311632,-0.0111645,0.0366771,0.00855719,-1.11206,0.0221568,0.0439081,678,680,-5.2361,-0.0759983
-539,344,-5.35138,-0.455627,0.00952865,0.0241852,-0.00892284,0.0284034,0.00531047,-1.12919,0.0174371,0.037711,685,680,-5.35136,0.455629
-532,344,-5.30389,-0.808411,0.0063885,0.0184097,-0.00696307,0.0215975,0.00320064,-1.14145,0.0134589,0.0205528,692,680,-5.3039,0.80844
-525,344,-5.40143,-0.987793,0.00435712,0.0135409,-0.00538448,0.0160256,0.00187242,-1.13846,0.0101175,0.0175355,699,680,-5.4014,0.987816
-518,344,-5.42078,-1.20795,0.00293176,0.00973594,-0.00392046,0.0115246,0.00114307,-1.14276,0.00733183,0.0176981,706,680,-5.42077,1.20794
-511,344,-5.43359,-1.43652,0.00156045,0.00612994,-0.0025466,0.00726649,0.000423905,-1.15102,0.00470939,0.015271,713,680,-5.43359,1.43654
-504,344,-5.42377,-1.65826,0.00127056,0.00373246,-0.00175248,0.0046431,0.000359914,-1.09157,0.00298268,0.0154356,720,680,-5.4238,1.65823
-497,344,-5.40125,-1.87341,0.00160725,0.00188091,-0.00113002,0.00288236,0.000605801,-0.845646,0.00175485,0.0135008,727,680,-5.40124,1.8734
-490,344,-5.41882,-2.09729,0.00188921,0.000274474,-0.000626613,0.00210384,5.98398e-05,-0.330005,0.00138304,0.0126875,734,680,-5.41885,2.09731
-483,344,-5.41833,-2.32245,0.00226158,-0.000973433,-0.000334792,0.00229586,-0.00100772,-0.102049,0.00195506,0.0130073,741,680,-5.41836,2.32243
-476,344,-5.42664,-2.55035,0.00283582,-0.00164623,-0.000302803,0.00285619,-0.00166659,-0.0671522,0.00264116,0.0135399,748,680,-5.42661,2.55034
-469,344,-5.4231,-2.78973,0.00343895,-0.00252962,-0.000321211,0.00345619,-0.00254686,-0.0536107,0.00347909,0.0119327,755,680,-5.42309,2.78976
-462,344,-5.40167,-3.05585,0.0039846,-0.00349353,-0.000223862,0.00399129,-0.00350022,-0.0298999,0.00432832,0.0215128,762,680,-5.40165,3.05583
-455,344,-5.44751,-2.97101,0.00440382,-0.0048081,0.000123016,0.00440546,-0.00480974,0.0133508,0.00532211,0.0465095,769,680,-5.44751,2.97102
-448,344,-5.38739,-2.80603,0,0,0,0,0,0,0,-1,776,680,-5.38737,2.80603
-441,344,-5.09229,-2.34167,0,0,0,0,0,0,0,-1,783,680,-5.09229,2.34168
-434,344,-4.28778,-2.08807,0,0,0,0,0,0,0,-1,790,680,-4.28778,2.08809
-427,344,-3.06506,-1.45404,0,0,0,0,0,0,0,-1,797,680,-3.06505,1.45402
-420,344,-1.96582,-1.57574,0,0,0,0,0,0,0,-1,804,680,-1.96579,1.57574
-413,344,-0.817993,-1.4751,0,0,0,0,0,0,0,-1,811,680,-0.818017,1.47511
-406,344,-0.00714111,-1.25189,0,0,0,0,0,0,0,-1,818,680,-0.00714956,1.25191
-399,344,0.240051,-1.75769,0,0,0,0,0,0,0,-1,825,680,0.240079,1.75767
-392,344,1.11353,-2.05615,0,0,0,0,0,0,0,-1,832,680,1.11351,2.05616
-385,344,0,0,0,0,0,0,0,0,0,-1,839,680,0,0
-378,344,0,0,0,0,0,0,0,0,0,-1,846,680,0,0
-371,344,0,0,0,0,0,0,0,0,0,-1,853,680,0,0
-364,344,0,0,0,0,0,0,0,0,0,-1,860,680,0,0
-357,344,0,0,0,0,0,0,0,0,0,-1,867,680,0,0
-350,344,0,0,0,0,0,0,0,0,0,-1,874,680,0,0
-343,344,0,0,0,0,0,0,0,0,0,-1,881,680,0,0
-336,344,0,0,0,0,0,0,0,0,0,-1,888,680,0,0
-329,344,0,0,0,0,0,0,0,0,0,-1,895,680,0,0
-322,344,0,0,0,0,0,0,0,0,0,-1,902,680,0,0
-315,344,0,0,0,0,0,0,0,0,0,-1,909,680,0,0
-308,344,0,0,0,0,0,0,0,0,0,-1,916,680,0,0
-301,344,0,0,0,0,0,0,0,0,0,-1,923,680,0,0
-294,344,0,0,0,0,0,0,0,0,0,-1,930,680,0,0
-287,344,0,0,0,0,0,0,0,0,0,-1,937,680,0,0
-280,344,0,0,0,0,0,0,0,0,0,-1,944,680,0,0
-273,344,0,0,0,0,0,0,0,0,0,-1,951,680,0,0
-266,344,0,0,0,0,0,0,0,0,0,-1,958,680,0,0
-259,344,0,0,0,0,0,0,0,0,0,-1,965,680,0,0
-252,344,0,0,0,0,0,0,0,0,0,-1,972,680,0,0
-245,344,0,0,0,0,0,0,0,0,0,-1,979,680,0,0
-238,344,0,0,0,0,0,0,0,0,0,-1,986,680,0,0
-231,344,0,0,0,0,0,0,0,0,0,-1,993,680,0,0
-224,344,0,0,0,0,0,0,0,0,0,-1,1000,680,0,0
-217,344,0,0,0,0,0,0,0,0,0,-1,1007,680,0,0
-210,344,0,0,0,0,0,0,0,0,0,-1,1014,680,0,0
-203,344,0,0,0,0,0,0,0,0,0,-1,1021,680,0,0
-196,344,0,0,0,0,0,0,0,0,0,-1,1028,680,0,0
-189,344,0,0,0,0,0,0,0,0,0,-1,1035,680,0,0
-182,344,0,0,0,0,0,0,0,0,0,-1,1042,680,0,0
-175,344,0,0,0,0,0,0,0,0,0,-1,1049,680,0,0
-168,344,0,0,0,0,0,0,0,0,0,-1,1056,680,0,0
-161,344,0,0,0,0,0,0,0,0,0,-1,1063,680,0,0
-154,344,0,0,0,0,0,0,0,0,0,-1,1070,680,0,0
-147,344,0,0,0,0,0,0,0,0,0,-1,1077,680,0,0
-140,344,0,0,0,0,0,0,0,0,0,-1,1084,680,0,0
-133,344,0,0,0,0,0,0,0,0,0,-1,1091,680,0,0
-126,344,0,0,0,0,0,0,0,0,0,-1,1098,680,0,0
-119,344,0,0,0,0,0,0,0,0,0,-1,1105,680,0,0
-112,344,0,0,0,0,0,0,0,0,0,-1,1112,680,0,0
-105,344,0,0,0,0,0,0,0,0,0,-1,1119,680,0,0
-98,344,0,0,0,0,0,0,0,0,0,-1,1126,680,0,0
-91,344,0,0,0,0,0,0,0,0,0,-1,1133,680,0,0
-84,344,0,0,0,0,0,0,0,0,0,-1,1140,680,0,0
-77,344,0,0,0,0,0,0,0,0,0,-1,1147,680,0,0
-70,344,0,0,0,0,0,0,0,0,0,-1,1154,680,0,0
-63,344,0,0,0,0,0,0,0,0,0,-1,1161,680,0,0
-56,344,0,0,0,0,0,0,0,0,0,-1,1168,680,0,0
-49,344,0,0,0,0,0,0,0,0,0,-1,1175,680,0,0
-42,344,0,0,0,0,0,0,0,0,0,-1,1182,680,0,0
-35,344,0,0,0,0,0,0,0,0,0,-1,1189,680,0,0
-28,344,0,0,0,0,0,0,0,0,0,-1,1196,680,0,0
-21,344,0,0,0,0,0,0,0,0,0,-1,1203,680,0,0
-14,344,0,0,0,0,0,0,0,0,0,-1,1210,680,0,0
-7,344,0,0,0,0,0,0,0,0,0,-1,1217,680,0,0
0,344,0,0,0,0,0,0,0,0,0,-1,1224,680,0,0
7,344,0,0,0,0,0,0,0,0,0,-1,1231,680,0,0
14,344,0,0,0,0,0,0,0,0,0,-1,1238,680,0,0
21,344,0,0,0,0,0,0,0,0,0,-1,1245,680,0,0
28,344,0,0,0,0,0,0,0,0,0,-1,1252,680,0,0
35,344,0,0,0,0,0,0,0,0,0,-1,1259,680,0,0
42,344,0,0,0,0,0,0,0,0,0,-1,1266,680,0,0
49,344,0,0,0,0,0,0,0,0,0,-1,1273,680,0,0
56,344,0,0,0,0,0,0,0,0,0,-1,1280,680,0,0
63,344,0,0,0,0,0,0,0,0,0,-1,1287,680,0,0
70,344,0,0,0,0,0,0,0,0,0,-1,1294,680,0,0
77,344,0,0,0,0,0,0,0,0,0,-1,1301,680,0,0
84,344,0,0,0,0,0,0,0,0,0,-1,1308,680,0,0
91,344,0,0,0,0,0,0,0,0,0,-1,1315,680,0,0
98,344,0,0,0,0,0,0,0,0,0,-1,1322,680,0,0
105,344,0,0,0,0,0,0,0,0,0,-1,1329,680,0,0
112,344,0,0,0,0,0,0,0,0,0,-1,1336,680,0,0
119,344,0,0,0,0,0,0,0,0,0,-1,1343,680,0,0
126,344,0,0,0,0,0,0,0,0,0,-1,1350,680,0,0
133,344,0,0,0,0,0,0,0,0,0,-1,1357,680,0,0
140,344,0,0,0,0,0,0,0,0,0,-1,1364,680,0,0
147,344,0,0,0,0,0,0,0,0,0,-1,1371,680,0,0
154,344,0,0,0,0,0,0,0,0,0,-1,1378,680,0,0
161,344,0,0,0,0,0,0,0,0,0,-1,1385,680,0,0
168,344,0,0,0,0,0,0,0,0,0,-1,1392,680,0,0
175,344,0,0,0,0,0,0,0,0,0,-1,1399,680,0,0
182,344,0,0,0,0,0,0,0,0,0,-1,1406,680,0,0
189,344,0,0,0,0,0,0,0,0,0,-1,1413,680,0,0
196,344,0,0,0,0,0,0,0,0,0,-1,1420,680,0,0
203,344,0,0,0,0,0,0,0,0,0,-1,1427,680,0,0
210,344,0,0,0,0,0,0,0,0,0,-1,1434,680,0,0
217,344,0,0,0,0,0,0,0,0,0,-1,1441,680,0,0
224,344,0,0,0,0,0,0,0,0,0,-1,1448,680,0,0
231,344,0,0,0,0,0,0,0,0,0,-1,1455,680,0,0
238,344,0,0,0,0,0,0,0,0,0,-1,1462,680,0,0
245,344,0,0,0,0,0,0,0,0,0,-1,1469,680,0,0
252,344,0,0,0,0,0,0,0,0,0,-1,1476,680,0,0
259,344,0,0,0,0,0,0,0,0,0,-1,1483,680,0,0
266,344,0,0,0,0,0,0,0,0,0,-1,1490,680,0,0
273,344,0,0,0,0,0,0,0,0,0,-1,1497,680,0,0
280,344,0,0,0,0,0,0,0,0,0,-1,1504,680,0,0
287,344,0,0,0,0,0,0,0,0,0,-1,1511,680,0,0
294,344,0,0,0,0,0,0,0,0,0,-1,1518,680,0,0
301,344,0,0,0,0,0,0,0,0,0,-1,1525,680,0,0
308,344,0,0,0,0,0,0,0,0,0,-1,1532,680,0,0
315,344,0,0,0,0,0,0,0,0,0,-1,1539,680,0,0
322,344,0,0,0,0,0,0,0,0,0,-1,1546,680,0,0
329,344,0,0,0,0,0,0,0,0,0,-1,1553,680,0,0
336,344,0,0,0,0,0,0,0,0,0,-1,1560,680,0,0
343,344,0,0,0,0,0,0,0,0,0,-1,1567,680,0,0
350,344,0,0,0,0,0,0,0,0,0,-1,1574,680,0,0
357,344,0,0,0,0,0,0,0,0,0,-1,1581,680,0,0
364,344,0,0,0,0,0,0,0,0,0,-1,1588,680,0,0
371,344,0,0,0,0,0,0,0,0,0,-1,1595,680,0,0
378,344,0,0,0,0,0,0,0,0,0,-1,1602,680,0,0
385,344,0,0,0,0,0,0,0,0,0,-1,1609,680,0,0
392,344,0,0,0,0,0,0,0,0,0,-1,1616,680,0,0
399,344,0,0,0,0,0,0,0,0,0,-1,1623,680,0,0
406,344,0,0,0,0,0,0,0,0,0,-1,1630,680,0,0
413,344,0,0,0,0,0,0,0,0,0,-1,1637,680,0,0
420,344,0,0,0,0,0,0,0,0,0,-1,1644,680,0,0
427,344,0,0,0,0,0,0,0,0,0,-1,1651,680,0,0
434,344,0,0,0,0,0,0,0,0,0,-1,1658,680,0,0
441,344,0,0,0,0,0,0,0,0,0,-1,1665,680,0,0
448,344,0,0,0,0,0,0,0,0,0,-1,1672,680,0,0
455,344,0,0,0,0,0,0,0,0,0,-1,1679,680,0,0
462,344,0,0,0,0,0,0,0,0,0,-1,1686,680,0,0
469,344,0,0,0,0,0,0,0,0,0,-1,1693,680,0,0
476,344,0,0,0,0,0,0,0,0,0,-1,1700,680,0,0
483,344,0,0,0,0,0,0,0,0,0,-1,1707,680,0,0
490,344,0,0,0,0,0,0,0,0,0,-1,1714,680,0,0
497,344,0,0,0,0,0,0,0,0,0,-1,1721,680,0,0
504,344,0,0,0,0,0,0,0,0,0,-1,1728,680,0,0
511,344,15.4819,0.452637,0,0,0,0,0,0,0,-1,1735,680,15.4819,-0.452656
518,344,17.1357,2.31207,0,0,0,0,0,0,0,-1,1742,680,17.1358,-2.31207
525,344,16.4807,2.83368,0,0,0,0,0,0,0,-1,1749,680,16.4807,-2.83368
532,344,15.8599,3.37219,0,0,0,0,0,0,0,-1,1756,680,15.8598,-3.3722
539,344,15.3691,3.78113,0,0,0,0,0,0,0,-1,1763,680,15.3691,-3.78113
546,344,14.6722,4.30243,0,0,0,0,0,0,0,-1,1770,680,14.6722,-4.30241
553,344,14.8136,4.35681,0,0,0,0,0,0,0,-1,1777,680,14.8136,-4.35679
560,344,11.9363,2.14185,0,0,0,0,0,0,0,-1,1784,680,11.9362,-2.14182
567,344,11.397,0.925842,0,0,0,0,0,0,0,-1,1791,680,11.397,-0.92583
574,344,10.0004,0.504639,0,0,0,0,0,0,0,-1,1798,680,10.0004,-0.504645
581,344,11.6725,-0.394226,0,0,0,0,0,0,0,-1,1805,680,11.6725,0.394213
588,344,10.9264,-1.28735,0,0,0,0,0,0,0,-1,1812,680,10.9264,1.28737
595,344,10.8481,-1.1391,0,0,0,0,0,0,0,-1,1819,680,10.8481,1.1391
602,344,11.0298,-0.781128,-0.00311489,-0.00352629,-0.00244526,-0.00086669,-0.00577449,-0.743437,0.00359575,0.0292814,1826,680,11.0297,0.781157
609,344,10.9563,-0.554199,-0.00149389,-0.00229126,-0.00149007,-0.000350094,-0.00343505,-0.65468,0.00218272,0.0156335,1833,680,10.9564,0.554206
616,344,10.9354,-0.296814,-0.000764636,-0.00171648,-0.00104981,-8.79063e-05,-0.00239321,-0.572583,0.001567,0.0210497,1840,680,10.9354,0.296824
623,344,10.9777,-0.0623779,-0.000585998,-0.00128539,-0.000748204,-0.000109803,-0.00176159,-0.566791,0.00113955,0.0184888,1847,680,10.9777,0.0623765
630,344,10.97,0.149292,-0.000345101,-0.00111268,-0.000582635,-3.12106e-05,-0.00142657,-0.49416,0.000940817,0.024413,1854,680,10.97,-0.149265
637,344,10.9583,0.391724,5.48538e-05,-0.000412125,-0.000119525,8.36687e-05,-0.00044094,-0.236564,0.000325454,0.0225251,1861,680,10.9582,-0.391732
644,344,10.9446,0.645569,1.32994e-06,-0.000294627,-0.000138328,5.59155e-05,-0.000349213,-0.375851,0.000253511,0.0148924,1868,680,10.9446,-0.645556
651,344,10.9365,0.894409,0.000166705,-5.99943e-05,-3.12481e-05,0.000170933,-6.42226e-05,-0.134498,0.00014035,0.0115858,1875,680,10.9365,-0.894398
658,344,10.9292,1.17389,0.000803801,0.000503966,0.00033802,0.00102366,0.000284109,0.576674,0.000610196,0.0172404,1882,680,10.9292,-1.17387
665,344,10.8834,1.39258,0.00289681,0.00265137,0.000885758,0.00366831,0.00187987,0.716563,0.00211812,0.0239829,1889,680,10.8834,-1.39257
672,344,10.9335,1.54095,0.00691346,0.0062703,0.00208026,0.00869685,0.00448691,0.708712,0.00502198,0.0201999,1896,680,10.9334,-1.54097
679,344,11.1398,1.56824,0.0126599,0.0115076,0.00389272,0.0160189,0.00814864,0.711925,0.00924898,0.0407247,1903,680,11.1397,-1.56821
686,344,11.4397,1.63977,0,0,0,0,0,0,0,-1,1910,680,11.4396,-1.63976
693,344,12.4362,-1.42346,0,0,0,0,0,0,0,-1,1917,680,12.4361,1.42348
700,344,14.0134,-1.63721,0,0,0,0,0,0,0,-1,1924,680,14.0135,1.63722
707,344,14.8154,-1.64838,0,0,0,0,0,0,0,-1,1931,680,14.8155,1.64837
714,344,0,0,0,0,0,0,0,0,0,-1,1938,680,0,0
721,344,0,0,0,0,0,0,0,0,0,-1,1945,680,0,0
728,344,0,0,0,0,0,0,0,0,0,-1,1952,680,0,0
735,344,0,0,0,0,0,0,0,0,0,-1,1959,680,0,0
742,344,0,0,0,0,0,0,0,0,0,-1,1966,680,0,0
749,344,0,0,0,0,0,0,0,0,0,-1,1973,680,0,0
756,344,0,0,0,0,0,0,0,0,0,-1,1980,680,0,0
763,344,0,0,0,0,0,0,0,0,0,-1,1987,680,0,0
770,344,0,0,0,0,0,0,0,0,0,-1,1994,680,0,0
777,344,0,0,0,0,0,0,0,0,0,-1,2001,680,0,0
784,344,0,0,0,0,0,0,0,0,0,-1,2008,680,0,0
791,344,0,0,0,0,0,0,0,0,0,-1,2015,680,0,0
798,344,0,0,0,0,0,0,0,0,0,-1,2022,680,0,0
805,344,0,0,0,0,0,0,0,0,0,-1,2029,680,0,0
812,344,0,0,0,0,0,0,0,0,0,-1,2036,680,0,0
-700,337,0,0,0,0,0,0,0,0,0,-1,524,687,0,0
-693,337,0,0,0,0,0,0,0,0,0,-1,531,687,0,0
-686,337,0,0,0,0,0,0,0,0,0,-1,538,687,0,0
-679,337,0,0,0,0,0,0,0,0,0,-1,545,687,0,0
-672,337,0,0,0,0,0,0,0,0,0,-1,552,687,0,0
-665,337,0,0,0,0,0,0,0,0,0,-1,559,687,0,0
-658,337,0,0,0,0,0,0,0,0,0,-1,566,687,0,0
-651,337,0,0,0,0,0,0,0,0,0,-1,573,687,0,0
-644,337,0,0,0,0,0,0,0,0,0,-1,580,687,0,0
-637,337,0,0,0,0,0,0,0,0,0,-1,587,687,0,0
-630,337,0,0,0,0,0,0,0,0,0,-1,594,687,0,0
-623,337,0,0,0,0,0,0,0,0,0,-1,601,687,0,0
-616,337,0,0,0,0,0,0,0,0,0,-1,608,687,0,0
-609,337,0,0,0,0,0,0,0,0,0,-1,615,687,0,0
-602,337,0,0,0,0,0,0,0,0,0,-1,622,687,0,0
-595,337,0,0,0,0,0,0,0,0,0,-1,629,687,0,0
-588,337,-8.20203,3.8374,0,0,0,0,0,0,0,-1,636,687,-8.20205,-3.8374
-581,337,-7.54236,2.87201,0,0,0,0,0,0,0,-1,643,687,-7.54236,-2.87198
-574,337,-7.15466,1.9892,0,0,0,0,0,0,0,-1,650,687,-7.15468,-1.98918
-567,337,-6.75409,1.65875,0.0358408,0.0506275,-0.0146173,0.0596148,0.0268534,-1.01953,0.0344749,0.0488637,657,687,-6.75408,-1.65874
-560,337,-5.47461,0.484863,0.0256948,0.0405222,-0.0122207,0.0474022,0.0188149,-1.05805,0.0275608,0.0447397,664,687,-5.47459,-0.484853
-553,337,-5.4541,0.127502,0.0178143,0.0319994,-0.0100523,0.0372094,0.0126042,-1.09262,0.0218521,0.0445378,671,687,-5.45409,-0.12752
-546,337,-5.88928,-0.499817,0.0120801,0.0249741,-0.00814319,0.0289134,0.00814077,-1.12023,0.017216,0.0383766,678,687,-5.88925,0.499816
-539,337,-5.54395,-0.564636,0.00811804,0.0192894,-0.00650198,0.0222755,0.00513194,-1.14027,0.0134696,0.0248676,685,687,-5.54393,0.564628
-532,337,-5.61243,-0.792175,0.00544235,0.0146014,-0.00508569,0.0168656,0.00317817,-1.15194,0.0103483,0.0136477,692,687,-5.61242,0.79215
-525,337,-5.65955,-1.01813,0.00375514,0.0106425,-0.0039391,0.012431,0.00196666,-1.14459,0.00771576,0.0135271,699,687,-5.65953,1.01815
-518,337,-5.6723,-1.23114,0.002614,0.00752453,-0.00286199,0.00884011,0.00129841,-1.13993,0.00551182,0.0206879,706,687,-5.67231,1.23113
-511,337,-5.70068,-1.46313,0.0015619,0.00452142,-0.0018561,0.00541543,0.000667893,-1.12193,0.00340953,0.0215871,713,687,-5.70065,1.46313
-504,337,-5.69293,-1.69153,0.00145062,0.00235044,-0.00126506,0.00324321,0.00055785,-0.956246,0.00200226,0.0218613,720,687,-5.69291,1.69151
-497,337,-5.63055,-1.88599,0.0018356,0.00061658,-0.000768548,0.00220699,0.000245188,-0.450149,0.00139679,0.0149956,727,687,-5.63057,1.886
-490,337,-5.64612,-2.1087,0.00212571,-0.00102144,-0.000348027,0.00216373,-0.00105946,-0.108833,0.00189697,0.0130019,734,687,-5.64613,2.10871
-483,337,-5.63892,-2.33783,0.00251138,-0.00234446,-0.00014217,0.00251554,-0.00234862,-0.0292448,0.00280887,0.0136336,741,687,-5.63889,2.3378
-476,337,-5.6272,-2.56763,0.00304194,-0.00342479,-0.000133325,0.00304468,-0.00342753,-0.0206054,0.00373892,0.0119549,748,687,-5.62721,2.56761
-469,337,-5.62579,-2.8396,0.00355766,-0.0051645,-0.00010167,0.00355884,-0.00516569,-0.0116545,0.0050655,0.0192488,755,687,-5.6258,2.8396
-462,337,-5.62445,-2.98846,0.0039721,-0.00745385,9.41973e-05,0.00397288,-0.00745462,0.00824341,0.00669897,0.0431527,762,687,-5.62447,2.98844
-455,337,-5.54474,-3.16327,0,0,0,0,0,0,0,-1,769,687,-5.54474,3.16324
-448,337,-5.30627,-2.07202,0,0,0,0,0,0,0,-1,776,687,-5.30628,2.07205
-441,337,-4.24762,-1.49597,0,0,0,0,0,0,0,-1,783,687,-4.24762,1.49598
-434,337,-6.86908,1.37531,0,0,0,0,0,0,0,-1,790,687,-6.86908,-1.3753
-427,337,-9.92004,2.487,0,0,0,0,0,0,0,-1,797,687,-9.92002,-2.48701
-420,337,-2.95996,-1.76697,0,0,0,0,0,0,0,-1,804,687,-2.95998,1.76696
-413,337,-1.29169,-1.99487,0,0,0,0,0,0,0,-1,811,687,-1.29171,1.9949
-406,337,-1.02356,-1.89563,0,0,0,0,0,0,0,-1,818,687,-1.02357,1.89564
-399,337,-0.472839,-2.21338,0,0,0,0,0,0,0,-1,825,687,-0.472837,2.2134
-392,337,0,0,0,0,0,0,0,0,0,-1,832,687,0,0
-385,337,0,0,0,0,0,0,0,0,0,-1,839,687,0,0
-378,337,0,0,0,0,0,0,0,0,0,-1,846,687,0,0
-371,337,0,0,0,0,0,0,0,0,0,-1,853,687,0,0
-364,337,0,0,0,0,0,0,0,0,0,-1,860,687,0,0
-357,337,0,0,0,0,0,0,0,0,0,-1,867,687,0,0
-350,337,0,0,0,0,0,0,0,0,0,-1,874,687,0,0
-343,337,0,0,0,0,0,0,0,0,0,-1,881,687,0,0
-336,337,0,0,0,0,0,0,0,0,0,-1,888,687,0,0
-329,337,0,0,0,0,0,0,0,0,0,-1,895,687,0,0
-322,337,0,0,0,0,0,0,0,0,0,-1,902,687,0,0
-315,337,0,0,0,0,0,0,0,0,0,-1,909,687,0,0
-308,337,0,0,0,0,0,0,0,0,0,-1,916,687,0,0
-301,337,0,0,0,0,0,0,0,0,0,-1,923,687,0,0
-294,337,0,0,0,0,0,0,0,0,0,-1,930,687,0,0
-287,337,0,0,0,0,0,0,0,0,0,-1,937,687,0,0
-280,337,0,0,0,0,0,0,0,0,0,-1,944,687,0,0
-273,337,0,0,0,0,0,0,0,0,0,-1,951,687,0,0
-266,337,0,0,0,0,0,0,0,0,0,-1,958,687,0,0
-259,337,0,0,0,0,0,0,0,0,0,-1,965,687,0,0
-252,337,0,0,0,0,0,0,0,0,0,-1,972,687,0,0
-245,337,0,0,0,0,0,0,0,0,0,-1,979,687,0,0
-238,337,0,0,0,0,0,0,0,0,0,-1,986,687,0,0
-231,337,0,0,0,0,0,0,0,0,0,-1,993,687,0,0
-224,337,0,0,0,0,0,0,0,0,0,-1,1000,687,0,0
-217,337,0,0,0,0,0,0,0,0,0,-1,1007,687,0,0
-210,337,0,0,0,0,0,0,0,0,0,-1,1014,687,0,0
-203,337,0,0,0,0,0,0,0,0,0,-1,1021,687,0,0
-196,337,0,0,0,0,0,0,0,0,0,-1,1028,687,0,0
-189,337,0,0,0,0,0,0,0,0,0,-1,1035,687,0,0
-182,337,0,0,0,0,0,0,0,0,0,-1,1042,687,0,0
-175,337,0,0,0,0,0,0,0,0,0,-1,1049,687,0,0
-168,337,0,0,0,0,0,0,0,0,0,-1,1056,687,0,0
-161,337,0,0,0,0,0,0,0,0,0,-1,1063,687,0,0
-154,337,0,0,0,0,0,0,0,0,0,-1,1070,687,0,0
-147,337,0,0,0,0,0,0,0,0,0,-1,1077,687,0,0
-140,337,0,0,0,0,0,0,0,0,0,-1,1084,687,0,0
-133,337,0,0,0,0,0,0,0,0,0,-1,1091,687,0,0
-126,337,0,0,0,0,0,0,0,0,0,-1,1098,687,0,0
-119,337,0,0,0,0,0,0,0,0,0,-1,1105,687,0,0
-112,337,0,0,0,0,0,0,0,0,0,-1,1112,687,0,0
-105,337,0,0,0,0,0,0,0,0,0,-1,1119,687,0,0
-98,337,0,0,0,0,0,0,0,0,0,-1,1126,687,0,0
-91,337,0,0,0,0,0,0,0,0,0,-1,1133,687,0,0
-84,337,0,0,0,0,0,0,0,0,0,-1,1140,687,0,0
-77,337,0,0,0,0,0,0,0,0,0,-1,1147,687,0,0
-70,337,0,0,0,0,0,0,0,0,0,-1,1154,687,0,0
-63,337,0,0,0,0,0,0,0,0,0,-1,1161,687,0,0
-56,337,0,0,0,0,0,0,0,0,0,-1,1168,687,0,0
-49,337,0,0,0,0,0,0,0,0,0,-1,1175,687,0,0
-42,337,0,0,0,0,0,0,0,0,0,-1,1182,687,0,0
-35,337,0,0,0,0,0,0,0,0,0,-1,1189,687,0,0
-28,337,0,0,0,0,0,0,0,0,0,-1,1196,687,0,0
-21,337,0,0,0,0,0,0,0,0,0,-1,1203,687,0,0
-14,337,0,0,0,0,0,0,0,0,0,-1,1210,687,0,0
-7,337,0,0,0,0,0,0,0,0,0,-1,1217,687,0,0
0,337,0,0,0,0,0,0,0,0,0,-1,1224,687,0,0
7,337,0,0,0,0,0,0,0,0,0,-1,1231,687,0,0
14,337,0,0,0,0,0,0,0,0,0,-1,1238,687,0,0
21,337,0,0,0,0,0,0,0,0,0,-1,1245,687,0,0
28,337,0,0,0,0,0,0,0,0,0,-1,1252,687,0,0
35,337,0,0,0,0,0,0,0,0,0,-1,1259,687,0,0
42,337,0,0,0,0,0,0,0,0,0,-1,1266,687,0,0
49,337,0,0,0,0,0,0,0,0,0,-1,1273,687,0,0
56,337,0,0,0,0,0,0,0,0,0,-1,1280,687,0,0
63,337,0,0,0,0,0,0,0,0,0,-1,1287,687,0,0
70,337,0,0,0,0,0,0,0,0,0,-1,1294,687,0,0
77,337,0,0,0,0,0,0,0,0,0,-1,1301,687,0,0
84,337,0,0,0,0,0,0,0,0,0,-1,1308,687,0,0
91,337,0,0,0,0,0,0,0,0,0,-1,1315,687,0,0
98,337,0,0,0,0,0,0,0,0,0,-1,1322,687,0,0
105,337,0,0,0,0,0,0,0,0,0,-1,1329,687,0,0
112,337,0,0,0,0,0,0,0,0,0,-1,1336,687,0,0
119,337,0,0,0,0,0,0,0,0,0,-1,1343,687,0,0
126,337,0,0,0,0,0,0,0,0,0,-1,1350,687,0,0
133,337,0,0,0,0,0,0,0,0,0,-1,1357,687,0,0
140,337,0,0,0,0,0,0,0,0,0,-1,1364,687,0,0
147,337,0,0,0,0,0,0,0,0,0,-1,1371,687,0,0
154,337,0,0,0,0,0,0,0,0,0,-1,1378,687,0,0
161,337,0,0,0,0,0,0,0,0,0,-1,1385,687,0,0
168,337,0,0,0,0,0,0,0,0,0,-1,1392,687,0,0
175,337,0,0,0,0,0,0,0,0,0,-1,1399,687,0,0
182,337,0,0,0,0,0,0,0,0,0,-1,1406,687,0,0
189,337,0,0,0,0,0,0,0,0,0,-1,1413,687,0,0
196,337,0,0,0,0,0,0,0,0,0,-1,1420,687,0,0
203,337,0,0,0,0,0,0,0,0,0,-1,1427,687,0,0
210,337,0,0,0,0,0,0,0,0,0,-1,1434,687,0,0
217,337,0,0,0,0,0,0,0,0,0,-1,1441,687,0,0
224,337,0,0,0,0,0,0,0,0,0,-1,1448,687,0,0
231,337,0,0,0,0,0,0,0,0,0,-1,1455,687,0,0
238,337,0,0,0,0,0,0,0,0,0,-1,1462,687,0,0
245,337,0,0,0,0,0,0,0,0,0,-1,1469,687,0,0
252,337,0,0,0,0,0,0,0,0,0,-1,1476,687,0,0
259,337,0,0,0,0,0,0,0,0,0,-1,1483,687,0,0
266,337,0,0,0,0,0,0,0,0,0,-1,1490,687,0,0
273,337,0,0,0,0,0,0,0,0,0,-1,1497,687,0,0
280,337,0,0,0,0,0,0,0,0,0,-1,1504,687,0,0
287,337,0,0,0,0,0,0,0,0,0,-1,1511,687,0,0
294,337,0,0,0,0,0,0,0,0,0,-1,1518,687,0,0
301,337,0,0,0,0,0,0,0,0,0,-1,1525,687,0,0
308,337,0,0,0,0,0,0,0,0,0,-1,1532,687,0,0
315,337,0,0,0,0,0,0,0,0,0,-1,1539,687,0,0
322,337,0,0,0,0,0,0,0,0,0,-1,1546,687,0,0
329,337,0,0,0,0,0,0,0,0,0,-1,1553,687,0,0
336,337,0,0,0,0,0,0,0,0,0,-1,1560,687,0,0
343,337,0,0,0,0,0,0,0,0,0,-1,1567,687,0,0
350,337,0,0,0,0,0,0,0,0,0,-1,1574,687,0,0
357,337,0,0,0,0,0,0,0,0,0,-1,1581,687,0,0
364,337,0,0,0,0,0,0,0,0,0,-1,1588,687,0,0
371,337,0,0,0,0,0,0,0,0,0,-1,1595,687,0,0
378,337,0,0,0,0,0,0,0,0,0,-1,1602,687,0,0
385,337,0,0,0,0,0,0,0,0,0,-1,1609,687,0,0
392,337,0,0,0,0,0,0,0,0,0,-1,1616,687,0,0
399,337,0,0,0,0,0,0,0,0,0,-1,1623,687,0,0
406,337,0,0,0,0,0,0,0,0,0,-1,1630,687,0,0
413,337,0,0,0,0,0,0,0,0,0,-1,1637,687,0,0
420,337,0,0,0,0,0,0,0,0,0,-1,1644,687,0,0
427,337,0,0,0,0,0,0,0,0,0,-1,1651,687,0,0
434,337,0,0,0,0,0,0,0,0,0,-1,1658,687,0,0
441,337,0,0,0,0,0,0,0,0,0,-1,1665,687,0,0
448,337,0,0,0,0,0,0,0,0,0,-1,1672,687,0,0
455,337,0,0,0,0,0,0,0,0,0,-1,1679,687,0,0
462,337,0,0,0,0,0,0,0,0,0,-1,1686,687,0,0
469,337,0,0,0,0,0,0,0,0,0,-1,1693,687,0,0
476,337,0,0,0,0,0,0,0,0,0,-1,1700,687,0,0
483,337,0,0,0,0,0,0,0,0,0,-1,1707,687,0,0
490,337,0,0,0,0,0,0,0,0,0,-1,1714,687,0,0
497,337,0,0,0,0,0,0,0,0,0,-1,1721,687,0,0
504,337,0,0,0,0,0,0,0,0,0,-1,1728,687,0,0
511,337,0,0,0,0,0,0,0,0,0,-1,1735,687,0,0
518,337,18.0369,1.64581,0,0,0,0,0,0,0,-1,1742,687,18.0368,-1.64581
525,337,16.9935,2.33093,0,0,0,0,0,0,0,-1,1749,687,16.9935,-2.33094
532,337,16.3579,2.91357,0,0,0,0,0,0,0,-1,1756,687,16.3579,-2.91358
539,337,15.7062,3.49115,0,0,0,0,0,0,0,-1,1763,687,15.7062,-3.49114
546,337,15.0701,4.06219,0,0,0,0,0,0,0,-1,1770,687,15.0701,-4.06219
553,337,14.1956,4.74957,0,0,0,0,0,0,0,-1,1777,687,14.1956,-4.74958
560,337,12.347,2.23297,0,0,0,0,0,0,0,-1,1784,687,12.3471,-2.23299
567,337,11.9288,1.38776,0,0,0,0,0,0,0,-1,1791,687,11.9288,-1.38777
574,337,10.704,1.19476,0,0,0,0,0,0,0,-1,1798,687,10.704,-1.19478
581,337,8.50427,0.561768,0,0,0,0,0,0,0,-1,1805,687,8.5043,-0.561754
588,337,8.5885,-0.0536499,0,0,0,0,0,0,0,-1,1812,687,8.58844,0.0536788
595,337,10.9716,-1.25806,0,0,0,0,0,0,0,-1,1819,687,10.9716,1.25808
602,337,11.2043,-0.793274,-0.00318902,-0.00408182,-0.00259782,-0.000999524,-0.00627132,-0.700311,0.00389074,0.040953,1826,687,11.2044,0.793254
609,337,11.1936,-0.500793,-0.00133197,-0.00260475,-0.00151661,-0.000323634,-0.00361308,-0.586749,0.00230841,0.0209624,1833,687,11.1936,0.500814
616,337,11.1661,-0.285156,-0.00046836,-0.00185845,-0.000965678,2.63938e-05,-0.0023532,-0.473469,0.00157767,0.0154785,1840,687,11.1662,0.285144
623,337,11.2115,-0.0963745,-0.000312221,-0.00136799,-0.00060702,-3.56574e-05,-0.00164455,-0.427508,0.00108468,0.0141457,1847,687,11.2116,0.0964004
630,337,11.2224,0.15509,-0.000159112,-0.00111786,-0.000453791,2.1609e-05,-0.00129858,-0.378994,0.000873015,0.0188109,1854,687,11.2224,-0.155072
637,337,11.1941,0.386414,0.00023031,-0.000366122,-2.98853e-05,0.000231803,-0.000367616,-0.0499401,0.000349023,0.016651,1861,687,11.1941,-0.386442
644,337,11.1746,0.634033,0.000218488,-0.000154562,-2.73001e-05,0.000220476,-0.000156549,-0.0726649,0.000218716,0.0110797,1868,687,11.1746,-0.63406
651,337,11.1873,0.88147,0.000418032,0.000180287,0.000115213,0.000464703,0.000133616,0.384883,0.000276253,0.0103175,1875,687,11.1872,-0.881462
658,337,11.1746,1.12262,0.00109488,0.000883148,0.000524085,0.00152368,0.000454341,0.68574,0.000903268,0.0115713,1882,687,11.1745,-1.12261
665,337,11.192,1.3432,0.00327624,0.00337729,0.00105001,0.00437799,0.00227554,0.809439,0.00252829,0.0137965,1889,687,11.192,-1.34318
672,337,11.1875,1.55829,0.00720258,0.00727268,0.00218961,0.00942752,0.00504774,0.793401,0.00544754,0.0171373,1896,687,11.1876,-1.55831
679,337,11.1069,1.71661,0.0125627,0.0126573,0.00380282,0.0164131,0.00880689,0.791621,0.00948457,0.0360836,1903,687,11.1069,-1.71663
686,337,11.5859,2.86627,0.0207449,0.0209873,0.00601867,0.026886,0.0148462,0.795464,0.0155508,0.049962,1910,687,11.5859,-2.8663
693,337,12.0886,3.77679,0,0,0,0,0,0,0,-1,1917,687,12.0886,-3.77682
700,337,13.4678,-0.972046,0,0,0,0,0,0,0,-1,1924,687,13.4677,0.972062
707,337,14.9698,-0.898987,0,0,0,0,0,0,0,-1,1931,687,14.9698,0.898974
714,337,0,0,0,0,0,0,0,0,0,-1,1938,687,0,0
721,337,0,0,0,0,0,0,0,0,0,-1,1945,687,0,0
728,337,0,0,0,0,0,0,0,0,0,-1,1952,687,0,0
735,337,0,0,0,0,0,0,0,0,0,-1,1959,687,0,0
742,337,0,0,0,0,0,0,0,0,0,-1,1966,687,0,0
749,337,0,0,0,0,0,0,0,0,0,-1,1973,687,0,0
756,337,0,0,0,0,0,0,0,0,0,-1,1980,687,0,0
763,337,0,0,0,0,0,0,0,0,0,-1,1987,687,0,0
770,337,0,0,0,0,0,0,0,0,0,-1,1994,687,0,0
777,337,0,0,0,0,0,0,0,0,0,-1,2001,687,0,0
784,337,0,0,0,0,0,0,0,0,0,-1,2008,687,0,0
791,337,0,0,0,0,0,0,0,0,0,-1,2015,687,0,0
798,337,0,0,0,0,0,0,0,0,0,-1,2022,687,0,0
805,337,0,0,0,0,0,0,0,0,0,-1,2029,687,0,0
812,337,0,0,0,0,0,0,0,0,0,-1,2036,687,0,0
-700,330,0,0,0,0,0,0,0,0,0,-1,524,694,0,0
-693,330,0,0,0,0,0,0,0,0,0,-1,531,694,0,0
-686,330,0,0,0,0,0,0,0,0,0,-1,538,694,0,0
-679,330,0,0,0,0,0,0,0,0,0,-1,545,694,0,0
-672,330,0,0,0,0,0,0,0,0,0,-1,552,694,0,0
-665,330,0,0,0,0,0,0,0,0,0,-1,559,694,0,0
-658,330,0,0,0,0,0,0,0,0,0,-1,566,694,0,0
-651,330,0,0,0,0,0,0,0,0,0,-1,573,694,0,0
-644,330,0,0,0,0,0,0,0,0,0,-1,580,694,0,0
-637,330,0,0,0,0,0,0,0,0,0,-1,587,694,0,0
-630,330,0,0,0,0,0,0,0,0,0,-1,594,694,0,0
-623,330,0,0,0,0,0,0,0,0,0,-1,601,694,0,0
-616,330,0,0,0,0,0,0,0,0,0,-1,608,694,0,0
-609,330,0,0,0,0,0,0,0,0,0,-1,615,694,0,0
-602,330,0,0,0,0,0,0,0,0,0,-1,622,694,0,0
-595,330,-4.67883,1.65515,0,0,0,0,0,0,0,-1,629,694,-4.67881,-1.65515
-588,330,-8.5047,2.67346,0,0,0,0,0,0,0,-1,636,694,-8.50469,-2.67348
-581,330,-7.78009,1.80542,0,0,0,0,0,0,0,-1,643,694,-7.78008,-1.80539
-574,330,-6.85742,0.83551,0,0,0,0,0,0,0,-1,650,694,-6.85743,-0.835501
-567,330,-6.6073,0.654114,0.0309077,0.040909,-0.0102933,0.0473521,0.0244646,-1.01152,0.0273438,0.0496882,657,694,-6.60732,-0.654089
-560,330,-6.06085,0.285339,0.0216887,0.0322089,-0.00830512,0.0367795,0.017118,-1.06769,0.0212516,0.0445941,664,694,-6.06084,-0.285335
-553,330,-5.79474,-0.102234,0.0147352,0.0251098,-0.00670267,0.028398,0.011447,-1.11472,0.0164979,0.0386106,671,694,-5.79472,0.102215
-546,330,-5.76202,-0.390015,0.0098366,0.0194138,-0.00540826,0.0218488,0.00740163,-1.14775,0.0128311,0.0252317,678,694,-5.76201,0.390007
-539,330,-5.79059,-0.589111,0.00653388,0.0148681,-0.00432606,0.0167076,0.00469436,-1.16874,0.00994987,0.0117982,685,694,-5.7906,0.589102
-532,330,-5.87238,-0.78241,0.00434591,0.0111338,-0.00338183,0.0125311,0.00294865,-1.17899,0.00756519,0.00969136,692,694,-5.87241,0.782386
-525,330,-5.88947,-1.01685,0.00300041,0.00798347,-0.00259439,0.00908896,0.00189491,-1.16799,0.00553683,0.0100673,699,694,-5.88948,1.01685
-518,330,-5.8855,-1.22644,0.00211879,0.0054835,-0.00181365,0.00627493,0.00132735,-1.15933,0.00381853,0.0133327,706,694,-5.8855,1.22646
-511,330,-5.91504,-1.47717,0.00135759,0.00297983,-0.00108938,0.00352689,0.000810525,-1.10541,0.00213305,0.0189338,713,694,-5.91502,1.47718
-504,330,-5.90796,-1.70624,0.0013533,0.000863922,-0.000620843,0.00177593,0.000441289,-0.597682,0.0010677,0.0181936,720,694,-5.90797,1.70625
-497,330,-5.87012,-1.89392,0.00169949,-0.000941774,-0.000160772,0.00170924,-0.000951525,-0.060571,0.00155682,0.0125262,727,694,-5.87013,1.89393
-490,330,-5.85449,-2.11694,0.00189353,-0.00291386,0.000268427,0.00190848,-0.0029288,0.0556059,0.00281344,0.0126286,734,694,-5.8545,2.11697
-483,330,-5.84888,-2.34283,0.00212969,-0.00488897,0.000515196,0.00216731,-0.00492658,0.0728832,0.00419766,0.012679,741,694,-5.84885,2.34282
-476,330,-5.85333,-2.56824,0.00240636,-0.00720523,0.000602443,0.00244397,-0.00724285,0.0623535,0.00581696,0.0203902,748,694,-5.85335,2.56821
-469,330,-5.74298,-2.72369,0.00258591,-0.010805,0.000699833,0.00262239,-0.0108415,0.0520725,0.00824206,0.0386961,755,694,-5.74299,2.72372
-462,330,-5.76526,-3.02283,0,0,0,0,0,0,0,-1,762,694,-5.76527,3.02285
-455,330,-5.04254,-1.79303,0,0,0,0,0,0,0,-1,769,694,-5.04252,1.79305
-448,330,-4.89886,-1.66156,0,0,0,0,0,0,0,-1,776,694,-4.89886,1.66157
-441,330,-5.30676,-2.34045,0,0,0,0,0,0,0,-1,783,694,-5.30679,2.34048
-434,330,-7.20428,1.00024,0,0,0,0,0,0,0,-1,790,694,-7.20431,-1.00027
-427,330,-7.67114,0.451782,0,0,0,0,0,0,0,-1,797,694,-7.67116,-0.451789
-420,330,-9.80774,2.9187,0,0,0,0,0,0,0,-1,804,694,-9.80774,-2.91868
-413,330,-10.4567,2.56183,0,0,0,0,0,0,0,-1,811,694,-10.4567,-2.56182
-406,330,-1.65375,-1.74371,0,0,0,0,0,0,0,-1,818,694,-1.65375,1.74371
-399,330,0,0,0,0,0,0,0,0,0,-1,825,694,0,0
-392,330,0,0,0,0,0,0,0,0,0,-1,832,694,0,0
-385,330,0,0,0,0,0,0,0,0,0,-1,839,694,0,0
-378,330,0,0,0,0,0,0,0,0,0,-1,846,694,0,0
-371,330,0,0,0,0,0,0,0,0,0,-1,853,694,0,0
-364,330,0,0,0,0,0,0,0,0,0,-1,860,694,0,0
-357,330,0,0,0,0,0,0,0,0,0,-1,867,694,0,0
-350,330,0,0,0,0,0,0,0,0,0,-1,874,694,0,0
-343,330,0,0,0,0,0,0,0,0,0,-1,881,694,0,0
-336,330,0,0,0,0,0,0,0,0,0,-1,888,694,0,0
-329,330,0,0,0,0,0,0,0,0,0,-1,895,694,0,0
-322,330,0,0,0,0,0,0,0,0,0,-1,902,694,0,0
-315,330,0,0,0,0,0,0,0,0,0,-1,909,694,0,0
-308,330,0,0,0,0,0,0,0,0,0,-1,916,694,0,0
-301,330,0,0,0,0,0,0,0,0,0,-1,923,694,0,0
-294,330,0,0,0,0,0,0,0,0,0,-1,930,694,0,0
-287,330,0,0,0,0,0,0,0,0,0,-1,937,694,0,0
-280,330,0,0,0,0,0,0,0,0,0,-1,944,694,0,0
-273,330,0,0,0,0,0,0,0,0,0,-1,951,694,0,0
-266,330,0,0,0,0,0,0,0,0,0,-1,958,694,0,0
-259,330,0,0,0,0,0,0,0,0,0,-1,965,694,0,0
-252,330,0,0,0,0,0,0,0,0,0,-1,972,694,0,0
-245,330,0,0,0,0,0,0,0,0,0,-1,979,694,0,0
-238,330,0,0,0,0,0,0,0,0,0,-1,986,694,0,0
-231,330,0,0,0,0,0,0,0,0,0,-1,993,694,0,0
-224,330,0,0,0,0,0,0,0,0,0,-1,1000,694,0,0
-217,330,0,0,0,0,0,0,0,0,0,-1,1007,694,0,0
-210,330,0,0,0,0,0,0,0,0,0,-1,1014,694,0,0
-203,330,0,0,0,0,0,0,0,0,0,-1,1021,694,0,0
-196,330,0,0,0,0,0,0,0,0,0,-1,1028,694,0,0
-189,330,0,0,0,0,0,0,0,0,0,-1,1035,694,0,0
-182,330,0,0,0,0,0,0,0,0,0,-1,1042,694,0,0
-175,330,0,0,0,0,0,0,0,0,0,-1,1049,694,0,0
-168,330,0,0,0,0,0,0,0,0,0,-1,1056,694,0,0
-161,330,0,0,0,0,0,0,0,0,0,-1,1063,694,0,0
-154,330,0,0,0,0,0,0,0,0,0,-1,1070,694,0,0
-147,330,0,0,0,0,0,0,0,0,0,-1,1077,694,0,0
-140,330,0,0,0,0,0,0,0,0,0,-1,1084,694,0,0
-133,330,0,0,0,0,0,0,0,0,0,-1,1091,694,0,0
-126,330,0,0,0,0,0,0,0,0,0,-1,1098,694,0,0
-119,330,0,0,0,0,0,0,0,0,0,-1,1105,694,0,0
-112,330,0,0,0,0,0,0,0,0,0,-1,1112,694,0,0
-105,330,0,0,0,0,0,0,0,0,0,-1,1119,694,0,0
-98,330,0,0,0,0,0,0,0,0,0,-1,1126,694,0,0
-91,330,0,0,0,0,0,0,0,0,0,-1,1133,694,0,0
-84,330,0,0,0,0,0,0,0,0,0,-1,1140,694,0,0
-77,330,0,0,0,0,0,0,0,0,0,-1,1147,694,0,0
-70,330,0,0,0,0,0,0,0,0,0,-1,1154,694,0,0
-63,330,0,0,0,0,0,0,0,0,0,-1,1161,694,0,0
-56,330,0,0,0,0,0,0,0,0,0,-1,1168,694,0,0
-49,330,0,0,0,0,0,0,0,0,0,-1,1175,694,0,0
-42,330,0,0,0,0,0,0,0,0,0,-1,1182,694,0,0
-35,330,0,0,0,0,0,0,0,0,0,-1,1189,694,0,0
-28,330,0,0,0,0,0,0,0,0,0,-1,1196,694,0,0
-21,330,0,0,0,0,0,0,0,0,0,-1,1203,694,0,0
-14,330,0,0,0,0,0,0,0,0,0,-1,1210,694,0,0
-7,330,0,0,0,0,0,0,0,0,0,-1,1217,694,0,0
0,330,0,0,0,0,0,0,0,0,0,-1,1224,694,0,0
7,330,0,0,0,0,0,0,0,0,0,-1,1231,694,0,0
14,330,0,0,0,0,0,0,0,0,0,-1,1238,694,0,0
21,330,0,0,0,0,0,0,0,0,0,-1,1245,694,0,0
28,330,0,0,0,0,0,0,0,0,0,-1,1252,694,0,0
35,330,0,0,0,0,0,0,0,0,0,-1,1259,694,0,0
42,330,0,0,0,0,0,0,0,0,0,-1,1266,694,0,0
49,330,0,0,0,0,0,0,0,0,0,-1,1273,694,0,0
56,330,0,0,0,0,0,0,0,0,0,-1,1280,694,0,0
63,330,0,0,0,0,0,0,0,0,0,-1,1287,694,0,0
70,330,0,0,0,0,0,0,0,0,0,-1,1294,694,0,0
77,330,0,0,0,0,0,0,0,0,0,-1,1301,694,0,0
84,330,0,0,0,0,0,0,0,0,0,-1,1308,694,0,0
91,330,0,0,0,0,0,0,0,0,0,-1,1315,694,0,0
98,330,0,0,0,0,0,0,0,0,0,-1,1322,694,0,0
105,330,0,0,0,0,0,0,0,0,0,-1,1329,694,0,0
112,330,0,0,0,0,0,0,0,0,0,-1,1336,694,0,0
119,330,0,0,0,0,0,0,0,0,0,-1,1343,694,0,0
126,330,0,0,0,0,0,0,0,0,0,-1,1350,694,0,0
133,330,0,0,0,0,0,0,0,0,0,-1,1357,694,0,0
140,330,0,0,0,0,0,0,0,0,0,-1,1364,694,0,0
147,330,0,0,0,0,0,0,0,0,0,-1,1371,694,0,0
154,330,0,0,0,0,0,0,0,0,0,-1,1378,694,0,0
161,330,0,0,0,0,0,0,0,0,0,-1,1385,694,0,0
168,330,0,0,0,0,0,0,0,0,0,-1,1392,694,0,0
175,330,0,0,0,0,0,0,0,0,0,-1,1399,694,0,0
182,330,0,0,0,0,0,0,0,0,0,-1,1406,694,0,0
189,330,0,0,0,0,0,0,0,0,0,-1,1413,694,0,0
196,330,0,0,0,0,0,0,0,0,0,-1,1420,694,0,0
203,330,0,0,0,0,0,0,0,0,0,-1,1427,694,0,0
210,330,0,0,0,0,0,0,0,0,0,-1,1434,694,0,0
217,330,0,0,0,0,0,0,0,0,0,-1,1441,694,0,0
224,330,0,0,0,0,0,0,0,0,0,-1,1448,694,0,0
231,330,0,0,0,0,0,0,0,0,0,-1,1455,694,0,0
238,330,0,0,0,0,0,0,0,0,0,-1,1462,694,0,0
245,330,0,0,0,0,0,0,0,0,0,-1,1469,694,0,0
252,330,0,0,0,0,0,0,0,0,0,-1,1476,694,0,0
259,330,0,0,0,0,0,0,0,0,0,-1,1483,694,0,0
266,330,0,0,0,0,0,0,0,0,0,-1,1490,694,0,0
273,330,0,0,0,0,0,0,0,0,0,-1,1497,694,0,0
280,330,0,0,0,0,0,0,0,0,0,-1,1504,694,0,0
287,330,0,0,0,0,0,0,0,0,0,-1,1511,694,0,0
294,330,0,0,0,0,0,0,0,0,0,-1,1518,694,0,0
301,330,0,0,0,0,0,0,0,0,0,-1,1525,694,0,0
308,330,0,0,0,0,0,0,0,0,0,-1,1532,694,0,0
315,330,0,0,0,0,0,0,0,0,0,-1,1539,694,0,0
322,330,0,0,0,0,0,0,0,0,0,-1,1546,694,0,0
329,330,0,0,0,0,0,0,0,0,0,-1,1553,694,0,0
336,330,0,0,0,0,0,0,0,0,0,-1,1560,694,0,0
343,330,0,0,0,0,0,0,0,0,0,-1,1567,694,0,0
350,330,0,0,0,0,0,0,0,0,0,-1,1574,694,0,0
357,330,0,0,0,0,0,0,0,0,0,-1,1581,694,0,0
364,330,0,0,0,0,0,0,0,0,0,-1,1588,694,0,0
371,330,0,0,0,0,0,0,0,0,0,-1,1595,694,0,0
378,330,0,0,0,0,0,0,0,0,0,-1,1602,694,0,0
385,330,0,0,0,0,0,0,0,0,0,-1,1609,694,0,0
392,330,0,0,0,0,0,0,0,0,0,-1,1616,694,0,0
399,330,0,0,0,0,0,0,0,0,0,-1,1623,694,0,0
406,330,0,0,0,0,0,0,0,0,0,-1,1630,694,0,0
413,330,0,0,0,0,0,0,0,0,0,-1,1637,694,0,0
420,330,0,0,0,0,0,0,0,0,0,-1,1644,694,0,0
427,330,0,0,0,0,0,0,0,0,0,-1,1651,694,0,0
434,330,0,0,0,0,0,0,0,0,0,-1,1658,694,0,0
441,330,0,0,0,0,0,0,0,0,0,-1,1665,694,0,0
448,330,0,0,0,0,0,0,0,0,0,-1,1672,694,0,0
455,330,0,0,0,0,0,0,0,0,0,-1,1679,694,0,0
462,330,0,0,0,0,0,0,0,0,0,-1,1686,694,0,0
469,330,0,0,0,0,0,0,0,0,0,-1,1693,694,0,0
476,330,0,0,0,0,0,0,0,0,0,-1,1700,694,0,0
483,330,0,0,0,0,0,0,0,0,0,-1,1707,694,0,0
490,330,0,0,0,0,0,0,0,0,0,-1,1714,694,0,0
497,330,0,0,0,0,0,0,0,0,0,-1,1721,694,0,0
504,330,0,0,0,0,0,0,0,0,0,-1,1728,694,0,0
511,330,0,0,0,0,0,0,0,0,0,-1,1735,694,0,0
518,330,0,0,0,0,0,0,0,0,0,-1,1742,694,0,0
525,330,17.5052,1.86627,0,0,0,0,0,0,0,-1,1749,694,17.5052,-1.86629
532,330,16.8772,2.56702,0,0,0,0,0,0,0,-1,1756,694,16.8772,-2.567
539,330,16.1982,5.49628,0,0,0,0,0,0,0,-1,1763,694,16.1983,-5.49626
546,330,15.353,3.8175,0,0,0,0,0,0,0,-1,1770,694,15.353,-3.81751
553,330,14.3347,4.82251,0,0,0,0,0,0,0,-1,1777,694,14.3347,-4.8225
560,330,13.3215,5.24579,0,0,0,0,0,0,0,-1,1784,694,13.3216,-5.24581
567,330,15.6969,2.73596,0,0,0,0,0,0,0,-1,1791,694,15.6969,-2.73596
574,330,12.0454,2.1662,0,0,0,0,0,0,0,-1,1798,694,12.0455,-2.16618
581,330,11.4215,4.50836,0,0,0,0,0,0,0,-1,1805,694,11.4215,-4.50837
588,330,6.45667,-0.0630493,0,0,0,0,0,0,0,-1,1812,694,6.45661,0.0630695
595,330,8.23193,-0.258484,0,0,0,0,0,0,0,-1,1819,694,8.23188,0.258459
602,330,11.1555,-1.06677,0,0,0,0,0,0,0,-1,1826,694,11.1555,1.06678
609,330,11.3407,-0.577454,0.000214688,-0.000383394,-0.0026713,0.00260363,-0.00277234,-0.729657,0.00310433,0.030583,1833,694,11.3407,0.577447
616,330,11.41,-0.327332,0.000345486,-0.000921506,-0.00134495,0.00119867,-0.00177469,-0.565301,0.00172737,0.0109618,1840,694,11.41,0.327325
623,330,11.4337,-0.0874023,0.000160863,-0.000968377,-0.000616149,0.000431967,-0.00123948,-0.414505,0.00100185,0.0122983,1847,694,11.4337,0.0873831
630,330,11.4413,0.185913,0.000125113,-0.000909632,-0.000294406,0.000203013,-0.000987532,-0.258672,0.000735426,0.0126882,1854,694,11.4413,-0.185892
637,330,11.4294,0.429199,0.000439873,-0.000286712,0.000139598,0.00046577,-0.00031261,0.183431,0.000452288,0.0120698,1861,694,11.4294,-0.429169
644,330,11.4199,0.654724,0.000421123,4.6717e-07,0.000152703,0.000470711,-4.91206e-05,0.31399,0.000331396,0.00848089,1868,694,11.4199,-0.654731
651,330,11.4061,0.886536,0.000583955,0.000398404,0.000297941,0.000803231,0.000179128,0.634462,0.000486888,0.0117348,1875,694,11.4061,-0.88651
658,330,11.3936,1.11981,0.00119779,0.00116305,0.000683588,0.00186423,0.00049661,0.772693,0.00111478,0.0119517,1882,694,11.3936,-1.11979
665,330,11.3966,1.35211,0.00330918,0.00381357,0.00113685,0.00472586,0.00239689,0.894548,0.00272857,0.0106488,1889,694,11.3966,-1.35212
672,330,11.4154,1.60022,0.006976,0.0077695,0.00215427,0.00956325,0.00518225,0.876463,0.0055278,0.0132747,1896,694,11.4154,-1.60024
679,330,11.2794,1.85388,0.011786,0.0130209,0.00350313,0.0159606,0.0088463,0.872633,0.00923291,0.0261315,1903,694,11.2794,-1.85387
686,330,11.549,2.56549,0.0191211,0.0210097,0.00534123,0.0254894,0.0146413,0.872891,0.0147706,0.0431656,1910,694,11.549,-2.56547
693,330,11.8646,3.01587,0,0,0,0,0,0,0,-1,1917,694,11.8647,-3.01584
700,330,12.2338,-0.0736084,0,0,0,0,0,0,0,-1,1924,694,12.2338,0.0736035
707,330,13.4666,-0.003479,0,0,0,0,0,0,0,-1,1931,694,13.4665,0.00345908
714,330,14.6604,0.0909424,0,0,0,0,0,0,0,-1,1938,694,14.6604,-0.0909463
721,330,0,0,0,0,0,0,0,0,0,-1,1945,694,0,0
728,330,0,0,0,0,0,0,0,0,0,-1,1952,694,0,0
735,330,0,0,0,0,0,0,0,0,0,-1,1959,694,0,0
742,330,0,0,0,0,0,0,0,0,0,-1,1966,694,0,0
749,330,0,0,0,0,0,0,0,0,0,-1,1973,694,0,0
756,330,0,0,0,0,0,0,0,0,0,-1,1980,694,0,0
763,330,0,0,0,0,0,0,0,0,0,-1,1987,694,0,0
770,330,0,0,0,0,0,0,0,0,0,-1,1994,694,0,0
777,330,0,0,0,0,0,0,0,0,0,-1,2001,694,0,0
784,330,0,0,0,0,0,0,0,0,0,-1,2008,694,0,0
791,330,0,0,0,0,0,0,0,0,0,-1,2015,694,0,0
798,330,0,0,0,0,0,0,0,0,0,-1,2022,694,0,0
805,330,0,0,0,0,0,0,0,0,0,-1,2029,694,0,0
812,330,0,0,0,0,0,0,0,0,0,-1,2036,694,0,0
-700,323,0,0,0,0,0,0,0,0,0,-1,524,701,0,0
-693,323,0,0,0,0,0,0,0,0,0,-1,531,701,0,0
-686,323,0,0,0,0,0,0,0,0,0,-1,538,701,0,0
-679,323,0,0,0,0,0,0,0,0,0,-1,545,701,0,0
-672,323,0,0,0,0,0,0,0,0,0,-1,552,701,0,0
-665,323,0,0,0,0,0,0,0,0,0,-1,559,701,0,0
-658,323,0,0,0,0,0,0,0,0,0,-1,566,701,0,0
-651,323,0,0,0,0,0,0,0,0,0,-1,573,701,0,0
-644,323,0,0,0,0,0,0,0,0,0,-1,580,701,0,0
-637,323,0,0,0,0,0,0,0,0,0,-1,587,701,0,0
-630,323,0,0,0,0,0,0,0,0,0,-1,594,701,0,0
-623,323,0,0,0,0,0,0,0,0,0,-1,601,701,0,0
-616,323,0,0,0,0,0,0,0,0,0,-1,608,701,0,0
-609,323,0,0,0,0,0,0,0,0,0,-1,615,701,0,0
-602,323,-4.15833,2.12256,0,0,0,0,0,0,0,-1,622,701,-4.1583,-2.12257
-595,323,-4.052,1.79156,0,0,0,0,0,0,0,-1,629,701,-4.05198,-1.79158
-588,323,-4.07019,1.94543,0,0,0,0,0,0,0,-1,636,701,-4.07019,-1.94542
-581,323,-6.63727,0.562805,0,0,0,0,0,0,0,-1,643,701,-6.63728,-0.56279
-574,323,-6.15887,0.426697,0,0,0,0,0,0,0,-1,650,701,-6.15887,-0.426727
-567,323,-6.49475,-0.355591,0,0,0,0,0,0,0,-1,657,701,-6.49475,0.355561
-560,323,-6.39294,-0.131409,0,0,0,0,0,0,0,-1,664,701,-6.39296,0.131382
-553,323,-6.09064,-0.197815,0.0114933,0.0188366,-0.00387447,0.0205028,0.00982713,-1.16466,0.0118407,0.0310479,671,701,-6.09061,0.197795
-546,323,-6.06494,-0.383972,0.00755642,0.0144539,-0.0031139,0.0156517,0.00635864,-1.20359,0.00908931,0.0114079,678,701,-6.06491,0.383988
-539,323,-6.0838,-0.556152,0.00495997,0.0109922,-0.00244807,0.0118607,0.00409149,-1.22989,0.00695662,0.0104122,685,701,-6.08382,0.556175
-532,323,-6.10004,-0.776611,0.00328904,0.00814511,-0.00184669,0.00876759,0.00266656,-1.24568,0.00518981,0.00930764,692,701,-6.10004,0.77661
-525,323,-6.10632,-0.998657,0.00231602,0.00572683,-0.00129655,0.00616373,0.00187912,-1.24578,0.00364785,0.00724268,699,701,-6.10633,0.998636
-518,323,-6.0882,-1.20056,0.00170068,0.00372892,-0.000668661,0.00392952,0.00150008,-1.27934,0.00228976,0.00901504,706,701,-6.08818,1.20056
-511,323,-6.11017,-1.44012,0.00120592,0.00153632,-6.01453e-05,0.00154693,0.00119531,-1.39622,0.000936354,0.0133313,713,701,-6.11019,1.44015
-504,323,-6.1297,-1.66235,0.00128185,-0.000662412,0.000462208,0.00138613,-0.000766699,0.221911,0.00125997,0.0152152,720,701,-6.12973,1.66234
-497,323,-6.09357,-1.88483,0.00156641,-0.00273739,0.00109673,0.00182977,-0.00300075,0.235672,0.00281608,0.0116338,727,701,-6.09357,1.88482
-490,323,-6.08594,-2.10944,0.00162194,-0.00530358,0.00180205,0.00206278,-0.00574442,0.23992,0.00467156,0.0121376,734,701,-6.08597,2.10944
-483,323,-6.08069,-2.33246,0.00159616,-0.00832638,0.00246479,0.0021747,-0.00890492,0.230545,0.0067788,0.016069,741,701,-6.08069,2.33245
-476,323,-5.98022,-2.6073,0.00143734,-0.0122427,0.00309248,0.00210394,-0.0129093,0.212306,0.00938645,0.0347981,748,701,-5.9802,2.60728
-469,323,-5.6441,-2.97009,0,0,0,0,0,0,0,-1,755,701,-5.64408,2.97006
-462,323,-5.29431,-1.45697,0,0,0,0,0,0,0,-1,762,701,-5.29431,1.45699
-455,323,-5.0658,-1.36639,0,0,0,0,0,0,0,-1,769,701,-5.06578,1.3664
-448,323,-4.91608,-1.59601,0,0,0,0,0,0,0,-1,776,701,-4.91606,1.59604
-441,323,-4.66174,-2.02039,0,0,0,0,0,0,0,-1,783,701,-4.66175,2.02036
-434,323,-7.5022,0.849731,0,0,0,0,0,0,0,-1,790,701,-7.50219,-0.849752
-427,323,-7.61346,-0.0681763,0,0,0,0,0,0,0,-1,797,701,-7.61345,0.0681943
-420,323,-10.3256,2.65674,0,0,0,0,0,0,0,-1,804,701,-10.3256,-2.65675
-413,323,-10.202,3.21863,0,0,0,0,0,0,0,-1,811,701,-10.202,-3.21863
-406,323,0,0,0,0,0,0,0,0,0,-1,818,701,0,0
-399,323,0,0,0,0,0,0,0,0,0,-1,825,701,0,0
-392,323,0,0,0,0,0,0,0,0,0,-1,832,701,0,0
-385,323,0,0,0,0,0,0,0,0,0,-1,839,701,0,0
-378,323,0,0,0,0,0,0,0,0,0,-1,846,701,0,0
-371,323,0,0,0,0,0,0,0,0,0,-1,853,701,0,0
-364,323,0,0,0,0,0,0,0,0,0,-1,860,701,0,0
-357,323,0,0,0,0,0,0,0,0,0,-1,867,701,0,0
-350,323,0,0,0,0,0,0,0,0,0,-1,874,701,0,0
-343,323,0,0,0,0,0,0,0,0,0,-1,881,701,0,0
-336,323,0,0,0,0,0,0,0,0,0,-1,888,701,0,0
-329,323,0,0,0,0,0,0,0,0,0,-1,895,701,0,0
-322,323,0,0,0,0,0,0,0,0,0,-1,902,701,0,0
-315,323,0,0,0,0,0,0,0,0,0,-1,909,701,0,0
-308,323,0,0,0,0,0,0,0,0,0,-1,916,701,0,0
-301,323,0,0,0,0,0,0,0,0,0,-1,923,701,0,0
-294,323,0,0,0,0,0,0,0,0,0,-1,930,701,0,0
-287,323,0,0,0,0,0,0,0,0,0,-1,937,701,0,0
-280,323,0,0,0,0,0,0,0,0,0,-1,944,701,0,0
-273,323,0,0,0,0,0,0,0,0,0,-1,951,701,0,0
-266,323,0,0,0,0,0,0,0,0,0,-1,958,701,0,0
-259,323,0,0,0,0,0,0,0,0,0,-1,965,701,0,0
-252,323,0,0,0,0,0,0,0,0,0,-1,972,701,0,0
-245,323,0,0,0,0,0,0,0,0,0,-1,979,701,0,0
-238,323,0,0,0,0,0,0,0,0,0,-1,986,701,0,0
-231,323,0,0,0,0,0,0,0,0,0,-1,993,701,0,0
-224,323,0,0,0,0,0,0,0,0,0,-1,1000,701,0,0
-217,323,0,0,0,0,0,0,0,0,0,-1,1007,701,0,0
-210,323,0,0,0,0,0,0,0,0,0,-1,1014,701,0,0
-203,323,0,0,0,0,0,0,0,0,0,-1,1021,701,0,0
-196,323,0,0,0,0,0,0,0,0,0,-1,1028,701,0,0
-189,323,0,0,0,0,0,0,0,0,0,-1,1035,701,0,0
-182,323,0,0,0,0,0,0,0,0,0,-1,1042,701,0,0
-175,323,0,0,0,0,0,0,0,0,0,-1,1049,701,0,0
-168,323,0,0,0,0,0,0,0,0,0,-1,1056,701,0,0
-161,323,0,0,0,0,0,0,0,0,0,-1,1063,701,0,0
-154,323,0,0,0,0,0,0,0,0,0,-1,1070,701,0,0
-147,323,0,0,0,0,0,0,0,0,0,-1,1077,701,0,0
-140,323,0,0,0,0,0,0,0,0,0,-1,1084,701,0,0
-133,323,0,0,0,0,0,0,0,0,0,-1,1091,701,0,0
-126,323,0,0,0,0,0,0,0,0,0,-1,1098,701,0,0
-119,323,0,0,0,0,0,0,0,0,0,-1,1105,701,0,0
-112,323,0,0,0,0,0,0,0,0,0,-1,1112,701,0,0
-105,323,0,0,0,0,0,0,0,0,0,-1,1119,701,0,0
-98,323,0,0,0,0,0,0,0,0,0,-1,1126,701,0,0
-91,323,0,0,0,0,0,0,0,0,0,-1,1133,701,0,0
-84,323,0,0,0,0,0,0,0,0,0,-1,1140,701,0,0
-77,323,0,0,0,0,0,0,0,0,0,-1,1147,701,0,0
-70,323,0,0,0,0,0,0,0,0,0,-1,1154,701,0,0
-63,323,0,0,0,0,0,0,0,0,0,-1,1161,701,0,0
-56,323,0,0,0,0,0,0,0,0,0,-1,1168,701,0,0
-49,323,0,0,0,0,0,0,0,0,0,-1,1175,701,0,0
-42,323,0,0,0,0,0,0,0,0,0,-1,1182,701,0,0
-35,323,0,0,0,0,0,0,0,0,0,-1,1189,701,0,0
-28,323,0,0,0,0,0,0,0,0,0,-1,1196,701,0,0
-21,323,0,0,0,0,0,0,0,0,0,-1,1203,701,0,0
-14,323,0,0,0,0,0,0,0,0,0,-1,1210,701,0,0
-7,323,0,0,0,0,0,0,0,0,0,-1,1217,701,0,0
0,323,0,0,0,0,0,0,0,0,0,-1,1224,701,0,0
7,323,0,0,0,0,0,0,0,0,0,-1,1231,701,0,0
14,323,0,0,0,0,0,0,0,0,0,-1,1238,701,0,0
21,323,0,0,0,0,0,0,0,0,0,-1,1245,701,0,0
28,323,0,0,0,0,0,0,0,0,0,-1,1252,701,0,0
35,323,0,0,0,0,0,0,0,0,0,-1,1259,701,0,0
42,323,0,0,0,0,0,0,0,0,0,-1,1266,701,0,0
49,323,0,0,0,0,0,0,0,0,0,-1,1273,701,0,0
56,323,0,0,0,0,0,0,0,0,0,-1,1280,701,0,0
63,323,0,0,0,0,0,0,0,0,0,-1,1287,701,0,0
70,323,0,0,0,0,0,0,0,0,0,-1,1294,701,0,0
77,323,0,0,0,0,0,0,0,0,0,-1,1301,701,0,0
84,323,0,0,0,0,0,0,0,0,0,-1,1308,701,0,0
91,323,0,0,0,0,0,0,0,0,0,-1,1315,701,0,0
98,323,0,0,0,0,0,0,0,0,0,-1,1322,701,0,0
105,323,0,0,0,0,0,0,0,0,0,-1,1329,701,0,0
112,323,0,0,0,0,0,0,0,0,0,-1,1336,701,0,0
119,323,0,0,0,0,0,0,0,0,0,-1,1343,701,0,0
126,323,0,0,0,0,0,0,0,0,0,-1,1350,701,0,0
133,323,0,0,0,0,0,0,0,0,0,-1,1357,701,0,0
140,323,0,0,0,0,0,0,0,0,0,-1,1364,701,0,0
147,323,0,0,0,0,0,0,0,0,0,-1,1371,701,0,0
154,323,0,0,0,0,0,0,0,0,0,-1,1378,701,0,0
161,323,0,0,0,0,0,0,0,0,0,-1,1385,701,0,0
168,323,0,0,0,0,0,0,0,0,0,-1,1392,701,0,0
175,323,0,0,0,0,0,0,0,0,0,-1,1399,701,0,0
182,323,0,0,0,0,0,0,0,0,0,-1,1406,701,0,0
189,323,0,0,0,0,0,0,0,0,0,-1,1413,701,0,0
196,323,0,0,0,0,0,0,0,0,0,-1,1420,701,0,0
203,323,0,0,0,0,0,0,0,0,0,-1,1427,701,0,0
210,323,0,0,0,0,0,0,0,0,0,-1,1434,701,0,0
217,323,0,0,0,0,0,0,0,0,0,-1,1441,701,0,0
224,323,0,0,0,0,0,0,0,0,0,-1,1448,701,0,0
231,323,0,0,0,0,0,0,0,0,0,-1,1455,701,0,0
238,323,0,0,0,0,0,0,0,0,0,-1,1462,701,0,0
245,323,0,0,0,0,0,0,0,0,0,-1,1469,701,0,0
252,323,0,0,0,0,0,0,0,0,0,-1,1476,701,0,0
259,323,0,0,0,0,0,0,0,0,0,-1,1483,701,0,0
266,323,0,0,0,0,0,0,0,0,0,-1,1490,701,0,0
273,323,0,0,0,0,0,0,0,0,0,-1,1497,701,0,0
280,323,0,0,0,0,0,0,0,0,0,-1,1504,701,0,0
287,323,0,0,0,0,0,0,0,0,0,-1,1511,701,0,0
294,323,0,0,0,0,0,0,0,0,0,-1,1518,701,0,0
301,323,0,0,0,0,0,0,0,0,0,-1,1525,701,0,0
308,323,0,0,0,0,0,0,0,0,0,-1,1532,701,0,0
315,323,0,0,0,0,0,0,0,0,0,-1,1539,701,0,0
322,323,0,0,0,0,0,0,0,0,0,-1,1546,701,0,0
329,323,0,0,0,0,0,0,0,0,0,-1,1553,701,0,0
336,323,0,0,0,0,0,0,0,0,0,-1,1560,701,0,0
343,323,0,0,0,0,0,0,0,0,0,-1,1567,701,0,0
350,323,0,0,0,0,0,0,0,0,0,-1,1574,701,0,0
357,323,0,0,0,0,0,0,0,0,0,-1,1581,701,0,0
364,323,0,0,0,0,0,0,0,0,0,-1,1588,701,0,0
371,323,0,0,0,0,0,0,0,0,0,-1,1595,701,0,0
378,323,0,0,0,0,0,0,0,0,0,-1,1602,701,0,0
385,323,0,0,0,0,0,0,0,0,0,-1,1609,701,0,0
392,323,0,0,0,0,0,0,0,0,0,-1,1616,701,0,0
399,323,0,0,0,0,0,0,0,0,0,-1,1623,701,0,0
406,323,0,0,0,0,0,0,0,0,0,-1,1630,701,0,0
413,323,0,0,0,0,0,0,0,0,0,-1,1637,701,0,0
420,323,0,0,0,0,0,0,0,0,0,-1,1644,701,0,0
427,323,0,0,0,0,0,0,0,0,0,-1,1651,701,0,0
434,323,0,0,0,0,0,0,0,0,0,-1,1658,701,0,0
441,323,0,0,0,0,0,0,0,0,0,-1,1665,701,0,0
448,323,0,0,0,0,0,0,0,0,0,-1,1672,701,0,0
455,323,0,0,0,0,0,0,0,0,0,-1,1679,701,0,0
462,323,0,0,0,0,0,0,0,0,0,-1,1686,701,0,0
469,323,0,0,0,0,0,0,0,0,0,-1,1693,701,0,0
476,323,0,0,0,0,0,0,0,0,0,-1,1700,701,0,0
483,323,0,0,0,0,0,0,0,0,0,-1,1707,701,0,0
490,323,0,0,0,0,0,0,0,0,0,-1,1714,701,0,0
497,323,0,0,0,0,0,0,0,0,0,-1,1721,701,0,0
504,323,0,0,0,0,0,0,0,0,0,-1,1728,701,0,0
511,323,0,0,0,0,0,0,0,0,0,-1,1735,701,0,0
518,323,0,0,0,0,0,0,0,0,0,-1,1742,701,0,0
525,323,0,0,0,0,0,0,0,0,0,-1,1749,701,0,0
532,323,16.1195,3.75397,0,0,0,0,0,0,0,-1,1756,701,16.1196,-3.75396
539,323,15.8151,4.36414,0,0,0,0,0,0,0,-1,1763,701,15.8151,-4.36415
546,323,14.9697,4.06653,0,0,0,0,0,0,0,-1,1770,701,14.9697,-4.06654
553,323,14.3397,4.67419,0,0,0,0,0,0,0,-1,1777,701,14.3397,-4.67421
560,323,13.4242,4.87994,0,0,0,0,0,0,0,-1,1784,701,13.4242,-4.87996
567,323,12.6624,5.24524,0,0,0,0,0,0,0,-1,1791,701,12.6623,-5.24523
574,323,12.514,5.89685,0,0,0,0,0,0,0,-1,1798,701,12.5141,-5.89683
581,323,11.821,5.3476,0,0,0,0,0,0,0,-1,1805,701,11.821,-5.34762
588,323,11.7933,7.00818,0,0,0,0,0,0,0,-1,1812,701,11.7933,-7.00819
595,323,6.67847,0.06604,0,0,0,0,0,0,0,-1,1819,701,6.67841,-0.0660418
602,323,11.2856,-0.595459,0,0,0,0,0,0,0,-1,1826,701,11.2856,0.595433
609,323,11.5371,-0.483826,0.00163187,0.00246364,-0.00416277,0.00623124,-0.00213574,-0.835186,0.00501988,0.0490756,1833,701,11.5371,0.483817
616,323,11.6506,-0.321655,0.00125664,0.000310974,-0.00201015,0.00284882,-0.00128121,-0.669887,0.00244105,0.0144586,1840,701,11.6506,0.321679
623,323,11.6782,-0.0534668,0.000687246,-0.000529181,-0.000823012,0.0011024,-0.000944331,-0.467183,0.00118285,0.012558,1847,701,11.6783,0.0534967
630,323,11.6747,0.2229,0.000378243,-0.000801205,-0.000234683,0.000423224,-0.000846186,-0.189371,0.000746332,0.0131973,1854,701,11.6746,-0.222904
637,323,11.6587,0.46283,0.00056477,-0.000409013,0.000227597,0.000615339,-0.000459582,0.218635,0.000622774,0.010114,1861,701,11.6587,-0.462803
644,323,11.6643,0.668213,0.000530409,-5.41097e-05,0.000220415,0.000604207,-0.000127908,0.323084,0.000451521,0.00771574,1868,701,11.6643,-0.668192
651,323,11.6492,0.913086,0.000637968,0.000392334,0.000332848,0.000869936,0.000160366,0.608653,0.000534581,0.00920056,1875,701,11.6491,-0.913068
658,323,11.6168,1.16516,0.00114727,0.00119156,0.00066126,0.00183105,0.000507789,0.802136,0.00109154,0.0121492,1882,701,11.6168,-1.16516
665,323,11.6113,1.37946,0.0030882,0.00388599,0.00102733,0.00458915,0.00238504,0.97058,0.00265023,0.0113175,1889,701,11.6114,-1.37943
672,323,11.634,1.61847,0.00641225,0.0077836,0.00190763,0.00912504,0.0050708,0.957927,0.00527923,0.0100108,1896,701,11.6341,-1.61847
679,323,11.5992,1.8714,0.0106172,0.0127726,0.00300446,0.0148868,0.00850301,0.957593,0.00862387,0.0203054,1903,701,11.5992,-1.87137
686,323,11.5254,2.01721,0.0170213,0.0202062,0.00449492,0.0233824,0.0138451,0.955641,0.013576,0.0428515,1910,701,11.5254,-2.0172
693,323,11.5024,2.18359,0,0,0,0,0,0,0,-1,1917,701,11.5025,-2.18359
700,323,10.7705,0.828613,0,0,0,0,0,0,0,-1,1924,701,10.7705,-0.828591
707,323,12.7253,0.564026,0,0,0,0,0,0,0,-1,1931,701,12.7254,-0.564037
714,323,13.9398,0.620789,0,0,0,0,0,0,0,-1,1938,701,13.9399,-0.620761
721,323,0,0,0,0,0,0,0,0,0,-1,1945,701,0,0
728,323,0,0,0,0,0,0,0,0,0,-1,1952,701,0,0
735,323,0,0,0,0,0,0,0,0,0,-1,1959,701,0,0
742,323,0,0,0,0,0,0,0,0,0,-1,1966,701,0,0
749,323,0,0,0,0,0,0,0,0,0,-1,1973,701,0,0
756,323,0,0,0,0,0,0,0,0,0,-1,1980,701,0,0
763,323,0,0,0,0,0,0,0,0,0,-1,1987,701,0,0
770,323,0,0,0,0,0,0,0,0,0,-1,1994,701,0,0
777,323,0,0,0,0,0,0,0,0,0,-1,2001,701,0,0
784,323,0,0,0,0,0,0,0,0,0,-1,2008,701,0,0
791,323,0,0,0,0,0,0,0,0,0,-1,2015,701,0,0
798,323,0,0,0,0,0,0,0,0,0,-1,2022,701,0,0
805,323,0,0,0,0,0,0,0,0,0,-1,2029,701,0,0
812,323,0,0,0,0,0,0,0,0,0,-1,2036,701,0,0
-700,316,0,0,0,0,0,0,0,0,0,-1,524,708,0,0
-693,316,0,0,0,0,0,0,0,0,0,-1,531,708,0,0
-686,316,0,0,0,0,0,0,0,0,0,-1,538,708,0,0
-679,316,0,0,0,0,0,0,0,0,0,-1,545,708,0,0
-672,316,0,0,0,0,0,0,0,0,0,-1,552,708,0,0
-665,316,0,0,0,0,0,0,0,0,0,-1,559,708,0,0
-658,316,0,0,0,0,0,0,0,0,0,-1,566,708,0,0
-651,316,0,0,0,0,0,0,0,0,0,-1,573,708,0,0
-644,316,0,0,0,0,0,0,0,0,0,-1,580,708,0,0
-637,316,0,0,0,0,0,0,0,0,0,-1,587,708,0,0
-630,316,0,0,0,0,0,0,0,0,0,-1,594,708,0,0
-623,316,0,0,0,0,0,0,0,0,0,-1,601,708,0,0
-616,316,0,0,0,0,0,0,0,0,0,-1,608,708,0,0
-609,316,0,0,0,0,0,0,0,0,0,-1,615,708,0,0
-602,316,-0.451782,-0.0494995,0,0,0,0,0,0,0,-1,622,708,-0.451768,0.0495022
-595,316,-3.3761,2.17188,0,0,0,0,0,0,0,-1,629,708,-3.37609,-2.17189
-588,316,-5.00177,2.60675,0,0,0,0,0,0,0,-1,636,708,-5.00175,-2.60676
-581,316,-3.94653,0.393433,0,0,0,0,0,0,0,-1,643,708,-3.94655,-0.39342
-574,316,-3.65845,1.06451,0,0,0,0,0,0,0,-1,650,708,-3.65847,-1.06454
-567,316,-6.13098,0.144897,0,0,0,0,0,0,0,-1,657,708,-6.13095,-0.144885
-560,316,-6.16333,-0.0814819,0,0,0,0,0,0,0,-1,664,708,-6.16331,0.0814617
-553,316,-6.2218,-0.230835,0.00855211,0.0136447,-0.0014079,0.014008,0.00818879,-1.31825,0.00812601,0.0307664,671,708,-6.2218,0.230813
-546,316,-6.3324,-0.350586,0.00550073,0.0103447,-0.00117496,0.0106146,0.00523077,-1.34496,0.00612857,0.0174275,678,708,-6.33241,0.350594
-539,316,-6.31079,-0.579102,0.00353105,0.00774225,-0.000889346,0.00792236,0.00335093,-1.37098,0.00459203,0.0123064,685,708,-6.31076,0.579089
-532,316,-6.32959,-0.793945,0.00241559,0.00562178,-0.000509467,0.00570079,0.00233659,-1.41694,0.00330913,0.0101989,692,708,-6.3296,0.793925
-525,316,-6.31024,-0.996643,0.0018859,0.00378499,-4.01455e-05,0.00378584,0.00188505,-1.54967,0.00218576,0.00872399,699,708,-6.31026,0.996624
-518,316,-6.30267,-1.20038,0.00160158,0.00212144,0.000621268,0.00253496,0.00118806,0.983525,0.00146452,0.00920256,706,708,-6.30266,1.20037
-511,316,-6.31458,-1.42279,0.00139268,-2.96028e-06,0.00135218,0.00221648,-0.000826767,0.547188,0.00181706,0.0109248,713,708,-6.31459,1.42281
-504,316,-6.32324,-1.67371,0.00158003,-0.00252185,0.00214681,0.00249812,-0.00343994,0.404116,0.00344268,0.0144577,720,708,-6.32326,1.67373
-497,316,-6.29639,-1.88599,0.00183635,-0.00514643,0.00321078,0.00308826,-0.00639834,0.371777,0.00558712,0.0124335,727,708,-6.29636,1.88599
-490,316,-6.29895,-2.10828,0.0017514,-0.00862997,0.00446883,0.00341006,-0.0102886,0.355403,0.0082346,0.0135563,734,708,-6.29892,2.10829
-483,316,-6.18567,-2.40448,0.00141532,-0.0130685,0.00581964,0.0034639,-0.0151171,0.338467,0.0114094,0.0356436,741,708,-6.18569,2.4045
-476,316,-6.02905,-2.68604,0,0,0,0,0,0,0,-1,748,708,-6.02902,2.68601
-469,316,-6.24194,-1.42725,0,0,0,0,0,0,0,-1,755,708,-6.24192,1.42725
-462,316,-5.74237,-1.40039,0,0,0,0,0,0,0,-1,762,708,-5.74238,1.40039
-455,316,-5.44745,-1.21899,0,0,0,0,0,0,0,-1,769,708,-5.44746,1.21898
-448,316,-5.21997,-1.72546,0,0,0,0,0,0,0,-1,776,708,-5.22,1.72546
-441,316,-4.64679,-2.33038,0,0,0,0,0,0,0,-1,783,708,-4.64677,2.33039
-434,316,-7.45673,0.935486,0,0,0,0,0,0,0,-1,790,708,-7.45674,-0.935479
-427,316,-7.84717,0.0581055,0,0,0,0,0,0,0,-1,797,708,-7.84716,-0.0581049
-420,316,-8.02203,-0.534973,0,0,0,0,0,0,0,-1,804,708,-8.02205,0.534991
-413,316,0,0,0,0,0,0,0,0,0,-1,811,708,0,0
-406,316,0,0,0,0,0,0,0,0,0,-1,818,708,0,0
-399,316,0,0,0,0,0,0,0,0,0,-1,825,708,0,0
-392,316,0,0,0,0,0,0,0,0,0,-1,832,708,0,0
-385,316,0,0,0,0,0,0,0,0,0,-1,839,708,0,0
-378,316,0,0,0,0,0,0,0,0,0,-1,846,708,0,0
-371,316,0,0,0,0,0,0,0,0,0,-1,853,708,0,0
-364,316,0,0,0,0,0,0,0,0,0,-1,860,708,0,0
-357,316,0,0,0,0,0,0,0,0,0,-1,867,708,0,0
-350,316,0,0,0,0,0,0,0,0,0,-1,874,708,0,0
-343,316,0,0,0,0,0,0,0,0,0,-1,881,708,0,0
-336,316,0,0,0,0,0,0,0,0,0,-1,888,708,0,0
-329,316,0,0,0,0,0,0,0,0,0,-1,895,708,0,0
-322,316,0,0,0,0,0,0,0,0,0,-1,902,708,0,0
-315,316,0,0,0,0,0,0,0,0,0,-1,909,708,0,0
-308,316,0,0,0,0,0,0,0,0,0,-1,916,708,0,0
-301,316,0,0,0,0,0,0,0,0,0,-1,923,708,0,0
-294,316,0,0,0,0,0,0,0,0,0,-1,930,708,0,0
-287,316,0,0,0,0,0,0,0,0,0,-1,937,708,0,0
-280,316,0,0,0,0,0,0,0,0,0,-1,944,708,0,0
-273,316,0,0,0,0,0,0,0,0,0,-1,951,708,0,0
-266,316,0,0,0,0,0,0,0,0,0,-1,958,708,0,0
-259,316,0,0,0,0,0,0,0,0,0,-1,965,708,0,0
-252,316,0,0,0,0,0,0,0,0,0,-1,972,708,0,0
-245,316,0,0,0,0,0,0,0,0,0,-1,979,708,0,0
-238,316,0,0,0,0,0,0,0,0,0,-1,986,708,0,0
-231,316,0,0,0,0,0,0,0,0,0,-1,993,708,0,0
-224,316,0,0,0,0,0,0,0,0,0,-1,1000,708,0,0
-217,316,0,0,0,0,0,0,0,0,0,-1,1007,708,0,0
-210,316,0,0,0,0,0,0,0,0,0,-1,1014,708,0,0
-203,316,0,0,0,0,0,0,0,0,0,-1,1021,708,0,0
-196,316,0,0,0,0,0,0,0,0,0,-1,1028,708,0,0
-189,316,0,0,0,0,0,0,0,0,0,-1,1035,708,0,0
-182,316,0,0,0,0,0,0,0,0,0,-1,1042,708,0,0
-175,316,0,0,0,0,0,0,0,0,0,-1,1049,708,0,0
-168,316,0,0,0,0,0,0,0,0,0,-1,1056,708,0,0
-161,316,0,0,0,0,0,0,0,0,0,-1,1063,708,0,0
-154,316,0,0,0,0,0,0,0,0,0,-1,1070,708,0,0
-147,316,0,0,0,0,0,0,0,0,0,-1,1077,708,0,0
-140,316,0,0,0,0,0,0,0,0,0,-1,1084,708,0,0
-133,316,0,0,0,0,0,0,0,0,0,-1,1091,708,0,0
-126,316,0,0,0,0,0,0,0,0,0,-1,1098,708,0,0
-119,316,0,0,0,0,0,0,0,0,0,-1,1105,708,0,0
-112,316,0,0,0,0,0,0,0,0,0,-1,1112,708,0,0
-105,316,0,0,0,0,0,0,0,0,0,-1,1119,708,0,0
-98,316,0,0,0,0,0,0,0,0,0,-1,1126,708,0,0
-91,316,0,0,0,0,0,0,0,0,0,-1,1133,708,0,0
-84,316,0,0,0,0,0,0,0,0,0,-1,1140,708,0,0
-77,316,0,0,0,0,0,0,0,0,0,-1,1147,708,0,0
-70,316,0,0,0,0,0,0,0,0,0,-1,1154,708,0,0
-63,316,0,0,0,0,0,0,0,0,0,-1,1161,708,0,0
-56,316,0,0,0,0,0,0,0,0,0,-1,1168,708,0,0
-49,316,0,0,0,0,0,0,0,0,0,-1,1175,708,0,0
-42,316,0,0,0,0,0,0,0,0,0,-1,1182,708,0,0
-35,316,0,0,0,0,0,0,0,0,0,-1,1189,708,0,0
-28,316,0,0,0,0,0,0,0,0,0,-1,1196,708,0,0
-21,316,0,0,0,0,0,0,0,0,0,-1,1203,708,0,0
-14,316,0,0,0,0,0,0,0,0,0,-1,1210,708,0,0
-7,316,0,0,0,0,0,0,0,0,0,-1,1217,708,0,0
0,316,0,0,0,0,0,0,0,0,0,-1,1224,708,0,0
7,316,0,0,0,0,0,0,0,0,0,-1,1231,708,0,0
14,316,0,0,0,0,0,0,0,0,0,-1,1238,708,0,0
21,316,0,0,0,0,0,0,0,0,0,-1,1245,708,0,0
28,316,0,0,0,0,0,0,0,0,0,-1,1252,708,0,0
35,316,0,0,0,0,0,0,0,0,0,-1,1259,708,0,0
42,316,0,0,0,0,0,0,0,0,0,-1,1266,708,0,0
49,316,0,0,0,0,0,0,0,0,0,-1,1273,708,0,0
56,316,0,0,0,0,0,0,0,0,0,-1,1280,708,0,0
63,316,0,0,0,0,0,0,0,0,0,-1,1287,708,0,0
70,316,0,0,0,0,0,0,0,0,0,-1,1294,708,0,0
77,316,0,0,0,0,0,0,0,0,0,-1,1301,708,0,0
84,316,0,0,0,0,0,0,0,0,0,-1,1308,708,0,0
91,316,0,0,0,0,0,0,0,0,0,-1,1315,708,0,0
98,316,0,0,0,0,0,0,0,0,0,-1,1322,708,0,0
105,316,0,0,0,0,0,0,0,0,0,-1,1329,708,0,0
112,316,0,0,0,0,0,0,0,0,0,-1,1336,708,0,0
119,316,0,0,0,0,0,0,0,0,0,-1,1343,708,0,0
126,316,0,0,0,0,0,0,0,0,0,-1,1350,708,0,0
133,316,0,0,0,0,0,0,0,0,0,-1,1357,708,0,0
140,316,0,0,0,0,0,0,0,0,0,-1,1364,708,0,0
147,316,0,0,0,0,0,0,0,0,0,-1,1371,708,0,0
154,316,0,0,0,0,0,0,0,0,0,-1,1378,708,0,0
161,316,0,0,0,0,0,0,0,0,0,-1,1385,708,0,0
168,316,0,0,0,0,0,0,0,0,0,-1,1392,708,0,0
175,316,0,0,0,0,0,0,0,0,0,-1,1399,708,0,0
182,316,0,0,0,0,0,0,0,0,0,-1,1406,708,0,0
189,316,0,0,0,0,0,0,0,0,0,-1,1413,708,0,0
196,316,0,0,0,0,0,0,0,0,0,-1,1420,708,0,0
203,316,0,0,0,0,0,0,0,0,0,-1,1427,708,0,0
210,316,0,0,0,0,0,0,0,0,0,-1,1434,708,0,0
217,316,0,0,0,0,0,0,0,0,0,-1,1441,708,0,0
224,316,0,0,0,0,0,0,0,0,0,-1,1448,708,0,0
231,316,0,0,0,0,0,0,0,0,0,-1,1455,708,0,0
238,316,0,0,0,0,0,0,0,0,0,-1,1462,708,0,0
245,316,0,0,0,0,0,0,0,0,0,-1,1469,708,0,0
252,316,0,0,0,0,0,0,0,0,0,-1,1476,708,0,0
259,316,0,0,0,0,0,0,0,0,0,-1,1483,708,0,0
266,316,0,0,0,0,0,0,0,0,0,-1,1490,708,0,0
273,316,0,0,0,0,0,0,0,0,0,-1,1497,708,0,0
280,316,0,0,0,0,0,0,0,0,0,-1,1504,708,0,0
287,316,0,0,0,0,0,0,0,0,0,-1,1511,708,0,0
294,316,0,0,0,0,0,0,0,0,0,-1,1518,708,0,0
301,316,0,0,0,0,0,0,0,0,0,-1,1525,708,0,0
308,316,0,0,0,0,0,0,0,0,0,-1,1532,708,0,0
315,316,0,0,0,0,0,0,0,0,0,-1,1539,708,0,0
322,316,0,0,0,0,0,0,0,0,0,-1,1546,708,0,0
329,316,0,0,0,0,0,0,0,0,0,-1,1553,708,0,0
336,316,0,0,0,0,0,0,0,0,0,-1,1560,708,0,0
343,316,0,0,0,0,0,0,0,0,0,-1,1567,708,0,0
350,316,0,0,0,0,0,0,0,0,0,-1,1574,708,0,0
357,316,0,0,0,0,0,0,0,0,0,-1,1581,708,0,0
364,316,0,0,0,0,0,0,0,0,0,-1,1588,708,0,0
371,316,0,0,0,0,0,0,0,0,0,-1,1595,708,0,0
378,316,0,0,0,0,0,0,0,0,0,-1,1602,708,0,0
385,316,0,0,0,0,0,0,0,0,0,-1,1609,708,0,0
392,316,0,0,0,0,0,0,0,0,0,-1,1616,708,0,0
399,316,0,0,0,0,0,0,0,0,0,-1,1623,708,0,0
406,316,0,0,0,0,0,0,0,0,0,-1,1630,708,0,0
413,316,0,0,0,0,0,0,0,0,0,-1,1637,708,0,0
420,316,0,0,0,0,0,0,0,0,0,-1,1644,708,0,0
427,316,0,0,0,0,0,0,0,0,0,-1,1651,708,0,0
434,316,0,0,0,0,0,0,0,0,0,-1,1658,708,0,0
441,316,0,0,0,0,0,0,0,0,0,-1,1665,708,0,0
448,316,0,0,0,0,0,0,0,0,0,-1,1672,708,0,0
455,316,0,0,0,0,0,0,0,0,0,-1,1679,708,0,0
462,316,0,0,0,0,0,0,0,0,0,-1,1686,708,0,0
469,316,0,0,0,0,0,0,0,0,0,-1,1693,708,0,0
476,316,0,0,0,0,0,0,0,0,0,-1,1700,708,0,0
483,316,0,0,0,0,0,0,0,0,0,-1,1707,708,0,0
490,316,0,0,0,0,0,0,0,0,0,-1,1714,708,0,0
497,316,0,0,0,0,0,0,0,0,0,-1,1721,708,0,0
504,316,0,0,0,0,0,0,0,0,0,-1,1728,708,0,0
511,316,0,0,0,0,0,0,0,0,0,-1,1735,708,0,0
518,316,0,0,0,0,0,0,0,0,0,-1,1742,708,0,0
525,316,0,0,0,0,0,0,0,0,0,-1,1749,708,0,0
532,316,15.6722,2.51886,0,0,0,0,0,0,0,-1,1756,708,15.6722,-2.51888
539,316,15.2794,3.11963,0,0,0,0,0,0,0,-1,1763,708,15.2794,-3.11962
546,316,14.8114,3.69598,0,0,0,0,0,0,0,-1,1770,708,14.8115,-3.69596
553,316,14.2327,4.12115,0,0,0,0,0,0,0,-1,1777,708,14.2327,-4.12118
560,316,13.5422,4.41211,0,0,0,0,0,0,0,-1,1784,708,13.5423,-4.4121
567,316,12.839,4.72937,0,0,0,0,0,0,0,-1,1791,708,12.839,-4.72934
574,316,12.4089,5.2868,0,0,0,0,0,0,0,-1,1798,708,12.4089,-5.28681
581,316,12.1108,6.01782,0,0,0,0,0,0,0,-1,1805,708,12.1108,-6.01785
588,316,11.8125,7.09998,0,0,0,0,0,0,0,-1,1812,708,11.8125,-7.09996
595,316,12.5363,1.50702,0,0,0,0,0,0,0,-1,1819,708,12.5363,-1.50701
602,316,7.79919,0.0422363,0,0,0,0,0,0,0,-1,1826,708,7.79923,-0.0422066
609,316,11.8749,-0.606445,0,0,0,0,0,0,0,-1,1833,708,11.8749,0.606443
616,316,11.9075,-0.295532,-0.00698755,-0.0013285,-0.00449761,0.00115561,-0.00947166,-1.06618,0.00673278,0.0173565,1840,708,11.9075,0.295509
623,316,11.9039,-0.0418091,-0.00577348,-0.00233517,-0.00283496,-0.000738838,-0.00736982,-1.05796,0.00468639,0.0102121,1847,708,11.9039,0.041814
630,316,11.8772,0.190063,-0.00428432,-0.00250015,-0.0016605,-0.00150727,-0.0052772,-1.03189,0.00313876,0.0121265,1854,708,11.8771,-0.190073
637,316,11.8727,0.451599,-0.0025424,-0.00186818,-0.00076685,-0.00136761,-0.00304297,-0.992487,0.00175985,0.0115556,1861,708,11.8727,-0.451592
644,316,11.9069,0.693848,-0.00120537,-0.00101542,-0.000430412,-0.000669627,-0.00155116,-0.893993,0.000898345,0.0114592,1868,708,11.9069,-0.693833
651,316,11.891,0.929016,-0.000147332,-0.000170248,-0.0001032,-5.49559e-05,-0.000262623,-0.730111,0.000159942,0.0118404,1875,708,11.891,-0.929026
658,316,11.8743,1.17249,0.000938062,0.000936576,0.000395688,0.00133301,0.00054163,0.78446,0.000774102,0.0193309,1882,708,11.8742,-1.17246
665,316,11.8536,1.41412,0.00298874,0.00379988,0.000836936,0.00432434,0.00246429,1.01102,0.00250477,0.016475,1889,708,11.8537,-1.41412
672,316,11.8867,1.62933,0.0060295,0.0076201,0.0016224,0.00863164,0.00501796,1.01329,0.00500542,0.0124561,1896,708,11.8867,-1.62931
679,316,11.9069,1.86066,0.00967726,0.0122424,0.00250579,0.0137747,0.00814487,1.02193,0.00799692,0.0176229,1903,708,11.9069,-1.86067
686,316,11.7892,2.05487,0.0151768,0.018964,0.00366928,0.0211994,0.0129413,1.02361,0.0123387,0.0313815,1910,708,11.7892,-2.05485
693,316,11.4629,2.29321,0,0,0,0,0,0,0,-1,1917,708,11.4629,-2.29323
700,316,11.1136,2.43738,0,0,0,0,0,0,0,-1,1924,708,11.1136,-2.43735
707,316,11.7877,1.08746,0,0,0,0,0,0,0,-1,1931,708,11.7877,-1.08746
714,316,12.8584,5.60095,0,0,0,0,0,0,0,-1,1938,708,12.8584,-5.60096
721,316,13.9999,5.36664,0,0,0,0,0,0,0,-1,1945,708,13.9999,-5.36665
728,316,0,0,0,0,0,0,0,0,0,-1,1952,708,0,0
735,316,0,0,0,0,0,0,0,0,0,-1,1959,708,0,0
742,316,0,0,0,0,0,0,0,0,0,-1,1966,708,0,0
749,316,0,0,0,0,0,0,0,0,0,-1,1973,708,0,0
756,316,0,0,0,0,0,0,0,0,0,-1,1980,708,0,0
763,316,0,0,0,0,0,0,0,0,0,-1,1987,708,0,0
770,316,0,0,0,0,0,0,0,0,0,-1,1994,708,0,0
777,316,0,0,0,0,0,0,0,0,0,-1,2001,708,0,0
784,316,0,0,0,0,0,0,0,0,0,-1,2008,708,0,0
791,316,0,0,0,0,0,0,0,0,0,-1,2015,708,0,0
798,316,0,0,0,0,0,0,0,0,0,-1,2022,708,0,0
805,316,0,0,0,0,0,0,0,0,0,-1,2029,708,0,0
812,316,0,0,0,0,0,0,0,0,0,-1,2036,708,0,0
-700,309,0,0,0,0,0,0,0,0,0,-1,524,715,0,0
-693,309,0,0,0,0,0,0,0,0,0,-1,531,715,0,0
-686,309,0,0,0,0,0,0,0,0,0,-1,538,715,0,0
-679,309,0,0,0,0,0,0,0,0,0,-1,545,715,0,0
-672,309,0,0,0,0,0,0,0,0,0,-1,552,715,0,0
-665,309,0,0,0,0,0,0,0,0,0,-1,559,715,0,0
-658,309,0,0,0,0,0,0,0,0,0,-1,566,715,0,0
-651,309,0,0,0,0,0,0,0,0,0,-1,573,715,0,0
-644,309,0,0,0,0,0,0,0,0,0,-1,580,715,0,0
-637,309,0,0,0,0,0,0,0,0,0,-1,587,715,0,0
-630,309,0,0,0,0,0,0,0,0,0,-1,594,715,0,0
-623,309,0,0,0,0,0,0,0,0,0,-1,601,715,0,0
-616,309,0,0,0,0,0,0,0,0,0,-1,608,715,0,0
-609,309,-5.95392,-3.93689,0,0,0,0,0,0,0,-1,615,715,-5.95392,3.93686
-602,309,-4.99786,-3.31287,0,0,0,0,0,0,0,-1,622,715,-4.99786,3.31284
-595,309,-6.80847,2.4046,0,0,0,0,0,0,0,-1,629,715,-6.80845,-2.40458
-588,309,-6.08795,2.19324,0,0,0,0,0,0,0,-1,636,715,-6.08793,-2.19325
-581,309,-5.97552,1.3277,0,0,0,0,0,0,0,-1,643,715,-5.97552,-1.32769
-574,309,-4.9649,-0.976379,0,0,0,0,0,0,0,-1,650,715,-4.96488,0.976349
-567,309,-5.23651,-0.542725,0,0,0,0,0,0,0,-1,657,715,-5.23649,0.542727
-560,309,-6.30609,0.0193481,0,0,0,0,0,0,0,-1,664,715,-6.30608,-0.0193684
-553,309,-6.46399,-0.173035,0.0063574,0.00863532,0.000778747,0.0088761,0.00611663,1.27093,0.00524538,0.02944,671,715,-6.46402,0.173034
-546,309,-6.53955,-0.348999,0.00382659,0.00626439,0.000621813,0.00641383,0.00367715,1.33493,0.00371627,0.0158121,678,715,-6.53953,0.348974
-539,309,-6.53503,-0.588867,0.00224836,0.00436466,0.000638317,0.00454228,0.00207074,1.2994,0.00262589,0.0142545,685,715,-6.53503,0.588882
-532,309,-6.54102,-0.791931,0.0015528,0.00288601,0.000903742,0.0033424,0.00109641,1.10316,0.00196741,0.011663,692,715,-6.54103,0.791958
-525,309,-6.53784,-1.01068,0.00142711,0.00157626,0.00136231,0.00286604,0.000137329,0.812741,0.0018666,0.0143167,699,715,-6.53785,1.01069
-518,309,-6.53552,-1.21808,0.00149133,0.000254113,0.00209573,0.00305785,-0.0013124,0.641885,0.00258938,0.015082,706,715,-6.53549,1.21809
-511,309,-6.5141,-1.42358,0.0016142,-0.00176437,0.00295757,0.00333092,-0.00348109,0.525921,0.00393324,0.0130678,713,715,-6.51411,1.4236
-504,309,-6.51263,-1.64911,0.00198546,-0.00454749,0.00398818,0.00387412,-0.00643615,0.442277,0.00601359,0.0103508,720,715,-6.51261,1.6491
-497,309,-6.49854,-1.8653,0.00235131,-0.00763952,0.00538541,0.00470142,-0.00998963,0.411474,0.00866312,0.0135913,727,715,-6.49856,1.86527
-490,309,-6.49261,-2.07544,0.00232697,-0.0119377,0.00700986,0.00519505,-0.0148058,0.388369,0.0119836,0.0243408,734,715,-6.4926,2.07543
-483,309,-6.18408,-2.53229,0,0,0,0,0,0,0,-1,741,715,-6.18406,2.5323
-476,309,-5.29486,-1.2262,0,0,0,0,0,0,0,-1,748,715,-5.29484,1.22622
-469,309,-4.22717,-0.592896,0,0,0,0,0,0,0,-1,755,715,-4.2272,0.592905
-462,309,-7.69855,1.83942,0,0,0,0,0,0,0,-1,762,715,-7.69854,-1.83943
-455,309,-5.70184,-1.18042,0,0,0,0,0,0,0,-1,769,715,-5.70185,1.18044
-448,309,-5.56927,-2.21387,0,0,0,0,0,0,0,-1,776,715,-5.56928,2.21385
-441,309,-7.34198,1.73737,0,0,0,0,0,0,0,-1,783,715,-7.34199,-1.73737
-434,309,-7.58209,1.37335,0,0,0,0,0,0,0,-1,790,715,-7.58208,-1.37335
-427,309,-7.76324,1.12799,0,0,0,0,0,0,0,-1,797,715,-7.76323,-1.12801
-420,309,-11.6252,2.34113,0,0,0,0,0,0,0,-1,804,715,-11.6252,-2.34114
-413,309,0,0,0,0,0,0,0,0,0,-1,811,715,0,0
-406,309,0,0,0,0,0,0,0,0,0,-1,818,715,0,0
-399,309,0,0,0,0,0,0,0,0,0,-1,825,715,0,0
-392,309,0,0,0,0,0,0,0,0,0,-1,832,715,0,0
-385,309,0,0,0,0,0,0,0,0,0,-1,839,715,0,0
-378,309,0,0,0,0,0,0,0,0,0,-1,846,715,0,0
-371,309,0,0,0,0,0,0,0,0,0,-1,853,715,0,0
-364,309,0,0,0,0,0,0,0,0,0,-1,860,715,0,0
-357,309,0,0,0,0,0,0,0,0,0,-1,867,715,0,0
-350,309,0,0,0,0,0,0,0,0,0,-1,874,715,0,0
-343,309,0,0,0,0,0,0,0,0,0,-1,881,715,0,0
-336,309,0,0,0,0,0,0,0,0,0,-1,888,715,0,0
-329,309,0,0,0,0,0,0,0,0,0,-1,895,715,0,0
-322,309,0,0,0,0,0,0,0,0,0,-1,902,715,0,0
-315,309,0,0,0,0,0,0,0,0,0,-1,909,715,0,0
-308,309,0,0,0,0,0,0,0,0,0,-1,916,715,0,0
-301,309,0,0,0,0,0,0,0,0,0,-1,923,715,0,0
-294,309,0,0,0,0,0,0,0,0,0,-1,930,715,0,0
-287,309,0,0,0,0,0,0,0,0,0,-1,937,715,0,0
-280,309,0,0,0,0,0,0,0,0,0,-1,944,715,0,0
-273,309,0,0,0,0,0,0,0,0,0,-1,951,715,0,0
-266,309,0,0,0,0,0,0,0,0,0,-1,958,715,0,0
-259,309,0,0,0,0,0,0,0,0,0,-1,965,715,0,0
-252,309,0,0,0,0,0,0,0,0,0,-1,972,715,0,0
-245,309,0,0,0,0,0,0,0,0,0,-1,979,715,0,0
-238,309,0,0,0,0,0,0,0,0,0,-1,986,715,0,0
-231,309,0,0,0,0,0,0,0,0,0,-1,993,715,0,0
-224,309,0,0,0,0,0,0,0,0,0,-1,1000,715,0,0
-217,309,0,0,0,0,0,0,0,0,0,-1,1007,715,0,0
-210,309,0,0,0,0,0,0,0,0,0,-1,1014,715,0,0
-203,309,0,0,0,0,0,0,0,0,0,-1,1021,715,0,0
-196,309,0,0,0,0,0,0,0,0,0,-1,1028,715,0,0
-189,309,0,0,0,0,0,0,0,0,0,-1,1035,715,0,0
-182,309,0,0,0,0,0,0,0,0,0,-1,1042,715,0,0
-175,309,0,0,0,0,0,0,0,0,0,-1,1049,715,0,0
-168,309,0,0,0,0,0,0,0,0,0,-1,1056,715,0,0
-161,309,0,0,0,0,0,0,0,0,0,-1,1063,715,0,0
-154,309,0,0,0,0,0,0,0,0,0,-1,1070,715,0,0
-147,309,0,0,0,0,0,0,0,0,0,-1,1077,715,0,0
-140,309,0,0,0,0,0,0,0,0,0,-1,1084,715,0,0
-133,309,0,0,0,0,0,0,0,0,0,-1,1091,715,0,0
-126,309,0,0,0,0,0,0,0,0,0,-1,1098,715,0,0
-119,309,0,0,0,0,0,0,0,0,0,-1,1105,715,0,0
-112,309,0,0,0,0,0,0,0,0,0,-1,1112,715,0,0
-105,309,0,0,0,0,0,0,0,0,0,-1,1119,715,0,0
-98,309,0,0,0,0,0,0,0,0,0,-1,1126,715,0,0
-91,309,0,0,0,0,0,0,0,0,0,-1,1133,715,0,0
-84,309,0,0,0,0,0,0,0,0,0,-1,1140,715,0,0
-77,309,0,0,0,0,0,0,0,0,0,-1,1147,715,0,0
-70,309,0,0,0,0,0,0,0,0,0,-1,1154,715,0,0
-63,309,0,0,0,0,0,0,0,0,0,-1,1161,715,0,0
-56,309,0,0,0,0,0,0,0,0,0,-1,1168,715,0,0
-49,309,0,0,0,0,0,0,0,0,0,-1,1175,715,0,0
-42,309,0,0,0,0,0,0,0,0,0,-1,1182,715,0,0
-35,309,0,0,0,0,0,0,0,0,0,-1,1189,715,0,0
-28,309,0,0,0,0,0,0,0,0,0,-1,1196,715,0,0
-21,309,0,0,0,0,0,0,0,0,0,-1,1203,715,0,0
-14,309,0,0,0,0,0,0,0,0,0,-1,1210,715,0,0
-7,309,0,0,0,0,0,0,0,0,0,-1,1217,715,0,0
0,309,0,0,0,0,0,0,0,0,0,-1,1224,715,0,0
7,309,0,0,0,0,0,0,0,0,0,-1,1231,715,0,0
14,309,0,0,0,0,0,0,0,0,0,-1,1238,715,0,0
21,309,0,0,0,0,0,0,0,0,0,-1,1245,715,0,0
28,309,0,0,0,0,0,0,0,0,0,-1,1252,715,0,0
35,309,0,0,0,0,0,0,0,0,0,-1,1259,715,0,0
42,309,0,0,0,0,0,0,0,0,0,-1,1266,715,0,0
49,309,0,0,0,0,0,0,0,0,0,-1,1273,715,0,0
56,309,0,0,0,0,0,0,0,0,0,-1,1280,715,0,0
63,309,0,0,0,0,0,0,0,0,0,-1,1287,715,0,0
70,309,0,0,0,0,0,0,0,0,0,-1,1294,715,0,0
77,309,0,0,0,0,0,0,0,0,0,-1,1301,715,0,0
84,309,0,0,0,0,0,0,0,0,0,-1,1308,715,0,0
91,309,0,0,0,0,0,0,0,0,0,-1,1315,715,0,0
98,309,0,0,0,0,0,0,0,0,0,-1,1322,715,0,0
105,309,0,0,0,0,0,0,0,0,0,-1,1329,715,0,0
112,309,0,0,0,0,0,0,0,0,0,-1,1336,715,0,0
119,309,0,0,0,0,0,0,0,0,0,-1,1343,715,0,0
126,309,0,0,0,0,0,0,0,0,0,-1,1350,715,0,0
133,309,0,0,0,0,0,0,0,0,0,-1,1357,715,0,0
140,309,0,0,0,0,0,0,0,0,0,-1,1364,715,0,0
147,309,0,0,0,0,0,0,0,0,0,-1,1371,715,0,0
154,309,0,0,0,0,0,0,0,0,0,-1,1378,715,0,0
161,309,0,0,0,0,0,0,0,0,0,-1,1385,715,0,0
168,309,0,0,0,0,0,0,0,0,0,-1,1392,715,0,0
175,309,0,0,0,0,0,0,0,0,0,-1,1399,715,0,0
182,309,0,0,0,0,0,0,0,0,0,-1,1406,715,0,0
189,309,0,0,0,0,0,0,0,0,0,-1,1413,715,0,0
196,309,0,0,0,0,0,0,0,0,0,-1,1420,715,0,0
203,309,0,0,0,0,0,0,0,0,0,-1,1427,715,0,0
210,309,0,0,0,0,0,0,0,0,0,-1,1434,715,0,0
217,309,0,0,0,0,0,0,0,0,0,-1,1441,715,0,0
224,309,0,0,0,0,0,0,0,0,0,-1,1448,715,0,0
231,309,0,0,0,0,0,0,0,0,0,-1,1455,715,0,0
238,309,0,0,0,0,0,0,0,0,0,-1,1462,715,0,0
245,309,0,0,0,0,0,0,0,0,0,-1,1469,715,0,0
252,309,0,0,0,0,0,0,0,0,0,-1,1476,715,0,0
259,309,0,0,0,0,0,0,0,0,0,-1,1483,715,0,0
266,309,0,0,0,0,0,0,0,0,0,-1,1490,715,0,0
273,309,0,0,0,0,0,0,0,0,0,-1,1497,715,0,0
280,309,0,0,0,0,0,0,0,0,0,-1,1504,715,0,0
287,309,0,0,0,0,0,0,0,0,0,-1,1511,715,0,0
294,309,0,0,0,0,0,0,0,0,0,-1,1518,715,0,0
301,309,0,0,0,0,0,0,0,0,0,-1,1525,715,0,0
308,309,0,0,0,0,0,0,0,0,0,-1,1532,715,0,0
315,309,0,0,0,0,0,0,0,0,0,-1,1539,715,0,0
322,309,0,0,0,0,0,0,0,0,0,-1,1546,715,0,0
329,309,0,0,0,0,0,0,0,0,0,-1,1553,715,0,0
336,309,0,0,0,0,0,0,0,0,0,-1,1560,715,0,0
343,309,0,0,0,0,0,0,0,0,0,-1,1567,715,0,0
350,309,0,0,0,0,0,0,0,0,0,-1,1574,715,0,0
357,309,0,0,0,0,0,0,0,0,0,-1,1581,715,0,0
364,309,0,0,0,0,0,0,0,0,0,-1,1588,715,0,0
371,309,0,0,0,0,0,0,0,0,0,-1,1595,715,0,0
378,309,0,0,0,0,0,0,0,0,0,-1,1602,715,0,0
385,309,0,0,0,0,0,0,0,0,0,-1,1609,715,0,0
392,309,0,0,0,0,0,0,0,0,0,-1,1616,715,0,0
399,309,0,0,0,0,0,0,0,0,0,-1,1623,715,0,0
406,309,0,0,0,0,0,0,0,0,0,-1,1630,715,0,0
413,309,0,0,0,0,0,0,0,0,0,-1,1637,715,0,0
420,309,0,0,0,0,0,0,0,0,0,-1,1644,715,0,0
427,309,0,0,0,0,0,0,0,0,0,-1,1651,715,0,0
434,309,0,0,0,0,0,0,0,0,0,-1,1658,715,0,0
441,309,0,0,0,0,0,0,0,0,0,-1,1665,715,0,0
448,309,0,0,0,0,0,0,0,0,0,-1,1672,715,0,0
455,309,0,0,0,0,0,0,0,0,0,-1,1679,715,0,0
462,309,0,0,0,0,0,0,0,0,0,-1,1686,715,0,0
469,309,0,0,0,0,0,0,0,0,0,-1,1693,715,0,0
476,309,0,0,0,0,0,0,0,0,0,-1,1700,715,0,0
483,309,0,0,0,0,0,0,0,0,0,-1,1707,715,0,0
490,309,0,0,0,0,0,0,0,0,0,-1,1714,715,0,0
497,309,0,0,0,0,0,0,0,0,0,-1,1721,715,0,0
504,309,0,0,0,0,0,0,0,0,0,-1,1728,715,0,0
511,309,0,0,0,0,0,0,0,0,0,-1,1735,715,0,0
518,309,0,0,0,0,0,0,0,0,0,-1,1742,715,0,0
525,309,0,0,0,0,0,0,0,0,0,-1,1749,715,0,0
532,309,0,0,0,0,0,0,0,0,0,-1,1756,715,0,0
539,309,14.8127,2.06628,0,0,0,0,0,0,0,-1,1763,715,14.8127,-2.06629
546,309,14.3623,3.09839,0,0,0,0,0,0,0,-1,1770,715,14.3623,-3.0984
553,309,14.3401,3.57642,0,0,0,0,0,0,0,-1,1777,715,14.34,-3.57643
560,309,13.0106,3.85083,0,0,0,0,0,0,0,-1,1784,715,13.0106,-3.85081
567,309,13.0269,4.10443,0,0,0,0,0,0,0,-1,1791,715,13.0269,-4.10444
574,309,12.7025,3.98077,0,0,0,0,0,0,0,-1,1798,715,12.7025,-3.98074
581,309,12.9982,4.55505,0,0,0,0,0,0,0,-1,1805,715,12.9982,-4.55505
588,309,13.0957,5.10406,0,0,0,0,0,0,0,-1,1812,715,13.0957,-5.10407
595,309,13.2393,5.22357,0,0,0,0,0,0,0,-1,1819,715,13.2392,-5.22355
602,309,11.0811,3.47772,0,0,0,0,0,0,0,-1,1826,715,11.0811,-3.47772
609,309,12.179,-0.583801,0,0,0,0,0,0,0,-1,1833,715,12.1789,0.583772
616,309,12.1683,-0.289734,-0.0132315,-0.00300273,-0.00522889,-0.000802861,-0.0154313,-1.17256,0.0100307,0.0253999,1840,715,12.1683,0.289748
623,309,12.1423,-0.0357056,-0.0120312,-0.00425123,-0.00385464,-0.00266488,-0.0136175,-1.18038,0.00833333,0.0108596,1847,715,12.1423,0.035692
630,309,12.1014,0.20166,-0.00981945,-0.00442907,-0.0026515,-0.00334346,-0.0109051,-1.18218,0.00645113,0.0108583,1854,715,12.1014,-0.201645
637,309,12.0958,0.448181,-0.00695859,-0.00359782,-0.00157661,-0.00297399,-0.00758241,-1.19402,0.00441148,0.0135644,1861,715,12.0958,-0.448165
644,309,12.1108,0.693298,-0.00416872,-0.00219044,-0.00112838,-0.00167903,-0.00468012,-1.14527,0.00273777,0.0142255,1868,715,12.1108,-0.693289
651,309,12.1226,0.930054,-0.00187913,-0.00100206,-0.000660188,-0.000648027,-0.00223316,-1.07856,0.00132662,0.013125,1875,715,12.1226,-0.930083
658,309,12.1409,1.14624,4.72366e-05,0.000364085,-2.90419e-05,0.000366725,4.45966e-05,-1.48014,0.000231057,0.0185186,1882,715,12.1409,-1.14623
665,309,12.1378,1.39532,0.00243837,0.00326559,0.000557296,0.00354599,0.00215797,1.10463,0.0020633,0.0165571,1889,715,12.1378,-1.3953
672,309,12.1488,1.63885,0.00528038,0.00695117,0.00126878,0.00763488,0.00459666,1.07653,0.00443851,0.0146781,1896,715,12.1489,-1.63885
679,309,12.1592,1.87018,0.00842726,0.0111696,0.00196452,0.0121942,0.00740272,1.09008,0.0070939,0.0151737,1903,715,12.1591,-1.87017
686,309,12.1201,2.08398,0.0130767,0.0171322,0.00286561,0.0186149,0.011594,1.09331,0.0108549,0.0209152,1910,715,12.1202,-2.08398
693,309,11.8262,2.24579,0.0197938,0.025605,0.00402534,0.0276639,0.017735,1.09801,0.0161823,0.0364577,1917,715,11.8261,-2.24577
700,309,11.6029,2.42194,0,0,0,0,0,0,0,-1,1924,715,11.6029,-2.42191
707,309,12.095,5.50159,0,0,0,0,0,0,0,-1,1931,715,12.0949,-5.50158
714,309,12.6477,5.3147,0.056807,0.0705851,0.0089536,0.0749932,0.0523989,1.1133,0.0444225,0.0495945,1938,715,12.6477,-5.31468
721,309,13.5358,5.03687,0.0759757,0.0931296,0.0109247,0.098442,0.0706634,1.11819,0.0586056,0.0467913,1945,715,13.5358,-5.03687
728,309,0,0,0,0,0,0,0,0,0,-1,1952,715,0,0
735,309,0,0,0,0,0,0,0,0,0,-1,1959,715,0,0
742,309,0,0,0,0,0,0,0,0,0,-1,1966,715,0,0
749,309,0,0,0,0,0,0,0,0,0,-1,1973,715,0,0
756,309,0,0,0,0,0,0,0,0,0,-1,1980,715,0,0
763,309,0,0,0,0,0,0,0,0,0,-1,1987,715,0,0
770,309,0,0,0,0,0,0,0,0,0,-1,1994,715,0,0
777,309,0,0,0,0,0,0,0,0,0,-1,2001,715,0,0
784,309,0,0,0,0,0,0,0,0,0,-1,2008,715,0,0
791,309,0,0,0,0,0,0,0,0,0,-1,2015,715,0,0
798,309,0,0,0,0,0,0,0,0,0,-1,2022,715,0,0
805,309,0,0,0,0,0,0,0,0,0,-1,2029,715,0,0
812,309,0,0,0,0,0,0,0,0,0,-1,2036,715,0,0
-700,302,0,0,0,0,0,0,0,0,0,-1,524,722,0,0
-693,302,0,0,0,0,0,0,0,0,0,-1,531,722,0,0
-686,302,0,0,0,0,0,0,0,0,0,-1,538,722,0,0
-679,302,0,0,0,0,0,0,0,0,0,-1,545,722,0,0
-672,302,0,0,0,0,0,0,0,0,0,-1,552,722,0,0
-665,302,0,0,0,0,0,0,0,0,0,-1,559,722,0,0
-658,302,0,0,0,0,0,0,0,0,0,-1,566,722,0,0
-651,302,0,0,0,0,0,0,0,0,0,-1,573,722,0,0
-644,302,0,0,0,0,0,0,0,0,0,-1,580,722,0,0
-637,302,0,0,0,0,0,0,0,0,0,-1,587,722,0,0
-630,302,0,0,0,0,0,0,0,0,0,-1,594,722,0,0
-623,302,0,0,0,0,0,0,0,0,0,-1,601,722,0,0
-616,302,0,0,0,0,0,0,0,0,0,-1,608,722,0,0
-609,302,-6.14014,-3.6167,0,0,0,0,0,0,0,-1,615,722,-6.14016,3.61669
-602,302,0.92865,-1.99158,0,0,0,0,0,0,0,-1,622,722,0.928637,1.99157
-595,302,-7.89941,2.13641,0,0,0,0,0,0,0,-1,629,722,-7.89939,-2.13639
-588,302,-7.10895,1.79163,0,0,0,0,0,0,0,-1,636,722,-7.10896,-1.79163
-581,302,-6.27838,-0.314636,0,0,0,0,0,0,0,-1,643,722,-6.27835,0.314632
-574,302,-5.7113,-0.884644,0,0,0,0,0,0,0,-1,650,722,-5.71132,0.884664
-567,302,-5.90167,-0.463196,0.0128787,0.00960504,0.00245752,0.0141946,0.00828915,0.491609,0.00823369,0.0443019,657,722,-5.9017,0.463183
-560,302,-6.41608,-0.0273438,0.00732209,0.00696767,0.00236097,0.00951249,0.00477727,0.74794,0.00549206,0.0404509,664,722,-6.41608,0.0273614
-553,302,-6.73273,-0.109009,0.00445511,0.00490591,0.00197716,0.00667048,0.00269054,0.842155,0.00387511,0.017182,671,722,-6.7327,0.109008
-546,302,-6.75684,-0.368652,0.00243049,0.00340349,0.00162057,0.00460901,0.00122497,0.931219,0.00275662,0.0150395,678,722,-6.75682,0.368622
-539,302,-6.77167,-0.549622,0.00122555,0.00210343,0.00151693,0.00324365,8.53259e-05,0.926233,0.00213456,0.0147989,685,722,-6.77169,0.549639
-532,302,-6.76746,-0.752869,0.000801397,0.00112587,0.00176802,0.00273908,-0.000811816,0.83115,0.00214841,0.0135683,692,722,-6.76745,0.752844
-525,302,-6.75305,-1.01318,0.000902833,0.000195213,0.00231915,0.002895,-0.00179696,0.709702,0.00273352,0.0187762,699,722,-6.75305,1.01319
-518,302,-6.7583,-1.2179,0.00113484,-0.00098036,0.00322702,0.00347315,-0.00331866,0.627047,0.00392159,0.0205091,706,722,-6.75831,1.21786
-511,302,-6.73102,-1.41174,0.00138626,-0.00312361,0.00434862,0.00402982,-0.00576717,0.546213,0.00568587,0.0114655,713,722,-6.73103,1.41172
-504,302,-6.73499,-1.62787,0.00176227,-0.00638483,0.00571775,0.00470915,-0.00933171,0.475885,0.00825164,0.0100866,720,722,-6.73497,1.62788
-497,302,-6.73743,-1.83649,0.00206948,-0.0101422,0.0075419,0.00566733,-0.01374,0.445118,0.0115234,0.0138357,727,722,-6.73743,1.83649
-490,302,-6.67767,-2.00323,0.00192647,-0.015454,0.00961571,0.00619702,-0.0197245,0.417955,0.0156304,0.0336963,734,722,-6.67767,2.00322
-483,302,-6.42291,-2.05035,0,0,0,0,0,0,0,-1,741,722,-6.42293,2.05036
-476,302,-4.29749,-0.203491,0,0,0,0,0,0,0,-1,748,722,-4.29751,0.203464
-469,302,-7.73517,2.19983,0,0,0,0,0,0,0,-1,755,722,-7.73515,-2.19982
-462,302,-8.16956,2.04803,0,0,0,0,0,0,0,-1,762,722,-8.16956,-2.04802
-455,302,-11.7719,-0.259155,0,0,0,0,0,0,0,-1,769,722,-11.7719,0.259169
-448,302,-7.46857,2.26135,0,0,0,0,0,0,0,-1,776,722,-7.46855,-2.26136
-441,302,-7.73749,2.30029,0,0,0,0,0,0,0,-1,783,722,-7.73751,-2.30028
-434,302,-9.01862,1.82251,0,0,0,0,0,0,0,-1,790,722,-9.01861,-1.82254
-427,302,-7.91388,1.72229,0,0,0,0,0,0,0,-1,797,722,-7.91388,-1.72227
-420,302,0,0,0,0,0,0,0,0,0,-1,804,722,0,0
-413,302,0,0,0,0,0,0,0,0,0,-1,811,722,0,0
-406,302,0,0,0,0,0,0,0,0,0,-1,818,722,0,0
-399,302,0,0,0,0,0,0,0,0,0,-1,825,722,0,0
-392,302,0,0,0,0,0,0,0,0,0,-1,832,722,0,0
-385,302,0,0,0,0,0,0,0,0,0,-1,839,722,0,0
-378,302,0,0,0,0,0,0,0,0,0,-1,846,722,0,0
-371,302,0,0,0,0,0,0,0,0,0,-1,853,722,0,0
-364,302,0,0,0,0,0,0,0,0,0,-1,860,722,0,0
-357,302,0,0,0,0,0,0,0,0,0,-1,867,722,0,0
-350,302,0,0,0,0,0,0,0,0,0,-1,874,722,0,0
-343,302,0,0,0,0,0,0,0,0,0,-1,881,722,0,0
-336,302,0,0,0,0,0,0,0,0,0,-1,888,722,0,0
-329,302,0,0,0,0,0,0,0,0,0,-1,895,722,0,0
-322,302,0,0,0,0,0,0,0,0,0,-1,902,722,0,0
-315,302,0,0,0,0,0,0,0,0,0,-1,909,722,0,0
-308,302,0,0,0,0,0,0,0,0,0,-1,916,722,0,0
-301,302,0,0,0,0,0,0,0,0,0,-1,923,722,0,0
-294,302,0,0,0,0,0,0,0,0,0,-1,930,722,0,0
-287,302,0,0,0,0,0,0,0,0,0,-1,937,722,0,0
-280,302,0,0,0,0,0,0,0,0,0,-1,944,722,0,0
-273,302,0,0,0,0,0,0,0,0,0,-1,951,722,0,0
-266,302,0,0,0,0,0,0,0,0,0,-1,958,722,0,0
-259,302,0,0,0,0,0,0,0,0,0,-1,965,722,0,0
-252,302,0,0,0,0,0,0,0,0,0,-1,972,722,0,0
-245,302,0,0,0,0,0,0,0,0,0,-1,979,722,0,0
-238,302,0,0,0,0,0,0,0,0,0,-1,986,722,0,0
-231,302,0,0,0,0,0,0,0,0,0,-1,993,722,0,0
-224,302,0,0,0,0,0,0,0,0,0,-1,1000,722,0,0
-217,302,0,0,0,0,0,0,0,0,0,-1,1007,722,0,0
-210,302,0,0,0,0,0,0,0,0,0,-1,1014,722,0,0
-203,302,0,0,0,0,0,0,0,0,0,-1,1021,722,0,0
-196,302,0,0,0,0,0,0,0,0,0,-1,1028,722,0,0
-189,302,0,0,0,0,0,0,0,0,0,-1,1035,722,0,0
-182,302,0,0,0,0,0,0,0,0,0,-1,1042,722,0,0
-175,302,0,0,0,0,0,0,0,0,0,-1,1049,722,0,0
-168,302,0,0,0,0,0,0,0,0,0,-1,1056,722,0,0
-161,302,0,0,0,0,0,0,0,0,0,-1,1063,722,0,0
-154,302,0,0,0,0,0,0,0,0,0,-1,1070,722,0,0
-147,302,0,0,0,0,0,0,0,0,0,-1,1077,722,0,0
-140,302,0,0,0,0,0,0,0,0,0,-1,1084,722,0,0
-133,302,0,0,0,0,0,0,0,0,0,-1,1091,722,0,0
-126,302,0,0,0,0,0,0,0,0,0,-1,1098,722,0,0
-119,302,0,0,0,0,0,0,0,0,0,-1,1105,722,0,0
-112,302,0,0,0,0,0,0,0,0,0,-1,1112,722,0,0
-105,302,0,0,0,0,0,0,0,0,0,-1,1119,722,0,0
-98,302,0,0,0,0,0,0,0,0,0,-1,1126,722,0,0
-91,302,0,0,0,0,0,0,0,0,0,-1,1133,722,0,0
-84,302,0,0,0,0,0,0,0,0,0,-1,1140,722,0,0
-77,302,0,0,0,0,0,0,0,0,0,-1,1147,722,0,0
-70,302,0,0,0,0,0,0,0,0,0,-1,1154,722,0,0
-63,302,0,0,0,0,0,0,0,0,0,-1,1161,722,0,0
-56,302,0,0,0,0,0,0,0,0,0,-1,1168,722,0,0
-49,302,0,0,0,0,0,0,0,0,0,-1,1175,722,0,0
-42,302,0,0,0,0,0,0,0,0,0,-1,1182,722,0,0
-35,302,0,0,0,0,0,0,0,0,0,-1,1189,722,0,0
-28,302,0,0,0,0,0,0,0,0,0,-1,1196,722,0,0
-21,302,0,0,0,0,0,0,0,0,0,-1,1203,722,0,0
-14,302,0,0,0,0,0,0,0,0,0,-1,1210,722,0,0
-7,302,0,0,0,0,0,0,0,0,0,-1,1217,722,0,0
0,302,0,0,0,0,0,0,0,0,0,-1,1224,722,0,0
7,302,0,0,0,0,0,0,0,0,0,-1,1231,722,0,0
14,302,0,0,0,0,0,0,0,0,0,-1,1238,722,0,0
21,302,0,0,0,0,0,0,0,0,0,-1,1245,722,0,0
28,302,0,0,0,0,0,0,0,0,0,-1,1252,722,0,0
35,302,0,0,0,0,0,0,0,0,0,-1,1259,722,0,0
42,302,0,0,0,0,0,0,0,0,0,-1,1266,722,0,0
49,302,0,0,0,0,0,0,0,0,0,-1,1273,722,0,0
56,302,0,0,0,0,0,0,0,0,0,-1,1280,722,0,0
63,302,0,0,0,0,0,0,0,0,0,-1,1287,722,0,0
70,302,0,0,0,0,0,0,0,0,0,-1,1294,722,0,0
77,302,0,0,0,0,0,0,0,0,0,-1,1301,722,0,0
84,302,0,0,0,0,0,0,0,0,0,-1,1308,722,0,0
91,302,0,0,0,0,0,0,0,0,0,-1,1315,722,0,0
98,302,0,0,0,0,0,0,0,0,0,-1,1322,722,0,0
105,302,0,0,0,0,0,0,0,0,0,-1,1329,722,0,0
112,302,0,0,0,0,0,0,0,0,0,-1,1336,722,0,0
119,302,0,0,0,0,0,0,0,0,0,-1,1343,722,0,0
126,302,0,0,0,0,0,0,0,0,0,-1,1350,722,0,0
133,302,0,0,0,0,0,0,0,0,0,-1,1357,722,0,0
140,302,0,0,0,0,0,0,0,0,0,-1,1364,722,0,0
147,302,0,0,0,0,0,0,0,0,0,-1,1371,722,0,0
154,302,0,0,0,0,0,0,0,0,0,-1,1378,722,0,0
161,302,0,0,0,0,0,0,0,0,0,-1,1385,722,0,0
168,302,0,0,0,0,0,0,0,0,0,-1,1392,722,0,0
175,302,0,0,0,0,0,0,0,0,0,-1,1399,722,0,0
182,302,0,0,0,0,0,0,0,0,0,-1,1406,722,0,0
189,302,0,0,0,0,0,0,0,0,0,-1,1413,722,0,0
196,302,0,0,0,0,0,0,0,0,0,-1,1420,722,0,0
203,302,0,0,0,0,0,0,0,0,0,-1,1427,722,0,0
210,302,0,0,0,0,0,0,0,0,0,-1,1434,722,0,0
217,302,0,0,0,0,0,0,0,0,0,-1,1441,722,0,0
224,302,0,0,0,0,0,0,0,0,0,-1,1448,722,0,0
231,302,0,0,0,0,0,0,0,0,0,-1,1455,722,0,0
238,302,0,0,0,0,0,0,0,0,0,-1,1462,722,0,0
245,302,0,0,0,0,0,0,0,0,0,-1,1469,722,0,0
252,302,0,0,0,0,0,0,0,0,0,-1,1476,722,0,0
259,302,0,0,0,0,0,0,0,0,0,-1,1483,722,0,0
266,302,0,0,0,0,0,0,0,0,0,-1,1490,722,0,0
273,302,0,0,0,0,0,0,0,0,0,-1,1497,722,0,0
280,302,0,0,0,0,0,0,0,0,0,-1,1504,722,0,0
287,302,0,0,0,0,0,0,0,0,0,-1,1511,722,0,0
294,302,0,0,0,0,0,0,0,0,0,-1,1518,722,0,0
301,302,0,0,0,0,0,0,0,0,0,-1,1525,722,0,0
308,302,0,0,0,0,0,0,0,0,0,-1,1532,722,0,0
315,302,0,0,0,0,0,0,0,0,0,-1,1539,722,0,0
322,302,0,0,0,0,0,0,0,0,0,-1,1546,722,0,0
329,302,0,0,0,0,0,0,0,0,0,-1,1553,722,0,0
336,302,0,0,0,0,0,0,0,0,0,-1,1560,722,0,0
343,302,0,0,0,0,0,0,0,0,0,-1,1567,722,0,0
350,302,0,0,0,0,0,0,0,0,0,-1,1574,722,0,0
357,302,0,0,0,0,0,0,0,0,0,-1,1581,722,0,0
364,302,0,0,0,0,0,0,0,0,0,-1,1588,722,0,0
371,302,0,0,0,0,0,0,0,0,0,-1,1595,722,0,0
378,302,0,0,0,0,0,0,0,0,0,-1,1602,722,0,0
385,302,0,0,0,0,0,0,0,0,0,-1,1609,722,0,0
392,302,0,0,0,0,0,0,0,0,0,-1,1616,722,0,0
399,302,0,0,0,0,0,0,0,0,0,-1,1623,722,0,0
406,302,0,0,0,0,0,0,0,0,0,-1,1630,722,0,0
413,302,0,0,0,0,0,0,0,0,0,-1,1637,722,0,0
420,302,0,0,0,0,0,0,0,0,0,-1,1644,722,0,0
427,302,0,0,0,0,0,0,0,0,0,-1,1651,722,0,0
434,302,0,0,0,0,0,0,0,0,0,-1,1658,722,0,0
441,302,0,0,0,0,0,0,0,0,0,-1,1665,722,0,0
448,302,0,0,0,0,0,0,0,0,0,-1,1672,722,0,0
455,302,0,0,0,0,0,0,0,0,0,-1,1679,722,0,0
462,302,0,0,0,0,0,0,0,0,0,-1,1686,722,0,0
469,302,0,0,0,0,0,0,0,0,0,-1,1693,722,0,0
476,302,0,0,0,0,0,0,0,0,0,-1,1700,722,0,0
483,302,0,0,0,0,0,0,0,0,0,-1,1707,722,0,0
490,302,0,0,0,0,0,0,0,0,0,-1,1714,722,0,0
497,302,0,0,0,0,0,0,0,0,0,-1,1721,722,0,0
504,302,0,0,0,0,0,0,0,0,0,-1,1728,722,0,0
511,302,0,0,0,0,0,0,0,0,0,-1,1735,722,0,0
518,302,0,0,0,0,0,0,0,0,0,-1,1742,722,0,0
525,302,0,0,0,0,0,0,0,0,0,-1,1749,722,0,0
532,302,0,0,0,0,0,0,0,0,0,-1,1756,722,0,0
539,302,0,0,0,0,0,0,0,0,0,-1,1763,722,0,0
546,302,13.7178,5.16223,0,0,0,0,0,0,0,-1,1770,722,13.7177,-5.16222
553,302,13.7627,3.76025,0,0,0,0,0,0,0,-1,1777,722,13.7627,-3.76025
560,302,16.8666,4.35394,0,0,0,0,0,0,0,-1,1784,722,16.8666,-4.35397
567,302,13.3867,3.83221,0,0,0,0,0,0,0,-1,1791,722,13.3867,-3.8322
574,302,13.5532,3.74139,0,0,0,0,0,0,0,-1,1798,722,13.5532,-3.74142
581,302,13.8442,4.21185,0,0,0,0,0,0,0,-1,1805,722,13.8442,-4.21187
588,302,13.9962,4.61115,0,0,0,0,0,0,0,-1,1812,722,13.9963,-4.61117
595,302,14.2603,4.97107,0,0,0,0,0,0,0,-1,1819,722,14.2602,-4.97107
602,302,14.7349,5.21246,0,0,0,0,0,0,0,-1,1826,722,14.7349,-5.21247
609,302,11.1578,-0.125854,0,0,0,0,0,0,0,-1,1833,722,11.1579,0.125839
616,302,12.3906,-0.2901,0,0,0,0,0,0,0,-1,1840,722,12.3906,0.290097
623,302,12.381,-0.0425415,-0.019803,-0.00446224,-0.00485273,-0.00305607,-0.0212092,-1.28875,0.0132389,0.0150032,1847,722,12.381,0.0425156
630,302,12.3479,0.215088,-0.0174514,-0.00509131,-0.00380332,-0.00401475,-0.0185279,-1.29496,0.011255,0.0115492,1854,722,12.348,-0.215076
637,302,12.314,0.451416,-0.0134788,-0.0044708,-0.00264835,-0.00374988,-0.0141997,-1.30502,0.00849697,0.0141373,1861,722,12.314,-0.451439
644,302,12.3474,0.689392,-0.00884237,-0.00285362,-0.0020703,-0.0022076,-0.00948838,-1.26833,0.00573319,0.0149942,1868,722,12.3474,-0.689404
651,302,12.3822,0.934998,-0.00486478,-0.00157819,-0.00137559,-0.00107844,-0.00536454,-1.22232,0.00327658,0.01425,1875,722,12.3822,-0.934988
658,302,12.386,1.14648,-0.0016209,-0.000167152,-0.000566624,2.76076e-05,-0.00181566,-1.23973,0.00121975,0.0142975,1882,722,12.386,-1.1465
665,302,12.3762,1.38788,0.00146238,0.00255255,0.000252941,0.00260838,0.00140655,1.35356,0.00150749,0.0133957,1889,722,12.3763,-1.38788
672,302,12.3756,1.6192,0.00441798,0.00598727,0.00100481,0.00647751,0.00392774,1.11689,0.00376789,0.0112135,1896,722,12.3755,-1.61918
679,302,12.3579,1.85883,0.00726074,0.00977841,0.00157452,0.0105355,0.0065037,1.12262,0.0061382,0.00956129,1903,722,12.3579,-1.85884
686,302,12.3623,2.07367,0.0113008,0.0148245,0.00228414,0.0159474,0.010178,1.11391,0.00932375,0.0128237,1910,722,12.3623,-2.07369
693,302,12.2124,2.20331,0.0169772,0.0219222,0.00318218,0.0234795,0.0154199,1.11567,0.0137761,0.0281331,1917,722,12.2124,-2.20328
700,302,12.5332,2.6261,0,0,0,0,0,0,0,-1,1924,722,12.5332,-2.62608
707,302,12.6702,3.48621,0,0,0,0,0,0,0,-1,1931,722,12.6702,-3.48623
714,302,12.7115,4.37756,0.048762,0.0593138,0.00728422,0.0630321,0.0450437,1.09882,0.0374924,0.0429652,1938,722,12.7116,-4.37755
721,302,13.1056,4.55646,0.0655509,0.0778652,0.00905985,0.0826621,0.060754,1.08385,0.0494504,0.0454705,1945,722,13.1055,-4.55643
728,302,13.6528,4.55371,0,0,0,0,0,0,0,-1,1952,722,13.6528,-4.55373
735,302,0,0,0,0,0,0,0,0,0,-1,1959,722,0,0
742,302,0,0,0,0,0,0,0,0,0,-1,1966,722,0,0
749,302,0,0,0,0,0,0,0,0,0,-1,1973,722,0,0
756,302,0,0,0,0,0,0,0,0,0,-1,1980,722,0,0
763,302,0,0,0,0,0,0,0,0,0,-1,1987,722,0,0
770,302,0,0,0,0,0,0,0,0,0,-1,1994,722,0,0
777,302,0,0,0,0,0,0,0,0,0,-1,2001,722,0,0
784,302,0,0,0,0,0,0,0,0,0,-1,2008,722,0,0
791,302,0,0,0,0,0,0,0,0,0,-1,2015,722,0,0
798,302,0,0,0,0,0,0,0,0,0,-1,2022,722,0,0
805,302,0,0,0,0,0,0,0,0,0,-1,2029,722,0,0
812,302,0,0,0,0,0,0,0,0,0,-1,2036,722,0,0
-700,295,0,0,0,0,0,0,0,0,0,-1,524,729,0,0
-693,295,0,0,0,0,0,0,0,0,0,-1,531,729,0,0
-686,295,0,0,0,0,0,0,0,0,0,-1,538,729,0,0
-679,295,0,0,0,0,0,0,0,0,0,-1,545,729,0,0
-672,295,0,0,0,0,0,0,0,0,0,-1,552,729,0,0
-665,295,0,0,0,0,0,0,0,0,0,-1,559,729,0,0
-658,295,0,0,0,0,0,0,0,0,0,-1,566,729,0,0
-651,295,0,0,0,0,0,0,0,0,0,-1,573,729,0,0
-644,295,0,0,0,0,0,0,0,0,0,-1,580,729,0,0
-637,295,0,0,0,0,0,0,0,0,0,-1,587,729,0,0
-630,295,0,0,0,0,0,0,0,0,0,-1,594,729,0,0
-623,295,0,0,0,0,0,0,0,0,0,-1,601,729,0,0
-616,295,-6.39587,-4.52765,0,0,0,0,0,0,0,-1,608,729,-6.3959,4.52767
-609,295,-0.974609,-0.692993,0,0,0,0,0,0,0,-1,615,729,-0.974582,0.692966
-602,295,-0.795044,-1.32373,0,0,0,0,0,0,0,-1,622,729,-0.795031,1.32371
-595,295,-0.615479,-1.95447,0,0,0,0,0,0,0,-1,629,729,-0.615481,1.95445
-588,295,-7.98999,1.56903,0,0,0,0,0,0,0,-1,636,729,-7.98997,-1.56905
-581,295,-7.21967,0.583313,0,0,0,0,0,0,0,-1,643,729,-7.21967,-0.583318
-574,295,-7.17896,0.275085,0.0162809,0.00974973,0.00341655,0.0177415,0.00828913,0.403993,0.0102504,0.0460793,650,729,-7.17896,-0.275058
-567,295,-6.58777,-0.221924,0.0100401,0.00671073,0.0033186,0.0120882,0.0046627,0.552923,0.0070396,0.0425639,657,729,-6.58775,0.221895
-560,295,-6.90253,0.0613403,0.00540827,0.00483299,0.00308277,0.00821679,0.00202447,0.73888,0.00494321,0.0235325,664,729,-6.90256,-0.0613572
-553,295,-6.94391,-0.165833,0.003229,0.00327442,0.00254678,0.00579859,0.000704822,0.789857,0.00365352,0.0165472,671,729,-6.94392,0.165852
-546,295,-6.98187,-0.362976,0.00166868,0.00212762,0.00215657,0.0040669,-0.000270595,0.838401,0.00280582,0.0207599,678,729,-6.98184,0.363006
-539,295,-6.98584,-0.518188,0.000744071,0.00105656,0.00205736,0.0029636,-0.00116297,0.823298,0.00245692,0.0190217,685,729,-6.98582,0.518166
-532,295,-6.96838,-0.747986,0.000473388,0.000324157,0.00235848,0.00275843,-0.00196089,0.769585,0.00273764,0.0147446,692,729,-6.96837,0.747979
-525,295,-6.94507,-0.993225,0.000665668,-0.00033421,0.00304429,0.0032508,-0.00291934,0.704014,0.00356404,0.0145171,699,729,-6.94508,0.99322
-518,295,-6.94037,-1.18933,0.000954441,-0.00141717,0.00418012,0.00411369,-0.00457642,0.64719,0.00501961,0.0111918,706,729,-6.94038,1.18932
-511,295,-6.95435,-1.38593,0.00119673,-0.00370517,0.00563563,0.00489131,-0.00739975,0.580284,0.00714534,0.00934334,713,729,-6.95438,1.38592
-504,295,-6.95154,-1.61224,0.00146269,-0.00730217,0.00738508,0.00566776,-0.0115072,0.517616,0.0101052,0.0110957,720,729,-6.95155,1.61227
-497,295,-6.94971,-1.7984,0.00159487,-0.0114874,0.00966356,0.00672295,-0.0166155,0.487875,0.0138721,0.0155539,727,729,-6.94968,1.79837
-490,295,-6.95972,-1.96533,0,0,0,0,0,0,0,-1,734,729,-6.95974,1.96534
-483,295,-6.84503,-0.454651,0,0,0,0,0,0,0,-1,741,729,-6.84505,0.454639
-476,295,-8.34387,1.93433,0,0,0,0,0,0,0,-1,748,729,-8.34386,-1.93432
-469,295,-8.54846,2.02832,0,0,0,0,0,0,0,-1,755,729,-8.54845,-2.02833
-462,295,-12.5914,0.156677,0,0,0,0,0,0,0,-1,762,729,-12.5913,-0.156682
-455,295,-7.43164,-3.13025,0,0,0,0,0,0,0,-1,769,729,-7.43166,3.13028
-448,295,-7.49567,-3.73322,0,0,0,0,0,0,0,-1,776,729,-7.49564,3.7332
-441,295,-7.13422,-4.7157,0,0,0,0,0,0,0,-1,783,729,-7.1342,4.7157
-434,295,-11.7062,-1.51434,0,0,0,0,0,0,0,-1,790,729,-11.7062,1.51432
-427,295,0,0,0,0,0,0,0,0,0,-1,797,729,0,0
-420,295,0,0,0,0,0,0,0,0,0,-1,804,729,0,0
-413,295,0,0,0,0,0,0,0,0,0,-1,811,729,0,0
-406,295,0,0,0,0,0,0,0,0,0,-1,818,729,0,0
-399,295,0,0,0,0,0,0,0,0,0,-1,825,729,0,0
-392,295,0,0,0,0,0,0,0,0,0,-1,832,729,0,0
-385,295,0,0,0,0,0,0,0,0,0,-1,839,729,0,0
-378,295,0,0,0,0,0,0,0,0,0,-1,846,729,0,0
-371,295,0,0,0,0,0,0,0,0,0,-1,853,729,0,0
-364,295,0,0,0,0,0,0,0,0,0,-1,860,729,0,0
-357,295,0,0,0,0,0,0,0,0,0,-1,867,729,0,0
-350,295,0,0,0,0,0,0,0,0,0,-1,874,729,0,0
-343,295,0,0,0,0,0,0,0,0,0,-1,881,729,0,0
-336,295,0,0,0,0,0,0,0,0,0,-1,888,729,0,0
-329,295,0,0,0,0,0,0,0,0,0,-1,895,729,0,0
-322,295,0,0,0,0,0,0,0,0,0,-1,902,729,0,0
-315,295,0,0,0,0,0,0,0,0,0,-1,909,729,0,0
-308,295,0,0,0,0,0,0,0,0,0,-1,916,729,0,0
-301,295,0,0,0,0,0,0,0,0,0,-1,923,729,0,0
-294,295,0,0,0,0,0,0,0,0,0,-1,930,729,0,0
-287,295,0,0,0,0,0,0,0,0,0,-1,937,729,0,0
-280,295,0,0,0,0,0,0,0,0,0,-1,944,729,0,0
-273,295,0,0,0,0,0,0,0,0,0,-1,951,729,0,0
-266,295,0,0,0,0,0,0,0,0,0,-1,958,729,0,0
-259,295,0,0,0,0,0,0,0,0,0,-1,965,729,0,0
-252,295,0,0,0,0,0,0,0,0,0,-1,972,729,0,0
-245,295,0,0,0,0,0,0,0,0,0,-1,979,729,0,0
-238,295,0,0,0,0,0,0,0,0,0,-1,986,729,0,0
-231,295,0,0,0,0,0,0,0,0,0,-1,993,729,0,0
-224,295,0,0,0,0,0,0,0,0,0,-1,1000,729,0,0
-217,295,0,0,0,0,0,0,0,0,0,-1,1007,729,0,0
-210,295,0,0,0,0,0,0,0,0,0,-1,1014,729,0,0
-203,295,0,0,0,0,0,0,0,0,0,-1,1021,729,0,0
-196,295,0,0,0,0,0,0,0,0,0,-1,1028,729,0,0
-189,295,0,0,0,0,0,0,0,0,0,-1,1035,729,0,0
-182,295,0,0,0,0,0,0,0,0,0,-1,1042,729,0,0
-175,295,0,0,0,0,0,0,0,0,0,-1,1049,729,0,0
-168,295,0,0,0,0,0,0,0,0,0,-1,1056,729,0,0
-161,295,0,0,0,0,0,0,0,0,0,-1,1063,729,0,0
-154,295,0,0,0,0,0,0,0,0,0,-1,1070,729,0,0
-147,295,0,0,0,0,0,0,0,0,0,-1,1077,729,0,0
-140,295,0,0,0,0,0,0,0,0,0,-1,1084,729,0,0
-133,295,0,0,0,0,0,0,0,0,0,-1,1091,729,0,0
-126,295,0,0,0,0,0,0,0,0,0,-1,1098,729,0,0
-119,295,0,0,0,0,0,0,0,0,0,-1,1105,729,0,0
-112,295,0,0,0,0,0,0,0,0,0,-1,1112,729,0,0
-105,295,0,0,0,0,0,0,0,0,0,-1,1119,729,0,0
-98,295,0,0,0,0,0,0,0,0,0,-1,1126,729,0,0
-91,295,0,0,0,0,0,0,0,0,0,-1,1133,729,0,0
-84,295,0,0,0,0,0,0,0,0,0,-1,1140,729,0,0
-77,295,0,0,0,0,0,0,0,0,0,-1,1147,729,0,0
-70,295,0,0,0,0,0,0,0,0,0,-1,1154,729,0,0
-63,295,0,0,0,0,0,0,0,0,0,-1,1161,729,0,0
-56,295,0,0,0,0,0,0,0,0,0,-1,1168,729,0,0
-49,295,0,0,0,0,0,0,0,0,0,-1,1175,729,0,0
-42,295,0,0,0,0,0,0,0,0,0,-1,1182,729,0,0
-35,295,0,0,0,0,0,0,0,0,0,-1,1189,729,0,0
-28,295,0,0,0,0,0,0,0,0,0,-1,1196,729,0,0
-21,295,0,0,0,0,0,0,0,0,0,-1,1203,729,0,0
-14,295,0,0,0,0,0,0,0,0,0,-1,1210,729,0,0
-7,295,0,0,0,0,0,0,0,0,0,-1,1217,729,0,0
0,295,0,0,0,0,0,0,0,0,0,-1,1224,729,0,0
7,295,0,0,0,0,0,0,0,0,0,-1,1231,729,0,0
14,295,0,0,0,0,0,0,0,0,0,-1,1238,729,0,0
21,295,0,0,0,0,0,0,0,0,0,-1,1245,729,0,0
28,295,0,0,0,0,0,0,0,0,0,-1,1252,729,0,0
35,295,0,0,0,0,0,0,0,0,0,-1,1259,729,0,0
42,295,0,0,0,0,0,0,0,0,0,-1,1266,729,0,0
49,295,0,0,0,0,0,0,0,0,0,-1,1273,729,0,0
56,295,0,0,0,0,0,0,0,0,0,-1,1280,729,0,0
63,295,0,0,0,0,0,0,0,0,0,-1,1287,729,0,0
70,295,0,0,0,0,0,0,0,0,0,-1,1294,729,0,0
77,295,0,0,0,0,0,0,0,0,0,-1,1301,729,0,0
84,295,0,0,0,0,0,0,0,0,0,-1,1308,729,0,0
91,295,0,0,0,0,0,0,0,0,0,-1,1315,729,0,0
98,295,0,0,0,0,0,0,0,0,0,-1,1322,729,0,0
105,295,0,0,0,0,0,0,0,0,0,-1,1329,729,0,0
112,295,0,0,0,0,0,0,0,0,0,-1,1336,729,0,0
119,295,0,0,0,0,0,0,0,0,0,-1,1343,729,0,0
126,295,0,0,0,0,0,0,0,0,0,-1,1350,729,0,0
133,295,0,0,0,0,0,0,0,0,0,-1,1357,729,0,0
140,295,0,0,0,0,0,0,0,0,0,-1,1364,729,0,0
147,295,0,0,0,0,0,0,0,0,0,-1,1371,729,0,0
154,295,0,0,0,0,0,0,0,0,0,-1,1378,729,0,0
161,295,0,0,0,0,0,0,0,0,0,-1,1385,729,0,0
168,295,0,0,0,0,0,0,0,0,0,-1,1392,729,0,0
175,295,0,0,0,0,0,0,0,0,0,-1,1399,729,0,0
182,295,0,0,0,0,0,0,0,0,0,-1,1406,729,0,0
189,295,0,0,0,0,0,0,0,0,0,-1,1413,729,0,0
196,295,0,0,0,0,0,0,0,0,0,-1,1420,729,0,0
203,295,0,0,0,0,0,0,0,0,0,-1,1427,729,0,0
210,295,0,0,0,0,0,0,0,0,0,-1,1434,729,0,0
217,295,0,0,0,0,0,0,0,0,0,-1,1441,729,0,0
224,295,0,0,0,0,0,0,0,0,0,-1,1448,729,0,0
231,295,0,0,0,0,0,0,0,0,0,-1,1455,729,0,0
238,295,0,0,0,0,0,0,0,0,0,-1,1462,729,0,0
245,295,0,0,0,0,0,0,0,0,0,-1,1469,729,0,0
252,295,0,0,0,0,0,0,0,0,0,-1,1476,729,0,0
259,295,0,0,0,0,0,0,0,0,0,-1,1483,729,0,0
266,295,0,0,0,0,0,0,0,0,0,-1,1490,729,0,0
273,295,0,0,0,0,0,0,0,0,0,-1,1497,729,0,0
280,295,0,0,0,0,0,0,0,0,0,-1,1504,729,0,0
287,295,0,0,0,0,0,0,0,0,0,-1,1511,729,0,0
294,295,0,0,0,0,0,0,0,0,0,-1,1518,729,0,0
301,295,0,0,0,0,0,0,0,0,0,-1,1525,729,0,0
308,295,0,0,0,0,0,0,0,0,0,-1,1532,729,0,0
315,295,0,0,0,0,0,0,0,0,0,-1,1539,729,0,0
322,295,0,0,0,0,0,0,0,0,0,-1,1546,729,0,0
329,295,0,0,0,0,0,0,0,0,0,-1,1553,729,0,0
336,295,0,0,0,0,0,0,0,0,0,-1,1560,729,0,0
343,295,0,0,0,0,0,0,0,0,0,-1,1567,729,0,0
350,295,0,0,0,0,0,0,0,0,0,-1,1574,729,0,0
357,295,0,0,0,0,0,0,0,0,0,-1,1581,729,0,0
364,295,0,0,0,0,0,0,0,0,0,-1,1588,729,0,0
371,295,0,0,0,0,0,0,0,0,0,-1,1595,729,0,0
378,295,0,0,0,0,0,0,0,0,0,-1,1602,729,0,0
385,295,0,0,0,0,0,0,0,0,0,-1,1609,729,0,0
392,295,0,0,0,0,0,0,0,0,0,-1,1616,729,0,0
399,295,0,0,0,0,0,0,0,0,0,-1,1623,729,0,0
406,295,0,0,0,0,0,0,0,0,0,-1,1630,729,0,0
413,295,0,0,0,0,0,0,0,0,0,-1,1637,729,0,0
420,295,0,0,0,0,0,0,0,0,0,-1,1644,729,0,0
427,295,0,0,0,0,0,0,0,0,0,-1,1651,729,0,0
434,295,0,0,0,0,0,0,0,0,0,-1,1658,729,0,0
441,295,0,0,0,0,0,0,0,0,0,-1,1665,729,0,0
448,295,0,0,0,0,0,0,0,0,0,-1,1672,729,0,0
455,295,0,0,0,0,0,0,0,0,0,-1,1679,729,0,0
462,295,0,0,0,0,0,0,0,0,0,-1,1686,729,0,0
469,295,0,0,0,0,0,0,0,0,0,-1,1693,729,0,0
476,295,0,0,0,0,0,0,0,0,0,-1,1700,729,0,0
483,295,0,0,0,0,0,0,0,0,0,-1,1707,729,0,0
490,295,0,0,0,0,0,0,0,0,0,-1,1714,729,0,0
497,295,0,0,0,0,0,0,0,0,0,-1,1721,729,0,0
504,295,0,0,0,0,0,0,0,0,0,-1,1728,729,0,0
511,295,0,0,0,0,0,0,0,0,0,-1,1735,729,0,0
518,295,0,0,0,0,0,0,0,0,0,-1,1742,729,0,0
525,295,0,0,0,0,0,0,0,0,0,-1,1749,729,0,0
532,295,0,0,0,0,0,0,0,0,0,-1,1756,729,0,0
539,295,0,0,0,0,0,0,0,0,0,-1,1763,729,0,0
546,295,15.4219,4.15662,0,0,0,0,0,0,0,-1,1770,729,15.4219,-4.1566
553,295,17.2865,3.633,0,0,0,0,0,0,0,-1,1777,729,17.2865,-3.63301
560,295,17.4324,3.82123,0,0,0,0,0,0,0,-1,1784,729,17.4324,-3.8212
567,295,17.5782,4.0094,0,0,0,0,0,0,0,-1,1791,729,17.5782,-4.0094
574,295,14.3542,3.31445,0,0,0,0,0,0,0,-1,1798,729,14.3542,-3.31445
581,295,14.6473,3.75903,0,0,0,0,0,0,0,-1,1805,729,14.6474,-3.75902
588,295,14.8984,4.17255,0,0,0,0,0,0,0,-1,1812,729,14.8985,-4.17253
595,295,15.2823,4.65863,0,0,0,0,0,0,0,-1,1819,729,15.2824,-4.65861
602,295,15.6809,5.12988,0,0,0,0,0,0,0,-1,1826,729,15.6809,-5.12989
609,295,11.7737,2.19989,0,0,0,0,0,0,0,-1,1833,729,11.7736,-2.19988
616,295,12.5256,-0.299255,0,0,0,0,0,0,0,-1,1840,729,12.5256,0.299229
623,295,12.5497,-0.0384521,-0.0246293,-0.00414368,-0.00613223,-0.00244834,-0.0263246,-1.30107,0.0167932,0.0296405,1847,729,12.5497,0.0384658
630,295,12.5746,0.223389,-0.0227694,-0.00513771,-0.0053548,-0.00363886,-0.0242682,-1.29787,0.0151126,0.0120332,1854,729,12.5746,-0.223359
637,295,12.5764,0.464417,-0.01867,-0.0048289,-0.00423126,-0.00363788,-0.019861,-1.29641,0.01221,0.0128853,1861,729,12.5765,-0.464441
644,295,12.6014,0.708801,-0.012978,-0.00318848,-0.00346985,-0.00208336,-0.0140831,-1.26246,0.0087771,0.0124842,1868,729,12.6015,-0.708775
651,295,12.6125,0.945862,-0.0077876,-0.00196258,-0.00244883,-0.00106989,-0.00868029,-1.22123,0.00546525,0.0125941,1875,729,12.6126,-0.945877
658,295,12.6022,1.17297,-0.00354519,-0.000628856,-0.00136362,-9.06019e-05,-0.00408344,-1.19484,0.0026926,0.0117821,1882,729,12.6022,-1.17297
665,295,12.5918,1.38116,7.18588e-05,0.00178923,-0.000189527,0.00180989,5.11915e-05,-1.46218,0.0011899,0.0109556,1889,729,12.5917,-1.38119
672,295,12.5817,1.60876,0.00309986,0.00489211,0.000710837,0.0051398,0.00285217,1.23549,0.00297343,0.0122229,1896,729,12.5816,-1.60877
679,295,12.5673,1.85797,0.00575496,0.00822533,0.00129268,0.00877808,0.00520222,1.16673,0.00509694,0.0095939,1903,729,12.5673,-1.85797
686,295,12.5861,2.06451,0.00919855,0.0123983,0.0019006,0.0132827,0.0083141,1.13525,0.00774945,0.00941353,1910,729,12.5861,-2.06453
693,295,12.5867,2.2478,0.0139309,0.0181958,0.00263224,0.019451,0.0126757,1.12584,0.011401,0.0225324,1917,729,12.5867,-2.24778
700,295,12.6328,2.58759,0.0205211,0.0259668,0.0035854,0.027746,0.0187418,1.11015,0.0163447,0.0366292,1924,729,12.6328,-2.58757
707,295,12.7935,3.15247,0.0293541,0.0359525,0.00478213,0.0384631,0.0268435,1.08736,0.0227791,0.0418182,1931,729,12.7934,-3.15247
714,295,12.9574,3.48871,0.0407838,0.0482541,0.0062154,0.0517703,0.0372676,1.05596,0.0308378,0.04255,1938,729,12.9574,-3.48869
721,295,13.254,3.81689,0.0552636,0.0628514,0.00792412,0.067843,0.050272,1.00866,0.0406576,0.0476232,1945,729,13.2541,-3.81691
728,295,13.5833,4.08325,0,0,0,0,0,0,0,-1,1952,729,13.5832,-4.08323
735,295,0,0,0,0,0,0,0,0,0,-1,1959,729,0,0
742,295,0,0,0,0,0,0,0,0,0,-1,1966,729,0,0
749,295,0,0,0,0,0,0,0,0,0,-1,1973,729,0,0
756,295,0,0,0,0,0,0,0,0,0,-1,1980,729,0,0
763,295,0,0,0,0,0,0,0,0,0,-1,1987,729,0,0
770,295,0,0,0,0,0,0,0,0,0,-1,1994,729,0,0
777,295,0,0,0,0,0,0,0,0,0,-1,2001,729,0,0
784,295,0,0,0,0,0,0,0,0,0,-1,2008,729,0,0
791,295,0,0,0,0,0,0,0,0,0,-1,2015,729,0,0
798,295,0,0,0,0,0,0,0,0,0,-1,2022,729,0,0
805,295,0,0,0,0,0,0,0,0,0,-1,2029,729,0,0
812,295,0,0,0,0,0,0,0,0,0,-1,2036,729,0,0
-700,288,0,0,0,0,0,0,0,0,0,-1,524,736,0,0
-693,288,0,0,0,0,0,0,0,0,0,-1,531,736,0,0
-686,288,0,0,0,0,0,0,0,0,0,-1,538,736,0,0
-679,288,0,0,0,0,0,0,0,0,0,-1,545,736,0,0
-672,288,0,0,0,0,0,0,0,0,0,-1,552,736,0,0
-665,288,0,0,0,0,0,0,0,0,0,-1,559,736,0,0
-658,288,0,0,0,0,0,0,0,0,0,-1,566,736,0,0
-651,288,0,0,0,0,0,0,0,0,0,-1,573,736,0,0
-644,288,0,0,0,0,0,0,0,0,0,-1,580,736,0,0
-637,288,0,0,0,0,0,0,0,0,0,-1,587,736,0,0
-630,288,0,0,0,0,0,0,0,0,0,-1,594,736,0,0
-623,288,0,0,0,0,0,0,0,0,0,-1,601,736,0,0
-616,288,-2.54126,0.974243,0,0,0,0,0,0,0,-1,608,736,-2.54128,-0.974234
-609,288,-2.59308,0.147888,0,0,0,0,0,0,0,-1,615,736,-2.59308,-0.147889
-602,288,-2.6272,-0.580322,0,0,0,0,0,0,0,-1,622,736,-2.62719,0.580343
-595,288,-2.60999,-1.20062,0,0,0,0,0,0,0,-1,629,736,-2.60999,1.20063
-588,288,-6.75586,1.0415,0,0,0,0,0,0,0,-1,636,736,-6.75586,-1.04148
-581,288,-7.05701,0.42926,0,0,0,0,0,0,0,-1,643,736,-7.05699,-0.429283
-574,288,-7.02759,0.304749,0.0137531,0.00696275,0.00437926,0.0158991,0.0048167,0.455655,0.00941397,0.0397635,650,736,-7.02761,-0.304778
-567,288,-7.06732,0.187683,0.00816582,0.00443001,0.00384118,0.0105692,0.00202665,0.559091,0.00647713,0.0254527,657,736,-7.0673,-0.187663
-560,288,-7.16931,0.0298462,0.00394308,0.00304146,0.00345396,0.00697552,9.02056e-06,0.720505,0.00464735,0.0134542,664,736,-7.16929,-0.029851
-553,288,-7.1629,-0.147522,0.00216987,0.0018411,0.00279515,0.00480546,-0.00079449,0.756027,0.00349867,0.0177363,671,736,-7.16293,0.147545
-546,288,-7.18585,-0.312317,0.000963096,0.000990338,0.00242228,0.00339904,-0.00144561,0.78821,0.00287185,0.0185555,678,736,-7.18586,0.312294
-539,288,-7.18103,-0.524963,0.000326078,0.000134914,0.00237202,0.00260445,-0.00214345,0.765261,0.0027455,0.0156561,685,736,-7.18103,0.524973
-532,288,-7.14465,-0.767456,0.000204111,-0.000286901,0.00279449,0.00276386,-0.00284665,0.741584,0.00323935,0.0120203,692,736,-7.14462,0.767474
-525,288,-7.14557,-0.983276,0.000458816,-0.000526602,0.00372775,0.00372628,-0.00379407,0.719692,0.00434193,0.0116239,699,736,-7.14555,0.983294
-518,288,-7.16418,-1.19427,0.000788739,-0.00135228,0.00520251,0.00502974,-0.00559328,0.683931,0.00613608,0.0113799,706,736,-7.16416,1.19426
-511,288,-7.17352,-1.40436,0.000987918,-0.0035636,0.00711196,0.00617935,-0.00875503,0.630551,0.00866501,0.00858465,713,736,-7.17352,1.40436
-504,288,-7.16016,-1.61096,0.00115613,-0.00711855,0.00933624,0.00723069,-0.0131931,0.576827,0.011958,0.0103935,720,736,-7.16014,1.61095
-497,288,-7.12146,-1.73975,0.00112734,-0.0113017,0.0121817,0.00858812,-0.0187624,0.54953,0.0161509,0.0204254,727,736,-7.12147,1.73974
-490,288,-7.45654,-1.51086,0,0,0,0,0,0,0,-1,734,736,-7.45654,1.51085
-483,288,-7.91321,-0.987366,0,0,0,0,0,0,0,-1,741,736,-7.91321,0.987387
-476,288,-13.5999,-1.20441,0,0,0,0,0,0,0,-1,748,736,-13.5999,1.20439
-469,288,-13.2117,0.437134,0,0,0,0,0,0,0,-1,755,736,-13.2117,-0.437148
-462,288,-7.22424,-1.95929,0,0,0,0,0,0,0,-1,762,736,-7.22425,1.95928
-455,288,-7.43866,-2.23523,-0.0212334,-0.0942031,0.0205223,-0.0158576,-0.0995788,0.25619,0.0617821,0.0495588,769,736,-7.43867,2.23526
-448,288,-7.59851,-2.09753,0,0,0,0,0,0,0,-1,776,736,-7.59853,2.09751
-441,288,-7.60315,-1.90558,0,0,0,0,0,0,0,-1,783,736,-7.60314,1.90556
-434,288,-7.61835,-1.49969,0,0,0,0,0,0,0,-1,790,736,-7.61837,1.49968
-427,288,0,0,0,0,0,0,0,0,0,-1,797,736,0,0
-420,288,0,0,0,0,0,0,0,0,0,-1,804,736,0,0
-413,288,0,0,0,0,0,0,0,0,0,-1,811,736,0,0
-406,288,0,0,0,0,0,0,0,0,0,-1,818,736,0,0
-399,288,0,0,0,0,0,0,0,0,0,-1,825,736,0,0
-392,288,0,0,0,0,0,0,0,0,0,-1,832,736,0,0
-385,288,0,0,0,0,0,0,0,0,0,-1,839,736,0,0
-378,288,0,0,0,0,0,0,0,0,0,-1,846,736,0,0
-371,288,0,0,0,0,0,0,0,0,0,-1,853,736,0,0
-364,288,0,0,0,0,0,0,0,0,0,-1,860,736,0,0
-357,288,0,0,0,0,0,0,0,0,0,-1,867,736,0,0
-350,288,0,0,0,0,0,0,0,0,0,-1,874,736,0,0
-343,288,0,0,0,0,0,0,0,0,0,-1,881,736,0,0
-336,288,0,0,0,0,0,0,0,0,0,-1,888,736,0,0
-329,288,0,0,0,0,0,0,0,0,0,-1,895,736,0,0
-322,288,0,0,0,0,0,0,0,0,0,-1,902,736,0,0
-315,288,0,0,0,0,0,0,0,0,0,-1,909,736,0,0
-308,288,0,0,0,0,0,0,0,0,0,-1,916,736,0,0
-301,288,0,0,0,0,0,0,0,0,0,-1,923,736,0,0
-294,288,0,0,0,0,0,0,0,0,0,-1,930,736,0,0
-287,288,0,0,0,0,0,0,0,0,0,-1,937,736,0,0
-280,288,0,0,0,0,0,0,0,0,0,-1,944,736,0,0
-273,288,0,0,0,0,0,0,0,0,0,-1,951,736,0,0
-266,288,0,0,0,0,0,0,0,0,0,-1,958,736,0,0
-259,288,0,0,0,0,0,0,0,0,0,-1,965,736,0,0
-252,288,0,0,0,0,0,0,0,0,0,-1,972,736,0,0
-245,288,0,0,0,0,0,0,0,0,0,-1,979,736,0,0
-238,288,0,0,0,0,0,0,0,0,0,-1,986,736,0,0
-231,288,0,0,0,0,0,0,0,0,0,-1,993,736,0,0
-224,288,0,0,0,0,0,0,0,0,0,-1,1000,736,0,0
-217,288,0,0,0,0,0,0,0,0,0,-1,1007,736,0,0
-210,288,0,0,0,0,0,0,0,0,0,-1,1014,736,0,0
-203,288,0,0,0,0,0,0,0,0,0,-1,1021,736,0,0
-196,288,0,0,0,0,0,0,0,0,0,-1,1028,736,0,0
-189,288,0,0,0,0,0,0,0,0,0,-1,1035,736,0,0
-182,288,0,0,0,0,0,0,0,0,0,-1,1042,736,0,0
-175,288,0,0,0,0,0,0,0,0,0,-1,1049,736,0,0
-168,288,0,0,0,0,0,0,0,0,0,-1,1056,736,0,0
-161,288,0,0,0,0,0,0,0,0,0,-1,1063,736,0,0
-154,288,0,0,0,0,0,0,0,0,0,-1,1070,736,0,0
-147,288,0,0,0,0,0,0,0,0,0,-1,1077,736,0,0
-140,288,0,0,0,0,0,0,0,0,0,-1,1084,736,0,0
-133,288,0,0,0,0,0,0,0,0,0,-1,1091,736,0,0
-126,288,0,0,0,0,0,0,0,0,0,-1,1098,736,0,0
-119,288,0,0,0,0,0,0,0,0,0,-1,1105,736,0,0
-112,288,0,0,0,0,0,0,0,0,0,-1,1112,736,0,0
-105,288,0,0,0,0,0,0,0,0,0,-1,1119,736,0,0
-98,288,0,0,0,0,0,0,0,0,0,-1,1126,736,0,0
-91,288,0,0,0,0,0,0,0,0,0,-1,1133,736,0,0
-84,288,0,0,0,0,0,0,0,0,0,-1,1140,736,0,0
-77,288,0,0,0,0,0,0,0,0,0,-1,1147,736,0,0
-70,288,0,0,0,0,0,0,0,0,0,-1,1154,736,0,0
-63,288,0,0,0,0,0,0,0,0,0,-1,1161,736,0,0
-56,288,0,0,0,0,0,0,0,0,0,-1,1168,736,0,0
-49,288,0,0,0,0,0,0,0,0,0,-1,1175,736,0,0
-42,288,0,0,0,0,0,0,0,0,0,-1,1182,736,0,0
-35,288,0,0,0,0,0,0,0,0,0,-1,1189,736,0,0
-28,288,0,0,0,0,0,0,0,0,0,-1,1196,736,0,0
-21,288,0,0,0,0,0,0,0,0,0,-1,1203,736,0,0
-14,288,0,0,0,0,0,0,0,0,0,-1,1210,736,0,0
-7,288,0,0,0,0,0,0,0,0,0,-1,1217,736,0,0
0,288,0,0,0,0,0,0,0,0,0,-1,1224,736,0,0
7,288,0,0,0,0,0,0,0,0,0,-1,1231,736,0,0
14,288,0,0,0,0,0,0,0,0,0,-1,1238,736,0,0
21,288,0,0,0,0,0,0,0,0,0,-1,1245,736,0,0
28,288,0,0,0,0,0,0,0,0,0,-1,1252,736,0,0
35,288,0,0,0,0,0,0,0,0,0,-1,1259,736,0,0
42,288,0,0,0,0,0,0,0,0,0,-1,1266,736,0,0
49,288,0,0,0,0,0,0,0,0,0,-1,1273,736,0,0
56,288,0,0,0,0,0,0,0,0,0,-1,1280,736,0,0
63,288,0,0,0,0,0,0,0,0,0,-1,1287,736,0,0
70,288,0,0,0,0,0,0,0,0,0,-1,1294,736,0,0
77,288,0,0,0,0,0,0,0,0,0,-1,1301,736,0,0
84,288,0,0,0,0,0,0,0,0,0,-1,1308,736,0,0
91,288,0,0,0,0,0,0,0,0,0,-1,1315,736,0,0
98,288,0,0,0,0,0,0,0,0,0,-1,1322,736,0,0
105,288,0,0,0,0,0,0,0,0,0,-1,1329,736,0,0
112,288,0,0,0,0,0,0,0,0,0,-1,1336,736,0,0
119,288,0,0,0,0,0,0,0,0,0,-1,1343,736,0,0
126,288,0,0,0,0,0,0,0,0,0,-1,1350,736,0,0
133,288,0,0,0,0,0,0,0,0,0,-1,1357,736,0,0
140,288,0,0,0,0,0,0,0,0,0,-1,1364,736,0,0
147,288,0,0,0,0,0,0,0,0,0,-1,1371,736,0,0
154,288,0,0,0,0,0,0,0,0,0,-1,1378,736,0,0
161,288,0,0,0,0,0,0,0,0,0,-1,1385,736,0,0
168,288,0,0,0,0,0,0,0,0,0,-1,1392,736,0,0
175,288,0,0,0,0,0,0,0,0,0,-1,1399,736,0,0
182,288,0,0,0,0,0,0,0,0,0,-1,1406,736,0,0
189,288,0,0,0,0,0,0,0,0,0,-1,1413,736,0,0
196,288,0,0,0,0,0,0,0,0,0,-1,1420,736,0,0
203,288,0,0,0,0,0,0,0,0,0,-1,1427,736,0,0
210,288,0,0,0,0,0,0,0,0,0,-1,1434,736,0,0
217,288,0,0,0,0,0,0,0,0,0,-1,1441,736,0,0
224,288,0,0,0,0,0,0,0,0,0,-1,1448,736,0,0
231,288,0,0,0,0,0,0,0,0,0,-1,1455,736,0,0
238,288,0,0,0,0,0,0,0,0,0,-1,1462,736,0,0
245,288,0,0,0,0,0,0,0,0,0,-1,1469,736,0,0
252,288,0,0,0,0,0,0,0,0,0,-1,1476,736,0,0
259,288,0,0,0,0,0,0,0,0,0,-1,1483,736,0,0
266,288,0,0,0,0,0,0,0,0,0,-1,1490,736,0,0
273,288,0,0,0,0,0,0,0,0,0,-1,1497,736,0,0
280,288,0,0,0,0,0,0,0,0,0,-1,1504,736,0,0
287,288,0,0,0,0,0,0,0,0,0,-1,1511,736,0,0
294,288,0,0,0,0,0,0,0,0,0,-1,1518,736,0,0
301,288,0,0,0,0,0,0,0,0,0,-1,1525,736,0,0
308,288,0,0,0,0,0,0,0,0,0,-1,1532,736,0,0
315,288,0,0,0,0,0,0,0,0,0,-1,1539,736,0,0
322,288,0,0,0,0,0,0,0,0,0,-1,1546,736,0,0
329,288,0,0,0,0,0,0,0,0,0,-1,1553,736,0,0
336,288,0,0,0,0,0,0,0,0,0,-1,1560,736,0,0
343,288,0,0,0,0,0,0,0,0,0,-1,1567,736,0,0
350,288,0,0,0,0,0,0,0,0,0,-1,1574,736,0,0
357,288,0,0,0,0,0,0,0,0,0,-1,1581,736,0,0
364,288,0,0,0,0,0,0,0,0,0,-1,1588,736,0,0
371,288,0,0,0,0,0,0,0,0,0,-1,1595,736,0,0
378,288,0,0,0,0,0,0,0,0,0,-1,1602,736,0,0
385,288,0,0,0,0,0,0,0,0,0,-1,1609,736,0,0
392,288,0,0,0,0,0,0,0,0,0,-1,1616,736,0,0
399,288,0,0,0,0,0,0,0,0,0,-1,1623,736,0,0
406,288,0,0,0,0,0,0,0,0,0,-1,1630,736,0,0
413,288,0,0,0,0,0,0,0,0,0,-1,1637,736,0,0
420,288,0,0,0,0,0,0,0,0,0,-1,1644,736,0,0
427,288,0,0,0,0,0,0,0,0,0,-1,1651,736,0,0
434,288,0,0,0,0,0,0,0,0,0,-1,1658,736,0,0
441,288,0,0,0,0,0,0,0,0,0,-1,1665,736,0,0
448,288,0,0,0,0,0,0,0,0,0,-1,1672,736,0,0
455,288,0,0,0,0,0,0,0,0,0,-1,1679,736,0,0
462,288,0,0,0,0,0,0,0,0,0,-1,1686,736,0,0
469,288,0,0,0,0,0,0,0,0,0,-1,1693,736,0,0
476,288,0,0,0,0,0,0,0,0,0,-1,1700,736,0,0
483,288,0,0,0,0,0,0,0,0,0,-1,1707,736,0,0
490,288,0,0,0,0,0,0,0,0,0,-1,1714,736,0,0
497,288,0,0,0,0,0,0,0,0,0,-1,1721,736,0,0
504,288,0,0,0,0,0,0,0,0,0,-1,1728,736,0,0
511,288,0,0,0,0,0,0,0,0,0,-1,1735,736,0,0
518,288,0,0,0,0,0,0,0,0,0,-1,1742,736,0,0
525,288,0,0,0,0,0,0,0,0,0,-1,1749,736,0,0
532,288,0,0,0,0,0,0,0,0,0,-1,1756,736,0,0
539,288,0,0,0,0,0,0,0,0,0,-1,1763,736,0,0
546,288,0,0,0,0,0,0,0,0,0,-1,1770,736,0,0
553,288,17.6235,3.41235,0,0,0,0,0,0,0,-1,1777,736,17.6235,-3.41237
560,288,17.8062,3.55627,0,0,0,0,0,0,0,-1,1784,736,17.8061,-3.55626
567,288,18.8409,3.57507,0,0,0,0,0,0,0,-1,1791,736,18.8409,-3.57505
574,288,19.4491,3.44275,0,0,0,0,0,0,0,-1,1798,736,19.4491,-3.44273
581,288,19.2389,3.21069,0,0,0,0,0,0,0,-1,1805,736,19.2388,-3.21069
588,288,15.6243,4.53442,0,0,0,0,0,0,0,-1,1812,736,15.6242,-4.53441
595,288,16.0812,4.03497,0,0,0,0,0,0,0,-1,1819,736,16.0812,-4.03496
602,288,16.7866,4.28668,0,0,0,0,0,0,0,-1,1826,736,16.7866,-4.28665
609,288,17.5223,4.86414,0,0,0,0,0,0,0,-1,1833,736,17.5223,-4.86412
616,288,12.2759,0.423157,0,0,0,0,0,0,0,-1,1840,736,12.2759,-0.423153
623,288,12.7649,-0.0240479,0,0,0,0,0,0,0,-1,1847,736,12.765,0.0240318
630,288,12.8055,0.22406,-0.0268806,-0.00558805,-0.00631547,-0.00385578,-0.0286128,-1.30309,0.0179287,0.019279,1854,736,12.8056,-0.224087
637,288,12.8334,0.473206,-0.0230471,-0.0053389,-0.00530895,-0.00386924,-0.0245168,-1.30073,0.0152196,0.00942475,1861,736,12.8334,-0.47318
644,288,12.8478,0.705627,-0.0168454,-0.00364983,-0.0045729,-0.00222003,-0.0182752,-1.26776,0.011515,0.00940858,1868,736,12.8478,-0.705614
651,288,12.8363,0.937622,-0.0107369,-0.00244829,-0.00342693,-0.00121495,-0.0119702,-1.22533,0.00760758,0.010584,1875,736,12.8364,-0.937596
658,288,12.8199,1.15741,-0.00552998,-0.00114842,-0.00221019,-0.000227214,-0.00645118,-1.17589,0.00422709,0.0151195,1882,736,12.8199,-1.15741
665,288,12.8069,1.38593,-0.00126964,0.000975163,-0.000729643,0.00119148,-0.00148595,-1.28258,0.00154893,0.0155182,1889,736,12.8069,-1.38593
672,288,12.8108,1.60956,0.00198229,0.00375695,0.000316844,0.00381183,0.00192742,1.39931,0.00220081,0.0141895,1896,736,12.8108,-1.60956
679,288,12.8228,1.86829,0.00461618,0.00665501,0.000952075,0.00703046,0.00424073,1.19517,0.00408775,0.0122396,1903,736,12.8227,-1.8683
686,288,12.8174,2.06219,0.00757429,0.0100814,0.00145673,0.0107497,0.00690601,1.14069,0.00628974,0.00970185,1910,736,12.8174,-2.06222
693,288,12.8394,2.27673,0.0115204,0.014719,0.00203245,0.0157059,0.0105335,1.11874,0.00924222,0.0121089,1917,736,12.8394,-2.27673
700,288,12.8076,2.55988,0.0169899,0.02083,0.00279266,0.022299,0.0155209,1.08656,0.0132001,0.0225324,1924,736,12.8077,-2.55986
707,288,12.881,2.84442,0.0243786,0.0286293,0.0038009,0.0308587,0.0221492,1.04032,0.0183709,0.0361185,1931,736,12.881,-2.84444
714,288,13.3303,3.07227,0.0340384,0.038126,0.00507858,0.0415566,0.0306078,0.976701,0.0248715,0.0446229,1938,736,13.3303,-3.07228
721,288,13.8937,3.32562,0,0,0,0,0,0,0,-1,1945,736,13.8936,-3.32564
728,288,14.6309,3.74915,0,0,0,0,0,0,0,-1,1952,736,14.6309,-3.74918
735,288,15.2201,3.56317,0,0,0,0,0,0,0,-1,1959,736,15.2201,-3.56319
742,288,0,0,0,0,0,0,0,0,0,-1,1966,736,0,0
749,288,0,0,0,0,0,0,0,0,0,-1,1973,736,0,0
756,288,0,0,0,0,0,0,0,0,0,-1,1980,736,0,0
763,288,0,0,0,0,0,0,0,0,0,-1,1987,736,0,0
770,288,0,0,0,0,0,0,0,0,0,-1,1994,736,0,0
777,288,0,0,0,0,0,0,0,0,0,-1,2001,736,0,0
784,288,0,0,0,0,0,0,0,0,0,-1,2008,736,0,0
791,288,0,0,0,0,0,0,0,0,0,-1,2015,736,0,0
798,288,0,0,0,0,0,0,0,0,0,-1,2022,736,0,0
805,288,0,0,0,0,0,0,0,0,0,-1,2029,736,0,0
812,288,0,0,0,0,0,0,0,0,0,-1,2036,736,0,0
-700,281,0,0,0,0,0,0,0,0,0,-1,524,743,0,0
-693,281,0,0,0,0,0,0,0,0,0,-1,531,743,0,0
-686,281,0,0,0,0,0,0,0,0,0,-1,538,743,0,0
-679,281,0,0,0,0,0,0,0,0,0,-1,545,743,0,0
-672,281,0,0,0,0,0,0,0,0,0,-1,552,743,0,0
-665,281,0,0,0,0,0,0,0,0,0,-1,559,743,0,0
-658,281,0,0,0,0,0,0,0,0,0,-1,566,743,0,0
-651,281,0,0,0,0,0,0,0,0,0,-1,573,743,0,0
-644,281,0,0,0,0,0,0,0,0,0,-1,580,743,0,0
-637,281,0,0,0,0,0,0,0,0,0,-1,587,743,0,0
-630,281,0,0,0,0,0,0,0,0,0,-1,594,743,0,0
-623,281,-12.8099,-1.19244,0,0,0,0,0,0,0,-1,601,743,-12.8099,1.19242
-616,281,-13.8781,-0.960754,0,0,0,0,0,0,0,-1,608,743,-13.8781,0.960776
-609,281,-4.10663,0.917114,0,0,0,0,0,0,0,-1,615,743,-4.10665,-0.917108
-602,281,-4.33801,0.417786,0,0,0,0,0,0,0,-1,622,743,-4.33802,-0.417797
-595,281,-4.5694,-0.081543,0,0,0,0,0,0,0,-1,629,743,-4.56938,0.0815141
-588,281,-7.58746,1.00714,0,0,0,0,0,0,0,-1,636,743,-7.58747,-1.00711
-581,281,-7.33118,0.368713,0,0,0,0,0,0,0,-1,643,743,-7.3312,-0.368729
-574,281,-7.29883,0.313171,0.00898657,0.00359776,0.00576139,0.0126525,-6.81365e-05,0.566675,0.00845778,0.0282446,650,743,-7.29886,-0.313146
-567,281,-7.38245,0.222656,0.00472373,0.00183649,0.00475532,0.00824973,-0.0016895,0.638029,0.00614095,0.0131279,657,743,-7.38242,-0.222681
-560,281,-7.39301,0.0406494,0.00136924,0.00105984,0.00407413,0.0052916,-0.00286252,0.766422,0.00477691,0.00813349,664,743,-7.39299,-0.0406705
-553,281,-7.37451,-0.144897,0.000257906,0.000307606,0.00320166,0.00348452,-0.002919,0.789279,0.00370188,0.0129323,671,743,-7.37451,0.144916
-546,281,-7.37903,-0.306824,-0.00038072,-0.000163839,0.0027961,0.00252592,-0.00307048,0.80478,0.00323618,0.0139458,678,743,-7.37903,0.306824
-539,281,-7.38458,-0.53363,-0.000561101,-0.000725833,0.0027628,0.00212056,-0.00340749,0.770496,0.00322032,0.0124828,685,743,-7.38461,0.533611
-532,281,-7.3833,-0.764526,-0.000458369,-0.000764568,0.00326969,0.00266181,-0.00388474,0.762003,0.00380157,0.0115064,692,743,-7.3833,0.76454
-525,281,-7.37634,-0.986938,-0.000110718,-0.000515056,0.00439116,0.00408293,-0.0047087,0.762394,0.00508013,0.0131662,699,743,-7.37634,0.986944
-518,281,-7.37158,-1.19702,0.000270598,-0.000998024,0.00610721,0.00577635,-0.00650378,0.733652,0.00709408,0.0124871,706,743,-7.37157,1.19703
-511,281,-7.37805,-1.41754,0.000418059,-0.00298131,0.0083499,0.00723951,-0.00980277,0.684991,0.00987639,0.0108268,713,743,-7.37804,1.41751
-504,281,-7.38116,-1.63586,0.00044998,-0.00629612,0.010924,0.00850983,-0.014356,0.635655,0.0133446,0.0126719,720,743,-7.38116,1.63588
-497,281,-7.2345,-1.84961,0.000255531,-0.0102362,0.014144,0.0100952,-0.0200758,0.607818,0.0177341,0.033802,727,743,-7.23448,1.84961
-490,281,-7.46942,-1.505,-0.000522978,-0.0161484,0.0175519,0.0108765,-0.0275478,0.576004,0.0228697,0.0441214,734,743,-7.46941,1.50502
-483,281,-7.57422,-1.0697,-0.00210966,-0.0246399,0.0208357,0.0103113,-0.0370608,0.537575,0.0287671,0.0490206,741,743,-7.57422,1.06971
-476,281,-7.32758,-1.07953,0,0,0,0,0,0,0,-1,748,743,-7.3276,1.07952
-469,281,-7.1817,-1.03308,0,0,0,0,0,0,0,-1,755,743,-7.18168,1.03311
-462,281,-7.40894,-1.12903,-0.014602,-0.0728341,0.0257638,-0.0048398,-0.0825963,0.362196,0.0535239,0.0458975,762,743,-7.40892,1.12901
-455,281,-7.51324,-1.31952,-0.0235178,-0.0994112,0.0230449,-0.0170683,-0.105861,0.272884,0.0656284,0.0475725,769,743,-7.51325,1.31949
-448,281,-7.67157,-1.25806,0,0,0,0,0,0,0,-1,776,743,-7.67157,1.25808
-441,281,-8.07208,0.904602,0,0,0,0,0,0,0,-1,783,743,-8.07209,-0.904584
-434,281,0,0,0,0,0,0,0,0,0,-1,790,743,0,0
-427,281,0,0,0,0,0,0,0,0,0,-1,797,743,0,0
-420,281,0,0,0,0,0,0,0,0,0,-1,804,743,0,0
-413,281,0,0,0,0,0,0,0,0,0,-1,811,743,0,0
-406,281,0,0,0,0,0,0,0,0,0,-1,818,743,0,0
-399,281,0,0,0,0,0,0,0,0,0,-1,825,743,0,0
-392,281,0,0,0,0,0,0,0,0,0,-1,832,743,0,0
-385,281,0,0,0,0,0,0,0,0,0,-1,839,743,0,0
-378,281,0,0,0,0,0,0,0,0,0,-1,846,743,0,0
-371,281,0,0,0,0,0,0,0,0,0,-1,853,743,0,0
-364,281,0,0,0,0,0,0,0,0,0,-1,860,743,0,0
-357,281,0,0,0,0,0,0,0,0,0,-1,867,743,0,0
-350,281,0,0,0,0,0,0,0,0,0,-1,874,743,0,0
-343,281,0,0,0,0,0,0,0,0,0,-1,881,743,0,0
-336,281,0,0,0,0,0,0,0,0,0,-1,888,743,0,0
-329,281,0,0,0,0,0,0,0,0,0,-1,895,743,0,0
-322,281,0,0,0,0,0,0,0,0,0,-1,902,743,0,0
-315,281,0,0,0,0,0,0,0,0,0,-1,909,743,0,0
-308,281,0,0,0,0,0,0,0,0,0,-1,916,743,0,0
-301,281,0,0,0,0,0,0,0,0,0,-1,923,743,0,0
-294,281,0,0,0,0,0,0,0,0,0,-1,930,743,0,0
-287,281,0,0,0,0,0,0,0,0,0,-1,937,743,0,0
-280,281,0,0,0,0,0,0,0,0,0,-1,944,743,0,0
-273,281,0,0,0,0,0,0,0,0,0,-1,951,743,0,0
-266,281,0,0,0,0,0,0,0,0,0,-1,958,743,0,0
-259,281,0,0,0,0,0,0,0,0,0,-1,965,743,0,0
-252,281,0,0,0,0,0,0,0,0,0,-1,972,743,0,0
-245,281,0,0,0,0,0,0,0,0,0,-1,979,743,0,0
-238,281,0,0,0,0,0,0,0,0,0,-1,986,743,0,0
-231,281,0,0,0,0,0,0,0,0,0,-1,993,743,0,0
-224,281,0,0,0,0,0,0,0,0,0,-1,1000,743,0,0
-217,281,0,0,0,0,0,0,0,0,0,-1,1007,743,0,0
-210,281,0,0,0,0,0,0,0,0,0,-1,1014,743,0,0
-203,281,0,0,0,0,0,0,0,0,0,-1,1021,743,0,0
-196,281,0,0,0,0,0,0,0,0,0,-1,1028,743,0,0
-189,281,0,0,0,0,0,0,0,0,0,-1,1035,743,0,0
-182,281,0,0,0,0,0,0,0,0,0,-1,1042,743,0,0
-175,281,0,0,0,0,0,0,0,0,0,-1,1049,743,0,0
-168,281,0,0,0,0,0,0,0,0,0,-1,1056,743,0,0
-161,281,0,0,0,0,0,0,0,0,0,-1,1063,743,0,0
-154,281,0,0,0,0,0,0,0,0,0,-1,1070,743,0,0
-147,281,0,0,0,0,0,0,0,0,0,-1,1077,743,0,0
-140,281,0,0,0,0,0,0,0,0,0,-1,1084,743,0,0
-133,281,0,0,0,0,0,0,0,0,0,-1,1091,743,0,0
-126,281,0,0,0,0,0,0,0,0,0,-1,1098,743,0,0
-119,281,0,0,0,0,0,0,0,0,0,-1,1105,743,0,0
-112,281,0,0,0,0,0,0,0,0,0,-1,1112,743,0,0
-105,281,0,0,0,0,0,0,0,0,0,-1,1119,743,0,0
-98,281,0,0,0,0,0,0,0,0,0,-1,1126,743,0,0
-91,281,0,0,0,0,0,0,0,0,0,-1,1133,743,0,0
-84,281,0,0,0,0,0,0,0,0,0,-1,1140,743,0,0
-77,281,0,0,0,0,0,0,0,0,0,-1,1147,743,0,0
-70,281,0,0,0,0,0,0,0,0,0,-1,1154,743,0,0
-63,281,0,0,0,0,0,0,0,0,0,-1,1161,743,0,0
-56,281,0,0,0,0,0,0,0,0,0,-1,1168,743,0,0
-49,281,0,0,0,0,0,0,0,0,0,-1,1175,743,0,0
-42,281,0,0,0,0,0,0,0,0,0,-1,1182,743,0,0
-35,281,0,0,0,0,0,0,0,0,0,-1,1189,743,0,0
-28,281,0,0,0,0,0,0,0,0,0,-1,1196,743,0,0
-21,281,0,0,0,0,0,0,0,0,0,-1,1203,743,0,0
-14,281,0,0,0,0,0,0,0,0,0,-1,1210,743,0,0
-7,281,0,0,0,0,0,0,0,0,0,-1,1217,743,0,0
0,281,0,0,0,0,0,0,0,0,0,-1,1224,743,0,0
7,281,0,0,0,0,0,0,0,0,0,-1,1231,743,0,0
14,281,0,0,0,0,0,0,0,0,0,-1,1238,743,0,0
21,281,0,0,0,0,0,0,0,0,0,-1,1245,743,0,0
28,281,0,0,0,0,0,0,0,0,0,-1,1252,743,0,0
35,281,0,0,0,0,0,0,0,0,0,-1,1259,743,0,0
42,281,0,0,0,0,0,0,0,0,0,-1,1266,743,0,0
49,281,0,0,0,0,0,0,0,0,0,-1,1273,743,0,0
56,281,0,0,0,0,0,0,0,0,0,-1,1280,743,0,0
63,281,0,0,0,0,0,0,0,0,0,-1,1287,743,0,0
70,281,0,0,0,0,0,0,0,0,0,-1,1294,743,0,0
77,281,0,0,0,0,0,0,0,0,0,-1,1301,743,0,0
84,281,0,0,0,0,0,0,0,0,0,-1,1308,743,0,0
91,281,0,0,0,0,0,0,0,0,0,-1,1315,743,0,0
98,281,0,0,0,0,0,0,0,0,0,-1,1322,743,0,0
105,281,0,0,0,0,0,0,0,0,0,-1,1329,743,0,0
112,281,0,0,0,0,0,0,0,0,0,-1,1336,743,0,0
119,281,0,0,0,0,0,0,0,0,0,-1,1343,743,0,0
126,281,0,0,0,0,0,0,0,0,0,-1,1350,743,0,0
133,281,0,0,0,0,0,0,0,0,0,-1,1357,743,0,0
140,281,0,0,0,0,0,0,0,0,0,-1,1364,743,0,0
147,281,0,0,0,0,0,0,0,0,0,-1,1371,743,0,0
154,281,0,0,0,0,0,0,0,0,0,-1,1378,743,0,0
161,281,0,0,0,0,0,0,0,0,0,-1,1385,743,0,0
168,281,0,0,0,0,0,0,0,0,0,-1,1392,743,0,0
175,281,0,0,0,0,0,0,0,0,0,-1,1399,743,0,0
182,281,0,0,0,0,0,0,0,0,0,-1,1406,743,0,0
189,281,0,0,0,0,0,0,0,0,0,-1,1413,743,0,0
196,281,0,0,0,0,0,0,0,0,0,-1,1420,743,0,0
203,281,0,0,0,0,0,0,0,0,0,-1,1427,743,0,0
210,281,0,0,0,0,0,0,0,0,0,-1,1434,743,0,0
217,281,0,0,0,0,0,0,0,0,0,-1,1441,743,0,0
224,281,0,0,0,0,0,0,0,0,0,-1,1448,743,0,0
231,281,0,0,0,0,0,0,0,0,0,-1,1455,743,0,0
238,281,0,0,0,0,0,0,0,0,0,-1,1462,743,0,0
245,281,0,0,0,0,0,0,0,0,0,-1,1469,743,0,0
252,281,0,0,0,0,0,0,0,0,0,-1,1476,743,0,0
259,281,0,0,0,0,0,0,0,0,0,-1,1483,743,0,0
266,281,0,0,0,0,0,0,0,0,0,-1,1490,743,0,0
273,281,0,0,0,0,0,0,0,0,0,-1,1497,743,0,0
280,281,0,0,0,0,0,0,0,0,0,-1,1504,743,0,0
287,281,0,0,0,0,0,0,0,0,0,-1,1511,743,0,0
294,281,0,0,0,0,0,0,0,0,0,-1,1518,743,0,0
301,281,0,0,0,0,0,0,0,0,0,-1,1525,743,0,0
308,281,0,0,0,0,0,0,0,0,0,-1,1532,743,0,0
315,281,0,0,0,0,0,0,0,0,0,-1,1539,743,0,0
322,281,0,0,0,0,0,0,0,0,0,-1,1546,743,0,0
329,281,0,0,0,0,0,0,0,0,0,-1,1553,743,0,0
336,281,0,0,0,0,0,0,0,0,0,-1,1560,743,0,0
343,281,0,0,0,0,0,0,0,0,0,-1,1567,743,0,0
350,281,0,0,0,0,0,0,0,0,0,-1,1574,743,0,0
357,281,0,0,0,0,0,0,0,0,0,-1,1581,743,0,0
364,281,0,0,0,0,0,0,0,0,0,-1,1588,743,0,0
371,281,0,0,0,0,0,0,0,0,0,-1,1595,743,0,0
378,281,0,0,0,0,0,0,0,0,0,-1,1602,743,0,0
385,281,0,0,0,0,0,0,0,0,0,-1,1609,743,0,0
392,281,0,0,0,0,0,0,0,0,0,-1,1616,743,0,0
399,281,0,0,0,0,0,0,0,0,0,-1,1623,743,0,0
406,281,0,0,0,0,0,0,0,0,0,-1,1630,743,0,0
413,281,0,0,0,0,0,0,0,0,0,-1,1637,743,0,0
420,281,0,0,0,0,0,0,0,0,0,-1,1644,743,0,0
427,281,0,0,0,0,0,0,0,0,0,-1,1651,743,0,0
434,281,0,0,0,0,0,0,0,0,0,-1,1658,743,0,0
441,281,0,0,0,0,0,0,0,0,0,-1,1665,743,0,0
448,281,0,0,0,0,0,0,0,0,0,-1,1672,743,0,0
455,281,0,0,0,0,0,0,0,0,0,-1,1679,743,0,0
462,281,0,0,0,0,0,0,0,0,0,-1,1686,743,0,0
469,281,0,0,0,0,0,0,0,0,0,-1,1693,743,0,0
476,281,0,0,0,0,0,0,0,0,0,-1,1700,743,0,0
483,281,0,0,0,0,0,0,0,0,0,-1,1707,743,0,0
490,281,0,0,0,0,0,0,0,0,0,-1,1714,743,0,0
497,281,0,0,0,0,0,0,0,0,0,-1,1721,743,0,0
504,281,0,0,0,0,0,0,0,0,0,-1,1728,743,0,0
511,281,0,0,0,0,0,0,0,0,0,-1,1735,743,0,0
518,281,0,0,0,0,0,0,0,0,0,-1,1742,743,0,0
525,281,0,0,0,0,0,0,0,0,0,-1,1749,743,0,0
532,281,0,0,0,0,0,0,0,0,0,-1,1756,743,0,0
539,281,0,0,0,0,0,0,0,0,0,-1,1763,743,0,0
546,281,0,0,0,0,0,0,0,0,0,-1,1770,743,0,0
553,281,0,0,0,0,0,0,0,0,0,-1,1777,743,0,0
560,281,18.6497,3.29065,0.0585249,0.0677648,-0.034563,0.0980152,0.0282745,-0.851838,0.0582527,0.0476577,1784,743,18.6497,-3.29067
567,281,19.0076,3.39368,0.0420839,0.0535512,-0.0245971,0.0730741,0.022561,-0.899905,0.0432059,0.0449707,1791,743,19.0076,-3.39368
574,281,19.4081,3.1192,0.0276163,0.0398404,-0.0171238,0.0519103,0.0155464,-0.956817,0.0307633,0.0489346,1798,743,19.4081,-3.11919
581,281,19.4427,2.81427,0.0142739,0.029299,-0.0131546,0.0369351,0.0066378,-1.04485,0.0227361,0.0479483,1805,743,19.4427,-2.81428
588,281,19.2964,2.62213,0,0,0,0,0,0,0,-1,1812,743,19.2964,-2.62211
595,281,22.0559,1.6759,0,0,0,0,0,0,0,-1,1819,743,22.0559,-1.67588
602,281,17.4373,3.20355,0,0,0,0,0,0,0,-1,1826,743,17.4373,-3.20354
609,281,15.5107,-0.457886,0,0,0,0,0,0,0,-1,1833,743,15.5107,0.457861
616,281,16.0756,3.79248,0,0,0,0,0,0,0,-1,1840,743,16.0755,-3.79247
623,281,12.9353,-0.0117798,0,0,0,0,0,0,0,-1,1847,743,12.9353,0.0117722
630,281,13.0098,0.212769,-0.0307183,-0.00583676,-0.00734307,-0.0038313,-0.0327238,-1.30419,0.0206575,0.0343413,1854,743,13.0097,-0.212787
637,281,13.0511,0.462219,-0.0270246,-0.00555901,-0.00642721,-0.00378174,-0.0288019,-1.30101,0.0180731,0.0119048,1861,743,13.0511,-0.462227
644,281,13.0688,0.71228,-0.0206582,-0.00388965,-0.00576798,-0.0020972,-0.0224506,-1.2695,0.0143193,0.00984844,1868,743,13.0688,-0.712257
651,281,13.0709,0.948547,-0.0138769,-0.00277476,-0.00458393,-0.00112674,-0.0155249,-1.22567,0.00999555,0.0104551,1875,743,13.0709,-0.948524
658,281,13.0347,1.15594,-0.00781463,-0.00156741,-0.00332203,-0.000131106,-0.00925094,-1.16271,0.00612406,0.0174616,1882,743,13.0347,-1.15596
665,281,13.0243,1.36206,-0.00289287,0.000208327,-0.00159766,0.000884135,-0.00356868,-1.17062,0.00272212,0.0197974,1889,743,13.0242,-1.36206
672,281,13.035,1.62701,0.000677964,0.0026234,-0.000427227,0.00271309,0.000588278,-1.36387,0.00164801,0.0126265,1896,743,13.0351,-1.62701
679,281,13.0452,1.84601,0.00339731,0.00507883,0.000256086,0.00511697,0.00335917,1.42297,0.00300212,0.018104,1903,743,13.0452,-1.84602
686,281,13.0232,2.04913,0.00595172,0.00782631,0.000636478,0.00802199,0.00575604,1.27253,0.00477537,0.012912,1910,743,13.0232,-2.04913
693,281,13.0371,2.25916,0.00923628,0.0114184,0.00105941,0.0118481,0.00880656,1.18546,0.00710531,0.00983087,1917,743,13.0372,-2.25914
700,281,13.0568,2.4856,0.0137668,0.0160498,0.00165908,0.0169222,0.0128945,1.08673,0.0102073,0.016543,1924,743,13.0568,-2.48558
707,281,13.0361,2.71558,0.0198931,0.0218728,0.00252194,0.0235922,0.0181737,0.97241,0.0142691,0.0349694,1931,743,13.0362,-2.7156
714,281,13.2871,2.80475,0.0279902,0.0288505,0.00369006,0.0321354,0.0247053,0.843421,0.0194264,0.0490685,1938,743,13.2871,-2.80477
721,281,13.7502,2.81287,0,0,0,0,0,0,0,-1,1945,743,13.7503,-2.81285
728,281,14.568,3.14459,0,0,0,0,0,0,0,-1,1952,743,14.568,-3.1446
735,281,15.1864,2.98285,0,0,0,0,0,0,0,-1,1959,743,15.1864,-2.98285
742,281,0,0,0,0,0,0,0,0,0,-1,1966,743,0,0
749,281,0,0,0,0,0,0,0,0,0,-1,1973,743,0,0
756,281,0,0,0,0,0,0,0,0,0,-1,1980,743,0,0
763,281,0,0,0,0,0,0,0,0,0,-1,1987,743,0,0
770,281,0,0,0,0,0,0,0,0,0,-1,1994,743,0,0
777,281,0,0,0,0,0,0,0,0,0,-1,2001,743,0,0
784,281,0,0,0,0,0,0,0,0,0,-1,2008,743,0,0
791,281,0,0,0,0,0,0,0,0,0,-1,2015,743,0,0
798,281,0,0,0,0,0,0,0,0,0,-1,2022,743,0,0
805,281,0,0,0,0,0,0,0,0,0,-1,2029,743,0,0
812,281,0,0,0,0,0,0,0,0,0,-1,2036,743,0,0
-700,274,0,0,0,0,0,0,0,0,0,-1,524,750,0,0
-693,274,0,0,0,0,0,0,0,0,0,-1,531,750,0,0
-686,274,0,0,0,0,0,0,0,0,0,-1,538,750,0,0
-679,274,0,0,0,0,0,0,0,0,0,-1,545,750,0,0
-672,274,0,0,0,0,0,0,0,0,0,-1,552,750,0,0
-665,274,0,0,0,0,0,0,0,0,0,-1,559,750,0,0
-658,274,0,0,0,0,0,0,0,0,0,-1,566,750,0,0
-651,274,0,0,0,0,0,0,0,0,0,-1,573,750,0,0
-644,274,0,0,0,0,0,0,0,0,0,-1,580,750,0,0
-637,274,0,0,0,0,0,0,0,0,0,-1,587,750,0,0
-630,274,0,0,0,0,0,0,0,0,0,-1,594,750,0,0
-623,274,-12.14,-0.835999,0,0,0,0,0,0,0,-1,601,750,-12.14,0.836003
-616,274,-5.10834,2.74371,0,0,0,0,0,0,0,-1,608,750,-5.10835,-2.74371
-609,274,-5.54803,2.1535,0,0,0,0,0,0,0,-1,615,750,-5.54801,-2.15352
-602,274,-6.03461,1.55402,0,0,0,0,0,0,0,-1,622,750,-6.03459,-1.55399
-595,274,-7.00269,1.59772,0,0,0,0,0,0,0,-1,629,750,-7.00266,-1.59771
-588,274,-7.48834,0.850281,0,0,0,0,0,0,0,-1,636,750,-7.48831,-0.850258
-581,274,-7.50586,0.619995,0.0152672,0.00536454,0.00703252,0.0189166,0.00171517,0.478675,0.01208,0.0388489,643,750,-7.50589,-0.620008
-574,274,-7.52362,0.385376,0.00769663,0.00231272,0.00499107,0.0106754,-0.000666071,0.538082,0.00734904,0.0196233,650,750,-7.52364,-0.385403
-567,274,-7.59943,0.225769,0.00385049,0.000834048,0.00406803,0.00668088,-0.00199635,0.607879,0.00524752,0.0170299,657,750,-7.59944,-0.225791
-560,274,-7.58398,0.0663452,0.000689376,0.000340085,0.00351324,0.00403231,-0.00300285,0.760563,0.00407622,0.0133894,664,750,-7.58399,-0.0663684
-553,274,-7.56897,-0.154358,-0.00035556,-0.000249901,0.00277193,0.0024697,-0.00307516,0.794926,0.00320768,0.00891228,671,750,-7.56895,0.154373
-546,274,-7.58514,-0.3526,-0.000837998,-0.000597917,0.00259871,0.00188353,-0.00331944,0.808478,0.00304183,0.0101151,678,750,-7.58513,0.35259
-539,274,-7.60217,-0.55719,-0.000859653,-0.00104446,0.00278857,0.00183805,-0.00374216,0.768836,0.00328366,0.0108833,685,750,-7.60215,0.55716
-532,274,-7.60663,-0.762939,-0.000784476,-0.000845814,0.00351273,0.00269772,-0.00432801,0.781033,0.00409255,0.0111984,692,750,-7.60663,0.762963
-525,274,-7.58331,-0.982849,-0.000549677,-0.000203608,0.0048729,0.00449933,-0.00525262,0.803146,0.00563589,0.0110657,699,750,-7.58332,0.982841
-518,274,-7.5661,-1.19385,-0.000259836,-0.000396323,0.00680391,0.00647617,-0.00713233,0.780383,0.00785991,0.0129791,706,750,-7.56613,1.19386
-511,274,-7.58539,-1.42902,-0.000267834,-0.00208648,0.00929739,0.0081646,-0.0105189,0.736651,0.0108154,0.0121679,713,750,-7.58537,1.42904
-504,274,-7.59845,-1.67151,-0.000369207,-0.00493406,0.0120725,0.00963473,-0.014938,0.691971,0.0142968,0.0196041,720,750,-7.59842,1.67153
-497,274,-7.51611,-1.68329,-0.000690396,-0.00835818,0.0154649,0.0114088,-0.0204574,0.663894,0.0186435,0.0424309,727,750,-7.51609,1.68329
-490,274,-7.54993,-1.39038,-0.0015605,-0.0137193,0.0190223,0.0123303,-0.0276101,0.630732,0.0236154,0.0474319,734,750,-7.54991,1.39039
-483,274,-7.4729,-1.09088,-0.00319881,-0.0217261,0.0224476,0.0118215,-0.0367464,0.589704,0.0292456,0.0460575,741,750,-7.4729,1.09088
-476,274,-7.43689,-0.810059,-0.00587468,-0.0332112,0.0253906,0.00929283,-0.0483787,0.538482,0.0357549,0.0431432,748,750,-7.43686,0.810085
-469,274,-7.45239,-0.46344,-0.00996925,-0.0492188,0.0274602,0.00415789,-0.063346,0.475148,0.0436826,0.0474203,755,750,-7.45238,0.463467
-462,274,-7.67004,-0.388306,-0.0160214,-0.0701349,0.0280572,-0.0041003,-0.082056,0.401774,0.0533898,0.0478829,762,750,-7.67003,0.388293
-455,274,-7.94147,-0.490051,0,0,0,0,0,0,0,-1,769,750,-7.94145,0.49007
-448,274,-12.8161,0.541016,0,0,0,0,0,0,0,-1,776,750,-12.8161,-0.541035
-441,274,0,0,0,0,0,0,0,0,0,-1,783,750,0,0
-434,274,0,0,0,0,0,0,0,0,0,-1,790,750,0,0
-427,274,0,0,0,0,0,0,0,0,0,-1,797,750,0,0
-420,274,0,0,0,0,0,0,0,0,0,-1,804,750,0,0
-413,274,0,0,0,0,0,0,0,0,0,-1,811,750,0,0
-406,274,0,0,0,0,0,0,0,0,0,-1,818,750,0,0
-399,274,0,0,0,0,0,0,0,0,0,-1,825,750,0,0
-392,274,0,0,0,0,0,0,0,0,0,-1,832,750,0,0
-385,274,0,0,0,0,0,0,0,0,0,-1,839,750,0,0
-378,274,0,0,0,0,0,0,0,0,0,-1,846,750,0,0
-371,274,0,0,0,0,0,0,0,0,0,-1,853,750,0,0
-364,274,0,0,0,0,0,0,0,0,0,-1,860,750,0,0
-357,274,0,0,0,0,0,0,0,0,0,-1,867,750,0,0
-350,274,0,0,0,0,0,0,0,0,0,-1,874,750,0,0
-343,274,0,0,0,0,0,0,0,0,0,-1,881,750,0,0
-336,274,0,0,0,0,0,0,0,0,0,-1,888,750,0,0
-329,274,0,0,0,0,0,0,0,0,0,-1,895,750,0,0
-322,274,0,0,0,0,0,0,0,0,0,-1,902,750,0,0
-315,274,0,0,0,0,0,0,0,0,0,-1,909,750,0,0
-308,274,0,0,0,0,0,0,0,0,0,-1,916,750,0,0
-301,274,0,0,0,0,0,0,0,0,0,-1,923,750,0,0
-294,274,0,0,0,0,0,0,0,0,0,-1,930,750,0,0
-287,274,0,0,0,0,0,0,0,0,0,-1,937,750,0,0
-280,274,0,0,0,0,0,0,0,0,0,-1,944,750,0,0
-273,274,0,0,0,0,0,0,0,0,0,-1,951,750,0,0
-266,274,0,0,0,0,0,0,0,0,0,-1,958,750,0,0
-259,274,0,0,0,0,0,0,0,0,0,-1,965,750,0,0
-252,274,0,0,0,0,0,0,0,0,0,-1,972,750,0,0
-245,274,0,0,0,0,0,0,0,0,0,-1,979,750,0,0
-238,274,0,0,0,0,0,0,0,0,0,-1,986,750,0,0
-231,274,0,0,0,0,0,0,0,0,0,-1,993,750,0,0
-224,274,0,0,0,0,0,0,0,0,0,-1,1000,750,0,0
-217,274,0,0,0,0,0,0,0,0,0,-1,1007,750,0,0
-210,274,0,0,0,0,0,0,0,0,0,-1,1014,750,0,0
-203,274,0,0,0,0,0,0,0,0,0,-1,1021,750,0,0
-196,274,0,0,0,0,0,0,0,0,0,-1,1028,750,0,0
-189,274,0,0,0,0,0,0,0,0,0,-1,1035,750,0,0
-182,274,0,0,0,0,0,0,0,0,0,-1,1042,750,0,0
-175,274,0,0,0,0,0,0,0,0,0,-1,1049,750,0,0
-168,274,0,0,0,0,0,0,0,0,0,-1,1056,750,0,0
-161,274,0,0,0,0,0,0,0,0,0,-1,1063,750,0,0
-154,274,0,0,0,0,0,0,0,0,0,-1,1070,750,0,0
-147,274,0,0,0,0,0,0,0,0,0,-1,1077,750,0,0
-140,274,0,0,0,0,0,0,0,0,0,-1,1084,750,0,0
-133,274,0,0,0,0,0,0,0,0,0,-1,1091,750,0,0
-126,274,0,0,0,0,0,0,0,0,0,-1,1098,750,0,0
-119,274,0,0,0,0,0,0,0,0,0,-1,1105,750,0,0
-112,274,0,0,0,0,0,0,0,0,0,-1,1112,750,0,0
-105,274,0,0,0,0,0,0,0,0,0,-1,1119,750,0,0
-98,274,0,0,0,0,0,0,0,0,0,-1,1126,750,0,0
-91,274,0,0,0,0,0,0,0,0,0,-1,1133,750,0,0
-84,274,0,0,0,0,0,0,0,0,0,-1,1140,750,0,0
-77,274,0,0,0,0,0,0,0,0,0,-1,1147,750,0,0
-70,274,0,0,0,0,0,0,0,0,0,-1,1154,750,0,0
-63,274,0,0,0,0,0,0,0,0,0,-1,1161,750,0,0
-56,274,0,0,0,0,0,0,0,0,0,-1,1168,750,0,0
-49,274,0,0,0,0,0,0,0,0,0,-1,1175,750,0,0
-42,274,0,0,0,0,0,0,0,0,0,-1,1182,750,0,0
-35,274,0,0,0,0,0,0,0,0,0,-1,1189,750,0,0
-28,274,0,0,0,0,0,0,0,0,0,-1,1196,750,0,0
-21,274,0,0,0,0,0,0,0,0,0,-1,1203,750,0,0
-14,274,0,0,0,0,0,0,0,0,0,-1,1210,750,0,0
-7,274,0,0,0,0,0,0,0,0,0,-1,1217,750,0,0
0,274,0,0,0,0,0,0,0,0,0,-1,1224,750,0,0
7,274,0,0,0,0,0,0,0,0,0,-1,1231,750,0,0
14,274,0,0,0,0,0,0,0,0,0,-1,1238,750,0,0
21,274,0,0,0,0,0,0,0,0,0,-1,1245,750,0,0
28,274,0,0,0,0,0,0,0,0,0,-1,1252,750,0,0
35,274,0,0,0,0,0,0,0,0,0,-1,1259,750,0,0
42,274,0,0,0,0,0,0,0,0,0,-1,1266,750,0,0
49,274,0,0,0,0,0,0,0,0,0,-1,1273,750,0,0
56,274,0,0,0,0,0,0,0,0,0,-1,1280,750,0,0
63,274,0,0,0,0,0,0,0,0,0,-1,1287,750,0,0
70,274,0,0,0,0,0,0,0,0,0,-1,1294,750,0,0
77,274,0,0,0,0,0,0,0,0,0,-1,1301,750,0,0
84,274,0,0,0,0,0,0,0,0,0,-1,1308,750,0,0
91,274,0,0,0,0,0,0,0,0,0,-1,1315,750,0,0
98,274,0,0,0,0,0,0,0,0,0,-1,1322,750,0,0
105,274,0,0,0,0,0,0,0,0,0,-1,1329,750,0,0
112,274,0,0,0,0,0,0,0,0,0,-1,1336,750,0,0
119,274,0,0,0,0,0,0,0,0,0,-1,1343,750,0,0
126,274,0,0,0,0,0,0,0,0,0,-1,1350,750,0,0
133,274,0,0,0,0,0,0,0,0,0,-1,1357,750,0,0
140,274,0,0,0,0,0,0,0,0,0,-1,1364,750,0,0
147,274,0,0,0,0,0,0,0,0,0,-1,1371,750,0,0
154,274,0,0,0,0,0,0,0,0,0,-1,1378,750,0,0
161,274,0,0,0,0,0,0,0,0,0,-1,1385,750,0,0
168,274,0,0,0,0,0,0,0,0,0,-1,1392,750,0,0
175,274,0,0,0,0,0,0,0,0,0,-1,1399,750,0,0
182,274,0,0,0,0,0,0,0,0,0,-1,1406,750,0,0
189,274,0,0,0,0,0,0,0,0,0,-1,1413,750,0,0
196,274,0,0,0,0,0,0,0,0,0,-1,1420,750,0,0
203,274,0,0,0,0,0,0,0,0,0,-1,1427,750,0,0
210,274,0,0,0,0,0,0,0,0,0,-1,1434,750,0,0
217,274,0,0,0,0,0,0,0,0,0,-1,1441,750,0,0
224,274,0,0,0,0,0,0,0,0,0,-1,1448,750,0,0
231,274,0,0,0,0,0,0,0,0,0,-1,1455,750,0,0
238,274,0,0,0,0,0,0,0,0,0,-1,1462,750,0,0
245,274,0,0,0,0,0,0,0,0,0,-1,1469,750,0,0
252,274,0,0,0,0,0,0,0,0,0,-1,1476,750,0,0
259,274,0,0,0,0,0,0,0,0,0,-1,1483,750,0,0
266,274,0,0,0,0,0,0,0,0,0,-1,1490,750,0,0
273,274,0,0,0,0,0,0,0,0,0,-1,1497,750,0,0
280,274,0,0,0,0,0,0,0,0,0,-1,1504,750,0,0
287,274,0,0,0,0,0,0,0,0,0,-1,1511,750,0,0
294,274,0,0,0,0,0,0,0,0,0,-1,1518,750,0,0
301,274,0,0,0,0,0,0,0,0,0,-1,1525,750,0,0
308,274,0,0,0,0,0,0,0,0,0,-1,1532,750,0,0
315,274,0,0,0,0,0,0,0,0,0,-1,1539,750,0,0
322,274,0,0,0,0,0,0,0,0,0,-1,1546,750,0,0
329,274,0,0,0,0,0,0,0,0,0,-1,1553,750,0,0
336,274,0,0,0,0,0,0,0,0,0,-1,1560,750,0,0
343,274,0,0,0,0,0,0,0,0,0,-1,1567,750,0,0
350,274,0,0,0,0,0,0,0,0,0,-1,1574,750,0,0
357,274,0,0,0,0,0,0,0,0,0,-1,1581,750,0,0
364,274,0,0,0,0,0,0,0,0,0,-1,1588,750,0,0
371,274,0,0,0,0,0,0,0,0,0,-1,1595,750,0,0
378,274,0,0,0,0,0,0,0,0,0,-1,1602,750,0,0
385,274,0,0,0,0,0,0,0,0,0,-1,1609,750,0,0
392,274,0,0,0,0,0,0,0,0,0,-1,1616,750,0,0
399,274,0,0,0,0,0,0,0,0,0,-1,1623,750,0,0
406,274,0,0,0,0,0,0,0,0,0,-1,1630,750,0,0
413,274,0,0,0,0,0,0,0,0,0,-1,1637,750,0,0
420,274,0,0,0,0,0,0,0,0,0,-1,1644,750,0,0
427,274,0,0,0,0,0,0,0,0,0,-1,1651,750,0,0
434,274,0,0,0,0,0,0,0,0,0,-1,1658,750,0,0
441,274,0,0,0,0,0,0,0,0,0,-1,1665,750,0,0
448,274,0,0,0,0,0,0,0,0,0,-1,1672,750,0,0
455,274,0,0,0,0,0,0,0,0,0,-1,1679,750,0,0
462,274,0,0,0,0,0,0,0,0,0,-1,1686,750,0,0
469,274,0,0,0,0,0,0,0,0,0,-1,1693,750,0,0
476,274,0,0,0,0,0,0,0,0,0,-1,1700,750,0,0
483,274,0,0,0,0,0,0,0,0,0,-1,1707,750,0,0
490,274,0,0,0,0,0,0,0,0,0,-1,1714,750,0,0
497,274,0,0,0,0,0,0,0,0,0,-1,1721,750,0,0
504,274,0,0,0,0,0,0,0,0,0,-1,1728,750,0,0
511,274,0,0,0,0,0,0,0,0,0,-1,1735,750,0,0
518,274,0,0,0,0,0,0,0,0,0,-1,1742,750,0,0
525,274,0,0,0,0,0,0,0,0,0,-1,1749,750,0,0
532,274,0,0,0,0,0,0,0,0,0,-1,1756,750,0,0
539,274,0,0,0,0,0,0,0,0,0,-1,1763,750,0,0
546,274,0,0,0,0,0,0,0,0,0,-1,1770,750,0,0
553,274,0,0,0,0,0,0,0,0,0,-1,1777,750,0,0
560,274,19.3953,2.75641,0.0654926,0.0573599,-0.0269351,0.0886666,0.0341859,-0.71048,0.0516367,0.0460804,1784,750,19.3953,-2.7564
567,274,19.2192,3.03735,0.0401083,0.0458592,-0.0188288,0.0620308,0.0239366,-0.861171,0.0361231,0.0431253,1791,750,19.2192,-3.03733
574,274,19.5813,2.75409,0.0189822,0.0335911,-0.0143255,0.0423669,0.0102064,-1.02116,0.0255318,0.0446507,1798,750,19.5813,-2.75407
581,274,19.687,2.38373,0.00322585,0.0238618,-0.0121098,0.0294532,-0.00236551,-1.13824,0.0204696,0.0412173,1805,750,19.687,-2.38371
588,274,22.651,1.29456,0,0,0,0,0,0,0,-1,1812,750,22.651,-1.29456
595,274,21.7625,1.75562,0,0,0,0,0,0,0,-1,1819,750,21.7624,-1.75564
602,274,21.3303,2.25433,0,0,0,0,0,0,0,-1,1826,750,21.3303,-2.25435
609,274,15.6901,0.594666,0,0,0,0,0,0,0,-1,1833,750,15.6901,-0.594678
616,274,14.4967,0.282654,0,0,0,0,0,0,0,-1,1840,750,14.4968,-0.282675
623,274,13.2843,0.0602417,0,0,0,0,0,0,0,-1,1847,750,13.2843,-0.0602191
630,274,13.2805,0.237549,-0.034061,-0.00592464,-0.00830649,-0.0036554,-0.0363302,-1.30411,0.0230983,0.0399904,1854,750,13.2805,-0.237556
637,274,13.2578,0.441162,-0.0305787,-0.00558504,-0.0075037,-0.0035053,-0.0326584,-1.30042,0.020703,0.0126869,1861,750,13.2578,-0.44116
644,274,13.2704,0.696533,-0.0245399,-0.00398297,-0.00695201,-0.00185268,-0.0266702,-1.27345,0.0171959,0.0117388,1868,750,13.2704,-0.696559
651,274,13.2771,0.948059,-0.0175659,-0.00296406,-0.00577196,-0.000958051,-0.0195719,-1.23631,0.0127406,0.0137402,1875,750,13.2771,-0.948035
658,274,13.2725,1.18256,-0.0109588,-0.00187055,-0.00448707,-2.85273e-05,-0.0128008,-1.18126,0.00852439,0.0162765,1882,750,13.2724,-1.18256
665,274,13.2604,1.41125,-0.00537453,-0.000427807,-0.00251907,0.000629161,-0.0064315,-1.17352,0.00451203,0.0167847,1889,750,13.2603,-1.41123
672,274,13.2817,1.6344,-0.00124354,0.00160672,-0.0011298,0.00200023,-0.00163705,-1.23564,0.00210347,0.0150159,1896,750,13.2817,-1.63442
679,274,13.2787,1.85266,0.00192658,0.00360132,-0.000246086,0.00363673,0.00189117,-1.42788,0.00210023,0.0152946,1903,750,13.2787,-1.85269
686,274,13.2739,2.07202,0.00446881,0.00570346,0.00014614,0.00572052,0.00445175,1.45457,0.00346898,0.0134917,1910,750,13.2739,-2.07204
693,274,13.2715,2.29114,0.00747326,0.00834898,0.000534553,0.00860211,0.00722013,1.12854,0.00533409,0.010771,1917,750,13.2715,-2.29116
700,274,13.295,2.49982,0.0113616,0.0116844,0.00104428,0.0125797,0.0104663,0.862063,0.00777829,0.0126322,1924,750,13.2951,-2.4998
707,274,13.2784,2.70691,0.0163732,0.0157879,0.00175742,0.0178622,0.014299,0.702898,0.010916,0.0205227,1931,750,13.2784,-2.70689
714,274,13.2484,2.9173,0.0231012,0.0206148,0.00275049,0.0248764,0.0188396,0.573146,0.014983,0.0420125,1938,750,13.2484,-2.91727
721,274,13.2159,3.08606,0,0,0,0,0,0,0,-1,1945,750,13.216,-3.08605
728,274,14.3164,2.54193,0,0,0,0,0,0,0,-1,1952,750,14.3165,-2.54191
735,274,14.9237,2.3988,0,0,0,0,0,0,0,-1,1959,750,14.9236,-2.39878
742,274,11.7815,-0.740234,0,0,0,0,0,0,0,-1,1966,750,11.7815,0.740253
749,274,0,0,0,0,0,0,0,0,0,-1,1973,750,0,0
756,274,0,0,0,0,0,0,0,0,0,-1,1980,750,0,0
763,274,0,0,0,0,0,0,0,0,0,-1,1987,750,0,0
770,274,0,0,0,0,0,0,0,0,0,-1,1994,750,0,0
777,274,0,0,0,0,0,0,0,0,0,-1,2001,750,0,0
784,274,0,0,0,0,0,0,0,0,0,-1,2008,750,0,0
791,274,0,0,0,0,0,0,0,0,0,-1,2015,750,0,0
798,274,0,0,0,0,0,0,0,0,0,-1,2022,750,0,0
805,274,0,0,0,0,0,0,0,0,0,-1,2029,750,0,0
812,274,0,0,0,0,0,0,0,0,0,-1,2036,750,0,0
-700,267,0,0,0,0,0,0,0,0,0,-1,524,757,0,0
-693,267,0,0,0,0,0,0,0,0,0,-1,531,757,0,0
-686,267,0,0,0,0,0,0,0,0,0,-1,538,757,0,0
-679,267,0,0,0,0,0,0,0,0,0,-1,545,757,0,0
-672,267,0,0,0,0,0,0,0,0,0,-1,552,757,0,0
-665,267,0,0,0,0,0,0,0,0,0,-1,559,757,0,0
-658,267,0,0,0,0,0,0,0,0,0,-1,566,757,0,0
-651,267,0,0,0,0,0,0,0,0,0,-1,573,757,0,0
-644,267,0,0,0,0,0,0,0,0,0,-1,580,757,0,0
-637,267,0,0,0,0,0,0,0,0,0,-1,587,757,0,0
-630,267,-11.499,-0.0250244,0,0,0,0,0,0,0,-1,594,757,-11.499,0.025046
-623,267,-9.50732,1.73883,0,0,0,0,0,0,0,-1,601,757,-9.5073,-1.73882
-616,267,-8.20447,1.12512,0,0,0,0,0,0,0,-1,608,757,-8.20446,-1.12512
-609,267,-7.55176,2.88208,0,0,0,0,0,0,0,-1,615,757,-7.55176,-2.8821
-602,267,-7.8075,2.1969,0,0,0,0,0,0,0,-1,622,757,-7.80747,-2.19691
-595,267,-7.87567,1.41522,0.0438799,0.0232223,0.0137446,0.050744,0.0163581,0.463174,0.029907,0.0493718,629,757,-7.8757,-1.41524
-588,267,-7.65631,1.06677,0.0282095,0.0140216,0.0093184,0.0328269,0.00940418,0.460057,0.0195202,0.0422888,636,757,-7.65631,-1.06677
-581,267,-7.68799,0.688538,0.0160467,0.00750908,0.00580122,0.0189805,0.00457533,0.468207,0.0114377,0.0275456,643,757,-7.68798,-0.688565
-574,267,-7.75983,0.425354,0.00824624,0.00358184,0.00371194,0.0102978,0.00153024,0.504915,0.00641626,0.0148336,650,757,-7.7598,-0.425354
-567,267,-7.80133,0.258606,0.00421294,0.00160546,0.00292856,0.00611485,-0.000296454,0.575979,0.00417889,0.0204698,657,757,-7.80132,-0.258626
-560,267,-7.78479,0.0782471,0.00100225,0.0009479,0.0026258,0.00360102,-0.00165087,0.780224,0.00310108,0.0206063,664,757,-7.78477,-0.0782242
-553,267,-7.78668,-0.119812,-0.000238456,0.000174678,0.00215545,0.00213343,-0.00219721,0.83317,0.00250039,0.0169519,671,757,-7.78669,0.119841
-546,267,-7.78381,-0.353455,-0.00073963,-0.000325159,0.00231062,0.0017875,-0.00285229,0.830123,0.00270219,0.0106933,678,757,-7.78381,0.353451
-539,267,-7.78668,-0.559875,-0.000719626,-0.000802694,0.00279254,0.00203168,-0.003554,0.777962,0.00326458,0.0098266,685,757,-7.78665,0.559874
-532,267,-7.78271,-0.757263,-0.000745439,-0.000475592,0.003764,0.0031559,-0.00437693,0.803313,0.00436808,0.00992375,692,757,-7.78272,0.757254
-525,267,-7.78467,-0.967346,-0.000662836,0.000520597,0.00533293,0.00529454,-0.00543678,0.84065,0.00619591,0.00941546,699,757,-7.78466,0.967354
-518,267,-7.79681,-1.19012,-0.00045674,0.000631148,0.00740054,0.00750771,-0.0073333,0.822083,0.00856866,0.0106991,706,757,-7.79682,1.19012
-511,267,-7.79572,-1.42914,-0.000595934,-0.000631032,0.010032,0.00941851,-0.0106455,0.784523,0.0115912,0.0147801,713,757,-7.79573,1.42915
-504,267,-7.862,-1.61664,-0.0008014,-0.00277373,0.0128971,0.0111472,-0.0147223,0.74724,0.0149832,0.0266759,720,757,-7.86199,1.61661
-497,267,-8.63757,-1.99329,-0.00124427,-0.00543039,0.0163505,0.0131466,-0.0198212,0.721738,0.0191636,0.0428718,727,757,-8.6376,1.99331
-490,267,-7.56226,-1.12579,-0.0022401,-0.00991575,0.0199744,0.0142618,-0.0264177,0.690486,0.0238333,0.0489199,734,757,-7.56225,1.12582
-483,267,-7.38953,-0.925293,0,0,0,0,0,0,0,-1,741,757,-7.38955,0.925276
-476,267,-7.71149,-0.450134,-0.00683858,-0.0274704,0.0266279,0.0114018,-0.0457108,0.600595,0.0349009,0.0432845,748,757,-7.71146,0.450161
-469,267,-7.78583,0.0703735,-0.0111833,-0.0425593,0.0289715,0.00607511,-0.0598176,0.537253,0.04205,0.0441995,755,757,-7.78582,-0.0703459
-462,267,-8.19843,0.549194,-0.0174915,-0.0619079,0.0297031,-0.00261232,-0.0767871,0.464393,0.0503433,0.0477124,762,757,-8.19841,-0.549215
-455,267,-8.56763,1.09015,0,0,0,0,0,0,0,-1,769,757,-8.56762,-1.09018
-448,267,-12.3387,1.45953,0,0,0,0,0,0,0,-1,776,757,-12.3387,-1.45953
-441,267,0,0,0,0,0,0,0,0,0,-1,783,757,0,0
-434,267,0,0,0,0,0,0,0,0,0,-1,790,757,0,0
-427,267,0,0,0,0,0,0,0,0,0,-1,797,757,0,0
-420,267,0,0,0,0,0,0,0,0,0,-1,804,757,0,0
-413,267,0,0,0,0,0,0,0,0,0,-1,811,757,0,0
-406,267,0,0,0,0,0,0,0,0,0,-1,818,757,0,0
-399,267,0,0,0,0,0,0,0,0,0,-1,825,757,0,0
-392,267,0,0,0,0,0,0,0,0,0,-1,832,757,0,0
-385,267,0,0,0,0,0,0,0,0,0,-1,839,757,0,0
-378,267,0,0,0,0,0,0,0,0,0,-1,846,757,0,0
-371,267,0,0,0,0,0,0,0,0,0,-1,853,757,0,0
-364,267,0,0,0,0,0,0,0,0,0,-1,860,757,0,0
-357,267,0,0,0,0,0,0,0,0,0,-1,867,757,0,0
-350,267,0,0,0,0,0,0,0,0,0,-1,874,757,0,0
-343,267,0,0,0,0,0,0,0,0,0,-1,881,757,0,0
-336,267,0,0,0,0,0,0,0,0,0,-1,888,757,0,0
-329,267,0,0,0,0,0,0,0,0,0,-1,895,757,0,0
-322,267,0,0,0,0,0,0,0,0,0,-1,902,757,0,0
-315,267,0,0,0,0,0,0,0,0,0,-1,909,757,0,0
-308,267,0,0,0,0,0,0,0,0,0,-1,916,757,0,0
-301,267,0,0,0,0,0,0,0,0,0,-1,923,757,0,0
-294,267,0,0,0,0,0,0,0,0,0,-1,930,757,0,0
-287,267,0,0,0,0,0,0,0,0,0,-1,937,757,0,0
-280,267,0,0,0,0,0,0,0,0,0,-1,944,757,0,0
-273,267,0,0,0,0,0,0,0,0,0,-1,951,757,0,0
-266,267,0,0,0,0,0,0,0,0,0,-1,958,757,0,0
-259,267,0,0,0,0,0,0,0,0,0,-1,965,757,0,0
-252,267,0,0,0,0,0,0,0,0,0,-1,972,757,0,0
-245,267,0,0,0,0,0,0,0,0,0,-1,979,757,0,0
-238,267,0,0,0,0,0,0,0,0,0,-1,986,757,0,0
-231,267,0,0,0,0,0,0,0,0,0,-1,993,757,0,0
-224,267,0,0,0,0,0,0,0,0,0,-1,1000,757,0,0
-217,267,0,0,0,0,0,0,0,0,0,-1,1007,757,0,0
-210,267,0,0,0,0,0,0,0,0,0,-1,1014,757,0,0
-203,267,0,0,0,0,0,0,0,0,0,-1,1021,757,0,0
-196,267,0,0,0,0,0,0,0,0,0,-1,1028,757,0,0
-189,267,0,0,0,0,0,0,0,0,0,-1,1035,757,0,0
-182,267,0,0,0,0,0,0,0,0,0,-1,1042,757,0,0
-175,267,0,0,0,0,0,0,0,0,0,-1,1049,757,0,0
-168,267,0,0,0,0,0,0,0,0,0,-1,1056,757,0,0
-161,267,0,0,0,0,0,0,0,0,0,-1,1063,757,0,0
-154,267,0,0,0,0,0,0,0,0,0,-1,1070,757,0,0
-147,267,0,0,0,0,0,0,0,0,0,-1,1077,757,0,0
-140,267,0,0,0,0,0,0,0,0,0,-1,1084,757,0,0
-133,267,0,0,0,0,0,0,0,0,0,-1,1091,757,0,0
-126,267,0,0,0,0,0,0,0,0,0,-1,1098,757,0,0
-119,267,0,0,0,0,0,0,0,0,0,-1,1105,757,0,0
-112,267,0,0,0,0,0,0,0,0,0,-1,1112,757,0,0
-105,267,0,0,0,0,0,0,0,0,0,-1,1119,757,0,0
-98,267,0,0,0,0,0,0,0,0,0,-1,1126,757,0,0
-91,267,0,0,0,0,0,0,0,0,0,-1,1133,757,0,0
-84,267,0,0,0,0,0,0,0,0,0,-1,1140,757,0,0
-77,267,0,0,0,0,0,0,0,0,0,-1,1147,757,0,0
-70,267,0,0,0,0,0,0,0,0,0,-1,1154,757,0,0
-63,267,0,0,0,0,0,0,0,0,0,-1,1161,757,0,0
-56,267,0,0,0,0,0,0,0,0,0,-1,1168,757,0,0
-49,267,0,0,0,0,0,0,0,0,0,-1,1175,757,0,0
-42,267,0,0,0,0,0,0,0,0,0,-1,1182,757,0,0
-35,267,0,0,0,0,0,0,0,0,0,-1,1189,757,0,0
-28,267,0,0,0,0,0,0,0,0,0,-1,1196,757,0,0
-21,267,0,0,0,0,0,0,0,0,0,-1,1203,757,0,0
-14,267,0,0,0,0,0,0,0,0,0,-1,1210,757,0,0
-7,267,0,0,0,0,0,0,0,0,0,-1,1217,757,0,0
0,267,0,0,0,0,0,0,0,0,0,-1,1224,757,0,0
7,267,0,0,0,0,0,0,0,0,0,-1,1231,757,0,0
14,267,0,0,0,0,0,0,0,0,0,-1,1238,757,0,0
21,267,0,0,0,0,0,0,0,0,0,-1,1245,757,0,0
28,267,0,0,0,0,0,0,0,0,0,-1,1252,757,0,0
35,267,0,0,0,0,0,0,0,0,0,-1,1259,757,0,0
42,267,0,0,0,0,0,0,0,0,0,-1,1266,757,0,0
49,267,0,0,0,0,0,0,0,0,0,-1,1273,757,0,0
56,267,0,0,0,0,0,0,0,0,0,-1,1280,757,0,0
63,267,0,0,0,0,0,0,0,0,0,-1,1287,757,0,0
70,267,0,0,0,0,0,0,0,0,0,-1,1294,757,0,0
77,267,0,0,0,0,0,0,0,0,0,-1,1301,757,0,0
84,267,0,0,0,0,0,0,0,0,0,-1,1308,757,0,0
91,267,0,0,0,0,0,0,0,0,0,-1,1315,757,0,0
98,267,0,0,0,0,0,0,0,0,0,-1,1322,757,0,0
105,267,0,0,0,0,0,0,0,0,0,-1,1329,757,0,0
112,267,0,0,0,0,0,0,0,0,0,-1,1336,757,0,0
119,267,0,0,0,0,0,0,0,0,0,-1,1343,757,0,0
126,267,0,0,0,0,0,0,0,0,0,-1,1350,757,0,0
133,267,0,0,0,0,0,0,0,0,0,-1,1357,757,0,0
140,267,0,0,0,0,0,0,0,0,0,-1,1364,757,0,0
147,267,0,0,0,0,0,0,0,0,0,-1,1371,757,0,0
154,267,0,0,0,0,0,0,0,0,0,-1,1378,757,0,0
161,267,0,0,0,0,0,0,0,0,0,-1,1385,757,0,0
168,267,0,0,0,0,0,0,0,0,0,-1,1392,757,0,0
175,267,0,0,0,0,0,0,0,0,0,-1,1399,757,0,0
182,267,0,0,0,0,0,0,0,0,0,-1,1406,757,0,0
189,267,0,0,0,0,0,0,0,0,0,-1,1413,757,0,0
196,267,0,0,0,0,0,0,0,0,0,-1,1420,757,0,0
203,267,0,0,0,0,0,0,0,0,0,-1,1427,757,0,0
210,267,0,0,0,0,0,0,0,0,0,-1,1434,757,0,0
217,267,0,0,0,0,0,0,0,0,0,-1,1441,757,0,0
224,267,0,0,0,0,0,0,0,0,0,-1,1448,757,0,0
231,267,0,0,0,0,0,0,0,0,0,-1,1455,757,0,0
238,267,0,0,0,0,0,0,0,0,0,-1,1462,757,0,0
245,267,0,0,0,0,0,0,0,0,0,-1,1469,757,0,0
252,267,0,0,0,0,0,0,0,0,0,-1,1476,757,0,0
259,267,0,0,0,0,0,0,0,0,0,-1,1483,757,0,0
266,267,0,0,0,0,0,0,0,0,0,-1,1490,757,0,0
273,267,0,0,0,0,0,0,0,0,0,-1,1497,757,0,0
280,267,0,0,0,0,0,0,0,0,0,-1,1504,757,0,0
287,267,0,0,0,0,0,0,0,0,0,-1,1511,757,0,0
294,267,0,0,0,0,0,0,0,0,0,-1,1518,757,0,0
301,267,0,0,0,0,0,0,0,0,0,-1,1525,757,0,0
308,267,0,0,0,0,0,0,0,0,0,-1,1532,757,0,0
315,267,0,0,0,0,0,0,0,0,0,-1,1539,757,0,0
322,267,0,0,0,0,0,0,0,0,0,-1,1546,757,0,0
329,267,0,0,0,0,0,0,0,0,0,-1,1553,757,0,0
336,267,0,0,0,0,0,0,0,0,0,-1,1560,757,0,0
343,267,0,0,0,0,0,0,0,0,0,-1,1567,757,0,0
350,267,0,0,0,0,0,0,0,0,0,-1,1574,757,0,0
357,267,0,0,0,0,0,0,0,0,0,-1,1581,757,0,0
364,267,0,0,0,0,0,0,0,0,0,-1,1588,757,0,0
371,267,0,0,0,0,0,0,0,0,0,-1,1595,757,0,0
378,267,0,0,0,0,0,0,0,0,0,-1,1602,757,0,0
385,267,0,0,0,0,0,0,0,0,0,-1,1609,757,0,0
392,267,0,0,0,0,0,0,0,0,0,-1,1616,757,0,0
399,267,0,0,0,0,0,0,0,0,0,-1,1623,757,0,0
406,267,0,0,0,0,0,0,0,0,0,-1,1630,757,0,0
413,267,0,0,0,0,0,0,0,0,0,-1,1637,757,0,0
420,267,0,0,0,0,0,0,0,0,0,-1,1644,757,0,0
427,267,0,0,0,0,0,0,0,0,0,-1,1651,757,0,0
434,267,0,0,0,0,0,0,0,0,0,-1,1658,757,0,0
441,267,0,0,0,0,0,0,0,0,0,-1,1665,757,0,0
448,267,0,0,0,0,0,0,0,0,0,-1,1672,757,0,0
455,267,0,0,0,0,0,0,0,0,0,-1,1679,757,0,0
462,267,0,0,0,0,0,0,0,0,0,-1,1686,757,0,0
469,267,0,0,0,0,0,0,0,0,0,-1,1693,757,0,0
476,267,0,0,0,0,0,0,0,0,0,-1,1700,757,0,0
483,267,0,0,0,0,0,0,0,0,0,-1,1707,757,0,0
490,267,0,0,0,0,0,0,0,0,0,-1,1714,757,0,0
497,267,0,0,0,0,0,0,0,0,0,-1,1721,757,0,0
504,267,0,0,0,0,0,0,0,0,0,-1,1728,757,0,0
511,267,0,0,0,0,0,0,0,0,0,-1,1735,757,0,0
518,267,0,0,0,0,0,0,0,0,0,-1,1742,757,0,0
525,267,0,0,0,0,0,0,0,0,0,-1,1749,757,0,0
532,267,0,0,0,0,0,0,0,0,0,-1,1756,757,0,0
539,267,0,0,0,0,0,0,0,0,0,-1,1763,757,0,0
546,267,0,0,0,0,0,0,0,0,0,-1,1770,757,0,0
553,267,0,0,0,0,0,0,0,0,0,-1,1777,757,0,0
560,267,0,0,0,0,0,0,0,0,0,-1,1784,757,0,0
567,267,19.668,2.64209,0,0,0,0,0,0,0,-1,1791,757,19.668,-2.6421
574,267,19.6613,2.54138,0.0194183,0.0280449,-0.00955624,0.0342162,0.013247,-0.997391,0.0199217,0.0406362,1798,757,19.6613,-2.54137
581,267,19.7495,2.27496,-0.00199118,0.0191725,-0.00957823,0.0228636,-0.00568232,-1.20297,0.0174477,0.0386764,1805,757,19.7496,-2.27496
588,267,22.3816,1.51666,0,0,0,0,0,0,0,-1,1812,757,22.3816,-1.51665
595,267,21.5176,1.82538,-0.0269573,0.00572254,-0.00921666,0.00814268,-0.0293775,-1.31401,0.0227894,0.0445425,1819,757,21.5175,-1.82541
602,267,20.9042,2.18506,-0.0339024,0.00130796,-0.00934703,0.0036354,-0.0362299,-1.32676,0.0254517,0.0432867,1826,757,20.9042,-2.18506
609,267,15.5605,1.66833,-0.0378296,-0.00172605,-0.00960578,0.000670593,-0.0402262,-1.32629,0.0270438,0.0432979,1833,757,15.5605,-1.66834
616,267,14.7329,1.22949,-0.0394054,-0.00438442,-0.00946301,-0.00199099,-0.0417988,-1.32307,0.0272265,0.0405214,1840,757,14.7329,-1.22952
623,267,13.8342,0.943665,-0.0383933,-0.00534741,-0.00943641,-0.00284264,-0.040898,-1.31134,0.0263689,0.0451041,1847,757,13.8343,-0.943645
630,267,13.5027,0.664551,-0.0360635,-0.00576206,-0.00899159,-0.0032948,-0.0385308,-1.30299,0.0246624,0.0386534,1854,757,13.5027,-0.664577
637,267,13.495,0.442139,-0.0323924,-0.00536657,-0.0082018,-0.00307225,-0.0346867,-1.29804,0.0221714,0.0240905,1861,757,13.495,-0.442141
644,267,13.4852,0.697144,-0.0265794,-0.00385985,-0.00768098,-0.00150678,-0.0289324,-1.27352,0.0188062,0.0121946,1868,757,13.4852,-0.697126
651,267,13.4749,0.927368,-0.0197416,-0.00296701,-0.00652395,-0.000728454,-0.0219801,-1.24026,0.0144167,0.0155847,1875,757,13.4749,-0.927369
658,267,13.4943,1.16895,-0.0130101,-0.00200788,-0.00526246,0.000103874,-0.0151218,-1.18918,0.010116,0.0156446,1882,757,13.4943,-1.16893
665,267,13.5205,1.41223,-0.00713548,-0.000888253,-0.00314256,0.000419008,-0.00844274,-1.17659,0.00577323,0.0155725,1889,757,13.5205,-1.41225
672,267,13.5239,1.6286,-0.00269608,0.000779115,-0.00156429,0.00137952,-0.00329649,-1.20432,0.00277429,0.0142288,1896,757,13.5239,-1.62859
679,267,13.5067,1.84247,0.000749455,0.00235245,-0.000470702,0.00248045,0.000621458,-1.30529,0.00149032,0.0141078,1903,757,13.5068,-1.84245
686,267,13.5167,2.07904,0.00321689,0.00392621,-5.11173e-05,0.00392988,0.00321322,-1.49922,0.00241672,0.0124218,1910,757,13.5168,-2.07902
693,267,13.5094,2.27313,0.00603907,0.00579502,0.000344542,0.00628256,0.00555153,0.615203,0.00396721,0.0119248,1917,757,13.5093,-2.27312
700,267,13.522,2.48145,0.00965807,0.00813693,0.000859782,0.0100454,0.00774959,0.423275,0.00607796,0.0136494,1924,757,13.522,-2.48144
707,267,13.5115,2.67828,0.0141015,0.0109086,0.00151762,0.0147078,0.0103024,0.380045,0.00871608,0.0137532,1931,757,13.5115,-2.6783
714,267,13.4911,2.86865,0.0200141,0.014111,0.00243252,0.0208873,0.0132378,0.344647,0.0122023,0.0291212,1938,757,13.4911,-2.86864
721,267,13.4552,3.06689,0.0279381,0.0177114,0.00373675,0.029158,0.0164915,0.315545,0.0168826,0.0482432,1945,757,13.4551,-3.0669
728,267,13.3959,3.2265,0,0,0,0,0,0,0,-1,1952,757,13.3959,-3.22652
735,267,14.7295,2.87762,0,0,0,0,0,0,0,-1,1959,757,14.7295,-2.8776
742,267,15.7451,3.65533,0,0,0,0,0,0,0,-1,1966,757,15.7451,-3.65533
749,267,0,0,0,0,0,0,0,0,0,-1,1973,757,0,0
756,267,0,0,0,0,0,0,0,0,0,-1,1980,757,0,0
763,267,0,0,0,0,0,0,0,0,0,-1,1987,757,0,0
770,267,0,0,0,0,0,0,0,0,0,-1,1994,757,0,0
777,267,0,0,0,0,0,0,0,0,0,-1,2001,757,0,0
784,267,0,0,0,0,0,0,0,0,0,-1,2008,757,0,0
791,267,0,0,0,0,0,0,0,0,0,-1,2015,757,0,0
798,267,0,0,0,0,0,0,0,0,0,-1,2022,757,0,0
805,267,0,0,0,0,0,0,0,0,0,-1,2029,757,0,0
812,267,0,0,0,0,0,0,0,0,0,-1,2036,757,0,0
-700,260,0,0,0,0,0,0,0,0,0,-1,524,764,0,0
-693,260,0,0,0,0,0,0,0,0,0,-1,531,764,0,0
-686,260,0,0,0,0,0,0,0,0,0,-1,538,764,0,0
-679,260,0,0,0,0,0,0,0,0,0,-1,545,764,0,0
-672,260,0,0,0,0,0,0,0,0,0,-1,552,764,0,0
-665,260,0,0,0,0,0,0,0,0,0,-1,559,764,0,0
-658,260,0,0,0,0,0,0,0,0,0,-1,566,764,0,0
-651,260,0,0,0,0,0,0,0,0,0,-1,573,764,0,0
-644,260,0,0,0,0,0,0,0,0,0,-1,580,764,0,0
-637,260,0,0,0,0,0,0,0,0,0,-1,587,764,0,0
-630,260,-10.7792,0.214417,0,0,0,0,0,0,0,-1,594,764,-10.7792,-0.214411
-623,260,-9.76923,1.84747,0,0,0,0,0,0,0,-1,601,764,-9.76923,-1.8475
-616,260,-8.44397,1.30389,0,0,0,0,0,0,0,-1,608,764,-8.44396,-1.30392
-609,260,-7.11871,0.760376,0,0,0,0,0,0,0,-1,615,764,-7.1187,-0.76035
-602,260,-8.97839,1.5993,0,0,0,0,0,0,0,-1,622,764,-8.97837,-1.59929
-595,260,-8.77979,1.23474,0.0424777,0.0261057,0.0124593,0.0491996,0.0193839,0.494752,0.0286174,0.049196,629,764,-8.77977,-1.23471
-588,260,-8.20074,0.9021,0.0275732,0.0158889,0.00810897,0.0317254,0.0117367,0.473236,0.018522,0.0408132,636,764,-8.20077,-0.902091
-581,260,-8.00299,0.629211,0.0158091,0.00862866,0.00460381,0.0180571,0.00638066,0.454236,0.0105737,0.0230259,643,764,-8.00298,-0.629238
-574,260,-8.00244,0.427917,0.0081994,0.00430007,0.00265621,0.00954468,0.00295479,0.468806,0.00564227,0.0152387,650,764,-8.00243,-0.427929
-567,260,-7.99396,0.263855,0.00427306,0.00209851,0.00204578,0.00550255,0.000869023,0.541145,0.00341574,0.0155354,657,764,-7.99399,-0.263877
-560,260,-7.9845,0.076416,0.00114773,0.00134707,0.00192847,0.00317845,-0.000683643,0.811217,0.0023798,0.0185828,664,764,-7.98449,-0.0763877
-553,260,-7.9892,-0.128296,-0.000244824,0.000487123,0.00168084,0.00184137,-0.00159907,0.892591,0.00198798,0.0168374,671,764,-7.98917,0.128267
-546,260,-7.98779,-0.346375,-0.000815902,-7.07694e-05,0.00207564,0.00166548,-0.00255215,0.8742,0.00245292,0.0110043,678,764,-7.98778,0.346377
-539,260,-7.98267,-0.539246,-0.000868115,-0.000463936,0.00275813,0.0020995,-0.00343155,0.821968,0.00322407,0.0108305,685,764,-7.98266,0.539238
-532,260,-7.9823,-0.721924,-0.00109299,4.37246e-05,0.00387572,0.00339254,-0.0044418,0.858202,0.00453666,0.0124943,692,764,-7.98229,0.721913
-525,260,-7.98981,-0.942871,-0.0012321,0.00142213,0.00550983,0.00576242,-0.00557239,0.903579,0.00654446,0.011799,699,764,-7.98982,0.942863
-518,260,-8.00549,-1.17285,-0.00117657,0.00190593,0.00756269,0.00808282,-0.00735347,0.88592,0.00891546,0.0127878,706,764,-8.00547,1.17282
-511,260,-7.98895,-1.38684,-0.00145386,0.00122781,0.0101611,0.0101361,-0.0103622,0.850998,0.0118349,0.0208562,713,764,-7.98895,1.38685
-504,260,-8.20349,-1.5094,-0.00174634,-5.89404e-05,0.0129701,0.0120949,-0.0139002,0.817877,0.0150203,0.0382771,720,764,-8.20347,1.50939
-497,260,-9.31854,-1.71692,-0.00223862,-0.00178029,0.0163305,0.0143227,-0.0183416,0.792414,0.0189063,0.0454078,727,764,-9.31852,1.7169
-490,260,-7.64038,-0.767822,-0.00321678,-0.00512748,0.0198804,0.0157312,-0.0240755,0.761389,0.0231501,0.0490557,734,764,-7.6404,0.767843
-483,260,-7.70917,-0.715759,0,0,0,0,0,0,0,-1,741,764,-7.70916,0.715753
-476,260,-7.74689,-0.655884,0,0,0,0,0,0,0,-1,748,764,-7.74688,0.655854
-469,260,-8.10803,0.710571,0,0,0,0,0,0,0,-1,755,764,-8.10804,-0.71056
-462,260,-8.54431,1.35022,0,0,0,0,0,0,0,-1,762,764,-8.54428,-1.35023
-455,260,-11.8521,1.0282,0,0,0,0,0,0,0,-1,769,764,-11.8521,-1.02821
-448,260,0,0,0,0,0,0,0,0,0,-1,776,764,0,0
-441,260,0,0,0,0,0,0,0,0,0,-1,783,764,0,0
-434,260,0,0,0,0,0,0,0,0,0,-1,790,764,0,0
-427,260,0,0,0,0,0,0,0,0,0,-1,797,764,0,0
-420,260,0,0,0,0,0,0,0,0,0,-1,804,764,0,0
-413,260,0,0,0,0,0,0,0,0,0,-1,811,764,0,0
-406,260,0,0,0,0,0,0,0,0,0,-1,818,764,0,0
-399,260,0,0,0,0,0,0,0,0,0,-1,825,764,0,0
-392,260,0,0,0,0,0,0,0,0,0,-1,832,764,0,0
-385,260,0,0,0,0,0,0,0,0,0,-1,839,764,0,0
-378,260,0,0,0,0,0,0,0,0,0,-1,846,764,0,0
-371,260,0,0,0,0,0,0,0,0,0,-1,853,764,0,0
-364,260,0,0,0,0,0,0,0,0,0,-1,860,764,0,0
-357,260,0,0,0,0,0,0,0,0,0,-1,867,764,0,0
-350,260,0,0,0,0,0,0,0,0,0,-1,874,764,0,0
-343,260,0,0,0,0,0,0,0,0,0,-1,881,764,0,0
-336,260,0,0,0,0,0,0,0,0,0,-1,888,764,0,0
-329,260,0,0,0,0,0,0,0,0,0,-1,895,764,0,0
-322,260,0,0,0,0,0,0,0,0,0,-1,902,764,0,0
-315,260,0,0,0,0,0,0,0,0,0,-1,909,764,0,0
-308,260,0,0,0,0,0,0,0,0,0,-1,916,764,0,0
-301,260,0,0,0,0,0,0,0,0,0,-1,923,764,0,0
-294,260,0,0,0,0,0,0,0,0,0,-1,930,764,0,0
-287,260,0,0,0,0,0,0,0,0,0,-1,937,764,0,0
-280,260,0,0,0,0,0,0,0,0,0,-1,944,764,0,0
-273,260,0,0,0,0,0,0,0,0,0,-1,951,764,0,0
-266,260,0,0,0,0,0,0,0,0,0,-1,958,764,0,0
-259,260,0,0,0,0,0,0,0,0,0,-1,965,764,0,0
-252,260,0,0,0,0,0,0,0,0,0,-1,972,764,0,0
-245,260,0,0,0,0,0,0,0,0,0,-1,979,764,0,0
-238,260,0,0,0,0,0,0,0,0,0,-1,986,764,0,0
-231,260,0,0,0,0,0,0,0,0,0,-1,993,764,0,0
-224,260,0,0,0,0,0,0,0,0,0,-1,1000,764,0,0
-217,260,0,0,0,0,0,0,0,0,0,-1,1007,764,0,0
-210,260,0,0,0,0,0,0,0,0,0,-1,1014,764,0,0
-203,260,0,0,0,0,0,0,0,0,0,-1,1021,764,0,0
-196,260,0,0,0,0,0,0,0,0,0,-1,1028,764,0,0
-189,260,0,0,0,0,0,0,0,0,0,-1,1035,764,0,0
-182,260,0,0,0,0,0,0,0,0,0,-1,1042,764,0,0
-175,260,0,0,0,0,0,0,0,0,0,-1,1049,764,0,0
-168,260,0,0,0,0,0,0,0,0,0,-1,1056,764,0,0
-161,260,0,0,0,0,0,0,0,0,0,-1,1063,764,0,0
-154,260,0,0,0,0,0,0,0,0,0,-1,1070,764,0,0
-147,260,0,0,0,0,0,0,0,0,0,-1,1077,764,0,0
-140,260,0,0,0,0,0,0,0,0,0,-1,1084,764,0,0
-133,260,0,0,0,0,0,0,0,0,0,-1,1091,764,0,0
-126,260,0,0,0,0,0,0,0,0,0,-1,1098,764,0,0
-119,260,0,0,0,0,0,0,0,0,0,-1,1105,764,0,0
-112,260,0,0,0,0,0,0,0,0,0,-1,1112,764,0,0
-105,260,0,0,0,0,0,0,0,0,0,-1,1119,764,0,0
-98,260,0,0,0,0,0,0,0,0,0,-1,1126,764,0,0
-91,260,0,0,0,0,0,0,0,0,0,-1,1133,764,0,0
-84,260,0,0,0,0,0,0,0,0,0,-1,1140,764,0,0
-77,260,0,0,0,0,0,0,0,0,0,-1,1147,764,0,0
-70,260,0,0,0,0,0,0,0,0,0,-1,1154,764,0,0
-63,260,0,0,0,0,0,0,0,0,0,-1,1161,764,0,0
-56,260,0,0,0,0,0,0,0,0,0,-1,1168,764,0,0
-49,260,0,0,0,0,0,0,0,0,0,-1,1175,764,0,0
-42,260,0,0,0,0,0,0,0,0,0,-1,1182,764,0,0
-35,260,0,0,0,0,0,0,0,0,0,-1,1189,764,0,0
-28,260,0,0,0,0,0,0,0,0,0,-1,1196,764,0,0
-21,260,0,0,0,0,0,0,0,0,0,-1,1203,764,0,0
-14,260,0,0,0,0,0,0,0,0,0,-1,1210,764,0,0
-7,260,0,0,0,0,0,0,0,0,0,-1,1217,764,0,0
0,260,0,0,0,0,0,0,0,0,0,-1,1224,764,0,0
7,260,0,0,0,0,0,0,0,0,0,-1,1231,764,0,0
14,260,0,0,0,0,0,0,0,0,0,-1,1238,764,0,0
21,260,0,0,0,0,0,0,0,0,0,-1,1245,764,0,0
28,260,0,0,0,0,0,0,0,0,0,-1,1252,764,0,0
35,260,0,0,0,0,0,0,0,0,0,-1,1259,764,0,0
42,260,0,0,0,0,0,0,0,0,0,-1,1266,764,0,0
49,260,0,0,0,0,0,0,0,0,0,-1,1273,764,0,0
56,260,0,0,0,0,0,0,0,0,0,-1,1280,764,0,0
63,260,0,0,0,0,0,0,0,0,0,-1,1287,764,0,0
70,260,0,0,0,0,0,0,0,0,0,-1,1294,764,0,0
77,260,0,0,0,0,0,0,0,0,0,-1,1301,764,0,0
84,260,0,0,0,0,0,0,0,0,0,-1,1308,764,0,0
91,260,0,0,0,0,0,0,0,0,0,-1,1315,764,0,0
98,260,0,0,0,0,0,0,0,0,0,-1,1322,764,0,0
105,260,0,0,0,0,0,0,0,0,0,-1,1329,764,0,0
112,260,0,0,0,0,0,0,0,0,0,-1,1336,764,0,0
119,260,0,0,0,0,0,0,0,0,0,-1,1343,764,0,0
126,260,0,0,0,0,0,0,0,0,0,-1,1350,764,0,0
133,260,0,0,0,0,0,0,0,0,0,-1,1357,764,0,0
140,260,0,0,0,0,0,0,0,0,0,-1,1364,764,0,0
147,260,0,0,0,0,0,0,0,0,0,-1,1371,764,0,0
154,260,0,0,0,0,0,0,0,0,0,-1,1378,764,0,0
161,260,0,0,0,0,0,0,0,0,0,-1,1385,764,0,0
168,260,0,0,0,0,0,0,0,0,0,-1,1392,764,0,0
175,260,0,0,0,0,0,0,0,0,0,-1,1399,764,0,0
182,260,0,0,0,0,0,0,0,0,0,-1,1406,764,0,0
189,260,0,0,0,0,0,0,0,0,0,-1,1413,764,0,0
196,260,0,0,0,0,0,0,0,0,0,-1,1420,764,0,0
203,260,0,0,0,0,0,0,0,0,0,-1,1427,764,0,0
210,260,0,0,0,0,0,0,0,0,0,-1,1434,764,0,0
217,260,0,0,0,0,0,0,0,0,0,-1,1441,764,0,0
224,260,0,0,0,0,0,0,0,0,0,-1,1448,764,0,0
231,260,0,0,0,0,0,0,0,0,0,-1,1455,764,0,0
238,260,0,0,0,0,0,0,0,0,0,-1,1462,764,0,0
245,260,0,0,0,0,0,0,0,0,0,-1,1469,764,0,0
252,260,0,0,0,0,0,0,0,0,0,-1,1476,764,0,0
259,260,0,0,0,0,0,0,0,0,0,-1,1483,764,0,0
266,260,0,0,0,0,0,0,0,0,0,-1,1490,764,0,0
273,260,0,0,0,0,0,0,0,0,0,-1,1497,764,0,0
280,260,0,0,0,0,0,0,0,0,0,-1,1504,764,0,0
287,260,0,0,0,0,0,0,0,0,0,-1,1511,764,0,0
294,260,0,0,0,0,0,0,0,0,0,-1,1518,764,0,0
301,260,0,0,0,0,0,0,0,0,0,-1,1525,764,0,0
308,260,0,0,0,0,0,0,0,0,0,-1,1532,764,0,0
315,260,0,0,0,0,0,0,0,0,0,-1,1539,764,0,0
322,260,0,0,0,0,0,0,0,0,0,-1,1546,764,0,0
329,260,0,0,0,0,0,0,0,0,0,-1,1553,764,0,0
336,260,0,0,0,0,0,0,0,0,0,-1,1560,764,0,0
343,260,0,0,0,0,0,0,0,0,0,-1,1567,764,0,0
350,260,0,0,0,0,0,0,0,0,0,-1,1574,764,0,0
357,260,0,0,0,0,0,0,0,0,0,-1,1581,764,0,0
364,260,0,0,0,0,0,0,0,0,0,-1,1588,764,0,0
371,260,0,0,0,0,0,0,0,0,0,-1,1595,764,0,0
378,260,0,0,0,0,0,0,0,0,0,-1,1602,764,0,0
385,260,0,0,0,0,0,0,0,0,0,-1,1609,764,0,0
392,260,0,0,0,0,0,0,0,0,0,-1,1616,764,0,0
399,260,0,0,0,0,0,0,0,0,0,-1,1623,764,0,0
406,260,0,0,0,0,0,0,0,0,0,-1,1630,764,0,0
413,260,0,0,0,0,0,0,0,0,0,-1,1637,764,0,0
420,260,0,0,0,0,0,0,0,0,0,-1,1644,764,0,0
427,260,0,0,0,0,0,0,0,0,0,-1,1651,764,0,0
434,260,0,0,0,0,0,0,0,0,0,-1,1658,764,0,0
441,260,0,0,0,0,0,0,0,0,0,-1,1665,764,0,0
448,260,0,0,0,0,0,0,0,0,0,-1,1672,764,0,0
455,260,0,0,0,0,0,0,0,0,0,-1,1679,764,0,0
462,260,0,0,0,0,0,0,0,0,0,-1,1686,764,0,0
469,260,0,0,0,0,0,0,0,0,0,-1,1693,764,0,0
476,260,0,0,0,0,0,0,0,0,0,-1,1700,764,0,0
483,260,0,0,0,0,0,0,0,0,0,-1,1707,764,0,0
490,260,0,0,0,0,0,0,0,0,0,-1,1714,764,0,0
497,260,0,0,0,0,0,0,0,0,0,-1,1721,764,0,0
504,260,0,0,0,0,0,0,0,0,0,-1,1728,764,0,0
511,260,0,0,0,0,0,0,0,0,0,-1,1735,764,0,0
518,260,0,0,0,0,0,0,0,0,0,-1,1742,764,0,0
525,260,0,0,0,0,0,0,0,0,0,-1,1749,764,0,0
532,260,0,0,0,0,0,0,0,0,0,-1,1756,764,0,0
539,260,0,0,0,0,0,0,0,0,0,-1,1763,764,0,0
546,260,0,0,0,0,0,0,0,0,0,-1,1770,764,0,0
553,260,0,0,0,0,0,0,0,0,0,-1,1777,764,0,0
560,260,0,0,0,0,0,0,0,0,0,-1,1784,764,0,0
567,260,0,0,0,0,0,0,0,0,0,-1,1791,764,0,0
574,260,19.6633,2.43262,0.0283655,0.0233898,-0.00362247,0.0302721,0.0214832,-0.484501,0.0179826,0.0366074,1798,764,19.6634,-2.43259
581,260,19.7341,2.38837,0.000741663,0.0154176,-0.00561966,0.0173223,-0.00116301,-1.24402,0.0119547,0.0388386,1805,764,19.7341,-2.38836
588,260,20.9646,1.70093,-0.0177329,0.0085988,-0.00710633,0.0103942,-0.0195283,-1.32332,0.017542,0.0482166,1812,764,20.9647,-1.70092
595,260,20.9136,1.85535,-0.0296706,0.00348224,-0.0082147,0.00540607,-0.0315944,-1.34075,0.023077,0.0450684,1819,764,20.9136,-1.85534
602,260,20.2007,2.2514,-0.0368355,-0.000112448,-0.00912325,0.00202918,-0.0389772,-1.34023,0.0266869,0.0441235,1826,764,20.2007,-2.25139
609,260,19.3606,2.66528,-0.040238,-0.00246998,-0.0097934,-8.15503e-05,-0.0426264,-1.33158,0.0283905,0.0416719,1833,764,19.3606,-2.6653
616,260,14.9883,2.20123,-0.0410388,-0.00446668,-0.009884,-0.00196637,-0.0435391,-1.32303,0.0283933,0.041009,1840,764,14.9883,-2.20125
623,260,14.1504,1.90021,-0.0393514,-0.00508494,-0.00986499,-0.00244785,-0.0419885,-1.30959,0.0272131,0.0437598,1847,764,14.1504,-1.90018
630,260,13.7141,0.127258,0,0,0,0,0,0,0,-1,1854,764,13.7141,-0.127256
637,260,13.7455,0.431763,-0.032852,-0.00489163,-0.00860492,-0.00245566,-0.035288,-1.29492,0.022751,0.0468961,1861,764,13.7454,-0.431755
644,260,13.7365,0.738037,-0.0274994,-0.00354461,-0.00808306,-0.0010723,-0.0299717,-1.27397,0.0196335,0.0241611,1868,764,13.7364,-0.738027
651,260,13.7284,0.953613,-0.0211704,-0.00280467,-0.00698733,-0.000448569,-0.0235265,-1.24557,0.015537,0.0139843,1875,764,13.7283,-0.953642
658,260,13.7351,1.18372,-0.0147099,-0.00198843,-0.00580242,0.000260541,-0.0169589,-1.20103,0.0113938,0.0158321,1882,764,13.7351,-1.18371
665,260,13.7355,1.42413,-0.00888261,-0.00114876,-0.0036609,0.000309285,-0.0103407,-1.19178,0.00699914,0.0159808,1889,764,13.7355,-1.42415
672,260,13.7343,1.62976,-0.00429873,0.000179484,-0.00197011,0.000922816,-0.00504206,-1.21001,0.00370746,0.0139397,1896,764,13.7342,-1.62975
679,260,13.7163,1.841,-0.00063746,0.00138779,-0.000709831,0.00161181,-0.000861471,-1.2651,0.00144969,0.0125007,1903,764,13.7164,-1.84103
686,260,13.7224,2.05865,0.00181539,0.0025563,-0.000268747,0.00264351,0.00172818,-1.25699,0.0015501,0.0133439,1910,764,13.7225,-2.05866
693,260,13.7104,2.24976,0.00457282,0.00383683,0.000141144,0.00459896,0.00381069,0.183121,0.00283992,0.0138125,1917,764,13.7104,-2.24975
700,260,13.7092,2.48499,0.00810804,0.00545506,0.00066848,0.00826695,0.00529614,0.2334,0.00483546,0.0130002,1924,764,13.7093,-2.485
707,260,13.7069,2.69238,0.0122023,0.00725648,0.00127505,0.0125116,0.00694712,0.238028,0.00723828,0.0125604,1931,764,13.7069,-2.69239
714,260,13.7051,2.90637,0.0174818,0.00926859,0.00210555,0.0179902,0.00876028,0.236886,0.0103878,0.0224928,1938,764,13.705,-2.90637
721,260,13.7306,3.14319,0.0245632,0.0114658,0.00331839,0.025356,0.010673,0.234507,0.0147002,0.0417625,1945,764,13.7306,-3.14321
728,260,13.7452,3.36255,0,0,0,0,0,0,0,-1,1952,764,13.7452,-3.36257
735,260,14.6575,3.03876,0,0,0,0,0,0,0,-1,1959,764,14.6575,-3.03877
742,260,15.7606,3.51672,0,0,0,0,0,0,0,-1,1966,764,15.7606,-3.51672
749,260,16.6082,3.20825,0,0,0,0,0,0,0,-1,1973,764,16.6082,-3.20827
756,260,0,0,0,0,0,0,0,0,0,-1,1980,764,0,0
763,260,0,0,0,0,0,0,0,0,0,-1,1987,764,0,0
770,260,0,0,0,0,0,0,0,0,0,-1,1994,764,0,0
777,260,0,0,0,0,0,0,0,0,0,-1,2001,764,0,0
784,260,0,0,0,0,0,0,0,0,0,-1,2008,764,0,0
791,260,0,0,0,0,0,0,0,0,0,-1,2015,764,0,0
798,260,0,0,0,0,0,0,0,0,0,-1,2022,764,0,0
805,260,0,0,0,0,0,0,0,0,0,-1,2029,764,0,0
812,260,0,0,0,0,0,0,0,0,0,-1,2036,764,0,0
-700,253,0,0,0,0,0,0,0,0,0,-1,524,771,0,0
-693,253,0,0,0,0,0,0,0,0,0,-1,531,771,0,0
-686,253,0,0,0,0,0,0,0,0,0,-1,538,771,0,0
-679,253,0,0,0,0,0,0,0,0,0,-1,545,771,0,0
-672,253,0,0,0,0,0,0,0,0,0,-1,552,771,0,0
-665,253,0,0,0,0,0,0,0,0,0,-1,559,771,0,0
-658,253,0,0,0,0,0,0,0,0,0,-1,566,771,0,0
-651,253,0,0,0,0,0,0,0,0,0,-1,573,771,0,0
-644,253,0,0,0,0,0,0,0,0,0,-1,580,771,0,0
-637,253,-10.6317,2.92664,0,0,0,0,0,0,0,-1,587,771,-10.6316,-2.92662
-630,253,-10.6754,1.01025,0,0,0,0,0,0,0,-1,594,771,-10.6754,-1.01028
-623,253,-10.06,2.05914,0,0,0,0,0,0,0,-1,601,771,-10.06,-2.05913
-616,253,-8.70044,1.54089,0.100586,0.0677719,0.0301965,0.118545,0.0498131,0.536537,0.0687321,0.046172,608,771,-8.70045,-1.54092
-609,253,-7.14075,0.876465,0,0,0,0,0,0,0,-1,615,771,-7.14078,-0.876483
-602,253,-7.9093,2.15338,0,0,0,0,0,0,0,-1,622,771,-7.90928,-2.1534
-595,253,-8.21356,1.13727,0,0,0,0,0,0,0,-1,629,771,-8.21358,-1.1373
-588,253,-8.20227,0.88501,0.0264591,0.0168525,0.00704909,0.0301859,0.0131258,0.486329,0.0174771,0.0389521,636,771,-8.20225,-0.885029
-581,253,-8.16833,0.631531,0.0152198,0.0092465,0.00367436,0.0169683,0.00749808,0.444138,0.00981866,0.022444,643,771,-8.16832,-0.631529
-574,253,-8.18994,0.417236,0.0078477,0.0046652,0.00186143,0.00870533,0.00380758,0.431746,0.00503914,0.0180684,650,771,-8.18993,-0.417241
-567,253,-8.17694,0.220581,0.00404781,0.00234155,0.00139314,0.00482829,0.00156108,0.510662,0.00284503,0.0154431,657,771,-8.17695,-0.220559
-560,253,-8.14642,0.0498047,0.00108451,0.00158477,0.00140089,0.00275769,-8.8404e-05,0.873741,0.00186862,0.0123837,664,771,-8.1464,-0.0497774
-553,253,-8.17157,-0.137756,-0.000364485,0.000738045,0.00130148,0.0016002,-0.00122664,0.985726,0.00163682,0.0120585,671,771,-8.17156,0.137752
-546,253,-8.19495,-0.321533,-0.000952243,0.000222672,0.00182783,0.00155513,-0.0022847,0.940882,0.00223023,0.0104804,678,771,-8.19493,0.321536
-539,253,-8.20074,-0.534729,-0.00104732,2.81056e-06,0.00261403,0.00214399,-0.0031885,0.884511,0.00309834,0.0107714,685,771,-8.20073,0.534755
-532,253,-8.20184,-0.72937,-0.00138887,0.000697843,0.00376788,0.00356416,-0.00425518,0.920468,0.00452037,0.0137398,692,771,-8.20181,0.729356
-525,253,-8.19421,-0.950806,-0.00168868,0.00244313,0.00535978,0.00612137,-0.00536692,0.969347,0.00663753,0.0119021,699,771,-8.19422,0.950783
-518,253,-8.20953,-1.16357,-0.00173344,0.00330911,0.00728965,0.00850119,-0.00692551,0.951894,0.00892208,0.0156659,706,771,-8.20952,1.16359
-511,253,-8.34576,-1.37292,-0.0020867,0.00326986,0.00974818,0.010701,-0.00951783,0.919463,0.01168,0.035185,713,771,-8.34575,1.37293
-504,253,-8.77893,-1.43646,-0.00242422,0.00287736,0.0124168,0.0129231,-0.01247,0.890562,0.0146615,0.0459613,720,771,-8.77895,1.43648
-497,253,-9.50983,-1.46967,0,0,0,0,0,0,0,-1,727,771,-9.50982,1.46964
-490,253,-7.81323,-0.179138,0,0,0,0,0,0,0,-1,734,771,-7.8132,0.179153
-483,253,-7.8598,-0.107117,0,0,0,0,0,0,0,-1,741,771,-7.85978,0.107112
-476,253,-10.8989,3.32434,0,0,0,0,0,0,0,-1,748,771,-10.8989,-3.32431
-469,253,-8.48602,1.71155,0,0,0,0,0,0,0,-1,755,771,-8.48599,-1.71156
-462,253,-12.6384,0.695618,0,0,0,0,0,0,0,-1,762,771,-12.6384,-0.695633
-455,253,-12.6141,0.777588,0,0,0,0,0,0,0,-1,769,771,-12.6141,-0.777574
-448,253,0,0,0,0,0,0,0,0,0,-1,776,771,0,0
-441,253,0,0,0,0,0,0,0,0,0,-1,783,771,0,0
-434,253,0,0,0,0,0,0,0,0,0,-1,790,771,0,0
-427,253,0,0,0,0,0,0,0,0,0,-1,797,771,0,0
-420,253,0,0,0,0,0,0,0,0,0,-1,804,771,0,0
-413,253,0,0,0,0,0,0,0,0,0,-1,811,771,0,0
-406,253,0,0,0,0,0,0,0,0,0,-1,818,771,0,0
-399,253,0,0,0,0,0,0,0,0,0,-1,825,771,0,0
-392,253,0,0,0,0,0,0,0,0,0,-1,832,771,0,0
-385,253,0,0,0,0,0,0,0,0,0,-1,839,771,0,0
-378,253,0,0,0,0,0,0,0,0,0,-1,846,771,0,0
-371,253,0,0,0,0,0,0,0,0,0,-1,853,771,0,0
-364,253,0,0,0,0,0,0,0,0,0,-1,860,771,0,0
-357,253,0,0,0,0,0,0,0,0,0,-1,867,771,0,0
-350,253,0,0,0,0,0,0,0,0,0,-1,874,771,0,0
-343,253,0,0,0,0,0,0,0,0,0,-1,881,771,0,0
-336,253,0,0,0,0,0,0,0,0,0,-1,888,771,0,0
-329,253,0,0,0,0,0,0,0,0,0,-1,895,771,0,0
-322,253,0,0,0,0,0,0,0,0,0,-1,902,771,0,0
-315,253,0,0,0,0,0,0,0,0,0,-1,909,771,0,0
-308,253,0,0,0,0,0,0,0,0,0,-1,916,771,0,0
-301,253,0,0,0,0,0,0,0,0,0,-1,923,771,0,0
-294,253,0,0,0,0,0,0,0,0,0,-1,930,771,0,0
-287,253,0,0,0,0,0,0,0,0,0,-1,937,771,0,0
-280,253,0,0,0,0,0,0,0,0,0,-1,944,771,0,0
-273,253,0,0,0,0,0,0,0,0,0,-1,951,771,0,0
-266,253,0,0,0,0,0,0,0,0,0,-1,958,771,0,0
-259,253,0,0,0,0,0,0,0,0,0,-1,965,771,0,0
-252,253,0,0,0,0,0,0,0,0,0,-1,972,771,0,0
-245,253,0,0,0,0,0,0,0,0,0,-1,979,771,0,0
-238,253,0,0,0,0,0,0,0,0,0,-1,986,771,0,0
-231,253,0,0,0,0,0,0,0,0,0,-1,993,771,0,0
-224,253,0,0,0,0,0,0,0,0,0,-1,1000,771,0,0
-217,253,0,0,0,0,0,0,0,0,0,-1,1007,771,0,0
-210,253,0,0,0,0,0,0,0,0,0,-1,1014,771,0,0
-203,253,0,0,0,0,0,0,0,0,0,-1,1021,771,0,0
-196,253,0,0,0,0,0,0,0,0,0,-1,1028,771,0,0
-189,253,0,0,0,0,0,0,0,0,0,-1,1035,771,0,0
-182,253,0,0,0,0,0,0,0,0,0,-1,1042,771,0,0
-175,253,0,0,0,0,0,0,0,0,0,-1,1049,771,0,0
-168,253,0,0,0,0,0,0,0,0,0,-1,1056,771,0,0
-161,253,0,0,0,0,0,0,0,0,0,-1,1063,771,0,0
-154,253,0,0,0,0,0,0,0,0,0,-1,1070,771,0,0
-147,253,0,0,0,0,0,0,0,0,0,-1,1077,771,0,0
-140,253,0,0,0,0,0,0,0,0,0,-1,1084,771,0,0
-133,253,0,0,0,0,0,0,0,0,0,-1,1091,771,0,0
-126,253,0,0,0,0,0,0,0,0,0,-1,1098,771,0,0
-119,253,0,0,0,0,0,0,0,0,0,-1,1105,771,0,0
-112,253,0,0,0,0,0,0,0,0,0,-1,1112,771,0,0
-105,253,0,0,0,0,0,0,0,0,0,-1,1119,771,0,0
-98,253,0,0,0,0,0,0,0,0,0,-1,1126,771,0,0
-91,253,0,0,0,0,0,0,0,0,0,-1,1133,771,0,0
-84,253,0,0,0,0,0,0,0,0,0,-1,1140,771,0,0
-77,253,0,0,0,0,0,0,0,0,0,-1,1147,771,0,0
-70,253,0,0,0,0,0,0,0,0,0,-1,1154,771,0,0
-63,253,0,0,0,0,0,0,0,0,0,-1,1161,771,0,0
-56,253,0,0,0,0,0,0,0,0,0,-1,1168,771,0,0
-49,253,0,0,0,0,0,0,0,0,0,-1,1175,771,0,0
-42,253,0,0,0,0,0,0,0,0,0,-1,1182,771,0,0
-35,253,0,0,0,0,0,0,0,0,0,-1,1189,771,0,0
-28,253,0,0,0,0,0,0,0,0,0,-1,1196,771,0,0
-21,253,0,0,0,0,0,0,0,0,0,-1,1203,771,0,0
-14,253,0,0,0,0,0,0,0,0,0,-1,1210,771,0,0
-7,253,0,0,0,0,0,0,0,0,0,-1,1217,771,0,0
0,253,0,0,0,0,0,0,0,0,0,-1,1224,771,0,0
7,253,0,0,0,0,0,0,0,0,0,-1,1231,771,0,0
14,253,0,0,0,0,0,0,0,0,0,-1,1238,771,0,0
21,253,0,0,0,0,0,0,0,0,0,-1,1245,771,0,0
28,253,0,0,0,0,0,0,0,0,0,-1,1252,771,0,0
35,253,0,0,0,0,0,0,0,0,0,-1,1259,771,0,0
42,253,0,0,0,0,0,0,0,0,0,-1,1266,771,0,0
49,253,0,0,0,0,0,0,0,0,0,-1,1273,771,0,0
56,253,0,0,0,0,0,0,0,0,0,-1,1280,771,0,0
63,253,0,0,0,0,0,0,0,0,0,-1,1287,771,0,0
70,253,0,0,0,0,0,0,0,0,0,-1,1294,771,0,0
77,253,0,0,0,0,0,0,0,0,0,-1,1301,771,0,0
84,253,0,0,0,0,0,0,0,0,0,-1,1308,771,0,0
91,253,0,0,0,0,0,0,0,0,0,-1,1315,771,0,0
98,253,0,0,0,0,0,0,0,0,0,-1,1322,771,0,0
105,253,0,0,0,0,0,0,0,0,0,-1,1329,771,0,0
112,253,0,0,0,0,0,0,0,0,0,-1,1336,771,0,0
119,253,0,0,0,0,0,0,0,0,0,-1,1343,771,0,0
126,253,0,0,0,0,0,0,0,0,0,-1,1350,771,0,0
133,253,0,0,0,0,0,0,0,0,0,-1,1357,771,0,0
140,253,0,0,0,0,0,0,0,0,0,-1,1364,771,0,0
147,253,0,0,0,0,0,0,0,0,0,-1,1371,771,0,0
154,253,0,0,0,0,0,0,0,0,0,-1,1378,771,0,0
161,253,0,0,0,0,0,0,0,0,0,-1,1385,771,0,0
168,253,0,0,0,0,0,0,0,0,0,-1,1392,771,0,0
175,253,0,0,0,0,0,0,0,0,0,-1,1399,771,0,0
182,253,0,0,0,0,0,0,0,0,0,-1,1406,771,0,0
189,253,0,0,0,0,0,0,0,0,0,-1,1413,771,0,0
196,253,0,0,0,0,0,0,0,0,0,-1,1420,771,0,0
203,253,0,0,0,0,0,0,0,0,0,-1,1427,771,0,0
210,253,0,0,0,0,0,0,0,0,0,-1,1434,771,0,0
217,253,0,0,0,0,0,0,0,0,0,-1,1441,771,0,0
224,253,0,0,0,0,0,0,0,0,0,-1,1448,771,0,0
231,253,0,0,0,0,0,0,0,0,0,-1,1455,771,0,0
238,253,0,0,0,0,0,0,0,0,0,-1,1462,771,0,0
245,253,0,0,0,0,0,0,0,0,0,-1,1469,771,0,0
252,253,0,0,0,0,0,0,0,0,0,-1,1476,771,0,0
259,253,0,0,0,0,0,0,0,0,0,-1,1483,771,0,0
266,253,0,0,0,0,0,0,0,0,0,-1,1490,771,0,0
273,253,0,0,0,0,0,0,0,0,0,-1,1497,771,0,0
280,253,0,0,0,0,0,0,0,0,0,-1,1504,771,0,0
287,253,0,0,0,0,0,0,0,0,0,-1,1511,771,0,0
294,253,0,0,0,0,0,0,0,0,0,-1,1518,771,0,0
301,253,0,0,0,0,0,0,0,0,0,-1,1525,771,0,0
308,253,0,0,0,0,0,0,0,0,0,-1,1532,771,0,0
315,253,0,0,0,0,0,0,0,0,0,-1,1539,771,0,0
322,253,0,0,0,0,0,0,0,0,0,-1,1546,771,0,0
329,253,0,0,0,0,0,0,0,0,0,-1,1553,771,0,0
336,253,0,0,0,0,0,0,0,0,0,-1,1560,771,0,0
343,253,0,0,0,0,0,0,0,0,0,-1,1567,771,0,0
350,253,0,0,0,0,0,0,0,0,0,-1,1574,771,0,0
357,253,0,0,0,0,0,0,0,0,0,-1,1581,771,0,0
364,253,0,0,0,0,0,0,0,0,0,-1,1588,771,0,0
371,253,0,0,0,0,0,0,0,0,0,-1,1595,771,0,0
378,253,0,0,0,0,0,0,0,0,0,-1,1602,771,0,0
385,253,0,0,0,0,0,0,0,0,0,-1,1609,771,0,0
392,253,0,0,0,0,0,0,0,0,0,-1,1616,771,0,0
399,253,0,0,0,0,0,0,0,0,0,-1,1623,771,0,0
406,253,0,0,0,0,0,0,0,0,0,-1,1630,771,0,0
413,253,0,0,0,0,0,0,0,0,0,-1,1637,771,0,0
420,253,0,0,0,0,0,0,0,0,0,-1,1644,771,0,0
427,253,0,0,0,0,0,0,0,0,0,-1,1651,771,0,0
434,253,0,0,0,0,0,0,0,0,0,-1,1658,771,0,0
441,253,0,0,0,0,0,0,0,0,0,-1,1665,771,0,0
448,253,0,0,0,0,0,0,0,0,0,-1,1672,771,0,0
455,253,0,0,0,0,0,0,0,0,0,-1,1679,771,0,0
462,253,0,0,0,0,0,0,0,0,0,-1,1686,771,0,0
469,253,0,0,0,0,0,0,0,0,0,-1,1693,771,0,0
476,253,0,0,0,0,0,0,0,0,0,-1,1700,771,0,0
483,253,0,0,0,0,0,0,0,0,0,-1,1707,771,0,0
490,253,0,0,0,0,0,0,0,0,0,-1,1714,771,0,0
497,253,0,0,0,0,0,0,0,0,0,-1,1721,771,0,0
504,253,0,0,0,0,0,0,0,0,0,-1,1728,771,0,0
511,253,0,0,0,0,0,0,0,0,0,-1,1735,771,0,0
518,253,0,0,0,0,0,0,0,0,0,-1,1742,771,0,0
525,253,0,0,0,0,0,0,0,0,0,-1,1749,771,0,0
532,253,0,0,0,0,0,0,0,0,0,-1,1756,771,0,0
539,253,0,0,0,0,0,0,0,0,0,-1,1763,771,0,0
546,253,0,0,0,0,0,0,0,0,0,-1,1770,771,0,0
553,253,0,0,0,0,0,0,0,0,0,-1,1777,771,0,0
560,253,0,0,0,0,0,0,0,0,0,-1,1784,771,0,0
567,253,0,0,0,0,0,0,0,0,0,-1,1791,771,0,0
574,253,19.6333,2.33289,0.0413167,0.0195033,0.00219066,0.0415346,0.0192855,0.0991083,0.0240003,0.036896,1798,771,19.6333,-2.33288
581,253,19.6632,2.38489,0.00927135,0.0126659,-0.0010764,0.0129785,0.00895881,-1.28821,0.00767187,0.0394533,1805,771,19.6632,-2.38489
588,253,19.7709,2.39337,-0.0131073,0.00657818,-0.004051,0.00737923,-0.0139084,-1.37558,0.0124816,0.0435042,1812,771,19.7708,-2.39334
595,253,20.5493,1.98309,0,0,0,0,0,0,0,-1,1819,771,20.5493,-1.98311
602,253,19.8417,2.3241,-0.0358663,-0.000733421,-0.0082202,0.00109476,-0.0376945,-1.35196,0.0255024,0.0452589,1826,771,19.8417,-2.32407
609,253,18.9985,2.66364,-0.0396538,-0.00255869,-0.00941872,-0.000304224,-0.0419083,-1.33586,0.027838,0.0419045,1833,771,18.9985,-2.66364
616,253,18.3505,3.24359,-0.040419,-0.00404525,-0.0098451,-0.0015515,-0.0429128,-1.32272,0.0281056,0.0396099,1840,771,18.3505,-3.24361
623,253,14.35,2.97748,-0.0386165,-0.00443796,-0.00992036,-0.00176725,-0.0412872,-1.30782,0.026955,0.0482021,1847,771,14.3499,-2.97748
630,253,13.4918,2.74054,0,0,0,0,0,0,0,-1,1854,771,13.4918,-2.74054
637,253,13.8885,0.408691,0,0,0,0,0,0,0,-1,1861,771,13.8886,-0.408689
644,253,13.9116,0.682312,-0.0273278,-0.00307295,-0.00819108,-0.000565885,-0.0298348,-1.27378,0.019704,0.0401877,1868,771,13.9116,-0.682288
651,253,13.9319,0.954895,-0.0216174,-0.00250661,-0.00715403,-0.000125272,-0.0239988,-1.24947,0.0159576,0.0223158,1875,771,13.9319,-0.954923
658,253,13.9657,1.2063,-0.0156897,-0.00186294,-0.00608013,0.00043035,-0.017983,-1.21012,0.0121347,0.0182802,1882,771,13.9658,-1.20633
665,253,13.8962,1.42114,-0.0102111,-0.00133542,-0.00402162,0.000215714,-0.0117623,-1.20268,0.00791439,0.0207523,1889,771,13.8962,-1.42114
672,253,13.8995,1.6236,-0.00573139,-0.000386253,-0.00230195,0.000468445,-0.00658609,-1.21528,0.00455491,0.0165554,1896,771,13.8995,-1.62362
679,253,13.9493,1.86548,-0.00203356,0.000436962,-0.000926249,0.000745659,-0.00234226,-1.2491,0.00186055,0.0127958,1903,771,13.9494,-1.86546
686,253,13.942,2.09406,0.000312836,0.00121282,-0.000457192,0.00140433,0.000121333,-1.17413,0.000898509,0.0170811,1910,771,13.942,-2.09406
693,253,13.8964,2.29785,0.00290079,0.00196969,-1.66039e-05,0.00290109,0.0019694,-0.017825,0.00171029,0.0176146,1917,771,13.8964,-2.29783
700,253,13.8949,2.51318,0.0062446,0.00294793,0.000544001,0.00633205,0.00286048,0.159387,0.00366148,0.0154532,1924,771,13.8949,-2.51319
707,253,13.9087,2.71155,0.00987321,0.00388077,0.00113661,0.0100816,0.00367243,0.181289,0.00589164,0.013958,1931,771,13.9087,-2.71156
714,253,13.907,2.90637,0.0143948,0.00478125,0.00195946,0.0147788,0.00439721,0.19354,0.00876264,0.01798,1938,771,13.907,-2.90635
721,253,13.9412,3.13403,0.0205159,0.00574619,0.0033667,0.0212472,0.00501496,0.213871,0.0128242,0.0319422,1945,771,13.9412,-3.13402
728,253,14.0032,3.34296,0.0290148,0.00673111,0.00543923,0.0302716,0.00547433,0.227074,0.0186264,0.0437321,1952,771,14.0032,-3.34297
735,253,14.5291,3.33643,0.0407158,0.0076565,0.00860822,0.0428229,0.00554934,0.240065,0.0268904,0.0451632,1959,771,14.529,-3.33643
742,253,15.5857,3.76086,0,0,0,0,0,0,0,-1,1966,771,15.5857,-3.76086
749,253,16.3292,4.35529,0,0,0,0,0,0,0,-1,1973,771,16.3292,-4.3553
756,253,0,0,0,0,0,0,0,0,0,-1,1980,771,0,0
763,253,0,0,0,0,0,0,0,0,0,-1,1987,771,0,0
770,253,0,0,0,0,0,0,0,0,0,-1,1994,771,0,0
777,253,0,0,0,0,0,0,0,0,0,-1,2001,771,0,0
784,253,0,0,0,0,0,0,0,0,0,-1,2008,771,0,0
791,253,0,0,0,0,0,0,0,0,0,-1,2015,771,0,0
798,253,0,0,0,0,0,0,0,0,0,-1,2022,771,0,0
805,253,0,0,0,0,0,0,0,0,0,-1,2029,771,0,0
812,253,0,0,0,0,0,0,0,0,0,-1,2036,771,0,0
-700,246,0,0,0,0,0,0,0,0,0,-1,524,778,0,0
-693,246,0,0,0,0,0,0,0,0,0,-1,531,778,0,0
-686,246,0,0,0,0,0,0,0,0,0,-1,538,778,0,0
-679,246,0,0,0,0,0,0,0,0,0,-1,545,778,0,0
-672,246,0,0,0,0,0,0,0,0,0,-1,552,778,0,0
-665,246,0,0,0,0,0,0,0,0,0,-1,559,778,0,0
-658,246,0,0,0,0,0,0,0,0,0,-1,566,778,0,0
-651,246,0,0,0,0,0,0,0,0,0,-1,573,778,0,0
-644,246,0,0,0,0,0,0,0,0,0,-1,580,778,0,0
-637,246,-11.1255,2.33484,0,0,0,0,0,0,0,-1,587,778,-11.1255,-2.33482
-630,246,-9.73407,2.38885,0,0,0,0,0,0,0,-1,594,778,-9.73408,-2.38886
-623,246,-9.15192,2.38568,0.118777,0.0892566,0.0375975,0.144408,0.0636257,0.598351,0.0835697,0.0490816,601,778,-9.15192,-2.38567
-616,246,-8.97498,1.89124,0.0946602,0.0704251,0.0288533,0.113837,0.0512482,0.586597,0.0658325,0.0462713,608,778,-8.97497,-1.89122
-609,246,-8.20404,1.73657,0,0,0,0,0,0,0,-1,615,778,-8.20405,-1.73659
-602,246,-8.23914,1.7868,0.0541215,0.0397147,0.014895,0.0634635,0.0303727,0.560174,0.0366519,0.0488753,622,778,-8.23915,-1.78679
-595,246,-8.49463,1.47479,0.0385561,0.0281788,0.0100098,0.0446421,0.0220927,0.546287,0.0257746,0.0416924,629,778,-8.49465,-1.47482
-588,246,-8.34851,0.867371,0.0253291,0.0173714,0.00591685,0.0284805,0.01422,0.489394,0.0164432,0.0287397,636,778,-8.34851,-0.867392
-581,246,-8.38031,0.635071,0.0146382,0.00957128,0.00268344,0.0157952,0.0084143,0.40707,0.00912584,0.0154208,643,778,-8.38032,-0.635094
-574,246,-8.35986,0.401733,0.00755715,0.00485169,0.00102334,0.00790063,0.00450822,0.323824,0.00457657,0.0168684,650,778,-8.35984,-0.401761
-567,246,-8.34863,0.19165,0.00385595,0.00250007,0.000684569,0.00414146,0.00221456,0.395132,0.00239299,0.0157495,657,778,-8.34864,-0.191629
-560,246,-8.3689,0.0177612,0.00102808,0.00179326,0.00079086,0.00228921,0.000532132,1.01069,0.00138331,0.0124413,664,778,-8.3689,-0.017736
-553,246,-8.37054,-0.13324,-0.000542206,0.00104578,0.000827994,0.00139896,-0.000895382,1.16762,0.00133523,0.0126241,671,778,-8.37054,0.133266
-546,246,-8.38007,-0.318359,-0.00130342,0.000644992,0.00142532,0.00139723,-0.00205565,1.08518,0.00200557,0.0106193,678,778,-8.38004,0.318382
-539,246,-8.38702,-0.526978,-0.00161749,0.000662775,0.00224237,0.00203822,-0.00299294,1.02059,0.00292212,0.0100655,685,778,-8.38701,0.526967
-532,246,-8.40588,-0.744263,-0.00217563,0.00157677,0.00336862,0.00355644,-0.0041553,1.03948,0.00445684,0.0109402,692,778,-8.40586,0.744269
-525,246,-8.38843,-0.944458,-0.0026789,0.00364959,0.00485898,0.0062838,-0.00531311,1.07401,0.00670329,0.011993,699,778,-8.38843,0.944454
-518,246,-8.39825,-1.12366,-0.00286141,0.00489945,0.00661186,0.00868547,-0.00664743,1.05076,0.00887849,0.019142,706,778,-8.39826,1.12366
-511,246,-8.59741,-1.26654,-0.00331178,0.00550589,0.00888411,0.011015,-0.00882086,1.01572,0.0114756,0.041311,713,778,-8.59739,1.26652
-504,246,-8.66461,-1.44629,-0.00368725,0.00599142,0.0113522,0.0134927,-0.0111885,0.98688,0.0142704,0.0457117,720,778,-8.66461,1.44628
-497,246,-8.72772,-1.47064,0,0,0,0,0,0,0,-1,727,778,-8.72772,1.47066
-490,246,-9.02832,-1.54926,0,0,0,0,0,0,0,-1,734,778,-9.02833,1.54924
-483,246,-11.0873,1.89502,0,0,0,0,0,0,0,-1,741,778,-11.0873,-1.89504
-476,246,-11.4875,2.44244,-0.00844843,-0.0017812,0.0233896,0.0185112,-0.0287408,0.856184,0.0274932,0.0481013,748,778,-11.4875,-2.44245
-469,246,-11.9442,1.79443,0,0,0,0,0,0,0,-1,755,778,-11.9442,-1.79445
-462,246,-12.6082,1.02753,0,0,0,0,0,0,0,-1,762,778,-12.6082,-1.02752
-455,246,0,0,0,0,0,0,0,0,0,-1,769,778,0,0
-448,246,0,0,0,0,0,0,0,0,0,-1,776,778,0,0
-441,246,0,0,0,0,0,0,0,0,0,-1,783,778,0,0
-434,246,0,0,0,0,0,0,0,0,0,-1,790,778,0,0
-427,246,0,0,0,0,0,0,0,0,0,-1,797,778,0,0
-420,246,0,0,0,0,0,0,0,0,0,-1,804,778,0,0
-413,246,0,0,0,0,0,0,0,0,0,-1,811,778,0,0
-406,246,0,0,0,0,0,0,0,0,0,-1,818,778,0,0
-399,246,0,0,0,0,0,0,0,0,0,-1,825,778,0,0
-392,246,0,0,0,0,0,0,0,0,0,-1,832,778,0,0
-385,246,0,0,0,0,0,0,0,0,0,-1,839,778,0,0
-378,246,0,0,0,0,0,0,0,0,0,-1,846,778,0,0
-371,246,0,0,0,0,0,0,0,0,0,-1,853,778,0,0
-364,246,0,0,0,0,0,0,0,0,0,-1,860,778,0,0
-357,246,0,0,0,0,0,0,0,0,0,-1,867,778,0,0
-350,246,0,0,0,0,0,0,0,0,0,-1,874,778,0,0
-343,246,0,0,0,0,0,0,0,0,0,-1,881,778,0,0
-336,246,0,0,0,0,0,0,0,0,0,-1,888,778,0,0
-329,246,0,0,0,0,0,0,0,0,0,-1,895,778,0,0
-322,246,0,0,0,0,0,0,0,0,0,-1,902,778,0,0
-315,246,0,0,0,0,0,0,0,0,0,-1,909,778,0,0
-308,246,0,0,0,0,0,0,0,0,0,-1,916,778,0,0
-301,246,0,0,0,0,0,0,0,0,0,-1,923,778,0,0
-294,246,0,0,0,0,0,0,0,0,0,-1,930,778,0,0
-287,246,0,0,0,0,0,0,0,0,0,-1,937,778,0,0
-280,246,0,0,0,0,0,0,0,0,0,-1,944,778,0,0
-273,246,0,0,0,0,0,0,0,0,0,-1,951,778,0,0
-266,246,0,0,0,0,0,0,0,0,0,-1,958,778,0,0
-259,246,0,0,0,0,0,0,0,0,0,-1,965,778,0,0
-252,246,0,0,0,0,0,0,0,0,0,-1,972,778,0,0
-245,246,0,0,0,0,0,0,0,0,0,-1,979,778,0,0
-238,246,0,0,0,0,0,0,0,0,0,-1,986,778,0,0
-231,246,0,0,0,0,0,0,0,0,0,-1,993,778,0,0
-224,246,0,0,0,0,0,0,0,0,0,-1,1000,778,0,0
-217,246,0,0,0,0,0,0,0,0,0,-1,1007,778,0,0
-210,246,0,0,0,0,0,0,0,0,0,-1,1014,778,0,0
-203,246,0,0,0,0,0,0,0,0,0,-1,1021,778,0,0
-196,246,0,0,0,0,0,0,0,0,0,-1,1028,778,0,0
-189,246,0,0,0,0,0,0,0,0,0,-1,1035,778,0,0
-182,246,0,0,0,0,0,0,0,0,0,-1,1042,778,0,0
-175,246,0,0,0,0,0,0,0,0,0,-1,1049,778,0,0
-168,246,0,0,0,0,0,0,0,0,0,-1,1056,778,0,0
-161,246,0,0,0,0,0,0,0,0,0,-1,1063,778,0,0
-154,246,0,0,0,0,0,0,0,0,0,-1,1070,778,0,0
-147,246,0,0,0,0,0,0,0,0,0,-1,1077,778,0,0
-140,246,0,0,0,0,0,0,0,0,0,-1,1084,778,0,0
-133,246,0,0,0,0,0,0,0,0,0,-1,1091,778,0,0
-126,246,0,0,0,0,0,0,0,0,0,-1,1098,778,0,0
-119,246,0,0,0,0,0,0,0,0,0,-1,1105,778,0,0
-112,246,0,0,0,0,0,0,0,0,0,-1,1112,778,0,0
-105,246,0,0,0,0,0,0,0,0,0,-1,1119,778,0,0
-98,246,0,0,0,0,0,0,0,0,0,-1,1126,778,0,0
-91,246,0,0,0,0,0,0,0,0,0,-1,1133,778,0,0
-84,246,0,0,0,0,0,0,0,0,0,-1,1140,778,0,0
-77,246,0,0,0,0,0,0,0,0,0,-1,1147,778,0,0
-70,246,0,0,0,0,0,0,0,0,0,-1,1154,778,0,0
-63,246,0,0,0,0,0,0,0,0,0,-1,1161,778,0,0
-56,246,0,0,0,0,0,0,0,0,0,-1,1168,778,0,0
-49,246,0,0,0,0,0,0,0,0,0,-1,1175,778,0,0
-42,246,0,0,0,0,0,0,0,0,0,-1,1182,778,0,0
-35,246,0,0,0,0,0,0,0,0,0,-1,1189,778,0,0
-28,246,0,0,0,0,0,0,0,0,0,-1,1196,778,0,0
-21,246,0,0,0,0,0,0,0,0,0,-1,1203,778,0,0
-14,246,0,0,0,0,0,0,0,0,0,-1,1210,778,0,0
-7,246,0,0,0,0,0,0,0,0,0,-1,1217,778,0,0
0,246,0,0,0,0,0,0,0,0,0,-1,1224,778,0,0
7,246,0,0,0,0,0,0,0,0,0,-1,1231,778,0,0
14,246,0,0,0,0,0,0,0,0,0,-1,1238,778,0,0
21,246,0,0,0,0,0,0,0,0,0,-1,1245,778,0,0
28,246,0,0,0,0,0,0,0,0,0,-1,1252,778,0,0
35,246,0,0,0,0,0,0,0,0,0,-1,1259,778,0,0
42,246,0,0,0,0,0,0,0,0,0,-1,1266,778,0,0
49,246,0,0,0,0,0,0,0,0,0,-1,1273,778,0,0
56,246,0,0,0,0,0,0,0,0,0,-1,1280,778,0,0
63,246,0,0,0,0,0,0,0,0,0,-1,1287,778,0,0
70,246,0,0,0,0,0,0,0,0,0,-1,1294,778,0,0
77,246,0,0,0,0,0,0,0,0,0,-1,1301,778,0,0
84,246,0,0,0,0,0,0,0,0,0,-1,1308,778,0,0
91,246,0,0,0,0,0,0,0,0,0,-1,1315,778,0,0
98,246,0,0,0,0,0,0,0,0,0,-1,1322,778,0,0
105,246,0,0,0,0,0,0,0,0,0,-1,1329,778,0,0
112,246,0,0,0,0,0,0,0,0,0,-1,1336,778,0,0
119,246,0,0,0,0,0,0,0,0,0,-1,1343,778,0,0
126,246,0,0,0,0,0,0,0,0,0,-1,1350,778,0,0
133,246,0,0,0,0,0,0,0,0,0,-1,1357,778,0,0
140,246,0,0,0,0,0,0,0,0,0,-1,1364,778,0,0
147,246,0,0,0,0,0,0,0,0,0,-1,1371,778,0,0
154,246,0,0,0,0,0,0,0,0,0,-1,1378,778,0,0
161,246,0,0,0,0,0,0,0,0,0,-1,1385,778,0,0
168,246,0,0,0,0,0,0,0,0,0,-1,1392,778,0,0
175,246,0,0,0,0,0,0,0,0,0,-1,1399,778,0,0
182,246,0,0,0,0,0,0,0,0,0,-1,1406,778,0,0
189,246,0,0,0,0,0,0,0,0,0,-1,1413,778,0,0
196,246,0,0,0,0,0,0,0,0,0,-1,1420,778,0,0
203,246,0,0,0,0,0,0,0,0,0,-1,1427,778,0,0
210,246,0,0,0,0,0,0,0,0,0,-1,1434,778,0,0
217,246,0,0,0,0,0,0,0,0,0,-1,1441,778,0,0
224,246,0,0,0,0,0,0,0,0,0,-1,1448,778,0,0
231,246,0,0,0,0,0,0,0,0,0,-1,1455,778,0,0
238,246,0,0,0,0,0,0,0,0,0,-1,1462,778,0,0
245,246,0,0,0,0,0,0,0,0,0,-1,1469,778,0,0
252,246,0,0,0,0,0,0,0,0,0,-1,1476,778,0,0
259,246,0,0,0,0,0,0,0,0,0,-1,1483,778,0,0
266,246,0,0,0,0,0,0,0,0,0,-1,1490,778,0,0
273,246,0,0,0,0,0,0,0,0,0,-1,1497,778,0,0
280,246,0,0,0,0,0,0,0,0,0,-1,1504,778,0,0
287,246,0,0,0,0,0,0,0,0,0,-1,1511,778,0,0
294,246,0,0,0,0,0,0,0,0,0,-1,1518,778,0,0
301,246,0,0,0,0,0,0,0,0,0,-1,1525,778,0,0
308,246,0,0,0,0,0,0,0,0,0,-1,1532,778,0,0
315,246,0,0,0,0,0,0,0,0,0,-1,1539,778,0,0
322,246,0,0,0,0,0,0,0,0,0,-1,1546,778,0,0
329,246,0,0,0,0,0,0,0,0,0,-1,1553,778,0,0
336,246,0,0,0,0,0,0,0,0,0,-1,1560,778,0,0
343,246,0,0,0,0,0,0,0,0,0,-1,1567,778,0,0
350,246,0,0,0,0,0,0,0,0,0,-1,1574,778,0,0
357,246,0,0,0,0,0,0,0,0,0,-1,1581,778,0,0
364,246,0,0,0,0,0,0,0,0,0,-1,1588,778,0,0
371,246,0,0,0,0,0,0,0,0,0,-1,1595,778,0,0
378,246,0,0,0,0,0,0,0,0,0,-1,1602,778,0,0
385,246,0,0,0,0,0,0,0,0,0,-1,1609,778,0,0
392,246,0,0,0,0,0,0,0,0,0,-1,1616,778,0,0
399,246,0,0,0,0,0,0,0,0,0,-1,1623,778,0,0
406,246,0,0,0,0,0,0,0,0,0,-1,1630,778,0,0
413,246,0,0,0,0,0,0,0,0,0,-1,1637,778,0,0
420,246,0,0,0,0,0,0,0,0,0,-1,1644,778,0,0
427,246,0,0,0,0,0,0,0,0,0,-1,1651,778,0,0
434,246,0,0,0,0,0,0,0,0,0,-1,1658,778,0,0
441,246,0,0,0,0,0,0,0,0,0,-1,1665,778,0,0
448,246,0,0,0,0,0,0,0,0,0,-1,1672,778,0,0
455,246,0,0,0,0,0,0,0,0,0,-1,1679,778,0,0
462,246,0,0,0,0,0,0,0,0,0,-1,1686,778,0,0
469,246,0,0,0,0,0,0,0,0,0,-1,1693,778,0,0
476,246,0,0,0,0,0,0,0,0,0,-1,1700,778,0,0
483,246,0,0,0,0,0,0,0,0,0,-1,1707,778,0,0
490,246,0,0,0,0,0,0,0,0,0,-1,1714,778,0,0
497,246,0,0,0,0,0,0,0,0,0,-1,1721,778,0,0
504,246,0,0,0,0,0,0,0,0,0,-1,1728,778,0,0
511,246,0,0,0,0,0,0,0,0,0,-1,1735,778,0,0
518,246,0,0,0,0,0,0,0,0,0,-1,1742,778,0,0
525,246,0,0,0,0,0,0,0,0,0,-1,1749,778,0,0
532,246,0,0,0,0,0,0,0,0,0,-1,1756,778,0,0
539,246,0,0,0,0,0,0,0,0,0,-1,1763,778,0,0
546,246,0,0,0,0,0,0,0,0,0,-1,1770,778,0,0
553,246,0,0,0,0,0,0,0,0,0,-1,1777,778,0,0
560,246,0,0,0,0,0,0,0,0,0,-1,1784,778,0,0
567,246,0,0,0,0,0,0,0,0,0,-1,1791,778,0,0
574,246,0,0,0,0,0,0,0,0,0,-1,1798,778,0,0
581,246,19.6381,2.49866,0.0201819,0.0106908,0.00313398,0.0211234,0.00974934,0.291827,0.0122076,0.038088,1805,778,19.6381,-2.49865
588,246,19.6023,2.5047,-0.00452512,0.00543923,-0.00070996,0.00548956,-0.00457545,-1.50002,0.00581902,0.0427906,1812,778,19.6023,-2.50467
595,246,19.9968,2.33533,0,0,0,0,0,0,0,-1,1819,778,19.9968,-2.33534
602,246,19.9092,2.42383,-0.0310514,-0.000627235,-0.006644,0.000760389,-0.032439,-1.3649,0.0218839,0.0454571,1826,778,19.9091,-2.42385
609,246,19.4188,2.49286,-0.035853,-0.00205706,-0.00837696,-9.46186e-05,-0.0378154,-1.34068,0.0251788,0.0464318,1833,778,19.4188,-2.49287
616,246,19.2125,2.70148,-0.0372046,-0.00318374,-0.00917695,-0.000866182,-0.0395221,-1.32343,0.0260642,0.0477812,1840,778,19.2126,-2.70146
623,246,18.874,2.98315,-0.0358403,-0.0034703,-0.00940826,-0.000934465,-0.0383761,-1.30752,0.0252783,0.0439874,1847,778,18.874,-2.98315
630,246,18.3331,3.23187,0,0,0,0,0,0,0,-1,1854,778,18.3332,-3.2319
637,246,14.4144,0.418945,0,0,0,0,0,0,0,-1,1861,778,14.4144,-0.418956
644,246,14.3071,0.649353,-0.0260381,-0.00251915,-0.0078594,-0.000134537,-0.0284228,-1.27621,0.0189038,0.0491391,1868,778,14.3071,-0.649373
651,246,14.1555,0.924744,-0.0211658,-0.00215586,-0.00692016,9.64263e-05,-0.0234181,-1.25614,0.0156443,0.0293058,1875,778,14.1555,-0.92474
658,246,14.168,1.2027,-0.0160493,-0.00171179,-0.00599967,0.000467566,-0.0182287,-1.22237,0.0123113,0.0196023,1882,778,14.168,-1.20272
665,246,14.1383,1.42365,-0.0111832,-0.00146235,-0.00416974,8.11643e-05,-0.0127267,-1.21627,0.00851167,0.02089,1889,778,14.1383,-1.42366
672,246,14.1392,1.65417,-0.00698199,-0.000857613,-0.00256316,7.35437e-05,-0.00791315,-1.22234,0.00530012,0.0210731,1896,778,14.1391,-1.65419
679,246,14.1652,1.85083,-0.00333566,-0.000348469,-0.00118559,6.48834e-05,-0.00374901,-1.23533,0.00252124,0.0205835,1903,778,14.1651,-1.85081
686,246,14.1853,2.07556,-0.0010126,0.000171916,-0.000746748,0.00053276,-0.00137344,-1.12066,0.00113566,0.0222328,1910,778,14.1854,-2.07557
693,246,14.1543,2.29529,0.00159699,0.000598681,-0.000311771,0.00168636,0.000509315,-0.279154,0.000998738,0.0176166,1917,778,14.1543,-2.29527
700,246,14.1327,2.49603,0.00504351,0.00116599,0.000257634,0.00506056,0.00114895,0.066056,0.0030634,0.0145455,1924,778,14.1327,-2.49603
707,246,14.1334,2.69177,0.00860403,0.0015499,0.000815478,0.00869708,0.00145686,0.113607,0.00537861,0.0135351,1931,778,14.1334,-2.6918
714,246,14.1205,2.88989,0.012797,0.00175428,0.00158563,0.0130202,0.0015311,0.139828,0.00821744,0.0123806,1938,778,14.1205,-2.88986
721,246,14.1251,3.05841,0.0182962,0.00200436,0.00305064,0.0188487,0.00145187,0.179166,0.0121109,0.0170795,1945,778,14.1251,-3.05842
728,246,14.229,3.32385,0.0257221,0.00212421,0.00507681,0.026768,0.00107835,0.203165,0.017497,0.0342018,1952,778,14.229,-3.32388
735,246,14.4949,3.61481,0.0356453,0.00209036,0.00817781,0.0375323,0.000203418,0.22677,0.024954,0.0467318,1959,778,14.4949,-3.6148
742,246,14.8215,3.935,0,0,0,0,0,0,0,-1,1966,778,14.8216,-3.93497
749,246,13.7891,4.02997,0,0,0,0,0,0,0,-1,1973,778,13.7891,-4.02996
756,246,13.2834,4.66998,0,0,0,0,0,0,0,-1,1980,778,13.2835,-4.66999
763,246,0,0,0,0,0,0,0,0,0,-1,1987,778,0,0
770,246,0,0,0,0,0,0,0,0,0,-1,1994,778,0,0
777,246,0,0,0,0,0,0,0,0,0,-1,2001,778,0,0
784,246,0,0,0,0,0,0,0,0,0,-1,2008,778,0,0
791,246,0,0,0,0,0,0,0,0,0,-1,2015,778,0,0
798,246,0,0,0,0,0,0,0,0,0,-1,2022,778,0,0
805,246,0,0,0,0,0,0,0,0,0,-1,2029,778,0,0
812,246,0,0,0,0,0,0,0,0,0,-1,2036,778,0,0
-700,239,0,0,0,0,0,0,0,0,0,-1,524,785,0,0
-693,239,0,0,0,0,0,0,0,0,0,-1,531,785,0,0
-686,239,0,0,0,0,0,0,0,0,0,-1,538,785,0,0
-679,239,0,0,0,0,0,0,0,0,0,-1,545,785,0,0
-672,239,0,0,0,0,0,0,0,0,0,-1,552,785,0,0
-665,239,0,0,0,0,0,0,0,0,0,-1,559,785,0,0
-658,239,0,0,0,0,0,0,0,0,0,-1,566,785,0,0
-651,239,0,0,0,0,0,0,0,0,0,-1,573,785,0,0
-644,239,0,0,0,0,0,0,0,0,0,-1,580,785,0,0
-637,239,-11.5949,1.96002,0.162746,0.139737,0.0586216,0.210982,0.0915018,0.688502,0.122167,0.047103,587,785,-11.5949,-1.96003
-630,239,-10.3969,2.12378,0.135331,0.113285,0.0465635,0.172158,0.0764575,0.669173,0.0996025,0.0473209,594,785,-10.3969,-2.12381
-623,239,-9.78961,2.07574,0.10976,0.0903778,0.0362354,0.137578,0.0625598,0.654733,0.079539,0.044053,601,785,-9.78964,-2.07572
-616,239,-9.21722,1.86176,0.086753,0.0704592,0.0274302,0.107221,0.0499917,0.641045,0.0619508,0.0456957,608,785,-9.21725,-1.86173
-609,239,-8.64526,1.64001,0.0664369,0.0534277,0.0199833,0.0809475,0.038917,0.628055,0.0467466,0.0472959,615,785,-8.64524,-1.64
-602,239,-8.56421,1.43439,0.0489892,0.0391726,0.0139411,0.0588608,0.029301,0.616137,0.0339834,0.0483605,622,785,-8.56421,-1.4344
-595,239,-8.51593,1.13623,0.0348971,0.0278545,0.00935198,0.0413688,0.0213829,0.605343,0.0238888,0.0389611,629,785,-8.5159,-1.13621
-588,239,-8.53815,0.827209,0.0227507,0.0172293,0.00545522,0.026104,0.013876,0.551155,0.0150812,0.018026,636,785,-8.53814,-0.827211
-581,239,-8.57257,0.613098,0.0128214,0.0094548,0.00242556,0.0140905,0.00818566,0.482059,0.00817062,0.0109949,643,785,-8.57259,-0.613098
-574,239,-8.57776,0.407959,0.00618624,0.00476975,0.000898874,0.00662237,0.00433363,0.451732,0.00388371,0.0120208,650,785,-8.57776,-0.407961
-567,239,-8.5957,0.191162,0.00269315,0.00247375,0.000595615,0.00318909,0.00197782,0.69433,0.00185887,0.0122957,657,785,-8.5957,-0.191166
-560,239,-8.59381,0.0204468,0.000126835,0.00186468,0.000688346,0.00210429,-0.000112777,1.23582,0.00144192,0.0116186,664,785,-8.59382,-0.0204754
-553,239,-8.58282,-0.141235,-0.00140773,0.00129356,0.000757595,0.00149153,-0.0016057,1.3152,0.00178859,0.0125649,671,785,-8.5828,0.141227
-546,239,-8.60553,-0.326904,-0.0022377,0.00106937,0.00130187,0.00152037,-0.0026887,1.23731,0.00246111,0.0137524,678,785,-8.60554,0.326897
-539,239,-8.60016,-0.535278,-0.00270139,0.00133872,0.00203801,0.00218818,-0.00355085,1.17588,0.00334442,0.0149153,685,785,-8.60013,0.535263
-532,239,-8.58722,-0.734253,-0.00337793,0.00242669,0.00303866,0.00372638,-0.00467762,1.16662,0.00486241,0.0115625,692,785,-8.58721,0.73426
-525,239,-8.57898,-0.901733,-0.00399251,0.00469467,0.00433723,0.00648935,-0.00578719,1.17846,0.00709173,0.0139914,699,785,-8.579,0.901706
-518,239,-8.61322,-1.07117,-0.00424408,0.00623973,0.00581861,0.00882941,-0.00683377,1.15205,0.00906758,0.0360873,706,785,-8.61324,1.07114
-511,239,-8.59198,-1.54468,-0.00472727,0.00738205,0.00779572,0.0111982,-0.00854339,1.11557,0.0114321,0.0420731,713,785,-8.59196,1.54469
-504,239,-8.50171,-1.80829,0,0,0,0,0,0,0,-1,720,785,-8.5017,1.80827
-497,239,-7.94562,-1.47168,0,0,0,0,0,0,0,-1,727,785,-7.94561,1.47168
-490,239,-12.0042,1.37421,-0.006148,0.0100425,0.0153204,0.0192749,-0.0153804,1.02845,0.0200503,0.044387,734,785,-12.0041,-1.37421
-483,239,-11.9319,1.31818,-0.00718093,0.00908239,0.0181362,0.0208265,-0.018925,0.996145,0.0229593,0.0461333,741,785,-11.932,-1.31819
-476,239,-12.2891,1.32007,-0.00889498,0.0060619,0.0206765,0.0205709,-0.0234039,0.958922,0.0254064,0.0434178,748,785,-12.2891,-1.32008
-469,239,-12.4945,1.03491,0,0,0,0,0,0,0,-1,755,785,-12.4945,-1.0349
-462,239,-12.53,0.870605,0,0,0,0,0,0,0,-1,762,785,-12.53,-0.870627
-455,239,0,0,0,0,0,0,0,0,0,-1,769,785,0,0
-448,239,0,0,0,0,0,0,0,0,0,-1,776,785,0,0
-441,239,0,0,0,0,0,0,0,0,0,-1,783,785,0,0
-434,239,0,0,0,0,0,0,0,0,0,-1,790,785,0,0
-427,239,0,0,0,0,0,0,0,0,0,-1,797,785,0,0
-420,239,0,0,0,0,0,0,0,0,0,-1,804,785,0,0
-413,239,0,0,0,0,0,0,0,0,0,-1,811,785,0,0
-406,239,0,0,0,0,0,0,0,0,0,-1,818,785,0,0
-399,239,0,0,0,0,0,0,0,0,0,-1,825,785,0,0
-392,239,0,0,0,0,0,0,0,0,0,-1,832,785,0,0
-385,239,0,0,0,0,0,0,0,0,0,-1,839,785,0,0
-378,239,0,0,0,0,0,0,0,0,0,-1,846,785,0,0
-371,239,0,0,0,0,0,0,0,0,0,-1,853,785,0,0
-364,239,0,0,0,0,0,0,0,0,0,-1,860,785,0,0
-357,239,0,0,0,0,0,0,0,0,0,-1,867,785,0,0
-350,239,0,0,0,0,0,0,0,0,0,-1,874,785,0,0
-343,239,0,0,0,0,0,0,0,0,0,-1,881,785,0,0
-336,239,0,0,0,0,0,0,0,0,0,-1,888,785,0,0
-329,239,0,0,0,0,0,0,0,0,0,-1,895,785,0,0
-322,239,0,0,0,0,0,0,0,0,0,-1,902,785,0,0
-315,239,0,0,0,0,0,0,0,0,0,-1,909,785,0,0
-308,239,0,0,0,0,0,0,0,0,0,-1,916,785,0,0
-301,239,0,0,0,0,0,0,0,0,0,-1,923,785,0,0
-294,239,0,0,0,0,0,0,0,0,0,-1,930,785,0,0
-287,239,0,0,0,0,0,0,0,0,0,-1,937,785,0,0
-280,239,0,0,0,0,0,0,0,0,0,-1,944,785,0,0
-273,239,0,0,0,0,0,0,0,0,0,-1,951,785,0,0
-266,239,0,0,0,0,0,0,0,0,0,-1,958,785,0,0
-259,239,0,0,0,0,0,0,0,0,0,-1,965,785,0,0
-252,239,0,0,0,0,0,0,0,0,0,-1,972,785,0,0
-245,239,0,0,0,0,0,0,0,0,0,-1,979,785,0,0
-238,239,0,0,0,0,0,0,0,0,0,-1,986,785,0,0
-231,239,0,0,0,0,0,0,0,0,0,-1,993,785,0,0
-224,239,0,0,0,0,0,0,0,0,0,-1,1000,785,0,0
-217,239,0,0,0,0,0,0,0,0,0,-1,1007,785,0,0
-210,239,0,0,0,0,0,0,0,0,0,-1,1014,785,0,0
-203,239,0,0,0,0,0,0,0,0,0,-1,1021,785,0,0
-196,239,0,0,0,0,0,0,0,0,0,-1,1028,785,0,0
-189,239,0,0,0,0,0,0,0,0,0,-1,1035,785,0,0
-182,239,0,0,0,0,0,0,0,0,0,-1,1042,785,0,0
-175,239,0,0,0,0,0,0,0,0,0,-1,1049,785,0,0
-168,239,0,0,0,0,0,0,0,0,0,-1,1056,785,0,0
-161,239,0,0,0,0,0,0,0,0,0,-1,1063,785,0,0
-154,239,0,0,0,0,0,0,0,0,0,-1,1070,785,0,0
-147,239,0,0,0,0,0,0,0,0,0,-1,1077,785,0,0
-140,239,0,0,0,0,0,0,0,0,0,-1,1084,785,0,0
-133,239,0,0,0,0,0,0,0,0,0,-1,1091,785,0,0
-126,239,0,0,0,0,0,0,0,0,0,-1,1098,785,0,0
-119,239,0,0,0,0,0,0,0,0,0,-1,1105,785,0,0
-112,239,0,0,0,0,0,0,0,0,0,-1,1112,785,0,0
-105,239,0,0,0,0,0,0,0,0,0,-1,1119,785,0,0
-98,239,0,0,0,0,0,0,0,0,0,-1,1126,785,0,0
-91,239,0,0,0,0,0,0,0,0,0,-1,1133,785,0,0
-84,239,0,0,0,0,0,0,0,0,0,-1,1140,785,0,0
-77,239,0,0,0,0,0,0,0,0,0,-1,1147,785,0,0
-70,239,0,0,0,0,0,0,0,0,0,-1,1154,785,0,0
-63,239,0,0,0,0,0,0,0,0,0,-1,1161,785,0,0
-56,239,0,0,0,0,0,0,0,0,0,-1,1168,785,0,0
-49,239,0,0,0,0,0,0,0,0,0,-1,1175,785,0,0
-42,239,0,0,0,0,0,0,0,0,0,-1,1182,785,0,0
-35,239,0,0,0,0,0,0,0,0,0,-1,1189,785,0,0
-28,239,0,0,0,0,0,0,0,0,0,-1,1196,785,0,0
-21,239,0,0,0,0,0,0,0,0,0,-1,1203,785,0,0
-14,239,0,0,0,0,0,0,0,0,0,-1,1210,785,0,0
-7,239,0,0,0,0,0,0,0,0,0,-1,1217,785,0,0
0,239,0,0,0,0,0,0,0,0,0,-1,1224,785,0,0
7,239,0,0,0,0,0,0,0,0,0,-1,1231,785,0,0
14,239,0,0,0,0,0,0,0,0,0,-1,1238,785,0,0
21,239,0,0,0,0,0,0,0,0,0,-1,1245,785,0,0
28,239,0,0,0,0,0,0,0,0,0,-1,1252,785,0,0
35,239,0,0,0,0,0,0,0,0,0,-1,1259,785,0,0
42,239,0,0,0,0,0,0,0,0,0,-1,1266,785,0,0
49,239,0,0,0,0,0,0,0,0,0,-1,1273,785,0,0
56,239,0,0,0,0,0,0,0,0,0,-1,1280,785,0,0
63,239,0,0,0,0,0,0,0,0,0,-1,1287,785,0,0
70,239,0,0,0,0,0,0,0,0,0,-1,1294,785,0,0
77,239,0,0,0,0,0,0,0,0,0,-1,1301,785,0,0
84,239,0,0,0,0,0,0,0,0,0,-1,1308,785,0,0
91,239,0,0,0,0,0,0,0,0,0,-1,1315,785,0,0
98,239,0,0,0,0,0,0,0,0,0,-1,1322,785,0,0
105,239,0,0,0,0,0,0,0,0,0,-1,1329,785,0,0
112,239,0,0,0,0,0,0,0,0,0,-1,1336,785,0,0
119,239,0,0,0,0,0,0,0,0,0,-1,1343,785,0,0
126,239,0,0,0,0,0,0,0,0,0,-1,1350,785,0,0
133,239,0,0,0,0,0,0,0,0,0,-1,1357,785,0,0
140,239,0,0,0,0,0,0,0,0,0,-1,1364,785,0,0
147,239,0,0,0,0,0,0,0,0,0,-1,1371,785,0,0
154,239,0,0,0,0,0,0,0,0,0,-1,1378,785,0,0
161,239,0,0,0,0,0,0,0,0,0,-1,1385,785,0,0
168,239,0,0,0,0,0,0,0,0,0,-1,1392,785,0,0
175,239,0,0,0,0,0,0,0,0,0,-1,1399,785,0,0
182,239,0,0,0,0,0,0,0,0,0,-1,1406,785,0,0
189,239,0,0,0,0,0,0,0,0,0,-1,1413,785,0,0
196,239,0,0,0,0,0,0,0,0,0,-1,1420,785,0,0
203,239,0,0,0,0,0,0,0,0,0,-1,1427,785,0,0
210,239,0,0,0,0,0,0,0,0,0,-1,1434,785,0,0
217,239,0,0,0,0,0,0,0,0,0,-1,1441,785,0,0
224,239,0,0,0,0,0,0,0,0,0,-1,1448,785,0,0
231,239,0,0,0,0,0,0,0,0,0,-1,1455,785,0,0
238,239,0,0,0,0,0,0,0,0,0,-1,1462,785,0,0
245,239,0,0,0,0,0,0,0,0,0,-1,1469,785,0,0
252,239,0,0,0,0,0,0,0,0,0,-1,1476,785,0,0
259,239,0,0,0,0,0,0,0,0,0,-1,1483,785,0,0
266,239,0,0,0,0,0,0,0,0,0,-1,1490,785,0,0
273,239,0,0,0,0,0,0,0,0,0,-1,1497,785,0,0
280,239,0,0,0,0,0,0,0,0,0,-1,1504,785,0,0
287,239,0,0,0,0,0,0,0,0,0,-1,1511,785,0,0
294,239,0,0,0,0,0,0,0,0,0,-1,1518,785,0,0
301,239,0,0,0,0,0,0,0,0,0,-1,1525,785,0,0
308,239,0,0,0,0,0,0,0,0,0,-1,1532,785,0,0
315,239,0,0,0,0,0,0,0,0,0,-1,1539,785,0,0
322,239,0,0,0,0,0,0,0,0,0,-1,1546,785,0,0
329,239,0,0,0,0,0,0,0,0,0,-1,1553,785,0,0
336,239,0,0,0,0,0,0,0,0,0,-1,1560,785,0,0
343,239,0,0,0,0,0,0,0,0,0,-1,1567,785,0,0
350,239,0,0,0,0,0,0,0,0,0,-1,1574,785,0,0
357,239,0,0,0,0,0,0,0,0,0,-1,1581,785,0,0
364,239,0,0,0,0,0,0,0,0,0,-1,1588,785,0,0
371,239,0,0,0,0,0,0,0,0,0,-1,1595,785,0,0
378,239,0,0,0,0,0,0,0,0,0,-1,1602,785,0,0
385,239,0,0,0,0,0,0,0,0,0,-1,1609,785,0,0
392,239,0,0,0,0,0,0,0,0,0,-1,1616,785,0,0
399,239,0,0,0,0,0,0,0,0,0,-1,1623,785,0,0
406,239,0,0,0,0,0,0,0,0,0,-1,1630,785,0,0
413,239,0,0,0,0,0,0,0,0,0,-1,1637,785,0,0
420,239,0,0,0,0,0,0,0,0,0,-1,1644,785,0,0
427,239,0,0,0,0,0,0,0,0,0,-1,1651,785,0,0
434,239,0,0,0,0,0,0,0,0,0,-1,1658,785,0,0
441,239,0,0,0,0,0,0,0,0,0,-1,1665,785,0,0
448,239,0,0,0,0,0,0,0,0,0,-1,1672,785,0,0
455,239,0,0,0,0,0,0,0,0,0,-1,1679,785,0,0
462,239,0,0,0,0,0,0,0,0,0,-1,1686,785,0,0
469,239,0,0,0,0,0,0,0,0,0,-1,1693,785,0,0
476,239,0,0,0,0,0,0,0,0,0,-1,1700,785,0,0
483,239,0,0,0,0,0,0,0,0,0,-1,1707,785,0,0
490,239,0,0,0,0,0,0,0,0,0,-1,1714,785,0,0
497,239,0,0,0,0,0,0,0,0,0,-1,1721,785,0,0
504,239,0,0,0,0,0,0,0,0,0,-1,1728,785,0,0
511,239,0,0,0,0,0,0,0,0,0,-1,1735,785,0,0
518,239,0,0,0,0,0,0,0,0,0,-1,1742,785,0,0
525,239,0,0,0,0,0,0,0,0,0,-1,1749,785,0,0
532,239,0,0,0,0,0,0,0,0,0,-1,1756,785,0,0
539,239,0,0,0,0,0,0,0,0,0,-1,1763,785,0,0
546,239,0,0,0,0,0,0,0,0,0,-1,1770,785,0,0
553,239,0,0,0,0,0,0,0,0,0,-1,1777,785,0,0
560,239,0,0,0,0,0,0,0,0,0,-1,1784,785,0,0
567,239,0,0,0,0,0,0,0,0,0,-1,1791,785,0,0
574,239,0,0,0,0,0,0,0,0,0,-1,1798,785,0,0
581,239,19.6062,2.5014,0.0303867,0.00893969,0.00647957,0.0321923,0.0071341,0.271766,0.0195229,0.0367399,1805,785,19.6063,-2.5014
588,239,19.5465,2.58691,0.00504394,0.00455211,0.00232054,0.00713156,0.00246449,0.73261,0.00418235,0.0386079,1812,785,19.5465,-2.58692
595,239,19.6978,2.42657,-0.0128059,0.00150977,-0.00157422,0.00168084,-0.0129769,-1.46255,0.00926254,0.0359213,1819,785,19.6978,-2.42659
602,239,19.7548,2.45093,-0.0240714,-0.000388119,-0.00472537,0.000519891,-0.0249794,-1.38095,0.0168289,0.0401254,1826,785,19.7547,-2.45094
609,239,19.7567,2.58325,-0.0300115,-0.00155566,-0.00690646,3.20077e-05,-0.0315992,-1.34484,0.0210768,0.0470829,1833,785,19.7567,-2.58326
616,239,19.5802,2.85504,-0.032226,-0.00247603,-0.00806275,-0.000431405,-0.0342707,-1.32244,0.0227047,0.048502,1840,785,19.5802,-2.85504
623,239,19.6045,2.88165,-0.0315812,-0.00275703,-0.00849601,-0.000439195,-0.0338991,-1.30446,0.0224544,0.0424573,1847,785,19.6045,-2.88163
630,239,19.5824,2.92236,0,0,0,0,0,0,0,-1,1854,785,19.5824,-2.92235
637,239,15.0962,0.822937,0,0,0,0,0,0,0,-1,1861,785,15.0963,-0.822949
644,239,14.5789,0.482666,0,0,0,0,0,0,0,-1,1868,785,14.5788,-0.482674
651,239,14.4257,0.836792,-0.0196302,-0.00206899,-0.00650839,8.00947e-05,-0.0217793,-1.25187,0.0145463,0.0420293,1875,785,14.4257,-0.836799
658,239,14.3805,1.2262,-0.0153945,-0.00179366,-0.00576001,0.000317895,-0.0175061,-1.21942,0.0117781,0.0186621,1882,785,14.3805,-1.22618
665,239,14.3823,1.45764,-0.0112857,-0.00170202,-0.00423135,-0.000101213,-0.0128866,-1.20912,0.0085575,0.0145356,1889,785,14.3823,-1.45764
672,239,14.3644,1.6731,-0.00756821,-0.00131322,-0.00283706,-0.00021814,-0.00866329,-1.20243,0.00570421,0.0211875,1896,785,14.3644,-1.67311
679,239,14.3839,1.87408,-0.00420366,-0.000987261,-0.00155396,-0.000359146,-0.00483178,-1.18667,0.00310839,0.0211299,1903,785,14.3839,-1.87405
686,239,14.4095,2.08862,-0.00205612,-0.000594941,-0.00115683,4.26874e-05,-0.00269375,-1.06704,0.00181023,0.0234401,1910,785,14.4096,-2.08861
693,239,14.3859,2.29236,0.000471678,-0.000337275,-0.000724858,0.000897274,-0.000762871,-0.530913,0.000959532,0.0153232,1917,785,14.3858,-2.29234
700,239,14.3765,2.49921,0.003978,1.48792e-05,-0.000129479,0.00398222,1.06536e-05,-0.0326246,0.00265127,0.0110267,1924,785,14.3765,-2.4992
707,239,14.3726,2.68768,0.00751035,0.000102095,0.000423776,0.00753451,7.79328e-05,0.0569556,0.00499723,0.0107297,1931,785,14.3726,-2.68767
714,239,14.3571,2.86469,0.0115083,-5.62057e-05,0.0011824,0.011628,-0.00017586,0.100853,0.00781125,0.0103424,1938,785,14.3571,-2.86471
721,239,14.3434,3.07355,0.0166403,-0.000168142,0.00264939,0.017048,-0.000575858,0.152692,0.0115621,0.0192899,1945,785,14.3433,-3.07356
728,239,14.4862,3.33191,0.0233514,-0.000450474,0.00458751,0.024205,-0.00130404,0.183961,0.0165884,0.0355864,1952,785,14.4862,-3.33191
735,239,14.7664,3.63623,0,0,0,0,0,0,0,-1,1959,785,14.7664,-3.63626
742,239,15.1206,2.36267,0,0,0,0,0,0,0,-1,1966,785,15.1206,-2.36268
749,239,16.0607,5.83008,0,0,0,0,0,0,0,-1,1973,785,16.0607,-5.83007
756,239,17.1089,6.11395,0,0,0,0,0,0,0,-1,1980,785,17.1089,-6.11395
763,239,0,0,0,0,0,0,0,0,0,-1,1987,785,0,0
770,239,0,0,0,0,0,0,0,0,0,-1,1994,785,0,0
777,239,0,0,0,0,0,0,0,0,0,-1,2001,785,0,0
784,239,0,0,0,0,0,0,0,0,0,-1,2008,785,0,0
791,239,0,0,0,0,0,0,0,0,0,-1,2015,785,0,0
798,239,0,0,0,0,0,0,0,0,0,-1,2022,785,0,0
805,239,0,0,0,0,0,0,0,0,0,-1,2029,785,0,0
812,239,0,0,0,0,0,0,0,0,0,-1,2036,785,0,0
-700,232,0,0,0,0,0,0,0,0,0,-1,524,792,0,0
-693,232,0,0,0,0,0,0,0,0,0,-1,531,792,0,0
-686,232,0,0,0,0,0,0,0,0,0,-1,538,792,0,0
-679,232,0,0,0,0,0,0,0,0,0,-1,545,792,0,0
-672,232,0,0,0,0,0,0,0,0,0,-1,552,792,0,0
-665,232,0,0,0,0,0,0,0,0,0,-1,559,792,0,0
-658,232,0,0,0,0,0,0,0,0,0,-1,566,792,0,0
-651,232,0,0,0,0,0,0,0,0,0,-1,573,792,0,0
-644,232,-13.4276,1.18866,0.172398,0.166066,0.0665146,0.235822,0.102642,0.761617,0.136532,0.0462004,580,792,-13.4276,-1.18867
-637,232,-12.3553,1.39349,0.147754,0.136861,0.0543853,0.196965,0.0876503,0.735489,0.113947,0.0429432,587,792,-12.3553,-1.39351
-630,232,-11.2043,1.66217,0.123196,0.110851,0.0433192,0.16078,0.073267,0.714632,0.092948,0.0444873,594,792,-11.2043,-1.66218
-623,232,-10.4316,1.87848,0,0,0,0,0,0,0,-1,601,792,-10.4316,-1.8785
-616,232,-9.05811,1.53137,0,0,0,0,0,0,0,-1,608,792,-9.0581,-1.53136
-609,232,-8.93573,1.40344,0.0603452,0.0514485,0.018371,0.0747988,0.0369949,0.666615,0.0431859,0.0480399,615,792,-8.93572,-1.40343
-602,232,-8.89532,1.25897,0.0443872,0.0375198,0.0127587,0.0541662,0.0277408,0.653949,0.031276,0.048037,622,792,-8.8953,-1.25897
-595,232,-8.75653,1.07257,0.0316439,0.0266121,0.00854102,0.0380319,0.0202241,0.642164,0.0219725,0.0331241,629,792,-8.75654,-1.07256
-588,232,-8.75775,0.815796,0.0204854,0.0163982,0.00493101,0.0237796,0.0131041,0.588952,0.013753,0.0118744,636,792,-8.75774,-0.815821
-581,232,-8.76416,0.616638,0.0113338,0.00882511,0.00218298,0.0125971,0.00756175,0.524634,0.00732155,0.00837149,643,792,-8.76413,-0.616618
-574,232,-8.76764,0.428528,0.00520737,0.00431562,0.000831779,0.00570524,0.00381774,0.539363,0.00335617,0.00866675,650,792,-8.76763,-0.428538
-567,232,-8.80511,0.233215,0.00190739,0.00215877,0.00056199,0.00260895,0.0014572,0.895415,0.00150972,0.00946233,657,792,-8.8051,-0.233201
-560,232,-8.80066,0.0384521,-0.000426657,0.00167778,0.000612889,0.00184326,-0.00059214,1.30708,0.00146662,0.0105492,664,792,-8.80066,-0.0384308
-553,232,-8.79059,-0.139648,-0.00193521,0.00133033,0.000694811,0.00147202,-0.0020769,1.36963,0.00205887,0.0119875,671,792,-8.79059,0.13962
-546,232,-8.84241,-0.317383,-0.00279678,0.00131861,0.00115122,0.00161876,-0.00309692,1.31575,0.00276683,0.0203482,678,792,-8.84238,0.317412
-539,232,-8.84619,-0.532959,-0.0033358,0.0017805,0.00174392,0.00231838,-0.00387367,1.27162,0.00361238,0.0241455,685,792,-8.84617,0.532938
-532,232,-8.78784,-0.720398,-0.00406113,0.00297103,0.00257324,0.00381206,-0.00490216,1.2549,0.00504426,0.0143361,692,792,-8.78784,0.72042
-525,232,-8.78748,-0.844543,-0.00471009,0.00530032,0.00362683,0.00647621,-0.00588599,1.25727,0.00714003,0.0243237,699,792,-8.78748,0.844574
-518,232,-8.85443,-1.01196,0,0,0,0,0,0,0,-1,706,792,-8.85441,1.01198
-511,232,-8.79608,-1.87067,-0.0053775,0.00850717,0.00636744,0.010985,-0.00785538,1.19968,0.0109274,0.0468902,713,792,-8.7961,1.87066
-504,232,-8.7254,-2.25214,0,0,0,0,0,0,0,-1,720,792,-8.72539,2.25217
-497,232,-8.77319,-2.38702,0,0,0,0,0,0,0,-1,727,792,-8.77318,2.38699
-490,232,-12.3521,1.00275,-0.00619969,0.0132123,0.0127534,0.019533,-0.0125204,1.11067,0.0186531,0.044492,734,792,-12.3521,-1.00276
-483,232,-12.8337,0.87085,-0.00682495,0.0134717,0.0152834,0.0216692,-0.0150225,1.07848,0.0212995,0.0419959,741,792,-12.8337,-0.870861
-476,232,-12.9738,0.573242,-0.00798833,0.0120646,0.0176296,0.0223195,-0.0182432,1.04395,0.0234583,0.0344575,748,792,-12.9738,-0.573266
-469,232,-12.8566,0.526855,-0.0105614,0.00786406,0.0194054,0.0201326,-0.0228299,1.00702,0.0248207,0.033086,755,792,-12.8566,-0.526874
-462,232,0,0,0,0,0,0,0,0,0,-1,762,792,0,0
-455,232,0,0,0,0,0,0,0,0,0,-1,769,792,0,0
-448,232,0,0,0,0,0,0,0,0,0,-1,776,792,0,0
-441,232,0,0,0,0,0,0,0,0,0,-1,783,792,0,0
-434,232,0,0,0,0,0,0,0,0,0,-1,790,792,0,0
-427,232,0,0,0,0,0,0,0,0,0,-1,797,792,0,0
-420,232,0,0,0,0,0,0,0,0,0,-1,804,792,0,0
-413,232,0,0,0,0,0,0,0,0,0,-1,811,792,0,0
-406,232,0,0,0,0,0,0,0,0,0,-1,818,792,0,0
-399,232,0,0,0,0,0,0,0,0,0,-1,825,792,0,0
-392,232,0,0,0,0,0,0,0,0,0,-1,832,792,0,0
-385,232,0,0,0,0,0,0,0,0,0,-1,839,792,0,0
-378,232,0,0,0,0,0,0,0,0,0,-1,846,792,0,0
-371,232,0,0,0,0,0,0,0,0,0,-1,853,792,0,0
-364,232,0,0,0,0,0,0,0,0,0,-1,860,792,0,0
-357,232,0,0,0,0,0,0,0,0,0,-1,867,792,0,0
-350,232,0,0,0,0,0,0,0,0,0,-1,874,792,0,0
-343,232,0,0,0,0,0,0,0,0,0,-1,881,792,0,0
-336,232,0,0,0,0,0,0,0,0,0,-1,888,792,0,0
-329,232,0,0,0,0,0,0,0,0,0,-1,895,792,0,0
-322,232,0,0,0,0,0,0,0,0,0,-1,902,792,0,0
-315,232,0,0,0,0,0,0,0,0,0,-1,909,792,0,0
-308,232,0,0,0,0,0,0,0,0,0,-1,916,792,0,0
-301,232,0,0,0,0,0,0,0,0,0,-1,923,792,0,0
-294,232,0,0,0,0,0,0,0,0,0,-1,930,792,0,0
-287,232,0,0,0,0,0,0,0,0,0,-1,937,792,0,0
-280,232,0,0,0,0,0,0,0,0,0,-1,944,792,0,0
-273,232,0,0,0,0,0,0,0,0,0,-1,951,792,0,0
-266,232,0,0,0,0,0,0,0,0,0,-1,958,792,0,0
-259,232,0,0,0,0,0,0,0,0,0,-1,965,792,0,0
-252,232,0,0,0,0,0,0,0,0,0,-1,972,792,0,0
-245,232,0,0,0,0,0,0,0,0,0,-1,979,792,0,0
-238,232,0,0,0,0,0,0,0,0,0,-1,986,792,0,0
-231,232,0,0,0,0,0,0,0,0,0,-1,993,792,0,0
-224,232,0,0,0,0,0,0,0,0,0,-1,1000,792,0,0
-217,232,0,0,0,0,0,0,0,0,0,-1,1007,792,0,0
-210,232,0,0,0,0,0,0,0,0,0,-1,1014,792,0,0
-203,232,0,0,0,0,0,0,0,0,0,-1,1021,792,0,0
-196,232,0,0,0,0,0,0,0,0,0,-1,1028,792,0,0
-189,232,0,0,0,0,0,0,0,0,0,-1,1035,792,0,0
-182,232,0,0,0,0,0,0,0,0,0,-1,1042,792,0,0
-175,232,0,0,0,0,0,0,0,0,0,-1,1049,792,0,0
-168,232,0,0,0,0,0,0,0,0,0,-1,1056,792,0,0
-161,232,0,0,0,0,0,0,0,0,0,-1,1063,792,0,0
-154,232,0,0,0,0,0,0,0,0,0,-1,1070,792,0,0
-147,232,0,0,0,0,0,0,0,0,0,-1,1077,792,0,0
-140,232,0,0,0,0,0,0,0,0,0,-1,1084,792,0,0
-133,232,0,0,0,0,0,0,0,0,0,-1,1091,792,0,0
-126,232,0,0,0,0,0,0,0,0,0,-1,1098,792,0,0
-119,232,0,0,0,0,0,0,0,0,0,-1,1105,792,0,0
-112,232,0,0,0,0,0,0,0,0,0,-1,1112,792,0,0
-105,232,0,0,0,0,0,0,0,0,0,-1,1119,792,0,0
-98,232,0,0,0,0,0,0,0,0,0,-1,1126,792,0,0
-91,232,0,0,0,0,0,0,0,0,0,-1,1133,792,0,0
-84,232,0,0,0,0,0,0,0,0,0,-1,1140,792,0,0
-77,232,0,0,0,0,0,0,0,0,0,-1,1147,792,0,0
-70,232,0,0,0,0,0,0,0,0,0,-1,1154,792,0,0
-63,232,0,0,0,0,0,0,0,0,0,-1,1161,792,0,0
-56,232,0,0,0,0,0,0,0,0,0,-1,1168,792,0,0
-49,232,0,0,0,0,0,0,0,0,0,-1,1175,792,0,0
-42,232,0,0,0,0,0,0,0,0,0,-1,1182,792,0,0
-35,232,0,0,0,0,0,0,0,0,0,-1,1189,792,0,0
-28,232,0,0,0,0,0,0,0,0,0,-1,1196,792,0,0
-21,232,0,0,0,0,0,0,0,0,0,-1,1203,792,0,0
-14,232,0,0,0,0,0,0,0,0,0,-1,1210,792,0,0
-7,232,0,0,0,0,0,0,0,0,0,-1,1217,792,0,0
0,232,0,0,0,0,0,0,0,0,0,-1,1224,792,0,0
7,232,0,0,0,0,0,0,0,0,0,-1,1231,792,0,0
14,232,0,0,0,0,0,0,0,0,0,-1,1238,792,0,0
21,232,0,0,0,0,0,0,0,0,0,-1,1245,792,0,0
28,232,0,0,0,0,0,0,0,0,0,-1,1252,792,0,0
35,232,0,0,0,0,0,0,0,0,0,-1,1259,792,0,0
42,232,0,0,0,0,0,0,0,0,0,-1,1266,792,0,0
49,232,0,0,0,0,0,0,0,0,0,-1,1273,792,0,0
56,232,0,0,0,0,0,0,0,0,0,-1,1280,792,0,0
63,232,0,0,0,0,0,0,0,0,0,-1,1287,792,0,0
70,232,0,0,0,0,0,0,0,0,0,-1,1294,792,0,0
77,232,0,0,0,0,0,0,0,0,0,-1,1301,792,0,0
84,232,0,0,0,0,0,0,0,0,0,-1,1308,792,0,0
91,232,0,0,0,0,0,0,0,0,0,-1,1315,792,0,0
98,232,0,0,0,0,0,0,0,0,0,-1,1322,792,0,0
105,232,0,0,0,0,0,0,0,0,0,-1,1329,792,0,0
112,232,0,0,0,0,0,0,0,0,0,-1,1336,792,0,0
119,232,0,0,0,0,0,0,0,0,0,-1,1343,792,0,0
126,232,0,0,0,0,0,0,0,0,0,-1,1350,792,0,0
133,232,0,0,0,0,0,0,0,0,0,-1,1357,792,0,0
140,232,0,0,0,0,0,0,0,0,0,-1,1364,792,0,0
147,232,0,0,0,0,0,0,0,0,0,-1,1371,792,0,0
154,232,0,0,0,0,0,0,0,0,0,-1,1378,792,0,0
161,232,0,0,0,0,0,0,0,0,0,-1,1385,792,0,0
168,232,0,0,0,0,0,0,0,0,0,-1,1392,792,0,0
175,232,0,0,0,0,0,0,0,0,0,-1,1399,792,0,0
182,232,0,0,0,0,0,0,0,0,0,-1,1406,792,0,0
189,232,0,0,0,0,0,0,0,0,0,-1,1413,792,0,0
196,232,0,0,0,0,0,0,0,0,0,-1,1420,792,0,0
203,232,0,0,0,0,0,0,0,0,0,-1,1427,792,0,0
210,232,0,0,0,0,0,0,0,0,0,-1,1434,792,0,0
217,232,0,0,0,0,0,0,0,0,0,-1,1441,792,0,0
224,232,0,0,0,0,0,0,0,0,0,-1,1448,792,0,0
231,232,0,0,0,0,0,0,0,0,0,-1,1455,792,0,0
238,232,0,0,0,0,0,0,0,0,0,-1,1462,792,0,0
245,232,0,0,0,0,0,0,0,0,0,-1,1469,792,0,0
252,232,0,0,0,0,0,0,0,0,0,-1,1476,792,0,0
259,232,0,0,0,0,0,0,0,0,0,-1,1483,792,0,0
266,232,0,0,0,0,0,0,0,0,0,-1,1490,792,0,0
273,232,0,0,0,0,0,0,0,0,0,-1,1497,792,0,0
280,232,0,0,0,0,0,0,0,0,0,-1,1504,792,0,0
287,232,0,0,0,0,0,0,0,0,0,-1,1511,792,0,0
294,232,0,0,0,0,0,0,0,0,0,-1,1518,792,0,0
301,232,0,0,0,0,0,0,0,0,0,-1,1525,792,0,0
308,232,0,0,0,0,0,0,0,0,0,-1,1532,792,0,0
315,232,0,0,0,0,0,0,0,0,0,-1,1539,792,0,0
322,232,0,0,0,0,0,0,0,0,0,-1,1546,792,0,0
329,232,0,0,0,0,0,0,0,0,0,-1,1553,792,0,0
336,232,0,0,0,0,0,0,0,0,0,-1,1560,792,0,0
343,232,0,0,0,0,0,0,0,0,0,-1,1567,792,0,0
350,232,0,0,0,0,0,0,0,0,0,-1,1574,792,0,0
357,232,0,0,0,0,0,0,0,0,0,-1,1581,792,0,0
364,232,0,0,0,0,0,0,0,0,0,-1,1588,792,0,0
371,232,0,0,0,0,0,0,0,0,0,-1,1595,792,0,0
378,232,0,0,0,0,0,0,0,0,0,-1,1602,792,0,0
385,232,0,0,0,0,0,0,0,0,0,-1,1609,792,0,0
392,232,0,0,0,0,0,0,0,0,0,-1,1616,792,0,0
399,232,0,0,0,0,0,0,0,0,0,-1,1623,792,0,0
406,232,0,0,0,0,0,0,0,0,0,-1,1630,792,0,0
413,232,0,0,0,0,0,0,0,0,0,-1,1637,792,0,0
420,232,0,0,0,0,0,0,0,0,0,-1,1644,792,0,0
427,232,0,0,0,0,0,0,0,0,0,-1,1651,792,0,0
434,232,0,0,0,0,0,0,0,0,0,-1,1658,792,0,0
441,232,0,0,0,0,0,0,0,0,0,-1,1665,792,0,0
448,232,0,0,0,0,0,0,0,0,0,-1,1672,792,0,0
455,232,0,0,0,0,0,0,0,0,0,-1,1679,792,0,0
462,232,0,0,0,0,0,0,0,0,0,-1,1686,792,0,0
469,232,0,0,0,0,0,0,0,0,0,-1,1693,792,0,0
476,232,0,0,0,0,0,0,0,0,0,-1,1700,792,0,0
483,232,0,0,0,0,0,0,0,0,0,-1,1707,792,0,0
490,232,0,0,0,0,0,0,0,0,0,-1,1714,792,0,0
497,232,0,0,0,0,0,0,0,0,0,-1,1721,792,0,0
504,232,0,0,0,0,0,0,0,0,0,-1,1728,792,0,0
511,232,0,0,0,0,0,0,0,0,0,-1,1735,792,0,0
518,232,0,0,0,0,0,0,0,0,0,-1,1742,792,0,0
525,232,0,0,0,0,0,0,0,0,0,-1,1749,792,0,0
532,232,0,0,0,0,0,0,0,0,0,-1,1756,792,0,0
539,232,0,0,0,0,0,0,0,0,0,-1,1763,792,0,0
546,232,0,0,0,0,0,0,0,0,0,-1,1770,792,0,0
553,232,0,0,0,0,0,0,0,0,0,-1,1777,792,0,0
560,232,0,0,0,0,0,0,0,0,0,-1,1784,792,0,0
567,232,0,0,0,0,0,0,0,0,0,-1,1791,792,0,0
574,232,0,0,0,0,0,0,0,0,0,-1,1798,792,0,0
581,232,0,0,0,0,0,0,0,0,0,-1,1805,792,0,0
588,232,19.5095,2.64136,0.012906,0.00323139,0.00496284,0.014999,0.00113838,0.399103,0.00964231,0.0384582,1812,792,19.5095,-2.64137
595,232,19.583,2.50214,-0.0046149,0.000941779,0.00094854,0.00109924,-0.00477236,1.4063,0.0036043,0.0366079,1819,792,19.583,-2.50211
602,232,19.6147,2.4704,-0.0163184,-0.000433054,-0.00251771,-4.35654e-05,-0.0167079,-1.41731,0.0111241,0.0363698,1826,792,19.6147,-2.47042
609,232,19.6749,2.46899,-0.0230898,-0.00134754,-0.00502762,-0.000241253,-0.0241961,-1.35421,0.0160509,0.0404162,1833,792,19.6749,-2.46898
616,232,19.7087,2.52673,-0.0261604,-0.0021101,-0.00651027,-0.000460899,-0.0278096,-1.32269,0.018388,0.0428209,1840,792,19.7087,-2.52676
623,232,19.5885,2.51233,-0.0263555,-0.00240458,-0.00718095,-0.000416596,-0.0283435,-1.30072,0.0187583,0.0407487,1847,792,19.5885,-2.51232
630,232,19.8087,2.37524,0,0,0,0,0,0,0,-1,1854,792,19.8087,-2.37526
637,232,19.9789,2.38043,0,0,0,0,0,0,0,-1,1861,792,19.9789,-2.38041
644,232,15.0841,0.624634,0,0,0,0,0,0,0,-1,1868,792,15.0842,-0.624612
651,232,14.8779,0.981201,-0.0174421,-0.00219826,-0.00584015,-0.000218043,-0.0194223,-1.24389,0.0128762,0.0447699,1875,792,14.8779,-0.98119
658,232,14.6348,1.31903,-0.0140845,-0.00202069,-0.00524304,-6.05108e-05,-0.0160447,-1.21302,0.0106763,0.0238938,1882,792,14.6348,-1.31904
665,232,14.588,1.46436,-0.0107718,-0.00197633,-0.00405096,-0.000394898,-0.0123532,-1.19861,0.00810703,0.0120403,1889,792,14.588,-1.46434
672,232,14.5557,1.67676,-0.00763323,-0.00166752,-0.00290846,-0.000484253,-0.00881649,-1.18441,0.00572308,0.018341,1896,792,14.5557,-1.67673
679,232,14.5811,1.90179,-0.0047078,-0.00140863,-0.00176206,-0.000644514,-0.00547192,-1.16162,0.00345322,0.0193636,1903,792,14.5811,-1.9018
686,232,14.6095,2.1203,-0.00282537,-0.00101097,-0.00138709,-0.000260755,-0.00357559,-1.075,0.00230174,0.0198313,1910,792,14.6095,-2.12027
693,232,14.5808,2.31097,-0.000470648,-0.000737572,-0.000951935,0.000357135,-0.00156536,-0.715752,0.00118076,0.0111951,1917,792,14.5808,-2.31098
700,232,14.5975,2.50024,0.00300899,-0.00036634,-0.000328395,0.00304064,-0.000397994,-0.0960919,0.00217195,0.0115825,1924,792,14.5976,-2.50024
707,232,14.6033,2.69135,0.00646654,-0.000276878,0.000248241,0.00647567,-0.000286004,0.036746,0.00441554,0.0115893,1931,792,14.6033,-2.69134
714,232,14.5955,2.86096,0.01024,-0.000445172,0.00102742,0.0103379,-0.000543065,0.0949937,0.0070799,0.0131057,1938,792,14.5955,-2.86099
721,232,14.5823,3.06689,0.015016,-0.000506183,0.00250921,0.0154115,-0.000901724,0.15635,0.0105877,0.017408,1945,792,14.5823,-3.06691
728,232,14.6539,3.27228,0.0210365,-0.000711876,0.00436085,0.0218783,-0.0015537,0.190696,0.0151301,0.0321528,1952,792,14.654,-3.27227
735,232,14.8148,3.47498,0,0,0,0,0,0,0,-1,1959,792,14.8149,-3.47496
742,232,15.2421,5.19165,0,0,0,0,0,0,0,-1,1966,792,15.2421,-5.19164
749,232,16.1478,5.24133,0,0,0,0,0,0,0,-1,1973,792,16.1478,-5.24131
756,232,16.9966,5.46313,0,0,0,0,0,0,0,-1,1980,792,16.9966,-5.46313
763,232,17.4731,5.46112,0,0,0,0,0,0,0,-1,1987,792,17.4732,-5.46111
770,232,0,0,0,0,0,0,0,0,0,-1,1994,792,0,0
777,232,0,0,0,0,0,0,0,0,0,-1,2001,792,0,0
784,232,0,0,0,0,0,0,0,0,0,-1,2008,792,0,0
791,232,0,0,0,0,0,0,0,0,0,-1,2015,792,0,0
798,232,0,0,0,0,0,0,0,0,0,-1,2022,792,0,0
805,232,0,0,0,0,0,0,0,0,0,-1,2029,792,0,0
812,232,0,0,0,0,0,0,0,0,0,-1,2036,792,0,0
-700,225,0,0,0,0,0,0,0,0,0,-1,524,799,0,0
-693,225,0,0,0,0,0,0,0,0,0,-1,531,799,0,0
-686,225,0,0,0,0,0,0,0,0,0,-1,538,799,0,0
-679,225,0,0,0,0,0,0,0,0,0,-1,545,799,0,0
-672,225,0,0,0,0,0,0,0,0,0,-1,552,799,0,0
-665,225,0,0,0,0,0,0,0,0,0,-1,559,799,0,0
-658,225,0,0,0,0,0,0,0,0,0,-1,566,799,0,0
-651,225,0,0,0,0,0,0,0,0,0,-1,573,799,0,0
-644,225,-13.9995,0.0394897,0.15174,0.155793,0.0590402,0.212841,0.0946915,0.802553,0.123133,0.049985,580,799,-13.9994,-0.0395063
-637,225,-12.9918,0.18988,0.130674,0.129039,0.0486077,0.178471,0.0812416,0.776991,0.103178,0.0425088,587,799,-12.9918,-0.189872
-630,225,-11.7739,0.593933,0.109204,0.104676,0.038874,0.14588,0.0680005,0.756313,0.0842883,0.0436892,594,799,-11.7739,-0.593908
-623,225,-10.552,1.00104,0,0,0,0,0,0,0,-1,601,799,-10.552,-1.00105
-616,225,-8.55609,1.16077,0,0,0,0,0,0,0,-1,608,799,-8.55611,-1.16078
-609,225,-9.14337,1.25336,0,0,0,0,0,0,0,-1,615,799,-9.14338,-1.25337
-602,225,-9.03009,1.15869,0.0390875,0.0348735,0.0113894,0.0485632,0.0253978,0.693935,0.0280478,0.0472978,622,799,-9.0301,-1.1587
-595,225,-8.99091,1.00458,0.0278618,0.0246256,0.00763356,0.0340469,0.0184405,0.680959,0.0196797,0.0278472,629,799,-8.9909,-1.00456
-588,225,-8.97681,0.794128,0.0178057,0.0150097,0.00437981,0.0210052,0.0118102,0.630913,0.0121586,0.0113341,636,799,-8.97678,-0.794112
-581,225,-8.9563,0.617981,0.00959197,0.00780993,0.00200526,0.0108953,0.00650664,0.576329,0.00632988,0.00980774,643,799,-8.95629,-0.618004
-574,225,-8.94,0.42926,0.00402993,0.00362476,0.000881976,0.00473229,0.0029224,0.672509,0.00275724,0.00837706,650,799,-8.94002,-0.429278
-567,225,-8.96033,0.224121,0.000913387,0.00168476,0.000656001,0.00206005,0.000538093,1.05115,0.00123376,0.00983609,657,799,-8.96034,-0.224127
-560,225,-8.99371,0.0498047,-0.00125578,0.00133531,0.000670269,0.00149843,-0.0014189,1.33208,0.00168453,0.00960018,664,799,-8.99369,-0.049793
-553,225,-8.98541,-0.125061,-0.00277685,0.00118534,0.000744857,0.00132074,-0.00291225,1.39098,0.00250083,0.0105152,671,799,-8.9854,0.125091
-546,225,-9.05243,-0.31842,-0.00368738,0.00132035,0.0010742,0.00154105,-0.00390808,1.36816,0.00324348,0.0197297,678,799,-9.05245,0.318401
-539,225,-9.03711,-0.522705,-0.00426348,0.00183162,0.00147028,0.00216775,-0.00459961,1.34604,0.00399034,0.0235439,685,799,-9.03711,0.522725
-532,225,-8.99969,-0.698425,-0.00497643,0.00298353,0.00208076,0.00349463,-0.00548754,1.32993,0.00522823,0.0163079,692,799,-8.99971,0.698406
-525,225,-9.05023,-0.783203,-0.00557519,0.00517487,0.00286858,0.00589243,-0.00629275,1.32568,0.00703638,0.0367762,699,799,-9.05022,0.78321
-518,225,-9.08722,-0.862305,0,0,0,0,0,0,0,-1,706,799,-9.08721,0.862334
-511,225,-9.01099,-2.12457,0,0,0,0,0,0,0,-1,713,799,-9.01099,2.12455
-504,225,-8.94666,-2.24689,0,0,0,0,0,0,0,-1,720,799,-8.94666,2.24688
-497,225,-12.4026,0.890625,0,0,0,0,0,0,0,-1,727,799,-12.4026,-0.890633
-490,225,-12.7078,0.727173,-0.00584729,0.0145976,0.0102964,0.0188843,-0.010134,1.17629,0.0170057,0.0398257,734,799,-12.7078,-0.727154
-483,225,-12.8927,0.613586,-0.00595399,0.0158692,0.0126269,0.021646,-0.0117308,1.14173,0.0195515,0.0331682,741,799,-12.8927,-0.613565
-476,225,-12.9061,0.536133,-0.00642058,0.0158717,0.014901,0.0233341,-0.013883,1.10651,0.021717,0.0304302,748,799,-12.9061,-0.536149
-469,225,-12.8748,0.446899,-0.00829332,0.0137651,0.0169077,0.0229229,-0.0174511,1.0744,0.0233812,0.0345919,755,799,-12.8748,-0.446913
-462,225,0,0,0,0,0,0,0,0,0,-1,762,799,0,0
-455,225,0,0,0,0,0,0,0,0,0,-1,769,799,0,0
-448,225,0,0,0,0,0,0,0,0,0,-1,776,799,0,0
-441,225,0,0,0,0,0,0,0,0,0,-1,783,799,0,0
-434,225,0,0,0,0,0,0,0,0,0,-1,790,799,0,0
-427,225,0,0,0,0,0,0,0,0,0,-1,797,799,0,0
-420,225,0,0,0,0,0,0,0,0,0,-1,804,799,0,0
-413,225,0,0,0,0,0,0,0,0,0,-1,811,799,0,0
-406,225,0,0,0,0,0,0,0,0,0,-1,818,799,0,0
-399,225,0,0,0,0,0,0,0,0,0,-1,825,799,0,0
-392,225,0,0,0,0,0,0,0,0,0,-1,832,799,0,0
-385,225,0,0,0,0,0,0,0,0,0,-1,839,799,0,0
-378,225,0,0,0,0,0,0,0,0,0,-1,846,799,0,0
-371,225,0,0,0,0,0,0,0,0,0,-1,853,799,0,0
-364,225,0,0,0,0,0,0,0,0,0,-1,860,799,0,0
-357,225,0,0,0,0,0,0,0,0,0,-1,867,799,0,0
-350,225,0,0,0,0,0,0,0,0,0,-1,874,799,0,0
-343,225,0,0,0,0,0,0,0,0,0,-1,881,799,0,0
-336,225,0,0,0,0,0,0,0,0,0,-1,888,799,0,0
-329,225,0,0,0,0,0,0,0,0,0,-1,895,799,0,0
-322,225,0,0,0,0,0,0,0,0,0,-1,902,799,0,0
-315,225,0,0,0,0,0,0,0,0,0,-1,909,799,0,0
-308,225,0,0,0,0,0,0,0,0,0,-1,916,799,0,0
-301,225,0,0,0,0,0,0,0,0,0,-1,923,799,0,0
-294,225,0,0,0,0,0,0,0,0,0,-1,930,799,0,0
-287,225,0,0,0,0,0,0,0,0,0,-1,937,799,0,0
-280,225,0,0,0,0,0,0,0,0,0,-1,944,799,0,0
-273,225,0,0,0,0,0,0,0,0,0,-1,951,799,0,0
-266,225,0,0,0,0,0,0,0,0,0,-1,958,799,0,0
-259,225,0,0,0,0,0,0,0,0,0,-1,965,799,0,0
-252,225,0,0,0,0,0,0,0,0,0,-1,972,799,0,0
-245,225,0,0,0,0,0,0,0,0,0,-1,979,799,0,0
-238,225,0,0,0,0,0,0,0,0,0,-1,986,799,0,0
-231,225,0,0,0,0,0,0,0,0,0,-1,993,799,0,0
-224,225,0,0,0,0,0,0,0,0,0,-1,1000,799,0,0
-217,225,0,0,0,0,0,0,0,0,0,-1,1007,799,0,0
-210,225,0,0,0,0,0,0,0,0,0,-1,1014,799,0,0
-203,225,0,0,0,0,0,0,0,0,0,-1,1021,799,0,0
-196,225,0,0,0,0,0,0,0,0,0,-1,1028,799,0,0
-189,225,0,0,0,0,0,0,0,0,0,-1,1035,799,0,0
-182,225,0,0,0,0,0,0,0,0,0,-1,1042,799,0,0
-175,225,0,0,0,0,0,0,0,0,0,-1,1049,799,0,0
-168,225,0,0,0,0,0,0,0,0,0,-1,1056,799,0,0
-161,225,0,0,0,0,0,0,0,0,0,-1,1063,799,0,0
-154,225,0,0,0,0,0,0,0,0,0,-1,1070,799,0,0
-147,225,0,0,0,0,0,0,0,0,0,-1,1077,799,0,0
-140,225,0,0,0,0,0,0,0,0,0,-1,1084,799,0,0
-133,225,0,0,0,0,0,0,0,0,0,-1,1091,799,0,0
-126,225,0,0,0,0,0,0,0,0,0,-1,1098,799,0,0
-119,225,0,0,0,0,0,0,0,0,0,-1,1105,799,0,0
-112,225,0,0,0,0,0,0,0,0,0,-1,1112,799,0,0
-105,225,0,0,0,0,0,0,0,0,0,-1,1119,799,0,0
-98,225,0,0,0,0,0,0,0,0,0,-1,1126,799,0,0
-91,225,0,0,0,0,0,0,0,0,0,-1,1133,799,0,0
-84,225,0,0,0,0,0,0,0,0,0,-1,1140,799,0,0
-77,225,0,0,0,0,0,0,0,0,0,-1,1147,799,0,0
-70,225,0,0,0,0,0,0,0,0,0,-1,1154,799,0,0
-63,225,0,0,0,0,0,0,0,0,0,-1,1161,799,0,0
-56,225,0,0,0,0,0,0,0,0,0,-1,1168,799,0,0
-49,225,0,0,0,0,0,0,0,0,0,-1,1175,799,0,0
-42,225,0,0,0,0,0,0,0,0,0,-1,1182,799,0,0
-35,225,0,0,0,0,0,0,0,0,0,-1,1189,799,0,0
-28,225,0,0,0,0,0,0,0,0,0,-1,1196,799,0,0
-21,225,0,0,0,0,0,0,0,0,0,-1,1203,799,0,0
-14,225,0,0,0,0,0,0,0,0,0,-1,1210,799,0,0
-7,225,0,0,0,0,0,0,0,0,0,-1,1217,799,0,0
0,225,0,0,0,0,0,0,0,0,0,-1,1224,799,0,0
7,225,0,0,0,0,0,0,0,0,0,-1,1231,799,0,0
14,225,0,0,0,0,0,0,0,0,0,-1,1238,799,0,0
21,225,0,0,0,0,0,0,0,0,0,-1,1245,799,0,0
28,225,0,0,0,0,0,0,0,0,0,-1,1252,799,0,0
35,225,0,0,0,0,0,0,0,0,0,-1,1259,799,0,0
42,225,0,0,0,0,0,0,0,0,0,-1,1266,799,0,0
49,225,0,0,0,0,0,0,0,0,0,-1,1273,799,0,0
56,225,0,0,0,0,0,0,0,0,0,-1,1280,799,0,0
63,225,0,0,0,0,0,0,0,0,0,-1,1287,799,0,0
70,225,0,0,0,0,0,0,0,0,0,-1,1294,799,0,0
77,225,0,0,0,0,0,0,0,0,0,-1,1301,799,0,0
84,225,0,0,0,0,0,0,0,0,0,-1,1308,799,0,0
91,225,0,0,0,0,0,0,0,0,0,-1,1315,799,0,0
98,225,0,0,0,0,0,0,0,0,0,-1,1322,799,0,0
105,225,0,0,0,0,0,0,0,0,0,-1,1329,799,0,0
112,225,0,0,0,0,0,0,0,0,0,-1,1336,799,0,0
119,225,0,0,0,0,0,0,0,0,0,-1,1343,799,0,0
126,225,0,0,0,0,0,0,0,0,0,-1,1350,799,0,0
133,225,0,0,0,0,0,0,0,0,0,-1,1357,799,0,0
140,225,0,0,0,0,0,0,0,0,0,-1,1364,799,0,0
147,225,0,0,0,0,0,0,0,0,0,-1,1371,799,0,0
154,225,0,0,0,0,0,0,0,0,0,-1,1378,799,0,0
161,225,0,0,0,0,0,0,0,0,0,-1,1385,799,0,0
168,225,0,0,0,0,0,0,0,0,0,-1,1392,799,0,0
175,225,0,0,0,0,0,0,0,0,0,-1,1399,799,0,0
182,225,0,0,0,0,0,0,0,0,0,-1,1406,799,0,0
189,225,0,0,0,0,0,0,0,0,0,-1,1413,799,0,0
196,225,0,0,0,0,0,0,0,0,0,-1,1420,799,0,0
203,225,0,0,0,0,0,0,0,0,0,-1,1427,799,0,0
210,225,0,0,0,0,0,0,0,0,0,-1,1434,799,0,0
217,225,0,0,0,0,0,0,0,0,0,-1,1441,799,0,0
224,225,0,0,0,0,0,0,0,0,0,-1,1448,799,0,0
231,225,0,0,0,0,0,0,0,0,0,-1,1455,799,0,0
238,225,0,0,0,0,0,0,0,0,0,-1,1462,799,0,0
245,225,0,0,0,0,0,0,0,0,0,-1,1469,799,0,0
252,225,0,0,0,0,0,0,0,0,0,-1,1476,799,0,0
259,225,0,0,0,0,0,0,0,0,0,-1,1483,799,0,0
266,225,0,0,0,0,0,0,0,0,0,-1,1490,799,0,0
273,225,0,0,0,0,0,0,0,0,0,-1,1497,799,0,0
280,225,0,0,0,0,0,0,0,0,0,-1,1504,799,0,0
287,225,0,0,0,0,0,0,0,0,0,-1,1511,799,0,0
294,225,0,0,0,0,0,0,0,0,0,-1,1518,799,0,0
301,225,0,0,0,0,0,0,0,0,0,-1,1525,799,0,0
308,225,0,0,0,0,0,0,0,0,0,-1,1532,799,0,0
315,225,0,0,0,0,0,0,0,0,0,-1,1539,799,0,0
322,225,0,0,0,0,0,0,0,0,0,-1,1546,799,0,0
329,225,0,0,0,0,0,0,0,0,0,-1,1553,799,0,0
336,225,0,0,0,0,0,0,0,0,0,-1,1560,799,0,0
343,225,0,0,0,0,0,0,0,0,0,-1,1567,799,0,0
350,225,0,0,0,0,0,0,0,0,0,-1,1574,799,0,0
357,225,0,0,0,0,0,0,0,0,0,-1,1581,799,0,0
364,225,0,0,0,0,0,0,0,0,0,-1,1588,799,0,0
371,225,0,0,0,0,0,0,0,0,0,-1,1595,799,0,0
378,225,0,0,0,0,0,0,0,0,0,-1,1602,799,0,0
385,225,0,0,0,0,0,0,0,0,0,-1,1609,799,0,0
392,225,0,0,0,0,0,0,0,0,0,-1,1616,799,0,0
399,225,0,0,0,0,0,0,0,0,0,-1,1623,799,0,0
406,225,0,0,0,0,0,0,0,0,0,-1,1630,799,0,0
413,225,0,0,0,0,0,0,0,0,0,-1,1637,799,0,0
420,225,0,0,0,0,0,0,0,0,0,-1,1644,799,0,0
427,225,0,0,0,0,0,0,0,0,0,-1,1651,799,0,0
434,225,0,0,0,0,0,0,0,0,0,-1,1658,799,0,0
441,225,0,0,0,0,0,0,0,0,0,-1,1665,799,0,0
448,225,0,0,0,0,0,0,0,0,0,-1,1672,799,0,0
455,225,0,0,0,0,0,0,0,0,0,-1,1679,799,0,0
462,225,0,0,0,0,0,0,0,0,0,-1,1686,799,0,0
469,225,0,0,0,0,0,0,0,0,0,-1,1693,799,0,0
476,225,0,0,0,0,0,0,0,0,0,-1,1700,799,0,0
483,225,0,0,0,0,0,0,0,0,0,-1,1707,799,0,0
490,225,0,0,0,0,0,0,0,0,0,-1,1714,799,0,0
497,225,0,0,0,0,0,0,0,0,0,-1,1721,799,0,0
504,225,0,0,0,0,0,0,0,0,0,-1,1728,799,0,0
511,225,0,0,0,0,0,0,0,0,0,-1,1735,799,0,0
518,225,0,0,0,0,0,0,0,0,0,-1,1742,799,0,0
525,225,0,0,0,0,0,0,0,0,0,-1,1749,799,0,0
532,225,0,0,0,0,0,0,0,0,0,-1,1756,799,0,0
539,225,0,0,0,0,0,0,0,0,0,-1,1763,799,0,0
546,225,0,0,0,0,0,0,0,0,0,-1,1770,799,0,0
553,225,0,0,0,0,0,0,0,0,0,-1,1777,799,0,0
560,225,0,0,0,0,0,0,0,0,0,-1,1784,799,0,0
567,225,0,0,0,0,0,0,0,0,0,-1,1791,799,0,0
574,225,0,0,0,0,0,0,0,0,0,-1,1798,799,0,0
581,225,0,0,0,0,0,0,0,0,0,-1,1805,799,0,0
588,225,19.6368,2.57971,0.0160528,0.000189456,0.00751309,0.0190463,-0.00280397,0.379151,0.0137279,0.0377476,1812,799,19.6368,-2.5797
595,225,19.6173,2.56787,0.000558721,-0.000797459,0.00341109,0.00335847,-0.00359721,0.687283,0.00401665,0.0347716,1819,799,19.6173,-2.56786
602,225,19.5576,2.54077,-0.0102268,-0.00123768,-0.000284009,-0.00122872,-0.0102358,-1.53924,0.00645341,0.0334405,1826,799,19.5576,-2.54078
609,225,19.5935,2.48779,-0.0169862,-0.00163066,-0.00306359,-0.00104201,-0.0175748,-1.38096,0.0113851,0.033061,1833,799,19.5935,-2.4878
616,225,19.6884,2.41681,-0.0203578,-0.00204246,-0.00487041,-0.00082786,-0.0215724,-1.3264,0.0141137,0.0382951,1840,799,19.6884,-2.41678
623,225,19.6666,2.42743,-0.0211044,-0.00224853,-0.00578406,-0.000615667,-0.0227373,-1.29565,0.0149572,0.0385395,1847,799,19.6666,-2.42744
630,225,19.7762,2.39246,-0.0204436,-0.00246942,-0.00602855,-0.000634718,-0.0222783,-1.27537,0.0146452,0.0420029,1854,799,19.7762,-2.39243
637,225,19.927,2.35211,-0.019071,-0.00251536,-0.00585751,-0.000652533,-0.0209338,-1.26289,0.0137435,0.0452829,1861,799,19.927,-2.35212
644,225,19.6621,2.19623,-0.0172269,-0.00236504,-0.00558002,-0.000503208,-0.0190887,-1.24875,0.0125614,0.0434532,1868,799,19.6621,-2.19622
651,225,15.215,1.14063,-0.0148491,-0.00235031,-0.0050768,-0.000548066,-0.0166514,-1.22968,0.0109228,0.0413877,1875,799,15.215,-1.14065
658,225,15.0627,1.44067,-0.0123111,-0.00224462,-0.00459985,-0.000459358,-0.0140964,-1.20058,0.00924829,0.034862,1882,799,15.0628,-1.44068
665,225,14.8258,1.4375,-0.00974496,-0.00219547,-0.00371949,-0.000670847,-0.0112696,-1.18178,0.00729973,0.0132256,1889,799,14.8258,-1.4375
672,225,14.7678,1.68811,-0.00721595,-0.00195461,-0.00283152,-0.000720315,-0.00845024,-1.15972,0.0054094,0.0171383,1896,799,14.7678,-1.68809
679,225,14.7843,1.92114,-0.00481417,-0.00174528,-0.00185333,-0.000873615,-0.00568584,-1.13117,0.00353551,0.0177027,1903,799,14.7844,-1.92112
686,225,14.7992,2.1261,-0.00325191,-0.00132754,-0.00150382,-0.000504433,-0.00407502,-1.06999,0.00256512,0.0108954,1910,799,14.7992,-2.12611
693,225,14.7927,2.30719,-0.00112542,-0.000981951,-0.00107674,2.54357e-05,-0.00213281,-0.818661,0.00143043,0.0102895,1917,799,14.7928,-2.30718
700,225,14.8059,2.49634,0.0022513,-0.000518287,-0.000451555,0.00232306,-0.00059005,-0.157605,0.00177833,0.0108953,1924,799,14.8059,-2.49634
707,225,14.7976,2.70618,0.00559383,-0.000337457,0.000136416,0.00559697,-0.000340593,0.0229832,0.00384987,0.0107007,1931,799,14.7976,-2.7062
714,225,14.7963,2.89166,0.00915354,-0.000438373,0.000930343,0.00924294,-0.000527777,0.0958026,0.00634521,0.0119323,1938,799,14.7963,-2.89166
721,225,14.8116,3.08081,0.0136392,-0.000397204,0.00240304,0.0140392,-0.000797209,0.164945,0.00963617,0.0128628,1945,799,14.8116,-3.08083
728,225,14.8386,3.22223,0.0190759,-0.000501749,0.00415481,0.0199212,-0.001347,0.200699,0.0137518,0.0226549,1952,799,14.8387,-3.22225
735,225,14.9375,3.34949,0.0259107,-0.000618232,0.00673574,0.0275229,-0.00223047,0.234935,0.0191355,0.044451,1959,799,14.9374,-3.34948
742,225,15.0192,3.46362,0,0,0,0,0,0,0,-1,1966,799,15.0191,-3.46361
749,225,16.458,4.21265,0,0,0,0,0,0,0,-1,1973,799,16.458,-4.21262
756,225,16.771,4.83405,0,0,0,0,0,0,0,-1,1980,799,16.771,-4.83403
763,225,17.4838,4.5769,0,0,0,0,0,0,0,-1,1987,799,17.4838,-4.57693
770,225,0,0,0,0,0,0,0,0,0,-1,1994,799,0,0
777,225,0,0,0,0,0,0,0,0,0,-1,2001,799,0,0
784,225,0,0,0,0,0,0,0,0,0,-1,2008,799,0,0
791,225,0,0,0,0,0,0,0,0,0,-1,2015,799,0,0
798,225,0,0,0,0,0,0,0,0,0,-1,2022,799,0,0
805,225,0,0,0,0,0,0,0,0,0,-1,2029,799,0,0
812,225,0,0,0,0,0,0,0,0,0,-1,2036,799,0,0
-700,218,0,0,0,0,0,0,0,0,0,-1,524,806,0,0
-693,218,0,0,0,0,0,0,0,0,0,-1,531,806,0,0
-686,218,0,0,0,0,0,0,0,0,0,-1,538,806,0,0
-679,218,0,0,0,0,0,0,0,0,0,-1,545,806,0,0
-672,218,0,0,0,0,0,0,0,0,0,-1,552,806,0,0
-665,218,0,0,0,0,0,0,0,0,0,-1,559,806,0,0
-658,218,0,0,0,0,0,0,0,0,0,-1,566,806,0,0
-651,218,-15.4272,-1.57092,0,0,0,0,0,0,0,-1,573,806,-15.4272,1.57092
-644,218,-14.5303,-1.38586,0.129916,0.14129,0.0508803,0.1868,0.0844054,0.841054,0.108015,0.0474792,580,806,-14.5303,1.38588
-637,218,-13.5248,-1.35638,0.112494,0.117583,0.0422192,0.157334,0.0727424,0.815496,0.0909227,0.0440288,587,806,-13.5248,1.3564
-630,218,-12.2358,-0.749329,0.0942675,0.0955261,0.0339375,0.12884,0.0609534,0.794669,0.0744218,0.0457333,594,806,-12.2358,0.749345
-623,218,-10.8939,-0.523193,0.0766099,0.0756746,0.02645,0.102596,0.0496881,0.776559,0.0592438,0.0476118,601,806,-10.8939,0.523176
-616,218,-9.43164,1.27875,0,0,0,0,0,0,0,-1,608,806,-9.43166,-1.27872
-609,218,-9.36267,1.13,0.0458444,0.04353,0.0144423,0.0591758,0.0301986,0.74542,0.0341676,0.0470793,615,806,-9.36264,-1.13
-602,218,-9.24438,0.970154,0.0335231,0.0314081,0.0100444,0.0425655,0.0223657,0.73295,0.0245858,0.0397314,622,806,-9.24441,-0.97017
-595,218,-9.17847,0.940674,0.0238633,0.0220998,0.0068065,0.029845,0.0161182,0.720984,0.0172494,0.0171515,629,806,-9.17848,-0.940693
-588,218,-9.17401,0.785461,0.014967,0.0133152,0.00394753,0.0181741,0.0101081,0.682276,0.0105149,0.0101815,636,806,-9.17398,-0.785473
-581,218,-9.15424,0.627808,0.00777397,0.00668152,0.00196204,0.0092644,0.00519109,0.649637,0.00536177,0.00977212,643,806,-9.15427,-0.627805
-574,218,-9.14349,0.437622,0.00284477,0.00295641,0.0010725,0.00397454,0.00182664,0.811397,0.0022972,0.00954788,650,806,-9.14349,-0.437594
-567,218,-9.14417,0.22113,-4.60366e-05,0.00127782,0.000883917,0.00172018,-0.0004884,1.10678,0.0013396,0.0159824,657,806,-9.14417,-0.221107
-560,218,-9.15802,0.0411377,-0.00205853,0.00103874,0.000854071,0.00125864,-0.00227842,1.3188,0.00207022,0.0158728,664,806,-9.158,-0.0411654
-553,218,-9.17908,-0.143372,-0.00355902,0.00105127,0.000894384,0.0012187,-0.00372645,1.38574,0.00297494,0.0168356,671,806,-9.17906,0.143364
-546,218,-9.18494,-0.32843,-0.00449345,0.00127705,0.00107486,0.00147076,-0.00468716,1.39249,0.00371342,0.014709,678,806,-9.18492,0.328414
-539,218,-9.20978,-0.531555,-0.00512625,0.00180835,0.00128105,0.00203744,-0.00535534,1.39384,0.00440918,0.0188229,685,806,-9.20978,0.531543
-532,218,-9.20697,-0.637268,-0.00584634,0.00287626,0.00167707,0.0031876,-0.00615768,1.38724,0.00548557,0.0216785,692,806,-9.20697,0.637269
-525,218,-9.42847,-0.571167,-0.0064148,0.00489858,0.00218269,0.00530508,-0.0068213,1.38667,0.00701939,0.0484808,699,806,-9.4285,0.571172
-518,218,-12.5864,1.28741,0,0,0,0,0,0,0,-1,706,806,-12.5864,-1.28744
-511,218,-12.9382,0.945068,-0.00663047,0.00846201,0.00348146,0.00922639,-0.00739484,1.35467,0.00961567,0.0436218,713,806,-12.9381,-0.945044
-504,218,-12.4769,1.00726,-0.00644896,0.0106305,0.00451955,0.0117527,-0.00757118,1.32741,0.0112434,0.0435842,720,806,-12.4769,-1.00728
-497,218,-11.9881,1.24957,0,0,0,0,0,0,0,-1,727,806,-11.9881,-1.24958
-490,218,-12.8399,0.600891,-0.00560328,0.0150059,0.00748024,0.0174347,-0.00803205,1.25684,0.0150336,0.0377849,734,806,-12.8399,-0.600884
-483,218,-12.9689,0.512939,-0.00510966,0.0166013,0.00932531,0.0200567,-0.00856511,1.21594,0.016963,0.0330103,741,806,-12.9689,-0.512949
-476,218,-12.9586,0.567871,-0.00464695,0.0167885,0.0111132,0.0215101,-0.00936853,1.16904,0.0182814,0.0346574,748,806,-12.9585,-0.567899
-469,218,0,0,0,0,0,0,0,0,0,-1,755,806,0,0
-462,218,0,0,0,0,0,0,0,0,0,-1,762,806,0,0
-455,218,0,0,0,0,0,0,0,0,0,-1,769,806,0,0
-448,218,0,0,0,0,0,0,0,0,0,-1,776,806,0,0
-441,218,0,0,0,0,0,0,0,0,0,-1,783,806,0,0
-434,218,0,0,0,0,0,0,0,0,0,-1,790,806,0,0
-427,218,0,0,0,0,0,0,0,0,0,-1,797,806,0,0
-420,218,0,0,0,0,0,0,0,0,0,-1,804,806,0,0
-413,218,0,0,0,0,0,0,0,0,0,-1,811,806,0,0
-406,218,0,0,0,0,0,0,0,0,0,-1,818,806,0,0
-399,218,0,0,0,0,0,0,0,0,0,-1,825,806,0,0
-392,218,0,0,0,0,0,0,0,0,0,-1,832,806,0,0
-385,218,0,0,0,0,0,0,0,0,0,-1,839,806,0,0
-378,218,0,0,0,0,0,0,0,0,0,-1,846,806,0,0
-371,218,0,0,0,0,0,0,0,0,0,-1,853,806,0,0
-364,218,0,0,0,0,0,0,0,0,0,-1,860,806,0,0
-357,218,0,0,0,0,0,0,0,0,0,-1,867,806,0,0
-350,218,0,0,0,0,0,0,0,0,0,-1,874,806,0,0
-343,218,0,0,0,0,0,0,0,0,0,-1,881,806,0,0
-336,218,0,0,0,0,0,0,0,0,0,-1,888,806,0,0
-329,218,0,0,0,0,0,0,0,0,0,-1,895,806,0,0
-322,218,0,0,0,0,0,0,0,0,0,-1,902,806,0,0
-315,218,0,0,0,0,0,0,0,0,0,-1,909,806,0,0
-308,218,0,0,0,0,0,0,0,0,0,-1,916,806,0,0
-301,218,0,0,0,0,0,0,0,0,0,-1,923,806,0,0
-294,218,0,0,0,0,0,0,0,0,0,-1,930,806,0,0
-287,218,0,0,0,0,0,0,0,0,0,-1,937,806,0,0
-280,218,0,0,0,0,0,0,0,0,0,-1,944,806,0,0
-273,218,0,0,0,0,0,0,0,0,0,-1,951,806,0,0
-266,218,0,0,0,0,0,0,0,0,0,-1,958,806,0,0
-259,218,0,0,0,0,0,0,0,0,0,-1,965,806,0,0
-252,218,0,0,0,0,0,0,0,0,0,-1,972,806,0,0
-245,218,0,0,0,0,0,0,0,0,0,-1,979,806,0,0
-238,218,0,0,0,0,0,0,0,0,0,-1,986,806,0,0
-231,218,0,0,0,0,0,0,0,0,0,-1,993,806,0,0
-224,218,0,0,0,0,0,0,0,0,0,-1,1000,806,0,0
-217,218,0,0,0,0,0,0,0,0,0,-1,1007,806,0,0
-210,218,0,0,0,0,0,0,0,0,0,-1,1014,806,0,0
-203,218,0,0,0,0,0,0,0,0,0,-1,1021,806,0,0
-196,218,0,0,0,0,0,0,0,0,0,-1,1028,806,0,0
-189,218,0,0,0,0,0,0,0,0,0,-1,1035,806,0,0
-182,218,0,0,0,0,0,0,0,0,0,-1,1042,806,0,0
-175,218,0,0,0,0,0,0,0,0,0,-1,1049,806,0,0
-168,218,0,0,0,0,0,0,0,0,0,-1,1056,806,0,0
-161,218,0,0,0,0,0,0,0,0,0,-1,1063,806,0,0
-154,218,0,0,0,0,0,0,0,0,0,-1,1070,806,0,0
-147,218,0,0,0,0,0,0,0,0,0,-1,1077,806,0,0
-140,218,0,0,0,0,0,0,0,0,0,-1,1084,806,0,0
-133,218,0,0,0,0,0,0,0,0,0,-1,1091,806,0,0
-126,218,0,0,0,0,0,0,0,0,0,-1,1098,806,0,0
-119,218,0,0,0,0,0,0,0,0,0,-1,1105,806,0,0
-112,218,0,0,0,0,0,0,0,0,0,-1,1112,806,0,0
-105,218,0,0,0,0,0,0,0,0,0,-1,1119,806,0,0
-98,218,0,0,0,0,0,0,0,0,0,-1,1126,806,0,0
-91,218,0,0,0,0,0,0,0,0,0,-1,1133,806,0,0
-84,218,0,0,0,0,0,0,0,0,0,-1,1140,806,0,0
-77,218,0,0,0,0,0,0,0,0,0,-1,1147,806,0,0
-70,218,0,0,0,0,0,0,0,0,0,-1,1154,806,0,0
-63,218,0,0,0,0,0,0,0,0,0,-1,1161,806,0,0
-56,218,0,0,0,0,0,0,0,0,0,-1,1168,806,0,0
-49,218,0,0,0,0,0,0,0,0,0,-1,1175,806,0,0
-42,218,0,0,0,0,0,0,0,0,0,-1,1182,806,0,0
-35,218,0,0,0,0,0,0,0,0,0,-1,1189,806,0,0
-28,218,0,0,0,0,0,0,0,0,0,-1,1196,806,0,0
-21,218,0,0,0,0,0,0,0,0,0,-1,1203,806,0,0
-14,218,0,0,0,0,0,0,0,0,0,-1,1210,806,0,0
-7,218,0,0,0,0,0,0,0,0,0,-1,1217,806,0,0
0,218,0,0,0,0,0,0,0,0,0,-1,1224,806,0,0
7,218,0,0,0,0,0,0,0,0,0,-1,1231,806,0,0
14,218,0,0,0,0,0,0,0,0,0,-1,1238,806,0,0
21,218,0,0,0,0,0,0,0,0,0,-1,1245,806,0,0
28,218,0,0,0,0,0,0,0,0,0,-1,1252,806,0,0
35,218,0,0,0,0,0,0,0,0,0,-1,1259,806,0,0
42,218,0,0,0,0,0,0,0,0,0,-1,1266,806,0,0
49,218,0,0,0,0,0,0,0,0,0,-1,1273,806,0,0
56,218,0,0,0,0,0,0,0,0,0,-1,1280,806,0,0
63,218,0,0,0,0,0,0,0,0,0,-1,1287,806,0,0
70,218,0,0,0,0,0,0,0,0,0,-1,1294,806,0,0
77,218,0,0,0,0,0,0,0,0,0,-1,1301,806,0,0
84,218,0,0,0,0,0,0,0,0,0,-1,1308,806,0,0
91,218,0,0,0,0,0,0,0,0,0,-1,1315,806,0,0
98,218,0,0,0,0,0,0,0,0,0,-1,1322,806,0,0
105,218,0,0,0,0,0,0,0,0,0,-1,1329,806,0,0
112,218,0,0,0,0,0,0,0,0,0,-1,1336,806,0,0
119,218,0,0,0,0,0,0,0,0,0,-1,1343,806,0,0
126,218,0,0,0,0,0,0,0,0,0,-1,1350,806,0,0
133,218,0,0,0,0,0,0,0,0,0,-1,1357,806,0,0
140,218,0,0,0,0,0,0,0,0,0,-1,1364,806,0,0
147,218,0,0,0,0,0,0,0,0,0,-1,1371,806,0,0
154,218,0,0,0,0,0,0,0,0,0,-1,1378,806,0,0
161,218,0,0,0,0,0,0,0,0,0,-1,1385,806,0,0
168,218,0,0,0,0,0,0,0,0,0,-1,1392,806,0,0
175,218,0,0,0,0,0,0,0,0,0,-1,1399,806,0,0
182,218,0,0,0,0,0,0,0,0,0,-1,1406,806,0,0
189,218,0,0,0,0,0,0,0,0,0,-1,1413,806,0,0
196,218,0,0,0,0,0,0,0,0,0,-1,1420,806,0,0
203,218,0,0,0,0,0,0,0,0,0,-1,1427,806,0,0
210,218,0,0,0,0,0,0,0,0,0,-1,1434,806,0,0
217,218,0,0,0,0,0,0,0,0,0,-1,1441,806,0,0
224,218,0,0,0,0,0,0,0,0,0,-1,1448,806,0,0
231,218,0,0,0,0,0,0,0,0,0,-1,1455,806,0,0
238,218,0,0,0,0,0,0,0,0,0,-1,1462,806,0,0
245,218,0,0,0,0,0,0,0,0,0,-1,1469,806,0,0
252,218,0,0,0,0,0,0,0,0,0,-1,1476,806,0,0
259,218,0,0,0,0,0,0,0,0,0,-1,1483,806,0,0
266,218,0,0,0,0,0,0,0,0,0,-1,1490,806,0,0
273,218,0,0,0,0,0,0,0,0,0,-1,1497,806,0,0
280,218,0,0,0,0,0,0,0,0,0,-1,1504,806,0,0
287,218,0,0,0,0,0,0,0,0,0,-1,1511,806,0,0
294,218,0,0,0,0,0,0,0,0,0,-1,1518,806,0,0
301,218,0,0,0,0,0,0,0,0,0,-1,1525,806,0,0
308,218,0,0,0,0,0,0,0,0,0,-1,1532,806,0,0
315,218,0,0,0,0,0,0,0,0,0,-1,1539,806,0,0
322,218,0,0,0,0,0,0,0,0,0,-1,1546,806,0,0
329,218,0,0,0,0,0,0,0,0,0,-1,1553,806,0,0
336,218,0,0,0,0,0,0,0,0,0,-1,1560,806,0,0
343,218,0,0,0,0,0,0,0,0,0,-1,1567,806,0,0
350,218,0,0,0,0,0,0,0,0,0,-1,1574,806,0,0
357,218,0,0,0,0,0,0,0,0,0,-1,1581,806,0,0
364,218,0,0,0,0,0,0,0,0,0,-1,1588,806,0,0
371,218,0,0,0,0,0,0,0,0,0,-1,1595,806,0,0
378,218,0,0,0,0,0,0,0,0,0,-1,1602,806,0,0
385,218,0,0,0,0,0,0,0,0,0,-1,1609,806,0,0
392,218,0,0,0,0,0,0,0,0,0,-1,1616,806,0,0
399,218,0,0,0,0,0,0,0,0,0,-1,1623,806,0,0
406,218,0,0,0,0,0,0,0,0,0,-1,1630,806,0,0
413,218,0,0,0,0,0,0,0,0,0,-1,1637,806,0,0
420,218,0,0,0,0,0,0,0,0,0,-1,1644,806,0,0
427,218,0,0,0,0,0,0,0,0,0,-1,1651,806,0,0
434,218,0,0,0,0,0,0,0,0,0,-1,1658,806,0,0
441,218,0,0,0,0,0,0,0,0,0,-1,1665,806,0,0
448,218,0,0,0,0,0,0,0,0,0,-1,1672,806,0,0
455,218,0,0,0,0,0,0,0,0,0,-1,1679,806,0,0
462,218,0,0,0,0,0,0,0,0,0,-1,1686,806,0,0
469,218,0,0,0,0,0,0,0,0,0,-1,1693,806,0,0
476,218,0,0,0,0,0,0,0,0,0,-1,1700,806,0,0
483,218,0,0,0,0,0,0,0,0,0,-1,1707,806,0,0
490,218,0,0,0,0,0,0,0,0,0,-1,1714,806,0,0
497,218,0,0,0,0,0,0,0,0,0,-1,1721,806,0,0
504,218,0,0,0,0,0,0,0,0,0,-1,1728,806,0,0
511,218,0,0,0,0,0,0,0,0,0,-1,1735,806,0,0
518,218,0,0,0,0,0,0,0,0,0,-1,1742,806,0,0
525,218,0,0,0,0,0,0,0,0,0,-1,1749,806,0,0
532,218,0,0,0,0,0,0,0,0,0,-1,1756,806,0,0
539,218,0,0,0,0,0,0,0,0,0,-1,1763,806,0,0
546,218,0,0,0,0,0,0,0,0,0,-1,1770,806,0,0
553,218,0,0,0,0,0,0,0,0,0,-1,1777,806,0,0
560,218,0,0,0,0,0,0,0,0,0,-1,1784,806,0,0
567,218,0,0,0,0,0,0,0,0,0,-1,1791,806,0,0
574,218,0,0,0,0,0,0,0,0,0,-1,1798,806,0,0
581,218,0,0,0,0,0,0,0,0,0,-1,1805,806,0,0
588,218,0,0,0,0,0,0,0,0,0,-1,1812,806,0,0
595,218,19.582,2.66681,0.0046869,-0.00209407,0.00494503,0.00729214,-0.00469931,0.484888,0.006977,0.0382295,1819,806,19.582,-2.66679
602,218,19.5192,2.58997,-0.00461147,-0.00159342,0.00134818,-0.0010789,-0.00512599,1.20621,0.0031205,0.0334871,1826,806,19.5192,-2.58997
609,218,19.5791,2.50348,-0.0109733,-0.00152502,-0.00144828,-0.001308,-0.0111903,-1.42206,0.00706469,0.0303866,1833,806,19.5792,-2.50349
616,218,19.5905,2.4812,-0.0145021,-0.00169324,-0.00341044,-0.00084179,-0.0153535,-1.32614,0.00996693,0.0329641,1840,806,19.5905,-2.48117
623,218,19.5964,2.44055,-0.0157423,-0.00189251,-0.00450609,-0.000555506,-0.0170793,-1.28236,0.0112056,0.0372134,1847,806,19.5964,-2.44054
630,218,19.6978,2.43927,-0.0156107,-0.00216051,-0.00493575,-0.000543629,-0.0172276,-1.25423,0.0113082,0.0392094,1854,806,19.6978,-2.43926
637,218,19.8192,2.39294,-0.0147864,-0.00230816,-0.00493533,-0.000592145,-0.0165024,-1.23617,0.0108096,0.0409854,1861,806,19.8192,-2.39295
644,218,19.8977,2.27435,-0.0135627,-0.00231458,-0.00476169,-0.000569544,-0.0153078,-1.21952,0.0100207,0.0461483,1868,806,19.8978,-2.27434
651,218,19.9907,2.18005,0,0,0,0,0,0,0,-1,1875,806,19.9907,-2.18006
658,218,15.48,1.41913,-0.0100267,-0.00232675,-0.00401971,-0.00061072,-0.0117427,-1.16732,0.00763307,0.0418866,1882,806,15.4799,-1.41913
665,218,15.0908,1.45789,-0.00809125,-0.00227127,-0.00339003,-0.000713564,-0.00964895,-1.14007,0.00620846,0.0286972,1889,806,15.0908,-1.45786
672,218,15.0181,1.66193,-0.0061286,-0.00209638,-0.00272114,-0.000725848,-0.00749912,-1.10423,0.00477589,0.0118411,1896,806,15.0181,-1.66191
679,218,15.0138,1.89551,-0.00427195,-0.00193622,-0.00191328,-0.00086254,-0.00534563,-1.05941,0.00331387,0.0108347,1903,806,15.0138,-1.89552
686,218,15.0201,2.09399,-0.0031009,-0.00153302,-0.00159003,-0.000544182,-0.00408974,-1.01443,0.00256442,0.0101092,1910,806,15.0201,-2.094
693,218,15.0182,2.29938,-0.00131534,-0.00113632,-0.00118237,-4.00794e-05,-0.00241158,-0.82318,0.00159453,0.011213,1917,806,15.0182,-2.29937
700,218,15.006,2.49725,0.00180527,-0.00059999,-0.000571326,0.00193408,-0.0007288,-0.22175,0.00158904,0.00975174,1924,806,15.006,-2.49727
707,218,14.994,2.70624,0.00490251,-0.000330451,2.6254e-05,0.00490264,-0.000330583,0.00501688,0.00338401,0.00750804,1931,806,14.994,-2.70626
714,218,15.0005,2.90387,0.00818905,-0.000335834,0.00082036,0.00826727,-0.00041406,0.0950688,0.00565459,0.00949318,1938,806,15.0005,-2.90384
721,218,15.0133,3.07385,0.0123862,-0.000204252,0.00225093,0.0127766,-0.000594573,0.171697,0.00872265,0.0116887,1945,806,15.0133,-3.07387
728,218,15.0538,3.22534,0.0172176,-0.000182334,0.00383009,0.0180233,-0.000988104,0.207355,0.0123581,0.0175771,1952,806,15.0538,-3.22532
735,218,15.1179,3.36157,0.0230422,-6.93477e-05,0.00607108,0.0245399,-0.00156708,0.241869,0.0169065,0.0361194,1959,806,15.1179,-3.36155
742,218,15.4646,3.55719,0.030093,8.74684e-05,0.00929302,0.032738,-0.00255752,0.277288,0.0227259,0.0496662,1966,806,15.4646,-3.55716
749,218,16.214,3.93341,0.0381327,0.000461717,0.0136477,0.0425573,-0.00396294,0.313514,0.0297806,0.0496579,1973,806,16.214,-3.93339
756,218,16.7778,3.95825,0,0,0,0,0,0,0,-1,1980,806,16.7778,-3.95826
763,218,17.3311,3.81512,0,0,0,0,0,0,0,-1,1987,806,17.3311,-3.81515
770,218,0,0,0,0,0,0,0,0,0,-1,1994,806,0,0
777,218,0,0,0,0,0,0,0,0,0,-1,2001,806,0,0
784,218,0,0,0,0,0,0,0,0,0,-1,2008,806,0,0
791,218,0,0,0,0,0,0,0,0,0,-1,2015,806,0,0
798,218,0,0,0,0,0,0,0,0,0,-1,2022,806,0,0
805,218,0,0,0,0,0,0,0,0,0,-1,2029,806,0,0
812,218,0,0,0,0,0,0,0,0,0,-1,2036,806,0,0
-700,211,0,0,0,0,0,0,0,0,0,-1,524,813,0,0
-693,211,0,0,0,0,0,0,0,0,0,-1,531,813,0,0
-686,211,0,0,0,0,0,0,0,0,0,-1,538,813,0,0
-679,211,0,0,0,0,0,0,0,0,0,-1,545,813,0,0
-672,211,0,0,0,0,0,0,0,0,0,-1,552,813,0,0
-665,211,0,0,0,0,0,0,0,0,0,-1,559,813,0,0
-658,211,0,0,0,0,0,0,0,0,0,-1,566,813,0,0
-651,211,-7.44739,3.47894,0,0,0,0,0,0,0,-1,573,813,-7.44741,-3.47896
-644,211,-15.0504,-2.76666,0.105427,0.120576,0.0446176,0.158258,0.0677455,0.869482,0.0916846,0.0459968,580,813,-15.0503,2.76665
-637,211,-14.1983,-2.59692,0.0922424,0.101571,0.0367028,0.133904,0.0599086,0.848598,0.0774522,0.0439801,587,813,-14.1983,2.59691
-630,211,-12.8188,-1.84082,0,0,0,0,0,0,0,-1,594,813,-12.8188,1.8408
-623,211,-11.4997,-1.61621,0,0,0,0,0,0,0,-1,601,813,-11.4997,1.61623
-616,211,-9.44818,1.38562,0,0,0,0,0,0,0,-1,608,813,-9.44816,-1.38563
-609,211,-9.3924,1.20807,0.0381051,0.0380056,0.0123387,0.0503942,0.0257165,0.783383,0.0290972,0.0389878,615,813,-9.39239,-1.20808
-602,211,-9.32904,1.04688,0.0278613,0.0273301,0.00856512,0.036165,0.0190265,0.769898,0.0208893,0.0195605,622,813,-9.32907,-1.04688
-595,211,-9.33875,0.937988,0.0197056,0.0191127,0.00588538,0.025302,0.0135163,0.760236,0.0146195,0.0100539,629,813,-9.33873,-0.937958
-588,211,-9.33929,0.793152,0.0119156,0.0113208,0.00347203,0.0151029,0.00813346,0.742677,0.00872832,0.00983803,636,813,-9.33932,-0.793127
-581,211,-9.33429,0.626892,0.00568191,0.00541087,0.00192831,0.00747945,0.00361332,0.750315,0.00431909,0.0106015,643,813,-9.33428,-0.626897
-574,211,-9.3432,0.440613,0.00127554,0.00222136,0.00131154,0.00314265,0.000354254,0.95843,0.00198756,0.0123347,650,813,-9.34317,-0.440611
-567,211,-9.35724,0.246704,-0.00152903,0.000846702,0.0012359,0.00137304,-0.00205536,1.16819,0.00199241,0.0189713,657,813,-9.35724,-0.246691
-560,211,-9.35419,0.0686035,-0.00356758,0.000727867,0.00124013,0.00106019,-0.00389991,1.30897,0.0030161,0.0215707,664,813,-9.35417,-0.0686134
-553,211,-9.35291,-0.112915,-0.00513738,0.000895262,0.0013012,0.00116395,-0.00540607,1.36716,0.0040482,0.0183165,671,813,-9.35288,0.112916
-546,211,-9.39722,-0.238892,-0.00615598,0.00122429,0.00137038,0.00147053,-0.00640222,1.39301,0.00483347,0.0216258,678,813,-9.39721,0.238881
-539,211,-9.37714,-0.436035,-0.00691487,0.00177101,0.0013899,0.001988,-0.00713186,1.41593,0.0055375,0.016007,685,813,-9.37712,0.436054
-532,211,-9.50317,-0.514954,-0.00761915,0.0027455,0.00156739,0.00297735,-0.007851,1.42395,0.00645937,0.0475772,692,813,-9.50319,0.514965
-525,211,-12.4452,1.37555,0,0,0,0,0,0,0,-1,699,813,-12.4452,-1.37555
-518,211,-12.5737,1.04926,-0.00813971,0.00612334,0.00183895,0.00635662,-0.00837299,1.44461,0.00853066,0.047238,706,813,-12.5737,-1.04924
-511,211,-12.8395,0.87854,-0.0079279,0.00795099,0.00209074,0.00822166,-0.00819857,1.44205,0.00948023,0.04477,713,813,-12.8395,-0.878546
-504,211,-12.9559,0.559326,-0.00739215,0.00990196,0.00252334,0.0102626,-0.00775281,1.42883,0.0104348,0.0457218,720,813,-12.9559,-0.559342
-497,211,-12.7698,0.668091,-0.00648442,0.0118613,0.00317186,0.0123942,-0.00701733,1.40434,0.0113497,0.0483278,727,813,-12.7698,-0.668073
-490,211,-12.924,0.559875,-0.00525204,0.0136067,0.00404949,0.0144395,-0.0060848,1.36798,0.0121725,0.0378155,734,813,-12.924,-0.559857
-483,211,-12.994,0.537842,-0.00370672,0.0145348,0.00521085,0.0159184,-0.0050903,1.31127,0.012655,0.0334731,741,813,-12.994,-0.537867
-476,211,-12.9796,0.696045,-0.00154189,0.0134419,0.0064247,0.0158195,-0.0039194,1.21637,0.0120668,0.0368384,748,813,-12.9796,-0.696039
-469,211,0,0,0,0,0,0,0,0,0,-1,755,813,0,0
-462,211,0,0,0,0,0,0,0,0,0,-1,762,813,0,0
-455,211,0,0,0,0,0,0,0,0,0,-1,769,813,0,0
-448,211,0,0,0,0,0,0,0,0,0,-1,776,813,0,0
-441,211,0,0,0,0,0,0,0,0,0,-1,783,813,0,0
-434,211,0,0,0,0,0,0,0,0,0,-1,790,813,0,0
-427,211,0,0,0,0,0,0,0,0,0,-1,797,813,0,0
-420,211,0,0,0,0,0,0,0,0,0,-1,804,813,0,0
-413,211,0,0,0,0,0,0,0,0,0,-1,811,813,0,0
-406,211,0,0,0,0,0,0,0,0,0,-1,818,813,0,0
-399,211,0,0,0,0,0,0,0,0,0,-1,825,813,0,0
-392,211,0,0,0,0,0,0,0,0,0,-1,832,813,0,0
-385,211,0,0,0,0,0,0,0,0,0,-1,839,813,0,0
-378,211,0,0,0,0,0,0,0,0,0,-1,846,813,0,0
-371,211,0,0,0,0,0,0,0,0,0,-1,853,813,0,0
-364,211,0,0,0,0,0,0,0,0,0,-1,860,813,0,0
-357,211,0,0,0,0,0,0,0,0,0,-1,867,813,0,0
-350,211,0,0,0,0,0,0,0,0,0,-1,874,813,0,0
-343,211,0,0,0,0,0,0,0,0,0,-1,881,813,0,0
-336,211,0,0,0,0,0,0,0,0,0,-1,888,813,0,0
-329,211,0,0,0,0,0,0,0,0,0,-1,895,813,0,0
-322,211,0,0,0,0,0,0,0,0,0,-1,902,813,0,0
-315,211,0,0,0,0,0,0,0,0,0,-1,909,813,0,0
-308,211,0,0,0,0,0,0,0,0,0,-1,916,813,0,0
-301,211,0,0,0,0,0,0,0,0,0,-1,923,813,0,0
-294,211,0,0,0,0,0,0,0,0,0,-1,930,813,0,0
-287,211,0,0,0,0,0,0,0,0,0,-1,937,813,0,0
-280,211,0,0,0,0,0,0,0,0,0,-1,944,813,0,0
-273,211,0,0,0,0,0,0,0,0,0,-1,951,813,0,0
-266,211,0,0,0,0,0,0,0,0,0,-1,958,813,0,0
-259,211,0,0,0,0,0,0,0,0,0,-1,965,813,0,0
-252,211,0,0,0,0,0,0,0,0,0,-1,972,813,0,0
-245,211,0,0,0,0,0,0,0,0,0,-1,979,813,0,0
-238,211,0,0,0,0,0,0,0,0,0,-1,986,813,0,0
-231,211,0,0,0,0,0,0,0,0,0,-1,993,813,0,0
-224,211,0,0,0,0,0,0,0,0,0,-1,1000,813,0,0
-217,211,0,0,0,0,0,0,0,0,0,-1,1007,813,0,0
-210,211,0,0,0,0,0,0,0,0,0,-1,1014,813,0,0
-203,211,0,0,0,0,0,0,0,0,0,-1,1021,813,0,0
-196,211,0,0,0,0,0,0,0,0,0,-1,1028,813,0,0
-189,211,0,0,0,0,0,0,0,0,0,-1,1035,813,0,0
-182,211,0,0,0,0,0,0,0,0,0,-1,1042,813,0,0
-175,211,0,0,0,0,0,0,0,0,0,-1,1049,813,0,0
-168,211,0,0,0,0,0,0,0,0,0,-1,1056,813,0,0
-161,211,0,0,0,0,0,0,0,0,0,-1,1063,813,0,0
-154,211,0,0,0,0,0,0,0,0,0,-1,1070,813,0,0
-147,211,0,0,0,0,0,0,0,0,0,-1,1077,813,0,0
-140,211,0,0,0,0,0,0,0,0,0,-1,1084,813,0,0
-133,211,0,0,0,0,0,0,0,0,0,-1,1091,813,0,0
-126,211,0,0,0,0,0,0,0,0,0,-1,1098,813,0,0
-119,211,0,0,0,0,0,0,0,0,0,-1,1105,813,0,0
-112,211,0,0,0,0,0,0,0,0,0,-1,1112,813,0,0
-105,211,0,0,0,0,0,0,0,0,0,-1,1119,813,0,0
-98,211,0,0,0,0,0,0,0,0,0,-1,1126,813,0,0
-91,211,0,0,0,0,0,0,0,0,0,-1,1133,813,0,0
-84,211,0,0,0,0,0,0,0,0,0,-1,1140,813,0,0
-77,211,0,0,0,0,0,0,0,0,0,-1,1147,813,0,0
-70,211,0,0,0,0,0,0,0,0,0,-1,1154,813,0,0
-63,211,0,0,0,0,0,0,0,0,0,-1,1161,813,0,0
-56,211,0,0,0,0,0,0,0,0,0,-1,1168,813,0,0
-49,211,0,0,0,0,0,0,0,0,0,-1,1175,813,0,0
-42,211,0,0,0,0,0,0,0,0,0,-1,1182,813,0,0
-35,211,0,0,0,0,0,0,0,0,0,-1,1189,813,0,0
-28,211,0,0,0,0,0,0,0,0,0,-1,1196,813,0,0
-21,211,0,0,0,0,0,0,0,0,0,-1,1203,813,0,0
-14,211,0,0,0,0,0,0,0,0,0,-1,1210,813,0,0
-7,211,0,0,0,0,0,0,0,0,0,-1,1217,813,0,0
0,211,0,0,0,0,0,0,0,0,0,-1,1224,813,0,0
7,211,0,0,0,0,0,0,0,0,0,-1,1231,813,0,0
14,211,0,0,0,0,0,0,0,0,0,-1,1238,813,0,0
21,211,0,0,0,0,0,0,0,0,0,-1,1245,813,0,0
28,211,0,0,0,0,0,0,0,0,0,-1,1252,813,0,0
35,211,0,0,0,0,0,0,0,0,0,-1,1259,813,0,0
42,211,0,0,0,0,0,0,0,0,0,-1,1266,813,0,0
49,211,0,0,0,0,0,0,0,0,0,-1,1273,813,0,0
56,211,0,0,0,0,0,0,0,0,0,-1,1280,813,0,0
63,211,0,0,0,0,0,0,0,0,0,-1,1287,813,0,0
70,211,0,0,0,0,0,0,0,0,0,-1,1294,813,0,0
77,211,0,0,0,0,0,0,0,0,0,-1,1301,813,0,0
84,211,0,0,0,0,0,0,0,0,0,-1,1308,813,0,0
91,211,0,0,0,0,0,0,0,0,0,-1,1315,813,0,0
98,211,0,0,0,0,0,0,0,0,0,-1,1322,813,0,0
105,211,0,0,0,0,0,0,0,0,0,-1,1329,813,0,0
112,211,0,0,0,0,0,0,0,0,0,-1,1336,813,0,0
119,211,0,0,0,0,0,0,0,0,0,-1,1343,813,0,0
126,211,0,0,0,0,0,0,0,0,0,-1,1350,813,0,0
133,211,0,0,0,0,0,0,0,0,0,-1,1357,813,0,0
140,211,0,0,0,0,0,0,0,0,0,-1,1364,813,0,0
147,211,0,0,0,0,0,0,0,0,0,-1,1371,813,0,0
154,211,0,0,0,0,0,0,0,0,0,-1,1378,813,0,0
161,211,0,0,0,0,0,0,0,0,0,-1,1385,813,0,0
168,211,0,0,0,0,0,0,0,0,0,-1,1392,813,0,0
175,211,0,0,0,0,0,0,0,0,0,-1,1399,813,0,0
182,211,0,0,0,0,0,0,0,0,0,-1,1406,813,0,0
189,211,0,0,0,0,0,0,0,0,0,-1,1413,813,0,0
196,211,0,0,0,0,0,0,0,0,0,-1,1420,813,0,0
203,211,0,0,0,0,0,0,0,0,0,-1,1427,813,0,0
210,211,0,0,0,0,0,0,0,0,0,-1,1434,813,0,0
217,211,0,0,0,0,0,0,0,0,0,-1,1441,813,0,0
224,211,0,0,0,0,0,0,0,0,0,-1,1448,813,0,0
231,211,0,0,0,0,0,0,0,0,0,-1,1455,813,0,0
238,211,0,0,0,0,0,0,0,0,0,-1,1462,813,0,0
245,211,0,0,0,0,0,0,0,0,0,-1,1469,813,0,0
252,211,0,0,0,0,0,0,0,0,0,-1,1476,813,0,0
259,211,0,0,0,0,0,0,0,0,0,-1,1483,813,0,0
266,211,0,0,0,0,0,0,0,0,0,-1,1490,813,0,0
273,211,0,0,0,0,0,0,0,0,0,-1,1497,813,0,0
280,211,0,0,0,0,0,0,0,0,0,-1,1504,813,0,0
287,211,0,0,0,0,0,0,0,0,0,-1,1511,813,0,0
294,211,0,0,0,0,0,0,0,0,0,-1,1518,813,0,0
301,211,0,0,0,0,0,0,0,0,0,-1,1525,813,0,0
308,211,0,0,0,0,0,0,0,0,0,-1,1532,813,0,0
315,211,0,0,0,0,0,0,0,0,0,-1,1539,813,0,0
322,211,0,0,0,0,0,0,0,0,0,-1,1546,813,0,0
329,211,0,0,0,0,0,0,0,0,0,-1,1553,813,0,0
336,211,0,0,0,0,0,0,0,0,0,-1,1560,813,0,0
343,211,0,0,0,0,0,0,0,0,0,-1,1567,813,0,0
350,211,0,0,0,0,0,0,0,0,0,-1,1574,813,0,0
357,211,0,0,0,0,0,0,0,0,0,-1,1581,813,0,0
364,211,0,0,0,0,0,0,0,0,0,-1,1588,813,0,0
371,211,0,0,0,0,0,0,0,0,0,-1,1595,813,0,0
378,211,0,0,0,0,0,0,0,0,0,-1,1602,813,0,0
385,211,0,0,0,0,0,0,0,0,0,-1,1609,813,0,0
392,211,0,0,0,0,0,0,0,0,0,-1,1616,813,0,0
399,211,0,0,0,0,0,0,0,0,0,-1,1623,813,0,0
406,211,0,0,0,0,0,0,0,0,0,-1,1630,813,0,0
413,211,0,0,0,0,0,0,0,0,0,-1,1637,813,0,0
420,211,0,0,0,0,0,0,0,0,0,-1,1644,813,0,0
427,211,0,0,0,0,0,0,0,0,0,-1,1651,813,0,0
434,211,0,0,0,0,0,0,0,0,0,-1,1658,813,0,0
441,211,0,0,0,0,0,0,0,0,0,-1,1665,813,0,0
448,211,0,0,0,0,0,0,0,0,0,-1,1672,813,0,0
455,211,0,0,0,0,0,0,0,0,0,-1,1679,813,0,0
462,211,0,0,0,0,0,0,0,0,0,-1,1686,813,0,0
469,211,0,0,0,0,0,0,0,0,0,-1,1693,813,0,0
476,211,0,0,0,0,0,0,0,0,0,-1,1700,813,0,0
483,211,0,0,0,0,0,0,0,0,0,-1,1707,813,0,0
490,211,0,0,0,0,0,0,0,0,0,-1,1714,813,0,0
497,211,0,0,0,0,0,0,0,0,0,-1,1721,813,0,0
504,211,0,0,0,0,0,0,0,0,0,-1,1728,813,0,0
511,211,0,0,0,0,0,0,0,0,0,-1,1735,813,0,0
518,211,0,0,0,0,0,0,0,0,0,-1,1742,813,0,0
525,211,0,0,0,0,0,0,0,0,0,-1,1749,813,0,0
532,211,0,0,0,0,0,0,0,0,0,-1,1756,813,0,0
539,211,0,0,0,0,0,0,0,0,0,-1,1763,813,0,0
546,211,0,0,0,0,0,0,0,0,0,-1,1770,813,0,0
553,211,0,0,0,0,0,0,0,0,0,-1,1777,813,0,0
560,211,0,0,0,0,0,0,0,0,0,-1,1784,813,0,0
567,211,0,0,0,0,0,0,0,0,0,-1,1791,813,0,0
574,211,0,0,0,0,0,0,0,0,0,-1,1798,813,0,0
581,211,0,0,0,0,0,0,0,0,0,-1,1805,813,0,0
588,211,0,0,0,0,0,0,0,0,0,-1,1812,813,0,0
595,211,19.5521,2.57288,0.00640855,-0.00338076,0.00462263,0.00824638,-0.00521859,0.378412,0.00783925,0.0406935,1819,813,19.5521,-2.57286
602,211,19.5166,2.59814,0.000325579,-0.00182634,0.00206056,0.00157419,-0.00307495,0.544786,0.0027304,0.0372654,1826,813,19.5166,-2.59817
609,211,19.5753,2.53748,-0.00459559,-0.00113329,-0.000115125,-0.00112947,-0.00459941,-1.53759,0.0027677,0.035419,1833,813,19.5754,-2.53746
616,211,19.5864,2.50903,-0.00780655,-0.00102081,-0.00183072,-0.000558409,-0.00826895,-1.32339,0.00533625,0.0310576,1840,813,19.5865,-2.50906
623,211,19.561,2.52472,-0.00957496,-0.00115705,-0.00295555,-0.00022299,-0.010509,-1.26469,0.00693288,0.03262,1847,813,19.561,-2.5247
630,211,19.5911,2.50214,-0.0101402,-0.00145703,-0.00353619,-0.000199143,-0.011398,-1.22904,0.00753319,0.0367889,1854,813,19.591,-2.50214
637,211,19.6652,2.43317,-0.010085,-0.00173127,-0.00373293,-0.000306262,-0.01151,-1.20613,0.00757333,0.0390341,1861,813,19.6652,-2.43317
644,211,19.8292,2.29944,-0.00965484,-0.0018981,-0.00373145,-0.000394512,-0.0111584,-1.18775,0.00731099,0.0429482,1868,813,19.8292,-2.29946
651,211,16.2212,1.39325,0,0,0,0,0,0,0,-1,1875,813,16.2212,-1.39322
658,211,15.8036,1.43427,-0.00777331,-0.00211739,-0.00330395,-0.000596389,-0.00929431,-1.13936,0.00600729,0.0483031,1882,813,15.8036,-1.43427
665,211,15.2899,1.5578,-0.00656622,-0.0020904,-0.00298681,-0.000596118,-0.00806051,-1.10691,0.0051864,0.0457662,1889,813,15.2899,-1.55781
672,211,15.1685,1.7099,-0.00518696,-0.00203184,-0.00253734,-0.000621621,-0.00659718,-1.06352,0.00420625,0.0172979,1896,813,15.1685,-1.7099
679,211,15.2054,1.88007,-0.00387109,-0.00196305,-0.00192242,-0.000770939,-0.0050632,-1.01572,0.00315009,0.0118907,1903,813,15.2054,-1.88005
686,211,15.2032,2.09979,-0.00309089,-0.00162522,-0.00164108,-0.000560777,-0.00415533,-0.995392,0.00260351,0.0103418,1910,813,15.2033,-2.09978
693,211,15.1959,2.29004,-0.00163619,-0.00123486,-0.00127515,-0.00014468,-0.00272637,-0.863443,0.00177132,0.0115489,1917,813,15.1959,-2.29006
700,211,15.1338,2.46851,0.00120004,-0.000690341,-0.000702529,0.00143253,-0.000922831,-0.319588,0.00137044,0.0135679,1924,813,15.1338,-2.46852
707,211,15.1433,2.69733,0.00404115,-0.000383863,-9.78622e-05,0.00404332,-0.000386026,-0.0221013,0.002833,0.0195706,1931,813,15.1433,-2.69736
714,211,15.1841,2.93213,0.00707638,-0.000316808,0.000698269,0.00714175,-0.00038218,0.0933478,0.00489354,0.0218282,1938,813,15.184,-2.93212
721,211,15.2181,3.08276,0.0109855,-0.000129845,0.00206941,0.0113583,-0.000502618,0.178223,0.00774517,0.0154433,1945,813,15.2182,-3.08274
728,211,15.2426,3.23163,0.0152487,-4.52168e-05,0.00347644,0.0160019,-0.000798354,0.213343,0.0109438,0.0141473,1952,813,15.2425,-3.23166
735,211,15.2676,3.37384,0.020151,0.000218983,0.00537858,0.0215097,-0.00113978,0.247448,0.0147344,0.0256366,1959,813,15.2676,-3.37384
742,211,15.3845,3.60907,0.0260499,0.000498503,0.00810136,0.028402,-0.00185361,0.282567,0.0195818,0.0465115,1966,813,15.3845,-3.60906
749,211,15.9451,3.664,0.0326455,0.00102119,0.0117137,0.0365116,-0.00284493,0.318794,0.0253427,0.0457476,1973,813,15.9451,-3.66398
756,211,16.3625,3.41681,0,0,0,0,0,0,0,-1,1980,813,16.3626,-3.41684
763,211,16.3926,3.55023,0,0,0,0,0,0,0,-1,1987,813,16.3926,-3.55026
770,211,17.2487,3.47461,0,0,0,0,0,0,0,-1,1994,813,17.2486,-3.47463
777,211,0,0,0,0,0,0,0,0,0,-1,2001,813,0,0
784,211,0,0,0,0,0,0,0,0,0,-1,2008,813,0,0
791,211,0,0,0,0,0,0,0,0,0,-1,2015,813,0,0
798,211,0,0,0,0,0,0,0,0,0,-1,2022,813,0,0
805,211,0,0,0,0,0,0,0,0,0,-1,2029,813,0,0
812,211,0,0,0,0,0,0,0,0,0,-1,2036,813,0,0
-700,204,0,0,0,0,0,0,0,0,0,-1,524,820,0,0
-693,204,0,0,0,0,0,0,0,0,0,-1,531,820,0,0
-686,204,0,0,0,0,0,0,0,0,0,-1,538,820,0,0
-679,204,0,0,0,0,0,0,0,0,0,-1,545,820,0,0
-672,204,0,0,0,0,0,0,0,0,0,-1,552,820,0,0
-665,204,0,0,0,0,0,0,0,0,0,-1,559,820,0,0
-658,204,0,0,0,0,0,0,0,0,0,-1,566,820,0,0
-651,204,-8.04407,3.43866,0,0,0,0,0,0,0,-1,573,820,-8.04406,-3.43866
-644,204,-8.03851,2.49066,0,0,0,0,0,0,0,-1,580,820,-8.03852,-2.49065
-637,204,-15.0721,-3.77014,0,0,0,0,0,0,0,-1,587,820,-15.0722,3.77016
-630,204,-9.78674,1.89014,0,0,0,0,0,0,0,-1,594,820,-9.78676,-1.89013
-623,204,-10.2767,1.55817,0,0,0,0,0,0,0,-1,601,820,-10.2767,-1.55818
-616,204,-9.89722,1.46747,0.0401025,0.0429526,0.0143801,0.055978,0.027077,0.834786,0.0323246,0.0456353,608,820,-9.89724,-1.46747
-609,204,-9.50812,1.24634,0.0304185,0.0321654,0.0102764,0.0416054,0.0209785,0.827796,0.0240212,0.0359267,615,820,-9.50811,-1.24637
-602,204,-9.49542,1.07593,0.022057,0.0230259,0.00713231,0.0296902,0.0153927,0.81931,0.0171455,0.0149869,622,820,-9.49542,-1.0759
-595,204,-9.49841,0.939087,0.0153289,0.0159421,0.00498627,0.0206312,0.0106398,0.816107,0.0119134,0.0134822,629,820,-9.49844,-0.939093
-588,204,-9.51099,0.777832,0.00870422,0.00924306,0.00301657,0.0120022,0.00594507,0.829936,0.00692958,0.011729,636,820,-9.51096,-0.777811
-581,204,-9.49988,0.613037,0.00353877,0.00414387,0.00189636,0.00576166,0.00192097,0.864502,0.00338749,0.0121185,643,820,-9.49989,-0.61301
-574,204,-9.51422,0.437805,-0.000189683,0.00152894,0.00151862,0.00241452,-0.00107526,1.04286,0.00206369,0.0131759,650,820,-9.51421,-0.437785
-567,204,-9.5105,0.263489,-0.00272999,0.000461655,0.00152809,0.00107529,-0.00334363,1.18894,0.00266095,0.0129954,657,820,-9.51052,-0.263491
-560,204,-9.52625,0.0644531,-0.00464199,0.000467224,0.00154467,0.000897917,-0.00507269,1.29888,0.00371742,0.0127097,664,820,-9.52627,-0.0644444
-553,204,-9.51691,-0.109985,-0.00613247,0.000751956,0.00158714,0.00110024,-0.00648075,1.35478,0.00473009,0.01048,671,820,-9.5169,0.10997
-546,204,-9.53534,-0.235718,-0.0071505,0.00115944,0.00156132,0.0014431,-0.00743416,1.39107,0.00550061,0.014834,678,820,-9.53536,0.235741
-539,204,-9.54346,-0.410278,-0.00790667,0.00166685,0.00144133,0.00187914,-0.00811896,1.42456,0.0061357,0.0260777,685,820,-9.54348,0.410305
-532,204,-9.78955,-0.440796,0,0,0,0,0,0,0,-1,692,820,-9.78955,0.440813
-525,204,-12.6687,1.38953,0,0,0,0,0,0,0,-1,699,820,-12.6687,-1.38953
-518,204,-12.7924,1.07007,-0.0089294,0.00523918,0.00124432,0.00534763,-0.00903785,1.48386,0.00839605,0.0451902,706,820,-12.7924,-1.07008
-511,204,-12.8704,0.705627,-0.0085544,0.00657848,0.00116282,0.00666731,-0.00864323,1.49455,0.00886405,0.045991,713,820,-12.8704,-0.705621
-504,204,-13.022,0.42926,-0.00773228,0.00779241,0.00121507,0.00788693,-0.00782681,1.49316,0.00907235,0.0456879,720,820,-13.022,-0.429246
-497,204,-13.1167,0.325134,-0.00633212,0.0086343,0.00145068,0.00877361,-0.00647144,1.47505,0.00883512,0.0396873,727,820,-13.1167,-0.325149
-490,204,-13.0143,0.561707,-0.00437472,0.00862575,0.00193532,0.00890774,-0.00465671,1.42611,0.0079586,0.0361466,734,820,-13.0143,-0.561684
-483,204,-12.9188,0.81842,-0.00169287,0.00672327,0.00284852,0.00759673,-0.00256633,1.27326,0.00610254,0.0402646,741,820,-12.9187,-0.818403
-476,204,0,0,0,0,0,0,0,0,0,-1,748,820,0,0
-469,204,0,0,0,0,0,0,0,0,0,-1,755,820,0,0
-462,204,0,0,0,0,0,0,0,0,0,-1,762,820,0,0
-455,204,0,0,0,0,0,0,0,0,0,-1,769,820,0,0
-448,204,0,0,0,0,0,0,0,0,0,-1,776,820,0,0
-441,204,0,0,0,0,0,0,0,0,0,-1,783,820,0,0
-434,204,0,0,0,0,0,0,0,0,0,-1,790,820,0,0
-427,204,0,0,0,0,0,0,0,0,0,-1,797,820,0,0
-420,204,0,0,0,0,0,0,0,0,0,-1,804,820,0,0
-413,204,0,0,0,0,0,0,0,0,0,-1,811,820,0,0
-406,204,0,0,0,0,0,0,0,0,0,-1,818,820,0,0
-399,204,0,0,0,0,0,0,0,0,0,-1,825,820,0,0
-392,204,0,0,0,0,0,0,0,0,0,-1,832,820,0,0
-385,204,0,0,0,0,0,0,0,0,0,-1,839,820,0,0
-378,204,0,0,0,0,0,0,0,0,0,-1,846,820,0,0
-371,204,0,0,0,0,0,0,0,0,0,-1,853,820,0,0
-364,204,0,0,0,0,0,0,0,0,0,-1,860,820,0,0
-357,204,0,0,0,0,0,0,0,0,0,-1,867,820,0,0
-350,204,0,0,0,0,0,0,0,0,0,-1,874,820,0,0
-343,204,0,0,0,0,0,0,0,0,0,-1,881,820,0,0
-336,204,0,0,0,0,0,0,0,0,0,-1,888,820,0,0
-329,204,0,0,0,0,0,0,0,0,0,-1,895,820,0,0
-322,204,0,0,0,0,0,0,0,0,0,-1,902,820,0,0
-315,204,0,0,0,0,0,0,0,0,0,-1,909,820,0,0
-308,204,0,0,0,0,0,0,0,0,0,-1,916,820,0,0
-301,204,0,0,0,0,0,0,0,0,0,-1,923,820,0,0
-294,204,0,0,0,0,0,0,0,0,0,-1,930,820,0,0
-287,204,0,0,0,0,0,0,0,0,0,-1,937,820,0,0
-280,204,0,0,0,0,0,0,0,0,0,-1,944,820,0,0
-273,204,0,0,0,0,0,0,0,0,0,-1,951,820,0,0
-266,204,0,0,0,0,0,0,0,0,0,-1,958,820,0,0
-259,204,0,0,0,0,0,0,0,0,0,-1,965,820,0,0
-252,204,0,0,0,0,0,0,0,0,0,-1,972,820,0,0
-245,204,0,0,0,0,0,0,0,0,0,-1,979,820,0,0
-238,204,0,0,0,0,0,0,0,0,0,-1,986,820,0,0
-231,204,0,0,0,0,0,0,0,0,0,-1,993,820,0,0
-224,204,0,0,0,0,0,0,0,0,0,-1,1000,820,0,0
-217,204,0,0,0,0,0,0,0,0,0,-1,1007,820,0,0
-210,204,0,0,0,0,0,0,0,0,0,-1,1014,820,0,0
-203,204,0,0,0,0,0,0,0,0,0,-1,1021,820,0,0
-196,204,0,0,0,0,0,0,0,0,0,-1,1028,820,0,0
-189,204,0,0,0,0,0,0,0,0,0,-1,1035,820,0,0
-182,204,0,0,0,0,0,0,0,0,0,-1,1042,820,0,0
-175,204,0,0,0,0,0,0,0,0,0,-1,1049,820,0,0
-168,204,0,0,0,0,0,0,0,0,0,-1,1056,820,0,0
-161,204,0,0,0,0,0,0,0,0,0,-1,1063,820,0,0
-154,204,0,0,0,0,0,0,0,0,0,-1,1070,820,0,0
-147,204,0,0,0,0,0,0,0,0,0,-1,1077,820,0,0
-140,204,0,0,0,0,0,0,0,0,0,-1,1084,820,0,0
-133,204,0,0,0,0,0,0,0,0,0,-1,1091,820,0,0
-126,204,0,0,0,0,0,0,0,0,0,-1,1098,820,0,0
-119,204,0,0,0,0,0,0,0,0,0,-1,1105,820,0,0
-112,204,0,0,0,0,0,0,0,0,0,-1,1112,820,0,0
-105,204,0,0,0,0,0,0,0,0,0,-1,1119,820,0,0
-98,204,0,0,0,0,0,0,0,0,0,-1,1126,820,0,0
-91,204,0,0,0,0,0,0,0,0,0,-1,1133,820,0,0
-84,204,0,0,0,0,0,0,0,0,0,-1,1140,820,0,0
-77,204,0,0,0,0,0,0,0,0,0,-1,1147,820,0,0
-70,204,0,0,0,0,0,0,0,0,0,-1,1154,820,0,0
-63,204,0,0,0,0,0,0,0,0,0,-1,1161,820,0,0
-56,204,0,0,0,0,0,0,0,0,0,-1,1168,820,0,0
-49,204,0,0,0,0,0,0,0,0,0,-1,1175,820,0,0
-42,204,0,0,0,0,0,0,0,0,0,-1,1182,820,0,0
-35,204,0,0,0,0,0,0,0,0,0,-1,1189,820,0,0
-28,204,0,0,0,0,0,0,0,0,0,-1,1196,820,0,0
-21,204,0,0,0,0,0,0,0,0,0,-1,1203,820,0,0
-14,204,0,0,0,0,0,0,0,0,0,-1,1210,820,0,0
-7,204,0,0,0,0,0,0,0,0,0,-1,1217,820,0,0
0,204,0,0,0,0,0,0,0,0,0,-1,1224,820,0,0
7,204,0,0,0,0,0,0,0,0,0,-1,1231,820,0,0
14,204,0,0,0,0,0,0,0,0,0,-1,1238,820,0,0
21,204,0,0,0,0,0,0,0,0,0,-1,1245,820,0,0
28,204,0,0,0,0,0,0,0,0,0,-1,1252,820,0,0
35,204,0,0,0,0,0,0,0,0,0,-1,1259,820,0,0
42,204,0,0,0,0,0,0,0,0,0,-1,1266,820,0,0
49,204,0,0,0,0,0,0,0,0,0,-1,1273,820,0,0
56,204,0,0,0,0,0,0,0,0,0,-1,1280,820,0,0
63,204,0,0,0,0,0,0,0,0,0,-1,1287,820,0,0
70,204,0,0,0,0,0,0,0,0,0,-1,1294,820,0,0
77,204,0,0,0,0,0,0,0,0,0,-1,1301,820,0,0
84,204,0,0,0,0,0,0,0,0,0,-1,1308,820,0,0
91,204,0,0,0,0,0,0,0,0,0,-1,1315,820,0,0
98,204,0,0,0,0,0,0,0,0,0,-1,1322,820,0,0
105,204,0,0,0,0,0,0,0,0,0,-1,1329,820,0,0
112,204,0,0,0,0,0,0,0,0,0,-1,1336,820,0,0
119,204,0,0,0,0,0,0,0,0,0,-1,1343,820,0,0
126,204,0,0,0,0,0,0,0,0,0,-1,1350,820,0,0
133,204,0,0,0,0,0,0,0,0,0,-1,1357,820,0,0
140,204,0,0,0,0,0,0,0,0,0,-1,1364,820,0,0
147,204,0,0,0,0,0,0,0,0,0,-1,1371,820,0,0
154,204,0,0,0,0,0,0,0,0,0,-1,1378,820,0,0
161,204,0,0,0,0,0,0,0,0,0,-1,1385,820,0,0
168,204,0,0,0,0,0,0,0,0,0,-1,1392,820,0,0
175,204,0,0,0,0,0,0,0,0,0,-1,1399,820,0,0
182,204,0,0,0,0,0,0,0,0,0,-1,1406,820,0,0
189,204,0,0,0,0,0,0,0,0,0,-1,1413,820,0,0
196,204,0,0,0,0,0,0,0,0,0,-1,1420,820,0,0
203,204,0,0,0,0,0,0,0,0,0,-1,1427,820,0,0
210,204,0,0,0,0,0,0,0,0,0,-1,1434,820,0,0
217,204,0,0,0,0,0,0,0,0,0,-1,1441,820,0,0
224,204,0,0,0,0,0,0,0,0,0,-1,1448,820,0,0
231,204,0,0,0,0,0,0,0,0,0,-1,1455,820,0,0
238,204,0,0,0,0,0,0,0,0,0,-1,1462,820,0,0
245,204,0,0,0,0,0,0,0,0,0,-1,1469,820,0,0
252,204,0,0,0,0,0,0,0,0,0,-1,1476,820,0,0
259,204,0,0,0,0,0,0,0,0,0,-1,1483,820,0,0
266,204,0,0,0,0,0,0,0,0,0,-1,1490,820,0,0
273,204,0,0,0,0,0,0,0,0,0,-1,1497,820,0,0
280,204,0,0,0,0,0,0,0,0,0,-1,1504,820,0,0
287,204,0,0,0,0,0,0,0,0,0,-1,1511,820,0,0
294,204,0,0,0,0,0,0,0,0,0,-1,1518,820,0,0
301,204,0,0,0,0,0,0,0,0,0,-1,1525,820,0,0
308,204,0,0,0,0,0,0,0,0,0,-1,1532,820,0,0
315,204,0,0,0,0,0,0,0,0,0,-1,1539,820,0,0
322,204,0,0,0,0,0,0,0,0,0,-1,1546,820,0,0
329,204,0,0,0,0,0,0,0,0,0,-1,1553,820,0,0
336,204,0,0,0,0,0,0,0,0,0,-1,1560,820,0,0
343,204,0,0,0,0,0,0,0,0,0,-1,1567,820,0,0
350,204,0,0,0,0,0,0,0,0,0,-1,1574,820,0,0
357,204,0,0,0,0,0,0,0,0,0,-1,1581,820,0,0
364,204,0,0,0,0,0,0,0,0,0,-1,1588,820,0,0
371,204,0,0,0,0,0,0,0,0,0,-1,1595,820,0,0
378,204,0,0,0,0,0,0,0,0,0,-1,1602,820,0,0
385,204,0,0,0,0,0,0,0,0,0,-1,1609,820,0,0
392,204,0,0,0,0,0,0,0,0,0,-1,1616,820,0,0
399,204,0,0,0,0,0,0,0,0,0,-1,1623,820,0,0
406,204,0,0,0,0,0,0,0,0,0,-1,1630,820,0,0
413,204,0,0,0,0,0,0,0,0,0,-1,1637,820,0,0
420,204,0,0,0,0,0,0,0,0,0,-1,1644,820,0,0
427,204,0,0,0,0,0,0,0,0,0,-1,1651,820,0,0
434,204,0,0,0,0,0,0,0,0,0,-1,1658,820,0,0
441,204,0,0,0,0,0,0,0,0,0,-1,1665,820,0,0
448,204,0,0,0,0,0,0,0,0,0,-1,1672,820,0,0
455,204,0,0,0,0,0,0,0,0,0,-1,1679,820,0,0
462,204,0,0,0,0,0,0,0,0,0,-1,1686,820,0,0
469,204,0,0,0,0,0,0,0,0,0,-1,1693,820,0,0
476,204,0,0,0,0,0,0,0,0,0,-1,1700,820,0,0
483,204,0,0,0,0,0,0,0,0,0,-1,1707,820,0,0
490,204,0,0,0,0,0,0,0,0,0,-1,1714,820,0,0
497,204,0,0,0,0,0,0,0,0,0,-1,1721,820,0,0
504,204,0,0,0,0,0,0,0,0,0,-1,1728,820,0,0
511,204,0,0,0,0,0,0,0,0,0,-1,1735,820,0,0
518,204,0,0,0,0,0,0,0,0,0,-1,1742,820,0,0
525,204,0,0,0,0,0,0,0,0,0,-1,1749,820,0,0
532,204,0,0,0,0,0,0,0,0,0,-1,1756,820,0,0
539,204,0,0,0,0,0,0,0,0,0,-1,1763,820,0,0
546,204,0,0,0,0,0,0,0,0,0,-1,1770,820,0,0
553,204,0,0,0,0,0,0,0,0,0,-1,1777,820,0,0
560,204,0,0,0,0,0,0,0,0,0,-1,1784,820,0,0
567,204,0,0,0,0,0,0,0,0,0,-1,1791,820,0,0
574,204,0,0,0,0,0,0,0,0,0,-1,1798,820,0,0
581,204,0,0,0,0,0,0,0,0,0,-1,1805,820,0,0
588,204,0,0,0,0,0,0,0,0,0,-1,1812,820,0,0
595,204,0,0,0,0,0,0,0,0,0,-1,1819,820,0,0
602,204,19.5743,2.66925,0.000439908,-0.00145749,0.00173698,0.00147038,-0.00248797,0.535446,0.00231039,0.0378261,1826,820,19.5744,-2.66928
609,204,19.5624,2.60553,-0.00175767,-0.000456015,0.000314261,-0.000384114,-0.00182957,1.34587,0.00111398,0.0390616,1833,820,19.5624,-2.60552
616,204,19.5964,2.51422,-0.00351263,-0.00028642,-0.000989006,-7.37316e-06,-0.00379168,-1.2958,0.00252533,0.0371575,1840,820,19.5964,-2.51419
623,204,19.5797,2.50861,-0.00489405,-0.00049563,-0.00197141,0.000258629,-0.00564831,-1.20538,0.00385464,0.0287884,1847,820,19.5797,-2.5086
630,204,19.5919,2.46771,-0.00560398,-0.000896466,-0.00256014,0.000227493,-0.00672794,-1.15711,0.00456302,0.0274244,1854,820,19.592,-2.46772
637,204,19.6527,2.39465,-0.00588901,-0.00130937,-0.00284367,5.1806e-05,-0.00725018,-1.12436,0.00485082,0.0326682,1861,820,19.6527,-2.39465
644,204,19.6002,2.34869,-0.00591497,-0.00163483,-0.00290162,-0.000169441,-0.00738035,-1.10314,0.00486474,0.0392315,1868,820,19.6002,-2.34871
651,204,19.5668,2.30011,-0.00562971,-0.0018701,-0.00281523,-0.000364762,-0.00713504,-1.07977,0.00463989,0.0449569,1875,820,19.5667,-2.30008
658,204,16.1394,1.65692,0,0,0,0,0,0,0,-1,1882,820,16.1394,-1.6569
665,204,15.3552,1.4632,0,0,0,0,0,0,0,-1,1889,820,15.3552,-1.46322
672,204,15.3711,1.60242,-0.0037616,-0.00195497,-0.00229883,-0.000388342,-0.00532823,-0.972604,0.00343004,0.0344065,1896,820,15.371,-1.60241
679,204,15.3777,1.8299,-0.00295138,-0.00196475,-0.00185465,-0.000538931,-0.0043772,-0.915382,0.00275611,0.0194524,1903,820,15.3777,-1.82992
686,204,15.3944,2.09021,-0.00256632,-0.00170553,-0.00161176,-0.000467683,-0.00380416,-0.915871,0.00239548,0.0109552,1910,820,15.3944,-2.09021
693,204,15.3629,2.27777,-0.00152779,-0.00135011,-0.00131588,-0.000120077,-0.00275782,-0.819103,0.00179986,0.0164789,1917,820,15.3629,-2.27777
700,204,15.3937,2.47119,0.00084966,-0.000815044,-0.00083613,0.00119711,-0.00116249,-0.393831,0.00136236,0.0174264,1924,820,15.3937,-2.47122
707,204,15.3768,2.71759,0.00324434,-0.000486127,-0.000269088,0.00326365,-0.000505437,-0.0716383,0.00236234,0.01453,1931,820,15.3768,-2.71757
714,204,15.4144,2.94037,0.00587527,-0.00034774,0.000488335,0.00591336,-0.000385828,0.0778376,0.00407694,0.0229155,1938,820,15.4144,-2.94036
721,204,15.4066,3.05658,0.00941375,-0.000131615,0.00175651,0.00972672,-0.00044458,0.176325,0.00663764,0.0210841,1945,820,15.4066,-3.05657
728,204,15.3801,3.23767,0.013195,-4.26625e-05,0.00299086,0.0138393,-0.00068704,0.212205,0.00946355,0.0126617,1952,820,15.3802,-3.23769
735,204,15.3962,3.40741,0.0173797,0.000268028,0.00461418,0.0185446,-0.000896884,0.247296,0.0126726,0.0153663,1959,820,15.3962,-3.40738
742,204,15.3749,3.58643,0,0,0,0,0,0,0,-1,1966,820,15.3749,-3.5864
749,204,15.9644,3.47089,0.0278469,0.00108604,0.00989251,0.0311067,-0.00217377,0.318317,0.0214991,0.0455871,1973,820,15.9643,-3.47088
756,204,16.3828,3.5473,0.0336233,0.00198583,0.0136448,0.038695,-0.00308592,0.355874,0.0268844,0.0495998,1980,820,16.3828,-3.54728
763,204,16.4271,3.72357,0.0393034,0.00352364,0.018204,0.0469367,-0.00410967,0.39705,0.0327471,0.0456158,1987,820,16.4271,-3.72356
770,204,16.9844,4.20258,0.044076,0.00614796,0.0235702,0.0553641,-0.00514007,0.446635,0.0387366,0.0469111,1994,820,16.9844,-4.20258
777,204,0,0,0,0,0,0,0,0,0,-1,2001,820,0,0
784,204,0,0,0,0,0,0,0,0,0,-1,2008,820,0,0
791,204,0,0,0,0,0,0,0,0,0,-1,2015,820,0,0
798,204,0,0,0,0,0,0,0,0,0,-1,2022,820,0,0
805,204,0,0,0,0,0,0,0,0,0,-1,2029,820,0,0
812,204,0,0,0,0,0,0,0,0,0,-1,2036,820,0,0
-700,197,0,0,0,0,0,0,0,0,0,-1,524,827,0,0
-693,197,0,0,0,0,0,0,0,0,0,-1,531,827,0,0
-686,197,0,0,0,0,0,0,0,0,0,-1,538,827,0,0
-679,197,0,0,0,0,0,0,0,0,0,-1,545,827,0,0
-672,197,0,0,0,0,0,0,0,0,0,-1,552,827,0,0
-665,197,0,0,0,0,0,0,0,0,0,-1,559,827,0,0
-658,197,-8.43011,3.74719,0,0,0,0,0,0,0,-1,566,827,-8.43014,-3.74722
-651,197,-8.6991,3.33533,0.0819563,0.0884923,0.0375698,0.122936,0.0475126,0.828781,0.0715842,0.0491814,573,827,-8.69909,-3.33531
-644,197,-8.73346,2.58105,0.0716613,0.0791179,0.0316369,0.107245,0.0435338,0.844051,0.0622824,0.045709,580,827,-8.73349,-2.58107
-637,197,-9.32477,2.34381,0,0,0,0,0,0,0,-1,587,827,-9.32477,-2.34383
-630,197,-9.41376,1.95892,0,0,0,0,0,0,0,-1,594,827,-9.41374,-1.9589
-623,197,-9.77405,1.62646,0,0,0,0,0,0,0,-1,601,827,-9.77405,-1.62649
-616,197,-9.73981,1.42035,0.03114,0.0351541,0.0124206,0.0457288,0.0205654,0.865501,0.026446,0.0438186,608,827,-9.73981,-1.42032
-609,197,-9.65112,1.20795,0.0232776,0.0263989,0.00881623,0.0337915,0.015885,0.872999,0.0195212,0.0317092,615,827,-9.65115,-1.20794
-602,197,-9.69189,1.07037,0.0165234,0.0188077,0.00616123,0.0239317,0.0113993,0.877048,0.0138221,0.0162813,622,827,-9.69192,-1.07036
-595,197,-9.6897,0.935913,0.011008,0.0128936,0.00443234,0.0164823,0.0074193,0.89019,0.00953182,0.0167397,629,827,-9.6897,-0.935884
-588,197,-9.69354,0.758667,0.00544856,0.00733616,0.00283228,0.00937775,0.00340697,0.946226,0.00548128,0.0171602,636,827,-9.69352,-0.75864
-581,197,-9.68561,0.593628,0.00127029,0.00303156,0.00209313,0.00442176,-0.000119913,0.984521,0.00298862,0.0106165,643,827,-9.68563,-0.593613
-574,197,-9.68683,0.42749,-0.00191078,0.000921055,0.0019029,0.00187703,-0.00286675,1.10525,0.00275862,0.0119124,650,827,-9.6868,-0.42748
-567,197,-9.6969,0.242798,-0.00429717,9.23459e-05,0.00197265,0.00084857,-0.00505339,1.20472,0.0036845,0.0132838,657,827,-9.69692,-0.242772
-560,197,-9.72241,0.0822144,-0.00612712,0.000162064,0.00199548,0.000741769,-0.00670683,1.28807,0.00473787,0.0128379,664,827,-9.72239,-0.0822027
-553,197,-9.73163,-0.0720215,-0.00762585,0.000531919,0.0020213,0.00100528,-0.00809921,1.34075,0.00576386,0.0127882,671,827,-9.73162,0.0720414
-546,197,-9.68549,-0.272156,-0.00859356,0.000950848,0.00196985,0.00134142,-0.00898413,1.37506,0.00648299,0.0221603,678,827,-9.68546,0.272172
-539,197,-9.81525,-0.358459,-0.00918603,0.00134709,0.00177871,0.00163935,-0.00947829,1.40794,0.00693024,0.0478887,685,827,-9.81524,0.358435
-532,197,-11.4978,2.11536,0,0,0,0,0,0,0,-1,692,827,-11.4978,-2.11537
-525,197,-12.1053,1.46777,-0.00978671,0.00318435,0.00149449,0.00335432,-0.00995668,1.45756,0.00799402,0.0447885,699,827,-12.1053,-1.46779
-518,197,-12.7208,0.939575,-0.00941436,0.00411888,0.00115249,0.00421633,-0.00951181,1.48645,0.00812012,0.0453411,706,827,-12.7208,-0.939575
-511,197,-12.8432,0.634949,-0.00855859,0.00493027,0.000823455,0.00498035,-0.00860868,1.51005,0.0079383,0.0391392,713,827,-12.8432,-0.634951
-504,197,-12.9911,0.458801,-0.00710779,0.00535631,0.000557755,0.00538122,-0.0071327,1.52617,0.00724847,0.0370567,720,827,-12.9911,-0.458779
-497,197,-13.2876,-0.0527344,0,0,0,0,0,0,0,-1,727,827,-13.2876,0.052764
-490,197,-12.8991,0.692322,0,0,0,0,0,0,0,-1,734,827,-12.8991,-0.692348
-483,197,-12.8361,0.921448,0,0,0,0,0,0,0,-1,741,827,-12.8361,-0.921477
-476,197,0,0,0,0,0,0,0,0,0,-1,748,827,0,0
-469,197,0,0,0,0,0,0,0,0,0,-1,755,827,0,0
-462,197,0,0,0,0,0,0,0,0,0,-1,762,827,0,0
-455,197,0,0,0,0,0,0,0,0,0,-1,769,827,0,0
-448,197,0,0,0,0,0,0,0,0,0,-1,776,827,0,0
-441,197,0,0,0,0,0,0,0,0,0,-1,783,827,0,0
-434,197,0,0,0,0,0,0,0,0,0,-1,790,827,0,0
-427,197,0,0,0,0,0,0,0,0,0,-1,797,827,0,0
-420,197,0,0,0,0,0,0,0,0,0,-1,804,827,0,0
-413,197,0,0,0,0,0,0,0,0,0,-1,811,827,0,0
-406,197,0,0,0,0,0,0,0,0,0,-1,818,827,0,0
-399,197,0,0,0,0,0,0,0,0,0,-1,825,827,0,0
-392,197,0,0,0,0,0,0,0,0,0,-1,832,827,0,0
-385,197,0,0,0,0,0,0,0,0,0,-1,839,827,0,0
-378,197,0,0,0,0,0,0,0,0,0,-1,846,827,0,0
-371,197,0,0,0,0,0,0,0,0,0,-1,853,827,0,0
-364,197,0,0,0,0,0,0,0,0,0,-1,860,827,0,0
-357,197,0,0,0,0,0,0,0,0,0,-1,867,827,0,0
-350,197,0,0,0,0,0,0,0,0,0,-1,874,827,0,0
-343,197,0,0,0,0,0,0,0,0,0,-1,881,827,0,0
-336,197,0,0,0,0,0,0,0,0,0,-1,888,827,0,0
-329,197,0,0,0,0,0,0,0,0,0,-1,895,827,0,0
-322,197,0,0,0,0,0,0,0,0,0,-1,902,827,0,0
-315,197,0,0,0,0,0,0,0,0,0,-1,909,827,0,0
-308,197,0,0,0,0,0,0,0,0,0,-1,916,827,0,0
-301,197,0,0,0,0,0,0,0,0,0,-1,923,827,0,0
-294,197,0,0,0,0,0,0,0,0,0,-1,930,827,0,0
-287,197,0,0,0,0,0,0,0,0,0,-1,937,827,0,0
-280,197,0,0,0,0,0,0,0,0,0,-1,944,827,0,0
-273,197,0,0,0,0,0,0,0,0,0,-1,951,827,0,0
-266,197,0,0,0,0,0,0,0,0,0,-1,958,827,0,0
-259,197,0,0,0,0,0,0,0,0,0,-1,965,827,0,0
-252,197,0,0,0,0,0,0,0,0,0,-1,972,827,0,0
-245,197,0,0,0,0,0,0,0,0,0,-1,979,827,0,0
-238,197,0,0,0,0,0,0,0,0,0,-1,986,827,0,0
-231,197,0,0,0,0,0,0,0,0,0,-1,993,827,0,0
-224,197,0,0,0,0,0,0,0,0,0,-1,1000,827,0,0
-217,197,0,0,0,0,0,0,0,0,0,-1,1007,827,0,0
-210,197,0,0,0,0,0,0,0,0,0,-1,1014,827,0,0
-203,197,0,0,0,0,0,0,0,0,0,-1,1021,827,0,0
-196,197,0,0,0,0,0,0,0,0,0,-1,1028,827,0,0
-189,197,0,0,0,0,0,0,0,0,0,-1,1035,827,0,0
-182,197,0,0,0,0,0,0,0,0,0,-1,1042,827,0,0
-175,197,0,0,0,0,0,0,0,0,0,-1,1049,827,0,0
-168,197,0,0,0,0,0,0,0,0,0,-1,1056,827,0,0
-161,197,0,0,0,0,0,0,0,0,0,-1,1063,827,0,0
-154,197,0,0,0,0,0,0,0,0,0,-1,1070,827,0,0
-147,197,0,0,0,0,0,0,0,0,0,-1,1077,827,0,0
-140,197,0,0,0,0,0,0,0,0,0,-1,1084,827,0,0
-133,197,0,0,0,0,0,0,0,0,0,-1,1091,827,0,0
-126,197,0,0,0,0,0,0,0,0,0,-1,1098,827,0,0
-119,197,0,0,0,0,0,0,0,0,0,-1,1105,827,0,0
-112,197,0,0,0,0,0,0,0,0,0,-1,1112,827,0,0
-105,197,0,0,0,0,0,0,0,0,0,-1,1119,827,0,0
-98,197,0,0,0,0,0,0,0,0,0,-1,1126,827,0,0
-91,197,0,0,0,0,0,0,0,0,0,-1,1133,827,0,0
-84,197,0,0,0,0,0,0,0,0,0,-1,1140,827,0,0
-77,197,0,0,0,0,0,0,0,0,0,-1,1147,827,0,0
-70,197,0,0,0,0,0,0,0,0,0,-1,1154,827,0,0
-63,197,0,0,0,0,0,0,0,0,0,-1,1161,827,0,0
-56,197,0,0,0,0,0,0,0,0,0,-1,1168,827,0,0
-49,197,0,0,0,0,0,0,0,0,0,-1,1175,827,0,0
-42,197,0,0,0,0,0,0,0,0,0,-1,1182,827,0,0
-35,197,0,0,0,0,0,0,0,0,0,-1,1189,827,0,0
-28,197,0,0,0,0,0,0,0,0,0,-1,1196,827,0,0
-21,197,0,0,0,0,0,0,0,0,0,-1,1203,827,0,0
-14,197,0,0,0,0,0,0,0,0,0,-1,1210,827,0,0
-7,197,0,0,0,0,0,0,0,0,0,-1,1217,827,0,0
0,197,0,0,0,0,0,0,0,0,0,-1,1224,827,0,0
7,197,0,0,0,0,0,0,0,0,0,-1,1231,827,0,0
14,197,0,0,0,0,0,0,0,0,0,-1,1238,827,0,0
21,197,0,0,0,0,0,0,0,0,0,-1,1245,827,0,0
28,197,0,0,0,0,0,0,0,0,0,-1,1252,827,0,0
35,197,0,0,0,0,0,0,0,0,0,-1,1259,827,0,0
42,197,0,0,0,0,0,0,0,0,0,-1,1266,827,0,0
49,197,0,0,0,0,0,0,0,0,0,-1,1273,827,0,0
56,197,0,0,0,0,0,0,0,0,0,-1,1280,827,0,0
63,197,0,0,0,0,0,0,0,0,0,-1,1287,827,0,0
70,197,0,0,0,0,0,0,0,0,0,-1,1294,827,0,0
77,197,0,0,0,0,0,0,0,0,0,-1,1301,827,0,0
84,197,0,0,0,0,0,0,0,0,0,-1,1308,827,0,0
91,197,0,0,0,0,0,0,0,0,0,-1,1315,827,0,0
98,197,0,0,0,0,0,0,0,0,0,-1,1322,827,0,0
105,197,0,0,0,0,0,0,0,0,0,-1,1329,827,0,0
112,197,0,0,0,0,0,0,0,0,0,-1,1336,827,0,0
119,197,0,0,0,0,0,0,0,0,0,-1,1343,827,0,0
126,197,0,0,0,0,0,0,0,0,0,-1,1350,827,0,0
133,197,0,0,0,0,0,0,0,0,0,-1,1357,827,0,0
140,197,0,0,0,0,0,0,0,0,0,-1,1364,827,0,0
147,197,0,0,0,0,0,0,0,0,0,-1,1371,827,0,0
154,197,0,0,0,0,0,0,0,0,0,-1,1378,827,0,0
161,197,0,0,0,0,0,0,0,0,0,-1,1385,827,0,0
168,197,0,0,0,0,0,0,0,0,0,-1,1392,827,0,0
175,197,0,0,0,0,0,0,0,0,0,-1,1399,827,0,0
182,197,0,0,0,0,0,0,0,0,0,-1,1406,827,0,0
189,197,0,0,0,0,0,0,0,0,0,-1,1413,827,0,0
196,197,0,0,0,0,0,0,0,0,0,-1,1420,827,0,0
203,197,0,0,0,0,0,0,0,0,0,-1,1427,827,0,0
210,197,0,0,0,0,0,0,0,0,0,-1,1434,827,0,0
217,197,0,0,0,0,0,0,0,0,0,-1,1441,827,0,0
224,197,0,0,0,0,0,0,0,0,0,-1,1448,827,0,0
231,197,0,0,0,0,0,0,0,0,0,-1,1455,827,0,0
238,197,0,0,0,0,0,0,0,0,0,-1,1462,827,0,0
245,197,0,0,0,0,0,0,0,0,0,-1,1469,827,0,0
252,197,0,0,0,0,0,0,0,0,0,-1,1476,827,0,0
259,197,0,0,0,0,0,0,0,0,0,-1,1483,827,0,0
266,197,0,0,0,0,0,0,0,0,0,-1,1490,827,0,0
273,197,0,0,0,0,0,0,0,0,0,-1,1497,827,0,0
280,197,0,0,0,0,0,0,0,0,0,-1,1504,827,0,0
287,197,0,0,0,0,0,0,0,0,0,-1,1511,827,0,0
294,197,0,0,0,0,0,0,0,0,0,-1,1518,827,0,0
301,197,0,0,0,0,0,0,0,0,0,-1,1525,827,0,0
308,197,0,0,0,0,0,0,0,0,0,-1,1532,827,0,0
315,197,0,0,0,0,0,0,0,0,0,-1,1539,827,0,0
322,197,0,0,0,0,0,0,0,0,0,-1,1546,827,0,0
329,197,0,0,0,0,0,0,0,0,0,-1,1553,827,0,0
336,197,0,0,0,0,0,0,0,0,0,-1,1560,827,0,0
343,197,0,0,0,0,0,0,0,0,0,-1,1567,827,0,0
350,197,0,0,0,0,0,0,0,0,0,-1,1574,827,0,0
357,197,0,0,0,0,0,0,0,0,0,-1,1581,827,0,0
364,197,0,0,0,0,0,0,0,0,0,-1,1588,827,0,0
371,197,0,0,0,0,0,0,0,0,0,-1,1595,827,0,0
378,197,0,0,0,0,0,0,0,0,0,-1,1602,827,0,0
385,197,0,0,0,0,0,0,0,0,0,-1,1609,827,0,0
392,197,0,0,0,0,0,0,0,0,0,-1,1616,827,0,0
399,197,0,0,0,0,0,0,0,0,0,-1,1623,827,0,0
406,197,0,0,0,0,0,0,0,0,0,-1,1630,827,0,0
413,197,0,0,0,0,0,0,0,0,0,-1,1637,827,0,0
420,197,0,0,0,0,0,0,0,0,0,-1,1644,827,0,0
427,197,0,0,0,0,0,0,0,0,0,-1,1651,827,0,0
434,197,0,0,0,0,0,0,0,0,0,-1,1658,827,0,0
441,197,0,0,0,0,0,0,0,0,0,-1,1665,827,0,0
448,197,0,0,0,0,0,0,0,0,0,-1,1672,827,0,0
455,197,0,0,0,0,0,0,0,0,0,-1,1679,827,0,0
462,197,0,0,0,0,0,0,0,0,0,-1,1686,827,0,0
469,197,0,0,0,0,0,0,0,0,0,-1,1693,827,0,0
476,197,0,0,0,0,0,0,0,0,0,-1,1700,827,0,0
483,197,0,0,0,0,0,0,0,0,0,-1,1707,827,0,0
490,197,0,0,0,0,0,0,0,0,0,-1,1714,827,0,0
497,197,0,0,0,0,0,0,0,0,0,-1,1721,827,0,0
504,197,0,0,0,0,0,0,0,0,0,-1,1728,827,0,0
511,197,0,0,0,0,0,0,0,0,0,-1,1735,827,0,0
518,197,0,0,0,0,0,0,0,0,0,-1,1742,827,0,0
525,197,0,0,0,0,0,0,0,0,0,-1,1749,827,0,0
532,197,0,0,0,0,0,0,0,0,0,-1,1756,827,0,0
539,197,0,0,0,0,0,0,0,0,0,-1,1763,827,0,0
546,197,0,0,0,0,0,0,0,0,0,-1,1770,827,0,0
553,197,0,0,0,0,0,0,0,0,0,-1,1777,827,0,0
560,197,0,0,0,0,0,0,0,0,0,-1,1784,827,0,0
567,197,0,0,0,0,0,0,0,0,0,-1,1791,827,0,0
574,197,0,0,0,0,0,0,0,0,0,-1,1798,827,0,0
581,197,0,0,0,0,0,0,0,0,0,-1,1805,827,0,0
588,197,0,0,0,0,0,0,0,0,0,-1,1812,827,0,0
595,197,0,0,0,0,0,0,0,0,0,-1,1819,827,0,0
602,197,19.5145,2.67743,-0.00211303,-0.000666806,0.000876002,-0.000254017,-0.00252582,1.13044,0.00160592,0.0403845,1826,827,19.5146,-2.67745
609,197,19.5439,2.5412,-0.00113638,-5.98128e-06,0.000316012,7.63639e-05,-0.00121873,1.31589,0.000839099,0.0419276,1833,827,19.5439,-2.54117
616,197,19.5669,2.43567,-0.000843045,-0.000135336,-0.000473517,0.000101937,-0.00108032,-1.10628,0.000756484,0.0410489,1840,827,19.5669,-2.43565
623,197,19.5004,2.40045,-0.00126016,-0.000565781,-0.00121115,0.000346961,-0.0021729,-0.924985,0.00157703,0.0372035,1847,827,19.5004,-2.40047
630,197,19.5372,2.33887,-0.0017641,-0.00104918,-0.00173446,0.000364271,-0.00317755,-0.887022,0.00224964,0.0318685,1854,827,19.5373,-2.33888
637,197,19.6165,2.37817,-0.00222264,-0.0015048,-0.00204665,0.000214163,-0.0039416,-0.872201,0.00270195,0.0282481,1861,827,19.6165,-2.37819
644,197,19.6337,2.3656,-0.00258475,-0.00184793,-0.00216798,-1.72802e-05,-0.00441541,-0.86956,0.00293786,0.033812,1868,827,19.6337,-2.36557
651,197,19.6091,2.51282,-0.00273725,-0.00204839,-0.00218878,-0.000177103,-0.00460853,-0.863439,0.00301506,0.0418237,1875,827,19.6092,-2.51284
658,197,20.1042,1.98242,0,0,0,0,0,0,0,-1,1882,827,20.1043,-1.98241
665,197,14.0618,1.80304,0,0,0,0,0,0,0,-1,1889,827,14.0617,-1.80303
672,197,15.679,1.62799,0,0,0,0,0,0,0,-1,1896,827,15.679,-1.62801
679,197,15.6317,1.92285,-0.00200787,-0.00193969,-0.0016971,-0.00027634,-0.00367122,-0.795441,0.00236076,0.0241317,1903,827,15.6317,-1.92287
686,197,15.5889,2.11707,-0.00199752,-0.00174229,-0.00149638,-0.000368094,-0.00337171,-0.827936,0.00213571,0.0141337,1910,827,15.5888,-2.11706
693,197,15.5554,2.31805,-0.0013609,-0.00143221,-0.0012898,-0.000106271,-0.00268685,-0.77158,0.00175688,0.0155005,1917,827,15.5554,-2.31804
700,197,15.5315,2.50757,0.000507632,-0.000919998,-0.000920425,0.000958598,-0.00137096,-0.455578,0.00135198,0.0218753,1924,827,15.5315,-2.50759
707,197,15.6233,2.70471,0.00235399,-0.000572621,-0.000406525,0.00240941,-0.000628041,-0.13549,0.00185147,0.00912514,1931,827,15.6233,-2.70472
714,197,15.6045,2.88281,0.00446222,-0.000359666,0.00028522,0.00447903,-0.000376478,0.0588774,0.0031191,0.0113754,1938,827,15.6045,-2.88279
721,197,15.5847,3.04639,0.00750319,-0.000114857,0.00142331,0.00776043,-0.000372094,0.178801,0.005302,0.0120741,1945,827,15.5848,-3.04641
728,197,15.5582,3.23053,0.0107328,-4.74247e-06,0.00249242,0.0112831,-0.000555082,0.217318,0.00771377,0.0104017,1952,827,15.5582,-3.23053
735,197,15.5627,3.42157,0.0141107,0.000593138,0.00372371,0.0150686,-0.000364757,0.251783,0.0101695,0.0114193,1959,827,15.5628,-3.4216
742,197,15.6406,3.61914,0,0,0,0,0,0,0,-1,1966,827,15.6406,-3.61916
749,197,16.0894,3.64929,0.0222949,0.0021654,0.00749564,0.0247794,-0.000319113,0.320064,0.016627,0.0428128,1973,827,16.0894,-3.64932
756,197,16.3695,3.70337,0.0266429,0.00366324,0.00999609,0.0303826,-7.64392e-05,0.357994,0.0202806,0.0481975,1980,827,16.3695,-3.7034
763,197,16.4072,3.87097,0.0306486,0.00607897,0.0127425,0.0360638,0.000663808,0.401843,0.0238243,0.0467906,1987,827,16.4072,-3.87095
770,197,16.4564,4.03564,0.0335389,0.00995795,0.0155432,0.0412576,0.00223927,0.460919,0.0267899,0.0480367,1994,827,16.4565,-4.03564
777,197,0,0,0,0,0,0,0,0,0,-1,2001,827,0,0
784,197,0,0,0,0,0,0,0,0,0,-1,2008,827,0,0
791,197,0,0,0,0,0,0,0,0,0,-1,2015,827,0,0
798,197,0,0,0,0,0,0,0,0,0,-1,2022,827,0,0
805,197,0,0,0,0,0,0,0,0,0,-1,2029,827,0,0
812,197,0,0,0,0,0,0,0,0,0,-1,2036,827,0,0
-700,190,0,0,0,0,0,0,0,0,0,-1,524,834,0,0
-693,190,0,0,0,0,0,0,0,0,0,-1,531,834,0,0
-686,190,0,0,0,0,0,0,0,0,0,-1,538,834,0,0
-679,190,0,0,0,0,0,0,0,0,0,-1,545,834,0,0
-672,190,0,0,0,0,0,0,0,0,0,-1,552,834,0,0
-665,190,0,0,0,0,0,0,0,0,0,-1,559,834,0,0
-658,190,-9.03937,3.60364,0,0,0,0,0,0,0,-1,566,834,-9.03934,-3.60365
-651,190,-9.35016,3.24847,0.0700475,0.0681012,0.0337288,0.102817,0.0353316,0.770976,0.0603214,0.045363,573,834,-9.35014,-3.24849
-644,190,-9.67151,2.79071,0.0600045,0.0613674,0.0282813,0.0889755,0.0323964,0.797444,0.0519986,0.0433974,580,834,-9.67152,-2.79072
-637,190,-9.67267,2.16425,0.0501979,0.0531383,0.0231119,0.0748267,0.0285094,0.817161,0.0436071,0.049309,587,834,-9.67267,-2.16427
-630,190,-9.75421,1.7887,0.0408828,0.0443098,0.0184186,0.0610944,0.0240982,0.831779,0.0355339,0.0488622,594,834,-9.75423,-1.78868
-623,190,-9.8371,1.39612,0.0323201,0.0355767,0.0143147,0.0483554,0.0195414,0.842031,0.0280886,0.047029,601,834,-9.8371,-1.39609
-616,190,-9.80389,1.14954,0.0246196,0.0276346,0.0111315,0.0373602,0.014894,0.852704,0.0217171,0.0419763,608,834,-9.80389,-1.14951
-609,190,-9.84113,1.13068,0.0181838,0.0207246,0.00786096,0.0274171,0.0114913,0.865508,0.0158982,0.0224977,615,834,-9.8411,-1.13069
-602,190,-9.86987,1.05371,0.0125703,0.0145949,0.00553833,0.0192127,0.00795251,0.875793,0.0111471,0.0152131,622,834,-9.86988,-1.0537
-595,190,-9.87592,0.917603,0.00784375,0.00980549,0.00410494,0.0130451,0.00460412,0.902673,0.00763942,0.017419,629,834,-9.87592,-0.917579
-588,190,-9.88928,0.760254,0.00302288,0.00536786,0.00279896,0.00722999,0.00116075,0.983746,0.00448345,0.0133727,636,834,-9.88928,-0.76023
-581,190,-9.87445,0.587524,-0.000463046,0.00185832,0.00237257,0.0033389,-0.00194363,1.01289,0.00308513,0.00954156,643,834,-9.87444,-0.587537
-574,190,-9.85504,0.405518,-0.00330567,0.0002503,0.00231797,0.00139366,-0.00444903,1.11256,0.00352367,0.00938529,650,834,-9.85501,-0.405524
-567,190,-9.85242,0.223145,-0.00562242,-0.000311168,0.00243759,0.000637952,-0.00657154,1.19949,0.00460842,0.011647,657,834,-9.85239,-0.223121
-560,190,-9.8974,0.0723267,-0.00748788,-0.000145509,0.00247218,0.000609281,-0.00824267,1.27447,0.00570905,0.0179467,664,834,-9.89738,-0.0723472
-553,190,-9.92169,-0.0765381,-0.00899058,0.000336172,0.00247879,0.000954034,-0.00960844,1.32651,0.00674616,0.0159994,671,834,-9.92172,0.0765675
-546,190,-9.90106,-0.27887,-0.00993748,0.000782697,0.00240106,0.0012959,-0.0104507,1.36022,0.00743683,0.0305435,678,834,-9.90104,0.278856
-539,190,-10.1885,-0.321167,-0.0103923,0.00112158,0.0021384,0.0015059,-0.0107767,1.39297,0.00773543,0.0445681,685,834,-10.1885,0.321166
-532,190,-12.2433,1.37744,0,0,0,0,0,0,0,-1,692,834,-12.2433,-1.37743
-525,190,-12.4597,1.08386,-0.0104816,0.00251676,0.00159747,0.00271021,-0.010675,1.45029,0.0081713,0.0471284,699,834,-12.4596,-1.08389
-518,190,-12.7037,0.830322,-0.0097102,0.00314706,0.00107574,0.00323645,-0.00979959,1.4879,0.00783787,0.0482676,706,834,-12.7037,-0.830317
-511,190,-12.8199,0.579346,-0.00825819,0.0034761,0.000487267,0.0034963,-0.00827839,1.52937,0.00698251,0.0389765,713,834,-12.8199,-0.579317
-504,190,-13.1055,0.474915,-0.00598221,0.00317846,-0.000131451,0.00318035,-0.0059841,-1.55645,0.005373,0.0392076,720,834,-13.1056,-0.47494
-497,190,-13.3384,0.244995,-0.00267886,0.00177651,-0.000755968,0.00190128,-0.00280363,-1.40722,0.00273299,0.0449747,727,834,-13.3384,-0.244999
-490,190,-13.4117,0.00964355,0,0,0,0,0,0,0,-1,734,834,-13.4117,-0.0096611
-483,190,0,0,0,0,0,0,0,0,0,-1,741,834,0,0
-476,190,0,0,0,0,0,0,0,0,0,-1,748,834,0,0
-469,190,0,0,0,0,0,0,0,0,0,-1,755,834,0,0
-462,190,0,0,0,0,0,0,0,0,0,-1,762,834,0,0
-455,190,0,0,0,0,0,0,0,0,0,-1,769,834,0,0
-448,190,0,0,0,0,0,0,0,0,0,-1,776,834,0,0
-441,190,0,0,0,0,0,0,0,0,0,-1,783,834,0,0
-434,190,0,0,0,0,0,0,0,0,0,-1,790,834,0,0
-427,190,0,0,0,0,0,0,0,0,0,-1,797,834,0,0
-420,190,0,0,0,0,0,0,0,0,0,-1,804,834,0,0
-413,190,0,0,0,0,0,0,0,0,0,-1,811,834,0,0
-406,190,0,0,0,0,0,0,0,0,0,-1,818,834,0,0
-399,190,0,0,0,0,0,0,0,0,0,-1,825,834,0,0
-392,190,0,0,0,0,0,0,0,0,0,-1,832,834,0,0
-385,190,0,0,0,0,0,0,0,0,0,-1,839,834,0,0
-378,190,0,0,0,0,0,0,0,0,0,-1,846,834,0,0
-371,190,0,0,0,0,0,0,0,0,0,-1,853,834,0,0
-364,190,0,0,0,0,0,0,0,0,0,-1,860,834,0,0
-357,190,0,0,0,0,0,0,0,0,0,-1,867,834,0,0
-350,190,0,0,0,0,0,0,0,0,0,-1,874,834,0,0
-343,190,0,0,0,0,0,0,0,0,0,-1,881,834,0,0
-336,190,0,0,0,0,0,0,0,0,0,-1,888,834,0,0
-329,190,0,0,0,0,0,0,0,0,0,-1,895,834,0,0
-322,190,0,0,0,0,0,0,0,0,0,-1,902,834,0,0
-315,190,0,0,0,0,0,0,0,0,0,-1,909,834,0,0
-308,190,0,0,0,0,0,0,0,0,0,-1,916,834,0,0
-301,190,0,0,0,0,0,0,0,0,0,-1,923,834,0,0
-294,190,0,0,0,0,0,0,0,0,0,-1,930,834,0,0
-287,190,0,0,0,0,0,0,0,0,0,-1,937,834,0,0
-280,190,0,0,0,0,0,0,0,0,0,-1,944,834,0,0
-273,190,0,0,0,0,0,0,0,0,0,-1,951,834,0,0
-266,190,0,0,0,0,0,0,0,0,0,-1,958,834,0,0
-259,190,0,0,0,0,0,0,0,0,0,-1,965,834,0,0
-252,190,0,0,0,0,0,0,0,0,0,-1,972,834,0,0
-245,190,0,0,0,0,0,0,0,0,0,-1,979,834,0,0
-238,190,0,0,0,0,0,0,0,0,0,-1,986,834,0,0
-231,190,0,0,0,0,0,0,0,0,0,-1,993,834,0,0
-224,190,0,0,0,0,0,0,0,0,0,-1,1000,834,0,0
-217,190,0,0,0,0,0,0,0,0,0,-1,1007,834,0,0
-210,190,0,0,0,0,0,0,0,0,0,-1,1014,834,0,0
-203,190,0,0,0,0,0,0,0,0,0,-1,1021,834,0,0
-196,190,0,0,0,0,0,0,0,0,0,-1,1028,834,0,0
-189,190,0,0,0,0,0,0,0,0,0,-1,1035,834,0,0
-182,190,0,0,0,0,0,0,0,0,0,-1,1042,834,0,0
-175,190,0,0,0,0,0,0,0,0,0,-1,1049,834,0,0
-168,190,0,0,0,0,0,0,0,0,0,-1,1056,834,0,0
-161,190,0,0,0,0,0,0,0,0,0,-1,1063,834,0,0
-154,190,0,0,0,0,0,0,0,0,0,-1,1070,834,0,0
-147,190,0,0,0,0,0,0,0,0,0,-1,1077,834,0,0
-140,190,0,0,0,0,0,0,0,0,0,-1,1084,834,0,0
-133,190,0,0,0,0,0,0,0,0,0,-1,1091,834,0,0
-126,190,0,0,0,0,0,0,0,0,0,-1,1098,834,0,0
-119,190,0,0,0,0,0,0,0,0,0,-1,1105,834,0,0
-112,190,0,0,0,0,0,0,0,0,0,-1,1112,834,0,0
-105,190,0,0,0,0,0,0,0,0,0,-1,1119,834,0,0
-98,190,0,0,0,0,0,0,0,0,0,-1,1126,834,0,0
-91,190,0,0,0,0,0,0,0,0,0,-1,1133,834,0,0
-84,190,0,0,0,0,0,0,0,0,0,-1,1140,834,0,0
-77,190,0,0,0,0,0,0,0,0,0,-1,1147,834,0,0
-70,190,0,0,0,0,0,0,0,0,0,-1,1154,834,0,0
-63,190,0,0,0,0,0,0,0,0,0,-1,1161,834,0,0
-56,190,0,0,0,0,0,0,0,0,0,-1,1168,834,0,0
-49,190,0,0,0,0,0,0,0,0,0,-1,1175,834,0,0
-42,190,0,0,0,0,0,0,0,0,0,-1,1182,834,0,0
-35,190,0,0,0,0,0,0,0,0,0,-1,1189,834,0,0
-28,190,0,0,0,0,0,0,0,0,0,-1,1196,834,0,0
-21,190,0,0,0,0,0,0,0,0,0,-1,1203,834,0,0
-14,190,0,0,0,0,0,0,0,0,0,-1,1210,834,0,0
-7,190,0,0,0,0,0,0,0,0,0,-1,1217,834,0,0
0,190,0,0,0,0,0,0,0,0,0,-1,1224,834,0,0
7,190,0,0,0,0,0,0,0,0,0,-1,1231,834,0,0
14,190,0,0,0,0,0,0,0,0,0,-1,1238,834,0,0
21,190,0,0,0,0,0,0,0,0,0,-1,1245,834,0,0
28,190,0,0,0,0,0,0,0,0,0,-1,1252,834,0,0
35,190,0,0,0,0,0,0,0,0,0,-1,1259,834,0,0
42,190,0,0,0,0,0,0,0,0,0,-1,1266,834,0,0
49,190,0,0,0,0,0,0,0,0,0,-1,1273,834,0,0
56,190,0,0,0,0,0,0,0,0,0,-1,1280,834,0,0
63,190,0,0,0,0,0,0,0,0,0,-1,1287,834,0,0
70,190,0,0,0,0,0,0,0,0,0,-1,1294,834,0,0
77,190,0,0,0,0,0,0,0,0,0,-1,1301,834,0,0
84,190,0,0,0,0,0,0,0,0,0,-1,1308,834,0,0
91,190,0,0,0,0,0,0,0,0,0,-1,1315,834,0,0
98,190,0,0,0,0,0,0,0,0,0,-1,1322,834,0,0
105,190,0,0,0,0,0,0,0,0,0,-1,1329,834,0,0
112,190,0,0,0,0,0,0,0,0,0,-1,1336,834,0,0
119,190,0,0,0,0,0,0,0,0,0,-1,1343,834,0,0
126,190,0,0,0,0,0,0,0,0,0,-1,1350,834,0,0
133,190,0,0,0,0,0,0,0,0,0,-1,1357,834,0,0
140,190,0,0,0,0,0,0,0,0,0,-1,1364,834,0,0
147,190,0,0,0,0,0,0,0,0,0,-1,1371,834,0,0
154,190,0,0,0,0,0,0,0,0,0,-1,1378,834,0,0
161,190,0,0,0,0,0,0,0,0,0,-1,1385,834,0,0
168,190,0,0,0,0,0,0,0,0,0,-1,1392,834,0,0
175,190,0,0,0,0,0,0,0,0,0,-1,1399,834,0,0
182,190,0,0,0,0,0,0,0,0,0,-1,1406,834,0,0
189,190,0,0,0,0,0,0,0,0,0,-1,1413,834,0,0
196,190,0,0,0,0,0,0,0,0,0,-1,1420,834,0,0
203,190,0,0,0,0,0,0,0,0,0,-1,1427,834,0,0
210,190,0,0,0,0,0,0,0,0,0,-1,1434,834,0,0
217,190,0,0,0,0,0,0,0,0,0,-1,1441,834,0,0
224,190,0,0,0,0,0,0,0,0,0,-1,1448,834,0,0
231,190,0,0,0,0,0,0,0,0,0,-1,1455,834,0,0
238,190,0,0,0,0,0,0,0,0,0,-1,1462,834,0,0
245,190,0,0,0,0,0,0,0,0,0,-1,1469,834,0,0
252,190,0,0,0,0,0,0,0,0,0,-1,1476,834,0,0
259,190,0,0,0,0,0,0,0,0,0,-1,1483,834,0,0
266,190,0,0,0,0,0,0,0,0,0,-1,1490,834,0,0
273,190,0,0,0,0,0,0,0,0,0,-1,1497,834,0,0
280,190,0,0,0,0,0,0,0,0,0,-1,1504,834,0,0
287,190,0,0,0,0,0,0,0,0,0,-1,1511,834,0,0
294,190,0,0,0,0,0,0,0,0,0,-1,1518,834,0,0
301,190,0,0,0,0,0,0,0,0,0,-1,1525,834,0,0
308,190,0,0,0,0,0,0,0,0,0,-1,1532,834,0,0
315,190,0,0,0,0,0,0,0,0,0,-1,1539,834,0,0
322,190,0,0,0,0,0,0,0,0,0,-1,1546,834,0,0
329,190,0,0,0,0,0,0,0,0,0,-1,1553,834,0,0
336,190,0,0,0,0,0,0,0,0,0,-1,1560,834,0,0
343,190,0,0,0,0,0,0,0,0,0,-1,1567,834,0,0
350,190,0,0,0,0,0,0,0,0,0,-1,1574,834,0,0
357,190,0,0,0,0,0,0,0,0,0,-1,1581,834,0,0
364,190,0,0,0,0,0,0,0,0,0,-1,1588,834,0,0
371,190,0,0,0,0,0,0,0,0,0,-1,1595,834,0,0
378,190,0,0,0,0,0,0,0,0,0,-1,1602,834,0,0
385,190,0,0,0,0,0,0,0,0,0,-1,1609,834,0,0
392,190,0,0,0,0,0,0,0,0,0,-1,1616,834,0,0
399,190,0,0,0,0,0,0,0,0,0,-1,1623,834,0,0
406,190,0,0,0,0,0,0,0,0,0,-1,1630,834,0,0
413,190,0,0,0,0,0,0,0,0,0,-1,1637,834,0,0
420,190,0,0,0,0,0,0,0,0,0,-1,1644,834,0,0
427,190,0,0,0,0,0,0,0,0,0,-1,1651,834,0,0
434,190,0,0,0,0,0,0,0,0,0,-1,1658,834,0,0
441,190,0,0,0,0,0,0,0,0,0,-1,1665,834,0,0
448,190,0,0,0,0,0,0,0,0,0,-1,1672,834,0,0
455,190,0,0,0,0,0,0,0,0,0,-1,1679,834,0,0
462,190,0,0,0,0,0,0,0,0,0,-1,1686,834,0,0
469,190,0,0,0,0,0,0,0,0,0,-1,1693,834,0,0
476,190,0,0,0,0,0,0,0,0,0,-1,1700,834,0,0
483,190,0,0,0,0,0,0,0,0,0,-1,1707,834,0,0
490,190,0,0,0,0,0,0,0,0,0,-1,1714,834,0,0
497,190,0,0,0,0,0,0,0,0,0,-1,1721,834,0,0
504,190,0,0,0,0,0,0,0,0,0,-1,1728,834,0,0
511,190,0,0,0,0,0,0,0,0,0,-1,1735,834,0,0
518,190,0,0,0,0,0,0,0,0,0,-1,1742,834,0,0
525,190,0,0,0,0,0,0,0,0,0,-1,1749,834,0,0
532,190,0,0,0,0,0,0,0,0,0,-1,1756,834,0,0
539,190,0,0,0,0,0,0,0,0,0,-1,1763,834,0,0
546,190,0,0,0,0,0,0,0,0,0,-1,1770,834,0,0
553,190,0,0,0,0,0,0,0,0,0,-1,1777,834,0,0
560,190,0,0,0,0,0,0,0,0,0,-1,1784,834,0,0
567,190,0,0,0,0,0,0,0,0,0,-1,1791,834,0,0
574,190,0,0,0,0,0,0,0,0,0,-1,1798,834,0,0
581,190,0,0,0,0,0,0,0,0,0,-1,1805,834,0,0
588,190,0,0,0,0,0,0,0,0,0,-1,1812,834,0,0
595,190,0,0,0,0,0,0,0,0,0,-1,1819,834,0,0
602,190,19.4973,2.5498,-0.00413893,-0.000148344,-0.000438555,-0.000100717,-0.00418656,-1.46262,0.00275808,0.0434178,1826,834,19.4973,-2.54983
609,190,19.5688,2.40479,-0.00191679,0.000137887,-0.000100816,0.000142822,-0.00192172,-1.52189,0.00133131,0.0430389,1833,834,19.5688,-2.40481
616,190,19.4429,2.44092,-0.000475041,-0.000262708,-0.000337494,-1.50757e-05,-0.000722673,-0.937784,0.000476836,0.0409543,1840,834,19.4429,-2.44093
623,190,19.2202,2.43848,-8.44237e-05,-0.000875741,-0.000760055,0.000376789,-0.00133695,-0.545416,0.00103991,0.0380494,1847,834,19.2203,-2.43846
630,190,19.1727,2.41321,-0.000183708,-0.00137798,-0.00117691,0.000538882,-0.00210057,-0.550632,0.00161035,0.0408152,1854,834,19.1728,-2.41322
637,190,19.4957,2.46558,-0.000487708,-0.00179168,-0.00149342,0.000489839,-0.00276923,-0.579582,0.00202924,0.0337948,1861,834,19.4957,-2.46555
644,190,19.5859,2.45319,-0.000882915,-0.00206545,-0.00169852,0.000324304,-0.00327267,-0.617904,0.00229753,0.0278452,1868,834,19.586,-2.45318
651,190,19.708,2.4068,-0.00117411,-0.00218456,-0.00180007,0.000190293,-0.00354896,-0.648583,0.00243189,0.0408289,1875,834,19.708,-2.40679
658,190,20.0807,1.9859,-0.00140283,-0.00220748,-0.00178967,2.9184e-05,-0.00363949,-0.674834,0.00243611,0.0458027,1882,834,20.0807,-1.98591
665,190,20.5403,1.54883,0,0,0,0,0,0,0,-1,1889,834,20.5403,-1.54884
672,190,15.9778,1.87073,0,0,0,0,0,0,0,-1,1896,834,15.9778,-1.87075
679,190,15.8414,2.06,-0.00131633,-0.00172452,-0.00164896,0.000141122,-0.00318197,-0.723826,0.00216989,0.0302154,1903,834,15.8414,-2.05997
686,190,15.7578,2.16711,-0.00158321,-0.00154826,-0.00146448,-0.000101152,-0.00303031,-0.791364,0.00198735,0.0128886,1910,834,15.7579,-2.16713
693,190,15.7693,2.33057,-0.00125189,-0.00128965,-0.00131842,4.77826e-05,-0.00258932,-0.778237,0.00174236,0.0125562,1917,834,15.7692,-2.33055
700,190,15.7661,2.53223,0.000185005,-0.000834318,-0.00104009,0.000833591,-0.0014829,-0.557583,0.00135483,0.0117521,1924,834,15.7661,-2.5322
707,190,15.7976,2.70728,0.00159118,-0.000522272,-0.000569905,0.00173506,-0.000666155,-0.247301,0.0014314,0.0127584,1931,834,15.7976,-2.70725
714,190,15.8076,2.8736,0.0033029,-0.000285809,6.27983e-05,0.003304,-0.000286907,0.0174917,0.00230427,0.0117708,1938,834,15.8076,-2.87361
721,190,15.7896,3.04572,0.00595876,-2.24104e-05,0.00107665,0.00614666,-0.000210311,0.172784,0.00416964,0.0111547,1945,834,15.7896,-3.04574
728,190,15.7744,3.21155,0.00880893,9.28985e-05,0.00198853,0.00924117,-0.000339341,0.214037,0.00627695,0.0129951,1952,834,15.7744,-3.21157
735,190,15.7766,3.38123,0.0115482,0.000957293,0.00288132,0.0122814,0.000224164,0.249155,0.00811388,0.0123371,1959,834,15.7767,-3.38125
742,190,15.7799,3.63586,0.0145428,0.0019706,0.00400623,0.0157109,0.000802511,0.283703,0.010217,0.0157718,1966,834,15.7799,-3.63584
749,190,16.0546,3.75299,0.0177496,0.00328723,0.00541137,0.0195502,0.00148663,0.321219,0.0125672,0.0373675,1973,834,16.0546,-3.75302
756,190,16.3358,3.71606,0.0207697,0.00536595,0.00691269,0.0234169,0.0027187,0.365726,0.0147886,0.0460735,1980,834,16.3358,-3.71606
763,190,16.4059,3.85699,0.0232036,0.00860427,0.00830282,0.0269593,0.00484853,0.424802,0.0165945,0.0487494,1987,834,16.4059,-3.85698
770,190,16.4524,3.98639,0,0,0,0,0,0,0,-1,1994,834,16.4524,-3.98636
777,190,17.0364,4.64044,0,0,0,0,0,0,0,-1,2001,834,17.0364,-4.64041
784,190,0,0,0,0,0,0,0,0,0,-1,2008,834,0,0
791,190,0,0,0,0,0,0,0,0,0,-1,2015,834,0,0
798,190,0,0,0,0,0,0,0,0,0,-1,2022,834,0,0
805,190,0,0,0,0,0,0,0,0,0,-1,2029,834,0,0
812,190,0,0,0,0,0,0,0,0,0,-1,2036,834,0,0
-700,183,0,0,0,0,0,0,0,0,0,-1,524,841,0,0
-693,183,0,0,0,0,0,0,0,0,0,-1,531,841,0,0
-686,183,0,0,0,0,0,0,0,0,0,-1,538,841,0,0
-679,183,0,0,0,0,0,0,0,0,0,-1,545,841,0,0
-672,183,0,0,0,0,0,0,0,0,0,-1,552,841,0,0
-665,183,0,0,0,0,0,0,0,0,0,-1,559,841,0,0
-658,183,-9.6759,3.51544,0,0,0,0,0,0,0,-1,566,841,-9.67591,-3.51547
-651,183,-9.99994,3.16492,0,0,0,0,0,0,0,-1,573,841,-9.99996,-3.16493
-644,183,-10.6893,2.77399,0.0477438,0.0453331,0.0241627,0.0707311,0.0223457,0.760476,0.0417489,0.0438676,580,841,-10.6892,-2.774
-637,183,-9.93549,1.94257,0.03889,0.039662,0.0196253,0.0589051,0.0196469,0.795231,0.0346314,0.0462784,587,841,-9.93546,-1.94258
-630,183,-10.0071,1.64874,0.0308323,0.0332774,0.0155196,0.0476226,0.0164871,0.824705,0.0279251,0.0461382,594,841,-10.0072,-1.64873
-623,183,-10.2203,1.22406,0.0237295,0.0267748,0.0119749,0.0373235,0.0131809,0.848636,0.0218563,0.0459887,601,841,-10.2204,-1.22408
-616,183,-10.0926,1.12836,0.0175269,0.0208417,0.00942042,0.0287494,0.00961924,0.872476,0.0168986,0.0374506,608,841,-10.0926,-1.12834
-609,183,-10.0438,1.17468,0.0125608,0.015603,0.00650576,0.0207631,0.0074007,0.900242,0.0121512,0.0168406,615,841,-10.0438,-1.17468
-602,183,-10.0363,1.07654,0.00819168,0.0108055,0.00457883,0.0142603,0.00473689,0.924412,0.00838633,0.0115685,622,841,-10.0363,-1.07657
-595,183,-10.0413,0.926392,0.00438037,0.00705735,0.00350371,0.00946953,0.00196818,0.967853,0.00576996,0.0105912,629,841,-10.0413,-0.926377
-588,183,-10.0521,0.756897,0.000434609,0.00367371,0.00254495,0.00507073,-0.000962416,1.06877,0.00374277,0.00934055,636,841,-10.0521,-0.756925
-581,183,-10.0604,0.587219,-0.00222641,0.000958748,0.00245944,0.00229621,-0.00356388,1.07272,0.00340961,0.0103866,643,841,-10.0604,-0.587236
-574,183,-10.0386,0.42218,-0.00460126,-0.000186542,0.00256968,0.000993674,-0.00578148,1.14025,0.00422468,0.0108531,650,841,-10.0386,-0.422158
-567,183,-9.99731,0.24408,-0.00672356,-0.000526655,0.00277681,0.00053555,-0.00778577,1.20544,0.00537792,0.016382,657,841,-9.99729,-0.244097
-560,183,-10.0883,0.118164,-0.00852927,-0.000303317,0.00286372,0.000595442,-0.00942803,1.26669,0.00649294,0.0198632,664,841,-10.0883,-0.118192
-553,183,-10.0496,-0.10553,-0.0100166,0.000205467,0.00288091,0.000961485,-0.0107726,1.31416,0.00752274,0.0161813,671,841,-10.0496,0.105515
-546,183,-9.97278,-0.289612,-0.0109528,0.000605154,0.00280776,0.00125114,-0.0115988,1.34466,0.00818152,0.0386724,678,841,-9.97277,0.289619
-539,183,-9.68896,-0.487305,0,0,0,0,0,0,0,-1,685,841,-9.68895,0.487284
-532,183,-12.7265,0.508118,0,0,0,0,0,0,0,-1,692,841,-12.7265,-0.508109
-525,183,-13.0745,0.131226,0,0,0,0,0,0,0,-1,699,841,-13.0744,-0.131235
-518,183,-12.9074,0.439026,0,0,0,0,0,0,0,-1,706,841,-12.9074,-0.439037
-511,183,-12.7712,0.50708,0,0,0,0,0,0,0,-1,713,841,-12.7712,-0.507069
-504,183,-13.8068,0.709045,0,0,0,0,0,0,0,-1,720,841,-13.8068,-0.70906
-497,183,-13.4281,0.358215,-6.706e-06,-0.00161713,-0.00270429,0.0020097,-0.00363354,-0.640701,0.00330278,0.0454196,727,841,-13.4281,-0.358198
-490,183,-13.1277,0.128784,0.00473482,-0.00666201,-0.00350736,0.00572771,-0.0076549,-0.275869,0.00775311,0.0442666,734,841,-13.1277,-0.128774
-483,183,0,0,0,0,0,0,0,0,0,-1,741,841,0,0
-476,183,0,0,0,0,0,0,0,0,0,-1,748,841,0,0
-469,183,0,0,0,0,0,0,0,0,0,-1,755,841,0,0
-462,183,0,0,0,0,0,0,0,0,0,-1,762,841,0,0
-455,183,0,0,0,0,0,0,0,0,0,-1,769,841,0,0
-448,183,0,0,0,0,0,0,0,0,0,-1,776,841,0,0
-441,183,0,0,0,0,0,0,0,0,0,-1,783,841,0,0
-434,183,0,0,0,0,0,0,0,0,0,-1,790,841,0,0
-427,183,0,0,0,0,0,0,0,0,0,-1,797,841,0,0
-420,183,0,0,0,0,0,0,0,0,0,-1,804,841,0,0
-413,183,0,0,0,0,0,0,0,0,0,-1,811,841,0,0
-406,183,0,0,0,0,0,0,0,0,0,-1,818,841,0,0
-399,183,0,0,0,0,0,0,0,0,0,-1,825,841,0,0
-392,183,0,0,0,0,0,0,0,0,0,-1,832,841,0,0
-385,183,0,0,0,0,0,0,0,0,0,-1,839,841,0,0
-378,183,0,0,0,0,0,0,0,0,0,-1,846,841,0,0
-371,183,0,0,0,0,0,0,0,0,0,-1,853,841,0,0
-364,183,0,0,0,0,0,0,0,0,0,-1,860,841,0,0
-357,183,0,0,0,0,0,0,0,0,0,-1,867,841,0,0
-350,183,0,0,0,0,0,0,0,0,0,-1,874,841,0,0
-343,183,0,0,0,0,0,0,0,0,0,-1,881,841,0,0
-336,183,0,0,0,0,0,0,0,0,0,-1,888,841,0,0
-329,183,0,0,0,0,0,0,0,0,0,-1,895,841,0,0
-322,183,0,0,0,0,0,0,0,0,0,-1,902,841,0,0
-315,183,0,0,0,0,0,0,0,0,0,-1,909,841,0,0
-308,183,0,0,0,0,0,0,0,0,0,-1,916,841,0,0
-301,183,0,0,0,0,0,0,0,0,0,-1,923,841,0,0
-294,183,0,0,0,0,0,0,0,0,0,-1,930,841,0,0
-287,183,0,0,0,0,0,0,0,0,0,-1,937,841,0,0
-280,183,0,0,0,0,0,0,0,0,0,-1,944,841,0,0
-273,183,0,0,0,0,0,0,0,0,0,-1,951,841,0,0
-266,183,0,0,0,0,0,0,0,0,0,-1,958,841,0,0
-259,183,0,0,0,0,0,0,0,0,0,-1,965,841,0,0
-252,183,0,0,0,0,0,0,0,0,0,-1,972,841,0,0
-245,183,0,0,0,0,0,0,0,0,0,-1,979,841,0,0
-238,183,0,0,0,0,0,0,0,0,0,-1,986,841,0,0
-231,183,0,0,0,0,0,0,0,0,0,-1,993,841,0,0
-224,183,0,0,0,0,0,0,0,0,0,-1,1000,841,0,0
-217,183,0,0,0,0,0,0,0,0,0,-1,1007,841,0,0
-210,183,0,0,0,0,0,0,0,0,0,-1,1014,841,0,0
-203,183,0,0,0,0,0,0,0,0,0,-1,1021,841,0,0
-196,183,0,0,0,0,0,0,0,0,0,-1,1028,841,0,0
-189,183,0,0,0,0,0,0,0,0,0,-1,1035,841,0,0
-182,183,0,0,0,0,0,0,0,0,0,-1,1042,841,0,0
-175,183,0,0,0,0,0,0,0,0,0,-1,1049,841,0,0
-168,183,0,0,0,0,0,0,0,0,0,-1,1056,841,0,0
-161,183,0,0,0,0,0,0,0,0,0,-1,1063,841,0,0
-154,183,0,0,0,0,0,0,0,0,0,-1,1070,841,0,0
-147,183,0,0,0,0,0,0,0,0,0,-1,1077,841,0,0
-140,183,0,0,0,0,0,0,0,0,0,-1,1084,841,0,0
-133,183,0,0,0,0,0,0,0,0,0,-1,1091,841,0,0
-126,183,0,0,0,0,0,0,0,0,0,-1,1098,841,0,0
-119,183,0,0,0,0,0,0,0,0,0,-1,1105,841,0,0
-112,183,0,0,0,0,0,0,0,0,0,-1,1112,841,0,0
-105,183,0,0,0,0,0,0,0,0,0,-1,1119,841,0,0
-98,183,0,0,0,0,0,0,0,0,0,-1,1126,841,0,0
-91,183,0,0,0,0,0,0,0,0,0,-1,1133,841,0,0
-84,183,0,0,0,0,0,0,0,0,0,-1,1140,841,0,0
-77,183,0,0,0,0,0,0,0,0,0,-1,1147,841,0,0
-70,183,0,0,0,0,0,0,0,0,0,-1,1154,841,0,0
-63,183,0,0,0,0,0,0,0,0,0,-1,1161,841,0,0
-56,183,0,0,0,0,0,0,0,0,0,-1,1168,841,0,0
-49,183,0,0,0,0,0,0,0,0,0,-1,1175,841,0,0
-42,183,0,0,0,0,0,0,0,0,0,-1,1182,841,0,0
-35,183,0,0,0,0,0,0,0,0,0,-1,1189,841,0,0
-28,183,0,0,0,0,0,0,0,0,0,-1,1196,841,0,0
-21,183,0,0,0,0,0,0,0,0,0,-1,1203,841,0,0
-14,183,0,0,0,0,0,0,0,0,0,-1,1210,841,0,0
-7,183,0,0,0,0,0,0,0,0,0,-1,1217,841,0,0
0,183,0,0,0,0,0,0,0,0,0,-1,1224,841,0,0
7,183,0,0,0,0,0,0,0,0,0,-1,1231,841,0,0
14,183,0,0,0,0,0,0,0,0,0,-1,1238,841,0,0
21,183,0,0,0,0,0,0,0,0,0,-1,1245,841,0,0
28,183,0,0,0,0,0,0,0,0,0,-1,1252,841,0,0
35,183,0,0,0,0,0,0,0,0,0,-1,1259,841,0,0
42,183,0,0,0,0,0,0,0,0,0,-1,1266,841,0,0
49,183,0,0,0,0,0,0,0,0,0,-1,1273,841,0,0
56,183,0,0,0,0,0,0,0,0,0,-1,1280,841,0,0
63,183,0,0,0,0,0,0,0,0,0,-1,1287,841,0,0
70,183,0,0,0,0,0,0,0,0,0,-1,1294,841,0,0
77,183,0,0,0,0,0,0,0,0,0,-1,1301,841,0,0
84,183,0,0,0,0,0,0,0,0,0,-1,1308,841,0,0
91,183,0,0,0,0,0,0,0,0,0,-1,1315,841,0,0
98,183,0,0,0,0,0,0,0,0,0,-1,1322,841,0,0
105,183,0,0,0,0,0,0,0,0,0,-1,1329,841,0,0
112,183,0,0,0,0,0,0,0,0,0,-1,1336,841,0,0
119,183,0,0,0,0,0,0,0,0,0,-1,1343,841,0,0
126,183,0,0,0,0,0,0,0,0,0,-1,1350,841,0,0
133,183,0,0,0,0,0,0,0,0,0,-1,1357,841,0,0
140,183,0,0,0,0,0,0,0,0,0,-1,1364,841,0,0
147,183,0,0,0,0,0,0,0,0,0,-1,1371,841,0,0
154,183,0,0,0,0,0,0,0,0,0,-1,1378,841,0,0
161,183,0,0,0,0,0,0,0,0,0,-1,1385,841,0,0
168,183,0,0,0,0,0,0,0,0,0,-1,1392,841,0,0
175,183,0,0,0,0,0,0,0,0,0,-1,1399,841,0,0
182,183,0,0,0,0,0,0,0,0,0,-1,1406,841,0,0
189,183,0,0,0,0,0,0,0,0,0,-1,1413,841,0,0
196,183,0,0,0,0,0,0,0,0,0,-1,1420,841,0,0
203,183,0,0,0,0,0,0,0,0,0,-1,1427,841,0,0
210,183,0,0,0,0,0,0,0,0,0,-1,1434,841,0,0
217,183,0,0,0,0,0,0,0,0,0,-1,1441,841,0,0
224,183,0,0,0,0,0,0,0,0,0,-1,1448,841,0,0
231,183,0,0,0,0,0,0,0,0,0,-1,1455,841,0,0
238,183,0,0,0,0,0,0,0,0,0,-1,1462,841,0,0
245,183,0,0,0,0,0,0,0,0,0,-1,1469,841,0,0
252,183,0,0,0,0,0,0,0,0,0,-1,1476,841,0,0
259,183,0,0,0,0,0,0,0,0,0,-1,1483,841,0,0
266,183,0,0,0,0,0,0,0,0,0,-1,1490,841,0,0
273,183,0,0,0,0,0,0,0,0,0,-1,1497,841,0,0
280,183,0,0,0,0,0,0,0,0,0,-1,1504,841,0,0
287,183,0,0,0,0,0,0,0,0,0,-1,1511,841,0,0
294,183,0,0,0,0,0,0,0,0,0,-1,1518,841,0,0
301,183,0,0,0,0,0,0,0,0,0,-1,1525,841,0,0
308,183,0,0,0,0,0,0,0,0,0,-1,1532,841,0,0
315,183,0,0,0,0,0,0,0,0,0,-1,1539,841,0,0
322,183,0,0,0,0,0,0,0,0,0,-1,1546,841,0,0
329,183,0,0,0,0,0,0,0,0,0,-1,1553,841,0,0
336,183,0,0,0,0,0,0,0,0,0,-1,1560,841,0,0
343,183,0,0,0,0,0,0,0,0,0,-1,1567,841,0,0
350,183,0,0,0,0,0,0,0,0,0,-1,1574,841,0,0
357,183,0,0,0,0,0,0,0,0,0,-1,1581,841,0,0
364,183,0,0,0,0,0,0,0,0,0,-1,1588,841,0,0
371,183,0,0,0,0,0,0,0,0,0,-1,1595,841,0,0
378,183,0,0,0,0,0,0,0,0,0,-1,1602,841,0,0
385,183,0,0,0,0,0,0,0,0,0,-1,1609,841,0,0
392,183,0,0,0,0,0,0,0,0,0,-1,1616,841,0,0
399,183,0,0,0,0,0,0,0,0,0,-1,1623,841,0,0
406,183,0,0,0,0,0,0,0,0,0,-1,1630,841,0,0
413,183,0,0,0,0,0,0,0,0,0,-1,1637,841,0,0
420,183,0,0,0,0,0,0,0,0,0,-1,1644,841,0,0
427,183,0,0,0,0,0,0,0,0,0,-1,1651,841,0,0
434,183,0,0,0,0,0,0,0,0,0,-1,1658,841,0,0
441,183,0,0,0,0,0,0,0,0,0,-1,1665,841,0,0
448,183,0,0,0,0,0,0,0,0,0,-1,1672,841,0,0
455,183,0,0,0,0,0,0,0,0,0,-1,1679,841,0,0
462,183,0,0,0,0,0,0,0,0,0,-1,1686,841,0,0
469,183,0,0,0,0,0,0,0,0,0,-1,1693,841,0,0
476,183,0,0,0,0,0,0,0,0,0,-1,1700,841,0,0
483,183,0,0,0,0,0,0,0,0,0,-1,1707,841,0,0
490,183,0,0,0,0,0,0,0,0,0,-1,1714,841,0,0
497,183,0,0,0,0,0,0,0,0,0,-1,1721,841,0,0
504,183,0,0,0,0,0,0,0,0,0,-1,1728,841,0,0
511,183,0,0,0,0,0,0,0,0,0,-1,1735,841,0,0
518,183,0,0,0,0,0,0,0,0,0,-1,1742,841,0,0
525,183,0,0,0,0,0,0,0,0,0,-1,1749,841,0,0
532,183,0,0,0,0,0,0,0,0,0,-1,1756,841,0,0
539,183,0,0,0,0,0,0,0,0,0,-1,1763,841,0,0
546,183,0,0,0,0,0,0,0,0,0,-1,1770,841,0,0
553,183,0,0,0,0,0,0,0,0,0,-1,1777,841,0,0
560,183,0,0,0,0,0,0,0,0,0,-1,1784,841,0,0
567,183,0,0,0,0,0,0,0,0,0,-1,1791,841,0,0
574,183,0,0,0,0,0,0,0,0,0,-1,1798,841,0,0
581,183,0,0,0,0,0,0,0,0,0,-1,1805,841,0,0
588,183,0,0,0,0,0,0,0,0,0,-1,1812,841,0,0
595,183,0,0,0,0,0,0,0,0,0,-1,1819,841,0,0
602,183,0,0,0,0,0,0,0,0,0,-1,1826,841,0,0
609,183,19.6539,2.43628,-0.00363555,-0.000326525,-0.000978173,-5.89991e-05,-0.00390308,-1.30383,0.00258261,0.0411992,1833,841,19.6539,-2.43628
616,183,19.2904,2.80084,-0.00125615,-0.000590632,-0.000956241,8.90937e-05,-0.00193588,-0.952839,0.00132128,0.0401355,1840,841,19.2904,-2.80084
623,183,19.1074,2.83228,2.77262e-05,-0.00112171,-0.00113183,0.000722398,-0.00181638,-0.550474,0.00151044,0.0442171,1847,841,19.1075,-2.83226
630,183,19.21,2.60553,0.000490647,-0.00150427,-0.00137535,0.00119216,-0.00220579,-0.471664,0.00199069,0.0406073,1854,841,19.2099,-2.60551
637,183,19.4338,2.49506,0.000496745,-0.00181139,-0.00158249,0.00130129,-0.00261593,-0.470347,0.00230367,0.0338266,1861,841,19.4338,-2.49505
644,183,19.4557,2.43872,0.000110396,-0.00200118,-0.00176428,0.00111066,-0.00300145,-0.515768,0.00245636,0.0277583,1868,841,19.4557,-2.4387
651,183,19.5902,2.43726,-0.000305918,-0.00206192,-0.0018439,0.000858351,-0.00322619,-0.563199,0.00248679,0.0266954,1875,841,19.5903,-2.43728
658,183,19.8562,2.21155,-0.000690578,-0.00203924,-0.00181702,0.000573207,-0.00330302,-0.607717,0.00241586,0.0457262,1882,841,19.8562,-2.21154
665,183,20.1036,1.99274,0,0,0,0,0,0,0,-1,1889,841,20.1037,-1.99277
672,183,16.0048,1.78351,0,0,0,0,0,0,0,-1,1896,841,16.0048,-1.78349
679,183,16.0182,1.96625,-0.00121086,-0.00144879,-0.00166269,0.000337119,-0.00299676,-0.749684,0.00211917,0.0380735,1903,841,16.0182,-1.96626
686,183,15.9932,2.15399,-0.00169971,-0.00130112,-0.00147135,-1.56329e-05,-0.0029852,-0.852715,0.00198494,0.0167272,1910,841,15.9931,-2.15397
693,183,15.9923,2.35504,-0.00161008,-0.0010938,-0.00137221,4.43348e-05,-0.00274822,-0.878371,0.0018471,0.0135883,1917,841,15.9923,-2.35506
700,183,15.9771,2.5423,-0.000515732,-0.000716984,-0.00116108,0.000549074,-0.00178179,-0.742173,0.00140706,0.015494,1924,841,15.9771,-2.54231
707,183,15.9596,2.7182,0.000546343,-0.000471346,-0.000725118,0.000923342,-0.000848345,-0.479452,0.00102319,0.0123265,1931,841,15.9596,-2.71819
714,183,15.9796,2.86969,0.00195147,-0.00023937,-0.000145704,0.00196111,-0.000249018,-0.0661181,0.00139783,0.01565,1938,841,15.9797,-2.86971
721,183,15.986,3.04852,0.0043104,2.43866e-05,0.000744769,0.00443613,-0.000101342,0.167238,0.00299177,0.0138106,1945,841,15.9859,-3.04851
728,183,15.9471,3.22437,0.00689371,0.000130758,0.00151997,0.00721962,-0.00019515,0.211219,0.00487943,0.0122684,1952,841,15.9471,-3.22435
735,183,15.953,3.38062,0.00906173,0.00121184,0.00209338,0.00958509,0.000688484,0.244986,0.00617338,0.0121748,1959,841,15.953,-3.38061
742,183,15.9677,3.57568,0.0112078,0.0025551,0.00273581,0.0120003,0.00176267,0.281936,0.00748216,0.0114612,1966,841,15.9677,-3.57569
749,183,16.0519,3.72736,0.0133703,0.00424016,0.00349415,0.014554,0.0030564,0.326647,0.00886135,0.0312136,1973,841,16.0518,-3.72736
756,183,16.3007,3.77344,0.015063,0.00682809,0.00409707,0.0167541,0.00513699,0.391457,0.00991126,0.0433048,1980,841,16.3007,-3.77343
763,183,16.2871,3.8183,0.0159657,0.0107273,0.0043184,0.0183971,0.00829589,0.512799,0.0106386,0.0490231,1987,841,16.2871,-3.81829
770,183,16.3719,3.83716,0,0,0,0,0,0,0,-1,1994,841,16.3719,-3.83715
777,183,16.7896,4.81799,0,0,0,0,0,0,0,-1,2001,841,16.7896,-4.81798
784,183,0,0,0,0,0,0,0,0,0,-1,2008,841,0,0
791,183,0,0,0,0,0,0,0,0,0,-1,2015,841,0,0
798,183,0,0,0,0,0,0,0,0,0,-1,2022,841,0,0
805,183,0,0,0,0,0,0,0,0,0,-1,2029,841,0,0
812,183,0,0,0,0,0,0,0,0,0,-1,2036,841,0,0
-700,176,0,0,0,0,0,0,0,0,0,-1,524,848,0,0
-693,176,0,0,0,0,0,0,0,0,0,-1,531,848,0,0
-686,176,0,0,0,0,0,0,0,0,0,-1,538,848,0,0
-679,176,0,0,0,0,0,0,0,0,0,-1,545,848,0,0
-672,176,0,0,0,0,0,0,0,0,0,-1,552,848,0,0
-665,176,-8.70563,-2.17877,0,0,0,0,0,0,0,-1,559,848,-8.7056,2.17874
-658,176,-8.70404,-2.00977,0,0,0,0,0,0,0,-1,566,848,-8.70404,2.00977
-651,176,-10.4265,3.64948,0,0,0,0,0,0,0,-1,573,848,-10.4265,-3.64945
-644,176,-10.9948,2.62457,0,0,0,0,0,0,0,-1,580,848,-10.9948,-2.62455
-637,176,-9.89526,1.78619,0.0285164,0.0274976,0.017146,0.0451606,0.0108535,0.770548,0.0272203,0.0436538,587,848,-9.89529,-1.78619
-630,176,-10.2242,1.1701,0.0220983,0.0229111,0.0135824,0.0360931,0.00891627,0.800355,0.0217092,0.0446427,594,848,-10.2242,-1.17007
-623,176,-10.2853,1.2041,0.0166342,0.018184,0.0105701,0.0280076,0.00681068,0.821989,0.0168663,0.0411718,601,848,-10.2853,-1.20413
-616,176,-10.2339,1.28766,0.0118934,0.0142345,0.00843782,0.0215826,0.00454531,0.854322,0.013138,0.0268783,608,848,-10.2339,-1.28766
-609,176,-10.1952,1.21289,0.00824356,0.010636,0.00561592,0.0151817,0.00369787,0.890334,0.00914132,0.0118885,615,848,-10.1952,-1.21287
-602,176,-10.1929,1.0722,0.00480804,0.007226,0.00395121,0.010149,0.00188499,0.933863,0.00623344,0.0124756,622,848,-10.1929,-1.0722
-595,176,-10.2031,0.911438,0.00164709,0.00455295,0.00312007,0.0065418,-0.000341761,1.0033,0.00447946,0.011382,629,848,-10.2031,-0.911418
-588,176,-10.2093,0.739563,-0.0015563,0.00227493,0.00244914,0.00346863,-0.00275,1.11728,0.00359831,0.0106832,636,848,-10.2093,-0.739538
-581,176,-10.2193,0.597534,-0.00364307,0.000308634,0.00256915,0.00157385,-0.00490829,1.1132,0.00390403,0.0108835,643,848,-10.2193,-0.597516
-574,176,-10.2136,0.448303,-0.00566859,-0.000455416,0.00277564,0.000745685,-0.00686969,1.1624,0.00484751,0.0130848,650,848,-10.2136,-0.448289
-567,176,-10.1664,0.324341,-0.0076137,-0.000670021,0.00303844,0.000471789,-0.00875551,1.21133,0.00600046,0.0210881,657,848,-10.1664,-0.324316
-560,176,-10.2603,0.145264,-0.00931254,-0.00044489,0.0031752,0.000574792,-0.0103322,1.26006,0.00708752,0.0178588,664,848,-10.2603,-0.145235
-553,176,-10.2145,-0.0879517,-0.0107358,5.55619e-05,0.00322126,0.000943983,-0.0116242,1.30169,0.00808251,0.0298361,671,848,-10.2146,0.0879419
-546,176,-10.2472,-0.296875,-0.0116177,0.000381901,0.00317041,0.00116805,-0.0124038,1.32773,0.00868478,0.0476821,678,848,-10.2472,0.296887
-539,176,-11.4513,0.0325317,0,0,0,0,0,0,0,-1,685,848,-11.4513,-0.0325499
-532,176,-12.8111,0.41449,-0.0116715,0.000810129,0.00242342,0.00126415,-0.0121255,1.3856,0.0085363,0.0390781,692,848,-12.8111,-0.414516
-525,176,-12.8961,0.423157,-0.0108269,0.00104917,0.00173833,0.00129838,-0.0110761,1.4284,0.00785275,0.046342,699,848,-12.8961,-0.423186
-518,176,-12.7202,0.740051,-0.00910594,0.00109529,0.000736595,0.0011482,-0.00915886,1.49909,0.00652241,0.0426732,706,848,-12.7202,-0.74006
-511,176,-12.7215,0.621704,-0.0061974,0.00059247,-0.000568399,0.000639723,-0.00624465,-1.48785,0.0043919,0.0402574,713,848,-12.7215,-0.621691
-504,176,-13.1075,0.521729,-0.00186,-0.000858095,-0.00218741,0.000884996,-0.00360309,-0.897965,0.00274503,0.0413463,720,848,-13.1076,-0.521735
-497,176,-13.2098,0.545288,0.00365108,-0.00390971,-0.00400938,0.00538127,-0.00563989,-0.407393,0.00636365,0.0435941,727,848,-13.2098,-0.545307
-490,176,-12.9229,0.549927,0.00895271,-0.0101693,-0.0050486,0.0102038,-0.0114203,-0.242914,0.0124913,0.041439,734,848,-12.9229,-0.549931
-483,176,0,0,0,0,0,0,0,0,0,-1,741,848,0,0
-476,176,0,0,0,0,0,0,0,0,0,-1,748,848,0,0
-469,176,0,0,0,0,0,0,0,0,0,-1,755,848,0,0
-462,176,0,0,0,0,0,0,0,0,0,-1,762,848,0,0
-455,176,0,0,0,0,0,0,0,0,0,-1,769,848,0,0
-448,176,0,0,0,0,0,0,0,0,0,-1,776,848,0,0
-441,176,0,0,0,0,0,0,0,0,0,-1,783,848,0,0
-434,176,0,0,0,0,0,0,0,0,0,-1,790,848,0,0
-427,176,0,0,0,0,0,0,0,0,0,-1,797,848,0,0
-420,176,0,0,0,0,0,0,0,0,0,-1,804,848,0,0
-413,176,0,0,0,0,0,0,0,0,0,-1,811,848,0,0
-406,176,0,0,0,0,0,0,0,0,0,-1,818,848,0,0
-399,176,0,0,0,0,0,0,0,0,0,-1,825,848,0,0
-392,176,0,0,0,0,0,0,0,0,0,-1,832,848,0,0
-385,176,0,0,0,0,0,0,0,0,0,-1,839,848,0,0
-378,176,0,0,0,0,0,0,0,0,0,-1,846,848,0,0
-371,176,0,0,0,0,0,0,0,0,0,-1,853,848,0,0
-364,176,0,0,0,0,0,0,0,0,0,-1,860,848,0,0
-357,176,0,0,0,0,0,0,0,0,0,-1,867,848,0,0
-350,176,0,0,0,0,0,0,0,0,0,-1,874,848,0,0
-343,176,0,0,0,0,0,0,0,0,0,-1,881,848,0,0
-336,176,0,0,0,0,0,0,0,0,0,-1,888,848,0,0
-329,176,0,0,0,0,0,0,0,0,0,-1,895,848,0,0
-322,176,0,0,0,0,0,0,0,0,0,-1,902,848,0,0
-315,176,0,0,0,0,0,0,0,0,0,-1,909,848,0,0
-308,176,0,0,0,0,0,0,0,0,0,-1,916,848,0,0
-301,176,0,0,0,0,0,0,0,0,0,-1,923,848,0,0
-294,176,0,0,0,0,0,0,0,0,0,-1,930,848,0,0
-287,176,0,0,0,0,0,0,0,0,0,-1,937,848,0,0
-280,176,0,0,0,0,0,0,0,0,0,-1,944,848,0,0
-273,176,0,0,0,0,0,0,0,0,0,-1,951,848,0,0
-266,176,0,0,0,0,0,0,0,0,0,-1,958,848,0,0
-259,176,0,0,0,0,0,0,0,0,0,-1,965,848,0,0
-252,176,0,0,0,0,0,0,0,0,0,-1,972,848,0,0
-245,176,0,0,0,0,0,0,0,0,0,-1,979,848,0,0
-238,176,0,0,0,0,0,0,0,0,0,-1,986,848,0,0
-231,176,0,0,0,0,0,0,0,0,0,-1,993,848,0,0
-224,176,0,0,0,0,0,0,0,0,0,-1,1000,848,0,0
-217,176,0,0,0,0,0,0,0,0,0,-1,1007,848,0,0
-210,176,0,0,0,0,0,0,0,0,0,-1,1014,848,0,0
-203,176,0,0,0,0,0,0,0,0,0,-1,1021,848,0,0
-196,176,0,0,0,0,0,0,0,0,0,-1,1028,848,0,0
-189,176,0,0,0,0,0,0,0,0,0,-1,1035,848,0,0
-182,176,0,0,0,0,0,0,0,0,0,-1,1042,848,0,0
-175,176,0,0,0,0,0,0,0,0,0,-1,1049,848,0,0
-168,176,0,0,0,0,0,0,0,0,0,-1,1056,848,0,0
-161,176,0,0,0,0,0,0,0,0,0,-1,1063,848,0,0
-154,176,0,0,0,0,0,0,0,0,0,-1,1070,848,0,0
-147,176,0,0,0,0,0,0,0,0,0,-1,1077,848,0,0
-140,176,0,0,0,0,0,0,0,0,0,-1,1084,848,0,0
-133,176,0,0,0,0,0,0,0,0,0,-1,1091,848,0,0
-126,176,0,0,0,0,0,0,0,0,0,-1,1098,848,0,0
-119,176,0,0,0,0,0,0,0,0,0,-1,1105,848,0,0
-112,176,0,0,0,0,0,0,0,0,0,-1,1112,848,0,0
-105,176,0,0,0,0,0,0,0,0,0,-1,1119,848,0,0
-98,176,0,0,0,0,0,0,0,0,0,-1,1126,848,0,0
-91,176,0,0,0,0,0,0,0,0,0,-1,1133,848,0,0
-84,176,0,0,0,0,0,0,0,0,0,-1,1140,848,0,0
-77,176,0,0,0,0,0,0,0,0,0,-1,1147,848,0,0
-70,176,0,0,0,0,0,0,0,0,0,-1,1154,848,0,0
-63,176,0,0,0,0,0,0,0,0,0,-1,1161,848,0,0
-56,176,0,0,0,0,0,0,0,0,0,-1,1168,848,0,0
-49,176,0,0,0,0,0,0,0,0,0,-1,1175,848,0,0
-42,176,0,0,0,0,0,0,0,0,0,-1,1182,848,0,0
-35,176,0,0,0,0,0,0,0,0,0,-1,1189,848,0,0
-28,176,0,0,0,0,0,0,0,0,0,-1,1196,848,0,0
-21,176,0,0,0,0,0,0,0,0,0,-1,1203,848,0,0
-14,176,0,0,0,0,0,0,0,0,0,-1,1210,848,0,0
-7,176,0,0,0,0,0,0,0,0,0,-1,1217,848,0,0
0,176,0,0,0,0,0,0,0,0,0,-1,1224,848,0,0
7,176,0,0,0,0,0,0,0,0,0,-1,1231,848,0,0
14,176,0,0,0,0,0,0,0,0,0,-1,1238,848,0,0
21,176,0,0,0,0,0,0,0,0,0,-1,1245,848,0,0
28,176,0,0,0,0,0,0,0,0,0,-1,1252,848,0,0
35,176,0,0,0,0,0,0,0,0,0,-1,1259,848,0,0
42,176,0,0,0,0,0,0,0,0,0,-1,1266,848,0,0
49,176,0,0,0,0,0,0,0,0,0,-1,1273,848,0,0
56,176,0,0,0,0,0,0,0,0,0,-1,1280,848,0,0
63,176,0,0,0,0,0,0,0,0,0,-1,1287,848,0,0
70,176,0,0,0,0,0,0,0,0,0,-1,1294,848,0,0
77,176,0,0,0,0,0,0,0,0,0,-1,1301,848,0,0
84,176,0,0,0,0,0,0,0,0,0,-1,1308,848,0,0
91,176,0,0,0,0,0,0,0,0,0,-1,1315,848,0,0
98,176,0,0,0,0,0,0,0,0,0,-1,1322,848,0,0
105,176,0,0,0,0,0,0,0,0,0,-1,1329,848,0,0
112,176,0,0,0,0,0,0,0,0,0,-1,1336,848,0,0
119,176,0,0,0,0,0,0,0,0,0,-1,1343,848,0,0
126,176,0,0,0,0,0,0,0,0,0,-1,1350,848,0,0
133,176,0,0,0,0,0,0,0,0,0,-1,1357,848,0,0
140,176,0,0,0,0,0,0,0,0,0,-1,1364,848,0,0
147,176,0,0,0,0,0,0,0,0,0,-1,1371,848,0,0
154,176,0,0,0,0,0,0,0,0,0,-1,1378,848,0,0
161,176,0,0,0,0,0,0,0,0,0,-1,1385,848,0,0
168,176,0,0,0,0,0,0,0,0,0,-1,1392,848,0,0
175,176,0,0,0,0,0,0,0,0,0,-1,1399,848,0,0
182,176,0,0,0,0,0,0,0,0,0,-1,1406,848,0,0
189,176,0,0,0,0,0,0,0,0,0,-1,1413,848,0,0
196,176,0,0,0,0,0,0,0,0,0,-1,1420,848,0,0
203,176,0,0,0,0,0,0,0,0,0,-1,1427,848,0,0
210,176,0,0,0,0,0,0,0,0,0,-1,1434,848,0,0
217,176,0,0,0,0,0,0,0,0,0,-1,1441,848,0,0
224,176,0,0,0,0,0,0,0,0,0,-1,1448,848,0,0
231,176,0,0,0,0,0,0,0,0,0,-1,1455,848,0,0
238,176,0,0,0,0,0,0,0,0,0,-1,1462,848,0,0
245,176,0,0,0,0,0,0,0,0,0,-1,1469,848,0,0
252,176,0,0,0,0,0,0,0,0,0,-1,1476,848,0,0
259,176,0,0,0,0,0,0,0,0,0,-1,1483,848,0,0
266,176,0,0,0,0,0,0,0,0,0,-1,1490,848,0,0
273,176,0,0,0,0,0,0,0,0,0,-1,1497,848,0,0
280,176,0,0,0,0,0,0,0,0,0,-1,1504,848,0,0
287,176,0,0,0,0,0,0,0,0,0,-1,1511,848,0,0
294,176,0,0,0,0,0,0,0,0,0,-1,1518,848,0,0
301,176,0,0,0,0,0,0,0,0,0,-1,1525,848,0,0
308,176,0,0,0,0,0,0,0,0,0,-1,1532,848,0,0
315,176,0,0,0,0,0,0,0,0,0,-1,1539,848,0,0
322,176,0,0,0,0,0,0,0,0,0,-1,1546,848,0,0
329,176,0,0,0,0,0,0,0,0,0,-1,1553,848,0,0
336,176,0,0,0,0,0,0,0,0,0,-1,1560,848,0,0
343,176,0,0,0,0,0,0,0,0,0,-1,1567,848,0,0
350,176,0,0,0,0,0,0,0,0,0,-1,1574,848,0,0
357,176,0,0,0,0,0,0,0,0,0,-1,1581,848,0,0
364,176,0,0,0,0,0,0,0,0,0,-1,1588,848,0,0
371,176,0,0,0,0,0,0,0,0,0,-1,1595,848,0,0
378,176,0,0,0,0,0,0,0,0,0,-1,1602,848,0,0
385,176,0,0,0,0,0,0,0,0,0,-1,1609,848,0,0
392,176,0,0,0,0,0,0,0,0,0,-1,1616,848,0,0
399,176,0,0,0,0,0,0,0,0,0,-1,1623,848,0,0
406,176,0,0,0,0,0,0,0,0,0,-1,1630,848,0,0
413,176,0,0,0,0,0,0,0,0,0,-1,1637,848,0,0
420,176,0,0,0,0,0,0,0,0,0,-1,1644,848,0,0
427,176,0,0,0,0,0,0,0,0,0,-1,1651,848,0,0
434,176,0,0,0,0,0,0,0,0,0,-1,1658,848,0,0
441,176,0,0,0,0,0,0,0,0,0,-1,1665,848,0,0
448,176,0,0,0,0,0,0,0,0,0,-1,1672,848,0,0
455,176,0,0,0,0,0,0,0,0,0,-1,1679,848,0,0
462,176,0,0,0,0,0,0,0,0,0,-1,1686,848,0,0
469,176,0,0,0,0,0,0,0,0,0,-1,1693,848,0,0
476,176,0,0,0,0,0,0,0,0,0,-1,1700,848,0,0
483,176,0,0,0,0,0,0,0,0,0,-1,1707,848,0,0
490,176,0,0,0,0,0,0,0,0,0,-1,1714,848,0,0
497,176,0,0,0,0,0,0,0,0,0,-1,1721,848,0,0
504,176,0,0,0,0,0,0,0,0,0,-1,1728,848,0,0
511,176,0,0,0,0,0,0,0,0,0,-1,1735,848,0,0
518,176,0,0,0,0,0,0,0,0,0,-1,1742,848,0,0
525,176,0,0,0,0,0,0,0,0,0,-1,1749,848,0,0
532,176,0,0,0,0,0,0,0,0,0,-1,1756,848,0,0
539,176,0,0,0,0,0,0,0,0,0,-1,1763,848,0,0
546,176,0,0,0,0,0,0,0,0,0,-1,1770,848,0,0
553,176,0,0,0,0,0,0,0,0,0,-1,1777,848,0,0
560,176,0,0,0,0,0,0,0,0,0,-1,1784,848,0,0
567,176,0,0,0,0,0,0,0,0,0,-1,1791,848,0,0
574,176,0,0,0,0,0,0,0,0,0,-1,1798,848,0,0
581,176,0,0,0,0,0,0,0,0,0,-1,1805,848,0,0
588,176,0,0,0,0,0,0,0,0,0,-1,1812,848,0,0
595,176,0,0,0,0,0,0,0,0,0,-1,1819,848,0,0
602,176,0,0,0,0,0,0,0,0,0,-1,1826,848,0,0
609,176,19.5834,2.68665,-0.00568512,-0.00102658,-0.00171983,-0.000460456,-0.00625124,-1.25279,0.0040228,0.0384338,1833,848,19.5834,-2.68667
616,176,19.2664,2.83734,-0.00241315,-0.0010533,-0.00157366,-1.89623e-05,-0.00344749,-0.989318,0.00229203,0.0386605,1840,848,19.2664,-2.83736
623,176,19.1779,2.82599,-0.000169783,-0.00143957,-0.00152426,0.000846519,-0.00245588,-0.588062,0.00198067,0.0432619,1847,848,19.1778,-2.826
630,176,19.3545,2.62244,0.000912817,-0.00164956,-0.00156208,0.00165191,-0.00238866,-0.441936,0.00234572,0.0410867,1854,848,19.3545,-2.62246
637,176,19.4587,2.49829,0.00122069,-0.00182285,-0.0016151,0.00191801,-0.00252016,-0.407572,0.00257023,0.0331538,1861,848,19.4587,-2.49828
644,176,19.3297,2.47101,0.000777829,-0.0019263,-0.00173969,0.00162908,-0.00277755,-0.45506,0.00257281,0.0309607,1868,848,19.3297,-2.47103
651,176,19.4374,2.53558,0.000138909,-0.00194731,-0.00178296,0.00116148,-0.00296988,-0.520723,0.00246023,0.0314554,1875,848,19.4373,-2.53557
658,176,19.5988,2.43097,-0.00047624,-0.0019129,-0.00174679,0.000694153,-0.00308329,-0.590324,0.00232176,0.0377629,1882,848,19.5987,-2.43097
665,176,19.7245,2.30066,0,0,0,0,0,0,0,-1,1889,848,19.7244,-2.30065
672,176,15.7961,3.10632,0,0,0,0,0,0,0,-1,1896,848,15.7962,-3.10634
679,176,16.3105,1.96594,0,0,0,0,0,0,0,-1,1903,848,16.3105,-1.96595
686,176,16.2292,2.18115,-0.00243728,-0.00121501,-0.00141269,-0.000286934,-0.00336535,-0.989545,0.0021543,0.0232657,1910,848,16.2292,-2.18118
693,176,16.1829,2.38867,-0.0025605,-0.00104569,-0.00137562,-0.000232754,-0.00337344,-1.03705,0.00217553,0.0128243,1917,848,16.1828,-2.3887
700,176,16.1635,2.55237,-0.00174288,-0.000733076,-0.0012463,0.000106706,-0.00258267,-0.977856,0.00175842,0.0159571,1924,848,16.1635,-2.5524
707,176,16.151,2.72955,-0.000924157,-0.000538173,-0.000871573,0.000161519,-0.00162385,-0.894355,0.00114023,0.0137507,1931,848,16.151,-2.72953
714,176,16.1705,2.89465,0.000287256,-0.000292439,-0.000374158,0.000470701,-0.000475884,-0.455847,0.000546513,0.0117592,1938,848,16.1705,-2.89463
721,176,16.1591,3.06543,0.00245526,1.00091e-05,0.000386159,0.00251479,-4.95245e-05,0.152964,0.00169328,0.0105195,1945,848,16.1591,-3.06542
728,176,16.1295,3.27258,0.00489974,0.000144663,0.00103404,0.00511487,-7.04655e-05,0.205121,0.00343364,0.0128659,1952,848,16.1296,-3.27256
735,176,16.1301,3.42139,0.00659578,0.00145627,0.00129784,0.00690492,0.00114714,0.233837,0.00427255,0.0132069,1959,848,16.1301,-3.4214
742,176,16.1477,3.57062,0.00798515,0.00310687,0.00146752,0.00839259,0.00269943,0.270818,0.00494715,0.0164617,1966,848,16.1477,-3.57064
749,176,16.1949,3.7027,0.00923153,0.00512182,0.00164912,0.00981145,0.0045419,0.338147,0.00566983,0.0275857,1973,848,16.195,-3.70272
756,176,16.2441,3.80884,0.00969616,0.00813391,0.00144843,0.0105607,0.0072694,0.538106,0.00623973,0.0441696,1980,848,16.2442,-3.80883
763,176,16.2753,3.95911,0.00915798,0.0125246,0.000642671,0.0126431,0.00903947,1.38844,0.00752102,0.0494728,1987,848,16.2752,-3.95912
770,176,16.3348,4.08154,0,0,0,0,0,0,0,-1,1994,848,16.3349,-4.08153
777,176,16.4766,4.85681,0,0,0,0,0,0,0,-1,2001,848,16.4765,-4.85679
784,176,0,0,0,0,0,0,0,0,0,-1,2008,848,0,0
791,176,0,0,0,0,0,0,0,0,0,-1,2015,848,0,0
798,176,0,0,0,0,0,0,0,0,0,-1,2022,848,0,0
805,176,0,0,0,0,0,0,0,0,0,-1,2029,848,0,0
812,176,0,0,0,0,0,0,0,0,0,-1,2036,848,0,0
-700,169,0,0,0,0,0,0,0,0,0,-1,524,855,0,0
-693,169,0,0,0,0,0,0,0,0,0,-1,531,855,0,0
-686,169,0,0,0,0,0,0,0,0,0,-1,538,855,0,0
-679,169,0,0,0,0,0,0,0,0,0,-1,545,855,0,0
-672,169,0,0,0,0,0,0,0,0,0,-1,552,855,0,0
-665,169,-9.7146,-1.03522,0,0,0,0,0,0,0,-1,559,855,-9.71458,1.03521
-658,169,-10.7889,0.753845,0,0,0,0,0,0,0,-1,566,855,-10.789,-0.753844
-651,169,-13.4265,3.66559,0,0,0,0,0,0,0,-1,573,855,-13.4265,-3.66558
-644,169,-9.96405,1.22601,0,0,0,0,0,0,0,-1,580,855,-9.96404,-1.22601
-637,169,-10.1008,1.23022,0.0217348,0.0161422,0.015457,0.0346463,0.00323064,0.695913,0.0220995,0.0460669,587,855,-10.1008,-1.23021
-630,169,-10.2345,1.21051,0.0164216,0.0133659,0.0124064,0.0273939,0.00239357,0.724131,0.0175193,0.0478661,594,855,-10.2345,-1.21049
-623,169,-10.325,1.26501,0.0120158,0.0103763,0.00982785,0.021058,0.00133407,0.743787,0.0136158,0.0377619,601,855,-10.325,-1.26502
-616,169,-10.36,1.36359,0.00823104,0.00828512,0.00797193,0.0162301,0.000286107,0.787094,0.0107259,0.0210323,608,855,-10.36,-1.36361
-609,169,-10.3622,1.22351,0.00538831,0.00616536,0.00519489,0.0109862,0.000567435,0.822724,0.00714253,0.0135759,615,855,-10.3622,-1.22353
-602,169,-10.3694,1.06689,0.00245003,0.00411153,0.00366822,0.0070419,-0.00048033,0.896756,0.00486262,0.0131122,622,855,-10.3694,-1.06687
-595,169,-10.3704,0.881165,-0.000344233,0.00245127,0.0029313,0.00430102,-0.00219398,1.00787,0.0038151,0.0117179,629,855,-10.3704,-0.881143
-588,169,-10.3716,0.731018,-0.00302451,0.00112071,0.00242232,0.0022361,-0.0041399,1.13927,0.00373549,0.00943056,636,855,-10.3717,-0.731012
-581,169,-10.3878,0.601807,-0.0047366,-0.000189314,0.00263578,0.00101796,-0.00594388,1.14128,0.00434187,0.00977149,643,855,-10.3878,-0.601813
-574,169,-10.4346,0.470581,-0.0065016,-0.000653865,0.00288122,0.000527196,-0.00768266,1.18177,0.00530624,0.0126086,650,855,-10.4346,-0.470557
-567,169,-10.3605,0.363464,-0.00825771,-0.000786649,0.00318994,0.000390038,-0.0094344,1.21741,0.00642356,0.0195861,657,855,-10.3605,-0.36349
-560,169,-10.4006,0.202271,-0.00977565,-0.000541363,0.00336796,0.00055649,-0.0108735,1.25569,0.00744144,0.0196238,664,855,-10.4006,-0.20227
-553,169,-10.3646,-0.00933838,-0.0110894,-4.81366e-05,0.00345544,0.000944098,-0.0120817,1.29117,0.00838688,0.0284836,671,855,-10.3646,0.00931359
-546,169,-10.6563,-0.252197,-0.0118933,0.000248168,0.00344983,0.00115992,-0.012805,1.31241,0.00894843,0.0483828,678,855,-10.6563,0.252181
-539,169,-11.0309,-0.486206,0,0,0,0,0,0,0,-1,685,855,-11.0309,0.486226
-532,169,-12.8729,0.464355,-0.0115753,0.000672354,0.00273312,0.00125458,-0.0121575,1.36091,0.00855393,0.0363751,692,855,-12.8729,-0.464378
-525,169,-12.8421,0.497009,-0.0103811,0.000923877,0.00198589,0.00126258,-0.0107198,1.40187,0.00760243,0.0437202,699,855,-12.8421,-0.497005
-518,169,-12.7936,0.773987,-0.00810838,0.00093222,0.000844415,0.00101041,-0.00818658,1.47846,0.00582381,0.0410055,706,855,-12.7935,-0.774003
-511,169,-12.7387,0.705627,-0.00437607,0.000348243,-0.000715566,0.000454248,-0.00448208,-1.42373,0.0031504,0.0399247,713,855,-12.7387,-0.70564
-504,169,-12.889,0.623779,0.0010557,-0.00125137,-0.00270074,0.00283894,-0.00303461,-0.583567,0.00339172,0.0407999,720,855,-12.8891,-0.623751
-497,169,-12.9553,0.856018,0.00738032,-0.00467888,-0.00489793,0.00911898,-0.00641754,-0.341102,0.0090151,0.042018,727,855,-12.9553,-0.856027
-490,169,0,0,0,0,0,0,0,0,0,-1,734,855,0,0
-483,169,0,0,0,0,0,0,0,0,0,-1,741,855,0,0
-476,169,0,0,0,0,0,0,0,0,0,-1,748,855,0,0
-469,169,0,0,0,0,0,0,0,0,0,-1,755,855,0,0
-462,169,0,0,0,0,0,0,0,0,0,-1,762,855,0,0
-455,169,0,0,0,0,0,0,0,0,0,-1,769,855,0,0
-448,169,0,0,0,0,0,0,0,0,0,-1,776,855,0,0
-441,169,0,0,0,0,0,0,0,0,0,-1,783,855,0,0
-434,169,0,0,0,0,0,0,0,0,0,-1,790,855,0,0
-427,169,0,0,0,0,0,0,0,0,0,-1,797,855,0,0
-420,169,0,0,0,0,0,0,0,0,0,-1,804,855,0,0
-413,169,0,0,0,0,0,0,0,0,0,-1,811,855,0,0
-406,169,0,0,0,0,0,0,0,0,0,-1,818,855,0,0
-399,169,0,0,0,0,0,0,0,0,0,-1,825,855,0,0
-392,169,0,0,0,0,0,0,0,0,0,-1,832,855,0,0
-385,169,0,0,0,0,0,0,0,0,0,-1,839,855,0,0
-378,169,0,0,0,0,0,0,0,0,0,-1,846,855,0,0
-371,169,0,0,0,0,0,0,0,0,0,-1,853,855,0,0
-364,169,0,0,0,0,0,0,0,0,0,-1,860,855,0,0
-357,169,0,0,0,0,0,0,0,0,0,-1,867,855,0,0
-350,169,0,0,0,0,0,0,0,0,0,-1,874,855,0,0
-343,169,0,0,0,0,0,0,0,0,0,-1,881,855,0,0
-336,169,0,0,0,0,0,0,0,0,0,-1,888,855,0,0
-329,169,0,0,0,0,0,0,0,0,0,-1,895,855,0,0
-322,169,0,0,0,0,0,0,0,0,0,-1,902,855,0,0
-315,169,0,0,0,0,0,0,0,0,0,-1,909,855,0,0
-308,169,0,0,0,0,0,0,0,0,0,-1,916,855,0,0
-301,169,0,0,0,0,0,0,0,0,0,-1,923,855,0,0
-294,169,0,0,0,0,0,0,0,0,0,-1,930,855,0,0
-287,169,0,0,0,0,0,0,0,0,0,-1,937,855,0,0
-280,169,0,0,0,0,0,0,0,0,0,-1,944,855,0,0
-273,169,0,0,0,0,0,0,0,0,0,-1,951,855,0,0
-266,169,0,0,0,0,0,0,0,0,0,-1,958,855,0,0
-259,169,0,0,0,0,0,0,0,0,0,-1,965,855,0,0
-252,169,0,0,0,0,0,0,0,0,0,-1,972,855,0,0
-245,169,0,0,0,0,0,0,0,0,0,-1,979,855,0,0
-238,169,0,0,0,0,0,0,0,0,0,-1,986,855,0,0
-231,169,0,0,0,0,0,0,0,0,0,-1,993,855,0,0
-224,169,0,0,0,0,0,0,0,0,0,-1,1000,855,0,0
-217,169,0,0,0,0,0,0,0,0,0,-1,1007,855,0,0
-210,169,0,0,0,0,0,0,0,0,0,-1,1014,855,0,0
-203,169,0,0,0,0,0,0,0,0,0,-1,1021,855,0,0
-196,169,0,0,0,0,0,0,0,0,0,-1,1028,855,0,0
-189,169,0,0,0,0,0,0,0,0,0,-1,1035,855,0,0
-182,169,0,0,0,0,0,0,0,0,0,-1,1042,855,0,0
-175,169,0,0,0,0,0,0,0,0,0,-1,1049,855,0,0
-168,169,0,0,0,0,0,0,0,0,0,-1,1056,855,0,0
-161,169,0,0,0,0,0,0,0,0,0,-1,1063,855,0,0
-154,169,0,0,0,0,0,0,0,0,0,-1,1070,855,0,0
-147,169,0,0,0,0,0,0,0,0,0,-1,1077,855,0,0
-140,169,0,0,0,0,0,0,0,0,0,-1,1084,855,0,0
-133,169,0,0,0,0,0,0,0,0,0,-1,1091,855,0,0
-126,169,0,0,0,0,0,0,0,0,0,-1,1098,855,0,0
-119,169,0,0,0,0,0,0,0,0,0,-1,1105,855,0,0
-112,169,0,0,0,0,0,0,0,0,0,-1,1112,855,0,0
-105,169,0,0,0,0,0,0,0,0,0,-1,1119,855,0,0
-98,169,0,0,0,0,0,0,0,0,0,-1,1126,855,0,0
-91,169,0,0,0,0,0,0,0,0,0,-1,1133,855,0,0
-84,169,0,0,0,0,0,0,0,0,0,-1,1140,855,0,0
-77,169,0,0,0,0,0,0,0,0,0,-1,1147,855,0,0
-70,169,0,0,0,0,0,0,0,0,0,-1,1154,855,0,0
-63,169,0,0,0,0,0,0,0,0,0,-1,1161,855,0,0
-56,169,0,0,0,0,0,0,0,0,0,-1,1168,855,0,0
-49,169,0,0,0,0,0,0,0,0,0,-1,1175,855,0,0
-42,169,0,0,0,0,0,0,0,0,0,-1,1182,855,0,0
-35,169,0,0,0,0,0,0,0,0,0,-1,1189,855,0,0
-28,169,0,0,0,0,0,0,0,0,0,-1,1196,855,0,0
-21,169,0,0,0,0,0,0,0,0,0,-1,1203,855,0,0
-14,169,0,0,0,0,0,0,0,0,0,-1,1210,855,0,0
-7,169,0,0,0,0,0,0,0,0,0,-1,1217,855,0,0
0,169,0,0,0,0,0,0,0,0,0,-1,1224,855,0,0
7,169,0,0,0,0,0,0,0,0,0,-1,1231,855,0,0
14,169,0,0,0,0,0,0,0,0,0,-1,1238,855,0,0
21,169,0,0,0,0,0,0,0,0,0,-1,1245,855,0,0
28,169,0,0,0,0,0,0,0,0,0,-1,1252,855,0,0
35,169,0,0,0,0,0,0,0,0,0,-1,1259,855,0,0
42,169,0,0,0,0,0,0,0,0,0,-1,1266,855,0,0
49,169,0,0,0,0,0,0,0,0,0,-1,1273,855,0,0
56,169,0,0,0,0,0,0,0,0,0,-1,1280,855,0,0
63,169,0,0,0,0,0,0,0,0,0,-1,1287,855,0,0
70,169,0,0,0,0,0,0,0,0,0,-1,1294,855,0,0
77,169,0,0,0,0,0,0,0,0,0,-1,1301,855,0,0
84,169,0,0,0,0,0,0,0,0,0,-1,1308,855,0,0
91,169,0,0,0,0,0,0,0,0,0,-1,1315,855,0,0
98,169,0,0,0,0,0,0,0,0,0,-1,1322,855,0,0
105,169,0,0,0,0,0,0,0,0,0,-1,1329,855,0,0
112,169,0,0,0,0,0,0,0,0,0,-1,1336,855,0,0
119,169,0,0,0,0,0,0,0,0,0,-1,1343,855,0,0
126,169,0,0,0,0,0,0,0,0,0,-1,1350,855,0,0
133,169,0,0,0,0,0,0,0,0,0,-1,1357,855,0,0
140,169,0,0,0,0,0,0,0,0,0,-1,1364,855,0,0
147,169,0,0,0,0,0,0,0,0,0,-1,1371,855,0,0
154,169,0,0,0,0,0,0,0,0,0,-1,1378,855,0,0
161,169,0,0,0,0,0,0,0,0,0,-1,1385,855,0,0
168,169,0,0,0,0,0,0,0,0,0,-1,1392,855,0,0
175,169,0,0,0,0,0,0,0,0,0,-1,1399,855,0,0
182,169,0,0,0,0,0,0,0,0,0,-1,1406,855,0,0
189,169,0,0,0,0,0,0,0,0,0,-1,1413,855,0,0
196,169,0,0,0,0,0,0,0,0,0,-1,1420,855,0,0
203,169,0,0,0,0,0,0,0,0,0,-1,1427,855,0,0
210,169,0,0,0,0,0,0,0,0,0,-1,1434,855,0,0
217,169,0,0,0,0,0,0,0,0,0,-1,1441,855,0,0
224,169,0,0,0,0,0,0,0,0,0,-1,1448,855,0,0
231,169,0,0,0,0,0,0,0,0,0,-1,1455,855,0,0
238,169,0,0,0,0,0,0,0,0,0,-1,1462,855,0,0
245,169,0,0,0,0,0,0,0,0,0,-1,1469,855,0,0
252,169,0,0,0,0,0,0,0,0,0,-1,1476,855,0,0
259,169,0,0,0,0,0,0,0,0,0,-1,1483,855,0,0
266,169,0,0,0,0,0,0,0,0,0,-1,1490,855,0,0
273,169,0,0,0,0,0,0,0,0,0,-1,1497,855,0,0
280,169,0,0,0,0,0,0,0,0,0,-1,1504,855,0,0
287,169,0,0,0,0,0,0,0,0,0,-1,1511,855,0,0
294,169,0,0,0,0,0,0,0,0,0,-1,1518,855,0,0
301,169,0,0,0,0,0,0,0,0,0,-1,1525,855,0,0
308,169,0,0,0,0,0,0,0,0,0,-1,1532,855,0,0
315,169,0,0,0,0,0,0,0,0,0,-1,1539,855,0,0
322,169,0,0,0,0,0,0,0,0,0,-1,1546,855,0,0
329,169,0,0,0,0,0,0,0,0,0,-1,1553,855,0,0
336,169,0,0,0,0,0,0,0,0,0,-1,1560,855,0,0
343,169,0,0,0,0,0,0,0,0,0,-1,1567,855,0,0
350,169,0,0,0,0,0,0,0,0,0,-1,1574,855,0,0
357,169,0,0,0,0,0,0,0,0,0,-1,1581,855,0,0
364,169,0,0,0,0,0,0,0,0,0,-1,1588,855,0,0
371,169,0,0,0,0,0,0,0,0,0,-1,1595,855,0,0
378,169,0,0,0,0,0,0,0,0,0,-1,1602,855,0,0
385,169,0,0,0,0,0,0,0,0,0,-1,1609,855,0,0
392,169,0,0,0,0,0,0,0,0,0,-1,1616,855,0,0
399,169,0,0,0,0,0,0,0,0,0,-1,1623,855,0,0
406,169,0,0,0,0,0,0,0,0,0,-1,1630,855,0,0
413,169,0,0,0,0,0,0,0,0,0,-1,1637,855,0,0
420,169,0,0,0,0,0,0,0,0,0,-1,1644,855,0,0
427,169,0,0,0,0,0,0,0,0,0,-1,1651,855,0,0
434,169,0,0,0,0,0,0,0,0,0,-1,1658,855,0,0
441,169,0,0,0,0,0,0,0,0,0,-1,1665,855,0,0
448,169,0,0,0,0,0,0,0,0,0,-1,1672,855,0,0
455,169,0,0,0,0,0,0,0,0,0,-1,1679,855,0,0
462,169,0,0,0,0,0,0,0,0,0,-1,1686,855,0,0
469,169,0,0,0,0,0,0,0,0,0,-1,1693,855,0,0
476,169,0,0,0,0,0,0,0,0,0,-1,1700,855,0,0
483,169,0,0,0,0,0,0,0,0,0,-1,1707,855,0,0
490,169,0,0,0,0,0,0,0,0,0,-1,1714,855,0,0
497,169,0,0,0,0,0,0,0,0,0,-1,1721,855,0,0
504,169,0,0,0,0,0,0,0,0,0,-1,1728,855,0,0
511,169,0,0,0,0,0,0,0,0,0,-1,1735,855,0,0
518,169,0,0,0,0,0,0,0,0,0,-1,1742,855,0,0
525,169,0,0,0,0,0,0,0,0,0,-1,1749,855,0,0
532,169,0,0,0,0,0,0,0,0,0,-1,1756,855,0,0
539,169,0,0,0,0,0,0,0,0,0,-1,1763,855,0,0
546,169,0,0,0,0,0,0,0,0,0,-1,1770,855,0,0
553,169,0,0,0,0,0,0,0,0,0,-1,1777,855,0,0
560,169,0,0,0,0,0,0,0,0,0,-1,1784,855,0,0
567,169,0,0,0,0,0,0,0,0,0,-1,1791,855,0,0
574,169,0,0,0,0,0,0,0,0,0,-1,1798,855,0,0
581,169,0,0,0,0,0,0,0,0,0,-1,1805,855,0,0
588,169,0,0,0,0,0,0,0,0,0,-1,1812,855,0,0
595,169,0,0,0,0,0,0,0,0,0,-1,1819,855,0,0
602,169,0,0,0,0,0,0,0,0,0,-1,1826,855,0,0
609,169,0,0,0,0,0,0,0,0,0,-1,1833,855,0,0
616,169,19.3152,2.73761,-0.00512631,-0.00141093,-0.00274203,4.34394e-05,-0.00658068,-1.08313,0.00440167,0.0407413,1840,855,19.3152,-2.7376
623,169,19.2542,2.60596,-0.0013155,-0.00152779,-0.00225179,0.000832645,-0.00367594,-0.761846,0.0027702,0.0410014,1847,855,19.2542,-2.60594
630,169,19.3549,2.41711,0.000940704,-0.00151156,-0.00188652,0.00196454,-0.00253539,-0.497231,0.002605,0.0407141,1854,855,19.3549,-2.41711
637,169,19.5306,2.44934,0.00202991,-0.00154195,-0.00163337,0.00266419,-0.00217623,-0.370406,0.00279935,0.0362727,1861,855,19.5307,-2.44931
644,169,19.439,2.57727,0.0018404,-0.00159329,-0.00161021,0.00247735,-0.00223024,-0.37668,0.00271918,0.0336301,1868,855,19.4389,-2.57726
651,169,19.417,2.60522,0.00115596,-0.00162338,-0.0015864,0.00187528,-0.0023427,-0.425703,0.00244023,0.0347864,1875,855,19.417,-2.60522
658,169,19.5344,2.47327,0.00038024,-0.0016307,-0.00154398,0.00121728,-0.00246774,-0.496781,0.00216799,0.0343399,1882,855,19.5344,-2.47326
665,169,19.7037,2.28223,-0.000250003,-0.00146342,-0.00159221,0.000847176,-0.0025606,-0.603367,0.0020487,0.0468477,1889,855,19.7038,-2.28222
672,169,19.3871,2.49097,0,0,0,0,0,0,0,-1,1896,855,19.387,-2.49098
679,169,16.2456,2.00269,0,0,0,0,0,0,0,-1,1903,855,16.2456,-2.00269
686,169,16.3008,2.20404,-0.00264533,-0.00112348,-0.00130436,-0.000374317,-0.00339449,-1.04945,0.00214912,0.0238095,1910,855,16.3008,-2.20405
693,169,16.3529,2.3996,-0.00303798,-0.000997064,-0.00134142,-0.000332074,-0.00370297,-1.11056,0.00236573,0.0129447,1917,855,16.3529,-2.39962
700,169,16.3627,2.58105,-0.00265456,-0.000746624,-0.00132313,-6.94138e-05,-0.00333177,-1.09774,0.0021984,0.0127254,1924,855,16.3626,-2.58106
707,169,16.3428,2.73364,-0.00216473,-0.000600698,-0.00102287,-9.51563e-05,-0.00267027,-1.11177,0.00174933,0.0138207,1931,855,16.3427,-2.73362
714,169,16.3302,2.87732,-0.00114612,-0.000341102,-0.00059462,-2.55677e-05,-0.00146166,-1.08293,0.000966028,0.0133554,1938,855,16.3303,-2.87732
721,169,16.3221,3.06354,0.000784771,1.12836e-05,6.53933e-05,0.000790261,5.79399e-06,0.0837513,0.00052492,0.013763,1945,855,16.3221,-3.06355
728,169,16.3276,3.2674,0.00306956,0.00019162,0.000624509,0.00319924,6.19452e-05,0.204733,0.00211248,0.0112718,1952,855,16.3277,-3.26738
735,169,16.3131,3.43732,0.00439536,0.00170785,0.000659349,0.00454841,0.0015548,0.22808,0.00266946,0.017833,1959,855,16.3131,-3.43734
742,169,16.321,3.57397,0.00512896,0.00360642,0.000420197,0.00523723,0.00349815,0.252177,0.00308005,0.0146158,1966,855,16.3211,-3.57399
749,169,16.3345,3.61481,0.00567206,0.00588273,0.00015101,0.00596151,0.00559327,1.08994,0.00385746,0.0246051,1973,855,16.3345,-3.61482
756,169,16.3743,3.7998,0.00516563,0.00922389,-0.000698931,0.00934089,0.00504863,-1.40494,0.00539886,0.0481843,1980,855,16.3743,-3.79979
763,169,16.4403,3.99487,0,0,0,0,0,0,0,-1,1987,855,16.4403,-3.9949
770,169,16.6598,4.54584,0,0,0,0,0,0,0,-1,1994,855,16.6598,-4.54583
777,169,16.6536,4.69879,-0.00553816,0.0294209,-0.00931526,0.0317481,-0.0078654,-1.32598,0.0242168,0.0449111,2001,855,16.6535,-4.69877
784,169,16.5725,4.62885,-0.0139645,0.0410579,-0.0156382,0.045192,-0.0180985,-1.31235,0.0376403,0.0453158,2008,855,16.5726,-4.62886
791,169,0,0,0,0,0,0,0,0,0,-1,2015,855,0,0
798,169,0,0,0,0,0,0,0,0,0,-1,2022,855,0,0
805,169,0,0,0,0,0,0,0,0,0,-1,2029,855,0,0
812,169,0,0,0,0,0,0,0,0,0,-1,2036,855,0,0
-700,162,0,0,0,0,0,0,0,0,0,-1,524,862,0,0
-693,162,0,0,0,0,0,0,0,0,0,-1,531,862,0,0
-686,162,0,0,0,0,0,0,0,0,0,-1,538,862,0,0
-679,162,0,0,0,0,0,0,0,0,0,-1,545,862,0,0
-672,162,0,0,0,0,0,0,0,0,0,-1,552,862,0,0
-665,162,-10.8199,-0.0043335,0.0322048,0.0139594,0.0194071,0.0445264,0.00163779,0.565688,0.0291537,0.0432751,559,862,-10.8199,0.00433036
-658,162,-11.0894,0.593811,0.0290548,0.0119056,0.020027,0.0422656,-0.00130517,0.58313,0.0286221,0.0475347,566,862,-11.0893,-0.593798
-651,162,-9.75146,1.12866,0,0,0,0,0,0,0,-1,573,862,-9.75148,-1.12867
-644,162,-9.88855,1.20306,0,0,0,0,0,0,0,-1,580,862,-9.88857,-1.20307
-637,162,-10.085,1.29401,0.0156794,0.00703033,0.0140741,0.0260784,-0.0033687,0.636343,0.0186104,0.0474703,587,862,-10.085,-1.29398
-630,162,-10.2878,1.31995,0.0114315,0.00571189,0.0114031,0.0203279,-0.0031846,0.662538,0.0147287,0.044934,594,862,-10.2878,-1.31992
-623,162,-10.4773,1.37592,0.00807795,0.00412333,0.00917249,0.0154838,-0.00328255,0.679238,0.011573,0.0317803,601,862,-10.4773,-1.37591
-616,162,-10.501,1.34302,0.00512109,0.00349276,0.0075283,0.0118791,-0.00326527,0.731534,0.00920299,0.018291,608,862,-10.5011,-1.34301
-609,162,-10.5282,1.19275,0.00290797,0.00251031,0.00480538,0.00751863,-0.00210035,0.764721,0.00583982,0.0130812,615,862,-10.5282,-1.19272
-602,162,-10.5403,1.05493,0.000318604,0.00155412,0.00338712,0.00437936,-0.00250663,0.875599,0.00402434,0.0111491,622,862,-10.5404,-1.05492
-595,162,-10.5252,0.907837,-0.00216693,0.000753834,0.00271863,0.00237949,-0.00379259,1.03187,0.00359445,0.0102751,629,862,-10.5252,-0.907807
-588,162,-10.5152,0.760376,-0.00441597,0.000200218,0.00231814,0.00116337,-0.00537912,1.17701,0.00403024,0.0110975,636,862,-10.5152,-0.76036
-581,162,-10.5829,0.598877,-0.00582676,-0.000583328,0.00258487,0.000476659,-0.00688674,1.18164,0.00475801,0.0129506,643,862,-10.583,-0.598879
-574,162,-10.6572,0.445679,-0.00733381,-0.000810568,0.00283456,0.000249024,-0.0083934,1.21307,0.00568043,0.0173385,650,862,-10.6572,-0.445667
-567,162,-10.6035,0.306885,-0.00881179,-0.000798103,0.00317482,0.000307222,-0.00991712,1.23577,0.00671616,0.0247788,657,862,-10.6034,-0.306891
-560,162,-10.5602,0.101868,-0.0101643,-0.000518304,0.00337658,0.000546196,-0.0112288,1.2654,0.00767439,0.0210666,664,862,-10.5602,-0.101882
-553,162,-10.4706,-0.0448608,-0.0113838,-4.13768e-05,0.00347141,0.000936724,-0.0123619,1.29616,0.00857057,0.0280277,671,862,-10.4706,0.0448605
-546,162,-11.5217,0.184692,-0.0121035,0.000257447,0.00349008,0.00117478,-0.0130209,1.31377,0.0090975,0.0412803,678,862,-11.5216,-0.184692
-539,162,-12.8329,0.504822,-0.012075,0.000418843,0.00322826,0.00120369,-0.0128598,1.33231,0.00900131,0.0423415,685,862,-12.8329,-0.504847
-532,162,-12.8497,0.42749,-0.0114959,0.000803842,0.00277183,0.00139963,-0.0120917,1.35907,0.00856589,0.0366451,692,862,-12.8497,-0.427488
-525,162,-12.8836,0.407104,-0.0100166,0.00114705,0.00193654,0.00147344,-0.010343,1.40382,0.0074353,0.0398803,699,862,-12.8836,-0.407088
-518,162,-12.9796,0.706665,-0.00726105,0.00125628,0.000636479,0.00130358,-0.00730835,1.49662,0.00535986,0.0405019,706,862,-12.9795,-0.706681
-511,162,-13.1671,1.17499,0,0,0,0,0,0,0,-1,713,862,-13.1671,-1.17501
-504,162,-13.08,0.938538,0,0,0,0,0,0,0,-1,720,862,-13.0799,-0.938545
-497,162,-12.8527,0.901184,0,0,0,0,0,0,0,-1,727,862,-12.8526,-0.901181
-490,162,0,0,0,0,0,0,0,0,0,-1,734,862,0,0
-483,162,0,0,0,0,0,0,0,0,0,-1,741,862,0,0
-476,162,0,0,0,0,0,0,0,0,0,-1,748,862,0,0
-469,162,0,0,0,0,0,0,0,0,0,-1,755,862,0,0
-462,162,0,0,0,0,0,0,0,0,0,-1,762,862,0,0
-455,162,0,0,0,0,0,0,0,0,0,-1,769,862,0,0
-448,162,0,0,0,0,0,0,0,0,0,-1,776,862,0,0
-441,162,0,0,0,0,0,0,0,0,0,-1,783,862,0,0
-434,162,0,0,0,0,0,0,0,0,0,-1,790,862,0,0
-427,162,0,0,0,0,0,0,0,0,0,-1,797,862,0,0
-420,162,0,0,0,0,0,0,0,0,0,-1,804,862,0,0
-413,162,0,0,0,0,0,0,0,0,0,-1,811,862,0,0
-406,162,0,0,0,0,0,0,0,0,0,-1,818,862,0,0
-399,162,0,0,0,0,0,0,0,0,0,-1,825,862,0,0
-392,162,0,0,0,0,0,0,0,0,0,-1,832,862,0,0
-385,162,0,0,0,0,0,0,0,0,0,-1,839,862,0,0
-378,162,0,0,0,0,0,0,0,0,0,-1,846,862,0,0
-371,162,0,0,0,0,0,0,0,0,0,-1,853,862,0,0
-364,162,0,0,0,0,0,0,0,0,0,-1,860,862,0,0
-357,162,0,0,0,0,0,0,0,0,0,-1,867,862,0,0
-350,162,0,0,0,0,0,0,0,0,0,-1,874,862,0,0
-343,162,0,0,0,0,0,0,0,0,0,-1,881,862,0,0
-336,162,0,0,0,0,0,0,0,0,0,-1,888,862,0,0
-329,162,0,0,0,0,0,0,0,0,0,-1,895,862,0,0
-322,162,0,0,0,0,0,0,0,0,0,-1,902,862,0,0
-315,162,0,0,0,0,0,0,0,0,0,-1,909,862,0,0
-308,162,0,0,0,0,0,0,0,0,0,-1,916,862,0,0
-301,162,0,0,0,0,0,0,0,0,0,-1,923,862,0,0
-294,162,0,0,0,0,0,0,0,0,0,-1,930,862,0,0
-287,162,0,0,0,0,0,0,0,0,0,-1,937,862,0,0
-280,162,0,0,0,0,0,0,0,0,0,-1,944,862,0,0
-273,162,0,0,0,0,0,0,0,0,0,-1,951,862,0,0
-266,162,0,0,0,0,0,0,0,0,0,-1,958,862,0,0
-259,162,0,0,0,0,0,0,0,0,0,-1,965,862,0,0
-252,162,0,0,0,0,0,0,0,0,0,-1,972,862,0,0
-245,162,0,0,0,0,0,0,0,0,0,-1,979,862,0,0
-238,162,0,0,0,0,0,0,0,0,0,-1,986,862,0,0
-231,162,0,0,0,0,0,0,0,0,0,-1,993,862,0,0
-224,162,0,0,0,0,0,0,0,0,0,-1,1000,862,0,0
-217,162,0,0,0,0,0,0,0,0,0,-1,1007,862,0,0
-210,162,0,0,0,0,0,0,0,0,0,-1,1014,862,0,0
-203,162,0,0,0,0,0,0,0,0,0,-1,1021,862,0,0
-196,162,0,0,0,0,0,0,0,0,0,-1,1028,862,0,0
-189,162,0,0,0,0,0,0,0,0,0,-1,1035,862,0,0
-182,162,0,0,0,0,0,0,0,0,0,-1,1042,862,0,0
-175,162,0,0,0,0,0,0,0,0,0,-1,1049,862,0,0
-168,162,0,0,0,0,0,0,0,0,0,-1,1056,862,0,0
-161,162,0,0,0,0,0,0,0,0,0,-1,1063,862,0,0
-154,162,0,0,0,0,0,0,0,0,0,-1,1070,862,0,0
-147,162,0,0,0,0,0,0,0,0,0,-1,1077,862,0,0
-140,162,0,0,0,0,0,0,0,0,0,-1,1084,862,0,0
-133,162,0,0,0,0,0,0,0,0,0,-1,1091,862,0,0
-126,162,0,0,0,0,0,0,0,0,0,-1,1098,862,0,0
-119,162,0,0,0,0,0,0,0,0,0,-1,1105,862,0,0
-112,162,0,0,0,0,0,0,0,0,0,-1,1112,862,0,0
-105,162,0,0,0,0,0,0,0,0,0,-1,1119,862,0,0
-98,162,0,0,0,0,0,0,0,0,0,-1,1126,862,0,0
-91,162,0,0,0,0,0,0,0,0,0,-1,1133,862,0,0
-84,162,0,0,0,0,0,0,0,0,0,-1,1140,862,0,0
-77,162,0,0,0,0,0,0,0,0,0,-1,1147,862,0,0
-70,162,0,0,0,0,0,0,0,0,0,-1,1154,862,0,0
-63,162,0,0,0,0,0,0,0,0,0,-1,1161,862,0,0
-56,162,0,0,0,0,0,0,0,0,0,-1,1168,862,0,0
-49,162,0,0,0,0,0,0,0,0,0,-1,1175,862,0,0
-42,162,0,0,0,0,0,0,0,0,0,-1,1182,862,0,0
-35,162,0,0,0,0,0,0,0,0,0,-1,1189,862,0,0
-28,162,0,0,0,0,0,0,0,0,0,-1,1196,862,0,0
-21,162,0,0,0,0,0,0,0,0,0,-1,1203,862,0,0
-14,162,0,0,0,0,0,0,0,0,0,-1,1210,862,0,0
-7,162,0,0,0,0,0,0,0,0,0,-1,1217,862,0,0
0,162,0,0,0,0,0,0,0,0,0,-1,1224,862,0,0
7,162,0,0,0,0,0,0,0,0,0,-1,1231,862,0,0
14,162,0,0,0,0,0,0,0,0,0,-1,1238,862,0,0
21,162,0,0,0,0,0,0,0,0,0,-1,1245,862,0,0
28,162,0,0,0,0,0,0,0,0,0,-1,1252,862,0,0
35,162,0,0,0,0,0,0,0,0,0,-1,1259,862,0,0
42,162,0,0,0,0,0,0,0,0,0,-1,1266,862,0,0
49,162,0,0,0,0,0,0,0,0,0,-1,1273,862,0,0
56,162,0,0,0,0,0,0,0,0,0,-1,1280,862,0,0
63,162,0,0,0,0,0,0,0,0,0,-1,1287,862,0,0
70,162,0,0,0,0,0,0,0,0,0,-1,1294,862,0,0
77,162,0,0,0,0,0,0,0,0,0,-1,1301,862,0,0
84,162,0,0,0,0,0,0,0,0,0,-1,1308,862,0,0
91,162,0,0,0,0,0,0,0,0,0,-1,1315,862,0,0
98,162,0,0,0,0,0,0,0,0,0,-1,1322,862,0,0
105,162,0,0,0,0,0,0,0,0,0,-1,1329,862,0,0
112,162,0,0,0,0,0,0,0,0,0,-1,1336,862,0,0
119,162,0,0,0,0,0,0,0,0,0,-1,1343,862,0,0
126,162,0,0,0,0,0,0,0,0,0,-1,1350,862,0,0
133,162,0,0,0,0,0,0,0,0,0,-1,1357,862,0,0
140,162,0,0,0,0,0,0,0,0,0,-1,1364,862,0,0
147,162,0,0,0,0,0,0,0,0,0,-1,1371,862,0,0
154,162,0,0,0,0,0,0,0,0,0,-1,1378,862,0,0
161,162,0,0,0,0,0,0,0,0,0,-1,1385,862,0,0
168,162,0,0,0,0,0,0,0,0,0,-1,1392,862,0,0
175,162,0,0,0,0,0,0,0,0,0,-1,1399,862,0,0
182,162,0,0,0,0,0,0,0,0,0,-1,1406,862,0,0
189,162,0,0,0,0,0,0,0,0,0,-1,1413,862,0,0
196,162,0,0,0,0,0,0,0,0,0,-1,1420,862,0,0
203,162,0,0,0,0,0,0,0,0,0,-1,1427,862,0,0
210,162,0,0,0,0,0,0,0,0,0,-1,1434,862,0,0
217,162,0,0,0,0,0,0,0,0,0,-1,1441,862,0,0
224,162,0,0,0,0,0,0,0,0,0,-1,1448,862,0,0
231,162,0,0,0,0,0,0,0,0,0,-1,1455,862,0,0
238,162,0,0,0,0,0,0,0,0,0,-1,1462,862,0,0
245,162,0,0,0,0,0,0,0,0,0,-1,1469,862,0,0
252,162,0,0,0,0,0,0,0,0,0,-1,1476,862,0,0
259,162,0,0,0,0,0,0,0,0,0,-1,1483,862,0,0
266,162,0,0,0,0,0,0,0,0,0,-1,1490,862,0,0
273,162,0,0,0,0,0,0,0,0,0,-1,1497,862,0,0
280,162,0,0,0,0,0,0,0,0,0,-1,1504,862,0,0
287,162,0,0,0,0,0,0,0,0,0,-1,1511,862,0,0
294,162,0,0,0,0,0,0,0,0,0,-1,1518,862,0,0
301,162,0,0,0,0,0,0,0,0,0,-1,1525,862,0,0
308,162,0,0,0,0,0,0,0,0,0,-1,1532,862,0,0
315,162,0,0,0,0,0,0,0,0,0,-1,1539,862,0,0
322,162,0,0,0,0,0,0,0,0,0,-1,1546,862,0,0
329,162,0,0,0,0,0,0,0,0,0,-1,1553,862,0,0
336,162,0,0,0,0,0,0,0,0,0,-1,1560,862,0,0
343,162,0,0,0,0,0,0,0,0,0,-1,1567,862,0,0
350,162,0,0,0,0,0,0,0,0,0,-1,1574,862,0,0
357,162,0,0,0,0,0,0,0,0,0,-1,1581,862,0,0
364,162,0,0,0,0,0,0,0,0,0,-1,1588,862,0,0
371,162,0,0,0,0,0,0,0,0,0,-1,1595,862,0,0
378,162,0,0,0,0,0,0,0,0,0,-1,1602,862,0,0
385,162,0,0,0,0,0,0,0,0,0,-1,1609,862,0,0
392,162,0,0,0,0,0,0,0,0,0,-1,1616,862,0,0
399,162,0,0,0,0,0,0,0,0,0,-1,1623,862,0,0
406,162,0,0,0,0,0,0,0,0,0,-1,1630,862,0,0
413,162,0,0,0,0,0,0,0,0,0,-1,1637,862,0,0
420,162,0,0,0,0,0,0,0,0,0,-1,1644,862,0,0
427,162,0,0,0,0,0,0,0,0,0,-1,1651,862,0,0
434,162,0,0,0,0,0,0,0,0,0,-1,1658,862,0,0
441,162,0,0,0,0,0,0,0,0,0,-1,1665,862,0,0
448,162,0,0,0,0,0,0,0,0,0,-1,1672,862,0,0
455,162,0,0,0,0,0,0,0,0,0,-1,1679,862,0,0
462,162,0,0,0,0,0,0,0,0,0,-1,1686,862,0,0
469,162,0,0,0,0,0,0,0,0,0,-1,1693,862,0,0
476,162,0,0,0,0,0,0,0,0,0,-1,1700,862,0,0
483,162,0,0,0,0,0,0,0,0,0,-1,1707,862,0,0
490,162,0,0,0,0,0,0,0,0,0,-1,1714,862,0,0
497,162,0,0,0,0,0,0,0,0,0,-1,1721,862,0,0
504,162,0,0,0,0,0,0,0,0,0,-1,1728,862,0,0
511,162,0,0,0,0,0,0,0,0,0,-1,1735,862,0,0
518,162,0,0,0,0,0,0,0,0,0,-1,1742,862,0,0
525,162,0,0,0,0,0,0,0,0,0,-1,1749,862,0,0
532,162,0,0,0,0,0,0,0,0,0,-1,1756,862,0,0
539,162,0,0,0,0,0,0,0,0,0,-1,1763,862,0,0
546,162,0,0,0,0,0,0,0,0,0,-1,1770,862,0,0
553,162,0,0,0,0,0,0,0,0,0,-1,1777,862,0,0
560,162,0,0,0,0,0,0,0,0,0,-1,1784,862,0,0
567,162,0,0,0,0,0,0,0,0,0,-1,1791,862,0,0
574,162,0,0,0,0,0,0,0,0,0,-1,1798,862,0,0
581,162,0,0,0,0,0,0,0,0,0,-1,1805,862,0,0
588,162,0,0,0,0,0,0,0,0,0,-1,1812,862,0,0
595,162,0,0,0,0,0,0,0,0,0,-1,1819,862,0,0
602,162,0,0,0,0,0,0,0,0,0,-1,1826,862,0,0
609,162,0,0,0,0,0,0,0,0,0,-1,1833,862,0,0
616,162,19.3854,2.50842,0,0,0,0,0,0,0,-1,1840,862,19.3853,-2.50841
623,162,19.1927,2.66077,0,0,0,0,0,0,0,-1,1847,862,19.1928,-2.66076
630,162,19.3771,2.55182,0.0004687,-0.00144888,-0.00244819,0.00213915,-0.00311933,-0.598762,0.00305352,0.042292,1854,862,19.3771,-2.55184
637,162,19.5681,2.3999,0.0016905,-0.00130314,-0.00198596,0.00268054,-0.00229318,-0.462465,0.00287448,0.038608,1861,862,19.5681,-2.39989
644,162,19.5358,2.48517,0.00147102,-0.00129521,-0.00182121,0.00237478,-0.00219897,-0.460638,0.00264131,0.0352551,1868,862,19.5358,-2.48519
651,162,19.5227,2.46008,0.000625409,-0.00132157,-0.00173509,0.00164145,-0.00233761,-0.529751,0.002309,0.0334009,1875,862,19.5227,-2.46006
658,162,19.5706,2.39075,-0.000311047,-0.00135902,-0.00167086,0.000916067,-0.00258613,-0.633454,0.00209723,0.0336903,1882,862,19.5706,-2.39073
665,162,19.626,2.33551,-0.00109676,-0.00123885,-0.00169874,0.00053242,-0.00286803,-0.764501,0.00211198,0.0403248,1889,862,19.626,-2.33554
672,162,19.4202,2.50208,-0.00190795,-0.00118662,-0.00168551,0.000176377,-0.00327095,-0.890799,0.00224174,0.0472017,1896,862,19.4202,-2.50209
679,162,17.9504,2.25323,0,0,0,0,0,0,0,-1,1903,862,17.9504,-2.25322
686,162,16.5454,2.27258,-0.0037824,-0.00101903,-0.00137514,-0.000451337,-0.00435009,-1.17928,0.00276193,0.0309372,1910,862,16.5454,-2.27256
693,162,16.5168,2.41669,-0.00426344,-0.000917596,-0.00144638,-0.000379028,-0.00480201,-1.21435,0.00308277,0.0167862,1917,862,16.5168,-2.4167
700,162,16.5503,2.56799,-0.00402134,-0.000731385,-0.00146747,-0.000171954,-0.00458077,-1.20658,0.00299817,0.0156505,1924,862,16.5503,-2.56802
707,162,16.5232,2.70648,-0.00363241,-0.000612241,-0.00119497,-0.00019663,-0.00404803,-1.23608,0.00263559,0.0117739,1931,862,16.5232,-2.70651
714,162,16.5114,2.85858,-0.00278663,-0.00035026,-0.000840163,-8.86319e-05,-0.00304826,-1.26891,0.00200328,0.0154739,1938,862,16.5114,-2.85859
721,162,16.4301,3.12195,-0.00106821,3.85234e-05,-0.000288701,0.000109306,-0.001139,-1.33036,0.000798265,0.0262431,1945,862,16.4301,-3.12196
728,162,16.4291,3.2547,0.00107252,0.000268778,0.00017591,0.00110934,0.000231964,0.2063,0.000675642,0.0204873,1952,862,16.4291,-3.25472
735,162,16.4873,3.41974,0.00201469,0.00198092,-4.5157e-05,0.00204602,0.00194959,-0.606486,0.00133303,0.0106945,1959,862,16.4873,-3.41974
742,162,16.485,3.56006,0.0021569,0.00407369,-0.000668468,0.00428378,0.0019468,-1.26628,0.00247666,0.0123086,1966,862,16.485,-3.56008
749,162,16.4828,3.66443,0.00211987,0.00654828,-0.00132277,0.00691331,0.00175484,-1.30154,0.00414951,0.0172012,1973,862,16.4828,-3.66442
756,162,16.5081,3.84674,0.000780882,0.010126,-0.00270693,0.0108535,5.34146e-05,-1.30826,0.00721792,0.0387581,1980,862,16.5081,-3.84673
763,162,16.5348,4.07104,0,0,0,0,0,0,0,-1,1987,862,16.5347,-4.07102
770,162,16.8721,4.36719,-0.00632291,0.0219274,-0.00843886,0.0242562,-0.00865177,-1.30153,0.0196986,0.0463857,1994,862,16.872,-4.3672
777,162,16.8683,4.48468,-0.0129968,0.0308995,-0.0134503,0.034693,-0.0167903,-1.2959,0.030317,0.0440015,2001,862,16.8683,-4.48471
784,162,16.7518,4.3877,-0.0224269,0.0424836,-0.0205099,0.048421,-0.0283643,-1.28901,0.0448333,0.04391,2008,862,16.7519,-4.38767
791,162,0,0,0,0,0,0,0,0,0,-1,2015,862,0,0
798,162,0,0,0,0,0,0,0,0,0,-1,2022,862,0,0
805,162,0,0,0,0,0,0,0,0,0,-1,2029,862,0,0
812,162,0,0,0,0,0,0,0,0,0,-1,2036,862,0,0
-700,155,0,0,0,0,0,0,0,0,0,-1,524,869,0,0
-693,155,0,0,0,0,0,0,0,0,0,-1,531,869,0,0
-686,155,0,0,0,0,0,0,0,0,0,-1,538,869,0,0
-679,155,0,0,0,0,0,0,0,0,0,-1,545,869,0,0
-672,155,0,0,0,0,0,0,0,0,0,-1,552,869,0,0
-665,155,-11.7509,0.420959,0.0272293,0.00773596,0.0178986,0.0378629,-0.00289772,0.536074,0.0262612,0.043019,559,869,-11.7509,-0.420954
-658,155,-11.3525,0.480408,0.02486,0.00573197,0.01868,0.036282,-0.00569006,0.548801,0.0262907,0.0455247,566,869,-11.3525,-0.48038
-651,155,-9.79956,-0.273499,0,0,0,0,0,0,0,-1,573,869,-9.79958,0.273489
-644,155,-9.89301,1.26715,0,0,0,0,0,0,0,-1,580,869,-9.89299,-1.26713
-637,155,-10.678,1.35175,0,0,0,0,0,0,0,-1,587,869,-10.678,-1.35172
-630,155,-10.6662,1.37531,0.00997066,0.00203317,0.0112041,0.0178881,-0.00588429,0.615182,0.0142964,0.0423115,594,869,-10.6662,-1.37531
-623,155,-10.6167,1.41882,0.00710443,0.00112684,0.00917807,0.0137681,-0.00553682,0.62799,0.0114784,0.0250794,601,869,-10.6167,-1.41884
-616,155,-10.6381,1.33282,0.00440965,0.001253,0.00760993,0.0106032,-0.00494056,0.683146,0.00917056,0.014228,608,869,-10.638,-1.33281
-609,155,-10.6672,1.16876,0.002297,0.000816262,0.00487699,0.0064895,-0.00337624,0.710069,0.00578975,0.0128187,615,869,-10.6672,-1.16877
-602,155,-10.6975,1.04565,-0.00039692,0.000413877,0.00345705,0.00348921,-0.00347226,0.843765,0.00401921,0.011443,622,869,-10.6975,-1.04568
-595,155,-10.6975,0.914795,-0.00294874,4.58407e-05,0.00272993,0.00166214,-0.00456503,1.03623,0.0037232,0.0100773,629,869,-10.6975,-0.914766
-588,155,-10.6774,0.769836,-0.00508447,-0.000108328,0.00232981,0.000812195,-0.006005,1.19452,0.00429971,0.0116496,636,869,-10.6774,-0.769854
-581,155,-10.761,0.619141,-0.00643326,-0.00060503,0.00255623,0.000357245,-0.00739554,1.21076,0.00505365,0.0171035,643,869,-10.761,-0.619138
-574,155,-10.8081,0.49231,-0.00786313,-0.00079001,0.00275193,0.000154543,-0.00880768,1.24016,0.00592398,0.0223022,650,869,-10.8081,-0.492306
-567,155,-10.7619,0.28418,-0.00915806,-0.000740669,0.00306196,0.000255315,-0.010154,1.25631,0.00685605,0.0222151,657,869,-10.7619,-0.284157
-560,155,-10.7134,0.115234,-0.0102698,-0.00044864,0.00329061,0.000551949,-0.0112704,1.27561,0.00770418,0.0211056,664,869,-10.7134,-0.115235
-553,155,-11.3795,0.0537109,0,0,0,0,0,0,0,-1,671,869,-11.3795,-0.0537073
-546,155,-12.8826,0.396667,0,0,0,0,0,0,0,-1,678,869,-12.8826,-0.396649
-539,155,-12.9249,0.311279,-0.0115935,0.000576276,0.00327347,0.00140091,-0.0124181,1.32402,0.00878304,0.0434808,685,869,-12.9249,-0.311273
-532,155,-12.8475,0.436157,-0.0106966,0.00107016,0.00283703,0.00171847,-0.0113449,1.34614,0.00819633,0.0363582,692,869,-12.8475,-0.436136
-525,155,-12.8325,0.550964,-0.00878785,0.001566,0.00195146,0.00192159,-0.00914344,1.39056,0.00682691,0.0386035,699,869,-12.8325,-0.550959
-518,155,-13.0214,0.803162,-0.00541293,0.00188045,0.000503888,0.00191509,-0.00544757,1.50214,0.00441091,0.0415696,706,869,-13.0214,-0.803133
-511,155,-13.1146,1.11218,-0.000269699,0.00174425,-0.00162209,0.0026465,-0.00117196,-1.06318,0.00225872,0.044521,713,869,-13.1146,-1.11217
-504,155,-13.1057,1.17108,0.00677339,0.000939763,-0.00436708,0.00910817,-0.00139501,-0.490967,0.00658654,0.0473352,720,869,-13.1056,-1.17105
-497,155,0,0,0,0,0,0,0,0,0,-1,727,869,0,0
-490,155,0,0,0,0,0,0,0,0,0,-1,734,869,0,0
-483,155,0,0,0,0,0,0,0,0,0,-1,741,869,0,0
-476,155,0,0,0,0,0,0,0,0,0,-1,748,869,0,0
-469,155,0,0,0,0,0,0,0,0,0,-1,755,869,0,0
-462,155,0,0,0,0,0,0,0,0,0,-1,762,869,0,0
-455,155,0,0,0,0,0,0,0,0,0,-1,769,869,0,0
-448,155,0,0,0,0,0,0,0,0,0,-1,776,869,0,0
-441,155,0,0,0,0,0,0,0,0,0,-1,783,869,0,0
-434,155,0,0,0,0,0,0,0,0,0,-1,790,869,0,0
-427,155,0,0,0,0,0,0,0,0,0,-1,797,869,0,0
-420,155,0,0,0,0,0,0,0,0,0,-1,804,869,0,0
-413,155,0,0,0,0,0,0,0,0,0,-1,811,869,0,0
-406,155,0,0,0,0,0,0,0,0,0,-1,818,869,0,0
-399,155,0,0,0,0,0,0,0,0,0,-1,825,869,0,0
-392,155,0,0,0,0,0,0,0,0,0,-1,832,869,0,0
-385,155,0,0,0,0,0,0,0,0,0,-1,839,869,0,0
-378,155,0,0,0,0,0,0,0,0,0,-1,846,869,0,0
-371,155,0,0,0,0,0,0,0,0,0,-1,853,869,0,0
-364,155,0,0,0,0,0,0,0,0,0,-1,860,869,0,0
-357,155,0,0,0,0,0,0,0,0,0,-1,867,869,0,0
-350,155,0,0,0,0,0,0,0,0,0,-1,874,869,0,0
-343,155,0,0,0,0,0,0,0,0,0,-1,881,869,0,0
-336,155,0,0,0,0,0,0,0,0,0,-1,888,869,0,0
-329,155,0,0,0,0,0,0,0,0,0,-1,895,869,0,0
-322,155,0,0,0,0,0,0,0,0,0,-1,902,869,0,0
-315,155,0,0,0,0,0,0,0,0,0,-1,909,869,0,0
-308,155,0,0,0,0,0,0,0,0,0,-1,916,869,0,0
-301,155,0,0,0,0,0,0,0,0,0,-1,923,869,0,0
-294,155,0,0,0,0,0,0,0,0,0,-1,930,869,0,0
-287,155,0,0,0,0,0,0,0,0,0,-1,937,869,0,0
-280,155,0,0,0,0,0,0,0,0,0,-1,944,869,0,0
-273,155,0,0,0,0,0,0,0,0,0,-1,951,869,0,0
-266,155,0,0,0,0,0,0,0,0,0,-1,958,869,0,0
-259,155,0,0,0,0,0,0,0,0,0,-1,965,869,0,0
-252,155,0,0,0,0,0,0,0,0,0,-1,972,869,0,0
-245,155,0,0,0,0,0,0,0,0,0,-1,979,869,0,0
-238,155,0,0,0,0,0,0,0,0,0,-1,986,869,0,0
-231,155,0,0,0,0,0,0,0,0,0,-1,993,869,0,0
-224,155,0,0,0,0,0,0,0,0,0,-1,1000,869,0,0
-217,155,0,0,0,0,0,0,0,0,0,-1,1007,869,0,0
-210,155,0,0,0,0,0,0,0,0,0,-1,1014,869,0,0
-203,155,0,0,0,0,0,0,0,0,0,-1,1021,869,0,0
-196,155,0,0,0,0,0,0,0,0,0,-1,1028,869,0,0
-189,155,0,0,0,0,0,0,0,0,0,-1,1035,869,0,0
-182,155,0,0,0,0,0,0,0,0,0,-1,1042,869,0,0
-175,155,0,0,0,0,0,0,0,0,0,-1,1049,869,0,0
-168,155,0,0,0,0,0,0,0,0,0,-1,1056,869,0,0
-161,155,0,0,0,0,0,0,0,0,0,-1,1063,869,0,0
-154,155,0,0,0,0,0,0,0,0,0,-1,1070,869,0,0
-147,155,0,0,0,0,0,0,0,0,0,-1,1077,869,0,0
-140,155,0,0,0,0,0,0,0,0,0,-1,1084,869,0,0
-133,155,0,0,0,0,0,0,0,0,0,-1,1091,869,0,0
-126,155,0,0,0,0,0,0,0,0,0,-1,1098,869,0,0
-119,155,0,0,0,0,0,0,0,0,0,-1,1105,869,0,0
-112,155,0,0,0,0,0,0,0,0,0,-1,1112,869,0,0
-105,155,0,0,0,0,0,0,0,0,0,-1,1119,869,0,0
-98,155,0,0,0,0,0,0,0,0,0,-1,1126,869,0,0
-91,155,0,0,0,0,0,0,0,0,0,-1,1133,869,0,0
-84,155,0,0,0,0,0,0,0,0,0,-1,1140,869,0,0
-77,155,0,0,0,0,0,0,0,0,0,-1,1147,869,0,0
-70,155,0,0,0,0,0,0,0,0,0,-1,1154,869,0,0
-63,155,0,0,0,0,0,0,0,0,0,-1,1161,869,0,0
-56,155,0,0,0,0,0,0,0,0,0,-1,1168,869,0,0
-49,155,0,0,0,0,0,0,0,0,0,-1,1175,869,0,0
-42,155,0,0,0,0,0,0,0,0,0,-1,1182,869,0,0
-35,155,0,0,0,0,0,0,0,0,0,-1,1189,869,0,0
-28,155,0,0,0,0,0,0,0,0,0,-1,1196,869,0,0
-21,155,0,0,0,0,0,0,0,0,0,-1,1203,869,0,0
-14,155,0,0,0,0,0,0,0,0,0,-1,1210,869,0,0
-7,155,0,0,0,0,0,0,0,0,0,-1,1217,869,0,0
0,155,0,0,0,0,0,0,0,0,0,-1,1224,869,0,0
7,155,0,0,0,0,0,0,0,0,0,-1,1231,869,0,0
14,155,0,0,0,0,0,0,0,0,0,-1,1238,869,0,0
21,155,0,0,0,0,0,0,0,0,0,-1,1245,869,0,0
28,155,0,0,0,0,0,0,0,0,0,-1,1252,869,0,0
35,155,0,0,0,0,0,0,0,0,0,-1,1259,869,0,0
42,155,0,0,0,0,0,0,0,0,0,-1,1266,869,0,0
49,155,0,0,0,0,0,0,0,0,0,-1,1273,869,0,0
56,155,0,0,0,0,0,0,0,0,0,-1,1280,869,0,0
63,155,0,0,0,0,0,0,0,0,0,-1,1287,869,0,0
70,155,0,0,0,0,0,0,0,0,0,-1,1294,869,0,0
77,155,0,0,0,0,0,0,0,0,0,-1,1301,869,0,0
84,155,0,0,0,0,0,0,0,0,0,-1,1308,869,0,0
91,155,0,0,0,0,0,0,0,0,0,-1,1315,869,0,0
98,155,0,0,0,0,0,0,0,0,0,-1,1322,869,0,0
105,155,0,0,0,0,0,0,0,0,0,-1,1329,869,0,0
112,155,0,0,0,0,0,0,0,0,0,-1,1336,869,0,0
119,155,0,0,0,0,0,0,0,0,0,-1,1343,869,0,0
126,155,0,0,0,0,0,0,0,0,0,-1,1350,869,0,0
133,155,0,0,0,0,0,0,0,0,0,-1,1357,869,0,0
140,155,0,0,0,0,0,0,0,0,0,-1,1364,869,0,0
147,155,0,0,0,0,0,0,0,0,0,-1,1371,869,0,0
154,155,0,0,0,0,0,0,0,0,0,-1,1378,869,0,0
161,155,0,0,0,0,0,0,0,0,0,-1,1385,869,0,0
168,155,0,0,0,0,0,0,0,0,0,-1,1392,869,0,0
175,155,0,0,0,0,0,0,0,0,0,-1,1399,869,0,0
182,155,0,0,0,0,0,0,0,0,0,-1,1406,869,0,0
189,155,0,0,0,0,0,0,0,0,0,-1,1413,869,0,0
196,155,0,0,0,0,0,0,0,0,0,-1,1420,869,0,0
203,155,0,0,0,0,0,0,0,0,0,-1,1427,869,0,0
210,155,0,0,0,0,0,0,0,0,0,-1,1434,869,0,0
217,155,0,0,0,0,0,0,0,0,0,-1,1441,869,0,0
224,155,0,0,0,0,0,0,0,0,0,-1,1448,869,0,0
231,155,0,0,0,0,0,0,0,0,0,-1,1455,869,0,0
238,155,0,0,0,0,0,0,0,0,0,-1,1462,869,0,0
245,155,0,0,0,0,0,0,0,0,0,-1,1469,869,0,0
252,155,0,0,0,0,0,0,0,0,0,-1,1476,869,0,0
259,155,0,0,0,0,0,0,0,0,0,-1,1483,869,0,0
266,155,0,0,0,0,0,0,0,0,0,-1,1490,869,0,0
273,155,0,0,0,0,0,0,0,0,0,-1,1497,869,0,0
280,155,0,0,0,0,0,0,0,0,0,-1,1504,869,0,0
287,155,0,0,0,0,0,0,0,0,0,-1,1511,869,0,0
294,155,0,0,0,0,0,0,0,0,0,-1,1518,869,0,0
301,155,0,0,0,0,0,0,0,0,0,-1,1525,869,0,0
308,155,0,0,0,0,0,0,0,0,0,-1,1532,869,0,0
315,155,0,0,0,0,0,0,0,0,0,-1,1539,869,0,0
322,155,0,0,0,0,0,0,0,0,0,-1,1546,869,0,0
329,155,0,0,0,0,0,0,0,0,0,-1,1553,869,0,0
336,155,0,0,0,0,0,0,0,0,0,-1,1560,869,0,0
343,155,0,0,0,0,0,0,0,0,0,-1,1567,869,0,0
350,155,0,0,0,0,0,0,0,0,0,-1,1574,869,0,0
357,155,0,0,0,0,0,0,0,0,0,-1,1581,869,0,0
364,155,0,0,0,0,0,0,0,0,0,-1,1588,869,0,0
371,155,0,0,0,0,0,0,0,0,0,-1,1595,869,0,0
378,155,0,0,0,0,0,0,0,0,0,-1,1602,869,0,0
385,155,0,0,0,0,0,0,0,0,0,-1,1609,869,0,0
392,155,0,0,0,0,0,0,0,0,0,-1,1616,869,0,0
399,155,0,0,0,0,0,0,0,0,0,-1,1623,869,0,0
406,155,0,0,0,0,0,0,0,0,0,-1,1630,869,0,0
413,155,0,0,0,0,0,0,0,0,0,-1,1637,869,0,0
420,155,0,0,0,0,0,0,0,0,0,-1,1644,869,0,0
427,155,0,0,0,0,0,0,0,0,0,-1,1651,869,0,0
434,155,0,0,0,0,0,0,0,0,0,-1,1658,869,0,0
441,155,0,0,0,0,0,0,0,0,0,-1,1665,869,0,0
448,155,0,0,0,0,0,0,0,0,0,-1,1672,869,0,0
455,155,0,0,0,0,0,0,0,0,0,-1,1679,869,0,0
462,155,0,0,0,0,0,0,0,0,0,-1,1686,869,0,0
469,155,0,0,0,0,0,0,0,0,0,-1,1693,869,0,0
476,155,0,0,0,0,0,0,0,0,0,-1,1700,869,0,0
483,155,0,0,0,0,0,0,0,0,0,-1,1707,869,0,0
490,155,0,0,0,0,0,0,0,0,0,-1,1714,869,0,0
497,155,0,0,0,0,0,0,0,0,0,-1,1721,869,0,0
504,155,0,0,0,0,0,0,0,0,0,-1,1728,869,0,0
511,155,0,0,0,0,0,0,0,0,0,-1,1735,869,0,0
518,155,0,0,0,0,0,0,0,0,0,-1,1742,869,0,0
525,155,0,0,0,0,0,0,0,0,0,-1,1749,869,0,0
532,155,0,0,0,0,0,0,0,0,0,-1,1756,869,0,0
539,155,0,0,0,0,0,0,0,0,0,-1,1763,869,0,0
546,155,0,0,0,0,0,0,0,0,0,-1,1770,869,0,0
553,155,0,0,0,0,0,0,0,0,0,-1,1777,869,0,0
560,155,0,0,0,0,0,0,0,0,0,-1,1784,869,0,0
567,155,0,0,0,0,0,0,0,0,0,-1,1791,869,0,0
574,155,0,0,0,0,0,0,0,0,0,-1,1798,869,0,0
581,155,0,0,0,0,0,0,0,0,0,-1,1805,869,0,0
588,155,0,0,0,0,0,0,0,0,0,-1,1812,869,0,0
595,155,0,0,0,0,0,0,0,0,0,-1,1819,869,0,0
602,155,0,0,0,0,0,0,0,0,0,-1,1826,869,0,0
609,155,0,0,0,0,0,0,0,0,0,-1,1833,869,0,0
616,155,19.642,2.20343,0,0,0,0,0,0,0,-1,1840,869,19.642,-2.20343
623,155,19.4166,2.22308,-0.002061,-0.00224617,-0.00374766,0.00159523,-0.00590239,-0.773048,0.00456063,0.0456711,1847,869,19.4167,-2.22309
630,155,19.4159,2.36871,0.000148932,-0.00168564,-0.00293695,0.00230851,-0.00384522,-0.634035,0.0035896,0.0450441,1854,869,19.4159,-2.3687
637,155,19.4941,2.29547,0.00138314,-0.00130171,-0.00229574,0.00270014,-0.00261871,-0.520835,0.00307096,0.0406009,1861,869,19.4942,-2.29546
644,155,19.4813,2.47778,0.00112979,-0.00117524,-0.00197371,0.00226284,-0.00230829,-0.521136,0.00263919,0.0363618,1868,869,19.4814,-2.47777
651,155,19.5714,2.38104,6.96216e-05,-0.00114128,-0.00182463,0.00138663,-0.00245828,-0.625203,0.00224842,0.0336781,1875,869,19.5714,-2.38103
658,155,19.5958,2.35016,-0.00108351,-0.00117157,-0.00174218,0.000615194,-0.00287028,-0.772764,0.00214815,0.0281176,1882,869,19.5958,-2.35017
665,155,19.571,2.35846,-0.00205763,-0.00107881,-0.00175048,0.000249388,-0.00338583,-0.92171,0.00234477,0.0319439,1889,869,19.571,-2.35848
672,155,19.5806,2.39264,-0.00301993,-0.00105605,-0.00172158,-5.60603e-05,-0.00401992,-1.04457,0.00266145,0.0388769,1896,869,19.5806,-2.39263
679,155,19.6322,2.41321,0,0,0,0,0,0,0,-1,1903,869,19.6322,-2.4132
686,155,16.7198,2.25427,0,0,0,0,0,0,0,-1,1910,869,16.7199,-2.25426
693,155,16.6501,2.42535,-0.00548154,-0.00082497,-0.00149831,-0.000384527,-0.00592198,-1.28489,0.00382626,0.0215642,1917,869,16.6502,-2.42537
700,155,16.715,2.57281,-0.0053036,-0.000688267,-0.00151783,-0.000233845,-0.00575802,-1.2799,0.00376315,0.0169948,1924,869,16.7149,-2.5728
707,155,16.7711,2.77759,-0.00492628,-0.000572214,-0.00126795,-0.000229886,-0.00526861,-1.3071,0.00343834,0.0129281,1931,869,16.7711,-2.77758
714,155,16.7415,2.90021,-0.00415786,-0.000304417,-0.000972925,-7.27037e-05,-0.00438957,-1.33699,0.00290245,0.0216247,1938,869,16.7414,-2.90023
721,155,16.6517,3.08722,-0.00257636,0.000120187,-0.000509839,0.000213364,-0.00266954,-1.39004,0.00185491,0.0253701,1945,869,16.6517,-3.08724
728,155,16.6312,3.25867,-0.000502778,0.000414862,-0.000105874,0.000426919,-0.000514835,-1.45741,0.000544511,0.0198265,1952,869,16.6312,-3.25866
735,155,16.6415,3.39459,0.000152116,0.0022996,-0.000494889,0.00240816,4.35566e-05,-1.35486,0.00159112,0.0147988,1959,869,16.6414,-3.3946
742,155,16.6519,3.5498,-0.000194135,0.00460009,-0.00142052,0.00498937,-0.000583424,-1.30332,0.0035368,0.0158523,1966,869,16.6518,-3.54978
749,155,16.642,3.70703,-0.000676434,0.00727148,-0.00234373,0.00791113,-0.00131609,-1.30436,0.00576309,0.0140305,1973,869,16.642,-3.70706
756,155,16.6604,3.89728,-0.00274059,0.0110736,-0.0041182,0.0122081,-0.0038751,-1.30198,0.00969221,0.0246063,1980,869,16.6604,-3.8973
763,155,16.752,4.13226,-0.00632645,0.0162768,-0.00684451,0.0181878,-0.00823747,-1.29852,0.015613,0.0440537,1987,869,16.752,-4.13227
770,155,17.0029,4.36877,-0.011702,0.0232105,-0.0107954,0.0262789,-0.0147704,-1.29387,0.0240083,0.0463336,1994,869,17.0029,-4.36877
777,155,17.2411,4.61542,-0.0193455,0.0321868,-0.0162957,0.0369075,-0.0240661,-1.28883,0.0354624,0.043107,2001,869,17.2411,-4.6154
784,155,17.4089,4.72076,0,0,0,0,0,0,0,-1,2008,869,17.4089,-4.72078
791,155,0,0,0,0,0,0,0,0,0,-1,2015,869,0,0
798,155,0,0,0,0,0,0,0,0,0,-1,2022,869,0,0
805,155,0,0,0,0,0,0,0,0,0,-1,2029,869,0,0
812,155,0,0,0,0,0,0,0,0,0,-1,2036,869,0,0
-700,148,0,0,0,0,0,0,0,0,0,-1,524,876,0,0
-693,148,0,0,0,0,0,0,0,0,0,-1,531,876,0,0
-686,148,0,0,0,0,0,0,0,0,0,-1,538,876,0,0
-679,148,0,0,0,0,0,0,0,0,0,-1,545,876,0,0
-672,148,-13.0045,0.362,0.0238276,0.0114989,0.0136219,0.032615,0.00271141,0.57292,0.0208983,0.045038,552,876,-13.0045,-0.36202
-665,148,-12.2697,0.34491,0.0243042,0.00767643,0.0172026,0.0350966,-0.00311594,0.560301,0.0245025,0.0470142,559,876,-12.2697,-0.344903
-658,148,-11.6465,0.362549,0.0225159,0.00514822,0.0180648,0.0338757,-0.00621155,0.561352,0.0249138,0.0474603,566,876,-11.6465,-0.362527
-651,148,-10.7664,0.305603,0.0196334,0.00345134,0.0173291,0.0306673,-0.00758251,0.566986,0.0233858,0.0439422,573,876,-10.7663,-0.305605
-644,148,-10.0368,0.47052,0.0162786,0.00231657,0.0156859,0.0264668,-0.00787159,0.576032,0.0207717,0.04294,580,876,-10.0368,-0.470524
-637,148,-10.666,1.18469,0,0,0,0,0,0,0,-1,587,876,-10.666,-1.18467
-630,148,-10.6725,1.30176,0.0093419,0.00108583,0.0112663,0.0172126,-0.00678489,0.609791,0.0142843,0.0429897,594,876,-10.6725,-1.30176
-623,148,-10.6865,1.45819,0.00674524,0.000217106,0.0093799,0.0134128,-0.00645042,0.617959,0.0117005,0.0214189,601,876,-10.6865,-1.45822
-616,148,-10.7758,1.32526,0.00415701,0.000509465,0.00779741,0.0103411,-0.00567462,0.670516,0.00937659,0.0128988,608,876,-10.7758,-1.32527
-609,148,-10.8223,1.18396,0.00199187,0.000179877,0.00505267,0.00621913,-0.00404738,0.696686,0.00597141,0.0113672,615,876,-10.8223,-1.18398
-602,148,-10.853,1.0376,-0.000892754,-2.01761e-05,0.00360511,0.00317495,-0.00408788,0.845615,0.00420422,0.011183,622,876,-10.853,-1.03762
-595,148,-10.8529,0.904846,-0.00354408,-0.000229166,0.0027714,0.00134259,-0.00511583,1.05489,0.00393518,0.00959396,629,876,-10.8529,-0.904866
-588,148,-10.8459,0.745117,-0.00566008,-0.000271753,0.00230375,0.000578909,-0.00651074,1.21708,0.00454577,0.0125189,636,876,-10.846,-0.745113
-581,148,-10.9089,0.620911,-0.00700908,-0.000644103,0.00245451,0.000192469,-0.00784565,1.24231,0.00529576,0.0200558,643,876,-10.9088,-0.620911
-574,148,-10.8148,0.482971,-0.00834269,-0.000802644,0.0025976,5.60842e-06,-0.00915094,1.26914,0.00610249,0.025119,650,876,-10.8148,-0.482968
-567,148,-10.8765,0.303406,-0.00946029,-0.000755749,0.00286989,0.000105283,-0.0103213,1.27932,0.00691624,0.0296556,657,876,-10.8765,-0.303391
-560,148,-10.7167,0.0770264,0,0,0,0,0,0,0,-1,664,876,-10.7167,-0.0770093
-553,148,-11.6685,0.310486,-0.0111133,1.66498e-05,0.00329049,0.00091668,-0.0120133,1.3038,0.00833126,0.0377518,671,876,-11.6684,-0.310474
-546,148,-12.8271,0.508667,-0.0114684,0.000320153,0.00338821,0.00122458,-0.0123729,1.30994,0.00868559,0.046314,678,876,-12.8271,-0.508638
-539,148,-12.8812,0.438477,-0.0110156,0.000668454,0.00324696,0.00151014,-0.0118573,1.31716,0.00845334,0.0378109,685,876,-12.8812,-0.438503
-532,148,-12.8414,0.444519,-0.00980142,0.00131325,0.00285544,0.00200391,-0.0104921,1.33348,0.00774954,0.0381488,692,876,-12.8414,-0.444527
-525,148,-12.8157,0.576111,-0.00745163,0.00201453,0.00198185,0.00241271,-0.0078498,1.37253,0.00619605,0.038791,699,876,-12.8157,-0.576114
-518,148,-12.9948,0.671875,-0.00348752,0.00266149,0.000443502,0.00269332,-0.00351934,1.49916,0.00359743,0.0420272,706,876,-12.9948,-0.67187
-511,148,-13.03,0.908875,0.00219968,0.0030327,-0.00191655,0.00457748,0.0006549,-0.892395,0.00285847,0.0420423,713,876,-13.03,-0.90886
-504,148,-12.9737,1.14807,0.00957101,0.00298968,-0.00500872,0.0122733,0.000287368,-0.494762,0.00808813,0.0451454,720,876,-12.9737,-1.14807
-497,148,0,0,0,0,0,0,0,0,0,-1,727,876,0,0
-490,148,0,0,0,0,0,0,0,0,0,-1,734,876,0,0
-483,148,0,0,0,0,0,0,0,0,0,-1,741,876,0,0
-476,148,0,0,0,0,0,0,0,0,0,-1,748,876,0,0
-469,148,0,0,0,0,0,0,0,0,0,-1,755,876,0,0
-462,148,0,0,0,0,0,0,0,0,0,-1,762,876,0,0
-455,148,0,0,0,0,0,0,0,0,0,-1,769,876,0,0
-448,148,0,0,0,0,0,0,0,0,0,-1,776,876,0,0
-441,148,0,0,0,0,0,0,0,0,0,-1,783,876,0,0
-434,148,0,0,0,0,0,0,0,0,0,-1,790,876,0,0
-427,148,0,0,0,0,0,0,0,0,0,-1,797,876,0,0
-420,148,0,0,0,0,0,0,0,0,0,-1,804,876,0,0
-413,148,0,0,0,0,0,0,0,0,0,-1,811,876,0,0
-406,148,0,0,0,0,0,0,0,0,0,-1,818,876,0,0
-399,148,0,0,0,0,0,0,0,0,0,-1,825,876,0,0
-392,148,0,0,0,0,0,0,0,0,0,-1,832,876,0,0
-385,148,0,0,0,0,0,0,0,0,0,-1,839,876,0,0
-378,148,0,0,0,0,0,0,0,0,0,-1,846,876,0,0
-371,148,0,0,0,0,0,0,0,0,0,-1,853,876,0,0
-364,148,0,0,0,0,0,0,0,0,0,-1,860,876,0,0
-357,148,0,0,0,0,0,0,0,0,0,-1,867,876,0,0
-350,148,0,0,0,0,0,0,0,0,0,-1,874,876,0,0
-343,148,0,0,0,0,0,0,0,0,0,-1,881,876,0,0
-336,148,0,0,0,0,0,0,0,0,0,-1,888,876,0,0
-329,148,0,0,0,0,0,0,0,0,0,-1,895,876,0,0
-322,148,0,0,0,0,0,0,0,0,0,-1,902,876,0,0
-315,148,0,0,0,0,0,0,0,0,0,-1,909,876,0,0
-308,148,0,0,0,0,0,0,0,0,0,-1,916,876,0,0
-301,148,0,0,0,0,0,0,0,0,0,-1,923,876,0,0
-294,148,0,0,0,0,0,0,0,0,0,-1,930,876,0,0
-287,148,0,0,0,0,0,0,0,0,0,-1,937,876,0,0
-280,148,0,0,0,0,0,0,0,0,0,-1,944,876,0,0
-273,148,0,0,0,0,0,0,0,0,0,-1,951,876,0,0
-266,148,0,0,0,0,0,0,0,0,0,-1,958,876,0,0
-259,148,0,0,0,0,0,0,0,0,0,-1,965,876,0,0
-252,148,0,0,0,0,0,0,0,0,0,-1,972,876,0,0
-245,148,0,0,0,0,0,0,0,0,0,-1,979,876,0,0
-238,148,0,0,0,0,0,0,0,0,0,-1,986,876,0,0
-231,148,0,0,0,0,0,0,0,0,0,-1,993,876,0,0
-224,148,0,0,0,0,0,0,0,0,0,-1,1000,876,0,0
-217,148,0,0,0,0,0,0,0,0,0,-1,1007,876,0,0
-210,148,0,0,0,0,0,0,0,0,0,-1,1014,876,0,0
-203,148,0,0,0,0,0,0,0,0,0,-1,1021,876,0,0
-196,148,0,0,0,0,0,0,0,0,0,-1,1028,876,0,0
-189,148,0,0,0,0,0,0,0,0,0,-1,1035,876,0,0
-182,148,0,0,0,0,0,0,0,0,0,-1,1042,876,0,0
-175,148,0,0,0,0,0,0,0,0,0,-1,1049,876,0,0
-168,148,0,0,0,0,0,0,0,0,0,-1,1056,876,0,0
-161,148,0,0,0,0,0,0,0,0,0,-1,1063,876,0,0
-154,148,0,0,0,0,0,0,0,0,0,-1,1070,876,0,0
-147,148,0,0,0,0,0,0,0,0,0,-1,1077,876,0,0
-140,148,0,0,0,0,0,0,0,0,0,-1,1084,876,0,0
-133,148,0,0,0,0,0,0,0,0,0,-1,1091,876,0,0
-126,148,0,0,0,0,0,0,0,0,0,-1,1098,876,0,0
-119,148,0,0,0,0,0,0,0,0,0,-1,1105,876,0,0
-112,148,0,0,0,0,0,0,0,0,0,-1,1112,876,0,0
-105,148,0,0,0,0,0,0,0,0,0,-1,1119,876,0,0
-98,148,0,0,0,0,0,0,0,0,0,-1,1126,876,0,0
-91,148,0,0,0,0,0,0,0,0,0,-1,1133,876,0,0
-84,148,0,0,0,0,0,0,0,0,0,-1,1140,876,0,0
-77,148,0,0,0,0,0,0,0,0,0,-1,1147,876,0,0
-70,148,0,0,0,0,0,0,0,0,0,-1,1154,876,0,0
-63,148,0,0,0,0,0,0,0,0,0,-1,1161,876,0,0
-56,148,0,0,0,0,0,0,0,0,0,-1,1168,876,0,0
-49,148,0,0,0,0,0,0,0,0,0,-1,1175,876,0,0
-42,148,0,0,0,0,0,0,0,0,0,-1,1182,876,0,0
-35,148,0,0,0,0,0,0,0,0,0,-1,1189,876,0,0
-28,148,0,0,0,0,0,0,0,0,0,-1,1196,876,0,0
-21,148,0,0,0,0,0,0,0,0,0,-1,1203,876,0,0
-14,148,0,0,0,0,0,0,0,0,0,-1,1210,876,0,0
-7,148,0,0,0,0,0,0,0,0,0,-1,1217,876,0,0
0,148,0,0,0,0,0,0,0,0,0,-1,1224,876,0,0
7,148,0,0,0,0,0,0,0,0,0,-1,1231,876,0,0
14,148,0,0,0,0,0,0,0,0,0,-1,1238,876,0,0
21,148,0,0,0,0,0,0,0,0,0,-1,1245,876,0,0
28,148,0,0,0,0,0,0,0,0,0,-1,1252,876,0,0
35,148,0,0,0,0,0,0,0,0,0,-1,1259,876,0,0
42,148,0,0,0,0,0,0,0,0,0,-1,1266,876,0,0
49,148,0,0,0,0,0,0,0,0,0,-1,1273,876,0,0
56,148,0,0,0,0,0,0,0,0,0,-1,1280,876,0,0
63,148,0,0,0,0,0,0,0,0,0,-1,1287,876,0,0
70,148,0,0,0,0,0,0,0,0,0,-1,1294,876,0,0
77,148,0,0,0,0,0,0,0,0,0,-1,1301,876,0,0
84,148,0,0,0,0,0,0,0,0,0,-1,1308,876,0,0
91,148,0,0,0,0,0,0,0,0,0,-1,1315,876,0,0
98,148,0,0,0,0,0,0,0,0,0,-1,1322,876,0,0
105,148,0,0,0,0,0,0,0,0,0,-1,1329,876,0,0
112,148,0,0,0,0,0,0,0,0,0,-1,1336,876,0,0
119,148,0,0,0,0,0,0,0,0,0,-1,1343,876,0,0
126,148,0,0,0,0,0,0,0,0,0,-1,1350,876,0,0
133,148,0,0,0,0,0,0,0,0,0,-1,1357,876,0,0
140,148,0,0,0,0,0,0,0,0,0,-1,1364,876,0,0
147,148,0,0,0,0,0,0,0,0,0,-1,1371,876,0,0
154,148,0,0,0,0,0,0,0,0,0,-1,1378,876,0,0
161,148,0,0,0,0,0,0,0,0,0,-1,1385,876,0,0
168,148,0,0,0,0,0,0,0,0,0,-1,1392,876,0,0
175,148,0,0,0,0,0,0,0,0,0,-1,1399,876,0,0
182,148,0,0,0,0,0,0,0,0,0,-1,1406,876,0,0
189,148,0,0,0,0,0,0,0,0,0,-1,1413,876,0,0
196,148,0,0,0,0,0,0,0,0,0,-1,1420,876,0,0
203,148,0,0,0,0,0,0,0,0,0,-1,1427,876,0,0
210,148,0,0,0,0,0,0,0,0,0,-1,1434,876,0,0
217,148,0,0,0,0,0,0,0,0,0,-1,1441,876,0,0
224,148,0,0,0,0,0,0,0,0,0,-1,1448,876,0,0
231,148,0,0,0,0,0,0,0,0,0,-1,1455,876,0,0
238,148,0,0,0,0,0,0,0,0,0,-1,1462,876,0,0
245,148,0,0,0,0,0,0,0,0,0,-1,1469,876,0,0
252,148,0,0,0,0,0,0,0,0,0,-1,1476,876,0,0
259,148,0,0,0,0,0,0,0,0,0,-1,1483,876,0,0
266,148,0,0,0,0,0,0,0,0,0,-1,1490,876,0,0
273,148,0,0,0,0,0,0,0,0,0,-1,1497,876,0,0
280,148,0,0,0,0,0,0,0,0,0,-1,1504,876,0,0
287,148,0,0,0,0,0,0,0,0,0,-1,1511,876,0,0
294,148,0,0,0,0,0,0,0,0,0,-1,1518,876,0,0
301,148,0,0,0,0,0,0,0,0,0,-1,1525,876,0,0
308,148,0,0,0,0,0,0,0,0,0,-1,1532,876,0,0
315,148,0,0,0,0,0,0,0,0,0,-1,1539,876,0,0
322,148,0,0,0,0,0,0,0,0,0,-1,1546,876,0,0
329,148,0,0,0,0,0,0,0,0,0,-1,1553,876,0,0
336,148,0,0,0,0,0,0,0,0,0,-1,1560,876,0,0
343,148,0,0,0,0,0,0,0,0,0,-1,1567,876,0,0
350,148,0,0,0,0,0,0,0,0,0,-1,1574,876,0,0
357,148,0,0,0,0,0,0,0,0,0,-1,1581,876,0,0
364,148,0,0,0,0,0,0,0,0,0,-1,1588,876,0,0
371,148,0,0,0,0,0,0,0,0,0,-1,1595,876,0,0
378,148,0,0,0,0,0,0,0,0,0,-1,1602,876,0,0
385,148,0,0,0,0,0,0,0,0,0,-1,1609,876,0,0
392,148,0,0,0,0,0,0,0,0,0,-1,1616,876,0,0
399,148,0,0,0,0,0,0,0,0,0,-1,1623,876,0,0
406,148,0,0,0,0,0,0,0,0,0,-1,1630,876,0,0
413,148,0,0,0,0,0,0,0,0,0,-1,1637,876,0,0
420,148,0,0,0,0,0,0,0,0,0,-1,1644,876,0,0
427,148,0,0,0,0,0,0,0,0,0,-1,1651,876,0,0
434,148,0,0,0,0,0,0,0,0,0,-1,1658,876,0,0
441,148,0,0,0,0,0,0,0,0,0,-1,1665,876,0,0
448,148,0,0,0,0,0,0,0,0,0,-1,1672,876,0,0
455,148,0,0,0,0,0,0,0,0,0,-1,1679,876,0,0
462,148,0,0,0,0,0,0,0,0,0,-1,1686,876,0,0
469,148,0,0,0,0,0,0,0,0,0,-1,1693,876,0,0
476,148,0,0,0,0,0,0,0,0,0,-1,1700,876,0,0
483,148,0,0,0,0,0,0,0,0,0,-1,1707,876,0,0
490,148,0,0,0,0,0,0,0,0,0,-1,1714,876,0,0
497,148,0,0,0,0,0,0,0,0,0,-1,1721,876,0,0
504,148,0,0,0,0,0,0,0,0,0,-1,1728,876,0,0
511,148,0,0,0,0,0,0,0,0,0,-1,1735,876,0,0
518,148,0,0,0,0,0,0,0,0,0,-1,1742,876,0,0
525,148,0,0,0,0,0,0,0,0,0,-1,1749,876,0,0
532,148,0,0,0,0,0,0,0,0,0,-1,1756,876,0,0
539,148,0,0,0,0,0,0,0,0,0,-1,1763,876,0,0
546,148,0,0,0,0,0,0,0,0,0,-1,1770,876,0,0
553,148,0,0,0,0,0,0,0,0,0,-1,1777,876,0,0
560,148,0,0,0,0,0,0,0,0,0,-1,1784,876,0,0
567,148,0,0,0,0,0,0,0,0,0,-1,1791,876,0,0
574,148,0,0,0,0,0,0,0,0,0,-1,1798,876,0,0
581,148,0,0,0,0,0,0,0,0,0,-1,1805,876,0,0
588,148,0,0,0,0,0,0,0,0,0,-1,1812,876,0,0
595,148,0,0,0,0,0,0,0,0,0,-1,1819,876,0,0
602,148,0,0,0,0,0,0,0,0,0,-1,1826,876,0,0
609,148,0,0,0,0,0,0,0,0,0,-1,1833,876,0,0
616,148,0,0,0,0,0,0,0,0,0,-1,1840,876,0,0
623,148,19.5563,2.13708,-0.00155552,-0.00302663,-0.00418723,0.00196027,-0.00654242,-0.698452,0.00514116,0.0445727,1847,876,19.5563,-2.1371
630,148,19.5262,1.9679,0.000197222,-0.00224527,-0.00318335,0.00238555,-0.0044336,-0.602238,0.00399579,0.0445961,1854,876,19.5263,-1.96792
637,148,19.5326,2.12213,0.00118124,-0.00162343,-0.00241988,0.00257575,-0.00301794,-0.522792,0.00323289,0.0385055,1861,876,19.5326,-2.12211
644,148,19.382,2.41241,0.0007541,-0.00133622,-0.0019594,0.00192967,-0.00251178,-0.540391,0.0025716,0.0373461,1868,876,19.3819,-2.41244
651,148,19.433,2.37372,-0.000650137,-0.00119705,-0.00178158,0.000878844,-0.00272604,-0.709246,0.00217045,0.0390011,1875,876,19.433,-2.3737
658,148,19.4894,2.44727,-0.00214514,-0.00116521,-0.0017042,0.000118065,-0.00342841,-0.925375,0.00232596,0.0336159,1882,876,19.4894,-2.44729
665,148,19.5031,2.48212,-0.00338442,-0.00105926,-0.00171502,-0.00014991,-0.00429377,-1.08326,0.00281387,0.0252942,1889,876,19.5031,-2.48213
672,148,19.5104,2.4118,-0.0045118,-0.00102887,-0.00169251,-0.000341904,-0.00519876,-1.18522,0.00335768,0.0316917,1896,876,19.5104,-2.41179
679,148,19.4314,2.47607,0,0,0,0,0,0,0,-1,1903,876,19.4314,-2.47604
686,148,17.067,2.24738,0,0,0,0,0,0,0,-1,1910,876,17.0671,-2.24739
693,148,16.8372,2.43896,-0.00689146,-0.00077528,-0.00150038,-0.000427044,-0.00723969,-1.34274,0.0046906,0.0317262,1917,876,16.8371,-2.43896
700,148,16.8853,2.62756,-0.00667973,-0.000657182,-0.00151266,-0.000298602,-0.00703831,-1.33804,0.00459591,0.0162786,1924,876,16.8853,-2.62756
707,148,16.9518,2.84088,-0.00619966,-0.000517448,-0.00129829,-0.000234863,-0.00648225,-1.35648,0.00424538,0.0137347,1931,876,16.9518,-2.84091
714,148,16.9266,2.94885,-0.00537746,-0.000217067,-0.00105793,-8.6017e-06,-0.00558592,-1.37624,0.00372108,0.013663,1938,876,16.9267,-2.94886
721,148,16.8333,3.07153,-0.00387874,0.000249353,-0.000700888,0.000365107,-0.00399449,-1.40712,0.00279266,0.016665,1945,876,16.8333,-3.07151
728,148,16.8069,3.22247,-0.00184574,0.000602033,-0.00036108,0.000654186,-0.00189789,-1.42735,0.00153065,0.0201902,1952,876,16.8069,-3.22247
735,148,16.8082,3.39172,-0.0013575,0.0025997,-0.000906435,0.00279745,-0.00155525,-1.356,0.00254692,0.0184497,1959,876,16.8083,-3.39174
742,148,16.8359,3.57239,-0.00202909,0.00509907,-0.00216792,0.00570663,-0.00263665,-1.29756,0.00492449,0.0191935,1966,876,16.8359,-3.57241
749,148,16.8264,3.72217,-0.0027743,0.00789564,-0.00343881,0.0089079,-0.00378656,-1.28452,0.00752533,0.01604,1973,876,16.8265,-3.72214
756,148,16.8186,3.90326,-0.00535005,0.0118436,-0.00566251,0.013541,-0.00704736,-1.27957,0.0120821,0.0206981,1980,876,16.8186,-3.90327
763,148,16.8748,4.12549,-0.00950908,0.0171077,-0.00889734,0.0198079,-0.0122093,-1.27614,0.0186579,0.0427217,1987,876,16.8748,-4.12547
770,148,16.9341,4.35327,0,0,0,0,0,0,0,-1,1994,876,16.934,-4.3533
777,148,17.5443,4.8559,0,0,0,0,0,0,0,-1,2001,876,17.5443,-4.85589
784,148,16.785,6.63776,-0.034054,0.0433605,-0.0273704,0.0520599,-0.0427534,-1.26305,0.0548283,0.0438677,2008,876,16.7851,-6.63774
791,148,16.4689,5.71704,-0.0477438,0.0564498,-0.037595,0.0685983,-0.0598923,-1.25825,0.0742409,0.0483401,2015,876,16.4689,-5.71702
798,148,0,0,0,0,0,0,0,0,0,-1,2022,876,0,0
805,148,0,0,0,0,0,0,0,0,0,-1,2029,876,0,0
812,148,0,0,0,0,0,0,0,0,0,-1,2036,876,0,0
-700,141,0,0,0,0,0,0,0,0,0,-1,524,883,0,0
-693,141,0,0,0,0,0,0,0,0,0,-1,531,883,0,0
-686,141,0,0,0,0,0,0,0,0,0,-1,538,883,0,0
-679,141,0,0,0,0,0,0,0,0,0,-1,545,883,0,0
-672,141,-10.7132,1.35596,0,0,0,0,0,0,0,-1,552,883,-10.7132,-1.35595
-665,141,-12.5089,-0.155701,0,0,0,0,0,0,0,-1,559,883,-12.5088,0.155714
-658,141,-11.9796,0.106445,0.0194581,0.00509442,0.0179063,0.0315691,-0.0070166,0.594681,0.0237332,0.0488844,566,883,-11.9796,-0.106432
-651,141,-11.4854,0.38208,0.0172939,0.003108,0.0170815,0.0286966,-0.00829469,0.58861,0.0224136,0.0443359,573,883,-11.4854,-0.382089
-644,141,-10.8269,0.794312,0.0145575,0.00179933,0.0154338,0.0248786,-0.00852172,0.58943,0.0200396,0.0439273,580,883,-10.8269,-0.794315
-637,141,-10.8032,1.30652,0,0,0,0,0,0,0,-1,587,883,-10.8032,-1.30654
-630,141,-10.8171,1.36255,0.00858888,0.000470771,0.0110942,0.0163432,-0.00728359,0.610026,0.0139712,0.0398539,594,883,-10.8171,-1.36257
-623,141,-10.8312,1.41364,0.00635983,-0.000452322,0.00926115,0.0128214,-0.00691388,0.609185,0.0115631,0.0199097,601,883,-10.8312,-1.41366
-616,141,-10.9274,1.29974,0.0039642,-8.02497e-05,0.00765273,0.00985738,-0.00597343,0.656226,0.00923116,0.0121402,608,883,-10.9273,-1.29976
-609,141,-10.9823,1.18231,0.00178921,-0.000351847,0.00498357,0.00581594,-0.00437857,0.6796,0.00590527,0.0128652,615,883,-10.9823,-1.18234
-602,141,-10.9921,1.03717,-0.00123095,-0.000394794,0.00356101,0.00277259,-0.00439834,0.843833,0.00417546,0.0113151,622,883,-10.9921,-1.03715
-595,141,-10.9877,0.893372,-0.00393565,-0.000473417,0.00265693,0.000966592,-0.00537566,1.07413,0.00394564,0.0104684,629,883,-10.9877,-0.893375
-588,141,-11.0766,0.76001,-0.00600904,-0.000447647,0.00215165,0.000287605,-0.00674429,1.24152,0.00459506,0.0146745,636,883,-11.0766,-0.760026
-581,141,-11.076,0.651245,-0.00736272,-0.000724012,0.00223469,-4.18751e-05,-0.00804486,1.27453,0.00534933,0.0200242,643,883,-11.076,-0.651244
-574,141,-10.8889,0.547668,-0.00856284,-0.000900848,0.00233771,-0.000243926,-0.00921976,1.29685,0.00606684,0.0241442,650,883,-10.8889,-0.54765
-567,141,-10.9382,0.418152,-0.0094497,-0.000886224,0.00256578,-0.00017632,-0.0101596,1.30087,0.00671507,0.0293486,657,883,-10.9382,-0.418126
-560,141,-11.1351,0.40564,0,0,0,0,0,0,0,-1,664,883,-11.1351,-0.405631
-553,141,-12.0684,0.506775,-0.0105649,-0.000165169,0.00299987,0.000638115,-0.0113682,1.30916,0.00780019,0.0440335,671,883,-12.0684,-0.506762
-546,141,-12.8253,0.516846,-0.0106157,0.000155913,0.00313511,0.00100195,-0.0114618,1.30722,0.00799611,0.0340783,678,883,-12.8253,-0.516834
-539,141,-12.8023,0.51355,-0.0098207,0.000575494,0.00306262,0.00141063,-0.0106558,1.30458,0.00761776,0.0309592,685,883,-12.8023,-0.513548
-532,141,-12.8024,0.505737,-0.00816439,0.001303,0.00275505,0.00204636,-0.00890776,1.30725,0.00672522,0.032196,692,883,-12.8024,-0.50571
-525,141,-12.8007,0.523254,-0.00529947,0.00218337,0.00197671,0.00267345,-0.00578955,1.32777,0.0049953,0.0384511,699,883,-12.8007,-0.523229
-518,141,-12.9003,0.541138,-0.000763334,0.00316585,0.000516129,0.00323251,-0.000830001,1.44234,0.00247844,0.0400557,706,883,-12.9003,-0.541121
-511,141,-12.9432,0.625,0.00527416,0.00408016,-0.00178338,0.00655781,0.00279651,-0.623882,0.00379979,0.0389421,713,883,-12.9432,-0.625011
-504,141,-12.813,0.678894,0.0126125,0.00482432,-0.00481979,0.0149147,0.0025221,-0.445617,0.00921818,0.0401825,720,883,-12.813,-0.678879
-497,141,0,0,0,0,0,0,0,0,0,-1,727,883,0,0
-490,141,0,0,0,0,0,0,0,0,0,-1,734,883,0,0
-483,141,0,0,0,0,0,0,0,0,0,-1,741,883,0,0
-476,141,0,0,0,0,0,0,0,0,0,-1,748,883,0,0
-469,141,0,0,0,0,0,0,0,0,0,-1,755,883,0,0
-462,141,0,0,0,0,0,0,0,0,0,-1,762,883,0,0
-455,141,0,0,0,0,0,0,0,0,0,-1,769,883,0,0
-448,141,0,0,0,0,0,0,0,0,0,-1,776,883,0,0
-441,141,0,0,0,0,0,0,0,0,0,-1,783,883,0,0
-434,141,0,0,0,0,0,0,0,0,0,-1,790,883,0,0
-427,141,0,0,0,0,0,0,0,0,0,-1,797,883,0,0
-420,141,0,0,0,0,0,0,0,0,0,-1,804,883,0,0
-413,141,0,0,0,0,0,0,0,0,0,-1,811,883,0,0
-406,141,0,0,0,0,0,0,0,0,0,-1,818,883,0,0
-399,141,0,0,0,0,0,0,0,0,0,-1,825,883,0,0
-392,141,0,0,0,0,0,0,0,0,0,-1,832,883,0,0
-385,141,0,0,0,0,0,0,0,0,0,-1,839,883,0,0
-378,141,0,0,0,0,0,0,0,0,0,-1,846,883,0,0
-371,141,0,0,0,0,0,0,0,0,0,-1,853,883,0,0
-364,141,0,0,0,0,0,0,0,0,0,-1,860,883,0,0
-357,141,0,0,0,0,0,0,0,0,0,-1,867,883,0,0
-350,141,0,0,0,0,0,0,0,0,0,-1,874,883,0,0
-343,141,0,0,0,0,0,0,0,0,0,-1,881,883,0,0
-336,141,0,0,0,0,0,0,0,0,0,-1,888,883,0,0
-329,141,0,0,0,0,0,0,0,0,0,-1,895,883,0,0
-322,141,0,0,0,0,0,0,0,0,0,-1,902,883,0,0
-315,141,0,0,0,0,0,0,0,0,0,-1,909,883,0,0
-308,141,0,0,0,0,0,0,0,0,0,-1,916,883,0,0
-301,141,0,0,0,0,0,0,0,0,0,-1,923,883,0,0
-294,141,0,0,0,0,0,0,0,0,0,-1,930,883,0,0
-287,141,0,0,0,0,0,0,0,0,0,-1,937,883,0,0
-280,141,0,0,0,0,0,0,0,0,0,-1,944,883,0,0
-273,141,0,0,0,0,0,0,0,0,0,-1,951,883,0,0
-266,141,0,0,0,0,0,0,0,0,0,-1,958,883,0,0
-259,141,0,0,0,0,0,0,0,0,0,-1,965,883,0,0
-252,141,0,0,0,0,0,0,0,0,0,-1,972,883,0,0
-245,141,0,0,0,0,0,0,0,0,0,-1,979,883,0,0
-238,141,0,0,0,0,0,0,0,0,0,-1,986,883,0,0
-231,141,0,0,0,0,0,0,0,0,0,-1,993,883,0,0
-224,141,0,0,0,0,0,0,0,0,0,-1,1000,883,0,0
-217,141,0,0,0,0,0,0,0,0,0,-1,1007,883,0,0
-210,141,0,0,0,0,0,0,0,0,0,-1,1014,883,0,0
-203,141,0,0,0,0,0,0,0,0,0,-1,1021,883,0,0
-196,141,0,0,0,0,0,0,0,0,0,-1,1028,883,0,0
-189,141,0,0,0,0,0,0,0,0,0,-1,1035,883,0,0
-182,141,0,0,0,0,0,0,0,0,0,-1,1042,883,0,0
-175,141,0,0,0,0,0,0,0,0,0,-1,1049,883,0,0
-168,141,0,0,0,0,0,0,0,0,0,-1,1056,883,0,0
-161,141,0,0,0,0,0,0,0,0,0,-1,1063,883,0,0
-154,141,0,0,0,0,0,0,0,0,0,-1,1070,883,0,0
-147,141,0,0,0,0,0,0,0,0,0,-1,1077,883,0,0
-140,141,0,0,0,0,0,0,0,0,0,-1,1084,883,0,0
-133,141,0,0,0,0,0,0,0,0,0,-1,1091,883,0,0
-126,141,0,0,0,0,0,0,0,0,0,-1,1098,883,0,0
-119,141,0,0,0,0,0,0,0,0,0,-1,1105,883,0,0
-112,141,0,0,0,0,0,0,0,0,0,-1,1112,883,0,0
-105,141,0,0,0,0,0,0,0,0,0,-1,1119,883,0,0
-98,141,0,0,0,0,0,0,0,0,0,-1,1126,883,0,0
-91,141,0,0,0,0,0,0,0,0,0,-1,1133,883,0,0
-84,141,0,0,0,0,0,0,0,0,0,-1,1140,883,0,0
-77,141,0,0,0,0,0,0,0,0,0,-1,1147,883,0,0
-70,141,0,0,0,0,0,0,0,0,0,-1,1154,883,0,0
-63,141,0,0,0,0,0,0,0,0,0,-1,1161,883,0,0
-56,141,0,0,0,0,0,0,0,0,0,-1,1168,883,0,0
-49,141,0,0,0,0,0,0,0,0,0,-1,1175,883,0,0
-42,141,0,0,0,0,0,0,0,0,0,-1,1182,883,0,0
-35,141,0,0,0,0,0,0,0,0,0,-1,1189,883,0,0
-28,141,0,0,0,0,0,0,0,0,0,-1,1196,883,0,0
-21,141,0,0,0,0,0,0,0,0,0,-1,1203,883,0,0
-14,141,0,0,0,0,0,0,0,0,0,-1,1210,883,0,0
-7,141,0,0,0,0,0,0,0,0,0,-1,1217,883,0,0
0,141,0,0,0,0,0,0,0,0,0,-1,1224,883,0,0
7,141,0,0,0,0,0,0,0,0,0,-1,1231,883,0,0
14,141,0,0,0,0,0,0,0,0,0,-1,1238,883,0,0
21,141,0,0,0,0,0,0,0,0,0,-1,1245,883,0,0
28,141,0,0,0,0,0,0,0,0,0,-1,1252,883,0,0
35,141,0,0,0,0,0,0,0,0,0,-1,1259,883,0,0
42,141,0,0,0,0,0,0,0,0,0,-1,1266,883,0,0
49,141,0,0,0,0,0,0,0,0,0,-1,1273,883,0,0
56,141,0,0,0,0,0,0,0,0,0,-1,1280,883,0,0
63,141,0,0,0,0,0,0,0,0,0,-1,1287,883,0,0
70,141,0,0,0,0,0,0,0,0,0,-1,1294,883,0,0
77,141,0,0,0,0,0,0,0,0,0,-1,1301,883,0,0
84,141,0,0,0,0,0,0,0,0,0,-1,1308,883,0,0
91,141,0,0,0,0,0,0,0,0,0,-1,1315,883,0,0
98,141,0,0,0,0,0,0,0,0,0,-1,1322,883,0,0
105,141,0,0,0,0,0,0,0,0,0,-1,1329,883,0,0
112,141,0,0,0,0,0,0,0,0,0,-1,1336,883,0,0
119,141,0,0,0,0,0,0,0,0,0,-1,1343,883,0,0
126,141,0,0,0,0,0,0,0,0,0,-1,1350,883,0,0
133,141,0,0,0,0,0,0,0,0,0,-1,1357,883,0,0
140,141,0,0,0,0,0,0,0,0,0,-1,1364,883,0,0
147,141,0,0,0,0,0,0,0,0,0,-1,1371,883,0,0
154,141,0,0,0,0,0,0,0,0,0,-1,1378,883,0,0
161,141,0,0,0,0,0,0,0,0,0,-1,1385,883,0,0
168,141,0,0,0,0,0,0,0,0,0,-1,1392,883,0,0
175,141,0,0,0,0,0,0,0,0,0,-1,1399,883,0,0
182,141,0,0,0,0,0,0,0,0,0,-1,1406,883,0,0
189,141,0,0,0,0,0,0,0,0,0,-1,1413,883,0,0
196,141,0,0,0,0,0,0,0,0,0,-1,1420,883,0,0
203,141,0,0,0,0,0,0,0,0,0,-1,1427,883,0,0
210,141,0,0,0,0,0,0,0,0,0,-1,1434,883,0,0
217,141,0,0,0,0,0,0,0,0,0,-1,1441,883,0,0
224,141,0,0,0,0,0,0,0,0,0,-1,1448,883,0,0
231,141,0,0,0,0,0,0,0,0,0,-1,1455,883,0,0
238,141,0,0,0,0,0,0,0,0,0,-1,1462,883,0,0
245,141,0,0,0,0,0,0,0,0,0,-1,1469,883,0,0
252,141,0,0,0,0,0,0,0,0,0,-1,1476,883,0,0
259,141,0,0,0,0,0,0,0,0,0,-1,1483,883,0,0
266,141,0,0,0,0,0,0,0,0,0,-1,1490,883,0,0
273,141,0,0,0,0,0,0,0,0,0,-1,1497,883,0,0
280,141,0,0,0,0,0,0,0,0,0,-1,1504,883,0,0
287,141,0,0,0,0,0,0,0,0,0,-1,1511,883,0,0
294,141,0,0,0,0,0,0,0,0,0,-1,1518,883,0,0
301,141,0,0,0,0,0,0,0,0,0,-1,1525,883,0,0
308,141,0,0,0,0,0,0,0,0,0,-1,1532,883,0,0
315,141,0,0,0,0,0,0,0,0,0,-1,1539,883,0,0
322,141,0,0,0,0,0,0,0,0,0,-1,1546,883,0,0
329,141,0,0,0,0,0,0,0,0,0,-1,1553,883,0,0
336,141,0,0,0,0,0,0,0,0,0,-1,1560,883,0,0
343,141,0,0,0,0,0,0,0,0,0,-1,1567,883,0,0
350,141,0,0,0,0,0,0,0,0,0,-1,1574,883,0,0
357,141,0,0,0,0,0,0,0,0,0,-1,1581,883,0,0
364,141,0,0,0,0,0,0,0,0,0,-1,1588,883,0,0
371,141,0,0,0,0,0,0,0,0,0,-1,1595,883,0,0
378,141,0,0,0,0,0,0,0,0,0,-1,1602,883,0,0
385,141,0,0,0,0,0,0,0,0,0,-1,1609,883,0,0
392,141,0,0,0,0,0,0,0,0,0,-1,1616,883,0,0
399,141,0,0,0,0,0,0,0,0,0,-1,1623,883,0,0
406,141,0,0,0,0,0,0,0,0,0,-1,1630,883,0,0
413,141,0,0,0,0,0,0,0,0,0,-1,1637,883,0,0
420,141,0,0,0,0,0,0,0,0,0,-1,1644,883,0,0
427,141,0,0,0,0,0,0,0,0,0,-1,1651,883,0,0
434,141,0,0,0,0,0,0,0,0,0,-1,1658,883,0,0
441,141,0,0,0,0,0,0,0,0,0,-1,1665,883,0,0
448,141,0,0,0,0,0,0,0,0,0,-1,1672,883,0,0
455,141,0,0,0,0,0,0,0,0,0,-1,1679,883,0,0
462,141,0,0,0,0,0,0,0,0,0,-1,1686,883,0,0
469,141,0,0,0,0,0,0,0,0,0,-1,1693,883,0,0
476,141,0,0,0,0,0,0,0,0,0,-1,1700,883,0,0
483,141,0,0,0,0,0,0,0,0,0,-1,1707,883,0,0
490,141,0,0,0,0,0,0,0,0,0,-1,1714,883,0,0
497,141,0,0,0,0,0,0,0,0,0,-1,1721,883,0,0
504,141,0,0,0,0,0,0,0,0,0,-1,1728,883,0,0
511,141,0,0,0,0,0,0,0,0,0,-1,1735,883,0,0
518,141,0,0,0,0,0,0,0,0,0,-1,1742,883,0,0
525,141,0,0,0,0,0,0,0,0,0,-1,1749,883,0,0
532,141,0,0,0,0,0,0,0,0,0,-1,1756,883,0,0
539,141,0,0,0,0,0,0,0,0,0,-1,1763,883,0,0
546,141,0,0,0,0,0,0,0,0,0,-1,1770,883,0,0
553,141,0,0,0,0,0,0,0,0,0,-1,1777,883,0,0
560,141,0,0,0,0,0,0,0,0,0,-1,1784,883,0,0
567,141,0,0,0,0,0,0,0,0,0,-1,1791,883,0,0
574,141,0,0,0,0,0,0,0,0,0,-1,1798,883,0,0
581,141,0,0,0,0,0,0,0,0,0,-1,1805,883,0,0
588,141,0,0,0,0,0,0,0,0,0,-1,1812,883,0,0
595,141,0,0,0,0,0,0,0,0,0,-1,1819,883,0,0
602,141,0,0,0,0,0,0,0,0,0,-1,1826,883,0,0
609,141,0,0,0,0,0,0,0,0,0,-1,1833,883,0,0
616,141,0,0,0,0,0,0,0,0,0,-1,1840,883,0,0
623,141,19.5107,2.48236,-0.00113535,-0.00385036,-0.0043294,0.00204439,-0.00703009,-0.633475,0.00549642,0.0466973,1847,883,19.5107,-2.48236
630,141,19.569,2.18256,0.000115431,-0.00280886,-0.00322893,0.00219784,-0.00489126,-0.572797,0.00419021,0.0479671,1854,883,19.569,-2.18258
637,141,19.6311,2.16626,0.000900107,-0.00195121,-0.00245454,0.00231298,-0.00336409,-0.522298,0.00329633,0.0444638,1861,883,19.6311,-2.16627
644,141,19.4868,2.32294,0.000428158,-0.00151156,-0.00190385,0.00159495,-0.00267836,-0.54982,0.00249348,0.0388686,1868,883,19.4868,-2.32296
651,141,19.4819,2.41718,-0.00123403,-0.00126841,-0.00172537,0.000474241,-0.00297668,-0.780416,0.00215996,0.0380774,1875,883,19.4819,-2.41717
658,141,19.4644,2.40796,-0.00303055,-0.00116935,-0.00166234,-0.000194859,-0.00400505,-1.04057,0.00260751,0.0369833,1882,883,19.4643,-2.40797
665,141,19.4845,2.45667,-0.00452278,-0.00104856,-0.00167868,-0.000369989,-0.00520135,-1.18665,0.00335105,0.0284425,1889,883,19.4845,-2.45667
672,141,19.5109,2.43604,-0.00579756,-0.0010126,-0.00166131,-0.000492365,-0.0063178,-1.26732,0.00405771,0.0254397,1896,883,19.5109,-2.43602
679,141,19.4987,2.41162,-0.00680017,-0.000837412,-0.00151469,-0.000474707,-0.00716288,-1.33576,0.00462514,0.0322612,1903,883,19.4986,-2.41165
686,141,17.926,2.4201,0,0,0,0,0,0,0,-1,1910,883,17.926,-2.42008
693,141,17.2954,2.49878,-0.00802329,-0.000756106,-0.00148411,-0.000464706,-0.00831469,-1.37692,0.0053949,0.0472216,1917,883,17.2954,-2.49878
700,141,17.0234,2.58716,-0.00773652,-0.000655123,-0.00149479,-0.000352524,-0.00803911,-1.37106,0.00524585,0.0161511,1924,883,17.0235,-2.58718
707,141,17.0272,2.7536,-0.00714002,-0.00051155,-0.00130649,-0.000263331,-0.00738824,-1.38305,0.0048401,0.0136053,1931,883,17.0272,-2.75358
714,141,16.981,2.88373,-0.00627754,-0.000195369,-0.00110489,-8.74046e-07,-0.00647203,-1.39655,0.0043144,0.0143434,1938,883,16.981,-2.8837
721,141,16.991,3.05591,-0.00483819,0.000308487,-0.00081651,0.000434919,-0.00496462,-1.41717,0.00346383,0.0123572,1945,883,16.991,-3.05593
728,141,16.9889,3.19647,-0.00282113,0.000697953,-0.000514232,0.000771557,-0.00289473,-1.42863,0.00223191,0.014873,1952,883,16.9888,-3.19647
735,141,17.014,3.40143,-0.0023537,0.00269216,-0.00111587,0.00292792,-0.00258945,-1.36258,0.00318745,0.0156278,1959,883,17.014,-3.40145
742,141,16.9785,3.55902,-0.00312079,0.00522899,-0.00254116,0.00594155,-0.00383335,-1.29741,0.00568713,0.0164947,1966,883,16.9786,-3.55899
749,141,16.9644,3.69507,-0.00388764,0.00802637,-0.00395091,0.00921748,-0.00507876,-1.27798,0.00836844,0.012911,1973,883,16.9643,-3.69509
756,141,16.9564,3.91113,-0.00671093,0.0119712,-0.00637561,0.0139396,-0.00867932,-1.27134,0.0131762,0.0193448,1980,883,16.9565,-3.91114
763,141,17.2041,4.11017,-0.0111843,0.0171416,-0.00981366,0.0202094,-0.014252,-1.26782,0.0199952,0.0412379,1987,883,17.2041,-4.11016
770,141,17.2164,4.46759,-0.0174044,0.0237478,-0.014498,0.0283425,-0.0219991,-1.26389,0.0291415,0.0431349,1994,883,17.2164,-4.46758
777,141,17.1246,5.16772,0,0,0,0,0,0,0,-1,2001,883,17.1246,-5.16772
784,141,16.9841,5.47717,-0.0366617,0.0420584,-0.0287346,0.0514312,-0.0460345,-1.25549,0.0563006,0.0439332,2008,883,16.9842,-5.47714
791,141,16.5316,5.11255,-0.0506517,0.0541265,-0.0389764,0.067035,-0.0635602,-1.25098,0.0754081,0.0459343,2015,883,16.5316,-5.11253
798,141,0,0,0,0,0,0,0,0,0,-1,2022,883,0,0
805,141,0,0,0,0,0,0,0,0,0,-1,2029,883,0,0
812,141,0,0,0,0,0,0,0,0,0,-1,2036,883,0,0
-700,134,0,0,0,0,0,0,0,0,0,-1,524,890,0,0
-693,134,0,0,0,0,0,0,0,0,0,-1,531,890,0,0
-686,134,0,0,0,0,0,0,0,0,0,-1,538,890,0,0
-679,134,0,0,0,0,0,0,0,0,0,-1,545,890,0,0
-672,134,-10.8557,1.24329,0,0,0,0,0,0,0,-1,552,890,-10.8557,-1.24327
-665,134,-12.9113,-0.241272,0,0,0,0,0,0,0,-1,559,890,-12.9113,0.241276
-658,134,-12.3491,0.0183716,0,0,0,0,0,0,0,-1,566,890,-12.3491,-0.0183684
-651,134,-11.7321,0.769409,0,0,0,0,0,0,0,-1,573,890,-11.7321,-0.769436
-644,134,-11.3284,1.03076,0,0,0,0,0,0,0,-1,580,890,-11.3284,-1.03075
-637,134,-10.9724,1.47089,0,0,0,0,0,0,0,-1,587,890,-10.9724,-1.4709
-630,134,-10.9843,1.44489,0.00821886,-0.00024424,0.0108361,0.0156203,-0.00764572,0.599251,0.0136932,0.0381323,594,890,-10.9843,-1.44489
-623,134,-11.0111,1.40399,0.00617879,-0.0011369,0.00898,0.0122174,-0.00717545,0.591992,0.0113219,0.0185122,601,890,-11.0111,-1.40398
-616,134,-11.09,1.30115,0.00384613,-0.000688821,0.00730359,0.00922613,-0.00606882,0.634885,0.00889304,0.0111648,608,890,-11.09,-1.30112
-609,134,-11.1445,1.17004,0.00160578,-0.000888411,0.00474009,0.00526008,-0.00454271,0.656766,0.0056647,0.0107384,615,890,-11.1445,-1.17004
-602,134,-11.1384,1.02527,-0.00150424,-0.000775674,0.00337606,0.00225571,-0.00453562,0.839141,0.00399394,0.0109162,622,890,-11.1384,-1.02524
-595,134,-11.1187,0.91449,-0.00422517,-0.000725214,0.00244176,0.000528907,-0.0054793,1.09632,0.00384132,0.0114294,629,890,-11.1187,-0.914484
-588,134,-11.2578,0.821289,-0.0062295,-0.000641113,0.00192626,-4.14893e-05,-0.00682912,1.26902,0.00453898,0.0191574,636,890,-11.2578,-0.821301
-581,134,-11.2251,0.584656,-0.00756929,-0.000840711,0.00195127,-0.000315799,-0.0080942,1.30801,0.00529401,0.0226151,643,890,-11.2251,-0.584653
-574,134,-11.1581,0.466309,-0.00866148,-0.00102435,0.00199879,-0.000532862,-0.00915297,1.32968,0.00593235,0.0249841,650,890,-11.1581,-0.466307
-567,134,-11.0437,0.371094,-0.00933818,-0.00102604,0.0021595,-0.000498487,-0.00986573,1.33119,0.00641745,0.0222767,657,890,-11.0437,-0.371095
-560,134,-12.0895,0.552551,0,0,0,0,0,0,0,-1,664,890,-12.0895,-0.552554
-553,134,-12.5743,0.552429,-0.00994438,-0.0003776,0.00255023,0.000259755,-0.0105817,1.32589,0.00714265,0.0480181,671,890,-12.5743,-0.552445
-546,134,-12.7936,0.491272,-0.00967477,-3.61005e-05,0.00268383,0.000660805,-0.0103717,1.31674,0.00714491,0.0247481,678,890,-12.7936,-0.491247
-539,134,-12.7819,0.503479,-0.00853068,0.000440862,0.00262919,0.00115459,-0.00924441,1.30572,0.00658165,0.0181209,685,890,-12.7819,-0.503506
-532,134,-12.8097,0.524902,-0.00643447,0.00123407,0.00235749,0.00190085,-0.00710125,1.29516,0.00547882,0.0244491,692,890,-12.8097,-0.524896
-525,134,-12.7934,0.544739,-0.00304097,0.00225947,0.00163934,0.00272551,-0.00350702,1.29382,0.00360777,0.0355579,699,890,-12.7934,-0.544729
-518,134,-12.8068,0.451294,0.00206067,0.00352363,0.000260189,0.00356853,0.00201578,1.39992,0.00206606,0.0411769,706,890,-12.8068,-0.451295
-511,134,-12.7875,0.367859,0.00835731,0.00486763,-0.00189093,0.00918542,0.00403951,-0.41278,0.00531601,0.0433421,713,890,-12.7875,-0.367868
-504,134,0,0,0,0,0,0,0,0,0,-1,720,890,0,0
-497,134,0,0,0,0,0,0,0,0,0,-1,727,890,0,0
-490,134,0,0,0,0,0,0,0,0,0,-1,734,890,0,0
-483,134,0,0,0,0,0,0,0,0,0,-1,741,890,0,0
-476,134,0,0,0,0,0,0,0,0,0,-1,748,890,0,0
-469,134,0,0,0,0,0,0,0,0,0,-1,755,890,0,0
-462,134,0,0,0,0,0,0,0,0,0,-1,762,890,0,0
-455,134,0,0,0,0,0,0,0,0,0,-1,769,890,0,0
-448,134,0,0,0,0,0,0,0,0,0,-1,776,890,0,0
-441,134,0,0,0,0,0,0,0,0,0,-1,783,890,0,0
-434,134,0,0,0,0,0,0,0,0,0,-1,790,890,0,0
-427,134,0,0,0,0,0,0,0,0,0,-1,797,890,0,0
-420,134,0,0,0,0,0,0,0,0,0,-1,804,890,0,0
-413,134,0,0,0,0,0,0,0,0,0,-1,811,890,0,0
-406,134,0,0,0,0,0,0,0,0,0,-1,818,890,0,0
-399,134,0,0,0,0,0,0,0,0,0,-1,825,890,0,0
-392,134,0,0,0,0,0,0,0,0,0,-1,832,890,0,0
-385,134,0,0,0,0,0,0,0,0,0,-1,839,890,0,0
-378,134,0,0,0,0,0,0,0,0,0,-1,846,890,0,0
-371,134,0,0,0,0,0,0,0,0,0,-1,853,890,0,0
-364,134,0,0,0,0,0,0,0,0,0,-1,860,890,0,0
-357,134,0,0,0,0,0,0,0,0,0,-1,867,890,0,0
-350,134,0,0,0,0,0,0,0,0,0,-1,874,890,0,0
-343,134,0,0,0,0,0,0,0,0,0,-1,881,890,0,0
-336,134,0,0,0,0,0,0,0,0,0,-1,888,890,0,0
-329,134,0,0,0,0,0,0,0,0,0,-1,895,890,0,0
-322,134,0,0,0,0,0,0,0,0,0,-1,902,890,0,0
-315,134,0,0,0,0,0,0,0,0,0,-1,909,890,0,0
-308,134,0,0,0,0,0,0,0,0,0,-1,916,890,0,0
-301,134,0,0,0,0,0,0,0,0,0,-1,923,890,0,0
-294,134,0,0,0,0,0,0,0,0,0,-1,930,890,0,0
-287,134,0,0,0,0,0,0,0,0,0,-1,937,890,0,0
-280,134,0,0,0,0,0,0,0,0,0,-1,944,890,0,0
-273,134,0,0,0,0,0,0,0,0,0,-1,951,890,0,0
-266,134,0,0,0,0,0,0,0,0,0,-1,958,890,0,0
-259,134,0,0,0,0,0,0,0,0,0,-1,965,890,0,0
-252,134,0,0,0,0,0,0,0,0,0,-1,972,890,0,0
-245,134,0,0,0,0,0,0,0,0,0,-1,979,890,0,0
-238,134,0,0,0,0,0,0,0,0,0,-1,986,890,0,0
-231,134,0,0,0,0,0,0,0,0,0,-1,993,890,0,0
-224,134,0,0,0,0,0,0,0,0,0,-1,1000,890,0,0
-217,134,0,0,0,0,0,0,0,0,0,-1,1007,890,0,0
-210,134,0,0,0,0,0,0,0,0,0,-1,1014,890,0,0
-203,134,0,0,0,0,0,0,0,0,0,-1,1021,890,0,0
-196,134,0,0,0,0,0,0,0,0,0,-1,1028,890,0,0
-189,134,0,0,0,0,0,0,0,0,0,-1,1035,890,0,0
-182,134,0,0,0,0,0,0,0,0,0,-1,1042,890,0,0
-175,134,0,0,0,0,0,0,0,0,0,-1,1049,890,0,0
-168,134,0,0,0,0,0,0,0,0,0,-1,1056,890,0,0
-161,134,0,0,0,0,0,0,0,0,0,-1,1063,890,0,0
-154,134,0,0,0,0,0,0,0,0,0,-1,1070,890,0,0
-147,134,0,0,0,0,0,0,0,0,0,-1,1077,890,0,0
-140,134,0,0,0,0,0,0,0,0,0,-1,1084,890,0,0
-133,134,0,0,0,0,0,0,0,0,0,-1,1091,890,0,0
-126,134,0,0,0,0,0,0,0,0,0,-1,1098,890,0,0
-119,134,0,0,0,0,0,0,0,0,0,-1,1105,890,0,0
-112,134,0,0,0,0,0,0,0,0,0,-1,1112,890,0,0
-105,134,0,0,0,0,0,0,0,0,0,-1,1119,890,0,0
-98,134,0,0,0,0,0,0,0,0,0,-1,1126,890,0,0
-91,134,0,0,0,0,0,0,0,0,0,-1,1133,890,0,0
-84,134,0,0,0,0,0,0,0,0,0,-1,1140,890,0,0
-77,134,0,0,0,0,0,0,0,0,0,-1,1147,890,0,0
-70,134,0,0,0,0,0,0,0,0,0,-1,1154,890,0,0
-63,134,0,0,0,0,0,0,0,0,0,-1,1161,890,0,0
-56,134,0,0,0,0,0,0,0,0,0,-1,1168,890,0,0
-49,134,0,0,0,0,0,0,0,0,0,-1,1175,890,0,0
-42,134,0,0,0,0,0,0,0,0,0,-1,1182,890,0,0
-35,134,0,0,0,0,0,0,0,0,0,-1,1189,890,0,0
-28,134,0,0,0,0,0,0,0,0,0,-1,1196,890,0,0
-21,134,0,0,0,0,0,0,0,0,0,-1,1203,890,0,0
-14,134,0,0,0,0,0,0,0,0,0,-1,1210,890,0,0
-7,134,0,0,0,0,0,0,0,0,0,-1,1217,890,0,0
0,134,0,0,0,0,0,0,0,0,0,-1,1224,890,0,0
7,134,0,0,0,0,0,0,0,0,0,-1,1231,890,0,0
14,134,0,0,0,0,0,0,0,0,0,-1,1238,890,0,0
21,134,0,0,0,0,0,0,0,0,0,-1,1245,890,0,0
28,134,0,0,0,0,0,0,0,0,0,-1,1252,890,0,0
35,134,0,0,0,0,0,0,0,0,0,-1,1259,890,0,0
42,134,0,0,0,0,0,0,0,0,0,-1,1266,890,0,0
49,134,0,0,0,0,0,0,0,0,0,-1,1273,890,0,0
56,134,0,0,0,0,0,0,0,0,0,-1,1280,890,0,0
63,134,0,0,0,0,0,0,0,0,0,-1,1287,890,0,0
70,134,0,0,0,0,0,0,0,0,0,-1,1294,890,0,0
77,134,0,0,0,0,0,0,0,0,0,-1,1301,890,0,0
84,134,0,0,0,0,0,0,0,0,0,-1,1308,890,0,0
91,134,0,0,0,0,0,0,0,0,0,-1,1315,890,0,0
98,134,0,0,0,0,0,0,0,0,0,-1,1322,890,0,0
105,134,0,0,0,0,0,0,0,0,0,-1,1329,890,0,0
112,134,0,0,0,0,0,0,0,0,0,-1,1336,890,0,0
119,134,0,0,0,0,0,0,0,0,0,-1,1343,890,0,0
126,134,0,0,0,0,0,0,0,0,0,-1,1350,890,0,0
133,134,0,0,0,0,0,0,0,0,0,-1,1357,890,0,0
140,134,0,0,0,0,0,0,0,0,0,-1,1364,890,0,0
147,134,0,0,0,0,0,0,0,0,0,-1,1371,890,0,0
154,134,0,0,0,0,0,0,0,0,0,-1,1378,890,0,0
161,134,0,0,0,0,0,0,0,0,0,-1,1385,890,0,0
168,134,0,0,0,0,0,0,0,0,0,-1,1392,890,0,0
175,134,0,0,0,0,0,0,0,0,0,-1,1399,890,0,0
182,134,0,0,0,0,0,0,0,0,0,-1,1406,890,0,0
189,134,0,0,0,0,0,0,0,0,0,-1,1413,890,0,0
196,134,0,0,0,0,0,0,0,0,0,-1,1420,890,0,0
203,134,0,0,0,0,0,0,0,0,0,-1,1427,890,0,0
210,134,0,0,0,0,0,0,0,0,0,-1,1434,890,0,0
217,134,0,0,0,0,0,0,0,0,0,-1,1441,890,0,0
224,134,0,0,0,0,0,0,0,0,0,-1,1448,890,0,0
231,134,0,0,0,0,0,0,0,0,0,-1,1455,890,0,0
238,134,0,0,0,0,0,0,0,0,0,-1,1462,890,0,0
245,134,0,0,0,0,0,0,0,0,0,-1,1469,890,0,0
252,134,0,0,0,0,0,0,0,0,0,-1,1476,890,0,0
259,134,0,0,0,0,0,0,0,0,0,-1,1483,890,0,0
266,134,0,0,0,0,0,0,0,0,0,-1,1490,890,0,0
273,134,0,0,0,0,0,0,0,0,0,-1,1497,890,0,0
280,134,0,0,0,0,0,0,0,0,0,-1,1504,890,0,0
287,134,0,0,0,0,0,0,0,0,0,-1,1511,890,0,0
294,134,0,0,0,0,0,0,0,0,0,-1,1518,890,0,0
301,134,0,0,0,0,0,0,0,0,0,-1,1525,890,0,0
308,134,0,0,0,0,0,0,0,0,0,-1,1532,890,0,0
315,134,0,0,0,0,0,0,0,0,0,-1,1539,890,0,0
322,134,0,0,0,0,0,0,0,0,0,-1,1546,890,0,0
329,134,0,0,0,0,0,0,0,0,0,-1,1553,890,0,0
336,134,0,0,0,0,0,0,0,0,0,-1,1560,890,0,0
343,134,0,0,0,0,0,0,0,0,0,-1,1567,890,0,0
350,134,0,0,0,0,0,0,0,0,0,-1,1574,890,0,0
357,134,0,0,0,0,0,0,0,0,0,-1,1581,890,0,0
364,134,0,0,0,0,0,0,0,0,0,-1,1588,890,0,0
371,134,0,0,0,0,0,0,0,0,0,-1,1595,890,0,0
378,134,0,0,0,0,0,0,0,0,0,-1,1602,890,0,0
385,134,0,0,0,0,0,0,0,0,0,-1,1609,890,0,0
392,134,0,0,0,0,0,0,0,0,0,-1,1616,890,0,0
399,134,0,0,0,0,0,0,0,0,0,-1,1623,890,0,0
406,134,0,0,0,0,0,0,0,0,0,-1,1630,890,0,0
413,134,0,0,0,0,0,0,0,0,0,-1,1637,890,0,0
420,134,0,0,0,0,0,0,0,0,0,-1,1644,890,0,0
427,134,0,0,0,0,0,0,0,0,0,-1,1651,890,0,0
434,134,0,0,0,0,0,0,0,0,0,-1,1658,890,0,0
441,134,0,0,0,0,0,0,0,0,0,-1,1665,890,0,0
448,134,0,0,0,0,0,0,0,0,0,-1,1672,890,0,0
455,134,0,0,0,0,0,0,0,0,0,-1,1679,890,0,0
462,134,0,0,0,0,0,0,0,0,0,-1,1686,890,0,0
469,134,0,0,0,0,0,0,0,0,0,-1,1693,890,0,0
476,134,0,0,0,0,0,0,0,0,0,-1,1700,890,0,0
483,134,0,0,0,0,0,0,0,0,0,-1,1707,890,0,0
490,134,0,0,0,0,0,0,0,0,0,-1,1714,890,0,0
497,134,0,0,0,0,0,0,0,0,0,-1,1721,890,0,0
504,134,0,0,0,0,0,0,0,0,0,-1,1728,890,0,0
511,134,0,0,0,0,0,0,0,0,0,-1,1735,890,0,0
518,134,0,0,0,0,0,0,0,0,0,-1,1742,890,0,0
525,134,0,0,0,0,0,0,0,0,0,-1,1749,890,0,0
532,134,0,0,0,0,0,0,0,0,0,-1,1756,890,0,0
539,134,0,0,0,0,0,0,0,0,0,-1,1763,890,0,0
546,134,0,0,0,0,0,0,0,0,0,-1,1770,890,0,0
553,134,0,0,0,0,0,0,0,0,0,-1,1777,890,0,0
560,134,0,0,0,0,0,0,0,0,0,-1,1784,890,0,0
567,134,0,0,0,0,0,0,0,0,0,-1,1791,890,0,0
574,134,0,0,0,0,0,0,0,0,0,-1,1798,890,0,0
581,134,0,0,0,0,0,0,0,0,0,-1,1805,890,0,0
588,134,0,0,0,0,0,0,0,0,0,-1,1812,890,0,0
595,134,0,0,0,0,0,0,0,0,0,-1,1819,890,0,0
602,134,0,0,0,0,0,0,0,0,0,-1,1826,890,0,0
609,134,0,0,0,0,0,0,0,0,0,-1,1833,890,0,0
616,134,0,0,0,0,0,0,0,0,0,-1,1840,890,0,0
623,134,19.5546,2.71692,-0.000260124,-0.00344148,-0.00510961,0.00350069,-0.00720229,-0.634498,0.00630135,0.0455084,1847,890,19.5545,-2.71692
630,134,19.5927,2.45117,0.000177475,-0.00226059,-0.00366663,0.0028224,-0.00490552,-0.624913,0.00451542,0.0474867,1854,890,19.5927,-2.4512
637,134,19.7662,2.2428,0.000601161,-0.00139422,-0.00271564,0.00249658,-0.00328964,-0.609358,0.00335112,0.0445356,1861,890,19.7663,-2.24282
644,134,19.6879,2.42181,3.70909e-05,-0.00103376,-0.00193253,0.00150699,-0.00250366,-0.650258,0.00233927,0.0383054,1868,890,19.6879,-2.42179
651,134,19.6003,2.33203,-0.00189642,-0.000876956,-0.00165305,0.000343167,-0.00311654,-0.934952,0.00220102,0.0393124,1875,890,19.6004,-2.33203
658,134,19.551,2.32117,-0.0040143,-0.000857597,-0.00154367,-0.000228209,-0.00464369,-1.18365,0.0030226,0.038224,1882,890,19.551,-2.32118
665,134,19.5586,2.34857,-0.0057605,-0.00083634,-0.00153029,-0.000399517,-0.00619733,-1.29274,0.00400503,0.0314594,1889,890,19.5585,-2.3486
672,134,19.5587,2.37372,-0.00717244,-0.000881991,-0.00149757,-0.000543659,-0.00751077,-1.34861,0.00483616,0.02426,1896,890,19.5587,-2.3737
679,134,19.553,2.35852,-0.00820334,-0.000766359,-0.00136189,-0.00052481,-0.00844489,-1.39526,0.0054634,0.0221089,1903,890,19.5529,-2.35854
686,134,19.2216,2.43823,0,0,0,0,0,0,0,-1,1910,890,19.2216,-2.43825
693,134,17.9714,2.47272,-0.00925349,-0.000745075,-0.00132856,-0.00054245,-0.00945612,-1.41945,0.00613127,0.0367902,1917,890,17.9714,-2.47275
700,134,17.0891,2.52466,-0.00890065,-0.000683185,-0.00133761,-0.000470937,-0.00911289,-1.41343,0.00592453,0.0195706,1924,890,17.0891,-2.52465
707,134,16.986,2.61804,-0.00818584,-0.000559546,-0.00119838,-0.000375669,-0.00836971,-1.41855,0.0054589,0.0186657,1931,890,16.9859,-2.61805
714,134,17.0408,2.85046,-0.00726266,-0.000256686,-0.00106469,-9.84611e-05,-0.00742088,-1.42326,0.00491476,0.0175118,1938,890,17.0407,-2.85045
721,134,17.1593,3.07104,-0.00589305,0.000275159,-0.000832959,0.000385663,-0.00600356,-1.4389,0.00413692,0.0146581,1945,890,17.1593,-3.07103
728,134,17.1793,3.22168,-0.00391176,0.000702467,-0.000560337,0.000769538,-0.00397883,-1.45167,0.0029428,0.0152331,1952,890,17.1793,-3.22166
735,134,17.1827,3.39178,-0.00339137,0.0026065,-0.00116038,0.00282317,-0.00360804,-1.3862,0.00372227,0.021245,1959,890,17.1828,-3.39179
742,134,17.1454,3.53333,-0.00409197,0.00506167,-0.00265043,0.00577372,-0.00480401,-1.30834,0.0061156,0.014901,1966,890,17.1454,-3.53333
749,134,17.1349,3.67261,-0.00473947,0.00772553,-0.00408369,0.00894424,-0.00595818,-1.28078,0.0086613,0.0123825,1973,890,17.1349,-3.67259
756,134,17.1429,3.85632,-0.00761926,0.011504,-0.00654606,0.0135301,-0.00964537,-1.27063,0.0134429,0.0168656,1980,890,17.143,-3.85633
763,134,17.1162,3.98865,-0.0122027,0.0163986,-0.00998933,0.019542,-0.0153461,-1.26593,0.0201911,0.0358467,1987,890,17.1162,-3.98865
770,134,17.1864,4.12335,-0.0184817,0.0225456,-0.0146257,0.0272257,-0.0231617,-1.26111,0.0291227,0.0429747,1994,890,17.1864,-4.12335
777,134,17.3989,4.26007,0,0,0,0,0,0,0,-1,2001,890,17.3989,-4.26005
784,134,17.1012,4.94678,-0.0376453,0.0393018,-0.0286147,0.0487763,-0.0471198,-1.25105,0.0553684,0.0479067,2008,890,17.1012,-4.94677
791,134,16.3799,4.56409,-0.0514319,0.050138,-0.0386534,0.0631747,-0.0644686,-1.24551,0.0736961,0.0454625,2015,890,16.3799,-4.56411
798,134,0,0,0,0,0,0,0,0,0,-1,2022,890,0,0
805,134,0,0,0,0,0,0,0,0,0,-1,2029,890,0,0
812,134,0,0,0,0,0,0,0,0,0,-1,2036,890,0,0
-700,127,0,0,0,0,0,0,0,0,0,-1,524,897,0,0
-693,127,0,0,0,0,0,0,0,0,0,-1,531,897,0,0
-686,127,0,0,0,0,0,0,0,0,0,-1,538,897,0,0
-679,127,-10.6539,2.29456,0.00388639,0.0173742,0.0134134,0.0256436,-0.00438307,1.01833,0.0187285,0.0431373,545,897,-10.6538,-2.29457
-672,127,-11.0412,1.1557,0.00994459,0.0107283,0.0168356,0.0271766,-0.00650374,0.797033,0.0206302,0.0429948,552,897,-11.0412,-1.15568
-665,127,-11.9683,2.4917,0.0124507,0.00630089,0.0180265,0.0276627,-0.00891111,0.700923,0.0220216,0.0485723,559,897,-11.9684,-2.49168
-658,127,-11.2875,0.59552,0,0,0,0,0,0,0,-1,566,897,-11.2875,-0.59554
-651,127,-12.0522,0.786926,0,0,0,0,0,0,0,-1,573,897,-12.0523,-0.786952
-644,127,-11.7357,0.996521,0,0,0,0,0,0,0,-1,580,897,-11.7357,-0.996517
-637,127,-11.4223,1.19006,0.00867721,-0.000456668,0.0124623,0.0173831,-0.00916251,0.609767,0.0155691,0.0434557,587,897,-11.4223,-1.19005
-630,127,-11.1776,1.35126,0.00666669,-0.000725863,0.0101798,0.0138005,-0.00785969,0.61125,0.0126613,0.0288489,594,897,-11.1776,-1.35128
-623,127,-11.1996,1.35809,0.00503193,-0.00151094,0.00838948,0.0107653,-0.00724426,0.599494,0.0104638,0.0113021,601,897,-11.1996,-1.35808
-616,127,-11.2501,1.28589,0.00297429,-0.00101674,0.00672424,0.00799287,-0.00603532,0.641155,0.00812542,0.00893316,608,897,-11.2501,-1.28588
-609,127,-11.2779,1.14832,0.000878565,-0.00116463,0.00436023,0.00433528,-0.00462135,0.670324,0.00517199,0.0122198,615,897,-11.2779,-1.14829
-602,127,-11.2755,1.01715,-0.00211008,-0.000937664,0.00309581,0.00162695,-0.00467469,0.878968,0.00377743,0.0131272,622,897,-11.2755,-1.01714
-595,127,-11.2555,0.921509,-0.00468433,-0.000802781,0.00216788,0.000166136,-0.00565325,1.15049,0.00382541,0.013154,629,897,-11.2555,-0.921524
-588,127,-11.334,0.820251,-0.00651727,-0.000684374,0.00167683,-0.000236684,-0.00696496,1.3099,0.00456646,0.018446,636,897,-11.334,-0.820249
-581,127,-11.3951,0.599426,-0.00780729,-0.00082093,0.00165778,-0.000447518,-0.0081807,1.34925,0.00531091,0.0245818,643,897,-11.3951,-0.599447
-574,127,-11.3412,0.463806,-0.00880168,-0.000947835,0.00165367,-0.00061385,-0.00913567,1.37151,0.00589649,0.0245012,650,897,-11.3413,-0.463787
-567,127,-11.0241,0.29187,0,0,0,0,0,0,0,-1,657,897,-11.0241,-0.29185
-560,127,-11.8707,0.470764,0,0,0,0,0,0,0,-1,664,897,-11.8706,-0.470741
-553,127,-12.827,0.445435,-0.00945893,-0.000345056,0.00201766,8.16435e-05,-0.00988563,1.36239,0.0066178,0.0387427,671,897,-12.827,-0.445426
-546,127,-12.8183,0.445801,-0.00894414,4.09897e-05,0.00211612,0.00051442,-0.00941757,1.3507,0.00645669,0.0228505,678,897,-12.8183,-0.445804
-539,127,-12.7553,0.488647,-0.00755863,0.000634495,0.00206838,0.00112705,-0.00805119,1.33701,0.00577989,0.0201377,685,897,-12.7553,-0.488666
-532,127,-12.7613,0.533813,-0.00515801,0.0015304,0.00181072,0.00198914,-0.00561675,1.32267,0.00455471,0.0181043,692,897,-12.7613,-0.533801
-525,127,-12.8035,0.562012,-0.00143282,0.00273876,0.00115038,0.00303497,-0.00172902,1.31879,0.00278473,0.0356379,699,897,-12.8036,-0.561985
-518,127,-12.8466,0.428772,0.00388225,0.00433951,-9.89299e-05,0.00435999,0.00386177,-1.3666,0.00275564,0.0426312,706,897,-12.8465,-0.42875
-511,127,-12.6673,0.391052,0.00983038,0.00619362,-0.0019413,0.0106719,0.00535209,-0.40904,0.00616144,0.0435618,713,897,-12.6673,-0.391062
-504,127,0,0,0,0,0,0,0,0,0,-1,720,897,0,0
-497,127,0,0,0,0,0,0,0,0,0,-1,727,897,0,0
-490,127,0,0,0,0,0,0,0,0,0,-1,734,897,0,0
-483,127,0,0,0,0,0,0,0,0,0,-1,741,897,0,0
-476,127,0,0,0,0,0,0,0,0,0,-1,748,897,0,0
-469,127,0,0,0,0,0,0,0,0,0,-1,755,897,0,0
-462,127,0,0,0,0,0,0,0,0,0,-1,762,897,0,0
-455,127,0,0,0,0,0,0,0,0,0,-1,769,897,0,0
-448,127,0,0,0,0,0,0,0,0,0,-1,776,897,0,0
-441,127,0,0,0,0,0,0,0,0,0,-1,783,897,0,0
-434,127,0,0,0,0,0,0,0,0,0,-1,790,897,0,0
-427,127,0,0,0,0,0,0,0,0,0,-1,797,897,0,0
-420,127,0,0,0,0,0,0,0,0,0,-1,804,897,0,0
-413,127,0,0,0,0,0,0,0,0,0,-1,811,897,0,0
-406,127,0,0,0,0,0,0,0,0,0,-1,818,897,0,0
-399,127,0,0,0,0,0,0,0,0,0,-1,825,897,0,0
-392,127,0,0,0,0,0,0,0,0,0,-1,832,897,0,0
-385,127,0,0,0,0,0,0,0,0,0,-1,839,897,0,0
-378,127,0,0,0,0,0,0,0,0,0,-1,846,897,0,0
-371,127,0,0,0,0,0,0,0,0,0,-1,853,897,0,0
-364,127,0,0,0,0,0,0,0,0,0,-1,860,897,0,0
-357,127,0,0,0,0,0,0,0,0,0,-1,867,897,0,0
-350,127,0,0,0,0,0,0,0,0,0,-1,874,897,0,0
-343,127,0,0,0,0,0,0,0,0,0,-1,881,897,0,0
-336,127,0,0,0,0,0,0,0,0,0,-1,888,897,0,0
-329,127,0,0,0,0,0,0,0,0,0,-1,895,897,0,0
-322,127,0,0,0,0,0,0,0,0,0,-1,902,897,0,0
-315,127,0,0,0,0,0,0,0,0,0,-1,909,897,0,0
-308,127,0,0,0,0,0,0,0,0,0,-1,916,897,0,0
-301,127,0,0,0,0,0,0,0,0,0,-1,923,897,0,0
-294,127,0,0,0,0,0,0,0,0,0,-1,930,897,0,0
-287,127,0,0,0,0,0,0,0,0,0,-1,937,897,0,0
-280,127,0,0,0,0,0,0,0,0,0,-1,944,897,0,0
-273,127,0,0,0,0,0,0,0,0,0,-1,951,897,0,0
-266,127,0,0,0,0,0,0,0,0,0,-1,958,897,0,0
-259,127,0,0,0,0,0,0,0,0,0,-1,965,897,0,0
-252,127,0,0,0,0,0,0,0,0,0,-1,972,897,0,0
-245,127,0,0,0,0,0,0,0,0,0,-1,979,897,0,0
-238,127,0,0,0,0,0,0,0,0,0,-1,986,897,0,0
-231,127,0,0,0,0,0,0,0,0,0,-1,993,897,0,0
-224,127,0,0,0,0,0,0,0,0,0,-1,1000,897,0,0
-217,127,0,0,0,0,0,0,0,0,0,-1,1007,897,0,0
-210,127,0,0,0,0,0,0,0,0,0,-1,1014,897,0,0
-203,127,0,0,0,0,0,0,0,0,0,-1,1021,897,0,0
-196,127,0,0,0,0,0,0,0,0,0,-1,1028,897,0,0
-189,127,0,0,0,0,0,0,0,0,0,-1,1035,897,0,0
-182,127,0,0,0,0,0,0,0,0,0,-1,1042,897,0,0
-175,127,0,0,0,0,0,0,0,0,0,-1,1049,897,0,0
-168,127,0,0,0,0,0,0,0,0,0,-1,1056,897,0,0
-161,127,0,0,0,0,0,0,0,0,0,-1,1063,897,0,0
-154,127,0,0,0,0,0,0,0,0,0,-1,1070,897,0,0
-147,127,0,0,0,0,0,0,0,0,0,-1,1077,897,0,0
-140,127,0,0,0,0,0,0,0,0,0,-1,1084,897,0,0
-133,127,0,0,0,0,0,0,0,0,0,-1,1091,897,0,0
-126,127,0,0,0,0,0,0,0,0,0,-1,1098,897,0,0
-119,127,0,0,0,0,0,0,0,0,0,-1,1105,897,0,0
-112,127,0,0,0,0,0,0,0,0,0,-1,1112,897,0,0
-105,127,0,0,0,0,0,0,0,0,0,-1,1119,897,0,0
-98,127,0,0,0,0,0,0,0,0,0,-1,1126,897,0,0
-91,127,0,0,0,0,0,0,0,0,0,-1,1133,897,0,0
-84,127,0,0,0,0,0,0,0,0,0,-1,1140,897,0,0
-77,127,0,0,0,0,0,0,0,0,0,-1,1147,897,0,0
-70,127,0,0,0,0,0,0,0,0,0,-1,1154,897,0,0
-63,127,0,0,0,0,0,0,0,0,0,-1,1161,897,0,0
-56,127,0,0,0,0,0,0,0,0,0,-1,1168,897,0,0
-49,127,0,0,0,0,0,0,0,0,0,-1,1175,897,0,0
-42,127,0,0,0,0,0,0,0,0,0,-1,1182,897,0,0
-35,127,0,0,0,0,0,0,0,0,0,-1,1189,897,0,0
-28,127,0,0,0,0,0,0,0,0,0,-1,1196,897,0,0
-21,127,0,0,0,0,0,0,0,0,0,-1,1203,897,0,0
-14,127,0,0,0,0,0,0,0,0,0,-1,1210,897,0,0
-7,127,0,0,0,0,0,0,0,0,0,-1,1217,897,0,0
0,127,0,0,0,0,0,0,0,0,0,-1,1224,897,0,0
7,127,0,0,0,0,0,0,0,0,0,-1,1231,897,0,0
14,127,0,0,0,0,0,0,0,0,0,-1,1238,897,0,0
21,127,0,0,0,0,0,0,0,0,0,-1,1245,897,0,0
28,127,0,0,0,0,0,0,0,0,0,-1,1252,897,0,0
35,127,0,0,0,0,0,0,0,0,0,-1,1259,897,0,0
42,127,0,0,0,0,0,0,0,0,0,-1,1266,897,0,0
49,127,0,0,0,0,0,0,0,0,0,-1,1273,897,0,0
56,127,0,0,0,0,0,0,0,0,0,-1,1280,897,0,0
63,127,0,0,0,0,0,0,0,0,0,-1,1287,897,0,0
70,127,0,0,0,0,0,0,0,0,0,-1,1294,897,0,0
77,127,0,0,0,0,0,0,0,0,0,-1,1301,897,0,0
84,127,0,0,0,0,0,0,0,0,0,-1,1308,897,0,0
91,127,0,0,0,0,0,0,0,0,0,-1,1315,897,0,0
98,127,0,0,0,0,0,0,0,0,0,-1,1322,897,0,0
105,127,0,0,0,0,0,0,0,0,0,-1,1329,897,0,0
112,127,0,0,0,0,0,0,0,0,0,-1,1336,897,0,0
119,127,0,0,0,0,0,0,0,0,0,-1,1343,897,0,0
126,127,0,0,0,0,0,0,0,0,0,-1,1350,897,0,0
133,127,0,0,0,0,0,0,0,0,0,-1,1357,897,0,0
140,127,0,0,0,0,0,0,0,0,0,-1,1364,897,0,0
147,127,0,0,0,0,0,0,0,0,0,-1,1371,897,0,0
154,127,0,0,0,0,0,0,0,0,0,-1,1378,897,0,0
161,127,0,0,0,0,0,0,0,0,0,-1,1385,897,0,0
168,127,0,0,0,0,0,0,0,0,0,-1,1392,897,0,0
175,127,0,0,0,0,0,0,0,0,0,-1,1399,897,0,0
182,127,0,0,0,0,0,0,0,0,0,-1,1406,897,0,0
189,127,0,0,0,0,0,0,0,0,0,-1,1413,897,0,0
196,127,0,0,0,0,0,0,0,0,0,-1,1420,897,0,0
203,127,0,0,0,0,0,0,0,0,0,-1,1427,897,0,0
210,127,0,0,0,0,0,0,0,0,0,-1,1434,897,0,0
217,127,0,0,0,0,0,0,0,0,0,-1,1441,897,0,0
224,127,0,0,0,0,0,0,0,0,0,-1,1448,897,0,0
231,127,0,0,0,0,0,0,0,0,0,-1,1455,897,0,0
238,127,0,0,0,0,0,0,0,0,0,-1,1462,897,0,0
245,127,0,0,0,0,0,0,0,0,0,-1,1469,897,0,0
252,127,0,0,0,0,0,0,0,0,0,-1,1476,897,0,0
259,127,0,0,0,0,0,0,0,0,0,-1,1483,897,0,0
266,127,0,0,0,0,0,0,0,0,0,-1,1490,897,0,0
273,127,0,0,0,0,0,0,0,0,0,-1,1497,897,0,0
280,127,0,0,0,0,0,0,0,0,0,-1,1504,897,0,0
287,127,0,0,0,0,0,0,0,0,0,-1,1511,897,0,0
294,127,0,0,0,0,0,0,0,0,0,-1,1518,897,0,0
301,127,0,0,0,0,0,0,0,0,0,-1,1525,897,0,0
308,127,0,0,0,0,0,0,0,0,0,-1,1532,897,0,0
315,127,0,0,0,0,0,0,0,0,0,-1,1539,897,0,0
322,127,0,0,0,0,0,0,0,0,0,-1,1546,897,0,0
329,127,0,0,0,0,0,0,0,0,0,-1,1553,897,0,0
336,127,0,0,0,0,0,0,0,0,0,-1,1560,897,0,0
343,127,0,0,0,0,0,0,0,0,0,-1,1567,897,0,0
350,127,0,0,0,0,0,0,0,0,0,-1,1574,897,0,0
357,127,0,0,0,0,0,0,0,0,0,-1,1581,897,0,0
364,127,0,0,0,0,0,0,0,0,0,-1,1588,897,0,0
371,127,0,0,0,0,0,0,0,0,0,-1,1595,897,0,0
378,127,0,0,0,0,0,0,0,0,0,-1,1602,897,0,0
385,127,0,0,0,0,0,0,0,0,0,-1,1609,897,0,0
392,127,0,0,0,0,0,0,0,0,0,-1,1616,897,0,0
399,127,0,0,0,0,0,0,0,0,0,-1,1623,897,0,0
406,127,0,0,0,0,0,0,0,0,0,-1,1630,897,0,0
413,127,0,0,0,0,0,0,0,0,0,-1,1637,897,0,0
420,127,0,0,0,0,0,0,0,0,0,-1,1644,897,0,0
427,127,0,0,0,0,0,0,0,0,0,-1,1651,897,0,0
434,127,0,0,0,0,0,0,0,0,0,-1,1658,897,0,0
441,127,0,0,0,0,0,0,0,0,0,-1,1665,897,0,0
448,127,0,0,0,0,0,0,0,0,0,-1,1672,897,0,0
455,127,0,0,0,0,0,0,0,0,0,-1,1679,897,0,0
462,127,0,0,0,0,0,0,0,0,0,-1,1686,897,0,0
469,127,0,0,0,0,0,0,0,0,0,-1,1693,897,0,0
476,127,0,0,0,0,0,0,0,0,0,-1,1700,897,0,0
483,127,0,0,0,0,0,0,0,0,0,-1,1707,897,0,0
490,127,0,0,0,0,0,0,0,0,0,-1,1714,897,0,0
497,127,0,0,0,0,0,0,0,0,0,-1,1721,897,0,0
504,127,0,0,0,0,0,0,0,0,0,-1,1728,897,0,0
511,127,0,0,0,0,0,0,0,0,0,-1,1735,897,0,0
518,127,0,0,0,0,0,0,0,0,0,-1,1742,897,0,0
525,127,0,0,0,0,0,0,0,0,0,-1,1749,897,0,0
532,127,0,0,0,0,0,0,0,0,0,-1,1756,897,0,0
539,127,0,0,0,0,0,0,0,0,0,-1,1763,897,0,0
546,127,0,0,0,0,0,0,0,0,0,-1,1770,897,0,0
553,127,0,0,0,0,0,0,0,0,0,-1,1777,897,0,0
560,127,0,0,0,0,0,0,0,0,0,-1,1784,897,0,0
567,127,0,0,0,0,0,0,0,0,0,-1,1791,897,0,0
574,127,0,0,0,0,0,0,0,0,0,-1,1798,897,0,0
581,127,0,0,0,0,0,0,0,0,0,-1,1805,897,0,0
588,127,0,0,0,0,0,0,0,0,0,-1,1812,897,0,0
595,127,0,0,0,0,0,0,0,0,0,-1,1819,897,0,0
602,127,0,0,0,0,0,0,0,0,0,-1,1826,897,0,0
609,127,0,0,0,0,0,0,0,0,0,-1,1833,897,0,0
616,127,0,0,0,0,0,0,0,0,0,-1,1840,897,0,0
623,127,0,0,0,0,0,0,0,0,0,-1,1847,897,0,0
630,127,19.5007,2.64941,0.000138719,-0.00107953,-0.00367851,0.00325819,-0.004199,-0.703348,0.00431682,0.0424465,1854,897,19.5007,-2.64939
637,127,19.6324,2.46777,0.000283487,-0.000490366,-0.00256884,0.00249438,-0.00270126,-0.710649,0.0030005,0.0400702,1861,897,19.6324,-2.46776
644,127,19.7701,2.48523,-0.000240652,-0.00039736,-0.00163363,0.0013165,-0.00195451,-0.761435,0.00190045,0.0391902,1868,897,19.7701,-2.4852
651,127,19.5789,2.46759,-0.00228638,-0.000429047,-0.00132526,0.000260541,-0.00297597,-1.09101,0.00207628,0.0430778,1875,897,19.5789,-2.4676
658,127,19.4996,2.4212,-0.00458404,-0.000546344,-0.00121509,-0.000208882,-0.0049215,-1.2999,0.00321363,0.0428418,1882,897,19.4996,-2.42122
665,127,19.5298,2.40424,-0.00652714,-0.000646098,-0.00120147,-0.000410112,-0.00676313,-1.37685,0.00437846,0.0374711,1889,897,19.5298,-2.40422
672,127,19.5298,2.31085,-0.00801533,-0.00076099,-0.00119254,-0.000569977,-0.00820634,-1.41197,0.00529115,0.0306666,1896,897,19.5298,-2.31088
679,127,19.5868,2.3114,-0.00903938,-0.000693188,-0.00110242,-0.000550028,-0.00918254,-1.44166,0.00594684,0.0269812,1903,897,19.5868,-2.31142
686,127,19.5826,2.30164,-0.00970546,-0.000748969,-0.00103979,-0.00062984,-0.00982459,-1.45672,0.0063502,0.0318739,1910,897,19.5827,-2.30165
693,127,18.3411,2.42719,-0.00989757,-0.000698799,-0.00109757,-0.000569654,-0.0100267,-1.45367,0.00650292,0.0380129,1917,897,18.341,-2.42716
700,127,17.3047,2.56018,-0.00946934,-0.000647826,-0.00111022,-0.000510245,-0.00960692,-1.4475,0.00624149,0.0266107,1924,897,17.3047,-2.56019
707,127,17.1598,2.69708,-0.00866612,-0.000519883,-0.00102419,-0.00039309,-0.00879291,-1.44762,0.0057354,0.0231321,1931,897,17.1598,-2.69706
714,127,17.2008,2.89539,-0.0077342,-0.000222566,-0.000953102,-0.00010352,-0.00785325,-1.44654,0.00520133,0.0195828,1938,897,17.2008,-2.89539
721,127,17.344,3.13385,-0.00645941,0.000303657,-0.000789861,0.00039468,-0.00655043,-1.45606,0.00450428,0.014063,1945,897,17.3441,-3.13386
728,127,17.3218,3.2204,-0.00456712,0.000749152,-0.000558514,0.000807195,-0.00462516,-1.46725,0.00338474,0.0138346,1952,897,17.3218,-3.22039
735,127,17.3348,3.38141,-0.00398441,0.0025456,-0.0011403,0.002739,-0.00417781,-1.40279,0.00402212,0.0215797,1959,897,17.3348,-3.38143
742,127,17.3236,3.53027,-0.00455056,0.00485155,-0.00263901,0.00554163,-0.00524064,-1.31503,0.00622595,0.019416,1966,897,17.3236,-3.53026
749,127,17.3179,3.65741,-0.00503273,0.007325,-0.00406522,0.00854238,-0.00625011,-1.27983,0.00857456,0.013287,1973,897,17.3179,-3.65738
756,127,17.3282,3.7912,-0.00783493,0.0108759,-0.00651439,0.0129205,-0.00987957,-1.26667,0.0132026,0.0148447,1980,897,17.3283,-3.79121
763,127,17.2765,3.89594,-0.0123215,0.0154405,-0.00989404,0.0186057,-0.0154868,-1.26117,0.0197107,0.0209871,1987,897,17.2765,-3.89592
770,127,17.1965,3.88586,-0.0184079,0.0210797,-0.0144002,0.0257732,-0.0231014,-1.25572,0.0282318,0.0389219,1994,897,17.1966,-3.88586
777,127,17.1993,3.91003,0,0,0,0,0,0,0,-1,2001,897,17.1993,-3.91002
784,127,17.2103,4.79047,-0.0367578,0.036194,-0.0279545,0.045674,-0.0462377,-1.24384,0.0530656,0.0492141,2008,897,17.2104,-4.79048
791,127,16.345,4.2962,-0.0498594,0.045783,-0.0376824,0.0588456,-0.062922,-1.23711,0.0703157,0.0442845,2015,897,16.345,-4.29619
798,127,0,0,0,0,0,0,0,0,0,-1,2022,897,0,0
805,127,0,0,0,0,0,0,0,0,0,-1,2029,897,0,0
812,127,0,0,0,0,0,0,0,0,0,-1,2036,897,0,0
-700,120,0,0,0,0,0,0,0,0,0,-1,524,904,0,0
-693,120,0,0,0,0,0,0,0,0,0,-1,531,904,0,0
-686,120,0,0,0,0,0,0,0,0,0,-1,538,904,0,0
-679,120,-11.0984,1.29956,0.00301041,0.0148838,0.0179674,0.0278699,-0.00997568,0.944959,0.0226497,0.0439204,545,904,-11.0984,-1.29955
-672,120,-11.0073,0.965881,0.0077847,0.00911254,0.0189694,0.0274296,-0.0105324,0.802891,0.0226295,0.0419828,552,904,-11.0073,-0.965911
-665,120,-11.984,1.99213,0.00999495,0.00520669,0.0187168,0.0264701,-0.0112684,0.721787,0.0223698,0.0462963,559,904,-11.984,-1.9921
-658,120,-11.4447,1.20135,0.010615,0.00258737,0.0175677,0.0246216,-0.0114192,0.673087,0.0212685,0.0440329,566,904,-11.4447,-1.20134
-651,120,-11.314,1.37482,0.010208,0.000879067,0.0158586,0.0220739,-0.0109868,0.642367,0.0194421,0.0492171,573,904,-11.314,-1.37484
-644,120,-12.1494,0.921997,0,0,0,0,0,0,0,-1,580,904,-12.1493,-0.922027
-637,120,-11.7994,1.18976,0.00755411,-0.000731276,0.0116638,0.0157891,-0.00896627,0.61476,0.0144723,0.0380422,587,904,-11.7994,-1.18974
-630,120,-11.3763,1.37976,0.0058215,-0.000909139,0.00933698,0.0123811,-0.00746876,0.61243,0.0115767,0.020152,594,904,-11.3763,-1.37975
-623,120,-11.3749,1.33966,0.0043087,-0.00158435,0.00757684,0.00949178,-0.00676743,0.599954,0.00943109,0.00887068,601,904,-11.3749,-1.33968
-616,120,-11.389,1.25165,0.00238297,-0.00112566,0.00597552,0.00685637,-0.00559906,0.642618,0.00720335,0.00903456,608,904,-11.389,-1.25166
-609,120,-11.3867,1.14301,0.000333488,-0.00126377,0.00388983,0.00350582,-0.00443611,0.684149,0.00459575,0.0126392,615,904,-11.3867,-1.143
-602,120,-11.4061,1.0434,-0.00254659,-0.000987864,0.00274989,0.00109097,-0.00462543,0.923485,0.00350435,0.0128575,622,904,-11.4061,-1.0434
-595,120,-11.3871,0.933899,-0.00493838,-0.000817549,0.00184033,-0.000115331,-0.0056406,1.20628,0.00372255,0.016464,629,904,-11.3871,-0.933874
-588,120,-11.4258,0.805603,-0.00665069,-0.000696247,0.00137238,-0.000395166,-0.00695177,1.35483,0.00450857,0.0218938,636,904,-11.4259,-0.805589
-581,120,-11.5214,0.685059,-0.00790532,-0.000753882,0.00130673,-0.000522593,-0.00813661,1.39561,0.00525887,0.0262308,643,904,-11.5214,-0.685051
-574,120,-11.438,0.47644,-0.00877684,-0.000817931,0.00125726,-0.000624045,-0.00897072,1.41779,0.0057837,0.0218981,650,904,-11.438,-0.47644
-567,120,-11.276,0.172302,0,0,0,0,0,0,0,-1,657,904,-11.276,-0.172291
-560,120,-12.8107,0.335022,0,0,0,0,0,0,0,-1,664,904,-12.8107,-0.335038
-553,120,-12.8356,0.389954,-0.00879516,-0.000175432,0.00146075,6.53891e-05,-0.00903598,1.40741,0.0060459,0.0390201,671,904,-12.8357,-0.38995
-546,120,-12.8223,0.371948,-0.00797348,0.000286761,0.00153311,0.000562129,-0.00824885,1.39308,0.00569586,0.0313664,678,904,-12.8223,-0.371963
-539,120,-12.7606,0.452759,-0.00628941,0.000997363,0.00149444,0.00129195,-0.00658399,1.37617,0.00487735,0.0249509,685,904,-12.7606,-0.452775
-532,120,-12.7223,0.482056,-0.0035519,0.00199452,0.00127586,0.00227393,-0.00383131,1.3552,0.00356289,0.0280332,692,904,-12.7223,-0.482035
-525,120,-12.8226,0.502625,0.000518225,0.00335706,0.000708493,0.00352406,0.000351229,1.33932,0.00224149,0.0366276,699,904,-12.8225,-0.502608
-518,120,-13.0103,0.726929,0.00596087,0.00524002,-0.000351098,0.00610361,0.00509728,-0.386144,0.00377856,0.0411208,706,904,-13.0103,-0.726942
-511,120,-12.7887,0.671753,0.0114093,0.00751375,-0.00179866,0.0121128,0.0068103,-0.372808,0.00701134,0.0411773,713,904,-12.7887,-0.671756
-504,120,0,0,0,0,0,0,0,0,0,-1,720,904,0,0
-497,120,0,0,0,0,0,0,0,0,0,-1,727,904,0,0
-490,120,0,0,0,0,0,0,0,0,0,-1,734,904,0,0
-483,120,0,0,0,0,0,0,0,0,0,-1,741,904,0,0
-476,120,0,0,0,0,0,0,0,0,0,-1,748,904,0,0
-469,120,0,0,0,0,0,0,0,0,0,-1,755,904,0,0
-462,120,0,0,0,0,0,0,0,0,0,-1,762,904,0,0
-455,120,0,0,0,0,0,0,0,0,0,-1,769,904,0,0
-448,120,0,0,0,0,0,0,0,0,0,-1,776,904,0,0
-441,120,0,0,0,0,0,0,0,0,0,-1,783,904,0,0
-434,120,0,0,0,0,0,0,0,0,0,-1,790,904,0,0
-427,120,0,0,0,0,0,0,0,0,0,-1,797,904,0,0
-420,120,0,0,0,0,0,0,0,0,0,-1,804,904,0,0
-413,120,0,0,0,0,0,0,0,0,0,-1,811,904,0,0
-406,120,0,0,0,0,0,0,0,0,0,-1,818,904,0,0
-399,120,0,0,0,0,0,0,0,0,0,-1,825,904,0,0
-392,120,0,0,0,0,0,0,0,0,0,-1,832,904,0,0
-385,120,0,0,0,0,0,0,0,0,0,-1,839,904,0,0
-378,120,0,0,0,0,0,0,0,0,0,-1,846,904,0,0
-371,120,0,0,0,0,0,0,0,0,0,-1,853,904,0,0
-364,120,0,0,0,0,0,0,0,0,0,-1,860,904,0,0
-357,120,0,0,0,0,0,0,0,0,0,-1,867,904,0,0
-350,120,0,0,0,0,0,0,0,0,0,-1,874,904,0,0
-343,120,0,0,0,0,0,0,0,0,0,-1,881,904,0,0
-336,120,0,0,0,0,0,0,0,0,0,-1,888,904,0,0
-329,120,0,0,0,0,0,0,0,0,0,-1,895,904,0,0
-322,120,0,0,0,0,0,0,0,0,0,-1,902,904,0,0
-315,120,0,0,0,0,0,0,0,0,0,-1,909,904,0,0
-308,120,0,0,0,0,0,0,0,0,0,-1,916,904,0,0
-301,120,0,0,0,0,0,0,0,0,0,-1,923,904,0,0
-294,120,0,0,0,0,0,0,0,0,0,-1,930,904,0,0
-287,120,0,0,0,0,0,0,0,0,0,-1,937,904,0,0
-280,120,0,0,0,0,0,0,0,0,0,-1,944,904,0,0
-273,120,0,0,0,0,0,0,0,0,0,-1,951,904,0,0
-266,120,0,0,0,0,0,0,0,0,0,-1,958,904,0,0
-259,120,0,0,0,0,0,0,0,0,0,-1,965,904,0,0
-252,120,0,0,0,0,0,0,0,0,0,-1,972,904,0,0
-245,120,0,0,0,0,0,0,0,0,0,-1,979,904,0,0
-238,120,0,0,0,0,0,0,0,0,0,-1,986,904,0,0
-231,120,0,0,0,0,0,0,0,0,0,-1,993,904,0,0
-224,120,0,0,0,0,0,0,0,0,0,-1,1000,904,0,0
-217,120,0,0,0,0,0,0,0,0,0,-1,1007,904,0,0
-210,120,0,0,0,0,0,0,0,0,0,-1,1014,904,0,0
-203,120,0,0,0,0,0,0,0,0,0,-1,1021,904,0,0
-196,120,0,0,0,0,0,0,0,0,0,-1,1028,904,0,0
-189,120,0,0,0,0,0,0,0,0,0,-1,1035,904,0,0
-182,120,0,0,0,0,0,0,0,0,0,-1,1042,904,0,0
-175,120,0,0,0,0,0,0,0,0,0,-1,1049,904,0,0
-168,120,0,0,0,0,0,0,0,0,0,-1,1056,904,0,0
-161,120,0,0,0,0,0,0,0,0,0,-1,1063,904,0,0
-154,120,0,0,0,0,0,0,0,0,0,-1,1070,904,0,0
-147,120,0,0,0,0,0,0,0,0,0,-1,1077,904,0,0
-140,120,0,0,0,0,0,0,0,0,0,-1,1084,904,0,0
-133,120,0,0,0,0,0,0,0,0,0,-1,1091,904,0,0
-126,120,0,0,0,0,0,0,0,0,0,-1,1098,904,0,0
-119,120,0,0,0,0,0,0,0,0,0,-1,1105,904,0,0
-112,120,0,0,0,0,0,0,0,0,0,-1,1112,904,0,0
-105,120,0,0,0,0,0,0,0,0,0,-1,1119,904,0,0
-98,120,0,0,0,0,0,0,0,0,0,-1,1126,904,0,0
-91,120,0,0,0,0,0,0,0,0,0,-1,1133,904,0,0
-84,120,0,0,0,0,0,0,0,0,0,-1,1140,904,0,0
-77,120,0,0,0,0,0,0,0,0,0,-1,1147,904,0,0
-70,120,0,0,0,0,0,0,0,0,0,-1,1154,904,0,0
-63,120,0,0,0,0,0,0,0,0,0,-1,1161,904,0,0
-56,120,0,0,0,0,0,0,0,0,0,-1,1168,904,0,0
-49,120,0,0,0,0,0,0,0,0,0,-1,1175,904,0,0
-42,120,0,0,0,0,0,0,0,0,0,-1,1182,904,0,0
-35,120,0,0,0,0,0,0,0,0,0,-1,1189,904,0,0
-28,120,0,0,0,0,0,0,0,0,0,-1,1196,904,0,0
-21,120,0,0,0,0,0,0,0,0,0,-1,1203,904,0,0
-14,120,0,0,0,0,0,0,0,0,0,-1,1210,904,0,0
-7,120,0,0,0,0,0,0,0,0,0,-1,1217,904,0,0
0,120,0,0,0,0,0,0,0,0,0,-1,1224,904,0,0
7,120,0,0,0,0,0,0,0,0,0,-1,1231,904,0,0
14,120,0,0,0,0,0,0,0,0,0,-1,1238,904,0,0
21,120,0,0,0,0,0,0,0,0,0,-1,1245,904,0,0
28,120,0,0,0,0,0,0,0,0,0,-1,1252,904,0,0
35,120,0,0,0,0,0,0,0,0,0,-1,1259,904,0,0
42,120,0,0,0,0,0,0,0,0,0,-1,1266,904,0,0
49,120,0,0,0,0,0,0,0,0,0,-1,1273,904,0,0
56,120,0,0,0,0,0,0,0,0,0,-1,1280,904,0,0
63,120,0,0,0,0,0,0,0,0,0,-1,1287,904,0,0
70,120,0,0,0,0,0,0,0,0,0,-1,1294,904,0,0
77,120,0,0,0,0,0,0,0,0,0,-1,1301,904,0,0
84,120,0,0,0,0,0,0,0,0,0,-1,1308,904,0,0
91,120,0,0,0,0,0,0,0,0,0,-1,1315,904,0,0
98,120,0,0,0,0,0,0,0,0,0,-1,1322,904,0,0
105,120,0,0,0,0,0,0,0,0,0,-1,1329,904,0,0
112,120,0,0,0,0,0,0,0,0,0,-1,1336,904,0,0
119,120,0,0,0,0,0,0,0,0,0,-1,1343,904,0,0
126,120,0,0,0,0,0,0,0,0,0,-1,1350,904,0,0
133,120,0,0,0,0,0,0,0,0,0,-1,1357,904,0,0
140,120,0,0,0,0,0,0,0,0,0,-1,1364,904,0,0
147,120,0,0,0,0,0,0,0,0,0,-1,1371,904,0,0
154,120,0,0,0,0,0,0,0,0,0,-1,1378,904,0,0
161,120,0,0,0,0,0,0,0,0,0,-1,1385,904,0,0
168,120,0,0,0,0,0,0,0,0,0,-1,1392,904,0,0
175,120,0,0,0,0,0,0,0,0,0,-1,1399,904,0,0
182,120,0,0,0,0,0,0,0,0,0,-1,1406,904,0,0
189,120,0,0,0,0,0,0,0,0,0,-1,1413,904,0,0
196,120,0,0,0,0,0,0,0,0,0,-1,1420,904,0,0
203,120,0,0,0,0,0,0,0,0,0,-1,1427,904,0,0
210,120,0,0,0,0,0,0,0,0,0,-1,1434,904,0,0
217,120,0,0,0,0,0,0,0,0,0,-1,1441,904,0,0
224,120,0,0,0,0,0,0,0,0,0,-1,1448,904,0,0
231,120,0,0,0,0,0,0,0,0,0,-1,1455,904,0,0
238,120,0,0,0,0,0,0,0,0,0,-1,1462,904,0,0
245,120,0,0,0,0,0,0,0,0,0,-1,1469,904,0,0
252,120,0,0,0,0,0,0,0,0,0,-1,1476,904,0,0
259,120,0,0,0,0,0,0,0,0,0,-1,1483,904,0,0
266,120,0,0,0,0,0,0,0,0,0,-1,1490,904,0,0
273,120,0,0,0,0,0,0,0,0,0,-1,1497,904,0,0
280,120,0,0,0,0,0,0,0,0,0,-1,1504,904,0,0
287,120,0,0,0,0,0,0,0,0,0,-1,1511,904,0,0
294,120,0,0,0,0,0,0,0,0,0,-1,1518,904,0,0
301,120,0,0,0,0,0,0,0,0,0,-1,1525,904,0,0
308,120,0,0,0,0,0,0,0,0,0,-1,1532,904,0,0
315,120,0,0,0,0,0,0,0,0,0,-1,1539,904,0,0
322,120,0,0,0,0,0,0,0,0,0,-1,1546,904,0,0
329,120,0,0,0,0,0,0,0,0,0,-1,1553,904,0,0
336,120,0,0,0,0,0,0,0,0,0,-1,1560,904,0,0
343,120,0,0,0,0,0,0,0,0,0,-1,1567,904,0,0
350,120,0,0,0,0,0,0,0,0,0,-1,1574,904,0,0
357,120,0,0,0,0,0,0,0,0,0,-1,1581,904,0,0
364,120,0,0,0,0,0,0,0,0,0,-1,1588,904,0,0
371,120,0,0,0,0,0,0,0,0,0,-1,1595,904,0,0
378,120,0,0,0,0,0,0,0,0,0,-1,1602,904,0,0
385,120,0,0,0,0,0,0,0,0,0,-1,1609,904,0,0
392,120,0,0,0,0,0,0,0,0,0,-1,1616,904,0,0
399,120,0,0,0,0,0,0,0,0,0,-1,1623,904,0,0
406,120,0,0,0,0,0,0,0,0,0,-1,1630,904,0,0
413,120,0,0,0,0,0,0,0,0,0,-1,1637,904,0,0
420,120,0,0,0,0,0,0,0,0,0,-1,1644,904,0,0
427,120,0,0,0,0,0,0,0,0,0,-1,1651,904,0,0
434,120,0,0,0,0,0,0,0,0,0,-1,1658,904,0,0
441,120,0,0,0,0,0,0,0,0,0,-1,1665,904,0,0
448,120,0,0,0,0,0,0,0,0,0,-1,1672,904,0,0
455,120,0,0,0,0,0,0,0,0,0,-1,1679,904,0,0
462,120,0,0,0,0,0,0,0,0,0,-1,1686,904,0,0
469,120,0,0,0,0,0,0,0,0,0,-1,1693,904,0,0
476,120,0,0,0,0,0,0,0,0,0,-1,1700,904,0,0
483,120,0,0,0,0,0,0,0,0,0,-1,1707,904,0,0
490,120,0,0,0,0,0,0,0,0,0,-1,1714,904,0,0
497,120,0,0,0,0,0,0,0,0,0,-1,1721,904,0,0
504,120,0,0,0,0,0,0,0,0,0,-1,1728,904,0,0
511,120,0,0,0,0,0,0,0,0,0,-1,1735,904,0,0
518,120,0,0,0,0,0,0,0,0,0,-1,1742,904,0,0
525,120,0,0,0,0,0,0,0,0,0,-1,1749,904,0,0
532,120,0,0,0,0,0,0,0,0,0,-1,1756,904,0,0
539,120,0,0,0,0,0,0,0,0,0,-1,1763,904,0,0
546,120,0,0,0,0,0,0,0,0,0,-1,1770,904,0,0
553,120,0,0,0,0,0,0,0,0,0,-1,1777,904,0,0
560,120,0,0,0,0,0,0,0,0,0,-1,1784,904,0,0
567,120,0,0,0,0,0,0,0,0,0,-1,1791,904,0,0
574,120,0,0,0,0,0,0,0,0,0,-1,1798,904,0,0
581,120,0,0,0,0,0,0,0,0,0,-1,1805,904,0,0
588,120,0,0,0,0,0,0,0,0,0,-1,1812,904,0,0
595,120,0,0,0,0,0,0,0,0,0,-1,1819,904,0,0
602,120,0,0,0,0,0,0,0,0,0,-1,1826,904,0,0
609,120,0,0,0,0,0,0,0,0,0,-1,1833,904,0,0
616,120,0,0,0,0,0,0,0,0,0,-1,1840,904,0,0
623,120,0,0,0,0,0,0,0,0,0,-1,1847,904,0,0
630,120,19.546,2.52985,-0.000241264,-0.000738745,-0.00304237,0.00256252,-0.00354253,-0.74461,0.00353986,0.0376408,1854,904,19.5461,-2.52982
637,120,19.5377,2.53033,-0.000154137,-0.000251991,-0.00193388,0.00173144,-0.00213757,-0.772751,0.00223787,0.0387585,1861,904,19.5377,-2.53036
644,120,19.5543,2.56323,-0.000439216,-0.000244958,-0.00100962,0.000672192,-0.00135637,-0.833352,0.00119319,0.0398626,1868,904,19.5544,-2.56321
651,120,19.4281,2.47906,-0.00238479,-0.000308979,-0.000773088,-5.27008e-05,-0.00264107,-1.2507,0.00174341,0.0431611,1875,904,19.4281,-2.47907
658,120,19.3275,2.47772,-0.00469665,-0.000424313,-0.000726932,-0.000304014,-0.00481695,-1.40679,0.00311491,0.0436583,1882,904,19.3275,-2.47771
665,120,19.4165,2.54395,-0.00673258,-0.000538911,-0.00076554,-0.000445693,-0.0068258,-1.44963,0.00440949,0.0391239,1889,904,19.4165,-2.54392
672,120,19.4893,2.34613,-0.00826062,-0.000633308,-0.0008169,-0.000546798,-0.00834713,-1.46529,0.00539173,0.0356235,1896,904,19.4893,-2.34611
679,120,19.5497,2.29065,-0.00928558,-0.00056762,-0.000789247,-0.000496744,-0.00935645,-1.48124,0.00607882,0.0324594,1903,904,19.5497,-2.29068
686,120,19.5413,2.37958,-0.00989028,-0.000611685,-0.000773619,-0.000547626,-0.00995434,-1.48818,0.00646142,0.0208015,1910,904,19.5412,-2.37959
693,120,18.897,2.52612,-0.0100321,-0.000560436,-0.000835992,-0.000487216,-0.0101053,-1.48343,0.00658048,0.042553,1917,904,18.897,-2.52614
700,120,17.4686,2.64044,0,0,0,0,0,0,0,-1,1924,904,17.4686,-2.64045
707,120,17.3923,2.80646,-0.00874496,-0.00038517,-0.000817406,-0.000305995,-0.00882414,-1.47424,0.00578346,0.0195788,1931,904,17.3924,-2.80646
714,120,17.4739,2.98309,-0.00786373,-0.000102509,-0.000805852,-1.97198e-05,-0.00794652,-1.46842,0.00529112,0.0166522,1938,904,17.4739,-2.98308
721,120,17.4811,3.11584,-0.00670919,0.00037708,-0.00071557,0.000448616,-0.00678072,-1.47116,0.0046772,0.0142053,1945,904,17.4811,-3.11583
728,120,17.4822,3.26495,-0.00494657,0.000793787,-0.000545694,0.000845201,-0.00499798,-1.47685,0.00364652,0.0105637,1952,904,17.4821,-3.26496
735,120,17.4731,3.38947,-0.00427992,0.00239733,-0.00112461,0.00258165,-0.00446424,-1.40834,0.00411607,0.0133064,1959,904,17.4731,-3.38946
742,120,17.4717,3.53986,-0.00462283,0.00448399,-0.00259907,0.00517355,-0.00531239,-1.31146,0.00605424,0.0143929,1966,904,17.4717,-3.53983
749,120,17.4677,3.6604,-0.00484921,0.00671189,-0.00403274,0.00797959,-0.00611691,-1.26623,0.00816226,0.0110265,1973,904,17.4676,-3.66038
756,120,17.4679,3.77588,-0.00736245,0.00995624,-0.0064737,0.0121086,-0.00951481,-1.24982,0.0125142,0.0117833,1980,904,17.4679,-3.77588
763,120,17.412,3.88739,-0.0114825,0.0141127,-0.00979454,0.0174307,-0.0148005,-1.24417,0.0186293,0.0196041,1987,904,17.412,-3.88736
770,120,17.2618,3.99268,-0.0170681,0.0191799,-0.014176,0.0240654,-0.0219536,-1.23891,0.0265784,0.0402677,1994,904,17.2618,-3.99268
777,120,17.1797,4.07544,0,0,0,0,0,0,0,-1,2001,904,17.1797,-4.07547
784,120,17.3849,4.92688,0,0,0,0,0,0,0,-1,2008,904,17.3849,-4.92691
791,120,16.8409,4.35632,-0.0457347,0.0409075,-0.0367035,0.0543654,-0.0591927,-1.21935,0.0655825,0.0451339,2015,904,16.841,-4.35633
798,120,16.021,3.81653,0,0,0,0,0,0,0,-1,2022,904,16.0209,-3.81655
805,120,0,0,0,0,0,0,0,0,0,-1,2029,904,0,0
812,120,0,0,0,0,0,0,0,0,0,-1,2036,904,0,0
-700,113,0,0,0,0,0,0,0,0,0,-1,524,911,0,0
-693,113,0,0,0,0,0,0,0,0,0,-1,531,911,0,0
-686,113,0,0,0,0,0,0,0,0,0,-1,538,911,0,0
-679,113,-11.1309,1.435,0.00502736,0.0104677,0.0235941,0.031498,-0.0160029,0.84279,0.0279068,0.0465422,545,911,-11.1309,-1.43502
-672,113,-11.4095,1.2876,0.00774001,0.00634774,0.0220044,0.0290593,-0.0149715,0.769585,0.0258513,0.0458484,552,911,-11.4095,-1.28762
-665,113,-11.8703,1.60193,0.00892238,0.0035345,0.0200154,0.0264243,-0.0139674,0.718504,0.023687,0.0466272,559,911,-11.8703,-1.60191
-658,113,-11.5323,1.8717,0.00912333,0.00163731,0.0177561,0.0235267,-0.0127661,0.681519,0.0212584,0.0461448,566,911,-11.5323,-1.87168
-651,113,-11.4729,1.73529,0.00865392,0.000404667,0.0153882,0.0204607,-0.0114021,0.654457,0.0186422,0.0465743,573,911,-11.4729,-1.73531
-644,113,-11.5513,1.47717,0.0076929,-0.000335655,0.0130259,0.0173091,-0.00995182,0.635928,0.015929,0.0423984,580,911,-11.5513,-1.47719
-637,113,-11.5425,1.44867,0.00639829,-0.000717674,0.0107209,0.0141362,-0.00845562,0.625181,0.0131801,0.0319995,587,911,-11.5425,-1.44867
-630,113,-11.4957,1.43335,0.00480953,-0.00074338,0.00829175,0.0107773,-0.00671117,0.623843,0.0101875,0.0141241,594,911,-11.4957,-1.43333
-623,113,-11.5011,1.34564,0.00334267,-0.00130537,0.00652083,0.00794125,-0.00590394,0.614216,0.00802232,0.00923571,601,911,-11.5011,-1.34562
-616,113,-11.4948,1.24084,0.00156959,-0.000962949,0.00503096,0.00549119,-0.00488455,0.662111,0.00599385,0.00891262,608,911,-11.4948,-1.24086
-609,113,-11.4961,1.13849,-0.000372468,-0.00114422,0.00326017,0.00252459,-0.00404127,0.726492,0.00382436,0.0105983,615,911,-11.4961,-1.13847
-602,113,-11.5243,1.04407,-0.00303645,-0.000885087,0.00226327,0.000545119,-0.00446666,1.00724,0.00317511,0.0146545,622,911,-11.5243,-1.04406
-595,113,-11.5428,0.9599,-0.00522378,-0.000687901,0.00141061,-0.000285005,-0.00562667,1.29258,0.00365982,0.0180775,629,911,-11.5428,-0.959874
-588,113,-11.5255,0.841736,-0.00680622,-0.000563637,0.000997285,-0.000408186,-0.00696167,1.41617,0.00451121,0.018307,636,911,-11.5255,-0.84174
-581,113,-11.5204,0.697144,-0.00804274,-0.000558807,0.000926748,-0.000445754,-0.00815579,1.44941,0.00529487,0.0193455,643,911,-11.5204,-0.697174
-574,113,-11.4548,0.494446,-0.00885382,-0.000575827,0.000854218,-0.000488598,-0.00894105,1.46903,0.00580469,0.018607,650,911,-11.4548,-0.494465
-567,113,-11.9181,0.375671,-0.00904996,-0.000520778,0.000785348,-0.000449068,-0.00912167,1.47974,0.00593709,0.0402663,657,911,-11.9181,-0.37568
-560,113,-12.774,0.511108,0,0,0,0,0,0,0,-1,664,911,-12.774,-0.511082
-553,113,-12.8088,0.415405,-0.00847176,0.000153692,0.000929535,0.000252727,-0.0085708,1.46465,0.00579994,0.0390562,671,911,-12.8088,-0.415425
-546,113,-12.7839,0.320068,-0.00742226,0.000666844,0.000978542,0.000783535,-0.00753895,1.45211,0.00530647,0.0344785,678,911,-12.7839,-0.320095
-539,113,-12.7021,0.366821,-0.00550212,0.00137856,0.000942765,0.0015054,-0.00562896,1.43706,0.00434231,0.0361715,685,911,-12.7021,-0.36684
-532,113,-12.723,0.492188,-0.00252611,0.00232894,0.000760567,0.00244529,-0.00264247,1.41899,0.00293816,0.0374388,692,911,-12.723,-0.492218
-525,113,-12.888,0.690735,0.00177143,0.00357745,0.000262192,0.00361474,0.00173413,1.4295,0.00208754,0.037363,699,911,-12.888,-0.690755
-518,113,-12.8539,0.674377,0.00717946,0.00527607,-0.000668994,0.00739107,0.00506446,-0.306351,0.00436373,0.0401183,706,911,-12.8539,-0.674351
-511,113,-12.8292,0.622925,0.0120527,0.00720417,-0.00185641,0.0126819,0.00657503,-0.326755,0.00732355,0.0406698,713,911,-12.8291,-0.622919
-504,113,0,0,0,0,0,0,0,0,0,-1,720,911,0,0
-497,113,0,0,0,0,0,0,0,0,0,-1,727,911,0,0
-490,113,0,0,0,0,0,0,0,0,0,-1,734,911,0,0
-483,113,0,0,0,0,0,0,0,0,0,-1,741,911,0,0
-476,113,0,0,0,0,0,0,0,0,0,-1,748,911,0,0
-469,113,0,0,0,0,0,0,0,0,0,-1,755,911,0,0
-462,113,0,0,0,0,0,0,0,0,0,-1,762,911,0,0
-455,113,0,0,0,0,0,0,0,0,0,-1,769,911,0,0
-448,113,0,0,0,0,0,0,0,0,0,-1,776,911,0,0
-441,113,0,0,0,0,0,0,0,0,0,-1,783,911,0,0
-434,113,0,0,0,0,0,0,0,0,0,-1,790,911,0,0
-427,113,0,0,0,0,0,0,0,0,0,-1,797,911,0,0
-420,113,0,0,0,0,0,0,0,0,0,-1,804,911,0,0
-413,113,0,0,0,0,0,0,0,0,0,-1,811,911,0,0
-406,113,0,0,0,0,0,0,0,0,0,-1,818,911,0,0
-399,113,0,0,0,0,0,0,0,0,0,-1,825,911,0,0
-392,113,0,0,0,0,0,0,0,0,0,-1,832,911,0,0
-385,113,0,0,0,0,0,0,0,0,0,-1,839,911,0,0
-378,113,0,0,0,0,0,0,0,0,0,-1,846,911,0,0
-371,113,0,0,0,0,0,0,0,0,0,-1,853,911,0,0
-364,113,0,0,0,0,0,0,0,0,0,-1,860,911,0,0
-357,113,0,0,0,0,0,0,0,0,0,-1,867,911,0,0
-350,113,0,0,0,0,0,0,0,0,0,-1,874,911,0,0
-343,113,0,0,0,0,0,0,0,0,0,-1,881,911,0,0
-336,113,0,0,0,0,0,0,0,0,0,-1,888,911,0,0
-329,113,0,0,0,0,0,0,0,0,0,-1,895,911,0,0
-322,113,0,0,0,0,0,0,0,0,0,-1,902,911,0,0
-315,113,0,0,0,0,0,0,0,0,0,-1,909,911,0,0
-308,113,0,0,0,0,0,0,0,0,0,-1,916,911,0,0
-301,113,0,0,0,0,0,0,0,0,0,-1,923,911,0,0
-294,113,0,0,0,0,0,0,0,0,0,-1,930,911,0,0
-287,113,0,0,0,0,0,0,0,0,0,-1,937,911,0,0
-280,113,0,0,0,0,0,0,0,0,0,-1,944,911,0,0
-273,113,0,0,0,0,0,0,0,0,0,-1,951,911,0,0
-266,113,0,0,0,0,0,0,0,0,0,-1,958,911,0,0
-259,113,0,0,0,0,0,0,0,0,0,-1,965,911,0,0
-252,113,0,0,0,0,0,0,0,0,0,-1,972,911,0,0
-245,113,0,0,0,0,0,0,0,0,0,-1,979,911,0,0
-238,113,0,0,0,0,0,0,0,0,0,-1,986,911,0,0
-231,113,0,0,0,0,0,0,0,0,0,-1,993,911,0,0
-224,113,0,0,0,0,0,0,0,0,0,-1,1000,911,0,0
-217,113,0,0,0,0,0,0,0,0,0,-1,1007,911,0,0
-210,113,0,0,0,0,0,0,0,0,0,-1,1014,911,0,0
-203,113,0,0,0,0,0,0,0,0,0,-1,1021,911,0,0
-196,113,0,0,0,0,0,0,0,0,0,-1,1028,911,0,0
-189,113,0,0,0,0,0,0,0,0,0,-1,1035,911,0,0
-182,113,0,0,0,0,0,0,0,0,0,-1,1042,911,0,0
-175,113,0,0,0,0,0,0,0,0,0,-1,1049,911,0,0
-168,113,0,0,0,0,0,0,0,0,0,-1,1056,911,0,0
-161,113,0,0,0,0,0,0,0,0,0,-1,1063,911,0,0
-154,113,0,0,0,0,0,0,0,0,0,-1,1070,911,0,0
-147,113,0,0,0,0,0,0,0,0,0,-1,1077,911,0,0
-140,113,0,0,0,0,0,0,0,0,0,-1,1084,911,0,0
-133,113,0,0,0,0,0,0,0,0,0,-1,1091,911,0,0
-126,113,0,0,0,0,0,0,0,0,0,-1,1098,911,0,0
-119,113,0,0,0,0,0,0,0,0,0,-1,1105,911,0,0
-112,113,0,0,0,0,0,0,0,0,0,-1,1112,911,0,0
-105,113,0,0,0,0,0,0,0,0,0,-1,1119,911,0,0
-98,113,0,0,0,0,0,0,0,0,0,-1,1126,911,0,0
-91,113,0,0,0,0,0,0,0,0,0,-1,1133,911,0,0
-84,113,0,0,0,0,0,0,0,0,0,-1,1140,911,0,0
-77,113,0,0,0,0,0,0,0,0,0,-1,1147,911,0,0
-70,113,0,0,0,0,0,0,0,0,0,-1,1154,911,0,0
-63,113,0,0,0,0,0,0,0,0,0,-1,1161,911,0,0
-56,113,0,0,0,0,0,0,0,0,0,-1,1168,911,0,0
-49,113,0,0,0,0,0,0,0,0,0,-1,1175,911,0,0
-42,113,0,0,0,0,0,0,0,0,0,-1,1182,911,0,0
-35,113,0,0,0,0,0,0,0,0,0,-1,1189,911,0,0
-28,113,0,0,0,0,0,0,0,0,0,-1,1196,911,0,0
-21,113,0,0,0,0,0,0,0,0,0,-1,1203,911,0,0
-14,113,0,0,0,0,0,0,0,0,0,-1,1210,911,0,0
-7,113,0,0,0,0,0,0,0,0,0,-1,1217,911,0,0
0,113,0,0,0,0,0,0,0,0,0,-1,1224,911,0,0
7,113,0,0,0,0,0,0,0,0,0,-1,1231,911,0,0
14,113,0,0,0,0,0,0,0,0,0,-1,1238,911,0,0
21,113,0,0,0,0,0,0,0,0,0,-1,1245,911,0,0
28,113,0,0,0,0,0,0,0,0,0,-1,1252,911,0,0
35,113,0,0,0,0,0,0,0,0,0,-1,1259,911,0,0
42,113,0,0,0,0,0,0,0,0,0,-1,1266,911,0,0
49,113,0,0,0,0,0,0,0,0,0,-1,1273,911,0,0
56,113,0,0,0,0,0,0,0,0,0,-1,1280,911,0,0
63,113,0,0,0,0,0,0,0,0,0,-1,1287,911,0,0
70,113,0,0,0,0,0,0,0,0,0,-1,1294,911,0,0
77,113,0,0,0,0,0,0,0,0,0,-1,1301,911,0,0
84,113,0,0,0,0,0,0,0,0,0,-1,1308,911,0,0
91,113,0,0,0,0,0,0,0,0,0,-1,1315,911,0,0
98,113,0,0,0,0,0,0,0,0,0,-1,1322,911,0,0
105,113,0,0,0,0,0,0,0,0,0,-1,1329,911,0,0
112,113,0,0,0,0,0,0,0,0,0,-1,1336,911,0,0
119,113,0,0,0,0,0,0,0,0,0,-1,1343,911,0,0
126,113,0,0,0,0,0,0,0,0,0,-1,1350,911,0,0
133,113,0,0,0,0,0,0,0,0,0,-1,1357,911,0,0
140,113,0,0,0,0,0,0,0,0,0,-1,1364,911,0,0
147,113,0,0,0,0,0,0,0,0,0,-1,1371,911,0,0
154,113,0,0,0,0,0,0,0,0,0,-1,1378,911,0,0
161,113,0,0,0,0,0,0,0,0,0,-1,1385,911,0,0
168,113,0,0,0,0,0,0,0,0,0,-1,1392,911,0,0
175,113,0,0,0,0,0,0,0,0,0,-1,1399,911,0,0
182,113,0,0,0,0,0,0,0,0,0,-1,1406,911,0,0
189,113,0,0,0,0,0,0,0,0,0,-1,1413,911,0,0
196,113,0,0,0,0,0,0,0,0,0,-1,1420,911,0,0
203,113,0,0,0,0,0,0,0,0,0,-1,1427,911,0,0
210,113,0,0,0,0,0,0,0,0,0,-1,1434,911,0,0
217,113,0,0,0,0,0,0,0,0,0,-1,1441,911,0,0
224,113,0,0,0,0,0,0,0,0,0,-1,1448,911,0,0
231,113,0,0,0,0,0,0,0,0,0,-1,1455,911,0,0
238,113,0,0,0,0,0,0,0,0,0,-1,1462,911,0,0
245,113,0,0,0,0,0,0,0,0,0,-1,1469,911,0,0
252,113,0,0,0,0,0,0,0,0,0,-1,1476,911,0,0
259,113,0,0,0,0,0,0,0,0,0,-1,1483,911,0,0
266,113,0,0,0,0,0,0,0,0,0,-1,1490,911,0,0
273,113,0,0,0,0,0,0,0,0,0,-1,1497,911,0,0
280,113,0,0,0,0,0,0,0,0,0,-1,1504,911,0,0
287,113,0,0,0,0,0,0,0,0,0,-1,1511,911,0,0
294,113,0,0,0,0,0,0,0,0,0,-1,1518,911,0,0
301,113,0,0,0,0,0,0,0,0,0,-1,1525,911,0,0
308,113,0,0,0,0,0,0,0,0,0,-1,1532,911,0,0
315,113,0,0,0,0,0,0,0,0,0,-1,1539,911,0,0
322,113,0,0,0,0,0,0,0,0,0,-1,1546,911,0,0
329,113,0,0,0,0,0,0,0,0,0,-1,1553,911,0,0
336,113,0,0,0,0,0,0,0,0,0,-1,1560,911,0,0
343,113,0,0,0,0,0,0,0,0,0,-1,1567,911,0,0
350,113,0,0,0,0,0,0,0,0,0,-1,1574,911,0,0
357,113,0,0,0,0,0,0,0,0,0,-1,1581,911,0,0
364,113,0,0,0,0,0,0,0,0,0,-1,1588,911,0,0
371,113,0,0,0,0,0,0,0,0,0,-1,1595,911,0,0
378,113,0,0,0,0,0,0,0,0,0,-1,1602,911,0,0
385,113,0,0,0,0,0,0,0,0,0,-1,1609,911,0,0
392,113,0,0,0,0,0,0,0,0,0,-1,1616,911,0,0
399,113,0,0,0,0,0,0,0,0,0,-1,1623,911,0,0
406,113,0,0,0,0,0,0,0,0,0,-1,1630,911,0,0
413,113,0,0,0,0,0,0,0,0,0,-1,1637,911,0,0
420,113,0,0,0,0,0,0,0,0,0,-1,1644,911,0,0
427,113,0,0,0,0,0,0,0,0,0,-1,1651,911,0,0
434,113,0,0,0,0,0,0,0,0,0,-1,1658,911,0,0
441,113,0,0,0,0,0,0,0,0,0,-1,1665,911,0,0
448,113,0,0,0,0,0,0,0,0,0,-1,1672,911,0,0
455,113,0,0,0,0,0,0,0,0,0,-1,1679,911,0,0
462,113,0,0,0,0,0,0,0,0,0,-1,1686,911,0,0
469,113,0,0,0,0,0,0,0,0,0,-1,1693,911,0,0
476,113,0,0,0,0,0,0,0,0,0,-1,1700,911,0,0
483,113,0,0,0,0,0,0,0,0,0,-1,1707,911,0,0
490,113,0,0,0,0,0,0,0,0,0,-1,1714,911,0,0
497,113,0,0,0,0,0,0,0,0,0,-1,1721,911,0,0
504,113,0,0,0,0,0,0,0,0,0,-1,1728,911,0,0
511,113,0,0,0,0,0,0,0,0,0,-1,1735,911,0,0
518,113,0,0,0,0,0,0,0,0,0,-1,1742,911,0,0
525,113,0,0,0,0,0,0,0,0,0,-1,1749,911,0,0
532,113,0,0,0,0,0,0,0,0,0,-1,1756,911,0,0
539,113,0,0,0,0,0,0,0,0,0,-1,1763,911,0,0
546,113,0,0,0,0,0,0,0,0,0,-1,1770,911,0,0
553,113,0,0,0,0,0,0,0,0,0,-1,1777,911,0,0
560,113,0,0,0,0,0,0,0,0,0,-1,1784,911,0,0
567,113,0,0,0,0,0,0,0,0,0,-1,1791,911,0,0
574,113,0,0,0,0,0,0,0,0,0,-1,1798,911,0,0
581,113,0,0,0,0,0,0,0,0,0,-1,1805,911,0,0
588,113,0,0,0,0,0,0,0,0,0,-1,1812,911,0,0
595,113,0,0,0,0,0,0,0,0,0,-1,1819,911,0,0
602,113,0,0,0,0,0,0,0,0,0,-1,1826,911,0,0
609,113,0,0,0,0,0,0,0,0,0,-1,1833,911,0,0
616,113,0,0,0,0,0,0,0,0,0,-1,1840,911,0,0
623,113,0,0,0,0,0,0,0,0,0,-1,1847,911,0,0
630,113,19.6501,2.35742,-0.00121773,-0.00085107,-0.00217072,0.00114405,-0.00321285,-0.827526,0.00260827,0.037426,1854,911,19.6502,-2.35745
637,113,19.6292,2.4726,-0.000837577,-0.000288003,-0.00120781,0.00067588,-0.00180146,-0.897249,0.00147868,0.0375212,1861,911,19.6292,-2.47257
644,113,19.5421,2.5246,-0.000712291,-0.000234595,-0.000374726,-2.90692e-05,-0.000917817,-1.06913,0.000602422,0.0393505,1868,911,19.5421,-2.52459
651,113,19.4957,2.33429,-0.00239964,-0.000237508,-0.000228391,-0.000213646,-0.0024235,-1.46669,0.00154937,0.0415276,1875,911,19.4957,-2.33428
658,113,19.5813,2.36865,-0.00460043,-0.000283315,-0.000240095,-0.000270004,-0.00461374,-1.51541,0.00298989,0.0413656,1882,911,19.5813,-2.36866
665,113,19.6013,2.53058,-0.00662461,-0.000338693,-0.00032895,-0.000321526,-0.00664178,-1.51865,0.00432466,0.037709,1889,911,19.6013,-2.53057
672,113,19.5427,2.51013,-0.00817257,-0.000385403,-0.000422558,-0.000362541,-0.00819543,-1.51674,0.00534687,0.0351472,1896,911,19.5427,-2.51014
679,113,19.5345,2.40271,-0.00921896,-0.000322289,-0.000434592,-0.000301111,-0.00924014,-1.5221,0.00606222,0.0294408,1903,911,19.5346,-2.40273
686,113,19.509,2.39917,-0.0098007,-0.000373685,-0.000446549,-0.000352579,-0.00982181,-1.52357,0.00643357,0.0281031,1910,911,19.509,-2.39915
693,113,19.4116,2.49768,-0.00992428,-0.000336433,-0.000497994,-0.000310637,-0.00995008,-1.51904,0.0065323,0.0422185,1917,911,19.4116,-2.4977
700,113,18.3326,2.72003,0,0,0,0,0,0,0,-1,1924,911,18.3326,-2.72001
707,113,17.572,2.80591,0,0,0,0,0,0,0,-1,1931,911,17.572,-2.80594
714,113,17.5857,2.92255,-0.00787234,5.23537e-05,-0.000565842,9.2552e-05,-0.00791254,-1.49987,0.00530614,0.0171625,1938,911,17.5857,-2.92257
721,113,17.5913,3.07098,-0.00682164,0.00043604,-0.000537828,0.00047568,-0.00686128,-1.49723,0.0047407,0.0154947,1945,911,17.5913,-3.07097
728,113,17.6218,3.25287,-0.00522084,0.000753895,-0.00040116,0.00078071,-0.00524765,-1.50405,0.0037856,0.0151868,1952,911,17.6219,-3.25286
735,113,17.6006,3.39905,-0.00446485,0.00205709,-0.000917832,0.00218379,-0.00459155,-1.43362,0.00399323,0.0144867,1959,911,17.6006,-3.39905
742,113,17.6069,3.53058,-0.00450967,0.00378537,-0.0022969,0.00437892,-0.00510321,-1.31792,0.00547983,0.012033,1966,911,17.6069,-3.53061
749,113,17.6133,3.65198,-0.00443012,0.00564222,-0.00366568,0.00683503,-0.00562293,-1.2562,0.00720395,0.00925741,1973,911,17.6132,-3.652
756,113,17.6077,3.76849,-0.00649743,0.00839812,-0.00597275,0.0104972,-0.00859655,-1.23283,0.011042,0.0103234,1980,911,17.6076,-3.76847
763,113,17.5481,3.90741,-0.0100627,0.0119402,-0.00908374,0.0152057,-0.0133282,-1.22569,0.016486,0.0185131,1987,911,17.5482,-3.90738
770,113,17.5452,4.02039,-0.014952,0.0162134,-0.0131647,0.02103,-0.0197686,-1.22005,0.0235588,0.0397644,1994,911,17.5452,-4.02036
777,113,17.5703,4.11383,0,0,0,0,0,0,0,-1,2001,911,17.5703,-4.11384
784,113,17.6029,4.61182,-0.0296206,0.02736,-0.0254277,0.0370569,-0.0393176,-1.20647,0.0441013,0.0484351,2008,911,17.603,-4.61183
791,113,17.1271,4.48163,-0.0400082,0.0342157,-0.0342673,0.0476165,-0.0534091,-1.19801,0.0583591,0.0468704,2015,911,17.127,-4.48162
798,113,16.7229,4.32721,0,0,0,0,0,0,0,-1,2022,911,16.7229,-4.32724
805,113,0,0,0,0,0,0,0,0,0,-1,2029,911,0,0
812,113,0,0,0,0,0,0,0,0,0,-1,2036,911,0,0
-700,106,0,0,0,0,0,0,0,0,0,-1,524,918,0,0
-693,106,0,0,0,0,0,0,0,0,0,-1,531,918,0,0
-686,106,0,0,0,0,0,0,0,0,0,-1,538,918,0,0
-679,106,-11.7856,1.59912,0.0110238,0.00544583,0.0290293,0.0373977,-0.0209281,0.737508,0.034119,0.0461063,545,918,-11.7856,-1.59914
-672,106,-11.8036,1.59924,0.0111414,0.00314004,0.0252307,0.0326867,-0.0184052,0.706771,0.0298796,0.0454974,552,918,-11.8036,-1.59927
-665,106,-11.5096,1.4303,0.0105923,0.00162617,0.0216096,0.028179,-0.0159605,0.683121,0.0258074,0.0460905,559,918,-11.5096,-1.43027
-658,106,-11.6003,1.76172,0.00968456,0.000630824,0.018213,0.0239248,-0.0136094,0.663591,0.0219415,0.0449298,566,918,-11.6003,-1.76173
-651,106,-11.5526,1.79901,0.00855888,-5.72172e-08,0.0151097,0.0199834,-0.0114246,0.647399,0.0183565,0.0448468,573,918,-11.5526,-1.79901
-644,106,-11.5244,1.68695,0.00727414,-0.000361152,0.0123269,0.016361,-0.00944799,0.635231,0.0150779,0.0412356,580,918,-11.5244,-1.68692
-637,106,-11.5298,1.51141,0.00588058,-0.000532089,0.00983393,0.0130177,-0.00766919,0.627808,0.0120759,0.0266723,587,918,-11.5298,-1.51143
-630,106,-11.5891,1.46167,0.00411563,-0.000368209,0.00724431,0.00945699,-0.00570957,0.635336,0.00884507,0.0113732,594,918,-11.5891,-1.46169
-623,106,-11.6102,1.35791,0.00250351,-0.000800221,0.00541337,0.00651143,-0.00480815,0.637313,0.00655998,0.0102067,601,918,-11.6101,-1.35789
-616,106,-11.6099,1.24542,0.000829819,-0.000605114,0.00406095,0.0042362,-0.00401149,0.697963,0.0047624,0.0101474,608,918,-11.6099,-1.2454
-609,106,-11.6198,1.13776,-0.0010524,-0.00085992,0.00262267,0.00166828,-0.0035806,0.803737,0.00309676,0.0102799,615,918,-11.6198,-1.13777
-602,106,-11.6198,1.02832,-0.00347556,-0.000653229,0.00175539,0.000187892,-0.00431668,1.12396,0.00294242,0.0130247,622,918,-11.6198,-1.02834
-595,106,-11.6718,0.94751,-0.00538453,-0.000468137,0.000934138,-0.000296629,-0.00555603,1.38922,0.00360921,0.0167986,629,918,-11.6718,-0.947494
-588,106,-11.6605,0.820068,-0.00677128,-0.000378487,0.000558834,-0.000330004,-0.00681977,1.48425,0.0044406,0.0175399,636,918,-11.6605,-0.820083
-581,106,-11.581,0.681946,-0.00790845,-0.000367298,0.000472047,-0.000337864,-0.00793788,1.50852,0.00518297,0.0140895,643,918,-11.581,-0.68197
-574,106,-11.6193,0.55542,-0.00856466,-0.000353351,0.000356395,-0.000337912,-0.0085801,1.5275,0.00561082,0.0196178,650,918,-11.6192,-0.555409
-567,106,-12.1722,0.504944,-0.00857527,-0.000278588,0.000213044,-0.000273122,-0.00858074,1.54514,0.00563166,0.0362952,657,918,-12.1723,-0.504916
-560,106,-12.8644,0.473206,0,0,0,0,0,0,0,-1,664,918,-12.8645,-0.47323
-553,106,-12.7726,0.474854,-0.00760116,0.000394914,0.000249374,0.000402684,-0.00760893,1.53965,0.00521204,0.0369423,671,918,-12.7726,-0.474865
-546,106,-12.7,0.303772,-0.00631573,0.000893336,0.000268088,0.000903292,-0.00632569,1.53368,0.00454822,0.0400038,678,918,-12.7,-0.303752
-539,106,-12.7048,0.224915,-0.00422277,0.00154602,0.000242715,0.00155622,-0.00423296,1.52882,0.00345943,0.0423996,685,918,-12.7048,-0.224914
-532,106,-12.7082,0.367676,-0.00118084,0.00236811,0.000119984,0.00237217,-0.00118489,1.53704,0.00209145,0.0399413,692,918,-12.7082,-0.367657
-525,106,-12.7705,0.606567,0.0029845,0.00338096,-0.000264855,0.00351355,0.00285191,-1.10665,0.00215593,0.0365451,699,918,-12.7705,-0.606568
-518,106,-12.7475,0.467957,0.00772521,0.0046979,-0.000987939,0.00801908,0.00440402,-0.28913,0.00463728,0.0380434,706,918,-12.7475,-0.467953
-511,106,0,0,0,0,0,0,0,0,0,-1,713,918,0,0
-504,106,0,0,0,0,0,0,0,0,0,-1,720,918,0,0
-497,106,0,0,0,0,0,0,0,0,0,-1,727,918,0,0
-490,106,0,0,0,0,0,0,0,0,0,-1,734,918,0,0
-483,106,0,0,0,0,0,0,0,0,0,-1,741,918,0,0
-476,106,0,0,0,0,0,0,0,0,0,-1,748,918,0,0
-469,106,0,0,0,0,0,0,0,0,0,-1,755,918,0,0
-462,106,0,0,0,0,0,0,0,0,0,-1,762,918,0,0
-455,106,0,0,0,0,0,0,0,0,0,-1,769,918,0,0
-448,106,0,0,0,0,0,0,0,0,0,-1,776,918,0,0
-441,106,0,0,0,0,0,0,0,0,0,-1,783,918,0,0
-434,106,0,0,0,0,0,0,0,0,0,-1,790,918,0,0
-427,106,0,0,0,0,0,0,0,0,0,-1,797,918,0,0
-420,106,0,0,0,0,0,0,0,0,0,-1,804,918,0,0
-413,106,0,0,0,0,0,0,0,0,0,-1,811,918,0,0
-406,106,0,0,0,0,0,0,0,0,0,-1,818,918,0,0
-399,106,0,0,0,0,0,0,0,0,0,-1,825,918,0,0
-392,106,0,0,0,0,0,0,0,0,0,-1,832,918,0,0
-385,106,0,0,0,0,0,0,0,0,0,-1,839,918,0,0
-378,106,0,0,0,0,0,0,0,0,0,-1,846,918,0,0
-371,106,0,0,0,0,0,0,0,0,0,-1,853,918,0,0
-364,106,0,0,0,0,0,0,0,0,0,-1,860,918,0,0
-357,106,0,0,0,0,0,0,0,0,0,-1,867,918,0,0
-350,106,0,0,0,0,0,0,0,0,0,-1,874,918,0,0
-343,106,0,0,0,0,0,0,0,0,0,-1,881,918,0,0
-336,106,0,0,0,0,0,0,0,0,0,-1,888,918,0,0
-329,106,0,0,0,0,0,0,0,0,0,-1,895,918,0,0
-322,106,0,0,0,0,0,0,0,0,0,-1,902,918,0,0
-315,106,0,0,0,0,0,0,0,0,0,-1,909,918,0,0
-308,106,0,0,0,0,0,0,0,0,0,-1,916,918,0,0
-301,106,0,0,0,0,0,0,0,0,0,-1,923,918,0,0
-294,106,0,0,0,0,0,0,0,0,0,-1,930,918,0,0
-287,106,0,0,0,0,0,0,0,0,0,-1,937,918,0,0
-280,106,0,0,0,0,0,0,0,0,0,-1,944,918,0,0
-273,106,0,0,0,0,0,0,0,0,0,-1,951,918,0,0
-266,106,0,0,0,0,0,0,0,0,0,-1,958,918,0,0
-259,106,0,0,0,0,0,0,0,0,0,-1,965,918,0,0
-252,106,0,0,0,0,0,0,0,0,0,-1,972,918,0,0
-245,106,0,0,0,0,0,0,0,0,0,-1,979,918,0,0
-238,106,0,0,0,0,0,0,0,0,0,-1,986,918,0,0
-231,106,0,0,0,0,0,0,0,0,0,-1,993,918,0,0
-224,106,0,0,0,0,0,0,0,0,0,-1,1000,918,0,0
-217,106,0,0,0,0,0,0,0,0,0,-1,1007,918,0,0
-210,106,0,0,0,0,0,0,0,0,0,-1,1014,918,0,0
-203,106,0,0,0,0,0,0,0,0,0,-1,1021,918,0,0
-196,106,0,0,0,0,0,0,0,0,0,-1,1028,918,0,0
-189,106,0,0,0,0,0,0,0,0,0,-1,1035,918,0,0
-182,106,0,0,0,0,0,0,0,0,0,-1,1042,918,0,0
-175,106,0,0,0,0,0,0,0,0,0,-1,1049,918,0,0
-168,106,0,0,0,0,0,0,0,0,0,-1,1056,918,0,0
-161,106,0,0,0,0,0,0,0,0,0,-1,1063,918,0,0
-154,106,0,0,0,0,0,0,0,0,0,-1,1070,918,0,0
-147,106,0,0,0,0,0,0,0,0,0,-1,1077,918,0,0
-140,106,0,0,0,0,0,0,0,0,0,-1,1084,918,0,0
-133,106,0,0,0,0,0,0,0,0,0,-1,1091,918,0,0
-126,106,0,0,0,0,0,0,0,0,0,-1,1098,918,0,0
-119,106,0,0,0,0,0,0,0,0,0,-1,1105,918,0,0
-112,106,0,0,0,0,0,0,0,0,0,-1,1112,918,0,0
-105,106,0,0,0,0,0,0,0,0,0,-1,1119,918,0,0
-98,106,0,0,0,0,0,0,0,0,0,-1,1126,918,0,0
-91,106,0,0,0,0,0,0,0,0,0,-1,1133,918,0,0
-84,106,0,0,0,0,0,0,0,0,0,-1,1140,918,0,0
-77,106,0,0,0,0,0,0,0,0,0,-1,1147,918,0,0
-70,106,0,0,0,0,0,0,0,0,0,-1,1154,918,0,0
-63,106,0,0,0,0,0,0,0,0,0,-1,1161,918,0,0
-56,106,0,0,0,0,0,0,0,0,0,-1,1168,918,0,0
-49,106,0,0,0,0,0,0,0,0,0,-1,1175,918,0,0
-42,106,0,0,0,0,0,0,0,0,0,-1,1182,918,0,0
-35,106,0,0,0,0,0,0,0,0,0,-1,1189,918,0,0
-28,106,0,0,0,0,0,0,0,0,0,-1,1196,918,0,0
-21,106,0,0,0,0,0,0,0,0,0,-1,1203,918,0,0
-14,106,0,0,0,0,0,0,0,0,0,-1,1210,918,0,0
-7,106,0,0,0,0,0,0,0,0,0,-1,1217,918,0,0
0,106,0,0,0,0,0,0,0,0,0,-1,1224,918,0,0
7,106,0,0,0,0,0,0,0,0,0,-1,1231,918,0,0
14,106,0,0,0,0,0,0,0,0,0,-1,1238,918,0,0
21,106,0,0,0,0,0,0,0,0,0,-1,1245,918,0,0
28,106,0,0,0,0,0,0,0,0,0,-1,1252,918,0,0
35,106,0,0,0,0,0,0,0,0,0,-1,1259,918,0,0
42,106,0,0,0,0,0,0,0,0,0,-1,1266,918,0,0
49,106,0,0,0,0,0,0,0,0,0,-1,1273,918,0,0
56,106,0,0,0,0,0,0,0,0,0,-1,1280,918,0,0
63,106,0,0,0,0,0,0,0,0,0,-1,1287,918,0,0
70,106,0,0,0,0,0,0,0,0,0,-1,1294,918,0,0
77,106,0,0,0,0,0,0,0,0,0,-1,1301,918,0,0
84,106,0,0,0,0,0,0,0,0,0,-1,1308,918,0,0
91,106,0,0,0,0,0,0,0,0,0,-1,1315,918,0,0
98,106,0,0,0,0,0,0,0,0,0,-1,1322,918,0,0
105,106,0,0,0,0,0,0,0,0,0,-1,1329,918,0,0
112,106,0,0,0,0,0,0,0,0,0,-1,1336,918,0,0
119,106,0,0,0,0,0,0,0,0,0,-1,1343,918,0,0
126,106,0,0,0,0,0,0,0,0,0,-1,1350,918,0,0
133,106,0,0,0,0,0,0,0,0,0,-1,1357,918,0,0
140,106,0,0,0,0,0,0,0,0,0,-1,1364,918,0,0
147,106,0,0,0,0,0,0,0,0,0,-1,1371,918,0,0
154,106,0,0,0,0,0,0,0,0,0,-1,1378,918,0,0
161,106,0,0,0,0,0,0,0,0,0,-1,1385,918,0,0
168,106,0,0,0,0,0,0,0,0,0,-1,1392,918,0,0
175,106,0,0,0,0,0,0,0,0,0,-1,1399,918,0,0
182,106,0,0,0,0,0,0,0,0,0,-1,1406,918,0,0
189,106,0,0,0,0,0,0,0,0,0,-1,1413,918,0,0
196,106,0,0,0,0,0,0,0,0,0,-1,1420,918,0,0
203,106,0,0,0,0,0,0,0,0,0,-1,1427,918,0,0
210,106,0,0,0,0,0,0,0,0,0,-1,1434,918,0,0
217,106,0,0,0,0,0,0,0,0,0,-1,1441,918,0,0
224,106,0,0,0,0,0,0,0,0,0,-1,1448,918,0,0
231,106,0,0,0,0,0,0,0,0,0,-1,1455,918,0,0
238,106,0,0,0,0,0,0,0,0,0,-1,1462,918,0,0
245,106,0,0,0,0,0,0,0,0,0,-1,1469,918,0,0
252,106,0,0,0,0,0,0,0,0,0,-1,1476,918,0,0
259,106,0,0,0,0,0,0,0,0,0,-1,1483,918,0,0
266,106,0,0,0,0,0,0,0,0,0,-1,1490,918,0,0
273,106,0,0,0,0,0,0,0,0,0,-1,1497,918,0,0
280,106,0,0,0,0,0,0,0,0,0,-1,1504,918,0,0
287,106,0,0,0,0,0,0,0,0,0,-1,1511,918,0,0
294,106,0,0,0,0,0,0,0,0,0,-1,1518,918,0,0
301,106,0,0,0,0,0,0,0,0,0,-1,1525,918,0,0
308,106,0,0,0,0,0,0,0,0,0,-1,1532,918,0,0
315,106,0,0,0,0,0,0,0,0,0,-1,1539,918,0,0
322,106,0,0,0,0,0,0,0,0,0,-1,1546,918,0,0
329,106,0,0,0,0,0,0,0,0,0,-1,1553,918,0,0
336,106,0,0,0,0,0,0,0,0,0,-1,1560,918,0,0
343,106,0,0,0,0,0,0,0,0,0,-1,1567,918,0,0
350,106,0,0,0,0,0,0,0,0,0,-1,1574,918,0,0
357,106,0,0,0,0,0,0,0,0,0,-1,1581,918,0,0
364,106,0,0,0,0,0,0,0,0,0,-1,1588,918,0,0
371,106,0,0,0,0,0,0,0,0,0,-1,1595,918,0,0
378,106,0,0,0,0,0,0,0,0,0,-1,1602,918,0,0
385,106,0,0,0,0,0,0,0,0,0,-1,1609,918,0,0
392,106,0,0,0,0,0,0,0,0,0,-1,1616,918,0,0
399,106,0,0,0,0,0,0,0,0,0,-1,1623,918,0,0
406,106,0,0,0,0,0,0,0,0,0,-1,1630,918,0,0
413,106,0,0,0,0,0,0,0,0,0,-1,1637,918,0,0
420,106,0,0,0,0,0,0,0,0,0,-1,1644,918,0,0
427,106,0,0,0,0,0,0,0,0,0,-1,1651,918,0,0
434,106,0,0,0,0,0,0,0,0,0,-1,1658,918,0,0
441,106,0,0,0,0,0,0,0,0,0,-1,1665,918,0,0
448,106,0,0,0,0,0,0,0,0,0,-1,1672,918,0,0
455,106,0,0,0,0,0,0,0,0,0,-1,1679,918,0,0
462,106,0,0,0,0,0,0,0,0,0,-1,1686,918,0,0
469,106,0,0,0,0,0,0,0,0,0,-1,1693,918,0,0
476,106,0,0,0,0,0,0,0,0,0,-1,1700,918,0,0
483,106,0,0,0,0,0,0,0,0,0,-1,1707,918,0,0
490,106,0,0,0,0,0,0,0,0,0,-1,1714,918,0,0
497,106,0,0,0,0,0,0,0,0,0,-1,1721,918,0,0
504,106,0,0,0,0,0,0,0,0,0,-1,1728,918,0,0
511,106,0,0,0,0,0,0,0,0,0,-1,1735,918,0,0
518,106,0,0,0,0,0,0,0,0,0,-1,1742,918,0,0
525,106,0,0,0,0,0,0,0,0,0,-1,1749,918,0,0
532,106,0,0,0,0,0,0,0,0,0,-1,1756,918,0,0
539,106,0,0,0,0,0,0,0,0,0,-1,1763,918,0,0
546,106,0,0,0,0,0,0,0,0,0,-1,1770,918,0,0
553,106,0,0,0,0,0,0,0,0,0,-1,1777,918,0,0
560,106,0,0,0,0,0,0,0,0,0,-1,1784,918,0,0
567,106,0,0,0,0,0,0,0,0,0,-1,1791,918,0,0
574,106,0,0,0,0,0,0,0,0,0,-1,1798,918,0,0
581,106,0,0,0,0,0,0,0,0,0,-1,1805,918,0,0
588,106,0,0,0,0,0,0,0,0,0,-1,1812,918,0,0
595,106,0,0,0,0,0,0,0,0,0,-1,1819,918,0,0
602,106,0,0,0,0,0,0,0,0,0,-1,1826,918,0,0
609,106,0,0,0,0,0,0,0,0,0,-1,1833,918,0,0
616,106,0,0,0,0,0,0,0,0,0,-1,1840,918,0,0
623,106,0,0,0,0,0,0,0,0,0,-1,1847,918,0,0
630,106,19.6658,2.30695,-0.00272534,0.000123902,-0.00144553,0.00072884,-0.00333028,-1.17445,0.00249882,0.0394602,1854,918,19.6657,-2.30692
637,106,19.6412,2.43335,-0.0017323,0.000464782,-0.000647031,0.000641169,-0.00190869,-1.30465,0.00153159,0.0382662,1861,918,19.6412,-2.43336
644,106,19.6777,2.46521,-0.000979057,0.000354786,8.9988e-05,0.00036083,-0.000985101,1.50374,0.000804453,0.0378485,1868,918,19.6777,-2.46523
651,106,19.6124,2.41223,-0.0021696,0.000268856,0.000177767,0.000281747,-0.00218249,1.4984,0.00155743,0.0399982,1875,918,19.6124,-2.41224
658,106,19.5955,2.36182,-0.00403872,0.000185802,0.000161078,0.000191935,-0.00404486,1.53274,0.00276277,0.0408132,1882,918,19.5954,-2.36182
665,106,19.646,2.40344,-0.00591253,0.000119682,8.03335e-05,0.000120752,-0.0059136,1.55748,0.00398326,0.0414809,1889,918,19.646,-2.40342
672,106,19.5829,2.67261,-0.00742164,5.15854e-05,4.06344e-06,5.15876e-05,-0.00742164,1.57025,0.00496504,0.0393512,1896,918,19.5828,-2.67259
679,106,19.4772,2.52435,-0.00849891,6.4769e-05,4.10037e-06,6.47707e-05,-0.00849892,1.57032,0.00568766,0.0333345,1903,918,19.4772,-2.52432
686,106,19.4797,2.4162,-0.00910742,-1.85264e-05,-8.44006e-06,-1.85189e-05,-0.00910743,-1.56987,0.00606546,0.0334862,1910,918,19.4797,-2.41618
693,106,19.3771,2.5661,-0.00927929,-1.84803e-05,-3.72314e-05,-1.83308e-05,-0.00927944,-1.56678,0.00618019,0.0309384,1917,918,19.377,-2.56608
700,106,19.3179,2.703,0,0,0,0,0,0,0,-1,1924,918,19.3179,-2.70298
707,106,17.6777,2.78552,0,0,0,0,0,0,0,-1,1931,918,17.6778,-2.78551
714,106,17.7258,2.91772,-0.00756159,0.000259578,-0.000186725,0.000264034,-0.00756605,-1.54694,0.00513431,0.0179856,1938,918,17.7258,-2.91773
721,106,17.7581,3.07257,-0.00668219,0.00053703,-0.000211825,0.00054324,-0.0066884,-1.54149,0.0046506,0.0157956,1945,918,17.758,-3.07257
728,106,17.7777,3.24371,-0.00532607,0.000780121,-0.000138684,0.00078327,-0.00532922,-1.5481,0.00384062,0.0157246,1952,918,17.7777,-3.24373
735,106,17.7462,3.38135,-0.00450224,0.00183681,-0.000615359,0.001896,-0.00456143,-1.47491,0.0038326,0.0145091,1959,918,17.7462,-3.38133
742,106,17.7286,3.51337,-0.00427274,0.00331353,-0.0018855,0.00375631,-0.00471552,-1.34014,0.00490166,0.0105247,1966,918,17.7287,-3.51338
749,106,17.7373,3.63501,-0.00391176,0.00489147,-0.00317227,0.00591549,-0.00493578,-1.25855,0.00627349,0.00832412,1973,918,17.7373,-3.63501
756,106,17.7305,3.74567,-0.00544892,0.00727525,-0.00528505,0.00918407,-0.00735774,-1.2242,0.0095698,0.00922088,1980,918,17.7304,-3.74565
763,106,17.717,3.86371,-0.00834081,0.0103641,-0.0080879,0.0133762,-0.0113529,-1.21429,0.0142933,0.0159302,1987,918,17.7171,-3.86369
770,106,17.7218,4.03217,0,0,0,0,0,0,0,-1,1994,918,17.7218,-4.03219
777,106,18.5802,4.16608,0,0,0,0,0,0,0,-1,2001,918,18.5802,-4.16609
784,106,18.166,4.29102,-0.0246395,0.0236033,-0.0226788,0.0325903,-0.0336265,-1.1935,0.0382319,0.0469233,2008,918,18.166,-4.29101
791,106,17.739,4.41278,-0.0332506,0.0293911,-0.03061,0.0418648,-0.0457244,-1.18384,0.050586,0.0474003,2015,918,17.739,-4.41276
798,106,18.1873,3.59741,0,0,0,0,0,0,0,-1,2022,918,18.1872,-3.5974
805,106,0,0,0,0,0,0,0,0,0,-1,2029,918,0,0
812,106,0,0,0,0,0,0,0,0,0,-1,2036,918,0,0
-700,99,0,0,0,0,0,0,0,0,0,-1,524,925,0,0
-693,99,0,0,0,0,0,0,0,0,0,-1,531,925,0,0
-686,99,0,0,0,0,0,0,0,0,0,-1,538,925,0,0
-679,99,-11.697,1.59308,0.0177672,2.53126e-05,0.0365536,0.0465109,-0.0287183,0.666358,0.0438367,0.043998,545,925,-11.6969,-1.59306
-672,99,-11.6464,1.64447,0.0149968,-0.000766522,0.0307121,0.0388225,-0.0245922,0.659793,0.0369185,0.0459156,552,925,-11.6463,-1.64445
-665,99,-11.568,1.64996,0.012348,-0.00105281,0.025358,0.0318759,-0.0205807,0.656234,0.0305189,0.0484944,559,925,-11.568,-1.64999
-658,99,-11.6444,1.67133,0.00998862,-0.0010926,0.0205682,0.0257494,-0.0168533,0.653832,0.0247748,0.0452999,566,925,-11.6444,-1.6713
-651,99,-11.6591,1.71704,0.00795037,-0.00101419,0.0164014,0.020471,-0.0135348,0.652012,0.0197689,0.0481131,573,925,-11.6591,-1.71704
-644,99,-11.6466,1.6413,0.00619589,-0.000877904,0.0128607,0.0159972,-0.0106792,0.651208,0.0155033,0.0442526,580,925,-11.6466,-1.64128
-637,99,-11.6518,1.5351,0.00462526,-0.000742692,0.00982522,0.0121265,-0.00824393,0.652065,0.0118319,0.0274287,587,925,-11.6518,-1.53507
-630,99,-11.6928,1.43982,0.00269563,-0.000288063,0.00682873,0.00819357,-0.005786,0.677855,0.00811091,0.0127391,594,925,-11.6928,-1.43985
-623,99,-11.7376,1.35327,0.000969608,-0.000473186,0.00474348,0.00504623,-0.00454981,0.709936,0.00554275,0.00782619,601,925,-11.7376,-1.35328
-616,99,-11.7441,1.25317,-0.000448625,-0.000376785,0.00340926,0.00299674,-0.00382215,0.790666,0.0039465,0.00873116,608,925,-11.7442,-1.25319
-609,99,-11.7433,1.13367,-0.00205827,-0.000635101,0.00214356,0.000911898,-0.00360527,0.945657,0.00275819,0.00925155,615,925,-11.7434,-1.13364
-602,99,-11.7355,1.04224,-0.00407912,-0.000474064,0.00129493,-5.71429e-05,-0.00449604,1.25931,0.0029785,0.0104974,622,925,-11.7355,-1.04221
-595,99,-11.7663,0.952637,-0.00575039,-0.000360819,0.000534242,-0.000308372,-0.00580284,1.47294,0.00376997,0.0144527,629,925,-11.7663,-0.952654
-588,99,-11.7629,0.833923,-0.00702421,-0.000344276,0.00021397,-0.000337429,-0.00703105,1.53881,0.00457904,0.0136902,636,925,-11.7629,-0.833903
-581,99,-11.689,0.697021,-0.00811669,-0.000362885,0.000125927,-0.00036084,-0.00811874,1.55456,0.00529631,0.0106962,643,925,-11.689,-0.697036
-574,99,-11.7896,0.55426,-0.00871543,-0.000348885,-7.52592e-06,-0.000348879,-0.00871544,-1.5699,0.00569756,0.0167517,650,925,-11.7895,-0.554258
-567,99,-12.2327,0.391113,-0.00865752,-0.000290063,-0.000185817,-0.000285938,-0.00866165,-1.5486,0.00568152,0.0370828,657,925,-12.2328,-0.391123
-560,99,-12.6578,0.467346,-0.00829324,-0.000115341,-0.000217081,-0.000109583,-0.008299,-1.54428,0.0054965,0.0323002,664,925,-12.6578,-0.467327
-553,99,-12.7224,0.561523,-0.0074771,0.000273418,-0.000211248,0.000279172,-0.00748286,-1.54357,0.00508418,0.0387236,671,925,-12.7224,-0.561508
-546,99,-12.6788,0.399353,-0.00600152,0.000718707,-0.000210819,0.000725314,-0.00600813,-1.53947,0.00426779,0.0427359,678,925,-12.6788,-0.399373
-539,99,-12.7185,0.23053,-0.00370162,0.00129282,-0.000236008,0.00130395,-0.00371275,-1.52368,0.00300563,0.0417682,685,925,-12.7185,-0.230533
-532,99,-12.8338,0.307922,-0.0004504,0.00199608,-0.000340937,0.0020427,-0.000497024,-1.43489,0.0015542,0.0411298,692,925,-12.8338,-0.307919
-525,99,-12.8291,0.548462,0.00382797,0.00284006,-0.000696667,0.00418803,0.00248001,-0.47702,0.00243161,0.0392574,699,925,-12.8291,-0.548443
-518,99,-12.7471,0.42627,0.00828802,0.00391954,-0.0013268,0.00865942,0.00354814,-0.272937,0.0050266,0.0390821,706,925,-12.7471,-0.426293
-511,99,0,0,0,0,0,0,0,0,0,-1,713,925,0,0
-504,99,0,0,0,0,0,0,0,0,0,-1,720,925,0,0
-497,99,0,0,0,0,0,0,0,0,0,-1,727,925,0,0
-490,99,0,0,0,0,0,0,0,0,0,-1,734,925,0,0
-483,99,0,0,0,0,0,0,0,0,0,-1,741,925,0,0
-476,99,0,0,0,0,0,0,0,0,0,-1,748,925,0,0
-469,99,0,0,0,0,0,0,0,0,0,-1,755,925,0,0
-462,99,0,0,0,0,0,0,0,0,0,-1,762,925,0,0
-455,99,0,0,0,0,0,0,0,0,0,-1,769,925,0,0
-448,99,0,0,0,0,0,0,0,0,0,-1,776,925,0,0
-441,99,0,0,0,0,0,0,0,0,0,-1,783,925,0,0
-434,99,0,0,0,0,0,0,0,0,0,-1,790,925,0,0
-427,99,0,0,0,0,0,0,0,0,0,-1,797,925,0,0
-420,99,0,0,0,0,0,0,0,0,0,-1,804,925,0,0
-413,99,0,0,0,0,0,0,0,0,0,-1,811,925,0,0
-406,99,0,0,0,0,0,0,0,0,0,-1,818,925,0,0
-399,99,0,0,0,0,0,0,0,0,0,-1,825,925,0,0
-392,99,0,0,0,0,0,0,0,0,0,-1,832,925,0,0
-385,99,0,0,0,0,0,0,0,0,0,-1,839,925,0,0
-378,99,0,0,0,0,0,0,0,0,0,-1,846,925,0,0
-371,99,0,0,0,0,0,0,0,0,0,-1,853,925,0,0
-364,99,0,0,0,0,0,0,0,0,0,-1,860,925,0,0
-357,99,0,0,0,0,0,0,0,0,0,-1,867,925,0,0
-350,99,0,0,0,0,0,0,0,0,0,-1,874,925,0,0
-343,99,0,0,0,0,0,0,0,0,0,-1,881,925,0,0
-336,99,0,0,0,0,0,0,0,0,0,-1,888,925,0,0
-329,99,0,0,0,0,0,0,0,0,0,-1,895,925,0,0
-322,99,0,0,0,0,0,0,0,0,0,-1,902,925,0,0
-315,99,0,0,0,0,0,0,0,0,0,-1,909,925,0,0
-308,99,0,0,0,0,0,0,0,0,0,-1,916,925,0,0
-301,99,0,0,0,0,0,0,0,0,0,-1,923,925,0,0
-294,99,0,0,0,0,0,0,0,0,0,-1,930,925,0,0
-287,99,0,0,0,0,0,0,0,0,0,-1,937,925,0,0
-280,99,0,0,0,0,0,0,0,0,0,-1,944,925,0,0
-273,99,0,0,0,0,0,0,0,0,0,-1,951,925,0,0
-266,99,0,0,0,0,0,0,0,0,0,-1,958,925,0,0
-259,99,0,0,0,0,0,0,0,0,0,-1,965,925,0,0
-252,99,0,0,0,0,0,0,0,0,0,-1,972,925,0,0
-245,99,0,0,0,0,0,0,0,0,0,-1,979,925,0,0
-238,99,0,0,0,0,0,0,0,0,0,-1,986,925,0,0
-231,99,0,0,0,0,0,0,0,0,0,-1,993,925,0,0
-224,99,0,0,0,0,0,0,0,0,0,-1,1000,925,0,0
-217,99,0,0,0,0,0,0,0,0,0,-1,1007,925,0,0
-210,99,0,0,0,0,0,0,0,0,0,-1,1014,925,0,0
-203,99,0,0,0,0,0,0,0,0,0,-1,1021,925,0,0
-196,99,0,0,0,0,0,0,0,0,0,-1,1028,925,0,0
-189,99,0,0,0,0,0,0,0,0,0,-1,1035,925,0,0
-182,99,0,0,0,0,0,0,0,0,0,-1,1042,925,0,0
-175,99,0,0,0,0,0,0,0,0,0,-1,1049,925,0,0
-168,99,0,0,0,0,0,0,0,0,0,-1,1056,925,0,0
-161,99,0,0,0,0,0,0,0,0,0,-1,1063,925,0,0
-154,99,0,0,0,0,0,0,0,0,0,-1,1070,925,0,0
-147,99,0,0,0,0,0,0,0,0,0,-1,1077,925,0,0
-140,99,0,0,0,0,0,0,0,0,0,-1,1084,925,0,0
-133,99,0,0,0,0,0,0,0,0,0,-1,1091,925,0,0
-126,99,0,0,0,0,0,0,0,0,0,-1,1098,925,0,0
-119,99,0,0,0,0,0,0,0,0,0,-1,1105,925,0,0
-112,99,0,0,0,0,0,0,0,0,0,-1,1112,925,0,0
-105,99,0,0,0,0,0,0,0,0,0,-1,1119,925,0,0
-98,99,0,0,0,0,0,0,0,0,0,-1,1126,925,0,0
-91,99,0,0,0,0,0,0,0,0,0,-1,1133,925,0,0
-84,99,0,0,0,0,0,0,0,0,0,-1,1140,925,0,0
-77,99,0,0,0,0,0,0,0,0,0,-1,1147,925,0,0
-70,99,0,0,0,0,0,0,0,0,0,-1,1154,925,0,0
-63,99,0,0,0,0,0,0,0,0,0,-1,1161,925,0,0
-56,99,0,0,0,0,0,0,0,0,0,-1,1168,925,0,0
-49,99,0,0,0,0,0,0,0,0,0,-1,1175,925,0,0
-42,99,0,0,0,0,0,0,0,0,0,-1,1182,925,0,0
-35,99,0,0,0,0,0,0,0,0,0,-1,1189,925,0,0
-28,99,0,0,0,0,0,0,0,0,0,-1,1196,925,0,0
-21,99,0,0,0,0,0,0,0,0,0,-1,1203,925,0,0
-14,99,0,0,0,0,0,0,0,0,0,-1,1210,925,0,0
-7,99,0,0,0,0,0,0,0,0,0,-1,1217,925,0,0
0,99,0,0,0,0,0,0,0,0,0,-1,1224,925,0,0
7,99,0,0,0,0,0,0,0,0,0,-1,1231,925,0,0
14,99,0,0,0,0,0,0,0,0,0,-1,1238,925,0,0
21,99,0,0,0,0,0,0,0,0,0,-1,1245,925,0,0
28,99,0,0,0,0,0,0,0,0,0,-1,1252,925,0,0
35,99,0,0,0,0,0,0,0,0,0,-1,1259,925,0,0
42,99,0,0,0,0,0,0,0,0,0,-1,1266,925,0,0
49,99,0,0,0,0,0,0,0,0,0,-1,1273,925,0,0
56,99,0,0,0,0,0,0,0,0,0,-1,1280,925,0,0
63,99,0,0,0,0,0,0,0,0,0,-1,1287,925,0,0
70,99,0,0,0,0,0,0,0,0,0,-1,1294,925,0,0
77,99,0,0,0,0,0,0,0,0,0,-1,1301,925,0,0
84,99,0,0,0,0,0,0,0,0,0,-1,1308,925,0,0
91,99,0,0,0,0,0,0,0,0,0,-1,1315,925,0,0
98,99,0,0,0,0,0,0,0,0,0,-1,1322,925,0,0
105,99,0,0,0,0,0,0,0,0,0,-1,1329,925,0,0
112,99,0,0,0,0,0,0,0,0,0,-1,1336,925,0,0
119,99,0,0,0,0,0,0,0,0,0,-1,1343,925,0,0
126,99,0,0,0,0,0,0,0,0,0,-1,1350,925,0,0
133,99,0,0,0,0,0,0,0,0,0,-1,1357,925,0,0
140,99,0,0,0,0,0,0,0,0,0,-1,1364,925,0,0
147,99,0,0,0,0,0,0,0,0,0,-1,1371,925,0,0
154,99,0,0,0,0,0,0,0,0,0,-1,1378,925,0,0
161,99,0,0,0,0,0,0,0,0,0,-1,1385,925,0,0
168,99,0,0,0,0,0,0,0,0,0,-1,1392,925,0,0
175,99,0,0,0,0,0,0,0,0,0,-1,1399,925,0,0
182,99,0,0,0,0,0,0,0,0,0,-1,1406,925,0,0
189,99,0,0,0,0,0,0,0,0,0,-1,1413,925,0,0
196,99,0,0,0,0,0,0,0,0,0,-1,1420,925,0,0
203,99,0,0,0,0,0,0,0,0,0,-1,1427,925,0,0
210,99,0,0,0,0,0,0,0,0,0,-1,1434,925,0,0
217,99,0,0,0,0,0,0,0,0,0,-1,1441,925,0,0
224,99,0,0,0,0,0,0,0,0,0,-1,1448,925,0,0
231,99,0,0,0,0,0,0,0,0,0,-1,1455,925,0,0
238,99,0,0,0,0,0,0,0,0,0,-1,1462,925,0,0
245,99,0,0,0,0,0,0,0,0,0,-1,1469,925,0,0
252,99,0,0,0,0,0,0,0,0,0,-1,1476,925,0,0
259,99,0,0,0,0,0,0,0,0,0,-1,1483,925,0,0
266,99,0,0,0,0,0,0,0,0,0,-1,1490,925,0,0
273,99,0,0,0,0,0,0,0,0,0,-1,1497,925,0,0
280,99,0,0,0,0,0,0,0,0,0,-1,1504,925,0,0
287,99,0,0,0,0,0,0,0,0,0,-1,1511,925,0,0
294,99,0,0,0,0,0,0,0,0,0,-1,1518,925,0,0
301,99,0,0,0,0,0,0,0,0,0,-1,1525,925,0,0
308,99,0,0,0,0,0,0,0,0,0,-1,1532,925,0,0
315,99,0,0,0,0,0,0,0,0,0,-1,1539,925,0,0
322,99,0,0,0,0,0,0,0,0,0,-1,1546,925,0,0
329,99,0,0,0,0,0,0,0,0,0,-1,1553,925,0,0
336,99,0,0,0,0,0,0,0,0,0,-1,1560,925,0,0
343,99,0,0,0,0,0,0,0,0,0,-1,1567,925,0,0
350,99,0,0,0,0,0,0,0,0,0,-1,1574,925,0,0
357,99,0,0,0,0,0,0,0,0,0,-1,1581,925,0,0
364,99,0,0,0,0,0,0,0,0,0,-1,1588,925,0,0
371,99,0,0,0,0,0,0,0,0,0,-1,1595,925,0,0
378,99,0,0,0,0,0,0,0,0,0,-1,1602,925,0,0
385,99,0,0,0,0,0,0,0,0,0,-1,1609,925,0,0
392,99,0,0,0,0,0,0,0,0,0,-1,1616,925,0,0
399,99,0,0,0,0,0,0,0,0,0,-1,1623,925,0,0
406,99,0,0,0,0,0,0,0,0,0,-1,1630,925,0,0
413,99,0,0,0,0,0,0,0,0,0,-1,1637,925,0,0
420,99,0,0,0,0,0,0,0,0,0,-1,1644,925,0,0
427,99,0,0,0,0,0,0,0,0,0,-1,1651,925,0,0
434,99,0,0,0,0,0,0,0,0,0,-1,1658,925,0,0
441,99,0,0,0,0,0,0,0,0,0,-1,1665,925,0,0
448,99,0,0,0,0,0,0,0,0,0,-1,1672,925,0,0
455,99,0,0,0,0,0,0,0,0,0,-1,1679,925,0,0
462,99,0,0,0,0,0,0,0,0,0,-1,1686,925,0,0
469,99,0,0,0,0,0,0,0,0,0,-1,1693,925,0,0
476,99,0,0,0,0,0,0,0,0,0,-1,1700,925,0,0
483,99,0,0,0,0,0,0,0,0,0,-1,1707,925,0,0
490,99,0,0,0,0,0,0,0,0,0,-1,1714,925,0,0
497,99,0,0,0,0,0,0,0,0,0,-1,1721,925,0,0
504,99,0,0,0,0,0,0,0,0,0,-1,1728,925,0,0
511,99,0,0,0,0,0,0,0,0,0,-1,1735,925,0,0
518,99,0,0,0,0,0,0,0,0,0,-1,1742,925,0,0
525,99,0,0,0,0,0,0,0,0,0,-1,1749,925,0,0
532,99,0,0,0,0,0,0,0,0,0,-1,1756,925,0,0
539,99,0,0,0,0,0,0,0,0,0,-1,1763,925,0,0
546,99,0,0,0,0,0,0,0,0,0,-1,1770,925,0,0
553,99,0,0,0,0,0,0,0,0,0,-1,1777,925,0,0
560,99,0,0,0,0,0,0,0,0,0,-1,1784,925,0,0
567,99,0,0,0,0,0,0,0,0,0,-1,1791,925,0,0
574,99,0,0,0,0,0,0,0,0,0,-1,1798,925,0,0
581,99,0,0,0,0,0,0,0,0,0,-1,1805,925,0,0
588,99,0,0,0,0,0,0,0,0,0,-1,1812,925,0,0
595,99,0,0,0,0,0,0,0,0,0,-1,1819,925,0,0
602,99,0,0,0,0,0,0,0,0,0,-1,1826,925,0,0
609,99,0,0,0,0,0,0,0,0,0,-1,1833,925,0,0
616,99,0,0,0,0,0,0,0,0,0,-1,1840,925,0,0
623,99,0,0,0,0,0,0,0,0,0,-1,1847,925,0,0
630,99,0,0,0,0,0,0,0,0,0,-1,1854,925,0,0
637,99,19.6917,2.33777,-0.00229917,0.00091539,-0.000415468,0.00096822,-0.002352,-1.44432,0.00197164,0.0424773,1861,925,19.6916,-2.33779
644,99,19.8092,2.39014,-0.00121808,0.000810726,0.000237882,0.000838245,-0.0012456,1.45563,0.00121075,0.0365969,1868,925,19.8092,-2.39015
651,99,19.5763,2.55414,-0.00203542,0.000748235,0.00029691,0.000779551,-0.00206674,1.46571,0.0016984,0.0371805,1875,925,19.5763,-2.55413
658,99,19.4438,2.45233,-0.00360362,0.000703577,0.000318319,0.000726975,-0.00362702,1.49742,0.00269324,0.0400067,1882,925,19.4438,-2.45232
665,99,19.5201,2.39087,-0.00534153,0.000706022,0.00030736,0.000721604,-0.00535711,1.52015,0.00383464,0.041473,1889,925,19.5201,-2.39084
672,99,19.532,2.52844,-0.00683639,0.000670949,0.000295545,0.000682566,-0.00684801,1.53151,0.00480904,0.0400752,1896,925,19.532,-2.52842
679,99,19.5165,2.4267,-0.00794968,0.000678219,0.000346271,0.000692094,-0.00796355,1.53075,0.00555413,0.0368912,1903,925,19.5165,-2.42671
686,99,19.5107,2.38599,-0.00860578,0.000597289,0.000367365,0.000611931,-0.00862042,1.53096,0.0059614,0.0315796,1910,925,19.5108,-2.38601
693,99,19.4269,2.57318,-0.00884166,0.000573669,0.000376271,0.000588682,-0.00885667,1.53092,0.00611013,0.0304061,1917,925,19.4268,-2.57315
700,99,19.4424,2.52118,0,0,0,0,0,0,0,-1,1924,925,19.4424,-2.52118
707,99,17.9213,2.78125,0,0,0,0,0,0,0,-1,1931,925,17.9213,-2.78125
714,99,17.9028,2.94,-0.00747443,0.00074672,0.000186934,0.000750968,-0.00747868,1.54807,0.00525403,0.01761,1938,925,17.9028,-2.94
721,99,17.8457,3.06873,-0.00674169,0.000924494,0.00010502,0.000925933,-0.00674312,1.5571,0.00483371,0.0184324,1945,925,17.8457,-3.06875
728,99,17.8903,3.216,-0.00556748,0.00108659,9.9306e-05,0.00108808,-0.00556897,1.55588,0.00412347,0.0159675,1952,925,17.8903,-3.21599
735,99,17.8864,3.34747,-0.00472703,0.00192754,-0.000384416,0.00194968,-0.00474917,-1.51328,0.00397856,0.0140427,1959,925,17.8863,-3.34745
742,99,17.8612,3.47998,-0.00432237,0.0032232,-0.00156204,0.00353378,-0.00463295,-1.37453,0.00472927,0.0106209,1966,925,17.8613,-3.47999
749,99,17.844,3.61359,-0.00375315,0.00455433,-0.00279102,0.00540492,-0.00460374,-1.27498,0.00578468,0.00884172,1973,925,17.8439,-3.6136
756,99,17.8365,3.71216,-0.00476376,0.00661799,-0.00472107,0.00832134,-0.00646711,-1.22453,0.00856046,0.0100394,1980,925,17.8366,-3.71215
763,99,17.854,3.79999,-0.00695903,0.00935492,-0.00721277,0.0120865,-0.00969059,-1.20878,0.0125983,0.0129065,1987,925,17.854,-3.8
770,99,17.9319,3.922,-0.0102031,0.0126888,-0.0103925,0.0167029,-0.0142172,-1.2022,0.0178709,0.0263202,1994,925,17.9319,-3.922
777,99,18.1327,3.99445,0,0,0,0,0,0,0,-1,2001,925,18.1327,-3.99446
784,99,18.2936,4.09827,-0.0199949,0.0213222,-0.0198912,0.0293418,-0.0280145,-1.18756,0.0331177,0.0457751,2008,925,18.2936,-4.09829
791,99,18.46,3.88629,-0.0267642,0.0266088,-0.026767,0.0377197,-0.0378751,-1.17734,0.0436447,0.0488688,2015,925,18.46,-3.88629
798,99,18.5176,3.50281,-0.0350488,0.0324222,-0.0355803,0.0477177,-0.0503444,-1.16479,0.0566229,0.0497032,2022,925,18.5176,-3.50278
805,99,0,0,0,0,0,0,0,0,0,-1,2029,925,0,0
812,99,0,0,0,0,0,0,0,0,0,-1,2036,925,0,0
-700,92,0,0,0,0,0,0,0,0,0,-1,524,932,0,0
-693,92,0,0,0,0,0,0,0,0,0,-1,531,932,0,0
-686,92,-12.809,-0.286438,0,0,0,0,0,0,0,-1,538,932,-12.809,0.286422
-679,92,-11.2957,1.38141,0.0250231,-0.00555856,0.0463545,0.0585436,-0.0390791,0.626084,0.0567347,0.0443364,545,932,-11.2957,-1.38139
-672,92,-11.548,1.61548,0.0199077,-0.00494616,0.038227,0.0476769,-0.0327154,0.628245,0.0466817,0.0473826,552,932,-11.5481,-1.61547
-665,92,-11.7718,1.72101,0.0153087,-0.00403995,0.0308745,0.0379891,-0.0267204,0.633572,0.0375484,0.0486729,559,932,-11.7718,-1.72103
-658,92,-11.899,1.59302,0.0114082,-0.0031003,0.024392,0.0296018,-0.0212939,0.640862,0.0295148,0.046348,566,932,-11.899,-1.59302
-651,92,-11.762,1.62311,0.00824742,-0.00225553,0.0188444,0.0225584,-0.0165665,0.649508,0.0226769,0.0474789,573,932,-11.7619,-1.62313
-644,92,-11.7922,1.60742,0.00577886,-0.00155661,0.0142377,0.0168136,-0.0125914,0.659335,0.0170352,0.0425197,580,932,-11.7922,-1.60742
-637,92,-11.7996,1.51807,0.00380535,-0.00102995,0.0103665,0.0120324,-0.00925697,0.670837,0.0123262,0.0236838,587,932,-11.7995,-1.51804
-630,92,-11.8131,1.42523,0.00150228,-0.000229444,0.00672877,0.00742067,-0.00614783,0.721409,0.00784526,0.0113471,594,932,-11.8131,-1.4252
-623,92,-11.8417,1.33545,-0.000481326,-0.00012395,0.00420778,0.00390893,-0.00451421,0.806618,0.00486728,0.00817793,601,932,-11.8417,-1.33544
-616,92,-11.8511,1.22778,-0.00159025,-0.000140223,0.00275519,0.00198374,-0.00371422,0.914054,0.00333991,0.00781367,608,932,-11.8511,-1.2278
-609,92,-11.8593,1.11169,-0.0029157,-0.000369214,0.00161637,0.000415162,-0.00370008,1.119,0.00261611,0.00782485,615,932,-11.8593,-1.11167
-602,92,-11.8566,1.02142,-0.0044915,-0.000222245,0.00075586,-9.23721e-05,-0.00462137,1.40064,0.00305059,0.00846978,622,932,-11.8566,-1.02141
-595,92,-11.8254,0.914185,-0.00582904,-0.000159972,7.10525e-05,-0.000159081,-0.00582993,1.55827,0.0038347,0.0143705,629,932,-11.8255,-0.91418
-588,92,-11.8168,0.820313,-0.00687077,-0.000199996,-0.000175379,-0.000195388,-0.00687538,-1.54453,0.00451986,0.0155536,636,932,-11.8168,-0.820326
-581,92,-11.8132,0.706482,-0.00782582,-0.000225408,-0.000270231,-0.000215812,-0.00783542,-1.5353,0.00515318,0.0133285,643,932,-11.8132,-0.706505
-574,92,-12.0242,0.596008,-0.00830061,-0.0001954,-0.000419353,-0.000173761,-0.00832225,-1.51924,0.00549116,0.0216582,650,932,-12.0242,-0.595998
-567,92,-12.4496,0.412964,-0.0081348,-0.000139031,-0.000612206,-9.24277e-05,-0.00818141,-1.49482,0.00542372,0.0382329,657,932,-12.4496,-0.412962
-560,92,-12.629,0.491821,-0.00767515,6.04564e-06,-0.000664083,6.30366e-05,-0.00773214,-1.48519,0.0051759,0.0345435,664,932,-12.629,-0.491817
-553,92,-12.7347,0.518616,-0.00673675,0.000312959,-0.000668136,0.000375723,-0.00679952,-1.47713,0.0046633,0.0357339,671,932,-12.7347,-0.518601
-546,92,-12.7402,0.419556,-0.00516644,0.00067512,-0.000654918,0.000747645,-0.00523897,-1.46051,0.00376668,0.0382837,678,932,-12.7402,-0.419534
-539,92,-12.7073,0.301147,-0.0028575,0.00111139,-0.000641213,0.00121241,-0.00295853,-1.41453,0.00247743,0.0394297,685,932,-12.7073,-0.30117
-532,92,-12.8083,0.404541,0.000272862,0.00159771,-0.000687994,0.00189035,-1.97738e-05,-1.16863,0.00126688,0.0416268,692,932,-12.8083,-0.404548
-525,92,-12.8233,0.529236,0.00413053,0.00213129,-0.000978841,0.00452997,0.00173185,-0.387447,0.00263942,0.0398066,699,932,-12.8233,-0.529213
-518,92,-12.6239,0.524719,0.00760189,0.0027551,-0.00149814,0.00802757,0.00232942,-0.276847,0.00476881,0.0404652,706,932,-12.6239,-0.524743
-511,92,0,0,0,0,0,0,0,0,0,-1,713,932,0,0
-504,92,0,0,0,0,0,0,0,0,0,-1,720,932,0,0
-497,92,0,0,0,0,0,0,0,0,0,-1,727,932,0,0
-490,92,0,0,0,0,0,0,0,0,0,-1,734,932,0,0
-483,92,0,0,0,0,0,0,0,0,0,-1,741,932,0,0
-476,92,0,0,0,0,0,0,0,0,0,-1,748,932,0,0
-469,92,0,0,0,0,0,0,0,0,0,-1,755,932,0,0
-462,92,0,0,0,0,0,0,0,0,0,-1,762,932,0,0
-455,92,0,0,0,0,0,0,0,0,0,-1,769,932,0,0
-448,92,0,0,0,0,0,0,0,0,0,-1,776,932,0,0
-441,92,0,0,0,0,0,0,0,0,0,-1,783,932,0,0
-434,92,0,0,0,0,0,0,0,0,0,-1,790,932,0,0
-427,92,0,0,0,0,0,0,0,0,0,-1,797,932,0,0
-420,92,0,0,0,0,0,0,0,0,0,-1,804,932,0,0
-413,92,0,0,0,0,0,0,0,0,0,-1,811,932,0,0
-406,92,0,0,0,0,0,0,0,0,0,-1,818,932,0,0
-399,92,0,0,0,0,0,0,0,0,0,-1,825,932,0,0
-392,92,0,0,0,0,0,0,0,0,0,-1,832,932,0,0
-385,92,0,0,0,0,0,0,0,0,0,-1,839,932,0,0
-378,92,0,0,0,0,0,0,0,0,0,-1,846,932,0,0
-371,92,0,0,0,0,0,0,0,0,0,-1,853,932,0,0
-364,92,0,0,0,0,0,0,0,0,0,-1,860,932,0,0
-357,92,0,0,0,0,0,0,0,0,0,-1,867,932,0,0
-350,92,0,0,0,0,0,0,0,0,0,-1,874,932,0,0
-343,92,0,0,0,0,0,0,0,0,0,-1,881,932,0,0
-336,92,0,0,0,0,0,0,0,0,0,-1,888,932,0,0
-329,92,0,0,0,0,0,0,0,0,0,-1,895,932,0,0
-322,92,0,0,0,0,0,0,0,0,0,-1,902,932,0,0
-315,92,0,0,0,0,0,0,0,0,0,-1,909,932,0,0
-308,92,0,0,0,0,0,0,0,0,0,-1,916,932,0,0
-301,92,0,0,0,0,0,0,0,0,0,-1,923,932,0,0
-294,92,0,0,0,0,0,0,0,0,0,-1,930,932,0,0
-287,92,0,0,0,0,0,0,0,0,0,-1,937,932,0,0
-280,92,0,0,0,0,0,0,0,0,0,-1,944,932,0,0
-273,92,0,0,0,0,0,0,0,0,0,-1,951,932,0,0
-266,92,0,0,0,0,0,0,0,0,0,-1,958,932,0,0
-259,92,0,0,0,0,0,0,0,0,0,-1,965,932,0,0
-252,92,0,0,0,0,0,0,0,0,0,-1,972,932,0,0
-245,92,0,0,0,0,0,0,0,0,0,-1,979,932,0,0
-238,92,0,0,0,0,0,0,0,0,0,-1,986,932,0,0
-231,92,0,0,0,0,0,0,0,0,0,-1,993,932,0,0
-224,92,0,0,0,0,0,0,0,0,0,-1,1000,932,0,0
-217,92,0,0,0,0,0,0,0,0,0,-1,1007,932,0,0
-210,92,0,0,0,0,0,0,0,0,0,-1,1014,932,0,0
-203,92,0,0,0,0,0,0,0,0,0,-1,1021,932,0,0
-196,92,0,0,0,0,0,0,0,0,0,-1,1028,932,0,0
-189,92,0,0,0,0,0,0,0,0,0,-1,1035,932,0,0
-182,92,0,0,0,0,0,0,0,0,0,-1,1042,932,0,0
-175,92,0,0,0,0,0,0,0,0,0,-1,1049,932,0,0
-168,92,0,0,0,0,0,0,0,0,0,-1,1056,932,0,0
-161,92,0,0,0,0,0,0,0,0,0,-1,1063,932,0,0
-154,92,0,0,0,0,0,0,0,0,0,-1,1070,932,0,0
-147,92,0,0,0,0,0,0,0,0,0,-1,1077,932,0,0
-140,92,0,0,0,0,0,0,0,0,0,-1,1084,932,0,0
-133,92,0,0,0,0,0,0,0,0,0,-1,1091,932,0,0
-126,92,0,0,0,0,0,0,0,0,0,-1,1098,932,0,0
-119,92,0,0,0,0,0,0,0,0,0,-1,1105,932,0,0
-112,92,0,0,0,0,0,0,0,0,0,-1,1112,932,0,0
-105,92,0,0,0,0,0,0,0,0,0,-1,1119,932,0,0
-98,92,0,0,0,0,0,0,0,0,0,-1,1126,932,0,0
-91,92,0,0,0,0,0,0,0,0,0,-1,1133,932,0,0
-84,92,0,0,0,0,0,0,0,0,0,-1,1140,932,0,0
-77,92,0,0,0,0,0,0,0,0,0,-1,1147,932,0,0
-70,92,0,0,0,0,0,0,0,0,0,-1,1154,932,0,0
-63,92,0,0,0,0,0,0,0,0,0,-1,1161,932,0,0
-56,92,0,0,0,0,0,0,0,0,0,-1,1168,932,0,0
-49,92,0,0,0,0,0,0,0,0,0,-1,1175,932,0,0
-42,92,0,0,0,0,0,0,0,0,0,-1,1182,932,0,0
-35,92,0,0,0,0,0,0,0,0,0,-1,1189,932,0,0
-28,92,0,0,0,0,0,0,0,0,0,-1,1196,932,0,0
-21,92,0,0,0,0,0,0,0,0,0,-1,1203,932,0,0
-14,92,0,0,0,0,0,0,0,0,0,-1,1210,932,0,0
-7,92,0,0,0,0,0,0,0,0,0,-1,1217,932,0,0
0,92,0,0,0,0,0,0,0,0,0,-1,1224,932,0,0
7,92,0,0,0,0,0,0,0,0,0,-1,1231,932,0,0
14,92,0,0,0,0,0,0,0,0,0,-1,1238,932,0,0
21,92,0,0,0,0,0,0,0,0,0,-1,1245,932,0,0
28,92,0,0,0,0,0,0,0,0,0,-1,1252,932,0,0
35,92,0,0,0,0,0,0,0,0,0,-1,1259,932,0,0
42,92,0,0,0,0,0,0,0,0,0,-1,1266,932,0,0
49,92,0,0,0,0,0,0,0,0,0,-1,1273,932,0,0
56,92,0,0,0,0,0,0,0,0,0,-1,1280,932,0,0
63,92,0,0,0,0,0,0,0,0,0,-1,1287,932,0,0
70,92,0,0,0,0,0,0,0,0,0,-1,1294,932,0,0
77,92,0,0,0,0,0,0,0,0,0,-1,1301,932,0,0
84,92,0,0,0,0,0,0,0,0,0,-1,1308,932,0,0
91,92,0,0,0,0,0,0,0,0,0,-1,1315,932,0,0
98,92,0,0,0,0,0,0,0,0,0,-1,1322,932,0,0
105,92,0,0,0,0,0,0,0,0,0,-1,1329,932,0,0
112,92,0,0,0,0,0,0,0,0,0,-1,1336,932,0,0
119,92,0,0,0,0,0,0,0,0,0,-1,1343,932,0,0
126,92,0,0,0,0,0,0,0,0,0,-1,1350,932,0,0
133,92,0,0,0,0,0,0,0,0,0,-1,1357,932,0,0
140,92,0,0,0,0,0,0,0,0,0,-1,1364,932,0,0
147,92,0,0,0,0,0,0,0,0,0,-1,1371,932,0,0
154,92,0,0,0,0,0,0,0,0,0,-1,1378,932,0,0
161,92,0,0,0,0,0,0,0,0,0,-1,1385,932,0,0
168,92,0,0,0,0,0,0,0,0,0,-1,1392,932,0,0
175,92,0,0,0,0,0,0,0,0,0,-1,1399,932,0,0
182,92,0,0,0,0,0,0,0,0,0,-1,1406,932,0,0
189,92,0,0,0,0,0,0,0,0,0,-1,1413,932,0,0
196,92,0,0,0,0,0,0,0,0,0,-1,1420,932,0,0
203,92,0,0,0,0,0,0,0,0,0,-1,1427,932,0,0
210,92,0,0,0,0,0,0,0,0,0,-1,1434,932,0,0
217,92,0,0,0,0,0,0,0,0,0,-1,1441,932,0,0
224,92,0,0,0,0,0,0,0,0,0,-1,1448,932,0,0
231,92,0,0,0,0,0,0,0,0,0,-1,1455,932,0,0
238,92,0,0,0,0,0,0,0,0,0,-1,1462,932,0,0
245,92,0,0,0,0,0,0,0,0,0,-1,1469,932,0,0
252,92,0,0,0,0,0,0,0,0,0,-1,1476,932,0,0
259,92,0,0,0,0,0,0,0,0,0,-1,1483,932,0,0
266,92,0,0,0,0,0,0,0,0,0,-1,1490,932,0,0
273,92,0,0,0,0,0,0,0,0,0,-1,1497,932,0,0
280,92,0,0,0,0,0,0,0,0,0,-1,1504,932,0,0
287,92,0,0,0,0,0,0,0,0,0,-1,1511,932,0,0
294,92,0,0,0,0,0,0,0,0,0,-1,1518,932,0,0
301,92,0,0,0,0,0,0,0,0,0,-1,1525,932,0,0
308,92,0,0,0,0,0,0,0,0,0,-1,1532,932,0,0
315,92,0,0,0,0,0,0,0,0,0,-1,1539,932,0,0
322,92,0,0,0,0,0,0,0,0,0,-1,1546,932,0,0
329,92,0,0,0,0,0,0,0,0,0,-1,1553,932,0,0
336,92,0,0,0,0,0,0,0,0,0,-1,1560,932,0,0
343,92,0,0,0,0,0,0,0,0,0,-1,1567,932,0,0
350,92,0,0,0,0,0,0,0,0,0,-1,1574,932,0,0
357,92,0,0,0,0,0,0,0,0,0,-1,1581,932,0,0
364,92,0,0,0,0,0,0,0,0,0,-1,1588,932,0,0
371,92,0,0,0,0,0,0,0,0,0,-1,1595,932,0,0
378,92,0,0,0,0,0,0,0,0,0,-1,1602,932,0,0
385,92,0,0,0,0,0,0,0,0,0,-1,1609,932,0,0
392,92,0,0,0,0,0,0,0,0,0,-1,1616,932,0,0
399,92,0,0,0,0,0,0,0,0,0,-1,1623,932,0,0
406,92,0,0,0,0,0,0,0,0,0,-1,1630,932,0,0
413,92,0,0,0,0,0,0,0,0,0,-1,1637,932,0,0
420,92,0,0,0,0,0,0,0,0,0,-1,1644,932,0,0
427,92,0,0,0,0,0,0,0,0,0,-1,1651,932,0,0
434,92,0,0,0,0,0,0,0,0,0,-1,1658,932,0,0
441,92,0,0,0,0,0,0,0,0,0,-1,1665,932,0,0
448,92,0,0,0,0,0,0,0,0,0,-1,1672,932,0,0
455,92,0,0,0,0,0,0,0,0,0,-1,1679,932,0,0
462,92,0,0,0,0,0,0,0,0,0,-1,1686,932,0,0
469,92,0,0,0,0,0,0,0,0,0,-1,1693,932,0,0
476,92,0,0,0,0,0,0,0,0,0,-1,1700,932,0,0
483,92,0,0,0,0,0,0,0,0,0,-1,1707,932,0,0
490,92,0,0,0,0,0,0,0,0,0,-1,1714,932,0,0
497,92,0,0,0,0,0,0,0,0,0,-1,1721,932,0,0
504,92,0,0,0,0,0,0,0,0,0,-1,1728,932,0,0
511,92,0,0,0,0,0,0,0,0,0,-1,1735,932,0,0
518,92,0,0,0,0,0,0,0,0,0,-1,1742,932,0,0
525,92,0,0,0,0,0,0,0,0,0,-1,1749,932,0,0
532,92,0,0,0,0,0,0,0,0,0,-1,1756,932,0,0
539,92,0,0,0,0,0,0,0,0,0,-1,1763,932,0,0
546,92,0,0,0,0,0,0,0,0,0,-1,1770,932,0,0
553,92,0,0,0,0,0,0,0,0,0,-1,1777,932,0,0
560,92,0,0,0,0,0,0,0,0,0,-1,1784,932,0,0
567,92,0,0,0,0,0,0,0,0,0,-1,1791,932,0,0
574,92,0,0,0,0,0,0,0,0,0,-1,1798,932,0,0
581,92,0,0,0,0,0,0,0,0,0,-1,1805,932,0,0
588,92,0,0,0,0,0,0,0,0,0,-1,1812,932,0,0
595,92,0,0,0,0,0,0,0,0,0,-1,1819,932,0,0
602,92,0,0,0,0,0,0,0,0,0,-1,1826,932,0,0
609,92,0,0,0,0,0,0,0,0,0,-1,1833,932,0,0
616,92,0,0,0,0,0,0,0,0,0,-1,1840,932,0,0
623,92,0,0,0,0,0,0,0,0,0,-1,1847,932,0,0
630,92,0,0,0,0,0,0,0,0,0,-1,1854,932,0,0
637,92,19.665,2.29077,-0.00234508,0.00126577,-0.000237937,0.00128139,-0.00236069,-1.50528,0.00213331,0.047258,1861,932,19.665,-2.29079
644,92,19.7014,2.36499,-0.00114407,0.00115759,0.00023917,0.00118218,-0.00116866,1.46834,0.00135727,0.0382846,1868,932,19.7014,-2.36499
651,92,19.2214,2.8194,-0.00167333,0.0011345,0.000225316,0.00115246,-0.0016913,1.49123,0.00165164,0.040188,1875,932,19.2215,-2.8194
658,92,19.2063,2.68958,-0.0029571,0.00115368,0.000268156,0.00117109,-0.00297452,1.50593,0.00246781,0.0436292,1882,932,19.2063,-2.6896
665,92,19.382,2.6098,-0.00455761,0.00123954,0.00033787,0.00125916,-0.00457723,1.51278,0.00354652,0.0430092,1889,932,19.3819,-2.60982
672,92,19.5435,2.41302,-0.00605139,0.00126965,0.000421381,0.00129383,-0.00607556,1.51349,0.00454348,0.0428294,1896,932,19.5435,-2.41302
679,92,19.6875,2.44574,-0.007233,0.00128505,0.00055198,0.00132067,-0.00726862,1.50635,0.00534068,0.0378462,1903,932,19.6875,-2.44572
686,92,19.6006,2.41956,-0.00797403,0.00120836,0.000640528,0.00125283,-0.00801849,1.50149,0.00580848,0.0306034,1910,932,19.6005,-2.41953
693,92,19.4977,2.47913,-0.00831144,0.0011598,0.000707474,0.00121235,-0.00836399,1.49665,0.00602094,0.0282297,1917,932,19.4976,-2.4791
700,92,19.4784,2.51428,-0.00823827,0.00116583,0.000729858,0.00122214,-0.00829458,1.4938,0.00597888,0.0460156,1924,932,19.4784,-2.51427
707,92,19.3785,2.58795,0,0,0,0,0,0,0,-1,1931,932,19.3785,-2.58794
714,92,18.057,2.94641,0,0,0,0,0,0,0,-1,1938,932,18.057,-2.94641
721,92,18.0338,3.12726,-0.00673768,0.00132567,0.000448207,0.0013505,-0.00676251,1.51544,0.00501944,0.0227361,1945,932,18.0338,-3.12727
728,92,18.0028,3.27264,-0.00571591,0.00137427,0.000390068,0.00139567,-0.0057373,1.516,0.00436511,0.0178656,1952,932,18.0028,-3.27265
735,92,18.0063,3.38092,-0.00482701,0.00189269,-3.11544e-05,0.00189283,-0.00482716,-1.56616,0.00400118,0.0151517,1959,932,18.0064,-3.38093
742,92,18.0265,3.46875,-0.00419857,0.00284949,-0.00104028,0.00299983,-0.0043489,-1.42728,0.00426656,0.0153988,1966,932,18.0264,-3.46874
749,92,17.9781,3.59576,-0.00336763,0.00377904,-0.00212785,0.00436461,-0.0039532,-1.30225,0.00480424,0.0133928,1973,932,17.9782,-3.59579
756,92,17.9489,3.70392,-0.00372016,0.00527821,-0.00374267,0.0066314,-0.00507335,-1.22386,0.00677767,0.0129377,1980,932,17.9488,-3.7039
763,92,18.0033,3.79657,-0.00503785,0.00732523,-0.00575157,0.00958715,-0.00729977,-1.19611,0.00977944,0.0150273,1987,932,18.0033,-3.79656
770,92,18.0524,3.91449,-0.0072932,0.00988699,-0.00827334,0.0132232,-0.0106295,-1.18749,0.0137985,0.0241714,1994,932,18.0524,-3.91448
777,92,18.2239,3.95508,-0.0104393,0.0129909,-0.0115767,0.0177458,-0.0151943,-1.18107,0.019037,0.0416138,2001,932,18.2239,-3.95509
784,92,18.3522,4.00714,-0.0145995,0.0166523,-0.015898,0.023318,-0.0212652,-1.17378,0.0257492,0.0466375,2008,932,18.3522,-4.00714
791,92,18.4547,4.01764,0,0,0,0,0,0,0,-1,2015,932,18.4547,-4.01766
798,92,18.9202,3.57056,0,0,0,0,0,0,0,-1,2022,932,18.9202,-3.57057
805,92,0,0,0,0,0,0,0,0,0,-1,2029,932,0,0
812,92,0,0,0,0,0,0,0,0,0,-1,2036,932,0,0
-700,85,0,0,0,0,0,0,0,0,0,-1,524,939,0,0
-693,85,0,0,0,0,0,0,0,0,0,-1,531,939,0,0
-686,85,-12.4144,0.424866,0.0446811,-0.0145252,0.0653271,0.0867995,-0.0566436,0.572662,0.0834247,0.042523,538,939,-12.4144,-0.424863
-679,85,-12.5438,0.844421,0.0366701,-0.0127221,0.0549229,0.0721939,-0.0482458,0.574117,0.0699926,0.0418702,545,939,-12.5438,-0.844442
-672,85,-12.1859,1.48761,0.0289663,-0.0104321,0.0451083,0.0584892,-0.039955,0.579525,0.0571716,0.0442913,552,939,-12.1858,-1.4876
-665,85,-11.9135,1.84851,0.0220285,-0.00810027,0.0361571,0.0461339,-0.0322057,0.588015,0.0454671,0.0447742,559,939,-11.9135,-1.84851
-658,85,-12.0175,1.74933,0,0,0,0,0,0,0,-1,566,939,-12.0175,-1.74931
-651,85,-11.9197,1.51007,0.0112215,-0.00414461,0.0214064,0.0262819,-0.0192049,0.613101,0.0263675,0.0429902,573,939,-11.9197,-1.51008
-644,85,-11.8796,1.58057,0.00745183,-0.00269799,0.0157668,0.0189404,-0.0141865,0.629698,0.0191914,0.0322085,580,939,-11.8796,-1.58055
-637,85,-11.8919,1.50916,0.00451722,-0.00158844,0.0110308,0.0129098,-0.00998106,0.650399,0.0132521,0.0161509,587,939,-11.8919,-1.50914
-630,85,-11.9326,1.38806,0.0013846,-0.000332513,0.00671357,0.00729429,-0.0062422,0.721801,0.00782316,0.00971503,594,939,-11.9325,-1.38806
-623,85,-11.9498,1.30359,-0.00119375,0.000148914,0.00369155,0.00322968,-0.00427452,0.875343,0.00434653,0.00842176,601,939,-11.9499,-1.30361
-616,85,-11.9492,1.21429,-0.00233886,0.000142739,0.0021588,0.00139192,-0.00358804,1.04623,0.00296691,0.00855998,608,939,-11.9492,-1.21429
-609,85,-11.9728,1.10309,-0.00349947,-6.01686e-05,0.00108962,0.00025598,-0.00381562,1.28841,0.00263322,0.010844,615,939,-11.9728,-1.10309
-602,85,-11.9801,1.00623,-0.00475029,5.74983e-05,0.000229893,6.84662e-05,-0.00476125,1.52312,0.00319724,0.0144391,622,939,-11.9801,-1.0062
-595,85,-11.9397,0.937866,-0.00585266,7.60718e-05,-0.000394682,0.000102231,-0.00587882,-1.50461,0.00395373,0.0159112,629,939,-11.9397,-0.937868
-588,85,-11.9133,0.839233,-0.00672073,-1.03692e-05,-0.000588741,4.0893e-05,-0.00677199,-1.48394,0.00452835,0.0144612,636,939,-11.9134,-0.839203
-581,85,-11.9186,0.726135,-0.0075595,-5.11124e-05,-0.000687706,1.13561e-05,-0.00762197,-1.48021,0.0050851,0.0157555,643,939,-11.9186,-0.726165
-574,85,-12.1626,0.631958,-0.00795113,-2.38413e-05,-0.000847188,6.56871e-05,-0.00804065,-1.46551,0.00538247,0.0272307,650,939,-12.1626,-0.631949
-567,85,-12.5799,0.588257,-0.00772847,2.91996e-05,-0.00102562,0.000162504,-0.00786177,-1.44155,0.00529618,0.0350999,657,939,-12.5799,-0.588239
-560,85,-12.5917,0.545898,-0.00721208,0.000140582,-0.00105854,0.000289942,-0.00736144,-1.43062,0.00500708,0.033342,664,939,-12.5917,-0.5459
-553,85,-12.6196,0.432617,-0.00620155,0.000340375,-0.00102266,0.000496515,-0.00635769,-1.41929,0.00441329,0.0370925,671,939,-12.6196,-0.432635
-546,85,-12.7615,0.335083,-0.00458018,0.000587543,-0.000945994,0.000755271,-0.0047479,-1.39532,0.00344474,0.0372342,678,939,-12.7615,-0.335062
-539,85,-12.7365,0.434204,-0.002285,0.000843384,-0.000838144,0.00105379,-0.0024954,-1.32485,0.00210471,0.0370945,685,939,-12.7365,-0.434234
-532,85,-12.7382,0.597961,0.000723994,0.00106077,-0.000774655,0.00168513,9.96358e-05,-0.892418,0.00109172,0.0401476,692,939,-12.7382,-0.597936
-525,85,-12.7626,0.662231,0.00416233,0.00121251,-0.000952225,0.004443,0.000931827,-0.286643,0.00270542,0.038314,699,939,-12.7626,-0.662229
-518,85,-12.5574,0.609314,0.00675428,0.00126594,-0.00134287,0.00706523,0.000954991,-0.227547,0.0044263,0.0390682,706,939,-12.5574,-0.609309
-511,85,0,0,0,0,0,0,0,0,0,-1,713,939,0,0
-504,85,0,0,0,0,0,0,0,0,0,-1,720,939,0,0
-497,85,0,0,0,0,0,0,0,0,0,-1,727,939,0,0
-490,85,0,0,0,0,0,0,0,0,0,-1,734,939,0,0
-483,85,0,0,0,0,0,0,0,0,0,-1,741,939,0,0
-476,85,0,0,0,0,0,0,0,0,0,-1,748,939,0,0
-469,85,0,0,0,0,0,0,0,0,0,-1,755,939,0,0
-462,85,0,0,0,0,0,0,0,0,0,-1,762,939,0,0
-455,85,0,0,0,0,0,0,0,0,0,-1,769,939,0,0
-448,85,0,0,0,0,0,0,0,0,0,-1,776,939,0,0
-441,85,0,0,0,0,0,0,0,0,0,-1,783,939,0,0
-434,85,0,0,0,0,0,0,0,0,0,-1,790,939,0,0
-427,85,0,0,0,0,0,0,0,0,0,-1,797,939,0,0
-420,85,0,0,0,0,0,0,0,0,0,-1,804,939,0,0
-413,85,0,0,0,0,0,0,0,0,0,-1,811,939,0,0
-406,85,0,0,0,0,0,0,0,0,0,-1,818,939,0,0
-399,85,0,0,0,0,0,0,0,0,0,-1,825,939,0,0
-392,85,0,0,0,0,0,0,0,0,0,-1,832,939,0,0
-385,85,0,0,0,0,0,0,0,0,0,-1,839,939,0,0
-378,85,0,0,0,0,0,0,0,0,0,-1,846,939,0,0
-371,85,0,0,0,0,0,0,0,0,0,-1,853,939,0,0
-364,85,0,0,0,0,0,0,0,0,0,-1,860,939,0,0
-357,85,0,0,0,0,0,0,0,0,0,-1,867,939,0,0
-350,85,0,0,0,0,0,0,0,0,0,-1,874,939,0,0
-343,85,0,0,0,0,0,0,0,0,0,-1,881,939,0,0
-336,85,0,0,0,0,0,0,0,0,0,-1,888,939,0,0
-329,85,0,0,0,0,0,0,0,0,0,-1,895,939,0,0
-322,85,0,0,0,0,0,0,0,0,0,-1,902,939,0,0
-315,85,0,0,0,0,0,0,0,0,0,-1,909,939,0,0
-308,85,0,0,0,0,0,0,0,0,0,-1,916,939,0,0
-301,85,0,0,0,0,0,0,0,0,0,-1,923,939,0,0
-294,85,0,0,0,0,0,0,0,0,0,-1,930,939,0,0
-287,85,0,0,0,0,0,0,0,0,0,-1,937,939,0,0
-280,85,0,0,0,0,0,0,0,0,0,-1,944,939,0,0
-273,85,0,0,0,0,0,0,0,0,0,-1,951,939,0,0
-266,85,0,0,0,0,0,0,0,0,0,-1,958,939,0,0
-259,85,0,0,0,0,0,0,0,0,0,-1,965,939,0,0
-252,85,0,0,0,0,0,0,0,0,0,-1,972,939,0,0
-245,85,0,0,0,0,0,0,0,0,0,-1,979,939,0,0
-238,85,0,0,0,0,0,0,0,0,0,-1,986,939,0,0
-231,85,0,0,0,0,0,0,0,0,0,-1,993,939,0,0
-224,85,0,0,0,0,0,0,0,0,0,-1,1000,939,0,0
-217,85,0,0,0,0,0,0,0,0,0,-1,1007,939,0,0
-210,85,0,0,0,0,0,0,0,0,0,-1,1014,939,0,0
-203,85,0,0,0,0,0,0,0,0,0,-1,1021,939,0,0
-196,85,0,0,0,0,0,0,0,0,0,-1,1028,939,0,0
-189,85,0,0,0,0,0,0,0,0,0,-1,1035,939,0,0
-182,85,0,0,0,0,0,0,0,0,0,-1,1042,939,0,0
-175,85,0,0,0,0,0,0,0,0,0,-1,1049,939,0,0
-168,85,0,0,0,0,0,0,0,0,0,-1,1056,939,0,0
-161,85,0,0,0,0,0,0,0,0,0,-1,1063,939,0,0
-154,85,0,0,0,0,0,0,0,0,0,-1,1070,939,0,0
-147,85,0,0,0,0,0,0,0,0,0,-1,1077,939,0,0
-140,85,0,0,0,0,0,0,0,0,0,-1,1084,939,0,0
-133,85,0,0,0,0,0,0,0,0,0,-1,1091,939,0,0
-126,85,0,0,0,0,0,0,0,0,0,-1,1098,939,0,0
-119,85,0,0,0,0,0,0,0,0,0,-1,1105,939,0,0
-112,85,0,0,0,0,0,0,0,0,0,-1,1112,939,0,0
-105,85,0,0,0,0,0,0,0,0,0,-1,1119,939,0,0
-98,85,0,0,0,0,0,0,0,0,0,-1,1126,939,0,0
-91,85,0,0,0,0,0,0,0,0,0,-1,1133,939,0,0
-84,85,0,0,0,0,0,0,0,0,0,-1,1140,939,0,0
-77,85,0,0,0,0,0,0,0,0,0,-1,1147,939,0,0
-70,85,0,0,0,0,0,0,0,0,0,-1,1154,939,0,0
-63,85,0,0,0,0,0,0,0,0,0,-1,1161,939,0,0
-56,85,0,0,0,0,0,0,0,0,0,-1,1168,939,0,0
-49,85,0,0,0,0,0,0,0,0,0,-1,1175,939,0,0
-42,85,0,0,0,0,0,0,0,0,0,-1,1182,939,0,0
-35,85,0,0,0,0,0,0,0,0,0,-1,1189,939,0,0
-28,85,0,0,0,0,0,0,0,0,0,-1,1196,939,0,0
-21,85,0,0,0,0,0,0,0,0,0,-1,1203,939,0,0
-14,85,0,0,0,0,0,0,0,0,0,-1,1210,939,0,0
-7,85,0,0,0,0,0,0,0,0,0,-1,1217,939,0,0
0,85,0,0,0,0,0,0,0,0,0,-1,1224,939,0,0
7,85,0,0,0,0,0,0,0,0,0,-1,1231,939,0,0
14,85,0,0,0,0,0,0,0,0,0,-1,1238,939,0,0
21,85,0,0,0,0,0,0,0,0,0,-1,1245,939,0,0
28,85,0,0,0,0,0,0,0,0,0,-1,1252,939,0,0
35,85,0,0,0,0,0,0,0,0,0,-1,1259,939,0,0
42,85,0,0,0,0,0,0,0,0,0,-1,1266,939,0,0
49,85,0,0,0,0,0,0,0,0,0,-1,1273,939,0,0
56,85,0,0,0,0,0,0,0,0,0,-1,1280,939,0,0
63,85,0,0,0,0,0,0,0,0,0,-1,1287,939,0,0
70,85,0,0,0,0,0,0,0,0,0,-1,1294,939,0,0
77,85,0,0,0,0,0,0,0,0,0,-1,1301,939,0,0
84,85,0,0,0,0,0,0,0,0,0,-1,1308,939,0,0
91,85,0,0,0,0,0,0,0,0,0,-1,1315,939,0,0
98,85,0,0,0,0,0,0,0,0,0,-1,1322,939,0,0
105,85,0,0,0,0,0,0,0,0,0,-1,1329,939,0,0
112,85,0,0,0,0,0,0,0,0,0,-1,1336,939,0,0
119,85,0,0,0,0,0,0,0,0,0,-1,1343,939,0,0
126,85,0,0,0,0,0,0,0,0,0,-1,1350,939,0,0
133,85,0,0,0,0,0,0,0,0,0,-1,1357,939,0,0
140,85,0,0,0,0,0,0,0,0,0,-1,1364,939,0,0
147,85,0,0,0,0,0,0,0,0,0,-1,1371,939,0,0
154,85,0,0,0,0,0,0,0,0,0,-1,1378,939,0,0
161,85,0,0,0,0,0,0,0,0,0,-1,1385,939,0,0
168,85,0,0,0,0,0,0,0,0,0,-1,1392,939,0,0
175,85,0,0,0,0,0,0,0,0,0,-1,1399,939,0,0
182,85,0,0,0,0,0,0,0,0,0,-1,1406,939,0,0
189,85,0,0,0,0,0,0,0,0,0,-1,1413,939,0,0
196,85,0,0,0,0,0,0,0,0,0,-1,1420,939,0,0
203,85,0,0,0,0,0,0,0,0,0,-1,1427,939,0,0
210,85,0,0,0,0,0,0,0,0,0,-1,1434,939,0,0
217,85,0,0,0,0,0,0,0,0,0,-1,1441,939,0,0
224,85,0,0,0,0,0,0,0,0,0,-1,1448,939,0,0
231,85,0,0,0,0,0,0,0,0,0,-1,1455,939,0,0
238,85,0,0,0,0,0,0,0,0,0,-1,1462,939,0,0
245,85,0,0,0,0,0,0,0,0,0,-1,1469,939,0,0
252,85,0,0,0,0,0,0,0,0,0,-1,1476,939,0,0
259,85,0,0,0,0,0,0,0,0,0,-1,1483,939,0,0
266,85,0,0,0,0,0,0,0,0,0,-1,1490,939,0,0
273,85,0,0,0,0,0,0,0,0,0,-1,1497,939,0,0
280,85,0,0,0,0,0,0,0,0,0,-1,1504,939,0,0
287,85,0,0,0,0,0,0,0,0,0,-1,1511,939,0,0
294,85,0,0,0,0,0,0,0,0,0,-1,1518,939,0,0
301,85,0,0,0,0,0,0,0,0,0,-1,1525,939,0,0
308,85,0,0,0,0,0,0,0,0,0,-1,1532,939,0,0
315,85,0,0,0,0,0,0,0,0,0,-1,1539,939,0,0
322,85,0,0,0,0,0,0,0,0,0,-1,1546,939,0,0
329,85,0,0,0,0,0,0,0,0,0,-1,1553,939,0,0
336,85,0,0,0,0,0,0,0,0,0,-1,1560,939,0,0
343,85,0,0,0,0,0,0,0,0,0,-1,1567,939,0,0
350,85,0,0,0,0,0,0,0,0,0,-1,1574,939,0,0
357,85,0,0,0,0,0,0,0,0,0,-1,1581,939,0,0
364,85,0,0,0,0,0,0,0,0,0,-1,1588,939,0,0
371,85,0,0,0,0,0,0,0,0,0,-1,1595,939,0,0
378,85,0,0,0,0,0,0,0,0,0,-1,1602,939,0,0
385,85,0,0,0,0,0,0,0,0,0,-1,1609,939,0,0
392,85,0,0,0,0,0,0,0,0,0,-1,1616,939,0,0
399,85,0,0,0,0,0,0,0,0,0,-1,1623,939,0,0
406,85,0,0,0,0,0,0,0,0,0,-1,1630,939,0,0
413,85,0,0,0,0,0,0,0,0,0,-1,1637,939,0,0
420,85,0,0,0,0,0,0,0,0,0,-1,1644,939,0,0
427,85,0,0,0,0,0,0,0,0,0,-1,1651,939,0,0
434,85,0,0,0,0,0,0,0,0,0,-1,1658,939,0,0
441,85,0,0,0,0,0,0,0,0,0,-1,1665,939,0,0
448,85,0,0,0,0,0,0,0,0,0,-1,1672,939,0,0
455,85,0,0,0,0,0,0,0,0,0,-1,1679,939,0,0
462,85,0,0,0,0,0,0,0,0,0,-1,1686,939,0,0
469,85,0,0,0,0,0,0,0,0,0,-1,1693,939,0,0
476,85,0,0,0,0,0,0,0,0,0,-1,1700,939,0,0
483,85,0,0,0,0,0,0,0,0,0,-1,1707,939,0,0
490,85,0,0,0,0,0,0,0,0,0,-1,1714,939,0,0
497,85,0,0,0,0,0,0,0,0,0,-1,1721,939,0,0
504,85,0,0,0,0,0,0,0,0,0,-1,1728,939,0,0
511,85,0,0,0,0,0,0,0,0,0,-1,1735,939,0,0
518,85,0,0,0,0,0,0,0,0,0,-1,1742,939,0,0
525,85,0,0,0,0,0,0,0,0,0,-1,1749,939,0,0
532,85,0,0,0,0,0,0,0,0,0,-1,1756,939,0,0
539,85,0,0,0,0,0,0,0,0,0,-1,1763,939,0,0
546,85,0,0,0,0,0,0,0,0,0,-1,1770,939,0,0
553,85,0,0,0,0,0,0,0,0,0,-1,1777,939,0,0
560,85,0,0,0,0,0,0,0,0,0,-1,1784,939,0,0
567,85,0,0,0,0,0,0,0,0,0,-1,1791,939,0,0
574,85,0,0,0,0,0,0,0,0,0,-1,1798,939,0,0
581,85,0,0,0,0,0,0,0,0,0,-1,1805,939,0,0
588,85,0,0,0,0,0,0,0,0,0,-1,1812,939,0,0
595,85,0,0,0,0,0,0,0,0,0,-1,1819,939,0,0
602,85,0,0,0,0,0,0,0,0,0,-1,1826,939,0,0
609,85,0,0,0,0,0,0,0,0,0,-1,1833,939,0,0
616,85,0,0,0,0,0,0,0,0,0,-1,1840,939,0,0
623,85,0,0,0,0,0,0,0,0,0,-1,1847,939,0,0
630,85,0,0,0,0,0,0,0,0,0,-1,1854,939,0,0
637,85,19.7003,2.58044,-0.00226333,0.0012827,3.68678e-05,0.00128309,-0.00226372,1.5604,0.00207367,0.0473949,1861,939,19.7004,-2.58046
644,85,19.6709,2.23444,-0.0010333,0.0011358,0.000286276,0.00117295,-0.00107045,1.44176,0.00129568,0.0424661,1868,939,19.671,-2.23445
651,85,19.5519,2.14844,-0.00128317,0.00113965,0.000180673,0.00115305,-0.00129657,1.49677,0.0014151,0.0412493,1875,939,19.5518,-2.14842
658,85,19.3171,2.5108,-0.00224765,0.00122914,0.000243786,0.00124616,-0.00226466,1.50113,0.0020552,0.0429788,1882,939,19.3172,-2.5108
665,85,19.4207,2.78241,-0.00366601,0.00140455,0.000414959,0.00143828,-0.00369975,1.48968,0.00306072,0.0443142,1889,939,19.4207,-2.78243
672,85,19.5835,2.57123,-0.00513332,0.00152002,0.00062282,0.00157782,-0.00519112,1.47826,0.00408944,0.0434983,1896,939,19.5835,-2.57121
679,85,19.7828,2.50854,-0.0063745,0.00157062,0.000860466,0.00166274,-0.00646662,1.46414,0.00495913,0.0391159,1903,939,19.7828,-2.50856
686,85,19.5223,2.52289,-0.00720824,0.00151293,0.00103509,0.0016341,-0.00732941,1.45427,0.00551231,0.0338106,1910,939,19.5223,-2.52289
693,85,19.4648,2.48193,-0.00765947,0.00145509,0.00116158,0.0016008,-0.00780518,1.44601,0.00581102,0.0306512,1917,939,19.4649,-2.48192
700,85,19.4932,2.47229,-0.00775278,0.0014778,0.0012167,0.00163548,-0.00791046,1.44192,0.00589492,0.0339326,1924,939,19.4932,-2.47227
707,85,18.8447,2.73987,-0.00749687,0.00148628,0.00116633,0.00163524,-0.00764583,1.44377,0.00572074,0.0472305,1931,939,18.8448,-2.73986
714,85,18.1388,3.02649,0,0,0,0,0,0,0,-1,1938,939,18.1388,-3.02648
721,85,18.142,3.15442,-0.0067275,0.00151911,0.00089048,0.00161417,-0.00682256,1.46445,0.0051711,0.0209811,1945,939,18.1419,-3.15439
728,85,18.1243,3.2951,-0.00587003,0.00148021,0.000766877,0.00155937,-0.00594919,1.46794,0.00457537,0.0169513,1952,939,18.1243,-3.29508
735,85,18.127,3.39038,-0.00495385,0.00176448,0.000331452,0.0017808,-0.00497016,1.52162,0.00404006,0.0165469,1959,939,18.127,-3.3904
742,85,18.1576,3.48358,-0.00417237,0.00246625,-0.00060058,0.00252015,-0.00422627,-1.4813,0.00393635,0.0149583,1966,939,18.1576,-3.48357
749,85,18.1042,3.60065,-0.00318082,0.00311161,-0.00164614,0.00351623,-0.00358544,-1.32977,0.00410022,0.013503,1973,939,18.1042,-3.60065
756,85,18.0839,3.70551,-0.00309124,0.00411193,-0.00301334,0.00520626,-0.00418557,-1.22244,0.00543304,0.0124652,1980,939,18.0839,-3.7055
763,85,18.1167,3.81842,-0.00386107,0.00544504,-0.00455013,0.00730003,-0.00571606,-1.18369,0.00753337,0.011934,1987,939,18.1167,-3.81845
770,85,18.1473,3.88074,-0.00550823,0.00718646,-0.00640873,0.00985913,-0.0081809,-1.17569,0.0104304,0.0170316,1994,939,18.1474,-3.88073
777,85,18.2179,3.89392,-0.0081587,0.00921106,-0.00872448,0.0128365,-0.0117841,-1.17696,0.014219,0.0373154,2001,939,18.2179,-3.89393
784,85,18.2133,4.07709,-0.0120797,0.0113854,-0.0115983,0.0161505,-0.0168448,-1.18097,0.0190513,0.0471146,2008,939,18.2133,-4.07708
791,85,18.1069,4.15564,0,0,0,0,0,0,0,-1,2015,939,18.1069,-4.15565
798,85,19.3629,3.5968,0,0,0,0,0,0,0,-1,2022,939,19.3629,-3.59679
805,85,17.5607,4.40649,0,0,0,0,0,0,0,-1,2029,939,17.5607,-4.40652
812,85,0,0,0,0,0,0,0,0,0,-1,2036,939,0,0
-700,78,0,0,0,0,0,0,0,0,0,-1,524,946,0,0
-693,78,0,0,0,0,0,0,0,0,0,-1,531,946,0,0
-686,78,-12.6672,0.782532,0.059627,-0.0202318,0.0755967,0.105192,-0.0657964,0.542426,0.0995895,0.040471,538,946,-12.6672,-0.782562
-679,78,-12.5856,1.19751,0.0493091,-0.0173197,0.0638788,0.0880388,-0.0560493,0.545038,0.0838699,0.0434815,545,946,-12.5857,-1.1975
-672,78,-12.4898,1.77533,0,0,0,0,0,0,0,-1,552,946,-12.4898,-1.77532
-665,78,-12.4146,1.75806,0.0301675,-0.0109605,0.0423037,0.0566405,-0.0374336,0.559164,0.0546898,0.04826,559,946,-12.4146,-1.75807
-658,78,-12.3489,1.70862,0,0,0,0,0,0,0,-1,566,946,-12.349,-1.70862
-651,78,-12.1512,1.63507,0.0155485,-0.00565487,0.0249419,0.0320484,-0.0221547,0.584439,0.0314674,0.0451263,573,946,-12.1512,-1.6351
-644,78,-11.9644,1.57629,0.0103044,-0.00368478,0.0181994,0.0228071,-0.0161875,0.601935,0.0226214,0.025705,580,946,-11.9644,-1.57628
-637,78,-11.9947,1.45264,0.00622717,-0.00215578,0.0125153,0.0152342,-0.0111628,0.623815,0.0153006,0.0129958,587,946,-11.9947,-1.45263
-630,78,-12.0374,1.33496,0.00204491,-0.000619726,0.00737599,0.00820794,-0.00678276,0.696047,0.00866791,0.0115939,594,946,-12.0373,-1.33495
-623,78,-12.05,1.26929,-0.00131146,0.000275822,0.00369822,0.0032646,-0.00430024,0.891096,0.00438118,0.0111148,601,946,-12.05,-1.26926
-616,78,-12.0466,1.20172,-0.00267073,0.000324111,0.0019239,0.00126465,-0.00361127,1.11609,0.00292177,0.00975254,608,946,-12.0466,-1.20171
-609,78,-12.0383,1.10718,-0.0037383,0.000147152,0.000833098,0.000318246,-0.0039094,1.36824,0.00271856,0.0104834,615,946,-12.0383,-1.10721
-602,78,-12.0615,1.00708,-0.00481678,0.000202897,-0.000113273,0.000205452,-0.00481934,-1.54825,0.00328352,0.0145877,622,946,-12.0615,-1.00707
-595,78,-12.0304,0.919922,-0.00579343,0.000154981,-0.000754538,0.000249199,-0.00588765,-1.44657,0.00401075,0.0146305,629,946,-12.0304,-0.91993
-588,78,-12.0139,0.867615,-0.00656876,1.24802e-05,-0.000950641,0.000147046,-0.00670333,-1.43018,0.0045187,0.0121835,636,946,-12.0139,-0.867603
-581,78,-12.0562,0.774658,-0.00731438,-8.07496e-05,-0.00104808,6.80462e-05,-0.00746318,-1.42977,0.00499829,0.0190731,643,946,-12.0561,-0.774673
-574,78,-12.333,0.624084,-0.00766111,-0.000101497,-0.00120761,8.67271e-05,-0.00784934,-1.41618,0.00526204,0.0252394,650,946,-12.333,-0.624066
-567,78,-12.6541,0.510437,0,0,0,0,0,0,0,-1,657,946,-12.6541,-0.51045
-560,78,-12.6309,0.594666,-0.00688788,-4.72505e-05,-0.00133434,0.000203811,-0.00713895,-1.38482,0.00482867,0.0311497,664,946,-12.6309,-0.594639
-553,78,-12.6666,0.454651,-0.0058322,7.38942e-05,-0.00123429,0.000321468,-0.00607977,-1.37284,0.00416447,0.0402983,671,946,-12.6665,-0.454658
-546,78,-12.7526,0.278381,-0.00418228,0.000224733,-0.00106099,0.000466861,-0.00442441,-1.34643,0.0031169,0.0406878,678,946,-12.7526,-0.278371
-539,78,-12.6506,0.49646,-0.00188752,0.000368707,-0.00082466,0.000637986,-0.0021568,-1.25518,0.00169113,0.0369127,685,946,-12.6506,-0.496481
-532,78,-12.6584,0.781677,0.00105374,0.000468786,-0.00061718,0.00144424,7.82888e-05,-0.564126,0.000937818,0.0397736,692,946,-12.6584,-0.781673
-525,78,-12.6781,0.610046,0.00420281,0.000526703,-0.000645811,0.00431296,0.000416549,-0.168941,0.002747,0.0391387,699,946,-12.6781,-0.61007
-518,78,-12.5702,0.556152,0.00626941,0.000506929,-0.000894647,0.00640511,0.000371228,-0.150534,0.00415187,0.0407328,706,946,-12.5702,-0.556129
-511,78,0,0,0,0,0,0,0,0,0,-1,713,946,0,0
-504,78,0,0,0,0,0,0,0,0,0,-1,720,946,0,0
-497,78,0,0,0,0,0,0,0,0,0,-1,727,946,0,0
-490,78,0,0,0,0,0,0,0,0,0,-1,734,946,0,0
-483,78,0,0,0,0,0,0,0,0,0,-1,741,946,0,0
-476,78,0,0,0,0,0,0,0,0,0,-1,748,946,0,0
-469,78,0,0,0,0,0,0,0,0,0,-1,755,946,0,0
-462,78,0,0,0,0,0,0,0,0,0,-1,762,946,0,0
-455,78,0,0,0,0,0,0,0,0,0,-1,769,946,0,0
-448,78,0,0,0,0,0,0,0,0,0,-1,776,946,0,0
-441,78,0,0,0,0,0,0,0,0,0,-1,783,946,0,0
-434,78,0,0,0,0,0,0,0,0,0,-1,790,946,0,0
-427,78,0,0,0,0,0,0,0,0,0,-1,797,946,0,0
-420,78,0,0,0,0,0,0,0,0,0,-1,804,946,0,0
-413,78,0,0,0,0,0,0,0,0,0,-1,811,946,0,0
-406,78,0,0,0,0,0,0,0,0,0,-1,818,946,0,0
-399,78,0,0,0,0,0,0,0,0,0,-1,825,946,0,0
-392,78,0,0,0,0,0,0,0,0,0,-1,832,946,0,0
-385,78,0,0,0,0,0,0,0,0,0,-1,839,946,0,0
-378,78,0,0,0,0,0,0,0,0,0,-1,846,946,0,0
-371,78,0,0,0,0,0,0,0,0,0,-1,853,946,0,0
-364,78,0,0,0,0,0,0,0,0,0,-1,860,946,0,0
-357,78,0,0,0,0,0,0,0,0,0,-1,867,946,0,0
-350,78,0,0,0,0,0,0,0,0,0,-1,874,946,0,0
-343,78,0,0,0,0,0,0,0,0,0,-1,881,946,0,0
-336,78,0,0,0,0,0,0,0,0,0,-1,888,946,0,0
-329,78,0,0,0,0,0,0,0,0,0,-1,895,946,0,0
-322,78,0,0,0,0,0,0,0,0,0,-1,902,946,0,0
-315,78,0,0,0,0,0,0,0,0,0,-1,909,946,0,0
-308,78,0,0,0,0,0,0,0,0,0,-1,916,946,0,0
-301,78,0,0,0,0,0,0,0,0,0,-1,923,946,0,0
-294,78,0,0,0,0,0,0,0,0,0,-1,930,946,0,0
-287,78,0,0,0,0,0,0,0,0,0,-1,937,946,0,0
-280,78,0,0,0,0,0,0,0,0,0,-1,944,946,0,0
-273,78,0,0,0,0,0,0,0,0,0,-1,951,946,0,0
-266,78,0,0,0,0,0,0,0,0,0,-1,958,946,0,0
-259,78,0,0,0,0,0,0,0,0,0,-1,965,946,0,0
-252,78,0,0,0,0,0,0,0,0,0,-1,972,946,0,0
-245,78,0,0,0,0,0,0,0,0,0,-1,979,946,0,0
-238,78,0,0,0,0,0,0,0,0,0,-1,986,946,0,0
-231,78,0,0,0,0,0,0,0,0,0,-1,993,946,0,0
-224,78,0,0,0,0,0,0,0,0,0,-1,1000,946,0,0
-217,78,0,0,0,0,0,0,0,0,0,-1,1007,946,0,0
-210,78,0,0,0,0,0,0,0,0,0,-1,1014,946,0,0
-203,78,0,0,0,0,0,0,0,0,0,-1,1021,946,0,0
-196,78,0,0,0,0,0,0,0,0,0,-1,1028,946,0,0
-189,78,0,0,0,0,0,0,0,0,0,-1,1035,946,0,0
-182,78,0,0,0,0,0,0,0,0,0,-1,1042,946,0,0
-175,78,0,0,0,0,0,0,0,0,0,-1,1049,946,0,0
-168,78,0,0,0,0,0,0,0,0,0,-1,1056,946,0,0
-161,78,0,0,0,0,0,0,0,0,0,-1,1063,946,0,0
-154,78,0,0,0,0,0,0,0,0,0,-1,1070,946,0,0
-147,78,0,0,0,0,0,0,0,0,0,-1,1077,946,0,0
-140,78,0,0,0,0,0,0,0,0,0,-1,1084,946,0,0
-133,78,0,0,0,0,0,0,0,0,0,-1,1091,946,0,0
-126,78,0,0,0,0,0,0,0,0,0,-1,1098,946,0,0
-119,78,0,0,0,0,0,0,0,0,0,-1,1105,946,0,0
-112,78,0,0,0,0,0,0,0,0,0,-1,1112,946,0,0
-105,78,0,0,0,0,0,0,0,0,0,-1,1119,946,0,0
-98,78,0,0,0,0,0,0,0,0,0,-1,1126,946,0,0
-91,78,0,0,0,0,0,0,0,0,0,-1,1133,946,0,0
-84,78,0,0,0,0,0,0,0,0,0,-1,1140,946,0,0
-77,78,0,0,0,0,0,0,0,0,0,-1,1147,946,0,0
-70,78,0,0,0,0,0,0,0,0,0,-1,1154,946,0,0
-63,78,0,0,0,0,0,0,0,0,0,-1,1161,946,0,0
-56,78,0,0,0,0,0,0,0,0,0,-1,1168,946,0,0
-49,78,0,0,0,0,0,0,0,0,0,-1,1175,946,0,0
-42,78,0,0,0,0,0,0,0,0,0,-1,1182,946,0,0
-35,78,0,0,0,0,0,0,0,0,0,-1,1189,946,0,0
-28,78,0,0,0,0,0,0,0,0,0,-1,1196,946,0,0
-21,78,0,0,0,0,0,0,0,0,0,-1,1203,946,0,0
-14,78,0,0,0,0,0,0,0,0,0,-1,1210,946,0,0
-7,78,0,0,0,0,0,0,0,0,0,-1,1217,946,0,0
0,78,0,0,0,0,0,0,0,0,0,-1,1224,946,0,0
7,78,0,0,0,0,0,0,0,0,0,-1,1231,946,0,0
14,78,0,0,0,0,0,0,0,0,0,-1,1238,946,0,0
21,78,0,0,0,0,0,0,0,0,0,-1,1245,946,0,0
28,78,0,0,0,0,0,0,0,0,0,-1,1252,946,0,0
35,78,0,0,0,0,0,0,0,0,0,-1,1259,946,0,0
42,78,0,0,0,0,0,0,0,0,0,-1,1266,946,0,0
49,78,0,0,0,0,0,0,0,0,0,-1,1273,946,0,0
56,78,0,0,0,0,0,0,0,0,0,-1,1280,946,0,0
63,78,0,0,0,0,0,0,0,0,0,-1,1287,946,0,0
70,78,0,0,0,0,0,0,0,0,0,-1,1294,946,0,0
77,78,0,0,0,0,0,0,0,0,0,-1,1301,946,0,0
84,78,0,0,0,0,0,0,0,0,0,-1,1308,946,0,0
91,78,0,0,0,0,0,0,0,0,0,-1,1315,946,0,0
98,78,0,0,0,0,0,0,0,0,0,-1,1322,946,0,0
105,78,0,0,0,0,0,0,0,0,0,-1,1329,946,0,0
112,78,0,0,0,0,0,0,0,0,0,-1,1336,946,0,0
119,78,0,0,0,0,0,0,0,0,0,-1,1343,946,0,0
126,78,0,0,0,0,0,0,0,0,0,-1,1350,946,0,0
133,78,0,0,0,0,0,0,0,0,0,-1,1357,946,0,0
140,78,0,0,0,0,0,0,0,0,0,-1,1364,946,0,0
147,78,0,0,0,0,0,0,0,0,0,-1,1371,946,0,0
154,78,0,0,0,0,0,0,0,0,0,-1,1378,946,0,0
161,78,0,0,0,0,0,0,0,0,0,-1,1385,946,0,0
168,78,0,0,0,0,0,0,0,0,0,-1,1392,946,0,0
175,78,0,0,0,0,0,0,0,0,0,-1,1399,946,0,0
182,78,0,0,0,0,0,0,0,0,0,-1,1406,946,0,0
189,78,0,0,0,0,0,0,0,0,0,-1,1413,946,0,0
196,78,0,0,0,0,0,0,0,0,0,-1,1420,946,0,0
203,78,0,0,0,0,0,0,0,0,0,-1,1427,946,0,0
210,78,0,0,0,0,0,0,0,0,0,-1,1434,946,0,0
217,78,0,0,0,0,0,0,0,0,0,-1,1441,946,0,0
224,78,0,0,0,0,0,0,0,0,0,-1,1448,946,0,0
231,78,0,0,0,0,0,0,0,0,0,-1,1455,946,0,0
238,78,0,0,0,0,0,0,0,0,0,-1,1462,946,0,0
245,78,0,0,0,0,0,0,0,0,0,-1,1469,946,0,0
252,78,0,0,0,0,0,0,0,0,0,-1,1476,946,0,0
259,78,0,0,0,0,0,0,0,0,0,-1,1483,946,0,0
266,78,0,0,0,0,0,0,0,0,0,-1,1490,946,0,0
273,78,0,0,0,0,0,0,0,0,0,-1,1497,946,0,0
280,78,0,0,0,0,0,0,0,0,0,-1,1504,946,0,0
287,78,0,0,0,0,0,0,0,0,0,-1,1511,946,0,0
294,78,0,0,0,0,0,0,0,0,0,-1,1518,946,0,0
301,78,0,0,0,0,0,0,0,0,0,-1,1525,946,0,0
308,78,0,0,0,0,0,0,0,0,0,-1,1532,946,0,0
315,78,0,0,0,0,0,0,0,0,0,-1,1539,946,0,0
322,78,0,0,0,0,0,0,0,0,0,-1,1546,946,0,0
329,78,0,0,0,0,0,0,0,0,0,-1,1553,946,0,0
336,78,0,0,0,0,0,0,0,0,0,-1,1560,946,0,0
343,78,0,0,0,0,0,0,0,0,0,-1,1567,946,0,0
350,78,0,0,0,0,0,0,0,0,0,-1,1574,946,0,0
357,78,0,0,0,0,0,0,0,0,0,-1,1581,946,0,0
364,78,0,0,0,0,0,0,0,0,0,-1,1588,946,0,0
371,78,0,0,0,0,0,0,0,0,0,-1,1595,946,0,0
378,78,0,0,0,0,0,0,0,0,0,-1,1602,946,0,0
385,78,0,0,0,0,0,0,0,0,0,-1,1609,946,0,0
392,78,0,0,0,0,0,0,0,0,0,-1,1616,946,0,0
399,78,0,0,0,0,0,0,0,0,0,-1,1623,946,0,0
406,78,0,0,0,0,0,0,0,0,0,-1,1630,946,0,0
413,78,0,0,0,0,0,0,0,0,0,-1,1637,946,0,0
420,78,0,0,0,0,0,0,0,0,0,-1,1644,946,0,0
427,78,0,0,0,0,0,0,0,0,0,-1,1651,946,0,0
434,78,0,0,0,0,0,0,0,0,0,-1,1658,946,0,0
441,78,0,0,0,0,0,0,0,0,0,-1,1665,946,0,0
448,78,0,0,0,0,0,0,0,0,0,-1,1672,946,0,0
455,78,0,0,0,0,0,0,0,0,0,-1,1679,946,0,0
462,78,0,0,0,0,0,0,0,0,0,-1,1686,946,0,0
469,78,0,0,0,0,0,0,0,0,0,-1,1693,946,0,0
476,78,0,0,0,0,0,0,0,0,0,-1,1700,946,0,0
483,78,0,0,0,0,0,0,0,0,0,-1,1707,946,0,0
490,78,0,0,0,0,0,0,0,0,0,-1,1714,946,0,0
497,78,0,0,0,0,0,0,0,0,0,-1,1721,946,0,0
504,78,0,0,0,0,0,0,0,0,0,-1,1728,946,0,0
511,78,0,0,0,0,0,0,0,0,0,-1,1735,946,0,0
518,78,0,0,0,0,0,0,0,0,0,-1,1742,946,0,0
525,78,0,0,0,0,0,0,0,0,0,-1,1749,946,0,0
532,78,0,0,0,0,0,0,0,0,0,-1,1756,946,0,0
539,78,0,0,0,0,0,0,0,0,0,-1,1763,946,0,0
546,78,0,0,0,0,0,0,0,0,0,-1,1770,946,0,0
553,78,0,0,0,0,0,0,0,0,0,-1,1777,946,0,0
560,78,0,0,0,0,0,0,0,0,0,-1,1784,946,0,0
567,78,0,0,0,0,0,0,0,0,0,-1,1791,946,0,0
574,78,0,0,0,0,0,0,0,0,0,-1,1798,946,0,0
581,78,0,0,0,0,0,0,0,0,0,-1,1805,946,0,0
588,78,0,0,0,0,0,0,0,0,0,-1,1812,946,0,0
595,78,0,0,0,0,0,0,0,0,0,-1,1819,946,0,0
602,78,0,0,0,0,0,0,0,0,0,-1,1826,946,0,0
609,78,0,0,0,0,0,0,0,0,0,-1,1833,946,0,0
616,78,0,0,0,0,0,0,0,0,0,-1,1840,946,0,0
623,78,0,0,0,0,0,0,0,0,0,-1,1847,946,0,0
630,78,0,0,0,0,0,0,0,0,0,-1,1854,946,0,0
637,78,19.7581,2.25262,-0.0020788,0.000912779,0.000263904,0.00093588,-0.0021019,1.48348,0.00179642,0.0445175,1861,946,19.7581,-2.25261
644,78,19.5765,2.04846,-0.00100217,0.000936947,0.000243772,0.000967123,-0.00103235,1.44764,0.0011546,0.0436072,1868,946,19.5765,-2.04846
651,78,19.4972,2.05487,-0.00100133,0.00108177,1.56372e-05,0.00108189,-0.00100145,1.56329,0.00120311,0.042615,1875,946,19.4972,-2.05485
658,78,19.4271,2.42719,-0.00160107,0.00130976,8.52085e-05,0.00131225,-0.00160357,1.54156,0.00168625,0.0400509,1882,946,19.4271,-2.42716
665,78,19.5203,2.64764,-0.0027481,0.00162521,0.000370488,0.00165637,-0.00277926,1.48688,0.00258812,0.0386483,1889,946,19.5203,-2.64763
672,78,19.5557,2.72949,-0.004094,0.00186596,0.00071601,0.00195077,-0.00417881,1.45289,0.00361601,0.0397181,1896,946,19.5557,-2.7295
679,78,19.5936,2.58661,-0.00532304,0.00198436,0.00108369,0.00214168,-0.00548037,1.42663,0.00453914,0.0390379,1903,946,19.5936,-2.58661
686,78,19.3765,2.5578,-0.00619739,0.00196219,0.00136672,0.00218503,-0.00642023,1.40917,0.00516493,0.0359672,1910,946,19.3764,-2.55778
693,78,19.4669,2.39093,-0.0067294,0.00189684,0.00156856,0.00217321,-0.00700577,1.3964,0.0055389,0.030516,1917,946,19.467,-2.39092
700,78,19.4607,2.37878,-0.00698056,0.00193089,0.00166219,0.00223083,-0.0072805,1.39227,0.00574355,0.0287274,1924,946,19.4607,-2.3788
707,78,19.2576,2.78406,-0.00690882,0.00192129,0.0016339,0.00221392,-0.00720145,1.39357,0.00568451,0.0422637,1931,946,19.2575,-2.78403
714,78,18.1704,3.11993,0,0,0,0,0,0,0,-1,1938,946,18.1704,-3.11992
721,78,18.2068,3.16254,-0.00645248,0.00180767,0.00135457,0.00202413,-0.00666894,1.41234,0.00525233,0.0196065,1945,946,18.2068,-3.16253
728,78,18.2502,3.26422,-0.00576916,0.0016859,0.00118519,0.00186979,-0.00595304,1.41687,0.00471714,0.0199127,1952,946,18.2502,-3.2642
735,78,18.2456,3.37653,-0.00486631,0.00179392,0.000746505,0.00187656,-0.00494896,1.46054,0.00407162,0.015092,1959,946,18.2456,-3.37654
742,78,18.2614,3.49689,-0.0039863,0.00231296,-0.000154813,0.00231676,-0.0039901,-1.54624,0.00368374,0.0147527,1966,946,18.2614,-3.49692
749,78,18.2291,3.59991,-0.00282,0.00267156,-0.00121806,0.0029296,-0.00307805,-1.36203,0.00346887,0.0138798,1973,946,18.2291,-3.59992
756,78,18.2412,3.69012,-0.00213892,0.00321625,-0.00235634,0.00410543,-0.00302809,-1.20996,0.00413417,0.0137985,1980,946,18.2413,-3.6901
763,78,18.2457,3.78699,-0.00220826,0.00385276,-0.00350291,0.00545414,-0.00380964,-1.14201,0.00537646,0.0121988,1987,946,18.2457,-3.78699
770,78,18.2358,3.87329,-0.00287675,0.00475773,-0.00481943,0.00708852,-0.00520754,-1.12034,0.00712676,0.0154891,1994,946,18.2358,-3.87327
777,78,18.2179,3.97913,-0.00438899,0.00562477,-0.00632049,0.00868123,-0.00744544,-1.12037,0.00931985,0.0348422,2001,946,18.2179,-3.97914
784,78,18.2676,4.09344,-0.00700329,0.00613972,-0.00799164,0.00991476,-0.0107783,-1.12949,0.0119506,0.0460747,2008,946,18.2676,-4.09345
791,78,18.1882,4.15131,0,0,0,0,0,0,0,-1,2015,946,18.1882,-4.15128
798,78,17.2889,3.81384,0,0,0,0,0,0,0,-1,2022,946,17.2889,-3.81383
805,78,17.4097,3.86896,0,0,0,0,0,0,0,-1,2029,946,17.4097,-3.86898
812,78,0,0,0,0,0,0,0,0,0,-1,2036,946,0,0
-700,71,0,0,0,0,0,0,0,0,0,-1,524,953,0,0
-693,71,0,0,0,0,0,0,0,0,0,-1,531,953,0,0
-686,71,-13.2609,0.299072,0.0714424,-0.0230642,0.0831504,0.119828,-0.0714502,0.527011,0.111606,0.0423459,538,953,-13.2609,-0.299078
-679,71,-12.5535,1.50281,0.059492,-0.0190416,0.0708906,0.101264,-0.0608141,0.532479,0.0945425,0.0448122,545,953,-12.5535,-1.50279
-672,71,-11.7613,2.71381,0,0,0,0,0,0,0,-1,552,953,-11.7613,-2.7138
-665,71,-12.6027,1.80933,0,0,0,0,0,0,0,-1,559,953,-12.6026,-1.8093
-658,71,-12.5296,1.75598,0,0,0,0,0,0,0,-1,566,953,-12.5296,-1.75597
-651,71,-12.2899,1.68964,0,0,0,0,0,0,0,-1,573,953,-12.2899,-1.68965
-644,71,-12.081,1.55927,0.0130568,-0.00408155,0.0204775,0.0266858,-0.0177106,0.587236,0.0258063,0.0315723,580,953,-12.081,-1.55926
-637,71,-12.1061,1.44775,0.00794406,-0.00235012,0.0140169,0.017729,-0.0121351,0.609438,0.0173426,0.0138254,587,953,-12.1061,-1.44775
-630,71,-12.1413,1.34668,0.00277998,-0.000730381,0.00803934,0.00925351,-0.00720391,0.677923,0.00952623,0.0123787,594,953,-12.1413,-1.34667
-623,71,-12.159,1.27136,-0.00136113,0.000312542,0.00351529,0.00308923,-0.00413782,0.902251,0.00418715,0.0124535,601,953,-12.159,-1.27137
-616,71,-12.1417,1.19,-0.00288146,0.000481286,0.00158334,0.00110945,-0.00350962,1.19311,0.00278425,0.0122249,608,953,-12.1417,-1.18999
-609,71,-12.1155,1.12445,-0.00387122,0.000397331,0.000525058,0.000460968,-0.00393486,1.45019,0.00278962,0.0130534,615,953,-12.1156,-1.12445
-602,71,-12.113,1.026,-0.00475363,0.000439568,-0.000490157,0.000485427,-0.00479949,-1.47751,0.00337313,0.0151012,622,953,-12.1129,-1.02602
-595,71,-12.1262,0.91803,-0.00557876,0.000346944,-0.00114617,0.000560914,-0.00579273,-1.38624,0.00406172,0.0155717,629,953,-12.1262,-0.918043
-588,71,-12.1196,0.864014,-0.00623537,0.000167426,-0.00134642,0.00043904,-0.00650699,-1.37174,0.0044915,0.0156476,636,953,-12.1196,-0.864014
-581,71,-12.2211,0.747253,-0.00685469,3.04548e-05,-0.00141684,0.000310616,-0.00713485,-1.37558,0.00486341,0.0242072,643,953,-12.2211,-0.747246
-574,71,-12.554,0.571228,-0.00715102,-4.08127e-05,-0.00156943,0.000290196,-0.00748202,-1.36293,0.00508751,0.02947,650,953,-12.554,-0.571217
-567,71,-12.6794,0.426758,-0.00693407,-8.22616e-05,-0.00167504,0.00030531,-0.00732164,-1.34342,0.00498598,0.0200151,657,953,-12.6794,-0.426738
-560,71,-12.6524,0.525574,-0.00642492,-9.09814e-05,-0.00161376,0.000296471,-0.00681237,-1.33516,0.00464356,0.0276555,664,953,-12.6524,-0.525567
-553,71,-12.7179,0.506409,-0.00541032,-5.06564e-05,-0.00145014,0.000316543,-0.00577752,-1.32279,0.00396141,0.0395691,671,953,-12.7179,-0.506387
-546,71,-12.72,0.429443,-0.00385597,1.68639e-05,-0.00118725,0.000351849,-0.00419096,-1.29579,0.00291833,0.0403251,678,953,-12.72,-0.429423
-539,71,-12.5644,0.472046,-0.00171541,9.15676e-05,-0.000840961,0.000422384,-0.00204622,-1.19601,0.00152457,0.0388153,685,953,-12.5644,-0.472033
-532,71,-12.7089,0.547607,0.000966178,0.00017183,-0.000526805,0.00122875,-9.0747e-05,-0.462392,0.000851033,0.0431266,692,953,-12.7089,-0.547602
-525,71,-12.6501,0.383362,0.00361468,0.000336731,-0.000468496,0.00368032,0.000271087,-0.139211,0.00236836,0.0447561,699,953,-12.6501,-0.383382
-518,71,0,0,0,0,0,0,0,0,0,-1,706,953,0,0
-511,71,0,0,0,0,0,0,0,0,0,-1,713,953,0,0
-504,71,0,0,0,0,0,0,0,0,0,-1,720,953,0,0
-497,71,0,0,0,0,0,0,0,0,0,-1,727,953,0,0
-490,71,0,0,0,0,0,0,0,0,0,-1,734,953,0,0
-483,71,0,0,0,0,0,0,0,0,0,-1,741,953,0,0
-476,71,0,0,0,0,0,0,0,0,0,-1,748,953,0,0
-469,71,0,0,0,0,0,0,0,0,0,-1,755,953,0,0
-462,71,0,0,0,0,0,0,0,0,0,-1,762,953,0,0
-455,71,0,0,0,0,0,0,0,0,0,-1,769,953,0,0
-448,71,0,0,0,0,0,0,0,0,0,-1,776,953,0,0
-441,71,0,0,0,0,0,0,0,0,0,-1,783,953,0,0
-434,71,0,0,0,0,0,0,0,0,0,-1,790,953,0,0
-427,71,0,0,0,0,0,0,0,0,0,-1,797,953,0,0
-420,71,0,0,0,0,0,0,0,0,0,-1,804,953,0,0
-413,71,0,0,0,0,0,0,0,0,0,-1,811,953,0,0
-406,71,0,0,0,0,0,0,0,0,0,-1,818,953,0,0
-399,71,0,0,0,0,0,0,0,0,0,-1,825,953,0,0
-392,71,0,0,0,0,0,0,0,0,0,-1,832,953,0,0
-385,71,0,0,0,0,0,0,0,0,0,-1,839,953,0,0
-378,71,0,0,0,0,0,0,0,0,0,-1,846,953,0,0
-371,71,0,0,0,0,0,0,0,0,0,-1,853,953,0,0
-364,71,0,0,0,0,0,0,0,0,0,-1,860,953,0,0
-357,71,0,0,0,0,0,0,0,0,0,-1,867,953,0,0
-350,71,0,0,0,0,0,0,0,0,0,-1,874,953,0,0
-343,71,0,0,0,0,0,0,0,0,0,-1,881,953,0,0
-336,71,0,0,0,0,0,0,0,0,0,-1,888,953,0,0
-329,71,0,0,0,0,0,0,0,0,0,-1,895,953,0,0
-322,71,0,0,0,0,0,0,0,0,0,-1,902,953,0,0
-315,71,0,0,0,0,0,0,0,0,0,-1,909,953,0,0
-308,71,0,0,0,0,0,0,0,0,0,-1,916,953,0,0
-301,71,0,0,0,0,0,0,0,0,0,-1,923,953,0,0
-294,71,0,0,0,0,0,0,0,0,0,-1,930,953,0,0
-287,71,0,0,0,0,0,0,0,0,0,-1,937,953,0,0
-280,71,0,0,0,0,0,0,0,0,0,-1,944,953,0,0
-273,71,0,0,0,0,0,0,0,0,0,-1,951,953,0,0
-266,71,0,0,0,0,0,0,0,0,0,-1,958,953,0,0
-259,71,0,0,0,0,0,0,0,0,0,-1,965,953,0,0
-252,71,0,0,0,0,0,0,0,0,0,-1,972,953,0,0
-245,71,0,0,0,0,0,0,0,0,0,-1,979,953,0,0
-238,71,0,0,0,0,0,0,0,0,0,-1,986,953,0,0
-231,71,0,0,0,0,0,0,0,0,0,-1,993,953,0,0
-224,71,0,0,0,0,0,0,0,0,0,-1,1000,953,0,0
-217,71,0,0,0,0,0,0,0,0,0,-1,1007,953,0,0
-210,71,0,0,0,0,0,0,0,0,0,-1,1014,953,0,0
-203,71,0,0,0,0,0,0,0,0,0,-1,1021,953,0,0
-196,71,0,0,0,0,0,0,0,0,0,-1,1028,953,0,0
-189,71,0,0,0,0,0,0,0,0,0,-1,1035,953,0,0
-182,71,0,0,0,0,0,0,0,0,0,-1,1042,953,0,0
-175,71,0,0,0,0,0,0,0,0,0,-1,1049,953,0,0
-168,71,0,0,0,0,0,0,0,0,0,-1,1056,953,0,0
-161,71,0,0,0,0,0,0,0,0,0,-1,1063,953,0,0
-154,71,0,0,0,0,0,0,0,0,0,-1,1070,953,0,0
-147,71,0,0,0,0,0,0,0,0,0,-1,1077,953,0,0
-140,71,0,0,0,0,0,0,0,0,0,-1,1084,953,0,0
-133,71,0,0,0,0,0,0,0,0,0,-1,1091,953,0,0
-126,71,0,0,0,0,0,0,0,0,0,-1,1098,953,0,0
-119,71,0,0,0,0,0,0,0,0,0,-1,1105,953,0,0
-112,71,0,0,0,0,0,0,0,0,0,-1,1112,953,0,0
-105,71,0,0,0,0,0,0,0,0,0,-1,1119,953,0,0
-98,71,0,0,0,0,0,0,0,0,0,-1,1126,953,0,0
-91,71,0,0,0,0,0,0,0,0,0,-1,1133,953,0,0
-84,71,0,0,0,0,0,0,0,0,0,-1,1140,953,0,0
-77,71,0,0,0,0,0,0,0,0,0,-1,1147,953,0,0
-70,71,0,0,0,0,0,0,0,0,0,-1,1154,953,0,0
-63,71,0,0,0,0,0,0,0,0,0,-1,1161,953,0,0
-56,71,0,0,0,0,0,0,0,0,0,-1,1168,953,0,0
-49,71,0,0,0,0,0,0,0,0,0,-1,1175,953,0,0
-42,71,0,0,0,0,0,0,0,0,0,-1,1182,953,0,0
-35,71,0,0,0,0,0,0,0,0,0,-1,1189,953,0,0
-28,71,0,0,0,0,0,0,0,0,0,-1,1196,953,0,0
-21,71,0,0,0,0,0,0,0,0,0,-1,1203,953,0,0
-14,71,0,0,0,0,0,0,0,0,0,-1,1210,953,0,0
-7,71,0,0,0,0,0,0,0,0,0,-1,1217,953,0,0
0,71,0,0,0,0,0,0,0,0,0,-1,1224,953,0,0
7,71,0,0,0,0,0,0,0,0,0,-1,1231,953,0,0
14,71,0,0,0,0,0,0,0,0,0,-1,1238,953,0,0
21,71,0,0,0,0,0,0,0,0,0,-1,1245,953,0,0
28,71,0,0,0,0,0,0,0,0,0,-1,1252,953,0,0
35,71,0,0,0,0,0,0,0,0,0,-1,1259,953,0,0
42,71,0,0,0,0,0,0,0,0,0,-1,1266,953,0,0
49,71,0,0,0,0,0,0,0,0,0,-1,1273,953,0,0
56,71,0,0,0,0,0,0,0,0,0,-1,1280,953,0,0
63,71,0,0,0,0,0,0,0,0,0,-1,1287,953,0,0
70,71,0,0,0,0,0,0,0,0,0,-1,1294,953,0,0
77,71,0,0,0,0,0,0,0,0,0,-1,1301,953,0,0
84,71,0,0,0,0,0,0,0,0,0,-1,1308,953,0,0
91,71,0,0,0,0,0,0,0,0,0,-1,1315,953,0,0
98,71,0,0,0,0,0,0,0,0,0,-1,1322,953,0,0
105,71,0,0,0,0,0,0,0,0,0,-1,1329,953,0,0
112,71,0,0,0,0,0,0,0,0,0,-1,1336,953,0,0
119,71,0,0,0,0,0,0,0,0,0,-1,1343,953,0,0
126,71,0,0,0,0,0,0,0,0,0,-1,1350,953,0,0
133,71,0,0,0,0,0,0,0,0,0,-1,1357,953,0,0
140,71,0,0,0,0,0,0,0,0,0,-1,1364,953,0,0
147,71,0,0,0,0,0,0,0,0,0,-1,1371,953,0,0
154,71,0,0,0,0,0,0,0,0,0,-1,1378,953,0,0
161,71,0,0,0,0,0,0,0,0,0,-1,1385,953,0,0
168,71,0,0,0,0,0,0,0,0,0,-1,1392,953,0,0
175,71,0,0,0,0,0,0,0,0,0,-1,1399,953,0,0
182,71,0,0,0,0,0,0,0,0,0,-1,1406,953,0,0
189,71,0,0,0,0,0,0,0,0,0,-1,1413,953,0,0
196,71,0,0,0,0,0,0,0,0,0,-1,1420,953,0,0
203,71,0,0,0,0,0,0,0,0,0,-1,1427,953,0,0
210,71,0,0,0,0,0,0,0,0,0,-1,1434,953,0,0
217,71,0,0,0,0,0,0,0,0,0,-1,1441,953,0,0
224,71,0,0,0,0,0,0,0,0,0,-1,1448,953,0,0
231,71,0,0,0,0,0,0,0,0,0,-1,1455,953,0,0
238,71,0,0,0,0,0,0,0,0,0,-1,1462,953,0,0
245,71,0,0,0,0,0,0,0,0,0,-1,1469,953,0,0
252,71,0,0,0,0,0,0,0,0,0,-1,1476,953,0,0
259,71,0,0,0,0,0,0,0,0,0,-1,1483,953,0,0
266,71,0,0,0,0,0,0,0,0,0,-1,1490,953,0,0
273,71,0,0,0,0,0,0,0,0,0,-1,1497,953,0,0
280,71,0,0,0,0,0,0,0,0,0,-1,1504,953,0,0
287,71,0,0,0,0,0,0,0,0,0,-1,1511,953,0,0
294,71,0,0,0,0,0,0,0,0,0,-1,1518,953,0,0
301,71,0,0,0,0,0,0,0,0,0,-1,1525,953,0,0
308,71,0,0,0,0,0,0,0,0,0,-1,1532,953,0,0
315,71,0,0,0,0,0,0,0,0,0,-1,1539,953,0,0
322,71,0,0,0,0,0,0,0,0,0,-1,1546,953,0,0
329,71,0,0,0,0,0,0,0,0,0,-1,1553,953,0,0
336,71,0,0,0,0,0,0,0,0,0,-1,1560,953,0,0
343,71,0,0,0,0,0,0,0,0,0,-1,1567,953,0,0
350,71,0,0,0,0,0,0,0,0,0,-1,1574,953,0,0
357,71,0,0,0,0,0,0,0,0,0,-1,1581,953,0,0
364,71,0,0,0,0,0,0,0,0,0,-1,1588,953,0,0
371,71,0,0,0,0,0,0,0,0,0,-1,1595,953,0,0
378,71,0,0,0,0,0,0,0,0,0,-1,1602,953,0,0
385,71,0,0,0,0,0,0,0,0,0,-1,1609,953,0,0
392,71,0,0,0,0,0,0,0,0,0,-1,1616,953,0,0
399,71,0,0,0,0,0,0,0,0,0,-1,1623,953,0,0
406,71,0,0,0,0,0,0,0,0,0,-1,1630,953,0,0
413,71,0,0,0,0,0,0,0,0,0,-1,1637,953,0,0
420,71,0,0,0,0,0,0,0,0,0,-1,1644,953,0,0
427,71,0,0,0,0,0,0,0,0,0,-1,1651,953,0,0
434,71,0,0,0,0,0,0,0,0,0,-1,1658,953,0,0
441,71,0,0,0,0,0,0,0,0,0,-1,1665,953,0,0
448,71,0,0,0,0,0,0,0,0,0,-1,1672,953,0,0
455,71,0,0,0,0,0,0,0,0,0,-1,1679,953,0,0
462,71,0,0,0,0,0,0,0,0,0,-1,1686,953,0,0
469,71,0,0,0,0,0,0,0,0,0,-1,1693,953,0,0
476,71,0,0,0,0,0,0,0,0,0,-1,1700,953,0,0
483,71,0,0,0,0,0,0,0,0,0,-1,1707,953,0,0
490,71,0,0,0,0,0,0,0,0,0,-1,1714,953,0,0
497,71,0,0,0,0,0,0,0,0,0,-1,1721,953,0,0
504,71,0,0,0,0,0,0,0,0,0,-1,1728,953,0,0
511,71,0,0,0,0,0,0,0,0,0,-1,1735,953,0,0
518,71,0,0,0,0,0,0,0,0,0,-1,1742,953,0,0
525,71,0,0,0,0,0,0,0,0,0,-1,1749,953,0,0
532,71,0,0,0,0,0,0,0,0,0,-1,1756,953,0,0
539,71,0,0,0,0,0,0,0,0,0,-1,1763,953,0,0
546,71,0,0,0,0,0,0,0,0,0,-1,1770,953,0,0
553,71,0,0,0,0,0,0,0,0,0,-1,1777,953,0,0
560,71,0,0,0,0,0,0,0,0,0,-1,1784,953,0,0
567,71,0,0,0,0,0,0,0,0,0,-1,1791,953,0,0
574,71,0,0,0,0,0,0,0,0,0,-1,1798,953,0,0
581,71,0,0,0,0,0,0,0,0,0,-1,1805,953,0,0
588,71,0,0,0,0,0,0,0,0,0,-1,1812,953,0,0
595,71,0,0,0,0,0,0,0,0,0,-1,1819,953,0,0
602,71,0,0,0,0,0,0,0,0,0,-1,1826,953,0,0
609,71,0,0,0,0,0,0,0,0,0,-1,1833,953,0,0
616,71,0,0,0,0,0,0,0,0,0,-1,1840,953,0,0
623,71,0,0,0,0,0,0,0,0,0,-1,1847,953,0,0
630,71,0,0,0,0,0,0,0,0,0,-1,1854,953,0,0
637,71,19.5696,2.22845,-0.00170731,-0.000126514,-0.000163341,-0.000109813,-0.00172401,-1.4689,0.00111454,0.0376453,1861,953,19.5696,-2.22846
644,71,19.4789,2.25525,-0.000890154,0.000365697,-0.000302227,0.000434644,-0.000959101,-1.3465,0.00082345,0.0398177,1868,953,19.4788,-2.25527
651,71,19.4503,2.14539,-0.000698632,0.000843976,-0.000552287,0.00102132,-0.000875975,-1.26009,0.00109647,0.0406563,1875,953,19.4503,-2.14537
658,71,19.5193,2.30463,-0.000977348,0.00131911,-0.000415302,0.00139191,-0.00105015,-1.39727,0.00141451,0.0381518,1882,953,19.5193,-2.30461
665,71,19.4918,2.54602,-0.00184716,0.00185259,3.50384e-05,0.00185292,-0.00184749,1.56133,0.00213643,0.0368229,1889,953,19.4918,-2.54599
672,71,19.4343,2.68268,-0.00303825,0.0022781,0.000568047,0.00233812,-0.00309826,1.46553,0.00314891,0.0388774,1896,953,19.4343,-2.68266
679,71,19.4092,2.63196,-0.0042255,0.00252289,0.00111483,0.00270229,-0.0044049,1.41124,0.0041424,0.0400863,1903,953,19.4092,-2.63196
686,71,19.426,2.54431,-0.0051186,0.00257461,0.00154177,0.00287209,-0.00541607,1.38019,0.00485973,0.0360715,1910,953,19.426,-2.54434
693,71,19.5565,2.31641,-0.00571735,0.00252145,0.00184948,0.00291758,-0.00611348,1.3598,0.0053218,0.0324189,1917,953,19.5565,-2.3164
700,71,19.4674,2.35657,-0.00611603,0.00256446,0.00201754,0.00301047,-0.00656204,1.35323,0.00565206,0.0367702,1924,953,19.4674,-2.35654
707,71,19.3746,2.66571,-0.00624002,0.00252345,0.00204251,0.00297612,-0.00669269,1.3527,0.00571811,0.0338671,1931,953,19.3746,-2.66574
714,71,18.5458,3.12109,0,0,0,0,0,0,0,-1,1938,953,18.5458,-3.12108
721,71,18.4213,3.16547,-0.00609239,0.00227201,0.00181113,0.00264733,-0.00646771,1.36646,0.00541445,0.0272511,1945,953,18.4213,-3.16546
728,71,18.3474,3.27826,-0.00558385,0.00208244,0.00162233,0.00241162,-0.00591303,1.37061,0.00494592,0.0178176,1952,953,18.3474,-3.27827
735,71,18.3656,3.38428,-0.00473901,0.00204689,0.00119875,0.00225243,-0.00494455,1.40099,0.00425097,0.0133263,1959,953,18.3656,-3.38431
742,71,18.3826,3.49005,-0.00385395,0.00243521,0.000383975,0.00245857,-0.00387731,1.51004,0.00368846,0.0150156,1966,953,18.3825,-3.49003
749,71,18.3804,3.57037,-0.00267583,0.00254122,-0.000610449,0.0026117,-0.00274631,-1.45585,0.00309377,0.0162985,1973,953,18.3804,-3.5704
756,71,18.373,3.67328,-0.00166098,0.00269153,-0.00143231,0.00312058,-0.00209003,-1.27975,0.0030279,0.0150028,1980,953,18.373,-3.67331
763,71,18.3589,3.78003,-0.00115089,0.00271059,-0.00205871,0.00360227,-0.00204257,-1.16206,0.00330026,0.0130703,1987,953,18.3589,-3.78
770,71,18.3389,3.87146,-0.00104741,0.00286791,-0.00264948,0.00420451,-0.00238401,-1.10357,0.00385199,0.0143703,1994,953,18.3388,-3.87148
777,71,18.3329,3.9389,-0.00161549,0.00271312,-0.00309108,0.00432228,-0.00322465,-1.09082,0.00437255,0.0326213,2001,953,18.3328,-3.93891
784,71,18.5701,3.38776,-0.00302156,0.0017691,-0.00324351,0.00340589,-0.00465834,-1.10345,0.00467456,0.0412275,2008,953,18.57,-3.38775
791,71,18.4446,2.94287,0,0,0,0,0,0,0,-1,2015,953,18.4446,-2.94286
798,71,17.0337,3.25861,0,0,0,0,0,0,0,-1,2022,953,17.0337,-3.25858
805,71,17.1208,2.95374,0,0,0,0,0,0,0,-1,2029,953,17.1209,-2.95376
812,71,0,0,0,0,0,0,0,0,0,-1,2036,953,0,0
-700,64,0,0,0,0,0,0,0,0,0,-1,524,960,0,0
-693,64,0,0,0,0,0,0,0,0,0,-1,531,960,0,0
-686,64,-13.5977,0.784729,0.0803141,-0.0205378,0.0841424,0.127984,-0.0682073,0.515448,0.11501,0.0448271,538,960,-13.5977,-0.784747
-679,64,-12.7979,2.07623,0.0669985,-0.0157171,0.0718459,0.10854,-0.0572586,0.524238,0.0972382,0.0428917,545,960,-12.7979,-2.07623
-672,64,-11.9989,3.51398,0,0,0,0,0,0,0,-1,552,960,-11.9989,-3.51397
-665,64,-10.4643,1.26099,0,0,0,0,0,0,0,-1,559,960,-10.4643,-1.26097
-658,64,-11.9246,1.50134,0,0,0,0,0,0,0,-1,566,960,-11.9246,-1.50132
-651,64,-12.0243,1.45599,0,0,0,0,0,0,0,-1,573,960,-12.0243,-1.45601
-644,64,-12.1155,1.43976,0.0150468,-0.00260494,0.0213075,0.029284,-0.0168422,0.589049,0.026952,0.0305471,580,960,-12.1155,-1.43973
-637,64,-12.2021,1.41156,0.009156,-0.00114095,0.0146693,0.0195541,-0.011539,0.616629,0.0181493,0.0149822,587,960,-12.2022,-1.41159
-630,64,-12.2422,1.3537,0.0032059,0.000237783,0.00833381,0.0101868,-0.00674308,0.697283,0.00984162,0.012386,594,960,-12.2423,-1.35372
-623,64,-12.2531,1.28638,-0.00159693,0.000645109,0.00342684,0.00312963,-0.00408146,0.943476,0.0041754,0.0134472,601,960,-12.2531,-1.28636
-616,64,-12.2264,1.1839,-0.00317533,0.00087508,0.00130236,0.0012577,-0.00355795,1.28505,0.0028841,0.0166786,608,960,-12.2265,-1.18387
-609,64,-12.2006,1.11121,-0.00395604,0.000843241,0.000187252,0.000850536,-0.00396333,1.53186,0.00296666,0.0153388,615,960,-12.2006,-1.11122
-602,64,-12.1933,1.04163,-0.00459908,0.000859349,-0.000912957,0.001008,-0.00474773,-1.40939,0.00354919,0.0164882,622,960,-12.1933,-1.0416
-595,64,-12.2053,0.949463,-0.00523607,0.000739094,-0.00158478,0.0011334,-0.00563038,-1.32694,0.00418289,0.0159847,629,960,-12.2053,-0.949453
-588,64,-12.2171,0.923218,-0.0057542,0.000546676,-0.00180319,0.00102622,-0.00623374,-1.31087,0.00453676,0.0203554,636,960,-12.2171,-0.923205
-581,64,-12.3609,0.775024,-0.00623893,0.000386882,-0.00186628,0.000876392,-0.00672844,-1.31428,0.00480447,0.0277561,643,960,-12.3609,-0.775047
-574,64,-12.6066,0.60553,-0.00646979,0.000277153,-0.00201763,0.000834475,-0.00702711,-1.30129,0.00498623,0.0331284,650,960,-12.6065,-0.605515
-567,64,-12.6503,0.495728,-0.00627029,0.000190875,-0.00208815,0.000806984,-0.0068864,-1.28389,0.00488221,0.024801,657,960,-12.6503,-0.495718
-560,64,-12.6508,0.507141,-0.00581205,0.000111525,-0.00198779,0.00071674,-0.00641726,-1.27525,0.004536,0.0323301,664,960,-12.6508,-0.507169
-553,64,-12.6259,0.341187,-0.00489042,4.30737e-05,-0.00177024,0.00061254,-0.00545988,-1.25956,0.00386034,0.0373105,671,960,-12.6259,-0.341195
-546,64,-12.5513,0.217896,-0.00350606,-2.23459e-05,-0.00144098,0.000496436,-0.00402484,-1.22522,0.00286309,0.0388886,678,960,-12.5513,-0.21789
-539,64,-12.613,0.433899,-0.00161564,-9.16219e-05,-0.00103026,0.000427815,-0.00213507,-1.10381,0.00158535,0.0413095,685,960,-12.6131,-0.433877
-532,64,-12.7449,0.394409,0.000681499,-0.000118948,-0.000686567,0.00107598,-0.000513427,-0.52151,0.000936607,0.0428691,692,960,-12.7449,-0.394421
-525,64,-13.1304,0.411987,0.00270695,3.51264e-05,-0.000638488,0.00285169,-0.000109612,-0.222922,0.0019387,0.0436278,699,960,-13.1304,-0.411973
-518,64,0,0,0,0,0,0,0,0,0,-1,706,960,0,0
-511,64,0,0,0,0,0,0,0,0,0,-1,713,960,0,0
-504,64,0,0,0,0,0,0,0,0,0,-1,720,960,0,0
-497,64,0,0,0,0,0,0,0,0,0,-1,727,960,0,0
-490,64,0,0,0,0,0,0,0,0,0,-1,734,960,0,0
-483,64,0,0,0,0,0,0,0,0,0,-1,741,960,0,0
-476,64,0,0,0,0,0,0,0,0,0,-1,748,960,0,0
-469,64,0,0,0,0,0,0,0,0,0,-1,755,960,0,0
-462,64,0,0,0,0,0,0,0,0,0,-1,762,960,0,0
-455,64,0,0,0,0,0,0,0,0,0,-1,769,960,0,0
-448,64,0,0,0,0,0,0,0,0,0,-1,776,960,0,0
-441,64,0,0,0,0,0,0,0,0,0,-1,783,960,0,0
-434,64,0,0,0,0,0,0,0,0,0,-1,790,960,0,0
-427,64,0,0,0,0,0,0,0,0,0,-1,797,960,0,0
-420,64,0,0,0,0,0,0,0,0,0,-1,804,960,0,0
-413,64,0,0,0,0,0,0,0,0,0,-1,811,960,0,0
-406,64,0,0,0,0,0,0,0,0,0,-1,818,960,0,0
-399,64,0,0,0,0,0,0,0,0,0,-1,825,960,0,0
-392,64,0,0,0,0,0,0,0,0,0,-1,832,960,0,0
-385,64,0,0,0,0,0,0,0,0,0,-1,839,960,0,0
-378,64,0,0,0,0,0,0,0,0,0,-1,846,960,0,0
-371,64,0,0,0,0,0,0,0,0,0,-1,853,960,0,0
-364,64,0,0,0,0,0,0,0,0,0,-1,860,960,0,0
-357,64,0,0,0,0,0,0,0,0,0,-1,867,960,0,0
-350,64,0,0,0,0,0,0,0,0,0,-1,874,960,0,0
-343,64,0,0,0,0,0,0,0,0,0,-1,881,960,0,0
-336,64,0,0,0,0,0,0,0,0,0,-1,888,960,0,0
-329,64,0,0,0,0,0,0,0,0,0,-1,895,960,0,0
-322,64,0,0,0,0,0,0,0,0,0,-1,902,960,0,0
-315,64,0,0,0,0,0,0,0,0,0,-1,909,960,0,0
-308,64,0,0,0,0,0,0,0,0,0,-1,916,960,0,0
-301,64,0,0,0,0,0,0,0,0,0,-1,923,960,0,0
-294,64,0,0,0,0,0,0,0,0,0,-1,930,960,0,0
-287,64,0,0,0,0,0,0,0,0,0,-1,937,960,0,0
-280,64,0,0,0,0,0,0,0,0,0,-1,944,960,0,0
-273,64,0,0,0,0,0,0,0,0,0,-1,951,960,0,0
-266,64,0,0,0,0,0,0,0,0,0,-1,958,960,0,0
-259,64,0,0,0,0,0,0,0,0,0,-1,965,960,0,0
-252,64,0,0,0,0,0,0,0,0,0,-1,972,960,0,0
-245,64,0,0,0,0,0,0,0,0,0,-1,979,960,0,0
-238,64,0,0,0,0,0,0,0,0,0,-1,986,960,0,0
-231,64,0,0,0,0,0,0,0,0,0,-1,993,960,0,0
-224,64,0,0,0,0,0,0,0,0,0,-1,1000,960,0,0
-217,64,0,0,0,0,0,0,0,0,0,-1,1007,960,0,0
-210,64,0,0,0,0,0,0,0,0,0,-1,1014,960,0,0
-203,64,0,0,0,0,0,0,0,0,0,-1,1021,960,0,0
-196,64,0,0,0,0,0,0,0,0,0,-1,1028,960,0,0
-189,64,0,0,0,0,0,0,0,0,0,-1,1035,960,0,0
-182,64,0,0,0,0,0,0,0,0,0,-1,1042,960,0,0
-175,64,0,0,0,0,0,0,0,0,0,-1,1049,960,0,0
-168,64,0,0,0,0,0,0,0,0,0,-1,1056,960,0,0
-161,64,0,0,0,0,0,0,0,0,0,-1,1063,960,0,0
-154,64,0,0,0,0,0,0,0,0,0,-1,1070,960,0,0
-147,64,0,0,0,0,0,0,0,0,0,-1,1077,960,0,0
-140,64,0,0,0,0,0,0,0,0,0,-1,1084,960,0,0
-133,64,0,0,0,0,0,0,0,0,0,-1,1091,960,0,0
-126,64,0,0,0,0,0,0,0,0,0,-1,1098,960,0,0
-119,64,0,0,0,0,0,0,0,0,0,-1,1105,960,0,0
-112,64,0,0,0,0,0,0,0,0,0,-1,1112,960,0,0
-105,64,0,0,0,0,0,0,0,0,0,-1,1119,960,0,0
-98,64,0,0,0,0,0,0,0,0,0,-1,1126,960,0,0
-91,64,0,0,0,0,0,0,0,0,0,-1,1133,960,0,0
-84,64,0,0,0,0,0,0,0,0,0,-1,1140,960,0,0
-77,64,0,0,0,0,0,0,0,0,0,-1,1147,960,0,0
-70,64,0,0,0,0,0,0,0,0,0,-1,1154,960,0,0
-63,64,0,0,0,0,0,0,0,0,0,-1,1161,960,0,0
-56,64,0,0,0,0,0,0,0,0,0,-1,1168,960,0,0
-49,64,0,0,0,0,0,0,0,0,0,-1,1175,960,0,0
-42,64,0,0,0,0,0,0,0,0,0,-1,1182,960,0,0
-35,64,0,0,0,0,0,0,0,0,0,-1,1189,960,0,0
-28,64,0,0,0,0,0,0,0,0,0,-1,1196,960,0,0
-21,64,0,0,0,0,0,0,0,0,0,-1,1203,960,0,0
-14,64,0,0,0,0,0,0,0,0,0,-1,1210,960,0,0
-7,64,0,0,0,0,0,0,0,0,0,-1,1217,960,0,0
0,64,0,0,0,0,0,0,0,0,0,-1,1224,960,0,0
7,64,0,0,0,0,0,0,0,0,0,-1,1231,960,0,0
14,64,0,0,0,0,0,0,0,0,0,-1,1238,960,0,0
21,64,0,0,0,0,0,0,0,0,0,-1,1245,960,0,0
28,64,0,0,0,0,0,0,0,0,0,-1,1252,960,0,0
35,64,0,0,0,0,0,0,0,0,0,-1,1259,960,0,0
42,64,0,0,0,0,0,0,0,0,0,-1,1266,960,0,0
49,64,0,0,0,0,0,0,0,0,0,-1,1273,960,0,0
56,64,0,0,0,0,0,0,0,0,0,-1,1280,960,0,0
63,64,0,0,0,0,0,0,0,0,0,-1,1287,960,0,0
70,64,0,0,0,0,0,0,0,0,0,-1,1294,960,0,0
77,64,0,0,0,0,0,0,0,0,0,-1,1301,960,0,0
84,64,0,0,0,0,0,0,0,0,0,-1,1308,960,0,0
91,64,0,0,0,0,0,0,0,0,0,-1,1315,960,0,0
98,64,0,0,0,0,0,0,0,0,0,-1,1322,960,0,0
105,64,0,0,0,0,0,0,0,0,0,-1,1329,960,0,0
112,64,0,0,0,0,0,0,0,0,0,-1,1336,960,0,0
119,64,0,0,0,0,0,0,0,0,0,-1,1343,960,0,0
126,64,0,0,0,0,0,0,0,0,0,-1,1350,960,0,0
133,64,0,0,0,0,0,0,0,0,0,-1,1357,960,0,0
140,64,0,0,0,0,0,0,0,0,0,-1,1364,960,0,0
147,64,0,0,0,0,0,0,0,0,0,-1,1371,960,0,0
154,64,0,0,0,0,0,0,0,0,0,-1,1378,960,0,0
161,64,0,0,0,0,0,0,0,0,0,-1,1385,960,0,0
168,64,0,0,0,0,0,0,0,0,0,-1,1392,960,0,0
175,64,0,0,0,0,0,0,0,0,0,-1,1399,960,0,0
182,64,0,0,0,0,0,0,0,0,0,-1,1406,960,0,0
189,64,0,0,0,0,0,0,0,0,0,-1,1413,960,0,0
196,64,0,0,0,0,0,0,0,0,0,-1,1420,960,0,0
203,64,0,0,0,0,0,0,0,0,0,-1,1427,960,0,0
210,64,0,0,0,0,0,0,0,0,0,-1,1434,960,0,0
217,64,0,0,0,0,0,0,0,0,0,-1,1441,960,0,0
224,64,0,0,0,0,0,0,0,0,0,-1,1448,960,0,0
231,64,0,0,0,0,0,0,0,0,0,-1,1455,960,0,0
238,64,0,0,0,0,0,0,0,0,0,-1,1462,960,0,0
245,64,0,0,0,0,0,0,0,0,0,-1,1469,960,0,0
252,64,0,0,0,0,0,0,0,0,0,-1,1476,960,0,0
259,64,0,0,0,0,0,0,0,0,0,-1,1483,960,0,0
266,64,0,0,0,0,0,0,0,0,0,-1,1490,960,0,0
273,64,0,0,0,0,0,0,0,0,0,-1,1497,960,0,0
280,64,0,0,0,0,0,0,0,0,0,-1,1504,960,0,0
287,64,0,0,0,0,0,0,0,0,0,-1,1511,960,0,0
294,64,0,0,0,0,0,0,0,0,0,-1,1518,960,0,0
301,64,0,0,0,0,0,0,0,0,0,-1,1525,960,0,0
308,64,0,0,0,0,0,0,0,0,0,-1,1532,960,0,0
315,64,0,0,0,0,0,0,0,0,0,-1,1539,960,0,0
322,64,0,0,0,0,0,0,0,0,0,-1,1546,960,0,0
329,64,0,0,0,0,0,0,0,0,0,-1,1553,960,0,0
336,64,0,0,0,0,0,0,0,0,0,-1,1560,960,0,0
343,64,0,0,0,0,0,0,0,0,0,-1,1567,960,0,0
350,64,0,0,0,0,0,0,0,0,0,-1,1574,960,0,0
357,64,0,0,0,0,0,0,0,0,0,-1,1581,960,0,0
364,64,0,0,0,0,0,0,0,0,0,-1,1588,960,0,0
371,64,0,0,0,0,0,0,0,0,0,-1,1595,960,0,0
378,64,0,0,0,0,0,0,0,0,0,-1,1602,960,0,0
385,64,0,0,0,0,0,0,0,0,0,-1,1609,960,0,0
392,64,0,0,0,0,0,0,0,0,0,-1,1616,960,0,0
399,64,0,0,0,0,0,0,0,0,0,-1,1623,960,0,0
406,64,0,0,0,0,0,0,0,0,0,-1,1630,960,0,0
413,64,0,0,0,0,0,0,0,0,0,-1,1637,960,0,0
420,64,0,0,0,0,0,0,0,0,0,-1,1644,960,0,0
427,64,0,0,0,0,0,0,0,0,0,-1,1651,960,0,0
434,64,0,0,0,0,0,0,0,0,0,-1,1658,960,0,0
441,64,0,0,0,0,0,0,0,0,0,-1,1665,960,0,0
448,64,0,0,0,0,0,0,0,0,0,-1,1672,960,0,0
455,64,0,0,0,0,0,0,0,0,0,-1,1679,960,0,0
462,64,0,0,0,0,0,0,0,0,0,-1,1686,960,0,0
469,64,0,0,0,0,0,0,0,0,0,-1,1693,960,0,0
476,64,0,0,0,0,0,0,0,0,0,-1,1700,960,0,0
483,64,0,0,0,0,0,0,0,0,0,-1,1707,960,0,0
490,64,0,0,0,0,0,0,0,0,0,-1,1714,960,0,0
497,64,0,0,0,0,0,0,0,0,0,-1,1721,960,0,0
504,64,0,0,0,0,0,0,0,0,0,-1,1728,960,0,0
511,64,0,0,0,0,0,0,0,0,0,-1,1735,960,0,0
518,64,0,0,0,0,0,0,0,0,0,-1,1742,960,0,0
525,64,0,0,0,0,0,0,0,0,0,-1,1749,960,0,0
532,64,0,0,0,0,0,0,0,0,0,-1,1756,960,0,0
539,64,0,0,0,0,0,0,0,0,0,-1,1763,960,0,0
546,64,0,0,0,0,0,0,0,0,0,-1,1770,960,0,0
553,64,0,0,0,0,0,0,0,0,0,-1,1777,960,0,0
560,64,0,0,0,0,0,0,0,0,0,-1,1784,960,0,0
567,64,0,0,0,0,0,0,0,0,0,-1,1791,960,0,0
574,64,0,0,0,0,0,0,0,0,0,-1,1798,960,0,0
581,64,0,0,0,0,0,0,0,0,0,-1,1805,960,0,0
588,64,0,0,0,0,0,0,0,0,0,-1,1812,960,0,0
595,64,0,0,0,0,0,0,0,0,0,-1,1819,960,0,0
602,64,0,0,0,0,0,0,0,0,0,-1,1826,960,0,0
609,64,0,0,0,0,0,0,0,0,0,-1,1833,960,0,0
616,64,0,0,0,0,0,0,0,0,0,-1,1840,960,0,0
623,64,0,0,0,0,0,0,0,0,0,-1,1847,960,0,0
630,64,0,0,0,0,0,0,0,0,0,-1,1854,960,0,0
637,64,0,0,0,0,0,0,0,0,0,-1,1861,960,0,0
644,64,19.431,2.45801,2.97715e-05,-0.000869664,-0.000925907,0.000609398,-0.00144929,-0.559325,0.00122111,0.0389774,1868,960,19.431,-2.458
651,64,19.5645,2.39966,0.000112013,4.43827e-05,-0.00118335,0.00126203,-0.00110564,-0.771114,0.00136797,0.0369992,1875,960,19.5645,-2.39968
658,64,19.5958,2.45471,-0.000181802,0.000833959,-0.000993663,0.00144201,-0.000789855,-1.02165,0.00130678,0.0356152,1882,960,19.5959,-2.4547
665,64,19.4269,2.547,-0.00105206,0.00164705,-0.000406487,0.00170694,-0.00111194,-1.42452,0.00163952,0.0397893,1889,960,19.4269,-2.547
672,64,19.3893,2.56189,-0.00228078,0.00233237,0.000297092,0.00235143,-0.00229983,1.50675,0.00268546,0.043229,1896,960,19.3893,-2.5619
679,64,19.4866,2.3703,-0.00356252,0.00278036,0.0010144,0.00293864,-0.0037208,1.41601,0.00385366,0.0405202,1903,960,19.4866,-2.37029
686,64,19.5592,2.32471,-0.00457063,0.00298281,0.00159511,0.00330584,-0.00489366,1.37098,0.00476348,0.0351198,1910,960,19.5592,-2.32472
693,64,19.5358,2.35315,-0.00528509,0.00300628,0.0020185,0.00347157,-0.00575038,1.34424,0.00537821,0.0315039,1917,960,19.5358,-2.35314
700,64,19.5087,2.39191,-0.00582387,0.00309379,0.00226829,0.00363759,-0.00636767,1.3355,0.00584778,0.0319063,1924,960,19.5087,-2.39189
707,64,19.4288,2.62146,-0.00609647,0.00306545,0.00235969,0.00363748,-0.00666851,1.33297,0.00603534,0.0391648,1931,960,19.4289,-2.62143
714,64,19.0975,3.01929,0,0,0,0,0,0,0,-1,1938,960,19.0975,-3.0193
721,64,18.5476,3.1745,-0.00610117,0.00275431,0.00218175,0.00326265,-0.00660951,1.34188,0.00580785,0.0285937,1945,960,18.5476,-3.1745
728,64,18.432,3.32611,-0.00569543,0.00252377,0.00197886,0.00297538,-0.00614704,1.34642,0.00537189,0.0138464,1952,960,18.432,-3.3261
735,64,18.4419,3.4267,-0.00494252,0.00238747,0.00156233,0.00270658,-0.00526163,1.36932,0.00467862,0.0183555,1959,960,18.4419,-3.42672
742,64,18.4684,3.48785,-0.00405552,0.00268949,0.00081296,0.00278609,-0.00415212,1.45253,0.00403158,0.0179119,1966,960,18.4684,-3.48788
749,64,18.4485,3.57349,-0.00289326,0.00254458,-0.000149549,0.00254869,-0.00289737,-1.54332,0.00314643,0.013861,1973,960,18.4485,-3.57349
756,64,18.4564,3.66302,-0.00176664,0.00229161,-0.000756523,0.00242805,-0.00190308,-1.39236,0.00250669,0.0137597,1980,960,18.4564,-3.66305
763,64,18.4513,3.76324,-0.00111738,0.0016637,-0.00102885,0.00200294,-0.00145662,-1.2523,0.00200566,0.0128943,1987,960,18.4513,-3.76322
770,64,18.4312,3.84808,-0.000734585,0.00102107,-0.00111737,0.00156419,-0.00127771,-1.11835,0.00164354,0.0129142,1994,960,18.4311,-3.84811
777,64,18.3929,3.92224,-0.000975754,-0.000195013,-0.000823037,0.000325539,-0.00149631,-1.00684,0.00112191,0.0296345,2001,960,18.3929,-3.92222
784,64,18.4462,3.94458,-0.00201361,-0.00260057,5.21283e-05,-0.00200901,-0.00260517,0.0878927,0.0015761,0.0427073,2008,960,18.4462,-3.94458
791,64,18.5931,4.01642,-0.00382017,-0.00678174,0.00172806,-0.00302523,-0.00757668,0.431154,0.00440388,0.0491378,2015,960,18.5931,-4.01641
798,64,18.6055,4.09277,0,0,0,0,0,0,0,-1,2022,960,18.6055,-4.09278
805,64,16.7887,1.7876,0,0,0,0,0,0,0,-1,2029,960,16.7887,-1.78761
812,64,0,0,0,0,0,0,0,0,0,-1,2036,960,0,0
-700,57,0,0,0,0,0,0,0,0,0,-1,524,967,0,0
-693,57,0,0,0,0,0,0,0,0,0,-1,531,967,0,0
-686,57,-14.1802,1.5224,0.0887322,-0.0177988,0.0872539,0.137694,-0.0667608,0.511359,0.120387,0.0434029,538,967,-14.1802,-1.5224
-679,57,-13.1983,2.51147,0.0738892,-0.0133336,0.0747051,0.116781,-0.0562254,0.521194,0.101904,0.0449848,545,967,-13.1983,-2.51148
-672,57,-12.403,3.94293,0,0,0,0,0,0,0,-1,552,967,-12.4029,-3.94291
-665,57,-10.622,1.2168,0,0,0,0,0,0,0,-1,559,967,-10.622,-1.21681
-658,57,-11.1556,1.00458,0,0,0,0,0,0,0,-1,566,967,-11.1557,-1.00458
-651,57,-12.0812,1.32458,0,0,0,0,0,0,0,-1,573,967,-12.0812,-1.32456
-644,57,-12.1954,1.328,0.0168458,-0.00182709,0.022409,0.0317856,-0.0167668,0.588015,0.0284753,0.0280739,580,967,-12.1955,-1.32798
-637,57,-12.2798,1.3493,0.0103415,-0.000465792,0.0154509,0.0213064,-0.0114307,0.617182,0.0191853,0.0150165,587,967,-12.2798,-1.34928
-630,57,-12.3241,1.32141,0.00381732,0.00072431,0.00874468,0.0111512,-0.00660956,0.697878,0.0103653,0.0129727,594,967,-12.3241,-1.3214
-623,57,-12.3075,1.26147,-0.0014724,0.000770106,0.00343976,0.00326675,-0.00396904,0.942951,0.00418414,0.0129937,601,967,-12.3075,-1.26146
-616,57,-12.2888,1.18323,-0.00308624,0.00105506,0.00110217,0.00133012,-0.0033613,1.32623,0.00279193,0.0149674,608,967,-12.2888,-1.18322
-609,57,-12.2941,1.08978,-0.00363692,0.00106052,-8.75998e-05,0.00106215,-0.00363855,-1.55216,0.00284659,0.0144264,615,967,-12.2942,-1.0898
-602,57,-12.2827,1.04095,-0.00407325,0.00108059,-0.00126571,0.00137465,-0.00436731,-1.34252,0.00346196,0.0114155,622,967,-12.2827,-1.04093
-595,57,-12.2698,0.983337,-0.00454058,0.000936814,-0.00197887,0.00157693,-0.0051807,-1.25794,0.00408226,0.0121434,629,967,-12.2698,-0.983363
-588,57,-12.3071,0.956116,-0.00491068,0.000715734,-0.00222403,0.00148867,-0.00568362,-1.23631,0.00437065,0.016115,636,967,-12.3071,-0.956091
-581,57,-12.4824,0.741272,-0.00526692,0.000529602,-0.00229179,0.00132623,-0.00606355,-1.23626,0.00454934,0.0252327,643,967,-12.4824,-0.741287
-574,57,-12.6583,0.49884,-0.00543664,0.000377699,-0.00243274,0.00126129,-0.00632023,-1.2224,0.00469078,0.0299554,650,967,-12.6583,-0.498835
-567,57,-12.6693,0.498474,-0.00525553,0.000223246,-0.00244079,0.00115288,-0.00618516,-1.20689,0.00455661,0.0320159,657,967,-12.6692,-0.498473
-560,57,-12.7371,0.281616,-0.00484819,4.42113e-05,-0.00227183,0.000936437,-0.00574042,-1.19657,0.00417425,0.0385924,664,967,-12.7371,-0.281603
-553,57,-12.6382,0.0878906,-0.00405802,-0.000160963,-0.00196889,0.000660579,-0.00487956,-1.1755,0.00349411,0.039554,671,967,-12.6383,-0.0878638
-546,57,-12.4801,-0.15033,-0.00289789,-0.000407517,-0.00154058,0.00032817,-0.00363358,-1.12528,0.00253886,0.0425568,678,967,-12.4801,0.150303
-539,57,-12.7424,0.116455,-0.00131971,-0.000702188,-0.00103728,7.13085e-05,-0.0020932,-0.930054,0.00141984,0.0429939,685,967,-12.7423,-0.116477
-532,57,-12.9298,0.438904,0.000514743,-0.000965888,-0.000639394,0.000752636,-0.00120378,-0.35619,0.0011395,0.0411497,692,967,-12.9298,-0.438908
-525,57,-12.9315,0.401978,0.00187524,-0.00103779,-0.000567806,0.001982,-0.00114455,-0.185858,0.00182657,0.0417614,699,967,-12.9315,-0.40196
-518,57,0,0,0,0,0,0,0,0,0,-1,706,967,0,0
-511,57,0,0,0,0,0,0,0,0,0,-1,713,967,0,0
-504,57,0,0,0,0,0,0,0,0,0,-1,720,967,0,0
-497,57,0,0,0,0,0,0,0,0,0,-1,727,967,0,0
-490,57,0,0,0,0,0,0,0,0,0,-1,734,967,0,0
-483,57,0,0,0,0,0,0,0,0,0,-1,741,967,0,0
-476,57,0,0,0,0,0,0,0,0,0,-1,748,967,0,0
-469,57,0,0,0,0,0,0,0,0,0,-1,755,967,0,0
-462,57,0,0,0,0,0,0,0,0,0,-1,762,967,0,0
-455,57,0,0,0,0,0,0,0,0,0,-1,769,967,0,0
-448,57,0,0,0,0,0,0,0,0,0,-1,776,967,0,0
-441,57,0,0,0,0,0,0,0,0,0,-1,783,967,0,0
-434,57,0,0,0,0,0,0,0,0,0,-1,790,967,0,0
-427,57,0,0,0,0,0,0,0,0,0,-1,797,967,0,0
-420,57,0,0,0,0,0,0,0,0,0,-1,804,967,0,0
-413,57,0,0,0,0,0,0,0,0,0,-1,811,967,0,0
-406,57,0,0,0,0,0,0,0,0,0,-1,818,967,0,0
-399,57,0,0,0,0,0,0,0,0,0,-1,825,967,0,0
-392,57,0,0,0,0,0,0,0,0,0,-1,832,967,0,0
-385,57,0,0,0,0,0,0,0,0,0,-1,839,967,0,0
-378,57,0,0,0,0,0,0,0,0,0,-1,846,967,0,0
-371,57,0,0,0,0,0,0,0,0,0,-1,853,967,0,0
-364,57,0,0,0,0,0,0,0,0,0,-1,860,967,0,0
-357,57,0,0,0,0,0,0,0,0,0,-1,867,967,0,0
-350,57,0,0,0,0,0,0,0,0,0,-1,874,967,0,0
-343,57,0,0,0,0,0,0,0,0,0,-1,881,967,0,0
-336,57,0,0,0,0,0,0,0,0,0,-1,888,967,0,0
-329,57,0,0,0,0,0,0,0,0,0,-1,895,967,0,0
-322,57,0,0,0,0,0,0,0,0,0,-1,902,967,0,0
-315,57,0,0,0,0,0,0,0,0,0,-1,909,967,0,0
-308,57,0,0,0,0,0,0,0,0,0,-1,916,967,0,0
-301,57,0,0,0,0,0,0,0,0,0,-1,923,967,0,0
-294,57,0,0,0,0,0,0,0,0,0,-1,930,967,0,0
-287,57,0,0,0,0,0,0,0,0,0,-1,937,967,0,0
-280,57,0,0,0,0,0,0,0,0,0,-1,944,967,0,0
-273,57,0,0,0,0,0,0,0,0,0,-1,951,967,0,0
-266,57,0,0,0,0,0,0,0,0,0,-1,958,967,0,0
-259,57,0,0,0,0,0,0,0,0,0,-1,965,967,0,0
-252,57,0,0,0,0,0,0,0,0,0,-1,972,967,0,0
-245,57,0,0,0,0,0,0,0,0,0,-1,979,967,0,0
-238,57,0,0,0,0,0,0,0,0,0,-1,986,967,0,0
-231,57,0,0,0,0,0,0,0,0,0,-1,993,967,0,0
-224,57,0,0,0,0,0,0,0,0,0,-1,1000,967,0,0
-217,57,0,0,0,0,0,0,0,0,0,-1,1007,967,0,0
-210,57,0,0,0,0,0,0,0,0,0,-1,1014,967,0,0
-203,57,0,0,0,0,0,0,0,0,0,-1,1021,967,0,0
-196,57,0,0,0,0,0,0,0,0,0,-1,1028,967,0,0
-189,57,0,0,0,0,0,0,0,0,0,-1,1035,967,0,0
-182,57,0,0,0,0,0,0,0,0,0,-1,1042,967,0,0
-175,57,0,0,0,0,0,0,0,0,0,-1,1049,967,0,0
-168,57,0,0,0,0,0,0,0,0,0,-1,1056,967,0,0
-161,57,0,0,0,0,0,0,0,0,0,-1,1063,967,0,0
-154,57,0,0,0,0,0,0,0,0,0,-1,1070,967,0,0
-147,57,0,0,0,0,0,0,0,0,0,-1,1077,967,0,0
-140,57,0,0,0,0,0,0,0,0,0,-1,1084,967,0,0
-133,57,0,0,0,0,0,0,0,0,0,-1,1091,967,0,0
-126,57,0,0,0,0,0,0,0,0,0,-1,1098,967,0,0
-119,57,0,0,0,0,0,0,0,0,0,-1,1105,967,0,0
-112,57,0,0,0,0,0,0,0,0,0,-1,1112,967,0,0
-105,57,0,0,0,0,0,0,0,0,0,-1,1119,967,0,0
-98,57,0,0,0,0,0,0,0,0,0,-1,1126,967,0,0
-91,57,0,0,0,0,0,0,0,0,0,-1,1133,967,0,0
-84,57,0,0,0,0,0,0,0,0,0,-1,1140,967,0,0
-77,57,0,0,0,0,0,0,0,0,0,-1,1147,967,0,0
-70,57,0,0,0,0,0,0,0,0,0,-1,1154,967,0,0
-63,57,0,0,0,0,0,0,0,0,0,-1,1161,967,0,0
-56,57,0,0,0,0,0,0,0,0,0,-1,1168,967,0,0
-49,57,0,0,0,0,0,0,0,0,0,-1,1175,967,0,0
-42,57,0,0,0,0,0,0,0,0,0,-1,1182,967,0,0
-35,57,0,0,0,0,0,0,0,0,0,-1,1189,967,0,0
-28,57,0,0,0,0,0,0,0,0,0,-1,1196,967,0,0
-21,57,0,0,0,0,0,0,0,0,0,-1,1203,967,0,0
-14,57,0,0,0,0,0,0,0,0,0,-1,1210,967,0,0
-7,57,0,0,0,0,0,0,0,0,0,-1,1217,967,0,0
0,57,0,0,0,0,0,0,0,0,0,-1,1224,967,0,0
7,57,0,0,0,0,0,0,0,0,0,-1,1231,967,0,0
14,57,0,0,0,0,0,0,0,0,0,-1,1238,967,0,0
21,57,0,0,0,0,0,0,0,0,0,-1,1245,967,0,0
28,57,0,0,0,0,0,0,0,0,0,-1,1252,967,0,0
35,57,0,0,0,0,0,0,0,0,0,-1,1259,967,0,0
42,57,0,0,0,0,0,0,0,0,0,-1,1266,967,0,0
49,57,0,0,0,0,0,0,0,0,0,-1,1273,967,0,0
56,57,0,0,0,0,0,0,0,0,0,-1,1280,967,0,0
63,57,0,0,0,0,0,0,0,0,0,-1,1287,967,0,0
70,57,0,0,0,0,0,0,0,0,0,-1,1294,967,0,0
77,57,0,0,0,0,0,0,0,0,0,-1,1301,967,0,0
84,57,0,0,0,0,0,0,0,0,0,-1,1308,967,0,0
91,57,0,0,0,0,0,0,0,0,0,-1,1315,967,0,0
98,57,0,0,0,0,0,0,0,0,0,-1,1322,967,0,0
105,57,0,0,0,0,0,0,0,0,0,-1,1329,967,0,0
112,57,0,0,0,0,0,0,0,0,0,-1,1336,967,0,0
119,57,0,0,0,0,0,0,0,0,0,-1,1343,967,0,0
126,57,0,0,0,0,0,0,0,0,0,-1,1350,967,0,0
133,57,0,0,0,0,0,0,0,0,0,-1,1357,967,0,0
140,57,0,0,0,0,0,0,0,0,0,-1,1364,967,0,0
147,57,0,0,0,0,0,0,0,0,0,-1,1371,967,0,0
154,57,0,0,0,0,0,0,0,0,0,-1,1378,967,0,0
161,57,0,0,0,0,0,0,0,0,0,-1,1385,967,0,0
168,57,0,0,0,0,0,0,0,0,0,-1,1392,967,0,0
175,57,0,0,0,0,0,0,0,0,0,-1,1399,967,0,0
182,57,0,0,0,0,0,0,0,0,0,-1,1406,967,0,0
189,57,0,0,0,0,0,0,0,0,0,-1,1413,967,0,0
196,57,0,0,0,0,0,0,0,0,0,-1,1420,967,0,0
203,57,0,0,0,0,0,0,0,0,0,-1,1427,967,0,0
210,57,0,0,0,0,0,0,0,0,0,-1,1434,967,0,0
217,57,0,0,0,0,0,0,0,0,0,-1,1441,967,0,0
224,57,0,0,0,0,0,0,0,0,0,-1,1448,967,0,0
231,57,0,0,0,0,0,0,0,0,0,-1,1455,967,0,0
238,57,0,0,0,0,0,0,0,0,0,-1,1462,967,0,0
245,57,0,0,0,0,0,0,0,0,0,-1,1469,967,0,0
252,57,0,0,0,0,0,0,0,0,0,-1,1476,967,0,0
259,57,0,0,0,0,0,0,0,0,0,-1,1483,967,0,0
266,57,0,0,0,0,0,0,0,0,0,-1,1490,967,0,0
273,57,0,0,0,0,0,0,0,0,0,-1,1497,967,0,0
280,57,0,0,0,0,0,0,0,0,0,-1,1504,967,0,0
287,57,0,0,0,0,0,0,0,0,0,-1,1511,967,0,0
294,57,0,0,0,0,0,0,0,0,0,-1,1518,967,0,0
301,57,0,0,0,0,0,0,0,0,0,-1,1525,967,0,0
308,57,0,0,0,0,0,0,0,0,0,-1,1532,967,0,0
315,57,0,0,0,0,0,0,0,0,0,-1,1539,967,0,0
322,57,0,0,0,0,0,0,0,0,0,-1,1546,967,0,0
329,57,0,0,0,0,0,0,0,0,0,-1,1553,967,0,0
336,57,0,0,0,0,0,0,0,0,0,-1,1560,967,0,0
343,57,0,0,0,0,0,0,0,0,0,-1,1567,967,0,0
350,57,0,0,0,0,0,0,0,0,0,-1,1574,967,0,0
357,57,0,0,0,0,0,0,0,0,0,-1,1581,967,0,0
364,57,0,0,0,0,0,0,0,0,0,-1,1588,967,0,0
371,57,0,0,0,0,0,0,0,0,0,-1,1595,967,0,0
378,57,0,0,0,0,0,0,0,0,0,-1,1602,967,0,0
385,57,0,0,0,0,0,0,0,0,0,-1,1609,967,0,0
392,57,0,0,0,0,0,0,0,0,0,-1,1616,967,0,0
399,57,0,0,0,0,0,0,0,0,0,-1,1623,967,0,0
406,57,0,0,0,0,0,0,0,0,0,-1,1630,967,0,0
413,57,0,0,0,0,0,0,0,0,0,-1,1637,967,0,0
420,57,0,0,0,0,0,0,0,0,0,-1,1644,967,0,0
427,57,0,0,0,0,0,0,0,0,0,-1,1651,967,0,0
434,57,0,0,0,0,0,0,0,0,0,-1,1658,967,0,0
441,57,0,0,0,0,0,0,0,0,0,-1,1665,967,0,0
448,57,0,0,0,0,0,0,0,0,0,-1,1672,967,0,0
455,57,0,0,0,0,0,0,0,0,0,-1,1679,967,0,0
462,57,0,0,0,0,0,0,0,0,0,-1,1686,967,0,0
469,57,0,0,0,0,0,0,0,0,0,-1,1693,967,0,0
476,57,0,0,0,0,0,0,0,0,0,-1,1700,967,0,0
483,57,0,0,0,0,0,0,0,0,0,-1,1707,967,0,0
490,57,0,0,0,0,0,0,0,0,0,-1,1714,967,0,0
497,57,0,0,0,0,0,0,0,0,0,-1,1721,967,0,0
504,57,0,0,0,0,0,0,0,0,0,-1,1728,967,0,0
511,57,0,0,0,0,0,0,0,0,0,-1,1735,967,0,0
518,57,0,0,0,0,0,0,0,0,0,-1,1742,967,0,0
525,57,0,0,0,0,0,0,0,0,0,-1,1749,967,0,0
532,57,0,0,0,0,0,0,0,0,0,-1,1756,967,0,0
539,57,0,0,0,0,0,0,0,0,0,-1,1763,967,0,0
546,57,0,0,0,0,0,0,0,0,0,-1,1770,967,0,0
553,57,0,0,0,0,0,0,0,0,0,-1,1777,967,0,0
560,57,0,0,0,0,0,0,0,0,0,-1,1784,967,0,0
567,57,0,0,0,0,0,0,0,0,0,-1,1791,967,0,0
574,57,0,0,0,0,0,0,0,0,0,-1,1798,967,0,0
581,57,0,0,0,0,0,0,0,0,0,-1,1805,967,0,0
588,57,0,0,0,0,0,0,0,0,0,-1,1812,967,0,0
595,57,0,0,0,0,0,0,0,0,0,-1,1819,967,0,0
602,57,0,0,0,0,0,0,0,0,0,-1,1826,967,0,0
609,57,0,0,0,0,0,0,0,0,0,-1,1833,967,0,0
616,57,0,0,0,0,0,0,0,0,0,-1,1840,967,0,0
623,57,0,0,0,0,0,0,0,0,0,-1,1847,967,0,0
630,57,0,0,0,0,0,0,0,0,0,-1,1854,967,0,0
637,57,0,0,0,0,0,0,0,0,0,-1,1861,967,0,0
644,57,19.4122,2.56561,0.00151161,-0.00192952,-0.00174495,0.0022416,-0.0026595,-0.396217,0.00283308,0.0394705,1868,967,19.4122,-2.56562
651,57,19.5793,2.53503,0.00127284,-0.000671373,-0.00200325,0.00252739,-0.00192592,-0.559503,0.00257893,0.0323439,1875,967,19.5794,-2.53501
658,57,19.5011,2.50543,0.000790783,0.000340846,-0.00175996,0.00234009,-0.00120847,-0.72183,0.0020832,0.0323816,1882,967,19.5012,-2.50542
665,57,19.4641,2.37726,-0.000175969,0.00132321,-0.00105602,0.00186863,-0.000721393,-1.09404,0.00154347,0.0413098,1889,967,19.4641,-2.37728
672,57,19.554,2.19525,-0.00148847,0.00219042,-0.000195185,0.00220075,-0.00149879,-1.51794,0.00214871,0.0441936,1896,967,19.554,-2.19524
679,57,19.6403,2.17035,-0.00288689,0.0027951,0.000687919,0.0028772,-0.00296899,1.45201,0.00337544,0.0429018,1903,967,19.6402,-2.17036
686,57,19.5126,2.24988,-0.00401633,0.00311896,0.00143013,0.00339492,-0.00429229,1.38017,0.00444828,0.0376018,1910,967,19.5125,-2.24987
693,57,19.4724,2.2876,-0.00484778,0.00322326,0.00198175,0.0036836,-0.00530812,1.34255,0.00521954,0.0305755,1917,967,19.4724,-2.2876
700,57,19.4998,2.36591,-0.00551576,0.00336003,0.00232232,0.00393094,-0.00608666,1.32974,0.00582813,0.0260876,1924,967,19.4998,-2.3659
707,57,19.401,2.74768,-0.00590881,0.00334812,0.00249787,0.00397913,-0.00653982,1.32336,0.00613281,0.0405768,1931,967,19.401,-2.74769
714,57,19.1017,3.31195,0,0,0,0,0,0,0,-1,1938,967,19.1017,-3.31194
721,57,18.6351,3.17493,-0.00606367,0.00303344,0.00242915,0.00364144,-0.00667168,1.32554,0.00603935,0.0352497,1945,967,18.6351,-3.17492
728,57,18.512,3.34119,-0.00576731,0.00278332,0.00223853,0.0033339,-0.0063179,1.32962,0.00566055,0.0194472,1952,967,18.512,-3.34118
735,57,18.5304,3.44794,-0.00510706,0.00255873,0.00186086,0.00298657,-0.0055349,1.34481,0.00499267,0.0202844,1959,967,18.5304,-3.44792
742,57,18.5493,3.50653,-0.00427315,0.00272621,0.00116274,0.00291431,-0.00446125,1.41041,0.00428939,0.0165666,1966,967,18.5493,-3.50651
749,57,18.524,3.59576,-0.00317419,0.002256,0.00026062,0.00226848,-0.00318667,1.52295,0.00316437,0.013702,1973,967,18.5241,-3.59576
756,57,18.516,3.65942,-0.00206053,0.0014913,-0.000129512,0.00149601,-0.00206524,-1.5344,0.00206483,0.0108893,1980,967,18.5159,-3.6594
763,57,18.5217,3.72223,-0.00142028,8.17181e-05,-0.000112261,9.00623e-05,-0.00142862,-1.4966,0.000983811,0.0108944,1987,967,18.5217,-3.72223
770,57,18.521,3.80505,-0.000907444,-0.00155764,0.000206731,-0.000847281,-0.00161781,0.283199,0.000934392,0.0109667,1994,967,18.521,-3.80504
777,57,18.451,3.92609,-0.000957092,-0.00400505,0.00107739,-0.000614715,-0.00434743,0.307691,0.00271666,0.0258708,2001,967,18.451,-3.92608
784,57,18.4562,4.19342,-0.00176967,-0.00795782,0.00271035,-0.000750435,-0.00897705,0.359693,0.0057509,0.0429803,2008,967,18.4562,-4.19344
791,57,18.5343,4.48444,-0.00325318,-0.013988,0.00537646,-0.00102353,-0.0162177,0.393119,0.0104873,0.0482165,2015,967,18.5343,-4.48443
798,57,18.5121,4.72595,0,0,0,0,0,0,0,-1,2022,967,18.5121,-4.72594
805,57,18.4404,4.74744,0,0,0,0,0,0,0,-1,2029,967,18.4404,-4.74745
812,57,0,0,0,0,0,0,0,0,0,-1,2036,967,0,0
-700,50,0,0,0,0,0,0,0,0,0,-1,524,974,0,0
-693,50,-14.7991,1.40491,0.106685,-0.018895,0.0941642,0.157074,-0.0692839,0.491345,0.133924,0.0465547,531,974,-14.7991,-1.40489
-686,50,-14.5073,2.21313,0.0920395,-0.0136388,0.0837361,0.138214,-0.0598133,0.50394,0.11728,0.0432736,538,974,-14.5072,-2.21314
-679,50,-13.7216,2.98376,0.0767581,-0.00996102,0.0721921,0.117611,-0.050814,0.514963,0.0997569,0.045725,545,974,-13.7216,-2.98374
-672,50,-12.7231,4.42365,0,0,0,0,0,0,0,-1,552,974,-12.7231,-4.42363
-665,50,-10.9267,1.19489,0,0,0,0,0,0,0,-1,559,974,-10.9267,-1.19487
-658,50,-11.4328,1.19861,0.0368828,-0.00336842,0.0395546,0.0611374,-0.027623,0.550064,0.0524494,0.0454068,566,974,-11.4328,-1.19859
-651,50,-11.946,1.23242,0.0264943,-0.00204468,0.0303017,0.0457183,-0.0212686,0.565343,0.0395243,0.0392728,573,974,-11.946,-1.23242
-644,50,-12.3156,1.24707,0.0179026,-0.00103981,0.022173,0.0325425,-0.0156797,0.583552,0.0284028,0.0258238,580,974,-12.3156,-1.24709
-637,50,-12.3578,1.30005,0.0110692,0.000143928,0.0154079,0.0219541,-0.0107411,0.615044,0.0192431,0.0147095,587,974,-12.3578,-1.30007
-630,50,-12.3685,1.28046,0.00424436,0.00106517,0.00870735,0.011506,-0.0061965,0.695114,0.0103727,0.0105202,594,974,-12.3685,-1.28043
-623,50,-12.341,1.2345,-0.00128057,0.000622872,0.00328451,0.00309077,-0.00374847,0.926416,0.00395472,0.0112937,601,974,-12.341,-1.23448
-616,50,-12.3378,1.18524,-0.00286297,0.000997303,0.000774318,0.00114683,-0.0030125,1.38004,0.00248061,0.0115996,608,974,-12.3378,-1.18522
-609,50,-12.3635,1.11707,-0.00319648,0.00102241,-0.000449465,0.00106977,-0.00324383,-1.46583,0.00259375,0.0105043,615,974,-12.3635,-1.11709
-602,50,-12.3712,1.04449,-0.00345451,0.00108363,-0.00165259,0.00162164,-0.00399253,-1.25606,0.0033363,0.0109385,622,974,-12.3712,-1.04448
-595,50,-12.3474,0.993591,-0.00376573,0.00093592,-0.00237434,0.00192633,-0.00475614,-1.17561,0.00397176,0.0117859,629,974,-12.3474,-0.993571
-588,50,-12.3818,0.932556,-0.00400667,0.000702656,-0.00262089,0.00187127,-0.00517529,-1.15137,0.00421477,0.012816,636,974,-12.3818,-0.932547
-581,50,-12.5746,0.647583,-0.0042569,0.000490439,-0.00265187,0.0016758,-0.00544227,-1.15045,0.00429712,0.0217692,643,974,-12.5746,-0.647577
-574,50,-12.6852,0.4021,-0.00437908,0.000279653,-0.00274817,0.00155284,-0.00565227,-1.13695,0.00437856,0.0285917,650,974,-12.6852,-0.4021
-567,50,-12.6725,0.390869,-0.00423404,5.14113e-05,-0.00265509,0.00132055,-0.00550317,-1.1249,0.0041791,0.0371485,657,974,-12.6725,-0.390868
-560,50,-12.6552,0.357117,-0.00390248,-0.000221401,-0.00237306,0.000941223,-0.0050651,-1.11524,0.00373027,0.0420957,664,974,-12.6552,-0.357137
-553,50,-12.6201,0.317078,-0.00328929,-0.000551329,-0.00193735,0.000451907,-0.00429253,-1.09298,0.0030236,0.0411765,671,974,-12.6201,-0.317094
-546,50,-12.602,0.265259,-0.00241194,-0.00095855,-0.00136364,-0.000140064,-0.00323043,-1.03021,0.00210848,0.0411569,678,974,-12.602,-0.265238
-539,50,-12.6622,0.0447998,-0.00122374,-0.0014525,-0.000724936,-0.000604216,-0.00207202,-0.707153,0.00123043,0.0445103,685,974,-12.6622,-0.0447784
-532,50,-12.6123,0.413208,5.11048e-05,-0.00191343,-0.000247197,8.1732e-05,-0.00194405,-0.12327,0.00132412,0.0442701,692,974,-12.6123,-0.413226
-525,50,-12.6527,0.400452,0.00068248,-0.00218313,-0.000141445,0.000689444,-0.00219009,-0.0492,0.00173612,0.0425222,699,974,-12.6527,-0.400427
-518,50,0,0,0,0,0,0,0,0,0,-1,706,974,0,0
-511,50,0,0,0,0,0,0,0,0,0,-1,713,974,0,0
-504,50,0,0,0,0,0,0,0,0,0,-1,720,974,0,0
-497,50,0,0,0,0,0,0,0,0,0,-1,727,974,0,0
-490,50,0,0,0,0,0,0,0,0,0,-1,734,974,0,0
-483,50,0,0,0,0,0,0,0,0,0,-1,741,974,0,0
-476,50,0,0,0,0,0,0,0,0,0,-1,748,974,0,0
-469,50,0,0,0,0,0,0,0,0,0,-1,755,974,0,0
-462,50,0,0,0,0,0,0,0,0,0,-1,762,974,0,0
-455,50,0,0,0,0,0,0,0,0,0,-1,769,974,0,0
-448,50,0,0,0,0,0,0,0,0,0,-1,776,974,0,0
-441,50,0,0,0,0,0,0,0,0,0,-1,783,974,0,0
-434,50,0,0,0,0,0,0,0,0,0,-1,790,974,0,0
-427,50,0,0,0,0,0,0,0,0,0,-1,797,974,0,0
-420,50,0,0,0,0,0,0,0,0,0,-1,804,974,0,0
-413,50,0,0,0,0,0,0,0,0,0,-1,811,974,0,0
-406,50,0,0,0,0,0,0,0,0,0,-1,818,974,0,0
-399,50,0,0,0,0,0,0,0,0,0,-1,825,974,0,0
-392,50,0,0,0,0,0,0,0,0,0,-1,832,974,0,0
-385,50,0,0,0,0,0,0,0,0,0,-1,839,974,0,0
-378,50,0,0,0,0,0,0,0,0,0,-1,846,974,0,0
-371,50,0,0,0,0,0,0,0,0,0,-1,853,974,0,0
-364,50,0,0,0,0,0,0,0,0,0,-1,860,974,0,0
-357,50,0,0,0,0,0,0,0,0,0,-1,867,974,0,0
-350,50,0,0,0,0,0,0,0,0,0,-1,874,974,0,0
-343,50,0,0,0,0,0,0,0,0,0,-1,881,974,0,0
-336,50,0,0,0,0,0,0,0,0,0,-1,888,974,0,0
-329,50,0,0,0,0,0,0,0,0,0,-1,895,974,0,0
-322,50,0,0,0,0,0,0,0,0,0,-1,902,974,0,0
-315,50,0,0,0,0,0,0,0,0,0,-1,909,974,0,0
-308,50,0,0,0,0,0,0,0,0,0,-1,916,974,0,0
-301,50,0,0,0,0,0,0,0,0,0,-1,923,974,0,0
-294,50,0,0,0,0,0,0,0,0,0,-1,930,974,0,0
-287,50,0,0,0,0,0,0,0,0,0,-1,937,974,0,0
-280,50,0,0,0,0,0,0,0,0,0,-1,944,974,0,0
-273,50,0,0,0,0,0,0,0,0,0,-1,951,974,0,0
-266,50,0,0,0,0,0,0,0,0,0,-1,958,974,0,0
-259,50,0,0,0,0,0,0,0,0,0,-1,965,974,0,0
-252,50,0,0,0,0,0,0,0,0,0,-1,972,974,0,0
-245,50,0,0,0,0,0,0,0,0,0,-1,979,974,0,0
-238,50,0,0,0,0,0,0,0,0,0,-1,986,974,0,0
-231,50,0,0,0,0,0,0,0,0,0,-1,993,974,0,0
-224,50,0,0,0,0,0,0,0,0,0,-1,1000,974,0,0
-217,50,0,0,0,0,0,0,0,0,0,-1,1007,974,0,0
-210,50,0,0,0,0,0,0,0,0,0,-1,1014,974,0,0
-203,50,0,0,0,0,0,0,0,0,0,-1,1021,974,0,0
-196,50,0,0,0,0,0,0,0,0,0,-1,1028,974,0,0
-189,50,0,0,0,0,0,0,0,0,0,-1,1035,974,0,0
-182,50,0,0,0,0,0,0,0,0,0,-1,1042,974,0,0
-175,50,0,0,0,0,0,0,0,0,0,-1,1049,974,0,0
-168,50,0,0,0,0,0,0,0,0,0,-1,1056,974,0,0
-161,50,0,0,0,0,0,0,0,0,0,-1,1063,974,0,0
-154,50,0,0,0,0,0,0,0,0,0,-1,1070,974,0,0
-147,50,0,0,0,0,0,0,0,0,0,-1,1077,974,0,0
-140,50,0,0,0,0,0,0,0,0,0,-1,1084,974,0,0
-133,50,0,0,0,0,0,0,0,0,0,-1,1091,974,0,0
-126,50,0,0,0,0,0,0,0,0,0,-1,1098,974,0,0
-119,50,0,0,0,0,0,0,0,0,0,-1,1105,974,0,0
-112,50,0,0,0,0,0,0,0,0,0,-1,1112,974,0,0
-105,50,0,0,0,0,0,0,0,0,0,-1,1119,974,0,0
-98,50,0,0,0,0,0,0,0,0,0,-1,1126,974,0,0
-91,50,0,0,0,0,0,0,0,0,0,-1,1133,974,0,0
-84,50,0,0,0,0,0,0,0,0,0,-1,1140,974,0,0
-77,50,0,0,0,0,0,0,0,0,0,-1,1147,974,0,0
-70,50,0,0,0,0,0,0,0,0,0,-1,1154,974,0,0
-63,50,0,0,0,0,0,0,0,0,0,-1,1161,974,0,0
-56,50,0,0,0,0,0,0,0,0,0,-1,1168,974,0,0
-49,50,0,0,0,0,0,0,0,0,0,-1,1175,974,0,0
-42,50,0,0,0,0,0,0,0,0,0,-1,1182,974,0,0
-35,50,0,0,0,0,0,0,0,0,0,-1,1189,974,0,0
-28,50,0,0,0,0,0,0,0,0,0,-1,1196,974,0,0
-21,50,0,0,0,0,0,0,0,0,0,-1,1203,974,0,0
-14,50,0,0,0,0,0,0,0,0,0,-1,1210,974,0,0
-7,50,0,0,0,0,0,0,0,0,0,-1,1217,974,0,0
0,50,0,0,0,0,0,0,0,0,0,-1,1224,974,0,0
7,50,0,0,0,0,0,0,0,0,0,-1,1231,974,0,0
14,50,0,0,0,0,0,0,0,0,0,-1,1238,974,0,0
21,50,0,0,0,0,0,0,0,0,0,-1,1245,974,0,0
28,50,0,0,0,0,0,0,0,0,0,-1,1252,974,0,0
35,50,0,0,0,0,0,0,0,0,0,-1,1259,974,0,0
42,50,0,0,0,0,0,0,0,0,0,-1,1266,974,0,0
49,50,0,0,0,0,0,0,0,0,0,-1,1273,974,0,0
56,50,0,0,0,0,0,0,0,0,0,-1,1280,974,0,0
63,50,0,0,0,0,0,0,0,0,0,-1,1287,974,0,0
70,50,0,0,0,0,0,0,0,0,0,-1,1294,974,0,0
77,50,0,0,0,0,0,0,0,0,0,-1,1301,974,0,0
84,50,0,0,0,0,0,0,0,0,0,-1,1308,974,0,0
91,50,0,0,0,0,0,0,0,0,0,-1,1315,974,0,0
98,50,0,0,0,0,0,0,0,0,0,-1,1322,974,0,0
105,50,0,0,0,0,0,0,0,0,0,-1,1329,974,0,0
112,50,0,0,0,0,0,0,0,0,0,-1,1336,974,0,0
119,50,0,0,0,0,0,0,0,0,0,-1,1343,974,0,0
126,50,0,0,0,0,0,0,0,0,0,-1,1350,974,0,0
133,50,0,0,0,0,0,0,0,0,0,-1,1357,974,0,0
140,50,0,0,0,0,0,0,0,0,0,-1,1364,974,0,0
147,50,0,0,0,0,0,0,0,0,0,-1,1371,974,0,0
154,50,0,0,0,0,0,0,0,0,0,-1,1378,974,0,0
161,50,0,0,0,0,0,0,0,0,0,-1,1385,974,0,0
168,50,0,0,0,0,0,0,0,0,0,-1,1392,974,0,0
175,50,0,0,0,0,0,0,0,0,0,-1,1399,974,0,0
182,50,0,0,0,0,0,0,0,0,0,-1,1406,974,0,0
189,50,0,0,0,0,0,0,0,0,0,-1,1413,974,0,0
196,50,0,0,0,0,0,0,0,0,0,-1,1420,974,0,0
203,50,0,0,0,0,0,0,0,0,0,-1,1427,974,0,0
210,50,0,0,0,0,0,0,0,0,0,-1,1434,974,0,0
217,50,0,0,0,0,0,0,0,0,0,-1,1441,974,0,0
224,50,0,0,0,0,0,0,0,0,0,-1,1448,974,0,0
231,50,0,0,0,0,0,0,0,0,0,-1,1455,974,0,0
238,50,0,0,0,0,0,0,0,0,0,-1,1462,974,0,0
245,50,0,0,0,0,0,0,0,0,0,-1,1469,974,0,0
252,50,0,0,0,0,0,0,0,0,0,-1,1476,974,0,0
259,50,0,0,0,0,0,0,0,0,0,-1,1483,974,0,0
266,50,0,0,0,0,0,0,0,0,0,-1,1490,974,0,0
273,50,0,0,0,0,0,0,0,0,0,-1,1497,974,0,0
280,50,0,0,0,0,0,0,0,0,0,-1,1504,974,0,0
287,50,0,0,0,0,0,0,0,0,0,-1,1511,974,0,0
294,50,0,0,0,0,0,0,0,0,0,-1,1518,974,0,0
301,50,0,0,0,0,0,0,0,0,0,-1,1525,974,0,0
308,50,0,0,0,0,0,0,0,0,0,-1,1532,974,0,0
315,50,0,0,0,0,0,0,0,0,0,-1,1539,974,0,0
322,50,0,0,0,0,0,0,0,0,0,-1,1546,974,0,0
329,50,0,0,0,0,0,0,0,0,0,-1,1553,974,0,0
336,50,0,0,0,0,0,0,0,0,0,-1,1560,974,0,0
343,50,0,0,0,0,0,0,0,0,0,-1,1567,974,0,0
350,50,0,0,0,0,0,0,0,0,0,-1,1574,974,0,0
357,50,0,0,0,0,0,0,0,0,0,-1,1581,974,0,0
364,50,0,0,0,0,0,0,0,0,0,-1,1588,974,0,0
371,50,0,0,0,0,0,0,0,0,0,-1,1595,974,0,0
378,50,0,0,0,0,0,0,0,0,0,-1,1602,974,0,0
385,50,0,0,0,0,0,0,0,0,0,-1,1609,974,0,0
392,50,0,0,0,0,0,0,0,0,0,-1,1616,974,0,0
399,50,0,0,0,0,0,0,0,0,0,-1,1623,974,0,0
406,50,0,0,0,0,0,0,0,0,0,-1,1630,974,0,0
413,50,0,0,0,0,0,0,0,0,0,-1,1637,974,0,0
420,50,0,0,0,0,0,0,0,0,0,-1,1644,974,0,0
427,50,0,0,0,0,0,0,0,0,0,-1,1651,974,0,0
434,50,0,0,0,0,0,0,0,0,0,-1,1658,974,0,0
441,50,0,0,0,0,0,0,0,0,0,-1,1665,974,0,0
448,50,0,0,0,0,0,0,0,0,0,-1,1672,974,0,0
455,50,0,0,0,0,0,0,0,0,0,-1,1679,974,0,0
462,50,0,0,0,0,0,0,0,0,0,-1,1686,974,0,0
469,50,0,0,0,0,0,0,0,0,0,-1,1693,974,0,0
476,50,0,0,0,0,0,0,0,0,0,-1,1700,974,0,0
483,50,0,0,0,0,0,0,0,0,0,-1,1707,974,0,0
490,50,0,0,0,0,0,0,0,0,0,-1,1714,974,0,0
497,50,0,0,0,0,0,0,0,0,0,-1,1721,974,0,0
504,50,0,0,0,0,0,0,0,0,0,-1,1728,974,0,0
511,50,0,0,0,0,0,0,0,0,0,-1,1735,974,0,0
518,50,0,0,0,0,0,0,0,0,0,-1,1742,974,0,0
525,50,0,0,0,0,0,0,0,0,0,-1,1749,974,0,0
532,50,0,0,0,0,0,0,0,0,0,-1,1756,974,0,0
539,50,0,0,0,0,0,0,0,0,0,-1,1763,974,0,0
546,50,0,0,0,0,0,0,0,0,0,-1,1770,974,0,0
553,50,0,0,0,0,0,0,0,0,0,-1,1777,974,0,0
560,50,0,0,0,0,0,0,0,0,0,-1,1784,974,0,0
567,50,0,0,0,0,0,0,0,0,0,-1,1791,974,0,0
574,50,0,0,0,0,0,0,0,0,0,-1,1798,974,0,0
581,50,0,0,0,0,0,0,0,0,0,-1,1805,974,0,0
588,50,0,0,0,0,0,0,0,0,0,-1,1812,974,0,0
595,50,0,0,0,0,0,0,0,0,0,-1,1819,974,0,0
602,50,0,0,0,0,0,0,0,0,0,-1,1826,974,0,0
609,50,0,0,0,0,0,0,0,0,0,-1,1833,974,0,0
616,50,0,0,0,0,0,0,0,0,0,-1,1840,974,0,0
623,50,0,0,0,0,0,0,0,0,0,-1,1847,974,0,0
630,50,0,0,0,0,0,0,0,0,0,-1,1854,974,0,0
637,50,0,0,0,0,0,0,0,0,0,-1,1861,974,0,0
644,50,19.4434,2.57184,0.00285183,-0.0025435,-0.00258232,0.00388856,-0.00358024,-0.381778,0.00431334,0.0377171,1868,974,19.4434,-2.57184
651,50,19.4786,2.47015,0.00225893,-0.00115179,-0.00286005,0.00388346,-0.00277632,-0.516562,0.00386269,0.0305382,1875,974,19.4786,-2.47015
658,50,19.4916,2.34906,0.00155369,-0.000103226,-0.00257225,0.0034276,-0.00197714,-0.629606,0.00315766,0.0344216,1882,974,19.4916,-2.34907
665,50,19.4905,2.1676,0.000473913,0.000880168,-0.00176842,0.00245709,-0.00110301,-0.842579,0.0021044,0.0390382,1889,974,19.4905,-2.16761
672,50,19.4438,2.17719,-0.000926153,0.00178027,-0.000733371,0.00196622,-0.0011121,-1.32248,0.00179993,0.0416445,1896,974,19.4438,-2.17718
679,50,19.069,2.49231,0,0,0,0,0,0,0,-1,1903,974,19.069,-2.49233
686,50,19.3784,2.37616,-0.00369354,0.00280277,0.00129444,0.0030512,-0.00394197,1.38118,0.00404841,0.0422962,1910,974,19.3785,-2.37615
693,50,19.3954,2.35956,-0.00462727,0.00296111,0.00200881,0.00346008,-0.00512624,1.32733,0.00498833,0.0355632,1917,974,19.3954,-2.35959
700,50,19.4761,2.36768,-0.00538632,0.00312867,0.00247149,0.00379403,-0.00605168,1.30782,0.00573402,0.0225451,1924,974,19.4761,-2.36767
707,50,19.4376,2.64813,-0.00587641,0.0031301,0.0027606,0.00390891,-0.00665522,1.29583,0.00616752,0.0349185,1931,974,19.4376,-2.64811
714,50,19.3053,3.04047,-0.00614324,0.00302518,0.00286986,0.00384939,-0.00696746,1.29113,0.00633101,0.0481509,1938,974,19.3054,-3.04048
721,50,18.7954,3.25043,-0.00613308,0.00286058,0.00284425,0.00368458,-0.00695708,1.28881,0.00624005,0.0360829,1945,974,18.7954,-3.25042
728,50,18.6089,3.33307,-0.00591223,0.00265264,0.00267662,0.00342031,-0.0066799,1.29149,0.00593172,0.0202401,1952,974,18.6089,-3.33306
735,50,18.6372,3.40466,-0.00535306,0.00243614,0.00231638,0.00307294,-0.00598986,1.30252,0.00532198,0.0181471,1959,974,18.6372,-3.40469
742,50,18.6455,3.48724,-0.00460266,0.00255549,0.00162864,0.00290862,-0.00495579,1.35728,0.00459151,0.0147194,1966,974,18.6456,-3.48725
749,50,18.6372,3.54724,-0.0035885,0.00181936,0.000754142,0.00192256,-0.00369169,1.4348,0.0032946,0.0147966,1973,974,18.6372,-3.54723
756,50,18.6132,3.63184,-0.00257182,0.000693846,0.000502818,0.000769512,-0.00264748,1.42143,0.00206974,0.0111629,1980,974,18.6131,-3.63183
763,50,18.616,3.69934,-0.00204776,-0.00127248,0.000699349,-0.000860522,-0.00245971,1.03846,0.0014413,0.0108834,1987,974,18.616,-3.69937
770,50,18.6111,3.75879,-0.001552,-0.00370226,0.0012713,-0.000962163,-0.0042921,0.434404,0.0026007,0.0110833,1994,974,18.6111,-3.75879
777,50,18.5934,3.81732,-0.00155727,-0.00714235,0.00255637,-0.000563869,-0.00813575,0.370637,0.00524599,0.0223807,2001,974,18.5934,-3.81731
784,50,18.521,3.89288,-0.00232568,-0.0123207,0.00475778,-0.00042308,-0.0142233,0.380415,0.00934436,0.0396439,2008,974,18.5209,-3.89286
791,50,18.2759,3.61456,-0.00370513,-0.019819,0.00815366,-0.000299237,-0.0232249,0.395682,0.0153845,0.0457968,2015,974,18.2758,-3.61456
798,50,18.1774,3.71124,0,0,0,0,0,0,0,-1,2022,974,18.1773,-3.71124
805,50,18.1462,3.97943,0,0,0,0,0,0,0,-1,2029,974,18.1463,-3.97946
812,50,0,0,0,0,0,0,0,0,0,-1,2036,974,0,0
-700,43,0,0,0,0,0,0,0,0,0,-1,524,981,0,0
-693,43,-15.3083,1.2735,0.108538,-0.0117504,0.0844619,0.152082,-0.0552939,0.476002,0.123999,0.0435611,531,981,-15.3083,-1.27347
-686,43,-15.0426,2.26276,0.0941218,-0.00792772,0.0767862,0.135291,-0.0490965,0.492146,0.110265,0.0397714,538,981,-15.0426,-2.26278
-679,43,-14.1296,3.47253,0.078836,-0.00538477,0.0671077,0.115951,-0.0425002,0.505199,0.0947018,0.0428865,545,981,-14.1296,-3.47255
-672,43,-13.0445,4.62378,0,0,0,0,0,0,0,-1,552,981,-13.0445,-4.62376
-665,43,-12.611,1.6275,0,0,0,0,0,0,0,-1,559,981,-12.6111,-1.62747
-658,43,-12.6099,1.58075,0.038319,-0.00118531,0.0375358,0.0609825,-0.0238488,0.543196,0.0505173,0.0473229,566,981,-12.6099,-1.58076
-651,43,-12.3855,1.37415,0.0276367,-0.000443328,0.0288399,0.0456726,-0.0184792,0.558872,0.0381311,0.0395146,573,981,-12.3855,-1.37417
-644,43,-12.4046,1.3277,0.0187615,6.65705e-05,0.02111,0.032501,-0.0136729,0.576975,0.0273873,0.0199323,580,981,-12.4046,-1.3277
-637,43,-12.4165,1.31519,0.0116634,0.000956453,0.0147627,0.0220133,-0.00939343,0.611454,0.0186142,0.0132703,587,981,-12.4165,-1.31519
-630,43,-12.4158,1.25415,0.00464717,0.00152375,0.00829949,0.0115306,-0.00535969,0.692401,0.0099662,0.0123206,594,981,-12.4158,-1.25415
-623,43,-12.4017,1.20959,-0.00101249,0.000499164,0.00296476,0.00280293,-0.00331625,0.910208,0.00353705,0.0109463,601,981,-12.4017,-1.20957
-616,43,-12.392,1.16815,-0.00256758,0.00095649,0.000345141,0.000989974,-0.00260106,1.47408,0.00214171,0.00984137,608,981,-12.392,-1.16815
-609,43,-12.4078,1.11383,-0.00271747,0.000992375,-0.000894244,0.00119668,-0.00292177,-1.34619,0.00244633,0.011915,615,981,-12.4078,-1.11381
-602,43,-12.4207,1.05707,-0.00282112,0.00110718,-0.0020937,0.00201382,-0.00372776,-1.16214,0.00336378,0.0152542,622,981,-12.4207,-1.05706
-595,43,-12.423,0.99884,-0.0029994,0.000980892,-0.00280123,0.00242696,-0.00444547,-1.09425,0.00402445,0.0140205,629,981,-12.423,-0.998867
-588,43,-12.4247,0.867554,-0.003131,0.000763565,-0.00302562,0.00241437,-0.00478181,-1.07133,0.004229,0.0132629,636,981,-12.4248,-0.867573
-581,43,-12.573,0.612488,-0.00329574,0.000557182,-0.00298934,0.00218704,-0.00492559,-1.07163,0.00420672,0.019957,643,981,-12.573,-0.612459
-574,43,-12.6904,0.507324,-0.00338007,0.000317221,-0.00301601,0.00200606,-0.00506891,-1.06034,0.00421039,0.0285254,650,981,-12.6904,-0.507338
-567,43,-12.6343,0.476807,-0.00328394,6.15071e-05,-0.0028001,0.00165047,-0.0048729,-1.05464,0.00391645,0.0364258,657,981,-12.6343,-0.476797
-560,43,-12.5424,0.545959,-0.00304987,-0.00026312,-0.00237605,0.00109798,-0.00441097,-1.05059,0.00336685,0.0388761,664,981,-12.5424,-0.545969
-553,43,-12.5503,0.54425,-0.00264238,-0.000672316,-0.00177209,0.000370109,-0.00368481,-1.03906,0.00258874,0.0379063,671,981,-12.5503,-0.544256
-546,43,-12.6602,0.411438,-0.00208901,-0.00118931,-0.00101058,-0.000532975,-0.00274534,-0.9948,0.00168097,0.0387711,678,981,-12.6601,-0.411453
-539,43,-12.6148,0.33844,-0.00135278,-0.00182664,-0.000189316,-0.00128644,-0.00189299,-0.337076,0.00111617,0.0440014,685,981,-12.6148,-0.338433
-532,43,-12.5295,0.403198,-0.0007272,-0.00241188,0.000417801,-0.000629277,-0.0025098,0.230221,0.00150787,0.0453327,692,981,-12.5295,-0.403186
-525,43,-12.5617,0.434021,-0.000921068,-0.00280923,0.000626202,-0.000732269,-0.00299803,0.292831,0.00180482,0.0433397,699,981,-12.5617,-0.434047
-518,43,0,0,0,0,0,0,0,0,0,-1,706,981,0,0
-511,43,0,0,0,0,0,0,0,0,0,-1,713,981,0,0
-504,43,0,0,0,0,0,0,0,0,0,-1,720,981,0,0
-497,43,0,0,0,0,0,0,0,0,0,-1,727,981,0,0
-490,43,0,0,0,0,0,0,0,0,0,-1,734,981,0,0
-483,43,0,0,0,0,0,0,0,0,0,-1,741,981,0,0
-476,43,0,0,0,0,0,0,0,0,0,-1,748,981,0,0
-469,43,0,0,0,0,0,0,0,0,0,-1,755,981,0,0
-462,43,0,0,0,0,0,0,0,0,0,-1,762,981,0,0
-455,43,0,0,0,0,0,0,0,0,0,-1,769,981,0,0
-448,43,0,0,0,0,0,0,0,0,0,-1,776,981,0,0
-441,43,0,0,0,0,0,0,0,0,0,-1,783,981,0,0
-434,43,0,0,0,0,0,0,0,0,0,-1,790,981,0,0
-427,43,0,0,0,0,0,0,0,0,0,-1,797,981,0,0
-420,43,0,0,0,0,0,0,0,0,0,-1,804,981,0,0
-413,43,0,0,0,0,0,0,0,0,0,-1,811,981,0,0
-406,43,0,0,0,0,0,0,0,0,0,-1,818,981,0,0
-399,43,0,0,0,0,0,0,0,0,0,-1,825,981,0,0
-392,43,0,0,0,0,0,0,0,0,0,-1,832,981,0,0
-385,43,0,0,0,0,0,0,0,0,0,-1,839,981,0,0
-378,43,0,0,0,0,0,0,0,0,0,-1,846,981,0,0
-371,43,0,0,0,0,0,0,0,0,0,-1,853,981,0,0
-364,43,0,0,0,0,0,0,0,0,0,-1,860,981,0,0
-357,43,0,0,0,0,0,0,0,0,0,-1,867,981,0,0
-350,43,0,0,0,0,0,0,0,0,0,-1,874,981,0,0
-343,43,0,0,0,0,0,0,0,0,0,-1,881,981,0,0
-336,43,0,0,0,0,0,0,0,0,0,-1,888,981,0,0
-329,43,0,0,0,0,0,0,0,0,0,-1,895,981,0,0
-322,43,0,0,0,0,0,0,0,0,0,-1,902,981,0,0
-315,43,0,0,0,0,0,0,0,0,0,-1,909,981,0,0
-308,43,0,0,0,0,0,0,0,0,0,-1,916,981,0,0
-301,43,0,0,0,0,0,0,0,0,0,-1,923,981,0,0
-294,43,0,0,0,0,0,0,0,0,0,-1,930,981,0,0
-287,43,0,0,0,0,0,0,0,0,0,-1,937,981,0,0
-280,43,0,0,0,0,0,0,0,0,0,-1,944,981,0,0
-273,43,0,0,0,0,0,0,0,0,0,-1,951,981,0,0
-266,43,0,0,0,0,0,0,0,0,0,-1,958,981,0,0
-259,43,0,0,0,0,0,0,0,0,0,-1,965,981,0,0
-252,43,0,0,0,0,0,0,0,0,0,-1,972,981,0,0
-245,43,0,0,0,0,0,0,0,0,0,-1,979,981,0,0
-238,43,0,0,0,0,0,0,0,0,0,-1,986,981,0,0
-231,43,0,0,0,0,0,0,0,0,0,-1,993,981,0,0
-224,43,0,0,0,0,0,0,0,0,0,-1,1000,981,0,0
-217,43,0,0,0,0,0,0,0,0,0,-1,1007,981,0,0
-210,43,0,0,0,0,0,0,0,0,0,-1,1014,981,0,0
-203,43,0,0,0,0,0,0,0,0,0,-1,1021,981,0,0
-196,43,0,0,0,0,0,0,0,0,0,-1,1028,981,0,0
-189,43,0,0,0,0,0,0,0,0,0,-1,1035,981,0,0
-182,43,0,0,0,0,0,0,0,0,0,-1,1042,981,0,0
-175,43,0,0,0,0,0,0,0,0,0,-1,1049,981,0,0
-168,43,0,0,0,0,0,0,0,0,0,-1,1056,981,0,0
-161,43,0,0,0,0,0,0,0,0,0,-1,1063,981,0,0
-154,43,0,0,0,0,0,0,0,0,0,-1,1070,981,0,0
-147,43,0,0,0,0,0,0,0,0,0,-1,1077,981,0,0
-140,43,0,0,0,0,0,0,0,0,0,-1,1084,981,0,0
-133,43,0,0,0,0,0,0,0,0,0,-1,1091,981,0,0
-126,43,0,0,0,0,0,0,0,0,0,-1,1098,981,0,0
-119,43,0,0,0,0,0,0,0,0,0,-1,1105,981,0,0
-112,43,0,0,0,0,0,0,0,0,0,-1,1112,981,0,0
-105,43,0,0,0,0,0,0,0,0,0,-1,1119,981,0,0
-98,43,0,0,0,0,0,0,0,0,0,-1,1126,981,0,0
-91,43,0,0,0,0,0,0,0,0,0,-1,1133,981,0,0
-84,43,0,0,0,0,0,0,0,0,0,-1,1140,981,0,0
-77,43,0,0,0,0,0,0,0,0,0,-1,1147,981,0,0
-70,43,0,0,0,0,0,0,0,0,0,-1,1154,981,0,0
-63,43,0,0,0,0,0,0,0,0,0,-1,1161,981,0,0
-56,43,0,0,0,0,0,0,0,0,0,-1,1168,981,0,0
-49,43,0,0,0,0,0,0,0,0,0,-1,1175,981,0,0
-42,43,0,0,0,0,0,0,0,0,0,-1,1182,981,0,0
-35,43,0,0,0,0,0,0,0,0,0,-1,1189,981,0,0
-28,43,0,0,0,0,0,0,0,0,0,-1,1196,981,0,0
-21,43,0,0,0,0,0,0,0,0,0,-1,1203,981,0,0
-14,43,0,0,0,0,0,0,0,0,0,-1,1210,981,0,0
-7,43,0,0,0,0,0,0,0,0,0,-1,1217,981,0,0
0,43,0,0,0,0,0,0,0,0,0,-1,1224,981,0,0
7,43,0,0,0,0,0,0,0,0,0,-1,1231,981,0,0
14,43,0,0,0,0,0,0,0,0,0,-1,1238,981,0,0
21,43,0,0,0,0,0,0,0,0,0,-1,1245,981,0,0
28,43,0,0,0,0,0,0,0,0,0,-1,1252,981,0,0
35,43,0,0,0,0,0,0,0,0,0,-1,1259,981,0,0
42,43,0,0,0,0,0,0,0,0,0,-1,1266,981,0,0
49,43,0,0,0,0,0,0,0,0,0,-1,1273,981,0,0
56,43,0,0,0,0,0,0,0,0,0,-1,1280,981,0,0
63,43,0,0,0,0,0,0,0,0,0,-1,1287,981,0,0
70,43,0,0,0,0,0,0,0,0,0,-1,1294,981,0,0
77,43,0,0,0,0,0,0,0,0,0,-1,1301,981,0,0
84,43,0,0,0,0,0,0,0,0,0,-1,1308,981,0,0
91,43,0,0,0,0,0,0,0,0,0,-1,1315,981,0,0
98,43,0,0,0,0,0,0,0,0,0,-1,1322,981,0,0
105,43,0,0,0,0,0,0,0,0,0,-1,1329,981,0,0
112,43,0,0,0,0,0,0,0,0,0,-1,1336,981,0,0
119,43,0,0,0,0,0,0,0,0,0,-1,1343,981,0,0
126,43,0,0,0,0,0,0,0,0,0,-1,1350,981,0,0
133,43,0,0,0,0,0,0,0,0,0,-1,1357,981,0,0
140,43,0,0,0,0,0,0,0,0,0,-1,1364,981,0,0
147,43,0,0,0,0,0,0,0,0,0,-1,1371,981,0,0
154,43,0,0,0,0,0,0,0,0,0,-1,1378,981,0,0
161,43,0,0,0,0,0,0,0,0,0,-1,1385,981,0,0
168,43,0,0,0,0,0,0,0,0,0,-1,1392,981,0,0
175,43,0,0,0,0,0,0,0,0,0,-1,1399,981,0,0
182,43,0,0,0,0,0,0,0,0,0,-1,1406,981,0,0
189,43,0,0,0,0,0,0,0,0,0,-1,1413,981,0,0
196,43,0,0,0,0,0,0,0,0,0,-1,1420,981,0,0
203,43,0,0,0,0,0,0,0,0,0,-1,1427,981,0,0
210,43,0,0,0,0,0,0,0,0,0,-1,1434,981,0,0
217,43,0,0,0,0,0,0,0,0,0,-1,1441,981,0,0
224,43,0,0,0,0,0,0,0,0,0,-1,1448,981,0,0
231,43,0,0,0,0,0,0,0,0,0,-1,1455,981,0,0
238,43,0,0,0,0,0,0,0,0,0,-1,1462,981,0,0
245,43,0,0,0,0,0,0,0,0,0,-1,1469,981,0,0
252,43,0,0,0,0,0,0,0,0,0,-1,1476,981,0,0
259,43,0,0,0,0,0,0,0,0,0,-1,1483,981,0,0
266,43,0,0,0,0,0,0,0,0,0,-1,1490,981,0,0
273,43,0,0,0,0,0,0,0,0,0,-1,1497,981,0,0
280,43,0,0,0,0,0,0,0,0,0,-1,1504,981,0,0
287,43,0,0,0,0,0,0,0,0,0,-1,1511,981,0,0
294,43,0,0,0,0,0,0,0,0,0,-1,1518,981,0,0
301,43,0,0,0,0,0,0,0,0,0,-1,1525,981,0,0
308,43,0,0,0,0,0,0,0,0,0,-1,1532,981,0,0
315,43,0,0,0,0,0,0,0,0,0,-1,1539,981,0,0
322,43,0,0,0,0,0,0,0,0,0,-1,1546,981,0,0
329,43,0,0,0,0,0,0,0,0,0,-1,1553,981,0,0
336,43,0,0,0,0,0,0,0,0,0,-1,1560,981,0,0
343,43,0,0,0,0,0,0,0,0,0,-1,1567,981,0,0
350,43,0,0,0,0,0,0,0,0,0,-1,1574,981,0,0
357,43,0,0,0,0,0,0,0,0,0,-1,1581,981,0,0
364,43,0,0,0,0,0,0,0,0,0,-1,1588,981,0,0
371,43,0,0,0,0,0,0,0,0,0,-1,1595,981,0,0
378,43,0,0,0,0,0,0,0,0,0,-1,1602,981,0,0
385,43,0,0,0,0,0,0,0,0,0,-1,1609,981,0,0
392,43,0,0,0,0,0,0,0,0,0,-1,1616,981,0,0
399,43,0,0,0,0,0,0,0,0,0,-1,1623,981,0,0
406,43,0,0,0,0,0,0,0,0,0,-1,1630,981,0,0
413,43,0,0,0,0,0,0,0,0,0,-1,1637,981,0,0
420,43,0,0,0,0,0,0,0,0,0,-1,1644,981,0,0
427,43,0,0,0,0,0,0,0,0,0,-1,1651,981,0,0
434,43,0,0,0,0,0,0,0,0,0,-1,1658,981,0,0
441,43,0,0,0,0,0,0,0,0,0,-1,1665,981,0,0
448,43,0,0,0,0,0,0,0,0,0,-1,1672,981,0,0
455,43,0,0,0,0,0,0,0,0,0,-1,1679,981,0,0
462,43,0,0,0,0,0,0,0,0,0,-1,1686,981,0,0
469,43,0,0,0,0,0,0,0,0,0,-1,1693,981,0,0
476,43,0,0,0,0,0,0,0,0,0,-1,1700,981,0,0
483,43,0,0,0,0,0,0,0,0,0,-1,1707,981,0,0
490,43,0,0,0,0,0,0,0,0,0,-1,1714,981,0,0
497,43,0,0,0,0,0,0,0,0,0,-1,1721,981,0,0
504,43,0,0,0,0,0,0,0,0,0,-1,1728,981,0,0
511,43,0,0,0,0,0,0,0,0,0,-1,1735,981,0,0
518,43,0,0,0,0,0,0,0,0,0,-1,1742,981,0,0
525,43,0,0,0,0,0,0,0,0,0,-1,1749,981,0,0
532,43,0,0,0,0,0,0,0,0,0,-1,1756,981,0,0
539,43,0,0,0,0,0,0,0,0,0,-1,1763,981,0,0
546,43,0,0,0,0,0,0,0,0,0,-1,1770,981,0,0
553,43,0,0,0,0,0,0,0,0,0,-1,1777,981,0,0
560,43,0,0,0,0,0,0,0,0,0,-1,1784,981,0,0
567,43,0,0,0,0,0,0,0,0,0,-1,1791,981,0,0
574,43,0,0,0,0,0,0,0,0,0,-1,1798,981,0,0
581,43,0,0,0,0,0,0,0,0,0,-1,1805,981,0,0
588,43,0,0,0,0,0,0,0,0,0,-1,1812,981,0,0
595,43,0,0,0,0,0,0,0,0,0,-1,1819,981,0,0
602,43,0,0,0,0,0,0,0,0,0,-1,1826,981,0,0
609,43,0,0,0,0,0,0,0,0,0,-1,1833,981,0,0
616,43,0,0,0,0,0,0,0,0,0,-1,1840,981,0,0
623,43,0,0,0,0,0,0,0,0,0,-1,1847,981,0,0
630,43,0,0,0,0,0,0,0,0,0,-1,1854,981,0,0
637,43,0,0,0,0,0,0,0,0,0,-1,1861,981,0,0
644,43,19.4119,2.51239,0.00437558,-0.00277308,-0.00342681,0.0057529,-0.00415041,-0.382165,0.00574258,0.0384072,1868,981,19.4118,-2.5124
651,43,19.4979,2.42682,0.00332134,-0.00144667,-0.00364454,0.00529235,-0.00341769,-0.495761,0.00506742,0.0352503,1875,981,19.4979,-2.42682
658,43,19.5975,2.36389,0.00230959,-0.00048459,-0.00327219,0.00447046,-0.00264546,-0.583634,0.00415318,0.037213,1882,981,19.5976,-2.36388
665,43,19.6278,2.27728,0.00106876,0.000409541,-0.00237245,0.00313439,-0.00165609,-0.716374,0.00280934,0.0389568,1889,981,19.6278,-2.2773
672,43,19.5011,2.11877,-0.00042821,0.00126586,-0.00117713,0.00186903,-0.00103139,-1.09727,0.00169768,0.0406136,1896,981,19.5011,-2.11878
679,43,19.4213,2.22723,-0.00205352,0.0019041,9.82238e-05,0.00190653,-0.00205596,1.546,0.00228829,0.0401878,1903,981,19.4213,-2.22723
686,43,19.3926,2.33533,-0.0033864,0.00229652,0.00121038,0.00254357,-0.00363345,1.36945,0.00358476,0.0399796,1910,981,19.3925,-2.33531
693,43,19.3936,2.32111,-0.0043868,0.0024947,0.00207627,0.00307262,-0.00496472,1.29933,0.00468302,0.0344802,1917,981,19.3936,-2.32109
700,43,19.4401,2.3667,-0.00520224,0.00268568,0.00265609,0.00349668,-0.00601324,1.27445,0.00555426,0.0309398,1924,981,19.44,-2.36667
707,43,19.4711,2.4408,-0.00576317,0.00270648,0.00305224,0.00369179,-0.00674849,1.25854,0.00611321,0.0317286,1931,981,19.4711,-2.4408
714,43,19.443,2.65027,-0.00607315,0.00263574,0.00323485,0.00370581,-0.00714323,1.25133,0.00636763,0.0380628,1938,981,19.443,-2.65025
721,43,19.1799,3.04572,-0.00608961,0.00252432,0.00325153,0.00361387,-0.00717917,1.24747,0.00634368,0.0348507,1945,981,19.1799,-3.04573
728,43,18.8241,3.31274,-0.00592588,0.00239985,0.00310235,0.00342871,-0.00695475,1.25057,0.00610903,0.0193964,1952,981,18.824,-3.31273
735,43,18.7207,3.42761,-0.0055016,0.00224938,0.00274695,0.00312417,-0.00637639,1.26249,0.00559125,0.0136442,1959,981,18.7208,-3.42761
742,43,18.7155,3.466,-0.00489251,0.00237486,0.00205289,0.00291467,-0.00543231,1.31367,0.00489166,0.0152052,1966,981,18.7155,-3.46598
749,43,18.7035,3.51941,-0.00402735,0.00147432,0.00120665,0.00172733,-0.00428036,1.36411,0.00357142,0.0160179,1973,981,18.7035,-3.5194
756,43,18.6993,3.61157,-0.00320835,8.76974e-05,0.00107313,0.000406292,-0.00352695,1.2822,0.00249777,0.0146633,1980,981,18.6994,-3.61159
763,43,18.7213,3.6767,-0.00293514,-0.00229042,0.00142204,-0.00115466,-0.0040709,0.896859,0.00242258,0.0175163,1987,981,18.7213,-3.67669
770,43,18.7076,3.75159,-0.00266083,-0.00532537,0.00219584,-0.0014247,-0.0065615,0.512724,0.00398524,0.0153885,1994,981,18.7076,-3.7516
777,43,18.6556,3.79517,-0.00287463,-0.00959184,0.0038582,-0.00111797,-0.0113485,0.427257,0.00722191,0.0204168,2001,981,18.6556,-3.7952
784,43,18.5516,3.92334,-0.00388149,-0.0158125,0.00659719,-0.000952613,-0.0187414,0.417819,0.0121892,0.0399361,2008,981,18.5517,-3.92334
791,43,18.0945,2.89618,0,0,0,0,0,0,0,-1,2015,981,18.0945,-2.89621
798,43,17.8787,2.94275,0,0,0,0,0,0,0,-1,2022,981,17.8787,-2.94275
805,43,17.8522,3.21149,0,0,0,0,0,0,0,-1,2029,981,17.8521,-3.21147
812,43,20.2209,1.69354,0,0,0,0,0,0,0,-1,2036,981,20.221,-1.69357
-700,36,0,0,0,0,0,0,0,0,0,-1,524,988,0,0
-693,36,-15.9688,1.92047,0.108577,-0.00277131,0.0706605,0.142861,-0.0370556,0.451735,0.109699,0.0442123,531,988,-15.9688,-1.92047
-686,36,-15.5185,2.9975,0.0950071,-0.000818118,0.0664649,0.129029,-0.0348396,0.4731,0.0996828,0.0420653,538,988,-15.5185,-2.99748
-679,36,-14.7672,3.93561,0.0800641,0.000278175,0.059201,0.111559,-0.0312166,0.488917,0.0866727,0.0439882,545,988,-14.7672,-3.93564
-672,36,-13.7277,4.97333,0.0654629,0.000939212,0.0508249,0.0934007,-0.0269986,0.502603,0.0729515,0.0478701,552,988,-13.7277,-4.97331
-665,36,-12.6439,6.01617,0,0,0,0,0,0,0,-1,559,988,-12.6438,-6.01616
-658,36,-12.4128,1.37183,0,0,0,0,0,0,0,-1,566,988,-12.4128,-1.37185
-651,36,-12.4371,1.34851,0.0284201,0.00161691,0.0259312,0.0442081,-0.0141711,0.546895,0.0351609,0.0384662,573,988,-12.4371,-1.3485
-644,36,-12.4616,1.32599,0.0193537,0.00154384,0.0188997,0.0313413,-0.0104437,0.565239,0.0251101,0.0200422,580,988,-12.4616,-1.326
-637,36,-12.4917,1.29779,0.0121001,0.00207094,0.0131767,0.0211842,-0.00701316,0.603579,0.0169512,0.0142708,587,988,-12.4917,-1.29781
-630,36,-12.4664,1.26373,0.00508718,0.00218511,0.00721264,0.0109933,-0.00372101,0.686133,0.00883439,0.01255,594,988,-12.4664,-1.26373
-623,36,-12.4603,1.21088,-0.000571617,0.000544023,0.00235736,0.00240866,-0.00243626,0.901576,0.00279723,0.011319,601,988,-12.4603,-1.21087
-616,36,-12.4519,1.15729,-0.00216666,0.00099872,-0.00016172,0.00100696,-0.0021749,-1.51988,0.00187785,0.00964863,608,988,-12.4519,-1.15728
-609,36,-12.458,1.11658,-0.00220472,0.00100532,-0.00138582,0.00152081,-0.00272021,-1.21468,0.00248098,0.0138895,615,988,-12.458,-1.1166
-602,36,-12.462,1.07385,-0.00218825,0.00115258,-0.00255832,0.00253754,-0.00357321,-1.07462,0.00354489,0.0186958,622,988,-12.462,-1.07386
-595,36,-12.4674,1.01556,-0.0022751,0.00101807,-0.00323866,0.00300469,-0.00426171,-1.02058,0.00421613,0.019793,629,988,-12.4674,-1.01557
-588,36,-12.4902,0.810791,-0.00234687,0.000822183,-0.0034371,0.00302242,-0.00454711,-1.00138,0.00439972,0.0191104,636,988,-12.4902,-0.810781
-581,36,-12.5761,0.543884,-0.00246689,0.000637518,-0.00332911,0.0027585,-0.00458787,-1.00354,0.00428504,0.0234138,643,988,-12.5761,-0.543885
-574,36,-12.6419,0.495972,-0.00254827,0.000396194,-0.00327426,0.00251398,-0.00466606,-0.996674,0.00420701,0.0282146,650,988,-12.6419,-0.495974
-567,36,-12.6586,0.46936,-0.00254812,0.000147839,-0.00293469,0.00202933,-0.00442961,-1.00069,0.00381394,0.0339394,657,988,-12.6586,-0.469376
-560,36,-12.6041,0.440979,-0.00246754,-0.000186478,-0.00236065,0.00129472,-0.00394874,-1.01043,0.00315393,0.0358742,664,988,-12.6041,-0.440949
-553,36,-12.5787,0.388855,-0.00232009,-0.0006227,-0.00157763,0.00032003,-0.00326282,-1.03217,0.00228936,0.0391463,671,988,-12.5787,-0.388851
-546,36,-12.5776,0.368896,-0.00214312,-0.00118482,-0.000615021,-0.000884334,-0.00244361,-1.11632,0.00142864,0.0401656,678,988,-12.5776,-0.368923
-539,36,-12.59,0.349609,-0.00191177,-0.00188794,0.000398046,-0.00150163,-0.00229808,0.800361,0.00134746,0.0420486,685,988,-12.5899,-0.349629
-532,36,-12.4909,0.496216,-0.00197172,-0.00249868,0.00113559,-0.00106945,-0.00340095,0.671406,0.0020081,0.0439659,692,988,-12.4909,-0.496198
-525,36,-12.446,0.359375,-0.00298297,-0.00292056,0.00146645,-0.00148498,-0.00441855,0.796036,0.00259635,0.0434428,699,988,-12.446,-0.359387
-518,36,0,0,0,0,0,0,0,0,0,-1,706,988,0,0
-511,36,0,0,0,0,0,0,0,0,0,-1,713,988,0,0
-504,36,0,0,0,0,0,0,0,0,0,-1,720,988,0,0
-497,36,0,0,0,0,0,0,0,0,0,-1,727,988,0,0
-490,36,0,0,0,0,0,0,0,0,0,-1,734,988,0,0
-483,36,0,0,0,0,0,0,0,0,0,-1,741,988,0,0
-476,36,0,0,0,0,0,0,0,0,0,-1,748,988,0,0
-469,36,0,0,0,0,0,0,0,0,0,-1,755,988,0,0
-462,36,0,0,0,0,0,0,0,0,0,-1,762,988,0,0
-455,36,0,0,0,0,0,0,0,0,0,-1,769,988,0,0
-448,36,0,0,0,0,0,0,0,0,0,-1,776,988,0,0
-441,36,0,0,0,0,0,0,0,0,0,-1,783,988,0,0
-434,36,0,0,0,0,0,0,0,0,0,-1,790,988,0,0
-427,36,0,0,0,0,0,0,0,0,0,-1,797,988,0,0
-420,36,0,0,0,0,0,0,0,0,0,-1,804,988,0,0
-413,36,0,0,0,0,0,0,0,0,0,-1,811,988,0,0
-406,36,0,0,0,0,0,0,0,0,0,-1,818,988,0,0
-399,36,0,0,0,0,0,0,0,0,0,-1,825,988,0,0
-392,36,0,0,0,0,0,0,0,0,0,-1,832,988,0,0
-385,36,0,0,0,0,0,0,0,0,0,-1,839,988,0,0
-378,36,0,0,0,0,0,0,0,0,0,-1,846,988,0,0
-371,36,0,0,0,0,0,0,0,0,0,-1,853,988,0,0
-364,36,0,0,0,0,0,0,0,0,0,-1,860,988,0,0
-357,36,0,0,0,0,0,0,0,0,0,-1,867,988,0,0
-350,36,0,0,0,0,0,0,0,0,0,-1,874,988,0,0
-343,36,0,0,0,0,0,0,0,0,0,-1,881,988,0,0
-336,36,0,0,0,0,0,0,0,0,0,-1,888,988,0,0
-329,36,0,0,0,0,0,0,0,0,0,-1,895,988,0,0
-322,36,0,0,0,0,0,0,0,0,0,-1,902,988,0,0
-315,36,0,0,0,0,0,0,0,0,0,-1,909,988,0,0
-308,36,0,0,0,0,0,0,0,0,0,-1,916,988,0,0
-301,36,0,0,0,0,0,0,0,0,0,-1,923,988,0,0
-294,36,0,0,0,0,0,0,0,0,0,-1,930,988,0,0
-287,36,0,0,0,0,0,0,0,0,0,-1,937,988,0,0
-280,36,0,0,0,0,0,0,0,0,0,-1,944,988,0,0
-273,36,0,0,0,0,0,0,0,0,0,-1,951,988,0,0
-266,36,0,0,0,0,0,0,0,0,0,-1,958,988,0,0
-259,36,0,0,0,0,0,0,0,0,0,-1,965,988,0,0
-252,36,0,0,0,0,0,0,0,0,0,-1,972,988,0,0
-245,36,0,0,0,0,0,0,0,0,0,-1,979,988,0,0
-238,36,0,0,0,0,0,0,0,0,0,-1,986,988,0,0
-231,36,0,0,0,0,0,0,0,0,0,-1,993,988,0,0
-224,36,0,0,0,0,0,0,0,0,0,-1,1000,988,0,0
-217,36,0,0,0,0,0,0,0,0,0,-1,1007,988,0,0
-210,36,0,0,0,0,0,0,0,0,0,-1,1014,988,0,0
-203,36,0,0,0,0,0,0,0,0,0,-1,1021,988,0,0
-196,36,0,0,0,0,0,0,0,0,0,-1,1028,988,0,0
-189,36,0,0,0,0,0,0,0,0,0,-1,1035,988,0,0
-182,36,0,0,0,0,0,0,0,0,0,-1,1042,988,0,0
-175,36,0,0,0,0,0,0,0,0,0,-1,1049,988,0,0
-168,36,0,0,0,0,0,0,0,0,0,-1,1056,988,0,0
-161,36,0,0,0,0,0,0,0,0,0,-1,1063,988,0,0
-154,36,0,0,0,0,0,0,0,0,0,-1,1070,988,0,0
-147,36,0,0,0,0,0,0,0,0,0,-1,1077,988,0,0
-140,36,0,0,0,0,0,0,0,0,0,-1,1084,988,0,0
-133,36,0,0,0,0,0,0,0,0,0,-1,1091,988,0,0
-126,36,0,0,0,0,0,0,0,0,0,-1,1098,988,0,0
-119,36,0,0,0,0,0,0,0,0,0,-1,1105,988,0,0
-112,36,0,0,0,0,0,0,0,0,0,-1,1112,988,0,0
-105,36,0,0,0,0,0,0,0,0,0,-1,1119,988,0,0
-98,36,0,0,0,0,0,0,0,0,0,-1,1126,988,0,0
-91,36,0,0,0,0,0,0,0,0,0,-1,1133,988,0,0
-84,36,0,0,0,0,0,0,0,0,0,-1,1140,988,0,0
-77,36,0,0,0,0,0,0,0,0,0,-1,1147,988,0,0
-70,36,0,0,0,0,0,0,0,0,0,-1,1154,988,0,0
-63,36,0,0,0,0,0,0,0,0,0,-1,1161,988,0,0
-56,36,0,0,0,0,0,0,0,0,0,-1,1168,988,0,0
-49,36,0,0,0,0,0,0,0,0,0,-1,1175,988,0,0
-42,36,0,0,0,0,0,0,0,0,0,-1,1182,988,0,0
-35,36,0,0,0,0,0,0,0,0,0,-1,1189,988,0,0
-28,36,0,0,0,0,0,0,0,0,0,-1,1196,988,0,0
-21,36,0,0,0,0,0,0,0,0,0,-1,1203,988,0,0
-14,36,0,0,0,0,0,0,0,0,0,-1,1210,988,0,0
-7,36,0,0,0,0,0,0,0,0,0,-1,1217,988,0,0
0,36,0,0,0,0,0,0,0,0,0,-1,1224,988,0,0
7,36,0,0,0,0,0,0,0,0,0,-1,1231,988,0,0
14,36,0,0,0,0,0,0,0,0,0,-1,1238,988,0,0
21,36,0,0,0,0,0,0,0,0,0,-1,1245,988,0,0
28,36,0,0,0,0,0,0,0,0,0,-1,1252,988,0,0
35,36,0,0,0,0,0,0,0,0,0,-1,1259,988,0,0
42,36,0,0,0,0,0,0,0,0,0,-1,1266,988,0,0
49,36,0,0,0,0,0,0,0,0,0,-1,1273,988,0,0
56,36,0,0,0,0,0,0,0,0,0,-1,1280,988,0,0
63,36,0,0,0,0,0,0,0,0,0,-1,1287,988,0,0
70,36,0,0,0,0,0,0,0,0,0,-1,1294,988,0,0
77,36,0,0,0,0,0,0,0,0,0,-1,1301,988,0,0
84,36,0,0,0,0,0,0,0,0,0,-1,1308,988,0,0
91,36,0,0,0,0,0,0,0,0,0,-1,1315,988,0,0
98,36,0,0,0,0,0,0,0,0,0,-1,1322,988,0,0
105,36,0,0,0,0,0,0,0,0,0,-1,1329,988,0,0
112,36,0,0,0,0,0,0,0,0,0,-1,1336,988,0,0
119,36,0,0,0,0,0,0,0,0,0,-1,1343,988,0,0
126,36,0,0,0,0,0,0,0,0,0,-1,1350,988,0,0
133,36,0,0,0,0,0,0,0,0,0,-1,1357,988,0,0
140,36,0,0,0,0,0,0,0,0,0,-1,1364,988,0,0
147,36,0,0,0,0,0,0,0,0,0,-1,1371,988,0,0
154,36,0,0,0,0,0,0,0,0,0,-1,1378,988,0,0
161,36,0,0,0,0,0,0,0,0,0,-1,1385,988,0,0
168,36,0,0,0,0,0,0,0,0,0,-1,1392,988,0,0
175,36,0,0,0,0,0,0,0,0,0,-1,1399,988,0,0
182,36,0,0,0,0,0,0,0,0,0,-1,1406,988,0,0
189,36,0,0,0,0,0,0,0,0,0,-1,1413,988,0,0
196,36,0,0,0,0,0,0,0,0,0,-1,1420,988,0,0
203,36,0,0,0,0,0,0,0,0,0,-1,1427,988,0,0
210,36,0,0,0,0,0,0,0,0,0,-1,1434,988,0,0
217,36,0,0,0,0,0,0,0,0,0,-1,1441,988,0,0
224,36,0,0,0,0,0,0,0,0,0,-1,1448,988,0,0
231,36,0,0,0,0,0,0,0,0,0,-1,1455,988,0,0
238,36,0,0,0,0,0,0,0,0,0,-1,1462,988,0,0
245,36,0,0,0,0,0,0,0,0,0,-1,1469,988,0,0
252,36,0,0,0,0,0,0,0,0,0,-1,1476,988,0,0
259,36,0,0,0,0,0,0,0,0,0,-1,1483,988,0,0
266,36,0,0,0,0,0,0,0,0,0,-1,1490,988,0,0
273,36,0,0,0,0,0,0,0,0,0,-1,1497,988,0,0
280,36,0,0,0,0,0,0,0,0,0,-1,1504,988,0,0
287,36,0,0,0,0,0,0,0,0,0,-1,1511,988,0,0
294,36,0,0,0,0,0,0,0,0,0,-1,1518,988,0,0
301,36,0,0,0,0,0,0,0,0,0,-1,1525,988,0,0
308,36,0,0,0,0,0,0,0,0,0,-1,1532,988,0,0
315,36,0,0,0,0,0,0,0,0,0,-1,1539,988,0,0
322,36,0,0,0,0,0,0,0,0,0,-1,1546,988,0,0
329,36,0,0,0,0,0,0,0,0,0,-1,1553,988,0,0
336,36,0,0,0,0,0,0,0,0,0,-1,1560,988,0,0
343,36,0,0,0,0,0,0,0,0,0,-1,1567,988,0,0
350,36,0,0,0,0,0,0,0,0,0,-1,1574,988,0,0
357,36,0,0,0,0,0,0,0,0,0,-1,1581,988,0,0
364,36,0,0,0,0,0,0,0,0,0,-1,1588,988,0,0
371,36,0,0,0,0,0,0,0,0,0,-1,1595,988,0,0
378,36,0,0,0,0,0,0,0,0,0,-1,1602,988,0,0
385,36,0,0,0,0,0,0,0,0,0,-1,1609,988,0,0
392,36,0,0,0,0,0,0,0,0,0,-1,1616,988,0,0
399,36,0,0,0,0,0,0,0,0,0,-1,1623,988,0,0
406,36,0,0,0,0,0,0,0,0,0,-1,1630,988,0,0
413,36,0,0,0,0,0,0,0,0,0,-1,1637,988,0,0
420,36,0,0,0,0,0,0,0,0,0,-1,1644,988,0,0
427,36,0,0,0,0,0,0,0,0,0,-1,1651,988,0,0
434,36,0,0,0,0,0,0,0,0,0,-1,1658,988,0,0
441,36,0,0,0,0,0,0,0,0,0,-1,1665,988,0,0
448,36,0,0,0,0,0,0,0,0,0,-1,1672,988,0,0
455,36,0,0,0,0,0,0,0,0,0,-1,1679,988,0,0
462,36,0,0,0,0,0,0,0,0,0,-1,1686,988,0,0
469,36,0,0,0,0,0,0,0,0,0,-1,1693,988,0,0
476,36,0,0,0,0,0,0,0,0,0,-1,1700,988,0,0
483,36,0,0,0,0,0,0,0,0,0,-1,1707,988,0,0
490,36,0,0,0,0,0,0,0,0,0,-1,1714,988,0,0
497,36,0,0,0,0,0,0,0,0,0,-1,1721,988,0,0
504,36,0,0,0,0,0,0,0,0,0,-1,1728,988,0,0
511,36,0,0,0,0,0,0,0,0,0,-1,1735,988,0,0
518,36,0,0,0,0,0,0,0,0,0,-1,1742,988,0,0
525,36,0,0,0,0,0,0,0,0,0,-1,1749,988,0,0
532,36,0,0,0,0,0,0,0,0,0,-1,1756,988,0,0
539,36,0,0,0,0,0,0,0,0,0,-1,1763,988,0,0
546,36,0,0,0,0,0,0,0,0,0,-1,1770,988,0,0
553,36,0,0,0,0,0,0,0,0,0,-1,1777,988,0,0
560,36,0,0,0,0,0,0,0,0,0,-1,1784,988,0,0
567,36,0,0,0,0,0,0,0,0,0,-1,1791,988,0,0
574,36,0,0,0,0,0,0,0,0,0,-1,1798,988,0,0
581,36,0,0,0,0,0,0,0,0,0,-1,1805,988,0,0
588,36,0,0,0,0,0,0,0,0,0,-1,1812,988,0,0
595,36,0,0,0,0,0,0,0,0,0,-1,1819,988,0,0
602,36,0,0,0,0,0,0,0,0,0,-1,1826,988,0,0
609,36,0,0,0,0,0,0,0,0,0,-1,1833,988,0,0
616,36,0,0,0,0,0,0,0,0,0,-1,1840,988,0,0
623,36,0,0,0,0,0,0,0,0,0,-1,1847,988,0,0
630,36,0,0,0,0,0,0,0,0,0,-1,1854,988,0,0
637,36,0,0,0,0,0,0,0,0,0,-1,1861,988,0,0
644,36,19.4248,2.56409,0.00601956,-0.00284384,-0.00397414,0.00754048,-0.00436476,-0.365509,0.00695454,0.0413662,1868,988,19.4249,-2.56409
651,36,19.4156,2.59479,0.004417,-0.00166624,-0.00407715,0.00646209,-0.00371133,-0.464925,0.00594476,0.0400972,1875,988,19.4157,-2.59478
658,36,19.6466,2.52075,0.00303487,-0.000806829,-0.00361855,0.00521079,-0.00298275,-0.541393,0.00478849,0.0401807,1882,988,19.6466,-2.52076
665,36,19.7372,2.40454,0.00159552,2.67288e-06,-0.00265781,0.00357366,-0.00197547,-0.639829,0.00324778,0.0411954,1889,988,19.7372,-2.40457
672,36,19.6808,2.1665,-2.74664e-06,0.000833867,-0.0013611,0.00183949,-0.00100837,-0.934482,0.00166739,0.0411065,1896,988,19.6808,-2.16652
679,36,19.6929,2.2066,-0.00171596,0.00149463,4.10976e-05,0.00149516,-0.00171648,1.558,0.00185571,0.0401396,1903,988,19.6929,-2.20659
686,36,19.4982,2.27844,-0.00311321,0.00192782,0.00127007,0.00222973,-0.00341512,1.33742,0.00328292,0.0360713,1910,988,19.4981,-2.27845
693,36,19.3811,2.34973,-0.00416046,0.00217243,0.00224394,0.00288692,-0.00487495,1.26254,0.00453005,0.0358692,1917,988,19.3811,-2.34974
700,36,19.418,2.39825,-0.00500773,0.00240245,0.00291139,0.00340946,-0.00601474,1.23779,0.00550993,0.0342356,1924,988,19.418,-2.39822
707,36,19.452,2.40637,-0.00560126,0.00246885,0.00337696,0.0036955,-0.00682791,1.22238,0.00616476,0.0285314,1931,988,19.452,-2.40637
714,36,19.4849,2.55511,-0.00593182,0.00244846,0.00360169,0.00378366,-0.00726703,1.21579,0.00648492,0.0351259,1938,988,19.4849,-2.55511
721,36,19.2534,3.02179,-0.00597246,0.00238514,0.00363899,0.00374752,-0.00733483,1.21257,0.00650917,0.0411911,1945,988,19.2534,-3.02179
728,36,18.9862,3.31714,-0.00586039,0.00232051,0.00349797,0.00361221,-0.00715209,1.21706,0.0063258,0.0221986,1952,988,18.9862,-3.31712
735,36,18.8074,3.45209,-0.00554563,0.00223188,0.00313358,0.0033373,-0.00665105,1.23166,0.00587161,0.0172009,1959,988,18.8074,-3.4521
742,36,18.797,3.47815,-0.00505652,0.00234689,0.00239034,0.00305158,-0.00576121,1.28411,0.00516762,0.0142808,1966,988,18.797,-3.47816
749,36,18.7921,3.5224,-0.00433394,0.00128068,0.00150935,0.00166071,-0.00471397,1.32414,0.00381855,0.0151652,1973,988,18.7921,-3.5224
756,36,18.798,3.59277,-0.00368864,-0.000326984,0.00138878,0.000172528,-0.00418815,1.22553,0.00285135,0.0133775,1980,988,18.798,-3.59274
763,36,18.7816,3.64569,-0.00361385,-0.00301672,0.00172591,-0.00156374,-0.00506684,0.871045,0.00299592,0.0160667,1987,988,18.7817,-3.64569
770,36,18.7634,3.69891,-0.0035098,-0.00647698,0.00242618,-0.00214956,-0.00783723,0.510984,0.004676,0.0141284,1994,988,18.7634,-3.69891
777,36,18.7231,3.81061,-0.00385063,-0.011332,0.00405791,-0.00207232,-0.0131103,0.413026,0.00813788,0.0223128,2001,988,18.7232,-3.81061
784,36,18.6571,3.94202,-0.00495342,-0.0182345,0.00677537,-0.002107,-0.0210809,0.397724,0.0134069,0.042391,2008,988,18.657,-3.94202
791,36,18.5605,4.10175,-0.00667874,-0.0277926,0.01082,-0.00211872,-0.0323526,0.398853,0.020898,0.0448578,2015,988,18.5605,-4.10172
798,36,21.3799,1.112,0,0,0,0,0,0,0,-1,2022,988,21.3799,-1.11198
805,36,20.4546,1.47607,-0.0125325,-0.0565022,0.0244169,-0.00166134,-0.0673734,0.418881,0.0443722,0.0468978,2029,988,20.4546,-1.47605
812,36,19.5796,1.97821,-0.0175992,-0.0761207,0.0350829,-0.00117625,-0.0925437,0.437819,0.0613075,0.0482483,2036,988,19.5795,-1.97822
-700,29,0,0,0,0,0,0,0,0,0,-1,524,995,0,0
-693,29,-16.7761,2.11249,0,0,0,0,0,0,0,-1,531,995,-16.7761,-2.11246
-686,29,-16.2882,3.1059,0.0933822,0.00654459,0.0529058,0.118405,-0.018478,0.441786,0.0857619,0.0424537,538,995,-16.2882,-3.10592
-679,29,-15.5651,4.2428,0.0789448,0.00675683,0.0479491,0.102867,-0.017165,0.462767,0.0749574,0.0432997,545,995,-15.5651,-4.24279
-672,29,-14.4445,5.40326,0.0646301,0.00646175,0.0415612,0.0862729,-0.015181,0.480105,0.0631865,0.045109,552,995,-14.4445,-5.40324
-665,29,-13.3157,6.49371,0,0,0,0,0,0,0,-1,559,995,-13.3158,-6.49372
-658,29,-12.2484,1.41949,0,0,0,0,0,0,0,-1,566,995,-12.2484,-1.41952
-651,29,-12.3588,1.36169,0.0279794,0.00440041,0.0212811,0.0405184,-0.00813859,0.532447,0.0300942,0.0378053,573,995,-12.3588,-1.36172
-644,29,-12.4647,1.29224,0.0190849,0.0035702,0.0154529,0.0286183,-0.00596313,0.552774,0.021346,0.0188599,580,995,-12.4647,-1.29221
-637,29,-12.538,1.24664,0.0119359,0.00352726,0.0107565,0.0192805,-0.00381736,0.599096,0.014297,0.0128571,587,995,-12.538,-1.24664
-630,29,-12.5311,1.24292,0.0050645,0.00303619,0.00565327,0.00979386,-0.00169317,0.696646,0.00716067,0.010648,594,995,-12.5311,-1.24289
-623,29,-12.5122,1.22015,-0.000317831,0.000704761,0.00152615,0.00180298,-0.00141605,0.947034,0.00186298,0.00971702,601,995,-12.5122,-1.22017
-616,29,-12.5251,1.17517,-0.0017557,0.00105054,-0.000708218,0.00121915,-0.00192431,-1.33708,0.00183003,0.0123676,608,995,-12.5251,-1.17517
-609,29,-12.5562,1.1474,-0.00165476,0.000974091,-0.00183993,0.00192087,-0.00260154,-1.09556,0.00262085,0.0191243,615,995,-12.5562,-1.14743
-602,29,-12.5369,1.10278,-0.0015572,0.00110468,-0.00296989,0.00302822,-0.00348074,-0.996054,0.00376098,0.0211802,622,995,-12.5369,-1.10275
-595,29,-12.4969,1.03162,-0.00160539,0.000945002,-0.00363531,0.00352229,-0.00418267,-0.954083,0.0044539,0.0193545,629,995,-12.497,-1.03165
-588,29,-12.5252,0.771545,-0.00165439,0.000772963,-0.00381686,0.00356446,-0.00444589,-0.939332,0.0046341,0.0231638,636,995,-12.5252,-0.771547
-581,29,-12.584,0.524048,-0.00175935,0.000615374,-0.00363942,0.00325622,-0.0044002,-0.94308,0.00443685,0.0348841,643,995,-12.584,-0.524057
-574,29,-12.6011,0.456665,-0.00186091,0.000387601,-0.00349797,0.00293755,-0.00441085,-0.940885,0.00427093,0.0324565,650,995,-12.6011,-0.456677
-567,29,-12.6442,0.317505,-0.00197721,0.000161879,-0.00303817,0.00231326,-0.0041286,-0.954642,0.00376811,0.0324428,657,995,-12.6442,-0.317522
-560,29,-12.6812,0.376465,-0.00208607,-0.00015166,-0.00231656,0.0013915,-0.00362922,-0.983156,0.00299315,0.0355308,664,995,-12.6812,-0.376445
-553,29,-12.7184,0.579529,-0.00223733,-0.000575242,-0.00135692,0.000184894,-0.00299747,-1.06016,0.00206271,0.040624,671,995,-12.7184,-0.579544
-546,29,-12.6531,0.522888,-0.00247519,-0.0011382,-0.000191905,-0.0011112,-0.00250219,-1.43102,0.00144765,0.0411698,678,995,-12.6532,-0.522902
-539,29,-12.6171,0.425171,-0.00278823,-0.00186749,0.00101266,-0.00121546,-0.00344025,0.998741,0.00201452,0.0406562,685,995,-12.617,-0.425196
-532,29,-12.5255,0.576965,-0.00355977,-0.00247406,0.00188152,-0.00105865,-0.00497518,0.925844,0.00302627,0.0432614,692,995,-12.5254,-0.576957
-525,29,-12.4307,0.581482,-0.00537397,-0.00292039,0.00238445,-0.00146564,-0.00682871,1.02299,0.00415109,0.042892,699,995,-12.4307,-0.581507
-518,29,0,0,0,0,0,0,0,0,0,-1,706,995,0,0
-511,29,0,0,0,0,0,0,0,0,0,-1,713,995,0,0
-504,29,0,0,0,0,0,0,0,0,0,-1,720,995,0,0
-497,29,0,0,0,0,0,0,0,0,0,-1,727,995,0,0
-490,29,0,0,0,0,0,0,0,0,0,-1,734,995,0,0
-483,29,0,0,0,0,0,0,0,0,0,-1,741,995,0,0
-476,29,0,0,0,0,0,0,0,0,0,-1,748,995,0,0
-469,29,0,0,0,0,0,0,0,0,0,-1,755,995,0,0
-462,29,0,0,0,0,0,0,0,0,0,-1,762,995,0,0
-455,29,0,0,0,0,0,0,0,0,0,-1,769,995,0,0
-448,29,0,0,0,0,0,0,0,0,0,-1,776,995,0,0
-441,29,0,0,0,0,0,0,0,0,0,-1,783,995,0,0
-434,29,0,0,0,0,0,0,0,0,0,-1,790,995,0,0
-427,29,0,0,0,0,0,0,0,0,0,-1,797,995,0,0
-420,29,0,0,0,0,0,0,0,0,0,-1,804,995,0,0
-413,29,0,0,0,0,0,0,0,0,0,-1,811,995,0,0
-406,29,0,0,0,0,0,0,0,0,0,-1,818,995,0,0
-399,29,0,0,0,0,0,0,0,0,0,-1,825,995,0,0
-392,29,0,0,0,0,0,0,0,0,0,-1,832,995,0,0
-385,29,0,0,0,0,0,0,0,0,0,-1,839,995,0,0
-378,29,0,0,0,0,0,0,0,0,0,-1,846,995,0,0
-371,29,0,0,0,0,0,0,0,0,0,-1,853,995,0,0
-364,29,0,0,0,0,0,0,0,0,0,-1,860,995,0,0
-357,29,0,0,0,0,0,0,0,0,0,-1,867,995,0,0
-350,29,0,0,0,0,0,0,0,0,0,-1,874,995,0,0
-343,29,0,0,0,0,0,0,0,0,0,-1,881,995,0,0
-336,29,0,0,0,0,0,0,0,0,0,-1,888,995,0,0
-329,29,0,0,0,0,0,0,0,0,0,-1,895,995,0,0
-322,29,0,0,0,0,0,0,0,0,0,-1,902,995,0,0
-315,29,0,0,0,0,0,0,0,0,0,-1,909,995,0,0
-308,29,0,0,0,0,0,0,0,0,0,-1,916,995,0,0
-301,29,0,0,0,0,0,0,0,0,0,-1,923,995,0,0
-294,29,0,0,0,0,0,0,0,0,0,-1,930,995,0,0
-287,29,0,0,0,0,0,0,0,0,0,-1,937,995,0,0
-280,29,0,0,0,0,0,0,0,0,0,-1,944,995,0,0
-273,29,0,0,0,0,0,0,0,0,0,-1,951,995,0,0
-266,29,0,0,0,0,0,0,0,0,0,-1,958,995,0,0
-259,29,0,0,0,0,0,0,0,0,0,-1,965,995,0,0
-252,29,0,0,0,0,0,0,0,0,0,-1,972,995,0,0
-245,29,0,0,0,0,0,0,0,0,0,-1,979,995,0,0
-238,29,0,0,0,0,0,0,0,0,0,-1,986,995,0,0
-231,29,0,0,0,0,0,0,0,0,0,-1,993,995,0,0
-224,29,0,0,0,0,0,0,0,0,0,-1,1000,995,0,0
-217,29,0,0,0,0,0,0,0,0,0,-1,1007,995,0,0
-210,29,0,0,0,0,0,0,0,0,0,-1,1014,995,0,0
-203,29,0,0,0,0,0,0,0,0,0,-1,1021,995,0,0
-196,29,0,0,0,0,0,0,0,0,0,-1,1028,995,0,0
-189,29,0,0,0,0,0,0,0,0,0,-1,1035,995,0,0
-182,29,0,0,0,0,0,0,0,0,0,-1,1042,995,0,0
-175,29,0,0,0,0,0,0,0,0,0,-1,1049,995,0,0
-168,29,0,0,0,0,0,0,0,0,0,-1,1056,995,0,0
-161,29,0,0,0,0,0,0,0,0,0,-1,1063,995,0,0
-154,29,0,0,0,0,0,0,0,0,0,-1,1070,995,0,0
-147,29,0,0,0,0,0,0,0,0,0,-1,1077,995,0,0
-140,29,0,0,0,0,0,0,0,0,0,-1,1084,995,0,0
-133,29,0,0,0,0,0,0,0,0,0,-1,1091,995,0,0
-126,29,0,0,0,0,0,0,0,0,0,-1,1098,995,0,0
-119,29,0,0,0,0,0,0,0,0,0,-1,1105,995,0,0
-112,29,0,0,0,0,0,0,0,0,0,-1,1112,995,0,0
-105,29,0,0,0,0,0,0,0,0,0,-1,1119,995,0,0
-98,29,0,0,0,0,0,0,0,0,0,-1,1126,995,0,0
-91,29,0,0,0,0,0,0,0,0,0,-1,1133,995,0,0
-84,29,0,0,0,0,0,0,0,0,0,-1,1140,995,0,0
-77,29,0,0,0,0,0,0,0,0,0,-1,1147,995,0,0
-70,29,0,0,0,0,0,0,0,0,0,-1,1154,995,0,0
-63,29,0,0,0,0,0,0,0,0,0,-1,1161,995,0,0
-56,29,0,0,0,0,0,0,0,0,0,-1,1168,995,0,0
-49,29,0,0,0,0,0,0,0,0,0,-1,1175,995,0,0
-42,29,0,0,0,0,0,0,0,0,0,-1,1182,995,0,0
-35,29,0,0,0,0,0,0,0,0,0,-1,1189,995,0,0
-28,29,0,0,0,0,0,0,0,0,0,-1,1196,995,0,0
-21,29,0,0,0,0,0,0,0,0,0,-1,1203,995,0,0
-14,29,0,0,0,0,0,0,0,0,0,-1,1210,995,0,0
-7,29,0,0,0,0,0,0,0,0,0,-1,1217,995,0,0
0,29,0,0,0,0,0,0,0,0,0,-1,1224,995,0,0
7,29,0,0,0,0,0,0,0,0,0,-1,1231,995,0,0
14,29,0,0,0,0,0,0,0,0,0,-1,1238,995,0,0
21,29,0,0,0,0,0,0,0,0,0,-1,1245,995,0,0
28,29,0,0,0,0,0,0,0,0,0,-1,1252,995,0,0
35,29,0,0,0,0,0,0,0,0,0,-1,1259,995,0,0
42,29,0,0,0,0,0,0,0,0,0,-1,1266,995,0,0
49,29,0,0,0,0,0,0,0,0,0,-1,1273,995,0,0
56,29,0,0,0,0,0,0,0,0,0,-1,1280,995,0,0
63,29,0,0,0,0,0,0,0,0,0,-1,1287,995,0,0
70,29,0,0,0,0,0,0,0,0,0,-1,1294,995,0,0
77,29,0,0,0,0,0,0,0,0,0,-1,1301,995,0,0
84,29,0,0,0,0,0,0,0,0,0,-1,1308,995,0,0
91,29,0,0,0,0,0,0,0,0,0,-1,1315,995,0,0
98,29,0,0,0,0,0,0,0,0,0,-1,1322,995,0,0
105,29,0,0,0,0,0,0,0,0,0,-1,1329,995,0,0
112,29,0,0,0,0,0,0,0,0,0,-1,1336,995,0,0
119,29,0,0,0,0,0,0,0,0,0,-1,1343,995,0,0
126,29,0,0,0,0,0,0,0,0,0,-1,1350,995,0,0
133,29,0,0,0,0,0,0,0,0,0,-1,1357,995,0,0
140,29,0,0,0,0,0,0,0,0,0,-1,1364,995,0,0
147,29,0,0,0,0,0,0,0,0,0,-1,1371,995,0,0
154,29,0,0,0,0,0,0,0,0,0,-1,1378,995,0,0
161,29,0,0,0,0,0,0,0,0,0,-1,1385,995,0,0
168,29,0,0,0,0,0,0,0,0,0,-1,1392,995,0,0
175,29,0,0,0,0,0,0,0,0,0,-1,1399,995,0,0
182,29,0,0,0,0,0,0,0,0,0,-1,1406,995,0,0
189,29,0,0,0,0,0,0,0,0,0,-1,1413,995,0,0
196,29,0,0,0,0,0,0,0,0,0,-1,1420,995,0,0
203,29,0,0,0,0,0,0,0,0,0,-1,1427,995,0,0
210,29,0,0,0,0,0,0,0,0,0,-1,1434,995,0,0
217,29,0,0,0,0,0,0,0,0,0,-1,1441,995,0,0
224,29,0,0,0,0,0,0,0,0,0,-1,1448,995,0,0
231,29,0,0,0,0,0,0,0,0,0,-1,1455,995,0,0
238,29,0,0,0,0,0,0,0,0,0,-1,1462,995,0,0
245,29,0,0,0,0,0,0,0,0,0,-1,1469,995,0,0
252,29,0,0,0,0,0,0,0,0,0,-1,1476,995,0,0
259,29,0,0,0,0,0,0,0,0,0,-1,1483,995,0,0
266,29,0,0,0,0,0,0,0,0,0,-1,1490,995,0,0
273,29,0,0,0,0,0,0,0,0,0,-1,1497,995,0,0
280,29,0,0,0,0,0,0,0,0,0,-1,1504,995,0,0
287,29,0,0,0,0,0,0,0,0,0,-1,1511,995,0,0
294,29,0,0,0,0,0,0,0,0,0,-1,1518,995,0,0
301,29,0,0,0,0,0,0,0,0,0,-1,1525,995,0,0
308,29,0,0,0,0,0,0,0,0,0,-1,1532,995,0,0
315,29,0,0,0,0,0,0,0,0,0,-1,1539,995,0,0
322,29,0,0,0,0,0,0,0,0,0,-1,1546,995,0,0
329,29,0,0,0,0,0,0,0,0,0,-1,1553,995,0,0
336,29,0,0,0,0,0,0,0,0,0,-1,1560,995,0,0
343,29,0,0,0,0,0,0,0,0,0,-1,1567,995,0,0
350,29,0,0,0,0,0,0,0,0,0,-1,1574,995,0,0
357,29,0,0,0,0,0,0,0,0,0,-1,1581,995,0,0
364,29,0,0,0,0,0,0,0,0,0,-1,1588,995,0,0
371,29,0,0,0,0,0,0,0,0,0,-1,1595,995,0,0
378,29,0,0,0,0,0,0,0,0,0,-1,1602,995,0,0
385,29,0,0,0,0,0,0,0,0,0,-1,1609,995,0,0
392,29,0,0,0,0,0,0,0,0,0,-1,1616,995,0,0
399,29,0,0,0,0,0,0,0,0,0,-1,1623,995,0,0
406,29,0,0,0,0,0,0,0,0,0,-1,1630,995,0,0
413,29,0,0,0,0,0,0,0,0,0,-1,1637,995,0,0
420,29,0,0,0,0,0,0,0,0,0,-1,1644,995,0,0
427,29,0,0,0,0,0,0,0,0,0,-1,1651,995,0,0
434,29,0,0,0,0,0,0,0,0,0,-1,1658,995,0,0
441,29,0,0,0,0,0,0,0,0,0,-1,1665,995,0,0
448,29,0,0,0,0,0,0,0,0,0,-1,1672,995,0,0
455,29,0,0,0,0,0,0,0,0,0,-1,1679,995,0,0
462,29,0,0,0,0,0,0,0,0,0,-1,1686,995,0,0
469,29,0,0,0,0,0,0,0,0,0,-1,1693,995,0,0
476,29,0,0,0,0,0,0,0,0,0,-1,1700,995,0,0
483,29,0,0,0,0,0,0,0,0,0,-1,1707,995,0,0
490,29,0,0,0,0,0,0,0,0,0,-1,1714,995,0,0
497,29,0,0,0,0,0,0,0,0,0,-1,1721,995,0,0
504,29,0,0,0,0,0,0,0,0,0,-1,1728,995,0,0
511,29,0,0,0,0,0,0,0,0,0,-1,1735,995,0,0
518,29,0,0,0,0,0,0,0,0,0,-1,1742,995,0,0
525,29,0,0,0,0,0,0,0,0,0,-1,1749,995,0,0
532,29,0,0,0,0,0,0,0,0,0,-1,1756,995,0,0
539,29,0,0,0,0,0,0,0,0,0,-1,1763,995,0,0
546,29,0,0,0,0,0,0,0,0,0,-1,1770,995,0,0
553,29,0,0,0,0,0,0,0,0,0,-1,1777,995,0,0
560,29,0,0,0,0,0,0,0,0,0,-1,1784,995,0,0
567,29,0,0,0,0,0,0,0,0,0,-1,1791,995,0,0
574,29,0,0,0,0,0,0,0,0,0,-1,1798,995,0,0
581,29,0,0,0,0,0,0,0,0,0,-1,1805,995,0,0
588,29,0,0,0,0,0,0,0,0,0,-1,1812,995,0,0
595,29,0,0,0,0,0,0,0,0,0,-1,1819,995,0,0
602,29,0,0,0,0,0,0,0,0,0,-1,1826,995,0,0
609,29,0,0,0,0,0,0,0,0,0,-1,1833,995,0,0
616,29,0,0,0,0,0,0,0,0,0,-1,1840,995,0,0
623,29,0,0,0,0,0,0,0,0,0,-1,1847,995,0,0
630,29,0,0,0,0,0,0,0,0,0,-1,1854,995,0,0
637,29,0,0,0,0,0,0,0,0,0,-1,1861,995,0,0
644,29,19.5054,2.79144,0.00730554,-0.00304981,-0.00368831,0.0084849,-0.00422917,-0.309483,0.00747629,0.0419448,1868,995,19.5054,-2.79146
651,29,19.4387,2.99542,0.0052401,-0.00200537,-0.00388575,0.00692992,-0.00369519,-0.410207,0.00622845,0.0425276,1875,995,19.4387,-2.99541
658,29,19.5649,2.57367,0.00358025,-0.00123476,-0.00351388,0.00543226,-0.00308676,-0.485056,0.00498021,0.0429116,1882,995,19.5649,-2.57364
665,29,19.7439,2.43317,0.00206484,-0.000484992,-0.00263148,0.00371398,-0.00213414,-0.559819,0.00341723,0.0427212,1889,995,19.7439,-2.43316
672,29,19.593,2.26501,0.000486305,0.000340787,-0.00135262,0.00176812,-0.00094103,-0.758528,0.00158824,0.0402935,1896,995,19.5931,-2.26502
679,29,19.5126,2.23352,-0.00121536,0.00105902,9.81713e-05,0.00106325,-0.00121959,1.52774,0.00131902,0.040138,1903,995,19.5125,-2.23352
686,29,19.3394,2.3147,-0.00260958,0.00155909,0.00139664,0.00198375,-0.00303424,1.27562,0.00291822,0.0366565,1910,995,19.3394,-2.31467
693,29,19.3658,2.44885,-0.00365862,0.00188235,0.00243925,0.00280315,-0.00457941,1.20984,0.00430325,0.0354555,1917,995,19.3658,-2.44886
700,29,19.4166,2.43774,-0.00450419,0.00216749,0.0031723,0.00343505,-0.00577176,1.19066,0.00537232,0.033818,1924,995,19.4166,-2.43774
707,29,19.4222,2.40558,-0.00511849,0.00229104,0.00370197,0.00382362,-0.00665108,1.17829,0.00612057,0.0259421,1931,995,19.4222,-2.40559
714,29,19.4829,2.52887,-0.00548876,0.00233892,0.0039805,0.00400742,-0.00715726,1.17388,0.00653088,0.032149,1938,995,19.483,-2.52886
721,29,19.2485,3.07147,0,0,0,0,0,0,0,-1,1945,995,19.2485,-3.07149
728,29,18.9965,3.28522,-0.00553486,0.00231742,0.00392295,0.00394143,-0.00715886,1.1783,0.00649787,0.0227041,1952,995,18.9965,-3.28521
735,29,18.8661,3.45532,-0.00533467,0.00228923,0.00356571,0.00369698,-0.00674242,1.19478,0.00611209,0.0144788,1959,995,18.8661,-3.45535
742,29,18.8749,3.49127,-0.0049759,0.00238475,0.00280239,0.00333024,-0.00592139,1.2454,0.00541081,0.0123353,1966,995,18.8748,-3.49126
749,29,18.8771,3.54712,-0.0044085,0.00117738,0.00190426,0.00176478,-0.0049959,1.27159,0.00404915,0.0128203,1973,995,18.8771,-3.54714
756,29,18.8762,3.59784,-0.00389598,-0.00055985,0.00178788,0.000217272,-0.00467311,1.16077,0.0031903,0.0117489,1980,995,18.8762,-3.59781
763,29,18.8585,3.63055,-0.00390779,-0.00344851,0.00209849,-0.00156714,-0.00578917,0.839897,0.00345755,0.0124668,1987,995,18.8585,-3.63057
770,29,18.8159,3.66754,-0.00383134,-0.00713604,0.00269863,-0.00231938,-0.008648,0.510694,0.00516869,0.0133859,1994,995,18.8159,-3.66751
777,29,18.7939,3.78583,-0.00410535,-0.0123187,0.00423366,-0.00231383,-0.0141102,0.400311,0.00873825,0.0215883,2001,995,18.794,-3.78581
784,29,18.7601,3.93713,-0.00504671,-0.0195256,0.00685873,-0.00231361,-0.0222587,0.3792,0.0141312,0.0419515,2008,995,18.7601,-3.93711
791,29,18.7411,4.10211,-0.00651551,-0.0293475,0.0107393,-0.00225806,-0.033605,0.377431,0.0216898,0.0452349,2015,995,18.741,-4.10214
798,29,18.3661,1.46271,-0.00846642,-0.042239,0.0161502,-0.00198661,-0.0487188,0.38156,0.0318377,0.043235,2022,995,18.3661,-1.46268
805,29,20.1821,2.00092,-0.0111536,-0.0585157,0.0234968,-0.00147463,-0.0681947,0.390747,0.0449796,0.0459673,2029,995,20.1822,-2.00093
812,29,19.2253,2.49255,-0.015025,-0.0783917,0.0332991,-0.000744645,-0.0926721,0.405129,0.0615347,0.0482854,2036,995,19.2253,-2.49253
-700,22,0,0,0,0,0,0,0,0,0,-1,524,1002,0,0
-693,22,-16.4384,1.97937,0.102201,0.0133507,0.0379383,0.116196,-0.00064433,0.353401,0.0776796,0.0416059,531,1002,-16.4384,-1.9794
-686,22,-16.1792,1.48181,0.0902334,0.0142471,0.038323,0.106204,-0.00172396,0.39486,0.0713846,0.0456414,538,1002,-16.1792,-1.48183
-679,22,-16.3005,4.65741,0.0764201,0.0136562,0.0355542,0.092461,-0.00238476,0.423825,0.0624508,0.0458716,545,1002,-16.3005,-4.65742
-672,22,-15.1194,5.82861,0,0,0,0,0,0,0,-1,552,1002,-15.1194,-5.82861
-665,22,-11.85,0.506287,0,0,0,0,0,0,0,-1,559,1002,-11.85,-0.506265
-658,22,-12.7341,1.17365,0,0,0,0,0,0,0,-1,566,1002,-12.7341,-1.17363
-651,22,-12.5779,1.24664,0.0270055,0.00730068,0.0162522,0.0361585,-0.00185226,0.512908,0.0247462,0.0369552,573,1002,-12.5779,-1.24662
-644,22,-12.48,1.27753,0.0184726,0.00564094,0.0117893,0.0254788,-0.00136529,0.536207,0.0174587,0.0176768,580,1002,-12.48,-1.27756
-637,22,-12.5549,1.23175,0.0115606,0.00493074,0.00821685,0.017106,-0.000614668,0.593669,0.0116143,0.012667,587,1002,-12.5549,-1.23174
-630,22,-12.5677,1.22266,0.00505637,0.0038537,0.00409256,0.00859154,0.000318536,0.712453,0.00562452,0.0100439,594,1002,-12.5677,-1.22265
-623,22,-12.567,1.2038,-1.1632e-05,0.000865122,0.000744916,0.00129108,-0.000437589,1.05136,0.0010378,0.00924322,601,1002,-12.5669,-1.20379
-616,22,-12.576,1.17883,-0.00138417,0.00102186,-0.00121382,0.00152782,-0.00189013,-1.17586,0.00197705,0.0159862,608,1002,-12.576,-1.17882
-609,22,-12.6373,1.15607,-0.00114001,0.000862225,-0.00227368,0.00234543,-0.00262321,-0.99278,0.00287014,0.0265148,615,1002,-12.6373,-1.15606
-602,22,-12.6772,1.11078,-0.000966589,0.000984569,-0.00334288,0.00349132,-0.00347334,-0.927374,0.00402105,0.0257137,622,1002,-12.6772,-1.1108
-595,22,-12.5728,1.04993,-0.000983157,0.00084585,-0.0039833,0.00401828,-0.00415558,-0.898235,0.0047194,0.0210013,629,1002,-12.5728,-1.04991
-588,22,-12.5594,0.78125,-0.00102742,0.000712497,-0.00413988,0.00407284,-0.00438776,-0.888961,0.00488586,0.0272393,636,1002,-12.5595,-0.781226
-581,22,-12.6048,0.516296,-0.00114052,0.000601841,-0.00388376,0.00371093,-0.00424961,-0.895729,0.00459953,0.0399663,643,1002,-12.6048,-0.516271
-574,22,-12.6062,0.467651,-0.00128036,0.000421737,-0.0036383,0.0033072,-0.00416582,-0.90029,0.00432403,0.0344477,650,1002,-12.6062,-0.467678
-567,22,-12.6085,0.392578,-0.00152351,0.000259753,-0.00304764,0.00254351,-0.00380727,-0.927709,0.00369074,0.0309072,657,1002,-12.6085,-0.392598
-560,22,-12.6811,0.569092,-0.00184138,1.56732e-05,-0.00216694,0.00144465,-0.00327035,-0.987812,0.0027894,0.0359543,664,1002,-12.6811,-0.569072
-553,22,-12.7523,0.850342,-0.00230443,-0.000351586,-0.00102193,8.54043e-05,-0.00274142,-1.16671,0.00185674,0.0413079,671,1002,-12.7523,-0.850317
-546,22,-12.6602,0.716064,-0.00295859,-0.000886826,0.000351491,-0.000828817,-0.0030166,1.40723,0.00179958,0.0419566,678,1002,-12.6602,-0.71606
-539,22,-12.6472,0.434875,-0.00379879,-0.00164625,0.00174487,-0.000672411,-0.00477262,1.06175,0.00298298,0.04045,685,1002,-12.6472,-0.434886
-532,22,-12.6935,0.661316,-0.00521502,-0.00230258,0.00271857,-0.00067478,-0.00684283,1.03128,0.00435442,0.0413432,692,1002,-12.6935,-0.661305
-525,22,0,0,0,0,0,0,0,0,0,-1,699,1002,0,0
-518,22,0,0,0,0,0,0,0,0,0,-1,706,1002,0,0
-511,22,0,0,0,0,0,0,0,0,0,-1,713,1002,0,0
-504,22,0,0,0,0,0,0,0,0,0,-1,720,1002,0,0
-497,22,0,0,0,0,0,0,0,0,0,-1,727,1002,0,0
-490,22,0,0,0,0,0,0,0,0,0,-1,734,1002,0,0
-483,22,0,0,0,0,0,0,0,0,0,-1,741,1002,0,0
-476,22,0,0,0,0,0,0,0,0,0,-1,748,1002,0,0
-469,22,0,0,0,0,0,0,0,0,0,-1,755,1002,0,0
-462,22,0,0,0,0,0,0,0,0,0,-1,762,1002,0,0
-455,22,0,0,0,0,0,0,0,0,0,-1,769,1002,0,0
-448,22,0,0,0,0,0,0,0,0,0,-1,776,1002,0,0
-441,22,0,0,0,0,0,0,0,0,0,-1,783,1002,0,0
-434,22,0,0,0,0,0,0,0,0,0,-1,790,1002,0,0
-427,22,0,0,0,0,0,0,0,0,0,-1,797,1002,0,0
-420,22,0,0,0,0,0,0,0,0,0,-1,804,1002,0,0
-413,22,0,0,0,0,0,0,0,0,0,-1,811,1002,0,0
-406,22,0,0,0,0,0,0,0,0,0,-1,818,1002,0,0
-399,22,0,0,0,0,0,0,0,0,0,-1,825,1002,0,0
-392,22,0,0,0,0,0,0,0,0,0,-1,832,1002,0,0
-385,22,0,0,0,0,0,0,0,0,0,-1,839,1002,0,0
-378,22,0,0,0,0,0,0,0,0,0,-1,846,1002,0,0
-371,22,0,0,0,0,0,0,0,0,0,-1,853,1002,0,0
-364,22,0,0,0,0,0,0,0,0,0,-1,860,1002,0,0
-357,22,0,0,0,0,0,0,0,0,0,-1,867,1002,0,0
-350,22,0,0,0,0,0,0,0,0,0,-1,874,1002,0,0
-343,22,0,0,0,0,0,0,0,0,0,-1,881,1002,0,0
-336,22,0,0,0,0,0,0,0,0,0,-1,888,1002,0,0
-329,22,0,0,0,0,0,0,0,0,0,-1,895,1002,0,0
-322,22,0,0,0,0,0,0,0,0,0,-1,902,1002,0,0
-315,22,0,0,0,0,0,0,0,0,0,-1,909,1002,0,0
-308,22,0,0,0,0,0,0,0,0,0,-1,916,1002,0,0
-301,22,0,0,0,0,0,0,0,0,0,-1,923,1002,0,0
-294,22,0,0,0,0,0,0,0,0,0,-1,930,1002,0,0
-287,22,0,0,0,0,0,0,0,0,0,-1,937,1002,0,0
-280,22,0,0,0,0,0,0,0,0,0,-1,944,1002,0,0
-273,22,0,0,0,0,0,0,0,0,0,-1,951,1002,0,0
-266,22,0,0,0,0,0,0,0,0,0,-1,958,1002,0,0
-259,22,0,0,0,0,0,0,0,0,0,-1,965,1002,0,0
-252,22,0,0,0,0,0,0,0,0,0,-1,972,1002,0,0
-245,22,0,0,0,0,0,0,0,0,0,-1,979,1002,0,0
-238,22,0,0,0,0,0,0,0,0,0,-1,986,1002,0,0
-231,22,0,0,0,0,0,0,0,0,0,-1,993,1002,0,0
-224,22,0,0,0,0,0,0,0,0,0,-1,1000,1002,0,0
-217,22,0,0,0,0,0,0,0,0,0,-1,1007,1002,0,0
-210,22,0,0,0,0,0,0,0,0,0,-1,1014,1002,0,0
-203,22,0,0,0,0,0,0,0,0,0,-1,1021,1002,0,0
-196,22,0,0,0,0,0,0,0,0,0,-1,1028,1002,0,0
-189,22,0,0,0,0,0,0,0,0,0,-1,1035,1002,0,0
-182,22,0,0,0,0,0,0,0,0,0,-1,1042,1002,0,0
-175,22,0,0,0,0,0,0,0,0,0,-1,1049,1002,0,0
-168,22,0,0,0,0,0,0,0,0,0,-1,1056,1002,0,0
-161,22,0,0,0,0,0,0,0,0,0,-1,1063,1002,0,0
-154,22,0,0,0,0,0,0,0,0,0,-1,1070,1002,0,0
-147,22,0,0,0,0,0,0,0,0,0,-1,1077,1002,0,0
-140,22,0,0,0,0,0,0,0,0,0,-1,1084,1002,0,0
-133,22,0,0,0,0,0,0,0,0,0,-1,1091,1002,0,0
-126,22,0,0,0,0,0,0,0,0,0,-1,1098,1002,0,0
-119,22,0,0,0,0,0,0,0,0,0,-1,1105,1002,0,0
-112,22,0,0,0,0,0,0,0,0,0,-1,1112,1002,0,0
-105,22,0,0,0,0,0,0,0,0,0,-1,1119,1002,0,0
-98,22,0,0,0,0,0,0,0,0,0,-1,1126,1002,0,0
-91,22,0,0,0,0,0,0,0,0,0,-1,1133,1002,0,0
-84,22,0,0,0,0,0,0,0,0,0,-1,1140,1002,0,0
-77,22,0,0,0,0,0,0,0,0,0,-1,1147,1002,0,0
-70,22,0,0,0,0,0,0,0,0,0,-1,1154,1002,0,0
-63,22,0,0,0,0,0,0,0,0,0,-1,1161,1002,0,0
-56,22,0,0,0,0,0,0,0,0,0,-1,1168,1002,0,0
-49,22,0,0,0,0,0,0,0,0,0,-1,1175,1002,0,0
-42,22,0,0,0,0,0,0,0,0,0,-1,1182,1002,0,0
-35,22,0,0,0,0,0,0,0,0,0,-1,1189,1002,0,0
-28,22,0,0,0,0,0,0,0,0,0,-1,1196,1002,0,0
-21,22,0,0,0,0,0,0,0,0,0,-1,1203,1002,0,0
-14,22,0,0,0,0,0,0,0,0,0,-1,1210,1002,0,0
-7,22,0,0,0,0,0,0,0,0,0,-1,1217,1002,0,0
0,22,0,0,0,0,0,0,0,0,0,-1,1224,1002,0,0
7,22,0,0,0,0,0,0,0,0,0,-1,1231,1002,0,0
14,22,0,0,0,0,0,0,0,0,0,-1,1238,1002,0,0
21,22,0,0,0,0,0,0,0,0,0,-1,1245,1002,0,0
28,22,0,0,0,0,0,0,0,0,0,-1,1252,1002,0,0
35,22,0,0,0,0,0,0,0,0,0,-1,1259,1002,0,0
42,22,0,0,0,0,0,0,0,0,0,-1,1266,1002,0,0
49,22,0,0,0,0,0,0,0,0,0,-1,1273,1002,0,0
56,22,0,0,0,0,0,0,0,0,0,-1,1280,1002,0,0
63,22,0,0,0,0,0,0,0,0,0,-1,1287,1002,0,0
70,22,0,0,0,0,0,0,0,0,0,-1,1294,1002,0,0
77,22,0,0,0,0,0,0,0,0,0,-1,1301,1002,0,0
84,22,0,0,0,0,0,0,0,0,0,-1,1308,1002,0,0
91,22,0,0,0,0,0,0,0,0,0,-1,1315,1002,0,0
98,22,0,0,0,0,0,0,0,0,0,-1,1322,1002,0,0
105,22,0,0,0,0,0,0,0,0,0,-1,1329,1002,0,0
112,22,0,0,0,0,0,0,0,0,0,-1,1336,1002,0,0
119,22,0,0,0,0,0,0,0,0,0,-1,1343,1002,0,0
126,22,0,0,0,0,0,0,0,0,0,-1,1350,1002,0,0
133,22,0,0,0,0,0,0,0,0,0,-1,1357,1002,0,0
140,22,0,0,0,0,0,0,0,0,0,-1,1364,1002,0,0
147,22,0,0,0,0,0,0,0,0,0,-1,1371,1002,0,0
154,22,0,0,0,0,0,0,0,0,0,-1,1378,1002,0,0
161,22,0,0,0,0,0,0,0,0,0,-1,1385,1002,0,0
168,22,0,0,0,0,0,0,0,0,0,-1,1392,1002,0,0
175,22,0,0,0,0,0,0,0,0,0,-1,1399,1002,0,0
182,22,0,0,0,0,0,0,0,0,0,-1,1406,1002,0,0
189,22,0,0,0,0,0,0,0,0,0,-1,1413,1002,0,0
196,22,0,0,0,0,0,0,0,0,0,-1,1420,1002,0,0
203,22,0,0,0,0,0,0,0,0,0,-1,1427,1002,0,0
210,22,0,0,0,0,0,0,0,0,0,-1,1434,1002,0,0
217,22,0,0,0,0,0,0,0,0,0,-1,1441,1002,0,0
224,22,0,0,0,0,0,0,0,0,0,-1,1448,1002,0,0
231,22,0,0,0,0,0,0,0,0,0,-1,1455,1002,0,0
238,22,0,0,0,0,0,0,0,0,0,-1,1462,1002,0,0
245,22,0,0,0,0,0,0,0,0,0,-1,1469,1002,0,0
252,22,0,0,0,0,0,0,0,0,0,-1,1476,1002,0,0
259,22,0,0,0,0,0,0,0,0,0,-1,1483,1002,0,0
266,22,0,0,0,0,0,0,0,0,0,-1,1490,1002,0,0
273,22,0,0,0,0,0,0,0,0,0,-1,1497,1002,0,0
280,22,0,0,0,0,0,0,0,0,0,-1,1504,1002,0,0
287,22,0,0,0,0,0,0,0,0,0,-1,1511,1002,0,0
294,22,0,0,0,0,0,0,0,0,0,-1,1518,1002,0,0
301,22,0,0,0,0,0,0,0,0,0,-1,1525,1002,0,0
308,22,0,0,0,0,0,0,0,0,0,-1,1532,1002,0,0
315,22,0,0,0,0,0,0,0,0,0,-1,1539,1002,0,0
322,22,0,0,0,0,0,0,0,0,0,-1,1546,1002,0,0
329,22,0,0,0,0,0,0,0,0,0,-1,1553,1002,0,0
336,22,0,0,0,0,0,0,0,0,0,-1,1560,1002,0,0
343,22,0,0,0,0,0,0,0,0,0,-1,1567,1002,0,0
350,22,0,0,0,0,0,0,0,0,0,-1,1574,1002,0,0
357,22,0,0,0,0,0,0,0,0,0,-1,1581,1002,0,0
364,22,0,0,0,0,0,0,0,0,0,-1,1588,1002,0,0
371,22,0,0,0,0,0,0,0,0,0,-1,1595,1002,0,0
378,22,0,0,0,0,0,0,0,0,0,-1,1602,1002,0,0
385,22,0,0,0,0,0,0,0,0,0,-1,1609,1002,0,0
392,22,0,0,0,0,0,0,0,0,0,-1,1616,1002,0,0
399,22,0,0,0,0,0,0,0,0,0,-1,1623,1002,0,0
406,22,0,0,0,0,0,0,0,0,0,-1,1630,1002,0,0
413,22,0,0,0,0,0,0,0,0,0,-1,1637,1002,0,0
420,22,0,0,0,0,0,0,0,0,0,-1,1644,1002,0,0
427,22,0,0,0,0,0,0,0,0,0,-1,1651,1002,0,0
434,22,0,0,0,0,0,0,0,0,0,-1,1658,1002,0,0
441,22,0,0,0,0,0,0,0,0,0,-1,1665,1002,0,0
448,22,0,0,0,0,0,0,0,0,0,-1,1672,1002,0,0
455,22,0,0,0,0,0,0,0,0,0,-1,1679,1002,0,0
462,22,0,0,0,0,0,0,0,0,0,-1,1686,1002,0,0
469,22,0,0,0,0,0,0,0,0,0,-1,1693,1002,0,0
476,22,0,0,0,0,0,0,0,0,0,-1,1700,1002,0,0
483,22,0,0,0,0,0,0,0,0,0,-1,1707,1002,0,0
490,22,0,0,0,0,0,0,0,0,0,-1,1714,1002,0,0
497,22,0,0,0,0,0,0,0,0,0,-1,1721,1002,0,0
504,22,0,0,0,0,0,0,0,0,0,-1,1728,1002,0,0
511,22,0,0,0,0,0,0,0,0,0,-1,1735,1002,0,0
518,22,0,0,0,0,0,0,0,0,0,-1,1742,1002,0,0
525,22,0,0,0,0,0,0,0,0,0,-1,1749,1002,0,0
532,22,0,0,0,0,0,0,0,0,0,-1,1756,1002,0,0
539,22,0,0,0,0,0,0,0,0,0,-1,1763,1002,0,0
546,22,0,0,0,0,0,0,0,0,0,-1,1770,1002,0,0
553,22,0,0,0,0,0,0,0,0,0,-1,1777,1002,0,0
560,22,0,0,0,0,0,0,0,0,0,-1,1784,1002,0,0
567,22,0,0,0,0,0,0,0,0,0,-1,1791,1002,0,0
574,22,0,0,0,0,0,0,0,0,0,-1,1798,1002,0,0
581,22,0,0,0,0,0,0,0,0,0,-1,1805,1002,0,0
588,22,0,0,0,0,0,0,0,0,0,-1,1812,1002,0,0
595,22,0,0,0,0,0,0,0,0,0,-1,1819,1002,0,0
602,22,0,0,0,0,0,0,0,0,0,-1,1826,1002,0,0
609,22,0,0,0,0,0,0,0,0,0,-1,1833,1002,0,0
616,22,0,0,0,0,0,0,0,0,0,-1,1840,1002,0,0
623,22,0,0,0,0,0,0,0,0,0,-1,1847,1002,0,0
630,22,0,0,0,0,0,0,0,0,0,-1,1854,1002,0,0
637,22,0,0,0,0,0,0,0,0,0,-1,1861,1002,0,0
644,22,19.4532,2.82532,0.00805226,-0.00242822,-0.00350638,0.00911716,-0.00349312,-0.294852,0.00751804,0.0403259,1868,1002,19.4532,-2.82533
651,22,19.3903,2.65845,0.00572236,-0.00168014,-0.00375178,0.00729132,-0.00324909,-0.396089,0.00623289,0.0421347,1875,1002,19.3903,-2.65846
658,22,19.5233,2.50781,0.0039042,-0.00114377,-0.00342702,0.00563638,-0.00287595,-0.467997,0.005,0.0423987,1882,1002,19.5234,-2.50782
665,22,19.6156,2.45825,0.0023299,-0.000595815,-0.00262237,0.00386984,-0.00213576,-0.530978,0.00351518,0.0411854,1889,1002,19.6156,-2.45823
672,22,19.5299,2.2027,0.000777739,7.40309e-05,-0.00137654,0.00184668,-0.000994913,-0.660274,0.00166498,0.0402333,1896,1002,19.5299,-2.20269
679,22,19.4655,2.02643,-0.000906386,0.000701279,0.00010357,0.000707924,-0.000913031,1.50673,0.000938353,0.0419055,1903,1002,19.4654,-2.02642
686,22,19.3367,2.23584,-0.00228978,0.00115306,0.00145124,0.00168317,-0.00281989,1.22057,0.00262731,0.0386823,1910,1002,19.3366,-2.23582
693,22,19.3943,2.42072,-0.00333855,0.00147245,0.00255662,0.00257733,-0.00444342,1.16288,0.00410088,0.0342638,1917,1002,19.3943,-2.42074
700,22,19.4889,2.42657,-0.00417054,0.00174083,0.00334837,0.00325142,-0.00568113,1.14699,0.00522042,0.0324844,1924,1002,19.4889,-2.42657
707,22,19.3822,2.53174,-0.00475747,0.00185837,0.00392449,0.00368309,-0.00658219,1.13557,0.00600493,0.0326316,1931,1002,19.3822,-2.53171
714,22,19.4198,2.54059,-0.00512198,0.00194803,0.00424333,0.0039359,-0.00710984,1.13269,0.00646443,0.0333966,1938,1002,19.4198,-2.54061
721,22,19.5448,2.60278,0,0,0,0,0,0,0,-1,1945,1002,19.5448,-2.60281
728,22,18.8982,3.40784,0,0,0,0,0,0,0,-1,1952,1002,18.8981,-3.40786
735,22,18.9344,3.4613,-0.00511019,0.00206341,0.00391045,0.0037829,-0.00682968,1.15653,0.00621077,0.0149601,1959,1002,18.9344,-3.46132
742,22,18.9203,3.50208,-0.00482594,0.00216964,0.00315212,0.00338039,-0.00603669,1.20406,0.00550858,0.0154813,1966,1002,18.9203,-3.50208
749,22,18.918,3.55585,-0.00437672,0.000899852,0.00227153,0.001743,-0.00521987,1.21538,0.00418375,0.0117438,1973,1002,18.918,-3.55583
756,22,18.9279,3.56335,-0.00392602,-0.000847459,0.00219293,0.000292501,-0.00506598,1.09141,0.00347892,0.0153473,1980,1002,18.9278,-3.56336
763,22,18.8951,3.638,-0.00392384,-0.00377915,0.00253205,-0.00131841,-0.00638458,0.79968,0.00389208,0.0171906,1987,1002,18.8952,-3.63802
770,22,18.8928,3.69092,-0.00383841,-0.00749755,0.00309088,-0.0020762,-0.00925976,0.518168,0.00561065,0.0114508,1994,1002,18.8928,-3.69094
777,22,18.849,3.7608,-0.00398993,-0.01278,0.0045879,-0.0020316,-0.0147383,0.403434,0.00922321,0.019659,2001,1002,18.849,-3.7608
784,22,18.7664,3.80389,-0.00467233,-0.0200303,0.00719269,-0.00182983,-0.0228728,0.376356,0.0146766,0.0418635,2008,1002,18.7663,-3.80387
791,22,18.688,3.86829,0,0,0,0,0,0,0,-1,2015,1002,18.688,-3.86828
798,22,18.4904,2.4787,-0.00705834,-0.042461,0.0162383,-0.000738421,-0.0487809,0.371159,0.0322773,0.0479505,2022,1002,18.4904,-2.47868
805,22,18.2811,2.66858,-0.00876646,-0.0583941,0.0232441,0.000419945,-0.0675805,0.376374,0.0451943,0.0487984,2029,1002,18.2811,-2.6686
812,22,18.8816,2.96948,-0.0111636,-0.0777814,0.0324523,0.00203168,-0.0909766,0.386187,0.0613395,0.0418466,2036,1002,18.8815,-2.96948
-700,15,0,0,0,0,0,0,0,0,0,-1,524,1009,0,0
-693,15,-16.0369,2.30933,0.0965441,0.0223645,0.0202324,0.101704,0.017205,0.24969,0.0628572,0.046224,531,1009,-16.0369,-2.30932
-686,15,-15.6796,1.76544,0.085026,0.0223126,0.0217044,0.0918049,0.0155337,0.302729,0.0567386,0.0450318,538,1009,-15.6796,-1.76546
-679,15,-15.0847,1.05267,0.0718592,0.020643,0.0208548,0.0792768,0.0132254,0.341724,0.0490408,0.0470833,545,1009,-15.0847,-1.05269
-672,15,-14.1816,0.635681,0,0,0,0,0,0,0,-1,552,1009,-14.1816,-0.635699
-665,15,-12.6313,1.13422,0,0,0,0,0,0,0,-1,559,1009,-12.6313,-1.13424
-658,15,-12.5829,1.12628,0.0349785,0.01267,0.0130711,0.0410077,0.00664079,0.432179,0.0254157,0.0429947,566,1009,-12.583,-1.12629
-651,15,-12.4843,1.21027,0.0252353,0.00995173,0.0101319,0.0302842,0.00490285,0.462298,0.0187698,0.0378718,573,1009,-12.4843,-1.21029
-644,15,-12.5463,1.26929,0.0173682,0.00745894,0.00737549,0.0212987,0.0035284,0.489635,0.0131814,0.0197367,580,1009,-12.5463,-1.26927
-637,15,-12.5643,1.25635,0.0108955,0.00605249,0.00514926,0.0141642,0.00278377,0.565612,0.00866522,0.0151412,587,1009,-12.5643,-1.25638
-630,15,-12.5704,1.21796,0.004942,0.00443807,0.00223797,0.00694215,0.00243792,0.72934,0.0040668,0.0105656,594,1009,-12.5705,-1.21796
-623,15,-12.5886,1.20929,0.000351229,0.00105715,-0.000121246,0.00107739,0.000330985,-1.40535,0.000637259,0.00835366,601,1009,-12.5886,-1.2093
-616,15,-12.5966,1.1839,-0.000924077,0.00103923,-0.0017485,0.0020628,-0.00194764,-1.04119,0.00231575,0.013266,608,1009,-12.5966,-1.18391
-609,15,-12.6388,1.16248,-0.000628091,0.000815696,-0.00272878,0.00291646,-0.00272885,-0.91471,0.00325992,0.0206543,615,1009,-12.6388,-1.16247
-602,15,-12.6373,1.10931,-0.00041812,0.000947172,-0.00373048,0.00405695,-0.0035279,-0.875893,0.00438267,0.019641,622,1009,-12.6373,-1.10933
-595,15,-12.6021,0.877136,-0.000447889,0.000843809,-0.00433745,0.00458323,-0.00418731,-0.859305,0.0050654,0.021298,629,1009,-12.6021,-0.877135
-588,15,-12.5903,0.612427,-0.000509131,0.000758304,-0.00445794,0.00462734,-0.00437817,-0.856003,0.0052,0.0290774,636,1009,-12.5902,-0.612417
-581,15,-12.6004,0.362061,-0.000643426,0.000700416,-0.00412764,0.00421046,-0.00415347,-0.866083,0.00482896,0.0383165,643,1009,-12.6004,-0.362076
-574,15,-12.5695,0.34845,-0.000830923,0.000588507,-0.00378612,0.00373085,-0.00397327,-0.878049,0.00444871,0.031938,650,1009,-12.5695,-0.348442
-567,15,-12.5516,0.371521,-0.00118424,0.000506185,-0.0030726,0.00284771,-0.00352576,-0.919619,0.00368666,0.0316347,657,1009,-12.5517,-0.371543
-560,15,-12.4918,0.541382,-0.00169307,0.000343514,-0.00203653,0.00160214,-0.00295169,-1.01723,0.00266736,0.0375923,664,1009,-12.4918,-0.541399
-553,15,-12.5056,0.705688,-0.00243405,4.58328e-05,-0.000706321,0.000232897,-0.00262111,-1.3119,0.00182999,0.0407603,671,1009,-12.5056,-0.70566
-546,15,-12.63,0.695129,-0.00346058,-0.000444615,0.00087646,-0.000208409,-0.00369679,1.30755,0.00239807,0.0424358,678,1009,-12.63,-0.695159
-539,15,-12.6359,0.424927,-0.00477318,-0.00120583,0.002459,4.82847e-05,-0.0060273,1.09917,0.00403439,0.0420517,685,1009,-12.636,-0.424923
-532,15,-12.7794,0.593262,-0.00674405,-0.00187825,0.00352088,-3.14722e-05,-0.00859082,1.08773,0.00571675,0.0420216,692,1009,-12.7794,-0.593241
-525,15,0,0,0,0,0,0,0,0,0,-1,699,1009,0,0
-518,15,0,0,0,0,0,0,0,0,0,-1,706,1009,0,0
-511,15,0,0,0,0,0,0,0,0,0,-1,713,1009,0,0
-504,15,0,0,0,0,0,0,0,0,0,-1,720,1009,0,0
-497,15,0,0,0,0,0,0,0,0,0,-1,727,1009,0,0
-490,15,0,0,0,0,0,0,0,0,0,-1,734,1009,0,0
-483,15,0,0,0,0,0,0,0,0,0,-1,741,1009,0,0
-476,15,0,0,0,0,0,0,0,0,0,-1,748,1009,0,0
-469,15,0,0,0,0,0,0,0,0,0,-1,755,1009,0,0
-462,15,0,0,0,0,0,0,0,0,0,-1,762,1009,0,0
-455,15,0,0,0,0,0,0,0,0,0,-1,769,1009,0,0
-448,15,0,0,0,0,0,0,0,0,0,-1,776,1009,0,0
-441,15,0,0,0,0,0,0,0,0,0,-1,783,1009,0,0
-434,15,0,0,0,0,0,0,0,0,0,-1,790,1009,0,0
-427,15,0,0,0,0,0,0,0,0,0,-1,797,1009,0,0
-420,15,0,0,0,0,0,0,0,0,0,-1,804,1009,0,0
-413,15,0,0,0,0,0,0,0,0,0,-1,811,1009,0,0
-406,15,0,0,0,0,0,0,0,0,0,-1,818,1009,0,0
-399,15,0,0,0,0,0,0,0,0,0,-1,825,1009,0,0
-392,15,0,0,0,0,0,0,0,0,0,-1,832,1009,0,0
-385,15,0,0,0,0,0,0,0,0,0,-1,839,1009,0,0
-378,15,0,0,0,0,0,0,0,0,0,-1,846,1009,0,0
-371,15,0,0,0,0,0,0,0,0,0,-1,853,1009,0,0
-364,15,0,0,0,0,0,0,0,0,0,-1,860,1009,0,0
-357,15,0,0,0,0,0,0,0,0,0,-1,867,1009,0,0
-350,15,0,0,0,0,0,0,0,0,0,-1,874,1009,0,0
-343,15,0,0,0,0,0,0,0,0,0,-1,881,1009,0,0
-336,15,0,0,0,0,0,0,0,0,0,-1,888,1009,0,0
-329,15,0,0,0,0,0,0,0,0,0,-1,895,1009,0,0
-322,15,0,0,0,0,0,0,0,0,0,-1,902,1009,0,0
-315,15,0,0,0,0,0,0,0,0,0,-1,909,1009,0,0
-308,15,0,0,0,0,0,0,0,0,0,-1,916,1009,0,0
-301,15,0,0,0,0,0,0,0,0,0,-1,923,1009,0,0
-294,15,0,0,0,0,0,0,0,0,0,-1,930,1009,0,0
-287,15,0,0,0,0,0,0,0,0,0,-1,937,1009,0,0
-280,15,0,0,0,0,0,0,0,0,0,-1,944,1009,0,0
-273,15,0,0,0,0,0,0,0,0,0,-1,951,1009,0,0
-266,15,0,0,0,0,0,0,0,0,0,-1,958,1009,0,0
-259,15,0,0,0,0,0,0,0,0,0,-1,965,1009,0,0
-252,15,0,0,0,0,0,0,0,0,0,-1,972,1009,0,0
-245,15,0,0,0,0,0,0,0,0,0,-1,979,1009,0,0
-238,15,0,0,0,0,0,0,0,0,0,-1,986,1009,0,0
-231,15,0,0,0,0,0,0,0,0,0,-1,993,1009,0,0
-224,15,0,0,0,0,0,0,0,0,0,-1,1000,1009,0,0
-217,15,0,0,0,0,0,0,0,0,0,-1,1007,1009,0,0
-210,15,0,0,0,0,0,0,0,0,0,-1,1014,1009,0,0
-203,15,0,0,0,0,0,0,0,0,0,-1,1021,1009,0,0
-196,15,0,0,0,0,0,0,0,0,0,-1,1028,1009,0,0
-189,15,0,0,0,0,0,0,0,0,0,-1,1035,1009,0,0
-182,15,0,0,0,0,0,0,0,0,0,-1,1042,1009,0,0
-175,15,0,0,0,0,0,0,0,0,0,-1,1049,1009,0,0
-168,15,0,0,0,0,0,0,0,0,0,-1,1056,1009,0,0
-161,15,0,0,0,0,0,0,0,0,0,-1,1063,1009,0,0
-154,15,0,0,0,0,0,0,0,0,0,-1,1070,1009,0,0
-147,15,0,0,0,0,0,0,0,0,0,-1,1077,1009,0,0
-140,15,0,0,0,0,0,0,0,0,0,-1,1084,1009,0,0
-133,15,0,0,0,0,0,0,0,0,0,-1,1091,1009,0,0
-126,15,0,0,0,0,0,0,0,0,0,-1,1098,1009,0,0
-119,15,0,0,0,0,0,0,0,0,0,-1,1105,1009,0,0
-112,15,0,0,0,0,0,0,0,0,0,-1,1112,1009,0,0
-105,15,0,0,0,0,0,0,0,0,0,-1,1119,1009,0,0
-98,15,0,0,0,0,0,0,0,0,0,-1,1126,1009,0,0
-91,15,0,0,0,0,0,0,0,0,0,-1,1133,1009,0,0
-84,15,0,0,0,0,0,0,0,0,0,-1,1140,1009,0,0
-77,15,0,0,0,0,0,0,0,0,0,-1,1147,1009,0,0
-70,15,0,0,0,0,0,0,0,0,0,-1,1154,1009,0,0
-63,15,0,0,0,0,0,0,0,0,0,-1,1161,1009,0,0
-56,15,0,0,0,0,0,0,0,0,0,-1,1168,1009,0,0
-49,15,0,0,0,0,0,0,0,0,0,-1,1175,1009,0,0
-42,15,0,0,0,0,0,0,0,0,0,-1,1182,1009,0,0
-35,15,0,0,0,0,0,0,0,0,0,-1,1189,1009,0,0
-28,15,0,0,0,0,0,0,0,0,0,-1,1196,1009,0,0
-21,15,0,0,0,0,0,0,0,0,0,-1,1203,1009,0,0
-14,15,0,0,0,0,0,0,0,0,0,-1,1210,1009,0,0
-7,15,0,0,0,0,0,0,0,0,0,-1,1217,1009,0,0
0,15,0,0,0,0,0,0,0,0,0,-1,1224,1009,0,0
7,15,0,0,0,0,0,0,0,0,0,-1,1231,1009,0,0
14,15,0,0,0,0,0,0,0,0,0,-1,1238,1009,0,0
21,15,0,0,0,0,0,0,0,0,0,-1,1245,1009,0,0
28,15,0,0,0,0,0,0,0,0,0,-1,1252,1009,0,0
35,15,0,0,0,0,0,0,0,0,0,-1,1259,1009,0,0
42,15,0,0,0,0,0,0,0,0,0,-1,1266,1009,0,0
49,15,0,0,0,0,0,0,0,0,0,-1,1273,1009,0,0
56,15,0,0,0,0,0,0,0,0,0,-1,1280,1009,0,0
63,15,0,0,0,0,0,0,0,0,0,-1,1287,1009,0,0
70,15,0,0,0,0,0,0,0,0,0,-1,1294,1009,0,0
77,15,0,0,0,0,0,0,0,0,0,-1,1301,1009,0,0
84,15,0,0,0,0,0,0,0,0,0,-1,1308,1009,0,0
91,15,0,0,0,0,0,0,0,0,0,-1,1315,1009,0,0
98,15,0,0,0,0,0,0,0,0,0,-1,1322,1009,0,0
105,15,0,0,0,0,0,0,0,0,0,-1,1329,1009,0,0
112,15,0,0,0,0,0,0,0,0,0,-1,1336,1009,0,0
119,15,0,0,0,0,0,0,0,0,0,-1,1343,1009,0,0
126,15,0,0,0,0,0,0,0,0,0,-1,1350,1009,0,0
133,15,0,0,0,0,0,0,0,0,0,-1,1357,1009,0,0
140,15,0,0,0,0,0,0,0,0,0,-1,1364,1009,0,0
147,15,0,0,0,0,0,0,0,0,0,-1,1371,1009,0,0
154,15,0,0,0,0,0,0,0,0,0,-1,1378,1009,0,0
161,15,0,0,0,0,0,0,0,0,0,-1,1385,1009,0,0
168,15,0,0,0,0,0,0,0,0,0,-1,1392,1009,0,0
175,15,0,0,0,0,0,0,0,0,0,-1,1399,1009,0,0
182,15,0,0,0,0,0,0,0,0,0,-1,1406,1009,0,0
189,15,0,0,0,0,0,0,0,0,0,-1,1413,1009,0,0
196,15,0,0,0,0,0,0,0,0,0,-1,1420,1009,0,0
203,15,0,0,0,0,0,0,0,0,0,-1,1427,1009,0,0
210,15,0,0,0,0,0,0,0,0,0,-1,1434,1009,0,0
217,15,0,0,0,0,0,0,0,0,0,-1,1441,1009,0,0
224,15,0,0,0,0,0,0,0,0,0,-1,1448,1009,0,0
231,15,0,0,0,0,0,0,0,0,0,-1,1455,1009,0,0
238,15,0,0,0,0,0,0,0,0,0,-1,1462,1009,0,0
245,15,0,0,0,0,0,0,0,0,0,-1,1469,1009,0,0
252,15,0,0,0,0,0,0,0,0,0,-1,1476,1009,0,0
259,15,0,0,0,0,0,0,0,0,0,-1,1483,1009,0,0
266,15,0,0,0,0,0,0,0,0,0,-1,1490,1009,0,0
273,15,0,0,0,0,0,0,0,0,0,-1,1497,1009,0,0
280,15,0,0,0,0,0,0,0,0,0,-1,1504,1009,0,0
287,15,0,0,0,0,0,0,0,0,0,-1,1511,1009,0,0
294,15,0,0,0,0,0,0,0,0,0,-1,1518,1009,0,0
301,15,0,0,0,0,0,0,0,0,0,-1,1525,1009,0,0
308,15,0,0,0,0,0,0,0,0,0,-1,1532,1009,0,0
315,15,0,0,0,0,0,0,0,0,0,-1,1539,1009,0,0
322,15,0,0,0,0,0,0,0,0,0,-1,1546,1009,0,0
329,15,0,0,0,0,0,0,0,0,0,-1,1553,1009,0,0
336,15,0,0,0,0,0,0,0,0,0,-1,1560,1009,0,0
343,15,0,0,0,0,0,0,0,0,0,-1,1567,1009,0,0
350,15,0,0,0,0,0,0,0,0,0,-1,1574,1009,0,0
357,15,0,0,0,0,0,0,0,0,0,-1,1581,1009,0,0
364,15,0,0,0,0,0,0,0,0,0,-1,1588,1009,0,0
371,15,0,0,0,0,0,0,0,0,0,-1,1595,1009,0,0
378,15,0,0,0,0,0,0,0,0,0,-1,1602,1009,0,0
385,15,0,0,0,0,0,0,0,0,0,-1,1609,1009,0,0
392,15,0,0,0,0,0,0,0,0,0,-1,1616,1009,0,0
399,15,0,0,0,0,0,0,0,0,0,-1,1623,1009,0,0
406,15,0,0,0,0,0,0,0,0,0,-1,1630,1009,0,0
413,15,0,0,0,0,0,0,0,0,0,-1,1637,1009,0,0
420,15,0,0,0,0,0,0,0,0,0,-1,1644,1009,0,0
427,15,0,0,0,0,0,0,0,0,0,-1,1651,1009,0,0
434,15,0,0,0,0,0,0,0,0,0,-1,1658,1009,0,0
441,15,0,0,0,0,0,0,0,0,0,-1,1665,1009,0,0
448,15,0,0,0,0,0,0,0,0,0,-1,1672,1009,0,0
455,15,0,0,0,0,0,0,0,0,0,-1,1679,1009,0,0
462,15,0,0,0,0,0,0,0,0,0,-1,1686,1009,0,0
469,15,0,0,0,0,0,0,0,0,0,-1,1693,1009,0,0
476,15,0,0,0,0,0,0,0,0,0,-1,1700,1009,0,0
483,15,0,0,0,0,0,0,0,0,0,-1,1707,1009,0,0
490,15,0,0,0,0,0,0,0,0,0,-1,1714,1009,0,0
497,15,0,0,0,0,0,0,0,0,0,-1,1721,1009,0,0
504,15,0,0,0,0,0,0,0,0,0,-1,1728,1009,0,0
511,15,0,0,0,0,0,0,0,0,0,-1,1735,1009,0,0
518,15,0,0,0,0,0,0,0,0,0,-1,1742,1009,0,0
525,15,0,0,0,0,0,0,0,0,0,-1,1749,1009,0,0
532,15,0,0,0,0,0,0,0,0,0,-1,1756,1009,0,0
539,15,0,0,0,0,0,0,0,0,0,-1,1763,1009,0,0
546,15,0,0,0,0,0,0,0,0,0,-1,1770,1009,0,0
553,15,0,0,0,0,0,0,0,0,0,-1,1777,1009,0,0
560,15,0,0,0,0,0,0,0,0,0,-1,1784,1009,0,0
567,15,0,0,0,0,0,0,0,0,0,-1,1791,1009,0,0
574,15,0,0,0,0,0,0,0,0,0,-1,1798,1009,0,0
581,15,0,0,0,0,0,0,0,0,0,-1,1805,1009,0,0
588,15,0,0,0,0,0,0,0,0,0,-1,1812,1009,0,0
595,15,0,0,0,0,0,0,0,0,0,-1,1819,1009,0,0
602,15,0,0,0,0,0,0,0,0,0,-1,1826,1009,0,0
609,15,0,0,0,0,0,0,0,0,0,-1,1833,1009,0,0
616,15,0,0,0,0,0,0,0,0,0,-1,1840,1009,0,0
623,15,0,0,0,0,0,0,0,0,0,-1,1847,1009,0,0
630,15,0,0,0,0,0,0,0,0,0,-1,1854,1009,0,0
637,15,0,0,0,0,0,0,0,0,0,-1,1861,1009,0,0
644,15,19.3094,2.72552,0.00822256,-0.000267225,-0.00349439,0.00947583,-0.0015205,-0.344363,0.00688029,0.0390624,1868,1009,19.3095,-2.7255
651,15,19.4231,2.59143,0.00579456,-0.000157639,-0.00367281,0.00754569,-0.00190877,-0.444902,0.00577288,0.0380182,1875,1009,19.4231,-2.59142
658,15,19.3444,2.47559,0.0039385,-0.000108019,-0.0033151,0.00579899,-0.00196851,-0.511413,0.00466279,0.0375098,1882,1009,19.3443,-2.47559
665,15,19.2822,2.43719,0.00236935,3.4619e-05,-0.00255856,0.00401427,-0.0016103,-0.571375,0.00334476,0.0390773,1889,1009,19.2822,-2.43717
672,15,19.3715,2.47119,0.000889918,0.000374382,-0.00134304,0.0019997,-0.000735402,-0.690587,0.00163438,0.039646,1896,1009,19.3714,-2.47117
679,15,19.5511,2.22925,-0.000740217,0.000751349,0.000161539,0.000768643,-0.000757511,1.46414,0.000881133,0.0417239,1903,1009,19.5512,-2.22924
686,15,19.5372,2.1803,-0.00209853,0.00103543,0.00155292,0.00167458,-0.00273768,1.18035,0.00257195,0.0426836,1910,1009,19.5372,-2.1803
693,15,19.5013,2.27087,-0.00312957,0.0012481,0.00271895,0.00254977,-0.00443125,1.1243,0.004079,0.0379254,1917,1009,19.5014,-2.2709
700,15,19.4894,2.35724,-0.00394071,0.00143294,0.00356078,0.00320685,-0.00571462,1.1086,0.0052182,0.0321294,1924,1009,19.4894,-2.35724
707,15,19.4055,2.51294,-0.00449857,0.00149468,0.00416275,0.00362721,-0.0066311,1.09737,0.00600668,0.0308284,1931,1009,19.4055,-2.51296
714,15,19.4077,2.48248,-0.00485892,0.00157937,0.00451525,0.00390552,-0.00718508,1.09508,0.00649581,0.0365429,1938,1009,19.4077,-2.48251
721,15,19.5726,2.35095,0,0,0,0,0,0,0,-1,1945,1009,19.5726,-2.35094
728,15,18.9915,3.38019,0,0,0,0,0,0,0,-1,1952,1009,18.9915,-3.38016
735,15,18.9606,3.45087,-0.00498223,0.00182527,0.00427743,0.00388795,-0.00704491,1.12147,0.00639921,0.0169041,1959,1009,18.9606,-3.45087
742,15,18.9474,3.5188,-0.00475375,0.00195207,0.00353609,0.00347214,-0.00627382,1.1648,0.00570381,0.0169677,1966,1009,18.9474,-3.51882
749,15,18.9474,3.54926,-0.00441378,0.000687919,0.00269331,0.00184662,-0.00557248,1.16452,0.00445984,0.0102081,1973,1009,18.9474,-3.54924
756,15,18.9695,3.56647,-0.00401911,-0.000987284,0.00261018,0.000515248,-0.00552164,1.04848,0.00386431,0.0116463,1980,1009,18.9695,-3.56645
763,15,18.9515,3.6181,-0.00399044,-0.00383218,0.00293732,-0.00097292,-0.00684969,0.798865,0.00427918,0.0117398,1987,1009,18.9516,-3.61808
770,15,18.9335,3.64758,-0.00391082,-0.0074201,0.00342391,-0.00181813,-0.00951279,0.548613,0.00583107,0.0106478,1994,1009,18.9335,-3.64758
777,15,18.885,3.68909,-0.00397972,-0.0125986,0.00482548,-0.00181949,-0.0147588,0.420915,0.00929228,0.0191634,2001,1009,18.885,-3.68911
784,15,18.7993,3.72107,-0.00445293,-0.0196784,0.00733939,-0.00149115,-0.0226402,0.38356,0.0146218,0.0402887,2008,1009,18.7993,-3.72105
791,15,18.7124,3.75348,0,0,0,0,0,0,0,-1,2015,1009,18.7124,-3.75346
798,15,18.5751,3.18536,-0.00590509,-0.0414033,0.0159963,0.000239601,-0.047548,0.366752,0.0317788,0.0492003,2022,1009,18.575,-3.18537
805,15,18.4321,3.28741,-0.00665566,-0.0567561,0.022605,0.00203579,-0.0654475,0.367067,0.0443259,0.0455628,2029,1009,18.4321,-3.28738
812,15,18.2698,3.41571,-0.00756068,-0.0753566,0.0311962,0.00460948,-0.0875268,0.371958,0.0599468,0.0405595,2036,1009,18.2699,-3.41572
-700,8,0,0,0,0,0,0,0,0,0,-1,524,1016,0,0
-693,8,-15.5753,2.65521,0,0,0,0,0,0,0,-1,531,1016,-15.5753,-2.6552
-686,8,-15.2625,2.08514,0,0,0,0,0,0,0,-1,538,1016,-15.2625,-2.08515
-679,8,-15.8945,2.34674,0,0,0,0,0,0,0,-1,545,1016,-15.8945,-2.34676
-672,8,-12.4019,0.845154,0,0,0,0,0,0,0,-1,552,1016,-12.4018,-0.845176
-665,8,-12.5164,0.927673,0.042953,0.0192916,0.00714895,0.0449452,0.0172994,0.271777,0.0261773,0.0469977,559,1016,-12.5164,-0.927666
-658,8,-12.6601,1.06158,0.0324078,0.01544,0.0061361,0.0343943,0.0134536,0.313085,0.0200138,0.0358453,566,1016,-12.6601,-1.06156
-651,8,-12.5092,1.13873,0.0233708,0.0118716,0.00495486,0.0252112,0.0100312,0.355646,0.0146565,0.0210953,573,1016,-12.5092,-1.13871
-644,8,-12.4983,1.18134,0.0161713,0.00867182,0.00369422,0.0176854,0.00715775,0.388969,0.0102723,0.0190488,580,1016,-12.4983,-1.18133
-637,8,-12.5375,1.20569,0.0101629,0.00663955,0.00261898,0.0115576,0.00524488,0.489329,0.00668226,0.0158744,587,1016,-12.5375,-1.20567
-630,8,-12.5859,1.19983,0.00470947,0.00461755,0.000713197,0.00537819,0.00394884,0.753221,0.00321667,0.0126044,594,1016,-12.5859,-1.19983
-623,8,-12.5915,1.20599,0.000544889,0.0011014,-0.000847769,0.00171541,-6.91213e-05,-0.943969,0.00116733,0.0122295,601,1016,-12.5915,-1.206
-616,8,-12.6036,1.18744,-0.000585063,0.000934254,-0.00216161,0.00246581,-0.00211662,-0.954373,0.00264822,0.0120233,608,1016,-12.6037,-1.18742
-609,8,-12.5881,1.16821,-0.000241058,0.000660131,-0.00310183,0.00334392,-0.00292485,-0.857527,0.00362197,0.0151781,615,1016,-12.5881,-1.16821
-602,8,-12.5938,1.13904,-2.5898e-06,0.000787411,-0.00407956,0.00449105,-0.00370622,-0.83366,0.00473992,0.0206851,622,1016,-12.5938,-1.13907
-595,8,-12.5313,0.864197,-4.66485e-05,0.000640435,-0.00467331,0.00498281,-0.00438903,-0.822088,0.00541445,0.0255147,629,1016,-12.5313,-0.864227
-588,8,-12.5862,0.457825,0,0,0,0,0,0,0,-1,636,1016,-12.5863,-0.457817
-581,8,-12.5453,0.351379,-0.000283211,0.000506871,-0.00436837,0.00449803,-0.00427437,-0.830492,0.0050653,0.0293901,643,1016,-12.5453,-0.351381
-574,8,-12.5129,0.298157,-0.000477871,0.000425601,-0.0039398,0.00393947,-0.00399174,-0.842479,0.00457912,0.0335683,650,1016,-12.5129,-0.298167
-567,8,-12.4647,0.25647,-0.00089439,0.000382793,-0.00311653,0.00292548,-0.00343708,-0.886452,0.00367738,0.036841,657,1016,-12.4647,-0.256477
-560,8,-12.2979,0.329773,-0.00152144,0.00027989,-0.00194131,0.00151929,-0.00276084,-1.00259,0.00250555,0.0382195,664,1016,-12.2979,-0.329769
-553,8,-12.2769,0.528931,-0.00243341,6.44077e-05,-0.000446497,0.000141822,-0.00251082,-1.39912,0.0017231,0.0398412,671,1016,-12.2769,-0.528957
-546,8,-12.4022,0.536926,-0.00369058,-0.000321289,0.00131937,0.00013387,-0.00414574,1.2386,0.00280951,0.0411243,678,1016,-12.4021,-0.536917
-539,8,-12.4863,0.511963,-0.00529724,-0.000961861,0.00305387,0.000615446,-0.00687454,1.09404,0.00480134,0.0412735,685,1016,-12.4863,-0.51198
-532,8,-12.4814,0.570129,-0.00758294,-0.00147482,0.00414088,0.000616426,-0.00967418,1.10314,0.00666444,0.0424686,692,1016,-12.4814,-0.570115
-525,8,0,0,0,0,0,0,0,0,0,-1,699,1016,0,0
-518,8,0,0,0,0,0,0,0,0,0,-1,706,1016,0,0
-511,8,0,0,0,0,0,0,0,0,0,-1,713,1016,0,0
-504,8,0,0,0,0,0,0,0,0,0,-1,720,1016,0,0
-497,8,0,0,0,0,0,0,0,0,0,-1,727,1016,0,0
-490,8,0,0,0,0,0,0,0,0,0,-1,734,1016,0,0
-483,8,0,0,0,0,0,0,0,0,0,-1,741,1016,0,0
-476,8,0,0,0,0,0,0,0,0,0,-1,748,1016,0,0
-469,8,0,0,0,0,0,0,0,0,0,-1,755,1016,0,0
-462,8,0,0,0,0,0,0,0,0,0,-1,762,1016,0,0
-455,8,0,0,0,0,0,0,0,0,0,-1,769,1016,0,0
-448,8,0,0,0,0,0,0,0,0,0,-1,776,1016,0,0
-441,8,0,0,0,0,0,0,0,0,0,-1,783,1016,0,0
-434,8,0,0,0,0,0,0,0,0,0,-1,790,1016,0,0
-427,8,0,0,0,0,0,0,0,0,0,-1,797,1016,0,0
-420,8,0,0,0,0,0,0,0,0,0,-1,804,1016,0,0
-413,8,0,0,0,0,0,0,0,0,0,-1,811,1016,0,0
-406,8,0,0,0,0,0,0,0,0,0,-1,818,1016,0,0
-399,8,0,0,0,0,0,0,0,0,0,-1,825,1016,0,0
-392,8,0,0,0,0,0,0,0,0,0,-1,832,1016,0,0
-385,8,0,0,0,0,0,0,0,0,0,-1,839,1016,0,0
-378,8,0,0,0,0,0,0,0,0,0,-1,846,1016,0,0
-371,8,0,0,0,0,0,0,0,0,0,-1,853,1016,0,0
-364,8,0,0,0,0,0,0,0,0,0,-1,860,1016,0,0
-357,8,0,0,0,0,0,0,0,0,0,-1,867,1016,0,0
-350,8,0,0,0,0,0,0,0,0,0,-1,874,1016,0,0
-343,8,0,0,0,0,0,0,0,0,0,-1,881,1016,0,0
-336,8,0,0,0,0,0,0,0,0,0,-1,888,1016,0,0
-329,8,0,0,0,0,0,0,0,0,0,-1,895,1016,0,0
-322,8,0,0,0,0,0,0,0,0,0,-1,902,1016,0,0
-315,8,0,0,0,0,0,0,0,0,0,-1,909,1016,0,0
-308,8,0,0,0,0,0,0,0,0,0,-1,916,1016,0,0
-301,8,0,0,0,0,0,0,0,0,0,-1,923,1016,0,0
-294,8,0,0,0,0,0,0,0,0,0,-1,930,1016,0,0
-287,8,0,0,0,0,0,0,0,0,0,-1,937,1016,0,0
-280,8,0,0,0,0,0,0,0,0,0,-1,944,1016,0,0
-273,8,0,0,0,0,0,0,0,0,0,-1,951,1016,0,0
-266,8,0,0,0,0,0,0,0,0,0,-1,958,1016,0,0
-259,8,0,0,0,0,0,0,0,0,0,-1,965,1016,0,0
-252,8,0,0,0,0,0,0,0,0,0,-1,972,1016,0,0
-245,8,0,0,0,0,0,0,0,0,0,-1,979,1016,0,0
-238,8,0,0,0,0,0,0,0,0,0,-1,986,1016,0,0
-231,8,0,0,0,0,0,0,0,0,0,-1,993,1016,0,0
-224,8,0,0,0,0,0,0,0,0,0,-1,1000,1016,0,0
-217,8,0,0,0,0,0,0,0,0,0,-1,1007,1016,0,0
-210,8,0,0,0,0,0,0,0,0,0,-1,1014,1016,0,0
-203,8,0,0,0,0,0,0,0,0,0,-1,1021,1016,0,0
-196,8,0,0,0,0,0,0,0,0,0,-1,1028,1016,0,0
-189,8,0,0,0,0,0,0,0,0,0,-1,1035,1016,0,0
-182,8,0,0,0,0,0,0,0,0,0,-1,1042,1016,0,0
-175,8,0,0,0,0,0,0,0,0,0,-1,1049,1016,0,0
-168,8,0,0,0,0,0,0,0,0,0,-1,1056,1016,0,0
-161,8,0,0,0,0,0,0,0,0,0,-1,1063,1016,0,0
-154,8,0,0,0,0,0,0,0,0,0,-1,1070,1016,0,0
-147,8,0,0,0,0,0,0,0,0,0,-1,1077,1016,0,0
-140,8,0,0,0,0,0,0,0,0,0,-1,1084,1016,0,0
-133,8,0,0,0,0,0,0,0,0,0,-1,1091,1016,0,0
-126,8,0,0,0,0,0,0,0,0,0,-1,1098,1016,0,0
-119,8,0,0,0,0,0,0,0,0,0,-1,1105,1016,0,0
-112,8,0,0,0,0,0,0,0,0,0,-1,1112,1016,0,0
-105,8,0,0,0,0,0,0,0,0,0,-1,1119,1016,0,0
-98,8,0,0,0,0,0,0,0,0,0,-1,1126,1016,0,0
-91,8,0,0,0,0,0,0,0,0,0,-1,1133,1016,0,0
-84,8,0,0,0,0,0,0,0,0,0,-1,1140,1016,0,0
-77,8,0,0,0,0,0,0,0,0,0,-1,1147,1016,0,0
-70,8,0,0,0,0,0,0,0,0,0,-1,1154,1016,0,0
-63,8,0,0,0,0,0,0,0,0,0,-1,1161,1016,0,0
-56,8,0,0,0,0,0,0,0,0,0,-1,1168,1016,0,0
-49,8,0,0,0,0,0,0,0,0,0,-1,1175,1016,0,0
-42,8,0,0,0,0,0,0,0,0,0,-1,1182,1016,0,0
-35,8,0,0,0,0,0,0,0,0,0,-1,1189,1016,0,0
-28,8,0,0,0,0,0,0,0,0,0,-1,1196,1016,0,0
-21,8,0,0,0,0,0,0,0,0,0,-1,1203,1016,0,0
-14,8,0,0,0,0,0,0,0,0,0,-1,1210,1016,0,0
-7,8,0,0,0,0,0,0,0,0,0,-1,1217,1016,0,0
0,8,0,0,0,0,0,0,0,0,0,-1,1224,1016,0,0
7,8,0,0,0,0,0,0,0,0,0,-1,1231,1016,0,0
14,8,0,0,0,0,0,0,0,0,0,-1,1238,1016,0,0
21,8,0,0,0,0,0,0,0,0,0,-1,1245,1016,0,0
28,8,0,0,0,0,0,0,0,0,0,-1,1252,1016,0,0
35,8,0,0,0,0,0,0,0,0,0,-1,1259,1016,0,0
42,8,0,0,0,0,0,0,0,0,0,-1,1266,1016,0,0
49,8,0,0,0,0,0,0,0,0,0,-1,1273,1016,0,0
56,8,0,0,0,0,0,0,0,0,0,-1,1280,1016,0,0
63,8,0,0,0,0,0,0,0,0,0,-1,1287,1016,0,0
70,8,0,0,0,0,0,0,0,0,0,-1,1294,1016,0,0
77,8,0,0,0,0,0,0,0,0,0,-1,1301,1016,0,0
84,8,0,0,0,0,0,0,0,0,0,-1,1308,1016,0,0
91,8,0,0,0,0,0,0,0,0,0,-1,1315,1016,0,0
98,8,0,0,0,0,0,0,0,0,0,-1,1322,1016,0,0
105,8,0,0,0,0,0,0,0,0,0,-1,1329,1016,0,0
112,8,0,0,0,0,0,0,0,0,0,-1,1336,1016,0,0
119,8,0,0,0,0,0,0,0,0,0,-1,1343,1016,0,0
126,8,0,0,0,0,0,0,0,0,0,-1,1350,1016,0,0
133,8,0,0,0,0,0,0,0,0,0,-1,1357,1016,0,0
140,8,0,0,0,0,0,0,0,0,0,-1,1364,1016,0,0
147,8,0,0,0,0,0,0,0,0,0,-1,1371,1016,0,0
154,8,0,0,0,0,0,0,0,0,0,-1,1378,1016,0,0
161,8,0,0,0,0,0,0,0,0,0,-1,1385,1016,0,0
168,8,0,0,0,0,0,0,0,0,0,-1,1392,1016,0,0
175,8,0,0,0,0,0,0,0,0,0,-1,1399,1016,0,0
182,8,0,0,0,0,0,0,0,0,0,-1,1406,1016,0,0
189,8,0,0,0,0,0,0,0,0,0,-1,1413,1016,0,0
196,8,0,0,0,0,0,0,0,0,0,-1,1420,1016,0,0
203,8,0,0,0,0,0,0,0,0,0,-1,1427,1016,0,0
210,8,0,0,0,0,0,0,0,0,0,-1,1434,1016,0,0
217,8,0,0,0,0,0,0,0,0,0,-1,1441,1016,0,0
224,8,0,0,0,0,0,0,0,0,0,-1,1448,1016,0,0
231,8,0,0,0,0,0,0,0,0,0,-1,1455,1016,0,0
238,8,0,0,0,0,0,0,0,0,0,-1,1462,1016,0,0
245,8,0,0,0,0,0,0,0,0,0,-1,1469,1016,0,0
252,8,0,0,0,0,0,0,0,0,0,-1,1476,1016,0,0
259,8,0,0,0,0,0,0,0,0,0,-1,1483,1016,0,0
266,8,0,0,0,0,0,0,0,0,0,-1,1490,1016,0,0
273,8,0,0,0,0,0,0,0,0,0,-1,1497,1016,0,0
280,8,0,0,0,0,0,0,0,0,0,-1,1504,1016,0,0
287,8,0,0,0,0,0,0,0,0,0,-1,1511,1016,0,0
294,8,0,0,0,0,0,0,0,0,0,-1,1518,1016,0,0
301,8,0,0,0,0,0,0,0,0,0,-1,1525,1016,0,0
308,8,0,0,0,0,0,0,0,0,0,-1,1532,1016,0,0
315,8,0,0,0,0,0,0,0,0,0,-1,1539,1016,0,0
322,8,0,0,0,0,0,0,0,0,0,-1,1546,1016,0,0
329,8,0,0,0,0,0,0,0,0,0,-1,1553,1016,0,0
336,8,0,0,0,0,0,0,0,0,0,-1,1560,1016,0,0
343,8,0,0,0,0,0,0,0,0,0,-1,1567,1016,0,0
350,8,0,0,0,0,0,0,0,0,0,-1,1574,1016,0,0
357,8,0,0,0,0,0,0,0,0,0,-1,1581,1016,0,0
364,8,0,0,0,0,0,0,0,0,0,-1,1588,1016,0,0
371,8,0,0,0,0,0,0,0,0,0,-1,1595,1016,0,0
378,8,0,0,0,0,0,0,0,0,0,-1,1602,1016,0,0
385,8,0,0,0,0,0,0,0,0,0,-1,1609,1016,0,0
392,8,0,0,0,0,0,0,0,0,0,-1,1616,1016,0,0
399,8,0,0,0,0,0,0,0,0,0,-1,1623,1016,0,0
406,8,0,0,0,0,0,0,0,0,0,-1,1630,1016,0,0
413,8,0,0,0,0,0,0,0,0,0,-1,1637,1016,0,0
420,8,0,0,0,0,0,0,0,0,0,-1,1644,1016,0,0
427,8,0,0,0,0,0,0,0,0,0,-1,1651,1016,0,0
434,8,0,0,0,0,0,0,0,0,0,-1,1658,1016,0,0
441,8,0,0,0,0,0,0,0,0,0,-1,1665,1016,0,0
448,8,0,0,0,0,0,0,0,0,0,-1,1672,1016,0,0
455,8,0,0,0,0,0,0,0,0,0,-1,1679,1016,0,0
462,8,0,0,0,0,0,0,0,0,0,-1,1686,1016,0,0
469,8,0,0,0,0,0,0,0,0,0,-1,1693,1016,0,0
476,8,0,0,0,0,0,0,0,0,0,-1,1700,1016,0,0
483,8,0,0,0,0,0,0,0,0,0,-1,1707,1016,0,0
490,8,0,0,0,0,0,0,0,0,0,-1,1714,1016,0,0
497,8,0,0,0,0,0,0,0,0,0,-1,1721,1016,0,0
504,8,0,0,0,0,0,0,0,0,0,-1,1728,1016,0,0
511,8,0,0,0,0,0,0,0,0,0,-1,1735,1016,0,0
518,8,0,0,0,0,0,0,0,0,0,-1,1742,1016,0,0
525,8,0,0,0,0,0,0,0,0,0,-1,1749,1016,0,0
532,8,0,0,0,0,0,0,0,0,0,-1,1756,1016,0,0
539,8,0,0,0,0,0,0,0,0,0,-1,1763,1016,0,0
546,8,0,0,0,0,0,0,0,0,0,-1,1770,1016,0,0
553,8,0,0,0,0,0,0,0,0,0,-1,1777,1016,0,0
560,8,0,0,0,0,0,0,0,0,0,-1,1784,1016,0,0
567,8,0,0,0,0,0,0,0,0,0,-1,1791,1016,0,0
574,8,0,0,0,0,0,0,0,0,0,-1,1798,1016,0,0
581,8,0,0,0,0,0,0,0,0,0,-1,1805,1016,0,0
588,8,0,0,0,0,0,0,0,0,0,-1,1812,1016,0,0
595,8,0,0,0,0,0,0,0,0,0,-1,1819,1016,0,0
602,8,0,0,0,0,0,0,0,0,0,-1,1826,1016,0,0
609,8,0,0,0,0,0,0,0,0,0,-1,1833,1016,0,0
616,8,0,0,0,0,0,0,0,0,0,-1,1840,1016,0,0
623,8,0,0,0,0,0,0,0,0,0,-1,1847,1016,0,0
630,8,0,0,0,0,0,0,0,0,0,-1,1854,1016,0,0
637,8,0,0,0,0,0,0,0,0,0,-1,1861,1016,0,0
644,8,19.2461,2.70056,0.00752167,0.00170042,-0.00263818,0.00853937,0.000682725,-0.368169,0.00547954,0.0425439,1868,1016,19.2461,-2.70056
651,8,19.5214,2.50751,0.00530106,0.0011326,-0.0029258,0.00680909,-0.000375425,-0.475911,0.00466957,0.0377293,1875,1016,19.5213,-2.50751
658,8,19.394,2.48505,0.00359159,0.000701335,-0.00267364,0.00518566,-0.000892737,-0.537634,0.0037899,0.0371103,1882,1016,19.394,-2.48506
665,8,19.3256,2.51147,0.00215939,0.000485519,-0.00209031,0.00357409,-0.000929179,-0.594978,0.00274538,0.0393783,1889,1016,19.3255,-2.51147
672,8,19.4058,2.53333,0.000841778,0.000548544,-0.00102304,0.00172865,-0.000338332,-0.714225,0.0012802,0.0392861,1896,1016,19.4057,-2.53335
679,8,19.6031,2.19293,-0.000656941,0.000718105,0.000391696,0.000821855,-0.000760691,1.31187,0.000913911,0.0415855,1903,1016,19.6032,-2.19296
686,8,19.6895,2.09625,-0.00193738,0.000871367,0.00173555,0.00169957,-0.00276559,1.12555,0.00260233,0.0438308,1910,1016,19.6895,-2.09624
693,8,19.5652,2.15851,-0.00290891,0.00100539,0.00288097,0.00253112,-0.00443463,1.08376,0.00407142,0.0388869,1917,1016,19.5652,-2.1585
700,8,19.5454,2.26648,-0.00367141,0.00113374,0.00372958,0.00316762,-0.00570529,1.07154,0.00519214,0.031723,1924,1016,19.5454,-2.26649
707,8,19.458,2.34283,-0.00419499,0.00116005,0.00432028,0.00356524,-0.00660018,1.06281,0.00595556,0.0262632,1931,1016,19.458,-2.34282
714,8,19.4341,2.34924,-0.00455704,0.0012447,0.00468399,0.00385336,-0.00716569,1.06265,0.00645695,0.0319352,1938,1016,19.4341,-2.34923
721,8,19.6107,2.3288,0,0,0,0,0,0,0,-1,1945,1016,19.6107,-2.32881
728,8,18.9795,3.44122,0,0,0,0,0,0,0,-1,1952,1016,18.9795,-3.44123
735,8,18.9498,3.45007,-0.00476301,0.00165858,0.0044497,0.00393496,-0.00703939,1.09793,0.00641999,0.0190458,1959,1016,18.9499,-3.45005
742,8,18.9663,3.4881,-0.00460778,0.00185783,0.00372891,0.00356018,-0.00631013,1.14253,0.00577188,0.0158271,1966,1016,18.9663,-3.48813
749,8,18.9886,3.53644,-0.00436609,0.000692365,0.00290852,0.00201755,-0.00569127,1.14328,0.00461608,0.0103038,1973,1016,18.9886,-3.53641
756,8,19.0062,3.56287,-0.00399389,-0.0007932,0.00276887,0.000804537,-0.00559163,1.04743,0.00402284,0.0126275,1980,1016,19.0063,-3.56286
763,8,18.9976,3.58386,-0.00390345,-0.00339854,0.00303442,-0.000606094,-0.00669589,0.826901,0.00427624,0.0139065,1987,1016,18.9975,-3.58385
770,8,18.9735,3.60901,-0.00379151,-0.00664106,0.00340684,-0.00152351,-0.00890906,0.587345,0.00550229,0.0140835,1994,1016,18.9735,-3.609
777,8,18.9402,3.66882,-0.0037421,-0.0114231,0.00466889,-0.00153711,-0.0136281,0.441221,0.00861884,0.0168997,2001,1016,18.9402,-3.66883
784,8,18.8925,3.58563,-0.0039629,-0.0179872,0.00704946,-0.00103195,-0.0209182,0.394025,0.0136145,0.0337023,2008,1016,18.8924,-3.58562
791,8,18.7974,3.64551,-0.00427411,-0.0267902,0.0105601,-9.6471e-05,-0.0309678,0.376711,0.0206131,0.0436319,2015,1016,18.7973,-3.6455
798,8,18.6621,3.96411,-0.00433825,-0.0382538,0.0153489,0.00157656,-0.0441686,0.36782,0.0299851,0.0469935,2022,1016,18.6622,-3.96413
805,8,18.5605,4.1153,-0.00402776,-0.0526018,0.0216774,0.00423931,-0.0608689,0.364342,0.0420636,0.0456326,2029,1016,18.5605,-4.1153
812,8,18.4221,4.24982,-0.00332974,-0.0699706,0.0298853,0.00810903,-0.0814093,0.365552,0.0571679,0.0448564,2036,1016,18.4221,-4.24979
-700,1,0,0,0,0,0,0,0,0,0,-1,524,1023,0,0
-693,1,-15.4279,2.92566,0.0849772,0.039366,-0.0100527,0.0870945,0.0372487,-0.207588,0.050459,0.0448119,531,1023,-15.4279,-2.92569
-686,1,-14.9316,2.27435,0.0746436,0.0357555,-0.00591252,0.0755226,0.0348765,-0.147597,0.0436454,0.0484767,538,1023,-14.9316,-2.27434
-679,1,-14.9212,1.9696,0.0628913,0.0311696,-0.00315963,0.063203,0.0308579,-0.0983174,0.0364936,0.0495144,545,1023,-14.9212,-1.96958
-672,1,-12.6767,1.01978,0,0,0,0,0,0,0,-1,552,1023,-12.6767,-1.01979
-665,1,-12.6178,1.06854,0.0401542,0.021399,-0.000178868,0.0401559,0.0213973,-0.00953578,0.0232007,0.0465616,559,1023,-12.6178,-1.06856
-658,1,-12.5882,1.14642,0.030294,0.0168417,0.000498466,0.0303124,0.0168233,0.0369869,0.0175361,0.032642,566,1023,-12.5882,-1.14642
-651,1,-12.5621,1.18976,0.021883,0.0127508,0.000793314,0.0219514,0.0126824,0.0860113,0.0127246,0.0156605,573,1023,-12.5621,-1.18977
-644,1,-12.4841,1.22412,0.0152308,0.00914869,0.000737057,0.0153188,0.00906064,0.118893,0.00889351,0.0177197,580,1023,-12.4841,-1.22414
-637,1,-12.5366,1.18451,0.00961913,0.00670928,0.000549232,0.00971935,0.00660906,0.180479,0.00573138,0.0149794,587,1023,-12.5365,-1.18448
-630,1,-12.6154,1.16193,0.00462731,0.00448285,-0.000548566,0.00510838,0.00400178,-0.719937,0.0031032,0.0156015,594,1023,-12.6154,-1.16195
-623,1,-12.6048,1.19244,0.000759409,0.00102353,-0.00148678,0.00238411,-0.000601168,-0.829693,0.00182314,0.0127286,601,1023,-12.6048,-1.19246
-616,1,-12.6201,1.17194,-0.000321733,0.000689431,-0.00252001,0.00275407,-0.00238637,-0.884397,0.00297037,0.0150994,608,1023,-12.6201,-1.17196
-609,1,-12.5767,1.16864,6.83677e-05,0.000371995,-0.00341965,0.0036432,-0.00320284,-0.807581,0.00395529,0.0161448,615,1023,-12.5767,-1.16862
-602,1,-12.5442,1.14508,0.000322044,0.000473443,-0.0043716,0.00476999,-0.00397451,-0.794055,0.0050556,0.0124783,622,1023,-12.5442,-1.14506
-595,1,-12.5403,1.12408,0.000251371,0.00027431,-0.00495573,0.00521858,-0.0046929,-0.786555,0.00572508,0.0148495,629,1023,-12.5403,-1.1241
-588,1,-12.5677,0.78656,0.000136461,0.000157969,-0.00502497,0.0051722,-0.00487777,-0.786468,0.00580318,0.022353,636,1023,-12.5677,-0.786566
-581,1,-12.566,0.461792,-4.88499e-05,0.000130115,-0.00459113,0.00463264,-0.00455137,-0.795142,0.00530246,0.0258829,643,1023,-12.5659,-0.461821
-574,1,-12.5649,0.476624,-0.000293371,8.90756e-05,-0.00408152,0.00398385,-0.00418814,-0.808807,0.00471859,0.0347215,650,1023,-12.5649,-0.476637
-567,1,-12.4483,0.318359,-0.00079954,0.00011401,-0.00316338,0.00285342,-0.00353895,-0.8571,0.00369771,0.0423698,657,1023,-12.4483,-0.31835
-560,1,-12.5355,0.65387,-0.00158121,0.000118698,-0.00185938,0.00131318,-0.00277569,-0.999776,0.00241052,0.0409575,664,1023,-12.5355,-0.653843
-553,1,-12.2482,0.528076,-0.0027179,5.25554e-05,-0.000201214,6.70931e-05,-0.00273244,-1.49867,0.00184439,0.0389034,671,1023,-12.2482,-0.528102
-546,1,-12.2737,0.497498,-0.00429472,-0.000148488,0.00176508,0.000501134,-0.00494434,1.21814,0.00347534,0.0420923,678,1023,-12.2737,-0.497518
-539,1,-12.5574,0.442993,-0.00633556,-0.000585688,0.00369699,0.00122265,-0.00814389,1.11588,0.00587934,0.0417806,685,1023,-12.5573,-0.442999
-532,1,-12.6203,0.596497,-0.00914421,-0.000913955,0.00486812,0.00134531,-0.0114035,1.13628,0.00808814,0.0412957,692,1023,-12.6203,-0.596487
-525,1,0,0,0,0,0,0,0,0,0,-1,699,1023,0,0
-518,1,0,0,0,0,0,0,0,0,0,-1,706,1023,0,0
-511,1,0,0,0,0,0,0,0,0,0,-1,713,1023,0,0
-504,1,0,0,0,0,0,0,0,0,0,-1,720,1023,0,0
-497,1,0,0,0,0,0,0,0,0,0,-1,727,1023,0,0
-490,1,0,0,0,0,0,0,0,0,0,-1,734,1023,0,0
-483,1,0,0,0,0,0,0,0,0,0,-1,741,1023,0,0
-476,1,0,0,0,0,0,0,0,0,0,-1,748,1023,0,0
-469,1,0,0,0,0,0,0,0,0,0,-1,755,1023,0,0
-462,1,0,0,0,0,0,0,0,0,0,-1,762,1023,0,0
-455,1,0,0,0,0,0,0,0,0,0,-1,769,1023,0,0
-448,1,0,0,0,0,0,0,0,0,0,-1,776,1023,0,0
-441,1,0,0,0,0,0,0,0,0,0,-1,783,1023,0,0
-434,1,0,0,0,0,0,0,0,0,0,-1,790,1023,0,0
-427,1,0,0,0,0,0,0,0,0,0,-1,797,1023,0,0
-420,1,0,0,0,0,0,0,0,0,0,-1,804,1023,0,0
-413,1,0,0,0,0,0,0,0,0,0,-1,811,1023,0,0
-406,1,0,0,0,0,0,0,0,0,0,-1,818,1023,0,0
-399,1,0,0,0,0,0,0,0,0,0,-1,825,1023,0,0
-392,1,0,0,0,0,0,0,0,0,0,-1,832,1023,0,0
-385,1,0,0,0,0,0,0,0,0,0,-1,839,1023,0,0
-378,1,0,0,0,0,0,0,0,0,0,-1,846,1023,0,0
-371,1,0,0,0,0,0,0,0,0,0,-1,853,1023,0,0
-364,1,0,0,0,0,0,0,0,0,0,-1,860,1023,0,0
-357,1,0,0,0,0,0,0,0,0,0,-1,867,1023,0,0
-350,1,0,0,0,0,0,0,0,0,0,-1,874,1023,0,0
-343,1,0,0,0,0,0,0,0,0,0,-1,881,1023,0,0
-336,1,0,0,0,0,0,0,0,0,0,-1,888,1023,0,0
-329,1,0,0,0,0,0,0,0,0,0,-1,895,1023,0,0
-322,1,0,0,0,0,0,0,0,0,0,-1,902,1023,0,0
-315,1,0,0,0,0,0,0,0,0,0,-1,909,1023,0,0
-308,1,0,0,0,0,0,0,0,0,0,-1,916,1023,0,0
-301,1,0,0,0,0,0,0,0,0,0,-1,923,1023,0,0
-294,1,0,0,0,0,0,0,0,0,0,-1,930,1023,0,0
-287,1,0,0,0,0,0,0,0,0,0,-1,937,1023,0,0
-280,1,0,0,0,0,0,0,0,0,0,-1,944,1023,0,0
-273,1,0,0,0,0,0,0,0,0,0,-1,951,1023,0,0
-266,1,0,0,0,0,0,0,0,0,0,-1,958,1023,0,0
-259,1,0,0,0,0,0,0,0,0,0,-1,965,1023,0,0
-252,1,0,0,0,0,0,0,0,0,0,-1,972,1023,0,0
-245,1,0,0,0,0,0,0,0,0,0,-1,979,1023,0,0
-238,1,0,0,0,0,0,0,0,0,0,-1,986,1023,0,0
-231,1,0,0,0,0,0,0,0,0,0,-1,993,1023,0,0
-224,1,0,0,0,0,0,0,0,0,0,-1,1000,1023,0,0
-217,1,0,0,0,0,0,0,0,0,0,-1,1007,1023,0,0
-210,1,0,0,0,0,0,0,0,0,0,-1,1014,1023,0,0
-203,1,0,0,0,0,0,0,0,0,0,-1,1021,1023,0,0
-196,1,0,0,0,0,0,0,0,0,0,-1,1028,1023,0,0
-189,1,0,0,0,0,0,0,0,0,0,-1,1035,1023,0,0
-182,1,0,0,0,0,0,0,0,0,0,-1,1042,1023,0,0
-175,1,0,0,0,0,0,0,0,0,0,-1,1049,1023,0,0
-168,1,0,0,0,0,0,0,0,0,0,-1,1056,1023,0,0
-161,1,0,0,0,0,0,0,0,0,0,-1,1063,1023,0,0
-154,1,0,0,0,0,0,0,0,0,0,-1,1070,1023,0,0
-147,1,0,0,0,0,0,0,0,0,0,-1,1077,1023,0,0
-140,1,0,0,0,0,0,0,0,0,0,-1,1084,1023,0,0
-133,1,0,0,0,0,0,0,0,0,0,-1,1091,1023,0,0
-126,1,0,0,0,0,0,0,0,0,0,-1,1098,1023,0,0
-119,1,0,0,0,0,0,0,0,0,0,-1,1105,1023,0,0
-112,1,0,0,0,0,0,0,0,0,0,-1,1112,1023,0,0
-105,1,0,0,0,0,0,0,0,0,0,-1,1119,1023,0,0
-98,1,0,0,0,0,0,0,0,0,0,-1,1126,1023,0,0
-91,1,0,0,0,0,0,0,0,0,0,-1,1133,1023,0,0
-84,1,0,0,0,0,0,0,0,0,0,-1,1140,1023,0,0
-77,1,0,0,0,0,0,0,0,0,0,-1,1147,1023,0,0
-70,1,0,0,0,0,0,0,0,0,0,-1,1154,1023,0,0
-63,1,0,0,0,0,0,0,0,0,0,-1,1161,1023,0,0
-56,1,0,0,0,0,0,0,0,0,0,-1,1168,1023,0,0
-49,1,0,0,0,0,0,0,0,0,0,-1,1175,1023,0,0
-42,1,0,0,0,0,0,0,0,0,0,-1,1182,1023,0,0
-35,1,0,0,0,0,0,0,0,0,0,-1,1189,1023,0,0
-28,1,0,0,0,0,0,0,0,0,0,-1,1196,1023,0,0
-21,1,0,0,0,0,0,0,0,0,0,-1,1203,1023,0,0
-14,1,0,0,0,0,0,0,0,0,0,-1,1210,1023,0,0
-7,1,0,0,0,0,0,0,0,0,0,-1,1217,1023,0,0
0,1,0,0,0,0,0,0,0,0,0,-1,1224,1023,0,0
7,1,0,0,0,0,0,0,0,0,0,-1,1231,1023,0,0
14,1,0,0,0,0,0,0,0,0,0,-1,1238,1023,0,0
21,1,0,0,0,0,0,0,0,0,0,-1,1245,1023,0,0
28,1,0,0,0,0,0,0,0,0,0,-1,1252,1023,0,0
35,1,0,0,0,0,0,0,0,0,0,-1,1259,1023,0,0
42,1,0,0,0,0,0,0,0,0,0,-1,1266,1023,0,0
49,1,0,0,0,0,0,0,0,0,0,-1,1273,1023,0,0
56,1,0,0,0,0,0,0,0,0,0,-1,1280,1023,0,0
63,1,0,0,0,0,0,0,0,0,0,-1,1287,1023,0,0
70,1,0,0,0,0,0,0,0,0,0,-1,1294,1023,0,0
77,1,0,0,0,0,0,0,0,0,0,-1,1301,1023,0,0
84,1,0,0,0,0,0,0,0,0,0,-1,1308,1023,0,0
91,1,0,0,0,0,0,0,0,0,0,-1,1315,1023,0,0
98,1,0,0,0,0,0,0,0,0,0,-1,1322,1023,0,0
105,1,0,0,0,0,0,0,0,0,0,-1,1329,1023,0,0
112,1,0,0,0,0,0,0,0,0,0,-1,1336,1023,0,0
119,1,0,0,0,0,0,0,0,0,0,-1,1343,1023,0,0
126,1,0,0,0,0,0,0,0,0,0,-1,1350,1023,0,0
133,1,0,0,0,0,0,0,0,0,0,-1,1357,1023,0,0
140,1,0,0,0,0,0,0,0,0,0,-1,1364,1023,0,0
147,1,0,0,0,0,0,0,0,0,0,-1,1371,1023,0,0
154,1,0,0,0,0,0,0,0,0,0,-1,1378,1023,0,0
161,1,0,0,0,0,0,0,0,0,0,-1,1385,1023,0,0
168,1,0,0,0,0,0,0,0,0,0,-1,1392,1023,0,0
175,1,0,0,0,0,0,0,0,0,0,-1,1399,1023,0,0
182,1,0,0,0,0,0,0,0,0,0,-1,1406,1023,0,0
189,1,0,0,0,0,0,0,0,0,0,-1,1413,1023,0,0
196,1,0,0,0,0,0,0,0,0,0,-1,1420,1023,0,0
203,1,0,0,0,0,0,0,0,0,0,-1,1427,1023,0,0
210,1,0,0,0,0,0,0,0,0,0,-1,1434,1023,0,0
217,1,0,0,0,0,0,0,0,0,0,-1,1441,1023,0,0
224,1,0,0,0,0,0,0,0,0,0,-1,1448,1023,0,0
231,1,0,0,0,0,0,0,0,0,0,-1,1455,1023,0,0
238,1,0,0,0,0,0,0,0,0,0,-1,1462,1023,0,0
245,1,0,0,0,0,0,0,0,0,0,-1,1469,1023,0,0
252,1,0,0,0,0,0,0,0,0,0,-1,1476,1023,0,0
259,1,0,0,0,0,0,0,0,0,0,-1,1483,1023,0,0
266,1,0,0,0,0,0,0,0,0,0,-1,1490,1023,0,0
273,1,0,0,0,0,0,0,0,0,0,-1,1497,1023,0,0
280,1,0,0,0,0,0,0,0,0,0,-1,1504,1023,0,0
287,1,0,0,0,0,0,0,0,0,0,-1,1511,1023,0,0
294,1,0,0,0,0,0,0,0,0,0,-1,1518,1023,0,0
301,1,0,0,0,0,0,0,0,0,0,-1,1525,1023,0,0
308,1,0,0,0,0,0,0,0,0,0,-1,1532,1023,0,0
315,1,0,0,0,0,0,0,0,0,0,-1,1539,1023,0,0
322,1,0,0,0,0,0,0,0,0,0,-1,1546,1023,0,0
329,1,0,0,0,0,0,0,0,0,0,-1,1553,1023,0,0
336,1,0,0,0,0,0,0,0,0,0,-1,1560,1023,0,0
343,1,0,0,0,0,0,0,0,0,0,-1,1567,1023,0,0
350,1,0,0,0,0,0,0,0,0,0,-1,1574,1023,0,0
357,1,0,0,0,0,0,0,0,0,0,-1,1581,1023,0,0
364,1,0,0,0,0,0,0,0,0,0,-1,1588,1023,0,0
371,1,0,0,0,0,0,0,0,0,0,-1,1595,1023,0,0
378,1,0,0,0,0,0,0,0,0,0,-1,1602,1023,0,0
385,1,0,0,0,0,0,0,0,0,0,-1,1609,1023,0,0
392,1,0,0,0,0,0,0,0,0,0,-1,1616,1023,0,0
399,1,0,0,0,0,0,0,0,0,0,-1,1623,1023,0,0
406,1,0,0,0,0,0,0,0,0,0,-1,1630,1023,0,0
413,1,0,0,0,0,0,0,0,0,0,-1,1637,1023,0,0
420,1,0,0,0,0,0,0,0,0,0,-1,1644,1023,0,0
427,1,0,0,0,0,0,0,0,0,0,-1,1651,1023,0,0
434,1,0,0,0,0,0,0,0,0,0,-1,1658,1023,0,0
441,1,0,0,0,0,0,0,0,0,0,-1,1665,1023,0,0
448,1,0,0,0,0,0,0,0,0,0,-1,1672,1023,0,0
455,1,0,0,0,0,0,0,0,0,0,-1,1679,1023,0,0
462,1,0,0,0,0,0,0,0,0,0,-1,1686,1023,0,0
469,1,0,0,0,0,0,0,0,0,0,-1,1693,1023,0,0
476,1,0,0,0,0,0,0,0,0,0,-1,1700,1023,0,0
483,1,0,0,0,0,0,0,0,0,0,-1,1707,1023,0,0
490,1,0,0,0,0,0,0,0,0,0,-1,1714,1023,0,0
497,1,0,0,0,0,0,0,0,0,0,-1,1721,1023,0,0
504,1,0,0,0,0,0,0,0,0,0,-1,1728,1023,0,0
511,1,0,0,0,0,0,0,0,0,0,-1,1735,1023,0,0
518,1,0,0,0,0,0,0,0,0,0,-1,1742,1023,0,0
525,1,0,0,0,0,0,0,0,0,0,-1,1749,1023,0,0
532,1,0,0,0,0,0,0,0,0,0,-1,1756,1023,0,0
539,1,0,0,0,0,0,0,0,0,0,-1,1763,1023,0,0
546,1,0,0,0,0,0,0,0,0,0,-1,1770,1023,0,0
553,1,0,0,0,0,0,0,0,0,0,-1,1777,1023,0,0
560,1,0,0,0,0,0,0,0,0,0,-1,1784,1023,0,0
567,1,0,0,0,0,0,0,0,0,0,-1,1791,1023,0,0
574,1,0,0,0,0,0,0,0,0,0,-1,1798,1023,0,0
581,1,0,0,0,0,0,0,0,0,0,-1,1805,1023,0,0
588,1,0,0,0,0,0,0,0,0,0,-1,1812,1023,0,0
595,1,0,0,0,0,0,0,0,0,0,-1,1819,1023,0,0
602,1,0,0,0,0,0,0,0,0,0,-1,1826,1023,0,0
609,1,0,0,0,0,0,0,0,0,0,-1,1833,1023,0,0
616,1,0,0,0,0,0,0,0,0,0,-1,1840,1023,0,0
623,1,0,0,0,0,0,0,0,0,0,-1,1847,1023,0,0
630,1,0,0,0,0,0,0,0,0,0,-1,1854,1023,0,0
637,1,0,0,0,0,0,0,0,0,0,-1,1861,1023,0,0
644,1,0,0,0,0,0,0,0,0,0,-1,1868,1023,0,0
651,1,19.5854,2.38025,0.00461945,0.0012857,-0.00191616,0.00549229,0.000412861,-0.427429,0.00353196,0.0388228,1875,1023,19.5855,-2.38027
658,1,19.62,2.43524,0.00314161,0.000652165,-0.00183491,0.00411415,-0.000320371,-0.487372,0.00285555,0.0403415,1882,1023,19.62,-2.43523
665,1,19.585,2.48114,0.00188643,0.000302133,-0.0014787,0.0027718,-0.000583234,-0.539497,0.00206985,0.0422308,1889,1023,19.5849,-2.48113
672,1,19.5071,2.42737,0.000746602,0.000267044,-0.000587896,0.00114174,-0.000128091,-0.591767,0.00080725,0.0409945,1896,1023,19.507,-2.42738
679,1,19.5942,2.30902,-0.000604689,0.000378269,0.000722085,0.000760265,-0.000986685,1.0842,0.00101142,0.0396112,1903,1023,19.5942,-2.30902
686,1,19.6818,2.2168,-0.00180021,0.000505465,0.00201389,0.00167315,-0.00296789,1.04535,0.00271404,0.0405667,1910,1023,19.6818,-2.21682
693,1,19.5586,2.26276,-0.00271346,0.000636189,0.00314016,0.00252025,-0.00459752,1.03039,0.00416737,0.0363816,1917,1023,19.5586,-2.26275
700,1,19.49,2.38885,-0.00342956,0.000763776,0.00399891,0.00318234,-0.00584813,1.02685,0.00528892,0.030313,1924,1023,19.49,-2.38883
707,1,19.432,2.37061,-0.00392503,0.000803711,0.00458547,0.00359849,-0.00671981,1.02343,0.00604744,0.0261346,1931,1023,19.432,-2.37063
714,1,19.4099,2.33173,-0.0042828,0.0009162,0.00495965,0.0039163,-0.0072829,1.02678,0.00656252,0.0299108,1938,1023,19.4099,-2.33171
721,1,19.4568,2.78784,-0.00444367,0.00104098,0.00512962,0.00411529,-0.00751799,1.03087,0.00681157,0.0351064,1945,1023,19.4567,-2.78786
728,1,19.0741,3.33588,-0.00451278,0.00120735,0.00504519,0.00414676,-0.00745218,1.04326,0.00678669,0.0251018,1952,1023,19.0741,-3.33585
735,1,18.9723,3.48633,-0.00454076,0.00145753,0.00469902,0.00403293,-0.00711617,1.06943,0.00651847,0.0169505,1959,1023,18.9723,-3.4863
742,1,18.9819,3.49762,-0.00443834,0.00166778,0.0039664,0.00362007,-0.00639063,1.1134,0.00585299,0.0152854,1966,1023,18.9819,-3.49763
749,1,18.9999,3.53094,-0.00425999,0.000627993,0.00312399,0.00215041,-0.00578241,1.11734,0.00473732,0.0118684,1973,1023,18.9999,-3.53093
756,1,19.0262,3.56055,-0.00390915,-0.000672253,0.00286292,0.000998023,-0.00557942,1.04266,0.00409305,0.0120592,1980,1023,19.0263,-3.56052
763,1,19.0177,3.58807,-0.0037763,-0.00300993,0.002962,-0.000406434,-0.00637979,0.849725,0.0041244,0.0140961,1987,1023,19.0177,-3.58807
770,1,19.0029,3.61896,-0.00366507,-0.00588033,0.00311193,-0.00146953,-0.00807587,0.614424,0.00496707,0.0130515,1994,1023,19.003,-3.61897
777,1,18.9745,3.65503,-0.0035762,-0.0101675,0.00409639,-0.00161431,-0.0121294,0.44665,0.00760549,0.0138176,2001,1023,18.9745,-3.65501
784,1,18.9526,3.63007,-0.00369176,-0.0160528,0.00618399,-0.00112925,-0.0186153,0.392839,0.0120514,0.0332088,2008,1023,18.9527,-3.63005
791,1,18.748,4.30066,-0.00383125,-0.0239459,0.0093251,-0.000173349,-0.0276038,0.37382,0.018345,0.0448534,2015,1023,18.748,-4.30068
798,1,18.4646,4.53448,-0.00360989,-0.0342169,0.0136286,0.00157894,-0.0394057,0.363786,0.0268123,0.0487104,2022,1023,18.4646,-4.53448
805,1,18.3003,4.84363,0,0,0,0,0,0,0,-1,2029,1023,18.3002,-4.84361
812,1,18.5532,5.06067,0,0,0,0,0,0,0,-1,2036,1023,18.5533,-5.0607
-700,-6,0,0,0,0,0,0,0,0,0,-1,524,1030,0,0
-693,-6,-15.2683,2.9823,0.0815356,0.0452262,-0.023512,0.0930862,0.0336756,-0.456636,0.0544236,0.0424795,531,1030,-15.2683,-2.98234
-686,-6,-14.739,2.47754,0.0717128,0.0398563,-0.0179803,0.0798054,0.0317637,-0.422921,0.046394,0.0450603,538,1030,-14.7389,-2.47749
-679,-6,-14.1396,1.87488,0.0604875,0.033982,-0.0135294,0.0661736,0.0282959,-0.397863,0.0383386,0.0483686,545,1030,-14.1396,-1.87487
-672,-6,-12.6683,0.851318,0,0,0,0,0,0,0,-1,552,1030,-12.6683,-0.851336
-665,-6,-12.5638,0.871826,0.0387271,0.022546,-0.00705908,0.0413738,0.0198994,-0.358709,0.0238929,0.0425616,559,1030,-12.5639,-0.871825
-658,-6,-12.4702,1.22717,0.0293112,0.0174981,-0.00481537,0.0310254,0.015784,-0.341988,0.0179134,0.0367517,566,1030,-12.4702,-1.22718
-651,-6,-12.6059,1.19763,0.0212773,0.013086,-0.0031574,0.0223531,0.0120102,-0.328375,0.0129175,0.0330599,573,1030,-12.6059,-1.19758
-644,-6,-12.5143,1.18921,0.0149223,0.00922602,-0.00209512,0.0156099,0.00853842,-0.317116,0.00902561,0.0323366,580,1030,-12.5143,-1.18924
-637,-6,-12.5807,1.22168,0.00952219,0.0064897,-0.00143632,0.0100945,0.0059174,-0.379167,0.00585686,0.0194271,587,1030,-12.5807,-1.22172
-630,-6,-12.6102,1.1593,0.00471539,0.00418148,-0.00180759,0.00627563,0.00262125,-0.712085,0.00363957,0.0134717,594,1030,-12.6102,-1.15935
-623,-6,-12.595,1.1637,0.000994867,0.000894192,-0.00217944,0.00312455,-0.00123549,-0.773852,0.00259483,0.0126411,601,1030,-12.595,-1.16374
-616,-6,-12.5894,1.16833,-7.97947e-05,0.000415944,-0.00291344,0.00309204,-0.00275589,-0.827835,0.00337817,0.0138833,608,1030,-12.5894,-1.16839
-609,-6,-12.5578,1.17725,0.000294078,9.75703e-05,-0.00374305,0.00394017,-0.00354852,-0.772276,0.00432556,0.0156627,615,1030,-12.5578,-1.17727
-602,-6,-12.5522,1.16711,0.000510592,0.000183891,-0.00464108,0.0049912,-0.00429671,-0.767807,0.00536737,0.0117275,622,1030,-12.5522,-1.16716
-595,-6,-12.5205,1.14282,0.000385817,-4.47049e-05,-0.00521054,0.00538554,-0.00504442,-0.764754,0.00602281,0.0137721,629,1030,-12.5205,-1.14287
-588,-6,-12.5525,0.768311,0.00022058,-0.000161367,-0.00526953,0.0053026,-0.00524339,-0.767286,0.00608876,0.0168374,636,1030,-12.5525,-0.768303
-581,-6,-12.6137,0.492432,-1.85521e-06,-0.000162783,-0.0048276,0.00474595,-0.00491059,-0.777065,0.00557547,0.0226345,643,1030,-12.6137,-0.49248
-574,-6,-12.6182,0.489014,-0.000287488,-0.000130972,-0.00427443,0.00406591,-0.00448437,-0.794551,0.00493848,0.0303536,650,1030,-12.6182,-0.489021
-567,-6,-12.6683,0.476807,-0.000862949,4.08959e-07,-0.00329471,0.0028916,-0.00375414,-0.850538,0.00384768,0.0391333,657,1030,-12.6683,-0.476836
-560,-6,-12.5595,0.586182,-0.00176324,0.000154744,-0.00189547,0.00132001,-0.00292851,-1.01959,0.0025108,0.040072,664,1030,-12.5595,-0.586199
-553,-6,-12.3955,0.499512,-0.00307344,0.000277987,-0.000104294,0.000281229,-0.00307669,-1.53972,0.002151,0.0392499,671,1030,-12.3955,-0.499456
-546,-6,-12.4257,0.38147,-0.00490923,0.000292074,0.0020407,0.000997151,-0.00561431,1.23813,0.00411572,0.0413578,678,1030,-12.4257,-0.381501
-539,-6,-12.5712,0.446289,-0.0073118,6.24574e-05,0.00415377,0.00192949,-0.00917883,1.14838,0.00685353,0.0420924,685,1030,-12.5712,-0.446248
-532,-6,-12.7562,0.673828,-0.0105979,-0.000144626,0.00538583,0.00213372,-0.0128763,1.1706,0.0093767,0.0408106,692,1030,-12.7562,-0.673888
-525,-6,0,0,0,0,0,0,0,0,0,-1,699,1030,0,0
-518,-6,0,0,0,0,0,0,0,0,0,-1,706,1030,0,0
-511,-6,0,0,0,0,0,0,0,0,0,-1,713,1030,0,0
-504,-6,0,0,0,0,0,0,0,0,0,-1,720,1030,0,0
-497,-6,0,0,0,0,0,0,0,0,0,-1,727,1030,0,0
-490,-6,0,0,0,0,0,0,0,0,0,-1,734,1030,0,0
-483,-6,0,0,0,0,0,0,0,0,0,-1,741,1030,0,0
-476,-6,0,0,0,0,0,0,0,0,0,-1,748,1030,0,0
-469,-6,0,0,0,0,0,0,0,0,0,-1,755,1030,0,0
-462,-6,0,0,0,0,0,0,0,0,0,-1,762,1030,0,0
-455,-6,0,0,0,0,0,0,0,0,0,-1,769,1030,0,0
-448,-6,0,0,0,0,0,0,0,0,0,-1,776,1030,0,0
-441,-6,0,0,0,0,0,0,0,0,0,-1,783,1030,0,0
-434,-6,0,0,0,0,0,0,0,0,0,-1,790,1030,0,0
-427,-6,0,0,0,0,0,0,0,0,0,-1,797,1030,0,0
-420,-6,0,0,0,0,0,0,0,0,0,-1,804,1030,0,0
-413,-6,0,0,0,0,0,0,0,0,0,-1,811,1030,0,0
-406,-6,0,0,0,0,0,0,0,0,0,-1,818,1030,0,0
-399,-6,0,0,0,0,0,0,0,0,0,-1,825,1030,0,0
-392,-6,0,0,0,0,0,0,0,0,0,-1,832,1030,0,0
-385,-6,0,0,0,0,0,0,0,0,0,-1,839,1030,0,0
-378,-6,0,0,0,0,0,0,0,0,0,-1,846,1030,0,0
-371,-6,0,0,0,0,0,0,0,0,0,-1,853,1030,0,0
-364,-6,0,0,0,0,0,0,0,0,0,-1,860,1030,0,0
-357,-6,0,0,0,0,0,0,0,0,0,-1,867,1030,0,0
-350,-6,0,0,0,0,0,0,0,0,0,-1,874,1030,0,0
-343,-6,0,0,0,0,0,0,0,0,0,-1,881,1030,0,0
-336,-6,0,0,0,0,0,0,0,0,0,-1,888,1030,0,0
-329,-6,0,0,0,0,0,0,0,0,0,-1,895,1030,0,0
-322,-6,0,0,0,0,0,0,0,0,0,-1,902,1030,0,0
-315,-6,0,0,0,0,0,0,0,0,0,-1,909,1030,0,0
-308,-6,0,0,0,0,0,0,0,0,0,-1,916,1030,0,0
-301,-6,0,0,0,0,0,0,0,0,0,-1,923,1030,0,0
-294,-6,0,0,0,0,0,0,0,0,0,-1,930,1030,0,0
-287,-6,0,0,0,0,0,0,0,0,0,-1,937,1030,0,0
-280,-6,0,0,0,0,0,0,0,0,0,-1,944,1030,0,0
-273,-6,0,0,0,0,0,0,0,0,0,-1,951,1030,0,0
-266,-6,0,0,0,0,0,0,0,0,0,-1,958,1030,0,0
-259,-6,0,0,0,0,0,0,0,0,0,-1,965,1030,0,0
-252,-6,0,0,0,0,0,0,0,0,0,-1,972,1030,0,0
-245,-6,0,0,0,0,0,0,0,0,0,-1,979,1030,0,0
-238,-6,0,0,0,0,0,0,0,0,0,-1,986,1030,0,0
-231,-6,0,0,0,0,0,0,0,0,0,-1,993,1030,0,0
-224,-6,0,0,0,0,0,0,0,0,0,-1,1000,1030,0,0
-217,-6,0,0,0,0,0,0,0,0,0,-1,1007,1030,0,0
-210,-6,0,0,0,0,0,0,0,0,0,-1,1014,1030,0,0
-203,-6,0,0,0,0,0,0,0,0,0,-1,1021,1030,0,0
-196,-6,0,0,0,0,0,0,0,0,0,-1,1028,1030,0,0
-189,-6,0,0,0,0,0,0,0,0,0,-1,1035,1030,0,0
-182,-6,0,0,0,0,0,0,0,0,0,-1,1042,1030,0,0
-175,-6,0,0,0,0,0,0,0,0,0,-1,1049,1030,0,0
-168,-6,0,0,0,0,0,0,0,0,0,-1,1056,1030,0,0
-161,-6,0,0,0,0,0,0,0,0,0,-1,1063,1030,0,0
-154,-6,0,0,0,0,0,0,0,0,0,-1,1070,1030,0,0
-147,-6,0,0,0,0,0,0,0,0,0,-1,1077,1030,0,0
-140,-6,0,0,0,0,0,0,0,0,0,-1,1084,1030,0,0
-133,-6,0,0,0,0,0,0,0,0,0,-1,1091,1030,0,0
-126,-6,0,0,0,0,0,0,0,0,0,-1,1098,1030,0,0
-119,-6,0,0,0,0,0,0,0,0,0,-1,1105,1030,0,0
-112,-6,0,0,0,0,0,0,0,0,0,-1,1112,1030,0,0
-105,-6,0,0,0,0,0,0,0,0,0,-1,1119,1030,0,0
-98,-6,0,0,0,0,0,0,0,0,0,-1,1126,1030,0,0
-91,-6,0,0,0,0,0,0,0,0,0,-1,1133,1030,0,0
-84,-6,0,0,0,0,0,0,0,0,0,-1,1140,1030,0,0
-77,-6,0,0,0,0,0,0,0,0,0,-1,1147,1030,0,0
-70,-6,0,0,0,0,0,0,0,0,0,-1,1154,1030,0,0
-63,-6,0,0,0,0,0,0,0,0,0,-1,1161,1030,0,0
-56,-6,0,0,0,0,0,0,0,0,0,-1,1168,1030,0,0
-49,-6,0,0,0,0,0,0,0,0,0,-1,1175,1030,0,0
-42,-6,0,0,0,0,0,0,0,0,0,-1,1182,1030,0,0
-35,-6,0,0,0,0,0,0,0,0,0,-1,1189,1030,0,0
-28,-6,0,0,0,0,0,0,0,0,0,-1,1196,1030,0,0
-21,-6,0,0,0,0,0,0,0,0,0,-1,1203,1030,0,0
-14,-6,0,0,0,0,0,0,0,0,0,-1,1210,1030,0,0
-7,-6,0,0,0,0,0,0,0,0,0,-1,1217,1030,0,0
0,-6,0,0,0,0,0,0,0,0,0,-1,1224,1030,0,0
7,-6,0,0,0,0,0,0,0,0,0,-1,1231,1030,0,0
14,-6,0,0,0,0,0,0,0,0,0,-1,1238,1030,0,0
21,-6,0,0,0,0,0,0,0,0,0,-1,1245,1030,0,0
28,-6,0,0,0,0,0,0,0,0,0,-1,1252,1030,0,0
35,-6,0,0,0,0,0,0,0,0,0,-1,1259,1030,0,0
42,-6,0,0,0,0,0,0,0,0,0,-1,1266,1030,0,0
49,-6,0,0,0,0,0,0,0,0,0,-1,1273,1030,0,0
56,-6,0,0,0,0,0,0,0,0,0,-1,1280,1030,0,0
63,-6,0,0,0,0,0,0,0,0,0,-1,1287,1030,0,0
70,-6,0,0,0,0,0,0,0,0,0,-1,1294,1030,0,0
77,-6,0,0,0,0,0,0,0,0,0,-1,1301,1030,0,0
84,-6,0,0,0,0,0,0,0,0,0,-1,1308,1030,0,0
91,-6,0,0,0,0,0,0,0,0,0,-1,1315,1030,0,0
98,-6,0,0,0,0,0,0,0,0,0,-1,1322,1030,0,0
105,-6,0,0,0,0,0,0,0,0,0,-1,1329,1030,0,0
112,-6,0,0,0,0,0,0,0,0,0,-1,1336,1030,0,0
119,-6,0,0,0,0,0,0,0,0,0,-1,1343,1030,0,0
126,-6,0,0,0,0,0,0,0,0,0,-1,1350,1030,0,0
133,-6,0,0,0,0,0,0,0,0,0,-1,1357,1030,0,0
140,-6,0,0,0,0,0,0,0,0,0,-1,1364,1030,0,0
147,-6,0,0,0,0,0,0,0,0,0,-1,1371,1030,0,0
154,-6,0,0,0,0,0,0,0,0,0,-1,1378,1030,0,0
161,-6,0,0,0,0,0,0,0,0,0,-1,1385,1030,0,0
168,-6,0,0,0,0,0,0,0,0,0,-1,1392,1030,0,0
175,-6,0,0,0,0,0,0,0,0,0,-1,1399,1030,0,0
182,-6,0,0,0,0,0,0,0,0,0,-1,1406,1030,0,0
189,-6,0,0,0,0,0,0,0,0,0,-1,1413,1030,0,0
196,-6,0,0,0,0,0,0,0,0,0,-1,1420,1030,0,0
203,-6,0,0,0,0,0,0,0,0,0,-1,1427,1030,0,0
210,-6,0,0,0,0,0,0,0,0,0,-1,1434,1030,0,0
217,-6,0,0,0,0,0,0,0,0,0,-1,1441,1030,0,0
224,-6,0,0,0,0,0,0,0,0,0,-1,1448,1030,0,0
231,-6,0,0,0,0,0,0,0,0,0,-1,1455,1030,0,0
238,-6,0,0,0,0,0,0,0,0,0,-1,1462,1030,0,0
245,-6,0,0,0,0,0,0,0,0,0,-1,1469,1030,0,0
252,-6,0,0,0,0,0,0,0,0,0,-1,1476,1030,0,0
259,-6,0,0,0,0,0,0,0,0,0,-1,1483,1030,0,0
266,-6,0,0,0,0,0,0,0,0,0,-1,1490,1030,0,0
273,-6,0,0,0,0,0,0,0,0,0,-1,1497,1030,0,0
280,-6,0,0,0,0,0,0,0,0,0,-1,1504,1030,0,0
287,-6,0,0,0,0,0,0,0,0,0,-1,1511,1030,0,0
294,-6,0,0,0,0,0,0,0,0,0,-1,1518,1030,0,0
301,-6,0,0,0,0,0,0,0,0,0,-1,1525,1030,0,0
308,-6,0,0,0,0,0,0,0,0,0,-1,1532,1030,0,0
315,-6,0,0,0,0,0,0,0,0,0,-1,1539,1030,0,0
322,-6,0,0,0,0,0,0,0,0,0,-1,1546,1030,0,0
329,-6,0,0,0,0,0,0,0,0,0,-1,1553,1030,0,0
336,-6,0,0,0,0,0,0,0,0,0,-1,1560,1030,0,0
343,-6,0,0,0,0,0,0,0,0,0,-1,1567,1030,0,0
350,-6,0,0,0,0,0,0,0,0,0,-1,1574,1030,0,0
357,-6,0,0,0,0,0,0,0,0,0,-1,1581,1030,0,0
364,-6,0,0,0,0,0,0,0,0,0,-1,1588,1030,0,0
371,-6,0,0,0,0,0,0,0,0,0,-1,1595,1030,0,0
378,-6,0,0,0,0,0,0,0,0,0,-1,1602,1030,0,0
385,-6,0,0,0,0,0,0,0,0,0,-1,1609,1030,0,0
392,-6,0,0,0,0,0,0,0,0,0,-1,1616,1030,0,0
399,-6,0,0,0,0,0,0,0,0,0,-1,1623,1030,0,0
406,-6,0,0,0,0,0,0,0,0,0,-1,1630,1030,0,0
413,-6,0,0,0,0,0,0,0,0,0,-1,1637,1030,0,0
420,-6,0,0,0,0,0,0,0,0,0,-1,1644,1030,0,0
427,-6,0,0,0,0,0,0,0,0,0,-1,1651,1030,0,0
434,-6,0,0,0,0,0,0,0,0,0,-1,1658,1030,0,0
441,-6,0,0,0,0,0,0,0,0,0,-1,1665,1030,0,0
448,-6,0,0,0,0,0,0,0,0,0,-1,1672,1030,0,0
455,-6,0,0,0,0,0,0,0,0,0,-1,1679,1030,0,0
462,-6,0,0,0,0,0,0,0,0,0,-1,1686,1030,0,0
469,-6,0,0,0,0,0,0,0,0,0,-1,1693,1030,0,0
476,-6,0,0,0,0,0,0,0,0,0,-1,1700,1030,0,0
483,-6,0,0,0,0,0,0,0,0,0,-1,1707,1030,0,0
490,-6,0,0,0,0,0,0,0,0,0,-1,1714,1030,0,0
497,-6,0,0,0,0,0,0,0,0,0,-1,1721,1030,0,0
504,-6,0,0,0,0,0,0,0,0,0,-1,1728,1030,0,0
511,-6,0,0,0,0,0,0,0,0,0,-1,1735,1030,0,0
518,-6,0,0,0,0,0,0,0,0,0,-1,1742,1030,0,0
525,-6,0,0,0,0,0,0,0,0,0,-1,1749,1030,0,0
532,-6,0,0,0,0,0,0,0,0,0,-1,1756,1030,0,0
539,-6,0,0,0,0,0,0,0,0,0,-1,1763,1030,0,0
546,-6,0,0,0,0,0,0,0,0,0,-1,1770,1030,0,0
553,-6,0,0,0,0,0,0,0,0,0,-1,1777,1030,0,0
560,-6,0,0,0,0,0,0,0,0,0,-1,1784,1030,0,0
567,-6,0,0,0,0,0,0,0,0,0,-1,1791,1030,0,0
574,-6,0,0,0,0,0,0,0,0,0,-1,1798,1030,0,0
581,-6,0,0,0,0,0,0,0,0,0,-1,1805,1030,0,0
588,-6,0,0,0,0,0,0,0,0,0,-1,1812,1030,0,0
595,-6,0,0,0,0,0,0,0,0,0,-1,1819,1030,0,0
602,-6,0,0,0,0,0,0,0,0,0,-1,1826,1030,0,0
609,-6,0,0,0,0,0,0,0,0,0,-1,1833,1030,0,0
616,-6,0,0,0,0,0,0,0,0,0,-1,1840,1030,0,0
623,-6,0,0,0,0,0,0,0,0,0,-1,1847,1030,0,0
630,-6,0,0,0,0,0,0,0,0,0,-1,1854,1030,0,0
637,-6,0,0,0,0,0,0,0,0,0,-1,1861,1030,0,0
644,-6,0,0,0,0,0,0,0,0,0,-1,1868,1030,0,0
651,-6,19.5742,2.46118,0.0039439,0.00124835,-0.000803453,0.00416521,0.00102704,-0.268786,0.00250563,0.0387825,1875,1030,19.5742,-2.46112
658,-6,19.7047,2.40344,0.00268674,0.000661347,-0.000938534,0.00305477,0.000293319,-0.373704,0.00194612,0.0418839,1882,1030,19.7047,-2.40341
665,-6,19.6844,2.43494,0.00159184,0.000313125,-0.000824755,0.00199604,-9.10682e-05,-0.455677,0.00136206,0.0436675,1889,1030,19.6845,-2.43495
672,-6,19.5938,2.37109,0.000634285,0.000212056,-0.000120328,0.000666169,0.000180172,-0.259021,0.000397893,0.0423442,1896,1030,19.5937,-2.37111
679,-6,19.6167,2.3949,-0.000545811,0.000245845,0.0010897,0.00100938,-0.00130934,0.959611,0.00134244,0.0401433,1903,1030,19.6166,-2.39488
686,-6,19.5232,2.52393,-0.00162751,0.00030022,0.00233636,0.00186373,-0.00319102,0.981037,0.00295171,0.0391454,1910,1030,19.5231,-2.52394
693,-6,19.4376,2.44885,-0.00245444,0.00036717,0.00344796,0.00268179,-0.00476906,0.979592,0.00435766,0.0367139,1917,1030,19.4376,-2.44887
700,-6,19.4272,2.43616,-0.00310594,0.000442047,0.00431752,0.00333582,-0.00599971,0.980325,0.00546252,0.0297391,1924,1030,19.4272,-2.4361
707,-6,19.3997,2.39832,-0.00355405,0.000457606,0.00489294,0.0037399,-0.00683634,0.979922,0.00619282,0.0286205,1931,1030,19.3997,-2.39833
714,-6,19.3765,2.28918,-0.0038866,0.000556547,0.00527071,0.00405475,-0.0073848,0.984847,0.00669726,0.0397966,1938,1030,19.3764,-2.28914
721,-6,19.2643,3.04468,-0.00405213,0.000674833,0.00545113,0.00425281,-0.00763011,0.989954,0.00695235,0.0423217,1945,1030,19.2643,-3.0447
728,-6,19.0249,3.43958,-0.00413907,0.000856278,0.00536264,0.00427437,-0.00755715,1.00334,0.00691802,0.0311275,1952,1030,19.0249,-3.43954
735,-6,19.0015,3.47253,-0.00417191,0.00113182,0.00500317,0.00414248,-0.00718256,1.02909,0.00661658,0.0170143,1959,1030,19.0015,-3.47252
742,-6,19.016,3.49792,-0.00405549,0.00133992,0.00425773,0.00368264,-0.00639821,1.06778,0.00589015,0.0135578,1966,1030,19.016,-3.4979
749,-6,19.0228,3.53259,-0.00394483,0.000504991,0.00342312,0.00236273,-0.00580257,1.07357,0.00485167,0.0120956,1973,1030,19.0228,-3.53262
756,-6,19.0487,3.53528,-0.00364537,-0.000548135,0.00306958,0.00134135,-0.00553485,1.01902,0.00420888,0.013142,1980,1030,19.0488,-3.53526
763,-6,19.0415,3.55835,-0.0034644,-0.00250678,0.00300092,5.32849e-05,-0.00602447,0.864509,0.00403419,0.0119707,1987,1030,19.0415,-3.55841
770,-6,19.0121,3.59973,-0.00336835,-0.00490026,0.0029726,-0.00106461,-0.007204,0.659305,0.00449007,0.0102403,1994,1030,19.0121,-3.59975
777,-6,18.984,3.61096,-0.00327442,-0.00855149,0.00372025,-0.00135202,-0.0104739,0.476949,0.0065784,0.0129832,2001,1030,18.9841,-3.61093
784,-6,18.9559,3.58618,-0.00336377,-0.0135856,0.00554811,-0.000931278,-0.0160181,0.413195,0.0103822,0.0349458,2008,1030,18.9559,-3.58624
791,-6,18.928,3.56689,-0.00348968,-0.0203572,0.00833029,-6.92355e-05,-0.0237776,0.389613,0.0158287,0.0495325,2015,1030,18.928,-3.56686
798,-6,19.0081,3.43677,0,0,0,0,0,0,0,-1,2022,1030,19.0081,-3.43674
805,-6,18.7899,3.35608,0,0,0,0,0,0,0,-1,2029,1030,18.7899,-3.35611
812,-6,20.6704,4.87549,0,0,0,0,0,0,0,-1,2036,1030,20.6705,-4.87549
-700,-13,0,0,0,0,0,0,0,0,0,-1,524,1037,0,0
-693,-13,-14.8641,2.51331,0,0,0,0,0,0,0,-1,531,1037,-14.8642,-2.51337
-686,-13,-14.0979,2.31641,0,0,0,0,0,0,0,-1,538,1037,-14.0979,-2.31637
-679,-13,-13.5179,1.66699,0.0589905,0.0342144,-0.0200911,0.0702057,0.0229992,-0.509133,0.0413287,0.0491768,545,1037,-13.5179,-1.66697
-672,-13,-12.993,1.03418,0.0479763,0.0276523,-0.0154423,0.0563003,0.0193283,-0.494388,0.0330327,0.0487764,552,1037,-12.993,-1.03421
-665,-13,-12.6348,0.613403,0.0376842,0.0217273,-0.0115047,0.0437062,0.0157053,-0.482225,0.0255645,0.0436465,559,1037,-12.6349,-0.613405
-658,-13,-12.4346,1.41467,0.0285168,0.0165547,-0.00827045,0.0327423,0.0123292,-0.472341,0.0190948,0.0474428,566,1037,-12.4347,-1.41465
-651,-13,-12.6563,1.17212,0.0207129,0.0121798,-0.00574214,0.0236001,0.00929261,-0.465885,0.0137277,0.0406095,573,1037,-12.6563,-1.17215
-644,-13,-12.5355,1.10461,0.0145382,0.00837608,-0.00399994,0.0165062,0.00640814,-0.457221,0.00960889,0.0274363,580,1037,-12.5354,-1.1046
-637,-13,-12.5684,1.12915,0.00926645,0.00558398,-0.00283896,0.010809,0.00404145,-0.497718,0.00630638,0.0196923,587,1037,-12.5684,-1.12919
-630,-13,-12.5929,1.13843,0.00463211,0.00341517,-0.00270147,0.00679279,0.0012545,-0.674628,0.00417368,0.0124344,594,1037,-12.5929,-1.13842
-623,-13,-12.579,1.17383,0.000948444,0.000633035,-0.00267108,0.00346647,-0.00188499,-0.755912,0.00313432,0.0109047,601,1037,-12.579,-1.17389
-616,-13,-12.5526,1.17749,-0.000119915,9.26258e-05,-0.00324067,0.00322877,-0.00325606,-0.801789,0.00374403,0.0108793,608,1037,-12.5525,-1.17745
-609,-13,-12.5089,1.16101,0.000287045,-0.000187413,-0.00402268,0.00407949,-0.00397985,-0.755946,0.00465318,0.0159354,615,1037,-12.5089,-1.16102
-602,-13,-12.538,1.16797,0.000522776,-0.000104142,-0.00489112,0.00511047,-0.00469184,-0.753398,0.00566109,0.0107312,622,1037,-12.538,-1.168
-595,-13,-12.5305,1.14905,0.000383913,-0.000386795,-0.0054625,0.00547464,-0.00547752,-0.750184,0.00632323,0.0160717,629,1037,-12.5305,-1.14906
-588,-13,-12.4454,0.750977,0.000188774,-0.000526775,-0.00552872,0.00537128,-0.00570928,-0.753087,0.00639836,0.0260623,636,1037,-12.4454,-0.750921
-581,-13,-12.5825,0.458984,-5.26795e-05,-0.0005265,-0.00510149,0.0048174,-0.00539658,-0.762195,0.0059002,0.024865,643,1037,-12.5825,-0.459001
-574,-13,-12.6246,0.447998,-0.000360811,-0.000468053,-0.00453282,0.0041187,-0.00494757,-0.779484,0.0052417,0.0321688,650,1037,-12.6246,-0.448008
-567,-13,-12.6492,0.413086,-0.000968812,-0.000282293,-0.00351479,0.00290596,-0.00415706,-0.834075,0.00409911,0.039517,657,1037,-12.6493,-0.413123
-560,-13,-12.5264,0.458252,-0.00192706,-2.87359e-05,-0.00204424,0.00127595,-0.00323175,-1.00274,0.00268293,0.043683,664,1037,-12.5265,-0.458285
-553,-13,-12.4185,0.425415,-0.00332494,0.000245416,-0.000141206,0.000250992,-0.00333052,-1.53133,0.00230856,0.0438143,671,1037,-12.4185,-0.4254
-546,-13,-12.5778,0.345215,-0.00530466,0.00046868,0.00216974,0.00119319,-0.00602918,1.24852,0.00447058,0.0405516,678,1037,-12.5777,-0.345275
-539,-13,-12.6853,0.4729,-0.00792451,0.000497231,0.00446476,0.00242358,-0.00985086,1.16347,0.00750667,0.0411324,685,1037,-12.6853,-0.472866
-532,-13,-12.8568,0.578613,-0.0115507,0.000519363,0.00577568,0.00283778,-0.0138691,1.18907,0.0103228,0.0413491,692,1037,-12.8568,-0.578613
-525,-13,0,0,0,0,0,0,0,0,0,-1,699,1037,0,0
-518,-13,0,0,0,0,0,0,0,0,0,-1,706,1037,0,0
-511,-13,0,0,0,0,0,0,0,0,0,-1,713,1037,0,0
-504,-13,0,0,0,0,0,0,0,0,0,-1,720,1037,0,0
-497,-13,0,0,0,0,0,0,0,0,0,-1,727,1037,0,0
-490,-13,0,0,0,0,0,0,0,0,0,-1,734,1037,0,0
-483,-13,0,0,0,0,0,0,0,0,0,-1,741,1037,0,0
-476,-13,0,0,0,0,0,0,0,0,0,-1,748,1037,0,0
-469,-13,0,0,0,0,0,0,0,0,0,-1,755,1037,0,0
-462,-13,0,0,0,0,0,0,0,0,0,-1,762,1037,0,0
-455,-13,0,0,0,0,0,0,0,0,0,-1,769,1037,0,0
-448,-13,0,0,0,0,0,0,0,0,0,-1,776,1037,0,0
-441,-13,0,0,0,0,0,0,0,0,0,-1,783,1037,0,0
-434,-13,0,0,0,0,0,0,0,0,0,-1,790,1037,0,0
-427,-13,0,0,0,0,0,0,0,0,0,-1,797,1037,0,0
-420,-13,0,0,0,0,0,0,0,0,0,-1,804,1037,0,0
-413,-13,0,0,0,0,0,0,0,0,0,-1,811,1037,0,0
-406,-13,0,0,0,0,0,0,0,0,0,-1,818,1037,0,0
-399,-13,0,0,0,0,0,0,0,0,0,-1,825,1037,0,0
-392,-13,0,0,0,0,0,0,0,0,0,-1,832,1037,0,0
-385,-13,0,0,0,0,0,0,0,0,0,-1,839,1037,0,0
-378,-13,0,0,0,0,0,0,0,0,0,-1,846,1037,0,0
-371,-13,0,0,0,0,0,0,0,0,0,-1,853,1037,0,0
-364,-13,0,0,0,0,0,0,0,0,0,-1,860,1037,0,0
-357,-13,0,0,0,0,0,0,0,0,0,-1,867,1037,0,0
-350,-13,0,0,0,0,0,0,0,0,0,-1,874,1037,0,0
-343,-13,0,0,0,0,0,0,0,0,0,-1,881,1037,0,0
-336,-13,0,0,0,0,0,0,0,0,0,-1,888,1037,0,0
-329,-13,0,0,0,0,0,0,0,0,0,-1,895,1037,0,0
-322,-13,0,0,0,0,0,0,0,0,0,-1,902,1037,0,0
-315,-13,0,0,0,0,0,0,0,0,0,-1,909,1037,0,0
-308,-13,0,0,0,0,0,0,0,0,0,-1,916,1037,0,0
-301,-13,0,0,0,0,0,0,0,0,0,-1,923,1037,0,0
-294,-13,0,0,0,0,0,0,0,0,0,-1,930,1037,0,0
-287,-13,0,0,0,0,0,0,0,0,0,-1,937,1037,0,0
-280,-13,0,0,0,0,0,0,0,0,0,-1,944,1037,0,0
-273,-13,0,0,0,0,0,0,0,0,0,-1,951,1037,0,0
-266,-13,0,0,0,0,0,0,0,0,0,-1,958,1037,0,0
-259,-13,0,0,0,0,0,0,0,0,0,-1,965,1037,0,0
-252,-13,0,0,0,0,0,0,0,0,0,-1,972,1037,0,0
-245,-13,0,0,0,0,0,0,0,0,0,-1,979,1037,0,0
-238,-13,0,0,0,0,0,0,0,0,0,-1,986,1037,0,0
-231,-13,0,0,0,0,0,0,0,0,0,-1,993,1037,0,0
-224,-13,0,0,0,0,0,0,0,0,0,-1,1000,1037,0,0
-217,-13,0,0,0,0,0,0,0,0,0,-1,1007,1037,0,0
-210,-13,0,0,0,0,0,0,0,0,0,-1,1014,1037,0,0
-203,-13,0,0,0,0,0,0,0,0,0,-1,1021,1037,0,0
-196,-13,0,0,0,0,0,0,0,0,0,-1,1028,1037,0,0
-189,-13,0,0,0,0,0,0,0,0,0,-1,1035,1037,0,0
-182,-13,0,0,0,0,0,0,0,0,0,-1,1042,1037,0,0
-175,-13,0,0,0,0,0,0,0,0,0,-1,1049,1037,0,0
-168,-13,0,0,0,0,0,0,0,0,0,-1,1056,1037,0,0
-161,-13,0,0,0,0,0,0,0,0,0,-1,1063,1037,0,0
-154,-13,0,0,0,0,0,0,0,0,0,-1,1070,1037,0,0
-147,-13,0,0,0,0,0,0,0,0,0,-1,1077,1037,0,0
-140,-13,0,0,0,0,0,0,0,0,0,-1,1084,1037,0,0
-133,-13,0,0,0,0,0,0,0,0,0,-1,1091,1037,0,0
-126,-13,0,0,0,0,0,0,0,0,0,-1,1098,1037,0,0
-119,-13,0,0,0,0,0,0,0,0,0,-1,1105,1037,0,0
-112,-13,0,0,0,0,0,0,0,0,0,-1,1112,1037,0,0
-105,-13,0,0,0,0,0,0,0,0,0,-1,1119,1037,0,0
-98,-13,0,0,0,0,0,0,0,0,0,-1,1126,1037,0,0
-91,-13,0,0,0,0,0,0,0,0,0,-1,1133,1037,0,0
-84,-13,0,0,0,0,0,0,0,0,0,-1,1140,1037,0,0
-77,-13,0,0,0,0,0,0,0,0,0,-1,1147,1037,0,0
-70,-13,0,0,0,0,0,0,0,0,0,-1,1154,1037,0,0
-63,-13,0,0,0,0,0,0,0,0,0,-1,1161,1037,0,0
-56,-13,0,0,0,0,0,0,0,0,0,-1,1168,1037,0,0
-49,-13,0,0,0,0,0,0,0,0,0,-1,1175,1037,0,0
-42,-13,0,0,0,0,0,0,0,0,0,-1,1182,1037,0,0
-35,-13,0,0,0,0,0,0,0,0,0,-1,1189,1037,0,0
-28,-13,0,0,0,0,0,0,0,0,0,-1,1196,1037,0,0
-21,-13,0,0,0,0,0,0,0,0,0,-1,1203,1037,0,0
-14,-13,0,0,0,0,0,0,0,0,0,-1,1210,1037,0,0
-7,-13,0,0,0,0,0,0,0,0,0,-1,1217,1037,0,0
0,-13,0,0,0,0,0,0,0,0,0,-1,1224,1037,0,0
7,-13,0,0,0,0,0,0,0,0,0,-1,1231,1037,0,0
14,-13,0,0,0,0,0,0,0,0,0,-1,1238,1037,0,0
21,-13,0,0,0,0,0,0,0,0,0,-1,1245,1037,0,0
28,-13,0,0,0,0,0,0,0,0,0,-1,1252,1037,0,0
35,-13,0,0,0,0,0,0,0,0,0,-1,1259,1037,0,0
42,-13,0,0,0,0,0,0,0,0,0,-1,1266,1037,0,0
49,-13,0,0,0,0,0,0,0,0,0,-1,1273,1037,0,0
56,-13,0,0,0,0,0,0,0,0,0,-1,1280,1037,0,0
63,-13,0,0,0,0,0,0,0,0,0,-1,1287,1037,0,0
70,-13,0,0,0,0,0,0,0,0,0,-1,1294,1037,0,0
77,-13,0,0,0,0,0,0,0,0,0,-1,1301,1037,0,0
84,-13,0,0,0,0,0,0,0,0,0,-1,1308,1037,0,0
91,-13,0,0,0,0,0,0,0,0,0,-1,1315,1037,0,0
98,-13,0,0,0,0,0,0,0,0,0,-1,1322,1037,0,0
105,-13,0,0,0,0,0,0,0,0,0,-1,1329,1037,0,0
112,-13,0,0,0,0,0,0,0,0,0,-1,1336,1037,0,0
119,-13,0,0,0,0,0,0,0,0,0,-1,1343,1037,0,0
126,-13,0,0,0,0,0,0,0,0,0,-1,1350,1037,0,0
133,-13,0,0,0,0,0,0,0,0,0,-1,1357,1037,0,0
140,-13,0,0,0,0,0,0,0,0,0,-1,1364,1037,0,0
147,-13,0,0,0,0,0,0,0,0,0,-1,1371,1037,0,0
154,-13,0,0,0,0,0,0,0,0,0,-1,1378,1037,0,0
161,-13,0,0,0,0,0,0,0,0,0,-1,1385,1037,0,0
168,-13,0,0,0,0,0,0,0,0,0,-1,1392,1037,0,0
175,-13,0,0,0,0,0,0,0,0,0,-1,1399,1037,0,0
182,-13,0,0,0,0,0,0,0,0,0,-1,1406,1037,0,0
189,-13,0,0,0,0,0,0,0,0,0,-1,1413,1037,0,0
196,-13,0,0,0,0,0,0,0,0,0,-1,1420,1037,0,0
203,-13,0,0,0,0,0,0,0,0,0,-1,1427,1037,0,0
210,-13,0,0,0,0,0,0,0,0,0,-1,1434,1037,0,0
217,-13,0,0,0,0,0,0,0,0,0,-1,1441,1037,0,0
224,-13,0,0,0,0,0,0,0,0,0,-1,1448,1037,0,0
231,-13,0,0,0,0,0,0,0,0,0,-1,1455,1037,0,0
238,-13,0,0,0,0,0,0,0,0,0,-1,1462,1037,0,0
245,-13,0,0,0,0,0,0,0,0,0,-1,1469,1037,0,0
252,-13,0,0,0,0,0,0,0,0,0,-1,1476,1037,0,0
259,-13,0,0,0,0,0,0,0,0,0,-1,1483,1037,0,0
266,-13,0,0,0,0,0,0,0,0,0,-1,1490,1037,0,0
273,-13,0,0,0,0,0,0,0,0,0,-1,1497,1037,0,0
280,-13,0,0,0,0,0,0,0,0,0,-1,1504,1037,0,0
287,-13,0,0,0,0,0,0,0,0,0,-1,1511,1037,0,0
294,-13,0,0,0,0,0,0,0,0,0,-1,1518,1037,0,0
301,-13,0,0,0,0,0,0,0,0,0,-1,1525,1037,0,0
308,-13,0,0,0,0,0,0,0,0,0,-1,1532,1037,0,0
315,-13,0,0,0,0,0,0,0,0,0,-1,1539,1037,0,0
322,-13,0,0,0,0,0,0,0,0,0,-1,1546,1037,0,0
329,-13,0,0,0,0,0,0,0,0,0,-1,1553,1037,0,0
336,-13,0,0,0,0,0,0,0,0,0,-1,1560,1037,0,0
343,-13,0,0,0,0,0,0,0,0,0,-1,1567,1037,0,0
350,-13,0,0,0,0,0,0,0,0,0,-1,1574,1037,0,0
357,-13,0,0,0,0,0,0,0,0,0,-1,1581,1037,0,0
364,-13,0,0,0,0,0,0,0,0,0,-1,1588,1037,0,0
371,-13,0,0,0,0,0,0,0,0,0,-1,1595,1037,0,0
378,-13,0,0,0,0,0,0,0,0,0,-1,1602,1037,0,0
385,-13,0,0,0,0,0,0,0,0,0,-1,1609,1037,0,0
392,-13,0,0,0,0,0,0,0,0,0,-1,1616,1037,0,0
399,-13,0,0,0,0,0,0,0,0,0,-1,1623,1037,0,0
406,-13,0,0,0,0,0,0,0,0,0,-1,1630,1037,0,0
413,-13,0,0,0,0,0,0,0,0,0,-1,1637,1037,0,0
420,-13,0,0,0,0,0,0,0,0,0,-1,1644,1037,0,0
427,-13,0,0,0,0,0,0,0,0,0,-1,1651,1037,0,0
434,-13,0,0,0,0,0,0,0,0,0,-1,1658,1037,0,0
441,-13,0,0,0,0,0,0,0,0,0,-1,1665,1037,0,0
448,-13,0,0,0,0,0,0,0,0,0,-1,1672,1037,0,0
455,-13,0,0,0,0,0,0,0,0,0,-1,1679,1037,0,0
462,-13,0,0,0,0,0,0,0,0,0,-1,1686,1037,0,0
469,-13,0,0,0,0,0,0,0,0,0,-1,1693,1037,0,0
476,-13,0,0,0,0,0,0,0,0,0,-1,1700,1037,0,0
483,-13,0,0,0,0,0,0,0,0,0,-1,1707,1037,0,0
490,-13,0,0,0,0,0,0,0,0,0,-1,1714,1037,0,0
497,-13,0,0,0,0,0,0,0,0,0,-1,1721,1037,0,0
504,-13,0,0,0,0,0,0,0,0,0,-1,1728,1037,0,0
511,-13,0,0,0,0,0,0,0,0,0,-1,1735,1037,0,0
518,-13,0,0,0,0,0,0,0,0,0,-1,1742,1037,0,0
525,-13,0,0,0,0,0,0,0,0,0,-1,1749,1037,0,0
532,-13,0,0,0,0,0,0,0,0,0,-1,1756,1037,0,0
539,-13,0,0,0,0,0,0,0,0,0,-1,1763,1037,0,0
546,-13,0,0,0,0,0,0,0,0,0,-1,1770,1037,0,0
553,-13,0,0,0,0,0,0,0,0,0,-1,1777,1037,0,0
560,-13,0,0,0,0,0,0,0,0,0,-1,1784,1037,0,0
567,-13,0,0,0,0,0,0,0,0,0,-1,1791,1037,0,0
574,-13,0,0,0,0,0,0,0,0,0,-1,1798,1037,0,0
581,-13,0,0,0,0,0,0,0,0,0,-1,1805,1037,0,0
588,-13,0,0,0,0,0,0,0,0,0,-1,1812,1037,0,0
595,-13,0,0,0,0,0,0,0,0,0,-1,1819,1037,0,0
602,-13,0,0,0,0,0,0,0,0,0,-1,1826,1037,0,0
609,-13,0,0,0,0,0,0,0,0,0,-1,1833,1037,0,0
616,-13,0,0,0,0,0,0,0,0,0,-1,1840,1037,0,0
623,-13,0,0,0,0,0,0,0,0,0,-1,1847,1037,0,0
630,-13,0,0,0,0,0,0,0,0,0,-1,1854,1037,0,0
637,-13,0,0,0,0,0,0,0,0,0,-1,1861,1037,0,0
644,-13,0,0,0,0,0,0,0,0,0,-1,1868,1037,0,0
651,-13,19.4215,2.47021,0.00320499,0.00144848,9.69388e-05,0.00321032,0.00144314,0.0549656,0.00185663,0.0410526,1875,1037,19.4215,-2.47018
658,-13,19.4178,2.51965,0.00221349,0.000927158,-0.000193702,0.00224202,0.000898622,-0.146265,0.00130289,0.0455067,1882,1037,19.4178,-2.51967
665,-13,19.5802,2.55164,0.00130808,0.000579763,-0.000258557,0.00139053,0.000497308,-0.308709,0.000813599,0.043939,1889,1037,19.5802,-2.55162
672,-13,19.6334,2.47205,0.000530866,0.00042114,0.000308428,0.000789272,0.000162734,0.69738,0.000481199,0.0372735,1896,1037,19.6334,-2.4721
679,-13,19.5695,2.44238,-0.00047531,0.000383494,0.00144363,0.00146023,-0.00155204,0.929954,0.00173941,0.0380569,1903,1037,19.5694,-2.4424
686,-13,19.4534,2.46155,-0.00143851,0.000365861,0.00265401,0.00226683,-0.00333949,0.949238,0.0032565,0.0410169,1910,1037,19.4534,-2.46158
693,-13,19.4136,2.44592,-0.00217977,0.000366582,0.00374944,0.00305311,-0.0048663,0.949072,0.00461205,0.0400704,1917,1037,19.4135,-2.44589
700,-13,19.4518,2.33801,-0.00276704,0.000385309,0.00462376,0.00369416,-0.00607589,0.949664,0.00569633,0.0340964,1924,1037,19.4518,-2.33803
707,-13,19.4114,2.36121,-0.0031746,0.000368957,0.00518103,0.00407279,-0.00687843,0.950152,0.00639148,0.0314928,1931,1037,19.4114,-2.36124
714,-13,19.3772,2.46716,-0.003485,0.000431741,0.00555643,0.00436481,-0.00741807,0.954827,0.00687856,0.0329758,1938,1037,19.3772,-2.46711
721,-13,19.2882,3.16565,-0.00365249,0.000512388,0.00573335,0.00452977,-0.00766987,0.959598,0.00712081,0.037656,1945,1037,19.2882,-3.16568
728,-13,19.0665,3.50623,-0.00375065,0.000691414,0.0056174,0.00451092,-0.00757016,0.973659,0.00704917,0.0294703,1952,1037,19.0666,-3.50627
735,-13,19.0181,3.52087,-0.00378328,0.000984096,0.00521402,0.00433347,-0.00713265,0.999798,0.0066854,0.0191933,1959,1037,19.0181,-3.52091
742,-13,19.0417,3.53125,-0.00367978,0.00126782,0.00445224,0.00388736,-0.00629932,1.03898,0.00593598,0.0112579,1966,1037,19.0418,-3.53121
749,-13,19.0586,3.51892,-0.00363256,0.000696506,0.00358876,0.00272296,-0.00565901,1.05676,0.00493731,0.0156781,1973,1037,19.0586,-3.51889
756,-13,19.0677,3.52344,-0.00336499,-2.26534e-05,0.00310673,0.00183386,-0.0052215,1.03216,0.00422704,0.012763,1980,1037,19.0677,-3.52338
763,-13,19.0634,3.54443,-0.00314731,-0.0015022,0.00285189,0.000643388,-0.0052929,0.9258,0.00376145,0.0108496,1987,1037,19.0633,-3.54444
770,-13,19.0293,3.56689,-0.00306176,-0.00328357,0.00261877,-0.000551545,-0.00579378,0.764236,0.00369243,0.00972521,1994,1037,19.0293,-3.56686
777,-13,18.9973,3.56799,-0.00296814,-0.0061169,0.00311231,-0.00105466,-0.00803037,0.551238,0.00503895,0.0113068,2001,1037,18.9973,-3.56799
784,-13,18.9966,3.53931,-0.00302684,-0.0101233,0.00466633,-0.000712931,-0.0124372,0.46034,0.00806433,0.0281688,2008,1037,18.9966,-3.5393
791,-13,18.9806,3.5177,-0.00311077,-0.0156477,0.00710173,9.32673e-05,-0.0188517,0.42382,0.012599,0.0476396,2015,1037,18.9805,-3.51768
798,-13,18.9684,3.49365,0,0,0,0,0,0,0,-1,2022,1037,18.9684,-3.4937
805,-13,18.9491,3.47058,0,0,0,0,0,0,0,-1,2029,1037,18.9491,-3.47062
812,-13,20.2971,4.42798,0,0,0,0,0,0,0,-1,2036,1037,20.2971,-4.42803
-700,-20,-14.669,2.11926,0.083766,0.0589742,-0.0409411,0.114147,0.0285936,-0.638398,0.0685831,0.0498137,524,1044,-14.669,-2.11928
-693,-20,-14.5104,2.12463,0.0770508,0.049756,-0.0355694,0.101501,0.0253057,-0.602218,0.0610075,0.0444166,531,1044,-14.5104,-2.12465
-686,-20,-14.245,1.69946,0.0673293,0.0410876,-0.0297321,0.086707,0.0217099,-0.577599,0.0520983,0.044021,538,1044,-14.245,-1.69946
-679,-20,-12.3845,1.55127,0.0565044,0.0332118,-0.0241393,0.07166,0.0180562,-0.560638,0.0430363,0.0447958,545,1044,-12.3845,-1.55125
-672,-20,-12.4468,0.829102,0.0457956,0.0262264,-0.019012,0.057393,0.0146289,-0.547747,0.0344375,0.0447932,552,1044,-12.4468,-0.829162
-665,-20,-12.4814,0.312866,0.0358703,0.0201855,-0.0145,0.0445129,0.011543,-0.537501,0.0266735,0.042976,559,1044,-12.4815,-0.312907
-658,-20,-12.7802,0.243286,0,0,0,0,0,0,0,-1,566,1044,-12.7802,-0.24334
-651,-20,-12.6195,0.712769,0.0196568,0.010943,-0.00760307,0.0240628,0.00653695,-0.525218,0.0143675,0.0379734,573,1044,-12.6195,-0.712804
-644,-20,-12.5131,1.04968,0.0137423,0.00733726,-0.00544332,0.0168553,0.00422426,-0.519497,0.0101269,0.0242143,580,1044,-12.5131,-1.0497
-637,-20,-12.5414,1.06494,0.00869816,0.00458873,-0.00399271,0.0111338,0.00215305,-0.547762,0.00681913,0.0159447,587,1044,-12.5414,-1.06494
-630,-20,-12.5435,1.11951,0.00431607,0.00264888,-0.00349028,0.00707092,-0.000105972,-0.668177,0.00474966,0.012956,594,1044,-12.5435,-1.11952
-623,-20,-12.5492,1.15649,0.000827586,0.000469886,-0.00313589,0.00378972,-0.00249225,-0.756912,0.00365259,0.0125003,601,1044,-12.5492,-1.15648
-616,-20,-12.5485,1.16833,-0.000153794,-0.000141349,-0.00352752,0.00337996,-0.0036751,-0.78628,0.00407443,0.0123386,608,1044,-12.5485,-1.16839
-609,-20,-12.532,1.15881,0.000218859,-0.00039353,-0.00427042,0.00419404,-0.00436871,-0.749609,0.00494405,0.0142484,615,1044,-12.532,-1.15878
-602,-20,-12.5393,1.18713,0.000424572,-0.000372361,-0.00513548,0.00517702,-0.00512481,-0.74668,0.00594779,0.0103839,622,1044,-12.5393,-1.18714
-595,-20,-12.5608,1.17139,0.000255272,-0.000721282,-0.00570885,0.00549669,-0.0059627,-0.742737,0.00661791,0.0124961,629,1044,-12.5608,-1.17141
-588,-20,-12.5416,0.780273,4.04763e-05,-0.000900038,-0.00580282,0.00539206,-0.00625162,-0.744967,0.00672859,0.022347,636,1044,-12.5416,-0.780308
-581,-20,-12.6198,0.428101,-0.000197166,-0.000910179,-0.00541716,0.00487521,-0.00598255,-0.75254,0.00627959,0.0322492,643,1044,-12.6198,-0.428113
-574,-20,-12.6376,0.51709,-0.00050966,-0.000853772,-0.00486231,0.00418363,-0.00554707,-0.767713,0.00563637,0.0378887,650,1044,-12.6377,-0.517131
-567,-20,-12.652,0.528564,-0.00111146,-0.00064863,-0.00384713,0.00297404,-0.00473412,-0.815438,0.00448882,0.0447465,657,1044,-12.652,-0.528586
-560,-20,-12.4211,0.474365,-0.00206606,-0.000324096,-0.00235546,0.00131626,-0.00370642,-0.962487,0.0030073,0.045799,664,1044,-12.4211,-0.474321
-553,-20,-12.2399,0.308716,-0.00346555,9.17888e-05,-0.000399774,0.000136162,-0.00350992,-1.46025,0.00238663,0.0441839,671,1044,-12.2399,-0.308655
-546,-20,-12.482,0.306641,-0.00547169,0.000553301,0.00201244,0.00116365,-0.00608204,1.27632,0.00449309,0.0422765,678,1044,-12.482,-0.306593
-539,-20,-12.7557,0.399658,-0.00815555,0.00093793,0.00443476,0.00274256,-0.00996018,1.18433,0.00771847,0.0417015,685,1044,-12.7557,-0.399619
-532,-20,-12.8498,0.603149,-0.0119679,0.00138043,0.00579083,0.00354245,-0.0141299,1.21347,0.0107963,0.0409723,692,1044,-12.8498,-0.603168
-525,-20,0,0,0,0,0,0,0,0,0,-1,699,1044,0,0
-518,-20,0,0,0,0,0,0,0,0,0,-1,706,1044,0,0
-511,-20,0,0,0,0,0,0,0,0,0,-1,713,1044,0,0
-504,-20,0,0,0,0,0,0,0,0,0,-1,720,1044,0,0
-497,-20,0,0,0,0,0,0,0,0,0,-1,727,1044,0,0
-490,-20,0,0,0,0,0,0,0,0,0,-1,734,1044,0,0
-483,-20,0,0,0,0,0,0,0,0,0,-1,741,1044,0,0
-476,-20,0,0,0,0,0,0,0,0,0,-1,748,1044,0,0
-469,-20,0,0,0,0,0,0,0,0,0,-1,755,1044,0,0
-462,-20,0,0,0,0,0,0,0,0,0,-1,762,1044,0,0
-455,-20,0,0,0,0,0,0,0,0,0,-1,769,1044,0,0
-448,-20,0,0,0,0,0,0,0,0,0,-1,776,1044,0,0
-441,-20,0,0,0,0,0,0,0,0,0,-1,783,1044,0,0
-434,-20,0,0,0,0,0,0,0,0,0,-1,790,1044,0,0
-427,-20,0,0,0,0,0,0,0,0,0,-1,797,1044,0,0
-420,-20,0,0,0,0,0,0,0,0,0,-1,804,1044,0,0
-413,-20,0,0,0,0,0,0,0,0,0,-1,811,1044,0,0
-406,-20,0,0,0,0,0,0,0,0,0,-1,818,1044,0,0
-399,-20,0,0,0,0,0,0,0,0,0,-1,825,1044,0,0
-392,-20,0,0,0,0,0,0,0,0,0,-1,832,1044,0,0
-385,-20,0,0,0,0,0,0,0,0,0,-1,839,1044,0,0
-378,-20,0,0,0,0,0,0,0,0,0,-1,846,1044,0,0
-371,-20,0,0,0,0,0,0,0,0,0,-1,853,1044,0,0
-364,-20,0,0,0,0,0,0,0,0,0,-1,860,1044,0,0
-357,-20,0,0,0,0,0,0,0,0,0,-1,867,1044,0,0
-350,-20,0,0,0,0,0,0,0,0,0,-1,874,1044,0,0
-343,-20,0,0,0,0,0,0,0,0,0,-1,881,1044,0,0
-336,-20,0,0,0,0,0,0,0,0,0,-1,888,1044,0,0
-329,-20,0,0,0,0,0,0,0,0,0,-1,895,1044,0,0
-322,-20,0,0,0,0,0,0,0,0,0,-1,902,1044,0,0
-315,-20,0,0,0,0,0,0,0,0,0,-1,909,1044,0,0
-308,-20,0,0,0,0,0,0,0,0,0,-1,916,1044,0,0
-301,-20,0,0,0,0,0,0,0,0,0,-1,923,1044,0,0
-294,-20,0,0,0,0,0,0,0,0,0,-1,930,1044,0,0
-287,-20,0,0,0,0,0,0,0,0,0,-1,937,1044,0,0
-280,-20,0,0,0,0,0,0,0,0,0,-1,944,1044,0,0
-273,-20,0,0,0,0,0,0,0,0,0,-1,951,1044,0,0
-266,-20,0,0,0,0,0,0,0,0,0,-1,958,1044,0,0
-259,-20,0,0,0,0,0,0,0,0,0,-1,965,1044,0,0
-252,-20,0,0,0,0,0,0,0,0,0,-1,972,1044,0,0
-245,-20,0,0,0,0,0,0,0,0,0,-1,979,1044,0,0
-238,-20,0,0,0,0,0,0,0,0,0,-1,986,1044,0,0
-231,-20,0,0,0,0,0,0,0,0,0,-1,993,1044,0,0
-224,-20,0,0,0,0,0,0,0,0,0,-1,1000,1044,0,0
-217,-20,0,0,0,0,0,0,0,0,0,-1,1007,1044,0,0
-210,-20,0,0,0,0,0,0,0,0,0,-1,1014,1044,0,0
-203,-20,0,0,0,0,0,0,0,0,0,-1,1021,1044,0,0
-196,-20,0,0,0,0,0,0,0,0,0,-1,1028,1044,0,0
-189,-20,0,0,0,0,0,0,0,0,0,-1,1035,1044,0,0
-182,-20,0,0,0,0,0,0,0,0,0,-1,1042,1044,0,0
-175,-20,0,0,0,0,0,0,0,0,0,-1,1049,1044,0,0
-168,-20,0,0,0,0,0,0,0,0,0,-1,1056,1044,0,0
-161,-20,0,0,0,0,0,0,0,0,0,-1,1063,1044,0,0
-154,-20,0,0,0,0,0,0,0,0,0,-1,1070,1044,0,0
-147,-20,0,0,0,0,0,0,0,0,0,-1,1077,1044,0,0
-140,-20,0,0,0,0,0,0,0,0,0,-1,1084,1044,0,0
-133,-20,0,0,0,0,0,0,0,0,0,-1,1091,1044,0,0
-126,-20,0,0,0,0,0,0,0,0,0,-1,1098,1044,0,0
-119,-20,0,0,0,0,0,0,0,0,0,-1,1105,1044,0,0
-112,-20,0,0,0,0,0,0,0,0,0,-1,1112,1044,0,0
-105,-20,0,0,0,0,0,0,0,0,0,-1,1119,1044,0,0
-98,-20,0,0,0,0,0,0,0,0,0,-1,1126,1044,0,0
-91,-20,0,0,0,0,0,0,0,0,0,-1,1133,1044,0,0
-84,-20,0,0,0,0,0,0,0,0,0,-1,1140,1044,0,0
-77,-20,0,0,0,0,0,0,0,0,0,-1,1147,1044,0,0
-70,-20,0,0,0,0,0,0,0,0,0,-1,1154,1044,0,0
-63,-20,0,0,0,0,0,0,0,0,0,-1,1161,1044,0,0
-56,-20,0,0,0,0,0,0,0,0,0,-1,1168,1044,0,0
-49,-20,0,0,0,0,0,0,0,0,0,-1,1175,1044,0,0
-42,-20,0,0,0,0,0,0,0,0,0,-1,1182,1044,0,0
-35,-20,0,0,0,0,0,0,0,0,0,-1,1189,1044,0,0
-28,-20,0,0,0,0,0,0,0,0,0,-1,1196,1044,0,0
-21,-20,0,0,0,0,0,0,0,0,0,-1,1203,1044,0,0
-14,-20,0,0,0,0,0,0,0,0,0,-1,1210,1044,0,0
-7,-20,0,0,0,0,0,0,0,0,0,-1,1217,1044,0,0
0,-20,0,0,0,0,0,0,0,0,0,-1,1224,1044,0,0
7,-20,0,0,0,0,0,0,0,0,0,-1,1231,1044,0,0
14,-20,0,0,0,0,0,0,0,0,0,-1,1238,1044,0,0
21,-20,0,0,0,0,0,0,0,0,0,-1,1245,1044,0,0
28,-20,0,0,0,0,0,0,0,0,0,-1,1252,1044,0,0
35,-20,0,0,0,0,0,0,0,0,0,-1,1259,1044,0,0
42,-20,0,0,0,0,0,0,0,0,0,-1,1266,1044,0,0
49,-20,0,0,0,0,0,0,0,0,0,-1,1273,1044,0,0
56,-20,0,0,0,0,0,0,0,0,0,-1,1280,1044,0,0
63,-20,0,0,0,0,0,0,0,0,0,-1,1287,1044,0,0
70,-20,0,0,0,0,0,0,0,0,0,-1,1294,1044,0,0
77,-20,0,0,0,0,0,0,0,0,0,-1,1301,1044,0,0
84,-20,0,0,0,0,0,0,0,0,0,-1,1308,1044,0,0
91,-20,0,0,0,0,0,0,0,0,0,-1,1315,1044,0,0
98,-20,0,0,0,0,0,0,0,0,0,-1,1322,1044,0,0
105,-20,0,0,0,0,0,0,0,0,0,-1,1329,1044,0,0
112,-20,0,0,0,0,0,0,0,0,0,-1,1336,1044,0,0
119,-20,0,0,0,0,0,0,0,0,0,-1,1343,1044,0,0
126,-20,0,0,0,0,0,0,0,0,0,-1,1350,1044,0,0
133,-20,0,0,0,0,0,0,0,0,0,-1,1357,1044,0,0
140,-20,0,0,0,0,0,0,0,0,0,-1,1364,1044,0,0
147,-20,0,0,0,0,0,0,0,0,0,-1,1371,1044,0,0
154,-20,0,0,0,0,0,0,0,0,0,-1,1378,1044,0,0
161,-20,0,0,0,0,0,0,0,0,0,-1,1385,1044,0,0
168,-20,0,0,0,0,0,0,0,0,0,-1,1392,1044,0,0
175,-20,0,0,0,0,0,0,0,0,0,-1,1399,1044,0,0
182,-20,0,0,0,0,0,0,0,0,0,-1,1406,1044,0,0
189,-20,0,0,0,0,0,0,0,0,0,-1,1413,1044,0,0
196,-20,0,0,0,0,0,0,0,0,0,-1,1420,1044,0,0
203,-20,0,0,0,0,0,0,0,0,0,-1,1427,1044,0,0
210,-20,0,0,0,0,0,0,0,0,0,-1,1434,1044,0,0
217,-20,0,0,0,0,0,0,0,0,0,-1,1441,1044,0,0
224,-20,0,0,0,0,0,0,0,0,0,-1,1448,1044,0,0
231,-20,0,0,0,0,0,0,0,0,0,-1,1455,1044,0,0
238,-20,0,0,0,0,0,0,0,0,0,-1,1462,1044,0,0
245,-20,0,0,0,0,0,0,0,0,0,-1,1469,1044,0,0
252,-20,0,0,0,0,0,0,0,0,0,-1,1476,1044,0,0
259,-20,0,0,0,0,0,0,0,0,0,-1,1483,1044,0,0
266,-20,0,0,0,0,0,0,0,0,0,-1,1490,1044,0,0
273,-20,0,0,0,0,0,0,0,0,0,-1,1497,1044,0,0
280,-20,0,0,0,0,0,0,0,0,0,-1,1504,1044,0,0
287,-20,0,0,0,0,0,0,0,0,0,-1,1511,1044,0,0
294,-20,0,0,0,0,0,0,0,0,0,-1,1518,1044,0,0
301,-20,0,0,0,0,0,0,0,0,0,-1,1525,1044,0,0
308,-20,0,0,0,0,0,0,0,0,0,-1,1532,1044,0,0
315,-20,0,0,0,0,0,0,0,0,0,-1,1539,1044,0,0
322,-20,0,0,0,0,0,0,0,0,0,-1,1546,1044,0,0
329,-20,0,0,0,0,0,0,0,0,0,-1,1553,1044,0,0
336,-20,0,0,0,0,0,0,0,0,0,-1,1560,1044,0,0
343,-20,0,0,0,0,0,0,0,0,0,-1,1567,1044,0,0
350,-20,0,0,0,0,0,0,0,0,0,-1,1574,1044,0,0
357,-20,0,0,0,0,0,0,0,0,0,-1,1581,1044,0,0
364,-20,0,0,0,0,0,0,0,0,0,-1,1588,1044,0,0
371,-20,0,0,0,0,0,0,0,0,0,-1,1595,1044,0,0
378,-20,0,0,0,0,0,0,0,0,0,-1,1602,1044,0,0
385,-20,0,0,0,0,0,0,0,0,0,-1,1609,1044,0,0
392,-20,0,0,0,0,0,0,0,0,0,-1,1616,1044,0,0
399,-20,0,0,0,0,0,0,0,0,0,-1,1623,1044,0,0
406,-20,0,0,0,0,0,0,0,0,0,-1,1630,1044,0,0
413,-20,0,0,0,0,0,0,0,0,0,-1,1637,1044,0,0
420,-20,0,0,0,0,0,0,0,0,0,-1,1644,1044,0,0
427,-20,0,0,0,0,0,0,0,0,0,-1,1651,1044,0,0
434,-20,0,0,0,0,0,0,0,0,0,-1,1658,1044,0,0
441,-20,0,0,0,0,0,0,0,0,0,-1,1665,1044,0,0
448,-20,0,0,0,0,0,0,0,0,0,-1,1672,1044,0,0
455,-20,0,0,0,0,0,0,0,0,0,-1,1679,1044,0,0
462,-20,0,0,0,0,0,0,0,0,0,-1,1686,1044,0,0
469,-20,0,0,0,0,0,0,0,0,0,-1,1693,1044,0,0
476,-20,0,0,0,0,0,0,0,0,0,-1,1700,1044,0,0
483,-20,0,0,0,0,0,0,0,0,0,-1,1707,1044,0,0
490,-20,0,0,0,0,0,0,0,0,0,-1,1714,1044,0,0
497,-20,0,0,0,0,0,0,0,0,0,-1,1721,1044,0,0
504,-20,0,0,0,0,0,0,0,0,0,-1,1728,1044,0,0
511,-20,0,0,0,0,0,0,0,0,0,-1,1735,1044,0,0
518,-20,0,0,0,0,0,0,0,0,0,-1,1742,1044,0,0
525,-20,0,0,0,0,0,0,0,0,0,-1,1749,1044,0,0
532,-20,0,0,0,0,0,0,0,0,0,-1,1756,1044,0,0
539,-20,0,0,0,0,0,0,0,0,0,-1,1763,1044,0,0
546,-20,0,0,0,0,0,0,0,0,0,-1,1770,1044,0,0
553,-20,0,0,0,0,0,0,0,0,0,-1,1777,1044,0,0
560,-20,0,0,0,0,0,0,0,0,0,-1,1784,1044,0,0
567,-20,0,0,0,0,0,0,0,0,0,-1,1791,1044,0,0
574,-20,0,0,0,0,0,0,0,0,0,-1,1798,1044,0,0
581,-20,0,0,0,0,0,0,0,0,0,-1,1805,1044,0,0
588,-20,0,0,0,0,0,0,0,0,0,-1,1812,1044,0,0
595,-20,0,0,0,0,0,0,0,0,0,-1,1819,1044,0,0
602,-20,0,0,0,0,0,0,0,0,0,-1,1826,1044,0,0
609,-20,0,0,0,0,0,0,0,0,0,-1,1833,1044,0,0
616,-20,0,0,0,0,0,0,0,0,0,-1,1840,1044,0,0
623,-20,0,0,0,0,0,0,0,0,0,-1,1847,1044,0,0
630,-20,0,0,0,0,0,0,0,0,0,-1,1854,1044,0,0
637,-20,0,0,0,0,0,0,0,0,0,-1,1861,1044,0,0
644,-20,0,0,0,0,0,0,0,0,0,-1,1868,1044,0,0
651,-20,19.3763,2.41626,0.00238249,0.00201013,0.00105616,0.00326875,0.00112386,0.698155,0.00191766,0.0394484,1875,1044,19.3764,-2.41626
658,-20,19.3662,2.48779,0.00169453,0.00145788,0.000548618,0.00213744,0.00101498,0.679186,0.00123457,0.042756,1882,1044,19.3662,-2.48781
665,-20,19.4657,2.51575,0.00101172,0.00104822,0.000267856,0.00129845,0.000761492,0.819416,0.000753386,0.0389954,1889,1044,19.4657,-2.51573
672,-20,19.5325,2.422,0.000430646,0.000814261,0.00064744,0.00129771,-5.28009e-05,0.929407,0.000883265,0.0253442,1896,1044,19.5324,-2.42201
679,-20,19.4081,2.4353,-0.000404352,0.000699382,0.00165543,0.00189251,-0.00159748,0.946289,0.00201735,0.0282893,1903,1044,19.4081,-2.43525
686,-20,19.276,2.33093,-0.0012667,0.000608192,0.00278983,0.00261386,-0.00327237,0.947483,0.0034055,0.0382747,1910,1044,19.276,-2.33088
693,-20,19.3024,2.33655,-0.00194784,0.000542978,0.00383648,0.00333113,-0.00473599,0.942343,0.00468104,0.0422235,1917,1044,19.3024,-2.33649
700,-20,19.4694,2.36804,-0.00250074,0.000501045,0.00469316,0.00392747,-0.00592717,0.940161,0.00572849,0.036333,1924,1044,19.4694,-2.36804
707,-20,19.4342,2.35681,-0.00288812,0.000443725,0.00522184,0.00425895,-0.00670334,0.939809,0.00638131,0.0307228,1931,1044,19.4342,-2.35679
714,-20,19.4042,2.39197,-0.00318957,0.000464943,0.00559045,0.00451918,-0.00724381,0.943352,0.00685182,0.0276647,1938,1044,19.4042,-2.39201
721,-20,19.4314,2.57397,-0.00337061,0.00049585,0.0057564,0.00463498,-0.00750974,0.947401,0.00707693,0.0253821,1945,1044,19.4314,-2.57394
728,-20,19.2181,3.20251,-0.0034868,0.00064656,0.00562186,0.00456958,-0.00740981,0.961538,0.0069808,0.0220662,1952,1044,19.2181,-3.20252
735,-20,19.0055,3.51123,-0.00352866,0.000917122,0.00519866,0.0043482,-0.00695973,0.987429,0.00658642,0.0165441,1959,1044,19.0055,-3.51127
742,-20,19.042,3.54395,-0.00342543,0.00125434,0.0044268,0.00392161,-0.0060927,1.02852,0.00582688,0.0144187,1966,1044,19.042,-3.54397
749,-20,19.067,3.53369,-0.00341963,0.000918217,0.00354145,0.00290213,-0.00540354,1.06016,0.00486724,0.0156345,1973,1044,19.067,-3.53371
756,-20,19.0707,3.52637,-0.00312089,0.000507617,0.00291893,0.00213017,-0.00474344,1.06345,0.00406296,0.0122368,1980,1044,19.0707,-3.52637
763,-20,19.0581,3.51501,-0.00277984,-0.00050896,0.00244355,0.00105007,-0.00433887,1.00289,0.00329879,0.0123352,1987,1044,19.0581,-3.51497
770,-20,19.0483,3.54724,-0.00259937,-0.00172267,0.0019821,-0.000131025,-0.00419102,0.894223,0.00275138,0.0116853,1994,1044,19.0483,-3.54724
777,-20,19.0137,3.55896,-0.00236951,-0.00377297,0.0021721,-0.0007886,-0.00535388,0.629158,0.00333759,0.0124654,2001,1044,19.0137,-3.55893
784,-20,18.9861,3.54492,-0.00223901,-0.00679246,0.00335045,-0.000464937,-0.00856654,0.486971,0.00556253,0.0186595,2008,1044,18.9861,-3.54492
791,-20,18.9487,3.55713,-0.00207985,-0.0111584,0.0053239,0.000377223,-0.0136155,0.432391,0.00920529,0.0383233,2015,1044,18.9487,-3.55711
798,-20,18.8965,3.59741,0,0,0,0,0,0,0,-1,2022,1044,18.8965,-3.59741
805,-20,19.6025,3.9552,-0.000142726,-0.0251002,0.0118653,0.00459784,-0.0298408,0.380102,0.0215903,0.0425102,2029,1044,19.6025,-3.95517
812,-20,19.9187,3.97192,0.00190206,-0.0351307,0.0168008,0.00838817,-0.0416168,0.36843,0.0309222,0.0442453,2036,1044,19.9186,-3.97191
-700,-27,-14.4893,2.05713,0.0816369,0.056876,-0.0378426,0.109073,0.0294401,-0.627308,0.0651578,0.0489349,524,1051,-14.4893,-2.05718
-693,-27,-14.2271,1.78625,0.0747096,0.046629,-0.0338746,0.0973383,0.0240003,-0.588935,0.0585553,0.0450555,531,1051,-14.2271,-1.78631
-686,-27,-13.9323,1.5127,0.0651025,0.0376496,-0.0289815,0.0834438,0.0193083,-0.564234,0.0504404,0.0443122,538,1051,-13.9323,-1.51267
-679,-27,-13.6644,1.35449,0.0545449,0.0298754,-0.0239877,0.0691834,0.015237,-0.547922,0.0419754,0.0492614,545,1051,-13.6644,-1.35453
-672,-27,-11.8702,0.462158,0.0441578,0.0232373,-0.0192117,0.0555724,0.0118228,-0.536103,0.0338037,0.0441739,552,1051,-11.8702,-0.462118
-665,-27,-12.219,0.119995,0.0345696,0.0176743,-0.0148764,0.0432296,0.0090144,-0.527173,0.0263343,0.0440415,559,1051,-12.219,-0.119989
-658,-27,-12.5357,0.422363,0,0,0,0,0,0,0,-1,566,1051,-12.5357,-0.4224
-651,-27,-12.4697,0.843506,0.0189531,0.00944676,-0.00801365,0.0235172,0.00488269,-0.517719,0.0143306,0.0341419,573,1051,-12.4697,-0.843521
-644,-27,-12.504,1.06372,0.0131969,0.00621984,-0.00580126,0.0164778,0.002939,-0.514695,0.0101484,0.015338,580,1051,-12.504,-1.06375
-637,-27,-12.5328,1.05762,0.00830014,0.00369047,-0.00445041,0.0110071,0.000983474,-0.546468,0.00703322,0.0121585,587,1051,-12.5328,-1.05758
-630,-27,-12.538,1.12073,0.00409237,0.00203641,-0.00384475,0.00704419,-0.000915413,-0.654767,0.00502911,0.0165568,594,1051,-12.538,-1.12075
-623,-27,-12.514,1.15137,0.000703,0.000369921,-0.00338583,0.00392638,-0.00285346,-0.760824,0.00393065,0.0152378,601,1051,-12.514,-1.15132
-616,-27,-12.4992,1.17676,-0.000239492,-0.000268332,-0.00370958,0.00345569,-0.00396352,-0.783454,0.00428683,0.0124737,608,1051,-12.4992,-1.1768
-609,-27,-12.4988,1.18152,9.40987e-05,-0.000469964,-0.00444917,0.00427017,-0.00464604,-0.753746,0.0051493,0.0128149,615,1051,-12.4988,-1.18155
-602,-27,-12.5005,1.23486,0.000238501,-0.000523578,-0.00534509,0.00521612,-0.00550119,-0.749815,0.00618837,0.0109472,622,1051,-12.5005,-1.23488
-595,-27,-12.5392,1.26282,2.38388e-05,-0.000921853,-0.00594266,0.00551244,-0.00641045,-0.745698,0.00689019,0.00948531,629,1051,-12.5393,-1.26281
-588,-27,-12.5719,0.863037,-0.000198456,-0.0011271,-0.00607962,0.00543454,-0.0067601,-0.747285,0.00705443,0.0187108,636,1051,-12.5719,-0.863048
-581,-27,-12.5807,0.305176,0,0,0,0,0,0,0,-1,643,1051,-12.5808,-0.305126
-574,-27,-12.6538,0.544922,-0.000702268,-0.00107389,-0.00524248,0.00435769,-0.00613385,-0.767684,0.00608616,0.0378152,650,1051,-12.6538,-0.544895
-567,-27,-12.5685,0.576538,-0.00125392,-0.000855119,-0.00426923,0.00321936,-0.0053284,-0.808734,0.00498487,0.04538,657,1051,-12.5685,-0.576516
-560,-27,-12.3511,0.51123,-0.00213616,-0.000486372,-0.00281632,0.00162337,-0.00424591,-0.927862,0.00349958,0.044448,664,1051,-12.3511,-0.511182
-553,-27,-12.2459,0.411621,-0.00343769,2.11327e-05,-0.000894219,0.00023864,-0.00365519,-1.33219,0.00252011,0.0408805,671,1051,-12.2459,-0.411602
-546,-27,-12.4398,0.276245,-0.00532928,0.000641824,0.00149655,0.00099591,-0.00568337,1.33847,0.0041608,0.0431156,678,1051,-12.4398,-0.276269
-539,-27,-12.6232,0.324341,-0.00789254,0.00127589,0.00388956,0.00270364,-0.00932028,1.21899,0.00728396,0.0410435,685,1051,-12.6231,-0.324304
-532,-27,-12.6903,0.591309,-0.0116658,0.00203206,0.00508528,0.00371354,-0.0133473,1.25146,0.0103603,0.0382909,692,1051,-12.6903,-0.591277
-525,-27,0,0,0,0,0,0,0,0,0,-1,699,1051,0,0
-518,-27,0,0,0,0,0,0,0,0,0,-1,706,1051,0,0
-511,-27,0,0,0,0,0,0,0,0,0,-1,713,1051,0,0
-504,-27,0,0,0,0,0,0,0,0,0,-1,720,1051,0,0
-497,-27,0,0,0,0,0,0,0,0,0,-1,727,1051,0,0
-490,-27,0,0,0,0,0,0,0,0,0,-1,734,1051,0,0
-483,-27,0,0,0,0,0,0,0,0,0,-1,741,1051,0,0
-476,-27,0,0,0,0,0,0,0,0,0,-1,748,1051,0,0
-469,-27,0,0,0,0,0,0,0,0,0,-1,755,1051,0,0
-462,-27,0,0,0,0,0,0,0,0,0,-1,762,1051,0,0
-455,-27,0,0,0,0,0,0,0,0,0,-1,769,1051,0,0
-448,-27,0,0,0,0,0,0,0,0,0,-1,776,1051,0,0
-441,-27,0,0,0,0,0,0,0,0,0,-1,783,1051,0,0
-434,-27,0,0,0,0,0,0,0,0,0,-1,790,1051,0,0
-427,-27,0,0,0,0,0,0,0,0,0,-1,797,1051,0,0
-420,-27,0,0,0,0,0,0,0,0,0,-1,804,1051,0,0
-413,-27,0,0,0,0,0,0,0,0,0,-1,811,1051,0,0
-406,-27,0,0,0,0,0,0,0,0,0,-1,818,1051,0,0
-399,-27,0,0,0,0,0,0,0,0,0,-1,825,1051,0,0
-392,-27,0,0,0,0,0,0,0,0,0,-1,832,1051,0,0
-385,-27,0,0,0,0,0,0,0,0,0,-1,839,1051,0,0
-378,-27,0,0,0,0,0,0,0,0,0,-1,846,1051,0,0
-371,-27,0,0,0,0,0,0,0,0,0,-1,853,1051,0,0
-364,-27,0,0,0,0,0,0,0,0,0,-1,860,1051,0,0
-357,-27,0,0,0,0,0,0,0,0,0,-1,867,1051,0,0
-350,-27,0,0,0,0,0,0,0,0,0,-1,874,1051,0,0
-343,-27,0,0,0,0,0,0,0,0,0,-1,881,1051,0,0
-336,-27,0,0,0,0,0,0,0,0,0,-1,888,1051,0,0
-329,-27,0,0,0,0,0,0,0,0,0,-1,895,1051,0,0
-322,-27,0,0,0,0,0,0,0,0,0,-1,902,1051,0,0
-315,-27,0,0,0,0,0,0,0,0,0,-1,909,1051,0,0
-308,-27,0,0,0,0,0,0,0,0,0,-1,916,1051,0,0
-301,-27,0,0,0,0,0,0,0,0,0,-1,923,1051,0,0
-294,-27,0,0,0,0,0,0,0,0,0,-1,930,1051,0,0
-287,-27,0,0,0,0,0,0,0,0,0,-1,937,1051,0,0
-280,-27,0,0,0,0,0,0,0,0,0,-1,944,1051,0,0
-273,-27,0,0,0,0,0,0,0,0,0,-1,951,1051,0,0
-266,-27,0,0,0,0,0,0,0,0,0,-1,958,1051,0,0
-259,-27,0,0,0,0,0,0,0,0,0,-1,965,1051,0,0
-252,-27,0,0,0,0,0,0,0,0,0,-1,972,1051,0,0
-245,-27,0,0,0,0,0,0,0,0,0,-1,979,1051,0,0
-238,-27,0,0,0,0,0,0,0,0,0,-1,986,1051,0,0
-231,-27,0,0,0,0,0,0,0,0,0,-1,993,1051,0,0
-224,-27,0,0,0,0,0,0,0,0,0,-1,1000,1051,0,0
-217,-27,0,0,0,0,0,0,0,0,0,-1,1007,1051,0,0
-210,-27,0,0,0,0,0,0,0,0,0,-1,1014,1051,0,0
-203,-27,0,0,0,0,0,0,0,0,0,-1,1021,1051,0,0
-196,-27,0,0,0,0,0,0,0,0,0,-1,1028,1051,0,0
-189,-27,0,0,0,0,0,0,0,0,0,-1,1035,1051,0,0
-182,-27,0,0,0,0,0,0,0,0,0,-1,1042,1051,0,0
-175,-27,0,0,0,0,0,0,0,0,0,-1,1049,1051,0,0
-168,-27,0,0,0,0,0,0,0,0,0,-1,1056,1051,0,0
-161,-27,0,0,0,0,0,0,0,0,0,-1,1063,1051,0,0
-154,-27,0,0,0,0,0,0,0,0,0,-1,1070,1051,0,0
-147,-27,0,0,0,0,0,0,0,0,0,-1,1077,1051,0,0
-140,-27,0,0,0,0,0,0,0,0,0,-1,1084,1051,0,0
-133,-27,0,0,0,0,0,0,0,0,0,-1,1091,1051,0,0
-126,-27,0,0,0,0,0,0,0,0,0,-1,1098,1051,0,0
-119,-27,0,0,0,0,0,0,0,0,0,-1,1105,1051,0,0
-112,-27,0,0,0,0,0,0,0,0,0,-1,1112,1051,0,0
-105,-27,0,0,0,0,0,0,0,0,0,-1,1119,1051,0,0
-98,-27,0,0,0,0,0,0,0,0,0,-1,1126,1051,0,0
-91,-27,0,0,0,0,0,0,0,0,0,-1,1133,1051,0,0
-84,-27,0,0,0,0,0,0,0,0,0,-1,1140,1051,0,0
-77,-27,0,0,0,0,0,0,0,0,0,-1,1147,1051,0,0
-70,-27,0,0,0,0,0,0,0,0,0,-1,1154,1051,0,0
-63,-27,0,0,0,0,0,0,0,0,0,-1,1161,1051,0,0
-56,-27,0,0,0,0,0,0,0,0,0,-1,1168,1051,0,0
-49,-27,0,0,0,0,0,0,0,0,0,-1,1175,1051,0,0
-42,-27,0,0,0,0,0,0,0,0,0,-1,1182,1051,0,0
-35,-27,0,0,0,0,0,0,0,0,0,-1,1189,1051,0,0
-28,-27,0,0,0,0,0,0,0,0,0,-1,1196,1051,0,0
-21,-27,0,0,0,0,0,0,0,0,0,-1,1203,1051,0,0
-14,-27,0,0,0,0,0,0,0,0,0,-1,1210,1051,0,0
-7,-27,0,0,0,0,0,0,0,0,0,-1,1217,1051,0,0
0,-27,0,0,0,0,0,0,0,0,0,-1,1224,1051,0,0
7,-27,0,0,0,0,0,0,0,0,0,-1,1231,1051,0,0
14,-27,0,0,0,0,0,0,0,0,0,-1,1238,1051,0,0
21,-27,0,0,0,0,0,0,0,0,0,-1,1245,1051,0,0
28,-27,0,0,0,0,0,0,0,0,0,-1,1252,1051,0,0
35,-27,0,0,0,0,0,0,0,0,0,-1,1259,1051,0,0
42,-27,0,0,0,0,0,0,0,0,0,-1,1266,1051,0,0
49,-27,0,0,0,0,0,0,0,0,0,-1,1273,1051,0,0
56,-27,0,0,0,0,0,0,0,0,0,-1,1280,1051,0,0
63,-27,0,0,0,0,0,0,0,0,0,-1,1287,1051,0,0
70,-27,0,0,0,0,0,0,0,0,0,-1,1294,1051,0,0
77,-27,0,0,0,0,0,0,0,0,0,-1,1301,1051,0,0
84,-27,0,0,0,0,0,0,0,0,0,-1,1308,1051,0,0
91,-27,0,0,0,0,0,0,0,0,0,-1,1315,1051,0,0
98,-27,0,0,0,0,0,0,0,0,0,-1,1322,1051,0,0
105,-27,0,0,0,0,0,0,0,0,0,-1,1329,1051,0,0
112,-27,0,0,0,0,0,0,0,0,0,-1,1336,1051,0,0
119,-27,0,0,0,0,0,0,0,0,0,-1,1343,1051,0,0
126,-27,0,0,0,0,0,0,0,0,0,-1,1350,1051,0,0
133,-27,0,0,0,0,0,0,0,0,0,-1,1357,1051,0,0
140,-27,0,0,0,0,0,0,0,0,0,-1,1364,1051,0,0
147,-27,0,0,0,0,0,0,0,0,0,-1,1371,1051,0,0
154,-27,0,0,0,0,0,0,0,0,0,-1,1378,1051,0,0
161,-27,0,0,0,0,0,0,0,0,0,-1,1385,1051,0,0
168,-27,0,0,0,0,0,0,0,0,0,-1,1392,1051,0,0
175,-27,0,0,0,0,0,0,0,0,0,-1,1399,1051,0,0
182,-27,0,0,0,0,0,0,0,0,0,-1,1406,1051,0,0
189,-27,0,0,0,0,0,0,0,0,0,-1,1413,1051,0,0
196,-27,0,0,0,0,0,0,0,0,0,-1,1420,1051,0,0
203,-27,0,0,0,0,0,0,0,0,0,-1,1427,1051,0,0
210,-27,0,0,0,0,0,0,0,0,0,-1,1434,1051,0,0
217,-27,0,0,0,0,0,0,0,0,0,-1,1441,1051,0,0
224,-27,0,0,0,0,0,0,0,0,0,-1,1448,1051,0,0
231,-27,0,0,0,0,0,0,0,0,0,-1,1455,1051,0,0
238,-27,0,0,0,0,0,0,0,0,0,-1,1462,1051,0,0
245,-27,0,0,0,0,0,0,0,0,0,-1,1469,1051,0,0
252,-27,0,0,0,0,0,0,0,0,0,-1,1476,1051,0,0
259,-27,0,0,0,0,0,0,0,0,0,-1,1483,1051,0,0
266,-27,0,0,0,0,0,0,0,0,0,-1,1490,1051,0,0
273,-27,0,0,0,0,0,0,0,0,0,-1,1497,1051,0,0
280,-27,0,0,0,0,0,0,0,0,0,-1,1504,1051,0,0
287,-27,0,0,0,0,0,0,0,0,0,-1,1511,1051,0,0
294,-27,0,0,0,0,0,0,0,0,0,-1,1518,1051,0,0
301,-27,0,0,0,0,0,0,0,0,0,-1,1525,1051,0,0
308,-27,0,0,0,0,0,0,0,0,0,-1,1532,1051,0,0
315,-27,0,0,0,0,0,0,0,0,0,-1,1539,1051,0,0
322,-27,0,0,0,0,0,0,0,0,0,-1,1546,1051,0,0
329,-27,0,0,0,0,0,0,0,0,0,-1,1553,1051,0,0
336,-27,0,0,0,0,0,0,0,0,0,-1,1560,1051,0,0
343,-27,0,0,0,0,0,0,0,0,0,-1,1567,1051,0,0
350,-27,0,0,0,0,0,0,0,0,0,-1,1574,1051,0,0
357,-27,0,0,0,0,0,0,0,0,0,-1,1581,1051,0,0
364,-27,0,0,0,0,0,0,0,0,0,-1,1588,1051,0,0
371,-27,0,0,0,0,0,0,0,0,0,-1,1595,1051,0,0
378,-27,0,0,0,0,0,0,0,0,0,-1,1602,1051,0,0
385,-27,0,0,0,0,0,0,0,0,0,-1,1609,1051,0,0
392,-27,0,0,0,0,0,0,0,0,0,-1,1616,1051,0,0
399,-27,0,0,0,0,0,0,0,0,0,-1,1623,1051,0,0
406,-27,0,0,0,0,0,0,0,0,0,-1,1630,1051,0,0
413,-27,0,0,0,0,0,0,0,0,0,-1,1637,1051,0,0
420,-27,0,0,0,0,0,0,0,0,0,-1,1644,1051,0,0
427,-27,0,0,0,0,0,0,0,0,0,-1,1651,1051,0,0
434,-27,0,0,0,0,0,0,0,0,0,-1,1658,1051,0,0
441,-27,0,0,0,0,0,0,0,0,0,-1,1665,1051,0,0
448,-27,0,0,0,0,0,0,0,0,0,-1,1672,1051,0,0
455,-27,0,0,0,0,0,0,0,0,0,-1,1679,1051,0,0
462,-27,0,0,0,0,0,0,0,0,0,-1,1686,1051,0,0
469,-27,0,0,0,0,0,0,0,0,0,-1,1693,1051,0,0
476,-27,0,0,0,0,0,0,0,0,0,-1,1700,1051,0,0
483,-27,0,0,0,0,0,0,0,0,0,-1,1707,1051,0,0
490,-27,0,0,0,0,0,0,0,0,0,-1,1714,1051,0,0
497,-27,0,0,0,0,0,0,0,0,0,-1,1721,1051,0,0
504,-27,0,0,0,0,0,0,0,0,0,-1,1728,1051,0,0
511,-27,0,0,0,0,0,0,0,0,0,-1,1735,1051,0,0
518,-27,0,0,0,0,0,0,0,0,0,-1,1742,1051,0,0
525,-27,0,0,0,0,0,0,0,0,0,-1,1749,1051,0,0
532,-27,0,0,0,0,0,0,0,0,0,-1,1756,1051,0,0
539,-27,0,0,0,0,0,0,0,0,0,-1,1763,1051,0,0
546,-27,0,0,0,0,0,0,0,0,0,-1,1770,1051,0,0
553,-27,0,0,0,0,0,0,0,0,0,-1,1777,1051,0,0
560,-27,0,0,0,0,0,0,0,0,0,-1,1784,1051,0,0
567,-27,0,0,0,0,0,0,0,0,0,-1,1791,1051,0,0
574,-27,0,0,0,0,0,0,0,0,0,-1,1798,1051,0,0
581,-27,0,0,0,0,0,0,0,0,0,-1,1805,1051,0,0
588,-27,0,0,0,0,0,0,0,0,0,-1,1812,1051,0,0
595,-27,0,0,0,0,0,0,0,0,0,-1,1819,1051,0,0
602,-27,0,0,0,0,0,0,0,0,0,-1,1826,1051,0,0
609,-27,0,0,0,0,0,0,0,0,0,-1,1833,1051,0,0
616,-27,0,0,0,0,0,0,0,0,0,-1,1840,1051,0,0
623,-27,0,0,0,0,0,0,0,0,0,-1,1847,1051,0,0
630,-27,0,0,0,0,0,0,0,0,0,-1,1854,1051,0,0
637,-27,0,0,0,0,0,0,0,0,0,-1,1861,1051,0,0
644,-27,0,0,0,0,0,0,0,0,0,-1,1868,1051,0,0
651,-27,19.4486,2.39905,0.00165432,0.00184309,0.00156145,0.00331301,0.000184408,0.815585,0.00214984,0.0390672,1875,1051,19.4486,-2.39907
658,-27,19.2734,2.66174,0.00123371,0.00135859,0.000971369,0.00226952,0.000322774,0.817495,0.00141772,0.0400657,1882,1051,19.2734,-2.66177
665,-27,19.2869,2.55115,0.000754778,0.000993744,0.000581451,0.00146786,0.000280661,0.886733,0.000899733,0.0363636,1889,1051,19.2869,-2.5511
672,-27,19.3501,2.39233,0.000317687,0.000772158,0.000873604,0.0014476,-0.000357751,0.912635,0.00110381,0.0278551,1896,1051,19.3502,-2.39238
679,-27,19.2852,2.41321,-0.000422693,0.000644233,0.00185169,0.00203777,-0.00181623,0.925648,0.00222633,0.0278187,1903,1051,19.2852,-2.41326
686,-27,19.3099,2.30103,-0.00124865,0.000528536,0.00297951,0.00274913,-0.00346925,0.930317,0.0035982,0.0397303,1910,1051,19.31,-2.30101
693,-27,19.3958,2.27539,-0.00192173,0.000433917,0.00402903,0.00345376,-0.00494157,0.927602,0.00487235,0.0418804,1917,1051,19.3957,-2.27537
700,-27,19.4236,2.35193,-0.00248143,0.000360839,0.0049029,0.00404441,-0.006165,0.926461,0.00593664,0.0372567,1924,1051,19.4236,-2.3519
707,-27,19.3949,2.39319,-0.00287818,0.000297938,0.00542786,0.00436528,-0.00694552,0.927714,0.00658669,0.0247584,1931,1051,19.3949,-2.39322
714,-27,19.3878,2.40942,-0.00318518,0.000306919,0.00580232,0.00462021,-0.00749847,0.93155,0.0070622,0.022976,1938,1051,19.3878,-2.40941
721,-27,19.434,2.54321,-0.00337975,0.000308088,0.00595748,0.00470049,-0.00777214,0.935479,0.0072735,0.0271071,1945,1051,19.4339,-2.54316
728,-27,18.9745,3.48413,0,0,0,0,0,0,0,-1,1952,1051,18.9744,-3.48407
735,-27,18.9906,3.52551,-0.00352425,0.000704214,0.00532106,0.00431568,-0.00713572,0.974501,0.00667796,0.0165886,1959,1051,18.9906,-3.52552
742,-27,19.004,3.54407,-0.00336582,0.00107876,0.00452159,0.00389465,-0.00618172,1.0138,0.00586734,0.0158598,1966,1051,19.004,-3.54403
749,-27,19.0188,3.54382,-0.00340825,0.0010365,0.00361853,0.00306062,-0.00543237,1.06078,0.00496675,0.0114849,1973,1051,19.0187,-3.54383
756,-27,19.0353,3.53979,-0.00320819,0.00091147,0.00283475,0.00235574,-0.00465245,1.09959,0.00411797,0.0108244,1980,1051,19.0353,-3.53981
763,-27,19.0438,3.51941,-0.00286871,0.000329275,0.00214494,0.00140564,-0.00394507,1.1057,0.00320311,0.0125843,1987,1051,19.0438,-3.5194
770,-27,19.0321,3.51123,-0.0027808,-0.000341448,0.00147441,0.000352382,-0.00347463,1.13096,0.00244237,0.0146394,1994,1051,19.0321,-3.51122
777,-27,18.989,3.53333,-0.00273084,-0.00162349,0.00139587,-0.000675496,-0.00367883,0.974207,0.00226127,0.0155883,2001,1051,18.989,-3.53331
784,-27,18.9133,3.51563,-0.00288405,-0.00369698,0.00225152,-0.00100259,-0.00557843,0.696096,0.00343389,0.0235578,2008,1051,18.9134,-3.51563
791,-27,18.903,3.42419,-0.00309401,-0.00693077,0.00379869,-0.000756777,-0.009268,0.551574,0.0059425,0.0430496,2015,1051,18.9029,-3.42424
798,-27,19.069,3.42737,0,0,0,0,0,0,0,-1,2022,1051,19.069,-3.42739
805,-27,19.3154,3.71509,-0.0020514,-0.0180249,0.00902316,0.00201198,-0.0220883,0.423127,0.0154399,0.0454207,2029,1051,19.3154,-3.71506
812,-27,19.6436,4.13013,-0.000475384,-0.0264308,0.0129875,0.00490707,-0.0318133,0.392887,0.0230196,0.0443729,2036,1051,19.6435,-4.13018
-700,-34,-14.3175,1.7085,0.082664,0.0546753,-0.0325513,0.104102,0.0332376,-0.582385,0.0613978,0.0482964,524,1058,-14.3175,-1.70854
-693,-34,-14.0428,1.32837,0.0752416,0.0429027,-0.0299144,0.0930769,0.0250675,-0.537629,0.0556117,0.048627,531,1058,-14.0428,-1.32837
-686,-34,-13.5665,1.07495,0.0653407,0.0333543,-0.0261049,0.079962,0.018733,-0.510563,0.0482904,0.047877,538,1058,-13.5665,-1.07492
-679,-34,-12.5015,0.90564,0.0546227,0.025585,-0.0219691,0.066437,0.0137707,-0.493407,0.0404894,0.0444182,545,1058,-12.5015,-0.905594
-672,-34,-12.068,0.238281,0.0441456,0.0193047,-0.0178605,0.0534798,0.00997048,-0.481578,0.0328382,0.0456786,552,1058,-12.068,-0.23826
-665,-34,-12.0364,-0.137329,0.034515,0.0142984,-0.014026,0.0416957,0.00711783,-0.473162,0.0257545,0.0445811,559,1058,-12.0364,0.13732
-658,-34,-11.8823,-0.556885,0,0,0,0,0,0,0,-1,566,1058,-11.8823,0.556938
-651,-34,-12.47,1.09998,0.0188984,0.00733806,-0.00774744,0.0227843,0.00345214,-0.464906,0.0141796,0.026857,573,1058,-12.47,-1.09999
-644,-34,-12.4974,1.02209,0.0130833,0.00462349,-0.00569963,0.0159511,0.00175565,-0.466174,0.0100998,0.0110053,580,1058,-12.4974,-1.02215
-637,-34,-12.5075,1.04163,0.00815148,0.00241713,-0.00457626,0.0106846,-0.000115958,-0.505548,0.00716201,0.0115319,587,1058,-12.5075,-1.04168
-630,-34,-12.5038,1.10974,0.00398362,0.00110549,-0.00400088,0.00679637,-0.00170726,-0.612759,0.00519438,0.0146285,594,1058,-12.5038,-1.10978
-623,-34,-12.4888,1.13257,0.000599501,9.9786e-05,-0.00349003,0.00384861,-0.00314932,-0.749663,0.00404698,0.0130027,601,1058,-12.4889,-1.1326
-616,-34,-12.4555,1.20142,-0.000428684,-0.000495165,-0.00387505,0.00341327,-0.00433712,-0.781109,0.00448527,0.0184863,608,1058,-12.4555,-1.20136
-609,-34,-12.4339,1.22986,-0.00015922,-0.000639013,-0.00460092,0.00420805,-0.00500628,-0.759351,0.00532655,0.0183743,615,1058,-12.4339,-1.22987
-602,-34,-12.4694,1.25977,-8.63218e-05,-0.000766013,-0.00549192,0.00507626,-0.00592859,-0.754497,0.00636,0.0147421,622,1058,-12.4694,-1.25981
-595,-34,-12.5148,1.29236,-0.000327463,-0.00123208,-0.00610099,0.00533796,-0.0068975,-0.748398,0.00708325,0.0119322,629,1058,-12.5148,-1.29235
-588,-34,-12.5492,0.895752,-0.000541612,-0.00147901,-0.00628262,0.00528977,-0.00731039,-0.748166,0.00730582,0.0232664,636,1058,-12.5492,-0.895722
-581,-34,-12.5469,0.386719,0,0,0,0,0,0,0,-1,643,1058,-12.5469,-0.386658
-574,-34,-12.5892,0.499023,-0.000953588,-0.00149711,-0.00555536,0.00433665,-0.00678735,-0.760958,0.00647419,0.0370051,650,1058,-12.5892,-0.499025
-567,-34,-12.5665,0.256714,-0.00139883,-0.00131156,-0.00463293,0.00327793,-0.00598833,-0.790107,0.00542563,0.0411809,657,1058,-12.5665,-0.256764
-560,-34,-12.499,0.124268,-0.00211565,-0.000966072,-0.00324495,0.0017546,-0.00483632,-0.873055,0.00394149,0.0415009,664,1058,-12.499,-0.124279
-553,-34,-12.4453,0.370117,-0.00317963,-0.000465681,-0.00140956,0.000133935,-0.00377924,-1.16859,0.00256531,0.0426408,671,1058,-12.4453,-0.370158
-546,-34,-12.546,0.174316,-0.00474783,0.00017124,0.000866611,0.000319448,-0.00489603,1.40141,0.00337555,0.0445836,678,1058,-12.546,-0.174359
-539,-34,-12.5194,0.297729,-0.00691173,0.000851347,0.00309367,0.00193339,-0.00799378,1.23434,0.00607704,0.0412925,685,1058,-12.5194,-0.297704
-532,-34,-12.5803,0.426636,-0.0102606,0.0016286,0.00393973,0.00281561,-0.0114476,1.27816,0.00872308,0.0392524,692,1058,-12.5803,-0.426638
-525,-34,0,0,0,0,0,0,0,0,0,-1,699,1058,0,0
-518,-34,0,0,0,0,0,0,0,0,0,-1,706,1058,0,0
-511,-34,0,0,0,0,0,0,0,0,0,-1,713,1058,0,0
-504,-34,0,0,0,0,0,0,0,0,0,-1,720,1058,0,0
-497,-34,0,0,0,0,0,0,0,0,0,-1,727,1058,0,0
-490,-34,0,0,0,0,0,0,0,0,0,-1,734,1058,0,0
-483,-34,0,0,0,0,0,0,0,0,0,-1,741,1058,0,0
-476,-34,0,0,0,0,0,0,0,0,0,-1,748,1058,0,0
-469,-34,0,0,0,0,0,0,0,0,0,-1,755,1058,0,0
-462,-34,0,0,0,0,0,0,0,0,0,-1,762,1058,0,0
-455,-34,0,0,0,0,0,0,0,0,0,-1,769,1058,0,0
-448,-34,0,0,0,0,0,0,0,0,0,-1,776,1058,0,0
-441,-34,0,0,0,0,0,0,0,0,0,-1,783,1058,0,0
-434,-34,0,0,0,0,0,0,0,0,0,-1,790,1058,0,0
-427,-34,0,0,0,0,0,0,0,0,0,-1,797,1058,0,0
-420,-34,0,0,0,0,0,0,0,0,0,-1,804,1058,0,0
-413,-34,0,0,0,0,0,0,0,0,0,-1,811,1058,0,0
-406,-34,0,0,0,0,0,0,0,0,0,-1,818,1058,0,0
-399,-34,0,0,0,0,0,0,0,0,0,-1,825,1058,0,0
-392,-34,0,0,0,0,0,0,0,0,0,-1,832,1058,0,0
-385,-34,0,0,0,0,0,0,0,0,0,-1,839,1058,0,0
-378,-34,0,0,0,0,0,0,0,0,0,-1,846,1058,0,0
-371,-34,0,0,0,0,0,0,0,0,0,-1,853,1058,0,0
-364,-34,0,0,0,0,0,0,0,0,0,-1,860,1058,0,0
-357,-34,0,0,0,0,0,0,0,0,0,-1,867,1058,0,0
-350,-34,0,0,0,0,0,0,0,0,0,-1,874,1058,0,0
-343,-34,0,0,0,0,0,0,0,0,0,-1,881,1058,0,0
-336,-34,0,0,0,0,0,0,0,0,0,-1,888,1058,0,0
-329,-34,0,0,0,0,0,0,0,0,0,-1,895,1058,0,0
-322,-34,0,0,0,0,0,0,0,0,0,-1,902,1058,0,0
-315,-34,0,0,0,0,0,0,0,0,0,-1,909,1058,0,0
-308,-34,0,0,0,0,0,0,0,0,0,-1,916,1058,0,0
-301,-34,0,0,0,0,0,0,0,0,0,-1,923,1058,0,0
-294,-34,0,0,0,0,0,0,0,0,0,-1,930,1058,0,0
-287,-34,0,0,0,0,0,0,0,0,0,-1,937,1058,0,0
-280,-34,0,0,0,0,0,0,0,0,0,-1,944,1058,0,0
-273,-34,0,0,0,0,0,0,0,0,0,-1,951,1058,0,0
-266,-34,0,0,0,0,0,0,0,0,0,-1,958,1058,0,0
-259,-34,0,0,0,0,0,0,0,0,0,-1,965,1058,0,0
-252,-34,0,0,0,0,0,0,0,0,0,-1,972,1058,0,0
-245,-34,0,0,0,0,0,0,0,0,0,-1,979,1058,0,0
-238,-34,0,0,0,0,0,0,0,0,0,-1,986,1058,0,0
-231,-34,0,0,0,0,0,0,0,0,0,-1,993,1058,0,0
-224,-34,0,0,0,0,0,0,0,0,0,-1,1000,1058,0,0
-217,-34,0,0,0,0,0,0,0,0,0,-1,1007,1058,0,0
-210,-34,0,0,0,0,0,0,0,0,0,-1,1014,1058,0,0
-203,-34,0,0,0,0,0,0,0,0,0,-1,1021,1058,0,0
-196,-34,0,0,0,0,0,0,0,0,0,-1,1028,1058,0,0
-189,-34,0,0,0,0,0,0,0,0,0,-1,1035,1058,0,0
-182,-34,0,0,0,0,0,0,0,0,0,-1,1042,1058,0,0
-175,-34,0,0,0,0,0,0,0,0,0,-1,1049,1058,0,0
-168,-34,0,0,0,0,0,0,0,0,0,-1,1056,1058,0,0
-161,-34,0,0,0,0,0,0,0,0,0,-1,1063,1058,0,0
-154,-34,0,0,0,0,0,0,0,0,0,-1,1070,1058,0,0
-147,-34,0,0,0,0,0,0,0,0,0,-1,1077,1058,0,0
-140,-34,0,0,0,0,0,0,0,0,0,-1,1084,1058,0,0
-133,-34,0,0,0,0,0,0,0,0,0,-1,1091,1058,0,0
-126,-34,0,0,0,0,0,0,0,0,0,-1,1098,1058,0,0
-119,-34,0,0,0,0,0,0,0,0,0,-1,1105,1058,0,0
-112,-34,0,0,0,0,0,0,0,0,0,-1,1112,1058,0,0
-105,-34,0,0,0,0,0,0,0,0,0,-1,1119,1058,0,0
-98,-34,0,0,0,0,0,0,0,0,0,-1,1126,1058,0,0
-91,-34,0,0,0,0,0,0,0,0,0,-1,1133,1058,0,0
-84,-34,0,0,0,0,0,0,0,0,0,-1,1140,1058,0,0
-77,-34,0,0,0,0,0,0,0,0,0,-1,1147,1058,0,0
-70,-34,0,0,0,0,0,0,0,0,0,-1,1154,1058,0,0
-63,-34,0,0,0,0,0,0,0,0,0,-1,1161,1058,0,0
-56,-34,0,0,0,0,0,0,0,0,0,-1,1168,1058,0,0
-49,-34,0,0,0,0,0,0,0,0,0,-1,1175,1058,0,0
-42,-34,0,0,0,0,0,0,0,0,0,-1,1182,1058,0,0
-35,-34,0,0,0,0,0,0,0,0,0,-1,1189,1058,0,0
-28,-34,0,0,0,0,0,0,0,0,0,-1,1196,1058,0,0
-21,-34,0,0,0,0,0,0,0,0,0,-1,1203,1058,0,0
-14,-34,0,0,0,0,0,0,0,0,0,-1,1210,1058,0,0
-7,-34,0,0,0,0,0,0,0,0,0,-1,1217,1058,0,0
0,-34,0,0,0,0,0,0,0,0,0,-1,1224,1058,0,0
7,-34,0,0,0,0,0,0,0,0,0,-1,1231,1058,0,0
14,-34,0,0,0,0,0,0,0,0,0,-1,1238,1058,0,0
21,-34,0,0,0,0,0,0,0,0,0,-1,1245,1058,0,0
28,-34,0,0,0,0,0,0,0,0,0,-1,1252,1058,0,0
35,-34,0,0,0,0,0,0,0,0,0,-1,1259,1058,0,0
42,-34,0,0,0,0,0,0,0,0,0,-1,1266,1058,0,0
49,-34,0,0,0,0,0,0,0,0,0,-1,1273,1058,0,0
56,-34,0,0,0,0,0,0,0,0,0,-1,1280,1058,0,0
63,-34,0,0,0,0,0,0,0,0,0,-1,1287,1058,0,0
70,-34,0,0,0,0,0,0,0,0,0,-1,1294,1058,0,0
77,-34,0,0,0,0,0,0,0,0,0,-1,1301,1058,0,0
84,-34,0,0,0,0,0,0,0,0,0,-1,1308,1058,0,0
91,-34,0,0,0,0,0,0,0,0,0,-1,1315,1058,0,0
98,-34,0,0,0,0,0,0,0,0,0,-1,1322,1058,0,0
105,-34,0,0,0,0,0,0,0,0,0,-1,1329,1058,0,0
112,-34,0,0,0,0,0,0,0,0,0,-1,1336,1058,0,0
119,-34,0,0,0,0,0,0,0,0,0,-1,1343,1058,0,0
126,-34,0,0,0,0,0,0,0,0,0,-1,1350,1058,0,0
133,-34,0,0,0,0,0,0,0,0,0,-1,1357,1058,0,0
140,-34,0,0,0,0,0,0,0,0,0,-1,1364,1058,0,0
147,-34,0,0,0,0,0,0,0,0,0,-1,1371,1058,0,0
154,-34,0,0,0,0,0,0,0,0,0,-1,1378,1058,0,0
161,-34,0,0,0,0,0,0,0,0,0,-1,1385,1058,0,0
168,-34,0,0,0,0,0,0,0,0,0,-1,1392,1058,0,0
175,-34,0,0,0,0,0,0,0,0,0,-1,1399,1058,0,0
182,-34,0,0,0,0,0,0,0,0,0,-1,1406,1058,0,0
189,-34,0,0,0,0,0,0,0,0,0,-1,1413,1058,0,0
196,-34,0,0,0,0,0,0,0,0,0,-1,1420,1058,0,0
203,-34,0,0,0,0,0,0,0,0,0,-1,1427,1058,0,0
210,-34,0,0,0,0,0,0,0,0,0,-1,1434,1058,0,0
217,-34,0,0,0,0,0,0,0,0,0,-1,1441,1058,0,0
224,-34,0,0,0,0,0,0,0,0,0,-1,1448,1058,0,0
231,-34,0,0,0,0,0,0,0,0,0,-1,1455,1058,0,0
238,-34,0,0,0,0,0,0,0,0,0,-1,1462,1058,0,0
245,-34,0,0,0,0,0,0,0,0,0,-1,1469,1058,0,0
252,-34,0,0,0,0,0,0,0,0,0,-1,1476,1058,0,0
259,-34,0,0,0,0,0,0,0,0,0,-1,1483,1058,0,0
266,-34,0,0,0,0,0,0,0,0,0,-1,1490,1058,0,0
273,-34,0,0,0,0,0,0,0,0,0,-1,1497,1058,0,0
280,-34,0,0,0,0,0,0,0,0,0,-1,1504,1058,0,0
287,-34,0,0,0,0,0,0,0,0,0,-1,1511,1058,0,0
294,-34,0,0,0,0,0,0,0,0,0,-1,1518,1058,0,0
301,-34,0,0,0,0,0,0,0,0,0,-1,1525,1058,0,0
308,-34,0,0,0,0,0,0,0,0,0,-1,1532,1058,0,0
315,-34,0,0,0,0,0,0,0,0,0,-1,1539,1058,0,0
322,-34,0,0,0,0,0,0,0,0,0,-1,1546,1058,0,0
329,-34,0,0,0,0,0,0,0,0,0,-1,1553,1058,0,0
336,-34,0,0,0,0,0,0,0,0,0,-1,1560,1058,0,0
343,-34,0,0,0,0,0,0,0,0,0,-1,1567,1058,0,0
350,-34,0,0,0,0,0,0,0,0,0,-1,1574,1058,0,0
357,-34,0,0,0,0,0,0,0,0,0,-1,1581,1058,0,0
364,-34,0,0,0,0,0,0,0,0,0,-1,1588,1058,0,0
371,-34,0,0,0,0,0,0,0,0,0,-1,1595,1058,0,0
378,-34,0,0,0,0,0,0,0,0,0,-1,1602,1058,0,0
385,-34,0,0,0,0,0,0,0,0,0,-1,1609,1058,0,0
392,-34,0,0,0,0,0,0,0,0,0,-1,1616,1058,0,0
399,-34,0,0,0,0,0,0,0,0,0,-1,1623,1058,0,0
406,-34,0,0,0,0,0,0,0,0,0,-1,1630,1058,0,0
413,-34,0,0,0,0,0,0,0,0,0,-1,1637,1058,0,0
420,-34,0,0,0,0,0,0,0,0,0,-1,1644,1058,0,0
427,-34,0,0,0,0,0,0,0,0,0,-1,1651,1058,0,0
434,-34,0,0,0,0,0,0,0,0,0,-1,1658,1058,0,0
441,-34,0,0,0,0,0,0,0,0,0,-1,1665,1058,0,0
448,-34,0,0,0,0,0,0,0,0,0,-1,1672,1058,0,0
455,-34,0,0,0,0,0,0,0,0,0,-1,1679,1058,0,0
462,-34,0,0,0,0,0,0,0,0,0,-1,1686,1058,0,0
469,-34,0,0,0,0,0,0,0,0,0,-1,1693,1058,0,0
476,-34,0,0,0,0,0,0,0,0,0,-1,1700,1058,0,0
483,-34,0,0,0,0,0,0,0,0,0,-1,1707,1058,0,0
490,-34,0,0,0,0,0,0,0,0,0,-1,1714,1058,0,0
497,-34,0,0,0,0,0,0,0,0,0,-1,1721,1058,0,0
504,-34,0,0,0,0,0,0,0,0,0,-1,1728,1058,0,0
511,-34,0,0,0,0,0,0,0,0,0,-1,1735,1058,0,0
518,-34,0,0,0,0,0,0,0,0,0,-1,1742,1058,0,0
525,-34,0,0,0,0,0,0,0,0,0,-1,1749,1058,0,0
532,-34,0,0,0,0,0,0,0,0,0,-1,1756,1058,0,0
539,-34,0,0,0,0,0,0,0,0,0,-1,1763,1058,0,0
546,-34,0,0,0,0,0,0,0,0,0,-1,1770,1058,0,0
553,-34,0,0,0,0,0,0,0,0,0,-1,1777,1058,0,0
560,-34,0,0,0,0,0,0,0,0,0,-1,1784,1058,0,0
567,-34,0,0,0,0,0,0,0,0,0,-1,1791,1058,0,0
574,-34,0,0,0,0,0,0,0,0,0,-1,1798,1058,0,0
581,-34,0,0,0,0,0,0,0,0,0,-1,1805,1058,0,0
588,-34,0,0,0,0,0,0,0,0,0,-1,1812,1058,0,0
595,-34,0,0,0,0,0,0,0,0,0,-1,1819,1058,0,0
602,-34,0,0,0,0,0,0,0,0,0,-1,1826,1058,0,0
609,-34,0,0,0,0,0,0,0,0,0,-1,1833,1058,0,0
616,-34,0,0,0,0,0,0,0,0,0,-1,1840,1058,0,0
623,-34,0,0,0,0,0,0,0,0,0,-1,1847,1058,0,0
630,-34,0,0,0,0,0,0,0,0,0,-1,1854,1058,0,0
637,-34,0,0,0,0,0,0,0,0,0,-1,1861,1058,0,0
644,-34,0,0,0,0,0,0,0,0,0,-1,1868,1058,0,0
651,-34,19.4236,2.40381,0.00116639,0.000980814,0.00201236,0.00308809,-0.000940895,0.76236,0.00243376,0.0418292,1875,1058,19.4236,-2.40376
658,-34,19.3962,2.4884,0.000910388,0.000714939,0.00135187,0.00216806,-0.000542738,0.749317,0.0016562,0.0426007,1882,1058,19.3962,-2.48839
665,-34,19.3755,2.34729,0.000588745,0.000516712,0.000864,0.00141748,-0.000312021,0.764567,0.00106435,0.0406605,1889,1058,19.3754,-2.34729
672,-34,19.2292,2.2677,0.000270948,0.000408443,0.00107243,0.00141432,-0.000734932,0.817407,0.00126137,0.0367187,1896,1058,19.2293,-2.26771
679,-34,19.2717,2.31519,-0.000388011,0.000335748,0.00200468,0.00201095,-0.00206322,0.874695,0.00235229,0.0361674,1903,1058,19.2717,-2.31516
686,-34,19.3229,2.24304,-0.00117571,0.000245419,0.00310115,0.00271636,-0.00364666,0.898019,0.00368676,0.0409526,1910,1058,19.3229,-2.24303
693,-34,19.3646,2.24683,-0.00183408,0.00015874,0.00412963,0.00341046,-0.00508581,0.903777,0.00493701,0.0418567,1917,1058,19.3646,-2.24689
700,-34,19.3701,2.43457,-0.0023943,8.74397e-05,0.00498993,0.00398848,-0.00629533,0.907264,0.00598695,0.0389318,1924,1058,19.3701,-2.43457
707,-34,19.3612,2.42798,-0.00280421,4.72493e-05,0.00550213,0.00430537,-0.00706233,0.912171,0.00662717,0.0252242,1931,1058,19.3612,-2.42798
714,-34,19.3661,2.44641,-0.00311708,6.18936e-05,0.00588252,0.00456589,-0.00762107,0.91735,0.00710946,0.0213828,1938,1058,19.3661,-2.44646
721,-34,19.402,2.81543,0,0,0,0,0,0,0,-1,1945,1058,19.402,-2.81547
728,-34,19.2401,3.2915,-0.00347673,0.000191459,0.00583025,0.00446929,-0.00775456,0.937789,0.0071419,0.0302002,1952,1058,19.2402,-3.29146
735,-34,19.0022,3.56067,-0.00347367,0.000453931,0.00532567,0.00416634,-0.00718608,0.962035,0.00663116,0.0141761,1959,1058,19.0022,-3.56063
742,-34,18.9855,3.53918,-0.00327307,0.000843329,0.00447565,0.00371135,-0.00614109,1.00091,0.00574568,0.014231,1966,1058,18.9855,-3.53921
749,-34,19.0015,3.53198,-0.00326157,0.00103706,0.00351377,0.00300674,-0.00523125,1.05988,0.00481366,0.0120063,1973,1058,19.0014,-3.53198
756,-34,19.0275,3.53369,-0.00308098,0.00113087,0.00259125,0.00236403,-0.00431414,1.12662,0.00391006,0.00921846,1980,1058,19.0275,-3.53372
763,-34,19.017,3.51392,-0.00282894,0.000901691,0.00167129,0.00154089,-0.00346815,1.2055,0.00296246,0.0105277,1987,1058,19.017,-3.51386
770,-34,18.9856,3.48523,-0.00281082,0.000669263,0.00074508,0.000822074,-0.00296363,1.36851,0.0022993,0.0163016,1994,1058,18.9855,-3.48519
777,-34,18.9539,3.50928,-0.00294055,1.9138e-05,0.00033547,5.66859e-05,-0.0029781,1.45933,0.00200456,0.0171371,2001,1058,18.9538,-3.50927
784,-34,18.9036,3.4718,-0.00344224,-0.00126228,0.000782761,-0.00101033,-0.00369419,1.2594,0.00220458,0.0313701,2008,1058,18.9035,-3.47178
791,-34,18.9303,3.31177,-0.00421306,-0.00350468,0.00181165,-0.00201292,-0.00570482,0.881933,0.00334089,0.0439868,2015,1058,18.9303,-3.31171
798,-34,18.9835,3.16272,0,0,0,0,0,0,0,-1,2022,1058,18.9835,-3.1627
805,-34,18.8075,3.48096,0,0,0,0,0,0,0,-1,2029,1058,18.8075,-3.48099
812,-34,18.6357,3.97949,0,0,0,0,0,0,0,-1,2036,1058,18.6357,-3.97945
-700,-41,-13.7414,0.871582,0.0821251,0.0542735,-0.0240488,0.0959891,0.0404095,-0.522956,0.0556496,0.0475059,524,1065,-13.7414,-0.87157
-693,-41,-13.5197,0.503784,0.0739955,0.0409769,-0.0227356,0.0855837,0.0293888,-0.47137,0.0502132,0.0461036,531,1065,-13.5196,-0.503769
-686,-41,-13.4086,0.384766,0.0638468,0.0306893,-0.0202244,0.0734192,0.021117,-0.442067,0.0436446,0.0462743,538,1065,-13.4086,-0.384744
-679,-41,-11.9515,1.00574,0.0531498,0.0226763,-0.0172848,0.0609548,0.0148713,-0.424145,0.036698,0.0435303,545,1065,-11.9515,-1.00575
-672,-41,-12.1124,0.281372,0.0428307,0.0164754,-0.0142436,0.0490575,0.0102487,-0.412125,0.0298805,0.0451461,552,1065,-12.1124,-0.281319
-665,-41,-12.1535,-0.00244141,0.0334193,0.0117487,-0.0113268,0.0382588,0.0069092,-0.403787,0.0235432,0.043375,559,1065,-12.1535,0.00239161
-658,-41,-12.261,0.265259,0.0251886,0.0082112,-0.00867477,0.0288371,0.00456278,-0.398119,0.0178987,0.0395803,566,1065,-12.261,-0.265241
-651,-41,-12.3925,0.987549,0.0182621,0.00560394,-0.00639065,0.0209274,0.00293871,-0.395118,0.0130825,0.0261253,573,1065,-12.3925,-0.987598
-644,-41,-12.4366,0.990601,0.0125518,0.00327927,-0.00478841,0.0145806,0.00125041,-0.40077,0.00933159,0.0109742,580,1065,-12.4366,-0.990541
-637,-41,-12.4297,1.01697,0.00772335,0.00127236,-0.00403408,0.00966289,-0.00066718,-0.448162,0.00667544,0.0118429,587,1065,-12.4297,-1.01694
-630,-41,-12.4385,1.06763,0.00374348,0.000150378,-0.00372638,0.00608378,-0.00218992,-0.560778,0.00495002,0.0121863,594,1065,-12.4385,-1.06761
-623,-41,-12.4495,1.12976,0.000490464,-0.000170474,-0.00343807,0.00361391,-0.00329392,-0.737485,0.00398966,0.01171,601,1065,-12.4494,-1.12982
-616,-41,-12.4376,1.18982,-0.000584432,-0.000754138,-0.00388888,0.00322052,-0.00455909,-0.77449,0.00451367,0.0147289,608,1065,-12.4376,-1.18985
-609,-41,-12.3888,1.24622,-0.000400164,-0.000862908,-0.0045789,0.00395321,-0.00521628,-0.760155,0.00531072,0.0197317,615,1065,-12.3888,-1.24623
-602,-41,-12.4293,1.27344,-0.000386652,-0.00109778,-0.00543769,0.00470709,-0.00619152,-0.75275,0.00631174,0.0124974,622,1065,-12.4293,-1.27341
-595,-41,-12.4778,1.29602,-0.000644788,-0.00164964,-0.00606128,0.00493485,-0.00722928,-0.744047,0.00706448,0.0139411,629,1065,-12.4778,-1.29604
-588,-41,-12.5286,0.875,-0.000851361,-0.00194146,-0.0062922,0.00491935,-0.00771217,-0.742194,0.00735199,0.0235354,636,1065,-12.5286,-0.875057
-581,-41,-12.5281,0.425293,-0.00098566,-0.00205099,-0.00608584,0.00459079,-0.00762744,-0.741747,0.00712645,0.0348031,643,1065,-12.5281,-0.425287
-574,-41,-12.5142,0.160645,-0.00116607,-0.00209302,-0.00568009,0.00406942,-0.00732851,-0.74469,0.00666967,0.0377136,650,1065,-12.5142,-0.160658
-567,-41,-12.5874,0.136719,-0.00149492,-0.00196482,-0.00482605,0.00310189,-0.00656163,-0.761076,0.00569718,0.0413348,657,1065,-12.5874,-0.136693
-560,-41,-12.5195,0.281128,-0.00202844,-0.00165344,-0.00352039,0.00168444,-0.00536631,-0.812003,0.00425174,0.0419392,664,1065,-12.5196,-0.281177
-553,-41,-12.4546,0.44519,-0.00283076,-0.00115126,-0.0017831,-2.00628e-05,-0.00396195,-1.00547,0.00263464,0.0436934,671,1065,-12.4546,-0.445196
-546,-41,-12.4731,0.409058,-0.00404298,-0.000457686,0.000383521,-0.000417119,-0.00408354,1.46541,0.00259452,0.0414235,678,1065,-12.4732,-0.40903
-539,-41,-12.4495,0.294678,-0.00576153,0.000357791,0.00249867,0.00124843,-0.00665217,1.22839,0.00490418,0.0398092,685,1065,-12.4495,-0.294711
-532,-41,-12.51,0.341064,-0.00859754,0.00127232,0.00312238,0.00217715,-0.00950237,1.28873,0.00717164,0.0387084,692,1065,-12.51,-0.341042
-525,-41,0,0,0,0,0,0,0,0,0,-1,699,1065,0,0
-518,-41,0,0,0,0,0,0,0,0,0,-1,706,1065,0,0
-511,-41,0,0,0,0,0,0,0,0,0,-1,713,1065,0,0
-504,-41,0,0,0,0,0,0,0,0,0,-1,720,1065,0,0
-497,-41,0,0,0,0,0,0,0,0,0,-1,727,1065,0,0
-490,-41,0,0,0,0,0,0,0,0,0,-1,734,1065,0,0
-483,-41,0,0,0,0,0,0,0,0,0,-1,741,1065,0,0
-476,-41,0,0,0,0,0,0,0,0,0,-1,748,1065,0,0
-469,-41,0,0,0,0,0,0,0,0,0,-1,755,1065,0,0
-462,-41,0,0,0,0,0,0,0,0,0,-1,762,1065,0,0
-455,-41,0,0,0,0,0,0,0,0,0,-1,769,1065,0,0
-448,-41,0,0,0,0,0,0,0,0,0,-1,776,1065,0,0
-441,-41,0,0,0,0,0,0,0,0,0,-1,783,1065,0,0
-434,-41,0,0,0,0,0,0,0,0,0,-1,790,1065,0,0
-427,-41,0,0,0,0,0,0,0,0,0,-1,797,1065,0,0
-420,-41,0,0,0,0,0,0,0,0,0,-1,804,1065,0,0
-413,-41,0,0,0,0,0,0,0,0,0,-1,811,1065,0,0
-406,-41,0,0,0,0,0,0,0,0,0,-1,818,1065,0,0
-399,-41,0,0,0,0,0,0,0,0,0,-1,825,1065,0,0
-392,-41,0,0,0,0,0,0,0,0,0,-1,832,1065,0,0
-385,-41,0,0,0,0,0,0,0,0,0,-1,839,1065,0,0
-378,-41,0,0,0,0,0,0,0,0,0,-1,846,1065,0,0
-371,-41,0,0,0,0,0,0,0,0,0,-1,853,1065,0,0
-364,-41,0,0,0,0,0,0,0,0,0,-1,860,1065,0,0
-357,-41,0,0,0,0,0,0,0,0,0,-1,867,1065,0,0
-350,-41,0,0,0,0,0,0,0,0,0,-1,874,1065,0,0
-343,-41,0,0,0,0,0,0,0,0,0,-1,881,1065,0,0
-336,-41,0,0,0,0,0,0,0,0,0,-1,888,1065,0,0
-329,-41,0,0,0,0,0,0,0,0,0,-1,895,1065,0,0
-322,-41,0,0,0,0,0,0,0,0,0,-1,902,1065,0,0
-315,-41,0,0,0,0,0,0,0,0,0,-1,909,1065,0,0
-308,-41,0,0,0,0,0,0,0,0,0,-1,916,1065,0,0
-301,-41,0,0,0,0,0,0,0,0,0,-1,923,1065,0,0
-294,-41,0,0,0,0,0,0,0,0,0,-1,930,1065,0,0
-287,-41,0,0,0,0,0,0,0,0,0,-1,937,1065,0,0
-280,-41,0,0,0,0,0,0,0,0,0,-1,944,1065,0,0
-273,-41,0,0,0,0,0,0,0,0,0,-1,951,1065,0,0
-266,-41,0,0,0,0,0,0,0,0,0,-1,958,1065,0,0
-259,-41,0,0,0,0,0,0,0,0,0,-1,965,1065,0,0
-252,-41,0,0,0,0,0,0,0,0,0,-1,972,1065,0,0
-245,-41,0,0,0,0,0,0,0,0,0,-1,979,1065,0,0
-238,-41,0,0,0,0,0,0,0,0,0,-1,986,1065,0,0
-231,-41,0,0,0,0,0,0,0,0,0,-1,993,1065,0,0
-224,-41,0,0,0,0,0,0,0,0,0,-1,1000,1065,0,0
-217,-41,0,0,0,0,0,0,0,0,0,-1,1007,1065,0,0
-210,-41,0,0,0,0,0,0,0,0,0,-1,1014,1065,0,0
-203,-41,0,0,0,0,0,0,0,0,0,-1,1021,1065,0,0
-196,-41,0,0,0,0,0,0,0,0,0,-1,1028,1065,0,0
-189,-41,0,0,0,0,0,0,0,0,0,-1,1035,1065,0,0
-182,-41,0,0,0,0,0,0,0,0,0,-1,1042,1065,0,0
-175,-41,0,0,0,0,0,0,0,0,0,-1,1049,1065,0,0
-168,-41,0,0,0,0,0,0,0,0,0,-1,1056,1065,0,0
-161,-41,0,0,0,0,0,0,0,0,0,-1,1063,1065,0,0
-154,-41,0,0,0,0,0,0,0,0,0,-1,1070,1065,0,0
-147,-41,0,0,0,0,0,0,0,0,0,-1,1077,1065,0,0
-140,-41,0,0,0,0,0,0,0,0,0,-1,1084,1065,0,0
-133,-41,0,0,0,0,0,0,0,0,0,-1,1091,1065,0,0
-126,-41,0,0,0,0,0,0,0,0,0,-1,1098,1065,0,0
-119,-41,0,0,0,0,0,0,0,0,0,-1,1105,1065,0,0
-112,-41,0,0,0,0,0,0,0,0,0,-1,1112,1065,0,0
-105,-41,0,0,0,0,0,0,0,0,0,-1,1119,1065,0,0
-98,-41,0,0,0,0,0,0,0,0,0,-1,1126,1065,0,0
-91,-41,0,0,0,0,0,0,0,0,0,-1,1133,1065,0,0
-84,-41,0,0,0,0,0,0,0,0,0,-1,1140,1065,0,0
-77,-41,0,0,0,0,0,0,0,0,0,-1,1147,1065,0,0
-70,-41,0,0,0,0,0,0,0,0,0,-1,1154,1065,0,0
-63,-41,0,0,0,0,0,0,0,0,0,-1,1161,1065,0,0
-56,-41,0,0,0,0,0,0,0,0,0,-1,1168,1065,0,0
-49,-41,0,0,0,0,0,0,0,0,0,-1,1175,1065,0,0
-42,-41,0,0,0,0,0,0,0,0,0,-1,1182,1065,0,0
-35,-41,0,0,0,0,0,0,0,0,0,-1,1189,1065,0,0
-28,-41,0,0,0,0,0,0,0,0,0,-1,1196,1065,0,0
-21,-41,0,0,0,0,0,0,0,0,0,-1,1203,1065,0,0
-14,-41,0,0,0,0,0,0,0,0,0,-1,1210,1065,0,0
-7,-41,0,0,0,0,0,0,0,0,0,-1,1217,1065,0,0
0,-41,0,0,0,0,0,0,0,0,0,-1,1224,1065,0,0
7,-41,0,0,0,0,0,0,0,0,0,-1,1231,1065,0,0
14,-41,0,0,0,0,0,0,0,0,0,-1,1238,1065,0,0
21,-41,0,0,0,0,0,0,0,0,0,-1,1245,1065,0,0
28,-41,0,0,0,0,0,0,0,0,0,-1,1252,1065,0,0
35,-41,0,0,0,0,0,0,0,0,0,-1,1259,1065,0,0
42,-41,0,0,0,0,0,0,0,0,0,-1,1266,1065,0,0
49,-41,0,0,0,0,0,0,0,0,0,-1,1273,1065,0,0
56,-41,0,0,0,0,0,0,0,0,0,-1,1280,1065,0,0
63,-41,0,0,0,0,0,0,0,0,0,-1,1287,1065,0,0
70,-41,0,0,0,0,0,0,0,0,0,-1,1294,1065,0,0
77,-41,0,0,0,0,0,0,0,0,0,-1,1301,1065,0,0
84,-41,0,0,0,0,0,0,0,0,0,-1,1308,1065,0,0
91,-41,0,0,0,0,0,0,0,0,0,-1,1315,1065,0,0
98,-41,0,0,0,0,0,0,0,0,0,-1,1322,1065,0,0
105,-41,0,0,0,0,0,0,0,0,0,-1,1329,1065,0,0
112,-41,0,0,0,0,0,0,0,0,0,-1,1336,1065,0,0
119,-41,0,0,0,0,0,0,0,0,0,-1,1343,1065,0,0
126,-41,0,0,0,0,0,0,0,0,0,-1,1350,1065,0,0
133,-41,0,0,0,0,0,0,0,0,0,-1,1357,1065,0,0
140,-41,0,0,0,0,0,0,0,0,0,-1,1364,1065,0,0
147,-41,0,0,0,0,0,0,0,0,0,-1,1371,1065,0,0
154,-41,0,0,0,0,0,0,0,0,0,-1,1378,1065,0,0
161,-41,0,0,0,0,0,0,0,0,0,-1,1385,1065,0,0
168,-41,0,0,0,0,0,0,0,0,0,-1,1392,1065,0,0
175,-41,0,0,0,0,0,0,0,0,0,-1,1399,1065,0,0
182,-41,0,0,0,0,0,0,0,0,0,-1,1406,1065,0,0
189,-41,0,0,0,0,0,0,0,0,0,-1,1413,1065,0,0
196,-41,0,0,0,0,0,0,0,0,0,-1,1420,1065,0,0
203,-41,0,0,0,0,0,0,0,0,0,-1,1427,1065,0,0
210,-41,0,0,0,0,0,0,0,0,0,-1,1434,1065,0,0
217,-41,0,0,0,0,0,0,0,0,0,-1,1441,1065,0,0
224,-41,0,0,0,0,0,0,0,0,0,-1,1448,1065,0,0
231,-41,0,0,0,0,0,0,0,0,0,-1,1455,1065,0,0
238,-41,0,0,0,0,0,0,0,0,0,-1,1462,1065,0,0
245,-41,0,0,0,0,0,0,0,0,0,-1,1469,1065,0,0
252,-41,0,0,0,0,0,0,0,0,0,-1,1476,1065,0,0
259,-41,0,0,0,0,0,0,0,0,0,-1,1483,1065,0,0
266,-41,0,0,0,0,0,0,0,0,0,-1,1490,1065,0,0
273,-41,0,0,0,0,0,0,0,0,0,-1,1497,1065,0,0
280,-41,0,0,0,0,0,0,0,0,0,-1,1504,1065,0,0
287,-41,0,0,0,0,0,0,0,0,0,-1,1511,1065,0,0
294,-41,0,0,0,0,0,0,0,0,0,-1,1518,1065,0,0
301,-41,0,0,0,0,0,0,0,0,0,-1,1525,1065,0,0
308,-41,0,0,0,0,0,0,0,0,0,-1,1532,1065,0,0
315,-41,0,0,0,0,0,0,0,0,0,-1,1539,1065,0,0
322,-41,0,0,0,0,0,0,0,0,0,-1,1546,1065,0,0
329,-41,0,0,0,0,0,0,0,0,0,-1,1553,1065,0,0
336,-41,0,0,0,0,0,0,0,0,0,-1,1560,1065,0,0
343,-41,0,0,0,0,0,0,0,0,0,-1,1567,1065,0,0
350,-41,0,0,0,0,0,0,0,0,0,-1,1574,1065,0,0
357,-41,0,0,0,0,0,0,0,0,0,-1,1581,1065,0,0
364,-41,0,0,0,0,0,0,0,0,0,-1,1588,1065,0,0
371,-41,0,0,0,0,0,0,0,0,0,-1,1595,1065,0,0
378,-41,0,0,0,0,0,0,0,0,0,-1,1602,1065,0,0
385,-41,0,0,0,0,0,0,0,0,0,-1,1609,1065,0,0
392,-41,0,0,0,0,0,0,0,0,0,-1,1616,1065,0,0
399,-41,0,0,0,0,0,0,0,0,0,-1,1623,1065,0,0
406,-41,0,0,0,0,0,0,0,0,0,-1,1630,1065,0,0
413,-41,0,0,0,0,0,0,0,0,0,-1,1637,1065,0,0
420,-41,0,0,0,0,0,0,0,0,0,-1,1644,1065,0,0
427,-41,0,0,0,0,0,0,0,0,0,-1,1651,1065,0,0
434,-41,0,0,0,0,0,0,0,0,0,-1,1658,1065,0,0
441,-41,0,0,0,0,0,0,0,0,0,-1,1665,1065,0,0
448,-41,0,0,0,0,0,0,0,0,0,-1,1672,1065,0,0
455,-41,0,0,0,0,0,0,0,0,0,-1,1679,1065,0,0
462,-41,0,0,0,0,0,0,0,0,0,-1,1686,1065,0,0
469,-41,0,0,0,0,0,0,0,0,0,-1,1693,1065,0,0
476,-41,0,0,0,0,0,0,0,0,0,-1,1700,1065,0,0
483,-41,0,0,0,0,0,0,0,0,0,-1,1707,1065,0,0
490,-41,0,0,0,0,0,0,0,0,0,-1,1714,1065,0,0
497,-41,0,0,0,0,0,0,0,0,0,-1,1721,1065,0,0
504,-41,0,0,0,0,0,0,0,0,0,-1,1728,1065,0,0
511,-41,0,0,0,0,0,0,0,0,0,-1,1735,1065,0,0
518,-41,0,0,0,0,0,0,0,0,0,-1,1742,1065,0,0
525,-41,0,0,0,0,0,0,0,0,0,-1,1749,1065,0,0
532,-41,0,0,0,0,0,0,0,0,0,-1,1756,1065,0,0
539,-41,0,0,0,0,0,0,0,0,0,-1,1763,1065,0,0
546,-41,0,0,0,0,0,0,0,0,0,-1,1770,1065,0,0
553,-41,0,0,0,0,0,0,0,0,0,-1,1777,1065,0,0
560,-41,0,0,0,0,0,0,0,0,0,-1,1784,1065,0,0
567,-41,0,0,0,0,0,0,0,0,0,-1,1791,1065,0,0
574,-41,0,0,0,0,0,0,0,0,0,-1,1798,1065,0,0
581,-41,0,0,0,0,0,0,0,0,0,-1,1805,1065,0,0
588,-41,0,0,0,0,0,0,0,0,0,-1,1812,1065,0,0
595,-41,0,0,0,0,0,0,0,0,0,-1,1819,1065,0,0
602,-41,0,0,0,0,0,0,0,0,0,-1,1826,1065,0,0
609,-41,0,0,0,0,0,0,0,0,0,-1,1833,1065,0,0
616,-41,0,0,0,0,0,0,0,0,0,-1,1840,1065,0,0
623,-41,0,0,0,0,0,0,0,0,0,-1,1847,1065,0,0
630,-41,0,0,0,0,0,0,0,0,0,-1,1854,1065,0,0
637,-41,0,0,0,0,0,0,0,0,0,-1,1861,1065,0,0
644,-41,0,0,0,0,0,0,0,0,0,-1,1868,1065,0,0
651,-41,19.4678,2.14246,0.000764484,0.00031551,0.00214299,0.00269471,-0.00161472,0.733212,0.00251396,0.0369373,1875,1065,19.4677,-2.14244
658,-41,19.4944,2.27893,0.000647353,0.000213733,0.00149228,0.00193849,-0.00107741,0.713259,0.00176473,0.0403299,1882,1065,19.4944,-2.27899
665,-41,19.5015,2.13989,0.000466142,0.000127998,0.000967009,0.00127875,-0.000684608,0.698853,0.00115071,0.042201,1889,1065,19.5014,-2.13991
672,-41,19.2637,2.09143,0.000219221,6.27094e-05,0.00120006,0.00134357,-0.00106164,0.752839,0.00139183,0.0414568,1896,1065,19.2636,-2.09144
679,-41,19.2477,2.31348,-0.000412618,-3.31901e-05,0.0021827,0.00196802,-0.00241383,0.828748,0.00253422,0.0387908,1903,1065,19.2477,-2.31352
686,-41,19.402,2.17627,-0.0012011,-0.000163479,0.00331932,0.00267733,-0.0040419,0.862921,0.00390592,0.0385208,1910,1065,19.402,-2.17624
693,-41,19.5469,2.13354,-0.00187435,-0.000292731,0.00437921,0.00336651,-0.00553358,0.874727,0.00518899,0.0426234,1917,1065,19.5469,-2.13357
700,-41,19.4514,2.34485,-0.00244782,-0.000396546,0.00525832,0.00393523,-0.0067796,0.881714,0.00625844,0.0384066,1924,1065,19.4515,-2.34484
707,-41,19.4034,2.39941,-0.00288823,-0.000436491,0.00578159,0.00424776,-0.00757248,0.889866,0.00691382,0.0265795,1931,1065,19.4034,-2.39946
714,-41,19.3763,2.40906,-0.00321736,-0.000415462,0.00617225,0.00451283,-0.00814566,0.896995,0.00740803,0.0175109,1938,1065,19.3763,-2.40904
721,-41,19.4109,3.04456,0,0,0,0,0,0,0,-1,1945,1065,19.4109,-3.04461
728,-41,19.1655,3.47437,-0.00358328,-0.000259802,0.00605832,0.00436055,-0.00820363,0.919251,0.00736618,0.0325803,1952,1065,19.1655,-3.4744
735,-41,19.0112,3.57983,-0.00354019,2.0094e-05,0.00550167,0.00402245,-0.00754254,0.941864,0.00677937,0.0152008,1959,1065,19.0112,-3.57981
742,-41,18.9866,3.55701,-0.00327846,0.000450895,0.00457721,0.00352867,-0.00635624,0.978826,0.00578436,0.0130064,1966,1065,18.9866,-3.55698
749,-41,19.0186,3.5343,-0.00320737,0.000848052,0.00353557,0.0028961,-0.00525542,1.04576,0.00477154,0.0124531,1973,1065,19.0185,-3.53427
756,-41,19.0503,3.51575,-0.00300276,0.00113795,0.00250133,0.0023146,-0.00417941,1.1311,0.00380049,0.0122627,1980,1065,19.0502,-3.5157
763,-41,18.9999,3.50732,-0.00272155,0.00123961,0.00138791,0.0016775,-0.00315944,1.26518,0.00283596,0.0107164,1987,1065,18.9998,-3.50736
770,-41,18.9642,3.49048,-0.0026613,0.00139907,0.000254308,0.00141494,-0.00267717,1.50849,0.00239975,0.01315,1994,1065,18.9643,-3.49052
777,-41,18.9495,3.46558,-0.00283161,0.00127753,-0.000357179,0.00130834,-0.00286242,-1.48473,0.00246308,0.0141747,2001,1065,18.9494,-3.46552
784,-41,18.9083,3.41187,-0.00348421,0.000663571,-0.000149185,0.00066893,-0.00348956,-1.53489,0.00257844,0.0232566,2008,1065,18.9083,-3.41191
791,-41,18.8728,3.32324,-0.00452955,-0.000702798,0.000566544,-0.000620684,-0.00461167,1.42686,0.00288985,0.0419066,2015,1065,18.8729,-3.32322
798,-41,18.798,3.14331,0,0,0,0,0,0,0,-1,2022,1065,18.798,-3.14337
805,-41,18.4298,3.01038,0,0,0,0,0,0,0,-1,2029,1065,18.4298,-3.01037
812,-41,18.074,2.90918,0,0,0,0,0,0,0,-1,2036,1065,18.074,-2.90916
-700,-48,-13.4115,0.295654,0,0,0,0,0,0,0,-1,524,1072,-13.4115,-0.295626
-693,-48,-13.1725,-0.0748291,0,0,0,0,0,0,0,-1,531,1072,-13.1725,0.074856
-686,-48,-13.6621,0.387085,0.0608163,0.0305999,-0.0152224,0.0671552,0.024261,-0.394581,0.0392664,0.0456922,538,1072,-13.6621,-0.387118
-679,-48,-13.7376,0.347168,0.0504281,0.0225675,-0.0134813,0.0558833,0.0171123,-0.384509,0.0330621,0.0470436,545,1072,-13.7376,-0.347217
-672,-48,-12.2549,0.307739,0.0405449,0.0163586,-0.0114395,0.0450983,0.0118052,-0.378815,0.0270047,0.045632,552,1072,-12.255,-0.30772
-665,-48,-12.2896,0.545288,0.0315985,0.0116306,-0.00933567,0.0352833,0.00794585,-0.375928,0.0213717,0.0443244,559,1072,-12.2896,-0.545254
-658,-48,-12.4747,0.642334,0.0238072,0.00809907,-0.00732044,0.0266898,0.00521651,-0.375123,0.0163344,0.0450808,566,1072,-12.4747,-0.642314
-651,-48,-12.3195,0.794067,0.0172685,0.00550404,-0.00550933,0.0194456,0.00332691,-0.376338,0.0120094,0.0301709,573,1072,-12.3195,-0.794094
-644,-48,-12.3637,0.981934,0.0117871,0.00324212,-0.00426626,0.0135524,0.00147679,-0.392335,0.00858511,0.0133638,580,1072,-12.3637,-0.981904
-637,-48,-12.361,1.00671,0.00716859,0.00119291,-0.00378519,0.00900308,-0.000641576,-0.451291,0.00622694,0.0137422,587,1072,-12.361,-1.00666
-630,-48,-12.3666,1.06616,0.00342889,1.92637e-05,-0.00365372,0.00575596,-0.00230781,-0.567114,0.0047954,0.0160764,594,1072,-12.3666,-1.06611
-623,-48,-12.3871,1.12732,0.000318284,-0.000160531,-0.00346762,0.00355475,-0.003397,-0.750932,0.00401394,0.0103168,601,1072,-12.3872,-1.12736
-616,-48,-12.3837,1.17444,-0.000774315,-0.00074711,-0.00398281,0.00322212,-0.00474355,-0.787106,0.00462686,0.00895422,608,1072,-12.3836,-1.17449
-609,-48,-12.3699,1.22253,-0.000695537,-0.000842628,-0.00461719,0.00384869,-0.00538686,-0.777435,0.00535674,0.0103352,615,1072,-12.3699,-1.22256
-602,-48,-12.3828,1.27417,-0.000758995,-0.00113906,-0.00541793,0.00447223,-0.00637028,-0.767868,0.00629182,0.0114001,622,1072,-12.3828,-1.27419
-595,-48,-12.4492,1.35522,0,0,0,0,0,0,0,-1,629,1072,-12.4491,-1.35525
-588,-48,-12.4894,0.922852,-0.00124135,-0.00201722,-0.00634735,0.00472991,-0.00798848,-0.754877,0.00742287,0.0270916,636,1072,-12.4895,-0.922811
-581,-48,-12.5275,0.45874,-0.0013439,-0.0021572,-0.00620524,0.004468,-0.0079691,-0.752678,0.00727479,0.0383858,643,1072,-12.5275,-0.458797
-574,-48,-12.5248,0.301636,-0.0014688,-0.00224165,-0.00586367,0.00402117,-0.00773162,-0.752495,0.00689727,0.0404404,650,1072,-12.5249,-0.301644
-567,-48,-12.5491,0.382202,-0.00167543,-0.00215883,-0.00508683,0.00317543,-0.0070097,-0.761658,0.00601768,0.0402244,657,1072,-12.5491,-0.382149
-560,-48,-12.5379,0.512817,-0.00200874,-0.00189173,-0.00387629,0.0019265,-0.00582697,-0.792944,0.00466145,0.039386,664,1072,-12.5379,-0.512791
-553,-48,-12.4577,0.514893,-0.00252277,-0.00142698,-0.00225606,0.000346764,-0.00429651,-0.904519,0.00298665,0.0410409,671,1072,-12.4577,-0.51488
-546,-48,-12.4493,0.508789,-0.00333536,-0.000751242,-0.000230054,-0.000730921,-0.00335568,-1.48269,0.00203766,0.0402932,678,1072,-12.4493,-0.508849
-539,-48,-12.5709,0.341064,-0.00454415,9.92365e-05,0.00172595,0.000670496,-0.00511541,1.25116,0.00365433,0.0395053,685,1072,-12.5708,-0.341062
-532,-48,-12.6245,0.388306,-0.00676899,0.00104244,0.00205514,0.00155014,-0.00727668,1.32861,0.00544193,0.0390115,692,1072,-12.6244,-0.388296
-525,-48,0,0,0,0,0,0,0,0,0,-1,699,1072,0,0
-518,-48,0,0,0,0,0,0,0,0,0,-1,706,1072,0,0
-511,-48,0,0,0,0,0,0,0,0,0,-1,713,1072,0,0
-504,-48,0,0,0,0,0,0,0,0,0,-1,720,1072,0,0
-497,-48,0,0,0,0,0,0,0,0,0,-1,727,1072,0,0
-490,-48,0,0,0,0,0,0,0,0,0,-1,734,1072,0,0
-483,-48,0,0,0,0,0,0,0,0,0,-1,741,1072,0,0
-476,-48,0,0,0,0,0,0,0,0,0,-1,748,1072,0,0
-469,-48,0,0,0,0,0,0,0,0,0,-1,755,1072,0,0
-462,-48,0,0,0,0,0,0,0,0,0,-1,762,1072,0,0
-455,-48,0,0,0,0,0,0,0,0,0,-1,769,1072,0,0
-448,-48,0,0,0,0,0,0,0,0,0,-1,776,1072,0,0
-441,-48,0,0,0,0,0,0,0,0,0,-1,783,1072,0,0
-434,-48,0,0,0,0,0,0,0,0,0,-1,790,1072,0,0
-427,-48,0,0,0,0,0,0,0,0,0,-1,797,1072,0,0
-420,-48,0,0,0,0,0,0,0,0,0,-1,804,1072,0,0
-413,-48,0,0,0,0,0,0,0,0,0,-1,811,1072,0,0
-406,-48,0,0,0,0,0,0,0,0,0,-1,818,1072,0,0
-399,-48,0,0,0,0,0,0,0,0,0,-1,825,1072,0,0
-392,-48,0,0,0,0,0,0,0,0,0,-1,832,1072,0,0
-385,-48,0,0,0,0,0,0,0,0,0,-1,839,1072,0,0
-378,-48,0,0,0,0,0,0,0,0,0,-1,846,1072,0,0
-371,-48,0,0,0,0,0,0,0,0,0,-1,853,1072,0,0
-364,-48,0,0,0,0,0,0,0,0,0,-1,860,1072,0,0
-357,-48,0,0,0,0,0,0,0,0,0,-1,867,1072,0,0
-350,-48,0,0,0,0,0,0,0,0,0,-1,874,1072,0,0
-343,-48,0,0,0,0,0,0,0,0,0,-1,881,1072,0,0
-336,-48,0,0,0,0,0,0,0,0,0,-1,888,1072,0,0
-329,-48,0,0,0,0,0,0,0,0,0,-1,895,1072,0,0
-322,-48,0,0,0,0,0,0,0,0,0,-1,902,1072,0,0
-315,-48,0,0,0,0,0,0,0,0,0,-1,909,1072,0,0
-308,-48,0,0,0,0,0,0,0,0,0,-1,916,1072,0,0
-301,-48,0,0,0,0,0,0,0,0,0,-1,923,1072,0,0
-294,-48,0,0,0,0,0,0,0,0,0,-1,930,1072,0,0
-287,-48,0,0,0,0,0,0,0,0,0,-1,937,1072,0,0
-280,-48,0,0,0,0,0,0,0,0,0,-1,944,1072,0,0
-273,-48,0,0,0,0,0,0,0,0,0,-1,951,1072,0,0
-266,-48,0,0,0,0,0,0,0,0,0,-1,958,1072,0,0
-259,-48,0,0,0,0,0,0,0,0,0,-1,965,1072,0,0
-252,-48,0,0,0,0,0,0,0,0,0,-1,972,1072,0,0
-245,-48,0,0,0,0,0,0,0,0,0,-1,979,1072,0,0
-238,-48,0,0,0,0,0,0,0,0,0,-1,986,1072,0,0
-231,-48,0,0,0,0,0,0,0,0,0,-1,993,1072,0,0
-224,-48,0,0,0,0,0,0,0,0,0,-1,1000,1072,0,0
-217,-48,0,0,0,0,0,0,0,0,0,-1,1007,1072,0,0
-210,-48,0,0,0,0,0,0,0,0,0,-1,1014,1072,0,0
-203,-48,0,0,0,0,0,0,0,0,0,-1,1021,1072,0,0
-196,-48,0,0,0,0,0,0,0,0,0,-1,1028,1072,0,0
-189,-48,0,0,0,0,0,0,0,0,0,-1,1035,1072,0,0
-182,-48,0,0,0,0,0,0,0,0,0,-1,1042,1072,0,0
-175,-48,0,0,0,0,0,0,0,0,0,-1,1049,1072,0,0
-168,-48,0,0,0,0,0,0,0,0,0,-1,1056,1072,0,0
-161,-48,0,0,0,0,0,0,0,0,0,-1,1063,1072,0,0
-154,-48,0,0,0,0,0,0,0,0,0,-1,1070,1072,0,0
-147,-48,0,0,0,0,0,0,0,0,0,-1,1077,1072,0,0
-140,-48,0,0,0,0,0,0,0,0,0,-1,1084,1072,0,0
-133,-48,0,0,0,0,0,0,0,0,0,-1,1091,1072,0,0
-126,-48,0,0,0,0,0,0,0,0,0,-1,1098,1072,0,0
-119,-48,0,0,0,0,0,0,0,0,0,-1,1105,1072,0,0
-112,-48,0,0,0,0,0,0,0,0,0,-1,1112,1072,0,0
-105,-48,0,0,0,0,0,0,0,0,0,-1,1119,1072,0,0
-98,-48,0,0,0,0,0,0,0,0,0,-1,1126,1072,0,0
-91,-48,0,0,0,0,0,0,0,0,0,-1,1133,1072,0,0
-84,-48,0,0,0,0,0,0,0,0,0,-1,1140,1072,0,0
-77,-48,0,0,0,0,0,0,0,0,0,-1,1147,1072,0,0
-70,-48,0,0,0,0,0,0,0,0,0,-1,1154,1072,0,0
-63,-48,0,0,0,0,0,0,0,0,0,-1,1161,1072,0,0
-56,-48,0,0,0,0,0,0,0,0,0,-1,1168,1072,0,0
-49,-48,0,0,0,0,0,0,0,0,0,-1,1175,1072,0,0
-42,-48,0,0,0,0,0,0,0,0,0,-1,1182,1072,0,0
-35,-48,0,0,0,0,0,0,0,0,0,-1,1189,1072,0,0
-28,-48,0,0,0,0,0,0,0,0,0,-1,1196,1072,0,0
-21,-48,0,0,0,0,0,0,0,0,0,-1,1203,1072,0,0
-14,-48,0,0,0,0,0,0,0,0,0,-1,1210,1072,0,0
-7,-48,0,0,0,0,0,0,0,0,0,-1,1217,1072,0,0
0,-48,0,0,0,0,0,0,0,0,0,-1,1224,1072,0,0
7,-48,0,0,0,0,0,0,0,0,0,-1,1231,1072,0,0
14,-48,0,0,0,0,0,0,0,0,0,-1,1238,1072,0,0
21,-48,0,0,0,0,0,0,0,0,0,-1,1245,1072,0,0
28,-48,0,0,0,0,0,0,0,0,0,-1,1252,1072,0,0
35,-48,0,0,0,0,0,0,0,0,0,-1,1259,1072,0,0
42,-48,0,0,0,0,0,0,0,0,0,-1,1266,1072,0,0
49,-48,0,0,0,0,0,0,0,0,0,-1,1273,1072,0,0
56,-48,0,0,0,0,0,0,0,0,0,-1,1280,1072,0,0
63,-48,0,0,0,0,0,0,0,0,0,-1,1287,1072,0,0
70,-48,0,0,0,0,0,0,0,0,0,-1,1294,1072,0,0
77,-48,0,0,0,0,0,0,0,0,0,-1,1301,1072,0,0
84,-48,0,0,0,0,0,0,0,0,0,-1,1308,1072,0,0
91,-48,0,0,0,0,0,0,0,0,0,-1,1315,1072,0,0
98,-48,0,0,0,0,0,0,0,0,0,-1,1322,1072,0,0
105,-48,0,0,0,0,0,0,0,0,0,-1,1329,1072,0,0
112,-48,0,0,0,0,0,0,0,0,0,-1,1336,1072,0,0
119,-48,0,0,0,0,0,0,0,0,0,-1,1343,1072,0,0
126,-48,0,0,0,0,0,0,0,0,0,-1,1350,1072,0,0
133,-48,0,0,0,0,0,0,0,0,0,-1,1357,1072,0,0
140,-48,0,0,0,0,0,0,0,0,0,-1,1364,1072,0,0
147,-48,0,0,0,0,0,0,0,0,0,-1,1371,1072,0,0
154,-48,0,0,0,0,0,0,0,0,0,-1,1378,1072,0,0
161,-48,0,0,0,0,0,0,0,0,0,-1,1385,1072,0,0
168,-48,0,0,0,0,0,0,0,0,0,-1,1392,1072,0,0
175,-48,0,0,0,0,0,0,0,0,0,-1,1399,1072,0,0
182,-48,0,0,0,0,0,0,0,0,0,-1,1406,1072,0,0
189,-48,0,0,0,0,0,0,0,0,0,-1,1413,1072,0,0
196,-48,0,0,0,0,0,0,0,0,0,-1,1420,1072,0,0
203,-48,0,0,0,0,0,0,0,0,0,-1,1427,1072,0,0
210,-48,0,0,0,0,0,0,0,0,0,-1,1434,1072,0,0
217,-48,0,0,0,0,0,0,0,0,0,-1,1441,1072,0,0
224,-48,0,0,0,0,0,0,0,0,0,-1,1448,1072,0,0
231,-48,0,0,0,0,0,0,0,0,0,-1,1455,1072,0,0
238,-48,0,0,0,0,0,0,0,0,0,-1,1462,1072,0,0
245,-48,0,0,0,0,0,0,0,0,0,-1,1469,1072,0,0
252,-48,0,0,0,0,0,0,0,0,0,-1,1476,1072,0,0
259,-48,0,0,0,0,0,0,0,0,0,-1,1483,1072,0,0
266,-48,0,0,0,0,0,0,0,0,0,-1,1490,1072,0,0
273,-48,0,0,0,0,0,0,0,0,0,-1,1497,1072,0,0
280,-48,0,0,0,0,0,0,0,0,0,-1,1504,1072,0,0
287,-48,0,0,0,0,0,0,0,0,0,-1,1511,1072,0,0
294,-48,0,0,0,0,0,0,0,0,0,-1,1518,1072,0,0
301,-48,0,0,0,0,0,0,0,0,0,-1,1525,1072,0,0
308,-48,0,0,0,0,0,0,0,0,0,-1,1532,1072,0,0
315,-48,0,0,0,0,0,0,0,0,0,-1,1539,1072,0,0
322,-48,0,0,0,0,0,0,0,0,0,-1,1546,1072,0,0
329,-48,0,0,0,0,0,0,0,0,0,-1,1553,1072,0,0
336,-48,0,0,0,0,0,0,0,0,0,-1,1560,1072,0,0
343,-48,0,0,0,0,0,0,0,0,0,-1,1567,1072,0,0
350,-48,0,0,0,0,0,0,0,0,0,-1,1574,1072,0,0
357,-48,0,0,0,0,0,0,0,0,0,-1,1581,1072,0,0
364,-48,0,0,0,0,0,0,0,0,0,-1,1588,1072,0,0
371,-48,0,0,0,0,0,0,0,0,0,-1,1595,1072,0,0
378,-48,0,0,0,0,0,0,0,0,0,-1,1602,1072,0,0
385,-48,0,0,0,0,0,0,0,0,0,-1,1609,1072,0,0
392,-48,0,0,0,0,0,0,0,0,0,-1,1616,1072,0,0
399,-48,0,0,0,0,0,0,0,0,0,-1,1623,1072,0,0
406,-48,0,0,0,0,0,0,0,0,0,-1,1630,1072,0,0
413,-48,0,0,0,0,0,0,0,0,0,-1,1637,1072,0,0
420,-48,0,0,0,0,0,0,0,0,0,-1,1644,1072,0,0
427,-48,0,0,0,0,0,0,0,0,0,-1,1651,1072,0,0
434,-48,0,0,0,0,0,0,0,0,0,-1,1658,1072,0,0
441,-48,0,0,0,0,0,0,0,0,0,-1,1665,1072,0,0
448,-48,0,0,0,0,0,0,0,0,0,-1,1672,1072,0,0
455,-48,0,0,0,0,0,0,0,0,0,-1,1679,1072,0,0
462,-48,0,0,0,0,0,0,0,0,0,-1,1686,1072,0,0
469,-48,0,0,0,0,0,0,0,0,0,-1,1693,1072,0,0
476,-48,0,0,0,0,0,0,0,0,0,-1,1700,1072,0,0
483,-48,0,0,0,0,0,0,0,0,0,-1,1707,1072,0,0
490,-48,0,0,0,0,0,0,0,0,0,-1,1714,1072,0,0
497,-48,0,0,0,0,0,0,0,0,0,-1,1721,1072,0,0
504,-48,0,0,0,0,0,0,0,0,0,-1,1728,1072,0,0
511,-48,0,0,0,0,0,0,0,0,0,-1,1735,1072,0,0
518,-48,0,0,0,0,0,0,0,0,0,-1,1742,1072,0,0
525,-48,0,0,0,0,0,0,0,0,0,-1,1749,1072,0,0
532,-48,0,0,0,0,0,0,0,0,0,-1,1756,1072,0,0
539,-48,0,0,0,0,0,0,0,0,0,-1,1763,1072,0,0
546,-48,0,0,0,0,0,0,0,0,0,-1,1770,1072,0,0
553,-48,0,0,0,0,0,0,0,0,0,-1,1777,1072,0,0
560,-48,0,0,0,0,0,0,0,0,0,-1,1784,1072,0,0
567,-48,0,0,0,0,0,0,0,0,0,-1,1791,1072,0,0
574,-48,0,0,0,0,0,0,0,0,0,-1,1798,1072,0,0
581,-48,0,0,0,0,0,0,0,0,0,-1,1805,1072,0,0
588,-48,0,0,0,0,0,0,0,0,0,-1,1812,1072,0,0
595,-48,0,0,0,0,0,0,0,0,0,-1,1819,1072,0,0
602,-48,0,0,0,0,0,0,0,0,0,-1,1826,1072,0,0
609,-48,0,0,0,0,0,0,0,0,0,-1,1833,1072,0,0
616,-48,0,0,0,0,0,0,0,0,0,-1,1840,1072,0,0
623,-48,0,0,0,0,0,0,0,0,0,-1,1847,1072,0,0
630,-48,0,0,0,0,0,0,0,0,0,-1,1854,1072,0,0
637,-48,0,0,0,0,0,0,0,0,0,-1,1861,1072,0,0
644,-48,0,0,0,0,0,0,0,0,0,-1,1868,1072,0,0
651,-48,19.403,2.27869,0.000351616,-0.000478261,0.00232665,0.00230004,-0.00242668,0.697155,0.0027293,0.0336051,1875,1072,19.403,-2.27871
658,-48,19.4597,2.37305,0.000405579,-0.000472238,0.00167637,0.00169954,-0.0017662,0.657361,0.00200107,0.0367254,1882,1072,19.4598,-2.373
665,-48,19.3865,2.31824,0.000374403,-0.000453607,0.00111233,0.00114728,-0.00122648,0.607243,0.00137074,0.0432521,1889,1072,19.3865,-2.31828
672,-48,19.2531,2.32397,0.000219097,-0.000436273,0.0013227,0.0012541,-0.00147128,0.663973,0.00157516,0.0419864,1896,1072,19.253,-2.32395
679,-48,19.3267,2.37024,-0.000370632,-0.000502784,0.00229113,0.00185537,-0.00272879,0.770982,0.00266263,0.0386568,1903,1072,19.3266,-2.37025
686,-48,19.4718,2.2981,-0.00114437,-0.000612707,0.0034042,0.00253602,-0.0042931,0.824364,0.00398606,0.0389807,1910,1072,19.4718,-2.29813
693,-48,19.6025,2.21606,-0.00181644,-0.00072803,0.00443903,0.00320002,-0.0057445,0.846392,0.00523331,0.0403846,1917,1072,19.6025,-2.2161
700,-48,19.495,2.25574,-0.00238736,-0.000820563,0.00528664,0.00374041,-0.00694834,0.858955,0.00626311,0.0347257,1924,1072,19.495,-2.25578
707,-48,19.4077,2.36865,-0.00284705,-0.000826731,0.00580113,0.00405153,-0.00772531,0.871599,0.00690876,0.0259771,1931,1072,19.4077,-2.36866
714,-48,19.3915,2.41504,-0.00318468,-0.000773264,0.0061857,0.00432314,-0.00828109,0.881651,0.00739569,0.027035,1938,1072,19.3915,-2.41508
721,-48,19.2592,3.12781,-0.00340643,-0.000739378,0.00628525,0.00435226,-0.00849806,0.889932,0.00754674,0.0408901,1945,1072,19.2591,-3.12781
728,-48,19.001,3.63855,0,0,0,0,0,0,0,-1,1952,1072,19.001,-3.63859
735,-48,18.9817,3.61768,-0.00350509,-0.000265571,0.00547896,0.00382804,-0.0075987,0.929121,0.00671589,0.0160479,1959,1072,18.9817,-3.61765
742,-48,18.9568,3.58252,-0.00319353,0.00020023,0.00453845,0.00334865,-0.00634195,0.964297,0.00568314,0.0133662,1966,1072,18.9567,-3.58252
749,-48,18.9987,3.5238,-0.00308391,0.000735164,0.00347006,0.00278639,-0.00513514,1.03693,0.00464003,0.0128137,1973,1072,18.9987,-3.52382
756,-48,19.0017,3.49475,-0.00287471,0.0011603,0.0023608,0.00224823,-0.00396264,1.13897,0.0036311,0.0122925,1980,1072,19.0017,-3.49471
763,-48,18.9705,3.49292,-0.00259652,0.00153612,0.00111168,0.00181618,-0.00287658,1.324,0.00273233,0.0124583,1987,1072,18.9705,-3.49297
770,-48,18.973,3.46277,-0.00253701,0.0020067,-0.000167029,0.00201283,-0.00254314,-1.5341,0.00263633,0.0134562,1994,1072,18.973,-3.46279
777,-48,18.9437,3.41248,-0.00278727,0.00231116,-0.000940236,0.00247903,-0.00295513,-1.39412,0.00314143,0.0111998,2001,1072,18.9437,-3.41242
784,-48,18.9308,3.31445,-0.00363955,0.00223533,-0.00095595,0.00238697,-0.00379119,-1.41348,0.00359754,0.0213094,2008,1072,18.9308,-3.31444
791,-48,18.8925,3.16797,-0.00503522,0.00158946,-0.000547295,0.00163437,-0.00508013,-1.48892,0.00404319,0.0368731,2015,1072,18.8924,-3.16793
798,-48,18.8555,3.02112,0,0,0,0,0,0,0,-1,2022,1072,18.8555,-3.02114
805,-48,18.1515,3.13611,-0.00853848,-0.00236191,0.00151724,-0.00200934,-0.00889106,1.34247,0.00538406,0.0426777,2029,1072,18.1515,-3.13612
812,-48,17.7778,3.01746,-0.0109479,-0.00633853,0.00342258,-0.00451701,-0.0127694,1.08172,0.00747685,0.0449251,2036,1072,17.7779,-3.01742
-700,-55,-13.1134,-0.254517,0,0,0,0,0,0,0,-1,524,1079,-13.1134,0.254496
-693,-55,-10.9927,2.47815,0,0,0,0,0,0,0,-1,531,1079,-10.9928,-2.47817
-686,-55,-13.721,0.294922,0,0,0,0,0,0,0,-1,538,1079,-13.721,-0.294941
-679,-55,-13.8937,0.419067,0,0,0,0,0,0,0,-1,545,1079,-13.8937,-0.419025
-672,-55,-12.2767,1.11279,0,0,0,0,0,0,0,-1,552,1079,-12.2768,-1.11274
-665,-55,-12.3576,1.15503,0.0293038,0.0114865,-0.00728532,0.0319034,0.00888686,-0.342745,0.019012,0.0468788,559,1079,-12.3576,-1.15498
-658,-55,-12.3847,0.878662,0.0219855,0.00803864,-0.00586203,0.0241221,0.00590207,-0.349512,0.0145196,0.0471982,566,1079,-12.3847,-0.878684
-651,-55,-12.4164,0.513428,0,0,0,0,0,0,0,-1,573,1079,-12.4165,-0.513374
-644,-55,-12.3337,0.94519,0.0107151,0.00331431,-0.00363727,0.0122034,0.001826,-0.388397,0.00760041,0.015361,580,1079,-12.3337,-0.945217
-637,-55,-12.3308,0.976074,0.00637284,0.00127716,-0.00343196,0.00809933,-0.00044932,-0.466093,0.00555539,0.0122737,587,1079,-12.3308,-0.976033
-630,-55,-12.3191,1.05859,0.00294435,5.67848e-05,-0.00350156,0.00528811,-0.00228697,-0.589855,0.00448643,0.0147995,594,1079,-12.3191,-1.05861
-623,-55,-12.334,1.12305,5.11699e-05,-6.4803e-06,-0.00345585,0.00347832,-0.00343363,-0.781228,0.00399064,0.0141995,601,1079,-12.334,-1.12299
-616,-55,-12.3271,1.16602,-0.000998764,-0.000628782,-0.00404508,0.00323553,-0.00486308,-0.808248,0.0047071,0.0122316,608,1079,-12.3272,-1.16597
-609,-55,-12.3157,1.2417,-0.00102908,-0.000737072,-0.00464055,0.00375977,-0.00552592,-0.801124,0.00539332,0.012031,615,1079,-12.3158,-1.24173
-602,-55,-12.3326,1.29858,-0.00118449,-0.00107026,-0.00538664,0.00425956,-0.00651432,-0.7907,0.00626554,0.0131337,622,1079,-12.3326,-1.29861
-595,-55,-12.2527,1.39612,0,0,0,0,0,0,0,-1,629,1079,-12.2527,-1.39606
-588,-55,-12.3641,0.930176,-0.00168452,-0.00190829,-0.00639096,0.00459553,-0.00818834,-0.776646,0.0074773,0.027585,636,1079,-12.3642,-0.930203
-581,-55,-12.5246,0.482544,-0.0017638,-0.00206031,-0.00631303,0.00440272,-0.00822682,-0.773658,0.00740225,0.0365186,643,1079,-12.5246,-0.482484
-574,-55,-12.4557,0.606567,-0.00182849,-0.00216733,-0.00604267,0.00404713,-0.00804295,-0.771383,0.00710615,0.0379857,650,1079,-12.4557,-0.606564
-567,-55,-12.4491,0.666138,-0.00190315,-0.00211998,-0.00535656,0.00334609,-0.00736921,-0.77528,0.00633016,0.0394383,657,1079,-12.4491,-0.666098
-560,-55,-12.4981,0.663818,-0.00200677,-0.00191503,-0.00425394,0.00229329,-0.00621509,-0.790789,0.00508329,0.0408676,664,1079,-12.4981,-0.663866
-553,-55,-12.4526,0.586304,-0.00217654,-0.00154896,-0.00275925,0.000914284,-0.00463978,-0.842016,0.00343871,0.0401472,671,1079,-12.4526,-0.586259
-546,-55,-12.467,0.531738,-0.00248574,-0.00101941,-0.000874745,-0.000611212,-0.00289394,-1.13418,0.00176127,0.0390587,678,1079,-12.467,-0.531757
-539,-55,-12.5316,0.507202,-0.0030227,-0.000359146,0.000963182,-4.73448e-05,-0.00333451,1.25772,0.00220739,0.0387472,685,1079,-12.5316,-0.507158
-532,-55,-12.548,0.46228,-0.00440505,0.000257771,0.00120118,0.000549015,-0.0046963,1.33292,0.00332899,0.0386887,692,1079,-12.548,-0.46227
-525,-55,0,0,0,0,0,0,0,0,0,-1,699,1079,0,0
-518,-55,0,0,0,0,0,0,0,0,0,-1,706,1079,0,0
-511,-55,0,0,0,0,0,0,0,0,0,-1,713,1079,0,0
-504,-55,0,0,0,0,0,0,0,0,0,-1,720,1079,0,0
-497,-55,0,0,0,0,0,0,0,0,0,-1,727,1079,0,0
-490,-55,0,0,0,0,0,0,0,0,0,-1,734,1079,0,0
-483,-55,0,0,0,0,0,0,0,0,0,-1,741,1079,0,0
-476,-55,0,0,0,0,0,0,0,0,0,-1,748,1079,0,0
-469,-55,0,0,0,0,0,0,0,0,0,-1,755,1079,0,0
-462,-55,0,0,0,0,0,0,0,0,0,-1,762,1079,0,0
-455,-55,0,0,0,0,0,0,0,0,0,-1,769,1079,0,0
-448,-55,0,0,0,0,0,0,0,0,0,-1,776,1079,0,0
-441,-55,0,0,0,0,0,0,0,0,0,-1,783,1079,0,0
-434,-55,0,0,0,0,0,0,0,0,0,-1,790,1079,0,0
-427,-55,0,0,0,0,0,0,0,0,0,-1,797,1079,0,0
-420,-55,0,0,0,0,0,0,0,0,0,-1,804,1079,0,0
-413,-55,0,0,0,0,0,0,0,0,0,-1,811,1079,0,0
-406,-55,0,0,0,0,0,0,0,0,0,-1,818,1079,0,0
-399,-55,0,0,0,0,0,0,0,0,0,-1,825,1079,0,0
-392,-55,0,0,0,0,0,0,0,0,0,-1,832,1079,0,0
-385,-55,0,0,0,0,0,0,0,0,0,-1,839,1079,0,0
-378,-55,0,0,0,0,0,0,0,0,0,-1,846,1079,0,0
-371,-55,0,0,0,0,0,0,0,0,0,-1,853,1079,0,0
-364,-55,0,0,0,0,0,0,0,0,0,-1,860,1079,0,0
-357,-55,0,0,0,0,0,0,0,0,0,-1,867,1079,0,0
-350,-55,0,0,0,0,0,0,0,0,0,-1,874,1079,0,0
-343,-55,0,0,0,0,0,0,0,0,0,-1,881,1079,0,0
-336,-55,0,0,0,0,0,0,0,0,0,-1,888,1079,0,0
-329,-55,0,0,0,0,0,0,0,0,0,-1,895,1079,0,0
-322,-55,0,0,0,0,0,0,0,0,0,-1,902,1079,0,0
-315,-55,0,0,0,0,0,0,0,0,0,-1,909,1079,0,0
-308,-55,0,0,0,0,0,0,0,0,0,-1,916,1079,0,0
-301,-55,0,0,0,0,0,0,0,0,0,-1,923,1079,0,0
-294,-55,0,0,0,0,0,0,0,0,0,-1,930,1079,0,0
-287,-55,0,0,0,0,0,0,0,0,0,-1,937,1079,0,0
-280,-55,0,0,0,0,0,0,0,0,0,-1,944,1079,0,0
-273,-55,0,0,0,0,0,0,0,0,0,-1,951,1079,0,0
-266,-55,0,0,0,0,0,0,0,0,0,-1,958,1079,0,0
-259,-55,0,0,0,0,0,0,0,0,0,-1,965,1079,0,0
-252,-55,0,0,0,0,0,0,0,0,0,-1,972,1079,0,0
-245,-55,0,0,0,0,0,0,0,0,0,-1,979,1079,0,0
-238,-55,0,0,0,0,0,0,0,0,0,-1,986,1079,0,0
-231,-55,0,0,0,0,0,0,0,0,0,-1,993,1079,0,0
-224,-55,0,0,0,0,0,0,0,0,0,-1,1000,1079,0,0
-217,-55,0,0,0,0,0,0,0,0,0,-1,1007,1079,0,0
-210,-55,0,0,0,0,0,0,0,0,0,-1,1014,1079,0,0
-203,-55,0,0,0,0,0,0,0,0,0,-1,1021,1079,0,0
-196,-55,0,0,0,0,0,0,0,0,0,-1,1028,1079,0,0
-189,-55,0,0,0,0,0,0,0,0,0,-1,1035,1079,0,0
-182,-55,0,0,0,0,0,0,0,0,0,-1,1042,1079,0,0
-175,-55,0,0,0,0,0,0,0,0,0,-1,1049,1079,0,0
-168,-55,0,0,0,0,0,0,0,0,0,-1,1056,1079,0,0
-161,-55,0,0,0,0,0,0,0,0,0,-1,1063,1079,0,0
-154,-55,0,0,0,0,0,0,0,0,0,-1,1070,1079,0,0
-147,-55,0,0,0,0,0,0,0,0,0,-1,1077,1079,0,0
-140,-55,0,0,0,0,0,0,0,0,0,-1,1084,1079,0,0
-133,-55,0,0,0,0,0,0,0,0,0,-1,1091,1079,0,0
-126,-55,0,0,0,0,0,0,0,0,0,-1,1098,1079,0,0
-119,-55,0,0,0,0,0,0,0,0,0,-1,1105,1079,0,0
-112,-55,0,0,0,0,0,0,0,0,0,-1,1112,1079,0,0
-105,-55,0,0,0,0,0,0,0,0,0,-1,1119,1079,0,0
-98,-55,0,0,0,0,0,0,0,0,0,-1,1126,1079,0,0
-91,-55,0,0,0,0,0,0,0,0,0,-1,1133,1079,0,0
-84,-55,0,0,0,0,0,0,0,0,0,-1,1140,1079,0,0
-77,-55,0,0,0,0,0,0,0,0,0,-1,1147,1079,0,0
-70,-55,0,0,0,0,0,0,0,0,0,-1,1154,1079,0,0
-63,-55,0,0,0,0,0,0,0,0,0,-1,1161,1079,0,0
-56,-55,0,0,0,0,0,0,0,0,0,-1,1168,1079,0,0
-49,-55,0,0,0,0,0,0,0,0,0,-1,1175,1079,0,0
-42,-55,0,0,0,0,0,0,0,0,0,-1,1182,1079,0,0
-35,-55,0,0,0,0,0,0,0,0,0,-1,1189,1079,0,0
-28,-55,0,0,0,0,0,0,0,0,0,-1,1196,1079,0,0
-21,-55,0,0,0,0,0,0,0,0,0,-1,1203,1079,0,0
-14,-55,0,0,0,0,0,0,0,0,0,-1,1210,1079,0,0
-7,-55,0,0,0,0,0,0,0,0,0,-1,1217,1079,0,0
0,-55,0,0,0,0,0,0,0,0,0,-1,1224,1079,0,0
7,-55,0,0,0,0,0,0,0,0,0,-1,1231,1079,0,0
14,-55,0,0,0,0,0,0,0,0,0,-1,1238,1079,0,0
21,-55,0,0,0,0,0,0,0,0,0,-1,1245,1079,0,0
28,-55,0,0,0,0,0,0,0,0,0,-1,1252,1079,0,0
35,-55,0,0,0,0,0,0,0,0,0,-1,1259,1079,0,0
42,-55,0,0,0,0,0,0,0,0,0,-1,1266,1079,0,0
49,-55,0,0,0,0,0,0,0,0,0,-1,1273,1079,0,0
56,-55,0,0,0,0,0,0,0,0,0,-1,1280,1079,0,0
63,-55,0,0,0,0,0,0,0,0,0,-1,1287,1079,0,0
70,-55,0,0,0,0,0,0,0,0,0,-1,1294,1079,0,0
77,-55,0,0,0,0,0,0,0,0,0,-1,1301,1079,0,0
84,-55,0,0,0,0,0,0,0,0,0,-1,1308,1079,0,0
91,-55,0,0,0,0,0,0,0,0,0,-1,1315,1079,0,0
98,-55,0,0,0,0,0,0,0,0,0,-1,1322,1079,0,0
105,-55,0,0,0,0,0,0,0,0,0,-1,1329,1079,0,0
112,-55,0,0,0,0,0,0,0,0,0,-1,1336,1079,0,0
119,-55,0,0,0,0,0,0,0,0,0,-1,1343,1079,0,0
126,-55,0,0,0,0,0,0,0,0,0,-1,1350,1079,0,0
133,-55,0,0,0,0,0,0,0,0,0,-1,1357,1079,0,0
140,-55,0,0,0,0,0,0,0,0,0,-1,1364,1079,0,0
147,-55,0,0,0,0,0,0,0,0,0,-1,1371,1079,0,0
154,-55,0,0,0,0,0,0,0,0,0,-1,1378,1079,0,0
161,-55,0,0,0,0,0,0,0,0,0,-1,1385,1079,0,0
168,-55,0,0,0,0,0,0,0,0,0,-1,1392,1079,0,0
175,-55,0,0,0,0,0,0,0,0,0,-1,1399,1079,0,0
182,-55,0,0,0,0,0,0,0,0,0,-1,1406,1079,0,0
189,-55,0,0,0,0,0,0,0,0,0,-1,1413,1079,0,0
196,-55,0,0,0,0,0,0,0,0,0,-1,1420,1079,0,0
203,-55,0,0,0,0,0,0,0,0,0,-1,1427,1079,0,0
210,-55,0,0,0,0,0,0,0,0,0,-1,1434,1079,0,0
217,-55,0,0,0,0,0,0,0,0,0,-1,1441,1079,0,0
224,-55,0,0,0,0,0,0,0,0,0,-1,1448,1079,0,0
231,-55,0,0,0,0,0,0,0,0,0,-1,1455,1079,0,0
238,-55,0,0,0,0,0,0,0,0,0,-1,1462,1079,0,0
245,-55,0,0,0,0,0,0,0,0,0,-1,1469,1079,0,0
252,-55,0,0,0,0,0,0,0,0,0,-1,1476,1079,0,0
259,-55,0,0,0,0,0,0,0,0,0,-1,1483,1079,0,0
266,-55,0,0,0,0,0,0,0,0,0,-1,1490,1079,0,0
273,-55,0,0,0,0,0,0,0,0,0,-1,1497,1079,0,0
280,-55,0,0,0,0,0,0,0,0,0,-1,1504,1079,0,0
287,-55,0,0,0,0,0,0,0,0,0,-1,1511,1079,0,0
294,-55,0,0,0,0,0,0,0,0,0,-1,1518,1079,0,0
301,-55,0,0,0,0,0,0,0,0,0,-1,1525,1079,0,0
308,-55,0,0,0,0,0,0,0,0,0,-1,1532,1079,0,0
315,-55,0,0,0,0,0,0,0,0,0,-1,1539,1079,0,0
322,-55,0,0,0,0,0,0,0,0,0,-1,1546,1079,0,0
329,-55,0,0,0,0,0,0,0,0,0,-1,1553,1079,0,0
336,-55,0,0,0,0,0,0,0,0,0,-1,1560,1079,0,0
343,-55,0,0,0,0,0,0,0,0,0,-1,1567,1079,0,0
350,-55,0,0,0,0,0,0,0,0,0,-1,1574,1079,0,0
357,-55,0,0,0,0,0,0,0,0,0,-1,1581,1079,0,0
364,-55,0,0,0,0,0,0,0,0,0,-1,1588,1079,0,0
371,-55,0,0,0,0,0,0,0,0,0,-1,1595,1079,0,0
378,-55,0,0,0,0,0,0,0,0,0,-1,1602,1079,0,0
385,-55,0,0,0,0,0,0,0,0,0,-1,1609,1079,0,0
392,-55,0,0,0,0,0,0,0,0,0,-1,1616,1079,0,0
399,-55,0,0,0,0,0,0,0,0,0,-1,1623,1079,0,0
406,-55,0,0,0,0,0,0,0,0,0,-1,1630,1079,0,0
413,-55,0,0,0,0,0,0,0,0,0,-1,1637,1079,0,0
420,-55,0,0,0,0,0,0,0,0,0,-1,1644,1079,0,0
427,-55,0,0,0,0,0,0,0,0,0,-1,1651,1079,0,0
434,-55,0,0,0,0,0,0,0,0,0,-1,1658,1079,0,0
441,-55,0,0,0,0,0,0,0,0,0,-1,1665,1079,0,0
448,-55,0,0,0,0,0,0,0,0,0,-1,1672,1079,0,0
455,-55,0,0,0,0,0,0,0,0,0,-1,1679,1079,0,0
462,-55,0,0,0,0,0,0,0,0,0,-1,1686,1079,0,0
469,-55,0,0,0,0,0,0,0,0,0,-1,1693,1079,0,0
476,-55,0,0,0,0,0,0,0,0,0,-1,1700,1079,0,0
483,-55,0,0,0,0,0,0,0,0,0,-1,1707,1079,0,0
490,-55,0,0,0,0,0,0,0,0,0,-1,1714,1079,0,0
497,-55,0,0,0,0,0,0,0,0,0,-1,1721,1079,0,0
504,-55,0,0,0,0,0,0,0,0,0,-1,1728,1079,0,0
511,-55,0,0,0,0,0,0,0,0,0,-1,1735,1079,0,0
518,-55,0,0,0,0,0,0,0,0,0,-1,1742,1079,0,0
525,-55,0,0,0,0,0,0,0,0,0,-1,1749,1079,0,0
532,-55,0,0,0,0,0,0,0,0,0,-1,1756,1079,0,0
539,-55,0,0,0,0,0,0,0,0,0,-1,1763,1079,0,0
546,-55,0,0,0,0,0,0,0,0,0,-1,1770,1079,0,0
553,-55,0,0,0,0,0,0,0,0,0,-1,1777,1079,0,0
560,-55,0,0,0,0,0,0,0,0,0,-1,1784,1079,0,0
567,-55,0,0,0,0,0,0,0,0,0,-1,1791,1079,0,0
574,-55,0,0,0,0,0,0,0,0,0,-1,1798,1079,0,0
581,-55,0,0,0,0,0,0,0,0,0,-1,1805,1079,0,0
588,-55,0,0,0,0,0,0,0,0,0,-1,1812,1079,0,0
595,-55,0,0,0,0,0,0,0,0,0,-1,1819,1079,0,0
602,-55,0,0,0,0,0,0,0,0,0,-1,1826,1079,0,0
609,-55,0,0,0,0,0,0,0,0,0,-1,1833,1079,0,0
616,-55,0,0,0,0,0,0,0,0,0,-1,1840,1079,0,0
623,-55,0,0,0,0,0,0,0,0,0,-1,1847,1079,0,0
630,-55,0,0,0,0,0,0,0,0,0,-1,1854,1079,0,0
637,-55,0,0,0,0,0,0,0,0,0,-1,1861,1079,0,0
644,-55,0,0,0,0,0,0,0,0,0,-1,1868,1079,0,0
651,-55,19.4031,2.40698,0.00107432,-0.00125336,0.00197206,0.00220036,-0.0023794,0.51882,0.0026448,0.0350566,1875,1079,19.4031,-2.40694
658,-55,19.4216,2.47522,0.000942922,-0.00114412,0.00144191,0.0016793,-0.0018805,0.472168,0.00205635,0.0337434,1882,1079,19.4216,-2.47517
665,-55,19.3186,2.51099,0.000812688,-0.00100352,0.000941743,0.00121284,-0.00140368,0.40179,0.00151198,0.0398418,1889,1079,19.3186,-2.51097
672,-55,19.3517,2.56299,0.00055834,-0.00088928,0.00119793,0.00123415,-0.00156509,0.513641,0.00161991,0.0406467,1896,1079,19.3517,-2.56302
679,-55,19.4153,2.45459,-0.000123449,-0.000902218,0.00217296,0.00169474,-0.00272041,0.696742,0.00257192,0.0372787,1903,1079,19.4153,-2.45464
686,-55,19.4307,2.35791,-0.000960671,-0.000970359,0.00326534,0.00229983,-0.00423086,0.784656,0.00382504,0.0386698,1910,1079,19.4306,-2.35786
693,-55,19.4377,2.35999,-0.00167422,-0.0010537,0.00427104,0.00291834,-0.00564626,0.821656,0.00502768,0.039717,1917,1079,19.4377,-2.35999
700,-55,19.3834,2.35107,-0.00228375,-0.00112504,0.00507991,0.00340845,-0.00681724,0.842177,0.00601215,0.0342883,1924,1079,19.3834,-2.35104
707,-55,19.355,2.37659,-0.00276404,-0.00109208,0.00558849,0.00372261,-0.00757873,0.859643,0.00665023,0.0280249,1931,1079,19.3549,-2.37658
714,-55,19.3842,2.40649,-0.00309448,-0.000996496,0.00596698,0.004013,-0.00810398,0.872409,0.00712741,0.0359902,1938,1079,19.3841,-2.40653
721,-55,19.2847,3.12964,-0.00332429,-0.00093173,0.00605353,0.00404259,-0.00829861,0.88295,0.00726506,0.0425945,1945,1079,19.2846,-3.1296
728,-55,18.967,3.64197,0,0,0,0,0,0,0,-1,1952,1079,18.967,-3.64199
735,-55,18.9456,3.59912,-0.00341524,-0.000439519,0.00529212,0.00356992,-0.00742468,0.922434,0.00647648,0.0160217,1959,1079,18.9456,-3.5991
742,-55,18.9506,3.57092,-0.00306021,-3.66501e-06,0.00440301,0.00312876,-0.00619264,0.952442,0.00547776,0.0154932,1966,1079,18.9506,-3.5709
749,-55,18.9768,3.53076,-0.00290551,0.000578449,0.0033551,0.00261684,-0.00494389,1.02484,0.00443357,0.0124302,1973,1079,18.9768,-3.53077
756,-55,18.9515,3.49219,-0.00269205,0.000988038,0.00222538,0.00203556,-0.00373958,1.13085,0.00338231,0.0115893,1980,1079,18.9516,-3.49217
763,-55,18.9374,3.47913,-0.00242988,0.00139091,0.000900476,0.00159249,-0.00263147,1.35056,0.00246317,0.0143611,1987,1079,18.9374,-3.47916
770,-55,18.9579,3.43494,-0.00238331,0.00187225,-0.000460304,0.00192147,-0.00243253,-1.46427,0.00251955,0.0149141,1994,1079,18.9578,-3.43489
777,-55,18.9368,3.37842,-0.00272988,0.00217807,-0.00133635,0.00251835,-0.00307016,-1.32147,0.00323176,0.0119155,2001,1079,18.9368,-3.37837
784,-55,18.9421,3.24402,-0.00378728,0.0020819,-0.00153995,0.00246141,-0.00416679,-1.32917,0.00386879,0.0283657,2008,1079,18.9422,-3.24403
791,-55,19.2227,2.97375,-0.00554694,0.00141947,-0.00141769,0.00169692,-0.0058244,-1.37753,0.00455518,0.0399818,2015,1079,19.2226,-2.97371
798,-55,19.5024,2.68982,-0.00778455,-4.79836e-05,-0.00103031,8.68761e-05,-0.00791941,-1.44064,0.0053088,0.0434152,2022,1079,19.5025,-2.68986
805,-55,18.099,3.48804,-0.0106751,-0.00262941,-0.00027021,-0.00262035,-0.0106841,-1.53726,0.00642983,0.0444688,2029,1079,18.099,-3.48805
812,-55,18.0681,3.18127,-0.0146937,-0.00678169,0.000961436,-0.00666654,-0.0148088,1.45159,0.00856402,0.0431017,2036,1079,18.068,-3.18133
-700,-62,-11.7099,1.80981,0.0720083,0.0521517,-0.00295382,0.0724384,0.0517216,-0.144588,0.0430804,0.0473663,524,1086,-11.7099,-1.80976
-693,-62,-10.9883,2.33826,0.06242,0.0400092,-0.00576741,0.0638172,0.038612,-0.237668,0.0371149,0.0478406,531,1086,-10.9883,-2.33824
-686,-62,-10.42,2.58704,0,0,0,0,0,0,0,-1,538,1086,-10.4201,-2.58706
-679,-62,-13.6463,0.454346,0.0428241,0.0228718,-0.00689725,0.0449763,0.0207196,-0.302456,0.0259938,0.0453454,545,1086,-13.6463,-0.45433
-672,-62,-12.2598,1.73535,0.0340074,0.0169067,-0.00642362,0.0361515,0.0147626,-0.322157,0.0209886,0.0458297,552,1086,-12.2597,-1.73531
-665,-62,-12.4534,1.72522,0.0262037,0.0122717,-0.00563888,0.0282,0.0102754,-0.340248,0.0164797,0.0461485,559,1086,-12.4533,-1.72518
-658,-62,-12.3749,1.30701,0.0195257,0.00873472,-0.00470243,0.0212873,0.00697311,-0.358436,0.0125315,0.0451956,566,1086,-12.3749,-1.30702
-651,-62,-12.3248,0.829834,0.0140233,0.00607898,-0.00373558,0.0155039,0.00459838,-0.377358,0.00919474,0.0370984,573,1086,-12.3248,-0.829788
-644,-62,-12.2882,0.895386,0.00931596,0.00382708,-0.00315471,0.0107529,0.00239012,-0.427417,0.00651962,0.0120161,580,1086,-12.2882,-0.895392
-637,-62,-12.272,0.964478,0.00535053,0.00170295,-0.00314199,0.00715969,-0.0001062,-0.522435,0.00480892,0.00953498,587,1086,-12.272,-0.964526
-630,-62,-12.2766,1.04871,0.00231899,0.000311793,-0.00337521,0.00483665,-0.00220587,-0.640889,0.00415949,0.0117484,594,1086,-12.2766,-1.04869
-623,-62,-12.2767,1.11694,-0.000237873,0.000222564,-0.00344634,0.00344637,-0.00346168,-0.818749,0.00398837,0.0135409,601,1086,-12.2766,-1.11695
-616,-62,-12.259,1.16077,-0.00122685,-0.00050031,-0.00407312,0.00322571,-0.00495287,-0.829874,0.00475687,0.0126568,608,1086,-12.2589,-1.16077
-609,-62,-12.2481,1.2395,-0.00137005,-0.000685217,-0.0046211,0.00360614,-0.00566141,-0.82238,0.0053943,0.0115409,615,1086,-12.2481,-1.23956
-602,-62,-12.2482,1.32043,-0.00158902,-0.00105026,-0.00533921,0.00402636,-0.00666564,-0.810604,0.0062354,0.0133695,622,1086,-12.2483,-1.32039
-595,-62,-12.2224,1.37781,-0.00190933,-0.00153801,-0.00603231,0.0043115,-0.00775884,-0.800782,0.00706292,0.0181129,629,1086,-12.2224,-1.37778
-588,-62,-12.313,1.03894,-0.002122,-0.00182693,-0.00642602,0.00445325,-0.00840219,-0.796876,0.00753791,0.0264508,636,1086,-12.313,-1.03895
-581,-62,-12.5284,0.629639,-0.0021621,-0.00198858,-0.00641327,0.00433852,-0.00848919,-0.792162,0.00753421,0.0335508,643,1086,-12.5284,-0.629692
-574,-62,-12.446,0.629761,-0.00214221,-0.0021141,-0.00622825,0.00410011,-0.00835642,-0.786526,0.00733039,0.0349006,650,1086,-12.4461,-0.629821
-567,-62,-12.3154,0.736206,-0.00206561,-0.00209847,-0.00565193,0.00356991,-0.00773399,-0.783945,0.00667228,0.0390106,657,1086,-12.3154,-0.736249
-560,-62,-12.3344,0.778442,-0.00191759,-0.00195386,-0.00468139,0.0027457,-0.00661714,-0.783461,0.00555754,0.0420684,664,1086,-12.3344,-0.778482
-553,-62,-12.4114,0.56311,-0.00172235,-0.00168848,-0.00334107,0.0016357,-0.00504653,-0.787932,0.00402203,0.0367512,671,1086,-12.4114,-0.563171
-546,-62,-12.5186,0.489868,-0.00151029,-0.0013166,-0.00162945,0.000218882,-0.00304577,-0.81508,0.00210727,0.0313089,678,1086,-12.5186,-0.48981
-539,-62,-12.574,0.546753,-0.00135933,-0.000884614,7.96074e-05,-0.00087162,-0.00137233,1.409,0.000801901,0.0378677,685,1086,-12.574,-0.546798
-532,-62,-12.4973,0.616821,-0.00190247,-0.000600282,0.00027562,-0.000544347,-0.00195841,1.37057,0.00116726,0.0395287,692,1086,-12.4973,-0.616766
-525,-62,0,0,0,0,0,0,0,0,0,-1,699,1086,0,0
-518,-62,0,0,0,0,0,0,0,0,0,-1,706,1086,0,0
-511,-62,0,0,0,0,0,0,0,0,0,-1,713,1086,0,0
-504,-62,0,0,0,0,0,0,0,0,0,-1,720,1086,0,0
-497,-62,0,0,0,0,0,0,0,0,0,-1,727,1086,0,0
-490,-62,0,0,0,0,0,0,0,0,0,-1,734,1086,0,0
-483,-62,0,0,0,0,0,0,0,0,0,-1,741,1086,0,0
-476,-62,0,0,0,0,0,0,0,0,0,-1,748,1086,0,0
-469,-62,0,0,0,0,0,0,0,0,0,-1,755,1086,0,0
-462,-62,0,0,0,0,0,0,0,0,0,-1,762,1086,0,0
-455,-62,0,0,0,0,0,0,0,0,0,-1,769,1086,0,0
-448,-62,0,0,0,0,0,0,0,0,0,-1,776,1086,0,0
-441,-62,0,0,0,0,0,0,0,0,0,-1,783,1086,0,0
-434,-62,0,0,0,0,0,0,0,0,0,-1,790,1086,0,0
-427,-62,0,0,0,0,0,0,0,0,0,-1,797,1086,0,0
-420,-62,0,0,0,0,0,0,0,0,0,-1,804,1086,0,0
-413,-62,0,0,0,0,0,0,0,0,0,-1,811,1086,0,0
-406,-62,0,0,0,0,0,0,0,0,0,-1,818,1086,0,0
-399,-62,0,0,0,0,0,0,0,0,0,-1,825,1086,0,0
-392,-62,0,0,0,0,0,0,0,0,0,-1,832,1086,0,0
-385,-62,0,0,0,0,0,0,0,0,0,-1,839,1086,0,0
-378,-62,0,0,0,0,0,0,0,0,0,-1,846,1086,0,0
-371,-62,0,0,0,0,0,0,0,0,0,-1,853,1086,0,0
-364,-62,0,0,0,0,0,0,0,0,0,-1,860,1086,0,0
-357,-62,0,0,0,0,0,0,0,0,0,-1,867,1086,0,0
-350,-62,0,0,0,0,0,0,0,0,0,-1,874,1086,0,0
-343,-62,0,0,0,0,0,0,0,0,0,-1,881,1086,0,0
-336,-62,0,0,0,0,0,0,0,0,0,-1,888,1086,0,0
-329,-62,0,0,0,0,0,0,0,0,0,-1,895,1086,0,0
-322,-62,0,0,0,0,0,0,0,0,0,-1,902,1086,0,0
-315,-62,0,0,0,0,0,0,0,0,0,-1,909,1086,0,0
-308,-62,0,0,0,0,0,0,0,0,0,-1,916,1086,0,0
-301,-62,0,0,0,0,0,0,0,0,0,-1,923,1086,0,0
-294,-62,0,0,0,0,0,0,0,0,0,-1,930,1086,0,0
-287,-62,0,0,0,0,0,0,0,0,0,-1,937,1086,0,0
-280,-62,0,0,0,0,0,0,0,0,0,-1,944,1086,0,0
-273,-62,0,0,0,0,0,0,0,0,0,-1,951,1086,0,0
-266,-62,0,0,0,0,0,0,0,0,0,-1,958,1086,0,0
-259,-62,0,0,0,0,0,0,0,0,0,-1,965,1086,0,0
-252,-62,0,0,0,0,0,0,0,0,0,-1,972,1086,0,0
-245,-62,0,0,0,0,0,0,0,0,0,-1,979,1086,0,0
-238,-62,0,0,0,0,0,0,0,0,0,-1,986,1086,0,0
-231,-62,0,0,0,0,0,0,0,0,0,-1,993,1086,0,0
-224,-62,0,0,0,0,0,0,0,0,0,-1,1000,1086,0,0
-217,-62,0,0,0,0,0,0,0,0,0,-1,1007,1086,0,0
-210,-62,0,0,0,0,0,0,0,0,0,-1,1014,1086,0,0
-203,-62,0,0,0,0,0,0,0,0,0,-1,1021,1086,0,0
-196,-62,0,0,0,0,0,0,0,0,0,-1,1028,1086,0,0
-189,-62,0,0,0,0,0,0,0,0,0,-1,1035,1086,0,0
-182,-62,0,0,0,0,0,0,0,0,0,-1,1042,1086,0,0
-175,-62,0,0,0,0,0,0,0,0,0,-1,1049,1086,0,0
-168,-62,0,0,0,0,0,0,0,0,0,-1,1056,1086,0,0
-161,-62,0,0,0,0,0,0,0,0,0,-1,1063,1086,0,0
-154,-62,0,0,0,0,0,0,0,0,0,-1,1070,1086,0,0
-147,-62,0,0,0,0,0,0,0,0,0,-1,1077,1086,0,0
-140,-62,0,0,0,0,0,0,0,0,0,-1,1084,1086,0,0
-133,-62,0,0,0,0,0,0,0,0,0,-1,1091,1086,0,0
-126,-62,0,0,0,0,0,0,0,0,0,-1,1098,1086,0,0
-119,-62,0,0,0,0,0,0,0,0,0,-1,1105,1086,0,0
-112,-62,0,0,0,0,0,0,0,0,0,-1,1112,1086,0,0
-105,-62,0,0,0,0,0,0,0,0,0,-1,1119,1086,0,0
-98,-62,0,0,0,0,0,0,0,0,0,-1,1126,1086,0,0
-91,-62,0,0,0,0,0,0,0,0,0,-1,1133,1086,0,0
-84,-62,0,0,0,0,0,0,0,0,0,-1,1140,1086,0,0
-77,-62,0,0,0,0,0,0,0,0,0,-1,1147,1086,0,0
-70,-62,0,0,0,0,0,0,0,0,0,-1,1154,1086,0,0
-63,-62,0,0,0,0,0,0,0,0,0,-1,1161,1086,0,0
-56,-62,0,0,0,0,0,0,0,0,0,-1,1168,1086,0,0
-49,-62,0,0,0,0,0,0,0,0,0,-1,1175,1086,0,0
-42,-62,0,0,0,0,0,0,0,0,0,-1,1182,1086,0,0
-35,-62,0,0,0,0,0,0,0,0,0,-1,1189,1086,0,0
-28,-62,0,0,0,0,0,0,0,0,0,-1,1196,1086,0,0
-21,-62,0,0,0,0,0,0,0,0,0,-1,1203,1086,0,0
-14,-62,0,0,0,0,0,0,0,0,0,-1,1210,1086,0,0
-7,-62,0,0,0,0,0,0,0,0,0,-1,1217,1086,0,0
0,-62,0,0,0,0,0,0,0,0,0,-1,1224,1086,0,0
7,-62,0,0,0,0,0,0,0,0,0,-1,1231,1086,0,0
14,-62,0,0,0,0,0,0,0,0,0,-1,1238,1086,0,0
21,-62,0,0,0,0,0,0,0,0,0,-1,1245,1086,0,0
28,-62,0,0,0,0,0,0,0,0,0,-1,1252,1086,0,0
35,-62,0,0,0,0,0,0,0,0,0,-1,1259,1086,0,0
42,-62,0,0,0,0,0,0,0,0,0,-1,1266,1086,0,0
49,-62,0,0,0,0,0,0,0,0,0,-1,1273,1086,0,0
56,-62,0,0,0,0,0,0,0,0,0,-1,1280,1086,0,0
63,-62,0,0,0,0,0,0,0,0,0,-1,1287,1086,0,0
70,-62,0,0,0,0,0,0,0,0,0,-1,1294,1086,0,0
77,-62,0,0,0,0,0,0,0,0,0,-1,1301,1086,0,0
84,-62,0,0,0,0,0,0,0,0,0,-1,1308,1086,0,0
91,-62,0,0,0,0,0,0,0,0,0,-1,1315,1086,0,0
98,-62,0,0,0,0,0,0,0,0,0,-1,1322,1086,0,0
105,-62,0,0,0,0,0,0,0,0,0,-1,1329,1086,0,0
112,-62,0,0,0,0,0,0,0,0,0,-1,1336,1086,0,0
119,-62,0,0,0,0,0,0,0,0,0,-1,1343,1086,0,0
126,-62,0,0,0,0,0,0,0,0,0,-1,1350,1086,0,0
133,-62,0,0,0,0,0,0,0,0,0,-1,1357,1086,0,0
140,-62,0,0,0,0,0,0,0,0,0,-1,1364,1086,0,0
147,-62,0,0,0,0,0,0,0,0,0,-1,1371,1086,0,0
154,-62,0,0,0,0,0,0,0,0,0,-1,1378,1086,0,0
161,-62,0,0,0,0,0,0,0,0,0,-1,1385,1086,0,0
168,-62,0,0,0,0,0,0,0,0,0,-1,1392,1086,0,0
175,-62,0,0,0,0,0,0,0,0,0,-1,1399,1086,0,0
182,-62,0,0,0,0,0,0,0,0,0,-1,1406,1086,0,0
189,-62,0,0,0,0,0,0,0,0,0,-1,1413,1086,0,0
196,-62,0,0,0,0,0,0,0,0,0,-1,1420,1086,0,0
203,-62,0,0,0,0,0,0,0,0,0,-1,1427,1086,0,0
210,-62,0,0,0,0,0,0,0,0,0,-1,1434,1086,0,0
217,-62,0,0,0,0,0,0,0,0,0,-1,1441,1086,0,0
224,-62,0,0,0,0,0,0,0,0,0,-1,1448,1086,0,0
231,-62,0,0,0,0,0,0,0,0,0,-1,1455,1086,0,0
238,-62,0,0,0,0,0,0,0,0,0,-1,1462,1086,0,0
245,-62,0,0,0,0,0,0,0,0,0,-1,1469,1086,0,0
252,-62,0,0,0,0,0,0,0,0,0,-1,1476,1086,0,0
259,-62,0,0,0,0,0,0,0,0,0,-1,1483,1086,0,0
266,-62,0,0,0,0,0,0,0,0,0,-1,1490,1086,0,0
273,-62,0,0,0,0,0,0,0,0,0,-1,1497,1086,0,0
280,-62,0,0,0,0,0,0,0,0,0,-1,1504,1086,0,0
287,-62,0,0,0,0,0,0,0,0,0,-1,1511,1086,0,0
294,-62,0,0,0,0,0,0,0,0,0,-1,1518,1086,0,0
301,-62,0,0,0,0,0,0,0,0,0,-1,1525,1086,0,0
308,-62,0,0,0,0,0,0,0,0,0,-1,1532,1086,0,0
315,-62,0,0,0,0,0,0,0,0,0,-1,1539,1086,0,0
322,-62,0,0,0,0,0,0,0,0,0,-1,1546,1086,0,0
329,-62,0,0,0,0,0,0,0,0,0,-1,1553,1086,0,0
336,-62,0,0,0,0,0,0,0,0,0,-1,1560,1086,0,0
343,-62,0,0,0,0,0,0,0,0,0,-1,1567,1086,0,0
350,-62,0,0,0,0,0,0,0,0,0,-1,1574,1086,0,0
357,-62,0,0,0,0,0,0,0,0,0,-1,1581,1086,0,0
364,-62,0,0,0,0,0,0,0,0,0,-1,1588,1086,0,0
371,-62,0,0,0,0,0,0,0,0,0,-1,1595,1086,0,0
378,-62,0,0,0,0,0,0,0,0,0,-1,1602,1086,0,0
385,-62,0,0,0,0,0,0,0,0,0,-1,1609,1086,0,0
392,-62,0,0,0,0,0,0,0,0,0,-1,1616,1086,0,0
399,-62,0,0,0,0,0,0,0,0,0,-1,1623,1086,0,0
406,-62,0,0,0,0,0,0,0,0,0,-1,1630,1086,0,0
413,-62,0,0,0,0,0,0,0,0,0,-1,1637,1086,0,0
420,-62,0,0,0,0,0,0,0,0,0,-1,1644,1086,0,0
427,-62,0,0,0,0,0,0,0,0,0,-1,1651,1086,0,0
434,-62,0,0,0,0,0,0,0,0,0,-1,1658,1086,0,0
441,-62,0,0,0,0,0,0,0,0,0,-1,1665,1086,0,0
448,-62,0,0,0,0,0,0,0,0,0,-1,1672,1086,0,0
455,-62,0,0,0,0,0,0,0,0,0,-1,1679,1086,0,0
462,-62,0,0,0,0,0,0,0,0,0,-1,1686,1086,0,0
469,-62,0,0,0,0,0,0,0,0,0,-1,1693,1086,0,0
476,-62,0,0,0,0,0,0,0,0,0,-1,1700,1086,0,0
483,-62,0,0,0,0,0,0,0,0,0,-1,1707,1086,0,0
490,-62,0,0,0,0,0,0,0,0,0,-1,1714,1086,0,0
497,-62,0,0,0,0,0,0,0,0,0,-1,1721,1086,0,0
504,-62,0,0,0,0,0,0,0,0,0,-1,1728,1086,0,0
511,-62,0,0,0,0,0,0,0,0,0,-1,1735,1086,0,0
518,-62,0,0,0,0,0,0,0,0,0,-1,1742,1086,0,0
525,-62,0,0,0,0,0,0,0,0,0,-1,1749,1086,0,0
532,-62,0,0,0,0,0,0,0,0,0,-1,1756,1086,0,0
539,-62,0,0,0,0,0,0,0,0,0,-1,1763,1086,0,0
546,-62,0,0,0,0,0,0,0,0,0,-1,1770,1086,0,0
553,-62,0,0,0,0,0,0,0,0,0,-1,1777,1086,0,0
560,-62,0,0,0,0,0,0,0,0,0,-1,1784,1086,0,0
567,-62,0,0,0,0,0,0,0,0,0,-1,1791,1086,0,0
574,-62,0,0,0,0,0,0,0,0,0,-1,1798,1086,0,0
581,-62,0,0,0,0,0,0,0,0,0,-1,1805,1086,0,0
588,-62,0,0,0,0,0,0,0,0,0,-1,1812,1086,0,0
595,-62,0,0,0,0,0,0,0,0,0,-1,1819,1086,0,0
602,-62,0,0,0,0,0,0,0,0,0,-1,1826,1086,0,0
609,-62,0,0,0,0,0,0,0,0,0,-1,1833,1086,0,0
616,-62,0,0,0,0,0,0,0,0,0,-1,1840,1086,0,0
623,-62,0,0,0,0,0,0,0,0,0,-1,1847,1086,0,0
630,-62,0,0,0,0,0,0,0,0,0,-1,1854,1086,0,0
637,-62,0,0,0,0,0,0,0,0,0,-1,1861,1086,0,0
644,-62,0,0,0,0,0,0,0,0,0,-1,1868,1086,0,0
651,-62,19.3184,2.52917,0.00210407,-0.00163841,0.00154886,0.00266193,-0.00219627,0.345707,0.00280917,0.0398812,1875,1086,19.3184,-2.52921
658,-62,19.3931,2.50562,0.00168603,-0.00158551,0.00112645,0.00203637,-0.00193585,0.301529,0.00229361,0.039513,1882,1086,19.393,-2.50558
665,-62,19.394,2.3866,0.00138744,-0.00144472,0.000691458,0.00154724,-0.00160452,0.227118,0.00181977,0.038839,1889,1086,19.394,-2.38665
672,-62,19.4462,2.53528,0.000934579,-0.0013511,0.0010466,0.0013414,-0.00175792,0.370735,0.00179477,0.0381778,1896,1086,19.4462,-2.53524
679,-62,19.4318,2.39209,6.70375e-05,-0.0014016,0.00208007,0.0015386,-0.00287316,0.615714,0.00258569,0.0380016,1903,1086,19.4317,-2.39209
686,-62,19.4492,2.30151,-0.000901425,-0.00148937,0.0031962,0.0020143,-0.00440509,0.73954,0.00379094,0.0388068,1910,1086,19.4493,-2.30155
693,-62,19.4043,2.35571,-0.0017049,-0.0015765,0.00420761,0.0025674,-0.0058488,0.793026,0.00498068,0.0390733,1917,1086,19.4043,-2.3557
700,-62,19.3601,2.40845,-0.0023931,-0.00164771,0.00499823,0.0029917,-0.00703251,0.822612,0.00594215,0.0337398,1924,1086,19.3601,-2.40847
707,-62,19.3237,2.36658,-0.00291255,-0.00158562,0.00551663,0.0033073,-0.00780547,0.845244,0.00658884,0.0273086,1931,1086,19.3238,-2.36652
714,-62,19.4003,2.35095,-0.00324379,-0.0014424,0.00590807,0.00363323,-0.00831943,0.861042,0.00707546,0.0311944,1938,1086,19.4003,-2.35101
721,-62,19.4432,3.09546,-0.00347621,-0.00133822,0.00599047,0.00367789,-0.00849232,0.873693,0.00720741,0.0400658,1945,1086,19.4432,-3.09549
728,-62,18.9441,3.6615,0,0,0,0,0,0,0,-1,1952,1086,18.9441,-3.66144
735,-62,18.9342,3.59326,-0.00355194,-0.000760431,0.00527102,0.0032965,-0.00760887,0.914827,0.00645823,0.0164608,1959,1086,18.9342,-3.59326
742,-62,18.9169,3.57385,-0.00321564,-0.000315459,0.00442829,0.00289412,-0.00642522,0.943626,0.00550776,0.0140469,1966,1086,18.9169,-3.57386
749,-62,18.9208,3.52832,-0.00306037,0.000288137,0.00341529,0.00241748,-0.00518971,1.0133,0.00448817,0.0124573,1973,1086,18.9208,-3.52833
756,-62,18.8881,3.52075,-0.00289481,0.000704854,0.00228635,0.0018148,-0.00400475,1.11884,0.00343831,0.0132064,1980,1086,18.8881,-3.52073
763,-62,18.8884,3.47534,-0.00272224,0.00112986,0.000929098,0.00134224,-0.00293462,1.34607,0.00252566,0.0140372,1987,1086,18.8884,-3.47528
770,-62,18.9098,3.41797,-0.00280827,0.00159748,-0.000447697,0.00164252,-0.00285331,-1.47055,0.00262685,0.0110407,1994,1086,18.9097,-3.41794
777,-62,18.8998,3.34778,-0.0034217,0.00185925,-0.00132542,0.00217324,-0.00373569,-1.33819,0.00345105,0.0120935,2001,1086,18.8998,-3.34784
784,-62,18.8776,3.18164,-0.00488235,0.00168764,-0.00160072,0.00205689,-0.0052516,-1.34408,0.00435186,0.0270498,2008,1086,18.8776,-3.18165
791,-62,19.127,2.82678,-0.00720981,0.000962888,-0.00164139,0.00128022,-0.00752714,-1.37982,0.00549477,0.0428942,2015,1086,19.127,-2.82673
798,-62,18.8931,2.54016,-0.0102381,-0.000539718,-0.00153136,-0.000303662,-0.0104741,-1.41785,0.00688375,0.0432361,2022,1086,18.8931,-2.5402
805,-62,18.843,2.23328,0,0,0,0,0,0,0,-1,2029,1086,18.843,-2.23325
812,-62,18.4917,2.93457,0,0,0,0,0,0,0,-1,2036,1086,18.4916,-2.93456
-700,-69,-12.0158,1.76343,0.0663867,0.0524844,0.000595607,0.0664121,0.0524589,0.0427379,0.0404343,0.0463346,524,1093,-12.0158,-1.76348
-693,-69,-11.3431,2.29919,0.0564702,0.0409941,-0.00279161,0.0569583,0.0405059,-0.173115,0.0338482,0.0453384,531,1093,-11.3432,-2.29919
-686,-69,-11.8903,2.72217,0,0,0,0,0,0,0,-1,538,1093,-11.8903,-2.72212
-679,-69,-12.2831,2.18762,0.0377794,0.0243147,-0.00485064,0.0393448,0.0227493,-0.312176,0.0228082,0.0455568,545,1093,-12.2831,-2.18762
-672,-69,-12.6891,1.67639,0.0297205,0.0183171,-0.00478511,0.0314623,0.0165752,-0.349108,0.0181735,0.045597,552,1093,-12.6891,-1.67639
-665,-69,-12.2397,1.6825,0.0226966,0.0135479,-0.00437015,0.0244486,0.0117959,-0.381286,0.0141183,0.0472586,559,1093,-12.2397,-1.6825
-658,-69,-12.1501,1.69519,0.0167596,0.00981773,-0.00375937,0.0184053,0.008172,-0.412634,0.0106485,0.0498189,566,1093,-12.1502,-1.69524
-651,-69,-12.2391,0.872559,0.0119307,0.00694638,-0.00306408,0.0133881,0.00548892,-0.443986,0.00777128,0.0354851,573,1093,-12.2391,-0.872503
-644,-69,-12.2051,0.891724,0.00775987,0.00453768,-0.00270171,0.00929439,0.00300316,-0.516542,0.0054769,0.00989614,580,1093,-12.2051,-0.891733
-637,-69,-12.2082,0.981812,0.00420837,0.00225313,-0.00279287,0.00618977,0.000271724,-0.617042,0.00403899,0.0113339,587,1093,-12.2082,-0.981756
-630,-69,-12.2081,1.03687,0.00156637,0.000666903,-0.00317369,0.00432203,-0.00208876,-0.715013,0.00377539,0.0135632,594,1093,-12.2081,-1.03686
-623,-69,-12.1911,1.11462,-0.000642875,0.00047196,-0.00337962,0.00333982,-0.00351074,-0.86713,0.00395559,0.012647,601,1093,-12.1911,-1.11457
-616,-69,-12.1926,1.1637,-0.00152578,-0.000368101,-0.00407864,0.00317256,-0.00506645,-0.855888,0.0047985,0.012205,608,1093,-12.1926,-1.16367
-609,-69,-12.196,1.19751,-0.00176114,-0.0006219,-0.00461542,0.00345892,-0.00584196,-0.846796,0.0054283,0.011153,615,1093,-12.196,-1.19754
-602,-69,-12.187,1.29919,-0.00203403,-0.000990823,-0.00530878,0.00382192,-0.00684677,-0.834367,0.00624155,0.0148443,622,1093,-12.1869,-1.29923
-595,-69,-12.1644,1.37134,-0.00238407,-0.00139506,-0.00603302,0.00416368,-0.00794282,-0.82629,0.0071023,0.0186055,629,1093,-12.1644,-1.37138
-588,-69,-12.2853,1.16077,-0.00263369,-0.00164884,-0.00646399,0.00434146,-0.00862399,-0.823415,0.0076205,0.0236439,636,1093,-12.2853,-1.16076
-581,-69,-12.4921,0.710693,-0.00266137,-0.00180235,-0.00648561,0.00426795,-0.00873167,-0.818462,0.0076514,0.0299101,643,1093,-12.492,-0.710717
-574,-69,-12.4775,0.511108,-0.00256771,-0.0019163,-0.00635376,0.00412009,-0.00860411,-0.811007,0.00749683,0.0319729,650,1093,-12.4775,-0.511144
-567,-69,-12.2756,0.728394,-0.00236904,-0.00190802,-0.00584137,0.00370739,-0.00798445,-0.805118,0.0068992,0.0374355,657,1093,-12.2756,-0.728433
-560,-69,-12.3014,0.840698,-0.0020072,-0.00179813,-0.00494578,0.00304422,-0.00684955,-0.795964,0.00585131,0.0409923,664,1093,-12.3014,-0.840719
-553,-69,-12.366,0.676392,-0.00149754,-0.00160611,-0.00369477,0.00214334,-0.00524699,-0.778052,0.00439044,0.0385623,671,1093,-12.366,-0.676334
-546,-69,-12.4802,0.516968,-0.000829391,-0.00135838,-0.00209041,0.0010132,-0.00320097,-0.722469,0.00253999,0.0367034,678,1093,-12.4802,-0.516961
-539,-69,-12.631,0.441284,-6.42083e-05,-0.0011139,-0.000451242,0.000103104,-0.00128121,-0.355067,0.000890501,0.0418305,685,1093,-12.631,-0.441272
-532,-69,-12.4642,0.486206,0.000127535,-0.00106605,-0.000235547,0.000172337,-0.00111085,-0.187959,0.000804194,0.0418714,692,1093,-12.4642,-0.486214
-525,-69,0,0,0,0,0,0,0,0,0,-1,699,1093,0,0
-518,-69,0,0,0,0,0,0,0,0,0,-1,706,1093,0,0
-511,-69,0,0,0,0,0,0,0,0,0,-1,713,1093,0,0
-504,-69,0,0,0,0,0,0,0,0,0,-1,720,1093,0,0
-497,-69,0,0,0,0,0,0,0,0,0,-1,727,1093,0,0
-490,-69,0,0,0,0,0,0,0,0,0,-1,734,1093,0,0
-483,-69,0,0,0,0,0,0,0,0,0,-1,741,1093,0,0
-476,-69,0,0,0,0,0,0,0,0,0,-1,748,1093,0,0
-469,-69,0,0,0,0,0,0,0,0,0,-1,755,1093,0,0
-462,-69,0,0,0,0,0,0,0,0,0,-1,762,1093,0,0
-455,-69,0,0,0,0,0,0,0,0,0,-1,769,1093,0,0
-448,-69,0,0,0,0,0,0,0,0,0,-1,776,1093,0,0
-441,-69,0,0,0,0,0,0,0,0,0,-1,783,1093,0,0
-434,-69,0,0,0,0,0,0,0,0,0,-1,790,1093,0,0
-427,-69,0,0,0,0,0,0,0,0,0,-1,797,1093,0,0
-420,-69,0,0,0,0,0,0,0,0,0,-1,804,1093,0,0
-413,-69,0,0,0,0,0,0,0,0,0,-1,811,1093,0,0
-406,-69,0,0,0,0,0,0,0,0,0,-1,818,1093,0,0
-399,-69,0,0,0,0,0,0,0,0,0,-1,825,1093,0,0
-392,-69,0,0,0,0,0,0,0,0,0,-1,832,1093,0,0
-385,-69,0,0,0,0,0,0,0,0,0,-1,839,1093,0,0
-378,-69,0,0,0,0,0,0,0,0,0,-1,846,1093,0,0
-371,-69,0,0,0,0,0,0,0,0,0,-1,853,1093,0,0
-364,-69,0,0,0,0,0,0,0,0,0,-1,860,1093,0,0
-357,-69,0,0,0,0,0,0,0,0,0,-1,867,1093,0,0
-350,-69,0,0,0,0,0,0,0,0,0,-1,874,1093,0,0
-343,-69,0,0,0,0,0,0,0,0,0,-1,881,1093,0,0
-336,-69,0,0,0,0,0,0,0,0,0,-1,888,1093,0,0
-329,-69,0,0,0,0,0,0,0,0,0,-1,895,1093,0,0
-322,-69,0,0,0,0,0,0,0,0,0,-1,902,1093,0,0
-315,-69,0,0,0,0,0,0,0,0,0,-1,909,1093,0,0
-308,-69,0,0,0,0,0,0,0,0,0,-1,916,1093,0,0
-301,-69,0,0,0,0,0,0,0,0,0,-1,923,1093,0,0
-294,-69,0,0,0,0,0,0,0,0,0,-1,930,1093,0,0
-287,-69,0,0,0,0,0,0,0,0,0,-1,937,1093,0,0
-280,-69,0,0,0,0,0,0,0,0,0,-1,944,1093,0,0
-273,-69,0,0,0,0,0,0,0,0,0,-1,951,1093,0,0
-266,-69,0,0,0,0,0,0,0,0,0,-1,958,1093,0,0
-259,-69,0,0,0,0,0,0,0,0,0,-1,965,1093,0,0
-252,-69,0,0,0,0,0,0,0,0,0,-1,972,1093,0,0
-245,-69,0,0,0,0,0,0,0,0,0,-1,979,1093,0,0
-238,-69,0,0,0,0,0,0,0,0,0,-1,986,1093,0,0
-231,-69,0,0,0,0,0,0,0,0,0,-1,993,1093,0,0
-224,-69,0,0,0,0,0,0,0,0,0,-1,1000,1093,0,0
-217,-69,0,0,0,0,0,0,0,0,0,-1,1007,1093,0,0
-210,-69,0,0,0,0,0,0,0,0,0,-1,1014,1093,0,0
-203,-69,0,0,0,0,0,0,0,0,0,-1,1021,1093,0,0
-196,-69,0,0,0,0,0,0,0,0,0,-1,1028,1093,0,0
-189,-69,0,0,0,0,0,0,0,0,0,-1,1035,1093,0,0
-182,-69,0,0,0,0,0,0,0,0,0,-1,1042,1093,0,0
-175,-69,0,0,0,0,0,0,0,0,0,-1,1049,1093,0,0
-168,-69,0,0,0,0,0,0,0,0,0,-1,1056,1093,0,0
-161,-69,0,0,0,0,0,0,0,0,0,-1,1063,1093,0,0
-154,-69,0,0,0,0,0,0,0,0,0,-1,1070,1093,0,0
-147,-69,0,0,0,0,0,0,0,0,0,-1,1077,1093,0,0
-140,-69,0,0,0,0,0,0,0,0,0,-1,1084,1093,0,0
-133,-69,0,0,0,0,0,0,0,0,0,-1,1091,1093,0,0
-126,-69,0,0,0,0,0,0,0,0,0,-1,1098,1093,0,0
-119,-69,0,0,0,0,0,0,0,0,0,-1,1105,1093,0,0
-112,-69,0,0,0,0,0,0,0,0,0,-1,1112,1093,0,0
-105,-69,0,0,0,0,0,0,0,0,0,-1,1119,1093,0,0
-98,-69,0,0,0,0,0,0,0,0,0,-1,1126,1093,0,0
-91,-69,0,0,0,0,0,0,0,0,0,-1,1133,1093,0,0
-84,-69,0,0,0,0,0,0,0,0,0,-1,1140,1093,0,0
-77,-69,0,0,0,0,0,0,0,0,0,-1,1147,1093,0,0
-70,-69,0,0,0,0,0,0,0,0,0,-1,1154,1093,0,0
-63,-69,0,0,0,0,0,0,0,0,0,-1,1161,1093,0,0
-56,-69,0,0,0,0,0,0,0,0,0,-1,1168,1093,0,0
-49,-69,0,0,0,0,0,0,0,0,0,-1,1175,1093,0,0
-42,-69,0,0,0,0,0,0,0,0,0,-1,1182,1093,0,0
-35,-69,0,0,0,0,0,0,0,0,0,-1,1189,1093,0,0
-28,-69,0,0,0,0,0,0,0,0,0,-1,1196,1093,0,0
-21,-69,0,0,0,0,0,0,0,0,0,-1,1203,1093,0,0
-14,-69,0,0,0,0,0,0,0,0,0,-1,1210,1093,0,0
-7,-69,0,0,0,0,0,0,0,0,0,-1,1217,1093,0,0
0,-69,0,0,0,0,0,0,0,0,0,-1,1224,1093,0,0
7,-69,0,0,0,0,0,0,0,0,0,-1,1231,1093,0,0
14,-69,0,0,0,0,0,0,0,0,0,-1,1238,1093,0,0
21,-69,0,0,0,0,0,0,0,0,0,-1,1245,1093,0,0
28,-69,0,0,0,0,0,0,0,0,0,-1,1252,1093,0,0
35,-69,0,0,0,0,0,0,0,0,0,-1,1259,1093,0,0
42,-69,0,0,0,0,0,0,0,0,0,-1,1266,1093,0,0
49,-69,0,0,0,0,0,0,0,0,0,-1,1273,1093,0,0
56,-69,0,0,0,0,0,0,0,0,0,-1,1280,1093,0,0
63,-69,0,0,0,0,0,0,0,0,0,-1,1287,1093,0,0
70,-69,0,0,0,0,0,0,0,0,0,-1,1294,1093,0,0
77,-69,0,0,0,0,0,0,0,0,0,-1,1301,1093,0,0
84,-69,0,0,0,0,0,0,0,0,0,-1,1308,1093,0,0
91,-69,0,0,0,0,0,0,0,0,0,-1,1315,1093,0,0
98,-69,0,0,0,0,0,0,0,0,0,-1,1322,1093,0,0
105,-69,0,0,0,0,0,0,0,0,0,-1,1329,1093,0,0
112,-69,0,0,0,0,0,0,0,0,0,-1,1336,1093,0,0
119,-69,0,0,0,0,0,0,0,0,0,-1,1343,1093,0,0
126,-69,0,0,0,0,0,0,0,0,0,-1,1350,1093,0,0
133,-69,0,0,0,0,0,0,0,0,0,-1,1357,1093,0,0
140,-69,0,0,0,0,0,0,0,0,0,-1,1364,1093,0,0
147,-69,0,0,0,0,0,0,0,0,0,-1,1371,1093,0,0
154,-69,0,0,0,0,0,0,0,0,0,-1,1378,1093,0,0
161,-69,0,0,0,0,0,0,0,0,0,-1,1385,1093,0,0
168,-69,0,0,0,0,0,0,0,0,0,-1,1392,1093,0,0
175,-69,0,0,0,0,0,0,0,0,0,-1,1399,1093,0,0
182,-69,0,0,0,0,0,0,0,0,0,-1,1406,1093,0,0
189,-69,0,0,0,0,0,0,0,0,0,-1,1413,1093,0,0
196,-69,0,0,0,0,0,0,0,0,0,-1,1420,1093,0,0
203,-69,0,0,0,0,0,0,0,0,0,-1,1427,1093,0,0
210,-69,0,0,0,0,0,0,0,0,0,-1,1434,1093,0,0
217,-69,0,0,0,0,0,0,0,0,0,-1,1441,1093,0,0
224,-69,0,0,0,0,0,0,0,0,0,-1,1448,1093,0,0
231,-69,0,0,0,0,0,0,0,0,0,-1,1455,1093,0,0
238,-69,0,0,0,0,0,0,0,0,0,-1,1462,1093,0,0
245,-69,0,0,0,0,0,0,0,0,0,-1,1469,1093,0,0
252,-69,0,0,0,0,0,0,0,0,0,-1,1476,1093,0,0
259,-69,0,0,0,0,0,0,0,0,0,-1,1483,1093,0,0
266,-69,0,0,0,0,0,0,0,0,0,-1,1490,1093,0,0
273,-69,0,0,0,0,0,0,0,0,0,-1,1497,1093,0,0
280,-69,0,0,0,0,0,0,0,0,0,-1,1504,1093,0,0
287,-69,0,0,0,0,0,0,0,0,0,-1,1511,1093,0,0
294,-69,0,0,0,0,0,0,0,0,0,-1,1518,1093,0,0
301,-69,0,0,0,0,0,0,0,0,0,-1,1525,1093,0,0
308,-69,0,0,0,0,0,0,0,0,0,-1,1532,1093,0,0
315,-69,0,0,0,0,0,0,0,0,0,-1,1539,1093,0,0
322,-69,0,0,0,0,0,0,0,0,0,-1,1546,1093,0,0
329,-69,0,0,0,0,0,0,0,0,0,-1,1553,1093,0,0
336,-69,0,0,0,0,0,0,0,0,0,-1,1560,1093,0,0
343,-69,0,0,0,0,0,0,0,0,0,-1,1567,1093,0,0
350,-69,0,0,0,0,0,0,0,0,0,-1,1574,1093,0,0
357,-69,0,0,0,0,0,0,0,0,0,-1,1581,1093,0,0
364,-69,0,0,0,0,0,0,0,0,0,-1,1588,1093,0,0
371,-69,0,0,0,0,0,0,0,0,0,-1,1595,1093,0,0
378,-69,0,0,0,0,0,0,0,0,0,-1,1602,1093,0,0
385,-69,0,0,0,0,0,0,0,0,0,-1,1609,1093,0,0
392,-69,0,0,0,0,0,0,0,0,0,-1,1616,1093,0,0
399,-69,0,0,0,0,0,0,0,0,0,-1,1623,1093,0,0
406,-69,0,0,0,0,0,0,0,0,0,-1,1630,1093,0,0
413,-69,0,0,0,0,0,0,0,0,0,-1,1637,1093,0,0
420,-69,0,0,0,0,0,0,0,0,0,-1,1644,1093,0,0
427,-69,0,0,0,0,0,0,0,0,0,-1,1651,1093,0,0
434,-69,0,0,0,0,0,0,0,0,0,-1,1658,1093,0,0
441,-69,0,0,0,0,0,0,0,0,0,-1,1665,1093,0,0
448,-69,0,0,0,0,0,0,0,0,0,-1,1672,1093,0,0
455,-69,0,0,0,0,0,0,0,0,0,-1,1679,1093,0,0
462,-69,0,0,0,0,0,0,0,0,0,-1,1686,1093,0,0
469,-69,0,0,0,0,0,0,0,0,0,-1,1693,1093,0,0
476,-69,0,0,0,0,0,0,0,0,0,-1,1700,1093,0,0
483,-69,0,0,0,0,0,0,0,0,0,-1,1707,1093,0,0
490,-69,0,0,0,0,0,0,0,0,0,-1,1714,1093,0,0
497,-69,0,0,0,0,0,0,0,0,0,-1,1721,1093,0,0
504,-69,0,0,0,0,0,0,0,0,0,-1,1728,1093,0,0
511,-69,0,0,0,0,0,0,0,0,0,-1,1735,1093,0,0
518,-69,0,0,0,0,0,0,0,0,0,-1,1742,1093,0,0
525,-69,0,0,0,0,0,0,0,0,0,-1,1749,1093,0,0
532,-69,0,0,0,0,0,0,0,0,0,-1,1756,1093,0,0
539,-69,0,0,0,0,0,0,0,0,0,-1,1763,1093,0,0
546,-69,0,0,0,0,0,0,0,0,0,-1,1770,1093,0,0
553,-69,0,0,0,0,0,0,0,0,0,-1,1777,1093,0,0
560,-69,0,0,0,0,0,0,0,0,0,-1,1784,1093,0,0
567,-69,0,0,0,0,0,0,0,0,0,-1,1791,1093,0,0
574,-69,0,0,0,0,0,0,0,0,0,-1,1798,1093,0,0
581,-69,0,0,0,0,0,0,0,0,0,-1,1805,1093,0,0
588,-69,0,0,0,0,0,0,0,0,0,-1,1812,1093,0,0
595,-69,0,0,0,0,0,0,0,0,0,-1,1819,1093,0,0
602,-69,0,0,0,0,0,0,0,0,0,-1,1826,1093,0,0
609,-69,0,0,0,0,0,0,0,0,0,-1,1833,1093,0,0
616,-69,0,0,0,0,0,0,0,0,0,-1,1840,1093,0,0
623,-69,0,0,0,0,0,0,0,0,0,-1,1847,1093,0,0
630,-69,0,0,0,0,0,0,0,0,0,-1,1854,1093,0,0
637,-69,0,0,0,0,0,0,0,0,0,-1,1861,1093,0,0
644,-69,0,0,0,0,0,0,0,0,0,-1,1868,1093,0,0
651,-69,19.3358,2.62024,0,0,0,0,0,0,0,-1,1875,1093,19.3358,-2.62023
658,-69,19.3293,2.104,0,0,0,0,0,0,0,-1,1882,1093,19.3294,-2.10399
665,-69,19.3435,2.32361,0.00200946,-0.00168754,0.000507109,0.00207775,-0.00175584,0.133874,0.00221593,0.0409458,1889,1093,19.3435,-2.32359
672,-69,19.4246,2.52942,0.00127618,-0.00170545,0.000945668,0.00155082,-0.00198008,0.28264,0.00204358,0.0358747,1896,1093,19.4246,-2.52938
679,-69,19.49,2.44421,0.000166166,-0.00188293,0.00201284,0.00140021,-0.00311697,0.549986,0.00267004,0.0380713,1903,1093,19.49,-2.44422
686,-69,19.4352,2.30481,-0.000961753,-0.00206063,0.0031298,0.00166647,-0.00468885,0.698508,0.00380504,0.0401865,1910,1093,19.4352,-2.30487
693,-69,19.3467,2.30884,-0.00186899,-0.00220533,0.00413029,0.00209655,-0.00617088,0.765052,0.00496265,0.0375215,1917,1093,19.3466,-2.30878
700,-69,19.3656,2.38074,-0.00264865,-0.00230898,0.00488814,0.00241228,-0.00736991,0.802764,0.00588455,0.0300842,1924,1093,19.3656,-2.38074
707,-69,19.3508,2.37646,-0.00321958,-0.00224913,0.005412,0.00269936,-0.00816806,0.830107,0.00653375,0.0240817,1931,1093,19.3508,-2.37644
714,-69,19.3983,2.26001,-0.00354383,-0.00208972,0.0058165,0.00304499,-0.00867854,0.847575,0.00702425,0.0263901,1938,1093,19.3983,-2.25999
721,-69,19.4222,3.53259,0,0,0,0,0,0,0,-1,1945,1093,19.4222,-3.53258
728,-69,19.0322,3.59473,-0.00394887,-0.00166545,0.00567859,0.00298506,-0.00859938,0.884603,0.00694517,0.0272212,1952,1093,19.0322,-3.59473
735,-69,18.8583,3.63,-0.00383594,-0.00126337,0.00522354,0.00282992,-0.00792923,0.906121,0.00644016,0.0166003,1959,1093,18.8583,-3.62997
742,-69,18.8643,3.57654,-0.00348074,-0.000756041,0.00444826,0.00253381,-0.0067706,0.933996,0.00555444,0.0135362,1966,1093,18.8642,-3.57653
749,-69,18.8296,3.53479,-0.00329981,-9.05036e-05,0.00347898,0.00213606,-0.00552638,1.00148,0.00456597,0.014495,1973,1093,18.8296,-3.53481
756,-69,18.8451,3.52271,-0.00314519,0.000403374,0.00235997,0.00158164,-0.00432346,1.10773,0.00352969,0.0135218,1980,1093,18.8451,-3.52271
763,-69,18.8425,3.46497,-0.00300479,0.000926605,0.000996733,0.00116487,-0.00324305,1.33616,0.00263751,0.0141658,1987,1093,18.8426,-3.46493
770,-69,18.8461,3.39392,-0.00314827,0.00146724,-0.000354043,0.00149424,-0.00317527,-1.49468,0.00275356,0.0138509,1994,1093,18.8461,-3.39393
777,-69,18.845,3.32556,-0.00394039,0.00174998,-0.00116385,0.00197882,-0.00416923,-1.37665,0.00362389,0.0182977,2001,1093,18.845,-3.32556
784,-69,18.8281,3.13208,-0.00567303,0.00156033,-0.001421,0.00182947,-0.00594217,-1.38361,0.00469172,0.0306849,2008,1093,18.8281,-3.13204
791,-69,18.8483,2.78967,-0.00836964,0.000842514,-0.00150276,0.00108146,-0.00860859,-1.41311,0.00613142,0.0428997,2015,1093,18.8482,-2.78964
798,-69,18.8857,2.47034,-0.011906,-0.000625061,-0.00149781,-0.000429578,-0.0121015,-1.44102,0.00792836,0.0468072,2022,1093,18.8857,-2.47038
805,-69,18.5209,2.62366,0,0,0,0,0,0,0,-1,2029,1093,18.5209,-2.62363
812,-69,18.0247,2.92065,0,0,0,0,0,0,0,-1,2036,1093,18.0247,-2.92061
-700,-76,0,0,0,0,0,0,0,0,0,-1,524,1100,0,0
-693,-76,-11.9932,2.10779,0.0500517,0.0430003,-0.000854639,0.0501538,0.0428982,-0.118908,0.0312989,0.0420923,531,1100,-11.9932,-2.10781
-686,-76,-11.7917,2.34705,0.0406025,0.0339446,-0.00261812,0.0415087,0.0330384,-0.333215,0.0253257,0.0485963,538,1100,-11.7917,-2.34709
-679,-76,-12.6821,2.1925,0,0,0,0,0,0,0,-1,545,1100,-12.6821,-2.19253
-672,-76,-13.0345,1.73657,0,0,0,0,0,0,0,-1,552,1100,-13.0345,-1.73652
-665,-76,-11.8468,1.95032,0,0,0,0,0,0,0,-1,559,1100,-11.8468,-1.95031
-658,-76,-12.1206,0.376587,0.0136709,0.0112195,-0.00309101,0.0157704,0.00912006,-0.596641,0.00914218,0.0460488,566,1100,-12.1206,-0.376638
-651,-76,-12.1061,0.792358,0.00958273,0.00804784,-0.00260082,0.011527,0.0061036,-0.641931,0.00665896,0.0280914,573,1100,-12.1061,-0.792384
-644,-76,-12.0913,0.890137,0.00603286,0.00542108,-0.00239539,0.00814182,0.00331212,-0.721892,0.00472782,0.0098477,580,1100,-12.0913,-0.890095
-637,-76,-12.1229,0.963501,0.00301701,0.00294108,-0.00252901,0.00550834,0.000449752,-0.777893,0.00353187,0.0129827,587,1100,-12.1229,-0.963546
-630,-76,-12.1208,1.02502,0.00087172,0.00115702,-0.00300134,0.0040191,-0.00199036,-0.809144,0.00353485,0.0143705,594,1100,-12.1208,-1.02508
-623,-76,-12.097,1.09814,-0.000939849,0.000797055,-0.00327113,0.00331305,-0.00345585,-0.91515,0.00390832,0.0128734,601,1100,-12.097,-1.09816
-616,-76,-12.1125,1.16956,-0.00172289,-0.00014176,-0.00400368,0.00314866,-0.00501331,-0.882874,0.00475313,0.0109827,608,1100,-12.1125,-1.16955
-609,-76,-12.1287,1.22375,-0.00203224,-0.000489783,-0.0045187,0.00332303,-0.00584505,-0.869921,0.00535953,0.0121443,615,1100,-12.1287,-1.2237
-602,-76,-12.1157,1.29004,-0.0023171,-0.000824896,-0.00515519,0.00363791,-0.00677991,-0.857263,0.00610523,0.0169374,622,1100,-12.1157,-1.28999
-595,-76,-12.1033,1.36157,-0.00265692,-0.00112039,-0.00584046,0.00400211,-0.00777943,-0.850794,0.00691763,0.0205473,629,1100,-12.1033,-1.36155
-588,-76,-12.2117,1.18884,-0.00294059,-0.00133104,-0.00624815,0.00416395,-0.00843558,-0.849446,0.00741239,0.0256102,636,1100,-12.2117,-1.18888
-581,-76,-12.3945,0.623657,-0.00296432,-0.0014465,-0.0062794,0.00411969,-0.00853051,-0.845535,0.00745011,0.0291403,643,1100,-12.3945,-0.6237
-574,-76,-12.4683,0.431396,-0.00279254,-0.00152219,-0.00619157,0.0040667,-0.00838143,-0.836513,0.00732943,0.035279,650,1100,-12.4683,-0.431396
-567,-76,-12.288,0.706177,-0.00249823,-0.00149068,-0.00574403,0.00377163,-0.00776054,-0.829138,0.00678957,0.0390483,657,1100,-12.2879,-0.706136
-560,-76,-12.2072,0.835571,-0.00195941,-0.00138578,-0.00494436,0.00328007,-0.00662526,-0.81437,0.00582654,0.0415958,664,1100,-12.2072,-0.835531
-553,-76,-12.3188,0.709473,-0.00118055,-0.00123793,-0.00382934,0.00262021,-0.00503869,-0.781652,0.00449475,0.0431253,671,1100,-12.3188,-0.709417
-546,-76,-12.5458,0.522827,-0.000108737,-0.00108133,-0.00241072,0.00186425,-0.00305431,-0.685873,0.00286731,0.0442934,678,1100,-12.5459,-0.522856
-539,-76,-12.5883,0.306519,0.00125402,-0.000984938,-0.000950587,0.00160316,-0.00133408,-0.351995,0.00169819,0.0444601,685,1100,-12.5883,-0.306542
-532,-76,-12.3944,0.33313,0.00221962,-0.00111422,-0.000820153,0.00241046,-0.00130506,-0.22862,0.00217657,0.0432055,692,1100,-12.3944,-0.333109
-525,-76,0,0,0,0,0,0,0,0,0,-1,699,1100,0,0
-518,-76,0,0,0,0,0,0,0,0,0,-1,706,1100,0,0
-511,-76,0,0,0,0,0,0,0,0,0,-1,713,1100,0,0
-504,-76,0,0,0,0,0,0,0,0,0,-1,720,1100,0,0
-497,-76,0,0,0,0,0,0,0,0,0,-1,727,1100,0,0
-490,-76,0,0,0,0,0,0,0,0,0,-1,734,1100,0,0
-483,-76,0,0,0,0,0,0,0,0,0,-1,741,1100,0,0
-476,-76,0,0,0,0,0,0,0,0,0,-1,748,1100,0,0
-469,-76,0,0,0,0,0,0,0,0,0,-1,755,1100,0,0
-462,-76,0,0,0,0,0,0,0,0,0,-1,762,1100,0,0
-455,-76,0,0,0,0,0,0,0,0,0,-1,769,1100,0,0
-448,-76,0,0,0,0,0,0,0,0,0,-1,776,1100,0,0
-441,-76,0,0,0,0,0,0,0,0,0,-1,783,1100,0,0
-434,-76,0,0,0,0,0,0,0,0,0,-1,790,1100,0,0
-427,-76,0,0,0,0,0,0,0,0,0,-1,797,1100,0,0
-420,-76,0,0,0,0,0,0,0,0,0,-1,804,1100,0,0
-413,-76,0,0,0,0,0,0,0,0,0,-1,811,1100,0,0
-406,-76,0,0,0,0,0,0,0,0,0,-1,818,1100,0,0
-399,-76,0,0,0,0,0,0,0,0,0,-1,825,1100,0,0
-392,-76,0,0,0,0,0,0,0,0,0,-1,832,1100,0,0
-385,-76,0,0,0,0,0,0,0,0,0,-1,839,1100,0,0
-378,-76,0,0,0,0,0,0,0,0,0,-1,846,1100,0,0
-371,-76,0,0,0,0,0,0,0,0,0,-1,853,1100,0,0
-364,-76,0,0,0,0,0,0,0,0,0,-1,860,1100,0,0
-357,-76,0,0,0,0,0,0,0,0,0,-1,867,1100,0,0
-350,-76,0,0,0,0,0,0,0,0,0,-1,874,1100,0,0
-343,-76,0,0,0,0,0,0,0,0,0,-1,881,1100,0,0
-336,-76,0,0,0,0,0,0,0,0,0,-1,888,1100,0,0
-329,-76,0,0,0,0,0,0,0,0,0,-1,895,1100,0,0
-322,-76,0,0,0,0,0,0,0,0,0,-1,902,1100,0,0
-315,-76,0,0,0,0,0,0,0,0,0,-1,909,1100,0,0
-308,-76,0,0,0,0,0,0,0,0,0,-1,916,1100,0,0
-301,-76,0,0,0,0,0,0,0,0,0,-1,923,1100,0,0
-294,-76,0,0,0,0,0,0,0,0,0,-1,930,1100,0,0
-287,-76,0,0,0,0,0,0,0,0,0,-1,937,1100,0,0
-280,-76,0,0,0,0,0,0,0,0,0,-1,944,1100,0,0
-273,-76,0,0,0,0,0,0,0,0,0,-1,951,1100,0,0
-266,-76,0,0,0,0,0,0,0,0,0,-1,958,1100,0,0
-259,-76,0,0,0,0,0,0,0,0,0,-1,965,1100,0,0
-252,-76,0,0,0,0,0,0,0,0,0,-1,972,1100,0,0
-245,-76,0,0,0,0,0,0,0,0,0,-1,979,1100,0,0
-238,-76,0,0,0,0,0,0,0,0,0,-1,986,1100,0,0
-231,-76,0,0,0,0,0,0,0,0,0,-1,993,1100,0,0
-224,-76,0,0,0,0,0,0,0,0,0,-1,1000,1100,0,0
-217,-76,0,0,0,0,0,0,0,0,0,-1,1007,1100,0,0
-210,-76,0,0,0,0,0,0,0,0,0,-1,1014,1100,0,0
-203,-76,0,0,0,0,0,0,0,0,0,-1,1021,1100,0,0
-196,-76,0,0,0,0,0,0,0,0,0,-1,1028,1100,0,0
-189,-76,0,0,0,0,0,0,0,0,0,-1,1035,1100,0,0
-182,-76,0,0,0,0,0,0,0,0,0,-1,1042,1100,0,0
-175,-76,0,0,0,0,0,0,0,0,0,-1,1049,1100,0,0
-168,-76,0,0,0,0,0,0,0,0,0,-1,1056,1100,0,0
-161,-76,0,0,0,0,0,0,0,0,0,-1,1063,1100,0,0
-154,-76,0,0,0,0,0,0,0,0,0,-1,1070,1100,0,0
-147,-76,0,0,0,0,0,0,0,0,0,-1,1077,1100,0,0
-140,-76,0,0,0,0,0,0,0,0,0,-1,1084,1100,0,0
-133,-76,0,0,0,0,0,0,0,0,0,-1,1091,1100,0,0
-126,-76,0,0,0,0,0,0,0,0,0,-1,1098,1100,0,0
-119,-76,0,0,0,0,0,0,0,0,0,-1,1105,1100,0,0
-112,-76,0,0,0,0,0,0,0,0,0,-1,1112,1100,0,0
-105,-76,0,0,0,0,0,0,0,0,0,-1,1119,1100,0,0
-98,-76,0,0,0,0,0,0,0,0,0,-1,1126,1100,0,0
-91,-76,0,0,0,0,0,0,0,0,0,-1,1133,1100,0,0
-84,-76,0,0,0,0,0,0,0,0,0,-1,1140,1100,0,0
-77,-76,0,0,0,0,0,0,0,0,0,-1,1147,1100,0,0
-70,-76,0,0,0,0,0,0,0,0,0,-1,1154,1100,0,0
-63,-76,0,0,0,0,0,0,0,0,0,-1,1161,1100,0,0
-56,-76,0,0,0,0,0,0,0,0,0,-1,1168,1100,0,0
-49,-76,0,0,0,0,0,0,0,0,0,-1,1175,1100,0,0
-42,-76,0,0,0,0,0,0,0,0,0,-1,1182,1100,0,0
-35,-76,0,0,0,0,0,0,0,0,0,-1,1189,1100,0,0
-28,-76,0,0,0,0,0,0,0,0,0,-1,1196,1100,0,0
-21,-76,0,0,0,0,0,0,0,0,0,-1,1203,1100,0,0
-14,-76,0,0,0,0,0,0,0,0,0,-1,1210,1100,0,0
-7,-76,0,0,0,0,0,0,0,0,0,-1,1217,1100,0,0
0,-76,0,0,0,0,0,0,0,0,0,-1,1224,1100,0,0
7,-76,0,0,0,0,0,0,0,0,0,-1,1231,1100,0,0
14,-76,0,0,0,0,0,0,0,0,0,-1,1238,1100,0,0
21,-76,0,0,0,0,0,0,0,0,0,-1,1245,1100,0,0
28,-76,0,0,0,0,0,0,0,0,0,-1,1252,1100,0,0
35,-76,0,0,0,0,0,0,0,0,0,-1,1259,1100,0,0
42,-76,0,0,0,0,0,0,0,0,0,-1,1266,1100,0,0
49,-76,0,0,0,0,0,0,0,0,0,-1,1273,1100,0,0
56,-76,0,0,0,0,0,0,0,0,0,-1,1280,1100,0,0
63,-76,0,0,0,0,0,0,0,0,0,-1,1287,1100,0,0
70,-76,0,0,0,0,0,0,0,0,0,-1,1294,1100,0,0
77,-76,0,0,0,0,0,0,0,0,0,-1,1301,1100,0,0
84,-76,0,0,0,0,0,0,0,0,0,-1,1308,1100,0,0
91,-76,0,0,0,0,0,0,0,0,0,-1,1315,1100,0,0
98,-76,0,0,0,0,0,0,0,0,0,-1,1322,1100,0,0
105,-76,0,0,0,0,0,0,0,0,0,-1,1329,1100,0,0
112,-76,0,0,0,0,0,0,0,0,0,-1,1336,1100,0,0
119,-76,0,0,0,0,0,0,0,0,0,-1,1343,1100,0,0
126,-76,0,0,0,0,0,0,0,0,0,-1,1350,1100,0,0
133,-76,0,0,0,0,0,0,0,0,0,-1,1357,1100,0,0
140,-76,0,0,0,0,0,0,0,0,0,-1,1364,1100,0,0
147,-76,0,0,0,0,0,0,0,0,0,-1,1371,1100,0,0
154,-76,0,0,0,0,0,0,0,0,0,-1,1378,1100,0,0
161,-76,0,0,0,0,0,0,0,0,0,-1,1385,1100,0,0
168,-76,0,0,0,0,0,0,0,0,0,-1,1392,1100,0,0
175,-76,0,0,0,0,0,0,0,0,0,-1,1399,1100,0,0
182,-76,0,0,0,0,0,0,0,0,0,-1,1406,1100,0,0
189,-76,0,0,0,0,0,0,0,0,0,-1,1413,1100,0,0
196,-76,0,0,0,0,0,0,0,0,0,-1,1420,1100,0,0
203,-76,0,0,0,0,0,0,0,0,0,-1,1427,1100,0,0
210,-76,0,0,0,0,0,0,0,0,0,-1,1434,1100,0,0
217,-76,0,0,0,0,0,0,0,0,0,-1,1441,1100,0,0
224,-76,0,0,0,0,0,0,0,0,0,-1,1448,1100,0,0
231,-76,0,0,0,0,0,0,0,0,0,-1,1455,1100,0,0
238,-76,0,0,0,0,0,0,0,0,0,-1,1462,1100,0,0
245,-76,0,0,0,0,0,0,0,0,0,-1,1469,1100,0,0
252,-76,0,0,0,0,0,0,0,0,0,-1,1476,1100,0,0
259,-76,0,0,0,0,0,0,0,0,0,-1,1483,1100,0,0
266,-76,0,0,0,0,0,0,0,0,0,-1,1490,1100,0,0
273,-76,0,0,0,0,0,0,0,0,0,-1,1497,1100,0,0
280,-76,0,0,0,0,0,0,0,0,0,-1,1504,1100,0,0
287,-76,0,0,0,0,0,0,0,0,0,-1,1511,1100,0,0
294,-76,0,0,0,0,0,0,0,0,0,-1,1518,1100,0,0
301,-76,0,0,0,0,0,0,0,0,0,-1,1525,1100,0,0
308,-76,0,0,0,0,0,0,0,0,0,-1,1532,1100,0,0
315,-76,0,0,0,0,0,0,0,0,0,-1,1539,1100,0,0
322,-76,0,0,0,0,0,0,0,0,0,-1,1546,1100,0,0
329,-76,0,0,0,0,0,0,0,0,0,-1,1553,1100,0,0
336,-76,0,0,0,0,0,0,0,0,0,-1,1560,1100,0,0
343,-76,0,0,0,0,0,0,0,0,0,-1,1567,1100,0,0
350,-76,0,0,0,0,0,0,0,0,0,-1,1574,1100,0,0
357,-76,0,0,0,0,0,0,0,0,0,-1,1581,1100,0,0
364,-76,0,0,0,0,0,0,0,0,0,-1,1588,1100,0,0
371,-76,0,0,0,0,0,0,0,0,0,-1,1595,1100,0,0
378,-76,0,0,0,0,0,0,0,0,0,-1,1602,1100,0,0
385,-76,0,0,0,0,0,0,0,0,0,-1,1609,1100,0,0
392,-76,0,0,0,0,0,0,0,0,0,-1,1616,1100,0,0
399,-76,0,0,0,0,0,0,0,0,0,-1,1623,1100,0,0
406,-76,0,0,0,0,0,0,0,0,0,-1,1630,1100,0,0
413,-76,0,0,0,0,0,0,0,0,0,-1,1637,1100,0,0
420,-76,0,0,0,0,0,0,0,0,0,-1,1644,1100,0,0
427,-76,0,0,0,0,0,0,0,0,0,-1,1651,1100,0,0
434,-76,0,0,0,0,0,0,0,0,0,-1,1658,1100,0,0
441,-76,0,0,0,0,0,0,0,0,0,-1,1665,1100,0,0
448,-76,0,0,0,0,0,0,0,0,0,-1,1672,1100,0,0
455,-76,0,0,0,0,0,0,0,0,0,-1,1679,1100,0,0
462,-76,0,0,0,0,0,0,0,0,0,-1,1686,1100,0,0
469,-76,0,0,0,0,0,0,0,0,0,-1,1693,1100,0,0
476,-76,0,0,0,0,0,0,0,0,0,-1,1700,1100,0,0
483,-76,0,0,0,0,0,0,0,0,0,-1,1707,1100,0,0
490,-76,0,0,0,0,0,0,0,0,0,-1,1714,1100,0,0
497,-76,0,0,0,0,0,0,0,0,0,-1,1721,1100,0,0
504,-76,0,0,0,0,0,0,0,0,0,-1,1728,1100,0,0
511,-76,0,0,0,0,0,0,0,0,0,-1,1735,1100,0,0
518,-76,0,0,0,0,0,0,0,0,0,-1,1742,1100,0,0
525,-76,0,0,0,0,0,0,0,0,0,-1,1749,1100,0,0
532,-76,0,0,0,0,0,0,0,0,0,-1,1756,1100,0,0
539,-76,0,0,0,0,0,0,0,0,0,-1,1763,1100,0,0
546,-76,0,0,0,0,0,0,0,0,0,-1,1770,1100,0,0
553,-76,0,0,0,0,0,0,0,0,0,-1,1777,1100,0,0
560,-76,0,0,0,0,0,0,0,0,0,-1,1784,1100,0,0
567,-76,0,0,0,0,0,0,0,0,0,-1,1791,1100,0,0
574,-76,0,0,0,0,0,0,0,0,0,-1,1798,1100,0,0
581,-76,0,0,0,0,0,0,0,0,0,-1,1805,1100,0,0
588,-76,0,0,0,0,0,0,0,0,0,-1,1812,1100,0,0
595,-76,0,0,0,0,0,0,0,0,0,-1,1819,1100,0,0
602,-76,0,0,0,0,0,0,0,0,0,-1,1826,1100,0,0
609,-76,0,0,0,0,0,0,0,0,0,-1,1833,1100,0,0
616,-76,0,0,0,0,0,0,0,0,0,-1,1840,1100,0,0
623,-76,0,0,0,0,0,0,0,0,0,-1,1847,1100,0,0
630,-76,0,0,0,0,0,0,0,0,0,-1,1854,1100,0,0
637,-76,0,0,0,0,0,0,0,0,0,-1,1861,1100,0,0
644,-76,0,0,0,0,0,0,0,0,0,-1,1868,1100,0,0
651,-76,19.4008,2.46912,0.00466181,-0.00174893,0.00115958,0.00486511,-0.00195223,0.173558,0.00405399,0.0410398,1875,1100,19.4007,-2.46914
658,-76,19.3345,2.26843,0.00346064,-0.00184137,0.00083613,0.00358937,-0.0019701,0.152763,0.00325483,0.0429444,1882,1100,19.3344,-2.26848
665,-76,19.3145,2.11121,0.00265608,-0.00175144,0.000448166,0.00270119,-0.00179655,0.100314,0.00261422,0.0390032,1889,1100,19.3145,-2.11118
672,-76,19.4298,2.35474,0.00156998,-0.00185786,0.000950991,0.00181614,-0.00210402,0.253284,0.00226534,0.0353145,1896,1100,19.4298,-2.35471
679,-76,19.5173,2.30872,0.0001727,-0.00215274,0.0020143,0.00133578,-0.00331582,0.523643,0.00276552,0.0367954,1903,1100,19.5173,-2.3087
686,-76,19.3727,2.39233,-0.001136,-0.00242717,0.00309744,0.00138241,-0.00494559,0.682656,0.00384169,0.0365834,1910,1100,19.3727,-2.39239
693,-76,19.2629,2.43665,-0.00216005,-0.00265036,0.00406106,0.00166325,-0.00647366,0.755251,0.00496396,0.0373389,1917,1100,19.263,-2.43669
700,-76,19.3506,2.38611,-0.00303351,-0.00280283,0.00476832,0.00185155,-0.00768789,0.79749,0.0058411,0.0325786,1924,1100,19.3506,-2.3861
707,-76,19.356,2.38477,-0.00365183,-0.00277802,0.0052786,0.00208172,-0.00851157,0.826689,0.00648071,0.0250341,1931,1100,19.3559,-2.38479
714,-76,19.3723,2.64539,0,0,0,0,0,0,0,-1,1938,1100,19.3723,-2.64542
721,-76,19.1881,3.19653,-0.00415001,-0.00249058,0.00576051,0.00249966,-0.00914025,0.856923,0.00707547,0.0389498,1945,1100,19.1881,-3.19654
728,-76,18.8816,3.67627,-0.00433127,-0.00219767,0.00554495,0.00238217,-0.00891111,0.880433,0.00687379,0.0231513,1952,1100,18.8816,-3.67625
735,-76,18.7084,3.67017,-0.00419767,-0.00177935,0.00510895,0.00226158,-0.0082386,0.901598,0.00638128,0.0187002,1959,1100,18.7084,-3.67016
742,-76,18.7903,3.59363,-0.00382139,-0.00125501,0.00439008,0.00203557,-0.00711198,0.927584,0.0055458,0.0133922,1966,1100,18.7903,-3.59363
749,-76,18.7875,3.53955,-0.00359691,-0.000556313,0.0034595,0.00170221,-0.00585543,0.992424,0.00457776,0.0144068,1973,1100,18.7875,-3.5395
756,-76,18.8083,3.52393,-0.00346141,-2.71384e-05,0.00232963,0.00114981,-0.00463836,1.10299,0.00353834,0.01411,1980,1100,18.8083,-3.52389
763,-76,18.8076,3.44739,-0.00339451,0.000561341,0.000929197,0.000768729,-0.0036019,1.3512,0.00269432,0.0142649,1987,1100,18.8076,-3.44744
770,-76,18.7983,3.37585,-0.00366884,0.0011116,-0.000421482,0.00114848,-0.00370572,-1.48353,0.00292934,0.0143059,1994,1100,18.7984,-3.37587
777,-76,18.7892,3.33154,-0.00477325,0.0013074,-0.00119627,0.00153428,-0.00500014,-1.38336,0.00394557,0.0176982,2001,1100,18.7892,-3.3316
784,-76,18.8354,3.30615,-0.00695049,0.000990472,-0.00152007,0.0012715,-0.00723152,-1.38798,0.00529597,0.0313285,2008,1100,18.8355,-3.30613
791,-76,18.9375,2.65942,-0.0102461,0.000163699,-0.00177734,0.000458793,-0.0105412,-1.40627,0.00718528,0.0438018,2015,1100,18.9375,-2.6594
798,-76,18.963,2.13489,0,0,0,0,0,0,0,-1,2022,1100,18.963,-2.1349
805,-76,18.9385,3.18115,0,0,0,0,0,0,0,-1,2029,1100,18.9385,-3.1811
812,-76,18.0352,1.87048,0,0,0,0,0,0,0,-1,2036,1100,18.0352,-1.87051
-700,-83,0,0,0,0,0,0,0,0,0,-1,524,1107,0,0
-693,-83,-12.3393,2.08289,0.0430627,0.0451864,0.000107638,0.0451918,0.0430573,1.52028,0.0294422,0.0437998,531,1107,-12.3393,-2.08287
-686,-83,-11.7928,1.87781,0.0342495,0.0362359,-0.00173028,0.0372377,0.0332476,-1.04594,0.0236078,0.0467225,538,1107,-11.7928,-1.87786
-679,-83,-11.4631,1.44177,0.0267304,0.0286665,-0.0026356,0.0305062,0.0248907,-0.961399,0.0187481,0.0450431,545,1107,-11.4631,-1.44174
-672,-83,-12.3799,0.0809326,0,0,0,0,0,0,0,-1,552,1107,-12.3799,-0.0809286
-665,-83,-12.1505,0.224243,0,0,0,0,0,0,0,-1,559,1107,-12.1504,-0.224273
-658,-83,-12.0515,0.36377,0.0107527,0.0127132,-0.00270317,0.0146084,0.00885753,-0.959344,0.00849749,0.039104,566,1107,-12.0515,-0.363722
-651,-83,-12.0533,0.564941,0.00738269,0.00925251,-0.00233247,0.0108305,0.00580473,-0.976006,0.00625836,0.0276282,573,1107,-12.0533,-0.564905
-644,-83,-12.0087,0.808838,0.0044686,0.00642505,-0.00221214,0.0078656,0.00302805,-0.993576,0.00458109,0.0137828,580,1107,-12.0087,-0.808803
-637,-83,-12.012,0.940674,0.00198501,0.00373931,-0.00231502,0.00533779,0.000386533,-0.966489,0.00343694,0.0115221,587,1107,-12.0121,-0.940662
-630,-83,-12.0308,1.02698,0.000216276,0.00177607,-0.00283268,0.00393425,-0.00194191,-0.919731,0.00345699,0.0161567,594,1107,-12.0308,-1.02702
-623,-83,-12.0076,1.0929,-0.00123783,0.00118829,-0.00315857,0.00335874,-0.00340827,-0.96874,0.00390697,0.015486,601,1107,-12.0076,-1.09286
-616,-83,-12.0231,1.16443,-0.00194175,0.000147963,-0.00386251,0.00310444,-0.00489823,-0.917493,0.00465888,0.0121181,608,1107,-12.0231,-1.16437
-609,-83,-12.0461,1.24792,-0.0023575,-0.000349262,-0.00434139,0.00310262,-0.00580938,-0.899045,0.00522385,0.0117298,615,1107,-12.0461,-1.24795
-602,-83,-12.0458,1.35168,-0.00266839,-0.000658287,-0.00494202,0.00337984,-0.00670652,-0.885714,0.005928,0.0142622,622,1107,-12.0458,-1.35166
-595,-83,-12.0129,1.45935,-0.00301717,-0.000887399,-0.00559504,0.00374319,-0.00764776,-0.879437,0.00670412,0.017644,629,1107,-12.0129,-1.45936
-588,-83,-12.1103,1.19629,-0.00334243,-0.00105741,-0.00597528,0.0038836,-0.00828344,-0.879861,0.00717611,0.0294841,636,1107,-12.1103,-1.19623
-581,-83,-12.3735,0.55603,-0.00337509,-0.00113705,-0.00601881,0.00386587,-0.00837802,-0.877309,0.00722725,0.0337292,643,1107,-12.3735,-0.556038
-574,-83,-12.4407,0.324585,-0.00314291,-0.00118581,-0.0059669,0.00388225,-0.00821096,-0.866673,0.00712956,0.0369912,650,1107,-12.4407,-0.324567
-567,-83,-12.407,0.556885,-0.00276949,-0.00113225,-0.00558521,0.00369402,-0.00759576,-0.858165,0.00664664,0.0414436,657,1107,-12.407,-0.556862
-560,-83,-12.4329,0.7677,-0.0020809,-0.00102522,-0.00487846,0.00335387,-0.00645999,-0.839287,0.00575986,0.041826,664,1107,-12.4328,-0.767726
-553,-83,-12.4249,0.674194,-0.00107229,-0.00090091,-0.00388734,0.00290169,-0.00487489,-0.796418,0.00453773,0.0426485,671,1107,-12.4249,-0.674161
-546,-83,-12.4736,0.665649,0.000336542,-0.0008036,-0.00262932,0.00245688,-0.00292394,-0.678644,0.00311051,0.0425722,678,1107,-12.4736,-0.665589
-539,-83,-12.3629,0.454956,0.00220291,-0.00081553,-0.00130009,0.00268567,-0.00129829,-0.355547,0.00234617,0.0432572,685,1107,-12.3629,-0.454982
-532,-83,-12.4124,0.355957,0.00375575,-0.00106448,-0.001136,0.00401006,-0.00131879,-0.220232,0.00320473,0.0436904,692,1107,-12.4124,-0.355922
-525,-83,0,0,0,0,0,0,0,0,0,-1,699,1107,0,0
-518,-83,0,0,0,0,0,0,0,0,0,-1,706,1107,0,0
-511,-83,0,0,0,0,0,0,0,0,0,-1,713,1107,0,0
-504,-83,0,0,0,0,0,0,0,0,0,-1,720,1107,0,0
-497,-83,0,0,0,0,0,0,0,0,0,-1,727,1107,0,0
-490,-83,0,0,0,0,0,0,0,0,0,-1,734,1107,0,0
-483,-83,0,0,0,0,0,0,0,0,0,-1,741,1107,0,0
-476,-83,0,0,0,0,0,0,0,0,0,-1,748,1107,0,0
-469,-83,0,0,0,0,0,0,0,0,0,-1,755,1107,0,0
-462,-83,0,0,0,0,0,0,0,0,0,-1,762,1107,0,0
-455,-83,0,0,0,0,0,0,0,0,0,-1,769,1107,0,0
-448,-83,0,0,0,0,0,0,0,0,0,-1,776,1107,0,0
-441,-83,0,0,0,0,0,0,0,0,0,-1,783,1107,0,0
-434,-83,0,0,0,0,0,0,0,0,0,-1,790,1107,0,0
-427,-83,0,0,0,0,0,0,0,0,0,-1,797,1107,0,0
-420,-83,0,0,0,0,0,0,0,0,0,-1,804,1107,0,0
-413,-83,0,0,0,0,0,0,0,0,0,-1,811,1107,0,0
-406,-83,0,0,0,0,0,0,0,0,0,-1,818,1107,0,0
-399,-83,0,0,0,0,0,0,0,0,0,-1,825,1107,0,0
-392,-83,0,0,0,0,0,0,0,0,0,-1,832,1107,0,0
-385,-83,0,0,0,0,0,0,0,0,0,-1,839,1107,0,0
-378,-83,0,0,0,0,0,0,0,0,0,-1,846,1107,0,0
-371,-83,0,0,0,0,0,0,0,0,0,-1,853,1107,0,0
-364,-83,0,0,0,0,0,0,0,0,0,-1,860,1107,0,0
-357,-83,0,0,0,0,0,0,0,0,0,-1,867,1107,0,0
-350,-83,0,0,0,0,0,0,0,0,0,-1,874,1107,0,0
-343,-83,0,0,0,0,0,0,0,0,0,-1,881,1107,0,0
-336,-83,0,0,0,0,0,0,0,0,0,-1,888,1107,0,0
-329,-83,0,0,0,0,0,0,0,0,0,-1,895,1107,0,0
-322,-83,0,0,0,0,0,0,0,0,0,-1,902,1107,0,0
-315,-83,0,0,0,0,0,0,0,0,0,-1,909,1107,0,0
-308,-83,0,0,0,0,0,0,0,0,0,-1,916,1107,0,0
-301,-83,0,0,0,0,0,0,0,0,0,-1,923,1107,0,0
-294,-83,0,0,0,0,0,0,0,0,0,-1,930,1107,0,0
-287,-83,0,0,0,0,0,0,0,0,0,-1,937,1107,0,0
-280,-83,0,0,0,0,0,0,0,0,0,-1,944,1107,0,0
-273,-83,0,0,0,0,0,0,0,0,0,-1,951,1107,0,0
-266,-83,0,0,0,0,0,0,0,0,0,-1,958,1107,0,0
-259,-83,0,0,0,0,0,0,0,0,0,-1,965,1107,0,0
-252,-83,0,0,0,0,0,0,0,0,0,-1,972,1107,0,0
-245,-83,0,0,0,0,0,0,0,0,0,-1,979,1107,0,0
-238,-83,0,0,0,0,0,0,0,0,0,-1,986,1107,0,0
-231,-83,0,0,0,0,0,0,0,0,0,-1,993,1107,0,0
-224,-83,0,0,0,0,0,0,0,0,0,-1,1000,1107,0,0
-217,-83,0,0,0,0,0,0,0,0,0,-1,1007,1107,0,0
-210,-83,0,0,0,0,0,0,0,0,0,-1,1014,1107,0,0
-203,-83,0,0,0,0,0,0,0,0,0,-1,1021,1107,0,0
-196,-83,0,0,0,0,0,0,0,0,0,-1,1028,1107,0,0
-189,-83,0,0,0,0,0,0,0,0,0,-1,1035,1107,0,0
-182,-83,0,0,0,0,0,0,0,0,0,-1,1042,1107,0,0
-175,-83,0,0,0,0,0,0,0,0,0,-1,1049,1107,0,0
-168,-83,0,0,0,0,0,0,0,0,0,-1,1056,1107,0,0
-161,-83,0,0,0,0,0,0,0,0,0,-1,1063,1107,0,0
-154,-83,0,0,0,0,0,0,0,0,0,-1,1070,1107,0,0
-147,-83,0,0,0,0,0,0,0,0,0,-1,1077,1107,0,0
-140,-83,0,0,0,0,0,0,0,0,0,-1,1084,1107,0,0
-133,-83,0,0,0,0,0,0,0,0,0,-1,1091,1107,0,0
-126,-83,0,0,0,0,0,0,0,0,0,-1,1098,1107,0,0
-119,-83,0,0,0,0,0,0,0,0,0,-1,1105,1107,0,0
-112,-83,0,0,0,0,0,0,0,0,0,-1,1112,1107,0,0
-105,-83,0,0,0,0,0,0,0,0,0,-1,1119,1107,0,0
-98,-83,0,0,0,0,0,0,0,0,0,-1,1126,1107,0,0
-91,-83,0,0,0,0,0,0,0,0,0,-1,1133,1107,0,0
-84,-83,0,0,0,0,0,0,0,0,0,-1,1140,1107,0,0
-77,-83,0,0,0,0,0,0,0,0,0,-1,1147,1107,0,0
-70,-83,0,0,0,0,0,0,0,0,0,-1,1154,1107,0,0
-63,-83,0,0,0,0,0,0,0,0,0,-1,1161,1107,0,0
-56,-83,0,0,0,0,0,0,0,0,0,-1,1168,1107,0,0
-49,-83,0,0,0,0,0,0,0,0,0,-1,1175,1107,0,0
-42,-83,0,0,0,0,0,0,0,0,0,-1,1182,1107,0,0
-35,-83,0,0,0,0,0,0,0,0,0,-1,1189,1107,0,0
-28,-83,0,0,0,0,0,0,0,0,0,-1,1196,1107,0,0
-21,-83,0,0,0,0,0,0,0,0,0,-1,1203,1107,0,0
-14,-83,0,0,0,0,0,0,0,0,0,-1,1210,1107,0,0
-7,-83,0,0,0,0,0,0,0,0,0,-1,1217,1107,0,0
0,-83,0,0,0,0,0,0,0,0,0,-1,1224,1107,0,0
7,-83,0,0,0,0,0,0,0,0,0,-1,1231,1107,0,0
14,-83,0,0,0,0,0,0,0,0,0,-1,1238,1107,0,0
21,-83,0,0,0,0,0,0,0,0,0,-1,1245,1107,0,0
28,-83,0,0,0,0,0,0,0,0,0,-1,1252,1107,0,0
35,-83,0,0,0,0,0,0,0,0,0,-1,1259,1107,0,0
42,-83,0,0,0,0,0,0,0,0,0,-1,1266,1107,0,0
49,-83,0,0,0,0,0,0,0,0,0,-1,1273,1107,0,0
56,-83,0,0,0,0,0,0,0,0,0,-1,1280,1107,0,0
63,-83,0,0,0,0,0,0,0,0,0,-1,1287,1107,0,0
70,-83,0,0,0,0,0,0,0,0,0,-1,1294,1107,0,0
77,-83,0,0,0,0,0,0,0,0,0,-1,1301,1107,0,0
84,-83,0,0,0,0,0,0,0,0,0,-1,1308,1107,0,0
91,-83,0,0,0,0,0,0,0,0,0,-1,1315,1107,0,0
98,-83,0,0,0,0,0,0,0,0,0,-1,1322,1107,0,0
105,-83,0,0,0,0,0,0,0,0,0,-1,1329,1107,0,0
112,-83,0,0,0,0,0,0,0,0,0,-1,1336,1107,0,0
119,-83,0,0,0,0,0,0,0,0,0,-1,1343,1107,0,0
126,-83,0,0,0,0,0,0,0,0,0,-1,1350,1107,0,0
133,-83,0,0,0,0,0,0,0,0,0,-1,1357,1107,0,0
140,-83,0,0,0,0,0,0,0,0,0,-1,1364,1107,0,0
147,-83,0,0,0,0,0,0,0,0,0,-1,1371,1107,0,0
154,-83,0,0,0,0,0,0,0,0,0,-1,1378,1107,0,0
161,-83,0,0,0,0,0,0,0,0,0,-1,1385,1107,0,0
168,-83,0,0,0,0,0,0,0,0,0,-1,1392,1107,0,0
175,-83,0,0,0,0,0,0,0,0,0,-1,1399,1107,0,0
182,-83,0,0,0,0,0,0,0,0,0,-1,1406,1107,0,0
189,-83,0,0,0,0,0,0,0,0,0,-1,1413,1107,0,0
196,-83,0,0,0,0,0,0,0,0,0,-1,1420,1107,0,0
203,-83,0,0,0,0,0,0,0,0,0,-1,1427,1107,0,0
210,-83,0,0,0,0,0,0,0,0,0,-1,1434,1107,0,0
217,-83,0,0,0,0,0,0,0,0,0,-1,1441,1107,0,0
224,-83,0,0,0,0,0,0,0,0,0,-1,1448,1107,0,0
231,-83,0,0,0,0,0,0,0,0,0,-1,1455,1107,0,0
238,-83,0,0,0,0,0,0,0,0,0,-1,1462,1107,0,0
245,-83,0,0,0,0,0,0,0,0,0,-1,1469,1107,0,0
252,-83,0,0,0,0,0,0,0,0,0,-1,1476,1107,0,0
259,-83,0,0,0,0,0,0,0,0,0,-1,1483,1107,0,0
266,-83,0,0,0,0,0,0,0,0,0,-1,1490,1107,0,0
273,-83,0,0,0,0,0,0,0,0,0,-1,1497,1107,0,0
280,-83,0,0,0,0,0,0,0,0,0,-1,1504,1107,0,0
287,-83,0,0,0,0,0,0,0,0,0,-1,1511,1107,0,0
294,-83,0,0,0,0,0,0,0,0,0,-1,1518,1107,0,0
301,-83,0,0,0,0,0,0,0,0,0,-1,1525,1107,0,0
308,-83,0,0,0,0,0,0,0,0,0,-1,1532,1107,0,0
315,-83,0,0,0,0,0,0,0,0,0,-1,1539,1107,0,0
322,-83,0,0,0,0,0,0,0,0,0,-1,1546,1107,0,0
329,-83,0,0,0,0,0,0,0,0,0,-1,1553,1107,0,0
336,-83,0,0,0,0,0,0,0,0,0,-1,1560,1107,0,0
343,-83,0,0,0,0,0,0,0,0,0,-1,1567,1107,0,0
350,-83,0,0,0,0,0,0,0,0,0,-1,1574,1107,0,0
357,-83,0,0,0,0,0,0,0,0,0,-1,1581,1107,0,0
364,-83,0,0,0,0,0,0,0,0,0,-1,1588,1107,0,0
371,-83,0,0,0,0,0,0,0,0,0,-1,1595,1107,0,0
378,-83,0,0,0,0,0,0,0,0,0,-1,1602,1107,0,0
385,-83,0,0,0,0,0,0,0,0,0,-1,1609,1107,0,0
392,-83,0,0,0,0,0,0,0,0,0,-1,1616,1107,0,0
399,-83,0,0,0,0,0,0,0,0,0,-1,1623,1107,0,0
406,-83,0,0,0,0,0,0,0,0,0,-1,1630,1107,0,0
413,-83,0,0,0,0,0,0,0,0,0,-1,1637,1107,0,0
420,-83,0,0,0,0,0,0,0,0,0,-1,1644,1107,0,0
427,-83,0,0,0,0,0,0,0,0,0,-1,1651,1107,0,0
434,-83,0,0,0,0,0,0,0,0,0,-1,1658,1107,0,0
441,-83,0,0,0,0,0,0,0,0,0,-1,1665,1107,0,0
448,-83,0,0,0,0,0,0,0,0,0,-1,1672,1107,0,0
455,-83,0,0,0,0,0,0,0,0,0,-1,1679,1107,0,0
462,-83,0,0,0,0,0,0,0,0,0,-1,1686,1107,0,0
469,-83,0,0,0,0,0,0,0,0,0,-1,1693,1107,0,0
476,-83,0,0,0,0,0,0,0,0,0,-1,1700,1107,0,0
483,-83,0,0,0,0,0,0,0,0,0,-1,1707,1107,0,0
490,-83,0,0,0,0,0,0,0,0,0,-1,1714,1107,0,0
497,-83,0,0,0,0,0,0,0,0,0,-1,1721,1107,0,0
504,-83,0,0,0,0,0,0,0,0,0,-1,1728,1107,0,0
511,-83,0,0,0,0,0,0,0,0,0,-1,1735,1107,0,0
518,-83,0,0,0,0,0,0,0,0,0,-1,1742,1107,0,0
525,-83,0,0,0,0,0,0,0,0,0,-1,1749,1107,0,0
532,-83,0,0,0,0,0,0,0,0,0,-1,1756,1107,0,0
539,-83,0,0,0,0,0,0,0,0,0,-1,1763,1107,0,0
546,-83,0,0,0,0,0,0,0,0,0,-1,1770,1107,0,0
553,-83,0,0,0,0,0,0,0,0,0,-1,1777,1107,0,0
560,-83,0,0,0,0,0,0,0,0,0,-1,1784,1107,0,0
567,-83,0,0,0,0,0,0,0,0,0,-1,1791,1107,0,0
574,-83,0,0,0,0,0,0,0,0,0,-1,1798,1107,0,0
581,-83,0,0,0,0,0,0,0,0,0,-1,1805,1107,0,0
588,-83,0,0,0,0,0,0,0,0,0,-1,1812,1107,0,0
595,-83,0,0,0,0,0,0,0,0,0,-1,1819,1107,0,0
602,-83,0,0,0,0,0,0,0,0,0,-1,1826,1107,0,0
609,-83,0,0,0,0,0,0,0,0,0,-1,1833,1107,0,0
616,-83,0,0,0,0,0,0,0,0,0,-1,1840,1107,0,0
623,-83,0,0,0,0,0,0,0,0,0,-1,1847,1107,0,0
630,-83,0,0,0,0,0,0,0,0,0,-1,1854,1107,0,0
637,-83,0,0,0,0,0,0,0,0,0,-1,1861,1107,0,0
644,-83,19.2827,2.44995,0.00801814,-0.00167464,0.00158881,0.00827193,-0.00192842,0.158396,0.00625727,0.0358336,1868,1107,19.2827,-2.44993
651,-83,19.3171,2.44226,0.00578848,-0.00202949,0.00114379,0.00595238,-0.00219339,0.14233,0.00486702,0.041334,1875,1107,19.3172,-2.44223
658,-83,19.3274,2.36755,0.00428779,-0.00212958,0.000835355,0.00439474,-0.00223654,0.127344,0.00389557,0.0429994,1882,1107,19.3274,-2.36758
665,-83,19.1776,2.16907,0.00322499,-0.00200403,0.000456393,0.00326452,-0.00204357,0.0864101,0.00309153,0.0386665,1889,1107,19.1776,-2.16909
672,-83,19.285,2.25244,0.00178851,-0.00215374,0.00100217,0.00202865,-0.00239388,0.235183,0.00255625,0.03684,1896,1107,19.2851,-2.25241
679,-83,19.4033,2.37659,0.000123082,-0.00246104,0.00203001,0.00123734,-0.0035753,0.501992,0.0028858,0.0381362,1903,1107,19.4033,-2.37657
686,-83,19.2985,2.42896,-0.00135887,-0.00273612,0.00306096,0.00108998,-0.00518496,0.674755,0.00387145,0.0360656,1910,1107,19.2984,-2.42896
693,-83,19.2455,2.49548,-0.00249717,-0.00295164,0.00397372,0.0012558,-0.00670461,0.756837,0.00494182,0.035515,1917,1107,19.2455,-2.49548
700,-83,19.3243,2.46851,-0.00344476,-0.00308985,0.00462392,0.00136002,-0.00789463,0.804578,0.0057701,0.0324544,1924,1107,19.3243,-2.46855
707,-83,19.3596,2.33569,-0.00411939,-0.00305903,0.00512435,0.00156249,-0.00874091,0.836946,0.00641188,0.0251224,1931,1107,19.3596,-2.33567
714,-83,19.3547,2.95251,0,0,0,0,0,0,0,-1,1938,1107,19.3547,-2.95247
721,-83,18.9537,3.47034,-0.00462785,-0.00270138,0.00561857,0.00203592,-0.00936515,0.870292,0.00702117,0.0267725,1945,1107,18.9537,-3.47031
728,-83,18.7327,3.69275,-0.00478347,-0.00238761,0.00543007,0.0019751,-0.00914618,0.893965,0.00685138,0.0203521,1952,1107,18.7327,-3.69277
735,-83,18.6796,3.6427,-0.00460117,-0.00195414,0.00503699,0.00193032,-0.00848563,0.913874,0.00639833,0.0207228,1959,1107,18.6796,-3.64265
742,-83,18.7238,3.60803,-0.00417997,-0.00142477,0.0043849,0.00179383,-0.00739857,0.9376,0.00562647,0.0129672,1966,1107,18.7237,-3.60804
749,-83,18.7535,3.56177,-0.00388235,-0.000719224,0.00352079,0.00155891,-0.00616048,0.996495,0.00471336,0.0119882,1973,1107,18.7535,-3.56182
756,-83,18.7699,3.51477,-0.00367797,-0.000177335,0.00234041,0.000994868,-0.00485017,1.10647,0.00361105,0.0136818,1980,1107,18.77,-3.51483
763,-83,18.7703,3.42981,-0.00356282,0.000450932,0.000859641,0.000627296,-0.00373919,1.36845,0.00272605,0.0111764,1987,1107,18.7703,-3.42976
770,-83,18.7551,3.36353,-0.00380557,0.001004,-0.000588087,0.00107486,-0.00387644,-1.45088,0.0030073,0.013395,1994,1107,18.7552,-3.36348
777,-83,18.7323,3.30066,-0.00497507,0.00114799,-0.00154673,0.00151653,-0.0053436,-1.33689,0.00416107,0.0147673,2001,1107,18.7323,-3.30071
784,-83,18.6892,3.27417,-0.00723556,0.000820071,-0.00230261,0.00143179,-0.00784728,-1.31113,0.00576832,0.0242092,2008,1107,18.6892,-3.27422
791,-83,18.6261,3.3418,-0.0105882,3.76234e-05,-0.00334938,0.00100527,-0.0115558,-1.28955,0.00805991,0.0437697,2015,1107,18.6261,-3.34179
798,-83,18.5009,3.42468,0,0,0,0,0,0,0,-1,2022,1107,18.5008,-3.42472
805,-83,18.0079,3.01624,0,0,0,0,0,0,0,-1,2029,1107,18.008,-3.01621
812,-83,17.5537,2.32593,0,0,0,0,0,0,0,-1,2036,1107,17.5536,-2.32592
-700,-90,0,0,0,0,0,0,0,0,0,-1,524,1114,0,0
-693,-90,-11.631,1.79785,0.0347827,0.0464752,-0.000151442,0.0464772,0.0347807,-1.55785,0.0279151,0.0487408,531,1114,-11.631,-1.79786
-686,-90,-11.3418,1.36597,0.0270698,0.0379235,-0.0017491,0.0381984,0.0267949,-1.4149,0.0226428,0.0460558,538,1114,-11.3418,-1.36596
-679,-90,-11.425,1.02454,0.0207017,0.0304993,-0.00252578,0.0311121,0.0200889,-1.33277,0.018215,0.0435926,545,1114,-11.425,-1.02453
-672,-90,-11.5318,1.12,0.0154585,0.0241197,-0.00279688,0.0249443,0.0146338,-1.28407,0.0144735,0.0438626,552,1114,-11.5318,-1.12
-665,-90,-11.8631,0.276123,0,0,0,0,0,0,0,-1,559,1114,-11.8631,-0.276063
-658,-90,-11.8997,0.412354,0.00775299,0.0141597,-0.00254686,0.0150488,0.00686392,-1.23494,0.00869957,0.0442224,566,1114,-11.8997,-0.412295
-651,-90,-11.927,0.557373,0.00514931,0.0104385,-0.00220957,0.0112401,0.00434774,-1.22279,0.00654468,0.0289561,573,1114,-11.927,-0.557356
-644,-90,-11.9469,0.767334,0.00291923,0.00742905,-0.00210161,0.00825657,0.00209171,-1.19568,0.00495651,0.0129048,580,1114,-11.9469,-0.767311
-637,-90,-11.9318,0.920044,0.00102061,0.00453384,-0.00211847,0.00552925,2.52016e-05,-1.13154,0.00367779,0.0111343,587,1114,-11.9318,-0.920071
-630,-90,-11.9381,1.01807,-0.00034426,0.00238399,-0.00263647,0.00398833,-0.0019486,-1.02414,0.00349447,0.0111363,594,1114,-11.9381,-1.01801
-623,-90,-11.9352,1.09753,-0.0014815,0.00149823,-0.00300263,0.0033603,-0.00334357,-1.01569,0.00387048,0.00920502,601,1114,-11.9352,-1.09754
-616,-90,-11.9402,1.19934,-0.00211102,0.00031973,-0.00358764,0.00289227,-0.00468356,-0.948715,0.00441448,0.00781138,608,1114,-11.9402,-1.19938
-609,-90,-11.9429,1.27209,-0.00256629,-0.000333945,-0.0040266,0.00272832,-0.00562856,-0.920603,0.00492074,0.0108056,615,1114,-11.9429,-1.27207
-602,-90,-11.9609,1.37378,-0.00287891,-0.000621944,-0.0045971,0.00298315,-0.00648401,-0.905757,0.00558906,0.0112704,622,1114,-11.9609,-1.37378
-595,-90,-11.9073,1.49512,-0.00321957,-0.000781312,-0.00521364,0.00335384,-0.00735473,-0.900252,0.0063248,0.0132614,629,1114,-11.9073,-1.49513
-588,-90,-12.1337,1.29443,0,0,0,0,0,0,0,-1,636,1114,-12.1337,-1.29446
-581,-90,-12.374,0.71521,-0.00362195,-0.000932329,-0.00559202,0.00347431,-0.00802859,-0.903401,0.0068125,0.0343758,643,1114,-12.3741,-0.715162
-574,-90,-12.4718,0.387695,-0.00334427,-0.000928085,-0.00556835,0.00356172,-0.00783407,-0.892221,0.00673173,0.0345078,650,1114,-12.4718,-0.387649
-567,-90,-12.4875,0.492798,-0.00293395,-0.000822518,-0.00525373,0.00348052,-0.00723699,-0.884551,0.00631318,0.0363804,657,1114,-12.4875,-0.492858
-560,-90,-12.5566,0.676392,-0.00216851,-0.000664465,-0.00464511,0.0032891,-0.00612207,-0.86565,0.00551499,0.0386434,664,1114,-12.5566,-0.676386
-553,-90,-12.4528,0.815918,-0.00103399,-0.000492974,-0.00378022,0.00302641,-0.00455337,-0.821116,0.00440569,0.0391257,671,1114,-12.4528,-0.81595
-546,-90,-12.3062,0.55896,0.000571879,-0.000361292,-0.00267304,0.00281875,-0.00260816,-0.698992,0.00313401,0.0410103,678,1114,-12.3062,-0.559001
-539,-90,-12.3036,0.252563,0.00277394,-0.000363136,-0.00144964,0.00334123,-0.000930426,-0.373012,0.00259387,0.0408607,685,1114,-12.3037,-0.252511
-532,-90,-12.5018,0.418701,0.00479763,-0.000611904,-0.00116844,0.00503922,-0.000853495,-0.20389,0.00367715,0.0411745,692,1114,-12.5018,-0.418696
-525,-90,0,0,0,0,0,0,0,0,0,-1,699,1114,0,0
-518,-90,0,0,0,0,0,0,0,0,0,-1,706,1114,0,0
-511,-90,0,0,0,0,0,0,0,0,0,-1,713,1114,0,0
-504,-90,0,0,0,0,0,0,0,0,0,-1,720,1114,0,0
-497,-90,0,0,0,0,0,0,0,0,0,-1,727,1114,0,0
-490,-90,0,0,0,0,0,0,0,0,0,-1,734,1114,0,0
-483,-90,0,0,0,0,0,0,0,0,0,-1,741,1114,0,0
-476,-90,0,0,0,0,0,0,0,0,0,-1,748,1114,0,0
-469,-90,0,0,0,0,0,0,0,0,0,-1,755,1114,0,0
-462,-90,0,0,0,0,0,0,0,0,0,-1,762,1114,0,0
-455,-90,0,0,0,0,0,0,0,0,0,-1,769,1114,0,0
-448,-90,0,0,0,0,0,0,0,0,0,-1,776,1114,0,0
-441,-90,0,0,0,0,0,0,0,0,0,-1,783,1114,0,0
-434,-90,0,0,0,0,0,0,0,0,0,-1,790,1114,0,0
-427,-90,0,0,0,0,0,0,0,0,0,-1,797,1114,0,0
-420,-90,0,0,0,0,0,0,0,0,0,-1,804,1114,0,0
-413,-90,0,0,0,0,0,0,0,0,0,-1,811,1114,0,0
-406,-90,0,0,0,0,0,0,0,0,0,-1,818,1114,0,0
-399,-90,0,0,0,0,0,0,0,0,0,-1,825,1114,0,0
-392,-90,0,0,0,0,0,0,0,0,0,-1,832,1114,0,0
-385,-90,0,0,0,0,0,0,0,0,0,-1,839,1114,0,0
-378,-90,0,0,0,0,0,0,0,0,0,-1,846,1114,0,0
-371,-90,0,0,0,0,0,0,0,0,0,-1,853,1114,0,0
-364,-90,0,0,0,0,0,0,0,0,0,-1,860,1114,0,0
-357,-90,0,0,0,0,0,0,0,0,0,-1,867,1114,0,0
-350,-90,0,0,0,0,0,0,0,0,0,-1,874,1114,0,0
-343,-90,0,0,0,0,0,0,0,0,0,-1,881,1114,0,0
-336,-90,0,0,0,0,0,0,0,0,0,-1,888,1114,0,0
-329,-90,0,0,0,0,0,0,0,0,0,-1,895,1114,0,0
-322,-90,0,0,0,0,0,0,0,0,0,-1,902,1114,0,0
-315,-90,0,0,0,0,0,0,0,0,0,-1,909,1114,0,0
-308,-90,0,0,0,0,0,0,0,0,0,-1,916,1114,0,0
-301,-90,0,0,0,0,0,0,0,0,0,-1,923,1114,0,0
-294,-90,0,0,0,0,0,0,0,0,0,-1,930,1114,0,0
-287,-90,0,0,0,0,0,0,0,0,0,-1,937,1114,0,0
-280,-90,0,0,0,0,0,0,0,0,0,-1,944,1114,0,0
-273,-90,0,0,0,0,0,0,0,0,0,-1,951,1114,0,0
-266,-90,0,0,0,0,0,0,0,0,0,-1,958,1114,0,0
-259,-90,0,0,0,0,0,0,0,0,0,-1,965,1114,0,0
-252,-90,0,0,0,0,0,0,0,0,0,-1,972,1114,0,0
-245,-90,0,0,0,0,0,0,0,0,0,-1,979,1114,0,0
-238,-90,0,0,0,0,0,0,0,0,0,-1,986,1114,0,0
-231,-90,0,0,0,0,0,0,0,0,0,-1,993,1114,0,0
-224,-90,0,0,0,0,0,0,0,0,0,-1,1000,1114,0,0
-217,-90,0,0,0,0,0,0,0,0,0,-1,1007,1114,0,0
-210,-90,0,0,0,0,0,0,0,0,0,-1,1014,1114,0,0
-203,-90,0,0,0,0,0,0,0,0,0,-1,1021,1114,0,0
-196,-90,0,0,0,0,0,0,0,0,0,-1,1028,1114,0,0
-189,-90,0,0,0,0,0,0,0,0,0,-1,1035,1114,0,0
-182,-90,0,0,0,0,0,0,0,0,0,-1,1042,1114,0,0
-175,-90,0,0,0,0,0,0,0,0,0,-1,1049,1114,0,0
-168,-90,0,0,0,0,0,0,0,0,0,-1,1056,1114,0,0
-161,-90,0,0,0,0,0,0,0,0,0,-1,1063,1114,0,0
-154,-90,0,0,0,0,0,0,0,0,0,-1,1070,1114,0,0
-147,-90,0,0,0,0,0,0,0,0,0,-1,1077,1114,0,0
-140,-90,0,0,0,0,0,0,0,0,0,-1,1084,1114,0,0
-133,-90,0,0,0,0,0,0,0,0,0,-1,1091,1114,0,0
-126,-90,0,0,0,0,0,0,0,0,0,-1,1098,1114,0,0
-119,-90,0,0,0,0,0,0,0,0,0,-1,1105,1114,0,0
-112,-90,0,0,0,0,0,0,0,0,0,-1,1112,1114,0,0
-105,-90,0,0,0,0,0,0,0,0,0,-1,1119,1114,0,0
-98,-90,0,0,0,0,0,0,0,0,0,-1,1126,1114,0,0
-91,-90,0,0,0,0,0,0,0,0,0,-1,1133,1114,0,0
-84,-90,0,0,0,0,0,0,0,0,0,-1,1140,1114,0,0
-77,-90,0,0,0,0,0,0,0,0,0,-1,1147,1114,0,0
-70,-90,0,0,0,0,0,0,0,0,0,-1,1154,1114,0,0
-63,-90,0,0,0,0,0,0,0,0,0,-1,1161,1114,0,0
-56,-90,0,0,0,0,0,0,0,0,0,-1,1168,1114,0,0
-49,-90,0,0,0,0,0,0,0,0,0,-1,1175,1114,0,0
-42,-90,0,0,0,0,0,0,0,0,0,-1,1182,1114,0,0
-35,-90,0,0,0,0,0,0,0,0,0,-1,1189,1114,0,0
-28,-90,0,0,0,0,0,0,0,0,0,-1,1196,1114,0,0
-21,-90,0,0,0,0,0,0,0,0,0,-1,1203,1114,0,0
-14,-90,0,0,0,0,0,0,0,0,0,-1,1210,1114,0,0
-7,-90,0,0,0,0,0,0,0,0,0,-1,1217,1114,0,0
0,-90,0,0,0,0,0,0,0,0,0,-1,1224,1114,0,0
7,-90,0,0,0,0,0,0,0,0,0,-1,1231,1114,0,0
14,-90,0,0,0,0,0,0,0,0,0,-1,1238,1114,0,0
21,-90,0,0,0,0,0,0,0,0,0,-1,1245,1114,0,0
28,-90,0,0,0,0,0,0,0,0,0,-1,1252,1114,0,0
35,-90,0,0,0,0,0,0,0,0,0,-1,1259,1114,0,0
42,-90,0,0,0,0,0,0,0,0,0,-1,1266,1114,0,0
49,-90,0,0,0,0,0,0,0,0,0,-1,1273,1114,0,0
56,-90,0,0,0,0,0,0,0,0,0,-1,1280,1114,0,0
63,-90,0,0,0,0,0,0,0,0,0,-1,1287,1114,0,0
70,-90,0,0,0,0,0,0,0,0,0,-1,1294,1114,0,0
77,-90,0,0,0,0,0,0,0,0,0,-1,1301,1114,0,0
84,-90,0,0,0,0,0,0,0,0,0,-1,1308,1114,0,0
91,-90,0,0,0,0,0,0,0,0,0,-1,1315,1114,0,0
98,-90,0,0,0,0,0,0,0,0,0,-1,1322,1114,0,0
105,-90,0,0,0,0,0,0,0,0,0,-1,1329,1114,0,0
112,-90,0,0,0,0,0,0,0,0,0,-1,1336,1114,0,0
119,-90,0,0,0,0,0,0,0,0,0,-1,1343,1114,0,0
126,-90,0,0,0,0,0,0,0,0,0,-1,1350,1114,0,0
133,-90,0,0,0,0,0,0,0,0,0,-1,1357,1114,0,0
140,-90,0,0,0,0,0,0,0,0,0,-1,1364,1114,0,0
147,-90,0,0,0,0,0,0,0,0,0,-1,1371,1114,0,0
154,-90,0,0,0,0,0,0,0,0,0,-1,1378,1114,0,0
161,-90,0,0,0,0,0,0,0,0,0,-1,1385,1114,0,0
168,-90,0,0,0,0,0,0,0,0,0,-1,1392,1114,0,0
175,-90,0,0,0,0,0,0,0,0,0,-1,1399,1114,0,0
182,-90,0,0,0,0,0,0,0,0,0,-1,1406,1114,0,0
189,-90,0,0,0,0,0,0,0,0,0,-1,1413,1114,0,0
196,-90,0,0,0,0,0,0,0,0,0,-1,1420,1114,0,0
203,-90,0,0,0,0,0,0,0,0,0,-1,1427,1114,0,0
210,-90,0,0,0,0,0,0,0,0,0,-1,1434,1114,0,0
217,-90,0,0,0,0,0,0,0,0,0,-1,1441,1114,0,0
224,-90,0,0,0,0,0,0,0,0,0,-1,1448,1114,0,0
231,-90,0,0,0,0,0,0,0,0,0,-1,1455,1114,0,0
238,-90,0,0,0,0,0,0,0,0,0,-1,1462,1114,0,0
245,-90,0,0,0,0,0,0,0,0,0,-1,1469,1114,0,0
252,-90,0,0,0,0,0,0,0,0,0,-1,1476,1114,0,0
259,-90,0,0,0,0,0,0,0,0,0,-1,1483,1114,0,0
266,-90,0,0,0,0,0,0,0,0,0,-1,1490,1114,0,0
273,-90,0,0,0,0,0,0,0,0,0,-1,1497,1114,0,0
280,-90,0,0,0,0,0,0,0,0,0,-1,1504,1114,0,0
287,-90,0,0,0,0,0,0,0,0,0,-1,1511,1114,0,0
294,-90,0,0,0,0,0,0,0,0,0,-1,1518,1114,0,0
301,-90,0,0,0,0,0,0,0,0,0,-1,1525,1114,0,0
308,-90,0,0,0,0,0,0,0,0,0,-1,1532,1114,0,0
315,-90,0,0,0,0,0,0,0,0,0,-1,1539,1114,0,0
322,-90,0,0,0,0,0,0,0,0,0,-1,1546,1114,0,0
329,-90,0,0,0,0,0,0,0,0,0,-1,1553,1114,0,0
336,-90,0,0,0,0,0,0,0,0,0,-1,1560,1114,0,0
343,-90,0,0,0,0,0,0,0,0,0,-1,1567,1114,0,0
350,-90,0,0,0,0,0,0,0,0,0,-1,1574,1114,0,0
357,-90,0,0,0,0,0,0,0,0,0,-1,1581,1114,0,0
364,-90,0,0,0,0,0,0,0,0,0,-1,1588,1114,0,0
371,-90,0,0,0,0,0,0,0,0,0,-1,1595,1114,0,0
378,-90,0,0,0,0,0,0,0,0,0,-1,1602,1114,0,0
385,-90,0,0,0,0,0,0,0,0,0,-1,1609,1114,0,0
392,-90,0,0,0,0,0,0,0,0,0,-1,1616,1114,0,0
399,-90,0,0,0,0,0,0,0,0,0,-1,1623,1114,0,0
406,-90,0,0,0,0,0,0,0,0,0,-1,1630,1114,0,0
413,-90,0,0,0,0,0,0,0,0,0,-1,1637,1114,0,0
420,-90,0,0,0,0,0,0,0,0,0,-1,1644,1114,0,0
427,-90,0,0,0,0,0,0,0,0,0,-1,1651,1114,0,0
434,-90,0,0,0,0,0,0,0,0,0,-1,1658,1114,0,0
441,-90,0,0,0,0,0,0,0,0,0,-1,1665,1114,0,0
448,-90,0,0,0,0,0,0,0,0,0,-1,1672,1114,0,0
455,-90,0,0,0,0,0,0,0,0,0,-1,1679,1114,0,0
462,-90,0,0,0,0,0,0,0,0,0,-1,1686,1114,0,0
469,-90,0,0,0,0,0,0,0,0,0,-1,1693,1114,0,0
476,-90,0,0,0,0,0,0,0,0,0,-1,1700,1114,0,0
483,-90,0,0,0,0,0,0,0,0,0,-1,1707,1114,0,0
490,-90,0,0,0,0,0,0,0,0,0,-1,1714,1114,0,0
497,-90,0,0,0,0,0,0,0,0,0,-1,1721,1114,0,0
504,-90,0,0,0,0,0,0,0,0,0,-1,1728,1114,0,0
511,-90,0,0,0,0,0,0,0,0,0,-1,1735,1114,0,0
518,-90,0,0,0,0,0,0,0,0,0,-1,1742,1114,0,0
525,-90,0,0,0,0,0,0,0,0,0,-1,1749,1114,0,0
532,-90,0,0,0,0,0,0,0,0,0,-1,1756,1114,0,0
539,-90,0,0,0,0,0,0,0,0,0,-1,1763,1114,0,0
546,-90,0,0,0,0,0,0,0,0,0,-1,1770,1114,0,0
553,-90,0,0,0,0,0,0,0,0,0,-1,1777,1114,0,0
560,-90,0,0,0,0,0,0,0,0,0,-1,1784,1114,0,0
567,-90,0,0,0,0,0,0,0,0,0,-1,1791,1114,0,0
574,-90,0,0,0,0,0,0,0,0,0,-1,1798,1114,0,0
581,-90,0,0,0,0,0,0,0,0,0,-1,1805,1114,0,0
588,-90,0,0,0,0,0,0,0,0,0,-1,1812,1114,0,0
595,-90,0,0,0,0,0,0,0,0,0,-1,1819,1114,0,0
602,-90,0,0,0,0,0,0,0,0,0,-1,1826,1114,0,0
609,-90,0,0,0,0,0,0,0,0,0,-1,1833,1114,0,0
616,-90,0,0,0,0,0,0,0,0,0,-1,1840,1114,0,0
623,-90,0,0,0,0,0,0,0,0,0,-1,1847,1114,0,0
630,-90,0,0,0,0,0,0,0,0,0,-1,1854,1114,0,0
637,-90,0,0,0,0,0,0,0,0,0,-1,1861,1114,0,0
644,-90,19.2382,2.42944,0.0092651,-0.00211826,0.00183164,0.00955256,-0.00240572,0.155672,0.00730356,0.036008,1868,1114,19.2382,-2.42945
651,-90,19.2778,2.43188,0.00667201,-0.00245184,0.00137436,0.00687454,-0.00265437,0.14631,0.00567852,0.0409451,1875,1114,19.2779,-2.43185
658,-90,19.3325,2.42615,0.00500415,-0.00248362,0.00094347,0.0051212,-0.00260067,0.123431,0.0045367,0.0428606,1882,1114,19.3325,-2.4262
665,-90,19.2368,2.20398,0.00364671,-0.00231173,0.00057364,0.00370144,-0.00236645,0.0951096,0.00353144,0.0412166,1889,1114,19.2369,-2.20399
672,-90,19.2887,2.30579,0.00183801,-0.00247955,0.00117064,0.00213499,-0.00277653,0.248444,0.00284372,0.0410903,1896,1114,19.2887,-2.30578
679,-90,19.3606,2.48718,-7.82906e-05,-0.00276499,0.00216658,0.00112761,-0.00397089,0.507888,0.00309243,0.0388919,1903,1114,19.3606,-2.48714
686,-90,19.3569,2.4165,-0.00171219,-0.00302092,0.00315428,0.00085488,-0.00558799,0.683123,0.00404055,0.0346167,1910,1114,19.3569,-2.41655
693,-90,19.3352,2.37036,-0.00294649,-0.00321188,0.00402315,0.000946148,-0.00710452,0.768912,0.00508118,0.0331596,1917,1114,19.3352,-2.37039
700,-90,19.3855,2.41479,-0.00395473,-0.00332701,0.00462481,0.000994584,-0.00827632,0.819279,0.00587719,0.0289577,1924,1114,19.3855,-2.41474
707,-90,19.3754,1.91284,0,0,0,0,0,0,0,-1,1931,1114,19.3754,-1.9128
714,-90,19.292,2.66443,-0.00497499,-0.00309095,0.00549037,0.00153762,-0.00960357,0.870359,0.00697167,0.0404407,1938,1114,19.292,-2.66441
721,-90,18.8634,3.69421,-0.00512401,-0.0028434,0.0055712,0.00170299,-0.0096704,0.886343,0.00708317,0.0248891,1945,1114,18.8634,-3.69427
728,-90,18.6964,3.72131,-0.00522447,-0.00250203,0.0053933,0.00169918,-0.00942568,0.909012,0.00692007,0.017497,1952,1114,18.6965,-3.72131
735,-90,18.6782,3.64355,-0.00496142,-0.002036,0.00502347,0.00173338,-0.0087308,0.927069,0.00647612,0.0189487,1959,1114,18.6782,-3.64359
742,-90,18.6709,3.59241,-0.00446436,-0.00145098,0.00442767,0.00171933,-0.00763468,0.949397,0.00574924,0.0175694,1966,1114,18.6708,-3.59235
749,-90,18.7161,3.51038,-0.00406993,-0.00070422,0.00362466,0.00160919,-0.00638334,1.00273,0.00488119,0.014319,1973,1114,18.7161,-3.51032
756,-90,18.7273,3.46362,-0.00375047,-6.00061e-05,0.00247755,0.00118395,-0.00499443,1.10547,0.00378649,0.0142089,1980,1114,18.7273,-3.46357
763,-90,18.7185,3.40771,-0.00348312,0.000692187,0.00106595,0.00094858,-0.00373951,1.33475,0.00286209,0.0121767,1987,1114,18.7185,-3.40772
770,-90,18.6995,3.33484,-0.00361291,0.00137457,-0.000249825,0.00138705,-0.00362539,-1.52087,0.00298857,0.0145641,1994,1114,18.6994,-3.3349
777,-90,18.6678,3.27612,-0.00468312,0.00165661,-0.00106791,0.00183166,-0.00485817,-1.40832,0.00399195,0.0136314,2001,1114,18.6678,-3.27606
784,-90,18.6445,3.27576,-0.00671033,0.00157876,-0.001792,0.00194958,-0.00708115,-1.36675,0.00548731,0.0271998,2008,1114,18.6446,-3.27581
791,-90,18.6183,3.37634,-0.00961783,0.00116111,-0.00291618,0.00189949,-0.0103562,-1.32281,0.00761666,0.0444113,2015,1114,18.6183,-3.37637
798,-90,18.6051,3.49219,0,0,0,0,0,0,0,-1,2022,1114,18.6051,-3.49215
805,-90,18.7086,3.53577,0,0,0,0,0,0,0,-1,2029,1114,18.7086,-3.53577
812,-90,17.0664,2.75989,0,0,0,0,0,0,0,-1,2036,1114,17.0663,-2.75992
-700,-97,0,0,0,0,0,0,0,0,0,-1,524,1121,0,0
-693,-97,-11.2919,0.360596,0.0310592,0.0451163,-0.00304218,0.0457464,0.030429,-1.36655,0.0268878,0.0477405,531,1121,-11.2919,-0.360575
-686,-97,-11.4376,0.459595,0.0239745,0.0376648,-0.00422361,0.038863,0.0227764,-1.29438,0.0225481,0.0490506,538,1121,-11.4376,-0.45964
-679,-97,-11.4601,0.5896,0.0181976,0.0309364,-0.00459986,0.0324237,0.0167103,-1.25807,0.0187228,0.0481395,545,1121,-11.4601,-0.589653
-672,-97,-11.4936,0.798584,0.0134909,0.0249638,-0.00450054,0.0265186,0.0119362,-1.23817,0.0153359,0.0460071,552,1121,-11.4936,-0.798607
-665,-97,-11.6637,1.05896,0.00967558,0.0197315,-0.00412761,0.0212087,0.00819834,-1.22711,0.0123495,0.0469214,559,1121,-11.6637,-1.05894
-658,-97,-11.8585,0.690796,0.00663942,0.015221,-0.00361453,0.0165405,0.00531989,-1.22077,0.00975014,0.0445854,566,1121,-11.8585,-0.69075
-651,-97,-11.8432,0.675781,0.00433952,0.0114115,-0.0030234,0.0125279,0.00322319,-1.21709,0.00751168,0.028945,573,1121,-11.8432,-0.675725
-644,-97,-11.8579,0.785522,0.00241434,0.00831477,-0.00268264,0.00935208,0.00137703,-1.20183,0.00583017,0.00987752,580,1121,-11.8579,-0.785519
-637,-97,-11.8478,0.896484,0.000803406,0.00529702,-0.00243243,0.00636154,-0.000261112,-1.15827,0.00433069,0.0102871,587,1121,-11.8478,-0.896423
-630,-97,-11.8492,0.99353,-0.000433192,0.00299115,-0.00271784,0.00449118,-0.00193321,-1.06648,0.00380586,0.00928311,594,1121,-11.8492,-0.993517
-623,-97,-11.8516,1.11194,-0.00146654,0.00182951,-0.00294998,0.00356059,-0.00319762,-1.04013,0.00390373,0.0103694,601,1121,-11.8516,-1.11194
-616,-97,-11.851,1.21448,-0.00215652,0.000537398,-0.00336796,0.00281776,-0.00443688,-0.975622,0.0042231,0.0109724,608,1121,-11.851,-1.21445
-609,-97,-11.8532,1.28906,-0.00269217,-0.000209342,-0.00374078,0.00249063,-0.00539215,-0.94561,0.00465276,0.0133312,615,1121,-11.8532,-1.28912
-602,-97,-11.8621,1.36768,-0.00300424,-0.00045995,-0.00428224,0.00273511,-0.0061993,-0.929784,0.00528596,0.01283,622,1121,-11.8621,-1.36764
-595,-97,-11.8132,1.46179,-0.00332015,-0.000536539,-0.00486315,0.00313005,-0.00698674,-0.92477,0.00598073,0.0169654,629,1121,-11.8132,-1.46182
-588,-97,-11.9658,1.37891,0,0,0,0,0,0,0,-1,636,1121,-11.9658,-1.37889
-581,-97,-12.2987,0.834351,-0.00373209,-0.000600371,-0.00518983,0.00325468,-0.00758714,-0.931914,0.00642396,0.0353293,643,1121,-12.2987,-0.834318
-574,-97,-12.482,0.430908,-0.00339866,-0.000542393,-0.00518993,0.00341231,-0.00735336,-0.919662,0.00635287,0.0361351,650,1121,-12.482,-0.430938
-567,-97,-12.468,0.493652,-0.00296876,-0.000394983,-0.00494221,0.00342513,-0.00678888,-0.912764,0.00600271,0.0351458,657,1121,-12.4679,-0.493713
-560,-97,-12.517,0.677979,-0.00216999,-0.000202971,-0.00442248,0.00334404,-0.005717,-0.894812,0.00529086,0.0387234,664,1121,-12.517,-0.677988
-553,-97,-12.4047,0.943481,-0.00097442,-1.06723e-05,-0.00365823,0.00319729,-0.00418238,-0.850883,0.00427329,0.0440946,671,1121,-12.4047,-0.943426
-546,-97,-12.36,0.573853,0.000740445,0.00012104,-0.00265152,0.00310029,-0.0022388,-0.727261,0.00309587,0.0435461,678,1121,-12.3601,-0.57382
-539,-97,-12.2557,0.0119629,0,0,0,0,0,0,0,-1,685,1121,-12.2557,-0.0119475
-532,-97,-12.4988,0.475098,0,0,0,0,0,0,0,-1,692,1121,-12.4989,-0.47508
-525,-97,0,0,0,0,0,0,0,0,0,-1,699,1121,0,0
-518,-97,0,0,0,0,0,0,0,0,0,-1,706,1121,0,0
-511,-97,0,0,0,0,0,0,0,0,0,-1,713,1121,0,0
-504,-97,0,0,0,0,0,0,0,0,0,-1,720,1121,0,0
-497,-97,0,0,0,0,0,0,0,0,0,-1,727,1121,0,0
-490,-97,0,0,0,0,0,0,0,0,0,-1,734,1121,0,0
-483,-97,0,0,0,0,0,0,0,0,0,-1,741,1121,0,0
-476,-97,0,0,0,0,0,0,0,0,0,-1,748,1121,0,0
-469,-97,0,0,0,0,0,0,0,0,0,-1,755,1121,0,0
-462,-97,0,0,0,0,0,0,0,0,0,-1,762,1121,0,0
-455,-97,0,0,0,0,0,0,0,0,0,-1,769,1121,0,0
-448,-97,0,0,0,0,0,0,0,0,0,-1,776,1121,0,0
-441,-97,0,0,0,0,0,0,0,0,0,-1,783,1121,0,0
-434,-97,0,0,0,0,0,0,0,0,0,-1,790,1121,0,0
-427,-97,0,0,0,0,0,0,0,0,0,-1,797,1121,0,0
-420,-97,0,0,0,0,0,0,0,0,0,-1,804,1121,0,0
-413,-97,0,0,0,0,0,0,0,0,0,-1,811,1121,0,0
-406,-97,0,0,0,0,0,0,0,0,0,-1,818,1121,0,0
-399,-97,0,0,0,0,0,0,0,0,0,-1,825,1121,0,0
-392,-97,0,0,0,0,0,0,0,0,0,-1,832,1121,0,0
-385,-97,0,0,0,0,0,0,0,0,0,-1,839,1121,0,0
-378,-97,0,0,0,0,0,0,0,0,0,-1,846,1121,0,0
-371,-97,0,0,0,0,0,0,0,0,0,-1,853,1121,0,0
-364,-97,0,0,0,0,0,0,0,0,0,-1,860,1121,0,0
-357,-97,0,0,0,0,0,0,0,0,0,-1,867,1121,0,0
-350,-97,0,0,0,0,0,0,0,0,0,-1,874,1121,0,0
-343,-97,0,0,0,0,0,0,0,0,0,-1,881,1121,0,0
-336,-97,0,0,0,0,0,0,0,0,0,-1,888,1121,0,0
-329,-97,0,0,0,0,0,0,0,0,0,-1,895,1121,0,0
-322,-97,0,0,0,0,0,0,0,0,0,-1,902,1121,0,0
-315,-97,0,0,0,0,0,0,0,0,0,-1,909,1121,0,0
-308,-97,0,0,0,0,0,0,0,0,0,-1,916,1121,0,0
-301,-97,0,0,0,0,0,0,0,0,0,-1,923,1121,0,0
-294,-97,0,0,0,0,0,0,0,0,0,-1,930,1121,0,0
-287,-97,0,0,0,0,0,0,0,0,0,-1,937,1121,0,0
-280,-97,0,0,0,0,0,0,0,0,0,-1,944,1121,0,0
-273,-97,0,0,0,0,0,0,0,0,0,-1,951,1121,0,0
-266,-97,0,0,0,0,0,0,0,0,0,-1,958,1121,0,0
-259,-97,0,0,0,0,0,0,0,0,0,-1,965,1121,0,0
-252,-97,0,0,0,0,0,0,0,0,0,-1,972,1121,0,0
-245,-97,0,0,0,0,0,0,0,0,0,-1,979,1121,0,0
-238,-97,0,0,0,0,0,0,0,0,0,-1,986,1121,0,0
-231,-97,0,0,0,0,0,0,0,0,0,-1,993,1121,0,0
-224,-97,0,0,0,0,0,0,0,0,0,-1,1000,1121,0,0
-217,-97,0,0,0,0,0,0,0,0,0,-1,1007,1121,0,0
-210,-97,0,0,0,0,0,0,0,0,0,-1,1014,1121,0,0
-203,-97,0,0,0,0,0,0,0,0,0,-1,1021,1121,0,0
-196,-97,0,0,0,0,0,0,0,0,0,-1,1028,1121,0,0
-189,-97,0,0,0,0,0,0,0,0,0,-1,1035,1121,0,0
-182,-97,0,0,0,0,0,0,0,0,0,-1,1042,1121,0,0
-175,-97,0,0,0,0,0,0,0,0,0,-1,1049,1121,0,0
-168,-97,0,0,0,0,0,0,0,0,0,-1,1056,1121,0,0
-161,-97,0,0,0,0,0,0,0,0,0,-1,1063,1121,0,0
-154,-97,0,0,0,0,0,0,0,0,0,-1,1070,1121,0,0
-147,-97,0,0,0,0,0,0,0,0,0,-1,1077,1121,0,0
-140,-97,0,0,0,0,0,0,0,0,0,-1,1084,1121,0,0
-133,-97,0,0,0,0,0,0,0,0,0,-1,1091,1121,0,0
-126,-97,0,0,0,0,0,0,0,0,0,-1,1098,1121,0,0
-119,-97,0,0,0,0,0,0,0,0,0,-1,1105,1121,0,0
-112,-97,0,0,0,0,0,0,0,0,0,-1,1112,1121,0,0
-105,-97,0,0,0,0,0,0,0,0,0,-1,1119,1121,0,0
-98,-97,0,0,0,0,0,0,0,0,0,-1,1126,1121,0,0
-91,-97,0,0,0,0,0,0,0,0,0,-1,1133,1121,0,0
-84,-97,0,0,0,0,0,0,0,0,0,-1,1140,1121,0,0
-77,-97,0,0,0,0,0,0,0,0,0,-1,1147,1121,0,0
-70,-97,0,0,0,0,0,0,0,0,0,-1,1154,1121,0,0
-63,-97,0,0,0,0,0,0,0,0,0,-1,1161,1121,0,0
-56,-97,0,0,0,0,0,0,0,0,0,-1,1168,1121,0,0
-49,-97,0,0,0,0,0,0,0,0,0,-1,1175,1121,0,0
-42,-97,0,0,0,0,0,0,0,0,0,-1,1182,1121,0,0
-35,-97,0,0,0,0,0,0,0,0,0,-1,1189,1121,0,0
-28,-97,0,0,0,0,0,0,0,0,0,-1,1196,1121,0,0
-21,-97,0,0,0,0,0,0,0,0,0,-1,1203,1121,0,0
-14,-97,0,0,0,0,0,0,0,0,0,-1,1210,1121,0,0
-7,-97,0,0,0,0,0,0,0,0,0,-1,1217,1121,0,0
0,-97,0,0,0,0,0,0,0,0,0,-1,1224,1121,0,0
7,-97,0,0,0,0,0,0,0,0,0,-1,1231,1121,0,0
14,-97,0,0,0,0,0,0,0,0,0,-1,1238,1121,0,0
21,-97,0,0,0,0,0,0,0,0,0,-1,1245,1121,0,0
28,-97,0,0,0,0,0,0,0,0,0,-1,1252,1121,0,0
35,-97,0,0,0,0,0,0,0,0,0,-1,1259,1121,0,0
42,-97,0,0,0,0,0,0,0,0,0,-1,1266,1121,0,0
49,-97,0,0,0,0,0,0,0,0,0,-1,1273,1121,0,0
56,-97,0,0,0,0,0,0,0,0,0,-1,1280,1121,0,0
63,-97,0,0,0,0,0,0,0,0,0,-1,1287,1121,0,0
70,-97,0,0,0,0,0,0,0,0,0,-1,1294,1121,0,0
77,-97,0,0,0,0,0,0,0,0,0,-1,1301,1121,0,0
84,-97,0,0,0,0,0,0,0,0,0,-1,1308,1121,0,0
91,-97,0,0,0,0,0,0,0,0,0,-1,1315,1121,0,0
98,-97,0,0,0,0,0,0,0,0,0,-1,1322,1121,0,0
105,-97,0,0,0,0,0,0,0,0,0,-1,1329,1121,0,0
112,-97,0,0,0,0,0,0,0,0,0,-1,1336,1121,0,0
119,-97,0,0,0,0,0,0,0,0,0,-1,1343,1121,0,0
126,-97,0,0,0,0,0,0,0,0,0,-1,1350,1121,0,0
133,-97,0,0,0,0,0,0,0,0,0,-1,1357,1121,0,0
140,-97,0,0,0,0,0,0,0,0,0,-1,1364,1121,0,0
147,-97,0,0,0,0,0,0,0,0,0,-1,1371,1121,0,0
154,-97,0,0,0,0,0,0,0,0,0,-1,1378,1121,0,0
161,-97,0,0,0,0,0,0,0,0,0,-1,1385,1121,0,0
168,-97,0,0,0,0,0,0,0,0,0,-1,1392,1121,0,0
175,-97,0,0,0,0,0,0,0,0,0,-1,1399,1121,0,0
182,-97,0,0,0,0,0,0,0,0,0,-1,1406,1121,0,0
189,-97,0,0,0,0,0,0,0,0,0,-1,1413,1121,0,0
196,-97,0,0,0,0,0,0,0,0,0,-1,1420,1121,0,0
203,-97,0,0,0,0,0,0,0,0,0,-1,1427,1121,0,0
210,-97,0,0,0,0,0,0,0,0,0,-1,1434,1121,0,0
217,-97,0,0,0,0,0,0,0,0,0,-1,1441,1121,0,0
224,-97,0,0,0,0,0,0,0,0,0,-1,1448,1121,0,0
231,-97,0,0,0,0,0,0,0,0,0,-1,1455,1121,0,0
238,-97,0,0,0,0,0,0,0,0,0,-1,1462,1121,0,0
245,-97,0,0,0,0,0,0,0,0,0,-1,1469,1121,0,0
252,-97,0,0,0,0,0,0,0,0,0,-1,1476,1121,0,0
259,-97,0,0,0,0,0,0,0,0,0,-1,1483,1121,0,0
266,-97,0,0,0,0,0,0,0,0,0,-1,1490,1121,0,0
273,-97,0,0,0,0,0,0,0,0,0,-1,1497,1121,0,0
280,-97,0,0,0,0,0,0,0,0,0,-1,1504,1121,0,0
287,-97,0,0,0,0,0,0,0,0,0,-1,1511,1121,0,0
294,-97,0,0,0,0,0,0,0,0,0,-1,1518,1121,0,0
301,-97,0,0,0,0,0,0,0,0,0,-1,1525,1121,0,0
308,-97,0,0,0,0,0,0,0,0,0,-1,1532,1121,0,0
315,-97,0,0,0,0,0,0,0,0,0,-1,1539,1121,0,0
322,-97,0,0,0,0,0,0,0,0,0,-1,1546,1121,0,0
329,-97,0,0,0,0,0,0,0,0,0,-1,1553,1121,0,0
336,-97,0,0,0,0,0,0,0,0,0,-1,1560,1121,0,0
343,-97,0,0,0,0,0,0,0,0,0,-1,1567,1121,0,0
350,-97,0,0,0,0,0,0,0,0,0,-1,1574,1121,0,0
357,-97,0,0,0,0,0,0,0,0,0,-1,1581,1121,0,0
364,-97,0,0,0,0,0,0,0,0,0,-1,1588,1121,0,0
371,-97,0,0,0,0,0,0,0,0,0,-1,1595,1121,0,0
378,-97,0,0,0,0,0,0,0,0,0,-1,1602,1121,0,0
385,-97,0,0,0,0,0,0,0,0,0,-1,1609,1121,0,0
392,-97,0,0,0,0,0,0,0,0,0,-1,1616,1121,0,0
399,-97,0,0,0,0,0,0,0,0,0,-1,1623,1121,0,0
406,-97,0,0,0,0,0,0,0,0,0,-1,1630,1121,0,0
413,-97,0,0,0,0,0,0,0,0,0,-1,1637,1121,0,0
420,-97,0,0,0,0,0,0,0,0,0,-1,1644,1121,0,0
427,-97,0,0,0,0,0,0,0,0,0,-1,1651,1121,0,0
434,-97,0,0,0,0,0,0,0,0,0,-1,1658,1121,0,0
441,-97,0,0,0,0,0,0,0,0,0,-1,1665,1121,0,0
448,-97,0,0,0,0,0,0,0,0,0,-1,1672,1121,0,0
455,-97,0,0,0,0,0,0,0,0,0,-1,1679,1121,0,0
462,-97,0,0,0,0,0,0,0,0,0,-1,1686,1121,0,0
469,-97,0,0,0,0,0,0,0,0,0,-1,1693,1121,0,0
476,-97,0,0,0,0,0,0,0,0,0,-1,1700,1121,0,0
483,-97,0,0,0,0,0,0,0,0,0,-1,1707,1121,0,0
490,-97,0,0,0,0,0,0,0,0,0,-1,1714,1121,0,0
497,-97,0,0,0,0,0,0,0,0,0,-1,1721,1121,0,0
504,-97,0,0,0,0,0,0,0,0,0,-1,1728,1121,0,0
511,-97,0,0,0,0,0,0,0,0,0,-1,1735,1121,0,0
518,-97,0,0,0,0,0,0,0,0,0,-1,1742,1121,0,0
525,-97,0,0,0,0,0,0,0,0,0,-1,1749,1121,0,0
532,-97,0,0,0,0,0,0,0,0,0,-1,1756,1121,0,0
539,-97,0,0,0,0,0,0,0,0,0,-1,1763,1121,0,0
546,-97,0,0,0,0,0,0,0,0,0,-1,1770,1121,0,0
553,-97,0,0,0,0,0,0,0,0,0,-1,1777,1121,0,0
560,-97,0,0,0,0,0,0,0,0,0,-1,1784,1121,0,0
567,-97,0,0,0,0,0,0,0,0,0,-1,1791,1121,0,0
574,-97,0,0,0,0,0,0,0,0,0,-1,1798,1121,0,0
581,-97,0,0,0,0,0,0,0,0,0,-1,1805,1121,0,0
588,-97,0,0,0,0,0,0,0,0,0,-1,1812,1121,0,0
595,-97,0,0,0,0,0,0,0,0,0,-1,1819,1121,0,0
602,-97,0,0,0,0,0,0,0,0,0,-1,1826,1121,0,0
609,-97,0,0,0,0,0,0,0,0,0,-1,1833,1121,0,0
616,-97,0,0,0,0,0,0,0,0,0,-1,1840,1121,0,0
623,-97,0,0,0,0,0,0,0,0,0,-1,1847,1121,0,0
630,-97,0,0,0,0,0,0,0,0,0,-1,1854,1121,0,0
637,-97,0,0,0,0,0,0,0,0,0,-1,1861,1121,0,0
644,-97,19.2461,2.41174,0.00975464,-0.00204072,0.0019475,0.0100679,-0.00235395,0.159471,0.00761876,0.0393333,1868,1121,19.2462,-2.41174
651,-97,19.3044,2.40308,0.00706225,-0.00216069,0.00147526,0.00729248,-0.00239092,0.154811,0.00582456,0.039459,1875,1121,19.3044,-2.40313
658,-97,19.3228,2.4729,0.00537219,-0.00204246,0.000936653,0.00548868,-0.00215895,0.123735,0.00455273,0.0401214,1882,1121,19.3228,-2.47294
665,-97,19.3031,2.401,0.00378829,-0.0018723,0.000625009,0.00385648,-0.00194049,0.10867,0.00340727,0.0412658,1889,1121,19.3031,-2.401
672,-97,19.3492,2.29944,0.00168697,-0.00211675,0.00128186,0.00207863,-0.00250842,0.296532,0.00265221,0.0412292,1896,1121,19.3492,-2.29938
679,-97,19.3738,2.46265,-0.000411455,-0.00246319,0.00225368,0.00103886,-0.0039135,0.571815,0.00301553,0.0397906,1903,1121,19.3737,-2.4627
686,-97,19.3818,2.54895,-0.00216284,-0.00279301,0.00321055,0.000748055,-0.0057039,0.736485,0.0040749,0.0360723,1910,1121,19.3819,-2.54899
693,-97,19.4113,2.33801,-0.00346806,-0.00304484,0.00403957,0.000788663,-0.00730156,0.811567,0.00515076,0.0322565,1917,1121,19.4112,-2.33797
700,-97,19.4049,2.35742,-0.00452488,-0.00320927,0.00460267,0.000782358,-0.00851651,0.856377,0.00595561,0.0257993,1924,1121,19.4049,-2.35738
707,-97,19.3724,2.14014,0,0,0,0,0,0,0,-1,1931,1121,19.3724,-2.14016
714,-97,19.2008,2.95044,0,0,0,0,0,0,0,-1,1938,1121,19.2008,-2.9504
721,-97,18.6244,3.78162,0,0,0,0,0,0,0,-1,1945,1121,18.6244,-3.78159
728,-97,18.6566,3.70642,-0.0057365,-0.00254989,0.0053423,0.00143164,-0.00971804,0.93032,0.00700484,0.0177293,1952,1121,18.6566,-3.70646
735,-97,18.6179,3.64697,-0.00538886,-0.00208549,0.00497874,0.00150839,-0.00898274,0.945559,0.00654944,0.0178573,1959,1121,18.6179,-3.64694
742,-97,18.5896,3.59778,-0.00481605,-0.00148911,0.00441783,0.00156805,-0.00787321,0.965457,0.00584206,0.0156219,1966,1121,18.5896,-3.59776
749,-97,18.6331,3.51001,-0.00430503,-0.000702684,0.00363889,0.0015564,-0.00656412,1.01521,0.00497668,0.0180308,1973,1121,18.633,-3.50995
756,-97,18.6351,3.42175,-0.00382118,7.76389e-05,0.00244053,0.00125175,-0.0049953,1.12239,0.0038165,0.0148327,1980,1121,18.6351,-3.42174
763,-97,18.6375,3.37659,-0.00333887,0.000991018,0.00100007,0.00121084,-0.0035587,1.35443,0.00286275,0.0122665,1987,1121,18.6375,-3.37654
770,-97,18.6279,3.31274,-0.00326108,0.00185236,-0.000345284,0.00187557,-0.00328429,-1.50368,0.00301583,0.0104292,1994,1121,18.6279,-3.31272
777,-97,18.6248,3.25562,-0.00405512,0.00239413,-0.00129865,0.00264581,-0.0043068,-1.37937,0.00405209,0.0138317,2001,1121,18.6247,-3.25565
784,-97,18.6278,3.35974,-0.00555464,0.00276238,-0.00237295,0.00339178,-0.00618404,-1.31153,0.0056064,0.0337721,2008,1121,18.6278,-3.3598
791,-97,18.6176,3.4823,-0.00755179,0.0030236,-0.00412331,0.00444123,-0.00896942,-1.23965,0.00788839,0.0451109,2015,1121,18.6175,-3.48233
798,-97,18.6458,3.55212,0,0,0,0,0,0,0,-1,2022,1121,18.6457,-3.5521
805,-97,18.6952,3.60742,0,0,0,0,0,0,0,-1,2029,1121,18.6952,-3.60742
812,-97,18.7285,3.71338,0,0,0,0,0,0,0,-1,2036,1121,18.7285,-3.71344
-700,-104,0,0,0,0,0,0,0,0,0,-1,524,1128,0,0
-693,-104,-11.1812,0.526978,0.0308391,0.0435915,-0.00923961,0.0484414,0.0259891,-1.08742,0.0279925,0.0475632,531,1128,-11.1811,-0.526995
-686,-104,-11.288,0.732178,0.0236252,0.0372625,-0.00910015,0.0418152,0.0190725,-1.10692,0.024173,0.0478313,538,1128,-11.288,-0.732165
-679,-104,-11.3149,0.308838,0,0,0,0,0,0,0,-1,545,1128,-11.3149,-0.30879
-672,-104,-11.4206,0.491211,0.0131636,0.0255806,-0.00742288,0.0290491,0.0096951,-1.13367,0.0170777,0.0479601,552,1128,-11.4206,-0.491217
-665,-104,-11.5041,0.674072,0.00941325,0.0205092,-0.00632428,0.0233741,0.00654835,-1.14545,0.0139231,0.0451262,559,1128,-11.5041,-0.674016
-658,-104,-11.5637,0.687378,0.00644026,0.0160207,-0.00522474,0.0183188,0.00414217,-1.15642,0.0110926,0.0420351,566,1128,-11.5637,-0.687367
-651,-104,-11.6697,0.694092,0.00418646,0.0121447,-0.00417304,0.0139317,0.00239951,-1.16621,0.00860028,0.035317,573,1128,-11.6697,-0.69405
-644,-104,-11.7521,0.813354,0.00235692,0.00894179,-0.00342838,0.0104027,0.000896049,-1.16799,0.00665655,0.0140052,580,1128,-11.7521,-0.813347
-637,-104,-11.7264,0.885498,0.00087217,0.00584031,-0.00282665,0.00711929,-0.000406809,-1.14589,0.00488744,0.00998545,587,1128,-11.7264,-0.885484
-630,-104,-11.7332,0.968506,-0.000398818,0.00345112,-0.0028251,0.00494473,-0.00189243,-1.08446,0.00407645,0.0114497,594,1128,-11.7332,-0.968507
-623,-104,-11.7394,1.09045,-0.00145552,0.00207807,-0.00292658,0.00372982,-0.00310727,-1.05697,0.00395285,0.0132371,601,1128,-11.7395,-1.09041
-616,-104,-11.7838,1.21094,-0.00228087,0.000692217,-0.00321428,0.00274706,-0.00433571,-1.00199,0.00412338,0.0136823,608,1128,-11.7837,-1.21089
-609,-104,-11.8245,1.23938,-0.00297788,-0.000141799,-0.00357068,0.00228211,-0.00540179,-0.974416,0.00455655,0.0167199,615,1128,-11.8245,-1.23933
-602,-104,-11.7497,1.35767,-0.00336515,-0.000375133,-0.00413487,0.0025267,-0.00626698,-0.958866,0.00522788,0.0149153,622,1128,-11.7497,-1.35767
-595,-104,-11.7022,1.49902,-0.00373584,-0.000449661,-0.00470185,0.00288792,-0.00707343,-0.953493,0.00591799,0.0154921,629,1128,-11.7022,-1.499
-588,-104,-11.778,1.4751,0,0,0,0,0,0,0,-1,636,1128,-11.778,-1.47515
-581,-104,-12.1412,0.879761,-0.00427299,-0.000572649,-0.00501812,0.00292551,-0.00777115,-0.962015,0.00638345,0.0386163,643,1128,-12.1413,-0.87972
-574,-104,-12.4667,0.426147,-0.00392267,-0.000524959,-0.005038,0.00309291,-0.00754054,-0.948015,0.0063157,0.0379732,650,1128,-12.4667,-0.426177
-567,-104,-12.4399,0.566406,-0.00349788,-0.00038861,-0.00483407,0.00313466,-0.00702115,-0.940975,0.00600487,0.0360322,657,1128,-12.4399,-0.566405
-560,-104,-12.5203,0.655762,-0.0026543,-0.000192766,-0.00435411,0.00310118,-0.00594825,-0.923139,0.00531018,0.0432255,664,1128,-12.5202,-0.655716
-553,-104,-12.7887,0.732666,-0.00133537,2.66284e-05,-0.00361658,0.00302576,-0.00433451,-0.878458,0.00427179,0.0488002,671,1128,-12.7887,-0.732696
-546,-104,-12.5333,0.276733,0.000606334,0.000207687,-0.00261786,0.00303245,-0.00221843,-0.747402,0.00304371,0.0459199,678,1128,-12.5333,-0.276698
-539,-104,-12.4812,0.24353,0.00344443,0.000254202,-0.00136595,0.00394936,-0.000250734,-0.35408,0.00272034,0.0396891,685,1128,-12.4812,-0.243539
-532,-104,-12.5708,0.484131,0.0065603,4.05165e-05,-0.000577708,0.00661109,-1.02774e-05,-0.087698,0.00441083,0.0389333,692,1128,-12.5708,-0.484111
-525,-104,-12.4801,0.464966,0.00828411,-0.000827968,-0.0026881,0.009018,-0.00156186,-0.26652,0.00659456,0.0360274,699,1128,-12.4801,-0.464918
-518,-104,0,0,0,0,0,0,0,0,0,-1,706,1128,0,0
-511,-104,0,0,0,0,0,0,0,0,0,-1,713,1128,0,0
-504,-104,0,0,0,0,0,0,0,0,0,-1,720,1128,0,0
-497,-104,0,0,0,0,0,0,0,0,0,-1,727,1128,0,0
-490,-104,0,0,0,0,0,0,0,0,0,-1,734,1128,0,0
-483,-104,0,0,0,0,0,0,0,0,0,-1,741,1128,0,0
-476,-104,0,0,0,0,0,0,0,0,0,-1,748,1128,0,0
-469,-104,0,0,0,0,0,0,0,0,0,-1,755,1128,0,0
-462,-104,0,0,0,0,0,0,0,0,0,-1,762,1128,0,0
-455,-104,0,0,0,0,0,0,0,0,0,-1,769,1128,0,0
-448,-104,0,0,0,0,0,0,0,0,0,-1,776,1128,0,0
-441,-104,0,0,0,0,0,0,0,0,0,-1,783,1128,0,0
-434,-104,0,0,0,0,0,0,0,0,0,-1,790,1128,0,0
-427,-104,0,0,0,0,0,0,0,0,0,-1,797,1128,0,0
-420,-104,0,0,0,0,0,0,0,0,0,-1,804,1128,0,0
-413,-104,0,0,0,0,0,0,0,0,0,-1,811,1128,0,0
-406,-104,0,0,0,0,0,0,0,0,0,-1,818,1128,0,0
-399,-104,0,0,0,0,0,0,0,0,0,-1,825,1128,0,0
-392,-104,0,0,0,0,0,0,0,0,0,-1,832,1128,0,0
-385,-104,0,0,0,0,0,0,0,0,0,-1,839,1128,0,0
-378,-104,0,0,0,0,0,0,0,0,0,-1,846,1128,0,0
-371,-104,0,0,0,0,0,0,0,0,0,-1,853,1128,0,0
-364,-104,0,0,0,0,0,0,0,0,0,-1,860,1128,0,0
-357,-104,0,0,0,0,0,0,0,0,0,-1,867,1128,0,0
-350,-104,0,0,0,0,0,0,0,0,0,-1,874,1128,0,0
-343,-104,0,0,0,0,0,0,0,0,0,-1,881,1128,0,0
-336,-104,0,0,0,0,0,0,0,0,0,-1,888,1128,0,0
-329,-104,0,0,0,0,0,0,0,0,0,-1,895,1128,0,0
-322,-104,0,0,0,0,0,0,0,0,0,-1,902,1128,0,0
-315,-104,0,0,0,0,0,0,0,0,0,-1,909,1128,0,0
-308,-104,0,0,0,0,0,0,0,0,0,-1,916,1128,0,0
-301,-104,0,0,0,0,0,0,0,0,0,-1,923,1128,0,0
-294,-104,0,0,0,0,0,0,0,0,0,-1,930,1128,0,0
-287,-104,0,0,0,0,0,0,0,0,0,-1,937,1128,0,0
-280,-104,0,0,0,0,0,0,0,0,0,-1,944,1128,0,0
-273,-104,0,0,0,0,0,0,0,0,0,-1,951,1128,0,0
-266,-104,0,0,0,0,0,0,0,0,0,-1,958,1128,0,0
-259,-104,0,0,0,0,0,0,0,0,0,-1,965,1128,0,0
-252,-104,0,0,0,0,0,0,0,0,0,-1,972,1128,0,0
-245,-104,0,0,0,0,0,0,0,0,0,-1,979,1128,0,0
-238,-104,0,0,0,0,0,0,0,0,0,-1,986,1128,0,0
-231,-104,0,0,0,0,0,0,0,0,0,-1,993,1128,0,0
-224,-104,0,0,0,0,0,0,0,0,0,-1,1000,1128,0,0
-217,-104,0,0,0,0,0,0,0,0,0,-1,1007,1128,0,0
-210,-104,0,0,0,0,0,0,0,0,0,-1,1014,1128,0,0
-203,-104,0,0,0,0,0,0,0,0,0,-1,1021,1128,0,0
-196,-104,0,0,0,0,0,0,0,0,0,-1,1028,1128,0,0
-189,-104,0,0,0,0,0,0,0,0,0,-1,1035,1128,0,0
-182,-104,0,0,0,0,0,0,0,0,0,-1,1042,1128,0,0
-175,-104,0,0,0,0,0,0,0,0,0,-1,1049,1128,0,0
-168,-104,0,0,0,0,0,0,0,0,0,-1,1056,1128,0,0
-161,-104,0,0,0,0,0,0,0,0,0,-1,1063,1128,0,0
-154,-104,0,0,0,0,0,0,0,0,0,-1,1070,1128,0,0
-147,-104,0,0,0,0,0,0,0,0,0,-1,1077,1128,0,0
-140,-104,0,0,0,0,0,0,0,0,0,-1,1084,1128,0,0
-133,-104,0,0,0,0,0,0,0,0,0,-1,1091,1128,0,0
-126,-104,0,0,0,0,0,0,0,0,0,-1,1098,1128,0,0
-119,-104,0,0,0,0,0,0,0,0,0,-1,1105,1128,0,0
-112,-104,0,0,0,0,0,0,0,0,0,-1,1112,1128,0,0
-105,-104,0,0,0,0,0,0,0,0,0,-1,1119,1128,0,0
-98,-104,0,0,0,0,0,0,0,0,0,-1,1126,1128,0,0
-91,-104,0,0,0,0,0,0,0,0,0,-1,1133,1128,0,0
-84,-104,0,0,0,0,0,0,0,0,0,-1,1140,1128,0,0
-77,-104,0,0,0,0,0,0,0,0,0,-1,1147,1128,0,0
-70,-104,0,0,0,0,0,0,0,0,0,-1,1154,1128,0,0
-63,-104,0,0,0,0,0,0,0,0,0,-1,1161,1128,0,0
-56,-104,0,0,0,0,0,0,0,0,0,-1,1168,1128,0,0
-49,-104,0,0,0,0,0,0,0,0,0,-1,1175,1128,0,0
-42,-104,0,0,0,0,0,0,0,0,0,-1,1182,1128,0,0
-35,-104,0,0,0,0,0,0,0,0,0,-1,1189,1128,0,0
-28,-104,0,0,0,0,0,0,0,0,0,-1,1196,1128,0,0
-21,-104,0,0,0,0,0,0,0,0,0,-1,1203,1128,0,0
-14,-104,0,0,0,0,0,0,0,0,0,-1,1210,1128,0,0
-7,-104,0,0,0,0,0,0,0,0,0,-1,1217,1128,0,0
0,-104,0,0,0,0,0,0,0,0,0,-1,1224,1128,0,0
7,-104,0,0,0,0,0,0,0,0,0,-1,1231,1128,0,0
14,-104,0,0,0,0,0,0,0,0,0,-1,1238,1128,0,0
21,-104,0,0,0,0,0,0,0,0,0,-1,1245,1128,0,0
28,-104,0,0,0,0,0,0,0,0,0,-1,1252,1128,0,0
35,-104,0,0,0,0,0,0,0,0,0,-1,1259,1128,0,0
42,-104,0,0,0,0,0,0,0,0,0,-1,1266,1128,0,0
49,-104,0,0,0,0,0,0,0,0,0,-1,1273,1128,0,0
56,-104,0,0,0,0,0,0,0,0,0,-1,1280,1128,0,0
63,-104,0,0,0,0,0,0,0,0,0,-1,1287,1128,0,0
70,-104,0,0,0,0,0,0,0,0,0,-1,1294,1128,0,0
77,-104,0,0,0,0,0,0,0,0,0,-1,1301,1128,0,0
84,-104,0,0,0,0,0,0,0,0,0,-1,1308,1128,0,0
91,-104,0,0,0,0,0,0,0,0,0,-1,1315,1128,0,0
98,-104,0,0,0,0,0,0,0,0,0,-1,1322,1128,0,0
105,-104,0,0,0,0,0,0,0,0,0,-1,1329,1128,0,0
112,-104,0,0,0,0,0,0,0,0,0,-1,1336,1128,0,0
119,-104,0,0,0,0,0,0,0,0,0,-1,1343,1128,0,0
126,-104,0,0,0,0,0,0,0,0,0,-1,1350,1128,0,0
133,-104,0,0,0,0,0,0,0,0,0,-1,1357,1128,0,0
140,-104,0,0,0,0,0,0,0,0,0,-1,1364,1128,0,0
147,-104,0,0,0,0,0,0,0,0,0,-1,1371,1128,0,0
154,-104,0,0,0,0,0,0,0,0,0,-1,1378,1128,0,0
161,-104,0,0,0,0,0,0,0,0,0,-1,1385,1128,0,0
168,-104,0,0,0,0,0,0,0,0,0,-1,1392,1128,0,0
175,-104,0,0,0,0,0,0,0,0,0,-1,1399,1128,0,0
182,-104,0,0,0,0,0,0,0,0,0,-1,1406,1128,0,0
189,-104,0,0,0,0,0,0,0,0,0,-1,1413,1128,0,0
196,-104,0,0,0,0,0,0,0,0,0,-1,1420,1128,0,0
203,-104,0,0,0,0,0,0,0,0,0,-1,1427,1128,0,0
210,-104,0,0,0,0,0,0,0,0,0,-1,1434,1128,0,0
217,-104,0,0,0,0,0,0,0,0,0,-1,1441,1128,0,0
224,-104,0,0,0,0,0,0,0,0,0,-1,1448,1128,0,0
231,-104,0,0,0,0,0,0,0,0,0,-1,1455,1128,0,0
238,-104,0,0,0,0,0,0,0,0,0,-1,1462,1128,0,0
245,-104,0,0,0,0,0,0,0,0,0,-1,1469,1128,0,0
252,-104,0,0,0,0,0,0,0,0,0,-1,1476,1128,0,0
259,-104,0,0,0,0,0,0,0,0,0,-1,1483,1128,0,0
266,-104,0,0,0,0,0,0,0,0,0,-1,1490,1128,0,0
273,-104,0,0,0,0,0,0,0,0,0,-1,1497,1128,0,0
280,-104,0,0,0,0,0,0,0,0,0,-1,1504,1128,0,0
287,-104,0,0,0,0,0,0,0,0,0,-1,1511,1128,0,0
294,-104,0,0,0,0,0,0,0,0,0,-1,1518,1128,0,0
301,-104,0,0,0,0,0,0,0,0,0,-1,1525,1128,0,0
308,-104,0,0,0,0,0,0,0,0,0,-1,1532,1128,0,0
315,-104,0,0,0,0,0,0,0,0,0,-1,1539,1128,0,0
322,-104,0,0,0,0,0,0,0,0,0,-1,1546,1128,0,0
329,-104,0,0,0,0,0,0,0,0,0,-1,1553,1128,0,0
336,-104,0,0,0,0,0,0,0,0,0,-1,1560,1128,0,0
343,-104,0,0,0,0,0,0,0,0,0,-1,1567,1128,0,0
350,-104,0,0,0,0,0,0,0,0,0,-1,1574,1128,0,0
357,-104,0,0,0,0,0,0,0,0,0,-1,1581,1128,0,0
364,-104,0,0,0,0,0,0,0,0,0,-1,1588,1128,0,0
371,-104,0,0,0,0,0,0,0,0,0,-1,1595,1128,0,0
378,-104,0,0,0,0,0,0,0,0,0,-1,1602,1128,0,0
385,-104,0,0,0,0,0,0,0,0,0,-1,1609,1128,0,0
392,-104,0,0,0,0,0,0,0,0,0,-1,1616,1128,0,0
399,-104,0,0,0,0,0,0,0,0,0,-1,1623,1128,0,0
406,-104,0,0,0,0,0,0,0,0,0,-1,1630,1128,0,0
413,-104,0,0,0,0,0,0,0,0,0,-1,1637,1128,0,0
420,-104,0,0,0,0,0,0,0,0,0,-1,1644,1128,0,0
427,-104,0,0,0,0,0,0,0,0,0,-1,1651,1128,0,0
434,-104,0,0,0,0,0,0,0,0,0,-1,1658,1128,0,0
441,-104,0,0,0,0,0,0,0,0,0,-1,1665,1128,0,0
448,-104,0,0,0,0,0,0,0,0,0,-1,1672,1128,0,0
455,-104,0,0,0,0,0,0,0,0,0,-1,1679,1128,0,0
462,-104,0,0,0,0,0,0,0,0,0,-1,1686,1128,0,0
469,-104,0,0,0,0,0,0,0,0,0,-1,1693,1128,0,0
476,-104,0,0,0,0,0,0,0,0,0,-1,1700,1128,0,0
483,-104,0,0,0,0,0,0,0,0,0,-1,1707,1128,0,0
490,-104,0,0,0,0,0,0,0,0,0,-1,1714,1128,0,0
497,-104,0,0,0,0,0,0,0,0,0,-1,1721,1128,0,0
504,-104,0,0,0,0,0,0,0,0,0,-1,1728,1128,0,0
511,-104,0,0,0,0,0,0,0,0,0,-1,1735,1128,0,0
518,-104,0,0,0,0,0,0,0,0,0,-1,1742,1128,0,0
525,-104,0,0,0,0,0,0,0,0,0,-1,1749,1128,0,0
532,-104,0,0,0,0,0,0,0,0,0,-1,1756,1128,0,0
539,-104,0,0,0,0,0,0,0,0,0,-1,1763,1128,0,0
546,-104,0,0,0,0,0,0,0,0,0,-1,1770,1128,0,0
553,-104,0,0,0,0,0,0,0,0,0,-1,1777,1128,0,0
560,-104,0,0,0,0,0,0,0,0,0,-1,1784,1128,0,0
567,-104,0,0,0,0,0,0,0,0,0,-1,1791,1128,0,0
574,-104,0,0,0,0,0,0,0,0,0,-1,1798,1128,0,0
581,-104,0,0,0,0,0,0,0,0,0,-1,1805,1128,0,0
588,-104,0,0,0,0,0,0,0,0,0,-1,1812,1128,0,0
595,-104,0,0,0,0,0,0,0,0,0,-1,1819,1128,0,0
602,-104,0,0,0,0,0,0,0,0,0,-1,1826,1128,0,0
609,-104,0,0,0,0,0,0,0,0,0,-1,1833,1128,0,0
616,-104,0,0,0,0,0,0,0,0,0,-1,1840,1128,0,0
623,-104,0,0,0,0,0,0,0,0,0,-1,1847,1128,0,0
630,-104,0,0,0,0,0,0,0,0,0,-1,1854,1128,0,0
637,-104,0,0,0,0,0,0,0,0,0,-1,1861,1128,0,0
644,-104,19.1866,2.47266,0.00965519,-0.00122542,0.00194908,0.0099938,-0.00156403,0.17201,0.00724041,0.0371219,1868,1128,19.1866,-2.47262
651,-104,19.3552,2.47729,0.00702682,-0.00120812,0.00149435,0.0072896,-0.0014709,0.174073,0.00541702,0.0391282,1875,1128,19.3552,-2.47734
658,-104,19.3812,2.40735,0.00541322,-0.000988787,0.000884146,0.00553308,-0.00110865,0.134745,0.00410844,0.0420721,1882,1128,19.3812,-2.40729
665,-104,19.3844,2.50562,0.00364922,-0.000939521,0.000671124,0.00374536,-0.00103566,0.142285,0.00290434,0.0434342,1889,1128,19.3844,-2.5056
672,-104,19.4369,2.44153,0.0013318,-0.00134965,0.00135801,0.00189941,-0.00191726,0.395902,0.00220356,0.0431123,1896,1128,19.4368,-2.4415
679,-104,19.3934,2.60364,-0.000889798,-0.0018459,0.00228213,0.000963812,-0.00369951,0.682153,0.00284261,0.0418864,1903,1128,19.3935,-2.60363
686,-104,19.3538,2.56787,-0.0027308,-0.00232343,0.0031859,0.000665296,-0.00571952,0.817322,0.00405302,0.0405396,1910,1128,19.3538,-2.5679
693,-104,19.394,2.40503,-0.00408878,-0.00269489,0.0039527,0.000621844,-0.00740551,0.872662,0.0051568,0.0349714,1917,1128,19.394,-2.40504
700,-104,19.3801,2.34827,-0.00517958,-0.00295236,0.00446711,0.000537856,-0.00866979,0.907554,0.00596723,0.0271396,1924,1128,19.3801,-2.34821
707,-104,19.3453,2.35107,0,0,0,0,0,0,0,-1,1931,1128,19.3453,-2.35111
714,-104,19.0005,3.11377,0,0,0,0,0,0,0,-1,1938,1128,19.0005,-3.11381
721,-104,18.6556,3.87646,0,0,0,0,0,0,0,-1,1945,1128,18.6556,-3.87652
728,-104,18.584,3.66418,-0.00631082,-0.00258934,0.00513739,0.0010139,-0.00991406,0.959147,0.00697196,0.0213042,1952,1128,18.584,-3.66418
735,-104,18.5566,3.63293,-0.0058724,-0.00213254,0.00477549,0.00112607,-0.00913101,0.972006,0.00649532,0.0218495,1959,1128,18.5567,-3.63295
742,-104,18.5178,3.58691,-0.00521712,-0.00152431,0.00426343,0.00127537,-0.0080168,0.989745,0.00581645,0.0147538,1966,1128,18.5178,-3.58688
749,-104,18.5508,3.50159,-0.00452676,-0.000663028,0.00360119,0.00149175,-0.00668154,1.03159,0.00502596,0.0164411,1973,1128,18.5507,-3.50158
756,-104,18.5612,3.40393,-0.00373437,0.000326035,0.00240031,0.00143959,-0.00484793,1.13643,0.00380373,0.0146582,1980,1128,18.5611,-3.40395
763,-104,18.5504,3.35364,-0.00283523,0.00152267,0.00104307,0.00175946,-0.00307203,1.34756,0.00282356,0.0140071,1987,1128,18.5504,-3.35364
770,-104,18.5491,3.30701,-0.00231427,0.00269005,-0.000180393,0.00269655,-0.00232076,-1.53481,0.00289945,0.0124571,1994,1128,18.549,-3.30702
777,-104,18.5447,3.26514,-0.00246372,0.00368765,-0.0010844,0.00387321,-0.00264929,-1.40131,0.0037878,0.0200663,2001,1128,18.5446,-3.26509
784,-104,18.5536,3.4657,-0.0028952,0.00476501,-0.00221548,0.00535961,-0.0034898,-1.30859,0.00514709,0.0381571,2008,1128,18.5536,-3.46573
791,-104,18.5275,3.50549,-0.00320626,0.00607851,-0.00411804,0.00764177,-0.00476951,-1.20799,0.00722934,0.0459935,2015,1128,18.5275,-3.50554
798,-104,18.6115,3.5708,0,0,0,0,0,0,0,-1,2022,1128,18.6114,-3.57075
805,-104,18.6818,3.67908,0,0,0,0,0,0,0,-1,2029,1128,18.6818,-3.67907
812,-104,18.6858,3.76709,0,0,0,0,0,0,0,-1,2036,1128,18.6857,-3.76708
-700,-111,0,0,0,0,0,0,0,0,0,-1,524,1135,0,0
-693,-111,-11.0237,0.646606,0,0,0,0,0,0,0,-1,531,1135,-11.0237,-0.646623
-686,-111,-11.2256,0.73645,0,0,0,0,0,0,0,-1,538,1135,-11.2256,-0.736423
-679,-111,-11.1999,0.0351563,0.0179787,0.0311858,-0.014217,0.0402581,0.00890647,-1.00281,0.0244175,0.0464079,545,1135,-11.1999,-0.0351848
-672,-111,-11.3315,0.118164,0.013339,0.0259039,-0.0115958,0.0328098,0.00643313,-1.03365,0.0200754,0.0473084,552,1135,-11.3316,-0.118115
-665,-111,-11.4011,0.225342,0.00958662,0.020996,-0.00924195,0.0261521,0.00443052,-1.06191,0.0161616,0.0480238,559,1135,-11.4011,-0.225325
-658,-111,-11.4246,0.642456,0,0,0,0,0,0,0,-1,566,1135,-11.4245,-0.642485
-651,-111,-11.6237,0.826172,0.00427042,0.0126593,-0.00547254,0.0153599,0.00156978,-1.11237,0.00975885,0.0381063,573,1135,-11.6237,-0.826187
-644,-111,-11.6218,0.859741,0.0024511,0.00939011,-0.00419527,0.0113647,0.000476546,-1.13089,0.0074227,0.0229758,580,1135,-11.6218,-0.859732
-637,-111,-11.6212,0.898193,0.00101824,0.00628213,-0.00318483,0.00778181,-0.000481441,-1.13071,0.00535557,0.00923312,587,1135,-11.6212,-0.89825
-630,-111,-11.6308,0.951538,-0.000322474,0.00383237,-0.00281115,0.0052504,-0.00174051,-1.10361,0.00420235,0.013883,594,1135,-11.6308,-0.951569
-623,-111,-11.6434,1.0697,-0.00151399,0.00224337,-0.00280356,0.00373951,-0.00301013,-1.08059,0.00390448,0.0123119,601,1135,-11.6434,-1.06968
-616,-111,-11.6788,1.17175,-0.00254105,0.000768826,-0.00305751,0.00259055,-0.00436277,-1.03346,0.00405774,0.0128494,608,1135,-11.6789,-1.1717
-609,-111,-11.7215,1.26245,-0.00339052,-0.000151725,-0.00347165,0.00205965,-0.00560189,-1.00363,0.00457827,0.0164932,615,1135,-11.7215,-1.26247
-602,-111,-11.683,1.36694,-0.00387,-0.000422848,-0.00409677,0.00229815,-0.006591,-0.984516,0.00532791,0.0169648,622,1135,-11.6831,-1.3669
-595,-111,-11.6273,1.51013,-0.00432709,-0.000559589,-0.00466087,0.00258381,-0.00747049,-0.977443,0.00602907,0.012558,629,1135,-11.6273,-1.51017
-588,-111,-11.5348,1.62012,0,0,0,0,0,0,0,-1,636,1135,-11.5348,-1.62017
-581,-111,-11.9456,0.902344,-0.00503995,-0.000734994,-0.00501441,0.0025694,-0.00834434,-0.988134,0.00658854,0.0414674,643,1135,-11.9456,-0.902354
-574,-111,-12.3685,0.277344,-0.00468811,-0.000702961,-0.00506654,0.00274875,-0.00813982,-0.972749,0.00653832,0.0465486,650,1135,-12.3685,-0.27733
-567,-111,-12.4121,0.577393,-0.00426168,-0.000624894,-0.00493005,0.00281142,-0.00769799,-0.962077,0.00628244,0.0404833,657,1135,-12.4121,-0.577408
-560,-111,-12.8613,0.784912,0,0,0,0,0,0,0,-1,664,1135,-12.8613,-0.78495
-553,-111,-12.6813,0.546875,-0.0019089,-0.000180815,-0.00377535,0.00282811,-0.00491782,-0.897893,0.00452604,0.0481564,671,1135,-12.6813,-0.54682
-546,-111,-12.4264,0.259888,0.000327403,4.88471e-05,-0.002765,0.00295663,-0.00258038,-0.760234,0.00319925,0.0402365,678,1135,-12.4264,-0.259937
-539,-111,-12.6323,0.556885,0.00367394,0.000150727,-0.00144406,0.00419018,-0.000365511,-0.343332,0.00292292,0.038704,685,1135,-12.6323,-0.556905
-532,-111,-12.6475,0.623535,0.00766696,-2.49042e-05,-0.000380863,0.00768578,-4.37163e-05,-0.0493541,0.00513848,0.039227,692,1135,-12.6475,-0.623477
-525,-111,-12.5125,0.564697,0.0104469,-0.000922789,-0.00203698,0.0108009,-0.00127671,-0.172032,0.00766168,0.036731,699,1135,-12.5125,-0.564757
-518,-111,0,0,0,0,0,0,0,0,0,-1,706,1135,0,0
-511,-111,0,0,0,0,0,0,0,0,0,-1,713,1135,0,0
-504,-111,0,0,0,0,0,0,0,0,0,-1,720,1135,0,0
-497,-111,0,0,0,0,0,0,0,0,0,-1,727,1135,0,0
-490,-111,0,0,0,0,0,0,0,0,0,-1,734,1135,0,0
-483,-111,0,0,0,0,0,0,0,0,0,-1,741,1135,0,0
-476,-111,0,0,0,0,0,0,0,0,0,-1,748,1135,0,0
-469,-111,0,0,0,0,0,0,0,0,0,-1,755,1135,0,0
-462,-111,0,0,0,0,0,0,0,0,0,-1,762,1135,0,0
-455,-111,0,0,0,0,0,0,0,0,0,-1,769,1135,0,0
-448,-111,0,0,0,0,0,0,0,0,0,-1,776,1135,0,0
-441,-111,0,0,0,0,0,0,0,0,0,-1,783,1135,0,0
-434,-111,0,0,0,0,0,0,0,0,0,-1,790,1135,0,0
-427,-111,0,0,0,0,0,0,0,0,0,-1,797,1135,0,0
-420,-111,0,0,0,0,0,0,0,0,0,-1,804,1135,0,0
-413,-111,0,0,0,0,0,0,0,0,0,-1,811,1135,0,0
-406,-111,0,0,0,0,0,0,0,0,0,-1,818,1135,0,0
-399,-111,0,0,0,0,0,0,0,0,0,-1,825,1135,0,0
-392,-111,0,0,0,0,0,0,0,0,0,-1,832,1135,0,0
-385,-111,0,0,0,0,0,0,0,0,0,-1,839,1135,0,0
-378,-111,0,0,0,0,0,0,0,0,0,-1,846,1135,0,0
-371,-111,0,0,0,0,0,0,0,0,0,-1,853,1135,0,0
-364,-111,0,0,0,0,0,0,0,0,0,-1,860,1135,0,0
-357,-111,0,0,0,0,0,0,0,0,0,-1,867,1135,0,0
-350,-111,0,0,0,0,0,0,0,0,0,-1,874,1135,0,0
-343,-111,0,0,0,0,0,0,0,0,0,-1,881,1135,0,0
-336,-111,0,0,0,0,0,0,0,0,0,-1,888,1135,0,0
-329,-111,0,0,0,0,0,0,0,0,0,-1,895,1135,0,0
-322,-111,0,0,0,0,0,0,0,0,0,-1,902,1135,0,0
-315,-111,0,0,0,0,0,0,0,0,0,-1,909,1135,0,0
-308,-111,0,0,0,0,0,0,0,0,0,-1,916,1135,0,0
-301,-111,0,0,0,0,0,0,0,0,0,-1,923,1135,0,0
-294,-111,0,0,0,0,0,0,0,0,0,-1,930,1135,0,0
-287,-111,0,0,0,0,0,0,0,0,0,-1,937,1135,0,0
-280,-111,0,0,0,0,0,0,0,0,0,-1,944,1135,0,0
-273,-111,0,0,0,0,0,0,0,0,0,-1,951,1135,0,0
-266,-111,0,0,0,0,0,0,0,0,0,-1,958,1135,0,0
-259,-111,0,0,0,0,0,0,0,0,0,-1,965,1135,0,0
-252,-111,0,0,0,0,0,0,0,0,0,-1,972,1135,0,0
-245,-111,0,0,0,0,0,0,0,0,0,-1,979,1135,0,0
-238,-111,0,0,0,0,0,0,0,0,0,-1,986,1135,0,0
-231,-111,0,0,0,0,0,0,0,0,0,-1,993,1135,0,0
-224,-111,0,0,0,0,0,0,0,0,0,-1,1000,1135,0,0
-217,-111,0,0,0,0,0,0,0,0,0,-1,1007,1135,0,0
-210,-111,0,0,0,0,0,0,0,0,0,-1,1014,1135,0,0
-203,-111,0,0,0,0,0,0,0,0,0,-1,1021,1135,0,0
-196,-111,0,0,0,0,0,0,0,0,0,-1,1028,1135,0,0
-189,-111,0,0,0,0,0,0,0,0,0,-1,1035,1135,0,0
-182,-111,0,0,0,0,0,0,0,0,0,-1,1042,1135,0,0
-175,-111,0,0,0,0,0,0,0,0,0,-1,1049,1135,0,0
-168,-111,0,0,0,0,0,0,0,0,0,-1,1056,1135,0,0
-161,-111,0,0,0,0,0,0,0,0,0,-1,1063,1135,0,0
-154,-111,0,0,0,0,0,0,0,0,0,-1,1070,1135,0,0
-147,-111,0,0,0,0,0,0,0,0,0,-1,1077,1135,0,0
-140,-111,0,0,0,0,0,0,0,0,0,-1,1084,1135,0,0
-133,-111,0,0,0,0,0,0,0,0,0,-1,1091,1135,0,0
-126,-111,0,0,0,0,0,0,0,0,0,-1,1098,1135,0,0
-119,-111,0,0,0,0,0,0,0,0,0,-1,1105,1135,0,0
-112,-111,0,0,0,0,0,0,0,0,0,-1,1112,1135,0,0
-105,-111,0,0,0,0,0,0,0,0,0,-1,1119,1135,0,0
-98,-111,0,0,0,0,0,0,0,0,0,-1,1126,1135,0,0
-91,-111,0,0,0,0,0,0,0,0,0,-1,1133,1135,0,0
-84,-111,0,0,0,0,0,0,0,0,0,-1,1140,1135,0,0
-77,-111,0,0,0,0,0,0,0,0,0,-1,1147,1135,0,0
-70,-111,0,0,0,0,0,0,0,0,0,-1,1154,1135,0,0
-63,-111,0,0,0,0,0,0,0,0,0,-1,1161,1135,0,0
-56,-111,0,0,0,0,0,0,0,0,0,-1,1168,1135,0,0
-49,-111,0,0,0,0,0,0,0,0,0,-1,1175,1135,0,0
-42,-111,0,0,0,0,0,0,0,0,0,-1,1182,1135,0,0
-35,-111,0,0,0,0,0,0,0,0,0,-1,1189,1135,0,0
-28,-111,0,0,0,0,0,0,0,0,0,-1,1196,1135,0,0
-21,-111,0,0,0,0,0,0,0,0,0,-1,1203,1135,0,0
-14,-111,0,0,0,0,0,0,0,0,0,-1,1210,1135,0,0
-7,-111,0,0,0,0,0,0,0,0,0,-1,1217,1135,0,0
0,-111,0,0,0,0,0,0,0,0,0,-1,1224,1135,0,0
7,-111,0,0,0,0,0,0,0,0,0,-1,1231,1135,0,0
14,-111,0,0,0,0,0,0,0,0,0,-1,1238,1135,0,0
21,-111,0,0,0,0,0,0,0,0,0,-1,1245,1135,0,0
28,-111,0,0,0,0,0,0,0,0,0,-1,1252,1135,0,0
35,-111,0,0,0,0,0,0,0,0,0,-1,1259,1135,0,0
42,-111,0,0,0,0,0,0,0,0,0,-1,1266,1135,0,0
49,-111,0,0,0,0,0,0,0,0,0,-1,1273,1135,0,0
56,-111,0,0,0,0,0,0,0,0,0,-1,1280,1135,0,0
63,-111,0,0,0,0,0,0,0,0,0,-1,1287,1135,0,0
70,-111,0,0,0,0,0,0,0,0,0,-1,1294,1135,0,0
77,-111,0,0,0,0,0,0,0,0,0,-1,1301,1135,0,0
84,-111,0,0,0,0,0,0,0,0,0,-1,1308,1135,0,0
91,-111,0,0,0,0,0,0,0,0,0,-1,1315,1135,0,0
98,-111,0,0,0,0,0,0,0,0,0,-1,1322,1135,0,0
105,-111,0,0,0,0,0,0,0,0,0,-1,1329,1135,0,0
112,-111,0,0,0,0,0,0,0,0,0,-1,1336,1135,0,0
119,-111,0,0,0,0,0,0,0,0,0,-1,1343,1135,0,0
126,-111,0,0,0,0,0,0,0,0,0,-1,1350,1135,0,0
133,-111,0,0,0,0,0,0,0,0,0,-1,1357,1135,0,0
140,-111,0,0,0,0,0,0,0,0,0,-1,1364,1135,0,0
147,-111,0,0,0,0,0,0,0,0,0,-1,1371,1135,0,0
154,-111,0,0,0,0,0,0,0,0,0,-1,1378,1135,0,0
161,-111,0,0,0,0,0,0,0,0,0,-1,1385,1135,0,0
168,-111,0,0,0,0,0,0,0,0,0,-1,1392,1135,0,0
175,-111,0,0,0,0,0,0,0,0,0,-1,1399,1135,0,0
182,-111,0,0,0,0,0,0,0,0,0,-1,1406,1135,0,0
189,-111,0,0,0,0,0,0,0,0,0,-1,1413,1135,0,0
196,-111,0,0,0,0,0,0,0,0,0,-1,1420,1135,0,0
203,-111,0,0,0,0,0,0,0,0,0,-1,1427,1135,0,0
210,-111,0,0,0,0,0,0,0,0,0,-1,1434,1135,0,0
217,-111,0,0,0,0,0,0,0,0,0,-1,1441,1135,0,0
224,-111,0,0,0,0,0,0,0,0,0,-1,1448,1135,0,0
231,-111,0,0,0,0,0,0,0,0,0,-1,1455,1135,0,0
238,-111,0,0,0,0,0,0,0,0,0,-1,1462,1135,0,0
245,-111,0,0,0,0,0,0,0,0,0,-1,1469,1135,0,0
252,-111,0,0,0,0,0,0,0,0,0,-1,1476,1135,0,0
259,-111,0,0,0,0,0,0,0,0,0,-1,1483,1135,0,0
266,-111,0,0,0,0,0,0,0,0,0,-1,1490,1135,0,0
273,-111,0,0,0,0,0,0,0,0,0,-1,1497,1135,0,0
280,-111,0,0,0,0,0,0,0,0,0,-1,1504,1135,0,0
287,-111,0,0,0,0,0,0,0,0,0,-1,1511,1135,0,0
294,-111,0,0,0,0,0,0,0,0,0,-1,1518,1135,0,0
301,-111,0,0,0,0,0,0,0,0,0,-1,1525,1135,0,0
308,-111,0,0,0,0,0,0,0,0,0,-1,1532,1135,0,0
315,-111,0,0,0,0,0,0,0,0,0,-1,1539,1135,0,0
322,-111,0,0,0,0,0,0,0,0,0,-1,1546,1135,0,0
329,-111,0,0,0,0,0,0,0,0,0,-1,1553,1135,0,0
336,-111,0,0,0,0,0,0,0,0,0,-1,1560,1135,0,0
343,-111,0,0,0,0,0,0,0,0,0,-1,1567,1135,0,0
350,-111,0,0,0,0,0,0,0,0,0,-1,1574,1135,0,0
357,-111,0,0,0,0,0,0,0,0,0,-1,1581,1135,0,0
364,-111,0,0,0,0,0,0,0,0,0,-1,1588,1135,0,0
371,-111,0,0,0,0,0,0,0,0,0,-1,1595,1135,0,0
378,-111,0,0,0,0,0,0,0,0,0,-1,1602,1135,0,0
385,-111,0,0,0,0,0,0,0,0,0,-1,1609,1135,0,0
392,-111,0,0,0,0,0,0,0,0,0,-1,1616,1135,0,0
399,-111,0,0,0,0,0,0,0,0,0,-1,1623,1135,0,0
406,-111,0,0,0,0,0,0,0,0,0,-1,1630,1135,0,0
413,-111,0,0,0,0,0,0,0,0,0,-1,1637,1135,0,0
420,-111,0,0,0,0,0,0,0,0,0,-1,1644,1135,0,0
427,-111,0,0,0,0,0,0,0,0,0,-1,1651,1135,0,0
434,-111,0,0,0,0,0,0,0,0,0,-1,1658,1135,0,0
441,-111,0,0,0,0,0,0,0,0,0,-1,1665,1135,0,0
448,-111,0,0,0,0,0,0,0,0,0,-1,1672,1135,0,0
455,-111,0,0,0,0,0,0,0,0,0,-1,1679,1135,0,0
462,-111,0,0,0,0,0,0,0,0,0,-1,1686,1135,0,0
469,-111,0,0,0,0,0,0,0,0,0,-1,1693,1135,0,0
476,-111,0,0,0,0,0,0,0,0,0,-1,1700,1135,0,0
483,-111,0,0,0,0,0,0,0,0,0,-1,1707,1135,0,0
490,-111,0,0,0,0,0,0,0,0,0,-1,1714,1135,0,0
497,-111,0,0,0,0,0,0,0,0,0,-1,1721,1135,0,0
504,-111,0,0,0,0,0,0,0,0,0,-1,1728,1135,0,0
511,-111,0,0,0,0,0,0,0,0,0,-1,1735,1135,0,0
518,-111,0,0,0,0,0,0,0,0,0,-1,1742,1135,0,0
525,-111,0,0,0,0,0,0,0,0,0,-1,1749,1135,0,0
532,-111,0,0,0,0,0,0,0,0,0,-1,1756,1135,0,0
539,-111,0,0,0,0,0,0,0,0,0,-1,1763,1135,0,0
546,-111,0,0,0,0,0,0,0,0,0,-1,1770,1135,0,0
553,-111,0,0,0,0,0,0,0,0,0,-1,1777,1135,0,0
560,-111,0,0,0,0,0,0,0,0,0,-1,1784,1135,0,0
567,-111,0,0,0,0,0,0,0,0,0,-1,1791,1135,0,0
574,-111,0,0,0,0,0,0,0,0,0,-1,1798,1135,0,0
581,-111,0,0,0,0,0,0,0,0,0,-1,1805,1135,0,0
588,-111,0,0,0,0,0,0,0,0,0,-1,1812,1135,0,0
595,-111,0,0,0,0,0,0,0,0,0,-1,1819,1135,0,0
602,-111,0,0,0,0,0,0,0,0,0,-1,1826,1135,0,0
609,-111,0,0,0,0,0,0,0,0,0,-1,1833,1135,0,0
616,-111,0,0,0,0,0,0,0,0,0,-1,1840,1135,0,0
623,-111,0,0,0,0,0,0,0,0,0,-1,1847,1135,0,0
630,-111,0,0,0,0,0,0,0,0,0,-1,1854,1135,0,0
637,-111,0,0,0,0,0,0,0,0,0,-1,1861,1135,0,0
644,-111,19.1581,2.44519,0.00910657,-0.000932607,0.00211027,0.00953212,-0.00135816,0.198987,0.00685248,0.037419,1868,1135,19.1581,-2.44522
651,-111,19.3729,2.59216,0.00669983,-0.000832153,0.00164859,0.00704486,-0.00117719,0.206314,0.00513416,0.0419087,1875,1135,19.3729,-2.59219
658,-111,19.5171,2.57043,0.00518861,-0.000524226,0.000969068,0.00534852,-0.000684133,0.163537,0.00381423,0.0439181,1882,1135,19.517,-2.57042
665,-111,19.5498,2.46814,0.00335294,-0.000553488,0.000832151,0.00352282,-0.000723366,0.201376,0.00262313,0.0434583,1889,1135,19.5498,-2.46808
672,-111,19.5393,2.44312,0.000973248,-0.00103903,0.00149369,0.00176806,-0.00183385,0.489006,0.00207968,0.0440706,1896,1135,19.5393,-2.44316
679,-111,19.4082,2.57642,-0.00124883,-0.00159349,0.00233563,0.00092082,-0.00376314,0.748574,0.00286545,0.0419335,1903,1135,19.4082,-2.57636
686,-111,19.3013,2.58606,-0.00309759,-0.00213482,0.00315994,0.000580189,-0.0058126,0.860987,0.00408223,0.0397561,1910,1135,19.3012,-2.586
693,-111,19.277,2.4657,-0.00445974,-0.00255058,0.00384679,0.000458302,-0.00746862,0.907016,0.00513867,0.0371693,1917,1135,19.2769,-2.46575
700,-111,19.3478,2.36475,-0.00555241,-0.00285104,0.00430416,0.000309388,-0.00871284,0.937437,0.00591439,0.0302425,1924,1135,19.3478,-2.36473
707,-111,19.2699,2.51135,0,0,0,0,0,0,0,-1,1931,1135,19.2699,-2.51139
714,-111,18.8281,3.22119,-0.00662087,-0.00301916,0.00500516,0.000499264,-0.0101393,0.958087,0.00693194,0.026359,1938,1135,18.8282,-3.22122
721,-111,18.5017,3.82202,-0.00670948,-0.00288066,0.00506005,0.00061502,-0.0102052,0.966245,0.00701744,0.0131549,1945,1135,18.5017,-3.82208
728,-111,18.5004,3.71814,-0.00663293,-0.00260199,0.00487688,0.000659483,-0.0098944,0.981345,0.00682672,0.0170883,1952,1135,18.5004,-3.71812
735,-111,18.4827,3.65869,-0.00614991,-0.00213637,0.00452165,0.000803818,-0.00909011,0.994247,0.006345,0.0172726,1959,1135,18.4826,-3.65865
742,-111,18.4735,3.60571,-0.00546333,-0.00152875,0.00405412,0.00101019,-0.00800227,1.01129,0.00570149,0.0119016,1966,1135,18.4735,-3.60571
749,-111,18.4763,3.50952,-0.0043716,-0.000612755,0.00352944,0.00150647,-0.00649082,1.03005,0.00490707,0.0147143,1973,1135,18.4763,-3.50951
756,-111,18.4713,3.42102,-0.00251009,0.000612494,0.00251576,0.00201206,-0.00390965,1.06311,0.00347692,0.0155342,1980,1135,18.4713,-3.42107
763,-111,18.4688,3.36182,-0.000398483,0.00205392,0.00146028,0.00273455,-0.00107911,1.13464,0.00226991,0.0128599,1987,1135,18.4688,-3.36181
770,-111,18.4547,3.31433,0.0018939,0.00350211,0.000684417,0.00375395,0.00164207,1.21821,0.00217299,0.0107686,1994,1135,18.4548,-3.31438
777,-111,18.4323,3.21826,0.0044359,0.00492617,0.000331891,0.00509364,0.00426843,1.10348,0.00315685,0.024162,2001,1135,18.4322,-3.21831
784,-111,18.4663,3.43323,0.00815724,0.00665719,-4.67733e-05,0.00815869,0.00665573,-0.0311409,0.0050138,0.039989,2008,1135,18.4663,-3.43317
791,-111,17.8148,2.9834,0.0141097,0.00891796,-0.000821053,0.0142364,0.00879121,-0.153168,0.00829474,0.0449045,2015,1135,17.8149,-2.98342
798,-111,17.9348,3.10071,0,0,0,0,0,0,0,-1,2022,1135,17.9348,-3.1007
805,-111,19.3511,4.09192,0,0,0,0,0,0,0,-1,2029,1135,19.3512,-4.09189
812,-111,19.0154,4.16785,0,0,0,0,0,0,0,-1,2036,1135,19.0153,-4.1679
-700,-118,0,0,0,0,0,0,0,0,0,-1,524,1142,0,0
-693,-118,-10.9001,0.75,0,0,0,0,0,0,0,-1,531,1142,-10.9001,-0.750048
-686,-118,-10.8811,-0.486938,0,0,0,0,0,0,0,-1,538,1142,-10.8811,0.486947
-679,-118,-10.9891,-0.4198,0.0150803,0.0324655,-0.0220624,0.047486,5.98058e-05,-0.973061,0.0316374,0.0455542,545,1142,-10.9891,0.419752
-672,-118,-11.044,-0.35437,0.011065,0.027131,-0.0172398,0.0381175,7.85403e-05,-1.00342,0.0253855,0.0460415,552,1142,-11.044,0.354317
-665,-118,-11.1169,-0.335938,0,0,0,0,0,0,0,-1,559,1142,-11.1169,0.335908
-658,-118,-11.5421,0.364502,0,0,0,0,0,0,0,-1,566,1142,-11.542,-0.364502
-651,-118,-11.5134,0.61731,0.00328703,0.0134159,-0.007218,0.017169,-0.000466012,-1.09131,0.0116044,0.0371456,573,1142,-11.5134,-0.617308
-644,-118,-11.5059,0.850586,0.00181313,0.00996155,-0.00519562,0.0124899,-0.000715212,-1.1179,0.00857494,0.0238882,580,1142,-11.5059,-0.85061
-637,-118,-11.519,0.897827,0.000645449,0.00679507,-0.00365974,0.00850024,-0.00105972,-1.13478,0.00605107,0.0145243,587,1142,-11.519,-0.897866
-630,-118,-11.5327,0.97583,-0.000581544,0.00424549,-0.00280482,0.00553225,-0.00186831,-1.14067,0.00444384,0.0176025,594,1142,-11.5327,-0.975865
-623,-118,-11.5184,1.06348,-0.00167454,0.00238797,-0.00259779,0.00365437,-0.00294094,-1.11721,0.00381522,0.0149023,601,1142,-11.5184,-1.06345
-616,-118,-11.5443,1.1676,-0.00277538,0.000856253,-0.00272872,0.00231811,-0.00423723,-1.07898,0.00383841,0.0132821,608,1142,-11.5443,-1.16763
-609,-118,-11.5651,1.25916,-0.00368195,-0.00016553,-0.00318324,0.00171278,-0.00556026,-1.03771,0.00439058,0.0143707,615,1142,-11.5651,-1.25918
-602,-118,-11.5695,1.39087,-0.00417671,-0.000502342,-0.00382945,0.00190782,-0.00658687,-1.00906,0.00514644,0.0144317,622,1142,-11.5694,-1.39083
-595,-118,-11.5845,1.48865,-0.00464027,-0.000706341,-0.00435613,0.00210632,-0.00745293,-0.997465,0.00579965,0.0120304,629,1142,-11.5845,-1.4887
-588,-118,-11.3594,1.66541,0,0,0,0,0,0,0,-1,636,1142,-11.3594,-1.6654
-581,-118,-11.8217,0.942261,-0.00537419,-0.000931039,-0.00470813,0.00205333,-0.00835856,-1.00584,0.00636814,0.0452967,643,1142,-11.8217,-0.942304
-574,-118,-12.1925,-0.0153809,-0.00500295,-0.000920013,-0.00476535,0.00222274,-0.0081457,-0.987771,0.0063034,0.0492342,650,1142,-12.1925,0.0153838
-567,-118,-12.4526,0.70752,-0.00456068,-0.000901119,-0.00467483,0.00228928,-0.00775108,-0.971938,0.00607598,0.0455539,657,1142,-12.4527,-0.707541
-560,-118,-12.3178,0.217041,-0.00368062,-0.00072256,-0.0043044,0.00234983,-0.006753,-0.950883,0.00545662,0.0406522,664,1142,-12.3178,-0.217083
-553,-118,-12.2411,0.313721,-0.00217311,-0.00046876,-0.00366272,0.00243962,-0.00508149,-0.899696,0.00443071,0.0409227,671,1142,-12.2411,-0.313697
-546,-118,-12.2155,0.425049,0.000172149,-0.000210258,-0.00273649,0.0027241,-0.00276221,-0.750519,0.00316755,0.0391057,678,1142,-12.2155,-0.425083
-539,-118,-12.4979,0.579712,0.00373329,-5.29402e-05,-0.00148598,0.00424684,-0.00056649,-0.332746,0.00303771,0.0405687,685,1142,-12.4979,-0.57966
-532,-118,-12.7061,0.724854,0.0082838,-0.000154439,-0.000312603,0.00829536,-0.000166004,-0.0369784,0.0055864,0.040512,692,1142,-12.7061,-0.724805
-525,-118,-12.5068,0.584961,0.0118594,-0.000960965,-0.00153765,0.0120413,-0.00114281,-0.117714,0.00843431,0.0418716,699,1142,-12.5068,-0.584935
-518,-118,0,0,0,0,0,0,0,0,0,-1,706,1142,0,0
-511,-118,0,0,0,0,0,0,0,0,0,-1,713,1142,0,0
-504,-118,0,0,0,0,0,0,0,0,0,-1,720,1142,0,0
-497,-118,0,0,0,0,0,0,0,0,0,-1,727,1142,0,0
-490,-118,0,0,0,0,0,0,0,0,0,-1,734,1142,0,0
-483,-118,0,0,0,0,0,0,0,0,0,-1,741,1142,0,0
-476,-118,0,0,0,0,0,0,0,0,0,-1,748,1142,0,0
-469,-118,0,0,0,0,0,0,0,0,0,-1,755,1142,0,0
-462,-118,0,0,0,0,0,0,0,0,0,-1,762,1142,0,0
-455,-118,0,0,0,0,0,0,0,0,0,-1,769,1142,0,0
-448,-118,0,0,0,0,0,0,0,0,0,-1,776,1142,0,0
-441,-118,0,0,0,0,0,0,0,0,0,-1,783,1142,0,0
-434,-118,0,0,0,0,0,0,0,0,0,-1,790,1142,0,0
-427,-118,0,0,0,0,0,0,0,0,0,-1,797,1142,0,0
-420,-118,0,0,0,0,0,0,0,0,0,-1,804,1142,0,0
-413,-118,0,0,0,0,0,0,0,0,0,-1,811,1142,0,0
-406,-118,0,0,0,0,0,0,0,0,0,-1,818,1142,0,0
-399,-118,0,0,0,0,0,0,0,0,0,-1,825,1142,0,0
-392,-118,0,0,0,0,0,0,0,0,0,-1,832,1142,0,0
-385,-118,0,0,0,0,0,0,0,0,0,-1,839,1142,0,0
-378,-118,0,0,0,0,0,0,0,0,0,-1,846,1142,0,0
-371,-118,0,0,0,0,0,0,0,0,0,-1,853,1142,0,0
-364,-118,0,0,0,0,0,0,0,0,0,-1,860,1142,0,0
-357,-118,0,0,0,0,0,0,0,0,0,-1,867,1142,0,0
-350,-118,0,0,0,0,0,0,0,0,0,-1,874,1142,0,0
-343,-118,0,0,0,0,0,0,0,0,0,-1,881,1142,0,0
-336,-118,0,0,0,0,0,0,0,0,0,-1,888,1142,0,0
-329,-118,0,0,0,0,0,0,0,0,0,-1,895,1142,0,0
-322,-118,0,0,0,0,0,0,0,0,0,-1,902,1142,0,0
-315,-118,0,0,0,0,0,0,0,0,0,-1,909,1142,0,0
-308,-118,0,0,0,0,0,0,0,0,0,-1,916,1142,0,0
-301,-118,0,0,0,0,0,0,0,0,0,-1,923,1142,0,0
-294,-118,0,0,0,0,0,0,0,0,0,-1,930,1142,0,0
-287,-118,0,0,0,0,0,0,0,0,0,-1,937,1142,0,0
-280,-118,0,0,0,0,0,0,0,0,0,-1,944,1142,0,0
-273,-118,0,0,0,0,0,0,0,0,0,-1,951,1142,0,0
-266,-118,0,0,0,0,0,0,0,0,0,-1,958,1142,0,0
-259,-118,0,0,0,0,0,0,0,0,0,-1,965,1142,0,0
-252,-118,0,0,0,0,0,0,0,0,0,-1,972,1142,0,0
-245,-118,0,0,0,0,0,0,0,0,0,-1,979,1142,0,0
-238,-118,0,0,0,0,0,0,0,0,0,-1,986,1142,0,0
-231,-118,0,0,0,0,0,0,0,0,0,-1,993,1142,0,0
-224,-118,0,0,0,0,0,0,0,0,0,-1,1000,1142,0,0
-217,-118,0,0,0,0,0,0,0,0,0,-1,1007,1142,0,0
-210,-118,0,0,0,0,0,0,0,0,0,-1,1014,1142,0,0
-203,-118,0,0,0,0,0,0,0,0,0,-1,1021,1142,0,0
-196,-118,0,0,0,0,0,0,0,0,0,-1,1028,1142,0,0
-189,-118,0,0,0,0,0,0,0,0,0,-1,1035,1142,0,0
-182,-118,0,0,0,0,0,0,0,0,0,-1,1042,1142,0,0
-175,-118,0,0,0,0,0,0,0,0,0,-1,1049,1142,0,0
-168,-118,0,0,0,0,0,0,0,0,0,-1,1056,1142,0,0
-161,-118,0,0,0,0,0,0,0,0,0,-1,1063,1142,0,0
-154,-118,0,0,0,0,0,0,0,0,0,-1,1070,1142,0,0
-147,-118,0,0,0,0,0,0,0,0,0,-1,1077,1142,0,0
-140,-118,0,0,0,0,0,0,0,0,0,-1,1084,1142,0,0
-133,-118,0,0,0,0,0,0,0,0,0,-1,1091,1142,0,0
-126,-118,0,0,0,0,0,0,0,0,0,-1,1098,1142,0,0
-119,-118,0,0,0,0,0,0,0,0,0,-1,1105,1142,0,0
-112,-118,0,0,0,0,0,0,0,0,0,-1,1112,1142,0,0
-105,-118,0,0,0,0,0,0,0,0,0,-1,1119,1142,0,0
-98,-118,0,0,0,0,0,0,0,0,0,-1,1126,1142,0,0
-91,-118,0,0,0,0,0,0,0,0,0,-1,1133,1142,0,0
-84,-118,0,0,0,0,0,0,0,0,0,-1,1140,1142,0,0
-77,-118,0,0,0,0,0,0,0,0,0,-1,1147,1142,0,0
-70,-118,0,0,0,0,0,0,0,0,0,-1,1154,1142,0,0
-63,-118,0,0,0,0,0,0,0,0,0,-1,1161,1142,0,0
-56,-118,0,0,0,0,0,0,0,0,0,-1,1168,1142,0,0
-49,-118,0,0,0,0,0,0,0,0,0,-1,1175,1142,0,0
-42,-118,0,0,0,0,0,0,0,0,0,-1,1182,1142,0,0
-35,-118,0,0,0,0,0,0,0,0,0,-1,1189,1142,0,0
-28,-118,0,0,0,0,0,0,0,0,0,-1,1196,1142,0,0
-21,-118,0,0,0,0,0,0,0,0,0,-1,1203,1142,0,0
-14,-118,0,0,0,0,0,0,0,0,0,-1,1210,1142,0,0
-7,-118,0,0,0,0,0,0,0,0,0,-1,1217,1142,0,0
0,-118,0,0,0,0,0,0,0,0,0,-1,1224,1142,0,0
7,-118,0,0,0,0,0,0,0,0,0,-1,1231,1142,0,0
14,-118,0,0,0,0,0,0,0,0,0,-1,1238,1142,0,0
21,-118,0,0,0,0,0,0,0,0,0,-1,1245,1142,0,0
28,-118,0,0,0,0,0,0,0,0,0,-1,1252,1142,0,0
35,-118,0,0,0,0,0,0,0,0,0,-1,1259,1142,0,0
42,-118,0,0,0,0,0,0,0,0,0,-1,1266,1142,0,0
49,-118,0,0,0,0,0,0,0,0,0,-1,1273,1142,0,0
56,-118,0,0,0,0,0,0,0,0,0,-1,1280,1142,0,0
63,-118,0,0,0,0,0,0,0,0,0,-1,1287,1142,0,0
70,-118,0,0,0,0,0,0,0,0,0,-1,1294,1142,0,0
77,-118,0,0,0,0,0,0,0,0,0,-1,1301,1142,0,0
84,-118,0,0,0,0,0,0,0,0,0,-1,1308,1142,0,0
91,-118,0,0,0,0,0,0,0,0,0,-1,1315,1142,0,0
98,-118,0,0,0,0,0,0,0,0,0,-1,1322,1142,0,0
105,-118,0,0,0,0,0,0,0,0,0,-1,1329,1142,0,0
112,-118,0,0,0,0,0,0,0,0,0,-1,1336,1142,0,0
119,-118,0,0,0,0,0,0,0,0,0,-1,1343,1142,0,0
126,-118,0,0,0,0,0,0,0,0,0,-1,1350,1142,0,0
133,-118,0,0,0,0,0,0,0,0,0,-1,1357,1142,0,0
140,-118,0,0,0,0,0,0,0,0,0,-1,1364,1142,0,0
147,-118,0,0,0,0,0,0,0,0,0,-1,1371,1142,0,0
154,-118,0,0,0,0,0,0,0,0,0,-1,1378,1142,0,0
161,-118,0,0,0,0,0,0,0,0,0,-1,1385,1142,0,0
168,-118,0,0,0,0,0,0,0,0,0,-1,1392,1142,0,0
175,-118,0,0,0,0,0,0,0,0,0,-1,1399,1142,0,0
182,-118,0,0,0,0,0,0,0,0,0,-1,1406,1142,0,0
189,-118,0,0,0,0,0,0,0,0,0,-1,1413,1142,0,0
196,-118,0,0,0,0,0,0,0,0,0,-1,1420,1142,0,0
203,-118,0,0,0,0,0,0,0,0,0,-1,1427,1142,0,0
210,-118,0,0,0,0,0,0,0,0,0,-1,1434,1142,0,0
217,-118,0,0,0,0,0,0,0,0,0,-1,1441,1142,0,0
224,-118,0,0,0,0,0,0,0,0,0,-1,1448,1142,0,0
231,-118,0,0,0,0,0,0,0,0,0,-1,1455,1142,0,0
238,-118,0,0,0,0,0,0,0,0,0,-1,1462,1142,0,0
245,-118,0,0,0,0,0,0,0,0,0,-1,1469,1142,0,0
252,-118,0,0,0,0,0,0,0,0,0,-1,1476,1142,0,0
259,-118,0,0,0,0,0,0,0,0,0,-1,1483,1142,0,0
266,-118,0,0,0,0,0,0,0,0,0,-1,1490,1142,0,0
273,-118,0,0,0,0,0,0,0,0,0,-1,1497,1142,0,0
280,-118,0,0,0,0,0,0,0,0,0,-1,1504,1142,0,0
287,-118,0,0,0,0,0,0,0,0,0,-1,1511,1142,0,0
294,-118,0,0,0,0,0,0,0,0,0,-1,1518,1142,0,0
301,-118,0,0,0,0,0,0,0,0,0,-1,1525,1142,0,0
308,-118,0,0,0,0,0,0,0,0,0,-1,1532,1142,0,0
315,-118,0,0,0,0,0,0,0,0,0,-1,1539,1142,0,0
322,-118,0,0,0,0,0,0,0,0,0,-1,1546,1142,0,0
329,-118,0,0,0,0,0,0,0,0,0,-1,1553,1142,0,0
336,-118,0,0,0,0,0,0,0,0,0,-1,1560,1142,0,0
343,-118,0,0,0,0,0,0,0,0,0,-1,1567,1142,0,0
350,-118,0,0,0,0,0,0,0,0,0,-1,1574,1142,0,0
357,-118,0,0,0,0,0,0,0,0,0,-1,1581,1142,0,0
364,-118,0,0,0,0,0,0,0,0,0,-1,1588,1142,0,0
371,-118,0,0,0,0,0,0,0,0,0,-1,1595,1142,0,0
378,-118,0,0,0,0,0,0,0,0,0,-1,1602,1142,0,0
385,-118,0,0,0,0,0,0,0,0,0,-1,1609,1142,0,0
392,-118,0,0,0,0,0,0,0,0,0,-1,1616,1142,0,0
399,-118,0,0,0,0,0,0,0,0,0,-1,1623,1142,0,0
406,-118,0,0,0,0,0,0,0,0,0,-1,1630,1142,0,0
413,-118,0,0,0,0,0,0,0,0,0,-1,1637,1142,0,0
420,-118,0,0,0,0,0,0,0,0,0,-1,1644,1142,0,0
427,-118,0,0,0,0,0,0,0,0,0,-1,1651,1142,0,0
434,-118,0,0,0,0,0,0,0,0,0,-1,1658,1142,0,0
441,-118,0,0,0,0,0,0,0,0,0,-1,1665,1142,0,0
448,-118,0,0,0,0,0,0,0,0,0,-1,1672,1142,0,0
455,-118,0,0,0,0,0,0,0,0,0,-1,1679,1142,0,0
462,-118,0,0,0,0,0,0,0,0,0,-1,1686,1142,0,0
469,-118,0,0,0,0,0,0,0,0,0,-1,1693,1142,0,0
476,-118,0,0,0,0,0,0,0,0,0,-1,1700,1142,0,0
483,-118,0,0,0,0,0,0,0,0,0,-1,1707,1142,0,0
490,-118,0,0,0,0,0,0,0,0,0,-1,1714,1142,0,0
497,-118,0,0,0,0,0,0,0,0,0,-1,1721,1142,0,0
504,-118,0,0,0,0,0,0,0,0,0,-1,1728,1142,0,0
511,-118,0,0,0,0,0,0,0,0,0,-1,1735,1142,0,0
518,-118,0,0,0,0,0,0,0,0,0,-1,1742,1142,0,0
525,-118,0,0,0,0,0,0,0,0,0,-1,1749,1142,0,0
532,-118,0,0,0,0,0,0,0,0,0,-1,1756,1142,0,0
539,-118,0,0,0,0,0,0,0,0,0,-1,1763,1142,0,0
546,-118,0,0,0,0,0,0,0,0,0,-1,1770,1142,0,0
553,-118,0,0,0,0,0,0,0,0,0,-1,1777,1142,0,0
560,-118,0,0,0,0,0,0,0,0,0,-1,1784,1142,0,0
567,-118,0,0,0,0,0,0,0,0,0,-1,1791,1142,0,0
574,-118,0,0,0,0,0,0,0,0,0,-1,1798,1142,0,0
581,-118,0,0,0,0,0,0,0,0,0,-1,1805,1142,0,0
588,-118,0,0,0,0,0,0,0,0,0,-1,1812,1142,0,0
595,-118,0,0,0,0,0,0,0,0,0,-1,1819,1142,0,0
602,-118,0,0,0,0,0,0,0,0,0,-1,1826,1142,0,0
609,-118,0,0,0,0,0,0,0,0,0,-1,1833,1142,0,0
616,-118,0,0,0,0,0,0,0,0,0,-1,1840,1142,0,0
623,-118,0,0,0,0,0,0,0,0,0,-1,1847,1142,0,0
630,-118,0,0,0,0,0,0,0,0,0,-1,1854,1142,0,0
637,-118,0,0,0,0,0,0,0,0,0,-1,1861,1142,0,0
644,-118,19.1271,2.39209,0.00793318,-0.000857868,0.00240396,0.00854761,-0.0014723,0.250234,0.00624727,0.0402148,1868,1142,19.1271,-2.39204
651,-118,19.3521,2.61353,0.00594809,-0.000670947,0.00189231,0.00645089,-0.00117375,0.259705,0.00474053,0.0412802,1875,1142,19.3521,-2.61355
658,-118,19.4996,2.67334,0.0046631,-0.000287001,0.00113435,0.00491066,-0.000534565,0.214874,0.00346573,0.0429976,1882,1142,19.4996,-2.67331
665,-118,19.4117,2.59192,0.0028726,-0.000366915,0.00104903,0.00318263,-0.000676945,0.287359,0.00237971,0.0419632,1889,1142,19.4117,-2.59189
672,-118,19.3231,2.63647,0.000536661,-0.00087676,0.00165663,0.00163102,-0.00197112,0.583788,0.00208279,0.0442843,1896,1142,19.3231,-2.63648
679,-118,19.3612,2.63782,-0.00162321,-0.00144942,0.00241045,0.000875698,-0.00394832,0.803414,0.0029675,0.0406184,1903,1142,19.3613,-2.63779
686,-118,19.2607,2.67529,-0.00344276,-0.00201738,0.00315345,0.000502907,-0.00596305,0.896533,0.00415316,0.0374963,1910,1142,19.2607,-2.67529
693,-118,19.2213,2.45972,-0.00478408,-0.00244955,0.00376029,0.00032048,-0.00755411,0.935891,0.00514623,0.0368057,1917,1142,19.2213,-2.4597
700,-118,19.328,2.38171,-0.00586537,-0.00277725,0.00416332,0.000119114,-0.00876173,0.962971,0.00588126,0.0248004,1924,1142,19.328,-2.38166
707,-118,19.347,2.90125,0,0,0,0,0,0,0,-1,1931,1142,19.3471,-2.90128
714,-118,18.8525,3.40747,-0.00695245,-0.00301827,0.00477859,0.000182272,-0.010153,0.980651,0.00683022,0.0374619,1938,1142,18.8525,-3.40747
721,-118,18.4314,3.83203,-0.00704576,-0.00288519,0.00481115,0.000276163,-0.0102071,0.989454,0.00689864,0.0105011,1945,1142,18.4314,-3.83202
728,-118,18.4255,3.77344,-0.00691717,-0.00260135,0.00462003,0.000339882,-0.0098584,1.00388,0.00668844,0.0139112,1952,1142,18.4256,-3.77345
735,-118,18.4026,3.70703,-0.00637195,-0.00213012,0.00426339,0.000510768,-0.00901285,1.01621,0.00618585,0.0140996,1959,1142,18.4026,-3.707
742,-118,18.438,3.61926,-0.00559651,-0.00153378,0.00380132,0.000744894,-0.00787519,1.03079,0.00551522,0.021029,1966,1142,18.438,-3.6193
749,-118,18.4327,3.50708,-0.0042084,-0.000587147,0.00336029,0.00141929,-0.00621483,1.03251,0.00468848,0.0207119,1973,1142,18.4328,-3.50705
756,-118,18.3888,3.43396,-0.0017543,0.000903422,0.00265251,0.00254132,-0.0033922,1.01761,0.00343744,0.0177175,1980,1142,18.3888,-3.43394
763,-118,18.3969,3.37366,0.00100339,0.00257008,0.00192919,0.00386889,-0.00029543,0.978253,0.00268317,0.0094471,1987,1142,18.3968,-3.37367
770,-118,18.3871,3.30652,0.00415187,0.004312,0.00166718,0.00590104,0.00256283,0.809392,0.00341676,0.0113369,1994,1142,18.3871,-3.30653
777,-118,18.3588,3.15869,0.00789611,0.00619812,0.00199234,0.0092128,0.00488142,0.583985,0.00532217,0.02531,2001,1142,18.3588,-3.15875
784,-118,17.9535,2.86365,0.013296,0.00863091,0.00258832,0.0144477,0.00747918,0.418665,0.00834314,0.0410002,2008,1142,17.9534,-2.86364
791,-118,17.9674,3.04468,0.0214372,0.0119095,0.0032692,0.0224511,0.0108957,0.30072,0.012964,0.04675,2015,1142,17.9674,-3.04472
798,-118,17.926,3.14185,0,0,0,0,0,0,0,-1,2022,1142,17.9261,-3.1419
805,-118,17.2552,2.32666,0,0,0,0,0,0,0,-1,2029,1142,17.2553,-2.32666
812,-118,19.3792,4.56799,0,0,0,0,0,0,0,-1,2036,1142,19.3792,-4.56804
-700,-125,0,0,0,0,0,0,0,0,0,-1,524,1149,0,0
-693,-125,-1.83722,-3.87622,0,0,0,0,0,0,0,-1,531,1149,-1.83724,3.87624
-686,-125,-3.17084,-3.6947,0,0,0,0,0,0,0,-1,538,1149,-3.17083,3.69472
-679,-125,-10.7617,-0.772827,0,0,0,0,0,0,0,-1,545,1149,-10.7617,0.77277
-672,-125,-11.5477,0.445801,0,0,0,0,0,0,0,-1,552,1149,-11.5478,-0.445831
-665,-125,-11.0038,0.157959,0,0,0,0,0,0,0,-1,559,1149,-11.0038,-0.158018
-658,-125,-11.2799,0.665649,0,0,0,0,0,0,0,-1,566,1149,-11.2799,-0.665655
-651,-125,-11.3264,0.741455,0.00307203,0.0130519,-0.00859837,0.0180034,-0.00187943,-1.04832,0.0126752,0.0386933,573,1149,-11.3263,-0.741438
-644,-125,-11.3909,0.811523,0.00175461,0.00967132,-0.00594349,0.0128539,-0.00142801,-1.07917,0.0090828,0.0247735,580,1149,-11.3909,-0.811491
-637,-125,-11.4111,0.871216,0.000707656,0.00666371,-0.00396318,0.00864305,-0.00127168,-1.1076,0.00622934,0.0132896,587,1149,-11.4111,-0.87126
-630,-125,-11.4019,0.968872,-0.0005232,0.00421588,-0.00268117,0.00542452,-0.00173184,-1.14729,0.00431118,0.0138252,594,1149,-11.4019,-0.968891
-623,-125,-11.3942,1.07544,-0.00172983,0.00227423,-0.00231366,0.0033318,-0.0027874,-1.14205,0.00353758,0.0125904,601,1149,-11.3942,-1.07545
-616,-125,-11.4096,1.16565,-0.00296978,0.000756445,-0.00245383,0.00197432,-0.00418765,-1.1101,0.00363331,0.0124337,608,1149,-11.4096,-1.1656
-609,-125,-11.4438,1.25073,-0.00398567,-0.000362844,-0.00306198,0.0013834,-0.00573191,-1.0525,0.00435626,0.0132544,615,1149,-11.4438,-1.25077
-602,-125,-11.4691,1.38062,-0.00462212,-0.00076516,-0.00381221,0.00157859,-0.00696587,-1.01956,0.00524983,0.0129516,622,1149,-11.4691,-1.38062
-595,-125,-11.4732,1.50366,-0.0051965,-0.00106297,-0.00438597,0.0017188,-0.00797827,-1.00558,0.00597476,0.0121347,629,1149,-11.4732,-1.50362
-588,-125,-11.3484,1.63953,-0.00584245,-0.00133072,-0.00469116,0.00161878,-0.00879195,-1.00951,0.00646877,0.0166424,636,1149,-11.3484,-1.63955
-581,-125,-11.5589,-0.6875,0,0,0,0,0,0,0,-1,643,1149,-11.5589,0.68744
-574,-125,-12.0393,-0.0753174,0,0,0,0,0,0,0,-1,650,1149,-12.0393,0.075334
-567,-125,-12.5197,0.536743,0,0,0,0,0,0,0,-1,657,1149,-12.5197,-0.536772
-560,-125,-12.3439,0.291626,-0.00435857,-0.00137748,-0.00453786,0.00190836,-0.00764442,-0.944081,0.00583733,0.0402477,664,1149,-12.3438,-0.291665
-553,-125,-12.2389,0.288086,-0.00276188,-0.00113018,-0.00387315,0.00201212,-0.00590418,-0.889202,0.00475104,0.0401682,671,1149,-12.2389,-0.288031
-546,-125,-12.343,0.37915,-0.000204271,-0.000828301,-0.00285074,0.00235148,-0.00338405,-0.73089,0.00332925,0.0397757,678,1149,-12.343,-0.379123
-539,-125,-12.5435,0.623535,0.00372673,-0.000558421,-0.00140012,0.00414364,-0.000975332,-0.289408,0.00313847,0.0427219,685,1149,-12.5435,-0.623516
-532,-125,-12.6508,0.662598,0.00903342,-0.000465385,0.000227485,0.00903886,-0.000470829,0.0239305,0.00618882,0.0406536,692,1149,-12.6508,-0.662621
-525,-125,-12.3522,0.406738,0.0137064,-0.00100381,-9.53313e-05,0.0137071,-0.00100443,-0.00648024,0.00949058,0.0424559,699,1149,-12.3522,-0.406749
-518,-125,0,0,0,0,0,0,0,0,0,-1,706,1149,0,0
-511,-125,0,0,0,0,0,0,0,0,0,-1,713,1149,0,0
-504,-125,0,0,0,0,0,0,0,0,0,-1,720,1149,0,0
-497,-125,0,0,0,0,0,0,0,0,0,-1,727,1149,0,0
-490,-125,0,0,0,0,0,0,0,0,0,-1,734,1149,0,0
-483,-125,0,0,0,0,0,0,0,0,0,-1,741,1149,0,0
-476,-125,0,0,0,0,0,0,0,0,0,-1,748,1149,0,0
-469,-125,0,0,0,0,0,0,0,0,0,-1,755,1149,0,0
-462,-125,0,0,0,0,0,0,0,0,0,-1,762,1149,0,0
-455,-125,0,0,0,0,0,0,0,0,0,-1,769,1149,0,0
-448,-125,0,0,0,0,0,0,0,0,0,-1,776,1149,0,0
-441,-125,0,0,0,0,0,0,0,0,0,-1,783,1149,0,0
-434,-125,0,0,0,0,0,0,0,0,0,-1,790,1149,0,0
-427,-125,0,0,0,0,0,0,0,0,0,-1,797,1149,0,0
-420,-125,0,0,0,0,0,0,0,0,0,-1,804,1149,0,0
-413,-125,0,0,0,0,0,0,0,0,0,-1,811,1149,0,0
-406,-125,0,0,0,0,0,0,0,0,0,-1,818,1149,0,0
-399,-125,0,0,0,0,0,0,0,0,0,-1,825,1149,0,0
-392,-125,0,0,0,0,0,0,0,0,0,-1,832,1149,0,0
-385,-125,0,0,0,0,0,0,0,0,0,-1,839,1149,0,0
-378,-125,0,0,0,0,0,0,0,0,0,-1,846,1149,0,0
-371,-125,0,0,0,0,0,0,0,0,0,-1,853,1149,0,0
-364,-125,0,0,0,0,0,0,0,0,0,-1,860,1149,0,0
-357,-125,0,0,0,0,0,0,0,0,0,-1,867,1149,0,0
-350,-125,0,0,0,0,0,0,0,0,0,-1,874,1149,0,0
-343,-125,0,0,0,0,0,0,0,0,0,-1,881,1149,0,0
-336,-125,0,0,0,0,0,0,0,0,0,-1,888,1149,0,0
-329,-125,0,0,0,0,0,0,0,0,0,-1,895,1149,0,0
-322,-125,0,0,0,0,0,0,0,0,0,-1,902,1149,0,0
-315,-125,0,0,0,0,0,0,0,0,0,-1,909,1149,0,0
-308,-125,0,0,0,0,0,0,0,0,0,-1,916,1149,0,0
-301,-125,0,0,0,0,0,0,0,0,0,-1,923,1149,0,0
-294,-125,0,0,0,0,0,0,0,0,0,-1,930,1149,0,0
-287,-125,0,0,0,0,0,0,0,0,0,-1,937,1149,0,0
-280,-125,0,0,0,0,0,0,0,0,0,-1,944,1149,0,0
-273,-125,0,0,0,0,0,0,0,0,0,-1,951,1149,0,0
-266,-125,0,0,0,0,0,0,0,0,0,-1,958,1149,0,0
-259,-125,0,0,0,0,0,0,0,0,0,-1,965,1149,0,0
-252,-125,0,0,0,0,0,0,0,0,0,-1,972,1149,0,0
-245,-125,0,0,0,0,0,0,0,0,0,-1,979,1149,0,0
-238,-125,0,0,0,0,0,0,0,0,0,-1,986,1149,0,0
-231,-125,0,0,0,0,0,0,0,0,0,-1,993,1149,0,0
-224,-125,0,0,0,0,0,0,0,0,0,-1,1000,1149,0,0
-217,-125,0,0,0,0,0,0,0,0,0,-1,1007,1149,0,0
-210,-125,0,0,0,0,0,0,0,0,0,-1,1014,1149,0,0
-203,-125,0,0,0,0,0,0,0,0,0,-1,1021,1149,0,0
-196,-125,0,0,0,0,0,0,0,0,0,-1,1028,1149,0,0
-189,-125,0,0,0,0,0,0,0,0,0,-1,1035,1149,0,0
-182,-125,0,0,0,0,0,0,0,0,0,-1,1042,1149,0,0
-175,-125,0,0,0,0,0,0,0,0,0,-1,1049,1149,0,0
-168,-125,0,0,0,0,0,0,0,0,0,-1,1056,1149,0,0
-161,-125,0,0,0,0,0,0,0,0,0,-1,1063,1149,0,0
-154,-125,0,0,0,0,0,0,0,0,0,-1,1070,1149,0,0
-147,-125,0,0,0,0,0,0,0,0,0,-1,1077,1149,0,0
-140,-125,0,0,0,0,0,0,0,0,0,-1,1084,1149,0,0
-133,-125,0,0,0,0,0,0,0,0,0,-1,1091,1149,0,0
-126,-125,0,0,0,0,0,0,0,0,0,-1,1098,1149,0,0
-119,-125,0,0,0,0,0,0,0,0,0,-1,1105,1149,0,0
-112,-125,0,0,0,0,0,0,0,0,0,-1,1112,1149,0,0
-105,-125,0,0,0,0,0,0,0,0,0,-1,1119,1149,0,0
-98,-125,0,0,0,0,0,0,0,0,0,-1,1126,1149,0,0
-91,-125,0,0,0,0,0,0,0,0,0,-1,1133,1149,0,0
-84,-125,0,0,0,0,0,0,0,0,0,-1,1140,1149,0,0
-77,-125,0,0,0,0,0,0,0,0,0,-1,1147,1149,0,0
-70,-125,0,0,0,0,0,0,0,0,0,-1,1154,1149,0,0
-63,-125,0,0,0,0,0,0,0,0,0,-1,1161,1149,0,0
-56,-125,0,0,0,0,0,0,0,0,0,-1,1168,1149,0,0
-49,-125,0,0,0,0,0,0,0,0,0,-1,1175,1149,0,0
-42,-125,0,0,0,0,0,0,0,0,0,-1,1182,1149,0,0
-35,-125,0,0,0,0,0,0,0,0,0,-1,1189,1149,0,0
-28,-125,0,0,0,0,0,0,0,0,0,-1,1196,1149,0,0
-21,-125,0,0,0,0,0,0,0,0,0,-1,1203,1149,0,0
-14,-125,0,0,0,0,0,0,0,0,0,-1,1210,1149,0,0
-7,-125,0,0,0,0,0,0,0,0,0,-1,1217,1149,0,0
0,-125,0,0,0,0,0,0,0,0,0,-1,1224,1149,0,0
7,-125,0,0,0,0,0,0,0,0,0,-1,1231,1149,0,0
14,-125,0,0,0,0,0,0,0,0,0,-1,1238,1149,0,0
21,-125,0,0,0,0,0,0,0,0,0,-1,1245,1149,0,0
28,-125,0,0,0,0,0,0,0,0,0,-1,1252,1149,0,0
35,-125,0,0,0,0,0,0,0,0,0,-1,1259,1149,0,0
42,-125,0,0,0,0,0,0,0,0,0,-1,1266,1149,0,0
49,-125,0,0,0,0,0,0,0,0,0,-1,1273,1149,0,0
56,-125,0,0,0,0,0,0,0,0,0,-1,1280,1149,0,0
63,-125,0,0,0,0,0,0,0,0,0,-1,1287,1149,0,0
70,-125,0,0,0,0,0,0,0,0,0,-1,1294,1149,0,0
77,-125,0,0,0,0,0,0,0,0,0,-1,1301,1149,0,0
84,-125,0,0,0,0,0,0,0,0,0,-1,1308,1149,0,0
91,-125,0,0,0,0,0,0,0,0,0,-1,1315,1149,0,0
98,-125,0,0,0,0,0,0,0,0,0,-1,1322,1149,0,0
105,-125,0,0,0,0,0,0,0,0,0,-1,1329,1149,0,0
112,-125,0,0,0,0,0,0,0,0,0,-1,1336,1149,0,0
119,-125,0,0,0,0,0,0,0,0,0,-1,1343,1149,0,0
126,-125,0,0,0,0,0,0,0,0,0,-1,1350,1149,0,0
133,-125,0,0,0,0,0,0,0,0,0,-1,1357,1149,0,0
140,-125,0,0,0,0,0,0,0,0,0,-1,1364,1149,0,0
147,-125,0,0,0,0,0,0,0,0,0,-1,1371,1149,0,0
154,-125,0,0,0,0,0,0,0,0,0,-1,1378,1149,0,0
161,-125,0,0,0,0,0,0,0,0,0,-1,1385,1149,0,0
168,-125,0,0,0,0,0,0,0,0,0,-1,1392,1149,0,0
175,-125,0,0,0,0,0,0,0,0,0,-1,1399,1149,0,0
182,-125,0,0,0,0,0,0,0,0,0,-1,1406,1149,0,0
189,-125,0,0,0,0,0,0,0,0,0,-1,1413,1149,0,0
196,-125,0,0,0,0,0,0,0,0,0,-1,1420,1149,0,0
203,-125,0,0,0,0,0,0,0,0,0,-1,1427,1149,0,0
210,-125,0,0,0,0,0,0,0,0,0,-1,1434,1149,0,0
217,-125,0,0,0,0,0,0,0,0,0,-1,1441,1149,0,0
224,-125,0,0,0,0,0,0,0,0,0,-1,1448,1149,0,0
231,-125,0,0,0,0,0,0,0,0,0,-1,1455,1149,0,0
238,-125,0,0,0,0,0,0,0,0,0,-1,1462,1149,0,0
245,-125,0,0,0,0,0,0,0,0,0,-1,1469,1149,0,0
252,-125,0,0,0,0,0,0,0,0,0,-1,1476,1149,0,0
259,-125,0,0,0,0,0,0,0,0,0,-1,1483,1149,0,0
266,-125,0,0,0,0,0,0,0,0,0,-1,1490,1149,0,0
273,-125,0,0,0,0,0,0,0,0,0,-1,1497,1149,0,0
280,-125,0,0,0,0,0,0,0,0,0,-1,1504,1149,0,0
287,-125,0,0,0,0,0,0,0,0,0,-1,1511,1149,0,0
294,-125,0,0,0,0,0,0,0,0,0,-1,1518,1149,0,0
301,-125,0,0,0,0,0,0,0,0,0,-1,1525,1149,0,0
308,-125,0,0,0,0,0,0,0,0,0,-1,1532,1149,0,0
315,-125,0,0,0,0,0,0,0,0,0,-1,1539,1149,0,0
322,-125,0,0,0,0,0,0,0,0,0,-1,1546,1149,0,0
329,-125,0,0,0,0,0,0,0,0,0,-1,1553,1149,0,0
336,-125,0,0,0,0,0,0,0,0,0,-1,1560,1149,0,0
343,-125,0,0,0,0,0,0,0,0,0,-1,1567,1149,0,0
350,-125,0,0,0,0,0,0,0,0,0,-1,1574,1149,0,0
357,-125,0,0,0,0,0,0,0,0,0,-1,1581,1149,0,0
364,-125,0,0,0,0,0,0,0,0,0,-1,1588,1149,0,0
371,-125,0,0,0,0,0,0,0,0,0,-1,1595,1149,0,0
378,-125,0,0,0,0,0,0,0,0,0,-1,1602,1149,0,0
385,-125,0,0,0,0,0,0,0,0,0,-1,1609,1149,0,0
392,-125,0,0,0,0,0,0,0,0,0,-1,1616,1149,0,0
399,-125,0,0,0,0,0,0,0,0,0,-1,1623,1149,0,0
406,-125,0,0,0,0,0,0,0,0,0,-1,1630,1149,0,0
413,-125,0,0,0,0,0,0,0,0,0,-1,1637,1149,0,0
420,-125,0,0,0,0,0,0,0,0,0,-1,1644,1149,0,0
427,-125,0,0,0,0,0,0,0,0,0,-1,1651,1149,0,0
434,-125,0,0,0,0,0,0,0,0,0,-1,1658,1149,0,0
441,-125,0,0,0,0,0,0,0,0,0,-1,1665,1149,0,0
448,-125,0,0,0,0,0,0,0,0,0,-1,1672,1149,0,0
455,-125,0,0,0,0,0,0,0,0,0,-1,1679,1149,0,0
462,-125,0,0,0,0,0,0,0,0,0,-1,1686,1149,0,0
469,-125,0,0,0,0,0,0,0,0,0,-1,1693,1149,0,0
476,-125,0,0,0,0,0,0,0,0,0,-1,1700,1149,0,0
483,-125,0,0,0,0,0,0,0,0,0,-1,1707,1149,0,0
490,-125,0,0,0,0,0,0,0,0,0,-1,1714,1149,0,0
497,-125,0,0,0,0,0,0,0,0,0,-1,1721,1149,0,0
504,-125,0,0,0,0,0,0,0,0,0,-1,1728,1149,0,0
511,-125,0,0,0,0,0,0,0,0,0,-1,1735,1149,0,0
518,-125,0,0,0,0,0,0,0,0,0,-1,1742,1149,0,0
525,-125,0,0,0,0,0,0,0,0,0,-1,1749,1149,0,0
532,-125,0,0,0,0,0,0,0,0,0,-1,1756,1149,0,0
539,-125,0,0,0,0,0,0,0,0,0,-1,1763,1149,0,0
546,-125,0,0,0,0,0,0,0,0,0,-1,1770,1149,0,0
553,-125,0,0,0,0,0,0,0,0,0,-1,1777,1149,0,0
560,-125,0,0,0,0,0,0,0,0,0,-1,1784,1149,0,0
567,-125,0,0,0,0,0,0,0,0,0,-1,1791,1149,0,0
574,-125,0,0,0,0,0,0,0,0,0,-1,1798,1149,0,0
581,-125,0,0,0,0,0,0,0,0,0,-1,1805,1149,0,0
588,-125,0,0,0,0,0,0,0,0,0,-1,1812,1149,0,0
595,-125,0,0,0,0,0,0,0,0,0,-1,1819,1149,0,0
602,-125,0,0,0,0,0,0,0,0,0,-1,1826,1149,0,0
609,-125,0,0,0,0,0,0,0,0,0,-1,1833,1149,0,0
616,-125,0,0,0,0,0,0,0,0,0,-1,1840,1149,0,0
623,-125,0,0,0,0,0,0,0,0,0,-1,1847,1149,0,0
630,-125,0,0,0,0,0,0,0,0,0,-1,1854,1149,0,0
637,-125,0,0,0,0,0,0,0,0,0,-1,1861,1149,0,0
644,-125,19.1908,2.34961,0.00648784,-0.000932051,0.00239373,0.00719305,-0.00163726,0.286504,0.00542413,0.0411691,1868,1149,19.1908,-2.3496
651,-125,19.3457,2.47827,0.00500078,-0.000569983,0.00184467,0.00555623,-0.00112543,0.292475,0.00413072,0.0389103,1875,1149,19.3457,-2.47833
658,-125,19.4294,2.36328,0.00398627,-6.31805e-05,0.00106865,0.00425098,-0.000327895,0.242821,0.00294937,0.0426921,1882,1149,19.4295,-2.36322
665,-125,19.3152,2.33582,0.00229701,-0.000144653,0.00106808,0.00269828,-0.000545925,0.359381,0.00200575,0.0425627,1889,1149,19.3152,-2.33577
672,-125,19.3461,2.48047,8.84405e-05,-0.000625285,0.00166373,0.00143315,-0.00196999,0.679751,0.00197294,0.0406399,1896,1149,19.3461,-2.48045
679,-125,19.4231,2.60486,-0.00195261,-0.00118769,0.00237894,0.000839342,-0.00397964,0.8651,0.00297264,0.0378225,1903,1149,19.4231,-2.60481
686,-125,19.3213,2.63013,-0.0036936,-0.00176071,0.00308539,0.000506056,-0.00596036,0.937174,0.00415255,0.0367844,1910,1149,19.3212,-2.63013
693,-125,19.2455,2.37146,-0.00497361,-0.00219853,0.00365074,0.000319462,-0.0074916,0.967002,0.00510422,0.0337577,1917,1149,19.2455,-2.37141
700,-125,19.3259,2.39111,-0.00601418,-0.00254573,0.00403793,0.000114632,-0.00867454,0.988229,0.00582161,0.0174638,1924,1149,19.3259,-2.39115
707,-125,19.2863,3.25061,0,0,0,0,0,0,0,-1,1931,1149,19.2863,-3.25056
714,-125,18.752,3.57727,-0.00709697,-0.00286768,0.00461932,9.80091e-05,-0.0100627,1.00005,0.00674135,0.036158,1938,1149,18.752,-3.57731
721,-125,18.2969,3.84497,-0.00719238,-0.00275354,0.00464678,0.000176647,-0.0101226,1.00819,0.00680802,0.0165046,1945,1149,18.2969,-3.84491
728,-125,18.3151,3.78149,-0.00701221,-0.00247877,0.00445164,0.000250021,-0.009741,1.02088,0.00657892,0.011516,1952,1149,18.3151,-3.7815
735,-125,18.3181,3.7207,-0.00639337,-0.00200751,0.0040832,0.000434364,-0.00883525,1.03183,0.00604016,0.0146751,1959,1149,18.3181,-3.72075
742,-125,18.3546,3.61804,-0.00553466,-0.00143362,0.00360327,0.000661727,-0.00763001,1.04408,0.00532098,0.02195,1966,1149,18.3546,-3.61804
749,-125,18.3401,3.50098,-0.00383105,-0.000431887,0.00323422,0.00152213,-0.00578506,1.02732,0.00445169,0.0255358,1973,1149,18.3401,-3.50097
756,-125,18.3138,3.42273,-0.00067048,0.00129055,0.00271957,0.00320097,-0.00258089,0.958415,0.00334455,0.0197447,1980,1149,18.3138,-3.42277
763,-125,18.3383,3.37366,0.0028102,0.00315782,0.00222263,0.00521343,0.000754594,0.824419,0.00325339,0.010614,1987,1149,18.3383,-3.3736
770,-125,18.3407,3.27698,0.00697117,0.00516389,0.00231943,0.00855677,0.00357829,0.599645,0.00496225,0.01298,1994,1149,18.3406,-3.27695
777,-125,18.3209,3.17078,0.0122147,0.00747985,0.00311204,0.0137575,0.0059371,0.46023,0.00796766,0.0251679,2001,1149,18.3209,-3.17076
784,-125,18.1761,3.08374,0.0197389,0.0105571,0.00434192,0.0214669,0.0088291,0.378766,0.0124588,0.0447053,2008,1149,18.1761,-3.08377
791,-125,17.9952,3.04419,0.0307101,0.0147369,0.00591147,0.0326598,0.0127872,0.318592,0.0190035,0.0492274,2015,1149,17.9952,-3.04422
798,-125,17.8347,3.00049,0,0,0,0,0,0,0,-1,2022,1149,17.8347,-3.00051
805,-125,18.0162,2.33069,0,0,0,0,0,0,0,-1,2029,1149,18.0163,-2.33065
812,-125,18.2029,1.93188,0,0,0,0,0,0,0,-1,2036,1149,18.2029,-1.93186
-700,-132,0,0,0,0,0,0,0,0,0,-1,524,1156,0,0
-693,-132,-2.53571,-3.18945,0,0,0,0,0,0,0,-1,531,1156,-2.53568,3.18941
-686,-132,-2.78711,-2.68665,0,0,0,0,0,0,0,-1,538,1156,-2.78711,2.68665
-679,-132,-12.082,0.817261,0,0,0,0,0,0,0,-1,545,1156,-12.0819,-0.817234
-672,-132,-11.8109,0.689697,0.0110521,0.0263282,-0.0275901,0.047318,-0.00993772,-0.920437,0.035327,0.0415307,552,1156,-11.8109,-0.689703
-665,-132,-11.3963,0.547363,0,0,0,0,0,0,0,-1,559,1156,-11.3963,-0.547379
-658,-132,-11.2017,0.620483,0.00581758,0.0169539,-0.0148428,0.0272386,-0.00446713,-0.964846,0.0198167,0.044557,566,1156,-11.2017,-0.620543
-651,-132,-11.2308,0.708618,0.00384606,0.0130395,-0.0104598,0.0198681,-0.00298257,-0.992426,0.0143433,0.0424135,573,1156,-11.2309,-0.708619
-644,-132,-11.2852,0.774658,0.00235749,0.00970633,-0.00714879,0.0140697,-0.00200592,-1.02279,0.010115,0.0221061,580,1156,-11.2852,-0.774598
-637,-132,-11.2798,0.836182,0.00120135,0.00675659,-0.00466314,0.00940668,-0.00144874,-1.05401,0.00680563,0.0115794,587,1156,-11.2798,-0.836145
-630,-132,-11.2737,0.939941,-0.000123677,0.00435331,-0.00283833,0.00572964,-0.00150001,-1.11929,0.00440572,0.0098755,594,1156,-11.2737,-0.939942
-623,-132,-11.2822,1.06934,-0.00149815,0.00236154,-0.00215223,0.00332243,-0.00245905,-1.15089,0.00335032,0.0145493,601,1156,-11.2822,-1.06935
-616,-132,-11.2849,1.18591,-0.00293935,0.000586513,-0.00223593,0.00167092,-0.00402375,-1.11923,0.00338007,0.0191301,608,1156,-11.2848,-1.1859
-609,-132,-11.2814,1.27209,-0.00411332,-0.000597515,-0.00291647,0.00104988,-0.00576071,-1.05662,0.00423405,0.0125662,615,1156,-11.2814,-1.27211
-602,-132,-11.3261,1.35925,-0.0048887,-0.00110502,-0.00369345,0.00115292,-0.00714663,-1.02208,0.00519157,0.0113798,622,1156,-11.3261,-1.35922
-595,-132,-11.3452,1.50415,-0.00556085,-0.00151239,-0.00425142,0.00117211,-0.00824535,-1.00758,0.00592636,0.0126163,629,1156,-11.3452,-1.50416
-588,-132,-11.273,1.67395,-0.00625274,-0.00185613,-0.00456744,0.00101449,-0.00912336,-1.00969,0.00644707,0.0153171,636,1156,-11.273,-1.67393
-581,-132,-11.6251,1.53516,0,0,0,0,0,0,0,-1,643,1156,-11.6251,-1.53512
-574,-132,-11.9319,-0.0424805,0,0,0,0,0,0,0,-1,650,1156,-11.9319,0.0424335
-567,-132,-12.3232,0.314941,-0.00563994,-0.00217253,-0.00478788,0.00118587,-0.00899834,-0.959106,0.00643074,0.0375184,657,1156,-12.3232,-0.314888
-560,-132,-12.4247,0.435791,-0.00477659,-0.00206031,-0.004471,0.00125427,-0.00809118,-0.932852,0.00585715,0.0368557,664,1156,-12.4247,-0.435751
-553,-132,-12.4082,0.355347,-0.00315788,-0.00178723,-0.00381468,0.00140321,-0.00634831,-0.874277,0.00476925,0.0395232,671,1156,-12.4082,-0.355324
-546,-132,-12.4607,0.333618,-0.000505798,-0.00138222,-0.00276246,0.001853,-0.00374101,-0.706739,0.00329045,0.0404535,678,1156,-12.4607,-0.333679
-539,-132,-12.3746,0.56604,0.00360628,-0.000899178,-0.00122513,0.00391787,-0.00121077,-0.249051,0.00309546,0.0420614,685,1156,-12.3746,-0.566095
-532,-132,-12.3207,0.38269,0.0094158,-0.00046237,0.000689286,0.00946367,-0.000510235,0.0693309,0.00648588,0.0402597,692,1156,-12.3208,-0.382736
-525,-132,-12.3006,0.466187,0.0149818,-0.000561773,0.001117,0.0150617,-0.000641634,0.0713738,0.0102617,0.0394695,699,1156,-12.3006,-0.466137
-518,-132,0,0,0,0,0,0,0,0,0,-1,706,1156,0,0
-511,-132,0,0,0,0,0,0,0,0,0,-1,713,1156,0,0
-504,-132,0,0,0,0,0,0,0,0,0,-1,720,1156,0,0
-497,-132,0,0,0,0,0,0,0,0,0,-1,727,1156,0,0
-490,-132,0,0,0,0,0,0,0,0,0,-1,734,1156,0,0
-483,-132,0,0,0,0,0,0,0,0,0,-1,741,1156,0,0
-476,-132,0,0,0,0,0,0,0,0,0,-1,748,1156,0,0
-469,-132,0,0,0,0,0,0,0,0,0,-1,755,1156,0,0
-462,-132,0,0,0,0,0,0,0,0,0,-1,762,1156,0,0
-455,-132,0,0,0,0,0,0,0,0,0,-1,769,1156,0,0
-448,-132,0,0,0,0,0,0,0,0,0,-1,776,1156,0,0
-441,-132,0,0,0,0,0,0,0,0,0,-1,783,1156,0,0
-434,-132,0,0,0,0,0,0,0,0,0,-1,790,1156,0,0
-427,-132,0,0,0,0,0,0,0,0,0,-1,797,1156,0,0
-420,-132,0,0,0,0,0,0,0,0,0,-1,804,1156,0,0
-413,-132,0,0,0,0,0,0,0,0,0,-1,811,1156,0,0
-406,-132,0,0,0,0,0,0,0,0,0,-1,818,1156,0,0
-399,-132,0,0,0,0,0,0,0,0,0,-1,825,1156,0,0
-392,-132,0,0,0,0,0,0,0,0,0,-1,832,1156,0,0
-385,-132,0,0,0,0,0,0,0,0,0,-1,839,1156,0,0
-378,-132,0,0,0,0,0,0,0,0,0,-1,846,1156,0,0
-371,-132,0,0,0,0,0,0,0,0,0,-1,853,1156,0,0
-364,-132,0,0,0,0,0,0,0,0,0,-1,860,1156,0,0
-357,-132,0,0,0,0,0,0,0,0,0,-1,867,1156,0,0
-350,-132,0,0,0,0,0,0,0,0,0,-1,874,1156,0,0
-343,-132,0,0,0,0,0,0,0,0,0,-1,881,1156,0,0
-336,-132,0,0,0,0,0,0,0,0,0,-1,888,1156,0,0
-329,-132,0,0,0,0,0,0,0,0,0,-1,895,1156,0,0
-322,-132,0,0,0,0,0,0,0,0,0,-1,902,1156,0,0
-315,-132,0,0,0,0,0,0,0,0,0,-1,909,1156,0,0
-308,-132,0,0,0,0,0,0,0,0,0,-1,916,1156,0,0
-301,-132,0,0,0,0,0,0,0,0,0,-1,923,1156,0,0
-294,-132,0,0,0,0,0,0,0,0,0,-1,930,1156,0,0
-287,-132,0,0,0,0,0,0,0,0,0,-1,937,1156,0,0
-280,-132,0,0,0,0,0,0,0,0,0,-1,944,1156,0,0
-273,-132,0,0,0,0,0,0,0,0,0,-1,951,1156,0,0
-266,-132,0,0,0,0,0,0,0,0,0,-1,958,1156,0,0
-259,-132,0,0,0,0,0,0,0,0,0,-1,965,1156,0,0
-252,-132,0,0,0,0,0,0,0,0,0,-1,972,1156,0,0
-245,-132,0,0,0,0,0,0,0,0,0,-1,979,1156,0,0
-238,-132,0,0,0,0,0,0,0,0,0,-1,986,1156,0,0
-231,-132,0,0,0,0,0,0,0,0,0,-1,993,1156,0,0
-224,-132,0,0,0,0,0,0,0,0,0,-1,1000,1156,0,0
-217,-132,0,0,0,0,0,0,0,0,0,-1,1007,1156,0,0
-210,-132,0,0,0,0,0,0,0,0,0,-1,1014,1156,0,0
-203,-132,0,0,0,0,0,0,0,0,0,-1,1021,1156,0,0
-196,-132,0,0,0,0,0,0,0,0,0,-1,1028,1156,0,0
-189,-132,0,0,0,0,0,0,0,0,0,-1,1035,1156,0,0
-182,-132,0,0,0,0,0,0,0,0,0,-1,1042,1156,0,0
-175,-132,0,0,0,0,0,0,0,0,0,-1,1049,1156,0,0
-168,-132,0,0,0,0,0,0,0,0,0,-1,1056,1156,0,0
-161,-132,0,0,0,0,0,0,0,0,0,-1,1063,1156,0,0
-154,-132,0,0,0,0,0,0,0,0,0,-1,1070,1156,0,0
-147,-132,0,0,0,0,0,0,0,0,0,-1,1077,1156,0,0
-140,-132,0,0,0,0,0,0,0,0,0,-1,1084,1156,0,0
-133,-132,0,0,0,0,0,0,0,0,0,-1,1091,1156,0,0
-126,-132,0,0,0,0,0,0,0,0,0,-1,1098,1156,0,0
-119,-132,0,0,0,0,0,0,0,0,0,-1,1105,1156,0,0
-112,-132,0,0,0,0,0,0,0,0,0,-1,1112,1156,0,0
-105,-132,0,0,0,0,0,0,0,0,0,-1,1119,1156,0,0
-98,-132,0,0,0,0,0,0,0,0,0,-1,1126,1156,0,0
-91,-132,0,0,0,0,0,0,0,0,0,-1,1133,1156,0,0
-84,-132,0,0,0,0,0,0,0,0,0,-1,1140,1156,0,0
-77,-132,0,0,0,0,0,0,0,0,0,-1,1147,1156,0,0
-70,-132,0,0,0,0,0,0,0,0,0,-1,1154,1156,0,0
-63,-132,0,0,0,0,0,0,0,0,0,-1,1161,1156,0,0
-56,-132,0,0,0,0,0,0,0,0,0,-1,1168,1156,0,0
-49,-132,0,0,0,0,0,0,0,0,0,-1,1175,1156,0,0
-42,-132,0,0,0,0,0,0,0,0,0,-1,1182,1156,0,0
-35,-132,0,0,0,0,0,0,0,0,0,-1,1189,1156,0,0
-28,-132,0,0,0,0,0,0,0,0,0,-1,1196,1156,0,0
-21,-132,0,0,0,0,0,0,0,0,0,-1,1203,1156,0,0
-14,-132,0,0,0,0,0,0,0,0,0,-1,1210,1156,0,0
-7,-132,0,0,0,0,0,0,0,0,0,-1,1217,1156,0,0
0,-132,0,0,0,0,0,0,0,0,0,-1,1224,1156,0,0
7,-132,0,0,0,0,0,0,0,0,0,-1,1231,1156,0,0
14,-132,0,0,0,0,0,0,0,0,0,-1,1238,1156,0,0
21,-132,0,0,0,0,0,0,0,0,0,-1,1245,1156,0,0
28,-132,0,0,0,0,0,0,0,0,0,-1,1252,1156,0,0
35,-132,0,0,0,0,0,0,0,0,0,-1,1259,1156,0,0
42,-132,0,0,0,0,0,0,0,0,0,-1,1266,1156,0,0
49,-132,0,0,0,0,0,0,0,0,0,-1,1273,1156,0,0
56,-132,0,0,0,0,0,0,0,0,0,-1,1280,1156,0,0
63,-132,0,0,0,0,0,0,0,0,0,-1,1287,1156,0,0
70,-132,0,0,0,0,0,0,0,0,0,-1,1294,1156,0,0
77,-132,0,0,0,0,0,0,0,0,0,-1,1301,1156,0,0
84,-132,0,0,0,0,0,0,0,0,0,-1,1308,1156,0,0
91,-132,0,0,0,0,0,0,0,0,0,-1,1315,1156,0,0
98,-132,0,0,0,0,0,0,0,0,0,-1,1322,1156,0,0
105,-132,0,0,0,0,0,0,0,0,0,-1,1329,1156,0,0
112,-132,0,0,0,0,0,0,0,0,0,-1,1336,1156,0,0
119,-132,0,0,0,0,0,0,0,0,0,-1,1343,1156,0,0
126,-132,0,0,0,0,0,0,0,0,0,-1,1350,1156,0,0
133,-132,0,0,0,0,0,0,0,0,0,-1,1357,1156,0,0
140,-132,0,0,0,0,0,0,0,0,0,-1,1364,1156,0,0
147,-132,0,0,0,0,0,0,0,0,0,-1,1371,1156,0,0
154,-132,0,0,0,0,0,0,0,0,0,-1,1378,1156,0,0
161,-132,0,0,0,0,0,0,0,0,0,-1,1385,1156,0,0
168,-132,0,0,0,0,0,0,0,0,0,-1,1392,1156,0,0
175,-132,0,0,0,0,0,0,0,0,0,-1,1399,1156,0,0
182,-132,0,0,0,0,0,0,0,0,0,-1,1406,1156,0,0
189,-132,0,0,0,0,0,0,0,0,0,-1,1413,1156,0,0
196,-132,0,0,0,0,0,0,0,0,0,-1,1420,1156,0,0
203,-132,0,0,0,0,0,0,0,0,0,-1,1427,1156,0,0
210,-132,0,0,0,0,0,0,0,0,0,-1,1434,1156,0,0
217,-132,0,0,0,0,0,0,0,0,0,-1,1441,1156,0,0
224,-132,0,0,0,0,0,0,0,0,0,-1,1448,1156,0,0
231,-132,0,0,0,0,0,0,0,0,0,-1,1455,1156,0,0
238,-132,0,0,0,0,0,0,0,0,0,-1,1462,1156,0,0
245,-132,0,0,0,0,0,0,0,0,0,-1,1469,1156,0,0
252,-132,0,0,0,0,0,0,0,0,0,-1,1476,1156,0,0
259,-132,0,0,0,0,0,0,0,0,0,-1,1483,1156,0,0
266,-132,0,0,0,0,0,0,0,0,0,-1,1490,1156,0,0
273,-132,0,0,0,0,0,0,0,0,0,-1,1497,1156,0,0
280,-132,0,0,0,0,0,0,0,0,0,-1,1504,1156,0,0
287,-132,0,0,0,0,0,0,0,0,0,-1,1511,1156,0,0
294,-132,0,0,0,0,0,0,0,0,0,-1,1518,1156,0,0
301,-132,0,0,0,0,0,0,0,0,0,-1,1525,1156,0,0
308,-132,0,0,0,0,0,0,0,0,0,-1,1532,1156,0,0
315,-132,0,0,0,0,0,0,0,0,0,-1,1539,1156,0,0
322,-132,0,0,0,0,0,0,0,0,0,-1,1546,1156,0,0
329,-132,0,0,0,0,0,0,0,0,0,-1,1553,1156,0,0
336,-132,0,0,0,0,0,0,0,0,0,-1,1560,1156,0,0
343,-132,0,0,0,0,0,0,0,0,0,-1,1567,1156,0,0
350,-132,0,0,0,0,0,0,0,0,0,-1,1574,1156,0,0
357,-132,0,0,0,0,0,0,0,0,0,-1,1581,1156,0,0
364,-132,0,0,0,0,0,0,0,0,0,-1,1588,1156,0,0
371,-132,0,0,0,0,0,0,0,0,0,-1,1595,1156,0,0
378,-132,0,0,0,0,0,0,0,0,0,-1,1602,1156,0,0
385,-132,0,0,0,0,0,0,0,0,0,-1,1609,1156,0,0
392,-132,0,0,0,0,0,0,0,0,0,-1,1616,1156,0,0
399,-132,0,0,0,0,0,0,0,0,0,-1,1623,1156,0,0
406,-132,0,0,0,0,0,0,0,0,0,-1,1630,1156,0,0
413,-132,0,0,0,0,0,0,0,0,0,-1,1637,1156,0,0
420,-132,0,0,0,0,0,0,0,0,0,-1,1644,1156,0,0
427,-132,0,0,0,0,0,0,0,0,0,-1,1651,1156,0,0
434,-132,0,0,0,0,0,0,0,0,0,-1,1658,1156,0,0
441,-132,0,0,0,0,0,0,0,0,0,-1,1665,1156,0,0
448,-132,0,0,0,0,0,0,0,0,0,-1,1672,1156,0,0
455,-132,0,0,0,0,0,0,0,0,0,-1,1679,1156,0,0
462,-132,0,0,0,0,0,0,0,0,0,-1,1686,1156,0,0
469,-132,0,0,0,0,0,0,0,0,0,-1,1693,1156,0,0
476,-132,0,0,0,0,0,0,0,0,0,-1,1700,1156,0,0
483,-132,0,0,0,0,0,0,0,0,0,-1,1707,1156,0,0
490,-132,0,0,0,0,0,0,0,0,0,-1,1714,1156,0,0
497,-132,0,0,0,0,0,0,0,0,0,-1,1721,1156,0,0
504,-132,0,0,0,0,0,0,0,0,0,-1,1728,1156,0,0
511,-132,0,0,0,0,0,0,0,0,0,-1,1735,1156,0,0
518,-132,0,0,0,0,0,0,0,0,0,-1,1742,1156,0,0
525,-132,0,0,0,0,0,0,0,0,0,-1,1749,1156,0,0
532,-132,0,0,0,0,0,0,0,0,0,-1,1756,1156,0,0
539,-132,0,0,0,0,0,0,0,0,0,-1,1763,1156,0,0
546,-132,0,0,0,0,0,0,0,0,0,-1,1770,1156,0,0
553,-132,0,0,0,0,0,0,0,0,0,-1,1777,1156,0,0
560,-132,0,0,0,0,0,0,0,0,0,-1,1784,1156,0,0
567,-132,0,0,0,0,0,0,0,0,0,-1,1791,1156,0,0
574,-132,0,0,0,0,0,0,0,0,0,-1,1798,1156,0,0
581,-132,0,0,0,0,0,0,0,0,0,-1,1805,1156,0,0
588,-132,0,0,0,0,0,0,0,0,0,-1,1812,1156,0,0
595,-132,0,0,0,0,0,0,0,0,0,-1,1819,1156,0,0
602,-132,0,0,0,0,0,0,0,0,0,-1,1826,1156,0,0
609,-132,0,0,0,0,0,0,0,0,0,-1,1833,1156,0,0
616,-132,0,0,0,0,0,0,0,0,0,-1,1840,1156,0,0
623,-132,0,0,0,0,0,0,0,0,0,-1,1847,1156,0,0
630,-132,0,0,0,0,0,0,0,0,0,-1,1854,1156,0,0
637,-132,0,0,0,0,0,0,0,0,0,-1,1861,1156,0,0
644,-132,19.2737,2.42517,0.00512612,-0.000965689,0.00220837,0.00584245,-0.00168202,0.313663,0.00456024,0.0412688,1868,1156,19.2737,-2.42515
651,-132,19.1216,2.453,0.00412285,-0.000442565,0.00166987,0.00466843,-0.00098815,0.315789,0.00348863,0.0411589,1875,1156,19.1216,-2.45295
658,-132,19.1698,2.44397,0.00337048,0.000178671,0.000917505,0.00361542,-6.62744e-05,0.260884,0.00243267,0.043795,1882,1156,19.1698,-2.44396
665,-132,19.2788,2.44263,0.00180467,0.000114098,0.00101592,0.00228098,-0.000362209,0.438412,0.00165465,0.0404361,1889,1156,19.2788,-2.44259
672,-132,19.3794,2.38196,-0.000225548,-0.000298831,0.00157952,0.00131776,-0.00184214,0.773801,0.00183272,0.0359981,1896,1156,19.3794,-2.38192
679,-132,19.3871,2.40991,-0.0021123,-0.000821486,0.00223557,0.000859974,-0.00379376,0.925927,0.00285927,0.0371353,1903,1156,19.3871,-2.40986
686,-132,19.3959,2.5127,-0.00374015,-0.00137189,0.00288631,0.000563748,-0.00567579,0.980056,0.00398509,0.0343852,1910,1156,19.3958,-2.51268
693,-132,19.3116,2.41602,-0.0049448,-0.00179334,0.00339253,0.000371543,-0.00710968,1.00281,0.00486836,0.0269994,1917,1156,19.3116,-2.41596
700,-132,19.3389,2.33301,-0.0059376,-0.00214614,0.00375368,0.000163354,-0.00824709,1.01923,0.00555331,0.0299575,1924,1156,19.3388,-2.33307
707,-132,18.7729,3.12964,0,0,0,0,0,0,0,-1,1931,1156,18.773,-3.12965
714,-132,18.4755,3.84155,-0.00702294,-0.00254465,0.00427659,4.35277e-05,-0.00961111,1.02657,0.00642196,0.030997,1938,1156,18.4755,-3.8416
721,-132,18.1697,3.8894,-0.00714495,-0.00246761,0.00428957,7.93943e-05,-0.00969195,1.03497,0.00648793,0.0215564,1945,1156,18.1697,-3.88941
728,-132,18.1899,3.79224,-0.00694169,-0.00221265,0.00409999,0.000155778,-0.00931013,1.04696,0.00625932,0.0111102,1952,1156,18.19,-3.79228
735,-132,18.2394,3.71667,-0.00628405,-0.00176548,0.00373988,0.000344566,-0.0083941,1.05711,0.00571438,0.0131335,1959,1156,18.2394,-3.71668
742,-132,18.2356,3.60461,-0.00536435,-0.00121743,0.00326098,0.000573463,-0.00715525,1.06858,0.00497235,0.0179683,1966,1156,18.2356,-3.60466
749,-132,18.2285,3.48926,-0.00336229,-0.000186531,0.00299373,0.00161436,-0.00516318,1.02923,0.00408791,0.022856,1973,1156,18.2285,-3.48921
756,-132,18.2428,3.40771,0.000547923,0.00177025,0.00277128,0.00399695,-0.00167878,0.893928,0.00336676,0.0200441,1980,1156,18.2428,-3.40766
763,-132,18.26,3.35425,0.00474186,0.00382292,0.0025869,0.00690977,0.001655,0.697507,0.00416591,0.0120928,1987,1156,18.26,-3.35426
770,-132,18.2644,3.29871,0.00995985,0.00610234,0.00314293,0.0117187,0.00434353,0.510189,0.00684082,0.0125684,1994,1156,18.2644,-3.29872
777,-132,18.2408,3.20813,0.0168287,0.00889586,0.00453718,0.0188887,0.0068358,0.426209,0.0110432,0.0215424,2001,1156,18.2409,-3.20813
784,-132,18.3071,3.3219,0.0266403,0.012687,0.00658742,0.0292588,0.0100684,0.378355,0.0171641,0.0432399,2008,1156,18.3071,-3.32194
791,-132,18.4601,3.49023,0.0406127,0.017856,0.00932241,0.043944,0.0145247,0.343203,0.0258523,0.0483068,2015,1156,18.4601,-3.49026
798,-132,18.5531,2.83093,0,0,0,0,0,0,0,-1,2022,1156,18.5531,-2.83099
805,-132,18.7687,2.39417,0.0868188,0.0344504,0.0167276,0.0917058,0.0295633,0.284246,0.0540486,0.0462794,2029,1156,18.7687,-2.39419
812,-132,18.9795,2.02429,0,0,0,0,0,0,0,-1,2036,1156,18.9794,-2.02428
-700,-139,0,0,0,0,0,0,0,0,0,-1,524,1163,0,0
-693,-139,-3.18982,-2.70618,0,0,0,0,0,0,0,-1,531,1163,-3.1898,2.70612
-686,-139,-12.5488,2.40503,0,0,0,0,0,0,0,-1,538,1163,-12.5488,-2.40499
-679,-139,-11.9537,1.4845,0.0154405,0.0352055,-0.0461442,0.0725136,-0.0218675,-0.890887,0.0570462,0.0496639,545,1163,-11.9537,-1.48444
-672,-139,-12.054,0.988403,0.0121861,0.0293403,-0.0348467,0.05665,-0.0151236,-0.906068,0.0436892,0.0450515,552,1163,-12.054,-0.988377
-665,-139,-11.6827,0.733887,0,0,0,0,0,0,0,-1,559,1163,-11.6826,-0.733942
-658,-139,-11.1925,0.599976,0.00673909,0.0189114,-0.0185441,0.0323426,-0.00669208,-0.943959,0.0241041,0.0476025,566,1163,-11.1925,-0.599993
-651,-139,-11.1189,0.723999,0.00461464,0.0145542,-0.0129646,0.0234689,-0.00430008,-0.968427,0.0172588,0.0439292,573,1163,-11.1189,-0.724045
-644,-139,-11.1547,0.723511,0.00296062,0.010843,-0.00876966,0.0165164,-0.00271275,-0.996581,0.0120177,0.0221269,580,1163,-11.1546,-0.723453
-637,-139,-11.142,0.807007,0.0017059,0.00761245,-0.00565696,0.0110406,-0.00172229,-1.02597,0.00799659,0.0125251,587,1163,-11.142,-0.807014
-630,-139,-11.1505,0.92395,0.000306304,0.00499455,-0.00319559,0.0066136,-0.00131274,-1.10184,0.00490555,0.0111045,594,1163,-11.1505,-0.923917
-623,-139,-11.1652,1.05957,-0.00126045,0.00266251,-0.0019357,0.00345682,-0.00205475,-1.1814,0.00321624,0.0161863,601,1163,-11.1652,-1.05959
-616,-139,-11.1873,1.15576,-0.00285489,0.000562796,-0.00195263,0.00144874,-0.00374084,-1.14485,0.00309208,0.0170227,608,1163,-11.1873,-1.15573
-609,-139,-11.1583,1.29407,-0.00413019,-0.000659966,-0.00278564,0.000886754,-0.00567691,-1.06393,0.00411219,0.0211587,615,1163,-11.1582,-1.29404
-602,-139,-11.2225,1.42725,-0.00505829,-0.00129943,-0.00359303,0.000876026,-0.00723375,-1.02637,0.00513946,0.0139998,622,1163,-11.2225,-1.42726
-595,-139,-11.2209,1.53784,-0.00585856,-0.001807,-0.0041477,0.000783195,-0.00844875,-1.01256,0.00591089,0.0125627,629,1163,-11.2209,-1.53779
-588,-139,-11.1642,1.69226,-0.00658646,-0.00221015,-0.00449513,0.000601123,-0.00939773,-1.01191,0.00647483,0.0159037,636,1163,-11.1642,-1.69223
-581,-139,-11.1747,1.60999,0,0,0,0,0,0,0,-1,643,1163,-11.1748,-1.61
-574,-139,-11.7814,0.901978,0,0,0,0,0,0,0,-1,650,1163,-11.7815,-0.901934
-567,-139,-12.304,0.249634,-0.00595791,-0.00257649,-0.00476759,0.000791299,-0.0093257,-0.955793,0.00649698,0.0386736,657,1163,-12.304,-0.249666
-560,-139,-12.4448,0.568604,-0.00512407,-0.00247959,-0.0044857,0.000874687,-0.00847835,-0.928723,0.00596521,0.0346162,664,1163,-12.4448,-0.568599
-553,-139,-12.449,0.427856,-0.00350247,-0.00218303,-0.00384861,0.00106199,-0.00674749,-0.870282,0.00489091,0.0375384,671,1163,-12.449,-0.427877
-546,-139,-12.3718,0.322144,-0.000788388,-0.00169037,-0.00277648,0.00157349,-0.00405225,-0.704885,0.00335147,0.0392795,678,1163,-12.3718,-0.32213
-539,-139,-12.3182,0.304321,0.00344328,-0.00101806,-0.00116146,0.00372754,-0.00130232,-0.240026,0.00301441,0.0400247,685,1163,-12.3183,-0.304334
-532,-139,-12.2969,0.223267,0.00962801,-0.000251951,0.0010192,0.00973206,-0.000355994,0.101731,0.0066099,0.037277,692,1163,-12.2969,-0.223262
-525,-139,-12.2986,0.43457,0.016023,0.000147286,0.0022098,0.0163249,-0.000154563,0.135756,0.0109351,0.0373628,699,1163,-12.2986,-0.43453
-518,-139,0,0,0,0,0,0,0,0,0,-1,706,1163,0,0
-511,-139,0,0,0,0,0,0,0,0,0,-1,713,1163,0,0
-504,-139,0,0,0,0,0,0,0,0,0,-1,720,1163,0,0
-497,-139,0,0,0,0,0,0,0,0,0,-1,727,1163,0,0
-490,-139,0,0,0,0,0,0,0,0,0,-1,734,1163,0,0
-483,-139,0,0,0,0,0,0,0,0,0,-1,741,1163,0,0
-476,-139,0,0,0,0,0,0,0,0,0,-1,748,1163,0,0
-469,-139,0,0,0,0,0,0,0,0,0,-1,755,1163,0,0
-462,-139,0,0,0,0,0,0,0,0,0,-1,762,1163,0,0
-455,-139,0,0,0,0,0,0,0,0,0,-1,769,1163,0,0
-448,-139,0,0,0,0,0,0,0,0,0,-1,776,1163,0,0
-441,-139,0,0,0,0,0,0,0,0,0,-1,783,1163,0,0
-434,-139,0,0,0,0,0,0,0,0,0,-1,790,1163,0,0
-427,-139,0,0,0,0,0,0,0,0,0,-1,797,1163,0,0
-420,-139,0,0,0,0,0,0,0,0,0,-1,804,1163,0,0
-413,-139,0,0,0,0,0,0,0,0,0,-1,811,1163,0,0
-406,-139,0,0,0,0,0,0,0,0,0,-1,818,1163,0,0
-399,-139,0,0,0,0,0,0,0,0,0,-1,825,1163,0,0
-392,-139,0,0,0,0,0,0,0,0,0,-1,832,1163,0,0
-385,-139,0,0,0,0,0,0,0,0,0,-1,839,1163,0,0
-378,-139,0,0,0,0,0,0,0,0,0,-1,846,1163,0,0
-371,-139,0,0,0,0,0,0,0,0,0,-1,853,1163,0,0
-364,-139,0,0,0,0,0,0,0,0,0,-1,860,1163,0,0
-357,-139,0,0,0,0,0,0,0,0,0,-1,867,1163,0,0
-350,-139,0,0,0,0,0,0,0,0,0,-1,874,1163,0,0
-343,-139,0,0,0,0,0,0,0,0,0,-1,881,1163,0,0
-336,-139,0,0,0,0,0,0,0,0,0,-1,888,1163,0,0
-329,-139,0,0,0,0,0,0,0,0,0,-1,895,1163,0,0
-322,-139,0,0,0,0,0,0,0,0,0,-1,902,1163,0,0
-315,-139,0,0,0,0,0,0,0,0,0,-1,909,1163,0,0
-308,-139,0,0,0,0,0,0,0,0,0,-1,916,1163,0,0
-301,-139,0,0,0,0,0,0,0,0,0,-1,923,1163,0,0
-294,-139,0,0,0,0,0,0,0,0,0,-1,930,1163,0,0
-287,-139,0,0,0,0,0,0,0,0,0,-1,937,1163,0,0
-280,-139,0,0,0,0,0,0,0,0,0,-1,944,1163,0,0
-273,-139,0,0,0,0,0,0,0,0,0,-1,951,1163,0,0
-266,-139,0,0,0,0,0,0,0,0,0,-1,958,1163,0,0
-259,-139,0,0,0,0,0,0,0,0,0,-1,965,1163,0,0
-252,-139,0,0,0,0,0,0,0,0,0,-1,972,1163,0,0
-245,-139,0,0,0,0,0,0,0,0,0,-1,979,1163,0,0
-238,-139,0,0,0,0,0,0,0,0,0,-1,986,1163,0,0
-231,-139,0,0,0,0,0,0,0,0,0,-1,993,1163,0,0
-224,-139,0,0,0,0,0,0,0,0,0,-1,1000,1163,0,0
-217,-139,0,0,0,0,0,0,0,0,0,-1,1007,1163,0,0
-210,-139,0,0,0,0,0,0,0,0,0,-1,1014,1163,0,0
-203,-139,0,0,0,0,0,0,0,0,0,-1,1021,1163,0,0
-196,-139,0,0,0,0,0,0,0,0,0,-1,1028,1163,0,0
-189,-139,0,0,0,0,0,0,0,0,0,-1,1035,1163,0,0
-182,-139,0,0,0,0,0,0,0,0,0,-1,1042,1163,0,0
-175,-139,0,0,0,0,0,0,0,0,0,-1,1049,1163,0,0
-168,-139,0,0,0,0,0,0,0,0,0,-1,1056,1163,0,0
-161,-139,0,0,0,0,0,0,0,0,0,-1,1063,1163,0,0
-154,-139,0,0,0,0,0,0,0,0,0,-1,1070,1163,0,0
-147,-139,0,0,0,0,0,0,0,0,0,-1,1077,1163,0,0
-140,-139,0,0,0,0,0,0,0,0,0,-1,1084,1163,0,0
-133,-139,0,0,0,0,0,0,0,0,0,-1,1091,1163,0,0
-126,-139,0,0,0,0,0,0,0,0,0,-1,1098,1163,0,0
-119,-139,0,0,0,0,0,0,0,0,0,-1,1105,1163,0,0
-112,-139,0,0,0,0,0,0,0,0,0,-1,1112,1163,0,0
-105,-139,0,0,0,0,0,0,0,0,0,-1,1119,1163,0,0
-98,-139,0,0,0,0,0,0,0,0,0,-1,1126,1163,0,0
-91,-139,0,0,0,0,0,0,0,0,0,-1,1133,1163,0,0
-84,-139,0,0,0,0,0,0,0,0,0,-1,1140,1163,0,0
-77,-139,0,0,0,0,0,0,0,0,0,-1,1147,1163,0,0
-70,-139,0,0,0,0,0,0,0,0,0,-1,1154,1163,0,0
-63,-139,0,0,0,0,0,0,0,0,0,-1,1161,1163,0,0
-56,-139,0,0,0,0,0,0,0,0,0,-1,1168,1163,0,0
-49,-139,0,0,0,0,0,0,0,0,0,-1,1175,1163,0,0
-42,-139,0,0,0,0,0,0,0,0,0,-1,1182,1163,0,0
-35,-139,0,0,0,0,0,0,0,0,0,-1,1189,1163,0,0
-28,-139,0,0,0,0,0,0,0,0,0,-1,1196,1163,0,0
-21,-139,0,0,0,0,0,0,0,0,0,-1,1203,1163,0,0
-14,-139,0,0,0,0,0,0,0,0,0,-1,1210,1163,0,0
-7,-139,0,0,0,0,0,0,0,0,0,-1,1217,1163,0,0
0,-139,0,0,0,0,0,0,0,0,0,-1,1224,1163,0,0
7,-139,0,0,0,0,0,0,0,0,0,-1,1231,1163,0,0
14,-139,0,0,0,0,0,0,0,0,0,-1,1238,1163,0,0
21,-139,0,0,0,0,0,0,0,0,0,-1,1245,1163,0,0
28,-139,0,0,0,0,0,0,0,0,0,-1,1252,1163,0,0
35,-139,0,0,0,0,0,0,0,0,0,-1,1259,1163,0,0
42,-139,0,0,0,0,0,0,0,0,0,-1,1266,1163,0,0
49,-139,0,0,0,0,0,0,0,0,0,-1,1273,1163,0,0
56,-139,0,0,0,0,0,0,0,0,0,-1,1280,1163,0,0
63,-139,0,0,0,0,0,0,0,0,0,-1,1287,1163,0,0
70,-139,0,0,0,0,0,0,0,0,0,-1,1294,1163,0,0
77,-139,0,0,0,0,0,0,0,0,0,-1,1301,1163,0,0
84,-139,0,0,0,0,0,0,0,0,0,-1,1308,1163,0,0
91,-139,0,0,0,0,0,0,0,0,0,-1,1315,1163,0,0
98,-139,0,0,0,0,0,0,0,0,0,-1,1322,1163,0,0
105,-139,0,0,0,0,0,0,0,0,0,-1,1329,1163,0,0
112,-139,0,0,0,0,0,0,0,0,0,-1,1336,1163,0,0
119,-139,0,0,0,0,0,0,0,0,0,-1,1343,1163,0,0
126,-139,0,0,0,0,0,0,0,0,0,-1,1350,1163,0,0
133,-139,0,0,0,0,0,0,0,0,0,-1,1357,1163,0,0
140,-139,0,0,0,0,0,0,0,0,0,-1,1364,1163,0,0
147,-139,0,0,0,0,0,0,0,0,0,-1,1371,1163,0,0
154,-139,0,0,0,0,0,0,0,0,0,-1,1378,1163,0,0
161,-139,0,0,0,0,0,0,0,0,0,-1,1385,1163,0,0
168,-139,0,0,0,0,0,0,0,0,0,-1,1392,1163,0,0
175,-139,0,0,0,0,0,0,0,0,0,-1,1399,1163,0,0
182,-139,0,0,0,0,0,0,0,0,0,-1,1406,1163,0,0
189,-139,0,0,0,0,0,0,0,0,0,-1,1413,1163,0,0
196,-139,0,0,0,0,0,0,0,0,0,-1,1420,1163,0,0
203,-139,0,0,0,0,0,0,0,0,0,-1,1427,1163,0,0
210,-139,0,0,0,0,0,0,0,0,0,-1,1434,1163,0,0
217,-139,0,0,0,0,0,0,0,0,0,-1,1441,1163,0,0
224,-139,0,0,0,0,0,0,0,0,0,-1,1448,1163,0,0
231,-139,0,0,0,0,0,0,0,0,0,-1,1455,1163,0,0
238,-139,0,0,0,0,0,0,0,0,0,-1,1462,1163,0,0
245,-139,0,0,0,0,0,0,0,0,0,-1,1469,1163,0,0
252,-139,0,0,0,0,0,0,0,0,0,-1,1476,1163,0,0
259,-139,0,0,0,0,0,0,0,0,0,-1,1483,1163,0,0
266,-139,0,0,0,0,0,0,0,0,0,-1,1490,1163,0,0
273,-139,0,0,0,0,0,0,0,0,0,-1,1497,1163,0,0
280,-139,0,0,0,0,0,0,0,0,0,-1,1504,1163,0,0
287,-139,0,0,0,0,0,0,0,0,0,-1,1511,1163,0,0
294,-139,0,0,0,0,0,0,0,0,0,-1,1518,1163,0,0
301,-139,0,0,0,0,0,0,0,0,0,-1,1525,1163,0,0
308,-139,0,0,0,0,0,0,0,0,0,-1,1532,1163,0,0
315,-139,0,0,0,0,0,0,0,0,0,-1,1539,1163,0,0
322,-139,0,0,0,0,0,0,0,0,0,-1,1546,1163,0,0
329,-139,0,0,0,0,0,0,0,0,0,-1,1553,1163,0,0
336,-139,0,0,0,0,0,0,0,0,0,-1,1560,1163,0,0
343,-139,0,0,0,0,0,0,0,0,0,-1,1567,1163,0,0
350,-139,0,0,0,0,0,0,0,0,0,-1,1574,1163,0,0
357,-139,0,0,0,0,0,0,0,0,0,-1,1581,1163,0,0
364,-139,0,0,0,0,0,0,0,0,0,-1,1588,1163,0,0
371,-139,0,0,0,0,0,0,0,0,0,-1,1595,1163,0,0
378,-139,0,0,0,0,0,0,0,0,0,-1,1602,1163,0,0
385,-139,0,0,0,0,0,0,0,0,0,-1,1609,1163,0,0
392,-139,0,0,0,0,0,0,0,0,0,-1,1616,1163,0,0
399,-139,0,0,0,0,0,0,0,0,0,-1,1623,1163,0,0
406,-139,0,0,0,0,0,0,0,0,0,-1,1630,1163,0,0
413,-139,0,0,0,0,0,0,0,0,0,-1,1637,1163,0,0
420,-139,0,0,0,0,0,0,0,0,0,-1,1644,1163,0,0
427,-139,0,0,0,0,0,0,0,0,0,-1,1651,1163,0,0
434,-139,0,0,0,0,0,0,0,0,0,-1,1658,1163,0,0
441,-139,0,0,0,0,0,0,0,0,0,-1,1665,1163,0,0
448,-139,0,0,0,0,0,0,0,0,0,-1,1672,1163,0,0
455,-139,0,0,0,0,0,0,0,0,0,-1,1679,1163,0,0
462,-139,0,0,0,0,0,0,0,0,0,-1,1686,1163,0,0
469,-139,0,0,0,0,0,0,0,0,0,-1,1693,1163,0,0
476,-139,0,0,0,0,0,0,0,0,0,-1,1700,1163,0,0
483,-139,0,0,0,0,0,0,0,0,0,-1,1707,1163,0,0
490,-139,0,0,0,0,0,0,0,0,0,-1,1714,1163,0,0
497,-139,0,0,0,0,0,0,0,0,0,-1,1721,1163,0,0
504,-139,0,0,0,0,0,0,0,0,0,-1,1728,1163,0,0
511,-139,0,0,0,0,0,0,0,0,0,-1,1735,1163,0,0
518,-139,0,0,0,0,0,0,0,0,0,-1,1742,1163,0,0
525,-139,0,0,0,0,0,0,0,0,0,-1,1749,1163,0,0
532,-139,0,0,0,0,0,0,0,0,0,-1,1756,1163,0,0
539,-139,0,0,0,0,0,0,0,0,0,-1,1763,1163,0,0
546,-139,0,0,0,0,0,0,0,0,0,-1,1770,1163,0,0
553,-139,0,0,0,0,0,0,0,0,0,-1,1777,1163,0,0
560,-139,0,0,0,0,0,0,0,0,0,-1,1784,1163,0,0
567,-139,0,0,0,0,0,0,0,0,0,-1,1791,1163,0,0
574,-139,0,0,0,0,0,0,0,0,0,-1,1798,1163,0,0
581,-139,0,0,0,0,0,0,0,0,0,-1,1805,1163,0,0
588,-139,0,0,0,0,0,0,0,0,0,-1,1812,1163,0,0
595,-139,0,0,0,0,0,0,0,0,0,-1,1819,1163,0,0
602,-139,0,0,0,0,0,0,0,0,0,-1,1826,1163,0,0
609,-139,0,0,0,0,0,0,0,0,0,-1,1833,1163,0,0
616,-139,0,0,0,0,0,0,0,0,0,-1,1840,1163,0,0
623,-139,0,0,0,0,0,0,0,0,0,-1,1847,1163,0,0
630,-139,0,0,0,0,0,0,0,0,0,-1,1854,1163,0,0
637,-139,0,0,0,0,0,0,0,0,0,-1,1861,1163,0,0
644,-139,19.2615,2.41174,0.00379338,-0.00047261,0.00182862,0.00446993,-0.00114915,0.354358,0.00342782,0.0395089,1868,1163,19.2615,-2.41179
651,-139,19.2354,2.37451,0.00323115,0.00012982,0.00131546,0.00371395,-0.000352982,0.351758,0.00260162,0.0404886,1875,1163,19.2354,-2.3745
658,-139,19.2858,2.37866,0.00271017,0.000738294,0.000688077,0.00292654,0.000521932,0.304654,0.00180241,0.0424069,1882,1163,19.2858,-2.37863
665,-139,19.3125,2.6554,0.00128427,0.000601104,0.000944215,0.00194679,-6.14137e-05,0.611839,0.00131881,0.0403006,1889,1163,19.3125,-2.65535
672,-139,19.3674,2.59717,-0.000544686,0.000168643,0.00153832,0.00139111,-0.00176715,0.899312,0.00182773,0.0369778,1896,1163,19.3674,-2.5972
679,-139,19.3846,2.4231,-0.00227274,-0.0003862,0.00220047,0.00106465,-0.00372359,0.987885,0.0029031,0.0346123,1903,1163,19.3846,-2.42311
686,-139,19.3835,2.50891,-0.00378026,-0.000973707,0.00284573,0.000795926,-0.0055499,1.01446,0.00399178,0.0340406,1910,1163,19.3835,-2.50892
693,-139,19.3401,2.42761,-0.00489942,-0.00142367,0.0033277,0.000592626,-0.00691571,1.02604,0.00482018,0.0245908,1917,1163,19.3401,-2.42766
700,-139,19.2404,2.55444,0,0,0,0,0,0,0,-1,1924,1163,19.2404,-2.55448
707,-139,18.7091,3.24048,-0.0065061,-0.00213465,0.00399845,0.000236491,-0.00887724,1.03553,0.00599854,0.0279565,1931,1163,18.7092,-3.24049
714,-139,18.1641,4.02014,-0.00691354,-0.00231085,0.0041731,0.000153403,-0.0093778,1.03738,0.00630362,0.0265034,1938,1163,18.1641,-4.0201
721,-139,18.1295,3.85486,-0.0070836,-0.00228593,0.0041593,0.000116707,-0.00948624,1.04697,0.00636342,0.019411,1945,1163,18.1296,-3.85484
728,-139,18.1155,3.78125,-0.00687662,-0.00207451,0.00394427,0.000142049,-0.00909318,1.05881,0.00611002,0.0182742,1952,1163,18.1155,-3.78128
735,-139,18.1202,3.72314,-0.00617692,-0.00166828,0.00354716,0.000280287,-0.00812549,1.06847,0.0055128,0.0149631,1959,1163,18.1203,-3.72317
742,-139,18.1202,3.57654,-0.00517223,-0.00113553,0.00298434,0.000448898,-0.00675666,1.08272,0.00466128,0.0204518,1966,1163,18.1202,-3.57657
749,-139,18.1027,3.47058,-0.00284485,-7.56046e-05,0.00273597,0.00160615,-0.00452661,1.01965,0.00367214,0.0177999,1973,1163,18.1027,-3.47061
756,-139,18.097,3.40039,0.00187492,0.0021159,0.00276771,0.00476574,-0.000774919,0.807151,0.00346447,0.00977048,1980,1163,18.0971,-3.40038
763,-139,18.114,3.32349,0.00678771,0.00430566,0.00284201,0.00864784,0.00244553,0.579541,0.00514748,0.00994894,1987,1163,18.114,-3.32354
770,-139,18.109,3.24829,0.0131186,0.00680843,0.00383182,0.0149271,0.00499991,0.440976,0.0087733,0.0115793,1994,1163,18.109,-3.24832
777,-139,18.0958,3.17542,0.021729,0.0100222,0.00583341,0.0241395,0.00761176,0.391843,0.0142503,0.0217493,2001,1163,18.0959,-3.1754
784,-139,18.1433,3.08679,0.0339962,0.0144477,0.00877782,0.0373591,0.0110847,0.36587,0.0221556,0.0402382,2008,1163,18.1433,-3.08675
791,-139,18.3988,3.06177,0.0511918,0.0205037,0.0128271,0.0558471,0.0158484,0.348145,0.0332331,0.047053,2015,1163,18.3989,-3.06173
798,-139,18.6282,2.93018,0,0,0,0,0,0,0,-1,2022,1163,18.6282,-2.93023
805,-139,19.6418,2.44543,0,0,0,0,0,0,0,-1,2029,1163,19.642,-2.44544
812,-139,0,0,0,0,0,0,0,0,0,-1,2036,1163,0,0
-700,-146,0,0,0,0,0,0,0,0,0,-1,524,1170,0,0
-693,-146,-12.9838,3.06506,0,0,0,0,0,0,0,-1,531,1170,-12.9838,-3.06511
-686,-146,-12.6261,2.34216,0.0184176,0.0417722,-0.0679423,0.0990334,-0.0388436,-0.870502,0.0820928,0.0465714,538,1170,-12.6261,-2.34217
-679,-146,-12.2504,1.57874,0.0146714,0.0361045,-0.0517158,0.0782024,-0.0274265,-0.887562,0.06329,0.0460128,545,1170,-12.2505,-1.57879
-672,-146,-11.7743,0.734009,0.0113414,0.0303615,-0.0387438,0.0607454,-0.0190424,-0.905748,0.0481172,0.042647,552,1170,-11.7743,-0.73404
-665,-146,-11.3263,0.223877,0.00842633,0.0248819,-0.028387,0.0462095,-0.0129012,-0.926455,0.0358882,0.0447595,559,1170,-11.3263,-0.223892
-658,-146,-11.0563,0.282837,0.00597117,0.0198463,-0.0202457,0.0343101,-0.00849266,-0.950462,0.0261678,0.047507,566,1170,-11.0563,-0.282893
-651,-146,-10.9157,0.641113,0.00395472,0.0153658,-0.013999,0.0247773,-0.00545681,-0.978904,0.0186058,0.0384102,573,1170,-10.9157,-0.64114
-644,-146,-11.009,0.675049,0.00241298,0.0115138,-0.0093547,0.0173661,-0.00343935,-1.01176,0.0128779,0.0188657,580,1170,-11.009,-0.675044
-637,-146,-11.0092,0.79895,0.00130263,0.00823839,-0.00601124,0.0117103,-0.00216932,-1.04703,0.00862146,0.0108505,587,1170,-11.0092,-0.798926
-630,-146,-11.0275,0.931152,3.96026e-05,0.00550686,-0.00318757,0.00697244,-0.00142597,-1.13984,0.00518934,0.0111174,594,1170,-11.0275,-0.931197
-623,-146,-11.0505,1.06091,-0.00140315,0.00287349,-0.00166646,0.00344616,-0.00197582,-1.23979,0.00316852,0.012972,601,1170,-11.0505,-1.06087
-616,-146,-11.1119,1.20374,-0.00292562,0.000653672,-0.00174339,0.00136248,-0.00363442,-1.18464,0.00298271,0.0185782,608,1170,-11.1119,-1.20368
-609,-146,-11.0418,1.32703,-0.00417288,-0.000591954,-0.00276775,0.000913977,-0.00567881,-1.07249,0.00412443,0.0183896,615,1170,-11.0418,-1.32697
-602,-146,-11.1169,1.50195,-0.00517151,-0.00136131,-0.00363883,0.000840954,-0.00737378,-1.02655,0.00521881,0.0224869,622,1170,-11.1169,-1.50191
-595,-146,-11.143,1.54944,-0.00605595,-0.00199027,-0.00421154,0.000653374,-0.00869959,-1.01025,0.00602933,0.0133272,629,1170,-11.143,-1.54946
-588,-146,-11.0585,1.69641,-0.00675742,-0.0024724,-0.0046256,0.000482786,-0.00971261,-1.00228,0.00664185,0.0149051,636,1170,-11.0585,-1.69642
-581,-146,-11.0105,1.85974,0,0,0,0,0,0,0,-1,643,1170,-11.0105,-1.85977
-574,-146,-12.1694,-0.0551758,0,0,0,0,0,0,0,-1,650,1170,-12.1694,0.0552236
-567,-146,-12.3075,0.258301,0,0,0,0,0,0,0,-1,657,1170,-12.3075,-0.258306
-560,-146,-12.5167,0.763306,0,0,0,0,0,0,0,-1,664,1170,-12.5167,-0.763276
-553,-146,-12.3639,0.516235,-0.00352392,-0.0027058,-0.00418579,0.00109087,-0.00732059,-0.834106,0.0052817,0.0360165,671,1170,-12.3639,-0.51618
-546,-146,-12.2867,0.404053,-0.000765524,-0.00222686,-0.00313448,0.00172233,-0.00471471,-0.67089,0.00384795,0.0404959,678,1170,-12.2867,-0.404104
-539,-146,-12.3408,0.0634766,0.00352048,-0.00150515,-0.00150944,0.00393899,-0.00192366,-0.270466,0.00345082,0.0410892,685,1170,-12.3408,-0.0634307
-532,-146,-12.3772,0.152954,0.0098968,-0.000578531,0.000788912,0.00995588,-0.000637612,0.0747495,0.00685968,0.0373057,692,1170,-12.3772,-0.152917
-525,-146,-12.3011,0.322632,0.0169195,0.000156728,0.0025086,0.0172869,-0.00021064,0.14541,0.0115954,0.0388389,699,1170,-12.3012,-0.322596
-518,-146,0,0,0,0,0,0,0,0,0,-1,706,1170,0,0
-511,-146,0,0,0,0,0,0,0,0,0,-1,713,1170,0,0
-504,-146,0,0,0,0,0,0,0,0,0,-1,720,1170,0,0
-497,-146,0,0,0,0,0,0,0,0,0,-1,727,1170,0,0
-490,-146,0,0,0,0,0,0,0,0,0,-1,734,1170,0,0
-483,-146,0,0,0,0,0,0,0,0,0,-1,741,1170,0,0
-476,-146,0,0,0,0,0,0,0,0,0,-1,748,1170,0,0
-469,-146,0,0,0,0,0,0,0,0,0,-1,755,1170,0,0
-462,-146,0,0,0,0,0,0,0,0,0,-1,762,1170,0,0
-455,-146,0,0,0,0,0,0,0,0,0,-1,769,1170,0,0
-448,-146,0,0,0,0,0,0,0,0,0,-1,776,1170,0,0
-441,-146,0,0,0,0,0,0,0,0,0,-1,783,1170,0,0
-434,-146,0,0,0,0,0,0,0,0,0,-1,790,1170,0,0
-427,-146,0,0,0,0,0,0,0,0,0,-1,797,1170,0,0
-420,-146,0,0,0,0,0,0,0,0,0,-1,804,1170,0,0
-413,-146,0,0,0,0,0,0,0,0,0,-1,811,1170,0,0
-406,-146,0,0,0,0,0,0,0,0,0,-1,818,1170,0,0
-399,-146,0,0,0,0,0,0,0,0,0,-1,825,1170,0,0
-392,-146,0,0,0,0,0,0,0,0,0,-1,832,1170,0,0
-385,-146,0,0,0,0,0,0,0,0,0,-1,839,1170,0,0
-378,-146,0,0,0,0,0,0,0,0,0,-1,846,1170,0,0
-371,-146,0,0,0,0,0,0,0,0,0,-1,853,1170,0,0
-364,-146,0,0,0,0,0,0,0,0,0,-1,860,1170,0,0
-357,-146,0,0,0,0,0,0,0,0,0,-1,867,1170,0,0
-350,-146,0,0,0,0,0,0,0,0,0,-1,874,1170,0,0
-343,-146,0,0,0,0,0,0,0,0,0,-1,881,1170,0,0
-336,-146,0,0,0,0,0,0,0,0,0,-1,888,1170,0,0
-329,-146,0,0,0,0,0,0,0,0,0,-1,895,1170,0,0
-322,-146,0,0,0,0,0,0,0,0,0,-1,902,1170,0,0
-315,-146,0,0,0,0,0,0,0,0,0,-1,909,1170,0,0
-308,-146,0,0,0,0,0,0,0,0,0,-1,916,1170,0,0
-301,-146,0,0,0,0,0,0,0,0,0,-1,923,1170,0,0
-294,-146,0,0,0,0,0,0,0,0,0,-1,930,1170,0,0
-287,-146,0,0,0,0,0,0,0,0,0,-1,937,1170,0,0
-280,-146,0,0,0,0,0,0,0,0,0,-1,944,1170,0,0
-273,-146,0,0,0,0,0,0,0,0,0,-1,951,1170,0,0
-266,-146,0,0,0,0,0,0,0,0,0,-1,958,1170,0,0
-259,-146,0,0,0,0,0,0,0,0,0,-1,965,1170,0,0
-252,-146,0,0,0,0,0,0,0,0,0,-1,972,1170,0,0
-245,-146,0,0,0,0,0,0,0,0,0,-1,979,1170,0,0
-238,-146,0,0,0,0,0,0,0,0,0,-1,986,1170,0,0
-231,-146,0,0,0,0,0,0,0,0,0,-1,993,1170,0,0
-224,-146,0,0,0,0,0,0,0,0,0,-1,1000,1170,0,0
-217,-146,0,0,0,0,0,0,0,0,0,-1,1007,1170,0,0
-210,-146,0,0,0,0,0,0,0,0,0,-1,1014,1170,0,0
-203,-146,0,0,0,0,0,0,0,0,0,-1,1021,1170,0,0
-196,-146,0,0,0,0,0,0,0,0,0,-1,1028,1170,0,0
-189,-146,0,0,0,0,0,0,0,0,0,-1,1035,1170,0,0
-182,-146,0,0,0,0,0,0,0,0,0,-1,1042,1170,0,0
-175,-146,0,0,0,0,0,0,0,0,0,-1,1049,1170,0,0
-168,-146,0,0,0,0,0,0,0,0,0,-1,1056,1170,0,0
-161,-146,0,0,0,0,0,0,0,0,0,-1,1063,1170,0,0
-154,-146,0,0,0,0,0,0,0,0,0,-1,1070,1170,0,0
-147,-146,0,0,0,0,0,0,0,0,0,-1,1077,1170,0,0
-140,-146,0,0,0,0,0,0,0,0,0,-1,1084,1170,0,0
-133,-146,0,0,0,0,0,0,0,0,0,-1,1091,1170,0,0
-126,-146,0,0,0,0,0,0,0,0,0,-1,1098,1170,0,0
-119,-146,0,0,0,0,0,0,0,0,0,-1,1105,1170,0,0
-112,-146,0,0,0,0,0,0,0,0,0,-1,1112,1170,0,0
-105,-146,0,0,0,0,0,0,0,0,0,-1,1119,1170,0,0
-98,-146,0,0,0,0,0,0,0,0,0,-1,1126,1170,0,0
-91,-146,0,0,0,0,0,0,0,0,0,-1,1133,1170,0,0
-84,-146,0,0,0,0,0,0,0,0,0,-1,1140,1170,0,0
-77,-146,0,0,0,0,0,0,0,0,0,-1,1147,1170,0,0
-70,-146,0,0,0,0,0,0,0,0,0,-1,1154,1170,0,0
-63,-146,0,0,0,0,0,0,0,0,0,-1,1161,1170,0,0
-56,-146,0,0,0,0,0,0,0,0,0,-1,1168,1170,0,0
-49,-146,0,0,0,0,0,0,0,0,0,-1,1175,1170,0,0
-42,-146,0,0,0,0,0,0,0,0,0,-1,1182,1170,0,0
-35,-146,0,0,0,0,0,0,0,0,0,-1,1189,1170,0,0
-28,-146,0,0,0,0,0,0,0,0,0,-1,1196,1170,0,0
-21,-146,0,0,0,0,0,0,0,0,0,-1,1203,1170,0,0
-14,-146,0,0,0,0,0,0,0,0,0,-1,1210,1170,0,0
-7,-146,0,0,0,0,0,0,0,0,0,-1,1217,1170,0,0
0,-146,0,0,0,0,0,0,0,0,0,-1,1224,1170,0,0
7,-146,0,0,0,0,0,0,0,0,0,-1,1231,1170,0,0
14,-146,0,0,0,0,0,0,0,0,0,-1,1238,1170,0,0
21,-146,0,0,0,0,0,0,0,0,0,-1,1245,1170,0,0
28,-146,0,0,0,0,0,0,0,0,0,-1,1252,1170,0,0
35,-146,0,0,0,0,0,0,0,0,0,-1,1259,1170,0,0
42,-146,0,0,0,0,0,0,0,0,0,-1,1266,1170,0,0
49,-146,0,0,0,0,0,0,0,0,0,-1,1273,1170,0,0
56,-146,0,0,0,0,0,0,0,0,0,-1,1280,1170,0,0
63,-146,0,0,0,0,0,0,0,0,0,-1,1287,1170,0,0
70,-146,0,0,0,0,0,0,0,0,0,-1,1294,1170,0,0
77,-146,0,0,0,0,0,0,0,0,0,-1,1301,1170,0,0
84,-146,0,0,0,0,0,0,0,0,0,-1,1308,1170,0,0
91,-146,0,0,0,0,0,0,0,0,0,-1,1315,1170,0,0
98,-146,0,0,0,0,0,0,0,0,0,-1,1322,1170,0,0
105,-146,0,0,0,0,0,0,0,0,0,-1,1329,1170,0,0
112,-146,0,0,0,0,0,0,0,0,0,-1,1336,1170,0,0
119,-146,0,0,0,0,0,0,0,0,0,-1,1343,1170,0,0
126,-146,0,0,0,0,0,0,0,0,0,-1,1350,1170,0,0
133,-146,0,0,0,0,0,0,0,0,0,-1,1357,1170,0,0
140,-146,0,0,0,0,0,0,0,0,0,-1,1364,1170,0,0
147,-146,0,0,0,0,0,0,0,0,0,-1,1371,1170,0,0
154,-146,0,0,0,0,0,0,0,0,0,-1,1378,1170,0,0
161,-146,0,0,0,0,0,0,0,0,0,-1,1385,1170,0,0
168,-146,0,0,0,0,0,0,0,0,0,-1,1392,1170,0,0
175,-146,0,0,0,0,0,0,0,0,0,-1,1399,1170,0,0
182,-146,0,0,0,0,0,0,0,0,0,-1,1406,1170,0,0
189,-146,0,0,0,0,0,0,0,0,0,-1,1413,1170,0,0
196,-146,0,0,0,0,0,0,0,0,0,-1,1420,1170,0,0
203,-146,0,0,0,0,0,0,0,0,0,-1,1427,1170,0,0
210,-146,0,0,0,0,0,0,0,0,0,-1,1434,1170,0,0
217,-146,0,0,0,0,0,0,0,0,0,-1,1441,1170,0,0
224,-146,0,0,0,0,0,0,0,0,0,-1,1448,1170,0,0
231,-146,0,0,0,0,0,0,0,0,0,-1,1455,1170,0,0
238,-146,0,0,0,0,0,0,0,0,0,-1,1462,1170,0,0
245,-146,0,0,0,0,0,0,0,0,0,-1,1469,1170,0,0
252,-146,0,0,0,0,0,0,0,0,0,-1,1476,1170,0,0
259,-146,0,0,0,0,0,0,0,0,0,-1,1483,1170,0,0
266,-146,0,0,0,0,0,0,0,0,0,-1,1490,1170,0,0
273,-146,0,0,0,0,0,0,0,0,0,-1,1497,1170,0,0
280,-146,0,0,0,0,0,0,0,0,0,-1,1504,1170,0,0
287,-146,0,0,0,0,0,0,0,0,0,-1,1511,1170,0,0
294,-146,0,0,0,0,0,0,0,0,0,-1,1518,1170,0,0
301,-146,0,0,0,0,0,0,0,0,0,-1,1525,1170,0,0
308,-146,0,0,0,0,0,0,0,0,0,-1,1532,1170,0,0
315,-146,0,0,0,0,0,0,0,0,0,-1,1539,1170,0,0
322,-146,0,0,0,0,0,0,0,0,0,-1,1546,1170,0,0
329,-146,0,0,0,0,0,0,0,0,0,-1,1553,1170,0,0
336,-146,0,0,0,0,0,0,0,0,0,-1,1560,1170,0,0
343,-146,0,0,0,0,0,0,0,0,0,-1,1567,1170,0,0
350,-146,0,0,0,0,0,0,0,0,0,-1,1574,1170,0,0
357,-146,0,0,0,0,0,0,0,0,0,-1,1581,1170,0,0
364,-146,0,0,0,0,0,0,0,0,0,-1,1588,1170,0,0
371,-146,0,0,0,0,0,0,0,0,0,-1,1595,1170,0,0
378,-146,0,0,0,0,0,0,0,0,0,-1,1602,1170,0,0
385,-146,0,0,0,0,0,0,0,0,0,-1,1609,1170,0,0
392,-146,0,0,0,0,0,0,0,0,0,-1,1616,1170,0,0
399,-146,0,0,0,0,0,0,0,0,0,-1,1623,1170,0,0
406,-146,0,0,0,0,0,0,0,0,0,-1,1630,1170,0,0
413,-146,0,0,0,0,0,0,0,0,0,-1,1637,1170,0,0
420,-146,0,0,0,0,0,0,0,0,0,-1,1644,1170,0,0
427,-146,0,0,0,0,0,0,0,0,0,-1,1651,1170,0,0
434,-146,0,0,0,0,0,0,0,0,0,-1,1658,1170,0,0
441,-146,0,0,0,0,0,0,0,0,0,-1,1665,1170,0,0
448,-146,0,0,0,0,0,0,0,0,0,-1,1672,1170,0,0
455,-146,0,0,0,0,0,0,0,0,0,-1,1679,1170,0,0
462,-146,0,0,0,0,0,0,0,0,0,-1,1686,1170,0,0
469,-146,0,0,0,0,0,0,0,0,0,-1,1693,1170,0,0
476,-146,0,0,0,0,0,0,0,0,0,-1,1700,1170,0,0
483,-146,0,0,0,0,0,0,0,0,0,-1,1707,1170,0,0
490,-146,0,0,0,0,0,0,0,0,0,-1,1714,1170,0,0
497,-146,0,0,0,0,0,0,0,0,0,-1,1721,1170,0,0
504,-146,0,0,0,0,0,0,0,0,0,-1,1728,1170,0,0
511,-146,0,0,0,0,0,0,0,0,0,-1,1735,1170,0,0
518,-146,0,0,0,0,0,0,0,0,0,-1,1742,1170,0,0
525,-146,0,0,0,0,0,0,0,0,0,-1,1749,1170,0,0
532,-146,0,0,0,0,0,0,0,0,0,-1,1756,1170,0,0
539,-146,0,0,0,0,0,0,0,0,0,-1,1763,1170,0,0
546,-146,0,0,0,0,0,0,0,0,0,-1,1770,1170,0,0
553,-146,0,0,0,0,0,0,0,0,0,-1,1777,1170,0,0
560,-146,0,0,0,0,0,0,0,0,0,-1,1784,1170,0,0
567,-146,0,0,0,0,0,0,0,0,0,-1,1791,1170,0,0
574,-146,0,0,0,0,0,0,0,0,0,-1,1798,1170,0,0
581,-146,0,0,0,0,0,0,0,0,0,-1,1805,1170,0,0
588,-146,0,0,0,0,0,0,0,0,0,-1,1812,1170,0,0
595,-146,0,0,0,0,0,0,0,0,0,-1,1819,1170,0,0
602,-146,0,0,0,0,0,0,0,0,0,-1,1826,1170,0,0
609,-146,0,0,0,0,0,0,0,0,0,-1,1833,1170,0,0
616,-146,0,0,0,0,0,0,0,0,0,-1,1840,1170,0,0
623,-146,0,0,0,0,0,0,0,0,0,-1,1847,1170,0,0
630,-146,0,0,0,0,0,0,0,0,0,-1,1854,1170,0,0
637,-146,19.3748,2.32288,0.00219505,-0.000675285,0.00144693,0.00279785,-0.00127809,0.394741,0.00240715,0.03731,1861,1170,19.3748,-2.32282
644,-146,19.3344,2.40222,0.0023246,-8.31883e-05,0.00148571,0.00303295,-0.000791542,0.444898,0.00233105,0.0365127,1868,1170,19.3343,-2.40228
651,-146,19.3002,2.42883,0.0022239,0.000642215,0.000967558,0.00268269,0.000183416,0.442781,0.00173057,0.0344325,1875,1170,19.3002,-2.42887
658,-146,19.3204,2.42383,0.00194974,0.00122722,0.000474369,0.00218475,0.000992211,0.459967,0.00126313,0.0391285,1882,1170,19.3204,-2.42384
665,-146,19.3137,2.54187,0.000744171,0.00106504,0.000808849,0.00172921,8.00006e-05,0.883303,0.00112709,0.04061,1889,1170,19.3138,-2.54191
672,-146,19.4919,2.41821,-0.000806973,0.000641563,0.00136359,0.0014613,-0.00162671,1.02953,0.00178371,0.038088,1896,1170,19.4919,-2.41821
679,-146,19.4551,2.40283,-0.00231639,7.86091e-05,0.00198815,0.00120205,-0.00343983,1.05646,0.00278186,0.0300201,1903,1170,19.4551,-2.40278
686,-146,19.3373,2.42139,-0.00363558,-0.000518768,0.00259033,0.000945811,-0.00510015,1.0562,0.00375529,0.0249302,1910,1170,19.3372,-2.42139
693,-146,19.348,2.35107,-0.00461924,-0.000983468,0.00302482,0.000727706,-0.00633042,1.05597,0.00448258,0.0189422,1917,1170,19.348,-2.35106
700,-146,19.1962,2.66577,0,0,0,0,0,0,0,-1,1924,1170,19.1962,-2.6658
707,-146,18.5928,3.37866,-0.00607513,-0.00176059,0.00364566,0.000318252,-0.00815397,1.05256,0.00554511,0.0325585,1931,1170,18.5928,-3.37862
714,-146,18.1479,3.99109,-0.00648981,-0.00197631,0.00379015,0.000178084,-0.0086442,1.05392,0.00582307,0.0251734,1938,1170,18.148,-3.99114
721,-146,18.1052,3.87781,-0.00668649,-0.00200193,0.00376376,8.88654e-05,-0.00877728,1.06374,0.00588137,0.0328143,1945,1170,18.1053,-3.87786
728,-146,18.1124,3.76794,-0.00644741,-0.00181929,0.00352589,8.40877e-05,-0.00835078,1.0758,0.00559543,0.024046,1952,1170,18.1124,-3.76798
735,-146,18.0105,3.75012,-0.00570603,-0.00145576,0.00311646,0.000191175,-0.00735296,1.08464,0.00496693,0.0166509,1959,1170,18.0104,-3.75015
742,-146,18.0081,3.59399,-0.00461407,-0.00095214,0.00250133,0.000316744,-0.00588296,1.10134,0.0040317,0.0171898,1966,1170,18.008,-3.59401
749,-146,17.9965,3.49072,-0.00196709,0.000124063,0.0022997,0.00160472,-0.00344774,0.998759,0.00298103,0.0155719,1973,1170,17.9964,-3.49075
756,-146,17.9973,3.4082,0.00353206,0.00253365,0.00266534,0.00574455,0.00032117,0.692823,0.00372726,0.0110149,1980,1170,17.9973,-3.40825
763,-146,17.9967,3.3125,0.00911595,0.00481823,0.00306126,0.0107073,0.00322691,0.479381,0.00634235,0.0098763,1987,1170,17.9967,-3.31255
770,-146,17.9891,3.22205,0.016539,0.00750711,0.00455602,0.0184379,0.00560814,0.394908,0.0109139,0.0110548,1994,1170,17.9891,-3.22203
777,-146,17.9868,3.14014,0.0268438,0.0110804,0.00725564,0.029675,0.00824921,0.37203,0.0176869,0.0200253,2001,1170,17.9869,-3.14008
784,-146,17.9775,2.99402,0.0414648,0.0160222,0.0112733,0.0457411,0.0117459,0.362563,0.0274303,0.0407317,2008,1170,17.9776,-2.99402
791,-146,17.9677,2.85547,0,0,0,0,0,0,0,-1,2015,1170,17.9676,-2.85552
798,-146,20.4348,1.85803,0.0890678,0.031922,0.0244281,0.0980867,0.0229031,0.353678,0.0592511,0.0423276,2022,1170,20.4348,-1.85799
805,-146,20.699,2.09375,0.125046,0.0441298,0.0342133,0.137573,0.0316029,0.35098,0.0832064,0.0454616,2029,1170,20.6989,-2.09376
812,-146,0,0,0,0,0,0,0,0,0,-1,2036,1170,0,0
-700,-153,0,0,0,0,0,0,0,0,0,-1,524,1177,0,0
-693,-153,0,0,0,0,0,0,0,0,0,-1,531,1177,0,0
-686,-153,-12.7099,2.39258,0.0176922,0.0424823,-0.0777199,0.108789,-0.0486149,-0.864474,0.0930647,0.0442708,538,1177,-12.7099,-2.39262
-679,-153,-12.3259,1.5238,0.0132717,0.0369206,-0.058238,0.0845224,-0.0343301,-0.885555,0.0706297,0.0465634,545,1177,-12.3259,-1.52384
-672,-153,-11.7534,0.609741,0.00967535,0.0311762,-0.0429718,0.0647219,-0.0238704,-0.907969,0.0529304,0.0437903,552,1177,-11.7533,-0.609731
-665,-153,-11.3157,0.408691,0.0067586,0.0256363,-0.0310074,0.0486096,-0.0162147,-0.933146,0.038953,0.0452477,559,1177,-11.3157,-0.40875
-658,-153,-11.0557,0.20874,0.00447279,0.0205103,-0.0217621,0.0356839,-0.0107009,-0.961916,0.0280452,0.0492302,566,1177,-11.0557,-0.20874
-651,-153,-10.9197,0.411621,0.00271013,0.0159304,-0.0147865,0.025517,-0.00687647,-0.995593,0.0197075,0.0444294,573,1177,-10.9197,-0.411603
-644,-153,-10.8778,0.625,0.00143867,0.0119804,-0.00969242,0.0177424,-0.00432337,-1.03444,0.0135021,0.0255015,580,1177,-10.8778,-0.625042
-637,-153,-10.8784,0.790649,0.000573716,0.00867264,-0.00610346,0.0119478,-0.00270146,-1.07829,0.00900185,0.0113255,587,1177,-10.8784,-0.790609
-630,-153,-10.8937,0.920288,-0.000411771,0.00584409,-0.00299811,0.00704889,-0.00161657,-1.18869,0.00532062,0.010578,594,1177,-10.8938,-0.920323
-623,-153,-10.9084,1.04871,-0.00159224,0.00305707,-0.00125403,0.00337375,-0.00190892,-1.32344,0.00308878,0.00989997,601,1177,-10.9084,-1.04872
-616,-153,-10.9254,1.18359,-0.00293183,0.000701467,-0.00141066,0.00118485,-0.00341521,-1.24067,0.00275795,0.0121402,608,1177,-10.9254,-1.18358
-609,-153,-10.9152,1.30469,-0.00411569,-0.000530609,-0.00264704,0.000873729,-0.00552003,-1.08302,0.00400317,0.0173859,615,1177,-10.9152,-1.30471
-602,-153,-10.9378,1.43726,-0.00518694,-0.00142743,-0.00360522,0.000758659,-0.00737303,-1.02571,0.00518677,0.0241206,622,1177,-10.9378,-1.43728
-595,-153,-11.0014,1.55676,-0.00612319,-0.00220391,-0.00422033,0.000489554,-0.00881665,-1.00275,0.00604756,0.0196821,629,1177,-11.0014,-1.55672
-588,-153,-10.9673,1.69971,-0.00678559,-0.00275269,-0.00472357,0.000366829,-0.00990511,-0.987134,0.00672902,0.0127063,636,1177,-10.9673,-1.69966
-581,-153,-10.8263,1.71448,0,0,0,0,0,0,0,-1,643,1177,-10.8263,-1.71443
-574,-153,-11.4872,0.989014,-0.00647652,-0.00320523,-0.00519771,0.00060812,-0.0102899,-0.937836,0.00707134,0.0456057,650,1177,-11.4872,-0.988985
-567,-153,-12.1794,0.445679,-0.00586756,-0.00350352,-0.00519051,0.000637861,-0.0100089,-0.897352,0.00689509,0.0485084,657,1177,-12.1794,-0.445632
-560,-153,-12.3875,0.508667,-0.00500886,-0.00360496,-0.00498569,0.000727959,-0.00934177,-0.855335,0.00648414,0.0398764,664,1177,-12.3874,-0.508655
-553,-153,-12.3409,0.478394,-0.00337028,-0.00348484,-0.00442996,0.00100278,-0.00785789,-0.778934,0.00560285,0.0363303,671,1177,-12.3409,-0.478444
-546,-153,-12.3038,0.474365,-0.000648602,-0.00314488,-0.00338979,0.00171554,-0.00550901,-0.608998,0.00435855,0.0399825,678,1177,-12.3039,-0.47441
-539,-153,-12.4553,0.463867,0.00350913,-0.00257105,-0.00172764,0.00396574,-0.00302765,-0.258387,0.00404973,0.0421642,685,1177,-12.4553,-0.463905
-532,-153,-12.4798,0.46228,0.00969531,-0.00178829,0.000734541,0.00974211,-0.00183508,0.0636188,0.00718498,0.0399477,692,1177,-12.4798,-0.462317
-525,-153,-12.4222,0.397705,0.0168383,-0.00113672,0.00310728,0.0173603,-0.00165871,0.166434,0.0121642,0.0380639,699,1177,-12.4222,-0.397653
-518,-153,0,0,0,0,0,0,0,0,0,-1,706,1177,0,0
-511,-153,0,0,0,0,0,0,0,0,0,-1,713,1177,0,0
-504,-153,0,0,0,0,0,0,0,0,0,-1,720,1177,0,0
-497,-153,0,0,0,0,0,0,0,0,0,-1,727,1177,0,0
-490,-153,0,0,0,0,0,0,0,0,0,-1,734,1177,0,0
-483,-153,0,0,0,0,0,0,0,0,0,-1,741,1177,0,0
-476,-153,0,0,0,0,0,0,0,0,0,-1,748,1177,0,0
-469,-153,0,0,0,0,0,0,0,0,0,-1,755,1177,0,0
-462,-153,0,0,0,0,0,0,0,0,0,-1,762,1177,0,0
-455,-153,0,0,0,0,0,0,0,0,0,-1,769,1177,0,0
-448,-153,0,0,0,0,0,0,0,0,0,-1,776,1177,0,0
-441,-153,0,0,0,0,0,0,0,0,0,-1,783,1177,0,0
-434,-153,0,0,0,0,0,0,0,0,0,-1,790,1177,0,0
-427,-153,0,0,0,0,0,0,0,0,0,-1,797,1177,0,0
-420,-153,0,0,0,0,0,0,0,0,0,-1,804,1177,0,0
-413,-153,0,0,0,0,0,0,0,0,0,-1,811,1177,0,0
-406,-153,0,0,0,0,0,0,0,0,0,-1,818,1177,0,0
-399,-153,0,0,0,0,0,0,0,0,0,-1,825,1177,0,0
-392,-153,0,0,0,0,0,0,0,0,0,-1,832,1177,0,0
-385,-153,0,0,0,0,0,0,0,0,0,-1,839,1177,0,0
-378,-153,0,0,0,0,0,0,0,0,0,-1,846,1177,0,0
-371,-153,0,0,0,0,0,0,0,0,0,-1,853,1177,0,0
-364,-153,0,0,0,0,0,0,0,0,0,-1,860,1177,0,0
-357,-153,0,0,0,0,0,0,0,0,0,-1,867,1177,0,0
-350,-153,0,0,0,0,0,0,0,0,0,-1,874,1177,0,0
-343,-153,0,0,0,0,0,0,0,0,0,-1,881,1177,0,0
-336,-153,0,0,0,0,0,0,0,0,0,-1,888,1177,0,0
-329,-153,0,0,0,0,0,0,0,0,0,-1,895,1177,0,0
-322,-153,0,0,0,0,0,0,0,0,0,-1,902,1177,0,0
-315,-153,0,0,0,0,0,0,0,0,0,-1,909,1177,0,0
-308,-153,0,0,0,0,0,0,0,0,0,-1,916,1177,0,0
-301,-153,0,0,0,0,0,0,0,0,0,-1,923,1177,0,0
-294,-153,0,0,0,0,0,0,0,0,0,-1,930,1177,0,0
-287,-153,0,0,0,0,0,0,0,0,0,-1,937,1177,0,0
-280,-153,0,0,0,0,0,0,0,0,0,-1,944,1177,0,0
-273,-153,0,0,0,0,0,0,0,0,0,-1,951,1177,0,0
-266,-153,0,0,0,0,0,0,0,0,0,-1,958,1177,0,0
-259,-153,0,0,0,0,0,0,0,0,0,-1,965,1177,0,0
-252,-153,0,0,0,0,0,0,0,0,0,-1,972,1177,0,0
-245,-153,0,0,0,0,0,0,0,0,0,-1,979,1177,0,0
-238,-153,0,0,0,0,0,0,0,0,0,-1,986,1177,0,0
-231,-153,0,0,0,0,0,0,0,0,0,-1,993,1177,0,0
-224,-153,0,0,0,0,0,0,0,0,0,-1,1000,1177,0,0
-217,-153,0,0,0,0,0,0,0,0,0,-1,1007,1177,0,0
-210,-153,0,0,0,0,0,0,0,0,0,-1,1014,1177,0,0
-203,-153,0,0,0,0,0,0,0,0,0,-1,1021,1177,0,0
-196,-153,0,0,0,0,0,0,0,0,0,-1,1028,1177,0,0
-189,-153,0,0,0,0,0,0,0,0,0,-1,1035,1177,0,0
-182,-153,0,0,0,0,0,0,0,0,0,-1,1042,1177,0,0
-175,-153,0,0,0,0,0,0,0,0,0,-1,1049,1177,0,0
-168,-153,0,0,0,0,0,0,0,0,0,-1,1056,1177,0,0
-161,-153,0,0,0,0,0,0,0,0,0,-1,1063,1177,0,0
-154,-153,0,0,0,0,0,0,0,0,0,-1,1070,1177,0,0
-147,-153,0,0,0,0,0,0,0,0,0,-1,1077,1177,0,0
-140,-153,0,0,0,0,0,0,0,0,0,-1,1084,1177,0,0
-133,-153,0,0,0,0,0,0,0,0,0,-1,1091,1177,0,0
-126,-153,0,0,0,0,0,0,0,0,0,-1,1098,1177,0,0
-119,-153,0,0,0,0,0,0,0,0,0,-1,1105,1177,0,0
-112,-153,0,0,0,0,0,0,0,0,0,-1,1112,1177,0,0
-105,-153,0,0,0,0,0,0,0,0,0,-1,1119,1177,0,0
-98,-153,0,0,0,0,0,0,0,0,0,-1,1126,1177,0,0
-91,-153,0,0,0,0,0,0,0,0,0,-1,1133,1177,0,0
-84,-153,0,0,0,0,0,0,0,0,0,-1,1140,1177,0,0
-77,-153,0,0,0,0,0,0,0,0,0,-1,1147,1177,0,0
-70,-153,0,0,0,0,0,0,0,0,0,-1,1154,1177,0,0
-63,-153,0,0,0,0,0,0,0,0,0,-1,1161,1177,0,0
-56,-153,0,0,0,0,0,0,0,0,0,-1,1168,1177,0,0
-49,-153,0,0,0,0,0,0,0,0,0,-1,1175,1177,0,0
-42,-153,0,0,0,0,0,0,0,0,0,-1,1182,1177,0,0
-35,-153,0,0,0,0,0,0,0,0,0,-1,1189,1177,0,0
-28,-153,0,0,0,0,0,0,0,0,0,-1,1196,1177,0,0
-21,-153,0,0,0,0,0,0,0,0,0,-1,1203,1177,0,0
-14,-153,0,0,0,0,0,0,0,0,0,-1,1210,1177,0,0
-7,-153,0,0,0,0,0,0,0,0,0,-1,1217,1177,0,0
0,-153,0,0,0,0,0,0,0,0,0,-1,1224,1177,0,0
7,-153,0,0,0,0,0,0,0,0,0,-1,1231,1177,0,0
14,-153,0,0,0,0,0,0,0,0,0,-1,1238,1177,0,0
21,-153,0,0,0,0,0,0,0,0,0,-1,1245,1177,0,0
28,-153,0,0,0,0,0,0,0,0,0,-1,1252,1177,0,0
35,-153,0,0,0,0,0,0,0,0,0,-1,1259,1177,0,0
42,-153,0,0,0,0,0,0,0,0,0,-1,1266,1177,0,0
49,-153,0,0,0,0,0,0,0,0,0,-1,1273,1177,0,0
56,-153,0,0,0,0,0,0,0,0,0,-1,1280,1177,0,0
63,-153,0,0,0,0,0,0,0,0,0,-1,1287,1177,0,0
70,-153,0,0,0,0,0,0,0,0,0,-1,1294,1177,0,0
77,-153,0,0,0,0,0,0,0,0,0,-1,1301,1177,0,0
84,-153,0,0,0,0,0,0,0,0,0,-1,1308,1177,0,0
91,-153,0,0,0,0,0,0,0,0,0,-1,1315,1177,0,0
98,-153,0,0,0,0,0,0,0,0,0,-1,1322,1177,0,0
105,-153,0,0,0,0,0,0,0,0,0,-1,1329,1177,0,0
112,-153,0,0,0,0,0,0,0,0,0,-1,1336,1177,0,0
119,-153,0,0,0,0,0,0,0,0,0,-1,1343,1177,0,0
126,-153,0,0,0,0,0,0,0,0,0,-1,1350,1177,0,0
133,-153,0,0,0,0,0,0,0,0,0,-1,1357,1177,0,0
140,-153,0,0,0,0,0,0,0,0,0,-1,1364,1177,0,0
147,-153,0,0,0,0,0,0,0,0,0,-1,1371,1177,0,0
154,-153,0,0,0,0,0,0,0,0,0,-1,1378,1177,0,0
161,-153,0,0,0,0,0,0,0,0,0,-1,1385,1177,0,0
168,-153,0,0,0,0,0,0,0,0,0,-1,1392,1177,0,0
175,-153,0,0,0,0,0,0,0,0,0,-1,1399,1177,0,0
182,-153,0,0,0,0,0,0,0,0,0,-1,1406,1177,0,0
189,-153,0,0,0,0,0,0,0,0,0,-1,1413,1177,0,0
196,-153,0,0,0,0,0,0,0,0,0,-1,1420,1177,0,0
203,-153,0,0,0,0,0,0,0,0,0,-1,1427,1177,0,0
210,-153,0,0,0,0,0,0,0,0,0,-1,1434,1177,0,0
217,-153,0,0,0,0,0,0,0,0,0,-1,1441,1177,0,0
224,-153,0,0,0,0,0,0,0,0,0,-1,1448,1177,0,0
231,-153,0,0,0,0,0,0,0,0,0,-1,1455,1177,0,0
238,-153,0,0,0,0,0,0,0,0,0,-1,1462,1177,0,0
245,-153,0,0,0,0,0,0,0,0,0,-1,1469,1177,0,0
252,-153,0,0,0,0,0,0,0,0,0,-1,1476,1177,0,0
259,-153,0,0,0,0,0,0,0,0,0,-1,1483,1177,0,0
266,-153,0,0,0,0,0,0,0,0,0,-1,1490,1177,0,0
273,-153,0,0,0,0,0,0,0,0,0,-1,1497,1177,0,0
280,-153,0,0,0,0,0,0,0,0,0,-1,1504,1177,0,0
287,-153,0,0,0,0,0,0,0,0,0,-1,1511,1177,0,0
294,-153,0,0,0,0,0,0,0,0,0,-1,1518,1177,0,0
301,-153,0,0,0,0,0,0,0,0,0,-1,1525,1177,0,0
308,-153,0,0,0,0,0,0,0,0,0,-1,1532,1177,0,0
315,-153,0,0,0,0,0,0,0,0,0,-1,1539,1177,0,0
322,-153,0,0,0,0,0,0,0,0,0,-1,1546,1177,0,0
329,-153,0,0,0,0,0,0,0,0,0,-1,1553,1177,0,0
336,-153,0,0,0,0,0,0,0,0,0,-1,1560,1177,0,0
343,-153,0,0,0,0,0,0,0,0,0,-1,1567,1177,0,0
350,-153,0,0,0,0,0,0,0,0,0,-1,1574,1177,0,0
357,-153,0,0,0,0,0,0,0,0,0,-1,1581,1177,0,0
364,-153,0,0,0,0,0,0,0,0,0,-1,1588,1177,0,0
371,-153,0,0,0,0,0,0,0,0,0,-1,1595,1177,0,0
378,-153,0,0,0,0,0,0,0,0,0,-1,1602,1177,0,0
385,-153,0,0,0,0,0,0,0,0,0,-1,1609,1177,0,0
392,-153,0,0,0,0,0,0,0,0,0,-1,1616,1177,0,0
399,-153,0,0,0,0,0,0,0,0,0,-1,1623,1177,0,0
406,-153,0,0,0,0,0,0,0,0,0,-1,1630,1177,0,0
413,-153,0,0,0,0,0,0,0,0,0,-1,1637,1177,0,0
420,-153,0,0,0,0,0,0,0,0,0,-1,1644,1177,0,0
427,-153,0,0,0,0,0,0,0,0,0,-1,1651,1177,0,0
434,-153,0,0,0,0,0,0,0,0,0,-1,1658,1177,0,0
441,-153,0,0,0,0,0,0,0,0,0,-1,1665,1177,0,0
448,-153,0,0,0,0,0,0,0,0,0,-1,1672,1177,0,0
455,-153,0,0,0,0,0,0,0,0,0,-1,1679,1177,0,0
462,-153,0,0,0,0,0,0,0,0,0,-1,1686,1177,0,0
469,-153,0,0,0,0,0,0,0,0,0,-1,1693,1177,0,0
476,-153,0,0,0,0,0,0,0,0,0,-1,1700,1177,0,0
483,-153,0,0,0,0,0,0,0,0,0,-1,1707,1177,0,0
490,-153,0,0,0,0,0,0,0,0,0,-1,1714,1177,0,0
497,-153,0,0,0,0,0,0,0,0,0,-1,1721,1177,0,0
504,-153,0,0,0,0,0,0,0,0,0,-1,1728,1177,0,0
511,-153,0,0,0,0,0,0,0,0,0,-1,1735,1177,0,0
518,-153,0,0,0,0,0,0,0,0,0,-1,1742,1177,0,0
525,-153,0,0,0,0,0,0,0,0,0,-1,1749,1177,0,0
532,-153,0,0,0,0,0,0,0,0,0,-1,1756,1177,0,0
539,-153,0,0,0,0,0,0,0,0,0,-1,1763,1177,0,0
546,-153,0,0,0,0,0,0,0,0,0,-1,1770,1177,0,0
553,-153,0,0,0,0,0,0,0,0,0,-1,1777,1177,0,0
560,-153,0,0,0,0,0,0,0,0,0,-1,1784,1177,0,0
567,-153,0,0,0,0,0,0,0,0,0,-1,1791,1177,0,0
574,-153,0,0,0,0,0,0,0,0,0,-1,1798,1177,0,0
581,-153,0,0,0,0,0,0,0,0,0,-1,1805,1177,0,0
588,-153,0,0,0,0,0,0,0,0,0,-1,1812,1177,0,0
595,-153,0,0,0,0,0,0,0,0,0,-1,1819,1177,0,0
602,-153,0,0,0,0,0,0,0,0,0,-1,1826,1177,0,0
609,-153,0,0,0,0,0,0,0,0,0,-1,1833,1177,0,0
616,-153,0,0,0,0,0,0,0,0,0,-1,1840,1177,0,0
623,-153,0,0,0,0,0,0,0,0,0,-1,1847,1177,0,0
630,-153,0,0,0,0,0,0,0,0,0,-1,1854,1177,0,0
637,-153,19.4324,2.39197,0.000354102,-0.000526845,0.000919854,0.000933505,-0.00110625,0.562105,0.00117906,0.0378214,1861,1177,19.4324,-2.39193
644,-153,19.4138,2.42151,0.000978307,0.00010667,0.000978414,0.00161358,-0.000528601,0.575873,0.00128858,0.0350632,1868,1177,19.4138,-2.42154
651,-153,19.3319,2.3927,0.0013164,0.000927439,0.000491358,0.00165037,0.000593474,0.596957,0.000965279,0.0304835,1875,1177,19.3319,-2.39275
658,-153,19.3383,2.25989,0.0013012,0.00145169,0.000170977,0.00156324,0.00118964,0.992686,0.000942639,0.0357846,1882,1177,19.3382,-2.25991
665,-153,19.3589,2.21484,0.000355466,0.00127106,0.000593611,0.00156289,6.36279e-05,1.11387,0.00102138,0.0370876,1889,1177,19.3589,-2.21483
672,-153,19.3873,2.2998,-0.000909655,0.000851726,0.0011516,0.0014208,-0.00147872,1.11184,0.00167415,0.0369722,1896,1177,19.3873,-2.29984
679,-153,19.3403,2.36609,-0.00219841,0.000290676,0.00177474,0.00121376,-0.00312149,1.09118,0.00258248,0.0291283,1903,1177,19.3403,-2.36604
686,-153,19.3335,2.36011,-0.00331699,-0.000295837,0.00236807,0.00100243,-0.00461526,1.06931,0.00345973,0.0191859,1910,1177,19.3335,-2.3601
693,-153,19.3835,2.28149,-0.00416495,-0.00075518,0.00279011,0.000809697,-0.00572982,1.05965,0.00411641,0.0319579,1917,1177,19.3836,-2.28144
700,-153,19.2092,3.42517,0,0,0,0,0,0,0,-1,1924,1177,19.2092,-3.42519
707,-153,18.5439,3.66882,-0.00550309,-0.00156685,0.00342018,0.000411055,-0.00748099,1.04648,0.00512984,0.0420304,1931,1177,18.544,-3.66881
714,-153,18.048,3.92749,-0.00595209,-0.00181011,0.00356409,0.000241002,-0.00800321,1.04859,0.00541759,0.0252238,1938,1177,18.048,-3.92749
721,-153,18.0676,3.83032,-0.00614757,-0.00186789,0.00352878,0.000119159,-0.00813461,1.05795,0.00546323,0.0215505,1945,1177,18.0676,-3.83037
728,-153,18.0343,3.76868,-0.00582454,-0.00166135,0.0032538,0.000119732,-0.00760562,1.06996,0.00511079,0.0263604,1952,1177,18.0343,-3.76873
735,-153,17.8794,3.74707,-0.00496934,-0.00125973,0.00281058,0.000252906,-0.00648198,1.07706,0.00440804,0.0166924,1959,1177,17.8794,-3.74709
742,-153,17.9127,3.60632,-0.00370498,-0.000728757,0.00213449,0.000385153,-0.00481889,1.08981,0.00334837,0.0152601,1966,1177,17.9128,-3.60632
749,-153,17.9076,3.4939,-0.000674124,0.000414064,0.00193508,0.00188009,-0.00214015,0.922447,0.0023227,0.0164893,1973,1177,17.9076,-3.4939
756,-153,17.9066,3.41248,0.00553968,0.00305888,0.00260372,0.00718336,0.0014152,0.563105,0.00439381,0.0109673,1980,1177,17.9066,-3.4125
763,-153,17.9098,3.31018,0.0117432,0.00545981,0.00328584,0.0131476,0.0040554,0.403911,0.00777422,0.00990521,1987,1177,17.9097,-3.31023
770,-153,17.9147,3.2135,0.020098,0.00833154,0.0052313,0.0220875,0.0063421,0.363404,0.0131318,0.00958908,1994,1177,17.9147,-3.21355
777,-153,17.9415,3.12732,0.0317473,0.0121854,0.0086101,0.0349971,0.00893563,0.360911,0.0209965,0.0215971,2001,1177,17.9415,-3.12737
784,-153,17.9567,2.97742,0.0481071,0.0174812,0.0136918,0.0533356,0.0122527,0.364781,0.032258,0.0457434,2008,1177,17.9567,-2.97743
791,-153,17.9509,2.81958,0,0,0,0,0,0,0,-1,2015,1177,17.951,-2.81954
798,-153,21.1705,1.60437,0.100613,0.0344157,0.0307807,0.112713,0.022315,0.374565,0.0689188,0.0447696,2022,1177,21.1705,-1.60442
805,-153,21.7271,1.8175,0.13999,0.047378,0.0439501,0.157527,0.0298416,0.37965,0.0966191,0.0429613,2029,1177,21.7271,-1.81754
812,-153,0,0,0,0,0,0,0,0,0,-1,2036,1177,0,0
-700,-160,0,0,0,0,0,0,0,0,0,-1,524,1184,0,0
-693,-160,0,0,0,0,0,0,0,0,0,-1,531,1184,0,0
-686,-160,-12.4413,2.3645,0.0135747,0.0489407,-0.0847241,0.117807,-0.0552921,-0.888278,0.102088,0.0451744,538,1184,-12.4413,-2.36445
-679,-160,-12.2632,1.72229,0.00899732,0.0413305,-0.0624682,0.0896902,-0.0393623,-0.912019,0.0763738,0.0465532,545,1184,-12.2633,-1.7223
-672,-160,-10.7805,1.13501,0,0,0,0,0,0,0,-1,552,1184,-10.7805,-1.13497
-665,-160,-11.3113,0.329346,0,0,0,0,0,0,0,-1,559,1184,-11.3113,-0.329331
-658,-160,-10.4481,0.189453,0,0,0,0,0,0,0,-1,566,1184,-10.4481,-0.189426
-651,-160,-10.5027,0.383057,0.000435355,0.01672,-0.0149641,0.0256136,-0.00845824,-1.03456,0.0204857,0.0489028,573,1184,-10.5027,-0.383102
-644,-160,-10.6516,0.658447,-0.000259606,0.0124759,-0.00966104,0.0176789,-0.00546269,-1.07678,0.0139676,0.0359198,580,1184,-10.6515,-0.658457
-637,-160,-10.7295,0.778076,-0.000638611,0.00898053,-0.00598124,0.0118461,-0.00350414,-1.12402,0.00928843,0.0140223,587,1184,-10.7295,-0.778026
-630,-160,-10.7709,0.897217,-0.00114932,0.0060296,-0.00277276,0.00697582,-0.00209554,-1.24193,0.00548418,0.00873521,594,1184,-10.7709,-0.897181
-623,-160,-10.7938,1.02271,-0.00190039,0.00310721,-0.000889154,0.0032604,-0.00205358,-1.40018,0.00309429,0.010034,601,1184,-10.7938,-1.02267
-616,-160,-10.7969,1.14258,-0.00291451,0.000673076,-0.0011084,0.000987898,-0.00322933,-1.29405,0.00254687,0.00886286,608,1184,-10.7969,-1.14252
-609,-160,-10.78,1.30066,-0.00390865,-0.000505801,-0.00250103,0.00081767,-0.00523212,-1.08409,0.00379015,0.0117738,615,1184,-10.78,-1.30072
-602,-160,-10.7814,1.46814,-0.00497579,-0.00151173,-0.00350182,0.000662992,-0.00715051,-1.01506,0.00500267,0.0188827,622,1184,-10.7814,-1.46811
-595,-160,-10.762,1.60852,-0.00597432,-0.00241467,-0.00413276,0.000305228,-0.00869422,-0.988727,0.00590052,0.0213966,629,1184,-10.762,-1.60848
-588,-160,-10.8311,1.71228,-0.00664465,-0.00301875,-0.00473126,0.000235011,-0.00989841,-0.968362,0.00667866,0.0206136,636,1184,-10.8311,-1.71233
-581,-160,-10.7038,1.87781,0,0,0,0,0,0,0,-1,643,1184,-10.7038,-1.8778
-574,-160,-11.2066,1.35938,-0.00627499,-0.00353813,-0.00528084,0.000548697,-0.0103618,-0.912175,0.00709785,0.0462616,650,1184,-11.2066,-1.35935
-567,-160,-11.8866,0.771729,-0.00560202,-0.0038903,-0.00525442,0.000577499,-0.0100698,-0.866131,0.00691376,0.0483863,657,1184,-11.8866,-0.771766
-560,-160,-12.3179,0.404053,-0.00475625,-0.004066,-0.00506433,0.000664951,-0.0094872,-0.81942,0.0065577,0.0388025,664,1184,-12.3179,-0.404113
-553,-160,-12.2761,0.324463,-0.00316327,-0.00400053,-0.00454208,0.000979432,-0.00814323,-0.739444,0.00578301,0.0372306,671,1184,-12.2761,-0.324459
-546,-160,-12.3351,0.464111,-0.000571761,-0.00370815,-0.00353472,0.00172702,-0.00600693,-0.576616,0.00468757,0.0386219,678,1184,-12.3351,-0.464101
-539,-160,-12.5059,0.622681,0.00330207,-0.00316034,-0.00190694,0.00382282,-0.00368108,-0.266578,0.00433263,0.0422175,685,1184,-12.5059,-0.622648
-532,-160,-12.5576,0.666382,0.00902152,-0.00235432,0.000557511,0.00904878,-0.00238158,0.0488523,0.00696348,0.0427154,692,1184,-12.5576,-0.666323
-525,-160,-12.4333,0.581665,0.0159414,-0.00156967,0.00332478,0.0165514,-0.00217968,0.181457,0.011828,0.0409176,699,1184,-12.4333,-0.581692
-518,-160,-12.1828,0.453003,0.0216973,-0.00192812,0.00478683,0.0226304,-0.00286115,0.192502,0.0161255,0.0438436,706,1184,-12.1828,-0.453051
-511,-160,0,0,0,0,0,0,0,0,0,-1,713,1184,0,0
-504,-160,0,0,0,0,0,0,0,0,0,-1,720,1184,0,0
-497,-160,0,0,0,0,0,0,0,0,0,-1,727,1184,0,0
-490,-160,0,0,0,0,0,0,0,0,0,-1,734,1184,0,0
-483,-160,0,0,0,0,0,0,0,0,0,-1,741,1184,0,0
-476,-160,0,0,0,0,0,0,0,0,0,-1,748,1184,0,0
-469,-160,0,0,0,0,0,0,0,0,0,-1,755,1184,0,0
-462,-160,0,0,0,0,0,0,0,0,0,-1,762,1184,0,0
-455,-160,0,0,0,0,0,0,0,0,0,-1,769,1184,0,0
-448,-160,0,0,0,0,0,0,0,0,0,-1,776,1184,0,0
-441,-160,0,0,0,0,0,0,0,0,0,-1,783,1184,0,0
-434,-160,0,0,0,0,0,0,0,0,0,-1,790,1184,0,0
-427,-160,0,0,0,0,0,0,0,0,0,-1,797,1184,0,0
-420,-160,0,0,0,0,0,0,0,0,0,-1,804,1184,0,0
-413,-160,0,0,0,0,0,0,0,0,0,-1,811,1184,0,0
-406,-160,0,0,0,0,0,0,0,0,0,-1,818,1184,0,0
-399,-160,0,0,0,0,0,0,0,0,0,-1,825,1184,0,0
-392,-160,0,0,0,0,0,0,0,0,0,-1,832,1184,0,0
-385,-160,0,0,0,0,0,0,0,0,0,-1,839,1184,0,0
-378,-160,0,0,0,0,0,0,0,0,0,-1,846,1184,0,0
-371,-160,0,0,0,0,0,0,0,0,0,-1,853,1184,0,0
-364,-160,0,0,0,0,0,0,0,0,0,-1,860,1184,0,0
-357,-160,0,0,0,0,0,0,0,0,0,-1,867,1184,0,0
-350,-160,0,0,0,0,0,0,0,0,0,-1,874,1184,0,0
-343,-160,0,0,0,0,0,0,0,0,0,-1,881,1184,0,0
-336,-160,0,0,0,0,0,0,0,0,0,-1,888,1184,0,0
-329,-160,0,0,0,0,0,0,0,0,0,-1,895,1184,0,0
-322,-160,0,0,0,0,0,0,0,0,0,-1,902,1184,0,0
-315,-160,0,0,0,0,0,0,0,0,0,-1,909,1184,0,0
-308,-160,0,0,0,0,0,0,0,0,0,-1,916,1184,0,0
-301,-160,0,0,0,0,0,0,0,0,0,-1,923,1184,0,0
-294,-160,0,0,0,0,0,0,0,0,0,-1,930,1184,0,0
-287,-160,0,0,0,0,0,0,0,0,0,-1,937,1184,0,0
-280,-160,0,0,0,0,0,0,0,0,0,-1,944,1184,0,0
-273,-160,0,0,0,0,0,0,0,0,0,-1,951,1184,0,0
-266,-160,0,0,0,0,0,0,0,0,0,-1,958,1184,0,0
-259,-160,0,0,0,0,0,0,0,0,0,-1,965,1184,0,0
-252,-160,0,0,0,0,0,0,0,0,0,-1,972,1184,0,0
-245,-160,0,0,0,0,0,0,0,0,0,-1,979,1184,0,0
-238,-160,0,0,0,0,0,0,0,0,0,-1,986,1184,0,0
-231,-160,0,0,0,0,0,0,0,0,0,-1,993,1184,0,0
-224,-160,0,0,0,0,0,0,0,0,0,-1,1000,1184,0,0
-217,-160,0,0,0,0,0,0,0,0,0,-1,1007,1184,0,0
-210,-160,0,0,0,0,0,0,0,0,0,-1,1014,1184,0,0
-203,-160,0,0,0,0,0,0,0,0,0,-1,1021,1184,0,0
-196,-160,0,0,0,0,0,0,0,0,0,-1,1028,1184,0,0
-189,-160,0,0,0,0,0,0,0,0,0,-1,1035,1184,0,0
-182,-160,0,0,0,0,0,0,0,0,0,-1,1042,1184,0,0
-175,-160,0,0,0,0,0,0,0,0,0,-1,1049,1184,0,0
-168,-160,0,0,0,0,0,0,0,0,0,-1,1056,1184,0,0
-161,-160,0,0,0,0,0,0,0,0,0,-1,1063,1184,0,0
-154,-160,0,0,0,0,0,0,0,0,0,-1,1070,1184,0,0
-147,-160,0,0,0,0,0,0,0,0,0,-1,1077,1184,0,0
-140,-160,0,0,0,0,0,0,0,0,0,-1,1084,1184,0,0
-133,-160,0,0,0,0,0,0,0,0,0,-1,1091,1184,0,0
-126,-160,0,0,0,0,0,0,0,0,0,-1,1098,1184,0,0
-119,-160,0,0,0,0,0,0,0,0,0,-1,1105,1184,0,0
-112,-160,0,0,0,0,0,0,0,0,0,-1,1112,1184,0,0
-105,-160,0,0,0,0,0,0,0,0,0,-1,1119,1184,0,0
-98,-160,0,0,0,0,0,0,0,0,0,-1,1126,1184,0,0
-91,-160,0,0,0,0,0,0,0,0,0,-1,1133,1184,0,0
-84,-160,0,0,0,0,0,0,0,0,0,-1,1140,1184,0,0
-77,-160,0,0,0,0,0,0,0,0,0,-1,1147,1184,0,0
-70,-160,0,0,0,0,0,0,0,0,0,-1,1154,1184,0,0
-63,-160,0,0,0,0,0,0,0,0,0,-1,1161,1184,0,0
-56,-160,0,0,0,0,0,0,0,0,0,-1,1168,1184,0,0
-49,-160,0,0,0,0,0,0,0,0,0,-1,1175,1184,0,0
-42,-160,0,0,0,0,0,0,0,0,0,-1,1182,1184,0,0
-35,-160,0,0,0,0,0,0,0,0,0,-1,1189,1184,0,0
-28,-160,0,0,0,0,0,0,0,0,0,-1,1196,1184,0,0
-21,-160,0,0,0,0,0,0,0,0,0,-1,1203,1184,0,0
-14,-160,0,0,0,0,0,0,0,0,0,-1,1210,1184,0,0
-7,-160,0,0,0,0,0,0,0,0,0,-1,1217,1184,0,0
0,-160,0,0,0,0,0,0,0,0,0,-1,1224,1184,0,0
7,-160,0,0,0,0,0,0,0,0,0,-1,1231,1184,0,0
14,-160,0,0,0,0,0,0,0,0,0,-1,1238,1184,0,0
21,-160,0,0,0,0,0,0,0,0,0,-1,1245,1184,0,0
28,-160,0,0,0,0,0,0,0,0,0,-1,1252,1184,0,0
35,-160,0,0,0,0,0,0,0,0,0,-1,1259,1184,0,0
42,-160,0,0,0,0,0,0,0,0,0,-1,1266,1184,0,0
49,-160,0,0,0,0,0,0,0,0,0,-1,1273,1184,0,0
56,-160,0,0,0,0,0,0,0,0,0,-1,1280,1184,0,0
63,-160,0,0,0,0,0,0,0,0,0,-1,1287,1184,0,0
70,-160,0,0,0,0,0,0,0,0,0,-1,1294,1184,0,0
77,-160,0,0,0,0,0,0,0,0,0,-1,1301,1184,0,0
84,-160,0,0,0,0,0,0,0,0,0,-1,1308,1184,0,0
91,-160,0,0,0,0,0,0,0,0,0,-1,1315,1184,0,0
98,-160,0,0,0,0,0,0,0,0,0,-1,1322,1184,0,0
105,-160,0,0,0,0,0,0,0,0,0,-1,1329,1184,0,0
112,-160,0,0,0,0,0,0,0,0,0,-1,1336,1184,0,0
119,-160,0,0,0,0,0,0,0,0,0,-1,1343,1184,0,0
126,-160,0,0,0,0,0,0,0,0,0,-1,1350,1184,0,0
133,-160,0,0,0,0,0,0,0,0,0,-1,1357,1184,0,0
140,-160,0,0,0,0,0,0,0,0,0,-1,1364,1184,0,0
147,-160,0,0,0,0,0,0,0,0,0,-1,1371,1184,0,0
154,-160,0,0,0,0,0,0,0,0,0,-1,1378,1184,0,0
161,-160,0,0,0,0,0,0,0,0,0,-1,1385,1184,0,0
168,-160,0,0,0,0,0,0,0,0,0,-1,1392,1184,0,0
175,-160,0,0,0,0,0,0,0,0,0,-1,1399,1184,0,0
182,-160,0,0,0,0,0,0,0,0,0,-1,1406,1184,0,0
189,-160,0,0,0,0,0,0,0,0,0,-1,1413,1184,0,0
196,-160,0,0,0,0,0,0,0,0,0,-1,1420,1184,0,0
203,-160,0,0,0,0,0,0,0,0,0,-1,1427,1184,0,0
210,-160,0,0,0,0,0,0,0,0,0,-1,1434,1184,0,0
217,-160,0,0,0,0,0,0,0,0,0,-1,1441,1184,0,0
224,-160,0,0,0,0,0,0,0,0,0,-1,1448,1184,0,0
231,-160,0,0,0,0,0,0,0,0,0,-1,1455,1184,0,0
238,-160,0,0,0,0,0,0,0,0,0,-1,1462,1184,0,0
245,-160,0,0,0,0,0,0,0,0,0,-1,1469,1184,0,0
252,-160,0,0,0,0,0,0,0,0,0,-1,1476,1184,0,0
259,-160,0,0,0,0,0,0,0,0,0,-1,1483,1184,0,0
266,-160,0,0,0,0,0,0,0,0,0,-1,1490,1184,0,0
273,-160,0,0,0,0,0,0,0,0,0,-1,1497,1184,0,0
280,-160,0,0,0,0,0,0,0,0,0,-1,1504,1184,0,0
287,-160,0,0,0,0,0,0,0,0,0,-1,1511,1184,0,0
294,-160,0,0,0,0,0,0,0,0,0,-1,1518,1184,0,0
301,-160,0,0,0,0,0,0,0,0,0,-1,1525,1184,0,0
308,-160,0,0,0,0,0,0,0,0,0,-1,1532,1184,0,0
315,-160,0,0,0,0,0,0,0,0,0,-1,1539,1184,0,0
322,-160,0,0,0,0,0,0,0,0,0,-1,1546,1184,0,0
329,-160,0,0,0,0,0,0,0,0,0,-1,1553,1184,0,0
336,-160,0,0,0,0,0,0,0,0,0,-1,1560,1184,0,0
343,-160,0,0,0,0,0,0,0,0,0,-1,1567,1184,0,0
350,-160,0,0,0,0,0,0,0,0,0,-1,1574,1184,0,0
357,-160,0,0,0,0,0,0,0,0,0,-1,1581,1184,0,0
364,-160,0,0,0,0,0,0,0,0,0,-1,1588,1184,0,0
371,-160,0,0,0,0,0,0,0,0,0,-1,1595,1184,0,0
378,-160,0,0,0,0,0,0,0,0,0,-1,1602,1184,0,0
385,-160,0,0,0,0,0,0,0,0,0,-1,1609,1184,0,0
392,-160,0,0,0,0,0,0,0,0,0,-1,1616,1184,0,0
399,-160,0,0,0,0,0,0,0,0,0,-1,1623,1184,0,0
406,-160,0,0,0,0,0,0,0,0,0,-1,1630,1184,0,0
413,-160,0,0,0,0,0,0,0,0,0,-1,1637,1184,0,0
420,-160,0,0,0,0,0,0,0,0,0,-1,1644,1184,0,0
427,-160,0,0,0,0,0,0,0,0,0,-1,1651,1184,0,0
434,-160,0,0,0,0,0,0,0,0,0,-1,1658,1184,0,0
441,-160,0,0,0,0,0,0,0,0,0,-1,1665,1184,0,0
448,-160,0,0,0,0,0,0,0,0,0,-1,1672,1184,0,0
455,-160,0,0,0,0,0,0,0,0,0,-1,1679,1184,0,0
462,-160,0,0,0,0,0,0,0,0,0,-1,1686,1184,0,0
469,-160,0,0,0,0,0,0,0,0,0,-1,1693,1184,0,0
476,-160,0,0,0,0,0,0,0,0,0,-1,1700,1184,0,0
483,-160,0,0,0,0,0,0,0,0,0,-1,1707,1184,0,0
490,-160,0,0,0,0,0,0,0,0,0,-1,1714,1184,0,0
497,-160,0,0,0,0,0,0,0,0,0,-1,1721,1184,0,0
504,-160,0,0,0,0,0,0,0,0,0,-1,1728,1184,0,0
511,-160,0,0,0,0,0,0,0,0,0,-1,1735,1184,0,0
518,-160,0,0,0,0,0,0,0,0,0,-1,1742,1184,0,0
525,-160,0,0,0,0,0,0,0,0,0,-1,1749,1184,0,0
532,-160,0,0,0,0,0,0,0,0,0,-1,1756,1184,0,0
539,-160,0,0,0,0,0,0,0,0,0,-1,1763,1184,0,0
546,-160,0,0,0,0,0,0,0,0,0,-1,1770,1184,0,0
553,-160,0,0,0,0,0,0,0,0,0,-1,1777,1184,0,0
560,-160,0,0,0,0,0,0,0,0,0,-1,1784,1184,0,0
567,-160,0,0,0,0,0,0,0,0,0,-1,1791,1184,0,0
574,-160,0,0,0,0,0,0,0,0,0,-1,1798,1184,0,0
581,-160,0,0,0,0,0,0,0,0,0,-1,1805,1184,0,0
588,-160,0,0,0,0,0,0,0,0,0,-1,1812,1184,0,0
595,-160,0,0,0,0,0,0,0,0,0,-1,1819,1184,0,0
602,-160,0,0,0,0,0,0,0,0,0,-1,1826,1184,0,0
609,-160,0,0,0,0,0,0,0,0,0,-1,1833,1184,0,0
616,-160,0,0,0,0,0,0,0,0,0,-1,1840,1184,0,0
623,-160,0,0,0,0,0,0,0,0,0,-1,1847,1184,0,0
630,-160,0,0,0,0,0,0,0,0,0,-1,1854,1184,0,0
637,-160,19.3983,2.44568,-0.00108135,-0.000720824,0.000661719,-0.000215254,-0.00158692,0.918379,0.000993994,0.0414258,1861,1184,19.3983,-2.44572
644,-160,19.4115,2.36401,-6.89088e-05,7.29073e-05,0.000597109,0.000603304,-0.000599305,0.844498,0.000694328,0.0407311,1868,1184,19.4115,-2.36403
651,-160,19.34,2.32446,0.000604718,0.00103053,0.000122572,0.00106329,0.000571956,1.30961,0.000614481,0.0381529,1875,1184,19.34,-2.32447
658,-160,19.229,2.24878,0.000737691,0.00153317,-2.45314e-05,0.00153392,0.000736935,-1.54,0.000885836,0.037276,1882,1184,19.2289,-2.24878
665,-160,19.3391,2.26892,5.93849e-06,0.00139065,0.000444902,0.00152128,-0.000124684,1.28522,0.0010582,0.0357434,1889,1184,19.3391,-2.26892
672,-160,19.3339,2.3772,-0.0010182,0.00101233,0.000984421,0.00141123,-0.0014171,1.18581,0.00163293,0.0340505,1896,1184,19.3338,-2.37721
679,-160,19.2821,2.38989,-0.00211275,0.000503518,0.0015746,0.00124247,-0.0028517,1.13201,0.00242388,0.0270481,1903,1184,19.2821,-2.38986
686,-160,19.332,2.3446,-0.00304755,-5.38632e-05,0.00213861,0.00105969,-0.00416111,1.09073,0.00318659,0.0173741,1910,1184,19.332,-2.34463
693,-160,19.3406,2.22473,-0.00376754,-0.000494953,0.00254154,0.000891479,-0.00515397,1.07141,0.00376846,0.0458691,1917,1184,19.3406,-2.22471
700,-160,17.6826,4.36206,0,0,0,0,0,0,0,-1,1924,1184,17.6826,-4.36211
707,-160,17.8601,4.16785,-0.00495558,-0.00131736,0.00315503,0.000505421,-0.00677837,1.04691,0.00469646,0.0427795,1931,1184,17.8601,-4.16787
714,-160,17.9613,4.02173,-0.00539679,-0.00158383,0.00328509,0.000307905,-0.00728853,1.04832,0.00496484,0.0292669,1938,1184,17.9613,-4.02173
721,-160,17.948,3.83459,-0.00555176,-0.00167443,0.0032252,0.000149929,-0.00737611,1.05601,0.00496814,0.0148399,1945,1184,17.9479,-3.83464
728,-160,17.8981,3.77856,-0.00509879,-0.00148055,0.00291911,0.000144587,-0.00672393,1.06281,0.00453159,0.0136144,1952,1184,17.8981,-3.77851
735,-160,17.8269,3.70569,-0.00409516,-0.00109725,0.00247652,0.000298615,-0.00549103,1.05754,0.00376418,0.013822,1959,1184,17.8269,-3.70563
742,-160,17.8243,3.5835,-0.0026316,-0.000621501,0.00179764,0.000432975,-0.00368608,1.0403,0.00261369,0.0160579,1966,1184,17.8244,-3.58345
749,-160,17.8131,3.44617,0.000735227,0.000465959,0.00163895,0.00224506,-0.00104388,0.744417,0.00194062,0.0177385,1973,1184,17.8131,-3.4462
756,-160,17.8126,3.38843,0.00745487,0.00314545,0.00263315,0.00870255,0.00189778,0.442497,0.00528396,0.0112488,1980,1184,17.8126,-3.38841
763,-160,17.8167,3.30139,0.0141073,0.00545944,0.00365878,0.0154476,0.00411918,0.351134,0.00923672,0.0110684,1987,1184,17.8166,-3.30144
770,-160,17.809,3.16809,0.0231482,0.00828282,0.00609577,0.0253282,0.00610285,0.343447,0.0152634,0.016837,1994,1184,17.809,-3.16806
777,-160,17.8287,2.99133,0.0357562,0.01214,0.0101884,0.0395441,0.00835214,0.355947,0.0240667,0.032207,2001,1184,17.8287,-2.99138
784,-160,17.9574,2.99792,0,0,0,0,0,0,0,-1,2008,1184,17.9574,-2.99795
791,-160,18.2988,1.70557,0.0771318,0.0248489,0.0251779,0.087285,0.0146957,0.383313,0.0539626,0.0416299,2015,1184,18.2989,-1.70551
798,-160,18.3521,1.46338,0.108969,0.0348821,0.0372958,0.124491,0.0193593,0.394398,0.0773528,0.0439958,2022,1184,18.352,-1.46336
805,-160,22.6606,1.59326,0.150602,0.0484401,0.0537498,0.173671,0.0253705,0.405427,0.108319,0.0472389,2029,1184,22.6606,-1.59328
812,-160,0,0,0,0,0,0,0,0,0,-1,2036,1184,0,0
-700,-167,0,0,0,0,0,0,0,0,0,-1,524,1191,0,0
-693,-167,0,0,0,0,0,0,0,0,0,-1,531,1191,0,0
-686,-167,-9.65875,1.94275,0.00484358,0.0551452,-0.0867884,0.120354,-0.0603648,-0.926432,0.106237,0.0489196,538,1191,-9.65876,-1.94281
-679,-167,-9.80463,1.58887,0.00170517,0.045627,-0.0635331,0.0908876,-0.0435555,-0.9518,0.079208,0.0450724,545,1191,-9.80464,-1.58887
-672,-167,-9.93365,1.2356,-0.000290337,0.037055,-0.0457978,0.0678405,-0.0310758,-0.97897,0.0584095,0.0460967,552,1191,-9.93367,-1.23555
-665,-167,-10.0402,0.884521,-0.00149428,0.0294952,-0.0322682,0.049796,-0.0217951,-1.00923,0.0423739,0.0466181,559,1191,-10.0401,-0.884484
-658,-167,-10.1521,0.502075,-0.00209753,0.0229575,-0.0220777,0.0358143,-0.0149543,-1.04346,0.0301247,0.0484563,566,1191,-10.1521,-0.502068
-651,-167,-10.1742,0.338379,-0.00231198,0.0174316,-0.0145856,0.025172,-0.0100524,-1.0829,0.020952,0.0480363,573,1191,-10.1742,-0.338395
-644,-167,-10.3972,0.545044,-0.00224946,0.0128774,-0.00926314,0.0172727,-0.00664476,-1.12776,0.0142559,0.0353821,580,1191,-10.3972,-0.545023
-637,-167,-10.5893,0.772339,-0.00202828,0.00921495,-0.00562819,0.0115482,-0.00436148,-1.1778,0.00949267,0.0157314,587,1191,-10.5893,-0.772291
-630,-167,-10.6301,0.870239,-0.00199703,0.00617794,-0.00244178,0.00685173,-0.00267083,-1.30155,0.00567174,0.00872148,594,1191,-10.63,-0.870197
-623,-167,-10.6309,0.997925,-0.00227655,0.0031034,-0.000454376,0.00314151,-0.00231465,-1.48713,0.00316215,0.00966044,601,1191,-10.6308,-0.997934
-616,-167,-10.6423,1.15161,-0.00287473,0.00062574,-0.00074303,0.00077693,-0.00302592,-1.37006,0.00232003,0.0125686,608,1191,-10.6423,-1.15157
-609,-167,-10.6569,1.30676,-0.00360097,-0.000454599,-0.00225186,0.000719174,-0.00477474,-1.0903,0.00344798,0.0126418,615,1191,-10.6569,-1.3067
-602,-167,-10.6672,1.42407,-0.00461209,-0.00151352,-0.00324935,0.000536997,-0.00666261,-1.00786,0.00463113,0.014041,622,1191,-10.6672,-1.42412
-595,-167,-10.6663,1.55981,-0.00560721,-0.00247971,-0.00389505,0.000153767,-0.00824069,-0.976285,0.00554576,0.0192593,629,1191,-10.6663,-1.55984
-588,-167,-10.6708,1.73608,-0.00623171,-0.00313186,-0.00456472,0.000138894,-0.00950247,-0.949063,0.00638178,0.0184607,636,1191,-10.6708,-1.73614
-581,-167,-10.6744,1.83252,-0.00629627,-0.00349217,-0.00503524,0.00033258,-0.010121,-0.921182,0.00686089,0.0188246,643,1191,-10.6744,-1.83247
-574,-167,-11.0174,1.5155,0,0,0,0,0,0,0,-1,650,1191,-11.0174,-1.51551
-567,-167,-12.3235,0.106567,0,0,0,0,0,0,0,-1,657,1191,-12.3235,-0.106521
-560,-167,-12.2595,0.149902,-0.00424335,-0.00425145,-0.00496208,0.00071468,-0.00920948,-0.78499,0.00639122,0.0401327,664,1191,-12.2595,-0.149959
-553,-167,-12.2846,0.368042,-0.00276518,-0.00419695,-0.00448751,0.00106319,-0.00802532,-0.7063,0.00573754,0.038634,671,1191,-12.2846,-0.368035
-546,-167,-12.3697,0.485718,-0.000416916,-0.00392222,-0.00355734,0.00179609,-0.00613523,-0.556508,0.00480215,0.0360678,678,1191,-12.3697,-0.485657
-539,-167,-12.2379,0.416138,0.00299172,-0.00336634,-0.00204833,0.00359447,-0.00396909,-0.286188,0.00436861,0.038873,685,1191,-12.2379,-0.41611
-532,-167,-12.2805,0.376465,0.00792692,-0.00249587,0.000258866,0.00793335,-0.00250229,0.0248162,0.00629112,0.043533,692,1191,-12.2805,-0.376518
-525,-167,-12.2434,0.628906,0.014149,-0.00149256,0.00317567,0.0147692,-0.00211272,0.192858,0.0106206,0.0458302,699,1191,-12.2434,-0.628919
-518,-167,-12.0074,0.903931,0.0196384,-0.00141173,0.00514949,0.0208306,-0.00260393,0.22751,0.0148314,0.0462021,706,1191,-12.0074,-0.903978
-511,-167,0,0,0,0,0,0,0,0,0,-1,713,1191,0,0
-504,-167,0,0,0,0,0,0,0,0,0,-1,720,1191,0,0
-497,-167,0,0,0,0,0,0,0,0,0,-1,727,1191,0,0
-490,-167,0,0,0,0,0,0,0,0,0,-1,734,1191,0,0
-483,-167,0,0,0,0,0,0,0,0,0,-1,741,1191,0,0
-476,-167,0,0,0,0,0,0,0,0,0,-1,748,1191,0,0
-469,-167,0,0,0,0,0,0,0,0,0,-1,755,1191,0,0
-462,-167,0,0,0,0,0,0,0,0,0,-1,762,1191,0,0
-455,-167,0,0,0,0,0,0,0,0,0,-1,769,1191,0,0
-448,-167,0,0,0,0,0,0,0,0,0,-1,776,1191,0,0
-441,-167,0,0,0,0,0,0,0,0,0,-1,783,1191,0,0
-434,-167,0,0,0,0,0,0,0,0,0,-1,790,1191,0,0
-427,-167,0,0,0,0,0,0,0,0,0,-1,797,1191,0,0
-420,-167,0,0,0,0,0,0,0,0,0,-1,804,1191,0,0
-413,-167,0,0,0,0,0,0,0,0,0,-1,811,1191,0,0
-406,-167,0,0,0,0,0,0,0,0,0,-1,818,1191,0,0
-399,-167,0,0,0,0,0,0,0,0,0,-1,825,1191,0,0
-392,-167,0,0,0,0,0,0,0,0,0,-1,832,1191,0,0
-385,-167,0,0,0,0,0,0,0,0,0,-1,839,1191,0,0
-378,-167,0,0,0,0,0,0,0,0,0,-1,846,1191,0,0
-371,-167,0,0,0,0,0,0,0,0,0,-1,853,1191,0,0
-364,-167,0,0,0,0,0,0,0,0,0,-1,860,1191,0,0
-357,-167,0,0,0,0,0,0,0,0,0,-1,867,1191,0,0
-350,-167,0,0,0,0,0,0,0,0,0,-1,874,1191,0,0
-343,-167,0,0,0,0,0,0,0,0,0,-1,881,1191,0,0
-336,-167,0,0,0,0,0,0,0,0,0,-1,888,1191,0,0
-329,-167,0,0,0,0,0,0,0,0,0,-1,895,1191,0,0
-322,-167,0,0,0,0,0,0,0,0,0,-1,902,1191,0,0
-315,-167,0,0,0,0,0,0,0,0,0,-1,909,1191,0,0
-308,-167,0,0,0,0,0,0,0,0,0,-1,916,1191,0,0
-301,-167,0,0,0,0,0,0,0,0,0,-1,923,1191,0,0
-294,-167,0,0,0,0,0,0,0,0,0,-1,930,1191,0,0
-287,-167,0,0,0,0,0,0,0,0,0,-1,937,1191,0,0
-280,-167,0,0,0,0,0,0,0,0,0,-1,944,1191,0,0
-273,-167,0,0,0,0,0,0,0,0,0,-1,951,1191,0,0
-266,-167,0,0,0,0,0,0,0,0,0,-1,958,1191,0,0
-259,-167,0,0,0,0,0,0,0,0,0,-1,965,1191,0,0
-252,-167,0,0,0,0,0,0,0,0,0,-1,972,1191,0,0
-245,-167,0,0,0,0,0,0,0,0,0,-1,979,1191,0,0
-238,-167,0,0,0,0,0,0,0,0,0,-1,986,1191,0,0
-231,-167,0,0,0,0,0,0,0,0,0,-1,993,1191,0,0
-224,-167,0,0,0,0,0,0,0,0,0,-1,1000,1191,0,0
-217,-167,0,0,0,0,0,0,0,0,0,-1,1007,1191,0,0
-210,-167,0,0,0,0,0,0,0,0,0,-1,1014,1191,0,0
-203,-167,0,0,0,0,0,0,0,0,0,-1,1021,1191,0,0
-196,-167,0,0,0,0,0,0,0,0,0,-1,1028,1191,0,0
-189,-167,0,0,0,0,0,0,0,0,0,-1,1035,1191,0,0
-182,-167,0,0,0,0,0,0,0,0,0,-1,1042,1191,0,0
-175,-167,0,0,0,0,0,0,0,0,0,-1,1049,1191,0,0
-168,-167,0,0,0,0,0,0,0,0,0,-1,1056,1191,0,0
-161,-167,0,0,0,0,0,0,0,0,0,-1,1063,1191,0,0
-154,-167,0,0,0,0,0,0,0,0,0,-1,1070,1191,0,0
-147,-167,0,0,0,0,0,0,0,0,0,-1,1077,1191,0,0
-140,-167,0,0,0,0,0,0,0,0,0,-1,1084,1191,0,0
-133,-167,0,0,0,0,0,0,0,0,0,-1,1091,1191,0,0
-126,-167,0,0,0,0,0,0,0,0,0,-1,1098,1191,0,0
-119,-167,0,0,0,0,0,0,0,0,0,-1,1105,1191,0,0
-112,-167,0,0,0,0,0,0,0,0,0,-1,1112,1191,0,0
-105,-167,0,0,0,0,0,0,0,0,0,-1,1119,1191,0,0
-98,-167,0,0,0,0,0,0,0,0,0,-1,1126,1191,0,0
-91,-167,0,0,0,0,0,0,0,0,0,-1,1133,1191,0,0
-84,-167,0,0,0,0,0,0,0,0,0,-1,1140,1191,0,0
-77,-167,0,0,0,0,0,0,0,0,0,-1,1147,1191,0,0
-70,-167,0,0,0,0,0,0,0,0,0,-1,1154,1191,0,0
-63,-167,0,0,0,0,0,0,0,0,0,-1,1161,1191,0,0
-56,-167,0,0,0,0,0,0,0,0,0,-1,1168,1191,0,0
-49,-167,0,0,0,0,0,0,0,0,0,-1,1175,1191,0,0
-42,-167,0,0,0,0,0,0,0,0,0,-1,1182,1191,0,0
-35,-167,0,0,0,0,0,0,0,0,0,-1,1189,1191,0,0
-28,-167,0,0,0,0,0,0,0,0,0,-1,1196,1191,0,0
-21,-167,0,0,0,0,0,0,0,0,0,-1,1203,1191,0,0
-14,-167,0,0,0,0,0,0,0,0,0,-1,1210,1191,0,0
-7,-167,0,0,0,0,0,0,0,0,0,-1,1217,1191,0,0
0,-167,0,0,0,0,0,0,0,0,0,-1,1224,1191,0,0
7,-167,0,0,0,0,0,0,0,0,0,-1,1231,1191,0,0
14,-167,0,0,0,0,0,0,0,0,0,-1,1238,1191,0,0
21,-167,0,0,0,0,0,0,0,0,0,-1,1245,1191,0,0
28,-167,0,0,0,0,0,0,0,0,0,-1,1252,1191,0,0
35,-167,0,0,0,0,0,0,0,0,0,-1,1259,1191,0,0
42,-167,0,0,0,0,0,0,0,0,0,-1,1266,1191,0,0
49,-167,0,0,0,0,0,0,0,0,0,-1,1273,1191,0,0
56,-167,0,0,0,0,0,0,0,0,0,-1,1280,1191,0,0
63,-167,0,0,0,0,0,0,0,0,0,-1,1287,1191,0,0
70,-167,0,0,0,0,0,0,0,0,0,-1,1294,1191,0,0
77,-167,0,0,0,0,0,0,0,0,0,-1,1301,1191,0,0
84,-167,0,0,0,0,0,0,0,0,0,-1,1308,1191,0,0
91,-167,0,0,0,0,0,0,0,0,0,-1,1315,1191,0,0
98,-167,0,0,0,0,0,0,0,0,0,-1,1322,1191,0,0
105,-167,0,0,0,0,0,0,0,0,0,-1,1329,1191,0,0
112,-167,0,0,0,0,0,0,0,0,0,-1,1336,1191,0,0
119,-167,0,0,0,0,0,0,0,0,0,-1,1343,1191,0,0
126,-167,0,0,0,0,0,0,0,0,0,-1,1350,1191,0,0
133,-167,0,0,0,0,0,0,0,0,0,-1,1357,1191,0,0
140,-167,0,0,0,0,0,0,0,0,0,-1,1364,1191,0,0
147,-167,0,0,0,0,0,0,0,0,0,-1,1371,1191,0,0
154,-167,0,0,0,0,0,0,0,0,0,-1,1378,1191,0,0
161,-167,0,0,0,0,0,0,0,0,0,-1,1385,1191,0,0
168,-167,0,0,0,0,0,0,0,0,0,-1,1392,1191,0,0
175,-167,0,0,0,0,0,0,0,0,0,-1,1399,1191,0,0
182,-167,0,0,0,0,0,0,0,0,0,-1,1406,1191,0,0
189,-167,0,0,0,0,0,0,0,0,0,-1,1413,1191,0,0
196,-167,0,0,0,0,0,0,0,0,0,-1,1420,1191,0,0
203,-167,0,0,0,0,0,0,0,0,0,-1,1427,1191,0,0
210,-167,0,0,0,0,0,0,0,0,0,-1,1434,1191,0,0
217,-167,0,0,0,0,0,0,0,0,0,-1,1441,1191,0,0
224,-167,0,0,0,0,0,0,0,0,0,-1,1448,1191,0,0
231,-167,0,0,0,0,0,0,0,0,0,-1,1455,1191,0,0
238,-167,0,0,0,0,0,0,0,0,0,-1,1462,1191,0,0
245,-167,0,0,0,0,0,0,0,0,0,-1,1469,1191,0,0
252,-167,0,0,0,0,0,0,0,0,0,-1,1476,1191,0,0
259,-167,0,0,0,0,0,0,0,0,0,-1,1483,1191,0,0
266,-167,0,0,0,0,0,0,0,0,0,-1,1490,1191,0,0
273,-167,0,0,0,0,0,0,0,0,0,-1,1497,1191,0,0
280,-167,0,0,0,0,0,0,0,0,0,-1,1504,1191,0,0
287,-167,0,0,0,0,0,0,0,0,0,-1,1511,1191,0,0
294,-167,0,0,0,0,0,0,0,0,0,-1,1518,1191,0,0
301,-167,0,0,0,0,0,0,0,0,0,-1,1525,1191,0,0
308,-167,0,0,0,0,0,0,0,0,0,-1,1532,1191,0,0
315,-167,0,0,0,0,0,0,0,0,0,-1,1539,1191,0,0
322,-167,0,0,0,0,0,0,0,0,0,-1,1546,1191,0,0
329,-167,0,0,0,0,0,0,0,0,0,-1,1553,1191,0,0
336,-167,0,0,0,0,0,0,0,0,0,-1,1560,1191,0,0
343,-167,0,0,0,0,0,0,0,0,0,-1,1567,1191,0,0
350,-167,0,0,0,0,0,0,0,0,0,-1,1574,1191,0,0
357,-167,0,0,0,0,0,0,0,0,0,-1,1581,1191,0,0
364,-167,0,0,0,0,0,0,0,0,0,-1,1588,1191,0,0
371,-167,0,0,0,0,0,0,0,0,0,-1,1595,1191,0,0
378,-167,0,0,0,0,0,0,0,0,0,-1,1602,1191,0,0
385,-167,0,0,0,0,0,0,0,0,0,-1,1609,1191,0,0
392,-167,0,0,0,0,0,0,0,0,0,-1,1616,1191,0,0
399,-167,0,0,0,0,0,0,0,0,0,-1,1623,1191,0,0
406,-167,0,0,0,0,0,0,0,0,0,-1,1630,1191,0,0
413,-167,0,0,0,0,0,0,0,0,0,-1,1637,1191,0,0
420,-167,0,0,0,0,0,0,0,0,0,-1,1644,1191,0,0
427,-167,0,0,0,0,0,0,0,0,0,-1,1651,1191,0,0
434,-167,0,0,0,0,0,0,0,0,0,-1,1658,1191,0,0
441,-167,0,0,0,0,0,0,0,0,0,-1,1665,1191,0,0
448,-167,0,0,0,0,0,0,0,0,0,-1,1672,1191,0,0
455,-167,0,0,0,0,0,0,0,0,0,-1,1679,1191,0,0
462,-167,0,0,0,0,0,0,0,0,0,-1,1686,1191,0,0
469,-167,0,0,0,0,0,0,0,0,0,-1,1693,1191,0,0
476,-167,0,0,0,0,0,0,0,0,0,-1,1700,1191,0,0
483,-167,0,0,0,0,0,0,0,0,0,-1,1707,1191,0,0
490,-167,0,0,0,0,0,0,0,0,0,-1,1714,1191,0,0
497,-167,0,0,0,0,0,0,0,0,0,-1,1721,1191,0,0
504,-167,0,0,0,0,0,0,0,0,0,-1,1728,1191,0,0
511,-167,0,0,0,0,0,0,0,0,0,-1,1735,1191,0,0
518,-167,0,0,0,0,0,0,0,0,0,-1,1742,1191,0,0
525,-167,0,0,0,0,0,0,0,0,0,-1,1749,1191,0,0
532,-167,0,0,0,0,0,0,0,0,0,-1,1756,1191,0,0
539,-167,0,0,0,0,0,0,0,0,0,-1,1763,1191,0,0
546,-167,0,0,0,0,0,0,0,0,0,-1,1770,1191,0,0
553,-167,0,0,0,0,0,0,0,0,0,-1,1777,1191,0,0
560,-167,0,0,0,0,0,0,0,0,0,-1,1784,1191,0,0
567,-167,0,0,0,0,0,0,0,0,0,-1,1791,1191,0,0
574,-167,0,0,0,0,0,0,0,0,0,-1,1798,1191,0,0
581,-167,0,0,0,0,0,0,0,0,0,-1,1805,1191,0,0
588,-167,0,0,0,0,0,0,0,0,0,-1,1812,1191,0,0
595,-167,0,0,0,0,0,0,0,0,0,-1,1819,1191,0,0
602,-167,0,0,0,0,0,0,0,0,0,-1,1826,1191,0,0
609,-167,0,0,0,0,0,0,0,0,0,-1,1833,1191,0,0
616,-167,0,0,0,0,0,0,0,0,0,-1,1840,1191,0,0
623,-167,0,0,0,0,0,0,0,0,0,-1,1847,1191,0,0
630,-167,0,0,0,0,0,0,0,0,0,-1,1854,1191,0,0
637,-167,19.2698,2.53186,-0.00196014,-0.000980932,0.000186274,-0.000946695,-0.00199438,1.38902,0.00115195,0.0410454,1861,1191,19.2698,-2.53182
644,-167,19.2363,2.41479,-0.000756136,8.4459e-06,6.4568e-05,1.38603e-05,-0.000761551,1.48714,0.000512383,0.0443661,1868,1191,19.2363,-2.41481
651,-167,19.1729,2.39221,5.54474e-05,0.00108947,-0.000301721,0.00117107,-2.6153e-05,-1.30666,0.000789575,0.0418621,1875,1191,19.1728,-2.39221
658,-167,19.0502,2.49719,0.000210732,0.00157918,-0.000237314,0.00161916,0.000170745,-1.40387,0.00102727,0.0394894,1882,1191,19.0502,-2.49717
665,-167,19.2753,2.45337,-0.000357018,0.00150087,0.000276174,0.00154105,-0.000397203,1.42631,0.00118222,0.033389,1889,1191,19.2753,-2.45342
672,-167,19.3582,2.49951,-0.00118049,0.00117341,0.000802026,0.0014207,-0.00142778,1.27171,0.00164457,0.0266312,1896,1191,19.3582,-2.49952
679,-167,19.3231,2.41699,-0.00209551,0.000736632,0.00135892,0.00128319,-0.00264207,1.18839,0.00231107,0.0218245,1903,1191,19.3231,-2.41695
686,-167,19.3094,2.30505,-0.00285349,0.000223307,0.00188758,0.00111999,-0.00375017,1.12731,0.0029453,0.0301547,1910,1191,19.3094,-2.30499
693,-167,19.3025,2.22021,0,0,0,0,0,0,0,-1,1917,1191,19.3024,-2.2202
700,-167,18.1746,3.6814,0,0,0,0,0,0,0,-1,1924,1191,18.1746,-3.68145
707,-167,17.7308,4.08545,-0.00442027,-0.000997823,0.00283759,0.000604593,-0.00602268,1.05673,0.00423107,0.03404,1931,1191,17.7308,-4.0855
714,-167,17.8687,4.08972,-0.00480775,-0.00127681,0.00294499,0.000391352,-0.00647591,1.05542,0.00445346,0.023385,1938,1191,17.8687,-4.08972
721,-167,17.8693,3.8584,-0.00487137,-0.00139115,0.00286177,0.000218021,-0.00648055,1.05856,0.00439484,0.0197126,1945,1191,17.8692,-3.85845
728,-167,17.7828,3.80127,-0.00426378,-0.00123337,0.00254342,0.000211972,-0.00570912,1.05404,0.00387867,0.0143202,1952,1191,17.7828,-3.80128
735,-167,17.7308,3.73645,-0.00309893,-0.000916357,0.00214159,0.000395958,-0.00441124,1.02103,0.00308131,0.0142706,1959,1191,17.7308,-3.7365
742,-167,17.7051,3.60876,-0.00136695,-0.000524764,0.00154933,0.000659675,-0.00255139,0.918088,0.00195821,0.0148987,1966,1191,17.7051,-3.60873
749,-167,17.6975,3.47424,0.00229122,0.000434814,0.00149168,0.00311991,-0.00039387,0.507086,0.00222289,0.0137528,1973,1191,17.6975,-3.4742
756,-167,17.7102,3.38647,0.00931391,0.00298643,0.00280564,0.0103787,0.0019216,0.36274,0.0063759,0.0103757,1980,1191,17.7102,-3.38653
763,-167,17.6959,3.27832,0.0163182,0.00508915,0.00420355,0.0177174,0.00368993,0.321331,0.010794,0.0113929,1987,1191,17.6959,-3.27831
770,-167,17.6803,3.17029,0.0258816,0.00771682,0.00712429,0.0283424,0.00525602,0.33258,0.0174094,0.0227141,1994,1191,17.6804,-3.17033
777,-167,17.6664,2.85229,0.0391309,0.0113832,0.0118667,0.0435136,0.00700048,0.35379,0.02698,0.0402916,2001,1191,17.6664,-2.85234
784,-167,17.6873,2.49377,0,0,0,0,0,0,0,-1,2008,1191,17.6872,-2.49381
791,-167,17.9884,2.10181,0.0818201,0.0238104,0.0291651,0.0939478,0.0116827,0.394077,0.0591236,0.0440416,2015,1191,17.9885,-2.10176
798,-167,18.1503,1.7959,0.114331,0.0338719,0.0432196,0.133146,0.015056,0.410608,0.0841955,0.0469691,2022,1191,18.1503,-1.7959
805,-167,18.2507,1.53442,0.156718,0.047737,0.0624693,0.185123,0.0193323,0.426755,0.117503,0.0496726,2029,1191,18.2508,-1.53438
812,-167,0,0,0,0,0,0,0,0,0,-1,2036,1191,0,0
-700,-174,0,0,0,0,0,0,0,0,0,-1,524,1198,0,0
-693,-174,0,0,0,0,0,0,0,0,0,-1,531,1198,0,0
-686,-174,-8.85492,1.93506,-0.0074034,0.0571058,-0.0815248,0.112525,-0.0628224,-0.97377,0.102583,0.0467873,538,1198,-8.85489,-1.93511
-679,-174,-8.98035,1.67566,-0.0088183,0.0461379,-0.0582055,0.0830254,-0.0457058,-1.00593,0.0753568,0.0440898,545,1198,-8.98032,-1.67563
-672,-174,-9.10791,1.31628,-0.00905234,0.0367194,-0.0408445,0.0606527,-0.0329857,-1.04076,0.0548431,0.0460662,552,1198,-9.10789,-1.31629
-665,-174,-10.8311,0.31604,-0.00858423,0.0287223,-0.0279218,0.0436484,-0.0235103,-1.07988,0.0393508,0.0492497,559,1198,-10.8311,-0.316039
-658,-174,-10.7567,0.42688,-0.00766152,0.0220259,-0.018439,0.0308536,-0.0164892,-1.12429,0.0277495,0.0469654,566,1198,-10.7567,-0.426925
-651,-174,-10.5425,0.48999,-0.00652689,0.0165222,-0.0116648,0.0213953,-0.0114,-1.17507,0.0192253,0.0439311,573,1198,-10.5425,-0.489986
-644,-174,-10.4248,0.590332,-0.00532239,0.0120908,-0.00700939,0.0145617,-0.00779328,-1.23189,0.0131024,0.0387176,580,1198,-10.4248,-0.590385
-637,-174,-10.4445,0.729248,-0.00417894,0.00860542,-0.00395871,0.00973197,-0.0053055,-1.29355,0.00880638,0.0208374,587,1198,-10.4445,-0.729293
-630,-174,-10.4682,0.864746,-0.00336348,0.0057687,-0.00127151,0.00594243,-0.00353721,-1.435,0.00553149,0.0119739,594,1198,-10.4682,-0.864747
-623,-174,-10.4618,1.00598,-0.00293799,0.0027685,0.000480097,0.00280861,-0.0029781,1.48745,0.00334143,0.0132256,601,1198,-10.4618,-1.00602
-616,-174,-10.4964,1.17041,-0.00287475,0.000537691,-0.000116559,0.000541668,-0.00287872,-1.53669,0.00212287,0.0189749,608,1198,-10.4964,-1.17047
-609,-174,-10.5131,1.32019,-0.00312815,-0.000312955,-0.00181902,0.000579482,-0.00402059,-1.11469,0.00289296,0.0206315,615,1198,-10.5131,-1.32017
-602,-174,-10.5279,1.43176,-0.00392605,-0.00135083,-0.00284484,0.00048423,-0.00576111,-0.99791,0.0040119,0.0143072,622,1198,-10.5279,-1.43172
-595,-174,-10.5159,1.56335,-0.00480626,-0.00233559,-0.00351836,0.000158011,-0.00729985,-0.95423,0.00492009,0.0131356,629,1198,-10.5159,-1.56341
-588,-174,-10.5529,1.7196,-0.0053276,-0.00300965,-0.00424733,0.000233994,-0.00857125,-0.918591,0.00579374,0.014118,636,1198,-10.5529,-1.71961
-581,-174,-10.5727,1.8562,-0.00533946,-0.00335381,-0.00477294,0.000528476,-0.00922174,-0.887942,0.00633134,0.0162689,643,1198,-10.5727,-1.85617
-574,-174,-10.6738,1.96448,0,0,0,0,0,0,0,-1,650,1198,-10.6738,-1.96451
-567,-174,-11.4831,1.29541,-0.00405877,-0.00385929,-0.00486713,0.000909119,-0.00882718,-0.795643,0.00621005,0.0455185,657,1198,-11.4831,-1.29538
-560,-174,-12.1599,0.297607,-0.00329352,-0.00410624,-0.00471349,0.0010311,-0.00843086,-0.742399,0.0059939,0.0451984,664,1198,-12.1598,-0.297572
-553,-174,-12.2663,0.397705,-0.00200964,-0.00406145,-0.00431487,0.00139961,-0.0074707,-0.668685,0.00550662,0.038907,671,1198,-12.2663,-0.397658
-546,-174,-12.3599,0.504517,-3.74744e-05,-0.00384629,-0.00351112,0.00205246,-0.00593622,-0.536906,0.00479051,0.0305724,678,1198,-12.3599,-0.504559
-539,-174,-12.2761,0.444458,0.00271843,-0.0033821,-0.00219689,0.00342721,-0.00409088,-0.312087,0.00434621,0.0336778,685,1198,-12.2761,-0.444411
-532,-174,-12.2229,0.360474,0.00661041,-0.00263753,-0.000164297,0.00661332,-0.00264045,-0.0177584,0.00550435,0.0437519,692,1198,-12.2229,-0.360511
-525,-174,-12.0404,0.550781,0.0116907,-0.00171234,0.00266194,0.0122,-0.00222167,0.189051,0.00896613,0.0480837,699,1198,-12.0404,-0.550837
-518,-174,-11.8151,0.811035,0.0166289,-0.00145493,0.00502102,0.0179295,-0.00275549,0.253453,0.0129694,0.0467229,706,1198,-11.8151,-0.811003
-511,-174,0,0,0,0,0,0,0,0,0,-1,713,1198,0,0
-504,-174,0,0,0,0,0,0,0,0,0,-1,720,1198,0,0
-497,-174,0,0,0,0,0,0,0,0,0,-1,727,1198,0,0
-490,-174,0,0,0,0,0,0,0,0,0,-1,734,1198,0,0
-483,-174,0,0,0,0,0,0,0,0,0,-1,741,1198,0,0
-476,-174,0,0,0,0,0,0,0,0,0,-1,748,1198,0,0
-469,-174,0,0,0,0,0,0,0,0,0,-1,755,1198,0,0
-462,-174,0,0,0,0,0,0,0,0,0,-1,762,1198,0,0
-455,-174,0,0,0,0,0,0,0,0,0,-1,769,1198,0,0
-448,-174,0,0,0,0,0,0,0,0,0,-1,776,1198,0,0
-441,-174,0,0,0,0,0,0,0,0,0,-1,783,1198,0,0
-434,-174,0,0,0,0,0,0,0,0,0,-1,790,1198,0,0
-427,-174,0,0,0,0,0,0,0,0,0,-1,797,1198,0,0
-420,-174,0,0,0,0,0,0,0,0,0,-1,804,1198,0,0
-413,-174,0,0,0,0,0,0,0,0,0,-1,811,1198,0,0
-406,-174,0,0,0,0,0,0,0,0,0,-1,818,1198,0,0
-399,-174,0,0,0,0,0,0,0,0,0,-1,825,1198,0,0
-392,-174,0,0,0,0,0,0,0,0,0,-1,832,1198,0,0
-385,-174,0,0,0,0,0,0,0,0,0,-1,839,1198,0,0
-378,-174,0,0,0,0,0,0,0,0,0,-1,846,1198,0,0
-371,-174,0,0,0,0,0,0,0,0,0,-1,853,1198,0,0
-364,-174,0,0,0,0,0,0,0,0,0,-1,860,1198,0,0
-357,-174,0,0,0,0,0,0,0,0,0,-1,867,1198,0,0
-350,-174,0,0,0,0,0,0,0,0,0,-1,874,1198,0,0
-343,-174,0,0,0,0,0,0,0,0,0,-1,881,1198,0,0
-336,-174,0,0,0,0,0,0,0,0,0,-1,888,1198,0,0
-329,-174,0,0,0,0,0,0,0,0,0,-1,895,1198,0,0
-322,-174,0,0,0,0,0,0,0,0,0,-1,902,1198,0,0
-315,-174,0,0,0,0,0,0,0,0,0,-1,909,1198,0,0
-308,-174,0,0,0,0,0,0,0,0,0,-1,916,1198,0,0
-301,-174,0,0,0,0,0,0,0,0,0,-1,923,1198,0,0
-294,-174,0,0,0,0,0,0,0,0,0,-1,930,1198,0,0
-287,-174,0,0,0,0,0,0,0,0,0,-1,937,1198,0,0
-280,-174,0,0,0,0,0,0,0,0,0,-1,944,1198,0,0
-273,-174,0,0,0,0,0,0,0,0,0,-1,951,1198,0,0
-266,-174,0,0,0,0,0,0,0,0,0,-1,958,1198,0,0
-259,-174,0,0,0,0,0,0,0,0,0,-1,965,1198,0,0
-252,-174,0,0,0,0,0,0,0,0,0,-1,972,1198,0,0
-245,-174,0,0,0,0,0,0,0,0,0,-1,979,1198,0,0
-238,-174,0,0,0,0,0,0,0,0,0,-1,986,1198,0,0
-231,-174,0,0,0,0,0,0,0,0,0,-1,993,1198,0,0
-224,-174,0,0,0,0,0,0,0,0,0,-1,1000,1198,0,0
-217,-174,0,0,0,0,0,0,0,0,0,-1,1007,1198,0,0
-210,-174,0,0,0,0,0,0,0,0,0,-1,1014,1198,0,0
-203,-174,0,0,0,0,0,0,0,0,0,-1,1021,1198,0,0
-196,-174,0,0,0,0,0,0,0,0,0,-1,1028,1198,0,0
-189,-174,0,0,0,0,0,0,0,0,0,-1,1035,1198,0,0
-182,-174,0,0,0,0,0,0,0,0,0,-1,1042,1198,0,0
-175,-174,0,0,0,0,0,0,0,0,0,-1,1049,1198,0,0
-168,-174,0,0,0,0,0,0,0,0,0,-1,1056,1198,0,0
-161,-174,0,0,0,0,0,0,0,0,0,-1,1063,1198,0,0
-154,-174,0,0,0,0,0,0,0,0,0,-1,1070,1198,0,0
-147,-174,0,0,0,0,0,0,0,0,0,-1,1077,1198,0,0
-140,-174,0,0,0,0,0,0,0,0,0,-1,1084,1198,0,0
-133,-174,0,0,0,0,0,0,0,0,0,-1,1091,1198,0,0
-126,-174,0,0,0,0,0,0,0,0,0,-1,1098,1198,0,0
-119,-174,0,0,0,0,0,0,0,0,0,-1,1105,1198,0,0
-112,-174,0,0,0,0,0,0,0,0,0,-1,1112,1198,0,0
-105,-174,0,0,0,0,0,0,0,0,0,-1,1119,1198,0,0
-98,-174,0,0,0,0,0,0,0,0,0,-1,1126,1198,0,0
-91,-174,0,0,0,0,0,0,0,0,0,-1,1133,1198,0,0
-84,-174,0,0,0,0,0,0,0,0,0,-1,1140,1198,0,0
-77,-174,0,0,0,0,0,0,0,0,0,-1,1147,1198,0,0
-70,-174,0,0,0,0,0,0,0,0,0,-1,1154,1198,0,0
-63,-174,0,0,0,0,0,0,0,0,0,-1,1161,1198,0,0
-56,-174,0,0,0,0,0,0,0,0,0,-1,1168,1198,0,0
-49,-174,0,0,0,0,0,0,0,0,0,-1,1175,1198,0,0
-42,-174,0,0,0,0,0,0,0,0,0,-1,1182,1198,0,0
-35,-174,0,0,0,0,0,0,0,0,0,-1,1189,1198,0,0
-28,-174,0,0,0,0,0,0,0,0,0,-1,1196,1198,0,0
-21,-174,0,0,0,0,0,0,0,0,0,-1,1203,1198,0,0
-14,-174,0,0,0,0,0,0,0,0,0,-1,1210,1198,0,0
-7,-174,0,0,0,0,0,0,0,0,0,-1,1217,1198,0,0
0,-174,0,0,0,0,0,0,0,0,0,-1,1224,1198,0,0
7,-174,0,0,0,0,0,0,0,0,0,-1,1231,1198,0,0
14,-174,0,0,0,0,0,0,0,0,0,-1,1238,1198,0,0
21,-174,0,0,0,0,0,0,0,0,0,-1,1245,1198,0,0
28,-174,0,0,0,0,0,0,0,0,0,-1,1252,1198,0,0
35,-174,0,0,0,0,0,0,0,0,0,-1,1259,1198,0,0
42,-174,0,0,0,0,0,0,0,0,0,-1,1266,1198,0,0
49,-174,0,0,0,0,0,0,0,0,0,-1,1273,1198,0,0
56,-174,0,0,0,0,0,0,0,0,0,-1,1280,1198,0,0
63,-174,0,0,0,0,0,0,0,0,0,-1,1287,1198,0,0
70,-174,0,0,0,0,0,0,0,0,0,-1,1294,1198,0,0
77,-174,0,0,0,0,0,0,0,0,0,-1,1301,1198,0,0
84,-174,0,0,0,0,0,0,0,0,0,-1,1308,1198,0,0
91,-174,0,0,0,0,0,0,0,0,0,-1,1315,1198,0,0
98,-174,0,0,0,0,0,0,0,0,0,-1,1322,1198,0,0
105,-174,0,0,0,0,0,0,0,0,0,-1,1329,1198,0,0
112,-174,0,0,0,0,0,0,0,0,0,-1,1336,1198,0,0
119,-174,0,0,0,0,0,0,0,0,0,-1,1343,1198,0,0
126,-174,0,0,0,0,0,0,0,0,0,-1,1350,1198,0,0
133,-174,0,0,0,0,0,0,0,0,0,-1,1357,1198,0,0
140,-174,0,0,0,0,0,0,0,0,0,-1,1364,1198,0,0
147,-174,0,0,0,0,0,0,0,0,0,-1,1371,1198,0,0
154,-174,0,0,0,0,0,0,0,0,0,-1,1378,1198,0,0
161,-174,0,0,0,0,0,0,0,0,0,-1,1385,1198,0,0
168,-174,0,0,0,0,0,0,0,0,0,-1,1392,1198,0,0
175,-174,0,0,0,0,0,0,0,0,0,-1,1399,1198,0,0
182,-174,0,0,0,0,0,0,0,0,0,-1,1406,1198,0,0
189,-174,0,0,0,0,0,0,0,0,0,-1,1413,1198,0,0
196,-174,0,0,0,0,0,0,0,0,0,-1,1420,1198,0,0
203,-174,0,0,0,0,0,0,0,0,0,-1,1427,1198,0,0
210,-174,0,0,0,0,0,0,0,0,0,-1,1434,1198,0,0
217,-174,0,0,0,0,0,0,0,0,0,-1,1441,1198,0,0
224,-174,0,0,0,0,0,0,0,0,0,-1,1448,1198,0,0
231,-174,0,0,0,0,0,0,0,0,0,-1,1455,1198,0,0
238,-174,0,0,0,0,0,0,0,0,0,-1,1462,1198,0,0
245,-174,0,0,0,0,0,0,0,0,0,-1,1469,1198,0,0
252,-174,0,0,0,0,0,0,0,0,0,-1,1476,1198,0,0
259,-174,0,0,0,0,0,0,0,0,0,-1,1483,1198,0,0
266,-174,0,0,0,0,0,0,0,0,0,-1,1490,1198,0,0
273,-174,0,0,0,0,0,0,0,0,0,-1,1497,1198,0,0
280,-174,0,0,0,0,0,0,0,0,0,-1,1504,1198,0,0
287,-174,0,0,0,0,0,0,0,0,0,-1,1511,1198,0,0
294,-174,0,0,0,0,0,0,0,0,0,-1,1518,1198,0,0
301,-174,0,0,0,0,0,0,0,0,0,-1,1525,1198,0,0
308,-174,0,0,0,0,0,0,0,0,0,-1,1532,1198,0,0
315,-174,0,0,0,0,0,0,0,0,0,-1,1539,1198,0,0
322,-174,0,0,0,0,0,0,0,0,0,-1,1546,1198,0,0
329,-174,0,0,0,0,0,0,0,0,0,-1,1553,1198,0,0
336,-174,0,0,0,0,0,0,0,0,0,-1,1560,1198,0,0
343,-174,0,0,0,0,0,0,0,0,0,-1,1567,1198,0,0
350,-174,0,0,0,0,0,0,0,0,0,-1,1574,1198,0,0
357,-174,0,0,0,0,0,0,0,0,0,-1,1581,1198,0,0
364,-174,0,0,0,0,0,0,0,0,0,-1,1588,1198,0,0
371,-174,0,0,0,0,0,0,0,0,0,-1,1595,1198,0,0
378,-174,0,0,0,0,0,0,0,0,0,-1,1602,1198,0,0
385,-174,0,0,0,0,0,0,0,0,0,-1,1609,1198,0,0
392,-174,0,0,0,0,0,0,0,0,0,-1,1616,1198,0,0
399,-174,0,0,0,0,0,0,0,0,0,-1,1623,1198,0,0
406,-174,0,0,0,0,0,0,0,0,0,-1,1630,1198,0,0
413,-174,0,0,0,0,0,0,0,0,0,-1,1637,1198,0,0
420,-174,0,0,0,0,0,0,0,0,0,-1,1644,1198,0,0
427,-174,0,0,0,0,0,0,0,0,0,-1,1651,1198,0,0
434,-174,0,0,0,0,0,0,0,0,0,-1,1658,1198,0,0
441,-174,0,0,0,0,0,0,0,0,0,-1,1665,1198,0,0
448,-174,0,0,0,0,0,0,0,0,0,-1,1672,1198,0,0
455,-174,0,0,0,0,0,0,0,0,0,-1,1679,1198,0,0
462,-174,0,0,0,0,0,0,0,0,0,-1,1686,1198,0,0
469,-174,0,0,0,0,0,0,0,0,0,-1,1693,1198,0,0
476,-174,0,0,0,0,0,0,0,0,0,-1,1700,1198,0,0
483,-174,0,0,0,0,0,0,0,0,0,-1,1707,1198,0,0
490,-174,0,0,0,0,0,0,0,0,0,-1,1714,1198,0,0
497,-174,0,0,0,0,0,0,0,0,0,-1,1721,1198,0,0
504,-174,0,0,0,0,0,0,0,0,0,-1,1728,1198,0,0
511,-174,0,0,0,0,0,0,0,0,0,-1,1735,1198,0,0
518,-174,0,0,0,0,0,0,0,0,0,-1,1742,1198,0,0
525,-174,0,0,0,0,0,0,0,0,0,-1,1749,1198,0,0
532,-174,0,0,0,0,0,0,0,0,0,-1,1756,1198,0,0
539,-174,0,0,0,0,0,0,0,0,0,-1,1763,1198,0,0
546,-174,0,0,0,0,0,0,0,0,0,-1,1770,1198,0,0
553,-174,0,0,0,0,0,0,0,0,0,-1,1777,1198,0,0
560,-174,0,0,0,0,0,0,0,0,0,-1,1784,1198,0,0
567,-174,0,0,0,0,0,0,0,0,0,-1,1791,1198,0,0
574,-174,0,0,0,0,0,0,0,0,0,-1,1798,1198,0,0
581,-174,0,0,0,0,0,0,0,0,0,-1,1805,1198,0,0
588,-174,0,0,0,0,0,0,0,0,0,-1,1812,1198,0,0
595,-174,0,0,0,0,0,0,0,0,0,-1,1819,1198,0,0
602,-174,0,0,0,0,0,0,0,0,0,-1,1826,1198,0,0
609,-174,0,0,0,0,0,0,0,0,0,-1,1833,1198,0,0
616,-174,0,0,0,0,0,0,0,0,0,-1,1840,1198,0,0
623,-174,0,0,0,0,0,0,0,0,0,-1,1847,1198,0,0
630,-174,0,0,0,0,0,0,0,0,0,-1,1854,1198,0,0
637,-174,19.1769,2.41846,-0.00227772,-0.00117497,-0.000435557,-0.00102369,-0.002429,-1.23651,0.00140814,0.0387065,1861,1198,19.1769,-2.41849
644,-174,19.1377,2.39136,-0.00101383,-4.36811e-05,-0.000521305,0.000183323,-0.00124084,-1.16011,0.000894614,0.0428283,1868,1198,19.1377,-2.39135
651,-174,19.1432,2.38513,-0.000190271,0.00109265,-0.00069853,0.00139956,-0.000497186,-1.15681,0.00113565,0.0432348,1875,1198,19.1432,-2.38512
658,-174,19.0502,2.51331,-6.18514e-05,0.00154338,-0.000425001,0.00164896,-0.00016743,-1.3273,0.00115915,0.0379918,1882,1198,19.0502,-2.51334
665,-174,19.2185,2.52075,-0.000500229,0.00150657,0.000141417,0.00151649,-0.000510146,1.50079,0.00121721,0.0312588,1889,1198,19.2185,-2.52076
672,-174,19.3314,2.45715,-0.00116596,0.00121407,0.000675424,0.00139239,-0.00134427,1.31268,0.00158009,0.0254005,1896,1198,19.3314,-2.45718
679,-174,19.3391,2.38477,-0.00193723,0.000830699,0.00121484,0.00128826,-0.00239479,1.21059,0.00215816,0.0230767,1903,1198,19.3391,-2.38471
686,-174,19.2896,2.21851,-0.00255602,0.000363359,0.00172269,0.00116162,-0.00335428,1.13687,0.00270776,0.0489434,1910,1198,19.2896,-2.21855
693,-174,19.3187,3.14685,0,0,0,0,0,0,0,-1,1917,1198,19.3187,-3.14686
700,-174,18.5273,3.57166,0,0,0,0,0,0,0,-1,1924,1198,18.5273,-3.57161
707,-174,17.7551,4.17761,-0.00383932,-0.000805285,0.00260976,0.00069634,-0.00534095,1.04867,0.00381399,0.0356071,1931,1198,17.7551,-4.17762
714,-174,17.7866,4.1084,-0.00416822,-0.00106648,0.00269087,0.000488448,-0.00572315,1.04682,0.00398823,0.0232863,1938,1198,17.7866,-4.10835
721,-174,17.7343,3.95129,-0.00414251,-0.00116996,0.00258029,0.000321504,-0.00563397,1.0467,0.00386761,0.0177337,1945,1198,17.7343,-3.95126
728,-174,17.6277,3.83301,-0.00337486,-0.000996762,0.00224686,0.000356279,-0.0047279,1.02877,0.00327715,0.0125301,1952,1198,17.6277,-3.83305
735,-174,17.61,3.73083,-0.00204555,-0.0006793,0.00187414,0.00063233,-0.00335718,0.960165,0.00247596,0.0112203,1959,1198,17.6099,-3.73085
742,-174,17.5854,3.60669,-0.000122258,-0.000268984,0.00137087,0.00117721,-0.00156846,0.758666,0.00159057,0.0183152,1966,1198,17.5855,-3.60668
749,-174,17.5851,3.49207,0.00367844,0.000658483,0.00139612,0.00422496,0.000111962,0.37312,0.00278007,0.0165028,1973,1198,17.5851,-3.49212
756,-174,17.5897,3.37134,0.0106724,0.00311788,0.00292466,0.0116723,0.00211797,0.329431,0.00718044,0.00984115,1980,1198,17.5897,-3.37135
763,-174,17.5676,3.25183,0.0177195,0.00511742,0.00460489,0.0192228,0.0036141,0.315554,0.0117965,0.0122224,1987,1198,17.5676,-3.25189
770,-174,17.5895,3.1731,0.027351,0.00765576,0.00787103,0.03011,0.00489669,0.337152,0.0186566,0.0245852,1994,1198,17.5895,-3.17309
777,-174,17.5431,2.94226,0.0405956,0.0112076,0.013077,0.0455719,0.00623132,0.363619,0.0285319,0.04609,2001,1198,17.543,-2.94232
784,-174,17.4775,2.7522,0,0,0,0,0,0,0,-1,2008,1198,17.4776,-2.75214
791,-174,17.6764,2.4281,0,0,0,0,0,0,0,-1,2015,1198,17.6764,-2.42816
798,-174,17.9355,2.06897,0,0,0,0,0,0,0,-1,2022,1198,17.9356,-2.06892
805,-174,18.0649,1.78821,0,0,0,0,0,0,0,-1,2029,1198,18.0649,-1.78823
812,-174,0,0,0,0,0,0,0,0,0,-1,2036,1198,0,0
-700,-181,0,0,0,0,0,0,0,0,0,-1,524,1205,0,0
-693,-181,0,0,0,0,0,0,0,0,0,-1,531,1205,0,0
-686,-181,-8.05188,1.95276,0,0,0,0,0,0,0,-1,538,1205,-8.0519,-1.95279
-679,-181,-8.10504,1.74683,-0.0193158,0.046139,-0.0499077,0.073093,-0.0462697,-1.0756,0.0694917,0.047451,545,1205,-8.10506,-1.74681
-672,-181,-8.11993,1.78125,-0.017547,0.0362375,-0.0338962,0.0526135,-0.0339231,-1.12074,0.0503489,0.0458726,552,1205,-8.11995,-1.78127
-665,-181,-10.8646,0.0737305,0,0,0,0,0,0,0,-1,559,1205,-10.8646,-0.073791
-658,-181,-10.8275,0.209595,-0.0127817,0.0213237,-0.0141297,0.026417,-0.0178749,-1.22483,0.02573,0.0460519,566,1205,-10.8275,-0.20956
-651,-181,-10.5246,0.456787,-0.0103177,0.0159049,-0.00845257,0.0183933,-0.0128061,-1.28448,0.018109,0.0455085,573,1205,-10.5246,-0.456733
-644,-181,-10.313,0.541382,-0.0080306,0.0116024,-0.0046976,0.0126685,-0.0090967,-1.34763,0.0126224,0.0399899,580,1205,-10.313,-0.541436
-637,-181,-10.3008,0.707031,-0.00603634,0.00825522,-0.00235338,0.00863278,-0.00641389,-1.41172,0.00871863,0.022379,587,1205,-10.3008,-0.707038
-630,-181,-10.3102,0.869751,-0.00455847,0.00557749,-0.00029765,0.00558622,-0.0045672,-1.54146,0.00587191,0.0119017,594,1205,-10.3102,-0.869709
-623,-181,-10.3303,1.01233,-0.00352945,0.00262767,0.00114149,0.00283248,-0.00373427,1.39326,0.00380321,0.0138785,601,1205,-10.3303,-1.01237
-616,-181,-10.3356,1.16125,-0.0028802,0.000567402,0.000303216,0.000593867,-0.00290666,1.48374,0.00216308,0.0145631,608,1205,-10.3356,-1.16125
-609,-181,-10.3395,1.31201,-0.00270241,-9.63929e-05,-0.0015527,0.00062759,-0.00342639,-1.13449,0.00251965,0.0144492,615,1205,-10.3395,-1.31205
-602,-181,-10.3391,1.46106,-0.00325465,-0.00107695,-0.00262475,0.00067584,-0.00500744,-0.982015,0.00358487,0.0128433,622,1205,-10.3391,-1.46111
-595,-181,-10.3538,1.59546,-0.00396949,-0.00207956,-0.00334075,0.000447296,-0.00649635,-0.923227,0.00448743,0.0117787,629,1205,-10.3538,-1.59548
-588,-181,-10.3754,1.75305,-0.00437681,-0.00277353,-0.00412193,0.00062399,-0.00777433,-0.881441,0.00540291,0.0111761,636,1205,-10.3754,-1.7531
-581,-181,-10.3763,1.94165,-0.00434283,-0.00310255,-0.00467759,0.000995831,-0.00844121,-0.851303,0.00598709,0.0136083,643,1205,-10.3764,-1.94167
-574,-181,-10.3999,2.10706,0,0,0,0,0,0,0,-1,650,1205,-10.3999,-2.10702
-567,-181,-11.0028,1.2937,0,0,0,0,0,0,0,-1,657,1205,-11.0028,-1.29368
-560,-181,-12.1486,0.484985,0,0,0,0,0,0,0,-1,664,1205,-12.1486,-0.484986
-553,-181,-12.2914,0.493896,-0.0013863,-0.00377055,-0.00424283,0.0018287,-0.00698555,-0.648443,0.00537139,0.0414316,671,1205,-12.2914,-0.493918
-546,-181,-12.3601,0.596191,0.000148187,-0.0036035,-0.0035559,0.0022927,-0.00574801,-0.542684,0.00478305,0.0340447,678,1205,-12.3601,-0.596135
-539,-181,-12.3017,0.550171,0.00219721,-0.00323224,-0.00243498,0.00312924,-0.00416427,-0.365564,0.00422502,0.0357226,685,1205,-12.3017,-0.55022
-532,-181,-12.2404,0.525513,0.00501382,-0.00264654,-0.000691597,0.00507575,-0.00270848,-0.0893202,0.00456298,0.0425435,692,1205,-12.2404,-0.525522
-525,-181,-12.0725,0.546387,0.00878112,-0.0019097,0.0018771,0.00910112,-0.0022297,0.168854,0.00693124,0.0442823,699,1205,-12.0725,-0.546416
-518,-181,-11.9201,0.629517,0.0128936,-0.00166407,0.0044673,0.0141552,-0.00292562,0.27523,0.0105481,0.0420161,706,1205,-11.9201,-0.629488
-511,-181,0,0,0,0,0,0,0,0,0,-1,713,1205,0,0
-504,-181,0,0,0,0,0,0,0,0,0,-1,720,1205,0,0
-497,-181,0,0,0,0,0,0,0,0,0,-1,727,1205,0,0
-490,-181,0,0,0,0,0,0,0,0,0,-1,734,1205,0,0
-483,-181,0,0,0,0,0,0,0,0,0,-1,741,1205,0,0
-476,-181,0,0,0,0,0,0,0,0,0,-1,748,1205,0,0
-469,-181,0,0,0,0,0,0,0,0,0,-1,755,1205,0,0
-462,-181,0,0,0,0,0,0,0,0,0,-1,762,1205,0,0
-455,-181,0,0,0,0,0,0,0,0,0,-1,769,1205,0,0
-448,-181,0,0,0,0,0,0,0,0,0,-1,776,1205,0,0
-441,-181,0,0,0,0,0,0,0,0,0,-1,783,1205,0,0
-434,-181,0,0,0,0,0,0,0,0,0,-1,790,1205,0,0
-427,-181,0,0,0,0,0,0,0,0,0,-1,797,1205,0,0
-420,-181,0,0,0,0,0,0,0,0,0,-1,804,1205,0,0
-413,-181,0,0,0,0,0,0,0,0,0,-1,811,1205,0,0
-406,-181,0,0,0,0,0,0,0,0,0,-1,818,1205,0,0
-399,-181,0,0,0,0,0,0,0,0,0,-1,825,1205,0,0
-392,-181,0,0,0,0,0,0,0,0,0,-1,832,1205,0,0
-385,-181,0,0,0,0,0,0,0,0,0,-1,839,1205,0,0
-378,-181,0,0,0,0,0,0,0,0,0,-1,846,1205,0,0
-371,-181,0,0,0,0,0,0,0,0,0,-1,853,1205,0,0
-364,-181,0,0,0,0,0,0,0,0,0,-1,860,1205,0,0
-357,-181,0,0,0,0,0,0,0,0,0,-1,867,1205,0,0
-350,-181,0,0,0,0,0,0,0,0,0,-1,874,1205,0,0
-343,-181,0,0,0,0,0,0,0,0,0,-1,881,1205,0,0
-336,-181,0,0,0,0,0,0,0,0,0,-1,888,1205,0,0
-329,-181,0,0,0,0,0,0,0,0,0,-1,895,1205,0,0
-322,-181,0,0,0,0,0,0,0,0,0,-1,902,1205,0,0
-315,-181,0,0,0,0,0,0,0,0,0,-1,909,1205,0,0
-308,-181,0,0,0,0,0,0,0,0,0,-1,916,1205,0,0
-301,-181,0,0,0,0,0,0,0,0,0,-1,923,1205,0,0
-294,-181,0,0,0,0,0,0,0,0,0,-1,930,1205,0,0
-287,-181,0,0,0,0,0,0,0,0,0,-1,937,1205,0,0
-280,-181,0,0,0,0,0,0,0,0,0,-1,944,1205,0,0
-273,-181,0,0,0,0,0,0,0,0,0,-1,951,1205,0,0
-266,-181,0,0,0,0,0,0,0,0,0,-1,958,1205,0,0
-259,-181,0,0,0,0,0,0,0,0,0,-1,965,1205,0,0
-252,-181,0,0,0,0,0,0,0,0,0,-1,972,1205,0,0
-245,-181,0,0,0,0,0,0,0,0,0,-1,979,1205,0,0
-238,-181,0,0,0,0,0,0,0,0,0,-1,986,1205,0,0
-231,-181,0,0,0,0,0,0,0,0,0,-1,993,1205,0,0
-224,-181,0,0,0,0,0,0,0,0,0,-1,1000,1205,0,0
-217,-181,0,0,0,0,0,0,0,0,0,-1,1007,1205,0,0
-210,-181,0,0,0,0,0,0,0,0,0,-1,1014,1205,0,0
-203,-181,0,0,0,0,0,0,0,0,0,-1,1021,1205,0,0
-196,-181,0,0,0,0,0,0,0,0,0,-1,1028,1205,0,0
-189,-181,0,0,0,0,0,0,0,0,0,-1,1035,1205,0,0
-182,-181,0,0,0,0,0,0,0,0,0,-1,1042,1205,0,0
-175,-181,0,0,0,0,0,0,0,0,0,-1,1049,1205,0,0
-168,-181,0,0,0,0,0,0,0,0,0,-1,1056,1205,0,0
-161,-181,0,0,0,0,0,0,0,0,0,-1,1063,1205,0,0
-154,-181,0,0,0,0,0,0,0,0,0,-1,1070,1205,0,0
-147,-181,0,0,0,0,0,0,0,0,0,-1,1077,1205,0,0
-140,-181,0,0,0,0,0,0,0,0,0,-1,1084,1205,0,0
-133,-181,0,0,0,0,0,0,0,0,0,-1,1091,1205,0,0
-126,-181,0,0,0,0,0,0,0,0,0,-1,1098,1205,0,0
-119,-181,0,0,0,0,0,0,0,0,0,-1,1105,1205,0,0
-112,-181,0,0,0,0,0,0,0,0,0,-1,1112,1205,0,0
-105,-181,0,0,0,0,0,0,0,0,0,-1,1119,1205,0,0
-98,-181,0,0,0,0,0,0,0,0,0,-1,1126,1205,0,0
-91,-181,0,0,0,0,0,0,0,0,0,-1,1133,1205,0,0
-84,-181,0,0,0,0,0,0,0,0,0,-1,1140,1205,0,0
-77,-181,0,0,0,0,0,0,0,0,0,-1,1147,1205,0,0
-70,-181,0,0,0,0,0,0,0,0,0,-1,1154,1205,0,0
-63,-181,0,0,0,0,0,0,0,0,0,-1,1161,1205,0,0
-56,-181,0,0,0,0,0,0,0,0,0,-1,1168,1205,0,0
-49,-181,0,0,0,0,0,0,0,0,0,-1,1175,1205,0,0
-42,-181,0,0,0,0,0,0,0,0,0,-1,1182,1205,0,0
-35,-181,0,0,0,0,0,0,0,0,0,-1,1189,1205,0,0
-28,-181,0,0,0,0,0,0,0,0,0,-1,1196,1205,0,0
-21,-181,0,0,0,0,0,0,0,0,0,-1,1203,1205,0,0
-14,-181,0,0,0,0,0,0,0,0,0,-1,1210,1205,0,0
-7,-181,0,0,0,0,0,0,0,0,0,-1,1217,1205,0,0
0,-181,0,0,0,0,0,0,0,0,0,-1,1224,1205,0,0
7,-181,0,0,0,0,0,0,0,0,0,-1,1231,1205,0,0
14,-181,0,0,0,0,0,0,0,0,0,-1,1238,1205,0,0
21,-181,0,0,0,0,0,0,0,0,0,-1,1245,1205,0,0
28,-181,0,0,0,0,0,0,0,0,0,-1,1252,1205,0,0
35,-181,0,0,0,0,0,0,0,0,0,-1,1259,1205,0,0
42,-181,0,0,0,0,0,0,0,0,0,-1,1266,1205,0,0
49,-181,0,0,0,0,0,0,0,0,0,-1,1273,1205,0,0
56,-181,0,0,0,0,0,0,0,0,0,-1,1280,1205,0,0
63,-181,0,0,0,0,0,0,0,0,0,-1,1287,1205,0,0
70,-181,0,0,0,0,0,0,0,0,0,-1,1294,1205,0,0
77,-181,0,0,0,0,0,0,0,0,0,-1,1301,1205,0,0
84,-181,0,0,0,0,0,0,0,0,0,-1,1308,1205,0,0
91,-181,0,0,0,0,0,0,0,0,0,-1,1315,1205,0,0
98,-181,0,0,0,0,0,0,0,0,0,-1,1322,1205,0,0
105,-181,0,0,0,0,0,0,0,0,0,-1,1329,1205,0,0
112,-181,0,0,0,0,0,0,0,0,0,-1,1336,1205,0,0
119,-181,0,0,0,0,0,0,0,0,0,-1,1343,1205,0,0
126,-181,0,0,0,0,0,0,0,0,0,-1,1350,1205,0,0
133,-181,0,0,0,0,0,0,0,0,0,-1,1357,1205,0,0
140,-181,0,0,0,0,0,0,0,0,0,-1,1364,1205,0,0
147,-181,0,0,0,0,0,0,0,0,0,-1,1371,1205,0,0
154,-181,0,0,0,0,0,0,0,0,0,-1,1378,1205,0,0
161,-181,0,0,0,0,0,0,0,0,0,-1,1385,1205,0,0
168,-181,0,0,0,0,0,0,0,0,0,-1,1392,1205,0,0
175,-181,0,0,0,0,0,0,0,0,0,-1,1399,1205,0,0
182,-181,0,0,0,0,0,0,0,0,0,-1,1406,1205,0,0
189,-181,0,0,0,0,0,0,0,0,0,-1,1413,1205,0,0
196,-181,0,0,0,0,0,0,0,0,0,-1,1420,1205,0,0
203,-181,0,0,0,0,0,0,0,0,0,-1,1427,1205,0,0
210,-181,0,0,0,0,0,0,0,0,0,-1,1434,1205,0,0
217,-181,0,0,0,0,0,0,0,0,0,-1,1441,1205,0,0
224,-181,0,0,0,0,0,0,0,0,0,-1,1448,1205,0,0
231,-181,0,0,0,0,0,0,0,0,0,-1,1455,1205,0,0
238,-181,0,0,0,0,0,0,0,0,0,-1,1462,1205,0,0
245,-181,0,0,0,0,0,0,0,0,0,-1,1469,1205,0,0
252,-181,0,0,0,0,0,0,0,0,0,-1,1476,1205,0,0
259,-181,0,0,0,0,0,0,0,0,0,-1,1483,1205,0,0
266,-181,0,0,0,0,0,0,0,0,0,-1,1490,1205,0,0
273,-181,0,0,0,0,0,0,0,0,0,-1,1497,1205,0,0
280,-181,0,0,0,0,0,0,0,0,0,-1,1504,1205,0,0
287,-181,0,0,0,0,0,0,0,0,0,-1,1511,1205,0,0
294,-181,0,0,0,0,0,0,0,0,0,-1,1518,1205,0,0
301,-181,0,0,0,0,0,0,0,0,0,-1,1525,1205,0,0
308,-181,0,0,0,0,0,0,0,0,0,-1,1532,1205,0,0
315,-181,0,0,0,0,0,0,0,0,0,-1,1539,1205,0,0
322,-181,0,0,0,0,0,0,0,0,0,-1,1546,1205,0,0
329,-181,0,0,0,0,0,0,0,0,0,-1,1553,1205,0,0
336,-181,0,0,0,0,0,0,0,0,0,-1,1560,1205,0,0
343,-181,0,0,0,0,0,0,0,0,0,-1,1567,1205,0,0
350,-181,0,0,0,0,0,0,0,0,0,-1,1574,1205,0,0
357,-181,0,0,0,0,0,0,0,0,0,-1,1581,1205,0,0
364,-181,0,0,0,0,0,0,0,0,0,-1,1588,1205,0,0
371,-181,0,0,0,0,0,0,0,0,0,-1,1595,1205,0,0
378,-181,0,0,0,0,0,0,0,0,0,-1,1602,1205,0,0
385,-181,0,0,0,0,0,0,0,0,0,-1,1609,1205,0,0
392,-181,0,0,0,0,0,0,0,0,0,-1,1616,1205,0,0
399,-181,0,0,0,0,0,0,0,0,0,-1,1623,1205,0,0
406,-181,0,0,0,0,0,0,0,0,0,-1,1630,1205,0,0
413,-181,0,0,0,0,0,0,0,0,0,-1,1637,1205,0,0
420,-181,0,0,0,0,0,0,0,0,0,-1,1644,1205,0,0
427,-181,0,0,0,0,0,0,0,0,0,-1,1651,1205,0,0
434,-181,0,0,0,0,0,0,0,0,0,-1,1658,1205,0,0
441,-181,0,0,0,0,0,0,0,0,0,-1,1665,1205,0,0
448,-181,0,0,0,0,0,0,0,0,0,-1,1672,1205,0,0
455,-181,0,0,0,0,0,0,0,0,0,-1,1679,1205,0,0
462,-181,0,0,0,0,0,0,0,0,0,-1,1686,1205,0,0
469,-181,0,0,0,0,0,0,0,0,0,-1,1693,1205,0,0
476,-181,0,0,0,0,0,0,0,0,0,-1,1700,1205,0,0
483,-181,0,0,0,0,0,0,0,0,0,-1,1707,1205,0,0
490,-181,0,0,0,0,0,0,0,0,0,-1,1714,1205,0,0
497,-181,0,0,0,0,0,0,0,0,0,-1,1721,1205,0,0
504,-181,0,0,0,0,0,0,0,0,0,-1,1728,1205,0,0
511,-181,0,0,0,0,0,0,0,0,0,-1,1735,1205,0,0
518,-181,0,0,0,0,0,0,0,0,0,-1,1742,1205,0,0
525,-181,0,0,0,0,0,0,0,0,0,-1,1749,1205,0,0
532,-181,0,0,0,0,0,0,0,0,0,-1,1756,1205,0,0
539,-181,0,0,0,0,0,0,0,0,0,-1,1763,1205,0,0
546,-181,0,0,0,0,0,0,0,0,0,-1,1770,1205,0,0
553,-181,0,0,0,0,0,0,0,0,0,-1,1777,1205,0,0
560,-181,0,0,0,0,0,0,0,0,0,-1,1784,1205,0,0
567,-181,0,0,0,0,0,0,0,0,0,-1,1791,1205,0,0
574,-181,0,0,0,0,0,0,0,0,0,-1,1798,1205,0,0
581,-181,0,0,0,0,0,0,0,0,0,-1,1805,1205,0,0
588,-181,0,0,0,0,0,0,0,0,0,-1,1812,1205,0,0
595,-181,0,0,0,0,0,0,0,0,0,-1,1819,1205,0,0
602,-181,0,0,0,0,0,0,0,0,0,-1,1826,1205,0,0
609,-181,0,0,0,0,0,0,0,0,0,-1,1833,1205,0,0
616,-181,0,0,0,0,0,0,0,0,0,-1,1840,1205,0,0
623,-181,0,0,0,0,0,0,0,0,0,-1,1847,1205,0,0
630,-181,19.2329,2.51428,-0.00440369,-0.00262959,-0.000971974,-0.00220074,-0.00483254,-1.15527,0.00279376,0.0378256,1854,1205,19.2329,-2.51427
637,-181,19.1814,2.44336,-0.0024019,-0.0011251,-0.000970353,-0.000601979,-0.00292503,-1.07635,0.00178355,0.0376696,1861,1205,19.1814,-2.44337
644,-181,19.223,2.52148,-0.00109346,0.000334395,-0.000924085,0.000788211,-0.00154728,-1.1143,0.00137193,0.0412187,1868,1205,19.2231,-2.52154
651,-181,19.29,2.47888,-0.000286489,0.00161128,-0.000838916,0.00192895,-0.00060416,-1.20881,0.00152771,0.0426,1875,1205,19.2901,-2.47889
658,-181,19.2284,2.43408,-0.000165879,0.00206063,-0.000360971,0.00211769,-0.000222939,-1.41402,0.00149167,0.0357827,1882,1205,19.2284,-2.43403
665,-181,19.2615,2.48438,-0.000478828,0.00203585,0.000250648,0.00206059,-0.000503568,1.47241,0.00156876,0.0318709,1889,1205,19.2614,-2.48441
672,-181,19.3151,2.43274,-0.00100445,0.00171374,0.000781428,0.00192237,-0.00121308,1.30989,0.00182563,0.0247421,1896,1205,19.315,-2.4327
679,-181,19.355,2.36572,-0.00165464,0.00130723,0.00128537,0.00178725,-0.00213466,1.21339,0.00226728,0.0308484,1903,1205,19.355,-2.36573
686,-181,19.2858,2.13696,0,0,0,0,0,0,0,-1,1910,1205,19.2858,-2.13699
693,-181,18.11,2.18823,0,0,0,0,0,0,0,-1,1917,1205,18.11,-2.18818
700,-181,17.902,3.89563,0,0,0,0,0,0,0,-1,1924,1205,17.9019,-3.8956
707,-181,17.7003,4.17285,-0.00323706,-0.000507705,0.00250286,0.000978346,-0.00472311,1.03499,0.00352047,0.0263925,1931,1205,17.7003,-4.17282
714,-181,17.6644,4.0835,-0.00353103,-0.000823604,0.00253625,0.000697588,-0.00505223,1.03054,0.00362313,0.0205687,1938,1205,17.6645,-4.08351
721,-181,17.575,3.98218,-0.00342232,-0.000975493,0.00237044,0.000468629,-0.00486644,1.02362,0.00341125,0.0142666,1945,1205,17.5749,-3.98214
728,-181,17.4907,3.85876,-0.00252976,-0.00082569,0.00195259,0.000452667,-0.00380812,0.991125,0.0027023,0.0106087,1952,1205,17.4907,-3.85874
735,-181,17.4894,3.72632,-0.00108093,-0.000462084,0.00158874,0.000847081,-0.0023901,0.881575,0.00193847,0.0101746,1959,1205,17.4894,-3.72635
742,-181,17.4666,3.61279,0.000989639,5.09884e-06,0.00115891,0.0017565,-0.000761759,0.58456,0.00149125,0.0155598,1966,1205,17.4665,-3.61278
749,-181,17.4674,3.48181,0.00478972,0.000910339,0.00121965,0.0051413,0.000558754,0.280658,0.0032573,0.0149593,1973,1205,17.4674,-3.48177
756,-181,17.4746,3.35925,0.0114816,0.00322974,0.0028279,0.0123577,0.00235363,0.30043,0.00757676,0.0107609,1980,1205,17.4746,-3.35922
763,-181,17.4641,3.24255,0.0183255,0.00511377,0.00466422,0.0198062,0.00363308,0.307394,0.0121752,0.0109665,1987,1205,17.4641,-3.24253
770,-181,17.4584,3.1156,0.0276725,0.00753193,0.00810142,0.0305268,0.00467768,0.338736,0.018985,0.024224,1994,1205,17.4584,-3.11562
777,-181,17.3589,2.9491,0.040436,0.0109021,0.0135476,0.045709,0.00562908,0.371181,0.0287804,0.04532,2001,1205,17.3589,-2.94913
784,-181,17.2523,2.80359,0,0,0,0,0,0,0,-1,2008,1205,17.2523,-2.80357
791,-181,17.2302,2.86121,0,0,0,0,0,0,0,-1,2015,1205,17.2302,-2.86116
798,-181,17.9491,3.0957,0,0,0,0,0,0,0,-1,2022,1205,17.949,-3.09573
805,-181,0,0,0,0,0,0,0,0,0,-1,2029,1205,0,0
812,-181,0,0,0,0,0,0,0,0,0,-1,2036,1205,0,0
-700,-188,0,0,0,0,0,0,0,0,0,-1,524,1212,0,0
-693,-188,0,0,0,0,0,0,0,0,0,-1,531,1212,0,0
-686,-188,0,0,0,0,0,0,0,0,0,-1,538,1212,0,0
-679,-188,-7.49542,1.521,-0.0294927,0.0471127,-0.0407272,0.0647189,-0.0470988,-1.16276,0.0648246,0.0496593,545,1212,-7.49541,-1.52105
-672,-188,-7.70447,-2.61267,-0.0259596,0.0367909,-0.0264793,0.0464712,-0.0356399,-1.22031,0.0475442,0.0458489,552,1212,-7.70444,2.61267
-665,-188,-8.22174,-1.26294,-0.0220701,0.0283529,-0.0165546,0.0333023,-0.0270195,-1.28029,0.0348897,0.0409454,559,1212,-8.22172,1.26289
-658,-188,-10.7454,0.351685,0,0,0,0,0,0,0,-1,566,1212,-10.7454,-0.351714
-651,-188,-10.478,0.441528,-0.0144322,0.0160361,-0.00525881,0.0169182,-0.0153144,-1.4046,0.0186172,0.0469933,573,1212,-10.478,-0.441479
-644,-188,-10.1726,0.611572,-0.0110915,0.0117111,-0.00244592,0.0119705,-0.011351,-1.46513,0.0134663,0.0420921,580,1212,-10.1726,-0.611513
-637,-188,-10.1758,0.738159,-0.00822112,0.00835424,-0.000823467,0.00839505,-0.00826193,-1.52128,0.00961701,0.0204451,587,1212,-10.1758,-0.738108
-630,-188,-10.1729,0.879395,-0.00604149,0.00569769,0.000596399,0.00572791,-0.00607171,1.52017,0.00681348,0.00955823,594,1212,-10.1729,-0.879439
-623,-188,-10.1823,1.01794,-0.00435214,0.00273586,0.00169282,0.0031194,-0.00473568,1.34799,0.00456702,0.0101938,601,1212,-10.1823,-1.01793
-616,-188,-10.1822,1.16162,-0.00301368,0.000693311,0.000658965,0.000806967,-0.00312733,1.4,0.00239954,0.0106716,608,1212,-10.1822,-1.16161
-609,-188,-10.1578,1.31982,-0.00226876,0.000127986,-0.00126753,0.000673958,-0.00281474,-1.16408,0.00213687,0.0136555,615,1212,-10.1578,-1.31983
-602,-188,-10.153,1.48975,-0.00244085,-0.000815185,-0.00234149,0.000850542,-0.00410658,-0.952462,0.00306088,0.0161121,622,1212,-10.153,-1.48977
-595,-188,-10.1812,1.63318,-0.00293231,-0.00183736,-0.00303246,0.000696649,-0.00546632,-0.874705,0.00389724,0.0110501,629,1212,-10.1812,-1.63315
-588,-188,-10.1985,1.78101,-0.00321056,-0.00256208,-0.00380828,0.000935745,-0.00670838,-0.827866,0.00481458,0.00871645,636,1212,-10.1985,-1.78095
-581,-188,-10.2204,1.94421,-0.0031951,-0.00283442,-0.00436216,0.00135112,-0.00738065,-0.806057,0.00542716,0.01092,643,1212,-10.2204,-1.94422
-574,-188,-10.2269,2.03113,-0.00275543,-0.00291766,-0.00449473,0.00165892,-0.00733201,-0.776376,0.00552463,0.0287436,650,1212,-10.2269,-2.03115
-567,-188,-10.4793,1.33472,0,0,0,0,0,0,0,-1,657,1212,-10.4793,-1.33474
-560,-188,-12.2759,0.534058,0,0,0,0,0,0,0,-1,664,1212,-12.276,-0.534102
-553,-188,-12.3307,0.604614,-0.00102325,-0.0033091,-0.00394404,0.00194013,-0.00627248,-0.644368,0.00495659,0.0457034,671,1212,-12.3307,-0.604644
-546,-188,-12.4366,0.723145,-4.55625e-05,-0.00313748,-0.00339711,0.00214081,-0.00532385,-0.571863,0.00443841,0.0405094,678,1212,-12.4366,-0.723129
-539,-188,-12.3581,0.634521,0.00121911,-0.00280524,-0.00251031,0.00242415,-0.00401029,-0.447551,0.00375236,0.0345754,685,1212,-12.3581,-0.634543
-532,-188,-12.2587,0.323364,0.00297674,-0.00233593,-0.0011297,0.00320698,-0.00256618,-0.201056,0.00333997,0.0397686,692,1212,-12.2587,-0.323309
-525,-188,-12.2364,0.254883,0.00549543,-0.00180678,0.000998742,0.00562956,-0.00194091,0.133507,0.00454047,0.0416957,699,1212,-12.2364,-0.254906
-518,-188,-12.1479,0.493408,0.00877714,-0.00174916,0.00347291,0.00981969,-0.00279171,0.291636,0.00764878,0.0410162,706,1212,-12.1479,-0.493351
-511,-188,-12.088,0.508423,0,0,0,0,0,0,0,-1,713,1212,-12.088,-0.508429
-504,-188,0,0,0,0,0,0,0,0,0,-1,720,1212,0,0
-497,-188,0,0,0,0,0,0,0,0,0,-1,727,1212,0,0
-490,-188,0,0,0,0,0,0,0,0,0,-1,734,1212,0,0
-483,-188,0,0,0,0,0,0,0,0,0,-1,741,1212,0,0
-476,-188,0,0,0,0,0,0,0,0,0,-1,748,1212,0,0
-469,-188,0,0,0,0,0,0,0,0,0,-1,755,1212,0,0
-462,-188,0,0,0,0,0,0,0,0,0,-1,762,1212,0,0
-455,-188,0,0,0,0,0,0,0,0,0,-1,769,1212,0,0
-448,-188,0,0,0,0,0,0,0,0,0,-1,776,1212,0,0
-441,-188,0,0,0,0,0,0,0,0,0,-1,783,1212,0,0
-434,-188,0,0,0,0,0,0,0,0,0,-1,790,1212,0,0
-427,-188,0,0,0,0,0,0,0,0,0,-1,797,1212,0,0
-420,-188,0,0,0,0,0,0,0,0,0,-1,804,1212,0,0
-413,-188,0,0,0,0,0,0,0,0,0,-1,811,1212,0,0
-406,-188,0,0,0,0,0,0,0,0,0,-1,818,1212,0,0
-399,-188,0,0,0,0,0,0,0,0,0,-1,825,1212,0,0
-392,-188,0,0,0,0,0,0,0,0,0,-1,832,1212,0,0
-385,-188,0,0,0,0,0,0,0,0,0,-1,839,1212,0,0
-378,-188,0,0,0,0,0,0,0,0,0,-1,846,1212,0,0
-371,-188,0,0,0,0,0,0,0,0,0,-1,853,1212,0,0
-364,-188,0,0,0,0,0,0,0,0,0,-1,860,1212,0,0
-357,-188,0,0,0,0,0,0,0,0,0,-1,867,1212,0,0
-350,-188,0,0,0,0,0,0,0,0,0,-1,874,1212,0,0
-343,-188,0,0,0,0,0,0,0,0,0,-1,881,1212,0,0
-336,-188,0,0,0,0,0,0,0,0,0,-1,888,1212,0,0
-329,-188,0,0,0,0,0,0,0,0,0,-1,895,1212,0,0
-322,-188,0,0,0,0,0,0,0,0,0,-1,902,1212,0,0
-315,-188,0,0,0,0,0,0,0,0,0,-1,909,1212,0,0
-308,-188,0,0,0,0,0,0,0,0,0,-1,916,1212,0,0
-301,-188,0,0,0,0,0,0,0,0,0,-1,923,1212,0,0
-294,-188,0,0,0,0,0,0,0,0,0,-1,930,1212,0,0
-287,-188,0,0,0,0,0,0,0,0,0,-1,937,1212,0,0
-280,-188,0,0,0,0,0,0,0,0,0,-1,944,1212,0,0
-273,-188,0,0,0,0,0,0,0,0,0,-1,951,1212,0,0
-266,-188,0,0,0,0,0,0,0,0,0,-1,958,1212,0,0
-259,-188,0,0,0,0,0,0,0,0,0,-1,965,1212,0,0
-252,-188,0,0,0,0,0,0,0,0,0,-1,972,1212,0,0
-245,-188,0,0,0,0,0,0,0,0,0,-1,979,1212,0,0
-238,-188,0,0,0,0,0,0,0,0,0,-1,986,1212,0,0
-231,-188,0,0,0,0,0,0,0,0,0,-1,993,1212,0,0
-224,-188,0,0,0,0,0,0,0,0,0,-1,1000,1212,0,0
-217,-188,0,0,0,0,0,0,0,0,0,-1,1007,1212,0,0
-210,-188,0,0,0,0,0,0,0,0,0,-1,1014,1212,0,0
-203,-188,0,0,0,0,0,0,0,0,0,-1,1021,1212,0,0
-196,-188,0,0,0,0,0,0,0,0,0,-1,1028,1212,0,0
-189,-188,0,0,0,0,0,0,0,0,0,-1,1035,1212,0,0
-182,-188,0,0,0,0,0,0,0,0,0,-1,1042,1212,0,0
-175,-188,0,0,0,0,0,0,0,0,0,-1,1049,1212,0,0
-168,-188,0,0,0,0,0,0,0,0,0,-1,1056,1212,0,0
-161,-188,0,0,0,0,0,0,0,0,0,-1,1063,1212,0,0
-154,-188,0,0,0,0,0,0,0,0,0,-1,1070,1212,0,0
-147,-188,0,0,0,0,0,0,0,0,0,-1,1077,1212,0,0
-140,-188,0,0,0,0,0,0,0,0,0,-1,1084,1212,0,0
-133,-188,0,0,0,0,0,0,0,0,0,-1,1091,1212,0,0
-126,-188,0,0,0,0,0,0,0,0,0,-1,1098,1212,0,0
-119,-188,0,0,0,0,0,0,0,0,0,-1,1105,1212,0,0
-112,-188,0,0,0,0,0,0,0,0,0,-1,1112,1212,0,0
-105,-188,0,0,0,0,0,0,0,0,0,-1,1119,1212,0,0
-98,-188,0,0,0,0,0,0,0,0,0,-1,1126,1212,0,0
-91,-188,0,0,0,0,0,0,0,0,0,-1,1133,1212,0,0
-84,-188,0,0,0,0,0,0,0,0,0,-1,1140,1212,0,0
-77,-188,0,0,0,0,0,0,0,0,0,-1,1147,1212,0,0
-70,-188,0,0,0,0,0,0,0,0,0,-1,1154,1212,0,0
-63,-188,0,0,0,0,0,0,0,0,0,-1,1161,1212,0,0
-56,-188,0,0,0,0,0,0,0,0,0,-1,1168,1212,0,0
-49,-188,0,0,0,0,0,0,0,0,0,-1,1175,1212,0,0
-42,-188,0,0,0,0,0,0,0,0,0,-1,1182,1212,0,0
-35,-188,0,0,0,0,0,0,0,0,0,-1,1189,1212,0,0
-28,-188,0,0,0,0,0,0,0,0,0,-1,1196,1212,0,0
-21,-188,0,0,0,0,0,0,0,0,0,-1,1203,1212,0,0
-14,-188,0,0,0,0,0,0,0,0,0,-1,1210,1212,0,0
-7,-188,0,0,0,0,0,0,0,0,0,-1,1217,1212,0,0
0,-188,0,0,0,0,0,0,0,0,0,-1,1224,1212,0,0
7,-188,0,0,0,0,0,0,0,0,0,-1,1231,1212,0,0
14,-188,0,0,0,0,0,0,0,0,0,-1,1238,1212,0,0
21,-188,0,0,0,0,0,0,0,0,0,-1,1245,1212,0,0
28,-188,0,0,0,0,0,0,0,0,0,-1,1252,1212,0,0
35,-188,0,0,0,0,0,0,0,0,0,-1,1259,1212,0,0
42,-188,0,0,0,0,0,0,0,0,0,-1,1266,1212,0,0
49,-188,0,0,0,0,0,0,0,0,0,-1,1273,1212,0,0
56,-188,0,0,0,0,0,0,0,0,0,-1,1280,1212,0,0
63,-188,0,0,0,0,0,0,0,0,0,-1,1287,1212,0,0
70,-188,0,0,0,0,0,0,0,0,0,-1,1294,1212,0,0
77,-188,0,0,0,0,0,0,0,0,0,-1,1301,1212,0,0
84,-188,0,0,0,0,0,0,0,0,0,-1,1308,1212,0,0
91,-188,0,0,0,0,0,0,0,0,0,-1,1315,1212,0,0
98,-188,0,0,0,0,0,0,0,0,0,-1,1322,1212,0,0
105,-188,0,0,0,0,0,0,0,0,0,-1,1329,1212,0,0
112,-188,0,0,0,0,0,0,0,0,0,-1,1336,1212,0,0
119,-188,0,0,0,0,0,0,0,0,0,-1,1343,1212,0,0
126,-188,0,0,0,0,0,0,0,0,0,-1,1350,1212,0,0
133,-188,0,0,0,0,0,0,0,0,0,-1,1357,1212,0,0
140,-188,0,0,0,0,0,0,0,0,0,-1,1364,1212,0,0
147,-188,0,0,0,0,0,0,0,0,0,-1,1371,1212,0,0
154,-188,0,0,0,0,0,0,0,0,0,-1,1378,1212,0,0
161,-188,0,0,0,0,0,0,0,0,0,-1,1385,1212,0,0
168,-188,0,0,0,0,0,0,0,0,0,-1,1392,1212,0,0
175,-188,0,0,0,0,0,0,0,0,0,-1,1399,1212,0,0
182,-188,0,0,0,0,0,0,0,0,0,-1,1406,1212,0,0
189,-188,0,0,0,0,0,0,0,0,0,-1,1413,1212,0,0
196,-188,0,0,0,0,0,0,0,0,0,-1,1420,1212,0,0
203,-188,0,0,0,0,0,0,0,0,0,-1,1427,1212,0,0
210,-188,0,0,0,0,0,0,0,0,0,-1,1434,1212,0,0
217,-188,0,0,0,0,0,0,0,0,0,-1,1441,1212,0,0
224,-188,0,0,0,0,0,0,0,0,0,-1,1448,1212,0,0
231,-188,0,0,0,0,0,0,0,0,0,-1,1455,1212,0,0
238,-188,0,0,0,0,0,0,0,0,0,-1,1462,1212,0,0
245,-188,0,0,0,0,0,0,0,0,0,-1,1469,1212,0,0
252,-188,0,0,0,0,0,0,0,0,0,-1,1476,1212,0,0
259,-188,0,0,0,0,0,0,0,0,0,-1,1483,1212,0,0
266,-188,0,0,0,0,0,0,0,0,0,-1,1490,1212,0,0
273,-188,0,0,0,0,0,0,0,0,0,-1,1497,1212,0,0
280,-188,0,0,0,0,0,0,0,0,0,-1,1504,1212,0,0
287,-188,0,0,0,0,0,0,0,0,0,-1,1511,1212,0,0
294,-188,0,0,0,0,0,0,0,0,0,-1,1518,1212,0,0
301,-188,0,0,0,0,0,0,0,0,0,-1,1525,1212,0,0
308,-188,0,0,0,0,0,0,0,0,0,-1,1532,1212,0,0
315,-188,0,0,0,0,0,0,0,0,0,-1,1539,1212,0,0
322,-188,0,0,0,0,0,0,0,0,0,-1,1546,1212,0,0
329,-188,0,0,0,0,0,0,0,0,0,-1,1553,1212,0,0
336,-188,0,0,0,0,0,0,0,0,0,-1,1560,1212,0,0
343,-188,0,0,0,0,0,0,0,0,0,-1,1567,1212,0,0
350,-188,0,0,0,0,0,0,0,0,0,-1,1574,1212,0,0
357,-188,0,0,0,0,0,0,0,0,0,-1,1581,1212,0,0
364,-188,0,0,0,0,0,0,0,0,0,-1,1588,1212,0,0
371,-188,0,0,0,0,0,0,0,0,0,-1,1595,1212,0,0
378,-188,0,0,0,0,0,0,0,0,0,-1,1602,1212,0,0
385,-188,0,0,0,0,0,0,0,0,0,-1,1609,1212,0,0
392,-188,0,0,0,0,0,0,0,0,0,-1,1616,1212,0,0
399,-188,0,0,0,0,0,0,0,0,0,-1,1623,1212,0,0
406,-188,0,0,0,0,0,0,0,0,0,-1,1630,1212,0,0
413,-188,0,0,0,0,0,0,0,0,0,-1,1637,1212,0,0
420,-188,0,0,0,0,0,0,0,0,0,-1,1644,1212,0,0
427,-188,0,0,0,0,0,0,0,0,0,-1,1651,1212,0,0
434,-188,0,0,0,0,0,0,0,0,0,-1,1658,1212,0,0
441,-188,0,0,0,0,0,0,0,0,0,-1,1665,1212,0,0
448,-188,0,0,0,0,0,0,0,0,0,-1,1672,1212,0,0
455,-188,0,0,0,0,0,0,0,0,0,-1,1679,1212,0,0
462,-188,0,0,0,0,0,0,0,0,0,-1,1686,1212,0,0
469,-188,0,0,0,0,0,0,0,0,0,-1,1693,1212,0,0
476,-188,0,0,0,0,0,0,0,0,0,-1,1700,1212,0,0
483,-188,0,0,0,0,0,0,0,0,0,-1,1707,1212,0,0
490,-188,0,0,0,0,0,0,0,0,0,-1,1714,1212,0,0
497,-188,0,0,0,0,0,0,0,0,0,-1,1721,1212,0,0
504,-188,0,0,0,0,0,0,0,0,0,-1,1728,1212,0,0
511,-188,0,0,0,0,0,0,0,0,0,-1,1735,1212,0,0
518,-188,0,0,0,0,0,0,0,0,0,-1,1742,1212,0,0
525,-188,0,0,0,0,0,0,0,0,0,-1,1749,1212,0,0
532,-188,0,0,0,0,0,0,0,0,0,-1,1756,1212,0,0
539,-188,0,0,0,0,0,0,0,0,0,-1,1763,1212,0,0
546,-188,0,0,0,0,0,0,0,0,0,-1,1770,1212,0,0
553,-188,0,0,0,0,0,0,0,0,0,-1,1777,1212,0,0
560,-188,0,0,0,0,0,0,0,0,0,-1,1784,1212,0,0
567,-188,0,0,0,0,0,0,0,0,0,-1,1791,1212,0,0
574,-188,0,0,0,0,0,0,0,0,0,-1,1798,1212,0,0
581,-188,0,0,0,0,0,0,0,0,0,-1,1805,1212,0,0
588,-188,0,0,0,0,0,0,0,0,0,-1,1812,1212,0,0
595,-188,0,0,0,0,0,0,0,0,0,-1,1819,1212,0,0
602,-188,0,0,0,0,0,0,0,0,0,-1,1826,1212,0,0
609,-188,0,0,0,0,0,0,0,0,0,-1,1833,1212,0,0
616,-188,0,0,0,0,0,0,0,0,0,-1,1840,1212,0,0
623,-188,0,0,0,0,0,0,0,0,0,-1,1847,1212,0,0
630,-188,19.2321,2.48669,-0.00349359,-0.00341164,-0.00130446,-0.00214751,-0.00475771,-0.801099,0.00275119,0.042455,1854,1212,19.232,-2.48669
637,-188,19.2313,2.42053,-0.00188609,-0.000937203,-0.00129162,-3.56473e-05,-0.00278765,-0.961411,0.00184667,0.0422301,1861,1212,19.2314,-2.4205
644,-188,19.2762,2.44727,-0.000947244,0.00117453,-0.0011275,0.00166178,-0.0014345,-1.16288,0.00178924,0.0375109,1868,1212,19.2762,-2.44727
651,-188,19.311,2.43542,-0.000505553,0.00278118,-0.000839345,0.00298312,-0.000707492,-1.33469,0.00226177,0.0337663,1875,1212,19.311,-2.43545
658,-188,19.2444,2.43689,-0.000578938,0.00335834,-0.000243889,0.00337339,-0.000593988,-1.50917,0.00247084,0.0341412,1882,1212,19.2444,-2.43689
665,-188,19.2411,2.43506,-0.00089551,0.00336594,0.000377101,0.00339905,-0.000928623,1.48321,0.00263078,0.0322745,1889,1212,19.2411,-2.43508
672,-188,19.2927,2.401,-0.00135031,0.00298153,0.000897253,0.00316002,-0.0015288,1.37443,0.00276116,0.0265421,1896,1212,19.2927,-2.40106
679,-188,19.3353,2.30066,-0.00189698,0.00248663,0.00136305,0.00287589,-0.00228625,1.29262,0.00298684,0.0477886,1903,1212,19.3353,-2.30064
686,-188,19.3901,2.23047,0,0,0,0,0,0,0,-1,1910,1212,19.3901,-2.23041
693,-188,17.7106,3.88928,0,0,0,0,0,0,0,-1,1917,1212,17.7105,-3.88927
700,-188,17.627,4.02258,-0.00287305,0.000729419,0.00231918,0.00186469,-0.00400832,1.11557,0.00346525,0.044228,1924,1212,17.6269,-4.02256
707,-188,17.4683,4.18774,-0.00307406,0.000162103,0.00243865,0.00147066,-0.00438261,1.07831,0.00351602,0.0141177,1931,1212,17.4683,-4.1877
714,-188,17.4364,4.1062,-0.0032818,-0.000326461,0.00242568,0.00103619,-0.00464446,1.05897,0.00349331,0.0112802,1938,1212,17.4364,-4.1062
721,-188,17.3855,3.99048,-0.0029717,-0.000684444,0.00221156,0.000661681,-0.00431782,1.02402,0.00312256,0.0110461,1945,1212,17.3855,-3.99047
728,-188,17.3671,3.85535,-0.0018334,-0.000714257,0.00170743,0.000522961,-0.00307062,0.943746,0.00224182,0.00888867,1952,1212,17.367,-3.85537
735,-188,17.34,3.73303,-0.000244353,-0.00038209,0.00134156,0.00103011,-0.00165655,0.759753,0.00156513,0.0119083,1959,1212,17.34,-3.73303
742,-188,17.3313,3.60413,0.00197248,4.4251e-05,0.00099835,0.00239625,-0.000379517,0.40142,0.00173787,0.0137877,1966,1212,17.3313,-3.60415
749,-188,17.3381,3.47693,0.00570456,0.000806659,0.00106808,0.00592734,0.000583877,0.205633,0.00377203,0.0133916,1973,1212,17.3381,-3.47693
756,-188,17.3434,3.36011,0.0119358,0.00280233,0.0027023,0.0126754,0.0020627,0.26716,0.00785355,0.012081,1980,1212,17.3434,-3.36011
763,-188,17.3385,3.23926,0.0184509,0.00439819,0.00463759,0.0198434,0.00300571,0.291696,0.0123496,0.0134397,1987,1212,17.3385,-3.23925
770,-188,17.3458,3.10498,0.0273149,0.0064917,0.00819517,0.0301533,0.00365331,0.333419,0.0190018,0.0217156,1994,1212,17.3459,-3.10495
777,-188,17.1465,2.95972,0.0393344,0.00946094,0.0138715,0.044782,0.00401328,0.374219,0.0286109,0.0425166,2001,1212,17.1465,-2.95966
784,-188,16.9366,2.78076,0,0,0,0,0,0,0,-1,2008,1212,16.9367,-2.78079
791,-188,16.7915,2.67883,0,0,0,0,0,0,0,-1,2015,1212,16.7915,-2.67878
798,-188,16.9868,2.83948,0,0,0,0,0,0,0,-1,2022,1212,16.9868,-2.83949
805,-188,0,0,0,0,0,0,0,0,0,-1,2029,1212,0,0
812,-188,0,0,0,0,0,0,0,0,0,-1,2036,1212,0,0
-700,-195,0,0,0,0,0,0,0,0,0,-1,524,1219,0,0
-693,-195,0,0,0,0,0,0,0,0,0,-1,531,1219,0,0
-686,-195,0,0,0,0,0,0,0,0,0,-1,538,1219,0,0
-679,-195,-7.13177,-2.17554,-0.038936,0.0476056,-0.0289524,0.0563983,-0.0477287,-1.27595,0.0601871,0.0458306,545,1219,-7.13177,2.17549
-672,-195,-7.86523,-1.54895,-0.0332008,0.0370429,-0.0172627,0.0410561,-0.0372139,-1.34238,0.0452074,0.0444192,552,1219,-7.86521,1.54892
-665,-195,-8.40179,-0.956299,-0.0274008,0.02851,-0.00956563,0.0301013,-0.0289921,-1.40595,0.0341196,0.0435104,559,1219,-8.40178,0.956358
-658,-195,-9.16541,-0.56543,-0.0218524,0.0216617,-0.0046486,0.0221528,-0.0223434,-1.46555,0.02569,0.0457673,566,1219,-9.16538,0.565387
-651,-195,-10.46,0.423218,0,0,0,0,0,0,0,-1,573,1219,-10.46,-0.423264
-644,-195,-9.92792,0.554443,-0.0124136,0.0119202,-4.65347e-05,0.0119203,-0.0124137,-1.56888,0.0140502,0.043373,580,1219,-9.92791,-0.554417
-637,-195,-9.97882,0.702148,-0.0087667,0.00857766,0.000690419,0.00860509,-0.00879414,1.53107,0.0100457,0.0217676,587,1219,-9.97882,-0.702173
-630,-195,-10.0111,0.863525,-0.00606538,0.00593163,0.00138415,0.00608925,-0.00622301,1.45741,0.00710863,0.00781215,594,1219,-10.0111,-0.863579
-623,-195,-10.0352,1.01123,-0.00394047,0.00298743,0.00203374,0.00354032,-0.00449336,1.30535,0.00464912,0.00787675,601,1219,-10.0352,-1.01125
-616,-195,-10.0416,1.16187,-0.00219455,0.000963377,0.000743881,0.00112983,-0.002361,1.35066,0.00205679,0.00978637,608,1219,-10.0416,-1.16185
-609,-195,-10.0149,1.32129,-0.00116674,0.000457825,-0.00117337,0.00107264,-0.00178156,-1.08816,0.00166473,0.0167878,615,1219,-10.0149,-1.32125
-602,-195,-10.0358,1.4978,-0.00113626,-0.000449948,-0.00214896,0.00138308,-0.00296929,-0.864572,0.00256786,0.0201387,622,1219,-10.0358,-1.49782
-595,-195,-10.0615,1.63696,-0.00155004,-0.00147127,-0.00273281,0.00122244,-0.00424375,-0.792604,0.0033127,0.013808,629,1219,-10.0615,-1.63694
-588,-195,-10.0397,1.77649,-0.00180673,-0.00219388,-0.00344321,0.00144834,-0.00544895,-0.757318,0.0041995,0.00728457,636,1219,-10.0397,-1.77643
-581,-195,-10.0618,1.88867,-0.00195418,-0.00242093,-0.00394026,0.00175961,-0.00613472,-0.755819,0.00478543,0.0099828,643,1219,-10.0618,-1.88869
-574,-195,-10.0574,1.92004,-0.00164889,-0.00242405,-0.00408453,0.0020664,-0.00613935,-0.738095,0.00492828,0.0256079,650,1219,-10.0574,-1.91999
-567,-195,-9.49341,1.46558,0,0,0,0,0,0,0,-1,657,1219,-9.49338,-1.46563
-560,-195,-8.9494,0.974854,0,0,0,0,0,0,0,-1,664,1219,-8.9494,-0.974914
-553,-195,-12.4389,0.797363,-0.000444122,-0.00254947,-0.00368593,0.00233651,-0.0053301,-0.646304,0.0045374,0.046189,671,1219,-12.4389,-0.797376
-546,-195,-12.4234,0.740234,0.000113129,-0.00233207,-0.00331208,0.00242106,-0.00463999,-0.60859,0.00414325,0.0445924,678,1219,-12.4234,-0.740232
-539,-195,-12.3317,0.561646,0.000764715,-0.00199225,-0.00269867,0.00241658,-0.00364412,-0.549273,0.00352299,0.0349301,685,1219,-12.3317,-0.561634
-532,-195,-12.1749,0.234863,0.0016489,-0.00158194,-0.0017294,0.0024,-0.00233304,-0.409731,0.00273271,0.0357853,692,1219,-12.1748,-0.234851
-525,-195,-12.1269,-0.0584717,0.00296952,-0.00120251,-0.000165945,0.00297611,-0.0012091,-0.039692,0.00248709,0.0428055,699,1219,-12.1269,0.0585218
-518,-195,-12.2656,-0.165649,0,0,0,0,0,0,0,-1,706,1219,-12.2656,0.165657
-511,-195,-11.68,-0.121216,0,0,0,0,0,0,0,-1,713,1219,-11.68,0.121183
-504,-195,0,0,0,0,0,0,0,0,0,-1,720,1219,0,0
-497,-195,0,0,0,0,0,0,0,0,0,-1,727,1219,0,0
-490,-195,0,0,0,0,0,0,0,0,0,-1,734,1219,0,0
-483,-195,0,0,0,0,0,0,0,0,0,-1,741,1219,0,0
-476,-195,0,0,0,0,0,0,0,0,0,-1,748,1219,0,0
-469,-195,0,0,0,0,0,0,0,0,0,-1,755,1219,0,0
-462,-195,0,0,0,0,0,0,0,0,0,-1,762,1219,0,0
-455,-195,0,0,0,0,0,0,0,0,0,-1,769,1219,0,0
-448,-195,0,0,0,0,0,0,0,0,0,-1,776,1219,0,0
-441,-195,0,0,0,0,0,0,0,0,0,-1,783,1219,0,0
-434,-195,0,0,0,0,0,0,0,0,0,-1,790,1219,0,0
-427,-195,0,0,0,0,0,0,0,0,0,-1,797,1219,0,0
-420,-195,0,0,0,0,0,0,0,0,0,-1,804,1219,0,0
-413,-195,0,0,0,0,0,0,0,0,0,-1,811,1219,0,0
-406,-195,0,0,0,0,0,0,0,0,0,-1,818,1219,0,0
-399,-195,0,0,0,0,0,0,0,0,0,-1,825,1219,0,0
-392,-195,0,0,0,0,0,0,0,0,0,-1,832,1219,0,0
-385,-195,0,0,0,0,0,0,0,0,0,-1,839,1219,0,0
-378,-195,0,0,0,0,0,0,0,0,0,-1,846,1219,0,0
-371,-195,0,0,0,0,0,0,0,0,0,-1,853,1219,0,0
-364,-195,0,0,0,0,0,0,0,0,0,-1,860,1219,0,0
-357,-195,0,0,0,0,0,0,0,0,0,-1,867,1219,0,0
-350,-195,0,0,0,0,0,0,0,0,0,-1,874,1219,0,0
-343,-195,0,0,0,0,0,0,0,0,0,-1,881,1219,0,0
-336,-195,0,0,0,0,0,0,0,0,0,-1,888,1219,0,0
-329,-195,0,0,0,0,0,0,0,0,0,-1,895,1219,0,0
-322,-195,0,0,0,0,0,0,0,0,0,-1,902,1219,0,0
-315,-195,0,0,0,0,0,0,0,0,0,-1,909,1219,0,0
-308,-195,0,0,0,0,0,0,0,0,0,-1,916,1219,0,0
-301,-195,0,0,0,0,0,0,0,0,0,-1,923,1219,0,0
-294,-195,0,0,0,0,0,0,0,0,0,-1,930,1219,0,0
-287,-195,0,0,0,0,0,0,0,0,0,-1,937,1219,0,0
-280,-195,0,0,0,0,0,0,0,0,0,-1,944,1219,0,0
-273,-195,0,0,0,0,0,0,0,0,0,-1,951,1219,0,0
-266,-195,0,0,0,0,0,0,0,0,0,-1,958,1219,0,0
-259,-195,0,0,0,0,0,0,0,0,0,-1,965,1219,0,0
-252,-195,0,0,0,0,0,0,0,0,0,-1,972,1219,0,0
-245,-195,0,0,0,0,0,0,0,0,0,-1,979,1219,0,0
-238,-195,0,0,0,0,0,0,0,0,0,-1,986,1219,0,0
-231,-195,0,0,0,0,0,0,0,0,0,-1,993,1219,0,0
-224,-195,0,0,0,0,0,0,0,0,0,-1,1000,1219,0,0
-217,-195,0,0,0,0,0,0,0,0,0,-1,1007,1219,0,0
-210,-195,0,0,0,0,0,0,0,0,0,-1,1014,1219,0,0
-203,-195,0,0,0,0,0,0,0,0,0,-1,1021,1219,0,0
-196,-195,0,0,0,0,0,0,0,0,0,-1,1028,1219,0,0
-189,-195,0,0,0,0,0,0,0,0,0,-1,1035,1219,0,0
-182,-195,0,0,0,0,0,0,0,0,0,-1,1042,1219,0,0
-175,-195,0,0,0,0,0,0,0,0,0,-1,1049,1219,0,0
-168,-195,0,0,0,0,0,0,0,0,0,-1,1056,1219,0,0
-161,-195,0,0,0,0,0,0,0,0,0,-1,1063,1219,0,0
-154,-195,0,0,0,0,0,0,0,0,0,-1,1070,1219,0,0
-147,-195,0,0,0,0,0,0,0,0,0,-1,1077,1219,0,0
-140,-195,0,0,0,0,0,0,0,0,0,-1,1084,1219,0,0
-133,-195,0,0,0,0,0,0,0,0,0,-1,1091,1219,0,0
-126,-195,0,0,0,0,0,0,0,0,0,-1,1098,1219,0,0
-119,-195,0,0,0,0,0,0,0,0,0,-1,1105,1219,0,0
-112,-195,0,0,0,0,0,0,0,0,0,-1,1112,1219,0,0
-105,-195,0,0,0,0,0,0,0,0,0,-1,1119,1219,0,0
-98,-195,0,0,0,0,0,0,0,0,0,-1,1126,1219,0,0
-91,-195,0,0,0,0,0,0,0,0,0,-1,1133,1219,0,0
-84,-195,0,0,0,0,0,0,0,0,0,-1,1140,1219,0,0
-77,-195,0,0,0,0,0,0,0,0,0,-1,1147,1219,0,0
-70,-195,0,0,0,0,0,0,0,0,0,-1,1154,1219,0,0
-63,-195,0,0,0,0,0,0,0,0,0,-1,1161,1219,0,0
-56,-195,0,0,0,0,0,0,0,0,0,-1,1168,1219,0,0
-49,-195,0,0,0,0,0,0,0,0,0,-1,1175,1219,0,0
-42,-195,0,0,0,0,0,0,0,0,0,-1,1182,1219,0,0
-35,-195,0,0,0,0,0,0,0,0,0,-1,1189,1219,0,0
-28,-195,0,0,0,0,0,0,0,0,0,-1,1196,1219,0,0
-21,-195,0,0,0,0,0,0,0,0,0,-1,1203,1219,0,0
-14,-195,0,0,0,0,0,0,0,0,0,-1,1210,1219,0,0
-7,-195,0,0,0,0,0,0,0,0,0,-1,1217,1219,0,0
0,-195,0,0,0,0,0,0,0,0,0,-1,1224,1219,0,0
7,-195,0,0,0,0,0,0,0,0,0,-1,1231,1219,0,0
14,-195,0,0,0,0,0,0,0,0,0,-1,1238,1219,0,0
21,-195,0,0,0,0,0,0,0,0,0,-1,1245,1219,0,0
28,-195,0,0,0,0,0,0,0,0,0,-1,1252,1219,0,0
35,-195,0,0,0,0,0,0,0,0,0,-1,1259,1219,0,0
42,-195,0,0,0,0,0,0,0,0,0,-1,1266,1219,0,0
49,-195,0,0,0,0,0,0,0,0,0,-1,1273,1219,0,0
56,-195,0,0,0,0,0,0,0,0,0,-1,1280,1219,0,0
63,-195,0,0,0,0,0,0,0,0,0,-1,1287,1219,0,0
70,-195,0,0,0,0,0,0,0,0,0,-1,1294,1219,0,0
77,-195,0,0,0,0,0,0,0,0,0,-1,1301,1219,0,0
84,-195,0,0,0,0,0,0,0,0,0,-1,1308,1219,0,0
91,-195,0,0,0,0,0,0,0,0,0,-1,1315,1219,0,0
98,-195,0,0,0,0,0,0,0,0,0,-1,1322,1219,0,0
105,-195,0,0,0,0,0,0,0,0,0,-1,1329,1219,0,0
112,-195,0,0,0,0,0,0,0,0,0,-1,1336,1219,0,0
119,-195,0,0,0,0,0,0,0,0,0,-1,1343,1219,0,0
126,-195,0,0,0,0,0,0,0,0,0,-1,1350,1219,0,0
133,-195,0,0,0,0,0,0,0,0,0,-1,1357,1219,0,0
140,-195,0,0,0,0,0,0,0,0,0,-1,1364,1219,0,0
147,-195,0,0,0,0,0,0,0,0,0,-1,1371,1219,0,0
154,-195,0,0,0,0,0,0,0,0,0,-1,1378,1219,0,0
161,-195,0,0,0,0,0,0,0,0,0,-1,1385,1219,0,0
168,-195,0,0,0,0,0,0,0,0,0,-1,1392,1219,0,0
175,-195,0,0,0,0,0,0,0,0,0,-1,1399,1219,0,0
182,-195,0,0,0,0,0,0,0,0,0,-1,1406,1219,0,0
189,-195,0,0,0,0,0,0,0,0,0,-1,1413,1219,0,0
196,-195,0,0,0,0,0,0,0,0,0,-1,1420,1219,0,0
203,-195,0,0,0,0,0,0,0,0,0,-1,1427,1219,0,0
210,-195,0,0,0,0,0,0,0,0,0,-1,1434,1219,0,0
217,-195,0,0,0,0,0,0,0,0,0,-1,1441,1219,0,0
224,-195,0,0,0,0,0,0,0,0,0,-1,1448,1219,0,0
231,-195,0,0,0,0,0,0,0,0,0,-1,1455,1219,0,0
238,-195,0,0,0,0,0,0,0,0,0,-1,1462,1219,0,0
245,-195,0,0,0,0,0,0,0,0,0,-1,1469,1219,0,0
252,-195,0,0,0,0,0,0,0,0,0,-1,1476,1219,0,0
259,-195,0,0,0,0,0,0,0,0,0,-1,1483,1219,0,0
266,-195,0,0,0,0,0,0,0,0,0,-1,1490,1219,0,0
273,-195,0,0,0,0,0,0,0,0,0,-1,1497,1219,0,0
280,-195,0,0,0,0,0,0,0,0,0,-1,1504,1219,0,0
287,-195,0,0,0,0,0,0,0,0,0,-1,1511,1219,0,0
294,-195,0,0,0,0,0,0,0,0,0,-1,1518,1219,0,0
301,-195,0,0,0,0,0,0,0,0,0,-1,1525,1219,0,0
308,-195,0,0,0,0,0,0,0,0,0,-1,1532,1219,0,0
315,-195,0,0,0,0,0,0,0,0,0,-1,1539,1219,0,0
322,-195,0,0,0,0,0,0,0,0,0,-1,1546,1219,0,0
329,-195,0,0,0,0,0,0,0,0,0,-1,1553,1219,0,0
336,-195,0,0,0,0,0,0,0,0,0,-1,1560,1219,0,0
343,-195,0,0,0,0,0,0,0,0,0,-1,1567,1219,0,0
350,-195,0,0,0,0,0,0,0,0,0,-1,1574,1219,0,0
357,-195,0,0,0,0,0,0,0,0,0,-1,1581,1219,0,0
364,-195,0,0,0,0,0,0,0,0,0,-1,1588,1219,0,0
371,-195,0,0,0,0,0,0,0,0,0,-1,1595,1219,0,0
378,-195,0,0,0,0,0,0,0,0,0,-1,1602,1219,0,0
385,-195,0,0,0,0,0,0,0,0,0,-1,1609,1219,0,0
392,-195,0,0,0,0,0,0,0,0,0,-1,1616,1219,0,0
399,-195,0,0,0,0,0,0,0,0,0,-1,1623,1219,0,0
406,-195,0,0,0,0,0,0,0,0,0,-1,1630,1219,0,0
413,-195,0,0,0,0,0,0,0,0,0,-1,1637,1219,0,0
420,-195,0,0,0,0,0,0,0,0,0,-1,1644,1219,0,0
427,-195,0,0,0,0,0,0,0,0,0,-1,1651,1219,0,0
434,-195,0,0,0,0,0,0,0,0,0,-1,1658,1219,0,0
441,-195,0,0,0,0,0,0,0,0,0,-1,1665,1219,0,0
448,-195,0,0,0,0,0,0,0,0,0,-1,1672,1219,0,0
455,-195,0,0,0,0,0,0,0,0,0,-1,1679,1219,0,0
462,-195,0,0,0,0,0,0,0,0,0,-1,1686,1219,0,0
469,-195,0,0,0,0,0,0,0,0,0,-1,1693,1219,0,0
476,-195,0,0,0,0,0,0,0,0,0,-1,1700,1219,0,0
483,-195,0,0,0,0,0,0,0,0,0,-1,1707,1219,0,0
490,-195,0,0,0,0,0,0,0,0,0,-1,1714,1219,0,0
497,-195,0,0,0,0,0,0,0,0,0,-1,1721,1219,0,0
504,-195,0,0,0,0,0,0,0,0,0,-1,1728,1219,0,0
511,-195,0,0,0,0,0,0,0,0,0,-1,1735,1219,0,0
518,-195,0,0,0,0,0,0,0,0,0,-1,1742,1219,0,0
525,-195,0,0,0,0,0,0,0,0,0,-1,1749,1219,0,0
532,-195,0,0,0,0,0,0,0,0,0,-1,1756,1219,0,0
539,-195,0,0,0,0,0,0,0,0,0,-1,1763,1219,0,0
546,-195,0,0,0,0,0,0,0,0,0,-1,1770,1219,0,0
553,-195,0,0,0,0,0,0,0,0,0,-1,1777,1219,0,0
560,-195,0,0,0,0,0,0,0,0,0,-1,1784,1219,0,0
567,-195,0,0,0,0,0,0,0,0,0,-1,1791,1219,0,0
574,-195,0,0,0,0,0,0,0,0,0,-1,1798,1219,0,0
581,-195,0,0,0,0,0,0,0,0,0,-1,1805,1219,0,0
588,-195,0,0,0,0,0,0,0,0,0,-1,1812,1219,0,0
595,-195,0,0,0,0,0,0,0,0,0,-1,1819,1219,0,0
602,-195,0,0,0,0,0,0,0,0,0,-1,1826,1219,0,0
609,-195,0,0,0,0,0,0,0,0,0,-1,1833,1219,0,0
616,-195,0,0,0,0,0,0,0,0,0,-1,1840,1219,0,0
623,-195,0,0,0,0,0,0,0,0,0,-1,1847,1219,0,0
630,-195,19.3546,2.28296,-0.00326993,-0.00312483,-0.00158559,-0.00161013,-0.00478463,-0.808259,0.00281119,0.0443803,1854,1219,19.3546,-2.28301
637,-195,19.269,2.22522,-0.00187097,-0.000190415,-0.00150716,0.000694879,-0.00275627,-1.0397,0.00210767,0.0425351,1861,1219,19.269,-2.22518
644,-195,19.2513,2.24121,-0.00108531,0.00215224,-0.00116568,0.00252827,-0.00146134,-1.25875,0.00233069,0.0364301,1868,1219,19.2514,-2.24124
651,-195,19.3082,2.35547,-0.000772003,0.00372594,-0.000671338,0.003824,-0.000870066,-1.42575,0.00288345,0.0273326,1875,1219,19.3082,-2.35552
658,-195,19.2911,2.3949,-0.000817487,0.00425209,-2.18325e-05,0.00425219,-0.000817582,-1.56649,0.00314297,0.0256151,1882,1219,19.2911,-2.39491
665,-195,19.2972,2.41724,-0.00102783,0.00419334,0.000568569,0.00425454,-0.00108903,1.46357,0.00326057,0.0248594,1889,1219,19.2972,-2.41729
672,-195,19.299,2.23132,-0.00136883,0.00373703,0.00104872,0.00394404,-0.00157584,1.37591,0.00328322,0.0373959,1896,1219,19.299,-2.23135
679,-195,19.2947,2.0354,-0.00179072,0.00318603,0.0014436,0.00357445,-0.00217914,1.30795,0.00335424,0.0493835,1903,1219,19.2947,-2.03538
686,-195,17.3199,5.19043,0,0,0,0,0,0,0,-1,1910,1219,17.3199,-5.1904
693,-195,17.4637,4.08557,0,0,0,0,0,0,0,-1,1917,1219,17.4637,-4.08559
700,-195,17.3545,4.18921,-0.00245019,0.00121573,0.0022415,0.0022783,-0.00351276,1.12813,0.0033687,0.0330316,1924,1219,17.3545,-4.18923
707,-195,17.2383,4.24048,-0.00261567,0.000573312,0.00227177,0.00175431,-0.00379667,1.09139,0.00327637,0.0148619,1931,1219,17.2382,-4.24047
714,-195,17.2283,4.11951,-0.00281361,-2.9343e-05,0.00220419,0.00118553,-0.00402848,1.06706,0.00315595,0.0142116,1938,1219,17.2282,-4.11951
721,-195,17.2247,4.0011,-0.00238997,-0.000505519,0.0019416,0.000710404,-0.00360589,1.0113,0.00267239,0.0114573,1945,1219,17.2248,-4.00104
728,-195,17.2217,3.85889,-0.00110661,-0.000631245,0.00137984,0.000531233,-0.00226909,0.870688,0.00171741,0.0101071,1952,1219,17.2217,-3.85891
735,-195,17.2092,3.73279,0.000549149,-0.00034733,0.00105856,0.00125046,-0.00104864,0.585122,0.00132909,0.0119172,1959,1219,17.2092,-3.73279
742,-195,17.2087,3.60925,0.00281099,-1.81383e-05,0.000836756,0.00303994,-0.000247092,0.267084,0.00211381,0.0134734,1966,1219,17.2088,-3.60931
749,-195,17.2192,3.47461,0.0063684,0.000565174,0.000961631,0.0065236,0.000409976,0.160011,0.00421905,0.0132809,1973,1219,17.2193,-3.47464
756,-195,17.2136,3.35925,0.0120138,0.002148,0.0024982,0.0126104,0.00155148,0.234391,0.00794043,0.012639,1980,1219,17.2136,-3.35929
763,-195,17.2036,3.20691,0.0180876,0.00336601,0.00441739,0.0193113,0.00214224,0.270256,0.0122229,0.0145462,1987,1219,17.2036,-3.20694
770,-195,17.2358,3.0531,0.0262826,0.00499766,0.007856,0.0288681,0.00241217,0.317945,0.0184938,0.027964,1994,1219,17.2359,-3.05311
777,-195,17.6796,3.11072,0.0372306,0.00736117,0.0133656,0.042338,0.00225379,0.365005,0.0275048,0.0415962,2001,1219,17.6796,-3.11067
784,-195,19.3058,2.19629,0,0,0,0,0,0,0,-1,2008,1219,19.3058,-2.19623
791,-195,19.3882,2.15186,0,0,0,0,0,0,0,-1,2015,1219,19.3882,-2.1519
798,-195,17.0332,2.64844,0,0,0,0,0,0,0,-1,2022,1219,17.0332,-2.64846
805,-195,0,0,0,0,0,0,0,0,0,-1,2029,1219,0,0
812,-195,0,0,0,0,0,0,0,0,0,-1,2036,1219,0,0
-700,-202,0,0,0,0,0,0,0,0,0,-1,524,1226,0,0
-693,-202,0,0,0,0,0,0,0,0,0,-1,531,1226,0,0
-686,-202,0,0,0,0,0,0,0,0,0,-1,538,1226,0,0
-679,-202,-7.02972,-1.62598,-0.0494423,0.0457362,-0.015568,0.0482179,-0.051924,-1.41272,0.0578301,0.0462775,545,1226,-7.02975,1.62601
-672,-202,-7.89453,-1.18372,-0.0411673,0.0354782,-0.00701948,0.0361158,-0.0418049,-1.48022,0.0450275,0.0438026,552,1226,-7.8945,1.18369
-665,-202,-8.60779,-0.776855,-0.0330933,0.0273265,-0.00199996,0.0273926,-0.0331594,-1.53774,0.0350125,0.0446038,559,1226,-8.60777,0.776809
-658,-202,-9.23633,-0.44165,-0.0256365,0.0208617,0.000727802,0.0208731,-0.0256479,1.55515,0.026906,0.0465243,566,1226,-9.23631,0.441595
-651,-202,-9.85486,-0.122559,0,0,0,0,0,0,0,-1,573,1226,-9.85484,0.122559
-644,-202,-9.93408,0.434692,-0.013476,0.0117058,0.00231271,0.0119165,-0.0136867,1.47997,0.0147937,0.0463432,580,1226,-9.93409,-0.43474
-637,-202,-9.79132,0.602417,-0.00897643,0.00854007,0.00211051,0.00879077,-0.00922713,1.45256,0.0104037,0.0332625,587,1226,-9.79134,-0.602434
-630,-202,-9.80371,0.826294,-0.0056906,0.00600119,0.00205627,0.00635229,-0.0060417,1.40168,0.00715642,0.0133414,594,1226,-9.8037,-0.826315
-623,-202,-9.8421,0.992554,-0.00314219,0.00319213,0.00223446,0.00390102,-0.00385108,1.26359,0.0044757,0.00780507,601,1226,-9.84208,-0.992596
-616,-202,-9.87177,1.15747,-0.00105816,0.00130765,0.000731883,0.00151576,-0.00126627,1.29376,0.00160836,0.00803605,608,1226,-9.87176,-1.15749
-609,-202,-9.86353,1.27966,0.000163406,0.000820187,-0.00111022,0.00164957,-0.000665975,-0.929192,0.0013765,0.0199462,615,1226,-9.86353,-1.27962
-602,-202,-9.89301,1.46387,0.000381271,-7.18873e-05,-0.00195774,0.0021255,-0.00181611,-0.727787,0.00227802,0.0204446,622,1226,-9.89302,-1.46385
-595,-202,-9.91229,1.62366,0.000120476,-0.00113984,-0.00237582,0.00194829,-0.00296765,-0.655765,0.00285849,0.0146873,629,1226,-9.91232,-1.62367
-588,-202,-9.86578,1.79053,-0.000104556,-0.00186273,-0.00296222,0.00210627,-0.00407355,-0.641155,0.00362768,0.00731024,636,1226,-9.86579,-1.79047
-581,-202,-9.85944,1.89648,-0.000333024,-0.00203899,-0.00341439,0.00233332,-0.00470533,-0.662993,0.00413997,0.0109195,643,1226,-9.85946,-1.89644
-574,-202,-9.91138,1.92004,-0.00015633,-0.00198738,-0.0035765,0.00261996,-0.00476368,-0.660097,0.00432242,0.0187834,650,1226,-9.91137,-1.9201
-567,-202,-9.42365,1.42065,0,0,0,0,0,0,0,-1,657,1226,-9.42366,-1.42064
-560,-202,-9.89813,2.15198,0,0,0,0,0,0,0,-1,664,1226,-9.89814,-2.15196
-553,-202,-12.8832,1.50427,0,0,0,0,0,0,0,-1,671,1226,-12.8832,-1.50433
-546,-202,-12.5613,0.993286,0.00065717,-0.00130712,-0.00323675,0.0030575,-0.00370745,-0.638095,0.00391175,0.0450743,678,1226,-12.5613,-0.993262
-539,-202,-12.3149,0.523804,0.000723486,-0.000797252,-0.00289695,0.0029582,-0.00303196,-0.657057,0.00345851,0.0390193,685,1226,-12.3149,-0.523816
-532,-202,-12.2672,0.428467,0.000738032,-0.00019449,-0.00232023,0.00263839,-0.00209485,-0.686242,0.00273873,0.0297989,692,1226,-12.2672,-0.428522
-525,-202,-12.1323,0.247314,0.000778733,0.000412304,-0.00131427,0.0019225,-0.00073146,-0.716143,0.00158286,0.0368598,699,1226,-12.1323,-0.247276
-518,-202,-12.1194,0.179565,0.00103312,0.000619686,0.000158167,0.00108669,0.000566117,0.326558,0.000627585,0.0434113,706,1226,-12.1195,-0.179565
-511,-202,-12.0938,0.168213,0.00153458,-0.000277712,0.00178441,0.00262974,-0.00137287,0.55046,0.00234858,0.0439543,713,1226,-12.0938,-0.168224
-504,-202,0,0,0,0,0,0,0,0,0,-1,720,1226,0,0
-497,-202,0,0,0,0,0,0,0,0,0,-1,727,1226,0,0
-490,-202,0,0,0,0,0,0,0,0,0,-1,734,1226,0,0
-483,-202,0,0,0,0,0,0,0,0,0,-1,741,1226,0,0
-476,-202,0,0,0,0,0,0,0,0,0,-1,748,1226,0,0
-469,-202,0,0,0,0,0,0,0,0,0,-1,755,1226,0,0
-462,-202,0,0,0,0,0,0,0,0,0,-1,762,1226,0,0
-455,-202,0,0,0,0,0,0,0,0,0,-1,769,1226,0,0
-448,-202,0,0,0,0,0,0,0,0,0,-1,776,1226,0,0
-441,-202,0,0,0,0,0,0,0,0,0,-1,783,1226,0,0
-434,-202,0,0,0,0,0,0,0,0,0,-1,790,1226,0,0
-427,-202,0,0,0,0,0,0,0,0,0,-1,797,1226,0,0
-420,-202,0,0,0,0,0,0,0,0,0,-1,804,1226,0,0
-413,-202,0,0,0,0,0,0,0,0,0,-1,811,1226,0,0
-406,-202,0,0,0,0,0,0,0,0,0,-1,818,1226,0,0
-399,-202,0,0,0,0,0,0,0,0,0,-1,825,1226,0,0
-392,-202,0,0,0,0,0,0,0,0,0,-1,832,1226,0,0
-385,-202,0,0,0,0,0,0,0,0,0,-1,839,1226,0,0
-378,-202,0,0,0,0,0,0,0,0,0,-1,846,1226,0,0
-371,-202,0,0,0,0,0,0,0,0,0,-1,853,1226,0,0
-364,-202,0,0,0,0,0,0,0,0,0,-1,860,1226,0,0
-357,-202,0,0,0,0,0,0,0,0,0,-1,867,1226,0,0
-350,-202,0,0,0,0,0,0,0,0,0,-1,874,1226,0,0
-343,-202,0,0,0,0,0,0,0,0,0,-1,881,1226,0,0
-336,-202,0,0,0,0,0,0,0,0,0,-1,888,1226,0,0
-329,-202,0,0,0,0,0,0,0,0,0,-1,895,1226,0,0
-322,-202,0,0,0,0,0,0,0,0,0,-1,902,1226,0,0
-315,-202,0,0,0,0,0,0,0,0,0,-1,909,1226,0,0
-308,-202,0,0,0,0,0,0,0,0,0,-1,916,1226,0,0
-301,-202,0,0,0,0,0,0,0,0,0,-1,923,1226,0,0
-294,-202,0,0,0,0,0,0,0,0,0,-1,930,1226,0,0
-287,-202,0,0,0,0,0,0,0,0,0,-1,937,1226,0,0
-280,-202,0,0,0,0,0,0,0,0,0,-1,944,1226,0,0
-273,-202,0,0,0,0,0,0,0,0,0,-1,951,1226,0,0
-266,-202,0,0,0,0,0,0,0,0,0,-1,958,1226,0,0
-259,-202,0,0,0,0,0,0,0,0,0,-1,965,1226,0,0
-252,-202,0,0,0,0,0,0,0,0,0,-1,972,1226,0,0
-245,-202,0,0,0,0,0,0,0,0,0,-1,979,1226,0,0
-238,-202,0,0,0,0,0,0,0,0,0,-1,986,1226,0,0
-231,-202,0,0,0,0,0,0,0,0,0,-1,993,1226,0,0
-224,-202,0,0,0,0,0,0,0,0,0,-1,1000,1226,0,0
-217,-202,0,0,0,0,0,0,0,0,0,-1,1007,1226,0,0
-210,-202,0,0,0,0,0,0,0,0,0,-1,1014,1226,0,0
-203,-202,0,0,0,0,0,0,0,0,0,-1,1021,1226,0,0
-196,-202,0,0,0,0,0,0,0,0,0,-1,1028,1226,0,0
-189,-202,0,0,0,0,0,0,0,0,0,-1,1035,1226,0,0
-182,-202,0,0,0,0,0,0,0,0,0,-1,1042,1226,0,0
-175,-202,0,0,0,0,0,0,0,0,0,-1,1049,1226,0,0
-168,-202,0,0,0,0,0,0,0,0,0,-1,1056,1226,0,0
-161,-202,0,0,0,0,0,0,0,0,0,-1,1063,1226,0,0
-154,-202,0,0,0,0,0,0,0,0,0,-1,1070,1226,0,0
-147,-202,0,0,0,0,0,0,0,0,0,-1,1077,1226,0,0
-140,-202,0,0,0,0,0,0,0,0,0,-1,1084,1226,0,0
-133,-202,0,0,0,0,0,0,0,0,0,-1,1091,1226,0,0
-126,-202,0,0,0,0,0,0,0,0,0,-1,1098,1226,0,0
-119,-202,0,0,0,0,0,0,0,0,0,-1,1105,1226,0,0
-112,-202,0,0,0,0,0,0,0,0,0,-1,1112,1226,0,0
-105,-202,0,0,0,0,0,0,0,0,0,-1,1119,1226,0,0
-98,-202,0,0,0,0,0,0,0,0,0,-1,1126,1226,0,0
-91,-202,0,0,0,0,0,0,0,0,0,-1,1133,1226,0,0
-84,-202,0,0,0,0,0,0,0,0,0,-1,1140,1226,0,0
-77,-202,0,0,0,0,0,0,0,0,0,-1,1147,1226,0,0
-70,-202,0,0,0,0,0,0,0,0,0,-1,1154,1226,0,0
-63,-202,0,0,0,0,0,0,0,0,0,-1,1161,1226,0,0
-56,-202,0,0,0,0,0,0,0,0,0,-1,1168,1226,0,0
-49,-202,0,0,0,0,0,0,0,0,0,-1,1175,1226,0,0
-42,-202,0,0,0,0,0,0,0,0,0,-1,1182,1226,0,0
-35,-202,0,0,0,0,0,0,0,0,0,-1,1189,1226,0,0
-28,-202,0,0,0,0,0,0,0,0,0,-1,1196,1226,0,0
-21,-202,0,0,0,0,0,0,0,0,0,-1,1203,1226,0,0
-14,-202,0,0,0,0,0,0,0,0,0,-1,1210,1226,0,0
-7,-202,0,0,0,0,0,0,0,0,0,-1,1217,1226,0,0
0,-202,0,0,0,0,0,0,0,0,0,-1,1224,1226,0,0
7,-202,0,0,0,0,0,0,0,0,0,-1,1231,1226,0,0
14,-202,0,0,0,0,0,0,0,0,0,-1,1238,1226,0,0
21,-202,0,0,0,0,0,0,0,0,0,-1,1245,1226,0,0
28,-202,0,0,0,0,0,0,0,0,0,-1,1252,1226,0,0
35,-202,0,0,0,0,0,0,0,0,0,-1,1259,1226,0,0
42,-202,0,0,0,0,0,0,0,0,0,-1,1266,1226,0,0
49,-202,0,0,0,0,0,0,0,0,0,-1,1273,1226,0,0
56,-202,0,0,0,0,0,0,0,0,0,-1,1280,1226,0,0
63,-202,0,0,0,0,0,0,0,0,0,-1,1287,1226,0,0
70,-202,0,0,0,0,0,0,0,0,0,-1,1294,1226,0,0
77,-202,0,0,0,0,0,0,0,0,0,-1,1301,1226,0,0
84,-202,0,0,0,0,0,0,0,0,0,-1,1308,1226,0,0
91,-202,0,0,0,0,0,0,0,0,0,-1,1315,1226,0,0
98,-202,0,0,0,0,0,0,0,0,0,-1,1322,1226,0,0
105,-202,0,0,0,0,0,0,0,0,0,-1,1329,1226,0,0
112,-202,0,0,0,0,0,0,0,0,0,-1,1336,1226,0,0
119,-202,0,0,0,0,0,0,0,0,0,-1,1343,1226,0,0
126,-202,0,0,0,0,0,0,0,0,0,-1,1350,1226,0,0
133,-202,0,0,0,0,0,0,0,0,0,-1,1357,1226,0,0
140,-202,0,0,0,0,0,0,0,0,0,-1,1364,1226,0,0
147,-202,0,0,0,0,0,0,0,0,0,-1,1371,1226,0,0
154,-202,0,0,0,0,0,0,0,0,0,-1,1378,1226,0,0
161,-202,0,0,0,0,0,0,0,0,0,-1,1385,1226,0,0
168,-202,0,0,0,0,0,0,0,0,0,-1,1392,1226,0,0
175,-202,0,0,0,0,0,0,0,0,0,-1,1399,1226,0,0
182,-202,0,0,0,0,0,0,0,0,0,-1,1406,1226,0,0
189,-202,0,0,0,0,0,0,0,0,0,-1,1413,1226,0,0
196,-202,0,0,0,0,0,0,0,0,0,-1,1420,1226,0,0
203,-202,0,0,0,0,0,0,0,0,0,-1,1427,1226,0,0
210,-202,0,0,0,0,0,0,0,0,0,-1,1434,1226,0,0
217,-202,0,0,0,0,0,0,0,0,0,-1,1441,1226,0,0
224,-202,0,0,0,0,0,0,0,0,0,-1,1448,1226,0,0
231,-202,0,0,0,0,0,0,0,0,0,-1,1455,1226,0,0
238,-202,0,0,0,0,0,0,0,0,0,-1,1462,1226,0,0
245,-202,0,0,0,0,0,0,0,0,0,-1,1469,1226,0,0
252,-202,0,0,0,0,0,0,0,0,0,-1,1476,1226,0,0
259,-202,0,0,0,0,0,0,0,0,0,-1,1483,1226,0,0
266,-202,0,0,0,0,0,0,0,0,0,-1,1490,1226,0,0
273,-202,0,0,0,0,0,0,0,0,0,-1,1497,1226,0,0
280,-202,0,0,0,0,0,0,0,0,0,-1,1504,1226,0,0
287,-202,0,0,0,0,0,0,0,0,0,-1,1511,1226,0,0
294,-202,0,0,0,0,0,0,0,0,0,-1,1518,1226,0,0
301,-202,0,0,0,0,0,0,0,0,0,-1,1525,1226,0,0
308,-202,0,0,0,0,0,0,0,0,0,-1,1532,1226,0,0
315,-202,0,0,0,0,0,0,0,0,0,-1,1539,1226,0,0
322,-202,0,0,0,0,0,0,0,0,0,-1,1546,1226,0,0
329,-202,0,0,0,0,0,0,0,0,0,-1,1553,1226,0,0
336,-202,0,0,0,0,0,0,0,0,0,-1,1560,1226,0,0
343,-202,0,0,0,0,0,0,0,0,0,-1,1567,1226,0,0
350,-202,0,0,0,0,0,0,0,0,0,-1,1574,1226,0,0
357,-202,0,0,0,0,0,0,0,0,0,-1,1581,1226,0,0
364,-202,0,0,0,0,0,0,0,0,0,-1,1588,1226,0,0
371,-202,0,0,0,0,0,0,0,0,0,-1,1595,1226,0,0
378,-202,0,0,0,0,0,0,0,0,0,-1,1602,1226,0,0
385,-202,0,0,0,0,0,0,0,0,0,-1,1609,1226,0,0
392,-202,0,0,0,0,0,0,0,0,0,-1,1616,1226,0,0
399,-202,0,0,0,0,0,0,0,0,0,-1,1623,1226,0,0
406,-202,0,0,0,0,0,0,0,0,0,-1,1630,1226,0,0
413,-202,0,0,0,0,0,0,0,0,0,-1,1637,1226,0,0
420,-202,0,0,0,0,0,0,0,0,0,-1,1644,1226,0,0
427,-202,0,0,0,0,0,0,0,0,0,-1,1651,1226,0,0
434,-202,0,0,0,0,0,0,0,0,0,-1,1658,1226,0,0
441,-202,0,0,0,0,0,0,0,0,0,-1,1665,1226,0,0
448,-202,0,0,0,0,0,0,0,0,0,-1,1672,1226,0,0
455,-202,0,0,0,0,0,0,0,0,0,-1,1679,1226,0,0
462,-202,0,0,0,0,0,0,0,0,0,-1,1686,1226,0,0
469,-202,0,0,0,0,0,0,0,0,0,-1,1693,1226,0,0
476,-202,0,0,0,0,0,0,0,0,0,-1,1700,1226,0,0
483,-202,0,0,0,0,0,0,0,0,0,-1,1707,1226,0,0
490,-202,0,0,0,0,0,0,0,0,0,-1,1714,1226,0,0
497,-202,0,0,0,0,0,0,0,0,0,-1,1721,1226,0,0
504,-202,0,0,0,0,0,0,0,0,0,-1,1728,1226,0,0
511,-202,0,0,0,0,0,0,0,0,0,-1,1735,1226,0,0
518,-202,0,0,0,0,0,0,0,0,0,-1,1742,1226,0,0
525,-202,0,0,0,0,0,0,0,0,0,-1,1749,1226,0,0
532,-202,0,0,0,0,0,0,0,0,0,-1,1756,1226,0,0
539,-202,0,0,0,0,0,0,0,0,0,-1,1763,1226,0,0
546,-202,0,0,0,0,0,0,0,0,0,-1,1770,1226,0,0
553,-202,0,0,0,0,0,0,0,0,0,-1,1777,1226,0,0
560,-202,0,0,0,0,0,0,0,0,0,-1,1784,1226,0,0
567,-202,0,0,0,0,0,0,0,0,0,-1,1791,1226,0,0
574,-202,0,0,0,0,0,0,0,0,0,-1,1798,1226,0,0
581,-202,0,0,0,0,0,0,0,0,0,-1,1805,1226,0,0
588,-202,0,0,0,0,0,0,0,0,0,-1,1812,1226,0,0
595,-202,0,0,0,0,0,0,0,0,0,-1,1819,1226,0,0
602,-202,0,0,0,0,0,0,0,0,0,-1,1826,1226,0,0
609,-202,0,0,0,0,0,0,0,0,0,-1,1833,1226,0,0
616,-202,0,0,0,0,0,0,0,0,0,-1,1840,1226,0,0
623,-202,0,0,0,0,0,0,0,0,0,-1,1847,1226,0,0
630,-202,19.3823,2.42651,-0.0028366,-0.00246446,-0.00175751,-0.000883195,-0.00441786,-0.838138,0.00269944,0.0398381,1854,1226,19.3823,-2.42657
637,-202,19.297,2.30237,-0.00171397,0.000825056,-0.0015635,0.00156955,-0.00245846,-1.1264,0.00234437,0.0381209,1861,1226,19.297,-2.3024
644,-202,19.2722,2.26514,-0.00117453,0.00326339,-0.0010438,0.00349663,-0.00140777,-1.35095,0.00291591,0.0340219,1868,1226,19.2723,-2.2651
651,-202,19.3114,2.3606,-0.00104732,0.00469973,-0.000394548,0.00472669,-0.00107428,-1.50257,0.00356361,0.0258187,1875,1226,19.3114,-2.36063
658,-202,19.2958,2.37183,-0.00111579,0.00513243,0.000273199,0.00514436,-0.00112771,1.52718,0.00386077,0.0223078,1882,1226,19.2957,-2.3718
665,-202,19.3409,2.36414,-0.00127448,0.00497034,0.000833234,0.0050796,-0.00138374,1.44041,0.00392971,0.0216635,1889,1226,19.3409,-2.36415
672,-202,19.4091,2.24731,-0.00153521,0.00443017,0.00127122,0.00468977,-0.0017948,1.36935,0.00386623,0.0439993,1896,1226,19.409,-2.24726
679,-202,17.6274,4.58411,0,0,0,0,0,0,0,-1,1903,1226,17.6274,-4.58408
686,-202,17.2903,4.93298,0,0,0,0,0,0,0,-1,1910,1226,17.2902,-4.93293
693,-202,17.0682,4.4834,0,0,0,0,0,0,0,-1,1917,1226,17.0683,-4.48342
700,-202,17.0536,4.35974,-0.00222779,0.0015912,0.00225125,0.0026337,-0.00327029,1.13712,0.00341527,0.0237841,1924,1226,17.0536,-4.3598
707,-202,17.072,4.18921,-0.00234121,0.000849666,0.00220466,0.00197561,-0.00346715,1.09862,0.00318147,0.0197374,1931,1226,17.072,-4.18919
714,-202,17.106,4.09778,-0.00249777,0.000139335,0.00207328,0.00127783,-0.00363626,1.06862,0.00294405,0.0139086,1938,1226,17.106,-4.09779
721,-202,17.1113,3.99768,-0.00194186,-0.0004299,0.0017372,0.000708685,-0.00308045,0.990626,0.00232613,0.0118053,1945,1226,17.1114,-3.99772
728,-202,17.0912,3.85767,-0.000514983,-0.000654817,0.00111586,0.000533144,-0.00170294,0.75411,0.00134861,0.0104116,1952,1226,17.0911,-3.85769
735,-202,17.0775,3.73303,0.0011958,-0.00042067,0.000834595,0.00154937,-0.000774241,0.400722,0.00136619,0.0105668,1959,1226,17.0775,-3.73299
742,-202,17.0896,3.6051,0.00348176,-0.000155279,0.000712141,0.00361623,-0.000289746,0.186624,0.00251298,0.00974205,1966,1226,17.0896,-3.60513
749,-202,17.1016,3.48193,0.00682088,0.000245493,0.000884581,0.0069378,0.00012857,0.131417,0.00458295,0.00940132,1973,1226,17.1015,-3.48188
756,-202,17.0887,3.34485,0.0118656,0.00139419,0.00233285,0.0123618,0.000897983,0.209579,0.00795879,0.00996612,1980,1226,17.0888,-3.3448
763,-202,17.0621,3.17883,0.0174814,0.00224802,0.00424863,0.0185863,0.0011432,0.254407,0.0120279,0.0151502,1987,1226,17.0622,-3.17883
770,-202,17.0713,2.91565,0.0249873,0.00342318,0.00763541,0.0274171,0.000993415,0.30809,0.0179561,0.0404395,1994,1226,17.0713,-2.91564
777,-202,18.5449,2.48975,0.0348757,0.00517519,0.0131213,0.0398421,0.000208804,0.361833,0.0264921,0.0465664,2001,1226,18.5449,-2.48971
784,-202,19.0437,2.3252,0.0477874,0.00786034,0.0216153,0.0572477,-0.0016,0.412552,0.0387095,0.0495348,2008,1226,19.0437,-2.32519
791,-202,19.0637,2.31665,0.0647076,0.0120585,0.0342922,0.0816143,-0.00484813,0.458046,0.0560954,0.0498871,2015,1226,19.0637,-2.31668
798,-202,19.0621,2.28857,0,0,0,0,0,0,0,-1,2022,1226,19.0622,-2.28858
805,-202,0,0,0,0,0,0,0,0,0,-1,2029,1226,0,0
812,-202,0,0,0,0,0,0,0,0,0,-1,2036,1226,0,0
-700,-209,0,0,0,0,0,0,0,0,0,-1,524,1233,0,0
-693,-209,0,0,0,0,0,0,0,0,0,-1,531,1233,0,0
-686,-209,0,0,0,0,0,0,0,0,0,-1,538,1233,0,0
-679,-209,-7.30475,-1.09937,-0.0582728,0.0436153,-0.00062096,0.0436191,-0.0582766,-1.5647,0.059032,0.049313,545,1233,-7.30472,1.09938
-672,-209,-7.97815,-0.826904,-0.0471352,0.0340887,0.00389179,0.0342748,-0.0473212,1.52303,0.0473098,0.0483614,552,1233,-7.97814,0.826866
-665,-209,-8.59906,-0.558594,-0.0367322,0.0266198,0.00562664,0.0271157,-0.0372281,1.4829,0.0373015,0.0442848,559,1233,-8.59906,0.558599
-658,-209,-9.21637,-0.249146,-0.0274588,0.0207113,0.00579221,0.0213979,-0.0281455,1.45279,0.0286922,0.0485352,566,1233,-9.21637,0.249178
-651,-209,-10.3395,0.0255127,-0.0195206,0.0159956,0.00512097,0.0167192,-0.0202442,1.43042,0.0213732,0.0449694,573,1233,-10.3396,-0.025459
-644,-209,-9.78455,0.285034,-0.0129945,0.0122109,0.00406071,0.0128489,-0.0136326,1.41494,0.0152914,0.0473245,580,1233,-9.78454,-0.285031
-637,-209,-9.60345,0.518677,-0.00789258,0.00917149,0.00290765,0.00965334,-0.00837442,1.40657,0.0104171,0.0432449,587,1233,-9.60344,-0.518672
-630,-209,-9.625,0.755249,-0.00425449,0.00666753,0.00214206,0.00707261,-0.00465957,1.38389,0.00682117,0.0218524,594,1233,-9.62502,-0.755213
-623,-209,-9.66858,0.967896,-0.00150366,0.00395082,0.00190349,0.0045494,-0.00210224,1.26612,0.00392601,0.0106271,601,1233,-9.66859,-0.967895
-616,-209,-9.69574,1.13989,0.000714527,0.00210676,0.000301606,0.00216929,0.000651997,1.36637,0.00128522,0.0115012,608,1233,-9.69571,-1.13984
-609,-209,-9.72217,1.30176,0.0019236,0.00151965,-0.00131988,0.00305687,0.000386376,-0.709474,0.00192211,0.0141819,615,1233,-9.72216,-1.30177
-602,-209,-9.72083,1.47144,0.0021808,0.000529251,-0.00190738,0.00343349,-0.000723437,-0.581111,0.00256438,0.0159454,622,1233,-9.72085,-1.47148
-595,-209,-9.69739,1.61597,0.00196707,-0.000669298,-0.00204743,0.00308396,-0.00178619,-0.499388,0.00284486,0.0111798,629,1233,-9.69739,-1.61602
-588,-209,-9.67694,1.78369,0.00170549,-0.00143688,-0.00240501,0.00300706,-0.00273845,-0.496054,0.00331838,0.0117333,636,1233,-9.67693,-1.78373
-581,-209,-9.65497,1.95264,0.00134198,-0.0015881,-0.00275575,0.00299792,-0.00324404,-0.541083,0.00360473,0.0125634,643,1233,-9.65499,-1.95267
-574,-209,-9.75592,2.0531,0.00133355,-0.00152878,-0.0028878,0.00312537,-0.0033206,-0.555342,0.00372215,0.0169694,650,1233,-9.75593,-2.05315
-567,-209,-9.90094,2.28552,0.00158979,-0.00132919,-0.00290585,0.00338208,-0.00312148,-0.552671,0.00375584,0.0365116,657,1233,-9.90097,-2.28555
-560,-209,-10.0643,2.64331,0,0,0,0,0,0,0,-1,664,1233,-10.0642,-2.64334
-553,-209,-13.2117,1.62598,0,0,0,0,0,0,0,-1,671,1233,-13.2117,-1.62598
-546,-209,-13.0436,1.17944,0,0,0,0,0,0,0,-1,678,1233,-13.0436,-1.17946
-539,-209,-12.3326,0.531738,0,0,0,0,0,0,0,-1,685,1233,-12.3327,-0.531714
-532,-209,-12.238,0.429932,0.000334993,0.00152459,-0.00291373,0.00390361,-0.00204404,-0.886083,0.00348937,0.0309112,692,1233,-12.238,-0.429921
-525,-209,-12.2749,0.515991,-0.000554418,0.00257593,-0.00249204,0.00395355,-0.00193204,-1.0658,0.00346422,0.0319402,699,1233,-12.2749,-0.515948
-518,-209,-12.3399,0.540161,-0.00166185,0.00346593,-0.00168709,0.00397121,-0.00216713,-1.2798,0.00359463,0.0414588,706,1233,-12.3399,-0.540209
-511,-209,-12.4408,0.505615,-0.00274912,0.00351252,-0.000471759,0.00354786,-0.00278447,-1.49602,0.00366481,0.0442546,713,1233,-12.4408,-0.505585
-504,-209,0,0,0,0,0,0,0,0,0,-1,720,1233,0,0
-497,-209,0,0,0,0,0,0,0,0,0,-1,727,1233,0,0
-490,-209,0,0,0,0,0,0,0,0,0,-1,734,1233,0,0
-483,-209,0,0,0,0,0,0,0,0,0,-1,741,1233,0,0
-476,-209,0,0,0,0,0,0,0,0,0,-1,748,1233,0,0
-469,-209,0,0,0,0,0,0,0,0,0,-1,755,1233,0,0
-462,-209,0,0,0,0,0,0,0,0,0,-1,762,1233,0,0
-455,-209,0,0,0,0,0,0,0,0,0,-1,769,1233,0,0
-448,-209,0,0,0,0,0,0,0,0,0,-1,776,1233,0,0
-441,-209,0,0,0,0,0,0,0,0,0,-1,783,1233,0,0
-434,-209,0,0,0,0,0,0,0,0,0,-1,790,1233,0,0
-427,-209,0,0,0,0,0,0,0,0,0,-1,797,1233,0,0
-420,-209,0,0,0,0,0,0,0,0,0,-1,804,1233,0,0
-413,-209,0,0,0,0,0,0,0,0,0,-1,811,1233,0,0
-406,-209,0,0,0,0,0,0,0,0,0,-1,818,1233,0,0
-399,-209,0,0,0,0,0,0,0,0,0,-1,825,1233,0,0
-392,-209,0,0,0,0,0,0,0,0,0,-1,832,1233,0,0
-385,-209,0,0,0,0,0,0,0,0,0,-1,839,1233,0,0
-378,-209,0,0,0,0,0,0,0,0,0,-1,846,1233,0,0
-371,-209,0,0,0,0,0,0,0,0,0,-1,853,1233,0,0
-364,-209,0,0,0,0,0,0,0,0,0,-1,860,1233,0,0
-357,-209,0,0,0,0,0,0,0,0,0,-1,867,1233,0,0
-350,-209,0,0,0,0,0,0,0,0,0,-1,874,1233,0,0
-343,-209,0,0,0,0,0,0,0,0,0,-1,881,1233,0,0
-336,-209,0,0,0,0,0,0,0,0,0,-1,888,1233,0,0
-329,-209,0,0,0,0,0,0,0,0,0,-1,895,1233,0,0
-322,-209,0,0,0,0,0,0,0,0,0,-1,902,1233,0,0
-315,-209,0,0,0,0,0,0,0,0,0,-1,909,1233,0,0
-308,-209,0,0,0,0,0,0,0,0,0,-1,916,1233,0,0
-301,-209,0,0,0,0,0,0,0,0,0,-1,923,1233,0,0
-294,-209,0,0,0,0,0,0,0,0,0,-1,930,1233,0,0
-287,-209,0,0,0,0,0,0,0,0,0,-1,937,1233,0,0
-280,-209,0,0,0,0,0,0,0,0,0,-1,944,1233,0,0
-273,-209,0,0,0,0,0,0,0,0,0,-1,951,1233,0,0
-266,-209,0,0,0,0,0,0,0,0,0,-1,958,1233,0,0
-259,-209,0,0,0,0,0,0,0,0,0,-1,965,1233,0,0
-252,-209,0,0,0,0,0,0,0,0,0,-1,972,1233,0,0
-245,-209,0,0,0,0,0,0,0,0,0,-1,979,1233,0,0
-238,-209,0,0,0,0,0,0,0,0,0,-1,986,1233,0,0
-231,-209,0,0,0,0,0,0,0,0,0,-1,993,1233,0,0
-224,-209,0,0,0,0,0,0,0,0,0,-1,1000,1233,0,0
-217,-209,0,0,0,0,0,0,0,0,0,-1,1007,1233,0,0
-210,-209,0,0,0,0,0,0,0,0,0,-1,1014,1233,0,0
-203,-209,0,0,0,0,0,0,0,0,0,-1,1021,1233,0,0
-196,-209,0,0,0,0,0,0,0,0,0,-1,1028,1233,0,0
-189,-209,0,0,0,0,0,0,0,0,0,-1,1035,1233,0,0
-182,-209,0,0,0,0,0,0,0,0,0,-1,1042,1233,0,0
-175,-209,0,0,0,0,0,0,0,0,0,-1,1049,1233,0,0
-168,-209,0,0,0,0,0,0,0,0,0,-1,1056,1233,0,0
-161,-209,0,0,0,0,0,0,0,0,0,-1,1063,1233,0,0
-154,-209,0,0,0,0,0,0,0,0,0,-1,1070,1233,0,0
-147,-209,0,0,0,0,0,0,0,0,0,-1,1077,1233,0,0
-140,-209,0,0,0,0,0,0,0,0,0,-1,1084,1233,0,0
-133,-209,0,0,0,0,0,0,0,0,0,-1,1091,1233,0,0
-126,-209,0,0,0,0,0,0,0,0,0,-1,1098,1233,0,0
-119,-209,0,0,0,0,0,0,0,0,0,-1,1105,1233,0,0
-112,-209,0,0,0,0,0,0,0,0,0,-1,1112,1233,0,0
-105,-209,0,0,0,0,0,0,0,0,0,-1,1119,1233,0,0
-98,-209,0,0,0,0,0,0,0,0,0,-1,1126,1233,0,0
-91,-209,0,0,0,0,0,0,0,0,0,-1,1133,1233,0,0
-84,-209,0,0,0,0,0,0,0,0,0,-1,1140,1233,0,0
-77,-209,0,0,0,0,0,0,0,0,0,-1,1147,1233,0,0
-70,-209,0,0,0,0,0,0,0,0,0,-1,1154,1233,0,0
-63,-209,0,0,0,0,0,0,0,0,0,-1,1161,1233,0,0
-56,-209,0,0,0,0,0,0,0,0,0,-1,1168,1233,0,0
-49,-209,0,0,0,0,0,0,0,0,0,-1,1175,1233,0,0
-42,-209,0,0,0,0,0,0,0,0,0,-1,1182,1233,0,0
-35,-209,0,0,0,0,0,0,0,0,0,-1,1189,1233,0,0
-28,-209,0,0,0,0,0,0,0,0,0,-1,1196,1233,0,0
-21,-209,0,0,0,0,0,0,0,0,0,-1,1203,1233,0,0
-14,-209,0,0,0,0,0,0,0,0,0,-1,1210,1233,0,0
-7,-209,0,0,0,0,0,0,0,0,0,-1,1217,1233,0,0
0,-209,0,0,0,0,0,0,0,0,0,-1,1224,1233,0,0
7,-209,0,0,0,0,0,0,0,0,0,-1,1231,1233,0,0
14,-209,0,0,0,0,0,0,0,0,0,-1,1238,1233,0,0
21,-209,0,0,0,0,0,0,0,0,0,-1,1245,1233,0,0
28,-209,0,0,0,0,0,0,0,0,0,-1,1252,1233,0,0
35,-209,0,0,0,0,0,0,0,0,0,-1,1259,1233,0,0
42,-209,0,0,0,0,0,0,0,0,0,-1,1266,1233,0,0
49,-209,0,0,0,0,0,0,0,0,0,-1,1273,1233,0,0
56,-209,0,0,0,0,0,0,0,0,0,-1,1280,1233,0,0
63,-209,0,0,0,0,0,0,0,0,0,-1,1287,1233,0,0
70,-209,0,0,0,0,0,0,0,0,0,-1,1294,1233,0,0
77,-209,0,0,0,0,0,0,0,0,0,-1,1301,1233,0,0
84,-209,0,0,0,0,0,0,0,0,0,-1,1308,1233,0,0
91,-209,0,0,0,0,0,0,0,0,0,-1,1315,1233,0,0
98,-209,0,0,0,0,0,0,0,0,0,-1,1322,1233,0,0
105,-209,0,0,0,0,0,0,0,0,0,-1,1329,1233,0,0
112,-209,0,0,0,0,0,0,0,0,0,-1,1336,1233,0,0
119,-209,0,0,0,0,0,0,0,0,0,-1,1343,1233,0,0
126,-209,0,0,0,0,0,0,0,0,0,-1,1350,1233,0,0
133,-209,0,0,0,0,0,0,0,0,0,-1,1357,1233,0,0
140,-209,0,0,0,0,0,0,0,0,0,-1,1364,1233,0,0
147,-209,0,0,0,0,0,0,0,0,0,-1,1371,1233,0,0
154,-209,0,0,0,0,0,0,0,0,0,-1,1378,1233,0,0
161,-209,0,0,0,0,0,0,0,0,0,-1,1385,1233,0,0
168,-209,0,0,0,0,0,0,0,0,0,-1,1392,1233,0,0
175,-209,0,0,0,0,0,0,0,0,0,-1,1399,1233,0,0
182,-209,0,0,0,0,0,0,0,0,0,-1,1406,1233,0,0
189,-209,0,0,0,0,0,0,0,0,0,-1,1413,1233,0,0
196,-209,0,0,0,0,0,0,0,0,0,-1,1420,1233,0,0
203,-209,0,0,0,0,0,0,0,0,0,-1,1427,1233,0,0
210,-209,0,0,0,0,0,0,0,0,0,-1,1434,1233,0,0
217,-209,0,0,0,0,0,0,0,0,0,-1,1441,1233,0,0
224,-209,0,0,0,0,0,0,0,0,0,-1,1448,1233,0,0
231,-209,0,0,0,0,0,0,0,0,0,-1,1455,1233,0,0
238,-209,0,0,0,0,0,0,0,0,0,-1,1462,1233,0,0
245,-209,0,0,0,0,0,0,0,0,0,-1,1469,1233,0,0
252,-209,0,0,0,0,0,0,0,0,0,-1,1476,1233,0,0
259,-209,0,0,0,0,0,0,0,0,0,-1,1483,1233,0,0
266,-209,0,0,0,0,0,0,0,0,0,-1,1490,1233,0,0
273,-209,0,0,0,0,0,0,0,0,0,-1,1497,1233,0,0
280,-209,0,0,0,0,0,0,0,0,0,-1,1504,1233,0,0
287,-209,0,0,0,0,0,0,0,0,0,-1,1511,1233,0,0
294,-209,0,0,0,0,0,0,0,0,0,-1,1518,1233,0,0
301,-209,0,0,0,0,0,0,0,0,0,-1,1525,1233,0,0
308,-209,0,0,0,0,0,0,0,0,0,-1,1532,1233,0,0
315,-209,0,0,0,0,0,0,0,0,0,-1,1539,1233,0,0
322,-209,0,0,0,0,0,0,0,0,0,-1,1546,1233,0,0
329,-209,0,0,0,0,0,0,0,0,0,-1,1553,1233,0,0
336,-209,0,0,0,0,0,0,0,0,0,-1,1560,1233,0,0
343,-209,0,0,0,0,0,0,0,0,0,-1,1567,1233,0,0
350,-209,0,0,0,0,0,0,0,0,0,-1,1574,1233,0,0
357,-209,0,0,0,0,0,0,0,0,0,-1,1581,1233,0,0
364,-209,0,0,0,0,0,0,0,0,0,-1,1588,1233,0,0
371,-209,0,0,0,0,0,0,0,0,0,-1,1595,1233,0,0
378,-209,0,0,0,0,0,0,0,0,0,-1,1602,1233,0,0
385,-209,0,0,0,0,0,0,0,0,0,-1,1609,1233,0,0
392,-209,0,0,0,0,0,0,0,0,0,-1,1616,1233,0,0
399,-209,0,0,0,0,0,0,0,0,0,-1,1623,1233,0,0
406,-209,0,0,0,0,0,0,0,0,0,-1,1630,1233,0,0
413,-209,0,0,0,0,0,0,0,0,0,-1,1637,1233,0,0
420,-209,0,0,0,0,0,0,0,0,0,-1,1644,1233,0,0
427,-209,0,0,0,0,0,0,0,0,0,-1,1651,1233,0,0
434,-209,0,0,0,0,0,0,0,0,0,-1,1658,1233,0,0
441,-209,0,0,0,0,0,0,0,0,0,-1,1665,1233,0,0
448,-209,0,0,0,0,0,0,0,0,0,-1,1672,1233,0,0
455,-209,0,0,0,0,0,0,0,0,0,-1,1679,1233,0,0
462,-209,0,0,0,0,0,0,0,0,0,-1,1686,1233,0,0
469,-209,0,0,0,0,0,0,0,0,0,-1,1693,1233,0,0
476,-209,0,0,0,0,0,0,0,0,0,-1,1700,1233,0,0
483,-209,0,0,0,0,0,0,0,0,0,-1,1707,1233,0,0
490,-209,0,0,0,0,0,0,0,0,0,-1,1714,1233,0,0
497,-209,0,0,0,0,0,0,0,0,0,-1,1721,1233,0,0
504,-209,0,0,0,0,0,0,0,0,0,-1,1728,1233,0,0
511,-209,0,0,0,0,0,0,0,0,0,-1,1735,1233,0,0
518,-209,0,0,0,0,0,0,0,0,0,-1,1742,1233,0,0
525,-209,0,0,0,0,0,0,0,0,0,-1,1749,1233,0,0
532,-209,0,0,0,0,0,0,0,0,0,-1,1756,1233,0,0
539,-209,0,0,0,0,0,0,0,0,0,-1,1763,1233,0,0
546,-209,0,0,0,0,0,0,0,0,0,-1,1770,1233,0,0
553,-209,0,0,0,0,0,0,0,0,0,-1,1777,1233,0,0
560,-209,0,0,0,0,0,0,0,0,0,-1,1784,1233,0,0
567,-209,0,0,0,0,0,0,0,0,0,-1,1791,1233,0,0
574,-209,0,0,0,0,0,0,0,0,0,-1,1798,1233,0,0
581,-209,0,0,0,0,0,0,0,0,0,-1,1805,1233,0,0
588,-209,0,0,0,0,0,0,0,0,0,-1,1812,1233,0,0
595,-209,0,0,0,0,0,0,0,0,0,-1,1819,1233,0,0
602,-209,0,0,0,0,0,0,0,0,0,-1,1826,1233,0,0
609,-209,0,0,0,0,0,0,0,0,0,-1,1833,1233,0,0
616,-209,0,0,0,0,0,0,0,0,0,-1,1840,1233,0,0
623,-209,19.395,2.3092,-0.00352407,-0.00511536,-0.00219265,-0.00198717,-0.00665226,-0.611351,0.00394305,0.0339526,1847,1233,19.395,-2.30915
630,-209,19.4446,2.38281,-0.00280803,-0.00159894,-0.00166134,-0.000435565,-0.0039714,-0.959896,0.00251502,0.0369484,1854,1233,19.4445,-2.38275
637,-209,19.3494,2.36963,-0.00194099,0.00200164,-0.00129711,0.00239011,-0.00232946,-1.27981,0.00272492,0.0372708,1861,1233,19.3493,-2.36959
644,-209,19.3196,2.37634,-0.0015928,0.00448772,-0.000627777,0.00455186,-0.00165694,-1.46898,0.00371227,0.0295047,1868,1233,19.3196,-2.3764
651,-209,19.2987,2.38635,-0.00155757,0.00579685,9.28906e-05,0.00579802,-0.00155874,1.55817,0.00447632,0.0225252,1875,1233,19.2987,-2.38632
658,-209,19.2893,2.36841,-0.00158428,0.00616536,0.000722422,0.00623213,-0.00165105,1.47863,0.00480069,0.020857,1882,1233,19.2893,-2.36845
665,-209,19.4021,2.35742,-0.00165849,0.00593191,0.0012207,0.00612339,-0.00184997,1.4152,0.00481878,0.0360816,1889,1233,19.4021,-2.35741
672,-209,19.4063,2.11914,0,0,0,0,0,0,0,-1,1896,1233,19.4062,-2.11916
679,-209,17.6067,4.36072,0,0,0,0,0,0,0,-1,1903,1233,17.6067,-4.36069
686,-209,17.2836,4.63171,-0.00206182,0.00388929,0.00211231,0.00456281,-0.00273535,1.26213,0.0042574,0.0484614,1910,1233,17.2836,-4.63173
693,-209,17.1425,4.57837,-0.00204409,0.00308774,0.00227767,0.00395281,-0.00290916,1.20782,0.00397701,0.0499308,1917,1233,17.1424,-4.57837
700,-209,16.9092,4.43164,-0.00206712,0.00214848,0.00230366,0.00316312,-0.00308177,1.15591,0.00360559,0.0199293,1924,1233,16.9092,-4.43164
707,-209,16.9587,4.22192,-0.00211017,0.00126968,0.0021723,0.00233198,-0.00317247,1.11597,0.00319032,0.0163169,1931,1233,16.9587,-4.22188
714,-209,16.9744,4.1084,-0.00219793,0.000429971,0.0019536,0.00147038,-0.00323834,1.08144,0.00278172,0.0118183,1938,1233,16.9744,-4.10836
721,-209,16.9773,3.99146,-0.00150306,-0.000274742,0.00153476,0.000764177,-0.00254198,0.975724,0.00199869,0.011697,1945,1233,16.9773,-3.99151
728,-209,16.9711,3.87708,3.41346e-05,-0.000657124,0.000873897,0.000628268,-0.00125126,0.597086,0.00110484,0.0116886,1952,1233,16.9711,-3.87707
735,-209,16.9629,3.74426,0.00175887,-0.000512016,0.000617941,0.00191613,-0.000669276,0.249201,0.00154947,0.0126574,1959,1233,16.9628,-3.74428
742,-209,16.9646,3.60693,0.00400957,-0.000345662,0.000564937,0.00408166,-0.000417749,0.126917,0.00287051,0.0105416,1966,1233,16.9646,-3.60692
749,-209,16.9604,3.47571,0.00704956,-0.000161874,0.00067018,0.00711132,-0.000223628,0.0918844,0.00481715,0.00901347,1973,1233,16.9604,-3.47573
756,-209,16.9496,3.34021,0.0114159,0.000553567,0.0019152,0.0117437,0.00022578,0.169508,0.00775498,0.00982242,1980,1233,16.9495,-3.34019
763,-209,16.9219,3.19299,0.0164162,0.00103005,0.00364551,0.0172362,0.00021001,0.221263,0.0114214,0.0165179,1987,1233,16.9219,-3.19303
770,-209,17.1655,2.73462,0.0229879,0.0017306,0.00671181,0.0249298,-0.000211206,0.281623,0.0166907,0.0416589,1994,1233,17.1655,-2.73463
777,-209,17.9181,2.06653,0.0314498,0.00284196,0.0117548,0.0356601,-0.00136836,0.343943,0.0242424,0.044161,2001,1233,17.9181,-2.06657
784,-209,18.5187,2.11218,0.0422934,0.00467003,0.0196987,0.0507199,-0.00375646,0.404213,0.0351324,0.0447006,2008,1233,18.5187,-2.11221
791,-209,18.6683,2.48035,0.056335,0.00773342,0.0318614,0.0721051,-0.00803668,0.459607,0.0509606,0.0432172,2015,1233,18.6683,-2.48031
798,-209,18.548,2.52454,0,0,0,0,0,0,0,-1,2022,1233,18.548,-2.52451
805,-209,0,0,0,0,0,0,0,0,0,-1,2029,1233,0,0
812,-209,0,0,0,0,0,0,0,0,0,-1,2036,1233,0,0
-700,-216,0,0,0,0,0,0,0,0,0,-1,524,1240,0,0
-693,-216,0,0,0,0,0,0,0,0,0,-1,531,1240,0,0
-686,-216,0,0,0,0,0,0,0,0,0,-1,538,1240,0,0
-679,-216,-7.2793,-0.843384,0,0,0,0,0,0,0,-1,545,1240,-7.27927,0.843347
-672,-216,-7.94269,-0.606445,0,0,0,0,0,0,0,-1,552,1240,-7.94268,0.606474
-665,-216,-8.60638,-0.406982,0,0,0,0,0,0,0,-1,559,1240,-8.60639,0.407006
-658,-216,-9.10608,-0.119263,-0.0261573,0.0212961,0.0104436,0.0234929,-0.028354,1.36348,0.0299776,0.0480719,566,1240,-9.1061,0.119284
-651,-216,-9.38953,0.228882,-0.0174919,0.0169107,0.00784722,0.0186161,-0.0191973,1.3568,0.0218324,0.0474158,573,1240,-9.38955,-0.228921
-644,-216,-9.39618,0.391602,-0.0106382,0.0132675,0.0054711,0.0144602,-0.0118308,1.35617,0.0152044,0.0462592,580,1240,-9.3962,-0.391643
-637,-216,-9.48993,0.462036,-0.00549142,0.010226,0.00347214,0.0109589,-0.00622428,1.36278,0.0100454,0.0432141,587,1240,-9.48991,-0.461995
-630,-216,-9.54437,0.694092,-0.00195391,0.00766787,0.00206501,0.00809234,-0.00237838,1.36807,0.00633822,0.026504,594,1240,-9.54435,-0.694148
-623,-216,-9.51019,0.9375,0.000608645,0.00496461,0.00144849,0.0054023,0.000170955,1.27735,0.00354592,0.0122367,601,1240,-9.51021,-0.937439
-616,-216,-9.54028,1.12939,0.0026395,0.00299997,-0.000150681,0.00305466,0.00258481,-1.22264,0.00189929,0.013837,608,1240,-9.54028,-1.12934
-609,-216,-9.56116,1.29517,0.00362029,0.00219943,-0.00149318,0.00456344,0.00125629,-0.563355,0.00272195,0.0139935,615,1240,-9.56113,-1.29519
-602,-216,-9.54907,1.44897,0.00380057,0.00104694,-0.00180331,0.00469257,0.000154934,-0.459356,0.00307804,0.0132328,622,1240,-9.54905,-1.44894
-595,-216,-9.51813,1.59607,0.00357325,-0.000315539,-0.00164729,0.00417723,-0.000919523,-0.351433,0.00313658,0.0168724,629,1240,-9.51812,-1.59606
-588,-216,-9.49957,1.76587,0.00324779,-0.00116272,-0.0017281,0.00384423,-0.00175916,-0.33234,0.00330893,0.0184634,636,1240,-9.49959,-1.76588
-581,-216,-9.48938,1.98608,0.002794,-0.00134287,-0.00194929,0.00356777,-0.00211664,-0.377876,0.00331735,0.0161569,643,1240,-9.48936,-1.98604
-574,-216,-9.52771,2.17688,0.00264356,-0.00128859,-0.00206171,0.00352636,-0.0021714,-0.404569,0.00332046,0.0156038,650,1240,-9.52773,-2.17683
-567,-216,-9.55811,2.39478,0.00287203,-0.000907142,-0.00221379,0.00389301,-0.00192812,-0.432121,0.00342406,0.02699,657,1240,-9.5581,-2.39478
-560,-216,-9.63391,2.70105,0,0,0,0,0,0,0,-1,664,1240,-9.6339,-2.70108
-553,-216,-10.9145,1.51868,0,0,0,0,0,0,0,-1,671,1240,-10.9145,-1.51873
-546,-216,-13.4393,1.19373,0,0,0,0,0,0,0,-1,678,1240,-13.4393,-1.19369
-539,-216,-12.1163,0.311035,0,0,0,0,0,0,0,-1,685,1240,-12.1163,-0.310992
-532,-216,-12.1432,0.36731,0.00116961,0.00321809,-0.00363459,0.00597,-0.0015823,-0.922738,0.00459908,0.0418853,692,1240,-12.1433,-0.367298
-525,-216,-12.2052,0.448608,-7.71783e-05,0.0047746,-0.00382455,0.00687774,-0.00218032,-1.06803,0.00545905,0.0378318,699,1240,-12.2052,-0.448615
-518,-216,-12.3359,0.556885,-0.0018861,0.00641637,-0.00377779,0.00787802,-0.00334774,-1.20163,0.0066548,0.0401563,706,1240,-12.3359,-0.55686
-511,-216,-12.3116,0.500732,-0.00422915,0.00756208,-0.00321757,0.00838294,-0.00505001,-1.32101,0.00783469,0.0424068,713,1240,-12.3116,-0.500739
-504,-216,-12.3519,0.550415,-0.00564055,0.00769895,-0.000546626,0.00772131,-0.00566291,-1.52991,0.00775779,0.0417223,720,1240,-12.352,-0.550474
-497,-216,0,0,0,0,0,0,0,0,0,-1,727,1240,0,0
-490,-216,0,0,0,0,0,0,0,0,0,-1,734,1240,0,0
-483,-216,0,0,0,0,0,0,0,0,0,-1,741,1240,0,0
-476,-216,0,0,0,0,0,0,0,0,0,-1,748,1240,0,0
-469,-216,0,0,0,0,0,0,0,0,0,-1,755,1240,0,0
-462,-216,0,0,0,0,0,0,0,0,0,-1,762,1240,0,0
-455,-216,0,0,0,0,0,0,0,0,0,-1,769,1240,0,0
-448,-216,0,0,0,0,0,0,0,0,0,-1,776,1240,0,0
-441,-216,0,0,0,0,0,0,0,0,0,-1,783,1240,0,0
-434,-216,0,0,0,0,0,0,0,0,0,-1,790,1240,0,0
-427,-216,0,0,0,0,0,0,0,0,0,-1,797,1240,0,0
-420,-216,0,0,0,0,0,0,0,0,0,-1,804,1240,0,0
-413,-216,0,0,0,0,0,0,0,0,0,-1,811,1240,0,0
-406,-216,0,0,0,0,0,0,0,0,0,-1,818,1240,0,0
-399,-216,0,0,0,0,0,0,0,0,0,-1,825,1240,0,0
-392,-216,0,0,0,0,0,0,0,0,0,-1,832,1240,0,0
-385,-216,0,0,0,0,0,0,0,0,0,-1,839,1240,0,0
-378,-216,0,0,0,0,0,0,0,0,0,-1,846,1240,0,0
-371,-216,0,0,0,0,0,0,0,0,0,-1,853,1240,0,0
-364,-216,0,0,0,0,0,0,0,0,0,-1,860,1240,0,0
-357,-216,0,0,0,0,0,0,0,0,0,-1,867,1240,0,0
-350,-216,0,0,0,0,0,0,0,0,0,-1,874,1240,0,0
-343,-216,0,0,0,0,0,0,0,0,0,-1,881,1240,0,0
-336,-216,0,0,0,0,0,0,0,0,0,-1,888,1240,0,0
-329,-216,0,0,0,0,0,0,0,0,0,-1,895,1240,0,0
-322,-216,0,0,0,0,0,0,0,0,0,-1,902,1240,0,0
-315,-216,0,0,0,0,0,0,0,0,0,-1,909,1240,0,0
-308,-216,0,0,0,0,0,0,0,0,0,-1,916,1240,0,0
-301,-216,0,0,0,0,0,0,0,0,0,-1,923,1240,0,0
-294,-216,0,0,0,0,0,0,0,0,0,-1,930,1240,0,0
-287,-216,0,0,0,0,0,0,0,0,0,-1,937,1240,0,0
-280,-216,0,0,0,0,0,0,0,0,0,-1,944,1240,0,0
-273,-216,0,0,0,0,0,0,0,0,0,-1,951,1240,0,0
-266,-216,0,0,0,0,0,0,0,0,0,-1,958,1240,0,0
-259,-216,0,0,0,0,0,0,0,0,0,-1,965,1240,0,0
-252,-216,0,0,0,0,0,0,0,0,0,-1,972,1240,0,0
-245,-216,0,0,0,0,0,0,0,0,0,-1,979,1240,0,0
-238,-216,0,0,0,0,0,0,0,0,0,-1,986,1240,0,0
-231,-216,0,0,0,0,0,0,0,0,0,-1,993,1240,0,0
-224,-216,0,0,0,0,0,0,0,0,0,-1,1000,1240,0,0
-217,-216,0,0,0,0,0,0,0,0,0,-1,1007,1240,0,0
-210,-216,0,0,0,0,0,0,0,0,0,-1,1014,1240,0,0
-203,-216,0,0,0,0,0,0,0,0,0,-1,1021,1240,0,0
-196,-216,0,0,0,0,0,0,0,0,0,-1,1028,1240,0,0
-189,-216,0,0,0,0,0,0,0,0,0,-1,1035,1240,0,0
-182,-216,0,0,0,0,0,0,0,0,0,-1,1042,1240,0,0
-175,-216,0,0,0,0,0,0,0,0,0,-1,1049,1240,0,0
-168,-216,0,0,0,0,0,0,0,0,0,-1,1056,1240,0,0
-161,-216,0,0,0,0,0,0,0,0,0,-1,1063,1240,0,0
-154,-216,0,0,0,0,0,0,0,0,0,-1,1070,1240,0,0
-147,-216,0,0,0,0,0,0,0,0,0,-1,1077,1240,0,0
-140,-216,0,0,0,0,0,0,0,0,0,-1,1084,1240,0,0
-133,-216,0,0,0,0,0,0,0,0,0,-1,1091,1240,0,0
-126,-216,0,0,0,0,0,0,0,0,0,-1,1098,1240,0,0
-119,-216,0,0,0,0,0,0,0,0,0,-1,1105,1240,0,0
-112,-216,0,0,0,0,0,0,0,0,0,-1,1112,1240,0,0
-105,-216,0,0,0,0,0,0,0,0,0,-1,1119,1240,0,0
-98,-216,0,0,0,0,0,0,0,0,0,-1,1126,1240,0,0
-91,-216,0,0,0,0,0,0,0,0,0,-1,1133,1240,0,0
-84,-216,0,0,0,0,0,0,0,0,0,-1,1140,1240,0,0
-77,-216,0,0,0,0,0,0,0,0,0,-1,1147,1240,0,0
-70,-216,0,0,0,0,0,0,0,0,0,-1,1154,1240,0,0
-63,-216,0,0,0,0,0,0,0,0,0,-1,1161,1240,0,0
-56,-216,0,0,0,0,0,0,0,0,0,-1,1168,1240,0,0
-49,-216,0,0,0,0,0,0,0,0,0,-1,1175,1240,0,0
-42,-216,0,0,0,0,0,0,0,0,0,-1,1182,1240,0,0
-35,-216,0,0,0,0,0,0,0,0,0,-1,1189,1240,0,0
-28,-216,0,0,0,0,0,0,0,0,0,-1,1196,1240,0,0
-21,-216,0,0,0,0,0,0,0,0,0,-1,1203,1240,0,0
-14,-216,0,0,0,0,0,0,0,0,0,-1,1210,1240,0,0
-7,-216,0,0,0,0,0,0,0,0,0,-1,1217,1240,0,0
0,-216,0,0,0,0,0,0,0,0,0,-1,1224,1240,0,0
7,-216,0,0,0,0,0,0,0,0,0,-1,1231,1240,0,0
14,-216,0,0,0,0,0,0,0,0,0,-1,1238,1240,0,0
21,-216,0,0,0,0,0,0,0,0,0,-1,1245,1240,0,0
28,-216,0,0,0,0,0,0,0,0,0,-1,1252,1240,0,0
35,-216,0,0,0,0,0,0,0,0,0,-1,1259,1240,0,0
42,-216,0,0,0,0,0,0,0,0,0,-1,1266,1240,0,0
49,-216,0,0,0,0,0,0,0,0,0,-1,1273,1240,0,0
56,-216,0,0,0,0,0,0,0,0,0,-1,1280,1240,0,0
63,-216,0,0,0,0,0,0,0,0,0,-1,1287,1240,0,0
70,-216,0,0,0,0,0,0,0,0,0,-1,1294,1240,0,0
77,-216,0,0,0,0,0,0,0,0,0,-1,1301,1240,0,0
84,-216,0,0,0,0,0,0,0,0,0,-1,1308,1240,0,0
91,-216,0,0,0,0,0,0,0,0,0,-1,1315,1240,0,0
98,-216,0,0,0,0,0,0,0,0,0,-1,1322,1240,0,0
105,-216,0,0,0,0,0,0,0,0,0,-1,1329,1240,0,0
112,-216,0,0,0,0,0,0,0,0,0,-1,1336,1240,0,0
119,-216,0,0,0,0,0,0,0,0,0,-1,1343,1240,0,0
126,-216,0,0,0,0,0,0,0,0,0,-1,1350,1240,0,0
133,-216,0,0,0,0,0,0,0,0,0,-1,1357,1240,0,0
140,-216,0,0,0,0,0,0,0,0,0,-1,1364,1240,0,0
147,-216,0,0,0,0,0,0,0,0,0,-1,1371,1240,0,0
154,-216,0,0,0,0,0,0,0,0,0,-1,1378,1240,0,0
161,-216,0,0,0,0,0,0,0,0,0,-1,1385,1240,0,0
168,-216,0,0,0,0,0,0,0,0,0,-1,1392,1240,0,0
175,-216,0,0,0,0,0,0,0,0,0,-1,1399,1240,0,0
182,-216,0,0,0,0,0,0,0,0,0,-1,1406,1240,0,0
189,-216,0,0,0,0,0,0,0,0,0,-1,1413,1240,0,0
196,-216,0,0,0,0,0,0,0,0,0,-1,1420,1240,0,0
203,-216,0,0,0,0,0,0,0,0,0,-1,1427,1240,0,0
210,-216,0,0,0,0,0,0,0,0,0,-1,1434,1240,0,0
217,-216,0,0,0,0,0,0,0,0,0,-1,1441,1240,0,0
224,-216,0,0,0,0,0,0,0,0,0,-1,1448,1240,0,0
231,-216,0,0,0,0,0,0,0,0,0,-1,1455,1240,0,0
238,-216,0,0,0,0,0,0,0,0,0,-1,1462,1240,0,0
245,-216,0,0,0,0,0,0,0,0,0,-1,1469,1240,0,0
252,-216,0,0,0,0,0,0,0,0,0,-1,1476,1240,0,0
259,-216,0,0,0,0,0,0,0,0,0,-1,1483,1240,0,0
266,-216,0,0,0,0,0,0,0,0,0,-1,1490,1240,0,0
273,-216,0,0,0,0,0,0,0,0,0,-1,1497,1240,0,0
280,-216,0,0,0,0,0,0,0,0,0,-1,1504,1240,0,0
287,-216,0,0,0,0,0,0,0,0,0,-1,1511,1240,0,0
294,-216,0,0,0,0,0,0,0,0,0,-1,1518,1240,0,0
301,-216,0,0,0,0,0,0,0,0,0,-1,1525,1240,0,0
308,-216,0,0,0,0,0,0,0,0,0,-1,1532,1240,0,0
315,-216,0,0,0,0,0,0,0,0,0,-1,1539,1240,0,0
322,-216,0,0,0,0,0,0,0,0,0,-1,1546,1240,0,0
329,-216,0,0,0,0,0,0,0,0,0,-1,1553,1240,0,0
336,-216,0,0,0,0,0,0,0,0,0,-1,1560,1240,0,0
343,-216,0,0,0,0,0,0,0,0,0,-1,1567,1240,0,0
350,-216,0,0,0,0,0,0,0,0,0,-1,1574,1240,0,0
357,-216,0,0,0,0,0,0,0,0,0,-1,1581,1240,0,0
364,-216,0,0,0,0,0,0,0,0,0,-1,1588,1240,0,0
371,-216,0,0,0,0,0,0,0,0,0,-1,1595,1240,0,0
378,-216,0,0,0,0,0,0,0,0,0,-1,1602,1240,0,0
385,-216,0,0,0,0,0,0,0,0,0,-1,1609,1240,0,0
392,-216,0,0,0,0,0,0,0,0,0,-1,1616,1240,0,0
399,-216,0,0,0,0,0,0,0,0,0,-1,1623,1240,0,0
406,-216,0,0,0,0,0,0,0,0,0,-1,1630,1240,0,0
413,-216,0,0,0,0,0,0,0,0,0,-1,1637,1240,0,0
420,-216,0,0,0,0,0,0,0,0,0,-1,1644,1240,0,0
427,-216,0,0,0,0,0,0,0,0,0,-1,1651,1240,0,0
434,-216,0,0,0,0,0,0,0,0,0,-1,1658,1240,0,0
441,-216,0,0,0,0,0,0,0,0,0,-1,1665,1240,0,0
448,-216,0,0,0,0,0,0,0,0,0,-1,1672,1240,0,0
455,-216,0,0,0,0,0,0,0,0,0,-1,1679,1240,0,0
462,-216,0,0,0,0,0,0,0,0,0,-1,1686,1240,0,0
469,-216,0,0,0,0,0,0,0,0,0,-1,1693,1240,0,0
476,-216,0,0,0,0,0,0,0,0,0,-1,1700,1240,0,0
483,-216,0,0,0,0,0,0,0,0,0,-1,1707,1240,0,0
490,-216,0,0,0,0,0,0,0,0,0,-1,1714,1240,0,0
497,-216,0,0,0,0,0,0,0,0,0,-1,1721,1240,0,0
504,-216,0,0,0,0,0,0,0,0,0,-1,1728,1240,0,0
511,-216,0,0,0,0,0,0,0,0,0,-1,1735,1240,0,0
518,-216,0,0,0,0,0,0,0,0,0,-1,1742,1240,0,0
525,-216,0,0,0,0,0,0,0,0,0,-1,1749,1240,0,0
532,-216,0,0,0,0,0,0,0,0,0,-1,1756,1240,0,0
539,-216,0,0,0,0,0,0,0,0,0,-1,1763,1240,0,0
546,-216,0,0,0,0,0,0,0,0,0,-1,1770,1240,0,0
553,-216,0,0,0,0,0,0,0,0,0,-1,1777,1240,0,0
560,-216,0,0,0,0,0,0,0,0,0,-1,1784,1240,0,0
567,-216,0,0,0,0,0,0,0,0,0,-1,1791,1240,0,0
574,-216,0,0,0,0,0,0,0,0,0,-1,1798,1240,0,0
581,-216,0,0,0,0,0,0,0,0,0,-1,1805,1240,0,0
588,-216,0,0,0,0,0,0,0,0,0,-1,1812,1240,0,0
595,-216,0,0,0,0,0,0,0,0,0,-1,1819,1240,0,0
602,-216,0,0,0,0,0,0,0,0,0,-1,1826,1240,0,0
609,-216,0,0,0,0,0,0,0,0,0,-1,1833,1240,0,0
616,-216,0,0,0,0,0,0,0,0,0,-1,1840,1240,0,0
623,-216,19.3157,2.49414,-0.00520933,-0.0047297,-0.00179916,-0.00315444,-0.00678459,-0.851655,0.00392029,0.0382755,1847,1240,19.3157,-2.49416
630,-216,19.3423,2.48584,-0.00340958,-0.000101202,-0.00149343,0.00047321,-0.00398399,-1.20361,0.00282696,0.037057,1854,1240,19.3422,-2.48589
637,-216,19.3167,2.46265,-0.00175353,0.00408031,-0.00111455,0.00428599,-0.00195921,-1.38831,0.00368814,0.0327704,1861,1240,19.3166,-2.46269
644,-216,19.2786,2.46057,-0.000933142,0.00673112,-0.00041098,0.0067531,-0.000955117,-1.51738,0.00485188,0.0252962,1868,1240,19.2786,-2.46053
651,-216,19.2917,2.38892,-0.000666181,0.00795366,0.000318853,0.00796544,-0.00067796,1.53387,0.0055501,0.0216093,1875,1240,19.2918,-2.38894
658,-216,19.3102,2.37695,-0.000642115,0.00819788,0.000928343,0.00829432,-0.000738554,1.46728,0.00579145,0.0317267,1882,1240,19.3101,-2.37699
665,-216,19.3834,2.20813,-0.000778857,0.00779016,0.00141521,0.00801783,-0.00100654,1.41128,0.00571038,0.0448867,1889,1240,19.3835,-2.20813
672,-216,19.1942,2.40381,-0.00102416,0.00701456,0.00176807,0.00738625,-0.00139586,1.36359,0.00544938,0.0477774,1896,1240,19.1942,-2.40377
679,-216,17.1595,4.52661,0,0,0,0,0,0,0,-1,1903,1240,17.1596,-4.52667
686,-216,17.071,4.53711,-0.00148575,0.00519837,0.0022718,0.00589741,-0.00218479,1.27229,0.00482757,0.0497756,1910,1240,17.0711,-4.53715
693,-216,16.8712,4.56567,-0.00157996,0.00418359,0.00242008,0.00506498,-0.00246135,1.22153,0.00443115,0.036638,1917,1240,16.8712,-4.56572
700,-216,16.8081,4.45251,-0.00170191,0.00299375,0.0024171,0.0040156,-0.00272375,1.17083,0.00391472,0.0164285,1924,1240,16.8081,-4.45257
707,-216,16.8191,4.271,-0.00197441,0.00180397,0.00224621,0.00284982,-0.00302026,1.13504,0.00338957,0.014743,1931,1240,16.8191,-4.27101
714,-216,16.8387,4.12036,-0.00222582,0.000758837,0.00194182,0.00171553,-0.00318251,1.11302,0.00286985,0.0123671,1938,1240,16.8388,-4.12042
721,-216,16.838,3.99829,-0.00146671,-8.05009e-05,0.00143306,0.000818265,-0.00236548,1.01064,0.00190911,0.0121881,1945,1240,16.838,-3.99829
728,-216,16.8427,3.87744,5.02906e-05,-0.000599066,0.000730519,0.000525033,-0.00107381,0.576284,0.000941042,0.010941,1952,1240,16.8426,-3.87748
735,-216,16.8469,3.74097,0.00162503,-0.000511472,0.000463168,0.00172111,-0.00060756,0.204556,0.00139476,0.0103465,1959,1240,16.8469,-3.74093
742,-216,16.8303,3.61462,0.00366032,-0.000381089,0.000441245,0.00370794,-0.000428703,0.107493,0.00262655,0.0107434,1966,1240,16.8303,-3.61462
749,-216,16.823,3.4624,0.00600456,-0.000317133,0.00046046,0.00603792,-0.000350496,0.0723294,0.00414705,0.00848486,1973,1240,16.823,-3.46238
756,-216,16.8101,3.33435,0.00878742,9.37258e-06,0.00125896,0.00896441,-0.00016762,0.139671,0.00603292,0.00920754,1980,1240,16.81,-3.33436
763,-216,16.796,3.20056,0.0121722,0.000164724,0.00256648,0.0126978,-0.000360832,0.201984,0.008588,0.0142195,1987,1240,16.796,-3.20054
770,-216,16.8419,3.01099,0.0162272,0.000432418,0.00491498,0.0176317,-0.00097212,0.278348,0.0120916,0.0367671,1994,1240,16.8419,-3.01103
777,-216,17.3798,2.71167,0.0207952,0.000933037,0.0088147,0.0241429,-0.00241463,0.362957,0.0169575,0.0441724,2001,1240,17.3797,-2.71168
784,-216,17.7419,2.60266,0.0256422,0.00188674,0.0149947,0.0328936,-0.00536463,0.450437,0.0239187,0.043098,2008,1240,17.7419,-2.60267
791,-216,18.0734,2.48279,0.0304611,0.00368744,0.0245938,0.0450754,-0.0109268,0.536164,0.0342781,0.0410279,2015,1240,18.0733,-2.48281
798,-216,0,0,0,0,0,0,0,0,0,-1,2022,1240,0,0
805,-216,0,0,0,0,0,0,0,0,0,-1,2029,1240,0,0
812,-216,0,0,0,0,0,0,0,0,0,-1,2036,1240,0,0
-700,-223,0,0,0,0,0,0,0,0,0,-1,524,1247,0,0
-693,-223,0,0,0,0,0,0,0,0,0,-1,531,1247,0,0
-686,-223,0,0,0,0,0,0,0,0,0,-1,538,1247,0,0
-679,-223,0,0,0,0,0,0,0,0,0,-1,545,1247,0,0
-672,-223,-7.52899,-2.11243,-0.0472952,0.0353125,0.0233777,0.0414694,-0.0534521,1.31328,0.0549483,0.0480778,552,1247,-7.52901,2.11246
-665,-223,-8.1297,-1.11914,-0.0328876,0.0290048,0.0177316,0.0337248,-0.0376076,1.31064,0.0412041,0.0442945,559,1247,-8.12971,1.11909
-658,-223,-8.93805,-0.155151,-0.0213137,0.0237751,0.012707,0.0271096,-0.0246482,1.31417,0.0298936,0.0448463,566,1247,-8.93805,0.155202
-651,-223,-9.58984,0.159668,-0.0122799,0.0193228,0.00849528,0.0214617,-0.0144188,1.32415,0.0208482,0.0486891,573,1247,-9.58982,-0.159633
-644,-223,-9.69781,0.321289,0,0,0,0,0,0,0,-1,580,1247,-9.6978,-0.321294
-637,-223,-9.59265,0.546265,-0.00077468,0.0121576,0.0026216,0.0126688,-0.00128592,1.3782,0.0089055,0.0458664,587,1247,-9.59267,-0.546222
-630,-223,-9.46997,0.727783,0.00218556,0.0093094,0.000903403,0.00942218,0.00207278,1.4466,0.00571718,0.0346359,594,1247,-9.46999,-0.727779
-623,-223,-9.39056,0.928223,0.00406677,0.00643048,0.000153104,0.00644036,0.0040569,1.50638,0.00375995,0.0207072,601,1247,-9.39058,-0.928192
-616,-223,-9.40662,1.15283,0.0054855,0.00414805,-0.00133689,0.00631159,0.00332196,-0.553492,0.00364568,0.0161906,608,1247,-9.40661,-1.15286
-609,-223,-9.39453,1.29443,0.00578066,0.0030329,-0.00228824,0.00707579,0.00173777,-0.515038,0.00425783,0.0125221,615,1247,-9.39451,-1.2944
-602,-223,-9.38654,1.45142,0.00545529,0.00161288,-0.00225782,0.00649868,0.0005695,-0.432887,0.00415565,0.0144241,622,1247,-9.38656,-1.45144
-595,-223,-9.35199,1.62207,0.00484802,2.33653e-06,-0.00178017,0.00543169,-0.000581342,-0.316833,0.00382965,0.0201468,629,1247,-9.352,-1.62212
-588,-223,-9.35132,1.77917,0.00413009,-0.000986833,-0.00154444,0.00456011,-0.00141685,-0.271553,0.00360636,0.022629,636,1247,-9.35132,-1.77912
-581,-223,-9.34869,2.01062,0.00344221,-0.00124741,-0.00159358,0.00393247,-0.00173766,-0.298458,0.0033544,0.0198834,643,1247,-9.34867,-2.01067
-574,-223,-9.33569,2.12695,0.00319799,-0.00121229,-0.00169436,0.00377377,-0.00178806,-0.327577,0.00327863,0.0167415,650,1247,-9.33571,-2.12691
-567,-223,-9.17603,2.34155,0.00340283,-0.000687406,-0.00197424,0.00420027,-0.00148484,-0.383882,0.00340482,0.0237965,657,1247,-9.17603,-2.34155
-560,-223,-8.98956,2.60168,0.00348928,-8.84825e-05,-0.00244621,0.00473092,-0.00133012,-0.46969,0.00367838,0.0421684,664,1247,-8.98959,-2.60164
-553,-223,-8.55872,2.89099,0,0,0,0,0,0,0,-1,671,1247,-8.55874,-2.89101
-546,-223,-11.629,-0.46106,0,0,0,0,0,0,0,-1,678,1247,-11.629,0.461006
-539,-223,-11.6086,-0.105591,0,0,0,0,0,0,0,-1,685,1247,-11.6086,0.10556
-532,-223,-11.8516,0.230957,0.00140627,0.00467289,-0.00439968,0.00773264,-0.00165348,-0.96313,0.00578556,0.0434967,692,1247,-11.8515,-0.231014
-525,-223,-12.0876,0.370239,2.40323e-05,0.00671679,-0.00507975,0.00945335,-0.00271252,-1.07666,0.00737461,0.0455131,699,1247,-12.0877,-0.370297
-518,-223,-12.2156,0.420776,-0.00201621,0.00904539,-0.00575217,0.0114944,-0.00446521,-1.16829,0.00950751,0.0415386,706,1247,-12.2156,-0.420818
-511,-223,-12.3015,0.442627,-0.00486062,0.0111968,-0.00617916,0.0132994,-0.00696316,-1.24282,0.0118877,0.038064,713,1247,-12.3015,-0.442611
-504,-223,-12.3218,0.427002,-0.00748418,0.0124785,-0.00485011,0.0135945,-0.00860017,-1.34464,0.0129218,0.0389607,720,1247,-12.3218,-0.426943
-497,-223,0,0,0,0,0,0,0,0,0,-1,727,1247,0,0
-490,-223,0,0,0,0,0,0,0,0,0,-1,734,1247,0,0
-483,-223,0,0,0,0,0,0,0,0,0,-1,741,1247,0,0
-476,-223,0,0,0,0,0,0,0,0,0,-1,748,1247,0,0
-469,-223,0,0,0,0,0,0,0,0,0,-1,755,1247,0,0
-462,-223,0,0,0,0,0,0,0,0,0,-1,762,1247,0,0
-455,-223,0,0,0,0,0,0,0,0,0,-1,769,1247,0,0
-448,-223,0,0,0,0,0,0,0,0,0,-1,776,1247,0,0
-441,-223,0,0,0,0,0,0,0,0,0,-1,783,1247,0,0
-434,-223,0,0,0,0,0,0,0,0,0,-1,790,1247,0,0
-427,-223,0,0,0,0,0,0,0,0,0,-1,797,1247,0,0
-420,-223,0,0,0,0,0,0,0,0,0,-1,804,1247,0,0
-413,-223,0,0,0,0,0,0,0,0,0,-1,811,1247,0,0
-406,-223,0,0,0,0,0,0,0,0,0,-1,818,1247,0,0
-399,-223,0,0,0,0,0,0,0,0,0,-1,825,1247,0,0
-392,-223,0,0,0,0,0,0,0,0,0,-1,832,1247,0,0
-385,-223,0,0,0,0,0,0,0,0,0,-1,839,1247,0,0
-378,-223,0,0,0,0,0,0,0,0,0,-1,846,1247,0,0
-371,-223,0,0,0,0,0,0,0,0,0,-1,853,1247,0,0
-364,-223,0,0,0,0,0,0,0,0,0,-1,860,1247,0,0
-357,-223,0,0,0,0,0,0,0,0,0,-1,867,1247,0,0
-350,-223,0,0,0,0,0,0,0,0,0,-1,874,1247,0,0
-343,-223,0,0,0,0,0,0,0,0,0,-1,881,1247,0,0
-336,-223,0,0,0,0,0,0,0,0,0,-1,888,1247,0,0
-329,-223,0,0,0,0,0,0,0,0,0,-1,895,1247,0,0
-322,-223,0,0,0,0,0,0,0,0,0,-1,902,1247,0,0
-315,-223,0,0,0,0,0,0,0,0,0,-1,909,1247,0,0
-308,-223,0,0,0,0,0,0,0,0,0,-1,916,1247,0,0
-301,-223,0,0,0,0,0,0,0,0,0,-1,923,1247,0,0
-294,-223,0,0,0,0,0,0,0,0,0,-1,930,1247,0,0
-287,-223,0,0,0,0,0,0,0,0,0,-1,937,1247,0,0
-280,-223,0,0,0,0,0,0,0,0,0,-1,944,1247,0,0
-273,-223,0,0,0,0,0,0,0,0,0,-1,951,1247,0,0
-266,-223,0,0,0,0,0,0,0,0,0,-1,958,1247,0,0
-259,-223,0,0,0,0,0,0,0,0,0,-1,965,1247,0,0
-252,-223,0,0,0,0,0,0,0,0,0,-1,972,1247,0,0
-245,-223,0,0,0,0,0,0,0,0,0,-1,979,1247,0,0
-238,-223,0,0,0,0,0,0,0,0,0,-1,986,1247,0,0
-231,-223,0,0,0,0,0,0,0,0,0,-1,993,1247,0,0
-224,-223,0,0,0,0,0,0,0,0,0,-1,1000,1247,0,0
-217,-223,0,0,0,0,0,0,0,0,0,-1,1007,1247,0,0
-210,-223,0,0,0,0,0,0,0,0,0,-1,1014,1247,0,0
-203,-223,0,0,0,0,0,0,0,0,0,-1,1021,1247,0,0
-196,-223,0,0,0,0,0,0,0,0,0,-1,1028,1247,0,0
-189,-223,0,0,0,0,0,0,0,0,0,-1,1035,1247,0,0
-182,-223,0,0,0,0,0,0,0,0,0,-1,1042,1247,0,0
-175,-223,0,0,0,0,0,0,0,0,0,-1,1049,1247,0,0
-168,-223,0,0,0,0,0,0,0,0,0,-1,1056,1247,0,0
-161,-223,0,0,0,0,0,0,0,0,0,-1,1063,1247,0,0
-154,-223,0,0,0,0,0,0,0,0,0,-1,1070,1247,0,0
-147,-223,0,0,0,0,0,0,0,0,0,-1,1077,1247,0,0
-140,-223,0,0,0,0,0,0,0,0,0,-1,1084,1247,0,0
-133,-223,0,0,0,0,0,0,0,0,0,-1,1091,1247,0,0
-126,-223,0,0,0,0,0,0,0,0,0,-1,1098,1247,0,0
-119,-223,0,0,0,0,0,0,0,0,0,-1,1105,1247,0,0
-112,-223,0,0,0,0,0,0,0,0,0,-1,1112,1247,0,0
-105,-223,0,0,0,0,0,0,0,0,0,-1,1119,1247,0,0
-98,-223,0,0,0,0,0,0,0,0,0,-1,1126,1247,0,0
-91,-223,0,0,0,0,0,0,0,0,0,-1,1133,1247,0,0
-84,-223,0,0,0,0,0,0,0,0,0,-1,1140,1247,0,0
-77,-223,0,0,0,0,0,0,0,0,0,-1,1147,1247,0,0
-70,-223,0,0,0,0,0,0,0,0,0,-1,1154,1247,0,0
-63,-223,0,0,0,0,0,0,0,0,0,-1,1161,1247,0,0
-56,-223,0,0,0,0,0,0,0,0,0,-1,1168,1247,0,0
-49,-223,0,0,0,0,0,0,0,0,0,-1,1175,1247,0,0
-42,-223,0,0,0,0,0,0,0,0,0,-1,1182,1247,0,0
-35,-223,0,0,0,0,0,0,0,0,0,-1,1189,1247,0,0
-28,-223,0,0,0,0,0,0,0,0,0,-1,1196,1247,0,0
-21,-223,0,0,0,0,0,0,0,0,0,-1,1203,1247,0,0
-14,-223,0,0,0,0,0,0,0,0,0,-1,1210,1247,0,0
-7,-223,0,0,0,0,0,0,0,0,0,-1,1217,1247,0,0
0,-223,0,0,0,0,0,0,0,0,0,-1,1224,1247,0,0
7,-223,0,0,0,0,0,0,0,0,0,-1,1231,1247,0,0
14,-223,0,0,0,0,0,0,0,0,0,-1,1238,1247,0,0
21,-223,0,0,0,0,0,0,0,0,0,-1,1245,1247,0,0
28,-223,0,0,0,0,0,0,0,0,0,-1,1252,1247,0,0
35,-223,0,0,0,0,0,0,0,0,0,-1,1259,1247,0,0
42,-223,0,0,0,0,0,0,0,0,0,-1,1266,1247,0,0
49,-223,0,0,0,0,0,0,0,0,0,-1,1273,1247,0,0
56,-223,0,0,0,0,0,0,0,0,0,-1,1280,1247,0,0
63,-223,0,0,0,0,0,0,0,0,0,-1,1287,1247,0,0
70,-223,0,0,0,0,0,0,0,0,0,-1,1294,1247,0,0
77,-223,0,0,0,0,0,0,0,0,0,-1,1301,1247,0,0
84,-223,0,0,0,0,0,0,0,0,0,-1,1308,1247,0,0
91,-223,0,0,0,0,0,0,0,0,0,-1,1315,1247,0,0
98,-223,0,0,0,0,0,0,0,0,0,-1,1322,1247,0,0
105,-223,0,0,0,0,0,0,0,0,0,-1,1329,1247,0,0
112,-223,0,0,0,0,0,0,0,0,0,-1,1336,1247,0,0
119,-223,0,0,0,0,0,0,0,0,0,-1,1343,1247,0,0
126,-223,0,0,0,0,0,0,0,0,0,-1,1350,1247,0,0
133,-223,0,0,0,0,0,0,0,0,0,-1,1357,1247,0,0
140,-223,0,0,0,0,0,0,0,0,0,-1,1364,1247,0,0
147,-223,0,0,0,0,0,0,0,0,0,-1,1371,1247,0,0
154,-223,0,0,0,0,0,0,0,0,0,-1,1378,1247,0,0
161,-223,0,0,0,0,0,0,0,0,0,-1,1385,1247,0,0
168,-223,0,0,0,0,0,0,0,0,0,-1,1392,1247,0,0
175,-223,0,0,0,0,0,0,0,0,0,-1,1399,1247,0,0
182,-223,0,0,0,0,0,0,0,0,0,-1,1406,1247,0,0
189,-223,0,0,0,0,0,0,0,0,0,-1,1413,1247,0,0
196,-223,0,0,0,0,0,0,0,0,0,-1,1420,1247,0,0
203,-223,0,0,0,0,0,0,0,0,0,-1,1427,1247,0,0
210,-223,0,0,0,0,0,0,0,0,0,-1,1434,1247,0,0
217,-223,0,0,0,0,0,0,0,0,0,-1,1441,1247,0,0
224,-223,0,0,0,0,0,0,0,0,0,-1,1448,1247,0,0
231,-223,0,0,0,0,0,0,0,0,0,-1,1455,1247,0,0
238,-223,0,0,0,0,0,0,0,0,0,-1,1462,1247,0,0
245,-223,0,0,0,0,0,0,0,0,0,-1,1469,1247,0,0
252,-223,0,0,0,0,0,0,0,0,0,-1,1476,1247,0,0
259,-223,0,0,0,0,0,0,0,0,0,-1,1483,1247,0,0
266,-223,0,0,0,0,0,0,0,0,0,-1,1490,1247,0,0
273,-223,0,0,0,0,0,0,0,0,0,-1,1497,1247,0,0
280,-223,0,0,0,0,0,0,0,0,0,-1,1504,1247,0,0
287,-223,0,0,0,0,0,0,0,0,0,-1,1511,1247,0,0
294,-223,0,0,0,0,0,0,0,0,0,-1,1518,1247,0,0
301,-223,0,0,0,0,0,0,0,0,0,-1,1525,1247,0,0
308,-223,0,0,0,0,0,0,0,0,0,-1,1532,1247,0,0
315,-223,0,0,0,0,0,0,0,0,0,-1,1539,1247,0,0
322,-223,0,0,0,0,0,0,0,0,0,-1,1546,1247,0,0
329,-223,0,0,0,0,0,0,0,0,0,-1,1553,1247,0,0
336,-223,0,0,0,0,0,0,0,0,0,-1,1560,1247,0,0
343,-223,0,0,0,0,0,0,0,0,0,-1,1567,1247,0,0
350,-223,0,0,0,0,0,0,0,0,0,-1,1574,1247,0,0
357,-223,0,0,0,0,0,0,0,0,0,-1,1581,1247,0,0
364,-223,0,0,0,0,0,0,0,0,0,-1,1588,1247,0,0
371,-223,0,0,0,0,0,0,0,0,0,-1,1595,1247,0,0
378,-223,0,0,0,0,0,0,0,0,0,-1,1602,1247,0,0
385,-223,0,0,0,0,0,0,0,0,0,-1,1609,1247,0,0
392,-223,0,0,0,0,0,0,0,0,0,-1,1616,1247,0,0
399,-223,0,0,0,0,0,0,0,0,0,-1,1623,1247,0,0
406,-223,0,0,0,0,0,0,0,0,0,-1,1630,1247,0,0
413,-223,0,0,0,0,0,0,0,0,0,-1,1637,1247,0,0
420,-223,0,0,0,0,0,0,0,0,0,-1,1644,1247,0,0
427,-223,0,0,0,0,0,0,0,0,0,-1,1651,1247,0,0
434,-223,0,0,0,0,0,0,0,0,0,-1,1658,1247,0,0
441,-223,0,0,0,0,0,0,0,0,0,-1,1665,1247,0,0
448,-223,0,0,0,0,0,0,0,0,0,-1,1672,1247,0,0
455,-223,0,0,0,0,0,0,0,0,0,-1,1679,1247,0,0
462,-223,0,0,0,0,0,0,0,0,0,-1,1686,1247,0,0
469,-223,0,0,0,0,0,0,0,0,0,-1,1693,1247,0,0
476,-223,0,0,0,0,0,0,0,0,0,-1,1700,1247,0,0
483,-223,0,0,0,0,0,0,0,0,0,-1,1707,1247,0,0
490,-223,0,0,0,0,0,0,0,0,0,-1,1714,1247,0,0
497,-223,0,0,0,0,0,0,0,0,0,-1,1721,1247,0,0
504,-223,0,0,0,0,0,0,0,0,0,-1,1728,1247,0,0
511,-223,0,0,0,0,0,0,0,0,0,-1,1735,1247,0,0
518,-223,0,0,0,0,0,0,0,0,0,-1,1742,1247,0,0
525,-223,0,0,0,0,0,0,0,0,0,-1,1749,1247,0,0
532,-223,0,0,0,0,0,0,0,0,0,-1,1756,1247,0,0
539,-223,0,0,0,0,0,0,0,0,0,-1,1763,1247,0,0
546,-223,0,0,0,0,0,0,0,0,0,-1,1770,1247,0,0
553,-223,0,0,0,0,0,0,0,0,0,-1,1777,1247,0,0
560,-223,0,0,0,0,0,0,0,0,0,-1,1784,1247,0,0
567,-223,0,0,0,0,0,0,0,0,0,-1,1791,1247,0,0
574,-223,0,0,0,0,0,0,0,0,0,-1,1798,1247,0,0
581,-223,0,0,0,0,0,0,0,0,0,-1,1805,1247,0,0
588,-223,0,0,0,0,0,0,0,0,0,-1,1812,1247,0,0
595,-223,0,0,0,0,0,0,0,0,0,-1,1819,1247,0,0
602,-223,0,0,0,0,0,0,0,0,0,-1,1826,1247,0,0
609,-223,0,0,0,0,0,0,0,0,0,-1,1833,1247,0,0
616,-223,0,0,0,0,0,0,0,0,0,-1,1840,1247,0,0
623,-223,19.1345,2.70715,0,0,0,0,0,0,0,-1,1847,1247,19.1345,-2.70716
630,-223,19.1687,2.51025,-0.00367013,0.00225924,-0.00132965,0.00254376,-0.00395464,-1.36,0.00378122,0.0353894,1854,1247,19.1687,-2.51023
637,-223,19.2373,2.42297,-0.00106579,0.0067982,-0.000782241,0.00687525,-0.00114284,-1.47261,0.00500811,0.0290344,1861,1247,19.2373,-2.42294
644,-223,19.2771,2.39514,0.000307218,0.00942751,-8.00429e-06,0.00942752,0.000307211,-1.56992,0.00618515,0.0227198,1868,1247,19.2771,-2.39517
651,-223,19.2842,2.34045,0.000846219,0.0104632,0.000714911,0.010516,0.000793364,1.497,0.00676175,0.0268486,1875,1247,19.2842,-2.34049
658,-223,19.2548,2.33154,0.000939589,0.0104947,0.00129471,0.0106671,0.000767265,1.43848,0.00686992,0.0430193,1882,1247,19.2547,-2.3316
665,-223,19.2639,2.33557,0.00073109,0.00984706,0.00174416,0.0101694,0.000408775,1.38806,0.00664752,0.0432545,1889,1247,19.2639,-2.3356
672,-223,19.2384,2.39673,0.000365815,0.00883899,0.00205466,0.00931094,-0.000106133,1.34502,0.00624297,0.0475553,1896,1247,19.2384,-2.39674
679,-223,16.7556,4.51587,0,0,0,0,0,0,0,-1,1903,1247,16.7556,-4.51591
686,-223,16.745,4.53088,-0.000499751,0.00651268,0.00250526,0.00731574,-0.00130281,1.26059,0.00536442,0.0486701,1910,1247,16.745,-4.53094
693,-223,16.7323,4.56104,-0.000804412,0.00522496,0.00261151,0.0061988,-0.00177825,1.21387,0.00483553,0.024919,1917,1247,16.7323,-4.56104
700,-223,16.6946,4.43994,-0.00111074,0.00372922,0.00255753,0.00483021,-0.00221173,1.16428,0.0041583,0.0115261,1924,1247,16.6946,-4.43993
707,-223,16.6912,4.28308,-0.001704,0.00216389,0.00231997,0.00325028,-0.00279039,1.13285,0.00349095,0.0123217,1931,1247,16.6912,-4.28307
714,-223,16.7015,4.12354,-0.00216157,0.00091428,0.00191316,0.00183102,-0.00307832,1.12395,0.00286474,0.0107191,1938,1247,16.7015,-4.12352
721,-223,16.7085,3.98828,-0.00135993,-1.72645e-05,0.00131776,0.000790311,-0.00216751,1.02099,0.00176832,0.0138742,1945,1247,16.7085,-3.98832
728,-223,16.6949,3.86694,8.87664e-05,-0.000624822,0.000591845,0.000423045,-0.000959101,0.514141,0.000817744,0.0153286,1952,1247,16.695,-3.86692
735,-223,16.6781,3.74097,0.00146168,-0.00058301,0.000307164,0.00150682,-0.000628157,0.145935,0.00126695,0.0136497,1959,1247,16.6781,-3.741
742,-223,16.6566,3.60742,0.00323877,-0.000513373,0.000308798,0.00326401,-0.000538617,0.0815679,0.00237598,0.0115972,1966,1247,16.6567,-3.6074
749,-223,16.6686,3.44653,0.00523243,-0.000549362,0.000359514,0.0052547,-0.000571631,0.0618628,0.00370839,0.0097743,1973,1247,16.6686,-3.44652
756,-223,16.6755,3.31091,0.00763623,-0.000629551,0.000808621,0.00771459,-0.000707913,0.0966072,0.00539454,0.0112267,1980,1247,16.6756,-3.31089
763,-223,16.6798,3.16321,0.0105897,-0.000814158,0.00181139,0.0108705,-0.00109496,0.153798,0.0076382,0.0140828,1987,1247,16.6798,-3.16323
770,-223,16.7557,2.96387,0.0141589,-0.00100986,0.00362407,0.0149803,-0.00183124,0.222878,0.0106499,0.0361319,1994,1247,16.7558,-2.96382
777,-223,16.863,2.72925,0.0182451,-0.00115595,0.00662585,0.020292,-0.00320286,0.299627,0.0147123,0.0494095,2001,1247,16.863,-2.72928
784,-223,16.9939,2.52454,0.0227248,-0.00114559,0.0113183,0.0272381,-0.00565889,0.379438,0.0203096,0.0463224,2008,1247,16.9939,-2.52448
791,-223,17.2734,2.3645,0.0274699,-0.000775366,0.0185355,0.03665,-0.00995539,0.459854,0.0283407,0.0463439,2015,1247,17.2734,-2.36453
798,-223,0,0,0,0,0,0,0,0,0,-1,2022,1247,0,0
805,-223,0,0,0,0,0,0,0,0,0,-1,2029,1247,0,0
812,-223,0,0,0,0,0,0,0,0,0,-1,2036,1247,0,0
-700,-230,0,0,0,0,0,0,0,0,0,-1,524,1254,0,0
-693,-230,0,0,0,0,0,0,0,0,0,-1,531,1254,0,0
-686,-230,0,0,0,0,0,0,0,0,0,-1,538,1254,0,0
-679,-230,0,0,0,0,0,0,0,0,0,-1,545,1254,0,0
-672,-230,-9.89191,0.172852,-0.0391373,0.0415122,0.028592,0.0506201,-0.0482452,1.26241,0.0570854,0.0458214,552,1254,-9.8919,-0.172848
-665,-230,-10.1077,0.313843,-0.0227607,0.0347072,0.019695,0.0408091,-0.0288625,1.27036,0.0404215,0.0443222,559,1254,-10.1077,-0.313786
-658,-230,-9.10193,-0.267334,-0.0105769,0.0289296,0.012677,0.0326476,-0.0142948,1.28551,0.0277841,0.0455332,566,1254,-9.10195,0.267389
-651,-230,-9.71704,-0.0632324,-0.00182521,0.0238688,0.00731902,0.0258074,-0.00376379,1.31187,0.018587,0.0494041,573,1254,-9.71703,0.0632819
-644,-230,-9.802,0.0244141,0,0,0,0,0,0,0,-1,580,1254,-9.80201,-0.0244261
-637,-230,-9.43433,0.55249,0,0,0,0,0,0,0,-1,587,1254,-9.4343,-0.552459
-630,-230,-9.31238,0.794678,0.0092843,0.0119745,-0.000999538,0.0123052,0.00895358,-1.25126,0.00734571,0.0426664,594,1254,-9.31239,-0.794694
-623,-230,-9.22546,0.962646,0.00979383,0.00867811,-0.00163868,0.010967,0.00750494,-0.621334,0.00647362,0.027144,601,1254,-9.22544,-0.962674
-616,-230,-9.22845,1.14307,0.0100223,0.00586437,-0.00282905,0.0114541,0.00443255,-0.468528,0.0066691,0.0165023,608,1254,-9.22848,-1.14303
-609,-230,-9.20807,1.29272,0.00914216,0.00428725,-0.00324783,0.0107694,0.00265996,-0.464478,0.00647765,0.0118635,615,1254,-9.20805,-1.29276
-602,-230,-9.20428,1.46191,0.0079309,0.0025024,-0.00273796,0.00907198,0.00136131,-0.394874,0.00564916,0.0103297,622,1254,-9.2043,-1.46192
-595,-230,-9.20825,1.66089,0.00663314,0.000558222,-0.0018109,0.00713199,5.93662e-05,-0.268806,0.004735,0.0184801,629,1254,-9.20827,-1.66088
-588,-230,-9.18896,1.80408,0.00535477,-0.000618147,-0.0010973,0.00554998,-0.000813355,-0.176056,0.00399877,0.0260286,636,1254,-9.18896,-1.80411
-581,-230,-9.18671,1.97791,0.00437468,-0.000969387,-0.000862218,0.00451035,-0.00110505,-0.156067,0.00343502,0.0234757,643,1254,-9.18673,-1.97784
-574,-230,-9.18463,2.15564,0.00408419,-0.000948793,-0.000904027,0.00424164,-0.00110625,-0.172442,0.0032597,0.0174107,650,1254,-9.18465,-2.15564
-567,-230,-9.06915,2.31372,0.00432632,-0.000320037,-0.00131755,0.00467393,-0.000667643,-0.25795,0.00336068,0.0213769,657,1254,-9.06914,-2.31375
-560,-230,-8.87231,2.42151,0.00447145,0.00050762,-0.00199192,0.00529947,-0.000320396,-0.393957,0.00364448,0.0348666,664,1254,-8.8723,-2.42153
-553,-230,-8.47937,2.44568,0,0,0,0,0,0,0,-1,671,1254,-8.47936,-2.44573
-546,-230,-10.7707,1.62012,0,0,0,0,0,0,0,-1,678,1254,-10.7707,-1.62008
-539,-230,-11.503,-0.0216064,0,0,0,0,0,0,0,-1,685,1254,-11.503,0.0216093
-532,-230,-11.7156,0.138672,0.0023092,0.00629641,-0.0051294,0.009806,-0.0012004,-0.970745,0.006972,0.0430958,692,1254,-11.7156,-0.13865
-525,-230,-11.9327,0.315918,0.00102273,0.00888556,-0.00642532,0.0124868,-0.0025785,-1.05995,0.0093039,0.0447447,699,1254,-11.9327,-0.315868
-518,-230,-12.1083,0.38623,-0.000853989,0.0120017,-0.00796863,0.0158118,-0.00466413,-1.12479,0.012392,0.0418963,706,1254,-12.1083,-0.38629
-511,-230,-12.228,0.361084,-0.00346151,0.0152654,-0.00942904,0.0191903,-0.00738645,-1.17635,0.0158405,0.0389955,713,1254,-12.228,-0.361118
-504,-230,-12.191,0.254761,-0.00626596,0.018053,-0.00952806,0.0213414,-0.00955436,-1.23847,0.0182652,0.0380966,720,1254,-12.1911,-0.254792
-497,-230,0,0,0,0,0,0,0,0,0,-1,727,1254,0,0
-490,-230,0,0,0,0,0,0,0,0,0,-1,734,1254,0,0
-483,-230,0,0,0,0,0,0,0,0,0,-1,741,1254,0,0
-476,-230,0,0,0,0,0,0,0,0,0,-1,748,1254,0,0
-469,-230,0,0,0,0,0,0,0,0,0,-1,755,1254,0,0
-462,-230,0,0,0,0,0,0,0,0,0,-1,762,1254,0,0
-455,-230,0,0,0,0,0,0,0,0,0,-1,769,1254,0,0
-448,-230,0,0,0,0,0,0,0,0,0,-1,776,1254,0,0
-441,-230,0,0,0,0,0,0,0,0,0,-1,783,1254,0,0
-434,-230,0,0,0,0,0,0,0,0,0,-1,790,1254,0,0
-427,-230,0,0,0,0,0,0,0,0,0,-1,797,1254,0,0
-420,-230,0,0,0,0,0,0,0,0,0,-1,804,1254,0,0
-413,-230,0,0,0,0,0,0,0,0,0,-1,811,1254,0,0
-406,-230,0,0,0,0,0,0,0,0,0,-1,818,1254,0,0
-399,-230,0,0,0,0,0,0,0,0,0,-1,825,1254,0,0
-392,-230,0,0,0,0,0,0,0,0,0,-1,832,1254,0,0
-385,-230,0,0,0,0,0,0,0,0,0,-1,839,1254,0,0
-378,-230,0,0,0,0,0,0,0,0,0,-1,846,1254,0,0
-371,-230,0,0,0,0,0,0,0,0,0,-1,853,1254,0,0
-364,-230,0,0,0,0,0,0,0,0,0,-1,860,1254,0,0
-357,-230,0,0,0,0,0,0,0,0,0,-1,867,1254,0,0
-350,-230,0,0,0,0,0,0,0,0,0,-1,874,1254,0,0
-343,-230,0,0,0,0,0,0,0,0,0,-1,881,1254,0,0
-336,-230,0,0,0,0,0,0,0,0,0,-1,888,1254,0,0
-329,-230,0,0,0,0,0,0,0,0,0,-1,895,1254,0,0
-322,-230,0,0,0,0,0,0,0,0,0,-1,902,1254,0,0
-315,-230,0,0,0,0,0,0,0,0,0,-1,909,1254,0,0
-308,-230,0,0,0,0,0,0,0,0,0,-1,916,1254,0,0
-301,-230,0,0,0,0,0,0,0,0,0,-1,923,1254,0,0
-294,-230,0,0,0,0,0,0,0,0,0,-1,930,1254,0,0
-287,-230,0,0,0,0,0,0,0,0,0,-1,937,1254,0,0
-280,-230,0,0,0,0,0,0,0,0,0,-1,944,1254,0,0
-273,-230,0,0,0,0,0,0,0,0,0,-1,951,1254,0,0
-266,-230,0,0,0,0,0,0,0,0,0,-1,958,1254,0,0
-259,-230,0,0,0,0,0,0,0,0,0,-1,965,1254,0,0
-252,-230,0,0,0,0,0,0,0,0,0,-1,972,1254,0,0
-245,-230,0,0,0,0,0,0,0,0,0,-1,979,1254,0,0
-238,-230,0,0,0,0,0,0,0,0,0,-1,986,1254,0,0
-231,-230,0,0,0,0,0,0,0,0,0,-1,993,1254,0,0
-224,-230,0,0,0,0,0,0,0,0,0,-1,1000,1254,0,0
-217,-230,0,0,0,0,0,0,0,0,0,-1,1007,1254,0,0
-210,-230,0,0,0,0,0,0,0,0,0,-1,1014,1254,0,0
-203,-230,0,0,0,0,0,0,0,0,0,-1,1021,1254,0,0
-196,-230,0,0,0,0,0,0,0,0,0,-1,1028,1254,0,0
-189,-230,0,0,0,0,0,0,0,0,0,-1,1035,1254,0,0
-182,-230,0,0,0,0,0,0,0,0,0,-1,1042,1254,0,0
-175,-230,0,0,0,0,0,0,0,0,0,-1,1049,1254,0,0
-168,-230,0,0,0,0,0,0,0,0,0,-1,1056,1254,0,0
-161,-230,0,0,0,0,0,0,0,0,0,-1,1063,1254,0,0
-154,-230,0,0,0,0,0,0,0,0,0,-1,1070,1254,0,0
-147,-230,0,0,0,0,0,0,0,0,0,-1,1077,1254,0,0
-140,-230,0,0,0,0,0,0,0,0,0,-1,1084,1254,0,0
-133,-230,0,0,0,0,0,0,0,0,0,-1,1091,1254,0,0
-126,-230,0,0,0,0,0,0,0,0,0,-1,1098,1254,0,0
-119,-230,0,0,0,0,0,0,0,0,0,-1,1105,1254,0,0
-112,-230,0,0,0,0,0,0,0,0,0,-1,1112,1254,0,0
-105,-230,0,0,0,0,0,0,0,0,0,-1,1119,1254,0,0
-98,-230,0,0,0,0,0,0,0,0,0,-1,1126,1254,0,0
-91,-230,0,0,0,0,0,0,0,0,0,-1,1133,1254,0,0
-84,-230,0,0,0,0,0,0,0,0,0,-1,1140,1254,0,0
-77,-230,0,0,0,0,0,0,0,0,0,-1,1147,1254,0,0
-70,-230,0,0,0,0,0,0,0,0,0,-1,1154,1254,0,0
-63,-230,0,0,0,0,0,0,0,0,0,-1,1161,1254,0,0
-56,-230,0,0,0,0,0,0,0,0,0,-1,1168,1254,0,0
-49,-230,0,0,0,0,0,0,0,0,0,-1,1175,1254,0,0
-42,-230,0,0,0,0,0,0,0,0,0,-1,1182,1254,0,0
-35,-230,0,0,0,0,0,0,0,0,0,-1,1189,1254,0,0
-28,-230,0,0,0,0,0,0,0,0,0,-1,1196,1254,0,0
-21,-230,0,0,0,0,0,0,0,0,0,-1,1203,1254,0,0
-14,-230,0,0,0,0,0,0,0,0,0,-1,1210,1254,0,0
-7,-230,0,0,0,0,0,0,0,0,0,-1,1217,1254,0,0
0,-230,0,0,0,0,0,0,0,0,0,-1,1224,1254,0,0
7,-230,0,0,0,0,0,0,0,0,0,-1,1231,1254,0,0
14,-230,0,0,0,0,0,0,0,0,0,-1,1238,1254,0,0
21,-230,0,0,0,0,0,0,0,0,0,-1,1245,1254,0,0
28,-230,0,0,0,0,0,0,0,0,0,-1,1252,1254,0,0
35,-230,0,0,0,0,0,0,0,0,0,-1,1259,1254,0,0
42,-230,0,0,0,0,0,0,0,0,0,-1,1266,1254,0,0
49,-230,0,0,0,0,0,0,0,0,0,-1,1273,1254,0,0
56,-230,0,0,0,0,0,0,0,0,0,-1,1280,1254,0,0
63,-230,0,0,0,0,0,0,0,0,0,-1,1287,1254,0,0
70,-230,0,0,0,0,0,0,0,0,0,-1,1294,1254,0,0
77,-230,0,0,0,0,0,0,0,0,0,-1,1301,1254,0,0
84,-230,0,0,0,0,0,0,0,0,0,-1,1308,1254,0,0
91,-230,0,0,0,0,0,0,0,0,0,-1,1315,1254,0,0
98,-230,0,0,0,0,0,0,0,0,0,-1,1322,1254,0,0
105,-230,0,0,0,0,0,0,0,0,0,-1,1329,1254,0,0
112,-230,0,0,0,0,0,0,0,0,0,-1,1336,1254,0,0
119,-230,0,0,0,0,0,0,0,0,0,-1,1343,1254,0,0
126,-230,0,0,0,0,0,0,0,0,0,-1,1350,1254,0,0
133,-230,0,0,0,0,0,0,0,0,0,-1,1357,1254,0,0
140,-230,0,0,0,0,0,0,0,0,0,-1,1364,1254,0,0
147,-230,0,0,0,0,0,0,0,0,0,-1,1371,1254,0,0
154,-230,0,0,0,0,0,0,0,0,0,-1,1378,1254,0,0
161,-230,0,0,0,0,0,0,0,0,0,-1,1385,1254,0,0
168,-230,0,0,0,0,0,0,0,0,0,-1,1392,1254,0,0
175,-230,0,0,0,0,0,0,0,0,0,-1,1399,1254,0,0
182,-230,0,0,0,0,0,0,0,0,0,-1,1406,1254,0,0
189,-230,0,0,0,0,0,0,0,0,0,-1,1413,1254,0,0
196,-230,0,0,0,0,0,0,0,0,0,-1,1420,1254,0,0
203,-230,0,0,0,0,0,0,0,0,0,-1,1427,1254,0,0
210,-230,0,0,0,0,0,0,0,0,0,-1,1434,1254,0,0
217,-230,0,0,0,0,0,0,0,0,0,-1,1441,1254,0,0
224,-230,0,0,0,0,0,0,0,0,0,-1,1448,1254,0,0
231,-230,0,0,0,0,0,0,0,0,0,-1,1455,1254,0,0
238,-230,0,0,0,0,0,0,0,0,0,-1,1462,1254,0,0
245,-230,0,0,0,0,0,0,0,0,0,-1,1469,1254,0,0
252,-230,0,0,0,0,0,0,0,0,0,-1,1476,1254,0,0
259,-230,0,0,0,0,0,0,0,0,0,-1,1483,1254,0,0
266,-230,0,0,0,0,0,0,0,0,0,-1,1490,1254,0,0
273,-230,0,0,0,0,0,0,0,0,0,-1,1497,1254,0,0
280,-230,0,0,0,0,0,0,0,0,0,-1,1504,1254,0,0
287,-230,0,0,0,0,0,0,0,0,0,-1,1511,1254,0,0
294,-230,0,0,0,0,0,0,0,0,0,-1,1518,1254,0,0
301,-230,0,0,0,0,0,0,0,0,0,-1,1525,1254,0,0
308,-230,0,0,0,0,0,0,0,0,0,-1,1532,1254,0,0
315,-230,0,0,0,0,0,0,0,0,0,-1,1539,1254,0,0
322,-230,0,0,0,0,0,0,0,0,0,-1,1546,1254,0,0
329,-230,0,0,0,0,0,0,0,0,0,-1,1553,1254,0,0
336,-230,0,0,0,0,0,0,0,0,0,-1,1560,1254,0,0
343,-230,0,0,0,0,0,0,0,0,0,-1,1567,1254,0,0
350,-230,0,0,0,0,0,0,0,0,0,-1,1574,1254,0,0
357,-230,0,0,0,0,0,0,0,0,0,-1,1581,1254,0,0
364,-230,0,0,0,0,0,0,0,0,0,-1,1588,1254,0,0
371,-230,0,0,0,0,0,0,0,0,0,-1,1595,1254,0,0
378,-230,0,0,0,0,0,0,0,0,0,-1,1602,1254,0,0
385,-230,0,0,0,0,0,0,0,0,0,-1,1609,1254,0,0
392,-230,0,0,0,0,0,0,0,0,0,-1,1616,1254,0,0
399,-230,0,0,0,0,0,0,0,0,0,-1,1623,1254,0,0
406,-230,0,0,0,0,0,0,0,0,0,-1,1630,1254,0,0
413,-230,0,0,0,0,0,0,0,0,0,-1,1637,1254,0,0
420,-230,0,0,0,0,0,0,0,0,0,-1,1644,1254,0,0
427,-230,0,0,0,0,0,0,0,0,0,-1,1651,1254,0,0
434,-230,0,0,0,0,0,0,0,0,0,-1,1658,1254,0,0
441,-230,0,0,0,0,0,0,0,0,0,-1,1665,1254,0,0
448,-230,0,0,0,0,0,0,0,0,0,-1,1672,1254,0,0
455,-230,0,0,0,0,0,0,0,0,0,-1,1679,1254,0,0
462,-230,0,0,0,0,0,0,0,0,0,-1,1686,1254,0,0
469,-230,0,0,0,0,0,0,0,0,0,-1,1693,1254,0,0
476,-230,0,0,0,0,0,0,0,0,0,-1,1700,1254,0,0
483,-230,0,0,0,0,0,0,0,0,0,-1,1707,1254,0,0
490,-230,0,0,0,0,0,0,0,0,0,-1,1714,1254,0,0
497,-230,0,0,0,0,0,0,0,0,0,-1,1721,1254,0,0
504,-230,0,0,0,0,0,0,0,0,0,-1,1728,1254,0,0
511,-230,0,0,0,0,0,0,0,0,0,-1,1735,1254,0,0
518,-230,0,0,0,0,0,0,0,0,0,-1,1742,1254,0,0
525,-230,0,0,0,0,0,0,0,0,0,-1,1749,1254,0,0
532,-230,0,0,0,0,0,0,0,0,0,-1,1756,1254,0,0
539,-230,0,0,0,0,0,0,0,0,0,-1,1763,1254,0,0
546,-230,0,0,0,0,0,0,0,0,0,-1,1770,1254,0,0
553,-230,0,0,0,0,0,0,0,0,0,-1,1777,1254,0,0
560,-230,0,0,0,0,0,0,0,0,0,-1,1784,1254,0,0
567,-230,0,0,0,0,0,0,0,0,0,-1,1791,1254,0,0
574,-230,0,0,0,0,0,0,0,0,0,-1,1798,1254,0,0
581,-230,0,0,0,0,0,0,0,0,0,-1,1805,1254,0,0
588,-230,0,0,0,0,0,0,0,0,0,-1,1812,1254,0,0
595,-230,0,0,0,0,0,0,0,0,0,-1,1819,1254,0,0
602,-230,0,0,0,0,0,0,0,0,0,-1,1826,1254,0,0
609,-230,0,0,0,0,0,0,0,0,0,-1,1833,1254,0,0
616,-230,19.2944,2.55432,-0.012543,-0.00539897,-0.000787382,-0.00531322,-0.0126288,-1.46232,0.00732171,0.0355186,1840,1254,19.2944,-2.55428
623,-230,19.2454,2.60107,-0.00835164,-0.000365021,-0.0020099,0.000112263,-0.00882893,-1.33765,0.00592373,0.0340363,1847,1254,19.2453,-2.60109
630,-230,19.2092,2.53088,-0.00480272,0.0059247,-0.00195359,0.0062694,-0.00514742,-1.39615,0.0066021,0.030859,1854,1254,19.2093,-2.53094
637,-230,19.2108,2.38293,-0.00197028,0.010085,-0.00133603,0.0102313,-0.00211657,-1.46173,0.00762496,0.0270968,1861,1254,19.2108,-2.38297
644,-230,19.2225,2.32373,-0.000240037,0.0121556,-0.000437537,0.012171,-0.000255461,-1.53556,0.00820047,0.0216431,1868,1254,19.2225,-2.32379
651,-230,19.0656,2.12927,0.0006795,0.0126827,0.000410956,0.0126968,0.000665447,1.53661,0.00825166,0.0390803,1875,1254,19.0656,-2.12922
658,-230,19.0951,2.19397,0.00109126,0.0123298,0.00111399,0.0124391,0.000981906,1.47294,0.00798559,0.0418945,1882,1254,19.0951,-2.19393
665,-230,19.2827,2.19434,0.00111044,0.0113772,0.00167268,0.0116428,0.000844792,1.4133,0.00749618,0.0445587,1889,1254,19.2827,-2.19438
672,-230,19.4193,2.5365,0.000874978,0.0101263,0.00205737,0.0105632,0.00043808,1.36155,0.00690075,0.0491184,1896,1254,19.4193,-2.53646
679,-230,16.5636,4.54907,0,0,0,0,0,0,0,-1,1903,1254,16.5636,-4.54903
686,-230,16.5543,4.55017,0.000243544,0.0072667,0.00278484,0.00823692,-0.000726677,1.23555,0.00574883,0.0443256,1910,1254,16.5543,-4.55017
693,-230,16.5164,4.56641,-0.000221519,0.00576465,0.00283344,0.00689309,-0.00134996,1.19179,0.00510522,0.0198775,1917,1254,16.5164,-4.56637
700,-230,16.5391,4.45947,-0.000648651,0.00403269,0.00270262,0.00526734,-0.0018833,1.14227,0.00427975,0.011377,1924,1254,16.5391,-4.45952
707,-230,16.5377,4.30139,-0.00145393,0.00221654,0.00238068,0.00338726,-0.00262465,1.11377,0.00348027,0.00955806,1931,1254,16.5378,-4.30138
714,-230,16.5511,4.14038,-0.00203885,0.0008847,0.00185832,0.00178727,-0.00294142,1.11866,0.00275709,0.0120402,1938,1254,16.5511,-4.14042
721,-230,16.5698,3.99377,-0.0012443,-6.49115e-05,0.00116456,0.000650747,-0.00195995,1.01976,0.00156919,0.0122609,1945,1254,16.5698,-3.99375
728,-230,16.5431,3.87183,5.4092e-05,-0.000697729,0.000411564,0.00023558,-0.000879218,0.415321,0.000678445,0.0129957,1952,1254,16.543,-3.87182
735,-230,16.5247,3.74341,0.00114412,-0.00070047,7.74482e-05,0.00114736,-0.000703716,0.0418885,0.0010789,0.0140193,1959,1254,16.5247,-3.74341
742,-230,16.5131,3.59534,0.0025613,-0.000729508,5.85663e-05,0.00256234,-0.00073055,0.0177894,0.0019968,0.0111787,1966,1254,16.5131,-3.59533
749,-230,16.5232,3.44531,0.00406732,-0.000929042,8.01347e-05,0.0040686,-0.000930327,0.0160331,0.00306986,0.0104008,1973,1254,16.5232,-3.44532
756,-230,16.526,3.29626,0.00586916,-0.00123156,0.000470399,0.00590019,-0.00126259,0.065863,0.00441492,0.0124953,1980,1254,16.526,-3.2963
763,-230,16.5695,3.07703,0.00806961,-0.00165965,0.00136709,0.00825806,-0.00184809,0.13698,0.0062137,0.024604,1987,1254,16.5694,-3.07703
770,-230,16.722,2.85413,0,0,0,0,0,0,0,-1,1994,1254,16.7221,-2.85415
777,-230,16.8527,2.71838,0.0135941,-0.00259597,0.00582444,0.0154717,-0.00447358,0.311849,0.0120849,0.0499422,2001,1254,16.8526,-2.71834
784,-230,16.504,2.2572,0.0166537,-0.00290712,0.010245,0.0210372,-0.00729064,0.404298,0.0169849,0.0495982,2008,1254,16.5041,-2.25721
791,-230,16.4393,2.08899,0,0,0,0,0,0,0,-1,2015,1254,16.4393,-2.08894
798,-230,0,0,0,0,0,0,0,0,0,-1,2022,1254,0,0
805,-230,0,0,0,0,0,0,0,0,0,-1,2029,1254,0,0
812,-230,0,0,0,0,0,0,0,0,0,-1,2036,1254,0,0
-700,-237,0,0,0,0,0,0,0,0,0,-1,524,1261,0,0
-693,-237,0,0,0,0,0,0,0,0,0,-1,531,1261,0,0
-686,-237,0,0,0,0,0,0,0,0,0,-1,538,1261,0,0
-679,-237,0,0,0,0,0,0,0,0,0,-1,545,1261,0,0
-672,-237,-9.1355,-1.10364,-0.0270149,0.0489841,0.0293816,0.0590183,-0.0370491,1.2417,0.0559459,0.0482973,552,1261,-9.1355,1.10369
-665,-237,-9.26868,-0.845825,-0.00899986,0.0415198,0.0181024,0.0473366,-0.0148167,1.25989,0.0374857,0.0474065,559,1261,-9.26866,0.845817
-658,-237,-9.53333,-0.502197,0.00348727,0.0351141,0.00980319,0.0379062,0.000695124,1.29332,0.0250423,0.0465673,566,1261,-9.53335,0.502241
-651,-237,-9.68896,-0.372803,0.011537,0.0293633,0.00392675,0.0301899,0.0107104,1.36331,0.0176736,0.0466691,573,1261,-9.68897,0.372743
-644,-237,-9.83337,-0.253906,0,0,0,0,0,0,0,-1,580,1261,-9.83337,0.253944
-637,-237,-8.69775,0.727783,0,0,0,0,0,0,0,-1,587,1261,-8.69774,-0.727734
-630,-237,-8.83533,0.860718,0.0179569,0.0153154,-0.00374361,0.0206059,0.0126664,-0.615818,0.0120007,0.0456813,594,1261,-8.83534,-0.860721
-623,-237,-8.99127,0.975952,0.0166882,0.0114705,-0.00399143,0.0188477,0.00931098,-0.495946,0.010882,0.0285374,601,1261,-8.9913,-0.975934
-616,-237,-8.99811,1.12549,0.0154145,0.00815231,-0.00469961,0.0177223,0.00584445,-0.456483,0.0104278,0.0139202,608,1261,-8.99809,-1.12544
-609,-237,-8.98248,1.28296,0.0130852,0.00591371,-0.00456308,0.0153029,0.00369607,-0.452382,0.00922022,0.0151709,615,1261,-8.98248,-1.2829
-602,-237,-9.00024,1.45557,0.0106552,0.00365487,-0.00359549,0.0121729,0.0021372,-0.399415,0.00750501,0.0104812,622,1261,-9.00026,-1.45558
-595,-237,-9.02948,1.66382,0.00838299,0.00130132,-0.00229377,0.00906103,0.000623281,-0.287415,0.00584401,0.0147931,629,1261,-9.0295,-1.66377
-588,-237,-9.0304,1.80652,0.00615263,-0.000189452,-0.0011713,0.00636205,-0.000398863,-0.176915,0.00438038,0.0264222,636,1261,-9.03037,-1.80654
-581,-237,-9.02954,1.98254,0.00463005,-0.00077296,-0.000650908,0.00470736,-0.00085027,-0.118218,0.0034567,0.0237241,643,1261,-9.02952,-1.98257
-574,-237,-9.01056,2.16345,0.00430529,-0.000820968,-0.000637318,0.00438334,-0.000899014,-0.121853,0.00326344,0.0148675,650,1261,-9.01054,-2.16345
-567,-237,-8.97681,2.35046,0.00469465,-0.000130516,-0.00116301,0.00496034,-0.000396206,-0.224596,0.00344656,0.0144721,657,1261,-8.97681,-2.35045
-560,-237,-8.80084,2.58691,0.00503,0.000925727,-0.00203703,0.00586936,8.63676e-05,-0.390852,0.00388444,0.0266265,664,1261,-8.80084,-2.58689
-553,-237,-8.81879,2.76147,0,0,0,0,0,0,0,-1,671,1261,-8.81878,-2.7615
-546,-237,-8.20917,2.62854,0,0,0,0,0,0,0,-1,678,1261,-8.20914,-2.62849
-539,-237,-10.7599,-0.462158,0,0,0,0,0,0,0,-1,685,1261,-10.76,0.462131
-532,-237,-11.2642,-0.147461,0.00363609,0.00785418,-0.00613196,0.0122297,-0.000739392,-0.951033,0.00841041,0.0454509,692,1261,-11.2642,0.147431
-525,-237,-11.7707,0.249023,0.00286721,0.0110763,-0.00791902,0.0158913,-0.00194777,-1.0245,0.0112996,0.0451162,699,1261,-11.7707,-0.248971
-518,-237,-11.894,0.240845,0.00175903,0.0151229,-0.0101736,0.0206127,-0.00373075,-1.07597,0.0151394,0.0413357,706,1261,-11.8941,-0.240888
-511,-237,-12.1193,0.321167,0.000112367,0.0197636,-0.0126463,0.0259527,-0.00607673,-1.11566,0.0196432,0.0413163,713,1261,-12.1193,-0.321166
-504,-237,-12.2096,0.414551,-0.00187104,0.0245012,-0.014216,0.030705,-0.00807482,-1.15931,0.0236261,0.0420639,720,1261,-12.2096,-0.414563
-497,-237,-12.3771,0.689453,0,0,0,0,0,0,0,-1,727,1261,-12.3771,-0.68944
-490,-237,0,0,0,0,0,0,0,0,0,-1,734,1261,0,0
-483,-237,0,0,0,0,0,0,0,0,0,-1,741,1261,0,0
-476,-237,0,0,0,0,0,0,0,0,0,-1,748,1261,0,0
-469,-237,0,0,0,0,0,0,0,0,0,-1,755,1261,0,0
-462,-237,0,0,0,0,0,0,0,0,0,-1,762,1261,0,0
-455,-237,0,0,0,0,0,0,0,0,0,-1,769,1261,0,0
-448,-237,0,0,0,0,0,0,0,0,0,-1,776,1261,0,0
-441,-237,0,0,0,0,0,0,0,0,0,-1,783,1261,0,0
-434,-237,0,0,0,0,0,0,0,0,0,-1,790,1261,0,0
-427,-237,0,0,0,0,0,0,0,0,0,-1,797,1261,0,0
-420,-237,0,0,0,0,0,0,0,0,0,-1,804,1261,0,0
-413,-237,0,0,0,0,0,0,0,0,0,-1,811,1261,0,0
-406,-237,0,0,0,0,0,0,0,0,0,-1,818,1261,0,0
-399,-237,0,0,0,0,0,0,0,0,0,-1,825,1261,0,0
-392,-237,0,0,0,0,0,0,0,0,0,-1,832,1261,0,0
-385,-237,0,0,0,0,0,0,0,0,0,-1,839,1261,0,0
-378,-237,0,0,0,0,0,0,0,0,0,-1,846,1261,0,0
-371,-237,0,0,0,0,0,0,0,0,0,-1,853,1261,0,0
-364,-237,0,0,0,0,0,0,0,0,0,-1,860,1261,0,0
-357,-237,0,0,0,0,0,0,0,0,0,-1,867,1261,0,0
-350,-237,0,0,0,0,0,0,0,0,0,-1,874,1261,0,0
-343,-237,0,0,0,0,0,0,0,0,0,-1,881,1261,0,0
-336,-237,0,0,0,0,0,0,0,0,0,-1,888,1261,0,0
-329,-237,0,0,0,0,0,0,0,0,0,-1,895,1261,0,0
-322,-237,0,0,0,0,0,0,0,0,0,-1,902,1261,0,0
-315,-237,0,0,0,0,0,0,0,0,0,-1,909,1261,0,0
-308,-237,0,0,0,0,0,0,0,0,0,-1,916,1261,0,0
-301,-237,0,0,0,0,0,0,0,0,0,-1,923,1261,0,0
-294,-237,0,0,0,0,0,0,0,0,0,-1,930,1261,0,0
-287,-237,0,0,0,0,0,0,0,0,0,-1,937,1261,0,0
-280,-237,0,0,0,0,0,0,0,0,0,-1,944,1261,0,0
-273,-237,0,0,0,0,0,0,0,0,0,-1,951,1261,0,0
-266,-237,0,0,0,0,0,0,0,0,0,-1,958,1261,0,0
-259,-237,0,0,0,0,0,0,0,0,0,-1,965,1261,0,0
-252,-237,0,0,0,0,0,0,0,0,0,-1,972,1261,0,0
-245,-237,0,0,0,0,0,0,0,0,0,-1,979,1261,0,0
-238,-237,0,0,0,0,0,0,0,0,0,-1,986,1261,0,0
-231,-237,0,0,0,0,0,0,0,0,0,-1,993,1261,0,0
-224,-237,0,0,0,0,0,0,0,0,0,-1,1000,1261,0,0
-217,-237,0,0,0,0,0,0,0,0,0,-1,1007,1261,0,0
-210,-237,0,0,0,0,0,0,0,0,0,-1,1014,1261,0,0
-203,-237,0,0,0,0,0,0,0,0,0,-1,1021,1261,0,0
-196,-237,0,0,0,0,0,0,0,0,0,-1,1028,1261,0,0
-189,-237,0,0,0,0,0,0,0,0,0,-1,1035,1261,0,0
-182,-237,0,0,0,0,0,0,0,0,0,-1,1042,1261,0,0
-175,-237,0,0,0,0,0,0,0,0,0,-1,1049,1261,0,0
-168,-237,0,0,0,0,0,0,0,0,0,-1,1056,1261,0,0
-161,-237,0,0,0,0,0,0,0,0,0,-1,1063,1261,0,0
-154,-237,0,0,0,0,0,0,0,0,0,-1,1070,1261,0,0
-147,-237,0,0,0,0,0,0,0,0,0,-1,1077,1261,0,0
-140,-237,0,0,0,0,0,0,0,0,0,-1,1084,1261,0,0
-133,-237,0,0,0,0,0,0,0,0,0,-1,1091,1261,0,0
-126,-237,0,0,0,0,0,0,0,0,0,-1,1098,1261,0,0
-119,-237,0,0,0,0,0,0,0,0,0,-1,1105,1261,0,0
-112,-237,0,0,0,0,0,0,0,0,0,-1,1112,1261,0,0
-105,-237,0,0,0,0,0,0,0,0,0,-1,1119,1261,0,0
-98,-237,0,0,0,0,0,0,0,0,0,-1,1126,1261,0,0
-91,-237,0,0,0,0,0,0,0,0,0,-1,1133,1261,0,0
-84,-237,0,0,0,0,0,0,0,0,0,-1,1140,1261,0,0
-77,-237,0,0,0,0,0,0,0,0,0,-1,1147,1261,0,0
-70,-237,0,0,0,0,0,0,0,0,0,-1,1154,1261,0,0
-63,-237,0,0,0,0,0,0,0,0,0,-1,1161,1261,0,0
-56,-237,0,0,0,0,0,0,0,0,0,-1,1168,1261,0,0
-49,-237,0,0,0,0,0,0,0,0,0,-1,1175,1261,0,0
-42,-237,0,0,0,0,0,0,0,0,0,-1,1182,1261,0,0
-35,-237,0,0,0,0,0,0,0,0,0,-1,1189,1261,0,0
-28,-237,0,0,0,0,0,0,0,0,0,-1,1196,1261,0,0
-21,-237,0,0,0,0,0,0,0,0,0,-1,1203,1261,0,0
-14,-237,0,0,0,0,0,0,0,0,0,-1,1210,1261,0,0
-7,-237,0,0,0,0,0,0,0,0,0,-1,1217,1261,0,0
0,-237,0,0,0,0,0,0,0,0,0,-1,1224,1261,0,0
7,-237,0,0,0,0,0,0,0,0,0,-1,1231,1261,0,0
14,-237,0,0,0,0,0,0,0,0,0,-1,1238,1261,0,0
21,-237,0,0,0,0,0,0,0,0,0,-1,1245,1261,0,0
28,-237,0,0,0,0,0,0,0,0,0,-1,1252,1261,0,0
35,-237,0,0,0,0,0,0,0,0,0,-1,1259,1261,0,0
42,-237,0,0,0,0,0,0,0,0,0,-1,1266,1261,0,0
49,-237,0,0,0,0,0,0,0,0,0,-1,1273,1261,0,0
56,-237,0,0,0,0,0,0,0,0,0,-1,1280,1261,0,0
63,-237,0,0,0,0,0,0,0,0,0,-1,1287,1261,0,0
70,-237,0,0,0,0,0,0,0,0,0,-1,1294,1261,0,0
77,-237,0,0,0,0,0,0,0,0,0,-1,1301,1261,0,0
84,-237,0,0,0,0,0,0,0,0,0,-1,1308,1261,0,0
91,-237,0,0,0,0,0,0,0,0,0,-1,1315,1261,0,0
98,-237,0,0,0,0,0,0,0,0,0,-1,1322,1261,0,0
105,-237,0,0,0,0,0,0,0,0,0,-1,1329,1261,0,0
112,-237,0,0,0,0,0,0,0,0,0,-1,1336,1261,0,0
119,-237,0,0,0,0,0,0,0,0,0,-1,1343,1261,0,0
126,-237,0,0,0,0,0,0,0,0,0,-1,1350,1261,0,0
133,-237,0,0,0,0,0,0,0,0,0,-1,1357,1261,0,0
140,-237,0,0,0,0,0,0,0,0,0,-1,1364,1261,0,0
147,-237,0,0,0,0,0,0,0,0,0,-1,1371,1261,0,0
154,-237,0,0,0,0,0,0,0,0,0,-1,1378,1261,0,0
161,-237,0,0,0,0,0,0,0,0,0,-1,1385,1261,0,0
168,-237,0,0,0,0,0,0,0,0,0,-1,1392,1261,0,0
175,-237,0,0,0,0,0,0,0,0,0,-1,1399,1261,0,0
182,-237,0,0,0,0,0,0,0,0,0,-1,1406,1261,0,0
189,-237,0,0,0,0,0,0,0,0,0,-1,1413,1261,0,0
196,-237,0,0,0,0,0,0,0,0,0,-1,1420,1261,0,0
203,-237,0,0,0,0,0,0,0,0,0,-1,1427,1261,0,0
210,-237,0,0,0,0,0,0,0,0,0,-1,1434,1261,0,0
217,-237,0,0,0,0,0,0,0,0,0,-1,1441,1261,0,0
224,-237,0,0,0,0,0,0,0,0,0,-1,1448,1261,0,0
231,-237,0,0,0,0,0,0,0,0,0,-1,1455,1261,0,0
238,-237,0,0,0,0,0,0,0,0,0,-1,1462,1261,0,0
245,-237,0,0,0,0,0,0,0,0,0,-1,1469,1261,0,0
252,-237,0,0,0,0,0,0,0,0,0,-1,1476,1261,0,0
259,-237,0,0,0,0,0,0,0,0,0,-1,1483,1261,0,0
266,-237,0,0,0,0,0,0,0,0,0,-1,1490,1261,0,0
273,-237,0,0,0,0,0,0,0,0,0,-1,1497,1261,0,0
280,-237,0,0,0,0,0,0,0,0,0,-1,1504,1261,0,0
287,-237,0,0,0,0,0,0,0,0,0,-1,1511,1261,0,0
294,-237,0,0,0,0,0,0,0,0,0,-1,1518,1261,0,0
301,-237,0,0,0,0,0,0,0,0,0,-1,1525,1261,0,0
308,-237,0,0,0,0,0,0,0,0,0,-1,1532,1261,0,0
315,-237,0,0,0,0,0,0,0,0,0,-1,1539,1261,0,0
322,-237,0,0,0,0,0,0,0,0,0,-1,1546,1261,0,0
329,-237,0,0,0,0,0,0,0,0,0,-1,1553,1261,0,0
336,-237,0,0,0,0,0,0,0,0,0,-1,1560,1261,0,0
343,-237,0,0,0,0,0,0,0,0,0,-1,1567,1261,0,0
350,-237,0,0,0,0,0,0,0,0,0,-1,1574,1261,0,0
357,-237,0,0,0,0,0,0,0,0,0,-1,1581,1261,0,0
364,-237,0,0,0,0,0,0,0,0,0,-1,1588,1261,0,0
371,-237,0,0,0,0,0,0,0,0,0,-1,1595,1261,0,0
378,-237,0,0,0,0,0,0,0,0,0,-1,1602,1261,0,0
385,-237,0,0,0,0,0,0,0,0,0,-1,1609,1261,0,0
392,-237,0,0,0,0,0,0,0,0,0,-1,1616,1261,0,0
399,-237,0,0,0,0,0,0,0,0,0,-1,1623,1261,0,0
406,-237,0,0,0,0,0,0,0,0,0,-1,1630,1261,0,0
413,-237,0,0,0,0,0,0,0,0,0,-1,1637,1261,0,0
420,-237,0,0,0,0,0,0,0,0,0,-1,1644,1261,0,0
427,-237,0,0,0,0,0,0,0,0,0,-1,1651,1261,0,0
434,-237,0,0,0,0,0,0,0,0,0,-1,1658,1261,0,0
441,-237,0,0,0,0,0,0,0,0,0,-1,1665,1261,0,0
448,-237,0,0,0,0,0,0,0,0,0,-1,1672,1261,0,0
455,-237,0,0,0,0,0,0,0,0,0,-1,1679,1261,0,0
462,-237,0,0,0,0,0,0,0,0,0,-1,1686,1261,0,0
469,-237,0,0,0,0,0,0,0,0,0,-1,1693,1261,0,0
476,-237,0,0,0,0,0,0,0,0,0,-1,1700,1261,0,0
483,-237,0,0,0,0,0,0,0,0,0,-1,1707,1261,0,0
490,-237,0,0,0,0,0,0,0,0,0,-1,1714,1261,0,0
497,-237,0,0,0,0,0,0,0,0,0,-1,1721,1261,0,0
504,-237,0,0,0,0,0,0,0,0,0,-1,1728,1261,0,0
511,-237,0,0,0,0,0,0,0,0,0,-1,1735,1261,0,0
518,-237,0,0,0,0,0,0,0,0,0,-1,1742,1261,0,0
525,-237,0,0,0,0,0,0,0,0,0,-1,1749,1261,0,0
532,-237,0,0,0,0,0,0,0,0,0,-1,1756,1261,0,0
539,-237,0,0,0,0,0,0,0,0,0,-1,1763,1261,0,0
546,-237,0,0,0,0,0,0,0,0,0,-1,1770,1261,0,0
553,-237,0,0,0,0,0,0,0,0,0,-1,1777,1261,0,0
560,-237,0,0,0,0,0,0,0,0,0,-1,1784,1261,0,0
567,-237,0,0,0,0,0,0,0,0,0,-1,1791,1261,0,0
574,-237,0,0,0,0,0,0,0,0,0,-1,1798,1261,0,0
581,-237,0,0,0,0,0,0,0,0,0,-1,1805,1261,0,0
588,-237,0,0,0,0,0,0,0,0,0,-1,1812,1261,0,0
595,-237,0,0,0,0,0,0,0,0,0,-1,1819,1261,0,0
602,-237,0,0,0,0,0,0,0,0,0,-1,1826,1261,0,0
609,-237,0,0,0,0,0,0,0,0,0,-1,1833,1261,0,0
616,-237,19.2924,2.495,-0.012051,-0.00241857,-0.0011271,-0.00228844,-0.0121812,-1.45585,0.00747565,0.0371863,1840,1261,19.2923,-2.49501
623,-237,19.2792,2.52759,-0.00731398,0.00357501,-0.00245932,0.00410469,-0.00784366,-1.35866,0.00701006,0.0311728,1847,1261,19.2792,-2.52754
630,-237,19.2924,2.47241,-0.00347523,0.00973012,-0.00241937,0.0101594,-0.00390453,-1.39518,0.00838323,0.025549,1854,1261,19.2923,-2.47243
637,-237,19.2045,2.34534,-0.000825798,0.0131679,-0.00166106,0.0133623,-0.00102026,-1.45425,0.00926706,0.0219751,1861,1261,19.2045,-2.34536
644,-237,19.0239,2.11462,0.000731179,0.0145778,-0.000672756,0.0146104,0.00069857,-1.52236,0.00951596,0.0427378,1868,1261,19.0239,-2.11463
651,-237,18.9596,1.84766,0,0,0,0,0,0,0,-1,1875,1261,18.9596,-1.84764
658,-237,19.189,1.69958,0.00189584,0.0139127,0.00102475,0.0139995,0.00180908,1.48633,0.00879223,0.0442216,1882,1261,19.189,-1.69954
665,-237,19.3479,1.62927,0.00184633,0.0127039,0.00164124,0.0129465,0.00160366,1.424,0.00814924,0.0438817,1889,1261,19.3478,-1.62932
672,-237,18.8486,1.57214,0.00152307,0.0112755,0.00205422,0.0116905,0.00110804,1.37144,0.00745183,0.04955,1896,1261,18.8486,-1.57216
679,-237,16.6842,4.99011,0,0,0,0,0,0,0,-1,1903,1261,16.6843,-4.99015
686,-237,16.5378,4.77795,0.000831837,0.00785962,0.00301558,0.00897619,-0.000284733,1.21618,0.00608126,0.0316328,1910,1261,16.5378,-4.77793
693,-237,16.371,4.6062,0.000249653,0.00614584,0.0029595,0.00737505,-0.000979558,1.17713,0.00527363,0.0163202,1917,1261,16.3709,-4.60618
700,-237,16.3832,4.46301,-0.000247748,0.00421211,0.00271708,0.00549716,-0.00153281,1.12902,0.00426846,0.0107837,1924,1261,16.3832,-4.46297
707,-237,16.3872,4.30444,-0.00122912,0.0021799,0.00230541,0.00334248,-0.00239171,1.10372,0.00332577,0.00984096,1931,1261,16.3872,-4.30446
714,-237,16.3826,4.15308,-0.00187709,0.00081642,0.00166133,0.0016083,-0.00266897,1.126,0.00249466,0.0120431,1938,1261,16.3826,-4.15309
721,-237,16.3907,4.00525,-0.00109117,-9.93016e-05,0.00088834,0.000422161,-0.00161264,1.03998,0.00124,0.0123378,1945,1261,16.3907,-4.00526
728,-237,16.3917,3.85498,6.60794e-07,-0.000725324,0.000156695,3.30377e-05,-0.000757701,0.203756,0.000516499,0.012896,1952,1261,16.3917,-3.85504
735,-237,16.3782,3.68616,0.000782263,-0.000771726,-0.000219959,0.000812797,-0.00080226,-0.137936,0.000932461,0.0187626,1959,1261,16.3782,-3.68614
742,-237,16.392,3.57397,0.00179482,-0.000891392,-0.000273721,0.00182243,-0.000919,-0.100522,0.00161116,0.0149114,1966,1261,16.392,-3.57401
749,-237,16.3788,3.45044,0.00275234,-0.00122789,-0.000309649,0.00277629,-0.00125184,-0.0771779,0.00238051,0.0097123,1973,1261,16.3788,-3.45042
756,-237,16.3224,3.30237,0.00384521,-0.00172518,-3.04125e-05,0.00384537,-0.00172535,-0.00545945,0.00329298,0.0121594,1980,1261,16.3224,-3.30242
763,-237,16.2883,3.13489,0.00513283,-0.00237112,0.000690961,0.00519592,-0.00243421,0.0910594,0.00450042,0.0260551,1987,1261,16.2884,-3.13492
770,-237,16.1234,2.67224,0.0065673,-0.00311156,0.00211273,0.00700837,-0.00355263,0.205813,0.00620526,0.0406461,1994,1261,16.1234,-2.67228
777,-237,16.7672,2.79993,0.0079775,-0.00386026,0.00459593,0.00955233,-0.00543509,0.330119,0.00876115,0.0444432,2001,1261,16.7672,-2.79987
784,-237,16.4625,2.41199,0.00917004,-0.00448085,0.0086314,0.0133486,-0.00865939,0.450855,0.0128021,0.0472631,2008,1261,16.4625,-2.41195
791,-237,16.3433,2.15039,0,0,0,0,0,0,0,-1,2015,1261,16.3433,-2.15037
798,-237,0,0,0,0,0,0,0,0,0,-1,2022,1261,0,0
805,-237,0,0,0,0,0,0,0,0,0,-1,2029,1261,0,0
812,-237,0,0,0,0,0,0,0,0,0,-1,2036,1261,0,0
-700,-244,0,0,0,0,0,0,0,0,0,-1,524,1268,0,0
-693,-244,0,0,0,0,0,0,0,0,0,-1,531,1268,0,0
-686,-244,0,0,0,0,0,0,0,0,0,-1,538,1268,0,0
-679,-244,0,0,0,0,0,0,0,0,0,-1,545,1268,0,0
-672,-244,-8.46881,-2.39429,-0.011138,0.0559007,0.0310462,0.0680695,-0.0233069,1.19724,0.0548257,0.0459747,552,1268,-8.46879,2.39432
-665,-244,-9.17181,-1.15308,0.00940734,0.048518,0.0163796,0.0544716,0.00345379,1.22217,0.0352196,0.049608,559,1268,-9.17182,1.15308
-658,-244,-9.2951,-0.97876,0.0224329,0.0420223,0.00625769,0.0438507,0.0206046,1.28654,0.0253325,0.0473735,566,1268,-9.29509,0.978729
-651,-244,-9.40741,-0.841919,0.02956,0.0358974,-0.000339594,0.0359156,0.0295419,-1.51741,0.0221273,0.0458301,573,1268,-9.40738,0.841958
-644,-244,-10.8502,2.63379,0,0,0,0,0,0,0,-1,580,1268,-10.8501,-2.63383
-637,-244,-10.3265,2.21375,0.0321286,0.0247573,-0.00648315,0.0359005,0.0209854,-0.526934,0.0208257,0.0485344,587,1268,-10.3265,-2.21379
-630,-244,-8.47461,0.881592,0.0295622,0.0197981,-0.00719816,0.0333777,0.0159826,-0.487415,0.0192764,0.0433939,594,1268,-8.4746,-0.88164
-623,-244,-8.85107,1.005,0.0259083,0.0153692,-0.00703605,0.0294293,0.0118482,-0.46399,0.0170981,0.0306766,601,1268,-8.8511,-1.00503
-616,-244,-8.80994,1.13379,0.0225072,0.011271,-0.00706054,0.025912,0.00786612,-0.449341,0.0153403,0.0157922,608,1268,-8.80992,-1.13381
-609,-244,-8.78619,1.28943,0.0181672,0.00816672,-0.006164,0.0211041,0.00522988,-0.444631,0.0126905,0.0141314,615,1268,-8.78619,-1.28941
-602,-244,-8.78473,1.46338,0.014055,0.00524992,-0.00466109,0.016064,0.00324091,-0.406958,0.00980917,0.0141837,622,1268,-8.78471,-1.46338
-595,-244,-8.78967,1.6521,0.0103959,0.00232207,-0.00292005,0.0113413,0.00137668,-0.313108,0.00714632,0.0160207,629,1268,-8.78968,-1.65212
-588,-244,-8.81543,1.85364,0.00699311,0.000324692,-0.00135358,0.00725739,6.04093e-05,-0.19282,0.00481825,0.0209504,636,1268,-8.81545,-1.85364
-581,-244,-8.84387,2.01233,0.00478333,-0.000670684,-0.000488789,0.00482679,-0.000714143,-0.0886785,0.00348041,0.0174705,643,1268,-8.8439,-2.01234
-574,-244,-8.83618,2.18628,0.00443011,-0.000916515,-0.000372648,0.00445596,-0.000942363,-0.0692516,0.00332951,0.0125412,650,1268,-8.83618,-2.18634
-567,-244,-8.83136,2.36462,0.00506472,-0.000246768,-0.000967626,0.00523551,-0.000417555,-0.174701,0.00363752,0.00998075,657,1268,-8.83136,-2.36465
-560,-244,-8.80615,2.55347,0.00568485,0.000969812,-0.00201815,0.00643069,0.000223974,-0.353997,0.00421446,0.0152299,664,1268,-8.80618,-2.55345
-553,-244,-8.64978,2.74622,0.00587317,0.00201961,-0.00281353,0.00735643,0.000536348,-0.485163,0.00473564,0.0408212,671,1268,-8.64979,-2.7462
-546,-244,-8.38611,2.89526,0,0,0,0,0,0,0,-1,678,1268,-8.38612,-2.89527
-539,-244,-10.8834,2.52649,0,0,0,0,0,0,0,-1,685,1268,-10.8834,-2.52648
-532,-244,-11.5572,0.132446,0,0,0,0,0,0,0,-1,692,1268,-11.5572,-0.132471
-525,-244,-11.6428,0.173218,0.00263615,0.0147256,-0.0102235,0.0205577,-0.0031959,-1.05238,0.0148852,0.0459625,699,1268,-11.6427,-0.173242
-518,-244,-11.6046,0.0356445,0.000326419,0.0208733,-0.0136204,0.0276603,-0.00646058,-1.10851,0.0209288,0.0400347,706,1268,-11.6045,-0.0356541
-511,-244,-11.6426,-0.132202,0,0,0,0,0,0,0,-1,713,1268,-11.6427,0.132155
-504,-244,-12.2091,0.499878,0,0,0,0,0,0,0,-1,720,1268,-12.2091,-0.499916
-497,-244,-12.6067,0.952148,0,0,0,0,0,0,0,-1,727,1268,-12.6067,-0.952166
-490,-244,0,0,0,0,0,0,0,0,0,-1,734,1268,0,0
-483,-244,0,0,0,0,0,0,0,0,0,-1,741,1268,0,0
-476,-244,0,0,0,0,0,0,0,0,0,-1,748,1268,0,0
-469,-244,0,0,0,0,0,0,0,0,0,-1,755,1268,0,0
-462,-244,0,0,0,0,0,0,0,0,0,-1,762,1268,0,0
-455,-244,0,0,0,0,0,0,0,0,0,-1,769,1268,0,0
-448,-244,0,0,0,0,0,0,0,0,0,-1,776,1268,0,0
-441,-244,0,0,0,0,0,0,0,0,0,-1,783,1268,0,0
-434,-244,0,0,0,0,0,0,0,0,0,-1,790,1268,0,0
-427,-244,0,0,0,0,0,0,0,0,0,-1,797,1268,0,0
-420,-244,0,0,0,0,0,0,0,0,0,-1,804,1268,0,0
-413,-244,0,0,0,0,0,0,0,0,0,-1,811,1268,0,0
-406,-244,0,0,0,0,0,0,0,0,0,-1,818,1268,0,0
-399,-244,0,0,0,0,0,0,0,0,0,-1,825,1268,0,0
-392,-244,0,0,0,0,0,0,0,0,0,-1,832,1268,0,0
-385,-244,0,0,0,0,0,0,0,0,0,-1,839,1268,0,0
-378,-244,0,0,0,0,0,0,0,0,0,-1,846,1268,0,0
-371,-244,0,0,0,0,0,0,0,0,0,-1,853,1268,0,0
-364,-244,0,0,0,0,0,0,0,0,0,-1,860,1268,0,0
-357,-244,0,0,0,0,0,0,0,0,0,-1,867,1268,0,0
-350,-244,0,0,0,0,0,0,0,0,0,-1,874,1268,0,0
-343,-244,0,0,0,0,0,0,0,0,0,-1,881,1268,0,0
-336,-244,0,0,0,0,0,0,0,0,0,-1,888,1268,0,0
-329,-244,0,0,0,0,0,0,0,0,0,-1,895,1268,0,0
-322,-244,0,0,0,0,0,0,0,0,0,-1,902,1268,0,0
-315,-244,0,0,0,0,0,0,0,0,0,-1,909,1268,0,0
-308,-244,0,0,0,0,0,0,0,0,0,-1,916,1268,0,0
-301,-244,0,0,0,0,0,0,0,0,0,-1,923,1268,0,0
-294,-244,0,0,0,0,0,0,0,0,0,-1,930,1268,0,0
-287,-244,0,0,0,0,0,0,0,0,0,-1,937,1268,0,0
-280,-244,0,0,0,0,0,0,0,0,0,-1,944,1268,0,0
-273,-244,0,0,0,0,0,0,0,0,0,-1,951,1268,0,0
-266,-244,0,0,0,0,0,0,0,0,0,-1,958,1268,0,0
-259,-244,0,0,0,0,0,0,0,0,0,-1,965,1268,0,0
-252,-244,0,0,0,0,0,0,0,0,0,-1,972,1268,0,0
-245,-244,0,0,0,0,0,0,0,0,0,-1,979,1268,0,0
-238,-244,0,0,0,0,0,0,0,0,0,-1,986,1268,0,0
-231,-244,0,0,0,0,0,0,0,0,0,-1,993,1268,0,0
-224,-244,0,0,0,0,0,0,0,0,0,-1,1000,1268,0,0
-217,-244,0,0,0,0,0,0,0,0,0,-1,1007,1268,0,0
-210,-244,0,0,0,0,0,0,0,0,0,-1,1014,1268,0,0
-203,-244,0,0,0,0,0,0,0,0,0,-1,1021,1268,0,0
-196,-244,0,0,0,0,0,0,0,0,0,-1,1028,1268,0,0
-189,-244,0,0,0,0,0,0,0,0,0,-1,1035,1268,0,0
-182,-244,0,0,0,0,0,0,0,0,0,-1,1042,1268,0,0
-175,-244,0,0,0,0,0,0,0,0,0,-1,1049,1268,0,0
-168,-244,0,0,0,0,0,0,0,0,0,-1,1056,1268,0,0
-161,-244,0,0,0,0,0,0,0,0,0,-1,1063,1268,0,0
-154,-244,0,0,0,0,0,0,0,0,0,-1,1070,1268,0,0
-147,-244,0,0,0,0,0,0,0,0,0,-1,1077,1268,0,0
-140,-244,0,0,0,0,0,0,0,0,0,-1,1084,1268,0,0
-133,-244,0,0,0,0,0,0,0,0,0,-1,1091,1268,0,0
-126,-244,0,0,0,0,0,0,0,0,0,-1,1098,1268,0,0
-119,-244,0,0,0,0,0,0,0,0,0,-1,1105,1268,0,0
-112,-244,0,0,0,0,0,0,0,0,0,-1,1112,1268,0,0
-105,-244,0,0,0,0,0,0,0,0,0,-1,1119,1268,0,0
-98,-244,0,0,0,0,0,0,0,0,0,-1,1126,1268,0,0
-91,-244,0,0,0,0,0,0,0,0,0,-1,1133,1268,0,0
-84,-244,0,0,0,0,0,0,0,0,0,-1,1140,1268,0,0
-77,-244,0,0,0,0,0,0,0,0,0,-1,1147,1268,0,0
-70,-244,0,0,0,0,0,0,0,0,0,-1,1154,1268,0,0
-63,-244,0,0,0,0,0,0,0,0,0,-1,1161,1268,0,0
-56,-244,0,0,0,0,0,0,0,0,0,-1,1168,1268,0,0
-49,-244,0,0,0,0,0,0,0,0,0,-1,1175,1268,0,0
-42,-244,0,0,0,0,0,0,0,0,0,-1,1182,1268,0,0
-35,-244,0,0,0,0,0,0,0,0,0,-1,1189,1268,0,0
-28,-244,0,0,0,0,0,0,0,0,0,-1,1196,1268,0,0
-21,-244,0,0,0,0,0,0,0,0,0,-1,1203,1268,0,0
-14,-244,0,0,0,0,0,0,0,0,0,-1,1210,1268,0,0
-7,-244,0,0,0,0,0,0,0,0,0,-1,1217,1268,0,0
0,-244,0,0,0,0,0,0,0,0,0,-1,1224,1268,0,0
7,-244,0,0,0,0,0,0,0,0,0,-1,1231,1268,0,0
14,-244,0,0,0,0,0,0,0,0,0,-1,1238,1268,0,0
21,-244,0,0,0,0,0,0,0,0,0,-1,1245,1268,0,0
28,-244,0,0,0,0,0,0,0,0,0,-1,1252,1268,0,0
35,-244,0,0,0,0,0,0,0,0,0,-1,1259,1268,0,0
42,-244,0,0,0,0,0,0,0,0,0,-1,1266,1268,0,0
49,-244,0,0,0,0,0,0,0,0,0,-1,1273,1268,0,0
56,-244,0,0,0,0,0,0,0,0,0,-1,1280,1268,0,0
63,-244,0,0,0,0,0,0,0,0,0,-1,1287,1268,0,0
70,-244,0,0,0,0,0,0,0,0,0,-1,1294,1268,0,0
77,-244,0,0,0,0,0,0,0,0,0,-1,1301,1268,0,0
84,-244,0,0,0,0,0,0,0,0,0,-1,1308,1268,0,0
91,-244,0,0,0,0,0,0,0,0,0,-1,1315,1268,0,0
98,-244,0,0,0,0,0,0,0,0,0,-1,1322,1268,0,0
105,-244,0,0,0,0,0,0,0,0,0,-1,1329,1268,0,0
112,-244,0,0,0,0,0,0,0,0,0,-1,1336,1268,0,0
119,-244,0,0,0,0,0,0,0,0,0,-1,1343,1268,0,0
126,-244,0,0,0,0,0,0,0,0,0,-1,1350,1268,0,0
133,-244,0,0,0,0,0,0,0,0,0,-1,1357,1268,0,0
140,-244,0,0,0,0,0,0,0,0,0,-1,1364,1268,0,0
147,-244,0,0,0,0,0,0,0,0,0,-1,1371,1268,0,0
154,-244,0,0,0,0,0,0,0,0,0,-1,1378,1268,0,0
161,-244,0,0,0,0,0,0,0,0,0,-1,1385,1268,0,0
168,-244,0,0,0,0,0,0,0,0,0,-1,1392,1268,0,0
175,-244,0,0,0,0,0,0,0,0,0,-1,1399,1268,0,0
182,-244,0,0,0,0,0,0,0,0,0,-1,1406,1268,0,0
189,-244,0,0,0,0,0,0,0,0,0,-1,1413,1268,0,0
196,-244,0,0,0,0,0,0,0,0,0,-1,1420,1268,0,0
203,-244,0,0,0,0,0,0,0,0,0,-1,1427,1268,0,0
210,-244,0,0,0,0,0,0,0,0,0,-1,1434,1268,0,0
217,-244,0,0,0,0,0,0,0,0,0,-1,1441,1268,0,0
224,-244,0,0,0,0,0,0,0,0,0,-1,1448,1268,0,0
231,-244,0,0,0,0,0,0,0,0,0,-1,1455,1268,0,0
238,-244,0,0,0,0,0,0,0,0,0,-1,1462,1268,0,0
245,-244,0,0,0,0,0,0,0,0,0,-1,1469,1268,0,0
252,-244,0,0,0,0,0,0,0,0,0,-1,1476,1268,0,0
259,-244,0,0,0,0,0,0,0,0,0,-1,1483,1268,0,0
266,-244,0,0,0,0,0,0,0,0,0,-1,1490,1268,0,0
273,-244,0,0,0,0,0,0,0,0,0,-1,1497,1268,0,0
280,-244,0,0,0,0,0,0,0,0,0,-1,1504,1268,0,0
287,-244,0,0,0,0,0,0,0,0,0,-1,1511,1268,0,0
294,-244,0,0,0,0,0,0,0,0,0,-1,1518,1268,0,0
301,-244,0,0,0,0,0,0,0,0,0,-1,1525,1268,0,0
308,-244,0,0,0,0,0,0,0,0,0,-1,1532,1268,0,0
315,-244,0,0,0,0,0,0,0,0,0,-1,1539,1268,0,0
322,-244,0,0,0,0,0,0,0,0,0,-1,1546,1268,0,0
329,-244,0,0,0,0,0,0,0,0,0,-1,1553,1268,0,0
336,-244,0,0,0,0,0,0,0,0,0,-1,1560,1268,0,0
343,-244,0,0,0,0,0,0,0,0,0,-1,1567,1268,0,0
350,-244,0,0,0,0,0,0,0,0,0,-1,1574,1268,0,0
357,-244,0,0,0,0,0,0,0,0,0,-1,1581,1268,0,0
364,-244,0,0,0,0,0,0,0,0,0,-1,1588,1268,0,0
371,-244,0,0,0,0,0,0,0,0,0,-1,1595,1268,0,0
378,-244,0,0,0,0,0,0,0,0,0,-1,1602,1268,0,0
385,-244,0,0,0,0,0,0,0,0,0,-1,1609,1268,0,0
392,-244,0,0,0,0,0,0,0,0,0,-1,1616,1268,0,0
399,-244,0,0,0,0,0,0,0,0,0,-1,1623,1268,0,0
406,-244,0,0,0,0,0,0,0,0,0,-1,1630,1268,0,0
413,-244,0,0,0,0,0,0,0,0,0,-1,1637,1268,0,0
420,-244,0,0,0,0,0,0,0,0,0,-1,1644,1268,0,0
427,-244,0,0,0,0,0,0,0,0,0,-1,1651,1268,0,0
434,-244,0,0,0,0,0,0,0,0,0,-1,1658,1268,0,0
441,-244,0,0,0,0,0,0,0,0,0,-1,1665,1268,0,0
448,-244,0,0,0,0,0,0,0,0,0,-1,1672,1268,0,0
455,-244,0,0,0,0,0,0,0,0,0,-1,1679,1268,0,0
462,-244,0,0,0,0,0,0,0,0,0,-1,1686,1268,0,0
469,-244,0,0,0,0,0,0,0,0,0,-1,1693,1268,0,0
476,-244,0,0,0,0,0,0,0,0,0,-1,1700,1268,0,0
483,-244,0,0,0,0,0,0,0,0,0,-1,1707,1268,0,0
490,-244,0,0,0,0,0,0,0,0,0,-1,1714,1268,0,0
497,-244,0,0,0,0,0,0,0,0,0,-1,1721,1268,0,0
504,-244,0,0,0,0,0,0,0,0,0,-1,1728,1268,0,0
511,-244,0,0,0,0,0,0,0,0,0,-1,1735,1268,0,0
518,-244,0,0,0,0,0,0,0,0,0,-1,1742,1268,0,0
525,-244,0,0,0,0,0,0,0,0,0,-1,1749,1268,0,0
532,-244,0,0,0,0,0,0,0,0,0,-1,1756,1268,0,0
539,-244,0,0,0,0,0,0,0,0,0,-1,1763,1268,0,0
546,-244,0,0,0,0,0,0,0,0,0,-1,1770,1268,0,0
553,-244,0,0,0,0,0,0,0,0,0,-1,1777,1268,0,0
560,-244,0,0,0,0,0,0,0,0,0,-1,1784,1268,0,0
567,-244,0,0,0,0,0,0,0,0,0,-1,1791,1268,0,0
574,-244,0,0,0,0,0,0,0,0,0,-1,1798,1268,0,0
581,-244,0,0,0,0,0,0,0,0,0,-1,1805,1268,0,0
588,-244,0,0,0,0,0,0,0,0,0,-1,1812,1268,0,0
595,-244,0,0,0,0,0,0,0,0,0,-1,1819,1268,0,0
602,-244,0,0,0,0,0,0,0,0,0,-1,1826,1268,0,0
609,-244,0,0,0,0,0,0,0,0,0,-1,1833,1268,0,0
616,-244,19.2764,2.50317,-0.0111246,0.00153272,-0.00210098,0.00187235,-0.0114642,-1.41053,0.00833732,0.0348345,1840,1268,19.2764,-2.50319
623,-244,19.2865,2.46777,-0.00593848,0.00774059,-0.00332,0.0085038,-0.00670168,-1.34484,0.00879941,0.0258777,1847,1268,19.2865,-2.46779
630,-244,19.2939,2.4502,-0.00203716,0.0130202,-0.00310472,0.0136352,-0.00265221,-1.37523,0.0100911,0.0235541,1854,1268,19.2939,-2.45024
637,-244,19.2107,2.28967,0.000380424,0.0155085,-0.00216003,0.0158109,7.80514e-05,-1.43172,0.0105146,0.04077,1861,1268,19.2106,-2.28972
644,-244,18.8678,1.96313,0.00175184,0.016224,-0.00106085,0.0163013,0.00167449,-1.49801,0.0103546,0.0488318,1868,1268,18.8678,-1.96314
651,-244,18.6919,1.75232,0.00245697,0.0158213,-4.43759e-05,0.0158214,0.00245683,-1.56748,0.00983152,0.0470115,1875,1268,18.6919,-1.75229
658,-244,18.9554,1.57971,0.00272735,0.0148219,0.000790346,0.0148733,0.00267592,1.50582,0.00915486,0.0463122,1882,1268,18.9555,-1.57967
665,-244,19.0931,1.25061,0,0,0,0,0,0,0,-1,1889,1268,19.0932,-1.25065
672,-244,16.2371,4.67883,0,0,0,0,0,0,0,-1,1896,1268,16.2371,-4.6788
679,-244,16.1825,4.74963,0.00200413,0.0101137,0.00241763,0.0107797,0.00133809,1.30197,0.00678459,0.0466268,1903,1268,16.1825,-4.74969
686,-244,16.2236,4.7832,0.00148247,0.00807628,0.00311529,0.0093153,0.000243451,1.19226,0.00613066,0.0240634,1910,1268,16.2236,-4.78321
693,-244,16.225,4.65063,0.000777109,0.00623101,0.00292881,0.00750583,-0.000497711,1.16026,0.00517777,0.0105329,1917,1268,16.225,-4.6506
700,-244,16.2317,4.47144,0.000195402,0.00421531,0.00256941,0.00546753,-0.00105682,1.11731,0.00404359,0.00838352,1924,1268,16.2317,-4.47148
707,-244,16.2471,4.30823,-0.000965183,0.00206328,0.00209082,0.00313061,-0.00203251,1.0988,0.00300331,0.0101482,1931,1268,16.2471,-4.30821
714,-244,16.2513,4.16174,-0.00165818,0.000761829,0.00135232,0.00136645,-0.0022628,1.15036,0.00211655,0.0107234,1938,1268,16.2513,-4.16171
721,-244,16.2272,4.02051,-0.000910227,-5.85446e-05,0.000525149,0.000191722,-0.00116049,1.12607,0.000844852,0.0112014,1945,1268,16.2272,-4.02049
728,-244,16.2219,3.83704,-6.39109e-05,-0.000621801,-0.000140897,-3.03463e-05,-0.000655366,-0.233862,0.000427154,0.014878,1952,1268,16.2219,-3.83704
735,-244,16.2242,3.64319,0.000413133,-0.000687137,-0.000543414,0.000636269,-0.000910273,-0.389626,0.000897555,0.0216266,1959,1268,16.2243,-3.64317
742,-244,16.259,3.55298,0.00101373,-0.000869296,-0.000634346,0.00120749,-0.00106305,-0.296445,0.00131179,0.0154584,1966,1268,16.2591,-3.55303
749,-244,16.2349,3.43433,0.00141678,-0.00129467,-0.000730328,0.00160098,-0.00147887,-0.247063,0.00177862,0.017225,1973,1268,16.2348,-3.43432
756,-244,16.1512,3.28442,0.00177796,-0.00191515,-0.000587303,0.00186911,-0.00200629,-0.153968,0.00223793,0.0215377,1980,1268,16.1513,-3.28437
763,-244,16.0264,3.2251,0.00209455,-0.00270611,-7.91567e-05,0.00209585,-0.00270741,-0.0164828,0.00278065,0.0371949,1987,1268,16.0264,-3.22515
770,-244,15.8647,3.07483,0.00221975,-0.00362998,0.00106166,0.00240647,-0.00381669,0.174094,0.00362357,0.0436273,1994,1268,15.8648,-3.07487
777,-244,15.5271,2.85583,0,0,0,0,0,0,0,-1,2001,1268,15.5271,-2.85586
784,-244,16.6967,2.57764,0,0,0,0,0,0,0,-1,2008,1268,16.6967,-2.57762
791,-244,0,0,0,0,0,0,0,0,0,-1,2015,1268,0,0
798,-244,0,0,0,0,0,0,0,0,0,-1,2022,1268,0,0
805,-244,0,0,0,0,0,0,0,0,0,-1,2029,1268,0,0
812,-244,0,0,0,0,0,0,0,0,0,-1,2036,1268,0,0
-700,-251,0,0,0,0,0,0,0,0,0,-1,524,1275,0,0
-693,-251,0,0,0,0,0,0,0,0,0,-1,531,1275,0,0
-686,-251,0,0,0,0,0,0,0,0,0,-1,538,1275,0,0
-679,-251,0,0,0,0,0,0,0,0,0,-1,545,1275,0,0
-672,-251,0,0,0,0,0,0,0,0,0,-1,552,1275,0,0
-665,-251,-9.01874,-1.40796,0,0,0,0,0,0,0,-1,559,1275,-9.01873,1.40794
-658,-251,-9.08221,-1.29333,0,0,0,0,0,0,0,-1,566,1275,-9.08224,1.29332
-651,-251,-11.0681,1.9967,0,0,0,0,0,0,0,-1,573,1275,-11.068,-1.99665
-644,-251,-10.6198,1.81042,0.0526965,0.0382949,-0.0113174,0.0589097,0.0320818,-0.502071,0.0340566,0.0494228,580,1275,-10.6197,-1.81042
-637,-251,-10.1637,1.63782,0.0494334,0.0317963,-0.0123835,0.0558175,0.0254123,-0.47599,0.0322692,0.0460725,587,1275,-10.1637,-1.63783
-630,-251,-9.70026,1.47595,0.0437375,0.0256967,-0.0119941,0.0497247,0.0197095,-0.462985,0.0289133,0.0438711,594,1275,-9.70024,-1.47591
-623,-251,-9.11035,1.27075,0.0369283,0.0202908,-0.0107339,0.0421896,0.0150295,-0.455743,0.0246915,0.035312,601,1275,-9.11038,-1.27075
-616,-251,-8.61804,1.08984,0.0308089,0.0149937,-0.0097538,0.0354578,0.0103448,-0.444777,0.0210551,0.0184023,608,1275,-8.61806,-1.08986
-609,-251,-8.62213,1.2572,0.0240548,0.0109283,-0.00801348,0.0278498,0.00713338,-0.442281,0.0167044,0.0165189,615,1275,-8.62215,-1.25725
-602,-251,-8.62714,1.45715,0.0178821,0.00723585,-0.00585982,0.0204756,0.00464233,-0.416678,0.0123962,0.0134135,622,1275,-8.62714,-1.45719
-595,-251,-8.61957,1.62512,0.0125376,0.00367013,-0.00362624,0.0138317,0.00237608,-0.342772,0.00854,0.0135188,629,1275,-8.61958,-1.62512
-588,-251,-8.62292,1.80151,0.00769881,0.00106373,-0.00156369,0.00804885,0.000713685,-0.220229,0.00514454,0.0161054,636,1275,-8.6229,-1.80157
-581,-251,-8.6499,2.01294,0.00458985,-0.000437649,-0.000297074,0.00460734,-0.000455142,-0.058817,0.00323397,0.0141814,643,1275,-8.64991,-2.01295
-574,-251,-8.65552,2.20959,0.00424409,-0.00088097,1.25635e-05,0.00424412,-0.000881001,0.00245137,0.00316423,0.0123474,650,1275,-8.6555,-2.20954
-567,-251,-8.65295,2.37891,0.00520063,-0.000242626,-0.000541246,0.00525393,-0.000295923,-0.0981535,0.00360531,0.0110499,657,1275,-8.65294,-2.37886
-560,-251,-8.6333,2.56616,0.0062315,0.0010959,-0.00168915,0.00673727,0.000590127,-0.290926,0.0043083,0.0143877,664,1275,-8.63333,-2.56621
-553,-251,-8.51764,2.54883,0.00682969,0.00223593,-0.00257686,0.00798474,0.00108087,-0.42139,0.00500195,0.0323534,671,1275,-8.51767,-2.5488
-546,-251,-7.86511,2.1875,0.006434,0.00472956,-0.00401192,0.00968321,0.00148035,-0.680743,0.00602298,0.0488983,678,1275,-7.86511,-2.18751
-539,-251,-7.27014,1.81763,0,0,0,0,0,0,0,-1,685,1275,-7.27013,-1.81762
-532,-251,-11.0221,1.85645,0,0,0,0,0,0,0,-1,692,1275,-11.0221,-1.85642
-525,-251,-11.4728,0.171021,0,0,0,0,0,0,0,-1,699,1275,-11.4728,-0.171011
-518,-251,-11.3354,-0.235474,-0.00218537,0.0275122,-0.0163963,0.0347841,-0.00945727,-1.15335,0.0269018,0.0425464,706,1275,-11.3354,0.235475
-511,-251,-11.2684,-0.230469,-0.00890666,0.0381373,-0.0216454,0.0465811,-0.0173504,-1.19886,0.0381753,0.0436692,713,1275,-11.2685,0.230466
-504,-251,-11.5669,-0.115234,0,0,0,0,0,0,0,-1,720,1275,-11.5669,0.1152
-497,-251,-11.8705,0.216309,0,0,0,0,0,0,0,-1,727,1275,-11.8706,-0.216298
-490,-251,0,0,0,0,0,0,0,0,0,-1,734,1275,0,0
-483,-251,0,0,0,0,0,0,0,0,0,-1,741,1275,0,0
-476,-251,0,0,0,0,0,0,0,0,0,-1,748,1275,0,0
-469,-251,0,0,0,0,0,0,0,0,0,-1,755,1275,0,0
-462,-251,0,0,0,0,0,0,0,0,0,-1,762,1275,0,0
-455,-251,0,0,0,0,0,0,0,0,0,-1,769,1275,0,0
-448,-251,0,0,0,0,0,0,0,0,0,-1,776,1275,0,0
-441,-251,0,0,0,0,0,0,0,0,0,-1,783,1275,0,0
-434,-251,0,0,0,0,0,0,0,0,0,-1,790,1275,0,0
-427,-251,0,0,0,0,0,0,0,0,0,-1,797,1275,0,0
-420,-251,0,0,0,0,0,0,0,0,0,-1,804,1275,0,0
-413,-251,0,0,0,0,0,0,0,0,0,-1,811,1275,0,0
-406,-251,0,0,0,0,0,0,0,0,0,-1,818,1275,0,0
-399,-251,0,0,0,0,0,0,0,0,0,-1,825,1275,0,0
-392,-251,0,0,0,0,0,0,0,0,0,-1,832,1275,0,0
-385,-251,0,0,0,0,0,0,0,0,0,-1,839,1275,0,0
-378,-251,0,0,0,0,0,0,0,0,0,-1,846,1275,0,0
-371,-251,0,0,0,0,0,0,0,0,0,-1,853,1275,0,0
-364,-251,0,0,0,0,0,0,0,0,0,-1,860,1275,0,0
-357,-251,0,0,0,0,0,0,0,0,0,-1,867,1275,0,0
-350,-251,0,0,0,0,0,0,0,0,0,-1,874,1275,0,0
-343,-251,0,0,0,0,0,0,0,0,0,-1,881,1275,0,0
-336,-251,0,0,0,0,0,0,0,0,0,-1,888,1275,0,0
-329,-251,0,0,0,0,0,0,0,0,0,-1,895,1275,0,0
-322,-251,0,0,0,0,0,0,0,0,0,-1,902,1275,0,0
-315,-251,0,0,0,0,0,0,0,0,0,-1,909,1275,0,0
-308,-251,0,0,0,0,0,0,0,0,0,-1,916,1275,0,0
-301,-251,0,0,0,0,0,0,0,0,0,-1,923,1275,0,0
-294,-251,0,0,0,0,0,0,0,0,0,-1,930,1275,0,0
-287,-251,0,0,0,0,0,0,0,0,0,-1,937,1275,0,0
-280,-251,0,0,0,0,0,0,0,0,0,-1,944,1275,0,0
-273,-251,0,0,0,0,0,0,0,0,0,-1,951,1275,0,0
-266,-251,0,0,0,0,0,0,0,0,0,-1,958,1275,0,0
-259,-251,0,0,0,0,0,0,0,0,0,-1,965,1275,0,0
-252,-251,0,0,0,0,0,0,0,0,0,-1,972,1275,0,0
-245,-251,0,0,0,0,0,0,0,0,0,-1,979,1275,0,0
-238,-251,0,0,0,0,0,0,0,0,0,-1,986,1275,0,0
-231,-251,0,0,0,0,0,0,0,0,0,-1,993,1275,0,0
-224,-251,0,0,0,0,0,0,0,0,0,-1,1000,1275,0,0
-217,-251,0,0,0,0,0,0,0,0,0,-1,1007,1275,0,0
-210,-251,0,0,0,0,0,0,0,0,0,-1,1014,1275,0,0
-203,-251,0,0,0,0,0,0,0,0,0,-1,1021,1275,0,0
-196,-251,0,0,0,0,0,0,0,0,0,-1,1028,1275,0,0
-189,-251,0,0,0,0,0,0,0,0,0,-1,1035,1275,0,0
-182,-251,0,0,0,0,0,0,0,0,0,-1,1042,1275,0,0
-175,-251,0,0,0,0,0,0,0,0,0,-1,1049,1275,0,0
-168,-251,0,0,0,0,0,0,0,0,0,-1,1056,1275,0,0
-161,-251,0,0,0,0,0,0,0,0,0,-1,1063,1275,0,0
-154,-251,0,0,0,0,0,0,0,0,0,-1,1070,1275,0,0
-147,-251,0,0,0,0,0,0,0,0,0,-1,1077,1275,0,0
-140,-251,0,0,0,0,0,0,0,0,0,-1,1084,1275,0,0
-133,-251,0,0,0,0,0,0,0,0,0,-1,1091,1275,0,0
-126,-251,0,0,0,0,0,0,0,0,0,-1,1098,1275,0,0
-119,-251,0,0,0,0,0,0,0,0,0,-1,1105,1275,0,0
-112,-251,0,0,0,0,0,0,0,0,0,-1,1112,1275,0,0
-105,-251,0,0,0,0,0,0,0,0,0,-1,1119,1275,0,0
-98,-251,0,0,0,0,0,0,0,0,0,-1,1126,1275,0,0
-91,-251,0,0,0,0,0,0,0,0,0,-1,1133,1275,0,0
-84,-251,0,0,0,0,0,0,0,0,0,-1,1140,1275,0,0
-77,-251,0,0,0,0,0,0,0,0,0,-1,1147,1275,0,0
-70,-251,0,0,0,0,0,0,0,0,0,-1,1154,1275,0,0
-63,-251,0,0,0,0,0,0,0,0,0,-1,1161,1275,0,0
-56,-251,0,0,0,0,0,0,0,0,0,-1,1168,1275,0,0
-49,-251,0,0,0,0,0,0,0,0,0,-1,1175,1275,0,0
-42,-251,0,0,0,0,0,0,0,0,0,-1,1182,1275,0,0
-35,-251,0,0,0,0,0,0,0,0,0,-1,1189,1275,0,0
-28,-251,0,0,0,0,0,0,0,0,0,-1,1196,1275,0,0
-21,-251,0,0,0,0,0,0,0,0,0,-1,1203,1275,0,0
-14,-251,0,0,0,0,0,0,0,0,0,-1,1210,1275,0,0
-7,-251,0,0,0,0,0,0,0,0,0,-1,1217,1275,0,0
0,-251,0,0,0,0,0,0,0,0,0,-1,1224,1275,0,0
7,-251,0,0,0,0,0,0,0,0,0,-1,1231,1275,0,0
14,-251,0,0,0,0,0,0,0,0,0,-1,1238,1275,0,0
21,-251,0,0,0,0,0,0,0,0,0,-1,1245,1275,0,0
28,-251,0,0,0,0,0,0,0,0,0,-1,1252,1275,0,0
35,-251,0,0,0,0,0,0,0,0,0,-1,1259,1275,0,0
42,-251,0,0,0,0,0,0,0,0,0,-1,1266,1275,0,0
49,-251,0,0,0,0,0,0,0,0,0,-1,1273,1275,0,0
56,-251,0,0,0,0,0,0,0,0,0,-1,1280,1275,0,0
63,-251,0,0,0,0,0,0,0,0,0,-1,1287,1275,0,0
70,-251,0,0,0,0,0,0,0,0,0,-1,1294,1275,0,0
77,-251,0,0,0,0,0,0,0,0,0,-1,1301,1275,0,0
84,-251,0,0,0,0,0,0,0,0,0,-1,1308,1275,0,0
91,-251,0,0,0,0,0,0,0,0,0,-1,1315,1275,0,0
98,-251,0,0,0,0,0,0,0,0,0,-1,1322,1275,0,0
105,-251,0,0,0,0,0,0,0,0,0,-1,1329,1275,0,0
112,-251,0,0,0,0,0,0,0,0,0,-1,1336,1275,0,0
119,-251,0,0,0,0,0,0,0,0,0,-1,1343,1275,0,0
126,-251,0,0,0,0,0,0,0,0,0,-1,1350,1275,0,0
133,-251,0,0,0,0,0,0,0,0,0,-1,1357,1275,0,0
140,-251,0,0,0,0,0,0,0,0,0,-1,1364,1275,0,0
147,-251,0,0,0,0,0,0,0,0,0,-1,1371,1275,0,0
154,-251,0,0,0,0,0,0,0,0,0,-1,1378,1275,0,0
161,-251,0,0,0,0,0,0,0,0,0,-1,1385,1275,0,0
168,-251,0,0,0,0,0,0,0,0,0,-1,1392,1275,0,0
175,-251,0,0,0,0,0,0,0,0,0,-1,1399,1275,0,0
182,-251,0,0,0,0,0,0,0,0,0,-1,1406,1275,0,0
189,-251,0,0,0,0,0,0,0,0,0,-1,1413,1275,0,0
196,-251,0,0,0,0,0,0,0,0,0,-1,1420,1275,0,0
203,-251,0,0,0,0,0,0,0,0,0,-1,1427,1275,0,0
210,-251,0,0,0,0,0,0,0,0,0,-1,1434,1275,0,0
217,-251,0,0,0,0,0,0,0,0,0,-1,1441,1275,0,0
224,-251,0,0,0,0,0,0,0,0,0,-1,1448,1275,0,0
231,-251,0,0,0,0,0,0,0,0,0,-1,1455,1275,0,0
238,-251,0,0,0,0,0,0,0,0,0,-1,1462,1275,0,0
245,-251,0,0,0,0,0,0,0,0,0,-1,1469,1275,0,0
252,-251,0,0,0,0,0,0,0,0,0,-1,1476,1275,0,0
259,-251,0,0,0,0,0,0,0,0,0,-1,1483,1275,0,0
266,-251,0,0,0,0,0,0,0,0,0,-1,1490,1275,0,0
273,-251,0,0,0,0,0,0,0,0,0,-1,1497,1275,0,0
280,-251,0,0,0,0,0,0,0,0,0,-1,1504,1275,0,0
287,-251,0,0,0,0,0,0,0,0,0,-1,1511,1275,0,0
294,-251,0,0,0,0,0,0,0,0,0,-1,1518,1275,0,0
301,-251,0,0,0,0,0,0,0,0,0,-1,1525,1275,0,0
308,-251,0,0,0,0,0,0,0,0,0,-1,1532,1275,0,0
315,-251,0,0,0,0,0,0,0,0,0,-1,1539,1275,0,0
322,-251,0,0,0,0,0,0,0,0,0,-1,1546,1275,0,0
329,-251,0,0,0,0,0,0,0,0,0,-1,1553,1275,0,0
336,-251,0,0,0,0,0,0,0,0,0,-1,1560,1275,0,0
343,-251,0,0,0,0,0,0,0,0,0,-1,1567,1275,0,0
350,-251,0,0,0,0,0,0,0,0,0,-1,1574,1275,0,0
357,-251,0,0,0,0,0,0,0,0,0,-1,1581,1275,0,0
364,-251,0,0,0,0,0,0,0,0,0,-1,1588,1275,0,0
371,-251,0,0,0,0,0,0,0,0,0,-1,1595,1275,0,0
378,-251,0,0,0,0,0,0,0,0,0,-1,1602,1275,0,0
385,-251,0,0,0,0,0,0,0,0,0,-1,1609,1275,0,0
392,-251,0,0,0,0,0,0,0,0,0,-1,1616,1275,0,0
399,-251,0,0,0,0,0,0,0,0,0,-1,1623,1275,0,0
406,-251,0,0,0,0,0,0,0,0,0,-1,1630,1275,0,0
413,-251,0,0,0,0,0,0,0,0,0,-1,1637,1275,0,0
420,-251,0,0,0,0,0,0,0,0,0,-1,1644,1275,0,0
427,-251,0,0,0,0,0,0,0,0,0,-1,1651,1275,0,0
434,-251,0,0,0,0,0,0,0,0,0,-1,1658,1275,0,0
441,-251,0,0,0,0,0,0,0,0,0,-1,1665,1275,0,0
448,-251,0,0,0,0,0,0,0,0,0,-1,1672,1275,0,0
455,-251,0,0,0,0,0,0,0,0,0,-1,1679,1275,0,0
462,-251,0,0,0,0,0,0,0,0,0,-1,1686,1275,0,0
469,-251,0,0,0,0,0,0,0,0,0,-1,1693,1275,0,0
476,-251,0,0,0,0,0,0,0,0,0,-1,1700,1275,0,0
483,-251,0,0,0,0,0,0,0,0,0,-1,1707,1275,0,0
490,-251,0,0,0,0,0,0,0,0,0,-1,1714,1275,0,0
497,-251,0,0,0,0,0,0,0,0,0,-1,1721,1275,0,0
504,-251,0,0,0,0,0,0,0,0,0,-1,1728,1275,0,0
511,-251,0,0,0,0,0,0,0,0,0,-1,1735,1275,0,0
518,-251,0,0,0,0,0,0,0,0,0,-1,1742,1275,0,0
525,-251,0,0,0,0,0,0,0,0,0,-1,1749,1275,0,0
532,-251,0,0,0,0,0,0,0,0,0,-1,1756,1275,0,0
539,-251,0,0,0,0,0,0,0,0,0,-1,1763,1275,0,0
546,-251,0,0,0,0,0,0,0,0,0,-1,1770,1275,0,0
553,-251,0,0,0,0,0,0,0,0,0,-1,1777,1275,0,0
560,-251,0,0,0,0,0,0,0,0,0,-1,1784,1275,0,0
567,-251,0,0,0,0,0,0,0,0,0,-1,1791,1275,0,0
574,-251,0,0,0,0,0,0,0,0,0,-1,1798,1275,0,0
581,-251,0,0,0,0,0,0,0,0,0,-1,1805,1275,0,0
588,-251,0,0,0,0,0,0,0,0,0,-1,1812,1275,0,0
595,-251,0,0,0,0,0,0,0,0,0,-1,1819,1275,0,0
602,-251,0,0,0,0,0,0,0,0,0,-1,1826,1275,0,0
609,-251,19.3422,2.43811,-0.0145502,0.000757733,-0.00116351,0.000845664,-0.0146381,-1.49537,0.0100525,0.0314521,1833,1275,19.3422,-2.43813
616,-251,19.3198,2.39722,-0.00881711,0.00645921,-0.00397991,0.0074339,-0.0097918,-1.33062,0.00997627,0.0264805,1840,1275,19.3198,-2.39725
623,-251,19.2826,2.40442,-0.00390791,0.0118193,-0.00517127,0.0133673,-0.00545591,-1.27994,0.011183,0.021185,1847,1275,19.2826,-2.4044
630,-251,19.2517,2.34949,-0.000542927,0.0155566,-0.00475236,0.0168547,-0.00184109,-1.30414,0.0118978,0.0321596,1854,1275,19.2517,-2.34943
637,-251,19.2771,2.22144,0.00137441,0.0169295,-0.00357616,0.0177123,0.000591638,-1.35531,0.011616,0.0416185,1861,1275,19.2771,-2.2214
644,-251,19.2847,2.11292,0,0,0,0,0,0,0,-1,1868,1275,19.2846,-2.11294
651,-251,18.2994,1.81189,0,0,0,0,0,0,0,-1,1875,1275,18.2994,-1.81187
658,-251,19.3115,7.30396,0,0,0,0,0,0,0,-1,1882,1275,19.3116,-7.30398
665,-251,17.1483,1.32813,0,0,0,0,0,0,0,-1,1889,1275,17.1483,-1.32816
672,-251,16.4004,4.83252,0,0,0,0,0,0,0,-1,1896,1275,16.4004,-4.83248
679,-251,16.1494,4.84888,0.0024315,0.0100978,0.0022047,0.0106867,0.00184269,1.30982,0.00659656,0.043496,1903,1275,16.1495,-4.84886
686,-251,16.0449,4.81042,0.00189133,0.00782904,0.00310205,0.009154,0.000566375,1.16713,0.00592291,0.0216085,1910,1275,16.0449,-4.81045
693,-251,16.0861,4.65735,0.00109596,0.00590608,0.00282434,0.00721063,-0.000208595,1.13809,0.0048781,0.00961125,1917,1275,16.0861,-4.65739
700,-251,16.0881,4.47656,0.000473244,0.00390057,0.00238235,0.00512157,-0.000747755,1.09718,0.00368898,0.00870192,1924,1275,16.0881,-4.47661
707,-251,16.1093,4.31494,-0.000791988,0.00172927,0.0018624,0.00271757,-0.0017803,1.08292,0.00261557,0.0108572,1931,1275,16.1092,-4.31495
714,-251,16.1073,4.17761,-0.00143117,0.000596435,0.00105247,0.00104397,-0.0018787,1.16874,0.00171019,0.0112976,1938,1275,16.1074,-4.17756
721,-251,16.0737,4.02625,-0.000719287,-7.98684e-05,0.000148899,-4.6895e-05,-0.00075226,1.35287,0.000486629,0.0111249,1945,1275,16.0737,-4.02624
728,-251,16.0574,3.84973,-0.000156119,-0.000562503,-0.000489325,0.000170524,-0.000889147,-0.588606,0.000657024,0.012273,1952,1275,16.0573,-3.84979
735,-251,16.0769,3.67493,4.82776e-05,-0.000641889,-0.000978414,0.00074068,-0.00133429,-0.615861,0.00121422,0.0134986,1959,1275,16.0769,-3.67488
742,-251,16.1201,3.56384,0.000254484,-0.000874758,-0.00117962,0.000997647,-0.00161792,-0.562188,0.00152419,0.0146111,1966,1275,16.1201,-3.56382
749,-251,16.0944,3.44324,0.000125908,-0.00135991,-0.0014114,0.000977982,-0.00221198,-0.543141,0.0018871,0.0218663,1973,1275,16.0944,-3.44326
756,-251,15.9829,3.27344,-0.000219264,-0.00204472,-0.00148144,0.00060805,-0.00287203,-0.509309,0.00214628,0.0362557,1980,1275,15.9829,-3.27348
763,-251,15.9069,3.44604,-0.000856609,-0.00291223,-0.00124374,-0.000270948,-0.00349789,-0.440087,0.00224706,0.0473718,1987,1275,15.9069,-3.44603
770,-251,15.8652,3.27637,-0.00203382,-0.00391732,-0.000420504,-0.0019442,-0.00400694,-0.209975,0.00231374,0.0489089,1994,1275,15.8653,-3.27639
777,-251,15.7515,3.11243,0,0,0,0,0,0,0,-1,2001,1275,15.7515,-3.11241
784,-251,16.7537,2.62244,0,0,0,0,0,0,0,-1,2008,1275,16.7536,-2.62241
791,-251,0,0,0,0,0,0,0,0,0,-1,2015,1275,0,0
798,-251,0,0,0,0,0,0,0,0,0,-1,2022,1275,0,0
805,-251,0,0,0,0,0,0,0,0,0,-1,2029,1275,0,0
812,-251,0,0,0,0,0,0,0,0,0,-1,2036,1275,0,0
-700,-258,0,0,0,0,0,0,0,0,0,-1,524,1282,0,0
-693,-258,0,0,0,0,0,0,0,0,0,-1,531,1282,0,0
-686,-258,0,0,0,0,0,0,0,0,0,-1,538,1282,0,0
-679,-258,0,0,0,0,0,0,0,0,0,-1,545,1282,0,0
-672,-258,0,0,0,0,0,0,0,0,0,-1,552,1282,0,0
-665,-258,-6.36749,-2.11035,0,0,0,0,0,0,0,-1,559,1282,-6.36746,2.11032
-658,-258,-6.54114,-1.3783,0,0,0,0,0,0,0,-1,566,1282,-6.54111,1.37828
-651,-258,-10.8972,1.76855,0,0,0,0,0,0,0,-1,573,1282,-10.8971,-1.76857
-644,-258,-10.4625,1.54126,0.0746771,0.0479751,-0.0192845,0.0847812,0.0378711,-0.482622,0.0490411,0.0498234,580,1282,-10.4625,-1.54131
-637,-258,-9.9342,1.3479,0.0683239,0.0401553,-0.0191686,0.0780262,0.030453,-0.46856,0.0454084,0.0439399,587,1282,-9.93423,-1.34788
-630,-258,-8.79126,1.33875,0.0593531,0.0327646,-0.0175343,0.0680632,0.0240546,-0.461039,0.0398552,0.0455112,594,1282,-8.79125,-1.33879
-623,-258,-8.64398,1.02173,0.0492187,0.0260139,-0.0150414,0.0566126,0.01862,-0.456881,0.0333171,0.0439712,601,1282,-8.64396,-1.02167
-616,-258,-8.45099,1.04187,0.040135,0.0195444,-0.0129081,0.0463507,0.0133288,-0.448765,0.0275539,0.0286684,608,1282,-8.45102,-1.04186
-609,-258,-8.41803,1.25793,0.0307922,0.0144176,-0.0102159,0.0356967,0.00951307,-0.447593,0.0213455,0.0148231,615,1282,-8.41801,-1.25792
-602,-258,-8.43921,1.43701,0.022439,0.00983063,-0.00734054,0.0258109,0.00645875,-0.430603,0.0155093,0.012836,622,1282,-8.43921,-1.43704
-595,-258,-8.44562,1.61218,0.0152185,0.00553329,-0.00455334,0.017023,0.00372881,-0.377311,0.0103325,0.0118953,629,1282,-8.4456,-1.61218
-588,-258,-8.43042,1.80518,0.00875812,0.00219001,-0.00194989,0.00929337,0.00165476,-0.267903,0.00572428,0.0133101,636,1282,-8.4304,-1.80513
-581,-258,-8.46881,1.99695,0.004483,1.45213e-05,-0.000257385,0.00449778,-2.55415e-07,-0.0573474,0.0029986,0.0142155,643,1282,-8.46882,-1.99698
-574,-258,-8.46765,2.19043,0.00394278,-0.00074818,0.00021594,0.0039527,-0.0007581,0.0459037,0.00292081,0.013596,650,1282,-8.46768,-2.19046
-567,-258,-8.45685,2.38367,0.00516979,-0.000188204,-0.000306943,0.00518732,-0.00020573,-0.0570383,0.00352879,0.0132672,657,1282,-8.45684,-2.38366
-560,-258,-8.44171,2.56555,0.00658445,0.00124921,-0.00156842,0.00701137,0.000822302,-0.265755,0.00442568,0.020341,664,1282,-8.44174,-2.56557
-553,-258,-8.3999,2.66223,0.007555,0.00249638,-0.002585,0.00864227,0.00140911,-0.398144,0.00535398,0.0287671,671,1282,-8.39989,-2.66227
-546,-258,-8.26056,2.65845,0.00722082,0.005468,-0.00429165,0.0107246,0.00196418,-0.684677,0.00659329,0.0441511,678,1282,-8.26056,-2.65844
-539,-258,-8.07678,2.68262,0,0,0,0,0,0,0,-1,685,1282,-8.07678,-2.68261
-532,-258,-11.2988,2.37976,0,0,0,0,0,0,0,-1,692,1282,-11.2988,-2.37978
-525,-258,-11.2747,-0.640381,0,0,0,0,0,0,0,-1,699,1282,-11.2747,0.640378
-518,-258,-11.1326,-0.594116,-0.00424742,0.0337663,-0.0189817,0.0416214,-0.0121026,-1.17843,0.0325408,0.0481037,706,1282,-11.1327,0.594118
-511,-258,-10.7364,-0.641602,-0.0122461,0.0463962,-0.0248347,0.0555001,-0.02135,-1.21942,0.0458064,0.0478999,713,1282,-10.7364,0.641637
-504,-258,-10.7272,-0.63562,0,0,0,0,0,0,0,-1,720,1282,-10.7271,0.635603
-497,-258,-11.2224,-0.467407,-0.0388046,0.0780229,-0.0378212,0.089198,-0.0499797,-1.2835,0.0814107,0.0473219,727,1282,-11.2224,0.467441
-490,-258,-11.7543,0.0939941,0,0,0,0,0,0,0,-1,734,1282,-11.7543,-0.0939895
-483,-258,0,0,0,0,0,0,0,0,0,-1,741,1282,0,0
-476,-258,0,0,0,0,0,0,0,0,0,-1,748,1282,0,0
-469,-258,0,0,0,0,0,0,0,0,0,-1,755,1282,0,0
-462,-258,0,0,0,0,0,0,0,0,0,-1,762,1282,0,0
-455,-258,0,0,0,0,0,0,0,0,0,-1,769,1282,0,0
-448,-258,0,0,0,0,0,0,0,0,0,-1,776,1282,0,0
-441,-258,0,0,0,0,0,0,0,0,0,-1,783,1282,0,0
-434,-258,0,0,0,0,0,0,0,0,0,-1,790,1282,0,0
-427,-258,0,0,0,0,0,0,0,0,0,-1,797,1282,0,0
-420,-258,0,0,0,0,0,0,0,0,0,-1,804,1282,0,0
-413,-258,0,0,0,0,0,0,0,0,0,-1,811,1282,0,0
-406,-258,0,0,0,0,0,0,0,0,0,-1,818,1282,0,0
-399,-258,0,0,0,0,0,0,0,0,0,-1,825,1282,0,0
-392,-258,0,0,0,0,0,0,0,0,0,-1,832,1282,0,0
-385,-258,0,0,0,0,0,0,0,0,0,-1,839,1282,0,0
-378,-258,0,0,0,0,0,0,0,0,0,-1,846,1282,0,0
-371,-258,0,0,0,0,0,0,0,0,0,-1,853,1282,0,0
-364,-258,0,0,0,0,0,0,0,0,0,-1,860,1282,0,0
-357,-258,0,0,0,0,0,0,0,0,0,-1,867,1282,0,0
-350,-258,0,0,0,0,0,0,0,0,0,-1,874,1282,0,0
-343,-258,0,0,0,0,0,0,0,0,0,-1,881,1282,0,0
-336,-258,0,0,0,0,0,0,0,0,0,-1,888,1282,0,0
-329,-258,0,0,0,0,0,0,0,0,0,-1,895,1282,0,0
-322,-258,0,0,0,0,0,0,0,0,0,-1,902,1282,0,0
-315,-258,0,0,0,0,0,0,0,0,0,-1,909,1282,0,0
-308,-258,0,0,0,0,0,0,0,0,0,-1,916,1282,0,0
-301,-258,0,0,0,0,0,0,0,0,0,-1,923,1282,0,0
-294,-258,0,0,0,0,0,0,0,0,0,-1,930,1282,0,0
-287,-258,0,0,0,0,0,0,0,0,0,-1,937,1282,0,0
-280,-258,0,0,0,0,0,0,0,0,0,-1,944,1282,0,0
-273,-258,0,0,0,0,0,0,0,0,0,-1,951,1282,0,0
-266,-258,0,0,0,0,0,0,0,0,0,-1,958,1282,0,0
-259,-258,0,0,0,0,0,0,0,0,0,-1,965,1282,0,0
-252,-258,0,0,0,0,0,0,0,0,0,-1,972,1282,0,0
-245,-258,0,0,0,0,0,0,0,0,0,-1,979,1282,0,0
-238,-258,0,0,0,0,0,0,0,0,0,-1,986,1282,0,0
-231,-258,0,0,0,0,0,0,0,0,0,-1,993,1282,0,0
-224,-258,0,0,0,0,0,0,0,0,0,-1,1000,1282,0,0
-217,-258,0,0,0,0,0,0,0,0,0,-1,1007,1282,0,0
-210,-258,0,0,0,0,0,0,0,0,0,-1,1014,1282,0,0
-203,-258,0,0,0,0,0,0,0,0,0,-1,1021,1282,0,0
-196,-258,0,0,0,0,0,0,0,0,0,-1,1028,1282,0,0
-189,-258,0,0,0,0,0,0,0,0,0,-1,1035,1282,0,0
-182,-258,0,0,0,0,0,0,0,0,0,-1,1042,1282,0,0
-175,-258,0,0,0,0,0,0,0,0,0,-1,1049,1282,0,0
-168,-258,0,0,0,0,0,0,0,0,0,-1,1056,1282,0,0
-161,-258,0,0,0,0,0,0,0,0,0,-1,1063,1282,0,0
-154,-258,0,0,0,0,0,0,0,0,0,-1,1070,1282,0,0
-147,-258,0,0,0,0,0,0,0,0,0,-1,1077,1282,0,0
-140,-258,0,0,0,0,0,0,0,0,0,-1,1084,1282,0,0
-133,-258,0,0,0,0,0,0,0,0,0,-1,1091,1282,0,0
-126,-258,0,0,0,0,0,0,0,0,0,-1,1098,1282,0,0
-119,-258,0,0,0,0,0,0,0,0,0,-1,1105,1282,0,0
-112,-258,0,0,0,0,0,0,0,0,0,-1,1112,1282,0,0
-105,-258,0,0,0,0,0,0,0,0,0,-1,1119,1282,0,0
-98,-258,0,0,0,0,0,0,0,0,0,-1,1126,1282,0,0
-91,-258,0,0,0,0,0,0,0,0,0,-1,1133,1282,0,0
-84,-258,0,0,0,0,0,0,0,0,0,-1,1140,1282,0,0
-77,-258,0,0,0,0,0,0,0,0,0,-1,1147,1282,0,0
-70,-258,0,0,0,0,0,0,0,0,0,-1,1154,1282,0,0
-63,-258,0,0,0,0,0,0,0,0,0,-1,1161,1282,0,0
-56,-258,0,0,0,0,0,0,0,0,0,-1,1168,1282,0,0
-49,-258,0,0,0,0,0,0,0,0,0,-1,1175,1282,0,0
-42,-258,0,0,0,0,0,0,0,0,0,-1,1182,1282,0,0
-35,-258,0,0,0,0,0,0,0,0,0,-1,1189,1282,0,0
-28,-258,0,0,0,0,0,0,0,0,0,-1,1196,1282,0,0
-21,-258,0,0,0,0,0,0,0,0,0,-1,1203,1282,0,0
-14,-258,0,0,0,0,0,0,0,0,0,-1,1210,1282,0,0
-7,-258,0,0,0,0,0,0,0,0,0,-1,1217,1282,0,0
0,-258,0,0,0,0,0,0,0,0,0,-1,1224,1282,0,0
7,-258,0,0,0,0,0,0,0,0,0,-1,1231,1282,0,0
14,-258,0,0,0,0,0,0,0,0,0,-1,1238,1282,0,0
21,-258,0,0,0,0,0,0,0,0,0,-1,1245,1282,0,0
28,-258,0,0,0,0,0,0,0,0,0,-1,1252,1282,0,0
35,-258,0,0,0,0,0,0,0,0,0,-1,1259,1282,0,0
42,-258,0,0,0,0,0,0,0,0,0,-1,1266,1282,0,0
49,-258,0,0,0,0,0,0,0,0,0,-1,1273,1282,0,0
56,-258,0,0,0,0,0,0,0,0,0,-1,1280,1282,0,0
63,-258,0,0,0,0,0,0,0,0,0,-1,1287,1282,0,0
70,-258,0,0,0,0,0,0,0,0,0,-1,1294,1282,0,0
77,-258,0,0,0,0,0,0,0,0,0,-1,1301,1282,0,0
84,-258,0,0,0,0,0,0,0,0,0,-1,1308,1282,0,0
91,-258,0,0,0,0,0,0,0,0,0,-1,1315,1282,0,0
98,-258,0,0,0,0,0,0,0,0,0,-1,1322,1282,0,0
105,-258,0,0,0,0,0,0,0,0,0,-1,1329,1282,0,0
112,-258,0,0,0,0,0,0,0,0,0,-1,1336,1282,0,0
119,-258,0,0,0,0,0,0,0,0,0,-1,1343,1282,0,0
126,-258,0,0,0,0,0,0,0,0,0,-1,1350,1282,0,0
133,-258,0,0,0,0,0,0,0,0,0,-1,1357,1282,0,0
140,-258,0,0,0,0,0,0,0,0,0,-1,1364,1282,0,0
147,-258,0,0,0,0,0,0,0,0,0,-1,1371,1282,0,0
154,-258,0,0,0,0,0,0,0,0,0,-1,1378,1282,0,0
161,-258,0,0,0,0,0,0,0,0,0,-1,1385,1282,0,0
168,-258,0,0,0,0,0,0,0,0,0,-1,1392,1282,0,0
175,-258,0,0,0,0,0,0,0,0,0,-1,1399,1282,0,0
182,-258,0,0,0,0,0,0,0,0,0,-1,1406,1282,0,0
189,-258,0,0,0,0,0,0,0,0,0,-1,1413,1282,0,0
196,-258,0,0,0,0,0,0,0,0,0,-1,1420,1282,0,0
203,-258,0,0,0,0,0,0,0,0,0,-1,1427,1282,0,0
210,-258,0,0,0,0,0,0,0,0,0,-1,1434,1282,0,0
217,-258,0,0,0,0,0,0,0,0,0,-1,1441,1282,0,0
224,-258,0,0,0,0,0,0,0,0,0,-1,1448,1282,0,0
231,-258,0,0,0,0,0,0,0,0,0,-1,1455,1282,0,0
238,-258,0,0,0,0,0,0,0,0,0,-1,1462,1282,0,0
245,-258,0,0,0,0,0,0,0,0,0,-1,1469,1282,0,0
252,-258,0,0,0,0,0,0,0,0,0,-1,1476,1282,0,0
259,-258,0,0,0,0,0,0,0,0,0,-1,1483,1282,0,0
266,-258,0,0,0,0,0,0,0,0,0,-1,1490,1282,0,0
273,-258,0,0,0,0,0,0,0,0,0,-1,1497,1282,0,0
280,-258,0,0,0,0,0,0,0,0,0,-1,1504,1282,0,0
287,-258,0,0,0,0,0,0,0,0,0,-1,1511,1282,0,0
294,-258,0,0,0,0,0,0,0,0,0,-1,1518,1282,0,0
301,-258,0,0,0,0,0,0,0,0,0,-1,1525,1282,0,0
308,-258,0,0,0,0,0,0,0,0,0,-1,1532,1282,0,0
315,-258,0,0,0,0,0,0,0,0,0,-1,1539,1282,0,0
322,-258,0,0,0,0,0,0,0,0,0,-1,1546,1282,0,0
329,-258,0,0,0,0,0,0,0,0,0,-1,1553,1282,0,0
336,-258,0,0,0,0,0,0,0,0,0,-1,1560,1282,0,0
343,-258,0,0,0,0,0,0,0,0,0,-1,1567,1282,0,0
350,-258,0,0,0,0,0,0,0,0,0,-1,1574,1282,0,0
357,-258,0,0,0,0,0,0,0,0,0,-1,1581,1282,0,0
364,-258,0,0,0,0,0,0,0,0,0,-1,1588,1282,0,0
371,-258,0,0,0,0,0,0,0,0,0,-1,1595,1282,0,0
378,-258,0,0,0,0,0,0,0,0,0,-1,1602,1282,0,0
385,-258,0,0,0,0,0,0,0,0,0,-1,1609,1282,0,0
392,-258,0,0,0,0,0,0,0,0,0,-1,1616,1282,0,0
399,-258,0,0,0,0,0,0,0,0,0,-1,1623,1282,0,0
406,-258,0,0,0,0,0,0,0,0,0,-1,1630,1282,0,0
413,-258,0,0,0,0,0,0,0,0,0,-1,1637,1282,0,0
420,-258,0,0,0,0,0,0,0,0,0,-1,1644,1282,0,0
427,-258,0,0,0,0,0,0,0,0,0,-1,1651,1282,0,0
434,-258,0,0,0,0,0,0,0,0,0,-1,1658,1282,0,0
441,-258,0,0,0,0,0,0,0,0,0,-1,1665,1282,0,0
448,-258,0,0,0,0,0,0,0,0,0,-1,1672,1282,0,0
455,-258,0,0,0,0,0,0,0,0,0,-1,1679,1282,0,0
462,-258,0,0,0,0,0,0,0,0,0,-1,1686,1282,0,0
469,-258,0,0,0,0,0,0,0,0,0,-1,1693,1282,0,0
476,-258,0,0,0,0,0,0,0,0,0,-1,1700,1282,0,0
483,-258,0,0,0,0,0,0,0,0,0,-1,1707,1282,0,0
490,-258,0,0,0,0,0,0,0,0,0,-1,1714,1282,0,0
497,-258,0,0,0,0,0,0,0,0,0,-1,1721,1282,0,0
504,-258,0,0,0,0,0,0,0,0,0,-1,1728,1282,0,0
511,-258,0,0,0,0,0,0,0,0,0,-1,1735,1282,0,0
518,-258,0,0,0,0,0,0,0,0,0,-1,1742,1282,0,0
525,-258,0,0,0,0,0,0,0,0,0,-1,1749,1282,0,0
532,-258,0,0,0,0,0,0,0,0,0,-1,1756,1282,0,0
539,-258,0,0,0,0,0,0,0,0,0,-1,1763,1282,0,0
546,-258,0,0,0,0,0,0,0,0,0,-1,1770,1282,0,0
553,-258,0,0,0,0,0,0,0,0,0,-1,1777,1282,0,0
560,-258,0,0,0,0,0,0,0,0,0,-1,1784,1282,0,0
567,-258,0,0,0,0,0,0,0,0,0,-1,1791,1282,0,0
574,-258,0,0,0,0,0,0,0,0,0,-1,1798,1282,0,0
581,-258,0,0,0,0,0,0,0,0,0,-1,1805,1282,0,0
588,-258,0,0,0,0,0,0,0,0,0,-1,1812,1282,0,0
595,-258,0,0,0,0,0,0,0,0,0,-1,1819,1282,0,0
602,-258,0,0,0,0,0,0,0,0,0,-1,1826,1282,0,0
609,-258,19.3477,2.37903,-0.0136968,0.00660478,-0.00157092,0.00672562,-0.0138177,-1.49403,0.012094,0.025734,1833,1282,19.3477,-2.37907
616,-258,19.293,2.40149,-0.0062385,0.0118867,-0.00540003,0.0133736,-0.00772535,-1.30211,0.0123261,0.0235174,1840,1282,19.2929,-2.40151
623,-258,19.1936,2.35693,-0.000740678,0.0165176,-0.0069587,0.0189739,-0.00319691,-1.23148,0.0138385,0.0328912,1847,1282,19.1936,-2.35699
630,-258,19.0985,2.18042,0.00254305,0.0190565,-0.00663812,0.021394,0.000205521,-1.23222,0.0141947,0.0436729,1854,1282,19.0985,-2.1804
637,-258,18.9117,2.28625,0.00415357,0.0195647,-0.00543811,0.0212904,0.00242786,-1.26351,0.0134575,0.0437443,1861,1282,18.9118,-2.28622
644,-258,18.9104,2.42822,0,0,0,0,0,0,0,-1,1868,1282,18.9104,-2.42817
651,-258,17.1898,7.73206,0,0,0,0,0,0,0,-1,1875,1282,17.1898,-7.73202
658,-258,18.611,7.09363,0,0,0,0,0,0,0,-1,1882,1282,18.611,-7.0936
665,-258,20.0322,6.4552,0,0,0,0,0,0,0,-1,1889,1282,20.0322,-6.45517
672,-258,16.2979,4.82678,0,0,0,0,0,0,0,-1,1896,1282,16.2979,-4.82677
679,-258,16.0143,4.89697,0.00350153,0.010688,0.00167735,0.0110603,0.00312932,1.35243,0.00658318,0.038951,1903,1282,16.0142,-4.89697
686,-258,15.9022,4.83984,0.00270969,0.00798251,0.00287218,0.00924483,0.00144737,1.15671,0.00574189,0.0218456,1910,1282,15.9022,-4.83987
693,-258,15.9368,4.65662,0.00150528,0.00571433,0.00267202,0.00701109,0.00020852,1.11897,0.00460612,0.0101832,1917,1282,15.9367,-4.65659
700,-258,15.937,4.46912,0.000679535,0.00358308,0.00221089,0.00477624,-0.000513623,1.07591,0.00336844,0.00942399,1924,1282,15.937,-4.46918
707,-258,15.9606,4.31702,-0.000589817,0.00144174,0.00163593,0.0023516,-0.00149968,1.06323,0.0022416,0.0109016,1931,1282,15.9606,-4.317
714,-258,15.9526,4.18237,-0.00107823,0.000481056,0.000730901,0.000770085,-0.00136726,1.19423,0.00124995,0.0099478,1938,1282,15.9526,-4.18236
721,-258,15.9386,4.02222,-0.000355644,-3.74812e-05,-0.000259025,0.000107412,-0.000500538,-1.06078,0.000374664,0.010422,1945,1282,15.9386,-4.02219
728,-258,15.918,3.86365,-9.53217e-07,-0.000443759,-0.000921903,0.000725761,-0.00117047,-0.667551,0.00110478,0.0101845,1952,1282,15.918,-3.86363
735,-258,15.9264,3.70129,2.06147e-05,-0.000572252,-0.00157191,0.0013238,-0.00187544,-0.692202,0.00185621,0.0130899,1959,1282,15.9264,-3.70127
742,-258,15.979,3.58594,-7.52005e-05,-0.000849018,-0.00199814,0.00157315,-0.00249737,-0.689765,0.00237022,0.014952,1966,1282,15.9791,-3.58593
749,-258,15.9683,3.46704,-0.000625504,-0.00138812,-0.0024919,0.00151409,-0.00352772,-0.709478,0.00298727,0.026722,1973,1282,15.9682,-3.46704
756,-258,15.9916,3.56738,-0.00155452,-0.00212074,-0.00290303,0.00107917,-0.00475443,-0.736791,0.00358392,0.040233,1980,1282,15.9915,-3.56742
763,-258,16.2343,3.60889,-0.00299607,-0.00303757,-0.00305985,4.3099e-05,-0.00607674,-0.782008,0.0040656,0.0473854,1987,1282,16.2342,-3.60887
770,-258,16.5022,3.30286,-0.00525624,-0.00405699,-0.00267996,-0.0019104,-0.00740283,-0.895457,0.00443768,0.0477131,1994,1282,16.5022,-3.3028
777,-258,16.3844,3.31323,-0.0086696,-0.00503072,-0.00140912,-0.00454886,-0.00915146,-1.2413,0.00528363,0.0457585,2001,1282,16.3844,-3.3132
784,-258,16.1768,3.46362,0,0,0,0,0,0,0,-1,2008,1282,16.1768,-3.4636
791,-258,0,0,0,0,0,0,0,0,0,-1,2015,1282,0,0
798,-258,0,0,0,0,0,0,0,0,0,-1,2022,1282,0,0
805,-258,0,0,0,0,0,0,0,0,0,-1,2029,1282,0,0
812,-258,0,0,0,0,0,0,0,0,0,-1,2036,1282,0,0
-700,-265,0,0,0,0,0,0,0,0,0,-1,524,1289,0,0
-693,-265,0,0,0,0,0,0,0,0,0,-1,531,1289,0,0
-686,-265,0,0,0,0,0,0,0,0,0,-1,538,1289,0,0
-679,-265,0,0,0,0,0,0,0,0,0,-1,545,1289,0,0
-672,-265,0,0,0,0,0,0,0,0,0,-1,552,1289,0,0
-665,-265,-6.04938,-2.11755,0,0,0,0,0,0,0,-1,559,1289,-6.04936,2.11755
-658,-265,-11.1423,1.82385,0,0,0,0,0,0,0,-1,566,1289,-11.1423,-1.82388
-651,-265,-10.7714,1.52661,0.102428,0.0676868,-0.0260857,0.116398,0.0537174,-0.491658,0.0672687,0.0493891,573,1289,-10.7714,-1.52666
-644,-265,-10.3447,1.25964,0.0975009,0.0582431,-0.0273764,0.111558,0.0441858,-0.474376,0.0648702,0.0468823,580,1289,-10.3447,-1.25959
-637,-265,-9.82391,1.38489,0,0,0,0,0,0,0,-1,587,1289,-9.82393,-1.38493
-630,-265,-8.06134,0.935303,0,0,0,0,0,0,0,-1,594,1289,-8.06132,-0.935278
-623,-265,-8.47675,0.688354,0,0,0,0,0,0,0,-1,601,1289,-8.47674,-0.688412
-616,-265,-8.09601,0.792847,0.0496498,0.0247094,-0.016043,0.0574991,0.01686,-0.455026,0.0341303,0.033696,608,1289,-8.09604,-0.792853
-609,-265,-8.23901,1.25623,0.0376928,0.0184511,-0.0124013,0.0437675,0.0123763,-0.455494,0.026052,0.0158709,615,1289,-8.23902,-1.25627
-602,-265,-8.25562,1.45056,0.0271446,0.0128941,-0.00881082,0.0313507,0.00868798,-0.445387,0.0186902,0.0140047,622,1289,-8.25563,-1.45056
-595,-265,-8.26703,1.64551,0.0180878,0.00783437,-0.00552268,0.0204966,0.00542563,-0.41128,0.0122627,0.0125018,629,1289,-8.26703,-1.6455
-588,-265,-8.25891,1.82874,0.0101097,0.00371544,-0.00244272,0.010936,0.00288907,-0.326213,0.00654381,0.011215,636,1289,-8.25894,-1.8287
-581,-265,-8.27399,2.01392,0.00455655,0.000724032,-0.00030987,0.00458145,0.00069914,-0.0801588,0.00284998,0.0122522,643,1289,-8.27396,-2.01394
-574,-265,-8.28345,2.22083,0.00367591,-0.000573208,0.000312595,0.00369878,-0.000596081,0.0730429,0.00268668,0.0143444,650,1289,-8.28343,-2.22077
-567,-265,-8.29657,2.42883,0.00511486,-0.000283401,-0.000183758,0.00512111,-0.000289649,-0.0339877,0.00351461,0.0199696,657,1289,-8.29656,-2.42878
-560,-265,-8.30884,2.61841,0.00688584,0.000972552,-0.00146499,0.00722889,0.000629507,-0.230017,0.00462373,0.0204757,664,1289,-8.30883,-2.61835
-553,-265,-8.26074,2.81396,0.00823069,0.0021125,-0.00255638,0.00915821,0.00118498,-0.348056,0.00575132,0.0230295,671,1289,-8.26076,-2.81402
-546,-265,-8.20984,3.0636,0.00792094,0.00536449,-0.00447366,0.0112954,0.00199003,-0.646244,0.00696238,0.0329365,678,1289,-8.20982,-3.06358
-539,-265,-8.12122,3.27905,0.00691846,0.00993555,-0.00714881,0.0157333,0.00112076,-0.889383,0.0101359,0.0479611,685,1289,-8.12121,-3.27911
-532,-265,-7.93353,3.30371,0,0,0,0,0,0,0,-1,692,1289,-7.93351,-3.30372
-525,-265,-10.9406,-1.18311,0,0,0,0,0,0,0,-1,699,1289,-10.9406,1.18315
-518,-265,-10.9257,-0.752319,-0.00671367,0.0391518,-0.0209223,0.0472619,-0.0148237,-1.201,0.0374404,0.0476427,706,1289,-10.9256,0.752337
-511,-265,-10.0485,-1.09644,-0.0154255,0.0534282,-0.0270441,0.0627803,-0.0247775,-1.23786,0.0521145,0.0494386,713,1289,-10.0484,1.09644
-504,-265,-9.82043,-1.24707,0,0,0,0,0,0,0,-1,720,1289,-9.82041,1.24712
-497,-265,-10.4892,-0.724854,0,0,0,0,0,0,0,-1,727,1289,-10.4892,0.724818
-490,-265,-11.3346,-0.336792,0,0,0,0,0,0,0,-1,734,1289,-11.3346,0.336812
-483,-265,0,0,0,0,0,0,0,0,0,-1,741,1289,0,0
-476,-265,0,0,0,0,0,0,0,0,0,-1,748,1289,0,0
-469,-265,0,0,0,0,0,0,0,0,0,-1,755,1289,0,0
-462,-265,0,0,0,0,0,0,0,0,0,-1,762,1289,0,0
-455,-265,0,0,0,0,0,0,0,0,0,-1,769,1289,0,0
-448,-265,0,0,0,0,0,0,0,0,0,-1,776,1289,0,0
-441,-265,0,0,0,0,0,0,0,0,0,-1,783,1289,0,0
-434,-265,0,0,0,0,0,0,0,0,0,-1,790,1289,0,0
-427,-265,0,0,0,0,0,0,0,0,0,-1,797,1289,0,0
-420,-265,0,0,0,0,0,0,0,0,0,-1,804,1289,0,0
-413,-265,0,0,0,0,0,0,0,0,0,-1,811,1289,0,0
-406,-265,0,0,0,0,0,0,0,0,0,-1,818,1289,0,0
-399,-265,0,0,0,0,0,0,0,0,0,-1,825,1289,0,0
-392,-265,0,0,0,0,0,0,0,0,0,-1,832,1289,0,0
-385,-265,0,0,0,0,0,0,0,0,0,-1,839,1289,0,0
-378,-265,0,0,0,0,0,0,0,0,0,-1,846,1289,0,0
-371,-265,0,0,0,0,0,0,0,0,0,-1,853,1289,0,0
-364,-265,0,0,0,0,0,0,0,0,0,-1,860,1289,0,0
-357,-265,0,0,0,0,0,0,0,0,0,-1,867,1289,0,0
-350,-265,0,0,0,0,0,0,0,0,0,-1,874,1289,0,0
-343,-265,0,0,0,0,0,0,0,0,0,-1,881,1289,0,0
-336,-265,0,0,0,0,0,0,0,0,0,-1,888,1289,0,0
-329,-265,0,0,0,0,0,0,0,0,0,-1,895,1289,0,0
-322,-265,0,0,0,0,0,0,0,0,0,-1,902,1289,0,0
-315,-265,0,0,0,0,0,0,0,0,0,-1,909,1289,0,0
-308,-265,0,0,0,0,0,0,0,0,0,-1,916,1289,0,0
-301,-265,0,0,0,0,0,0,0,0,0,-1,923,1289,0,0
-294,-265,0,0,0,0,0,0,0,0,0,-1,930,1289,0,0
-287,-265,0,0,0,0,0,0,0,0,0,-1,937,1289,0,0
-280,-265,0,0,0,0,0,0,0,0,0,-1,944,1289,0,0
-273,-265,0,0,0,0,0,0,0,0,0,-1,951,1289,0,0
-266,-265,0,0,0,0,0,0,0,0,0,-1,958,1289,0,0
-259,-265,0,0,0,0,0,0,0,0,0,-1,965,1289,0,0
-252,-265,0,0,0,0,0,0,0,0,0,-1,972,1289,0,0
-245,-265,0,0,0,0,0,0,0,0,0,-1,979,1289,0,0
-238,-265,0,0,0,0,0,0,0,0,0,-1,986,1289,0,0
-231,-265,0,0,0,0,0,0,0,0,0,-1,993,1289,0,0
-224,-265,0,0,0,0,0,0,0,0,0,-1,1000,1289,0,0
-217,-265,0,0,0,0,0,0,0,0,0,-1,1007,1289,0,0
-210,-265,0,0,0,0,0,0,0,0,0,-1,1014,1289,0,0
-203,-265,0,0,0,0,0,0,0,0,0,-1,1021,1289,0,0
-196,-265,0,0,0,0,0,0,0,0,0,-1,1028,1289,0,0
-189,-265,0,0,0,0,0,0,0,0,0,-1,1035,1289,0,0
-182,-265,0,0,0,0,0,0,0,0,0,-1,1042,1289,0,0
-175,-265,0,0,0,0,0,0,0,0,0,-1,1049,1289,0,0
-168,-265,0,0,0,0,0,0,0,0,0,-1,1056,1289,0,0
-161,-265,0,0,0,0,0,0,0,0,0,-1,1063,1289,0,0
-154,-265,0,0,0,0,0,0,0,0,0,-1,1070,1289,0,0
-147,-265,0,0,0,0,0,0,0,0,0,-1,1077,1289,0,0
-140,-265,0,0,0,0,0,0,0,0,0,-1,1084,1289,0,0
-133,-265,0,0,0,0,0,0,0,0,0,-1,1091,1289,0,0
-126,-265,0,0,0,0,0,0,0,0,0,-1,1098,1289,0,0
-119,-265,0,0,0,0,0,0,0,0,0,-1,1105,1289,0,0
-112,-265,0,0,0,0,0,0,0,0,0,-1,1112,1289,0,0
-105,-265,0,0,0,0,0,0,0,0,0,-1,1119,1289,0,0
-98,-265,0,0,0,0,0,0,0,0,0,-1,1126,1289,0,0
-91,-265,0,0,0,0,0,0,0,0,0,-1,1133,1289,0,0
-84,-265,0,0,0,0,0,0,0,0,0,-1,1140,1289,0,0
-77,-265,0,0,0,0,0,0,0,0,0,-1,1147,1289,0,0
-70,-265,0,0,0,0,0,0,0,0,0,-1,1154,1289,0,0
-63,-265,0,0,0,0,0,0,0,0,0,-1,1161,1289,0,0
-56,-265,0,0,0,0,0,0,0,0,0,-1,1168,1289,0,0
-49,-265,0,0,0,0,0,0,0,0,0,-1,1175,1289,0,0
-42,-265,0,0,0,0,0,0,0,0,0,-1,1182,1289,0,0
-35,-265,0,0,0,0,0,0,0,0,0,-1,1189,1289,0,0
-28,-265,0,0,0,0,0,0,0,0,0,-1,1196,1289,0,0
-21,-265,0,0,0,0,0,0,0,0,0,-1,1203,1289,0,0
-14,-265,0,0,0,0,0,0,0,0,0,-1,1210,1289,0,0
-7,-265,0,0,0,0,0,0,0,0,0,-1,1217,1289,0,0
0,-265,0,0,0,0,0,0,0,0,0,-1,1224,1289,0,0
7,-265,0,0,0,0,0,0,0,0,0,-1,1231,1289,0,0
14,-265,0,0,0,0,0,0,0,0,0,-1,1238,1289,0,0
21,-265,0,0,0,0,0,0,0,0,0,-1,1245,1289,0,0
28,-265,0,0,0,0,0,0,0,0,0,-1,1252,1289,0,0
35,-265,0,0,0,0,0,0,0,0,0,-1,1259,1289,0,0
42,-265,0,0,0,0,0,0,0,0,0,-1,1266,1289,0,0
49,-265,0,0,0,0,0,0,0,0,0,-1,1273,1289,0,0
56,-265,0,0,0,0,0,0,0,0,0,-1,1280,1289,0,0
63,-265,0,0,0,0,0,0,0,0,0,-1,1287,1289,0,0
70,-265,0,0,0,0,0,0,0,0,0,-1,1294,1289,0,0
77,-265,0,0,0,0,0,0,0,0,0,-1,1301,1289,0,0
84,-265,0,0,0,0,0,0,0,0,0,-1,1308,1289,0,0
91,-265,0,0,0,0,0,0,0,0,0,-1,1315,1289,0,0
98,-265,0,0,0,0,0,0,0,0,0,-1,1322,1289,0,0
105,-265,0,0,0,0,0,0,0,0,0,-1,1329,1289,0,0
112,-265,0,0,0,0,0,0,0,0,0,-1,1336,1289,0,0
119,-265,0,0,0,0,0,0,0,0,0,-1,1343,1289,0,0
126,-265,0,0,0,0,0,0,0,0,0,-1,1350,1289,0,0
133,-265,0,0,0,0,0,0,0,0,0,-1,1357,1289,0,0
140,-265,0,0,0,0,0,0,0,0,0,-1,1364,1289,0,0
147,-265,0,0,0,0,0,0,0,0,0,-1,1371,1289,0,0
154,-265,0,0,0,0,0,0,0,0,0,-1,1378,1289,0,0
161,-265,0,0,0,0,0,0,0,0,0,-1,1385,1289,0,0
168,-265,0,0,0,0,0,0,0,0,0,-1,1392,1289,0,0
175,-265,0,0,0,0,0,0,0,0,0,-1,1399,1289,0,0
182,-265,0,0,0,0,0,0,0,0,0,-1,1406,1289,0,0
189,-265,0,0,0,0,0,0,0,0,0,-1,1413,1289,0,0
196,-265,0,0,0,0,0,0,0,0,0,-1,1420,1289,0,0
203,-265,0,0,0,0,0,0,0,0,0,-1,1427,1289,0,0
210,-265,0,0,0,0,0,0,0,0,0,-1,1434,1289,0,0
217,-265,0,0,0,0,0,0,0,0,0,-1,1441,1289,0,0
224,-265,0,0,0,0,0,0,0,0,0,-1,1448,1289,0,0
231,-265,0,0,0,0,0,0,0,0,0,-1,1455,1289,0,0
238,-265,0,0,0,0,0,0,0,0,0,-1,1462,1289,0,0
245,-265,0,0,0,0,0,0,0,0,0,-1,1469,1289,0,0
252,-265,0,0,0,0,0,0,0,0,0,-1,1476,1289,0,0
259,-265,0,0,0,0,0,0,0,0,0,-1,1483,1289,0,0
266,-265,0,0,0,0,0,0,0,0,0,-1,1490,1289,0,0
273,-265,0,0,0,0,0,0,0,0,0,-1,1497,1289,0,0
280,-265,0,0,0,0,0,0,0,0,0,-1,1504,1289,0,0
287,-265,0,0,0,0,0,0,0,0,0,-1,1511,1289,0,0
294,-265,0,0,0,0,0,0,0,0,0,-1,1518,1289,0,0
301,-265,0,0,0,0,0,0,0,0,0,-1,1525,1289,0,0
308,-265,0,0,0,0,0,0,0,0,0,-1,1532,1289,0,0
315,-265,0,0,0,0,0,0,0,0,0,-1,1539,1289,0,0
322,-265,0,0,0,0,0,0,0,0,0,-1,1546,1289,0,0
329,-265,0,0,0,0,0,0,0,0,0,-1,1553,1289,0,0
336,-265,0,0,0,0,0,0,0,0,0,-1,1560,1289,0,0
343,-265,0,0,0,0,0,0,0,0,0,-1,1567,1289,0,0
350,-265,0,0,0,0,0,0,0,0,0,-1,1574,1289,0,0
357,-265,0,0,0,0,0,0,0,0,0,-1,1581,1289,0,0
364,-265,0,0,0,0,0,0,0,0,0,-1,1588,1289,0,0
371,-265,0,0,0,0,0,0,0,0,0,-1,1595,1289,0,0
378,-265,0,0,0,0,0,0,0,0,0,-1,1602,1289,0,0
385,-265,0,0,0,0,0,0,0,0,0,-1,1609,1289,0,0
392,-265,0,0,0,0,0,0,0,0,0,-1,1616,1289,0,0
399,-265,0,0,0,0,0,0,0,0,0,-1,1623,1289,0,0
406,-265,0,0,0,0,0,0,0,0,0,-1,1630,1289,0,0
413,-265,0,0,0,0,0,0,0,0,0,-1,1637,1289,0,0
420,-265,0,0,0,0,0,0,0,0,0,-1,1644,1289,0,0
427,-265,0,0,0,0,0,0,0,0,0,-1,1651,1289,0,0
434,-265,0,0,0,0,0,0,0,0,0,-1,1658,1289,0,0
441,-265,0,0,0,0,0,0,0,0,0,-1,1665,1289,0,0
448,-265,0,0,0,0,0,0,0,0,0,-1,1672,1289,0,0
455,-265,0,0,0,0,0,0,0,0,0,-1,1679,1289,0,0
462,-265,0,0,0,0,0,0,0,0,0,-1,1686,1289,0,0
469,-265,0,0,0,0,0,0,0,0,0,-1,1693,1289,0,0
476,-265,0,0,0,0,0,0,0,0,0,-1,1700,1289,0,0
483,-265,0,0,0,0,0,0,0,0,0,-1,1707,1289,0,0
490,-265,0,0,0,0,0,0,0,0,0,-1,1714,1289,0,0
497,-265,0,0,0,0,0,0,0,0,0,-1,1721,1289,0,0
504,-265,0,0,0,0,0,0,0,0,0,-1,1728,1289,0,0
511,-265,0,0,0,0,0,0,0,0,0,-1,1735,1289,0,0
518,-265,0,0,0,0,0,0,0,0,0,-1,1742,1289,0,0
525,-265,0,0,0,0,0,0,0,0,0,-1,1749,1289,0,0
532,-265,0,0,0,0,0,0,0,0,0,-1,1756,1289,0,0
539,-265,0,0,0,0,0,0,0,0,0,-1,1763,1289,0,0
546,-265,0,0,0,0,0,0,0,0,0,-1,1770,1289,0,0
553,-265,0,0,0,0,0,0,0,0,0,-1,1777,1289,0,0
560,-265,0,0,0,0,0,0,0,0,0,-1,1784,1289,0,0
567,-265,0,0,0,0,0,0,0,0,0,-1,1791,1289,0,0
574,-265,0,0,0,0,0,0,0,0,0,-1,1798,1289,0,0
581,-265,0,0,0,0,0,0,0,0,0,-1,1805,1289,0,0
588,-265,0,0,0,0,0,0,0,0,0,-1,1812,1289,0,0
595,-265,0,0,0,0,0,0,0,0,0,-1,1819,1289,0,0
602,-265,19.2866,2.35095,-0.0179564,0.00877531,0.00726269,0.0106211,-0.0198021,1.32192,0.0178295,0.0286548,1826,1289,19.2866,-2.35099
609,-265,19.2583,2.33289,-0.0107229,0.0134228,-0.00184864,0.0135635,-0.0108636,-1.49482,0.0141317,0.0295508,1833,1289,19.2582,-2.33283
616,-265,19.223,2.38513,-0.00266098,0.0175802,-0.00640863,0.0194386,-0.00451941,-1.28855,0.014699,0.0351544,1840,1289,19.223,-2.38508
623,-265,19.1564,2.34351,0.00252119,0.0208537,-0.00821356,0.0239953,-0.000620387,-1.20548,0.0162076,0.0467729,1847,1289,19.1564,-2.34345
630,-265,19.0601,2.19824,0.00521204,0.0220247,-0.00801108,0.0252306,0.00200615,-1.19013,0.0161932,0.046679,1854,1289,19.0601,-2.19819
637,-265,18.5951,2.29614,0,0,0,0,0,0,0,-1,1861,1289,18.5951,-2.2961
644,-265,14.4525,8.13293,0,0,0,0,0,0,0,-1,1868,1289,14.4526,-8.13296
651,-265,16.6853,7.64673,0.00687747,0.0185062,-0.00416379,0.0198433,0.00554033,-1.26006,0.011823,0.0433447,1875,1289,16.6852,-7.64677
658,-265,17.8834,6.85327,0.00634058,0.0167057,-0.00301391,0.0175184,0.00552793,-1.30743,0.0103411,0.0420694,1882,1289,17.8834,-6.85333
665,-265,19.277,6.29456,0,0,0,0,0,0,0,-1,1889,1289,19.2769,-6.29455
672,-265,15.7841,4.78394,0,0,0,0,0,0,0,-1,1896,1289,15.784,-4.78396
679,-265,15.76,4.86853,0.00419941,0.0107495,0.00105891,0.0109165,0.00403247,1.41444,0.00637389,0.0350109,1903,1289,15.76,-4.86858
686,-265,15.76,4.83228,0.00320552,0.00765967,0.00252467,0.00879917,0.00206601,1.14682,0.00531307,0.0138507,1910,1289,15.76,-4.83222
693,-265,15.7742,4.66211,0.00167853,0.00511963,0.00246132,0.00640214,0.000396017,1.09044,0.0041424,0.00974366,1917,1289,15.7742,-4.66212
700,-265,15.7792,4.47803,0.000718201,0.00301438,0.00200897,0.00418018,-0.000447599,1.04499,0.00294734,0.0106003,1924,1289,15.7792,-4.47798
707,-265,15.8105,4.31836,-0.000477767,0.00105305,0.00138292,0.00186824,-0.00129296,1.03815,0.00183517,0.0104484,1931,1289,15.8106,-4.31837
714,-265,15.7933,4.1665,-0.000797009,0.000360782,0.000395328,0.000482889,-0.000919115,1.27122,0.000822404,0.00931938,1938,1289,15.7933,-4.16653
721,-265,15.7827,4.00977,-8.86899e-05,5.50887e-05,-0.000651659,0.000638812,-0.000672413,-0.840335,0.000757119,0.00888618,1945,1289,15.7827,-4.00972
728,-265,15.774,3.85828,7.67038e-05,-0.000166549,-0.00135505,0.00131558,-0.00140542,-0.740639,0.00157125,0.0121472,1952,1289,15.774,-3.85832
735,-265,15.7856,3.70032,-9.32371e-05,-0.000229817,-0.00218282,0.00202236,-0.00234541,-0.769761,0.00252403,0.0153653,1959,1289,15.7856,-3.70035
742,-265,15.8341,3.56506,-0.000477476,-0.00044477,-0.00289027,0.0024292,-0.00335144,-0.788227,0.00335158,0.0184052,1966,1289,15.8341,-3.56504
749,-265,15.8087,3.42212,-0.00138665,-0.000889781,-0.00372662,0.00259667,-0.00487311,-0.818681,0.00437893,0.0370155,1973,1289,15.8087,-3.42213
756,-265,15.8362,3.27979,0,0,0,0,0,0,0,-1,1980,1289,15.8362,-3.27975
763,-265,16.8966,3.27759,-0.00500915,-0.00229491,-0.00523745,0.00175839,-0.00906246,-0.912169,0.00670507,0.0442244,1987,1289,16.8966,-3.27761
770,-265,16.531,3.16602,-0.00831518,-0.0031792,-0.00543549,0.000264397,-0.0117588,-1.00608,0.00792878,0.0457947,1994,1289,16.531,-3.16601
777,-265,15.95,3.42285,-0.0131149,-0.00401688,-0.00478307,-0.00196503,-0.0151667,-1.16556,0.00952395,0.045301,2001,1289,15.9499,-3.42283
784,-265,0,0,0,0,0,0,0,0,0,-1,2008,1289,0,0
791,-265,0,0,0,0,0,0,0,0,0,-1,2015,1289,0,0
798,-265,0,0,0,0,0,0,0,0,0,-1,2022,1289,0,0
805,-265,0,0,0,0,0,0,0,0,0,-1,2029,1289,0,0
812,-265,0,0,0,0,0,0,0,0,0,-1,2036,1289,0,0
-700,-272,0,0,0,0,0,0,0,0,0,-1,524,1296,0,0
-693,-272,0,0,0,0,0,0,0,0,0,-1,531,1296,0,0
-686,-272,0,0,0,0,0,0,0,0,0,-1,538,1296,0,0
-679,-272,0,0,0,0,0,0,0,0,0,-1,545,1296,0,0
-672,-272,0,0,0,0,0,0,0,0,0,-1,552,1296,0,0
-665,-272,0,0,0,0,0,0,0,0,0,-1,559,1296,0,0
-658,-272,-10.594,1.81018,0,0,0,0,0,0,0,-1,566,1296,-10.594,-1.8102
-651,-272,-10.5543,1.22424,0.129202,0.0771154,-0.0360077,0.147597,0.0587198,-0.472312,0.0858063,0.0450561,573,1296,-10.5543,-1.22422
-644,-272,-9.99774,0.781738,0.121097,0.0672282,-0.0359192,0.139059,0.0492666,-0.463693,0.081414,0.0472973,580,1296,-9.99772,-0.781703
-637,-272,-8.77869,0.250122,0.107655,0.0573641,-0.0330387,0.124029,0.0409904,-0.460116,0.072967,0.047841,587,1296,-8.77868,-0.250066
-630,-272,-7.40442,0.241089,0,0,0,0,0,0,0,-1,594,1296,-7.40444,-0.241126
-623,-272,-7.63141,0.324097,0,0,0,0,0,0,0,-1,601,1296,-7.6314,-0.32412
-616,-272,-7.7981,0.830444,0.0595205,0.0299517,-0.0192316,0.0689937,0.0204785,-0.457699,0.0409152,0.0357921,608,1296,-7.79812,-0.830496
-609,-272,-8.05585,1.32922,0.0449077,0.0225894,-0.0146599,0.0521724,0.0153247,-0.460081,0.0309644,0.0192636,615,1296,-8.05582,-1.32928
-602,-272,-8.07318,1.45642,0.0320748,0.0160348,-0.0103552,0.0371525,0.0109571,-0.455901,0.0220432,0.0133431,622,1296,-8.0732,-1.45644
-595,-272,-8.07874,1.66943,0.0210258,0.0102059,-0.00653706,0.0241012,0.00713056,-0.439731,0.0142962,0.011199,629,1296,-8.07872,-1.66938
-588,-272,-8.06,1.8606,0.0113554,0.00526675,-0.00298881,0.0125773,0.00404482,-0.388099,0.00741401,0.00986865,636,1296,-8.05997,-1.86063
-581,-272,-8.0705,2.02332,0.00444282,0.00144893,-0.000426536,0.0045024,0.00138935,-0.138791,0.0026622,0.00914285,643,1296,-8.07048,-2.0233
-574,-272,-8.09534,2.23462,0.0031052,-0.000445998,0.000364036,0.00314214,-0.000482932,0.10111,0.0022729,0.0153103,650,1296,-8.09535,-2.2346
-567,-272,-8.1059,2.42065,0.00464069,-0.000494573,-8.24432e-05,0.00464201,-0.000495896,-0.0160488,0.00327252,0.0211281,657,1296,-8.10588,-2.42069
-560,-272,-8.11774,2.61658,0.00658165,0.000456556,-0.00133037,0.00685813,0.000180082,-0.204902,0.00451325,0.0195167,664,1296,-8.11775,-2.61653
-553,-272,-8.08557,2.80457,0.00823256,0.00137481,-0.00246357,0.00902581,0.000581562,-0.311509,0.00583303,0.0143631,671,1296,-8.08557,-2.80458
-546,-272,-8.04791,2.9967,0.00789343,0.0047939,-0.00455276,0.011153,0.00153437,-0.621349,0.0069803,0.0198533,678,1296,-8.04793,-2.99671
-539,-272,-7.8974,3.25708,0.00655792,0.00981502,-0.00753414,0.0158946,0.000478323,-0.891839,0.0104406,0.0452037,685,1296,-7.8974,-3.25709
-532,-272,-7.77039,3.47327,0,0,0,0,0,0,0,-1,692,1296,-7.77036,-3.47333
-525,-272,-8.22314,2.34546,0,0,0,0,0,0,0,-1,699,1296,-8.22317,-2.3455
-518,-272,-10.9088,-0.926636,0,0,0,0,0,0,0,-1,706,1296,-10.9088,0.926651
-511,-272,-9.48566,-1.5498,0,0,0,0,0,0,0,-1,713,1296,-9.48565,1.54976
-504,-272,-8.33575,-2.18604,0,0,0,0,0,0,0,-1,720,1296,-8.33575,2.18602
-497,-272,-9.56812,-1.34814,0,0,0,0,0,0,0,-1,727,1296,-9.5681,1.34819
-490,-272,-10.7833,-0.451904,0,0,0,0,0,0,0,-1,734,1296,-10.7833,0.45196
-483,-272,-11.9886,0.37561,0,0,0,0,0,0,0,-1,741,1296,-11.9886,-0.37562
-476,-272,0,0,0,0,0,0,0,0,0,-1,748,1296,0,0
-469,-272,0,0,0,0,0,0,0,0,0,-1,755,1296,0,0
-462,-272,0,0,0,0,0,0,0,0,0,-1,762,1296,0,0
-455,-272,0,0,0,0,0,0,0,0,0,-1,769,1296,0,0
-448,-272,0,0,0,0,0,0,0,0,0,-1,776,1296,0,0
-441,-272,0,0,0,0,0,0,0,0,0,-1,783,1296,0,0
-434,-272,0,0,0,0,0,0,0,0,0,-1,790,1296,0,0
-427,-272,0,0,0,0,0,0,0,0,0,-1,797,1296,0,0
-420,-272,0,0,0,0,0,0,0,0,0,-1,804,1296,0,0
-413,-272,0,0,0,0,0,0,0,0,0,-1,811,1296,0,0
-406,-272,0,0,0,0,0,0,0,0,0,-1,818,1296,0,0
-399,-272,0,0,0,0,0,0,0,0,0,-1,825,1296,0,0
-392,-272,0,0,0,0,0,0,0,0,0,-1,832,1296,0,0
-385,-272,0,0,0,0,0,0,0,0,0,-1,839,1296,0,0
-378,-272,0,0,0,0,0,0,0,0,0,-1,846,1296,0,0
-371,-272,0,0,0,0,0,0,0,0,0,-1,853,1296,0,0
-364,-272,0,0,0,0,0,0,0,0,0,-1,860,1296,0,0
-357,-272,0,0,0,0,0,0,0,0,0,-1,867,1296,0,0
-350,-272,0,0,0,0,0,0,0,0,0,-1,874,1296,0,0
-343,-272,0,0,0,0,0,0,0,0,0,-1,881,1296,0,0
-336,-272,0,0,0,0,0,0,0,0,0,-1,888,1296,0,0
-329,-272,0,0,0,0,0,0,0,0,0,-1,895,1296,0,0
-322,-272,0,0,0,0,0,0,0,0,0,-1,902,1296,0,0
-315,-272,0,0,0,0,0,0,0,0,0,-1,909,1296,0,0
-308,-272,0,0,0,0,0,0,0,0,0,-1,916,1296,0,0
-301,-272,0,0,0,0,0,0,0,0,0,-1,923,1296,0,0
-294,-272,0,0,0,0,0,0,0,0,0,-1,930,1296,0,0
-287,-272,0,0,0,0,0,0,0,0,0,-1,937,1296,0,0
-280,-272,0,0,0,0,0,0,0,0,0,-1,944,1296,0,0
-273,-272,0,0,0,0,0,0,0,0,0,-1,951,1296,0,0
-266,-272,0,0,0,0,0,0,0,0,0,-1,958,1296,0,0
-259,-272,0,0,0,0,0,0,0,0,0,-1,965,1296,0,0
-252,-272,0,0,0,0,0,0,0,0,0,-1,972,1296,0,0
-245,-272,0,0,0,0,0,0,0,0,0,-1,979,1296,0,0
-238,-272,0,0,0,0,0,0,0,0,0,-1,986,1296,0,0
-231,-272,0,0,0,0,0,0,0,0,0,-1,993,1296,0,0
-224,-272,0,0,0,0,0,0,0,0,0,-1,1000,1296,0,0
-217,-272,0,0,0,0,0,0,0,0,0,-1,1007,1296,0,0
-210,-272,0,0,0,0,0,0,0,0,0,-1,1014,1296,0,0
-203,-272,0,0,0,0,0,0,0,0,0,-1,1021,1296,0,0
-196,-272,0,0,0,0,0,0,0,0,0,-1,1028,1296,0,0
-189,-272,0,0,0,0,0,0,0,0,0,-1,1035,1296,0,0
-182,-272,0,0,0,0,0,0,0,0,0,-1,1042,1296,0,0
-175,-272,0,0,0,0,0,0,0,0,0,-1,1049,1296,0,0
-168,-272,0,0,0,0,0,0,0,0,0,-1,1056,1296,0,0
-161,-272,0,0,0,0,0,0,0,0,0,-1,1063,1296,0,0
-154,-272,0,0,0,0,0,0,0,0,0,-1,1070,1296,0,0
-147,-272,0,0,0,0,0,0,0,0,0,-1,1077,1296,0,0
-140,-272,0,0,0,0,0,0,0,0,0,-1,1084,1296,0,0
-133,-272,0,0,0,0,0,0,0,0,0,-1,1091,1296,0,0
-126,-272,0,0,0,0,0,0,0,0,0,-1,1098,1296,0,0
-119,-272,0,0,0,0,0,0,0,0,0,-1,1105,1296,0,0
-112,-272,0,0,0,0,0,0,0,0,0,-1,1112,1296,0,0
-105,-272,0,0,0,0,0,0,0,0,0,-1,1119,1296,0,0
-98,-272,0,0,0,0,0,0,0,0,0,-1,1126,1296,0,0
-91,-272,0,0,0,0,0,0,0,0,0,-1,1133,1296,0,0
-84,-272,0,0,0,0,0,0,0,0,0,-1,1140,1296,0,0
-77,-272,0,0,0,0,0,0,0,0,0,-1,1147,1296,0,0
-70,-272,0,0,0,0,0,0,0,0,0,-1,1154,1296,0,0
-63,-272,0,0,0,0,0,0,0,0,0,-1,1161,1296,0,0
-56,-272,0,0,0,0,0,0,0,0,0,-1,1168,1296,0,0
-49,-272,0,0,0,0,0,0,0,0,0,-1,1175,1296,0,0
-42,-272,0,0,0,0,0,0,0,0,0,-1,1182,1296,0,0
-35,-272,0,0,0,0,0,0,0,0,0,-1,1189,1296,0,0
-28,-272,0,0,0,0,0,0,0,0,0,-1,1196,1296,0,0
-21,-272,0,0,0,0,0,0,0,0,0,-1,1203,1296,0,0
-14,-272,0,0,0,0,0,0,0,0,0,-1,1210,1296,0,0
-7,-272,0,0,0,0,0,0,0,0,0,-1,1217,1296,0,0
0,-272,0,0,0,0,0,0,0,0,0,-1,1224,1296,0,0
7,-272,0,0,0,0,0,0,0,0,0,-1,1231,1296,0,0
14,-272,0,0,0,0,0,0,0,0,0,-1,1238,1296,0,0
21,-272,0,0,0,0,0,0,0,0,0,-1,1245,1296,0,0
28,-272,0,0,0,0,0,0,0,0,0,-1,1252,1296,0,0
35,-272,0,0,0,0,0,0,0,0,0,-1,1259,1296,0,0
42,-272,0,0,0,0,0,0,0,0,0,-1,1266,1296,0,0
49,-272,0,0,0,0,0,0,0,0,0,-1,1273,1296,0,0
56,-272,0,0,0,0,0,0,0,0,0,-1,1280,1296,0,0
63,-272,0,0,0,0,0,0,0,0,0,-1,1287,1296,0,0
70,-272,0,0,0,0,0,0,0,0,0,-1,1294,1296,0,0
77,-272,0,0,0,0,0,0,0,0,0,-1,1301,1296,0,0
84,-272,0,0,0,0,0,0,0,0,0,-1,1308,1296,0,0
91,-272,0,0,0,0,0,0,0,0,0,-1,1315,1296,0,0
98,-272,0,0,0,0,0,0,0,0,0,-1,1322,1296,0,0
105,-272,0,0,0,0,0,0,0,0,0,-1,1329,1296,0,0
112,-272,0,0,0,0,0,0,0,0,0,-1,1336,1296,0,0
119,-272,0,0,0,0,0,0,0,0,0,-1,1343,1296,0,0
126,-272,0,0,0,0,0,0,0,0,0,-1,1350,1296,0,0
133,-272,0,0,0,0,0,0,0,0,0,-1,1357,1296,0,0
140,-272,0,0,0,0,0,0,0,0,0,-1,1364,1296,0,0
147,-272,0,0,0,0,0,0,0,0,0,-1,1371,1296,0,0
154,-272,0,0,0,0,0,0,0,0,0,-1,1378,1296,0,0
161,-272,0,0,0,0,0,0,0,0,0,-1,1385,1296,0,0
168,-272,0,0,0,0,0,0,0,0,0,-1,1392,1296,0,0
175,-272,0,0,0,0,0,0,0,0,0,-1,1399,1296,0,0
182,-272,0,0,0,0,0,0,0,0,0,-1,1406,1296,0,0
189,-272,0,0,0,0,0,0,0,0,0,-1,1413,1296,0,0
196,-272,0,0,0,0,0,0,0,0,0,-1,1420,1296,0,0
203,-272,0,0,0,0,0,0,0,0,0,-1,1427,1296,0,0
210,-272,0,0,0,0,0,0,0,0,0,-1,1434,1296,0,0
217,-272,0,0,0,0,0,0,0,0,0,-1,1441,1296,0,0
224,-272,0,0,0,0,0,0,0,0,0,-1,1448,1296,0,0
231,-272,0,0,0,0,0,0,0,0,0,-1,1455,1296,0,0
238,-272,0,0,0,0,0,0,0,0,0,-1,1462,1296,0,0
245,-272,0,0,0,0,0,0,0,0,0,-1,1469,1296,0,0
252,-272,0,0,0,0,0,0,0,0,0,-1,1476,1296,0,0
259,-272,0,0,0,0,0,0,0,0,0,-1,1483,1296,0,0
266,-272,0,0,0,0,0,0,0,0,0,-1,1490,1296,0,0
273,-272,0,0,0,0,0,0,0,0,0,-1,1497,1296,0,0
280,-272,0,0,0,0,0,0,0,0,0,-1,1504,1296,0,0
287,-272,0,0,0,0,0,0,0,0,0,-1,1511,1296,0,0
294,-272,0,0,0,0,0,0,0,0,0,-1,1518,1296,0,0
301,-272,0,0,0,0,0,0,0,0,0,-1,1525,1296,0,0
308,-272,0,0,0,0,0,0,0,0,0,-1,1532,1296,0,0
315,-272,0,0,0,0,0,0,0,0,0,-1,1539,1296,0,0
322,-272,0,0,0,0,0,0,0,0,0,-1,1546,1296,0,0
329,-272,0,0,0,0,0,0,0,0,0,-1,1553,1296,0,0
336,-272,0,0,0,0,0,0,0,0,0,-1,1560,1296,0,0
343,-272,0,0,0,0,0,0,0,0,0,-1,1567,1296,0,0
350,-272,0,0,0,0,0,0,0,0,0,-1,1574,1296,0,0
357,-272,0,0,0,0,0,0,0,0,0,-1,1581,1296,0,0
364,-272,0,0,0,0,0,0,0,0,0,-1,1588,1296,0,0
371,-272,0,0,0,0,0,0,0,0,0,-1,1595,1296,0,0
378,-272,0,0,0,0,0,0,0,0,0,-1,1602,1296,0,0
385,-272,0,0,0,0,0,0,0,0,0,-1,1609,1296,0,0
392,-272,0,0,0,0,0,0,0,0,0,-1,1616,1296,0,0
399,-272,0,0,0,0,0,0,0,0,0,-1,1623,1296,0,0
406,-272,0,0,0,0,0,0,0,0,0,-1,1630,1296,0,0
413,-272,0,0,0,0,0,0,0,0,0,-1,1637,1296,0,0
420,-272,0,0,0,0,0,0,0,0,0,-1,1644,1296,0,0
427,-272,0,0,0,0,0,0,0,0,0,-1,1651,1296,0,0
434,-272,0,0,0,0,0,0,0,0,0,-1,1658,1296,0,0
441,-272,0,0,0,0,0,0,0,0,0,-1,1665,1296,0,0
448,-272,0,0,0,0,0,0,0,0,0,-1,1672,1296,0,0
455,-272,0,0,0,0,0,0,0,0,0,-1,1679,1296,0,0
462,-272,0,0,0,0,0,0,0,0,0,-1,1686,1296,0,0
469,-272,0,0,0,0,0,0,0,0,0,-1,1693,1296,0,0
476,-272,0,0,0,0,0,0,0,0,0,-1,1700,1296,0,0
483,-272,0,0,0,0,0,0,0,0,0,-1,1707,1296,0,0
490,-272,0,0,0,0,0,0,0,0,0,-1,1714,1296,0,0
497,-272,0,0,0,0,0,0,0,0,0,-1,1721,1296,0,0
504,-272,0,0,0,0,0,0,0,0,0,-1,1728,1296,0,0
511,-272,0,0,0,0,0,0,0,0,0,-1,1735,1296,0,0
518,-272,0,0,0,0,0,0,0,0,0,-1,1742,1296,0,0
525,-272,0,0,0,0,0,0,0,0,0,-1,1749,1296,0,0
532,-272,0,0,0,0,0,0,0,0,0,-1,1756,1296,0,0
539,-272,0,0,0,0,0,0,0,0,0,-1,1763,1296,0,0
546,-272,0,0,0,0,0,0,0,0,0,-1,1770,1296,0,0
553,-272,0,0,0,0,0,0,0,0,0,-1,1777,1296,0,0
560,-272,0,0,0,0,0,0,0,0,0,-1,1784,1296,0,0
567,-272,0,0,0,0,0,0,0,0,0,-1,1791,1296,0,0
574,-272,0,0,0,0,0,0,0,0,0,-1,1798,1296,0,0
581,-272,0,0,0,0,0,0,0,0,0,-1,1805,1296,0,0
588,-272,0,0,0,0,0,0,0,0,0,-1,1812,1296,0,0
595,-272,0,0,0,0,0,0,0,0,0,-1,1819,1296,0,0
602,-272,19.2448,2.35632,-0.0152671,0.0162346,0.00645416,0.0175056,-0.0165382,1.37635,0.0196579,0.0314332,1826,1296,19.2448,-2.35632
609,-272,19.1561,2.22339,-0.00642085,0.0193479,-0.00223488,0.0195403,-0.00661324,-1.48492,0.0157025,0.0403232,1833,1296,19.1561,-2.22344
616,-272,19.0382,2.15442,0.00110348,0.0219731,-0.00675282,0.0239675,-0.000890945,-1.28361,0.0162835,0.0471711,1840,1296,19.0382,-2.15446
623,-272,19.1434,2.37158,0,0,0,0,0,0,0,-1,1847,1296,19.1435,-2.37153
630,-272,19.0057,1.92908,0,0,0,0,0,0,0,-1,1854,1296,19.0058,-1.92906
637,-272,13.5953,7.38953,0,0,0,0,0,0,0,-1,1861,1296,13.5953,-7.38957
644,-272,14.8514,7.11548,0,0,0,0,0,0,0,-1,1868,1296,14.8514,-7.11551
651,-272,16.2887,6.70422,0.00805369,0.0187553,-0.00497698,0.0207122,0.00609687,-1.19619,0.0122907,0.0464137,1875,1296,16.2887,-6.70424
658,-272,17.3269,6.34045,0.0071966,0.0167399,-0.00402169,0.0182087,0.00572786,-1.22064,0.0107511,0.0456245,1882,1296,17.3269,-6.34047
665,-272,18.2401,6.20178,0,0,0,0,0,0,0,-1,1889,1296,18.2402,-6.20175
672,-272,15.9491,4.75122,0,0,0,0,0,0,0,-1,1896,1296,15.9491,-4.75119
679,-272,15.6141,4.87341,0.0045663,0.0104484,0.000509252,0.0104922,0.00452254,1.48507,0.00607683,0.0261753,1903,1296,15.6141,-4.87345
686,-272,15.6268,4.82263,0.00340971,0.00706094,0.00217738,0.00807678,0.00239388,1.13427,0.00479027,0.0133833,1910,1296,15.6268,-4.82264
693,-272,15.6257,4.65527,0.00166666,0.00437095,0.00222387,0.00562148,0.000416133,1.05854,0.00361693,0.0111696,1917,1296,15.6258,-4.65523
700,-272,15.6229,4.48877,0.000655989,0.00241004,0.00176342,0.00350249,-0.000436461,1.01616,0.00249325,0.0109749,1924,1296,15.623,-4.48879
707,-272,15.6377,4.32764,-0.000370457,0.000719733,0.00110327,0.00140522,-0.00105594,1.01485,0.00142572,0.0106682,1931,1296,15.6377,-4.32766
714,-272,15.6254,4.146,-0.000455705,0.000321137,6.4193e-05,0.000326406,-0.000460974,1.4889,0.000456801,0.0101512,1938,1296,15.6254,-4.14603
721,-272,15.6136,3.99597,0.000288174,0.000230285,-0.00103098,0.00129062,-0.000772157,-0.771365,0.00120342,0.0104026,1945,1296,15.6137,-3.99596
728,-272,15.6191,3.85901,0.000393984,0.000216253,-0.00179059,0.00209791,-0.00148767,-0.760604,0.00208011,0.0122036,1952,1296,15.6191,-3.85898
735,-272,15.6409,3.69666,0.000174787,0.000262095,-0.0027906,0.00300938,-0.0025725,-0.793219,0.00322599,0.0130158,1959,1296,15.6409,-3.69669
742,-272,15.6276,3.49536,-0.000367834,0.000149486,-0.00380493,0.00370453,-0.00392288,-0.819336,0.00440429,0.023797,1966,1296,15.6275,-3.49532
749,-272,15.5833,3.32739,-0.00147457,-0.000140562,-0.00502284,0.00425937,-0.0058745,-0.851409,0.00587551,0.0420751,1973,1296,15.5832,-3.32735
756,-272,15.6357,3.21118,0,0,0,0,0,0,0,-1,1980,1296,15.6357,-3.21118
763,-272,17.6277,3.05066,0,0,0,0,0,0,0,-1,1987,1296,17.6277,-3.05064
770,-272,17.4381,2.82166,0,0,0,0,0,0,0,-1,1994,1296,17.4382,-2.8216
777,-272,15.7134,3.61584,0,0,0,0,0,0,0,-1,2001,1296,15.7134,-3.61582
784,-272,0,0,0,0,0,0,0,0,0,-1,2008,1296,0,0
791,-272,0,0,0,0,0,0,0,0,0,-1,2015,1296,0,0
798,-272,0,0,0,0,0,0,0,0,0,-1,2022,1296,0,0
805,-272,0,0,0,0,0,0,0,0,0,-1,2029,1296,0,0
812,-272,0,0,0,0,0,0,0,0,0,-1,2036,1296,0,0
-700,-279,0,0,0,0,0,0,0,0,0,-1,524,1303,0,0
-693,-279,0,0,0,0,0,0,0,0,0,-1,531,1303,0,0
-686,-279,0,0,0,0,0,0,0,0,0,-1,538,1303,0,0
-679,-279,0,0,0,0,0,0,0,0,0,-1,545,1303,0,0
-672,-279,0,0,0,0,0,0,0,0,0,-1,552,1303,0,0
-665,-279,0,0,0,0,0,0,0,0,0,-1,559,1303,0,0
-658,-279,-11.2556,1.50403,0,0,0,0,0,0,0,-1,566,1303,-11.2556,-1.50401
-651,-279,-10.8323,0.83252,0.158968,0.0896005,-0.0495095,0.184734,0.0638347,-0.479851,0.108339,0.0452154,573,1303,-10.8323,-0.832503
-644,-279,-9.46869,0.397705,0.146748,0.0782493,-0.046776,0.170473,0.0545244,-0.469393,0.10053,0.0470282,580,1303,-9.4687,-0.397697
-637,-279,-7.86163,0.0791016,0.128815,0.0669915,-0.0415271,0.149673,0.0461343,-0.465451,0.0885067,0.0458188,587,1303,-7.8616,-0.0791448
-630,-279,-6.56372,-0.331421,0,0,0,0,0,0,0,-1,594,1303,-6.56369,0.331466
-623,-279,-7.35663,0.12207,0,0,0,0,0,0,0,-1,601,1303,-7.35663,-0.122082
-616,-279,-7.52283,0.197144,0,0,0,0,0,0,0,-1,608,1303,-7.52284,-0.197177
-609,-279,-8.00043,1.23022,0.0521174,0.0269244,-0.0169894,0.0606707,0.0183711,-0.466401,0.0359249,0.0303858,615,1303,-8.00041,-1.2302
-602,-279,-7.8833,1.44128,0.0369658,0.0193144,-0.0119371,0.0429856,0.0132946,-0.467074,0.0254124,0.0125978,622,1303,-7.88331,-1.44134
-595,-279,-7.87714,1.65393,0.0238883,0.0126875,-0.00755543,0.0276926,0.00888317,-0.466463,0.0163271,0.00999607,629,1303,-7.87712,-1.65394
-588,-279,-7.84674,1.8584,0.0125615,0.00690072,-0.00354649,0.0142686,0.00519363,-0.448612,0.00833896,0.00991595,636,1303,-7.84677,-1.85837
-581,-279,-7.86633,2.02429,0.00427428,0.00221253,-0.000575016,0.00442381,0.002063,-0.254403,0.00255602,0.0109447,643,1303,-7.86635,-2.0243
-574,-279,-7.90082,2.20569,0.00232818,-0.000336787,0.000379247,0.00238109,-0.000389706,0.138643,0.00173198,0.0112199,650,1303,-7.90079,-2.20572
-567,-279,-7.90491,2.40271,0.00387449,-0.000695298,-5.02713e-05,0.00387504,-0.000695851,-0.010999,0.00284383,0.0146832,657,1303,-7.90491,-2.4027
-560,-279,-7.89673,2.6156,0.00588158,-0.000111542,-0.00126277,0.00613678,-0.000366745,-0.199411,0.00421875,0.0152537,664,1303,-7.89673,-2.61563
-553,-279,-7.87946,2.81458,0.00778252,0.000506549,-0.00240392,0.00850501,-0.000215942,-0.291959,0.00574334,0.0122495,671,1303,-7.87946,-2.81454
-546,-279,-7.88275,2.98706,0.0074934,0.00393264,-0.00460719,0.0106522,0.00077379,-0.601019,0.00685813,0.0140209,678,1303,-7.88277,-2.9871
-539,-279,-7.76318,3.26978,0.00596369,0.00922588,-0.00782715,0.0155901,-0.00040051,-0.888122,0.0105294,0.0427877,685,1303,-7.76317,-3.26975
-532,-279,-7.62323,3.54456,0,0,0,0,0,0,0,-1,692,1303,-7.6232,-3.54459
-525,-279,-7.66394,3.2821,0,0,0,0,0,0,0,-1,699,1303,-7.66397,-3.28215
-518,-279,-9.66003,-2.04016,0,0,0,0,0,0,0,-1,706,1303,-9.66002,2.04016
-511,-279,-8.83795,-1.65161,0,0,0,0,0,0,0,-1,713,1303,-8.83795,1.65157
-504,-279,-8.13361,-1.71155,0,0,0,0,0,0,0,-1,720,1303,-8.13362,1.71151
-497,-279,-8.56409,-2.14478,0,0,0,0,0,0,0,-1,727,1303,-8.56408,2.14482
-490,-279,-9.7887,-1.18994,0,0,0,0,0,0,0,-1,734,1303,-9.78871,1.18998
-483,-279,-11.0436,-0.386963,0,0,0,0,0,0,0,-1,741,1303,-11.0436,0.387008
-476,-279,0,0,0,0,0,0,0,0,0,-1,748,1303,0,0
-469,-279,0,0,0,0,0,0,0,0,0,-1,755,1303,0,0
-462,-279,0,0,0,0,0,0,0,0,0,-1,762,1303,0,0
-455,-279,0,0,0,0,0,0,0,0,0,-1,769,1303,0,0
-448,-279,0,0,0,0,0,0,0,0,0,-1,776,1303,0,0
-441,-279,0,0,0,0,0,0,0,0,0,-1,783,1303,0,0
-434,-279,0,0,0,0,0,0,0,0,0,-1,790,1303,0,0
-427,-279,0,0,0,0,0,0,0,0,0,-1,797,1303,0,0
-420,-279,0,0,0,0,0,0,0,0,0,-1,804,1303,0,0
-413,-279,0,0,0,0,0,0,0,0,0,-1,811,1303,0,0
-406,-279,0,0,0,0,0,0,0,0,0,-1,818,1303,0,0
-399,-279,0,0,0,0,0,0,0,0,0,-1,825,1303,0,0
-392,-279,0,0,0,0,0,0,0,0,0,-1,832,1303,0,0
-385,-279,0,0,0,0,0,0,0,0,0,-1,839,1303,0,0
-378,-279,0,0,0,0,0,0,0,0,0,-1,846,1303,0,0
-371,-279,0,0,0,0,0,0,0,0,0,-1,853,1303,0,0
-364,-279,0,0,0,0,0,0,0,0,0,-1,860,1303,0,0
-357,-279,0,0,0,0,0,0,0,0,0,-1,867,1303,0,0
-350,-279,0,0,0,0,0,0,0,0,0,-1,874,1303,0,0
-343,-279,0,0,0,0,0,0,0,0,0,-1,881,1303,0,0
-336,-279,0,0,0,0,0,0,0,0,0,-1,888,1303,0,0
-329,-279,0,0,0,0,0,0,0,0,0,-1,895,1303,0,0
-322,-279,0,0,0,0,0,0,0,0,0,-1,902,1303,0,0
-315,-279,0,0,0,0,0,0,0,0,0,-1,909,1303,0,0
-308,-279,0,0,0,0,0,0,0,0,0,-1,916,1303,0,0
-301,-279,0,0,0,0,0,0,0,0,0,-1,923,1303,0,0
-294,-279,0,0,0,0,0,0,0,0,0,-1,930,1303,0,0
-287,-279,0,0,0,0,0,0,0,0,0,-1,937,1303,0,0
-280,-279,0,0,0,0,0,0,0,0,0,-1,944,1303,0,0
-273,-279,0,0,0,0,0,0,0,0,0,-1,951,1303,0,0
-266,-279,0,0,0,0,0,0,0,0,0,-1,958,1303,0,0
-259,-279,0,0,0,0,0,0,0,0,0,-1,965,1303,0,0
-252,-279,0,0,0,0,0,0,0,0,0,-1,972,1303,0,0
-245,-279,0,0,0,0,0,0,0,0,0,-1,979,1303,0,0
-238,-279,0,0,0,0,0,0,0,0,0,-1,986,1303,0,0
-231,-279,0,0,0,0,0,0,0,0,0,-1,993,1303,0,0
-224,-279,0,0,0,0,0,0,0,0,0,-1,1000,1303,0,0
-217,-279,0,0,0,0,0,0,0,0,0,-1,1007,1303,0,0
-210,-279,0,0,0,0,0,0,0,0,0,-1,1014,1303,0,0
-203,-279,0,0,0,0,0,0,0,0,0,-1,1021,1303,0,0
-196,-279,0,0,0,0,0,0,0,0,0,-1,1028,1303,0,0
-189,-279,0,0,0,0,0,0,0,0,0,-1,1035,1303,0,0
-182,-279,0,0,0,0,0,0,0,0,0,-1,1042,1303,0,0
-175,-279,0,0,0,0,0,0,0,0,0,-1,1049,1303,0,0
-168,-279,0,0,0,0,0,0,0,0,0,-1,1056,1303,0,0
-161,-279,0,0,0,0,0,0,0,0,0,-1,1063,1303,0,0
-154,-279,0,0,0,0,0,0,0,0,0,-1,1070,1303,0,0
-147,-279,0,0,0,0,0,0,0,0,0,-1,1077,1303,0,0
-140,-279,0,0,0,0,0,0,0,0,0,-1,1084,1303,0,0
-133,-279,0,0,0,0,0,0,0,0,0,-1,1091,1303,0,0
-126,-279,0,0,0,0,0,0,0,0,0,-1,1098,1303,0,0
-119,-279,0,0,0,0,0,0,0,0,0,-1,1105,1303,0,0
-112,-279,0,0,0,0,0,0,0,0,0,-1,1112,1303,0,0
-105,-279,0,0,0,0,0,0,0,0,0,-1,1119,1303,0,0
-98,-279,0,0,0,0,0,0,0,0,0,-1,1126,1303,0,0
-91,-279,0,0,0,0,0,0,0,0,0,-1,1133,1303,0,0
-84,-279,0,0,0,0,0,0,0,0,0,-1,1140,1303,0,0
-77,-279,0,0,0,0,0,0,0,0,0,-1,1147,1303,0,0
-70,-279,0,0,0,0,0,0,0,0,0,-1,1154,1303,0,0
-63,-279,0,0,0,0,0,0,0,0,0,-1,1161,1303,0,0
-56,-279,0,0,0,0,0,0,0,0,0,-1,1168,1303,0,0
-49,-279,0,0,0,0,0,0,0,0,0,-1,1175,1303,0,0
-42,-279,0,0,0,0,0,0,0,0,0,-1,1182,1303,0,0
-35,-279,0,0,0,0,0,0,0,0,0,-1,1189,1303,0,0
-28,-279,0,0,0,0,0,0,0,0,0,-1,1196,1303,0,0
-21,-279,0,0,0,0,0,0,0,0,0,-1,1203,1303,0,0
-14,-279,0,0,0,0,0,0,0,0,0,-1,1210,1303,0,0
-7,-279,0,0,0,0,0,0,0,0,0,-1,1217,1303,0,0
0,-279,0,0,0,0,0,0,0,0,0,-1,1224,1303,0,0
7,-279,0,0,0,0,0,0,0,0,0,-1,1231,1303,0,0
14,-279,0,0,0,0,0,0,0,0,0,-1,1238,1303,0,0
21,-279,0,0,0,0,0,0,0,0,0,-1,1245,1303,0,0
28,-279,0,0,0,0,0,0,0,0,0,-1,1252,1303,0,0
35,-279,0,0,0,0,0,0,0,0,0,-1,1259,1303,0,0
42,-279,0,0,0,0,0,0,0,0,0,-1,1266,1303,0,0
49,-279,0,0,0,0,0,0,0,0,0,-1,1273,1303,0,0
56,-279,0,0,0,0,0,0,0,0,0,-1,1280,1303,0,0
63,-279,0,0,0,0,0,0,0,0,0,-1,1287,1303,0,0
70,-279,0,0,0,0,0,0,0,0,0,-1,1294,1303,0,0
77,-279,0,0,0,0,0,0,0,0,0,-1,1301,1303,0,0
84,-279,0,0,0,0,0,0,0,0,0,-1,1308,1303,0,0
91,-279,0,0,0,0,0,0,0,0,0,-1,1315,1303,0,0
98,-279,0,0,0,0,0,0,0,0,0,-1,1322,1303,0,0
105,-279,0,0,0,0,0,0,0,0,0,-1,1329,1303,0,0
112,-279,0,0,0,0,0,0,0,0,0,-1,1336,1303,0,0
119,-279,0,0,0,0,0,0,0,0,0,-1,1343,1303,0,0
126,-279,0,0,0,0,0,0,0,0,0,-1,1350,1303,0,0
133,-279,0,0,0,0,0,0,0,0,0,-1,1357,1303,0,0
140,-279,0,0,0,0,0,0,0,0,0,-1,1364,1303,0,0
147,-279,0,0,0,0,0,0,0,0,0,-1,1371,1303,0,0
154,-279,0,0,0,0,0,0,0,0,0,-1,1378,1303,0,0
161,-279,0,0,0,0,0,0,0,0,0,-1,1385,1303,0,0
168,-279,0,0,0,0,0,0,0,0,0,-1,1392,1303,0,0
175,-279,0,0,0,0,0,0,0,0,0,-1,1399,1303,0,0
182,-279,0,0,0,0,0,0,0,0,0,-1,1406,1303,0,0
189,-279,0,0,0,0,0,0,0,0,0,-1,1413,1303,0,0
196,-279,0,0,0,0,0,0,0,0,0,-1,1420,1303,0,0
203,-279,0,0,0,0,0,0,0,0,0,-1,1427,1303,0,0
210,-279,0,0,0,0,0,0,0,0,0,-1,1434,1303,0,0
217,-279,0,0,0,0,0,0,0,0,0,-1,1441,1303,0,0
224,-279,0,0,0,0,0,0,0,0,0,-1,1448,1303,0,0
231,-279,0,0,0,0,0,0,0,0,0,-1,1455,1303,0,0
238,-279,0,0,0,0,0,0,0,0,0,-1,1462,1303,0,0
245,-279,0,0,0,0,0,0,0,0,0,-1,1469,1303,0,0
252,-279,0,0,0,0,0,0,0,0,0,-1,1476,1303,0,0
259,-279,0,0,0,0,0,0,0,0,0,-1,1483,1303,0,0
266,-279,0,0,0,0,0,0,0,0,0,-1,1490,1303,0,0
273,-279,0,0,0,0,0,0,0,0,0,-1,1497,1303,0,0
280,-279,0,0,0,0,0,0,0,0,0,-1,1504,1303,0,0
287,-279,0,0,0,0,0,0,0,0,0,-1,1511,1303,0,0
294,-279,0,0,0,0,0,0,0,0,0,-1,1518,1303,0,0
301,-279,0,0,0,0,0,0,0,0,0,-1,1525,1303,0,0
308,-279,0,0,0,0,0,0,0,0,0,-1,1532,1303,0,0
315,-279,0,0,0,0,0,0,0,0,0,-1,1539,1303,0,0
322,-279,0,0,0,0,0,0,0,0,0,-1,1546,1303,0,0
329,-279,0,0,0,0,0,0,0,0,0,-1,1553,1303,0,0
336,-279,0,0,0,0,0,0,0,0,0,-1,1560,1303,0,0
343,-279,0,0,0,0,0,0,0,0,0,-1,1567,1303,0,0
350,-279,0,0,0,0,0,0,0,0,0,-1,1574,1303,0,0
357,-279,0,0,0,0,0,0,0,0,0,-1,1581,1303,0,0
364,-279,0,0,0,0,0,0,0,0,0,-1,1588,1303,0,0
371,-279,0,0,0,0,0,0,0,0,0,-1,1595,1303,0,0
378,-279,0,0,0,0,0,0,0,0,0,-1,1602,1303,0,0
385,-279,0,0,0,0,0,0,0,0,0,-1,1609,1303,0,0
392,-279,0,0,0,0,0,0,0,0,0,-1,1616,1303,0,0
399,-279,0,0,0,0,0,0,0,0,0,-1,1623,1303,0,0
406,-279,0,0,0,0,0,0,0,0,0,-1,1630,1303,0,0
413,-279,0,0,0,0,0,0,0,0,0,-1,1637,1303,0,0
420,-279,0,0,0,0,0,0,0,0,0,-1,1644,1303,0,0
427,-279,0,0,0,0,0,0,0,0,0,-1,1651,1303,0,0
434,-279,0,0,0,0,0,0,0,0,0,-1,1658,1303,0,0
441,-279,0,0,0,0,0,0,0,0,0,-1,1665,1303,0,0
448,-279,0,0,0,0,0,0,0,0,0,-1,1672,1303,0,0
455,-279,0,0,0,0,0,0,0,0,0,-1,1679,1303,0,0
462,-279,0,0,0,0,0,0,0,0,0,-1,1686,1303,0,0
469,-279,0,0,0,0,0,0,0,0,0,-1,1693,1303,0,0
476,-279,0,0,0,0,0,0,0,0,0,-1,1700,1303,0,0
483,-279,0,0,0,0,0,0,0,0,0,-1,1707,1303,0,0
490,-279,0,0,0,0,0,0,0,0,0,-1,1714,1303,0,0
497,-279,0,0,0,0,0,0,0,0,0,-1,1721,1303,0,0
504,-279,0,0,0,0,0,0,0,0,0,-1,1728,1303,0,0
511,-279,0,0,0,0,0,0,0,0,0,-1,1735,1303,0,0
518,-279,0,0,0,0,0,0,0,0,0,-1,1742,1303,0,0
525,-279,0,0,0,0,0,0,0,0,0,-1,1749,1303,0,0
532,-279,0,0,0,0,0,0,0,0,0,-1,1756,1303,0,0
539,-279,0,0,0,0,0,0,0,0,0,-1,1763,1303,0,0
546,-279,0,0,0,0,0,0,0,0,0,-1,1770,1303,0,0
553,-279,0,0,0,0,0,0,0,0,0,-1,1777,1303,0,0
560,-279,0,0,0,0,0,0,0,0,0,-1,1784,1303,0,0
567,-279,0,0,0,0,0,0,0,0,0,-1,1791,1303,0,0
574,-279,0,0,0,0,0,0,0,0,0,-1,1798,1303,0,0
581,-279,0,0,0,0,0,0,0,0,0,-1,1805,1303,0,0
588,-279,0,0,0,0,0,0,0,0,0,-1,1812,1303,0,0
595,-279,0,0,0,0,0,0,0,0,0,-1,1819,1303,0,0
602,-279,19.1482,2.26978,-0.0101442,0.02313,0.00534816,0.0239684,-0.0109827,1.41528,0.0206381,0.0411093,1826,1303,19.1482,-2.26978
609,-279,19.1017,2.1134,-0.0021894,0.0239734,-0.00251425,0.0242128,-0.00242883,-1.47585,0.0170094,0.0494622,1833,1303,19.1016,-2.11345
616,-279,19.0984,2.0033,0,0,0,0,0,0,0,-1,1840,1303,19.0984,-2.00335
623,-279,20.7518,2.2854,0.00652974,0.0250445,-0.00846423,0.0283307,0.00324351,-1.20046,0.0179042,0.047561,1847,1303,20.7518,-2.28539
630,-279,18.6069,1.55029,0.00766015,0.0241658,-0.00842726,0.0277082,0.00411772,-1.17287,0.017264,0.0427719,1854,1303,18.607,-1.55027
637,-279,18.7054,1.02893,0,0,0,0,0,0,0,-1,1861,1303,18.7055,-1.02898
644,-279,15.2504,6.09802,0,0,0,0,0,0,0,-1,1868,1303,15.2503,-6.09806
651,-279,16.5128,6.07495,0,0,0,0,0,0,0,-1,1875,1303,16.5128,-6.07492
658,-279,16.8154,5.79639,0,0,0,0,0,0,0,-1,1882,1303,16.8154,-5.79633
665,-279,16.3928,5.40063,0,0,0,0,0,0,0,-1,1889,1303,16.3928,-5.40066
672,-279,15.7598,4.95349,0.00456947,0.0128926,-0.00152078,0.0131618,0.0043003,-1.39562,0.00774956,0.0411848,1896,1303,15.7597,-4.95349
679,-279,15.5095,5.00928,0.00402512,0.00970275,0.000126335,0.00970556,0.00402231,1.54856,0.00563079,0.0263857,1903,1303,15.5095,-5.00925
686,-279,15.4471,4.82166,0.00280697,0.00620008,0.00187919,0.00703525,0.00197179,1.15258,0.0041905,0.0202273,1910,1303,15.4472,-4.82169
693,-279,15.4343,4.64563,0.00105955,0.00359889,0.00201592,0.00471165,-5.32172e-05,1.06643,0.00315899,0.0158752,1917,1303,15.4343,-4.64565
700,-279,15.4556,4.49756,0.000143528,0.00196545,0.00152865,0.00283399,-0.000725009,1.05411,0.00217172,0.010833,1924,1303,15.4556,-4.49755
707,-279,15.4413,4.3479,-0.000618886,0.000763869,0.000819584,0.00114474,-0.000999759,1.13577,0.00123907,0.00852246,1931,1303,15.4413,-4.34789
714,-279,15.4297,4.16565,-0.000503027,0.000788524,-0.000248635,0.000834735,-0.000549238,-1.38703,0.000804685,0.00933006,1938,1303,15.4296,-4.16565
721,-279,15.4381,4.00745,0.000205882,0.00103928,-0.00136668,0.00205138,-0.000806217,-0.93337,0.00170124,0.011116,1945,1303,15.4381,-4.00744
728,-279,15.4546,3.85876,0.00023679,0.00134631,-0.00216721,0.00302863,-0.00144554,-0.910697,0.00263651,0.0115426,1952,1303,15.4546,-3.85874
735,-279,15.4711,3.69421,-5.44468e-05,0.00164663,-0.00329231,0.00419649,-0.00260431,-0.911804,0.00396215,0.0116925,1959,1303,15.4711,-3.6942
742,-279,15.4115,3.47632,-0.000753922,0.00181299,-0.00458447,0.00529027,-0.00423121,-0.921882,0.00550855,0.0243892,1966,1303,15.4115,-3.47626
749,-279,15.4019,3.21558,-0.00205166,0.0018396,-0.00614352,0.00633821,-0.00655028,-0.93875,0.00744151,0.0436955,1973,1303,15.4018,-3.21557
756,-279,15.468,2.97375,0,0,0,0,0,0,0,-1,1980,1303,15.468,-2.97369
763,-279,18.3646,2.89758,0,0,0,0,0,0,0,-1,1987,1303,18.3647,-2.8976
770,-279,18.0061,4.23743,0,0,0,0,0,0,0,-1,1994,1303,18.006,-4.23748
777,-279,18.7954,4.15039,0,0,0,0,0,0,0,-1,2001,1303,18.7954,-4.15034
784,-279,0,0,0,0,0,0,0,0,0,-1,2008,1303,0,0
791,-279,0,0,0,0,0,0,0,0,0,-1,2015,1303,0,0
798,-279,0,0,0,0,0,0,0,0,0,-1,2022,1303,0,0
805,-279,0,0,0,0,0,0,0,0,0,-1,2029,1303,0,0
812,-279,0,0,0,0,0,0,0,0,0,-1,2036,1303,0,0
-700,-286,0,0,0,0,0,0,0,0,0,-1,524,1310,0,0
-693,-286,0,0,0,0,0,0,0,0,0,-1,531,1310,0,0
-686,-286,0,0,0,0,0,0,0,0,0,-1,538,1310,0,0
-679,-286,0,0,0,0,0,0,0,0,0,-1,545,1310,0,0
-672,-286,0,0,0,0,0,0,0,0,0,-1,552,1310,0,0
-665,-286,0,0,0,0,0,0,0,0,0,-1,559,1310,0,0
-658,-286,-5.64221,-1.91479,0,0,0,0,0,0,0,-1,566,1310,-5.64222,1.91479
-651,-286,-10.3061,0.179199,0,0,0,0,0,0,0,-1,573,1310,-10.3061,-0.179195
-644,-286,-9.02002,-0.20752,0.170334,0.0871654,-0.0553885,0.198011,0.0594884,-0.463398,0.117318,0.0473966,580,1310,-9.02,0.207502
-637,-286,-7.52307,-0.51001,0.148073,0.0754684,-0.048376,0.172253,0.0512884,-0.463515,0.102126,0.0436524,587,1310,-7.52307,0.510043
-630,-286,-6.75592,-0.47998,0,0,0,0,0,0,0,-1,594,1310,-6.75592,0.480032
-623,-286,-7.03473,-0.086792,0,0,0,0,0,0,0,-1,601,1310,-7.03471,0.0868022
-616,-286,-7.30493,0.336792,0,0,0,0,0,0,0,-1,608,1310,-7.30492,-0.336758
-609,-286,-7.4577,0.960938,0,0,0,0,0,0,0,-1,615,1310,-7.45773,-0.96091
-602,-286,-7.70325,1.41174,0.0417472,0.02287,-0.0135826,0.0488487,0.0157685,-0.48175,0.0287871,0.0145188,622,1310,-7.70325,-1.4117
-595,-286,-7.70013,1.64246,0.026726,0.0154528,-0.00866113,0.0314231,0.0107556,-0.496931,0.0184406,0.0108001,629,1310,-7.70016,-1.6425
-588,-286,-7.66144,1.85669,0.0138208,0.00883269,-0.00420604,0.0162167,0.00643686,-0.517779,0.00942878,0.0109617,636,1310,-7.66145,-1.85666
-581,-286,-7.66376,2.026,0.00422251,0.00331452,-0.000842437,0.00472549,0.00281154,-0.538257,0.00274462,0.0129842,643,1310,-7.66377,-2.02598
-574,-286,-7.70575,2.20605,0.00154836,8.64811e-05,0.000316699,0.00161402,2.08211e-05,0.20443,0.00106914,0.013808,650,1310,-7.70573,-2.20607
-567,-286,-7.71283,2.41919,0.00301331,-0.000549811,-6.2903e-05,0.00301442,-0.000550921,-0.0176466,0.0022162,0.0127711,657,1310,-7.71284,-2.41913
-560,-286,-7.70068,2.62488,0.0049155,-0.000390214,-0.00115665,0.00515668,-0.000631402,-0.205577,0.00366642,0.0127108,664,1310,-7.70065,-2.62483
-553,-286,-7.67822,2.80908,0.00687412,-0.000146118,-0.00221342,0.00751372,-0.000785714,-0.281301,0.00529054,0.0102132,671,1310,-7.67824,-2.80907
-546,-286,-7.68292,3.00464,0.00657826,0.00304809,-0.00439856,0.00955268,7.36732e-05,-0.594591,0.00634404,0.0120858,678,1310,-7.6829,-3.0046
-539,-286,-7.7005,3.22485,0.0048499,0.00832442,-0.00769407,0.0144749,-0.0013006,-0.896432,0.0101114,0.0297392,685,1310,-7.70053,-3.22482
-532,-286,-7.58563,3.05664,0,0,0,0,0,0,0,-1,692,1310,-7.58565,-3.0566
-525,-286,-2.96338,-5.57642,0,0,0,0,0,0,0,-1,699,1310,-2.96336,5.57641
-518,-286,-4.62006,-4.80054,0,0,0,0,0,0,0,-1,706,1310,-4.62008,4.80053
-511,-286,-6.14545,-3.8634,0,0,0,0,0,0,0,-1,713,1310,-6.14543,3.86343
-504,-286,-7.48669,-2.9176,0,0,0,0,0,0,0,-1,720,1310,-7.48672,2.91765
-497,-286,-7.61926,-2.6615,0,0,0,0,0,0,0,-1,727,1310,-7.61925,2.66156
-490,-286,-8.83875,-1.95227,0,0,0,0,0,0,0,-1,734,1310,-8.83875,1.95232
-483,-286,-10.0582,-1.24304,0,0,0,0,0,0,0,-1,741,1310,-10.0583,1.24308
-476,-286,-11.5714,1.01086,0,0,0,0,0,0,0,-1,748,1310,-11.5714,-1.01091
-469,-286,0,0,0,0,0,0,0,0,0,-1,755,1310,0,0
-462,-286,0,0,0,0,0,0,0,0,0,-1,762,1310,0,0
-455,-286,0,0,0,0,0,0,0,0,0,-1,769,1310,0,0
-448,-286,0,0,0,0,0,0,0,0,0,-1,776,1310,0,0
-441,-286,0,0,0,0,0,0,0,0,0,-1,783,1310,0,0
-434,-286,0,0,0,0,0,0,0,0,0,-1,790,1310,0,0
-427,-286,0,0,0,0,0,0,0,0,0,-1,797,1310,0,0
-420,-286,0,0,0,0,0,0,0,0,0,-1,804,1310,0,0
-413,-286,0,0,0,0,0,0,0,0,0,-1,811,1310,0,0
-406,-286,0,0,0,0,0,0,0,0,0,-1,818,1310,0,0
-399,-286,0,0,0,0,0,0,0,0,0,-1,825,1310,0,0
-392,-286,0,0,0,0,0,0,0,0,0,-1,832,1310,0,0
-385,-286,0,0,0,0,0,0,0,0,0,-1,839,1310,0,0
-378,-286,0,0,0,0,0,0,0,0,0,-1,846,1310,0,0
-371,-286,0,0,0,0,0,0,0,0,0,-1,853,1310,0,0
-364,-286,0,0,0,0,0,0,0,0,0,-1,860,1310,0,0
-357,-286,0,0,0,0,0,0,0,0,0,-1,867,1310,0,0
-350,-286,0,0,0,0,0,0,0,0,0,-1,874,1310,0,0
-343,-286,0,0,0,0,0,0,0,0,0,-1,881,1310,0,0
-336,-286,0,0,0,0,0,0,0,0,0,-1,888,1310,0,0
-329,-286,0,0,0,0,0,0,0,0,0,-1,895,1310,0,0
-322,-286,0,0,0,0,0,0,0,0,0,-1,902,1310,0,0
-315,-286,0,0,0,0,0,0,0,0,0,-1,909,1310,0,0
-308,-286,0,0,0,0,0,0,0,0,0,-1,916,1310,0,0
-301,-286,0,0,0,0,0,0,0,0,0,-1,923,1310,0,0
-294,-286,0,0,0,0,0,0,0,0,0,-1,930,1310,0,0
-287,-286,0,0,0,0,0,0,0,0,0,-1,937,1310,0,0
-280,-286,0,0,0,0,0,0,0,0,0,-1,944,1310,0,0
-273,-286,0,0,0,0,0,0,0,0,0,-1,951,1310,0,0
-266,-286,0,0,0,0,0,0,0,0,0,-1,958,1310,0,0
-259,-286,0,0,0,0,0,0,0,0,0,-1,965,1310,0,0
-252,-286,0,0,0,0,0,0,0,0,0,-1,972,1310,0,0
-245,-286,0,0,0,0,0,0,0,0,0,-1,979,1310,0,0
-238,-286,0,0,0,0,0,0,0,0,0,-1,986,1310,0,0
-231,-286,0,0,0,0,0,0,0,0,0,-1,993,1310,0,0
-224,-286,0,0,0,0,0,0,0,0,0,-1,1000,1310,0,0
-217,-286,0,0,0,0,0,0,0,0,0,-1,1007,1310,0,0
-210,-286,0,0,0,0,0,0,0,0,0,-1,1014,1310,0,0
-203,-286,0,0,0,0,0,0,0,0,0,-1,1021,1310,0,0
-196,-286,0,0,0,0,0,0,0,0,0,-1,1028,1310,0,0
-189,-286,0,0,0,0,0,0,0,0,0,-1,1035,1310,0,0
-182,-286,0,0,0,0,0,0,0,0,0,-1,1042,1310,0,0
-175,-286,0,0,0,0,0,0,0,0,0,-1,1049,1310,0,0
-168,-286,0,0,0,0,0,0,0,0,0,-1,1056,1310,0,0
-161,-286,0,0,0,0,0,0,0,0,0,-1,1063,1310,0,0
-154,-286,0,0,0,0,0,0,0,0,0,-1,1070,1310,0,0
-147,-286,0,0,0,0,0,0,0,0,0,-1,1077,1310,0,0
-140,-286,0,0,0,0,0,0,0,0,0,-1,1084,1310,0,0
-133,-286,0,0,0,0,0,0,0,0,0,-1,1091,1310,0,0
-126,-286,0,0,0,0,0,0,0,0,0,-1,1098,1310,0,0
-119,-286,0,0,0,0,0,0,0,0,0,-1,1105,1310,0,0
-112,-286,0,0,0,0,0,0,0,0,0,-1,1112,1310,0,0
-105,-286,0,0,0,0,0,0,0,0,0,-1,1119,1310,0,0
-98,-286,0,0,0,0,0,0,0,0,0,-1,1126,1310,0,0
-91,-286,0,0,0,0,0,0,0,0,0,-1,1133,1310,0,0
-84,-286,0,0,0,0,0,0,0,0,0,-1,1140,1310,0,0
-77,-286,0,0,0,0,0,0,0,0,0,-1,1147,1310,0,0
-70,-286,0,0,0,0,0,0,0,0,0,-1,1154,1310,0,0
-63,-286,0,0,0,0,0,0,0,0,0,-1,1161,1310,0,0
-56,-286,0,0,0,0,0,0,0,0,0,-1,1168,1310,0,0
-49,-286,0,0,0,0,0,0,0,0,0,-1,1175,1310,0,0
-42,-286,0,0,0,0,0,0,0,0,0,-1,1182,1310,0,0
-35,-286,0,0,0,0,0,0,0,0,0,-1,1189,1310,0,0
-28,-286,0,0,0,0,0,0,0,0,0,-1,1196,1310,0,0
-21,-286,0,0,0,0,0,0,0,0,0,-1,1203,1310,0,0
-14,-286,0,0,0,0,0,0,0,0,0,-1,1210,1310,0,0
-7,-286,0,0,0,0,0,0,0,0,0,-1,1217,1310,0,0
0,-286,0,0,0,0,0,0,0,0,0,-1,1224,1310,0,0
7,-286,0,0,0,0,0,0,0,0,0,-1,1231,1310,0,0
14,-286,0,0,0,0,0,0,0,0,0,-1,1238,1310,0,0
21,-286,0,0,0,0,0,0,0,0,0,-1,1245,1310,0,0
28,-286,0,0,0,0,0,0,0,0,0,-1,1252,1310,0,0
35,-286,0,0,0,0,0,0,0,0,0,-1,1259,1310,0,0
42,-286,0,0,0,0,0,0,0,0,0,-1,1266,1310,0,0
49,-286,0,0,0,0,0,0,0,0,0,-1,1273,1310,0,0
56,-286,0,0,0,0,0,0,0,0,0,-1,1280,1310,0,0
63,-286,0,0,0,0,0,0,0,0,0,-1,1287,1310,0,0
70,-286,0,0,0,0,0,0,0,0,0,-1,1294,1310,0,0
77,-286,0,0,0,0,0,0,0,0,0,-1,1301,1310,0,0
84,-286,0,0,0,0,0,0,0,0,0,-1,1308,1310,0,0
91,-286,0,0,0,0,0,0,0,0,0,-1,1315,1310,0,0
98,-286,0,0,0,0,0,0,0,0,0,-1,1322,1310,0,0
105,-286,0,0,0,0,0,0,0,0,0,-1,1329,1310,0,0
112,-286,0,0,0,0,0,0,0,0,0,-1,1336,1310,0,0
119,-286,0,0,0,0,0,0,0,0,0,-1,1343,1310,0,0
126,-286,0,0,0,0,0,0,0,0,0,-1,1350,1310,0,0
133,-286,0,0,0,0,0,0,0,0,0,-1,1357,1310,0,0
140,-286,0,0,0,0,0,0,0,0,0,-1,1364,1310,0,0
147,-286,0,0,0,0,0,0,0,0,0,-1,1371,1310,0,0
154,-286,0,0,0,0,0,0,0,0,0,-1,1378,1310,0,0
161,-286,0,0,0,0,0,0,0,0,0,-1,1385,1310,0,0
168,-286,0,0,0,0,0,0,0,0,0,-1,1392,1310,0,0
175,-286,0,0,0,0,0,0,0,0,0,-1,1399,1310,0,0
182,-286,0,0,0,0,0,0,0,0,0,-1,1406,1310,0,0
189,-286,0,0,0,0,0,0,0,0,0,-1,1413,1310,0,0
196,-286,0,0,0,0,0,0,0,0,0,-1,1420,1310,0,0
203,-286,0,0,0,0,0,0,0,0,0,-1,1427,1310,0,0
210,-286,0,0,0,0,0,0,0,0,0,-1,1434,1310,0,0
217,-286,0,0,0,0,0,0,0,0,0,-1,1441,1310,0,0
224,-286,0,0,0,0,0,0,0,0,0,-1,1448,1310,0,0
231,-286,0,0,0,0,0,0,0,0,0,-1,1455,1310,0,0
238,-286,0,0,0,0,0,0,0,0,0,-1,1462,1310,0,0
245,-286,0,0,0,0,0,0,0,0,0,-1,1469,1310,0,0
252,-286,0,0,0,0,0,0,0,0,0,-1,1476,1310,0,0
259,-286,0,0,0,0,0,0,0,0,0,-1,1483,1310,0,0
266,-286,0,0,0,0,0,0,0,0,0,-1,1490,1310,0,0
273,-286,0,0,0,0,0,0,0,0,0,-1,1497,1310,0,0
280,-286,0,0,0,0,0,0,0,0,0,-1,1504,1310,0,0
287,-286,0,0,0,0,0,0,0,0,0,-1,1511,1310,0,0
294,-286,0,0,0,0,0,0,0,0,0,-1,1518,1310,0,0
301,-286,0,0,0,0,0,0,0,0,0,-1,1525,1310,0,0
308,-286,0,0,0,0,0,0,0,0,0,-1,1532,1310,0,0
315,-286,0,0,0,0,0,0,0,0,0,-1,1539,1310,0,0
322,-286,0,0,0,0,0,0,0,0,0,-1,1546,1310,0,0
329,-286,0,0,0,0,0,0,0,0,0,-1,1553,1310,0,0
336,-286,0,0,0,0,0,0,0,0,0,-1,1560,1310,0,0
343,-286,0,0,0,0,0,0,0,0,0,-1,1567,1310,0,0
350,-286,0,0,0,0,0,0,0,0,0,-1,1574,1310,0,0
357,-286,0,0,0,0,0,0,0,0,0,-1,1581,1310,0,0
364,-286,0,0,0,0,0,0,0,0,0,-1,1588,1310,0,0
371,-286,0,0,0,0,0,0,0,0,0,-1,1595,1310,0,0
378,-286,0,0,0,0,0,0,0,0,0,-1,1602,1310,0,0
385,-286,0,0,0,0,0,0,0,0,0,-1,1609,1310,0,0
392,-286,0,0,0,0,0,0,0,0,0,-1,1616,1310,0,0
399,-286,0,0,0,0,0,0,0,0,0,-1,1623,1310,0,0
406,-286,0,0,0,0,0,0,0,0,0,-1,1630,1310,0,0
413,-286,0,0,0,0,0,0,0,0,0,-1,1637,1310,0,0
420,-286,0,0,0,0,0,0,0,0,0,-1,1644,1310,0,0
427,-286,0,0,0,0,0,0,0,0,0,-1,1651,1310,0,0
434,-286,0,0,0,0,0,0,0,0,0,-1,1658,1310,0,0
441,-286,0,0,0,0,0,0,0,0,0,-1,1665,1310,0,0
448,-286,0,0,0,0,0,0,0,0,0,-1,1672,1310,0,0
455,-286,0,0,0,0,0,0,0,0,0,-1,1679,1310,0,0
462,-286,0,0,0,0,0,0,0,0,0,-1,1686,1310,0,0
469,-286,0,0,0,0,0,0,0,0,0,-1,1693,1310,0,0
476,-286,0,0,0,0,0,0,0,0,0,-1,1700,1310,0,0
483,-286,0,0,0,0,0,0,0,0,0,-1,1707,1310,0,0
490,-286,0,0,0,0,0,0,0,0,0,-1,1714,1310,0,0
497,-286,0,0,0,0,0,0,0,0,0,-1,1721,1310,0,0
504,-286,0,0,0,0,0,0,0,0,0,-1,1728,1310,0,0
511,-286,0,0,0,0,0,0,0,0,0,-1,1735,1310,0,0
518,-286,0,0,0,0,0,0,0,0,0,-1,1742,1310,0,0
525,-286,0,0,0,0,0,0,0,0,0,-1,1749,1310,0,0
532,-286,0,0,0,0,0,0,0,0,0,-1,1756,1310,0,0
539,-286,0,0,0,0,0,0,0,0,0,-1,1763,1310,0,0
546,-286,0,0,0,0,0,0,0,0,0,-1,1770,1310,0,0
553,-286,0,0,0,0,0,0,0,0,0,-1,1777,1310,0,0
560,-286,0,0,0,0,0,0,0,0,0,-1,1784,1310,0,0
567,-286,0,0,0,0,0,0,0,0,0,-1,1791,1310,0,0
574,-286,0,0,0,0,0,0,0,0,0,-1,1798,1310,0,0
581,-286,0,0,0,0,0,0,0,0,0,-1,1805,1310,0,0
588,-286,0,0,0,0,0,0,0,0,0,-1,1812,1310,0,0
595,-286,19.2031,2.2998,-0.0114386,0.0346812,0.0130817,0.0381333,-0.0148908,1.31279,0.0315786,0.042755,1819,1310,19.2031,-2.29986
602,-286,19.1104,2.06604,-0.00570167,0.0287466,0.00502493,0.0294646,-0.00641968,1.42887,0.022096,0.0480408,1826,1310,19.1103,-2.06609
609,-286,19.236,1.94617,0.00179852,0.0277653,-0.00245764,0.0279958,0.00156796,-1.47726,0.0181638,0.0461008,1833,1310,19.236,-1.94613
616,-286,19.6168,2.06152,0.00629844,0.0268876,-0.0066438,0.0288453,0.00434074,-1.28424,0.017959,0.0465732,1840,1310,19.6168,-2.06158
623,-286,20.2089,1.7428,0.0081874,0.0258207,-0.00848777,0.0292424,0.00476577,-1.1876,0.0181165,0.0448201,1847,1310,20.2088,-1.74282
630,-286,20.54,1.28699,0.00865721,0.0241291,-0.00862648,0.0279802,0.00480605,-1.15091,0.0172758,0.0415249,1854,1310,20.5401,-1.28701
637,-286,20.885,0.821655,0,0,0,0,0,0,0,-1,1861,1310,20.885,-0.821655
644,-286,18.5553,2.46338,0,0,0,0,0,0,0,-1,1868,1310,18.5554,-2.46338
651,-286,16.2737,5.42627,0,0,0,0,0,0,0,-1,1875,1310,16.2736,-5.42622
658,-286,16.2089,5.44617,0.00674009,0.0147396,-0.00541279,0.0174701,0.00400959,-1.10359,0.0105669,0.0467559,1882,1310,16.2089,-5.44616
665,-286,15.8535,5.34363,0.00517975,0.0129643,-0.0040733,0.014706,0.00343806,-1.16674,0.00888263,0.0460928,1889,1310,15.8536,-5.34361
672,-286,15.4606,5.18713,0.0039719,0.0115327,-0.00209421,0.012074,0.00343059,-1.31785,0.0071842,0.029704,1896,1310,15.4606,-5.18718
679,-286,15.256,5.03003,0.0031952,0.00819223,-0.000301958,0.00821041,0.00317702,-1.51066,0.0047805,0.0225568,1903,1310,15.256,-5.03003
686,-286,15.249,4.83179,0.00191339,0.00480843,0.00146248,0.00541862,0.0013032,1.17553,0.00326587,0.0207991,1910,1310,15.249,-4.83184
693,-286,15.2455,4.65784,0.00021245,0.00254268,0.00171337,0.00344955,-0.000694423,1.08399,0.00256273,0.0155889,1917,1310,15.2455,-4.65778
700,-286,15.2643,4.49292,-0.000536062,0.00145732,0.00121984,0.00203588,-0.00111461,1.12793,0.00184468,0.0108031,1924,1310,15.2643,-4.49289
707,-286,15.2677,4.35034,-0.000980086,0.000949992,0.000497351,0.00107061,-0.00110071,1.33286,0.00125365,0.00826408,1931,1310,15.2677,-4.3503
714,-286,15.2659,4.18494,-0.000674641,0.00153559,-0.000552525,0.00166601,-0.000805068,-1.33898,0.00145526,0.00816729,1938,1310,15.2659,-4.18489
721,-286,15.275,4.01111,-3.49967e-05,0.00226837,-0.001651,0.00312969,-0.000896315,-1.08994,0.00244072,0.0107747,1945,1310,15.275,-4.01117
728,-286,15.2695,3.84692,-3.41209e-05,0.00304482,-0.00245989,0.00440725,-0.00139655,-1.065,0.00349788,0.0133439,1952,1310,15.2695,-3.8469
735,-286,15.2803,3.68689,-0.000267955,0.00383792,-0.00363358,0.00595841,-0.00238844,-1.04254,0.00496381,0.0142277,1959,1310,15.2803,-3.68685
742,-286,15.2748,3.50256,-0.000879941,0.00463344,-0.00503514,0.00761713,-0.00386364,-1.03586,0.00674547,0.0262372,1966,1310,15.2748,-3.50254
749,-286,15.347,3.27466,-0.00204093,0.0053872,-0.0067436,0.00937187,-0.0060256,-1.03711,0.00895943,0.0400974,1973,1310,15.3471,-3.27471
756,-286,15.5209,3.04065,0,0,0,0,0,0,0,-1,1980,1310,15.5209,-3.04063
763,-286,15.6431,2.81226,0,0,0,0,0,0,0,-1,1987,1310,15.6431,-2.8122
770,-286,18.2069,4.38147,0,0,0,0,0,0,0,-1,1994,1310,18.2069,-4.38142
777,-286,0,0,0,0,0,0,0,0,0,-1,2001,1310,0,0
784,-286,0,0,0,0,0,0,0,0,0,-1,2008,1310,0,0
791,-286,0,0,0,0,0,0,0,0,0,-1,2015,1310,0,0
798,-286,0,0,0,0,0,0,0,0,0,-1,2022,1310,0,0
805,-286,0,0,0,0,0,0,0,0,0,-1,2029,1310,0,0
812,-286,0,0,0,0,0,0,0,0,0,-1,2036,1310,0,0
-700,-293,0,0,0,0,0,0,0,0,0,-1,524,1317,0,0
-693,-293,0,0,0,0,0,0,0,0,0,-1,531,1317,0,0
-686,-293,0,0,0,0,0,0,0,0,0,-1,538,1317,0,0
-679,-293,0,0,0,0,0,0,0,0,0,-1,545,1317,0,0
-672,-293,0,0,0,0,0,0,0,0,0,-1,552,1317,0,0
-665,-293,0,0,0,0,0,0,0,0,0,-1,559,1317,0,0
-658,-293,0,0,0,0,0,0,0,0,0,-1,566,1317,0,0
-651,-293,-9.96637,-0.481201,0.214668,0.104032,-0.0694885,0.248169,0.0705317,-0.449227,0.147661,0.0493266,573,1317,-9.96637,0.481195
-644,-293,-8.63983,-0.827759,0.192825,0.0950731,-0.0631023,0.223766,0.064132,-0.455884,0.133056,0.0454628,580,1317,-8.63981,0.827817
-637,-293,-7.22595,-1.16833,0.165686,0.08366,-0.0545348,0.192909,0.0564373,-0.462991,0.114526,0.0427378,587,1317,-7.22597,1.16828
-630,-293,-5.84027,-1.34045,0.138047,0.0713911,-0.0455632,0.161171,0.0482678,-0.46963,0.0955136,0.0436711,594,1317,-5.84025,1.34045
-623,-293,-7.00836,0.128662,0,0,0,0,0,0,0,-1,601,1317,-7.00834,-0.128635
-616,-293,-7.12378,0.628296,0,0,0,0,0,0,0,-1,608,1317,-7.1238,-0.628277
-609,-293,-7.29547,1.10034,0.0651272,0.0364377,-0.0215431,0.0766644,0.0249004,-0.491676,0.0451589,0.0401515,615,1317,-7.29544,-1.10037
-602,-293,-7.47137,1.36438,0.0458463,0.0266785,-0.0151343,0.0541761,0.0183487,-0.50314,0.0318166,0.0268435,622,1317,-7.47134,-1.36439
-595,-293,-7.52008,1.6106,0.029023,0.0184416,-0.00965936,0.0347457,0.0127189,-0.534851,0.0202989,0.0145458,629,1317,-7.5201,-1.6106
-588,-293,-7.49426,1.82239,0.0146613,0.010975,-0.00476228,0.0179246,0.00771161,-0.60076,0.0103823,0.0142409,636,1317,-7.49424,-1.82243
-581,-293,-7.48529,2.01782,0.0039181,0.00464216,-0.00103612,0.00537767,0.00318258,-0.953473,0.0031222,0.0177757,643,1317,-7.48526,-2.01786
-574,-293,-7.5094,2.22974,0.000546465,0.000719043,0.000300104,0.000945018,0.000320491,0.925386,0.000554939,0.0168314,650,1317,-7.50943,-2.22975
-567,-293,-7.50818,2.44934,0.00199602,-0.000188846,-7.29555e-05,0.00199845,-0.000191279,-0.0333419,0.00140042,0.0154582,657,1317,-7.50816,-2.44937
-560,-293,-7.4986,2.64282,0.0038177,-0.000467922,-0.00108374,0.00407617,-0.000726389,-0.234121,0.00298914,0.0153897,664,1317,-7.49862,-2.64279
-553,-293,-7.47144,2.81897,0.00583895,-0.000629978,-0.00210476,0.00646347,-0.0012545,-0.288444,0.00478231,0.0108701,671,1317,-7.47143,-2.81896
-546,-293,-7.47125,3.02051,0.00564537,0.00211585,-0.0042509,0.00848328,-0.000722057,-0.58865,0.00591092,0.0100799,678,1317,-7.47125,-3.02049
-539,-293,-7.47992,3.20898,0.00389712,0.00707856,-0.00756105,0.0132144,-0.00223873,-0.889078,0.00964287,0.022314,685,1317,-7.47993,-3.20894
-532,-293,-7.43823,3.18628,-0.00129323,0.0180791,-0.0128856,0.0245131,-0.00772725,-1.10769,0.0194368,0.0434497,692,1317,-7.43821,-3.18631
-525,-293,-7.30182,3.10168,0,0,0,0,0,0,0,-1,699,1317,-7.30179,-3.10172
-518,-293,-3.59393,-4.70056,0,0,0,0,0,0,0,-1,706,1317,-3.59396,4.70054
-511,-293,-5.01459,-4.46973,0,0,0,0,0,0,0,-1,713,1317,-5.01458,4.46972
-504,-293,-5.58795,-3.81799,0,0,0,0,0,0,0,-1,720,1317,-5.58797,3.81793
-497,-293,-6.38647,-3.06934,-0.053197,0.11154,-0.0499588,0.125506,-0.0671636,-1.29819,0.112925,0.0428352,727,1317,-6.38649,3.0693
-490,-293,-7.30231,-2.51843,-0.0689576,0.137566,-0.0586317,0.153051,-0.0844421,-1.31259,0.139011,0.0425346,734,1317,-7.30233,2.5184
-483,-293,-8.26398,-1.89001,-0.0867257,0.166783,-0.0671802,0.183486,-0.103428,-1.32712,0.167786,0.0469879,741,1317,-8.26396,1.89007
-476,-293,-9.28186,-1.15942,0,0,0,0,0,0,0,-1,748,1317,-9.28189,1.1594
-469,-293,0,0,0,0,0,0,0,0,0,-1,755,1317,0,0
-462,-293,0,0,0,0,0,0,0,0,0,-1,762,1317,0,0
-455,-293,0,0,0,0,0,0,0,0,0,-1,769,1317,0,0
-448,-293,0,0,0,0,0,0,0,0,0,-1,776,1317,0,0
-441,-293,0,0,0,0,0,0,0,0,0,-1,783,1317,0,0
-434,-293,0,0,0,0,0,0,0,0,0,-1,790,1317,0,0
-427,-293,0,0,0,0,0,0,0,0,0,-1,797,1317,0,0
-420,-293,0,0,0,0,0,0,0,0,0,-1,804,1317,0,0
-413,-293,0,0,0,0,0,0,0,0,0,-1,811,1317,0,0
-406,-293,0,0,0,0,0,0,0,0,0,-1,818,1317,0,0
-399,-293,0,0,0,0,0,0,0,0,0,-1,825,1317,0,0
-392,-293,0,0,0,0,0,0,0,0,0,-1,832,1317,0,0
-385,-293,0,0,0,0,0,0,0,0,0,-1,839,1317,0,0
-378,-293,0,0,0,0,0,0,0,0,0,-1,846,1317,0,0
-371,-293,0,0,0,0,0,0,0,0,0,-1,853,1317,0,0
-364,-293,0,0,0,0,0,0,0,0,0,-1,860,1317,0,0
-357,-293,0,0,0,0,0,0,0,0,0,-1,867,1317,0,0
-350,-293,0,0,0,0,0,0,0,0,0,-1,874,1317,0,0
-343,-293,0,0,0,0,0,0,0,0,0,-1,881,1317,0,0
-336,-293,0,0,0,0,0,0,0,0,0,-1,888,1317,0,0
-329,-293,0,0,0,0,0,0,0,0,0,-1,895,1317,0,0
-322,-293,0,0,0,0,0,0,0,0,0,-1,902,1317,0,0
-315,-293,0,0,0,0,0,0,0,0,0,-1,909,1317,0,0
-308,-293,0,0,0,0,0,0,0,0,0,-1,916,1317,0,0
-301,-293,0,0,0,0,0,0,0,0,0,-1,923,1317,0,0
-294,-293,0,0,0,0,0,0,0,0,0,-1,930,1317,0,0
-287,-293,0,0,0,0,0,0,0,0,0,-1,937,1317,0,0
-280,-293,0,0,0,0,0,0,0,0,0,-1,944,1317,0,0
-273,-293,0,0,0,0,0,0,0,0,0,-1,951,1317,0,0
-266,-293,0,0,0,0,0,0,0,0,0,-1,958,1317,0,0
-259,-293,0,0,0,0,0,0,0,0,0,-1,965,1317,0,0
-252,-293,0,0,0,0,0,0,0,0,0,-1,972,1317,0,0
-245,-293,0,0,0,0,0,0,0,0,0,-1,979,1317,0,0
-238,-293,0,0,0,0,0,0,0,0,0,-1,986,1317,0,0
-231,-293,0,0,0,0,0,0,0,0,0,-1,993,1317,0,0
-224,-293,0,0,0,0,0,0,0,0,0,-1,1000,1317,0,0
-217,-293,0,0,0,0,0,0,0,0,0,-1,1007,1317,0,0
-210,-293,0,0,0,0,0,0,0,0,0,-1,1014,1317,0,0
-203,-293,0,0,0,0,0,0,0,0,0,-1,1021,1317,0,0
-196,-293,0,0,0,0,0,0,0,0,0,-1,1028,1317,0,0
-189,-293,0,0,0,0,0,0,0,0,0,-1,1035,1317,0,0
-182,-293,0,0,0,0,0,0,0,0,0,-1,1042,1317,0,0
-175,-293,0,0,0,0,0,0,0,0,0,-1,1049,1317,0,0
-168,-293,0,0,0,0,0,0,0,0,0,-1,1056,1317,0,0
-161,-293,0,0,0,0,0,0,0,0,0,-1,1063,1317,0,0
-154,-293,0,0,0,0,0,0,0,0,0,-1,1070,1317,0,0
-147,-293,0,0,0,0,0,0,0,0,0,-1,1077,1317,0,0
-140,-293,0,0,0,0,0,0,0,0,0,-1,1084,1317,0,0
-133,-293,0,0,0,0,0,0,0,0,0,-1,1091,1317,0,0
-126,-293,0,0,0,0,0,0,0,0,0,-1,1098,1317,0,0
-119,-293,0,0,0,0,0,0,0,0,0,-1,1105,1317,0,0
-112,-293,0,0,0,0,0,0,0,0,0,-1,1112,1317,0,0
-105,-293,0,0,0,0,0,0,0,0,0,-1,1119,1317,0,0
-98,-293,0,0,0,0,0,0,0,0,0,-1,1126,1317,0,0
-91,-293,0,0,0,0,0,0,0,0,0,-1,1133,1317,0,0
-84,-293,0,0,0,0,0,0,0,0,0,-1,1140,1317,0,0
-77,-293,0,0,0,0,0,0,0,0,0,-1,1147,1317,0,0
-70,-293,0,0,0,0,0,0,0,0,0,-1,1154,1317,0,0
-63,-293,0,0,0,0,0,0,0,0,0,-1,1161,1317,0,0
-56,-293,0,0,0,0,0,0,0,0,0,-1,1168,1317,0,0
-49,-293,0,0,0,0,0,0,0,0,0,-1,1175,1317,0,0
-42,-293,0,0,0,0,0,0,0,0,0,-1,1182,1317,0,0
-35,-293,0,0,0,0,0,0,0,0,0,-1,1189,1317,0,0
-28,-293,0,0,0,0,0,0,0,0,0,-1,1196,1317,0,0
-21,-293,0,0,0,0,0,0,0,0,0,-1,1203,1317,0,0
-14,-293,0,0,0,0,0,0,0,0,0,-1,1210,1317,0,0
-7,-293,0,0,0,0,0,0,0,0,0,-1,1217,1317,0,0
0,-293,0,0,0,0,0,0,0,0,0,-1,1224,1317,0,0
7,-293,0,0,0,0,0,0,0,0,0,-1,1231,1317,0,0
14,-293,0,0,0,0,0,0,0,0,0,-1,1238,1317,0,0
21,-293,0,0,0,0,0,0,0,0,0,-1,1245,1317,0,0
28,-293,0,0,0,0,0,0,0,0,0,-1,1252,1317,0,0
35,-293,0,0,0,0,0,0,0,0,0,-1,1259,1317,0,0
42,-293,0,0,0,0,0,0,0,0,0,-1,1266,1317,0,0
49,-293,0,0,0,0,0,0,0,0,0,-1,1273,1317,0,0
56,-293,0,0,0,0,0,0,0,0,0,-1,1280,1317,0,0
63,-293,0,0,0,0,0,0,0,0,0,-1,1287,1317,0,0
70,-293,0,0,0,0,0,0,0,0,0,-1,1294,1317,0,0
77,-293,0,0,0,0,0,0,0,0,0,-1,1301,1317,0,0
84,-293,0,0,0,0,0,0,0,0,0,-1,1308,1317,0,0
91,-293,0,0,0,0,0,0,0,0,0,-1,1315,1317,0,0
98,-293,0,0,0,0,0,0,0,0,0,-1,1322,1317,0,0
105,-293,0,0,0,0,0,0,0,0,0,-1,1329,1317,0,0
112,-293,0,0,0,0,0,0,0,0,0,-1,1336,1317,0,0
119,-293,0,0,0,0,0,0,0,0,0,-1,1343,1317,0,0
126,-293,0,0,0,0,0,0,0,0,0,-1,1350,1317,0,0
133,-293,0,0,0,0,0,0,0,0,0,-1,1357,1317,0,0
140,-293,0,0,0,0,0,0,0,0,0,-1,1364,1317,0,0
147,-293,0,0,0,0,0,0,0,0,0,-1,1371,1317,0,0
154,-293,0,0,0,0,0,0,0,0,0,-1,1378,1317,0,0
161,-293,0,0,0,0,0,0,0,0,0,-1,1385,1317,0,0
168,-293,0,0,0,0,0,0,0,0,0,-1,1392,1317,0,0
175,-293,0,0,0,0,0,0,0,0,0,-1,1399,1317,0,0
182,-293,0,0,0,0,0,0,0,0,0,-1,1406,1317,0,0
189,-293,0,0,0,0,0,0,0,0,0,-1,1413,1317,0,0
196,-293,0,0,0,0,0,0,0,0,0,-1,1420,1317,0,0
203,-293,0,0,0,0,0,0,0,0,0,-1,1427,1317,0,0
210,-293,0,0,0,0,0,0,0,0,0,-1,1434,1317,0,0
217,-293,0,0,0,0,0,0,0,0,0,-1,1441,1317,0,0
224,-293,0,0,0,0,0,0,0,0,0,-1,1448,1317,0,0
231,-293,0,0,0,0,0,0,0,0,0,-1,1455,1317,0,0
238,-293,0,0,0,0,0,0,0,0,0,-1,1462,1317,0,0
245,-293,0,0,0,0,0,0,0,0,0,-1,1469,1317,0,0
252,-293,0,0,0,0,0,0,0,0,0,-1,1476,1317,0,0
259,-293,0,0,0,0,0,0,0,0,0,-1,1483,1317,0,0
266,-293,0,0,0,0,0,0,0,0,0,-1,1490,1317,0,0
273,-293,0,0,0,0,0,0,0,0,0,-1,1497,1317,0,0
280,-293,0,0,0,0,0,0,0,0,0,-1,1504,1317,0,0
287,-293,0,0,0,0,0,0,0,0,0,-1,1511,1317,0,0
294,-293,0,0,0,0,0,0,0,0,0,-1,1518,1317,0,0
301,-293,0,0,0,0,0,0,0,0,0,-1,1525,1317,0,0
308,-293,0,0,0,0,0,0,0,0,0,-1,1532,1317,0,0
315,-293,0,0,0,0,0,0,0,0,0,-1,1539,1317,0,0
322,-293,0,0,0,0,0,0,0,0,0,-1,1546,1317,0,0
329,-293,0,0,0,0,0,0,0,0,0,-1,1553,1317,0,0
336,-293,0,0,0,0,0,0,0,0,0,-1,1560,1317,0,0
343,-293,0,0,0,0,0,0,0,0,0,-1,1567,1317,0,0
350,-293,0,0,0,0,0,0,0,0,0,-1,1574,1317,0,0
357,-293,0,0,0,0,0,0,0,0,0,-1,1581,1317,0,0
364,-293,0,0,0,0,0,0,0,0,0,-1,1588,1317,0,0
371,-293,0,0,0,0,0,0,0,0,0,-1,1595,1317,0,0
378,-293,0,0,0,0,0,0,0,0,0,-1,1602,1317,0,0
385,-293,0,0,0,0,0,0,0,0,0,-1,1609,1317,0,0
392,-293,0,0,0,0,0,0,0,0,0,-1,1616,1317,0,0
399,-293,0,0,0,0,0,0,0,0,0,-1,1623,1317,0,0
406,-293,0,0,0,0,0,0,0,0,0,-1,1630,1317,0,0
413,-293,0,0,0,0,0,0,0,0,0,-1,1637,1317,0,0
420,-293,0,0,0,0,0,0,0,0,0,-1,1644,1317,0,0
427,-293,0,0,0,0,0,0,0,0,0,-1,1651,1317,0,0
434,-293,0,0,0,0,0,0,0,0,0,-1,1658,1317,0,0
441,-293,0,0,0,0,0,0,0,0,0,-1,1665,1317,0,0
448,-293,0,0,0,0,0,0,0,0,0,-1,1672,1317,0,0
455,-293,0,0,0,0,0,0,0,0,0,-1,1679,1317,0,0
462,-293,0,0,0,0,0,0,0,0,0,-1,1686,1317,0,0
469,-293,0,0,0,0,0,0,0,0,0,-1,1693,1317,0,0
476,-293,0,0,0,0,0,0,0,0,0,-1,1700,1317,0,0
483,-293,0,0,0,0,0,0,0,0,0,-1,1707,1317,0,0
490,-293,0,0,0,0,0,0,0,0,0,-1,1714,1317,0,0
497,-293,0,0,0,0,0,0,0,0,0,-1,1721,1317,0,0
504,-293,0,0,0,0,0,0,0,0,0,-1,1728,1317,0,0
511,-293,0,0,0,0,0,0,0,0,0,-1,1735,1317,0,0
518,-293,0,0,0,0,0,0,0,0,0,-1,1742,1317,0,0
525,-293,0,0,0,0,0,0,0,0,0,-1,1749,1317,0,0
532,-293,0,0,0,0,0,0,0,0,0,-1,1756,1317,0,0
539,-293,0,0,0,0,0,0,0,0,0,-1,1763,1317,0,0
546,-293,0,0,0,0,0,0,0,0,0,-1,1770,1317,0,0
553,-293,0,0,0,0,0,0,0,0,0,-1,1777,1317,0,0
560,-293,0,0,0,0,0,0,0,0,0,-1,1784,1317,0,0
567,-293,0,0,0,0,0,0,0,0,0,-1,1791,1317,0,0
574,-293,0,0,0,0,0,0,0,0,0,-1,1798,1317,0,0
581,-293,0,0,0,0,0,0,0,0,0,-1,1805,1317,0,0
588,-293,0,0,0,0,0,0,0,0,0,-1,1812,1317,0,0
595,-293,19.2672,2.2561,0,0,0,0,0,0,0,-1,1819,1317,19.2672,-2.2561
602,-293,19.1133,1.89722,0,0,0,0,0,0,0,-1,1826,1317,19.1133,-1.89718
609,-293,19.1533,1.71765,0,0,0,0,0,0,0,-1,1833,1317,19.1533,-1.71764
616,-293,19.3574,2.09448,0.00815764,0.0282474,-0.00505632,0.0294482,0.00695681,-1.33763,0.017773,0.04582,1840,1317,19.3574,-2.09448
623,-293,19.8171,1.45154,0.00945568,0.0260235,-0.00723357,0.0287372,0.00674197,-1.21189,0.017353,0.0450239,1847,1317,19.8171,-1.45148
630,-293,20.0259,0.904541,0.00957345,0.0236789,-0.00774491,0.0271011,0.00615122,-1.15473,0.016406,0.0462435,1854,1317,20.0258,-0.904519
637,-293,20.4786,0.427979,0,0,0,0,0,0,0,-1,1861,1317,20.4786,-0.428017
644,-293,18.8424,3.10864,0,0,0,0,0,0,0,-1,1868,1317,18.8424,-3.1087
651,-293,16.0848,5.37939,0,0,0,0,0,0,0,-1,1875,1317,16.0849,-5.37936
658,-293,15.6837,5.41064,0.00696797,0.0129985,-0.00554418,0.0162943,0.00367215,-1.03446,0.00986924,0.0426351,1882,1317,15.6837,-5.41069
665,-293,15.3606,5.31372,0.0051108,0.0110805,-0.00426455,0.013301,0.0028903,-1.09074,0.00807815,0.0333708,1889,1317,15.3607,-5.31366
672,-293,15.1328,5.19568,0.00378658,0.00962776,-0.0021492,0.0103333,0.00308103,-1.25359,0.00612583,0.0165722,1896,1317,15.1328,-5.19574
679,-293,15.11,5.00574,0.0027627,0.0062898,-0.000393673,0.00633321,0.00271929,-1.46098,0.00366862,0.0123469,1903,1317,15.11,-5.00569
686,-293,15.1149,4.82068,0.00141784,0.00326339,0.00121161,0.00386361,0.000817617,1.11084,0.00235108,0.0145,1910,1317,15.1148,-4.82073
693,-293,15.1111,4.65833,-0.000261498,0.00145361,0.0015138,0.00233588,-0.00114377,1.04311,0.0020479,0.011576,1917,1317,15.1111,-4.65827
700,-293,15.0969,4.48535,-0.000930606,0.000929632,0.000960482,0.00133654,-0.00133752,1.17007,0.00154387,0.0100038,1924,1317,15.0969,-4.48533
707,-293,15.1,4.34412,-0.00114168,0.0010801,0.00018395,0.00109523,-0.0011568,1.48875,0.00130037,0.0108178,1931,1317,15.1,-4.34416
714,-293,15.1084,4.17749,-0.000742397,0.00216597,-0.000876358,0.00240963,-0.000986051,-1.29962,0.00201711,0.00755179,1938,1317,15.1084,-4.17744
721,-293,15.127,4.00049,-0.000273845,0.00336274,-0.00200042,0.00424775,-0.00115886,-1.15427,0.00328694,0.00857479,1945,1317,15.127,-4.00053
728,-293,15.1128,3.81909,-0.000386451,0.00458034,-0.00290909,0.00592187,-0.00172798,-1.13871,0.00463261,0.0111386,1952,1317,15.1127,-3.81914
735,-293,15.1013,3.6355,-0.000621239,0.00595981,-0.00420661,0.00800999,-0.00267142,-1.1173,0.00641853,0.015443,1959,1317,15.1013,-3.63554
742,-293,15.0842,3.46167,-0.00118896,0.00752088,-0.00582363,0.0104378,-0.00410591,-1.10644,0.00865803,0.0270308,1966,1317,15.0843,-3.46162
749,-293,15.2261,3.24243,-0.00230253,0.00922985,-0.0078124,0.0131736,-0.00624626,-1.10331,0.0114474,0.0381562,1973,1317,15.226,-3.24243
756,-293,15.5011,2.98303,0,0,0,0,0,0,0,-1,1980,1317,15.5011,-2.98302
763,-293,18.2903,4.40906,0,0,0,0,0,0,0,-1,1987,1317,18.2902,-4.40906
770,-293,19.5178,4.65686,0,0,0,0,0,0,0,-1,1994,1317,19.5179,-4.6569
777,-293,0,0,0,0,0,0,0,0,0,-1,2001,1317,0,0
784,-293,0,0,0,0,0,0,0,0,0,-1,2008,1317,0,0
791,-293,0,0,0,0,0,0,0,0,0,-1,2015,1317,0,0
798,-293,0,0,0,0,0,0,0,0,0,-1,2022,1317,0,0
805,-293,0,0,0,0,0,0,0,0,0,-1,2029,1317,0,0
812,-293,0,0,0,0,0,0,0,0,0,-1,2036,1317,0,0
-700,-300,0,0,0,0,0,0,0,0,0,-1,524,1324,0,0
-693,-300,0,0,0,0,0,0,0,0,0,-1,531,1324,0,0
-686,-300,0,0,0,0,0,0,0,0,0,-1,538,1324,0,0
-679,-300,0,0,0,0,0,0,0,0,0,-1,545,1324,0,0
-672,-300,0,0,0,0,0,0,0,0,0,-1,552,1324,0,0
-665,-300,0,0,0,0,0,0,0,0,0,-1,559,1324,0,0
-658,-300,0,0,0,0,0,0,0,0,0,-1,566,1324,0,0
-651,-300,-9.58734,-0.917725,0.241505,0.111957,-0.0802864,0.279889,0.0735731,-0.445966,0.167542,0.0470944,573,1324,-9.58737,0.917729
-644,-300,-8.27441,-1.35266,0.21151,0.104517,-0.0704862,0.246502,0.069525,-0.46079,0.146756,0.0469803,580,1324,-8.27443,1.35271
-637,-300,-6.85394,-1.72888,0.179003,0.0924447,-0.0598056,0.209546,0.0619011,-0.472183,0.124312,0.0446125,587,1324,-6.85392,1.72892
-630,-300,-5.383,-2.1908,0.147926,0.0789376,-0.0493945,0.173679,0.0531851,-0.480591,0.102753,0.0469135,594,1324,-5.38299,2.1908
-623,-300,-4.25909,-2.71594,0,0,0,0,0,0,0,-1,601,1324,-4.25908,2.71597
-616,-300,-6.98419,0.804443,0,0,0,0,0,0,0,-1,608,1324,-6.98419,-0.804489
-609,-300,-6.94318,1.02258,0.0682639,0.0407075,-0.0226107,0.0809636,0.0280077,-0.51176,0.0474784,0.0433339,615,1324,-6.94317,-1.02264
-602,-300,-7.18768,1.35449,0.0473574,0.0299465,-0.0156315,0.0565441,0.0207599,-0.531329,0.0330277,0.0333674,622,1324,-7.1877,-1.35448
-595,-300,-7.3125,1.59216,0.0290726,0.0209191,-0.00968114,0.0355003,0.0144914,-0.586116,0.020611,0.0184067,629,1324,-7.31251,-1.59215
-588,-300,-7.28156,1.82507,0.0137328,0.0126824,-0.00449023,0.0177285,0.00868678,-0.727178,0.0102362,0.0196317,636,1324,-7.28155,-1.82507
-581,-300,-7.28387,2.03735,0.00257813,0.00570026,-0.000655121,0.00583215,0.00244624,-1.37213,0.00338173,0.020276,643,1324,-7.28387,-2.03731
-574,-300,-7.29419,2.24854,-0.00109253,0.0011997,0.000709993,0.0014018,-0.00129462,1.29349,0.00155719,0.0164241,650,1324,-7.29422,-2.24849
-567,-300,-7.27893,2.44324,0.000454951,0.000123853,0.000217465,0.00056271,1.60931e-05,0.460062,0.000369892,0.0158504,657,1324,-7.27896,-2.44327
-560,-300,-7.28308,2.64734,0.00216821,-0.000460836,-0.000794241,0.00238952,-0.000682148,-0.271753,0.00186251,0.0145072,664,1324,-7.28308,-2.64736
-553,-300,-7.26752,2.83215,0.00400292,-0.000948491,-0.00177269,0.00457214,-0.00151771,-0.310703,0.00366042,0.0104607,671,1324,-7.26753,-2.83221
-546,-300,-7.25995,3.03479,0.00374319,0.00117717,-0.00375289,0.00642633,-0.00150597,-0.620691,0.00486454,0.00915637,678,1324,-7.25993,-3.03483
-539,-300,-7.23981,3.24084,0.00183718,0.00541245,-0.00676744,0.0106244,-0.00337475,-0.914525,0.00843593,0.0140214,685,1324,-7.23983,-3.24081
-532,-300,-7.40784,3.29419,-0.00354166,0.0159185,-0.0118319,0.0215073,-0.0091305,-1.12951,0.0181635,0.0312652,692,1324,-7.40782,-3.29419
-525,-300,-6.82605,3.42017,-0.0107025,0.0303774,-0.0179615,0.0371231,-0.0174482,-1.21153,0.0321821,0.0481579,699,1324,-6.82604,-3.4202
-518,-300,-6.4624,3.29138,0,0,0,0,0,0,0,-1,706,1324,-6.4624,-3.2914
-511,-300,-5.34784,-5.34741,0,0,0,0,0,0,0,-1,713,1324,-5.34782,5.34747
-504,-300,-3.64111,-4.49146,0,0,0,0,0,0,0,-1,720,1324,-3.6411,4.49151
-497,-300,-4.54932,-3.87903,-0.0564779,0.109845,-0.0486183,0.123014,-0.0696469,-1.30628,0.112646,0.0434464,727,1324,-4.5493,3.87906
-490,-300,-5.51294,-3.18274,-0.0719103,0.136162,-0.0572244,0.150862,-0.0866098,-1.31936,0.138767,0.0422741,734,1324,-5.51292,3.18279
-483,-300,-6.21375,-2.54504,-0.0888335,0.16591,-0.0656783,0.181846,-0.10477,-1.33275,0.16746,0.043079,741,1324,-6.21372,2.54501
-476,-300,-6.96985,-1.80688,-0.105349,0.19834,-0.0737452,0.215301,-0.122309,-1.34474,0.197368,0.048514,748,1324,-6.96985,1.80688
-469,-300,0,0,0,0,0,0,0,0,0,-1,755,1324,0,0
-462,-300,0,0,0,0,0,0,0,0,0,-1,762,1324,0,0
-455,-300,0,0,0,0,0,0,0,0,0,-1,769,1324,0,0
-448,-300,0,0,0,0,0,0,0,0,0,-1,776,1324,0,0
-441,-300,0,0,0,0,0,0,0,0,0,-1,783,1324,0,0
-434,-300,0,0,0,0,0,0,0,0,0,-1,790,1324,0,0
-427,-300,0,0,0,0,0,0,0,0,0,-1,797,1324,0,0
-420,-300,0,0,0,0,0,0,0,0,0,-1,804,1324,0,0
-413,-300,0,0,0,0,0,0,0,0,0,-1,811,1324,0,0
-406,-300,0,0,0,0,0,0,0,0,0,-1,818,1324,0,0
-399,-300,0,0,0,0,0,0,0,0,0,-1,825,1324,0,0
-392,-300,0,0,0,0,0,0,0,0,0,-1,832,1324,0,0
-385,-300,0,0,0,0,0,0,0,0,0,-1,839,1324,0,0
-378,-300,0,0,0,0,0,0,0,0,0,-1,846,1324,0,0
-371,-300,0,0,0,0,0,0,0,0,0,-1,853,1324,0,0
-364,-300,0,0,0,0,0,0,0,0,0,-1,860,1324,0,0
-357,-300,0,0,0,0,0,0,0,0,0,-1,867,1324,0,0
-350,-300,0,0,0,0,0,0,0,0,0,-1,874,1324,0,0
-343,-300,0,0,0,0,0,0,0,0,0,-1,881,1324,0,0
-336,-300,0,0,0,0,0,0,0,0,0,-1,888,1324,0,0
-329,-300,0,0,0,0,0,0,0,0,0,-1,895,1324,0,0
-322,-300,0,0,0,0,0,0,0,0,0,-1,902,1324,0,0
-315,-300,0,0,0,0,0,0,0,0,0,-1,909,1324,0,0
-308,-300,0,0,0,0,0,0,0,0,0,-1,916,1324,0,0
-301,-300,0,0,0,0,0,0,0,0,0,-1,923,1324,0,0
-294,-300,0,0,0,0,0,0,0,0,0,-1,930,1324,0,0
-287,-300,0,0,0,0,0,0,0,0,0,-1,937,1324,0,0
-280,-300,0,0,0,0,0,0,0,0,0,-1,944,1324,0,0
-273,-300,0,0,0,0,0,0,0,0,0,-1,951,1324,0,0
-266,-300,0,0,0,0,0,0,0,0,0,-1,958,1324,0,0
-259,-300,0,0,0,0,0,0,0,0,0,-1,965,1324,0,0
-252,-300,0,0,0,0,0,0,0,0,0,-1,972,1324,0,0
-245,-300,0,0,0,0,0,0,0,0,0,-1,979,1324,0,0
-238,-300,0,0,0,0,0,0,0,0,0,-1,986,1324,0,0
-231,-300,0,0,0,0,0,0,0,0,0,-1,993,1324,0,0
-224,-300,0,0,0,0,0,0,0,0,0,-1,1000,1324,0,0
-217,-300,0,0,0,0,0,0,0,0,0,-1,1007,1324,0,0
-210,-300,0,0,0,0,0,0,0,0,0,-1,1014,1324,0,0
-203,-300,0,0,0,0,0,0,0,0,0,-1,1021,1324,0,0
-196,-300,0,0,0,0,0,0,0,0,0,-1,1028,1324,0,0
-189,-300,0,0,0,0,0,0,0,0,0,-1,1035,1324,0,0
-182,-300,0,0,0,0,0,0,0,0,0,-1,1042,1324,0,0
-175,-300,0,0,0,0,0,0,0,0,0,-1,1049,1324,0,0
-168,-300,0,0,0,0,0,0,0,0,0,-1,1056,1324,0,0
-161,-300,0,0,0,0,0,0,0,0,0,-1,1063,1324,0,0
-154,-300,0,0,0,0,0,0,0,0,0,-1,1070,1324,0,0
-147,-300,0,0,0,0,0,0,0,0,0,-1,1077,1324,0,0
-140,-300,0,0,0,0,0,0,0,0,0,-1,1084,1324,0,0
-133,-300,0,0,0,0,0,0,0,0,0,-1,1091,1324,0,0
-126,-300,0,0,0,0,0,0,0,0,0,-1,1098,1324,0,0
-119,-300,0,0,0,0,0,0,0,0,0,-1,1105,1324,0,0
-112,-300,0,0,0,0,0,0,0,0,0,-1,1112,1324,0,0
-105,-300,0,0,0,0,0,0,0,0,0,-1,1119,1324,0,0
-98,-300,0,0,0,0,0,0,0,0,0,-1,1126,1324,0,0
-91,-300,0,0,0,0,0,0,0,0,0,-1,1133,1324,0,0
-84,-300,0,0,0,0,0,0,0,0,0,-1,1140,1324,0,0
-77,-300,0,0,0,0,0,0,0,0,0,-1,1147,1324,0,0
-70,-300,0,0,0,0,0,0,0,0,0,-1,1154,1324,0,0
-63,-300,0,0,0,0,0,0,0,0,0,-1,1161,1324,0,0
-56,-300,0,0,0,0,0,0,0,0,0,-1,1168,1324,0,0
-49,-300,0,0,0,0,0,0,0,0,0,-1,1175,1324,0,0
-42,-300,0,0,0,0,0,0,0,0,0,-1,1182,1324,0,0
-35,-300,0,0,0,0,0,0,0,0,0,-1,1189,1324,0,0
-28,-300,0,0,0,0,0,0,0,0,0,-1,1196,1324,0,0
-21,-300,0,0,0,0,0,0,0,0,0,-1,1203,1324,0,0
-14,-300,0,0,0,0,0,0,0,0,0,-1,1210,1324,0,0
-7,-300,0,0,0,0,0,0,0,0,0,-1,1217,1324,0,0
0,-300,0,0,0,0,0,0,0,0,0,-1,1224,1324,0,0
7,-300,0,0,0,0,0,0,0,0,0,-1,1231,1324,0,0
14,-300,0,0,0,0,0,0,0,0,0,-1,1238,1324,0,0
21,-300,0,0,0,0,0,0,0,0,0,-1,1245,1324,0,0
28,-300,0,0,0,0,0,0,0,0,0,-1,1252,1324,0,0
35,-300,0,0,0,0,0,0,0,0,0,-1,1259,1324,0,0
42,-300,0,0,0,0,0,0,0,0,0,-1,1266,1324,0,0
49,-300,0,0,0,0,0,0,0,0,0,-1,1273,1324,0,0
56,-300,0,0,0,0,0,0,0,0,0,-1,1280,1324,0,0
63,-300,0,0,0,0,0,0,0,0,0,-1,1287,1324,0,0
70,-300,0,0,0,0,0,0,0,0,0,-1,1294,1324,0,0
77,-300,0,0,0,0,0,0,0,0,0,-1,1301,1324,0,0
84,-300,0,0,0,0,0,0,0,0,0,-1,1308,1324,0,0
91,-300,0,0,0,0,0,0,0,0,0,-1,1315,1324,0,0
98,-300,0,0,0,0,0,0,0,0,0,-1,1322,1324,0,0
105,-300,0,0,0,0,0,0,0,0,0,-1,1329,1324,0,0
112,-300,0,0,0,0,0,0,0,0,0,-1,1336,1324,0,0
119,-300,0,0,0,0,0,0,0,0,0,-1,1343,1324,0,0
126,-300,0,0,0,0,0,0,0,0,0,-1,1350,1324,0,0
133,-300,0,0,0,0,0,0,0,0,0,-1,1357,1324,0,0
140,-300,0,0,0,0,0,0,0,0,0,-1,1364,1324,0,0
147,-300,0,0,0,0,0,0,0,0,0,-1,1371,1324,0,0
154,-300,0,0,0,0,0,0,0,0,0,-1,1378,1324,0,0
161,-300,0,0,0,0,0,0,0,0,0,-1,1385,1324,0,0
168,-300,0,0,0,0,0,0,0,0,0,-1,1392,1324,0,0
175,-300,0,0,0,0,0,0,0,0,0,-1,1399,1324,0,0
182,-300,0,0,0,0,0,0,0,0,0,-1,1406,1324,0,0
189,-300,0,0,0,0,0,0,0,0,0,-1,1413,1324,0,0
196,-300,0,0,0,0,0,0,0,0,0,-1,1420,1324,0,0
203,-300,0,0,0,0,0,0,0,0,0,-1,1427,1324,0,0
210,-300,0,0,0,0,0,0,0,0,0,-1,1434,1324,0,0
217,-300,0,0,0,0,0,0,0,0,0,-1,1441,1324,0,0
224,-300,0,0,0,0,0,0,0,0,0,-1,1448,1324,0,0
231,-300,0,0,0,0,0,0,0,0,0,-1,1455,1324,0,0
238,-300,0,0,0,0,0,0,0,0,0,-1,1462,1324,0,0
245,-300,0,0,0,0,0,0,0,0,0,-1,1469,1324,0,0
252,-300,0,0,0,0,0,0,0,0,0,-1,1476,1324,0,0
259,-300,0,0,0,0,0,0,0,0,0,-1,1483,1324,0,0
266,-300,0,0,0,0,0,0,0,0,0,-1,1490,1324,0,0
273,-300,0,0,0,0,0,0,0,0,0,-1,1497,1324,0,0
280,-300,0,0,0,0,0,0,0,0,0,-1,1504,1324,0,0
287,-300,0,0,0,0,0,0,0,0,0,-1,1511,1324,0,0
294,-300,0,0,0,0,0,0,0,0,0,-1,1518,1324,0,0
301,-300,0,0,0,0,0,0,0,0,0,-1,1525,1324,0,0
308,-300,0,0,0,0,0,0,0,0,0,-1,1532,1324,0,0
315,-300,0,0,0,0,0,0,0,0,0,-1,1539,1324,0,0
322,-300,0,0,0,0,0,0,0,0,0,-1,1546,1324,0,0
329,-300,0,0,0,0,0,0,0,0,0,-1,1553,1324,0,0
336,-300,0,0,0,0,0,0,0,0,0,-1,1560,1324,0,0
343,-300,0,0,0,0,0,0,0,0,0,-1,1567,1324,0,0
350,-300,0,0,0,0,0,0,0,0,0,-1,1574,1324,0,0
357,-300,0,0,0,0,0,0,0,0,0,-1,1581,1324,0,0
364,-300,0,0,0,0,0,0,0,0,0,-1,1588,1324,0,0
371,-300,0,0,0,0,0,0,0,0,0,-1,1595,1324,0,0
378,-300,0,0,0,0,0,0,0,0,0,-1,1602,1324,0,0
385,-300,0,0,0,0,0,0,0,0,0,-1,1609,1324,0,0
392,-300,0,0,0,0,0,0,0,0,0,-1,1616,1324,0,0
399,-300,0,0,0,0,0,0,0,0,0,-1,1623,1324,0,0
406,-300,0,0,0,0,0,0,0,0,0,-1,1630,1324,0,0
413,-300,0,0,0,0,0,0,0,0,0,-1,1637,1324,0,0
420,-300,0,0,0,0,0,0,0,0,0,-1,1644,1324,0,0
427,-300,0,0,0,0,0,0,0,0,0,-1,1651,1324,0,0
434,-300,0,0,0,0,0,0,0,0,0,-1,1658,1324,0,0
441,-300,0,0,0,0,0,0,0,0,0,-1,1665,1324,0,0
448,-300,0,0,0,0,0,0,0,0,0,-1,1672,1324,0,0
455,-300,0,0,0,0,0,0,0,0,0,-1,1679,1324,0,0
462,-300,0,0,0,0,0,0,0,0,0,-1,1686,1324,0,0
469,-300,0,0,0,0,0,0,0,0,0,-1,1693,1324,0,0
476,-300,0,0,0,0,0,0,0,0,0,-1,1700,1324,0,0
483,-300,0,0,0,0,0,0,0,0,0,-1,1707,1324,0,0
490,-300,0,0,0,0,0,0,0,0,0,-1,1714,1324,0,0
497,-300,0,0,0,0,0,0,0,0,0,-1,1721,1324,0,0
504,-300,0,0,0,0,0,0,0,0,0,-1,1728,1324,0,0
511,-300,0,0,0,0,0,0,0,0,0,-1,1735,1324,0,0
518,-300,0,0,0,0,0,0,0,0,0,-1,1742,1324,0,0
525,-300,0,0,0,0,0,0,0,0,0,-1,1749,1324,0,0
532,-300,0,0,0,0,0,0,0,0,0,-1,1756,1324,0,0
539,-300,0,0,0,0,0,0,0,0,0,-1,1763,1324,0,0
546,-300,0,0,0,0,0,0,0,0,0,-1,1770,1324,0,0
553,-300,0,0,0,0,0,0,0,0,0,-1,1777,1324,0,0
560,-300,0,0,0,0,0,0,0,0,0,-1,1784,1324,0,0
567,-300,0,0,0,0,0,0,0,0,0,-1,1791,1324,0,0
574,-300,0,0,0,0,0,0,0,0,0,-1,1798,1324,0,0
581,-300,0,0,0,0,0,0,0,0,0,-1,1805,1324,0,0
588,-300,19.2506,2.19556,-0.013771,0.0566427,0.0228682,0.0634177,-0.020546,1.28277,0.050539,0.0421629,1812,1324,19.2506,-2.19553
595,-300,19.196,2.12964,-0.00547545,0.0443212,0.0167494,0.0494307,-0.0105849,1.27471,0.0369904,0.0429013,1819,1324,19.196,-2.12964
602,-300,19.1785,1.94922,0,0,0,0,0,0,0,-1,1826,1324,19.1785,-1.94919
609,-300,19.199,3.4856,0.00629791,0.0324459,0.00266722,0.0327152,0.00602861,1.47017,0.0201042,0.0475263,1833,1324,19.1989,-3.48558
616,-300,19.3302,2.32019,0.00899217,0.0290854,-0.00189036,0.0292617,0.00881588,-1.4778,0.0173333,0.0458497,1840,1324,19.3302,-2.32019
623,-300,19.5205,1.63721,0.00988714,0.0262152,-0.00464876,0.027446,0.00865637,-1.31198,0.016202,0.0453449,1847,1324,19.5205,-1.63719
630,-300,19.5087,0.547363,0,0,0,0,0,0,0,-1,1854,1324,19.5086,-0.547399
637,-300,13.6915,8.38672,0,0,0,0,0,0,0,-1,1861,1324,13.6916,-8.38668
644,-300,15.0834,7.72913,0,0,0,0,0,0,0,-1,1868,1324,15.0834,-7.72909
651,-300,16.1193,6.13147,0,0,0,0,0,0,0,-1,1875,1324,16.1192,-6.1315
658,-300,15.5203,5.88098,0.00635859,0.0121622,-0.00510974,0.0151366,0.00338418,-1.04364,0.0091735,0.0423658,1882,1324,15.5203,-5.88102
665,-300,15.0018,5.36389,0.00417995,0.0101683,-0.00397235,0.0121485,0.00219972,-1.10835,0.00747445,0.0278625,1889,1324,15.0018,-5.36389
672,-300,14.9152,5.22278,0.00279444,0.00875201,-0.00185294,0.0092813,0.00226516,-1.29256,0.00558768,0.0109222,1896,1324,14.9151,-5.22283
679,-300,14.9309,5.02356,0.00157454,0.00549312,-0.000294885,0.00551518,0.00155247,-1.4961,0.00328398,0.0115145,1903,1324,14.9309,-5.02357
686,-300,14.9519,4.84387,0.000338396,0.00283412,0.00103049,0.00320461,-3.20959e-05,1.22566,0.00214719,0.0119929,1910,1324,14.9519,-4.84387
693,-300,14.937,4.67883,-0.0010841,0.0013556,0.00131556,0.00192983,-0.00165833,1.15923,0.0020736,0.0104349,1917,1324,14.937,-4.67884
700,-300,14.933,4.50684,-0.00153571,0.00118945,0.000710475,0.00136356,-0.00170981,1.33048,0.00177816,0.0111391,1924,1324,14.933,-4.50685
707,-300,14.9365,4.32617,-0.00148643,0.00183618,-9.04657e-05,0.00183864,-0.00148889,-1.5436,0.00192469,0.00874153,1931,1324,14.9365,-4.32613
714,-300,14.936,4.15869,-0.00102017,0.00329539,-0.00113343,0.00357496,-0.00129974,-1.32896,0.0029148,0.0102839,1938,1324,14.936,-4.15873
721,-300,14.9598,3.99744,-0.0006741,0.00489778,-0.00224873,0.0056921,-0.00146842,-1.23125,0.00436728,0.0107591,1945,1324,14.9599,-3.99742
728,-300,14.9669,3.82117,-0.00084283,0.00661549,-0.00324393,0.00782897,-0.00205631,-1.21283,0.00602292,0.00972655,1952,1324,14.967,-3.82121
735,-300,14.8916,3.68921,-0.00106762,0.00869387,-0.00468385,0.0105777,-0.0029515,-1.18839,0.00821436,0.0158217,1959,1324,14.8915,-3.68926
742,-300,14.9457,3.47705,-0.00151178,0.0111571,-0.00655041,0.0139349,-0.00428958,-1.16972,0.0110022,0.0286706,1966,1324,14.9457,-3.47701
749,-300,15.157,3.09155,-0.00239877,0.013992,-0.00887591,0.0178774,-0.00628421,-1.15818,0.0144751,0.0431672,1973,1324,15.157,-3.0915
756,-300,15.4122,2.86536,0,0,0,0,0,0,0,-1,1980,1324,15.4122,-2.86538
763,-300,18.2333,4.15454,0,0,0,0,0,0,0,-1,1987,1324,18.2332,-4.15457
770,-300,19.4889,4.43396,0,0,0,0,0,0,0,-1,1994,1324,19.4889,-4.43394
777,-300,0,0,0,0,0,0,0,0,0,-1,2001,1324,0,0
784,-300,0,0,0,0,0,0,0,0,0,-1,2008,1324,0,0
791,-300,0,0,0,0,0,0,0,0,0,-1,2015,1324,0,0
798,-300,0,0,0,0,0,0,0,0,0,-1,2022,1324,0,0
805,-300,0,0,0,0,0,0,0,0,0,-1,2029,1324,0,0
812,-300,0,0,0,0,0,0,0,0,0,-1,2036,1324,0,0
-700,-307,0,0,0,0,0,0,0,0,0,-1,524,1331,0,0
-693,-307,0,0,0,0,0,0,0,0,0,-1,531,1331,0,0
-686,-307,0,0,0,0,0,0,0,0,0,-1,538,1331,0,0
-679,-307,0,0,0,0,0,0,0,0,0,-1,545,1331,0,0
-672,-307,0,0,0,0,0,0,0,0,0,-1,552,1331,0,0
-665,-307,0,0,0,0,0,0,0,0,0,-1,559,1331,0,0
-658,-307,0,0,0,0,0,0,0,0,0,-1,566,1331,0,0
-651,-307,-9.02759,-1.49756,0.254607,0.124923,-0.087302,0.298513,0.0810169,-0.465982,0.178249,0.0465272,573,1331,-9.02759,1.49752
-644,-307,-7.78955,-1.93494,0.22229,0.11627,-0.0757988,0.261776,0.0767837,-0.480251,0.155381,0.0451924,580,1331,-7.78956,1.93491
-637,-307,-6.59766,-2.62012,0.187255,0.10238,-0.0640302,0.221634,0.0680011,-0.492748,0.131106,0.0469306,587,1331,-6.59768,2.62012
-630,-307,-5.24738,-3.33472,0.154702,0.0870571,-0.0527856,0.183571,0.0581876,-0.500476,0.108326,0.0482711,594,1331,-5.24736,3.33472
-623,-307,-4.22009,-3.78857,0,0,0,0,0,0,0,-1,601,1331,-4.2201,3.78862
-616,-307,-6.55078,1.66541,0,0,0,0,0,0,0,-1,608,1331,-6.55077,-1.66541
-609,-307,-7.1261,1.00513,0,0,0,0,0,0,0,-1,615,1331,-7.12608,-1.00513
-602,-307,-7.03253,1.37439,0.0493981,0.0334394,-0.016773,0.059993,0.0228445,-0.563377,0.0349636,0.0359756,622,1331,-7.03256,-1.37439
-595,-307,-7.11322,1.60901,0.0297727,0.0235229,-0.0103003,0.0374116,0.0158839,-0.63812,0.0216814,0.0178523,629,1331,-7.11325,-1.60896
-588,-307,-7.0824,1.83948,0.0133198,0.0144465,-0.00472198,0.0186386,0.0091277,-0.844766,0.0107618,0.0177354,636,1331,-7.08241,-1.83947
-581,-307,-7.0705,2.0321,0.00148704,0.00679742,-0.000616394,0.00686802,0.00141643,-1.45674,0.00418717,0.016114,643,1331,-7.0705,-2.03207
-574,-307,-7.07825,2.22729,-0.00257905,0.00181415,0.000859083,0.00197617,-0.00274106,1.38439,0.0027354,0.0140764,650,1331,-7.07825,-2.22727
-567,-307,-7.06982,2.44189,-0.000994467,0.000671752,0.000323497,0.000732355,-0.00105507,1.38561,0.00103756,0.0135187,657,1331,-7.06985,-2.44191
-560,-307,-7.06293,2.64685,0.000517579,-0.000146308,-0.000609961,0.000880069,-0.000508799,-0.536207,0.000811357,0.01354,664,1331,-7.06293,-2.6468
-553,-307,-7.06244,2.83752,0.00204522,-0.000896927,-0.0015097,0.00268205,-0.00153375,-0.399178,0.00246391,0.0109732,671,1331,-7.06243,-2.83747
-546,-307,-7.06097,3.03809,0.00172658,0.000549378,-0.00328698,0.00447724,-0.00220128,-0.696802,0.00392977,0.0106429,678,1331,-7.06099,-3.03808
-539,-307,-7.03296,3.25647,-0.000167037,0.00387376,-0.00598186,0.00816721,-0.00446048,-0.94826,0.00739456,0.0124053,685,1331,-7.03294,-3.25649
-532,-307,-7.03278,3.41187,-0.0053497,0.0133291,-0.0106746,0.0181732,-0.0101938,-1.14479,0.0165922,0.027388,692,1331,-7.03275,-3.41188
-525,-307,-6.96393,3.36768,-0.0123836,0.027008,-0.0165604,0.0330449,-0.0184205,-1.22123,0.0301108,0.0469996,699,1331,-6.96393,-3.36774
-518,-307,-6.64423,3.30591,0,0,0,0,0,0,0,-1,706,1331,-6.64424,-3.30595
-511,-307,-7.40399,3.49402,0,0,0,0,0,0,0,-1,713,1331,-7.40399,-3.49404
-504,-307,-6.11548,-4.10876,0,0,0,0,0,0,0,-1,720,1331,-6.11548,4.10882
-497,-307,-2.8147,-4.81287,0,0,0,0,0,0,0,-1,727,1331,-2.81467,4.8129
-490,-307,-3.79028,-4.03992,0,0,0,0,0,0,0,-1,734,1331,-3.7903,4.0399
-483,-307,-4.37665,-3.35156,-0.0876703,0.162218,-0.0633218,0.177347,-0.1028,-1.33626,0.163641,0.0460999,741,1331,-4.37663,3.3516
-476,-307,-4.91943,-2.64807,-0.101952,0.195486,-0.0709513,0.211544,-0.118009,-1.34822,0.192805,0.0455211,748,1331,-4.91946,2.64812
-469,-307,-5.58112,-1.94263,0,0,0,0,0,0,0,-1,755,1331,-5.58111,1.94258
-462,-307,0,0,0,0,0,0,0,0,0,-1,762,1331,0,0
-455,-307,0,0,0,0,0,0,0,0,0,-1,769,1331,0,0
-448,-307,0,0,0,0,0,0,0,0,0,-1,776,1331,0,0
-441,-307,0,0,0,0,0,0,0,0,0,-1,783,1331,0,0
-434,-307,0,0,0,0,0,0,0,0,0,-1,790,1331,0,0
-427,-307,0,0,0,0,0,0,0,0,0,-1,797,1331,0,0
-420,-307,0,0,0,0,0,0,0,0,0,-1,804,1331,0,0
-413,-307,0,0,0,0,0,0,0,0,0,-1,811,1331,0,0
-406,-307,0,0,0,0,0,0,0,0,0,-1,818,1331,0,0
-399,-307,0,0,0,0,0,0,0,0,0,-1,825,1331,0,0
-392,-307,0,0,0,0,0,0,0,0,0,-1,832,1331,0,0
-385,-307,0,0,0,0,0,0,0,0,0,-1,839,1331,0,0
-378,-307,0,0,0,0,0,0,0,0,0,-1,846,1331,0,0
-371,-307,0,0,0,0,0,0,0,0,0,-1,853,1331,0,0
-364,-307,0,0,0,0,0,0,0,0,0,-1,860,1331,0,0
-357,-307,0,0,0,0,0,0,0,0,0,-1,867,1331,0,0
-350,-307,0,0,0,0,0,0,0,0,0,-1,874,1331,0,0
-343,-307,0,0,0,0,0,0,0,0,0,-1,881,1331,0,0
-336,-307,0,0,0,0,0,0,0,0,0,-1,888,1331,0,0
-329,-307,0,0,0,0,0,0,0,0,0,-1,895,1331,0,0
-322,-307,0,0,0,0,0,0,0,0,0,-1,902,1331,0,0
-315,-307,0,0,0,0,0,0,0,0,0,-1,909,1331,0,0
-308,-307,0,0,0,0,0,0,0,0,0,-1,916,1331,0,0
-301,-307,0,0,0,0,0,0,0,0,0,-1,923,1331,0,0
-294,-307,0,0,0,0,0,0,0,0,0,-1,930,1331,0,0
-287,-307,0,0,0,0,0,0,0,0,0,-1,937,1331,0,0
-280,-307,0,0,0,0,0,0,0,0,0,-1,944,1331,0,0
-273,-307,0,0,0,0,0,0,0,0,0,-1,951,1331,0,0
-266,-307,0,0,0,0,0,0,0,0,0,-1,958,1331,0,0
-259,-307,0,0,0,0,0,0,0,0,0,-1,965,1331,0,0
-252,-307,0,0,0,0,0,0,0,0,0,-1,972,1331,0,0
-245,-307,0,0,0,0,0,0,0,0,0,-1,979,1331,0,0
-238,-307,0,0,0,0,0,0,0,0,0,-1,986,1331,0,0
-231,-307,0,0,0,0,0,0,0,0,0,-1,993,1331,0,0
-224,-307,0,0,0,0,0,0,0,0,0,-1,1000,1331,0,0
-217,-307,0,0,0,0,0,0,0,0,0,-1,1007,1331,0,0
-210,-307,0,0,0,0,0,0,0,0,0,-1,1014,1331,0,0
-203,-307,0,0,0,0,0,0,0,0,0,-1,1021,1331,0,0
-196,-307,0,0,0,0,0,0,0,0,0,-1,1028,1331,0,0
-189,-307,0,0,0,0,0,0,0,0,0,-1,1035,1331,0,0
-182,-307,0,0,0,0,0,0,0,0,0,-1,1042,1331,0,0
-175,-307,0,0,0,0,0,0,0,0,0,-1,1049,1331,0,0
-168,-307,0,0,0,0,0,0,0,0,0,-1,1056,1331,0,0
-161,-307,0,0,0,0,0,0,0,0,0,-1,1063,1331,0,0
-154,-307,0,0,0,0,0,0,0,0,0,-1,1070,1331,0,0
-147,-307,0,0,0,0,0,0,0,0,0,-1,1077,1331,0,0
-140,-307,0,0,0,0,0,0,0,0,0,-1,1084,1331,0,0
-133,-307,0,0,0,0,0,0,0,0,0,-1,1091,1331,0,0
-126,-307,0,0,0,0,0,0,0,0,0,-1,1098,1331,0,0
-119,-307,0,0,0,0,0,0,0,0,0,-1,1105,1331,0,0
-112,-307,0,0,0,0,0,0,0,0,0,-1,1112,1331,0,0
-105,-307,0,0,0,0,0,0,0,0,0,-1,1119,1331,0,0
-98,-307,0,0,0,0,0,0,0,0,0,-1,1126,1331,0,0
-91,-307,0,0,0,0,0,0,0,0,0,-1,1133,1331,0,0
-84,-307,0,0,0,0,0,0,0,0,0,-1,1140,1331,0,0
-77,-307,0,0,0,0,0,0,0,0,0,-1,1147,1331,0,0
-70,-307,0,0,0,0,0,0,0,0,0,-1,1154,1331,0,0
-63,-307,0,0,0,0,0,0,0,0,0,-1,1161,1331,0,0
-56,-307,0,0,0,0,0,0,0,0,0,-1,1168,1331,0,0
-49,-307,0,0,0,0,0,0,0,0,0,-1,1175,1331,0,0
-42,-307,0,0,0,0,0,0,0,0,0,-1,1182,1331,0,0
-35,-307,0,0,0,0,0,0,0,0,0,-1,1189,1331,0,0
-28,-307,0,0,0,0,0,0,0,0,0,-1,1196,1331,0,0
-21,-307,0,0,0,0,0,0,0,0,0,-1,1203,1331,0,0
-14,-307,0,0,0,0,0,0,0,0,0,-1,1210,1331,0,0
-7,-307,0,0,0,0,0,0,0,0,0,-1,1217,1331,0,0
0,-307,0,0,0,0,0,0,0,0,0,-1,1224,1331,0,0
7,-307,0,0,0,0,0,0,0,0,0,-1,1231,1331,0,0
14,-307,0,0,0,0,0,0,0,0,0,-1,1238,1331,0,0
21,-307,0,0,0,0,0,0,0,0,0,-1,1245,1331,0,0
28,-307,0,0,0,0,0,0,0,0,0,-1,1252,1331,0,0
35,-307,0,0,0,0,0,0,0,0,0,-1,1259,1331,0,0
42,-307,0,0,0,0,0,0,0,0,0,-1,1266,1331,0,0
49,-307,0,0,0,0,0,0,0,0,0,-1,1273,1331,0,0
56,-307,0,0,0,0,0,0,0,0,0,-1,1280,1331,0,0
63,-307,0,0,0,0,0,0,0,0,0,-1,1287,1331,0,0
70,-307,0,0,0,0,0,0,0,0,0,-1,1294,1331,0,0
77,-307,0,0,0,0,0,0,0,0,0,-1,1301,1331,0,0
84,-307,0,0,0,0,0,0,0,0,0,-1,1308,1331,0,0
91,-307,0,0,0,0,0,0,0,0,0,-1,1315,1331,0,0
98,-307,0,0,0,0,0,0,0,0,0,-1,1322,1331,0,0
105,-307,0,0,0,0,0,0,0,0,0,-1,1329,1331,0,0
112,-307,0,0,0,0,0,0,0,0,0,-1,1336,1331,0,0
119,-307,0,0,0,0,0,0,0,0,0,-1,1343,1331,0,0
126,-307,0,0,0,0,0,0,0,0,0,-1,1350,1331,0,0
133,-307,0,0,0,0,0,0,0,0,0,-1,1357,1331,0,0
140,-307,0,0,0,0,0,0,0,0,0,-1,1364,1331,0,0
147,-307,0,0,0,0,0,0,0,0,0,-1,1371,1331,0,0
154,-307,0,0,0,0,0,0,0,0,0,-1,1378,1331,0,0
161,-307,0,0,0,0,0,0,0,0,0,-1,1385,1331,0,0
168,-307,0,0,0,0,0,0,0,0,0,-1,1392,1331,0,0
175,-307,0,0,0,0,0,0,0,0,0,-1,1399,1331,0,0
182,-307,0,0,0,0,0,0,0,0,0,-1,1406,1331,0,0
189,-307,0,0,0,0,0,0,0,0,0,-1,1413,1331,0,0
196,-307,0,0,0,0,0,0,0,0,0,-1,1420,1331,0,0
203,-307,0,0,0,0,0,0,0,0,0,-1,1427,1331,0,0
210,-307,0,0,0,0,0,0,0,0,0,-1,1434,1331,0,0
217,-307,0,0,0,0,0,0,0,0,0,-1,1441,1331,0,0
224,-307,0,0,0,0,0,0,0,0,0,-1,1448,1331,0,0
231,-307,0,0,0,0,0,0,0,0,0,-1,1455,1331,0,0
238,-307,0,0,0,0,0,0,0,0,0,-1,1462,1331,0,0
245,-307,0,0,0,0,0,0,0,0,0,-1,1469,1331,0,0
252,-307,0,0,0,0,0,0,0,0,0,-1,1476,1331,0,0
259,-307,0,0,0,0,0,0,0,0,0,-1,1483,1331,0,0
266,-307,0,0,0,0,0,0,0,0,0,-1,1490,1331,0,0
273,-307,0,0,0,0,0,0,0,0,0,-1,1497,1331,0,0
280,-307,0,0,0,0,0,0,0,0,0,-1,1504,1331,0,0
287,-307,0,0,0,0,0,0,0,0,0,-1,1511,1331,0,0
294,-307,0,0,0,0,0,0,0,0,0,-1,1518,1331,0,0
301,-307,0,0,0,0,0,0,0,0,0,-1,1525,1331,0,0
308,-307,0,0,0,0,0,0,0,0,0,-1,1532,1331,0,0
315,-307,0,0,0,0,0,0,0,0,0,-1,1539,1331,0,0
322,-307,0,0,0,0,0,0,0,0,0,-1,1546,1331,0,0
329,-307,0,0,0,0,0,0,0,0,0,-1,1553,1331,0,0
336,-307,0,0,0,0,0,0,0,0,0,-1,1560,1331,0,0
343,-307,0,0,0,0,0,0,0,0,0,-1,1567,1331,0,0
350,-307,0,0,0,0,0,0,0,0,0,-1,1574,1331,0,0
357,-307,0,0,0,0,0,0,0,0,0,-1,1581,1331,0,0
364,-307,0,0,0,0,0,0,0,0,0,-1,1588,1331,0,0
371,-307,0,0,0,0,0,0,0,0,0,-1,1595,1331,0,0
378,-307,0,0,0,0,0,0,0,0,0,-1,1602,1331,0,0
385,-307,0,0,0,0,0,0,0,0,0,-1,1609,1331,0,0
392,-307,0,0,0,0,0,0,0,0,0,-1,1616,1331,0,0
399,-307,0,0,0,0,0,0,0,0,0,-1,1623,1331,0,0
406,-307,0,0,0,0,0,0,0,0,0,-1,1630,1331,0,0
413,-307,0,0,0,0,0,0,0,0,0,-1,1637,1331,0,0
420,-307,0,0,0,0,0,0,0,0,0,-1,1644,1331,0,0
427,-307,0,0,0,0,0,0,0,0,0,-1,1651,1331,0,0
434,-307,0,0,0,0,0,0,0,0,0,-1,1658,1331,0,0
441,-307,0,0,0,0,0,0,0,0,0,-1,1665,1331,0,0
448,-307,0,0,0,0,0,0,0,0,0,-1,1672,1331,0,0
455,-307,0,0,0,0,0,0,0,0,0,-1,1679,1331,0,0
462,-307,0,0,0,0,0,0,0,0,0,-1,1686,1331,0,0
469,-307,0,0,0,0,0,0,0,0,0,-1,1693,1331,0,0
476,-307,0,0,0,0,0,0,0,0,0,-1,1700,1331,0,0
483,-307,0,0,0,0,0,0,0,0,0,-1,1707,1331,0,0
490,-307,0,0,0,0,0,0,0,0,0,-1,1714,1331,0,0
497,-307,0,0,0,0,0,0,0,0,0,-1,1721,1331,0,0
504,-307,0,0,0,0,0,0,0,0,0,-1,1728,1331,0,0
511,-307,0,0,0,0,0,0,0,0,0,-1,1735,1331,0,0
518,-307,0,0,0,0,0,0,0,0,0,-1,1742,1331,0,0
525,-307,0,0,0,0,0,0,0,0,0,-1,1749,1331,0,0
532,-307,0,0,0,0,0,0,0,0,0,-1,1756,1331,0,0
539,-307,0,0,0,0,0,0,0,0,0,-1,1763,1331,0,0
546,-307,0,0,0,0,0,0,0,0,0,-1,1770,1331,0,0
553,-307,0,0,0,0,0,0,0,0,0,-1,1777,1331,0,0
560,-307,0,0,0,0,0,0,0,0,0,-1,1784,1331,0,0
567,-307,0,0,0,0,0,0,0,0,0,-1,1791,1331,0,0
574,-307,0,0,0,0,0,0,0,0,0,-1,1798,1331,0,0
581,-307,0,0,0,0,0,0,0,0,0,-1,1805,1331,0,0
588,-307,19.2711,1.90466,-0.0123738,0.0607081,0.0279914,0.0701972,-0.0218628,1.24396,0.0555391,0.0437836,1812,1331,19.2711,-1.90467
595,-307,19.0309,1.64551,-0.00433294,0.047518,0.0224979,0.0559187,-0.0127336,1.21343,0.0421695,0.0423668,1819,1331,19.0309,-1.64549
602,-307,18.4629,1.69678,0.00161094,0.0389677,0.0153726,0.0444802,-0.00390159,1.22649,0.0310359,0.0462634,1826,1331,18.4629,-1.69679
609,-307,19.4639,3.72949,0.00644426,0.0334505,0.00827841,0.0357861,0.00410863,1.29581,0.0226127,0.0458997,1833,1331,19.4639,-3.72948
616,-307,19.355,2.4458,0.00882854,0.0292288,0.00307829,0.0296832,0.00837416,1.42425,0.0176716,0.0430153,1840,1331,19.355,-2.44577
623,-307,19.4661,1.5686,0.00959082,0.0258082,-0.000488823,0.025823,0.0095761,-1.54069,0.0150738,0.0457029,1847,1331,19.466,-1.56859
630,-307,13.3983,8.13049,0,0,0,0,0,0,0,-1,1854,1331,13.3984,-8.13044
637,-307,14.3339,7.35205,0.00871344,0.0199832,-0.00343611,0.0209482,0.00774841,-1.297,0.0122302,0.0499968,1861,1331,14.3338,-7.35211
644,-307,15.3187,6.6886,0.00835541,0.0165193,-0.00381854,0.018027,0.00684778,-1.19476,0.0105076,0.0444157,1868,1331,15.3188,-6.68855
651,-307,16.2117,5.94263,0,0,0,0,0,0,0,-1,1875,1331,16.2117,-5.94263
658,-307,14.9818,4.98914,0,0,0,0,0,0,0,-1,1882,1331,14.9819,-4.98916
665,-307,14.7778,5.34326,0.00302103,0.00870341,-0.0030596,0.0100376,0.00168687,-1.1596,0.00620631,0.0187399,1889,1331,14.7778,-5.34326
672,-307,14.7664,5.21118,0.00175241,0.00741902,-0.0011689,0.00765067,0.00152076,-1.37515,0.00467669,0.00923835,1896,1331,14.7663,-5.21119
679,-307,14.767,5.05469,0.000447466,0.00448941,-3.2421e-05,0.00448967,0.000447206,-1.56278,0.00285574,0.010454,1903,1331,14.7669,-5.05471
686,-307,14.7742,4.88354,-0.000627671,0.00246782,0.000871115,0.00269612,-0.000855977,1.31448,0.00214057,0.010459,1910,1331,14.7742,-4.88352
693,-307,14.7689,4.68872,-0.00180658,0.00149258,0.00106785,0.00180805,-0.00212205,1.28354,0.00227146,0.0113541,1917,1331,14.7689,-4.68869
700,-307,14.7703,4.50354,-0.00215154,0.00172989,0.000395538,0.00176978,-0.00219143,1.47027,0.00229132,0.0114213,1924,1331,14.7703,-4.50358
707,-307,14.77,4.32764,-0.00207271,0.00291919,-0.000422896,0.00295476,-0.00210828,-1.48688,0.00293674,0.0132216,1931,1331,14.77,-4.32766
714,-307,14.7743,4.15747,-0.00178471,0.00480834,-0.00141722,0.00510007,-0.00207644,-1.36778,0.00426418,0.0126964,1938,1331,14.7743,-4.15751
721,-307,14.7986,4.00098,-0.00175916,0.00692964,-0.00246161,0.00757857,-0.00240809,-1.31304,0.00601788,0.014455,1945,1331,14.7986,-4.00096
728,-307,14.7578,3.87256,-0.0021608,0.0093269,-0.00347715,0.0102974,-0.00313129,-1.29862,0.00811269,0.0186751,1952,1331,14.7578,-3.8726
735,-307,14.6422,3.68835,-0.00254407,0.0123333,-0.00495272,0.0138312,-0.00404203,-1.27709,0.0108228,0.0276812,1959,1331,14.6422,-3.68837
742,-307,15.2151,3.52625,-0.00302468,0.0159804,-0.00690751,0.0182257,-0.00526999,-1.25652,0.0142361,0.0369687,1966,1331,15.2151,-3.5262
749,-307,15.4476,3.20081,-0.00382333,0.0202698,-0.0093715,0.0234858,-0.00703929,-1.24022,0.0184566,0.0404203,1973,1331,15.4477,-3.20083
756,-307,15.5508,3.19275,0,0,0,0,0,0,0,-1,1980,1331,15.5508,-3.19279
763,-307,18.2676,3.6936,0,0,0,0,0,0,0,-1,1987,1331,18.2676,-3.69364
770,-307,0,0,0,0,0,0,0,0,0,-1,1994,1331,0,0
777,-307,0,0,0,0,0,0,0,0,0,-1,2001,1331,0,0
784,-307,0,0,0,0,0,0,0,0,0,-1,2008,1331,0,0
791,-307,0,0,0,0,0,0,0,0,0,-1,2015,1331,0,0
798,-307,0,0,0,0,0,0,0,0,0,-1,2022,1331,0,0
805,-307,0,0,0,0,0,0,0,0,0,-1,2029,1331,0,0
812,-307,0,0,0,0,0,0,0,0,0,-1,2036,1331,0,0
-700,-314,0,0,0,0,0,0,0,0,0,-1,524,1338,0,0
-693,-314,0,0,0,0,0,0,0,0,0,-1,531,1338,0,0
-686,-314,0,0,0,0,0,0,0,0,0,-1,538,1338,0,0
-679,-314,0,0,0,0,0,0,0,0,0,-1,545,1338,0,0
-672,-314,0,0,0,0,0,0,0,0,0,-1,552,1338,0,0
-665,-314,0,0,0,0,0,0,0,0,0,-1,559,1338,0,0
-658,-314,0,0,0,0,0,0,0,0,0,-1,566,1338,0,0
-651,-314,0,0,0,0,0,0,0,0,0,-1,573,1338,0,0
-644,-314,-7.29913,-2.56995,0,0,0,0,0,0,0,-1,580,1338,-7.29914,2.56997
-637,-314,-6.19269,-3.51892,0.189355,0.110279,-0.066354,0.227058,0.0725762,-0.51671,0.133905,0.0479784,587,1338,-6.19268,3.51891
-630,-314,-5.13574,-4.33289,0.156474,0.0930883,-0.0540181,0.18741,0.0621521,-0.520104,0.110227,0.0461431,594,1338,-5.13573,4.33283
-623,-314,-3.74591,-5.04309,0,0,0,0,0,0,0,-1,601,1338,-3.74589,5.04313
-616,-314,-6.62213,0.830444,0,0,0,0,0,0,0,-1,608,1338,-6.62215,-0.830452
-609,-314,-7.34625,0.91333,0,0,0,0,0,0,0,-1,615,1338,-7.34628,-0.913382
-602,-314,-6.98456,1.16589,0.0494426,0.0359804,-0.0163394,0.0603831,0.02504,-0.590014,0.0350309,0.040076,622,1338,-6.98459,-1.16585
-595,-314,-6.80402,1.6394,0.0289566,0.0253714,-0.00958403,0.0369142,0.0174138,-0.692948,0.0213238,0.0308533,629,1338,-6.80401,-1.63938
-588,-314,-6.88263,1.83008,0.0119593,0.0157061,-0.00394434,0.0181994,0.00946609,-1.00711,0.0105102,0.0148805,636,1338,-6.88263,-1.83004
-581,-314,-6.86365,2.02466,5.6728e-05,0.00765333,8.57816e-05,0.0076543,5.57592e-05,1.55951,0.00508438,0.0132671,643,1338,-6.86366,-2.0247
-574,-314,-6.88824,2.2052,-0.0040139,0.00247649,0.00133777,0.00274141,-0.00427882,1.37529,0.0040854,0.0135333,650,1338,-6.88827,-2.2052
-567,-314,-6.87445,2.42847,-0.00227096,0.00132209,0.000595506,0.00141822,-0.00236709,1.41076,0.00220822,0.0138476,657,1338,-6.87448,-2.42843
-560,-314,-6.85089,2.64331,-0.000820461,0.000343103,-0.000375766,0.000453903,-0.000931262,-1.28406,0.000815402,0.0135948,664,1338,-6.85091,-2.64335
-553,-314,-6.86346,2.82556,0.000544886,-0.000607238,-0.00129031,0.00138188,-0.00144424,-0.575448,0.00163179,0.016427,671,1338,-6.86344,-2.82553
-546,-314,-6.87524,3.04297,0.000358006,0.000135848,-0.00291131,0.00316036,-0.0026665,-0.76633,0.00336816,0.0174682,678,1338,-6.87522,-3.04292
-539,-314,-6.85217,3.26416,-0.0013649,0.00236556,-0.00524158,0.0060639,-0.00506324,-0.956338,0.00643291,0.0160456,685,1338,-6.8522,-3.26416
-532,-314,-6.73706,3.48694,-0.00612018,0.0102211,-0.00934046,0.0144603,-0.0103594,-1.14474,0.0143947,0.0249883,692,1338,-6.73709,-3.48696
-525,-314,-6.96869,3.63672,-0.0127905,0.0224609,-0.0147482,0.0278173,-0.0181468,-1.22242,0.0267324,0.0425631,699,1338,-6.96866,-3.63673
-518,-314,-7.08307,3.76331,-0.0209124,0.0360981,-0.0208669,0.0429195,-0.0277339,-1.25484,0.0411046,0.0461712,706,1338,-7.08307,-3.76331
-511,-314,-7.6778,4.021,0,0,0,0,0,0,0,-1,713,1338,-7.67781,-4.02099
-504,-314,-8.62189,2.08582,0,0,0,0,0,0,0,-1,720,1338,-8.62187,-2.08576
-497,-314,-8.87006,1.61755,0,0,0,0,0,0,0,-1,727,1338,-8.87005,-1.61754
-490,-314,-2.28271,-5.30945,0,0,0,0,0,0,0,-1,734,1338,-2.28268,5.30945
-483,-314,-2.72314,-4.51392,-0.079544,0.145427,-0.0568421,0.158974,-0.0930903,-1.33685,0.147177,0.0487171,741,1338,-2.72316,4.51393
-476,-314,-3.17706,-3.82312,-0.0890821,0.172277,-0.0616693,0.186097,-0.102903,-1.35033,0.169143,0.0450426,748,1338,-3.17706,3.82316
-469,-314,-3.62921,-3.0166,0,0,0,0,0,0,0,-1,755,1338,-3.6292,3.01663
-462,-314,0,0,0,0,0,0,0,0,0,-1,762,1338,0,0
-455,-314,0,0,0,0,0,0,0,0,0,-1,769,1338,0,0
-448,-314,0,0,0,0,0,0,0,0,0,-1,776,1338,0,0
-441,-314,0,0,0,0,0,0,0,0,0,-1,783,1338,0,0
-434,-314,0,0,0,0,0,0,0,0,0,-1,790,1338,0,0
-427,-314,0,0,0,0,0,0,0,0,0,-1,797,1338,0,0
-420,-314,0,0,0,0,0,0,0,0,0,-1,804,1338,0,0
-413,-314,0,0,0,0,0,0,0,0,0,-1,811,1338,0,0
-406,-314,0,0,0,0,0,0,0,0,0,-1,818,1338,0,0
-399,-314,0,0,0,0,0,0,0,0,0,-1,825,1338,0,0
-392,-314,0,0,0,0,0,0,0,0,0,-1,832,1338,0,0
-385,-314,0,0,0,0,0,0,0,0,0,-1,839,1338,0,0
-378,-314,0,0,0,0,0,0,0,0,0,-1,846,1338,0,0
-371,-314,0,0,0,0,0,0,0,0,0,-1,853,1338,0,0
-364,-314,0,0,0,0,0,0,0,0,0,-1,860,1338,0,0
-357,-314,0,0,0,0,0,0,0,0,0,-1,867,1338,0,0
-350,-314,0,0,0,0,0,0,0,0,0,-1,874,1338,0,0
-343,-314,0,0,0,0,0,0,0,0,0,-1,881,1338,0,0
-336,-314,0,0,0,0,0,0,0,0,0,-1,888,1338,0,0
-329,-314,0,0,0,0,0,0,0,0,0,-1,895,1338,0,0
-322,-314,0,0,0,0,0,0,0,0,0,-1,902,1338,0,0
-315,-314,0,0,0,0,0,0,0,0,0,-1,909,1338,0,0
-308,-314,0,0,0,0,0,0,0,0,0,-1,916,1338,0,0
-301,-314,0,0,0,0,0,0,0,0,0,-1,923,1338,0,0
-294,-314,0,0,0,0,0,0,0,0,0,-1,930,1338,0,0
-287,-314,0,0,0,0,0,0,0,0,0,-1,937,1338,0,0
-280,-314,0,0,0,0,0,0,0,0,0,-1,944,1338,0,0
-273,-314,0,0,0,0,0,0,0,0,0,-1,951,1338,0,0
-266,-314,0,0,0,0,0,0,0,0,0,-1,958,1338,0,0
-259,-314,0,0,0,0,0,0,0,0,0,-1,965,1338,0,0
-252,-314,0,0,0,0,0,0,0,0,0,-1,972,1338,0,0
-245,-314,0,0,0,0,0,0,0,0,0,-1,979,1338,0,0
-238,-314,0,0,0,0,0,0,0,0,0,-1,986,1338,0,0
-231,-314,0,0,0,0,0,0,0,0,0,-1,993,1338,0,0
-224,-314,0,0,0,0,0,0,0,0,0,-1,1000,1338,0,0
-217,-314,0,0,0,0,0,0,0,0,0,-1,1007,1338,0,0
-210,-314,0,0,0,0,0,0,0,0,0,-1,1014,1338,0,0
-203,-314,0,0,0,0,0,0,0,0,0,-1,1021,1338,0,0
-196,-314,0,0,0,0,0,0,0,0,0,-1,1028,1338,0,0
-189,-314,0,0,0,0,0,0,0,0,0,-1,1035,1338,0,0
-182,-314,0,0,0,0,0,0,0,0,0,-1,1042,1338,0,0
-175,-314,0,0,0,0,0,0,0,0,0,-1,1049,1338,0,0
-168,-314,0,0,0,0,0,0,0,0,0,-1,1056,1338,0,0
-161,-314,0,0,0,0,0,0,0,0,0,-1,1063,1338,0,0
-154,-314,0,0,0,0,0,0,0,0,0,-1,1070,1338,0,0
-147,-314,0,0,0,0,0,0,0,0,0,-1,1077,1338,0,0
-140,-314,0,0,0,0,0,0,0,0,0,-1,1084,1338,0,0
-133,-314,0,0,0,0,0,0,0,0,0,-1,1091,1338,0,0
-126,-314,0,0,0,0,0,0,0,0,0,-1,1098,1338,0,0
-119,-314,0,0,0,0,0,0,0,0,0,-1,1105,1338,0,0
-112,-314,0,0,0,0,0,0,0,0,0,-1,1112,1338,0,0
-105,-314,0,0,0,0,0,0,0,0,0,-1,1119,1338,0,0
-98,-314,0,0,0,0,0,0,0,0,0,-1,1126,1338,0,0
-91,-314,0,0,0,0,0,0,0,0,0,-1,1133,1338,0,0
-84,-314,0,0,0,0,0,0,0,0,0,-1,1140,1338,0,0
-77,-314,0,0,0,0,0,0,0,0,0,-1,1147,1338,0,0
-70,-314,0,0,0,0,0,0,0,0,0,-1,1154,1338,0,0
-63,-314,0,0,0,0,0,0,0,0,0,-1,1161,1338,0,0
-56,-314,0,0,0,0,0,0,0,0,0,-1,1168,1338,0,0
-49,-314,0,0,0,0,0,0,0,0,0,-1,1175,1338,0,0
-42,-314,0,0,0,0,0,0,0,0,0,-1,1182,1338,0,0
-35,-314,0,0,0,0,0,0,0,0,0,-1,1189,1338,0,0
-28,-314,0,0,0,0,0,0,0,0,0,-1,1196,1338,0,0
-21,-314,0,0,0,0,0,0,0,0,0,-1,1203,1338,0,0
-14,-314,0,0,0,0,0,0,0,0,0,-1,1210,1338,0,0
-7,-314,0,0,0,0,0,0,0,0,0,-1,1217,1338,0,0
0,-314,0,0,0,0,0,0,0,0,0,-1,1224,1338,0,0
7,-314,0,0,0,0,0,0,0,0,0,-1,1231,1338,0,0
14,-314,0,0,0,0,0,0,0,0,0,-1,1238,1338,0,0
21,-314,0,0,0,0,0,0,0,0,0,-1,1245,1338,0,0
28,-314,0,0,0,0,0,0,0,0,0,-1,1252,1338,0,0
35,-314,0,0,0,0,0,0,0,0,0,-1,1259,1338,0,0
42,-314,0,0,0,0,0,0,0,0,0,-1,1266,1338,0,0
49,-314,0,0,0,0,0,0,0,0,0,-1,1273,1338,0,0
56,-314,0,0,0,0,0,0,0,0,0,-1,1280,1338,0,0
63,-314,0,0,0,0,0,0,0,0,0,-1,1287,1338,0,0
70,-314,0,0,0,0,0,0,0,0,0,-1,1294,1338,0,0
77,-314,0,0,0,0,0,0,0,0,0,-1,1301,1338,0,0
84,-314,0,0,0,0,0,0,0,0,0,-1,1308,1338,0,0
91,-314,0,0,0,0,0,0,0,0,0,-1,1315,1338,0,0
98,-314,0,0,0,0,0,0,0,0,0,-1,1322,1338,0,0
105,-314,0,0,0,0,0,0,0,0,0,-1,1329,1338,0,0
112,-314,0,0,0,0,0,0,0,0,0,-1,1336,1338,0,0
119,-314,0,0,0,0,0,0,0,0,0,-1,1343,1338,0,0
126,-314,0,0,0,0,0,0,0,0,0,-1,1350,1338,0,0
133,-314,0,0,0,0,0,0,0,0,0,-1,1357,1338,0,0
140,-314,0,0,0,0,0,0,0,0,0,-1,1364,1338,0,0
147,-314,0,0,0,0,0,0,0,0,0,-1,1371,1338,0,0
154,-314,0,0,0,0,0,0,0,0,0,-1,1378,1338,0,0
161,-314,0,0,0,0,0,0,0,0,0,-1,1385,1338,0,0
168,-314,0,0,0,0,0,0,0,0,0,-1,1392,1338,0,0
175,-314,0,0,0,0,0,0,0,0,0,-1,1399,1338,0,0
182,-314,0,0,0,0,0,0,0,0,0,-1,1406,1338,0,0
189,-314,0,0,0,0,0,0,0,0,0,-1,1413,1338,0,0
196,-314,0,0,0,0,0,0,0,0,0,-1,1420,1338,0,0
203,-314,0,0,0,0,0,0,0,0,0,-1,1427,1338,0,0
210,-314,0,0,0,0,0,0,0,0,0,-1,1434,1338,0,0
217,-314,0,0,0,0,0,0,0,0,0,-1,1441,1338,0,0
224,-314,0,0,0,0,0,0,0,0,0,-1,1448,1338,0,0
231,-314,0,0,0,0,0,0,0,0,0,-1,1455,1338,0,0
238,-314,0,0,0,0,0,0,0,0,0,-1,1462,1338,0,0
245,-314,0,0,0,0,0,0,0,0,0,-1,1469,1338,0,0
252,-314,0,0,0,0,0,0,0,0,0,-1,1476,1338,0,0
259,-314,0,0,0,0,0,0,0,0,0,-1,1483,1338,0,0
266,-314,0,0,0,0,0,0,0,0,0,-1,1490,1338,0,0
273,-314,0,0,0,0,0,0,0,0,0,-1,1497,1338,0,0
280,-314,0,0,0,0,0,0,0,0,0,-1,1504,1338,0,0
287,-314,0,0,0,0,0,0,0,0,0,-1,1511,1338,0,0
294,-314,0,0,0,0,0,0,0,0,0,-1,1518,1338,0,0
301,-314,0,0,0,0,0,0,0,0,0,-1,1525,1338,0,0
308,-314,0,0,0,0,0,0,0,0,0,-1,1532,1338,0,0
315,-314,0,0,0,0,0,0,0,0,0,-1,1539,1338,0,0
322,-314,0,0,0,0,0,0,0,0,0,-1,1546,1338,0,0
329,-314,0,0,0,0,0,0,0,0,0,-1,1553,1338,0,0
336,-314,0,0,0,0,0,0,0,0,0,-1,1560,1338,0,0
343,-314,0,0,0,0,0,0,0,0,0,-1,1567,1338,0,0
350,-314,0,0,0,0,0,0,0,0,0,-1,1574,1338,0,0
357,-314,0,0,0,0,0,0,0,0,0,-1,1581,1338,0,0
364,-314,0,0,0,0,0,0,0,0,0,-1,1588,1338,0,0
371,-314,0,0,0,0,0,0,0,0,0,-1,1595,1338,0,0
378,-314,0,0,0,0,0,0,0,0,0,-1,1602,1338,0,0
385,-314,0,0,0,0,0,0,0,0,0,-1,1609,1338,0,0
392,-314,0,0,0,0,0,0,0,0,0,-1,1616,1338,0,0
399,-314,0,0,0,0,0,0,0,0,0,-1,1623,1338,0,0
406,-314,0,0,0,0,0,0,0,0,0,-1,1630,1338,0,0
413,-314,0,0,0,0,0,0,0,0,0,-1,1637,1338,0,0
420,-314,0,0,0,0,0,0,0,0,0,-1,1644,1338,0,0
427,-314,0,0,0,0,0,0,0,0,0,-1,1651,1338,0,0
434,-314,0,0,0,0,0,0,0,0,0,-1,1658,1338,0,0
441,-314,0,0,0,0,0,0,0,0,0,-1,1665,1338,0,0
448,-314,0,0,0,0,0,0,0,0,0,-1,1672,1338,0,0
455,-314,0,0,0,0,0,0,0,0,0,-1,1679,1338,0,0
462,-314,0,0,0,0,0,0,0,0,0,-1,1686,1338,0,0
469,-314,0,0,0,0,0,0,0,0,0,-1,1693,1338,0,0
476,-314,0,0,0,0,0,0,0,0,0,-1,1700,1338,0,0
483,-314,0,0,0,0,0,0,0,0,0,-1,1707,1338,0,0
490,-314,0,0,0,0,0,0,0,0,0,-1,1714,1338,0,0
497,-314,0,0,0,0,0,0,0,0,0,-1,1721,1338,0,0
504,-314,0,0,0,0,0,0,0,0,0,-1,1728,1338,0,0
511,-314,0,0,0,0,0,0,0,0,0,-1,1735,1338,0,0
518,-314,0,0,0,0,0,0,0,0,0,-1,1742,1338,0,0
525,-314,0,0,0,0,0,0,0,0,0,-1,1749,1338,0,0
532,-314,0,0,0,0,0,0,0,0,0,-1,1756,1338,0,0
539,-314,0,0,0,0,0,0,0,0,0,-1,1763,1338,0,0
546,-314,0,0,0,0,0,0,0,0,0,-1,1770,1338,0,0
553,-314,0,0,0,0,0,0,0,0,0,-1,1777,1338,0,0
560,-314,0,0,0,0,0,0,0,0,0,-1,1784,1338,0,0
567,-314,0,0,0,0,0,0,0,0,0,-1,1791,1338,0,0
574,-314,0,0,0,0,0,0,0,0,0,-1,1798,1338,0,0
581,-314,19.5793,0.382202,0,0,0,0,0,0,0,-1,1805,1338,19.5793,-0.382259
588,-314,19.2194,0.595947,-0.0131348,0.0634387,0.03698,0.0783816,-0.0280777,1.18678,0.0637105,0.044146,1812,1338,19.2194,-0.595967
595,-314,18.9369,1.04578,-0.00572761,0.0491005,0.0314347,0.0633958,-0.0200229,1.14399,0.050285,0.0441999,1819,1338,18.9369,-1.04572
602,-314,18.462,1.1366,-0.000112852,0.0395191,0.023809,0.0506796,-0.0112734,1.13246,0.0381042,0.0452883,1826,1338,18.462,-1.13666
609,-314,19.5864,3.62231,0.00472952,0.0331428,0.015581,0.0400216,-0.00214933,1.15504,0.0274256,0.0437461,1833,1338,19.5865,-3.62229
616,-314,19.2941,2.61975,0.00733495,0.0282929,0.0092119,0.0317663,0.00386158,1.21023,0.0200149,0.0421497,1840,1338,19.2941,-2.61981
623,-314,19.3755,1.74573,0,0,0,0,0,0,0,-1,1847,1338,19.3754,-1.74579
630,-314,14.2268,7.13354,0,0,0,0,0,0,0,-1,1854,1338,14.2269,-7.1335
637,-314,14.875,6.50891,0.00772034,0.0183996,-0.000385856,0.0184135,0.00770642,-1.53473,0.010678,0.0446162,1861,1338,14.875,-6.50888
644,-314,15.4486,5.80457,0.00744005,0.014828,-0.0014389,0.0150984,0.0071697,-1.38507,0.00872072,0.0467444,1868,1338,15.4486,-5.80453
651,-314,14.8801,5.06653,0,0,0,0,0,0,0,-1,1875,1338,14.8801,-5.06652
658,-314,14.7572,5.27356,0.00427157,0.00903941,-0.00253638,0.0101363,0.00317464,-1.16261,0.00598682,0.0392483,1882,1338,14.7571,-5.27356
665,-314,14.5889,5.39001,0.00189705,0.00703599,-0.00203534,0.00774444,0.0011886,-1.23584,0.00481591,0.0163414,1889,1338,14.5889,-5.39005
672,-314,14.6155,5.22778,0.000846787,0.00596658,-0.000527499,0.00602036,0.000793003,-1.46919,0.00377709,0.0113841,1896,1338,14.6155,-5.22782
679,-314,14.6089,5.05627,-0.000421729,0.00349608,0.000142095,0.00350123,-0.000426876,1.53459,0.00248868,0.00956764,1903,1338,14.6089,-5.05622
686,-314,14.599,4.875,-0.00133191,0.00216353,0.000607831,0.00226621,-0.00143459,1.40345,0.00215456,0.012063,1910,1338,14.599,-4.87505
693,-314,14.5929,4.6969,-0.0023303,0.00173836,0.000668252,0.0018453,-0.00243725,1.4121,0.00248039,0.0116351,1917,1338,14.5929,-4.69686
700,-314,14.5887,4.50671,-0.0026425,0.00238068,-0.000102881,0.00238279,-0.00264461,-1.55033,0.00290388,0.0114934,1924,1338,14.5888,-4.50674
707,-314,14.5874,4.34363,-0.00269465,0.0040785,-0.000947901,0.00420866,-0.00282481,-1.43434,0.00408689,0.0123418,1931,1338,14.5874,-4.3436
714,-314,14.5945,4.15894,-0.00278005,0.00638476,-0.00187511,0.00675357,-0.00314886,-1.37659,0.00584207,0.0115834,1938,1338,14.5944,-4.15897
721,-314,14.6232,3.99707,-0.00326628,0.00908792,-0.00283199,0.00970617,-0.00388453,-1.35586,0.00808299,0.016257,1945,1338,14.6232,-3.99702
728,-314,14.5114,3.8501,-0.00411475,0.0123427,-0.00387458,0.0132093,-0.00498132,-1.35076,0.0108545,0.0272327,1952,1338,14.5113,-3.85006
735,-314,14.3905,3.50305,-0.00495747,0.0165004,-0.00535055,0.0177606,-0.00621763,-1.33949,0.0143686,0.0376117,1959,1338,14.3905,-3.50309
742,-314,14.301,3.13745,0,0,0,0,0,0,0,-1,1966,1338,14.3011,-3.13746
749,-314,15.8777,3.24622,0,0,0,0,0,0,0,-1,1973,1338,15.8777,-3.2462
756,-314,15.8607,3.33716,0,0,0,0,0,0,0,-1,1980,1338,15.8607,-3.33719
763,-314,18.0352,3.23047,0,0,0,0,0,0,0,-1,1987,1338,18.0351,-3.23045
770,-314,0,0,0,0,0,0,0,0,0,-1,1994,1338,0,0
777,-314,0,0,0,0,0,0,0,0,0,-1,2001,1338,0,0
784,-314,0,0,0,0,0,0,0,0,0,-1,2008,1338,0,0
791,-314,0,0,0,0,0,0,0,0,0,-1,2015,1338,0,0
798,-314,0,0,0,0,0,0,0,0,0,-1,2022,1338,0,0
805,-314,0,0,0,0,0,0,0,0,0,-1,2029,1338,0,0
812,-314,0,0,0,0,0,0,0,0,0,-1,2036,1338,0,0
-700,-321,0,0,0,0,0,0,0,0,0,-1,524,1345,0,0
-693,-321,0,0,0,0,0,0,0,0,0,-1,531,1345,0,0
-686,-321,0,0,0,0,0,0,0,0,0,-1,538,1345,0,0
-679,-321,0,0,0,0,0,0,0,0,0,-1,545,1345,0,0
-672,-321,0,0,0,0,0,0,0,0,0,-1,552,1345,0,0
-665,-321,0,0,0,0,0,0,0,0,0,-1,559,1345,0,0
-658,-321,0,0,0,0,0,0,0,0,0,-1,566,1345,0,0
-651,-321,0,0,0,0,0,0,0,0,0,-1,573,1345,0,0
-644,-321,4.85052,-1.42529,0,0,0,0,0,0,0,-1,580,1345,4.85055,1.42532
-637,-321,-5.80347,-4.35144,0,0,0,0,0,0,0,-1,587,1345,-5.80349,4.35146
-630,-321,-4.93616,-5.27136,0,0,0,0,0,0,0,-1,594,1345,-4.93616,5.2714
-623,-321,-3.5885,-6.03516,0,0,0,0,0,0,0,-1,601,1345,-3.58848,6.03512
-616,-321,-6.7724,0.174438,0,0,0,0,0,0,0,-1,608,1345,-6.77241,-0.174465
-609,-321,-7.18646,0.567261,0,0,0,0,0,0,0,-1,615,1345,-7.18645,-0.567207
-602,-321,-6.81085,0.800293,0,0,0,0,0,0,0,-1,622,1345,-6.81086,-0.800255
-595,-321,-6.43524,1.03333,0,0,0,0,0,0,0,-1,629,1345,-6.43526,-1.0333
-588,-321,-6.69012,1.79944,0.00986863,0.0170014,-0.00330213,0.0182954,0.00857465,-1.19733,0.0105698,0.0174043,636,1345,-6.6901,-1.79941
-581,-321,-6.66962,2.02905,-0.00179243,0.0086315,0.000611094,0.00866721,-0.00182813,1.51244,0.00647413,0.0121493,643,1345,-6.6696,-2.02907
-574,-321,-6.68762,2.21704,-0.00566156,0.00328109,0.00172008,0.00360052,-0.005981,1.38718,0.00558851,0.014578,650,1345,-6.68759,-2.21702
-567,-321,-6.66394,2.41943,-0.00367348,0.00200892,0.000863313,0.00213718,-0.00380174,1.4233,0.00347344,0.0201096,657,1345,-6.66396,-2.4194
-560,-321,-6.6438,2.65662,-0.00219978,0.000853234,-0.000111257,0.000857283,-0.00220382,-1.53442,0.00182344,0.0238951,664,1345,-6.64382,-2.6566
-553,-321,-6.64893,2.84192,-0.000933933,-0.000287824,-0.00100569,0.000445425,-0.00166718,-0.940806,0.00128591,0.0260036,671,1345,-6.6489,-2.84186
-546,-321,-6.65155,3.04761,-0.00109034,-0.000129336,-0.00243774,0.0018748,-0.00309448,-0.882705,0.00289768,0.0253657,678,1345,-6.65154,-3.0476
-539,-321,-6.66168,3.26746,-0.00270441,0.00111262,-0.00441097,0.00401026,-0.00560205,-0.989575,0.00557498,0.022664,685,1345,-6.6617,-3.26741
-532,-321,-6.60284,3.47681,-0.00700392,0.00712904,-0.00784722,0.0106226,-0.0104975,-1.15195,0.0121937,0.0169842,692,1345,-6.60284,-3.47675
-525,-321,-6.59595,3.7688,-0.0131722,0.0173381,-0.0125732,0.0218518,-0.0176859,-1.22614,0.0228693,0.0303152,699,1345,-6.59597,-3.76878
-518,-321,-6.83197,3.8429,-0.0207858,0.0289096,-0.018009,0.0347495,-0.0266257,-1.25722,0.0355383,0.0457095,706,1345,-6.83199,-3.8429
-511,-321,-7.0946,3.75061,-0.0300982,0.0439824,-0.0244262,0.0513113,-0.0374271,-1.2793,0.0514417,0.0448542,713,1345,-7.09461,-3.75057
-504,-321,-7.25305,3.80762,0,0,0,0,0,0,0,-1,720,1345,-7.25307,-3.80766
-497,-321,-8.29797,1.24951,0,0,0,0,0,0,0,-1,727,1345,-8.29799,-1.24955
-490,-321,-7.69165,2.32532,0,0,0,0,0,0,0,-1,734,1345,-7.69165,-2.32526
-483,-321,-1.05682,-5.67505,0,0,0,0,0,0,0,-1,741,1345,-1.05682,5.67499
-476,-321,-1.59528,-4.83813,0,0,0,0,0,0,0,-1,748,1345,-1.59525,4.83809
-469,-321,-12.0176,1.90051,0,0,0,0,0,0,0,-1,755,1345,-12.0176,-1.90052
-462,-321,-11.7949,2.13269,0,0,0,0,0,0,0,-1,762,1345,-11.7949,-2.13264
-455,-321,0,0,0,0,0,0,0,0,0,-1,769,1345,0,0
-448,-321,0,0,0,0,0,0,0,0,0,-1,776,1345,0,0
-441,-321,0,0,0,0,0,0,0,0,0,-1,783,1345,0,0
-434,-321,0,0,0,0,0,0,0,0,0,-1,790,1345,0,0
-427,-321,0,0,0,0,0,0,0,0,0,-1,797,1345,0,0
-420,-321,0,0,0,0,0,0,0,0,0,-1,804,1345,0,0
-413,-321,0,0,0,0,0,0,0,0,0,-1,811,1345,0,0
-406,-321,0,0,0,0,0,0,0,0,0,-1,818,1345,0,0
-399,-321,0,0,0,0,0,0,0,0,0,-1,825,1345,0,0
-392,-321,0,0,0,0,0,0,0,0,0,-1,832,1345,0,0
-385,-321,0,0,0,0,0,0,0,0,0,-1,839,1345,0,0
-378,-321,0,0,0,0,0,0,0,0,0,-1,846,1345,0,0
-371,-321,0,0,0,0,0,0,0,0,0,-1,853,1345,0,0
-364,-321,0,0,0,0,0,0,0,0,0,-1,860,1345,0,0
-357,-321,0,0,0,0,0,0,0,0,0,-1,867,1345,0,0
-350,-321,0,0,0,0,0,0,0,0,0,-1,874,1345,0,0
-343,-321,0,0,0,0,0,0,0,0,0,-1,881,1345,0,0
-336,-321,0,0,0,0,0,0,0,0,0,-1,888,1345,0,0
-329,-321,0,0,0,0,0,0,0,0,0,-1,895,1345,0,0
-322,-321,0,0,0,0,0,0,0,0,0,-1,902,1345,0,0
-315,-321,0,0,0,0,0,0,0,0,0,-1,909,1345,0,0
-308,-321,0,0,0,0,0,0,0,0,0,-1,916,1345,0,0
-301,-321,0,0,0,0,0,0,0,0,0,-1,923,1345,0,0
-294,-321,0,0,0,0,0,0,0,0,0,-1,930,1345,0,0
-287,-321,0,0,0,0,0,0,0,0,0,-1,937,1345,0,0
-280,-321,0,0,0,0,0,0,0,0,0,-1,944,1345,0,0
-273,-321,0,0,0,0,0,0,0,0,0,-1,951,1345,0,0
-266,-321,0,0,0,0,0,0,0,0,0,-1,958,1345,0,0
-259,-321,0,0,0,0,0,0,0,0,0,-1,965,1345,0,0
-252,-321,0,0,0,0,0,0,0,0,0,-1,972,1345,0,0
-245,-321,0,0,0,0,0,0,0,0,0,-1,979,1345,0,0
-238,-321,0,0,0,0,0,0,0,0,0,-1,986,1345,0,0
-231,-321,0,0,0,0,0,0,0,0,0,-1,993,1345,0,0
-224,-321,0,0,0,0,0,0,0,0,0,-1,1000,1345,0,0
-217,-321,0,0,0,0,0,0,0,0,0,-1,1007,1345,0,0
-210,-321,0,0,0,0,0,0,0,0,0,-1,1014,1345,0,0
-203,-321,0,0,0,0,0,0,0,0,0,-1,1021,1345,0,0
-196,-321,0,0,0,0,0,0,0,0,0,-1,1028,1345,0,0
-189,-321,0,0,0,0,0,0,0,0,0,-1,1035,1345,0,0
-182,-321,0,0,0,0,0,0,0,0,0,-1,1042,1345,0,0
-175,-321,0,0,0,0,0,0,0,0,0,-1,1049,1345,0,0
-168,-321,0,0,0,0,0,0,0,0,0,-1,1056,1345,0,0
-161,-321,0,0,0,0,0,0,0,0,0,-1,1063,1345,0,0
-154,-321,0,0,0,0,0,0,0,0,0,-1,1070,1345,0,0
-147,-321,0,0,0,0,0,0,0,0,0,-1,1077,1345,0,0
-140,-321,0,0,0,0,0,0,0,0,0,-1,1084,1345,0,0
-133,-321,0,0,0,0,0,0,0,0,0,-1,1091,1345,0,0
-126,-321,0,0,0,0,0,0,0,0,0,-1,1098,1345,0,0
-119,-321,0,0,0,0,0,0,0,0,0,-1,1105,1345,0,0
-112,-321,0,0,0,0,0,0,0,0,0,-1,1112,1345,0,0
-105,-321,0,0,0,0,0,0,0,0,0,-1,1119,1345,0,0
-98,-321,0,0,0,0,0,0,0,0,0,-1,1126,1345,0,0
-91,-321,0,0,0,0,0,0,0,0,0,-1,1133,1345,0,0
-84,-321,0,0,0,0,0,0,0,0,0,-1,1140,1345,0,0
-77,-321,0,0,0,0,0,0,0,0,0,-1,1147,1345,0,0
-70,-321,0,0,0,0,0,0,0,0,0,-1,1154,1345,0,0
-63,-321,0,0,0,0,0,0,0,0,0,-1,1161,1345,0,0
-56,-321,0,0,0,0,0,0,0,0,0,-1,1168,1345,0,0
-49,-321,0,0,0,0,0,0,0,0,0,-1,1175,1345,0,0
-42,-321,0,0,0,0,0,0,0,0,0,-1,1182,1345,0,0
-35,-321,0,0,0,0,0,0,0,0,0,-1,1189,1345,0,0
-28,-321,0,0,0,0,0,0,0,0,0,-1,1196,1345,0,0
-21,-321,0,0,0,0,0,0,0,0,0,-1,1203,1345,0,0
-14,-321,0,0,0,0,0,0,0,0,0,-1,1210,1345,0,0
-7,-321,0,0,0,0,0,0,0,0,0,-1,1217,1345,0,0
0,-321,0,0,0,0,0,0,0,0,0,-1,1224,1345,0,0
7,-321,0,0,0,0,0,0,0,0,0,-1,1231,1345,0,0
14,-321,0,0,0,0,0,0,0,0,0,-1,1238,1345,0,0
21,-321,0,0,0,0,0,0,0,0,0,-1,1245,1345,0,0
28,-321,0,0,0,0,0,0,0,0,0,-1,1252,1345,0,0
35,-321,0,0,0,0,0,0,0,0,0,-1,1259,1345,0,0
42,-321,0,0,0,0,0,0,0,0,0,-1,1266,1345,0,0
49,-321,0,0,0,0,0,0,0,0,0,-1,1273,1345,0,0
56,-321,0,0,0,0,0,0,0,0,0,-1,1280,1345,0,0
63,-321,0,0,0,0,0,0,0,0,0,-1,1287,1345,0,0
70,-321,0,0,0,0,0,0,0,0,0,-1,1294,1345,0,0
77,-321,0,0,0,0,0,0,0,0,0,-1,1301,1345,0,0
84,-321,0,0,0,0,0,0,0,0,0,-1,1308,1345,0,0
91,-321,0,0,0,0,0,0,0,0,0,-1,1315,1345,0,0
98,-321,0,0,0,0,0,0,0,0,0,-1,1322,1345,0,0
105,-321,0,0,0,0,0,0,0,0,0,-1,1329,1345,0,0
112,-321,0,0,0,0,0,0,0,0,0,-1,1336,1345,0,0
119,-321,0,0,0,0,0,0,0,0,0,-1,1343,1345,0,0
126,-321,0,0,0,0,0,0,0,0,0,-1,1350,1345,0,0
133,-321,0,0,0,0,0,0,0,0,0,-1,1357,1345,0,0
140,-321,0,0,0,0,0,0,0,0,0,-1,1364,1345,0,0
147,-321,0,0,0,0,0,0,0,0,0,-1,1371,1345,0,0
154,-321,0,0,0,0,0,0,0,0,0,-1,1378,1345,0,0
161,-321,0,0,0,0,0,0,0,0,0,-1,1385,1345,0,0
168,-321,0,0,0,0,0,0,0,0,0,-1,1392,1345,0,0
175,-321,0,0,0,0,0,0,0,0,0,-1,1399,1345,0,0
182,-321,0,0,0,0,0,0,0,0,0,-1,1406,1345,0,0
189,-321,0,0,0,0,0,0,0,0,0,-1,1413,1345,0,0
196,-321,0,0,0,0,0,0,0,0,0,-1,1420,1345,0,0
203,-321,0,0,0,0,0,0,0,0,0,-1,1427,1345,0,0
210,-321,0,0,0,0,0,0,0,0,0,-1,1434,1345,0,0
217,-321,0,0,0,0,0,0,0,0,0,-1,1441,1345,0,0
224,-321,0,0,0,0,0,0,0,0,0,-1,1448,1345,0,0
231,-321,0,0,0,0,0,0,0,0,0,-1,1455,1345,0,0
238,-321,0,0,0,0,0,0,0,0,0,-1,1462,1345,0,0
245,-321,0,0,0,0,0,0,0,0,0,-1,1469,1345,0,0
252,-321,0,0,0,0,0,0,0,0,0,-1,1476,1345,0,0
259,-321,0,0,0,0,0,0,0,0,0,-1,1483,1345,0,0
266,-321,0,0,0,0,0,0,0,0,0,-1,1490,1345,0,0
273,-321,0,0,0,0,0,0,0,0,0,-1,1497,1345,0,0
280,-321,0,0,0,0,0,0,0,0,0,-1,1504,1345,0,0
287,-321,0,0,0,0,0,0,0,0,0,-1,1511,1345,0,0
294,-321,0,0,0,0,0,0,0,0,0,-1,1518,1345,0,0
301,-321,0,0,0,0,0,0,0,0,0,-1,1525,1345,0,0
308,-321,0,0,0,0,0,0,0,0,0,-1,1532,1345,0,0
315,-321,0,0,0,0,0,0,0,0,0,-1,1539,1345,0,0
322,-321,0,0,0,0,0,0,0,0,0,-1,1546,1345,0,0
329,-321,0,0,0,0,0,0,0,0,0,-1,1553,1345,0,0
336,-321,0,0,0,0,0,0,0,0,0,-1,1560,1345,0,0
343,-321,0,0,0,0,0,0,0,0,0,-1,1567,1345,0,0
350,-321,0,0,0,0,0,0,0,0,0,-1,1574,1345,0,0
357,-321,0,0,0,0,0,0,0,0,0,-1,1581,1345,0,0
364,-321,0,0,0,0,0,0,0,0,0,-1,1588,1345,0,0
371,-321,0,0,0,0,0,0,0,0,0,-1,1595,1345,0,0
378,-321,0,0,0,0,0,0,0,0,0,-1,1602,1345,0,0
385,-321,0,0,0,0,0,0,0,0,0,-1,1609,1345,0,0
392,-321,0,0,0,0,0,0,0,0,0,-1,1616,1345,0,0
399,-321,0,0,0,0,0,0,0,0,0,-1,1623,1345,0,0
406,-321,0,0,0,0,0,0,0,0,0,-1,1630,1345,0,0
413,-321,0,0,0,0,0,0,0,0,0,-1,1637,1345,0,0
420,-321,0,0,0,0,0,0,0,0,0,-1,1644,1345,0,0
427,-321,0,0,0,0,0,0,0,0,0,-1,1651,1345,0,0
434,-321,0,0,0,0,0,0,0,0,0,-1,1658,1345,0,0
441,-321,0,0,0,0,0,0,0,0,0,-1,1665,1345,0,0
448,-321,0,0,0,0,0,0,0,0,0,-1,1672,1345,0,0
455,-321,0,0,0,0,0,0,0,0,0,-1,1679,1345,0,0
462,-321,0,0,0,0,0,0,0,0,0,-1,1686,1345,0,0
469,-321,0,0,0,0,0,0,0,0,0,-1,1693,1345,0,0
476,-321,0,0,0,0,0,0,0,0,0,-1,1700,1345,0,0
483,-321,0,0,0,0,0,0,0,0,0,-1,1707,1345,0,0
490,-321,0,0,0,0,0,0,0,0,0,-1,1714,1345,0,0
497,-321,0,0,0,0,0,0,0,0,0,-1,1721,1345,0,0
504,-321,0,0,0,0,0,0,0,0,0,-1,1728,1345,0,0
511,-321,0,0,0,0,0,0,0,0,0,-1,1735,1345,0,0
518,-321,0,0,0,0,0,0,0,0,0,-1,1742,1345,0,0
525,-321,0,0,0,0,0,0,0,0,0,-1,1749,1345,0,0
532,-321,0,0,0,0,0,0,0,0,0,-1,1756,1345,0,0
539,-321,0,0,0,0,0,0,0,0,0,-1,1763,1345,0,0
546,-321,0,0,0,0,0,0,0,0,0,-1,1770,1345,0,0
553,-321,0,0,0,0,0,0,0,0,0,-1,1777,1345,0,0
560,-321,0,0,0,0,0,0,0,0,0,-1,1784,1345,0,0
567,-321,0,0,0,0,0,0,0,0,0,-1,1791,1345,0,0
574,-321,0,0,0,0,0,0,0,0,0,-1,1798,1345,0,0
581,-321,19.4987,0.0806885,0,0,0,0,0,0,0,-1,1805,1345,19.4987,-0.0807342
588,-321,19.0768,0.284668,-0.0166257,0.0644122,0.0482056,0.086866,-0.0390795,1.13489,0.0744389,0.0484355,1812,1345,19.0768,-0.284717
595,-321,18.7844,0.505127,-0.00966312,0.048927,0.0420369,0.0708697,-0.0316058,1.08972,0.0605946,0.04567,1819,1345,18.7844,-0.505163
602,-321,18.3793,0.646729,-0.00361059,0.0389841,0.0337397,0.057586,-0.0222124,1.06693,0.0475566,0.0456416,1826,1345,18.3793,-0.646711
609,-321,19.4694,3.24805,0.00200525,0.0321498,0.0239681,0.0453908,-0.0112358,1.06608,0.034619,0.045403,1833,1345,19.4694,-3.24803
616,-321,19.0006,3.00049,0.00497358,0.0267175,0.0160904,0.0352646,-0.00357352,1.08251,0.0247869,0.0479611,1840,1345,19.0006,-3.00054
623,-321,14.2845,6.43958,0,0,0,0,0,0,0,-1,1847,1345,14.2846,-6.43961
630,-321,14.8093,6.07654,0,0,0,0,0,0,0,-1,1854,1345,14.8093,-6.07652
637,-321,15.2396,5.79248,0.00540947,0.0159898,0.00326435,0.0169159,0.00448338,1.29436,0.0101195,0.0442961,1861,1345,15.2396,-5.79248
644,-321,15.318,5.63208,0.00506652,0.0123001,0.00153063,0.0126107,0.00475596,1.37062,0.00735368,0.0489629,1868,1345,15.318,-5.63204
651,-321,14.7269,5.47205,0,0,0,0,0,0,0,-1,1875,1345,14.727,-5.47201
658,-321,14.4767,5.53809,0.00174567,0.00656315,-0.000612027,0.00663969,0.00166913,-1.44639,0.00398826,0.0298944,1882,1345,14.4767,-5.53803
665,-321,14.395,5.4231,-0.000337968,0.00477988,-0.000637547,0.0048581,-0.000416193,-1.44871,0.003386,0.0160202,1889,1345,14.395,-5.4231
672,-321,14.418,5.23315,-0.000923496,0.00407759,0.000300887,0.00409563,-0.000941533,1.51092,0.00309242,0.0119897,1896,1345,14.418,-5.2332
679,-321,14.4332,5.04602,-0.00179108,0.00221847,0.000376677,0.00225355,-0.00182616,1.47793,0.00235973,0.010498,1903,1345,14.4333,-5.04603
686,-321,14.405,4.88464,-0.00223939,0.00164294,0.000341525,0.00167275,-0.00226921,1.48372,0.00228456,0.0108965,1910,1345,14.405,-4.88463
693,-321,14.4015,4.72498,-0.00283422,0.00183065,0.000147609,0.00183532,-0.00283888,1.5392,0.00271931,0.011246,1917,1345,14.4015,-4.72498
700,-321,14.4126,4.53003,-0.00294628,0.00291156,-0.000774052,0.00301212,-0.00304684,-1.44161,0.00349816,0.0110602,1924,1345,14.4126,-4.52999
707,-321,14.4202,4.33716,-0.00302076,0.00504409,-0.00169319,0.00538515,-0.00336182,-1.37203,0.0050949,0.0129144,1931,1345,14.4202,-4.33719
714,-321,14.4227,4.16113,-0.00340379,0.0076792,-0.0025906,0.00825485,-0.00397943,-1.35214,0.0072058,0.012423,1938,1345,14.4227,-4.16109
721,-321,14.4133,3.96362,-0.00425047,0.0109351,-0.00353002,0.0117156,-0.00503094,-1.3532,0.00992204,0.0186383,1945,1345,14.4134,-3.96361
728,-321,14.288,3.84277,-0.00531094,0.0150846,-0.00464618,0.0160931,-0.00631949,-1.35704,0.0133437,0.0300708,1952,1345,14.2879,-3.84276
735,-321,14.306,3.67236,-0.00630667,0.0204762,-0.00615258,0.0218219,-0.00765242,-1.35546,0.0176603,0.0459461,1959,1345,14.306,-3.67234
742,-321,14.3101,3.47595,0,0,0,0,0,0,0,-1,1966,1345,14.31,-3.476
749,-321,12.9645,4.50598,0,0,0,0,0,0,0,-1,1973,1345,12.9645,-4.50604
756,-321,13.01,3.9364,0,0,0,0,0,0,0,-1,1980,1345,13.01,-3.93636
763,-321,14.4337,4.73682,0,0,0,0,0,0,0,-1,1987,1345,14.4337,-4.73677
770,-321,0,0,0,0,0,0,0,0,0,-1,1994,1345,0,0
777,-321,0,0,0,0,0,0,0,0,0,-1,2001,1345,0,0
784,-321,0,0,0,0,0,0,0,0,0,-1,2008,1345,0,0
791,-321,0,0,0,0,0,0,0,0,0,-1,2015,1345,0,0
798,-321,0,0,0,0,0,0,0,0,0,-1,2022,1345,0,0
805,-321,0,0,0,0,0,0,0,0,0,-1,2029,1345,0,0
812,-321,0,0,0,0,0,0,0,0,0,-1,2036,1345,0,0
-700,-328,0,0,0,0,0,0,0,0,0,-1,524,1352,0,0
-693,-328,0,0,0,0,0,0,0,0,0,-1,531,1352,0,0
-686,-328,0,0,0,0,0,0,0,0,0,-1,538,1352,0,0
-679,-328,0,0,0,0,0,0,0,0,0,-1,545,1352,0,0
-672,-328,0,0,0,0,0,0,0,0,0,-1,552,1352,0,0
-665,-328,0,0,0,0,0,0,0,0,0,-1,559,1352,0,0
-658,-328,0,0,0,0,0,0,0,0,0,-1,566,1352,0,0
-651,-328,0,0,0,0,0,0,0,0,0,-1,573,1352,0,0
-644,-328,0,0,0,0,0,0,0,0,0,-1,580,1352,0,0
-637,-328,5.49097,-1.34814,0,0,0,0,0,0,0,-1,587,1352,5.49098,1.34817
-630,-328,-4.72363,-6.18335,0,0,0,0,0,0,0,-1,594,1352,-4.72362,6.18336
-623,-328,-2.75555,0.0916748,0,0,0,0,0,0,0,-1,601,1352,-2.75556,-0.0917281
-616,-328,-6.49121,-4.58557,0,0,0,0,0,0,0,-1,608,1352,-6.49121,4.58558
-609,-328,-9.06738,-3.38647,0,0,0,0,0,0,0,-1,615,1352,-9.06736,3.38644
-602,-328,-6.6651,0.366943,0,0,0,0,0,0,0,-1,622,1352,-6.66513,-0.36696
-595,-328,-6.62036,1.56396,0,0,0,0,0,0,0,-1,629,1352,-6.62036,-1.564
-588,-328,-6.43823,1.76709,0.012884,0.0203375,0.000766013,0.0204154,0.0128061,1.46944,0.0119135,0.0344178,636,1352,-6.43824,-1.76711
-581,-328,-6.47583,2.01611,0.000415416,0.0112532,0.00330968,0.012184,-0.000515369,1.29665,0.00829976,0.0136589,643,1352,-6.47584,-2.01608
-574,-328,-6.46039,2.23755,-0.00452642,0.00531789,0.0034937,0.00643176,-0.00564029,1.26216,0.00697479,0.013446,650,1352,-6.46039,-2.23761
-567,-328,-6.44861,2.45862,-0.00349646,0.00341535,0.00201772,0.00396125,-0.00404236,1.30657,0.00462097,0.0190678,657,1352,-6.44862,-2.45862
-560,-328,-6.40802,2.7063,-0.00256628,0.00181966,0.000656856,0.00191592,-0.00266254,1.42528,0.00265507,0.0276658,664,1352,-6.40804,-2.70633
-553,-328,-6.40363,2.91541,-0.00174117,0.000322427,-0.000572468,0.000470598,-0.00188934,-1.31753,0.00144225,0.029031,671,1352,-6.4036,-2.9154
-546,-328,-6.44879,3.09692,-0.00167939,-6.56908e-05,-0.00205318,0.00133348,-0.00307857,-0.972617,0.00261287,0.0263294,678,1352,-6.44878,-3.09696
-539,-328,-6.48199,3.26331,-0.00264289,0.000343327,-0.0038801,0.00300769,-0.00530725,-0.969071,0.00486144,0.0215213,685,1352,-6.48201,-3.26335
-532,-328,-6.4657,3.47388,-0.00585977,0.00437908,-0.00679478,0.00776715,-0.00924784,-1.10825,0.009836,0.0150092,692,1352,-6.46572,-3.47391
-525,-328,-6.41602,3.7113,-0.0108086,0.0120939,-0.0108517,0.016419,-0.0151336,-1.19154,0.0182219,0.0121253,699,1352,-6.41601,-3.71132
-518,-328,-6.40234,3.88721,-0.017169,0.0210474,-0.0155854,0.0265974,-0.022719,-1.22869,0.0285022,0.0327024,706,1352,-6.40233,-3.88721
-511,-328,-6.57764,3.55188,-0.0252633,0.0332876,-0.0213351,0.0402369,-0.0322127,-1.25591,0.0419143,0.0420375,713,1352,-6.57762,-3.55186
-504,-328,-6.77692,3.24902,0,0,0,0,0,0,0,-1,720,1352,-6.77689,-3.24908
-497,-328,-6.75928,4.77991,0,0,0,0,0,0,0,-1,727,1352,-6.75929,-4.77989
-490,-328,-3.62909,-2.71887,0,0,0,0,0,0,0,-1,734,1352,-3.62906,2.71886
-483,-328,-11.6289,2.37073,0,0,0,0,0,0,0,-1,741,1352,-11.6289,-2.37074
-476,-328,-11.8256,2.27246,0,0,0,0,0,0,0,-1,748,1352,-11.8256,-2.27241
-469,-328,-12.079,2.03613,0,0,0,0,0,0,0,-1,755,1352,-12.079,-2.03619
-462,-328,-13.0927,1.54541,0,0,0,0,0,0,0,-1,762,1352,-13.0927,-1.54547
-455,-328,0,0,0,0,0,0,0,0,0,-1,769,1352,0,0
-448,-328,0,0,0,0,0,0,0,0,0,-1,776,1352,0,0
-441,-328,0,0,0,0,0,0,0,0,0,-1,783,1352,0,0
-434,-328,0,0,0,0,0,0,0,0,0,-1,790,1352,0,0
-427,-328,0,0,0,0,0,0,0,0,0,-1,797,1352,0,0
-420,-328,0,0,0,0,0,0,0,0,0,-1,804,1352,0,0
-413,-328,0,0,0,0,0,0,0,0,0,-1,811,1352,0,0
-406,-328,0,0,0,0,0,0,0,0,0,-1,818,1352,0,0
-399,-328,0,0,0,0,0,0,0,0,0,-1,825,1352,0,0
-392,-328,0,0,0,0,0,0,0,0,0,-1,832,1352,0,0
-385,-328,0,0,0,0,0,0,0,0,0,-1,839,1352,0,0
-378,-328,0,0,0,0,0,0,0,0,0,-1,846,1352,0,0
-371,-328,0,0,0,0,0,0,0,0,0,-1,853,1352,0,0
-364,-328,0,0,0,0,0,0,0,0,0,-1,860,1352,0,0
-357,-328,0,0,0,0,0,0,0,0,0,-1,867,1352,0,0
-350,-328,0,0,0,0,0,0,0,0,0,-1,874,1352,0,0
-343,-328,0,0,0,0,0,0,0,0,0,-1,881,1352,0,0
-336,-328,0,0,0,0,0,0,0,0,0,-1,888,1352,0,0
-329,-328,0,0,0,0,0,0,0,0,0,-1,895,1352,0,0
-322,-328,0,0,0,0,0,0,0,0,0,-1,902,1352,0,0
-315,-328,0,0,0,0,0,0,0,0,0,-1,909,1352,0,0
-308,-328,0,0,0,0,0,0,0,0,0,-1,916,1352,0,0
-301,-328,0,0,0,0,0,0,0,0,0,-1,923,1352,0,0
-294,-328,0,0,0,0,0,0,0,0,0,-1,930,1352,0,0
-287,-328,0,0,0,0,0,0,0,0,0,-1,937,1352,0,0
-280,-328,0,0,0,0,0,0,0,0,0,-1,944,1352,0,0
-273,-328,0,0,0,0,0,0,0,0,0,-1,951,1352,0,0
-266,-328,0,0,0,0,0,0,0,0,0,-1,958,1352,0,0
-259,-328,0,0,0,0,0,0,0,0,0,-1,965,1352,0,0
-252,-328,0,0,0,0,0,0,0,0,0,-1,972,1352,0,0
-245,-328,0,0,0,0,0,0,0,0,0,-1,979,1352,0,0
-238,-328,0,0,0,0,0,0,0,0,0,-1,986,1352,0,0
-231,-328,0,0,0,0,0,0,0,0,0,-1,993,1352,0,0
-224,-328,0,0,0,0,0,0,0,0,0,-1,1000,1352,0,0
-217,-328,0,0,0,0,0,0,0,0,0,-1,1007,1352,0,0
-210,-328,0,0,0,0,0,0,0,0,0,-1,1014,1352,0,0
-203,-328,0,0,0,0,0,0,0,0,0,-1,1021,1352,0,0
-196,-328,0,0,0,0,0,0,0,0,0,-1,1028,1352,0,0
-189,-328,0,0,0,0,0,0,0,0,0,-1,1035,1352,0,0
-182,-328,0,0,0,0,0,0,0,0,0,-1,1042,1352,0,0
-175,-328,0,0,0,0,0,0,0,0,0,-1,1049,1352,0,0
-168,-328,0,0,0,0,0,0,0,0,0,-1,1056,1352,0,0
-161,-328,0,0,0,0,0,0,0,0,0,-1,1063,1352,0,0
-154,-328,0,0,0,0,0,0,0,0,0,-1,1070,1352,0,0
-147,-328,0,0,0,0,0,0,0,0,0,-1,1077,1352,0,0
-140,-328,0,0,0,0,0,0,0,0,0,-1,1084,1352,0,0
-133,-328,0,0,0,0,0,0,0,0,0,-1,1091,1352,0,0
-126,-328,0,0,0,0,0,0,0,0,0,-1,1098,1352,0,0
-119,-328,0,0,0,0,0,0,0,0,0,-1,1105,1352,0,0
-112,-328,0,0,0,0,0,0,0,0,0,-1,1112,1352,0,0
-105,-328,0,0,0,0,0,0,0,0,0,-1,1119,1352,0,0
-98,-328,0,0,0,0,0,0,0,0,0,-1,1126,1352,0,0
-91,-328,0,0,0,0,0,0,0,0,0,-1,1133,1352,0,0
-84,-328,0,0,0,0,0,0,0,0,0,-1,1140,1352,0,0
-77,-328,0,0,0,0,0,0,0,0,0,-1,1147,1352,0,0
-70,-328,0,0,0,0,0,0,0,0,0,-1,1154,1352,0,0
-63,-328,0,0,0,0,0,0,0,0,0,-1,1161,1352,0,0
-56,-328,0,0,0,0,0,0,0,0,0,-1,1168,1352,0,0
-49,-328,0,0,0,0,0,0,0,0,0,-1,1175,1352,0,0
-42,-328,0,0,0,0,0,0,0,0,0,-1,1182,1352,0,0
-35,-328,0,0,0,0,0,0,0,0,0,-1,1189,1352,0,0
-28,-328,0,0,0,0,0,0,0,0,0,-1,1196,1352,0,0
-21,-328,0,0,0,0,0,0,0,0,0,-1,1203,1352,0,0
-14,-328,0,0,0,0,0,0,0,0,0,-1,1210,1352,0,0
-7,-328,0,0,0,0,0,0,0,0,0,-1,1217,1352,0,0
0,-328,0,0,0,0,0,0,0,0,0,-1,1224,1352,0,0
7,-328,0,0,0,0,0,0,0,0,0,-1,1231,1352,0,0
14,-328,0,0,0,0,0,0,0,0,0,-1,1238,1352,0,0
21,-328,0,0,0,0,0,0,0,0,0,-1,1245,1352,0,0
28,-328,0,0,0,0,0,0,0,0,0,-1,1252,1352,0,0
35,-328,0,0,0,0,0,0,0,0,0,-1,1259,1352,0,0
42,-328,0,0,0,0,0,0,0,0,0,-1,1266,1352,0,0
49,-328,0,0,0,0,0,0,0,0,0,-1,1273,1352,0,0
56,-328,0,0,0,0,0,0,0,0,0,-1,1280,1352,0,0
63,-328,0,0,0,0,0,0,0,0,0,-1,1287,1352,0,0
70,-328,0,0,0,0,0,0,0,0,0,-1,1294,1352,0,0
77,-328,0,0,0,0,0,0,0,0,0,-1,1301,1352,0,0
84,-328,0,0,0,0,0,0,0,0,0,-1,1308,1352,0,0
91,-328,0,0,0,0,0,0,0,0,0,-1,1315,1352,0,0
98,-328,0,0,0,0,0,0,0,0,0,-1,1322,1352,0,0
105,-328,0,0,0,0,0,0,0,0,0,-1,1329,1352,0,0
112,-328,0,0,0,0,0,0,0,0,0,-1,1336,1352,0,0
119,-328,0,0,0,0,0,0,0,0,0,-1,1343,1352,0,0
126,-328,0,0,0,0,0,0,0,0,0,-1,1350,1352,0,0
133,-328,0,0,0,0,0,0,0,0,0,-1,1357,1352,0,0
140,-328,0,0,0,0,0,0,0,0,0,-1,1364,1352,0,0
147,-328,0,0,0,0,0,0,0,0,0,-1,1371,1352,0,0
154,-328,0,0,0,0,0,0,0,0,0,-1,1378,1352,0,0
161,-328,0,0,0,0,0,0,0,0,0,-1,1385,1352,0,0
168,-328,0,0,0,0,0,0,0,0,0,-1,1392,1352,0,0
175,-328,0,0,0,0,0,0,0,0,0,-1,1399,1352,0,0
182,-328,0,0,0,0,0,0,0,0,0,-1,1406,1352,0,0
189,-328,0,0,0,0,0,0,0,0,0,-1,1413,1352,0,0
196,-328,0,0,0,0,0,0,0,0,0,-1,1420,1352,0,0
203,-328,0,0,0,0,0,0,0,0,0,-1,1427,1352,0,0
210,-328,0,0,0,0,0,0,0,0,0,-1,1434,1352,0,0
217,-328,0,0,0,0,0,0,0,0,0,-1,1441,1352,0,0
224,-328,0,0,0,0,0,0,0,0,0,-1,1448,1352,0,0
231,-328,0,0,0,0,0,0,0,0,0,-1,1455,1352,0,0
238,-328,0,0,0,0,0,0,0,0,0,-1,1462,1352,0,0
245,-328,0,0,0,0,0,0,0,0,0,-1,1469,1352,0,0
252,-328,0,0,0,0,0,0,0,0,0,-1,1476,1352,0,0
259,-328,0,0,0,0,0,0,0,0,0,-1,1483,1352,0,0
266,-328,0,0,0,0,0,0,0,0,0,-1,1490,1352,0,0
273,-328,0,0,0,0,0,0,0,0,0,-1,1497,1352,0,0
280,-328,0,0,0,0,0,0,0,0,0,-1,1504,1352,0,0
287,-328,0,0,0,0,0,0,0,0,0,-1,1511,1352,0,0
294,-328,0,0,0,0,0,0,0,0,0,-1,1518,1352,0,0
301,-328,0,0,0,0,0,0,0,0,0,-1,1525,1352,0,0
308,-328,0,0,0,0,0,0,0,0,0,-1,1532,1352,0,0
315,-328,0,0,0,0,0,0,0,0,0,-1,1539,1352,0,0
322,-328,0,0,0,0,0,0,0,0,0,-1,1546,1352,0,0
329,-328,0,0,0,0,0,0,0,0,0,-1,1553,1352,0,0
336,-328,0,0,0,0,0,0,0,0,0,-1,1560,1352,0,0
343,-328,0,0,0,0,0,0,0,0,0,-1,1567,1352,0,0
350,-328,0,0,0,0,0,0,0,0,0,-1,1574,1352,0,0
357,-328,0,0,0,0,0,0,0,0,0,-1,1581,1352,0,0
364,-328,0,0,0,0,0,0,0,0,0,-1,1588,1352,0,0
371,-328,0,0,0,0,0,0,0,0,0,-1,1595,1352,0,0
378,-328,0,0,0,0,0,0,0,0,0,-1,1602,1352,0,0
385,-328,0,0,0,0,0,0,0,0,0,-1,1609,1352,0,0
392,-328,0,0,0,0,0,0,0,0,0,-1,1616,1352,0,0
399,-328,0,0,0,0,0,0,0,0,0,-1,1623,1352,0,0
406,-328,0,0,0,0,0,0,0,0,0,-1,1630,1352,0,0
413,-328,0,0,0,0,0,0,0,0,0,-1,1637,1352,0,0
420,-328,0,0,0,0,0,0,0,0,0,-1,1644,1352,0,0
427,-328,0,0,0,0,0,0,0,0,0,-1,1651,1352,0,0
434,-328,0,0,0,0,0,0,0,0,0,-1,1658,1352,0,0
441,-328,0,0,0,0,0,0,0,0,0,-1,1665,1352,0,0
448,-328,0,0,0,0,0,0,0,0,0,-1,1672,1352,0,0
455,-328,0,0,0,0,0,0,0,0,0,-1,1679,1352,0,0
462,-328,0,0,0,0,0,0,0,0,0,-1,1686,1352,0,0
469,-328,0,0,0,0,0,0,0,0,0,-1,1693,1352,0,0
476,-328,0,0,0,0,0,0,0,0,0,-1,1700,1352,0,0
483,-328,0,0,0,0,0,0,0,0,0,-1,1707,1352,0,0
490,-328,0,0,0,0,0,0,0,0,0,-1,1714,1352,0,0
497,-328,0,0,0,0,0,0,0,0,0,-1,1721,1352,0,0
504,-328,0,0,0,0,0,0,0,0,0,-1,1728,1352,0,0
511,-328,0,0,0,0,0,0,0,0,0,-1,1735,1352,0,0
518,-328,0,0,0,0,0,0,0,0,0,-1,1742,1352,0,0
525,-328,0,0,0,0,0,0,0,0,0,-1,1749,1352,0,0
532,-328,0,0,0,0,0,0,0,0,0,-1,1756,1352,0,0
539,-328,0,0,0,0,0,0,0,0,0,-1,1763,1352,0,0
546,-328,0,0,0,0,0,0,0,0,0,-1,1770,1352,0,0
553,-328,0,0,0,0,0,0,0,0,0,-1,1777,1352,0,0
560,-328,0,0,0,0,0,0,0,0,0,-1,1784,1352,0,0
567,-328,0,0,0,0,0,0,0,0,0,-1,1791,1352,0,0
574,-328,20.6891,6.87292,0,0,0,0,0,0,0,-1,1798,1352,20.6891,-6.87298
581,-328,19.3993,-0.269775,0,0,0,0,0,0,0,-1,1805,1352,19.3993,0.269778
588,-328,19.0404,-0.0651855,-0.0219617,0.0638924,0.0591305,0.0940348,-0.0521041,1.09937,0.0855232,0.0494367,1812,1352,19.0404,0.0652173
595,-328,18.9905,0.358643,-0.0147429,0.0474939,0.0518409,0.076839,-0.044088,1.05571,0.0706656,0.0473076,1819,1352,18.9904,-0.358612
602,-328,18.7444,-0.0479736,0,0,0,0,0,0,0,-1,1826,1352,18.7443,0.0479613
609,-328,19.0767,3.02466,-0.000810158,0.0308497,0.0320911,0.0508028,-0.0207633,1.01453,0.0425147,0.0479027,1833,1352,19.0767,-3.0246
616,-328,18.4426,3.5094,0.00269405,0.0249385,0.0228257,0.0392076,-0.011575,1.0121,0.0307321,0.0493808,1840,1352,18.4426,-3.50945
623,-328,17.7267,3.05786,0,0,0,0,0,0,0,-1,1847,1352,17.7267,-3.05781
630,-328,14.5042,5.95361,0,0,0,0,0,0,0,-1,1854,1352,14.5041,-5.95363
637,-328,15.2317,5.72119,0.00340243,0.0134978,0.00695904,0.0170471,-0.000146828,1.09916,0.011414,0.0466647,1861,1352,15.2317,-5.72113
644,-328,14.874,5.65918,0.00303512,0.00980008,0.00450883,0.0120542,0.000781042,1.10721,0.00778882,0.0444719,1868,1352,14.874,-5.65918
651,-328,14.453,5.61646,0.00233268,0.00692849,0.00296016,0.00837797,0.000883196,1.11545,0.00531543,0.0445666,1875,1352,14.453,-5.61643
658,-328,14.215,5.60803,-6.56121e-05,0.00443905,0.00119791,0.00473779,-0.000364358,1.32639,0.00328672,0.0207484,1882,1352,14.215,-5.60804
665,-328,14.196,5.41858,-0.00167281,0.00297192,0.000561088,0.00303874,-0.00173963,1.45227,0.00279257,0.0127245,1889,1352,14.196,-5.41855
672,-328,14.2098,5.22888,-0.00182669,0.00260282,0.000858569,0.00276341,-0.00198728,1.38589,0.00275499,0.0106815,1896,1352,14.2098,-5.2289
679,-328,14.2456,5.04651,-0.00232946,0.00127288,0.000394353,0.00131554,-0.00237213,1.46303,0.00215801,0.0128618,1903,1352,14.2456,-5.04652
686,-328,14.2346,4.87634,-0.00243962,0.00123749,-2.48339e-05,0.00123766,-0.00243979,-1.56404,0.00216066,0.0119097,1910,1352,14.2346,-4.87636
693,-328,14.2261,4.71765,-0.00274725,0.00188103,-0.000438664,0.00192223,-0.00278846,-1.47713,0.002735,0.00816332,1917,1352,14.226,-4.71759
700,-328,14.2371,4.53906,-0.00273158,0.00323914,-0.00145807,0.00357618,-0.00306862,-1.34363,0.00384011,0.0124264,1924,1352,14.2371,-4.53911
707,-328,14.2396,4.33655,-0.00291256,0.00556635,-0.00241312,0.00620503,-0.00355123,-1.31206,0.00570182,0.0149964,1931,1352,14.2396,-4.33652
714,-328,14.267,4.16113,-0.00365415,0.00840667,-0.00334462,0.00927208,-0.00451956,-1.3176,0.00811866,0.013375,1938,1352,14.267,-4.1611
721,-328,14.1844,3.97144,-0.00494533,0.0121595,-0.0043143,0.0131861,-0.0059719,-1.33719,0.0113193,0.0260093,1945,1352,14.1844,-3.97144
728,-328,14.1726,3.71948,-0.00657368,0.0171439,-0.00544162,0.0183328,-0.00776258,-1.35569,0.0154727,0.0398471,1952,1352,14.1725,-3.71952
735,-328,13.7078,3.3573,-0.00834884,0.0238292,-0.00688497,0.0252404,-0.00976009,-1.36862,0.020856,0.0489618,1959,1352,13.7078,-3.35733
742,-328,13.3463,3.29358,-0.010127,0.0325962,-0.00873717,0.0343139,-0.0118448,-1.37667,0.0276822,0.049132,1966,1352,13.3463,-3.29352
749,-328,13.005,2.97852,0,0,0,0,0,0,0,-1,1973,1352,13.005,-2.97851
756,-328,12.949,2.30701,0,0,0,0,0,0,0,-1,1980,1352,12.9489,-2.30705
763,-328,0,0,0,0,0,0,0,0,0,-1,1987,1352,0,0
770,-328,0,0,0,0,0,0,0,0,0,-1,1994,1352,0,0
777,-328,0,0,0,0,0,0,0,0,0,-1,2001,1352,0,0
784,-328,0,0,0,0,0,0,0,0,0,-1,2008,1352,0,0
791,-328,0,0,0,0,0,0,0,0,0,-1,2015,1352,0,0
798,-328,0,0,0,0,0,0,0,0,0,-1,2022,1352,0,0
805,-328,0,0,0,0,0,0,0,0,0,-1,2029,1352,0,0
812,-328,0,0,0,0,0,0,0,0,0,-1,2036,1352,0,0
-700,-335,0,0,0,0,0,0,0,0,0,-1,524,1359,0,0
-693,-335,0,0,0,0,0,0,0,0,0,-1,531,1359,0,0
-686,-335,0,0,0,0,0,0,0,0,0,-1,538,1359,0,0
-679,-335,0,0,0,0,0,0,0,0,0,-1,545,1359,0,0
-672,-335,0,0,0,0,0,0,0,0,0,-1,552,1359,0,0
-665,-335,0,0,0,0,0,0,0,0,0,-1,559,1359,0,0
-658,-335,0,0,0,0,0,0,0,0,0,-1,566,1359,0,0
-651,-335,0,0,0,0,0,0,0,0,0,-1,573,1359,0,0
-644,-335,0,0,0,0,0,0,0,0,0,-1,580,1359,0,0
-637,-335,-1.77557,0.797119,0,0,0,0,0,0,0,-1,587,1359,-1.77555,-0.797116
-630,-335,-1.81323,0.413208,0,0,0,0,0,0,0,-1,594,1359,-1.8132,-0.413216
-623,-335,-1.99255,0.229492,0,0,0,0,0,0,0,-1,601,1359,-1.99257,-0.22949
-616,-335,-2.10559,0.0615234,0,0,0,0,0,0,0,-1,608,1359,-2.10557,-0.0614734
-609,-335,-7.664,-2.79272,0,0,0,0,0,0,0,-1,615,1359,-7.66403,2.79271
-602,-335,-6.85748,2.09753,0,0,0,0,0,0,0,-1,622,1359,-6.85747,-2.09748
-595,-335,-6.55334,2.09802,0,0,0,0,0,0,0,-1,629,1359,-6.55336,-2.09803
-588,-335,-6.15302,2.01294,0.0203583,0.0242701,0.00707059,0.0296503,0.0149781,0.920334,0.0171189,0.0369286,636,1359,-6.15299,-2.01294
-581,-335,-6.26337,2.04041,0.00615352,0.014337,0.00754622,0.0188294,0.00166111,1.03383,0.0120375,0.0190313,643,1359,-6.26338,-2.04038
-574,-335,-6.25604,2.22375,-0.000782108,0.00764965,0.00628314,0.0110002,-0.0041327,1.08089,0.00903193,0.0116892,650,1359,-6.25602,-2.2237
-567,-335,-6.2204,2.46252,-0.00158984,0.00489406,0.00388665,0.00671337,-0.00340914,1.133,0.00594711,0.01637,657,1359,-6.22042,-2.46249
-560,-335,-6.16888,2.67163,-0.0017535,0.00276939,0.00193327,0.00348312,-0.00246723,1.21713,0.00345209,0.0249098,664,1359,-6.16888,-2.67158
-553,-335,-6.2196,2.89307,-0.00190259,0.000830539,0.000191087,0.000843834,-0.00191588,1.50133,0.00163291,0.025933,671,1359,-6.21963,-2.89304
-546,-335,-6.25671,3.09985,-0.0019732,-9.9315e-06,-0.00146528,0.00077214,-0.00275527,-1.08053,0.00214115,0.0231782,678,1359,-6.25672,-3.09989
-539,-335,-6.26654,3.27771,-0.00242792,-0.000227604,-0.00319589,0.00205219,-0.00470771,-0.951166,0.00400195,0.0201569,685,1359,-6.26657,-3.27767
-532,-335,-6.28973,3.49023,-0.00476182,0.00207901,-0.00565794,0.00527006,-0.00795287,-1.05727,0.00768646,0.0157338,692,1359,-6.28976,-3.49025
-525,-335,-6.22864,3.71997,-0.00860072,0.00742304,-0.00905834,0.0115043,-0.012682,-1.14748,0.0139695,0.0106403,699,1359,-6.22864,-3.71996
-518,-335,-6.21368,3.89795,-0.0138062,0.0135008,-0.0130513,0.0187353,-0.0190406,-1.18937,0.0218102,0.017582,706,1359,-6.2137,-3.89794
-511,-335,-6.33386,3.82983,-0.0207068,0.0220242,-0.0180674,0.0286393,-0.0273219,-1.21982,0.0323122,0.0416489,713,1359,-6.33387,-3.82985
-504,-335,-6.60187,3.81555,0,0,0,0,0,0,0,-1,720,1359,-6.60187,-3.81554
-497,-335,-6.92548,3.99524,0,0,0,0,0,0,0,-1,727,1359,-6.92545,-3.99523
-490,-335,-10.4026,4.84692,0,0,0,0,0,0,0,-1,734,1359,-10.4026,-4.84693
-483,-335,-10.6708,3.99927,0,0,0,0,0,0,0,-1,741,1359,-10.6708,-3.99932
-476,-335,-11.0725,3.05066,0,0,0,0,0,0,0,-1,748,1359,-11.0725,-3.05071
-469,-335,-11.4731,2.27161,0,0,0,0,0,0,0,-1,755,1359,-11.4731,-2.27161
-462,-335,-12.3464,2.01086,0,0,0,0,0,0,0,-1,762,1359,-12.3464,-2.0109
-455,-335,-13.5185,2.03076,0,0,0,0,0,0,0,-1,769,1359,-13.5185,-2.03075
-448,-335,0,0,0,0,0,0,0,0,0,-1,776,1359,0,0
-441,-335,0,0,0,0,0,0,0,0,0,-1,783,1359,0,0
-434,-335,0,0,0,0,0,0,0,0,0,-1,790,1359,0,0
-427,-335,0,0,0,0,0,0,0,0,0,-1,797,1359,0,0
-420,-335,0,0,0,0,0,0,0,0,0,-1,804,1359,0,0
-413,-335,0,0,0,0,0,0,0,0,0,-1,811,1359,0,0
-406,-335,0,0,0,0,0,0,0,0,0,-1,818,1359,0,0
-399,-335,0,0,0,0,0,0,0,0,0,-1,825,1359,0,0
-392,-335,0,0,0,0,0,0,0,0,0,-1,832,1359,0,0
-385,-335,0,0,0,0,0,0,0,0,0,-1,839,1359,0,0
-378,-335,0,0,0,0,0,0,0,0,0,-1,846,1359,0,0
-371,-335,0,0,0,0,0,0,0,0,0,-1,853,1359,0,0
-364,-335,0,0,0,0,0,0,0,0,0,-1,860,1359,0,0
-357,-335,0,0,0,0,0,0,0,0,0,-1,867,1359,0,0
-350,-335,0,0,0,0,0,0,0,0,0,-1,874,1359,0,0
-343,-335,0,0,0,0,0,0,0,0,0,-1,881,1359,0,0
-336,-335,0,0,0,0,0,0,0,0,0,-1,888,1359,0,0
-329,-335,0,0,0,0,0,0,0,0,0,-1,895,1359,0,0
-322,-335,0,0,0,0,0,0,0,0,0,-1,902,1359,0,0
-315,-335,0,0,0,0,0,0,0,0,0,-1,909,1359,0,0
-308,-335,0,0,0,0,0,0,0,0,0,-1,916,1359,0,0
-301,-335,0,0,0,0,0,0,0,0,0,-1,923,1359,0,0
-294,-335,0,0,0,0,0,0,0,0,0,-1,930,1359,0,0
-287,-335,0,0,0,0,0,0,0,0,0,-1,937,1359,0,0
-280,-335,0,0,0,0,0,0,0,0,0,-1,944,1359,0,0
-273,-335,0,0,0,0,0,0,0,0,0,-1,951,1359,0,0
-266,-335,0,0,0,0,0,0,0,0,0,-1,958,1359,0,0
-259,-335,0,0,0,0,0,0,0,0,0,-1,965,1359,0,0
-252,-335,0,0,0,0,0,0,0,0,0,-1,972,1359,0,0
-245,-335,0,0,0,0,0,0,0,0,0,-1,979,1359,0,0
-238,-335,0,0,0,0,0,0,0,0,0,-1,986,1359,0,0
-231,-335,0,0,0,0,0,0,0,0,0,-1,993,1359,0,0
-224,-335,0,0,0,0,0,0,0,0,0,-1,1000,1359,0,0
-217,-335,0,0,0,0,0,0,0,0,0,-1,1007,1359,0,0
-210,-335,0,0,0,0,0,0,0,0,0,-1,1014,1359,0,0
-203,-335,0,0,0,0,0,0,0,0,0,-1,1021,1359,0,0
-196,-335,0,0,0,0,0,0,0,0,0,-1,1028,1359,0,0
-189,-335,0,0,0,0,0,0,0,0,0,-1,1035,1359,0,0
-182,-335,0,0,0,0,0,0,0,0,0,-1,1042,1359,0,0
-175,-335,0,0,0,0,0,0,0,0,0,-1,1049,1359,0,0
-168,-335,0,0,0,0,0,0,0,0,0,-1,1056,1359,0,0
-161,-335,0,0,0,0,0,0,0,0,0,-1,1063,1359,0,0
-154,-335,0,0,0,0,0,0,0,0,0,-1,1070,1359,0,0
-147,-335,0,0,0,0,0,0,0,0,0,-1,1077,1359,0,0
-140,-335,0,0,0,0,0,0,0,0,0,-1,1084,1359,0,0
-133,-335,0,0,0,0,0,0,0,0,0,-1,1091,1359,0,0
-126,-335,0,0,0,0,0,0,0,0,0,-1,1098,1359,0,0
-119,-335,0,0,0,0,0,0,0,0,0,-1,1105,1359,0,0
-112,-335,0,0,0,0,0,0,0,0,0,-1,1112,1359,0,0
-105,-335,0,0,0,0,0,0,0,0,0,-1,1119,1359,0,0
-98,-335,0,0,0,0,0,0,0,0,0,-1,1126,1359,0,0
-91,-335,0,0,0,0,0,0,0,0,0,-1,1133,1359,0,0
-84,-335,0,0,0,0,0,0,0,0,0,-1,1140,1359,0,0
-77,-335,0,0,0,0,0,0,0,0,0,-1,1147,1359,0,0
-70,-335,0,0,0,0,0,0,0,0,0,-1,1154,1359,0,0
-63,-335,0,0,0,0,0,0,0,0,0,-1,1161,1359,0,0
-56,-335,0,0,0,0,0,0,0,0,0,-1,1168,1359,0,0
-49,-335,0,0,0,0,0,0,0,0,0,-1,1175,1359,0,0
-42,-335,0,0,0,0,0,0,0,0,0,-1,1182,1359,0,0
-35,-335,0,0,0,0,0,0,0,0,0,-1,1189,1359,0,0
-28,-335,0,0,0,0,0,0,0,0,0,-1,1196,1359,0,0
-21,-335,0,0,0,0,0,0,0,0,0,-1,1203,1359,0,0
-14,-335,0,0,0,0,0,0,0,0,0,-1,1210,1359,0,0
-7,-335,0,0,0,0,0,0,0,0,0,-1,1217,1359,0,0
0,-335,0,0,0,0,0,0,0,0,0,-1,1224,1359,0,0
7,-335,0,0,0,0,0,0,0,0,0,-1,1231,1359,0,0
14,-335,0,0,0,0,0,0,0,0,0,-1,1238,1359,0,0
21,-335,0,0,0,0,0,0,0,0,0,-1,1245,1359,0,0
28,-335,0,0,0,0,0,0,0,0,0,-1,1252,1359,0,0
35,-335,0,0,0,0,0,0,0,0,0,-1,1259,1359,0,0
42,-335,0,0,0,0,0,0,0,0,0,-1,1266,1359,0,0
49,-335,0,0,0,0,0,0,0,0,0,-1,1273,1359,0,0
56,-335,0,0,0,0,0,0,0,0,0,-1,1280,1359,0,0
63,-335,0,0,0,0,0,0,0,0,0,-1,1287,1359,0,0
70,-335,0,0,0,0,0,0,0,0,0,-1,1294,1359,0,0
77,-335,0,0,0,0,0,0,0,0,0,-1,1301,1359,0,0
84,-335,0,0,0,0,0,0,0,0,0,-1,1308,1359,0,0
91,-335,0,0,0,0,0,0,0,0,0,-1,1315,1359,0,0
98,-335,0,0,0,0,0,0,0,0,0,-1,1322,1359,0,0
105,-335,0,0,0,0,0,0,0,0,0,-1,1329,1359,0,0
112,-335,0,0,0,0,0,0,0,0,0,-1,1336,1359,0,0
119,-335,0,0,0,0,0,0,0,0,0,-1,1343,1359,0,0
126,-335,0,0,0,0,0,0,0,0,0,-1,1350,1359,0,0
133,-335,0,0,0,0,0,0,0,0,0,-1,1357,1359,0,0
140,-335,0,0,0,0,0,0,0,0,0,-1,1364,1359,0,0
147,-335,0,0,0,0,0,0,0,0,0,-1,1371,1359,0,0
154,-335,0,0,0,0,0,0,0,0,0,-1,1378,1359,0,0
161,-335,0,0,0,0,0,0,0,0,0,-1,1385,1359,0,0
168,-335,0,0,0,0,0,0,0,0,0,-1,1392,1359,0,0
175,-335,0,0,0,0,0,0,0,0,0,-1,1399,1359,0,0
182,-335,0,0,0,0,0,0,0,0,0,-1,1406,1359,0,0
189,-335,0,0,0,0,0,0,0,0,0,-1,1413,1359,0,0
196,-335,0,0,0,0,0,0,0,0,0,-1,1420,1359,0,0
203,-335,0,0,0,0,0,0,0,0,0,-1,1427,1359,0,0
210,-335,0,0,0,0,0,0,0,0,0,-1,1434,1359,0,0
217,-335,0,0,0,0,0,0,0,0,0,-1,1441,1359,0,0
224,-335,0,0,0,0,0,0,0,0,0,-1,1448,1359,0,0
231,-335,0,0,0,0,0,0,0,0,0,-1,1455,1359,0,0
238,-335,0,0,0,0,0,0,0,0,0,-1,1462,1359,0,0
245,-335,0,0,0,0,0,0,0,0,0,-1,1469,1359,0,0
252,-335,0,0,0,0,0,0,0,0,0,-1,1476,1359,0,0
259,-335,0,0,0,0,0,0,0,0,0,-1,1483,1359,0,0
266,-335,0,0,0,0,0,0,0,0,0,-1,1490,1359,0,0
273,-335,0,0,0,0,0,0,0,0,0,-1,1497,1359,0,0
280,-335,0,0,0,0,0,0,0,0,0,-1,1504,1359,0,0
287,-335,0,0,0,0,0,0,0,0,0,-1,1511,1359,0,0
294,-335,0,0,0,0,0,0,0,0,0,-1,1518,1359,0,0
301,-335,0,0,0,0,0,0,0,0,0,-1,1525,1359,0,0
308,-335,0,0,0,0,0,0,0,0,0,-1,1532,1359,0,0
315,-335,0,0,0,0,0,0,0,0,0,-1,1539,1359,0,0
322,-335,0,0,0,0,0,0,0,0,0,-1,1546,1359,0,0
329,-335,0,0,0,0,0,0,0,0,0,-1,1553,1359,0,0
336,-335,0,0,0,0,0,0,0,0,0,-1,1560,1359,0,0
343,-335,0,0,0,0,0,0,0,0,0,-1,1567,1359,0,0
350,-335,0,0,0,0,0,0,0,0,0,-1,1574,1359,0,0
357,-335,0,0,0,0,0,0,0,0,0,-1,1581,1359,0,0
364,-335,0,0,0,0,0,0,0,0,0,-1,1588,1359,0,0
371,-335,0,0,0,0,0,0,0,0,0,-1,1595,1359,0,0
378,-335,0,0,0,0,0,0,0,0,0,-1,1602,1359,0,0
385,-335,0,0,0,0,0,0,0,0,0,-1,1609,1359,0,0
392,-335,0,0,0,0,0,0,0,0,0,-1,1616,1359,0,0
399,-335,0,0,0,0,0,0,0,0,0,-1,1623,1359,0,0
406,-335,0,0,0,0,0,0,0,0,0,-1,1630,1359,0,0
413,-335,0,0,0,0,0,0,0,0,0,-1,1637,1359,0,0
420,-335,0,0,0,0,0,0,0,0,0,-1,1644,1359,0,0
427,-335,0,0,0,0,0,0,0,0,0,-1,1651,1359,0,0
434,-335,0,0,0,0,0,0,0,0,0,-1,1658,1359,0,0
441,-335,0,0,0,0,0,0,0,0,0,-1,1665,1359,0,0
448,-335,0,0,0,0,0,0,0,0,0,-1,1672,1359,0,0
455,-335,0,0,0,0,0,0,0,0,0,-1,1679,1359,0,0
462,-335,0,0,0,0,0,0,0,0,0,-1,1686,1359,0,0
469,-335,0,0,0,0,0,0,0,0,0,-1,1693,1359,0,0
476,-335,0,0,0,0,0,0,0,0,0,-1,1700,1359,0,0
483,-335,0,0,0,0,0,0,0,0,0,-1,1707,1359,0,0
490,-335,0,0,0,0,0,0,0,0,0,-1,1714,1359,0,0
497,-335,0,0,0,0,0,0,0,0,0,-1,1721,1359,0,0
504,-335,0,0,0,0,0,0,0,0,0,-1,1728,1359,0,0
511,-335,0,0,0,0,0,0,0,0,0,-1,1735,1359,0,0
518,-335,0,0,0,0,0,0,0,0,0,-1,1742,1359,0,0
525,-335,0,0,0,0,0,0,0,0,0,-1,1749,1359,0,0
532,-335,0,0,0,0,0,0,0,0,0,-1,1756,1359,0,0
539,-335,0,0,0,0,0,0,0,0,0,-1,1763,1359,0,0
546,-335,0,0,0,0,0,0,0,0,0,-1,1770,1359,0,0
553,-335,0,0,0,0,0,0,0,0,0,-1,1777,1359,0,0
560,-335,0,0,0,0,0,0,0,0,0,-1,1784,1359,0,0
567,-335,0,0,0,0,0,0,0,0,0,-1,1791,1359,0,0
574,-335,19.8322,6.30042,0,0,0,0,0,0,0,-1,1798,1359,19.8322,-6.30047
581,-335,19.6532,5.57178,0,0,0,0,0,0,0,-1,1805,1359,19.6532,-5.57184
588,-335,19.0394,-0.442993,0,0,0,0,0,0,0,-1,1812,1359,19.0394,0.442972
595,-335,19.2122,0.47876,0,0,0,0,0,0,0,-1,1819,1359,19.2121,-0.478762
602,-335,16.1987,0.633667,0,0,0,0,0,0,0,-1,1826,1359,16.1987,-0.63362
609,-335,18.8646,2.88208,0,0,0,0,0,0,0,-1,1833,1359,18.8647,-2.88214
616,-335,17.9242,3.97607,0,0,0,0,0,0,0,-1,1840,1359,17.9242,-3.97609
623,-335,14.0536,5.64783,0,0,0,0,0,0,0,-1,1847,1359,14.0536,-5.64786
630,-335,14.3407,5.88062,0,0,0,0,0,0,0,-1,1854,1359,14.3408,-5.88057
637,-335,14.6279,6.11328,0,0,0,0,0,0,0,-1,1861,1359,14.6279,-6.11328
644,-335,14.4193,5.6803,0.002547,0.0074749,0.00801873,0.0133997,-0.00337779,0.934457,0.0102464,0.0451621,1868,1359,14.4193,-5.68025
651,-335,14.0753,5.77393,0.00203481,0.00500124,0.00581812,0.00952222,-0.00248618,0.910205,0.00731901,0.0204111,1875,1359,14.0753,-5.77392
658,-335,14.0138,5.64624,6.95098e-06,0.00301816,0.00341277,0.00524268,-0.00221757,0.993141,0.00442364,0.0136359,1882,1359,14.0138,-5.6462
665,-335,14.0238,5.4259,-0.00122206,0.00195736,0.00203434,0.00294945,-0.00221415,1.11706,0.00299127,0.0134369,1889,1359,14.0238,-5.42592
672,-335,14.047,5.2124,-0.00121352,0.00186712,0.00152227,0.00249242,-0.00183881,1.18105,0.00251011,0.0156416,1896,1359,14.0469,-5.21235
679,-335,14.053,5.05261,-0.00181609,0.000936786,0.000462226,0.00101232,-0.00189163,1.40881,0.00170202,0.0140973,1903,1359,14.053,-5.05257
686,-335,14.0593,4.87646,-0.00199079,0.00122286,-0.000374275,0.00126588,-0.0020338,-1.45637,0.00192219,0.0113717,1910,1359,14.0593,-4.87645
693,-335,14.0604,4.68945,-0.002319,0.00215771,-0.00100161,0.00237159,-0.00253288,-1.36042,0.00283211,0.0094935,1917,1359,14.0604,-4.68945
700,-335,14.0436,4.52344,-0.00246439,0.00366389,-0.00208405,0.00430545,-0.00310595,-1.27216,0.00429762,0.0104184,1924,1359,14.0436,-4.52348
707,-335,14.0382,4.3429,-0.00300037,0.00606282,-0.00306284,0.00700081,-0.00393836,-1.27362,0.0063977,0.0139046,1931,1359,14.0383,-4.34287
714,-335,14.0688,4.11182,-0.00420939,0.00911603,-0.00403105,0.0102406,-0.00533391,-1.29875,0.00913946,0.0194537,1938,1359,14.0689,-4.11179
721,-335,13.9248,3.85461,-0.00603645,0.0134185,-0.00504092,0.0146471,-0.007265,-1.33174,0.012888,0.0354544,1945,1359,13.9248,-3.85459
728,-335,13.627,2.9519,0,0,0,0,0,0,0,-1,1952,1359,13.627,-2.95192
735,-335,13.3372,2.7876,-0.0108673,0.0274718,-0.00758395,0.0289175,-0.012313,-1.38243,0.0244394,0.0497694,1959,1359,13.3372,-2.7876
742,-335,13.027,2.60071,-0.0138546,0.0383642,-0.00917086,0.039928,-0.0154184,-1.4019,0.0329821,0.0489943,1966,1359,13.027,-2.6007
749,-335,12.5797,2.37756,0,0,0,0,0,0,0,-1,1973,1359,12.5797,-2.37762
756,-335,12.928,0.502197,0,0,0,0,0,0,0,-1,1980,1359,12.928,-0.502176
763,-335,0,0,0,0,0,0,0,0,0,-1,1987,1359,0,0
770,-335,0,0,0,0,0,0,0,0,0,-1,1994,1359,0,0
777,-335,0,0,0,0,0,0,0,0,0,-1,2001,1359,0,0
784,-335,0,0,0,0,0,0,0,0,0,-1,2008,1359,0,0
791,-335,0,0,0,0,0,0,0,0,0,-1,2015,1359,0,0
798,-335,0,0,0,0,0,0,0,0,0,-1,2022,1359,0,0
805,-335,0,0,0,0,0,0,0,0,0,-1,2029,1359,0,0
812,-335,0,0,0,0,0,0,0,0,0,-1,2036,1359,0,0
-700,-342,0,0,0,0,0,0,0,0,0,-1,524,1366,0,0
-693,-342,0,0,0,0,0,0,0,0,0,-1,531,1366,0,0
-686,-342,0,0,0,0,0,0,0,0,0,-1,538,1366,0,0
-679,-342,0,0,0,0,0,0,0,0,0,-1,545,1366,0,0
-672,-342,0,0,0,0,0,0,0,0,0,-1,552,1366,0,0
-665,-342,0,0,0,0,0,0,0,0,0,-1,559,1366,0,0
-658,-342,0,0,0,0,0,0,0,0,0,-1,566,1366,0,0
-651,-342,0,0,0,0,0,0,0,0,0,-1,573,1366,0,0
-644,-342,0,0,0,0,0,0,0,0,0,-1,580,1366,0,0
-637,-342,-1.20453,0.962646,0,0,0,0,0,0,0,-1,587,1366,-1.20454,-0.962649
-630,-342,-0.928223,0.474731,0,0,0,0,0,0,0,-1,594,1366,-0.928203,-0.474787
-623,-342,-1.0249,0.189087,0,0,0,0,0,0,0,-1,601,1366,-1.02489,-0.189125
-616,-342,-1.0625,0.0172119,0,0,0,0,0,0,0,-1,608,1366,-1.06251,-0.0172578
-609,-342,-5.72308,-0.100586,0,0,0,0,0,0,0,-1,615,1366,-5.72307,0.100632
-602,-342,-5.69867,1.625,0,0,0,0,0,0,0,-1,622,1366,-5.69867,-1.62502
-595,-342,-4.97284,0.9198,0,0,0,0,0,0,0,-1,629,1366,-4.97281,-0.919787
-588,-342,-5.43719,1.46716,0.0255545,0.0266609,0.0126336,0.0387533,0.013462,0.807278,0.022719,0.0400443,636,1366,-5.43719,-1.46717
-581,-342,-6.00342,1.94983,0.0101245,0.0161713,0.0110039,0.0245596,0.00173621,0.919467,0.0158261,0.0324597,643,1366,-6.00339,-1.94982
-574,-342,-6.06653,2.23364,0.0018061,0.0089763,0.00833876,0.014468,-0.00368557,0.988419,0.0110801,0.0111786,650,1366,-6.06656,-2.23359
-567,-342,-6.00165,2.42993,-0.00034173,0.005568,0.00516984,0.00856784,-0.00334157,1.04502,0.00709316,0.0167317,657,1366,-6.00167,-2.42989
-560,-342,-6.01184,2.63464,-0.00123223,0.00310102,0.00278194,0.0044605,-0.00259171,1.11624,0.00411897,0.0242901,664,1366,-6.01187,-2.63463
-553,-342,-6.07465,2.8479,-0.00207575,0.000900503,0.000690525,0.00105291,-0.00222816,1.35357,0.00193441,0.0255965,671,1366,-6.07465,-2.84793
-546,-342,-6.05109,3.04016,-0.0022116,-0.0001857,-0.00104024,0.000253304,-0.00265061,-1.17145,0.00185727,0.0258964,678,1366,-6.05107,-3.04016
-539,-342,-6.02893,3.27844,-0.00216675,-0.000743523,-0.00259356,0.00123427,-0.00414455,-0.919292,0.00325346,0.0241207,685,1366,-6.02892,-3.27844
-532,-342,-6.04865,3.51685,-0.00371033,0.000252825,-0.00461581,0.00329443,-0.00675194,-0.988152,0.00591367,0.0191286,692,1366,-6.04865,-3.5169
-525,-342,-6.02051,3.73621,-0.00657316,0.00358489,-0.00738929,0.00747236,-0.0104606,-1.08649,0.0104014,0.0113935,699,1366,-6.02048,-3.73624
-518,-342,-5.99652,3.9469,-0.0107177,0.00709813,-0.0106713,0.0120908,-0.0157104,-1.13319,0.0160963,0.0131122,706,1366,-5.99651,-3.94687
-511,-342,-6.08008,4.0166,-0.0163861,0.0119668,-0.0149214,0.0183723,-0.0227916,-1.1653,0.0238117,0.0368237,713,1366,-6.08009,-4.01659
-504,-342,-6.11145,4.06677,0,0,0,0,0,0,0,-1,720,1366,-6.11144,-4.06674
-497,-342,-6.10504,3.86072,0,0,0,0,0,0,0,-1,727,1366,-6.10502,-3.86068
-490,-342,-6.18494,4.11755,0,0,0,0,0,0,0,-1,734,1366,-6.18493,-4.11761
-483,-342,-10.0878,4.8042,0,0,0,0,0,0,0,-1,741,1366,-10.0878,-4.80417
-476,-342,-10.3035,3.91931,0,0,0,0,0,0,0,-1,748,1366,-10.3034,-3.9193
-469,-342,-10.6417,2.93103,0,0,0,0,0,0,0,-1,755,1366,-10.6417,-2.93107
-462,-342,-11.2371,2.19946,0,0,0,0,0,0,0,-1,762,1366,-11.2371,-2.19949
-455,-342,-11.8339,1.47595,0,0,0,0,0,0,0,-1,769,1366,-11.8338,-1.47599
-448,-342,-13.3226,2.94934,0,0,0,0,0,0,0,-1,776,1366,-13.3226,-2.94939
-441,-342,0,0,0,0,0,0,0,0,0,-1,783,1366,0,0
-434,-342,0,0,0,0,0,0,0,0,0,-1,790,1366,0,0
-427,-342,0,0,0,0,0,0,0,0,0,-1,797,1366,0,0
-420,-342,0,0,0,0,0,0,0,0,0,-1,804,1366,0,0
-413,-342,0,0,0,0,0,0,0,0,0,-1,811,1366,0,0
-406,-342,0,0,0,0,0,0,0,0,0,-1,818,1366,0,0
-399,-342,0,0,0,0,0,0,0,0,0,-1,825,1366,0,0
-392,-342,0,0,0,0,0,0,0,0,0,-1,832,1366,0,0
-385,-342,0,0,0,0,0,0,0,0,0,-1,839,1366,0,0
-378,-342,0,0,0,0,0,0,0,0,0,-1,846,1366,0,0
-371,-342,0,0,0,0,0,0,0,0,0,-1,853,1366,0,0
-364,-342,0,0,0,0,0,0,0,0,0,-1,860,1366,0,0
-357,-342,0,0,0,0,0,0,0,0,0,-1,867,1366,0,0
-350,-342,0,0,0,0,0,0,0,0,0,-1,874,1366,0,0
-343,-342,0,0,0,0,0,0,0,0,0,-1,881,1366,0,0
-336,-342,0,0,0,0,0,0,0,0,0,-1,888,1366,0,0
-329,-342,0,0,0,0,0,0,0,0,0,-1,895,1366,0,0
-322,-342,0,0,0,0,0,0,0,0,0,-1,902,1366,0,0
-315,-342,0,0,0,0,0,0,0,0,0,-1,909,1366,0,0
-308,-342,0,0,0,0,0,0,0,0,0,-1,916,1366,0,0
-301,-342,0,0,0,0,0,0,0,0,0,-1,923,1366,0,0
-294,-342,0,0,0,0,0,0,0,0,0,-1,930,1366,0,0
-287,-342,0,0,0,0,0,0,0,0,0,-1,937,1366,0,0
-280,-342,0,0,0,0,0,0,0,0,0,-1,944,1366,0,0
-273,-342,0,0,0,0,0,0,0,0,0,-1,951,1366,0,0
-266,-342,0,0,0,0,0,0,0,0,0,-1,958,1366,0,0
-259,-342,0,0,0,0,0,0,0,0,0,-1,965,1366,0,0
-252,-342,0,0,0,0,0,0,0,0,0,-1,972,1366,0,0
-245,-342,0,0,0,0,0,0,0,0,0,-1,979,1366,0,0
-238,-342,0,0,0,0,0,0,0,0,0,-1,986,1366,0,0
-231,-342,0,0,0,0,0,0,0,0,0,-1,993,1366,0,0
-224,-342,0,0,0,0,0,0,0,0,0,-1,1000,1366,0,0
-217,-342,0,0,0,0,0,0,0,0,0,-1,1007,1366,0,0
-210,-342,0,0,0,0,0,0,0,0,0,-1,1014,1366,0,0
-203,-342,0,0,0,0,0,0,0,0,0,-1,1021,1366,0,0
-196,-342,0,0,0,0,0,0,0,0,0,-1,1028,1366,0,0
-189,-342,0,0,0,0,0,0,0,0,0,-1,1035,1366,0,0
-182,-342,0,0,0,0,0,0,0,0,0,-1,1042,1366,0,0
-175,-342,0,0,0,0,0,0,0,0,0,-1,1049,1366,0,0
-168,-342,0,0,0,0,0,0,0,0,0,-1,1056,1366,0,0
-161,-342,0,0,0,0,0,0,0,0,0,-1,1063,1366,0,0
-154,-342,0,0,0,0,0,0,0,0,0,-1,1070,1366,0,0
-147,-342,0,0,0,0,0,0,0,0,0,-1,1077,1366,0,0
-140,-342,0,0,0,0,0,0,0,0,0,-1,1084,1366,0,0
-133,-342,0,0,0,0,0,0,0,0,0,-1,1091,1366,0,0
-126,-342,0,0,0,0,0,0,0,0,0,-1,1098,1366,0,0
-119,-342,0,0,0,0,0,0,0,0,0,-1,1105,1366,0,0
-112,-342,0,0,0,0,0,0,0,0,0,-1,1112,1366,0,0
-105,-342,0,0,0,0,0,0,0,0,0,-1,1119,1366,0,0
-98,-342,0,0,0,0,0,0,0,0,0,-1,1126,1366,0,0
-91,-342,0,0,0,0,0,0,0,0,0,-1,1133,1366,0,0
-84,-342,0,0,0,0,0,0,0,0,0,-1,1140,1366,0,0
-77,-342,0,0,0,0,0,0,0,0,0,-1,1147,1366,0,0
-70,-342,0,0,0,0,0,0,0,0,0,-1,1154,1366,0,0
-63,-342,0,0,0,0,0,0,0,0,0,-1,1161,1366,0,0
-56,-342,0,0,0,0,0,0,0,0,0,-1,1168,1366,0,0
-49,-342,0,0,0,0,0,0,0,0,0,-1,1175,1366,0,0
-42,-342,0,0,0,0,0,0,0,0,0,-1,1182,1366,0,0
-35,-342,0,0,0,0,0,0,0,0,0,-1,1189,1366,0,0
-28,-342,0,0,0,0,0,0,0,0,0,-1,1196,1366,0,0
-21,-342,0,0,0,0,0,0,0,0,0,-1,1203,1366,0,0
-14,-342,0,0,0,0,0,0,0,0,0,-1,1210,1366,0,0
-7,-342,0,0,0,0,0,0,0,0,0,-1,1217,1366,0,0
0,-342,0,0,0,0,0,0,0,0,0,-1,1224,1366,0,0
7,-342,0,0,0,0,0,0,0,0,0,-1,1231,1366,0,0
14,-342,0,0,0,0,0,0,0,0,0,-1,1238,1366,0,0
21,-342,0,0,0,0,0,0,0,0,0,-1,1245,1366,0,0
28,-342,0,0,0,0,0,0,0,0,0,-1,1252,1366,0,0
35,-342,0,0,0,0,0,0,0,0,0,-1,1259,1366,0,0
42,-342,0,0,0,0,0,0,0,0,0,-1,1266,1366,0,0
49,-342,0,0,0,0,0,0,0,0,0,-1,1273,1366,0,0
56,-342,0,0,0,0,0,0,0,0,0,-1,1280,1366,0,0
63,-342,0,0,0,0,0,0,0,0,0,-1,1287,1366,0,0
70,-342,0,0,0,0,0,0,0,0,0,-1,1294,1366,0,0
77,-342,0,0,0,0,0,0,0,0,0,-1,1301,1366,0,0
84,-342,0,0,0,0,0,0,0,0,0,-1,1308,1366,0,0
91,-342,0,0,0,0,0,0,0,0,0,-1,1315,1366,0,0
98,-342,0,0,0,0,0,0,0,0,0,-1,1322,1366,0,0
105,-342,0,0,0,0,0,0,0,0,0,-1,1329,1366,0,0
112,-342,0,0,0,0,0,0,0,0,0,-1,1336,1366,0,0
119,-342,0,0,0,0,0,0,0,0,0,-1,1343,1366,0,0
126,-342,0,0,0,0,0,0,0,0,0,-1,1350,1366,0,0
133,-342,0,0,0,0,0,0,0,0,0,-1,1357,1366,0,0
140,-342,0,0,0,0,0,0,0,0,0,-1,1364,1366,0,0
147,-342,0,0,0,0,0,0,0,0,0,-1,1371,1366,0,0
154,-342,0,0,0,0,0,0,0,0,0,-1,1378,1366,0,0
161,-342,0,0,0,0,0,0,0,0,0,-1,1385,1366,0,0
168,-342,0,0,0,0,0,0,0,0,0,-1,1392,1366,0,0
175,-342,0,0,0,0,0,0,0,0,0,-1,1399,1366,0,0
182,-342,0,0,0,0,0,0,0,0,0,-1,1406,1366,0,0
189,-342,0,0,0,0,0,0,0,0,0,-1,1413,1366,0,0
196,-342,0,0,0,0,0,0,0,0,0,-1,1420,1366,0,0
203,-342,0,0,0,0,0,0,0,0,0,-1,1427,1366,0,0
210,-342,0,0,0,0,0,0,0,0,0,-1,1434,1366,0,0
217,-342,0,0,0,0,0,0,0,0,0,-1,1441,1366,0,0
224,-342,0,0,0,0,0,0,0,0,0,-1,1448,1366,0,0
231,-342,0,0,0,0,0,0,0,0,0,-1,1455,1366,0,0
238,-342,0,0,0,0,0,0,0,0,0,-1,1462,1366,0,0
245,-342,0,0,0,0,0,0,0,0,0,-1,1469,1366,0,0
252,-342,0,0,0,0,0,0,0,0,0,-1,1476,1366,0,0
259,-342,0,0,0,0,0,0,0,0,0,-1,1483,1366,0,0
266,-342,0,0,0,0,0,0,0,0,0,-1,1490,1366,0,0
273,-342,0,0,0,0,0,0,0,0,0,-1,1497,1366,0,0
280,-342,0,0,0,0,0,0,0,0,0,-1,1504,1366,0,0
287,-342,0,0,0,0,0,0,0,0,0,-1,1511,1366,0,0
294,-342,0,0,0,0,0,0,0,0,0,-1,1518,1366,0,0
301,-342,0,0,0,0,0,0,0,0,0,-1,1525,1366,0,0
308,-342,0,0,0,0,0,0,0,0,0,-1,1532,1366,0,0
315,-342,0,0,0,0,0,0,0,0,0,-1,1539,1366,0,0
322,-342,0,0,0,0,0,0,0,0,0,-1,1546,1366,0,0
329,-342,0,0,0,0,0,0,0,0,0,-1,1553,1366,0,0
336,-342,0,0,0,0,0,0,0,0,0,-1,1560,1366,0,0
343,-342,0,0,0,0,0,0,0,0,0,-1,1567,1366,0,0
350,-342,0,0,0,0,0,0,0,0,0,-1,1574,1366,0,0
357,-342,0,0,0,0,0,0,0,0,0,-1,1581,1366,0,0
364,-342,0,0,0,0,0,0,0,0,0,-1,1588,1366,0,0
371,-342,0,0,0,0,0,0,0,0,0,-1,1595,1366,0,0
378,-342,0,0,0,0,0,0,0,0,0,-1,1602,1366,0,0
385,-342,0,0,0,0,0,0,0,0,0,-1,1609,1366,0,0
392,-342,0,0,0,0,0,0,0,0,0,-1,1616,1366,0,0
399,-342,0,0,0,0,0,0,0,0,0,-1,1623,1366,0,0
406,-342,0,0,0,0,0,0,0,0,0,-1,1630,1366,0,0
413,-342,0,0,0,0,0,0,0,0,0,-1,1637,1366,0,0
420,-342,0,0,0,0,0,0,0,0,0,-1,1644,1366,0,0
427,-342,0,0,0,0,0,0,0,0,0,-1,1651,1366,0,0
434,-342,0,0,0,0,0,0,0,0,0,-1,1658,1366,0,0
441,-342,0,0,0,0,0,0,0,0,0,-1,1665,1366,0,0
448,-342,0,0,0,0,0,0,0,0,0,-1,1672,1366,0,0
455,-342,0,0,0,0,0,0,0,0,0,-1,1679,1366,0,0
462,-342,0,0,0,0,0,0,0,0,0,-1,1686,1366,0,0
469,-342,0,0,0,0,0,0,0,0,0,-1,1693,1366,0,0
476,-342,0,0,0,0,0,0,0,0,0,-1,1700,1366,0,0
483,-342,0,0,0,0,0,0,0,0,0,-1,1707,1366,0,0
490,-342,0,0,0,0,0,0,0,0,0,-1,1714,1366,0,0
497,-342,0,0,0,0,0,0,0,0,0,-1,1721,1366,0,0
504,-342,0,0,0,0,0,0,0,0,0,-1,1728,1366,0,0
511,-342,0,0,0,0,0,0,0,0,0,-1,1735,1366,0,0
518,-342,0,0,0,0,0,0,0,0,0,-1,1742,1366,0,0
525,-342,0,0,0,0,0,0,0,0,0,-1,1749,1366,0,0
532,-342,0,0,0,0,0,0,0,0,0,-1,1756,1366,0,0
539,-342,0,0,0,0,0,0,0,0,0,-1,1763,1366,0,0
546,-342,0,0,0,0,0,0,0,0,0,-1,1770,1366,0,0
553,-342,0,0,0,0,0,0,0,0,0,-1,1777,1366,0,0
560,-342,0,0,0,0,0,0,0,0,0,-1,1784,1366,0,0
567,-342,19.0521,6.35071,0,0,0,0,0,0,0,-1,1791,1366,19.0521,-6.35065
574,-342,19.022,5.60132,0,0,0,0,0,0,0,-1,1798,1366,19.022,-5.6013
581,-342,18.9266,5.03979,0,0,0,0,0,0,0,-1,1805,1366,18.9266,-5.03976
588,-342,18.8398,4.47461,0,0,0,0,0,0,0,-1,1812,1366,18.8399,-4.47457
595,-342,15.5009,0.412109,0,0,0,0,0,0,0,-1,1819,1366,15.5008,-0.41209
602,-342,14.4944,0.827515,0,0,0,0,0,0,0,-1,1826,1366,14.4944,-0.8275
609,-342,12.4988,6.34875,0,0,0,0,0,0,0,-1,1833,1366,12.4988,-6.34872
616,-342,13.7173,6.01404,0,0,0,0,0,0,0,-1,1840,1366,13.7172,-6.0141
623,-342,14.3911,5.50244,-0.00122078,0.0144044,0.023748,0.0315919,-0.0184083,0.944312,0.0292002,0.0482401,1847,1366,14.3911,-5.50245
630,-342,14.3629,5.85767,-0.000182453,0.0110492,0.0181728,0.0244542,-0.0135874,0.935256,0.02226,0.0472481,1854,1366,14.3629,-5.8577
637,-342,14.264,5.78564,0,0,0,0,0,0,0,-1,1861,1366,14.264,-5.78561
644,-342,13.9147,5.9906,0.000392425,0.00526498,0.0102679,0.0133817,-0.00772431,0.901879,0.0123306,0.0416313,1868,1366,13.9146,-5.9906
651,-342,13.8622,5.87292,0.000335404,0.00319809,0.00752685,0.00942848,-0.00589499,0.879359,0.00892507,0.0208355,1875,1366,13.8621,-5.87298
658,-342,13.8669,5.63416,-0.000871714,0.00171596,0.00470035,0.0052973,-0.00445305,0.919704,0.0056364,0.0185383,1882,1366,13.867,-5.63415
665,-342,13.8708,5.41907,-0.00138583,0.00101544,0.00281967,0.00287944,-0.00324984,0.986675,0.0035409,0.0154511,1889,1366,13.8708,-5.41901
672,-342,13.8918,5.23035,-0.000983406,0.00113072,0.00173609,0.00210624,-0.00195892,1.05886,0.00234754,0.0129119,1896,1366,13.8918,-5.2304
679,-342,13.8693,5.05884,-0.00130363,0.000507266,0.000300816,0.000555928,-0.00135229,1.41042,0.00113324,0.0129938,1903,1366,13.8692,-5.05882
686,-342,13.881,4.88977,-0.00142371,0.00101989,-0.000785071,0.00125038,-0.0016542,-1.28524,0.00168235,0.0111333,1910,1366,13.881,-4.88975
693,-342,13.8843,4.69653,-0.0017846,0.00218807,-0.00162555,0.00276843,-0.00236496,-1.22788,0.00296682,0.0117396,1917,1366,13.8842,-4.69653
700,-342,13.8721,4.52795,-0.00210563,0.00380767,-0.00279543,0.00491996,-0.00321791,-1.19211,0.00473253,0.0122506,1924,1366,13.8721,-4.528
707,-342,13.8722,4.34058,-0.00296188,0.00623813,-0.00386383,0.00764556,-0.00436931,-1.22148,0.00702222,0.0118076,1931,1366,13.8722,-4.34058
714,-342,13.8718,4.16199,-0.00455012,0.00943885,-0.00497144,0.0110256,-0.0061369,-1.26184,0.0100419,0.0271227,1938,1366,13.8718,-4.16205
721,-342,13.7288,3.81165,-0.00676472,0.0141826,-0.00615849,0.015859,-0.00844114,-1.30502,0.0142459,0.0397912,1945,1366,13.7288,-3.81166
728,-342,13.7278,3.31494,0,0,0,0,0,0,0,-1,1952,1366,13.7278,-3.3149
735,-342,13.0294,2.19653,0,0,0,0,0,0,0,-1,1959,1366,13.0294,-2.19657
742,-342,12.9849,1.92651,0,0,0,0,0,0,0,-1,1966,1366,12.9848,-1.92652
749,-342,14.0653,2.74902,0,0,0,0,0,0,0,-1,1973,1366,14.0653,-2.74903
756,-342,0,0,0,0,0,0,0,0,0,-1,1980,1366,0,0
763,-342,0,0,0,0,0,0,0,0,0,-1,1987,1366,0,0
770,-342,0,0,0,0,0,0,0,0,0,-1,1994,1366,0,0
777,-342,0,0,0,0,0,0,0,0,0,-1,2001,1366,0,0
784,-342,0,0,0,0,0,0,0,0,0,-1,2008,1366,0,0
791,-342,0,0,0,0,0,0,0,0,0,-1,2015,1366,0,0
798,-342,0,0,0,0,0,0,0,0,0,-1,2022,1366,0,0
805,-342,0,0,0,0,0,0,0,0,0,-1,2029,1366,0,0
812,-342,0,0,0,0,0,0,0,0,0,-1,2036,1366,0,0
-700,-349,0,0,0,0,0,0,0,0,0,-1,524,1373,0,0
-693,-349,0,0,0,0,0,0,0,0,0,-1,531,1373,0,0
-686,-349,0,0,0,0,0,0,0,0,0,-1,538,1373,0,0
-679,-349,0,0,0,0,0,0,0,0,0,-1,545,1373,0,0
-672,-349,0,0,0,0,0,0,0,0,0,-1,552,1373,0,0
-665,-349,0,0,0,0,0,0,0,0,0,-1,559,1373,0,0
-658,-349,0,0,0,0,0,0,0,0,0,-1,566,1373,0,0
-651,-349,0,0,0,0,0,0,0,0,0,-1,573,1373,0,0
-644,-349,0,0,0,0,0,0,0,0,0,-1,580,1373,0,0
-637,-349,0,0,0,0,0,0,0,0,0,-1,587,1373,0,0
-630,-349,-0.311401,0.345459,0,0,0,0,0,0,0,-1,594,1373,-0.311415,-0.34551
-623,-349,-0.144897,0.199829,0,0,0,0,0,0,0,-1,601,1373,-0.144915,-0.199789
-616,-349,-5.2066,-0.188232,0,0,0,0,0,0,0,-1,608,1373,-5.20659,0.188211
-609,-349,-5.14417,0.276245,0,0,0,0,0,0,0,-1,615,1373,-5.14416,-0.276243
-602,-349,-3.58282,-0.219849,0,0,0,0,0,0,0,-1,622,1373,-3.58284,0.219888
-595,-349,-4.16949,0.404175,0.059316,0.0446066,0.0240975,0.0771561,0.0267665,0.637285,0.0452367,0.0485318,629,1373,-4.16951,-0.404229
-588,-349,-4.83942,1.16028,0.0340156,0.0303739,0.0199718,0.0522494,0.0121401,0.739938,0.031574,0.0440726,636,1373,-4.83943,-1.16025
-581,-349,-5.61505,2.13257,0.0164699,0.0190758,0.0156463,0.0334733,0.00207232,0.82694,0.0216578,0.039132,643,1373,-5.61503,-2.13259
-574,-349,-5.79254,2.19641,0.00627197,0.0112467,0.0110893,0.0201242,-0.00260548,0.895725,0.0143636,0.0209725,650,1373,-5.79253,-2.19644
-567,-349,-5.7962,2.43884,0.0021471,0.00694445,0.0069223,0.0118719,-0.00278034,0.952181,0.00898591,0.0171095,657,1373,-5.7962,-2.4388
-560,-349,-5.83575,2.66443,0.000114262,0.00395335,0.00394876,0.00642441,-0.00235679,1.01164,0.00524801,0.0198273,664,1373,-5.83576,-2.66441
-553,-349,-5.87482,2.84778,-0.0017843,0.00131397,0.0013849,0.00184276,-0.00231309,1.20606,0.0024045,0.0257123,671,1373,-5.87482,-2.84781
-546,-349,-5.85846,3.03052,-0.00219271,-0.000142585,-0.000482169,-3.48452e-05,-0.00230045,-1.35096,0.00152215,0.0297231,678,1373,-5.85846,-3.03053
-539,-349,-5.84705,3.27295,-0.00167547,-0.00114944,-0.00185142,0.000457548,-0.00328246,-0.855957,0.00235568,0.0238646,685,1373,-5.84703,-3.27299
-532,-349,-5.82983,3.51575,-0.0024215,-0.00146567,-0.00343095,0.00152049,-0.00540767,-0.8546,0.0042046,0.0165642,692,1373,-5.82985,-3.51576
-525,-349,-5.81195,3.74463,-0.0042983,-4.19366e-05,-0.00558049,0.00380241,-0.00814264,-0.967566,0.00704659,0.0120873,699,1373,-5.81195,-3.74461
-518,-349,-5.80884,3.96533,-0.00733603,0.00100211,-0.00804045,0.00589008,-0.012224,-1.02457,0.0106692,0.012145,706,1373,-5.80887,-3.96539
-511,-349,-5.73187,4.17712,-0.0116994,0.00241485,-0.0112033,0.00859848,-0.0178831,-1.06646,0.0155992,0.0298129,713,1373,-5.73188,-4.17715
-504,-349,-5.87891,4.22156,0,0,0,0,0,0,0,-1,720,1373,-5.87894,-4.22158
-497,-349,-5.86841,3.4668,0,0,0,0,0,0,0,-1,727,1373,-5.86842,-3.46685
-490,-349,-4.57129,3.0105,0,0,0,0,0,0,0,-1,734,1373,-4.57132,-3.01052
-483,-349,-3.69922,2.70166,0,0,0,0,0,0,0,-1,741,1373,-3.6992,-2.7017
-476,-349,-9.8728,4.70508,0,0,0,0,0,0,0,-1,748,1373,-9.87279,-4.70502
-469,-349,-9.95844,3.76819,0,0,0,0,0,0,0,-1,755,1373,-9.9584,-3.76813
-462,-349,-10.4919,3.0188,0,0,0,0,0,0,0,-1,762,1373,-10.492,-3.01884
-455,-349,-11.874,2.52393,0,0,0,0,0,0,0,-1,769,1373,-11.874,-2.52397
-448,-349,-12.627,2.69104,0,0,0,0,0,0,0,-1,776,1373,-12.627,-2.69107
-441,-349,0,0,0,0,0,0,0,0,0,-1,783,1373,0,0
-434,-349,0,0,0,0,0,0,0,0,0,-1,790,1373,0,0
-427,-349,0,0,0,0,0,0,0,0,0,-1,797,1373,0,0
-420,-349,0,0,0,0,0,0,0,0,0,-1,804,1373,0,0
-413,-349,0,0,0,0,0,0,0,0,0,-1,811,1373,0,0
-406,-349,0,0,0,0,0,0,0,0,0,-1,818,1373,0,0
-399,-349,0,0,0,0,0,0,0,0,0,-1,825,1373,0,0
-392,-349,0,0,0,0,0,0,0,0,0,-1,832,1373,0,0
-385,-349,0,0,0,0,0,0,0,0,0,-1,839,1373,0,0
-378,-349,0,0,0,0,0,0,0,0,0,-1,846,1373,0,0
-371,-349,0,0,0,0,0,0,0,0,0,-1,853,1373,0,0
-364,-349,0,0,0,0,0,0,0,0,0,-1,860,1373,0,0
-357,-349,0,0,0,0,0,0,0,0,0,-1,867,1373,0,0
-350,-349,0,0,0,0,0,0,0,0,0,-1,874,1373,0,0
-343,-349,0,0,0,0,0,0,0,0,0,-1,881,1373,0,0
-336,-349,0,0,0,0,0,0,0,0,0,-1,888,1373,0,0
-329,-349,0,0,0,0,0,0,0,0,0,-1,895,1373,0,0
-322,-349,0,0,0,0,0,0,0,0,0,-1,902,1373,0,0
-315,-349,0,0,0,0,0,0,0,0,0,-1,909,1373,0,0
-308,-349,0,0,0,0,0,0,0,0,0,-1,916,1373,0,0
-301,-349,0,0,0,0,0,0,0,0,0,-1,923,1373,0,0
-294,-349,0,0,0,0,0,0,0,0,0,-1,930,1373,0,0
-287,-349,0,0,0,0,0,0,0,0,0,-1,937,1373,0,0
-280,-349,0,0,0,0,0,0,0,0,0,-1,944,1373,0,0
-273,-349,0,0,0,0,0,0,0,0,0,-1,951,1373,0,0
-266,-349,0,0,0,0,0,0,0,0,0,-1,958,1373,0,0
-259,-349,0,0,0,0,0,0,0,0,0,-1,965,1373,0,0
-252,-349,0,0,0,0,0,0,0,0,0,-1,972,1373,0,0
-245,-349,0,0,0,0,0,0,0,0,0,-1,979,1373,0,0
-238,-349,0,0,0,0,0,0,0,0,0,-1,986,1373,0,0
-231,-349,0,0,0,0,0,0,0,0,0,-1,993,1373,0,0
-224,-349,0,0,0,0,0,0,0,0,0,-1,1000,1373,0,0
-217,-349,0,0,0,0,0,0,0,0,0,-1,1007,1373,0,0
-210,-349,0,0,0,0,0,0,0,0,0,-1,1014,1373,0,0
-203,-349,0,0,0,0,0,0,0,0,0,-1,1021,1373,0,0
-196,-349,0,0,0,0,0,0,0,0,0,-1,1028,1373,0,0
-189,-349,0,0,0,0,0,0,0,0,0,-1,1035,1373,0,0
-182,-349,0,0,0,0,0,0,0,0,0,-1,1042,1373,0,0
-175,-349,0,0,0,0,0,0,0,0,0,-1,1049,1373,0,0
-168,-349,0,0,0,0,0,0,0,0,0,-1,1056,1373,0,0
-161,-349,0,0,0,0,0,0,0,0,0,-1,1063,1373,0,0
-154,-349,0,0,0,0,0,0,0,0,0,-1,1070,1373,0,0
-147,-349,0,0,0,0,0,0,0,0,0,-1,1077,1373,0,0
-140,-349,0,0,0,0,0,0,0,0,0,-1,1084,1373,0,0
-133,-349,0,0,0,0,0,0,0,0,0,-1,1091,1373,0,0
-126,-349,0,0,0,0,0,0,0,0,0,-1,1098,1373,0,0
-119,-349,0,0,0,0,0,0,0,0,0,-1,1105,1373,0,0
-112,-349,0,0,0,0,0,0,0,0,0,-1,1112,1373,0,0
-105,-349,0,0,0,0,0,0,0,0,0,-1,1119,1373,0,0
-98,-349,0,0,0,0,0,0,0,0,0,-1,1126,1373,0,0
-91,-349,0,0,0,0,0,0,0,0,0,-1,1133,1373,0,0
-84,-349,0,0,0,0,0,0,0,0,0,-1,1140,1373,0,0
-77,-349,0,0,0,0,0,0,0,0,0,-1,1147,1373,0,0
-70,-349,0,0,0,0,0,0,0,0,0,-1,1154,1373,0,0
-63,-349,0,0,0,0,0,0,0,0,0,-1,1161,1373,0,0
-56,-349,0,0,0,0,0,0,0,0,0,-1,1168,1373,0,0
-49,-349,0,0,0,0,0,0,0,0,0,-1,1175,1373,0,0
-42,-349,0,0,0,0,0,0,0,0,0,-1,1182,1373,0,0
-35,-349,0,0,0,0,0,0,0,0,0,-1,1189,1373,0,0
-28,-349,0,0,0,0,0,0,0,0,0,-1,1196,1373,0,0
-21,-349,0,0,0,0,0,0,0,0,0,-1,1203,1373,0,0
-14,-349,0,0,0,0,0,0,0,0,0,-1,1210,1373,0,0
-7,-349,0,0,0,0,0,0,0,0,0,-1,1217,1373,0,0
0,-349,0,0,0,0,0,0,0,0,0,-1,1224,1373,0,0
7,-349,0,0,0,0,0,0,0,0,0,-1,1231,1373,0,0
14,-349,0,0,0,0,0,0,0,0,0,-1,1238,1373,0,0
21,-349,0,0,0,0,0,0,0,0,0,-1,1245,1373,0,0
28,-349,0,0,0,0,0,0,0,0,0,-1,1252,1373,0,0
35,-349,0,0,0,0,0,0,0,0,0,-1,1259,1373,0,0
42,-349,0,0,0,0,0,0,0,0,0,-1,1266,1373,0,0
49,-349,0,0,0,0,0,0,0,0,0,-1,1273,1373,0,0
56,-349,0,0,0,0,0,0,0,0,0,-1,1280,1373,0,0
63,-349,0,0,0,0,0,0,0,0,0,-1,1287,1373,0,0
70,-349,0,0,0,0,0,0,0,0,0,-1,1294,1373,0,0
77,-349,0,0,0,0,0,0,0,0,0,-1,1301,1373,0,0
84,-349,0,0,0,0,0,0,0,0,0,-1,1308,1373,0,0
91,-349,0,0,0,0,0,0,0,0,0,-1,1315,1373,0,0
98,-349,0,0,0,0,0,0,0,0,0,-1,1322,1373,0,0
105,-349,0,0,0,0,0,0,0,0,0,-1,1329,1373,0,0
112,-349,0,0,0,0,0,0,0,0,0,-1,1336,1373,0,0
119,-349,0,0,0,0,0,0,0,0,0,-1,1343,1373,0,0
126,-349,0,0,0,0,0,0,0,0,0,-1,1350,1373,0,0
133,-349,0,0,0,0,0,0,0,0,0,-1,1357,1373,0,0
140,-349,0,0,0,0,0,0,0,0,0,-1,1364,1373,0,0
147,-349,0,0,0,0,0,0,0,0,0,-1,1371,1373,0,0
154,-349,0,0,0,0,0,0,0,0,0,-1,1378,1373,0,0
161,-349,0,0,0,0,0,0,0,0,0,-1,1385,1373,0,0
168,-349,0,0,0,0,0,0,0,0,0,-1,1392,1373,0,0
175,-349,0,0,0,0,0,0,0,0,0,-1,1399,1373,0,0
182,-349,0,0,0,0,0,0,0,0,0,-1,1406,1373,0,0
189,-349,0,0,0,0,0,0,0,0,0,-1,1413,1373,0,0
196,-349,0,0,0,0,0,0,0,0,0,-1,1420,1373,0,0
203,-349,0,0,0,0,0,0,0,0,0,-1,1427,1373,0,0
210,-349,0,0,0,0,0,0,0,0,0,-1,1434,1373,0,0
217,-349,0,0,0,0,0,0,0,0,0,-1,1441,1373,0,0
224,-349,0,0,0,0,0,0,0,0,0,-1,1448,1373,0,0
231,-349,0,0,0,0,0,0,0,0,0,-1,1455,1373,0,0
238,-349,0,0,0,0,0,0,0,0,0,-1,1462,1373,0,0
245,-349,0,0,0,0,0,0,0,0,0,-1,1469,1373,0,0
252,-349,0,0,0,0,0,0,0,0,0,-1,1476,1373,0,0
259,-349,0,0,0,0,0,0,0,0,0,-1,1483,1373,0,0
266,-349,0,0,0,0,0,0,0,0,0,-1,1490,1373,0,0
273,-349,0,0,0,0,0,0,0,0,0,-1,1497,1373,0,0
280,-349,0,0,0,0,0,0,0,0,0,-1,1504,1373,0,0
287,-349,0,0,0,0,0,0,0,0,0,-1,1511,1373,0,0
294,-349,0,0,0,0,0,0,0,0,0,-1,1518,1373,0,0
301,-349,0,0,0,0,0,0,0,0,0,-1,1525,1373,0,0
308,-349,0,0,0,0,0,0,0,0,0,-1,1532,1373,0,0
315,-349,0,0,0,0,0,0,0,0,0,-1,1539,1373,0,0
322,-349,0,0,0,0,0,0,0,0,0,-1,1546,1373,0,0
329,-349,0,0,0,0,0,0,0,0,0,-1,1553,1373,0,0
336,-349,0,0,0,0,0,0,0,0,0,-1,1560,1373,0,0
343,-349,0,0,0,0,0,0,0,0,0,-1,1567,1373,0,0
350,-349,0,0,0,0,0,0,0,0,0,-1,1574,1373,0,0
357,-349,0,0,0,0,0,0,0,0,0,-1,1581,1373,0,0
364,-349,0,0,0,0,0,0,0,0,0,-1,1588,1373,0,0
371,-349,0,0,0,0,0,0,0,0,0,-1,1595,1373,0,0
378,-349,0,0,0,0,0,0,0,0,0,-1,1602,1373,0,0
385,-349,0,0,0,0,0,0,0,0,0,-1,1609,1373,0,0
392,-349,0,0,0,0,0,0,0,0,0,-1,1616,1373,0,0
399,-349,0,0,0,0,0,0,0,0,0,-1,1623,1373,0,0
406,-349,0,0,0,0,0,0,0,0,0,-1,1630,1373,0,0
413,-349,0,0,0,0,0,0,0,0,0,-1,1637,1373,0,0
420,-349,0,0,0,0,0,0,0,0,0,-1,1644,1373,0,0
427,-349,0,0,0,0,0,0,0,0,0,-1,1651,1373,0,0
434,-349,0,0,0,0,0,0,0,0,0,-1,1658,1373,0,0
441,-349,0,0,0,0,0,0,0,0,0,-1,1665,1373,0,0
448,-349,0,0,0,0,0,0,0,0,0,-1,1672,1373,0,0
455,-349,0,0,0,0,0,0,0,0,0,-1,1679,1373,0,0
462,-349,0,0,0,0,0,0,0,0,0,-1,1686,1373,0,0
469,-349,0,0,0,0,0,0,0,0,0,-1,1693,1373,0,0
476,-349,0,0,0,0,0,0,0,0,0,-1,1700,1373,0,0
483,-349,0,0,0,0,0,0,0,0,0,-1,1707,1373,0,0
490,-349,0,0,0,0,0,0,0,0,0,-1,1714,1373,0,0
497,-349,0,0,0,0,0,0,0,0,0,-1,1721,1373,0,0
504,-349,0,0,0,0,0,0,0,0,0,-1,1728,1373,0,0
511,-349,0,0,0,0,0,0,0,0,0,-1,1735,1373,0,0
518,-349,0,0,0,0,0,0,0,0,0,-1,1742,1373,0,0
525,-349,0,0,0,0,0,0,0,0,0,-1,1749,1373,0,0
532,-349,0,0,0,0,0,0,0,0,0,-1,1756,1373,0,0
539,-349,0,0,0,0,0,0,0,0,0,-1,1763,1373,0,0
546,-349,0,0,0,0,0,0,0,0,0,-1,1770,1373,0,0
553,-349,0,0,0,0,0,0,0,0,0,-1,1777,1373,0,0
560,-349,18.483,5.89746,0,0,0,0,0,0,0,-1,1784,1373,18.483,-5.89746
567,-349,18.4458,5.44751,0,0,0,0,0,0,0,-1,1791,1373,18.4458,-5.44752
574,-349,18.3553,5.01379,0,0,0,0,0,0,0,-1,1798,1373,18.3553,-5.01381
581,-349,18.1981,4.54199,0,0,0,0,0,0,0,-1,1805,1373,18.1981,-4.54194
588,-349,18.1152,4.04285,0,0,0,0,0,0,0,-1,1812,1373,18.1152,-4.04281
595,-349,15.1029,0.584595,0,0,0,0,0,0,0,-1,1819,1373,15.103,-0.584554
602,-349,10.8112,5.30664,0,0,0,0,0,0,0,-1,1826,1373,10.8111,-5.30663
609,-349,12.8566,5.17676,0,0,0,0,0,0,0,-1,1833,1373,12.8566,-5.17673
616,-349,13.4471,5.1687,0,0,0,0,0,0,0,-1,1840,1373,13.4471,-5.1687
623,-349,13.9475,5.31421,-0.00372368,0.0111746,0.025254,0.0300552,-0.0226043,0.928815,0.0305042,0.0442994,1847,1373,13.9475,-5.31424
630,-349,14.1967,5.75012,-0.00260626,0.00822259,0.0198584,0.0233915,-0.0177751,0.918489,0.0238412,0.0481772,1854,1373,14.1967,-5.75009
637,-349,14.0344,5.84912,-0.00203347,0.00587711,0.015252,0.0176783,-0.0138347,0.912268,0.0182391,0.048924,1861,1373,14.0344,-5.84908
644,-349,13.5876,6.05859,-0.00141678,0.00336908,0.0115878,0.0128084,-0.0108561,0.887219,0.0136782,0.0407237,1868,1373,13.5876,-6.05855
651,-349,13.6982,5.79578,-0.00105447,0.00180523,0.00852344,0.00901792,-0.00826716,0.868502,0.00998268,0.0232193,1875,1373,13.6982,-5.79584
658,-349,13.6548,5.59668,-0.0015502,0.00077904,0.00549202,0.00522857,-0.00599973,0.889879,0.00648775,0.0265626,1882,1373,13.6548,-5.5967
665,-349,13.6904,5.42188,-0.00153683,0.000357862,0.00328058,0.00282515,-0.00400411,0.925961,0.00396241,0.0204318,1889,1373,13.6904,-5.42186
672,-349,13.675,5.23035,-0.000885233,0.000580026,0.00174867,0.00174334,-0.00204854,0.983772,0.0021916,0.0142373,1896,1373,13.675,-5.23035
679,-349,13.6615,5.04712,-0.00098131,0.000146117,7.02794e-05,0.000150481,-0.000985674,1.50878,0.000712593,0.0130135,1903,1373,13.6615,-5.04714
686,-349,13.705,4.89465,-0.00103364,0.000750241,-0.00115836,0.00132027,-0.00160368,-1.11349,0.00169078,0.0117417,1910,1373,13.7049,-4.89469
693,-349,13.7137,4.70313,-0.0013749,0.00200445,-0.00219828,0.0030874,-0.00245785,-1.11306,0.00320842,0.0141122,1917,1373,13.7138,-4.70313
700,-349,13.6947,4.52429,-0.00179171,0.00357951,-0.00347648,0.00528689,-0.00349909,-1.11427,0.00510748,0.0151337,1924,1373,13.6947,-4.52425
707,-349,13.7092,4.32483,-0.00282316,0.00588928,-0.0047047,0.00794483,-0.00487871,-1.15888,0.00747389,0.0194856,1931,1373,13.7093,-4.3248
714,-349,13.6718,4.15967,-0.00458191,0.00908592,-0.00604492,0.0113758,-0.00687178,-1.20869,0.0106417,0.0280976,1938,1373,13.6717,-4.15968
721,-349,13.6639,3.86621,-0.00695385,0.0140401,-0.00753842,0.0164665,-0.00938027,-1.25939,0.0151084,0.042445,1945,1373,13.6639,-3.86618
728,-349,13.7249,3.40942,0,0,0,0,0,0,0,-1,1952,1373,13.7248,-3.40944
735,-349,15.3109,-0.321899,0,0,0,0,0,0,0,-1,1959,1373,15.3109,0.32184
742,-349,14.74,0.884888,0,0,0,0,0,0,0,-1,1966,1373,14.7399,-0.884881
749,-349,14.5159,2.4469,0,0,0,0,0,0,0,-1,1973,1373,14.5159,-2.44685
756,-349,0,0,0,0,0,0,0,0,0,-1,1980,1373,0,0
763,-349,0,0,0,0,0,0,0,0,0,-1,1987,1373,0,0
770,-349,0,0,0,0,0,0,0,0,0,-1,1994,1373,0,0
777,-349,0,0,0,0,0,0,0,0,0,-1,2001,1373,0,0
784,-349,0,0,0,0,0,0,0,0,0,-1,2008,1373,0,0
791,-349,0,0,0,0,0,0,0,0,0,-1,2015,1373,0,0
798,-349,0,0,0,0,0,0,0,0,0,-1,2022,1373,0,0
805,-349,0,0,0,0,0,0,0,0,0,-1,2029,1373,0,0
812,-349,0,0,0,0,0,0,0,0,0,-1,2036,1373,0,0
-700,-356,0,0,0,0,0,0,0,0,0,-1,524,1380,0,0
-693,-356,0,0,0,0,0,0,0,0,0,-1,531,1380,0,0
-686,-356,0,0,0,0,0,0,0,0,0,-1,538,1380,0,0
-679,-356,0,0,0,0,0,0,0,0,0,-1,545,1380,0,0
-672,-356,0,0,0,0,0,0,0,0,0,-1,552,1380,0,0
-665,-356,0,0,0,0,0,0,0,0,0,-1,559,1380,0,0
-658,-356,0,0,0,0,0,0,0,0,0,-1,566,1380,0,0
-651,-356,0,0,0,0,0,0,0,0,0,-1,573,1380,0,0
-644,-356,0,0,0,0,0,0,0,0,0,-1,580,1380,0,0
-637,-356,0,0,0,0,0,0,0,0,0,-1,587,1380,0,0
-630,-356,-5.27063,-5.19885,0,0,0,0,0,0,0,-1,594,1380,-5.2706,5.19882
-623,-356,-0.263855,-0.675781,0,0,0,0,0,0,0,-1,601,1380,-0.263835,0.675841
-616,-356,-8.26532,-3.43945,0,0,0,0,0,0,0,-1,608,1380,-8.2653,3.43948
-609,-356,-4.88483,0.734497,0,0,0,0,0,0,0,-1,615,1380,-4.88485,-0.734532
-602,-356,-4.67957,0.327026,0,0,0,0,0,0,0,-1,622,1380,-4.67959,-0.327044
-595,-356,-4.71356,0.583984,0,0,0,0,0,0,0,-1,629,1380,-4.71353,-0.583993
-588,-356,-4.36871,1.04114,0,0,0,0,0,0,0,-1,636,1380,-4.36871,-1.04115
-581,-356,-5.474,2.16418,0.0255468,0.0225653,0.0210419,0.0451506,0.00296141,0.750033,0.0291634,0.0393665,643,1380,-5.47397,-2.16422
-574,-356,-5.48187,2.26831,0.0124554,0.0138216,0.0143125,0.0274673,-0.00119029,0.809244,0.0187209,0.0267991,650,1380,-5.48187,-2.26829
-567,-356,-5.60999,2.40479,0.00560982,0.00842385,0.00894223,0.0160691,-0.00203541,0.863431,0.0114516,0.0166372,657,1380,-5.60998,-2.40477
-560,-356,-5.5932,2.66663,0.00193351,0.0047952,0.00523521,0.00879158,-0.00206287,0.918796,0.0066561,0.016618,664,1380,-5.59322,-2.66659
-553,-356,-5.62219,2.8645,-0.0014166,0.00162436,0.00208768,0.00268656,-0.00247881,1.10014,0.00298303,0.0194054,671,1380,-5.62217,-2.86453
-546,-356,-5.63354,3.0437,-0.00241175,-0.000112835,-2.0707e-05,-0.000112649,-0.00241194,-1.56179,0.00157176,0.02297,678,1380,-5.63356,-3.04373
-539,-356,-5.61908,3.27173,-0.00163995,-0.001321,-0.001286,-0.000184627,-0.00277633,-0.847088,0.00179251,0.0158592,685,1380,-5.61908,-3.27171
-532,-356,-5.633,3.50928,-0.00190334,-0.00250043,-0.00257079,0.000386175,-0.00478995,-0.727593,0.0033295,0.0135928,692,1380,-5.63302,-3.50932
-525,-356,-5.62097,3.73376,-0.00298319,-0.0026927,-0.00419317,0.00135773,-0.00703363,-0.80271,0.00520107,0.0119542,699,1380,-5.621,-3.7338
-518,-356,-5.58533,3.96777,-0.00524063,-0.00368402,-0.00596614,0.00155437,-0.010479,-0.850258,0.00755761,0.0118432,706,1380,-5.58535,-3.96783
-511,-356,-5.49445,4.19824,-0.00865766,-0.00523355,-0.00816175,0.00139378,-0.015285,-0.888782,0.0106849,0.0210597,713,1380,-5.49442,-4.19828
-504,-356,-5.56128,4.24036,-0.0131377,-0.00603211,-0.0110291,0.00200233,-0.0211721,-0.941215,0.0148273,0.0477536,720,1380,-5.56125,-4.24041
-497,-356,-5.52374,4.36218,0,0,0,0,0,0,0,-1,727,1380,-5.52373,-4.36216
-490,-356,-4.82532,3.34644,0,0,0,0,0,0,0,-1,734,1380,-4.82534,-3.34649
-483,-356,-4.96521,3.18237,0,0,0,0,0,0,0,-1,741,1380,-4.96519,-3.18241
-476,-356,-5.005,2.1167,0,0,0,0,0,0,0,-1,748,1380,-5.00502,-2.11668
-469,-356,-9.44629,4.27588,0,0,0,0,0,0,0,-1,755,1380,-9.44629,-4.27583
-462,-356,-10.2891,2.44177,0,0,0,0,0,0,0,-1,762,1380,-10.2891,-2.44174
-455,-356,-11.2014,2.23572,0,0,0,0,0,0,0,-1,769,1380,-11.2014,-2.23576
-448,-356,-11.7062,2.1864,0,0,0,0,0,0,0,-1,776,1380,-11.7062,-2.18639
-441,-356,-12.4677,2.37158,0,0,0,0,0,0,0,-1,783,1380,-12.4677,-2.37161
-434,-356,0,0,0,0,0,0,0,0,0,-1,790,1380,0,0
-427,-356,0,0,0,0,0,0,0,0,0,-1,797,1380,0,0
-420,-356,0,0,0,0,0,0,0,0,0,-1,804,1380,0,0
-413,-356,0,0,0,0,0,0,0,0,0,-1,811,1380,0,0
-406,-356,0,0,0,0,0,0,0,0,0,-1,818,1380,0,0
-399,-356,0,0,0,0,0,0,0,0,0,-1,825,1380,0,0
-392,-356,0,0,0,0,0,0,0,0,0,-1,832,1380,0,0
-385,-356,0,0,0,0,0,0,0,0,0,-1,839,1380,0,0
-378,-356,0,0,0,0,0,0,0,0,0,-1,846,1380,0,0
-371,-356,0,0,0,0,0,0,0,0,0,-1,853,1380,0,0
-364,-356,0,0,0,0,0,0,0,0,0,-1,860,1380,0,0
-357,-356,0,0,0,0,0,0,0,0,0,-1,867,1380,0,0
-350,-356,0,0,0,0,0,0,0,0,0,-1,874,1380,0,0
-343,-356,0,0,0,0,0,0,0,0,0,-1,881,1380,0,0
-336,-356,0,0,0,0,0,0,0,0,0,-1,888,1380,0,0
-329,-356,0,0,0,0,0,0,0,0,0,-1,895,1380,0,0
-322,-356,0,0,0,0,0,0,0,0,0,-1,902,1380,0,0
-315,-356,0,0,0,0,0,0,0,0,0,-1,909,1380,0,0
-308,-356,0,0,0,0,0,0,0,0,0,-1,916,1380,0,0
-301,-356,0,0,0,0,0,0,0,0,0,-1,923,1380,0,0
-294,-356,0,0,0,0,0,0,0,0,0,-1,930,1380,0,0
-287,-356,0,0,0,0,0,0,0,0,0,-1,937,1380,0,0
-280,-356,0,0,0,0,0,0,0,0,0,-1,944,1380,0,0
-273,-356,0,0,0,0,0,0,0,0,0,-1,951,1380,0,0
-266,-356,0,0,0,0,0,0,0,0,0,-1,958,1380,0,0
-259,-356,0,0,0,0,0,0,0,0,0,-1,965,1380,0,0
-252,-356,0,0,0,0,0,0,0,0,0,-1,972,1380,0,0
-245,-356,0,0,0,0,0,0,0,0,0,-1,979,1380,0,0
-238,-356,0,0,0,0,0,0,0,0,0,-1,986,1380,0,0
-231,-356,0,0,0,0,0,0,0,0,0,-1,993,1380,0,0
-224,-356,0,0,0,0,0,0,0,0,0,-1,1000,1380,0,0
-217,-356,0,0,0,0,0,0,0,0,0,-1,1007,1380,0,0
-210,-356,0,0,0,0,0,0,0,0,0,-1,1014,1380,0,0
-203,-356,0,0,0,0,0,0,0,0,0,-1,1021,1380,0,0
-196,-356,0,0,0,0,0,0,0,0,0,-1,1028,1380,0,0
-189,-356,0,0,0,0,0,0,0,0,0,-1,1035,1380,0,0
-182,-356,0,0,0,0,0,0,0,0,0,-1,1042,1380,0,0
-175,-356,0,0,0,0,0,0,0,0,0,-1,1049,1380,0,0
-168,-356,0,0,0,0,0,0,0,0,0,-1,1056,1380,0,0
-161,-356,0,0,0,0,0,0,0,0,0,-1,1063,1380,0,0
-154,-356,0,0,0,0,0,0,0,0,0,-1,1070,1380,0,0
-147,-356,0,0,0,0,0,0,0,0,0,-1,1077,1380,0,0
-140,-356,0,0,0,0,0,0,0,0,0,-1,1084,1380,0,0
-133,-356,0,0,0,0,0,0,0,0,0,-1,1091,1380,0,0
-126,-356,0,0,0,0,0,0,0,0,0,-1,1098,1380,0,0
-119,-356,0,0,0,0,0,0,0,0,0,-1,1105,1380,0,0
-112,-356,0,0,0,0,0,0,0,0,0,-1,1112,1380,0,0
-105,-356,0,0,0,0,0,0,0,0,0,-1,1119,1380,0,0
-98,-356,0,0,0,0,0,0,0,0,0,-1,1126,1380,0,0
-91,-356,0,0,0,0,0,0,0,0,0,-1,1133,1380,0,0
-84,-356,0,0,0,0,0,0,0,0,0,-1,1140,1380,0,0
-77,-356,0,0,0,0,0,0,0,0,0,-1,1147,1380,0,0
-70,-356,0,0,0,0,0,0,0,0,0,-1,1154,1380,0,0
-63,-356,0,0,0,0,0,0,0,0,0,-1,1161,1380,0,0
-56,-356,0,0,0,0,0,0,0,0,0,-1,1168,1380,0,0
-49,-356,0,0,0,0,0,0,0,0,0,-1,1175,1380,0,0
-42,-356,0,0,0,0,0,0,0,0,0,-1,1182,1380,0,0
-35,-356,0,0,0,0,0,0,0,0,0,-1,1189,1380,0,0
-28,-356,0,0,0,0,0,0,0,0,0,-1,1196,1380,0,0
-21,-356,0,0,0,0,0,0,0,0,0,-1,1203,1380,0,0
-14,-356,0,0,0,0,0,0,0,0,0,-1,1210,1380,0,0
-7,-356,0,0,0,0,0,0,0,0,0,-1,1217,1380,0,0
0,-356,0,0,0,0,0,0,0,0,0,-1,1224,1380,0,0
7,-356,0,0,0,0,0,0,0,0,0,-1,1231,1380,0,0
14,-356,0,0,0,0,0,0,0,0,0,-1,1238,1380,0,0
21,-356,0,0,0,0,0,0,0,0,0,-1,1245,1380,0,0
28,-356,0,0,0,0,0,0,0,0,0,-1,1252,1380,0,0
35,-356,0,0,0,0,0,0,0,0,0,-1,1259,1380,0,0
42,-356,0,0,0,0,0,0,0,0,0,-1,1266,1380,0,0
49,-356,0,0,0,0,0,0,0,0,0,-1,1273,1380,0,0
56,-356,0,0,0,0,0,0,0,0,0,-1,1280,1380,0,0
63,-356,0,0,0,0,0,0,0,0,0,-1,1287,1380,0,0
70,-356,0,0,0,0,0,0,0,0,0,-1,1294,1380,0,0
77,-356,0,0,0,0,0,0,0,0,0,-1,1301,1380,0,0
84,-356,0,0,0,0,0,0,0,0,0,-1,1308,1380,0,0
91,-356,0,0,0,0,0,0,0,0,0,-1,1315,1380,0,0
98,-356,0,0,0,0,0,0,0,0,0,-1,1322,1380,0,0
105,-356,0,0,0,0,0,0,0,0,0,-1,1329,1380,0,0
112,-356,0,0,0,0,0,0,0,0,0,-1,1336,1380,0,0
119,-356,0,0,0,0,0,0,0,0,0,-1,1343,1380,0,0
126,-356,0,0,0,0,0,0,0,0,0,-1,1350,1380,0,0
133,-356,0,0,0,0,0,0,0,0,0,-1,1357,1380,0,0
140,-356,0,0,0,0,0,0,0,0,0,-1,1364,1380,0,0
147,-356,0,0,0,0,0,0,0,0,0,-1,1371,1380,0,0
154,-356,0,0,0,0,0,0,0,0,0,-1,1378,1380,0,0
161,-356,0,0,0,0,0,0,0,0,0,-1,1385,1380,0,0
168,-356,0,0,0,0,0,0,0,0,0,-1,1392,1380,0,0
175,-356,0,0,0,0,0,0,0,0,0,-1,1399,1380,0,0
182,-356,0,0,0,0,0,0,0,0,0,-1,1406,1380,0,0
189,-356,0,0,0,0,0,0,0,0,0,-1,1413,1380,0,0
196,-356,0,0,0,0,0,0,0,0,0,-1,1420,1380,0,0
203,-356,0,0,0,0,0,0,0,0,0,-1,1427,1380,0,0
210,-356,0,0,0,0,0,0,0,0,0,-1,1434,1380,0,0
217,-356,0,0,0,0,0,0,0,0,0,-1,1441,1380,0,0
224,-356,0,0,0,0,0,0,0,0,0,-1,1448,1380,0,0
231,-356,0,0,0,0,0,0,0,0,0,-1,1455,1380,0,0
238,-356,0,0,0,0,0,0,0,0,0,-1,1462,1380,0,0
245,-356,0,0,0,0,0,0,0,0,0,-1,1469,1380,0,0
252,-356,0,0,0,0,0,0,0,0,0,-1,1476,1380,0,0
259,-356,0,0,0,0,0,0,0,0,0,-1,1483,1380,0,0
266,-356,0,0,0,0,0,0,0,0,0,-1,1490,1380,0,0
273,-356,0,0,0,0,0,0,0,0,0,-1,1497,1380,0,0
280,-356,0,0,0,0,0,0,0,0,0,-1,1504,1380,0,0
287,-356,0,0,0,0,0,0,0,0,0,-1,1511,1380,0,0
294,-356,0,0,0,0,0,0,0,0,0,-1,1518,1380,0,0
301,-356,0,0,0,0,0,0,0,0,0,-1,1525,1380,0,0
308,-356,0,0,0,0,0,0,0,0,0,-1,1532,1380,0,0
315,-356,0,0,0,0,0,0,0,0,0,-1,1539,1380,0,0
322,-356,0,0,0,0,0,0,0,0,0,-1,1546,1380,0,0
329,-356,0,0,0,0,0,0,0,0,0,-1,1553,1380,0,0
336,-356,0,0,0,0,0,0,0,0,0,-1,1560,1380,0,0
343,-356,0,0,0,0,0,0,0,0,0,-1,1567,1380,0,0
350,-356,0,0,0,0,0,0,0,0,0,-1,1574,1380,0,0
357,-356,0,0,0,0,0,0,0,0,0,-1,1581,1380,0,0
364,-356,0,0,0,0,0,0,0,0,0,-1,1588,1380,0,0
371,-356,0,0,0,0,0,0,0,0,0,-1,1595,1380,0,0
378,-356,0,0,0,0,0,0,0,0,0,-1,1602,1380,0,0
385,-356,0,0,0,0,0,0,0,0,0,-1,1609,1380,0,0
392,-356,0,0,0,0,0,0,0,0,0,-1,1616,1380,0,0
399,-356,0,0,0,0,0,0,0,0,0,-1,1623,1380,0,0
406,-356,0,0,0,0,0,0,0,0,0,-1,1630,1380,0,0
413,-356,0,0,0,0,0,0,0,0,0,-1,1637,1380,0,0
420,-356,0,0,0,0,0,0,0,0,0,-1,1644,1380,0,0
427,-356,0,0,0,0,0,0,0,0,0,-1,1651,1380,0,0
434,-356,0,0,0,0,0,0,0,0,0,-1,1658,1380,0,0
441,-356,0,0,0,0,0,0,0,0,0,-1,1665,1380,0,0
448,-356,0,0,0,0,0,0,0,0,0,-1,1672,1380,0,0
455,-356,0,0,0,0,0,0,0,0,0,-1,1679,1380,0,0
462,-356,0,0,0,0,0,0,0,0,0,-1,1686,1380,0,0
469,-356,0,0,0,0,0,0,0,0,0,-1,1693,1380,0,0
476,-356,0,0,0,0,0,0,0,0,0,-1,1700,1380,0,0
483,-356,0,0,0,0,0,0,0,0,0,-1,1707,1380,0,0
490,-356,0,0,0,0,0,0,0,0,0,-1,1714,1380,0,0
497,-356,0,0,0,0,0,0,0,0,0,-1,1721,1380,0,0
504,-356,0,0,0,0,0,0,0,0,0,-1,1728,1380,0,0
511,-356,0,0,0,0,0,0,0,0,0,-1,1735,1380,0,0
518,-356,0,0,0,0,0,0,0,0,0,-1,1742,1380,0,0
525,-356,0,0,0,0,0,0,0,0,0,-1,1749,1380,0,0
532,-356,0,0,0,0,0,0,0,0,0,-1,1756,1380,0,0
539,-356,0,0,0,0,0,0,0,0,0,-1,1763,1380,0,0
546,-356,0,0,0,0,0,0,0,0,0,-1,1770,1380,0,0
553,-356,0,0,0,0,0,0,0,0,0,-1,1777,1380,0,0
560,-356,18.1882,5.44775,0,0,0,0,0,0,0,-1,1784,1380,18.1882,-5.44777
567,-356,17.9906,5.04272,0,0,0,0,0,0,0,-1,1791,1380,17.9906,-5.04277
574,-356,17.7408,4.58765,0,0,0,0,0,0,0,-1,1798,1380,17.7408,-4.58764
581,-356,17.5225,3.96057,0,0,0,0,0,0,0,-1,1805,1380,17.5225,-3.96052
588,-356,17.6669,3.5459,0,0,0,0,0,0,0,-1,1812,1380,17.6669,-3.54595
595,-356,10.4055,4.60095,0,0,0,0,0,0,0,-1,1819,1380,10.4055,-4.60091
602,-356,11.2957,4.54968,0,0,0,0,0,0,0,-1,1826,1380,11.2957,-4.54969
609,-356,11.7643,4.59875,0,0,0,0,0,0,0,-1,1833,1380,11.7643,-4.59875
616,-356,13.177,4.32324,0,0,0,0,0,0,0,-1,1840,1380,13.177,-4.3233
623,-356,13.4244,4.99902,-0.00563666,0.00838316,0.0270269,0.0292945,-0.026548,0.912286,0.0322536,0.0381552,1847,1380,13.4244,-4.999
630,-356,13.7634,5.5199,-0.00438048,0.00581046,0.0215571,0.0228661,-0.0214361,0.901454,0.0255823,0.0431496,1854,1380,13.7634,-5.51994
637,-356,13.5267,5.80078,-0.00347859,0.0038853,0.0166475,0.0172531,-0.0168464,0.894232,0.0196878,0.0381292,1861,1380,13.5268,-5.80076
644,-356,13.4622,6.06323,-0.00257166,0.0019583,0.0126081,0.0125033,-0.0131166,0.874273,0.014793,0.0247472,1868,1380,13.4621,-6.0632
651,-356,13.5022,5.79004,-0.00186152,0.000920749,0.00920714,0.00884126,-0.00978203,0.860377,0.0107567,0.0153934,1875,1380,13.5022,-5.79004
658,-356,13.4673,5.57288,-0.00178262,0.000257355,0.00602765,0.00535071,-0.00687598,0.869213,0.00707737,0.0150362,1882,1380,13.4673,-5.57285
665,-356,13.4786,5.42883,-0.00135827,-5.11155e-07,0.00350411,0.00288987,-0.00424866,0.881082,0.00414625,0.0148294,1889,1380,13.4786,-5.42881
672,-356,13.4762,5.26782,-0.000592501,0.000234508,0.00162238,0.00149525,-0.00185324,0.910179,0.00193693,0.0140394,1896,1380,13.4762,-5.26787
679,-356,13.4695,5.06677,-0.000499333,-0.000104554,-0.000220274,-6.16797e-06,-0.00059772,-1.15073,0.00039644,0.0158193,1903,1380,13.4695,-5.06681
686,-356,13.4927,4.88086,-0.000469426,0.000435957,-0.00158267,0.0016294,-0.00166287,-0.924694,0.00190083,0.0148871,1910,1380,13.4927,-4.88083
693,-356,13.5212,4.70422,-0.000745424,0.00160683,-0.00282663,0.00349226,-0.00263085,-0.982547,0.00354682,0.01287,1917,1380,13.5213,-4.70426
700,-356,13.4995,4.48071,-0.00117507,0.00296399,-0.00424431,0.00561644,-0.00382752,-1.01224,0.00548499,0.0172614,1924,1380,13.4995,-4.48077
707,-356,13.5145,4.10278,-0.00223801,0.00496324,-0.00570852,0.00811181,-0.00538658,-1.06676,0.00784607,0.0340777,1931,1380,13.5146,-4.10272
714,-356,13.1144,3.77649,-0.00393372,0.00798378,-0.00731079,0.0114566,-0.00740653,-1.12733,0.010974,0.0461133,1938,1380,13.1144,-3.77654
721,-356,12.7177,3.51282,0,0,0,0,0,0,0,-1,1945,1380,12.7177,-3.51276
728,-356,13.2661,3.90723,0,0,0,0,0,0,0,-1,1952,1380,13.2661,-3.90722
735,-356,16.1771,-0.659912,0,0,0,0,0,0,0,-1,1959,1380,16.1771,0.659892
742,-356,15.4358,0.389893,0,0,0,0,0,0,0,-1,1966,1380,15.4358,-0.389855
749,-356,14.597,1.31433,0,0,0,0,0,0,0,-1,1973,1380,14.5971,-1.31431
756,-356,0,0,0,0,0,0,0,0,0,-1,1980,1380,0,0
763,-356,0,0,0,0,0,0,0,0,0,-1,1987,1380,0,0
770,-356,0,0,0,0,0,0,0,0,0,-1,1994,1380,0,0
777,-356,0,0,0,0,0,0,0,0,0,-1,2001,1380,0,0
784,-356,0,0,0,0,0,0,0,0,0,-1,2008,1380,0,0
791,-356,0,0,0,0,0,0,0,0,0,-1,2015,1380,0,0
798,-356,0,0,0,0,0,0,0,0,0,-1,2022,1380,0,0
805,-356,0,0,0,0,0,0,0,0,0,-1,2029,1380,0,0
812,-356,0,0,0,0,0,0,0,0,0,-1,2036,1380,0,0
-700,-363,0,0,0,0,0,0,0,0,0,-1,524,1387,0,0
-693,-363,0,0,0,0,0,0,0,0,0,-1,531,1387,0,0
-686,-363,0,0,0,0,0,0,0,0,0,-1,538,1387,0,0
-679,-363,0,0,0,0,0,0,0,0,0,-1,545,1387,0,0
-672,-363,0,0,0,0,0,0,0,0,0,-1,552,1387,0,0
-665,-363,0,0,0,0,0,0,0,0,0,-1,559,1387,0,0
-658,-363,0,0,0,0,0,0,0,0,0,-1,566,1387,0,0
-651,-363,0,0,0,0,0,0,0,0,0,-1,573,1387,0,0
-644,-363,0,0,0,0,0,0,0,0,0,-1,580,1387,0,0
-637,-363,0,0,0,0,0,0,0,0,0,-1,587,1387,0,0
-630,-363,0,0,0,0,0,0,0,0,0,-1,594,1387,0,0
-623,-363,-9.67566,-5.91846,0,0,0,0,0,0,0,-1,601,1387,-9.67563,5.91847
-616,-363,-9.02985,-2.98083,0,0,0,0,0,0,0,-1,608,1387,-9.02987,2.98079
-609,-363,-4.90265,0.195679,0,0,0,0,0,0,0,-1,615,1387,-4.90263,-0.195721
-602,-363,-4.47217,0.635986,0.138718,0.0785187,0.0666685,0.181767,0.03547,0.573354,0.111256,0.0469551,622,1387,-4.47218,-0.636028
-595,-363,-4.40381,1.12402,0,0,0,0,0,0,0,-1,629,1387,-4.40383,-1.12399
-588,-363,-4.59717,1.45374,0,0,0,0,0,0,0,-1,636,1387,-4.59714,-1.45372
-581,-363,-5.06134,1.77136,0.036868,0.0261534,0.0268139,0.0588546,0.0041668,0.686799,0.0379238,0.0393868,643,1387,-5.06136,-1.77139
-574,-363,-5.23889,2.28137,0.0200197,0.0162135,0.0177909,0.036009,0.00022419,0.732115,0.0239316,0.0306321,650,1387,-5.23887,-2.28141
-567,-363,-5.38824,2.44434,0.00993245,0.00961102,0.0111095,0.0208824,-0.00133897,0.778166,0.0143887,0.0200227,657,1387,-5.38827,-2.44433
-560,-363,-5.3891,2.65344,0.0042611,0.00529904,0.00658033,0.0113808,-0.0018207,0.82475,0.00826127,0.0127431,664,1387,-5.3891,-2.65348
-553,-363,-5.39465,2.86987,-0.000770439,0.00156852,0.00279325,0.00342722,-0.00262914,0.983651,0.00350675,0.0123758,671,1387,-5.39467,-2.86986
-546,-363,-5.38812,3.0697,-0.00254086,-0.000281859,0.000384383,-0.000218245,-0.00260447,1.40679,0.00166833,0.0129035,678,1387,-5.38812,-3.06968
-539,-363,-5.36798,3.27637,-0.00165455,-0.00128061,-0.000832438,-0.000614403,-0.00232076,-0.895869,0.00138845,0.0156128,685,1387,-5.36796,-3.27632
-532,-363,-5.3999,3.5293,-0.00165663,-0.00270197,-0.00195233,-0.00015822,-0.00420038,-0.654606,0.00274903,0.0128843,692,1387,-5.39988,-3.52925
-525,-363,-5.39185,3.74084,-0.00230671,-0.00363772,-0.00323719,0.000332669,-0.0062771,-0.68402,0.00429992,0.0108688,699,1387,-5.39186,-3.74081
-518,-363,-5.36914,3.9574,-0.00416762,-0.00560553,-0.00463675,-0.000194419,-0.00957873,-0.708483,0.00632201,0.00996981,706,1387,-5.36916,-3.95735
-511,-363,-5.3454,4.18567,-0.00705454,-0.00869591,-0.00624236,-0.00157915,-0.0141713,-0.720038,0.00896762,0.0156863,713,1387,-5.34537,-4.18565
-504,-363,-5.24841,4.41052,-0.0108047,-0.0120692,-0.00835174,-0.00306129,-0.0198126,-0.74762,0.0123154,0.0352603,720,1387,-5.24842,-4.4105
-497,-363,-5.16821,4.21533,0,0,0,0,0,0,0,-1,727,1387,-5.16823,-4.21535
-490,-363,-5.02936,3.83936,-0.0227478,-0.0213078,-0.0141007,-0.00790873,-0.0361469,-0.810906,0.0219421,0.0486317,734,1387,-5.02937,-3.83942
-483,-363,-5.16907,3.64233,-0.0309434,-0.0270562,-0.0175376,-0.0113548,-0.0466448,-0.840586,0.0280874,0.0491254,741,1387,-5.16904,-3.64231
-476,-363,-5.41357,3.36682,0,0,0,0,0,0,0,-1,748,1387,-5.41356,-3.36687
-469,-363,-4.31604,1.66943,0,0,0,0,0,0,0,-1,755,1387,-4.31606,-1.66944
-462,-363,-9.94159,2.40771,0,0,0,0,0,0,0,-1,762,1387,-9.94157,-2.4077
-455,-363,-10.5774,1.9292,0,0,0,0,0,0,0,-1,769,1387,-10.5774,-1.92915
-448,-363,-11.0799,1.61865,0,0,0,0,0,0,0,-1,776,1387,-11.0799,-1.61866
-441,-363,-11.8578,1.90332,0,0,0,0,0,0,0,-1,783,1387,-11.8578,-1.90326
-434,-363,-12.5151,2.19995,0,0,0,0,0,0,0,-1,790,1387,-12.5151,-2.19996
-427,-363,0,0,0,0,0,0,0,0,0,-1,797,1387,0,0
-420,-363,0,0,0,0,0,0,0,0,0,-1,804,1387,0,0
-413,-363,0,0,0,0,0,0,0,0,0,-1,811,1387,0,0
-406,-363,0,0,0,0,0,0,0,0,0,-1,818,1387,0,0
-399,-363,0,0,0,0,0,0,0,0,0,-1,825,1387,0,0
-392,-363,0,0,0,0,0,0,0,0,0,-1,832,1387,0,0
-385,-363,0,0,0,0,0,0,0,0,0,-1,839,1387,0,0
-378,-363,0,0,0,0,0,0,0,0,0,-1,846,1387,0,0
-371,-363,0,0,0,0,0,0,0,0,0,-1,853,1387,0,0
-364,-363,0,0,0,0,0,0,0,0,0,-1,860,1387,0,0
-357,-363,0,0,0,0,0,0,0,0,0,-1,867,1387,0,0
-350,-363,0,0,0,0,0,0,0,0,0,-1,874,1387,0,0
-343,-363,0,0,0,0,0,0,0,0,0,-1,881,1387,0,0
-336,-363,0,0,0,0,0,0,0,0,0,-1,888,1387,0,0
-329,-363,0,0,0,0,0,0,0,0,0,-1,895,1387,0,0
-322,-363,0,0,0,0,0,0,0,0,0,-1,902,1387,0,0
-315,-363,0,0,0,0,0,0,0,0,0,-1,909,1387,0,0
-308,-363,0,0,0,0,0,0,0,0,0,-1,916,1387,0,0
-301,-363,0,0,0,0,0,0,0,0,0,-1,923,1387,0,0
-294,-363,0,0,0,0,0,0,0,0,0,-1,930,1387,0,0
-287,-363,0,0,0,0,0,0,0,0,0,-1,937,1387,0,0
-280,-363,0,0,0,0,0,0,0,0,0,-1,944,1387,0,0
-273,-363,0,0,0,0,0,0,0,0,0,-1,951,1387,0,0
-266,-363,0,0,0,0,0,0,0,0,0,-1,958,1387,0,0
-259,-363,0,0,0,0,0,0,0,0,0,-1,965,1387,0,0
-252,-363,0,0,0,0,0,0,0,0,0,-1,972,1387,0,0
-245,-363,0,0,0,0,0,0,0,0,0,-1,979,1387,0,0
-238,-363,0,0,0,0,0,0,0,0,0,-1,986,1387,0,0
-231,-363,0,0,0,0,0,0,0,0,0,-1,993,1387,0,0
-224,-363,0,0,0,0,0,0,0,0,0,-1,1000,1387,0,0
-217,-363,0,0,0,0,0,0,0,0,0,-1,1007,1387,0,0
-210,-363,0,0,0,0,0,0,0,0,0,-1,1014,1387,0,0
-203,-363,0,0,0,0,0,0,0,0,0,-1,1021,1387,0,0
-196,-363,0,0,0,0,0,0,0,0,0,-1,1028,1387,0,0
-189,-363,0,0,0,0,0,0,0,0,0,-1,1035,1387,0,0
-182,-363,0,0,0,0,0,0,0,0,0,-1,1042,1387,0,0
-175,-363,0,0,0,0,0,0,0,0,0,-1,1049,1387,0,0
-168,-363,0,0,0,0,0,0,0,0,0,-1,1056,1387,0,0
-161,-363,0,0,0,0,0,0,0,0,0,-1,1063,1387,0,0
-154,-363,0,0,0,0,0,0,0,0,0,-1,1070,1387,0,0
-147,-363,0,0,0,0,0,0,0,0,0,-1,1077,1387,0,0
-140,-363,0,0,0,0,0,0,0,0,0,-1,1084,1387,0,0
-133,-363,0,0,0,0,0,0,0,0,0,-1,1091,1387,0,0
-126,-363,0,0,0,0,0,0,0,0,0,-1,1098,1387,0,0
-119,-363,0,0,0,0,0,0,0,0,0,-1,1105,1387,0,0
-112,-363,0,0,0,0,0,0,0,0,0,-1,1112,1387,0,0
-105,-363,0,0,0,0,0,0,0,0,0,-1,1119,1387,0,0
-98,-363,0,0,0,0,0,0,0,0,0,-1,1126,1387,0,0
-91,-363,0,0,0,0,0,0,0,0,0,-1,1133,1387,0,0
-84,-363,0,0,0,0,0,0,0,0,0,-1,1140,1387,0,0
-77,-363,0,0,0,0,0,0,0,0,0,-1,1147,1387,0,0
-70,-363,0,0,0,0,0,0,0,0,0,-1,1154,1387,0,0
-63,-363,0,0,0,0,0,0,0,0,0,-1,1161,1387,0,0
-56,-363,0,0,0,0,0,0,0,0,0,-1,1168,1387,0,0
-49,-363,0,0,0,0,0,0,0,0,0,-1,1175,1387,0,0
-42,-363,0,0,0,0,0,0,0,0,0,-1,1182,1387,0,0
-35,-363,0,0,0,0,0,0,0,0,0,-1,1189,1387,0,0
-28,-363,0,0,0,0,0,0,0,0,0,-1,1196,1387,0,0
-21,-363,0,0,0,0,0,0,0,0,0,-1,1203,1387,0,0
-14,-363,0,0,0,0,0,0,0,0,0,-1,1210,1387,0,0
-7,-363,0,0,0,0,0,0,0,0,0,-1,1217,1387,0,0
0,-363,0,0,0,0,0,0,0,0,0,-1,1224,1387,0,0
7,-363,0,0,0,0,0,0,0,0,0,-1,1231,1387,0,0
14,-363,0,0,0,0,0,0,0,0,0,-1,1238,1387,0,0
21,-363,0,0,0,0,0,0,0,0,0,-1,1245,1387,0,0
28,-363,0,0,0,0,0,0,0,0,0,-1,1252,1387,0,0
35,-363,0,0,0,0,0,0,0,0,0,-1,1259,1387,0,0
42,-363,0,0,0,0,0,0,0,0,0,-1,1266,1387,0,0
49,-363,0,0,0,0,0,0,0,0,0,-1,1273,1387,0,0
56,-363,0,0,0,0,0,0,0,0,0,-1,1280,1387,0,0
63,-363,0,0,0,0,0,0,0,0,0,-1,1287,1387,0,0
70,-363,0,0,0,0,0,0,0,0,0,-1,1294,1387,0,0
77,-363,0,0,0,0,0,0,0,0,0,-1,1301,1387,0,0
84,-363,0,0,0,0,0,0,0,0,0,-1,1308,1387,0,0
91,-363,0,0,0,0,0,0,0,0,0,-1,1315,1387,0,0
98,-363,0,0,0,0,0,0,0,0,0,-1,1322,1387,0,0
105,-363,0,0,0,0,0,0,0,0,0,-1,1329,1387,0,0
112,-363,0,0,0,0,0,0,0,0,0,-1,1336,1387,0,0
119,-363,0,0,0,0,0,0,0,0,0,-1,1343,1387,0,0
126,-363,0,0,0,0,0,0,0,0,0,-1,1350,1387,0,0
133,-363,0,0,0,0,0,0,0,0,0,-1,1357,1387,0,0
140,-363,0,0,0,0,0,0,0,0,0,-1,1364,1387,0,0
147,-363,0,0,0,0,0,0,0,0,0,-1,1371,1387,0,0
154,-363,0,0,0,0,0,0,0,0,0,-1,1378,1387,0,0
161,-363,0,0,0,0,0,0,0,0,0,-1,1385,1387,0,0
168,-363,0,0,0,0,0,0,0,0,0,-1,1392,1387,0,0
175,-363,0,0,0,0,0,0,0,0,0,-1,1399,1387,0,0
182,-363,0,0,0,0,0,0,0,0,0,-1,1406,1387,0,0
189,-363,0,0,0,0,0,0,0,0,0,-1,1413,1387,0,0
196,-363,0,0,0,0,0,0,0,0,0,-1,1420,1387,0,0
203,-363,0,0,0,0,0,0,0,0,0,-1,1427,1387,0,0
210,-363,0,0,0,0,0,0,0,0,0,-1,1434,1387,0,0
217,-363,0,0,0,0,0,0,0,0,0,-1,1441,1387,0,0
224,-363,0,0,0,0,0,0,0,0,0,-1,1448,1387,0,0
231,-363,0,0,0,0,0,0,0,0,0,-1,1455,1387,0,0
238,-363,0,0,0,0,0,0,0,0,0,-1,1462,1387,0,0
245,-363,0,0,0,0,0,0,0,0,0,-1,1469,1387,0,0
252,-363,0,0,0,0,0,0,0,0,0,-1,1476,1387,0,0
259,-363,0,0,0,0,0,0,0,0,0,-1,1483,1387,0,0
266,-363,0,0,0,0,0,0,0,0,0,-1,1490,1387,0,0
273,-363,0,0,0,0,0,0,0,0,0,-1,1497,1387,0,0
280,-363,0,0,0,0,0,0,0,0,0,-1,1504,1387,0,0
287,-363,0,0,0,0,0,0,0,0,0,-1,1511,1387,0,0
294,-363,0,0,0,0,0,0,0,0,0,-1,1518,1387,0,0
301,-363,0,0,0,0,0,0,0,0,0,-1,1525,1387,0,0
308,-363,0,0,0,0,0,0,0,0,0,-1,1532,1387,0,0
315,-363,0,0,0,0,0,0,0,0,0,-1,1539,1387,0,0
322,-363,0,0,0,0,0,0,0,0,0,-1,1546,1387,0,0
329,-363,0,0,0,0,0,0,0,0,0,-1,1553,1387,0,0
336,-363,0,0,0,0,0,0,0,0,0,-1,1560,1387,0,0
343,-363,0,0,0,0,0,0,0,0,0,-1,1567,1387,0,0
350,-363,0,0,0,0,0,0,0,0,0,-1,1574,1387,0,0
357,-363,0,0,0,0,0,0,0,0,0,-1,1581,1387,0,0
364,-363,0,0,0,0,0,0,0,0,0,-1,1588,1387,0,0
371,-363,0,0,0,0,0,0,0,0,0,-1,1595,1387,0,0
378,-363,0,0,0,0,0,0,0,0,0,-1,1602,1387,0,0
385,-363,0,0,0,0,0,0,0,0,0,-1,1609,1387,0,0
392,-363,0,0,0,0,0,0,0,0,0,-1,1616,1387,0,0
399,-363,0,0,0,0,0,0,0,0,0,-1,1623,1387,0,0
406,-363,0,0,0,0,0,0,0,0,0,-1,1630,1387,0,0
413,-363,0,0,0,0,0,0,0,0,0,-1,1637,1387,0,0
420,-363,0,0,0,0,0,0,0,0,0,-1,1644,1387,0,0
427,-363,0,0,0,0,0,0,0,0,0,-1,1651,1387,0,0
434,-363,0,0,0,0,0,0,0,0,0,-1,1658,1387,0,0
441,-363,0,0,0,0,0,0,0,0,0,-1,1665,1387,0,0
448,-363,0,0,0,0,0,0,0,0,0,-1,1672,1387,0,0
455,-363,0,0,0,0,0,0,0,0,0,-1,1679,1387,0,0
462,-363,0,0,0,0,0,0,0,0,0,-1,1686,1387,0,0
469,-363,0,0,0,0,0,0,0,0,0,-1,1693,1387,0,0
476,-363,0,0,0,0,0,0,0,0,0,-1,1700,1387,0,0
483,-363,0,0,0,0,0,0,0,0,0,-1,1707,1387,0,0
490,-363,0,0,0,0,0,0,0,0,0,-1,1714,1387,0,0
497,-363,0,0,0,0,0,0,0,0,0,-1,1721,1387,0,0
504,-363,0,0,0,0,0,0,0,0,0,-1,1728,1387,0,0
511,-363,0,0,0,0,0,0,0,0,0,-1,1735,1387,0,0
518,-363,0,0,0,0,0,0,0,0,0,-1,1742,1387,0,0
525,-363,0,0,0,0,0,0,0,0,0,-1,1749,1387,0,0
532,-363,0,0,0,0,0,0,0,0,0,-1,1756,1387,0,0
539,-363,0,0,0,0,0,0,0,0,0,-1,1763,1387,0,0
546,-363,0,0,0,0,0,0,0,0,0,-1,1770,1387,0,0
553,-363,18.856,4.02698,0,0,0,0,0,0,0,-1,1777,1387,18.8559,-4.02694
560,-363,18.1256,3.77698,0,0,0,0,0,0,0,-1,1784,1387,18.1256,-3.77696
567,-363,17.5446,4.31433,0,0,0,0,0,0,0,-1,1791,1387,17.5446,-4.31437
574,-363,17.0928,3.84119,0,0,0,0,0,0,0,-1,1798,1387,17.0928,-3.8412
581,-363,16.9243,3.32288,0,0,0,0,0,0,0,-1,1805,1387,16.9243,-3.32292
588,-363,16.9169,2.92285,0,0,0,0,0,0,0,-1,1812,1387,16.9168,-2.9228
595,-363,10.9038,3.57776,0,0,0,0,0,0,0,-1,1819,1387,10.9038,-3.57777
602,-363,11.5227,3.93884,0,0,0,0,0,0,0,-1,1826,1387,11.5227,-3.9388
609,-363,12.0264,4.49072,0,0,0,0,0,0,0,-1,1833,1387,12.0264,-4.49073
616,-363,12.6216,5.02905,0,0,0,0,0,0,0,-1,1840,1387,12.6215,-5.02906
623,-363,12.9985,4.61304,0,0,0,0,0,0,0,-1,1847,1387,12.9986,-4.61304
630,-363,13.4412,5.85938,-0.00795494,0.00150598,0.0224968,0.0197643,-0.0262132,0.889025,0.026632,0.0384898,1854,1387,13.4412,-5.85933
637,-363,13.1768,6.10779,-0.00639652,0.000375635,0.0173614,0.0146781,-0.020699,0.881707,0.0205233,0.0301389,1861,1387,13.1768,-6.10784
644,-363,13.2869,6.02686,-0.00495692,-0.000601879,0.0130229,0.0104243,-0.0159831,0.868235,0.0153585,0.0108536,1868,1387,13.2868,-6.02683
651,-363,13.2986,5.79871,-0.00362602,-0.000872933,0.00938174,0.00723271,-0.0117317,0.858241,0.0110513,0.0102462,1875,1387,13.2986,-5.79869
658,-363,13.2867,5.59692,-0.00277277,-0.000942941,0.00618346,0.00439292,-0.00810864,0.858846,0.00732328,0.0116276,1882,1387,13.2867,-5.59688
665,-363,13.2834,5.44458,-0.00181515,-0.000862327,0.00351393,0.00220734,-0.00488482,0.852776,0.0041908,0.0116542,1889,1387,13.2835,-5.44457
672,-363,13.3073,5.27588,-0.000789063,-0.000447544,0.00136976,0.000762057,-0.00199866,0.84741,0.00164634,0.0123375,1896,1387,13.3072,-5.27587
679,-363,13.3018,5.07996,-0.000339521,-0.000570333,-0.000557916,0.0001148,-0.00102465,-0.68341,0.000724408,0.0144538,1903,1387,13.3017,-5.07996
686,-363,13.3206,4.88623,-7.00241e-05,-6.95482e-05,-0.00201321,0.00194342,-0.00208299,-0.785457,0.00232512,0.0147725,1910,1387,13.3205,-4.88619
693,-363,13.3264,4.68506,-0.000195939,0.000924245,-0.00338099,0.00379122,-0.00306292,-0.867482,0.00396468,0.0127142,1917,1387,13.3264,-4.68507
700,-363,13.3585,4.43848,-0.000583298,0.00188446,-0.00486369,0.00566834,-0.00436718,-0.909623,0.00581022,0.0164656,1924,1387,13.3585,-4.43844
707,-363,13.298,4.0769,-0.0015053,0.00340498,-0.00657287,0.00796627,-0.00606659,-0.964137,0.00812658,0.0340739,1931,1387,13.298,-4.07686
714,-363,13.181,3.66162,-0.00303597,0.00591756,-0.00852746,0.0110719,-0.00819035,-1.02711,0.0111625,0.0479005,1938,1387,13.1811,-3.66166
721,-363,13.1918,3.20715,0,0,0,0,0,0,0,-1,1945,1387,13.1917,-3.20709
728,-363,13.8644,4.52063,0,0,0,0,0,0,0,-1,1952,1387,13.8644,-4.52064
735,-363,14.8151,4.4552,0,0,0,0,0,0,0,-1,1959,1387,14.8151,-4.45516
742,-363,16.3715,0.114868,0,0,0,0,0,0,0,-1,1966,1387,16.3715,-0.114861
749,-363,0,0,0,0,0,0,0,0,0,-1,1973,1387,0,0
756,-363,0,0,0,0,0,0,0,0,0,-1,1980,1387,0,0
763,-363,0,0,0,0,0,0,0,0,0,-1,1987,1387,0,0
770,-363,0,0,0,0,0,0,0,0,0,-1,1994,1387,0,0
777,-363,0,0,0,0,0,0,0,0,0,-1,2001,1387,0,0
784,-363,0,0,0,0,0,0,0,0,0,-1,2008,1387,0,0
791,-363,0,0,0,0,0,0,0,0,0,-1,2015,1387,0,0
798,-363,0,0,0,0,0,0,0,0,0,-1,2022,1387,0,0
805,-363,0,0,0,0,0,0,0,0,0,-1,2029,1387,0,0
812,-363,0,0,0,0,0,0,0,0,0,-1,2036,1387,0,0
-700,-370,0,0,0,0,0,0,0,0,0,-1,524,1394,0,0
-693,-370,0,0,0,0,0,0,0,0,0,-1,531,1394,0,0
-686,-370,0,0,0,0,0,0,0,0,0,-1,538,1394,0,0
-679,-370,0,0,0,0,0,0,0,0,0,-1,545,1394,0,0
-672,-370,0,0,0,0,0,0,0,0,0,-1,552,1394,0,0
-665,-370,0,0,0,0,0,0,0,0,0,-1,559,1394,0,0
-658,-370,0,0,0,0,0,0,0,0,0,-1,566,1394,0,0
-651,-370,0,0,0,0,0,0,0,0,0,-1,573,1394,0,0
-644,-370,0,0,0,0,0,0,0,0,0,-1,580,1394,0,0
-637,-370,0,0,0,0,0,0,0,0,0,-1,587,1394,0,0
-630,-370,0,0,0,0,0,0,0,0,0,-1,594,1394,0,0
-623,-370,-10.1758,-7.10486,0,0,0,0,0,0,0,-1,601,1394,-10.1758,7.10483
-616,-370,-8.85925,-1.61475,0,0,0,0,0,0,0,-1,608,1394,-8.85925,1.61476
-609,-370,-5.39325,0.0421143,0,0,0,0,0,0,0,-1,615,1394,-5.39328,-0.0421372
-602,-370,-4.73785,0.639648,0,0,0,0,0,0,0,-1,622,1394,-4.73787,-0.639675
-595,-370,-4.17444,1.59302,0,0,0,0,0,0,0,-1,629,1394,-4.17441,-1.593
-588,-370,-4.6955,1.27795,0,0,0,0,0,0,0,-1,636,1394,-4.69551,-1.27792
-581,-370,-4.76855,1.724,0.0505279,0.0295404,0.0325667,0.0742497,0.00581856,0.629539,0.0476788,0.0468407,643,1394,-4.76856,-1.72403
-574,-370,-4.94165,2.13232,0.0289134,0.018069,0.0211919,0.0453658,0.00161667,0.660154,0.0297196,0.0373374,650,1394,-4.94163,-2.13238
-567,-370,-5.10443,2.47791,0.0151003,0.0102149,0.0131174,0.0260004,-0.000685301,0.693343,0.0175665,0.0237807,657,1394,-5.10445,-2.47792
-560,-370,-5.19788,2.64502,0.00705334,0.00522099,0.00768319,0.0138748,-0.00160046,0.726056,0.00982688,0.0150559,664,1394,-5.19791,-2.645
-553,-370,-5.1806,2.86499,9.11458e-05,0.000952035,0.00321096,0.00376128,-0.00271809,0.852028,0.00375699,0.0107367,671,1394,-5.18057,-2.86503
-546,-370,-5.14252,3.07446,-0.00255418,-0.000918783,0.000505233,-0.000775289,-0.00269767,1.29407,0.00160375,0.0137427,678,1394,-5.14251,-3.07445
-539,-370,-5.13269,3.32605,-0.00157494,-0.00156293,-0.000618052,-0.000950855,-0.00218702,-0.790254,0.00126625,0.0175068,685,1394,-5.13268,-3.32599
-532,-370,-5.1723,3.57532,-0.00139366,-0.0028958,-0.00158411,-0.000391585,-0.00389787,-0.564031,0.00247839,0.0197503,692,1394,-5.17227,-3.57533
-525,-370,-5.1615,3.75891,-0.00174498,-0.00410965,-0.0026034,-6.80105e-05,-0.00578662,-0.572249,0.00383528,0.0144436,699,1394,-5.16152,-3.75897
-518,-370,-5.16125,3.93823,-0.00330528,-0.00649809,-0.00371685,-0.00085651,-0.00894686,-0.582558,0.00570056,0.0109194,706,1394,-5.16126,-3.9382
-511,-370,-5.16602,4.16589,-0.00578978,-0.0102135,-0.00485573,-0.00266586,-0.0133374,-0.571684,0.00814963,0.0144618,713,1394,-5.16599,-4.16586
-504,-370,-5.11389,4.43054,-0.00897314,-0.0148676,-0.00636864,-0.00490283,-0.0189379,-0.568687,0.0113496,0.0230838,720,1394,-5.11389,-4.43051
-497,-370,-5.06952,4.67432,0,0,0,0,0,0,0,-1,727,1394,-5.06954,-4.67434
-490,-370,-5.41504,4.51062,-0.0196078,-0.0299365,-0.0105773,-0.0130014,-0.0365429,-0.558297,0.0213886,0.0460188,734,1394,-5.41502,-4.51062
-483,-370,-5.72766,4.00977,-0.027264,-0.0408961,-0.0131368,-0.0192802,-0.0488798,-0.54609,0.0284296,0.0460921,741,1394,-5.72766,-4.0098
-476,-370,-6.16388,3.7218,0,0,0,0,0,0,0,-1,748,1394,-6.1639,-3.72186
-469,-370,-4.28174,1.73804,0,0,0,0,0,0,0,-1,755,1394,-4.28171,-1.73798
-462,-370,-9.86481,2.61072,0,0,0,0,0,0,0,-1,762,1394,-9.86479,-2.61068
-455,-370,-8.96338,1.39319,0,0,0,0,0,0,0,-1,769,1394,-8.96335,-1.39315
-448,-370,-9.96106,1.12341,0,0,0,0,0,0,0,-1,776,1394,-9.96106,-1.12339
-441,-370,-11.2067,1.4259,0,0,0,0,0,0,0,-1,783,1394,-11.2067,-1.42593
-434,-370,-11.8126,1.54004,0,0,0,0,0,0,0,-1,790,1394,-11.8126,-1.5401
-427,-370,0,0,0,0,0,0,0,0,0,-1,797,1394,0,0
-420,-370,0,0,0,0,0,0,0,0,0,-1,804,1394,0,0
-413,-370,0,0,0,0,0,0,0,0,0,-1,811,1394,0,0
-406,-370,0,0,0,0,0,0,0,0,0,-1,818,1394,0,0
-399,-370,0,0,0,0,0,0,0,0,0,-1,825,1394,0,0
-392,-370,0,0,0,0,0,0,0,0,0,-1,832,1394,0,0
-385,-370,0,0,0,0,0,0,0,0,0,-1,839,1394,0,0
-378,-370,0,0,0,0,0,0,0,0,0,-1,846,1394,0,0
-371,-370,0,0,0,0,0,0,0,0,0,-1,853,1394,0,0
-364,-370,0,0,0,0,0,0,0,0,0,-1,860,1394,0,0
-357,-370,0,0,0,0,0,0,0,0,0,-1,867,1394,0,0
-350,-370,0,0,0,0,0,0,0,0,0,-1,874,1394,0,0
-343,-370,0,0,0,0,0,0,0,0,0,-1,881,1394,0,0
-336,-370,0,0,0,0,0,0,0,0,0,-1,888,1394,0,0
-329,-370,0,0,0,0,0,0,0,0,0,-1,895,1394,0,0
-322,-370,0,0,0,0,0,0,0,0,0,-1,902,1394,0,0
-315,-370,0,0,0,0,0,0,0,0,0,-1,909,1394,0,0
-308,-370,0,0,0,0,0,0,0,0,0,-1,916,1394,0,0
-301,-370,0,0,0,0,0,0,0,0,0,-1,923,1394,0,0
-294,-370,0,0,0,0,0,0,0,0,0,-1,930,1394,0,0
-287,-370,0,0,0,0,0,0,0,0,0,-1,937,1394,0,0
-280,-370,0,0,0,0,0,0,0,0,0,-1,944,1394,0,0
-273,-370,0,0,0,0,0,0,0,0,0,-1,951,1394,0,0
-266,-370,0,0,0,0,0,0,0,0,0,-1,958,1394,0,0
-259,-370,0,0,0,0,0,0,0,0,0,-1,965,1394,0,0
-252,-370,0,0,0,0,0,0,0,0,0,-1,972,1394,0,0
-245,-370,0,0,0,0,0,0,0,0,0,-1,979,1394,0,0
-238,-370,0,0,0,0,0,0,0,0,0,-1,986,1394,0,0
-231,-370,0,0,0,0,0,0,0,0,0,-1,993,1394,0,0
-224,-370,0,0,0,0,0,0,0,0,0,-1,1000,1394,0,0
-217,-370,0,0,0,0,0,0,0,0,0,-1,1007,1394,0,0
-210,-370,0,0,0,0,0,0,0,0,0,-1,1014,1394,0,0
-203,-370,0,0,0,0,0,0,0,0,0,-1,1021,1394,0,0
-196,-370,0,0,0,0,0,0,0,0,0,-1,1028,1394,0,0
-189,-370,0,0,0,0,0,0,0,0,0,-1,1035,1394,0,0
-182,-370,0,0,0,0,0,0,0,0,0,-1,1042,1394,0,0
-175,-370,0,0,0,0,0,0,0,0,0,-1,1049,1394,0,0
-168,-370,0,0,0,0,0,0,0,0,0,-1,1056,1394,0,0
-161,-370,0,0,0,0,0,0,0,0,0,-1,1063,1394,0,0
-154,-370,0,0,0,0,0,0,0,0,0,-1,1070,1394,0,0
-147,-370,0,0,0,0,0,0,0,0,0,-1,1077,1394,0,0
-140,-370,0,0,0,0,0,0,0,0,0,-1,1084,1394,0,0
-133,-370,0,0,0,0,0,0,0,0,0,-1,1091,1394,0,0
-126,-370,0,0,0,0,0,0,0,0,0,-1,1098,1394,0,0
-119,-370,0,0,0,0,0,0,0,0,0,-1,1105,1394,0,0
-112,-370,0,0,0,0,0,0,0,0,0,-1,1112,1394,0,0
-105,-370,0,0,0,0,0,0,0,0,0,-1,1119,1394,0,0
-98,-370,0,0,0,0,0,0,0,0,0,-1,1126,1394,0,0
-91,-370,0,0,0,0,0,0,0,0,0,-1,1133,1394,0,0
-84,-370,0,0,0,0,0,0,0,0,0,-1,1140,1394,0,0
-77,-370,0,0,0,0,0,0,0,0,0,-1,1147,1394,0,0
-70,-370,0,0,0,0,0,0,0,0,0,-1,1154,1394,0,0
-63,-370,0,0,0,0,0,0,0,0,0,-1,1161,1394,0,0
-56,-370,0,0,0,0,0,0,0,0,0,-1,1168,1394,0,0
-49,-370,0,0,0,0,0,0,0,0,0,-1,1175,1394,0,0
-42,-370,0,0,0,0,0,0,0,0,0,-1,1182,1394,0,0
-35,-370,0,0,0,0,0,0,0,0,0,-1,1189,1394,0,0
-28,-370,0,0,0,0,0,0,0,0,0,-1,1196,1394,0,0
-21,-370,0,0,0,0,0,0,0,0,0,-1,1203,1394,0,0
-14,-370,0,0,0,0,0,0,0,0,0,-1,1210,1394,0,0
-7,-370,0,0,0,0,0,0,0,0,0,-1,1217,1394,0,0
0,-370,0,0,0,0,0,0,0,0,0,-1,1224,1394,0,0
7,-370,0,0,0,0,0,0,0,0,0,-1,1231,1394,0,0
14,-370,0,0,0,0,0,0,0,0,0,-1,1238,1394,0,0
21,-370,0,0,0,0,0,0,0,0,0,-1,1245,1394,0,0
28,-370,0,0,0,0,0,0,0,0,0,-1,1252,1394,0,0
35,-370,0,0,0,0,0,0,0,0,0,-1,1259,1394,0,0
42,-370,0,0,0,0,0,0,0,0,0,-1,1266,1394,0,0
49,-370,0,0,0,0,0,0,0,0,0,-1,1273,1394,0,0
56,-370,0,0,0,0,0,0,0,0,0,-1,1280,1394,0,0
63,-370,0,0,0,0,0,0,0,0,0,-1,1287,1394,0,0
70,-370,0,0,0,0,0,0,0,0,0,-1,1294,1394,0,0
77,-370,0,0,0,0,0,0,0,0,0,-1,1301,1394,0,0
84,-370,0,0,0,0,0,0,0,0,0,-1,1308,1394,0,0
91,-370,0,0,0,0,0,0,0,0,0,-1,1315,1394,0,0
98,-370,0,0,0,0,0,0,0,0,0,-1,1322,1394,0,0
105,-370,0,0,0,0,0,0,0,0,0,-1,1329,1394,0,0
112,-370,0,0,0,0,0,0,0,0,0,-1,1336,1394,0,0
119,-370,0,0,0,0,0,0,0,0,0,-1,1343,1394,0,0
126,-370,0,0,0,0,0,0,0,0,0,-1,1350,1394,0,0
133,-370,0,0,0,0,0,0,0,0,0,-1,1357,1394,0,0
140,-370,0,0,0,0,0,0,0,0,0,-1,1364,1394,0,0
147,-370,0,0,0,0,0,0,0,0,0,-1,1371,1394,0,0
154,-370,0,0,0,0,0,0,0,0,0,-1,1378,1394,0,0
161,-370,0,0,0,0,0,0,0,0,0,-1,1385,1394,0,0
168,-370,0,0,0,0,0,0,0,0,0,-1,1392,1394,0,0
175,-370,0,0,0,0,0,0,0,0,0,-1,1399,1394,0,0
182,-370,0,0,0,0,0,0,0,0,0,-1,1406,1394,0,0
189,-370,0,0,0,0,0,0,0,0,0,-1,1413,1394,0,0
196,-370,0,0,0,0,0,0,0,0,0,-1,1420,1394,0,0
203,-370,0,0,0,0,0,0,0,0,0,-1,1427,1394,0,0
210,-370,0,0,0,0,0,0,0,0,0,-1,1434,1394,0,0
217,-370,0,0,0,0,0,0,0,0,0,-1,1441,1394,0,0
224,-370,0,0,0,0,0,0,0,0,0,-1,1448,1394,0,0
231,-370,0,0,0,0,0,0,0,0,0,-1,1455,1394,0,0
238,-370,0,0,0,0,0,0,0,0,0,-1,1462,1394,0,0
245,-370,0,0,0,0,0,0,0,0,0,-1,1469,1394,0,0
252,-370,0,0,0,0,0,0,0,0,0,-1,1476,1394,0,0
259,-370,0,0,0,0,0,0,0,0,0,-1,1483,1394,0,0
266,-370,0,0,0,0,0,0,0,0,0,-1,1490,1394,0,0
273,-370,0,0,0,0,0,0,0,0,0,-1,1497,1394,0,0
280,-370,0,0,0,0,0,0,0,0,0,-1,1504,1394,0,0
287,-370,0,0,0,0,0,0,0,0,0,-1,1511,1394,0,0
294,-370,0,0,0,0,0,0,0,0,0,-1,1518,1394,0,0
301,-370,0,0,0,0,0,0,0,0,0,-1,1525,1394,0,0
308,-370,0,0,0,0,0,0,0,0,0,-1,1532,1394,0,0
315,-370,0,0,0,0,0,0,0,0,0,-1,1539,1394,0,0
322,-370,0,0,0,0,0,0,0,0,0,-1,1546,1394,0,0
329,-370,0,0,0,0,0,0,0,0,0,-1,1553,1394,0,0
336,-370,0,0,0,0,0,0,0,0,0,-1,1560,1394,0,0
343,-370,0,0,0,0,0,0,0,0,0,-1,1567,1394,0,0
350,-370,0,0,0,0,0,0,0,0,0,-1,1574,1394,0,0
357,-370,0,0,0,0,0,0,0,0,0,-1,1581,1394,0,0
364,-370,0,0,0,0,0,0,0,0,0,-1,1588,1394,0,0
371,-370,0,0,0,0,0,0,0,0,0,-1,1595,1394,0,0
378,-370,0,0,0,0,0,0,0,0,0,-1,1602,1394,0,0
385,-370,0,0,0,0,0,0,0,0,0,-1,1609,1394,0,0
392,-370,0,0,0,0,0,0,0,0,0,-1,1616,1394,0,0
399,-370,0,0,0,0,0,0,0,0,0,-1,1623,1394,0,0
406,-370,0,0,0,0,0,0,0,0,0,-1,1630,1394,0,0
413,-370,0,0,0,0,0,0,0,0,0,-1,1637,1394,0,0
420,-370,0,0,0,0,0,0,0,0,0,-1,1644,1394,0,0
427,-370,0,0,0,0,0,0,0,0,0,-1,1651,1394,0,0
434,-370,0,0,0,0,0,0,0,0,0,-1,1658,1394,0,0
441,-370,0,0,0,0,0,0,0,0,0,-1,1665,1394,0,0
448,-370,0,0,0,0,0,0,0,0,0,-1,1672,1394,0,0
455,-370,0,0,0,0,0,0,0,0,0,-1,1679,1394,0,0
462,-370,0,0,0,0,0,0,0,0,0,-1,1686,1394,0,0
469,-370,0,0,0,0,0,0,0,0,0,-1,1693,1394,0,0
476,-370,0,0,0,0,0,0,0,0,0,-1,1700,1394,0,0
483,-370,0,0,0,0,0,0,0,0,0,-1,1707,1394,0,0
490,-370,0,0,0,0,0,0,0,0,0,-1,1714,1394,0,0
497,-370,0,0,0,0,0,0,0,0,0,-1,1721,1394,0,0
504,-370,0,0,0,0,0,0,0,0,0,-1,1728,1394,0,0
511,-370,0,0,0,0,0,0,0,0,0,-1,1735,1394,0,0
518,-370,0,0,0,0,0,0,0,0,0,-1,1742,1394,0,0
525,-370,0,0,0,0,0,0,0,0,0,-1,1749,1394,0,0
532,-370,0,0,0,0,0,0,0,0,0,-1,1756,1394,0,0
539,-370,0,0,0,0,0,0,0,0,0,-1,1763,1394,0,0
546,-370,16.7576,1.23132,0,0,0,0,0,0,0,-1,1770,1394,16.7576,-1.23132
553,-370,18.1315,3.72559,0,0,0,0,0,0,0,-1,1777,1394,18.1314,-3.72561
560,-370,17.321,3.41821,0,0,0,0,0,0,0,-1,1784,1394,17.321,-3.41819
567,-370,17.2651,3.64111,0,0,0,0,0,0,0,-1,1791,1394,17.2651,-3.64114
574,-370,16.7927,3.2312,0,0,0,0,0,0,0,-1,1798,1394,16.7927,-3.23124
581,-370,16.3143,2.71838,0,0,0,0,0,0,0,-1,1805,1394,16.3143,-2.7184
588,-370,15.6188,2.86438,0,0,0,0,0,0,0,-1,1812,1394,15.6188,-2.86432
595,-370,14.8816,2.97034,0,0,0,0,0,0,0,-1,1819,1394,14.8816,-2.97028
602,-370,11.7092,3.39148,0,0,0,0,0,0,0,-1,1826,1394,11.7092,-3.39153
609,-370,12.1858,4.37817,0,0,0,0,0,0,0,-1,1833,1394,12.1857,-4.37816
616,-370,12.6864,5.22473,0,0,0,0,0,0,0,-1,1840,1394,12.6863,-5.22475
623,-370,13.4102,6.078,0,0,0,0,0,0,0,-1,1847,1394,13.4101,-6.07797
630,-370,13.2239,6.25989,-0.0101702,-0.0026086,0.0212294,0.015174,-0.0279529,0.873521,0.0252611,0.0352509,1854,1394,13.2239,-6.25988
637,-370,13.0291,6.26599,-0.00779984,-0.00247979,0.0162026,0.0112797,-0.0215594,0.866758,0.0192668,0.023686,1861,1394,13.029,-6.26602
644,-370,13.1058,6.01392,-0.00581638,-0.00230924,0.0119954,0.00806009,-0.0161857,0.857978,0.0142579,0.0109451,1868,1394,13.1059,-6.01394
651,-370,13.1174,5.7998,-0.00405884,-0.001834,0.00849177,0.00561791,-0.0115107,0.850527,0.0100824,0.010578,1875,1394,13.1174,-5.79982
658,-370,13.1127,5.62976,-0.00276972,-0.00147691,0.00556723,0.00348132,-0.00772795,0.843194,0.00662467,0.0110729,1882,1394,13.1126,-5.62971
665,-370,13.1097,5.45361,-0.00159366,-0.00119948,0.00301615,0.00162601,-0.00441915,0.818024,0.00361222,0.0116531,1889,1394,13.1098,-5.45367
672,-370,13.1237,5.25403,-0.000540278,-0.000773382,0.000884631,0.000235446,-0.00154911,0.7199,0.0011195,0.0133393,1896,1394,13.1237,-5.25406
679,-370,13.1245,5.05505,7.70842e-05,-0.000857893,-0.000915597,0.000637635,-0.00141844,-0.549359,0.00121527,0.0133181,1903,1394,13.1245,-5.055
686,-370,13.1334,4.8667,0.000504672,-0.000584066,-0.00232206,0.00234532,-0.00242472,-0.670261,0.00275411,0.0135874,1910,1394,13.1334,-4.86667
693,-370,13.1283,4.66528,0.00053736,-4.14129e-05,-0.00369146,0.00395076,-0.00345482,-0.746281,0.00427881,0.0119343,1917,1394,13.1283,-4.66524
700,-370,13.1777,4.4314,0.000400008,0.000257373,-0.0052436,0.00557278,-0.0049154,-0.778598,0.00605931,0.0159076,1924,1394,13.1777,-4.43145
707,-370,13.1216,4.22485,1.17944e-05,0.000974819,-0.00727498,0.0077842,-0.00679759,-0.818444,0.00842522,0.02707,1931,1394,13.1215,-4.22487
714,-370,13.4169,3.45032,-0.000635233,0.00255107,-0.00981527,0.0109016,-0.0089858,-0.865853,0.0114998,0.0420172,1938,1394,13.4169,-3.45028
721,-370,13.7766,2.68701,0,0,0,0,0,0,0,-1,1945,1394,13.7766,-2.68697
728,-370,14.614,4.88318,0,0,0,0,0,0,0,-1,1952,1394,14.6141,-4.88324
735,-370,15.9586,5.35278,0,0,0,0,0,0,0,-1,1959,1394,15.9586,-5.35274
742,-370,12.6914,4.10376,0,0,0,0,0,0,0,-1,1966,1394,12.6914,-4.10374
749,-370,0,0,0,0,0,0,0,0,0,-1,1973,1394,0,0
756,-370,0,0,0,0,0,0,0,0,0,-1,1980,1394,0,0
763,-370,0,0,0,0,0,0,0,0,0,-1,1987,1394,0,0
770,-370,0,0,0,0,0,0,0,0,0,-1,1994,1394,0,0
777,-370,0,0,0,0,0,0,0,0,0,-1,2001,1394,0,0
784,-370,0,0,0,0,0,0,0,0,0,-1,2008,1394,0,0
791,-370,0,0,0,0,0,0,0,0,0,-1,2015,1394,0,0
798,-370,0,0,0,0,0,0,0,0,0,-1,2022,1394,0,0
805,-370,0,0,0,0,0,0,0,0,0,-1,2029,1394,0,0
812,-370,0,0,0,0,0,0,0,0,0,-1,2036,1394,0,0
-700,-377,0,0,0,0,0,0,0,0,0,-1,524,1401,0,0
-693,-377,0,0,0,0,0,0,0,0,0,-1,531,1401,0,0
-686,-377,0,0,0,0,0,0,0,0,0,-1,538,1401,0,0
-679,-377,0,0,0,0,0,0,0,0,0,-1,545,1401,0,0
-672,-377,0,0,0,0,0,0,0,0,0,-1,552,1401,0,0
-665,-377,0,0,0,0,0,0,0,0,0,-1,559,1401,0,0
-658,-377,0,0,0,0,0,0,0,0,0,-1,566,1401,0,0
-651,-377,0,0,0,0,0,0,0,0,0,-1,573,1401,0,0
-644,-377,0,0,0,0,0,0,0,0,0,-1,580,1401,0,0
-637,-377,0,0,0,0,0,0,0,0,0,-1,587,1401,0,0
-630,-377,0,0,0,0,0,0,0,0,0,-1,594,1401,0,0
-623,-377,0,0,0,0,0,0,0,0,0,-1,601,1401,0,0
-616,-377,-9.43915,-2.4906,0,0,0,0,0,0,0,-1,608,1401,-9.43915,2.49062
-609,-377,-7.2821,-1.35278,0.268208,0.126352,0.120071,0.336735,0.0578241,0.518616,0.207913,0.0450805,615,1401,-7.28208,1.35279
-602,-377,-5.30121,-0.204834,0.206447,0.0978056,0.0965928,0.262945,0.041307,0.529254,0.163279,0.0407469,622,1401,-5.30122,0.204878
-595,-377,-3.75702,0.998047,0,0,0,0,0,0,0,-1,629,1401,-3.75701,-0.998082
-588,-377,-2.10065,2.2666,0,0,0,0,0,0,0,-1,636,1401,-2.10065,-2.26659
-581,-377,-4.44678,1.70691,0,0,0,0,0,0,0,-1,643,1401,-4.44677,-1.70688
-574,-377,-4.69916,1.7998,0.0390427,0.0198751,0.0245005,0.0557672,0.00315069,0.598964,0.0361736,0.0457764,650,1401,-4.69918,-1.79981
-567,-377,-4.83105,2.39514,0.0210374,0.0108107,0.0150281,0.0317982,4.9796e-05,0.621416,0.0211822,0.0303608,657,1401,-4.83106,-2.3952
-560,-377,-4.9834,2.66565,0.0102479,0.00516916,0.00866059,0.0167337,-0.00131668,0.642791,0.0116196,0.0198462,664,1401,-4.98341,-2.66568
-553,-377,-4.94934,2.86658,0.00111531,0.000336147,0.00349523,0.0042426,-0.00279114,0.729896,0.00408965,0.0117189,671,1401,-4.94931,-2.86662
-546,-377,-4.95203,3.11279,-0.00254387,-0.00160491,0.000500977,-0.00138781,-0.00276097,1.16188,0.00159405,0.0155276,678,1401,-4.95201,-3.11284
-539,-377,-4.93982,3.28833,-0.00150851,-0.00189776,-0.000470982,-0.00119353,-0.00221275,-0.589469,0.00127885,0.0206185,685,1401,-4.9398,-3.28834
-532,-377,-4.95428,3.53186,-0.00120504,-0.00291478,-0.00128259,-0.000518538,-0.00360128,-0.491448,0.00224803,0.0191993,692,1401,-4.95427,-3.53181
-525,-377,-4.88611,3.76392,-0.00139587,-0.00390375,-0.00211323,-0.000192559,-0.00510706,-0.517631,0.00334237,0.0172155,699,1401,-4.8861,-3.76395
-518,-377,-4.93372,3.95715,-0.00277394,-0.00607634,-0.00304909,-0.000957662,-0.00789262,-0.537236,0.00497336,0.0118036,706,1401,-4.93369,-3.95711
-511,-377,-4.95197,4.1853,-0.00498291,-0.00929921,-0.00387588,-0.00270484,-0.0115773,-0.531368,0.00699317,0.0121245,713,1401,-4.95196,-4.18529
-504,-377,-4.95099,4.42114,-0.00780144,-0.0134187,-0.0050227,-0.00485544,-0.0163647,-0.530463,0.00970503,0.0126196,720,1401,-4.95099,-4.42111
-497,-377,-4.76215,4.63135,-0.0117228,-0.0191926,-0.00658933,-0.00788349,-0.0230319,-0.527569,0.0135162,0.0214778,727,1401,-4.76214,-4.63137
-490,-377,-4.88318,4.52966,-0.0169248,-0.0269329,-0.00855274,-0.0120198,-0.0318379,-0.520711,0.0185645,0.0467448,734,1401,-4.88315,-4.52969
-483,-377,-5.26355,4.26038,-0.0235828,-0.036665,-0.0107703,-0.0175228,-0.0427249,-0.512504,0.0247997,0.0484381,741,1401,-5.26353,-4.26043
-476,-377,-5.44513,3.85022,0,0,0,0,0,0,0,-1,748,1401,-5.44515,-3.85018
-469,-377,-5.38318,3.29675,0,0,0,0,0,0,0,-1,755,1401,-5.38318,-3.29677
-462,-377,-7.28546,4.04663,0,0,0,0,0,0,0,-1,762,1401,-7.28543,-4.04669
-455,-377,-7.64886,5.29578,0,0,0,0,0,0,0,-1,769,1401,-7.64889,-5.29576
-448,-377,-9.05334,0.877319,0,0,0,0,0,0,0,-1,776,1401,-9.05332,-0.877324
-441,-377,-10.5236,0.856934,0,0,0,0,0,0,0,-1,783,1401,-10.5236,-0.856874
-434,-377,-11.0984,0.996216,0,0,0,0,0,0,0,-1,790,1401,-11.0984,-0.996265
-427,-377,-11.1733,1.25732,0,0,0,0,0,0,0,-1,797,1401,-11.1733,-1.25732
-420,-377,0,0,0,0,0,0,0,0,0,-1,804,1401,0,0
-413,-377,0,0,0,0,0,0,0,0,0,-1,811,1401,0,0
-406,-377,0,0,0,0,0,0,0,0,0,-1,818,1401,0,0
-399,-377,0,0,0,0,0,0,0,0,0,-1,825,1401,0,0
-392,-377,0,0,0,0,0,0,0,0,0,-1,832,1401,0,0
-385,-377,0,0,0,0,0,0,0,0,0,-1,839,1401,0,0
-378,-377,0,0,0,0,0,0,0,0,0,-1,846,1401,0,0
-371,-377,0,0,0,0,0,0,0,0,0,-1,853,1401,0,0
-364,-377,0,0,0,0,0,0,0,0,0,-1,860,1401,0,0
-357,-377,0,0,0,0,0,0,0,0,0,-1,867,1401,0,0
-350,-377,0,0,0,0,0,0,0,0,0,-1,874,1401,0,0
-343,-377,0,0,0,0,0,0,0,0,0,-1,881,1401,0,0
-336,-377,0,0,0,0,0,0,0,0,0,-1,888,1401,0,0
-329,-377,0,0,0,0,0,0,0,0,0,-1,895,1401,0,0
-322,-377,0,0,0,0,0,0,0,0,0,-1,902,1401,0,0
-315,-377,0,0,0,0,0,0,0,0,0,-1,909,1401,0,0
-308,-377,0,0,0,0,0,0,0,0,0,-1,916,1401,0,0
-301,-377,0,0,0,0,0,0,0,0,0,-1,923,1401,0,0
-294,-377,0,0,0,0,0,0,0,0,0,-1,930,1401,0,0
-287,-377,0,0,0,0,0,0,0,0,0,-1,937,1401,0,0
-280,-377,0,0,0,0,0,0,0,0,0,-1,944,1401,0,0
-273,-377,0,0,0,0,0,0,0,0,0,-1,951,1401,0,0
-266,-377,0,0,0,0,0,0,0,0,0,-1,958,1401,0,0
-259,-377,0,0,0,0,0,0,0,0,0,-1,965,1401,0,0
-252,-377,0,0,0,0,0,0,0,0,0,-1,972,1401,0,0
-245,-377,0,0,0,0,0,0,0,0,0,-1,979,1401,0,0
-238,-377,0,0,0,0,0,0,0,0,0,-1,986,1401,0,0
-231,-377,0,0,0,0,0,0,0,0,0,-1,993,1401,0,0
-224,-377,0,0,0,0,0,0,0,0,0,-1,1000,1401,0,0
-217,-377,0,0,0,0,0,0,0,0,0,-1,1007,1401,0,0
-210,-377,0,0,0,0,0,0,0,0,0,-1,1014,1401,0,0
-203,-377,0,0,0,0,0,0,0,0,0,-1,1021,1401,0,0
-196,-377,0,0,0,0,0,0,0,0,0,-1,1028,1401,0,0
-189,-377,0,0,0,0,0,0,0,0,0,-1,1035,1401,0,0
-182,-377,0,0,0,0,0,0,0,0,0,-1,1042,1401,0,0
-175,-377,0,0,0,0,0,0,0,0,0,-1,1049,1401,0,0
-168,-377,0,0,0,0,0,0,0,0,0,-1,1056,1401,0,0
-161,-377,0,0,0,0,0,0,0,0,0,-1,1063,1401,0,0
-154,-377,0,0,0,0,0,0,0,0,0,-1,1070,1401,0,0
-147,-377,0,0,0,0,0,0,0,0,0,-1,1077,1401,0,0
-140,-377,0,0,0,0,0,0,0,0,0,-1,1084,1401,0,0
-133,-377,0,0,0,0,0,0,0,0,0,-1,1091,1401,0,0
-126,-377,0,0,0,0,0,0,0,0,0,-1,1098,1401,0,0
-119,-377,0,0,0,0,0,0,0,0,0,-1,1105,1401,0,0
-112,-377,0,0,0,0,0,0,0,0,0,-1,1112,1401,0,0
-105,-377,0,0,0,0,0,0,0,0,0,-1,1119,1401,0,0
-98,-377,0,0,0,0,0,0,0,0,0,-1,1126,1401,0,0
-91,-377,0,0,0,0,0,0,0,0,0,-1,1133,1401,0,0
-84,-377,0,0,0,0,0,0,0,0,0,-1,1140,1401,0,0
-77,-377,0,0,0,0,0,0,0,0,0,-1,1147,1401,0,0
-70,-377,0,0,0,0,0,0,0,0,0,-1,1154,1401,0,0
-63,-377,0,0,0,0,0,0,0,0,0,-1,1161,1401,0,0
-56,-377,0,0,0,0,0,0,0,0,0,-1,1168,1401,0,0
-49,-377,0,0,0,0,0,0,0,0,0,-1,1175,1401,0,0
-42,-377,0,0,0,0,0,0,0,0,0,-1,1182,1401,0,0
-35,-377,0,0,0,0,0,0,0,0,0,-1,1189,1401,0,0
-28,-377,0,0,0,0,0,0,0,0,0,-1,1196,1401,0,0
-21,-377,0,0,0,0,0,0,0,0,0,-1,1203,1401,0,0
-14,-377,0,0,0,0,0,0,0,0,0,-1,1210,1401,0,0
-7,-377,0,0,0,0,0,0,0,0,0,-1,1217,1401,0,0
0,-377,0,0,0,0,0,0,0,0,0,-1,1224,1401,0,0
7,-377,0,0,0,0,0,0,0,0,0,-1,1231,1401,0,0
14,-377,0,0,0,0,0,0,0,0,0,-1,1238,1401,0,0
21,-377,0,0,0,0,0,0,0,0,0,-1,1245,1401,0,0
28,-377,0,0,0,0,0,0,0,0,0,-1,1252,1401,0,0
35,-377,0,0,0,0,0,0,0,0,0,-1,1259,1401,0,0
42,-377,0,0,0,0,0,0,0,0,0,-1,1266,1401,0,0
49,-377,0,0,0,0,0,0,0,0,0,-1,1273,1401,0,0
56,-377,0,0,0,0,0,0,0,0,0,-1,1280,1401,0,0
63,-377,0,0,0,0,0,0,0,0,0,-1,1287,1401,0,0
70,-377,0,0,0,0,0,0,0,0,0,-1,1294,1401,0,0
77,-377,0,0,0,0,0,0,0,0,0,-1,1301,1401,0,0
84,-377,0,0,0,0,0,0,0,0,0,-1,1308,1401,0,0
91,-377,0,0,0,0,0,0,0,0,0,-1,1315,1401,0,0
98,-377,0,0,0,0,0,0,0,0,0,-1,1322,1401,0,0
105,-377,0,0,0,0,0,0,0,0,0,-1,1329,1401,0,0
112,-377,0,0,0,0,0,0,0,0,0,-1,1336,1401,0,0
119,-377,0,0,0,0,0,0,0,0,0,-1,1343,1401,0,0
126,-377,0,0,0,0,0,0,0,0,0,-1,1350,1401,0,0
133,-377,0,0,0,0,0,0,0,0,0,-1,1357,1401,0,0
140,-377,0,0,0,0,0,0,0,0,0,-1,1364,1401,0,0
147,-377,0,0,0,0,0,0,0,0,0,-1,1371,1401,0,0
154,-377,0,0,0,0,0,0,0,0,0,-1,1378,1401,0,0
161,-377,0,0,0,0,0,0,0,0,0,-1,1385,1401,0,0
168,-377,0,0,0,0,0,0,0,0,0,-1,1392,1401,0,0
175,-377,0,0,0,0,0,0,0,0,0,-1,1399,1401,0,0
182,-377,0,0,0,0,0,0,0,0,0,-1,1406,1401,0,0
189,-377,0,0,0,0,0,0,0,0,0,-1,1413,1401,0,0
196,-377,0,0,0,0,0,0,0,0,0,-1,1420,1401,0,0
203,-377,0,0,0,0,0,0,0,0,0,-1,1427,1401,0,0
210,-377,0,0,0,0,0,0,0,0,0,-1,1434,1401,0,0
217,-377,0,0,0,0,0,0,0,0,0,-1,1441,1401,0,0
224,-377,0,0,0,0,0,0,0,0,0,-1,1448,1401,0,0
231,-377,0,0,0,0,0,0,0,0,0,-1,1455,1401,0,0
238,-377,0,0,0,0,0,0,0,0,0,-1,1462,1401,0,0
245,-377,0,0,0,0,0,0,0,0,0,-1,1469,1401,0,0
252,-377,0,0,0,0,0,0,0,0,0,-1,1476,1401,0,0
259,-377,0,0,0,0,0,0,0,0,0,-1,1483,1401,0,0
266,-377,0,0,0,0,0,0,0,0,0,-1,1490,1401,0,0
273,-377,0,0,0,0,0,0,0,0,0,-1,1497,1401,0,0
280,-377,0,0,0,0,0,0,0,0,0,-1,1504,1401,0,0
287,-377,0,0,0,0,0,0,0,0,0,-1,1511,1401,0,0
294,-377,0,0,0,0,0,0,0,0,0,-1,1518,1401,0,0
301,-377,0,0,0,0,0,0,0,0,0,-1,1525,1401,0,0
308,-377,0,0,0,0,0,0,0,0,0,-1,1532,1401,0,0
315,-377,0,0,0,0,0,0,0,0,0,-1,1539,1401,0,0
322,-377,0,0,0,0,0,0,0,0,0,-1,1546,1401,0,0
329,-377,0,0,0,0,0,0,0,0,0,-1,1553,1401,0,0
336,-377,0,0,0,0,0,0,0,0,0,-1,1560,1401,0,0
343,-377,0,0,0,0,0,0,0,0,0,-1,1567,1401,0,0
350,-377,0,0,0,0,0,0,0,0,0,-1,1574,1401,0,0
357,-377,0,0,0,0,0,0,0,0,0,-1,1581,1401,0,0
364,-377,0,0,0,0,0,0,0,0,0,-1,1588,1401,0,0
371,-377,0,0,0,0,0,0,0,0,0,-1,1595,1401,0,0
378,-377,0,0,0,0,0,0,0,0,0,-1,1602,1401,0,0
385,-377,0,0,0,0,0,0,0,0,0,-1,1609,1401,0,0
392,-377,0,0,0,0,0,0,0,0,0,-1,1616,1401,0,0
399,-377,0,0,0,0,0,0,0,0,0,-1,1623,1401,0,0
406,-377,0,0,0,0,0,0,0,0,0,-1,1630,1401,0,0
413,-377,0,0,0,0,0,0,0,0,0,-1,1637,1401,0,0
420,-377,0,0,0,0,0,0,0,0,0,-1,1644,1401,0,0
427,-377,0,0,0,0,0,0,0,0,0,-1,1651,1401,0,0
434,-377,0,0,0,0,0,0,0,0,0,-1,1658,1401,0,0
441,-377,0,0,0,0,0,0,0,0,0,-1,1665,1401,0,0
448,-377,0,0,0,0,0,0,0,0,0,-1,1672,1401,0,0
455,-377,0,0,0,0,0,0,0,0,0,-1,1679,1401,0,0
462,-377,0,0,0,0,0,0,0,0,0,-1,1686,1401,0,0
469,-377,0,0,0,0,0,0,0,0,0,-1,1693,1401,0,0
476,-377,0,0,0,0,0,0,0,0,0,-1,1700,1401,0,0
483,-377,0,0,0,0,0,0,0,0,0,-1,1707,1401,0,0
490,-377,0,0,0,0,0,0,0,0,0,-1,1714,1401,0,0
497,-377,0,0,0,0,0,0,0,0,0,-1,1721,1401,0,0
504,-377,0,0,0,0,0,0,0,0,0,-1,1728,1401,0,0
511,-377,0,0,0,0,0,0,0,0,0,-1,1735,1401,0,0
518,-377,0,0,0,0,0,0,0,0,0,-1,1742,1401,0,0
525,-377,0,0,0,0,0,0,0,0,0,-1,1749,1401,0,0
532,-377,0,0,0,0,0,0,0,0,0,-1,1756,1401,0,0
539,-377,0,0,0,0,0,0,0,0,0,-1,1763,1401,0,0
546,-377,16.6301,1.86731,0,0,0,0,0,0,0,-1,1770,1401,16.6301,-1.86737
553,-377,22.3673,2.2356,0,0,0,0,0,0,0,-1,1777,1401,22.3673,-2.23565
560,-377,16.3752,3.22534,0,0,0,0,0,0,0,-1,1784,1401,16.3753,-3.22539
567,-377,15.1582,2.81689,0,0,0,0,0,0,0,-1,1791,1401,15.1583,-2.81688
574,-377,16.4839,2.52222,0,0,0,0,0,0,0,-1,1798,1401,16.4839,-2.52226
581,-377,15.309,3.06311,0,0,0,0,0,0,0,-1,1805,1401,15.3089,-3.06316
588,-377,14.9818,2.77893,0,0,0,0,0,0,0,-1,1812,1401,14.9818,-2.77896
595,-377,13.0044,2.7074,0,0,0,0,0,0,0,-1,1819,1401,13.0044,-2.70745
602,-377,13.0537,3.23193,0,0,0,0,0,0,0,-1,1826,1401,13.0537,-3.23191
609,-377,15.0223,4.76135,0,0,0,0,0,0,0,-1,1833,1401,15.0224,-4.76129
616,-377,14.1842,5.78992,0,0,0,0,0,0,0,-1,1840,1401,14.1842,-5.78987
623,-377,12.9187,6.57141,0,0,0,0,0,0,0,-1,1847,1401,12.9187,-6.57147
630,-377,12.9293,6.47278,-0.0106944,-0.00491363,0.0180552,0.0104811,-0.0260891,0.864768,0.0217454,0.0336747,1854,1401,12.9293,-6.4728
637,-377,12.887,6.23938,-0.00779526,-0.00384013,0.0135802,0.00790574,-0.0195411,0.8577,0.0163142,0.0140045,1861,1401,12.887,-6.23939
644,-377,12.9182,6.02332,-0.00557777,-0.00294707,0.00991625,0.00574068,-0.0142655,0.851336,0.011895,0.0107892,1868,1401,12.9182,-6.02333
651,-377,12.9349,5.8125,-0.00373914,-0.00205959,0.00693904,0.0040903,-0.00988903,0.845616,0.0082992,0.0116249,1875,1401,12.9349,-5.81256
658,-377,12.9391,5.63245,-0.00239846,-0.0015152,0.00459369,0.00265804,-0.0065717,0.83332,0.00548616,0.0126502,1882,1401,12.9391,-5.63246
665,-377,12.9431,5.42822,-0.00129191,-0.00121777,0.00244401,0.00118944,-0.00369913,0.792982,0.00294379,0.0145162,1889,1401,12.9431,-5.42827
672,-377,12.9326,5.23499,-0.000405316,-0.00090856,0.000615603,8.10309e-06,-0.00132198,0.591389,0.000884033,0.0156478,1896,1401,12.9326,-5.23496
679,-377,12.9132,5.06995,0.000201825,-0.00107546,-0.000863886,0.000637503,-0.00151114,-0.4671,0.00127424,0.0161806,1903,1401,12.9133,-5.0699
686,-377,12.9155,4.85437,0.00063258,-0.00116695,-0.00207922,0.00199837,-0.00253274,-0.581194,0.0026221,0.0145528,1910,1401,12.9155,-4.85434
693,-377,12.95,4.6416,0.000751426,-0.00120889,-0.00333898,0.00325114,-0.0037086,-0.642634,0.0040211,0.0124892,1917,1401,12.9499,-4.64165
700,-377,12.9301,4.42554,0.000911221,-0.00164043,-0.00496817,0.00476477,-0.00549397,-0.659714,0.00592787,0.0211783,1924,1401,12.9301,-4.42554
707,-377,12.9781,4.37622,0.00112646,-0.00192695,-0.00733651,0.00709343,-0.00789393,-0.682814,0.00865707,0.039263,1931,1401,12.9782,-4.37627
714,-377,13.4264,3.95532,0.00148626,-0.00162312,-0.0105089,0.0105548,-0.0106917,-0.711961,0.0122667,0.0470853,1938,1401,13.4264,-3.95528
721,-377,13.5939,3.42615,0,0,0,0,0,0,0,-1,1945,1401,13.5938,-3.42616
728,-377,14.5396,2.79724,0,0,0,0,0,0,0,-1,1952,1401,14.5396,-2.7972
735,-377,16.2814,5.49353,0,0,0,0,0,0,0,-1,1959,1401,16.2814,-5.49358
742,-377,0,0,0,0,0,0,0,0,0,-1,1966,1401,0,0
749,-377,0,0,0,0,0,0,0,0,0,-1,1973,1401,0,0
756,-377,0,0,0,0,0,0,0,0,0,-1,1980,1401,0,0
763,-377,0,0,0,0,0,0,0,0,0,-1,1987,1401,0,0
770,-377,0,0,0,0,0,0,0,0,0,-1,1994,1401,0,0
777,-377,0,0,0,0,0,0,0,0,0,-1,2001,1401,0,0
784,-377,0,0,0,0,0,0,0,0,0,-1,2008,1401,0,0
791,-377,0,0,0,0,0,0,0,0,0,-1,2015,1401,0,0
798,-377,0,0,0,0,0,0,0,0,0,-1,2022,1401,0,0
805,-377,0,0,0,0,0,0,0,0,0,-1,2029,1401,0,0
812,-377,0,0,0,0,0,0,0,0,0,-1,2036,1401,0,0
-700,-384,0,0,0,0,0,0,0,0,0,-1,524,1408,0,0
-693,-384,0,0,0,0,0,0,0,0,0,-1,531,1408,0,0
-686,-384,0,0,0,0,0,0,0,0,0,-1,538,1408,0,0
-679,-384,0,0,0,0,0,0,0,0,0,-1,545,1408,0,0
-672,-384,0,0,0,0,0,0,0,0,0,-1,552,1408,0,0
-665,-384,0,0,0,0,0,0,0,0,0,-1,559,1408,0,0
-658,-384,0,0,0,0,0,0,0,0,0,-1,566,1408,0,0
-651,-384,0,0,0,0,0,0,0,0,0,-1,573,1408,0,0
-644,-384,0,0,0,0,0,0,0,0,0,-1,580,1408,0,0
-637,-384,0,0,0,0,0,0,0,0,0,-1,587,1408,0,0
-630,-384,0,0,0,0,0,0,0,0,0,-1,594,1408,0,0
-623,-384,0,0,0,0,0,0,0,0,0,-1,601,1408,0,0
-616,-384,-10.019,-3.36646,0,0,0,0,0,0,0,-1,608,1408,-10.019,3.36648
-609,-384,-7.72357,-2.3418,0.307341,0.136375,0.134564,0.381278,0.0624375,0.502428,0.236141,0.0428598,615,1408,-7.72358,2.34182
-602,-384,-5.59833,-1.04639,0.238648,0.105497,0.111045,0.301546,0.0425994,0.51536,0.188442,0.0461679,622,1408,-5.59835,1.04638
-595,-384,-3.89893,0.239868,0,0,0,0,0,0,0,-1,629,1408,-3.89893,-0.239894
-588,-384,-3.20319,-0.186157,0,0,0,0,0,0,0,-1,636,1408,-3.20319,0.186182
-581,-384,-4.96753,0.741943,0,0,0,0,0,0,0,-1,643,1408,-4.96753,-0.741993
-574,-384,-5.08508,1.53052,0.0502168,0.0216597,0.0326568,0.0715801,0.000296373,0.579306,0.0476216,0.0456116,650,1408,-5.08506,-1.5305
-567,-384,-4.61371,2.19202,0.028454,0.011663,0.0210201,0.0426932,-0.00257619,0.595402,0.0293586,0.0410648,657,1408,-4.61373,-2.19208
-560,-384,-4.68591,2.66821,0.0148736,0.0054532,0.0128101,0.023812,-0.00348523,0.609223,0.0171548,0.0260389,664,1408,-4.68593,-2.66822
-553,-384,-4.7403,2.88147,0.0034869,0.000139387,0.00624008,0.0082738,-0.00464751,0.654369,0.00755741,0.0165895,671,1408,-4.74029,-2.88147
-546,-384,-4.74146,3.11975,-0.00147386,-0.00189387,0.00226513,0.00059098,-0.00395871,0.739174,0.00285658,0.0138883,678,1408,-4.74147,-3.11976
-539,-384,-4.76489,3.30054,-0.00085653,-0.00191441,0.000774068,-0.000447942,-0.002323,0.485675,0.00142305,0.0156293,685,1408,-4.76488,-3.30052
-532,-384,-4.73694,3.47717,-0.000764111,-0.00263778,-0.000349692,-0.000700974,-0.00270092,-0.178626,0.00161837,0.0195596,692,1408,-4.73693,-3.47713
-525,-384,-4.70532,3.72253,-0.00104914,-0.00341264,-0.00133485,-0.000448097,-0.00401368,-0.423079,0.00253964,0.0186908,699,1408,-4.70534,-3.72256
-518,-384,-4.72284,3.96729,-0.0024288,-0.00532444,-0.00236573,-0.00110302,-0.00665022,-0.510801,0.00411537,0.0118662,706,1408,-4.72285,-3.96733
-511,-384,-4.74133,4.20007,-0.00448142,-0.00800884,-0.00303631,-0.00273374,-0.00975652,-0.52228,0.00581153,0.0109264,713,1408,-4.74132,-4.20003
-504,-384,-4.724,4.42639,-0.00702767,-0.0115625,-0.00390567,-0.00477895,-0.0138112,-0.522404,0.00809896,0.0128659,720,1408,-4.72401,-4.42643
-497,-384,-4.70953,4.66541,-0.0104182,-0.0165763,-0.00518338,-0.00746834,-0.0195262,-0.517392,0.0113768,0.015057,727,1408,-4.70955,-4.66536
-490,-384,-4.5899,4.8551,-0.0147992,-0.0233659,-0.00684661,-0.0110064,-0.0271586,-0.505877,0.0157736,0.0321017,734,1408,-4.58993,-4.85509
-483,-384,-4.97589,4.82947,-0.0204475,-0.0317509,-0.00864789,-0.0157683,-0.0364301,-0.49597,0.0210961,0.0482329,741,1408,-4.9759,-4.82953
-476,-384,-4.95343,4.62378,0,0,0,0,0,0,0,-1,748,1408,-4.95344,-4.62381
-469,-384,-5.77875,4.39172,-0.0347597,-0.0557779,-0.0131254,-0.0284546,-0.062083,-0.447823,0.0358851,0.0461792,755,1408,-5.77877,-4.39169
-462,-384,-6.13885,4.58423,-0.0469235,-0.0703015,-0.0172085,-0.0378095,-0.0794155,-0.487062,0.045868,0.0490622,762,1408,-6.13887,-4.58429
-455,-384,-6.42694,4.90906,0,0,0,0,0,0,0,-1,769,1408,-6.42695,-4.9091
-448,-384,-6.7771,5.14783,0,0,0,0,0,0,0,-1,776,1408,-6.77711,-5.14778
-441,-384,-10.2661,0.338989,0,0,0,0,0,0,0,-1,783,1408,-10.2661,-0.339015
-434,-384,-10.6449,0.552246,0,0,0,0,0,0,0,-1,790,1408,-10.6449,-0.552216
-427,-384,-10.968,1.10583,0,0,0,0,0,0,0,-1,797,1408,-10.968,-1.10588
-420,-384,-11.3776,1.47351,0,0,0,0,0,0,0,-1,804,1408,-11.3776,-1.4735
-413,-384,0,0,0,0,0,0,0,0,0,-1,811,1408,0,0
-406,-384,0,0,0,0,0,0,0,0,0,-1,818,1408,0,0
-399,-384,0,0,0,0,0,0,0,0,0,-1,825,1408,0,0
-392,-384,0,0,0,0,0,0,0,0,0,-1,832,1408,0,0
-385,-384,0,0,0,0,0,0,0,0,0,-1,839,1408,0,0
-378,-384,0,0,0,0,0,0,0,0,0,-1,846,1408,0,0
-371,-384,0,0,0,0,0,0,0,0,0,-1,853,1408,0,0
-364,-384,0,0,0,0,0,0,0,0,0,-1,860,1408,0,0
-357,-384,0,0,0,0,0,0,0,0,0,-1,867,1408,0,0
-350,-384,0,0,0,0,0,0,0,0,0,-1,874,1408,0,0
-343,-384,0,0,0,0,0,0,0,0,0,-1,881,1408,0,0
-336,-384,0,0,0,0,0,0,0,0,0,-1,888,1408,0,0
-329,-384,0,0,0,0,0,0,0,0,0,-1,895,1408,0,0
-322,-384,0,0,0,0,0,0,0,0,0,-1,902,1408,0,0
-315,-384,0,0,0,0,0,0,0,0,0,-1,909,1408,0,0
-308,-384,0,0,0,0,0,0,0,0,0,-1,916,1408,0,0
-301,-384,0,0,0,0,0,0,0,0,0,-1,923,1408,0,0
-294,-384,0,0,0,0,0,0,0,0,0,-1,930,1408,0,0
-287,-384,0,0,0,0,0,0,0,0,0,-1,937,1408,0,0
-280,-384,0,0,0,0,0,0,0,0,0,-1,944,1408,0,0
-273,-384,0,0,0,0,0,0,0,0,0,-1,951,1408,0,0
-266,-384,0,0,0,0,0,0,0,0,0,-1,958,1408,0,0
-259,-384,0,0,0,0,0,0,0,0,0,-1,965,1408,0,0
-252,-384,0,0,0,0,0,0,0,0,0,-1,972,1408,0,0
-245,-384,0,0,0,0,0,0,0,0,0,-1,979,1408,0,0
-238,-384,0,0,0,0,0,0,0,0,0,-1,986,1408,0,0
-231,-384,0,0,0,0,0,0,0,0,0,-1,993,1408,0,0
-224,-384,0,0,0,0,0,0,0,0,0,-1,1000,1408,0,0
-217,-384,0,0,0,0,0,0,0,0,0,-1,1007,1408,0,0
-210,-384,0,0,0,0,0,0,0,0,0,-1,1014,1408,0,0
-203,-384,0,0,0,0,0,0,0,0,0,-1,1021,1408,0,0
-196,-384,0,0,0,0,0,0,0,0,0,-1,1028,1408,0,0
-189,-384,0,0,0,0,0,0,0,0,0,-1,1035,1408,0,0
-182,-384,0,0,0,0,0,0,0,0,0,-1,1042,1408,0,0
-175,-384,0,0,0,0,0,0,0,0,0,-1,1049,1408,0,0
-168,-384,0,0,0,0,0,0,0,0,0,-1,1056,1408,0,0
-161,-384,0,0,0,0,0,0,0,0,0,-1,1063,1408,0,0
-154,-384,0,0,0,0,0,0,0,0,0,-1,1070,1408,0,0
-147,-384,0,0,0,0,0,0,0,0,0,-1,1077,1408,0,0
-140,-384,0,0,0,0,0,0,0,0,0,-1,1084,1408,0,0
-133,-384,0,0,0,0,0,0,0,0,0,-1,1091,1408,0,0
-126,-384,0,0,0,0,0,0,0,0,0,-1,1098,1408,0,0
-119,-384,0,0,0,0,0,0,0,0,0,-1,1105,1408,0,0
-112,-384,0,0,0,0,0,0,0,0,0,-1,1112,1408,0,0
-105,-384,0,0,0,0,0,0,0,0,0,-1,1119,1408,0,0
-98,-384,0,0,0,0,0,0,0,0,0,-1,1126,1408,0,0
-91,-384,0,0,0,0,0,0,0,0,0,-1,1133,1408,0,0
-84,-384,0,0,0,0,0,0,0,0,0,-1,1140,1408,0,0
-77,-384,0,0,0,0,0,0,0,0,0,-1,1147,1408,0,0
-70,-384,0,0,0,0,0,0,0,0,0,-1,1154,1408,0,0
-63,-384,0,0,0,0,0,0,0,0,0,-1,1161,1408,0,0
-56,-384,0,0,0,0,0,0,0,0,0,-1,1168,1408,0,0
-49,-384,0,0,0,0,0,0,0,0,0,-1,1175,1408,0,0
-42,-384,0,0,0,0,0,0,0,0,0,-1,1182,1408,0,0
-35,-384,0,0,0,0,0,0,0,0,0,-1,1189,1408,0,0
-28,-384,0,0,0,0,0,0,0,0,0,-1,1196,1408,0,0
-21,-384,0,0,0,0,0,0,0,0,0,-1,1203,1408,0,0
-14,-384,0,0,0,0,0,0,0,0,0,-1,1210,1408,0,0
-7,-384,0,0,0,0,0,0,0,0,0,-1,1217,1408,0,0
0,-384,0,0,0,0,0,0,0,0,0,-1,1224,1408,0,0
7,-384,0,0,0,0,0,0,0,0,0,-1,1231,1408,0,0
14,-384,0,0,0,0,0,0,0,0,0,-1,1238,1408,0,0
21,-384,0,0,0,0,0,0,0,0,0,-1,1245,1408,0,0
28,-384,0,0,0,0,0,0,0,0,0,-1,1252,1408,0,0
35,-384,0,0,0,0,0,0,0,0,0,-1,1259,1408,0,0
42,-384,0,0,0,0,0,0,0,0,0,-1,1266,1408,0,0
49,-384,0,0,0,0,0,0,0,0,0,-1,1273,1408,0,0
56,-384,0,0,0,0,0,0,0,0,0,-1,1280,1408,0,0
63,-384,0,0,0,0,0,0,0,0,0,-1,1287,1408,0,0
70,-384,0,0,0,0,0,0,0,0,0,-1,1294,1408,0,0
77,-384,0,0,0,0,0,0,0,0,0,-1,1301,1408,0,0
84,-384,0,0,0,0,0,0,0,0,0,-1,1308,1408,0,0
91,-384,0,0,0,0,0,0,0,0,0,-1,1315,1408,0,0
98,-384,0,0,0,0,0,0,0,0,0,-1,1322,1408,0,0
105,-384,0,0,0,0,0,0,0,0,0,-1,1329,1408,0,0
112,-384,0,0,0,0,0,0,0,0,0,-1,1336,1408,0,0
119,-384,0,0,0,0,0,0,0,0,0,-1,1343,1408,0,0
126,-384,0,0,0,0,0,0,0,0,0,-1,1350,1408,0,0
133,-384,0,0,0,0,0,0,0,0,0,-1,1357,1408,0,0
140,-384,0,0,0,0,0,0,0,0,0,-1,1364,1408,0,0
147,-384,0,0,0,0,0,0,0,0,0,-1,1371,1408,0,0
154,-384,0,0,0,0,0,0,0,0,0,-1,1378,1408,0,0
161,-384,0,0,0,0,0,0,0,0,0,-1,1385,1408,0,0
168,-384,0,0,0,0,0,0,0,0,0,-1,1392,1408,0,0
175,-384,0,0,0,0,0,0,0,0,0,-1,1399,1408,0,0
182,-384,0,0,0,0,0,0,0,0,0,-1,1406,1408,0,0
189,-384,0,0,0,0,0,0,0,0,0,-1,1413,1408,0,0
196,-384,0,0,0,0,0,0,0,0,0,-1,1420,1408,0,0
203,-384,0,0,0,0,0,0,0,0,0,-1,1427,1408,0,0
210,-384,0,0,0,0,0,0,0,0,0,-1,1434,1408,0,0
217,-384,0,0,0,0,0,0,0,0,0,-1,1441,1408,0,0
224,-384,0,0,0,0,0,0,0,0,0,-1,1448,1408,0,0
231,-384,0,0,0,0,0,0,0,0,0,-1,1455,1408,0,0
238,-384,0,0,0,0,0,0,0,0,0,-1,1462,1408,0,0
245,-384,0,0,0,0,0,0,0,0,0,-1,1469,1408,0,0
252,-384,0,0,0,0,0,0,0,0,0,-1,1476,1408,0,0
259,-384,0,0,0,0,0,0,0,0,0,-1,1483,1408,0,0
266,-384,0,0,0,0,0,0,0,0,0,-1,1490,1408,0,0
273,-384,0,0,0,0,0,0,0,0,0,-1,1497,1408,0,0
280,-384,0,0,0,0,0,0,0,0,0,-1,1504,1408,0,0
287,-384,0,0,0,0,0,0,0,0,0,-1,1511,1408,0,0
294,-384,0,0,0,0,0,0,0,0,0,-1,1518,1408,0,0
301,-384,0,0,0,0,0,0,0,0,0,-1,1525,1408,0,0
308,-384,0,0,0,0,0,0,0,0,0,-1,1532,1408,0,0
315,-384,0,0,0,0,0,0,0,0,0,-1,1539,1408,0,0
322,-384,0,0,0,0,0,0,0,0,0,-1,1546,1408,0,0
329,-384,0,0,0,0,0,0,0,0,0,-1,1553,1408,0,0
336,-384,0,0,0,0,0,0,0,0,0,-1,1560,1408,0,0
343,-384,0,0,0,0,0,0,0,0,0,-1,1567,1408,0,0
350,-384,0,0,0,0,0,0,0,0,0,-1,1574,1408,0,0
357,-384,0,0,0,0,0,0,0,0,0,-1,1581,1408,0,0
364,-384,0,0,0,0,0,0,0,0,0,-1,1588,1408,0,0
371,-384,0,0,0,0,0,0,0,0,0,-1,1595,1408,0,0
378,-384,0,0,0,0,0,0,0,0,0,-1,1602,1408,0,0
385,-384,0,0,0,0,0,0,0,0,0,-1,1609,1408,0,0
392,-384,0,0,0,0,0,0,0,0,0,-1,1616,1408,0,0
399,-384,0,0,0,0,0,0,0,0,0,-1,1623,1408,0,0
406,-384,0,0,0,0,0,0,0,0,0,-1,1630,1408,0,0
413,-384,0,0,0,0,0,0,0,0,0,-1,1637,1408,0,0
420,-384,0,0,0,0,0,0,0,0,0,-1,1644,1408,0,0
427,-384,0,0,0,0,0,0,0,0,0,-1,1651,1408,0,0
434,-384,0,0,0,0,0,0,0,0,0,-1,1658,1408,0,0
441,-384,0,0,0,0,0,0,0,0,0,-1,1665,1408,0,0
448,-384,0,0,0,0,0,0,0,0,0,-1,1672,1408,0,0
455,-384,0,0,0,0,0,0,0,0,0,-1,1679,1408,0,0
462,-384,0,0,0,0,0,0,0,0,0,-1,1686,1408,0,0
469,-384,0,0,0,0,0,0,0,0,0,-1,1693,1408,0,0
476,-384,0,0,0,0,0,0,0,0,0,-1,1700,1408,0,0
483,-384,0,0,0,0,0,0,0,0,0,-1,1707,1408,0,0
490,-384,0,0,0,0,0,0,0,0,0,-1,1714,1408,0,0
497,-384,0,0,0,0,0,0,0,0,0,-1,1721,1408,0,0
504,-384,0,0,0,0,0,0,0,0,0,-1,1728,1408,0,0
511,-384,0,0,0,0,0,0,0,0,0,-1,1735,1408,0,0
518,-384,0,0,0,0,0,0,0,0,0,-1,1742,1408,0,0
525,-384,0,0,0,0,0,0,0,0,0,-1,1749,1408,0,0
532,-384,0,0,0,0,0,0,0,0,0,-1,1756,1408,0,0
539,-384,23.3894,-0.603638,0,0,0,0,0,0,0,-1,1763,1408,23.3894,0.603585
546,-384,22.6879,0.667603,0,0,0,0,0,0,0,-1,1770,1408,22.6879,-0.667561
553,-384,21.4866,2.03723,0,0,0,0,0,0,0,-1,1777,1408,21.4866,-2.03728
560,-384,20.2853,3.40698,0,0,0,0,0,0,0,-1,1784,1408,20.2853,-3.40699
567,-384,15.0455,3.12732,0,0,0,0,0,0,0,-1,1791,1408,15.0456,-3.12727
574,-384,14.9525,3.45105,0,0,0,0,0,0,0,-1,1798,1408,14.9526,-3.45109
581,-384,15.0204,3.39185,0,0,0,0,0,0,0,-1,1805,1408,15.0204,-3.39188
588,-384,12.5197,2.71411,0,0,0,0,0,0,0,-1,1812,1408,12.5196,-2.71405
595,-384,17.2017,4.63574,0,0,0,0,0,0,0,-1,1819,1408,17.2016,-4.63576
602,-384,14.5807,4.99976,0,0,0,0,0,0,0,-1,1826,1408,14.5806,-4.99972
609,-384,14.158,5.49475,0,0,0,0,0,0,0,-1,1833,1408,14.158,-5.49474
616,-384,13.4597,6.04858,-0.016913,-0.0105712,0.0266105,0.0130566,-0.0405408,0.844698,0.0322722,0.0498564,1840,1408,13.4597,-6.04853
623,-384,12.7789,6.52271,-0.0120578,-0.00788726,0.019976,0.010112,-0.030057,0.837404,0.0241257,0.046148,1847,1408,12.7789,-6.52269
630,-384,12.7516,6.37769,-0.00843257,-0.0057189,0.0147096,0.0076963,-0.0218478,0.831389,0.0176975,0.0212318,1854,1408,12.7516,-6.37766
637,-384,12.7085,6.22668,-0.00600396,-0.00408119,0.0108765,0.00587629,-0.0159614,0.829479,0.0130485,0.0148418,1861,1408,12.7084,-6.22664
644,-384,12.7192,6.04114,-0.00423607,-0.00284567,0.00787301,0.00436278,-0.0114445,0.829435,0.00942669,0.0153069,1868,1408,12.7192,-6.04113
651,-384,12.7334,5.81995,-0.00283835,-0.00186479,0.00550078,0.00317071,-0.00787384,0.82953,0.00656646,0.0147314,1875,1408,12.7334,-5.81998
658,-384,12.7299,5.63147,-0.00196348,-0.00135152,0.00373138,0.0020864,-0.0054014,0.826307,0.00446207,0.0142237,1882,1408,12.7298,-5.63149
665,-384,12.7521,5.44836,-0.00128074,-0.00113709,0.00207198,0.000864306,-0.00328214,0.802723,0.00252597,0.0152154,1889,1408,12.7521,-5.44839
672,-384,12.7585,5.2428,-0.00078815,-0.00100413,0.000704985,-0.000182932,-0.00160935,0.709398,0.00101742,0.0138698,1896,1408,12.7586,-5.24275
679,-384,12.734,5.0426,-0.000424366,-0.00132493,-0.000312325,-0.000326651,-0.00142265,-0.303216,0.000860468,0.014464,1903,1408,12.734,-5.04263
686,-384,12.7097,4.83887,-0.000146531,-0.00191478,-0.0011813,0.000444858,-0.00250617,-0.464149,0.00183711,0.0123587,1910,1408,12.7098,-4.8389
693,-384,12.7572,4.62146,8.59517e-05,-0.00280582,-0.00221545,0.00128559,-0.00400546,-0.496285,0.00318649,0.0174427,1917,1408,12.7572,-4.62151
700,-384,12.7209,4.68042,0.000733066,-0.00427196,-0.0038417,0.00281544,-0.00635434,-0.496716,0.00542401,0.0380913,1924,1408,12.7209,-4.68044
707,-384,12.9089,4.5415,0,0,0,0,0,0,0,-1,1931,1408,12.909,-4.54147
714,-384,13.6599,4.29419,0,0,0,0,0,0,0,-1,1938,1408,13.6599,-4.29413
721,-384,13.8843,2.8717,0,0,0,0,0,0,0,-1,1945,1408,13.8843,-2.87171
728,-384,15.4409,6.25745,0,0,0,0,0,0,0,-1,1952,1408,15.4409,-6.2574
735,-384,16.7598,6.71289,0,0,0,0,0,0,0,-1,1959,1408,16.7598,-6.71287
742,-384,0,0,0,0,0,0,0,0,0,-1,1966,1408,0,0
749,-384,0,0,0,0,0,0,0,0,0,-1,1973,1408,0,0
756,-384,0,0,0,0,0,0,0,0,0,-1,1980,1408,0,0
763,-384,0,0,0,0,0,0,0,0,0,-1,1987,1408,0,0
770,-384,0,0,0,0,0,0,0,0,0,-1,1994,1408,0,0
777,-384,0,0,0,0,0,0,0,0,0,-1,2001,1408,0,0
784,-384,0,0,0,0,0,0,0,0,0,-1,2008,1408,0,0
791,-384,0,0,0,0,0,0,0,0,0,-1,2015,1408,0,0
798,-384,0,0,0,0,0,0,0,0,0,-1,2022,1408,0,0
805,-384,0,0,0,0,0,0,0,0,0,-1,2029,1408,0,0
812,-384,0,0,0,0,0,0,0,0,0,-1,2036,1408,0,0
-700,-391,0,0,0,0,0,0,0,0,0,-1,524,1415,0,0
-693,-391,0,0,0,0,0,0,0,0,0,-1,531,1415,0,0
-686,-391,0,0,0,0,0,0,0,0,0,-1,538,1415,0,0
-679,-391,0,0,0,0,0,0,0,0,0,-1,545,1415,0,0
-672,-391,0,0,0,0,0,0,0,0,0,-1,552,1415,0,0
-665,-391,0,0,0,0,0,0,0,0,0,-1,559,1415,0,0
-658,-391,0,0,0,0,0,0,0,0,0,-1,566,1415,0,0
-651,-391,0,0,0,0,0,0,0,0,0,-1,573,1415,0,0
-644,-391,0,0,0,0,0,0,0,0,0,-1,580,1415,0,0
-637,-391,0,0,0,0,0,0,0,0,0,-1,587,1415,0,0
-630,-391,0,0,0,0,0,0,0,0,0,-1,594,1415,0,0
-623,-391,0,0,0,0,0,0,0,0,0,-1,601,1415,0,0
-616,-391,0,0,0,0,0,0,0,0,0,-1,608,1415,0,0
-609,-391,-7.71753,-3.69763,0,0,0,0,0,0,0,-1,615,1415,-7.71751,3.69759
-602,-391,-5.84851,-1.8335,0,0,0,0,0,0,0,-1,622,1415,-5.84849,1.83348
-595,-391,-2.46948,-1.33557,0,0,0,0,0,0,0,-1,629,1415,-2.4695,1.33561
-588,-391,-2.60364,-0.255493,0,0,0,0,0,0,0,-1,636,1415,-2.60365,0.255499
-581,-391,-2.53778,0.767944,0,0,0,0,0,0,0,-1,643,1415,-2.53779,-0.767993
-574,-391,-4.29498,3.59192,0,0,0,0,0,0,0,-1,650,1415,-4.29497,-3.59191
-567,-391,-4.41107,3.35364,0.0374607,0.0153068,0.0312973,0.0595834,-0.00681591,0.615314,0.0421782,0.0487962,657,1415,-4.4111,-3.35364
-560,-391,-4.4903,3.06946,0.0216943,0.00839111,0.0206237,0.0367125,-0.00662709,0.629404,0.0269569,0.0340385,664,1415,-4.49032,-3.06946
-553,-391,-4.47302,2.85083,0.00844143,0.00247832,0.0120693,0.017892,-0.00697225,0.664304,0.0148097,0.0229635,671,1415,-4.47303,-2.85078
-546,-391,-4.50647,3.09277,0.00209186,2.11125e-05,0.00647324,0.00761201,-0.00549903,0.706096,0.00760236,0.011427,678,1415,-4.50648,-3.09274
-539,-391,-4.48901,3.31128,0.00170484,-0.000253927,0.00371388,0.00456631,-0.00311539,0.656478,0.00446132,0.0136764,685,1415,-4.48899,-3.31127
-532,-391,-4.46906,3.54211,0.00107334,-0.00108494,0.0016896,0.00199902,-0.00201062,0.501204,0.00231497,0.0227112,692,1415,-4.46903,-3.54212
-525,-391,-4.48169,3.77539,0.000253393,-0.00200133,9.20776e-05,0.000257147,-0.00200508,0.0407473,0.00143016,0.0212955,699,1415,-4.48169,-3.77545
-518,-391,-4.51764,3.98523,-0.0014604,-0.00388733,-0.00142105,-0.000805204,-0.00454252,-0.432014,0.00279883,0.0138729,706,1415,-4.51763,-3.98523
-511,-391,-4.5069,4.1925,-0.00361627,-0.00623685,-0.0022506,-0.00232232,-0.0075308,-0.521786,0.00445307,0.0128821,713,1415,-4.5069,-4.19256
-504,-391,-4.50092,4.42468,-0.00605634,-0.00936732,-0.00301263,-0.0042743,-0.0111494,-0.534162,0.0064952,0.0118209,720,1415,-4.5009,-4.4247
-497,-391,-4.50299,4.64954,-0.00900568,-0.0136839,-0.00410986,-0.0066159,-0.0160737,-0.526688,0.00932835,0.00944552,727,1415,-4.503,-4.64957
-490,-391,-4.46466,4.88977,-0.0126253,-0.0195564,-0.00551558,-0.00957689,-0.0226048,-0.504904,0.0131015,0.0153766,734,1415,-4.46465,-4.88977
-483,-391,-4.42542,4.9989,-0.0172526,-0.0266719,-0.00692526,-0.0135873,-0.0303372,-0.486785,0.0175469,0.0368069,741,1415,-4.42543,-4.99886
-476,-391,-4.72437,4.96143,-0.0227132,-0.0357901,-0.0086848,-0.0183808,-0.0401226,-0.462735,0.0231918,0.0455198,748,1415,-4.72439,-4.9614
-469,-391,-5.13464,5.17773,-0.0287848,-0.0473646,-0.0108382,-0.0238,-0.0523495,-0.431086,0.0302654,0.0473348,755,1415,-5.13463,-5.17773
-462,-391,-5.15509,5.38904,-0.0397799,-0.0600792,-0.0147972,-0.031986,-0.0678731,-0.484792,0.0392081,0.0454424,762,1415,-5.15512,-5.38901
-455,-391,-5.27521,5.4668,0,0,0,0,0,0,0,-1,769,1415,-5.27521,-5.46679
-448,-391,-4.15601,2.72815,0,0,0,0,0,0,0,-1,776,1415,-4.156,-2.72814
-441,-391,-2.80511,1.66772,0,0,0,0,0,0,0,-1,783,1415,-2.80509,-1.66773
-434,-391,-9.9859,0.309448,0,0,0,0,0,0,0,-1,790,1415,-9.98591,-0.309397
-427,-391,-10.5988,1.08679,0,0,0,0,0,0,0,-1,797,1415,-10.5988,-1.08679
-420,-391,-11.131,1.33203,0,0,0,0,0,0,0,-1,804,1415,-11.1311,-1.33206
-413,-391,0,0,0,0,0,0,0,0,0,-1,811,1415,0,0
-406,-391,0,0,0,0,0,0,0,0,0,-1,818,1415,0,0
-399,-391,0,0,0,0,0,0,0,0,0,-1,825,1415,0,0
-392,-391,0,0,0,0,0,0,0,0,0,-1,832,1415,0,0
-385,-391,0,0,0,0,0,0,0,0,0,-1,839,1415,0,0
-378,-391,0,0,0,0,0,0,0,0,0,-1,846,1415,0,0
-371,-391,0,0,0,0,0,0,0,0,0,-1,853,1415,0,0
-364,-391,0,0,0,0,0,0,0,0,0,-1,860,1415,0,0
-357,-391,0,0,0,0,0,0,0,0,0,-1,867,1415,0,0
-350,-391,0,0,0,0,0,0,0,0,0,-1,874,1415,0,0
-343,-391,0,0,0,0,0,0,0,0,0,-1,881,1415,0,0
-336,-391,0,0,0,0,0,0,0,0,0,-1,888,1415,0,0
-329,-391,0,0,0,0,0,0,0,0,0,-1,895,1415,0,0
-322,-391,0,0,0,0,0,0,0,0,0,-1,902,1415,0,0
-315,-391,0,0,0,0,0,0,0,0,0,-1,909,1415,0,0
-308,-391,0,0,0,0,0,0,0,0,0,-1,916,1415,0,0
-301,-391,0,0,0,0,0,0,0,0,0,-1,923,1415,0,0
-294,-391,0,0,0,0,0,0,0,0,0,-1,930,1415,0,0
-287,-391,0,0,0,0,0,0,0,0,0,-1,937,1415,0,0
-280,-391,0,0,0,0,0,0,0,0,0,-1,944,1415,0,0
-273,-391,0,0,0,0,0,0,0,0,0,-1,951,1415,0,0
-266,-391,0,0,0,0,0,0,0,0,0,-1,958,1415,0,0
-259,-391,0,0,0,0,0,0,0,0,0,-1,965,1415,0,0
-252,-391,0,0,0,0,0,0,0,0,0,-1,972,1415,0,0
-245,-391,0,0,0,0,0,0,0,0,0,-1,979,1415,0,0
-238,-391,0,0,0,0,0,0,0,0,0,-1,986,1415,0,0
-231,-391,0,0,0,0,0,0,0,0,0,-1,993,1415,0,0
-224,-391,0,0,0,0,0,0,0,0,0,-1,1000,1415,0,0
-217,-391,0,0,0,0,0,0,0,0,0,-1,1007,1415,0,0
-210,-391,0,0,0,0,0,0,0,0,0,-1,1014,1415,0,0
-203,-391,0,0,0,0,0,0,0,0,0,-1,1021,1415,0,0
-196,-391,0,0,0,0,0,0,0,0,0,-1,1028,1415,0,0
-189,-391,0,0,0,0,0,0,0,0,0,-1,1035,1415,0,0
-182,-391,0,0,0,0,0,0,0,0,0,-1,1042,1415,0,0
-175,-391,0,0,0,0,0,0,0,0,0,-1,1049,1415,0,0
-168,-391,0,0,0,0,0,0,0,0,0,-1,1056,1415,0,0
-161,-391,0,0,0,0,0,0,0,0,0,-1,1063,1415,0,0
-154,-391,0,0,0,0,0,0,0,0,0,-1,1070,1415,0,0
-147,-391,0,0,0,0,0,0,0,0,0,-1,1077,1415,0,0
-140,-391,0,0,0,0,0,0,0,0,0,-1,1084,1415,0,0
-133,-391,0,0,0,0,0,0,0,0,0,-1,1091,1415,0,0
-126,-391,0,0,0,0,0,0,0,0,0,-1,1098,1415,0,0
-119,-391,0,0,0,0,0,0,0,0,0,-1,1105,1415,0,0
-112,-391,0,0,0,0,0,0,0,0,0,-1,1112,1415,0,0
-105,-391,0,0,0,0,0,0,0,0,0,-1,1119,1415,0,0
-98,-391,0,0,0,0,0,0,0,0,0,-1,1126,1415,0,0
-91,-391,0,0,0,0,0,0,0,0,0,-1,1133,1415,0,0
-84,-391,0,0,0,0,0,0,0,0,0,-1,1140,1415,0,0
-77,-391,0,0,0,0,0,0,0,0,0,-1,1147,1415,0,0
-70,-391,0,0,0,0,0,0,0,0,0,-1,1154,1415,0,0
-63,-391,0,0,0,0,0,0,0,0,0,-1,1161,1415,0,0
-56,-391,0,0,0,0,0,0,0,0,0,-1,1168,1415,0,0
-49,-391,0,0,0,0,0,0,0,0,0,-1,1175,1415,0,0
-42,-391,0,0,0,0,0,0,0,0,0,-1,1182,1415,0,0
-35,-391,0,0,0,0,0,0,0,0,0,-1,1189,1415,0,0
-28,-391,0,0,0,0,0,0,0,0,0,-1,1196,1415,0,0
-21,-391,0,0,0,0,0,0,0,0,0,-1,1203,1415,0,0
-14,-391,0,0,0,0,0,0,0,0,0,-1,1210,1415,0,0
-7,-391,0,0,0,0,0,0,0,0,0,-1,1217,1415,0,0
0,-391,0,0,0,0,0,0,0,0,0,-1,1224,1415,0,0
7,-391,0,0,0,0,0,0,0,0,0,-1,1231,1415,0,0
14,-391,0,0,0,0,0,0,0,0,0,-1,1238,1415,0,0
21,-391,0,0,0,0,0,0,0,0,0,-1,1245,1415,0,0
28,-391,0,0,0,0,0,0,0,0,0,-1,1252,1415,0,0
35,-391,0,0,0,0,0,0,0,0,0,-1,1259,1415,0,0
42,-391,0,0,0,0,0,0,0,0,0,-1,1266,1415,0,0
49,-391,0,0,0,0,0,0,0,0,0,-1,1273,1415,0,0
56,-391,0,0,0,0,0,0,0,0,0,-1,1280,1415,0,0
63,-391,0,0,0,0,0,0,0,0,0,-1,1287,1415,0,0
70,-391,0,0,0,0,0,0,0,0,0,-1,1294,1415,0,0
77,-391,0,0,0,0,0,0,0,0,0,-1,1301,1415,0,0
84,-391,0,0,0,0,0,0,0,0,0,-1,1308,1415,0,0
91,-391,0,0,0,0,0,0,0,0,0,-1,1315,1415,0,0
98,-391,0,0,0,0,0,0,0,0,0,-1,1322,1415,0,0
105,-391,0,0,0,0,0,0,0,0,0,-1,1329,1415,0,0
112,-391,0,0,0,0,0,0,0,0,0,-1,1336,1415,0,0
119,-391,0,0,0,0,0,0,0,0,0,-1,1343,1415,0,0
126,-391,0,0,0,0,0,0,0,0,0,-1,1350,1415,0,0
133,-391,0,0,0,0,0,0,0,0,0,-1,1357,1415,0,0
140,-391,0,0,0,0,0,0,0,0,0,-1,1364,1415,0,0
147,-391,0,0,0,0,0,0,0,0,0,-1,1371,1415,0,0
154,-391,0,0,0,0,0,0,0,0,0,-1,1378,1415,0,0
161,-391,0,0,0,0,0,0,0,0,0,-1,1385,1415,0,0
168,-391,0,0,0,0,0,0,0,0,0,-1,1392,1415,0,0
175,-391,0,0,0,0,0,0,0,0,0,-1,1399,1415,0,0
182,-391,0,0,0,0,0,0,0,0,0,-1,1406,1415,0,0
189,-391,0,0,0,0,0,0,0,0,0,-1,1413,1415,0,0
196,-391,0,0,0,0,0,0,0,0,0,-1,1420,1415,0,0
203,-391,0,0,0,0,0,0,0,0,0,-1,1427,1415,0,0
210,-391,0,0,0,0,0,0,0,0,0,-1,1434,1415,0,0
217,-391,0,0,0,0,0,0,0,0,0,-1,1441,1415,0,0
224,-391,0,0,0,0,0,0,0,0,0,-1,1448,1415,0,0
231,-391,0,0,0,0,0,0,0,0,0,-1,1455,1415,0,0
238,-391,0,0,0,0,0,0,0,0,0,-1,1462,1415,0,0
245,-391,0,0,0,0,0,0,0,0,0,-1,1469,1415,0,0
252,-391,0,0,0,0,0,0,0,0,0,-1,1476,1415,0,0
259,-391,0,0,0,0,0,0,0,0,0,-1,1483,1415,0,0
266,-391,0,0,0,0,0,0,0,0,0,-1,1490,1415,0,0
273,-391,0,0,0,0,0,0,0,0,0,-1,1497,1415,0,0
280,-391,0,0,0,0,0,0,0,0,0,-1,1504,1415,0,0
287,-391,0,0,0,0,0,0,0,0,0,-1,1511,1415,0,0
294,-391,0,0,0,0,0,0,0,0,0,-1,1518,1415,0,0
301,-391,0,0,0,0,0,0,0,0,0,-1,1525,1415,0,0
308,-391,0,0,0,0,0,0,0,0,0,-1,1532,1415,0,0
315,-391,0,0,0,0,0,0,0,0,0,-1,1539,1415,0,0
322,-391,0,0,0,0,0,0,0,0,0,-1,1546,1415,0,0
329,-391,0,0,0,0,0,0,0,0,0,-1,1553,1415,0,0
336,-391,0,0,0,0,0,0,0,0,0,-1,1560,1415,0,0
343,-391,0,0,0,0,0,0,0,0,0,-1,1567,1415,0,0
350,-391,0,0,0,0,0,0,0,0,0,-1,1574,1415,0,0
357,-391,0,0,0,0,0,0,0,0,0,-1,1581,1415,0,0
364,-391,0,0,0,0,0,0,0,0,0,-1,1588,1415,0,0
371,-391,0,0,0,0,0,0,0,0,0,-1,1595,1415,0,0
378,-391,0,0,0,0,0,0,0,0,0,-1,1602,1415,0,0
385,-391,0,0,0,0,0,0,0,0,0,-1,1609,1415,0,0
392,-391,0,0,0,0,0,0,0,0,0,-1,1616,1415,0,0
399,-391,0,0,0,0,0,0,0,0,0,-1,1623,1415,0,0
406,-391,0,0,0,0,0,0,0,0,0,-1,1630,1415,0,0
413,-391,0,0,0,0,0,0,0,0,0,-1,1637,1415,0,0
420,-391,0,0,0,0,0,0,0,0,0,-1,1644,1415,0,0
427,-391,0,0,0,0,0,0,0,0,0,-1,1651,1415,0,0
434,-391,0,0,0,0,0,0,0,0,0,-1,1658,1415,0,0
441,-391,0,0,0,0,0,0,0,0,0,-1,1665,1415,0,0
448,-391,0,0,0,0,0,0,0,0,0,-1,1672,1415,0,0
455,-391,0,0,0,0,0,0,0,0,0,-1,1679,1415,0,0
462,-391,0,0,0,0,0,0,0,0,0,-1,1686,1415,0,0
469,-391,0,0,0,0,0,0,0,0,0,-1,1693,1415,0,0
476,-391,0,0,0,0,0,0,0,0,0,-1,1700,1415,0,0
483,-391,0,0,0,0,0,0,0,0,0,-1,1707,1415,0,0
490,-391,0,0,0,0,0,0,0,0,0,-1,1714,1415,0,0
497,-391,0,0,0,0,0,0,0,0,0,-1,1721,1415,0,0
504,-391,0,0,0,0,0,0,0,0,0,-1,1728,1415,0,0
511,-391,0,0,0,0,0,0,0,0,0,-1,1735,1415,0,0
518,-391,0,0,0,0,0,0,0,0,0,-1,1742,1415,0,0
525,-391,0,0,0,0,0,0,0,0,0,-1,1749,1415,0,0
532,-391,23.5477,-0.824097,0,0,0,0,0,0,0,-1,1756,1415,23.5478,0.82411
539,-391,22.5436,-0.129028,0,0,0,0,0,0,0,-1,1763,1415,22.5436,0.129015
546,-391,21.926,0.787964,0,0,0,0,0,0,0,-1,1770,1415,21.926,-0.787995
553,-391,20.658,1.82947,0,0,0,0,0,0,0,-1,1777,1415,20.658,-1.82943
560,-391,19.9749,2.2887,0,0,0,0,0,0,0,-1,1784,1415,19.9748,-2.28875
567,-391,18.4052,2.68176,0,0,0,0,0,0,0,-1,1791,1415,18.4051,-2.68182
574,-391,14.7999,3.80591,0,0,0,0,0,0,0,-1,1798,1415,14.7999,-3.80592
581,-391,17.4784,4.04468,0,0,0,0,0,0,0,-1,1805,1415,17.4783,-4.04469
588,-391,16.6328,4.5874,0,0,0,0,0,0,0,-1,1812,1415,16.6328,-4.5874
595,-391,15.9152,5.18213,0,0,0,0,0,0,0,-1,1819,1415,15.9151,-5.18209
602,-391,15.1635,5.69849,0,0,0,0,0,0,0,-1,1826,1415,15.1635,-5.69847
609,-391,13.0525,6.58203,0,0,0,0,0,0,0,-1,1833,1415,13.0525,-6.58208
616,-391,12.726,6.54053,-0.0155013,-0.0106916,0.0212206,0.00826005,-0.0344529,0.841821,0.0261603,0.0383603,1840,1415,12.726,-6.54054
623,-391,12.5656,6.56177,-0.0108447,-0.00791346,0.0158219,0.00651052,-0.0252687,0.831583,0.0193839,0.0201348,1847,1415,12.5656,-6.56182
630,-391,12.548,6.36731,-0.00755365,-0.00557488,0.0115663,0.0050443,-0.0181728,0.828065,0.0141007,0.0176448,1854,1415,12.5479,-6.36733
637,-391,12.5311,6.20715,-0.00538032,-0.00375054,0.00845682,0.00393056,-0.0130614,0.833429,0.0102716,0.0155218,1861,1415,12.5311,-6.20716
644,-391,12.543,6.03101,-0.00389842,-0.00242435,0.00609189,0.00297493,-0.0092977,0.845599,0.00739241,0.0161844,1868,1415,12.543,-6.03101
651,-391,12.5422,5.82959,-0.00278147,-0.00138319,0.00423872,0.00221366,-0.00637832,0.867133,0.00515117,0.0166688,1875,1415,12.5422,-5.82956
658,-391,12.5221,5.64355,-0.00222744,-0.000836195,0.002929,0.00147865,-0.00454229,0.901986,0.00362309,0.0153422,1882,1415,12.522,-5.64354
665,-391,12.5476,5.45654,-0.00185959,-0.000632076,0.00167219,0.000535433,-0.0030271,0.961285,0.00221819,0.0125423,1889,1415,12.5476,-5.45657
672,-391,12.5671,5.24463,-0.0017434,-0.000593817,0.000734138,-0.000236224,-0.002101,1.11753,0.00132894,0.0116216,1896,1415,12.5671,-5.24461
679,-391,12.5522,5.05078,-0.00171035,-0.0009774,0.000146771,-0.000949102,-0.00173865,1.38033,0.00100522,0.0110705,1903,1415,12.5523,-5.05081
686,-391,12.5441,4.84558,-0.00168745,-0.00200558,-0.000364654,-0.00144868,-0.00224435,-0.579736,0.00131393,0.0124461,1910,1415,12.544,-4.84561
693,-391,12.5481,4.69092,-0.00148914,-0.00374253,-0.00115177,-0.00100462,-0.00422705,-0.398201,0.00255,0.0275371,1917,1415,12.5481,-4.69088
700,-391,12.603,4.52747,0,0,0,0,0,0,0,-1,1924,1415,12.6031,-4.52752
707,-391,11.5243,5.89844,0,0,0,0,0,0,0,-1,1931,1415,11.5243,-5.89848
714,-391,12.5084,7.60242,0,0,0,0,0,0,0,-1,1938,1415,12.5084,-7.60241
721,-391,14.1808,8.08435,0,0,0,0,0,0,0,-1,1945,1415,14.1808,-8.08439
728,-391,13.8102,7.28174,0,0,0,0,0,0,0,-1,1952,1415,13.8102,-7.28174
735,-391,0,0,0,0,0,0,0,0,0,-1,1959,1415,0,0
742,-391,0,0,0,0,0,0,0,0,0,-1,1966,1415,0,0
749,-391,0,0,0,0,0,0,0,0,0,-1,1973,1415,0,0
756,-391,0,0,0,0,0,0,0,0,0,-1,1980,1415,0,0
763,-391,0,0,0,0,0,0,0,0,0,-1,1987,1415,0,0
770,-391,0,0,0,0,0,0,0,0,0,-1,1994,1415,0,0
777,-391,0,0,0,0,0,0,0,0,0,-1,2001,1415,0,0
784,-391,0,0,0,0,0,0,0,0,0,-1,2008,1415,0,0
791,-391,0,0,0,0,0,0,0,0,0,-1,2015,1415,0,0
798,-391,0,0,0,0,0,0,0,0,0,-1,2022,1415,0,0
805,-391,0,0,0,0,0,0,0,0,0,-1,2029,1415,0,0
812,-391,0,0,0,0,0,0,0,0,0,-1,2036,1415,0,0
-700,-398,0,0,0,0,0,0,0,0,0,-1,524,1422,0,0
-693,-398,0,0,0,0,0,0,0,0,0,-1,531,1422,0,0
-686,-398,0,0,0,0,0,0,0,0,0,-1,538,1422,0,0
-679,-398,0,0,0,0,0,0,0,0,0,-1,545,1422,0,0
-672,-398,0,0,0,0,0,0,0,0,0,-1,552,1422,0,0
-665,-398,0,0,0,0,0,0,0,0,0,-1,559,1422,0,0
-658,-398,0,0,0,0,0,0,0,0,0,-1,566,1422,0,0
-651,-398,0,0,0,0,0,0,0,0,0,-1,573,1422,0,0
-644,-398,0,0,0,0,0,0,0,0,0,-1,580,1422,0,0
-637,-398,0,0,0,0,0,0,0,0,0,-1,587,1422,0,0
-630,-398,0,0,0,0,0,0,0,0,0,-1,594,1422,0,0
-623,-398,0,0,0,0,0,0,0,0,0,-1,601,1422,0,0
-616,-398,0,0,0,0,0,0,0,0,0,-1,608,1422,0,0
-609,-398,-8.00586,-5.16809,0,0,0,0,0,0,0,-1,615,1422,-8.00584,5.16813
-602,-398,-4.16425,-3.20972,0,0,0,0,0,0,0,-1,622,1422,-4.16425,3.20969
-595,-398,-2.55194,-1.69983,0,0,0,0,0,0,0,-1,629,1422,-2.55192,1.69985
-588,-398,-2.24683,-0.434692,0,0,0,0,0,0,0,-1,636,1422,-2.24684,0.434686
-581,-398,-1.83307,0.725586,0,0,0,0,0,0,0,-1,643,1422,-1.83307,-0.725603
-574,-398,-4.98346,2.1062,0,0,0,0,0,0,0,-1,650,1422,-4.98349,-2.1062
-567,-398,-4.26013,3.75403,0,0,0,0,0,0,0,-1,657,1422,-4.26014,-3.75408
-560,-398,-4.43353,2.92407,0.029961,0.0125806,0.0314054,0.0538564,-0.0113147,0.65042,0.04021,0.0417719,664,1422,-4.43355,-2.92412
-553,-398,-4.22461,2.90332,0.015161,0.00609956,0.0203561,0.0314845,-0.010224,0.675897,0.0251015,0.0297839,671,1422,-4.22458,-2.90337
-546,-398,-4.28674,3.08923,0.00731748,0.00306885,0.0125933,0.0179643,-0.00757801,0.701841,0.0151478,0.0142589,678,1422,-4.28674,-3.08926
-539,-398,-4.25873,3.34937,0.0054503,0.00223741,0.00797676,0.0119808,-0.00429306,0.686032,0.00973889,0.0127233,685,1422,-4.25875,-3.34938
-532,-398,-4.23718,3.58789,0.00370133,0.00107927,0.00463523,0.00720737,-0.00242677,0.647578,0.00578604,0.020404,692,1422,-4.23715,-3.58795
-525,-398,-4.23737,3.80432,0.00207885,-0.000164721,0.00212605,0.00336091,-0.00144679,0.542642,0.00284811,0.0194637,699,1422,-4.23738,-3.80431
-518,-398,-4.25165,4.01221,-0.000129111,-0.00212352,-0.000148363,-0.000118135,-0.00213449,-0.0738481,0.0013853,0.0174757,706,1422,-4.25166,-4.01226
-511,-398,-4.26154,4.19287,-0.00248813,-0.00426413,-0.00134857,-0.00176145,-0.00499081,-0.494244,0.00292269,0.0130546,713,1422,-4.26152,-4.19288
-504,-398,-4.26764,4.42529,-0.00487489,-0.00706167,-0.00205411,-0.0036413,-0.00829526,-0.540824,0.00480115,0.0127425,720,1422,-4.26762,-4.42529
-497,-398,-4.28033,4.65735,-0.00745638,-0.0108088,-0.00304102,-0.00566021,-0.012605,-0.533514,0.00729009,0.00930724,727,1422,-4.28033,-4.65735
-490,-398,-4.27246,4.88794,-0.0103369,-0.0158891,-0.0042436,-0.00804205,-0.018184,-0.495742,0.0105219,0.0103848,734,1422,-4.27248,-4.88798
-483,-398,-4.17444,5.13,-0.0139782,-0.0218587,-0.0054401,-0.0112013,-0.0246356,-0.471973,0.0142428,0.0211062,741,1422,-4.17446,-5.12995
-476,-398,-4.23877,5.0553,-0.0181704,-0.0295051,-0.0069578,-0.0148639,-0.0328116,-0.443628,0.0189717,0.0419575,748,1422,-4.23878,-5.05532
-469,-398,-4.69843,5.71692,-0.0227685,-0.0392852,-0.00895333,-0.0188464,-0.0432072,-0.412877,0.0250133,0.0471297,755,1422,-4.6984,-5.71686
-462,-398,-5.20691,6.6438,-0.0324238,-0.0503236,-0.0128073,-0.0257491,-0.0569982,-0.480434,0.032959,0.0471532,762,1422,-5.20693,-6.64379
-455,-398,-5.86755,7.24524,0,0,0,0,0,0,0,-1,769,1422,-5.86754,-7.24526
-448,-398,-3.96271,3.68347,0,0,0,0,0,0,0,-1,776,1422,-3.96271,-3.68351
-441,-398,-2.95306,2.51233,0,0,0,0,0,0,0,-1,783,1422,-2.95305,-2.51227
-434,-398,-3.71259,0.368286,0,0,0,0,0,0,0,-1,790,1422,-3.7126,-0.368295
-427,-398,-10.1968,0.991211,0,0,0,0,0,0,0,-1,797,1422,-10.1968,-0.991221
-420,-398,-10.7851,1.41687,0,0,0,0,0,0,0,-1,804,1422,-10.7851,-1.41691
-413,-398,-11.0192,1.49609,0,0,0,0,0,0,0,-1,811,1422,-11.0191,-1.49611
-406,-398,0,0,0,0,0,0,0,0,0,-1,818,1422,0,0
-399,-398,0,0,0,0,0,0,0,0,0,-1,825,1422,0,0
-392,-398,0,0,0,0,0,0,0,0,0,-1,832,1422,0,0
-385,-398,0,0,0,0,0,0,0,0,0,-1,839,1422,0,0
-378,-398,0,0,0,0,0,0,0,0,0,-1,846,1422,0,0
-371,-398,0,0,0,0,0,0,0,0,0,-1,853,1422,0,0
-364,-398,0,0,0,0,0,0,0,0,0,-1,860,1422,0,0
-357,-398,0,0,0,0,0,0,0,0,0,-1,867,1422,0,0
-350,-398,0,0,0,0,0,0,0,0,0,-1,874,1422,0,0
-343,-398,0,0,0,0,0,0,0,0,0,-1,881,1422,0,0
-336,-398,0,0,0,0,0,0,0,0,0,-1,888,1422,0,0
-329,-398,0,0,0,0,0,0,0,0,0,-1,895,1422,0,0
-322,-398,0,0,0,0,0,0,0,0,0,-1,902,1422,0,0
-315,-398,0,0,0,0,0,0,0,0,0,-1,909,1422,0,0
-308,-398,0,0,0,0,0,0,0,0,0,-1,916,1422,0,0
-301,-398,0,0,0,0,0,0,0,0,0,-1,923,1422,0,0
-294,-398,0,0,0,0,0,0,0,0,0,-1,930,1422,0,0
-287,-398,0,0,0,0,0,0,0,0,0,-1,937,1422,0,0
-280,-398,0,0,0,0,0,0,0,0,0,-1,944,1422,0,0
-273,-398,0,0,0,0,0,0,0,0,0,-1,951,1422,0,0
-266,-398,0,0,0,0,0,0,0,0,0,-1,958,1422,0,0
-259,-398,0,0,0,0,0,0,0,0,0,-1,965,1422,0,0
-252,-398,0,0,0,0,0,0,0,0,0,-1,972,1422,0,0
-245,-398,0,0,0,0,0,0,0,0,0,-1,979,1422,0,0
-238,-398,0,0,0,0,0,0,0,0,0,-1,986,1422,0,0
-231,-398,0,0,0,0,0,0,0,0,0,-1,993,1422,0,0
-224,-398,0,0,0,0,0,0,0,0,0,-1,1000,1422,0,0
-217,-398,0,0,0,0,0,0,0,0,0,-1,1007,1422,0,0
-210,-398,0,0,0,0,0,0,0,0,0,-1,1014,1422,0,0
-203,-398,0,0,0,0,0,0,0,0,0,-1,1021,1422,0,0
-196,-398,0,0,0,0,0,0,0,0,0,-1,1028,1422,0,0
-189,-398,0,0,0,0,0,0,0,0,0,-1,1035,1422,0,0
-182,-398,0,0,0,0,0,0,0,0,0,-1,1042,1422,0,0
-175,-398,0,0,0,0,0,0,0,0,0,-1,1049,1422,0,0
-168,-398,0,0,0,0,0,0,0,0,0,-1,1056,1422,0,0
-161,-398,0,0,0,0,0,0,0,0,0,-1,1063,1422,0,0
-154,-398,0,0,0,0,0,0,0,0,0,-1,1070,1422,0,0
-147,-398,0,0,0,0,0,0,0,0,0,-1,1077,1422,0,0
-140,-398,0,0,0,0,0,0,0,0,0,-1,1084,1422,0,0
-133,-398,0,0,0,0,0,0,0,0,0,-1,1091,1422,0,0
-126,-398,0,0,0,0,0,0,0,0,0,-1,1098,1422,0,0
-119,-398,0,0,0,0,0,0,0,0,0,-1,1105,1422,0,0
-112,-398,0,0,0,0,0,0,0,0,0,-1,1112,1422,0,0
-105,-398,0,0,0,0,0,0,0,0,0,-1,1119,1422,0,0
-98,-398,0,0,0,0,0,0,0,0,0,-1,1126,1422,0,0
-91,-398,0,0,0,0,0,0,0,0,0,-1,1133,1422,0,0
-84,-398,0,0,0,0,0,0,0,0,0,-1,1140,1422,0,0
-77,-398,0,0,0,0,0,0,0,0,0,-1,1147,1422,0,0
-70,-398,0,0,0,0,0,0,0,0,0,-1,1154,1422,0,0
-63,-398,0,0,0,0,0,0,0,0,0,-1,1161,1422,0,0
-56,-398,0,0,0,0,0,0,0,0,0,-1,1168,1422,0,0
-49,-398,0,0,0,0,0,0,0,0,0,-1,1175,1422,0,0
-42,-398,0,0,0,0,0,0,0,0,0,-1,1182,1422,0,0
-35,-398,0,0,0,0,0,0,0,0,0,-1,1189,1422,0,0
-28,-398,0,0,0,0,0,0,0,0,0,-1,1196,1422,0,0
-21,-398,0,0,0,0,0,0,0,0,0,-1,1203,1422,0,0
-14,-398,0,0,0,0,0,0,0,0,0,-1,1210,1422,0,0
-7,-398,0,0,0,0,0,0,0,0,0,-1,1217,1422,0,0
0,-398,0,0,0,0,0,0,0,0,0,-1,1224,1422,0,0
7,-398,0,0,0,0,0,0,0,0,0,-1,1231,1422,0,0
14,-398,0,0,0,0,0,0,0,0,0,-1,1238,1422,0,0
21,-398,0,0,0,0,0,0,0,0,0,-1,1245,1422,0,0
28,-398,0,0,0,0,0,0,0,0,0,-1,1252,1422,0,0
35,-398,0,0,0,0,0,0,0,0,0,-1,1259,1422,0,0
42,-398,0,0,0,0,0,0,0,0,0,-1,1266,1422,0,0
49,-398,0,0,0,0,0,0,0,0,0,-1,1273,1422,0,0
56,-398,0,0,0,0,0,0,0,0,0,-1,1280,1422,0,0
63,-398,0,0,0,0,0,0,0,0,0,-1,1287,1422,0,0
70,-398,0,0,0,0,0,0,0,0,0,-1,1294,1422,0,0
77,-398,0,0,0,0,0,0,0,0,0,-1,1301,1422,0,0
84,-398,0,0,0,0,0,0,0,0,0,-1,1308,1422,0,0
91,-398,0,0,0,0,0,0,0,0,0,-1,1315,1422,0,0
98,-398,0,0,0,0,0,0,0,0,0,-1,1322,1422,0,0
105,-398,0,0,0,0,0,0,0,0,0,-1,1329,1422,0,0
112,-398,0,0,0,0,0,0,0,0,0,-1,1336,1422,0,0
119,-398,0,0,0,0,0,0,0,0,0,-1,1343,1422,0,0
126,-398,0,0,0,0,0,0,0,0,0,-1,1350,1422,0,0
133,-398,0,0,0,0,0,0,0,0,0,-1,1357,1422,0,0
140,-398,0,0,0,0,0,0,0,0,0,-1,1364,1422,0,0
147,-398,0,0,0,0,0,0,0,0,0,-1,1371,1422,0,0
154,-398,0,0,0,0,0,0,0,0,0,-1,1378,1422,0,0
161,-398,0,0,0,0,0,0,0,0,0,-1,1385,1422,0,0
168,-398,0,0,0,0,0,0,0,0,0,-1,1392,1422,0,0
175,-398,0,0,0,0,0,0,0,0,0,-1,1399,1422,0,0
182,-398,0,0,0,0,0,0,0,0,0,-1,1406,1422,0,0
189,-398,0,0,0,0,0,0,0,0,0,-1,1413,1422,0,0
196,-398,0,0,0,0,0,0,0,0,0,-1,1420,1422,0,0
203,-398,0,0,0,0,0,0,0,0,0,-1,1427,1422,0,0
210,-398,0,0,0,0,0,0,0,0,0,-1,1434,1422,0,0
217,-398,0,0,0,0,0,0,0,0,0,-1,1441,1422,0,0
224,-398,0,0,0,0,0,0,0,0,0,-1,1448,1422,0,0
231,-398,0,0,0,0,0,0,0,0,0,-1,1455,1422,0,0
238,-398,0,0,0,0,0,0,0,0,0,-1,1462,1422,0,0
245,-398,0,0,0,0,0,0,0,0,0,-1,1469,1422,0,0
252,-398,0,0,0,0,0,0,0,0,0,-1,1476,1422,0,0
259,-398,0,0,0,0,0,0,0,0,0,-1,1483,1422,0,0
266,-398,0,0,0,0,0,0,0,0,0,-1,1490,1422,0,0
273,-398,0,0,0,0,0,0,0,0,0,-1,1497,1422,0,0
280,-398,0,0,0,0,0,0,0,0,0,-1,1504,1422,0,0
287,-398,0,0,0,0,0,0,0,0,0,-1,1511,1422,0,0
294,-398,0,0,0,0,0,0,0,0,0,-1,1518,1422,0,0
301,-398,0,0,0,0,0,0,0,0,0,-1,1525,1422,0,0
308,-398,0,0,0,0,0,0,0,0,0,-1,1532,1422,0,0
315,-398,0,0,0,0,0,0,0,0,0,-1,1539,1422,0,0
322,-398,0,0,0,0,0,0,0,0,0,-1,1546,1422,0,0
329,-398,0,0,0,0,0,0,0,0,0,-1,1553,1422,0,0
336,-398,0,0,0,0,0,0,0,0,0,-1,1560,1422,0,0
343,-398,0,0,0,0,0,0,0,0,0,-1,1567,1422,0,0
350,-398,0,0,0,0,0,0,0,0,0,-1,1574,1422,0,0
357,-398,0,0,0,0,0,0,0,0,0,-1,1581,1422,0,0
364,-398,0,0,0,0,0,0,0,0,0,-1,1588,1422,0,0
371,-398,0,0,0,0,0,0,0,0,0,-1,1595,1422,0,0
378,-398,0,0,0,0,0,0,0,0,0,-1,1602,1422,0,0
385,-398,0,0,0,0,0,0,0,0,0,-1,1609,1422,0,0
392,-398,0,0,0,0,0,0,0,0,0,-1,1616,1422,0,0
399,-398,0,0,0,0,0,0,0,0,0,-1,1623,1422,0,0
406,-398,0,0,0,0,0,0,0,0,0,-1,1630,1422,0,0
413,-398,0,0,0,0,0,0,0,0,0,-1,1637,1422,0,0
420,-398,0,0,0,0,0,0,0,0,0,-1,1644,1422,0,0
427,-398,0,0,0,0,0,0,0,0,0,-1,1651,1422,0,0
434,-398,0,0,0,0,0,0,0,0,0,-1,1658,1422,0,0
441,-398,0,0,0,0,0,0,0,0,0,-1,1665,1422,0,0
448,-398,0,0,0,0,0,0,0,0,0,-1,1672,1422,0,0
455,-398,0,0,0,0,0,0,0,0,0,-1,1679,1422,0,0
462,-398,0,0,0,0,0,0,0,0,0,-1,1686,1422,0,0
469,-398,0,0,0,0,0,0,0,0,0,-1,1693,1422,0,0
476,-398,0,0,0,0,0,0,0,0,0,-1,1700,1422,0,0
483,-398,0,0,0,0,0,0,0,0,0,-1,1707,1422,0,0
490,-398,0,0,0,0,0,0,0,0,0,-1,1714,1422,0,0
497,-398,0,0,0,0,0,0,0,0,0,-1,1721,1422,0,0
504,-398,0,0,0,0,0,0,0,0,0,-1,1728,1422,0,0
511,-398,0,0,0,0,0,0,0,0,0,-1,1735,1422,0,0
518,-398,0,0,0,0,0,0,0,0,0,-1,1742,1422,0,0
525,-398,0,0,0,0,0,0,0,0,0,-1,1749,1422,0,0
532,-398,22.8054,-0.734619,0,0,0,0,0,0,0,-1,1756,1422,22.8054,0.734574
539,-398,21.8641,0.213013,0,0,0,0,0,0,0,-1,1763,1422,21.8642,-0.213027
546,-398,20.9138,1.11597,0,0,0,0,0,0,0,-1,1770,1422,20.9138,-1.11593
553,-398,19.8773,2.00244,0,0,0,0,0,0,0,-1,1777,1422,19.8773,-2.00245
560,-398,18.9794,2.80017,0,0,0,0,0,0,0,-1,1784,1422,18.9794,-2.80018
567,-398,17.7501,3.16516,0,0,0,0,0,0,0,-1,1791,1422,17.7501,-3.16513
574,-398,17.2627,3.99194,0,0,0,0,0,0,0,-1,1798,1422,17.2627,-3.99199
581,-398,16.3904,4.60718,0,0,0,0,0,0,0,-1,1805,1422,16.3904,-4.60712
588,-398,15.4109,5.22192,0,0,0,0,0,0,0,-1,1812,1422,15.4109,-5.22192
595,-398,14.5299,5.75427,0,0,0,0,0,0,0,-1,1819,1422,14.5299,-5.75426
602,-398,13.2389,6.75549,0,0,0,0,0,0,0,-1,1826,1422,13.239,-6.75555
609,-398,12.6157,6.57275,0,0,0,0,0,0,0,-1,1833,1422,12.6157,-6.57277
616,-398,12.4037,6.77344,-0.0143259,-0.0106685,0.0166505,0.00425344,-0.0292478,0.840093,0.02106,0.0178002,1840,1422,12.4037,-6.77348
623,-398,12.344,6.61011,-0.0100266,-0.00777388,0.0123755,0.00352643,-0.0213269,0.83078,0.0155275,0.0108462,1847,1422,12.344,-6.61007
630,-398,12.3409,6.41382,-0.00700426,-0.00538412,0.00888441,0.00272707,-0.0151155,0.830862,0.0110982,0.012135,1854,1422,12.3409,-6.41377
637,-398,12.3501,6.2229,-0.00498835,-0.0034553,0.00627777,0.00210257,-0.0105462,0.846148,0.00782638,0.0132584,1861,1422,12.3501,-6.22287
644,-398,12.2919,6.0498,-0.00364703,-0.0020608,0.00433237,0.00155045,-0.00725829,0.875929,0.00542997,0.0184519,1868,1422,12.2919,-6.04977
651,-398,12.3038,5.85547,-0.00264895,-0.000949734,0.00278814,0.00111537,-0.00471406,0.93329,0.00357301,0.0250118,1875,1422,12.3038,-5.85549
658,-398,12.3478,5.66711,-0.00224483,-0.000332629,0.00173401,0.000691404,-0.00326886,1.03735,0.00244255,0.0197329,1882,1422,12.3478,-5.66715
665,-398,12.3434,5.45789,-0.00203105,-7.68038e-05,0.000699479,0.000147755,-0.00225561,1.26015,0.00155533,0.0141337,1889,1422,12.3434,-5.45793
672,-398,12.3591,5.2655,-0.00214236,-7.85003e-05,3.31132e-05,-7.79692e-05,-0.00214289,1.55476,0.00140333,0.0132277,1896,1422,12.3591,-5.26546
679,-398,12.3594,5.06458,-0.00231005,-0.000476636,-0.000347862,-0.000412853,-0.00237383,-1.38945,0.00146446,0.0120665,1903,1422,12.3594,-5.06454
686,-398,12.389,4.84998,-0.00249274,-0.00167504,-0.000689438,-0.00128234,-0.00288544,-1.05303,0.00166934,0.0178552,1910,1422,12.3891,-4.85004
693,-398,12.1954,4.7002,-0.0024547,-0.0036613,-0.00127976,-0.00164317,-0.00447283,-0.565138,0.0026125,0.046912,1917,1422,12.1955,-4.70018
700,-398,12.0237,4.51062,0,0,0,0,0,0,0,-1,1924,1422,12.0237,-4.51061
707,-398,10.9731,5.479,0,0,0,0,0,0,0,-1,1931,1422,10.9732,-5.47896
714,-398,11.7313,6.17346,0,0,0,0,0,0,0,-1,1938,1422,11.7313,-6.17348
721,-398,13.9371,8.05103,0,0,0,0,0,0,0,-1,1945,1422,13.9372,-8.05102
728,-398,14.786,7.0282,0,0,0,0,0,0,0,-1,1952,1422,14.786,-7.0282
735,-398,0,0,0,0,0,0,0,0,0,-1,1959,1422,0,0
742,-398,0,0,0,0,0,0,0,0,0,-1,1966,1422,0,0
749,-398,0,0,0,0,0,0,0,0,0,-1,1973,1422,0,0
756,-398,0,0,0,0,0,0,0,0,0,-1,1980,1422,0,0
763,-398,0,0,0,0,0,0,0,0,0,-1,1987,1422,0,0
770,-398,0,0,0,0,0,0,0,0,0,-1,1994,1422,0,0
777,-398,0,0,0,0,0,0,0,0,0,-1,2001,1422,0,0
784,-398,0,0,0,0,0,0,0,0,0,-1,2008,1422,0,0
791,-398,0,0,0,0,0,0,0,0,0,-1,2015,1422,0,0
798,-398,0,0,0,0,0,0,0,0,0,-1,2022,1422,0,0
805,-398,0,0,0,0,0,0,0,0,0,-1,2029,1422,0,0
812,-398,0,0,0,0,0,0,0,0,0,-1,2036,1422,0,0
-700,-405,0,0,0,0,0,0,0,0,0,-1,524,1429,0,0
-693,-405,0,0,0,0,0,0,0,0,0,-1,531,1429,0,0
-686,-405,0,0,0,0,0,0,0,0,0,-1,538,1429,0,0
-679,-405,0,0,0,0,0,0,0,0,0,-1,545,1429,0,0
-672,-405,0,0,0,0,0,0,0,0,0,-1,552,1429,0,0
-665,-405,0,0,0,0,0,0,0,0,0,-1,559,1429,0,0
-658,-405,0,0,0,0,0,0,0,0,0,-1,566,1429,0,0
-651,-405,0,0,0,0,0,0,0,0,0,-1,573,1429,0,0
-644,-405,0,0,0,0,0,0,0,0,0,-1,580,1429,0,0
-637,-405,0,0,0,0,0,0,0,0,0,-1,587,1429,0,0
-630,-405,0,0,0,0,0,0,0,0,0,-1,594,1429,0,0
-623,-405,0,0,0,0,0,0,0,0,0,-1,601,1429,0,0
-616,-405,0,0,0,0,0,0,0,0,0,-1,608,1429,0,0
-609,-405,0,0,0,0,0,0,0,0,0,-1,615,1429,0,0
-602,-405,-1.64905,-2.82837,0,0,0,0,0,0,0,-1,622,1429,-1.64907,2.82837
-595,-405,-2.86743,-2.33301,0,0,0,0,0,0,0,-1,629,1429,-2.86741,2.33295
-588,-405,-7.53772,2.56042,0,0,0,0,0,0,0,-1,636,1429,-7.53773,-2.56046
-581,-405,-6.60419,2.54785,0,0,0,0,0,0,0,-1,643,1429,-6.60418,-2.5479
-574,-405,-5.65741,2.48511,0,0,0,0,0,0,0,-1,650,1429,-5.65739,-2.48514
-567,-405,-3.7674,0.873901,0,0,0,0,0,0,0,-1,657,1429,-3.76739,-0.873918
-560,-405,-3.68848,2.63623,0,0,0,0,0,0,0,-1,664,1429,-3.68846,-2.63623
-553,-405,-3.85034,2.86743,0.0218123,0.00947205,0.0284163,0.0447206,-0.0134363,0.678491,0.035159,0.0426748,671,1429,-3.85036,-2.86745
-546,-405,-4.06378,3.05957,0.0125182,0.00601199,0.0186508,0.0281974,-0.00966727,0.699056,0.022717,0.021048,678,1429,-4.06377,-3.05952
-539,-405,-4.06268,3.31274,0.00914309,0.00470101,0.0123555,0.0194756,-0.00563153,0.696468,0.0152125,0.0117032,685,1429,-4.06268,-3.31274
-532,-405,-4.05518,3.53723,0.00633618,0.00324507,0.00775928,0.0127023,-0.00312108,0.687091,0.00967782,0.0155781,692,1429,-4.05517,-3.53728
-525,-405,-4.04712,3.79333,0.00397558,0.00170479,0.00437391,0.00735906,-0.00167869,0.658409,0.00555087,0.015119,699,1429,-4.04713,-3.79334
-518,-405,-4.02399,4.01697,0.00133139,-0.000297689,0.00131653,0.00206499,-0.00103129,0.508369,0.00182054,0.0153736,706,1429,-4.02396,-4.01692
-511,-405,-4.04462,4.21619,-0.00120193,-0.00228038,-0.000339466,-0.00110397,-0.00237834,-0.28093,0.00137431,0.0143381,713,1429,-4.04462,-4.21624
-504,-405,-4.04449,4.41785,-0.00352452,-0.00480309,-0.00105544,-0.00292985,-0.00539776,-0.513097,0.0031202,0.0154609,720,1429,-4.04452,-4.41779
-497,-405,-4.04169,4.66821,-0.00581654,-0.00811961,-0.00204722,-0.00461921,-0.00931694,-0.529209,0.0053792,0.0131656,727,1429,-4.04168,-4.66822
-490,-405,-4.05188,4.8999,-0.00809655,-0.0125604,-0.00318087,-0.00644269,-0.0142143,-0.479472,0.00821858,0.0118143,734,1429,-4.05189,-4.89987
-483,-405,-4.03137,5.10962,-0.010811,-0.0175646,-0.00428745,-0.00873022,-0.0196453,-0.451831,0.0113656,0.0113268,741,1429,-4.03138,-5.10964
-476,-405,-3.90491,5.13196,0,0,0,0,0,0,0,-1,748,1429,-3.9049,-5.13198
-469,-405,-4.35083,5.68176,-0.0168216,-0.0321021,-0.00749703,-0.0137577,-0.035166,-0.387969,0.0204626,0.0426257,755,1429,-4.35082,-5.68172
-462,-405,-5.03381,6.45459,-0.0248329,-0.0416589,-0.0111237,-0.0192991,-0.0471927,-0.461634,0.0273969,0.0461273,762,1429,-5.03384,-6.45464
-455,-405,-6.08032,6.98877,0,0,0,0,0,0,0,-1,769,1429,-6.08033,-6.98873
-448,-405,-7.30542,7.39075,0,0,0,0,0,0,0,-1,776,1429,-7.30541,-7.39072
-441,-405,-3.55841,2.85327,0,0,0,0,0,0,0,-1,783,1429,-3.55841,-2.85331
-434,-405,-1.48053,1.55676,0,0,0,0,0,0,0,-1,790,1429,-1.48053,-1.55682
-427,-405,-2.31445,4.56921,0,0,0,0,0,0,0,-1,797,1429,-2.31443,-4.56921
-420,-405,-10.4515,1.54517,0,0,0,0,0,0,0,-1,804,1429,-10.4515,-1.54513
-413,-405,-6.12042,2.71118,0,0,0,0,0,0,0,-1,811,1429,-6.1204,-2.71123
-406,-405,-7.57202,1.12476,0,0,0,0,0,0,0,-1,818,1429,-7.572,-1.12474
-399,-405,0,0,0,0,0,0,0,0,0,-1,825,1429,0,0
-392,-405,0,0,0,0,0,0,0,0,0,-1,832,1429,0,0
-385,-405,0,0,0,0,0,0,0,0,0,-1,839,1429,0,0
-378,-405,0,0,0,0,0,0,0,0,0,-1,846,1429,0,0
-371,-405,0,0,0,0,0,0,0,0,0,-1,853,1429,0,0
-364,-405,0,0,0,0,0,0,0,0,0,-1,860,1429,0,0
-357,-405,0,0,0,0,0,0,0,0,0,-1,867,1429,0,0
-350,-405,0,0,0,0,0,0,0,0,0,-1,874,1429,0,0
-343,-405,0,0,0,0,0,0,0,0,0,-1,881,1429,0,0
-336,-405,0,0,0,0,0,0,0,0,0,-1,888,1429,0,0
-329,-405,0,0,0,0,0,0,0,0,0,-1,895,1429,0,0
-322,-405,0,0,0,0,0,0,0,0,0,-1,902,1429,0,0
-315,-405,0,0,0,0,0,0,0,0,0,-1,909,1429,0,0
-308,-405,0,0,0,0,0,0,0,0,0,-1,916,1429,0,0
-301,-405,0,0,0,0,0,0,0,0,0,-1,923,1429,0,0
-294,-405,0,0,0,0,0,0,0,0,0,-1,930,1429,0,0
-287,-405,0,0,0,0,0,0,0,0,0,-1,937,1429,0,0
-280,-405,0,0,0,0,0,0,0,0,0,-1,944,1429,0,0
-273,-405,0,0,0,0,0,0,0,0,0,-1,951,1429,0,0
-266,-405,0,0,0,0,0,0,0,0,0,-1,958,1429,0,0
-259,-405,0,0,0,0,0,0,0,0,0,-1,965,1429,0,0
-252,-405,0,0,0,0,0,0,0,0,0,-1,972,1429,0,0
-245,-405,0,0,0,0,0,0,0,0,0,-1,979,1429,0,0
-238,-405,0,0,0,0,0,0,0,0,0,-1,986,1429,0,0
-231,-405,0,0,0,0,0,0,0,0,0,-1,993,1429,0,0
-224,-405,0,0,0,0,0,0,0,0,0,-1,1000,1429,0,0
-217,-405,0,0,0,0,0,0,0,0,0,-1,1007,1429,0,0
-210,-405,0,0,0,0,0,0,0,0,0,-1,1014,1429,0,0
-203,-405,0,0,0,0,0,0,0,0,0,-1,1021,1429,0,0
-196,-405,0,0,0,0,0,0,0,0,0,-1,1028,1429,0,0
-189,-405,0,0,0,0,0,0,0,0,0,-1,1035,1429,0,0
-182,-405,0,0,0,0,0,0,0,0,0,-1,1042,1429,0,0
-175,-405,0,0,0,0,0,0,0,0,0,-1,1049,1429,0,0
-168,-405,0,0,0,0,0,0,0,0,0,-1,1056,1429,0,0
-161,-405,0,0,0,0,0,0,0,0,0,-1,1063,1429,0,0
-154,-405,0,0,0,0,0,0,0,0,0,-1,1070,1429,0,0
-147,-405,0,0,0,0,0,0,0,0,0,-1,1077,1429,0,0
-140,-405,0,0,0,0,0,0,0,0,0,-1,1084,1429,0,0
-133,-405,0,0,0,0,0,0,0,0,0,-1,1091,1429,0,0
-126,-405,0,0,0,0,0,0,0,0,0,-1,1098,1429,0,0
-119,-405,0,0,0,0,0,0,0,0,0,-1,1105,1429,0,0
-112,-405,0,0,0,0,0,0,0,0,0,-1,1112,1429,0,0
-105,-405,0,0,0,0,0,0,0,0,0,-1,1119,1429,0,0
-98,-405,0,0,0,0,0,0,0,0,0,-1,1126,1429,0,0
-91,-405,0,0,0,0,0,0,0,0,0,-1,1133,1429,0,0
-84,-405,0,0,0,0,0,0,0,0,0,-1,1140,1429,0,0
-77,-405,0,0,0,0,0,0,0,0,0,-1,1147,1429,0,0
-70,-405,0,0,0,0,0,0,0,0,0,-1,1154,1429,0,0
-63,-405,0,0,0,0,0,0,0,0,0,-1,1161,1429,0,0
-56,-405,0,0,0,0,0,0,0,0,0,-1,1168,1429,0,0
-49,-405,0,0,0,0,0,0,0,0,0,-1,1175,1429,0,0
-42,-405,0,0,0,0,0,0,0,0,0,-1,1182,1429,0,0
-35,-405,0,0,0,0,0,0,0,0,0,-1,1189,1429,0,0
-28,-405,0,0,0,0,0,0,0,0,0,-1,1196,1429,0,0
-21,-405,0,0,0,0,0,0,0,0,0,-1,1203,1429,0,0
-14,-405,0,0,0,0,0,0,0,0,0,-1,1210,1429,0,0
-7,-405,0,0,0,0,0,0,0,0,0,-1,1217,1429,0,0
0,-405,0,0,0,0,0,0,0,0,0,-1,1224,1429,0,0
7,-405,0,0,0,0,0,0,0,0,0,-1,1231,1429,0,0
14,-405,0,0,0,0,0,0,0,0,0,-1,1238,1429,0,0
21,-405,0,0,0,0,0,0,0,0,0,-1,1245,1429,0,0
28,-405,0,0,0,0,0,0,0,0,0,-1,1252,1429,0,0
35,-405,0,0,0,0,0,0,0,0,0,-1,1259,1429,0,0
42,-405,0,0,0,0,0,0,0,0,0,-1,1266,1429,0,0
49,-405,0,0,0,0,0,0,0,0,0,-1,1273,1429,0,0
56,-405,0,0,0,0,0,0,0,0,0,-1,1280,1429,0,0
63,-405,0,0,0,0,0,0,0,0,0,-1,1287,1429,0,0
70,-405,0,0,0,0,0,0,0,0,0,-1,1294,1429,0,0
77,-405,0,0,0,0,0,0,0,0,0,-1,1301,1429,0,0
84,-405,0,0,0,0,0,0,0,0,0,-1,1308,1429,0,0
91,-405,0,0,0,0,0,0,0,0,0,-1,1315,1429,0,0
98,-405,0,0,0,0,0,0,0,0,0,-1,1322,1429,0,0
105,-405,0,0,0,0,0,0,0,0,0,-1,1329,1429,0,0
112,-405,0,0,0,0,0,0,0,0,0,-1,1336,1429,0,0
119,-405,0,0,0,0,0,0,0,0,0,-1,1343,1429,0,0
126,-405,0,0,0,0,0,0,0,0,0,-1,1350,1429,0,0
133,-405,0,0,0,0,0,0,0,0,0,-1,1357,1429,0,0
140,-405,0,0,0,0,0,0,0,0,0,-1,1364,1429,0,0
147,-405,0,0,0,0,0,0,0,0,0,-1,1371,1429,0,0
154,-405,0,0,0,0,0,0,0,0,0,-1,1378,1429,0,0
161,-405,0,0,0,0,0,0,0,0,0,-1,1385,1429,0,0
168,-405,0,0,0,0,0,0,0,0,0,-1,1392,1429,0,0
175,-405,0,0,0,0,0,0,0,0,0,-1,1399,1429,0,0
182,-405,0,0,0,0,0,0,0,0,0,-1,1406,1429,0,0
189,-405,0,0,0,0,0,0,0,0,0,-1,1413,1429,0,0
196,-405,0,0,0,0,0,0,0,0,0,-1,1420,1429,0,0
203,-405,0,0,0,0,0,0,0,0,0,-1,1427,1429,0,0
210,-405,0,0,0,0,0,0,0,0,0,-1,1434,1429,0,0
217,-405,0,0,0,0,0,0,0,0,0,-1,1441,1429,0,0
224,-405,0,0,0,0,0,0,0,0,0,-1,1448,1429,0,0
231,-405,0,0,0,0,0,0,0,0,0,-1,1455,1429,0,0
238,-405,0,0,0,0,0,0,0,0,0,-1,1462,1429,0,0
245,-405,0,0,0,0,0,0,0,0,0,-1,1469,1429,0,0
252,-405,0,0,0,0,0,0,0,0,0,-1,1476,1429,0,0
259,-405,0,0,0,0,0,0,0,0,0,-1,1483,1429,0,0
266,-405,0,0,0,0,0,0,0,0,0,-1,1490,1429,0,0
273,-405,0,0,0,0,0,0,0,0,0,-1,1497,1429,0,0
280,-405,0,0,0,0,0,0,0,0,0,-1,1504,1429,0,0
287,-405,0,0,0,0,0,0,0,0,0,-1,1511,1429,0,0
294,-405,0,0,0,0,0,0,0,0,0,-1,1518,1429,0,0
301,-405,0,0,0,0,0,0,0,0,0,-1,1525,1429,0,0
308,-405,0,0,0,0,0,0,0,0,0,-1,1532,1429,0,0
315,-405,0,0,0,0,0,0,0,0,0,-1,1539,1429,0,0
322,-405,0,0,0,0,0,0,0,0,0,-1,1546,1429,0,0
329,-405,0,0,0,0,0,0,0,0,0,-1,1553,1429,0,0
336,-405,0,0,0,0,0,0,0,0,0,-1,1560,1429,0,0
343,-405,0,0,0,0,0,0,0,0,0,-1,1567,1429,0,0
350,-405,0,0,0,0,0,0,0,0,0,-1,1574,1429,0,0
357,-405,0,0,0,0,0,0,0,0,0,-1,1581,1429,0,0
364,-405,0,0,0,0,0,0,0,0,0,-1,1588,1429,0,0
371,-405,0,0,0,0,0,0,0,0,0,-1,1595,1429,0,0
378,-405,0,0,0,0,0,0,0,0,0,-1,1602,1429,0,0
385,-405,0,0,0,0,0,0,0,0,0,-1,1609,1429,0,0
392,-405,0,0,0,0,0,0,0,0,0,-1,1616,1429,0,0
399,-405,0,0,0,0,0,0,0,0,0,-1,1623,1429,0,0
406,-405,0,0,0,0,0,0,0,0,0,-1,1630,1429,0,0
413,-405,0,0,0,0,0,0,0,0,0,-1,1637,1429,0,0
420,-405,0,0,0,0,0,0,0,0,0,-1,1644,1429,0,0
427,-405,0,0,0,0,0,0,0,0,0,-1,1651,1429,0,0
434,-405,0,0,0,0,0,0,0,0,0,-1,1658,1429,0,0
441,-405,0,0,0,0,0,0,0,0,0,-1,1665,1429,0,0
448,-405,0,0,0,0,0,0,0,0,0,-1,1672,1429,0,0
455,-405,0,0,0,0,0,0,0,0,0,-1,1679,1429,0,0
462,-405,0,0,0,0,0,0,0,0,0,-1,1686,1429,0,0
469,-405,0,0,0,0,0,0,0,0,0,-1,1693,1429,0,0
476,-405,0,0,0,0,0,0,0,0,0,-1,1700,1429,0,0
483,-405,0,0,0,0,0,0,0,0,0,-1,1707,1429,0,0
490,-405,0,0,0,0,0,0,0,0,0,-1,1714,1429,0,0
497,-405,0,0,0,0,0,0,0,0,0,-1,1721,1429,0,0
504,-405,0,0,0,0,0,0,0,0,0,-1,1728,1429,0,0
511,-405,0,0,0,0,0,0,0,0,0,-1,1735,1429,0,0
518,-405,0,0,0,0,0,0,0,0,0,-1,1742,1429,0,0
525,-405,14.6423,1.7583,0,0,0,0,0,0,0,-1,1749,1429,14.6424,-1.75824
532,-405,22.2837,-0.614502,0,0,0,0,0,0,0,-1,1756,1429,22.2837,0.614557
539,-405,19.0604,0.631226,0,0,0,0,0,0,0,-1,1763,1429,19.0604,-0.63122
546,-405,18.832,1.52002,0,0,0,0,0,0,0,-1,1770,1429,18.8321,-1.52002
553,-405,18.4926,2.45862,0,0,0,0,0,0,0,-1,1777,1429,18.4926,-2.4586
560,-405,17.8329,3.33801,0,0,0,0,0,0,0,-1,1784,1429,17.8329,-3.33797
567,-405,16.9742,3.86096,0,0,0,0,0,0,0,-1,1791,1429,16.9742,-3.86096
574,-405,16.1122,4.47266,0,0,0,0,0,0,0,-1,1798,1429,16.1122,-4.47265
581,-405,15.2948,5.19775,0,0,0,0,0,0,0,-1,1805,1429,15.2949,-5.19772
588,-405,14.1167,5.776,0,0,0,0,0,0,0,-1,1812,1429,14.1167,-5.776
595,-405,13.3734,6.87329,0,0,0,0,0,0,0,-1,1819,1429,13.3734,-6.8733
602,-405,12.7789,6.9043,0,0,0,0,0,0,0,-1,1826,1429,12.7789,-6.90426
609,-405,12.1843,6.93518,0,0,0,0,0,0,0,-1,1833,1429,12.1844,-6.93522
616,-405,12.1541,6.82288,-0.0129608,-0.0101553,0.0126808,0.00120012,-0.0243162,0.840484,0.0166253,0.0092401,1840,1429,12.154,-6.82287
623,-405,12.1323,6.63428,-0.00909669,-0.00726754,0.00931373,0.00117642,-0.0175406,0.834339,0.012105,0.00883098,1847,1429,12.1324,-6.63428
630,-405,12.14,6.43054,-0.00632082,-0.00503025,0.00648273,0.000839228,-0.0121903,0.835005,0.00842056,0.0101294,1854,1429,12.14,-6.43051
637,-405,12.1521,6.24414,-0.0043753,-0.00315806,0.00425093,0.000527599,-0.00806096,0.856502,0.00555819,0.0109882,1861,1429,12.1521,-6.24413
644,-405,12.1035,6.04211,-0.00307002,-0.00182594,0.00259039,0.000216048,-0.005112,0.903234,0.00348225,0.0277274,1868,1429,12.1035,-6.04208
651,-405,12.0348,5.87842,-0.00209945,-0.000774442,0.00124376,-2.77386e-05,-0.00284615,1.03011,0.00188825,0.0281502,1875,1429,12.0348,-5.87846
658,-405,12.1017,5.66089,-0.00174987,-0.000207597,0.000334103,-0.000138332,-0.00181914,1.36637,0.00116938,0.0213743,1882,1429,12.1017,-5.66086
665,-405,12.1451,5.44824,-0.00161532,-2.67736e-05,-0.00058366,0.000164615,-0.00180671,-1.25393,0.00126292,0.018544,1889,1429,12.1452,-5.44825
672,-405,12.1511,5.25146,-0.0019086,-0.00019371,-0.0010741,0.000323214,-0.00242552,-1.12225,0.00173482,0.0234622,1896,1429,12.1511,-5.25147
679,-405,12.1714,5.01282,-0.00228655,-0.000780811,-0.00139058,4.76276e-05,-0.00311498,-1.03351,0.00209271,0.0216063,1903,1429,12.1713,-5.01277
686,-405,11.9674,4.9115,0,0,0,0,0,0,0,-1,1910,1429,11.9674,-4.91144
693,-405,11.9519,4.76318,0,0,0,0,0,0,0,-1,1917,1429,11.9519,-4.76319
700,-405,9.1958,4.02026,0,0,0,0,0,0,0,-1,1924,1429,9.19579,-4.02025
707,-405,7.40308,3.83191,0,0,0,0,0,0,0,-1,1931,1429,7.40311,-3.83194
714,-405,7.33252,3.47388,0,0,0,0,0,0,0,-1,1938,1429,7.33255,-3.47383
721,-405,9.23523,0.993896,0,0,0,0,0,0,0,-1,1945,1429,9.23523,-0.993884
728,-405,0,0,0,0,0,0,0,0,0,-1,1952,1429,0,0
735,-405,0,0,0,0,0,0,0,0,0,-1,1959,1429,0,0
742,-405,0,0,0,0,0,0,0,0,0,-1,1966,1429,0,0
749,-405,0,0,0,0,0,0,0,0,0,-1,1973,1429,0,0
756,-405,0,0,0,0,0,0,0,0,0,-1,1980,1429,0,0
763,-405,0,0,0,0,0,0,0,0,0,-1,1987,1429,0,0
770,-405,0,0,0,0,0,0,0,0,0,-1,1994,1429,0,0
777,-405,0,0,0,0,0,0,0,0,0,-1,2001,1429,0,0
784,-405,0,0,0,0,0,0,0,0,0,-1,2008,1429,0,0
791,-405,0,0,0,0,0,0,0,0,0,-1,2015,1429,0,0
798,-405,0,0,0,0,0,0,0,0,0,-1,2022,1429,0,0
805,-405,0,0,0,0,0,0,0,0,0,-1,2029,1429,0,0
812,-405,0,0,0,0,0,0,0,0,0,-1,2036,1429,0,0
-700,-412,0,0,0,0,0,0,0,0,0,-1,524,1436,0,0
-693,-412,0,0,0,0,0,0,0,0,0,-1,531,1436,0,0
-686,-412,0,0,0,0,0,0,0,0,0,-1,538,1436,0,0
-679,-412,0,0,0,0,0,0,0,0,0,-1,545,1436,0,0
-672,-412,0,0,0,0,0,0,0,0,0,-1,552,1436,0,0
-665,-412,0,0,0,0,0,0,0,0,0,-1,559,1436,0,0
-658,-412,0,0,0,0,0,0,0,0,0,-1,566,1436,0,0
-651,-412,0,0,0,0,0,0,0,0,0,-1,573,1436,0,0
-644,-412,0,0,0,0,0,0,0,0,0,-1,580,1436,0,0
-637,-412,0,0,0,0,0,0,0,0,0,-1,587,1436,0,0
-630,-412,0,0,0,0,0,0,0,0,0,-1,594,1436,0,0
-623,-412,0,0,0,0,0,0,0,0,0,-1,601,1436,0,0
-616,-412,0,0,0,0,0,0,0,0,0,-1,608,1436,0,0
-609,-412,0,0,0,0,0,0,0,0,0,-1,615,1436,0,0
-602,-412,-3.72766,-3.50012,0,0,0,0,0,0,0,-1,622,1436,-3.72764,3.50017
-595,-412,-3.48932,-2.58386,0,0,0,0,0,0,0,-1,629,1436,-3.48931,2.58391
-588,-412,-3.70703,-2.11816,0,0,0,0,0,0,0,-1,636,1436,-3.70702,2.11822
-581,-412,-7.06207,2.19458,0,0,0,0,0,0,0,-1,643,1436,-7.06205,-2.19461
-574,-412,-5.83325,2.24939,0,0,0,0,0,0,0,-1,650,1436,-5.83324,-2.24943
-567,-412,-3.57568,1.44226,0,0,0,0,0,0,0,-1,657,1436,-3.57566,-1.44225
-560,-412,-3.41315,1.99866,0,0,0,0,0,0,0,-1,664,1436,-3.41312,-1.99864
-553,-412,-3.45667,2.76025,0.0289178,0.014084,0.0390321,0.0612315,-0.0182297,0.691507,0.0480641,0.0405205,671,1436,-3.45668,-2.76024
-546,-412,-3.67194,3.16162,0.0186542,0.0101504,0.0267561,0.0414942,-0.0126896,0.7066,0.0327233,0.0323396,678,1436,-3.67196,-3.16165
-539,-412,-3.81708,3.26111,0.0138049,0.00810333,0.0181457,0.0293224,-0.00741417,0.707482,0.0224319,0.0156679,685,1436,-3.81707,-3.26112
-532,-412,-3.83313,3.52539,0.00981826,0.00604098,0.0118437,0.019923,-0.00406377,0.706332,0.0148234,0.0134815,692,1436,-3.83311,-3.52537
-525,-412,-3.84052,3.77112,0.00655512,0.00401668,0.00725091,0.0126471,-0.00207525,0.698755,0.00920146,0.0148168,699,1436,-3.84051,-3.77117
-518,-412,-3.81323,4.02197,0.00331146,0.00179425,0.00313567,0.00577899,-0.000673275,0.666714,0.00409557,0.0161336,706,1436,-3.81321,-4.02197
-511,-412,-3.81262,4.23328,0.000467702,-0.000228406,0.000804506,0.000996216,-0.00075692,0.58124,0.00101531,0.0183462,713,1436,-3.81262,-4.23324
-504,-412,-3.82831,4.4314,-0.00189632,-0.00262466,-2.00839e-05,-0.00189577,-0.00262521,-0.0275471,0.00156473,0.0179424,720,1436,-3.82829,-4.43136
-497,-412,-3.823,4.67456,-0.00405507,-0.00568214,-0.00110835,-0.00349373,-0.00624347,-0.468805,0.00361319,0.013979,727,1436,-3.82298,-4.67455
-490,-412,-3.82477,4.90198,-0.0059094,-0.00963654,-0.00224191,-0.00485766,-0.0106883,-0.438646,0.0061794,0.0122878,734,1436,-3.82474,-4.90195
-483,-412,-3.83551,5.11182,-0.00789124,-0.0138757,-0.00330526,-0.00642497,-0.015342,-0.417532,0.00889656,0.00859265,741,1436,-3.83551,-5.11181
-476,-412,-3.7572,5.37561,-0.00985434,-0.0192188,-0.00454274,-0.00801279,-0.0210604,-0.385138,0.0122745,0.0156092,748,1436,-3.75718,-5.37559
-469,-412,-4.28943,5.61902,0,0,0,0,0,0,0,-1,755,1436,-4.28941,-5.61903
-462,-412,-4.55939,6.26074,0,0,0,0,0,0,0,-1,762,1436,-4.55941,-6.26072
-455,-412,-5.66125,7.34412,0,0,0,0,0,0,0,-1,769,1436,-5.66128,-7.34416
-448,-412,-4.07416,4.92761,0,0,0,0,0,0,0,-1,776,1436,-4.07419,-4.92762
-441,-412,-4.5271,4.65259,0,0,0,0,0,0,0,-1,783,1436,-4.52709,-4.65262
-434,-412,-3.72675,2.96179,0,0,0,0,0,0,0,-1,790,1436,-3.72672,-2.96178
-427,-412,-5.81885,4.82593,0,0,0,0,0,0,0,-1,797,1436,-5.81887,-4.8259
-420,-412,-6.65302,4.95691,0,0,0,0,0,0,0,-1,804,1436,-6.65301,-4.95687
-413,-412,-7.01581,3.23193,0,0,0,0,0,0,0,-1,811,1436,-7.0158,-3.2319
-406,-412,-8.48059,1.67529,-0.170944,-0.0814294,-0.0559946,-0.0545026,-0.197871,-1.12256,0.118019,0.0453397,818,1436,-8.48056,-1.67531
-399,-412,-10.0757,0.442261,-0.19305,-0.0856369,-0.0555736,-0.0620594,-0.216627,-1.16956,0.128815,0.0420847,825,1436,-10.0758,-0.442237
-392,-412,0,0,0,0,0,0,0,0,0,-1,832,1436,0,0
-385,-412,0,0,0,0,0,0,0,0,0,-1,839,1436,0,0
-378,-412,0,0,0,0,0,0,0,0,0,-1,846,1436,0,0
-371,-412,0,0,0,0,0,0,0,0,0,-1,853,1436,0,0
-364,-412,0,0,0,0,0,0,0,0,0,-1,860,1436,0,0
-357,-412,0,0,0,0,0,0,0,0,0,-1,867,1436,0,0
-350,-412,0,0,0,0,0,0,0,0,0,-1,874,1436,0,0
-343,-412,0,0,0,0,0,0,0,0,0,-1,881,1436,0,0
-336,-412,0,0,0,0,0,0,0,0,0,-1,888,1436,0,0
-329,-412,0,0,0,0,0,0,0,0,0,-1,895,1436,0,0
-322,-412,0,0,0,0,0,0,0,0,0,-1,902,1436,0,0
-315,-412,0,0,0,0,0,0,0,0,0,-1,909,1436,0,0
-308,-412,0,0,0,0,0,0,0,0,0,-1,916,1436,0,0
-301,-412,0,0,0,0,0,0,0,0,0,-1,923,1436,0,0
-294,-412,0,0,0,0,0,0,0,0,0,-1,930,1436,0,0
-287,-412,0,0,0,0,0,0,0,0,0,-1,937,1436,0,0
-280,-412,0,0,0,0,0,0,0,0,0,-1,944,1436,0,0
-273,-412,0,0,0,0,0,0,0,0,0,-1,951,1436,0,0
-266,-412,0,0,0,0,0,0,0,0,0,-1,958,1436,0,0
-259,-412,0,0,0,0,0,0,0,0,0,-1,965,1436,0,0
-252,-412,0,0,0,0,0,0,0,0,0,-1,972,1436,0,0
-245,-412,0,0,0,0,0,0,0,0,0,-1,979,1436,0,0
-238,-412,0,0,0,0,0,0,0,0,0,-1,986,1436,0,0
-231,-412,0,0,0,0,0,0,0,0,0,-1,993,1436,0,0
-224,-412,0,0,0,0,0,0,0,0,0,-1,1000,1436,0,0
-217,-412,0,0,0,0,0,0,0,0,0,-1,1007,1436,0,0
-210,-412,0,0,0,0,0,0,0,0,0,-1,1014,1436,0,0
-203,-412,0,0,0,0,0,0,0,0,0,-1,1021,1436,0,0
-196,-412,0,0,0,0,0,0,0,0,0,-1,1028,1436,0,0
-189,-412,0,0,0,0,0,0,0,0,0,-1,1035,1436,0,0
-182,-412,0,0,0,0,0,0,0,0,0,-1,1042,1436,0,0
-175,-412,0,0,0,0,0,0,0,0,0,-1,1049,1436,0,0
-168,-412,0,0,0,0,0,0,0,0,0,-1,1056,1436,0,0
-161,-412,0,0,0,0,0,0,0,0,0,-1,1063,1436,0,0
-154,-412,0,0,0,0,0,0,0,0,0,-1,1070,1436,0,0
-147,-412,0,0,0,0,0,0,0,0,0,-1,1077,1436,0,0
-140,-412,0,0,0,0,0,0,0,0,0,-1,1084,1436,0,0
-133,-412,0,0,0,0,0,0,0,0,0,-1,1091,1436,0,0
-126,-412,0,0,0,0,0,0,0,0,0,-1,1098,1436,0,0
-119,-412,0,0,0,0,0,0,0,0,0,-1,1105,1436,0,0
-112,-412,0,0,0,0,0,0,0,0,0,-1,1112,1436,0,0
-105,-412,0,0,0,0,0,0,0,0,0,-1,1119,1436,0,0
-98,-412,0,0,0,0,0,0,0,0,0,-1,1126,1436,0,0
-91,-412,0,0,0,0,0,0,0,0,0,-1,1133,1436,0,0
-84,-412,0,0,0,0,0,0,0,0,0,-1,1140,1436,0,0
-77,-412,0,0,0,0,0,0,0,0,0,-1,1147,1436,0,0
-70,-412,0,0,0,0,0,0,0,0,0,-1,1154,1436,0,0
-63,-412,0,0,0,0,0,0,0,0,0,-1,1161,1436,0,0
-56,-412,0,0,0,0,0,0,0,0,0,-1,1168,1436,0,0
-49,-412,0,0,0,0,0,0,0,0,0,-1,1175,1436,0,0
-42,-412,0,0,0,0,0,0,0,0,0,-1,1182,1436,0,0
-35,-412,0,0,0,0,0,0,0,0,0,-1,1189,1436,0,0
-28,-412,0,0,0,0,0,0,0,0,0,-1,1196,1436,0,0
-21,-412,0,0,0,0,0,0,0,0,0,-1,1203,1436,0,0
-14,-412,0,0,0,0,0,0,0,0,0,-1,1210,1436,0,0
-7,-412,0,0,0,0,0,0,0,0,0,-1,1217,1436,0,0
0,-412,0,0,0,0,0,0,0,0,0,-1,1224,1436,0,0
7,-412,0,0,0,0,0,0,0,0,0,-1,1231,1436,0,0
14,-412,0,0,0,0,0,0,0,0,0,-1,1238,1436,0,0
21,-412,0,0,0,0,0,0,0,0,0,-1,1245,1436,0,0
28,-412,0,0,0,0,0,0,0,0,0,-1,1252,1436,0,0
35,-412,0,0,0,0,0,0,0,0,0,-1,1259,1436,0,0
42,-412,0,0,0,0,0,0,0,0,0,-1,1266,1436,0,0
49,-412,0,0,0,0,0,0,0,0,0,-1,1273,1436,0,0
56,-412,0,0,0,0,0,0,0,0,0,-1,1280,1436,0,0
63,-412,0,0,0,0,0,0,0,0,0,-1,1287,1436,0,0
70,-412,0,0,0,0,0,0,0,0,0,-1,1294,1436,0,0
77,-412,0,0,0,0,0,0,0,0,0,-1,1301,1436,0,0
84,-412,0,0,0,0,0,0,0,0,0,-1,1308,1436,0,0
91,-412,0,0,0,0,0,0,0,0,0,-1,1315,1436,0,0
98,-412,0,0,0,0,0,0,0,0,0,-1,1322,1436,0,0
105,-412,0,0,0,0,0,0,0,0,0,-1,1329,1436,0,0
112,-412,0,0,0,0,0,0,0,0,0,-1,1336,1436,0,0
119,-412,0,0,0,0,0,0,0,0,0,-1,1343,1436,0,0
126,-412,0,0,0,0,0,0,0,0,0,-1,1350,1436,0,0
133,-412,0,0,0,0,0,0,0,0,0,-1,1357,1436,0,0
140,-412,0,0,0,0,0,0,0,0,0,-1,1364,1436,0,0
147,-412,0,0,0,0,0,0,0,0,0,-1,1371,1436,0,0
154,-412,0,0,0,0,0,0,0,0,0,-1,1378,1436,0,0
161,-412,0,0,0,0,0,0,0,0,0,-1,1385,1436,0,0
168,-412,0,0,0,0,0,0,0,0,0,-1,1392,1436,0,0
175,-412,0,0,0,0,0,0,0,0,0,-1,1399,1436,0,0
182,-412,0,0,0,0,0,0,0,0,0,-1,1406,1436,0,0
189,-412,0,0,0,0,0,0,0,0,0,-1,1413,1436,0,0
196,-412,0,0,0,0,0,0,0,0,0,-1,1420,1436,0,0
203,-412,0,0,0,0,0,0,0,0,0,-1,1427,1436,0,0
210,-412,0,0,0,0,0,0,0,0,0,-1,1434,1436,0,0
217,-412,0,0,0,0,0,0,0,0,0,-1,1441,1436,0,0
224,-412,0,0,0,0,0,0,0,0,0,-1,1448,1436,0,0
231,-412,0,0,0,0,0,0,0,0,0,-1,1455,1436,0,0
238,-412,0,0,0,0,0,0,0,0,0,-1,1462,1436,0,0
245,-412,0,0,0,0,0,0,0,0,0,-1,1469,1436,0,0
252,-412,0,0,0,0,0,0,0,0,0,-1,1476,1436,0,0
259,-412,0,0,0,0,0,0,0,0,0,-1,1483,1436,0,0
266,-412,0,0,0,0,0,0,0,0,0,-1,1490,1436,0,0
273,-412,0,0,0,0,0,0,0,0,0,-1,1497,1436,0,0
280,-412,0,0,0,0,0,0,0,0,0,-1,1504,1436,0,0
287,-412,0,0,0,0,0,0,0,0,0,-1,1511,1436,0,0
294,-412,0,0,0,0,0,0,0,0,0,-1,1518,1436,0,0
301,-412,0,0,0,0,0,0,0,0,0,-1,1525,1436,0,0
308,-412,0,0,0,0,0,0,0,0,0,-1,1532,1436,0,0
315,-412,0,0,0,0,0,0,0,0,0,-1,1539,1436,0,0
322,-412,0,0,0,0,0,0,0,0,0,-1,1546,1436,0,0
329,-412,0,0,0,0,0,0,0,0,0,-1,1553,1436,0,0
336,-412,0,0,0,0,0,0,0,0,0,-1,1560,1436,0,0
343,-412,0,0,0,0,0,0,0,0,0,-1,1567,1436,0,0
350,-412,0,0,0,0,0,0,0,0,0,-1,1574,1436,0,0
357,-412,0,0,0,0,0,0,0,0,0,-1,1581,1436,0,0
364,-412,0,0,0,0,0,0,0,0,0,-1,1588,1436,0,0
371,-412,0,0,0,0,0,0,0,0,0,-1,1595,1436,0,0
378,-412,0,0,0,0,0,0,0,0,0,-1,1602,1436,0,0
385,-412,0,0,0,0,0,0,0,0,0,-1,1609,1436,0,0
392,-412,0,0,0,0,0,0,0,0,0,-1,1616,1436,0,0
399,-412,0,0,0,0,0,0,0,0,0,-1,1623,1436,0,0
406,-412,0,0,0,0,0,0,0,0,0,-1,1630,1436,0,0
413,-412,0,0,0,0,0,0,0,0,0,-1,1637,1436,0,0
420,-412,0,0,0,0,0,0,0,0,0,-1,1644,1436,0,0
427,-412,0,0,0,0,0,0,0,0,0,-1,1651,1436,0,0
434,-412,0,0,0,0,0,0,0,0,0,-1,1658,1436,0,0
441,-412,0,0,0,0,0,0,0,0,0,-1,1665,1436,0,0
448,-412,0,0,0,0,0,0,0,0,0,-1,1672,1436,0,0
455,-412,0,0,0,0,0,0,0,0,0,-1,1679,1436,0,0
462,-412,0,0,0,0,0,0,0,0,0,-1,1686,1436,0,0
469,-412,0,0,0,0,0,0,0,0,0,-1,1693,1436,0,0
476,-412,0,0,0,0,0,0,0,0,0,-1,1700,1436,0,0
483,-412,0,0,0,0,0,0,0,0,0,-1,1707,1436,0,0
490,-412,0,0,0,0,0,0,0,0,0,-1,1714,1436,0,0
497,-412,0,0,0,0,0,0,0,0,0,-1,1721,1436,0,0
504,-412,0,0,0,0,0,0,0,0,0,-1,1728,1436,0,0
511,-412,0,0,0,0,0,0,0,0,0,-1,1735,1436,0,0
518,-412,13.5378,1.3866,0,0,0,0,0,0,0,-1,1742,1436,13.5379,-1.38663
525,-412,21.3763,1.9895,0,0,0,0,0,0,0,-1,1749,1436,21.3764,-1.9895
532,-412,20.3549,2.20044,0,0,0,0,0,0,0,-1,1756,1436,20.3548,-2.20044
539,-412,19.1587,2.40259,0,0,0,0,0,0,0,-1,1763,1436,19.1587,-2.40258
546,-412,18.0005,1.98535,0,0,0,0,0,0,0,-1,1770,1436,18.0005,-1.98536
553,-412,17.3242,2.88635,0,0,0,0,0,0,0,-1,1777,1436,17.3243,-2.88641
560,-412,16.6949,3.95862,0,0,0,0,0,0,0,-1,1784,1436,16.6949,-3.95866
567,-412,16.3463,4.63818,0,0,0,0,0,0,0,-1,1791,1436,16.3463,-4.63817
574,-412,14.9098,5.08008,0,0,0,0,0,0,0,-1,1798,1436,14.9098,-5.08004
581,-412,14.1036,5.77563,0,0,0,0,0,0,0,-1,1805,1436,14.1037,-5.77563
588,-412,13.4174,6.85706,0,0,0,0,0,0,0,-1,1812,1436,13.4173,-6.85708
595,-412,12.8245,7.0022,-0.0258723,-0.020244,0.0234268,0.000537029,-0.0466534,0.845174,0.0312828,0.0483765,1819,1436,12.8245,-7.00214
602,-412,12.1497,7.17224,-0.0201462,-0.0161122,0.0174297,-0.000583187,-0.0356753,0.843004,0.0235915,0.0251319,1826,1436,12.1497,-7.17227
609,-412,11.9618,7.01672,-0.015744,-0.0122889,0.0128193,-0.00108129,-0.0269516,0.852376,0.0176183,0.00899695,1833,1436,11.9618,-7.01673
616,-412,11.937,6.82471,-0.0114365,-0.00884564,0.00934453,-0.000707182,-0.019575,0.854275,0.0128208,0.00722359,1840,1436,11.937,-6.82467
623,-412,11.929,6.63086,-0.00800069,-0.00622407,0.00662267,-0.000430402,-0.0137944,0.852066,0.00905619,0.0083489,1847,1436,11.929,-6.63084
630,-412,11.9406,6.42395,-0.00549524,-0.0042474,0.00435773,-0.000469149,-0.00927349,0.856502,0.00603203,0.0109463,1854,1436,11.9405,-6.42397
637,-412,11.9585,6.21912,-0.00361453,-0.0025137,0.00243769,-0.000565057,-0.00556317,0.896434,0.00353551,0.0129764,1861,1436,11.9585,-6.21917
644,-412,11.9552,6.03198,-0.00233098,-0.00130415,0.00101635,-0.000678897,-0.00295624,1.01928,0.00178802,0.0137734,1868,1436,11.9552,-6.03202
651,-412,11.929,5.83301,-0.00139781,-0.000359083,-0.00013743,-0.000341208,-0.00141568,-1.44145,0.000853108,0.0227352,1875,1436,11.9289,-5.83302
658,-412,11.9517,5.6217,-0.00109286,0.000148343,-0.000893921,0.000615969,-0.00156049,-1.08883,0.00129542,0.0158087,1882,1436,11.9517,-5.62165
665,-412,11.9589,5.44604,-0.000999389,0.000266873,-0.00164514,0.0013965,-0.00212902,-0.969087,0.00205005,0.0217481,1889,1436,11.9588,-5.44599
672,-412,11.955,5.22302,-0.00145818,-4.28933e-05,-0.00191505,0.00129107,-0.00279215,-0.962376,0.00240996,0.0269983,1896,1436,11.955,-5.22308
679,-412,11.9659,4.9469,-0.00206403,-0.000816154,-0.00210737,0.000757701,-0.00363789,-0.929324,0.00271332,0.0335585,1903,1436,11.9659,-4.94691
686,-412,11.4779,5.14929,0,0,0,0,0,0,0,-1,1910,1436,11.4779,-5.14935
693,-412,10.8674,5.38049,0,0,0,0,0,0,0,-1,1917,1436,10.8674,-5.38051
700,-412,8.82764,5.8844,0,0,0,0,0,0,0,-1,1924,1436,8.82761,-5.88444
707,-412,6.59998,1.68994,0,0,0,0,0,0,0,-1,1931,1436,6.60002,-1.68995
714,-412,4.77283,-2.39832,0,0,0,0,0,0,0,-1,1938,1436,4.77288,2.39835
721,-412,0,0,0,0,0,0,0,0,0,-1,1945,1436,0,0
728,-412,0,0,0,0,0,0,0,0,0,-1,1952,1436,0,0
735,-412,0,0,0,0,0,0,0,0,0,-1,1959,1436,0,0
742,-412,0,0,0,0,0,0,0,0,0,-1,1966,1436,0,0
749,-412,0,0,0,0,0,0,0,0,0,-1,1973,1436,0,0
756,-412,0,0,0,0,0,0,0,0,0,-1,1980,1436,0,0
763,-412,0,0,0,0,0,0,0,0,0,-1,1987,1436,0,0
770,-412,0,0,0,0,0,0,0,0,0,-1,1994,1436,0,0
777,-412,0,0,0,0,0,0,0,0,0,-1,2001,1436,0,0
784,-412,0,0,0,0,0,0,0,0,0,-1,2008,1436,0,0
791,-412,0,0,0,0,0,0,0,0,0,-1,2015,1436,0,0
798,-412,0,0,0,0,0,0,0,0,0,-1,2022,1436,0,0
805,-412,0,0,0,0,0,0,0,0,0,-1,2029,1436,0,0
812,-412,0,0,0,0,0,0,0,0,0,-1,2036,1436,0,0
-700,-419,0,0,0,0,0,0,0,0,0,-1,524,1443,0,0
-693,-419,0,0,0,0,0,0,0,0,0,-1,531,1443,0,0
-686,-419,0,0,0,0,0,0,0,0,0,-1,538,1443,0,0
-679,-419,0,0,0,0,0,0,0,0,0,-1,545,1443,0,0
-672,-419,0,0,0,0,0,0,0,0,0,-1,552,1443,0,0
-665,-419,0,0,0,0,0,0,0,0,0,-1,559,1443,0,0
-658,-419,0,0,0,0,0,0,0,0,0,-1,566,1443,0,0
-651,-419,0,0,0,0,0,0,0,0,0,-1,573,1443,0,0
-644,-419,0,0,0,0,0,0,0,0,0,-1,580,1443,0,0
-637,-419,0,0,0,0,0,0,0,0,0,-1,587,1443,0,0
-630,-419,0,0,0,0,0,0,0,0,0,-1,594,1443,0,0
-623,-419,0,0,0,0,0,0,0,0,0,-1,601,1443,0,0
-616,-419,0,0,0,0,0,0,0,0,0,-1,608,1443,0,0
-609,-419,0,0,0,0,0,0,0,0,0,-1,615,1443,0,0
-602,-419,0,0,0,0,0,0,0,0,0,-1,622,1443,0,0
-595,-419,-4.27423,-0.479492,0,0,0,0,0,0,0,-1,629,1443,-4.27421,0.479525
-588,-419,-3.75415,0.426147,0,0,0,0,0,0,0,-1,636,1443,-3.75414,-0.426145
-581,-419,-3.37775,1.73169,0,0,0,0,0,0,0,-1,643,1443,-3.37775,-1.73163
-574,-419,-2.68231,0.384277,0,0,0,0,0,0,0,-1,650,1443,-2.68231,-0.384297
-567,-419,-3.76215,1.37549,0,0,0,0,0,0,0,-1,657,1443,-3.76215,-1.37547
-560,-419,-3.44641,3.2489,0,0,0,0,0,0,0,-1,664,1443,-3.44641,-3.24892
-553,-419,-3.32428,3.30872,0.0372416,0.0133264,0.0515905,0.0782421,-0.0276741,0.67152,0.0634314,0.0420095,671,1443,-3.32431,-3.30874
-546,-419,-3.30164,3.33545,0.0260835,0.00889226,0.0366874,0.0551687,-0.020193,0.670327,0.045045,0.0412311,678,1443,-3.30164,-3.3355
-539,-419,-3.46277,3.30725,0.0196827,0.00636664,0.0256183,0.039494,-0.0134446,0.658264,0.0317736,0.031841,685,1443,-3.46278,-3.30721
-532,-419,-3.58942,3.52539,0.014349,0.00427549,0.0173464,0.0273751,-0.00875056,0.644102,0.0217615,0.0151694,692,1443,-3.58943,-3.52541
-525,-419,-3.6087,3.77795,0.00998663,0.00255094,0.0112512,0.0181184,-0.00558079,0.625827,0.0143067,0.0125032,699,1443,-3.60873,-3.77801
-518,-419,-3.59729,4.00671,0.00597932,0.000831069,0.00581461,0.00976411,-0.00295372,0.577015,0.00768556,0.0166739,706,1443,-3.59731,-4.00667
-511,-419,-3.57391,4.25867,0.00264307,-0.000541844,0.00251378,0.00402635,-0.00192512,0.503057,0.00350674,0.0199865,713,1443,-3.57391,-4.25866
-504,-419,-3.60815,4.45264,4.15848e-05,-0.00202403,0.00126818,0.00064431,-0.00262676,0.443667,0.00200083,0.0193474,720,1443,-3.60817,-4.45268
-497,-419,-3.60565,4.65967,-0.00219581,-0.00427566,-0.000162148,-0.00218324,-0.00428823,-0.0773386,0.00247595,0.0126351,727,1443,-3.60565,-4.65966
-490,-419,-3.60638,4.88953,-0.00386043,-0.00732756,-0.00150432,-0.00329874,-0.00788925,-0.357357,0.00457517,0.0101102,734,1443,-3.60638,-4.88952
-483,-419,-3.60675,5.11853,-0.00536462,-0.0105431,-0.00269874,-0.00421389,-0.0116938,-0.403051,0.00683865,0.00897957,741,1443,-3.60675,-5.11851
-476,-419,-3.5993,5.34619,-0.00662759,-0.0149502,-0.00388527,-0.00509576,-0.016482,-0.375554,0.00974417,0.00945215,748,1443,-3.59932,-5.34621
-469,-419,-3.54584,5.57629,-0.00775256,-0.0205075,-0.00547718,-0.0057234,-0.0225367,-0.354799,0.0135265,0.0143734,755,1443,-3.54583,-5.57633
-462,-419,-3.46539,5.72583,-0.0127633,-0.0276581,-0.0083713,-0.00900616,-0.0314153,-0.421869,0.0186798,0.0241674,762,1443,-3.46541,-5.72581
-455,-419,-3.73663,5.78979,0,0,0,0,0,0,0,-1,769,1443,-3.73663,-5.78982
-448,-419,-3.64386,4.85022,0,0,0,0,0,0,0,-1,776,1443,-3.64385,-4.85017
-441,-419,-3.45325,3.93689,0,0,0,0,0,0,0,-1,783,1443,-3.45325,-3.93685
-434,-419,-4.98279,4.83838,0,0,0,0,0,0,0,-1,790,1443,-4.98282,-4.83842
-427,-419,-4.97772,4.80542,0,0,0,0,0,0,0,-1,797,1443,-4.97774,-4.80542
-420,-419,-6.33325,4.65906,0,0,0,0,0,0,0,-1,804,1443,-6.33326,-4.65901
-413,-419,-7.83264,3.63562,-0.130676,-0.0806595,-0.0417112,-0.0570342,-0.154302,-1.05545,0.09009,0.0464229,811,1443,-7.83267,-3.63558
-406,-419,-9.41394,2.18799,-0.150885,-0.085166,-0.0490367,-0.0589972,-0.177054,-1.08059,0.104101,0.0420909,818,1443,-9.41395,-2.18804
-399,-419,-10.7096,0.636719,-0.171196,-0.0918719,-0.0491746,-0.0683577,-0.19471,-1.12476,0.114066,0.0415607,825,1443,-10.7096,-0.636686
-392,-419,0,0,0,0,0,0,0,0,0,-1,832,1443,0,0
-385,-419,0,0,0,0,0,0,0,0,0,-1,839,1443,0,0
-378,-419,0,0,0,0,0,0,0,0,0,-1,846,1443,0,0
-371,-419,0,0,0,0,0,0,0,0,0,-1,853,1443,0,0
-364,-419,0,0,0,0,0,0,0,0,0,-1,860,1443,0,0
-357,-419,0,0,0,0,0,0,0,0,0,-1,867,1443,0,0
-350,-419,0,0,0,0,0,0,0,0,0,-1,874,1443,0,0
-343,-419,0,0,0,0,0,0,0,0,0,-1,881,1443,0,0
-336,-419,0,0,0,0,0,0,0,0,0,-1,888,1443,0,0
-329,-419,0,0,0,0,0,0,0,0,0,-1,895,1443,0,0
-322,-419,0,0,0,0,0,0,0,0,0,-1,902,1443,0,0
-315,-419,0,0,0,0,0,0,0,0,0,-1,909,1443,0,0
-308,-419,0,0,0,0,0,0,0,0,0,-1,916,1443,0,0
-301,-419,0,0,0,0,0,0,0,0,0,-1,923,1443,0,0
-294,-419,0,0,0,0,0,0,0,0,0,-1,930,1443,0,0
-287,-419,0,0,0,0,0,0,0,0,0,-1,937,1443,0,0
-280,-419,0,0,0,0,0,0,0,0,0,-1,944,1443,0,0
-273,-419,0,0,0,0,0,0,0,0,0,-1,951,1443,0,0
-266,-419,0,0,0,0,0,0,0,0,0,-1,958,1443,0,0
-259,-419,0,0,0,0,0,0,0,0,0,-1,965,1443,0,0
-252,-419,0,0,0,0,0,0,0,0,0,-1,972,1443,0,0
-245,-419,0,0,0,0,0,0,0,0,0,-1,979,1443,0,0
-238,-419,0,0,0,0,0,0,0,0,0,-1,986,1443,0,0
-231,-419,0,0,0,0,0,0,0,0,0,-1,993,1443,0,0
-224,-419,0,0,0,0,0,0,0,0,0,-1,1000,1443,0,0
-217,-419,0,0,0,0,0,0,0,0,0,-1,1007,1443,0,0
-210,-419,0,0,0,0,0,0,0,0,0,-1,1014,1443,0,0
-203,-419,0,0,0,0,0,0,0,0,0,-1,1021,1443,0,0
-196,-419,0,0,0,0,0,0,0,0,0,-1,1028,1443,0,0
-189,-419,0,0,0,0,0,0,0,0,0,-1,1035,1443,0,0
-182,-419,0,0,0,0,0,0,0,0,0,-1,1042,1443,0,0
-175,-419,0,0,0,0,0,0,0,0,0,-1,1049,1443,0,0
-168,-419,0,0,0,0,0,0,0,0,0,-1,1056,1443,0,0
-161,-419,0,0,0,0,0,0,0,0,0,-1,1063,1443,0,0
-154,-419,0,0,0,0,0,0,0,0,0,-1,1070,1443,0,0
-147,-419,0,0,0,0,0,0,0,0,0,-1,1077,1443,0,0
-140,-419,0,0,0,0,0,0,0,0,0,-1,1084,1443,0,0
-133,-419,0,0,0,0,0,0,0,0,0,-1,1091,1443,0,0
-126,-419,0,0,0,0,0,0,0,0,0,-1,1098,1443,0,0
-119,-419,0,0,0,0,0,0,0,0,0,-1,1105,1443,0,0
-112,-419,0,0,0,0,0,0,0,0,0,-1,1112,1443,0,0
-105,-419,0,0,0,0,0,0,0,0,0,-1,1119,1443,0,0
-98,-419,0,0,0,0,0,0,0,0,0,-1,1126,1443,0,0
-91,-419,0,0,0,0,0,0,0,0,0,-1,1133,1443,0,0
-84,-419,0,0,0,0,0,0,0,0,0,-1,1140,1443,0,0
-77,-419,0,0,0,0,0,0,0,0,0,-1,1147,1443,0,0
-70,-419,0,0,0,0,0,0,0,0,0,-1,1154,1443,0,0
-63,-419,0,0,0,0,0,0,0,0,0,-1,1161,1443,0,0
-56,-419,0,0,0,0,0,0,0,0,0,-1,1168,1443,0,0
-49,-419,0,0,0,0,0,0,0,0,0,-1,1175,1443,0,0
-42,-419,0,0,0,0,0,0,0,0,0,-1,1182,1443,0,0
-35,-419,0,0,0,0,0,0,0,0,0,-1,1189,1443,0,0
-28,-419,0,0,0,0,0,0,0,0,0,-1,1196,1443,0,0
-21,-419,0,0,0,0,0,0,0,0,0,-1,1203,1443,0,0
-14,-419,0,0,0,0,0,0,0,0,0,-1,1210,1443,0,0
-7,-419,0,0,0,0,0,0,0,0,0,-1,1217,1443,0,0
0,-419,0,0,0,0,0,0,0,0,0,-1,1224,1443,0,0
7,-419,0,0,0,0,0,0,0,0,0,-1,1231,1443,0,0
14,-419,0,0,0,0,0,0,0,0,0,-1,1238,1443,0,0
21,-419,0,0,0,0,0,0,0,0,0,-1,1245,1443,0,0
28,-419,0,0,0,0,0,0,0,0,0,-1,1252,1443,0,0
35,-419,0,0,0,0,0,0,0,0,0,-1,1259,1443,0,0
42,-419,0,0,0,0,0,0,0,0,0,-1,1266,1443,0,0
49,-419,0,0,0,0,0,0,0,0,0,-1,1273,1443,0,0
56,-419,0,0,0,0,0,0,0,0,0,-1,1280,1443,0,0
63,-419,0,0,0,0,0,0,0,0,0,-1,1287,1443,0,0
70,-419,0,0,0,0,0,0,0,0,0,-1,1294,1443,0,0
77,-419,0,0,0,0,0,0,0,0,0,-1,1301,1443,0,0
84,-419,0,0,0,0,0,0,0,0,0,-1,1308,1443,0,0
91,-419,0,0,0,0,0,0,0,0,0,-1,1315,1443,0,0
98,-419,0,0,0,0,0,0,0,0,0,-1,1322,1443,0,0
105,-419,0,0,0,0,0,0,0,0,0,-1,1329,1443,0,0
112,-419,0,0,0,0,0,0,0,0,0,-1,1336,1443,0,0
119,-419,0,0,0,0,0,0,0,0,0,-1,1343,1443,0,0
126,-419,0,0,0,0,0,0,0,0,0,-1,1350,1443,0,0
133,-419,0,0,0,0,0,0,0,0,0,-1,1357,1443,0,0
140,-419,0,0,0,0,0,0,0,0,0,-1,1364,1443,0,0
147,-419,0,0,0,0,0,0,0,0,0,-1,1371,1443,0,0
154,-419,0,0,0,0,0,0,0,0,0,-1,1378,1443,0,0
161,-419,0,0,0,0,0,0,0,0,0,-1,1385,1443,0,0
168,-419,0,0,0,0,0,0,0,0,0,-1,1392,1443,0,0
175,-419,0,0,0,0,0,0,0,0,0,-1,1399,1443,0,0
182,-419,0,0,0,0,0,0,0,0,0,-1,1406,1443,0,0
189,-419,0,0,0,0,0,0,0,0,0,-1,1413,1443,0,0
196,-419,0,0,0,0,0,0,0,0,0,-1,1420,1443,0,0
203,-419,0,0,0,0,0,0,0,0,0,-1,1427,1443,0,0
210,-419,0,0,0,0,0,0,0,0,0,-1,1434,1443,0,0
217,-419,0,0,0,0,0,0,0,0,0,-1,1441,1443,0,0
224,-419,0,0,0,0,0,0,0,0,0,-1,1448,1443,0,0
231,-419,0,0,0,0,0,0,0,0,0,-1,1455,1443,0,0
238,-419,0,0,0,0,0,0,0,0,0,-1,1462,1443,0,0
245,-419,0,0,0,0,0,0,0,0,0,-1,1469,1443,0,0
252,-419,0,0,0,0,0,0,0,0,0,-1,1476,1443,0,0
259,-419,0,0,0,0,0,0,0,0,0,-1,1483,1443,0,0
266,-419,0,0,0,0,0,0,0,0,0,-1,1490,1443,0,0
273,-419,0,0,0,0,0,0,0,0,0,-1,1497,1443,0,0
280,-419,0,0,0,0,0,0,0,0,0,-1,1504,1443,0,0
287,-419,0,0,0,0,0,0,0,0,0,-1,1511,1443,0,0
294,-419,0,0,0,0,0,0,0,0,0,-1,1518,1443,0,0
301,-419,0,0,0,0,0,0,0,0,0,-1,1525,1443,0,0
308,-419,0,0,0,0,0,0,0,0,0,-1,1532,1443,0,0
315,-419,0,0,0,0,0,0,0,0,0,-1,1539,1443,0,0
322,-419,0,0,0,0,0,0,0,0,0,-1,1546,1443,0,0
329,-419,0,0,0,0,0,0,0,0,0,-1,1553,1443,0,0
336,-419,0,0,0,0,0,0,0,0,0,-1,1560,1443,0,0
343,-419,0,0,0,0,0,0,0,0,0,-1,1567,1443,0,0
350,-419,0,0,0,0,0,0,0,0,0,-1,1574,1443,0,0
357,-419,0,0,0,0,0,0,0,0,0,-1,1581,1443,0,0
364,-419,0,0,0,0,0,0,0,0,0,-1,1588,1443,0,0
371,-419,0,0,0,0,0,0,0,0,0,-1,1595,1443,0,0
378,-419,0,0,0,0,0,0,0,0,0,-1,1602,1443,0,0
385,-419,0,0,0,0,0,0,0,0,0,-1,1609,1443,0,0
392,-419,0,0,0,0,0,0,0,0,0,-1,1616,1443,0,0
399,-419,0,0,0,0,0,0,0,0,0,-1,1623,1443,0,0
406,-419,0,0,0,0,0,0,0,0,0,-1,1630,1443,0,0
413,-419,0,0,0,0,0,0,0,0,0,-1,1637,1443,0,0
420,-419,0,0,0,0,0,0,0,0,0,-1,1644,1443,0,0
427,-419,0,0,0,0,0,0,0,0,0,-1,1651,1443,0,0
434,-419,0,0,0,0,0,0,0,0,0,-1,1658,1443,0,0
441,-419,0,0,0,0,0,0,0,0,0,-1,1665,1443,0,0
448,-419,0,0,0,0,0,0,0,0,0,-1,1672,1443,0,0
455,-419,0,0,0,0,0,0,0,0,0,-1,1679,1443,0,0
462,-419,0,0,0,0,0,0,0,0,0,-1,1686,1443,0,0
469,-419,0,0,0,0,0,0,0,0,0,-1,1693,1443,0,0
476,-419,0,0,0,0,0,0,0,0,0,-1,1700,1443,0,0
483,-419,0,0,0,0,0,0,0,0,0,-1,1707,1443,0,0
490,-419,0,0,0,0,0,0,0,0,0,-1,1714,1443,0,0
497,-419,0,0,0,0,0,0,0,0,0,-1,1721,1443,0,0
504,-419,0,0,0,0,0,0,0,0,0,-1,1728,1443,0,0
511,-419,20.3005,3.7959,0,0,0,0,0,0,0,-1,1735,1443,20.3005,-3.79584
518,-419,21.3154,2.03027,0,0,0,0,0,0,0,-1,1742,1443,21.3155,-2.03029
525,-419,20.1991,2.2738,0,0,0,0,0,0,0,-1,1749,1443,20.1991,-2.2738
532,-419,19.03,2.43384,0,0,0,0,0,0,0,-1,1756,1443,19.0301,-2.43384
539,-419,17.9652,2.6532,0,0,0,0,0,0,0,-1,1763,1443,17.9652,-2.6532
546,-419,17.1125,2.85742,0,0,0,0,0,0,0,-1,1770,1443,17.1126,-2.85739
553,-419,16.4619,3.72388,0,0,0,0,0,0,0,-1,1777,1443,16.462,-3.72389
560,-419,16.1787,5.0946,0,0,0,0,0,0,0,-1,1784,1443,16.1787,-5.09457
567,-419,15.7008,5.70764,0,0,0,0,0,0,0,-1,1791,1443,15.7009,-5.70764
574,-419,14.9426,5.87866,0,0,0,0,0,0,0,-1,1798,1443,14.9426,-5.8786
581,-419,14.3044,6.00281,0,0,0,0,0,0,0,-1,1805,1443,14.3045,-6.00281
588,-419,12.2595,6.81714,0,0,0,0,0,0,0,-1,1812,1443,12.2595,-6.81715
595,-419,12.0839,7.37744,-0.0204664,-0.0165159,0.0189635,0.000574976,-0.0375573,0.837291,0.025232,0.0396955,1819,1443,12.0839,-7.37747
602,-419,11.7804,7.22424,-0.016111,-0.0129674,0.0140481,-0.000403466,-0.0286749,0.84111,0.0189836,0.0153248,1826,1443,11.7804,-7.22427
609,-419,11.7438,7.02307,-0.0126782,-0.00969472,0.0102207,-0.000857462,-0.0215155,0.857863,0.0140665,0.00982437,1833,1443,11.7438,-7.02302
616,-419,11.7389,6.83411,-0.00903805,-0.00684241,0.00722787,-0.000629463,-0.015251,0.860765,0.00996414,0.0111186,1840,1443,11.7389,-6.83407
623,-419,11.7476,6.63171,-0.00607771,-0.00464272,0.00484761,-0.00045979,-0.0102606,0.85887,0.00669242,0.00909308,1847,1443,11.7476,-6.63168
630,-419,11.7574,6.43176,-0.00387328,-0.00308506,0.00291804,-0.000534636,-0.00642371,0.852522,0.00411585,0.0112646,1854,1443,11.7574,-6.43172
637,-419,11.7513,6.23059,-0.00205614,-0.00165968,0.00109514,-0.000744977,-0.00297084,0.874932,0.00178484,0.0122426,1861,1443,11.7514,-6.23063
644,-419,11.7477,6.03821,-0.000759605,-0.00072717,-0.00031776,-0.000425214,-0.00106156,-0.810895,0.00061692,0.0111028,1868,1443,11.7477,-6.03824
651,-419,11.767,5.84729,0.000177871,-3.02543e-05,-0.00150477,0.00158217,-0.00143455,-0.750875,0.0017424,0.0107885,1875,1443,11.767,-5.84724
658,-419,11.7675,5.63977,0.000489717,0.000326431,-0.00235434,0.00276383,-0.00194768,-0.768066,0.00273376,0.0118019,1882,1443,11.7674,-5.63977
665,-419,11.7539,5.44434,0.000543247,0.00033143,-0.00313975,0.00357887,-0.0027042,-0.768539,0.00363923,0.0185735,1889,1443,11.754,-5.44439
672,-419,11.7708,5.1908,-5.43118e-05,-0.00013451,-0.003416,0.00332182,-0.00351065,-0.779529,0.00394523,0.0238632,1896,1443,11.7708,-5.19084
679,-419,11.6923,5.08057,-0.000878341,-0.00102431,-0.00355941,0.00260883,-0.00451148,-0.775147,0.00415955,0.0406035,1903,1443,11.6923,-5.08053
686,-419,11.5486,5.14148,0,0,0,0,0,0,0,-1,1910,1443,11.5486,-5.14153
693,-419,8.76086,5.60535,0,0,0,0,0,0,0,-1,1917,1443,8.76091,-5.6054
700,-419,8.49817,5.59277,0,0,0,0,0,0,0,-1,1924,1443,8.49817,-5.59282
707,-419,9.5752,1.80042,0,0,0,0,0,0,0,-1,1931,1443,9.57523,-1.80037
714,-419,5.77576,-1.25061,0,0,0,0,0,0,0,-1,1938,1443,5.7757,1.25056
721,-419,0,0,0,0,0,0,0,0,0,-1,1945,1443,0,0
728,-419,0,0,0,0,0,0,0,0,0,-1,1952,1443,0,0
735,-419,0,0,0,0,0,0,0,0,0,-1,1959,1443,0,0
742,-419,0,0,0,0,0,0,0,0,0,-1,1966,1443,0,0
749,-419,0,0,0,0,0,0,0,0,0,-1,1973,1443,0,0
756,-419,0,0,0,0,0,0,0,0,0,-1,1980,1443,0,0
763,-419,0,0,0,0,0,0,0,0,0,-1,1987,1443,0,0
770,-419,0,0,0,0,0,0,0,0,0,-1,1994,1443,0,0
777,-419,0,0,0,0,0,0,0,0,0,-1,2001,1443,0,0
784,-419,0,0,0,0,0,0,0,0,0,-1,2008,1443,0,0
791,-419,0,0,0,0,0,0,0,0,0,-1,2015,1443,0,0
798,-419,0,0,0,0,0,0,0,0,0,-1,2022,1443,0,0
805,-419,0,0,0,0,0,0,0,0,0,-1,2029,1443,0,0
812,-419,0,0,0,0,0,0,0,0,0,-1,2036,1443,0,0
-700,-426,0,0,0,0,0,0,0,0,0,-1,524,1450,0,0
-693,-426,0,0,0,0,0,0,0,0,0,-1,531,1450,0,0
-686,-426,0,0,0,0,0,0,0,0,0,-1,538,1450,0,0
-679,-426,0,0,0,0,0,0,0,0,0,-1,545,1450,0,0
-672,-426,0,0,0,0,0,0,0,0,0,-1,552,1450,0,0
-665,-426,0,0,0,0,0,0,0,0,0,-1,559,1450,0,0
-658,-426,0,0,0,0,0,0,0,0,0,-1,566,1450,0,0
-651,-426,0,0,0,0,0,0,0,0,0,-1,573,1450,0,0
-644,-426,0,0,0,0,0,0,0,0,0,-1,580,1450,0,0
-637,-426,0,0,0,0,0,0,0,0,0,-1,587,1450,0,0
-630,-426,0,0,0,0,0,0,0,0,0,-1,594,1450,0,0
-623,-426,0,0,0,0,0,0,0,0,0,-1,601,1450,0,0
-616,-426,0,0,0,0,0,0,0,0,0,-1,608,1450,0,0
-609,-426,0,0,0,0,0,0,0,0,0,-1,615,1450,0,0
-602,-426,0,0,0,0,0,0,0,0,0,-1,622,1450,0,0
-595,-426,0,0,0,0,0,0,0,0,0,-1,629,1450,0,0
-588,-426,-4.39026,0.156494,0,0,0,0,0,0,0,-1,636,1450,-4.39027,-0.156543
-581,-426,-4.30518,-1.34998,0,0,0,0,0,0,0,-1,643,1450,-4.30517,1.34996
-574,-426,-3.67657,0.188232,0,0,0,0,0,0,0,-1,650,1450,-3.67657,-0.188214
-567,-426,-3.04797,1.72644,0,0,0,0,0,0,0,-1,657,1450,-3.04797,-1.72639
-560,-426,-5.06732,2.52539,0,0,0,0,0,0,0,-1,664,1450,-5.06733,-2.5254
-553,-426,-2.94458,3.34814,0,0,0,0,0,0,0,-1,671,1450,-2.94455,-3.3481
-546,-426,-3.26471,3.44873,0.0371396,0.00729891,0.0451101,0.0697328,-0.0252943,0.625684,0.0568284,0.0494083,678,1450,-3.2647,-3.44873
-539,-426,-3.20862,3.36035,0.0291854,0.00412323,0.0315963,0.0506448,-0.0173362,0.596612,0.040789,0.0417068,685,1450,-3.20862,-3.36039
-532,-426,-3.30396,3.54529,0.0222535,0.00188678,0.0214933,0.0358538,-0.0117135,0.564166,0.0286176,0.024822,692,1450,-3.30396,-3.54525
-525,-426,-3.36786,3.75684,0.0163934,0.000379995,0.0141213,0.02462,-0.00784656,0.527499,0.0195607,0.0128875,699,1450,-3.36787,-3.7568
-518,-426,-3.35681,4.00745,0.0112192,-0.0008871,0.00761114,0.0148907,-0.00455867,0.449464,0.0117454,0.0149915,706,1450,-3.35684,-4.00747
-511,-426,-3.34967,4.2561,0.00690256,-0.00166437,0.00359933,0.00821402,-0.00297584,0.349414,0.00669226,0.0156913,713,1450,-3.34966,-4.25606
-504,-426,-3.36774,4.46472,0.00350572,-0.00226184,0.00221799,0.00426003,-0.00301615,0.327815,0.00422131,0.0150056,720,1450,-3.36775,-4.46468
-497,-426,-3.36523,4.66235,0.000688067,-0.0037854,0.000684374,0.000790424,-0.00388775,0.148463,0.00289155,0.0115936,727,1450,-3.36522,-4.66231
-490,-426,-3.36871,4.87317,-0.00126726,-0.00601891,-0.000662737,-0.00117656,-0.00610962,-0.136017,0.00374305,0.0116845,734,1450,-3.36874,-4.8732
-483,-426,-3.37469,5.11267,-0.00276832,-0.00821028,-0.00184211,-0.00220341,-0.00877519,-0.297561,0.00527146,0.0114458,741,1450,-3.37467,-5.11273
-476,-426,-3.37006,5.34937,-0.00371335,-0.0116297,-0.00291464,-0.00275601,-0.012587,-0.317356,0.00764022,0.00921818,748,1450,-3.37006,-5.3494
-469,-426,-3.38464,5.57397,-0.00430737,-0.0162157,-0.004363,-0.00287995,-0.0176431,-0.31619,0.0109293,0.00751371,755,1450,-3.38464,-5.57403
-462,-426,-3.28931,5.79565,-0.0079576,-0.02232,-0.00687356,-0.0051982,-0.0250794,-0.381757,0.0152844,0.0145602,762,1450,-3.28931,-5.7957
-455,-426,-3.4823,5.72681,0,0,0,0,0,0,0,-1,769,1450,-3.4823,-5.72678
-448,-426,-3.23566,5.15979,-0.0301221,-0.0376206,-0.015115,-0.0182982,-0.0494444,-0.663828,0.0288662,0.0402971,776,1450,-3.23564,-5.15978
-441,-426,-2.99329,4.57166,-0.044443,-0.0463477,-0.0196148,-0.0257575,-0.0650333,-0.761141,0.0378164,0.0436709,783,1450,-2.99329,-4.5717
-434,-426,-2.72577,4.04358,0,0,0,0,0,0,0,-1,790,1450,-2.72574,-4.04352
-427,-426,-3.50067,4.76404,0,0,0,0,0,0,0,-1,797,1450,-3.50069,-4.76409
-420,-426,-7.10614,5.29126,0,0,0,0,0,0,0,-1,804,1450,-7.10612,-5.29129
-413,-426,-8.5744,4.13123,-0.114008,-0.0766668,-0.038214,-0.0528062,-0.137868,-1.01263,0.0803212,0.0491486,811,1450,-8.57441,-4.13126
-406,-426,-9.91272,2.84106,-0.133002,-0.0835639,-0.0422509,-0.0593323,-0.157234,-1.05008,0.0916849,0.0476447,818,1450,-9.91275,-2.84112
-399,-426,-11.3411,1.70398,-0.15177,-0.0916688,-0.0428072,-0.0694175,-0.174022,-1.09143,0.101154,0.0435493,825,1450,-11.3411,-1.70401
-392,-426,-12.4147,0.537354,0,0,0,0,0,0,0,-1,832,1450,-12.4147,-0.53731
-385,-426,0,0,0,0,0,0,0,0,0,-1,839,1450,0,0
-378,-426,0,0,0,0,0,0,0,0,0,-1,846,1450,0,0
-371,-426,0,0,0,0,0,0,0,0,0,-1,853,1450,0,0
-364,-426,0,0,0,0,0,0,0,0,0,-1,860,1450,0,0
-357,-426,0,0,0,0,0,0,0,0,0,-1,867,1450,0,0
-350,-426,0,0,0,0,0,0,0,0,0,-1,874,1450,0,0
-343,-426,0,0,0,0,0,0,0,0,0,-1,881,1450,0,0
-336,-426,0,0,0,0,0,0,0,0,0,-1,888,1450,0,0
-329,-426,0,0,0,0,0,0,0,0,0,-1,895,1450,0,0
-322,-426,0,0,0,0,0,0,0,0,0,-1,902,1450,0,0
-315,-426,0,0,0,0,0,0,0,0,0,-1,909,1450,0,0
-308,-426,0,0,0,0,0,0,0,0,0,-1,916,1450,0,0
-301,-426,0,0,0,0,0,0,0,0,0,-1,923,1450,0,0
-294,-426,0,0,0,0,0,0,0,0,0,-1,930,1450,0,0
-287,-426,0,0,0,0,0,0,0,0,0,-1,937,1450,0,0
-280,-426,0,0,0,0,0,0,0,0,0,-1,944,1450,0,0
-273,-426,0,0,0,0,0,0,0,0,0,-1,951,1450,0,0
-266,-426,0,0,0,0,0,0,0,0,0,-1,958,1450,0,0
-259,-426,0,0,0,0,0,0,0,0,0,-1,965,1450,0,0
-252,-426,0,0,0,0,0,0,0,0,0,-1,972,1450,0,0
-245,-426,0,0,0,0,0,0,0,0,0,-1,979,1450,0,0
-238,-426,0,0,0,0,0,0,0,0,0,-1,986,1450,0,0
-231,-426,0,0,0,0,0,0,0,0,0,-1,993,1450,0,0
-224,-426,0,0,0,0,0,0,0,0,0,-1,1000,1450,0,0
-217,-426,0,0,0,0,0,0,0,0,0,-1,1007,1450,0,0
-210,-426,0,0,0,0,0,0,0,0,0,-1,1014,1450,0,0
-203,-426,0,0,0,0,0,0,0,0,0,-1,1021,1450,0,0
-196,-426,0,0,0,0,0,0,0,0,0,-1,1028,1450,0,0
-189,-426,0,0,0,0,0,0,0,0,0,-1,1035,1450,0,0
-182,-426,0,0,0,0,0,0,0,0,0,-1,1042,1450,0,0
-175,-426,0,0,0,0,0,0,0,0,0,-1,1049,1450,0,0
-168,-426,0,0,0,0,0,0,0,0,0,-1,1056,1450,0,0
-161,-426,0,0,0,0,0,0,0,0,0,-1,1063,1450,0,0
-154,-426,0,0,0,0,0,0,0,0,0,-1,1070,1450,0,0
-147,-426,0,0,0,0,0,0,0,0,0,-1,1077,1450,0,0
-140,-426,0,0,0,0,0,0,0,0,0,-1,1084,1450,0,0
-133,-426,0,0,0,0,0,0,0,0,0,-1,1091,1450,0,0
-126,-426,0,0,0,0,0,0,0,0,0,-1,1098,1450,0,0
-119,-426,0,0,0,0,0,0,0,0,0,-1,1105,1450,0,0
-112,-426,0,0,0,0,0,0,0,0,0,-1,1112,1450,0,0
-105,-426,0,0,0,0,0,0,0,0,0,-1,1119,1450,0,0
-98,-426,0,0,0,0,0,0,0,0,0,-1,1126,1450,0,0
-91,-426,0,0,0,0,0,0,0,0,0,-1,1133,1450,0,0
-84,-426,0,0,0,0,0,0,0,0,0,-1,1140,1450,0,0
-77,-426,0,0,0,0,0,0,0,0,0,-1,1147,1450,0,0
-70,-426,0,0,0,0,0,0,0,0,0,-1,1154,1450,0,0
-63,-426,0,0,0,0,0,0,0,0,0,-1,1161,1450,0,0
-56,-426,0,0,0,0,0,0,0,0,0,-1,1168,1450,0,0
-49,-426,0,0,0,0,0,0,0,0,0,-1,1175,1450,0,0
-42,-426,0,0,0,0,0,0,0,0,0,-1,1182,1450,0,0
-35,-426,0,0,0,0,0,0,0,0,0,-1,1189,1450,0,0
-28,-426,0,0,0,0,0,0,0,0,0,-1,1196,1450,0,0
-21,-426,0,0,0,0,0,0,0,0,0,-1,1203,1450,0,0
-14,-426,0,0,0,0,0,0,0,0,0,-1,1210,1450,0,0
-7,-426,0,0,0,0,0,0,0,0,0,-1,1217,1450,0,0
0,-426,0,0,0,0,0,0,0,0,0,-1,1224,1450,0,0
7,-426,0,0,0,0,0,0,0,0,0,-1,1231,1450,0,0
14,-426,0,0,0,0,0,0,0,0,0,-1,1238,1450,0,0
21,-426,0,0,0,0,0,0,0,0,0,-1,1245,1450,0,0
28,-426,0,0,0,0,0,0,0,0,0,-1,1252,1450,0,0
35,-426,0,0,0,0,0,0,0,0,0,-1,1259,1450,0,0
42,-426,0,0,0,0,0,0,0,0,0,-1,1266,1450,0,0
49,-426,0,0,0,0,0,0,0,0,0,-1,1273,1450,0,0
56,-426,0,0,0,0,0,0,0,0,0,-1,1280,1450,0,0
63,-426,0,0,0,0,0,0,0,0,0,-1,1287,1450,0,0
70,-426,0,0,0,0,0,0,0,0,0,-1,1294,1450,0,0
77,-426,0,0,0,0,0,0,0,0,0,-1,1301,1450,0,0
84,-426,0,0,0,0,0,0,0,0,0,-1,1308,1450,0,0
91,-426,0,0,0,0,0,0,0,0,0,-1,1315,1450,0,0
98,-426,0,0,0,0,0,0,0,0,0,-1,1322,1450,0,0
105,-426,0,0,0,0,0,0,0,0,0,-1,1329,1450,0,0
112,-426,0,0,0,0,0,0,0,0,0,-1,1336,1450,0,0
119,-426,0,0,0,0,0,0,0,0,0,-1,1343,1450,0,0
126,-426,0,0,0,0,0,0,0,0,0,-1,1350,1450,0,0
133,-426,0,0,0,0,0,0,0,0,0,-1,1357,1450,0,0
140,-426,0,0,0,0,0,0,0,0,0,-1,1364,1450,0,0
147,-426,0,0,0,0,0,0,0,0,0,-1,1371,1450,0,0
154,-426,0,0,0,0,0,0,0,0,0,-1,1378,1450,0,0
161,-426,0,0,0,0,0,0,0,0,0,-1,1385,1450,0,0
168,-426,0,0,0,0,0,0,0,0,0,-1,1392,1450,0,0
175,-426,0,0,0,0,0,0,0,0,0,-1,1399,1450,0,0
182,-426,0,0,0,0,0,0,0,0,0,-1,1406,1450,0,0
189,-426,0,0,0,0,0,0,0,0,0,-1,1413,1450,0,0
196,-426,0,0,0,0,0,0,0,0,0,-1,1420,1450,0,0
203,-426,0,0,0,0,0,0,0,0,0,-1,1427,1450,0,0
210,-426,0,0,0,0,0,0,0,0,0,-1,1434,1450,0,0
217,-426,0,0,0,0,0,0,0,0,0,-1,1441,1450,0,0
224,-426,0,0,0,0,0,0,0,0,0,-1,1448,1450,0,0
231,-426,0,0,0,0,0,0,0,0,0,-1,1455,1450,0,0
238,-426,0,0,0,0,0,0,0,0,0,-1,1462,1450,0,0
245,-426,0,0,0,0,0,0,0,0,0,-1,1469,1450,0,0
252,-426,0,0,0,0,0,0,0,0,0,-1,1476,1450,0,0
259,-426,0,0,0,0,0,0,0,0,0,-1,1483,1450,0,0
266,-426,0,0,0,0,0,0,0,0,0,-1,1490,1450,0,0
273,-426,0,0,0,0,0,0,0,0,0,-1,1497,1450,0,0
280,-426,0,0,0,0,0,0,0,0,0,-1,1504,1450,0,0
287,-426,0,0,0,0,0,0,0,0,0,-1,1511,1450,0,0
294,-426,0,0,0,0,0,0,0,0,0,-1,1518,1450,0,0
301,-426,0,0,0,0,0,0,0,0,0,-1,1525,1450,0,0
308,-426,0,0,0,0,0,0,0,0,0,-1,1532,1450,0,0
315,-426,0,0,0,0,0,0,0,0,0,-1,1539,1450,0,0
322,-426,0,0,0,0,0,0,0,0,0,-1,1546,1450,0,0
329,-426,0,0,0,0,0,0,0,0,0,-1,1553,1450,0,0
336,-426,0,0,0,0,0,0,0,0,0,-1,1560,1450,0,0
343,-426,0,0,0,0,0,0,0,0,0,-1,1567,1450,0,0
350,-426,0,0,0,0,0,0,0,0,0,-1,1574,1450,0,0
357,-426,0,0,0,0,0,0,0,0,0,-1,1581,1450,0,0
364,-426,0,0,0,0,0,0,0,0,0,-1,1588,1450,0,0
371,-426,0,0,0,0,0,0,0,0,0,-1,1595,1450,0,0
378,-426,0,0,0,0,0,0,0,0,0,-1,1602,1450,0,0
385,-426,0,0,0,0,0,0,0,0,0,-1,1609,1450,0,0
392,-426,0,0,0,0,0,0,0,0,0,-1,1616,1450,0,0
399,-426,0,0,0,0,0,0,0,0,0,-1,1623,1450,0,0
406,-426,0,0,0,0,0,0,0,0,0,-1,1630,1450,0,0
413,-426,0,0,0,0,0,0,0,0,0,-1,1637,1450,0,0
420,-426,0,0,0,0,0,0,0,0,0,-1,1644,1450,0,0
427,-426,0,0,0,0,0,0,0,0,0,-1,1651,1450,0,0
434,-426,0,0,0,0,0,0,0,0,0,-1,1658,1450,0,0
441,-426,0,0,0,0,0,0,0,0,0,-1,1665,1450,0,0
448,-426,0,0,0,0,0,0,0,0,0,-1,1672,1450,0,0
455,-426,0,0,0,0,0,0,0,0,0,-1,1679,1450,0,0
462,-426,0,0,0,0,0,0,0,0,0,-1,1686,1450,0,0
469,-426,0,0,0,0,0,0,0,0,0,-1,1693,1450,0,0
476,-426,0,0,0,0,0,0,0,0,0,-1,1700,1450,0,0
483,-426,0,0,0,0,0,0,0,0,0,-1,1707,1450,0,0
490,-426,0,0,0,0,0,0,0,0,0,-1,1714,1450,0,0
497,-426,0,0,0,0,0,0,0,0,0,-1,1721,1450,0,0
504,-426,20.6873,3.38367,0,0,0,0,0,0,0,-1,1728,1450,20.6873,-3.38361
511,-426,19.6676,3.53748,0,0,0,0,0,0,0,-1,1735,1450,19.6676,-3.53749
518,-426,18.6853,3.32288,0,0,0,0,0,0,0,-1,1742,1450,18.6853,-3.3229
525,-426,18.9552,2.71033,0,0,0,0,0,0,0,-1,1749,1450,18.9552,-2.71034
532,-426,17.764,2.81616,0,0,0,0,0,0,0,-1,1756,1450,17.764,-2.81611
539,-426,16.9565,3.07593,0,0,0,0,0,0,0,-1,1763,1450,16.9566,-3.07593
546,-426,16.1915,3.49744,0,0,0,0,0,0,0,-1,1770,1450,16.1916,-3.4975
553,-426,13.74,7.90552,0,0,0,0,0,0,0,-1,1777,1450,13.7399,-7.90547
560,-426,13.7825,8.4646,0,0,0,0,0,0,0,-1,1784,1450,13.7825,-8.46456
567,-426,15.0376,6.59729,0,0,0,0,0,0,0,-1,1791,1450,15.0376,-6.59727
574,-426,14.3839,6.70972,0,0,0,0,0,0,0,-1,1798,1450,14.3839,-6.70972
581,-426,11.9022,6.58984,0,0,0,0,0,0,0,-1,1805,1450,11.9022,-6.58988
588,-426,11.8138,7.16602,0,0,0,0,0,0,0,-1,1812,1450,11.8138,-7.16601
595,-426,11.8829,7.24597,0,0,0,0,0,0,0,-1,1819,1450,11.8829,-7.24599
602,-426,11.5554,7.21497,-0.0125224,-0.0105778,0.0113899,-0.000118749,-0.0229814,0.827978,0.0152815,0.0145304,1826,1450,11.5554,-7.21492
609,-426,11.5422,7.00366,-0.00970616,-0.00779814,0.00813291,-0.000563482,-0.0169408,0.843782,0.0111108,0.0116034,1833,1450,11.5423,-7.00368
616,-426,11.5519,6.81702,-0.00664242,-0.00541244,0.00547896,-0.000514064,-0.0115408,0.841287,0.00752836,0.0141529,1840,1450,11.5519,-6.81696
623,-426,11.5643,6.62634,-0.00411949,-0.00354008,0.00330038,-0.00051672,-0.00714286,0.829176,0.00459935,0.0110251,1847,1450,11.5644,-6.62632
630,-426,11.5635,6.43164,-0.00220721,-0.00231333,0.00159711,-0.000662281,-0.00385825,0.768792,0.0023823,0.0111552,1854,1450,11.5634,-6.43159
637,-426,11.5532,6.23389,-0.000480649,-0.0011462,-0.000205783,-0.000422162,-0.00120469,-0.276912,0.000705825,0.0125138,1861,1450,11.5533,-6.2339
644,-426,11.5298,6.05457,0.000816696,-0.000431212,-0.00171226,0.00201515,-0.00162966,-0.610674,0.00210825,0.012173,1868,1450,11.5298,-6.05455
651,-426,11.5344,5.86206,0.00175155,7.30638e-05,-0.00306443,0.00408958,-0.00226497,-0.651742,0.00371887,0.0112188,1875,1450,11.5344,-5.86204
658,-426,11.5576,5.61218,0.00206489,0.000358553,-0.00417632,0.00547429,-0.00305086,-0.684641,0.00498785,0.0107613,1882,1450,11.5576,-5.61218
665,-426,11.5781,5.36438,0.00199066,0.0004042,-0.00517094,0.00642886,-0.00403399,-0.709291,0.00609325,0.0169974,1889,1450,11.5782,-5.36432
672,-426,11.5438,5.09644,0.00117234,-3.47496e-05,-0.00567771,0.00627849,-0.0051409,-0.732446,0.00660388,0.0299594,1896,1450,11.5438,-5.09642
679,-426,11.2179,5.27893,-0.000127422,-0.000785587,-0.00594149,0.00549409,-0.0064071,-0.757733,0.00687789,0.0429732,1903,1450,11.2179,-5.27888
686,-426,11.1121,5.68384,0,0,0,0,0,0,0,-1,1910,1450,11.1121,-5.68382
693,-426,11.11,6.03003,0,0,0,0,0,0,0,-1,1917,1450,11.11,-6.03006
700,-426,9.24304,2.95447,0,0,0,0,0,0,0,-1,1924,1450,9.24305,-2.95442
707,-426,8.44519,-1.21448,0,0,0,0,0,0,0,-1,1931,1450,8.44514,1.21454
714,-426,0,0,0,0,0,0,0,0,0,-1,1938,1450,0,0
721,-426,0,0,0,0,0,0,0,0,0,-1,1945,1450,0,0
728,-426,0,0,0,0,0,0,0,0,0,-1,1952,1450,0,0
735,-426,0,0,0,0,0,0,0,0,0,-1,1959,1450,0,0
742,-426,0,0,0,0,0,0,0,0,0,-1,1966,1450,0,0
749,-426,0,0,0,0,0,0,0,0,0,-1,1973,1450,0,0
756,-426,0,0,0,0,0,0,0,0,0,-1,1980,1450,0,0
763,-426,0,0,0,0,0,0,0,0,0,-1,1987,1450,0,0
770,-426,0,0,0,0,0,0,0,0,0,-1,1994,1450,0,0
777,-426,0,0,0,0,0,0,0,0,0,-1,2001,1450,0,0
784,-426,0,0,0,0,0,0,0,0,0,-1,2008,1450,0,0
791,-426,0,0,0,0,0,0,0,0,0,-1,2015,1450,0,0
798,-426,0,0,0,0,0,0,0,0,0,-1,2022,1450,0,0
805,-426,0,0,0,0,0,0,0,0,0,-1,2029,1450,0,0
812,-426,0,0,0,0,0,0,0,0,0,-1,2036,1450,0,0
-700,-433,0,0,0,0,0,0,0,0,0,-1,524,1457,0,0
-693,-433,0,0,0,0,0,0,0,0,0,-1,531,1457,0,0
-686,-433,0,0,0,0,0,0,0,0,0,-1,538,1457,0,0
-679,-433,0,0,0,0,0,0,0,0,0,-1,545,1457,0,0
-672,-433,0,0,0,0,0,0,0,0,0,-1,552,1457,0,0
-665,-433,0,0,0,0,0,0,0,0,0,-1,559,1457,0,0
-658,-433,0,0,0,0,0,0,0,0,0,-1,566,1457,0,0
-651,-433,0,0,0,0,0,0,0,0,0,-1,573,1457,0,0
-644,-433,0,0,0,0,0,0,0,0,0,-1,580,1457,0,0
-637,-433,0,0,0,0,0,0,0,0,0,-1,587,1457,0,0
-630,-433,0,0,0,0,0,0,0,0,0,-1,594,1457,0,0
-623,-433,0,0,0,0,0,0,0,0,0,-1,601,1457,0,0
-616,-433,0,0,0,0,0,0,0,0,0,-1,608,1457,0,0
-609,-433,0,0,0,0,0,0,0,0,0,-1,615,1457,0,0
-602,-433,0,0,0,0,0,0,0,0,0,-1,622,1457,0,0
-595,-433,0,0,0,0,0,0,0,0,0,-1,629,1457,0,0
-588,-433,-4.99121,-0.205688,0,0,0,0,0,0,0,-1,636,1457,-4.99119,0.205667
-581,-433,-4.98511,-1.28406,0,0,0,0,0,0,0,-1,643,1457,-4.9851,1.28405
-574,-433,-4.46533,0.146606,0.1013,0.0400895,0.157314,0.230958,-0.089569,0.689324,0.190964,0.0491758,650,1457,-4.46531,-0.146606
-567,-433,-3.95569,1.50366,0.0847829,0.0294926,0.12446,0.184631,-0.0703557,0.676112,0.152065,0.0489537,657,1457,-3.9557,-1.50372
-560,-433,-3.4118,2.83252,0,0,0,0,0,0,0,-1,664,1457,-3.41178,-2.83247
-553,-433,-4.99921,2.41516,0,0,0,0,0,0,0,-1,671,1457,-4.99923,-2.41522
-546,-433,-3.17957,3.80896,0,0,0,0,0,0,0,-1,678,1457,-3.17954,-3.80898
-539,-433,-3.26813,3.23108,0.0370377,0.00324974,0.0348606,0.0588822,-0.0185947,0.559766,0.0467037,0.0453299,685,1457,-3.26815,-3.23111
-532,-433,-3.04565,3.53345,0.0287301,0.000705843,0.0233063,0.0419122,-0.0124762,0.514741,0.0328984,0.0293951,692,1457,-3.04564,-3.5335
-525,-433,-3.10809,3.77417,0.0216345,-0.000805281,0.0150669,0.0292001,-0.00837092,0.465356,0.0227757,0.0168024,699,1457,-3.10807,-3.77417
-518,-433,-3.11835,4.005,0.0154949,-0.00187318,0.00786988,0.0185304,-0.00490868,0.368127,0.014274,0.0157792,706,1457,-3.11835,-4.00504
-511,-433,-3.12543,4.24561,0.0103829,-0.00233935,0.00350222,0.0112833,-0.00323973,0.251638,0.00880313,0.0159907,713,1457,-3.1254,-4.24566
-504,-433,-3.1369,4.46143,0.00639111,-0.00238159,0.00229536,0.00695539,-0.00294587,0.241055,0.00587065,0.0125835,720,1457,-3.13688,-4.46144
-497,-433,-3.11694,4.67444,0.00311031,-0.00345213,0.00089942,0.00323134,-0.00357317,0.13377,0.00393024,0.0129859,727,1457,-3.11695,-4.67449
-490,-433,-3.13831,4.88147,0.000921703,-0.00510173,-0.000264029,0.000933254,-0.00511328,-0.0437218,0.00375876,0.0154643,734,1457,-3.13832,-4.88146
-483,-433,-3.1452,5.15149,-0.000589936,-0.0064614,-0.00125292,-0.000333751,-0.00671759,-0.20169,0.00437139,0.0158763,741,1457,-3.14523,-5.15154
-476,-433,-3.13684,5.38354,-0.00135173,-0.00899754,-0.00209666,-0.000814519,-0.00953475,-0.250825,0.00610314,0.0107965,748,1457,-3.13681,-5.38353
-469,-433,-3.14063,5.59424,-0.00163508,-0.0127535,-0.00334577,-0.00070591,-0.0136826,-0.270888,0.00889578,0.0102748,755,1457,-3.14062,-5.59421
-462,-433,-3.16071,5.80774,-0.00413298,-0.0178146,-0.00555741,-0.00216008,-0.0197875,-0.341126,0.0125338,0.00963937,762,1457,-3.16071,-5.80773
-455,-433,-3.13049,5.99341,0,0,0,0,0,0,0,-1,769,1457,-3.13049,-5.99345
-448,-433,-2.91132,5.73474,-0.021367,-0.0317199,-0.0128071,-0.0127298,-0.0403571,-0.593342,0.0238235,0.0351894,776,1457,-2.91133,-5.7348
-441,-433,-2.74866,5.43103,-0.0336113,-0.0401309,-0.016997,-0.0195644,-0.0541778,-0.690654,0.0316793,0.0430362,783,1457,-2.74867,-5.43107
-434,-433,-2.45349,4.974,0,0,0,0,0,0,0,-1,790,1457,-2.45349,-4.97399
-427,-433,-1.86102,4.46985,0,0,0,0,0,0,0,-1,797,1457,-1.86105,-4.46989
-420,-433,-3.08325,5.78577,0,0,0,0,0,0,0,-1,804,1457,-3.08326,-5.7858
-413,-433,-9.20575,5.04602,0,0,0,0,0,0,0,-1,811,1457,-9.20575,-5.04599
-406,-433,-10.5039,3.70374,0,0,0,0,0,0,0,-1,818,1457,-10.5039,-3.70371
-399,-433,-12.055,2.83594,-0.134225,-0.0880323,-0.0373366,-0.0672257,-0.155031,-1.06239,0.0897698,0.0479599,825,1457,-12.055,-2.83594
-392,-433,-12.9772,1.6228,-0.147747,-0.102224,-0.0386292,-0.0801488,-0.169822,-1.05163,0.098098,0.0444329,832,1457,-12.9772,-1.62282
-385,-433,-13.7999,0.514771,0,0,0,0,0,0,0,-1,839,1457,-13.7999,-0.514788
-378,-433,0,0,0,0,0,0,0,0,0,-1,846,1457,0,0
-371,-433,0,0,0,0,0,0,0,0,0,-1,853,1457,0,0
-364,-433,0,0,0,0,0,0,0,0,0,-1,860,1457,0,0
-357,-433,0,0,0,0,0,0,0,0,0,-1,867,1457,0,0
-350,-433,0,0,0,0,0,0,0,0,0,-1,874,1457,0,0
-343,-433,0,0,0,0,0,0,0,0,0,-1,881,1457,0,0
-336,-433,0,0,0,0,0,0,0,0,0,-1,888,1457,0,0
-329,-433,0,0,0,0,0,0,0,0,0,-1,895,1457,0,0
-322,-433,0,0,0,0,0,0,0,0,0,-1,902,1457,0,0
-315,-433,0,0,0,0,0,0,0,0,0,-1,909,1457,0,0
-308,-433,0,0,0,0,0,0,0,0,0,-1,916,1457,0,0
-301,-433,0,0,0,0,0,0,0,0,0,-1,923,1457,0,0
-294,-433,0,0,0,0,0,0,0,0,0,-1,930,1457,0,0
-287,-433,0,0,0,0,0,0,0,0,0,-1,937,1457,0,0
-280,-433,0,0,0,0,0,0,0,0,0,-1,944,1457,0,0
-273,-433,0,0,0,0,0,0,0,0,0,-1,951,1457,0,0
-266,-433,0,0,0,0,0,0,0,0,0,-1,958,1457,0,0
-259,-433,0,0,0,0,0,0,0,0,0,-1,965,1457,0,0
-252,-433,0,0,0,0,0,0,0,0,0,-1,972,1457,0,0
-245,-433,0,0,0,0,0,0,0,0,0,-1,979,1457,0,0
-238,-433,0,0,0,0,0,0,0,0,0,-1,986,1457,0,0
-231,-433,0,0,0,0,0,0,0,0,0,-1,993,1457,0,0
-224,-433,0,0,0,0,0,0,0,0,0,-1,1000,1457,0,0
-217,-433,0,0,0,0,0,0,0,0,0,-1,1007,1457,0,0
-210,-433,0,0,0,0,0,0,0,0,0,-1,1014,1457,0,0
-203,-433,0,0,0,0,0,0,0,0,0,-1,1021,1457,0,0
-196,-433,0,0,0,0,0,0,0,0,0,-1,1028,1457,0,0
-189,-433,0,0,0,0,0,0,0,0,0,-1,1035,1457,0,0
-182,-433,0,0,0,0,0,0,0,0,0,-1,1042,1457,0,0
-175,-433,0,0,0,0,0,0,0,0,0,-1,1049,1457,0,0
-168,-433,0,0,0,0,0,0,0,0,0,-1,1056,1457,0,0
-161,-433,0,0,0,0,0,0,0,0,0,-1,1063,1457,0,0
-154,-433,0,0,0,0,0,0,0,0,0,-1,1070,1457,0,0
-147,-433,0,0,0,0,0,0,0,0,0,-1,1077,1457,0,0
-140,-433,0,0,0,0,0,0,0,0,0,-1,1084,1457,0,0
-133,-433,0,0,0,0,0,0,0,0,0,-1,1091,1457,0,0
-126,-433,0,0,0,0,0,0,0,0,0,-1,1098,1457,0,0
-119,-433,0,0,0,0,0,0,0,0,0,-1,1105,1457,0,0
-112,-433,0,0,0,0,0,0,0,0,0,-1,1112,1457,0,0
-105,-433,0,0,0,0,0,0,0,0,0,-1,1119,1457,0,0
-98,-433,0,0,0,0,0,0,0,0,0,-1,1126,1457,0,0
-91,-433,0,0,0,0,0,0,0,0,0,-1,1133,1457,0,0
-84,-433,0,0,0,0,0,0,0,0,0,-1,1140,1457,0,0
-77,-433,0,0,0,0,0,0,0,0,0,-1,1147,1457,0,0
-70,-433,0,0,0,0,0,0,0,0,0,-1,1154,1457,0,0
-63,-433,0,0,0,0,0,0,0,0,0,-1,1161,1457,0,0
-56,-433,0,0,0,0,0,0,0,0,0,-1,1168,1457,0,0
-49,-433,0,0,0,0,0,0,0,0,0,-1,1175,1457,0,0
-42,-433,0,0,0,0,0,0,0,0,0,-1,1182,1457,0,0
-35,-433,0,0,0,0,0,0,0,0,0,-1,1189,1457,0,0
-28,-433,0,0,0,0,0,0,0,0,0,-1,1196,1457,0,0
-21,-433,0,0,0,0,0,0,0,0,0,-1,1203,1457,0,0
-14,-433,0,0,0,0,0,0,0,0,0,-1,1210,1457,0,0
-7,-433,0,0,0,0,0,0,0,0,0,-1,1217,1457,0,0
0,-433,0,0,0,0,0,0,0,0,0,-1,1224,1457,0,0
7,-433,0,0,0,0,0,0,0,0,0,-1,1231,1457,0,0
14,-433,0,0,0,0,0,0,0,0,0,-1,1238,1457,0,0
21,-433,0,0,0,0,0,0,0,0,0,-1,1245,1457,0,0
28,-433,0,0,0,0,0,0,0,0,0,-1,1252,1457,0,0
35,-433,0,0,0,0,0,0,0,0,0,-1,1259,1457,0,0
42,-433,0,0,0,0,0,0,0,0,0,-1,1266,1457,0,0
49,-433,0,0,0,0,0,0,0,0,0,-1,1273,1457,0,0
56,-433,0,0,0,0,0,0,0,0,0,-1,1280,1457,0,0
63,-433,0,0,0,0,0,0,0,0,0,-1,1287,1457,0,0
70,-433,0,0,0,0,0,0,0,0,0,-1,1294,1457,0,0
77,-433,0,0,0,0,0,0,0,0,0,-1,1301,1457,0,0
84,-433,0,0,0,0,0,0,0,0,0,-1,1308,1457,0,0
91,-433,0,0,0,0,0,0,0,0,0,-1,1315,1457,0,0
98,-433,0,0,0,0,0,0,0,0,0,-1,1322,1457,0,0
105,-433,0,0,0,0,0,0,0,0,0,-1,1329,1457,0,0
112,-433,0,0,0,0,0,0,0,0,0,-1,1336,1457,0,0
119,-433,0,0,0,0,0,0,0,0,0,-1,1343,1457,0,0
126,-433,0,0,0,0,0,0,0,0,0,-1,1350,1457,0,0
133,-433,0,0,0,0,0,0,0,0,0,-1,1357,1457,0,0
140,-433,0,0,0,0,0,0,0,0,0,-1,1364,1457,0,0
147,-433,0,0,0,0,0,0,0,0,0,-1,1371,1457,0,0
154,-433,0,0,0,0,0,0,0,0,0,-1,1378,1457,0,0
161,-433,0,0,0,0,0,0,0,0,0,-1,1385,1457,0,0
168,-433,0,0,0,0,0,0,0,0,0,-1,1392,1457,0,0
175,-433,0,0,0,0,0,0,0,0,0,-1,1399,1457,0,0
182,-433,0,0,0,0,0,0,0,0,0,-1,1406,1457,0,0
189,-433,0,0,0,0,0,0,0,0,0,-1,1413,1457,0,0
196,-433,0,0,0,0,0,0,0,0,0,-1,1420,1457,0,0
203,-433,0,0,0,0,0,0,0,0,0,-1,1427,1457,0,0
210,-433,0,0,0,0,0,0,0,0,0,-1,1434,1457,0,0
217,-433,0,0,0,0,0,0,0,0,0,-1,1441,1457,0,0
224,-433,0,0,0,0,0,0,0,0,0,-1,1448,1457,0,0
231,-433,0,0,0,0,0,0,0,0,0,-1,1455,1457,0,0
238,-433,0,0,0,0,0,0,0,0,0,-1,1462,1457,0,0
245,-433,0,0,0,0,0,0,0,0,0,-1,1469,1457,0,0
252,-433,0,0,0,0,0,0,0,0,0,-1,1476,1457,0,0
259,-433,0,0,0,0,0,0,0,0,0,-1,1483,1457,0,0
266,-433,0,0,0,0,0,0,0,0,0,-1,1490,1457,0,0
273,-433,0,0,0,0,0,0,0,0,0,-1,1497,1457,0,0
280,-433,0,0,0,0,0,0,0,0,0,-1,1504,1457,0,0
287,-433,0,0,0,0,0,0,0,0,0,-1,1511,1457,0,0
294,-433,0,0,0,0,0,0,0,0,0,-1,1518,1457,0,0
301,-433,0,0,0,0,0,0,0,0,0,-1,1525,1457,0,0
308,-433,0,0,0,0,0,0,0,0,0,-1,1532,1457,0,0
315,-433,0,0,0,0,0,0,0,0,0,-1,1539,1457,0,0
322,-433,0,0,0,0,0,0,0,0,0,-1,1546,1457,0,0
329,-433,0,0,0,0,0,0,0,0,0,-1,1553,1457,0,0
336,-433,0,0,0,0,0,0,0,0,0,-1,1560,1457,0,0
343,-433,0,0,0,0,0,0,0,0,0,-1,1567,1457,0,0
350,-433,0,0,0,0,0,0,0,0,0,-1,1574,1457,0,0
357,-433,0,0,0,0,0,0,0,0,0,-1,1581,1457,0,0
364,-433,0,0,0,0,0,0,0,0,0,-1,1588,1457,0,0
371,-433,0,0,0,0,0,0,0,0,0,-1,1595,1457,0,0
378,-433,0,0,0,0,0,0,0,0,0,-1,1602,1457,0,0
385,-433,0,0,0,0,0,0,0,0,0,-1,1609,1457,0,0
392,-433,0,0,0,0,0,0,0,0,0,-1,1616,1457,0,0
399,-433,0,0,0,0,0,0,0,0,0,-1,1623,1457,0,0
406,-433,0,0,0,0,0,0,0,0,0,-1,1630,1457,0,0
413,-433,0,0,0,0,0,0,0,0,0,-1,1637,1457,0,0
420,-433,0,0,0,0,0,0,0,0,0,-1,1644,1457,0,0
427,-433,0,0,0,0,0,0,0,0,0,-1,1651,1457,0,0
434,-433,0,0,0,0,0,0,0,0,0,-1,1658,1457,0,0
441,-433,0,0,0,0,0,0,0,0,0,-1,1665,1457,0,0
448,-433,0,0,0,0,0,0,0,0,0,-1,1672,1457,0,0
455,-433,0,0,0,0,0,0,0,0,0,-1,1679,1457,0,0
462,-433,0,0,0,0,0,0,0,0,0,-1,1686,1457,0,0
469,-433,0,0,0,0,0,0,0,0,0,-1,1693,1457,0,0
476,-433,0,0,0,0,0,0,0,0,0,-1,1700,1457,0,0
483,-433,0,0,0,0,0,0,0,0,0,-1,1707,1457,0,0
490,-433,0,0,0,0,0,0,0,0,0,-1,1714,1457,0,0
497,-433,0,0,0,0,0,0,0,0,0,-1,1721,1457,0,0
504,-433,19.9058,3.03662,0,0,0,0,0,0,0,-1,1728,1457,19.9058,-3.03656
511,-433,19.0145,3.07837,0,0,0,0,0,0,0,-1,1735,1457,19.0146,-3.07834
518,-433,18.071,3.06433,0,0,0,0,0,0,0,-1,1742,1457,18.071,-3.06432
525,-433,17.2048,3.37085,0,0,0,0,0,0,0,-1,1749,1457,17.2049,-3.37083
532,-433,16.5637,3.36646,0,0,0,0,0,0,0,-1,1756,1457,16.5637,-3.36643
539,-433,15.9193,3.30396,0,0,0,0,0,0,0,-1,1763,1457,15.9193,-3.30394
546,-433,13.4397,7.4248,0,0,0,0,0,0,0,-1,1770,1457,13.4397,-7.42478
553,-433,13.3296,7.71143,-0.0562612,-0.0365938,0.0480186,0.0025877,-0.0954427,0.886396,0.0645083,0.0462306,1777,1457,13.3296,-7.71146
560,-433,13.299,7.97949,0,0,0,0,0,0,0,-1,1784,1457,13.299,-7.97949
567,-433,12.3103,6.77246,0,0,0,0,0,0,0,-1,1791,1457,12.3104,-6.77245
574,-433,11.6823,6.99609,0,0,0,0,0,0,0,-1,1798,1457,11.6823,-6.99607
581,-433,11.6187,7.18042,-0.0196335,-0.0182006,0.0217085,0.00280332,-0.0406374,0.801894,0.0280727,0.0426564,1805,1457,11.6186,-7.18042
588,-433,11.499,7.4325,-0.0155565,-0.0143635,0.0166164,0.0016671,-0.031587,0.803339,0.0216352,0.0353039,1812,1457,11.499,-7.43248
595,-433,11.3296,7.43445,-0.0122974,-0.011173,0.0124429,0.000720435,-0.0241908,0.807976,0.0163726,0.0227055,1819,1457,11.3296,-7.43439
602,-433,11.3535,7.24756,-0.00946903,-0.00867509,0.00907757,1.41878e-05,-0.0181583,0.80725,0.0121103,0.0199907,1826,1457,11.3535,-7.24752
609,-433,11.3521,7.0177,-0.0070921,-0.00638139,0.00633817,-0.000388618,-0.0130849,0.813402,0.00859663,0.0160433,1833,1457,11.3521,-7.01773
616,-433,11.3479,6.81689,-0.00447296,-0.00444602,0.00398831,-0.000471159,-0.00844782,0.787087,0.00548158,0.0137069,1840,1457,11.3479,-6.81684
623,-433,11.3383,6.63562,-0.00225202,-0.00289976,0.00195436,-0.000594876,-0.00455691,0.703286,0.00286034,0.0103667,1847,1457,11.3383,-6.63563
630,-433,11.3385,6.44653,-0.000500723,-0.00198518,0.00041422,-0.000392963,-0.00209294,0.254511,0.0012845,0.0127252,1854,1457,11.3385,-6.44651
637,-433,11.3445,6.24438,0.00125116,-0.00108822,-0.00141053,0.0019139,-0.00175095,-0.439235,0.0021166,0.0141123,1861,1457,11.3445,-6.24442
644,-433,11.3362,6.06641,0.00270139,-0.000581507,-0.00309625,0.00456439,-0.0024445,-0.541664,0.00410782,0.0136809,1868,1457,11.3361,-6.06642
651,-433,11.3491,5.87329,0.00381636,-0.000238995,-0.00475795,0.00696068,-0.00338332,-0.583969,0.00608999,0.0101665,1875,1457,11.3492,-5.87329
658,-433,11.3466,5.61047,0.00435,1.95616e-05,-0.00637274,0.00891531,-0.00454575,-0.621635,0.00790705,0.0131251,1882,1457,11.3466,-5.61045
665,-433,11.3068,5.34668,0.00435847,0.000266318,-0.00795891,0.0105301,-0.00590531,-0.659583,0.0096134,0.0198376,1889,1457,11.3068,-5.34672
672,-433,11.1058,5.12122,0.00352192,9.82036e-05,-0.00919508,0.0111631,-0.00754301,-0.693366,0.0108672,0.0399656,1896,1457,11.1059,-5.12126
679,-433,10.7129,5.34827,0.00173409,-8.67428e-05,-0.010191,0.0110552,-0.00940788,-0.740849,0.0118271,0.0440999,1903,1457,10.7129,-5.34824
686,-433,10.5294,5.71045,0,0,0,0,0,0,0,-1,1910,1457,10.5294,-5.71048
693,-433,8.27722,4.4519,0,0,0,0,0,0,0,-1,1917,1457,8.27728,-4.45186
700,-433,7.16809,-1.5166,0,0,0,0,0,0,0,-1,1924,1457,7.16806,1.51656
707,-433,8.68359,-2.82202,0,0,0,0,0,0,0,-1,1931,1457,8.68359,2.82197
714,-433,0,0,0,0,0,0,0,0,0,-1,1938,1457,0,0
721,-433,0,0,0,0,0,0,0,0,0,-1,1945,1457,0,0
728,-433,0,0,0,0,0,0,0,0,0,-1,1952,1457,0,0
735,-433,0,0,0,0,0,0,0,0,0,-1,1959,1457,0,0
742,-433,0,0,0,0,0,0,0,0,0,-1,1966,1457,0,0
749,-433,0,0,0,0,0,0,0,0,0,-1,1973,1457,0,0
756,-433,0,0,0,0,0,0,0,0,0,-1,1980,1457,0,0
763,-433,0,0,0,0,0,0,0,0,0,-1,1987,1457,0,0
770,-433,0,0,0,0,0,0,0,0,0,-1,1994,1457,0,0
777,-433,0,0,0,0,0,0,0,0,0,-1,2001,1457,0,0
784,-433,0,0,0,0,0,0,0,0,0,-1,2008,1457,0,0
791,-433,0,0,0,0,0,0,0,0,0,-1,2015,1457,0,0
798,-433,0,0,0,0,0,0,0,0,0,-1,2022,1457,0,0
805,-433,0,0,0,0,0,0,0,0,0,-1,2029,1457,0,0
812,-433,0,0,0,0,0,0,0,0,0,-1,2036,1457,0,0
-700,-440,0,0,0,0,0,0,0,0,0,-1,524,1464,0,0
-693,-440,0,0,0,0,0,0,0,0,0,-1,531,1464,0,0
-686,-440,0,0,0,0,0,0,0,0,0,-1,538,1464,0,0
-679,-440,0,0,0,0,0,0,0,0,0,-1,545,1464,0,0
-672,-440,0,0,0,0,0,0,0,0,0,-1,552,1464,0,0
-665,-440,0,0,0,0,0,0,0,0,0,-1,559,1464,0,0
-658,-440,0,0,0,0,0,0,0,0,0,-1,566,1464,0,0
-651,-440,0,0,0,0,0,0,0,0,0,-1,573,1464,0,0
-644,-440,0,0,0,0,0,0,0,0,0,-1,580,1464,0,0
-637,-440,0,0,0,0,0,0,0,0,0,-1,587,1464,0,0
-630,-440,0,0,0,0,0,0,0,0,0,-1,594,1464,0,0
-623,-440,0,0,0,0,0,0,0,0,0,-1,601,1464,0,0
-616,-440,0,0,0,0,0,0,0,0,0,-1,608,1464,0,0
-609,-440,0,0,0,0,0,0,0,0,0,-1,615,1464,0,0
-602,-440,0,0,0,0,0,0,0,0,0,-1,622,1464,0,0
-595,-440,0,0,0,0,0,0,0,0,0,-1,629,1464,0,0
-588,-440,0,0,0,0,0,0,0,0,0,-1,636,1464,0,0
-581,-440,-5.65979,-1.33923,0,0,0,0,0,0,0,-1,643,1464,-5.65977,1.33928
-574,-440,-5.4505,0.108032,0.0914048,0.040554,0.180465,0.248227,-0.116268,0.715415,0.214989,0.0469113,650,1464,-5.4505,-0.10799
-567,-440,-5.19031,1.42065,0.0852775,0.0302516,0.140077,0.200518,-0.0849888,0.688426,0.169276,0.0467869,657,1464,-5.19029,-1.42063
-560,-440,-6.47632,1.13916,0,0,0,0,0,0,0,-1,664,1464,-6.47633,-1.13919
-553,-440,-5.63623,1.43408,0.0659711,0.0127956,0.0771167,0.120955,-0.042188,0.619393,0.0977814,0.0463505,671,1464,-5.63622,-1.43404
-546,-440,-4.55383,1.94189,0.0552025,0.00664779,0.0541868,0.0903019,-0.0284516,0.574791,0.071595,0.0460536,678,1464,-4.55381,-1.94195
-539,-440,-3.85944,2.60547,0.0447357,0.00225329,0.0365618,0.0657787,-0.0187897,0.522245,0.0512764,0.0487626,685,1464,-3.85946,-2.60542
-532,-440,-3.3067,3.06787,0,0,0,0,0,0,0,-1,692,1464,-3.30672,-3.0679
-525,-440,-2.92828,3.78967,0.0269338,-0.00197848,0.0147017,0.0330961,-0.00814079,0.39691,0.0252195,0.018189,699,1464,-2.92826,-3.78972
-518,-440,-2.91833,3.98303,0.0199033,-0.00284689,0.0069977,0.0218834,-0.00482697,0.275752,0.0164359,0.013743,706,1464,-2.91834,-3.98304
-511,-440,-2.91986,4.21814,0.0139808,-0.00303096,0.00246717,0.0143314,-0.00338155,0.141154,0.0108584,0.0158872,713,1464,-2.91983,-4.21815
-504,-440,-2.90485,4.45105,0.00933599,-0.00253291,0.00157729,0.00954202,-0.00273894,0.12989,0.00744423,0.018072,720,1464,-2.90487,-4.45108
-497,-440,-2.88916,4.66309,0.00553689,-0.00313649,0.000466896,0.00556195,-0.00316155,0.0536244,0.00509967,0.0204681,727,1464,-2.88916,-4.66311
-490,-440,-2.89355,4.87366,0.00305163,-0.00419722,-0.000378034,0.00307129,-0.00421688,-0.051963,0.00422512,0.0220603,734,1464,-2.89358,-4.87371
-483,-440,-2.91058,5.13721,0.00143631,-0.00472782,-0.00105202,0.00161091,-0.00490242,-0.164468,0.00391726,0.0196511,741,1464,-2.91059,-5.13716
-476,-440,-2.91272,5.35376,0.00074119,-0.00642946,-0.00150722,0.00104511,-0.00673338,-0.198977,0.00487478,0.0133328,748,1464,-2.9127,-5.35375
-469,-440,-2.9231,5.58667,0.000661797,-0.00937124,-0.0024502,0.00122819,-0.00993764,-0.227173,0.00707014,0.0121831,755,1464,-2.9231,-5.58663
-462,-440,-2.92004,5.82471,-0.000930849,-0.0134245,-0.0042724,0.000390436,-0.0147458,-0.29993,0.00996321,0.012783,762,1464,-2.92004,-5.82472
-455,-440,-2.86987,6.08057,-0.00531343,-0.0186334,-0.00695326,-0.00234517,-0.0216017,-0.403468,0.0136865,0.0162722,769,1464,-2.86986,-6.08052
-448,-440,-2.66644,6.19055,-0.0138287,-0.025733,-0.0103522,-0.00783954,-0.0317222,-0.524495,0.0190796,0.0278713,776,1464,-2.66643,-6.19052
-441,-440,-2.80573,5.90479,-0.0239853,-0.0335314,-0.0140319,-0.0139369,-0.0435799,-0.621459,0.0256998,0.0380693,783,1464,-2.80571,-5.90484
-434,-440,-2.86816,5.73621,0,0,0,0,0,0,0,-1,790,1464,-2.86815,-5.73623
-427,-440,-2.83337,6.2533,0,0,0,0,0,0,0,-1,797,1464,-2.8334,-6.25334
-420,-440,-2.94348,6.27234,0,0,0,0,0,0,0,-1,804,1464,-2.9435,-6.2723
-413,-440,-4.41571,5.30579,0,0,0,0,0,0,0,-1,811,1464,-4.41569,-5.30576
-406,-440,-5.2887,5.20264,0,0,0,0,0,0,0,-1,818,1464,-5.2887,-5.20261
-399,-440,-12.7318,3.94421,0,0,0,0,0,0,0,-1,825,1464,-12.7318,-3.94419
-392,-440,-13.5565,2.51855,-0.132098,-0.0857287,-0.031412,-0.0698718,-0.147955,-1.10331,0.0854656,0.0483777,832,1464,-13.5565,-2.51861
-385,-440,-14.6741,1.39795,0,0,0,0,0,0,0,-1,839,1464,-14.6741,-1.39801
-378,-440,-15.8063,0.293457,0,0,0,0,0,0,0,-1,846,1464,-15.8063,-0.293412
-371,-440,0,0,0,0,0,0,0,0,0,-1,853,1464,0,0
-364,-440,0,0,0,0,0,0,0,0,0,-1,860,1464,0,0
-357,-440,0,0,0,0,0,0,0,0,0,-1,867,1464,0,0
-350,-440,0,0,0,0,0,0,0,0,0,-1,874,1464,0,0
-343,-440,0,0,0,0,0,0,0,0,0,-1,881,1464,0,0
-336,-440,0,0,0,0,0,0,0,0,0,-1,888,1464,0,0
-329,-440,0,0,0,0,0,0,0,0,0,-1,895,1464,0,0
-322,-440,0,0,0,0,0,0,0,0,0,-1,902,1464,0,0
-315,-440,0,0,0,0,0,0,0,0,0,-1,909,1464,0,0
-308,-440,0,0,0,0,0,0,0,0,0,-1,916,1464,0,0
-301,-440,0,0,0,0,0,0,0,0,0,-1,923,1464,0,0
-294,-440,0,0,0,0,0,0,0,0,0,-1,930,1464,0,0
-287,-440,0,0,0,0,0,0,0,0,0,-1,937,1464,0,0
-280,-440,0,0,0,0,0,0,0,0,0,-1,944,1464,0,0
-273,-440,0,0,0,0,0,0,0,0,0,-1,951,1464,0,0
-266,-440,0,0,0,0,0,0,0,0,0,-1,958,1464,0,0
-259,-440,0,0,0,0,0,0,0,0,0,-1,965,1464,0,0
-252,-440,0,0,0,0,0,0,0,0,0,-1,972,1464,0,0
-245,-440,0,0,0,0,0,0,0,0,0,-1,979,1464,0,0
-238,-440,0,0,0,0,0,0,0,0,0,-1,986,1464,0,0
-231,-440,0,0,0,0,0,0,0,0,0,-1,993,1464,0,0
-224,-440,0,0,0,0,0,0,0,0,0,-1,1000,1464,0,0
-217,-440,0,0,0,0,0,0,0,0,0,-1,1007,1464,0,0
-210,-440,0,0,0,0,0,0,0,0,0,-1,1014,1464,0,0
-203,-440,0,0,0,0,0,0,0,0,0,-1,1021,1464,0,0
-196,-440,0,0,0,0,0,0,0,0,0,-1,1028,1464,0,0
-189,-440,0,0,0,0,0,0,0,0,0,-1,1035,1464,0,0
-182,-440,0,0,0,0,0,0,0,0,0,-1,1042,1464,0,0
-175,-440,0,0,0,0,0,0,0,0,0,-1,1049,1464,0,0
-168,-440,0,0,0,0,0,0,0,0,0,-1,1056,1464,0,0
-161,-440,0,0,0,0,0,0,0,0,0,-1,1063,1464,0,0
-154,-440,0,0,0,0,0,0,0,0,0,-1,1070,1464,0,0
-147,-440,0,0,0,0,0,0,0,0,0,-1,1077,1464,0,0
-140,-440,0,0,0,0,0,0,0,0,0,-1,1084,1464,0,0
-133,-440,0,0,0,0,0,0,0,0,0,-1,1091,1464,0,0
-126,-440,0,0,0,0,0,0,0,0,0,-1,1098,1464,0,0
-119,-440,0,0,0,0,0,0,0,0,0,-1,1105,1464,0,0
-112,-440,0,0,0,0,0,0,0,0,0,-1,1112,1464,0,0
-105,-440,0,0,0,0,0,0,0,0,0,-1,1119,1464,0,0
-98,-440,0,0,0,0,0,0,0,0,0,-1,1126,1464,0,0
-91,-440,0,0,0,0,0,0,0,0,0,-1,1133,1464,0,0
-84,-440,0,0,0,0,0,0,0,0,0,-1,1140,1464,0,0
-77,-440,0,0,0,0,0,0,0,0,0,-1,1147,1464,0,0
-70,-440,0,0,0,0,0,0,0,0,0,-1,1154,1464,0,0
-63,-440,0,0,0,0,0,0,0,0,0,-1,1161,1464,0,0
-56,-440,0,0,0,0,0,0,0,0,0,-1,1168,1464,0,0
-49,-440,0,0,0,0,0,0,0,0,0,-1,1175,1464,0,0
-42,-440,0,0,0,0,0,0,0,0,0,-1,1182,1464,0,0
-35,-440,0,0,0,0,0,0,0,0,0,-1,1189,1464,0,0
-28,-440,0,0,0,0,0,0,0,0,0,-1,1196,1464,0,0
-21,-440,0,0,0,0,0,0,0,0,0,-1,1203,1464,0,0
-14,-440,0,0,0,0,0,0,0,0,0,-1,1210,1464,0,0
-7,-440,0,0,0,0,0,0,0,0,0,-1,1217,1464,0,0
0,-440,0,0,0,0,0,0,0,0,0,-1,1224,1464,0,0
7,-440,0,0,0,0,0,0,0,0,0,-1,1231,1464,0,0
14,-440,0,0,0,0,0,0,0,0,0,-1,1238,1464,0,0
21,-440,0,0,0,0,0,0,0,0,0,-1,1245,1464,0,0
28,-440,0,0,0,0,0,0,0,0,0,-1,1252,1464,0,0
35,-440,0,0,0,0,0,0,0,0,0,-1,1259,1464,0,0
42,-440,0,0,0,0,0,0,0,0,0,-1,1266,1464,0,0
49,-440,0,0,0,0,0,0,0,0,0,-1,1273,1464,0,0
56,-440,0,0,0,0,0,0,0,0,0,-1,1280,1464,0,0
63,-440,0,0,0,0,0,0,0,0,0,-1,1287,1464,0,0
70,-440,0,0,0,0,0,0,0,0,0,-1,1294,1464,0,0
77,-440,0,0,0,0,0,0,0,0,0,-1,1301,1464,0,0
84,-440,0,0,0,0,0,0,0,0,0,-1,1308,1464,0,0
91,-440,0,0,0,0,0,0,0,0,0,-1,1315,1464,0,0
98,-440,0,0,0,0,0,0,0,0,0,-1,1322,1464,0,0
105,-440,0,0,0,0,0,0,0,0,0,-1,1329,1464,0,0
112,-440,0,0,0,0,0,0,0,0,0,-1,1336,1464,0,0
119,-440,0,0,0,0,0,0,0,0,0,-1,1343,1464,0,0
126,-440,0,0,0,0,0,0,0,0,0,-1,1350,1464,0,0
133,-440,0,0,0,0,0,0,0,0,0,-1,1357,1464,0,0
140,-440,0,0,0,0,0,0,0,0,0,-1,1364,1464,0,0
147,-440,0,0,0,0,0,0,0,0,0,-1,1371,1464,0,0
154,-440,0,0,0,0,0,0,0,0,0,-1,1378,1464,0,0
161,-440,0,0,0,0,0,0,0,0,0,-1,1385,1464,0,0
168,-440,0,0,0,0,0,0,0,0,0,-1,1392,1464,0,0
175,-440,0,0,0,0,0,0,0,0,0,-1,1399,1464,0,0
182,-440,0,0,0,0,0,0,0,0,0,-1,1406,1464,0,0
189,-440,0,0,0,0,0,0,0,0,0,-1,1413,1464,0,0
196,-440,0,0,0,0,0,0,0,0,0,-1,1420,1464,0,0
203,-440,0,0,0,0,0,0,0,0,0,-1,1427,1464,0,0
210,-440,0,0,0,0,0,0,0,0,0,-1,1434,1464,0,0
217,-440,0,0,0,0,0,0,0,0,0,-1,1441,1464,0,0
224,-440,0,0,0,0,0,0,0,0,0,-1,1448,1464,0,0
231,-440,0,0,0,0,0,0,0,0,0,-1,1455,1464,0,0
238,-440,0,0,0,0,0,0,0,0,0,-1,1462,1464,0,0
245,-440,0,0,0,0,0,0,0,0,0,-1,1469,1464,0,0
252,-440,0,0,0,0,0,0,0,0,0,-1,1476,1464,0,0
259,-440,0,0,0,0,0,0,0,0,0,-1,1483,1464,0,0
266,-440,0,0,0,0,0,0,0,0,0,-1,1490,1464,0,0
273,-440,0,0,0,0,0,0,0,0,0,-1,1497,1464,0,0
280,-440,0,0,0,0,0,0,0,0,0,-1,1504,1464,0,0
287,-440,0,0,0,0,0,0,0,0,0,-1,1511,1464,0,0
294,-440,0,0,0,0,0,0,0,0,0,-1,1518,1464,0,0
301,-440,0,0,0,0,0,0,0,0,0,-1,1525,1464,0,0
308,-440,0,0,0,0,0,0,0,0,0,-1,1532,1464,0,0
315,-440,0,0,0,0,0,0,0,0,0,-1,1539,1464,0,0
322,-440,0,0,0,0,0,0,0,0,0,-1,1546,1464,0,0
329,-440,0,0,0,0,0,0,0,0,0,-1,1553,1464,0,0
336,-440,0,0,0,0,0,0,0,0,0,-1,1560,1464,0,0
343,-440,0,0,0,0,0,0,0,0,0,-1,1567,1464,0,0
350,-440,0,0,0,0,0,0,0,0,0,-1,1574,1464,0,0
357,-440,0,0,0,0,0,0,0,0,0,-1,1581,1464,0,0
364,-440,0,0,0,0,0,0,0,0,0,-1,1588,1464,0,0
371,-440,0,0,0,0,0,0,0,0,0,-1,1595,1464,0,0
378,-440,0,0,0,0,0,0,0,0,0,-1,1602,1464,0,0
385,-440,0,0,0,0,0,0,0,0,0,-1,1609,1464,0,0
392,-440,0,0,0,0,0,0,0,0,0,-1,1616,1464,0,0
399,-440,0,0,0,0,0,0,0,0,0,-1,1623,1464,0,0
406,-440,0,0,0,0,0,0,0,0,0,-1,1630,1464,0,0
413,-440,0,0,0,0,0,0,0,0,0,-1,1637,1464,0,0
420,-440,0,0,0,0,0,0,0,0,0,-1,1644,1464,0,0
427,-440,0,0,0,0,0,0,0,0,0,-1,1651,1464,0,0
434,-440,0,0,0,0,0,0,0,0,0,-1,1658,1464,0,0
441,-440,0,0,0,0,0,0,0,0,0,-1,1665,1464,0,0
448,-440,0,0,0,0,0,0,0,0,0,-1,1672,1464,0,0
455,-440,0,0,0,0,0,0,0,0,0,-1,1679,1464,0,0
462,-440,0,0,0,0,0,0,0,0,0,-1,1686,1464,0,0
469,-440,0,0,0,0,0,0,0,0,0,-1,1693,1464,0,0
476,-440,0,0,0,0,0,0,0,0,0,-1,1700,1464,0,0
483,-440,0,0,0,0,0,0,0,0,0,-1,1707,1464,0,0
490,-440,0,0,0,0,0,0,0,0,0,-1,1714,1464,0,0
497,-440,18.4883,2.19067,0,0,0,0,0,0,0,-1,1721,1464,18.4882,-2.19063
504,-440,18.0649,2.55554,0,0,0,0,0,0,0,-1,1728,1464,18.0649,-2.55556
511,-440,17.5754,2.77832,0,0,0,0,0,0,0,-1,1735,1464,17.5754,-2.77826
518,-440,16.9017,3.07861,0,0,0,0,0,0,0,-1,1742,1464,16.9018,-3.07859
525,-440,16.1831,3.62671,0,0,0,0,0,0,0,-1,1749,1464,16.1831,-3.62674
532,-440,15.4319,3.64392,0,0,0,0,0,0,0,-1,1756,1464,15.4318,-3.64391
539,-440,14.8214,3.41321,0,0,0,0,0,0,0,-1,1763,1464,14.8214,-3.4132
546,-440,13.0155,7.45776,0,0,0,0,0,0,0,-1,1770,1464,13.0155,-7.45778
553,-440,12.8324,7.61572,0,0,0,0,0,0,0,-1,1777,1464,12.8325,-7.61568
560,-440,12.6772,7.76062,0,0,0,0,0,0,0,-1,1784,1464,12.6772,-7.76062
567,-440,11.8939,7.35193,0,0,0,0,0,0,0,-1,1791,1464,11.8939,-7.35191
574,-440,11.2955,7.70837,0,0,0,0,0,0,0,-1,1798,1464,11.2955,-7.70835
581,-440,11.2832,7.63196,-0.0148652,-0.015265,0.0171549,0.00209096,-0.0322211,0.779571,0.0222106,0.0374016,1805,1464,11.2832,-7.632
588,-440,11.1272,7.67981,-0.0114854,-0.0118335,0.0130146,0.00135639,-0.0246752,0.778712,0.0169204,0.0261725,1812,1464,11.1272,-7.67977
595,-440,11.1484,7.4812,-0.00885119,-0.00906266,0.00960998,0.000653639,-0.0185675,0.779897,0.0126019,0.0193615,1819,1464,11.1484,-7.48116
602,-440,11.1541,7.25281,-0.00652313,-0.00697813,0.00685141,0.000104554,-0.0136058,0.768802,0.0091056,0.0187332,1826,1464,11.154,-7.25278
609,-440,11.1364,7.03601,-0.00444812,-0.0050899,0.004543,-0.000214693,-0.00932333,0.75014,0.00614524,0.0169509,1833,1464,11.1364,-7.03604
616,-440,11.1205,6.85767,-0.00218057,-0.0035392,0.00246115,-0.000306707,-0.00541306,0.650743,0.00351094,0.0178763,1840,1464,11.1205,-6.85769
623,-440,11.1467,6.64136,-0.00017821,-0.00230065,0.000544787,-4.6543e-05,-0.00243232,0.237138,0.00160626,0.0131134,1847,1464,11.1467,-6.64136
630,-440,11.1434,6.43445,0.00148515,-0.00168116,-0.000864117,0.00170563,-0.00190163,-0.249814,0.00208368,0.0108773,1854,1464,11.1435,-6.43445
637,-440,11.1454,6.24011,0.00332896,-0.00108319,-0.00271582,0.0046218,-0.00237604,-0.444299,0.00410897,0.0149562,1861,1464,11.1454,-6.24011
644,-440,11.1658,6.06665,0.00503495,-0.000819295,-0.00462316,0.00757972,-0.00336407,-0.503181,0.00647277,0.013103,1868,1464,11.1657,-6.06667
651,-440,11.1857,5.86462,0.00649994,-0.000683667,-0.00670198,0.0105119,-0.00469565,-0.539409,0.0089916,0.0109743,1875,1464,11.1857,-5.86461
658,-440,11.165,5.646,0.00756877,-0.000547001,-0.00901702,0.0133989,-0.00637715,-0.573961,0.0116552,0.015763,1882,1464,11.165,-5.64598
665,-440,11.1466,5.33801,0.0082388,-0.000350534,-0.0115814,0.0162962,-0.00840788,-0.607845,0.0145032,0.0297879,1889,1464,11.1466,-5.33803
672,-440,10.6515,5.10657,0.00829202,-0.000356228,-0.0142475,0.0188571,-0.0109214,-0.638066,0.0173949,0.045356,1896,1464,10.6515,-5.10653
679,-440,10.3613,4.80359,0,0,0,0,0,0,0,-1,1903,1464,10.3614,-4.80353
686,-440,11.0956,5.57227,0,0,0,0,0,0,0,-1,1910,1464,11.0956,-5.57231
693,-440,9.88635,2.89795,0,0,0,0,0,0,0,-1,1917,1464,9.88638,-2.89798
700,-440,7.07825,-2.62061,0,0,0,0,0,0,0,-1,1924,1464,7.07829,2.62057
707,-440,0,0,0,0,0,0,0,0,0,-1,1931,1464,0,0
714,-440,0,0,0,0,0,0,0,0,0,-1,1938,1464,0,0
721,-440,0,0,0,0,0,0,0,0,0,-1,1945,1464,0,0
728,-440,0,0,0,0,0,0,0,0,0,-1,1952,1464,0,0
735,-440,0,0,0,0,0,0,0,0,0,-1,1959,1464,0,0
742,-440,0,0,0,0,0,0,0,0,0,-1,1966,1464,0,0
749,-440,0,0,0,0,0,0,0,0,0,-1,1973,1464,0,0
756,-440,0,0,0,0,0,0,0,0,0,-1,1980,1464,0,0
763,-440,0,0,0,0,0,0,0,0,0,-1,1987,1464,0,0
770,-440,0,0,0,0,0,0,0,0,0,-1,1994,1464,0,0
777,-440,0,0,0,0,0,0,0,0,0,-1,2001,1464,0,0
784,-440,0,0,0,0,0,0,0,0,0,-1,2008,1464,0,0
791,-440,0,0,0,0,0,0,0,0,0,-1,2015,1464,0,0
798,-440,0,0,0,0,0,0,0,0,0,-1,2022,1464,0,0
805,-440,0,0,0,0,0,0,0,0,0,-1,2029,1464,0,0
812,-440,0,0,0,0,0,0,0,0,0,-1,2036,1464,0,0
-700,-447,0,0,0,0,0,0,0,0,0,-1,524,1471,0,0
-693,-447,0,0,0,0,0,0,0,0,0,-1,531,1471,0,0
-686,-447,0,0,0,0,0,0,0,0,0,-1,538,1471,0,0
-679,-447,0,0,0,0,0,0,0,0,0,-1,545,1471,0,0
-672,-447,0,0,0,0,0,0,0,0,0,-1,552,1471,0,0
-665,-447,0,0,0,0,0,0,0,0,0,-1,559,1471,0,0
-658,-447,0,0,0,0,0,0,0,0,0,-1,566,1471,0,0
-651,-447,0,0,0,0,0,0,0,0,0,-1,573,1471,0,0
-644,-447,0,0,0,0,0,0,0,0,0,-1,580,1471,0,0
-637,-447,0,0,0,0,0,0,0,0,0,-1,587,1471,0,0
-630,-447,0,0,0,0,0,0,0,0,0,-1,594,1471,0,0
-623,-447,0,0,0,0,0,0,0,0,0,-1,601,1471,0,0
-616,-447,0,0,0,0,0,0,0,0,0,-1,608,1471,0,0
-609,-447,0,0,0,0,0,0,0,0,0,-1,615,1471,0,0
-602,-447,0,0,0,0,0,0,0,0,0,-1,622,1471,0,0
-595,-447,0,0,0,0,0,0,0,0,0,-1,629,1471,0,0
-588,-447,0,0,0,0,0,0,0,0,0,-1,636,1471,0,0
-581,-447,-7.06482,-1.50476,0,0,0,0,0,0,0,-1,643,1471,-7.0648,1.50474
-574,-447,-6.88092,-0.00585938,0.103585,0.0436469,0.193761,0.269681,-0.122449,0.708671,0.231654,0.047041,650,1471,-6.88095,0.00589852
-567,-447,-6.55432,1.34558,0.096935,0.0315805,0.149062,0.216859,-0.0883435,0.677495,0.181341,0.042721,657,1471,-6.55432,-1.34557
-560,-447,-7.26056,-0.153687,0,0,0,0,0,0,0,-1,664,1471,-7.26055,0.153651
-553,-447,-6.18774,0.366699,0.0762974,0.0121298,0.0799576,0.130368,-0.0419408,0.594602,0.103757,0.0451525,671,1471,-6.18776,-0.366722
-546,-447,-5.05933,1.11792,0.0645962,0.00548669,0.0549249,0.0974131,-0.0273303,0.53857,0.0757146,0.0462145,678,1471,-5.05933,-1.11789
-539,-447,-4.24731,2.29138,0,0,0,0,0,0,0,-1,685,1471,-4.24733,-2.29137
-532,-447,-2.44318,3.50073,0,0,0,0,0,0,0,-1,692,1471,-2.44316,-3.5007
-525,-447,-2.54584,3.78259,0.0327899,-0.00321326,0.012742,0.0368432,-0.00726652,0.30798,0.0273085,0.0293129,699,1471,-2.54585,-3.78256
-518,-447,-2.66095,3.94702,0.0247786,-0.00383995,0.00490693,0.0255966,-0.00465791,0.165176,0.0188103,0.0207076,706,1471,-2.66093,-3.94703
-511,-447,-2.67657,4.18994,0.0179196,-0.0037684,0.000532384,0.0179327,-0.00378146,0.0245277,0.0133947,0.0156679,713,1471,-2.6766,-4.18989
-504,-447,-2.67126,4.44861,0.0124779,-0.00278815,0.000119536,0.0124788,-0.00278908,0.00782957,0.00938802,0.0192046,720,1471,-2.67127,-4.44863
-497,-447,-2.69055,4.67224,0.0080278,-0.00299526,-0.00055504,0.00805568,-0.00302314,-0.0501835,0.00661267,0.0233196,727,1471,-2.69056,-4.67222
-490,-447,-2.69183,4.88831,0.00507107,-0.00357904,-0.000979797,0.00518066,-0.00368864,-0.11139,0.00514479,0.02415,734,1471,-2.69185,-4.88829
-483,-447,-2.6861,5.13391,0.00312059,-0.00343285,-0.0012779,0.00336096,-0.00367322,-0.185925,0.00406252,0.0215866,741,1471,-2.68613,-5.13389
-476,-447,-2.68707,5.34656,0.00220896,-0.00449499,-0.00130981,0.00245578,-0.00474181,-0.186257,0.00422482,0.0142926,748,1471,-2.68707,-5.34655
-469,-447,-2.69855,5.5874,0.00206388,-0.00683116,-0.00192446,0.00246238,-0.00722966,-0.204189,0.00581697,0.0132987,755,1471,-2.69855,-5.58743
-462,-447,-2.70172,5.82983,0.00101712,-0.0100349,-0.00333641,0.00194621,-0.010964,-0.271591,0.008037,0.012381,762,1471,-2.70171,-5.82988
-455,-447,-2.72479,6.07239,-0.00185387,-0.0143036,-0.00544747,0.000193132,-0.0163506,-0.359447,0.0109654,0.0126457,769,1471,-2.72482,-6.07238
-448,-447,-2.63666,6.27991,-0.00798058,-0.0204143,-0.00819999,-0.00390719,-0.0244877,-0.461049,0.0151911,0.0180497,776,1471,-2.63667,-6.27995
-441,-447,-2.59747,6.39014,-0.0159468,-0.0273022,-0.0112913,-0.00898615,-0.0342629,-0.55244,0.0205135,0.0288273,783,1471,-2.59748,-6.3901
-434,-447,-2.63989,6.46448,-0.0256294,-0.0340469,-0.0145,-0.0147397,-0.0449366,-0.644149,0.0264508,0.0380714,790,1471,-2.63988,-6.4645
-427,-447,-1.98102,6.1394,0,0,0,0,0,0,0,-1,797,1471,-1.98103,-6.1394
-420,-447,-2.7179,5.80396,0,0,0,0,0,0,0,-1,804,1471,-2.71788,-5.80398
-413,-447,-2.53137,5.29395,0,0,0,0,0,0,0,-1,811,1471,-2.53136,-5.29396
-406,-447,-4.48694,5.62988,0,0,0,0,0,0,0,-1,818,1471,-4.48696,-5.62994
-399,-447,0.0134888,0.687622,0,0,0,0,0,0,0,-1,825,1471,0.0134841,-0.68767
-392,-447,-14.0646,3.76147,0,0,0,0,0,0,0,-1,832,1471,-14.0646,-3.7615
-385,-447,-15.1695,2.61865,0,0,0,0,0,0,0,-1,839,1471,-15.1695,-2.61871
-378,-447,-15.9424,1.49316,0,0,0,0,0,0,0,-1,846,1471,-15.9424,-1.49313
-371,-447,-17.3655,0.73291,0,0,0,0,0,0,0,-1,853,1471,-17.3655,-0.732946
-364,-447,0,0,0,0,0,0,0,0,0,-1,860,1471,0,0
-357,-447,0,0,0,0,0,0,0,0,0,-1,867,1471,0,0
-350,-447,0,0,0,0,0,0,0,0,0,-1,874,1471,0,0
-343,-447,0,0,0,0,0,0,0,0,0,-1,881,1471,0,0
-336,-447,0,0,0,0,0,0,0,0,0,-1,888,1471,0,0
-329,-447,0,0,0,0,0,0,0,0,0,-1,895,1471,0,0
-322,-447,0,0,0,0,0,0,0,0,0,-1,902,1471,0,0
-315,-447,0,0,0,0,0,0,0,0,0,-1,909,1471,0,0
-308,-447,0,0,0,0,0,0,0,0,0,-1,916,1471,0,0
-301,-447,0,0,0,0,0,0,0,0,0,-1,923,1471,0,0
-294,-447,0,0,0,0,0,0,0,0,0,-1,930,1471,0,0
-287,-447,0,0,0,0,0,0,0,0,0,-1,937,1471,0,0
-280,-447,0,0,0,0,0,0,0,0,0,-1,944,1471,0,0
-273,-447,0,0,0,0,0,0,0,0,0,-1,951,1471,0,0
-266,-447,0,0,0,0,0,0,0,0,0,-1,958,1471,0,0
-259,-447,0,0,0,0,0,0,0,0,0,-1,965,1471,0,0
-252,-447,0,0,0,0,0,0,0,0,0,-1,972,1471,0,0
-245,-447,0,0,0,0,0,0,0,0,0,-1,979,1471,0,0
-238,-447,0,0,0,0,0,0,0,0,0,-1,986,1471,0,0
-231,-447,0,0,0,0,0,0,0,0,0,-1,993,1471,0,0
-224,-447,0,0,0,0,0,0,0,0,0,-1,1000,1471,0,0
-217,-447,0,0,0,0,0,0,0,0,0,-1,1007,1471,0,0
-210,-447,0,0,0,0,0,0,0,0,0,-1,1014,1471,0,0
-203,-447,0,0,0,0,0,0,0,0,0,-1,1021,1471,0,0
-196,-447,0,0,0,0,0,0,0,0,0,-1,1028,1471,0,0
-189,-447,0,0,0,0,0,0,0,0,0,-1,1035,1471,0,0
-182,-447,0,0,0,0,0,0,0,0,0,-1,1042,1471,0,0
-175,-447,0,0,0,0,0,0,0,0,0,-1,1049,1471,0,0
-168,-447,0,0,0,0,0,0,0,0,0,-1,1056,1471,0,0
-161,-447,0,0,0,0,0,0,0,0,0,-1,1063,1471,0,0
-154,-447,0,0,0,0,0,0,0,0,0,-1,1070,1471,0,0
-147,-447,0,0,0,0,0,0,0,0,0,-1,1077,1471,0,0
-140,-447,0,0,0,0,0,0,0,0,0,-1,1084,1471,0,0
-133,-447,0,0,0,0,0,0,0,0,0,-1,1091,1471,0,0
-126,-447,0,0,0,0,0,0,0,0,0,-1,1098,1471,0,0
-119,-447,0,0,0,0,0,0,0,0,0,-1,1105,1471,0,0
-112,-447,0,0,0,0,0,0,0,0,0,-1,1112,1471,0,0
-105,-447,0,0,0,0,0,0,0,0,0,-1,1119,1471,0,0
-98,-447,0,0,0,0,0,0,0,0,0,-1,1126,1471,0,0
-91,-447,0,0,0,0,0,0,0,0,0,-1,1133,1471,0,0
-84,-447,0,0,0,0,0,0,0,0,0,-1,1140,1471,0,0
-77,-447,0,0,0,0,0,0,0,0,0,-1,1147,1471,0,0
-70,-447,0,0,0,0,0,0,0,0,0,-1,1154,1471,0,0
-63,-447,0,0,0,0,0,0,0,0,0,-1,1161,1471,0,0
-56,-447,0,0,0,0,0,0,0,0,0,-1,1168,1471,0,0
-49,-447,0,0,0,0,0,0,0,0,0,-1,1175,1471,0,0
-42,-447,0,0,0,0,0,0,0,0,0,-1,1182,1471,0,0
-35,-447,0,0,0,0,0,0,0,0,0,-1,1189,1471,0,0
-28,-447,0,0,0,0,0,0,0,0,0,-1,1196,1471,0,0
-21,-447,0,0,0,0,0,0,0,0,0,-1,1203,1471,0,0
-14,-447,0,0,0,0,0,0,0,0,0,-1,1210,1471,0,0
-7,-447,0,0,0,0,0,0,0,0,0,-1,1217,1471,0,0
0,-447,0,0,0,0,0,0,0,0,0,-1,1224,1471,0,0
7,-447,0,0,0,0,0,0,0,0,0,-1,1231,1471,0,0
14,-447,0,0,0,0,0,0,0,0,0,-1,1238,1471,0,0
21,-447,0,0,0,0,0,0,0,0,0,-1,1245,1471,0,0
28,-447,0,0,0,0,0,0,0,0,0,-1,1252,1471,0,0
35,-447,0,0,0,0,0,0,0,0,0,-1,1259,1471,0,0
42,-447,0,0,0,0,0,0,0,0,0,-1,1266,1471,0,0
49,-447,0,0,0,0,0,0,0,0,0,-1,1273,1471,0,0
56,-447,0,0,0,0,0,0,0,0,0,-1,1280,1471,0,0
63,-447,0,0,0,0,0,0,0,0,0,-1,1287,1471,0,0
70,-447,0,0,0,0,0,0,0,0,0,-1,1294,1471,0,0
77,-447,0,0,0,0,0,0,0,0,0,-1,1301,1471,0,0
84,-447,0,0,0,0,0,0,0,0,0,-1,1308,1471,0,0
91,-447,0,0,0,0,0,0,0,0,0,-1,1315,1471,0,0
98,-447,0,0,0,0,0,0,0,0,0,-1,1322,1471,0,0
105,-447,0,0,0,0,0,0,0,0,0,-1,1329,1471,0,0
112,-447,0,0,0,0,0,0,0,0,0,-1,1336,1471,0,0
119,-447,0,0,0,0,0,0,0,0,0,-1,1343,1471,0,0
126,-447,0,0,0,0,0,0,0,0,0,-1,1350,1471,0,0
133,-447,0,0,0,0,0,0,0,0,0,-1,1357,1471,0,0
140,-447,0,0,0,0,0,0,0,0,0,-1,1364,1471,0,0
147,-447,0,0,0,0,0,0,0,0,0,-1,1371,1471,0,0
154,-447,0,0,0,0,0,0,0,0,0,-1,1378,1471,0,0
161,-447,0,0,0,0,0,0,0,0,0,-1,1385,1471,0,0
168,-447,0,0,0,0,0,0,0,0,0,-1,1392,1471,0,0
175,-447,0,0,0,0,0,0,0,0,0,-1,1399,1471,0,0
182,-447,0,0,0,0,0,0,0,0,0,-1,1406,1471,0,0
189,-447,0,0,0,0,0,0,0,0,0,-1,1413,1471,0,0
196,-447,0,0,0,0,0,0,0,0,0,-1,1420,1471,0,0
203,-447,0,0,0,0,0,0,0,0,0,-1,1427,1471,0,0
210,-447,0,0,0,0,0,0,0,0,0,-1,1434,1471,0,0
217,-447,0,0,0,0,0,0,0,0,0,-1,1441,1471,0,0
224,-447,0,0,0,0,0,0,0,0,0,-1,1448,1471,0,0
231,-447,0,0,0,0,0,0,0,0,0,-1,1455,1471,0,0
238,-447,0,0,0,0,0,0,0,0,0,-1,1462,1471,0,0
245,-447,0,0,0,0,0,0,0,0,0,-1,1469,1471,0,0
252,-447,0,0,0,0,0,0,0,0,0,-1,1476,1471,0,0
259,-447,0,0,0,0,0,0,0,0,0,-1,1483,1471,0,0
266,-447,0,0,0,0,0,0,0,0,0,-1,1490,1471,0,0
273,-447,0,0,0,0,0,0,0,0,0,-1,1497,1471,0,0
280,-447,0,0,0,0,0,0,0,0,0,-1,1504,1471,0,0
287,-447,0,0,0,0,0,0,0,0,0,-1,1511,1471,0,0
294,-447,0,0,0,0,0,0,0,0,0,-1,1518,1471,0,0
301,-447,0,0,0,0,0,0,0,0,0,-1,1525,1471,0,0
308,-447,0,0,0,0,0,0,0,0,0,-1,1532,1471,0,0
315,-447,0,0,0,0,0,0,0,0,0,-1,1539,1471,0,0
322,-447,0,0,0,0,0,0,0,0,0,-1,1546,1471,0,0
329,-447,0,0,0,0,0,0,0,0,0,-1,1553,1471,0,0
336,-447,0,0,0,0,0,0,0,0,0,-1,1560,1471,0,0
343,-447,0,0,0,0,0,0,0,0,0,-1,1567,1471,0,0
350,-447,0,0,0,0,0,0,0,0,0,-1,1574,1471,0,0
357,-447,0,0,0,0,0,0,0,0,0,-1,1581,1471,0,0
364,-447,0,0,0,0,0,0,0,0,0,-1,1588,1471,0,0
371,-447,0,0,0,0,0,0,0,0,0,-1,1595,1471,0,0
378,-447,0,0,0,0,0,0,0,0,0,-1,1602,1471,0,0
385,-447,0,0,0,0,0,0,0,0,0,-1,1609,1471,0,0
392,-447,0,0,0,0,0,0,0,0,0,-1,1616,1471,0,0
399,-447,0,0,0,0,0,0,0,0,0,-1,1623,1471,0,0
406,-447,0,0,0,0,0,0,0,0,0,-1,1630,1471,0,0
413,-447,0,0,0,0,0,0,0,0,0,-1,1637,1471,0,0
420,-447,0,0,0,0,0,0,0,0,0,-1,1644,1471,0,0
427,-447,0,0,0,0,0,0,0,0,0,-1,1651,1471,0,0
434,-447,0,0,0,0,0,0,0,0,0,-1,1658,1471,0,0
441,-447,0,0,0,0,0,0,0,0,0,-1,1665,1471,0,0
448,-447,0,0,0,0,0,0,0,0,0,-1,1672,1471,0,0
455,-447,0,0,0,0,0,0,0,0,0,-1,1679,1471,0,0
462,-447,0,0,0,0,0,0,0,0,0,-1,1686,1471,0,0
469,-447,0,0,0,0,0,0,0,0,0,-1,1693,1471,0,0
476,-447,0,0,0,0,0,0,0,0,0,-1,1700,1471,0,0
483,-447,0,0,0,0,0,0,0,0,0,-1,1707,1471,0,0
490,-447,17.8906,2.66907,0,0,0,0,0,0,0,-1,1714,1471,17.8906,-2.66909
497,-447,17.3629,3.01196,0,0,0,0,0,0,0,-1,1721,1471,17.363,-3.01193
504,-447,16.9426,3.328,0,0,0,0,0,0,0,-1,1728,1471,16.9426,-3.32799
511,-447,16.3353,3.40979,0,0,0,0,0,0,0,-1,1735,1471,16.3353,-3.40976
518,-447,15.5737,3.55652,0,0,0,0,0,0,0,-1,1742,1471,15.5737,-3.55648
525,-447,15.2052,3.95215,0,0,0,0,0,0,0,-1,1749,1471,15.2052,-3.9522
532,-447,14.4753,3.96228,0,0,0,0,0,0,0,-1,1756,1471,14.4753,-3.96233
539,-447,12.391,7.84631,0,0,0,0,0,0,0,-1,1763,1471,12.391,-7.84629
546,-447,12.2982,7.50476,-0.0578837,-0.0415554,0.0374082,-0.0114308,-0.0880083,0.892836,0.0552575,0.0452472,1770,1471,12.2982,-7.50474
553,-447,11.943,7.4082,0,0,0,0,0,0,0,-1,1777,1471,11.943,-7.4082
560,-447,11.7828,7.88562,-0.0313537,-0.0255405,0.0271065,-0.00118524,-0.055709,0.838808,0.0367506,0.0440782,1784,1471,11.7829,-7.88565
567,-447,11.2734,7.81287,-0.0212599,-0.0193306,0.0221168,0.00184259,-0.0424332,0.807192,0.0289225,0.0440263,1791,1471,11.2734,-7.81284
574,-447,11.0212,7.86609,-0.0151898,-0.0155428,0.0174804,0.00211495,-0.0328475,0.780349,0.0226363,0.0306949,1798,1471,11.0212,-7.8661
581,-447,10.9677,7.8606,-0.0113341,-0.0128059,0.0136714,0.00162119,-0.0257612,0.75851,0.0177393,0.0147127,1805,1471,10.9676,-7.86064
588,-447,10.9785,7.65833,-0.00857058,-0.00975064,0.0103242,0.00118042,-0.0195016,0.756854,0.0134119,0.0124511,1812,1471,10.9785,-7.65834
595,-447,10.9568,7.45105,-0.00649458,-0.00733291,0.00756934,0.000667199,-0.0144947,0.757738,0.00989303,0.0117928,1819,1471,10.9567,-7.451
602,-447,10.942,7.22644,-0.00460218,-0.00557957,0.00531724,0.000248775,-0.0104305,0.739573,0.00703807,0.0111824,1826,1471,10.942,-7.2264
609,-447,10.9506,7.03491,-0.00275587,-0.00402886,0.00335226,1.97918e-05,-0.00680452,0.69158,0.00454296,0.0126955,1833,1471,10.9505,-7.03491
616,-447,10.9597,6.84302,-0.000772741,-0.00280828,0.00147677,3.00794e-06,-0.00358403,0.483683,0.00239036,0.0130907,1840,1471,10.9597,-6.84298
623,-447,10.9713,6.65796,0.00110803,-0.00185601,-0.000398564,0.00116068,-0.00190867,-0.131359,0.00178954,0.0135837,1847,1471,10.9713,-6.65794
630,-447,10.955,6.43823,0.00280729,-0.00149468,-0.00178291,0.00345014,-0.00213753,-0.346052,0.00325557,0.00893817,1854,1471,10.955,-6.43827
637,-447,10.9657,6.22937,0.00489774,-0.00120629,-0.00374484,0.00667673,-0.00298528,-0.44349,0.00571246,0.00988104,1861,1471,10.9657,-6.22938
644,-447,10.9806,6.05066,0.00708927,-0.00120605,-0.00598548,0.0102237,-0.00434049,-0.482408,0.0086343,0.01008,1868,1471,10.9806,-6.05071
651,-447,11.0181,5.84863,0.00924744,-0.00137424,-0.00862218,0.0140631,-0.00618995,-0.509365,0.011984,0.017308,1875,1471,11.018,-5.84867
658,-447,10.9508,5.66125,0.0113452,-0.00148656,-0.0118724,0.0184244,-0.00856573,-0.537675,0.0159255,0.0258412,1882,1471,10.9508,-5.6612
665,-447,10.8804,5.22644,0.0133456,-0.00153363,-0.0157637,0.0233371,-0.011525,-0.56492,0.0205091,0.0419144,1889,1471,10.8803,-5.22642
672,-447,11.2813,4.151,0.0150217,-0.0016423,-0.0202912,0.028625,-0.0152456,-0.590584,0.0257183,0.0488707,1896,1471,11.2813,-4.15097
679,-447,11.7125,3.54004,0,0,0,0,0,0,0,-1,1903,1471,11.7125,-3.54006
686,-447,9.81079,4.30859,0,0,0,0,0,0,0,-1,1910,1471,9.8108,-4.30864
693,-447,10.48,2.08643,0,0,0,0,0,0,0,-1,1917,1471,10.48,-2.08642
700,-447,0,0,0,0,0,0,0,0,0,-1,1924,1471,0,0
707,-447,0,0,0,0,0,0,0,0,0,-1,1931,1471,0,0
714,-447,0,0,0,0,0,0,0,0,0,-1,1938,1471,0,0
721,-447,0,0,0,0,0,0,0,0,0,-1,1945,1471,0,0
728,-447,0,0,0,0,0,0,0,0,0,-1,1952,1471,0,0
735,-447,0,0,0,0,0,0,0,0,0,-1,1959,1471,0,0
742,-447,0,0,0,0,0,0,0,0,0,-1,1966,1471,0,0
749,-447,0,0,0,0,0,0,0,0,0,-1,1973,1471,0,0
756,-447,0,0,0,0,0,0,0,0,0,-1,1980,1471,0,0
763,-447,0,0,0,0,0,0,0,0,0,-1,1987,1471,0,0
770,-447,0,0,0,0,0,0,0,0,0,-1,1994,1471,0,0
777,-447,0,0,0,0,0,0,0,0,0,-1,2001,1471,0,0
784,-447,0,0,0,0,0,0,0,0,0,-1,2008,1471,0,0
791,-447,0,0,0,0,0,0,0,0,0,-1,2015,1471,0,0
798,-447,0,0,0,0,0,0,0,0,0,-1,2022,1471,0,0
805,-447,0,0,0,0,0,0,0,0,0,-1,2029,1471,0,0
812,-447,0,0,0,0,0,0,0,0,0,-1,2036,1471,0,0
-700,-454,0,0,0,0,0,0,0,0,0,-1,524,1478,0,0
-693,-454,0,0,0,0,0,0,0,0,0,-1,531,1478,0,0
-686,-454,0,0,0,0,0,0,0,0,0,-1,538,1478,0,0
-679,-454,0,0,0,0,0,0,0,0,0,-1,545,1478,0,0
-672,-454,0,0,0,0,0,0,0,0,0,-1,552,1478,0,0
-665,-454,0,0,0,0,0,0,0,0,0,-1,559,1478,0,0
-658,-454,0,0,0,0,0,0,0,0,0,-1,566,1478,0,0
-651,-454,0,0,0,0,0,0,0,0,0,-1,573,1478,0,0
-644,-454,0,0,0,0,0,0,0,0,0,-1,580,1478,0,0
-637,-454,0,0,0,0,0,0,0,0,0,-1,587,1478,0,0
-630,-454,0,0,0,0,0,0,0,0,0,-1,594,1478,0,0
-623,-454,0,0,0,0,0,0,0,0,0,-1,601,1478,0,0
-616,-454,0,0,0,0,0,0,0,0,0,-1,608,1478,0,0
-609,-454,0,0,0,0,0,0,0,0,0,-1,615,1478,0,0
-602,-454,0,0,0,0,0,0,0,0,0,-1,622,1478,0,0
-595,-454,0,0,0,0,0,0,0,0,0,-1,629,1478,0,0
-588,-454,0,0,0,0,0,0,0,0,0,-1,636,1478,0,0
-581,-454,0,0,0,0,0,0,0,0,0,-1,643,1478,0,0
-574,-454,-8.4881,-0.465942,0,0,0,0,0,0,0,-1,650,1478,-8.4881,0.465885
-567,-454,-8.10046,0.922974,0,0,0,0,0,0,0,-1,657,1478,-8.10047,-0.923034
-560,-454,-6.84265,1.96936,0,0,0,0,0,0,0,-1,664,1478,-6.84264,-1.96934
-553,-454,-6.67572,-0.743286,0,0,0,0,0,0,0,-1,671,1478,-6.6757,0.743332
-546,-454,-5.25635,0.467651,0,0,0,0,0,0,0,-1,678,1478,-5.25632,-0.467698
-539,-454,-4.27002,1.28931,0,0,0,0,0,0,0,-1,685,1478,-4.27003,-1.28931
-532,-454,-2.65234,3.08228,0,0,0,0,0,0,0,-1,692,1478,-2.65233,-3.08233
-525,-454,-2.53784,3.5896,0.0375521,-0.00592661,0.00937501,0.0394874,-0.00786193,0.203575,0.0292993,0.0408255,699,1478,-2.53784,-3.58957
-518,-454,-2.38379,4.05579,0.028673,-0.00584701,0.00184837,0.0287717,-0.0059457,0.0533416,0.0214396,0.0258437,706,1478,-2.38382,-4.05582
-511,-454,-2.46771,4.18274,0.0210293,-0.00507273,-0.00205115,0.0211895,-0.00523294,-0.0779445,0.0161556,0.0161811,713,1478,-2.46771,-4.18279
-504,-454,-2.44818,4.44055,0.0149332,-0.00345987,-0.00193286,0.0151341,-0.0036608,-0.103579,0.0115054,0.0155778,720,1478,-2.4482,-4.44049
-497,-454,-2.47418,4.68152,0.00995754,-0.00320973,-0.00213954,0.0102965,-0.00354866,-0.157106,0.00830392,0.0189102,727,1478,-2.47418,-4.68148
-490,-454,-2.47498,4.92749,0.00662254,-0.00332586,-0.00214426,0.00706503,-0.00376835,-0.203503,0.00635045,0.0176432,734,1478,-2.47496,-4.92748
-483,-454,-2.47028,5.15088,0.00439038,-0.00258678,-0.00208566,0.0049663,-0.0031627,-0.26942,0.00473163,0.0158407,741,1478,-2.47027,-5.15091
-476,-454,-2.47931,5.34448,0.00328722,-0.00317062,-0.00173956,0.003726,-0.0036094,-0.24708,0.00423527,0.0141382,748,1478,-2.47929,-5.34451
-469,-454,-2.47363,5.57178,0.00307692,-0.00511523,-0.00204785,0.00356031,-0.00559862,-0.231805,0.00533139,0.0107368,755,1478,-2.47362,-5.57173
-462,-454,-2.49554,5.81494,0.00243537,-0.00768918,-0.00304903,0.00328268,-0.0085365,-0.271056,0.00704494,0.0105011,762,1478,-2.49552,-5.81494
-455,-454,-2.5058,6.05066,0.000741694,-0.0111587,-0.00463061,0.00233122,-0.0127482,-0.330662,0.00937302,0.010586,769,1478,-2.50583,-6.05063
-448,-454,-2.48694,6.26782,-0.00328242,-0.0161529,-0.00669389,-0.000432167,-0.0190032,-0.402547,0.0125272,0.0112114,776,1478,-2.48695,-6.26781
-441,-454,-2.3407,6.46606,-0.00908199,-0.0218969,-0.00908672,-0.00437081,-0.0266081,-0.478313,0.0164762,0.0211321,783,1478,-2.34071,-6.46612
-434,-454,-2.15204,6.54138,-0.0164059,-0.0275008,-0.0115606,-0.00913067,-0.034776,-0.561695,0.0208189,0.0317351,790,1478,-2.15204,-6.54134
-427,-454,-1.9538,6.45032,-0.0260515,-0.0337437,-0.0142193,-0.0151673,-0.0446279,-0.653317,0.0262027,0.044729,797,1478,-1.9538,-6.4503
-420,-454,-2.15735,6.51123,0,0,0,0,0,0,0,-1,804,1478,-2.15736,-6.51119
-413,-454,-2.25153,5.31165,0,0,0,0,0,0,0,-1,811,1478,-2.25154,-5.31159
-406,-454,-1.03931,8.49329,0,0,0,0,0,0,0,-1,818,1478,-1.03933,-8.49333
-399,-454,-1.20758,6.51941,0,0,0,0,0,0,0,-1,825,1478,-1.20757,-6.51941
-392,-454,0.0967407,0.985474,0,0,0,0,0,0,0,-1,832,1478,0.0967364,-0.985529
-385,-454,2.38629,3.297,0,0,0,0,0,0,0,-1,839,1478,2.38629,-3.29702
-378,-454,-15.9756,2.83997,0,0,0,0,0,0,0,-1,846,1478,-15.9756,-2.83994
-371,-454,-17.2753,2.01453,0,0,0,0,0,0,0,-1,853,1478,-17.2753,-2.01455
-364,-454,1.08124,0.819458,0,0,0,0,0,0,0,-1,860,1478,1.08124,-0.819513
-357,-454,0,0,0,0,0,0,0,0,0,-1,867,1478,0,0
-350,-454,0,0,0,0,0,0,0,0,0,-1,874,1478,0,0
-343,-454,0,0,0,0,0,0,0,0,0,-1,881,1478,0,0
-336,-454,0,0,0,0,0,0,0,0,0,-1,888,1478,0,0
-329,-454,0,0,0,0,0,0,0,0,0,-1,895,1478,0,0
-322,-454,0,0,0,0,0,0,0,0,0,-1,902,1478,0,0
-315,-454,0,0,0,0,0,0,0,0,0,-1,909,1478,0,0
-308,-454,0,0,0,0,0,0,0,0,0,-1,916,1478,0,0
-301,-454,0,0,0,0,0,0,0,0,0,-1,923,1478,0,0
-294,-454,0,0,0,0,0,0,0,0,0,-1,930,1478,0,0
-287,-454,0,0,0,0,0,0,0,0,0,-1,937,1478,0,0
-280,-454,0,0,0,0,0,0,0,0,0,-1,944,1478,0,0
-273,-454,0,0,0,0,0,0,0,0,0,-1,951,1478,0,0
-266,-454,0,0,0,0,0,0,0,0,0,-1,958,1478,0,0
-259,-454,0,0,0,0,0,0,0,0,0,-1,965,1478,0,0
-252,-454,0,0,0,0,0,0,0,0,0,-1,972,1478,0,0
-245,-454,0,0,0,0,0,0,0,0,0,-1,979,1478,0,0
-238,-454,0,0,0,0,0,0,0,0,0,-1,986,1478,0,0
-231,-454,0,0,0,0,0,0,0,0,0,-1,993,1478,0,0
-224,-454,0,0,0,0,0,0,0,0,0,-1,1000,1478,0,0
-217,-454,0,0,0,0,0,0,0,0,0,-1,1007,1478,0,0
-210,-454,0,0,0,0,0,0,0,0,0,-1,1014,1478,0,0
-203,-454,0,0,0,0,0,0,0,0,0,-1,1021,1478,0,0
-196,-454,0,0,0,0,0,0,0,0,0,-1,1028,1478,0,0
-189,-454,0,0,0,0,0,0,0,0,0,-1,1035,1478,0,0
-182,-454,0,0,0,0,0,0,0,0,0,-1,1042,1478,0,0
-175,-454,0,0,0,0,0,0,0,0,0,-1,1049,1478,0,0
-168,-454,0,0,0,0,0,0,0,0,0,-1,1056,1478,0,0
-161,-454,0,0,0,0,0,0,0,0,0,-1,1063,1478,0,0
-154,-454,0,0,0,0,0,0,0,0,0,-1,1070,1478,0,0
-147,-454,0,0,0,0,0,0,0,0,0,-1,1077,1478,0,0
-140,-454,0,0,0,0,0,0,0,0,0,-1,1084,1478,0,0
-133,-454,0,0,0,0,0,0,0,0,0,-1,1091,1478,0,0
-126,-454,0,0,0,0,0,0,0,0,0,-1,1098,1478,0,0
-119,-454,0,0,0,0,0,0,0,0,0,-1,1105,1478,0,0
-112,-454,0,0,0,0,0,0,0,0,0,-1,1112,1478,0,0
-105,-454,0,0,0,0,0,0,0,0,0,-1,1119,1478,0,0
-98,-454,0,0,0,0,0,0,0,0,0,-1,1126,1478,0,0
-91,-454,0,0,0,0,0,0,0,0,0,-1,1133,1478,0,0
-84,-454,0,0,0,0,0,0,0,0,0,-1,1140,1478,0,0
-77,-454,0,0,0,0,0,0,0,0,0,-1,1147,1478,0,0
-70,-454,0,0,0,0,0,0,0,0,0,-1,1154,1478,0,0
-63,-454,0,0,0,0,0,0,0,0,0,-1,1161,1478,0,0
-56,-454,0,0,0,0,0,0,0,0,0,-1,1168,1478,0,0
-49,-454,0,0,0,0,0,0,0,0,0,-1,1175,1478,0,0
-42,-454,0,0,0,0,0,0,0,0,0,-1,1182,1478,0,0
-35,-454,0,0,0,0,0,0,0,0,0,-1,1189,1478,0,0
-28,-454,0,0,0,0,0,0,0,0,0,-1,1196,1478,0,0
-21,-454,0,0,0,0,0,0,0,0,0,-1,1203,1478,0,0
-14,-454,0,0,0,0,0,0,0,0,0,-1,1210,1478,0,0
-7,-454,0,0,0,0,0,0,0,0,0,-1,1217,1478,0,0
0,-454,0,0,0,0,0,0,0,0,0,-1,1224,1478,0,0
7,-454,0,0,0,0,0,0,0,0,0,-1,1231,1478,0,0
14,-454,0,0,0,0,0,0,0,0,0,-1,1238,1478,0,0
21,-454,0,0,0,0,0,0,0,0,0,-1,1245,1478,0,0
28,-454,0,0,0,0,0,0,0,0,0,-1,1252,1478,0,0
35,-454,0,0,0,0,0,0,0,0,0,-1,1259,1478,0,0
42,-454,0,0,0,0,0,0,0,0,0,-1,1266,1478,0,0
49,-454,0,0,0,0,0,0,0,0,0,-1,1273,1478,0,0
56,-454,0,0,0,0,0,0,0,0,0,-1,1280,1478,0,0
63,-454,0,0,0,0,0,0,0,0,0,-1,1287,1478,0,0
70,-454,0,0,0,0,0,0,0,0,0,-1,1294,1478,0,0
77,-454,0,0,0,0,0,0,0,0,0,-1,1301,1478,0,0
84,-454,0,0,0,0,0,0,0,0,0,-1,1308,1478,0,0
91,-454,0,0,0,0,0,0,0,0,0,-1,1315,1478,0,0
98,-454,0,0,0,0,0,0,0,0,0,-1,1322,1478,0,0
105,-454,0,0,0,0,0,0,0,0,0,-1,1329,1478,0,0
112,-454,0,0,0,0,0,0,0,0,0,-1,1336,1478,0,0
119,-454,0,0,0,0,0,0,0,0,0,-1,1343,1478,0,0
126,-454,0,0,0,0,0,0,0,0,0,-1,1350,1478,0,0
133,-454,0,0,0,0,0,0,0,0,0,-1,1357,1478,0,0
140,-454,0,0,0,0,0,0,0,0,0,-1,1364,1478,0,0
147,-454,0,0,0,0,0,0,0,0,0,-1,1371,1478,0,0
154,-454,0,0,0,0,0,0,0,0,0,-1,1378,1478,0,0
161,-454,0,0,0,0,0,0,0,0,0,-1,1385,1478,0,0
168,-454,0,0,0,0,0,0,0,0,0,-1,1392,1478,0,0
175,-454,0,0,0,0,0,0,0,0,0,-1,1399,1478,0,0
182,-454,0,0,0,0,0,0,0,0,0,-1,1406,1478,0,0
189,-454,0,0,0,0,0,0,0,0,0,-1,1413,1478,0,0
196,-454,0,0,0,0,0,0,0,0,0,-1,1420,1478,0,0
203,-454,0,0,0,0,0,0,0,0,0,-1,1427,1478,0,0
210,-454,0,0,0,0,0,0,0,0,0,-1,1434,1478,0,0
217,-454,0,0,0,0,0,0,0,0,0,-1,1441,1478,0,0
224,-454,0,0,0,0,0,0,0,0,0,-1,1448,1478,0,0
231,-454,0,0,0,0,0,0,0,0,0,-1,1455,1478,0,0
238,-454,0,0,0,0,0,0,0,0,0,-1,1462,1478,0,0
245,-454,0,0,0,0,0,0,0,0,0,-1,1469,1478,0,0
252,-454,0,0,0,0,0,0,0,0,0,-1,1476,1478,0,0
259,-454,0,0,0,0,0,0,0,0,0,-1,1483,1478,0,0
266,-454,0,0,0,0,0,0,0,0,0,-1,1490,1478,0,0
273,-454,0,0,0,0,0,0,0,0,0,-1,1497,1478,0,0
280,-454,0,0,0,0,0,0,0,0,0,-1,1504,1478,0,0
287,-454,0,0,0,0,0,0,0,0,0,-1,1511,1478,0,0
294,-454,0,0,0,0,0,0,0,0,0,-1,1518,1478,0,0
301,-454,0,0,0,0,0,0,0,0,0,-1,1525,1478,0,0
308,-454,0,0,0,0,0,0,0,0,0,-1,1532,1478,0,0
315,-454,0,0,0,0,0,0,0,0,0,-1,1539,1478,0,0
322,-454,0,0,0,0,0,0,0,0,0,-1,1546,1478,0,0
329,-454,0,0,0,0,0,0,0,0,0,-1,1553,1478,0,0
336,-454,0,0,0,0,0,0,0,0,0,-1,1560,1478,0,0
343,-454,0,0,0,0,0,0,0,0,0,-1,1567,1478,0,0
350,-454,0,0,0,0,0,0,0,0,0,-1,1574,1478,0,0
357,-454,0,0,0,0,0,0,0,0,0,-1,1581,1478,0,0
364,-454,0,0,0,0,0,0,0,0,0,-1,1588,1478,0,0
371,-454,0,0,0,0,0,0,0,0,0,-1,1595,1478,0,0
378,-454,0,0,0,0,0,0,0,0,0,-1,1602,1478,0,0
385,-454,0,0,0,0,0,0,0,0,0,-1,1609,1478,0,0
392,-454,0,0,0,0,0,0,0,0,0,-1,1616,1478,0,0
399,-454,0,0,0,0,0,0,0,0,0,-1,1623,1478,0,0
406,-454,0,0,0,0,0,0,0,0,0,-1,1630,1478,0,0
413,-454,0,0,0,0,0,0,0,0,0,-1,1637,1478,0,0
420,-454,0,0,0,0,0,0,0,0,0,-1,1644,1478,0,0
427,-454,0,0,0,0,0,0,0,0,0,-1,1651,1478,0,0
434,-454,0,0,0,0,0,0,0,0,0,-1,1658,1478,0,0
441,-454,0,0,0,0,0,0,0,0,0,-1,1665,1478,0,0
448,-454,0,0,0,0,0,0,0,0,0,-1,1672,1478,0,0
455,-454,0,0,0,0,0,0,0,0,0,-1,1679,1478,0,0
462,-454,0,0,0,0,0,0,0,0,0,-1,1686,1478,0,0
469,-454,0,0,0,0,0,0,0,0,0,-1,1693,1478,0,0
476,-454,0,0,0,0,0,0,0,0,0,-1,1700,1478,0,0
483,-454,12.265,3.05029,0,0,0,0,0,0,0,-1,1707,1478,12.2651,-3.05029
490,-454,16.9352,3.39575,0,0,0,0,0,0,0,-1,1714,1478,16.9352,-3.3957
497,-454,16.3926,3.73157,0,0,0,0,0,0,0,-1,1721,1478,16.3926,-3.7316
504,-454,16.0066,4.04053,0,0,0,0,0,0,0,-1,1728,1478,16.0066,-4.04047
511,-454,15.3889,3.97827,0,0,0,0,0,0,0,-1,1735,1478,15.3889,-3.97821
518,-454,14.4576,4.35889,0,0,0,0,0,0,0,-1,1742,1478,14.4576,-4.35884
525,-454,13.7157,5.28003,0,0,0,0,0,0,0,-1,1749,1478,13.7158,-5.28003
532,-454,11.49,7.26526,0,0,0,0,0,0,0,-1,1756,1478,11.4899,-7.26531
539,-454,11.5723,7.73242,0,0,0,0,0,0,0,-1,1763,1478,11.5723,-7.73242
546,-454,11.4495,7.29858,0,0,0,0,0,0,0,-1,1770,1478,11.4494,-7.29864
553,-454,10.6763,8.2019,0,0,0,0,0,0,0,-1,1777,1478,10.6763,-8.20191
560,-454,10.8453,8.32764,-0.0270139,-0.0228881,0.0219395,-0.00291471,-0.0469873,0.832275,0.0303999,0.0487575,1784,1478,10.8454,-8.32764
567,-454,10.8251,8.21008,-0.0176171,-0.016832,0.017748,0.000527777,-0.0349769,0.796456,0.0234958,0.0261901,1791,1478,10.825,-8.21011
574,-454,10.7725,8.00891,-0.0120185,-0.013182,0.0139206,0.00133248,-0.0265329,0.764516,0.0181491,0.013461,1798,1478,10.7724,-8.00894
581,-454,10.7781,7.82495,-0.0087209,-0.0106792,0.0108945,0.00123838,-0.0206384,0.740581,0.0141898,0.0101258,1805,1478,10.778,-7.82494
588,-454,10.7797,7.64124,-0.00643077,-0.00798942,0.00820832,0.00103514,-0.0154553,0.738069,0.0106654,0.0116375,1812,1478,10.7797,-7.64122
595,-454,10.7469,7.44824,-0.00476538,-0.00588882,0.00599726,0.00069641,-0.0113506,0.738703,0.00780956,0.0115335,1819,1478,10.747,-7.44826
602,-454,10.7382,7.23914,-0.00317677,-0.00442404,0.00417195,0.000417902,-0.00801871,0.711206,0.00549041,0.00865604,1826,1478,10.7382,-7.23912
609,-454,10.7651,7.05005,-0.00143004,-0.00318441,0.00249573,0.000338168,-0.00495262,0.616405,0.00342005,0.0106542,1833,1478,10.7651,-7.05002
616,-454,10.7803,6.84265,0.000405067,-0.00227627,0.000806804,0.00062911,-0.00250032,0.270868,0.00191141,0.0129675,1840,1478,10.7803,-6.84269
623,-454,10.7738,6.63391,0.00230434,-0.00161919,-0.00105746,0.00257119,-0.00188605,-0.247193,0.0025835,0.0101639,1847,1478,10.7738,-6.63388
630,-454,10.7502,6.4292,0.00418493,-0.00151169,-0.00248413,0.00511601,-0.00244276,-0.358604,0.0044541,0.00907508,1854,1478,10.7502,-6.42921
637,-454,10.7479,6.2406,0.00667754,-0.00156432,-0.00460225,0.00873421,-0.00362099,-0.42026,0.00733407,0.00899742,1861,1478,10.7479,-6.24054
644,-454,10.8151,6.03809,0.00956883,-0.0018726,-0.00724953,0.013083,-0.00538672,-0.451364,0.0109677,0.0144603,1868,1478,10.8151,-6.03802
651,-454,10.7506,5.89819,0.0127142,-0.0024083,-0.0105674,0.0181469,-0.00784102,-0.474864,0.0153924,0.0260571,1875,1478,10.7506,-5.89823
658,-454,10.9125,5.67603,0.0162831,-0.00288228,-0.0149595,0.024466,-0.0110651,-0.500537,0.0209946,0.0370298,1882,1478,10.9125,-5.67597
665,-454,11.375,5.30835,0.0202804,-0.00333134,-0.020531,0.0321579,-0.0152088,-0.524471,0.0279246,0.0447264,1889,1478,11.375,-5.30832
672,-454,11.8124,4.67627,0.0244587,-0.00380164,-0.0273786,0.0411384,-0.0204814,-0.547175,0.0362364,0.0497552,1896,1478,11.8123,-4.67632
679,-454,12.3354,3.91602,0,0,0,0,0,0,0,-1,1903,1478,12.3354,-3.91597
686,-454,10.3767,2.12842,0,0,0,0,0,0,0,-1,1910,1478,10.3767,-2.12839
693,-454,11.1857,1.48486,0,0,0,0,0,0,0,-1,1917,1478,11.1857,-1.48487
700,-454,0,0,0,0,0,0,0,0,0,-1,1924,1478,0,0
707,-454,0,0,0,0,0,0,0,0,0,-1,1931,1478,0,0
714,-454,0,0,0,0,0,0,0,0,0,-1,1938,1478,0,0
721,-454,0,0,0,0,0,0,0,0,0,-1,1945,1478,0,0
728,-454,0,0,0,0,0,0,0,0,0,-1,1952,1478,0,0
735,-454,0,0,0,0,0,0,0,0,0,-1,1959,1478,0,0
742,-454,0,0,0,0,0,0,0,0,0,-1,1966,1478,0,0
749,-454,0,0,0,0,0,0,0,0,0,-1,1973,1478,0,0
756,-454,0,0,0,0,0,0,0,0,0,-1,1980,1478,0,0
763,-454,0,0,0,0,0,0,0,0,0,-1,1987,1478,0,0
770,-454,0,0,0,0,0,0,0,0,0,-1,1994,1478,0,0
777,-454,0,0,0,0,0,0,0,0,0,-1,2001,1478,0,0
784,-454,0,0,0,0,0,0,0,0,0,-1,2008,1478,0,0
791,-454,0,0,0,0,0,0,0,0,0,-1,2015,1478,0,0
798,-454,0,0,0,0,0,0,0,0,0,-1,2022,1478,0,0
805,-454,0,0,0,0,0,0,0,0,0,-1,2029,1478,0,0
812,-454,0,0,0,0,0,0,0,0,0,-1,2036,1478,0,0
-700,-461,0,0,0,0,0,0,0,0,0,-1,524,1485,0,0
-693,-461,0,0,0,0,0,0,0,0,0,-1,531,1485,0,0
-686,-461,0,0,0,0,0,0,0,0,0,-1,538,1485,0,0
-679,-461,0,0,0,0,0,0,0,0,0,-1,545,1485,0,0
-672,-461,0,0,0,0,0,0,0,0,0,-1,552,1485,0,0
-665,-461,0,0,0,0,0,0,0,0,0,-1,559,1485,0,0
-658,-461,0,0,0,0,0,0,0,0,0,-1,566,1485,0,0
-651,-461,0,0,0,0,0,0,0,0,0,-1,573,1485,0,0
-644,-461,0,0,0,0,0,0,0,0,0,-1,580,1485,0,0
-637,-461,0,0,0,0,0,0,0,0,0,-1,587,1485,0,0
-630,-461,0,0,0,0,0,0,0,0,0,-1,594,1485,0,0
-623,-461,0,0,0,0,0,0,0,0,0,-1,601,1485,0,0
-616,-461,0,0,0,0,0,0,0,0,0,-1,608,1485,0,0
-609,-461,0,0,0,0,0,0,0,0,0,-1,615,1485,0,0
-602,-461,0,0,0,0,0,0,0,0,0,-1,622,1485,0,0
-595,-461,0,0,0,0,0,0,0,0,0,-1,629,1485,0,0
-588,-461,0,0,0,0,0,0,0,0,0,-1,636,1485,0,0
-581,-461,0,0,0,0,0,0,0,0,0,-1,643,1485,0,0
-574,-461,0,0,0,0,0,0,0,0,0,-1,650,1485,0,0
-567,-461,-9.69031,0.513306,0,0,0,0,0,0,0,-1,657,1485,-9.69032,-0.513305
-560,-461,-7.28815,1.54004,0,0,0,0,0,0,0,-1,664,1485,-7.28817,-1.54005
-553,-461,-7.26569,-0.756714,0,0,0,0,0,0,0,-1,671,1485,-7.26571,0.756668
-546,-461,-5.8855,0.0679932,0,0,0,0,0,0,0,-1,678,1485,-5.88551,-0.0680231
-539,-461,-4.6084,0.543701,0,0,0,0,0,0,0,-1,685,1485,-4.60842,-0.543745
-532,-461,-3.17389,3.7832,0,0,0,0,0,0,0,-1,692,1485,-3.17388,-3.78325
-525,-461,-2.54095,3.67554,0,0,0,0,0,0,0,-1,699,1485,-2.54096,-3.67557
-518,-461,-2.38959,3.98962,0.0311735,-0.00754914,-0.00270611,0.0313617,-0.00773735,-0.0694347,0.0239079,0.0351678,706,1485,-2.38961,-3.98967
-511,-461,-2.23218,4.24646,0.0229509,-0.00604942,-0.00557904,0.0239872,-0.00708568,-0.183649,0.0188038,0.0183369,713,1485,-2.23218,-4.2464
-504,-461,-2.23895,4.45483,0.0163926,-0.00392216,-0.00463417,0.0173998,-0.00492937,-0.214014,0.0135453,0.0110372,720,1485,-2.23895,-4.45479
-497,-461,-2.2301,4.70569,0.0110612,-0.00327915,-0.00413267,0.0121669,-0.00438487,-0.261432,0.00990198,0.0106283,727,1485,-2.23011,-4.70567
-490,-461,-2.24585,4.9176,0.00747806,-0.00304064,-0.00353844,0.00855759,-0.00412017,-0.296115,0.00746747,0.0117731,734,1485,-2.24583,-4.91762
-483,-461,-2.24664,5.14001,0.00502905,-0.00187732,-0.00297966,0.00613688,-0.00298515,-0.35596,0.00537037,0.0121082,741,1485,-2.24664,-5.14006
-476,-461,-2.25238,5.36719,0.00374968,-0.0021675,-0.00215653,0.00445222,-0.00287004,-0.314931,0.00426028,0.0110557,748,1485,-2.2524,-5.36714
-469,-461,-2.25098,5.5968,0.00346458,-0.0038593,-0.00206675,0.00400755,-0.00440227,-0.25691,0.00485719,0.0125016,755,1485,-2.25099,-5.59676
-462,-461,-2.25836,5.83679,0.0031324,-0.0059744,-0.00256781,0.00380654,-0.00664853,-0.256739,0.00611012,0.0171144,762,1485,-2.25838,-5.83684
-455,-461,-2.25635,6.03979,0.00229487,-0.00879387,-0.00366257,0.00339539,-0.00989438,-0.291893,0.0079728,0.0197453,769,1485,-2.25634,-6.03982
-448,-461,-2.24341,6.26221,-3.61019e-05,-0.0127229,-0.00511752,0.00177082,-0.0145298,-0.339421,0.0103276,0.0158183,776,1485,-2.24339,-6.26218
-441,-461,-2.20795,6.50415,-0.00388513,-0.0172433,-0.00684809,-0.000998311,-0.0201301,-0.398946,0.0131,0.0132684,783,1485,-2.20795,-6.50421
-434,-461,-2.02435,6.65039,-0.00899848,-0.0216061,-0.00863143,-0.00461401,-0.0259906,-0.47,0.0160122,0.019933,790,1485,-2.02436,-6.65037
-427,-461,-1.95563,6.74622,-0.0161227,-0.0266351,-0.0106265,-0.00952357,-0.0332343,-0.555727,0.019762,0.0286708,797,1485,-1.9556,-6.74623
-420,-461,-2.01361,6.77625,-0.025144,-0.0315766,-0.0125889,-0.015367,-0.0413536,-0.660329,0.0241365,0.0468504,804,1485,-2.01363,-6.7762
-413,-461,-1.96063,6.78284,0,0,0,0,0,0,0,-1,811,1485,-1.96064,-6.7828
-406,-461,-1.15381,7.74561,0,0,0,0,0,0,0,-1,818,1485,-1.15378,-7.74565
-399,-461,-0.222168,7.8396,0,0,0,0,0,0,0,-1,825,1485,-0.22214,-7.83956
-392,-461,-0.357544,5.55225,0,0,0,0,0,0,0,-1,832,1485,-0.357536,-5.55228
-385,-461,1.71509,3.35254,0,0,0,0,0,0,0,-1,839,1485,1.71511,-3.35255
-378,-461,1.95996,3.01111,0,0,0,0,0,0,0,-1,846,1485,1.95993,-3.01111
-371,-461,0.702881,2.33459,0,0,0,0,0,0,0,-1,853,1485,0.702859,-2.33459
-364,-461,-1.93097,2.56458,0,0,0,0,0,0,0,-1,860,1485,-1.93095,-2.56456
-357,-461,-2.41516,3.49487,0,0,0,0,0,0,0,-1,867,1485,-2.41517,-3.49487
-350,-461,0,0,0,0,0,0,0,0,0,-1,874,1485,0,0
-343,-461,0,0,0,0,0,0,0,0,0,-1,881,1485,0,0
-336,-461,0,0,0,0,0,0,0,0,0,-1,888,1485,0,0
-329,-461,0,0,0,0,0,0,0,0,0,-1,895,1485,0,0
-322,-461,0,0,0,0,0,0,0,0,0,-1,902,1485,0,0
-315,-461,0,0,0,0,0,0,0,0,0,-1,909,1485,0,0
-308,-461,0,0,0,0,0,0,0,0,0,-1,916,1485,0,0
-301,-461,0,0,0,0,0,0,0,0,0,-1,923,1485,0,0
-294,-461,0,0,0,0,0,0,0,0,0,-1,930,1485,0,0
-287,-461,0,0,0,0,0,0,0,0,0,-1,937,1485,0,0
-280,-461,0,0,0,0,0,0,0,0,0,-1,944,1485,0,0
-273,-461,0,0,0,0,0,0,0,0,0,-1,951,1485,0,0
-266,-461,0,0,0,0,0,0,0,0,0,-1,958,1485,0,0
-259,-461,0,0,0,0,0,0,0,0,0,-1,965,1485,0,0
-252,-461,0,0,0,0,0,0,0,0,0,-1,972,1485,0,0
-245,-461,0,0,0,0,0,0,0,0,0,-1,979,1485,0,0
-238,-461,0,0,0,0,0,0,0,0,0,-1,986,1485,0,0
-231,-461,0,0,0,0,0,0,0,0,0,-1,993,1485,0,0
-224,-461,0,0,0,0,0,0,0,0,0,-1,1000,1485,0,0
-217,-461,0,0,0,0,0,0,0,0,0,-1,1007,1485,0,0
-210,-461,0,0,0,0,0,0,0,0,0,-1,1014,1485,0,0
-203,-461,0,0,0,0,0,0,0,0,0,-1,1021,1485,0,0
-196,-461,0,0,0,0,0,0,0,0,0,-1,1028,1485,0,0
-189,-461,0,0,0,0,0,0,0,0,0,-1,1035,1485,0,0
-182,-461,0,0,0,0,0,0,0,0,0,-1,1042,1485,0,0
-175,-461,0,0,0,0,0,0,0,0,0,-1,1049,1485,0,0
-168,-461,0,0,0,0,0,0,0,0,0,-1,1056,1485,0,0
-161,-461,0,0,0,0,0,0,0,0,0,-1,1063,1485,0,0
-154,-461,0,0,0,0,0,0,0,0,0,-1,1070,1485,0,0
-147,-461,0,0,0,0,0,0,0,0,0,-1,1077,1485,0,0
-140,-461,0,0,0,0,0,0,0,0,0,-1,1084,1485,0,0
-133,-461,0,0,0,0,0,0,0,0,0,-1,1091,1485,0,0
-126,-461,0,0,0,0,0,0,0,0,0,-1,1098,1485,0,0
-119,-461,0,0,0,0,0,0,0,0,0,-1,1105,1485,0,0
-112,-461,0,0,0,0,0,0,0,0,0,-1,1112,1485,0,0
-105,-461,0,0,0,0,0,0,0,0,0,-1,1119,1485,0,0
-98,-461,0,0,0,0,0,0,0,0,0,-1,1126,1485,0,0
-91,-461,0,0,0,0,0,0,0,0,0,-1,1133,1485,0,0
-84,-461,0,0,0,0,0,0,0,0,0,-1,1140,1485,0,0
-77,-461,0,0,0,0,0,0,0,0,0,-1,1147,1485,0,0
-70,-461,0,0,0,0,0,0,0,0,0,-1,1154,1485,0,0
-63,-461,0,0,0,0,0,0,0,0,0,-1,1161,1485,0,0
-56,-461,0,0,0,0,0,0,0,0,0,-1,1168,1485,0,0
-49,-461,0,0,0,0,0,0,0,0,0,-1,1175,1485,0,0
-42,-461,0,0,0,0,0,0,0,0,0,-1,1182,1485,0,0
-35,-461,0,0,0,0,0,0,0,0,0,-1,1189,1485,0,0
-28,-461,0,0,0,0,0,0,0,0,0,-1,1196,1485,0,0
-21,-461,0,0,0,0,0,0,0,0,0,-1,1203,1485,0,0
-14,-461,0,0,0,0,0,0,0,0,0,-1,1210,1485,0,0
-7,-461,0,0,0,0,0,0,0,0,0,-1,1217,1485,0,0
0,-461,0,0,0,0,0,0,0,0,0,-1,1224,1485,0,0
7,-461,0,0,0,0,0,0,0,0,0,-1,1231,1485,0,0
14,-461,0,0,0,0,0,0,0,0,0,-1,1238,1485,0,0
21,-461,0,0,0,0,0,0,0,0,0,-1,1245,1485,0,0
28,-461,0,0,0,0,0,0,0,0,0,-1,1252,1485,0,0
35,-461,0,0,0,0,0,0,0,0,0,-1,1259,1485,0,0
42,-461,0,0,0,0,0,0,0,0,0,-1,1266,1485,0,0
49,-461,0,0,0,0,0,0,0,0,0,-1,1273,1485,0,0
56,-461,0,0,0,0,0,0,0,0,0,-1,1280,1485,0,0
63,-461,0,0,0,0,0,0,0,0,0,-1,1287,1485,0,0
70,-461,0,0,0,0,0,0,0,0,0,-1,1294,1485,0,0
77,-461,0,0,0,0,0,0,0,0,0,-1,1301,1485,0,0
84,-461,0,0,0,0,0,0,0,0,0,-1,1308,1485,0,0
91,-461,0,0,0,0,0,0,0,0,0,-1,1315,1485,0,0
98,-461,0,0,0,0,0,0,0,0,0,-1,1322,1485,0,0
105,-461,0,0,0,0,0,0,0,0,0,-1,1329,1485,0,0
112,-461,0,0,0,0,0,0,0,0,0,-1,1336,1485,0,0
119,-461,0,0,0,0,0,0,0,0,0,-1,1343,1485,0,0
126,-461,0,0,0,0,0,0,0,0,0,-1,1350,1485,0,0
133,-461,0,0,0,0,0,0,0,0,0,-1,1357,1485,0,0
140,-461,0,0,0,0,0,0,0,0,0,-1,1364,1485,0,0
147,-461,0,0,0,0,0,0,0,0,0,-1,1371,1485,0,0
154,-461,0,0,0,0,0,0,0,0,0,-1,1378,1485,0,0
161,-461,0,0,0,0,0,0,0,0,0,-1,1385,1485,0,0
168,-461,0,0,0,0,0,0,0,0,0,-1,1392,1485,0,0
175,-461,0,0,0,0,0,0,0,0,0,-1,1399,1485,0,0
182,-461,0,0,0,0,0,0,0,0,0,-1,1406,1485,0,0
189,-461,0,0,0,0,0,0,0,0,0,-1,1413,1485,0,0
196,-461,0,0,0,0,0,0,0,0,0,-1,1420,1485,0,0
203,-461,0,0,0,0,0,0,0,0,0,-1,1427,1485,0,0
210,-461,0,0,0,0,0,0,0,0,0,-1,1434,1485,0,0
217,-461,0,0,0,0,0,0,0,0,0,-1,1441,1485,0,0
224,-461,0,0,0,0,0,0,0,0,0,-1,1448,1485,0,0
231,-461,0,0,0,0,0,0,0,0,0,-1,1455,1485,0,0
238,-461,0,0,0,0,0,0,0,0,0,-1,1462,1485,0,0
245,-461,0,0,0,0,0,0,0,0,0,-1,1469,1485,0,0
252,-461,0,0,0,0,0,0,0,0,0,-1,1476,1485,0,0
259,-461,0,0,0,0,0,0,0,0,0,-1,1483,1485,0,0
266,-461,0,0,0,0,0,0,0,0,0,-1,1490,1485,0,0
273,-461,0,0,0,0,0,0,0,0,0,-1,1497,1485,0,0
280,-461,0,0,0,0,0,0,0,0,0,-1,1504,1485,0,0
287,-461,0,0,0,0,0,0,0,0,0,-1,1511,1485,0,0
294,-461,0,0,0,0,0,0,0,0,0,-1,1518,1485,0,0
301,-461,0,0,0,0,0,0,0,0,0,-1,1525,1485,0,0
308,-461,0,0,0,0,0,0,0,0,0,-1,1532,1485,0,0
315,-461,0,0,0,0,0,0,0,0,0,-1,1539,1485,0,0
322,-461,0,0,0,0,0,0,0,0,0,-1,1546,1485,0,0
329,-461,0,0,0,0,0,0,0,0,0,-1,1553,1485,0,0
336,-461,0,0,0,0,0,0,0,0,0,-1,1560,1485,0,0
343,-461,0,0,0,0,0,0,0,0,0,-1,1567,1485,0,0
350,-461,0,0,0,0,0,0,0,0,0,-1,1574,1485,0,0
357,-461,0,0,0,0,0,0,0,0,0,-1,1581,1485,0,0
364,-461,0,0,0,0,0,0,0,0,0,-1,1588,1485,0,0
371,-461,0,0,0,0,0,0,0,0,0,-1,1595,1485,0,0
378,-461,0,0,0,0,0,0,0,0,0,-1,1602,1485,0,0
385,-461,0,0,0,0,0,0,0,0,0,-1,1609,1485,0,0
392,-461,0,0,0,0,0,0,0,0,0,-1,1616,1485,0,0
399,-461,0,0,0,0,0,0,0,0,0,-1,1623,1485,0,0
406,-461,0,0,0,0,0,0,0,0,0,-1,1630,1485,0,0
413,-461,0,0,0,0,0,0,0,0,0,-1,1637,1485,0,0
420,-461,0,0,0,0,0,0,0,0,0,-1,1644,1485,0,0
427,-461,0,0,0,0,0,0,0,0,0,-1,1651,1485,0,0
434,-461,0,0,0,0,0,0,0,0,0,-1,1658,1485,0,0
441,-461,0,0,0,0,0,0,0,0,0,-1,1665,1485,0,0
448,-461,0,0,0,0,0,0,0,0,0,-1,1672,1485,0,0
455,-461,0,0,0,0,0,0,0,0,0,-1,1679,1485,0,0
462,-461,0,0,0,0,0,0,0,0,0,-1,1686,1485,0,0
469,-461,0,0,0,0,0,0,0,0,0,-1,1693,1485,0,0
476,-461,14.1906,0.690552,0,0,0,0,0,0,0,-1,1700,1485,14.1906,-0.690525
483,-461,10.6361,3.09106,0,0,0,0,0,0,0,-1,1707,1485,10.6361,-3.091
490,-461,16.0254,4.19189,0,0,0,0,0,0,0,-1,1714,1485,16.0253,-4.19195
497,-461,15.4591,4.46643,0,0,0,0,0,0,0,-1,1721,1485,15.4591,-4.46646
504,-461,15.1226,4.86816,0,0,0,0,0,0,0,-1,1728,1485,15.1226,-4.86813
511,-461,13.7483,5.5293,0,0,0,0,0,0,0,-1,1735,1485,13.7483,-5.52924
518,-461,13.4612,5.14038,0,0,0,0,0,0,0,-1,1742,1485,13.4612,-5.14035
525,-461,11.3566,8.0813,0,0,0,0,0,0,0,-1,1749,1485,11.3566,-8.08133
532,-461,11.1897,7.54907,0,0,0,0,0,0,0,-1,1756,1485,11.1897,-7.54913
539,-461,10.6707,6.68127,0,0,0,0,0,0,0,-1,1763,1485,10.6707,-6.68129
546,-461,10.6189,7.96985,0,0,0,0,0,0,0,-1,1770,1485,10.6189,-7.9698
553,-461,10.6089,7.95459,-0.0342525,-0.0274026,0.0216486,-0.0089097,-0.0527454,0.863851,0.0326021,0.0413683,1777,1485,10.6089,-7.95464
560,-461,10.4856,8.25549,-0.0231977,-0.0201043,0.0177418,-0.0038419,-0.0394601,0.828878,0.0251242,0.0283304,1784,1485,10.4856,-8.25552
567,-461,10.5837,8.19702,-0.0145803,-0.0144396,0.014174,-0.000335808,-0.0286841,0.78788,0.0190118,0.0129436,1791,1485,10.5837,-8.19702
574,-461,10.5864,8.02051,-0.00947951,-0.0110253,0.010995,0.000769723,-0.0212746,0.750308,0.0144465,0.0135006,1798,1485,10.5864,-8.0205
581,-461,10.5833,7.82861,-0.00667476,-0.00876397,0.00858512,0.000929071,-0.0163678,0.724858,0.0112344,0.0126286,1805,1485,10.5832,-7.82857
588,-461,10.5642,7.65454,-0.00479261,-0.00641931,0.00643112,0.000876386,-0.0120883,0.722497,0.00836632,0.0101528,1812,1485,10.5643,-7.65451
595,-461,10.5497,7.46216,-0.00348492,-0.00460015,0.00467174,0.000662367,-0.00874744,0.726,0.00606449,0.00813526,1819,1485,10.5497,-7.46215
602,-461,10.5472,7.25598,-0.0021741,-0.00338808,0.00321883,0.000494471,-0.00605665,0.692205,0.00421227,0.00869227,1826,1485,10.5473,-7.25593
609,-461,10.5663,7.04443,-0.000530486,-0.002434,0.00181165,0.0005642,-0.00352869,0.543536,0.00256132,0.0110925,1833,1485,10.5663,-7.04446
616,-461,10.5765,6.83875,0.00116498,-0.00181505,0.000332548,0.00120164,-0.00185171,0.109793,0.00177612,0.0131608,1840,1485,10.5765,-6.83879
623,-461,10.554,6.64355,0.00310193,-0.00145467,-0.00148984,0.00354581,-0.00189855,-0.289565,0.0031909,0.011691,1847,1485,10.554,-6.6436
630,-461,10.5531,6.4364,0.00520172,-0.00159818,-0.00296034,0.0063099,-0.00270636,-0.358195,0.00534233,0.009911,1854,1485,10.5532,-6.43646
637,-461,10.5658,6.24109,0.00813524,-0.00201328,-0.00520718,0.0103317,-0.00420971,-0.399163,0.00863991,0.0110788,1861,1485,10.5658,-6.24115
644,-461,10.6036,6.06714,0.0117807,-0.00266621,-0.008216,0.0154972,-0.00638262,-0.424797,0.0129925,0.020735,1868,1485,10.6036,-6.06715
651,-461,10.5728,5.84058,0.0160909,-0.00362211,-0.0122181,0.0219325,-0.00946375,-0.445987,0.018597,0.0268223,1875,1485,10.5728,-5.84058
658,-461,11.1844,5.69495,0.0214741,-0.00457828,-0.0178103,0.0305135,-0.0136177,-0.469658,0.0260941,0.0422274,1882,1485,11.1845,-5.69499
665,-461,11.7671,5.57178,0,0,0,0,0,0,0,-1,1889,1485,11.7671,-5.57173
672,-461,12.2932,5.31067,0,0,0,0,0,0,0,-1,1896,1485,12.2932,-5.31066
679,-461,10.0535,2.16321,0,0,0,0,0,0,0,-1,1903,1485,10.0535,-2.16317
686,-461,10.8195,1.84192,0,0,0,0,0,0,0,-1,1910,1485,10.8194,-1.84195
693,-461,0,0,0,0,0,0,0,0,0,-1,1917,1485,0,0
700,-461,0,0,0,0,0,0,0,0,0,-1,1924,1485,0,0
707,-461,0,0,0,0,0,0,0,0,0,-1,1931,1485,0,0
714,-461,0,0,0,0,0,0,0,0,0,-1,1938,1485,0,0
721,-461,0,0,0,0,0,0,0,0,0,-1,1945,1485,0,0
728,-461,0,0,0,0,0,0,0,0,0,-1,1952,1485,0,0
735,-461,0,0,0,0,0,0,0,0,0,-1,1959,1485,0,0
742,-461,0,0,0,0,0,0,0,0,0,-1,1966,1485,0,0
749,-461,0,0,0,0,0,0,0,0,0,-1,1973,1485,0,0
756,-461,0,0,0,0,0,0,0,0,0,-1,1980,1485,0,0
763,-461,0,0,0,0,0,0,0,0,0,-1,1987,1485,0,0
770,-461,0,0,0,0,0,0,0,0,0,-1,1994,1485,0,0
777,-461,0,0,0,0,0,0,0,0,0,-1,2001,1485,0,0
784,-461,0,0,0,0,0,0,0,0,0,-1,2008,1485,0,0
791,-461,0,0,0,0,0,0,0,0,0,-1,2015,1485,0,0
798,-461,0,0,0,0,0,0,0,0,0,-1,2022,1485,0,0
805,-461,0,0,0,0,0,0,0,0,0,-1,2029,1485,0,0
812,-461,0,0,0,0,0,0,0,0,0,-1,2036,1485,0,0
-700,-468,0,0,0,0,0,0,0,0,0,-1,524,1492,0,0
-693,-468,0,0,0,0,0,0,0,0,0,-1,531,1492,0,0
-686,-468,0,0,0,0,0,0,0,0,0,-1,538,1492,0,0
-679,-468,0,0,0,0,0,0,0,0,0,-1,545,1492,0,0
-672,-468,0,0,0,0,0,0,0,0,0,-1,552,1492,0,0
-665,-468,0,0,0,0,0,0,0,0,0,-1,559,1492,0,0
-658,-468,0,0,0,0,0,0,0,0,0,-1,566,1492,0,0
-651,-468,0,0,0,0,0,0,0,0,0,-1,573,1492,0,0
-644,-468,0,0,0,0,0,0,0,0,0,-1,580,1492,0,0
-637,-468,0,0,0,0,0,0,0,0,0,-1,587,1492,0,0
-630,-468,0,0,0,0,0,0,0,0,0,-1,594,1492,0,0
-623,-468,0,0,0,0,0,0,0,0,0,-1,601,1492,0,0
-616,-468,0,0,0,0,0,0,0,0,0,-1,608,1492,0,0
-609,-468,0,0,0,0,0,0,0,0,0,-1,615,1492,0,0
-602,-468,0,0,0,0,0,0,0,0,0,-1,622,1492,0,0
-595,-468,0,0,0,0,0,0,0,0,0,-1,629,1492,0,0
-588,-468,0,0,0,0,0,0,0,0,0,-1,636,1492,0,0
-581,-468,0,0,0,0,0,0,0,0,0,-1,643,1492,0,0
-574,-468,0,0,0,0,0,0,0,0,0,-1,650,1492,0,0
-567,-468,-11.2603,1.8042,0,0,0,0,0,0,0,-1,657,1492,-11.2603,-1.80424
-560,-468,-8.77441,2.23694,0,0,0,0,0,0,0,-1,664,1492,-8.77443,-2.23692
-553,-468,-5.94061,9.26318,0,0,0,0,0,0,0,-1,671,1492,-5.94062,-9.26322
-546,-468,-6.26013,-0.447388,0,0,0,0,0,0,0,-1,678,1492,-6.26015,0.447339
-539,-468,-3.19373,2.73291,0.0690527,-0.0127198,0.0135887,0.0712517,-0.0149188,0.160434,0.0531763,0.0454654,685,1492,-3.19374,-2.73292
-532,-468,-2.87012,3.31201,0.0560289,-0.0125465,0.00239269,0.0561122,-0.0126299,0.0348349,0.0422521,0.043384,692,1492,-2.8701,-3.31205
-525,-468,-2.58789,3.82837,0.0440131,-0.0109299,-0.00393003,0.0442928,-0.0112096,-0.0710472,0.0338888,0.0437249,699,1492,-2.58791,-3.82836
-518,-468,-2.40894,3.98718,0.0338327,-0.00919634,-0.00862058,0.0354955,-0.0108592,-0.190549,0.0279945,0.0445173,706,1492,-2.40894,-3.98722
-511,-468,-2.05713,4.1582,0.0249728,-0.00703143,-0.00985856,0.0277658,-0.0098245,-0.276079,0.0225117,0.0337512,713,1492,-2.05712,-4.1582
-504,-468,-1.98596,4.46777,0.0178038,-0.00450642,-0.00773177,0.0202214,-0.00692395,-0.303044,0.0162871,0.0145501,720,1492,-1.98595,-4.4678
-497,-468,-2.00909,4.71057,0.0119587,-0.00351056,-0.00622383,0.0141518,-0.0057037,-0.338792,0.0118044,0.00915209,727,1492,-2.00911,-4.71051
-490,-468,-1.99817,4.93591,0.00793303,-0.00292103,-0.00483771,0.00977622,-0.00476422,-0.364024,0.00855955,0.00770592,734,1492,-1.99818,-4.93586
-483,-468,-2.00079,5.15173,0.00506201,-0.00136006,-0.00365824,0.00671857,-0.00301662,-0.425204,0.00575448,0.00814489,741,1492,-2.00079,-5.1517
-476,-468,-2.0011,5.38538,0.00341384,-0.00137083,-0.00230125,0.004341,-0.00229798,-0.382997,0.00389304,0.00894922,748,1492,-2.0011,-5.38542
-469,-468,-2.00262,5.61975,0.00287344,-0.00274986,-0.00178484,0.00339211,-0.00326853,-0.282809,0.00384574,0.0130459,755,1492,-2.00262,-5.6198
-462,-468,-1.99054,5.84949,0.00263291,-0.00440401,-0.00179446,0.00306409,-0.00483519,-0.235813,0.0045987,0.0218732,762,1492,-1.99055,-5.84946
-455,-468,-2.00635,6.04443,0.00249162,-0.00657532,-0.00249679,0.0031337,-0.0072174,-0.251708,0.00612928,0.0224554,769,1492,-2.00634,-6.04443
-448,-468,-2.01215,6.2406,0.00169617,-0.00954183,-0.0034633,0.00267775,-0.0105234,-0.27618,0.00805789,0.0134878,776,1492,-2.01215,-6.24065
-441,-468,-1.99982,6.49023,-0.000257984,-0.0129393,-0.00464679,0.00126244,-0.0144597,-0.316219,0.010087,0.0120845,783,1492,-1.99982,-6.49022
-434,-468,-1.97168,6.73047,-0.00305968,-0.0162078,-0.00581472,-0.000857111,-0.0184104,-0.362091,0.0119981,0.0123766,790,1492,-1.97165,-6.73048
-427,-468,-1.92041,6.91431,-0.00731083,-0.0201958,-0.0072228,-0.00407476,-0.0234319,-0.421219,0.0144557,0.0162612,797,1492,-1.92041,-6.91425
-420,-468,-1.80823,7.03076,-0.0132204,-0.0242238,-0.0086408,-0.00847849,-0.0289658,-0.50191,0.0171958,0.0289374,804,1492,-1.80824,-7.03079
-413,-468,-1.58923,7.15173,0,0,0,0,0,0,0,-1,811,1492,-1.58923,-7.15178
-406,-468,-1.21368,6.67737,0,0,0,0,0,0,0,-1,818,1492,-1.21368,-6.67735
-399,-468,-0.982483,6.77234,0,0,0,0,0,0,0,-1,825,1492,-0.982465,-6.77237
-392,-468,-0.674316,6.88867,0,0,0,0,0,0,0,-1,832,1492,-0.67434,-6.88868
-385,-468,0.465759,5.35864,0,0,0,0,0,0,0,-1,839,1492,0.465732,-5.35864
-378,-468,1.99835,3.25391,0,0,0,0,0,0,0,-1,846,1492,1.99837,-3.2539
-371,-468,-0.31842,3.1532,0,0,0,0,0,0,0,-1,853,1492,-0.318441,-3.15324
-364,-468,-0.966736,2.14563,0,0,0,0,0,0,0,-1,860,1492,-0.966735,-2.14557
-357,-468,-3.06787,3.22742,0,0,0,0,0,0,0,-1,867,1492,-3.06784,-3.2274
-350,-468,-3.18658,4.12659,0,0,0,0,0,0,0,-1,874,1492,-3.18659,-4.12658
-343,-468,0,0,0,0,0,0,0,0,0,-1,881,1492,0,0
-336,-468,0,0,0,0,0,0,0,0,0,-1,888,1492,0,0
-329,-468,0,0,0,0,0,0,0,0,0,-1,895,1492,0,0
-322,-468,0,0,0,0,0,0,0,0,0,-1,902,1492,0,0
-315,-468,0,0,0,0,0,0,0,0,0,-1,909,1492,0,0
-308,-468,0,0,0,0,0,0,0,0,0,-1,916,1492,0,0
-301,-468,0,0,0,0,0,0,0,0,0,-1,923,1492,0,0
-294,-468,0,0,0,0,0,0,0,0,0,-1,930,1492,0,0
-287,-468,0,0,0,0,0,0,0,0,0,-1,937,1492,0,0
-280,-468,0,0,0,0,0,0,0,0,0,-1,944,1492,0,0
-273,-468,0,0,0,0,0,0,0,0,0,-1,951,1492,0,0
-266,-468,0,0,0,0,0,0,0,0,0,-1,958,1492,0,0
-259,-468,0,0,0,0,0,0,0,0,0,-1,965,1492,0,0
-252,-468,0,0,0,0,0,0,0,0,0,-1,972,1492,0,0
-245,-468,0,0,0,0,0,0,0,0,0,-1,979,1492,0,0
-238,-468,0,0,0,0,0,0,0,0,0,-1,986,1492,0,0
-231,-468,0,0,0,0,0,0,0,0,0,-1,993,1492,0,0
-224,-468,0,0,0,0,0,0,0,0,0,-1,1000,1492,0,0
-217,-468,0,0,0,0,0,0,0,0,0,-1,1007,1492,0,0
-210,-468,0,0,0,0,0,0,0,0,0,-1,1014,1492,0,0
-203,-468,0,0,0,0,0,0,0,0,0,-1,1021,1492,0,0
-196,-468,0,0,0,0,0,0,0,0,0,-1,1028,1492,0,0
-189,-468,0,0,0,0,0,0,0,0,0,-1,1035,1492,0,0
-182,-468,0,0,0,0,0,0,0,0,0,-1,1042,1492,0,0
-175,-468,0,0,0,0,0,0,0,0,0,-1,1049,1492,0,0
-168,-468,0,0,0,0,0,0,0,0,0,-1,1056,1492,0,0
-161,-468,0,0,0,0,0,0,0,0,0,-1,1063,1492,0,0
-154,-468,0,0,0,0,0,0,0,0,0,-1,1070,1492,0,0
-147,-468,0,0,0,0,0,0,0,0,0,-1,1077,1492,0,0
-140,-468,0,0,0,0,0,0,0,0,0,-1,1084,1492,0,0
-133,-468,0,0,0,0,0,0,0,0,0,-1,1091,1492,0,0
-126,-468,0,0,0,0,0,0,0,0,0,-1,1098,1492,0,0
-119,-468,0,0,0,0,0,0,0,0,0,-1,1105,1492,0,0
-112,-468,0,0,0,0,0,0,0,0,0,-1,1112,1492,0,0
-105,-468,0,0,0,0,0,0,0,0,0,-1,1119,1492,0,0
-98,-468,0,0,0,0,0,0,0,0,0,-1,1126,1492,0,0
-91,-468,0,0,0,0,0,0,0,0,0,-1,1133,1492,0,0
-84,-468,0,0,0,0,0,0,0,0,0,-1,1140,1492,0,0
-77,-468,0,0,0,0,0,0,0,0,0,-1,1147,1492,0,0
-70,-468,0,0,0,0,0,0,0,0,0,-1,1154,1492,0,0
-63,-468,0,0,0,0,0,0,0,0,0,-1,1161,1492,0,0
-56,-468,0,0,0,0,0,0,0,0,0,-1,1168,1492,0,0
-49,-468,0,0,0,0,0,0,0,0,0,-1,1175,1492,0,0
-42,-468,0,0,0,0,0,0,0,0,0,-1,1182,1492,0,0
-35,-468,0,0,0,0,0,0,0,0,0,-1,1189,1492,0,0
-28,-468,0,0,0,0,0,0,0,0,0,-1,1196,1492,0,0
-21,-468,0,0,0,0,0,0,0,0,0,-1,1203,1492,0,0
-14,-468,0,0,0,0,0,0,0,0,0,-1,1210,1492,0,0
-7,-468,0,0,0,0,0,0,0,0,0,-1,1217,1492,0,0
0,-468,0,0,0,0,0,0,0,0,0,-1,1224,1492,0,0
7,-468,0,0,0,0,0,0,0,0,0,-1,1231,1492,0,0
14,-468,0,0,0,0,0,0,0,0,0,-1,1238,1492,0,0
21,-468,0,0,0,0,0,0,0,0,0,-1,1245,1492,0,0
28,-468,0,0,0,0,0,0,0,0,0,-1,1252,1492,0,0
35,-468,0,0,0,0,0,0,0,0,0,-1,1259,1492,0,0
42,-468,0,0,0,0,0,0,0,0,0,-1,1266,1492,0,0
49,-468,0,0,0,0,0,0,0,0,0,-1,1273,1492,0,0
56,-468,0,0,0,0,0,0,0,0,0,-1,1280,1492,0,0
63,-468,0,0,0,0,0,0,0,0,0,-1,1287,1492,0,0
70,-468,0,0,0,0,0,0,0,0,0,-1,1294,1492,0,0
77,-468,0,0,0,0,0,0,0,0,0,-1,1301,1492,0,0
84,-468,0,0,0,0,0,0,0,0,0,-1,1308,1492,0,0
91,-468,0,0,0,0,0,0,0,0,0,-1,1315,1492,0,0
98,-468,0,0,0,0,0,0,0,0,0,-1,1322,1492,0,0
105,-468,0,0,0,0,0,0,0,0,0,-1,1329,1492,0,0
112,-468,0,0,0,0,0,0,0,0,0,-1,1336,1492,0,0
119,-468,0,0,0,0,0,0,0,0,0,-1,1343,1492,0,0
126,-468,0,0,0,0,0,0,0,0,0,-1,1350,1492,0,0
133,-468,0,0,0,0,0,0,0,0,0,-1,1357,1492,0,0
140,-468,0,0,0,0,0,0,0,0,0,-1,1364,1492,0,0
147,-468,0,0,0,0,0,0,0,0,0,-1,1371,1492,0,0
154,-468,0,0,0,0,0,0,0,0,0,-1,1378,1492,0,0
161,-468,0,0,0,0,0,0,0,0,0,-1,1385,1492,0,0
168,-468,0,0,0,0,0,0,0,0,0,-1,1392,1492,0,0
175,-468,0,0,0,0,0,0,0,0,0,-1,1399,1492,0,0
182,-468,0,0,0,0,0,0,0,0,0,-1,1406,1492,0,0
189,-468,0,0,0,0,0,0,0,0,0,-1,1413,1492,0,0
196,-468,0,0,0,0,0,0,0,0,0,-1,1420,1492,0,0
203,-468,0,0,0,0,0,0,0,0,0,-1,1427,1492,0,0
210,-468,0,0,0,0,0,0,0,0,0,-1,1434,1492,0,0
217,-468,0,0,0,0,0,0,0,0,0,-1,1441,1492,0,0
224,-468,0,0,0,0,0,0,0,0,0,-1,1448,1492,0,0
231,-468,0,0,0,0,0,0,0,0,0,-1,1455,1492,0,0
238,-468,0,0,0,0,0,0,0,0,0,-1,1462,1492,0,0
245,-468,0,0,0,0,0,0,0,0,0,-1,1469,1492,0,0
252,-468,0,0,0,0,0,0,0,0,0,-1,1476,1492,0,0
259,-468,0,0,0,0,0,0,0,0,0,-1,1483,1492,0,0
266,-468,0,0,0,0,0,0,0,0,0,-1,1490,1492,0,0
273,-468,0,0,0,0,0,0,0,0,0,-1,1497,1492,0,0
280,-468,0,0,0,0,0,0,0,0,0,-1,1504,1492,0,0
287,-468,0,0,0,0,0,0,0,0,0,-1,1511,1492,0,0
294,-468,0,0,0,0,0,0,0,0,0,-1,1518,1492,0,0
301,-468,0,0,0,0,0,0,0,0,0,-1,1525,1492,0,0
308,-468,0,0,0,0,0,0,0,0,0,-1,1532,1492,0,0
315,-468,0,0,0,0,0,0,0,0,0,-1,1539,1492,0,0
322,-468,0,0,0,0,0,0,0,0,0,-1,1546,1492,0,0
329,-468,0,0,0,0,0,0,0,0,0,-1,1553,1492,0,0
336,-468,0,0,0,0,0,0,0,0,0,-1,1560,1492,0,0
343,-468,0,0,0,0,0,0,0,0,0,-1,1567,1492,0,0
350,-468,0,0,0,0,0,0,0,0,0,-1,1574,1492,0,0
357,-468,0,0,0,0,0,0,0,0,0,-1,1581,1492,0,0
364,-468,0,0,0,0,0,0,0,0,0,-1,1588,1492,0,0
371,-468,0,0,0,0,0,0,0,0,0,-1,1595,1492,0,0
378,-468,0,0,0,0,0,0,0,0,0,-1,1602,1492,0,0
385,-468,0,0,0,0,0,0,0,0,0,-1,1609,1492,0,0
392,-468,0,0,0,0,0,0,0,0,0,-1,1616,1492,0,0
399,-468,0,0,0,0,0,0,0,0,0,-1,1623,1492,0,0
406,-468,0,0,0,0,0,0,0,0,0,-1,1630,1492,0,0
413,-468,0,0,0,0,0,0,0,0,0,-1,1637,1492,0,0
420,-468,0,0,0,0,0,0,0,0,0,-1,1644,1492,0,0
427,-468,0,0,0,0,0,0,0,0,0,-1,1651,1492,0,0
434,-468,0,0,0,0,0,0,0,0,0,-1,1658,1492,0,0
441,-468,0,0,0,0,0,0,0,0,0,-1,1665,1492,0,0
448,-468,0,0,0,0,0,0,0,0,0,-1,1672,1492,0,0
455,-468,0,0,0,0,0,0,0,0,0,-1,1679,1492,0,0
462,-468,0,0,0,0,0,0,0,0,0,-1,1686,1492,0,0
469,-468,15.6879,1.2677,0,0,0,0,0,0,0,-1,1693,1492,15.6879,-1.26772
476,-468,14.9318,1.61865,0,0,0,0,0,0,0,-1,1700,1492,14.9318,-1.61869
483,-468,11.265,4.64795,0,0,0,0,0,0,0,-1,1707,1492,11.265,-4.64798
490,-468,12.1316,3.51624,0,0,0,0,0,0,0,-1,1714,1492,12.1316,-3.51628
497,-468,16.4509,5.17798,0,0,0,0,0,0,0,-1,1721,1492,16.451,-5.17794
504,-468,15.073,5.82739,-0.175296,-0.100396,0.050682,-0.0748288,-0.200863,1.10359,0.117218,0.0479276,1728,1492,15.0729,-5.82737
511,-468,13.682,6.50232,-0.146078,-0.0870921,0.0440247,-0.0635944,-0.169576,1.08052,0.0989187,0.0469719,1735,1492,13.682,-6.50228
518,-468,11.6348,8.13782,0,0,0,0,0,0,0,-1,1742,1492,11.6347,-8.13786
525,-468,11.2554,8.17615,-0.0943593,-0.0599504,0.0337268,-0.0392934,-0.115016,1.02125,0.0675058,0.0492415,1749,1492,11.2554,-8.17618
532,-468,10.9918,8.01343,-0.0731453,-0.0484596,0.029474,-0.0288484,-0.0927565,0.983689,0.0548133,0.0491512,1756,1492,10.9918,-8.01341
539,-468,10.7733,7.81958,0,0,0,0,0,0,0,-1,1763,1492,10.7733,-7.81958
546,-468,10.3918,8.26819,-0.0409942,-0.0309205,0.0212564,-0.0141123,-0.0578024,0.901732,0.0347981,0.0483897,1770,1492,10.3918,-8.26824
553,-468,10.4493,8.24292,-0.0294777,-0.0237763,0.0176699,-0.00872864,-0.0445254,0.865375,0.0272442,0.0343018,1777,1492,10.4493,-8.24289
560,-468,10.3743,8.3551,-0.0195141,-0.017254,0.014205,-0.00413421,-0.0326339,0.825091,0.0205172,0.0185476,1784,1492,10.3742,-8.35511
567,-468,10.3673,8.2406,-0.0117678,-0.0121139,0.0111276,-0.00081191,-0.0230699,0.777623,0.0151165,0.0134375,1791,1492,10.3674,-8.24063
574,-468,10.3848,8.02966,-0.0071274,-0.00896609,0.00844599,0.000449131,-0.0165426,0.731187,0.0111811,0.0134145,1798,1492,10.3848,-8.02968
581,-468,10.3824,7.83643,-0.00472185,-0.00690359,0.00651124,0.000789266,-0.0124147,0.702401,0.00855171,0.0139805,1805,1492,10.3825,-7.83636
588,-468,10.3657,7.6571,-0.00316035,-0.00484193,0.00478012,0.00085236,-0.00885464,0.698342,0.00620675,0.0118888,1812,1492,10.3657,-7.6571
595,-468,10.3695,7.45801,-0.00215508,-0.00323616,0.00340246,0.000749511,-0.00614076,0.706623,0.00436518,0.00954716,1819,1492,10.3695,-7.45801
602,-468,10.3591,7.2428,-0.00111535,-0.00221412,0.00229216,0.000692348,-0.00402182,0.667776,0.0029393,0.00828985,1826,1492,10.3592,-7.24277
609,-468,10.3525,7.03564,0.000364795,-0.00149351,0.0011711,0.000930566,-0.00205928,0.450046,0.00176672,0.00922283,1833,1492,10.3525,-7.03569
616,-468,10.358,6.84534,0.00184372,-0.00112429,-2.76007e-05,0.00184398,-0.00112454,-0.00929832,0.00173057,0.00941198,1840,1492,10.358,-6.84532
623,-468,10.3595,6.65332,0.00371797,-0.00105739,-0.00170466,0.00426404,-0.00160346,-0.310011,0.00350177,0.0100059,1847,1492,10.3594,-6.65336
630,-468,10.3823,6.43555,0.00596987,-0.00146064,-0.00315483,0.00712863,-0.00261941,-0.352002,0.00582529,0.0103797,1854,1492,10.3823,-6.43557
637,-468,10.3931,6.21362,0.00928489,-0.00228454,-0.00545367,0.0114504,-0.00445001,-0.377975,0.009472,0.0137438,1861,1492,10.393,-6.21368
644,-468,10.3688,6.08313,0.0137027,-0.00336183,-0.00877909,0.0174126,-0.00707179,-0.399828,0.0145503,0.0307058,1868,1492,10.3688,-6.08319
651,-468,10.7389,6.0238,0.019452,-0.00473813,-0.0135644,0.0255306,-0.0108168,-0.4213,0.0215507,0.0476087,1875,1492,10.7389,-6.02383
658,-468,11.4987,5.8335,0.0270497,-0.00631799,-0.0204456,0.0367548,-0.016023,-0.443184,0.0312451,0.0423327,1882,1492,11.4987,-5.8335
665,-468,12.1384,5.495,0,0,0,0,0,0,0,-1,1889,1492,12.1384,-5.49504
672,-468,9.96814,3.61133,0,0,0,0,0,0,0,-1,1896,1492,9.96817,-3.61139
679,-468,11.2191,1.91968,0,0,0,0,0,0,0,-1,1903,1492,11.2191,-1.91965
686,-468,11.9252,1.42285,0,0,0,0,0,0,0,-1,1910,1492,11.9252,-1.42291
693,-468,0,0,0,0,0,0,0,0,0,-1,1917,1492,0,0
700,-468,0,0,0,0,0,0,0,0,0,-1,1924,1492,0,0
707,-468,0,0,0,0,0,0,0,0,0,-1,1931,1492,0,0
714,-468,0,0,0,0,0,0,0,0,0,-1,1938,1492,0,0
721,-468,0,0,0,0,0,0,0,0,0,-1,1945,1492,0,0
728,-468,0,0,0,0,0,0,0,0,0,-1,1952,1492,0,0
735,-468,0,0,0,0,0,0,0,0,0,-1,1959,1492,0,0
742,-468,0,0,0,0,0,0,0,0,0,-1,1966,1492,0,0
749,-468,0,0,0,0,0,0,0,0,0,-1,1973,1492,0,0
756,-468,0,0,0,0,0,0,0,0,0,-1,1980,1492,0,0
763,-468,0,0,0,0,0,0,0,0,0,-1,1987,1492,0,0
770,-468,0,0,0,0,0,0,0,0,0,-1,1994,1492,0,0
777,-468,0,0,0,0,0,0,0,0,0,-1,2001,1492,0,0
784,-468,0,0,0,0,0,0,0,0,0,-1,2008,1492,0,0
791,-468,0,0,0,0,0,0,0,0,0,-1,2015,1492,0,0
798,-468,0,0,0,0,0,0,0,0,0,-1,2022,1492,0,0
805,-468,0,0,0,0,0,0,0,0,0,-1,2029,1492,0,0
812,-468,0,0,0,0,0,0,0,0,0,-1,2036,1492,0,0
-700,-475,0,0,0,0,0,0,0,0,0,-1,524,1499,0,0
-693,-475,0,0,0,0,0,0,0,0,0,-1,531,1499,0,0
-686,-475,0,0,0,0,0,0,0,0,0,-1,538,1499,0,0
-679,-475,0,0,0,0,0,0,0,0,0,-1,545,1499,0,0
-672,-475,0,0,0,0,0,0,0,0,0,-1,552,1499,0,0
-665,-475,0,0,0,0,0,0,0,0,0,-1,559,1499,0,0
-658,-475,0,0,0,0,0,0,0,0,0,-1,566,1499,0,0
-651,-475,0,0,0,0,0,0,0,0,0,-1,573,1499,0,0
-644,-475,0,0,0,0,0,0,0,0,0,-1,580,1499,0,0
-637,-475,0,0,0,0,0,0,0,0,0,-1,587,1499,0,0
-630,-475,0,0,0,0,0,0,0,0,0,-1,594,1499,0,0
-623,-475,0,0,0,0,0,0,0,0,0,-1,601,1499,0,0
-616,-475,0,0,0,0,0,0,0,0,0,-1,608,1499,0,0
-609,-475,0,0,0,0,0,0,0,0,0,-1,615,1499,0,0
-602,-475,0,0,0,0,0,0,0,0,0,-1,622,1499,0,0
-595,-475,0,0,0,0,0,0,0,0,0,-1,629,1499,0,0
-588,-475,0,0,0,0,0,0,0,0,0,-1,636,1499,0,0
-581,-475,0,0,0,0,0,0,0,0,0,-1,643,1499,0,0
-574,-475,0,0,0,0,0,0,0,0,0,-1,650,1499,0,0
-567,-475,0,0,0,0,0,0,0,0,0,-1,657,1499,0,0
-560,-475,-9.42731,9.29517,0,0,0,0,0,0,0,-1,664,1499,-9.42731,-9.29519
-553,-475,-8.15131,8.78369,0,0,0,0,0,0,0,-1,671,1499,-8.15131,-8.78367
-546,-475,-5.57843,8.55823,0,0,0,0,0,0,0,-1,678,1499,-5.57841,-8.55828
-539,-475,-4.66516,7.78235,0.0712632,-0.0158891,-0.0021357,0.0713155,-0.0159414,-0.0244857,0.0536528,0.0447775,685,1499,-4.66514,-7.78239
-532,-475,-3.65747,7.09277,0.058508,-0.0147515,-0.0105603,0.0599999,-0.0162434,-0.140343,0.0463726,0.0441841,692,1499,-3.65746,-7.09282
-525,-475,-2.35492,3.53479,0.0464898,-0.0123093,-0.0142637,0.0497673,-0.0155868,-0.225855,0.0394148,0.0445788,699,1499,-2.35494,-3.53483
-518,-475,-3.47656,5.45801,0.0362351,-0.0100184,-0.0164778,0.0415049,-0.0152882,-0.309532,0.0339341,0.0463021,706,1499,-3.47657,-5.45803
-511,-475,-2.08429,3.93774,0.0272479,-0.0075396,-0.0156162,0.0332295,-0.0135212,-0.3658,0.0277795,0.0486996,713,1499,-2.0843,-3.93774
-504,-475,-1.7486,4.47827,0.0198944,-0.00499712,-0.012055,0.0247755,-0.00987821,-0.384725,0.0206143,0.0281363,720,1499,-1.7486,-4.47826
-497,-475,-1.78784,4.72815,0.0138316,-0.00391989,-0.00931935,0.0178255,-0.00791385,-0.404887,0.0152235,0.0136964,727,1499,-1.78782,-4.72811
-490,-475,-1.76978,4.94482,0.00949353,-0.00319002,-0.00696453,0.012571,-0.00626752,-0.416083,0.0110775,0.00815013,734,1499,-1.76975,-4.9448
-483,-475,-1.76093,5.17773,0.00621596,-0.0014569,-0.00503105,0.00870643,-0.00394737,-0.459656,0.00747592,0.00859291,741,1499,-1.7609,-5.17775
-476,-475,-1.76074,5.40234,0.00413373,-0.00132844,-0.00305105,0.00549748,-0.0026922,-0.420339,0.00481989,0.0102741,748,1499,-1.76076,-5.4024
-469,-475,-1.75543,5.62769,0.00318067,-0.00240845,-0.00200761,0.00382705,-0.00305483,-0.311484,0.00398158,0.0120387,755,1499,-1.75544,-5.62772
-462,-475,-1.74634,5.84119,0.00286754,-0.00361519,-0.00143107,0.0031694,-0.00391705,-0.207883,0.00409894,0.0163996,762,1499,-1.74636,-5.84124
-455,-475,-1.77856,6.02319,0.00288581,-0.00513726,-0.0016889,0.00322684,-0.00547828,-0.199243,0.00508163,0.0156238,769,1499,-1.77855,-6.02321
-448,-475,-1.79437,6.28296,0.00281487,-0.00710783,-0.00216614,0.00326713,-0.00756009,-0.205829,0.0064128,0.013587,776,1499,-1.79436,-6.28299
-441,-475,-1.7829,6.54626,0.00208667,-0.0093401,-0.00278963,0.00273134,-0.00998477,-0.227106,0.00772953,0.016726,783,1499,-1.78289,-6.54625
-434,-475,-1.79083,6.73206,0.00101951,-0.0113606,-0.00335427,0.0018699,-0.012211,-0.248294,0.00883019,0.0113471,790,1499,-1.79086,-6.73205
-427,-475,-1.75458,6.98218,-0.000740323,-0.0140563,-0.00407884,0.00040974,-0.0152064,-0.274824,0.0102769,0.0133866,797,1499,-1.75458,-6.98218
-420,-475,-1.64545,7.14526,-0.00372251,-0.0167393,-0.00473392,-0.00218298,-0.0182789,-0.314425,0.0115274,0.0208773,804,1499,-1.64542,-7.14525
-413,-475,-1.37744,7.05176,-0.00840738,-0.0199939,-0.00552268,-0.00619677,-0.0222045,-0.380746,0.0132303,0.0392913,811,1499,-1.37742,-7.05176
-406,-475,-1.25043,7.21155,0,0,0,0,0,0,0,-1,818,1499,-1.25041,-7.2115
-399,-475,-1.67731,5.84595,0,0,0,0,0,0,0,-1,825,1499,-1.67733,-5.84596
-392,-475,-0.826538,7.61597,0,0,0,0,0,0,0,-1,832,1499,-0.826525,-7.616
-385,-475,1.18372,2.73999,0,0,0,0,0,0,0,-1,839,1499,1.18372,-2.73995
-378,-475,1.31409,2.90149,0,0,0,0,0,0,0,-1,846,1499,1.31411,-2.90151
-371,-475,2.3476,3.31116,0,0,0,0,0,0,0,-1,853,1499,2.34761,-3.31121
-364,-475,1.04462,9.05823,0,0,0,0,0,0,0,-1,860,1499,1.04461,-9.05825
-357,-475,-0.262756,7.97205,0,0,0,0,0,0,0,-1,867,1499,-0.262784,-7.97205
-350,-475,-2.77173,4.35486,0,0,0,0,0,0,0,-1,874,1499,-2.77175,-4.35491
-343,-475,-6.81641,-1.95203,0,0,0,0,0,0,0,-1,881,1499,-6.81643,1.95198
-336,-475,0,0,0,0,0,0,0,0,0,-1,888,1499,0,0
-329,-475,0,0,0,0,0,0,0,0,0,-1,895,1499,0,0
-322,-475,0,0,0,0,0,0,0,0,0,-1,902,1499,0,0
-315,-475,0,0,0,0,0,0,0,0,0,-1,909,1499,0,0
-308,-475,0,0,0,0,0,0,0,0,0,-1,916,1499,0,0
-301,-475,0,0,0,0,0,0,0,0,0,-1,923,1499,0,0
-294,-475,0,0,0,0,0,0,0,0,0,-1,930,1499,0,0
-287,-475,0,0,0,0,0,0,0,0,0,-1,937,1499,0,0
-280,-475,0,0,0,0,0,0,0,0,0,-1,944,1499,0,0
-273,-475,0,0,0,0,0,0,0,0,0,-1,951,1499,0,0
-266,-475,0,0,0,0,0,0,0,0,0,-1,958,1499,0,0
-259,-475,0,0,0,0,0,0,0,0,0,-1,965,1499,0,0
-252,-475,0,0,0,0,0,0,0,0,0,-1,972,1499,0,0
-245,-475,0,0,0,0,0,0,0,0,0,-1,979,1499,0,0
-238,-475,0,0,0,0,0,0,0,0,0,-1,986,1499,0,0
-231,-475,0,0,0,0,0,0,0,0,0,-1,993,1499,0,0
-224,-475,0,0,0,0,0,0,0,0,0,-1,1000,1499,0,0
-217,-475,0,0,0,0,0,0,0,0,0,-1,1007,1499,0,0
-210,-475,0,0,0,0,0,0,0,0,0,-1,1014,1499,0,0
-203,-475,0,0,0,0,0,0,0,0,0,-1,1021,1499,0,0
-196,-475,0,0,0,0,0,0,0,0,0,-1,1028,1499,0,0
-189,-475,0,0,0,0,0,0,0,0,0,-1,1035,1499,0,0
-182,-475,0,0,0,0,0,0,0,0,0,-1,1042,1499,0,0
-175,-475,0,0,0,0,0,0,0,0,0,-1,1049,1499,0,0
-168,-475,0,0,0,0,0,0,0,0,0,-1,1056,1499,0,0
-161,-475,0,0,0,0,0,0,0,0,0,-1,1063,1499,0,0
-154,-475,0,0,0,0,0,0,0,0,0,-1,1070,1499,0,0
-147,-475,0,0,0,0,0,0,0,0,0,-1,1077,1499,0,0
-140,-475,0,0,0,0,0,0,0,0,0,-1,1084,1499,0,0
-133,-475,0,0,0,0,0,0,0,0,0,-1,1091,1499,0,0
-126,-475,0,0,0,0,0,0,0,0,0,-1,1098,1499,0,0
-119,-475,0,0,0,0,0,0,0,0,0,-1,1105,1499,0,0
-112,-475,0,0,0,0,0,0,0,0,0,-1,1112,1499,0,0
-105,-475,0,0,0,0,0,0,0,0,0,-1,1119,1499,0,0
-98,-475,0,0,0,0,0,0,0,0,0,-1,1126,1499,0,0
-91,-475,0,0,0,0,0,0,0,0,0,-1,1133,1499,0,0
-84,-475,0,0,0,0,0,0,0,0,0,-1,1140,1499,0,0
-77,-475,0,0,0,0,0,0,0,0,0,-1,1147,1499,0,0
-70,-475,0,0,0,0,0,0,0,0,0,-1,1154,1499,0,0
-63,-475,0,0,0,0,0,0,0,0,0,-1,1161,1499,0,0
-56,-475,0,0,0,0,0,0,0,0,0,-1,1168,1499,0,0
-49,-475,0,0,0,0,0,0,0,0,0,-1,1175,1499,0,0
-42,-475,0,0,0,0,0,0,0,0,0,-1,1182,1499,0,0
-35,-475,0,0,0,0,0,0,0,0,0,-1,1189,1499,0,0
-28,-475,0,0,0,0,0,0,0,0,0,-1,1196,1499,0,0
-21,-475,0,0,0,0,0,0,0,0,0,-1,1203,1499,0,0
-14,-475,0,0,0,0,0,0,0,0,0,-1,1210,1499,0,0
-7,-475,0,0,0,0,0,0,0,0,0,-1,1217,1499,0,0
0,-475,0,0,0,0,0,0,0,0,0,-1,1224,1499,0,0
7,-475,0,0,0,0,0,0,0,0,0,-1,1231,1499,0,0
14,-475,0,0,0,0,0,0,0,0,0,-1,1238,1499,0,0
21,-475,0,0,0,0,0,0,0,0,0,-1,1245,1499,0,0
28,-475,0,0,0,0,0,0,0,0,0,-1,1252,1499,0,0
35,-475,0,0,0,0,0,0,0,0,0,-1,1259,1499,0,0
42,-475,0,0,0,0,0,0,0,0,0,-1,1266,1499,0,0
49,-475,0,0,0,0,0,0,0,0,0,-1,1273,1499,0,0
56,-475,0,0,0,0,0,0,0,0,0,-1,1280,1499,0,0
63,-475,0,0,0,0,0,0,0,0,0,-1,1287,1499,0,0
70,-475,0,0,0,0,0,0,0,0,0,-1,1294,1499,0,0
77,-475,0,0,0,0,0,0,0,0,0,-1,1301,1499,0,0
84,-475,0,0,0,0,0,0,0,0,0,-1,1308,1499,0,0
91,-475,0,0,0,0,0,0,0,0,0,-1,1315,1499,0,0
98,-475,0,0,0,0,0,0,0,0,0,-1,1322,1499,0,0
105,-475,0,0,0,0,0,0,0,0,0,-1,1329,1499,0,0
112,-475,0,0,0,0,0,0,0,0,0,-1,1336,1499,0,0
119,-475,0,0,0,0,0,0,0,0,0,-1,1343,1499,0,0
126,-475,0,0,0,0,0,0,0,0,0,-1,1350,1499,0,0
133,-475,0,0,0,0,0,0,0,0,0,-1,1357,1499,0,0
140,-475,0,0,0,0,0,0,0,0,0,-1,1364,1499,0,0
147,-475,0,0,0,0,0,0,0,0,0,-1,1371,1499,0,0
154,-475,0,0,0,0,0,0,0,0,0,-1,1378,1499,0,0
161,-475,0,0,0,0,0,0,0,0,0,-1,1385,1499,0,0
168,-475,0,0,0,0,0,0,0,0,0,-1,1392,1499,0,0
175,-475,0,0,0,0,0,0,0,0,0,-1,1399,1499,0,0
182,-475,0,0,0,0,0,0,0,0,0,-1,1406,1499,0,0
189,-475,0,0,0,0,0,0,0,0,0,-1,1413,1499,0,0
196,-475,0,0,0,0,0,0,0,0,0,-1,1420,1499,0,0
203,-475,0,0,0,0,0,0,0,0,0,-1,1427,1499,0,0
210,-475,0,0,0,0,0,0,0,0,0,-1,1434,1499,0,0
217,-475,0,0,0,0,0,0,0,0,0,-1,1441,1499,0,0
224,-475,0,0,0,0,0,0,0,0,0,-1,1448,1499,0,0
231,-475,0,0,0,0,0,0,0,0,0,-1,1455,1499,0,0
238,-475,0,0,0,0,0,0,0,0,0,-1,1462,1499,0,0
245,-475,0,0,0,0,0,0,0,0,0,-1,1469,1499,0,0
252,-475,0,0,0,0,0,0,0,0,0,-1,1476,1499,0,0
259,-475,0,0,0,0,0,0,0,0,0,-1,1483,1499,0,0
266,-475,0,0,0,0,0,0,0,0,0,-1,1490,1499,0,0
273,-475,0,0,0,0,0,0,0,0,0,-1,1497,1499,0,0
280,-475,0,0,0,0,0,0,0,0,0,-1,1504,1499,0,0
287,-475,0,0,0,0,0,0,0,0,0,-1,1511,1499,0,0
294,-475,0,0,0,0,0,0,0,0,0,-1,1518,1499,0,0
301,-475,0,0,0,0,0,0,0,0,0,-1,1525,1499,0,0
308,-475,0,0,0,0,0,0,0,0,0,-1,1532,1499,0,0
315,-475,0,0,0,0,0,0,0,0,0,-1,1539,1499,0,0
322,-475,0,0,0,0,0,0,0,0,0,-1,1546,1499,0,0
329,-475,0,0,0,0,0,0,0,0,0,-1,1553,1499,0,0
336,-475,0,0,0,0,0,0,0,0,0,-1,1560,1499,0,0
343,-475,0,0,0,0,0,0,0,0,0,-1,1567,1499,0,0
350,-475,0,0,0,0,0,0,0,0,0,-1,1574,1499,0,0
357,-475,0,0,0,0,0,0,0,0,0,-1,1581,1499,0,0
364,-475,0,0,0,0,0,0,0,0,0,-1,1588,1499,0,0
371,-475,0,0,0,0,0,0,0,0,0,-1,1595,1499,0,0
378,-475,0,0,0,0,0,0,0,0,0,-1,1602,1499,0,0
385,-475,0,0,0,0,0,0,0,0,0,-1,1609,1499,0,0
392,-475,0,0,0,0,0,0,0,0,0,-1,1616,1499,0,0
399,-475,0,0,0,0,0,0,0,0,0,-1,1623,1499,0,0
406,-475,0,0,0,0,0,0,0,0,0,-1,1630,1499,0,0
413,-475,0,0,0,0,0,0,0,0,0,-1,1637,1499,0,0
420,-475,0,0,0,0,0,0,0,0,0,-1,1644,1499,0,0
427,-475,0,0,0,0,0,0,0,0,0,-1,1651,1499,0,0
434,-475,0,0,0,0,0,0,0,0,0,-1,1658,1499,0,0
441,-475,0,0,0,0,0,0,0,0,0,-1,1665,1499,0,0
448,-475,0,0,0,0,0,0,0,0,0,-1,1672,1499,0,0
455,-475,0,0,0,0,0,0,0,0,0,-1,1679,1499,0,0
462,-475,12.6372,0.275391,0,0,0,0,0,0,0,-1,1686,1499,12.6372,-0.27536
469,-475,15.6437,2.28296,0,0,0,0,0,0,0,-1,1693,1499,15.6437,-2.28293
476,-475,15.3302,2.71436,0,0,0,0,0,0,0,-1,1700,1499,15.3303,-2.7143
483,-475,10.7461,5.91479,0,0,0,0,0,0,0,-1,1707,1499,10.7461,-5.91476
490,-475,11.9305,4.4364,0,0,0,0,0,0,0,-1,1714,1499,11.9305,-4.43644
497,-475,16.3352,6.46167,0,0,0,0,0,0,0,-1,1721,1499,16.3352,-6.46162
504,-475,15.0074,6.91284,-0.155156,-0.0801161,0.0503511,-0.0548428,-0.180429,1.1056,0.106806,0.0461874,1728,1499,15.0074,-6.91279
511,-475,13.5779,7.51367,-0.129441,-0.0713489,0.0422871,-0.0490931,-0.151696,1.08633,0.0893798,0.0411765,1735,1499,13.5779,-7.51365
518,-475,12.1488,7.98596,-0.10516,-0.0609663,0.0359169,-0.0408935,-0.125233,1.06117,0.0737396,0.0439188,1742,1499,12.1488,-7.986
525,-475,11.173,8.22949,-0.0832128,-0.0505098,0.0305091,-0.0322466,-0.101476,1.0314,0.0598701,0.0469848,1749,1499,11.173,-8.22954
532,-475,10.7346,8.30774,-0.0641636,-0.0410063,0.0259137,-0.0242021,-0.0809678,0.9955,0.0479904,0.0453174,1756,1499,10.7346,-8.30769
539,-475,10.5057,8.34741,-0.0482256,-0.032612,0.0217992,-0.0172638,-0.0635738,0.957345,0.0379598,0.042942,1763,1499,10.5058,-8.3474
546,-475,10.2593,8.48596,-0.0354385,-0.0263225,0.0177184,-0.0125852,-0.0491758,0.911293,0.0294977,0.0365969,1770,1499,10.2592,-8.48594
553,-475,10.2183,8.53918,-0.0252314,-0.0200808,0.0144816,-0.00794725,-0.0373649,0.873395,0.0227288,0.0199344,1777,1499,10.2182,-8.53919
560,-475,10.1222,8.44666,-0.0164834,-0.0144171,0.011396,-0.00400747,-0.026893,0.830602,0.0167534,0.0139568,1784,1499,10.1222,-8.44668
567,-475,10.1742,8.22485,-0.0096697,-0.00986381,0.00871463,-0.00105158,-0.0184819,0.77983,0.0119861,0.0127968,1791,1499,10.1742,-8.22483
574,-475,10.1722,8.02429,-0.00552353,-0.00698012,0.00642469,0.000214016,-0.0127177,0.72896,0.00855068,0.0133415,1798,1499,10.1722,-8.02424
581,-475,10.174,7.84937,-0.0034977,-0.00504977,0.00485144,0.000639386,-0.00918685,0.70609,0.00634843,0.0117818,1805,1499,10.1739,-7.84939
588,-475,10.1727,7.65747,-0.00222234,-0.00318416,0.00343948,0.000769687,-0.00617619,0.715938,0.00439654,0.0103352,1812,1499,10.1727,-7.65747
595,-475,10.1815,7.45386,-0.00147147,-0.00169281,0.00234213,0.000762604,-0.00392688,0.761789,0.00290568,0.0107764,1819,1499,10.1815,-7.45389
602,-475,10.1741,7.24316,-0.000666568,-0.000752831,0.00148461,0.000775539,-0.00219494,0.770876,0.00177907,0.0117975,1826,1499,10.1741,-7.24312
609,-475,10.1586,7.04919,0.000663555,-0.000162441,0.000588858,0.000969807,-0.000468693,0.479581,0.00084715,0.0109409,1833,1499,10.1586,-7.04919
616,-475,10.1567,6.86279,0.00196147,6.14748e-05,-0.000359924,0.00202737,-4.42169e-06,-0.181079,0.00135305,0.0107381,1840,1499,10.1568,-6.86283
623,-475,10.162,6.66455,0.00380193,-8.16763e-05,-0.0018934,0.00457224,-0.000851991,-0.38639,0.00336827,0.0108388,1847,1499,10.1619,-6.66452
630,-475,10.1853,6.44409,0.00620645,-0.000670074,-0.00332616,0.00755201,-0.00201564,-0.384414,0.00582401,0.0128328,1854,1499,10.1853,-6.44404
637,-475,10.1919,6.2417,0.00989674,-0.00185025,-0.00564653,0.0121707,-0.00412423,-0.382849,0.00978276,0.025835,1861,1499,10.1919,-6.24175
644,-475,10.1085,6.13684,0,0,0,0,0,0,0,-1,1868,1499,10.1085,-6.13683
651,-475,10.9133,6.37061,0,0,0,0,0,0,0,-1,1875,1499,10.9133,-6.37059
658,-475,11.8865,6.38745,0,0,0,0,0,0,0,-1,1882,1499,11.8864,-6.38744
665,-475,9.33435,5.43335,0,0,0,0,0,0,0,-1,1889,1499,9.33439,-5.43332
672,-475,9.38635,1.10474,0,0,0,0,0,0,0,-1,1896,1499,9.38629,-1.10475
679,-475,12.2594,1.31079,0,0,0,0,0,0,0,-1,1903,1499,12.2594,-1.31077
686,-475,0,0,0,0,0,0,0,0,0,-1,1910,1499,0,0
693,-475,0,0,0,0,0,0,0,0,0,-1,1917,1499,0,0
700,-475,0,0,0,0,0,0,0,0,0,-1,1924,1499,0,0
707,-475,0,0,0,0,0,0,0,0,0,-1,1931,1499,0,0
714,-475,0,0,0,0,0,0,0,0,0,-1,1938,1499,0,0
721,-475,0,0,0,0,0,0,0,0,0,-1,1945,1499,0,0
728,-475,0,0,0,0,0,0,0,0,0,-1,1952,1499,0,0
735,-475,0,0,0,0,0,0,0,0,0,-1,1959,1499,0,0
742,-475,0,0,0,0,0,0,0,0,0,-1,1966,1499,0,0
749,-475,0,0,0,0,0,0,0,0,0,-1,1973,1499,0,0
756,-475,0,0,0,0,0,0,0,0,0,-1,1980,1499,0,0
763,-475,0,0,0,0,0,0,0,0,0,-1,1987,1499,0,0
770,-475,0,0,0,0,0,0,0,0,0,-1,1994,1499,0,0
777,-475,0,0,0,0,0,0,0,0,0,-1,2001,1499,0,0
784,-475,0,0,0,0,0,0,0,0,0,-1,2008,1499,0,0
791,-475,0,0,0,0,0,0,0,0,0,-1,2015,1499,0,0
798,-475,0,0,0,0,0,0,0,0,0,-1,2022,1499,0,0
805,-475,0,0,0,0,0,0,0,0,0,-1,2029,1499,0,0
812,-475,0,0,0,0,0,0,0,0,0,-1,2036,1499,0,0
-700,-482,0,0,0,0,0,0,0,0,0,-1,524,1506,0,0
-693,-482,0,0,0,0,0,0,0,0,0,-1,531,1506,0,0
-686,-482,0,0,0,0,0,0,0,0,0,-1,538,1506,0,0
-679,-482,0,0,0,0,0,0,0,0,0,-1,545,1506,0,0
-672,-482,0,0,0,0,0,0,0,0,0,-1,552,1506,0,0
-665,-482,0,0,0,0,0,0,0,0,0,-1,559,1506,0,0
-658,-482,0,0,0,0,0,0,0,0,0,-1,566,1506,0,0
-651,-482,0,0,0,0,0,0,0,0,0,-1,573,1506,0,0
-644,-482,0,0,0,0,0,0,0,0,0,-1,580,1506,0,0
-637,-482,0,0,0,0,0,0,0,0,0,-1,587,1506,0,0
-630,-482,0,0,0,0,0,0,0,0,0,-1,594,1506,0,0
-623,-482,0,0,0,0,0,0,0,0,0,-1,601,1506,0,0
-616,-482,0,0,0,0,0,0,0,0,0,-1,608,1506,0,0
-609,-482,0,0,0,0,0,0,0,0,0,-1,615,1506,0,0
-602,-482,0,0,0,0,0,0,0,0,0,-1,622,1506,0,0
-595,-482,0,0,0,0,0,0,0,0,0,-1,629,1506,0,0
-588,-482,0,0,0,0,0,0,0,0,0,-1,636,1506,0,0
-581,-482,0,0,0,0,0,0,0,0,0,-1,643,1506,0,0
-574,-482,0,0,0,0,0,0,0,0,0,-1,650,1506,0,0
-567,-482,0,0,0,0,0,0,0,0,0,-1,657,1506,0,0
-560,-482,0,0,0,0,0,0,0,0,0,-1,664,1506,0,0
-553,-482,-9.06055,9.34314,0,0,0,0,0,0,0,-1,671,1506,-9.06056,-9.34312
-546,-482,-4.08624,8.34241,0,0,0,0,0,0,0,-1,678,1506,-4.08624,-8.3424
-539,-482,-3.38635,7.64355,0.0694903,-0.0167856,-0.0227885,0.0751397,-0.0224349,-0.243004,0.0590105,0.0434846,685,1506,-3.38638,-7.64361
-532,-482,-2.98816,6.83411,0.0576523,-0.0148326,-0.0268087,0.06649,-0.0236703,-0.318439,0.0539755,0.0461196,692,1506,-2.98818,-6.83405
-525,-482,-3.95374,6.07764,0.0461794,-0.0117621,-0.0267269,0.0566248,-0.0222075,-0.372567,0.0469375,0.0430566,699,1506,-3.95375,-6.07761
-518,-482,-3.2561,5.05786,0.0363135,-0.00917563,-0.0255467,0.0477734,-0.0206356,-0.421679,0.0405186,0.0463215,706,1506,-3.25609,-5.05788
-511,-482,-1.7146,4.03369,0,0,0,0,0,0,0,-1,713,1506,-1.71462,-4.03365
-504,-482,-1.62244,4.39319,0.0204485,-0.00443923,-0.0167227,0.0288493,-0.01284,-0.465531,0.0246538,0.0415339,720,1506,-1.62247,-4.39321
-497,-482,-1.54468,4.72656,0.0144844,-0.00347856,-0.0125706,0.0209525,-0.00994661,-0.475209,0.0182129,0.0237243,727,1506,-1.54467,-4.7266
-490,-482,-1.55713,4.92908,0.010053,-0.00280582,-0.0091191,0.0147814,-0.00753415,-0.478345,0.0131084,0.0137116,734,1506,-1.55712,-4.92907
-483,-482,-1.54193,5.16882,0.00656704,-0.00111082,-0.00636754,0.0101634,-0.00470714,-0.514127,0.00877601,0.00873491,741,1506,-1.54191,-5.16886
-476,-482,-1.54303,5.39771,0.00423537,-0.00099547,-0.00377157,0.00620963,-0.00296973,-0.482238,0.00540863,0.0101209,748,1506,-1.54304,-5.39768
-469,-482,-1.5495,5.63354,0.00302979,-0.00185437,-0.00221372,0.00388382,-0.00270839,-0.368195,0.00382613,0.0110803,755,1506,-1.54948,-5.63351
-462,-482,-1.55774,5.86133,0.0026686,-0.00272507,-0.00110593,0.00288656,-0.00294302,-0.194585,0.00336576,0.0122403,762,1506,-1.55773,-5.8613
-455,-482,-1.56,6.07214,0.00271101,-0.00372082,-0.00101205,0.0028665,-0.00387631,-0.152444,0.00390749,0.0131205,769,1506,-1.55998,-6.07213
-448,-482,-1.55273,6.30371,0.00297049,-0.00484862,-0.00115119,0.00313645,-0.00501458,-0.143181,0.00474746,0.0133062,776,1506,-1.55273,-6.30375
-441,-482,-1.56024,6.53394,0.00295276,-0.00608457,-0.00136298,0.00315384,-0.00628566,-0.146477,0.00554898,0.0128887,783,1506,-1.56025,-6.53388
-434,-482,-1.56573,6.75781,0.00285922,-0.00697077,-0.00149377,0.00308121,-0.00719275,-0.147525,0.00608794,0.0158325,790,1506,-1.56574,-6.75781
-427,-482,-1.54248,6.99707,0.00272588,-0.00838692,-0.00172008,0.00298603,-0.00864707,-0.150105,0.00697642,0.0171417,797,1506,-1.54246,-6.99705
-420,-482,-1.49176,7.30066,0.00196892,-0.0095954,-0.00183096,0.00225189,-0.00987837,-0.153334,0.00745052,0.0246272,804,1506,-1.49178,-7.3006
-413,-482,-1.32086,7.31445,9.45128e-05,-0.0112605,-0.00206447,0.000458208,-0.0116241,-0.17438,0.00790659,0.0328222,811,1506,-1.32089,-7.31448
-406,-482,-1.24719,7.30444,0,0,0,0,0,0,0,-1,818,1506,-1.24721,-7.30449
-399,-482,-0.956299,7.54565,0,0,0,0,0,0,0,-1,825,1506,-0.956281,-7.54567
-392,-482,-2.05212,8.18152,0,0,0,0,0,0,0,-1,832,1506,-2.05214,-8.18148
-385,-482,-2.159,8.77686,0,0,0,0,0,0,0,-1,839,1506,-2.15902,-8.77685
-378,-482,0.215698,5.96948,0,0,0,0,0,0,0,-1,846,1506,0.215681,-5.9695
-371,-482,-0.10907,8.10437,0,0,0,0,0,0,0,-1,853,1506,-0.109063,-8.10433
-364,-482,-0.154968,10.5032,0,0,0,0,0,0,0,-1,860,1506,-0.154976,-10.5032
-357,-482,2.14807,4.60144,0,0,0,0,0,0,0,-1,867,1506,2.14807,-4.60144
-350,-482,-7.5813,-1.45935,0,0,0,0,0,0,0,-1,874,1506,-7.58133,1.45937
-343,-482,-7.19983,-1.26416,0,0,0,0,0,0,0,-1,881,1506,-7.19981,1.26414
-336,-482,-6.78491,-1.18127,0,0,0,0,0,0,0,-1,888,1506,-6.78488,1.18125
-329,-482,0,0,0,0,0,0,0,0,0,-1,895,1506,0,0
-322,-482,0,0,0,0,0,0,0,0,0,-1,902,1506,0,0
-315,-482,0,0,0,0,0,0,0,0,0,-1,909,1506,0,0
-308,-482,0,0,0,0,0,0,0,0,0,-1,916,1506,0,0
-301,-482,0,0,0,0,0,0,0,0,0,-1,923,1506,0,0
-294,-482,0,0,0,0,0,0,0,0,0,-1,930,1506,0,0
-287,-482,0,0,0,0,0,0,0,0,0,-1,937,1506,0,0
-280,-482,0,0,0,0,0,0,0,0,0,-1,944,1506,0,0
-273,-482,0,0,0,0,0,0,0,0,0,-1,951,1506,0,0
-266,-482,0,0,0,0,0,0,0,0,0,-1,958,1506,0,0
-259,-482,0,0,0,0,0,0,0,0,0,-1,965,1506,0,0
-252,-482,0,0,0,0,0,0,0,0,0,-1,972,1506,0,0
-245,-482,0,0,0,0,0,0,0,0,0,-1,979,1506,0,0
-238,-482,0,0,0,0,0,0,0,0,0,-1,986,1506,0,0
-231,-482,0,0,0,0,0,0,0,0,0,-1,993,1506,0,0
-224,-482,0,0,0,0,0,0,0,0,0,-1,1000,1506,0,0
-217,-482,0,0,0,0,0,0,0,0,0,-1,1007,1506,0,0
-210,-482,0,0,0,0,0,0,0,0,0,-1,1014,1506,0,0
-203,-482,0,0,0,0,0,0,0,0,0,-1,1021,1506,0,0
-196,-482,0,0,0,0,0,0,0,0,0,-1,1028,1506,0,0
-189,-482,0,0,0,0,0,0,0,0,0,-1,1035,1506,0,0
-182,-482,0,0,0,0,0,0,0,0,0,-1,1042,1506,0,0
-175,-482,0,0,0,0,0,0,0,0,0,-1,1049,1506,0,0
-168,-482,0,0,0,0,0,0,0,0,0,-1,1056,1506,0,0
-161,-482,0,0,0,0,0,0,0,0,0,-1,1063,1506,0,0
-154,-482,0,0,0,0,0,0,0,0,0,-1,1070,1506,0,0
-147,-482,0,0,0,0,0,0,0,0,0,-1,1077,1506,0,0
-140,-482,0,0,0,0,0,0,0,0,0,-1,1084,1506,0,0
-133,-482,0,0,0,0,0,0,0,0,0,-1,1091,1506,0,0
-126,-482,0,0,0,0,0,0,0,0,0,-1,1098,1506,0,0
-119,-482,0,0,0,0,0,0,0,0,0,-1,1105,1506,0,0
-112,-482,0,0,0,0,0,0,0,0,0,-1,1112,1506,0,0
-105,-482,0,0,0,0,0,0,0,0,0,-1,1119,1506,0,0
-98,-482,0,0,0,0,0,0,0,0,0,-1,1126,1506,0,0
-91,-482,0,0,0,0,0,0,0,0,0,-1,1133,1506,0,0
-84,-482,0,0,0,0,0,0,0,0,0,-1,1140,1506,0,0
-77,-482,0,0,0,0,0,0,0,0,0,-1,1147,1506,0,0
-70,-482,0,0,0,0,0,0,0,0,0,-1,1154,1506,0,0
-63,-482,0,0,0,0,0,0,0,0,0,-1,1161,1506,0,0
-56,-482,0,0,0,0,0,0,0,0,0,-1,1168,1506,0,0
-49,-482,0,0,0,0,0,0,0,0,0,-1,1175,1506,0,0
-42,-482,0,0,0,0,0,0,0,0,0,-1,1182,1506,0,0
-35,-482,0,0,0,0,0,0,0,0,0,-1,1189,1506,0,0
-28,-482,0,0,0,0,0,0,0,0,0,-1,1196,1506,0,0
-21,-482,0,0,0,0,0,0,0,0,0,-1,1203,1506,0,0
-14,-482,0,0,0,0,0,0,0,0,0,-1,1210,1506,0,0
-7,-482,0,0,0,0,0,0,0,0,0,-1,1217,1506,0,0
0,-482,0,0,0,0,0,0,0,0,0,-1,1224,1506,0,0
7,-482,0,0,0,0,0,0,0,0,0,-1,1231,1506,0,0
14,-482,0,0,0,0,0,0,0,0,0,-1,1238,1506,0,0
21,-482,0,0,0,0,0,0,0,0,0,-1,1245,1506,0,0
28,-482,0,0,0,0,0,0,0,0,0,-1,1252,1506,0,0
35,-482,0,0,0,0,0,0,0,0,0,-1,1259,1506,0,0
42,-482,0,0,0,0,0,0,0,0,0,-1,1266,1506,0,0
49,-482,0,0,0,0,0,0,0,0,0,-1,1273,1506,0,0
56,-482,0,0,0,0,0,0,0,0,0,-1,1280,1506,0,0
63,-482,0,0,0,0,0,0,0,0,0,-1,1287,1506,0,0
70,-482,0,0,0,0,0,0,0,0,0,-1,1294,1506,0,0
77,-482,0,0,0,0,0,0,0,0,0,-1,1301,1506,0,0
84,-482,0,0,0,0,0,0,0,0,0,-1,1308,1506,0,0
91,-482,0,0,0,0,0,0,0,0,0,-1,1315,1506,0,0
98,-482,0,0,0,0,0,0,0,0,0,-1,1322,1506,0,0
105,-482,0,0,0,0,0,0,0,0,0,-1,1329,1506,0,0
112,-482,0,0,0,0,0,0,0,0,0,-1,1336,1506,0,0
119,-482,0,0,0,0,0,0,0,0,0,-1,1343,1506,0,0
126,-482,0,0,0,0,0,0,0,0,0,-1,1350,1506,0,0
133,-482,0,0,0,0,0,0,0,0,0,-1,1357,1506,0,0
140,-482,0,0,0,0,0,0,0,0,0,-1,1364,1506,0,0
147,-482,0,0,0,0,0,0,0,0,0,-1,1371,1506,0,0
154,-482,0,0,0,0,0,0,0,0,0,-1,1378,1506,0,0
161,-482,0,0,0,0,0,0,0,0,0,-1,1385,1506,0,0
168,-482,0,0,0,0,0,0,0,0,0,-1,1392,1506,0,0
175,-482,0,0,0,0,0,0,0,0,0,-1,1399,1506,0,0
182,-482,0,0,0,0,0,0,0,0,0,-1,1406,1506,0,0
189,-482,0,0,0,0,0,0,0,0,0,-1,1413,1506,0,0
196,-482,0,0,0,0,0,0,0,0,0,-1,1420,1506,0,0
203,-482,0,0,0,0,0,0,0,0,0,-1,1427,1506,0,0
210,-482,0,0,0,0,0,0,0,0,0,-1,1434,1506,0,0
217,-482,0,0,0,0,0,0,0,0,0,-1,1441,1506,0,0
224,-482,0,0,0,0,0,0,0,0,0,-1,1448,1506,0,0
231,-482,0,0,0,0,0,0,0,0,0,-1,1455,1506,0,0
238,-482,0,0,0,0,0,0,0,0,0,-1,1462,1506,0,0
245,-482,0,0,0,0,0,0,0,0,0,-1,1469,1506,0,0
252,-482,0,0,0,0,0,0,0,0,0,-1,1476,1506,0,0
259,-482,0,0,0,0,0,0,0,0,0,-1,1483,1506,0,0
266,-482,0,0,0,0,0,0,0,0,0,-1,1490,1506,0,0
273,-482,0,0,0,0,0,0,0,0,0,-1,1497,1506,0,0
280,-482,0,0,0,0,0,0,0,0,0,-1,1504,1506,0,0
287,-482,0,0,0,0,0,0,0,0,0,-1,1511,1506,0,0
294,-482,0,0,0,0,0,0,0,0,0,-1,1518,1506,0,0
301,-482,0,0,0,0,0,0,0,0,0,-1,1525,1506,0,0
308,-482,0,0,0,0,0,0,0,0,0,-1,1532,1506,0,0
315,-482,0,0,0,0,0,0,0,0,0,-1,1539,1506,0,0
322,-482,0,0,0,0,0,0,0,0,0,-1,1546,1506,0,0
329,-482,0,0,0,0,0,0,0,0,0,-1,1553,1506,0,0
336,-482,0,0,0,0,0,0,0,0,0,-1,1560,1506,0,0
343,-482,0,0,0,0,0,0,0,0,0,-1,1567,1506,0,0
350,-482,0,0,0,0,0,0,0,0,0,-1,1574,1506,0,0
357,-482,0,0,0,0,0,0,0,0,0,-1,1581,1506,0,0
364,-482,0,0,0,0,0,0,0,0,0,-1,1588,1506,0,0
371,-482,0,0,0,0,0,0,0,0,0,-1,1595,1506,0,0
378,-482,0,0,0,0,0,0,0,0,0,-1,1602,1506,0,0
385,-482,0,0,0,0,0,0,0,0,0,-1,1609,1506,0,0
392,-482,0,0,0,0,0,0,0,0,0,-1,1616,1506,0,0
399,-482,0,0,0,0,0,0,0,0,0,-1,1623,1506,0,0
406,-482,0,0,0,0,0,0,0,0,0,-1,1630,1506,0,0
413,-482,0,0,0,0,0,0,0,0,0,-1,1637,1506,0,0
420,-482,0,0,0,0,0,0,0,0,0,-1,1644,1506,0,0
427,-482,0,0,0,0,0,0,0,0,0,-1,1651,1506,0,0
434,-482,0,0,0,0,0,0,0,0,0,-1,1658,1506,0,0
441,-482,0,0,0,0,0,0,0,0,0,-1,1665,1506,0,0
448,-482,4.24146,1.55383,0,0,0,0,0,0,0,-1,1672,1506,4.24149,-1.55381
455,-482,12.4122,1.09729,0,0,0,0,0,0,0,-1,1679,1506,12.4122,-1.09734
462,-482,15.0673,3.13135,0,0,0,0,0,0,0,-1,1686,1506,15.0672,-3.13134
469,-482,15.3793,3.46301,0,0,0,0,0,0,0,-1,1693,1506,15.3793,-3.46307
476,-482,8.69751,9.18738,0,0,0,0,0,0,0,-1,1700,1506,8.69753,-9.18739
483,-482,10.0902,7.17432,0,0,0,0,0,0,0,-1,1707,1506,10.0902,-7.1743
490,-482,11.6289,5.4928,0,0,0,0,0,0,0,-1,1714,1506,11.6289,-5.49283
497,-482,13.2035,3.77759,0,0,0,0,0,0,0,-1,1721,1506,13.2035,-3.77764
504,-482,13.3523,9.72461,0,0,0,0,0,0,0,-1,1728,1506,13.3523,-9.72463
511,-482,13.5022,8.50513,-0.11161,-0.0574549,0.0403932,-0.0359033,-0.133162,1.08067,0.0795549,0.0445049,1735,1506,13.5022,-8.50511
518,-482,11.8865,8.66345,-0.0905569,-0.0495095,0.0333925,-0.0308378,-0.109229,1.06095,0.0650248,0.0467741,1742,1506,11.8865,-8.66345
525,-482,10.6483,8.64526,0,0,0,0,0,0,0,-1,1749,1506,10.6483,-8.64526
532,-482,10.437,8.63464,-0.0549773,-0.03368,0.0228301,-0.0191372,-0.0695201,1.00361,0.0414668,0.0415018,1756,1506,10.4371,-8.6347
539,-482,10.1851,8.68835,-0.0411375,-0.0267833,0.0186861,-0.0139434,-0.0539774,0.968755,0.0323546,0.0298946,1763,1506,10.1851,-8.68839
546,-482,10.0121,8.74927,-0.0300886,-0.0218022,0.0147678,-0.0106074,-0.0412834,0.922161,0.0247559,0.0171618,1770,1506,10.0121,-8.74926
553,-482,9.96167,8.65918,-0.0213069,-0.0165016,0.0118446,-0.00681841,-0.0309901,0.885463,0.0188039,0.0145771,1777,1506,9.96172,-8.65921
560,-482,9.95752,8.44922,-0.0137994,-0.0116567,0.00907543,-0.00358962,-0.0218665,0.84415,0.0135407,0.0113477,1784,1506,9.95756,-8.44927
567,-482,9.96375,8.24268,-0.00792543,-0.00769492,0.00671277,-0.00109641,-0.0145239,0.793982,0.00933864,0.0133821,1791,1506,9.96376,-8.2427
574,-482,9.96472,8.05469,-0.0042965,-0.00507732,0.00473306,6.22226e-05,-0.00943605,0.744249,0.00631154,0.0130394,1798,1506,9.96471,-8.05465
581,-482,9.97632,7.86206,-0.00264272,-0.00324916,0.00343643,0.000503844,-0.00639573,0.741394,0.0044413,0.00993907,1805,1506,9.97629,-7.86201
588,-482,9.98279,7.6488,-0.00164693,-0.00153763,0.00227616,0.000684532,-0.0038691,0.797401,0.00283526,0.0107092,1812,1506,9.98279,-7.64878
595,-482,9.97998,7.43201,-0.00113548,-0.000116299,0.00140275,0.000866555,-0.00211834,0.959626,0.00177312,0.015272,1819,1506,9.98,-7.43199
602,-482,9.99316,7.22522,-0.000565781,0.00080057,0.000754302,0.00113509,-0.000900299,1.15338,0.00117773,0.0188656,1826,1506,9.99313,-7.2252
609,-482,9.97961,7.04626,0.000582894,0.00132972,6.10898e-05,0.00133469,0.00057793,1.48972,0.000772883,0.0153503,1833,1506,9.97957,-7.04627
616,-482,9.96472,6.8407,0.00168641,0.00150074,-0.000646626,0.00224683,0.000940317,-0.714101,0.00130294,0.0111906,1840,1506,9.96473,-6.84074
623,-482,9.97058,6.65503,0.00347638,0.0012509,-0.00202899,0.00467773,4.95582e-05,-0.534583,0.0031021,0.0115882,1847,1506,9.97062,-6.65506
630,-482,10.0123,6.4574,0.00601969,0.000563256,-0.00347141,0.00770665,-0.00112371,-0.452353,0.00555038,0.0223242,1854,1506,10.0124,-6.45736
637,-482,9.93616,6.61865,0.0100414,-0.000852399,-0.00581196,0.0125599,-0.0033709,-0.408906,0.00969426,0.0493412,1861,1506,9.93617,-6.61864
644,-482,9.80469,6.55469,0,0,0,0,0,0,0,-1,1868,1506,9.80464,-6.5547
651,-482,4.03845,7.05273,0,0,0,0,0,0,0,-1,1875,1506,4.03843,-7.05279
658,-482,10.0278,5.87903,0,0,0,0,0,0,0,-1,1882,1506,10.0279,-5.87902
665,-482,8.15198,3.22229,0,0,0,0,0,0,0,-1,1889,1506,8.15199,-3.22232
672,-482,9.87415,1.3147,0,0,0,0,0,0,0,-1,1896,1506,9.87416,-1.31473
679,-482,0,0,0,0,0,0,0,0,0,-1,1903,1506,0,0
686,-482,0,0,0,0,0,0,0,0,0,-1,1910,1506,0,0
693,-482,0,0,0,0,0,0,0,0,0,-1,1917,1506,0,0
700,-482,0,0,0,0,0,0,0,0,0,-1,1924,1506,0,0
707,-482,0,0,0,0,0,0,0,0,0,-1,1931,1506,0,0
714,-482,0,0,0,0,0,0,0,0,0,-1,1938,1506,0,0
721,-482,0,0,0,0,0,0,0,0,0,-1,1945,1506,0,0
728,-482,0,0,0,0,0,0,0,0,0,-1,1952,1506,0,0
735,-482,0,0,0,0,0,0,0,0,0,-1,1959,1506,0,0
742,-482,0,0,0,0,0,0,0,0,0,-1,1966,1506,0,0
749,-482,0,0,0,0,0,0,0,0,0,-1,1973,1506,0,0
756,-482,0,0,0,0,0,0,0,0,0,-1,1980,1506,0,0
763,-482,0,0,0,0,0,0,0,0,0,-1,1987,1506,0,0
770,-482,0,0,0,0,0,0,0,0,0,-1,1994,1506,0,0
777,-482,0,0,0,0,0,0,0,0,0,-1,2001,1506,0,0
784,-482,0,0,0,0,0,0,0,0,0,-1,2008,1506,0,0
791,-482,0,0,0,0,0,0,0,0,0,-1,2015,1506,0,0
798,-482,0,0,0,0,0,0,0,0,0,-1,2022,1506,0,0
805,-482,0,0,0,0,0,0,0,0,0,-1,2029,1506,0,0
812,-482,0,0,0,0,0,0,0,0,0,-1,2036,1506,0,0
-700,-489,0,0,0,0,0,0,0,0,0,-1,524,1513,0,0
-693,-489,0,0,0,0,0,0,0,0,0,-1,531,1513,0,0
-686,-489,0,0,0,0,0,0,0,0,0,-1,538,1513,0,0
-679,-489,0,0,0,0,0,0,0,0,0,-1,545,1513,0,0
-672,-489,0,0,0,0,0,0,0,0,0,-1,552,1513,0,0
-665,-489,0,0,0,0,0,0,0,0,0,-1,559,1513,0,0
-658,-489,0,0,0,0,0,0,0,0,0,-1,566,1513,0,0
-651,-489,0,0,0,0,0,0,0,0,0,-1,573,1513,0,0
-644,-489,0,0,0,0,0,0,0,0,0,-1,580,1513,0,0
-637,-489,0,0,0,0,0,0,0,0,0,-1,587,1513,0,0
-630,-489,0,0,0,0,0,0,0,0,0,-1,594,1513,0,0
-623,-489,0,0,0,0,0,0,0,0,0,-1,601,1513,0,0
-616,-489,0,0,0,0,0,0,0,0,0,-1,608,1513,0,0
-609,-489,0,0,0,0,0,0,0,0,0,-1,615,1513,0,0
-602,-489,0,0,0,0,0,0,0,0,0,-1,622,1513,0,0
-595,-489,0,0,0,0,0,0,0,0,0,-1,629,1513,0,0
-588,-489,0,0,0,0,0,0,0,0,0,-1,636,1513,0,0
-581,-489,0,0,0,0,0,0,0,0,0,-1,643,1513,0,0
-574,-489,0,0,0,0,0,0,0,0,0,-1,650,1513,0,0
-567,-489,0,0,0,0,0,0,0,0,0,-1,657,1513,0,0
-560,-489,0,0,0,0,0,0,0,0,0,-1,664,1513,0,0
-553,-489,-9.42206,8.5116,0,0,0,0,0,0,0,-1,671,1513,-9.42205,-8.51158
-546,-489,-7.80951,8.18506,0,0,0,0,0,0,0,-1,678,1513,-7.8095,-8.18503
-539,-489,-3.61237,7.19727,0,0,0,0,0,0,0,-1,685,1513,-3.61238,-7.19723
-532,-489,-2.7049,6.27795,0.0537989,-0.0119384,-0.0469819,0.0782683,-0.0364078,-0.480169,0.0676626,0.0476965,692,1513,-2.70488,-6.27795
-525,-489,-2.82123,5.33545,0.0436314,-0.00855362,-0.041531,0.0665863,-0.0315085,-0.504926,0.0578294,0.0442224,699,1513,-2.82125,-5.33549
-518,-489,-2.4469,4.58765,0.0348349,-0.00594658,-0.0357418,0.0555934,-0.0267051,-0.526175,0.048481,0.0464169,706,1513,-2.44692,-4.58762
-511,-489,-1.4364,4.16492,0,0,0,0,0,0,0,-1,713,1513,-1.43642,-4.16492
-504,-489,-1.28125,4.45959,0.0205799,-0.00211613,-0.0217229,0.0337403,-0.0152765,-0.544695,0.0289614,0.0444175,720,1513,-1.28122,-4.45957
-497,-489,-1.2525,4.7406,0.0150633,-0.00150255,-0.0161116,0.0248964,-0.0113357,-0.547967,0.0214014,0.0386734,727,1513,-1.25253,-4.74057
-490,-489,-1.29669,4.98145,0.0107986,-0.00110931,-0.0115715,0.017858,-0.00816875,-0.547794,0.0153697,0.0212534,734,1513,-1.29671,-4.9815
-483,-489,-1.3371,5.15735,0.00727564,0.000328342,-0.00799557,0.0125195,-0.00491554,-0.580476,0.0103803,0.0104745,741,1513,-1.3371,-5.1573
-476,-489,-1.33795,5.39307,0.00480853,0.00021639,-0.00483498,0.00786493,-0.00284001,-0.56372,0.00640344,0.00960969,748,1513,-1.33793,-5.39309
-469,-489,-1.34106,5.6311,0.00339081,-0.000646899,-0.00281216,0.00483375,-0.00208984,-0.474078,0.00410064,0.0104279,755,1513,-1.34107,-5.63105
-462,-489,-1.33447,5.87329,0.00287707,-0.00148352,-0.00126607,0.00321801,-0.00182446,-0.263049,0.0029481,0.016223,762,1513,-1.33447,-5.87326
-455,-489,-1.34009,6.09241,0.00263336,-0.00238539,-0.000939605,0.00280351,-0.00255553,-0.179139,0.00309515,0.0203099,769,1513,-1.34012,-6.0924
-448,-489,-1.34753,6.30066,0.00267465,-0.00318368,-0.000870421,0.00280124,-0.00331027,-0.144423,0.00353256,0.0171975,776,1513,-1.34753,-6.30066
-441,-489,-1.34717,6.54333,0.00277364,-0.00387372,-0.000792807,0.00286689,-0.00396696,-0.117079,0.00396253,0.0142235,783,1513,-1.34717,-6.54335
-434,-489,-1.34595,6.77539,0.00278774,-0.00414767,-0.000654143,0.0028489,-0.00420883,-0.0932237,0.00409992,0.0167602,790,1513,-1.34595,-6.77541
-427,-489,-1.33801,7.01123,0.00312609,-0.00474908,-0.000600781,0.00317166,-0.00479464,-0.0757042,0.00463105,0.019169,797,1513,-1.33799,-7.01119
-420,-489,-1.35675,7.2749,0.00325027,-0.00496844,-0.000438207,0.00327357,-0.00499174,-0.0531175,0.00480622,0.0181986,804,1513,-1.35675,-7.27492
-413,-489,-1.12988,7.38611,0.00268697,-0.00532451,-0.000346744,0.00270194,-0.00533949,-0.0431733,0.00472523,0.0250857,811,1513,-1.12988,-7.38606
-406,-489,-0.97467,7.68066,0,0,0,0,0,0,0,-1,818,1513,-0.974659,-7.68062
-399,-489,-1.25629,7.51489,0.000525046,-0.00502207,0.000103367,0.000526972,-0.00502399,0.0186257,0.00353809,0.0403699,825,1513,-1.25627,-7.51494
-392,-489,-1.57635,8.07886,-0.00118951,-0.00390065,0.000625694,-0.00105207,-0.00403808,0.216218,0.00241887,0.0423043,832,1513,-1.57638,-8.0789
-385,-489,-1.72919,8.69519,-0.00323933,-0.00161936,0.00174154,-0.000508659,-0.00435003,1.00307,0.00274622,0.0471193,839,1513,-1.72921,-8.69515
-378,-489,-1.60669,9.37732,0,0,0,0,0,0,0,-1,846,1513,-1.60666,-9.37732
-371,-489,-1.11633,10.6606,0,0,0,0,0,0,0,-1,853,1513,-1.11633,-10.6606
-364,-489,-0.503113,8.98486,0,0,0,0,0,0,0,-1,860,1513,-0.503097,-8.98482
-357,-489,-0.609924,10.9606,0,0,0,0,0,0,0,-1,867,1513,-0.609947,-10.9605
-350,-489,-7.94659,-0.358887,0,0,0,0,0,0,0,-1,874,1513,-7.94657,0.358912
-343,-489,-7.49323,-0.437866,0,0,0,0,0,0,0,-1,881,1513,-7.49322,0.437823
-336,-489,-7.02332,-0.53125,0,0,0,0,0,0,0,-1,888,1513,-7.0233,0.531295
-329,-489,-6.70221,-0.242432,0,0,0,0,0,0,0,-1,895,1513,-6.70221,0.2424
-322,-489,0,0,0,0,0,0,0,0,0,-1,902,1513,0,0
-315,-489,0,0,0,0,0,0,0,0,0,-1,909,1513,0,0
-308,-489,0,0,0,0,0,0,0,0,0,-1,916,1513,0,0
-301,-489,0,0,0,0,0,0,0,0,0,-1,923,1513,0,0
-294,-489,0,0,0,0,0,0,0,0,0,-1,930,1513,0,0
-287,-489,0,0,0,0,0,0,0,0,0,-1,937,1513,0,0
-280,-489,0,0,0,0,0,0,0,0,0,-1,944,1513,0,0
-273,-489,0,0,0,0,0,0,0,0,0,-1,951,1513,0,0
-266,-489,0,0,0,0,0,0,0,0,0,-1,958,1513,0,0
-259,-489,0,0,0,0,0,0,0,0,0,-1,965,1513,0,0
-252,-489,0,0,0,0,0,0,0,0,0,-1,972,1513,0,0
-245,-489,0,0,0,0,0,0,0,0,0,-1,979,1513,0,0
-238,-489,0,0,0,0,0,0,0,0,0,-1,986,1513,0,0
-231,-489,0,0,0,0,0,0,0,0,0,-1,993,1513,0,0
-224,-489,0,0,0,0,0,0,0,0,0,-1,1000,1513,0,0
-217,-489,0,0,0,0,0,0,0,0,0,-1,1007,1513,0,0
-210,-489,0,0,0,0,0,0,0,0,0,-1,1014,1513,0,0
-203,-489,0,0,0,0,0,0,0,0,0,-1,1021,1513,0,0
-196,-489,0,0,0,0,0,0,0,0,0,-1,1028,1513,0,0
-189,-489,0,0,0,0,0,0,0,0,0,-1,1035,1513,0,0
-182,-489,0,0,0,0,0,0,0,0,0,-1,1042,1513,0,0
-175,-489,0,0,0,0,0,0,0,0,0,-1,1049,1513,0,0
-168,-489,0,0,0,0,0,0,0,0,0,-1,1056,1513,0,0
-161,-489,0,0,0,0,0,0,0,0,0,-1,1063,1513,0,0
-154,-489,0,0,0,0,0,0,0,0,0,-1,1070,1513,0,0
-147,-489,0,0,0,0,0,0,0,0,0,-1,1077,1513,0,0
-140,-489,0,0,0,0,0,0,0,0,0,-1,1084,1513,0,0
-133,-489,0,0,0,0,0,0,0,0,0,-1,1091,1513,0,0
-126,-489,0,0,0,0,0,0,0,0,0,-1,1098,1513,0,0
-119,-489,0,0,0,0,0,0,0,0,0,-1,1105,1513,0,0
-112,-489,0,0,0,0,0,0,0,0,0,-1,1112,1513,0,0
-105,-489,0,0,0,0,0,0,0,0,0,-1,1119,1513,0,0
-98,-489,0,0,0,0,0,0,0,0,0,-1,1126,1513,0,0
-91,-489,0,0,0,0,0,0,0,0,0,-1,1133,1513,0,0
-84,-489,0,0,0,0,0,0,0,0,0,-1,1140,1513,0,0
-77,-489,0,0,0,0,0,0,0,0,0,-1,1147,1513,0,0
-70,-489,0,0,0,0,0,0,0,0,0,-1,1154,1513,0,0
-63,-489,0,0,0,0,0,0,0,0,0,-1,1161,1513,0,0
-56,-489,0,0,0,0,0,0,0,0,0,-1,1168,1513,0,0
-49,-489,0,0,0,0,0,0,0,0,0,-1,1175,1513,0,0
-42,-489,0,0,0,0,0,0,0,0,0,-1,1182,1513,0,0
-35,-489,0,0,0,0,0,0,0,0,0,-1,1189,1513,0,0
-28,-489,0,0,0,0,0,0,0,0,0,-1,1196,1513,0,0
-21,-489,0,0,0,0,0,0,0,0,0,-1,1203,1513,0,0
-14,-489,0,0,0,0,0,0,0,0,0,-1,1210,1513,0,0
-7,-489,0,0,0,0,0,0,0,0,0,-1,1217,1513,0,0
0,-489,0,0,0,0,0,0,0,0,0,-1,1224,1513,0,0
7,-489,0,0,0,0,0,0,0,0,0,-1,1231,1513,0,0
14,-489,0,0,0,0,0,0,0,0,0,-1,1238,1513,0,0
21,-489,0,0,0,0,0,0,0,0,0,-1,1245,1513,0,0
28,-489,0,0,0,0,0,0,0,0,0,-1,1252,1513,0,0
35,-489,0,0,0,0,0,0,0,0,0,-1,1259,1513,0,0
42,-489,0,0,0,0,0,0,0,0,0,-1,1266,1513,0,0
49,-489,0,0,0,0,0,0,0,0,0,-1,1273,1513,0,0
56,-489,0,0,0,0,0,0,0,0,0,-1,1280,1513,0,0
63,-489,0,0,0,0,0,0,0,0,0,-1,1287,1513,0,0
70,-489,0,0,0,0,0,0,0,0,0,-1,1294,1513,0,0
77,-489,0,0,0,0,0,0,0,0,0,-1,1301,1513,0,0
84,-489,0,0,0,0,0,0,0,0,0,-1,1308,1513,0,0
91,-489,0,0,0,0,0,0,0,0,0,-1,1315,1513,0,0
98,-489,0,0,0,0,0,0,0,0,0,-1,1322,1513,0,0
105,-489,0,0,0,0,0,0,0,0,0,-1,1329,1513,0,0
112,-489,0,0,0,0,0,0,0,0,0,-1,1336,1513,0,0
119,-489,0,0,0,0,0,0,0,0,0,-1,1343,1513,0,0
126,-489,0,0,0,0,0,0,0,0,0,-1,1350,1513,0,0
133,-489,0,0,0,0,0,0,0,0,0,-1,1357,1513,0,0
140,-489,0,0,0,0,0,0,0,0,0,-1,1364,1513,0,0
147,-489,0,0,0,0,0,0,0,0,0,-1,1371,1513,0,0
154,-489,0,0,0,0,0,0,0,0,0,-1,1378,1513,0,0
161,-489,0,0,0,0,0,0,0,0,0,-1,1385,1513,0,0
168,-489,0,0,0,0,0,0,0,0,0,-1,1392,1513,0,0
175,-489,0,0,0,0,0,0,0,0,0,-1,1399,1513,0,0
182,-489,0,0,0,0,0,0,0,0,0,-1,1406,1513,0,0
189,-489,0,0,0,0,0,0,0,0,0,-1,1413,1513,0,0
196,-489,0,0,0,0,0,0,0,0,0,-1,1420,1513,0,0
203,-489,0,0,0,0,0,0,0,0,0,-1,1427,1513,0,0
210,-489,0,0,0,0,0,0,0,0,0,-1,1434,1513,0,0
217,-489,0,0,0,0,0,0,0,0,0,-1,1441,1513,0,0
224,-489,0,0,0,0,0,0,0,0,0,-1,1448,1513,0,0
231,-489,0,0,0,0,0,0,0,0,0,-1,1455,1513,0,0
238,-489,0,0,0,0,0,0,0,0,0,-1,1462,1513,0,0
245,-489,0,0,0,0,0,0,0,0,0,-1,1469,1513,0,0
252,-489,0,0,0,0,0,0,0,0,0,-1,1476,1513,0,0
259,-489,0,0,0,0,0,0,0,0,0,-1,1483,1513,0,0
266,-489,0,0,0,0,0,0,0,0,0,-1,1490,1513,0,0
273,-489,0,0,0,0,0,0,0,0,0,-1,1497,1513,0,0
280,-489,0,0,0,0,0,0,0,0,0,-1,1504,1513,0,0
287,-489,0,0,0,0,0,0,0,0,0,-1,1511,1513,0,0
294,-489,0,0,0,0,0,0,0,0,0,-1,1518,1513,0,0
301,-489,0,0,0,0,0,0,0,0,0,-1,1525,1513,0,0
308,-489,0,0,0,0,0,0,0,0,0,-1,1532,1513,0,0
315,-489,0,0,0,0,0,0,0,0,0,-1,1539,1513,0,0
322,-489,0,0,0,0,0,0,0,0,0,-1,1546,1513,0,0
329,-489,0,0,0,0,0,0,0,0,0,-1,1553,1513,0,0
336,-489,0,0,0,0,0,0,0,0,0,-1,1560,1513,0,0
343,-489,0,0,0,0,0,0,0,0,0,-1,1567,1513,0,0
350,-489,0,0,0,0,0,0,0,0,0,-1,1574,1513,0,0
357,-489,0,0,0,0,0,0,0,0,0,-1,1581,1513,0,0
364,-489,0,0,0,0,0,0,0,0,0,-1,1588,1513,0,0
371,-489,0,0,0,0,0,0,0,0,0,-1,1595,1513,0,0
378,-489,0,0,0,0,0,0,0,0,0,-1,1602,1513,0,0
385,-489,0,0,0,0,0,0,0,0,0,-1,1609,1513,0,0
392,-489,0,0,0,0,0,0,0,0,0,-1,1616,1513,0,0
399,-489,0,0,0,0,0,0,0,0,0,-1,1623,1513,0,0
406,-489,0,0,0,0,0,0,0,0,0,-1,1630,1513,0,0
413,-489,0,0,0,0,0,0,0,0,0,-1,1637,1513,0,0
420,-489,0,0,0,0,0,0,0,0,0,-1,1644,1513,0,0
427,-489,0,0,0,0,0,0,0,0,0,-1,1651,1513,0,0
434,-489,0,0,0,0,0,0,0,0,0,-1,1658,1513,0,0
441,-489,11.4602,2.56787,0,0,0,0,0,0,0,-1,1665,1513,11.4602,-2.56786
448,-489,12.4425,1.72351,0,0,0,0,0,0,0,-1,1672,1513,12.4425,-1.72349
455,-489,12.5575,1.37463,0,0,0,0,0,0,0,-1,1679,1513,12.5575,-1.37469
462,-489,14.9784,3.84888,0,0,0,0,0,0,0,-1,1686,1513,14.9784,-3.84892
469,-489,15.1367,4.53101,0,0,0,0,0,0,0,-1,1693,1513,15.1368,-4.531
476,-489,15.5536,5.09338,0,0,0,0,0,0,0,-1,1700,1513,15.5536,-5.09339
483,-489,8.96912,8.37805,0,0,0,0,0,0,0,-1,1707,1513,8.96909,-8.37809
490,-489,10.9624,6.73401,0,0,0,0,0,0,0,-1,1714,1513,10.9624,-6.73406
497,-489,13.0338,9.26709,0,0,0,0,0,0,0,-1,1721,1513,13.0338,-9.26704
504,-489,12.6038,9.35352,0,0,0,0,0,0,0,-1,1728,1513,12.6037,-9.35354
511,-489,12.1737,9.44006,0,0,0,0,0,0,0,-1,1735,1513,12.1737,-9.44004
518,-489,10.5366,9.42932,-0.0759671,-0.0393532,0.0303158,-0.0222456,-0.0930747,1.05703,0.0561239,0.0458916,1742,1513,10.5366,-9.42931
525,-489,10.3412,9.10254,-0.0600292,-0.0330894,0.0245305,-0.0185739,-0.0745447,1.03648,0.0448073,0.0467851,1749,1513,10.3412,-9.10259
532,-489,10.0597,8.93774,-0.0461413,-0.027085,0.0197803,-0.0146577,-0.0585687,1.00985,0.0351925,0.0366223,1756,1513,10.0597,-8.93778
539,-489,9.85547,8.94495,-0.0344896,-0.0215191,0.0157406,-0.0109801,-0.0450286,0.980805,0.0271106,0.0172652,1763,1513,9.85544,-8.94496
546,-489,9.75793,8.83557,-0.0251682,-0.0176564,0.0120483,-0.00879215,-0.0340325,0.936493,0.0203993,0.0113741,1770,1513,9.75799,-8.8356
553,-489,9.75647,8.65942,-0.0177609,-0.0131763,0.00939912,-0.00579401,-0.0251432,0.905006,0.0152034,0.0139164,1777,1513,9.75646,-8.65947
560,-489,9.7843,8.44775,-0.0113768,-0.00901561,0.00688447,-0.00321125,-0.0171812,0.870316,0.0105479,0.0126775,1784,1513,9.7843,-8.4478
567,-489,9.77185,8.25427,-0.00636037,-0.00555203,0.00476685,-0.00117225,-0.0107402,0.827691,0.0068031,0.0136429,1791,1513,9.77185,-8.25425
574,-489,9.75146,8.07813,-0.00322086,-0.00314877,0.00302712,-0.000157483,-0.00621214,0.791352,0.00408994,0.0140026,1798,1513,9.75149,-8.0781
581,-489,9.76843,7.87976,-0.00190021,-0.00137255,0.00193744,0.000318943,-0.0035917,0.853069,0.00250755,0.0102892,1805,1513,9.76845,-7.87975
588,-489,9.77295,7.6604,-0.00116656,0.000241483,0.000978062,0.000742556,-0.00166763,1.09735,0.00142528,0.0122857,1812,1513,9.773,-7.66038
595,-489,9.7605,7.4635,-0.00089593,0.00163254,0.000299061,0.00166744,-0.000930821,1.45465,0.00152007,0.0181258,1819,1513,9.76045,-7.46345
602,-489,9.79102,7.26318,-0.000595748,0.00256517,-0.000145799,0.00257188,-0.000602458,-1.5248,0.00194673,0.024517,1826,1513,9.79097,-7.26324
609,-489,9.77979,7.04333,0.000280963,0.00307332,-0.00061826,0.00320409,0.000150197,-1.36236,0.00208779,0.0179735,1833,1513,9.77979,-7.04338
616,-489,9.76135,6.82471,0.00110166,0.00324206,-0.00103317,0.0036594,0.000684323,-1.1869,0.00224651,0.0104625,1840,1513,9.76136,-6.82465
623,-489,9.77332,6.66553,0.00273441,0.00294201,-0.00217828,0.00501897,0.000657457,-0.809207,0.00314978,0.0151752,1847,1513,9.77329,-6.66553
630,-489,9.70398,6.59998,0.00535776,0.00218088,-0.00354317,0.00765226,-0.000113616,-0.574674,0.0051398,0.0355107,1854,1513,9.70397,-6.6
637,-489,8.90552,6.39319,0,0,0,0,0,0,0,-1,1861,1513,8.90547,-6.39323
644,-489,7.84802,6.64746,0,0,0,0,0,0,0,-1,1868,1513,7.84797,-6.64745
651,-489,6.13818,6.85095,0,0,0,0,0,0,0,-1,1875,1513,6.13823,-6.85097
658,-489,5.43848,7.75513,0,0,0,0,0,0,0,-1,1882,1513,5.43844,-7.75509
665,-489,5.48438,8.59912,0,0,0,0,0,0,0,-1,1889,1513,5.48434,-8.59907
672,-489,0,0,0,0,0,0,0,0,0,-1,1896,1513,0,0
679,-489,0,0,0,0,0,0,0,0,0,-1,1903,1513,0,0
686,-489,0,0,0,0,0,0,0,0,0,-1,1910,1513,0,0
693,-489,0,0,0,0,0,0,0,0,0,-1,1917,1513,0,0
700,-489,0,0,0,0,0,0,0,0,0,-1,1924,1513,0,0
707,-489,0,0,0,0,0,0,0,0,0,-1,1931,1513,0,0
714,-489,0,0,0,0,0,0,0,0,0,-1,1938,1513,0,0
721,-489,0,0,0,0,0,0,0,0,0,-1,1945,1513,0,0
728,-489,0,0,0,0,0,0,0,0,0,-1,1952,1513,0,0
735,-489,0,0,0,0,0,0,0,0,0,-1,1959,1513,0,0
742,-489,0,0,0,0,0,0,0,0,0,-1,1966,1513,0,0
749,-489,0,0,0,0,0,0,0,0,0,-1,1973,1513,0,0
756,-489,0,0,0,0,0,0,0,0,0,-1,1980,1513,0,0
763,-489,0,0,0,0,0,0,0,0,0,-1,1987,1513,0,0
770,-489,0,0,0,0,0,0,0,0,0,-1,1994,1513,0,0
777,-489,0,0,0,0,0,0,0,0,0,-1,2001,1513,0,0
784,-489,0,0,0,0,0,0,0,0,0,-1,2008,1513,0,0
791,-489,0,0,0,0,0,0,0,0,0,-1,2015,1513,0,0
798,-489,0,0,0,0,0,0,0,0,0,-1,2022,1513,0,0
805,-489,0,0,0,0,0,0,0,0,0,-1,2029,1513,0,0
812,-489,0,0,0,0,0,0,0,0,0,-1,2036,1513,0,0
-700,-496,0,0,0,0,0,0,0,0,0,-1,524,1520,0,0
-693,-496,0,0,0,0,0,0,0,0,0,-1,531,1520,0,0
-686,-496,0,0,0,0,0,0,0,0,0,-1,538,1520,0,0
-679,-496,0,0,0,0,0,0,0,0,0,-1,545,1520,0,0
-672,-496,0,0,0,0,0,0,0,0,0,-1,552,1520,0,0
-665,-496,0,0,0,0,0,0,0,0,0,-1,559,1520,0,0
-658,-496,0,0,0,0,0,0,0,0,0,-1,566,1520,0,0
-651,-496,0,0,0,0,0,0,0,0,0,-1,573,1520,0,0
-644,-496,0,0,0,0,0,0,0,0,0,-1,580,1520,0,0
-637,-496,0,0,0,0,0,0,0,0,0,-1,587,1520,0,0
-630,-496,0,0,0,0,0,0,0,0,0,-1,594,1520,0,0
-623,-496,0,0,0,0,0,0,0,0,0,-1,601,1520,0,0
-616,-496,0,0,0,0,0,0,0,0,0,-1,608,1520,0,0
-609,-496,0,0,0,0,0,0,0,0,0,-1,615,1520,0,0
-602,-496,0,0,0,0,0,0,0,0,0,-1,622,1520,0,0
-595,-496,0,0,0,0,0,0,0,0,0,-1,629,1520,0,0
-588,-496,0,0,0,0,0,0,0,0,0,-1,636,1520,0,0
-581,-496,0,0,0,0,0,0,0,0,0,-1,643,1520,0,0
-574,-496,0,0,0,0,0,0,0,0,0,-1,650,1520,0,0
-567,-496,0,0,0,0,0,0,0,0,0,-1,657,1520,0,0
-560,-496,0,0,0,0,0,0,0,0,0,-1,664,1520,0,0
-553,-496,0,0,0,0,0,0,0,0,0,-1,671,1520,0,0
-546,-496,-8.09711,7.94836,0,0,0,0,0,0,0,-1,678,1520,-8.09712,-7.94842
-539,-496,-3.05109,6.33447,0,0,0,0,0,0,0,-1,685,1520,-3.05107,-6.33446
-532,-496,-2.32635,5.69678,0.046355,-0.00755716,-0.0699946,0.0944047,-0.0556069,-0.601593,0.0875695,0.0493596,692,1520,-2.32634,-5.69681
-525,-496,-1.86639,5.01099,0.0384794,-0.0029642,-0.0584784,0.0797989,-0.0442837,-0.615126,0.0726107,0.0477498,699,1520,-1.86642,-5.01102
-518,-496,-1.54346,4.47217,0.0315979,5.38625e-05,-0.0478152,0.0661752,-0.0345233,-0.62609,0.0590879,0.0487028,706,1520,-1.54346,-4.47217
-511,-496,-1.42303,4.2041,0.0254445,0.0019336,-0.0376477,0.0531294,-0.0257513,-0.63407,0.0464471,0.0466261,713,1520,-1.42303,-4.20413
-504,-496,-1.02661,4.49902,0.0201232,0.00316329,-0.0285542,0.0414301,-0.0181436,-0.641057,0.0352599,0.0455581,720,1520,-1.02661,-4.49903
-497,-496,-0.964172,4.66394,0.0154553,0.00357316,-0.0213785,0.0317029,-0.0126744,-0.649868,0.0263947,0.0479439,727,1520,-0.964155,-4.66392
-490,-496,-0.95752,5.03577,0.0115946,0.00363302,-0.0156868,0.0237978,-0.00857022,-0.661138,0.0193648,0.0375606,734,1520,-0.957516,-5.03576
-483,-496,-1.09479,5.20508,0.00817087,0.00457254,-0.0112292,0.0177441,-0.0050007,-0.705962,0.0138017,0.0184625,741,1520,-1.09481,-5.20513
-476,-496,-1.12091,5.38684,0.00562021,0.00398122,-0.0074512,0.0122968,-0.00269541,-0.730628,0.00922852,0.0107133,748,1520,-1.12089,-5.38679
-469,-496,-1.12402,5.63623,0.00400732,0.00279815,-0.0048458,0.0082861,-0.00148064,-0.723336,0.00607803,0.0100964,755,1520,-1.12404,-5.63628
-462,-496,-1.10803,5.87256,0.00337075,0.00162258,-0.00272176,0.00535534,-0.000362,-0.630027,0.0036968,0.0154625,762,1520,-1.10803,-5.87257
-455,-496,-1.09882,6.08289,0.00286134,0.000315383,-0.00197514,0.00393818,-0.000761463,-0.499149,0.00291265,0.0208454,769,1520,-1.09881,-6.08286
-448,-496,-1.11993,6.30127,0.00256912,-0.000825786,-0.00154021,0.00316374,-0.0014204,-0.368435,0.0027097,0.0190262,776,1520,-1.11991,-6.30131
-441,-496,-1.12762,6.53528,0.00259641,-0.00172098,-0.00104535,0.00283619,-0.00196077,-0.225484,0.00278486,0.0143301,783,1520,-1.12762,-6.53525
-434,-496,-1.12537,6.77319,0.00248154,-0.00209134,-0.000561265,0.00254942,-0.00215922,-0.120358,0.00272165,0.0125072,790,1520,-1.12539,-6.7732
-427,-496,-1.12024,7.00427,0.00289596,-0.00269534,-0.000216618,0.00290434,-0.00270372,-0.0386647,0.0032385,0.0168413,797,1520,-1.12026,-7.00426
-420,-496,-1.12274,7.20837,0.00332474,-0.00280414,0.000109775,0.00332671,-0.0028061,0.0179035,0.00354503,0.017207,804,1520,-1.12271,-7.20841
-413,-496,-1.0907,7.42712,0.00325987,-0.0027394,0.000263421,0.00327141,-0.00275095,0.0437965,0.00348134,0.0157191,811,1520,-1.09069,-7.42708
-406,-496,-1.08167,7.68457,0.00312805,-0.0023745,0.000505587,0.00317412,-0.00242057,0.0908685,0.00323985,0.0275565,818,1520,-1.08164,-7.68452
-399,-496,-0.958008,7.93323,0.00294212,-0.00162949,0.000864265,0.00310006,-0.00178742,0.180743,0.00285551,0.0439645,825,1520,-0.957997,-7.93319
-392,-496,-1.13715,7.8999,0.00265452,-0.000171896,0.00143158,0.00325292,-0.000770296,0.395927,0.00246582,0.0447284,832,1520,-1.13712,-7.89996
-385,-496,-1.49847,8.42395,0.00233023,0.00224598,0.002583,0.00487145,-0.000295235,0.777244,0.00335038,0.0440483,839,1520,-1.49846,-8.4239
-378,-496,-1.7785,8.91614,0,0,0,0,0,0,0,-1,846,1520,-1.77853,-8.91619
-371,-496,0.256165,8.99756,0,0,0,0,0,0,0,-1,853,1520,0.25617,-8.9975
-364,-496,0.0881348,10.6422,0,0,0,0,0,0,0,-1,860,1520,0.0881368,-10.6423
-357,-496,0.323792,7.56812,0,0,0,0,0,0,0,-1,867,1520,0.323782,-7.56806
-350,-496,2.1535,7.18945,0,0,0,0,0,0,0,-1,874,1520,2.15348,-7.1894
-343,-496,-7.56244,0.335327,0,0,0,0,0,0,0,-1,881,1520,-7.56242,-0.335322
-336,-496,-3.99249,6.02222,0,0,0,0,0,0,0,-1,888,1520,-3.99246,-6.0222
-329,-496,-6.93689,-0.100342,0,0,0,0,0,0,0,-1,895,1520,-6.93686,0.1003
-322,-496,-6.17505,0.494385,0,0,0,0,0,0,0,-1,902,1520,-6.17507,-0.49437
-315,-496,-5.46338,1.0459,0,0,0,0,0,0,0,-1,909,1520,-5.46338,-1.04587
-308,-496,0,0,0,0,0,0,0,0,0,-1,916,1520,0,0
-301,-496,0,0,0,0,0,0,0,0,0,-1,923,1520,0,0
-294,-496,0,0,0,0,0,0,0,0,0,-1,930,1520,0,0
-287,-496,0,0,0,0,0,0,0,0,0,-1,937,1520,0,0
-280,-496,0,0,0,0,0,0,0,0,0,-1,944,1520,0,0
-273,-496,0,0,0,0,0,0,0,0,0,-1,951,1520,0,0
-266,-496,0,0,0,0,0,0,0,0,0,-1,958,1520,0,0
-259,-496,0,0,0,0,0,0,0,0,0,-1,965,1520,0,0
-252,-496,0,0,0,0,0,0,0,0,0,-1,972,1520,0,0
-245,-496,0,0,0,0,0,0,0,0,0,-1,979,1520,0,0
-238,-496,0,0,0,0,0,0,0,0,0,-1,986,1520,0,0
-231,-496,0,0,0,0,0,0,0,0,0,-1,993,1520,0,0
-224,-496,0,0,0,0,0,0,0,0,0,-1,1000,1520,0,0
-217,-496,0,0,0,0,0,0,0,0,0,-1,1007,1520,0,0
-210,-496,0,0,0,0,0,0,0,0,0,-1,1014,1520,0,0
-203,-496,0,0,0,0,0,0,0,0,0,-1,1021,1520,0,0
-196,-496,0,0,0,0,0,0,0,0,0,-1,1028,1520,0,0
-189,-496,0,0,0,0,0,0,0,0,0,-1,1035,1520,0,0
-182,-496,0,0,0,0,0,0,0,0,0,-1,1042,1520,0,0
-175,-496,0,0,0,0,0,0,0,0,0,-1,1049,1520,0,0
-168,-496,0,0,0,0,0,0,0,0,0,-1,1056,1520,0,0
-161,-496,0,0,0,0,0,0,0,0,0,-1,1063,1520,0,0
-154,-496,0,0,0,0,0,0,0,0,0,-1,1070,1520,0,0
-147,-496,0,0,0,0,0,0,0,0,0,-1,1077,1520,0,0
-140,-496,0,0,0,0,0,0,0,0,0,-1,1084,1520,0,0
-133,-496,0,0,0,0,0,0,0,0,0,-1,1091,1520,0,0
-126,-496,0,0,0,0,0,0,0,0,0,-1,1098,1520,0,0
-119,-496,0,0,0,0,0,0,0,0,0,-1,1105,1520,0,0
-112,-496,0,0,0,0,0,0,0,0,0,-1,1112,1520,0,0
-105,-496,0,0,0,0,0,0,0,0,0,-1,1119,1520,0,0
-98,-496,0,0,0,0,0,0,0,0,0,-1,1126,1520,0,0
-91,-496,0,0,0,0,0,0,0,0,0,-1,1133,1520,0,0
-84,-496,0,0,0,0,0,0,0,0,0,-1,1140,1520,0,0
-77,-496,0,0,0,0,0,0,0,0,0,-1,1147,1520,0,0
-70,-496,0,0,0,0,0,0,0,0,0,-1,1154,1520,0,0
-63,-496,0,0,0,0,0,0,0,0,0,-1,1161,1520,0,0
-56,-496,0,0,0,0,0,0,0,0,0,-1,1168,1520,0,0
-49,-496,0,0,0,0,0,0,0,0,0,-1,1175,1520,0,0
-42,-496,0,0,0,0,0,0,0,0,0,-1,1182,1520,0,0
-35,-496,0,0,0,0,0,0,0,0,0,-1,1189,1520,0,0
-28,-496,0,0,0,0,0,0,0,0,0,-1,1196,1520,0,0
-21,-496,0,0,0,0,0,0,0,0,0,-1,1203,1520,0,0
-14,-496,0,0,0,0,0,0,0,0,0,-1,1210,1520,0,0
-7,-496,0,0,0,0,0,0,0,0,0,-1,1217,1520,0,0
0,-496,0,0,0,0,0,0,0,0,0,-1,1224,1520,0,0
7,-496,0,0,0,0,0,0,0,0,0,-1,1231,1520,0,0
14,-496,0,0,0,0,0,0,0,0,0,-1,1238,1520,0,0
21,-496,0,0,0,0,0,0,0,0,0,-1,1245,1520,0,0
28,-496,0,0,0,0,0,0,0,0,0,-1,1252,1520,0,0
35,-496,0,0,0,0,0,0,0,0,0,-1,1259,1520,0,0
42,-496,0,0,0,0,0,0,0,0,0,-1,1266,1520,0,0
49,-496,0,0,0,0,0,0,0,0,0,-1,1273,1520,0,0
56,-496,0,0,0,0,0,0,0,0,0,-1,1280,1520,0,0
63,-496,0,0,0,0,0,0,0,0,0,-1,1287,1520,0,0
70,-496,0,0,0,0,0,0,0,0,0,-1,1294,1520,0,0
77,-496,0,0,0,0,0,0,0,0,0,-1,1301,1520,0,0
84,-496,0,0,0,0,0,0,0,0,0,-1,1308,1520,0,0
91,-496,0,0,0,0,0,0,0,0,0,-1,1315,1520,0,0
98,-496,0,0,0,0,0,0,0,0,0,-1,1322,1520,0,0
105,-496,0,0,0,0,0,0,0,0,0,-1,1329,1520,0,0
112,-496,0,0,0,0,0,0,0,0,0,-1,1336,1520,0,0
119,-496,0,0,0,0,0,0,0,0,0,-1,1343,1520,0,0
126,-496,0,0,0,0,0,0,0,0,0,-1,1350,1520,0,0
133,-496,0,0,0,0,0,0,0,0,0,-1,1357,1520,0,0
140,-496,0,0,0,0,0,0,0,0,0,-1,1364,1520,0,0
147,-496,0,0,0,0,0,0,0,0,0,-1,1371,1520,0,0
154,-496,0,0,0,0,0,0,0,0,0,-1,1378,1520,0,0
161,-496,0,0,0,0,0,0,0,0,0,-1,1385,1520,0,0
168,-496,0,0,0,0,0,0,0,0,0,-1,1392,1520,0,0
175,-496,0,0,0,0,0,0,0,0,0,-1,1399,1520,0,0
182,-496,0,0,0,0,0,0,0,0,0,-1,1406,1520,0,0
189,-496,0,0,0,0,0,0,0,0,0,-1,1413,1520,0,0
196,-496,0,0,0,0,0,0,0,0,0,-1,1420,1520,0,0
203,-496,0,0,0,0,0,0,0,0,0,-1,1427,1520,0,0
210,-496,0,0,0,0,0,0,0,0,0,-1,1434,1520,0,0
217,-496,0,0,0,0,0,0,0,0,0,-1,1441,1520,0,0
224,-496,0,0,0,0,0,0,0,0,0,-1,1448,1520,0,0
231,-496,0,0,0,0,0,0,0,0,0,-1,1455,1520,0,0
238,-496,0,0,0,0,0,0,0,0,0,-1,1462,1520,0,0
245,-496,0,0,0,0,0,0,0,0,0,-1,1469,1520,0,0
252,-496,0,0,0,0,0,0,0,0,0,-1,1476,1520,0,0
259,-496,0,0,0,0,0,0,0,0,0,-1,1483,1520,0,0
266,-496,0,0,0,0,0,0,0,0,0,-1,1490,1520,0,0
273,-496,0,0,0,0,0,0,0,0,0,-1,1497,1520,0,0
280,-496,0,0,0,0,0,0,0,0,0,-1,1504,1520,0,0
287,-496,0,0,0,0,0,0,0,0,0,-1,1511,1520,0,0
294,-496,0,0,0,0,0,0,0,0,0,-1,1518,1520,0,0
301,-496,0,0,0,0,0,0,0,0,0,-1,1525,1520,0,0
308,-496,0,0,0,0,0,0,0,0,0,-1,1532,1520,0,0
315,-496,0,0,0,0,0,0,0,0,0,-1,1539,1520,0,0
322,-496,0,0,0,0,0,0,0,0,0,-1,1546,1520,0,0
329,-496,0,0,0,0,0,0,0,0,0,-1,1553,1520,0,0
336,-496,0,0,0,0,0,0,0,0,0,-1,1560,1520,0,0
343,-496,0,0,0,0,0,0,0,0,0,-1,1567,1520,0,0
350,-496,0,0,0,0,0,0,0,0,0,-1,1574,1520,0,0
357,-496,0,0,0,0,0,0,0,0,0,-1,1581,1520,0,0
364,-496,0,0,0,0,0,0,0,0,0,-1,1588,1520,0,0
371,-496,0,0,0,0,0,0,0,0,0,-1,1595,1520,0,0
378,-496,0,0,0,0,0,0,0,0,0,-1,1602,1520,0,0
385,-496,0,0,0,0,0,0,0,0,0,-1,1609,1520,0,0
392,-496,0,0,0,0,0,0,0,0,0,-1,1616,1520,0,0
399,-496,0,0,0,0,0,0,0,0,0,-1,1623,1520,0,0
406,-496,0,0,0,0,0,0,0,0,0,-1,1630,1520,0,0
413,-496,0,0,0,0,0,0,0,0,0,-1,1637,1520,0,0
420,-496,0,0,0,0,0,0,0,0,0,-1,1644,1520,0,0
427,-496,0,0,0,0,0,0,0,0,0,-1,1651,1520,0,0
434,-496,11.0457,3.37732,0,0,0,0,0,0,0,-1,1658,1520,11.0456,-3.37736
441,-496,11.788,2.75488,0,0,0,0,0,0,0,-1,1665,1520,11.7879,-2.75485
448,-496,12.2146,2.18494,0,0,0,0,0,0,0,-1,1672,1520,12.2146,-2.18489
455,-496,12.3489,1.65173,0,0,0,0,0,0,0,-1,1679,1520,12.3489,-1.65178
462,-496,12.1912,1.32361,0,0,0,0,0,0,0,-1,1686,1520,12.1911,-1.32357
469,-496,14.8138,5.77954,0,0,0,0,0,0,0,-1,1693,1520,14.8138,-5.77958
476,-496,15.2449,6.27942,0,0,0,0,0,0,0,-1,1700,1520,15.2449,-6.27936
483,-496,8.92578,2.27734,0,0,0,0,0,0,0,-1,1707,1520,8.92574,-2.27738
490,-496,12.4607,9.6521,0,0,0,0,0,0,0,-1,1714,1520,12.4607,-9.65212
497,-496,12.1798,9.17078,0,0,0,0,0,0,0,-1,1721,1520,12.1798,-9.1708
504,-496,11.7308,9.10864,0,0,0,0,0,0,0,-1,1728,1520,11.7309,-9.10863
511,-496,11.1388,9.56018,0,0,0,0,0,0,0,-1,1735,1520,11.1388,-9.56015
518,-496,10.4142,9.36743,-0.0615458,-0.0303478,0.027014,-0.0147525,-0.077141,1.04723,0.0472833,0.0436381,1742,1520,10.4142,-9.36747
525,-496,9.87476,9.10046,-0.0487456,-0.0254538,0.0214646,-0.0126793,-0.0615201,1.03396,0.0375083,0.0416417,1749,1520,9.8748,-9.10041
532,-496,9.651,9.14148,-0.0374388,-0.0208622,0.0169944,-0.0102426,-0.0480584,1.01228,0.0292292,0.024185,1756,1520,9.65106,-9.14149
539,-496,9.57141,9.03064,-0.0279625,-0.0165098,0.0132247,-0.00782493,-0.0366474,0.989713,0.022286,0.0127432,1763,1520,9.57142,-9.03069
546,-496,9.5575,8.84692,-0.0203608,-0.0136311,0.00983589,-0.00660044,-0.0273915,0.950208,0.0165068,0.0098087,1770,1520,9.55751,-8.8469
553,-496,9.56921,8.6604,-0.0142902,-0.00994637,0.00746057,-0.00434801,-0.0198886,0.927044,0.0120736,0.0148246,1777,1520,9.56927,-8.66036
560,-496,9.59155,8.45728,-0.00899789,-0.00645162,0.00518463,-0.0023861,-0.0130634,0.905796,0.00803259,0.01388,1784,1520,9.59161,-8.45726
567,-496,9.57935,8.24634,-0.00483963,-0.00350415,0.00327882,-0.000825766,-0.00751802,0.88585,0.00476069,0.0107942,1791,1520,9.57938,-8.24635
574,-496,9.56897,8.05322,-0.00221144,-0.00133737,0.00173263,1.24924e-05,-0.0035613,0.908941,0.00237838,0.0115805,1798,1520,9.56892,-8.05324
581,-496,9.56323,7.87988,-0.00120306,0.000392417,0.000777301,0.000708493,-0.00151914,1.18459,0.0013142,0.0122719,1805,1520,9.56319,-7.87986
588,-496,9.57275,7.677,-0.000709471,0.00194294,-5.66728e-05,0.00194415,-0.000710681,-1.54944,0.00158695,0.0143059,1812,1520,9.57277,-7.67702
595,-496,9.57019,7.46887,-0.000654034,0.00336088,-0.000629135,0.00345715,-0.00075031,-1.41894,0.00259134,0.0162232,1819,1520,9.57018,-7.4689
602,-496,9.58545,7.26001,-0.000612949,0.00440847,-0.000966738,0.00458815,-0.000792638,-1.38702,0.00335435,0.018747,1826,1520,9.58548,-7.25998
609,-496,9.58594,7.04932,-4.56996e-05,0.00504826,-0.0012974,0.00535966,-0.000357101,-1.33523,0.00369789,0.01587,1833,1520,9.58589,-7.04932
616,-496,9.58142,6.81982,0.000464062,0.00539833,-0.00149718,0.00581707,4.53161e-05,-1.29808,0.00386303,0.0125354,1840,1520,9.58141,-6.81988
623,-496,9.57654,6.69043,0.00191137,0.00513185,-0.00235763,0.00637666,0.000666569,-1.08501,0.00404725,0.0251286,1847,1520,9.57658,-6.69044
630,-496,9.13318,6.44031,0.00437312,0.00441603,-0.00346469,0.00785934,0.000929815,-0.788495,0.00495876,0.0415887,1854,1520,9.13312,-6.44025
637,-496,8.36804,6.28503,0,0,0,0,0,0,0,-1,1861,1520,8.36803,-6.28499
644,-496,7.70923,6.05298,0,0,0,0,0,0,0,-1,1868,1520,7.70929,-6.05301
651,-496,6.02295,6.79968,0,0,0,0,0,0,0,-1,1875,1520,6.02298,-6.79971
658,-496,5.57922,7.42651,0,0,0,0,0,0,0,-1,1882,1520,5.57926,-7.42654
665,-496,5.47583,7.90625,0,0,0,0,0,0,0,-1,1889,1520,5.47581,-7.90628
672,-496,0,0,0,0,0,0,0,0,0,-1,1896,1520,0,0
679,-496,0,0,0,0,0,0,0,0,0,-1,1903,1520,0,0
686,-496,0,0,0,0,0,0,0,0,0,-1,1910,1520,0,0
693,-496,0,0,0,0,0,0,0,0,0,-1,1917,1520,0,0
700,-496,0,0,0,0,0,0,0,0,0,-1,1924,1520,0,0
707,-496,0,0,0,0,0,0,0,0,0,-1,1931,1520,0,0
714,-496,0,0,0,0,0,0,0,0,0,-1,1938,1520,0,0
721,-496,0,0,0,0,0,0,0,0,0,-1,1945,1520,0,0
728,-496,0,0,0,0,0,0,0,0,0,-1,1952,1520,0,0
735,-496,0,0,0,0,0,0,0,0,0,-1,1959,1520,0,0
742,-496,0,0,0,0,0,0,0,0,0,-1,1966,1520,0,0
749,-496,0,0,0,0,0,0,0,0,0,-1,1973,1520,0,0
756,-496,0,0,0,0,0,0,0,0,0,-1,1980,1520,0,0
763,-496,0,0,0,0,0,0,0,0,0,-1,1987,1520,0,0
770,-496,0,0,0,0,0,0,0,0,0,-1,1994,1520,0,0
777,-496,0,0,0,0,0,0,0,0,0,-1,2001,1520,0,0
784,-496,0,0,0,0,0,0,0,0,0,-1,2008,1520,0,0
791,-496,0,0,0,0,0,0,0,0,0,-1,2015,1520,0,0
798,-496,0,0,0,0,0,0,0,0,0,-1,2022,1520,0,0
805,-496,0,0,0,0,0,0,0,0,0,-1,2029,1520,0,0
812,-496,0,0,0,0,0,0,0,0,0,-1,2036,1520,0,0
-700,-503,0,0,0,0,0,0,0,0,0,-1,524,1527,0,0
-693,-503,0,0,0,0,0,0,0,0,0,-1,531,1527,0,0
-686,-503,0,0,0,0,0,0,0,0,0,-1,538,1527,0,0
-679,-503,0,0,0,0,0,0,0,0,0,-1,545,1527,0,0
-672,-503,0,0,0,0,0,0,0,0,0,-1,552,1527,0,0
-665,-503,0,0,0,0,0,0,0,0,0,-1,559,1527,0,0
-658,-503,0,0,0,0,0,0,0,0,0,-1,566,1527,0,0
-651,-503,0,0,0,0,0,0,0,0,0,-1,573,1527,0,0
-644,-503,0,0,0,0,0,0,0,0,0,-1,580,1527,0,0
-637,-503,0,0,0,0,0,0,0,0,0,-1,587,1527,0,0
-630,-503,0,0,0,0,0,0,0,0,0,-1,594,1527,0,0
-623,-503,0,0,0,0,0,0,0,0,0,-1,601,1527,0,0
-616,-503,0,0,0,0,0,0,0,0,0,-1,608,1527,0,0
-609,-503,0,0,0,0,0,0,0,0,0,-1,615,1527,0,0
-602,-503,0,0,0,0,0,0,0,0,0,-1,622,1527,0,0
-595,-503,0,0,0,0,0,0,0,0,0,-1,629,1527,0,0
-588,-503,0,0,0,0,0,0,0,0,0,-1,636,1527,0,0
-581,-503,0,0,0,0,0,0,0,0,0,-1,643,1527,0,0
-574,-503,0,0,0,0,0,0,0,0,0,-1,650,1527,0,0
-567,-503,0,0,0,0,0,0,0,0,0,-1,657,1527,0,0
-560,-503,0,0,0,0,0,0,0,0,0,-1,664,1527,0,0
-553,-503,0,0,0,0,0,0,0,0,0,-1,671,1527,0,0
-546,-503,0,0,0,0,0,0,0,0,0,-1,678,1527,0,0
-539,-503,-1.67786,3.5929,0,0,0,0,0,0,0,-1,685,1527,-1.67788,-3.59286
-532,-503,-1.92102,5.21985,0,0,0,0,0,0,0,-1,692,1527,-1.92104,-5.21987
-525,-503,-1.10913,5.06702,0,0,0,0,0,0,0,-1,699,1527,-1.10914,-5.06699
-518,-503,-0.615662,4.48254,0.0239942,0.0218723,-0.0540797,0.0770233,-0.0311568,-0.77559,0.0643019,0.0487169,706,1527,-0.615665,-4.4825
-511,-503,-1.11786,3.90613,0.0194334,0.0234602,-0.0405939,0.0620906,-0.0191971,-0.810177,0.0490611,0.048652,713,1527,-1.11783,-3.90613
-504,-503,-0.949341,4.13977,0.0153253,0.0236678,-0.0299628,0.0497482,-0.0107552,-0.854561,0.0372715,0.0486148,720,1527,-0.949329,-4.13977
-497,-503,-0.585205,4.51074,0,0,0,0,0,0,0,-1,727,1527,-0.585225,-4.51075
-490,-503,-0.477112,4.95288,0.00842355,0.0211502,-0.0154435,0.0314899,-0.00191621,-0.980819,0.0216603,0.0488679,734,1527,-0.477099,-4.95287
-483,-503,-0.683899,5.19519,0.00542135,0.0199323,-0.0107718,0.0256643,-0.00031062,-1.08178,0.017214,0.0365241,741,1527,-0.683895,-5.19518
-476,-503,-0.838562,5.42761,0.00321223,0.0172728,-0.00693504,0.0201177,0.000367313,-1.18151,0.0132911,0.0172829,748,1527,-0.838537,-5.42766
-469,-503,-0.8927,5.64587,0.00187805,0.0141187,-0.00432802,0.0154944,0.000502362,-1.26304,0.0101663,0.00958669,755,1527,-0.892677,-5.64585
-462,-503,-0.889343,5.88513,0.00158265,0.0110619,-0.00220094,0.011548,0.00109655,-1.35343,0.00736043,0.0113783,762,1527,-0.889369,-5.88513
-455,-503,-0.870483,6.09668,0.00134299,0.00776404,-0.0015716,0.00812806,0.000978965,-1.34318,0.00512366,0.0168855,769,1527,-0.870455,-6.0967
-448,-503,-0.880615,6.31311,0.00122843,0.00487871,-0.00124528,0.00526306,0.000844074,-1.27142,0.00326393,0.0166882,776,1527,-0.88062,-6.31313
-441,-503,-0.88092,6.52197,0.00146771,0.0024164,-0.000827882,0.0028962,0.000987913,-1.04555,0.00170003,0.0137375,783,1527,-0.880916,-6.52203
-434,-503,-0.882935,6.75354,0.00145555,0.000836336,-0.000429834,0.00167568,0.000616214,-0.473288,0.00097867,0.0106112,790,1527,-0.882923,-6.75349
-427,-503,-0.898865,6.96509,0.00202001,-0.000634914,-0.000119305,0.00202536,-0.000640264,-0.0448168,0.00160676,0.0162789,797,1527,-0.898836,-6.96504
-420,-503,-0.882813,7.21033,0.00259592,-0.00150796,0.000238952,0.00260979,-0.00152183,0.0579648,0.0024128,0.0170135,804,1527,-0.882824,-7.2103
-413,-503,-0.89093,7.42883,0.00261532,-0.00174999,0.000362042,0.00264515,-0.00177981,0.0821878,0.00257098,0.0136658,811,1527,-0.890944,-7.42889
-406,-503,-0.889038,7.64001,0.00257353,-0.00149523,0.000516985,0.0026382,-0.00155989,0.124428,0.00245027,0.0139439,818,1527,-0.889037,-7.64
-399,-503,-0.799988,7.90881,0.00256942,-0.00103167,0.00072803,0.00271104,-0.00117329,0.19212,0.00230045,0.0189115,825,1527,-0.800016,-7.90887
-392,-503,-0.686951,8.13782,0.00255084,-6.23835e-05,0.00111527,0.0029621,-0.000473639,0.353279,0.00215007,0.0338576,832,1527,-0.686972,-8.13782
-385,-503,-0.818848,8.05518,0.0025937,0.00151387,0.00198928,0.00411504,-7.46385e-06,0.652883,0.00274585,0.0410235,839,1527,-0.818847,-8.05516
-378,-503,-0.531067,8.43018,0.00231389,0.00474081,0.00364292,0.00736705,-0.000312353,0.946169,0.00501873,0.0442608,846,1527,-0.531053,-8.43019
-371,-503,-0.296265,8.69592,0.00180064,0.0120852,0.0061304,0.0149445,-0.00105863,1.13438,0.0103339,0.045631,853,1527,-0.296292,-8.69595
-364,-503,0.085022,8.9812,0,0,0,0,0,0,0,-1,860,1527,0.0850418,-8.98121
-357,-503,0.558533,9.25452,0,0,0,0,0,0,0,-1,867,1527,0.558542,-9.25446
-350,-503,0.219971,6.84827,0,0,0,0,0,0,0,-1,874,1527,0.21996,-6.84831
-343,-503,-3.5802,4.43274,0,0,0,0,0,0,0,-1,881,1527,-3.58018,-4.43276
-336,-503,-3.2384,6.40637,0,0,0,0,0,0,0,-1,888,1527,-3.2384,-6.40643
-329,-503,-2.89661,8.38013,0,0,0,0,0,0,0,-1,895,1527,-2.89662,-8.3801
-322,-503,-3.31317,8.81519,0,0,0,0,0,0,0,-1,902,1527,-3.31315,-8.81524
-315,-503,-3.90265,7.73853,0,0,0,0,0,0,0,-1,909,1527,-3.90264,-7.73854
-308,-503,-4.07867,7.25977,0,0,0,0,0,0,0,-1,916,1527,-4.07868,-7.25973
-301,-503,0,0,0,0,0,0,0,0,0,-1,923,1527,0,0
-294,-503,0,0,0,0,0,0,0,0,0,-1,930,1527,0,0
-287,-503,0,0,0,0,0,0,0,0,0,-1,937,1527,0,0
-280,-503,0,0,0,0,0,0,0,0,0,-1,944,1527,0,0
-273,-503,0,0,0,0,0,0,0,0,0,-1,951,1527,0,0
-266,-503,0,0,0,0,0,0,0,0,0,-1,958,1527,0,0
-259,-503,0,0,0,0,0,0,0,0,0,-1,965,1527,0,0
-252,-503,0,0,0,0,0,0,0,0,0,-1,972,1527,0,0
-245,-503,0,0,0,0,0,0,0,0,0,-1,979,1527,0,0
-238,-503,0,0,0,0,0,0,0,0,0,-1,986,1527,0,0
-231,-503,0,0,0,0,0,0,0,0,0,-1,993,1527,0,0
-224,-503,0,0,0,0,0,0,0,0,0,-1,1000,1527,0,0
-217,-503,0,0,0,0,0,0,0,0,0,-1,1007,1527,0,0
-210,-503,0,0,0,0,0,0,0,0,0,-1,1014,1527,0,0
-203,-503,0,0,0,0,0,0,0,0,0,-1,1021,1527,0,0
-196,-503,0,0,0,0,0,0,0,0,0,-1,1028,1527,0,0
-189,-503,0,0,0,0,0,0,0,0,0,-1,1035,1527,0,0
-182,-503,0,0,0,0,0,0,0,0,0,-1,1042,1527,0,0
-175,-503,0,0,0,0,0,0,0,0,0,-1,1049,1527,0,0
-168,-503,0,0,0,0,0,0,0,0,0,-1,1056,1527,0,0
-161,-503,0,0,0,0,0,0,0,0,0,-1,1063,1527,0,0
-154,-503,0,0,0,0,0,0,0,0,0,-1,1070,1527,0,0
-147,-503,0,0,0,0,0,0,0,0,0,-1,1077,1527,0,0
-140,-503,0,0,0,0,0,0,0,0,0,-1,1084,1527,0,0
-133,-503,0,0,0,0,0,0,0,0,0,-1,1091,1527,0,0
-126,-503,0,0,0,0,0,0,0,0,0,-1,1098,1527,0,0
-119,-503,0,0,0,0,0,0,0,0,0,-1,1105,1527,0,0
-112,-503,0,0,0,0,0,0,0,0,0,-1,1112,1527,0,0
-105,-503,0,0,0,0,0,0,0,0,0,-1,1119,1527,0,0
-98,-503,0,0,0,0,0,0,0,0,0,-1,1126,1527,0,0
-91,-503,0,0,0,0,0,0,0,0,0,-1,1133,1527,0,0
-84,-503,0,0,0,0,0,0,0,0,0,-1,1140,1527,0,0
-77,-503,0,0,0,0,0,0,0,0,0,-1,1147,1527,0,0
-70,-503,0,0,0,0,0,0,0,0,0,-1,1154,1527,0,0
-63,-503,0,0,0,0,0,0,0,0,0,-1,1161,1527,0,0
-56,-503,0,0,0,0,0,0,0,0,0,-1,1168,1527,0,0
-49,-503,0,0,0,0,0,0,0,0,0,-1,1175,1527,0,0
-42,-503,0,0,0,0,0,0,0,0,0,-1,1182,1527,0,0
-35,-503,0,0,0,0,0,0,0,0,0,-1,1189,1527,0,0
-28,-503,0,0,0,0,0,0,0,0,0,-1,1196,1527,0,0
-21,-503,0,0,0,0,0,0,0,0,0,-1,1203,1527,0,0
-14,-503,0,0,0,0,0,0,0,0,0,-1,1210,1527,0,0
-7,-503,0,0,0,0,0,0,0,0,0,-1,1217,1527,0,0
0,-503,0,0,0,0,0,0,0,0,0,-1,1224,1527,0,0
7,-503,0,0,0,0,0,0,0,0,0,-1,1231,1527,0,0
14,-503,0,0,0,0,0,0,0,0,0,-1,1238,1527,0,0
21,-503,0,0,0,0,0,0,0,0,0,-1,1245,1527,0,0
28,-503,0,0,0,0,0,0,0,0,0,-1,1252,1527,0,0
35,-503,0,0,0,0,0,0,0,0,0,-1,1259,1527,0,0
42,-503,0,0,0,0,0,0,0,0,0,-1,1266,1527,0,0
49,-503,0,0,0,0,0,0,0,0,0,-1,1273,1527,0,0
56,-503,0,0,0,0,0,0,0,0,0,-1,1280,1527,0,0
63,-503,0,0,0,0,0,0,0,0,0,-1,1287,1527,0,0
70,-503,0,0,0,0,0,0,0,0,0,-1,1294,1527,0,0
77,-503,0,0,0,0,0,0,0,0,0,-1,1301,1527,0,0
84,-503,0,0,0,0,0,0,0,0,0,-1,1308,1527,0,0
91,-503,0,0,0,0,0,0,0,0,0,-1,1315,1527,0,0
98,-503,0,0,0,0,0,0,0,0,0,-1,1322,1527,0,0
105,-503,0,0,0,0,0,0,0,0,0,-1,1329,1527,0,0
112,-503,0,0,0,0,0,0,0,0,0,-1,1336,1527,0,0
119,-503,0,0,0,0,0,0,0,0,0,-1,1343,1527,0,0
126,-503,0,0,0,0,0,0,0,0,0,-1,1350,1527,0,0
133,-503,0,0,0,0,0,0,0,0,0,-1,1357,1527,0,0
140,-503,0,0,0,0,0,0,0,0,0,-1,1364,1527,0,0
147,-503,0,0,0,0,0,0,0,0,0,-1,1371,1527,0,0
154,-503,0,0,0,0,0,0,0,0,0,-1,1378,1527,0,0
161,-503,0,0,0,0,0,0,0,0,0,-1,1385,1527,0,0
168,-503,0,0,0,0,0,0,0,0,0,-1,1392,1527,0,0
175,-503,0,0,0,0,0,0,0,0,0,-1,1399,1527,0,0
182,-503,0,0,0,0,0,0,0,0,0,-1,1406,1527,0,0
189,-503,0,0,0,0,0,0,0,0,0,-1,1413,1527,0,0
196,-503,0,0,0,0,0,0,0,0,0,-1,1420,1527,0,0
203,-503,0,0,0,0,0,0,0,0,0,-1,1427,1527,0,0
210,-503,0,0,0,0,0,0,0,0,0,-1,1434,1527,0,0
217,-503,0,0,0,0,0,0,0,0,0,-1,1441,1527,0,0
224,-503,0,0,0,0,0,0,0,0,0,-1,1448,1527,0,0
231,-503,0,0,0,0,0,0,0,0,0,-1,1455,1527,0,0
238,-503,0,0,0,0,0,0,0,0,0,-1,1462,1527,0,0
245,-503,0,0,0,0,0,0,0,0,0,-1,1469,1527,0,0
252,-503,0,0,0,0,0,0,0,0,0,-1,1476,1527,0,0
259,-503,0,0,0,0,0,0,0,0,0,-1,1483,1527,0,0
266,-503,0,0,0,0,0,0,0,0,0,-1,1490,1527,0,0
273,-503,0,0,0,0,0,0,0,0,0,-1,1497,1527,0,0
280,-503,0,0,0,0,0,0,0,0,0,-1,1504,1527,0,0
287,-503,0,0,0,0,0,0,0,0,0,-1,1511,1527,0,0
294,-503,0,0,0,0,0,0,0,0,0,-1,1518,1527,0,0
301,-503,0,0,0,0,0,0,0,0,0,-1,1525,1527,0,0
308,-503,0,0,0,0,0,0,0,0,0,-1,1532,1527,0,0
315,-503,0,0,0,0,0,0,0,0,0,-1,1539,1527,0,0
322,-503,0,0,0,0,0,0,0,0,0,-1,1546,1527,0,0
329,-503,0,0,0,0,0,0,0,0,0,-1,1553,1527,0,0
336,-503,0,0,0,0,0,0,0,0,0,-1,1560,1527,0,0
343,-503,0,0,0,0,0,0,0,0,0,-1,1567,1527,0,0
350,-503,0,0,0,0,0,0,0,0,0,-1,1574,1527,0,0
357,-503,0,0,0,0,0,0,0,0,0,-1,1581,1527,0,0
364,-503,0,0,0,0,0,0,0,0,0,-1,1588,1527,0,0
371,-503,0,0,0,0,0,0,0,0,0,-1,1595,1527,0,0
378,-503,0,0,0,0,0,0,0,0,0,-1,1602,1527,0,0
385,-503,0,0,0,0,0,0,0,0,0,-1,1609,1527,0,0
392,-503,0,0,0,0,0,0,0,0,0,-1,1616,1527,0,0
399,-503,0,0,0,0,0,0,0,0,0,-1,1623,1527,0,0
406,-503,0,0,0,0,0,0,0,0,0,-1,1630,1527,0,0
413,-503,0,0,0,0,0,0,0,0,0,-1,1637,1527,0,0
420,-503,0,0,0,0,0,0,0,0,0,-1,1644,1527,0,0
427,-503,10.5968,4.9856,0,0,0,0,0,0,0,-1,1651,1527,10.5969,-4.98563
434,-503,11.4329,3.97217,0,0,0,0,0,0,0,-1,1658,1527,11.4328,-3.97222
441,-503,12.0957,2.96509,0,0,0,0,0,0,0,-1,1665,1527,12.0957,-2.96512
448,-503,12.3259,2.53894,0,0,0,0,0,0,0,-1,1672,1527,12.326,-2.53895
455,-503,12.1669,2.18762,0,0,0,0,0,0,0,-1,1679,1527,12.1668,-2.18767
462,-503,11.59,2.60791,0,0,0,0,0,0,0,-1,1686,1527,11.5899,-2.60794
469,-503,11.1625,1.61853,0,0,0,0,0,0,0,-1,1693,1527,11.1625,-1.61856
476,-503,8.7157,2.09912,0,0,0,0,0,0,0,-1,1700,1527,8.71572,-2.0991
483,-503,11.7648,9.51062,0,0,0,0,0,0,0,-1,1707,1527,11.7648,-9.51064
490,-503,11.7942,9.33142,-0.0995701,-0.0385798,0.0532599,-0.00770255,-0.130447,1.0454,0.0845145,0.0483924,1714,1527,11.7942,-9.33141
497,-503,11.5603,9.26123,0,0,0,0,0,0,0,-1,1721,1527,11.5603,-9.2612
504,-503,11.0841,9.18994,-0.0711795,-0.0313797,0.0371753,-0.00911316,-0.0934461,1.03114,0.0594928,0.0402229,1728,1527,11.0841,-9.18989
511,-503,10.4812,9.40576,-0.0596628,-0.0275602,0.0296253,-0.00991725,-0.0773058,1.03366,0.0485701,0.041203,1735,1527,10.4811,-9.4058
518,-503,9.9552,9.49341,-0.0488141,-0.0232892,0.023373,-0.00942122,-0.062682,1.0353,0.0390285,0.0392422,1742,1527,9.95519,-9.49337
525,-503,9.53748,9.34119,-0.0386626,-0.0193923,0.0182369,-0.00840173,-0.0496532,1.02843,0.0306874,0.0303484,1749,1527,9.53753,-9.34121
532,-503,9.37903,9.224,-0.0295814,-0.015862,0.0141507,-0.00699601,-0.0384473,1.01109,0.0236471,0.0123207,1756,1527,9.37906,-9.22399
539,-503,9.36243,9.04565,-0.0219191,-0.0124017,0.0106902,-0.00545887,-0.0288619,0.994804,0.0177044,0.0117323,1763,1527,9.3624,-9.04567
546,-503,9.35425,8.85754,-0.0157498,-0.0101811,0.00761504,-0.00485735,-0.0210736,0.960667,0.0127424,0.0112723,1770,1527,9.35429,-8.85759
553,-503,9.37817,8.65063,-0.0108307,-0.0070929,0.00548843,-0.0031639,-0.0147597,0.949499,0.00897306,0.0135325,1777,1527,9.37817,-8.65068
560,-503,9.37646,8.44763,-0.00652234,-0.00409954,0.00343757,-0.00166617,-0.00895572,0.954804,0.00549987,0.0127701,1784,1527,9.37646,-8.44768
567,-503,9.37781,8.24695,-0.0031897,-0.00155599,0.00173416,-0.000455936,-0.00428976,1.0055,0.00272062,0.0112122,1791,1527,9.37787,-8.24698
574,-503,9.37378,8.06238,-0.00111198,0.000446779,0.000372748,0.000531328,-0.00119653,1.34774,0.00102192,0.0123872,1798,1527,9.37372,-8.06242
581,-503,9.34631,7.87817,-0.000460498,0.00220107,-0.000463784,0.00227957,-0.000538998,-1.40313,0.00172764,0.0126067,1805,1527,9.34633,-7.87821
588,-503,9.34631,7.68298,-0.000268526,0.00379212,-0.00119001,0.00411516,-0.000591568,-1.30572,0.0029604,0.0146761,1812,1527,9.34635,-7.68296
595,-503,9.36133,7.4657,-0.000497107,0.00535537,-0.00168074,0.00580371,-0.000945444,-1.31012,0.00421974,0.0117422,1819,1527,9.36138,-7.46566
602,-503,9.38647,7.26001,-0.000779149,0.00665442,-0.00196575,0.00714223,-0.00126696,-1.32755,0.00523516,0.0137629,1826,1527,9.38648,-7.25999
609,-503,9.41589,7.03296,-0.000635093,0.00762434,-0.00217821,0.00816359,-0.00117433,-1.32811,0.0058731,0.0186134,1833,1527,9.41592,-7.03302
616,-503,9.33154,6.85669,-0.000557218,0.00845212,-0.00216985,0.00894748,-0.00105258,-1.34635,0.00634501,0.02051,1840,1527,9.33158,-6.85669
623,-503,9.32117,6.61646,0.000292741,0.00864999,-0.00245272,0.00931664,-0.000373917,-1.3054,0.00633941,0.0356653,1847,1527,9.32115,-6.61647
630,-503,9.3606,6.41235,0,0,0,0,0,0,0,-1,1854,1527,9.36057,-6.41235
637,-503,7.83057,6.17676,0,0,0,0,0,0,0,-1,1861,1527,7.83059,-6.17675
644,-503,9.65637,3.39685,0,0,0,0,0,0,0,-1,1868,1527,9.65638,-3.39687
651,-503,5.90771,6.74841,0,0,0,0,0,0,0,-1,1875,1527,5.90774,-6.74845
658,-503,5.73291,7.09534,0,0,0,0,0,0,0,-1,1882,1527,5.73293,-7.09529
665,-503,0,0,0,0,0,0,0,0,0,-1,1889,1527,0,0
672,-503,0,0,0,0,0,0,0,0,0,-1,1896,1527,0,0
679,-503,0,0,0,0,0,0,0,0,0,-1,1903,1527,0,0
686,-503,0,0,0,0,0,0,0,0,0,-1,1910,1527,0,0
693,-503,0,0,0,0,0,0,0,0,0,-1,1917,1527,0,0
700,-503,0,0,0,0,0,0,0,0,0,-1,1924,1527,0,0
707,-503,0,0,0,0,0,0,0,0,0,-1,1931,1527,0,0
714,-503,0,0,0,0,0,0,0,0,0,-1,1938,1527,0,0
721,-503,0,0,0,0,0,0,0,0,0,-1,1945,1527,0,0
728,-503,0,0,0,0,0,0,0,0,0,-1,1952,1527,0,0
735,-503,0,0,0,0,0,0,0,0,0,-1,1959,1527,0,0
742,-503,0,0,0,0,0,0,0,0,0,-1,1966,1527,0,0
749,-503,0,0,0,0,0,0,0,0,0,-1,1973,1527,0,0
756,-503,0,0,0,0,0,0,0,0,0,-1,1980,1527,0,0
763,-503,0,0,0,0,0,0,0,0,0,-1,1987,1527,0,0
770,-503,0,0,0,0,0,0,0,0,0,-1,1994,1527,0,0
777,-503,0,0,0,0,0,0,0,0,0,-1,2001,1527,0,0
784,-503,0,0,0,0,0,0,0,0,0,-1,2008,1527,0,0
791,-503,0,0,0,0,0,0,0,0,0,-1,2015,1527,0,0
798,-503,0,0,0,0,0,0,0,0,0,-1,2022,1527,0,0
805,-503,0,0,0,0,0,0,0,0,0,-1,2029,1527,0,0
812,-503,0,0,0,0,0,0,0,0,0,-1,2036,1527,0,0
-700,-510,0,0,0,0,0,0,0,0,0,-1,524,1534,0,0
-693,-510,0,0,0,0,0,0,0,0,0,-1,531,1534,0,0
-686,-510,0,0,0,0,0,0,0,0,0,-1,538,1534,0,0
-679,-510,0,0,0,0,0,0,0,0,0,-1,545,1534,0,0
-672,-510,0,0,0,0,0,0,0,0,0,-1,552,1534,0,0
-665,-510,0,0,0,0,0,0,0,0,0,-1,559,1534,0,0
-658,-510,0,0,0,0,0,0,0,0,0,-1,566,1534,0,0
-651,-510,0,0,0,0,0,0,0,0,0,-1,573,1534,0,0
-644,-510,0,0,0,0,0,0,0,0,0,-1,580,1534,0,0
-637,-510,0,0,0,0,0,0,0,0,0,-1,587,1534,0,0
-630,-510,0,0,0,0,0,0,0,0,0,-1,594,1534,0,0
-623,-510,0,0,0,0,0,0,0,0,0,-1,601,1534,0,0
-616,-510,0,0,0,0,0,0,0,0,0,-1,608,1534,0,0
-609,-510,0,0,0,0,0,0,0,0,0,-1,615,1534,0,0
-602,-510,0,0,0,0,0,0,0,0,0,-1,622,1534,0,0
-595,-510,0,0,0,0,0,0,0,0,0,-1,629,1534,0,0
-588,-510,0,0,0,0,0,0,0,0,0,-1,636,1534,0,0
-581,-510,0,0,0,0,0,0,0,0,0,-1,643,1534,0,0
-574,-510,0,0,0,0,0,0,0,0,0,-1,650,1534,0,0
-567,-510,0,0,0,0,0,0,0,0,0,-1,657,1534,0,0
-560,-510,0,0,0,0,0,0,0,0,0,-1,664,1534,0,0
-553,-510,0,0,0,0,0,0,0,0,0,-1,671,1534,0,0
-546,-510,0,0,0,0,0,0,0,0,0,-1,678,1534,0,0
-539,-510,0,0,0,0,0,0,0,0,0,-1,685,1534,0,0
-532,-510,-2.71765,4.32166,0,0,0,0,0,0,0,-1,692,1534,-2.71767,-4.32166
-525,-510,-0.229919,5.12317,0,0,0,0,0,0,0,-1,699,1534,-0.229935,-5.12319
-518,-510,0.241699,4.42041,0.0139518,0.060906,-0.0500237,0.0926878,-0.01783,-1.0048,0.068513,0.0484269,706,1534,0.2417,-4.42043
-511,-510,-1.09338,3.5979,0.0112011,0.059435,-0.035278,0.0780517,-0.00741556,-1.08522,0.0546742,0.0484655,713,1534,-1.09336,-3.59792
-504,-510,-0.766235,4.08289,0.00848909,0.0566391,-0.0242087,0.0667059,-0.00157775,-1.17671,0.0450057,0.0479944,720,1534,-0.766258,-4.08285
-497,-510,-0.0109253,4.48206,0,0,0,0,0,0,0,-1,727,1534,-0.0109142,-4.482
-490,-510,-0.0491333,4.87585,0.00365404,0.0474215,-0.0100884,0.0496349,0.00144059,-1.35481,0.0326203,0.0453932,734,1534,-0.0491598,-4.87581
-483,-510,-0.361572,5.11194,0.00146223,0.0425589,-0.00596736,0.0434079,0.000613283,-1.42948,0.0287363,0.0408803,741,1534,-0.36156,-5.1119
-476,-510,-0.549561,5.39709,-0.000101456,0.0365135,-0.00278686,0.0367244,-0.000312356,-1.49526,0.0245877,0.0261181,748,1534,-0.549571,-5.3971
-469,-510,-0.67218,5.63879,-0.000913069,0.0302162,-0.000832323,0.0302384,-0.000935307,-1.54408,0.0204779,0.0105175,755,1534,-0.672208,-5.63883
-462,-510,-0.664246,5.87,-0.000726534,0.0243025,0.000682096,0.024321,-0.000745108,1.54357,0.016468,0.0114269,762,1534,-0.664265,-5.86996
-455,-510,-0.674255,6.11267,-0.000606351,0.0181933,0.000641694,0.0182152,-0.000628228,1.53672,0.0123582,0.0140543,769,1534,-0.674257,-6.11269
-448,-510,-0.653198,6.34094,-0.000469989,0.0128746,0.000377516,0.0128853,-0.00048066,1.54254,0.00875482,0.0132941,776,1534,-0.65322,-6.3409
-441,-510,-0.647522,6.53296,8.64399e-06,0.00828916,0.00027929,0.00829857,-7.66013e-07,1.53712,0.00553264,0.0140791,783,1534,-0.647493,-6.53301
-434,-510,-0.67926,6.73303,0.00013488,0.00493949,0.000215988,0.00494918,0.00012519,1.52596,0.00325853,0.0147898,790,1534,-0.679275,-6.73301
-427,-510,-0.681213,6.94543,0.000870144,0.00212239,0.00017896,0.00214746,0.000845071,1.4316,0.00124917,0.0217703,797,1534,-0.681204,-6.94549
-420,-510,-0.67572,7.17834,0.00162358,2.92333e-05,0.000411617,0.00172357,-7.07635e-05,0.23832,0.00117335,0.0205668,804,1534,-0.675699,-7.17838
-413,-510,-0.676758,7.43433,0.00176136,-0.000840378,0.00042642,0.00182946,-0.000908485,0.15838,0.00161029,0.0108437,811,1534,-0.676747,-7.43436
-406,-510,-0.674927,7.63196,0.00184523,-0.000855026,0.00044364,0.00191625,-0.000926046,0.158738,0.00167387,0.0104625,818,1534,-0.67493,-7.6319
-399,-510,-0.66333,7.83521,0.00198163,-0.000646969,0.000551132,0.00209251,-0.000757846,0.198531,0.00170473,0.0115582,825,1534,-0.663315,-7.83515
-392,-510,-0.579956,8.12585,0.00220803,-0.000153086,0.000785117,0.00244526,-0.000390317,0.293437,0.00177465,0.0210488,832,1534,-0.579976,-8.12588
-385,-510,-0.5896,8.28174,0.00257041,0.000837929,0.00146475,0.00340589,2.44915e-06,0.518365,0.00226978,0.0341464,839,1534,-0.589594,-8.28174
-378,-510,-0.569763,8.15662,0.0026177,0.00324705,0.00280256,0.00575254,0.000112212,0.841305,0.00379818,0.0372388,846,1534,-0.569734,-8.15663
-371,-510,-0.386475,8.26111,0.00246412,0.00906884,0.00480872,0.0116,-6.69924e-05,1.08628,0.00775573,0.0438731,853,1534,-0.386498,-8.26107
-364,-510,-0.0319214,8.32166,0,0,0,0,0,0,0,-1,860,1534,-0.0319496,-8.32162
-357,-510,-0.111511,7.69397,0,0,0,0,0,0,0,-1,867,1534,-0.111523,-7.69391
-350,-510,0.471191,6.06458,0,0,0,0,0,0,0,-1,874,1534,0.47118,-6.06453
-343,-510,-2.94617,5.00989,0,0,0,0,0,0,0,-1,881,1534,-2.94615,-5.00992
-336,-510,-2.50793,6.76257,0,0,0,0,0,0,0,-1,888,1534,-2.50794,-6.76253
-329,-510,-2.10583,8.51733,0,0,0,0,0,0,0,-1,895,1534,-2.10582,-8.51739
-322,-510,-1.45605,10.2574,0,0,0,0,0,0,0,-1,902,1534,-1.45608,-10.2574
-315,-510,-1.73047,10.9796,0,0,0,0,0,0,0,-1,909,1534,-1.73049,-10.9796
-308,-510,-2.98779,7.09631,0,0,0,0,0,0,0,-1,916,1534,-2.98781,-7.09636
-301,-510,-3.17023,10.2111,0,0,0,0,0,0,0,-1,923,1534,-3.17023,-10.2111
-294,-510,0,0,0,0,0,0,0,0,0,-1,930,1534,0,0
-287,-510,0,0,0,0,0,0,0,0,0,-1,937,1534,0,0
-280,-510,0,0,0,0,0,0,0,0,0,-1,944,1534,0,0
-273,-510,0,0,0,0,0,0,0,0,0,-1,951,1534,0,0
-266,-510,0,0,0,0,0,0,0,0,0,-1,958,1534,0,0
-259,-510,0,0,0,0,0,0,0,0,0,-1,965,1534,0,0
-252,-510,0,0,0,0,0,0,0,0,0,-1,972,1534,0,0
-245,-510,0,0,0,0,0,0,0,0,0,-1,979,1534,0,0
-238,-510,0,0,0,0,0,0,0,0,0,-1,986,1534,0,0
-231,-510,0,0,0,0,0,0,0,0,0,-1,993,1534,0,0
-224,-510,0,0,0,0,0,0,0,0,0,-1,1000,1534,0,0
-217,-510,0,0,0,0,0,0,0,0,0,-1,1007,1534,0,0
-210,-510,0,0,0,0,0,0,0,0,0,-1,1014,1534,0,0
-203,-510,0,0,0,0,0,0,0,0,0,-1,1021,1534,0,0
-196,-510,0,0,0,0,0,0,0,0,0,-1,1028,1534,0,0
-189,-510,0,0,0,0,0,0,0,0,0,-1,1035,1534,0,0
-182,-510,0,0,0,0,0,0,0,0,0,-1,1042,1534,0,0
-175,-510,0,0,0,0,0,0,0,0,0,-1,1049,1534,0,0
-168,-510,0,0,0,0,0,0,0,0,0,-1,1056,1534,0,0
-161,-510,0,0,0,0,0,0,0,0,0,-1,1063,1534,0,0
-154,-510,0,0,0,0,0,0,0,0,0,-1,1070,1534,0,0
-147,-510,0,0,0,0,0,0,0,0,0,-1,1077,1534,0,0
-140,-510,0,0,0,0,0,0,0,0,0,-1,1084,1534,0,0
-133,-510,0,0,0,0,0,0,0,0,0,-1,1091,1534,0,0
-126,-510,0,0,0,0,0,0,0,0,0,-1,1098,1534,0,0
-119,-510,0,0,0,0,0,0,0,0,0,-1,1105,1534,0,0
-112,-510,0,0,0,0,0,0,0,0,0,-1,1112,1534,0,0
-105,-510,0,0,0,0,0,0,0,0,0,-1,1119,1534,0,0
-98,-510,0,0,0,0,0,0,0,0,0,-1,1126,1534,0,0
-91,-510,0,0,0,0,0,0,0,0,0,-1,1133,1534,0,0
-84,-510,0,0,0,0,0,0,0,0,0,-1,1140,1534,0,0
-77,-510,0,0,0,0,0,0,0,0,0,-1,1147,1534,0,0
-70,-510,0,0,0,0,0,0,0,0,0,-1,1154,1534,0,0
-63,-510,0,0,0,0,0,0,0,0,0,-1,1161,1534,0,0
-56,-510,0,0,0,0,0,0,0,0,0,-1,1168,1534,0,0
-49,-510,0,0,0,0,0,0,0,0,0,-1,1175,1534,0,0
-42,-510,0,0,0,0,0,0,0,0,0,-1,1182,1534,0,0
-35,-510,0,0,0,0,0,0,0,0,0,-1,1189,1534,0,0
-28,-510,0,0,0,0,0,0,0,0,0,-1,1196,1534,0,0
-21,-510,0,0,0,0,0,0,0,0,0,-1,1203,1534,0,0
-14,-510,0,0,0,0,0,0,0,0,0,-1,1210,1534,0,0
-7,-510,0,0,0,0,0,0,0,0,0,-1,1217,1534,0,0
0,-510,0,0,0,0,0,0,0,0,0,-1,1224,1534,0,0
7,-510,0,0,0,0,0,0,0,0,0,-1,1231,1534,0,0
14,-510,0,0,0,0,0,0,0,0,0,-1,1238,1534,0,0
21,-510,0,0,0,0,0,0,0,0,0,-1,1245,1534,0,0
28,-510,0,0,0,0,0,0,0,0,0,-1,1252,1534,0,0
35,-510,0,0,0,0,0,0,0,0,0,-1,1259,1534,0,0
42,-510,0,0,0,0,0,0,0,0,0,-1,1266,1534,0,0
49,-510,0,0,0,0,0,0,0,0,0,-1,1273,1534,0,0
56,-510,0,0,0,0,0,0,0,0,0,-1,1280,1534,0,0
63,-510,0,0,0,0,0,0,0,0,0,-1,1287,1534,0,0
70,-510,0,0,0,0,0,0,0,0,0,-1,1294,1534,0,0
77,-510,0,0,0,0,0,0,0,0,0,-1,1301,1534,0,0
84,-510,0,0,0,0,0,0,0,0,0,-1,1308,1534,0,0
91,-510,0,0,0,0,0,0,0,0,0,-1,1315,1534,0,0
98,-510,0,0,0,0,0,0,0,0,0,-1,1322,1534,0,0
105,-510,0,0,0,0,0,0,0,0,0,-1,1329,1534,0,0
112,-510,0,0,0,0,0,0,0,0,0,-1,1336,1534,0,0
119,-510,0,0,0,0,0,0,0,0,0,-1,1343,1534,0,0
126,-510,0,0,0,0,0,0,0,0,0,-1,1350,1534,0,0
133,-510,0,0,0,0,0,0,0,0,0,-1,1357,1534,0,0
140,-510,0,0,0,0,0,0,0,0,0,-1,1364,1534,0,0
147,-510,0,0,0,0,0,0,0,0,0,-1,1371,1534,0,0
154,-510,0,0,0,0,0,0,0,0,0,-1,1378,1534,0,0
161,-510,0,0,0,0,0,0,0,0,0,-1,1385,1534,0,0
168,-510,0,0,0,0,0,0,0,0,0,-1,1392,1534,0,0
175,-510,0,0,0,0,0,0,0,0,0,-1,1399,1534,0,0
182,-510,0,0,0,0,0,0,0,0,0,-1,1406,1534,0,0
189,-510,0,0,0,0,0,0,0,0,0,-1,1413,1534,0,0
196,-510,0,0,0,0,0,0,0,0,0,-1,1420,1534,0,0
203,-510,0,0,0,0,0,0,0,0,0,-1,1427,1534,0,0
210,-510,0,0,0,0,0,0,0,0,0,-1,1434,1534,0,0
217,-510,0,0,0,0,0,0,0,0,0,-1,1441,1534,0,0
224,-510,0,0,0,0,0,0,0,0,0,-1,1448,1534,0,0
231,-510,0,0,0,0,0,0,0,0,0,-1,1455,1534,0,0
238,-510,0,0,0,0,0,0,0,0,0,-1,1462,1534,0,0
245,-510,0,0,0,0,0,0,0,0,0,-1,1469,1534,0,0
252,-510,0,0,0,0,0,0,0,0,0,-1,1476,1534,0,0
259,-510,0,0,0,0,0,0,0,0,0,-1,1483,1534,0,0
266,-510,0,0,0,0,0,0,0,0,0,-1,1490,1534,0,0
273,-510,0,0,0,0,0,0,0,0,0,-1,1497,1534,0,0
280,-510,0,0,0,0,0,0,0,0,0,-1,1504,1534,0,0
287,-510,0,0,0,0,0,0,0,0,0,-1,1511,1534,0,0
294,-510,0,0,0,0,0,0,0,0,0,-1,1518,1534,0,0
301,-510,0,0,0,0,0,0,0,0,0,-1,1525,1534,0,0
308,-510,0,0,0,0,0,0,0,0,0,-1,1532,1534,0,0
315,-510,0,0,0,0,0,0,0,0,0,-1,1539,1534,0,0
322,-510,0,0,0,0,0,0,0,0,0,-1,1546,1534,0,0
329,-510,0,0,0,0,0,0,0,0,0,-1,1553,1534,0,0
336,-510,0,0,0,0,0,0,0,0,0,-1,1560,1534,0,0
343,-510,0,0,0,0,0,0,0,0,0,-1,1567,1534,0,0
350,-510,0,0,0,0,0,0,0,0,0,-1,1574,1534,0,0
357,-510,0,0,0,0,0,0,0,0,0,-1,1581,1534,0,0
364,-510,0,0,0,0,0,0,0,0,0,-1,1588,1534,0,0
371,-510,0,0,0,0,0,0,0,0,0,-1,1595,1534,0,0
378,-510,0,0,0,0,0,0,0,0,0,-1,1602,1534,0,0
385,-510,0,0,0,0,0,0,0,0,0,-1,1609,1534,0,0
392,-510,0,0,0,0,0,0,0,0,0,-1,1616,1534,0,0
399,-510,0,0,0,0,0,0,0,0,0,-1,1623,1534,0,0
406,-510,0,0,0,0,0,0,0,0,0,-1,1630,1534,0,0
413,-510,0,0,0,0,0,0,0,0,0,-1,1637,1534,0,0
420,-510,13.1918,5.99402,0,0,0,0,0,0,0,-1,1644,1534,13.1917,-5.994
427,-510,10.9799,5.12341,0,0,0,0,0,0,0,-1,1651,1534,10.9798,-5.12337
434,-510,11.8219,4.07898,0,0,0,0,0,0,0,-1,1658,1534,11.8219,-4.07895
441,-510,12.6812,3.02991,0,0,0,0,0,0,0,-1,1665,1534,12.6811,-3.0299
448,-510,13.2379,2.2804,0,0,0,0,0,0,0,-1,1672,1534,13.2379,-2.28037
455,-510,9.76892,2.20642,0,0,0,0,0,0,0,-1,1679,1534,9.76894,-2.20647
462,-510,9.84692,2.49182,0,0,0,0,0,0,0,-1,1686,1534,9.84695,-2.49185
469,-510,9.99475,2.57556,0,0,0,0,0,0,0,-1,1693,1534,9.99477,-2.57556
476,-510,8.62915,3.32227,0,0,0,0,0,0,0,-1,1700,1534,8.6291,-3.32231
483,-510,9.56104,7.37146,0,0,0,0,0,0,0,-1,1707,1534,9.56099,-7.37142
490,-510,9.49402,8.00452,0,0,0,0,0,0,0,-1,1714,1534,9.49407,-8.00449
497,-510,9.47888,8.70386,0,0,0,0,0,0,0,-1,1721,1534,9.47882,-8.70385
504,-510,10.4149,9.35388,-0.0547435,-0.024586,0.0318786,-0.00439982,-0.0749297,1.00631,0.048553,0.0395532,1728,1534,10.4149,-9.35383
511,-510,9.84045,9.33606,-0.0458292,-0.021116,0.0252426,-0.00536793,-0.0615773,1.01301,0.0393844,0.0374389,1735,1534,9.84043,-9.33606
518,-510,9.43213,9.50244,-0.0375785,-0.0174119,0.0197332,-0.005335,-0.0496554,1.0216,0.0314763,0.0327176,1742,1534,9.43211,-9.50244
525,-510,9.22595,9.43042,-0.0297672,-0.0142798,0.0151878,-0.00497547,-0.0390715,1.02115,0.0245578,0.0178133,1749,1534,9.22597,-9.43039
532,-510,9.18188,9.22681,-0.0226904,-0.0115883,0.0116071,-0.00427319,-0.0300056,1.00845,0.0187424,0.0127285,1756,1534,9.18184,-9.22681
539,-510,9.16394,9.02637,-0.0166604,-0.00885946,0.00851893,-0.00339051,-0.0221293,1.00008,0.0137626,0.013487,1763,1534,9.16395,-9.02634
546,-510,9.14478,8.85474,-0.0117852,-0.00713408,0.00579613,-0.00321436,-0.0157049,0.976178,0.00957994,0.0120729,1770,1534,9.14482,-8.85477
553,-510,9.15881,8.64539,-0.00789493,-0.00457181,0.00389906,-0.00199503,-0.0104717,0.986818,0.00642029,0.012021,1777,1534,9.15879,-8.64542
560,-510,9.15588,8.4325,-0.00447427,-0.00201178,0.00204752,-0.000853821,-0.00563223,1.0561,0.00350505,0.0120272,1784,1534,9.15586,-8.43254
567,-510,9.16553,8.24805,-0.00189167,0.000183169,0.000498843,0.000296872,-0.00200538,1.34669,0.00144607,0.0121816,1791,1534,9.16554,-8.24809
574,-510,9.18103,8.05237,-0.000309802,0.00207508,-0.000753281,0.00229308,-0.000527804,-1.28909,0.00173168,0.01367,1798,1534,9.18099,-8.05238
581,-510,9.14758,7.8739,8.85669e-05,0.00392981,-0.00158228,0.00449764,-0.000479264,-1.22624,0.00317028,0.0115228,1805,1534,9.14759,-7.87389
588,-510,9.14099,7.69312,9.43232e-05,0.00568397,-0.00232608,0.00652531,-0.000747018,-1.22374,0.00461939,0.0120725,1812,1534,9.14095,-7.69312
595,-510,9.21033,7.45386,-0.000288362,0.00755656,-0.00288029,0.0085005,-0.0012323,-1.25411,0.00611926,0.0121426,1819,1534,9.21027,-7.45382
602,-510,9.19739,7.22803,-0.000805187,0.00933977,-0.00325557,0.0102946,-0.00176004,-1.2855,0.00751874,0.0196954,1826,1534,9.19741,-7.22808
609,-510,9.17932,7.07849,-0.00111315,0.010949,-0.00348456,0.0118833,-0.00204742,-1.30884,0.00868546,0.028138,1833,1534,9.17937,-7.07855
616,-510,9.05762,6.76892,-0.00172566,0.0125977,-0.00334423,0.0133401,-0.002468,-1.35236,0.00981998,0.0406614,1840,1534,9.05761,-6.7689
623,-510,8.99292,6.4845,0,0,0,0,0,0,0,-1,1847,1534,8.99297,-6.48449
630,-510,9.0625,5.82507,0,0,0,0,0,0,0,-1,1854,1534,9.06249,-5.82505
637,-510,10.1851,4.96948,0,0,0,0,0,0,0,-1,1861,1534,10.185,-4.96944
644,-510,11.2485,3.88904,0,0,0,0,0,0,0,-1,1868,1534,11.2486,-3.88899
651,-510,11.5236,2.09265,0,0,0,0,0,0,0,-1,1875,1534,11.5235,-2.09265
658,-510,0,0,0,0,0,0,0,0,0,-1,1882,1534,0,0
665,-510,0,0,0,0,0,0,0,0,0,-1,1889,1534,0,0
672,-510,0,0,0,0,0,0,0,0,0,-1,1896,1534,0,0
679,-510,0,0,0,0,0,0,0,0,0,-1,1903,1534,0,0
686,-510,0,0,0,0,0,0,0,0,0,-1,1910,1534,0,0
693,-510,0,0,0,0,0,0,0,0,0,-1,1917,1534,0,0
700,-510,0,0,0,0,0,0,0,0,0,-1,1924,1534,0,0
707,-510,0,0,0,0,0,0,0,0,0,-1,1931,1534,0,0
714,-510,0,0,0,0,0,0,0,0,0,-1,1938,1534,0,0
721,-510,0,0,0,0,0,0,0,0,0,-1,1945,1534,0,0
728,-510,0,0,0,0,0,0,0,0,0,-1,1952,1534,0,0
735,-510,0,0,0,0,0,0,0,0,0,-1,1959,1534,0,0
742,-510,0,0,0,0,0,0,0,0,0,-1,1966,1534,0,0
749,-510,0,0,0,0,0,0,0,0,0,-1,1973,1534,0,0
756,-510,0,0,0,0,0,0,0,0,0,-1,1980,1534,0,0
763,-510,0,0,0,0,0,0,0,0,0,-1,1987,1534,0,0
770,-510,0,0,0,0,0,0,0,0,0,-1,1994,1534,0,0
777,-510,0,0,0,0,0,0,0,0,0,-1,2001,1534,0,0
784,-510,0,0,0,0,0,0,0,0,0,-1,2008,1534,0,0
791,-510,0,0,0,0,0,0,0,0,0,-1,2015,1534,0,0
798,-510,0,0,0,0,0,0,0,0,0,-1,2022,1534,0,0
805,-510,0,0,0,0,0,0,0,0,0,-1,2029,1534,0,0
812,-510,0,0,0,0,0,0,0,0,0,-1,2036,1534,0,0
-700,-517,0,0,0,0,0,0,0,0,0,-1,524,1541,0,0
-693,-517,0,0,0,0,0,0,0,0,0,-1,531,1541,0,0
-686,-517,0,0,0,0,0,0,0,0,0,-1,538,1541,0,0
-679,-517,0,0,0,0,0,0,0,0,0,-1,545,1541,0,0
-672,-517,0,0,0,0,0,0,0,0,0,-1,552,1541,0,0
-665,-517,0,0,0,0,0,0,0,0,0,-1,559,1541,0,0
-658,-517,0,0,0,0,0,0,0,0,0,-1,566,1541,0,0
-651,-517,0,0,0,0,0,0,0,0,0,-1,573,1541,0,0
-644,-517,0,0,0,0,0,0,0,0,0,-1,580,1541,0,0
-637,-517,0,0,0,0,0,0,0,0,0,-1,587,1541,0,0
-630,-517,0,0,0,0,0,0,0,0,0,-1,594,1541,0,0
-623,-517,0,0,0,0,0,0,0,0,0,-1,601,1541,0,0
-616,-517,0,0,0,0,0,0,0,0,0,-1,608,1541,0,0
-609,-517,0,0,0,0,0,0,0,0,0,-1,615,1541,0,0
-602,-517,0,0,0,0,0,0,0,0,0,-1,622,1541,0,0
-595,-517,0,0,0,0,0,0,0,0,0,-1,629,1541,0,0
-588,-517,0,0,0,0,0,0,0,0,0,-1,636,1541,0,0
-581,-517,0,0,0,0,0,0,0,0,0,-1,643,1541,0,0
-574,-517,0,0,0,0,0,0,0,0,0,-1,650,1541,0,0
-567,-517,0,0,0,0,0,0,0,0,0,-1,657,1541,0,0
-560,-517,0,0,0,0,0,0,0,0,0,-1,664,1541,0,0
-553,-517,0,0,0,0,0,0,0,0,0,-1,671,1541,0,0
-546,-517,0,0,0,0,0,0,0,0,0,-1,678,1541,0,0
-539,-517,0,0,0,0,0,0,0,0,0,-1,685,1541,0,0
-532,-517,0,0,0,0,0,0,0,0,0,-1,692,1541,0,0
-525,-517,0.369202,5.1333,0,0,0,0,0,0,0,-1,699,1541,0.369197,-5.13336
-518,-517,0.865234,4.30237,0,0,0,0,0,0,0,-1,706,1541,0.86524,-4.30237
-511,-517,1.36127,3.47131,0,0,0,0,0,0,0,-1,713,1541,1.36128,-3.47137
-504,-517,-0.560059,4.17358,0,0,0,0,0,0,0,-1,720,1541,-0.560075,-4.17353
-497,-517,-0.142151,3.96729,0,0,0,0,0,0,0,-1,727,1541,-0.142168,-3.96728
-490,-517,-0.0933838,4.6842,-0.00139694,0.0792389,-0.00159396,0.0792703,-0.00142844,-1.55104,0.0533294,0.0438159,734,1541,-0.0933765,-4.68417
-483,-517,-0.236511,5.10364,-0.00270247,0.0703508,0.00170829,0.0703908,-0.00274239,1.54743,0.0478675,0.0430185,741,1541,-0.236525,-5.10369
-476,-517,-0.323303,5.37476,-0.00357546,0.0605001,0.00394096,0.0607416,-0.00381694,1.5096,0.0418248,0.0333504,748,1541,-0.323292,-5.37471
-469,-517,-0.434082,5.6217,-0.00384755,0.0505922,0.00493088,0.0510352,-0.00429056,1.48119,0.0355401,0.013498,755,1541,-0.434053,-5.62172
-462,-517,-0.4646,5.86316,-0.00317574,0.0413789,0.0055415,0.0420578,-0.00385462,1.4489,0.0294078,0.0135456,762,1541,-0.464581,-5.86315
-455,-517,-0.451233,6.12317,-0.00268995,0.032073,0.00458989,0.0326688,-0.00328575,1.44171,0.022953,0.0133457,769,1541,-0.451233,-6.12318
-448,-517,-0.437561,6.35181,-0.00226545,0.0238473,0.00346233,0.0242986,-0.00271672,1.44119,0.0171764,0.0132021,776,1541,-0.437531,-6.35182
-441,-517,-0.449524,6.54944,-0.00151562,0.0166486,0.00255687,0.0170017,-0.00186867,1.43358,0.0120059,0.0114172,783,1541,-0.449501,-6.54942
-434,-517,-0.452087,6.75427,-0.00120532,0.0110792,0.00179999,0.0113376,-0.00146363,1.42826,0.00809049,0.0138132,790,1541,-0.452106,-6.75428
-427,-517,-0.439148,6.95996,-0.000246093,0.00639802,0.00115454,0.00659293,-0.000440999,1.40356,0.00454942,0.0133501,797,1541,-0.43914,-6.96
-420,-517,-0.440674,7.20593,0.000768861,0.00234542,0.0009484,0.00279037,0.000323914,1.13213,0.00176223,0.018972,804,1541,-0.440663,-7.20599
-413,-517,-0.46405,7.42651,0.00108477,0.000335763,0.000613642,0.00142916,-8.6283e-06,0.51142,0.000955663,0.0102635,811,1541,-0.464052,-7.42656
-406,-517,-0.460266,7.63171,0.00135053,-0.000256057,0.000328245,0.001415,-0.000320534,0.19396,0.00106636,0.0102876,818,1541,-0.460244,-7.6317
-399,-517,-0.441772,7.84937,0.0016112,-0.000356874,0.000330686,0.00166527,-0.000410951,0.162097,0.00126953,0.01039,825,1541,-0.441763,-7.84933
-392,-517,-0.437866,8.06787,0.0020027,-0.000284083,0.000452276,0.0020889,-0.000370284,0.188335,0.00153103,0.0120768,832,1541,-0.437872,-8.06788
-385,-517,-0.380798,8.37695,0.00254146,0.000245497,0.000990706,0.00290984,-0.000122886,0.355996,0.00198213,0.0185971,839,1541,-0.380822,-8.37692
-378,-517,-0.392151,8.42358,0.0027713,0.00202938,0.00212546,0.00455793,0.000242749,0.699003,0.00296102,0.0344056,846,1541,-0.392157,-8.42356
-371,-517,-0.258179,8.18799,0.00277456,0.00675493,0.00379986,0.00905423,0.00047525,1.02663,0.00588414,0.0422718,853,1541,-0.258207,-8.18804
-364,-517,-0.471619,8.58521,0.00286236,0.0116786,0.00598367,0.0147025,-0.000161604,1.10286,0.009856,0.0484027,860,1541,-0.471602,-8.58518
-357,-517,-0.440063,8.88342,0,0,0,0,0,0,0,-1,867,1541,-0.440072,-8.88348
-350,-517,0.501709,8.19543,0,0,0,0,0,0,0,-1,874,1541,0.501714,-8.19542
-343,-517,-2.56708,6.12415,0,0,0,0,0,0,0,-1,881,1541,-2.56708,-6.12418
-336,-517,-1.81256,7.39868,0,0,0,0,0,0,0,-1,888,1541,-1.81255,-7.39862
-329,-517,-0.370361,8.6095,0,0,0,0,0,0,0,-1,895,1541,-0.370333,-8.60947
-322,-517,-0.924377,9.64771,0,0,0,0,0,0,0,-1,902,1541,-0.924405,-9.64767
-315,-517,-0.99823,10.0765,0,0,0,0,0,0,0,-1,909,1541,-0.998229,-10.0766
-308,-517,-0.906128,10.2517,0,0,0,0,0,0,0,-1,916,1541,-0.906148,-10.2517
-301,-517,-1.26471,9.76477,0,0,0,0,0,0,0,-1,923,1541,-1.2647,-9.76474
-294,-517,-0.821411,10.1919,0,0,0,0,0,0,0,-1,930,1541,-0.821419,-10.1919
-287,-517,-0.212158,3.43335,0,0,0,0,0,0,0,-1,937,1541,-0.212159,-3.43334
-280,-517,0,0,0,0,0,0,0,0,0,-1,944,1541,0,0
-273,-517,0,0,0,0,0,0,0,0,0,-1,951,1541,0,0
-266,-517,0,0,0,0,0,0,0,0,0,-1,958,1541,0,0
-259,-517,0,0,0,0,0,0,0,0,0,-1,965,1541,0,0
-252,-517,0,0,0,0,0,0,0,0,0,-1,972,1541,0,0
-245,-517,0,0,0,0,0,0,0,0,0,-1,979,1541,0,0
-238,-517,0,0,0,0,0,0,0,0,0,-1,986,1541,0,0
-231,-517,0,0,0,0,0,0,0,0,0,-1,993,1541,0,0
-224,-517,0,0,0,0,0,0,0,0,0,-1,1000,1541,0,0
-217,-517,0,0,0,0,0,0,0,0,0,-1,1007,1541,0,0
-210,-517,0,0,0,0,0,0,0,0,0,-1,1014,1541,0,0
-203,-517,0,0,0,0,0,0,0,0,0,-1,1021,1541,0,0
-196,-517,0,0,0,0,0,0,0,0,0,-1,1028,1541,0,0
-189,-517,0,0,0,0,0,0,0,0,0,-1,1035,1541,0,0
-182,-517,0,0,0,0,0,0,0,0,0,-1,1042,1541,0,0
-175,-517,0,0,0,0,0,0,0,0,0,-1,1049,1541,0,0
-168,-517,0,0,0,0,0,0,0,0,0,-1,1056,1541,0,0
-161,-517,0,0,0,0,0,0,0,0,0,-1,1063,1541,0,0
-154,-517,0,0,0,0,0,0,0,0,0,-1,1070,1541,0,0
-147,-517,0,0,0,0,0,0,0,0,0,-1,1077,1541,0,0
-140,-517,0,0,0,0,0,0,0,0,0,-1,1084,1541,0,0
-133,-517,0,0,0,0,0,0,0,0,0,-1,1091,1541,0,0
-126,-517,0,0,0,0,0,0,0,0,0,-1,1098,1541,0,0
-119,-517,0,0,0,0,0,0,0,0,0,-1,1105,1541,0,0
-112,-517,0,0,0,0,0,0,0,0,0,-1,1112,1541,0,0
-105,-517,0,0,0,0,0,0,0,0,0,-1,1119,1541,0,0
-98,-517,0,0,0,0,0,0,0,0,0,-1,1126,1541,0,0
-91,-517,0,0,0,0,0,0,0,0,0,-1,1133,1541,0,0
-84,-517,0,0,0,0,0,0,0,0,0,-1,1140,1541,0,0
-77,-517,0,0,0,0,0,0,0,0,0,-1,1147,1541,0,0
-70,-517,0,0,0,0,0,0,0,0,0,-1,1154,1541,0,0
-63,-517,0,0,0,0,0,0,0,0,0,-1,1161,1541,0,0
-56,-517,0,0,0,0,0,0,0,0,0,-1,1168,1541,0,0
-49,-517,0,0,0,0,0,0,0,0,0,-1,1175,1541,0,0
-42,-517,0,0,0,0,0,0,0,0,0,-1,1182,1541,0,0
-35,-517,0,0,0,0,0,0,0,0,0,-1,1189,1541,0,0
-28,-517,0,0,0,0,0,0,0,0,0,-1,1196,1541,0,0
-21,-517,0,0,0,0,0,0,0,0,0,-1,1203,1541,0,0
-14,-517,0,0,0,0,0,0,0,0,0,-1,1210,1541,0,0
-7,-517,0,0,0,0,0,0,0,0,0,-1,1217,1541,0,0
0,-517,0,0,0,0,0,0,0,0,0,-1,1224,1541,0,0
7,-517,0,0,0,0,0,0,0,0,0,-1,1231,1541,0,0
14,-517,0,0,0,0,0,0,0,0,0,-1,1238,1541,0,0
21,-517,0,0,0,0,0,0,0,0,0,-1,1245,1541,0,0
28,-517,0,0,0,0,0,0,0,0,0,-1,1252,1541,0,0
35,-517,0,0,0,0,0,0,0,0,0,-1,1259,1541,0,0
42,-517,0,0,0,0,0,0,0,0,0,-1,1266,1541,0,0
49,-517,0,0,0,0,0,0,0,0,0,-1,1273,1541,0,0
56,-517,0,0,0,0,0,0,0,0,0,-1,1280,1541,0,0
63,-517,0,0,0,0,0,0,0,0,0,-1,1287,1541,0,0
70,-517,0,0,0,0,0,0,0,0,0,-1,1294,1541,0,0
77,-517,0,0,0,0,0,0,0,0,0,-1,1301,1541,0,0
84,-517,0,0,0,0,0,0,0,0,0,-1,1308,1541,0,0
91,-517,0,0,0,0,0,0,0,0,0,-1,1315,1541,0,0
98,-517,0,0,0,0,0,0,0,0,0,-1,1322,1541,0,0
105,-517,0,0,0,0,0,0,0,0,0,-1,1329,1541,0,0
112,-517,0,0,0,0,0,0,0,0,0,-1,1336,1541,0,0
119,-517,0,0,0,0,0,0,0,0,0,-1,1343,1541,0,0
126,-517,0,0,0,0,0,0,0,0,0,-1,1350,1541,0,0
133,-517,0,0,0,0,0,0,0,0,0,-1,1357,1541,0,0
140,-517,0,0,0,0,0,0,0,0,0,-1,1364,1541,0,0
147,-517,0,0,0,0,0,0,0,0,0,-1,1371,1541,0,0
154,-517,0,0,0,0,0,0,0,0,0,-1,1378,1541,0,0
161,-517,0,0,0,0,0,0,0,0,0,-1,1385,1541,0,0
168,-517,0,0,0,0,0,0,0,0,0,-1,1392,1541,0,0
175,-517,0,0,0,0,0,0,0,0,0,-1,1399,1541,0,0
182,-517,0,0,0,0,0,0,0,0,0,-1,1406,1541,0,0
189,-517,0,0,0,0,0,0,0,0,0,-1,1413,1541,0,0
196,-517,0,0,0,0,0,0,0,0,0,-1,1420,1541,0,0
203,-517,0,0,0,0,0,0,0,0,0,-1,1427,1541,0,0
210,-517,0,0,0,0,0,0,0,0,0,-1,1434,1541,0,0
217,-517,0,0,0,0,0,0,0,0,0,-1,1441,1541,0,0
224,-517,0,0,0,0,0,0,0,0,0,-1,1448,1541,0,0
231,-517,0,0,0,0,0,0,0,0,0,-1,1455,1541,0,0
238,-517,0,0,0,0,0,0,0,0,0,-1,1462,1541,0,0
245,-517,0,0,0,0,0,0,0,0,0,-1,1469,1541,0,0
252,-517,0,0,0,0,0,0,0,0,0,-1,1476,1541,0,0
259,-517,0,0,0,0,0,0,0,0,0,-1,1483,1541,0,0
266,-517,0,0,0,0,0,0,0,0,0,-1,1490,1541,0,0
273,-517,0,0,0,0,0,0,0,0,0,-1,1497,1541,0,0
280,-517,0,0,0,0,0,0,0,0,0,-1,1504,1541,0,0
287,-517,0,0,0,0,0,0,0,0,0,-1,1511,1541,0,0
294,-517,0,0,0,0,0,0,0,0,0,-1,1518,1541,0,0
301,-517,0,0,0,0,0,0,0,0,0,-1,1525,1541,0,0
308,-517,0,0,0,0,0,0,0,0,0,-1,1532,1541,0,0
315,-517,0,0,0,0,0,0,0,0,0,-1,1539,1541,0,0
322,-517,0,0,0,0,0,0,0,0,0,-1,1546,1541,0,0
329,-517,0,0,0,0,0,0,0,0,0,-1,1553,1541,0,0
336,-517,0,0,0,0,0,0,0,0,0,-1,1560,1541,0,0
343,-517,0,0,0,0,0,0,0,0,0,-1,1567,1541,0,0
350,-517,0,0,0,0,0,0,0,0,0,-1,1574,1541,0,0
357,-517,0,0,0,0,0,0,0,0,0,-1,1581,1541,0,0
364,-517,0,0,0,0,0,0,0,0,0,-1,1588,1541,0,0
371,-517,0,0,0,0,0,0,0,0,0,-1,1595,1541,0,0
378,-517,0,0,0,0,0,0,0,0,0,-1,1602,1541,0,0
385,-517,0,0,0,0,0,0,0,0,0,-1,1609,1541,0,0
392,-517,0,0,0,0,0,0,0,0,0,-1,1616,1541,0,0
399,-517,0,0,0,0,0,0,0,0,0,-1,1623,1541,0,0
406,-517,12.1469,6.22412,0,0,0,0,0,0,0,-1,1630,1541,12.1468,-6.22408
413,-517,12.2695,6.3324,0,0,0,0,0,0,0,-1,1637,1541,12.2696,-6.33243
420,-517,12.4789,6.20337,0,0,0,0,0,0,0,-1,1644,1541,12.4789,-6.20333
427,-517,11.647,4.66516,0,0,0,0,0,0,0,-1,1651,1541,11.647,-4.66519
434,-517,12.3719,3.92773,0,0,0,0,0,0,0,-1,1658,1541,12.3719,-3.92776
441,-517,13.146,3.14124,0,0,0,0,0,0,0,-1,1665,1541,13.146,-3.14121
448,-517,13.8861,2.36682,0,0,0,0,0,0,0,-1,1672,1541,13.8861,-2.36684
455,-517,13.6012,4.06335,0,0,0,0,0,0,0,-1,1679,1541,13.6012,-4.06335
462,-517,12.4916,4.39502,0,0,0,0,0,0,0,-1,1686,1541,12.4916,-4.39501
469,-517,11.5607,4.99341,0,0,0,0,0,0,0,-1,1693,1541,11.5607,-4.99337
476,-517,10.6741,5.75378,0,0,0,0,0,0,0,-1,1700,1541,10.6741,-5.75375
483,-517,9.07739,8.20911,0,0,0,0,0,0,0,-1,1707,1541,9.07742,-8.20914
490,-517,9.09729,8.74475,0,0,0,0,0,0,0,-1,1714,1541,9.09724,-8.74476
497,-517,9.172,9.28394,0,0,0,0,0,0,0,-1,1721,1541,9.17198,-9.28394
504,-517,9.14758,9.30859,0,0,0,0,0,0,0,-1,1728,1541,9.14763,-9.30856
511,-517,9.15979,9.80444,-0.03429,-0.016196,0.0208567,-0.00250867,-0.0479773,0.990036,0.0311823,0.032487,1735,1541,9.15984,-9.80439
518,-517,8.9884,9.63037,-0.0281277,-0.0129126,0.0161509,-0.00266718,-0.038373,1.0055,0.0247409,0.0218539,1742,1541,8.98834,-9.63038
525,-517,8.96912,9.41321,-0.0221983,-0.0103298,0.0122574,-0.00264573,-0.0298823,1.01084,0.0191008,0.0108203,1749,1541,8.9691,-9.4132
532,-517,8.97119,9.21082,-0.0167335,-0.00824587,0.00921929,-0.00234052,-0.0226388,1.0011,0.014376,0.0105748,1756,1541,8.97115,-9.21077
539,-517,8.97864,9.00818,-0.0120111,-0.00605834,0.00653182,-0.00185674,-0.0162127,0.999179,0.0102458,0.0121565,1763,1541,8.97864,-9.00822
546,-517,8.97534,8.82275,-0.00817986,-0.00463837,0.00417806,-0.0018713,-0.0109469,0.985834,0.00676106,0.0119662,1770,1541,8.97528,-8.8228
553,-517,8.96411,8.63635,-0.00511502,-0.00247673,0.00250085,-0.000968438,-0.00662331,1.02809,0.00413074,0.0143216,1777,1541,8.96411,-8.6363
560,-517,8.948,8.44653,-0.00242841,-0.000233538,0.000840671,5.14484e-05,-0.0027134,1.24396,0.00182632,0.0148931,1784,1541,8.94804,-8.4465
567,-517,8.96851,8.26599,-0.000492109,0.00171386,-0.000566979,0.00185105,-0.000629302,-1.33339,0.00148881,0.0129694,1791,1541,8.96846,-8.26601
574,-517,8.99072,8.04773,0.00062702,0.00357271,-0.00174342,0.00438214,-0.00018241,-1.13613,0.00298409,0.0133493,1798,1541,8.99075,-8.04776
581,-517,8.97986,7.84082,0.000793874,0.0056076,-0.00262217,0.00676006,-0.000358584,-1.1567,0.00463086,0.0138915,1805,1541,8.97988,-7.84078
588,-517,8.97217,7.66443,0.000629212,0.00764856,-0.00346314,0.00906952,-0.000791745,-1.18143,0.0063268,0.0156576,1812,1541,8.97219,-7.66448
595,-517,8.98291,7.45959,0.000101015,0.00999799,-0.00418726,0.0115318,-0.00143284,-1.21966,0.00820731,0.0171759,1819,1541,8.98296,-7.45958
602,-517,8.9696,7.22119,-0.000686631,0.0125196,-0.00477344,0.0140643,-0.00223133,-1.25783,0.0102016,0.0208538,1826,1541,8.96958,-7.22116
609,-517,9.1499,6.94177,-0.00156207,0.0151723,-0.00522803,0.0166713,-0.00306109,-1.29156,0.0122626,0.0377541,1833,1541,9.14989,-6.94181
616,-517,8.82532,6.63159,0,0,0,0,0,0,0,-1,1840,1541,8.8253,-6.63157
623,-517,9.79443,6.29468,0,0,0,0,0,0,0,-1,1847,1541,9.79447,-6.29473
630,-517,8.78687,5.39734,0,0,0,0,0,0,0,-1,1854,1541,8.78684,-5.39735
637,-517,10.5497,3.54443,0,0,0,0,0,0,0,-1,1861,1541,10.5497,-3.54444
644,-517,11.6067,2.18372,0,0,0,0,0,0,0,-1,1868,1541,11.6067,-2.18372
651,-517,0,0,0,0,0,0,0,0,0,-1,1875,1541,0,0
658,-517,0,0,0,0,0,0,0,0,0,-1,1882,1541,0,0
665,-517,0,0,0,0,0,0,0,0,0,-1,1889,1541,0,0
672,-517,0,0,0,0,0,0,0,0,0,-1,1896,1541,0,0
679,-517,0,0,0,0,0,0,0,0,0,-1,1903,1541,0,0
686,-517,0,0,0,0,0,0,0,0,0,-1,1910,1541,0,0
693,-517,0,0,0,0,0,0,0,0,0,-1,1917,1541,0,0
700,-517,0,0,0,0,0,0,0,0,0,-1,1924,1541,0,0
707,-517,0,0,0,0,0,0,0,0,0,-1,1931,1541,0,0
714,-517,0,0,0,0,0,0,0,0,0,-1,1938,1541,0,0
721,-517,0,0,0,0,0,0,0,0,0,-1,1945,1541,0,0
728,-517,0,0,0,0,0,0,0,0,0,-1,1952,1541,0,0
735,-517,0,0,0,0,0,0,0,0,0,-1,1959,1541,0,0
742,-517,0,0,0,0,0,0,0,0,0,-1,1966,1541,0,0
749,-517,0,0,0,0,0,0,0,0,0,-1,1973,1541,0,0
756,-517,0,0,0,0,0,0,0,0,0,-1,1980,1541,0,0
763,-517,0,0,0,0,0,0,0,0,0,-1,1987,1541,0,0
770,-517,0,0,0,0,0,0,0,0,0,-1,1994,1541,0,0
777,-517,0,0,0,0,0,0,0,0,0,-1,2001,1541,0,0
784,-517,0,0,0,0,0,0,0,0,0,-1,2008,1541,0,0
791,-517,0,0,0,0,0,0,0,0,0,-1,2015,1541,0,0
798,-517,0,0,0,0,0,0,0,0,0,-1,2022,1541,0,0
805,-517,0,0,0,0,0,0,0,0,0,-1,2029,1541,0,0
812,-517,0,0,0,0,0,0,0,0,0,-1,2036,1541,0,0
-700,-524,0,0,0,0,0,0,0,0,0,-1,524,1548,0,0
-693,-524,0,0,0,0,0,0,0,0,0,-1,531,1548,0,0
-686,-524,0,0,0,0,0,0,0,0,0,-1,538,1548,0,0
-679,-524,0,0,0,0,0,0,0,0,0,-1,545,1548,0,0
-672,-524,0,0,0,0,0,0,0,0,0,-1,552,1548,0,0
-665,-524,0,0,0,0,0,0,0,0,0,-1,559,1548,0,0
-658,-524,0,0,0,0,0,0,0,0,0,-1,566,1548,0,0
-651,-524,0,0,0,0,0,0,0,0,0,-1,573,1548,0,0
-644,-524,0,0,0,0,0,0,0,0,0,-1,580,1548,0,0
-637,-524,0,0,0,0,0,0,0,0,0,-1,587,1548,0,0
-630,-524,0,0,0,0,0,0,0,0,0,-1,594,1548,0,0
-623,-524,0,0,0,0,0,0,0,0,0,-1,601,1548,0,0
-616,-524,0,0,0,0,0,0,0,0,0,-1,608,1548,0,0
-609,-524,0,0,0,0,0,0,0,0,0,-1,615,1548,0,0
-602,-524,0,0,0,0,0,0,0,0,0,-1,622,1548,0,0
-595,-524,0,0,0,0,0,0,0,0,0,-1,629,1548,0,0
-588,-524,0,0,0,0,0,0,0,0,0,-1,636,1548,0,0
-581,-524,0,0,0,0,0,0,0,0,0,-1,643,1548,0,0
-574,-524,0,0,0,0,0,0,0,0,0,-1,650,1548,0,0
-567,-524,0,0,0,0,0,0,0,0,0,-1,657,1548,0,0
-560,-524,0,0,0,0,0,0,0,0,0,-1,664,1548,0,0
-553,-524,0,0,0,0,0,0,0,0,0,-1,671,1548,0,0
-546,-524,0,0,0,0,0,0,0,0,0,-1,678,1548,0,0
-539,-524,0,0,0,0,0,0,0,0,0,-1,685,1548,0,0
-532,-524,0,0,0,0,0,0,0,0,0,-1,692,1548,0,0
-525,-524,1.10712,5.20178,0,0,0,0,0,0,0,-1,699,1548,1.10714,-5.20183
-518,-524,1.66241,4.32532,0,0,0,0,0,0,0,-1,706,1548,1.66244,-4.3253
-511,-524,2.21771,3.44873,0,0,0,0,0,0,0,-1,713,1548,2.21773,-3.44877
-504,-524,0.498596,0.950562,0,0,0,0,0,0,0,-1,720,1548,0.498573,-0.950584
-497,-524,-1.55188,7.62378,0,0,0,0,0,0,0,-1,727,1548,-1.55188,-7.62373
-490,-524,-1.29254,7.59814,-0.00696881,0.119812,0.00962113,0.120538,-0.00769478,1.49548,0.0830427,0.0432898,734,1548,-1.29253,-7.59819
-483,-524,0.191101,4.88,-0.00717317,0.105281,0.0121145,0.106571,-0.00846343,1.46469,0.0740302,0.0469476,741,1548,0.191103,-4.87995
-476,-524,-0.153137,5.42517,-0.00716764,0.0904031,0.0131962,0.0921563,-0.00892088,1.43871,0.0646168,0.0442707,748,1548,-0.15314,-5.42512
-469,-524,-0.205322,5.66382,-0.00677448,0.0760422,0.0129271,0.0780132,-0.00874541,1.4195,0.0551555,0.0315482,755,1548,-0.205328,-5.66388
-462,-524,-0.209717,5.91528,-0.00558301,0.0626234,0.0123146,0.0647786,-0.00773828,1.39753,0.0459827,0.0232426,762,1548,-0.209729,-5.91524
-455,-524,-0.256348,6.12793,-0.0047151,0.0494408,0.0102217,0.0513059,-0.00658015,1.39032,0.036595,0.0163966,769,1548,-0.256323,-6.12797
-448,-524,-0.234863,6.35303,-0.00398833,0.0376729,0.00800422,0.0391578,-0.00547323,1.38737,0.0281078,0.0122843,776,1548,-0.234844,-6.35301
-441,-524,-0.226868,6.55908,-0.00298946,0.0273167,0.00607093,0.0284876,-0.00416035,1.38027,0.0205196,0.0104336,783,1548,-0.226891,-6.55911
-434,-524,-0.210632,6.75989,-0.00247109,0.0189607,0.00438893,0.0198246,-0.00333505,1.37643,0.0144569,0.0126036,790,1548,-0.210634,-6.75983
-427,-524,-0.198975,6.97839,-0.00130831,0.0119446,0.00293683,0.0125662,-0.00192995,1.3622,0.00908935,0.0129972,797,1548,-0.198968,-6.97839
-420,-524,-0.225464,7.21045,-8.10254e-05,0.005565,0.00215407,0.00629296,-0.000808989,1.2449,0.00448934,0.010358,804,1548,-0.225467,-7.21049
-413,-524,-0.245605,7.44397,0.00032528,0.00202302,0.0012064,0.00264927,-0.000300972,1.09198,0.00187457,0.00985688,811,1548,-0.245589,-7.44392
-406,-524,-0.237061,7.65552,0.000754942,0.000540794,0.000411201,0.00107278,0.000222955,0.65803,0.000653669,0.0107239,818,1548,-0.237067,-7.65553
-399,-524,-0.229187,7.86914,0.00114504,-4.74849e-05,0.000207286,0.00118004,-8.24881e-05,0.167286,0.000815583,0.00935581,825,1548,-0.229185,-7.8692
-392,-524,-0.230225,8.08301,0.00164274,-0.00036348,0.000209208,0.00166433,-0.000385064,0.102806,0.00125771,0.0101621,832,1548,-0.230224,-8.08304
-385,-524,-0.233765,8.31592,0.0022709,-0.000202896,0.00060817,0.00241233,-0.000344326,0.228489,0.00173443,0.0126649,839,1548,-0.233773,-8.31592
-378,-524,-0.192871,8.62598,0.00260598,0.00109697,0.00156095,0.00358521,0.000117739,0.560273,0.00235187,0.0209624,846,1548,-0.192854,-8.62596
-371,-524,-0.107605,8.77942,0.00278341,0.00490153,0.0029671,0.00699291,0.000692034,0.956818,0.00444924,0.0400551,853,1548,-0.107621,-8.77941
-364,-524,-0.197937,8.68445,0.0030853,0.00871649,0.00472395,0.0114003,0.000401504,1.05414,0.00746995,0.0420302,860,1548,-0.197955,-8.68444
-357,-524,-0.29126,8.76074,0,0,0,0,0,0,0,-1,867,1548,-0.291266,-8.76079
-350,-524,-0.33429,9.26624,0,0,0,0,0,0,0,-1,874,1548,-0.334267,-9.26629
-343,-524,-1.2887,6.94836,0,0,0,0,0,0,0,-1,881,1548,-1.28868,-6.94831
-336,-524,0.0162354,8.78796,0,0,0,0,0,0,0,-1,888,1548,0.0162217,-8.78799
-329,-524,0.713257,11.3702,0,0,0,0,0,0,0,-1,895,1548,0.713275,-11.3702
-322,-524,0.530579,12.0989,0,0,0,0,0,0,0,-1,902,1548,0.530594,-12.0989
-315,-524,-0.988525,9.54456,0,0,0,0,0,0,0,-1,909,1548,-0.988536,-9.54449
-308,-524,-1.6651,9.68347,0,0,0,0,0,0,0,-1,916,1548,-1.66512,-9.68346
-301,-524,-1.12311,9.94629,0.0376211,0.0419168,0.0126612,0.052611,0.0269268,0.869419,0.0303778,0.0471772,923,1548,-1.12314,-9.94631
-294,-524,-0.753967,10.2108,0,0,0,0,0,0,0,-1,930,1548,-0.753991,-10.2108
-287,-524,-0.541138,10.4657,0,0,0,0,0,0,0,-1,937,1548,-0.541153,-10.4657
-280,-524,-1.99243,9.78064,0,0,0,0,0,0,0,-1,944,1548,-1.99241,-9.78061
-273,-524,0,0,0,0,0,0,0,0,0,-1,951,1548,0,0
-266,-524,0,0,0,0,0,0,0,0,0,-1,958,1548,0,0
-259,-524,0,0,0,0,0,0,0,0,0,-1,965,1548,0,0
-252,-524,0,0,0,0,0,0,0,0,0,-1,972,1548,0,0
-245,-524,0,0,0,0,0,0,0,0,0,-1,979,1548,0,0
-238,-524,0,0,0,0,0,0,0,0,0,-1,986,1548,0,0
-231,-524,0,0,0,0,0,0,0,0,0,-1,993,1548,0,0
-224,-524,0,0,0,0,0,0,0,0,0,-1,1000,1548,0,0
-217,-524,0,0,0,0,0,0,0,0,0,-1,1007,1548,0,0
-210,-524,0,0,0,0,0,0,0,0,0,-1,1014,1548,0,0
-203,-524,0,0,0,0,0,0,0,0,0,-1,1021,1548,0,0
-196,-524,0,0,0,0,0,0,0,0,0,-1,1028,1548,0,0
-189,-524,0,0,0,0,0,0,0,0,0,-1,1035,1548,0,0
-182,-524,0,0,0,0,0,0,0,0,0,-1,1042,1548,0,0
-175,-524,0,0,0,0,0,0,0,0,0,-1,1049,1548,0,0
-168,-524,0,0,0,0,0,0,0,0,0,-1,1056,1548,0,0
-161,-524,0,0,0,0,0,0,0,0,0,-1,1063,1548,0,0
-154,-524,0,0,0,0,0,0,0,0,0,-1,1070,1548,0,0
-147,-524,0,0,0,0,0,0,0,0,0,-1,1077,1548,0,0
-140,-524,0,0,0,0,0,0,0,0,0,-1,1084,1548,0,0
-133,-524,0,0,0,0,0,0,0,0,0,-1,1091,1548,0,0
-126,-524,0,0,0,0,0,0,0,0,0,-1,1098,1548,0,0
-119,-524,0,0,0,0,0,0,0,0,0,-1,1105,1548,0,0
-112,-524,0,0,0,0,0,0,0,0,0,-1,1112,1548,0,0
-105,-524,0,0,0,0,0,0,0,0,0,-1,1119,1548,0,0
-98,-524,0,0,0,0,0,0,0,0,0,-1,1126,1548,0,0
-91,-524,0,0,0,0,0,0,0,0,0,-1,1133,1548,0,0
-84,-524,0,0,0,0,0,0,0,0,0,-1,1140,1548,0,0
-77,-524,0,0,0,0,0,0,0,0,0,-1,1147,1548,0,0
-70,-524,0,0,0,0,0,0,0,0,0,-1,1154,1548,0,0
-63,-524,0,0,0,0,0,0,0,0,0,-1,1161,1548,0,0
-56,-524,0,0,0,0,0,0,0,0,0,-1,1168,1548,0,0
-49,-524,0,0,0,0,0,0,0,0,0,-1,1175,1548,0,0
-42,-524,0,0,0,0,0,0,0,0,0,-1,1182,1548,0,0
-35,-524,0,0,0,0,0,0,0,0,0,-1,1189,1548,0,0
-28,-524,0,0,0,0,0,0,0,0,0,-1,1196,1548,0,0
-21,-524,0,0,0,0,0,0,0,0,0,-1,1203,1548,0,0
-14,-524,0,0,0,0,0,0,0,0,0,-1,1210,1548,0,0
-7,-524,0,0,0,0,0,0,0,0,0,-1,1217,1548,0,0
0,-524,0,0,0,0,0,0,0,0,0,-1,1224,1548,0,0
7,-524,0,0,0,0,0,0,0,0,0,-1,1231,1548,0,0
14,-524,0,0,0,0,0,0,0,0,0,-1,1238,1548,0,0
21,-524,0,0,0,0,0,0,0,0,0,-1,1245,1548,0,0
28,-524,0,0,0,0,0,0,0,0,0,-1,1252,1548,0,0
35,-524,0,0,0,0,0,0,0,0,0,-1,1259,1548,0,0
42,-524,0,0,0,0,0,0,0,0,0,-1,1266,1548,0,0
49,-524,0,0,0,0,0,0,0,0,0,-1,1273,1548,0,0
56,-524,0,0,0,0,0,0,0,0,0,-1,1280,1548,0,0
63,-524,0,0,0,0,0,0,0,0,0,-1,1287,1548,0,0
70,-524,0,0,0,0,0,0,0,0,0,-1,1294,1548,0,0
77,-524,0,0,0,0,0,0,0,0,0,-1,1301,1548,0,0
84,-524,0,0,0,0,0,0,0,0,0,-1,1308,1548,0,0
91,-524,0,0,0,0,0,0,0,0,0,-1,1315,1548,0,0
98,-524,0,0,0,0,0,0,0,0,0,-1,1322,1548,0,0
105,-524,0,0,0,0,0,0,0,0,0,-1,1329,1548,0,0
112,-524,0,0,0,0,0,0,0,0,0,-1,1336,1548,0,0
119,-524,0,0,0,0,0,0,0,0,0,-1,1343,1548,0,0
126,-524,0,0,0,0,0,0,0,0,0,-1,1350,1548,0,0
133,-524,0,0,0,0,0,0,0,0,0,-1,1357,1548,0,0
140,-524,0,0,0,0,0,0,0,0,0,-1,1364,1548,0,0
147,-524,0,0,0,0,0,0,0,0,0,-1,1371,1548,0,0
154,-524,0,0,0,0,0,0,0,0,0,-1,1378,1548,0,0
161,-524,0,0,0,0,0,0,0,0,0,-1,1385,1548,0,0
168,-524,0,0,0,0,0,0,0,0,0,-1,1392,1548,0,0
175,-524,0,0,0,0,0,0,0,0,0,-1,1399,1548,0,0
182,-524,0,0,0,0,0,0,0,0,0,-1,1406,1548,0,0
189,-524,0,0,0,0,0,0,0,0,0,-1,1413,1548,0,0
196,-524,0,0,0,0,0,0,0,0,0,-1,1420,1548,0,0
203,-524,0,0,0,0,0,0,0,0,0,-1,1427,1548,0,0
210,-524,0,0,0,0,0,0,0,0,0,-1,1434,1548,0,0
217,-524,0,0,0,0,0,0,0,0,0,-1,1441,1548,0,0
224,-524,0,0,0,0,0,0,0,0,0,-1,1448,1548,0,0
231,-524,0,0,0,0,0,0,0,0,0,-1,1455,1548,0,0
238,-524,0,0,0,0,0,0,0,0,0,-1,1462,1548,0,0
245,-524,0,0,0,0,0,0,0,0,0,-1,1469,1548,0,0
252,-524,0,0,0,0,0,0,0,0,0,-1,1476,1548,0,0
259,-524,0,0,0,0,0,0,0,0,0,-1,1483,1548,0,0
266,-524,0,0,0,0,0,0,0,0,0,-1,1490,1548,0,0
273,-524,0,0,0,0,0,0,0,0,0,-1,1497,1548,0,0
280,-524,0,0,0,0,0,0,0,0,0,-1,1504,1548,0,0
287,-524,0,0,0,0,0,0,0,0,0,-1,1511,1548,0,0
294,-524,0,0,0,0,0,0,0,0,0,-1,1518,1548,0,0
301,-524,0,0,0,0,0,0,0,0,0,-1,1525,1548,0,0
308,-524,0,0,0,0,0,0,0,0,0,-1,1532,1548,0,0
315,-524,0,0,0,0,0,0,0,0,0,-1,1539,1548,0,0
322,-524,0,0,0,0,0,0,0,0,0,-1,1546,1548,0,0
329,-524,0,0,0,0,0,0,0,0,0,-1,1553,1548,0,0
336,-524,0,0,0,0,0,0,0,0,0,-1,1560,1548,0,0
343,-524,0,0,0,0,0,0,0,0,0,-1,1567,1548,0,0
350,-524,0,0,0,0,0,0,0,0,0,-1,1574,1548,0,0
357,-524,0,0,0,0,0,0,0,0,0,-1,1581,1548,0,0
364,-524,0,0,0,0,0,0,0,0,0,-1,1588,1548,0,0
371,-524,0,0,0,0,0,0,0,0,0,-1,1595,1548,0,0
378,-524,0,0,0,0,0,0,0,0,0,-1,1602,1548,0,0
385,-524,0,0,0,0,0,0,0,0,0,-1,1609,1548,0,0
392,-524,0,0,0,0,0,0,0,0,0,-1,1616,1548,0,0
399,-524,8.81848,5.05774,0,0,0,0,0,0,0,-1,1623,1548,8.81843,-5.05769
406,-524,8.64294,6.06799,0,0,0,0,0,0,0,-1,1630,1548,8.6429,-6.06805
413,-524,11.677,6.41858,0,0,0,0,0,0,0,-1,1637,1548,11.677,-6.41864
420,-524,11.4913,6.36401,0,0,0,0,0,0,0,-1,1644,1548,11.4913,-6.36402
427,-524,7.68335,6.17249,0,0,0,0,0,0,0,-1,1651,1548,7.68341,-6.17245
434,-524,9.63916,7.99463,0,0,0,0,0,0,0,-1,1658,1548,9.63919,-7.99464
441,-524,8.78552,4.12305,0,0,0,0,0,0,0,-1,1665,1548,8.78553,-4.12301
448,-524,14.1854,4.78674,0,0,0,0,0,0,0,-1,1672,1548,14.1854,-4.78674
455,-524,13.1456,5.37646,0,0,0,0,0,0,0,-1,1679,1548,13.1457,-5.37652
462,-524,12.0439,5.96619,0,0,0,0,0,0,0,-1,1686,1548,12.044,-5.96623
469,-524,11.0704,6.60852,0,0,0,0,0,0,0,-1,1693,1548,11.0705,-6.60852
476,-524,11.5327,8.34363,0,0,0,0,0,0,0,-1,1700,1548,11.5327,-8.34365
483,-524,10.97,8.65942,0,0,0,0,0,0,0,-1,1707,1548,10.97,-8.65945
490,-524,9.2218,9.66443,0,0,0,0,0,0,0,-1,1714,1548,9.22177,-9.6644
497,-524,8.78723,9.83447,-0.0371211,-0.0180945,0.0257153,-0.000189237,-0.0550263,0.962565,0.0366213,0.032379,1721,1548,8.7872,-9.83451
504,-524,8.79614,9.87793,-0.0290023,-0.0141316,0.0217602,0.00142854,-0.0445624,0.950026,0.0301957,0.0184885,1728,1548,8.79613,-9.87798
511,-524,8.7644,9.76819,-0.0242857,-0.0114861,0.0170436,0.000319673,-0.0360914,0.965001,0.0241682,0.0162302,1735,1548,8.76441,-9.7682
518,-524,8.79358,9.58679,-0.0199058,-0.00873291,0.0130333,-0.000139245,-0.0284995,0.987868,0.0189534,0.0147493,1742,1548,8.79354,-9.58683
525,-524,8.78381,9.41479,-0.0156059,-0.00672288,0.00971051,-0.000486325,-0.0218424,0.99989,0.0144023,0.012474,1749,1548,8.78386,-9.41484
532,-524,8.79163,9.21655,-0.0115559,-0.00522673,0.00715138,-0.000571016,-0.0162116,0.993702,0.0106225,0.00891424,1756,1548,8.79165,-9.21652
539,-524,8.80078,9.00659,-0.00798157,-0.00355268,0.00482211,-0.000460851,-0.0110734,1.00065,0.00723354,0.00991037,1763,1548,8.80073,-9.00664
546,-524,8.78662,8.81958,-0.00507822,-0.0024028,0.002797,-0.000640075,-0.00684095,1.00845,0.00436295,0.0128152,1770,1548,8.78657,-8.81962
553,-524,8.78259,8.65454,-0.00274053,-0.000608782,0.00129976,6.25453e-06,-0.00335557,1.12882,0.00223913,0.0206443,1777,1548,8.78263,-8.65458
560,-524,8.77148,8.4469,-0.00071327,0.00135129,-0.00019953,0.0013704,-0.000732377,-1.47533,0.00123253,0.0295726,1784,1548,8.77149,-8.44696
567,-524,8.76892,8.25952,0.00066056,0.00311004,-0.00150275,0.00382393,-5.33218e-05,-1.12731,0.00256724,0.0173194,1791,1548,8.76888,-8.25953
574,-524,8.78467,8.04797,0.00136485,0.00498076,-0.00266012,0.00638916,-4.35482e-05,-1.08387,0.00427403,0.0120663,1798,1548,8.78464,-8.04796
581,-524,8.79492,7.84009,0.00135026,0.00723249,-0.00365768,0.00898486,-0.000402105,-1.12401,0.00612834,0.013439,1805,1548,8.79488,-7.84007
588,-524,8.80896,7.64636,0.00109216,0.00966373,-0.00469494,0.0117349,-0.000978976,-1.15533,0.00816914,0.0149081,1812,1548,8.80899,-7.64637
595,-524,8.80078,7.41956,0.000454747,0.0126389,-0.00573499,0.0149137,-0.00181998,-1.19319,0.0106013,0.0154562,1819,1548,8.80078,-7.41961
602,-524,8.83228,7.04651,-0.00061825,0.0161755,-0.00669658,0.0185188,-0.00296156,-1.23419,0.0134423,0.0303345,1826,1548,8.8323,-7.04654
609,-524,8.86597,6.39697,-0.00219434,0.0202948,-0.00759465,0.0226193,-0.00451882,-1.27378,0.0167897,0.0441223,1833,1548,8.86602,-6.39703
616,-524,8.95203,5.87952,0,0,0,0,0,0,0,-1,1840,1548,8.95204,-5.87951
623,-524,9.38452,5.15356,0,0,0,0,0,0,0,-1,1847,1548,9.38456,-5.15359
630,-524,11.0541,3.57434,0,0,0,0,0,0,0,-1,1854,1548,11.0541,-3.57438
637,-524,11.1711,2.20068,0,0,0,0,0,0,0,-1,1861,1548,11.1712,-2.20068
644,-524,12.2134,0.727173,0,0,0,0,0,0,0,-1,1868,1548,12.2134,-0.727222
651,-524,0,0,0,0,0,0,0,0,0,-1,1875,1548,0,0
658,-524,0,0,0,0,0,0,0,0,0,-1,1882,1548,0,0
665,-524,0,0,0,0,0,0,0,0,0,-1,1889,1548,0,0
672,-524,0,0,0,0,0,0,0,0,0,-1,1896,1548,0,0
679,-524,0,0,0,0,0,0,0,0,0,-1,1903,1548,0,0
686,-524,0,0,0,0,0,0,0,0,0,-1,1910,1548,0,0
693,-524,0,0,0,0,0,0,0,0,0,-1,1917,1548,0,0
700,-524,0,0,0,0,0,0,0,0,0,-1,1924,1548,0,0
707,-524,0,0,0,0,0,0,0,0,0,-1,1931,1548,0,0
714,-524,0,0,0,0,0,0,0,0,0,-1,1938,1548,0,0
721,-524,0,0,0,0,0,0,0,0,0,-1,1945,1548,0,0
728,-524,0,0,0,0,0,0,0,0,0,-1,1952,1548,0,0
735,-524,0,0,0,0,0,0,0,0,0,-1,1959,1548,0,0
742,-524,0,0,0,0,0,0,0,0,0,-1,1966,1548,0,0
749,-524,0,0,0,0,0,0,0,0,0,-1,1973,1548,0,0
756,-524,0,0,0,0,0,0,0,0,0,-1,1980,1548,0,0
763,-524,0,0,0,0,0,0,0,0,0,-1,1987,1548,0,0
770,-524,0,0,0,0,0,0,0,0,0,-1,1994,1548,0,0
777,-524,0,0,0,0,0,0,0,0,0,-1,2001,1548,0,0
784,-524,0,0,0,0,0,0,0,0,0,-1,2008,1548,0,0
791,-524,0,0,0,0,0,0,0,0,0,-1,2015,1548,0,0
798,-524,0,0,0,0,0,0,0,0,0,-1,2022,1548,0,0
805,-524,0,0,0,0,0,0,0,0,0,-1,2029,1548,0,0
812,-524,0,0,0,0,0,0,0,0,0,-1,2036,1548,0,0
-700,-531,0,0,0,0,0,0,0,0,0,-1,524,1555,0,0
-693,-531,0,0,0,0,0,0,0,0,0,-1,531,1555,0,0
-686,-531,0,0,0,0,0,0,0,0,0,-1,538,1555,0,0
-679,-531,0,0,0,0,0,0,0,0,0,-1,545,1555,0,0
-672,-531,0,0,0,0,0,0,0,0,0,-1,552,1555,0,0
-665,-531,0,0,0,0,0,0,0,0,0,-1,559,1555,0,0
-658,-531,0,0,0,0,0,0,0,0,0,-1,566,1555,0,0
-651,-531,0,0,0,0,0,0,0,0,0,-1,573,1555,0,0
-644,-531,0,0,0,0,0,0,0,0,0,-1,580,1555,0,0
-637,-531,0,0,0,0,0,0,0,0,0,-1,587,1555,0,0
-630,-531,0,0,0,0,0,0,0,0,0,-1,594,1555,0,0
-623,-531,0,0,0,0,0,0,0,0,0,-1,601,1555,0,0
-616,-531,0,0,0,0,0,0,0,0,0,-1,608,1555,0,0
-609,-531,0,0,0,0,0,0,0,0,0,-1,615,1555,0,0
-602,-531,0,0,0,0,0,0,0,0,0,-1,622,1555,0,0
-595,-531,0,0,0,0,0,0,0,0,0,-1,629,1555,0,0
-588,-531,0,0,0,0,0,0,0,0,0,-1,636,1555,0,0
-581,-531,0,0,0,0,0,0,0,0,0,-1,643,1555,0,0
-574,-531,0,0,0,0,0,0,0,0,0,-1,650,1555,0,0
-567,-531,0,0,0,0,0,0,0,0,0,-1,657,1555,0,0
-560,-531,0,0,0,0,0,0,0,0,0,-1,664,1555,0,0
-553,-531,0,0,0,0,0,0,0,0,0,-1,671,1555,0,0
-546,-531,0,0,0,0,0,0,0,0,0,-1,678,1555,0,0
-539,-531,0,0,0,0,0,0,0,0,0,-1,685,1555,0,0
-532,-531,0,0,0,0,0,0,0,0,0,-1,692,1555,0,0
-525,-531,0,0,0,0,0,0,0,0,0,-1,699,1555,0,0
-518,-531,2.45148,4.27356,0,0,0,0,0,0,0,-1,706,1555,2.45147,-4.27355
-511,-531,-2.9682,8.07483,0,0,0,0,0,0,0,-1,713,1555,-2.9682,-8.07479
-504,-531,-2.95978,0.557861,0,0,0,0,0,0,0,-1,720,1555,-2.95978,-0.557917
-497,-531,-0.856018,7.45984,0,0,0,0,0,0,0,-1,727,1555,-0.855999,-7.4599
-490,-531,-0.737976,7.20654,-0.0175753,0.167071,0.0250497,0.170409,-0.0209132,1.43832,0.12118,0.0456378,734,1555,-0.737947,-7.20656
-483,-531,-0.631165,6.93616,-0.0156797,0.146567,0.0258847,0.150596,-0.0197093,1.41636,0.107571,0.0463855,741,1555,-0.631174,-6.93612
-476,-531,0.0327759,5.4696,0,0,0,0,0,0,0,-1,748,1555,0.0327723,-5.46965
-469,-531,-0.196899,6.16956,-0.0125524,0.106763,0.023373,0.111178,-0.0169676,1.38409,0.080374,0.0425565,755,1555,-0.196899,-6.1695
-462,-531,-0.144775,6.12122,-0.0104564,0.0884516,0.0211883,0.0927995,-0.0148042,1.3684,0.0673457,0.0408553,762,1555,-0.144772,-6.12123
-455,-531,-0.0280762,6.18982,-0.0087623,0.0707202,0.017677,0.0744743,-0.0125164,1.36153,0.0543046,0.0279879,769,1555,-0.0280961,-6.18983
-448,-531,0.015564,6.3252,-0.00732148,0.0547508,0.0141229,0.057813,-0.0103837,1.35727,0.0424289,0.012392,776,1555,0.0155503,-6.32523
-441,-531,-0.00634766,6.54333,-0.00569921,0.0406342,0.0109143,0.0430765,-0.00814145,1.35066,0.031781,0.0108909,783,1555,-0.00636094,-6.54328
-434,-531,-0.00860596,6.78333,-0.00462552,0.0288398,0.00803758,0.0306702,-0.00645585,1.34689,0.022904,0.0119946,790,1555,-0.00857878,-6.7833
-427,-531,-0.00012207,7.00159,-0.00297932,0.0189269,0.00556457,0.0202593,-0.00431177,1.33577,0.0151494,0.012755,797,1555,-0.00011404,-7.00161
-420,-531,-0.00830078,7.23022,-0.00132838,0.0097605,0.00402071,0.0110649,-0.0026328,1.25708,0.00839301,0.0112824,804,1555,-0.0083005,-7.23024
-413,-531,-0.0234985,7.44214,-0.000636312,0.0043665,0.00230422,0.00526605,-0.00153586,1.1986,0.00411922,0.0101639,811,1555,-0.0235138,-7.44208
-406,-531,-0.0309448,7.65149,6.28932e-05,0.0016878,0.000824697,0.00203302,-0.000282327,1.17436,0.00145859,0.0114193,818,1555,-0.0309351,-7.65154
-399,-531,-0.019043,7.8739,0.000624529,0.000451271,0.000313948,0.000863581,0.000212219,0.650781,0.000519633,0.013645,825,1555,-0.019024,-7.87391
-392,-531,-0.0147705,8.09119,0.00118356,-0.000151064,0.000206956,0.00121492,-0.000182419,0.150363,0.000877099,0.0168414,832,1555,-0.0147672,-8.09124
-385,-531,-0.0394287,8.30701,0.00184539,-0.000242181,0.000467655,0.00194537,-0.000342157,0.21061,0.00142473,0.0145816,839,1555,-0.0394048,-8.30695
-378,-531,-0.0354004,8.49927,0.00224205,0.000694775,0.00123845,0.00292864,8.18272e-06,0.506213,0.0019497,0.0118089,846,1555,-0.0354305,-8.4993
-371,-531,0.0195313,8.7478,0.00253402,0.00364302,0.00233973,0.00549306,0.000683975,0.901748,0.00345668,0.0155602,853,1555,0.0195131,-8.74782
-364,-531,0.0710449,8.95825,0.00296589,0.0065518,0.0037016,0.00887181,0.000645873,1.01093,0.00571144,0.0297843,860,1555,0.0710598,-8.95823
-357,-531,-0.11908,8.9646,0.00334659,0.0110107,0.00565435,0.0140092,0.000348112,1.08321,0.00922562,0.0373791,867,1555,-0.11908,-8.96455
-350,-531,0.00982666,9.14282,0.00551812,0.0143585,0.00705859,0.0182667,0.00160992,1.06513,0.0116782,0.0456458,874,1555,0.009825,-9.14279
-343,-531,0.256714,9.13855,0,0,0,0,0,0,0,-1,881,1555,0.256718,-9.13849
-336,-531,1.05554,10.2063,0,0,0,0,0,0,0,-1,888,1555,1.05553,-10.2063
-329,-531,0.771484,11.0929,0.0117957,0.0325234,0.0134647,0.039151,0.00516815,1.11339,0.0245599,0.0488657,895,1555,0.771478,-11.0929
-322,-531,0.600891,11.8031,0.014308,0.0380748,0.014759,0.0451398,0.00724303,1.12434,0.027993,0.046331,902,1555,0.600871,-11.8032
-315,-531,-1.84497,9.70654,0,0,0,0,0,0,0,-1,909,1555,-1.84497,-9.70656
-308,-531,-1.40149,9.85437,0,0,0,0,0,0,0,-1,916,1555,-1.40151,-9.85436
-301,-531,-0.984924,10.1547,0,0,0,0,0,0,0,-1,923,1555,-0.98492,-10.1546
-294,-531,-0.430664,10.4156,0,0,0,0,0,0,0,-1,930,1555,-0.430653,-10.4157
-287,-531,-0.461792,10.8096,0,0,0,0,0,0,0,-1,937,1555,-0.46182,-10.8096
-280,-531,-1.7738,9.76196,0,0,0,0,0,0,0,-1,944,1555,-1.77378,-9.76194
-273,-531,-5.5531,14.6454,0,0,0,0,0,0,0,-1,951,1555,-5.5531,-14.6454
-266,-531,-6.7038,16.0303,0,0,0,0,0,0,0,-1,958,1555,-6.7038,-16.0303
-259,-531,0,0,0,0,0,0,0,0,0,-1,965,1555,0,0
-252,-531,0,0,0,0,0,0,0,0,0,-1,972,1555,0,0
-245,-531,0,0,0,0,0,0,0,0,0,-1,979,1555,0,0
-238,-531,0,0,0,0,0,0,0,0,0,-1,986,1555,0,0
-231,-531,0,0,0,0,0,0,0,0,0,-1,993,1555,0,0
-224,-531,0,0,0,0,0,0,0,0,0,-1,1000,1555,0,0
-217,-531,0,0,0,0,0,0,0,0,0,-1,1007,1555,0,0
-210,-531,0,0,0,0,0,0,0,0,0,-1,1014,1555,0,0
-203,-531,0,0,0,0,0,0,0,0,0,-1,1021,1555,0,0
-196,-531,0,0,0,0,0,0,0,0,0,-1,1028,1555,0,0
-189,-531,0,0,0,0,0,0,0,0,0,-1,1035,1555,0,0
-182,-531,0,0,0,0,0,0,0,0,0,-1,1042,1555,0,0
-175,-531,0,0,0,0,0,0,0,0,0,-1,1049,1555,0,0
-168,-531,0,0,0,0,0,0,0,0,0,-1,1056,1555,0,0
-161,-531,0,0,0,0,0,0,0,0,0,-1,1063,1555,0,0
-154,-531,0,0,0,0,0,0,0,0,0,-1,1070,1555,0,0
-147,-531,0,0,0,0,0,0,0,0,0,-1,1077,1555,0,0
-140,-531,0,0,0,0,0,0,0,0,0,-1,1084,1555,0,0
-133,-531,0,0,0,0,0,0,0,0,0,-1,1091,1555,0,0
-126,-531,0,0,0,0,0,0,0,0,0,-1,1098,1555,0,0
-119,-531,0,0,0,0,0,0,0,0,0,-1,1105,1555,0,0
-112,-531,0,0,0,0,0,0,0,0,0,-1,1112,1555,0,0
-105,-531,0,0,0,0,0,0,0,0,0,-1,1119,1555,0,0
-98,-531,0,0,0,0,0,0,0,0,0,-1,1126,1555,0,0
-91,-531,0,0,0,0,0,0,0,0,0,-1,1133,1555,0,0
-84,-531,0,0,0,0,0,0,0,0,0,-1,1140,1555,0,0
-77,-531,0,0,0,0,0,0,0,0,0,-1,1147,1555,0,0
-70,-531,0,0,0,0,0,0,0,0,0,-1,1154,1555,0,0
-63,-531,0,0,0,0,0,0,0,0,0,-1,1161,1555,0,0
-56,-531,0,0,0,0,0,0,0,0,0,-1,1168,1555,0,0
-49,-531,0,0,0,0,0,0,0,0,0,-1,1175,1555,0,0
-42,-531,0,0,0,0,0,0,0,0,0,-1,1182,1555,0,0
-35,-531,0,0,0,0,0,0,0,0,0,-1,1189,1555,0,0
-28,-531,0,0,0,0,0,0,0,0,0,-1,1196,1555,0,0
-21,-531,0,0,0,0,0,0,0,0,0,-1,1203,1555,0,0
-14,-531,0,0,0,0,0,0,0,0,0,-1,1210,1555,0,0
-7,-531,0,0,0,0,0,0,0,0,0,-1,1217,1555,0,0
0,-531,0,0,0,0,0,0,0,0,0,-1,1224,1555,0,0
7,-531,0,0,0,0,0,0,0,0,0,-1,1231,1555,0,0
14,-531,0,0,0,0,0,0,0,0,0,-1,1238,1555,0,0
21,-531,0,0,0,0,0,0,0,0,0,-1,1245,1555,0,0
28,-531,0,0,0,0,0,0,0,0,0,-1,1252,1555,0,0
35,-531,0,0,0,0,0,0,0,0,0,-1,1259,1555,0,0
42,-531,0,0,0,0,0,0,0,0,0,-1,1266,1555,0,0
49,-531,0,0,0,0,0,0,0,0,0,-1,1273,1555,0,0
56,-531,0,0,0,0,0,0,0,0,0,-1,1280,1555,0,0
63,-531,0,0,0,0,0,0,0,0,0,-1,1287,1555,0,0
70,-531,0,0,0,0,0,0,0,0,0,-1,1294,1555,0,0
77,-531,0,0,0,0,0,0,0,0,0,-1,1301,1555,0,0
84,-531,0,0,0,0,0,0,0,0,0,-1,1308,1555,0,0
91,-531,0,0,0,0,0,0,0,0,0,-1,1315,1555,0,0
98,-531,0,0,0,0,0,0,0,0,0,-1,1322,1555,0,0
105,-531,0,0,0,0,0,0,0,0,0,-1,1329,1555,0,0
112,-531,0,0,0,0,0,0,0,0,0,-1,1336,1555,0,0
119,-531,0,0,0,0,0,0,0,0,0,-1,1343,1555,0,0
126,-531,0,0,0,0,0,0,0,0,0,-1,1350,1555,0,0
133,-531,0,0,0,0,0,0,0,0,0,-1,1357,1555,0,0
140,-531,0,0,0,0,0,0,0,0,0,-1,1364,1555,0,0
147,-531,0,0,0,0,0,0,0,0,0,-1,1371,1555,0,0
154,-531,0,0,0,0,0,0,0,0,0,-1,1378,1555,0,0
161,-531,0,0,0,0,0,0,0,0,0,-1,1385,1555,0,0
168,-531,0,0,0,0,0,0,0,0,0,-1,1392,1555,0,0
175,-531,0,0,0,0,0,0,0,0,0,-1,1399,1555,0,0
182,-531,0,0,0,0,0,0,0,0,0,-1,1406,1555,0,0
189,-531,0,0,0,0,0,0,0,0,0,-1,1413,1555,0,0
196,-531,0,0,0,0,0,0,0,0,0,-1,1420,1555,0,0
203,-531,0,0,0,0,0,0,0,0,0,-1,1427,1555,0,0
210,-531,0,0,0,0,0,0,0,0,0,-1,1434,1555,0,0
217,-531,0,0,0,0,0,0,0,0,0,-1,1441,1555,0,0
224,-531,0,0,0,0,0,0,0,0,0,-1,1448,1555,0,0
231,-531,0,0,0,0,0,0,0,0,0,-1,1455,1555,0,0
238,-531,0,0,0,0,0,0,0,0,0,-1,1462,1555,0,0
245,-531,0,0,0,0,0,0,0,0,0,-1,1469,1555,0,0
252,-531,0,0,0,0,0,0,0,0,0,-1,1476,1555,0,0
259,-531,0,0,0,0,0,0,0,0,0,-1,1483,1555,0,0
266,-531,0,0,0,0,0,0,0,0,0,-1,1490,1555,0,0
273,-531,0,0,0,0,0,0,0,0,0,-1,1497,1555,0,0
280,-531,0,0,0,0,0,0,0,0,0,-1,1504,1555,0,0
287,-531,0,0,0,0,0,0,0,0,0,-1,1511,1555,0,0
294,-531,0,0,0,0,0,0,0,0,0,-1,1518,1555,0,0
301,-531,0,0,0,0,0,0,0,0,0,-1,1525,1555,0,0
308,-531,0,0,0,0,0,0,0,0,0,-1,1532,1555,0,0
315,-531,0,0,0,0,0,0,0,0,0,-1,1539,1555,0,0
322,-531,0,0,0,0,0,0,0,0,0,-1,1546,1555,0,0
329,-531,0,0,0,0,0,0,0,0,0,-1,1553,1555,0,0
336,-531,0,0,0,0,0,0,0,0,0,-1,1560,1555,0,0
343,-531,0,0,0,0,0,0,0,0,0,-1,1567,1555,0,0
350,-531,0,0,0,0,0,0,0,0,0,-1,1574,1555,0,0
357,-531,0,0,0,0,0,0,0,0,0,-1,1581,1555,0,0
364,-531,0,0,0,0,0,0,0,0,0,-1,1588,1555,0,0
371,-531,0,0,0,0,0,0,0,0,0,-1,1595,1555,0,0
378,-531,0,0,0,0,0,0,0,0,0,-1,1602,1555,0,0
385,-531,3.13403,1.88721,0,0,0,0,0,0,0,-1,1609,1555,3.13401,-1.88726
392,-531,8.49451,7.77673,0,0,0,0,0,0,0,-1,1616,1555,8.49447,-7.77677
399,-531,8.26306,5.29602,0,0,0,0,0,0,0,-1,1623,1555,8.26302,-5.29607
406,-531,8.26147,5.42712,0,0,0,0,0,0,0,-1,1630,1555,8.26145,-5.42716
413,-531,8.20618,5.75012,0,0,0,0,0,0,0,-1,1637,1555,8.20619,-5.75017
420,-531,7.64868,7.09558,0,0,0,0,0,0,0,-1,1644,1555,7.64867,-7.09564
427,-531,8.19263,7.02405,0,0,0,0,0,0,0,-1,1651,1555,8.19269,-7.02407
434,-531,10.109,13.5083,0,0,0,0,0,0,0,-1,1658,1555,10.1091,-13.5083
441,-531,10.4186,12.6052,0,0,0,0,0,0,0,-1,1665,1555,10.4186,-12.6052
448,-531,13.5089,5.90344,0,0,0,0,0,0,0,-1,1672,1555,13.5089,-5.90346
455,-531,12.5403,6.53625,0,0,0,0,0,0,0,-1,1679,1555,12.5403,-6.53629
462,-531,11.5742,7.58801,0,0,0,0,0,0,0,-1,1686,1555,11.5742,-7.588
469,-531,9.72864,8.00867,0,0,0,0,0,0,0,-1,1693,1555,9.72862,-8.00861
476,-531,10.5079,9.22083,0,0,0,0,0,0,0,-1,1700,1555,10.508,-9.22088
483,-531,9.5686,9.61536,-0.0456911,-0.0195304,0.0267148,-0.00286559,-0.0623559,1.01306,0.0406491,0.044063,1707,1555,9.56866,-9.61541
490,-531,8.84229,9.95972,-0.0352087,-0.0158503,0.0232614,-0.00033468,-0.0507243,0.982555,0.0337052,0.0338668,1714,1555,8.84229,-9.95976
497,-531,8.56921,10.1051,-0.0253646,-0.0136907,0.0202058,0.00150437,-0.0405596,0.926007,0.0275549,0.0171957,1721,1555,8.56916,-10.1052
504,-531,8.56274,9.98767,-0.0188273,-0.0100513,0.0172084,0.00331969,-0.0321983,0.910235,0.0226533,0.0117425,1728,1555,8.56274,-9.98764
511,-531,8.57507,9.80127,-0.0156302,-0.00776993,0.0133205,0.00218809,-0.0255883,0.928851,0.017833,0.0138233,1735,1555,8.57513,-9.80122
518,-531,8.57922,9.62451,-0.0126243,-0.00540055,0.00994937,0.00157225,-0.0195971,0.959514,0.0136191,0.0143596,1742,1555,8.57925,-9.62456
525,-531,8.58594,9.42041,-0.00961826,-0.00382143,0.00715867,0.00100333,-0.014443,0.977752,0.00997994,0.0125212,1749,1555,8.58599,-9.42041
532,-531,8.62048,9.21118,-0.00673875,-0.00278848,0.00504779,0.00065684,-0.0101841,0.971885,0.00701858,0.00978451,1756,1555,8.62048,-9.21122
539,-531,8.61902,9.01843,-0.00414656,-0.001559,0.00307701,0.00048516,-0.00619072,0.984411,0.00429801,0.011799,1763,1555,8.61905,-9.01845
546,-531,8.58057,8.8291,-0.00207156,-0.000623232,0.0013876,0.0002178,-0.00291259,1.0259,0.00201825,0.015106,1770,1555,8.58058,-8.82916
553,-531,8.58154,8.65125,-0.000393194,0.000840291,8.01049e-05,0.000845471,-0.000398374,1.50622,0.000733436,0.0288058,1777,1555,8.58148,-8.65121
560,-531,8.53076,8.48157,0.00104607,0.00258605,-0.00124505,0.00327997,0.000352155,-1.06233,0.00207923,0.0332902,1784,1555,8.53081,-8.48157
567,-531,8.55212,8.26953,0.00191457,0.00423078,-0.00242824,0.00576295,0.000382403,-1.00791,0.00372105,0.0181721,1791,1555,8.55208,-8.26953
574,-531,8.57898,8.0531,0.00223499,0.00617123,-0.0035735,0.00828274,0.000123478,-1.03711,0.00548113,0.0119397,1798,1555,8.57903,-8.05307
581,-531,8.59692,7.84766,0.00207581,0.00867268,-0.00472369,0.0111356,-0.000387091,-1.09018,0.00755605,0.0112655,1805,1555,8.59689,-7.8477
588,-531,8.61047,7.60437,0.00173506,0.0116292,-0.00604208,0.0144911,-0.00112684,-1.12844,0.0100574,0.0150434,1812,1555,8.61044,-7.60436
595,-531,8.53247,7.24426,0.00105261,0.0154246,-0.00751197,0.0186342,-0.00215698,-1.16701,0.0132007,0.0299259,1819,1555,8.53243,-7.24429
602,-531,8.50879,6.70142,-4.2274e-05,0.020165,-0.00906233,0.0236338,-0.003511,-1.20524,0.0170471,0.0467886,1826,1555,8.50883,-6.7014
609,-531,8.52417,6.27905,0,0,0,0,0,0,0,-1,1833,1555,8.5242,-6.27905
616,-531,8.48242,6.80505,0,0,0,0,0,0,0,-1,1840,1555,8.48236,-6.80504
623,-531,10.0674,5.08984,0,0,0,0,0,0,0,-1,1847,1555,10.0674,-5.08981
630,-531,11.672,3.18909,0,0,0,0,0,0,0,-1,1854,1555,11.672,-3.18904
637,-531,13.2546,1.38965,0,0,0,0,0,0,0,-1,1861,1555,13.2547,-1.3896
644,-531,0,0,0,0,0,0,0,0,0,-1,1868,1555,0,0
651,-531,0,0,0,0,0,0,0,0,0,-1,1875,1555,0,0
658,-531,0,0,0,0,0,0,0,0,0,-1,1882,1555,0,0
665,-531,0,0,0,0,0,0,0,0,0,-1,1889,1555,0,0
672,-531,0,0,0,0,0,0,0,0,0,-1,1896,1555,0,0
679,-531,0,0,0,0,0,0,0,0,0,-1,1903,1555,0,0
686,-531,0,0,0,0,0,0,0,0,0,-1,1910,1555,0,0
693,-531,0,0,0,0,0,0,0,0,0,-1,1917,1555,0,0
700,-531,0,0,0,0,0,0,0,0,0,-1,1924,1555,0,0
707,-531,0,0,0,0,0,0,0,0,0,-1,1931,1555,0,0
714,-531,0,0,0,0,0,0,0,0,0,-1,1938,1555,0,0
721,-531,0,0,0,0,0,0,0,0,0,-1,1945,1555,0,0
728,-531,0,0,0,0,0,0,0,0,0,-1,1952,1555,0,0
735,-531,0,0,0,0,0,0,0,0,0,-1,1959,1555,0,0
742,-531,0,0,0,0,0,0,0,0,0,-1,1966,1555,0,0
749,-531,0,0,0,0,0,0,0,0,0,-1,1973,1555,0,0
756,-531,0,0,0,0,0,0,0,0,0,-1,1980,1555,0,0
763,-531,0,0,0,0,0,0,0,0,0,-1,1987,1555,0,0
770,-531,0,0,0,0,0,0,0,0,0,-1,1994,1555,0,0
777,-531,0,0,0,0,0,0,0,0,0,-1,2001,1555,0,0
784,-531,0,0,0,0,0,0,0,0,0,-1,2008,1555,0,0
791,-531,0,0,0,0,0,0,0,0,0,-1,2015,1555,0,0
798,-531,0,0,0,0,0,0,0,0,0,-1,2022,1555,0,0
805,-531,0,0,0,0,0,0,0,0,0,-1,2029,1555,0,0
812,-531,0,0,0,0,0,0,0,0,0,-1,2036,1555,0,0
-700,-538,0,0,0,0,0,0,0,0,0,-1,524,1562,0,0
-693,-538,0,0,0,0,0,0,0,0,0,-1,531,1562,0,0
-686,-538,0,0,0,0,0,0,0,0,0,-1,538,1562,0,0
-679,-538,0,0,0,0,0,0,0,0,0,-1,545,1562,0,0
-672,-538,0,0,0,0,0,0,0,0,0,-1,552,1562,0,0
-665,-538,0,0,0,0,0,0,0,0,0,-1,559,1562,0,0
-658,-538,0,0,0,0,0,0,0,0,0,-1,566,1562,0,0
-651,-538,0,0,0,0,0,0,0,0,0,-1,573,1562,0,0
-644,-538,0,0,0,0,0,0,0,0,0,-1,580,1562,0,0
-637,-538,0,0,0,0,0,0,0,0,0,-1,587,1562,0,0
-630,-538,0,0,0,0,0,0,0,0,0,-1,594,1562,0,0
-623,-538,0,0,0,0,0,0,0,0,0,-1,601,1562,0,0
-616,-538,0,0,0,0,0,0,0,0,0,-1,608,1562,0,0
-609,-538,0,0,0,0,0,0,0,0,0,-1,615,1562,0,0
-602,-538,0,0,0,0,0,0,0,0,0,-1,622,1562,0,0
-595,-538,0,0,0,0,0,0,0,0,0,-1,629,1562,0,0
-588,-538,0,0,0,0,0,0,0,0,0,-1,636,1562,0,0
-581,-538,0,0,0,0,0,0,0,0,0,-1,643,1562,0,0
-574,-538,0,0,0,0,0,0,0,0,0,-1,650,1562,0,0
-567,-538,0,0,0,0,0,0,0,0,0,-1,657,1562,0,0
-560,-538,0,0,0,0,0,0,0,0,0,-1,664,1562,0,0
-553,-538,0,0,0,0,0,0,0,0,0,-1,671,1562,0,0
-546,-538,0,0,0,0,0,0,0,0,0,-1,678,1562,0,0
-539,-538,0,0,0,0,0,0,0,0,0,-1,685,1562,0,0
-532,-538,0,0,0,0,0,0,0,0,0,-1,692,1562,0,0
-525,-538,0,0,0,0,0,0,0,0,0,-1,699,1562,0,0
-518,-538,0,0,0,0,0,0,0,0,0,-1,706,1562,0,0
-511,-538,-2.6582,-1.54321,0,0,0,0,0,0,0,-1,713,1562,-2.65821,1.54327
-504,-538,-2.66455,-0.71167,0,0,0,0,0,0,0,-1,720,1562,-2.66456,0.711667
-497,-538,-0.763855,6.77747,0,0,0,0,0,0,0,-1,727,1562,-0.76385,-6.77743
-490,-538,-0.672302,6.62402,-0.0284412,0.221816,0.0459643,0.229991,-0.0366163,1.39478,0.166877,0.0494484,734,1562,-0.672291,-6.62404
-483,-538,-0.555603,6.36279,-0.0249265,0.19508,0.043856,0.2035,-0.0333465,1.38111,0.148039,0.0445053,741,1562,-0.555577,-6.36279
-476,-538,-0.429565,6.14966,-0.0221656,0.168816,0.0407795,0.177159,-0.0305086,1.36899,0.129479,0.0425951,748,1562,-0.429563,-6.1497
-469,-538,-0.00964355,5.89966,-0.0195728,0.143271,0.0368131,0.151206,-0.0275082,1.35849,0.111114,0.0455145,755,1562,-0.00965147,-5.89969
-462,-538,0.147949,6.03198,-0.0164946,0.119361,0.03253,0.126748,-0.0238821,1.34749,0.093482,0.0468212,762,1562,0.147933,-6.032
-455,-538,0.235779,6.23499,-0.0139385,0.0964383,0.0272951,0.102819,-0.0203195,1.34114,0.0762274,0.0392138,769,1562,0.235801,-6.235
-448,-538,0.264526,6.33289,-0.0115959,0.0755824,0.0220375,0.0808365,-0.01685,1.33675,0.0602976,0.0155672,776,1562,0.264514,-6.33288
-441,-538,0.227295,6.57886,-0.00916991,0.0570548,0.0172139,0.0612619,-0.0133771,1.33109,0.045954,0.0144697,783,1562,0.227278,-6.57892
-434,-538,0.200867,6.79639,-0.00731905,0.0411008,0.0127759,0.0442651,-0.0104833,1.32801,0.0335548,0.0119205,790,1562,0.200861,-6.79634
-427,-538,0.194214,7.01648,-0.00502095,0.0276337,0.00898335,0.0299419,-0.00732913,1.3193,0.0228004,0.0130215,797,1562,0.194191,-7.01647
-420,-538,0.190247,7.23291,-0.00281458,0.0151287,0.0064083,0.0171823,-0.00486821,1.26067,0.0133762,0.0168079,804,1562,0.190264,-7.23293
-413,-538,0.191406,7.44666,-0.00176794,0.00743568,0.00369594,0.00873613,-0.00306838,1.23247,0.00707235,0.0172876,811,1562,0.191411,-7.44665
-406,-538,0.19043,7.65051,-0.000667617,0.00310083,0.00135005,0.00353457,-0.00110135,1.25994,0.00279674,0.0141569,818,1562,0.190413,-7.65047
-399,-538,0.187927,7.86121,0.000170221,0.000901102,0.000448333,0.00111406,-4.27408e-05,1.12734,0.000757358,0.0136369,825,1562,0.187897,-7.86121
-392,-538,0.201294,8.08154,0.000773293,8.17462e-05,0.000264146,0.000862643,-7.60405e-06,0.326178,0.000577647,0.0147122,832,1562,0.201301,-8.08156
-385,-538,0.178528,8.31201,0.00144242,-0.000177622,0.000418759,0.00154426,-0.000279463,0.238567,0.00113419,0.0117623,839,1562,0.178537,-8.31204
-378,-538,0.179443,8.53235,0.0018861,0.000484017,0.00104181,0.00244078,-7.06557e-05,0.489241,0.00165124,0.00943346,846,1562,0.179422,-8.53237
-371,-538,0.173218,8.7395,0.00226358,0.0027139,0.00189061,0.00439271,0.000584768,0.844666,0.00275432,0.0110524,853,1562,0.173224,-8.73944
-364,-538,0.207092,8.96326,0.00275668,0.00495775,0.00294807,0.00700401,0.000710419,0.964041,0.00445147,0.0105229,860,1562,0.207062,-8.9632
-357,-538,0.208557,9.12524,0.00323828,0.00834561,0.00445577,0.0109276,0.00065628,1.04561,0.00707647,0.0189034,867,1562,0.208543,-9.12521
-350,-538,0.213562,9.1886,0.00503709,0.0110916,0.00559074,0.0144221,0.00170663,1.03354,0.00909934,0.0326122,874,1562,0.213539,-9.18858
-343,-538,0.421631,9.51245,0.00623141,0.0157366,0.00733515,0.0197242,0.00224378,1.07285,0.012469,0.0420425,881,1562,0.421602,-9.5124
-336,-538,0.873413,10.042,0.00768819,0.0208041,0.00888556,0.0252897,0.0032026,1.1033,0.0159002,0.0424378,888,1562,0.873416,-10.042
-329,-538,0.84845,10.6865,0.0097608,0.0258875,0.0104681,0.0310377,0.0046106,1.11358,0.019339,0.0430364,895,1562,0.848468,-10.6865
-322,-538,0.385498,10.59,0.0117439,0.0306313,0.0113599,0.0359602,0.00641494,1.13217,0.0221471,0.0417935,902,1562,0.385512,-10.59
-315,-538,0.370361,9.98474,0,0,0,0,0,0,0,-1,909,1562,0.37038,-9.98468
-308,-538,-1.36841,10.2057,0,0,0,0,0,0,0,-1,916,1562,-1.36841,-10.2057
-301,-538,-0.686829,10.5295,0.0226394,0.0329854,0.00615862,0.0358553,0.0197695,1.13472,0.0207375,0.0449722,923,1562,-0.686856,-10.5295
-294,-538,-0.0413818,10.7646,0,0,0,0,0,0,0,-1,930,1562,-0.0414001,-10.7647
-287,-538,0.768677,11.1807,0,0,0,0,0,0,0,-1,937,1562,0.768704,-11.1807
-280,-538,-4.0293,11.8911,0,0,0,0,0,0,0,-1,944,1562,-4.02932,-11.8911
-273,-538,-4.85803,13.4651,0,0,0,0,0,0,0,-1,951,1562,-4.85802,-13.4651
-266,-538,-5.69073,14.9116,0,0,0,0,0,0,0,-1,958,1562,-5.69073,-14.9116
-259,-538,-6.21277,16.2444,0,0,0,0,0,0,0,-1,965,1562,-6.21275,-16.2444
-252,-538,0,0,0,0,0,0,0,0,0,-1,972,1562,0,0
-245,-538,0,0,0,0,0,0,0,0,0,-1,979,1562,0,0
-238,-538,0,0,0,0,0,0,0,0,0,-1,986,1562,0,0
-231,-538,0,0,0,0,0,0,0,0,0,-1,993,1562,0,0
-224,-538,0,0,0,0,0,0,0,0,0,-1,1000,1562,0,0
-217,-538,0,0,0,0,0,0,0,0,0,-1,1007,1562,0,0
-210,-538,0,0,0,0,0,0,0,0,0,-1,1014,1562,0,0
-203,-538,0,0,0,0,0,0,0,0,0,-1,1021,1562,0,0
-196,-538,0,0,0,0,0,0,0,0,0,-1,1028,1562,0,0
-189,-538,0,0,0,0,0,0,0,0,0,-1,1035,1562,0,0
-182,-538,0,0,0,0,0,0,0,0,0,-1,1042,1562,0,0
-175,-538,0,0,0,0,0,0,0,0,0,-1,1049,1562,0,0
-168,-538,0,0,0,0,0,0,0,0,0,-1,1056,1562,0,0
-161,-538,0,0,0,0,0,0,0,0,0,-1,1063,1562,0,0
-154,-538,0,0,0,0,0,0,0,0,0,-1,1070,1562,0,0
-147,-538,0,0,0,0,0,0,0,0,0,-1,1077,1562,0,0
-140,-538,0,0,0,0,0,0,0,0,0,-1,1084,1562,0,0
-133,-538,0,0,0,0,0,0,0,0,0,-1,1091,1562,0,0
-126,-538,0,0,0,0,0,0,0,0,0,-1,1098,1562,0,0
-119,-538,0,0,0,0,0,0,0,0,0,-1,1105,1562,0,0
-112,-538,0,0,0,0,0,0,0,0,0,-1,1112,1562,0,0
-105,-538,0,0,0,0,0,0,0,0,0,-1,1119,1562,0,0
-98,-538,0,0,0,0,0,0,0,0,0,-1,1126,1562,0,0
-91,-538,0,0,0,0,0,0,0,0,0,-1,1133,1562,0,0
-84,-538,0,0,0,0,0,0,0,0,0,-1,1140,1562,0,0
-77,-538,0,0,0,0,0,0,0,0,0,-1,1147,1562,0,0
-70,-538,0,0,0,0,0,0,0,0,0,-1,1154,1562,0,0
-63,-538,0,0,0,0,0,0,0,0,0,-1,1161,1562,0,0
-56,-538,0,0,0,0,0,0,0,0,0,-1,1168,1562,0,0
-49,-538,0,0,0,0,0,0,0,0,0,-1,1175,1562,0,0
-42,-538,0,0,0,0,0,0,0,0,0,-1,1182,1562,0,0
-35,-538,0,0,0,0,0,0,0,0,0,-1,1189,1562,0,0
-28,-538,0,0,0,0,0,0,0,0,0,-1,1196,1562,0,0
-21,-538,0,0,0,0,0,0,0,0,0,-1,1203,1562,0,0
-14,-538,0,0,0,0,0,0,0,0,0,-1,1210,1562,0,0
-7,-538,0,0,0,0,0,0,0,0,0,-1,1217,1562,0,0
0,-538,0,0,0,0,0,0,0,0,0,-1,1224,1562,0,0
7,-538,0,0,0,0,0,0,0,0,0,-1,1231,1562,0,0
14,-538,0,0,0,0,0,0,0,0,0,-1,1238,1562,0,0
21,-538,0,0,0,0,0,0,0,0,0,-1,1245,1562,0,0
28,-538,0,0,0,0,0,0,0,0,0,-1,1252,1562,0,0
35,-538,0,0,0,0,0,0,0,0,0,-1,1259,1562,0,0
42,-538,0,0,0,0,0,0,0,0,0,-1,1266,1562,0,0
49,-538,0,0,0,0,0,0,0,0,0,-1,1273,1562,0,0
56,-538,0,0,0,0,0,0,0,0,0,-1,1280,1562,0,0
63,-538,0,0,0,0,0,0,0,0,0,-1,1287,1562,0,0
70,-538,0,0,0,0,0,0,0,0,0,-1,1294,1562,0,0
77,-538,0,0,0,0,0,0,0,0,0,-1,1301,1562,0,0
84,-538,0,0,0,0,0,0,0,0,0,-1,1308,1562,0,0
91,-538,0,0,0,0,0,0,0,0,0,-1,1315,1562,0,0
98,-538,0,0,0,0,0,0,0,0,0,-1,1322,1562,0,0
105,-538,0,0,0,0,0,0,0,0,0,-1,1329,1562,0,0
112,-538,0,0,0,0,0,0,0,0,0,-1,1336,1562,0,0
119,-538,0,0,0,0,0,0,0,0,0,-1,1343,1562,0,0
126,-538,0,0,0,0,0,0,0,0,0,-1,1350,1562,0,0
133,-538,0,0,0,0,0,0,0,0,0,-1,1357,1562,0,0
140,-538,0,0,0,0,0,0,0,0,0,-1,1364,1562,0,0
147,-538,0,0,0,0,0,0,0,0,0,-1,1371,1562,0,0
154,-538,0,0,0,0,0,0,0,0,0,-1,1378,1562,0,0
161,-538,0,0,0,0,0,0,0,0,0,-1,1385,1562,0,0
168,-538,0,0,0,0,0,0,0,0,0,-1,1392,1562,0,0
175,-538,0,0,0,0,0,0,0,0,0,-1,1399,1562,0,0
182,-538,0,0,0,0,0,0,0,0,0,-1,1406,1562,0,0
189,-538,0,0,0,0,0,0,0,0,0,-1,1413,1562,0,0
196,-538,0,0,0,0,0,0,0,0,0,-1,1420,1562,0,0
203,-538,0,0,0,0,0,0,0,0,0,-1,1427,1562,0,0
210,-538,0,0,0,0,0,0,0,0,0,-1,1434,1562,0,0
217,-538,0,0,0,0,0,0,0,0,0,-1,1441,1562,0,0
224,-538,0,0,0,0,0,0,0,0,0,-1,1448,1562,0,0
231,-538,0,0,0,0,0,0,0,0,0,-1,1455,1562,0,0
238,-538,0,0,0,0,0,0,0,0,0,-1,1462,1562,0,0
245,-538,0,0,0,0,0,0,0,0,0,-1,1469,1562,0,0
252,-538,0,0,0,0,0,0,0,0,0,-1,1476,1562,0,0
259,-538,0,0,0,0,0,0,0,0,0,-1,1483,1562,0,0
266,-538,0,0,0,0,0,0,0,0,0,-1,1490,1562,0,0
273,-538,0,0,0,0,0,0,0,0,0,-1,1497,1562,0,0
280,-538,0,0,0,0,0,0,0,0,0,-1,1504,1562,0,0
287,-538,0,0,0,0,0,0,0,0,0,-1,1511,1562,0,0
294,-538,0,0,0,0,0,0,0,0,0,-1,1518,1562,0,0
301,-538,0,0,0,0,0,0,0,0,0,-1,1525,1562,0,0
308,-538,0,0,0,0,0,0,0,0,0,-1,1532,1562,0,0
315,-538,0,0,0,0,0,0,0,0,0,-1,1539,1562,0,0
322,-538,0,0,0,0,0,0,0,0,0,-1,1546,1562,0,0
329,-538,0,0,0,0,0,0,0,0,0,-1,1553,1562,0,0
336,-538,0,0,0,0,0,0,0,0,0,-1,1560,1562,0,0
343,-538,0,0,0,0,0,0,0,0,0,-1,1567,1562,0,0
350,-538,0,0,0,0,0,0,0,0,0,-1,1574,1562,0,0
357,-538,0,0,0,0,0,0,0,0,0,-1,1581,1562,0,0
364,-538,0,0,0,0,0,0,0,0,0,-1,1588,1562,0,0
371,-538,0,0,0,0,0,0,0,0,0,-1,1595,1562,0,0
378,-538,7.65637,4.13477,0,0,0,0,0,0,0,-1,1602,1562,7.65643,-4.13477
385,-538,8.69836,7.6283,0,0,0,0,0,0,0,-1,1609,1562,8.69835,-7.62829
392,-538,8.20361,7.07214,0,0,0,0,0,0,0,-1,1616,1562,8.20362,-7.07211
399,-538,7.85425,4.70508,0,0,0,0,0,0,0,-1,1623,1562,7.85425,-4.70512
406,-538,7.77734,4.96094,0,0,0,0,0,0,0,-1,1630,1562,7.77729,-4.96097
413,-538,13.0446,13.1765,0,0,0,0,0,0,0,-1,1637,1562,13.0446,-13.1765
420,-538,8.45642,8.08704,0,0,0,0,0,0,0,-1,1644,1562,8.45636,-8.08707
427,-538,8.83948,14.4047,0,0,0,0,0,0,0,-1,1651,1562,8.83953,-14.4046
434,-538,9.2345,13.2823,0,0,0,0,0,0,0,-1,1658,1562,9.23449,-13.2824
441,-538,9.48242,12.379,0,0,0,0,0,0,0,-1,1665,1562,9.48237,-12.379
448,-538,9.46716,11.3822,0,0,0,0,0,0,0,-1,1672,1562,9.46719,-11.3821
455,-538,7.69812,9.05994,0,0,0,0,0,0,0,-1,1679,1562,7.6981,-9.05993
462,-538,9.2583,8.88635,0,0,0,0,0,0,0,-1,1686,1562,9.25829,-8.88633
469,-538,9.36084,8.90796,0,0,0,0,0,0,0,-1,1693,1562,9.36078,-8.90801
476,-538,8.56458,9.41467,0,0,0,0,0,0,0,-1,1700,1562,8.56456,-9.41466
483,-538,8.57764,10.4059,-0.034395,-0.0174662,0.0200232,-0.00419182,-0.0476694,0.985372,0.0304786,0.0293726,1707,1562,8.57768,-10.4058
490,-538,8.44092,10.329,-0.0257026,-0.0136529,0.0174797,-0.00118883,-0.0381667,0.95136,0.0250576,0.0138082,1714,1562,8.44094,-10.329
497,-538,8.39539,10.1696,-0.017357,-0.0114392,0.0152175,0.00110445,-0.0299006,0.881421,0.0203119,0.00955258,1721,1562,8.39539,-10.1696
504,-538,8.38391,9.98596,-0.0119204,-0.0079051,0.0130772,0.00331766,-0.0231431,0.861564,0.0166452,0.00897912,1728,1562,8.38393,-9.98595
511,-538,8.38794,9.79785,-0.00964756,-0.00571636,0.00996799,0.00247798,-0.0178419,0.882745,0.0128008,0.00992345,1735,1562,8.38791,-9.79781
518,-538,8.39331,9.6178,-0.00749355,-0.00348652,0.00719747,0.00198109,-0.0129612,0.921143,0.0093712,0.0106779,1742,1562,8.3933,-9.61784
525,-538,8.38013,9.40735,-0.00531034,-0.00207828,0.00490241,0.00146759,-0.00885621,0.944609,0.00644924,0.0110712,1749,1562,8.38016,-9.40732
532,-538,8.39404,9.21057,-0.00319875,-0.00125025,0.00318838,0.0011094,-0.0055584,0.933675,0.00412543,0.0121399,1756,1562,8.394,-9.21059
539,-538,8.39148,9.05933,-0.00127564,-0.000288382,0.00154855,0.000843316,-0.00240734,0.939691,0.00194783,0.0150326,1763,1562,8.39153,-9.05935
546,-538,8.38696,8.87305,0.000228884,0.000578354,0.000151964,0.00063519,0.000172048,1.21289,0.000379347,0.0167342,1770,1562,8.38698,-8.87304
553,-538,8.41772,8.64514,0.00147997,0.0018364,-0.00101147,0.00268524,0.000631138,-0.872601,0.00162126,0.0271853,1777,1562,8.41776,-8.64513
560,-538,8.40454,8.47388,0.00252932,0.00347276,-0.00220356,0.00525452,0.000747558,-0.890842,0.00328233,0.0289373,1784,1562,8.40456,-8.47392
567,-538,8.36182,8.27612,0.00311776,0.005127,-0.00329452,0.00756667,0.00067809,-0.933388,0.00483429,0.0197199,1791,1562,8.36182,-8.27612
574,-538,8.39417,8.03931,0.00329089,0.00723502,-0.00449528,0.0101718,0.000354132,-0.992106,0.00666628,0.0115689,1798,1562,8.39413,-8.03926
581,-538,8.43262,7.82581,0.00301578,0.0100397,-0.00586146,0.0133608,-0.000305318,-1.0553,0.00901068,0.0132685,1805,1562,8.43257,-7.82577
588,-538,8.44153,7.59204,0.00265127,0.0136429,-0.0075954,0.0175222,-0.00122811,-1.09858,0.0121116,0.0302278,1812,1562,8.44158,-7.592
595,-538,8.30286,6.99231,0.00194427,0.0183802,-0.00962477,0.0228181,-0.00249364,-1.13876,0.0161078,0.0446719,1819,1562,8.30285,-6.99237
602,-538,8.09448,6.51428,0,0,0,0,0,0,0,-1,1826,1562,8.09454,-6.51428
609,-538,8.33191,7.06824,0,0,0,0,0,0,0,-1,1833,1562,8.33192,-7.0682
616,-538,9.92249,5.43506,0,0,0,0,0,0,0,-1,1840,1562,9.92254,-5.43507
623,-538,11.1711,4.31604,0,0,0,0,0,0,0,-1,1847,1562,11.1711,-4.316
630,-538,12.6112,2.61633,0,0,0,0,0,0,0,-1,1854,1562,12.6112,-2.61637
637,-538,0,0,0,0,0,0,0,0,0,-1,1861,1562,0,0
644,-538,0,0,0,0,0,0,0,0,0,-1,1868,1562,0,0
651,-538,0,0,0,0,0,0,0,0,0,-1,1875,1562,0,0
658,-538,0,0,0,0,0,0,0,0,0,-1,1882,1562,0,0
665,-538,0,0,0,0,0,0,0,0,0,-1,1889,1562,0,0
672,-538,0,0,0,0,0,0,0,0,0,-1,1896,1562,0,0
679,-538,0,0,0,0,0,0,0,0,0,-1,1903,1562,0,0
686,-538,0,0,0,0,0,0,0,0,0,-1,1910,1562,0,0
693,-538,0,0,0,0,0,0,0,0,0,-1,1917,1562,0,0
700,-538,0,0,0,0,0,0,0,0,0,-1,1924,1562,0,0
707,-538,0,0,0,0,0,0,0,0,0,-1,1931,1562,0,0
714,-538,0,0,0,0,0,0,0,0,0,-1,1938,1562,0,0
721,-538,0,0,0,0,0,0,0,0,0,-1,1945,1562,0,0
728,-538,0,0,0,0,0,0,0,0,0,-1,1952,1562,0,0
735,-538,0,0,0,0,0,0,0,0,0,-1,1959,1562,0,0
742,-538,0,0,0,0,0,0,0,0,0,-1,1966,1562,0,0
749,-538,0,0,0,0,0,0,0,0,0,-1,1973,1562,0,0
756,-538,0,0,0,0,0,0,0,0,0,-1,1980,1562,0,0
763,-538,0,0,0,0,0,0,0,0,0,-1,1987,1562,0,0
770,-538,0,0,0,0,0,0,0,0,0,-1,1994,1562,0,0
777,-538,0,0,0,0,0,0,0,0,0,-1,2001,1562,0,0
784,-538,0,0,0,0,0,0,0,0,0,-1,2008,1562,0,0
791,-538,0,0,0,0,0,0,0,0,0,-1,2015,1562,0,0
798,-538,0,0,0,0,0,0,0,0,0,-1,2022,1562,0,0
805,-538,0,0,0,0,0,0,0,0,0,-1,2029,1562,0,0
812,-538,0,0,0,0,0,0,0,0,0,-1,2036,1562,0,0
-700,-545,0,0,0,0,0,0,0,0,0,-1,524,1569,0,0
-693,-545,0,0,0,0,0,0,0,0,0,-1,531,1569,0,0
-686,-545,0,0,0,0,0,0,0,0,0,-1,538,1569,0,0
-679,-545,0,0,0,0,0,0,0,0,0,-1,545,1569,0,0
-672,-545,0,0,0,0,0,0,0,0,0,-1,552,1569,0,0
-665,-545,0,0,0,0,0,0,0,0,0,-1,559,1569,0,0
-658,-545,0,0,0,0,0,0,0,0,0,-1,566,1569,0,0
-651,-545,0,0,0,0,0,0,0,0,0,-1,573,1569,0,0
-644,-545,0,0,0,0,0,0,0,0,0,-1,580,1569,0,0
-637,-545,0,0,0,0,0,0,0,0,0,-1,587,1569,0,0
-630,-545,0,0,0,0,0,0,0,0,0,-1,594,1569,0,0
-623,-545,0,0,0,0,0,0,0,0,0,-1,601,1569,0,0
-616,-545,0,0,0,0,0,0,0,0,0,-1,608,1569,0,0
-609,-545,0,0,0,0,0,0,0,0,0,-1,615,1569,0,0
-602,-545,0,0,0,0,0,0,0,0,0,-1,622,1569,0,0
-595,-545,0,0,0,0,0,0,0,0,0,-1,629,1569,0,0
-588,-545,0,0,0,0,0,0,0,0,0,-1,636,1569,0,0
-581,-545,0,0,0,0,0,0,0,0,0,-1,643,1569,0,0
-574,-545,0,0,0,0,0,0,0,0,0,-1,650,1569,0,0
-567,-545,0,0,0,0,0,0,0,0,0,-1,657,1569,0,0
-560,-545,0,0,0,0,0,0,0,0,0,-1,664,1569,0,0
-553,-545,0,0,0,0,0,0,0,0,0,-1,671,1569,0,0
-546,-545,0,0,0,0,0,0,0,0,0,-1,678,1569,0,0
-539,-545,0,0,0,0,0,0,0,0,0,-1,685,1569,0,0
-532,-545,0,0,0,0,0,0,0,0,0,-1,692,1569,0,0
-525,-545,0,0,0,0,0,0,0,0,0,-1,699,1569,0,0
-518,-545,0,0,0,0,0,0,0,0,0,-1,706,1569,0,0
-511,-545,0,0,0,0,0,0,0,0,0,-1,713,1569,0,0
-504,-545,-3.55237,-2.5354,0,0,0,0,0,0,0,-1,720,1569,-3.55236,2.53545
-497,-545,0.119141,5.68481,0,0,0,0,0,0,0,-1,727,1569,0.119132,-5.68483
-490,-545,8.06738,2.2854,0,0,0,0,0,0,0,-1,734,1569,8.06738,-2.28535
-483,-545,6.8822,4.37659,0,0,0,0,0,0,0,-1,741,1569,6.88222,-4.37664
-476,-545,-0.373413,5.57214,-0.0315459,0.217429,0.0607612,0.231466,-0.045583,1.34376,0.171536,0.0452136,748,1569,-0.373391,-5.57212
-469,-545,-0.124451,5.01147,-0.0276793,0.185004,0.0540862,0.197968,-0.0406434,1.33554,0.147406,0.0454855,755,1569,-0.124446,-5.01145
-462,-545,0.499023,5.93469,0,0,0,0,0,0,0,-1,762,1569,0.499029,-5.93475
-455,-545,0.478333,6.27405,0,0,0,0,0,0,0,-1,769,1569,0.478307,-6.27407
-448,-545,0.543701,6.27112,-0.0165057,0.0994088,0.0324042,0.107852,-0.0249493,1.31589,0.0815011,0.0275438,776,1569,0.543705,-6.27115
-441,-545,0.47821,6.62659,-0.013055,0.0757921,0.0254195,0.0825506,-0.0198135,1.31093,0.0626907,0.0172689,783,1569,0.478196,-6.62654
-434,-545,0.408936,6.81433,-0.0101809,0.0549354,0.01888,0.0600135,-0.015259,1.30805,0.0459478,0.0142008,790,1569,0.408917,-6.8143
-427,-545,0.411865,7.01904,-0.00707374,0.0373238,0.0133362,0.0410217,-0.0107717,1.30031,0.0315572,0.0163718,797,1569,0.411842,-7.01906
-420,-545,0.429321,7.21973,-0.00419117,0.0210668,0.00935111,0.024152,-0.00727633,1.25212,0.0189971,0.0229337,804,1569,0.42935,-7.2197
-413,-545,0.412109,7.44031,-0.00272029,0.0107517,0.00532941,0.012605,-0.0045736,1.23613,0.010273,0.0223732,811,1569,0.412083,-7.44027
-406,-545,0.418457,7.6532,-0.00115473,0.00450762,0.00191518,0.00509456,-0.00174166,1.27342,0.00410208,0.0163793,818,1569,0.418471,-7.65319
-399,-545,0.409241,7.85706,2.72635e-05,0.00118143,0.000502756,0.00136972,-0.000161021,1.21246,0.000971278,0.0112037,825,1569,0.409226,-7.85707
-392,-545,0.411255,8.08313,0.000671952,0.000156076,0.000212097,0.000747955,8.00717e-05,0.34409,0.000474205,0.0112453,832,1569,0.411258,-8.08313
-385,-545,0.411865,8.31409,0.00132217,-0.0002475,0.000245592,0.0013597,-0.000285028,0.151634,0.00101491,0.00936562,839,1569,0.411894,-8.31403
-378,-545,0.395996,8.54431,0.00177041,0.000185782,0.000729313,0.00205497,-9.87783e-05,0.372009,0.00140407,0.0109937,846,1569,0.39601,-8.54427
-371,-545,0.378967,8.75684,0.00216668,0.00180961,0.00136737,0.00336712,0.000609163,0.720482,0.00207176,0.0152469,853,1569,0.378941,-8.75685
-364,-545,0.40033,8.94824,0.00263262,0.00356903,0.00219738,0.00534754,0.000854114,0.890366,0.00331718,0.0094915,860,1569,0.400349,-8.9483
-357,-545,0.426392,9.16394,0.00310946,0.00616027,0.00337606,0.00833954,0.000930183,0.997585,0.00527703,0.010388,867,1569,0.426369,-9.16392
-350,-545,0.440979,9.35339,0.00455413,0.00841011,0.00430298,0.0111973,0.00176695,0.996018,0.00695114,0.015474,874,1569,0.441008,-9.3534
-343,-545,0.482544,9.48401,0.00545449,0.0119559,0.00569098,0.0152592,0.00215125,1.04489,0.00953692,0.025758,881,1569,0.482568,-9.48401
-336,-545,0.548462,9.66296,0.00649115,0.015952,0.00678148,0.0194899,0.00295324,1.08994,0.0121293,0.0337952,888,1569,0.548452,-9.66293
-329,-545,0.63739,9.92175,0.00797561,0.0199964,0.00790255,0.0239145,0.00405751,1.11051,0.0147774,0.0384526,895,1569,0.637388,-9.92172
-322,-545,0.737305,10.2784,0.00943673,0.0238372,0.00844677,0.0277361,0.0055378,1.13835,0.0169491,0.0448924,902,1569,0.737303,-10.2785
-315,-545,0.932373,10.1442,0,0,0,0,0,0,0,-1,909,1569,0.932347,-10.1441
-308,-545,-0.725281,10.6393,0,0,0,0,0,0,0,-1,916,1569,-0.725251,-10.6393
-301,-545,-0.0686035,10.8163,0,0,0,0,0,0,0,-1,923,1569,-0.0685788,-10.8163
-294,-545,0.589844,11.3713,0,0,0,0,0,0,0,-1,930,1569,0.589819,-11.3714
-287,-545,1.12524,8.00647,0,0,0,0,0,0,0,-1,937,1569,1.12522,-8.00647
-280,-545,0.226746,10.4198,0,0,0,0,0,0,0,-1,944,1569,0.226742,-10.4198
-273,-545,-4.10596,12.3789,0,0,0,0,0,0,0,-1,951,1569,-4.10598,-12.3789
-266,-545,-5.10779,14.1372,0,0,0,0,0,0,0,-1,958,1569,-5.10778,-14.1372
-259,-545,-3.98706,7.8916,0,0,0,0,0,0,0,-1,965,1569,-3.98704,-7.89159
-252,-545,-4.75641,8.30005,0,0,0,0,0,0,0,-1,972,1569,-4.75641,-8.3001
-245,-545,0.484619,5.7207,0,0,0,0,0,0,0,-1,979,1569,0.484599,-5.72068
-238,-545,0,0,0,0,0,0,0,0,0,-1,986,1569,0,0
-231,-545,0,0,0,0,0,0,0,0,0,-1,993,1569,0,0
-224,-545,0,0,0,0,0,0,0,0,0,-1,1000,1569,0,0
-217,-545,0,0,0,0,0,0,0,0,0,-1,1007,1569,0,0
-210,-545,0,0,0,0,0,0,0,0,0,-1,1014,1569,0,0
-203,-545,0,0,0,0,0,0,0,0,0,-1,1021,1569,0,0
-196,-545,0,0,0,0,0,0,0,0,0,-1,1028,1569,0,0
-189,-545,0,0,0,0,0,0,0,0,0,-1,1035,1569,0,0
-182,-545,0,0,0,0,0,0,0,0,0,-1,1042,1569,0,0
-175,-545,0,0,0,0,0,0,0,0,0,-1,1049,1569,0,0
-168,-545,0,0,0,0,0,0,0,0,0,-1,1056,1569,0,0
-161,-545,0,0,0,0,0,0,0,0,0,-1,1063,1569,0,0
-154,-545,0,0,0,0,0,0,0,0,0,-1,1070,1569,0,0
-147,-545,0,0,0,0,0,0,0,0,0,-1,1077,1569,0,0
-140,-545,0,0,0,0,0,0,0,0,0,-1,1084,1569,0,0
-133,-545,0,0,0,0,0,0,0,0,0,-1,1091,1569,0,0
-126,-545,0,0,0,0,0,0,0,0,0,-1,1098,1569,0,0
-119,-545,0,0,0,0,0,0,0,0,0,-1,1105,1569,0,0
-112,-545,0,0,0,0,0,0,0,0,0,-1,1112,1569,0,0
-105,-545,0,0,0,0,0,0,0,0,0,-1,1119,1569,0,0
-98,-545,0,0,0,0,0,0,0,0,0,-1,1126,1569,0,0
-91,-545,0,0,0,0,0,0,0,0,0,-1,1133,1569,0,0
-84,-545,0,0,0,0,0,0,0,0,0,-1,1140,1569,0,0
-77,-545,0,0,0,0,0,0,0,0,0,-1,1147,1569,0,0
-70,-545,0,0,0,0,0,0,0,0,0,-1,1154,1569,0,0
-63,-545,0,0,0,0,0,0,0,0,0,-1,1161,1569,0,0
-56,-545,0,0,0,0,0,0,0,0,0,-1,1168,1569,0,0
-49,-545,0,0,0,0,0,0,0,0,0,-1,1175,1569,0,0
-42,-545,0,0,0,0,0,0,0,0,0,-1,1182,1569,0,0
-35,-545,0,0,0,0,0,0,0,0,0,-1,1189,1569,0,0
-28,-545,0,0,0,0,0,0,0,0,0,-1,1196,1569,0,0
-21,-545,0,0,0,0,0,0,0,0,0,-1,1203,1569,0,0
-14,-545,0,0,0,0,0,0,0,0,0,-1,1210,1569,0,0
-7,-545,0,0,0,0,0,0,0,0,0,-1,1217,1569,0,0
0,-545,0,0,0,0,0,0,0,0,0,-1,1224,1569,0,0
7,-545,0,0,0,0,0,0,0,0,0,-1,1231,1569,0,0
14,-545,0,0,0,0,0,0,0,0,0,-1,1238,1569,0,0
21,-545,0,0,0,0,0,0,0,0,0,-1,1245,1569,0,0
28,-545,0,0,0,0,0,0,0,0,0,-1,1252,1569,0,0
35,-545,0,0,0,0,0,0,0,0,0,-1,1259,1569,0,0
42,-545,0,0,0,0,0,0,0,0,0,-1,1266,1569,0,0
49,-545,0,0,0,0,0,0,0,0,0,-1,1273,1569,0,0
56,-545,0,0,0,0,0,0,0,0,0,-1,1280,1569,0,0
63,-545,0,0,0,0,0,0,0,0,0,-1,1287,1569,0,0
70,-545,0,0,0,0,0,0,0,0,0,-1,1294,1569,0,0
77,-545,0,0,0,0,0,0,0,0,0,-1,1301,1569,0,0
84,-545,0,0,0,0,0,0,0,0,0,-1,1308,1569,0,0
91,-545,0,0,0,0,0,0,0,0,0,-1,1315,1569,0,0
98,-545,0,0,0,0,0,0,0,0,0,-1,1322,1569,0,0
105,-545,0,0,0,0,0,0,0,0,0,-1,1329,1569,0,0
112,-545,0,0,0,0,0,0,0,0,0,-1,1336,1569,0,0
119,-545,0,0,0,0,0,0,0,0,0,-1,1343,1569,0,0
126,-545,0,0,0,0,0,0,0,0,0,-1,1350,1569,0,0
133,-545,0,0,0,0,0,0,0,0,0,-1,1357,1569,0,0
140,-545,0,0,0,0,0,0,0,0,0,-1,1364,1569,0,0
147,-545,0,0,0,0,0,0,0,0,0,-1,1371,1569,0,0
154,-545,0,0,0,0,0,0,0,0,0,-1,1378,1569,0,0
161,-545,0,0,0,0,0,0,0,0,0,-1,1385,1569,0,0
168,-545,0,0,0,0,0,0,0,0,0,-1,1392,1569,0,0
175,-545,0,0,0,0,0,0,0,0,0,-1,1399,1569,0,0
182,-545,0,0,0,0,0,0,0,0,0,-1,1406,1569,0,0
189,-545,0,0,0,0,0,0,0,0,0,-1,1413,1569,0,0
196,-545,0,0,0,0,0,0,0,0,0,-1,1420,1569,0,0
203,-545,0,0,0,0,0,0,0,0,0,-1,1427,1569,0,0
210,-545,0,0,0,0,0,0,0,0,0,-1,1434,1569,0,0
217,-545,0,0,0,0,0,0,0,0,0,-1,1441,1569,0,0
224,-545,0,0,0,0,0,0,0,0,0,-1,1448,1569,0,0
231,-545,0,0,0,0,0,0,0,0,0,-1,1455,1569,0,0
238,-545,0,0,0,0,0,0,0,0,0,-1,1462,1569,0,0
245,-545,0,0,0,0,0,0,0,0,0,-1,1469,1569,0,0
252,-545,0,0,0,0,0,0,0,0,0,-1,1476,1569,0,0
259,-545,0,0,0,0,0,0,0,0,0,-1,1483,1569,0,0
266,-545,0,0,0,0,0,0,0,0,0,-1,1490,1569,0,0
273,-545,0,0,0,0,0,0,0,0,0,-1,1497,1569,0,0
280,-545,0,0,0,0,0,0,0,0,0,-1,1504,1569,0,0
287,-545,0,0,0,0,0,0,0,0,0,-1,1511,1569,0,0
294,-545,0,0,0,0,0,0,0,0,0,-1,1518,1569,0,0
301,-545,0,0,0,0,0,0,0,0,0,-1,1525,1569,0,0
308,-545,0,0,0,0,0,0,0,0,0,-1,1532,1569,0,0
315,-545,0,0,0,0,0,0,0,0,0,-1,1539,1569,0,0
322,-545,0,0,0,0,0,0,0,0,0,-1,1546,1569,0,0
329,-545,0,0,0,0,0,0,0,0,0,-1,1553,1569,0,0
336,-545,0,0,0,0,0,0,0,0,0,-1,1560,1569,0,0
343,-545,0,0,0,0,0,0,0,0,0,-1,1567,1569,0,0
350,-545,0,0,0,0,0,0,0,0,0,-1,1574,1569,0,0
357,-545,0,0,0,0,0,0,0,0,0,-1,1581,1569,0,0
364,-545,6.81482,4.60962,0,0,0,0,0,0,0,-1,1588,1569,6.81479,-4.60956
371,-545,7.82324,3.84302,0,0,0,0,0,0,0,-1,1595,1569,7.82324,-3.84307
378,-545,7.24146,4.54224,0,0,0,0,0,0,0,-1,1602,1569,7.24145,-4.54226
385,-545,8.58447,1.16125,0,0,0,0,0,0,0,-1,1609,1569,8.5845,-1.1612
392,-545,12.5654,3.89526,0,0,0,0,0,0,0,-1,1616,1569,12.5655,-3.89532
399,-545,11.5869,5.6333,0,0,0,0,0,0,0,-1,1623,1569,11.5869,-5.63326
406,-545,11.234,6.36414,0,0,0,0,0,0,0,-1,1630,1569,11.234,-6.3641
413,-545,12.1521,13.4817,0,0,0,0,0,0,0,-1,1637,1569,12.1521,-13.4817
420,-545,9.23816,9.77368,0,0,0,0,0,0,0,-1,1644,1569,9.2382,-9.77372
427,-545,10.731,10.9978,0,0,0,0,0,0,0,-1,1651,1569,10.731,-10.9978
434,-545,11.7477,11.1802,0,0,0,0,0,0,0,-1,1658,1569,11.7477,-11.1801
441,-545,12.6523,12.0104,0,0,0,0,0,0,0,-1,1665,1569,12.6524,-12.0104
448,-545,8.64734,9.55591,0,0,0,0,0,0,0,-1,1672,1569,8.64728,-9.55587
455,-545,9.0437,9.77185,0,0,0,0,0,0,0,-1,1679,1569,9.04368,-9.77184
462,-545,8.76672,9.69739,-0.0668828,-0.0280616,0.0160683,-0.0222738,-0.0726707,1.22506,0.0429909,0.0441564,1686,1569,8.76677,-9.69743
469,-545,8.80542,10.0251,-0.0500634,-0.0238072,0.0166395,-0.0157405,-0.0581301,1.11939,0.0347171,0.0459569,1693,1569,8.80536,-10.0251
476,-545,8.42542,10.1812,0,0,0,0,0,0,0,-1,1700,1569,8.42536,-10.1812
483,-545,8.21704,10.5221,-0.0271362,-0.0158276,0.0146551,-0.00577384,-0.03719,0.969511,0.0231104,0.0132963,1707,1569,8.21708,-10.5221
490,-545,8.20422,10.3496,-0.0199674,-0.0122499,0.0128104,-0.00272972,-0.0294876,0.931686,0.0188146,0.0112549,1714,1569,8.20421,-10.3496
497,-545,8.20068,10.1836,-0.0128617,-0.0101397,0.0111426,-0.000275248,-0.0227261,0.846168,0.0150598,0.0166461,1721,1569,8.20074,-10.1837
504,-545,8.21021,9.99207,-0.00819701,-0.00680421,0.00965745,0.00218192,-0.0171831,0.821391,0.0122477,0.0153532,1728,1569,8.21024,-9.99209
511,-545,8.21265,9.78516,-0.00638309,-0.00470157,0.00720176,0.00170834,-0.012793,0.843507,0.00915142,0.0107859,1735,1569,8.21263,-9.78518
518,-545,8.22095,9.59521,-0.0046315,-0.00257116,0.00495278,0.00145745,-0.00866011,0.887936,0.00631553,0.0120345,1742,1569,8.22099,-9.59525
525,-545,8.20703,9.40369,-0.00281369,-0.00122713,0.00309268,0.00117239,-0.00521322,0.910943,0.00392508,0.0127099,1749,1569,8.20705,-9.4037
532,-545,8.19678,9.22009,-0.00102802,-0.000437139,0.0017099,0.00100265,-0.00246781,0.870945,0.00206234,0.0132763,1756,1569,8.19674,-9.22015
539,-545,8.18994,9.07361,0.000594021,0.000396854,0.000364955,0.000873473,0.000117403,0.653484,0.000547394,0.0160676,1763,1569,8.18998,-9.07364
546,-545,8.18481,8.88831,0.00185137,0.00131726,-0.000790078,0.00241831,0.000750326,-0.622422,0.00142932,0.0177475,1770,1569,8.18476,-8.88832
553,-545,8.22327,8.64819,0.00295205,0.00250534,-0.00185117,0.00459329,0.000864101,-0.725359,0.00281866,0.0256647,1777,1569,8.22326,-8.6482
560,-545,8.24243,8.38098,0.00383077,0.00413913,-0.00295449,0.00694346,0.00102644,-0.811467,0.00432759,0.0259799,1784,1569,8.24242,-8.38104
567,-545,8.1178,8.25562,0.00426812,0.00587408,-0.00399884,0.00914977,0.000992434,-0.884482,0.00579742,0.0371159,1791,1569,8.11786,-8.25557
574,-545,8.14636,8.05725,0.00433104,0.00822291,-0.00531644,0.0119384,0.000615593,-0.960836,0.00776185,0.0310119,1798,1569,8.14634,-8.0573
581,-545,8.28711,7.81531,0.00407598,0.0113499,-0.00699351,0.0155956,-0.000169752,-1.02518,0.0104541,0.0404639,1805,1569,8.2871,-7.81526
588,-545,8.32117,7.59119,0.00380458,0.0155436,-0.00918109,0.020571,-0.00122288,-1.06981,0.0141393,0.0495343,1812,1569,8.32122,-7.59122
595,-545,8.19019,6.74609,0,0,0,0,0,0,0,-1,1819,1569,8.19025,-6.74613
602,-545,8.82117,6.32214,0,0,0,0,0,0,0,-1,1826,1569,8.82121,-6.32217
609,-545,10.2406,5.22351,0,0,0,0,0,0,0,-1,1833,1569,10.2406,-5.22353
616,-545,11.701,3.93188,0,0,0,0,0,0,0,-1,1840,1569,11.701,-3.93191
623,-545,13.2139,2.32043,0,0,0,0,0,0,0,-1,1847,1569,13.2139,-2.32042
630,-545,0,0,0,0,0,0,0,0,0,-1,1854,1569,0,0
637,-545,0,0,0,0,0,0,0,0,0,-1,1861,1569,0,0
644,-545,0,0,0,0,0,0,0,0,0,-1,1868,1569,0,0
651,-545,0,0,0,0,0,0,0,0,0,-1,1875,1569,0,0
658,-545,0,0,0,0,0,0,0,0,0,-1,1882,1569,0,0
665,-545,0,0,0,0,0,0,0,0,0,-1,1889,1569,0,0
672,-545,0,0,0,0,0,0,0,0,0,-1,1896,1569,0,0
679,-545,0,0,0,0,0,0,0,0,0,-1,1903,1569,0,0
686,-545,0,0,0,0,0,0,0,0,0,-1,1910,1569,0,0
693,-545,0,0,0,0,0,0,0,0,0,-1,1917,1569,0,0
700,-545,0,0,0,0,0,0,0,0,0,-1,1924,1569,0,0
707,-545,0,0,0,0,0,0,0,0,0,-1,1931,1569,0,0
714,-545,0,0,0,0,0,0,0,0,0,-1,1938,1569,0,0
721,-545,0,0,0,0,0,0,0,0,0,-1,1945,1569,0,0
728,-545,0,0,0,0,0,0,0,0,0,-1,1952,1569,0,0
735,-545,0,0,0,0,0,0,0,0,0,-1,1959,1569,0,0
742,-545,0,0,0,0,0,0,0,0,0,-1,1966,1569,0,0
749,-545,0,0,0,0,0,0,0,0,0,-1,1973,1569,0,0
756,-545,0,0,0,0,0,0,0,0,0,-1,1980,1569,0,0
763,-545,0,0,0,0,0,0,0,0,0,-1,1987,1569,0,0
770,-545,0,0,0,0,0,0,0,0,0,-1,1994,1569,0,0
777,-545,0,0,0,0,0,0,0,0,0,-1,2001,1569,0,0
784,-545,0,0,0,0,0,0,0,0,0,-1,2008,1569,0,0
791,-545,0,0,0,0,0,0,0,0,0,-1,2015,1569,0,0
798,-545,0,0,0,0,0,0,0,0,0,-1,2022,1569,0,0
805,-545,0,0,0,0,0,0,0,0,0,-1,2029,1569,0,0
812,-545,0,0,0,0,0,0,0,0,0,-1,2036,1569,0,0
-700,-552,0,0,0,0,0,0,0,0,0,-1,524,1576,0,0
-693,-552,0,0,0,0,0,0,0,0,0,-1,531,1576,0,0
-686,-552,0,0,0,0,0,0,0,0,0,-1,538,1576,0,0
-679,-552,0,0,0,0,0,0,0,0,0,-1,545,1576,0,0
-672,-552,0,0,0,0,0,0,0,0,0,-1,552,1576,0,0
-665,-552,0,0,0,0,0,0,0,0,0,-1,559,1576,0,0
-658,-552,0,0,0,0,0,0,0,0,0,-1,566,1576,0,0
-651,-552,0,0,0,0,0,0,0,0,0,-1,573,1576,0,0
-644,-552,0,0,0,0,0,0,0,0,0,-1,580,1576,0,0
-637,-552,0,0,0,0,0,0,0,0,0,-1,587,1576,0,0
-630,-552,0,0,0,0,0,0,0,0,0,-1,594,1576,0,0
-623,-552,0,0,0,0,0,0,0,0,0,-1,601,1576,0,0
-616,-552,0,0,0,0,0,0,0,0,0,-1,608,1576,0,0
-609,-552,0,0,0,0,0,0,0,0,0,-1,615,1576,0,0
-602,-552,0,0,0,0,0,0,0,0,0,-1,622,1576,0,0
-595,-552,0,0,0,0,0,0,0,0,0,-1,629,1576,0,0
-588,-552,0,0,0,0,0,0,0,0,0,-1,636,1576,0,0
-581,-552,0,0,0,0,0,0,0,0,0,-1,643,1576,0,0
-574,-552,0,0,0,0,0,0,0,0,0,-1,650,1576,0,0
-567,-552,0,0,0,0,0,0,0,0,0,-1,657,1576,0,0
-560,-552,0,0,0,0,0,0,0,0,0,-1,664,1576,0,0
-553,-552,0,0,0,0,0,0,0,0,0,-1,671,1576,0,0
-546,-552,0,0,0,0,0,0,0,0,0,-1,678,1576,0,0
-539,-552,0,0,0,0,0,0,0,0,0,-1,685,1576,0,0
-532,-552,0,0,0,0,0,0,0,0,0,-1,692,1576,0,0
-525,-552,0,0,0,0,0,0,0,0,0,-1,699,1576,0,0
-518,-552,0,0,0,0,0,0,0,0,0,-1,706,1576,0,0
-511,-552,0,0,0,0,0,0,0,0,0,-1,713,1576,0,0
-504,-552,0,0,0,0,0,0,0,0,0,-1,720,1576,0,0
-497,-552,8.25964,-2.32227,0,0,0,0,0,0,0,-1,727,1576,8.25965,2.32222
-490,-552,7.17853,-0.713623,-0.0570184,0.355912,0.103781,0.380527,-0.081634,1.33791,0.284823,0.0442126,734,1576,7.17852,0.713649
-483,-552,6.01709,1.01648,-0.0488149,0.311957,0.0939418,0.334953,-0.0718107,1.33073,0.250691,0.0441451,741,1576,6.01708,-1.01653
-476,-552,4.17767,1.40869,-0.0425563,0.26972,0.0845075,0.291122,-0.0639587,1.32275,0.218543,0.0414373,748,1576,4.17767,-1.40867
-469,-552,2.93219,2.65588,-0.0371522,0.229519,0.0749274,0.249129,-0.0567626,1.31481,0.187887,0.0443445,755,1576,2.9322,-2.65593
-462,-552,1.96411,4.06165,-0.0317752,0.192221,0.0653195,0.209877,-0.0494313,1.3068,0.158978,0.0410408,762,1576,1.96412,-4.06166
-455,-552,1.26056,5.13806,0,0,0,0,0,0,0,-1,769,1576,1.26054,-5.1381
-448,-552,0.953247,5.90576,-0.0223188,0.125627,0.0453586,0.138426,-0.0351181,1.29577,0.105948,0.0433611,776,1576,0.953249,-5.90572
-441,-552,0.705444,6.58093,-0.0176511,0.096705,0.0356998,0.106935,-0.0278807,1.29173,0.0821754,0.0368756,783,1576,0.705427,-6.58091
-434,-552,0.66803,6.83972,-0.0135355,0.0705834,0.026569,0.0782724,-0.0212246,1.28909,0.0605102,0.0204528,790,1576,0.668037,-6.83976
-427,-552,0.616821,7.00513,-0.00946285,0.0483822,0.018804,0.0539575,-0.0150382,1.28256,0.0418939,0.0148167,797,1576,0.616798,-7.00508
-420,-552,0.629089,7.25525,-0.0057853,0.0279967,0.0129866,0.032412,-0.0102006,1.24307,0.0256923,0.0187693,804,1576,0.62908,-7.25519
-413,-552,0.631104,7.4519,-0.00381788,0.0146456,0.00731504,0.0171925,-0.00636471,1.23576,0.0140715,0.0173373,811,1576,0.631102,-7.45191
-406,-552,0.616943,7.64124,-0.00168565,0.00600414,0.00258364,0.00679157,-0.00247308,1.27496,0.00553926,0.0133923,818,1576,0.616946,-7.64124
-399,-552,0.633789,7.88599,-6.98174e-05,0.00120423,0.000527373,0.0013942,-0.000259789,1.22504,0.00102707,0.0131971,825,1576,0.633787,-7.88593
-392,-552,0.62677,8.09302,0.000591552,-1.09966e-06,0.000154043,0.000629199,-3.87473e-05,0.239698,0.00043296,0.0147533,832,1576,0.62675,-8.09296
-385,-552,0.619751,8.30786,0.00119887,-0.000517577,8.99099e-05,0.00120357,-0.000522274,0.052191,0.00102197,0.0136981,839,1576,0.619781,-8.30791
-378,-552,0.60437,8.52039,0.0016347,-0.000267272,0.000463992,0.00174186,-0.000374427,0.226963,0.00130409,0.0147323,846,1576,0.604384,-8.52035
-371,-552,0.590027,8.73865,0.0020308,0.00084776,0.00093697,0.00254734,0.000331214,0.503836,0.0015993,0.0191669,853,1576,0.590004,-8.73865
-364,-552,0.619507,8.93445,0.00243998,0.00225745,0.00161149,0.00396279,0.000734637,0.757111,0.00243422,0.0144551,860,1576,0.619508,-8.93449
-357,-552,0.643799,9.14746,0.00286206,0.00424685,0.00254898,0.00619581,0.000913107,0.918015,0.00386232,0.0095513,867,1576,0.64377,-9.14751
-350,-552,0.632507,9.36853,0.00401026,0.00610201,0.00331138,0.00852876,0.00158351,0.938361,0.0052384,0.00923422,874,1576,0.632531,-9.36857
-343,-552,0.622803,9.55762,0.00471114,0.00882002,0.00438793,0.0116106,0.00192051,1.00434,0.00718632,0.0101363,881,1576,0.622779,-9.55759
-336,-552,0.672791,9.67676,0.00539781,0.0118929,0.00509803,0.0146899,0.00260082,1.069,0.00905174,0.0150927,888,1576,0.672811,-9.67673
-329,-552,0.734497,9.93677,0.00641753,0.0149711,0.00583076,0.0179254,0.00346323,1.10182,0.0109795,0.02997,895,1576,0.734507,-9.93679
-322,-552,0.86377,10.2819,0.00744073,0.0179294,0.00608675,0.0207195,0.00465067,1.14099,0.0125533,0.048107,902,1576,0.863777,-10.2818
-315,-552,1.04266,10.4906,0,0,0,0,0,0,0,-1,909,1576,1.04264,-10.4906
-308,-552,0.7854,10.7046,0,0,0,0,0,0,0,-1,916,1576,0.785411,-10.7046
-301,-552,0.536011,10.7952,0.0117758,0.0218654,0.00260033,0.0224961,0.0111451,1.33283,0.0129883,0.046702,923,1576,0.536007,-10.7951
-294,-552,0.67572,11.0713,0,0,0,0,0,0,0,-1,930,1576,0.675697,-11.0712
-287,-552,0.990784,11.6565,0,0,0,0,0,0,0,-1,937,1576,0.990808,-11.6564
-280,-552,1.70819,8.4104,0,0,0,0,0,0,0,-1,944,1576,1.70818,-8.4104
-273,-552,1.64587,10.6685,0,0,0,0,0,0,0,-1,951,1576,1.6459,-10.6685
-266,-552,-1.32678,8.05688,0,0,0,0,0,0,0,-1,958,1576,-1.32677,-8.05683
-259,-552,-5.54321,8.31213,0,0,0,0,0,0,0,-1,965,1576,-5.54324,-8.31214
-252,-552,-6.49988,8.56104,0,0,0,0,0,0,0,-1,972,1576,-6.49986,-8.56109
-245,-552,-6.01709,3.15002,0,0,0,0,0,0,0,-1,979,1576,-6.01709,-3.15
-238,-552,-4.58191,3.35437,0,0,0,0,0,0,0,-1,986,1576,-4.58192,-3.35442
-231,-552,-3.14673,3.55884,0,0,0,0,0,0,0,-1,993,1576,-3.14675,-3.55884
-224,-552,0,0,0,0,0,0,0,0,0,-1,1000,1576,0,0
-217,-552,0,0,0,0,0,0,0,0,0,-1,1007,1576,0,0
-210,-552,0,0,0,0,0,0,0,0,0,-1,1014,1576,0,0
-203,-552,0,0,0,0,0,0,0,0,0,-1,1021,1576,0,0
-196,-552,0,0,0,0,0,0,0,0,0,-1,1028,1576,0,0
-189,-552,0,0,0,0,0,0,0,0,0,-1,1035,1576,0,0
-182,-552,0,0,0,0,0,0,0,0,0,-1,1042,1576,0,0
-175,-552,0,0,0,0,0,0,0,0,0,-1,1049,1576,0,0
-168,-552,0,0,0,0,0,0,0,0,0,-1,1056,1576,0,0
-161,-552,0,0,0,0,0,0,0,0,0,-1,1063,1576,0,0
-154,-552,0,0,0,0,0,0,0,0,0,-1,1070,1576,0,0
-147,-552,0,0,0,0,0,0,0,0,0,-1,1077,1576,0,0
-140,-552,0,0,0,0,0,0,0,0,0,-1,1084,1576,0,0
-133,-552,0,0,0,0,0,0,0,0,0,-1,1091,1576,0,0
-126,-552,0,0,0,0,0,0,0,0,0,-1,1098,1576,0,0
-119,-552,0,0,0,0,0,0,0,0,0,-1,1105,1576,0,0
-112,-552,0,0,0,0,0,0,0,0,0,-1,1112,1576,0,0
-105,-552,0,0,0,0,0,0,0,0,0,-1,1119,1576,0,0
-98,-552,0,0,0,0,0,0,0,0,0,-1,1126,1576,0,0
-91,-552,0,0,0,0,0,0,0,0,0,-1,1133,1576,0,0
-84,-552,0,0,0,0,0,0,0,0,0,-1,1140,1576,0,0
-77,-552,0,0,0,0,0,0,0,0,0,-1,1147,1576,0,0
-70,-552,0,0,0,0,0,0,0,0,0,-1,1154,1576,0,0
-63,-552,0,0,0,0,0,0,0,0,0,-1,1161,1576,0,0
-56,-552,0,0,0,0,0,0,0,0,0,-1,1168,1576,0,0
-49,-552,0,0,0,0,0,0,0,0,0,-1,1175,1576,0,0
-42,-552,0,0,0,0,0,0,0,0,0,-1,1182,1576,0,0
-35,-552,0,0,0,0,0,0,0,0,0,-1,1189,1576,0,0
-28,-552,0,0,0,0,0,0,0,0,0,-1,1196,1576,0,0
-21,-552,0,0,0,0,0,0,0,0,0,-1,1203,1576,0,0
-14,-552,0,0,0,0,0,0,0,0,0,-1,1210,1576,0,0
-7,-552,0,0,0,0,0,0,0,0,0,-1,1217,1576,0,0
0,-552,0,0,0,0,0,0,0,0,0,-1,1224,1576,0,0
7,-552,0,0,0,0,0,0,0,0,0,-1,1231,1576,0,0
14,-552,0,0,0,0,0,0,0,0,0,-1,1238,1576,0,0
21,-552,0,0,0,0,0,0,0,0,0,-1,1245,1576,0,0
28,-552,0,0,0,0,0,0,0,0,0,-1,1252,1576,0,0
35,-552,0,0,0,0,0,0,0,0,0,-1,1259,1576,0,0
42,-552,0,0,0,0,0,0,0,0,0,-1,1266,1576,0,0
49,-552,0,0,0,0,0,0,0,0,0,-1,1273,1576,0,0
56,-552,0,0,0,0,0,0,0,0,0,-1,1280,1576,0,0
63,-552,0,0,0,0,0,0,0,0,0,-1,1287,1576,0,0
70,-552,0,0,0,0,0,0,0,0,0,-1,1294,1576,0,0
77,-552,0,0,0,0,0,0,0,0,0,-1,1301,1576,0,0
84,-552,0,0,0,0,0,0,0,0,0,-1,1308,1576,0,0
91,-552,0,0,0,0,0,0,0,0,0,-1,1315,1576,0,0
98,-552,0,0,0,0,0,0,0,0,0,-1,1322,1576,0,0
105,-552,0,0,0,0,0,0,0,0,0,-1,1329,1576,0,0
112,-552,0,0,0,0,0,0,0,0,0,-1,1336,1576,0,0
119,-552,0,0,0,0,0,0,0,0,0,-1,1343,1576,0,0
126,-552,0,0,0,0,0,0,0,0,0,-1,1350,1576,0,0
133,-552,0,0,0,0,0,0,0,0,0,-1,1357,1576,0,0
140,-552,0,0,0,0,0,0,0,0,0,-1,1364,1576,0,0
147,-552,0,0,0,0,0,0,0,0,0,-1,1371,1576,0,0
154,-552,0,0,0,0,0,0,0,0,0,-1,1378,1576,0,0
161,-552,0,0,0,0,0,0,0,0,0,-1,1385,1576,0,0
168,-552,0,0,0,0,0,0,0,0,0,-1,1392,1576,0,0
175,-552,0,0,0,0,0,0,0,0,0,-1,1399,1576,0,0
182,-552,0,0,0,0,0,0,0,0,0,-1,1406,1576,0,0
189,-552,0,0,0,0,0,0,0,0,0,-1,1413,1576,0,0
196,-552,0,0,0,0,0,0,0,0,0,-1,1420,1576,0,0
203,-552,0,0,0,0,0,0,0,0,0,-1,1427,1576,0,0
210,-552,0,0,0,0,0,0,0,0,0,-1,1434,1576,0,0
217,-552,0,0,0,0,0,0,0,0,0,-1,1441,1576,0,0
224,-552,0,0,0,0,0,0,0,0,0,-1,1448,1576,0,0
231,-552,0,0,0,0,0,0,0,0,0,-1,1455,1576,0,0
238,-552,0,0,0,0,0,0,0,0,0,-1,1462,1576,0,0
245,-552,0,0,0,0,0,0,0,0,0,-1,1469,1576,0,0
252,-552,0,0,0,0,0,0,0,0,0,-1,1476,1576,0,0
259,-552,0,0,0,0,0,0,0,0,0,-1,1483,1576,0,0
266,-552,0,0,0,0,0,0,0,0,0,-1,1490,1576,0,0
273,-552,0,0,0,0,0,0,0,0,0,-1,1497,1576,0,0
280,-552,0,0,0,0,0,0,0,0,0,-1,1504,1576,0,0
287,-552,0,0,0,0,0,0,0,0,0,-1,1511,1576,0,0
294,-552,0,0,0,0,0,0,0,0,0,-1,1518,1576,0,0
301,-552,0,0,0,0,0,0,0,0,0,-1,1525,1576,0,0
308,-552,0,0,0,0,0,0,0,0,0,-1,1532,1576,0,0
315,-552,0,0,0,0,0,0,0,0,0,-1,1539,1576,0,0
322,-552,0,0,0,0,0,0,0,0,0,-1,1546,1576,0,0
329,-552,0,0,0,0,0,0,0,0,0,-1,1553,1576,0,0
336,-552,0,0,0,0,0,0,0,0,0,-1,1560,1576,0,0
343,-552,0,0,0,0,0,0,0,0,0,-1,1567,1576,0,0
350,-552,4.97876,4.09888,0,0,0,0,0,0,0,-1,1574,1576,4.97875,-4.09883
357,-552,5.18469,4.10706,0,0,0,0,0,0,0,-1,1581,1576,5.1847,-4.10702
364,-552,5.80872,5.07031,0,0,0,0,0,0,0,-1,1588,1576,5.80874,-5.07037
371,-552,7.10657,5.64783,0,0,0,0,0,0,0,-1,1595,1576,7.10651,-5.64786
378,-552,6.44446,4.91492,0,0,0,0,0,0,0,-1,1602,1576,6.44448,-4.91496
385,-552,12.8276,3.16504,0,0,0,0,0,0,0,-1,1609,1576,12.8276,-3.16503
392,-552,12.1301,4.3363,0,0,0,0,0,0,0,-1,1616,1576,12.1302,-4.33631
399,-552,11.3486,5.6012,0,0,0,0,0,0,0,-1,1623,1576,11.3486,-5.60115
406,-552,10.7863,6.42542,0,0,0,0,0,0,0,-1,1630,1576,10.7863,-6.42536
413,-552,8.39307,10.365,0,0,0,0,0,0,0,-1,1637,1576,8.3931,-10.365
420,-552,8.26904,10.8208,0,0,0,0,0,0,0,-1,1644,1576,8.26899,-10.8208
427,-552,9.29053,11.0781,0,0,0,0,0,0,0,-1,1651,1576,9.29057,-11.0781
434,-552,10.3373,11.3083,0,0,0,0,0,0,0,-1,1658,1576,10.3373,-11.3084
441,-552,11.2679,11.871,-0.110679,-0.030901,0.00530008,-0.0305504,-0.111029,1.50475,0.066228,0.0464492,1665,1576,11.2679,-11.8709
448,-552,8.36389,10.0143,-0.0881556,-0.0294891,0.00824938,-0.0283512,-0.0892935,1.43372,0.0526858,0.0463394,1672,1576,8.3639,-10.0143
455,-552,7.90222,9.96655,0,0,0,0,0,0,0,-1,1679,1576,7.90221,-9.96655
462,-552,8.32324,10.5775,-0.0525717,-0.023654,0.0118135,-0.0194415,-0.0567841,1.22827,0.0333229,0.0421564,1686,1576,8.32325,-10.5775
469,-552,8.22351,10.6757,-0.0392768,-0.020218,0.0121256,-0.0143253,-0.0451694,1.11844,0.0266536,0.0360533,1693,1576,8.22356,-10.6756
476,-552,8.01721,10.6948,-0.0288329,-0.0167992,0.011658,-0.00969693,-0.0359352,1.02363,0.0214674,0.0173601,1700,1576,8.01716,-10.6948
483,-552,8.03088,10.5432,-0.0209053,-0.0134979,0.0106034,-0.00596992,-0.0284333,0.953422,0.0173121,0.0141681,1707,1576,8.03092,-10.5433
490,-552,8.02246,10.3527,-0.0150571,-0.0103975,0.00923248,-0.00320541,-0.0222492,0.908992,0.0138882,0.0141324,1714,1576,8.02249,-10.3526
497,-552,8.04407,10.1687,-0.00909273,-0.00854543,0.00795782,-0.000856557,-0.0167816,0.802585,0.0109134,0.0218983,1721,1576,8.04412,-10.1687
504,-552,8.02014,9.98804,-0.00515279,-0.00556301,0.00693044,0.00157558,-0.0122914,0.770605,0.00876676,0.0227068,1728,1576,8.02011,-9.98805
511,-552,8.00427,9.78088,-0.00369175,-0.00365603,0.00499496,0.0013211,-0.00866888,0.787186,0.00626622,0.0160047,1735,1576,8.00422,-9.7809
518,-552,8.0437,9.59094,-0.0022629,-0.00172058,0.00317879,0.00119859,-0.00518207,0.827947,0.00391588,0.0135622,1742,1576,8.04367,-9.59088
525,-552,8.03088,9.40747,-0.000746714,-0.000489691,0.00167833,0.00106504,-0.00230145,0.823609,0.00198686,0.0133226,1749,1576,8.03083,-9.40751
532,-552,8.01257,9.22839,0.000766989,0.000266106,0.000546123,0.00111736,-8.42609e-05,0.570414,0.000774521,0.0139036,1756,1576,8.01262,-9.2284
539,-552,8.00159,9.05542,0.00212994,0.000979294,-0.00055646,0.00235502,0.000754215,-0.384366,0.00138865,0.0167615,1763,1576,8.00165,-9.0554
546,-552,7.98962,8.87695,0.00318398,0.00194034,-0.00153264,0.00421614,0.00090818,-0.592685,0.00256226,0.020296,1770,1576,7.98968,-8.87698
553,-552,8.06213,8.63843,0.00418587,0.00309119,-0.00253508,0.00623202,0.00104504,-0.679077,0.00385386,0.0240527,1777,1576,8.0621,-8.63838
560,-552,8.15808,8.37183,0,0,0,0,0,0,0,-1,1784,1576,8.15807,-8.37179
567,-552,7.67896,8.27344,0,0,0,0,0,0,0,-1,1791,1576,7.67899,-8.27341
574,-552,8.1438,7.98926,0,0,0,0,0,0,0,-1,1798,1576,8.14382,-7.98921
581,-552,8.2782,7.74988,0,0,0,0,0,0,0,-1,1805,1576,8.27817,-7.74992
588,-552,8.23315,7.57324,0,0,0,0,0,0,0,-1,1812,1576,8.23314,-7.57318
595,-552,5.36194,6.62744,0,0,0,0,0,0,0,-1,1819,1576,5.36193,-6.62742
602,-552,10.6863,4.31616,0,0,0,0,0,0,0,-1,1826,1576,10.6862,-4.31619
609,-552,12.146,3.18286,0,0,0,0,0,0,0,-1,1833,1576,12.1459,-3.18281
616,-552,13.8762,2.08167,0,0,0,0,0,0,0,-1,1840,1576,13.8763,-2.08167
623,-552,0,0,0,0,0,0,0,0,0,-1,1847,1576,0,0
630,-552,0,0,0,0,0,0,0,0,0,-1,1854,1576,0,0
637,-552,0,0,0,0,0,0,0,0,0,-1,1861,1576,0,0
644,-552,0,0,0,0,0,0,0,0,0,-1,1868,1576,0,0
651,-552,0,0,0,0,0,0,0,0,0,-1,1875,1576,0,0
658,-552,0,0,0,0,0,0,0,0,0,-1,1882,1576,0,0
665,-552,0,0,0,0,0,0,0,0,0,-1,1889,1576,0,0
672,-552,0,0,0,0,0,0,0,0,0,-1,1896,1576,0,0
679,-552,0,0,0,0,0,0,0,0,0,-1,1903,1576,0,0
686,-552,0,0,0,0,0,0,0,0,0,-1,1910,1576,0,0
693,-552,0,0,0,0,0,0,0,0,0,-1,1917,1576,0,0
700,-552,0,0,0,0,0,0,0,0,0,-1,1924,1576,0,0
707,-552,0,0,0,0,0,0,0,0,0,-1,1931,1576,0,0
714,-552,0,0,0,0,0,0,0,0,0,-1,1938,1576,0,0
721,-552,0,0,0,0,0,0,0,0,0,-1,1945,1576,0,0
728,-552,0,0,0,0,0,0,0,0,0,-1,1952,1576,0,0
735,-552,0,0,0,0,0,0,0,0,0,-1,1959,1576,0,0
742,-552,0,0,0,0,0,0,0,0,0,-1,1966,1576,0,0
749,-552,0,0,0,0,0,0,0,0,0,-1,1973,1576,0,0
756,-552,0,0,0,0,0,0,0,0,0,-1,1980,1576,0,0
763,-552,0,0,0,0,0,0,0,0,0,-1,1987,1576,0,0
770,-552,0,0,0,0,0,0,0,0,0,-1,1994,1576,0,0
777,-552,0,0,0,0,0,0,0,0,0,-1,2001,1576,0,0
784,-552,0,0,0,0,0,0,0,0,0,-1,2008,1576,0,0
791,-552,0,0,0,0,0,0,0,0,0,-1,2015,1576,0,0
798,-552,0,0,0,0,0,0,0,0,0,-1,2022,1576,0,0
805,-552,0,0,0,0,0,0,0,0,0,-1,2029,1576,0,0
812,-552,0,0,0,0,0,0,0,0,0,-1,2036,1576,0,0
-700,-559,0,0,0,0,0,0,0,0,0,-1,524,1583,0,0
-693,-559,0,0,0,0,0,0,0,0,0,-1,531,1583,0,0
-686,-559,0,0,0,0,0,0,0,0,0,-1,538,1583,0,0
-679,-559,0,0,0,0,0,0,0,0,0,-1,545,1583,0,0
-672,-559,0,0,0,0,0,0,0,0,0,-1,552,1583,0,0
-665,-559,0,0,0,0,0,0,0,0,0,-1,559,1583,0,0
-658,-559,0,0,0,0,0,0,0,0,0,-1,566,1583,0,0
-651,-559,0,0,0,0,0,0,0,0,0,-1,573,1583,0,0
-644,-559,0,0,0,0,0,0,0,0,0,-1,580,1583,0,0
-637,-559,0,0,0,0,0,0,0,0,0,-1,587,1583,0,0
-630,-559,0,0,0,0,0,0,0,0,0,-1,594,1583,0,0
-623,-559,0,0,0,0,0,0,0,0,0,-1,601,1583,0,0
-616,-559,0,0,0,0,0,0,0,0,0,-1,608,1583,0,0
-609,-559,0,0,0,0,0,0,0,0,0,-1,615,1583,0,0
-602,-559,0,0,0,0,0,0,0,0,0,-1,622,1583,0,0
-595,-559,0,0,0,0,0,0,0,0,0,-1,629,1583,0,0
-588,-559,0,0,0,0,0,0,0,0,0,-1,636,1583,0,0
-581,-559,0,0,0,0,0,0,0,0,0,-1,643,1583,0,0
-574,-559,0,0,0,0,0,0,0,0,0,-1,650,1583,0,0
-567,-559,0,0,0,0,0,0,0,0,0,-1,657,1583,0,0
-560,-559,0,0,0,0,0,0,0,0,0,-1,664,1583,0,0
-553,-559,0,0,0,0,0,0,0,0,0,-1,671,1583,0,0
-546,-559,0,0,0,0,0,0,0,0,0,-1,678,1583,0,0
-539,-559,0,0,0,0,0,0,0,0,0,-1,685,1583,0,0
-532,-559,0,0,0,0,0,0,0,0,0,-1,692,1583,0,0
-525,-559,0,0,0,0,0,0,0,0,0,-1,699,1583,0,0
-518,-559,0,0,0,0,0,0,0,0,0,-1,706,1583,0,0
-511,-559,0,0,0,0,0,0,0,0,0,-1,713,1583,0,0
-504,-559,0,0,0,0,0,0,0,0,0,-1,720,1583,0,0
-497,-559,0,0,0,0,0,0,0,0,0,-1,727,1583,0,0
-490,-559,6.19836,-3.95569,-0.071854,0.432533,0.139371,0.468481,-0.107803,1.31836,0.353773,0.0459971,734,1583,6.19838,3.95572
-483,-559,5.13403,-2.37415,-0.0618027,0.375327,0.124814,0.408455,-0.0949304,1.31136,0.308849,0.0449302,741,1583,5.13403,2.37419
-476,-559,3.95612,-1.06287,-0.0540926,0.322465,0.111769,0.353142,-0.0847689,1.30293,0.268187,0.0463843,748,1583,3.95614,1.06285
-469,-559,2.83319,0.795898,-0.047393,0.273963,0.0990312,0.30203,-0.0754597,1.29463,0.230658,0.0423809,755,1583,2.83317,-0.795905
-462,-559,2.08313,2.71216,-0.040866,0.229927,0.0863345,0.255111,-0.0660493,1.28698,0.195839,0.0396411,762,1583,2.08315,-2.71222
-455,-559,1.43976,4.76123,0,0,0,0,0,0,0,-1,769,1583,1.43974,-4.76117
-448,-559,1.16583,5.77466,0,0,0,0,0,0,0,-1,776,1583,1.16584,-5.77465
-441,-559,0.975281,6.49463,-0.022962,0.11933,0.0481124,0.134071,-0.0377028,1.27349,0.104246,0.0460686,783,1583,0.975262,-6.49465
-434,-559,1.00146,6.82568,-0.0174783,0.0881851,0.0360663,0.0993219,-0.0286151,1.2713,0.0775336,0.0348603,790,1583,1.00149,-6.82564
-427,-559,0.888916,7.05603,-0.0124309,0.0613382,0.0256245,0.0693656,-0.0204583,1.26721,0.0543619,0.0208578,797,1583,0.888886,-7.05605
-420,-559,0.814514,7.24878,-0.00794128,0.0366633,0.0175201,0.042722,-0.014,1.23786,0.0341192,0.0204432,804,1583,0.814526,-7.24876
-413,-559,0.849548,7.45935,-0.00548418,0.0198862,0.00979741,0.0232292,-0.00882719,1.24197,0.0191203,0.012978,811,1583,0.849529,-7.45939
-406,-559,0.840942,7.65845,-0.00274747,0.00823003,0.00339829,0.00919688,-0.00371432,1.29361,0.00767503,0.010021,818,1583,0.840948,-7.6584
-399,-559,0.854248,7.87512,-0.00067768,0.00142933,0.000453826,0.00152292,-0.000771272,1.36742,0.00134804,0.0122846,825,1583,0.854233,-7.87516
-392,-559,0.833374,8.07458,-0.000111808,-3.26806e-05,-5.07648e-05,-7.88325e-06,-0.000136605,-1.11641,8.85595e-05,0.0155893,832,1583,0.833375,-8.07453
-385,-559,0.824463,8.30396,0.000383716,-0.000751013,-0.000255406,0.000438553,-0.00080585,-0.211494,0.000728814,0.0162062,839,1583,0.824434,-8.304
-378,-559,0.829163,8.53723,0.000786083,-0.000756842,-1.72232e-05,0.000786275,-0.000757034,-0.0111608,0.000891083,0.0145086,846,1583,0.829157,-8.53728
-371,-559,0.813782,8.74194,0.00120328,-0.00014905,0.000296483,0.00126543,-0.000211195,0.206615,0.000922114,0.0218266,853,1583,0.813765,-8.74198
-364,-559,0.850769,8.93457,0.0016222,0.00093068,0.000850141,0.0021942,0.000358676,0.59226,0.00135911,0.0192912,860,1583,0.850778,-8.9346
-357,-559,0.844299,9.13721,0.00207626,0.00242067,0.00160502,0.0038627,0.000634236,0.838839,0.00239192,0.0115244,867,1583,0.844323,-9.13722
-350,-559,0.836853,9.34521,0.00307806,0.0039636,0.0022676,0.00583125,0.00121041,0.881814,0.00355342,0.0098497,874,1583,0.836872,-9.34518
-343,-559,0.841736,9.55298,0.00373668,0.00607896,0.00315255,0.00827088,0.00154476,0.963243,0.00507793,0.0107875,881,1583,0.841718,-9.55293
-336,-559,0.821655,9.7207,0.00426316,0.00848622,0.00364604,0.010588,0.00216137,1.04786,0.0064599,0.0119938,888,1583,0.821676,-9.7207
-329,-559,0.87146,9.96338,0.0050544,0.01081,0.00413847,0.0129729,0.0028915,1.08921,0.00786401,0.0161225,895,1583,0.871448,-9.96341
-322,-559,0.914917,10.2916,0.00576278,0.0130718,0.00424441,0.0150182,0.00381636,1.14083,0.0090135,0.037043,902,1583,0.914917,-10.2916
-315,-559,0.924377,10.4132,0.00648801,0.0149726,0.0038792,0.0164788,0.00498181,1.20044,0.00975879,0.04207,909,1583,0.924359,-10.4132
-308,-559,0.945557,10.5812,0.00736767,0.0162387,0.00295428,0.0171325,0.00647386,1.27701,0.0099893,0.0404654,916,1583,0.945575,-10.5812
-301,-559,0.93634,10.8845,0.00813118,0.0166335,0.001453,0.016875,0.00788973,1.40613,0.00974963,0.0447352,923,1583,0.936343,-10.8846
-294,-559,0.885925,11.2195,0,0,0,0,0,0,0,-1,930,1583,0.885897,-11.2195
-287,-559,0.268005,11.4669,0,0,0,0,0,0,0,-1,937,1583,0.268035,-11.4669
-280,-559,0.1427,11.7659,0,0,0,0,0,0,0,-1,944,1583,0.142688,-11.7658
-273,-559,2.12836,10.3059,0,0,0,0,0,0,0,-1,951,1583,2.12839,-10.3059
-266,-559,-0.597046,6.68933,0,0,0,0,0,0,0,-1,958,1583,-0.597031,-6.68937
-259,-559,-7.00311,8.62756,0,0,0,0,0,0,0,-1,965,1583,-7.00312,-8.6275
-252,-559,-9.4483,2.87805,0,0,0,0,0,0,0,-1,972,1583,-9.44829,-2.87805
-245,-559,-8.08545,3.14001,0,0,0,0,0,0,0,-1,979,1583,-8.08542,-3.13996
-238,-559,-6.69635,3.37744,0,0,0,0,0,0,0,-1,986,1583,-6.69632,-3.37743
-231,-559,-5.29871,3.61853,0,0,0,0,0,0,0,-1,993,1583,-5.29869,-3.61849
-224,-559,-2.28033,3.77515,0,0,0,0,0,0,0,-1,1000,1583,-2.28032,-3.7752
-217,-559,0,0,0,0,0,0,0,0,0,-1,1007,1583,0,0
-210,-559,0,0,0,0,0,0,0,0,0,-1,1014,1583,0,0
-203,-559,0,0,0,0,0,0,0,0,0,-1,1021,1583,0,0
-196,-559,0,0,0,0,0,0,0,0,0,-1,1028,1583,0,0
-189,-559,0,0,0,0,0,0,0,0,0,-1,1035,1583,0,0
-182,-559,0,0,0,0,0,0,0,0,0,-1,1042,1583,0,0
-175,-559,0,0,0,0,0,0,0,0,0,-1,1049,1583,0,0
-168,-559,0,0,0,0,0,0,0,0,0,-1,1056,1583,0,0
-161,-559,0,0,0,0,0,0,0,0,0,-1,1063,1583,0,0
-154,-559,0,0,0,0,0,0,0,0,0,-1,1070,1583,0,0
-147,-559,0,0,0,0,0,0,0,0,0,-1,1077,1583,0,0
-140,-559,0,0,0,0,0,0,0,0,0,-1,1084,1583,0,0
-133,-559,0,0,0,0,0,0,0,0,0,-1,1091,1583,0,0
-126,-559,0,0,0,0,0,0,0,0,0,-1,1098,1583,0,0
-119,-559,0,0,0,0,0,0,0,0,0,-1,1105,1583,0,0
-112,-559,0,0,0,0,0,0,0,0,0,-1,1112,1583,0,0
-105,-559,0,0,0,0,0,0,0,0,0,-1,1119,1583,0,0
-98,-559,0,0,0,0,0,0,0,0,0,-1,1126,1583,0,0
-91,-559,0,0,0,0,0,0,0,0,0,-1,1133,1583,0,0
-84,-559,0,0,0,0,0,0,0,0,0,-1,1140,1583,0,0
-77,-559,0,0,0,0,0,0,0,0,0,-1,1147,1583,0,0
-70,-559,0,0,0,0,0,0,0,0,0,-1,1154,1583,0,0
-63,-559,0,0,0,0,0,0,0,0,0,-1,1161,1583,0,0
-56,-559,0,0,0,0,0,0,0,0,0,-1,1168,1583,0,0
-49,-559,0,0,0,0,0,0,0,0,0,-1,1175,1583,0,0
-42,-559,0,0,0,0,0,0,0,0,0,-1,1182,1583,0,0
-35,-559,0,0,0,0,0,0,0,0,0,-1,1189,1583,0,0
-28,-559,0,0,0,0,0,0,0,0,0,-1,1196,1583,0,0
-21,-559,0,0,0,0,0,0,0,0,0,-1,1203,1583,0,0
-14,-559,0,0,0,0,0,0,0,0,0,-1,1210,1583,0,0
-7,-559,0,0,0,0,0,0,0,0,0,-1,1217,1583,0,0
0,-559,0,0,0,0,0,0,0,0,0,-1,1224,1583,0,0
7,-559,0,0,0,0,0,0,0,0,0,-1,1231,1583,0,0
14,-559,0,0,0,0,0,0,0,0,0,-1,1238,1583,0,0
21,-559,0,0,0,0,0,0,0,0,0,-1,1245,1583,0,0
28,-559,0,0,0,0,0,0,0,0,0,-1,1252,1583,0,0
35,-559,0,0,0,0,0,0,0,0,0,-1,1259,1583,0,0
42,-559,0,0,0,0,0,0,0,0,0,-1,1266,1583,0,0
49,-559,0,0,0,0,0,0,0,0,0,-1,1273,1583,0,0
56,-559,0,0,0,0,0,0,0,0,0,-1,1280,1583,0,0
63,-559,0,0,0,0,0,0,0,0,0,-1,1287,1583,0,0
70,-559,0,0,0,0,0,0,0,0,0,-1,1294,1583,0,0
77,-559,0,0,0,0,0,0,0,0,0,-1,1301,1583,0,0
84,-559,0,0,0,0,0,0,0,0,0,-1,1308,1583,0,0
91,-559,0,0,0,0,0,0,0,0,0,-1,1315,1583,0,0
98,-559,0,0,0,0,0,0,0,0,0,-1,1322,1583,0,0
105,-559,0,0,0,0,0,0,0,0,0,-1,1329,1583,0,0
112,-559,0,0,0,0,0,0,0,0,0,-1,1336,1583,0,0
119,-559,0,0,0,0,0,0,0,0,0,-1,1343,1583,0,0
126,-559,0,0,0,0,0,0,0,0,0,-1,1350,1583,0,0
133,-559,0,0,0,0,0,0,0,0,0,-1,1357,1583,0,0
140,-559,0,0,0,0,0,0,0,0,0,-1,1364,1583,0,0
147,-559,0,0,0,0,0,0,0,0,0,-1,1371,1583,0,0
154,-559,0,0,0,0,0,0,0,0,0,-1,1378,1583,0,0
161,-559,0,0,0,0,0,0,0,0,0,-1,1385,1583,0,0
168,-559,0,0,0,0,0,0,0,0,0,-1,1392,1583,0,0
175,-559,0,0,0,0,0,0,0,0,0,-1,1399,1583,0,0
182,-559,0,0,0,0,0,0,0,0,0,-1,1406,1583,0,0
189,-559,0,0,0,0,0,0,0,0,0,-1,1413,1583,0,0
196,-559,0,0,0,0,0,0,0,0,0,-1,1420,1583,0,0
203,-559,0,0,0,0,0,0,0,0,0,-1,1427,1583,0,0
210,-559,0,0,0,0,0,0,0,0,0,-1,1434,1583,0,0
217,-559,0,0,0,0,0,0,0,0,0,-1,1441,1583,0,0
224,-559,0,0,0,0,0,0,0,0,0,-1,1448,1583,0,0
231,-559,0,0,0,0,0,0,0,0,0,-1,1455,1583,0,0
238,-559,0,0,0,0,0,0,0,0,0,-1,1462,1583,0,0
245,-559,0,0,0,0,0,0,0,0,0,-1,1469,1583,0,0
252,-559,0,0,0,0,0,0,0,0,0,-1,1476,1583,0,0
259,-559,0,0,0,0,0,0,0,0,0,-1,1483,1583,0,0
266,-559,0,0,0,0,0,0,0,0,0,-1,1490,1583,0,0
273,-559,0,0,0,0,0,0,0,0,0,-1,1497,1583,0,0
280,-559,0,0,0,0,0,0,0,0,0,-1,1504,1583,0,0
287,-559,0,0,0,0,0,0,0,0,0,-1,1511,1583,0,0
294,-559,0,0,0,0,0,0,0,0,0,-1,1518,1583,0,0
301,-559,0,0,0,0,0,0,0,0,0,-1,1525,1583,0,0
308,-559,0,0,0,0,0,0,0,0,0,-1,1532,1583,0,0
315,-559,0,0,0,0,0,0,0,0,0,-1,1539,1583,0,0
322,-559,0,0,0,0,0,0,0,0,0,-1,1546,1583,0,0
329,-559,0,0,0,0,0,0,0,0,0,-1,1553,1583,0,0
336,-559,5.97668,3.09827,0,0,0,0,0,0,0,-1,1560,1583,5.97667,-3.09824
343,-559,5.44824,2.88696,0,0,0,0,0,0,0,-1,1567,1583,5.44819,-2.88693
350,-559,4.69775,3.27051,0,0,0,0,0,0,0,-1,1574,1583,4.69771,-3.27048
357,-559,3.88025,3.60999,0,0,0,0,0,0,0,-1,1581,1583,3.88027,-3.60998
364,-559,5.00928,5.32605,0,0,0,0,0,0,0,-1,1588,1583,5.00928,-5.32607
371,-559,1.84436,2.52441,0,0,0,0,0,0,0,-1,1595,1583,1.84441,-2.52447
378,-559,6.34753,1.53137,0,0,0,0,0,0,0,-1,1602,1583,6.34752,-1.53139
385,-559,6.95911,1.48181,0,0,0,0,0,0,0,-1,1609,1583,6.95916,-1.48175
392,-559,11.6949,4.77734,0,0,0,0,0,0,0,-1,1616,1583,11.6949,-4.77731
399,-559,11.1104,5.56909,0,0,0,0,0,0,0,-1,1623,1583,11.1103,-5.56905
406,-559,10.3385,6.48657,0,0,0,0,0,0,0,-1,1630,1583,10.3385,-6.48661
413,-559,9.76147,6.97571,0,0,0,0,0,0,0,-1,1637,1583,9.76143,-6.97574
420,-559,7.77124,10.5851,0,0,0,0,0,0,0,-1,1644,1583,7.77128,-10.585
427,-559,7.8501,11.1583,0,0,0,0,0,0,0,-1,1651,1583,7.85014,-11.1583
434,-559,9.11462,11.2966,0,0,0,0,0,0,0,-1,1658,1583,9.11466,-11.2967
441,-559,9.78027,11.7031,-0.0823189,-0.0264856,0.00560285,-0.0259289,-0.0828756,1.47176,0.0489526,0.0470047,1665,1583,9.78032,-11.7031
448,-559,8.10657,10.4956,-0.066642,-0.0250706,0.0067882,-0.0239903,-0.0677224,1.41297,0.0396494,0.0481168,1672,1583,8.10652,-10.4956
455,-559,7.68506,10.4712,0,0,0,0,0,0,0,-1,1679,1583,7.68508,-10.4712
462,-559,7.9906,10.8838,-0.0404396,-0.0206164,0.00803485,-0.0177688,-0.0432873,1.2302,0.0251251,0.0341844,1686,1583,7.99065,-10.8837
469,-559,7.85107,10.8895,-0.0302095,-0.017904,0.00801829,-0.0139498,-0.0341636,1.11265,0.0198346,0.0179964,1693,1583,7.85109,-10.8896
476,-559,7.81677,10.7229,-0.0220088,-0.0150753,0.00758942,-0.0101983,-0.0268858,0.99964,0.0156725,0.0101609,1700,1583,7.81673,-10.7229
483,-559,7.83398,10.5437,-0.015648,-0.0122296,0.00678223,-0.0069445,-0.0209331,0.908836,0.0123117,0.012093,1707,1583,7.83396,-10.5437
490,-559,7.83215,10.3618,-0.010873,-0.00944338,0.00576932,-0.00434478,-0.0159716,0.847035,0.00953537,0.0146149,1714,1583,7.83213,-10.3618
497,-559,7.8457,10.1896,-0.00590383,-0.00768413,0.00480357,-0.00190863,-0.0116793,0.693783,0.00723443,0.0180511,1721,1583,7.84576,-10.1896
504,-559,7.83142,9.99646,-0.00263892,-0.00489156,0.00416768,0.000551954,-0.00808244,0.653425,0.00558138,0.0217474,1728,1583,7.83141,-9.99647
511,-559,7.81311,9.78857,-0.00147782,-0.00300437,0.00275102,0.000613851,-0.00509604,0.650077,0.00361937,0.0186864,1735,1583,7.81307,-9.78863
518,-559,7.86548,9.60461,-0.000335828,-0.00112587,0.00140907,0.000732545,-0.00219425,0.648735,0.00175863,0.0122733,1742,1583,7.86553,-9.60458
525,-559,7.84753,9.41394,0.000899845,0.000125401,0.000337177,0.00102607,-8.25501e-07,0.358212,0.000684323,0.0116199,1749,1583,7.84757,-9.41395
532,-559,7.81958,9.24158,0.0021601,0.000977595,-0.000476404,0.00232815,0.000809544,-0.33912,0.00136478,0.0127351,1756,1583,7.81961,-9.2416
539,-559,7.80225,9.06958,0.00327956,0.00166219,-0.00126398,0.00397142,0.000970335,-0.500816,0.00239073,0.0165185,1763,1583,7.80219,-9.06952
546,-559,7.79175,8.88281,0.00416746,0.00255011,-0.00208985,0.00559964,0.00111793,-0.600794,0.00342187,0.0154621,1770,1583,7.79178,-8.88283
553,-559,7.94153,8.62537,0.00511712,0.00368864,-0.00301047,0.00749692,0.00130884,-0.668926,0.00462383,0.0246671,1777,1583,7.9415,-8.62532
560,-559,7.97437,8.68005,0.00598487,0.00543683,-0.00412156,0.00984151,0.00158019,-0.752205,0.00610285,0.0475301,1784,1583,7.97435,-8.68004
567,-559,8.19971,8.23328,0,0,0,0,0,0,0,-1,1791,1583,8.19967,-8.23324
574,-559,8.6571,7.75928,0,0,0,0,0,0,0,-1,1798,1583,8.65711,-7.75933
581,-559,5.97095,5.96179,0,0,0,0,0,0,0,-1,1805,1583,5.97093,-5.96181
588,-559,5.79102,5.89954,0,0,0,0,0,0,0,-1,1812,1583,5.79098,-5.89949
595,-559,5.79089,6.24231,0,0,0,0,0,0,0,-1,1819,1583,5.7909,-6.24227
602,-559,12.478,2.35669,0,0,0,0,0,0,0,-1,1826,1583,12.4781,-2.35675
609,-559,14.0479,1.22681,0,0,0,0,0,0,0,-1,1833,1583,14.0479,-1.22681
616,-559,0,0,0,0,0,0,0,0,0,-1,1840,1583,0,0
623,-559,0,0,0,0,0,0,0,0,0,-1,1847,1583,0,0
630,-559,0,0,0,0,0,0,0,0,0,-1,1854,1583,0,0
637,-559,0,0,0,0,0,0,0,0,0,-1,1861,1583,0,0
644,-559,0,0,0,0,0,0,0,0,0,-1,1868,1583,0,0
651,-559,0,0,0,0,0,0,0,0,0,-1,1875,1583,0,0
658,-559,0,0,0,0,0,0,0,0,0,-1,1882,1583,0,0
665,-559,0,0,0,0,0,0,0,0,0,-1,1889,1583,0,0
672,-559,0,0,0,0,0,0,0,0,0,-1,1896,1583,0,0
679,-559,0,0,0,0,0,0,0,0,0,-1,1903,1583,0,0
686,-559,0,0,0,0,0,0,0,0,0,-1,1910,1583,0,0
693,-559,0,0,0,0,0,0,0,0,0,-1,1917,1583,0,0
700,-559,0,0,0,0,0,0,0,0,0,-1,1924,1583,0,0
707,-559,0,0,0,0,0,0,0,0,0,-1,1931,1583,0,0
714,-559,0,0,0,0,0,0,0,0,0,-1,1938,1583,0,0
721,-559,0,0,0,0,0,0,0,0,0,-1,1945,1583,0,0
728,-559,0,0,0,0,0,0,0,0,0,-1,1952,1583,0,0
735,-559,0,0,0,0,0,0,0,0,0,-1,1959,1583,0,0
742,-559,0,0,0,0,0,0,0,0,0,-1,1966,1583,0,0
749,-559,0,0,0,0,0,0,0,0,0,-1,1973,1583,0,0
756,-559,0,0,0,0,0,0,0,0,0,-1,1980,1583,0,0
763,-559,0,0,0,0,0,0,0,0,0,-1,1987,1583,0,0
770,-559,0,0,0,0,0,0,0,0,0,-1,1994,1583,0,0
777,-559,0,0,0,0,0,0,0,0,0,-1,2001,1583,0,0
784,-559,0,0,0,0,0,0,0,0,0,-1,2008,1583,0,0
791,-559,0,0,0,0,0,0,0,0,0,-1,2015,1583,0,0
798,-559,0,0,0,0,0,0,0,0,0,-1,2022,1583,0,0
805,-559,0,0,0,0,0,0,0,0,0,-1,2029,1583,0,0
812,-559,0,0,0,0,0,0,0,0,0,-1,2036,1583,0,0
-700,-566,0,0,0,0,0,0,0,0,0,-1,524,1590,0,0
-693,-566,0,0,0,0,0,0,0,0,0,-1,531,1590,0,0
-686,-566,0,0,0,0,0,0,0,0,0,-1,538,1590,0,0
-679,-566,0,0,0,0,0,0,0,0,0,-1,545,1590,0,0
-672,-566,0,0,0,0,0,0,0,0,0,-1,552,1590,0,0
-665,-566,0,0,0,0,0,0,0,0,0,-1,559,1590,0,0
-658,-566,0,0,0,0,0,0,0,0,0,-1,566,1590,0,0
-651,-566,0,0,0,0,0,0,0,0,0,-1,573,1590,0,0
-644,-566,0,0,0,0,0,0,0,0,0,-1,580,1590,0,0
-637,-566,0,0,0,0,0,0,0,0,0,-1,587,1590,0,0
-630,-566,0,0,0,0,0,0,0,0,0,-1,594,1590,0,0
-623,-566,0,0,0,0,0,0,0,0,0,-1,601,1590,0,0
-616,-566,0,0,0,0,0,0,0,0,0,-1,608,1590,0,0
-609,-566,0,0,0,0,0,0,0,0,0,-1,615,1590,0,0
-602,-566,0,0,0,0,0,0,0,0,0,-1,622,1590,0,0
-595,-566,0,0,0,0,0,0,0,0,0,-1,629,1590,0,0
-588,-566,0,0,0,0,0,0,0,0,0,-1,636,1590,0,0
-581,-566,0,0,0,0,0,0,0,0,0,-1,643,1590,0,0
-574,-566,0,0,0,0,0,0,0,0,0,-1,650,1590,0,0
-567,-566,0,0,0,0,0,0,0,0,0,-1,657,1590,0,0
-560,-566,0,0,0,0,0,0,0,0,0,-1,664,1590,0,0
-553,-566,0,0,0,0,0,0,0,0,0,-1,671,1590,0,0
-546,-566,0,0,0,0,0,0,0,0,0,-1,678,1590,0,0
-539,-566,0,0,0,0,0,0,0,0,0,-1,685,1590,0,0
-532,-566,0,0,0,0,0,0,0,0,0,-1,692,1590,0,0
-525,-566,0,0,0,0,0,0,0,0,0,-1,699,1590,0,0
-518,-566,0,0,0,0,0,0,0,0,0,-1,706,1590,0,0
-511,-566,0,0,0,0,0,0,0,0,0,-1,713,1590,0,0
-504,-566,0,0,0,0,0,0,0,0,0,-1,720,1590,0,0
-497,-566,0,0,0,0,0,0,0,0,0,-1,727,1590,0,0
-490,-566,0,0,0,0,0,0,0,0,0,-1,734,1590,0,0
-483,-566,4.20294,-5.20679,0,0,0,0,0,0,0,-1,741,1590,4.20293,5.20673
-476,-566,3.15808,-3.66577,-0.0661865,0.372002,0.141748,0.413858,-0.108042,1.28367,0.318095,0.0487847,748,1590,3.15807,3.6658
-469,-566,2.08295,-1.3374,-0.0582836,0.314705,0.125474,0.352985,-0.0965643,1.27468,0.273259,0.0428846,755,1590,2.08292,1.33738
-462,-566,2.10339,1.31812,-0.0505936,0.264713,0.109575,0.299052,-0.0849334,1.2671,0.2329,0.0401558,762,1590,2.10338,-1.31814
-455,-566,1.42297,2.64282,-0.0432949,0.220114,0.0939212,0.250172,-0.0733534,1.26106,0.195866,0.0433989,769,1590,1.42299,-2.64285
-448,-566,0.774231,4.00842,0,0,0,0,0,0,0,-1,776,1590,0.774255,-4.0084
-441,-566,1.26044,6.35852,0,0,0,0,0,0,0,-1,783,1590,1.26041,-6.35851
-434,-566,1.32135,6.81189,0,0,0,0,0,0,0,-1,790,1590,1.32136,-6.81184
-427,-566,1.22382,6.8252,-0.0160163,0.0755448,0.0334985,0.0864917,-0.0269632,1.25495,0.0684428,0.0386702,797,1590,1.22379,-6.82525
-420,-566,1.02301,7.27856,-0.0108134,0.0466425,0.0227237,0.0545433,-0.0187141,1.23618,0.0439491,0.029342,804,1590,1.02303,-7.27854
-413,-566,1.06354,7.46521,-0.00789302,0.0261687,0.0126427,0.0303484,-0.0120728,1.25151,0.0252381,0.0144164,811,1590,1.06353,-7.46526
-406,-566,1.06805,7.67725,-0.0044628,0.0108926,0.00425904,0.0119948,-0.00556499,1.31756,0.0103622,0.00888426,818,1590,1.06804,-7.67723
-399,-566,1.06598,7.87524,-0.00182449,0.00158744,0.000213363,0.00160073,-0.00183778,1.50859,0.0019868,0.00929925,825,1590,1.06598,-7.87521
-392,-566,1.03857,8.07178,-0.00133822,-7.96364e-05,-0.000396359,3.47845e-05,-0.00145264,-1.28976,0.000980229,0.0118308,832,1590,1.03859,-8.07182
-385,-566,1.0578,8.3219,-0.000912805,-0.000949596,-0.000706561,-0.0002244,-0.001638,-0.772384,0.00102542,0.0147733,839,1590,1.05782,-8.32188
-378,-566,1.0694,8.57068,-0.00049091,-0.00115521,-0.000564617,-0.000167991,-0.00147813,-0.519521,0.000934471,0.0149537,846,1590,1.06938,-8.5707
-371,-566,1.02179,8.76208,3.95264e-07,-0.000953597,-0.000356853,0.000119108,-0.00107231,-0.32115,0.000757703,0.0212239,853,1590,1.02179,-8.76208
-364,-566,1.03717,8.95422,0.000507155,-0.000110136,0.000135405,0.00053555,-0.000138532,0.206711,0.000411067,0.021655,860,1590,1.03714,-8.95428
-357,-566,1.03235,9.1366,0.00106628,0.00100889,0.000769072,0.0018072,0.000267983,0.766751,0.00112615,0.0177874,867,1590,1.03234,-9.13657
-350,-566,1.0506,9.33691,0.00202385,0.00231076,0.00137229,0.00354707,0.000787538,0.837477,0.00215081,0.0207604,874,1590,1.05057,-9.33695
-343,-566,1.06049,9.52234,0.00272453,0.00396241,0.00212266,0.00555452,0.00113242,0.927259,0.0033892,0.0249463,881,1590,1.06048,-9.52233
-336,-566,1.01721,9.73901,0.00319829,0.0058921,0.00249789,0.00738308,0.0017073,1.03266,0.00446317,0.0227456,888,1590,1.01722,-9.73903
-329,-566,1.0517,9.90247,0.00387221,0.0076243,0.00284724,0.009158,0.00233852,1.0767,0.0054943,0.013741,895,1590,1.05173,-9.90246
-322,-566,1.10602,10.1409,0.00439151,0.00930113,0.0028677,0.0106212,0.00307143,1.13939,0.00631124,0.015438,902,1590,1.10605,-10.1408
-315,-566,1.07556,10.2209,0.00477608,0.0107373,0.00250621,0.0116509,0.00386245,1.22122,0.00685279,0.0283159,909,1590,1.07556,-10.221
-308,-566,1.2121,10.4679,0.00516553,0.0117282,0.00174417,0.0121629,0.00473077,1.32651,0.00707976,0.0353375,916,1590,1.21208,-10.4679
-301,-566,1.35822,10.7423,0.0054757,0.0121634,0.000610638,0.0122187,0.0054204,1.48048,0.0070694,0.0421064,923,1590,1.35823,-10.7423
-294,-566,1.40076,10.9578,0,0,0,0,0,0,0,-1,930,1590,1.40075,-10.9577
-287,-566,0.556396,11.5321,0.00607085,0.0106911,-0.00263467,0.011885,0.00487696,-1.14533,0.00689847,0.0445316,937,1590,0.556425,-11.5321
-280,-566,0.582214,11.4846,0,0,0,0,0,0,0,-1,944,1590,0.582206,-11.4846
-273,-566,0.49762,11.2427,0,0,0,0,0,0,0,-1,951,1590,0.497591,-11.2426
-266,-566,0.392151,6.90295,0,0,0,0,0,0,0,-1,958,1590,0.392151,-6.90294
-259,-566,0.343628,6.47437,0,0,0,0,0,0,0,-1,965,1590,0.34363,-6.47438
-252,-566,-7.68311,1.01343,0,0,0,0,0,0,0,-1,972,1590,-7.68308,-1.01348
-245,-566,-10.1991,3.1759,0,0,0,0,0,0,0,-1,979,1590,-10.1991,-3.17586
-238,-566,-8.82385,3.38501,0,0,0,0,0,0,0,-1,986,1590,-8.82384,-3.38504
-231,-566,-5.30676,2.69019,0,0,0,0,0,0,0,-1,993,1590,-5.30674,-2.69013
-224,-566,-3.11914,5.40015,0,0,0,0,0,0,0,-1,1000,1590,-3.11915,-5.4001
-217,-566,-2.33643,6.79932,0,0,0,0,0,0,0,-1,1007,1590,-2.33642,-6.79936
-210,-566,-2.04175,7.89893,0,0,0,0,0,0,0,-1,1014,1590,-2.04177,-7.89897
-203,-566,0,0,0,0,0,0,0,0,0,-1,1021,1590,0,0
-196,-566,0,0,0,0,0,0,0,0,0,-1,1028,1590,0,0
-189,-566,0,0,0,0,0,0,0,0,0,-1,1035,1590,0,0
-182,-566,0,0,0,0,0,0,0,0,0,-1,1042,1590,0,0
-175,-566,0,0,0,0,0,0,0,0,0,-1,1049,1590,0,0
-168,-566,0,0,0,0,0,0,0,0,0,-1,1056,1590,0,0
-161,-566,0,0,0,0,0,0,0,0,0,-1,1063,1590,0,0
-154,-566,0,0,0,0,0,0,0,0,0,-1,1070,1590,0,0
-147,-566,0,0,0,0,0,0,0,0,0,-1,1077,1590,0,0
-140,-566,0,0,0,0,0,0,0,0,0,-1,1084,1590,0,0
-133,-566,0,0,0,0,0,0,0,0,0,-1,1091,1590,0,0
-126,-566,0,0,0,0,0,0,0,0,0,-1,1098,1590,0,0
-119,-566,0,0,0,0,0,0,0,0,0,-1,1105,1590,0,0
-112,-566,0,0,0,0,0,0,0,0,0,-1,1112,1590,0,0
-105,-566,0,0,0,0,0,0,0,0,0,-1,1119,1590,0,0
-98,-566,0,0,0,0,0,0,0,0,0,-1,1126,1590,0,0
-91,-566,0,0,0,0,0,0,0,0,0,-1,1133,1590,0,0
-84,-566,0,0,0,0,0,0,0,0,0,-1,1140,1590,0,0
-77,-566,0,0,0,0,0,0,0,0,0,-1,1147,1590,0,0
-70,-566,0,0,0,0,0,0,0,0,0,-1,1154,1590,0,0
-63,-566,0,0,0,0,0,0,0,0,0,-1,1161,1590,0,0
-56,-566,0,0,0,0,0,0,0,0,0,-1,1168,1590,0,0
-49,-566,0,0,0,0,0,0,0,0,0,-1,1175,1590,0,0
-42,-566,0,0,0,0,0,0,0,0,0,-1,1182,1590,0,0
-35,-566,0,0,0,0,0,0,0,0,0,-1,1189,1590,0,0
-28,-566,0,0,0,0,0,0,0,0,0,-1,1196,1590,0,0
-21,-566,0,0,0,0,0,0,0,0,0,-1,1203,1590,0,0
-14,-566,0,0,0,0,0,0,0,0,0,-1,1210,1590,0,0
-7,-566,0,0,0,0,0,0,0,0,0,-1,1217,1590,0,0
0,-566,0,0,0,0,0,0,0,0,0,-1,1224,1590,0,0
7,-566,0,0,0,0,0,0,0,0,0,-1,1231,1590,0,0
14,-566,0,0,0,0,0,0,0,0,0,-1,1238,1590,0,0
21,-566,0,0,0,0,0,0,0,0,0,-1,1245,1590,0,0
28,-566,0,0,0,0,0,0,0,0,0,-1,1252,1590,0,0
35,-566,0,0,0,0,0,0,0,0,0,-1,1259,1590,0,0
42,-566,0,0,0,0,0,0,0,0,0,-1,1266,1590,0,0
49,-566,0,0,0,0,0,0,0,0,0,-1,1273,1590,0,0
56,-566,0,0,0,0,0,0,0,0,0,-1,1280,1590,0,0
63,-566,0,0,0,0,0,0,0,0,0,-1,1287,1590,0,0
70,-566,0,0,0,0,0,0,0,0,0,-1,1294,1590,0,0
77,-566,0,0,0,0,0,0,0,0,0,-1,1301,1590,0,0
84,-566,0,0,0,0,0,0,0,0,0,-1,1308,1590,0,0
91,-566,0,0,0,0,0,0,0,0,0,-1,1315,1590,0,0
98,-566,0,0,0,0,0,0,0,0,0,-1,1322,1590,0,0
105,-566,0,0,0,0,0,0,0,0,0,-1,1329,1590,0,0
112,-566,0,0,0,0,0,0,0,0,0,-1,1336,1590,0,0
119,-566,0,0,0,0,0,0,0,0,0,-1,1343,1590,0,0
126,-566,0,0,0,0,0,0,0,0,0,-1,1350,1590,0,0
133,-566,0,0,0,0,0,0,0,0,0,-1,1357,1590,0,0
140,-566,0,0,0,0,0,0,0,0,0,-1,1364,1590,0,0
147,-566,0,0,0,0,0,0,0,0,0,-1,1371,1590,0,0
154,-566,0,0,0,0,0,0,0,0,0,-1,1378,1590,0,0
161,-566,0,0,0,0,0,0,0,0,0,-1,1385,1590,0,0
168,-566,0,0,0,0,0,0,0,0,0,-1,1392,1590,0,0
175,-566,0,0,0,0,0,0,0,0,0,-1,1399,1590,0,0
182,-566,0,0,0,0,0,0,0,0,0,-1,1406,1590,0,0
189,-566,0,0,0,0,0,0,0,0,0,-1,1413,1590,0,0
196,-566,0,0,0,0,0,0,0,0,0,-1,1420,1590,0,0
203,-566,0,0,0,0,0,0,0,0,0,-1,1427,1590,0,0
210,-566,0,0,0,0,0,0,0,0,0,-1,1434,1590,0,0
217,-566,0,0,0,0,0,0,0,0,0,-1,1441,1590,0,0
224,-566,0,0,0,0,0,0,0,0,0,-1,1448,1590,0,0
231,-566,0,0,0,0,0,0,0,0,0,-1,1455,1590,0,0
238,-566,0,0,0,0,0,0,0,0,0,-1,1462,1590,0,0
245,-566,0,0,0,0,0,0,0,0,0,-1,1469,1590,0,0
252,-566,0,0,0,0,0,0,0,0,0,-1,1476,1590,0,0
259,-566,0,0,0,0,0,0,0,0,0,-1,1483,1590,0,0
266,-566,0,0,0,0,0,0,0,0,0,-1,1490,1590,0,0
273,-566,0,0,0,0,0,0,0,0,0,-1,1497,1590,0,0
280,-566,0,0,0,0,0,0,0,0,0,-1,1504,1590,0,0
287,-566,0,0,0,0,0,0,0,0,0,-1,1511,1590,0,0
294,-566,0,0,0,0,0,0,0,0,0,-1,1518,1590,0,0
301,-566,0,0,0,0,0,0,0,0,0,-1,1525,1590,0,0
308,-566,0,0,0,0,0,0,0,0,0,-1,1532,1590,0,0
315,-566,0,0,0,0,0,0,0,0,0,-1,1539,1590,0,0
322,-566,6.07983,4.44873,0,0,0,0,0,0,0,-1,1546,1590,6.07983,-4.44873
329,-566,5.77026,3.47534,0,0,0,0,0,0,0,-1,1553,1590,5.77026,-3.47535
336,-566,5.41138,2.62915,0,0,0,0,0,0,0,-1,1560,1590,5.41138,-2.62909
343,-566,4.81873,1.79089,0,0,0,0,0,0,0,-1,1567,1590,4.81878,-1.79095
350,-566,4.41663,2.44214,0,0,0,0,0,0,0,-1,1574,1590,4.41666,-2.44214
357,-566,6.34058,5.18579,0,0,0,0,0,0,0,-1,1581,1590,6.34059,-5.1858
364,-566,6.06262,4.20251,0,0,0,0,0,0,0,-1,1588,1590,6.06259,-4.20246
371,-566,5.78455,3.21912,0,0,0,0,0,0,0,-1,1595,1590,5.7846,-3.21912
378,-566,5.7439,0.695557,0,0,0,0,0,0,0,-1,1602,1590,5.74392,-0.695531
385,-566,5.67615,-0.573975,0,0,0,0,0,0,0,-1,1609,1590,5.67612,0.573956
392,-566,5.78638,1.82434,0,0,0,0,0,0,0,-1,1616,1590,5.78637,-1.82439
399,-566,5.36621,1.7373,0,0,0,0,0,0,0,-1,1623,1590,5.36627,-1.7373
406,-566,4.30359,5.26868,0,0,0,0,0,0,0,-1,1630,1590,4.30364,-5.26867
413,-566,4.27124,5.79492,0,0,0,0,0,0,0,-1,1637,1590,4.27123,-5.7949
420,-566,7.19812,8.25146,0,0,0,0,0,0,0,-1,1644,1590,7.19817,-8.25149
427,-566,10.455,10.6842,0,0,0,0,0,0,0,-1,1651,1590,10.455,-10.6842
434,-566,8.07849,11.1299,0,0,0,0,0,0,0,-1,1658,1590,8.07846,-11.1299
441,-566,8.33643,11.2562,-0.0591023,-0.020261,0.00636387,-0.0192449,-0.0601184,1.41247,0.0354502,0.0471396,1665,1590,8.33642,-11.2562
448,-566,7.83191,11.1534,-0.0485881,-0.0188201,0.00650781,-0.0174596,-0.0499487,1.3647,0.0292698,0.0364513,1672,1590,7.83193,-11.1535
455,-566,7.6582,11.1523,-0.0389122,-0.0171352,0.00650024,-0.0153425,-0.0407049,1.3017,0.0237372,0.0246291,1679,1590,7.65816,-11.1523
462,-566,7.64026,11.0568,-0.0302168,-0.0152853,0.00631297,-0.012974,-0.0325281,1.21983,0.0189078,0.0154788,1686,1590,7.64031,-11.0568
469,-566,7.63245,10.8848,-0.022647,-0.013246,0.00599274,-0.0103302,-0.0255627,1.11797,0.0148488,0.0127011,1693,1590,7.6325,-10.8848
476,-566,7.64783,10.7156,-0.0164521,-0.011123,0.00549017,-0.00768493,-0.0198902,1.01132,0.011582,0.0102841,1700,1590,7.64783,-10.7156
483,-566,7.63953,10.5406,-0.0115035,-0.00893274,0.00474342,-0.00530362,-0.0151326,0.917711,0.00886608,0.0100895,1707,1590,7.63948,-10.5407
490,-566,7.62683,10.3506,-0.00769098,-0.00673118,0.00386072,-0.00332064,-0.0111015,0.847233,0.00657964,0.0105205,1714,1590,7.62682,-10.3506
497,-566,7.66858,10.1755,-0.00368975,-0.00531993,0.00298008,-0.0014153,-0.00759438,0.651907,0.0046633,0.0137981,1721,1590,7.66858,-10.1756
504,-566,7.66345,9.99609,-0.00108297,-0.00305992,0.0024675,0.000586681,-0.00472957,0.594887,0.00336569,0.0185172,1728,1590,7.66342,-9.99611
511,-566,7.6449,9.80249,-0.000100435,-0.00153003,0.00133062,0.000695229,-0.0023257,0.53892,0.00182685,0.0180058,1735,1590,7.64484,-9.80252
518,-566,7.65308,9.63086,0.000873582,-2.56617e-05,0.000270807,0.000948837,-0.000100917,0.271054,0.00066874,0.0117609,1742,1590,7.65311,-9.63082
525,-566,7.63696,9.42419,0.00195193,0.000984472,-0.000546373,0.00219794,0.000738463,-0.423068,0.00129154,0.011423,1749,1590,7.63694,-9.42417
532,-566,7.63635,9.23486,0.0030899,0.0017517,-0.00120045,0.00379513,0.00104647,-0.531154,0.00226339,0.0130557,1756,1590,7.63634,-9.23486
539,-566,7.6272,9.02698,0.00408758,0.0022994,-0.00177903,0.00518456,0.00120242,-0.552546,0.00313344,0.0169366,1763,1590,7.62717,-9.02693
546,-566,7.6748,8.80334,0.00493653,0.00314355,-0.00248076,0.00667781,0.00140227,-0.612011,0.00406587,0.0192222,1770,1590,7.67477,-8.80336
553,-566,7.74731,8.71582,0.00597014,0.0042796,-0.00334814,0.00857806,0.00167168,-0.661752,0.00525094,0.0365579,1777,1590,7.74734,-8.71582
560,-566,7.93152,8.67981,0.00714913,0.00616463,-0.00456164,0.011245,0.00206876,-0.731651,0.00691108,0.0483912,1784,1590,7.93149,-8.67981
567,-566,8.33594,8.56531,0,0,0,0,0,0,0,-1,1791,1590,8.33589,-8.56528
574,-566,7.99548,3.14514,0,0,0,0,0,0,0,-1,1798,1590,7.99543,-3.14511
581,-566,2.54102,5.1311,0,0,0,0,0,0,0,-1,1805,1590,2.54099,-5.13111
588,-566,-1.91321,8.39197,0,0,0,0,0,0,0,-1,1812,1590,-1.91316,-8.39199
595,-566,9.0271,4.66467,0,0,0,0,0,0,0,-1,1819,1590,9.02705,-4.66468
602,-566,9.953,3.54895,0,0,0,0,0,0,0,-1,1826,1590,9.953,-3.54898
609,-566,0,0,0,0,0,0,0,0,0,-1,1833,1590,0,0
616,-566,0,0,0,0,0,0,0,0,0,-1,1840,1590,0,0
623,-566,0,0,0,0,0,0,0,0,0,-1,1847,1590,0,0
630,-566,0,0,0,0,0,0,0,0,0,-1,1854,1590,0,0
637,-566,0,0,0,0,0,0,0,0,0,-1,1861,1590,0,0
644,-566,0,0,0,0,0,0,0,0,0,-1,1868,1590,0,0
651,-566,0,0,0,0,0,0,0,0,0,-1,1875,1590,0,0
658,-566,0,0,0,0,0,0,0,0,0,-1,1882,1590,0,0
665,-566,0,0,0,0,0,0,0,0,0,-1,1889,1590,0,0
672,-566,0,0,0,0,0,0,0,0,0,-1,1896,1590,0,0
679,-566,0,0,0,0,0,0,0,0,0,-1,1903,1590,0,0
686,-566,0,0,0,0,0,0,0,0,0,-1,1910,1590,0,0
693,-566,0,0,0,0,0,0,0,0,0,-1,1917,1590,0,0
700,-566,0,0,0,0,0,0,0,0,0,-1,1924,1590,0,0
707,-566,0,0,0,0,0,0,0,0,0,-1,1931,1590,0,0
714,-566,0,0,0,0,0,0,0,0,0,-1,1938,1590,0,0
721,-566,0,0,0,0,0,0,0,0,0,-1,1945,1590,0,0
728,-566,0,0,0,0,0,0,0,0,0,-1,1952,1590,0,0
735,-566,0,0,0,0,0,0,0,0,0,-1,1959,1590,0,0
742,-566,0,0,0,0,0,0,0,0,0,-1,1966,1590,0,0
749,-566,0,0,0,0,0,0,0,0,0,-1,1973,1590,0,0
756,-566,0,0,0,0,0,0,0,0,0,-1,1980,1590,0,0
763,-566,0,0,0,0,0,0,0,0,0,-1,1987,1590,0,0
770,-566,0,0,0,0,0,0,0,0,0,-1,1994,1590,0,0
777,-566,0,0,0,0,0,0,0,0,0,-1,2001,1590,0,0
784,-566,0,0,0,0,0,0,0,0,0,-1,2008,1590,0,0
791,-566,0,0,0,0,0,0,0,0,0,-1,2015,1590,0,0
798,-566,0,0,0,0,0,0,0,0,0,-1,2022,1590,0,0
805,-566,0,0,0,0,0,0,0,0,0,-1,2029,1590,0,0
812,-566,0,0,0,0,0,0,0,0,0,-1,2036,1590,0,0
-700,-573,0,0,0,0,0,0,0,0,0,-1,524,1597,0,0
-693,-573,0,0,0,0,0,0,0,0,0,-1,531,1597,0,0
-686,-573,0,0,0,0,0,0,0,0,0,-1,538,1597,0,0
-679,-573,0,0,0,0,0,0,0,0,0,-1,545,1597,0,0
-672,-573,0,0,0,0,0,0,0,0,0,-1,552,1597,0,0
-665,-573,0,0,0,0,0,0,0,0,0,-1,559,1597,0,0
-658,-573,0,0,0,0,0,0,0,0,0,-1,566,1597,0,0
-651,-573,0,0,0,0,0,0,0,0,0,-1,573,1597,0,0
-644,-573,0,0,0,0,0,0,0,0,0,-1,580,1597,0,0
-637,-573,0,0,0,0,0,0,0,0,0,-1,587,1597,0,0
-630,-573,0,0,0,0,0,0,0,0,0,-1,594,1597,0,0
-623,-573,0,0,0,0,0,0,0,0,0,-1,601,1597,0,0
-616,-573,0,0,0,0,0,0,0,0,0,-1,608,1597,0,0
-609,-573,0,0,0,0,0,0,0,0,0,-1,615,1597,0,0
-602,-573,0,0,0,0,0,0,0,0,0,-1,622,1597,0,0
-595,-573,0,0,0,0,0,0,0,0,0,-1,629,1597,0,0
-588,-573,0,0,0,0,0,0,0,0,0,-1,636,1597,0,0
-581,-573,0,0,0,0,0,0,0,0,0,-1,643,1597,0,0
-574,-573,0,0,0,0,0,0,0,0,0,-1,650,1597,0,0
-567,-573,0,0,0,0,0,0,0,0,0,-1,657,1597,0,0
-560,-573,0,0,0,0,0,0,0,0,0,-1,664,1597,0,0
-553,-573,0,0,0,0,0,0,0,0,0,-1,671,1597,0,0
-546,-573,0,0,0,0,0,0,0,0,0,-1,678,1597,0,0
-539,-573,0,0,0,0,0,0,0,0,0,-1,685,1597,0,0
-532,-573,0,0,0,0,0,0,0,0,0,-1,692,1597,0,0
-525,-573,0,0,0,0,0,0,0,0,0,-1,699,1597,0,0
-518,-573,0,0,0,0,0,0,0,0,0,-1,706,1597,0,0
-511,-573,0,0,0,0,0,0,0,0,0,-1,713,1597,0,0
-504,-573,0,0,0,0,0,0,0,0,0,-1,720,1597,0,0
-497,-573,0,0,0,0,0,0,0,0,0,-1,727,1597,0,0
-490,-573,0,0,0,0,0,0,0,0,0,-1,734,1597,0,0
-483,-573,0,0,0,0,0,0,0,0,0,-1,741,1597,0,0
-476,-573,2.35205,-6.3374,0,0,0,0,0,0,0,-1,748,1597,2.35206,6.33739
-469,-573,1.83734,-3.37598,-0.0695229,0.3458,0.153005,0.39608,-0.119803,1.2533,0.311757,0.0439523,755,1597,1.83734,3.376
-462,-573,2.07416,-0.253296,-0.0604856,0.292269,0.134046,0.337426,-0.105643,1.24586,0.267219,0.0440773,762,1597,2.07414,0.253237
-455,-573,1.36182,1.16772,-0.0520734,0.245416,0.115572,0.285038,-0.091695,1.24052,0.226854,0.0465574,769,1597,1.36184,-1.16777
-448,-573,0.656982,2.63354,0,0,0,0,0,0,0,-1,776,1597,0.65697,-2.63357
-441,-573,-0.0413818,6.01953,0,0,0,0,0,0,0,-1,783,1597,-0.0413941,-6.0195
-434,-573,1.38513,5.68481,0,0,0,0,0,0,0,-1,790,1597,1.38513,-5.68484
-427,-573,1.42719,6.29187,-0.0199546,0.0904054,0.0422243,0.104707,-0.0342565,1.24421,0.083597,0.0495871,797,1597,1.42721,-6.29184
-420,-573,1.40247,7.07312,-0.013994,0.0576067,0.0285462,0.0675944,-0.0239817,1.23423,0.0548337,0.0410038,804,1597,1.40249,-7.07306
-413,-573,1.36664,7.40686,-0.0103118,0.0333432,0.0160464,0.0386068,-0.0155753,1.25383,0.0322103,0.0314824,811,1597,1.36666,-7.40686
-406,-573,1.27545,7.65149,-0.00583722,0.0136958,0.00544351,0.0151103,-0.00725179,1.31656,0.0131738,0.0161079,818,1597,1.27543,-7.65145
-399,-573,1.26611,7.88708,-0.00234091,0.0012085,8.0463e-05,0.00121032,-0.00234273,1.54814,0.00208579,0.0102786,825,1597,1.26611,-7.88711
-392,-573,1.27136,8.10059,-0.00185298,-0.000573866,-0.000586285,-0.000345804,-0.00208104,-1.19981,0.00128767,0.0109522,832,1597,1.27136,-8.10057
-385,-573,1.26599,8.32629,-0.00143218,-0.00149172,-0.000952898,-0.000508584,-0.00241531,-0.769783,0.0014703,0.0129936,839,1597,1.26597,-8.3263
-378,-573,1.28088,8.54443,-0.000978107,-0.00178035,-0.000865333,-0.000425446,-0.00233301,-0.568368,0.00143471,0.0139519,846,1597,1.28089,-8.5444
-371,-573,1.26367,8.75842,-0.000447254,-0.00183085,-0.000721564,-0.000139433,-0.00213867,-0.403227,0.00138165,0.0155248,853,1597,1.2637,-8.75841
-364,-573,1.24243,8.95007,6.49451e-05,-0.00109753,-0.0002681,0.000123797,-0.00115639,-0.216087,0.000815329,0.0188234,860,1597,1.24243,-8.95001
-357,-573,1.23694,9.13525,0.000606379,-0.000203173,0.000259126,0.000682217,-0.000279011,0.284717,0.000571008,0.0220342,867,1597,1.23695,-9.13531
-350,-573,1.25568,9.34314,0.00142929,0.000951435,0.000799645,0.00202494,0.000355786,0.640225,0.00124838,0.0172967,874,1597,1.2557,-9.3431
-343,-573,1.28119,9.52185,0.00204485,0.00228602,0.00141331,0.00358388,0.000746995,0.827955,0.00218327,0.020922,881,1597,1.28121,-9.52186
-336,-573,1.24731,9.74072,0.00237827,0.00389735,0.00168683,0.00498776,0.00128787,0.99694,0.00298982,0.0167024,888,1597,1.2473,-9.74068
-329,-573,1.24457,9.94336,0.00287531,0.00523649,0.00191536,0.00630588,0.00180592,1.06159,0.00374982,0.0159885,895,1597,1.24457,-9.9434
-322,-573,1.25696,10.1411,0.00326177,0.00644452,0.00187584,0.00731308,0.00239321,1.13717,0.00430539,0.0111979,902,1597,1.25698,-10.1412
-315,-573,1.33704,10.3628,0.00342298,0.00747749,0.0015113,0.00797883,0.00292164,1.25049,0.00466126,0.0183881,909,1597,1.33706,-10.3628
-308,-573,1.36121,10.4595,0.00354398,0.00818455,0.000880839,0.00834612,0.00338241,1.38939,0.00484738,0.028262,916,1597,1.36122,-10.4595
-301,-573,1.38892,10.6357,0.0036474,0.00852655,5.53577e-05,0.00852717,0.00364677,1.55945,0.00494031,0.0293218,923,1597,1.38894,-10.6358
-294,-573,1.32489,10.9683,0.00371498,0.00809342,-0.000956901,0.00829341,0.00351498,-1.36476,0.00480669,0.0345883,930,1597,1.32488,-10.9682
-287,-573,0.969177,11.3021,0.00374981,0.00732612,-0.00222199,0.00839011,0.00268582,-1.12422,0.00494743,0.0448701,937,1597,0.969149,-11.3022
-280,-573,0.744629,11.5101,0,0,0,0,0,0,0,-1,944,1597,0.744623,-11.5101
-273,-573,-0.225037,10.6533,0,0,0,0,0,0,0,-1,951,1597,-0.225018,-10.6533
-266,-573,1.31116,7.1814,0,0,0,0,0,0,0,-1,958,1597,1.31118,-7.18142
-259,-573,1.2514,6.70959,0,0,0,0,0,0,0,-1,965,1597,1.25137,-6.70965
-252,-573,2.07874,5.27161,0,0,0,0,0,0,0,-1,972,1597,2.07875,-5.27157
-245,-573,-10.2592,1.09827,0,0,0,0,0,0,0,-1,979,1597,-10.2592,-1.09823
-238,-573,-8.75061,1.73584,0,0,0,0,0,0,0,-1,986,1597,-8.75059,-1.73585
-231,-573,-6.87231,2.16699,0,0,0,0,0,0,0,-1,993,1597,-6.8723,-2.16704
-224,-573,-4.73047,2.63538,0,0,0,0,0,0,0,-1,1000,1597,-4.73048,-2.63537
-217,-573,-3.57495,6.78931,0,0,0,0,0,0,0,-1,1007,1597,-3.57495,-6.78931
-210,-573,-2.81018,7.94775,0,0,0,0,0,0,0,-1,1014,1597,-2.81015,-7.94777
-203,-573,-1.79614,9.03638,0,0,0,0,0,0,0,-1,1021,1597,-1.79612,-9.03643
-196,-573,-4.87726,6.96936,0,0,0,0,0,0,0,-1,1028,1597,-4.87723,-6.96935
-189,-573,-6.12915,6.66882,0,0,0,0,0,0,0,-1,1035,1597,-6.12913,-6.66884
-182,-573,0,0,0,0,0,0,0,0,0,-1,1042,1597,0,0
-175,-573,0,0,0,0,0,0,0,0,0,-1,1049,1597,0,0
-168,-573,0,0,0,0,0,0,0,0,0,-1,1056,1597,0,0
-161,-573,0,0,0,0,0,0,0,0,0,-1,1063,1597,0,0
-154,-573,0,0,0,0,0,0,0,0,0,-1,1070,1597,0,0
-147,-573,0,0,0,0,0,0,0,0,0,-1,1077,1597,0,0
-140,-573,0,0,0,0,0,0,0,0,0,-1,1084,1597,0,0
-133,-573,0,0,0,0,0,0,0,0,0,-1,1091,1597,0,0
-126,-573,0,0,0,0,0,0,0,0,0,-1,1098,1597,0,0
-119,-573,0,0,0,0,0,0,0,0,0,-1,1105,1597,0,0
-112,-573,0,0,0,0,0,0,0,0,0,-1,1112,1597,0,0
-105,-573,0,0,0,0,0,0,0,0,0,-1,1119,1597,0,0
-98,-573,0,0,0,0,0,0,0,0,0,-1,1126,1597,0,0
-91,-573,0,0,0,0,0,0,0,0,0,-1,1133,1597,0,0
-84,-573,0,0,0,0,0,0,0,0,0,-1,1140,1597,0,0
-77,-573,0,0,0,0,0,0,0,0,0,-1,1147,1597,0,0
-70,-573,0,0,0,0,0,0,0,0,0,-1,1154,1597,0,0
-63,-573,0,0,0,0,0,0,0,0,0,-1,1161,1597,0,0
-56,-573,0,0,0,0,0,0,0,0,0,-1,1168,1597,0,0
-49,-573,0,0,0,0,0,0,0,0,0,-1,1175,1597,0,0
-42,-573,0,0,0,0,0,0,0,0,0,-1,1182,1597,0,0
-35,-573,0,0,0,0,0,0,0,0,0,-1,1189,1597,0,0
-28,-573,0,0,0,0,0,0,0,0,0,-1,1196,1597,0,0
-21,-573,0,0,0,0,0,0,0,0,0,-1,1203,1597,0,0
-14,-573,0,0,0,0,0,0,0,0,0,-1,1210,1597,0,0
-7,-573,0,0,0,0,0,0,0,0,0,-1,1217,1597,0,0
0,-573,0,0,0,0,0,0,0,0,0,-1,1224,1597,0,0
7,-573,0,0,0,0,0,0,0,0,0,-1,1231,1597,0,0
14,-573,0,0,0,0,0,0,0,0,0,-1,1238,1597,0,0
21,-573,0,0,0,0,0,0,0,0,0,-1,1245,1597,0,0
28,-573,0,0,0,0,0,0,0,0,0,-1,1252,1597,0,0
35,-573,0,0,0,0,0,0,0,0,0,-1,1259,1597,0,0
42,-573,0,0,0,0,0,0,0,0,0,-1,1266,1597,0,0
49,-573,0,0,0,0,0,0,0,0,0,-1,1273,1597,0,0
56,-573,0,0,0,0,0,0,0,0,0,-1,1280,1597,0,0
63,-573,0,0,0,0,0,0,0,0,0,-1,1287,1597,0,0
70,-573,0,0,0,0,0,0,0,0,0,-1,1294,1597,0,0
77,-573,0,0,0,0,0,0,0,0,0,-1,1301,1597,0,0
84,-573,0,0,0,0,0,0,0,0,0,-1,1308,1597,0,0
91,-573,0,0,0,0,0,0,0,0,0,-1,1315,1597,0,0
98,-573,0,0,0,0,0,0,0,0,0,-1,1322,1597,0,0
105,-573,0,0,0,0,0,0,0,0,0,-1,1329,1597,0,0
112,-573,0,0,0,0,0,0,0,0,0,-1,1336,1597,0,0
119,-573,0,0,0,0,0,0,0,0,0,-1,1343,1597,0,0
126,-573,0,0,0,0,0,0,0,0,0,-1,1350,1597,0,0
133,-573,0,0,0,0,0,0,0,0,0,-1,1357,1597,0,0
140,-573,0,0,0,0,0,0,0,0,0,-1,1364,1597,0,0
147,-573,0,0,0,0,0,0,0,0,0,-1,1371,1597,0,0
154,-573,0,0,0,0,0,0,0,0,0,-1,1378,1597,0,0
161,-573,0,0,0,0,0,0,0,0,0,-1,1385,1597,0,0
168,-573,0,0,0,0,0,0,0,0,0,-1,1392,1597,0,0
175,-573,0,0,0,0,0,0,0,0,0,-1,1399,1597,0,0
182,-573,0,0,0,0,0,0,0,0,0,-1,1406,1597,0,0
189,-573,0,0,0,0,0,0,0,0,0,-1,1413,1597,0,0
196,-573,0,0,0,0,0,0,0,0,0,-1,1420,1597,0,0
203,-573,0,0,0,0,0,0,0,0,0,-1,1427,1597,0,0
210,-573,0,0,0,0,0,0,0,0,0,-1,1434,1597,0,0
217,-573,0,0,0,0,0,0,0,0,0,-1,1441,1597,0,0
224,-573,0,0,0,0,0,0,0,0,0,-1,1448,1597,0,0
231,-573,0,0,0,0,0,0,0,0,0,-1,1455,1597,0,0
238,-573,0,0,0,0,0,0,0,0,0,-1,1462,1597,0,0
245,-573,0,0,0,0,0,0,0,0,0,-1,1469,1597,0,0
252,-573,0,0,0,0,0,0,0,0,0,-1,1476,1597,0,0
259,-573,0,0,0,0,0,0,0,0,0,-1,1483,1597,0,0
266,-573,0,0,0,0,0,0,0,0,0,-1,1490,1597,0,0
273,-573,0,0,0,0,0,0,0,0,0,-1,1497,1597,0,0
280,-573,0,0,0,0,0,0,0,0,0,-1,1504,1597,0,0
287,-573,0,0,0,0,0,0,0,0,0,-1,1511,1597,0,0
294,-573,0,0,0,0,0,0,0,0,0,-1,1518,1597,0,0
301,-573,0,0,0,0,0,0,0,0,0,-1,1525,1597,0,0
308,-573,9.99329,6.14063,0,0,0,0,0,0,0,-1,1532,1597,9.99331,-6.14065
315,-573,10.5015,6.63318,0,0,0,0,0,0,0,-1,1539,1597,10.5014,-6.63316
322,-573,10.3269,7.77563,0,0,0,0,0,0,0,-1,1546,1597,10.327,-7.77565
329,-573,4.99573,3.80273,0,0,0,0,0,0,0,-1,1553,1597,4.9957,-3.80273
336,-573,4.85693,2.53455,0,0,0,0,0,0,0,-1,1560,1597,4.8569,-2.53459
343,-573,4.11877,0.735596,0,0,0,0,0,0,0,-1,1567,1597,4.11878,-0.735585
350,-573,2.53748,1.56433,0,0,0,0,0,0,0,-1,1574,1597,2.53753,-1.5643
357,-573,7.40247,4.03613,0,0,0,0,0,0,0,-1,1581,1597,7.40244,-4.03614
364,-573,7.14551,3.02087,0,0,0,0,0,0,0,-1,1588,1597,7.14556,-3.02084
371,-573,6.88867,2.00549,0,0,0,0,0,0,0,-1,1595,1597,6.88868,-2.00553
378,-573,8.62012,6.09106,0,0,0,0,0,0,0,-1,1602,1597,8.62012,-6.09103
385,-573,6.54346,-0.951904,0,0,0,0,0,0,0,-1,1609,1597,6.54349,0.951901
392,-573,6.41833,-2.18225,0,0,0,0,0,0,0,-1,1616,1597,6.41831,2.18228
399,-573,4.26282,4.73657,0,0,0,0,0,0,0,-1,1623,1597,4.26285,-4.73652
406,-573,6.82715,10.823,0,0,0,0,0,0,0,-1,1630,1597,6.82719,-10.823
413,-573,7.8219,11.5488,0,0,0,0,0,0,0,-1,1637,1597,7.82185,-11.5489
420,-573,7.75183,11.4521,0,0,0,0,0,0,0,-1,1644,1597,7.75188,-11.4521
427,-573,8.00928,11.0597,0,0,0,0,0,0,0,-1,1651,1597,8.00924,-11.0597
434,-573,7.73865,11.2817,-0.0479139,-0.0164749,0.00686524,-0.0150412,-0.0493476,1.36491,0.0292056,0.0443384,1658,1597,7.73866,-11.2817
441,-573,7.56555,11.4731,-0.04139,-0.015379,0.00645751,-0.0138641,-0.0429049,1.34037,0.0252824,0.0289384,1665,1597,7.56556,-11.4732
448,-573,7.44641,11.4073,-0.0345743,-0.0140368,0.00604281,-0.0123907,-0.0362203,1.30485,0.0212566,0.0182113,1672,1597,7.44639,-11.4073
455,-573,7.42847,11.2313,-0.0281516,-0.0125918,0.00556857,-0.0108042,-0.0299392,1.26018,0.017507,0.0155072,1679,1597,7.42847,-11.2313
462,-573,7.46228,11.0299,-0.0221243,-0.0110834,0.00503733,-0.00913056,-0.0240772,1.20096,0.0140355,0.0178405,1686,1597,7.46227,-11.0299
469,-573,7.46436,10.8646,-0.0166671,-0.00945802,0.00451911,-0.00728198,-0.0188432,1.12204,0.0109722,0.0153521,1693,1597,7.46435,-10.8647
476,-573,7.49292,10.6963,-0.0121118,-0.00778686,0.00394735,-0.00544846,-0.0144502,1.03599,0.00842649,0.0143506,1700,1597,7.49296,-10.6963
483,-573,7.47375,10.5365,-0.0083466,-0.00602599,0.00321941,-0.00376417,-0.0106084,0.958357,0.00621023,0.0120136,1707,1597,7.47375,-10.5365
490,-573,7.43982,10.3595,-0.00535382,-0.00422612,0.0024093,-0.00231557,-0.00726437,0.900344,0.00428495,0.0101456,1714,1597,7.43976,-10.3595
497,-573,7.46814,10.1749,-0.00224298,-0.00301127,0.00156492,-0.00101574,-0.00423851,0.665041,0.00255529,0.0143808,1721,1597,7.46815,-10.1749
504,-573,7.47021,9.97375,-0.000245333,-0.0011898,0.0010831,0.000464002,-0.00189914,0.579821,0.00144579,0.016523,1728,1597,7.47026,-9.97374
511,-573,7.48096,9.75854,0.000666052,6.31197e-05,0.000144246,0.000698784,3.03872e-05,0.223143,0.000456065,0.017643,1735,1597,7.48098,-9.75857
518,-573,7.4541,9.6073,0.00159517,0.00122293,-0.000701792,0.0021351,0.000682997,-0.65578,0.00125908,0.0143844,1742,1597,7.45405,-9.60726
525,-573,7.43469,9.4585,0.00266448,0.00201067,-0.00134261,0.00371941,0.000955741,-0.665979,0.00223036,0.0173233,1749,1597,7.43468,-9.45851
532,-573,7.46411,9.22302,0.00385188,0.00271433,-0.00193027,0.00529543,0.00127078,-0.642122,0.00319215,0.0155365,1756,1597,7.46409,-9.22299
539,-573,7.45215,9.03552,0.00492748,0.00315279,-0.00239711,0.0065962,0.00148406,-0.608132,0.00399573,0.0193868,1763,1597,7.45211,-9.03548
546,-573,7.50586,8.84387,0.00594724,0.00389975,-0.00304817,0.00813898,0.001708,-0.623389,0.00495576,0.0314796,1770,1597,7.50588,-8.84382
553,-573,7.32642,8.61816,0.00723394,0.00494858,-0.00389817,0.0101535,0.00202906,-0.642826,0.00620422,0.0475325,1777,1597,7.32645,-8.61814
560,-573,7.37952,8.42712,0,0,0,0,0,0,0,-1,1784,1597,7.37946,-8.4271
567,-573,4.99597,2.77759,0,0,0,0,0,0,0,-1,1791,1597,4.99596,-2.7776
574,-573,0.83374,5.7041,0,0,0,0,0,0,0,-1,1798,1597,0.833718,-5.70405
581,-573,-0.224854,7.41602,0,0,0,0,0,0,0,-1,1805,1597,-0.224904,-7.41596
588,-573,-0.134033,7.67065,0,0,0,0,0,0,0,-1,1812,1597,-0.134037,-7.67063
595,-573,-0.0825195,8.35083,0,0,0,0,0,0,0,-1,1819,1597,-0.0824684,-8.35088
602,-573,0,0,0,0,0,0,0,0,0,-1,1826,1597,0,0
609,-573,0,0,0,0,0,0,0,0,0,-1,1833,1597,0,0
616,-573,0,0,0,0,0,0,0,0,0,-1,1840,1597,0,0
623,-573,0,0,0,0,0,0,0,0,0,-1,1847,1597,0,0
630,-573,0,0,0,0,0,0,0,0,0,-1,1854,1597,0,0
637,-573,0,0,0,0,0,0,0,0,0,-1,1861,1597,0,0
644,-573,0,0,0,0,0,0,0,0,0,-1,1868,1597,0,0
651,-573,0,0,0,0,0,0,0,0,0,-1,1875,1597,0,0
658,-573,0,0,0,0,0,0,0,0,0,-1,1882,1597,0,0
665,-573,0,0,0,0,0,0,0,0,0,-1,1889,1597,0,0
672,-573,0,0,0,0,0,0,0,0,0,-1,1896,1597,0,0
679,-573,0,0,0,0,0,0,0,0,0,-1,1903,1597,0,0
686,-573,0,0,0,0,0,0,0,0,0,-1,1910,1597,0,0
693,-573,0,0,0,0,0,0,0,0,0,-1,1917,1597,0,0
700,-573,0,0,0,0,0,0,0,0,0,-1,1924,1597,0,0
707,-573,0,0,0,0,0,0,0,0,0,-1,1931,1597,0,0
714,-573,0,0,0,0,0,0,0,0,0,-1,1938,1597,0,0
721,-573,0,0,0,0,0,0,0,0,0,-1,1945,1597,0,0
728,-573,0,0,0,0,0,0,0,0,0,-1,1952,1597,0,0
735,-573,0,0,0,0,0,0,0,0,0,-1,1959,1597,0,0
742,-573,0,0,0,0,0,0,0,0,0,-1,1966,1597,0,0
749,-573,0,0,0,0,0,0,0,0,0,-1,1973,1597,0,0
756,-573,0,0,0,0,0,0,0,0,0,-1,1980,1597,0,0
763,-573,0,0,0,0,0,0,0,0,0,-1,1987,1597,0,0
770,-573,0,0,0,0,0,0,0,0,0,-1,1994,1597,0,0
777,-573,0,0,0,0,0,0,0,0,0,-1,2001,1597,0,0
784,-573,0,0,0,0,0,0,0,0,0,-1,2008,1597,0,0
791,-573,0,0,0,0,0,0,0,0,0,-1,2015,1597,0,0
798,-573,0,0,0,0,0,0,0,0,0,-1,2022,1597,0,0
805,-573,0,0,0,0,0,0,0,0,0,-1,2029,1597,0,0
812,-573,0,0,0,0,0,0,0,0,0,-1,2036,1597,0,0
-700,-580,0,0,0,0,0,0,0,0,0,-1,524,1604,0,0
-693,-580,0,0,0,0,0,0,0,0,0,-1,531,1604,0,0
-686,-580,0,0,0,0,0,0,0,0,0,-1,538,1604,0,0
-679,-580,0,0,0,0,0,0,0,0,0,-1,545,1604,0,0
-672,-580,0,0,0,0,0,0,0,0,0,-1,552,1604,0,0
-665,-580,0,0,0,0,0,0,0,0,0,-1,559,1604,0,0
-658,-580,0,0,0,0,0,0,0,0,0,-1,566,1604,0,0
-651,-580,0,0,0,0,0,0,0,0,0,-1,573,1604,0,0
-644,-580,0,0,0,0,0,0,0,0,0,-1,580,1604,0,0
-637,-580,0,0,0,0,0,0,0,0,0,-1,587,1604,0,0
-630,-580,0,0,0,0,0,0,0,0,0,-1,594,1604,0,0
-623,-580,0,0,0,0,0,0,0,0,0,-1,601,1604,0,0
-616,-580,0,0,0,0,0,0,0,0,0,-1,608,1604,0,0
-609,-580,0,0,0,0,0,0,0,0,0,-1,615,1604,0,0
-602,-580,0,0,0,0,0,0,0,0,0,-1,622,1604,0,0
-595,-580,0,0,0,0,0,0,0,0,0,-1,629,1604,0,0
-588,-580,0,0,0,0,0,0,0,0,0,-1,636,1604,0,0
-581,-580,0,0,0,0,0,0,0,0,0,-1,643,1604,0,0
-574,-580,0,0,0,0,0,0,0,0,0,-1,650,1604,0,0
-567,-580,0,0,0,0,0,0,0,0,0,-1,657,1604,0,0
-560,-580,0,0,0,0,0,0,0,0,0,-1,664,1604,0,0
-553,-580,0,0,0,0,0,0,0,0,0,-1,671,1604,0,0
-546,-580,0,0,0,0,0,0,0,0,0,-1,678,1604,0,0
-539,-580,0,0,0,0,0,0,0,0,0,-1,685,1604,0,0
-532,-580,0,0,0,0,0,0,0,0,0,-1,692,1604,0,0
-525,-580,0,0,0,0,0,0,0,0,0,-1,699,1604,0,0
-518,-580,0,0,0,0,0,0,0,0,0,-1,706,1604,0,0
-511,-580,0,0,0,0,0,0,0,0,0,-1,713,1604,0,0
-504,-580,0,0,0,0,0,0,0,0,0,-1,720,1604,0,0
-497,-580,0,0,0,0,0,0,0,0,0,-1,727,1604,0,0
-490,-580,0,0,0,0,0,0,0,0,0,-1,734,1604,0,0
-483,-580,0,0,0,0,0,0,0,0,0,-1,741,1604,0,0
-476,-580,0,0,0,0,0,0,0,0,0,-1,748,1604,0,0
-469,-580,3.14844,-3.7981,-0.0774252,0.359589,0.178557,0.423266,-0.141102,1.22824,0.339141,0.0489364,755,1604,3.14841,3.79804
-462,-580,2.25659,-2.00464,-0.0674108,0.305372,0.156676,0.362474,-0.124513,1.2213,0.292136,0.0489463,762,1604,2.25656,2.00459
-455,-580,1.28888,-0.529541,-0.058564,0.259347,0.135854,0.309493,-0.108709,1.2172,0.250553,0.0486472,769,1604,1.28887,0.529497
-448,-580,0.500366,1.39294,0,0,0,0,0,0,0,-1,776,1604,0.500373,-1.3929
-441,-580,-0.267151,4.01672,0,0,0,0,0,0,0,-1,783,1604,-0.267172,-4.01678
-434,-580,-0.678833,6.64819,0,0,0,0,0,0,0,-1,790,1604,-0.67886,-6.64821
-427,-580,1.6579,5.84705,0,0,0,0,0,0,0,-1,797,1604,1.6579,-5.84708
-420,-580,1.79565,6.87097,0,0,0,0,0,0,0,-1,804,1604,1.79563,-6.87094
-413,-580,1.52661,7.00269,-0.0135361,0.0413004,0.0195389,0.04755,-0.0197858,1.26122,0.0399627,0.0479944,811,1604,1.52659,-7.00265
-406,-580,1.5697,7.71204,-0.00765431,0.0165014,0.00654757,0.018162,-0.00931491,1.32241,0.0161356,0.0388033,818,1604,1.56973,-7.71202
-399,-580,1.47125,7.91064,-0.00298645,4.56463e-05,-0.000381747,9.29704e-05,-0.00303377,-1.44746,0.00205421,0.0171955,825,1604,1.47124,-7.91064
-392,-580,1.46857,8.11487,-0.00243778,-0.00181878,-0.00106535,-0.00101889,-0.00323768,-0.926765,0.00191159,0.0111337,832,1604,1.46858,-8.11481
-385,-580,1.48309,8.32178,-0.00196331,-0.00273873,-0.00141535,-0.000883528,-0.00381852,-0.651711,0.00230824,0.0108157,839,1604,1.48308,-8.32175
-378,-580,1.47424,8.54089,-0.00143047,-0.00303137,-0.00130132,-0.000703128,-0.00375872,-0.509672,0.00230743,0.0136097,846,1604,1.47423,-8.54086
-371,-580,1.47809,8.76172,-0.000821002,-0.00320022,-0.00113324,-0.000367623,-0.0036536,-0.380569,0.00232291,0.0131888,853,1604,1.47806,-8.76174
-364,-580,1.46783,8.96875,-0.000258595,-0.00247381,-0.000634459,-8.9749e-05,-0.00264265,-0.260097,0.00173263,0.0187617,860,1604,1.46786,-8.9688
-357,-580,1.46075,9.15076,0.000303345,-0.00166903,-0.000127572,0.000311562,-0.00167725,-0.064322,0.00123519,0.013152,867,1604,1.46075,-9.15071
-350,-580,1.47467,9.37439,0.00102818,-0.000526868,0.000411675,0.00113044,-0.000629127,0.243471,0.00102954,0.0107562,874,1604,1.47465,-9.37442
-343,-580,1.47412,9.55066,0.00157396,0.000668424,0.000952486,0.00217582,6.65706e-05,0.563529,0.00142887,0.011684,881,1604,1.47413,-9.55067
-336,-580,1.45911,9.70728,0.001782,0.00214687,0.00118412,0.00316252,0.000766339,0.861831,0.00190499,0.0193722,888,1604,1.45909,-9.70724
-329,-580,1.46393,9.94653,0.00210208,0.00331773,0.00134282,0.00418388,0.00123593,0.997925,0.00248206,0.016986,895,1604,1.46391,-9.94648
-322,-580,1.44574,10.1484,0.00236361,0.00429906,0.00129647,0.00494915,0.00171352,1.106,0.00290209,0.0171085,902,1604,1.44572,-10.1485
-315,-580,1.46912,10.3373,0.00232397,0.00514413,0.00092881,0.00542255,0.00204555,1.27957,0.00316201,0.0143582,909,1604,1.46912,-10.3373
-308,-580,1.50415,10.5742,0.00215801,0.00570281,0.000321454,0.00573172,0.0021291,1.48109,0.00334547,0.017046,916,1604,1.50415,-10.5743
-301,-580,1.54938,10.7153,0.00207595,0.00600927,-0.000312379,0.00603392,0.00205129,-1.49204,0.00354267,0.0155011,923,1604,1.54937,-10.7154
-294,-580,1.55823,10.8613,0.00202291,0.00561289,-0.00105255,0.00589873,0.00173707,-1.30562,0.00350022,0.0192673,930,1604,1.55825,-10.8613
-287,-580,1.44299,11.0692,0.00193967,0.00501842,-0.00197699,0.00598467,0.000973421,-1.11619,0.00370814,0.0404414,937,1604,1.443,-11.0692
-280,-580,1.57697,11.3063,0,0,0,0,0,0,0,-1,944,1604,1.57699,-11.3063
-273,-580,1.44061,11.5236,0,0,0,0,0,0,0,-1,951,1604,1.44063,-11.5236
-266,-580,0.494202,8.78955,0,0,0,0,0,0,0,-1,958,1604,0.494174,-8.78958
-259,-580,1.31091,9.11536,0,0,0,0,0,0,0,-1,965,1604,1.31092,-9.11539
-252,-580,1.07629,7.74097,0,0,0,0,0,0,0,-1,972,1604,1.07627,-7.74101
-245,-580,3.80304,9.16028,0,0,0,0,0,0,0,-1,979,1604,3.80306,-9.16034
-238,-580,-10.3588,1.57556,0,0,0,0,0,0,0,-1,986,1604,-10.3588,-1.5755
-231,-580,-8.31555,2.04456,0,0,0,0,0,0,0,-1,993,1604,-8.31553,-2.04457
-224,-580,-5.93512,5.573,0,0,0,0,0,0,0,-1,1000,1604,-5.93513,-5.57301
-217,-580,-4.62665,6.6665,0,0,0,0,0,0,0,-1,1007,1604,-4.62663,-6.66649
-210,-580,-3.7674,8.03394,0,0,0,0,0,0,0,-1,1014,1604,-3.76738,-8.03397
-203,-580,-3.01923,7.66492,0,0,0,0,0,0,0,-1,1021,1604,-3.01924,-7.66493
-196,-580,-3.65857,7.91418,0,0,0,0,0,0,0,-1,1028,1604,-3.65863,-7.9142
-189,-580,-4.58252,7.59058,0,0,0,0,0,0,0,-1,1035,1604,-4.58256,-7.59057
-182,-580,-5.45874,7.65942,0,0,0,0,0,0,0,-1,1042,1604,-5.45876,-7.65939
-175,-580,-6.38977,7.55005,0,0,0,0,0,0,0,-1,1049,1604,-6.38981,-7.5501
-168,-580,0,0,0,0,0,0,0,0,0,-1,1056,1604,0,0
-161,-580,0,0,0,0,0,0,0,0,0,-1,1063,1604,0,0
-154,-580,0,0,0,0,0,0,0,0,0,-1,1070,1604,0,0
-147,-580,0,0,0,0,0,0,0,0,0,-1,1077,1604,0,0
-140,-580,0,0,0,0,0,0,0,0,0,-1,1084,1604,0,0
-133,-580,0,0,0,0,0,0,0,0,0,-1,1091,1604,0,0
-126,-580,0,0,0,0,0,0,0,0,0,-1,1098,1604,0,0
-119,-580,0,0,0,0,0,0,0,0,0,-1,1105,1604,0,0
-112,-580,0,0,0,0,0,0,0,0,0,-1,1112,1604,0,0
-105,-580,0,0,0,0,0,0,0,0,0,-1,1119,1604,0,0
-98,-580,0,0,0,0,0,0,0,0,0,-1,1126,1604,0,0
-91,-580,0,0,0,0,0,0,0,0,0,-1,1133,1604,0,0
-84,-580,0,0,0,0,0,0,0,0,0,-1,1140,1604,0,0
-77,-580,0,0,0,0,0,0,0,0,0,-1,1147,1604,0,0
-70,-580,0,0,0,0,0,0,0,0,0,-1,1154,1604,0,0
-63,-580,0,0,0,0,0,0,0,0,0,-1,1161,1604,0,0
-56,-580,0,0,0,0,0,0,0,0,0,-1,1168,1604,0,0
-49,-580,0,0,0,0,0,0,0,0,0,-1,1175,1604,0,0
-42,-580,0,0,0,0,0,0,0,0,0,-1,1182,1604,0,0
-35,-580,0,0,0,0,0,0,0,0,0,-1,1189,1604,0,0
-28,-580,0,0,0,0,0,0,0,0,0,-1,1196,1604,0,0
-21,-580,0,0,0,0,0,0,0,0,0,-1,1203,1604,0,0
-14,-580,0,0,0,0,0,0,0,0,0,-1,1210,1604,0,0
-7,-580,0,0,0,0,0,0,0,0,0,-1,1217,1604,0,0
0,-580,0,0,0,0,0,0,0,0,0,-1,1224,1604,0,0
7,-580,0,0,0,0,0,0,0,0,0,-1,1231,1604,0,0
14,-580,0,0,0,0,0,0,0,0,0,-1,1238,1604,0,0
21,-580,0,0,0,0,0,0,0,0,0,-1,1245,1604,0,0
28,-580,0,0,0,0,0,0,0,0,0,-1,1252,1604,0,0
35,-580,0,0,0,0,0,0,0,0,0,-1,1259,1604,0,0
42,-580,0,0,0,0,0,0,0,0,0,-1,1266,1604,0,0
49,-580,0,0,0,0,0,0,0,0,0,-1,1273,1604,0,0
56,-580,0,0,0,0,0,0,0,0,0,-1,1280,1604,0,0
63,-580,0,0,0,0,0,0,0,0,0,-1,1287,1604,0,0
70,-580,0,0,0,0,0,0,0,0,0,-1,1294,1604,0,0
77,-580,0,0,0,0,0,0,0,0,0,-1,1301,1604,0,0
84,-580,0,0,0,0,0,0,0,0,0,-1,1308,1604,0,0
91,-580,0,0,0,0,0,0,0,0,0,-1,1315,1604,0,0
98,-580,0,0,0,0,0,0,0,0,0,-1,1322,1604,0,0
105,-580,0,0,0,0,0,0,0,0,0,-1,1329,1604,0,0
112,-580,0,0,0,0,0,0,0,0,0,-1,1336,1604,0,0
119,-580,0,0,0,0,0,0,0,0,0,-1,1343,1604,0,0
126,-580,0,0,0,0,0,0,0,0,0,-1,1350,1604,0,0
133,-580,0,0,0,0,0,0,0,0,0,-1,1357,1604,0,0
140,-580,0,0,0,0,0,0,0,0,0,-1,1364,1604,0,0
147,-580,0,0,0,0,0,0,0,0,0,-1,1371,1604,0,0
154,-580,0,0,0,0,0,0,0,0,0,-1,1378,1604,0,0
161,-580,0,0,0,0,0,0,0,0,0,-1,1385,1604,0,0
168,-580,0,0,0,0,0,0,0,0,0,-1,1392,1604,0,0
175,-580,0,0,0,0,0,0,0,0,0,-1,1399,1604,0,0
182,-580,0,0,0,0,0,0,0,0,0,-1,1406,1604,0,0
189,-580,0,0,0,0,0,0,0,0,0,-1,1413,1604,0,0
196,-580,0,0,0,0,0,0,0,0,0,-1,1420,1604,0,0
203,-580,0,0,0,0,0,0,0,0,0,-1,1427,1604,0,0
210,-580,0,0,0,0,0,0,0,0,0,-1,1434,1604,0,0
217,-580,0,0,0,0,0,0,0,0,0,-1,1441,1604,0,0
224,-580,0,0,0,0,0,0,0,0,0,-1,1448,1604,0,0
231,-580,0,0,0,0,0,0,0,0,0,-1,1455,1604,0,0
238,-580,0,0,0,0,0,0,0,0,0,-1,1462,1604,0,0
245,-580,0,0,0,0,0,0,0,0,0,-1,1469,1604,0,0
252,-580,0,0,0,0,0,0,0,0,0,-1,1476,1604,0,0
259,-580,0,0,0,0,0,0,0,0,0,-1,1483,1604,0,0
266,-580,0,0,0,0,0,0,0,0,0,-1,1490,1604,0,0
273,-580,0,0,0,0,0,0,0,0,0,-1,1497,1604,0,0
280,-580,0,0,0,0,0,0,0,0,0,-1,1504,1604,0,0
287,-580,0,0,0,0,0,0,0,0,0,-1,1511,1604,0,0
294,-580,4.0437,0.177368,0,0,0,0,0,0,0,-1,1518,1604,4.04369,-0.177371
301,-580,4.89465,1.3446,0,0,0,0,0,0,0,-1,1525,1604,4.89467,-1.34463
308,-580,5.5979,4.69128,0,0,0,0,0,0,0,-1,1532,1604,5.59784,-4.69123
315,-580,10.5341,6.62097,0,0,0,0,0,0,0,-1,1539,1604,10.5341,-6.62096
322,-580,10.2366,7.50281,0,0,0,0,0,0,0,-1,1546,1604,10.2366,-7.50282
329,-580,10.5962,8.69641,0,0,0,0,0,0,0,-1,1553,1604,10.5962,-8.69642
336,-580,3.66431,1.58862,0,0,0,0,0,0,0,-1,1560,1604,3.6643,-1.58864
343,-580,3.32227,1.39636,0,0,0,0,0,0,0,-1,1567,1604,3.32222,-1.39633
350,-580,8.71277,4.0564,0,0,0,0,0,0,0,-1,1574,1604,8.71271,-4.05638
357,-580,8.52332,3.08154,0,0,0,0,0,0,0,-1,1581,1604,8.52332,-3.08157
364,-580,8.25818,2.07605,0,0,0,0,0,0,0,-1,1588,1604,8.25812,-2.07608
371,-580,7.42114,7.14282,0,0,0,0,0,0,0,-1,1595,1604,7.42119,-7.14281
378,-580,7.9718,6.6731,0,0,0,0,0,0,0,-1,1602,1604,7.9718,-6.67307
385,-580,8.52246,6.20337,0,0,0,0,0,0,0,-1,1609,1604,8.52241,-6.20334
392,-580,6.5498,-2.15625,0,0,0,0,0,0,0,-1,1616,1604,6.54984,2.15626
399,-580,6.52625,10.7247,0,0,0,0,0,0,0,-1,1623,1604,6.52628,-10.7248
406,-580,7.71423,11.8361,0,0,0,0,0,0,0,-1,1630,1604,7.71419,-11.8361
413,-580,7.49048,11.7828,0,0,0,0,0,0,0,-1,1637,1604,7.49046,-11.7828
420,-580,7.26526,11.6976,0,0,0,0,0,0,0,-1,1644,1604,7.26523,-11.6977
427,-580,7.73608,11.7402,-0.0355434,-0.0138581,0.00743422,-0.0115542,-0.0378473,1.27028,0.0223966,0.0388996,1651,1604,7.73606,-11.7402
434,-580,7.37988,11.5996,-0.0322107,-0.012619,0.00675806,-0.010514,-0.0343157,1.26884,0.0203012,0.0279983,1658,1604,7.37988,-11.5997
441,-580,7.27368,11.5245,-0.0282764,-0.0115728,0.00605366,-0.00960962,-0.0302396,1.2572,0.0178411,0.0124163,1665,1604,7.27374,-11.5245
448,-580,7.25781,11.385,-0.0240169,-0.0103046,0.00530604,-0.00849123,-0.0258303,1.24148,0.0152019,0.0111378,1672,1604,7.25784,-11.385
455,-580,7.2937,11.2244,-0.0198547,-0.00900571,0.00454948,-0.00735045,-0.0215099,1.22185,0.0126245,0.0183733,1679,1604,7.29375,-11.2243
462,-580,7.27734,11.0519,-0.0157268,-0.00768809,0.00380056,-0.00617577,-0.0172391,1.19208,0.0100855,0.0222647,1686,1604,7.27734,-11.0519
469,-580,7.24841,10.8683,-0.0118255,-0.00627846,0.00312218,-0.00487581,-0.0132282,1.14857,0.00772472,0.0192756,1693,1604,7.24841,-10.8683
476,-580,7.28638,10.6772,-0.00850095,-0.00484277,0.00246519,-0.00360222,-0.0097415,1.10457,0.00568748,0.014611,1700,1604,7.28633,-10.6772
483,-580,7.2644,10.5382,-0.0056475,-0.00330919,0.00171879,-0.0023996,-0.00655709,1.08406,0.00383081,0.0134078,1707,1604,7.26437,-10.5382
490,-580,7.21887,10.3834,-0.00329886,-0.00173413,0.000936427,-0.00129625,-0.00373674,1.1334,0.00219086,0.0144016,1714,1604,7.21884,-10.3834
497,-580,7.23535,10.1864,-0.000937734,-0.000575266,0.000106483,-0.000546299,-0.000966701,1.30519,0.000559701,0.0110896,1721,1604,7.23534,-10.1864
504,-580,7.25977,9.97729,0.000523651,0.000934207,-0.00038785,0.00116775,0.000290105,-1.02879,0.000702072,0.0160854,1728,1604,7.25983,-9.97726
511,-580,7.27246,9.75354,0.00139136,0.00201113,-0.00117235,0.00291386,0.000488632,-0.914607,0.00180192,0.0160284,1735,1604,7.2725,-9.75351
518,-580,7.27698,9.58264,0.00230374,0.00288493,-0.00182755,0.00444485,0.000743827,-0.864241,0.00274904,0.0147694,1742,1604,7.27692,-9.5827
525,-580,7.25342,9.41858,0.00339855,0.00347328,-0.00230044,0.00573666,0.00113517,-0.793519,0.00350782,0.0173247,1749,1604,7.25338,-9.41864
532,-580,7.26172,9.2262,0.00467336,0.00412329,-0.00282479,0.00723647,0.00156017,-0.736869,0.0043975,0.019909,1756,1604,7.26172,-9.22625
539,-580,7.297,9.10522,0.00587507,0.0044609,-0.00315307,0.00839937,0.00193661,-0.675096,0.00507865,0.0242267,1763,1604,7.29701,-9.10528
546,-580,7.45813,8.83545,0.00715504,0.00492502,-0.00369159,0.00989634,0.00218372,-0.638735,0.00600353,0.0405018,1770,1604,7.4581,-8.8354
553,-580,7.72925,8.49622,0,0,0,0,0,0,0,-1,1777,1604,7.72922,-8.49622
560,-580,7.09021,6.49438,0,0,0,0,0,0,0,-1,1784,1604,7.09016,-6.4944
567,-580,3.87708,4.0647,0,0,0,0,0,0,0,-1,1791,1604,3.87711,-4.06471
574,-580,2.31653,5.62952,0,0,0,0,0,0,0,-1,1798,1604,2.31654,-5.62947
581,-580,1.60876,6.67664,0,0,0,0,0,0,0,-1,1805,1604,1.60873,-6.67667
588,-580,1.38684,7.14441,0,0,0,0,0,0,0,-1,1812,1604,1.38689,-7.14443
595,-580,0,0,0,0,0,0,0,0,0,-1,1819,1604,0,0
602,-580,0,0,0,0,0,0,0,0,0,-1,1826,1604,0,0
609,-580,0,0,0,0,0,0,0,0,0,-1,1833,1604,0,0
616,-580,0,0,0,0,0,0,0,0,0,-1,1840,1604,0,0
623,-580,0,0,0,0,0,0,0,0,0,-1,1847,1604,0,0
630,-580,0,0,0,0,0,0,0,0,0,-1,1854,1604,0,0
637,-580,0,0,0,0,0,0,0,0,0,-1,1861,1604,0,0
644,-580,0,0,0,0,0,0,0,0,0,-1,1868,1604,0,0
651,-580,0,0,0,0,0,0,0,0,0,-1,1875,1604,0,0
658,-580,0,0,0,0,0,0,0,0,0,-1,1882,1604,0,0
665,-580,0,0,0,0,0,0,0,0,0,-1,1889,1604,0,0
672,-580,0,0,0,0,0,0,0,0,0,-1,1896,1604,0,0
679,-580,0,0,0,0,0,0,0,0,0,-1,1903,1604,0,0
686,-580,0,0,0,0,0,0,0,0,0,-1,1910,1604,0,0
693,-580,0,0,0,0,0,0,0,0,0,-1,1917,1604,0,0
700,-580,0,0,0,0,0,0,0,0,0,-1,1924,1604,0,0
707,-580,0,0,0,0,0,0,0,0,0,-1,1931,1604,0,0
714,-580,0,0,0,0,0,0,0,0,0,-1,1938,1604,0,0
721,-580,0,0,0,0,0,0,0,0,0,-1,1945,1604,0,0
728,-580,0,0,0,0,0,0,0,0,0,-1,1952,1604,0,0
735,-580,0,0,0,0,0,0,0,0,0,-1,1959,1604,0,0
742,-580,0,0,0,0,0,0,0,0,0,-1,1966,1604,0,0
749,-580,0,0,0,0,0,0,0,0,0,-1,1973,1604,0,0
756,-580,0,0,0,0,0,0,0,0,0,-1,1980,1604,0,0
763,-580,0,0,0,0,0,0,0,0,0,-1,1987,1604,0,0
770,-580,0,0,0,0,0,0,0,0,0,-1,1994,1604,0,0
777,-580,0,0,0,0,0,0,0,0,0,-1,2001,1604,0,0
784,-580,0,0,0,0,0,0,0,0,0,-1,2008,1604,0,0
791,-580,0,0,0,0,0,0,0,0,0,-1,2015,1604,0,0
798,-580,0,0,0,0,0,0,0,0,0,-1,2022,1604,0,0
805,-580,0,0,0,0,0,0,0,0,0,-1,2029,1604,0,0
812,-580,0,0,0,0,0,0,0,0,0,-1,2036,1604,0,0
-700,-587,0,0,0,0,0,0,0,0,0,-1,524,1611,0,0
-693,-587,0,0,0,0,0,0,0,0,0,-1,531,1611,0,0
-686,-587,0,0,0,0,0,0,0,0,0,-1,538,1611,0,0
-679,-587,0,0,0,0,0,0,0,0,0,-1,545,1611,0,0
-672,-587,0,0,0,0,0,0,0,0,0,-1,552,1611,0,0
-665,-587,0,0,0,0,0,0,0,0,0,-1,559,1611,0,0
-658,-587,0,0,0,0,0,0,0,0,0,-1,566,1611,0,0
-651,-587,0,0,0,0,0,0,0,0,0,-1,573,1611,0,0
-644,-587,0,0,0,0,0,0,0,0,0,-1,580,1611,0,0
-637,-587,0,0,0,0,0,0,0,0,0,-1,587,1611,0,0
-630,-587,0,0,0,0,0,0,0,0,0,-1,594,1611,0,0
-623,-587,0,0,0,0,0,0,0,0,0,-1,601,1611,0,0
-616,-587,0,0,0,0,0,0,0,0,0,-1,608,1611,0,0
-609,-587,0,0,0,0,0,0,0,0,0,-1,615,1611,0,0
-602,-587,0,0,0,0,0,0,0,0,0,-1,622,1611,0,0
-595,-587,0,0,0,0,0,0,0,0,0,-1,629,1611,0,0
-588,-587,0,0,0,0,0,0,0,0,0,-1,636,1611,0,0
-581,-587,0,0,0,0,0,0,0,0,0,-1,643,1611,0,0
-574,-587,0,0,0,0,0,0,0,0,0,-1,650,1611,0,0
-567,-587,0,0,0,0,0,0,0,0,0,-1,657,1611,0,0
-560,-587,0,0,0,0,0,0,0,0,0,-1,664,1611,0,0
-553,-587,0,0,0,0,0,0,0,0,0,-1,671,1611,0,0
-546,-587,0,0,0,0,0,0,0,0,0,-1,678,1611,0,0
-539,-587,0,0,0,0,0,0,0,0,0,-1,685,1611,0,0
-532,-587,0,0,0,0,0,0,0,0,0,-1,692,1611,0,0
-525,-587,0,0,0,0,0,0,0,0,0,-1,699,1611,0,0
-518,-587,0,0,0,0,0,0,0,0,0,-1,706,1611,0,0
-511,-587,0,0,0,0,0,0,0,0,0,-1,713,1611,0,0
-504,-587,0,0,0,0,0,0,0,0,0,-1,720,1611,0,0
-497,-587,0,0,0,0,0,0,0,0,0,-1,727,1611,0,0
-490,-587,0,0,0,0,0,0,0,0,0,-1,734,1611,0,0
-483,-587,0,0,0,0,0,0,0,0,0,-1,741,1611,0,0
-476,-587,0,0,0,0,0,0,0,0,0,-1,748,1611,0,0
-469,-587,0,0,0,0,0,0,0,0,0,-1,755,1611,0,0
-462,-587,2.34729,-3.43372,-0.0726528,0.299211,0.174076,0.367981,-0.141423,1.19456,0.303645,0.0467458,762,1611,2.34728,3.43377
-455,-587,1.57251,-2.38269,-0.0640292,0.257748,0.15194,0.318153,-0.124434,1.1924,0.263561,0.0465969,769,1611,1.57252,2.38272
-448,-587,0.52771,-0.329956,0,0,0,0,0,0,0,-1,776,1611,0.527722,0.329934
-441,-587,-0.361023,2.20789,0,0,0,0,0,0,0,-1,783,1611,-0.361019,-2.20794
-434,-587,-0.716248,4.55249,0,0,0,0,0,0,0,-1,790,1611,-0.71622,-4.55244
-427,-587,-1.47821,8.11377,0,0,0,0,0,0,0,-1,797,1611,-1.4782,-8.11378
-420,-587,-0.647156,10.1157,0,0,0,0,0,0,0,-1,804,1611,-0.647128,-10.1158
-413,-587,1.90253,6.55469,0,0,0,0,0,0,0,-1,811,1611,1.9025,-6.55475
-406,-587,1.89203,7.73853,0,0,0,0,0,0,0,-1,818,1611,1.89202,-7.7385
-399,-587,1.77301,7.95532,-0.00411654,-0.00171624,-0.00132044,-0.00113204,-0.00470074,-1.15425,0.00283291,0.0373619,825,1611,1.77302,-7.95529
-392,-587,1.70184,8.10107,-0.00349082,-0.00360697,-0.0019612,-0.00158683,-0.00551095,-0.770596,0.00327575,0.0253854,832,1611,1.70185,-8.10108
-385,-587,1.6662,8.30652,-0.00287841,-0.0044526,-0.00219937,-0.00132954,-0.00600147,-0.613563,0.00363966,0.0141488,839,1611,1.66623,-8.30656
-378,-587,1.64636,8.53625,-0.00221855,-0.0046139,-0.00195999,-0.00111927,-0.00571318,-0.511142,0.00349594,0.0123775,846,1611,1.64639,-8.5362
-371,-587,1.65643,8.77454,-0.00148255,-0.00472547,-0.00168077,-0.000768607,-0.00543941,-0.401678,0.00339916,0.0136252,853,1611,1.65641,-8.77457
-364,-587,1.68549,8.98511,-0.000793831,-0.00396369,-0.00109714,-0.000451138,-0.00430638,-0.302748,0.00273298,0.0172496,860,1611,1.68549,-8.98511
-357,-587,1.67072,9.17139,-0.000129626,-0.00321366,-0.000583605,-2.28822e-05,-0.0033204,-0.180904,0.00220601,0.0165928,867,1611,1.67073,-9.1714
-350,-587,1.65833,9.36768,0.00063102,-0.00212773,-4.53142e-05,0.000631764,-0.00212847,-0.0164197,0.00166989,0.010192,874,1611,1.65834,-9.36771
-343,-587,1.65607,9.57837,0.00122834,-0.00109459,0.000427682,0.00130458,-0.00117083,0.176409,0.00142987,0.0128407,881,1611,1.65606,-9.57837
-336,-587,1.65247,9.74219,0.00144701,0.000223324,0.000631645,0.00171455,-4.42243e-05,0.400661,0.00115806,0.0119464,888,1611,1.65245,-9.74214
-329,-587,1.65253,9.94824,0.0017415,0.00118614,0.00072818,0.00224314,0.000684489,0.603243,0.00132746,0.0140522,895,1611,1.65251,-9.9482
-322,-587,1.66541,10.1697,0.0020584,0.00190312,0.000696266,0.00268134,0.00128018,0.729872,0.0015486,0.0179838,902,1611,1.66543,-10.1697
-315,-587,1.67255,10.3479,0.0020162,0.00253675,0.000342315,0.0027065,0.00184645,1.11044,0.00159682,0.0141419,909,1611,1.67256,-10.348
-308,-587,1.66364,10.5422,0.00175748,0.00289288,-0.000237339,0.00294049,0.00170987,-1.3728,0.00170519,0.0137289,916,1611,1.66365,-10.5422
-301,-587,1.69525,10.722,0.00160495,0.00307322,-0.000775582,0.00340701,0.00127115,-1.16437,0.00198805,0.012708,923,1611,1.69522,-10.722
-294,-587,1.742,10.8767,0.00156512,0.00263172,-0.00130787,0.00351084,0.000685997,-0.978989,0.00214871,0.013286,930,1611,1.74202,-10.8768
-287,-587,1.77417,11.064,0.00151661,0.00209277,-0.00192289,0.00374903,-0.00013966,-0.859753,0.00254718,0.022757,937,1611,1.77415,-11.064
-280,-587,1.75,11.2856,0.00173365,0.00095767,-0.00266486,0.00403862,-0.0013473,-0.713109,0.00323638,0.034898,944,1611,1.75,-11.2856
-273,-587,1.70007,11.4484,0.0021836,-0.000811875,-0.00344312,0.00444063,-0.00306891,-0.580245,0.00435968,0.0459731,951,1611,1.70005,-11.4483
-266,-587,1.60638,11.2921,0,0,0,0,0,0,0,-1,958,1611,1.60638,-11.2921
-259,-587,1.56879,11.2175,0,0,0,0,0,0,0,-1,965,1611,1.56879,-11.2175
-252,-587,1.30188,10.3103,0,0,0,0,0,0,0,-1,972,1611,1.30188,-10.3104
-245,-587,2.8584,9.69812,0,0,0,0,0,0,0,-1,979,1611,2.85838,-9.69813
-238,-587,2.87799,9.53821,0,0,0,0,0,0,0,-1,986,1611,2.87797,-9.53823
-231,-587,2.49548,9.14465,0,0,0,0,0,0,0,-1,993,1611,2.49551,-9.14468
-224,-587,3.66693,8.11804,0,0,0,0,0,0,0,-1,1000,1611,3.66693,-8.11809
-217,-587,-5.39899,6.52637,0,0,0,0,0,0,0,-1,1007,1611,-5.39901,-6.52634
-210,-587,-3.96399,7.48633,0,0,0,0,0,0,0,-1,1014,1611,-3.96397,-7.48632
-203,-587,-1.55042,9.40186,0,0,0,0,0,0,0,-1,1021,1611,-1.55043,-9.40186
-196,-587,-2.32214,9.0835,0,0,0,0,0,0,0,-1,1028,1611,-2.32215,-9.08353
-189,-587,-3.04138,8.66638,0,0,0,0,0,0,0,-1,1035,1611,-3.04136,-8.66635
-182,-587,-3.97095,9.7146,0,0,0,0,0,0,0,-1,1042,1611,-3.97093,-9.71461
-175,-587,-4.80969,8.37878,0,0,0,0,0,0,0,-1,1049,1611,-4.80964,-8.37883
-168,-587,-5.91394,8.72546,0,0,0,0,0,0,0,-1,1056,1611,-5.91398,-8.72542
-161,-587,-7.06946,8.88501,0,0,0,0,0,0,0,-1,1063,1611,-7.06947,-8.885
-154,-587,-2.24731,6.56519,0,0,0,0,0,0,0,-1,1070,1611,-2.24728,-6.56517
-147,-587,0,0,0,0,0,0,0,0,0,-1,1077,1611,0,0
-140,-587,0,0,0,0,0,0,0,0,0,-1,1084,1611,0,0
-133,-587,0,0,0,0,0,0,0,0,0,-1,1091,1611,0,0
-126,-587,0,0,0,0,0,0,0,0,0,-1,1098,1611,0,0
-119,-587,0,0,0,0,0,0,0,0,0,-1,1105,1611,0,0
-112,-587,0,0,0,0,0,0,0,0,0,-1,1112,1611,0,0
-105,-587,0,0,0,0,0,0,0,0,0,-1,1119,1611,0,0
-98,-587,0,0,0,0,0,0,0,0,0,-1,1126,1611,0,0
-91,-587,0,0,0,0,0,0,0,0,0,-1,1133,1611,0,0
-84,-587,0,0,0,0,0,0,0,0,0,-1,1140,1611,0,0
-77,-587,0,0,0,0,0,0,0,0,0,-1,1147,1611,0,0
-70,-587,0,0,0,0,0,0,0,0,0,-1,1154,1611,0,0
-63,-587,0,0,0,0,0,0,0,0,0,-1,1161,1611,0,0
-56,-587,0,0,0,0,0,0,0,0,0,-1,1168,1611,0,0
-49,-587,0,0,0,0,0,0,0,0,0,-1,1175,1611,0,0
-42,-587,0,0,0,0,0,0,0,0,0,-1,1182,1611,0,0
-35,-587,0,0,0,0,0,0,0,0,0,-1,1189,1611,0,0
-28,-587,0,0,0,0,0,0,0,0,0,-1,1196,1611,0,0
-21,-587,0,0,0,0,0,0,0,0,0,-1,1203,1611,0,0
-14,-587,0,0,0,0,0,0,0,0,0,-1,1210,1611,0,0
-7,-587,0,0,0,0,0,0,0,0,0,-1,1217,1611,0,0
0,-587,0,0,0,0,0,0,0,0,0,-1,1224,1611,0,0
7,-587,0,0,0,0,0,0,0,0,0,-1,1231,1611,0,0
14,-587,0,0,0,0,0,0,0,0,0,-1,1238,1611,0,0
21,-587,0,0,0,0,0,0,0,0,0,-1,1245,1611,0,0
28,-587,0,0,0,0,0,0,0,0,0,-1,1252,1611,0,0
35,-587,0,0,0,0,0,0,0,0,0,-1,1259,1611,0,0
42,-587,0,0,0,0,0,0,0,0,0,-1,1266,1611,0,0
49,-587,0,0,0,0,0,0,0,0,0,-1,1273,1611,0,0
56,-587,0,0,0,0,0,0,0,0,0,-1,1280,1611,0,0
63,-587,0,0,0,0,0,0,0,0,0,-1,1287,1611,0,0
70,-587,0,0,0,0,0,0,0,0,0,-1,1294,1611,0,0
77,-587,0,0,0,0,0,0,0,0,0,-1,1301,1611,0,0
84,-587,0,0,0,0,0,0,0,0,0,-1,1308,1611,0,0
91,-587,0,0,0,0,0,0,0,0,0,-1,1315,1611,0,0
98,-587,0,0,0,0,0,0,0,0,0,-1,1322,1611,0,0
105,-587,0,0,0,0,0,0,0,0,0,-1,1329,1611,0,0
112,-587,0,0,0,0,0,0,0,0,0,-1,1336,1611,0,0
119,-587,0,0,0,0,0,0,0,0,0,-1,1343,1611,0,0
126,-587,0,0,0,0,0,0,0,0,0,-1,1350,1611,0,0
133,-587,0,0,0,0,0,0,0,0,0,-1,1357,1611,0,0
140,-587,0,0,0,0,0,0,0,0,0,-1,1364,1611,0,0
147,-587,0,0,0,0,0,0,0,0,0,-1,1371,1611,0,0
154,-587,0,0,0,0,0,0,0,0,0,-1,1378,1611,0,0
161,-587,0,0,0,0,0,0,0,0,0,-1,1385,1611,0,0
168,-587,0,0,0,0,0,0,0,0,0,-1,1392,1611,0,0
175,-587,0,0,0,0,0,0,0,0,0,-1,1399,1611,0,0
182,-587,0,0,0,0,0,0,0,0,0,-1,1406,1611,0,0
189,-587,0,0,0,0,0,0,0,0,0,-1,1413,1611,0,0
196,-587,0,0,0,0,0,0,0,0,0,-1,1420,1611,0,0
203,-587,0,0,0,0,0,0,0,0,0,-1,1427,1611,0,0
210,-587,0,0,0,0,0,0,0,0,0,-1,1434,1611,0,0
217,-587,0,0,0,0,0,0,0,0,0,-1,1441,1611,0,0
224,-587,0,0,0,0,0,0,0,0,0,-1,1448,1611,0,0
231,-587,0,0,0,0,0,0,0,0,0,-1,1455,1611,0,0
238,-587,0,0,0,0,0,0,0,0,0,-1,1462,1611,0,0
245,-587,0,0,0,0,0,0,0,0,0,-1,1469,1611,0,0
252,-587,0,0,0,0,0,0,0,0,0,-1,1476,1611,0,0
259,-587,0,0,0,0,0,0,0,0,0,-1,1483,1611,0,0
266,-587,0,0,0,0,0,0,0,0,0,-1,1490,1611,0,0
273,-587,10.2936,6.35083,0,0,0,0,0,0,0,-1,1497,1611,10.2936,-6.35087
280,-587,2.09204,1.1217,0,0,0,0,0,0,0,-1,1504,1611,2.092,-1.12176
287,-587,3.2865,0.671509,0,0,0,0,0,0,0,-1,1511,1611,3.28656,-0.671538
294,-587,4.24646,1.58765,0,0,0,0,0,0,0,-1,1518,1611,4.24648,-1.58761
301,-587,5.13647,2.76465,0,0,0,0,0,0,0,-1,1525,1611,5.13648,-2.76469
308,-587,5.62061,10.1396,0,0,0,0,0,0,0,-1,1532,1611,5.62065,-10.1397
315,-587,4.14722,11.6769,0,0,0,0,0,0,0,-1,1539,1611,4.14727,-11.6769
322,-587,10.4526,6.38245,0,0,0,0,0,0,0,-1,1546,1611,10.4526,-6.38245
329,-587,10.7738,8.42444,0,0,0,0,0,0,0,-1,1553,1611,10.7738,-8.42438
336,-587,7.5531,5.96619,0,0,0,0,0,0,0,-1,1560,1611,7.55311,-5.96617
343,-587,9.57495,4.38391,0,0,0,0,0,0,0,-1,1567,1611,9.57494,-4.38397
350,-587,9.50378,3.45093,0,0,0,0,0,0,0,-1,1574,1611,9.50376,-3.4509
357,-587,9.40027,2.50806,0,0,0,0,0,0,0,-1,1581,1611,9.40022,-2.50803
364,-587,9.26477,1.34131,0,0,0,0,0,0,0,-1,1588,1611,9.26479,-1.34126
371,-587,6.98926,7.87561,0,0,0,0,0,0,0,-1,1595,1611,6.98928,-7.87564
378,-587,6.96997,13.4526,0,0,0,0,0,0,0,-1,1602,1611,6.96999,-13.4526
385,-587,7.17224,7.03772,0,0,0,0,0,0,0,-1,1609,1611,7.1722,-7.03778
392,-587,5.3916,8.21436,0,0,0,0,0,0,0,-1,1616,1611,5.39157,-8.21437
399,-587,7.42651,12.1163,0,0,0,0,0,0,0,-1,1623,1611,7.42655,-12.1164
406,-587,7.3678,12.0125,-0.0247877,-0.0151852,0.010153,-0.00875548,-0.0312174,1.00626,0.0185934,0.0421918,1630,1611,7.36784,-12.0124
413,-587,7.23218,11.9659,-0.0244951,-0.0139729,0.00902599,-0.00878664,-0.0296814,1.04927,0.0176054,0.0355808,1637,1611,7.23213,-11.9659
420,-587,7.11133,11.9908,-0.0238343,-0.0123522,0.00794499,-0.0082911,-0.0278954,1.09826,0.016541,0.0335199,1644,1611,7.11136,-11.9908
427,-587,7.21765,11.8904,-0.0227373,-0.0107013,0.00674908,-0.0076768,-0.0257618,1.1495,0.0152728,0.0255675,1651,1611,7.21767,-11.8904
434,-587,7.09082,11.7362,-0.0209702,-0.00942593,0.00586997,-0.00696557,-0.0234306,1.1739,0.0138933,0.0157047,1658,1611,7.0908,-11.7361
441,-587,7.09192,11.5808,-0.0186348,-0.00840753,0.00502545,-0.00635147,-0.0206909,1.18245,0.012239,0.0175139,1665,1611,7.09195,-11.5809
448,-587,7.10364,11.3676,-0.0159687,-0.00716481,0.00415244,-0.00551531,-0.0176182,1.19268,0.0104062,0.0148797,1672,1611,7.10368,-11.3676
455,-587,7.10437,11.2115,-0.0132657,-0.00593677,0.00329415,-0.00467379,-0.0145287,1.20468,0.00856408,0.0144215,1679,1611,7.10437,-11.2115
462,-587,7.09351,11.0527,-0.0104295,-0.00467785,0.002464,-0.00376664,-0.0113407,1.21658,0.00666942,0.0181805,1686,1611,7.09349,-11.0527
469,-587,7.07373,10.8871,-0.00764124,-0.00332297,0.00171534,-0.00272452,-0.00823969,1.23512,0.00484728,0.0158376,1693,1611,7.0737,-10.8871
476,-587,7.08606,10.7095,-0.00524072,-0.00194601,0.00102741,-0.00165189,-0.00553484,1.29197,0.00328094,0.010615,1700,1611,7.08602,-10.7095
483,-587,7.06335,10.5273,-0.0031242,-0.000472497,0.000295696,-0.000439924,-0.00315677,1.46108,0.00197428,0.0141923,1707,1611,7.06332,-10.5273
490,-587,7.03955,10.3507,-0.00134643,0.00102656,-0.00043658,0.00110434,-0.0014242,-1.39451,0.00146374,0.0161648,1714,1611,7.03956,-10.3507
497,-587,7.05237,10.1749,0.000311315,0.0022441,-0.00122009,0.00283416,-0.000278742,-1.12034,0.00198887,0.0121468,1721,1611,7.05235,-10.1749
504,-587,7.07031,9.99707,0.00120228,0.00355582,-0.00171814,0.00446154,0.000296556,-1.08566,0.0028806,0.0118027,1728,1611,7.0703,-9.99703
511,-587,7.08521,9.79871,0.00192451,0.00454491,-0.00236231,0.00593603,0.000533395,-1.03859,0.00379208,0.0129846,1735,1611,7.08515,-9.79866
518,-587,7.10559,9.59094,0.00271176,0.00519709,-0.002845,0.00705898,0.000849881,-0.991305,0.00444983,0.0125597,1742,1611,7.10555,-9.59091
525,-587,7.10156,9.38757,0.00372983,0.00561402,-0.00317819,0.0079868,0.00135704,-0.929485,0.00493478,0.0172521,1749,1611,7.1015,-9.38762
532,-587,7.11353,9.21252,0.00502439,0.0061917,-0.00365241,0.00930679,0.0019093,-0.864629,0.00567616,0.0315654,1756,1611,7.11355,-9.21248
539,-587,7.28662,9.02185,0.00655017,0.00657363,-0.00404144,0.0106034,0.00252044,-0.786849,0.00639648,0.0400265,1763,1611,7.28664,-9.02187
546,-587,7.45215,8.7229,0.00837721,0.00654485,-0.004558,0.0121102,0.00281186,-0.686217,0.00731851,0.0496591,1770,1611,7.4521,-8.72292
553,-587,7.5813,8.45068,0,0,0,0,0,0,0,-1,1777,1611,7.58125,-8.45068
560,-587,4.21179,5.23547,0,0,0,0,0,0,0,-1,1784,1611,4.21185,-5.23553
567,-587,4.03711,5.46387,0,0,0,0,0,0,0,-1,1791,1611,4.03715,-5.46382
574,-587,3.83142,5.68884,0,0,0,0,0,0,0,-1,1798,1611,3.83141,-5.68881
581,-587,3.47168,6.00977,0,0,0,0,0,0,0,-1,1805,1611,3.47167,-6.00983
588,-587,0,0,0,0,0,0,0,0,0,-1,1812,1611,0,0
595,-587,0,0,0,0,0,0,0,0,0,-1,1819,1611,0,0
602,-587,0,0,0,0,0,0,0,0,0,-1,1826,1611,0,0
609,-587,0,0,0,0,0,0,0,0,0,-1,1833,1611,0,0
616,-587,0,0,0,0,0,0,0,0,0,-1,1840,1611,0,0
623,-587,0,0,0,0,0,0,0,0,0,-1,1847,1611,0,0
630,-587,0,0,0,0,0,0,0,0,0,-1,1854,1611,0,0
637,-587,0,0,0,0,0,0,0,0,0,-1,1861,1611,0,0
644,-587,0,0,0,0,0,0,0,0,0,-1,1868,1611,0,0
651,-587,0,0,0,0,0,0,0,0,0,-1,1875,1611,0,0
658,-587,0,0,0,0,0,0,0,0,0,-1,1882,1611,0,0
665,-587,0,0,0,0,0,0,0,0,0,-1,1889,1611,0,0
672,-587,0,0,0,0,0,0,0,0,0,-1,1896,1611,0,0
679,-587,0,0,0,0,0,0,0,0,0,-1,1903,1611,0,0
686,-587,0,0,0,0,0,0,0,0,0,-1,1910,1611,0,0
693,-587,0,0,0,0,0,0,0,0,0,-1,1917,1611,0,0
700,-587,0,0,0,0,0,0,0,0,0,-1,1924,1611,0,0
707,-587,0,0,0,0,0,0,0,0,0,-1,1931,1611,0,0
714,-587,0,0,0,0,0,0,0,0,0,-1,1938,1611,0,0
721,-587,0,0,0,0,0,0,0,0,0,-1,1945,1611,0,0
728,-587,0,0,0,0,0,0,0,0,0,-1,1952,1611,0,0
735,-587,0,0,0,0,0,0,0,0,0,-1,1959,1611,0,0
742,-587,0,0,0,0,0,0,0,0,0,-1,1966,1611,0,0
749,-587,0,0,0,0,0,0,0,0,0,-1,1973,1611,0,0
756,-587,0,0,0,0,0,0,0,0,0,-1,1980,1611,0,0
763,-587,0,0,0,0,0,0,0,0,0,-1,1987,1611,0,0
770,-587,0,0,0,0,0,0,0,0,0,-1,1994,1611,0,0
777,-587,0,0,0,0,0,0,0,0,0,-1,2001,1611,0,0
784,-587,0,0,0,0,0,0,0,0,0,-1,2008,1611,0,0
791,-587,0,0,0,0,0,0,0,0,0,-1,2015,1611,0,0
798,-587,0,0,0,0,0,0,0,0,0,-1,2022,1611,0,0
805,-587,0,0,0,0,0,0,0,0,0,-1,2029,1611,0,0
812,-587,0,0,0,0,0,0,0,0,0,-1,2036,1611,0,0
-700,-594,0,0,0,0,0,0,0,0,0,-1,524,1618,0,0
-693,-594,0,0,0,0,0,0,0,0,0,-1,531,1618,0,0
-686,-594,0,0,0,0,0,0,0,0,0,-1,538,1618,0,0
-679,-594,0,0,0,0,0,0,0,0,0,-1,545,1618,0,0
-672,-594,0,0,0,0,0,0,0,0,0,-1,552,1618,0,0
-665,-594,0,0,0,0,0,0,0,0,0,-1,559,1618,0,0
-658,-594,0,0,0,0,0,0,0,0,0,-1,566,1618,0,0
-651,-594,0,0,0,0,0,0,0,0,0,-1,573,1618,0,0
-644,-594,0,0,0,0,0,0,0,0,0,-1,580,1618,0,0
-637,-594,0,0,0,0,0,0,0,0,0,-1,587,1618,0,0
-630,-594,0,0,0,0,0,0,0,0,0,-1,594,1618,0,0
-623,-594,0,0,0,0,0,0,0,0,0,-1,601,1618,0,0
-616,-594,0,0,0,0,0,0,0,0,0,-1,608,1618,0,0
-609,-594,0,0,0,0,0,0,0,0,0,-1,615,1618,0,0
-602,-594,0,0,0,0,0,0,0,0,0,-1,622,1618,0,0
-595,-594,0,0,0,0,0,0,0,0,0,-1,629,1618,0,0
-588,-594,0,0,0,0,0,0,0,0,0,-1,636,1618,0,0
-581,-594,0,0,0,0,0,0,0,0,0,-1,643,1618,0,0
-574,-594,0,0,0,0,0,0,0,0,0,-1,650,1618,0,0
-567,-594,0,0,0,0,0,0,0,0,0,-1,657,1618,0,0
-560,-594,0,0,0,0,0,0,0,0,0,-1,664,1618,0,0
-553,-594,0,0,0,0,0,0,0,0,0,-1,671,1618,0,0
-546,-594,0,0,0,0,0,0,0,0,0,-1,678,1618,0,0
-539,-594,0,0,0,0,0,0,0,0,0,-1,685,1618,0,0
-532,-594,0,0,0,0,0,0,0,0,0,-1,692,1618,0,0
-525,-594,0,0,0,0,0,0,0,0,0,-1,699,1618,0,0
-518,-594,0,0,0,0,0,0,0,0,0,-1,706,1618,0,0
-511,-594,0,0,0,0,0,0,0,0,0,-1,713,1618,0,0
-504,-594,0,0,0,0,0,0,0,0,0,-1,720,1618,0,0
-497,-594,0,0,0,0,0,0,0,0,0,-1,727,1618,0,0
-490,-594,0,0,0,0,0,0,0,0,0,-1,734,1618,0,0
-483,-594,0,0,0,0,0,0,0,0,0,-1,741,1618,0,0
-476,-594,0,0,0,0,0,0,0,0,0,-1,748,1618,0,0
-469,-594,0,0,0,0,0,0,0,0,0,-1,755,1618,0,0
-462,-594,0,0,0,0,0,0,0,0,0,-1,762,1618,0,0
-455,-594,1.58447,-4.06494,0,0,0,0,0,0,0,-1,769,1618,1.58449,4.06498
-448,-594,-1.93896,-3.84717,0,0,0,0,0,0,0,-1,776,1618,-1.93896,3.84713
-441,-594,-4.79364,4.07727,0,0,0,0,0,0,0,-1,783,1618,-4.79365,-4.07727
-434,-594,-3.62231,5.8208,0,0,0,0,0,0,0,-1,790,1618,-3.62229,-5.82083
-427,-594,-3.97693,6.77759,0,0,0,0,0,0,0,-1,797,1618,-3.97695,-6.77764
-420,-594,-2.53046,7.71606,0,0,0,0,0,0,0,-1,804,1618,-2.53047,-7.71609
-413,-594,-0.860413,8.00391,0,0,0,0,0,0,0,-1,811,1618,-0.860423,-8.00389
-406,-594,1.24292,7.23389,0,0,0,0,0,0,0,-1,818,1618,1.24291,-7.23394
-399,-594,1.5047,8.61414,0,0,0,0,0,0,0,-1,825,1618,1.50472,-8.61418
-392,-594,1.65515,8.5166,-0.00474073,-0.00607388,-0.00307321,-0.00226263,-0.00855198,-0.678603,0.00511668,0.0402386,832,1618,1.65516,-8.51664
-385,-594,1.88605,8.36169,-0.00386693,-0.00663617,-0.00297992,-0.00196566,-0.00853744,-0.567913,0.00516269,0.0276898,839,1618,1.88603,-8.36165
-378,-594,1.84631,8.5321,-0.00307628,-0.00648359,-0.00254518,-0.00171719,-0.00784268,-0.490465,0.00476044,0.0119098,846,1618,1.8463,-8.53211
-371,-594,1.84766,8.76465,-0.0022217,-0.00635133,-0.00213292,-0.00131788,-0.00725515,-0.400811,0.00446281,0.0113861,853,1618,1.84764,-8.76467
-364,-594,1.88263,8.97998,-0.00140166,-0.00544475,-0.00142356,-0.000950725,-0.00589569,-0.306768,0.003655,0.0103676,860,1618,1.8826,-8.97996
-357,-594,1.88599,9.18042,-0.000646221,-0.00463402,-0.000867964,-0.000465495,-0.00481474,-0.205285,0.00306646,0.0108523,867,1618,1.88599,-9.18044
-350,-594,1.86365,9.40247,0.000127111,-0.00350468,-0.000304987,0.000152545,-0.00353012,-0.0832004,0.00240587,0.0154879,874,1618,1.86362,-9.40242
-343,-594,1.85242,9.6145,0.00073653,-0.00250017,0.000147103,0.000743202,-0.00250684,0.0453241,0.00196635,0.0165645,881,1618,1.85243,-9.6145
-336,-594,1.84119,9.76392,0.000940794,-0.00121097,0.000382631,0.00100681,-0.00127699,0.170847,0.00132162,0.0131105,888,1618,1.84119,-9.76389
-329,-594,1.84619,9.97058,0.00118306,-0.000296227,0.000490399,0.00133086,-0.000444032,0.292738,0.00106652,0.0134472,895,1618,1.8462,-9.97053
-322,-594,1.87793,10.2078,0.00154708,0.000318874,0.000550994,0.00175803,0.000107921,0.365644,0.00113775,0.017104,902,1618,1.87795,-10.2078
-315,-594,1.87891,10.3757,0.00149727,0.000913471,0.000282371,0.0016115,0.000799244,0.384403,0.000930409,0.0168891,909,1618,1.87888,-10.3758
-308,-594,1.86816,10.5487,0.00115439,0.00123964,-0.000212118,0.00141337,0.000980656,-0.884555,0.000836202,0.014402,916,1618,1.86818,-10.5487
-301,-594,1.86694,10.7191,0.000934396,0.0014458,-0.000625217,0.00186558,0.000514613,-0.979511,0.00111259,0.0113365,923,1618,1.86696,-10.7192
-294,-594,1.89441,10.8879,0.00090282,0.00107267,-0.000959096,0.00195059,2.48966e-05,-0.829556,0.00129218,0.0100084,930,1618,1.89442,-10.888
-287,-594,1.91046,11.0848,0.000911217,0.000630037,-0.00130772,0.00208588,-0.00054463,-0.73185,0.00160327,0.0110562,937,1618,1.91049,-11.0848
-280,-594,1.92365,11.2648,0.00115323,-0.000263121,-0.00168856,0.0022761,-0.00138599,-0.586841,0.00213503,0.0154479,944,1618,1.92362,-11.2648
-273,-594,1.94647,11.3964,0.00151187,-0.00162587,-0.00216335,0.00261535,-0.00272935,-0.471678,0.00308599,0.026519,951,1618,1.94649,-11.3964
-266,-594,1.85559,11.4333,0.00203539,-0.00347075,-0.00256756,0.00304686,-0.00448222,-0.375273,0.00437317,0.0357562,958,1618,1.85561,-11.4334
-259,-594,1.83026,11.4703,0.00307521,-0.0069471,-0.0032059,0.00401295,-0.00788485,-0.284569,0.00698939,0.0434488,965,1618,1.83029,-11.4703
-252,-594,1.9115,11.7141,0,0,0,0,0,0,0,-1,972,1618,1.9115,-11.7141
-245,-594,2.54419,11.2357,0,0,0,0,0,0,0,-1,979,1618,2.54418,-11.2357
-238,-594,2.71313,10.6866,0,0,0,0,0,0,0,-1,986,1618,2.71314,-10.6867
-231,-594,1.93774,9.35388,0,0,0,0,0,0,0,-1,993,1618,1.93776,-9.35393
-224,-594,1.81824,8.62744,0,0,0,0,0,0,0,-1,1000,1618,1.81822,-8.62745
-217,-594,1.65802,8.02002,0,0,0,0,0,0,0,-1,1007,1618,1.65805,-8.02007
-210,-594,0.957092,11.3329,0,0,0,0,0,0,0,-1,1014,1618,0.957079,-11.3329
-203,-594,-0.0402832,10.9181,0,0,0,0,0,0,0,-1,1021,1618,-0.0402818,-10.9181
-196,-594,2.78613,10.5815,0,0,0,0,0,0,0,-1,1028,1618,2.78612,-10.5815
-189,-594,2.60913,9.48865,0,0,0,0,0,0,0,-1,1035,1618,2.6091,-9.48871
-182,-594,1.2395,9.38806,0,0,0,0,0,0,0,-1,1042,1618,1.23951,-9.38804
-175,-594,0.234863,8.73792,0,0,0,0,0,0,0,-1,1049,1618,0.234812,-8.73786
-168,-594,-0.495483,8.46289,0,0,0,0,0,0,0,-1,1056,1618,-0.495513,-8.46285
-161,-594,-1.39734,8.28699,0,0,0,0,0,0,0,-1,1063,1618,-1.39729,-8.28699
-154,-594,-0.000854492,7.68445,0,0,0,0,0,0,0,-1,1070,1618,-0.000805755,-7.6845
-147,-594,0.348267,9.3385,0,0,0,0,0,0,0,-1,1077,1618,0.348237,-9.33849
-140,-594,0.675171,11.5884,0,0,0,0,0,0,0,-1,1084,1618,0.675204,-11.5884
-133,-594,0,0,0,0,0,0,0,0,0,-1,1091,1618,0,0
-126,-594,0,0,0,0,0,0,0,0,0,-1,1098,1618,0,0
-119,-594,0,0,0,0,0,0,0,0,0,-1,1105,1618,0,0
-112,-594,0,0,0,0,0,0,0,0,0,-1,1112,1618,0,0
-105,-594,0,0,0,0,0,0,0,0,0,-1,1119,1618,0,0
-98,-594,0,0,0,0,0,0,0,0,0,-1,1126,1618,0,0
-91,-594,0,0,0,0,0,0,0,0,0,-1,1133,1618,0,0
-84,-594,0,0,0,0,0,0,0,0,0,-1,1140,1618,0,0
-77,-594,0,0,0,0,0,0,0,0,0,-1,1147,1618,0,0
-70,-594,0,0,0,0,0,0,0,0,0,-1,1154,1618,0,0
-63,-594,0,0,0,0,0,0,0,0,0,-1,1161,1618,0,0
-56,-594,0,0,0,0,0,0,0,0,0,-1,1168,1618,0,0
-49,-594,0,0,0,0,0,0,0,0,0,-1,1175,1618,0,0
-42,-594,0,0,0,0,0,0,0,0,0,-1,1182,1618,0,0
-35,-594,0,0,0,0,0,0,0,0,0,-1,1189,1618,0,0
-28,-594,0,0,0,0,0,0,0,0,0,-1,1196,1618,0,0
-21,-594,0,0,0,0,0,0,0,0,0,-1,1203,1618,0,0
-14,-594,0,0,0,0,0,0,0,0,0,-1,1210,1618,0,0
-7,-594,0,0,0,0,0,0,0,0,0,-1,1217,1618,0,0
0,-594,0,0,0,0,0,0,0,0,0,-1,1224,1618,0,0
7,-594,0,0,0,0,0,0,0,0,0,-1,1231,1618,0,0
14,-594,0,0,0,0,0,0,0,0,0,-1,1238,1618,0,0
21,-594,0,0,0,0,0,0,0,0,0,-1,1245,1618,0,0
28,-594,0,0,0,0,0,0,0,0,0,-1,1252,1618,0,0
35,-594,0,0,0,0,0,0,0,0,0,-1,1259,1618,0,0
42,-594,0,0,0,0,0,0,0,0,0,-1,1266,1618,0,0
49,-594,0,0,0,0,0,0,0,0,0,-1,1273,1618,0,0
56,-594,0,0,0,0,0,0,0,0,0,-1,1280,1618,0,0
63,-594,0,0,0,0,0,0,0,0,0,-1,1287,1618,0,0
70,-594,0,0,0,0,0,0,0,0,0,-1,1294,1618,0,0
77,-594,0,0,0,0,0,0,0,0,0,-1,1301,1618,0,0
84,-594,0,0,0,0,0,0,0,0,0,-1,1308,1618,0,0
91,-594,0,0,0,0,0,0,0,0,0,-1,1315,1618,0,0
98,-594,0,0,0,0,0,0,0,0,0,-1,1322,1618,0,0
105,-594,0,0,0,0,0,0,0,0,0,-1,1329,1618,0,0
112,-594,0,0,0,0,0,0,0,0,0,-1,1336,1618,0,0
119,-594,0,0,0,0,0,0,0,0,0,-1,1343,1618,0,0
126,-594,0,0,0,0,0,0,0,0,0,-1,1350,1618,0,0
133,-594,0,0,0,0,0,0,0,0,0,-1,1357,1618,0,0
140,-594,0,0,0,0,0,0,0,0,0,-1,1364,1618,0,0
147,-594,0,0,0,0,0,0,0,0,0,-1,1371,1618,0,0
154,-594,0,0,0,0,0,0,0,0,0,-1,1378,1618,0,0
161,-594,0,0,0,0,0,0,0,0,0,-1,1385,1618,0,0
168,-594,0,0,0,0,0,0,0,0,0,-1,1392,1618,0,0
175,-594,0,0,0,0,0,0,0,0,0,-1,1399,1618,0,0
182,-594,0,0,0,0,0,0,0,0,0,-1,1406,1618,0,0
189,-594,0,0,0,0,0,0,0,0,0,-1,1413,1618,0,0
196,-594,0,0,0,0,0,0,0,0,0,-1,1420,1618,0,0
203,-594,0,0,0,0,0,0,0,0,0,-1,1427,1618,0,0
210,-594,0,0,0,0,0,0,0,0,0,-1,1434,1618,0,0
217,-594,0,0,0,0,0,0,0,0,0,-1,1441,1618,0,0
224,-594,0,0,0,0,0,0,0,0,0,-1,1448,1618,0,0
231,-594,0,0,0,0,0,0,0,0,0,-1,1455,1618,0,0
238,-594,0,0,0,0,0,0,0,0,0,-1,1462,1618,0,0
245,-594,0,0,0,0,0,0,0,0,0,-1,1469,1618,0,0
252,-594,3.03674,1.20996,0,0,0,0,0,0,0,-1,1476,1618,3.0368,-1.20999
259,-594,4.79834,1.53113,0,0,0,0,0,0,0,-1,1483,1618,4.79837,-1.53118
266,-594,3.71606,2.68152,0,0,0,0,0,0,0,-1,1490,1618,3.71609,-2.68149
273,-594,9.7655,6.33557,0,0,0,0,0,0,0,-1,1497,1618,9.76555,-6.33554
280,-594,3.13281,0.911255,0,0,0,0,0,0,0,-1,1504,1618,3.13277,-0.911207
287,-594,4.42749,1.51563,0,0,0,0,0,0,0,-1,1511,1618,4.42747,-1.51564
294,-594,5.36475,3.34937,0,0,0,0,0,0,0,-1,1518,1618,5.36475,-3.3494
301,-594,7.40552,9.07483,0,0,0,0,0,0,0,-1,1525,1618,7.40555,-9.07483
308,-594,6.02271,10.0214,0,0,0,0,0,0,0,-1,1532,1618,6.02267,-10.0213
315,-594,4.36401,10.6393,0,0,0,0,0,0,0,-1,1539,1618,4.36404,-10.6393
322,-594,2.98352,11.3137,0,0,0,0,0,0,0,-1,1546,1618,2.98351,-11.3137
329,-594,4.19861,9.77258,0,0,0,0,0,0,0,-1,1553,1618,4.19865,-9.77264
336,-594,10.1353,4.66528,0,0,0,0,0,0,0,-1,1560,1618,10.1353,-4.66533
343,-594,10.5729,3.71228,0,0,0,0,0,0,0,-1,1567,1618,10.5729,-3.71232
350,-594,10.219,2.98792,0,0,0,0,0,0,0,-1,1574,1618,10.219,-2.98797
357,-594,9.83154,1.96326,0,0,0,0,0,0,0,-1,1581,1618,9.8315,-1.96321
364,-594,9.74939,0.700562,0,0,0,0,0,0,0,-1,1588,1618,9.74939,-0.700615
371,-594,6.79565,13.6544,0,0,0,0,0,0,0,-1,1595,1618,6.79566,-13.6544
378,-594,6.83154,12.6354,0,0,0,0,0,0,0,-1,1602,1618,6.8316,-12.6353
385,-594,6.85986,12.5956,0,0,0,0,0,0,0,-1,1609,1618,6.85985,-12.5956
392,-594,6.7804,11.809,0,0,0,0,0,0,0,-1,1616,1618,6.78043,-11.8089
399,-594,6.8717,12.1406,-0.013649,-0.0142614,0.00983917,-0.00411125,-0.0237991,0.769842,0.0146887,0.0409975,1623,1618,6.87167,-12.1406
406,-594,7.01819,12.1821,-0.014405,-0.0122052,0.00858108,-0.00465379,-0.0219564,0.84914,0.0133593,0.027556,1630,1618,7.01816,-12.1822
413,-594,6.97021,12.0824,-0.014524,-0.0109672,0.00758339,-0.00495643,-0.0205347,0.900573,0.0123731,0.0227398,1637,1618,6.97018,-12.0824
420,-594,6.94885,11.959,-0.0144052,-0.00946086,0.00661738,-0.00486895,-0.0189971,0.964165,0.011394,0.017541,1644,1618,6.94891,-11.959
427,-594,6.92773,11.8865,-0.0140073,-0.00812789,0.00565977,-0.00468992,-0.0174453,1.02492,0.0104247,0.0123466,1651,1618,6.9278,-11.8865
434,-594,6.90869,11.7322,-0.0132002,-0.00705561,0.00487844,-0.00436264,-0.0158931,1.06641,0.00948187,0.0169995,1658,1618,6.90866,-11.7322
441,-594,6.92847,11.5715,-0.0119413,-0.00611552,0.00410354,-0.00399612,-0.0140607,1.09405,0.0083662,0.016129,1665,1618,6.92844,-11.5715
448,-594,6.94934,11.3821,-0.0103611,-0.00486731,0.003252,-0.00335733,-0.0118711,1.1361,0.00706599,0.0158873,1672,1618,6.94937,-11.3821
455,-594,6.92615,11.2009,-0.00866656,-0.00368349,0.00240869,-0.00270954,-0.00964051,1.18655,0.00574107,0.0120668,1679,1618,6.9261,-11.2009
462,-594,6.9176,11.0492,-0.00675862,-0.0023968,0.00156526,-0.00189323,-0.00726218,1.25954,0.00434995,0.0137034,1686,1618,6.91766,-11.0492
469,-594,6.92163,10.8907,-0.00478047,-0.000951308,0.000760668,-0.000805734,-0.00492604,1.38171,0.00305112,0.0119483,1693,1618,6.92161,-10.8907
476,-594,6.92273,10.7179,-0.00303396,0.000571185,3.6819e-06,0.000571188,-0.00303396,1.56977,0.00223747,0.0119008,1700,1618,6.9227,-10.7179
483,-594,6.92383,10.5378,-0.00142271,0.00222953,-0.00079227,0.00239399,-0.00158717,-1.36612,0.00231421,0.0156842,1707,1618,6.92387,-10.5379
490,-594,6.89258,10.3492,-3.76915e-06,0.0039281,-0.00158632,0.00448829,-0.000563958,-1.23133,0.0031968,0.0129846,1714,1618,6.8926,-10.3493
497,-594,6.89771,10.1749,0.00119887,0.00548554,-0.00243529,0.00658635,9.80601e-05,-1.14626,0.00435858,0.00966212,1721,1618,6.89766,-10.1749
504,-594,6.91931,9.98999,0.00176486,0.00694175,-0.00308467,0.00838011,0.000326488,-1.13447,0.00548115,0.0102811,1728,1618,6.91926,-9.98994
511,-594,6.93042,9.80273,0.00252831,0.00817251,-0.00376694,0.0100572,0.000643592,-1.10688,0.00650091,0.0119411,1735,1618,6.93043,-9.8027
518,-594,6.927,9.59656,0.00337756,0.00895963,-0.00425803,0.0112598,0.00107735,-1.07551,0.00717445,0.0153025,1742,1618,6.92703,-9.59655
525,-594,6.93115,9.37964,0.0044906,0.00954546,-0.00463809,0.0123001,0.001736,-1.03487,0.007687,0.0290278,1749,1618,6.93114,-9.37961
532,-594,6.96289,9.17358,0.00590169,0.0101721,-0.00512913,0.0135927,0.00248108,-0.982632,0.00835844,0.0476939,1756,1618,6.96294,-9.17355
539,-594,6.94775,8.88733,0,0,0,0,0,0,0,-1,1763,1618,6.9478,-8.88738
546,-594,7.48645,8.54785,0,0,0,0,0,0,0,-1,1770,1618,7.48639,-8.54789
553,-594,3.69714,5.68762,0,0,0,0,0,0,0,-1,1777,1618,3.69715,-5.68764
560,-594,6.06616,4.44482,0,0,0,0,0,0,0,-1,1784,1618,6.06621,-4.44477
567,-594,5.97266,4.73303,0,0,0,0,0,0,0,-1,1791,1618,5.97271,-4.73309
574,-594,5.9906,4.96326,0,0,0,0,0,0,0,-1,1798,1618,5.99065,-4.96326
581,-594,0,0,0,0,0,0,0,0,0,-1,1805,1618,0,0
588,-594,0,0,0,0,0,0,0,0,0,-1,1812,1618,0,0
595,-594,0,0,0,0,0,0,0,0,0,-1,1819,1618,0,0
602,-594,0,0,0,0,0,0,0,0,0,-1,1826,1618,0,0
609,-594,0,0,0,0,0,0,0,0,0,-1,1833,1618,0,0
616,-594,0,0,0,0,0,0,0,0,0,-1,1840,1618,0,0
623,-594,0,0,0,0,0,0,0,0,0,-1,1847,1618,0,0
630,-594,0,0,0,0,0,0,0,0,0,-1,1854,1618,0,0
637,-594,0,0,0,0,0,0,0,0,0,-1,1861,1618,0,0
644,-594,0,0,0,0,0,0,0,0,0,-1,1868,1618,0,0
651,-594,0,0,0,0,0,0,0,0,0,-1,1875,1618,0,0
658,-594,0,0,0,0,0,0,0,0,0,-1,1882,1618,0,0
665,-594,0,0,0,0,0,0,0,0,0,-1,1889,1618,0,0
672,-594,0,0,0,0,0,0,0,0,0,-1,1896,1618,0,0
679,-594,0,0,0,0,0,0,0,0,0,-1,1903,1618,0,0
686,-594,0,0,0,0,0,0,0,0,0,-1,1910,1618,0,0
693,-594,0,0,0,0,0,0,0,0,0,-1,1917,1618,0,0
700,-594,0,0,0,0,0,0,0,0,0,-1,1924,1618,0,0
707,-594,0,0,0,0,0,0,0,0,0,-1,1931,1618,0,0
714,-594,0,0,0,0,0,0,0,0,0,-1,1938,1618,0,0
721,-594,0,0,0,0,0,0,0,0,0,-1,1945,1618,0,0
728,-594,0,0,0,0,0,0,0,0,0,-1,1952,1618,0,0
735,-594,0,0,0,0,0,0,0,0,0,-1,1959,1618,0,0
742,-594,0,0,0,0,0,0,0,0,0,-1,1966,1618,0,0
749,-594,0,0,0,0,0,0,0,0,0,-1,1973,1618,0,0
756,-594,0,0,0,0,0,0,0,0,0,-1,1980,1618,0,0
763,-594,0,0,0,0,0,0,0,0,0,-1,1987,1618,0,0
770,-594,0,0,0,0,0,0,0,0,0,-1,1994,1618,0,0
777,-594,0,0,0,0,0,0,0,0,0,-1,2001,1618,0,0
784,-594,0,0,0,0,0,0,0,0,0,-1,2008,1618,0,0
791,-594,0,0,0,0,0,0,0,0,0,-1,2015,1618,0,0
798,-594,0,0,0,0,0,0,0,0,0,-1,2022,1618,0,0
805,-594,0,0,0,0,0,0,0,0,0,-1,2029,1618,0,0
812,-594,0,0,0,0,0,0,0,0,0,-1,2036,1618,0,0
-700,-601,0,0,0,0,0,0,0,0,0,-1,524,1625,0,0
-693,-601,0,0,0,0,0,0,0,0,0,-1,531,1625,0,0
-686,-601,0,0,0,0,0,0,0,0,0,-1,538,1625,0,0
-679,-601,0,0,0,0,0,0,0,0,0,-1,545,1625,0,0
-672,-601,0,0,0,0,0,0,0,0,0,-1,552,1625,0,0
-665,-601,0,0,0,0,0,0,0,0,0,-1,559,1625,0,0
-658,-601,0,0,0,0,0,0,0,0,0,-1,566,1625,0,0
-651,-601,0,0,0,0,0,0,0,0,0,-1,573,1625,0,0
-644,-601,0,0,0,0,0,0,0,0,0,-1,580,1625,0,0
-637,-601,0,0,0,0,0,0,0,0,0,-1,587,1625,0,0
-630,-601,0,0,0,0,0,0,0,0,0,-1,594,1625,0,0
-623,-601,0,0,0,0,0,0,0,0,0,-1,601,1625,0,0
-616,-601,0,0,0,0,0,0,0,0,0,-1,608,1625,0,0
-609,-601,0,0,0,0,0,0,0,0,0,-1,615,1625,0,0
-602,-601,0,0,0,0,0,0,0,0,0,-1,622,1625,0,0
-595,-601,0,0,0,0,0,0,0,0,0,-1,629,1625,0,0
-588,-601,0,0,0,0,0,0,0,0,0,-1,636,1625,0,0
-581,-601,0,0,0,0,0,0,0,0,0,-1,643,1625,0,0
-574,-601,0,0,0,0,0,0,0,0,0,-1,650,1625,0,0
-567,-601,0,0,0,0,0,0,0,0,0,-1,657,1625,0,0
-560,-601,0,0,0,0,0,0,0,0,0,-1,664,1625,0,0
-553,-601,0,0,0,0,0,0,0,0,0,-1,671,1625,0,0
-546,-601,0,0,0,0,0,0,0,0,0,-1,678,1625,0,0
-539,-601,0,0,0,0,0,0,0,0,0,-1,685,1625,0,0
-532,-601,0,0,0,0,0,0,0,0,0,-1,692,1625,0,0
-525,-601,0,0,0,0,0,0,0,0,0,-1,699,1625,0,0
-518,-601,0,0,0,0,0,0,0,0,0,-1,706,1625,0,0
-511,-601,0,0,0,0,0,0,0,0,0,-1,713,1625,0,0
-504,-601,0,0,0,0,0,0,0,0,0,-1,720,1625,0,0
-497,-601,0,0,0,0,0,0,0,0,0,-1,727,1625,0,0
-490,-601,0,0,0,0,0,0,0,0,0,-1,734,1625,0,0
-483,-601,0,0,0,0,0,0,0,0,0,-1,741,1625,0,0
-476,-601,0,0,0,0,0,0,0,0,0,-1,748,1625,0,0
-469,-601,0,0,0,0,0,0,0,0,0,-1,755,1625,0,0
-462,-601,0,0,0,0,0,0,0,0,0,-1,762,1625,0,0
-455,-601,0,0,0,0,0,0,0,0,0,-1,769,1625,0,0
-448,-601,-7.07623,2.7616,0,0,0,0,0,0,0,-1,776,1625,-7.07626,-2.76161
-441,-601,-6.06689,3.33447,0,0,0,0,0,0,0,-1,783,1625,-6.06691,-3.33448
-434,-601,-5.02655,3.8468,0,0,0,0,0,0,0,-1,790,1625,-5.02657,-3.84674
-427,-601,-5.78601,4.2406,0,0,0,0,0,0,0,-1,797,1625,-5.786,-4.24058
-420,-601,-4.26819,5.33447,0,0,0,0,0,0,0,-1,804,1625,-4.26817,-5.33442
-413,-601,-2.75446,6.1803,0,0,0,0,0,0,0,-1,811,1625,-2.75449,-6.18033
-406,-601,-1.67493,7.20422,0,0,0,0,0,0,0,-1,818,1625,-1.67493,-7.20428
-399,-601,1.72986,9.08472,0,0,0,0,0,0,0,-1,825,1625,1.72986,-9.0847
-392,-601,1.8678,9.01538,-0.00649657,-0.00921947,-0.00446114,-0.00319376,-0.0125223,-0.637297,0.00751338,0.0468914,832,1625,1.8678,-9.01534
-385,-601,2.04126,8.82849,-0.00515286,-0.00936298,-0.00386821,-0.00285402,-0.0116618,-0.536211,0.00701935,0.0446318,839,1625,2.04128,-8.82846
-378,-601,2.13617,8.58557,-0.0039799,-0.0087369,-0.00305851,-0.0024839,-0.0102329,-0.454912,0.00616314,0.0323065,846,1625,2.13618,-8.58558
-371,-601,2.04327,8.75537,-0.00283814,-0.00819761,-0.00240569,-0.00191672,-0.00911903,-0.365781,0.00555185,0.0150102,853,1625,2.04325,-8.75534
-364,-601,2.06024,8.95715,-0.00179801,-0.00696257,-0.00152546,-0.00138109,-0.00737949,-0.266793,0.00453003,0.010534,860,1625,2.06025,-8.95713
-357,-601,2.06024,9.1748,-0.000912406,-0.00591175,-0.000901335,-0.000754868,-0.00606929,-0.173035,0.00381952,0.0103274,867,1625,2.06023,-9.17478
-350,-601,2.06421,9.4209,-9.18485e-05,-0.00459769,-0.000338273,-6.65945e-05,-0.00462294,-0.0745177,0.00306,0.0213459,874,1625,2.0642,-9.42093
-343,-601,2.05017,9.64612,0.000535618,-0.00347867,5.79601e-05,0.000536455,-0.00347951,0.0144344,0.00251761,0.0210856,881,1625,2.05017,-9.6461
-336,-601,2.02649,9.80493,0.000734413,-0.0021107,0.000280013,0.00076171,-0.002138,0.0971766,0.00173587,0.0169891,888,1625,2.0265,-9.80488
-329,-601,2.02911,9.98364,0.000936371,-0.00114531,0.000342789,0.000991365,-0.0012003,0.159076,0.00126727,0.0142694,895,1625,2.02913,-9.98364
-322,-601,2.04431,10.1875,0.00137854,-0.000564904,0.000436481,0.00147207,-0.000658432,0.211087,0.00125959,0.0128718,902,1625,2.04433,-10.1875
-315,-601,2.04657,10.351,0.00136342,3.10478e-05,0.000185282,0.0013887,5.76215e-06,0.135634,0.000923889,0.0130438,909,1625,2.0466,-10.3509
-308,-601,2.04785,10.5347,0.000987396,0.000334541,-0.000298009,0.00110297,0.000218968,-0.36996,0.000674281,0.0112257,916,1625,2.04787,-10.5346
-301,-601,2.07617,10.7393,0.000764383,0.000560118,-0.000660527,0.00133063,-6.12583e-06,-0.708694,0.000889134,0.00950961,923,1625,2.07618,-10.7393
-294,-601,2.07416,10.9066,0.000807479,0.000229478,-0.000872199,0.00143731,-0.000400354,-0.625417,0.00111586,0.00936851,930,1625,2.07413,-10.9067
-287,-601,2.06268,11.0857,0.000908276,-0.000181505,-0.001057,0.00155257,-0.000825799,-0.547411,0.00139436,0.00923875,937,1625,2.06271,-11.0857
-280,-601,2.06866,11.2517,0.00121688,-0.0009508,-0.00124118,0.00178084,-0.00151476,-0.426484,0.00190478,0.00979824,944,1625,2.06867,-11.2518
-273,-601,2.08929,11.4143,0.00165731,-0.0020634,-0.00148679,0.00217844,-0.00258453,-0.337126,0.00275323,0.0103512,951,1625,2.08931,-11.4143
-266,-601,2.10663,11.5764,0.00220809,-0.00358965,-0.00172736,0.00268371,-0.00406528,-0.26869,0.00392365,0.0124485,958,1625,2.10662,-11.5764
-259,-601,2.13306,11.6835,0.00309587,-0.00646726,-0.00224799,0.00359794,-0.00696934,-0.219737,0.00620366,0.0242659,965,1625,2.13303,-11.6835
-252,-601,2.26086,11.7026,0.00441365,-0.011283,-0.0022748,0.00473667,-0.011606,-0.141057,0.00970932,0.0443221,972,1625,2.26084,-11.7027
-245,-601,2.45587,11.6797,0.00696831,-0.0176354,-0.00147513,0.00705644,-0.0177235,-0.0596706,0.0147419,0.0475004,979,1625,2.45587,-11.6797
-238,-601,2.37927,12.2217,0,0,0,0,0,0,0,-1,986,1625,2.37926,-12.2217
-231,-601,2.00421,11.0231,0,0,0,0,0,0,0,-1,993,1625,2.00423,-11.0231
-224,-601,-0.0305176,9.13684,0,0,0,0,0,0,0,-1,1000,1625,-0.030498,-9.13681
-217,-601,3.39429,10.3898,0,0,0,0,0,0,0,-1,1007,1625,3.39431,-10.3898
-210,-601,0.387329,13.4701,0,0,0,0,0,0,0,-1,1014,1625,0.387304,-13.4701
-203,-601,2.28613,10.9529,0,0,0,0,0,0,0,-1,1021,1625,2.2861,-10.9529
-196,-601,2.71362,11.0952,0,0,0,0,0,0,0,-1,1028,1625,2.71357,-11.0952
-189,-601,3.14221,11.5416,0,0,0,0,0,0,0,-1,1035,1625,3.14223,-11.5416
-182,-601,0.983276,11.9695,0,0,0,0,0,0,0,-1,1042,1625,0.983235,-11.9695
-175,-601,0.544922,9.28687,0,0,0,0,0,0,0,-1,1049,1625,0.544879,-9.28685
-168,-601,-0.247559,8.97461,0,0,0,0,0,0,0,-1,1056,1625,-0.247598,-8.97466
-161,-601,-1.16833,8.80078,0,0,0,0,0,0,0,-1,1063,1625,-1.16837,-8.80081
-154,-601,1.12756,7.94861,0,0,0,0,0,0,0,-1,1070,1625,1.12762,-7.94855
-147,-601,1.35352,9.55432,0,0,0,0,0,0,0,-1,1077,1625,1.35351,-9.55429
-140,-601,1.72437,11.1498,0,0,0,0,0,0,0,-1,1084,1625,1.72432,-11.1498
-133,-601,2.13281,12.8347,0,0,0,0,0,0,0,-1,1091,1625,2.13287,-12.8348
-126,-601,3.09534,15.427,0,0,0,0,0,0,0,-1,1098,1625,3.0953,-15.4271
-119,-601,1.22485,9.43457,0,0,0,0,0,0,0,-1,1105,1625,1.22489,-9.43456
-112,-601,0,0,0,0,0,0,0,0,0,-1,1112,1625,0,0
-105,-601,0,0,0,0,0,0,0,0,0,-1,1119,1625,0,0
-98,-601,0,0,0,0,0,0,0,0,0,-1,1126,1625,0,0
-91,-601,0,0,0,0,0,0,0,0,0,-1,1133,1625,0,0
-84,-601,0,0,0,0,0,0,0,0,0,-1,1140,1625,0,0
-77,-601,0,0,0,0,0,0,0,0,0,-1,1147,1625,0,0
-70,-601,0,0,0,0,0,0,0,0,0,-1,1154,1625,0,0
-63,-601,0,0,0,0,0,0,0,0,0,-1,1161,1625,0,0
-56,-601,0,0,0,0,0,0,0,0,0,-1,1168,1625,0,0
-49,-601,0,0,0,0,0,0,0,0,0,-1,1175,1625,0,0
-42,-601,0,0,0,0,0,0,0,0,0,-1,1182,1625,0,0
-35,-601,0,0,0,0,0,0,0,0,0,-1,1189,1625,0,0
-28,-601,0,0,0,0,0,0,0,0,0,-1,1196,1625,0,0
-21,-601,0,0,0,0,0,0,0,0,0,-1,1203,1625,0,0
-14,-601,0,0,0,0,0,0,0,0,0,-1,1210,1625,0,0
-7,-601,0,0,0,0,0,0,0,0,0,-1,1217,1625,0,0
0,-601,0,0,0,0,0,0,0,0,0,-1,1224,1625,0,0
7,-601,0,0,0,0,0,0,0,0,0,-1,1231,1625,0,0
14,-601,0,0,0,0,0,0,0,0,0,-1,1238,1625,0,0
21,-601,0,0,0,0,0,0,0,0,0,-1,1245,1625,0,0
28,-601,0,0,0,0,0,0,0,0,0,-1,1252,1625,0,0
35,-601,0,0,0,0,0,0,0,0,0,-1,1259,1625,0,0
42,-601,0,0,0,0,0,0,0,0,0,-1,1266,1625,0,0
49,-601,0,0,0,0,0,0,0,0,0,-1,1273,1625,0,0
56,-601,0,0,0,0,0,0,0,0,0,-1,1280,1625,0,0
63,-601,0,0,0,0,0,0,0,0,0,-1,1287,1625,0,0
70,-601,0,0,0,0,0,0,0,0,0,-1,1294,1625,0,0
77,-601,0,0,0,0,0,0,0,0,0,-1,1301,1625,0,0
84,-601,0,0,0,0,0,0,0,0,0,-1,1308,1625,0,0
91,-601,0,0,0,0,0,0,0,0,0,-1,1315,1625,0,0
98,-601,0,0,0,0,0,0,0,0,0,-1,1322,1625,0,0
105,-601,0,0,0,0,0,0,0,0,0,-1,1329,1625,0,0
112,-601,0,0,0,0,0,0,0,0,0,-1,1336,1625,0,0
119,-601,0,0,0,0,0,0,0,0,0,-1,1343,1625,0,0
126,-601,0,0,0,0,0,0,0,0,0,-1,1350,1625,0,0
133,-601,0,0,0,0,0,0,0,0,0,-1,1357,1625,0,0
140,-601,0,0,0,0,0,0,0,0,0,-1,1364,1625,0,0
147,-601,0,0,0,0,0,0,0,0,0,-1,1371,1625,0,0
154,-601,0,0,0,0,0,0,0,0,0,-1,1378,1625,0,0
161,-601,0,0,0,0,0,0,0,0,0,-1,1385,1625,0,0
168,-601,0,0,0,0,0,0,0,0,0,-1,1392,1625,0,0
175,-601,0,0,0,0,0,0,0,0,0,-1,1399,1625,0,0
182,-601,0,0,0,0,0,0,0,0,0,-1,1406,1625,0,0
189,-601,0,0,0,0,0,0,0,0,0,-1,1413,1625,0,0
196,-601,0,0,0,0,0,0,0,0,0,-1,1420,1625,0,0
203,-601,0,0,0,0,0,0,0,0,0,-1,1427,1625,0,0
210,-601,0,0,0,0,0,0,0,0,0,-1,1434,1625,0,0
217,-601,0,0,0,0,0,0,0,0,0,-1,1441,1625,0,0
224,-601,0,0,0,0,0,0,0,0,0,-1,1448,1625,0,0
231,-601,-0.0371094,0.525879,0,0,0,0,0,0,0,-1,1455,1625,-0.0371518,-0.525824
238,-601,2.03369,-1.32861,0,0,0,0,0,0,0,-1,1462,1625,2.03364,1.32858
245,-601,2.71375,2.44983,0,0,0,0,0,0,0,-1,1469,1625,2.71371,-2.44979
252,-601,4.66943,2.28381,0,0,0,0,0,0,0,-1,1476,1625,4.66947,-2.28376
259,-601,6.42712,2.61987,0,0,0,0,0,0,0,-1,1483,1625,6.42711,-2.61985
266,-601,6.75317,1.68701,0,0,0,0,0,0,0,-1,1490,1625,6.75323,-1.687
273,-601,5.4314,2.92053,0,0,0,0,0,0,0,-1,1497,1625,5.43144,-2.92051
280,-601,4.64722,1.17786,0,0,0,0,0,0,0,-1,1504,1625,4.64722,-1.1779
287,-601,5.32532,2.6217,0,0,0,0,0,0,0,-1,1511,1625,5.32535,-2.62171
294,-601,5.97693,4.22693,0,0,0,0,0,0,0,-1,1518,1625,5.97697,-4.22694
301,-601,7.28162,9.50024,0,0,0,0,0,0,0,-1,1525,1625,7.28162,-9.50025
308,-601,6.42468,9.90295,0,0,0,0,0,0,0,-1,1532,1625,6.42468,-9.90299
315,-601,7.80762,8.37769,0,0,0,0,0,0,0,-1,1539,1625,7.80756,-8.37772
322,-601,5.80298,10.6145,0,0,0,0,0,0,0,-1,1546,1625,5.80295,-10.6145
329,-601,6.51721,7.23535,0,0,0,0,0,0,0,-1,1553,1625,6.51719,-7.23529
336,-601,4.67847,9.53308,0,0,0,0,0,0,0,-1,1560,1625,4.67848,-9.53309
343,-601,11.1404,3.14575,0,0,0,0,0,0,0,-1,1567,1625,11.1404,-3.1458
350,-601,10.9462,2.37769,0,0,0,0,0,0,0,-1,1574,1625,10.9461,-2.37764
357,-601,10.7518,1.6095,0,0,0,0,0,0,0,-1,1581,1625,10.7518,-1.60948
364,-601,5.33643,9.74426,0,0,0,0,0,0,0,-1,1588,1625,5.33637,-9.74429
371,-601,6.65002,12.9812,0,0,0,0,0,0,0,-1,1595,1625,6.64998,-12.9812
378,-601,6.7002,12.7266,0,0,0,0,0,0,0,-1,1602,1625,6.70015,-12.7266
385,-601,6.77014,12.4904,0,0,0,0,0,0,0,-1,1609,1625,6.77009,-12.4904
392,-601,6.65808,12.2169,-0.00572715,-0.0122536,0.0092493,0.000817701,-0.0187984,0.615812,0.0128136,0.0448035,1616,1625,6.65812,-12.2169
399,-601,6.66821,12.369,-0.00760859,-0.0111534,0.00775406,-0.00142694,-0.017335,0.673041,0.0111116,0.020409,1623,1625,6.66822,-12.369
406,-601,6.7627,12.2637,-0.00807483,-0.00955639,0.00678905,-0.00198627,-0.015645,0.731056,0.00983497,0.0151418,1630,1625,6.76275,-12.2637
413,-601,6.74768,12.1327,-0.00834335,-0.00834302,0.00594454,-0.00239865,-0.0142877,0.785412,0.00883481,0.0138812,1637,1625,6.74764,-12.1327
420,-601,6.72583,12.0415,-0.00851519,-0.00698771,0.00514103,-0.00255399,-0.0129489,0.859138,0.00791975,0.0102047,1644,1625,6.72588,-12.0415
427,-601,6.74121,11.9077,-0.00850753,-0.00594504,0.00443824,-0.00260681,-0.0118458,0.92592,0.00718758,0.0142843,1651,1625,6.74118,-11.9078
434,-601,6.76892,11.7267,-0.00826813,-0.00512981,0.00384805,-0.00254328,-0.0108547,0.978996,0.00655525,0.0155098,1658,1625,6.76891,-11.7267
441,-601,6.77905,11.5461,-0.00768443,-0.00422607,0.0031967,-0.00232084,-0.00958967,1.03332,0.00577704,0.0171087,1665,1625,6.77901,-11.5461
448,-601,6.77832,11.3839,-0.00679689,-0.00295696,0.00243814,-0.00177358,-0.00798027,1.11893,0.00483858,0.014456,1672,1625,6.77833,-11.3839
455,-601,6.76855,11.2114,-0.00576486,-0.00186161,0.00169543,-0.00122802,-0.00639845,1.21316,0.00392093,0.0123515,1679,1625,6.76853,-11.2114
462,-601,6.76636,11.0463,-0.00447915,-0.000592215,0.000916363,-0.000387012,-0.00468435,1.3505,0.00300222,0.0108794,1686,1625,6.76637,-11.0463
469,-601,6.76782,10.8859,-0.00304508,0.000903804,0.000119034,0.000907389,-0.00304867,1.54069,0.00239296,0.0108437,1693,1625,6.76776,-10.8858
476,-601,6.76465,10.7211,-0.00171796,0.00255842,-0.000670312,0.00266103,-0.00182057,-1.4189,0.00260257,0.01242,1700,1625,6.76468,-10.7211
483,-601,6.75049,10.5392,-0.00042275,0.0044269,-0.00152056,0.00486422,-0.000860073,-1.29075,0.00356426,0.0153539,1707,1625,6.75052,-10.5391
490,-601,6.71411,10.3695,0.000788103,0.00639469,-0.00239294,0.00727713,-9.43372e-05,-1.2175,0.00488317,0.011707,1714,1625,6.71407,-10.3696
497,-601,6.74329,10.1833,0.00171524,0.00841156,-0.00334289,0.00979469,0.000332111,-1.17849,0.00642195,0.00943283,1721,1625,6.74332,-10.1833
504,-601,6.75378,9.96008,0.00211779,0.0102263,-0.00421925,0.0120234,0.00032063,-1.16813,0.0079109,0.0130746,1728,1625,6.75373,-9.96008
511,-601,6.73511,9.78186,0.00301817,0.0119584,-0.00506512,0.0142438,0.00073274,-1.14694,0.0092613,0.024128,1735,1625,6.73505,-9.78187
518,-601,6.6936,9.57568,0.00403712,0.0133788,-0.00579118,0.016148,0.00126789,-1.12476,0.0103686,0.0351677,1742,1625,6.69358,-9.57569
525,-601,6.65869,9.38733,0.00537485,0.0147826,-0.00658844,0.018174,0.00198341,-1.09541,0.011512,0.0446984,1749,1625,6.6587,-9.38727
532,-601,6.88757,9.21716,0,0,0,0,0,0,0,-1,1756,1625,6.88751,-9.21715
539,-601,6.34155,7.79578,0,0,0,0,0,0,0,-1,1763,1625,6.3415,-7.79583
546,-601,6.56873,3.62354,0,0,0,0,0,0,0,-1,1770,1625,6.56867,-3.62352
553,-601,7.03015,4.25049,0,0,0,0,0,0,0,-1,1777,1625,7.03011,-4.25048
560,-601,7.50745,4.83374,0,0,0,0,0,0,0,-1,1784,1625,7.50744,-4.83376
567,-601,7.82043,3.83301,0,0,0,0,0,0,0,-1,1791,1625,7.82041,-3.83303
574,-601,0,0,0,0,0,0,0,0,0,-1,1798,1625,0,0
581,-601,0,0,0,0,0,0,0,0,0,-1,1805,1625,0,0
588,-601,0,0,0,0,0,0,0,0,0,-1,1812,1625,0,0
595,-601,0,0,0,0,0,0,0,0,0,-1,1819,1625,0,0
602,-601,0,0,0,0,0,0,0,0,0,-1,1826,1625,0,0
609,-601,0,0,0,0,0,0,0,0,0,-1,1833,1625,0,0
616,-601,0,0,0,0,0,0,0,0,0,-1,1840,1625,0,0
623,-601,0,0,0,0,0,0,0,0,0,-1,1847,1625,0,0
630,-601,0,0,0,0,0,0,0,0,0,-1,1854,1625,0,0
637,-601,0,0,0,0,0,0,0,0,0,-1,1861,1625,0,0
644,-601,0,0,0,0,0,0,0,0,0,-1,1868,1625,0,0
651,-601,0,0,0,0,0,0,0,0,0,-1,1875,1625,0,0
658,-601,0,0,0,0,0,0,0,0,0,-1,1882,1625,0,0
665,-601,0,0,0,0,0,0,0,0,0,-1,1889,1625,0,0
672,-601,0,0,0,0,0,0,0,0,0,-1,1896,1625,0,0
679,-601,0,0,0,0,0,0,0,0,0,-1,1903,1625,0,0
686,-601,0,0,0,0,0,0,0,0,0,-1,1910,1625,0,0
693,-601,0,0,0,0,0,0,0,0,0,-1,1917,1625,0,0
700,-601,0,0,0,0,0,0,0,0,0,-1,1924,1625,0,0
707,-601,0,0,0,0,0,0,0,0,0,-1,1931,1625,0,0
714,-601,0,0,0,0,0,0,0,0,0,-1,1938,1625,0,0
721,-601,0,0,0,0,0,0,0,0,0,-1,1945,1625,0,0
728,-601,0,0,0,0,0,0,0,0,0,-1,1952,1625,0,0
735,-601,0,0,0,0,0,0,0,0,0,-1,1959,1625,0,0
742,-601,0,0,0,0,0,0,0,0,0,-1,1966,1625,0,0
749,-601,0,0,0,0,0,0,0,0,0,-1,1973,1625,0,0
756,-601,0,0,0,0,0,0,0,0,0,-1,1980,1625,0,0
763,-601,0,0,0,0,0,0,0,0,0,-1,1987,1625,0,0
770,-601,0,0,0,0,0,0,0,0,0,-1,1994,1625,0,0
777,-601,0,0,0,0,0,0,0,0,0,-1,2001,1625,0,0
784,-601,0,0,0,0,0,0,0,0,0,-1,2008,1625,0,0
791,-601,0,0,0,0,0,0,0,0,0,-1,2015,1625,0,0
798,-601,0,0,0,0,0,0,0,0,0,-1,2022,1625,0,0
805,-601,0,0,0,0,0,0,0,0,0,-1,2029,1625,0,0
812,-601,0,0,0,0,0,0,0,0,0,-1,2036,1625,0,0
-700,-608,0,0,0,0,0,0,0,0,0,-1,524,1632,0,0
-693,-608,0,0,0,0,0,0,0,0,0,-1,531,1632,0,0
-686,-608,0,0,0,0,0,0,0,0,0,-1,538,1632,0,0
-679,-608,0,0,0,0,0,0,0,0,0,-1,545,1632,0,0
-672,-608,0,0,0,0,0,0,0,0,0,-1,552,1632,0,0
-665,-608,0,0,0,0,0,0,0,0,0,-1,559,1632,0,0
-658,-608,0,0,0,0,0,0,0,0,0,-1,566,1632,0,0
-651,-608,0,0,0,0,0,0,0,0,0,-1,573,1632,0,0
-644,-608,0,0,0,0,0,0,0,0,0,-1,580,1632,0,0
-637,-608,0,0,0,0,0,0,0,0,0,-1,587,1632,0,0
-630,-608,0,0,0,0,0,0,0,0,0,-1,594,1632,0,0
-623,-608,0,0,0,0,0,0,0,0,0,-1,601,1632,0,0
-616,-608,0,0,0,0,0,0,0,0,0,-1,608,1632,0,0
-609,-608,0,0,0,0,0,0,0,0,0,-1,615,1632,0,0
-602,-608,0,0,0,0,0,0,0,0,0,-1,622,1632,0,0
-595,-608,0,0,0,0,0,0,0,0,0,-1,629,1632,0,0
-588,-608,0,0,0,0,0,0,0,0,0,-1,636,1632,0,0
-581,-608,0,0,0,0,0,0,0,0,0,-1,643,1632,0,0
-574,-608,0,0,0,0,0,0,0,0,0,-1,650,1632,0,0
-567,-608,0,0,0,0,0,0,0,0,0,-1,657,1632,0,0
-560,-608,0,0,0,0,0,0,0,0,0,-1,664,1632,0,0
-553,-608,0,0,0,0,0,0,0,0,0,-1,671,1632,0,0
-546,-608,0,0,0,0,0,0,0,0,0,-1,678,1632,0,0
-539,-608,0,0,0,0,0,0,0,0,0,-1,685,1632,0,0
-532,-608,0,0,0,0,0,0,0,0,0,-1,692,1632,0,0
-525,-608,0,0,0,0,0,0,0,0,0,-1,699,1632,0,0
-518,-608,0,0,0,0,0,0,0,0,0,-1,706,1632,0,0
-511,-608,0,0,0,0,0,0,0,0,0,-1,713,1632,0,0
-504,-608,0,0,0,0,0,0,0,0,0,-1,720,1632,0,0
-497,-608,0,0,0,0,0,0,0,0,0,-1,727,1632,0,0
-490,-608,0,0,0,0,0,0,0,0,0,-1,734,1632,0,0
-483,-608,0,0,0,0,0,0,0,0,0,-1,741,1632,0,0
-476,-608,0,0,0,0,0,0,0,0,0,-1,748,1632,0,0
-469,-608,0,0,0,0,0,0,0,0,0,-1,755,1632,0,0
-462,-608,0,0,0,0,0,0,0,0,0,-1,762,1632,0,0
-455,-608,0,0,0,0,0,0,0,0,0,-1,769,1632,0,0
-448,-608,0,0,0,0,0,0,0,0,0,-1,776,1632,0,0
-441,-608,-7.34601,2.78052,0,0,0,0,0,0,0,-1,783,1632,-7.346,-2.78056
-434,-608,-6.34558,3.27405,0,0,0,0,0,0,0,-1,790,1632,-6.34555,-3.27406
-427,-608,-5.05603,3.92859,0,0,0,0,0,0,0,-1,797,1632,-5.05602,-3.92857
-420,-608,-5.61499,3.51917,0,0,0,0,0,0,0,-1,804,1632,-5.61498,-3.51914
-413,-608,-4.63806,4.34399,0,0,0,0,0,0,0,-1,811,1632,-4.63808,-4.34396
-406,-608,-3.69275,5.26758,0,0,0,0,0,0,0,-1,818,1632,-3.69272,-5.26761
-399,-608,-2.60645,6.34167,0,0,0,0,0,0,0,-1,825,1632,-2.60643,-6.34169
-392,-608,2.27045,9.40479,0,0,0,0,0,0,0,-1,832,1632,2.27046,-9.40473
-385,-608,2.96826,8.6991,0,0,0,0,0,0,0,-1,839,1632,2.96828,-8.69912
-378,-608,2.81537,8.74109,-0.00484186,-0.01152,-0.0034061,-0.00341115,-0.0129507,-0.397666,0.00775115,0.0482136,846,1632,2.81535,-8.74115
-371,-608,2.38251,8.7771,-0.00327197,-0.0104332,-0.00244747,-0.00251543,-0.0111897,-0.299795,0.00677873,0.0388254,853,1632,2.38248,-8.77704
-364,-608,2.28296,8.90942,-0.0019694,-0.0086957,-0.0014261,-0.00167954,-0.00898557,-0.200527,0.00551643,0.0160718,860,1632,2.28294,-8.90948
-357,-608,2.26392,9.14539,-0.000962413,-0.00725764,-0.000769283,-0.000869769,-0.00735029,-0.119851,0.00463754,0.0126321,867,1632,2.26392,-9.14542
-350,-608,2.24005,9.38684,-0.000119667,-0.00564172,-0.000250595,-0.000108319,-0.00565307,-0.0452567,0.00373313,0.0179655,874,1632,2.24005,-9.38687
-343,-608,2.22461,9.59705,0.000481411,-0.00428572,6.02278e-05,0.000482172,-0.00428648,0.0126313,0.00303119,0.0226583,881,1632,2.22461,-9.59705
-336,-608,2.24341,9.80688,0.000629068,-0.00274602,0.000237635,0.000645718,-0.00276267,0.0699487,0.00209053,0.0149737,888,1632,2.24342,-9.80694
-329,-608,2.20825,9.98987,0.000745783,-0.00164507,0.000237207,0.00076909,-0.00166838,0.0979418,0.00143885,0.0129116,895,1632,2.20825,-9.98982
-322,-608,2.19318,10.1654,0.00121617,-0.00102204,0.00034703,0.00126874,-0.00107461,0.150347,0.00135448,0.0132553,902,1632,2.19316,-10.1655
-315,-608,2.23438,10.3381,0.00118846,-0.000362601,0.00010799,0.00119594,-0.000370084,0.0691786,0.000945124,0.0125081,909,1632,2.2344,-10.3381
-308,-608,2.24951,10.5486,0.000746835,-3.60266e-05,-0.000364912,0.000890548,-0.00017974,-0.375176,0.000661799,0.0128075,916,1632,2.24954,-10.5486
-301,-608,2.25476,10.7452,0.000492842,0.000240043,-0.000684882,0.00106289,-0.000330006,-0.694146,0.000840476,0.00987151,923,1632,2.25474,-10.7452
-294,-608,2.25775,10.8944,0.00058348,-2.20161e-05,-0.000786347,0.00112335,-0.000561882,-0.601641,0.000990803,0.00968414,930,1632,2.25775,-10.8944
-287,-608,2.23657,11.0786,0.000751572,-0.000398553,-0.000837957,0.00119281,-0.000839791,-0.484673,0.00117941,0.00992289,937,1632,2.23656,-11.0786
-280,-608,2.24426,11.2422,0.00109653,-0.00107266,-0.000888359,0.00141391,-0.00139004,-0.34313,0.00161888,0.00823124,944,1632,2.24424,-11.2421
-273,-608,2.24738,11.4222,0.00158301,-0.00201527,-0.000979945,0.00183258,-0.00226483,-0.249373,0.00237002,0.00876977,951,1632,2.24738,-11.4222
-266,-608,2.27014,11.5953,0.00213367,-0.00327433,-0.00109062,0.00234533,-0.00348599,-0.19169,0.00338812,0.00883547,958,1632,2.27015,-11.5954
-259,-608,2.2832,11.7271,0.00287855,-0.00561642,-0.00151915,0.00314204,-0.00587992,-0.171741,0.00528818,0.0118108,965,1632,2.28319,-11.7271
-252,-608,2.28339,11.847,0.00393051,-0.00949911,-0.00158201,0.00411436,-0.00968295,-0.11569,0.00817929,0.0253291,972,1632,2.28339,-11.8471
-245,-608,2.40015,12.0743,0.00597443,-0.0145369,-0.00106588,0.00602967,-0.0145922,-0.0517796,0.0122434,0.0370534,979,1632,2.40014,-12.0744
-238,-608,2.46057,12.2264,0.00961133,-0.0185219,0.000778043,0.00963283,-0.0185434,0.0276276,0.0165365,0.0440854,986,1632,2.46059,-12.2264
-231,-608,2.55652,12.296,0,0,0,0,0,0,0,-1,993,1632,2.55651,-12.296
-224,-608,2.3443,12.0583,0,0,0,0,0,0,0,-1,1000,1632,2.34432,-12.0584
-217,-608,1.04419,12.8451,0,0,0,0,0,0,0,-1,1007,1632,1.04418,-12.8451
-210,-608,1.94153,11.6733,0,0,0,0,0,0,0,-1,1014,1632,1.94151,-11.6734
-203,-608,2.44635,11.3871,0.0317487,-0.045421,0.0148297,0.0345004,-0.0481727,0.183467,0.0479484,0.0483947,1021,1632,2.44633,-11.3871
-196,-608,2.62305,11.7294,0.0367094,-0.0489643,0.0186122,0.0405781,-0.052833,0.204941,0.0540854,0.0450028,1028,1632,2.623,-11.7294
-189,-608,3.19128,12.6954,0.0420345,-0.0507906,0.0228455,0.0473524,-0.0561085,0.228705,0.0598045,0.0439436,1035,1632,3.19125,-12.6954
-182,-608,3.5127,12.9995,0,0,0,0,0,0,0,-1,1042,1632,3.51264,-12.9995
-175,-608,-0.0582275,11.2634,0,0,0,0,0,0,0,-1,1049,1632,-0.0581829,-11.2635
-168,-608,0.000366211,9.48645,0,0,0,0,0,0,0,-1,1056,1632,0.000317105,-9.48648
-161,-608,-0.939453,9.31458,0,0,0,0,0,0,0,-1,1063,1632,-0.939447,-9.31463
-154,-608,3.70996,11.3959,0,0,0,0,0,0,0,-1,1070,1632,3.70994,-11.3959
-147,-608,2.4386,9.50317,0,0,0,0,0,0,0,-1,1077,1632,2.43858,-9.50313
-140,-608,2.60132,10.8401,0,0,0,0,0,0,0,-1,1084,1632,2.60134,-10.8401
-133,-608,3.2312,12.4738,0,0,0,0,0,0,0,-1,1091,1632,3.23116,-12.4738
-126,-608,3.76465,13.9644,0,0,0,0,0,0,0,-1,1098,1632,3.76466,-13.9644
-119,-608,4.28906,15.4196,0,0,0,0,0,0,0,-1,1105,1632,4.28911,-15.4195
-112,-608,0.745117,10.5587,0,0,0,0,0,0,0,-1,1112,1632,0.745145,-10.5587
-105,-608,-0.252319,1.42419,0,0,0,0,0,0,0,-1,1119,1632,-0.252331,-1.42418
-98,-608,-1.67896,0.994629,0,0,0,0,0,0,0,-1,1126,1632,-1.67895,-0.994599
-91,-608,-2.99451,0.744629,0,0,0,0,0,0,0,-1,1133,1632,-2.99453,-0.744605
-84,-608,0,0,0,0,0,0,0,0,0,-1,1140,1632,0,0
-77,-608,0,0,0,0,0,0,0,0,0,-1,1147,1632,0,0
-70,-608,0,0,0,0,0,0,0,0,0,-1,1154,1632,0,0
-63,-608,0,0,0,0,0,0,0,0,0,-1,1161,1632,0,0
-56,-608,0,0,0,0,0,0,0,0,0,-1,1168,1632,0,0
-49,-608,0,0,0,0,0,0,0,0,0,-1,1175,1632,0,0
-42,-608,0,0,0,0,0,0,0,0,0,-1,1182,1632,0,0
-35,-608,0,0,0,0,0,0,0,0,0,-1,1189,1632,0,0
-28,-608,0,0,0,0,0,0,0,0,0,-1,1196,1632,0,0
-21,-608,0,0,0,0,0,0,0,0,0,-1,1203,1632,0,0
-14,-608,0,0,0,0,0,0,0,0,0,-1,1210,1632,0,0
-7,-608,0,0,0,0,0,0,0,0,0,-1,1217,1632,0,0
0,-608,0,0,0,0,0,0,0,0,0,-1,1224,1632,0,0
7,-608,0,0,0,0,0,0,0,0,0,-1,1231,1632,0,0
14,-608,0,0,0,0,0,0,0,0,0,-1,1238,1632,0,0
21,-608,0,0,0,0,0,0,0,0,0,-1,1245,1632,0,0
28,-608,0,0,0,0,0,0,0,0,0,-1,1252,1632,0,0
35,-608,0,0,0,0,0,0,0,0,0,-1,1259,1632,0,0
42,-608,0,0,0,0,0,0,0,0,0,-1,1266,1632,0,0
49,-608,0,0,0,0,0,0,0,0,0,-1,1273,1632,0,0
56,-608,0,0,0,0,0,0,0,0,0,-1,1280,1632,0,0
63,-608,0,0,0,0,0,0,0,0,0,-1,1287,1632,0,0
70,-608,0,0,0,0,0,0,0,0,0,-1,1294,1632,0,0
77,-608,0,0,0,0,0,0,0,0,0,-1,1301,1632,0,0
84,-608,0,0,0,0,0,0,0,0,0,-1,1308,1632,0,0
91,-608,0,0,0,0,0,0,0,0,0,-1,1315,1632,0,0
98,-608,0,0,0,0,0,0,0,0,0,-1,1322,1632,0,0
105,-608,0,0,0,0,0,0,0,0,0,-1,1329,1632,0,0
112,-608,0,0,0,0,0,0,0,0,0,-1,1336,1632,0,0
119,-608,0,0,0,0,0,0,0,0,0,-1,1343,1632,0,0
126,-608,0,0,0,0,0,0,0,0,0,-1,1350,1632,0,0
133,-608,0,0,0,0,0,0,0,0,0,-1,1357,1632,0,0
140,-608,0,0,0,0,0,0,0,0,0,-1,1364,1632,0,0
147,-608,0,0,0,0,0,0,0,0,0,-1,1371,1632,0,0
154,-608,0,0,0,0,0,0,0,0,0,-1,1378,1632,0,0
161,-608,0,0,0,0,0,0,0,0,0,-1,1385,1632,0,0
168,-608,0,0,0,0,0,0,0,0,0,-1,1392,1632,0,0
175,-608,0,0,0,0,0,0,0,0,0,-1,1399,1632,0,0
182,-608,0,0,0,0,0,0,0,0,0,-1,1406,1632,0,0
189,-608,0,0,0,0,0,0,0,0,0,-1,1413,1632,0,0
196,-608,0,0,0,0,0,0,0,0,0,-1,1420,1632,0,0
203,-608,0,0,0,0,0,0,0,0,0,-1,1427,1632,0,0
210,-608,5.7157,-0.333008,0,0,0,0,0,0,0,-1,1434,1632,5.71566,0.333004
217,-608,4.49402,-0.831787,0,0,0,0,0,0,0,-1,1441,1632,4.49396,0.831738
224,-608,4.18018,-1.11792,0,0,0,0,0,0,0,-1,1448,1632,4.1802,1.11796
231,-608,0.361816,0.825195,0,0,0,0,0,0,0,-1,1455,1632,0.36185,-0.825226
238,-608,2.85388,-0.28833,0,0,0,0,0,0,0,-1,1462,1632,2.85391,0.288282
245,-608,3.87537,4.02173,0,0,0,0,0,0,0,-1,1469,1632,3.87538,-4.02168
252,-608,5.66956,3.5282,0,0,0,0,0,0,0,-1,1476,1632,5.6696,-3.52815
259,-608,7.47437,3.07178,0,0,0,0,0,0,0,-1,1483,1632,7.4744,-3.07172
266,-608,9.46936,2.34766,0,0,0,0,0,0,0,-1,1490,1632,9.46932,-2.34764
273,-608,6.03003,3.34241,0,0,0,0,0,0,0,-1,1497,1632,6.02997,-3.34245
280,-608,5.72461,2.0769,0,0,0,0,0,0,0,-1,1504,1632,5.72457,-2.07688
287,-608,6.20581,3.59338,0,0,0,0,0,0,0,-1,1511,1632,6.20585,-3.59341
294,-608,6.94922,5.17151,0,0,0,0,0,0,0,-1,1518,1632,6.94925,-5.17151
301,-608,7.60083,6.68018,0,0,0,0,0,0,0,-1,1525,1632,7.60086,-6.68013
308,-608,7.64746,9.93848,0,0,0,0,0,0,0,-1,1532,1632,7.64745,-9.93842
315,-608,5.98083,11.6373,0,0,0,0,0,0,0,-1,1539,1632,5.98082,-11.6373
322,-608,5.6637,11.7971,0,0,0,0,0,0,0,-1,1546,1632,5.66366,-11.7971
329,-608,5.62793,12.1296,0,0,0,0,0,0,0,-1,1553,1632,5.62795,-12.1296
336,-608,5.48633,7.82446,0,0,0,0,0,0,0,-1,1560,1632,5.48634,-7.82446
343,-608,5.47192,5.61047,0,0,0,0,0,0,0,-1,1567,1632,5.47192,-5.61045
350,-608,11.6957,1.71387,0,0,0,0,0,0,0,-1,1574,1632,11.6957,-1.71388
357,-608,3.77002,5.10046,0,0,0,0,0,0,0,-1,1581,1632,3.77002,-5.10043
364,-608,5.6925,11.2163,0,0,0,0,0,0,0,-1,1588,1632,5.69255,-11.2163
371,-608,6.57324,13.0358,0,0,0,0,0,0,0,-1,1595,1632,6.57321,-13.0357
378,-608,6.58069,12.8254,-0.00218876,-0.0112718,0.00766544,0.00217953,-0.01564,0.517968,0.011224,0.036818,1602,1632,6.5807,-12.8254
385,-608,6.57642,12.6445,-0.0020951,-0.0108813,0.00734672,0.00207179,-0.0150482,0.515935,0.0107893,0.0347129,1609,1632,6.57644,-12.6446
392,-608,6.573,12.5627,-0.00272453,-0.00954309,0.0070958,0.00173852,-0.0140061,0.56145,0.0099676,0.023256,1616,1632,6.57306,-12.5627
399,-608,6.56335,12.4807,-0.00315484,-0.0085819,0.00635242,0.00103934,-0.0127761,0.583547,0.00888412,0.0111281,1623,1632,6.5634,-12.4807
406,-608,6.56384,12.342,-0.00327061,-0.00741074,0.00569662,0.000720407,-0.0114018,0.611124,0.00785233,0.00929408,1630,1632,6.56386,-12.342
413,-608,6.54944,12.1965,-0.00337601,-0.00644794,0.00509898,0.000413327,-0.0102373,0.639105,0.00696672,0.0102852,1637,1632,6.54941,-12.1965
420,-608,6.52954,12.0651,-0.00350934,-0.00539503,0.00454994,0.000194422,-0.00909879,0.683233,0.00613169,0.0168429,1644,1632,6.52954,-12.065
427,-608,6.56494,11.885,-0.0035749,-0.00461058,0.00404507,-1.46567e-05,-0.00817082,0.721736,0.00544233,0.0184676,1651,1632,6.56492,-11.885
434,-608,6.59949,11.7057,-0.00357052,-0.00401994,0.00358049,-0.000207698,-0.00738276,0.754059,0.00485409,0.01495,1658,1632,6.59943,-11.7056
441,-608,6.59875,11.552,-0.00336435,-0.00305879,0.00295318,-0.000254442,-0.0061687,0.811242,0.00403033,0.0129073,1665,1632,6.5988,-11.552
448,-608,6.60095,11.4004,-0.00295263,-0.00163535,0.00217968,-1.6978e-05,-0.00457101,0.932123,0.00304169,0.0141288,1672,1632,6.6009,-11.4004
455,-608,6.61682,11.2205,-0.00248919,-0.000496921,0.00142221,0.000243306,-0.00322942,1.0909,0.00223846,0.0105519,1679,1632,6.61681,-11.2204
462,-608,6.6012,11.0568,-0.00183049,0.000920937,0.000577248,0.00103714,-0.00194669,1.37215,0.00174919,0.0102496,1686,1632,6.60117,-11.0567
469,-608,6.58081,10.8939,-0.0010279,0.0026786,-0.000364065,0.00271402,-0.00106332,-1.47381,0.00224919,0.00872778,1693,1632,6.58077,-10.8939
476,-608,6.57788,10.7219,-0.000246255,0.00472342,-0.00135194,0.00506739,-0.000590227,-1.32165,0.0035912,0.00819605,1700,1632,6.57783,-10.7219
483,-608,6.57788,10.5468,0.00058663,0.00711165,-0.00242996,0.00791715,-0.000218868,-1.25071,0.00535255,0.00766065,1707,1632,6.57791,-10.5468
490,-608,6.58667,10.3711,0.00144447,0.00971366,-0.00355628,0.0110327,0.000125442,-1.21562,0.00731367,0.00832681,1714,1632,6.58661,-10.3711
497,-608,6.59131,10.1862,0.00219226,0.0125123,-0.00471688,0.0143433,0.000361236,-1.20052,0.0094441,0.0126771,1721,1632,6.59132,-10.1861
504,-608,6.53833,9.97253,0.00269321,0.0151356,-0.00582743,0.0174386,0.000390192,-1.19443,0.0114979,0.0269267,1728,1632,6.53838,-9.97257
511,-608,6.40967,9.7478,0.00369488,0.0177859,-0.00694605,0.0206342,0.00084662,-1.18165,0.0134828,0.0428257,1735,1632,6.40963,-9.74783
518,-608,6.47485,9.54541,0,0,0,0,0,0,0,-1,1742,1632,6.47487,-9.54543
525,-608,6.43152,9.36108,0,0,0,0,0,0,0,-1,1749,1632,6.43157,-9.36106
532,-608,6.41748,7.4292,0,0,0,0,0,0,0,-1,1756,1632,6.41751,-7.42925
539,-608,9.40796,1.43457,0,0,0,0,0,0,0,-1,1763,1632,9.40801,-1.43463
546,-608,9.94031,2.1134,0,0,0,0,0,0,0,-1,1770,1632,9.94031,-2.11346
553,-608,10.363,2.81335,0,0,0,0,0,0,0,-1,1777,1632,10.3631,-2.81333
560,-608,9.23999,4.5636,0,0,0,0,0,0,0,-1,1784,1632,9.24,-4.56354
567,-608,0,0,0,0,0,0,0,0,0,-1,1791,1632,0,0
574,-608,0,0,0,0,0,0,0,0,0,-1,1798,1632,0,0
581,-608,0,0,0,0,0,0,0,0,0,-1,1805,1632,0,0
588,-608,0,0,0,0,0,0,0,0,0,-1,1812,1632,0,0
595,-608,0,0,0,0,0,0,0,0,0,-1,1819,1632,0,0
602,-608,0,0,0,0,0,0,0,0,0,-1,1826,1632,0,0
609,-608,0,0,0,0,0,0,0,0,0,-1,1833,1632,0,0
616,-608,0,0,0,0,0,0,0,0,0,-1,1840,1632,0,0
623,-608,0,0,0,0,0,0,0,0,0,-1,1847,1632,0,0
630,-608,0,0,0,0,0,0,0,0,0,-1,1854,1632,0,0
637,-608,0,0,0,0,0,0,0,0,0,-1,1861,1632,0,0
644,-608,0,0,0,0,0,0,0,0,0,-1,1868,1632,0,0
651,-608,0,0,0,0,0,0,0,0,0,-1,1875,1632,0,0
658,-608,0,0,0,0,0,0,0,0,0,-1,1882,1632,0,0
665,-608,0,0,0,0,0,0,0,0,0,-1,1889,1632,0,0
672,-608,0,0,0,0,0,0,0,0,0,-1,1896,1632,0,0
679,-608,0,0,0,0,0,0,0,0,0,-1,1903,1632,0,0
686,-608,0,0,0,0,0,0,0,0,0,-1,1910,1632,0,0
693,-608,0,0,0,0,0,0,0,0,0,-1,1917,1632,0,0
700,-608,0,0,0,0,0,0,0,0,0,-1,1924,1632,0,0
707,-608,0,0,0,0,0,0,0,0,0,-1,1931,1632,0,0
714,-608,0,0,0,0,0,0,0,0,0,-1,1938,1632,0,0
721,-608,0,0,0,0,0,0,0,0,0,-1,1945,1632,0,0
728,-608,0,0,0,0,0,0,0,0,0,-1,1952,1632,0,0
735,-608,0,0,0,0,0,0,0,0,0,-1,1959,1632,0,0
742,-608,0,0,0,0,0,0,0,0,0,-1,1966,1632,0,0
749,-608,0,0,0,0,0,0,0,0,0,-1,1973,1632,0,0
756,-608,0,0,0,0,0,0,0,0,0,-1,1980,1632,0,0
763,-608,0,0,0,0,0,0,0,0,0,-1,1987,1632,0,0
770,-608,0,0,0,0,0,0,0,0,0,-1,1994,1632,0,0
777,-608,0,0,0,0,0,0,0,0,0,-1,2001,1632,0,0
784,-608,0,0,0,0,0,0,0,0,0,-1,2008,1632,0,0
791,-608,0,0,0,0,0,0,0,0,0,-1,2015,1632,0,0
798,-608,0,0,0,0,0,0,0,0,0,-1,2022,1632,0,0
805,-608,0,0,0,0,0,0,0,0,0,-1,2029,1632,0,0
812,-608,0,0,0,0,0,0,0,0,0,-1,2036,1632,0,0
-700,-615,0,0,0,0,0,0,0,0,0,-1,524,1639,0,0
-693,-615,0,0,0,0,0,0,0,0,0,-1,531,1639,0,0
-686,-615,0,0,0,0,0,0,0,0,0,-1,538,1639,0,0
-679,-615,0,0,0,0,0,0,0,0,0,-1,545,1639,0,0
-672,-615,0,0,0,0,0,0,0,0,0,-1,552,1639,0,0
-665,-615,0,0,0,0,0,0,0,0,0,-1,559,1639,0,0
-658,-615,0,0,0,0,0,0,0,0,0,-1,566,1639,0,0
-651,-615,0,0,0,0,0,0,0,0,0,-1,573,1639,0,0
-644,-615,0,0,0,0,0,0,0,0,0,-1,580,1639,0,0
-637,-615,0,0,0,0,0,0,0,0,0,-1,587,1639,0,0
-630,-615,0,0,0,0,0,0,0,0,0,-1,594,1639,0,0
-623,-615,0,0,0,0,0,0,0,0,0,-1,601,1639,0,0
-616,-615,0,0,0,0,0,0,0,0,0,-1,608,1639,0,0
-609,-615,0,0,0,0,0,0,0,0,0,-1,615,1639,0,0
-602,-615,0,0,0,0,0,0,0,0,0,-1,622,1639,0,0
-595,-615,0,0,0,0,0,0,0,0,0,-1,629,1639,0,0
-588,-615,0,0,0,0,0,0,0,0,0,-1,636,1639,0,0
-581,-615,0,0,0,0,0,0,0,0,0,-1,643,1639,0,0
-574,-615,0,0,0,0,0,0,0,0,0,-1,650,1639,0,0
-567,-615,0,0,0,0,0,0,0,0,0,-1,657,1639,0,0
-560,-615,0,0,0,0,0,0,0,0,0,-1,664,1639,0,0
-553,-615,0,0,0,0,0,0,0,0,0,-1,671,1639,0,0
-546,-615,0,0,0,0,0,0,0,0,0,-1,678,1639,0,0
-539,-615,0,0,0,0,0,0,0,0,0,-1,685,1639,0,0
-532,-615,0,0,0,0,0,0,0,0,0,-1,692,1639,0,0
-525,-615,0,0,0,0,0,0,0,0,0,-1,699,1639,0,0
-518,-615,0,0,0,0,0,0,0,0,0,-1,706,1639,0,0
-511,-615,0,0,0,0,0,0,0,0,0,-1,713,1639,0,0
-504,-615,0,0,0,0,0,0,0,0,0,-1,720,1639,0,0
-497,-615,0,0,0,0,0,0,0,0,0,-1,727,1639,0,0
-490,-615,0,0,0,0,0,0,0,0,0,-1,734,1639,0,0
-483,-615,0,0,0,0,0,0,0,0,0,-1,741,1639,0,0
-476,-615,0,0,0,0,0,0,0,0,0,-1,748,1639,0,0
-469,-615,0,0,0,0,0,0,0,0,0,-1,755,1639,0,0
-462,-615,0,0,0,0,0,0,0,0,0,-1,762,1639,0,0
-455,-615,0,0,0,0,0,0,0,0,0,-1,769,1639,0,0
-448,-615,0,0,0,0,0,0,0,0,0,-1,776,1639,0,0
-441,-615,0,0,0,0,0,0,0,0,0,-1,783,1639,0,0
-434,-615,-7.64508,2.98596,0,0,0,0,0,0,0,-1,790,1639,-7.64505,-2.98594
-427,-615,-8.88153,0.496216,0,0,0,0,0,0,0,-1,797,1639,-8.88154,-0.49627
-420,-615,-7.74091,1.49768,0,0,0,0,0,0,0,-1,804,1639,-7.7409,-1.49771
-413,-615,-6.54474,2.53772,0,0,0,0,0,0,0,-1,811,1639,-6.54472,-2.53775
-406,-615,-5.43872,3.50488,0,0,0,0,0,0,0,-1,818,1639,-5.43874,-3.50493
-399,-615,-4.84875,3.91907,0,0,0,0,0,0,0,-1,825,1639,-4.84877,-3.91901
-392,-615,-3.4469,5.28418,0,0,0,0,0,0,0,-1,832,1639,-3.44689,-5.28422
-385,-615,3.88629,8.56104,0,0,0,0,0,0,0,-1,839,1639,3.8863,-8.56101
-378,-615,3.76685,8.59583,-0.00548752,-0.0147598,-0.00331526,-0.00442412,-0.0158232,-0.310391,0.00942674,0.0482556,846,1639,3.76683,-8.59584
-371,-615,2.84296,8.91956,-0.00304908,-0.0129395,-0.00217888,-0.00259035,-0.0133982,-0.207507,0.00820614,0.0476175,853,1639,2.84298,-8.91951
-364,-615,2.50989,8.97314,-0.00135174,-0.0105181,-0.00123023,-0.00118951,-0.0106804,-0.13112,0.00675873,0.0339059,860,1639,2.50987,-8.97317
-357,-615,2.48468,9.22644,-0.000304895,-0.00862655,-0.000682252,-0.000249332,-0.00868211,-0.0812621,0.00570678,0.0282592,867,1639,2.48468,-9.22644
-350,-615,2.42242,9.4071,0.000474572,-0.00668094,-0.000293556,0.000486595,-0.00669296,-0.0409334,0.0046327,0.0251985,874,1639,2.42243,-9.40708
-343,-615,2.3833,9.58081,0.0009967,-0.0050589,-9.9298e-05,0.000998328,-0.00506053,-0.0163918,0.00375101,0.0199163,881,1639,2.38328,-9.58086
-336,-615,2.43274,9.78699,0.00103384,-0.0033544,3.96399e-06,0.00103384,-0.0033544,0.000903322,0.002649,0.011347,888,1639,2.43274,-9.78702
-329,-615,2.39746,9.97278,0.000996013,-0.00212878,-6.70456e-05,0.000997451,-0.00213022,-0.0214428,0.00184482,0.010654,895,1639,2.39746,-9.97282
-322,-615,2.39124,10.1688,0.00140562,-0.00146147,6.14696e-05,0.00140694,-0.00146279,0.0214265,0.00165694,0.010742,902,1639,2.39126,-10.1689
-315,-615,2.43115,10.3694,0.00127335,-0.000736879,-0.000146806,0.00128402,-0.000747543,-0.0725163,0.00118648,0.0126576,909,1639,2.43118,-10.3693
-308,-615,2.41022,10.5654,0.000690336,-0.000372476,-0.00057867,0.000944583,-0.000626723,-0.413975,0.000913361,0.0190152,916,1639,2.4102,-10.5655
-301,-615,2.42133,10.7319,0.000330294,-2.93033e-05,-0.000834585,0.00100423,-0.000703237,-0.679302,0.000990898,0.0120566,923,1639,2.42134,-10.732
-294,-615,2.43195,10.889,0.000394872,-0.000199749,-0.000816186,0.000966212,-0.000771089,-0.610734,0.00100514,0.00982647,930,1639,2.43196,-10.8891
-287,-615,2.41711,11.0742,0.000567999,-0.000517462,-0.000738218,0.000941523,-0.000890986,-0.468421,0.00105813,0.00803243,937,1639,2.41709,-11.0742
-280,-615,2.42889,11.2373,0.000896792,-0.00107915,-0.000674556,0.00110511,-0.00128747,-0.299534,0.00138269,0.00891726,944,1639,2.4289,-11.2373
-273,-615,2.42236,11.4292,0.00138436,-0.00184175,-0.000644569,0.00150838,-0.00196576,-0.190079,0.00201158,0.00993547,951,1639,2.42239,-11.4292
-266,-615,2.42102,11.6075,0.00192915,-0.00283969,-0.000658742,0.00201848,-0.00292901,-0.134773,0.00287251,0.010481,958,1639,2.42101,-11.6076
-259,-615,2.43298,11.7563,0.00259311,-0.00469135,-0.00099228,0.00272585,-0.0048241,-0.132991,0.00441472,0.0112129,965,1639,2.43299,-11.7563
-252,-615,2.43683,11.8937,0.00340338,-0.00772561,-0.00108693,0.00350855,-0.00783077,-0.0964518,0.00670342,0.0121113,972,1639,2.43684,-11.8937
-245,-615,2.43121,12.0137,0.00492151,-0.0116107,-0.000790183,0.00495919,-0.0116484,-0.0476517,0.00984425,0.0187724,979,1639,2.43121,-12.0136
-238,-615,2.48151,12.1785,0.00756749,-0.0148134,0.000443177,0.00757626,-0.0148221,0.0197912,0.0131553,0.0274159,986,1639,2.48151,-12.1784
-231,-615,2.59973,12.3624,0.0101504,-0.0193022,0.00151464,0.0102281,-0.0193799,0.0512462,0.0173643,0.0356307,993,1639,2.59975,-12.3625
-224,-615,2.71515,12.5341,0,0,0,0,0,0,0,-1,1000,1639,2.71516,-12.5341
-217,-615,2.69104,12.4235,0,0,0,0,0,0,0,-1,1007,1639,2.69107,-12.4235
-210,-615,2.36493,11.9603,0.019771,-0.0325812,0.00692575,0.0206717,-0.0334819,0.129328,0.0315559,0.0484829,1014,1639,2.36495,-11.9603
-203,-615,2.58966,11.8593,0.0236317,-0.0363815,0.00962009,0.0251361,-0.0378859,0.155123,0.0366331,0.0463986,1021,1639,2.58967,-11.8592
-196,-615,2.72754,12.4061,0.0274058,-0.0394634,0.0122688,0.0295858,-0.0416433,0.175847,0.0413201,0.0445183,1028,1639,2.72749,-12.4061
-189,-615,3.03992,12.8141,0.0314011,-0.0412765,0.0152278,0.0344627,-0.0443382,0.198411,0.0456147,0.0445656,1035,1639,3.03992,-12.8141
-182,-615,3.3833,13.0828,0,0,0,0,0,0,0,-1,1042,1639,3.38331,-13.0828
-175,-615,-0.609985,13.8434,0,0,0,0,0,0,0,-1,1049,1639,-0.610016,-13.8434
-168,-615,2.02783,9.96631,0,0,0,0,0,0,0,-1,1056,1639,2.0278,-9.96637
-161,-615,3.29114,11.3375,0,0,0,0,0,0,0,-1,1063,1639,3.29112,-11.3375
-154,-615,3.46436,11.5576,0,0,0,0,0,0,0,-1,1070,1639,3.46441,-11.5576
-147,-615,3.6377,11.7776,0,0,0,0,0,0,0,-1,1077,1639,3.63769,-11.7776
-140,-615,3.73401,10.2349,0,0,0,0,0,0,0,-1,1084,1639,3.73402,-10.2348
-133,-615,3.88013,11.3654,0,0,0,0,0,0,0,-1,1091,1639,3.88015,-11.3654
-126,-615,4.43408,12.5017,0,0,0,0,0,0,0,-1,1098,1639,4.43403,-12.5018
-119,-615,4.82983,13.9279,0,0,0,0,0,0,0,-1,1105,1639,4.82986,-13.9278
-112,-615,3.65698,14.4874,0,0,0,0,0,0,0,-1,1112,1639,3.65695,-14.4875
-105,-615,0.958496,2.45398,0,0,0,0,0,0,0,-1,1119,1639,0.958452,-2.45398
-98,-615,-0.647705,2.12109,0,0,0,0,0,0,0,-1,1126,1639,-0.647756,-2.12105
-91,-615,-1.48572,0.604492,0,0,0,0,0,0,0,-1,1133,1639,-1.48576,-0.604443
-84,-615,-2.46509,0.703247,0,0,0,0,0,0,0,-1,1140,1639,-2.46505,-0.703273
-77,-615,-3.17859,1.23755,0,0,0,0,0,0,0,-1,1147,1639,-3.17865,-1.23752
-70,-615,-4.03943,1.43335,0,0,0,0,0,0,0,-1,1154,1639,-4.03942,-1.43339
-63,-615,-4.8877,1.45544,0,0,0,0,0,0,0,-1,1161,1639,-4.88766,-1.45549
-56,-615,0,0,0,0,0,0,0,0,0,-1,1168,1639,0,0
-49,-615,0,0,0,0,0,0,0,0,0,-1,1175,1639,0,0
-42,-615,0,0,0,0,0,0,0,0,0,-1,1182,1639,0,0
-35,-615,0,0,0,0,0,0,0,0,0,-1,1189,1639,0,0
-28,-615,0,0,0,0,0,0,0,0,0,-1,1196,1639,0,0
-21,-615,0,0,0,0,0,0,0,0,0,-1,1203,1639,0,0
-14,-615,0,0,0,0,0,0,0,0,0,-1,1210,1639,0,0
-7,-615,0,0,0,0,0,0,0,0,0,-1,1217,1639,0,0
0,-615,0,0,0,0,0,0,0,0,0,-1,1224,1639,0,0
7,-615,0,0,0,0,0,0,0,0,0,-1,1231,1639,0,0
14,-615,0,0,0,0,0,0,0,0,0,-1,1238,1639,0,0
21,-615,0,0,0,0,0,0,0,0,0,-1,1245,1639,0,0
28,-615,0,0,0,0,0,0,0,0,0,-1,1252,1639,0,0
35,-615,0,0,0,0,0,0,0,0,0,-1,1259,1639,0,0
42,-615,0,0,0,0,0,0,0,0,0,-1,1266,1639,0,0
49,-615,0,0,0,0,0,0,0,0,0,-1,1273,1639,0,0
56,-615,0,0,0,0,0,0,0,0,0,-1,1280,1639,0,0
63,-615,0,0,0,0,0,0,0,0,0,-1,1287,1639,0,0
70,-615,0,0,0,0,0,0,0,0,0,-1,1294,1639,0,0
77,-615,0,0,0,0,0,0,0,0,0,-1,1301,1639,0,0
84,-615,0,0,0,0,0,0,0,0,0,-1,1308,1639,0,0
91,-615,0,0,0,0,0,0,0,0,0,-1,1315,1639,0,0
98,-615,0,0,0,0,0,0,0,0,0,-1,1322,1639,0,0
105,-615,0,0,0,0,0,0,0,0,0,-1,1329,1639,0,0
112,-615,0,0,0,0,0,0,0,0,0,-1,1336,1639,0,0
119,-615,0,0,0,0,0,0,0,0,0,-1,1343,1639,0,0
126,-615,0,0,0,0,0,0,0,0,0,-1,1350,1639,0,0
133,-615,0,0,0,0,0,0,0,0,0,-1,1357,1639,0,0
140,-615,0,0,0,0,0,0,0,0,0,-1,1364,1639,0,0
147,-615,0,0,0,0,0,0,0,0,0,-1,1371,1639,0,0
154,-615,0,0,0,0,0,0,0,0,0,-1,1378,1639,0,0
161,-615,0,0,0,0,0,0,0,0,0,-1,1385,1639,0,0
168,-615,0,0,0,0,0,0,0,0,0,-1,1392,1639,0,0
175,-615,5.39648,-2.00879,0,0,0,0,0,0,0,-1,1399,1639,5.3965,2.00881
182,-615,5.65393,-1.51025,0,0,0,0,0,0,0,-1,1406,1639,5.65388,1.51028
189,-615,5.58972,-1.35608,0,0,0,0,0,0,0,-1,1413,1639,5.58967,1.35607
196,-615,5.49915,-0.693604,0,0,0,0,0,0,0,-1,1420,1639,5.4991,0.693602
203,-615,5.33411,-0.226685,0,0,0,0,0,0,0,-1,1427,1639,5.33414,0.226689
210,-615,5.60278,0.108276,0,0,0,0,0,0,0,-1,1434,1639,5.60284,-0.10831
217,-615,6.26331,-0.307373,0,0,0,0,0,0,0,-1,1441,1639,6.26331,0.307372
224,-615,5.45422,-0.333984,0,0,0,0,0,0,0,-1,1448,1639,5.45422,0.333992
231,-615,4.92542,1.80298,0,0,0,0,0,0,0,-1,1455,1639,4.92537,-1.80297
238,-615,4.76355,1.96729,0,0,0,0,0,0,0,-1,1462,1639,4.76357,-1.96734
245,-615,4.08643,3.15906,0,0,0,0,0,0,0,-1,1469,1639,4.08638,-3.159
252,-615,6.37805,3.73889,0,0,0,0,0,0,0,-1,1476,1639,6.37806,-3.73891
259,-615,8.35974,3.16443,0,0,0,0,0,0,0,-1,1483,1639,8.35975,-3.16444
266,-615,10.3414,2.58997,0,0,0,0,0,0,0,-1,1490,1639,10.3414,-2.58996
273,-615,6.57043,1.84766,0,0,0,0,0,0,0,-1,1497,1639,6.5704,-1.84771
280,-615,7.10449,3.23438,0,0,0,0,0,0,0,-1,1504,1639,7.10447,-3.23435
287,-615,7.35779,4.68542,0,0,0,0,0,0,0,-1,1511,1639,7.35776,-4.68546
294,-615,7.63733,6.29114,0,0,0,0,0,0,0,-1,1518,1639,7.63735,-6.29109
301,-615,8.47925,11.452,0,0,0,0,0,0,0,-1,1525,1639,8.47922,-11.452
308,-615,6.8114,10.9059,0,0,0,0,0,0,0,-1,1532,1639,6.81137,-10.9058
315,-615,5.47205,12.715,0,0,0,0,0,0,0,-1,1539,1639,5.47201,-12.7149
322,-615,6.30884,13.5425,0,0,0,0,0,0,0,-1,1546,1639,6.30886,-13.5425
329,-615,6.31409,13.5532,0,0,0,0,0,0,0,-1,1553,1639,6.31414,-13.5533
336,-615,5.5885,12.6012,0,0,0,0,0,0,0,-1,1560,1639,5.58852,-12.6012
343,-615,2.40491,6.50134,0,0,0,0,0,0,0,-1,1567,1639,2.40489,-6.50137
350,-615,6.27307,14.0443,0,0,0,0,0,0,0,-1,1574,1639,6.27305,-14.0444
357,-615,6.80078,13.6251,0,0,0,0,0,0,0,-1,1581,1639,6.8008,-13.6251
364,-615,6.55029,13.0416,0,0,0,0,0,0,0,-1,1588,1639,6.55024,-13.0416
371,-615,6.46179,12.9761,-0.0020341,-0.00869404,0.00598187,0.0014822,-0.0122103,0.53142,0.0086766,0.0385614,1595,1639,6.46182,-12.9761
378,-615,6.39905,12.9244,-0.00160612,-0.00818127,0.00563914,0.00163379,-0.0114212,0.521488,0.00821306,0.0199912,1602,1639,6.39904,-12.9244
385,-615,6.39038,12.7622,-0.00145636,-0.00776945,0.00533474,0.00158574,-0.0108116,0.518252,0.00779027,0.0109869,1609,1639,6.39038,-12.7622
392,-615,6.3938,12.6309,-0.00140179,-0.00704606,0.0050953,0.00160073,-0.0100486,0.532493,0.00729143,0.00977357,1616,1639,6.39377,-12.6309
399,-615,6.3894,12.4998,-0.00128438,-0.0062938,0.00463051,0.00147543,-0.00905361,0.537478,0.0065829,0.0110152,1623,1639,6.38945,-12.4997
406,-615,6.38513,12.3374,-0.00121619,-0.00551814,0.00416287,0.00131858,-0.0080529,0.546937,0.00585781,0.0111164,1630,1639,6.3851,-12.3374
413,-615,6.3783,12.1937,-0.00119832,-0.00492215,0.0037632,0.00113838,-0.00725886,0.555671,0.00525992,0.0120635,1637,1639,6.3783,-12.1937
420,-615,6.39661,12.0574,-0.0012874,-0.00431125,0.00347389,0.000989327,-0.00658798,0.580148,0.00475618,0.0132755,1644,1639,6.39663,-12.0574
427,-615,6.42432,11.8744,-0.00135283,-0.00387643,0.00318258,0.000808961,-0.00603822,0.596668,0.00432045,0.0147698,1651,1639,6.42428,-11.8744
434,-615,6.44141,11.7091,-0.0014399,-0.00360686,0.00289253,0.000565408,-0.00561218,0.606197,0.00394346,0.0135385,1658,1639,6.44136,-11.7091
441,-615,6.44507,11.5457,-0.00139181,-0.00262386,0.00234939,0.000420973,-0.00443665,0.657181,0.00310761,0.0127923,1665,1639,6.44503,-11.5457
448,-615,6.43323,11.3818,-0.00119778,-0.0010257,0.00163729,0.000527807,-0.00275128,0.81165,0.00203309,0.013315,1672,1639,6.43323,-11.3818
455,-615,6.42908,11.2169,-0.00102805,0.00020091,0.000960787,0.00072691,-0.00155405,1.0699,0.00134547,0.0121913,1679,1639,6.42913,-11.2169
462,-615,6.42297,11.066,-0.000704051,0.00187927,0.000139591,0.00188679,-0.000711572,1.51697,0.00155047,0.013738,1686,1639,6.423,-11.066
469,-615,6.40771,10.8971,-0.000226968,0.00409841,-0.000878849,0.00427016,-0.000398716,-1.3778,0.00298856,0.0124464,1693,1639,6.40768,-10.8971
476,-615,6.4137,10.719,0.000312772,0.00682529,-0.00204347,0.00741338,-0.000275313,-1.29058,0.00503653,0.0102873,1700,1639,6.41372,-10.719
483,-615,6.41919,10.5249,0.000960728,0.0101313,-0.00338222,0.0112437,-0.00015173,-1.25303,0.0075469,0.0132143,1707,1639,6.41922,-10.5249
490,-615,6.42468,10.3417,0.00169674,0.0139212,-0.00484643,0.0156094,8.50204e-06,-1.23559,0.0104034,0.016207,1714,1639,6.42468,-10.3416
497,-615,6.36926,10.2102,0.00258975,0.0179612,-0.00637069,0.0202583,0.000292682,-1.22474,0.013409,0.0239553,1721,1639,6.36931,-10.2102
504,-615,6.32605,10.0326,0.00346064,0.0220678,-0.00788298,0.0249584,0.000570036,-1.21933,0.0164522,0.0421127,1728,1639,6.32602,-10.0326
511,-615,6.32959,9.87195,0,0,0,0,0,0,0,-1,1735,1639,6.32956,-9.87196
518,-615,6.46326,8.26929,0,0,0,0,0,0,0,-1,1742,1639,6.46326,-8.26927
525,-615,4.37524,3.90491,0,0,0,0,0,0,0,-1,1749,1639,4.37518,-3.90495
532,-615,7.3645,0.848145,0,0,0,0,0,0,0,-1,1756,1639,7.36451,-0.848093
539,-615,12.8112,-0.0476074,0,0,0,0,0,0,0,-1,1763,1639,12.8111,0.0475553
546,-615,8.33813,2.94556,0,0,0,0,0,0,0,-1,1770,1639,8.33813,-2.9455
553,-615,5.82532,-2.04199,0,0,0,0,0,0,0,-1,1777,1639,5.82534,2.04195
560,-615,0,0,0,0,0,0,0,0,0,-1,1784,1639,0,0
567,-615,0,0,0,0,0,0,0,0,0,-1,1791,1639,0,0
574,-615,0,0,0,0,0,0,0,0,0,-1,1798,1639,0,0
581,-615,0,0,0,0,0,0,0,0,0,-1,1805,1639,0,0
588,-615,0,0,0,0,0,0,0,0,0,-1,1812,1639,0,0
595,-615,0,0,0,0,0,0,0,0,0,-1,1819,1639,0,0
602,-615,0,0,0,0,0,0,0,0,0,-1,1826,1639,0,0
609,-615,0,0,0,0,0,0,0,0,0,-1,1833,1639,0,0
616,-615,0,0,0,0,0,0,0,0,0,-1,1840,1639,0,0
623,-615,0,0,0,0,0,0,0,0,0,-1,1847,1639,0,0
630,-615,0,0,0,0,0,0,0,0,0,-1,1854,1639,0,0
637,-615,0,0,0,0,0,0,0,0,0,-1,1861,1639,0,0
644,-615,0,0,0,0,0,0,0,0,0,-1,1868,1639,0,0
651,-615,0,0,0,0,0,0,0,0,0,-1,1875,1639,0,0
658,-615,0,0,0,0,0,0,0,0,0,-1,1882,1639,0,0
665,-615,0,0,0,0,0,0,0,0,0,-1,1889,1639,0,0
672,-615,0,0,0,0,0,0,0,0,0,-1,1896,1639,0,0
679,-615,0,0,0,0,0,0,0,0,0,-1,1903,1639,0,0
686,-615,0,0,0,0,0,0,0,0,0,-1,1910,1639,0,0
693,-615,0,0,0,0,0,0,0,0,0,-1,1917,1639,0,0
700,-615,0,0,0,0,0,0,0,0,0,-1,1924,1639,0,0
707,-615,0,0,0,0,0,0,0,0,0,-1,1931,1639,0,0
714,-615,0,0,0,0,0,0,0,0,0,-1,1938,1639,0,0
721,-615,0,0,0,0,0,0,0,0,0,-1,1945,1639,0,0
728,-615,0,0,0,0,0,0,0,0,0,-1,1952,1639,0,0
735,-615,0,0,0,0,0,0,0,0,0,-1,1959,1639,0,0
742,-615,0,0,0,0,0,0,0,0,0,-1,1966,1639,0,0
749,-615,0,0,0,0,0,0,0,0,0,-1,1973,1639,0,0
756,-615,0,0,0,0,0,0,0,0,0,-1,1980,1639,0,0
763,-615,0,0,0,0,0,0,0,0,0,-1,1987,1639,0,0
770,-615,0,0,0,0,0,0,0,0,0,-1,1994,1639,0,0
777,-615,0,0,0,0,0,0,0,0,0,-1,2001,1639,0,0
784,-615,0,0,0,0,0,0,0,0,0,-1,2008,1639,0,0
791,-615,0,0,0,0,0,0,0,0,0,-1,2015,1639,0,0
798,-615,0,0,0,0,0,0,0,0,0,-1,2022,1639,0,0
805,-615,0,0,0,0,0,0,0,0,0,-1,2029,1639,0,0
812,-615,0,0,0,0,0,0,0,0,0,-1,2036,1639,0,0
-700,-622,0,0,0,0,0,0,0,0,0,-1,524,1646,0,0
-693,-622,0,0,0,0,0,0,0,0,0,-1,531,1646,0,0
-686,-622,0,0,0,0,0,0,0,0,0,-1,538,1646,0,0
-679,-622,0,0,0,0,0,0,0,0,0,-1,545,1646,0,0
-672,-622,0,0,0,0,0,0,0,0,0,-1,552,1646,0,0
-665,-622,0,0,0,0,0,0,0,0,0,-1,559,1646,0,0
-658,-622,0,0,0,0,0,0,0,0,0,-1,566,1646,0,0
-651,-622,0,0,0,0,0,0,0,0,0,-1,573,1646,0,0
-644,-622,0,0,0,0,0,0,0,0,0,-1,580,1646,0,0
-637,-622,0,0,0,0,0,0,0,0,0,-1,587,1646,0,0
-630,-622,0,0,0,0,0,0,0,0,0,-1,594,1646,0,0
-623,-622,0,0,0,0,0,0,0,0,0,-1,601,1646,0,0
-616,-622,0,0,0,0,0,0,0,0,0,-1,608,1646,0,0
-609,-622,0,0,0,0,0,0,0,0,0,-1,615,1646,0,0
-602,-622,0,0,0,0,0,0,0,0,0,-1,622,1646,0,0
-595,-622,0,0,0,0,0,0,0,0,0,-1,629,1646,0,0
-588,-622,0,0,0,0,0,0,0,0,0,-1,636,1646,0,0
-581,-622,0,0,0,0,0,0,0,0,0,-1,643,1646,0,0
-574,-622,0,0,0,0,0,0,0,0,0,-1,650,1646,0,0
-567,-622,0,0,0,0,0,0,0,0,0,-1,657,1646,0,0
-560,-622,0,0,0,0,0,0,0,0,0,-1,664,1646,0,0
-553,-622,0,0,0,0,0,0,0,0,0,-1,671,1646,0,0
-546,-622,0,0,0,0,0,0,0,0,0,-1,678,1646,0,0
-539,-622,0,0,0,0,0,0,0,0,0,-1,685,1646,0,0
-532,-622,0,0,0,0,0,0,0,0,0,-1,692,1646,0,0
-525,-622,0,0,0,0,0,0,0,0,0,-1,699,1646,0,0
-518,-622,0,0,0,0,0,0,0,0,0,-1,706,1646,0,0
-511,-622,0,0,0,0,0,0,0,0,0,-1,713,1646,0,0
-504,-622,0,0,0,0,0,0,0,0,0,-1,720,1646,0,0
-497,-622,0,0,0,0,0,0,0,0,0,-1,727,1646,0,0
-490,-622,0,0,0,0,0,0,0,0,0,-1,734,1646,0,0
-483,-622,0,0,0,0,0,0,0,0,0,-1,741,1646,0,0
-476,-622,0,0,0,0,0,0,0,0,0,-1,748,1646,0,0
-469,-622,0,0,0,0,0,0,0,0,0,-1,755,1646,0,0
-462,-622,0,0,0,0,0,0,0,0,0,-1,762,1646,0,0
-455,-622,0,0,0,0,0,0,0,0,0,-1,769,1646,0,0
-448,-622,0,0,0,0,0,0,0,0,0,-1,776,1646,0,0
-441,-622,0,0,0,0,0,0,0,0,0,-1,783,1646,0,0
-434,-622,0,0,0,0,0,0,0,0,0,-1,790,1646,0,0
-427,-622,-7.62891,3.48096,0,0,0,0,0,0,0,-1,797,1646,-7.62892,-3.48092
-420,-622,-9.86938,0.0371094,0,0,0,0,0,0,0,-1,804,1646,-9.86937,-0.0371326
-413,-622,-8.5658,1.0321,0,0,0,0,0,0,0,-1,811,1646,-8.56579,-1.03216
-406,-622,-4.44318,2.16858,0,0,0,0,0,0,0,-1,818,1646,-4.44315,-2.16859
-399,-622,-7.06976,1.51001,0,0,0,0,0,0,0,-1,825,1646,-7.06976,-1.51005
-392,-622,3.89551,5.85376,0,0,0,0,0,0,0,-1,832,1646,3.8955,-5.85379
-385,-622,4.37762,7.35767,0,0,0,0,0,0,0,-1,839,1646,4.37765,-7.35761
-378,-622,4.53076,8.62842,0,0,0,0,0,0,0,-1,846,1646,4.53079,-8.62847
-371,-622,3.03162,9.13562,0,0,0,0,0,0,0,-1,853,1646,3.03161,-9.13565
-364,-622,2.18774,8.91992,-0.000213526,-0.0125446,-0.000767721,-0.000165912,-0.0125922,-0.0619404,0.00834003,0.0455655,860,1646,2.18775,-8.91993
-357,-622,2.7829,9.42273,0.000807214,-0.010126,-0.000416638,0.000823068,-0.0101419,-0.0380339,0.00705163,0.0468533,867,1646,2.7829,-9.42278
-350,-622,2.60345,9.52466,0.00144205,-0.00776818,-0.000216018,0.00144712,-0.00777325,-0.023437,0.00572582,0.0385087,874,1646,2.60348,-9.5247
-343,-622,2.4903,9.65137,0.00186786,-0.00577558,-9.38113e-05,0.00186901,-0.00577673,-0.012271,0.00460245,0.0256252,881,1646,2.49032,-9.6514
-336,-622,2.59949,9.78101,0.00175804,-0.00383986,-8.66229e-05,0.00175938,-0.0038412,-0.0154692,0.00330712,0.0108392,888,1646,2.5995,-9.78103
-329,-622,2.59888,9.98315,0.00150549,-0.00245757,-0.00021178,0.00151678,-0.00246886,-0.0532364,0.00232289,0.00922759,895,1646,2.59888,-9.98319
-322,-622,2.59717,10.1932,0.00181146,-0.00170607,-2.36125e-05,0.00181162,-0.00170623,-0.0067124,0.00203133,0.00998665,902,1646,2.59719,-10.1933
-315,-622,2.60657,10.3787,0.00154556,-0.000886681,-0.000167826,0.00155708,-0.000898206,-0.0685677,0.00143447,0.0134653,909,1646,2.6066,-10.3787
-308,-622,2.60181,10.5466,0.000800502,-0.000467733,-0.000533174,0.000994865,-0.000662096,-0.349568,0.000963056,0.0139633,916,1646,2.60179,-10.5466
-301,-622,2.60968,10.7111,0.000314685,-5.20882e-05,-0.000719497,0.000873798,-0.000611201,-0.660614,0.000861822,0.0132243,923,1646,2.60966,-10.711
-294,-622,2.59949,10.8853,0.00031801,-0.000138491,-0.000596964,0.000728871,-0.000549353,-0.602798,0.000740405,0.00999184,930,1646,2.59951,-10.8853
-287,-622,2.59442,11.0658,0.000445186,-0.00041608,-0.000428732,0.000622217,-0.000593112,-0.391593,0.000701738,0.00796064,937,1646,2.5944,-11.0658
-280,-622,2.59961,11.2401,0.000691015,-0.000892512,-0.000314054,0.000751025,-0.000952523,-0.188808,0.000985835,0.0088431,944,1646,2.59964,-11.2402
-273,-622,2.61035,11.4019,0.00110216,-0.00152202,-0.000243969,0.00112465,-0.0015445,-0.0919198,0.00154738,0.0125514,951,1646,2.61037,-11.4018
-266,-622,2.59387,11.5828,0.00152717,-0.00231768,-0.000235301,0.00154152,-0.00233202,-0.0608961,0.00225186,0.0121316,958,1646,2.59389,-11.5828
-259,-622,2.59003,11.781,0.00206416,-0.00381409,-0.000511468,0.00210833,-0.00385827,-0.0861475,0.00349385,0.011823,965,1646,2.59003,-11.781
-252,-622,2.60101,11.9326,0.00272415,-0.00616322,-0.000649497,0.00277136,-0.00621044,-0.0725671,0.00531084,0.0124509,972,1646,2.60103,-11.9326
-245,-622,2.61737,12.0798,0.00388246,-0.00911061,-0.000541678,0.003905,-0.00913315,-0.0415936,0.00772667,0.00928058,979,1646,2.61735,-12.0799
-238,-622,2.61542,12.2502,0.00581845,-0.0116495,0.000221394,0.00582126,-0.0116523,0.0126716,0.0102739,0.00982052,986,1646,2.61544,-12.2503
-231,-622,2.64911,12.4017,0.00761309,-0.0149504,0.000770681,0.00763939,-0.0149767,0.0341031,0.0132845,0.0131363,993,1646,2.64909,-12.4018
-224,-622,2.73956,12.5259,0.0096387,-0.0183794,0.00160942,0.00973085,-0.0184716,0.0571914,0.0165413,0.0224523,1000,1646,2.73958,-12.5258
-217,-622,2.75085,12.5647,0.0120115,-0.0220151,0.00283145,0.0122455,-0.0222491,0.0824571,0.0201927,0.0351368,1007,1646,2.75087,-12.5647
-210,-622,2.66388,12.5281,0.0145994,-0.0254202,0.00425853,0.0150475,-0.0258684,0.104847,0.0238966,0.0440046,1014,1646,2.66386,-12.5281
-203,-622,2.57397,12.5114,0.0174209,-0.0284902,0.00602755,0.0181991,-0.0292683,0.128389,0.0276526,0.0482101,1021,1646,2.57398,-12.5114
-196,-622,2.53406,12.5627,0.0202218,-0.0310627,0.00781753,0.021387,-0.0322279,0.147959,0.0311648,0.0466823,1028,1646,2.53406,-12.5627
-189,-622,2.68518,12.4033,0.0231428,-0.0327051,0.00979798,0.0248118,-0.0343742,0.16873,0.0343194,0.0491967,1035,1646,2.68521,-12.4034
-182,-622,2.43262,12.2766,0,0,0,0,0,0,0,-1,1042,1646,2.4326,-12.2767
-175,-622,2.56091,11.0195,0,0,0,0,0,0,0,-1,1049,1646,2.56095,-11.0195
-168,-622,4.76489,10.7617,0,0,0,0,0,0,0,-1,1056,1646,4.76491,-10.7617
-161,-622,5.22473,13.5771,0,0,0,0,0,0,0,-1,1063,1646,5.22469,-13.5771
-154,-622,3.79016,12.0511,0,0,0,0,0,0,0,-1,1070,1646,3.79017,-12.0511
-147,-622,4.32397,13.5267,0,0,0,0,0,0,0,-1,1077,1646,4.32399,-13.5267
-140,-622,3.15784,10.7809,0,0,0,0,0,0,0,-1,1084,1646,3.15778,-10.7809
-133,-622,3.40173,10.0699,0,0,0,0,0,0,0,-1,1091,1646,3.40173,-10.0699
-126,-622,4.83423,11.7699,0,0,0,0,0,0,0,-1,1098,1646,4.83428,-11.7699
-119,-622,4.06384,13.1715,0,0,0,0,0,0,0,-1,1105,1646,4.06379,-13.1716
-112,-622,4.33276,14.6605,0,0,0,0,0,0,0,-1,1112,1646,4.33281,-14.6605
-105,-622,0.306519,4.38159,0,0,0,0,0,0,0,-1,1119,1646,0.306536,-4.38159
-98,-622,-0.510376,3.5033,0,0,0,0,0,0,0,-1,1126,1646,-0.510393,-3.50324
-91,-622,-1.146,0.975952,0,0,0,0,0,0,0,-1,1133,1646,-1.14599,-0.97597
-84,-622,-2.04895,1.31787,0,0,0,0,0,0,0,-1,1140,1646,-2.0489,-1.31781
-77,-622,-1.80627,0.332275,0,0,0,0,0,0,0,-1,1147,1646,-1.80622,-0.33223
-70,-622,-3.65588,2.28149,0,0,0,0,0,0,0,-1,1154,1646,-3.65589,-2.28155
-63,-622,-2.49683,1.27087,0,0,0,0,0,0,0,-1,1161,1646,-2.49679,-1.27093
-56,-622,-2.44238,-0.575562,0,0,0,0,0,0,0,-1,1168,1646,-2.44242,0.575508
-49,-622,-2.41089,1.38818,0,0,0,0,0,0,0,-1,1175,1646,-2.41088,-1.38815
-42,-622,-2.71497,2.85242,0,0,0,0,0,0,0,-1,1182,1646,-2.71491,-2.85247
-35,-622,-3.0177,4.25842,0,0,0,0,0,0,0,-1,1189,1646,-3.01773,-4.25838
-28,-622,-0.896606,0.678833,0,0,0,0,0,0,0,-1,1196,1646,-0.89661,-0.678835
-21,-622,6.63062,12.6195,0,0,0,0,0,0,0,-1,1203,1646,6.63065,-12.6195
-14,-622,2.29187,16.4539,0,0,0,0,0,0,0,-1,1210,1646,2.29185,-16.4539
-7,-622,2.44751,15.9855,0,0,0,0,0,0,0,-1,1217,1646,2.44749,-15.9855
0,-622,0,0,0,0,0,0,0,0,0,-1,1224,1646,0,0
7,-622,0,0,0,0,0,0,0,0,0,-1,1231,1646,0,0
14,-622,0,0,0,0,0,0,0,0,0,-1,1238,1646,0,0
21,-622,0,0,0,0,0,0,0,0,0,-1,1245,1646,0,0
28,-622,0,0,0,0,0,0,0,0,0,-1,1252,1646,0,0
35,-622,0,0,0,0,0,0,0,0,0,-1,1259,1646,0,0
42,-622,0,0,0,0,0,0,0,0,0,-1,1266,1646,0,0
49,-622,0,0,0,0,0,0,0,0,0,-1,1273,1646,0,0
56,-622,0,0,0,0,0,0,0,0,0,-1,1280,1646,0,0
63,-622,0,0,0,0,0,0,0,0,0,-1,1287,1646,0,0
70,-622,0,0,0,0,0,0,0,0,0,-1,1294,1646,0,0
77,-622,0,0,0,0,0,0,0,0,0,-1,1301,1646,0,0
84,-622,0,0,0,0,0,0,0,0,0,-1,1308,1646,0,0
91,-622,0,0,0,0,0,0,0,0,0,-1,1315,1646,0,0
98,-622,0,0,0,0,0,0,0,0,0,-1,1322,1646,0,0
105,-622,0,0,0,0,0,0,0,0,0,-1,1329,1646,0,0
112,-622,0,0,0,0,0,0,0,0,0,-1,1336,1646,0,0
119,-622,0,0,0,0,0,0,0,0,0,-1,1343,1646,0,0
126,-622,10.8933,2.61414,0,0,0,0,0,0,0,-1,1350,1646,10.8934,-2.61409
133,-622,12.3599,1.63672,0,0,0,0,0,0,0,-1,1357,1646,12.3598,-1.63677
140,-622,12.7906,0.00170898,0,0,0,0,0,0,0,-1,1364,1646,12.7906,-0.00173178
147,-622,14.9331,-1.63586,0,0,0,0,0,0,0,-1,1371,1646,14.9332,1.63588
154,-622,17.1903,-3.24805,0,0,0,0,0,0,0,-1,1378,1646,17.1903,3.24802
161,-622,10.6884,6.46448,0,0,0,0,0,0,0,-1,1385,1646,10.6883,-6.46442
168,-622,12.2402,5.18091,0,0,0,0,0,0,0,-1,1392,1646,12.2403,-5.1809
175,-622,5.64355,-1.77075,0,0,0,0,0,0,0,-1,1399,1646,5.64351,1.77077
182,-622,5.88586,-1.32251,0,0,0,0,0,0,0,-1,1406,1646,5.88587,1.32256
189,-622,5.97986,-1.18005,0,0,0,0,0,0,0,-1,1413,1646,5.97986,1.18003
196,-622,5.85022,-0.244507,0,0,0,0,0,0,0,-1,1420,1646,5.85026,0.244478
203,-622,5.25159,0.138794,0,0,0,0,0,0,0,-1,1427,1646,5.25162,-0.138822
210,-622,6.66833,0.0397949,0,0,0,0,0,0,0,-1,1434,1646,6.6684,-0.0398278
217,-622,6.12061,0.0506592,0,0,0,0,0,0,0,-1,1441,1646,6.12058,-0.0507181
224,-622,5.57275,0.0616455,0,0,0,0,0,0,0,-1,1448,1646,5.57276,-0.0616084
231,-622,5.31348,1.3949,0,0,0,0,0,0,0,-1,1455,1646,5.31342,-1.39495
238,-622,3.76477,2.90686,0,0,0,0,0,0,0,-1,1462,1646,3.7648,-2.90686
245,-622,5.13794,2.67993,0,0,0,0,0,0,0,-1,1469,1646,5.13796,-2.67992
252,-622,6.66528,2.53992,0,0,0,0,0,0,0,-1,1476,1646,6.66522,-2.53991
259,-622,8.93787,3.31458,0,0,0,0,0,0,0,-1,1483,1646,8.93791,-3.31454
266,-622,5.72644,3.11926,0,0,0,0,0,0,0,-1,1490,1646,5.72647,-3.1192
273,-622,7.28076,3.61218,0,0,0,0,0,0,0,-1,1497,1646,7.28071,-3.61212
280,-622,8.43127,4.4447,0,0,0,0,0,0,0,-1,1504,1646,8.43123,-4.44467
287,-622,8.60315,5.94617,0,0,0,0,0,0,0,-1,1511,1646,8.60319,-5.94622
294,-622,7.62756,11.5143,0,0,0,0,0,0,0,-1,1518,1646,7.62762,-11.5143
301,-622,7.36548,11.6569,0,0,0,0,0,0,0,-1,1525,1646,7.36549,-11.6569
308,-622,7.10339,11.7994,0,0,0,0,0,0,0,-1,1532,1646,7.10335,-11.7995
315,-622,6.1366,13.5063,0,0,0,0,0,0,0,-1,1539,1646,6.13658,-13.5064
322,-622,6.29053,13.689,-0.00328273,-0.00815765,0.00924831,0.00384393,-0.0152843,0.656549,0.0116836,0.0488386,1546,1646,6.29056,-13.689
329,-622,6.22424,13.7458,-0.00361356,-0.00746337,0.00811319,0.00279995,-0.0138769,0.668924,0.0103121,0.04512,1553,1646,6.22424,-13.7459
336,-622,6.30151,13.5175,0,0,0,0,0,0,0,-1,1560,1646,6.30148,-13.5175
343,-622,6.37805,13.303,0,0,0,0,0,0,0,-1,1567,1646,6.37809,-13.303
350,-622,6.302,13.4109,0,0,0,0,0,0,0,-1,1574,1646,6.30204,-13.4109
357,-622,6.44226,13.4688,-0.00226578,-0.00678776,0.00533452,0.00126712,-0.0103207,0.584953,0.00733937,0.039903,1581,1646,6.44231,-13.4687
364,-622,6.32056,13.1288,-0.00197542,-0.00647236,0.00485736,0.00112863,-0.00957642,0.568633,0.00679182,0.0319191,1588,1646,6.32053,-13.1288
371,-622,6.26855,13.0349,-0.00151412,-0.00618377,0.00442574,0.00115491,-0.0088528,0.542674,0.0063221,0.0188704,1595,1646,6.26851,-13.0349
378,-622,6.23157,12.9492,-0.00113385,-0.00579653,0.00407921,0.00123323,-0.0081636,0.525792,0.00589662,0.0102367,1602,1646,6.23151,-12.9492
385,-622,6.21912,12.798,-0.000929197,-0.00551063,0.00376398,0.00118632,-0.00762615,0.512043,0.00552218,0.00883903,1609,1646,6.21913,-12.798
392,-622,6.22839,12.6519,-0.000733881,-0.00506732,0.00342207,0.00114974,-0.00695094,0.503175,0.00506093,0.0102981,1616,1646,6.22838,-12.6518
399,-622,6.24133,12.4917,-0.000536815,-0.00449524,0.00299535,0.00107415,-0.00610621,0.493446,0.00447206,0.0105157,1623,1646,6.24132,-12.4917
406,-622,6.22888,12.3282,-0.000435358,-0.00399103,0.00261593,0.000949687,-0.00537607,0.486941,0.00393896,0.0127202,1630,1646,6.22885,-12.3283
413,-622,6.22217,12.1951,-0.000439918,-0.00368267,0.00234872,0.000792709,-0.00491529,0.483297,0.00357055,0.014653,1637,1646,6.22218,-12.1951
420,-622,6.2478,12.0482,-0.000599996,-0.00346977,0.00228289,0.000661502,-0.00473126,0.504828,0.00339622,0.015503,1644,1646,6.24784,-12.0482
427,-622,6.25903,11.8914,-0.000723313,-0.00336242,0.00219208,0.000515733,-0.00460146,0.514467,0.00325321,0.0128891,1651,1646,6.25907,-11.8913
434,-622,6.27344,11.7201,-0.000903654,-0.00342874,0.00210621,0.000289434,-0.00462183,0.515395,0.00318209,0.0130973,1658,1646,6.27349,-11.72
441,-622,6.271,11.5593,-0.000943743,-0.00241836,0.00168754,0.000160527,-0.00352263,0.57944,0.00240371,0.0139148,1665,1646,6.27098,-11.5593
448,-622,6.24951,11.4194,-0.000849988,-0.000623916,0.00109796,0.000366809,-0.00184071,0.836693,0.00136593,0.0129931,1672,1646,6.24953,-11.4194
455,-622,6.23694,11.2239,-0.000816601,0.000707253,0.000593941,0.0009114,-0.00102075,1.23973,0.00111612,0.0147367,1679,1646,6.23689,-11.2238
462,-622,6.25317,11.0677,-0.00062341,0.00270432,-0.000117281,0.00270845,-0.000627538,-1.53561,0.00204713,0.016439,1686,1646,6.25315,-11.0678
469,-622,6.23975,10.9001,-0.000232504,0.00552219,-0.0011473,0.00574249,-0.000452804,-1.38109,0.00398784,0.0169436,1693,1646,6.23976,-10.9002
476,-622,6.26929,10.7257,0.000320896,0.00917872,-0.00246506,0.00981851,-0.000318896,-1.31685,0.00665452,0.0161756,1700,1646,6.26928,-10.7257
483,-622,6.27026,10.5334,0.00107398,0.0137975,-0.00412015,0.0150152,-0.000143679,-1.28344,0.0100584,0.0220173,1707,1646,6.27022,-10.5335
490,-622,6.2677,10.3383,0.00197509,0.0193209,-0.00604854,0.0212218,7.42497e-05,-1.2663,0.0141232,0.0299815,1714,1646,6.26774,-10.3382
497,-622,6.37024,10.0005,0.0032481,0.0252734,-0.00824226,0.0280163,0.000505266,-1.24955,0.0185114,0.0406537,1721,1646,6.37026,-10.0005
504,-622,6.07642,10.0747,0,0,0,0,0,0,0,-1,1728,1646,6.07647,-10.0747
511,-622,5.29004,4.14587,0,0,0,0,0,0,0,-1,1735,1646,5.29008,-4.14589
518,-622,5.6001,1.55359,0,0,0,0,0,0,0,-1,1742,1646,5.60015,-1.5536
525,-622,5.68213,1.32361,0,0,0,0,0,0,0,-1,1749,1646,5.68209,-1.32361
532,-622,5.44202,0.57373,0,0,0,0,0,0,0,-1,1756,1646,5.44196,-0.573705
539,-622,9.32129,1.06116,0,0,0,0,0,0,0,-1,1763,1646,9.32131,-1.0612
546,-622,6.50977,-3.45618,0,0,0,0,0,0,0,-1,1770,1646,6.50981,3.4562
553,-622,0,0,0,0,0,0,0,0,0,-1,1777,1646,0,0
560,-622,0,0,0,0,0,0,0,0,0,-1,1784,1646,0,0
567,-622,0,0,0,0,0,0,0,0,0,-1,1791,1646,0,0
574,-622,0,0,0,0,0,0,0,0,0,-1,1798,1646,0,0
581,-622,0,0,0,0,0,0,0,0,0,-1,1805,1646,0,0
588,-622,0,0,0,0,0,0,0,0,0,-1,1812,1646,0,0
595,-622,0,0,0,0,0,0,0,0,0,-1,1819,1646,0,0
602,-622,0,0,0,0,0,0,0,0,0,-1,1826,1646,0,0
609,-622,0,0,0,0,0,0,0,0,0,-1,1833,1646,0,0
616,-622,0,0,0,0,0,0,0,0,0,-1,1840,1646,0,0
623,-622,0,0,0,0,0,0,0,0,0,-1,1847,1646,0,0
630,-622,0,0,0,0,0,0,0,0,0,-1,1854,1646,0,0
637,-622,0,0,0,0,0,0,0,0,0,-1,1861,1646,0,0
644,-622,0,0,0,0,0,0,0,0,0,-1,1868,1646,0,0
651,-622,0,0,0,0,0,0,0,0,0,-1,1875,1646,0,0
658,-622,0,0,0,0,0,0,0,0,0,-1,1882,1646,0,0
665,-622,0,0,0,0,0,0,0,0,0,-1,1889,1646,0,0
672,-622,0,0,0,0,0,0,0,0,0,-1,1896,1646,0,0
679,-622,0,0,0,0,0,0,0,0,0,-1,1903,1646,0,0
686,-622,0,0,0,0,0,0,0,0,0,-1,1910,1646,0,0
693,-622,0,0,0,0,0,0,0,0,0,-1,1917,1646,0,0
700,-622,0,0,0,0,0,0,0,0,0,-1,1924,1646,0,0
707,-622,0,0,0,0,0,0,0,0,0,-1,1931,1646,0,0
714,-622,0,0,0,0,0,0,0,0,0,-1,1938,1646,0,0
721,-622,0,0,0,0,0,0,0,0,0,-1,1945,1646,0,0
728,-622,0,0,0,0,0,0,0,0,0,-1,1952,1646,0,0
735,-622,0,0,0,0,0,0,0,0,0,-1,1959,1646,0,0
742,-622,0,0,0,0,0,0,0,0,0,-1,1966,1646,0,0
749,-622,0,0,0,0,0,0,0,0,0,-1,1973,1646,0,0
756,-622,0,0,0,0,0,0,0,0,0,-1,1980,1646,0,0
763,-622,0,0,0,0,0,0,0,0,0,-1,1987,1646,0,0
770,-622,0,0,0,0,0,0,0,0,0,-1,1994,1646,0,0
777,-622,0,0,0,0,0,0,0,0,0,-1,2001,1646,0,0
784,-622,0,0,0,0,0,0,0,0,0,-1,2008,1646,0,0
791,-622,0,0,0,0,0,0,0,0,0,-1,2015,1646,0,0
798,-622,0,0,0,0,0,0,0,0,0,-1,2022,1646,0,0
805,-622,0,0,0,0,0,0,0,0,0,-1,2029,1646,0,0
812,-622,0,0,0,0,0,0,0,0,0,-1,2036,1646,0,0
-700,-629,0,0,0,0,0,0,0,0,0,-1,524,1653,0,0
-693,-629,0,0,0,0,0,0,0,0,0,-1,531,1653,0,0
-686,-629,0,0,0,0,0,0,0,0,0,-1,538,1653,0,0
-679,-629,0,0,0,0,0,0,0,0,0,-1,545,1653,0,0
-672,-629,0,0,0,0,0,0,0,0,0,-1,552,1653,0,0
-665,-629,0,0,0,0,0,0,0,0,0,-1,559,1653,0,0
-658,-629,0,0,0,0,0,0,0,0,0,-1,566,1653,0,0
-651,-629,0,0,0,0,0,0,0,0,0,-1,573,1653,0,0
-644,-629,0,0,0,0,0,0,0,0,0,-1,580,1653,0,0
-637,-629,0,0,0,0,0,0,0,0,0,-1,587,1653,0,0
-630,-629,0,0,0,0,0,0,0,0,0,-1,594,1653,0,0
-623,-629,0,0,0,0,0,0,0,0,0,-1,601,1653,0,0
-616,-629,0,0,0,0,0,0,0,0,0,-1,608,1653,0,0
-609,-629,0,0,0,0,0,0,0,0,0,-1,615,1653,0,0
-602,-629,0,0,0,0,0,0,0,0,0,-1,622,1653,0,0
-595,-629,0,0,0,0,0,0,0,0,0,-1,629,1653,0,0
-588,-629,0,0,0,0,0,0,0,0,0,-1,636,1653,0,0
-581,-629,0,0,0,0,0,0,0,0,0,-1,643,1653,0,0
-574,-629,0,0,0,0,0,0,0,0,0,-1,650,1653,0,0
-567,-629,0,0,0,0,0,0,0,0,0,-1,657,1653,0,0
-560,-629,0,0,0,0,0,0,0,0,0,-1,664,1653,0,0
-553,-629,0,0,0,0,0,0,0,0,0,-1,671,1653,0,0
-546,-629,0,0,0,0,0,0,0,0,0,-1,678,1653,0,0
-539,-629,0,0,0,0,0,0,0,0,0,-1,685,1653,0,0
-532,-629,0,0,0,0,0,0,0,0,0,-1,692,1653,0,0
-525,-629,0,0,0,0,0,0,0,0,0,-1,699,1653,0,0
-518,-629,0,0,0,0,0,0,0,0,0,-1,706,1653,0,0
-511,-629,0,0,0,0,0,0,0,0,0,-1,713,1653,0,0
-504,-629,0,0,0,0,0,0,0,0,0,-1,720,1653,0,0
-497,-629,0,0,0,0,0,0,0,0,0,-1,727,1653,0,0
-490,-629,0,0,0,0,0,0,0,0,0,-1,734,1653,0,0
-483,-629,0,0,0,0,0,0,0,0,0,-1,741,1653,0,0
-476,-629,0,0,0,0,0,0,0,0,0,-1,748,1653,0,0
-469,-629,0,0,0,0,0,0,0,0,0,-1,755,1653,0,0
-462,-629,0,0,0,0,0,0,0,0,0,-1,762,1653,0,0
-455,-629,0,0,0,0,0,0,0,0,0,-1,769,1653,0,0
-448,-629,0,0,0,0,0,0,0,0,0,-1,776,1653,0,0
-441,-629,0,0,0,0,0,0,0,0,0,-1,783,1653,0,0
-434,-629,0,0,0,0,0,0,0,0,0,-1,790,1653,0,0
-427,-629,0,0,0,0,0,0,0,0,0,-1,797,1653,0,0
-420,-629,-3.87103,3.37634,0,0,0,0,0,0,0,-1,804,1653,-3.87101,-3.37633
-413,-629,-5.69751,1.33582,0,0,0,0,0,0,0,-1,811,1653,-5.69754,-1.3358
-406,-629,2.85406,6.01501,0,0,0,0,0,0,0,-1,818,1653,2.85405,-6.01507
-399,-629,3.37085,6.61816,0,0,0,0,0,0,0,-1,825,1653,3.37087,-6.61822
-392,-629,3.80743,7.15393,0,0,0,0,0,0,0,-1,832,1653,3.80741,-7.15391
-385,-629,4.31525,7.66785,0,0,0,0,0,0,0,-1,839,1653,4.31525,-7.6679
-378,-629,4.29962,8.28577,0,0,0,0,0,0,0,-1,846,1653,4.29962,-8.28577
-371,-629,3.28503,9.20544,0,0,0,0,0,0,0,-1,853,1653,3.28502,-9.2054
-364,-629,1.23419,9.69434,0,0,0,0,0,0,0,-1,860,1653,1.23418,-9.69431
-357,-629,2.02173,9.64685,0.00265451,-0.0118253,-0.000251518,0.00265888,-0.0118297,-0.0173633,0.00890604,0.0475971,867,1653,2.02173,-9.64682
-350,-629,2.52057,9.75354,0.00290059,-0.00900993,-0.000205237,0.00290413,-0.00901346,-0.0172248,0.00717566,0.0466371,874,1653,2.52055,-9.7535
-343,-629,2.6568,9.77759,0.00304045,-0.00649507,-0.000130813,0.00304224,-0.00649687,-0.013715,0.00562651,0.038949,881,1653,2.65683,-9.7776
-336,-629,2.75421,9.79175,0.0026246,-0.00422473,-0.000235224,0.00263266,-0.0042328,-0.0342888,0.0039995,0.0199407,888,1653,2.7542,-9.79179
-329,-629,2.79462,9.98315,0.00197817,-0.00266726,-0.000421879,0.00201618,-0.00270526,-0.0898365,0.00273558,0.0118292,895,1653,2.79462,-9.9832
-322,-629,2.79968,10.1783,0.0021059,-0.00177264,-0.000154228,0.00211202,-0.00177876,-0.039681,0.00224909,0.0109916,902,1653,2.79969,-10.1783
-315,-629,2.79034,10.3511,0.00171165,-0.000811132,-0.000211858,0.00172932,-0.0008288,-0.0832013,0.00150713,0.0145065,909,1653,2.79034,-10.3511
-308,-629,2.78925,10.5284,0.000834737,-0.000304959,-0.000488875,0.00101571,-0.000485927,-0.354532,0.00088477,0.0124321,916,1653,2.78922,-10.5285
-301,-629,2.79901,10.7415,0.000265741,0.000187745,-0.000602569,0.000830573,-0.000377086,-0.753083,0.00071344,0.0110056,923,1653,2.79902,-10.7414
-294,-629,2.78467,10.9221,0.000249823,0.000182641,-0.000378359,0.000596079,-0.000163616,-0.741124,0.000461692,0.011312,930,1653,2.78467,-10.9221
-287,-629,2.78241,11.0691,0.000379373,-5.63087e-05,-0.000130539,0.000415491,-9.24268e-05,-0.269931,0.000312394,0.00916356,937,1653,2.78244,-11.069
-280,-629,2.7887,11.2435,0.000593848,-0.00045195,2.29551e-05,0.000594352,-0.000452454,0.0219358,0.000606221,0.00997921,944,1653,2.78868,-11.2436
-273,-629,2.78418,11.4121,0.000975758,-0.000970093,0.000118266,0.00098292,-0.000977254,0.0604818,0.00113171,0.0129238,951,1653,2.78416,-11.4121
-266,-629,2.77258,11.5989,0.00132796,-0.00161041,0.000148553,0.00133545,-0.0016179,0.050385,0.00170772,0.0126025,958,1653,2.7726,-11.5989
-259,-629,2.77368,11.8135,0.00178182,-0.00283359,-7.19895e-05,0.00178294,-0.00283471,-0.0155926,0.00268896,0.0145421,965,1653,2.7737,-11.8135
-252,-629,2.77661,11.9658,0.00231307,-0.00465236,-0.000252383,0.0023222,-0.0046615,-0.0361704,0.00410675,0.0118522,972,1653,2.77663,-11.9658
-245,-629,2.7923,12.0933,0.00315098,-0.00690008,-0.000290859,0.00315939,-0.00690849,-0.0289059,0.00594551,0.00881933,979,1653,2.79229,-12.0933
-238,-629,2.79022,12.2642,0.00446046,-0.00890134,9.98536e-05,0.00446121,-0.00890209,0.00747251,0.00785602,0.0101477,986,1653,2.79019,-12.2641
-231,-629,2.78375,12.4277,0.00562757,-0.011347,0.000347164,0.00563467,-0.0113541,0.0204406,0.00999205,0.00993981,993,1653,2.78374,-12.4278
-224,-629,2.83826,12.5718,0.0070687,-0.0139911,0.000835702,0.00710181,-0.0140242,0.0395994,0.0124134,0.00998693,1000,1653,2.83827,-12.5718
-217,-629,2.84839,12.6892,0.0087726,-0.0167929,0.00161265,0.00887393,-0.0168942,0.0627476,0.0151155,0.0145867,1007,1653,2.84837,-12.6892
-210,-629,2.84814,12.7908,0.0106578,-0.0194442,0.00251084,0.0108658,-0.0196522,0.08265,0.0178613,0.0304253,1014,1653,2.84814,-12.7907
-203,-629,2.74408,12.8605,0.0127052,-0.0218399,0.00364565,0.0130858,-0.0222204,0.104007,0.0206102,0.0439055,1021,1653,2.74408,-12.8605
-196,-629,2.73804,12.8948,0.0147387,-0.0239181,0.00479796,0.0153253,-0.0245047,0.121658,0.0231985,0.0429046,1028,1653,2.73802,-12.8948
-189,-629,2.79492,12.6635,0.0168209,-0.0253044,0.00606984,0.0176781,-0.0261616,0.140289,0.0254683,0.0409744,1035,1653,2.7949,-12.6635
-182,-629,2.75586,12.7329,0,0,0,0,0,0,0,-1,1042,1653,2.75589,-12.7329
-175,-629,2.71509,12.791,0,0,0,0,0,0,0,-1,1049,1653,2.71512,-12.791
-168,-629,4.06384,13.5303,0,0,0,0,0,0,0,-1,1056,1653,4.06379,-13.5303
-161,-629,3.80383,13.0244,0,0,0,0,0,0,0,-1,1063,1653,3.80387,-13.0244
-154,-629,3.64075,12.3005,0,0,0,0,0,0,0,-1,1070,1653,3.6408,-12.3005
-147,-629,2.57178,12.0831,0,0,0,0,0,0,0,-1,1077,1653,2.57172,-12.0831
-140,-629,3.36853,13.7708,0,0,0,0,0,0,0,-1,1084,1653,3.36847,-13.7707
-133,-629,3.68933,15.5042,0,0,0,0,0,0,0,-1,1091,1653,3.68937,-15.5042
-126,-629,2.69519,10.2487,0,0,0,0,0,0,0,-1,1098,1653,2.69515,-10.2486
-119,-629,4.94177,13.5525,0,0,0,0,0,0,0,-1,1105,1653,4.94172,-13.5525
-112,-629,5.63123,15.9187,0,0,0,0,0,0,0,-1,1112,1653,5.63118,-15.9187
-105,-629,2.15881,4.38342,0,0,0,0,0,0,0,-1,1119,1653,2.15878,-4.38347
-98,-629,0.825806,4.19385,0,0,0,0,0,0,0,-1,1126,1653,0.825779,-4.1939
-91,-629,-0.452271,3.64465,0,0,0,0,0,0,0,-1,1133,1653,-0.452278,-3.6446
-84,-629,-2.6084,0.466797,0,0,0,0,0,0,0,-1,1140,1653,-2.6084,-0.466786
-77,-629,-3.50903,2.10706,0,0,0,0,0,0,0,-1,1147,1653,-3.509,-2.10707
-70,-629,-1.20886,2.52502,0,0,0,0,0,0,0,-1,1154,1653,-1.20886,-2.525
-63,-629,-0.960693,4.30212,0,0,0,0,0,0,0,-1,1161,1653,-0.960691,-4.30215
-56,-629,-1.31934,5.64343,0,0,0,0,0,0,0,-1,1168,1653,-1.31928,-5.6434
-49,-629,-2.15662,2.57458,0,0,0,0,0,0,0,-1,1175,1653,-2.15656,-2.57459
-42,-629,-2.46326,3.91467,0,0,0,0,0,0,0,-1,1182,1653,-2.4633,-3.91466
-35,-629,-2.67261,5.24292,0,0,0,0,0,0,0,-1,1189,1653,-2.67257,-5.24298
-28,-629,-0.402954,-0.866577,0,0,0,0,0,0,0,-1,1196,1653,-0.402943,0.866612
-21,-629,10.063,9.59705,0,0,0,0,0,0,0,-1,1203,1653,10.063,-9.59708
-14,-629,2.40662,17.0516,0,0,0,0,0,0,0,-1,1210,1653,2.40664,-17.0516
-7,-629,2.67224,16.5161,0,0,0,0,0,0,0,-1,1217,1653,2.6722,-16.5161
0,-629,3.12671,16.1965,0,0,0,0,0,0,0,-1,1224,1653,3.12669,-16.1966
7,-629,3.72253,15.8796,0.0452496,-0.0555179,0.00945489,0.046129,-0.0563974,0.0927501,0.0592925,0.0465467,1231,1653,3.7225,-15.8797
14,-629,4.25818,15.5179,0.062088,-0.0346733,-0.00578247,0.0624324,-0.0350176,-0.059478,0.0570001,0.0470896,1238,1653,4.25823,-15.5179
21,-629,4.84705,15.191,0,0,0,0,0,0,0,-1,1245,1653,4.84703,-15.1911
28,-629,4.18701,14.606,0.0938422,0.0215045,-0.0440638,0.11468,0.000666324,-0.441742,0.0762325,0.0434991,1252,1653,4.18706,-14.606
35,-629,5.17712,14.4882,0.104155,0.0501428,-0.0655528,0.148047,0.00625122,-0.590004,0.0966816,0.0442187,1259,1653,5.17709,-14.4881
42,-629,5.85034,14.1132,0.110045,0.0740207,-0.086759,0.180642,0.00342402,-0.683045,0.119303,0.0481256,1266,1653,5.85034,-14.1131
49,-629,6.36621,13.6531,0,0,0,0,0,0,0,-1,1273,1653,6.3662,-13.653
56,-629,7.15637,12.9735,0.113112,0.122664,-0.114883,0.23287,0.00290594,-0.806171,0.154287,0.046202,1280,1653,7.15634,-12.9735
63,-629,8.00916,12.1469,0.111365,0.144038,-0.125783,0.25454,0.000861764,-0.849976,0.169407,0.0453185,1287,1653,8.00918,-12.1469
70,-629,9.38818,11.2026,0.10805,0.162017,-0.131658,0.269428,0.000638366,-0.886475,0.179407,0.0453049,1294,1653,9.38822,-11.2026
77,-629,9.7804,10.9443,0.0975362,0.168824,-0.129551,0.267545,-0.00118436,-0.919644,0.178759,0.0449172,1301,1653,9.78045,-10.9444
84,-629,9.95874,9.20947,0.0841892,0.167042,-0.125578,0.25785,-0.0066186,-0.944721,0.174148,0.044455,1308,1653,9.9587,-9.20942
91,-629,10.6604,8.80103,0.0694238,0.152114,-0.114127,0.232154,-0.0106165,-0.959181,0.158427,0.0439503,1315,1653,10.6604,-8.80107
98,-629,11.0809,7.61353,0.0639684,0.12212,-0.109382,0.206225,-0.0201367,-0.915303,0.144663,0.044815,1322,1653,11.081,-7.61351
105,-629,11.7106,6.30518,0,0,0,0,0,0,0,-1,1329,1653,11.7105,-6.30522
112,-629,12.335,5.0636,0,0,0,0,0,0,0,-1,1336,1653,12.3349,-5.06363
119,-629,12.938,3.83655,0,0,0,0,0,0,0,-1,1343,1653,12.938,-3.83655
126,-629,11.6207,1.91357,0,0,0,0,0,0,0,-1,1350,1653,11.6207,-1.91354
133,-629,12.3656,1.05786,0,0,0,0,0,0,0,-1,1357,1653,12.3656,-1.05786
140,-629,14.2197,-0.271851,0,0,0,0,0,0,0,-1,1364,1653,14.2197,0.271881
147,-629,16.379,-1.74329,0,0,0,0,0,0,0,-1,1371,1653,16.379,1.74326
154,-629,18.5643,-3.15576,0,0,0,0,0,0,0,-1,1378,1653,18.5643,3.15579
161,-629,10.5461,6.83752,0,0,0,0,0,0,0,-1,1385,1653,10.5461,-6.83758
168,-629,12.0059,5.56348,0,0,0,0,0,0,0,-1,1392,1653,12.0059,-5.56352
175,-629,5.84485,-1.78845,0,0,0,0,0,0,0,-1,1399,1653,5.84479,1.7884
182,-629,5.99036,-1.27783,0,0,0,0,0,0,0,-1,1406,1653,5.99041,1.27778
189,-629,5.97668,-0.748535,0,0,0,0,0,0,0,-1,1413,1653,5.97671,0.748544
196,-629,4.52869,9.24695,0,0,0,0,0,0,0,-1,1420,1653,4.52869,-9.2469
203,-629,3.75085,6.88037,0,0,0,0,0,0,0,-1,1427,1653,3.75087,-6.88032
210,-629,3.5907,6.52637,0,0,0,0,0,0,0,-1,1434,1653,3.59067,-6.52642
217,-629,2.4585,4.84448,0,0,0,0,0,0,0,-1,1441,1653,2.45855,-4.84448
224,-629,1.31982,3.68481,0,0,0,0,0,0,0,-1,1448,1653,1.31986,-3.68487
231,-629,3.63025,1.73499,0,0,0,0,0,0,0,-1,1455,1653,3.6303,-1.735
238,-629,4.26428,2.11255,0,0,0,0,0,0,0,-1,1462,1653,4.26429,-2.11253
245,-629,5.61816,1.95361,0,0,0,0,0,0,0,-1,1469,1653,5.61815,-1.95359
252,-629,7.27136,2.18982,0,0,0,0,0,0,0,-1,1476,1653,7.27131,-2.18985
259,-629,8.67334,2.18628,0,0,0,0,0,0,0,-1,1483,1653,8.6733,-2.18633
266,-629,6.86475,3.72058,0,0,0,0,0,0,0,-1,1490,1653,6.86479,-3.72063
273,-629,7.9021,3.8717,0,0,0,0,0,0,0,-1,1497,1653,7.90205,-3.87171
280,-629,9.70837,4.39087,0,0,0,0,0,0,0,-1,1504,1653,9.7084,-4.39082
287,-629,9.82947,7.19348,0,0,0,0,0,0,0,-1,1511,1653,9.8295,-7.19347
294,-629,6.56555,11.6359,0,0,0,0,0,0,0,-1,1518,1653,6.5656,-11.6358
301,-629,5.55127,14.4149,0,0,0,0,0,0,0,-1,1525,1653,5.55124,-14.4149
308,-629,6.08264,12.1423,0,0,0,0,0,0,0,-1,1532,1653,6.08263,-12.1423
315,-629,6.31531,13.7404,0,0,0,0,0,0,0,-1,1539,1653,6.3153,-13.7404
322,-629,6.31787,13.7104,-0.00137304,-0.00674386,0.00748581,0.00389446,-0.0120114,0.613181,0.00957351,0.0495728,1546,1653,6.31791,-13.7104
329,-629,6.13354,13.7878,-0.00180183,-0.00606617,0.00650516,0.00291167,-0.0107797,0.627032,0.00832843,0.0409697,1553,1653,6.13354,-13.7879
336,-629,6.12952,13.6166,-0.00225914,-0.00553478,0.00559031,0.00192833,-0.00972225,0.642899,0.00721074,0.0387354,1560,1653,6.12957,-13.6166
343,-629,6.13,13.453,-0.00218076,-0.0055903,0.00480196,0.00121006,-0.00898112,0.61483,0.00642884,0.0382097,1567,1653,6.13002,-13.453
350,-629,6.09497,13.4272,-0.00165898,-0.00525137,0.00429989,0.0012048,-0.00811515,0.58755,0.00585318,0.024754,1574,1653,6.09497,-13.4272
357,-629,6.11658,13.3198,-0.00151188,-0.00493864,0.00403687,0.00116017,-0.00761068,0.584703,0.00550144,0.015252,1581,1653,6.11654,-13.3198
364,-629,6.10535,13.1836,-0.00135514,-0.00461086,0.00358855,0.00095751,-0.00692351,0.572465,0.00496571,0.0135455,1588,1653,6.10541,-13.1835
371,-629,6.08191,13.0624,-0.00103403,-0.00435438,0.00318981,0.000901774,-0.00629018,0.545457,0.0045241,0.0110703,1595,1653,6.08188,-13.0623
378,-629,6.06653,12.9384,-0.00070763,-0.00401194,0.00284246,0.000927952,-0.00564752,0.522143,0.0041094,0.00998563,1602,1653,6.06657,-12.9383
385,-629,6.07141,12.7993,-0.000454086,-0.00375806,0.00248538,0.000878249,-0.00509039,0.492085,0.00372106,0.0112058,1609,1653,6.07147,-12.7993
392,-629,6.07532,12.6628,-0.000240371,-0.00339836,0.00210125,0.000809028,-0.00444776,0.463182,0.0032684,0.0101701,1616,1653,6.0753,-12.6629
399,-629,6.08862,12.5023,-5.64114e-05,-0.00296447,0.00170215,0.000728202,-0.00374908,0.431926,0.00277416,0.0102811,1623,1653,6.08858,-12.5023
406,-629,6.09888,12.3557,1.31091e-05,-0.00265983,0.00140157,0.000613275,-0.00326,0.404585,0.00240398,0.012947,1630,1653,6.09894,-12.3558
413,-629,6.08533,12.2032,-7.24822e-05,-0.00260123,0.00126403,0.000450994,-0.00312471,0.392631,0.0022486,0.0210908,1637,1653,6.08528,-12.2032
420,-629,6.08752,12.046,-0.000361495,-0.002791,0.00142854,0.000298943,-0.00345144,0.43305,0.0024068,0.0199344,1644,1653,6.08753,-12.0461
427,-629,6.09497,11.9006,-0.000587873,-0.00304764,0.00155521,0.000164994,-0.0038005,0.450841,0.00259042,0.0128275,1651,1653,6.09494,-11.9006
434,-629,6.10144,11.7419,-0.000898302,-0.00351782,0.001707,-5.6478e-05,-0.00435964,0.458161,0.00288779,0.0102484,1658,1653,6.10145,-11.7419
441,-629,6.1167,11.5815,-0.00103602,-0.00253281,0.00143578,-0.000165298,-0.00340354,0.545147,0.00221598,0.0145933,1665,1653,6.11675,-11.5816
448,-629,6.10388,11.42,-0.00103433,-0.000593259,0.000993461,0.000203849,-0.00183144,0.894621,0.00129427,0.0143967,1672,1653,6.10394,-11.4201
455,-629,6.09119,11.2339,-0.00111871,0.000848559,0.000701337,0.00107298,-0.00134314,1.2611,0.00139785,0.0140048,1679,1653,6.09121,-11.2339
462,-629,6.10144,11.0876,-0.00101306,0.0032261,0.000123007,0.00322967,-0.00101663,1.54181,0.00256018,0.0174386,1686,1653,6.10138,-11.0876
469,-629,6.0835,10.9075,-0.000636852,0.00680924,-0.000944252,0.00692712,-0.000754728,-1.4466,0.00488911,0.0201888,1693,1653,6.08353,-10.9074
476,-629,6.13391,10.7618,3.86821e-05,0.0116979,-0.00249052,0.0122076,-0.000471035,-1.36892,0.00829987,0.0260529,1700,1653,6.1339,-10.7619
483,-629,6.27979,10.5734,0.00104669,0.0181216,-0.00460874,0.0192862,-0.000117845,-1.3233,0.0128969,0.0376207,1707,1653,6.2798,-10.5734
490,-629,6.50208,9.70178,0.00232492,0.0261117,-0.00726368,0.0281543,0.000282251,-1.29666,0.0186762,0.0436278,1714,1653,6.50203,-9.70179
497,-629,6.57849,9.50391,0.00419458,0.0348833,-0.0104332,0.0380943,0.000983575,-1.27223,0.0250748,0.0444469,1721,1653,6.57851,-9.50387
504,-629,6.6687,9.32556,0,0,0,0,0,0,0,-1,1728,1653,6.66869,-9.32555
511,-629,6.29138,3.40295,0,0,0,0,0,0,0,-1,1735,1653,6.29137,-3.403
518,-629,5.84387,1.41858,0,0,0,0,0,0,0,-1,1742,1653,5.84391,-1.4186
525,-629,6.4729,1.02319,0,0,0,0,0,0,0,-1,1749,1653,6.47284,-1.02316
532,-629,6.86511,0.903687,0,0,0,0,0,0,0,-1,1756,1653,6.86514,-0.903691
539,-629,6.60803,0.746704,0,0,0,0,0,0,0,-1,1763,1653,6.60809,-0.746691
546,-629,0,0,0,0,0,0,0,0,0,-1,1770,1653,0,0
553,-629,0,0,0,0,0,0,0,0,0,-1,1777,1653,0,0
560,-629,0,0,0,0,0,0,0,0,0,-1,1784,1653,0,0
567,-629,0,0,0,0,0,0,0,0,0,-1,1791,1653,0,0
574,-629,0,0,0,0,0,0,0,0,0,-1,1798,1653,0,0
581,-629,0,0,0,0,0,0,0,0,0,-1,1805,1653,0,0
588,-629,0,0,0,0,0,0,0,0,0,-1,1812,1653,0,0
595,-629,0,0,0,0,0,0,0,0,0,-1,1819,1653,0,0
602,-629,0,0,0,0,0,0,0,0,0,-1,1826,1653,0,0
609,-629,0,0,0,0,0,0,0,0,0,-1,1833,1653,0,0
616,-629,0,0,0,0,0,0,0,0,0,-1,1840,1653,0,0
623,-629,0,0,0,0,0,0,0,0,0,-1,1847,1653,0,0
630,-629,0,0,0,0,0,0,0,0,0,-1,1854,1653,0,0
637,-629,0,0,0,0,0,0,0,0,0,-1,1861,1653,0,0
644,-629,0,0,0,0,0,0,0,0,0,-1,1868,1653,0,0
651,-629,0,0,0,0,0,0,0,0,0,-1,1875,1653,0,0
658,-629,0,0,0,0,0,0,0,0,0,-1,1882,1653,0,0
665,-629,0,0,0,0,0,0,0,0,0,-1,1889,1653,0,0
672,-629,0,0,0,0,0,0,0,0,0,-1,1896,1653,0,0
679,-629,0,0,0,0,0,0,0,0,0,-1,1903,1653,0,0
686,-629,0,0,0,0,0,0,0,0,0,-1,1910,1653,0,0
693,-629,0,0,0,0,0,0,0,0,0,-1,1917,1653,0,0
700,-629,0,0,0,0,0,0,0,0,0,-1,1924,1653,0,0
707,-629,0,0,0,0,0,0,0,0,0,-1,1931,1653,0,0
714,-629,0,0,0,0,0,0,0,0,0,-1,1938,1653,0,0
721,-629,0,0,0,0,0,0,0,0,0,-1,1945,1653,0,0
728,-629,0,0,0,0,0,0,0,0,0,-1,1952,1653,0,0
735,-629,0,0,0,0,0,0,0,0,0,-1,1959,1653,0,0
742,-629,0,0,0,0,0,0,0,0,0,-1,1966,1653,0,0
749,-629,0,0,0,0,0,0,0,0,0,-1,1973,1653,0,0
756,-629,0,0,0,0,0,0,0,0,0,-1,1980,1653,0,0
763,-629,0,0,0,0,0,0,0,0,0,-1,1987,1653,0,0
770,-629,0,0,0,0,0,0,0,0,0,-1,1994,1653,0,0
777,-629,0,0,0,0,0,0,0,0,0,-1,2001,1653,0,0
784,-629,0,0,0,0,0,0,0,0,0,-1,2008,1653,0,0
791,-629,0,0,0,0,0,0,0,0,0,-1,2015,1653,0,0
798,-629,0,0,0,0,0,0,0,0,0,-1,2022,1653,0,0
805,-629,0,0,0,0,0,0,0,0,0,-1,2029,1653,0,0
812,-629,0,0,0,0,0,0,0,0,0,-1,2036,1653,0,0
-700,-636,0,0,0,0,0,0,0,0,0,-1,524,1660,0,0
-693,-636,0,0,0,0,0,0,0,0,0,-1,531,1660,0,0
-686,-636,0,0,0,0,0,0,0,0,0,-1,538,1660,0,0
-679,-636,0,0,0,0,0,0,0,0,0,-1,545,1660,0,0
-672,-636,0,0,0,0,0,0,0,0,0,-1,552,1660,0,0
-665,-636,0,0,0,0,0,0,0,0,0,-1,559,1660,0,0
-658,-636,0,0,0,0,0,0,0,0,0,-1,566,1660,0,0
-651,-636,0,0,0,0,0,0,0,0,0,-1,573,1660,0,0
-644,-636,0,0,0,0,0,0,0,0,0,-1,580,1660,0,0
-637,-636,0,0,0,0,0,0,0,0,0,-1,587,1660,0,0
-630,-636,0,0,0,0,0,0,0,0,0,-1,594,1660,0,0
-623,-636,0,0,0,0,0,0,0,0,0,-1,601,1660,0,0
-616,-636,0,0,0,0,0,0,0,0,0,-1,608,1660,0,0
-609,-636,0,0,0,0,0,0,0,0,0,-1,615,1660,0,0
-602,-636,0,0,0,0,0,0,0,0,0,-1,622,1660,0,0
-595,-636,0,0,0,0,0,0,0,0,0,-1,629,1660,0,0
-588,-636,0,0,0,0,0,0,0,0,0,-1,636,1660,0,0
-581,-636,0,0,0,0,0,0,0,0,0,-1,643,1660,0,0
-574,-636,0,0,0,0,0,0,0,0,0,-1,650,1660,0,0
-567,-636,0,0,0,0,0,0,0,0,0,-1,657,1660,0,0
-560,-636,0,0,0,0,0,0,0,0,0,-1,664,1660,0,0
-553,-636,0,0,0,0,0,0,0,0,0,-1,671,1660,0,0
-546,-636,0,0,0,0,0,0,0,0,0,-1,678,1660,0,0
-539,-636,0,0,0,0,0,0,0,0,0,-1,685,1660,0,0
-532,-636,0,0,0,0,0,0,0,0,0,-1,692,1660,0,0
-525,-636,0,0,0,0,0,0,0,0,0,-1,699,1660,0,0
-518,-636,0,0,0,0,0,0,0,0,0,-1,706,1660,0,0
-511,-636,0,0,0,0,0,0,0,0,0,-1,713,1660,0,0
-504,-636,0,0,0,0,0,0,0,0,0,-1,720,1660,0,0
-497,-636,0,0,0,0,0,0,0,0,0,-1,727,1660,0,0
-490,-636,0,0,0,0,0,0,0,0,0,-1,734,1660,0,0
-483,-636,0,0,0,0,0,0,0,0,0,-1,741,1660,0,0
-476,-636,0,0,0,0,0,0,0,0,0,-1,748,1660,0,0
-469,-636,0,0,0,0,0,0,0,0,0,-1,755,1660,0,0
-462,-636,0,0,0,0,0,0,0,0,0,-1,762,1660,0,0
-455,-636,0,0,0,0,0,0,0,0,0,-1,769,1660,0,0
-448,-636,0,0,0,0,0,0,0,0,0,-1,776,1660,0,0
-441,-636,0,0,0,0,0,0,0,0,0,-1,783,1660,0,0
-434,-636,0,0,0,0,0,0,0,0,0,-1,790,1660,0,0
-427,-636,0,0,0,0,0,0,0,0,0,-1,797,1660,0,0
-420,-636,0,0,0,0,0,0,0,0,0,-1,804,1660,0,0
-413,-636,0,0,0,0,0,0,0,0,0,-1,811,1660,0,0
-406,-636,3.46503,5.84583,0,0,0,0,0,0,0,-1,818,1660,3.46501,-5.84583
-399,-636,3.95544,6.48499,0,0,0,0,0,0,0,-1,825,1660,3.95546,-6.48502
-392,-636,4.35114,7.07495,0,0,0,0,0,0,0,-1,832,1660,4.35115,-7.07492
-385,-636,4.50122,7.78625,0,0,0,0,0,0,0,-1,839,1660,4.50125,-7.78625
-378,-636,4.69403,8.62219,0,0,0,0,0,0,0,-1,846,1660,4.69405,-8.62216
-371,-636,5.07294,9.22888,0,0,0,0,0,0,0,-1,853,1660,5.07297,-9.2289
-364,-636,0.869751,10.2457,0,0,0,0,0,0,0,-1,860,1660,0.869734,-10.2458
-357,-636,1.55328,10.0951,0,0,0,0,0,0,0,-1,867,1660,1.55329,-10.0951
-350,-636,2.65662,9.81079,0,0,0,0,0,0,0,-1,874,1660,2.6566,-9.81073
-343,-636,2.88788,9.91968,0,0,0,0,0,0,0,-1,881,1660,2.88788,-9.91964
-336,-636,2.76947,9.9259,0.00383473,-0.00448627,-0.00079868,0.00391069,-0.00456224,-0.09483,0.00489667,0.0386226,888,1660,2.76948,-9.92596
-329,-636,2.98462,9.99231,0.00267292,-0.00270825,-0.00101663,0.00285858,-0.00289391,-0.180633,0.00332122,0.0193753,895,1660,2.98465,-9.99228
-322,-636,2.97992,10.1669,0.00248535,-0.00163604,-0.000635279,0.00258105,-0.00173174,-0.14952,0.00250603,0.0110823,902,1660,2.9799,-10.1669
-315,-636,2.94739,10.3478,0.00192447,-0.000494681,-0.000506519,0.00202624,-0.000596454,-0.198286,0.00158745,0.0118241,909,1660,2.94738,-10.3477
-308,-636,2.94598,10.5391,0.000943215,0.000136599,-0.000593387,0.00125738,-0.000177564,-0.486922,0.000903277,0.0113116,916,1660,2.946,-10.5391
-301,-636,2.95618,10.7422,0.000298559,0.000715622,-0.000565083,0.00110942,-9.52415e-05,-0.962161,0.00077332,0.0110904,923,1660,2.95615,-10.7422
-294,-636,2.94604,10.9392,0.000247213,0.000806106,-0.000180871,0.000859533,0.000193786,-1.28358,0.000520591,0.0136813,930,1660,2.94606,-10.9392
-287,-636,2.94348,11.0828,0.000382821,0.000615025,0.000185492,0.000717754,0.000280092,1.06503,0.000417711,0.0118394,937,1660,2.94346,-11.0828
-280,-636,2.9549,11.2555,0.000569587,0.000292731,0.00040102,0.000855398,6.91906e-06,0.619207,0.000567973,0.0115196,944,1660,2.95492,-11.2555
-273,-636,2.95233,11.4344,0.000913909,-0.000139319,0.000533766,0.00113711,-0.000362523,0.396071,0.000903495,0.0113785,951,1660,2.95235,-11.4344
-266,-636,2.95337,11.6158,0.00117415,-0.000670863,0.000594622,0.00134919,-0.000845896,0.286275,0.00127839,0.0130446,958,1660,2.95338,-11.6159
-259,-636,2.96405,11.8042,0.00154332,-0.00169233,0.000432387,0.0016001,-0.00174911,0.13058,0.00193431,0.0147016,965,1660,2.96405,-11.8042
-252,-636,2.95715,11.9554,0.00196721,-0.00310862,0.000206579,0.00197561,-0.00311701,0.040609,0.00296474,0.0111268,972,1660,2.95714,-11.9554
-245,-636,2.97046,12.1147,0.00254444,-0.00483869,2.02867e-05,0.0025445,-0.00483875,0.00274768,0.00433078,0.010323,979,1660,2.97045,-12.1148
-238,-636,2.98334,12.2672,0.00338479,-0.00646237,0.000105252,0.00338592,-0.0064635,0.0106869,0.00577835,0.0114187,986,1660,2.98336,-12.2672
-231,-636,2.97443,12.4291,0.00413321,-0.00832144,0.000149747,0.00413501,-0.00832324,0.0120211,0.007327,0.0107404,993,1660,2.97443,-12.429
-224,-636,2.98108,12.5844,0.00517503,-0.0103375,0.000404891,0.00518559,-0.010348,0.0260773,0.00913194,0.00909352,1000,1660,2.98111,-12.5844
-217,-636,2.98987,12.746,0.00637523,-0.0124991,0.000857964,0.00641415,-0.012538,0.0453321,0.0111308,0.0107458,1007,1660,2.9899,-12.7459
-210,-636,2.99249,12.8635,0.00769672,-0.0145484,0.00139662,0.00778406,-0.0146358,0.0624561,0.013144,0.0151509,1014,1660,2.99251,-12.8635
-203,-636,3,12.9966,0.0091738,-0.0163872,0.00210997,0.0093468,-0.0165602,0.0818087,0.0151494,0.0196984,1021,1660,3,-12.9965
-196,-636,3.0918,13.0558,0.0106249,-0.0180316,0.00282613,0.010901,-0.0183076,0.097371,0.0170434,0.0210575,1028,1660,3.09175,-13.0558
-189,-636,3.14038,13.1614,0.0120524,-0.0191467,0.00360673,0.0124639,-0.0195582,0.113608,0.0186386,0.022563,1035,1660,3.14043,-13.1614
-182,-636,3.07922,13.1892,0,0,0,0,0,0,0,-1,1042,1660,3.07918,-13.1892
-175,-636,3.64258,13.3801,0.0148165,-0.0221323,0.00575572,0.0156923,-0.0230081,0.15101,0.0224764,0.0472331,1049,1660,3.64261,-13.3801
-168,-636,3.87402,13.3446,0.0161579,-0.0232022,0.00677718,0.0172921,-0.0243364,0.165824,0.0241487,0.0489996,1056,1660,3.87406,-13.3446
-161,-636,3.94641,13.0084,0,0,0,0,0,0,0,-1,1063,1660,3.94646,-13.0084
-154,-636,3.57996,12.5731,0,0,0,0,0,0,0,-1,1070,1660,3.57998,-12.5731
-147,-636,3.07971,12.1926,0,0,0,0,0,0,0,-1,1077,1660,3.07977,-12.1927
-140,-636,3.1925,14.9642,0,0,0,0,0,0,0,-1,1084,1660,3.1925,-14.9642
-133,-636,3.35303,14.6368,0,0,0,0,0,0,0,-1,1091,1660,3.35299,-14.6368
-126,-636,2.91223,13.5231,0,0,0,0,0,0,0,-1,1098,1660,2.91227,-13.523
-119,-636,1.8667,13.8916,0,0,0,0,0,0,0,-1,1105,1660,1.86668,-13.8916
-112,-636,-1.24963,9.7998,0,0,0,0,0,0,0,-1,1112,1660,-1.24968,-9.79978
-105,-636,3.51624,4.72791,0,0,0,0,0,0,0,-1,1119,1660,3.51618,-4.7279
-98,-636,1.54504,5.11914,0,0,0,0,0,0,0,-1,1126,1660,1.54503,-5.11912
-91,-636,-1.87964,-2.25012,0,0,0,0,0,0,0,-1,1133,1660,-1.87966,2.25016
-84,-636,-2.84143,0.133667,0,0,0,0,0,0,0,-1,1140,1660,-2.84144,-0.133701
-77,-636,-3.57349,2.45935,0,0,0,0,0,0,0,-1,1147,1660,-3.57345,-2.45939
-70,-636,-4.23682,4.82312,0,0,0,0,0,0,0,-1,1154,1660,-4.23681,-4.82307
-63,-636,-2.21033,6.97168,0,0,0,0,0,0,0,-1,1161,1660,-2.21034,-6.97165
-56,-636,-2.51917,8.80359,0,0,0,0,0,0,0,-1,1168,1660,-2.51916,-8.80361
-49,-636,-3.13,10.4113,0,0,0,0,0,0,0,-1,1175,1660,-3.12996,-10.4112
-42,-636,-2.27771,4.90173,0,0,0,0,0,0,0,-1,1182,1660,-2.27775,-4.90173
-35,-636,-2.27698,5.89685,0,0,0,0,0,0,0,-1,1189,1660,-2.27695,-5.89686
-28,-636,-1.70654,4.83936,0,0,0,0,0,0,0,-1,1196,1660,-1.70656,-4.8393
-21,-636,5.125,16.9767,0,0,0,0,0,0,0,-1,1203,1660,5.12505,-16.9767
-14,-636,2.6272,16.7496,0,0,0,0,0,0,0,-1,1210,1660,2.62717,-16.7496
-7,-636,2.88623,17.0049,0,0,0,0,0,0,0,-1,1217,1660,2.88625,-17.0049
0,-636,3.33752,16.2184,0,0,0,0,0,0,0,-1,1224,1660,3.33756,-16.2184
7,-636,3.90601,15.8842,0.0539663,-0.0225167,-0.00569701,0.0543883,-0.0229388,-0.0739435,0.0458591,0.0472342,1231,1660,3.90595,-15.8842
14,-636,4.50439,15.9834,0.0721811,0.00279449,-0.0226723,0.0789324,-0.00395684,-0.289418,0.0539889,0.0448751,1238,1660,4.50435,-15.9834
21,-636,4.95764,15.1063,0,0,0,0,0,0,0,-1,1245,1660,4.95768,-15.1063
28,-636,4.84167,14.5646,0.103384,0.0592729,-0.0586103,0.143951,0.0187056,-0.60544,0.0903798,0.0434507,1252,1660,4.84165,-14.5646
35,-636,5.56689,14.2377,0.11362,0.0864385,-0.0754426,0.176686,0.0233722,-0.696281,0.110825,0.0428083,1259,1660,5.56689,-14.2377
42,-636,6.07324,13.8245,0.119821,0.110275,-0.0889053,0.204081,0.0260146,-0.75858,0.128265,0.0483981,1266,1660,6.07329,-13.8244
49,-636,6.48828,13.4247,0,0,0,0,0,0,0,-1,1273,1660,6.48828,-13.4246
56,-636,8.08337,11.7383,0.123682,0.155408,-0.106652,0.24737,0.0317193,-0.859225,0.155423,0.0445815,1280,1660,8.08343,-11.7383
63,-636,8.83875,10.6912,0.120932,0.173275,-0.111058,0.261204,0.0330035,-0.901115,0.164244,0.0435531,1287,1660,8.8387,-10.6911
70,-636,9.37939,9.87427,0.114564,0.186013,-0.111008,0.266904,0.0336731,-0.941074,0.167841,0.0446238,1294,1660,9.37945,-9.87423
77,-636,9.85059,9.30774,0.102469,0.189778,-0.10506,0.259892,0.0323551,-0.982305,0.163547,0.0478309,1301,1660,9.85061,-9.30773
84,-636,10.6118,8.34448,0.0876682,0.186067,-0.097801,0.246346,0.0273886,-1.01844,0.155905,0.0478738,1308,1660,10.6118,-8.34453
91,-636,11.2109,7.51001,0.0723862,0.171353,-0.087901,0.222742,0.0209975,-1.04176,0.142014,0.0443584,1315,1660,11.211,-7.51005
98,-636,11.8354,6.36609,0.0654569,0.145612,-0.0859957,0.20041,0.0106583,-1.00345,0.1302,0.0475577,1322,1660,11.8354,-6.36612
105,-636,12.6246,5.36438,0,0,0,0,0,0,0,-1,1329,1660,12.6247,-5.36441
112,-636,13.1826,3.98401,0,0,0,0,0,0,0,-1,1336,1660,13.1827,-3.98406
119,-636,13.9907,2.26062,0,0,0,0,0,0,0,-1,1343,1660,13.9907,-2.26059
126,-636,14.631,0.907593,0,0,0,0,0,0,0,-1,1350,1660,14.631,-0.907555
133,-636,12.8777,0.481201,0,0,0,0,0,0,0,-1,1357,1660,12.8777,-0.481197
140,-636,15.8348,-0.980347,0,0,0,0,0,0,0,-1,1364,1660,15.8348,0.980297
147,-636,17.7557,-2.10278,0,0,0,0,0,0,0,-1,1371,1660,17.7557,2.10284
154,-636,19.9594,-3.49597,0,0,0,0,0,0,0,-1,1378,1660,19.9593,3.49595
161,-636,10.2961,7.13025,0,0,0,0,0,0,0,-1,1385,1660,10.2961,-7.13021
168,-636,11.7659,5.83899,0,0,0,0,0,0,0,-1,1392,1660,11.7658,-5.83899
175,-636,5.94592,-1.72888,0,0,0,0,0,0,0,-1,1399,1660,5.94598,1.72886
182,-636,5.93994,-1.11938,0,0,0,0,0,0,0,-1,1406,1660,5.93998,1.11936
189,-636,5.32544,11.9595,0,0,0,0,0,0,0,-1,1413,1660,5.32542,-11.9595
196,-636,5.3623,9.38025,0,0,0,0,0,0,0,-1,1420,1660,5.36225,-9.38027
203,-636,5.18542,9.02429,0,0,0,0,0,0,0,-1,1427,1660,5.18547,-9.0243
210,-636,4.09167,7.17041,0,0,0,0,0,0,0,-1,1434,1660,4.09173,-7.17041
217,-636,2.94897,5.28992,0,0,0,0,0,0,0,-1,1441,1660,2.94899,-5.28991
224,-636,1.49194,3.63916,0,0,0,0,0,0,0,-1,1448,1660,1.49197,-3.63918
231,-636,0.17749,2.24854,0,0,0,0,0,0,0,-1,1455,1660,0.177501,-2.24855
238,-636,-0.764648,1.00598,0,0,0,0,0,0,0,-1,1462,1660,-0.764704,-1.00595
245,-636,6.21204,1.18005,0,0,0,0,0,0,0,-1,1469,1660,6.21206,-1.18001
252,-636,7.70251,0.865723,0,0,0,0,0,0,0,-1,1476,1660,7.7025,-0.865692
259,-636,9.03601,0.787231,0,0,0,0,0,0,0,-1,1483,1660,9.03598,-0.787243
266,-636,10.1071,3.24109,0,0,0,0,0,0,0,-1,1490,1660,10.1071,-3.24103
273,-636,8.48535,5.02466,0,0,0,0,0,0,0,-1,1497,1660,8.48533,-5.02472
280,-636,8.81384,5.66992,0,0,0,0,0,0,0,-1,1504,1660,8.81381,-5.66998
287,-636,6.08606,11.49,0,0,0,0,0,0,0,-1,1511,1660,6.08606,-11.49
294,-636,4.72559,14.4341,0,0,0,0,0,0,0,-1,1518,1660,4.72564,-14.434
301,-636,5.3833,14.269,0,0,0,0,0,0,0,-1,1525,1660,5.38331,-14.2691
308,-636,5.99255,13.9838,0,0,0,0,0,0,0,-1,1532,1660,5.99251,-13.9838
315,-636,5.7146,14.2657,0,0,0,0,0,0,0,-1,1539,1660,5.7146,-14.2657
322,-636,5.8042,13.9994,-0.000224061,-0.00543766,0.00599213,0.00370375,-0.00936547,0.580228,0.00777795,0.0397605,1546,1660,5.80421,-13.9994
329,-636,5.8988,13.793,-0.000640544,-0.00480717,0.00517535,0.00285507,-0.00830278,0.594049,0.00669303,0.0264996,1553,1660,5.89885,-13.793
336,-636,5.93445,13.6689,-0.00114904,-0.0043216,0.00443866,0.00197828,-0.00744892,0.613781,0.00574015,0.0214882,1560,1660,5.93441,-13.669
343,-636,5.91162,13.5931,-0.00121365,-0.00430349,0.00378691,0.00133135,-0.00684849,0.591722,0.00506807,0.0198155,1567,1660,5.91165,-13.5932
350,-636,5.89893,13.4536,-0.000934096,-0.00389228,0.00332757,0.0012283,-0.00605468,0.576264,0.00450209,0.0110704,1574,1660,5.89892,-13.4536
357,-636,5.93152,13.3217,-0.000922436,-0.00352807,0.00304231,0.00108427,-0.00553478,0.583095,0.00409936,0.00979578,1581,1660,5.93154,-13.3217
364,-636,5.93518,13.1841,-0.000857246,-0.00316521,0.00258751,0.000821942,-0.0048444,0.575644,0.00353557,0.0102936,1588,1660,5.93515,-13.1841
371,-636,5.93457,13.0641,-0.000632972,-0.00287962,0.00216544,0.000683166,-0.00419576,0.54613,0.0030505,0.00917783,1595,1660,5.9346,-13.064
378,-636,5.94373,12.9325,-0.000319475,-0.00252109,0.00176092,0.000656401,-0.00349697,0.506051,0.00257812,0.00950119,1602,1660,5.94367,-12.9325
385,-636,5.94971,12.7833,-2.19178e-05,-0.00227735,0.00134547,0.000605936,-0.0029052,0.436608,0.0021672,0.0137535,1609,1660,5.94976,-12.7834
392,-636,5.9491,12.6476,0.000208432,-0.00194274,0.00091834,0.000547142,-0.00228145,0.353349,0.00173239,0.0148627,1616,1660,5.94906,-12.6476
399,-636,5.95129,12.5139,0.000382871,-0.00160611,0.000533403,0.000516889,-0.00174012,0.246155,0.00136539,0.0117758,1623,1660,5.95131,-12.5139
406,-636,5.95459,12.3754,0.000425298,-0.00146918,0.000305571,0.000473365,-0.00151725,0.156026,0.0012008,0.0141104,1630,1660,5.95454,-12.3754
413,-636,5.95703,12.1956,0.000252856,-0.00164738,0.000306273,0.000301,-0.00169553,0.155917,0.00124289,0.0214674,1637,1660,5.95704,-12.1956
420,-636,5.94458,12.0089,-0.000194213,-0.00226074,0.000727836,3.63979e-05,-0.00249135,0.306838,0.00167316,0.0203187,1644,1660,5.94463,-12.0089
427,-636,5.9353,11.8947,-0.000563802,-0.00292324,0.0011077,-0.000125268,-0.00336177,0.376962,0.00220061,0.011999,1651,1660,5.93526,-11.8947
434,-636,5.94226,11.7423,-0.00106665,-0.00386772,0.00155264,-0.000376211,-0.00455816,0.418429,0.00292146,0.0108729,1658,1660,5.94226,-11.7424
441,-636,5.96118,11.5598,-0.0013687,-0.0029848,0.00148364,-0.000487331,-0.00386617,0.536039,0.00243134,0.0119647,1665,1660,5.96121,-11.5598
448,-636,5.9707,11.3901,-0.00152447,-0.00101973,0.00126403,1.68749e-05,-0.00256108,0.88393,0.00171304,0.0141342,1672,1660,5.97072,-11.3901
455,-636,5.95752,11.2128,-0.00180025,0.000550047,0.0012216,0.00106997,-0.00232018,1.16841,0.00200118,0.0148116,1679,1660,5.95755,-11.2128
462,-636,5.89429,11.0468,-0.00184725,0.0033815,0.00081193,0.00350467,-0.00197043,1.42024,0.00320215,0.01929,1686,1660,5.89423,-11.0468
469,-636,5.92542,10.9222,-0.00153335,0.00791278,-0.000273855,0.00792072,-0.00154128,-1.54184,0.00586217,0.0296605,1693,1660,5.92548,-10.9223
476,-636,6.00525,10.8701,-0.000738533,0.0143614,-0.00206876,0.0146397,-0.00101683,-1.43707,0.0101158,0.0453407,1700,1660,6.00527,-10.8701
483,-636,6.05737,10.7642,0,0,0,0,0,0,0,-1,1707,1660,6.05736,-10.7641
490,-636,6.5647,9.12354,0.00251606,0.0343503,-0.00835324,0.036409,0.000457322,-1.32915,0.0241217,0.0498867,1714,1660,6.56467,-9.12353
497,-636,6.59937,8.77576,0.00515235,0.0469119,-0.0127876,0.0505165,0.00154768,-1.29604,0.0331738,0.0493461,1721,1660,6.5994,-8.7758
504,-636,6.81372,8.66333,0,0,0,0,0,0,0,-1,1728,1660,6.81374,-8.66332
511,-636,5.65466,9.23218,0,0,0,0,0,0,0,-1,1735,1660,5.65461,-9.23216
518,-636,6.72791,1.07605,0,0,0,0,0,0,0,-1,1742,1660,6.7279,-1.0761
525,-636,7.04309,0.93335,0,0,0,0,0,0,0,-1,1749,1660,7.04308,-0.933298
532,-636,0,0,0,0,0,0,0,0,0,-1,1756,1660,0,0
539,-636,0,0,0,0,0,0,0,0,0,-1,1763,1660,0,0
546,-636,0,0,0,0,0,0,0,0,0,-1,1770,1660,0,0
553,-636,0,0,0,0,0,0,0,0,0,-1,1777,1660,0,0
560,-636,0,0,0,0,0,0,0,0,0,-1,1784,1660,0,0
567,-636,0,0,0,0,0,0,0,0,0,-1,1791,1660,0,0
574,-636,0,0,0,0,0,0,0,0,0,-1,1798,1660,0,0
581,-636,0,0,0,0,0,0,0,0,0,-1,1805,1660,0,0
588,-636,0,0,0,0,0,0,0,0,0,-1,1812,1660,0,0
595,-636,0,0,0,0,0,0,0,0,0,-1,1819,1660,0,0
602,-636,0,0,0,0,0,0,0,0,0,-1,1826,1660,0,0
609,-636,0,0,0,0,0,0,0,0,0,-1,1833,1660,0,0
616,-636,0,0,0,0,0,0,0,0,0,-1,1840,1660,0,0
623,-636,0,0,0,0,0,0,0,0,0,-1,1847,1660,0,0
630,-636,0,0,0,0,0,0,0,0,0,-1,1854,1660,0,0
637,-636,0,0,0,0,0,0,0,0,0,-1,1861,1660,0,0
644,-636,0,0,0,0,0,0,0,0,0,-1,1868,1660,0,0
651,-636,0,0,0,0,0,0,0,0,0,-1,1875,1660,0,0
658,-636,0,0,0,0,0,0,0,0,0,-1,1882,1660,0,0
665,-636,0,0,0,0,0,0,0,0,0,-1,1889,1660,0,0
672,-636,0,0,0,0,0,0,0,0,0,-1,1896,1660,0,0
679,-636,0,0,0,0,0,0,0,0,0,-1,1903,1660,0,0
686,-636,0,0,0,0,0,0,0,0,0,-1,1910,1660,0,0
693,-636,0,0,0,0,0,0,0,0,0,-1,1917,1660,0,0
700,-636,0,0,0,0,0,0,0,0,0,-1,1924,1660,0,0
707,-636,0,0,0,0,0,0,0,0,0,-1,1931,1660,0,0
714,-636,0,0,0,0,0,0,0,0,0,-1,1938,1660,0,0
721,-636,0,0,0,0,0,0,0,0,0,-1,1945,1660,0,0
728,-636,0,0,0,0,0,0,0,0,0,-1,1952,1660,0,0
735,-636,0,0,0,0,0,0,0,0,0,-1,1959,1660,0,0
742,-636,0,0,0,0,0,0,0,0,0,-1,1966,1660,0,0
749,-636,0,0,0,0,0,0,0,0,0,-1,1973,1660,0,0
756,-636,0,0,0,0,0,0,0,0,0,-1,1980,1660,0,0
763,-636,0,0,0,0,0,0,0,0,0,-1,1987,1660,0,0
770,-636,0,0,0,0,0,0,0,0,0,-1,1994,1660,0,0
777,-636,0,0,0,0,0,0,0,0,0,-1,2001,1660,0,0
784,-636,0,0,0,0,0,0,0,0,0,-1,2008,1660,0,0
791,-636,0,0,0,0,0,0,0,0,0,-1,2015,1660,0,0
798,-636,0,0,0,0,0,0,0,0,0,-1,2022,1660,0,0
805,-636,0,0,0,0,0,0,0,0,0,-1,2029,1660,0,0
812,-636,0,0,0,0,0,0,0,0,0,-1,2036,1660,0,0
-700,-643,0,0,0,0,0,0,0,0,0,-1,524,1667,0,0
-693,-643,0,0,0,0,0,0,0,0,0,-1,531,1667,0,0
-686,-643,0,0,0,0,0,0,0,0,0,-1,538,1667,0,0
-679,-643,0,0,0,0,0,0,0,0,0,-1,545,1667,0,0
-672,-643,0,0,0,0,0,0,0,0,0,-1,552,1667,0,0
-665,-643,0,0,0,0,0,0,0,0,0,-1,559,1667,0,0
-658,-643,0,0,0,0,0,0,0,0,0,-1,566,1667,0,0
-651,-643,0,0,0,0,0,0,0,0,0,-1,573,1667,0,0
-644,-643,0,0,0,0,0,0,0,0,0,-1,580,1667,0,0
-637,-643,0,0,0,0,0,0,0,0,0,-1,587,1667,0,0
-630,-643,0,0,0,0,0,0,0,0,0,-1,594,1667,0,0
-623,-643,0,0,0,0,0,0,0,0,0,-1,601,1667,0,0
-616,-643,0,0,0,0,0,0,0,0,0,-1,608,1667,0,0
-609,-643,0,0,0,0,0,0,0,0,0,-1,615,1667,0,0
-602,-643,0,0,0,0,0,0,0,0,0,-1,622,1667,0,0
-595,-643,0,0,0,0,0,0,0,0,0,-1,629,1667,0,0
-588,-643,0,0,0,0,0,0,0,0,0,-1,636,1667,0,0
-581,-643,0,0,0,0,0,0,0,0,0,-1,643,1667,0,0
-574,-643,0,0,0,0,0,0,0,0,0,-1,650,1667,0,0
-567,-643,0,0,0,0,0,0,0,0,0,-1,657,1667,0,0
-560,-643,0,0,0,0,0,0,0,0,0,-1,664,1667,0,0
-553,-643,0,0,0,0,0,0,0,0,0,-1,671,1667,0,0
-546,-643,0,0,0,0,0,0,0,0,0,-1,678,1667,0,0
-539,-643,0,0,0,0,0,0,0,0,0,-1,685,1667,0,0
-532,-643,0,0,0,0,0,0,0,0,0,-1,692,1667,0,0
-525,-643,0,0,0,0,0,0,0,0,0,-1,699,1667,0,0
-518,-643,0,0,0,0,0,0,0,0,0,-1,706,1667,0,0
-511,-643,0,0,0,0,0,0,0,0,0,-1,713,1667,0,0
-504,-643,0,0,0,0,0,0,0,0,0,-1,720,1667,0,0
-497,-643,0,0,0,0,0,0,0,0,0,-1,727,1667,0,0
-490,-643,0,0,0,0,0,0,0,0,0,-1,734,1667,0,0
-483,-643,0,0,0,0,0,0,0,0,0,-1,741,1667,0,0
-476,-643,0,0,0,0,0,0,0,0,0,-1,748,1667,0,0
-469,-643,0,0,0,0,0,0,0,0,0,-1,755,1667,0,0
-462,-643,0,0,0,0,0,0,0,0,0,-1,762,1667,0,0
-455,-643,0,0,0,0,0,0,0,0,0,-1,769,1667,0,0
-448,-643,0,0,0,0,0,0,0,0,0,-1,776,1667,0,0
-441,-643,0,0,0,0,0,0,0,0,0,-1,783,1667,0,0
-434,-643,0,0,0,0,0,0,0,0,0,-1,790,1667,0,0
-427,-643,0,0,0,0,0,0,0,0,0,-1,797,1667,0,0
-420,-643,0,0,0,0,0,0,0,0,0,-1,804,1667,0,0
-413,-643,0,0,0,0,0,0,0,0,0,-1,811,1667,0,0
-406,-643,0,0,0,0,0,0,0,0,0,-1,818,1667,0,0
-399,-643,4.40393,6.401,0,0,0,0,0,0,0,-1,825,1667,4.40396,-6.40101
-392,-643,4.9093,7.02441,0,0,0,0,0,0,0,-1,832,1667,4.90932,-7.02443
-385,-643,4.9585,7.77661,0,0,0,0,0,0,0,-1,839,1667,4.95849,-7.77664
-378,-643,4.92444,8.92029,0,0,0,0,0,0,0,-1,846,1667,4.92446,-8.92025
-371,-643,0.5849,3.26428,0,0,0,0,0,0,0,-1,853,1667,0.584909,-3.26426
-364,-643,1.69513,9.922,0,0,0,0,0,0,0,-1,860,1667,1.69511,-9.92205
-357,-643,1.14227,10.8429,0,0,0,0,0,0,0,-1,867,1667,1.14228,-10.8429
-350,-643,2.50061,9.96948,0,0,0,0,0,0,0,-1,874,1667,2.50059,-9.96954
-343,-643,2.61505,6.17407,0,0,0,0,0,0,0,-1,881,1667,2.61504,-6.17412
-336,-643,2.78107,10.0398,0,0,0,0,0,0,0,-1,888,1667,2.78105,-10.0398
-329,-643,3.25488,10.0665,0.00366746,-0.00270052,-0.00170494,0.0040952,-0.00312826,-0.245811,0.00418291,0.0390384,895,1667,3.2549,-10.0665
-322,-643,3.17749,10.1869,0.00301259,-0.00151607,-0.000963289,0.00320897,-0.00171246,-0.201113,0.00288484,0.0242035,902,1667,3.17751,-10.1869
-315,-643,3.12219,10.3804,0.00216534,-0.000235906,-0.000521528,0.00227372,-0.000344285,-0.204895,0.00164265,0.0158977,909,1667,3.12222,-10.3803
-308,-643,3.12823,10.5382,0.00100704,0.000466898,-0.000294132,0.00113628,0.000337655,-0.414009,0.000673788,0.0120621,916,1667,3.12826,-10.5382
-301,-643,3.12964,10.7238,0.000254928,0.00106863,-1.97714e-05,0.00106911,0.000254448,-1.54652,0.000644882,0.0133297,923,1667,3.12962,-10.7238
-294,-643,3.11835,10.9089,0.000144001,0.00120162,0.000567864,0.00144876,-0.000103147,1.1603,0.001002,0.0124753,930,1667,3.11832,-10.9089
-287,-643,3.11481,11.0809,0.000270025,0.00103076,0.00105325,0.00177021,-0.000469432,0.958679,0.00136382,0.0105401,937,1667,3.11481,-11.0809
-280,-643,3.11499,11.2666,0.000429931,0.000762615,0.00130144,0.0019083,-0.000715755,0.84896,0.00156628,0.0143459,944,1667,3.11501,-11.2666
-273,-643,3.11578,11.4342,0.000745376,0.00041343,0.00141192,0.00200104,-0.000842237,0.726891,0.0016864,0.0116756,951,1667,3.11578,-11.4343
-266,-643,3.1178,11.6123,0.000936727,1.2894e-06,0.00143675,0.00197997,-0.00104196,0.628038,0.00177251,0.0114675,958,1667,3.11777,-11.6123
-259,-643,3.13416,11.7804,0.00127124,-0.000812106,0.00124743,0.00185473,-0.0013956,0.437521,0.00188281,0.011147,965,1667,3.13416,-11.7804
-252,-643,3.13715,11.9583,0.00165506,-0.00184539,0.000902576,0.00187408,-0.00206441,0.238061,0.00227477,0.0119448,972,1667,3.13715,-11.9582
-245,-643,3.1358,12.1294,0.00205776,-0.00311341,0.000526001,0.00211072,-0.00316638,0.100348,0.00306699,0.0107997,979,1667,3.13583,-12.1294
-238,-643,3.15955,12.2777,0.00255212,-0.00440914,0.000321071,0.00256689,-0.00442391,0.0459924,0.00408333,0.0137767,986,1667,3.15954,-12.2777
-231,-643,3.13696,12.4364,0.0030185,-0.00580157,0.000187704,0.00302249,-0.00580557,0.0212686,0.00518062,0.0106637,993,1667,3.13695,-12.4364
-224,-643,3.12988,12.5757,0.00377803,-0.00729002,0.000236852,0.0037831,-0.00729509,0.0213865,0.00650225,0.00975805,1000,1667,3.12989,-12.5756
-217,-643,3.13141,12.7003,0.00460353,-0.00894537,0.000430396,0.00461719,-0.00895903,0.0317235,0.00797073,0.00903755,1007,1667,3.13141,-12.7003
-210,-643,3.13898,12.8652,0.00547819,-0.0105469,0.000716267,0.00551014,-0.0105788,0.0445782,0.00944137,0.0112414,1014,1667,3.13895,-12.8652
-203,-643,3.1543,13.0319,0.00650112,-0.0119665,0.00114561,0.00657192,-0.0120373,0.0617178,0.0108974,0.0125723,1021,1667,3.15428,-13.0319
-196,-643,3.16626,13.1564,0.00752023,-0.0132533,0.00158743,0.00764083,-0.0133739,0.0758292,0.0122824,0.0126628,1028,1667,3.16623,-13.1564
-189,-643,3.21448,13.2839,0.00850493,-0.0141371,0.00204005,0.00868727,-0.0143194,0.0891436,0.0134149,0.0127669,1035,1667,3.21447,-13.284
-182,-643,3.2865,13.408,0.00949554,-0.0155594,0.00270839,0.00978497,-0.0158488,0.10646,0.014937,0.0195988,1042,1667,3.28648,-13.408
-175,-643,3.40076,13.4666,0.0104707,-0.0167177,0.00344922,0.0109014,-0.0171485,0.124242,0.0163279,0.0330855,1049,1667,3.40081,-13.4666
-168,-643,3.54614,13.4673,0.0114652,-0.0176756,0.00412032,0.0120366,-0.018247,0.137796,0.0176064,0.0412258,1056,1667,3.54613,-13.4672
-161,-643,4.08911,12.9924,0,0,0,0,0,0,0,-1,1063,1667,4.08906,-12.9924
-154,-643,3.07117,13.5233,0,0,0,0,0,0,0,-1,1070,1667,3.07116,-13.5233
-147,-643,2.8689,13.2521,0,0,0,0,0,0,0,-1,1077,1667,2.86891,-13.2521
-140,-643,3.4209,12.7894,0,0,0,0,0,0,0,-1,1084,1667,3.42093,-12.7895
-133,-643,3.65051,13.0359,0,0,0,0,0,0,0,-1,1091,1667,3.65053,-13.0359
-126,-643,3.62036,13.7483,0,0,0,0,0,0,0,-1,1098,1667,3.6204,-13.7483
-119,-643,3.76282,14.1458,0,0,0,0,0,0,0,-1,1105,1667,3.76283,-14.1458
-112,-643,3.81458,16.2069,0,0,0,0,0,0,0,-1,1112,1667,3.81463,-16.2069
-105,-643,-2.23413,10.0996,0,0,0,0,0,0,0,-1,1119,1667,-2.23415,-10.0996
-98,-643,3.11035,4.68066,0,0,0,0,0,0,0,-1,1126,1667,3.11041,-4.68071
-91,-643,-1.74146,-2.5885,0,0,0,0,0,0,0,-1,1133,1667,-1.74146,2.58856
-84,-643,-3.07446,-0.199341,0,0,0,0,0,0,0,-1,1140,1667,-3.07449,0.199383
-77,-643,-3.63794,2.81165,0,0,0,0,0,0,0,-1,1147,1667,-3.63791,-2.8117
-70,-643,-3.36938,4.45203,0,0,0,0,0,0,0,-1,1154,1667,-3.36941,-4.452
-63,-643,-3.67822,6.26855,0,0,0,0,0,0,0,-1,1161,1667,-3.67823,-6.26856
-56,-643,-3.95142,8.1073,0,0,0,0,0,0,0,-1,1168,1667,-3.95139,-8.10732
-49,-643,-4.23535,9.90552,0,0,0,0,0,0,0,-1,1175,1667,-4.23537,-9.90557
-42,-643,-4.25195,10.7059,0,0,0,0,0,0,0,-1,1182,1667,-4.25192,-10.706
-35,-643,-4.10986,11.6588,0,0,0,0,0,0,0,-1,1189,1667,-4.10982,-11.6589
-28,-643,-1.38513,5.604,0,0,0,0,0,0,0,-1,1196,1667,-1.3851,-5.60403
-21,-643,3.87097,18.0372,0,0,0,0,0,0,0,-1,1203,1667,3.87098,-18.0373
-14,-643,4.43274,12.7109,0,0,0,0,0,0,0,-1,1210,1667,4.43272,-12.7109
-7,-643,5.33911,12.9927,0,0,0,0,0,0,0,-1,1217,1667,5.33907,-12.9927
0,-643,3.62256,16.1774,0,0,0,0,0,0,0,-1,1224,1667,3.62254,-16.1773
7,-643,4.0791,15.7548,0.0544341,-0.00648323,-0.0119376,0.0566899,-0.00873904,-0.186764,0.0410178,0.0447242,1231,1667,4.07907,-15.7547
14,-643,4.55762,15.358,0.071409,0.0180965,-0.0280849,0.0834738,0.00603176,-0.405746,0.0537515,0.0455119,1238,1667,4.55764,-15.3581
21,-643,5.02051,14.8975,0.0870888,0.0435915,-0.0440099,0.114431,0.0162496,-0.55591,0.0714888,0.0470964,1245,1667,5.02056,-14.8974
28,-643,5.43469,14.4131,0.100045,0.0708846,-0.0602449,0.147449,0.0234808,-0.666672,0.0914826,0.0441506,1252,1667,5.43467,-14.4131
35,-643,5.85559,13.969,0.109216,0.0950831,-0.0730938,0.175584,0.0287152,-0.737208,0.108756,0.0409078,1259,1667,5.85559,-13.969
42,-643,6.30029,13.5665,0,0,0,0,0,0,0,-1,1266,1667,6.30027,-13.5666
49,-643,8.65881,11.1083,0.118653,0.138463,-0.089288,0.218394,0.0387222,-0.840639,0.134559,0.0470458,1273,1667,8.65886,-11.1083
56,-643,9.20471,10.251,0.118562,0.15697,-0.0923743,0.232115,0.0434164,-0.887885,0.142493,0.0435648,1280,1667,9.20473,-10.251
63,-643,9.75354,9.18481,0.115934,0.17233,-0.0933674,0.241665,0.0465997,-0.932048,0.148042,0.0424451,1287,1667,9.7536,-9.18483
70,-643,9.89783,8.49585,0.109214,0.182891,-0.0905925,0.243849,0.0482563,-0.978507,0.149106,0.0441798,1294,1667,9.89783,-8.49589
77,-643,10.3402,7.99084,0.098023,0.186263,-0.0833731,0.23647,0.0478156,-1.02876,0.144372,0.045215,1301,1667,10.3403,-7.99089
84,-643,10.7076,7.58435,0.0845353,0.18367,-0.0751704,0.224144,0.0440609,-1.07688,0.137123,0.047966,1308,1667,10.7077,-7.5844
91,-643,10.9717,6.88538,0.0709866,0.17288,-0.0670549,0.206147,0.0377198,-1.11026,0.126743,0.0495214,1315,1667,10.9717,-6.88541
98,-643,11.1514,6.10669,0,0,0,0,0,0,0,-1,1322,1667,11.1514,-6.10664
105,-643,2.94421,16.9114,0,0,0,0,0,0,0,-1,1329,1667,2.94418,-16.9114
112,-643,14.0306,2.927,0,0,0,0,0,0,0,-1,1336,1667,14.0306,-2.92701
119,-643,14.6493,1.36938,0,0,0,0,0,0,0,-1,1343,1667,14.6493,-1.36937
126,-643,1.54919,16.9304,0,0,0,0,0,0,0,-1,1350,1667,1.54917,-16.9305
133,-643,15.4547,-0.287109,0,0,0,0,0,0,0,-1,1357,1667,15.4547,0.287069
140,-643,17.0258,-1.49182,0,0,0,0,0,0,0,-1,1364,1667,17.0258,1.49177
147,-643,18.5807,-2.65759,0,0,0,0,0,0,0,-1,1371,1667,18.5806,2.65754
154,-643,2.53992,13.4635,0,0,0,0,0,0,0,-1,1378,1667,2.53993,-13.4636
161,-643,12.2321,5.97412,0,0,0,0,0,0,0,-1,1385,1667,12.232,-5.97411
168,-643,10.5563,10.9818,0,0,0,0,0,0,0,-1,1392,1667,10.5562,-10.9819
175,-643,5.88525,-1.1698,0,0,0,0,0,0,0,-1,1399,1667,5.88526,1.16977
182,-643,5.80945,-0.418701,0,0,0,0,0,0,0,-1,1406,1667,5.80949,0.418712
189,-643,5.42297,12.9208,0,0,0,0,0,0,0,-1,1413,1667,5.42298,-12.9208
196,-643,5.51953,11.2415,0,0,0,0,0,0,0,-1,1420,1667,5.51948,-11.2414
203,-643,5.60828,9.82153,0,0,0,0,0,0,0,-1,1427,1667,5.60833,-9.82148
210,-643,4.73218,7.58728,0,0,0,0,0,0,0,-1,1434,1667,4.73222,-7.58728
217,-643,3.8031,5.28955,0,0,0,0,0,0,0,-1,1441,1667,3.80305,-5.28955
224,-643,2.96436,2.97095,0,0,0,0,0,0,0,-1,1448,1667,2.96432,-2.97095
231,-643,2.13403,1.08472,0,0,0,0,0,0,0,-1,1455,1667,2.13403,-1.08467
238,-643,1.18152,-0.261963,0,0,0,0,0,0,0,-1,1462,1667,1.18152,0.26192
245,-643,-0.157471,-1.79016,0,0,0,0,0,0,0,-1,1469,1667,-0.157517,1.7901
252,-643,8.08789,0.0202637,0,0,0,0,0,0,0,-1,1476,1667,8.08791,-0.0203056
259,-643,9.02979,-0.46936,0,0,0,0,0,0,0,-1,1483,1667,9.02974,0.46933
266,-643,4.55066,5.17554,0,0,0,0,0,0,0,-1,1490,1667,4.55063,-5.17556
273,-643,4.34363,6.56836,0,0,0,0,0,0,0,-1,1497,1667,4.34363,-6.5684
280,-643,5.75854,14.5217,0,0,0,0,0,0,0,-1,1504,1667,5.75854,-14.5218
287,-643,6.42505,14.7728,0,0,0,0,0,0,0,-1,1511,1667,6.42503,-14.7729
294,-643,5.43542,14.1915,0,0,0,0,0,0,0,-1,1518,1667,5.43541,-14.1915
301,-643,5.52002,14.0936,0.00290807,-0.00566174,0.00727336,0.00706486,-0.00981853,0.519207,0.00979075,0.0410152,1525,1667,5.51997,-14.0937
308,-643,5.76208,13.9978,0.0018528,-0.00515235,0.00625499,0.00551911,-0.00881866,0.530167,0.00835066,0.0379052,1532,1667,5.76205,-13.9978
315,-643,5.75696,14.0442,0.000995081,-0.00470329,0.0053675,0.00422273,-0.00793094,0.541398,0.00712496,0.0286994,1539,1667,5.75694,-14.0442
322,-643,5.7439,13.9434,0.000345499,-0.00413719,0.00467522,0.00328888,-0.00708057,0.561878,0.00611876,0.0155373,1546,1667,5.74385,-13.9433
329,-643,5.74255,13.8029,-1.71723e-05,-0.00355144,0.00399428,0.00258342,-0.00615203,0.577133,0.00518179,0.0114868,1553,1667,5.74258,-13.8028
336,-643,5.72937,13.7279,-0.000492633,-0.00314504,0.00337251,0.00180506,-0.00544273,0.598066,0.00435665,0.0106766,1560,1667,5.72941,-13.7279
343,-643,5.74756,13.6316,-0.000602918,-0.00304101,0.00278733,0.00122028,-0.00486421,0.579254,0.00371695,0.0131557,1567,1667,5.74755,-13.6316
350,-643,5.77112,13.4862,-0.000438371,-0.00267552,0.00235798,0.00105289,-0.00416679,0.563927,0.00318733,0.0124075,1574,1667,5.77111,-13.4862
357,-643,5.78601,13.3405,-0.000458549,-0.00235286,0.00204443,0.000847471,-0.00365888,0.568475,0.00276537,0.0103737,1581,1667,5.78604,-13.3404
364,-643,5.79578,13.1957,-0.000405037,-0.00205136,0.00158273,0.00055579,-0.00301219,0.545602,0.00221674,0.00897644,1588,1667,5.79579,-13.1956
371,-643,5.79895,13.0781,-0.000212344,-0.0018289,0.00114341,0.00037963,-0.00242087,0.477727,0.0017542,0.00740872,1595,1667,5.79895,-13.0781
378,-643,5.8031,12.9504,6.64109e-05,-0.00153009,0.000711568,0.000337521,-0.0018012,0.364024,0.00132769,0.00941338,1602,1667,5.80309,-12.9505
385,-643,5.82007,12.791,0.000387333,-0.00138093,0.000259941,0.000424754,-0.00141835,0.142975,0.00111446,0.0149368,1609,1667,5.82011,-12.7911
392,-643,5.82166,12.6368,0.000616454,-0.00110888,-0.000188477,0.000636803,-0.00112923,-0.107551,0.00103275,0.0157075,1616,1667,5.82168,-12.6369
399,-643,5.8147,12.5242,0.000761734,-0.000864907,-0.000547135,0.000928642,-0.00103181,-0.29609,0.00113239,0.0142024,1623,1667,5.81471,-12.5241
406,-643,5.80457,12.3571,0.000756061,-0.000858423,-0.000697432,0.00101561,-0.00111798,-0.356274,0.0012323,0.0136238,1630,1667,5.80456,-12.357
413,-643,5.80933,12.1825,0.000472569,-0.00121556,-0.000556487,0.000639505,-0.0013825,-0.29144,0.00119339,0.0187255,1637,1667,5.80935,-12.1825
420,-643,5.776,12.0443,-0.000164296,-0.00219262,0.000129784,-0.000156026,-0.00220089,0.0636397,0.00141812,0.0167602,1644,1667,5.77605,-12.0443
427,-643,5.79749,11.8928,-0.000706851,-0.00320473,0.000791751,-0.000477034,-0.00343454,0.282501,0.00214841,0.0135749,1651,1667,5.79754,-11.8929
434,-643,5.80847,11.7405,-0.00143558,-0.00460975,0.00160353,-0.000766529,-0.0052788,0.395275,0.00329356,0.0151005,1658,1667,5.80842,-11.7405
441,-643,5.81702,11.5557,-0.00192785,-0.00388186,0.00178562,-0.000869419,-0.00494028,0.535071,0.00304537,0.0151123,1665,1667,5.81702,-11.5557
448,-643,5.80383,11.3654,-0.00226562,-0.00190475,0.00183857,-0.000237784,-0.00393259,0.834311,0.00254617,0.0195396,1672,1667,5.80387,-11.3654
455,-643,5.71826,11.3071,-0.00278416,-0.000202975,0.00213635,0.00100235,-0.00398949,1.05712,0.0030492,0.0272938,1679,1667,5.71825,-11.3071
462,-643,5.52417,11.2566,-0.00301344,0.00314505,0.0019658,0.00371904,-0.00358743,1.28671,0.00421862,0.0350934,1686,1667,5.52411,-11.2566
469,-643,5.33228,11.2676,-0.00279518,0.00876738,0.000914289,0.00883923,-0.00286703,1.49237,0.0070457,0.0404479,1693,1667,5.33231,-11.2676
476,-643,5.88672,10.9308,0,0,0,0,0,0,0,-1,1700,1667,5.88671,-10.9308
483,-643,6.36401,8.95813,0,0,0,0,0,0,0,-1,1707,1667,6.36406,-8.95816
490,-643,6.39209,8.3501,0.00230006,0.0437644,-0.00905213,0.0456544,0.000410032,-1.36496,0.0303005,0.0449815,1714,1667,6.39207,-8.35006
497,-643,6.56104,8.01416,0.00598623,0.0613409,-0.0151961,0.0652382,0.00208893,-1.31974,0.0428128,0.0463646,1721,1667,6.56106,-8.01413
504,-643,6.76794,7.901,0,0,0,0,0,0,0,-1,1728,1667,6.76795,-7.90101
511,-643,6.32056,9.37439,0,0,0,0,0,0,0,-1,1735,1667,6.32061,-9.37435
518,-643,7.40564,0.922607,0,0,0,0,0,0,0,-1,1742,1667,7.4057,-0.922598
525,-643,0,0,0,0,0,0,0,0,0,-1,1749,1667,0,0
532,-643,0,0,0,0,0,0,0,0,0,-1,1756,1667,0,0
539,-643,0,0,0,0,0,0,0,0,0,-1,1763,1667,0,0
546,-643,0,0,0,0,0,0,0,0,0,-1,1770,1667,0,0
553,-643,0,0,0,0,0,0,0,0,0,-1,1777,1667,0,0
560,-643,0,0,0,0,0,0,0,0,0,-1,1784,1667,0,0
567,-643,0,0,0,0,0,0,0,0,0,-1,1791,1667,0,0
574,-643,0,0,0,0,0,0,0,0,0,-1,1798,1667,0,0
581,-643,0,0,0,0,0,0,0,0,0,-1,1805,1667,0,0
588,-643,0,0,0,0,0,0,0,0,0,-1,1812,1667,0,0
595,-643,0,0,0,0,0,0,0,0,0,-1,1819,1667,0,0
602,-643,0,0,0,0,0,0,0,0,0,-1,1826,1667,0,0
609,-643,0,0,0,0,0,0,0,0,0,-1,1833,1667,0,0
616,-643,0,0,0,0,0,0,0,0,0,-1,1840,1667,0,0
623,-643,0,0,0,0,0,0,0,0,0,-1,1847,1667,0,0
630,-643,0,0,0,0,0,0,0,0,0,-1,1854,1667,0,0
637,-643,0,0,0,0,0,0,0,0,0,-1,1861,1667,0,0
644,-643,0,0,0,0,0,0,0,0,0,-1,1868,1667,0,0
651,-643,0,0,0,0,0,0,0,0,0,-1,1875,1667,0,0
658,-643,0,0,0,0,0,0,0,0,0,-1,1882,1667,0,0
665,-643,0,0,0,0,0,0,0,0,0,-1,1889,1667,0,0
672,-643,0,0,0,0,0,0,0,0,0,-1,1896,1667,0,0
679,-643,0,0,0,0,0,0,0,0,0,-1,1903,1667,0,0
686,-643,0,0,0,0,0,0,0,0,0,-1,1910,1667,0,0
693,-643,0,0,0,0,0,0,0,0,0,-1,1917,1667,0,0
700,-643,0,0,0,0,0,0,0,0,0,-1,1924,1667,0,0
707,-643,0,0,0,0,0,0,0,0,0,-1,1931,1667,0,0
714,-643,0,0,0,0,0,0,0,0,0,-1,1938,1667,0,0
721,-643,0,0,0,0,0,0,0,0,0,-1,1945,1667,0,0
728,-643,0,0,0,0,0,0,0,0,0,-1,1952,1667,0,0
735,-643,0,0,0,0,0,0,0,0,0,-1,1959,1667,0,0
742,-643,0,0,0,0,0,0,0,0,0,-1,1966,1667,0,0
749,-643,0,0,0,0,0,0,0,0,0,-1,1973,1667,0,0
756,-643,0,0,0,0,0,0,0,0,0,-1,1980,1667,0,0
763,-643,0,0,0,0,0,0,0,0,0,-1,1987,1667,0,0
770,-643,0,0,0,0,0,0,0,0,0,-1,1994,1667,0,0
777,-643,0,0,0,0,0,0,0,0,0,-1,2001,1667,0,0
784,-643,0,0,0,0,0,0,0,0,0,-1,2008,1667,0,0
791,-643,0,0,0,0,0,0,0,0,0,-1,2015,1667,0,0
798,-643,0,0,0,0,0,0,0,0,0,-1,2022,1667,0,0
805,-643,0,0,0,0,0,0,0,0,0,-1,2029,1667,0,0
812,-643,0,0,0,0,0,0,0,0,0,-1,2036,1667,0,0
-700,-650,0,0,0,0,0,0,0,0,0,-1,524,1674,0,0
-693,-650,0,0,0,0,0,0,0,0,0,-1,531,1674,0,0
-686,-650,0,0,0,0,0,0,0,0,0,-1,538,1674,0,0
-679,-650,0,0,0,0,0,0,0,0,0,-1,545,1674,0,0
-672,-650,0,0,0,0,0,0,0,0,0,-1,552,1674,0,0
-665,-650,0,0,0,0,0,0,0,0,0,-1,559,1674,0,0
-658,-650,0,0,0,0,0,0,0,0,0,-1,566,1674,0,0
-651,-650,0,0,0,0,0,0,0,0,0,-1,573,1674,0,0
-644,-650,0,0,0,0,0,0,0,0,0,-1,580,1674,0,0
-637,-650,0,0,0,0,0,0,0,0,0,-1,587,1674,0,0
-630,-650,0,0,0,0,0,0,0,0,0,-1,594,1674,0,0
-623,-650,0,0,0,0,0,0,0,0,0,-1,601,1674,0,0
-616,-650,0,0,0,0,0,0,0,0,0,-1,608,1674,0,0
-609,-650,0,0,0,0,0,0,0,0,0,-1,615,1674,0,0
-602,-650,0,0,0,0,0,0,0,0,0,-1,622,1674,0,0
-595,-650,0,0,0,0,0,0,0,0,0,-1,629,1674,0,0
-588,-650,0,0,0,0,0,0,0,0,0,-1,636,1674,0,0
-581,-650,0,0,0,0,0,0,0,0,0,-1,643,1674,0,0
-574,-650,0,0,0,0,0,0,0,0,0,-1,650,1674,0,0
-567,-650,0,0,0,0,0,0,0,0,0,-1,657,1674,0,0
-560,-650,0,0,0,0,0,0,0,0,0,-1,664,1674,0,0
-553,-650,0,0,0,0,0,0,0,0,0,-1,671,1674,0,0
-546,-650,0,0,0,0,0,0,0,0,0,-1,678,1674,0,0
-539,-650,0,0,0,0,0,0,0,0,0,-1,685,1674,0,0
-532,-650,0,0,0,0,0,0,0,0,0,-1,692,1674,0,0
-525,-650,0,0,0,0,0,0,0,0,0,-1,699,1674,0,0
-518,-650,0,0,0,0,0,0,0,0,0,-1,706,1674,0,0
-511,-650,0,0,0,0,0,0,0,0,0,-1,713,1674,0,0
-504,-650,0,0,0,0,0,0,0,0,0,-1,720,1674,0,0
-497,-650,0,0,0,0,0,0,0,0,0,-1,727,1674,0,0
-490,-650,0,0,0,0,0,0,0,0,0,-1,734,1674,0,0
-483,-650,0,0,0,0,0,0,0,0,0,-1,741,1674,0,0
-476,-650,0,0,0,0,0,0,0,0,0,-1,748,1674,0,0
-469,-650,0,0,0,0,0,0,0,0,0,-1,755,1674,0,0
-462,-650,0,0,0,0,0,0,0,0,0,-1,762,1674,0,0
-455,-650,0,0,0,0,0,0,0,0,0,-1,769,1674,0,0
-448,-650,0,0,0,0,0,0,0,0,0,-1,776,1674,0,0
-441,-650,0,0,0,0,0,0,0,0,0,-1,783,1674,0,0
-434,-650,0,0,0,0,0,0,0,0,0,-1,790,1674,0,0
-427,-650,0,0,0,0,0,0,0,0,0,-1,797,1674,0,0
-420,-650,0,0,0,0,0,0,0,0,0,-1,804,1674,0,0
-413,-650,0,0,0,0,0,0,0,0,0,-1,811,1674,0,0
-406,-650,0,0,0,0,0,0,0,0,0,-1,818,1674,0,0
-399,-650,0,0,0,0,0,0,0,0,0,-1,825,1674,0,0
-392,-650,5.44415,6.85669,0,0,0,0,0,0,0,-1,832,1674,5.44414,-6.85674
-385,-650,8.7821,8.6189,0,0,0,0,0,0,0,-1,839,1674,8.78213,-8.61893
-378,-650,0.997986,4.11108,0,0,0,0,0,0,0,-1,846,1674,0.998006,-4.11113
-371,-650,-1.80096,3.78625,0,0,0,0,0,0,0,-1,853,1674,-1.80094,-3.78625
-364,-650,-2.95679,2.57507,0,0,0,0,0,0,0,-1,860,1674,-2.95681,-2.57506
-357,-650,1.97833,10.8362,0,0,0,0,0,0,0,-1,867,1674,1.97835,-10.8362
-350,-650,-5.30243,0.159912,0,0,0,0,0,0,0,-1,874,1674,-5.30244,-0.159866
-343,-650,-6.21338,-1.4425,0,0,0,0,0,0,0,-1,881,1674,-6.21341,1.44248
-336,-650,2.38995,9.27759,0,0,0,0,0,0,0,-1,888,1674,2.38998,-9.27758
-329,-650,3.51416,10.1262,0,0,0,0,0,0,0,-1,895,1674,3.51415,-10.1262
-322,-650,3.4787,10.2133,0.00363268,-0.00139062,-0.00108986,0.00385894,-0.00161689,-0.204701,0.0032486,0.0406862,902,1674,3.47868,-10.2133
-315,-650,3.43158,10.291,0.00239795,-3.56788e-05,-0.00020536,0.00241516,-5.28863e-05,-0.0835967,0.00162802,0.0356129,909,1674,3.43158,-10.291
-308,-650,3.34357,10.5071,0.00102705,0.000687054,0.00045348,0.00134135,0.000372755,0.606068,0.000799491,0.0206703,916,1674,3.34359,-10.5071
-301,-650,3.3194,10.7131,0.000156593,0.00128601,0.00107181,0.00193278,-0.000490173,1.02786,0.00147923,0.0111076,923,1674,3.31941,-10.7132
-294,-650,3.29523,10.892,-1.85602e-05,0.00144631,0.00190368,0.00275359,-0.00132584,0.969043,0.00240287,0.00964612,930,1674,3.2952,-10.892
-287,-650,3.27679,11.0773,0.000107363,0.00130242,0.0025087,0.00328377,-0.00187399,0.902311,0.00301469,0.0131284,937,1674,3.27677,-11.0772
-280,-650,3.28424,11.2618,0.000267095,0.00109924,0.00276452,0.00347882,-0.00211249,0.86009,0.00326011,0.0143711,944,1674,3.28422,-11.2619
-273,-650,3.28412,11.4335,0.000579976,0.000846375,0.00280501,0.00352134,-0.00209499,0.809123,0.00327726,0.013389,951,1674,3.2841,-11.4334
-266,-650,3.27264,11.6094,0.000726234,0.000556781,0.00273348,0.0033763,-0.00209328,0.769905,0.00318669,0.0111638,958,1674,3.27263,-11.6094
-259,-650,3.29443,11.7789,0.00105793,-5.56798e-05,0.00243848,0.00300237,-0.00200011,0.673151,0.00290744,0.0133978,965,1674,3.29445,-11.7789
-252,-650,3.30377,11.9604,0.00143522,-0.00075212,0.00190491,0.00253809,-0.00185499,0.524807,0.00254654,0.0123145,972,1674,3.30375,-11.9604
-245,-650,3.29828,12.1185,0.00170693,-0.00162537,0.00128868,0.00214714,-0.00206557,0.32917,0.00243236,0.0114723,979,1674,3.29831,-12.1185
-238,-650,3.29358,12.2668,0.00191922,-0.00263524,0.000779775,0.00204902,-0.00276505,0.164954,0.00278963,0.0120464,986,1674,3.29359,-12.2669
-231,-650,3.28705,12.4294,0.00217139,-0.00364727,0.000458915,0.00220736,-0.00368324,0.078225,0.00343634,0.0165337,993,1674,3.28702,-12.4295
-224,-650,3.27728,12.5931,0.00274233,-0.00469587,0.000283713,0.00275314,-0.00470668,0.038069,0.00435588,0.0147363,1000,1674,3.2773,-12.5931
-217,-650,3.2818,12.7181,0.00328332,-0.00596083,0.000218387,0.00328848,-0.00596598,0.0236068,0.0054171,0.0100639,1007,1674,3.28181,-12.7182
-210,-650,3.28821,12.8708,0.00379165,-0.00725583,0.000324006,0.00380115,-0.00726533,0.0292949,0.00649274,0.00969523,1014,1674,3.28821,-12.8708
-203,-650,3.3136,13.0273,0.00447186,-0.00839117,0.000568861,0.00449697,-0.00841628,0.0441097,0.00756907,0.0140446,1021,1674,3.31363,-13.0273
-196,-650,3.32507,13.1431,0.00519566,-0.00941966,0.00085515,0.00524552,-0.00946952,0.0582456,0.00861162,0.0131428,1028,1674,3.32508,-13.1431
-189,-650,3.31775,13.2753,0.00588682,-0.010133,0.00110631,0.00596286,-0.010209,0.0686246,0.00944352,0.0108149,1035,1674,3.31781,-13.2752
-182,-650,3.35266,13.4393,0.0065836,-0.0113176,0.00153104,0.0067136,-0.0114476,0.0847076,0.0106034,0.00951864,1042,1674,3.35261,-13.4394
-175,-650,3.36133,13.5613,0.00731473,-0.0122967,0.00201396,0.00751942,-0.0125014,0.101285,0.0116777,0.0150047,1049,1674,3.36127,-13.5613
-168,-650,3.33887,13.6675,0.00807312,-0.0131045,0.00244235,0.00835114,-0.0133826,0.113344,0.0126595,0.0206797,1056,1674,3.33889,-13.6674
-161,-650,3.32422,13.7579,0.00890667,-0.0141393,0.00295509,0.00927956,-0.0145122,0.125521,0.0138464,0.0291143,1063,1674,3.32422,-13.7579
-154,-650,3.36938,13.8644,0.00985818,-0.0150848,0.0036946,0.0103939,-0.0156205,0.144004,0.0151201,0.0327117,1070,1674,3.36943,-13.8644
-147,-650,3.38428,13.8397,0.0107232,-0.0159319,0.00425046,0.0113846,-0.0165932,0.154363,0.0162461,0.043456,1077,1674,3.38429,-13.8397
-140,-650,3.40979,13.8516,0,0,0,0,0,0,0,-1,1084,1674,3.40978,-13.8515
-133,-650,3.51245,13.6064,0.0114516,-0.019932,0.00487015,0.01219,-0.0206704,0.150468,0.0191814,0.0414752,1091,1674,3.51244,-13.6065
-126,-650,3.56812,13.9919,0.0128939,-0.0225938,0.0056855,0.0137826,-0.0234824,0.155042,0.0217565,0.0460345,1098,1674,3.56808,-13.992
-119,-650,3.79272,14.3029,0,0,0,0,0,0,0,-1,1105,1674,3.79269,-14.3028
-112,-650,3.86292,14.4513,0,0,0,0,0,0,0,-1,1112,1674,3.8629,-14.4513
-105,-650,4.9259,12.0626,0,0,0,0,0,0,0,-1,1119,1674,4.92591,-12.0626
-98,-650,3.3761,6.78003,0,0,0,0,0,0,0,-1,1126,1674,3.37611,-6.78009
-91,-650,3.66809,7.04443,0,0,0,0,0,0,0,-1,1133,1674,3.66806,-7.04439
-84,-650,-3.82666,-1.59521,0,0,0,0,0,0,0,-1,1140,1674,-3.82661,1.59517
-77,-650,-4.70557,1.90198,0,0,0,0,0,0,0,-1,1147,1674,-4.7056,-1.90194
-70,-650,-4.88171,3.81653,0,0,0,0,0,0,0,-1,1154,1674,-4.88176,-3.81651
-63,-650,-5.14612,5.56543,0,0,0,0,0,0,0,-1,1161,1674,-5.14612,-5.56547
-56,-650,-5.38367,7.41101,0,0,0,0,0,0,0,-1,1168,1674,-5.38361,-7.41102
-49,-650,-5.11316,8.23706,0,0,0,0,0,0,0,-1,1175,1674,-5.11317,-8.23708
-42,-650,-4.99487,9.6792,0,0,0,0,0,0,0,-1,1182,1674,-4.99484,-9.67921
-35,-650,-4.77771,11.3369,0,0,0,0,0,0,0,-1,1189,1674,-4.77769,-11.3369
-28,-650,-4.1936,13.1501,0,0,0,0,0,0,0,-1,1196,1674,-4.19358,-13.1501
-21,-650,3.4165,11.1599,0,0,0,0,0,0,0,-1,1203,1674,3.41654,-11.1599
-14,-650,4.84973,14.2123,0,0,0,0,0,0,0,-1,1210,1674,4.84977,-14.2123
-7,-650,5.10583,13.6155,0.0369494,-0.0170735,-0.00279855,0.037094,-0.0172181,-0.051619,0.0320493,0.0477284,1217,1674,5.10583,-13.6155
0,-650,3.66199,16.1278,0,0,0,0,0,0,0,-1,1224,1674,3.66202,-16.1278
7,-650,4.01965,15.5538,0.0515309,0.00201104,-0.0144691,0.0554487,-0.00190673,-0.264426,0.0376175,0.0426781,1231,1674,4.01963,-15.5538
14,-650,4.6189,14.7681,0.0661681,0.0236586,-0.0285899,0.0805384,0.00928828,-0.465754,0.0508796,0.0424925,1238,1674,4.61892,-14.7681
21,-650,4.77283,14.6005,0.0800893,0.0467809,-0.0433745,0.109897,0.0169732,-0.602096,0.0683135,0.0445489,1245,1674,4.77289,-14.6004
28,-650,4.47791,14.2135,0,0,0,0,0,0,0,-1,1252,1674,4.47796,-14.2135
35,-650,6.3175,13.6517,0.0990434,0.0914377,-0.06572,0.16107,0.0294107,-0.756498,0.0990432,0.0431558,1259,1674,6.3175,-13.6517
42,-650,6.75659,14.0596,0.103911,0.111525,-0.0703797,0.178201,0.0372354,-0.812417,0.108539,0.0428038,1266,1674,6.75663,-14.0595
49,-650,7.18933,14.2947,0.107476,0.130003,-0.0760689,0.195637,0.0418409,-0.858899,0.118957,0.0453606,1273,1674,7.1893,-14.2946
56,-650,10.4198,8.68518,0.107425,0.145938,-0.0770477,0.2061,0.0472642,-0.907854,0.124668,0.0469695,1280,1674,10.4197,-8.68518
63,-650,10.8859,7.83984,0.105273,0.159309,-0.0761933,0.213133,0.0514493,-0.955779,0.128421,0.0472235,1287,1674,10.8858,-7.83984
70,-650,11.3333,7.02356,0,0,0,0,0,0,0,-1,1294,1674,11.3332,-7.02355
77,-650,10.9633,6.52588,0,0,0,0,0,0,0,-1,1301,1674,10.9632,-6.52586
84,-650,11.4993,6.85559,0,0,0,0,0,0,0,-1,1308,1674,11.4992,-6.85556
91,-650,11.9821,6.12695,0,0,0,0,0,0,0,-1,1315,1674,11.9821,-6.12693
98,-650,3.44971,16.6508,0,0,0,0,0,0,0,-1,1322,1674,3.44971,-16.6507
105,-650,3.36328,16.9226,0,0,0,0,0,0,0,-1,1329,1674,3.36323,-16.9226
112,-650,3.2583,17.1835,0,0,0,0,0,0,0,-1,1336,1674,3.2583,-17.1835
119,-650,1.76086,14.4037,0,0,0,0,0,0,0,-1,1343,1674,1.76089,-14.4036
126,-650,2.88464,16.7329,0,0,0,0,0,0,0,-1,1350,1674,2.88465,-16.7329
133,-650,3.66809,18.1337,0,0,0,0,0,0,0,-1,1357,1674,3.66815,-18.1337
140,-650,18.1344,-1.98364,0,0,0,0,0,0,0,-1,1364,1674,18.1345,1.98362
147,-650,19.5044,-2.83484,0,0,0,0,0,0,0,-1,1371,1674,19.5044,2.83486
154,-650,20.9094,-3.71948,0,0,0,0,0,0,0,-1,1378,1674,20.9095,3.7195
161,-650,11.2434,8.83008,0,0,0,0,0,0,0,-1,1385,1674,11.2434,-8.83004
168,-650,11.2113,7.87231,0,0,0,0,0,0,0,-1,1392,1674,11.2113,-7.87236
175,-650,5.62537,-0.230713,0,0,0,0,0,0,0,-1,1399,1674,5.62538,0.230745
182,-650,5.56006,0.421631,0,0,0,0,0,0,0,-1,1406,1674,5.56,-0.421652
189,-650,4.81543,11.0654,0,0,0,0,0,0,0,-1,1413,1674,4.81542,-11.0654
196,-650,5.39575,11.9077,0,0,0,0,0,0,0,-1,1420,1674,5.39575,-11.9078
203,-650,3.93628,11.8215,0,0,0,0,0,0,0,-1,1427,1674,3.93624,-11.8216
210,-650,5.40955,8.08594,0,0,0,0,0,0,0,-1,1434,1674,5.40958,-8.086
217,-650,5.12451,4.69739,0,0,0,0,0,0,0,-1,1441,1674,5.12451,-4.69738
224,-650,4.79041,1.45813,0,0,0,0,0,0,0,-1,1448,1674,4.79046,-1.45816
231,-650,4.04102,-0.642212,0,0,0,0,0,0,0,-1,1455,1674,4.04101,0.642209
238,-650,3.23022,-1.43396,0,0,0,0,0,0,0,-1,1462,1674,3.23023,1.43394
245,-650,1.65894,-2.55042,0,0,0,0,0,0,0,-1,1469,1674,1.65889,2.55036
252,-650,8.75342,0.355103,0,0,0,0,0,0,0,-1,1476,1674,8.75337,-0.355147
259,-650,5.61255,3.17566,0,0,0,0,0,0,0,-1,1483,1674,5.61257,-3.17572
266,-650,4.00403,6.10229,0,0,0,0,0,0,0,-1,1490,1674,4.00401,-6.10225
273,-650,5.4093,14.3718,0,0,0,0,0,0,0,-1,1497,1674,5.40929,-14.3718
280,-650,5.5675,14.4717,0.00545294,-0.00489409,0.00856734,0.0102877,-0.0097288,0.51377,0.011558,0.0497246,1504,1674,5.56752,-14.4717
287,-650,5.93811,14.5491,0.00434163,-0.00482309,0.00758911,0.00862452,-0.00910598,0.513791,0.010238,0.0409732,1511,1674,5.93809,-14.5491
294,-650,5.79565,14.2637,0.0033491,-0.00481023,0.00662232,0.00704753,-0.00850866,0.50933,0.00899456,0.0368147,1518,1674,5.79572,-14.2637
301,-650,5.58325,14.1062,0.00252282,-0.00462331,0.00569159,0.00566994,-0.00777044,0.5051,0.00779133,0.0296424,1525,1674,5.58323,-14.1062
308,-650,5.5968,14.1167,0.00177271,-0.00412884,0.00482747,0.00447981,-0.00683594,0.511074,0.00658019,0.0179097,1532,1674,5.5968,-14.1167
315,-650,5.60132,14.0723,0.0011314,-0.00369666,0.0040682,0.00344788,-0.00601314,0.517626,0.00552885,0.0108593,1539,1674,5.60131,-14.0723
322,-650,5.61267,13.9763,0.000615549,-0.00317241,0.0034744,0.00267867,-0.00523553,0.535852,0.00464807,0.00960272,1546,1674,5.61272,-13.9763
329,-650,5.61462,13.8372,0.000321005,-0.00270774,0.00290586,0.00208342,-0.00447016,0.545188,0.00386645,0.0147804,1553,1674,5.61468,-13.8371
336,-650,5.61377,13.7407,-6.32449e-05,-0.00241981,0.00239208,0.00142501,-0.00390806,0.556553,0.00318835,0.0134263,1560,1674,5.61375,-13.7407
343,-650,5.62708,13.6357,-0.000140862,-0.00230947,0.00188472,0.000949206,-0.00339954,0.524364,0.00264026,0.0131371,1567,1674,5.62706,-13.6357
350,-650,5.64185,13.4969,-1.02321e-05,-0.00204042,0.00149437,0.000781204,-0.00283185,0.487056,0.00219514,0.0159337,1574,1674,5.64181,-13.4969
357,-650,5.64001,13.3445,-1.56986e-05,-0.00181725,0.001185,0.000572021,-0.00240497,0.460416,0.00182413,0.0133437,1581,1674,5.64006,-13.3444
364,-650,5.6571,13.199,6.49824e-05,-0.00161386,0.000750387,0.000351487,-0.00190037,0.364726,0.00139887,0.00923648,1588,1674,5.6571,-13.199
371,-650,5.65613,13.0796,0.000277571,-0.00144704,0.000312397,0.000332415,-0.00150188,0.173787,0.0011285,0.0110376,1595,1674,5.65618,-13.0796
378,-650,5.64893,12.9375,0.000562151,-0.00119838,-0.000127483,0.000571334,-0.00120757,-0.0719113,0.00104872,0.012332,1602,1674,5.6489,-12.9374
385,-650,5.65295,12.8013,0.000924525,-0.00112598,-0.000611976,0.00109328,-0.00129473,-0.26907,0.00138035,0.0133833,1609,1674,5.65291,-12.8012
392,-650,5.66797,12.6658,0.0011735,-0.000889324,-0.00109191,0.00164412,-0.00135994,-0.406941,0.00173697,0.0168188,1616,1674,5.66792,-12.6658
399,-650,5.67456,12.521,0.00131176,-0.000697061,-0.00145028,0.00207148,-0.00145678,-0.482539,0.00204732,0.0161776,1623,1674,5.67454,-12.521
406,-650,5.64636,12.3624,0.00128337,-0.000767031,-0.0015592,0.00212422,-0.00160788,-0.494577,0.0021616,0.0144372,1630,1674,5.64637,-12.3625
413,-650,5.64429,12.203,0.000910238,-0.00124884,-0.00131968,0.00153568,-0.00187428,-0.442579,0.00197197,0.0146012,1637,1674,5.64423,-12.2029
420,-650,5.62585,12.0521,7.55441e-05,-0.00254506,-0.000412941,0.000139073,-0.00260859,-0.152648,0.00178722,0.0148893,1644,1674,5.62591,-12.0521
427,-650,5.62646,11.9047,-0.000686945,-0.00381981,0.000513761,-0.000604844,-0.00390191,0.158463,0.00242493,0.0130099,1651,1674,5.62646,-11.9046
434,-650,5.64917,11.7443,-0.00173277,-0.00564532,0.00174966,-0.00106448,-0.00631361,0.364852,0.00390294,0.0159264,1658,1674,5.64918,-11.7443
441,-650,5.6925,11.5383,-0.00245227,-0.00517559,0.00223613,-0.00119583,-0.00643202,0.511916,0.0039502,0.0268961,1665,1674,5.69256,-11.5383
448,-650,5.5,11.4479,-0.00303285,-0.00332402,0.00263995,-0.000534476,-0.00582239,0.757853,0.00371627,0.043068,1672,1674,5.50002,-11.4479
455,-650,5.30713,11.4974,-0.00393166,-0.0014706,0.0033447,0.000862746,-0.006265,0.961666,0.00449195,0.0440764,1679,1674,5.30714,-11.4974
462,-650,5.16968,11.5474,-0.00450872,0.00237149,0.00352553,0.0038572,-0.00599443,1.17197,0.00573228,0.0457841,1686,1674,5.16971,-11.5474
469,-650,4.78308,11.7946,-0.00456287,0.00911632,0.00266056,0.00961557,-0.00506212,1.38531,0.00860902,0.0485933,1693,1674,4.78307,-11.7946
476,-650,4.55273,11.8104,0,0,0,0,0,0,0,-1,1700,1674,4.55268,-11.8104
483,-650,7.07556,8.22815,0,0,0,0,0,0,0,-1,1707,1674,7.07555,-8.22811
490,-650,7.07666,7.5697,0,0,0,0,0,0,0,-1,1714,1674,7.07668,-7.56968
497,-650,6.5741,7.32288,0,0,0,0,0,0,0,-1,1721,1674,6.57409,-7.3229
504,-650,5.51282,8.92017,0,0,0,0,0,0,0,-1,1728,1674,5.51277,-8.92012
511,-650,4.96912,8.36682,0,0,0,0,0,0,0,-1,1735,1674,4.96913,-8.36678
518,-650,0,0,0,0,0,0,0,0,0,-1,1742,1674,0,0
525,-650,0,0,0,0,0,0,0,0,0,-1,1749,1674,0,0
532,-650,0,0,0,0,0,0,0,0,0,-1,1756,1674,0,0
539,-650,0,0,0,0,0,0,0,0,0,-1,1763,1674,0,0
546,-650,0,0,0,0,0,0,0,0,0,-1,1770,1674,0,0
553,-650,0,0,0,0,0,0,0,0,0,-1,1777,1674,0,0
560,-650,0,0,0,0,0,0,0,0,0,-1,1784,1674,0,0
567,-650,0,0,0,0,0,0,0,0,0,-1,1791,1674,0,0
574,-650,0,0,0,0,0,0,0,0,0,-1,1798,1674,0,0
581,-650,0,0,0,0,0,0,0,0,0,-1,1805,1674,0,0
588,-650,0,0,0,0,0,0,0,0,0,-1,1812,1674,0,0
595,-650,0,0,0,0,0,0,0,0,0,-1,1819,1674,0,0
602,-650,0,0,0,0,0,0,0,0,0,-1,1826,1674,0,0
609,-650,0,0,0,0,0,0,0,0,0,-1,1833,1674,0,0
616,-650,0,0,0,0,0,0,0,0,0,-1,1840,1674,0,0
623,-650,0,0,0,0,0,0,0,0,0,-1,1847,1674,0,0
630,-650,0,0,0,0,0,0,0,0,0,-1,1854,1674,0,0
637,-650,0,0,0,0,0,0,0,0,0,-1,1861,1674,0,0
644,-650,0,0,0,0,0,0,0,0,0,-1,1868,1674,0,0
651,-650,0,0,0,0,0,0,0,0,0,-1,1875,1674,0,0
658,-650,0,0,0,0,0,0,0,0,0,-1,1882,1674,0,0
665,-650,0,0,0,0,0,0,0,0,0,-1,1889,1674,0,0
672,-650,0,0,0,0,0,0,0,0,0,-1,1896,1674,0,0
679,-650,0,0,0,0,0,0,0,0,0,-1,1903,1674,0,0
686,-650,0,0,0,0,0,0,0,0,0,-1,1910,1674,0,0
693,-650,0,0,0,0,0,0,0,0,0,-1,1917,1674,0,0
700,-650,0,0,0,0,0,0,0,0,0,-1,1924,1674,0,0
707,-650,0,0,0,0,0,0,0,0,0,-1,1931,1674,0,0
714,-650,0,0,0,0,0,0,0,0,0,-1,1938,1674,0,0
721,-650,0,0,0,0,0,0,0,0,0,-1,1945,1674,0,0
728,-650,0,0,0,0,0,0,0,0,0,-1,1952,1674,0,0
735,-650,0,0,0,0,0,0,0,0,0,-1,1959,1674,0,0
742,-650,0,0,0,0,0,0,0,0,0,-1,1966,1674,0,0
749,-650,0,0,0,0,0,0,0,0,0,-1,1973,1674,0,0
756,-650,0,0,0,0,0,0,0,0,0,-1,1980,1674,0,0
763,-650,0,0,0,0,0,0,0,0,0,-1,1987,1674,0,0
770,-650,0,0,0,0,0,0,0,0,0,-1,1994,1674,0,0
777,-650,0,0,0,0,0,0,0,0,0,-1,2001,1674,0,0
784,-650,0,0,0,0,0,0,0,0,0,-1,2008,1674,0,0
791,-650,0,0,0,0,0,0,0,0,0,-1,2015,1674,0,0
798,-650,0,0,0,0,0,0,0,0,0,-1,2022,1674,0,0
805,-650,0,0,0,0,0,0,0,0,0,-1,2029,1674,0,0
812,-650,0,0,0,0,0,0,0,0,0,-1,2036,1674,0,0
-700,-657,0,0,0,0,0,0,0,0,0,-1,524,1681,0,0
-693,-657,0,0,0,0,0,0,0,0,0,-1,531,1681,0,0
-686,-657,0,0,0,0,0,0,0,0,0,-1,538,1681,0,0
-679,-657,0,0,0,0,0,0,0,0,0,-1,545,1681,0,0
-672,-657,0,0,0,0,0,0,0,0,0,-1,552,1681,0,0
-665,-657,0,0,0,0,0,0,0,0,0,-1,559,1681,0,0
-658,-657,0,0,0,0,0,0,0,0,0,-1,566,1681,0,0
-651,-657,0,0,0,0,0,0,0,0,0,-1,573,1681,0,0
-644,-657,0,0,0,0,0,0,0,0,0,-1,580,1681,0,0
-637,-657,0,0,0,0,0,0,0,0,0,-1,587,1681,0,0
-630,-657,0,0,0,0,0,0,0,0,0,-1,594,1681,0,0
-623,-657,0,0,0,0,0,0,0,0,0,-1,601,1681,0,0
-616,-657,0,0,0,0,0,0,0,0,0,-1,608,1681,0,0
-609,-657,0,0,0,0,0,0,0,0,0,-1,615,1681,0,0
-602,-657,0,0,0,0,0,0,0,0,0,-1,622,1681,0,0
-595,-657,0,0,0,0,0,0,0,0,0,-1,629,1681,0,0
-588,-657,0,0,0,0,0,0,0,0,0,-1,636,1681,0,0
-581,-657,0,0,0,0,0,0,0,0,0,-1,643,1681,0,0
-574,-657,0,0,0,0,0,0,0,0,0,-1,650,1681,0,0
-567,-657,0,0,0,0,0,0,0,0,0,-1,657,1681,0,0
-560,-657,0,0,0,0,0,0,0,0,0,-1,664,1681,0,0
-553,-657,0,0,0,0,0,0,0,0,0,-1,671,1681,0,0
-546,-657,0,0,0,0,0,0,0,0,0,-1,678,1681,0,0
-539,-657,0,0,0,0,0,0,0,0,0,-1,685,1681,0,0
-532,-657,0,0,0,0,0,0,0,0,0,-1,692,1681,0,0
-525,-657,0,0,0,0,0,0,0,0,0,-1,699,1681,0,0
-518,-657,0,0,0,0,0,0,0,0,0,-1,706,1681,0,0
-511,-657,0,0,0,0,0,0,0,0,0,-1,713,1681,0,0
-504,-657,0,0,0,0,0,0,0,0,0,-1,720,1681,0,0
-497,-657,0,0,0,0,0,0,0,0,0,-1,727,1681,0,0
-490,-657,0,0,0,0,0,0,0,0,0,-1,734,1681,0,0
-483,-657,0,0,0,0,0,0,0,0,0,-1,741,1681,0,0
-476,-657,0,0,0,0,0,0,0,0,0,-1,748,1681,0,0
-469,-657,0,0,0,0,0,0,0,0,0,-1,755,1681,0,0
-462,-657,0,0,0,0,0,0,0,0,0,-1,762,1681,0,0
-455,-657,0,0,0,0,0,0,0,0,0,-1,769,1681,0,0
-448,-657,0,0,0,0,0,0,0,0,0,-1,776,1681,0,0
-441,-657,0,0,0,0,0,0,0,0,0,-1,783,1681,0,0
-434,-657,0,0,0,0,0,0,0,0,0,-1,790,1681,0,0
-427,-657,0,0,0,0,0,0,0,0,0,-1,797,1681,0,0
-420,-657,0,0,0,0,0,0,0,0,0,-1,804,1681,0,0
-413,-657,0,0,0,0,0,0,0,0,0,-1,811,1681,0,0
-406,-657,0,0,0,0,0,0,0,0,0,-1,818,1681,0,0
-399,-657,0,0,0,0,0,0,0,0,0,-1,825,1681,0,0
-392,-657,0,0,0,0,0,0,0,0,0,-1,832,1681,0,0
-385,-657,1.09814,6.18896,0,0,0,0,0,0,0,-1,839,1681,1.09814,-6.18894
-378,-657,0.31488,4.46753,0,0,0,0,0,0,0,-1,846,1681,0.31487,-4.46755
-371,-657,-0.519043,2.69421,0,0,0,0,0,0,0,-1,853,1681,-0.519064,-2.69422
-364,-657,-3.42017,4.18323,0,0,0,0,0,0,0,-1,860,1681,-3.42019,-4.18319
-357,-657,-4.41913,2.97168,0,0,0,0,0,0,0,-1,867,1681,-4.41913,-2.97165
-350,-657,-5.42291,1.70276,0,0,0,0,0,0,0,-1,874,1681,-5.42291,-1.70277
-343,-657,-6.51294,0.397339,0,0,0,0,0,0,0,-1,881,1681,-6.51295,-0.397335
-336,-657,1.59839,8.61292,0,0,0,0,0,0,0,-1,888,1681,1.59837,-8.61291
-329,-657,3.75922,10.0293,0,0,0,0,0,0,0,-1,895,1681,3.75921,-10.0293
-322,-657,3.8869,10.0952,0.00385347,-0.00117927,-0.000550564,0.003913,-0.00123879,-0.107699,0.00310509,0.0444609,902,1681,3.8869,-10.0952
-315,-657,3.82861,10.1324,0.00204432,0.000186109,0.000945661,0.00244093,-0.000210498,0.397114,0.00170179,0.0407731,909,1681,3.82862,-10.1325
-308,-657,3.56958,10.5081,0.0003761,0.000875048,0.00215891,0.00279885,-0.0015477,0.842921,0.0025439,0.0345533,916,1681,3.56959,-10.5081
-301,-657,3.51874,10.6956,-0.000643215,0.00140317,0.00318804,0.00372819,-0.00296824,0.940679,0.00387447,0.0272605,923,1681,3.51874,-10.6955
-294,-657,3.47607,10.8995,-0.00089392,0.00153233,0.00425479,0.00474356,-0.00410515,0.924273,0.00511323,0.0160578,930,1681,3.47605,-10.8995
-287,-657,3.45929,11.0857,-0.000768296,0.00141802,0.00491599,0.00536093,-0.0047112,0.894802,0.00581918,0.0109159,937,1681,3.45929,-11.0857
-280,-657,3.44183,11.2506,-0.000572897,0.00128299,0.00508313,0.00552219,-0.00481209,0.875681,0.00597119,0.0128084,944,1681,3.44182,-11.2506
-273,-657,3.45551,11.4344,-0.000144992,0.00115729,0.0049262,0.00547519,-0.0044629,0.851107,0.00574767,0.0103306,951,1681,3.45549,-11.4345
-266,-657,3.41968,11.6018,8.49246e-05,0.000993145,0.0045992,0.0051606,-0.00408253,0.834607,0.00534861,0.0148431,958,1681,3.41966,-11.6018
-259,-657,3.42273,11.7784,0.000540044,0.000590411,0.00403792,0.00460323,-0.00347277,0.788516,0.00467788,0.0183591,965,1681,3.42272,-11.7785
-252,-657,3.4342,11.9474,0.00103649,0.000204379,0.00319241,0.00383984,-0.00259897,0.7206,0.00374039,0.0130956,972,1681,3.43418,-11.9474
-245,-657,3.4483,12.1088,0.00131823,-0.000320773,0.0022499,0.00289323,-0.00189578,0.610747,0.00278485,0.0154359,979,1681,3.4483,-12.1088
-238,-657,3.44012,12.2466,0.00140628,-0.00107259,0.00139534,0.00203317,-0.00169948,0.42225,0.00215792,0.0198151,986,1681,3.44011,-12.2465
-231,-657,3.44434,12.4132,0.00157691,-0.00177776,0.000848618,0.00177936,-0.00198021,0.234191,0.00217162,0.0208231,993,1681,3.44435,-12.4132
-224,-657,3.44452,12.5908,0.00211125,-0.00247348,0.000411297,0.00214786,-0.00251008,0.0887656,0.00269197,0.0168988,1000,1681,3.4445,-12.5908
-217,-657,3.43268,12.7412,0.00247977,-0.00341606,6.63878e-05,0.00248052,-0.00341681,0.0112582,0.0034191,0.0105634,1007,1681,3.43266,-12.7412
-210,-657,3.44061,12.8845,0.00267168,-0.00451197,6.07978e-05,0.0026722,-0.00451249,0.00846255,0.00419319,0.0107399,1014,1681,3.44062,-12.8846
-203,-657,3.45935,13.0323,0.00306005,-0.00545922,0.000203998,0.00306493,-0.00546411,0.0239272,0.00498876,0.0134897,1021,1681,3.45935,-13.0323
-196,-657,3.46997,13.1499,0.00353472,-0.00631022,0.000410378,0.0035518,-0.0063273,0.041588,0.00577825,0.014152,1028,1681,3.46996,-13.1499
-189,-657,3.4718,13.2875,0.00399456,-0.00693525,0.000546875,0.00402185,-0.00696255,0.0498691,0.00641716,0.0102234,1035,1681,3.47174,-13.2874
-182,-657,3.46008,13.433,0.00445993,-0.0079321,0.000817253,0.0045136,-0.00798577,0.0655713,0.00730874,0.0081715,1042,1681,3.46014,-13.433
-175,-657,3.46558,13.568,0.00500919,-0.00877146,0.00113347,0.0051018,-0.00886407,0.0815209,0.00816014,0.0103622,1049,1681,3.46556,-13.568
-168,-657,3.46484,13.7004,0.00562238,-0.0094685,0.00141437,0.0057538,-0.00959992,0.0926485,0.0089567,0.011639,1056,1681,3.46483,-13.7005
-161,-657,3.4751,13.8121,0.00630408,-0.0103478,0.00174436,0.00648484,-0.0105286,0.103261,0.00991476,0.010991,1063,1681,3.47513,-13.8122
-154,-657,3.50391,13.9431,0.00710195,-0.0111988,0.00222213,0.00736791,-0.0114648,0.119117,0.0109585,0.0113155,1070,1681,3.50393,-13.9431
-147,-657,3.51343,14.0417,0.00782531,-0.0120206,0.00259192,0.00815824,-0.0123535,0.127748,0.0119248,0.0162001,1077,1681,3.51341,-14.0417
-140,-657,3.4541,14.1354,0.00840068,-0.0130883,0.00294708,0.00879753,-0.0134851,0.133852,0.0129594,0.026155,1084,1681,3.45408,-14.1354
-133,-657,3.41614,14.0813,0.00892034,-0.0149934,0.00314343,0.00932664,-0.0153997,0.12854,0.0144186,0.032074,1091,1681,3.41611,-14.0813
-126,-657,3.59204,14.2021,0.010134,-0.0169845,0.00371996,0.010635,-0.0174855,0.133881,0.0163952,0.0372846,1098,1681,3.592,-14.2021
-119,-657,3.75574,14.3512,0.0113265,-0.0185815,0.00427843,0.0119265,-0.0191815,0.139331,0.0181223,0.0479955,1105,1681,3.75575,-14.3513
-112,-657,3.83362,14.5603,0,0,0,0,0,0,0,-1,1112,1681,3.83362,-14.5603
-105,-657,3.82434,14.4906,0,0,0,0,0,0,0,-1,1119,1681,3.8244,-14.4906
-98,-657,3.78662,8.16785,0,0,0,0,0,0,0,-1,1126,1681,3.78663,-8.16786
-91,-657,5.07178,13.8409,0,0,0,0,0,0,0,-1,1133,1681,5.07173,-13.8409
-84,-657,4.08008,10.4579,0,0,0,0,0,0,0,-1,1140,1681,4.08006,-10.4579
-77,-657,-5.29846,0.396606,0,0,0,0,0,0,0,-1,1147,1681,-5.29842,-0.396573
-70,-657,-4.14893,2.14575,0,0,0,0,0,0,0,-1,1154,1681,-4.14893,-2.1458
-63,-657,-4.1239,3.177,0,0,0,0,0,0,0,-1,1161,1681,-4.12391,-3.17698
-56,-657,-6.40576,5.73987,0,0,0,0,0,0,0,-1,1168,1681,-6.40577,-5.7399
-49,-657,-5.98462,7.54053,0,0,0,0,0,0,0,-1,1175,1681,-5.98466,-7.5405
-42,-657,-5.71948,9.28955,0,0,0,0,0,0,0,-1,1182,1681,-5.71951,-9.2895
-35,-657,-5.44556,11.015,0,0,0,0,0,0,0,-1,1189,1681,-5.44555,-11.015
-28,-657,-1.3446,8.92847,0,0,0,0,0,0,0,-1,1196,1681,-1.34459,-8.92848
-21,-657,4.30298,14.5848,0,0,0,0,0,0,0,-1,1203,1681,4.30292,-14.5848
-14,-657,4.68506,14.4767,0.0359249,-0.0195033,-0.000692045,0.0359335,-0.019512,-0.0124828,0.0324761,0.0479577,1210,1681,4.68502,-14.4767
-7,-657,5.07288,14.3322,0.0326613,-0.0139764,-0.00260473,0.0328063,-0.0141214,-0.0556197,0.0278004,0.0456239,1217,1681,5.07291,-14.3321
0,-657,5.2522,14.7889,0,0,0,0,0,0,0,-1,1224,1681,5.25214,-14.7889
7,-657,4.01624,15.3212,0.0465254,0.00596425,-0.0147066,0.0512964,0.00119319,-0.313705,0.0338069,0.0450417,1231,1681,4.0162,-15.3212
14,-657,4.36646,14.6799,0.0586981,0.0241773,-0.026556,0.0731101,0.00976535,-0.497224,0.045833,0.0436184,1238,1681,4.3665,-14.6799
21,-657,4.45886,14.3633,0.0706433,0.0442937,-0.0396599,0.0992595,0.0156775,-0.625035,0.0616156,0.0443157,1245,1681,4.4589,-14.3633
28,-657,4.51453,13.9403,0.0798689,0.0643254,-0.0493861,0.122091,0.0221033,-0.707355,0.0751182,0.0431226,1252,1681,4.51457,-13.9403
35,-657,4.70984,13.5565,0.0865723,0.0823255,-0.0564828,0.140972,0.0279261,-0.76661,0.0861937,0.0392528,1259,1681,4.70979,-13.5565
42,-657,7.12,14.2837,0.0907465,0.100308,-0.0587082,0.15443,0.0366246,-0.826024,0.093176,0.0430452,1266,1681,7.11994,-14.2836
49,-657,10.9402,8.00842,0.0939899,0.116235,-0.062724,0.168815,0.04141,-0.873149,0.101593,0.0461793,1273,1681,10.9401,-8.00848
56,-657,11.2725,7.12036,0.0940301,0.129865,-0.0624126,0.176881,0.0470139,-0.925179,0.105791,0.0478756,1280,1681,11.2724,-7.12032
63,-657,11.5966,6.17542,0,0,0,0,0,0,0,-1,1287,1681,11.5966,-6.1754
70,-657,10.9124,8.15942,0.08691,0.149673,-0.055853,0.182357,0.0542263,-1.04135,0.108127,0.0468145,1294,1681,10.9123,-8.15947
77,-657,11.6987,6.80042,0.0788459,0.153261,-0.048631,0.177285,0.0548212,-1.11194,0.10481,0.0431173,1301,1681,11.6987,-6.80045
84,-657,12.3204,5.98096,0.0692463,0.153304,-0.0406036,0.169714,0.0528365,-1.18672,0.100283,0.0469078,1308,1681,12.3204,-5.9809
91,-657,13.5653,4.51953,0.0593839,0.149036,-0.0345583,0.160811,0.0476091,-1.24241,0.0953839,0.0443053,1315,1681,13.5653,-4.51954
98,-657,14.5516,3.23669,0,0,0,0,0,0,0,-1,1322,1681,14.5516,-3.23669
105,-657,3.78223,16.9338,0,0,0,0,0,0,0,-1,1329,1681,3.78229,-16.9339
112,-657,4.00305,17.0612,0,0,0,0,0,0,0,-1,1336,1681,4.00308,-17.0611
119,-657,3.3877,15.0298,0,0,0,0,0,0,0,-1,1343,1681,3.38772,-15.0298
126,-657,4.22473,16.5466,0,0,0,0,0,0,0,-1,1350,1681,4.22471,-16.5467
133,-657,5.07544,17.8218,0,0,0,0,0,0,0,-1,1357,1681,5.07546,-17.8218
140,-657,5.30859,15.734,0,0,0,0,0,0,0,-1,1364,1681,5.30857,-15.734
147,-657,20.8457,-3.61353,0,0,0,0,0,0,0,-1,1371,1681,20.8457,3.61349
154,-657,12.2501,7.70422,0,0,0,0,0,0,0,-1,1378,1681,12.2501,-7.70418
161,-657,12.8524,6.43372,0,0,0,0,0,0,0,-1,1385,1681,12.8524,-6.43366
168,-657,5.21643,0.70105,0,0,0,0,0,0,0,-1,1392,1681,5.21648,-0.7011
175,-657,5.52771,0.649048,0,0,0,0,0,0,0,-1,1399,1681,5.52774,-0.649019
182,-657,5.73999,1.02612,0,0,0,0,0,0,0,-1,1406,1681,5.73995,-1.02611
189,-657,5.92126,1.44116,0,0,0,0,0,0,0,-1,1413,1681,5.92126,-1.44115
196,-657,4.92834,9.59021,0,0,0,0,0,0,0,-1,1420,1681,4.9284,-9.59018
203,-657,6.26343,5.16492,0,0,0,0,0,0,0,-1,1427,1681,6.26345,-5.16488
210,-657,3.9856,5.28088,0,0,0,0,0,0,0,-1,1434,1681,3.98555,-5.28084
217,-657,3.95178,5.2843,0,0,0,0,0,0,0,-1,1441,1681,3.95174,-5.28431
224,-657,6.66736,-0.250244,0,0,0,0,0,0,0,-1,1448,1681,6.66737,0.250229
231,-657,6.85498,-1.70752,0,0,0,0,0,0,0,-1,1455,1681,6.855,1.70758
238,-657,5.34143,-2.89819,0,0,0,0,0,0,0,-1,1462,1681,5.34143,2.89813
245,-657,8.66003,-0.102783,0,0,0,0,0,0,0,-1,1469,1681,8.66,0.102824
252,-657,4.78955,0.623779,0,0,0,0,0,0,0,-1,1476,1681,4.7895,-0.623826
259,-657,2.61523,4.31909,0,0,0,0,0,0,0,-1,1483,1681,2.61523,-4.31908
266,-657,5.35437,11.4742,0,0,0,0,0,0,0,-1,1490,1681,5.35441,-11.4742
273,-657,5.65466,14.5015,0,0,0,0,0,0,0,-1,1497,1681,5.65469,-14.5015
280,-657,5.45923,14.4214,0.00397836,-0.00449309,0.00643708,0.00744831,-0.00796303,0.494402,0.0088994,0.0374581,1504,1681,5.45927,-14.4213
287,-657,5.49597,14.4231,0.00327831,-0.00419817,0.00574348,0.00639296,-0.00731281,0.496906,0.00791897,0.0297986,1511,1681,5.496,-14.4231
294,-657,5.47839,14.3519,0.00262725,-0.00399353,0.00502047,0.00533049,-0.00669677,0.493928,0.00695886,0.0236545,1518,1681,5.47835,-14.3519
301,-657,5.45911,14.2734,0.00206817,-0.00369685,0.0042956,0.00435877,-0.00598745,0.489887,0.00599801,0.015456,1525,1681,5.45906,-14.2735
308,-657,5.46558,14.1748,0.00155696,-0.00325748,0.00360058,0.0034809,-0.00518141,0.490741,0.00503321,0.0116547,1532,1681,5.46554,-14.1748
315,-657,5.46265,14.0717,0.00111054,-0.00284201,0.00299179,0.00271985,-0.00445132,0.493515,0.00418031,0.0112284,1539,1681,5.46262,-14.0716
322,-657,5.48584,13.9733,0.00074745,-0.00246442,0.00252529,0.00213419,-0.00385116,0.502184,0.00350272,0.0128673,1546,1681,5.48581,-13.9732
329,-657,5.49048,13.8744,0.000580442,-0.00221766,0.00207207,0.00168155,-0.00331877,0.488456,0.00293807,0.0184588,1553,1681,5.49053,-13.8744
336,-657,5.49341,13.7406,0.000338822,-0.00210024,0.00167442,0.00119075,-0.00295217,0.470654,0.00246292,0.0161707,1560,1681,5.49344,-13.7406
343,-657,5.51306,13.6163,0.000359009,-0.00203004,0.00124986,0.000893366,-0.0025644,0.404016,0.00207259,0.0126161,1567,1681,5.51305,-13.6163
350,-657,5.51111,13.4727,0.000562326,-0.00193771,0.00091838,0.000863426,-0.00223881,0.316816,0.00184882,0.0150114,1574,1681,5.51114,-13.4727
357,-657,5.50244,13.3236,0.000663354,-0.00187504,0.000633667,0.000812746,-0.00202443,0.23153,0.00168711,0.0145638,1581,1681,5.50241,-13.3236
364,-657,5.5177,13.1987,0.000851366,-0.00181725,0.000233233,0.000871597,-0.00183748,0.0865245,0.00159688,0.0107939,1588,1681,5.51773,-13.1987
371,-657,5.52612,13.0803,0.00115544,-0.00173058,-0.000205619,0.00117001,-0.00174516,-0.0707702,0.00169396,0.0147427,1595,1681,5.52607,-13.0803
378,-657,5.50757,12.9429,0.00150849,-0.00154803,-0.0006616,0.00164555,-0.00168509,-0.204276,0.00192299,0.0146373,1602,1681,5.50762,-12.9429
385,-657,5.49597,12.8206,0.0019555,-0.00155541,-0.00119616,0.00232429,-0.0019242,-0.299065,0.00245649,0.0126479,1609,1681,5.49596,-12.8206
392,-657,5.51697,12.6757,0.0022586,-0.0013401,-0.00173351,0.00295779,-0.00203929,-0.383382,0.00290127,0.0126833,1616,1681,5.51694,-12.6756
399,-657,5.53589,12.5144,0.0024111,-0.00119054,-0.00213541,0.00340365,-0.00218309,-0.435099,0.00325107,0.0129083,1623,1681,5.53593,-12.5144
406,-657,5.51965,12.3629,0.00237242,-0.00131779,-0.00225714,0.00344264,-0.00238801,-0.442751,0.00338463,0.0132976,1630,1681,5.51964,-12.3629
413,-657,5.51941,12.1888,0.00192138,-0.00193254,-0.00199344,0.00276696,-0.00277812,-0.401177,0.00320146,0.0128051,1637,1681,5.51939,-12.1888
420,-657,5.52832,12.0104,0.00085336,-0.00341286,-0.000969248,0.00106324,-0.00362274,-0.213246,0.00283679,0.0142928,1644,1681,5.52832,-12.0104
427,-657,5.51123,11.828,-0.000261986,-0.00487391,0.000145893,-0.000257375,-0.00487852,0.0315919,0.00317004,0.0167463,1651,1681,5.51128,-11.8279
434,-657,5.58972,11.6633,-0.00185677,-0.00704994,0.0018752,-0.00125045,-0.00765626,0.312728,0.00474263,0.0238578,1658,1681,5.58968,-11.6633
441,-657,5.80005,11.3571,0,0,0,0,0,0,0,-1,1665,1681,5.8001,-11.357
448,-657,5.14307,11.5326,0,0,0,0,0,0,0,-1,1672,1681,5.14305,-11.5326
455,-657,4.81714,11.6316,0,0,0,0,0,0,0,-1,1679,1681,4.8171,-11.6316
462,-657,4.80396,11.7615,0,0,0,0,0,0,0,-1,1686,1681,4.80396,-11.7614
469,-657,4.26965,11.9387,0,0,0,0,0,0,0,-1,1693,1681,4.2697,-11.9387
476,-657,8.37659,10.886,0,0,0,0,0,0,0,-1,1700,1681,8.37653,-10.886
483,-657,7.65344,7.35059,0,0,0,0,0,0,0,-1,1707,1681,7.65347,-7.3506
490,-657,7.67432,6.69788,0,0,0,0,0,0,0,-1,1714,1681,7.67437,-6.69788
497,-657,5.81604,9.67004,0,0,0,0,0,0,0,-1,1721,1681,5.81602,-9.67
504,-657,0,0,0,0,0,0,0,0,0,-1,1728,1681,0,0
511,-657,0,0,0,0,0,0,0,0,0,-1,1735,1681,0,0
518,-657,0,0,0,0,0,0,0,0,0,-1,1742,1681,0,0
525,-657,0,0,0,0,0,0,0,0,0,-1,1749,1681,0,0
532,-657,0,0,0,0,0,0,0,0,0,-1,1756,1681,0,0
539,-657,0,0,0,0,0,0,0,0,0,-1,1763,1681,0,0
546,-657,0,0,0,0,0,0,0,0,0,-1,1770,1681,0,0
553,-657,0,0,0,0,0,0,0,0,0,-1,1777,1681,0,0
560,-657,0,0,0,0,0,0,0,0,0,-1,1784,1681,0,0
567,-657,0,0,0,0,0,0,0,0,0,-1,1791,1681,0,0
574,-657,0,0,0,0,0,0,0,0,0,-1,1798,1681,0,0
581,-657,0,0,0,0,0,0,0,0,0,-1,1805,1681,0,0
588,-657,0,0,0,0,0,0,0,0,0,-1,1812,1681,0,0
595,-657,0,0,0,0,0,0,0,0,0,-1,1819,1681,0,0
602,-657,0,0,0,0,0,0,0,0,0,-1,1826,1681,0,0
609,-657,0,0,0,0,0,0,0,0,0,-1,1833,1681,0,0
616,-657,0,0,0,0,0,0,0,0,0,-1,1840,1681,0,0
623,-657,0,0,0,0,0,0,0,0,0,-1,1847,1681,0,0
630,-657,0,0,0,0,0,0,0,0,0,-1,1854,1681,0,0
637,-657,0,0,0,0,0,0,0,0,0,-1,1861,1681,0,0
644,-657,0,0,0,0,0,0,0,0,0,-1,1868,1681,0,0
651,-657,0,0,0,0,0,0,0,0,0,-1,1875,1681,0,0
658,-657,0,0,0,0,0,0,0,0,0,-1,1882,1681,0,0
665,-657,0,0,0,0,0,0,0,0,0,-1,1889,1681,0,0
672,-657,0,0,0,0,0,0,0,0,0,-1,1896,1681,0,0
679,-657,0,0,0,0,0,0,0,0,0,-1,1903,1681,0,0
686,-657,0,0,0,0,0,0,0,0,0,-1,1910,1681,0,0
693,-657,0,0,0,0,0,0,0,0,0,-1,1917,1681,0,0
700,-657,0,0,0,0,0,0,0,0,0,-1,1924,1681,0,0
707,-657,0,0,0,0,0,0,0,0,0,-1,1931,1681,0,0
714,-657,0,0,0,0,0,0,0,0,0,-1,1938,1681,0,0
721,-657,0,0,0,0,0,0,0,0,0,-1,1945,1681,0,0
728,-657,0,0,0,0,0,0,0,0,0,-1,1952,1681,0,0
735,-657,0,0,0,0,0,0,0,0,0,-1,1959,1681,0,0
742,-657,0,0,0,0,0,0,0,0,0,-1,1966,1681,0,0
749,-657,0,0,0,0,0,0,0,0,0,-1,1973,1681,0,0
756,-657,0,0,0,0,0,0,0,0,0,-1,1980,1681,0,0
763,-657,0,0,0,0,0,0,0,0,0,-1,1987,1681,0,0
770,-657,0,0,0,0,0,0,0,0,0,-1,1994,1681,0,0
777,-657,0,0,0,0,0,0,0,0,0,-1,2001,1681,0,0
784,-657,0,0,0,0,0,0,0,0,0,-1,2008,1681,0,0
791,-657,0,0,0,0,0,0,0,0,0,-1,2015,1681,0,0
798,-657,0,0,0,0,0,0,0,0,0,-1,2022,1681,0,0
805,-657,0,0,0,0,0,0,0,0,0,-1,2029,1681,0,0
812,-657,0,0,0,0,0,0,0,0,0,-1,2036,1681,0,0
-700,-664,0,0,0,0,0,0,0,0,0,-1,524,1688,0,0
-693,-664,0,0,0,0,0,0,0,0,0,-1,531,1688,0,0
-686,-664,0,0,0,0,0,0,0,0,0,-1,538,1688,0,0
-679,-664,0,0,0,0,0,0,0,0,0,-1,545,1688,0,0
-672,-664,0,0,0,0,0,0,0,0,0,-1,552,1688,0,0
-665,-664,0,0,0,0,0,0,0,0,0,-1,559,1688,0,0
-658,-664,0,0,0,0,0,0,0,0,0,-1,566,1688,0,0
-651,-664,0,0,0,0,0,0,0,0,0,-1,573,1688,0,0
-644,-664,0,0,0,0,0,0,0,0,0,-1,580,1688,0,0
-637,-664,0,0,0,0,0,0,0,0,0,-1,587,1688,0,0
-630,-664,0,0,0,0,0,0,0,0,0,-1,594,1688,0,0
-623,-664,0,0,0,0,0,0,0,0,0,-1,601,1688,0,0
-616,-664,0,0,0,0,0,0,0,0,0,-1,608,1688,0,0
-609,-664,0,0,0,0,0,0,0,0,0,-1,615,1688,0,0
-602,-664,0,0,0,0,0,0,0,0,0,-1,622,1688,0,0
-595,-664,0,0,0,0,0,0,0,0,0,-1,629,1688,0,0
-588,-664,0,0,0,0,0,0,0,0,0,-1,636,1688,0,0
-581,-664,0,0,0,0,0,0,0,0,0,-1,643,1688,0,0
-574,-664,0,0,0,0,0,0,0,0,0,-1,650,1688,0,0
-567,-664,0,0,0,0,0,0,0,0,0,-1,657,1688,0,0
-560,-664,0,0,0,0,0,0,0,0,0,-1,664,1688,0,0
-553,-664,0,0,0,0,0,0,0,0,0,-1,671,1688,0,0
-546,-664,0,0,0,0,0,0,0,0,0,-1,678,1688,0,0
-539,-664,0,0,0,0,0,0,0,0,0,-1,685,1688,0,0
-532,-664,0,0,0,0,0,0,0,0,0,-1,692,1688,0,0
-525,-664,0,0,0,0,0,0,0,0,0,-1,699,1688,0,0
-518,-664,0,0,0,0,0,0,0,0,0,-1,706,1688,0,0
-511,-664,0,0,0,0,0,0,0,0,0,-1,713,1688,0,0
-504,-664,0,0,0,0,0,0,0,0,0,-1,720,1688,0,0
-497,-664,0,0,0,0,0,0,0,0,0,-1,727,1688,0,0
-490,-664,0,0,0,0,0,0,0,0,0,-1,734,1688,0,0
-483,-664,0,0,0,0,0,0,0,0,0,-1,741,1688,0,0
-476,-664,0,0,0,0,0,0,0,0,0,-1,748,1688,0,0
-469,-664,0,0,0,0,0,0,0,0,0,-1,755,1688,0,0
-462,-664,0,0,0,0,0,0,0,0,0,-1,762,1688,0,0
-455,-664,0,0,0,0,0,0,0,0,0,-1,769,1688,0,0
-448,-664,0,0,0,0,0,0,0,0,0,-1,776,1688,0,0
-441,-664,0,0,0,0,0,0,0,0,0,-1,783,1688,0,0
-434,-664,0,0,0,0,0,0,0,0,0,-1,790,1688,0,0
-427,-664,0,0,0,0,0,0,0,0,0,-1,797,1688,0,0
-420,-664,0,0,0,0,0,0,0,0,0,-1,804,1688,0,0
-413,-664,0,0,0,0,0,0,0,0,0,-1,811,1688,0,0
-406,-664,0,0,0,0,0,0,0,0,0,-1,818,1688,0,0
-399,-664,0,0,0,0,0,0,0,0,0,-1,825,1688,0,0
-392,-664,0,0,0,0,0,0,0,0,0,-1,832,1688,0,0
-385,-664,0,0,0,0,0,0,0,0,0,-1,839,1688,0,0
-378,-664,0,0,0,0,0,0,0,0,0,-1,846,1688,0,0
-371,-664,-1.61676,5.92737,0,0,0,0,0,0,0,-1,853,1688,-1.61675,-5.92735
-364,-664,-3.901,5.87024,0,0,0,0,0,0,0,-1,860,1688,-3.90097,-5.87027
-357,-664,-4.81012,4.53479,0,0,0,0,0,0,0,-1,867,1688,-4.81012,-4.5348
-350,-664,-5.7193,3.19934,0,0,0,0,0,0,0,-1,874,1688,-5.71927,-3.19932
-343,-664,-6.37476,1.54712,0,0,0,0,0,0,0,-1,881,1688,-6.37479,-1.54714
-336,-664,2.76624,10.5366,0,0,0,0,0,0,0,-1,888,1688,2.76621,-10.5366
-329,-664,3.38049,10.3722,0,0,0,0,0,0,0,-1,895,1688,3.3805,-10.3722
-322,-664,3.98755,10.1888,0.00469423,-0.000997955,0.000387331,0.00472047,-0.00102419,0.0676306,0.00353814,0.0492362,902,1688,3.98752,-10.1888
-315,-664,4.56982,10.0443,0.00201956,0.000291946,0.00268021,0.00397172,-0.00166022,0.629508,0.00334164,0.0497382,909,1688,4.56984,-10.0443
-308,-664,4.17682,10.462,-2.86452e-05,0.000894589,0.00461238,0.0050684,-0.00420246,0.835273,0.00536031,0.0428763,916,1688,4.17681,-10.462
-301,-664,3.7066,10.6616,-0.00120242,0.00128817,0.00613748,0.00630541,-0.00621967,0.885489,0.00723142,0.0454641,923,1688,3.70658,-10.6616
-294,-664,3.62592,10.8893,-0.0015164,0.00135874,0.00743278,0.00749169,-0.00764935,0.880923,0.00874185,0.0412667,930,1688,3.6259,-10.8893
-287,-664,3.63904,11.1119,-0.00136343,0.00127238,0.00808846,0.0081496,-0.00824065,0.866157,0.00946296,0.0278071,937,1688,3.63903,-11.112
-280,-664,3.61743,11.2738,-0.00103007,0.00125624,0.00798748,0.00818196,-0.00795579,0.856474,0.00931744,0.0189358,944,1688,3.61745,-11.2738
-273,-664,3.59875,11.4283,-0.000400812,0.00133733,0.00742689,0.00794582,-0.0070093,0.843642,0.00863999,0.0154593,951,1688,3.59878,-11.4284
-266,-664,3.55896,11.5994,-5.69207e-05,0.00133552,0.00669895,0.00737433,-0.00609573,0.837177,0.00778861,0.0217718,958,1688,3.55895,-11.5993
-259,-664,3.56873,11.7791,0.000548875,0.00117157,0.00573052,0.0065992,-0.00487875,0.812537,0.00665157,0.0182397,965,1688,3.56874,-11.7791
-252,-664,3.59918,11.9432,0.00116406,0.00111654,0.00445227,0.00559263,-0.00331203,0.78273,0.00519701,0.0169336,972,1688,3.59918,-11.9433
-245,-664,3.57825,12.105,0.00144123,0.00096185,0.0031028,0.00431358,-0.0019105,0.74685,0.00368167,0.021136,979,1688,3.57822,-12.1049
-238,-664,3.58105,12.2534,0.00138102,0.000488692,0.00185963,0.00284727,-0.000977549,0.667663,0.00229452,0.0236341,986,1688,3.58104,-12.2535
-231,-664,3.58911,12.3933,0.00142001,7.18165e-05,0.00106107,0.002003,-0.000511181,0.502414,0.00153438,0.0204878,993,1688,3.58913,-12.3933
-224,-664,3.58539,12.5824,0.00187286,-0.000301979,0.000344115,0.00192601,-0.000355128,0.15324,0.00141729,0.0150976,1000,1688,3.58537,-12.5824
-217,-664,3.57837,12.7375,0.00201177,-0.000968178,-0.000279566,0.00203777,-0.000994178,-0.0927374,0.00178473,0.0114371,1007,1688,3.57839,-12.7376
-210,-664,3.59802,12.8846,0.00182089,-0.00192156,-0.000376452,0.00185838,-0.00195905,-0.0992648,0.00220425,0.011594,1014,1688,3.59803,-12.8847
-203,-664,3.60571,13.0463,0.00186757,-0.00274246,-0.000307908,0.00188805,-0.00276294,-0.0663978,0.00270104,0.0140739,1021,1688,3.60571,-13.0463
-196,-664,3.60706,13.1639,0.00206862,-0.00348798,-0.00015373,0.00207287,-0.00349223,-0.027638,0.00324766,0.014628,1028,1688,3.6071,-13.164
-189,-664,3.61584,13.286,0.00230514,-0.00408174,-9.55368e-05,0.00230657,-0.00408317,-0.0149538,0.00373635,0.00983017,1035,1688,3.6159,-13.286
-182,-664,3.59985,13.4344,0.0025787,-0.00496612,6.8531e-05,0.00257933,-0.00496674,0.00908219,0.00442881,0.00939987,1042,1688,3.59985,-13.4345
-175,-664,3.60217,13.5394,0.00298898,-0.00574092,0.000275385,0.00299765,-0.0057496,0.0315033,0.00513286,0.012908,1049,1688,3.60219,-13.5394
-168,-664,3.60876,13.6624,0.00347936,-0.00639547,0.000461417,0.00350087,-0.00641699,0.0465913,0.005808,0.0125169,1056,1688,3.60876,-13.6624
-161,-664,3.61572,13.8015,0.00405028,-0.00716366,0.000702607,0.00409413,-0.00720751,0.0623299,0.00660702,0.00890913,1063,1688,3.61572,-13.8015
-154,-664,3.63574,13.9172,0.00476752,-0.00795175,0.00104602,0.00485297,-0.0080372,0.0815096,0.00751745,0.00873087,1070,1688,3.63576,-13.9172
-147,-664,3.64539,14.0178,0.00546308,-0.00876579,0.00132813,0.00558599,-0.0088887,0.0922784,0.00842916,0.00933996,1077,1688,3.64534,-14.0178
-140,-664,3.65039,14.1294,0.00613575,-0.00974537,0.00163846,0.00630303,-0.00991265,0.101742,0.00943912,0.00994923,1084,1688,3.65042,-14.1294
-133,-664,3.65491,14.2335,0.00689188,-0.0110648,0.00195509,0.00710228,-0.0112752,0.107204,0.010701,0.010484,1091,1688,3.65495,-14.2335
-126,-664,3.72729,14.3296,0.00789313,-0.0125384,0.0023636,0.008163,-0.0128082,0.113684,0.0122064,0.0191955,1098,1688,3.72728,-14.3295
-119,-664,3.83044,14.3628,0.00888204,-0.0136243,0.00277075,0.00921813,-0.0139604,0.120709,0.0134752,0.0342952,1105,1688,3.83041,-14.3628
-112,-664,3.95337,14.4344,0.00989265,-0.0146291,0.0031291,0.0102856,-0.0150221,0.124938,0.0146965,0.0432104,1112,1688,3.95333,-14.4344
-105,-664,4.40393,13.9832,0,0,0,0,0,0,0,-1,1119,1688,4.40395,-13.9832
-98,-664,5.13562,14.3651,0,0,0,0,0,0,0,-1,1126,1688,5.13565,-14.3651
-91,-664,4.55774,14.2224,0,0,0,0,0,0,0,-1,1133,1688,4.55768,-14.2225
-84,-664,3.97974,14.0798,0,0,0,0,0,0,0,-1,1140,1688,3.97972,-14.0798
-77,-664,4.52014,11.2122,0,0,0,0,0,0,0,-1,1147,1688,4.5202,-11.2122
-70,-664,4.20374,8.24524,0,0,0,0,0,0,0,-1,1154,1688,4.20379,-8.24519
-63,-664,-4.677,2.40503,0,0,0,0,0,0,0,-1,1161,1688,-4.67702,-2.40498
-56,-664,-4.66504,3.32727,0,0,0,0,0,0,0,-1,1168,1688,-4.6651,-3.32724
-49,-664,-2.54297,3.31848,0,0,0,0,0,0,0,-1,1175,1688,-2.54297,-3.31852
-42,-664,-0.359253,4.38684,0,0,0,0,0,0,0,-1,1182,1688,-0.359261,-4.38685
-35,-664,-0.705566,3.55017,0,0,0,0,0,0,0,-1,1189,1688,-0.705567,-3.55023
-28,-664,-1.54236,10.2538,0,0,0,0,0,0,0,-1,1196,1688,-1.54236,-10.2538
-21,-664,4.13757,14.854,0,0,0,0,0,0,0,-1,1203,1688,4.13754,-14.854
-14,-664,4.51636,14.7729,0.028382,-0.0156627,-0.000357752,0.0283849,-0.0156656,-0.00812176,0.0257835,0.0483413,1210,1688,4.51633,-14.7729
-7,-664,4.85608,14.6481,0.0276925,-0.0120184,-0.00192937,0.027786,-0.0121119,-0.0484333,0.0236202,0.0497414,1217,1688,4.85604,-14.648
0,-664,5.14661,14.4963,0.0318219,-0.00556802,-0.00552214,0.0326205,-0.00636654,-0.143607,0.0241505,0.0466477,1224,1688,5.14666,-14.4963
7,-664,4.05261,15.2312,0.0402657,0.00701155,-0.0134301,0.0450122,0.00226514,-0.339716,0.0292823,0.0471842,1231,1688,4.05258,-15.2312
14,-664,4.40149,14.558,0.0501048,0.021767,-0.023045,0.0629882,0.00888357,-0.50977,0.0393665,0.0450691,1238,1688,4.40149,-14.558
21,-664,4.49646,14.1011,0.0600962,0.0387115,-0.0342734,0.0853064,0.0135013,-0.634196,0.0529474,0.0458716,1245,1688,4.49649,-14.1011
28,-664,4.64355,13.6458,0.0676961,0.0553732,-0.0415639,0.103553,0.0195165,-0.711813,0.0635368,0.0456968,1252,1688,4.64359,-13.6458
35,-664,4.8075,13.1996,0,0,0,0,0,0,0,-1,1259,1688,4.80747,-13.1996
42,-664,7.16602,14.2317,0,0,0,0,0,0,0,-1,1266,1688,7.16604,-14.2317
49,-664,11.797,6.47632,0,0,0,0,0,0,0,-1,1273,1688,11.797,-6.47635
56,-664,12.1345,5.60986,0,0,0,0,0,0,0,-1,1280,1688,12.1346,-5.60989
63,-664,12.968,7.37439,0,0,0,0,0,0,0,-1,1287,1688,12.968,-7.37444
70,-664,12.9728,6.70068,0.0739786,0.12881,-0.0416767,0.15128,0.0515087,-1.07632,0.0888107,0.0464995,1294,1688,12.9727,-6.70063
77,-664,13.1033,5.79736,0.0672985,0.132253,-0.0349207,0.147464,0.0520868,-1.15998,0.0863529,0.0406904,1301,1688,13.1033,-5.79733
84,-664,13.127,5.12927,0.0593486,0.132894,-0.0273514,0.141951,0.0502919,-1.25104,0.0831071,0.0463017,1308,1688,13.127,-5.12925
91,-664,13.5422,4.2478,0.050878,0.130294,-0.0217898,0.13588,0.0452923,-1.31985,0.0798898,0.0448119,1315,1688,13.5423,-4.2478
98,-664,14.1533,3.66113,0,0,0,0,0,0,0,-1,1322,1688,14.1534,-3.66113
105,-664,4.60278,16.6176,0,0,0,0,0,0,0,-1,1329,1688,4.60273,-16.6176
112,-664,4.24731,16.7537,0,0,0,0,0,0,0,-1,1336,1688,4.24731,-16.7536
119,-664,3.95728,16.8662,0,0,0,0,0,0,0,-1,1343,1688,3.95726,-16.8663
126,-664,4.80432,15.6969,0,0,0,0,0,0,0,-1,1350,1688,4.80427,-15.6969
133,-664,5.2312,15.5846,0,0,0,0,0,0,0,-1,1357,1688,5.23126,-15.5845
140,-664,5.23218,15.7061,0,0,0,0,0,0,0,-1,1364,1688,5.23223,-15.706
147,-664,5.23315,15.8275,0,0,0,0,0,0,0,-1,1371,1688,5.2332,-15.8275
154,-664,13.5482,5.89453,0,0,0,0,0,0,0,-1,1378,1688,13.5482,-5.8945
161,-664,4.60132,1.56238,0,0,0,0,0,0,0,-1,1385,1688,4.60134,-1.56233
168,-664,5.172,1.25488,0,0,0,0,0,0,0,-1,1392,1688,5.17203,-1.25484
175,-664,5.58313,1.16467,0,0,0,0,0,0,0,-1,1399,1688,5.58317,-1.16466
182,-664,5.74268,1.41113,0,0,0,0,0,0,0,-1,1406,1688,5.74263,-1.41115
189,-664,5.87744,1.87061,0,0,0,0,0,0,0,-1,1413,1688,5.87745,-1.87065
196,-664,6.7594,5.97473,0,0,0,0,0,0,0,-1,1420,1688,6.75943,-5.97478
203,-664,5.38452,5.22034,0,0,0,0,0,0,0,-1,1427,1688,5.38453,-5.2203
210,-664,5.25549,6.45715,0,0,0,0,0,0,0,-1,1434,1688,5.25549,-6.45721
217,-664,5.72009,6.73975,0,0,0,0,0,0,0,-1,1441,1688,5.72014,-6.73972
224,-664,5.05725,7.42908,0,0,0,0,0,0,0,-1,1448,1688,5.05723,-7.42912
231,-664,5.13318,7.60864,0,0,0,0,0,0,0,-1,1455,1688,5.13313,-7.60862
238,-664,4.23193,6.45471,0,0,0,0,0,0,0,-1,1462,1688,4.23197,-6.45476
245,-664,4.42004,6.80896,0,0,0,0,0,0,0,-1,1469,1688,4.4201,-6.80901
252,-664,3.67346,6.85461,0,0,0,0,0,0,0,-1,1476,1688,3.6734,-6.85462
259,-664,4.55823,11.7435,0,0,0,0,0,0,0,-1,1483,1688,4.55826,-11.7435
266,-664,5.43274,14.6011,0,0,0,0,0,0,0,-1,1490,1688,5.43279,-14.6011
273,-664,5.42651,14.5942,0.00336464,-0.0045177,0.00509702,0.00586649,-0.00701954,0.456296,0.00744967,0.0322754,1497,1688,5.42654,-14.5943
280,-664,5.30518,14.551,0.00291373,-0.0040788,0.00466918,0.00525057,-0.00641564,0.464033,0.00674667,0.0223358,1504,1688,5.30515,-14.551
287,-664,5.26489,14.4574,0.00242884,-0.00358873,0.00417734,0.00456815,-0.00572805,0.4733,0.00595707,0.0197202,1511,1688,5.2649,-14.4574
294,-664,5.33081,14.3781,0.00200017,-0.00321801,0.00367746,0.00390008,-0.00511792,0.476867,0.00522235,0.0142758,1518,1688,5.33081,-14.3781
301,-664,5.35181,14.2985,0.0016156,-0.00281949,0.00315378,0.00325342,-0.0044573,0.478983,0.00446984,0.00973675,1525,1688,5.35182,-14.2985
308,-664,5.35693,14.1741,0.00125492,-0.00238006,0.00261041,0.00261824,-0.00374338,0.481297,0.00369198,0.00986749,1532,1688,5.35689,-14.1741
315,-664,5.36975,14.059,0.000993617,-0.0020355,0.00223496,0.00217886,-0.00322074,0.487609,0.00313675,0.0112671,1539,1688,5.36975,-14.059
322,-664,5.40173,13.9813,0.000847621,-0.00188414,0.00198762,0.00189344,-0.00292995,0.484359,0.00280614,0.0146452,1546,1688,5.40178,-13.9814
329,-664,5.39673,13.8856,0.000895902,-0.00194005,0.00171546,0.00170356,-0.00274771,0.440026,0.0025934,0.017011,1553,1688,5.39672,-13.8856
336,-664,5.39026,13.7434,0.000863388,-0.00207434,0.00150566,0.00149799,-0.00270895,0.398884,0.00246219,0.0141515,1560,1688,5.39031,-13.7434
343,-664,5.39355,13.597,0.00106059,-0.00218953,0.0012461,0.00148335,-0.00261229,0.327083,0.00239438,0.0112148,1567,1688,5.39358,-13.5971
350,-664,5.38147,13.4604,0.00141919,-0.00240843,0.0010455,0.00168614,-0.00267539,0.249996,0.00253963,0.0131274,1574,1688,5.38149,-13.4604
357,-664,5.36902,13.3171,0.00169549,-0.0026287,0.000830116,0.00184937,-0.00278258,0.183293,0.00269229,0.0130756,1581,1688,5.36907,-13.3171
364,-664,5.3783,13.1797,0.0020394,-0.00282484,0.000483062,0.00208691,-0.00287235,0.0980331,0.00287517,0.0107281,1588,1688,5.37823,-13.1797
371,-664,5.4071,13.0645,0.00246633,-0.00292054,3.28578e-05,0.00246653,-0.00292074,0.00609931,0.00311403,0.0133083,1595,1688,5.40711,-13.0644
378,-664,5.39441,12.9374,0.00291192,-0.0028681,-0.000477967,0.00295118,-0.00290735,-0.0819513,0.00338245,0.01268,1602,1688,5.39436,-12.9374
385,-664,5.38123,12.8091,0.00344538,-0.00298713,-0.00113534,0.00363988,-0.00318164,-0.169673,0.00394137,0.0126659,1609,1688,5.38121,-12.8091
392,-664,5.35742,12.6891,0.00379929,-0.00277854,-0.00182989,0.00427407,-0.00325333,-0.253864,0.00435925,0.01539,1616,1688,5.35739,-12.6891
399,-664,5.37219,12.5258,0.00397292,-0.00264119,-0.00238695,0.00474436,-0.00341263,-0.312596,0.00473032,0.012977,1623,1688,5.37216,-12.5257
406,-664,5.38708,12.3579,0.00393276,-0.00277829,-0.00265017,0.00485309,-0.00369862,-0.334243,0.00495231,0.0117106,1630,1688,5.38708,-12.3579
413,-664,5.4137,12.1655,0.00336459,-0.00354013,-0.00273074,0.00431401,-0.00448955,-0.334608,0.00508308,0.0120986,1637,1688,5.41368,-12.1655
420,-664,5.47522,11.9843,0.00200587,-0.00479072,-0.00178589,0.00244656,-0.00523141,-0.241929,0.00452903,0.0252326,1644,1688,5.47524,-11.9843
427,-664,5.48499,11.8529,0.000436667,-0.00624409,-0.000523489,0.000477438,-0.00628486,-0.0777256,0.00435778,0.0401246,1651,1688,5.48499,-11.8529
434,-664,5.5697,11.7987,-0.00176999,-0.00861297,0.00173136,-0.00135687,-0.00902609,0.234228,0.00561997,0.0404145,1658,1688,5.56973,-11.7987
441,-664,5.82849,11.673,0,0,0,0,0,0,0,-1,1665,1688,5.82852,-11.673
448,-664,6.026,11.4924,0,0,0,0,0,0,0,-1,1672,1688,6.02598,-11.4925
455,-664,6.17017,11.2819,0,0,0,0,0,0,0,-1,1679,1688,6.17021,-11.2818
462,-664,4.3147,4.25439,0,0,0,0,0,0,0,-1,1686,1688,4.31467,-4.25435
469,-664,6.05469,7.49341,0,0,0,0,0,0,0,-1,1693,1688,6.05474,-7.49339
476,-664,9.76514,11.5648,0,0,0,0,0,0,0,-1,1700,1688,9.76511,-11.5648
483,-664,8.41895,10.9768,0,0,0,0,0,0,0,-1,1707,1688,8.41897,-10.9769
490,-664,6.82959,10.4489,0,0,0,0,0,0,0,-1,1714,1688,6.82961,-10.4488
497,-664,0,0,0,0,0,0,0,0,0,-1,1721,1688,0,0
504,-664,0,0,0,0,0,0,0,0,0,-1,1728,1688,0,0
511,-664,0,0,0,0,0,0,0,0,0,-1,1735,1688,0,0
518,-664,0,0,0,0,0,0,0,0,0,-1,1742,1688,0,0
525,-664,0,0,0,0,0,0,0,0,0,-1,1749,1688,0,0
532,-664,0,0,0,0,0,0,0,0,0,-1,1756,1688,0,0
539,-664,0,0,0,0,0,0,0,0,0,-1,1763,1688,0,0
546,-664,0,0,0,0,0,0,0,0,0,-1,1770,1688,0,0
553,-664,0,0,0,0,0,0,0,0,0,-1,1777,1688,0,0
560,-664,0,0,0,0,0,0,0,0,0,-1,1784,1688,0,0
567,-664,0,0,0,0,0,0,0,0,0,-1,1791,1688,0,0
574,-664,0,0,0,0,0,0,0,0,0,-1,1798,1688,0,0
581,-664,0,0,0,0,0,0,0,0,0,-1,1805,1688,0,0
588,-664,0,0,0,0,0,0,0,0,0,-1,1812,1688,0,0
595,-664,0,0,0,0,0,0,0,0,0,-1,1819,1688,0,0
602,-664,0,0,0,0,0,0,0,0,0,-1,1826,1688,0,0
609,-664,0,0,0,0,0,0,0,0,0,-1,1833,1688,0,0
616,-664,0,0,0,0,0,0,0,0,0,-1,1840,1688,0,0
623,-664,0,0,0,0,0,0,0,0,0,-1,1847,1688,0,0
630,-664,0,0,0,0,0,0,0,0,0,-1,1854,1688,0,0
637,-664,0,0,0,0,0,0,0,0,0,-1,1861,1688,0,0
644,-664,0,0,0,0,0,0,0,0,0,-1,1868,1688,0,0
651,-664,0,0,0,0,0,0,0,0,0,-1,1875,1688,0,0
658,-664,0,0,0,0,0,0,0,0,0,-1,1882,1688,0,0
665,-664,0,0,0,0,0,0,0,0,0,-1,1889,1688,0,0
672,-664,0,0,0,0,0,0,0,0,0,-1,1896,1688,0,0
679,-664,0,0,0,0,0,0,0,0,0,-1,1903,1688,0,0
686,-664,0,0,0,0,0,0,0,0,0,-1,1910,1688,0,0
693,-664,0,0,0,0,0,0,0,0,0,-1,1917,1688,0,0
700,-664,0,0,0,0,0,0,0,0,0,-1,1924,1688,0,0
707,-664,0,0,0,0,0,0,0,0,0,-1,1931,1688,0,0
714,-664,0,0,0,0,0,0,0,0,0,-1,1938,1688,0,0
721,-664,0,0,0,0,0,0,0,0,0,-1,1945,1688,0,0
728,-664,0,0,0,0,0,0,0,0,0,-1,1952,1688,0,0
735,-664,0,0,0,0,0,0,0,0,0,-1,1959,1688,0,0
742,-664,0,0,0,0,0,0,0,0,0,-1,1966,1688,0,0
749,-664,0,0,0,0,0,0,0,0,0,-1,1973,1688,0,0
756,-664,0,0,0,0,0,0,0,0,0,-1,1980,1688,0,0
763,-664,0,0,0,0,0,0,0,0,0,-1,1987,1688,0,0
770,-664,0,0,0,0,0,0,0,0,0,-1,1994,1688,0,0
777,-664,0,0,0,0,0,0,0,0,0,-1,2001,1688,0,0
784,-664,0,0,0,0,0,0,0,0,0,-1,2008,1688,0,0
791,-664,0,0,0,0,0,0,0,0,0,-1,2015,1688,0,0
798,-664,0,0,0,0,0,0,0,0,0,-1,2022,1688,0,0
805,-664,0,0,0,0,0,0,0,0,0,-1,2029,1688,0,0
812,-664,0,0,0,0,0,0,0,0,0,-1,2036,1688,0,0
-700,-671,0,0,0,0,0,0,0,0,0,-1,524,1695,0,0
-693,-671,0,0,0,0,0,0,0,0,0,-1,531,1695,0,0
-686,-671,0,0,0,0,0,0,0,0,0,-1,538,1695,0,0
-679,-671,0,0,0,0,0,0,0,0,0,-1,545,1695,0,0
-672,-671,0,0,0,0,0,0,0,0,0,-1,552,1695,0,0
-665,-671,0,0,0,0,0,0,0,0,0,-1,559,1695,0,0
-658,-671,0,0,0,0,0,0,0,0,0,-1,566,1695,0,0
-651,-671,0,0,0,0,0,0,0,0,0,-1,573,1695,0,0
-644,-671,0,0,0,0,0,0,0,0,0,-1,580,1695,0,0
-637,-671,0,0,0,0,0,0,0,0,0,-1,587,1695,0,0
-630,-671,0,0,0,0,0,0,0,0,0,-1,594,1695,0,0
-623,-671,0,0,0,0,0,0,0,0,0,-1,601,1695,0,0
-616,-671,0,0,0,0,0,0,0,0,0,-1,608,1695,0,0
-609,-671,0,0,0,0,0,0,0,0,0,-1,615,1695,0,0
-602,-671,0,0,0,0,0,0,0,0,0,-1,622,1695,0,0
-595,-671,0,0,0,0,0,0,0,0,0,-1,629,1695,0,0
-588,-671,0,0,0,0,0,0,0,0,0,-1,636,1695,0,0
-581,-671,0,0,0,0,0,0,0,0,0,-1,643,1695,0,0
-574,-671,0,0,0,0,0,0,0,0,0,-1,650,1695,0,0
-567,-671,0,0,0,0,0,0,0,0,0,-1,657,1695,0,0
-560,-671,0,0,0,0,0,0,0,0,0,-1,664,1695,0,0
-553,-671,0,0,0,0,0,0,0,0,0,-1,671,1695,0,0
-546,-671,0,0,0,0,0,0,0,0,0,-1,678,1695,0,0
-539,-671,0,0,0,0,0,0,0,0,0,-1,685,1695,0,0
-532,-671,0,0,0,0,0,0,0,0,0,-1,692,1695,0,0
-525,-671,0,0,0,0,0,0,0,0,0,-1,699,1695,0,0
-518,-671,0,0,0,0,0,0,0,0,0,-1,706,1695,0,0
-511,-671,0,0,0,0,0,0,0,0,0,-1,713,1695,0,0
-504,-671,0,0,0,0,0,0,0,0,0,-1,720,1695,0,0
-497,-671,0,0,0,0,0,0,0,0,0,-1,727,1695,0,0
-490,-671,0,0,0,0,0,0,0,0,0,-1,734,1695,0,0
-483,-671,0,0,0,0,0,0,0,0,0,-1,741,1695,0,0
-476,-671,0,0,0,0,0,0,0,0,0,-1,748,1695,0,0
-469,-671,0,0,0,0,0,0,0,0,0,-1,755,1695,0,0
-462,-671,0,0,0,0,0,0,0,0,0,-1,762,1695,0,0
-455,-671,0,0,0,0,0,0,0,0,0,-1,769,1695,0,0
-448,-671,0,0,0,0,0,0,0,0,0,-1,776,1695,0,0
-441,-671,0,0,0,0,0,0,0,0,0,-1,783,1695,0,0
-434,-671,0,0,0,0,0,0,0,0,0,-1,790,1695,0,0
-427,-671,0,0,0,0,0,0,0,0,0,-1,797,1695,0,0
-420,-671,0,0,0,0,0,0,0,0,0,-1,804,1695,0,0
-413,-671,0,0,0,0,0,0,0,0,0,-1,811,1695,0,0
-406,-671,0,0,0,0,0,0,0,0,0,-1,818,1695,0,0
-399,-671,0,0,0,0,0,0,0,0,0,-1,825,1695,0,0
-392,-671,0,0,0,0,0,0,0,0,0,-1,832,1695,0,0
-385,-671,0,0,0,0,0,0,0,0,0,-1,839,1695,0,0
-378,-671,0,0,0,0,0,0,0,0,0,-1,846,1695,0,0
-371,-671,0,0,0,0,0,0,0,0,0,-1,853,1695,0,0
-364,-671,-4.18738,7.51416,0,0,0,0,0,0,0,-1,860,1695,-4.18739,-7.51419
-357,-671,-5.02393,6.07129,0,0,0,0,0,0,0,-1,867,1695,-5.0239,-6.07135
-350,-671,-5.72333,4.58386,0,0,0,0,0,0,0,-1,874,1695,-5.72333,-4.58386
-343,-671,-6.4884,3.11353,0,0,0,0,0,0,0,-1,881,1695,-6.48839,-3.11349
-336,-671,-7.30127,1.64417,0,0,0,0,0,0,0,-1,888,1695,-7.30127,-1.64414
-329,-671,3.35516,10.5028,0,0,0,0,0,0,0,-1,895,1695,3.35515,-10.5028
-322,-671,3.91553,10.3539,0,0,0,0,0,0,0,-1,902,1695,3.91552,-10.3539
-315,-671,4.48328,10.2028,0,0,0,0,0,0,0,-1,909,1695,4.48325,-10.2027
-308,-671,4.91345,10.5394,0,0,0,0,0,0,0,-1,916,1695,4.91344,-10.5394
-301,-671,3.8476,10.6533,0,0,0,0,0,0,0,-1,923,1695,3.84758,-10.6534
-294,-671,3.39221,10.6906,-0.00269837,0.000746884,0.0121627,0.0113083,-0.0132598,0.855747,0.0141993,0.0481793,930,1695,3.39219,-10.6906
-287,-671,3.80743,11.0989,-0.00246813,0.000702688,0.0127215,0.0119372,-0.0137027,0.847391,0.0148149,0.0442036,937,1695,3.80743,-11.0989
-280,-671,3.81116,11.2362,-0.00175744,0.000912778,0.0120528,0.0117042,-0.0125489,0.840559,0.0140053,0.0366923,944,1695,3.81116,-11.2362
-273,-671,3.68079,11.4485,-0.000571817,0.00136861,0.0107074,0.0111496,-0.0103528,0.830581,0.0124173,0.0331929,951,1695,3.6808,-11.4485
-266,-671,3.79932,11.6689,9.48913e-05,0.00161276,0.00930469,0.0101894,-0.00848177,0.82609,0.0107948,0.0247536,958,1695,3.79931,-11.669
-259,-671,3.71179,11.824,0.00104267,0.00175352,0.00766096,0.0090673,-0.0062711,0.808579,0.00890455,0.0222438,965,1695,3.71177,-11.8239
-252,-671,3.7323,11.9534,0.00193085,0.00204236,0.00575686,0.00774374,-0.00377053,0.790241,0.00677841,0.0174603,972,1695,3.73232,-11.9533
-245,-671,3.73309,12.0997,0.00234673,0.00222958,0.00387627,0.00616486,-0.00158856,0.777843,0.00472922,0.0200911,979,1695,3.73312,-12.0997
-238,-671,3.75403,12.2629,0.00227731,0.00201932,0.00220215,0.00435424,-5.76098e-05,0.756143,0.00292222,0.0198127,986,1695,3.75402,-12.2629
-231,-671,3.76349,12.4237,0.00223854,0.00183468,0.001137,0.00319141,0.00088182,0.697515,0.00190303,0.0152273,993,1695,3.76347,-12.4237
-224,-671,3.72864,12.5631,0.00265984,0.00170204,0.000140402,0.00267999,0.00168188,0.142593,0.00156399,0.0121955,1000,1695,3.72866,-12.5632
-217,-671,3.72021,12.7081,0.00256877,0.00122559,-0.000721714,0.00288303,0.000911329,-0.410679,0.00170163,0.0117787,1007,1695,3.72021,-12.7081
-210,-671,3.7356,12.8834,0.0019463,0.000287762,-0.000785846,0.0022595,-2.54408e-05,-0.37926,0.00151489,0.0112749,1014,1695,3.73561,-12.8834
-203,-671,3.73071,13.0323,0.00161611,-0.000521773,-0.000661868,0.00180443,-0.000710092,-0.277202,0.00149689,0.0185067,1021,1695,3.73075,-13.0324
-196,-671,3.75012,13.1748,0.0015165,-0.00125269,-0.000439369,0.00158454,-0.00132073,-0.153638,0.00167966,0.015901,1028,1695,3.75007,-13.1748
-189,-671,3.77295,13.3356,0.00152447,-0.00188489,-0.000352742,0.00156058,-0.001921,-0.102023,0.00201368,0.0124616,1035,1695,3.773,-13.3355
-182,-671,3.72827,13.4419,0.00160499,-0.0027233,-0.000207556,0.00161492,-0.00273323,-0.0478071,0.00253793,0.0102769,1042,1695,3.72822,-13.4419
-175,-671,3.72913,13.5486,0.00183937,-0.00347375,-2.31035e-05,0.00183947,-0.00347385,-0.00434829,0.00311564,0.0130908,1049,1695,3.72913,-13.5486
-168,-671,3.73865,13.6583,0.00216043,-0.00412912,0.000120648,0.00216274,-0.00413143,0.019173,0.00369272,0.0131549,1056,1695,3.73867,-13.6584
-161,-671,3.74573,13.7969,0.00262815,-0.00480141,0.000292442,0.00263964,-0.0048129,0.039281,0.00436329,0.00879557,1063,1695,3.7457,-13.7968
-154,-671,3.75073,13.922,0.0032782,-0.00556762,0.000512813,0.00330783,-0.00559725,0.0577147,0.00519767,0.00823095,1070,1695,3.75073,-13.922
-147,-671,3.76038,14.0433,0.00391283,-0.0063287,0.000708417,0.00396159,-0.00637747,0.0687348,0.00602333,0.00973014,1077,1695,3.76039,-14.0433
-140,-671,3.78918,14.1719,0.00453107,-0.00714347,0.000932329,0.00460505,-0.00721746,0.0791911,0.00688105,0.0107141,1084,1695,3.78913,-14.1719
-133,-671,3.78467,14.2803,0.00522796,-0.00808213,0.00117354,0.00533064,-0.00818481,0.0872722,0.00786093,0.0113392,1091,1695,3.7847,-14.2803
-126,-671,3.81042,14.3873,0.0060396,-0.00919666,0.00146104,0.00617844,-0.0093355,0.0947422,0.00901858,0.01321,1098,1695,3.81048,-14.3873
-119,-671,3.85107,14.4692,0.00682207,-0.00997745,0.00177008,0.00700655,-0.0101619,0.103846,0.00996787,0.0254328,1105,1695,3.85109,-14.4692
-112,-671,3.88159,14.5629,0.00756539,-0.010736,0.00202755,0.00778733,-0.0109579,0.109026,0.0108741,0.0346184,1112,1695,3.88156,-14.5629
-105,-671,4.12219,14.5116,0.00834097,-0.0114331,0.00249905,0.00865191,-0.011744,0.123788,0.0118206,0.0417306,1119,1695,4.12223,-14.5117
-98,-671,3.85693,14.5588,0,0,0,0,0,0,0,-1,1126,1695,3.85695,-14.5588
-91,-671,3.9176,14.4835,0,0,0,0,0,0,0,-1,1133,1695,3.91762,-14.4835
-84,-671,3.79553,14.3021,0,0,0,0,0,0,0,-1,1140,1695,3.79554,-14.3021
-77,-671,4.03662,14.5554,0,0,0,0,0,0,0,-1,1147,1695,4.03662,-14.5554
-70,-671,3.06067,10.7737,0,0,0,0,0,0,0,-1,1154,1695,3.0607,-10.7737
-63,-671,2.94592,6.90198,0,0,0,0,0,0,0,-1,1161,1695,2.94594,-6.90198
-56,-671,-3.07678,2.87976,0,0,0,0,0,0,0,-1,1168,1695,-3.07675,-2.87979
-49,-671,-1.05957,4.76917,0,0,0,0,0,0,0,-1,1175,1695,-1.05958,-4.76921
-42,-671,0.539307,3.7865,0,0,0,0,0,0,0,-1,1182,1695,0.539266,-3.78648
-35,-671,-0.272461,0.347534,0,0,0,0,0,0,0,-1,1189,1695,-0.272434,-0.347569
-28,-671,-9.6228,16.5155,0,0,0,0,0,0,0,-1,1196,1695,-9.62279,-16.5155
-21,-671,-2.86926,15.5579,0,0,0,0,0,0,0,-1,1203,1695,-2.86921,-15.5579
-14,-671,4.46155,15.0809,0,0,0,0,0,0,0,-1,1210,1695,4.46161,-15.0809
-7,-671,4.73108,14.833,0.0225094,-0.0107006,-0.00103213,0.0225415,-0.0107326,-0.0310391,0.0196099,0.0479695,1217,1695,4.73107,-14.833
0,-671,5.21997,14.8018,0.0266491,-0.00383948,-0.00481589,0.0273917,-0.00458209,-0.152996,0.0199646,0.0469135,1224,1695,5.21998,-14.8017
7,-671,4.16492,15.3676,0.0333768,0.00618964,-0.0112079,0.0374015,0.00216496,-0.344751,0.0242449,0.0470576,1231,1695,4.16486,-15.3676
14,-671,4.18445,15.1254,0,0,0,0,0,0,0,-1,1238,1695,4.18444,-15.1254
21,-671,4.5946,13.9691,0,0,0,0,0,0,0,-1,1245,1695,4.59466,-13.9692
28,-671,4.81335,13.4098,0,0,0,0,0,0,0,-1,1252,1695,4.8134,-13.4098
35,-671,4.99646,12.9869,0,0,0,0,0,0,0,-1,1259,1695,4.99641,-12.9869
42,-671,7.22717,13.874,0,0,0,0,0,0,0,-1,1266,1695,7.22715,-13.874
49,-671,8.05408,14.3674,0,0,0,0,0,0,0,-1,1273,1695,8.05408,-14.3674
56,-671,8.96936,14.986,0,0,0,0,0,0,0,-1,1280,1695,8.96936,-14.986
63,-671,2.4563,11.4701,0,0,0,0,0,0,0,-1,1287,1695,2.45626,-11.4701
70,-671,13.79,5.7926,0,0,0,0,0,0,0,-1,1294,1695,13.79,-5.79259
77,-671,5.625,15.5159,0.0553846,0.110328,-0.0232838,0.118868,0.0468448,-1.21926,0.0691395,0.0453,1301,1695,5.62494,-15.5158
84,-671,4.83948,16.0671,0.0488089,0.111058,-0.0163524,0.115093,0.0447747,-1.32892,0.0669921,0.0468152,1308,1695,4.83943,-16.0671
91,-671,4.37329,16.731,0.041532,0.109248,-0.0112381,0.111065,0.0397156,-1.41056,0.0649843,0.0425795,1315,1695,4.37323,-16.7309
98,-671,5.95654,16.1711,0,0,0,0,0,0,0,-1,1322,1695,5.95654,-16.1711
105,-671,5.25476,16.3973,0.0268939,0.0964104,-0.0033534,0.0965718,0.0267325,-1.52271,0.0575775,0.0442194,1329,1695,5.25473,-16.3973
112,-671,4.43152,16.47,0.0222532,0.0900697,-0.00240085,0.0901546,0.0221683,-1.53545,0.0542452,0.0447204,1336,1695,4.43158,-16.47
119,-671,4.15344,16.5756,0.0190319,0.0832059,-0.00332196,0.0833774,0.0188604,-1.51922,0.0504864,0.0474392,1343,1695,4.15342,-16.5756
126,-671,3.89758,16.6873,0,0,0,0,0,0,0,-1,1350,1695,3.89761,-16.6873
133,-671,5.12268,15.7742,0,0,0,0,0,0,0,-1,1357,1695,5.12268,-15.7741
140,-671,5.05713,15.6854,0,0,0,0,0,0,0,-1,1364,1695,5.05717,-15.6855
147,-671,5.02686,15.7312,0,0,0,0,0,0,0,-1,1371,1695,5.0269,-15.7312
154,-671,10.4191,12.8273,0,0,0,0,0,0,0,-1,1378,1695,10.419,-12.8273
161,-671,4.49292,4.91272,0,0,0,0,0,0,0,-1,1385,1695,4.49297,-4.91273
168,-671,5.17639,6.1416,0,0,0,0,0,0,0,-1,1392,1695,5.1764,-6.14164
175,-671,5.6731,1.64685,0,0,0,0,0,0,0,-1,1399,1695,5.67313,-1.64691
182,-671,5.56812,1.71692,0,0,0,0,0,0,0,-1,1406,1695,5.56809,-1.71686
189,-671,6.98315,6.36169,0,0,0,0,0,0,0,-1,1413,1695,6.98312,-6.36175
196,-671,5.38123,5.69775,0,0,0,0,0,0,0,-1,1420,1695,5.38125,-5.69769
203,-671,5.95117,8.11658,0,0,0,0,0,0,0,-1,1427,1695,5.9512,-8.11662
210,-671,4.73596,8.39624,0,0,0,0,0,0,0,-1,1434,1695,4.736,-8.39618
217,-671,5.37097,11.863,0,0,0,0,0,0,0,-1,1441,1695,5.37094,-11.863
224,-671,5.08167,13.6694,0,0,0,0,0,0,0,-1,1448,1695,5.08165,-13.6695
231,-671,4.95886,13.5889,0,0,0,0,0,0,0,-1,1455,1695,4.95886,-13.5889
238,-671,5.15808,12.608,0,0,0,0,0,0,0,-1,1462,1695,5.15802,-12.608
245,-671,5.36609,14.093,0,0,0,0,0,0,0,-1,1469,1695,5.36614,-14.0931
252,-671,5.15942,14.5763,0,0,0,0,0,0,0,-1,1476,1695,5.15937,-14.5763
259,-671,5.16467,14.808,0,0,0,0,0,0,0,-1,1483,1695,5.16463,-14.8079
266,-671,5.18921,14.7251,0.00261225,-0.00429827,0.00383332,0.00431772,-0.00600374,0.418611,0.00598554,0.0180773,1490,1695,5.18925,-14.7251
273,-671,5.21167,14.6835,0.00239859,-0.00398006,0.00363815,0.00404744,-0.00562891,0.425521,0.00561146,0.00880931,1497,1695,5.21164,-14.6834
280,-671,5.20496,14.609,0.00209176,-0.00343977,0.00335216,0.00367184,-0.00501986,0.440477,0.00503823,0.0085701,1504,1695,5.20495,-14.609
287,-671,5.20313,14.4797,0.00175192,-0.00283461,0.00302114,0.00325159,-0.00433428,0.460757,0.00439454,0.0104739,1511,1695,5.20312,-14.4797
294,-671,5.20691,14.3578,0.00145281,-0.00230283,0.00267532,0.00284356,-0.00369358,0.479396,0.00378484,0.0106281,1518,1695,5.20688,-14.3578
301,-671,5.2229,14.2821,0.00117456,-0.00178523,0.0023021,0.0024314,-0.00304208,0.499733,0.00316666,0.00955738,1525,1695,5.22287,-14.2821
308,-671,5.2522,14.1804,0.000946491,-0.00127802,0.00198925,0.00211332,-0.00244485,0.530485,0.00263398,0.0107497,1532,1695,5.25224,-14.1804
315,-671,5.28638,14.0756,0.000852659,-0.001085,0.00183381,0.00195783,-0.00219018,0.542377,0.00239611,0.0129923,1539,1695,5.28638,-14.0755
322,-671,5.28918,13.9918,0.000923049,-0.00118008,0.001756,0.00191827,-0.0021753,0.515614,0.00236497,0.0152766,1546,1695,5.28917,-13.9918
329,-671,5.26123,13.8828,0.00119455,-0.00157458,0.00160598,0.0019304,-0.00231044,0.429651,0.00245173,0.014237,1553,1695,5.26125,-13.8828
336,-671,5.27991,13.7218,0.00138706,-0.00202368,0.00152892,0.00197208,-0.0026087,0.365448,0.00265321,0.0109615,1560,1695,5.27985,-13.7218
343,-671,5.28345,13.5786,0.00178355,-0.00241681,0.00137409,0.00219312,-0.00282639,0.289686,0.00290569,0.0106127,1567,1695,5.28347,-13.5786
350,-671,5.26892,13.4613,0.00232915,-0.00304341,0.00124664,0.00260433,-0.00331858,0.217248,0.00342787,0.0106633,1574,1695,5.26896,-13.4613
357,-671,5.25183,13.313,0.00282481,-0.0036532,0.00105174,0.00299128,-0.00381968,0.156985,0.003942,0.010132,1581,1695,5.25181,-13.3129
364,-671,5.24451,13.1669,0.00337612,-0.0042106,0.000723387,0.00344448,-0.00427896,0.0942179,0.0044678,0.0122172,1588,1695,5.24455,-13.1668
371,-671,5.25781,13.0626,0.0039753,-0.00462861,0.000227376,0.0039813,-0.00463461,0.0264025,0.00497916,0.014597,1595,1695,5.25782,-13.0626
378,-671,5.27197,12.9315,0.00456655,-0.00478714,-0.000371331,0.00458126,-0.00480186,-0.0396158,0.00541785,0.0119856,1602,1695,5.27192,-12.9315
385,-671,5.25049,12.7966,0.00524059,-0.00504646,-0.00115267,0.00536817,-0.00517404,-0.110229,0.00608689,0.0127095,1609,1695,5.25055,-12.7967
392,-671,5.21143,12.7094,0.00570905,-0.00486528,-0.00200543,0.00607661,-0.00523284,-0.181268,0.00653557,0.0183405,1616,1695,5.2114,-12.7094
399,-671,5.22693,12.5217,0.00597458,-0.00473677,-0.00273308,0.00663164,-0.00539383,-0.235933,0.00695515,0.0142342,1623,1695,5.22693,-12.5217
406,-671,5.26208,12.3229,0.00601445,-0.00487014,-0.00316652,0.00686862,-0.0057243,-0.263478,0.00728052,0.0185472,1630,1695,5.26206,-12.3229
413,-671,5.26025,12.183,0.00544073,-0.00579762,-0.00361833,0.00650492,-0.00686181,-0.286046,0.0077182,0.0289645,1637,1695,5.26026,-12.183
420,-671,5.37268,11.9467,0.00385702,-0.00674493,-0.00286464,0.00458153,-0.00746944,-0.247721,0.00702391,0.0450226,1644,1695,5.37265,-11.9466
427,-671,5.50073,11.9424,0,0,0,0,0,0,0,-1,1651,1695,5.50074,-11.9424
434,-671,5.81018,12.5878,0,0,0,0,0,0,0,-1,1658,1695,5.81024,-12.5878
441,-671,5.85693,11.989,0,0,0,0,0,0,0,-1,1665,1695,5.85695,-11.989
448,-671,6.07568,11.8486,0,0,0,0,0,0,0,-1,1672,1695,6.07573,-11.8487
455,-671,3.40137,9.28076,0,0,0,0,0,0,0,-1,1679,1695,3.40135,-9.28082
462,-671,5.86255,4.47961,0,0,0,0,0,0,0,-1,1686,1695,5.8625,-4.4796
469,-671,3.71301,3.76978,0,0,0,0,0,0,0,-1,1693,1695,3.71297,-3.76974
476,-671,3.75574,3.18848,0,0,0,0,0,0,0,-1,1700,1695,3.7558,-3.18847
483,-671,7.81824,12.1041,0,0,0,0,0,0,0,-1,1707,1695,7.81826,-12.1041
490,-671,0,0,0,0,0,0,0,0,0,-1,1714,1695,0,0
497,-671,0,0,0,0,0,0,0,0,0,-1,1721,1695,0,0
504,-671,0,0,0,0,0,0,0,0,0,-1,1728,1695,0,0
511,-671,0,0,0,0,0,0,0,0,0,-1,1735,1695,0,0
518,-671,0,0,0,0,0,0,0,0,0,-1,1742,1695,0,0
525,-671,0,0,0,0,0,0,0,0,0,-1,1749,1695,0,0
532,-671,0,0,0,0,0,0,0,0,0,-1,1756,1695,0,0
539,-671,0,0,0,0,0,0,0,0,0,-1,1763,1695,0,0
546,-671,0,0,0,0,0,0,0,0,0,-1,1770,1695,0,0
553,-671,0,0,0,0,0,0,0,0,0,-1,1777,1695,0,0
560,-671,0,0,0,0,0,0,0,0,0,-1,1784,1695,0,0
567,-671,0,0,0,0,0,0,0,0,0,-1,1791,1695,0,0
574,-671,0,0,0,0,0,0,0,0,0,-1,1798,1695,0,0
581,-671,0,0,0,0,0,0,0,0,0,-1,1805,1695,0,0
588,-671,0,0,0,0,0,0,0,0,0,-1,1812,1695,0,0
595,-671,0,0,0,0,0,0,0,0,0,-1,1819,1695,0,0
602,-671,0,0,0,0,0,0,0,0,0,-1,1826,1695,0,0
609,-671,0,0,0,0,0,0,0,0,0,-1,1833,1695,0,0
616,-671,0,0,0,0,0,0,0,0,0,-1,1840,1695,0,0
623,-671,0,0,0,0,0,0,0,0,0,-1,1847,1695,0,0
630,-671,0,0,0,0,0,0,0,0,0,-1,1854,1695,0,0
637,-671,0,0,0,0,0,0,0,0,0,-1,1861,1695,0,0
644,-671,0,0,0,0,0,0,0,0,0,-1,1868,1695,0,0
651,-671,0,0,0,0,0,0,0,0,0,-1,1875,1695,0,0
658,-671,0,0,0,0,0,0,0,0,0,-1,1882,1695,0,0
665,-671,0,0,0,0,0,0,0,0,0,-1,1889,1695,0,0
672,-671,0,0,0,0,0,0,0,0,0,-1,1896,1695,0,0
679,-671,0,0,0,0,0,0,0,0,0,-1,1903,1695,0,0
686,-671,0,0,0,0,0,0,0,0,0,-1,1910,1695,0,0
693,-671,0,0,0,0,0,0,0,0,0,-1,1917,1695,0,0
700,-671,0,0,0,0,0,0,0,0,0,-1,1924,1695,0,0
707,-671,0,0,0,0,0,0,0,0,0,-1,1931,1695,0,0
714,-671,0,0,0,0,0,0,0,0,0,-1,1938,1695,0,0
721,-671,0,0,0,0,0,0,0,0,0,-1,1945,1695,0,0
728,-671,0,0,0,0,0,0,0,0,0,-1,1952,1695,0,0
735,-671,0,0,0,0,0,0,0,0,0,-1,1959,1695,0,0
742,-671,0,0,0,0,0,0,0,0,0,-1,1966,1695,0,0
749,-671,0,0,0,0,0,0,0,0,0,-1,1973,1695,0,0
756,-671,0,0,0,0,0,0,0,0,0,-1,1980,1695,0,0
763,-671,0,0,0,0,0,0,0,0,0,-1,1987,1695,0,0
770,-671,0,0,0,0,0,0,0,0,0,-1,1994,1695,0,0
777,-671,0,0,0,0,0,0,0,0,0,-1,2001,1695,0,0
784,-671,0,0,0,0,0,0,0,0,0,-1,2008,1695,0,0
791,-671,0,0,0,0,0,0,0,0,0,-1,2015,1695,0,0
798,-671,0,0,0,0,0,0,0,0,0,-1,2022,1695,0,0
805,-671,0,0,0,0,0,0,0,0,0,-1,2029,1695,0,0
812,-671,0,0,0,0,0,0,0,0,0,-1,2036,1695,0,0
-700,-678,0,0,0,0,0,0,0,0,0,-1,524,1702,0,0
-693,-678,0,0,0,0,0,0,0,0,0,-1,531,1702,0,0
-686,-678,0,0,0,0,0,0,0,0,0,-1,538,1702,0,0
-679,-678,0,0,0,0,0,0,0,0,0,-1,545,1702,0,0
-672,-678,0,0,0,0,0,0,0,0,0,-1,552,1702,0,0
-665,-678,0,0,0,0,0,0,0,0,0,-1,559,1702,0,0
-658,-678,0,0,0,0,0,0,0,0,0,-1,566,1702,0,0
-651,-678,0,0,0,0,0,0,0,0,0,-1,573,1702,0,0
-644,-678,0,0,0,0,0,0,0,0,0,-1,580,1702,0,0
-637,-678,0,0,0,0,0,0,0,0,0,-1,587,1702,0,0
-630,-678,0,0,0,0,0,0,0,0,0,-1,594,1702,0,0
-623,-678,0,0,0,0,0,0,0,0,0,-1,601,1702,0,0
-616,-678,0,0,0,0,0,0,0,0,0,-1,608,1702,0,0
-609,-678,0,0,0,0,0,0,0,0,0,-1,615,1702,0,0
-602,-678,0,0,0,0,0,0,0,0,0,-1,622,1702,0,0
-595,-678,0,0,0,0,0,0,0,0,0,-1,629,1702,0,0
-588,-678,0,0,0,0,0,0,0,0,0,-1,636,1702,0,0
-581,-678,0,0,0,0,0,0,0,0,0,-1,643,1702,0,0
-574,-678,0,0,0,0,0,0,0,0,0,-1,650,1702,0,0
-567,-678,0,0,0,0,0,0,0,0,0,-1,657,1702,0,0
-560,-678,0,0,0,0,0,0,0,0,0,-1,664,1702,0,0
-553,-678,0,0,0,0,0,0,0,0,0,-1,671,1702,0,0
-546,-678,0,0,0,0,0,0,0,0,0,-1,678,1702,0,0
-539,-678,0,0,0,0,0,0,0,0,0,-1,685,1702,0,0
-532,-678,0,0,0,0,0,0,0,0,0,-1,692,1702,0,0
-525,-678,0,0,0,0,0,0,0,0,0,-1,699,1702,0,0
-518,-678,0,0,0,0,0,0,0,0,0,-1,706,1702,0,0
-511,-678,0,0,0,0,0,0,0,0,0,-1,713,1702,0,0
-504,-678,0,0,0,0,0,0,0,0,0,-1,720,1702,0,0
-497,-678,0,0,0,0,0,0,0,0,0,-1,727,1702,0,0
-490,-678,0,0,0,0,0,0,0,0,0,-1,734,1702,0,0
-483,-678,0,0,0,0,0,0,0,0,0,-1,741,1702,0,0
-476,-678,0,0,0,0,0,0,0,0,0,-1,748,1702,0,0
-469,-678,0,0,0,0,0,0,0,0,0,-1,755,1702,0,0
-462,-678,0,0,0,0,0,0,0,0,0,-1,762,1702,0,0
-455,-678,0,0,0,0,0,0,0,0,0,-1,769,1702,0,0
-448,-678,0,0,0,0,0,0,0,0,0,-1,776,1702,0,0
-441,-678,0,0,0,0,0,0,0,0,0,-1,783,1702,0,0
-434,-678,0,0,0,0,0,0,0,0,0,-1,790,1702,0,0
-427,-678,0,0,0,0,0,0,0,0,0,-1,797,1702,0,0
-420,-678,0,0,0,0,0,0,0,0,0,-1,804,1702,0,0
-413,-678,0,0,0,0,0,0,0,0,0,-1,811,1702,0,0
-406,-678,0,0,0,0,0,0,0,0,0,-1,818,1702,0,0
-399,-678,0,0,0,0,0,0,0,0,0,-1,825,1702,0,0
-392,-678,0,0,0,0,0,0,0,0,0,-1,832,1702,0,0
-385,-678,0,0,0,0,0,0,0,0,0,-1,839,1702,0,0
-378,-678,0,0,0,0,0,0,0,0,0,-1,846,1702,0,0
-371,-678,0,0,0,0,0,0,0,0,0,-1,853,1702,0,0
-364,-678,0,0,0,0,0,0,0,0,0,-1,860,1702,0,0
-357,-678,0,0,0,0,0,0,0,0,0,-1,867,1702,0,0
-350,-678,-5.79944,6.11865,0,0,0,0,0,0,0,-1,874,1702,-5.79942,-6.11864
-343,-678,-6.44891,4.52759,0,0,0,0,0,0,0,-1,881,1702,-6.4489,-4.52758
-336,-678,-6.91888,2.99438,0,0,0,0,0,0,0,-1,888,1702,-6.9189,-2.99435
-329,-678,-7.14575,1.29761,0,0,0,0,0,0,0,-1,895,1702,-7.14577,-1.29755
-322,-678,-7.38513,-0.420044,0,0,0,0,0,0,0,-1,902,1702,-7.38514,0.420091
-315,-678,5.38995,10.121,0,0,0,0,0,0,0,-1,909,1702,5.38998,-10.121
-308,-678,5.50739,10.8188,0,0,0,0,0,0,0,-1,916,1702,5.50741,-10.8188
-301,-678,2.92487,10.6449,-0.00444714,-0.000558043,0.0172641,0.0148707,-0.0198759,0.841479,0.0201302,0.0447077,923,1702,2.92484,-10.6449
-294,-678,3.01617,10.5576,-0.00485768,-0.000592085,0.0188497,0.0162451,-0.0216948,0.841733,0.0219798,0.0468935,930,1702,3.01617,-10.5576
-287,-678,3.97186,11.0599,0,0,0,0,0,0,0,-1,937,1702,3.97184,-11.06
-280,-678,3.87274,11.3922,-0.00325308,9.81437e-06,0.0177008,0.0161542,-0.0193974,0.831352,0.0205542,0.0449298,944,1702,3.87272,-11.3922
-273,-678,3.23645,11.3857,-0.00131576,0.000980216,0.0153122,0.0151874,-0.0155229,0.822814,0.017731,0.0420458,951,1702,3.23645,-11.3857
-266,-678,3.71167,11.5254,-0.000147801,0.00155762,0.0129644,0.0136973,-0.0122875,0.818237,0.0150097,0.0343497,958,1702,3.71165,-11.5254
-259,-678,3.84882,11.8,0.00128426,0.00208043,0.0103748,0.0120648,-0.00870011,0.804574,0.012041,0.023464,965,1702,3.84879,-11.8
-252,-678,3.8775,11.9222,0.002561,0.00274359,0.00763072,0.0102836,-0.00497897,0.79138,0.00898748,0.0203623,972,1702,3.87753,-11.9222
-245,-678,3.91125,12.1118,0.00323219,0.00328948,0.00506395,0.00832487,-0.0018032,0.788226,0.00623846,0.0183915,979,1702,3.91127,-12.1118
-238,-678,3.91669,12.2798,0.00327673,0.00336315,0.00286019,0.00618045,0.000459428,0.792951,0.00397602,0.0147076,986,1702,3.91668,-12.2798
-231,-678,3.88983,12.4351,0.00326528,0.00338728,0.00144909,0.00477666,0.00187591,0.806433,0.00277888,0.0134028,993,1702,3.88986,-12.4351
-224,-678,3.85565,12.5603,0.00378109,0.00347864,8.71282e-05,0.0038044,0.00345534,0.261348,0.00242829,0.0130908,1000,1702,3.85563,-12.5603
-217,-678,3.87018,12.7086,0.00356137,0.00318999,-0.00106853,0.00446022,0.00229114,-0.699365,0.00257543,0.0132036,1007,1702,3.87016,-12.7086
-210,-678,3.87408,12.911,0.00255705,0.00221035,-0.00105034,0.00344825,0.00131916,-0.703614,0.00200907,0.0137726,1014,1702,3.87406,-12.9111
-203,-678,3.86523,13.0319,0.00190146,0.00138079,-0.000821097,0.0025025,0.000779746,-0.631884,0.00147862,0.0177147,1021,1702,3.86528,-13.0319
-196,-678,3.87329,13.1748,0.00154385,0.000676752,-0.000482039,0.00175863,0.000461976,-0.419154,0.00105277,0.0181419,1028,1702,3.87325,-13.1748
-189,-678,3.87708,13.3312,0.0013533,4.98477e-06,-0.000331575,0.00143043,-7.21435e-05,-0.228548,0.000978554,0.0110507,1035,1702,3.87704,-13.3312
-182,-678,3.86853,13.4518,0.0012322,-0.000780265,-0.000176239,0.00124752,-0.000795583,-0.0866943,0.00118917,0.0101983,1042,1702,3.86854,-13.4517
-175,-678,3.85583,13.5641,0.00123615,-0.00151274,1.94618e-05,0.00123629,-0.00151288,0.00707938,0.00158991,0.0114125,1049,1702,3.85579,-13.5641
-168,-678,3.86365,13.6934,0.00131881,-0.00218725,0.000158163,0.00132593,-0.00219437,0.0449896,0.00205296,0.0108451,1056,1702,3.86362,-13.6933
-161,-678,3.85974,13.8153,0.00165212,-0.00278186,0.000272915,0.00166886,-0.0027986,0.0612426,0.00260663,0.0088243,1063,1702,3.85978,-13.8153
-154,-678,3.85852,13.9396,0.00218531,-0.00351158,0.000405875,0.00221408,-0.00354035,0.0707686,0.00335161,0.00791702,1070,1702,3.85846,-13.9396
-147,-678,3.87427,14.0599,0.00272939,-0.00423184,0.000506339,0.00276602,-0.00426848,0.0722303,0.00409213,0.00977093,1077,1702,3.87421,-14.0599
-140,-678,3.89136,14.1814,0.00326259,-0.00494629,0.000610707,0.00330777,-0.00499148,0.0738541,0.00482433,0.0109108,1084,1702,3.89141,-14.1814
-133,-678,3.8949,14.2852,0.00385922,-0.00571998,0.000728483,0.0039143,-0.00577506,0.07547,0.00562844,0.0109154,1091,1702,3.89485,-14.2852
-126,-678,3.89966,14.3958,0.00451715,-0.0066192,0.000915181,0.00459186,-0.00669391,0.0814514,0.00655341,0.00821341,1098,1702,3.8996,-14.3958
-119,-678,3.95032,14.5291,0.00513135,-0.00721604,0.00113366,0.00523458,-0.00731926,0.0908021,0.0072812,0.0169578,1105,1702,3.95031,-14.5291
-112,-678,3.95007,14.6326,0.00568223,-0.00781599,0.00129212,0.0058048,-0.00793856,0.094581,0.00796655,0.0256704,1112,1702,3.95011,-14.6326
-105,-678,3.95801,14.7078,0.00622862,-0.00836745,0.00158242,0.0063982,-0.00853703,0.106762,0.00865229,0.0278285,1119,1702,3.95801,-14.7077
-98,-678,3.96326,14.6986,0.00670073,-0.00869651,0.00188331,0.00692774,-0.00892352,0.119959,0.00917588,0.0204635,1126,1702,3.96332,-14.6986
-91,-678,3.96692,14.792,0.00712417,-0.00857106,0.00222,0.00743213,-0.00887903,0.137843,0.0094296,0.0205587,1133,1702,3.96694,-14.792
-84,-678,3.99072,14.755,0.00752753,-0.00839743,0.00246451,0.00790021,-0.00877011,0.150082,0.00962898,0.0328638,1140,1702,3.99076,-14.755
-77,-678,4.06714,14.8875,0.00803705,-0.00713723,0.00209131,0.00831999,-0.00742017,0.13448,0.00909254,0.0430909,1147,1702,4.06709,-14.8874
-70,-678,4.23621,15.183,0,0,0,0,0,0,0,-1,1154,1702,4.23624,-15.183
-63,-678,3.41687,11.0365,0,0,0,0,0,0,0,-1,1161,1702,3.41682,-11.0365
-56,-678,1.72388,6.13159,0,0,0,0,0,0,0,-1,1168,1702,1.72388,-6.13157
-49,-678,-0.241699,5.29895,0,0,0,0,0,0,0,-1,1175,1702,-0.241682,-5.29897
-42,-678,0.297119,3.90649,0,0,0,0,0,0,0,-1,1182,1702,0.297139,-3.90655
-35,-678,0.498413,3.64038,0,0,0,0,0,0,0,-1,1189,1702,0.498471,-3.64038
-28,-678,0.132446,3.55994,0,0,0,0,0,0,0,-1,1196,1702,0.132432,-3.55993
-21,-678,4.43701,15.1981,0,0,0,0,0,0,0,-1,1203,1702,4.43706,-15.1981
-14,-678,4.43433,15.2651,0.0160165,-0.0112868,0.000870358,0.0160443,-0.0113145,0.0318343,0.0158741,0.0420389,1210,1702,4.43432,-15.2651
-7,-678,4.66382,15.0872,0.0175216,-0.00966137,-0.000137714,0.0175223,-0.00966206,-0.005066,0.0159121,0.0426723,1217,1702,4.66387,-15.0871
0,-678,5.57288,15.2831,0.0212402,-0.00331707,-0.00360341,0.021758,-0.0038349,-0.142728,0.0159382,0.0437935,1224,1702,5.5729,-15.2831
7,-678,4.31396,15.4301,0.0264118,0.00432977,-0.00853921,0.0293287,0.00141292,-0.329157,0.0190989,0.0452788,1231,1702,4.31392,-15.4301
14,-678,4.7439,15.5042,0,0,0,0,0,0,0,-1,1238,1702,4.74385,-15.5041
21,-678,5.07654,15.6398,0,0,0,0,0,0,0,-1,1245,1702,5.07655,-15.6398
28,-678,4.95813,13.1682,0,0,0,0,0,0,0,-1,1252,1702,4.95809,-13.1682
35,-678,5.25183,15.4231,0,0,0,0,0,0,0,-1,1259,1702,5.25189,-15.4231
42,-678,4.78796,15.703,0,0,0,0,0,0,0,-1,1266,1702,4.788,-15.703
49,-678,4.9325,15.8629,0,0,0,0,0,0,0,-1,1273,1702,4.9325,-15.8629
56,-678,4.66541,14.9169,0,0,0,0,0,0,0,-1,1280,1702,4.66543,-14.9168
63,-678,4.5929,14.674,0,0,0,0,0,0,0,-1,1287,1702,4.59285,-14.6739
70,-678,4.63928,15.1483,0,0,0,0,0,0,0,-1,1294,1702,4.63928,-15.1483
77,-678,4.56177,15.7169,0,0,0,0,0,0,0,-1,1301,1702,4.56177,-15.7169
84,-678,4.90552,16.0785,0,0,0,0,0,0,0,-1,1308,1702,4.90554,-16.0785
91,-678,5.05493,15.9551,0,0,0,0,0,0,0,-1,1315,1702,5.05497,-15.955
98,-678,4.29773,15.4163,0.0252132,0.0839855,0.00107266,0.0840051,0.0251937,1.55255,0.0497781,0.0438681,1322,1702,4.29779,-15.4163
105,-678,5.31055,15.5875,0.0189103,0.0755639,0.00507636,0.0760152,0.018459,1.48213,0.0457815,0.0394924,1329,1702,5.31054,-15.5875
112,-678,4.45117,15.833,0.0147005,0.069878,0.00662983,0.0706634,0.0139151,1.45288,0.0432238,0.040766,1336,1702,4.45122,-15.833
119,-678,4.35486,16.2356,0.0118491,0.0637194,0.00619965,0.0644501,0.0111184,1.45348,0.0397819,0.0426914,1343,1702,4.35483,-16.2356
126,-678,4.13208,16.337,0.00890201,0.0562618,0.0067674,0.0572099,0.00795397,1.43161,0.0357845,0.0481695,1350,1702,4.13204,-16.3371
133,-678,3.92932,16.4055,0,0,0,0,0,0,0,-1,1357,1702,3.92928,-16.4055
140,-678,4.94714,15.7345,0,0,0,0,0,0,0,-1,1364,1702,4.94708,-15.7345
147,-678,4.91394,15.8058,0,0,0,0,0,0,0,-1,1371,1702,4.91399,-15.8058
154,-678,5.29504,15.4601,0,0,0,0,0,0,0,-1,1378,1702,5.2951,-15.4601
161,-678,3.44202,4.53992,0,0,0,0,0,0,0,-1,1385,1702,3.442,-4.53996
168,-678,4.21863,5.25781,0,0,0,0,0,0,0,-1,1392,1702,4.21865,-5.25781
175,-678,5.21899,5.9635,0,0,0,0,0,0,0,-1,1399,1702,5.21894,-5.96346
182,-678,7.31262,6.75122,0,0,0,0,0,0,0,-1,1406,1702,7.3126,-6.75123
189,-678,5.96021,6.36853,0,0,0,0,0,0,0,-1,1413,1702,5.96018,-6.36851
196,-678,5.01599,8.15771,0,0,0,0,0,0,0,-1,1420,1702,5.01596,-8.15767
203,-678,4.64771,13.0559,0,0,0,0,0,0,0,-1,1427,1702,4.64766,-13.0559
210,-678,5.25476,15.8987,0,0,0,0,0,0,0,-1,1434,1702,5.25479,-15.8986
217,-678,5.15625,15.3125,0,0,0,0,0,0,0,-1,1441,1702,5.15623,-15.3125
224,-678,5.03308,15.142,0,0,0,0,0,0,0,-1,1448,1702,5.03302,-15.142
231,-678,5.05798,15.0696,0,0,0,0,0,0,0,-1,1455,1702,5.05798,-15.0696
238,-678,5.07788,15.0354,0,0,0,0,0,0,0,-1,1462,1702,5.07794,-15.0354
245,-678,5.0697,15.0021,0,0,0,0,0,0,0,-1,1469,1702,5.06967,-15.0021
252,-678,5.09167,14.9113,0.00157159,-0.00266448,0.00251502,0.00274162,-0.00383451,0.435438,0.00381417,0.0258675,1476,1702,5.09165,-14.9112
259,-678,5.09497,14.8739,0.00170433,-0.00285162,0.00264157,0.00291449,-0.00406178,0.429586,0.00404587,0.0142331,1483,1702,5.09495,-14.8739
266,-678,5.11206,14.799,0.00170088,-0.00326053,0.00270509,0.00289051,-0.00445016,0.41432,0.00426991,0.0094032,1490,1702,5.11209,-14.7989
273,-678,5.12341,14.7086,0.001633,-0.00292876,0.00256258,0.00278275,-0.00407851,0.421747,0.00398483,0.0100091,1497,1702,5.12336,-14.7086
280,-678,5.1239,14.6218,0.00146327,-0.00238318,0.00234887,0.00257583,-0.00349574,0.442351,0.00351881,0.0109069,1504,1702,5.12386,-14.6218
287,-678,5.13538,14.5002,0.00124911,-0.00177581,0.00211732,0.00233869,-0.00286538,0.47526,0.00300969,0.0114006,1511,1702,5.13542,-14.5002
294,-678,5.12573,14.3773,0.00105336,-0.00119358,0.00187726,0.00211765,-0.00225787,0.515755,0.00252664,0.0119964,1518,1702,5.12568,-14.3774
301,-678,5.11633,14.2799,0.000855785,-0.000651347,0.00162048,0.00188934,-0.0016849,0.567758,0.00206472,0.0112902,1525,1702,5.11637,-14.2799
308,-678,5.14685,14.1798,0.00075083,-0.000147278,0.00155398,0.00191934,-0.00131579,0.644745,0.0018786,0.0128344,1532,1702,5.14688,-14.1799
315,-678,5.15845,14.0706,0.000821722,-0.000214929,0.00164143,0.00202472,-0.00141793,0.632465,0.00199788,0.0145571,1539,1702,5.1584,-14.0705
322,-678,5.12671,13.9969,0.00111391,-0.000642252,0.00175851,0.00220138,-0.00172972,0.553842,0.00227507,0.0182594,1546,1702,5.12676,-13.9969
329,-678,5.12708,13.8652,0.00162675,-0.00145747,0.00176139,0.00242571,-0.00225643,0.425839,0.00270382,0.0163873,1553,1702,5.12705,-13.8653
336,-678,5.14502,13.7117,0.00207614,-0.0023182,0.0018529,0.00275313,-0.00299519,0.350299,0.00331977,0.0124291,1560,1702,5.145,-13.7116
343,-678,5.14014,13.5914,0.0027191,-0.00310076,0.00184462,0.0032545,-0.00363616,0.282489,0.00398036,0.0111119,1567,1702,5.14015,-13.5914
350,-678,5.13257,13.4799,0.00351347,-0.00424648,0.00183599,0.00392594,-0.00465895,0.220988,0.00496251,0.0111676,1574,1702,5.13256,-13.4798
357,-678,5.13782,13.3323,0.00429733,-0.00537331,0.00170379,0.00458872,-0.00566471,0.16939,0.00593068,0.00892091,1581,1702,5.13778,-13.3322
364,-678,5.13391,13.1827,0.0051351,-0.00642799,0.00141815,0.00530649,-0.00659938,0.12027,0.00688735,0.0113507,1588,1702,5.13396,-13.1827
371,-678,5.11829,13.0577,0.00599391,-0.00728751,0.000887129,0.0060529,-0.0073465,0.0664016,0.00774816,0.0128385,1595,1702,5.11827,-13.0578
378,-678,5.12427,12.9149,0.00682726,-0.00776898,0.000193975,0.00682984,-0.00777156,0.0132863,0.00843596,0.0135966,1602,1702,5.1243,-12.9149
385,-678,5.12366,12.8008,0.00772669,-0.00824739,-0.000752451,0.00776205,-0.00828276,-0.0469659,0.0092651,0.0167529,1609,1702,5.12364,-12.8008
392,-678,5.14404,12.7094,0.0084027,-0.00815292,-0.00182624,0.00860175,-0.00835198,-0.10857,0.00978859,0.0289678,1616,1702,5.14408,-12.7093
399,-678,5.1759,12.5635,0.00885453,-0.00806881,-0.00280785,0.00930824,-0.00852251,-0.160199,0.0102979,0.0380135,1623,1702,5.17587,-12.5634
406,-678,5.15466,12.3561,0.00907188,-0.0082351,-0.00350564,0.00975501,-0.00891822,-0.192453,0.0107846,0.0395298,1630,1702,5.15468,-12.3561
413,-678,5.172,12.157,0,0,0,0,0,0,0,-1,1637,1702,5.17196,-12.1569
420,-678,5.25232,11.8337,0,0,0,0,0,0,0,-1,1644,1702,5.25232,-11.8337
427,-678,4.57483,10.1555,0,0,0,0,0,0,0,-1,1651,1702,4.57485,-10.1555
434,-678,5.86926,13.0521,0,0,0,0,0,0,0,-1,1658,1702,5.8693,-13.0521
441,-678,3.83801,10.7789,0,0,0,0,0,0,0,-1,1665,1702,3.838,-10.7789
448,-678,3.25525,9.74719,0,0,0,0,0,0,0,-1,1672,1702,3.25522,-9.7472
455,-678,5.44678,5.54297,0,0,0,0,0,0,0,-1,1679,1702,5.44676,-5.54294
462,-678,3.86792,2.87402,0,0,0,0,0,0,0,-1,1686,1702,3.86796,-2.87406
469,-678,2.26587,1.98755,0,0,0,0,0,0,0,-1,1693,1702,2.26592,-1.98755
476,-678,0,0,0,0,0,0,0,0,0,-1,1700,1702,0,0
483,-678,0,0,0,0,0,0,0,0,0,-1,1707,1702,0,0
490,-678,0,0,0,0,0,0,0,0,0,-1,1714,1702,0,0
497,-678,0,0,0,0,0,0,0,0,0,-1,1721,1702,0,0
504,-678,0,0,0,0,0,0,0,0,0,-1,1728,1702,0,0
511,-678,0,0,0,0,0,0,0,0,0,-1,1735,1702,0,0
518,-678,0,0,0,0,0,0,0,0,0,-1,1742,1702,0,0
525,-678,0,0,0,0,0,0,0,0,0,-1,1749,1702,0,0
532,-678,0,0,0,0,0,0,0,0,0,-1,1756,1702,0,0
539,-678,0,0,0,0,0,0,0,0,0,-1,1763,1702,0,0
546,-678,0,0,0,0,0,0,0,0,0,-1,1770,1702,0,0
553,-678,0,0,0,0,0,0,0,0,0,-1,1777,1702,0,0
560,-678,0,0,0,0,0,0,0,0,0,-1,1784,1702,0,0
567,-678,0,0,0,0,0,0,0,0,0,-1,1791,1702,0,0
574,-678,0,0,0,0,0,0,0,0,0,-1,1798,1702,0,0
581,-678,0,0,0,0,0,0,0,0,0,-1,1805,1702,0,0
588,-678,0,0,0,0,0,0,0,0,0,-1,1812,1702,0,0
595,-678,0,0,0,0,0,0,0,0,0,-1,1819,1702,0,0
602,-678,0,0,0,0,0,0,0,0,0,-1,1826,1702,0,0
609,-678,0,0,0,0,0,0,0,0,0,-1,1833,1702,0,0
616,-678,0,0,0,0,0,0,0,0,0,-1,1840,1702,0,0
623,-678,0,0,0,0,0,0,0,0,0,-1,1847,1702,0,0
630,-678,0,0,0,0,0,0,0,0,0,-1,1854,1702,0,0
637,-678,0,0,0,0,0,0,0,0,0,-1,1861,1702,0,0
644,-678,0,0,0,0,0,0,0,0,0,-1,1868,1702,0,0
651,-678,0,0,0,0,0,0,0,0,0,-1,1875,1702,0,0
658,-678,0,0,0,0,0,0,0,0,0,-1,1882,1702,0,0
665,-678,0,0,0,0,0,0,0,0,0,-1,1889,1702,0,0
672,-678,0,0,0,0,0,0,0,0,0,-1,1896,1702,0,0
679,-678,0,0,0,0,0,0,0,0,0,-1,1903,1702,0,0
686,-678,0,0,0,0,0,0,0,0,0,-1,1910,1702,0,0
693,-678,0,0,0,0,0,0,0,0,0,-1,1917,1702,0,0
700,-678,0,0,0,0,0,0,0,0,0,-1,1924,1702,0,0
707,-678,0,0,0,0,0,0,0,0,0,-1,1931,1702,0,0
714,-678,0,0,0,0,0,0,0,0,0,-1,1938,1702,0,0
721,-678,0,0,0,0,0,0,0,0,0,-1,1945,1702,0,0
728,-678,0,0,0,0,0,0,0,0,0,-1,1952,1702,0,0
735,-678,0,0,0,0,0,0,0,0,0,-1,1959,1702,0,0
742,-678,0,0,0,0,0,0,0,0,0,-1,1966,1702,0,0
749,-678,0,0,0,0,0,0,0,0,0,-1,1973,1702,0,0
756,-678,0,0,0,0,0,0,0,0,0,-1,1980,1702,0,0
763,-678,0,0,0,0,0,0,0,0,0,-1,1987,1702,0,0
770,-678,0,0,0,0,0,0,0,0,0,-1,1994,1702,0,0
777,-678,0,0,0,0,0,0,0,0,0,-1,2001,1702,0,0
784,-678,0,0,0,0,0,0,0,0,0,-1,2008,1702,0,0
791,-678,0,0,0,0,0,0,0,0,0,-1,2015,1702,0,0
798,-678,0,0,0,0,0,0,0,0,0,-1,2022,1702,0,0
805,-678,0,0,0,0,0,0,0,0,0,-1,2029,1702,0,0
812,-678,0,0,0,0,0,0,0,0,0,-1,2036,1702,0,0
-700,-685,0,0,0,0,0,0,0,0,0,-1,524,1709,0,0
-693,-685,0,0,0,0,0,0,0,0,0,-1,531,1709,0,0
-686,-685,0,0,0,0,0,0,0,0,0,-1,538,1709,0,0
-679,-685,0,0,0,0,0,0,0,0,0,-1,545,1709,0,0
-672,-685,0,0,0,0,0,0,0,0,0,-1,552,1709,0,0
-665,-685,0,0,0,0,0,0,0,0,0,-1,559,1709,0,0
-658,-685,0,0,0,0,0,0,0,0,0,-1,566,1709,0,0
-651,-685,0,0,0,0,0,0,0,0,0,-1,573,1709,0,0
-644,-685,0,0,0,0,0,0,0,0,0,-1,580,1709,0,0
-637,-685,0,0,0,0,0,0,0,0,0,-1,587,1709,0,0
-630,-685,0,0,0,0,0,0,0,0,0,-1,594,1709,0,0
-623,-685,0,0,0,0,0,0,0,0,0,-1,601,1709,0,0
-616,-685,0,0,0,0,0,0,0,0,0,-1,608,1709,0,0
-609,-685,0,0,0,0,0,0,0,0,0,-1,615,1709,0,0
-602,-685,0,0,0,0,0,0,0,0,0,-1,622,1709,0,0
-595,-685,0,0,0,0,0,0,0,0,0,-1,629,1709,0,0
-588,-685,0,0,0,0,0,0,0,0,0,-1,636,1709,0,0
-581,-685,0,0,0,0,0,0,0,0,0,-1,643,1709,0,0
-574,-685,0,0,0,0,0,0,0,0,0,-1,650,1709,0,0
-567,-685,0,0,0,0,0,0,0,0,0,-1,657,1709,0,0
-560,-685,0,0,0,0,0,0,0,0,0,-1,664,1709,0,0
-553,-685,0,0,0,0,0,0,0,0,0,-1,671,1709,0,0
-546,-685,0,0,0,0,0,0,0,0,0,-1,678,1709,0,0
-539,-685,0,0,0,0,0,0,0,0,0,-1,685,1709,0,0
-532,-685,0,0,0,0,0,0,0,0,0,-1,692,1709,0,0
-525,-685,0,0,0,0,0,0,0,0,0,-1,699,1709,0,0
-518,-685,0,0,0,0,0,0,0,0,0,-1,706,1709,0,0
-511,-685,0,0,0,0,0,0,0,0,0,-1,713,1709,0,0
-504,-685,0,0,0,0,0,0,0,0,0,-1,720,1709,0,0
-497,-685,0,0,0,0,0,0,0,0,0,-1,727,1709,0,0
-490,-685,0,0,0,0,0,0,0,0,0,-1,734,1709,0,0
-483,-685,0,0,0,0,0,0,0,0,0,-1,741,1709,0,0
-476,-685,0,0,0,0,0,0,0,0,0,-1,748,1709,0,0
-469,-685,0,0,0,0,0,0,0,0,0,-1,755,1709,0,0
-462,-685,0,0,0,0,0,0,0,0,0,-1,762,1709,0,0
-455,-685,0,0,0,0,0,0,0,0,0,-1,769,1709,0,0
-448,-685,0,0,0,0,0,0,0,0,0,-1,776,1709,0,0
-441,-685,0,0,0,0,0,0,0,0,0,-1,783,1709,0,0
-434,-685,0,0,0,0,0,0,0,0,0,-1,790,1709,0,0
-427,-685,0,0,0,0,0,0,0,0,0,-1,797,1709,0,0
-420,-685,0,0,0,0,0,0,0,0,0,-1,804,1709,0,0
-413,-685,0,0,0,0,0,0,0,0,0,-1,811,1709,0,0
-406,-685,0,0,0,0,0,0,0,0,0,-1,818,1709,0,0
-399,-685,0,0,0,0,0,0,0,0,0,-1,825,1709,0,0
-392,-685,0,0,0,0,0,0,0,0,0,-1,832,1709,0,0
-385,-685,0,0,0,0,0,0,0,0,0,-1,839,1709,0,0
-378,-685,0,0,0,0,0,0,0,0,0,-1,846,1709,0,0
-371,-685,0,0,0,0,0,0,0,0,0,-1,853,1709,0,0
-364,-685,0,0,0,0,0,0,0,0,0,-1,860,1709,0,0
-357,-685,0,0,0,0,0,0,0,0,0,-1,867,1709,0,0
-350,-685,0,0,0,0,0,0,0,0,0,-1,874,1709,0,0
-343,-685,-5.98505,6.56335,0,0,0,0,0,0,0,-1,881,1709,-5.98505,-6.56329
-336,-685,-6.51312,5.10571,0,0,0,0,0,0,0,-1,888,1709,-6.51311,-5.10575
-329,-685,-6.81384,3.34106,0,0,0,0,0,0,0,-1,895,1709,-6.81385,-3.341
-322,-685,3.48425,16.3307,0,0,0,0,0,0,0,-1,902,1709,3.48425,-16.3307
-315,-685,3.66089,14.3413,0,0,0,0,0,0,0,-1,909,1709,3.66091,-14.3413
-308,-685,6.0274,11.0804,0,0,0,0,0,0,0,-1,916,1709,6.02742,-11.0804
-301,-685,2.40594,10.7349,0,0,0,0,0,0,0,-1,923,1709,2.40592,-10.7348
-294,-685,2.65149,10.7196,0,0,0,0,0,0,0,-1,930,1709,2.65147,-10.7196
-287,-685,4.01935,10.8832,0,0,0,0,0,0,0,-1,937,1709,4.01933,-10.8831
-280,-685,3.82739,11.7595,0,0,0,0,0,0,0,-1,944,1709,3.82742,-11.7595
-273,-685,3.41687,10.9498,0,0,0,0,0,0,0,-1,951,1709,3.41687,-10.9498
-266,-685,3.64783,11.3134,0.000861435,0.00146172,0.0167171,0.0178814,-0.0155582,0.794374,0.0193219,0.0438157,958,1709,3.64781,-11.3134
-259,-685,4.06818,11.6067,0.00338695,0.00252567,0.0127591,0.0157227,-0.00981008,0.768529,0.0148725,0.0409062,965,1709,4.06818,-11.6067
-252,-685,4.46558,11.9352,0.00553033,0.0036499,0.00884399,0.0134839,-0.00430371,0.732442,0.0107159,0.0394346,972,1709,4.46555,-11.9351
-245,-685,4.091,12.0786,0.00682513,0.00458648,0.00533826,0.0111602,0.000251455,0.682056,0.00735772,0.0353546,979,1709,4.09103,-12.0786
-238,-685,4.06348,12.265,0.00721856,0.00492727,0.00244186,0.00877016,0.00337566,0.566058,0.00510798,0.0250978,986,1709,4.06347,-12.265
-231,-685,4.04114,12.4308,0.00726244,0.0051186,0.000611777,0.00742474,0.00495631,0.259309,0.00436615,0.0176229,993,1709,4.04111,-12.4308
-224,-685,4.01733,12.5648,0.00783649,0.00536656,-0.00115367,0.00829152,0.00491152,-0.375689,0.00481426,0.0157026,1000,1709,4.01734,-12.5648
-217,-685,4.02637,12.7371,0.00728882,0.0052029,-0.00253669,0.00898858,0.00350313,-0.590357,0.00523146,0.0114593,1007,1709,4.02637,-12.7371
-210,-685,4.03156,12.931,0.00551473,0.00409629,-0.0022575,0.00717179,0.00243922,-0.633199,0.00421061,0.0144642,1014,1709,4.03157,-12.931
-203,-685,4.01831,13.0612,0.00410848,0.00317266,-0.00173795,0.00544041,0.00184073,-0.6539,0.00319527,0.0149513,1021,1709,4.01832,-13.0611
-196,-685,4.00366,13.191,0.00309274,0.00248715,-0.00105664,0.00388912,0.00169078,-0.645855,0.00225175,0.0137049,1028,1709,4.0037,-13.1911
-189,-685,4.00854,13.2994,0.00236459,0.0017516,-0.000629872,0.00275858,0.00135762,-0.558964,0.00159273,0.00924572,1035,1709,4.00852,-13.2995
-182,-685,3.99292,13.4376,0.00175472,0.00100431,-0.000287749,0.00185236,0.000906674,-0.327118,0.00106954,0.0127437,1042,1709,3.99294,-13.4377
-175,-685,3.98083,13.5693,0.00130063,0.000281994,7.29298e-05,0.00130583,0.000276799,0.0711121,0.000794522,0.0140409,1049,1709,3.9808,-13.5694
-168,-685,3.98572,13.7119,0.000896205,-0.000427008,0.000360837,0.000988208,-0.000519011,0.24965,0.000884136,0.0108865,1056,1709,3.98569,-13.7119
-161,-685,3.98474,13.8368,0.000990987,-0.000940245,0.000545665,0.0011345,-0.00108376,0.257179,0.00128082,0.0107986,1063,1709,3.98472,-13.8368
-154,-685,3.99792,13.9529,0.00144478,-0.00160234,0.000631603,0.00157051,-0.00172807,0.196496,0.00190516,0.00966862,1070,1709,3.99788,-13.9529
-147,-685,4.00037,14.0588,0.0019201,-0.00226273,0.000650407,0.0020189,-0.00236153,0.150754,0.00253162,0.00818718,1077,1709,4.00039,-14.0588
-140,-685,4.0011,14.1687,0.00236266,-0.00291651,0.000640252,0.0024392,-0.00299305,0.118981,0.00314174,0.0103766,1084,1709,4.00108,-14.1687
-133,-685,4.0094,14.2788,0.00282852,-0.0036247,0.000634987,0.0028904,-0.00368659,0.0971568,0.00380649,0.0105058,1091,1709,4.00944,-14.2788
-126,-685,4.01672,14.3898,0.00332003,-0.00436927,0.000707731,0.00338462,-0.00443387,0.091022,0.00452754,0.00874973,1098,1709,4.01673,-14.3897
-119,-685,4.03699,14.4982,0.0037464,-0.00484612,0.000817544,0.00382349,-0.00492322,0.0940219,0.0050632,0.0121513,1105,1709,4.03695,-14.4981
-112,-685,4.03027,14.6021,0.00410206,-0.00533944,0.000869239,0.00418142,-0.0054188,0.0910459,0.00555802,0.0122758,1112,1709,4.03032,-14.6021
-105,-685,4.00854,14.691,0.00443399,-0.00579202,0.00100505,0.00453184,-0.00588986,0.097046,0.00603397,0.0106549,1119,1709,4.00856,-14.691
-98,-685,4.06372,14.7715,0.00469223,-0.00605891,0.00116511,0.00481704,-0.00618372,0.10672,0.00636761,0.0135139,1126,1709,4.06369,-14.7715
-91,-685,4.0575,14.864,0.00495461,-0.00589055,0.00141042,0.00513503,-0.00607097,0.127231,0.00647731,0.0161283,1133,1709,4.05744,-14.864
-84,-685,4.052,14.9358,0.00523053,-0.0057242,0.00158033,0.00545395,-0.00594762,0.140446,0.00658476,0.0149233,1140,1709,4.05195,-14.9358
-77,-685,4.09167,15.0713,0.00554307,-0.00488462,0.00129665,0.00570189,-0.00504344,0.121874,0.0062077,0.0143771,1147,1709,4.0917,-15.0713
-70,-685,4.2135,15.2714,0.00583856,-0.0045749,0.000919518,0.00591913,-0.00465547,0.0873997,0.00611977,0.0292335,1154,1709,4.21356,-15.2714
-63,-685,4.15405,15.3776,0,0,0,0,0,0,0,-1,1161,1709,4.15411,-15.3776
-56,-685,3.93909,15.8704,0,0,0,0,0,0,0,-1,1168,1709,3.93905,-15.8704
-49,-685,3.07471,9.86011,0,0,0,0,0,0,0,-1,1175,1709,3.07467,-9.86009
-42,-685,2.70618,7.54504,0,0,0,0,0,0,0,-1,1182,1709,2.7062,-7.54504
-35,-685,2.95264,7.91516,0,0,0,0,0,0,0,-1,1189,1709,2.95262,-7.91517
-28,-685,4.06665,15.512,0,0,0,0,0,0,0,-1,1196,1709,4.06666,-15.5119
-21,-685,4.26208,15.454,0.0103004,-0.0100851,0.00192897,0.0104813,-0.0102661,0.0935185,0.0119787,0.0425014,1203,1709,4.26205,-15.454
-14,-685,4.38928,15.4291,0.0107554,-0.00968884,0.00183722,0.0109192,-0.00985263,0.088916,0.0119979,0.0264635,1210,1709,4.38923,-15.4291
-7,-685,4.39661,15.4833,0.0123834,-0.00867185,0.00113975,0.0124449,-0.00873337,0.0539212,0.0122897,0.0388437,1217,1709,4.39659,-15.4832
0,-685,4.48083,15.4955,0.0155729,-0.00308243,-0.0018756,0.0157596,-0.00326913,-0.0992167,0.0117487,0.0440693,1224,1709,4.48079,-15.4955
7,-685,4.46069,15.5376,0.0194888,0.00258206,-0.0055915,0.0211707,0.000900127,-0.292192,0.0138236,0.0392574,1231,1709,4.46075,-15.5377
14,-685,4.65527,15.5939,0.0238463,0.00876367,-0.00978776,0.028661,0.00394895,-0.457157,0.0179365,0.0399333,1238,1709,4.65533,-15.5939
21,-685,4.79297,15.656,0.0288525,0.0170839,-0.0157091,0.0397432,0.00619322,-0.606196,0.0246913,0.0364204,1245,1709,4.79302,-15.656
28,-685,4.6322,15.6851,0.0328275,0.0254078,-0.0183625,0.0478512,0.0103841,-0.685723,0.0290645,0.0374162,1252,1709,4.63218,-15.6851
35,-685,4.70337,15.6212,0.0361278,0.0337973,-0.0200099,0.0550063,0.0149188,-0.756315,0.0328474,0.038563,1259,1709,4.70342,-15.6212
42,-685,4.65894,15.7518,0.0384287,0.0439336,-0.0185989,0.0599826,0.0223797,-0.85886,0.0350008,0.04293,1266,1709,4.65892,-15.7518
49,-685,4.72363,15.8121,0.0404052,0.0517631,-0.0190672,0.0659791,0.0261892,-0.930135,0.0383619,0.0463463,1273,1709,4.72361,-15.8122
56,-685,4.61389,15.325,0.0406442,0.0582341,-0.0171801,0.0687396,0.0301387,-1.02197,0.0397869,0.0447191,1280,1709,4.61395,-15.325
63,-685,4.63855,15.1838,0.0400752,0.0637268,-0.0140853,0.0702924,0.0335096,-1.13461,0.040598,0.0438454,1287,1709,4.63854,-15.1839
70,-685,4.51392,15.6599,0,0,0,0,0,0,0,-1,1294,1709,4.51386,-15.6599
77,-685,4.60669,15.7534,0.0328679,0.068822,-0.00456455,0.0693924,0.0322975,-1.44647,0.0400956,0.040641,1301,1709,4.60675,-15.7534
84,-685,4.79199,15.8695,0.0283338,0.0687039,0.000958358,0.0687267,0.028311,1.54707,0.039884,0.0418114,1308,1709,4.79201,-15.8695
91,-685,5.01294,15.7949,0.0230509,0.0669425,0.00500605,0.0675062,0.0224871,1.45866,0.0396918,0.0459277,1315,1709,5.01294,-15.7949
98,-685,4.49377,15.6154,0.0169446,0.0637223,0.00876546,0.0653108,0.0153561,1.39151,0.0394315,0.0409655,1322,1709,4.49379,-15.6153
105,-685,4.41663,15.5123,0.0113713,0.0558083,0.0126525,0.0591583,0.00802125,1.31197,0.0370556,0.0395268,1329,1709,4.41663,-15.5123
112,-685,4.5603,15.7095,0.00786373,0.0506599,0.0138929,0.0547744,0.00374928,1.28287,0.0353329,0.0408022,1336,1709,4.56035,-15.7095
119,-685,4.55969,15.8727,0.00575422,0.0452855,0.0130112,0.0491835,0.00185616,1.27971,0.0321882,0.0397978,1343,1709,4.55971,-15.8726
126,-685,4.58069,15.8151,0.00364811,0.0383545,0.0129127,0.0426316,-0.000629039,1.25094,0.0286331,0.0426523,1350,1709,4.58067,-15.815
133,-685,4.74951,15.7048,0.0020843,0.0318423,0.00939011,0.0345576,-0.000630984,1.28931,0.0232516,0.046238,1357,1709,4.74957,-15.7048
140,-685,4.85461,15.782,0.000223586,0.025024,0.0066575,0.0266982,-0.00145056,1.32444,0.0183015,0.0443078,1364,1709,4.85465,-15.7819
147,-685,4.82568,15.8596,-0.00221406,0.013921,0.000758898,0.0139566,-0.00224967,1.5239,0.0101378,0.0433813,1371,1709,4.82574,-15.8597
154,-685,4.78247,15.7954,0,0,0,0,0,0,0,-1,1378,1709,4.78249,-15.7955
161,-685,5.17236,15.7383,0,0,0,0,0,0,0,-1,1385,1709,5.17241,-15.7383
168,-685,4.37524,10.8778,0,0,0,0,0,0,0,-1,1392,1709,4.37525,-10.8778
175,-685,3.97522,8.94324,0,0,0,0,0,0,0,-1,1399,1709,3.97519,-8.94328
182,-685,3.98218,9.19739,0,0,0,0,0,0,0,-1,1406,1709,3.98221,-9.1974
189,-685,4.53479,15.2343,0,0,0,0,0,0,0,-1,1413,1709,4.53474,-15.2343
196,-685,4.94946,15.635,0,0,0,0,0,0,0,-1,1420,1709,4.94949,-15.635
203,-685,4.91406,15.5148,0,0,0,0,0,0,0,-1,1427,1709,4.91404,-15.5147
210,-685,4.99548,15.6129,0.00101164,0.0009512,0.000574788,0.001557,0.000405836,0.759136,0.000932634,0.0362542,1434,1709,4.99546,-15.6129
217,-685,4.98657,15.3191,0.000501714,0.000343701,0.000269305,0.000703362,0.000142053,0.642715,0.000429461,0.0228756,1441,1709,4.98655,-15.319
224,-685,4.93225,15.2155,0.000251109,-0.000410021,0.000585723,0.00059311,-0.000752022,0.528493,0.000778416,0.0150749,1448,1709,4.93227,-15.2155
231,-685,4.95569,15.1426,0.000676123,-0.000978957,0.000883796,0.00105933,-0.00136217,0.40913,0.00140169,0.0156775,1455,1709,4.95572,-15.1426
238,-685,4.96753,15.0476,0.00091034,-0.00121237,0.00130381,0.00153017,-0.0018322,0.443775,0.00194388,0.0180615,1462,1709,4.96753,-15.0476
245,-685,4.9707,14.9821,0.00133617,-0.00154549,0.00166559,0.00209765,-0.00230697,0.428813,0.00254396,0.0188191,1469,1709,4.9707,-14.9821
252,-685,4.98743,14.9508,0.0018519,-0.00163785,0.00176869,0.00259154,-0.0023775,0.396087,0.00286976,0.0137391,1476,1709,4.98737,-14.9508
259,-685,5.01184,14.8936,0.0018606,-0.00180724,0.00182628,0.00261483,-0.00256148,0.391655,0.0029886,0.00972743,1483,1709,5.01181,-14.8936
266,-685,5.01721,14.8053,0.00164209,-0.00209921,0.00183079,0.0023889,-0.00284602,0.387315,0.00302622,0.00995265,1490,1709,5.01717,-14.8052
273,-685,5.02747,14.7008,0.00123429,-0.00181724,0.0016521,0.00195739,-0.00254034,0.412565,0.00260403,0.013168,1497,1709,5.02741,-14.7008
280,-685,5.03381,14.6039,0.000651241,-0.00136736,0.00142153,0.00138534,-0.00210146,0.476691,0.00202721,0.0157514,1504,1709,5.03378,-14.6039
287,-685,5.03284,14.5162,4.99593e-05,-0.000875969,0.00119332,0.000866977,-0.00169299,0.600355,0.00150342,0.0124071,1511,1709,5.03289,-14.5162
294,-685,5.02246,14.4156,-0.00046964,-0.000334488,0.000966811,0.000567105,-0.00137123,0.820289,0.00115075,0.010527,1518,1709,5.02242,-14.4156
301,-685,5.01758,14.3086,-0.000871855,0.000168082,0.000759566,0.000568607,-0.00127238,1.08554,0.00108847,0.0127035,1525,1709,5.01759,-14.3086
308,-685,5.03491,14.2,-0.00098331,0.000674709,0.000936367,0.00109632,-0.00140492,1.14773,0.00144775,0.0138699,1532,1709,5.03494,-14.2
315,-685,5.0531,14.0743,-0.00072728,0.000318566,0.00129648,0.00119361,-0.00160232,0.977089,0.00161997,0.0122938,1539,1709,5.05315,-14.0744
322,-685,5.01489,13.9628,-5.82162e-05,-0.000428887,0.00166603,0.00143275,-0.00191986,0.730004,0.00194243,0.0205457,1546,1709,5.0149,-13.9628
329,-685,5.01184,13.8605,0.000931401,-0.00167378,0.00190749,0.00193863,-0.00268101,0.485827,0.00267861,0.0200278,1553,1709,5.01189,-13.8605
336,-685,5.02905,13.7195,0.00191151,-0.00297994,0.00228263,0.00281123,-0.00387965,0.375459,0.00387936,0.0128115,1560,1709,5.02902,-13.7195
343,-685,5.02856,13.5945,0.00309648,-0.00423536,0.00254757,0.00389476,-0.00503364,0.303659,0.00516877,0.0104894,1567,1709,5.02852,-13.5945
350,-685,5.0249,13.4587,0.00463902,-0.00601063,0.002844,0.00535093,-0.00672253,0.245278,0.00698559,0.0109176,1574,1709,5.02489,-13.4588
357,-685,5.0177,13.3278,0.00615528,-0.00775775,0.00294259,0.00675204,-0.00835451,0.200087,0.00873812,0.00971346,1581,1709,5.01769,-13.3277
364,-685,5.0094,13.1803,0.00743928,-0.00957845,0.0027686,0.00787837,-0.0100175,0.157287,0.0103568,0.00980408,1588,1709,5.00941,-13.1803
371,-685,5.01416,13.0229,0.00873506,-0.0111764,0.00224673,0.00898542,-0.0114268,0.110977,0.0118131,0.0159115,1595,1709,5.01421,-13.0229
378,-685,4.94824,12.9352,0.0100096,-0.0122093,0.00145729,0.0101047,-0.0123045,0.0652157,0.0129588,0.0231055,1602,1709,4.94826,-12.9352
385,-685,4.97424,12.7354,0.0113173,-0.0130773,0.000325497,0.0113216,-0.0130817,0.0133398,0.0141015,0.0383521,1609,1709,4.97419,-12.7354
392,-685,4.97437,12.1495,0.0123707,-0.0131858,-0.0010148,0.012411,-0.013226,-0.0396248,0.014804,0.041005,1616,1709,4.97433,-12.1495
399,-685,5.22009,11.9547,0,0,0,0,0,0,0,-1,1623,1709,5.22014,-11.9547
406,-685,5.07849,12.3905,0,0,0,0,0,0,0,-1,1630,1709,5.07846,-12.3905
413,-685,4.86414,12.3705,0,0,0,0,0,0,0,-1,1637,1709,4.86409,-12.3705
420,-685,4.84631,10.3781,0,0,0,0,0,0,0,-1,1644,1709,4.84634,-10.378
427,-685,6.05151,9.21155,0,0,0,0,0,0,0,-1,1651,1709,6.05156,-9.21156
434,-685,4.87769,8.91418,0,0,0,0,0,0,0,-1,1658,1709,4.87768,-8.91413
441,-685,5.62,8.75549,0,0,0,0,0,0,0,-1,1665,1709,5.61996,-8.75545
448,-685,6.4043,8.58972,0,0,0,0,0,0,0,-1,1672,1709,6.40435,-8.58971
455,-685,2.31958,4.09802,0,0,0,0,0,0,0,-1,1679,1709,2.31957,-4.09803
462,-685,0,0,0,0,0,0,0,0,0,-1,1686,1709,0,0
469,-685,0,0,0,0,0,0,0,0,0,-1,1693,1709,0,0
476,-685,0,0,0,0,0,0,0,0,0,-1,1700,1709,0,0
483,-685,0,0,0,0,0,0,0,0,0,-1,1707,1709,0,0
490,-685,0,0,0,0,0,0,0,0,0,-1,1714,1709,0,0
497,-685,0,0,0,0,0,0,0,0,0,-1,1721,1709,0,0
504,-685,0,0,0,0,0,0,0,0,0,-1,1728,1709,0,0
511,-685,0,0,0,0,0,0,0,0,0,-1,1735,1709,0,0
518,-685,0,0,0,0,0,0,0,0,0,-1,1742,1709,0,0
525,-685,0,0,0,0,0,0,0,0,0,-1,1749,1709,0,0
532,-685,0,0,0,0,0,0,0,0,0,-1,1756,1709,0,0
539,-685,0,0,0,0,0,0,0,0,0,-1,1763,1709,0,0
546,-685,0,0,0,0,0,0,0,0,0,-1,1770,1709,0,0
553,-685,0,0,0,0,0,0,0,0,0,-1,1777,1709,0,0
560,-685,0,0,0,0,0,0,0,0,0,-1,1784,1709,0,0
567,-685,0,0,0,0,0,0,0,0,0,-1,1791,1709,0,0
574,-685,0,0,0,0,0,0,0,0,0,-1,1798,1709,0,0
581,-685,0,0,0,0,0,0,0,0,0,-1,1805,1709,0,0
588,-685,0,0,0,0,0,0,0,0,0,-1,1812,1709,0,0
595,-685,0,0,0,0,0,0,0,0,0,-1,1819,1709,0,0
602,-685,0,0,0,0,0,0,0,0,0,-1,1826,1709,0,0
609,-685,0,0,0,0,0,0,0,0,0,-1,1833,1709,0,0
616,-685,0,0,0,0,0,0,0,0,0,-1,1840,1709,0,0
623,-685,0,0,0,0,0,0,0,0,0,-1,1847,1709,0,0
630,-685,0,0,0,0,0,0,0,0,0,-1,1854,1709,0,0
637,-685,0,0,0,0,0,0,0,0,0,-1,1861,1709,0,0
644,-685,0,0,0,0,0,0,0,0,0,-1,1868,1709,0,0
651,-685,0,0,0,0,0,0,0,0,0,-1,1875,1709,0,0
658,-685,0,0,0,0,0,0,0,0,0,-1,1882,1709,0,0
665,-685,0,0,0,0,0,0,0,0,0,-1,1889,1709,0,0
672,-685,0,0,0,0,0,0,0,0,0,-1,1896,1709,0,0
679,-685,0,0,0,0,0,0,0,0,0,-1,1903,1709,0,0
686,-685,0,0,0,0,0,0,0,0,0,-1,1910,1709,0,0
693,-685,0,0,0,0,0,0,0,0,0,-1,1917,1709,0,0
700,-685,0,0,0,0,0,0,0,0,0,-1,1924,1709,0,0
707,-685,0,0,0,0,0,0,0,0,0,-1,1931,1709,0,0
714,-685,0,0,0,0,0,0,0,0,0,-1,1938,1709,0,0
721,-685,0,0,0,0,0,0,0,0,0,-1,1945,1709,0,0
728,-685,0,0,0,0,0,0,0,0,0,-1,1952,1709,0,0
735,-685,0,0,0,0,0,0,0,0,0,-1,1959,1709,0,0
742,-685,0,0,0,0,0,0,0,0,0,-1,1966,1709,0,0
749,-685,0,0,0,0,0,0,0,0,0,-1,1973,1709,0,0
756,-685,0,0,0,0,0,0,0,0,0,-1,1980,1709,0,0
763,-685,0,0,0,0,0,0,0,0,0,-1,1987,1709,0,0
770,-685,0,0,0,0,0,0,0,0,0,-1,1994,1709,0,0
777,-685,0,0,0,0,0,0,0,0,0,-1,2001,1709,0,0
784,-685,0,0,0,0,0,0,0,0,0,-1,2008,1709,0,0
791,-685,0,0,0,0,0,0,0,0,0,-1,2015,1709,0,0
798,-685,0,0,0,0,0,0,0,0,0,-1,2022,1709,0,0
805,-685,0,0,0,0,0,0,0,0,0,-1,2029,1709,0,0
812,-685,0,0,0,0,0,0,0,0,0,-1,2036,1709,0,0
-700,-692,0,0,0,0,0,0,0,0,0,-1,524,1716,0,0
-693,-692,0,0,0,0,0,0,0,0,0,-1,531,1716,0,0
-686,-692,0,0,0,0,0,0,0,0,0,-1,538,1716,0,0
-679,-692,0,0,0,0,0,0,0,0,0,-1,545,1716,0,0
-672,-692,0,0,0,0,0,0,0,0,0,-1,552,1716,0,0
-665,-692,0,0,0,0,0,0,0,0,0,-1,559,1716,0,0
-658,-692,0,0,0,0,0,0,0,0,0,-1,566,1716,0,0
-651,-692,0,0,0,0,0,0,0,0,0,-1,573,1716,0,0
-644,-692,0,0,0,0,0,0,0,0,0,-1,580,1716,0,0
-637,-692,0,0,0,0,0,0,0,0,0,-1,587,1716,0,0
-630,-692,0,0,0,0,0,0,0,0,0,-1,594,1716,0,0
-623,-692,0,0,0,0,0,0,0,0,0,-1,601,1716,0,0
-616,-692,0,0,0,0,0,0,0,0,0,-1,608,1716,0,0
-609,-692,0,0,0,0,0,0,0,0,0,-1,615,1716,0,0
-602,-692,0,0,0,0,0,0,0,0,0,-1,622,1716,0,0
-595,-692,0,0,0,0,0,0,0,0,0,-1,629,1716,0,0
-588,-692,0,0,0,0,0,0,0,0,0,-1,636,1716,0,0
-581,-692,0,0,0,0,0,0,0,0,0,-1,643,1716,0,0
-574,-692,0,0,0,0,0,0,0,0,0,-1,650,1716,0,0
-567,-692,0,0,0,0,0,0,0,0,0,-1,657,1716,0,0
-560,-692,0,0,0,0,0,0,0,0,0,-1,664,1716,0,0
-553,-692,0,0,0,0,0,0,0,0,0,-1,671,1716,0,0
-546,-692,0,0,0,0,0,0,0,0,0,-1,678,1716,0,0
-539,-692,0,0,0,0,0,0,0,0,0,-1,685,1716,0,0
-532,-692,0,0,0,0,0,0,0,0,0,-1,692,1716,0,0
-525,-692,0,0,0,0,0,0,0,0,0,-1,699,1716,0,0
-518,-692,0,0,0,0,0,0,0,0,0,-1,706,1716,0,0
-511,-692,0,0,0,0,0,0,0,0,0,-1,713,1716,0,0
-504,-692,0,0,0,0,0,0,0,0,0,-1,720,1716,0,0
-497,-692,0,0,0,0,0,0,0,0,0,-1,727,1716,0,0
-490,-692,0,0,0,0,0,0,0,0,0,-1,734,1716,0,0
-483,-692,0,0,0,0,0,0,0,0,0,-1,741,1716,0,0
-476,-692,0,0,0,0,0,0,0,0,0,-1,748,1716,0,0
-469,-692,0,0,0,0,0,0,0,0,0,-1,755,1716,0,0
-462,-692,0,0,0,0,0,0,0,0,0,-1,762,1716,0,0
-455,-692,0,0,0,0,0,0,0,0,0,-1,769,1716,0,0
-448,-692,0,0,0,0,0,0,0,0,0,-1,776,1716,0,0
-441,-692,0,0,0,0,0,0,0,0,0,-1,783,1716,0,0
-434,-692,0,0,0,0,0,0,0,0,0,-1,790,1716,0,0
-427,-692,0,0,0,0,0,0,0,0,0,-1,797,1716,0,0
-420,-692,0,0,0,0,0,0,0,0,0,-1,804,1716,0,0
-413,-692,0,0,0,0,0,0,0,0,0,-1,811,1716,0,0
-406,-692,0,0,0,0,0,0,0,0,0,-1,818,1716,0,0
-399,-692,0,0,0,0,0,0,0,0,0,-1,825,1716,0,0
-392,-692,0,0,0,0,0,0,0,0,0,-1,832,1716,0,0
-385,-692,0,0,0,0,0,0,0,0,0,-1,839,1716,0,0
-378,-692,0,0,0,0,0,0,0,0,0,-1,846,1716,0,0
-371,-692,0,0,0,0,0,0,0,0,0,-1,853,1716,0,0
-364,-692,0,0,0,0,0,0,0,0,0,-1,860,1716,0,0
-357,-692,0,0,0,0,0,0,0,0,0,-1,867,1716,0,0
-350,-692,0,0,0,0,0,0,0,0,0,-1,874,1716,0,0
-343,-692,0,0,0,0,0,0,0,0,0,-1,881,1716,0,0
-336,-692,0,0,0,0,0,0,0,0,0,-1,888,1716,0,0
-329,-692,3.12396,3.50745,0,0,0,0,0,0,0,-1,895,1716,3.12398,-3.50748
-322,-692,3.67346,17.0139,0,0,0,0,0,0,0,-1,902,1716,3.67349,-17.0139
-315,-692,3.98718,15.2626,0,0,0,0,0,0,0,-1,909,1716,3.98716,-15.2626
-308,-692,4.28339,13.5061,0,0,0,0,0,0,0,-1,916,1716,4.2834,-13.5061
-301,-692,1.8653,11.0195,0,0,0,0,0,0,0,-1,923,1716,1.86532,-11.0195
-294,-692,5.69696,10.3323,0,0,0,0,0,0,0,-1,930,1716,5.69695,-10.3323
-287,-692,3.87195,10.928,0,0,0,0,0,0,0,-1,937,1716,3.87197,-10.928
-280,-692,3.72766,11.8529,-0.00983371,-0.00376432,0.0341436,0.0274792,-0.0410772,0.829722,0.0398398,0.0425892,944,1716,3.72765,-11.8529
-273,-692,3.6131,13.0753,-0.0015885,-0.000541187,0.026941,0.0258813,-0.028011,0.795115,0.0311228,0.0454381,951,1716,3.61307,-13.0753
-266,-692,3.66016,11.1808,0,0,0,0,0,0,0,-1,958,1716,3.66016,-11.1808
-259,-692,4.34534,11.311,0,0,0,0,0,0,0,-1,965,1716,4.34533,-11.311
-252,-692,4.37732,11.725,0,0,0,0,0,0,0,-1,972,1716,4.37729,-11.725
-245,-692,4.27802,11.9858,0.0153644,0.00626699,0.00451326,0.0172235,0.00440787,0.390744,0.0103314,0.0490191,979,1716,4.27802,-11.9858
-238,-692,4.23065,12.2002,0.0163592,0.00687403,0.00082375,0.0164302,0.00680302,0.0859881,0.00953258,0.0439249,986,1716,4.23067,-12.2001
-231,-692,4.22552,12.4128,0.0163922,0.00720232,-0.00146404,0.0166198,0.00697472,-0.154225,0.00963663,0.0343988,993,1716,4.22551,-12.4128
-224,-692,4.15845,12.5876,0.0169184,0.00754221,-0.0036316,0.0181604,0.00630015,-0.329545,0.0106475,0.0178943,1000,1716,4.15844,-12.5876
-217,-692,4.15845,12.7371,0.0156836,0.00742913,-0.00516375,0.0181669,0.00494589,-0.448249,0.0108453,0.0124998,1007,1716,4.15845,-12.737
-210,-692,4.16364,12.8925,0.0124627,0.00609108,-0.00447462,0.0147697,0.00378402,-0.476042,0.00885876,0.0129536,1014,1716,4.16365,-12.8925
-203,-692,4.1637,13.0347,0.00957432,0.00497108,-0.00351842,0.0114771,0.00306833,-0.49575,0.00686124,0.014955,1021,1716,4.16375,-13.0346
-196,-692,4.17114,13.1719,0.00715623,0.0041973,-0.00236662,0.00846777,0.00288577,-0.506048,0.00497079,0.0179624,1028,1716,4.1712,-13.1719
-189,-692,4.12573,13.2828,0.00522664,0.00332894,-0.00153263,0.00608036,0.00247522,-0.508226,0.00353065,0.00926209,1035,1716,4.12575,-13.2829
-182,-692,4.11145,13.4382,0.0035755,0.00256081,-0.000871643,0.0040767,0.00205961,-0.521838,0.00235372,0.0127509,1042,1716,4.11147,-13.4382
-175,-692,4.09534,13.595,0.0022294,0.00180849,-0.000218511,0.00232232,0.00171556,-0.402086,0.0013908,0.0146342,1049,1716,4.09529,-13.595
-168,-692,4.11938,13.723,0.00081445,0.00101219,0.000377004,0.00130307,0.000523566,0.913636,0.000757151,0.0115325,1056,1716,4.11934,-13.7231
-161,-692,4.13708,13.8445,0.000378662,0.000551819,0.00079031,0.00126028,-0.000329798,0.839956,0.00096901,0.0133593,1063,1716,4.13705,-13.8445
-154,-692,4.12744,13.9586,0.000821377,-8.40355e-05,0.000865429,0.00134535,-0.000608012,0.54442,0.00115425,0.0138528,1070,1716,4.12738,-13.9586
-147,-692,4.10437,14.0522,0.00130235,-0.000699542,0.000854229,0.00161731,-0.0010145,0.353238,0.0015327,0.0118002,1077,1716,4.10442,-14.0523
-140,-692,4.10803,14.1581,0.0017338,-0.00131861,0.000806765,0.00193392,-0.00151872,0.243136,0.00199818,0.00996783,1084,1716,4.10805,-14.1581
-133,-692,4.12231,14.2783,0.00215457,-0.00197369,0.000752009,0.00228729,-0.00210641,0.174688,0.00253742,0.00990733,1091,1716,4.12227,-14.2783
-126,-692,4.13013,14.3885,0.00255379,-0.00260825,0.000759719,0.00266328,-0.00271773,0.143132,0.00310678,0.00763012,1098,1716,4.13018,-14.3885
-119,-692,4.13916,14.4954,0.00286833,-0.00299908,0.000813461,0.00297902,-0.00310977,0.135243,0.00351564,0.0107858,1105,1716,4.13918,-14.4954
-112,-692,4.13269,14.5962,0.00308785,-0.00339591,0.000805891,0.00318652,-0.00349458,0.121824,0.0038587,0.0107826,1112,1716,4.1327,-14.5962
-105,-692,4.1615,14.6945,0.00323825,-0.00373993,0.000837987,0.00333747,-0.00383915,0.117855,0.0041468,0.0155646,1119,1716,4.16147,-14.6945
-98,-692,4.19446,14.7769,0.0033016,-0.0039217,0.000905657,0.00341342,-0.00403352,0.122847,0.00430446,0.0171596,1126,1716,4.19452,-14.7769
-91,-692,4.17712,14.8528,0.00336498,-0.00376854,0.00102532,0.00350943,-0.00391299,0.139959,0.00428744,0.0193444,1133,1716,4.17718,-14.8528
-84,-692,4.16382,14.9039,0.00346818,-0.00355958,0.00111182,0.00363988,-0.00373128,0.15322,0.00425585,0.0202364,1140,1716,4.16388,-14.904
-77,-692,4.17383,15.0269,0.00365273,-0.00298201,0.000916996,0.00377713,-0.00310642,0.134844,0.0039805,0.012991,1147,1716,4.17381,-15.0269
-70,-692,4.19421,15.1309,0.00388451,-0.00279391,0.000664916,0.00395007,-0.00285947,0.0982764,0.00394826,0.016272,1154,1716,4.19427,-15.1308
-63,-692,4.20337,15.2123,0.00538861,-0.00404224,0.000613301,0.00542833,-0.00408195,0.0646683,0.00550908,0.0256407,1161,1716,4.20332,-15.2123
-56,-692,4.22961,15.2899,0,0,0,0,0,0,0,-1,1168,1716,4.22958,-15.2899
-49,-692,4.18091,15.3472,0,0,0,0,0,0,0,-1,1175,1716,4.18095,-15.3472
-42,-692,4.17981,15.5468,0,0,0,0,0,0,0,-1,1182,1716,4.17985,-15.5468
-35,-692,4.19055,15.5852,0,0,0,0,0,0,0,-1,1189,1716,4.19052,-15.5852
-28,-692,4.1875,15.5431,0.00671339,-0.00857839,0.0023708,0.00707252,-0.00893752,0.150337,0.00926428,0.0407334,1196,1716,4.18754,-15.5431
-21,-692,4.3158,15.5278,0.00663624,-0.0084596,0.00182778,0.0068544,-0.00867775,0.118792,0.00898806,0.0258359,1203,1716,4.31579,-15.5278
-14,-692,4.33923,15.538,0.00688294,-0.00846445,0.00202547,0.00714575,-0.00872727,0.129032,0.00917944,0.0144687,1210,1716,4.33923,-15.538
-7,-692,4.34521,15.6151,0.00818206,-0.0079762,0.00169766,0.00835849,-0.00815264,0.103558,0.00953296,0.0148214,1217,1716,4.34516,-15.6152
0,-692,4.36877,15.671,0.0105837,-0.00365511,-0.000546761,0.0106047,-0.00367608,-0.038324,0.00856237,0.0182318,1224,1716,4.36878,-15.671
7,-692,4.39844,15.6549,0.013322,0.00018417,-0.00304299,0.0139926,-0.000486422,-0.216906,0.00949466,0.0219479,1231,1716,4.39845,-15.6549
14,-692,4.50525,15.7283,0.0163805,0.00424001,-0.00584034,0.0187339,0.00188664,-0.383049,0.0119103,0.0225417,1238,1716,4.50525,-15.7282
21,-692,4.54651,15.7383,0.0200613,0.0101138,-0.0101245,0.0263678,0.00380727,-0.557084,0.0164569,0.0238869,1245,1716,4.54647,-15.7383
28,-692,4.49731,15.7042,0.0230704,0.0161252,-0.011722,0.0318233,0.0073723,-0.641394,0.019235,0.024507,1252,1716,4.4973,-15.7042
35,-692,4.48499,15.7698,0.0256986,0.0225152,-0.0125971,0.0368041,0.0114097,-0.722553,0.0217542,0.0223694,1259,1716,4.485,-15.7698
42,-692,4.53381,15.8687,0.0275897,0.0307136,-0.0108967,0.0401597,0.0181436,-0.856583,0.0232221,0.0212241,1266,1716,4.53375,-15.8687
49,-692,4.54822,15.8555,0.0291713,0.0367534,-0.0107145,0.0443278,0.0215969,-0.955436,0.0255955,0.0255403,1273,1716,4.54827,-15.8555
56,-692,4.5083,15.8597,0.0293506,0.0417716,-0.00870734,0.0462563,0.0248658,-1.09518,0.0267312,0.0306201,1280,1716,4.50833,-15.8598
63,-692,4.60144,15.8615,0.0287815,0.0458076,-0.00555648,0.0474605,0.0271286,-1.28166,0.0274948,0.0287925,1287,1716,4.60143,-15.8615
70,-692,4.63647,15.8323,0.0258203,0.0480141,-0.00142833,0.0481056,0.0257288,-1.50679,0.0277962,0.0239659,1294,1716,4.63648,-15.8323
77,-692,4.63171,15.8308,0.0225845,0.0491556,0.0027648,0.0494402,0.0222999,1.46821,0.0285899,0.0268108,1301,1716,4.63176,-15.8308
84,-692,4.68994,15.7729,0.0189118,0.0486246,0.00715965,0.0502598,0.0172765,1.34626,0.029486,0.0325601,1308,1716,4.68995,-15.773
91,-692,4.68884,15.8169,0.014665,0.0468653,0.0101569,0.0498014,0.0117289,1.2894,0.0300638,0.0326013,1315,1716,4.68886,-15.8169
98,-692,4.64709,15.8651,0.00983935,0.0440459,0.0127398,0.0482692,0.00561601,1.25069,0.0304804,0.0272413,1322,1716,4.64704,-15.8651
105,-692,4.67041,15.8458,0.00558763,0.0375816,0.0153837,0.0437783,-0.000609111,1.18787,0.0293907,0.0323234,1329,1716,4.67046,-15.8459
112,-692,4.65674,15.8853,0.00320857,0.033624,0.0154811,0.0401175,-0.00328485,1.17364,0.0279044,0.0346101,1336,1716,4.65678,-15.8853
119,-692,4.63806,15.8733,0.00196819,0.0296728,0.0138465,0.0354065,-0.0037655,1.1782,0.0249544,0.0289703,1343,1716,4.63806,-15.8733
126,-692,4.69226,15.844,0.000813128,0.0243528,0.0128197,0.0299863,-0.00482032,1.15676,0.0217762,0.0270276,1350,1716,4.6923,-15.844
133,-692,4.76111,15.827,0.000236836,0.0196809,0.00905583,0.0232452,-0.00332744,1.19583,0.0167167,0.021981,1357,1716,4.7611,-15.827
140,-692,4.76208,15.8495,-0.000374535,0.0148403,0.00608056,0.0169718,-0.002506,1.23364,0.0122357,0.0260497,1364,1716,4.76211,-15.8495
147,-692,4.72729,15.8628,-0.00108394,0.00778106,0.0014039,0.00799807,-0.00130096,1.41743,0.00581442,0.0287602,1371,1716,4.72735,-15.8627
154,-692,4.74231,15.7946,-0.00100848,0.0071573,0.00173206,0.0075095,-0.00136068,1.37019,0.00551612,0.0285171,1378,1716,4.74235,-15.7946
161,-692,4.93787,15.7627,0.000418043,0.00563751,0.00119271,0.00589714,0.000158411,1.35646,0.0038797,0.0441909,1385,1716,4.93792,-15.7627
168,-692,4.80579,15.7336,0,0,0,0,0,0,0,-1,1392,1716,4.80573,-15.7337
175,-692,4.85059,15.6542,0,0,0,0,0,0,0,-1,1399,1716,4.85063,-15.6541
182,-692,4.84387,15.6146,0,0,0,0,0,0,0,-1,1406,1716,4.84391,-15.6146
189,-692,4.86804,15.5804,0,0,0,0,0,0,0,-1,1413,1716,4.86804,-15.5805
196,-692,4.86511,15.5085,0.00120633,0.00187393,0.000970766,0.00256668,0.000513579,0.950993,0.00156822,0.0246943,1420,1716,4.86515,-15.5086
203,-692,4.8479,15.472,0.000986538,0.00159949,0.000703085,0.00205999,0.000526036,0.990933,0.00123588,0.0164656,1427,1716,4.84788,-15.472
210,-692,4.89246,15.4268,0.000619009,0.00131158,0.000612997,0.00166934,0.000261249,1.04251,0.00103684,0.0162227,1434,1716,4.8924,-15.4267
217,-692,4.8728,15.3409,0.000278724,0.000859888,0.000342003,0.00101809,0.000120525,1.13754,0.00064233,0.015708,1441,1716,4.87277,-15.341
224,-692,4.86987,15.2772,0.000177534,0.000254135,0.000449964,0.000667426,-0.000235757,0.827855,0.000540941,0.0121765,1448,1716,4.86986,-15.2772
231,-692,4.88464,15.203,0.000438837,-0.000293171,0.000549399,0.000732983,-0.000587318,0.491562,0.000763821,0.0108565,1455,1716,4.8847,-15.203
238,-692,4.88818,15.0953,0.000625182,-0.000650664,0.000737144,0.000962106,-0.000987588,0.428715,0.00112569,0.0172033,1462,1716,4.88818,-15.0953
245,-692,4.87915,15.0161,0.00108814,-0.00099835,0.000908037,0.00142797,-0.00133818,0.358108,0.00159732,0.0197625,1469,1716,4.87911,-15.0161
252,-692,4.90686,14.9392,0.00138169,-0.00113506,0.000919094,0.0016816,-0.00143497,0.315413,0.00180123,0.0172356,1476,1716,4.90691,-14.9392
259,-692,4.90564,14.892,0.00106495,-0.00133635,0.00088056,0.00135324,-0.00162464,0.316398,0.00172166,0.0094292,1483,1716,4.90564,-14.892
266,-692,4.89478,14.8097,0.000418608,-0.0015043,0.000819343,0.00072037,-0.00180606,0.352882,0.00150286,0.0093086,1490,1716,4.89476,-14.8097
273,-692,4.90466,14.7007,-0.000552696,-0.00125863,0.000654996,-0.000161617,-0.00164971,0.538263,0.00105009,0.0138665,1497,1716,4.90463,-14.7007
280,-692,4.94348,14.6085,-0.00174079,-0.000857987,0.000467562,-0.000656389,-0.00194239,1.16371,0.00114091,0.0148124,1504,1716,4.94352,-14.6085
287,-692,4.93945,14.5281,-0.00286529,-0.000441497,0.0003022,-0.000404387,-0.0029024,1.44861,0.00181522,0.0120942,1511,1716,4.93942,-14.5281
294,-692,4.92493,14.4264,-0.00382155,5.75323e-05,0.000149781,6.3307e-05,-0.00382733,1.53226,0.00257291,0.0103941,1518,1716,4.92494,-14.4264
301,-692,4.92029,14.3258,-0.00449007,0.00053674,4.66655e-05,0.000537173,-0.0044905,1.56151,0.00318785,0.0131799,1525,1716,4.92025,-14.3258
308,-692,4.90601,14.2413,-0.00455463,0.00109157,0.000545,0.00114369,-0.00460675,1.47544,0.00351498,0.0165523,1532,1716,4.90598,-14.2413
315,-692,4.94812,14.121,-0.00399065,0.000434897,0.00124399,0.000760603,-0.00431635,1.31472,0.00316175,0.0148846,1539,1716,4.94807,-14.121
322,-692,4.91968,13.9558,-0.00274496,-0.000629108,0.00192481,0.000509354,-0.00388342,1.03668,0.00277436,0.0189394,1546,1716,4.91966,-13.9558
329,-692,4.89758,13.8328,-0.00100853,-0.00230526,0.00247357,0.000900235,-0.00421403,0.657223,0.00315257,0.0170144,1553,1716,4.89762,-13.8328
336,-692,4.88818,13.6991,0.000834327,-0.00410871,0.00321793,0.00242033,-0.00569471,0.457922,0.00481067,0.0114176,1560,1716,4.88815,-13.699
343,-692,4.90479,13.5747,0.0029252,-0.00595687,0.00385198,0.00436299,-0.00739466,0.357244,0.00686309,0.0119349,1567,1716,4.90484,-13.5747
350,-692,4.91431,13.4393,0.00582794,-0.00850589,0.00457036,0.00716119,-0.00983914,0.283841,0.00985565,0.0121215,1574,1716,4.91429,-13.4394
357,-692,4.91223,13.3226,0.00867277,-0.0110146,0.00502858,0.00988281,-0.0122247,0.236142,0.0127876,0.0152515,1581,1716,4.9122,-13.3227
364,-692,4.97021,13.2288,0.0106291,-0.0139315,0.00502536,0.0116176,-0.01492,0.194215,0.0153609,0.0219092,1588,1716,4.97018,-13.2288
371,-692,5.07922,13.0891,0.0125964,-0.0166444,0.00453509,0.0132836,-0.0173316,0.150389,0.0177271,0.0335016,1595,1716,5.07926,-13.0891
378,-692,5.09766,12.9952,0.0144957,-0.0185209,0.00363141,0.0148904,-0.0189155,0.108263,0.0195639,0.0433547,1602,1716,5.09766,-12.9952
385,-692,4.86475,12.5607,0,0,0,0,0,0,0,-1,1609,1716,4.8648,-12.5607
392,-692,4.61206,11.3916,0,0,0,0,0,0,0,-1,1616,1716,4.61208,-11.3916
399,-692,5.2627,10.4279,0,0,0,0,0,0,0,-1,1623,1716,5.26267,-10.4278
406,-692,4.73633,10.6808,0,0,0,0,0,0,0,-1,1630,1716,4.73637,-10.6808
413,-692,4.25085,10.5685,0,0,0,0,0,0,0,-1,1637,1716,4.2508,-10.5685
420,-692,5.48901,10.4845,0,0,0,0,0,0,0,-1,1644,1716,5.48906,-10.4845
427,-692,3.79578,8.60339,0,0,0,0,0,0,0,-1,1651,1716,3.79577,-8.6034
434,-692,4.78516,8.64636,0,0,0,0,0,0,0,-1,1658,1716,4.78512,-8.64634
441,-692,5.8208,8.74036,0,0,0,0,0,0,0,-1,1665,1716,5.82084,-8.7404
448,-692,6.73792,8.51013,0,0,0,0,0,0,0,-1,1672,1716,6.73793,-8.5101
455,-692,0,0,0,0,0,0,0,0,0,-1,1679,1716,0,0
462,-692,0,0,0,0,0,0,0,0,0,-1,1686,1716,0,0
469,-692,0,0,0,0,0,0,0,0,0,-1,1693,1716,0,0
476,-692,0,0,0,0,0,0,0,0,0,-1,1700,1716,0,0
483,-692,0,0,0,0,0,0,0,0,0,-1,1707,1716,0,0
490,-692,0,0,0,0,0,0,0,0,0,-1,1714,1716,0,0
497,-692,0,0,0,0,0,0,0,0,0,-1,1721,1716,0,0
504,-692,0,0,0,0,0,0,0,0,0,-1,1728,1716,0,0
511,-692,0,0,0,0,0,0,0,0,0,-1,1735,1716,0,0
518,-692,0,0,0,0,0,0,0,0,0,-1,1742,1716,0,0
525,-692,0,0,0,0,0,0,0,0,0,-1,1749,1716,0,0
532,-692,0,0,0,0,0,0,0,0,0,-1,1756,1716,0,0
539,-692,0,0,0,0,0,0,0,0,0,-1,1763,1716,0,0
546,-692,0,0,0,0,0,0,0,0,0,-1,1770,1716,0,0
553,-692,0,0,0,0,0,0,0,0,0,-1,1777,1716,0,0
560,-692,0,0,0,0,0,0,0,0,0,-1,1784,1716,0,0
567,-692,0,0,0,0,0,0,0,0,0,-1,1791,1716,0,0
574,-692,0,0,0,0,0,0,0,0,0,-1,1798,1716,0,0
581,-692,0,0,0,0,0,0,0,0,0,-1,1805,1716,0,0
588,-692,0,0,0,0,0,0,0,0,0,-1,1812,1716,0,0
595,-692,0,0,0,0,0,0,0,0,0,-1,1819,1716,0,0
602,-692,0,0,0,0,0,0,0,0,0,-1,1826,1716,0,0
609,-692,0,0,0,0,0,0,0,0,0,-1,1833,1716,0,0
616,-692,0,0,0,0,0,0,0,0,0,-1,1840,1716,0,0
623,-692,0,0,0,0,0,0,0,0,0,-1,1847,1716,0,0
630,-692,0,0,0,0,0,0,0,0,0,-1,1854,1716,0,0
637,-692,0,0,0,0,0,0,0,0,0,-1,1861,1716,0,0
644,-692,0,0,0,0,0,0,0,0,0,-1,1868,1716,0,0
651,-692,0,0,0,0,0,0,0,0,0,-1,1875,1716,0,0
658,-692,0,0,0,0,0,0,0,0,0,-1,1882,1716,0,0
665,-692,0,0,0,0,0,0,0,0,0,-1,1889,1716,0,0
672,-692,0,0,0,0,0,0,0,0,0,-1,1896,1716,0,0
679,-692,0,0,0,0,0,0,0,0,0,-1,1903,1716,0,0
686,-692,0,0,0,0,0,0,0,0,0,-1,1910,1716,0,0
693,-692,0,0,0,0,0,0,0,0,0,-1,1917,1716,0,0
700,-692,0,0,0,0,0,0,0,0,0,-1,1924,1716,0,0
707,-692,0,0,0,0,0,0,0,0,0,-1,1931,1716,0,0
714,-692,0,0,0,0,0,0,0,0,0,-1,1938,1716,0,0
721,-692,0,0,0,0,0,0,0,0,0,-1,1945,1716,0,0
728,-692,0,0,0,0,0,0,0,0,0,-1,1952,1716,0,0
735,-692,0,0,0,0,0,0,0,0,0,-1,1959,1716,0,0
742,-692,0,0,0,0,0,0,0,0,0,-1,1966,1716,0,0
749,-692,0,0,0,0,0,0,0,0,0,-1,1973,1716,0,0
756,-692,0,0,0,0,0,0,0,0,0,-1,1980,1716,0,0
763,-692,0,0,0,0,0,0,0,0,0,-1,1987,1716,0,0
770,-692,0,0,0,0,0,0,0,0,0,-1,1994,1716,0,0
777,-692,0,0,0,0,0,0,0,0,0,-1,2001,1716,0,0
784,-692,0,0,0,0,0,0,0,0,0,-1,2008,1716,0,0
791,-692,0,0,0,0,0,0,0,0,0,-1,2015,1716,0,0
798,-692,0,0,0,0,0,0,0,0,0,-1,2022,1716,0,0
805,-692,0,0,0,0,0,0,0,0,0,-1,2029,1716,0,0
812,-692,0,0,0,0,0,0,0,0,0,-1,2036,1716,0,0
-700,-699,0,0,0,0,0,0,0,0,0,-1,524,1723,0,0
-693,-699,0,0,0,0,0,0,0,0,0,-1,531,1723,0,0
-686,-699,0,0,0,0,0,0,0,0,0,-1,538,1723,0,0
-679,-699,0,0,0,0,0,0,0,0,0,-1,545,1723,0,0
-672,-699,0,0,0,0,0,0,0,0,0,-1,552,1723,0,0
-665,-699,0,0,0,0,0,0,0,0,0,-1,559,1723,0,0
-658,-699,0,0,0,0,0,0,0,0,0,-1,566,1723,0,0
-651,-699,0,0,0,0,0,0,0,0,0,-1,573,1723,0,0
-644,-699,0,0,0,0,0,0,0,0,0,-1,580,1723,0,0
-637,-699,0,0,0,0,0,0,0,0,0,-1,587,1723,0,0
-630,-699,0,0,0,0,0,0,0,0,0,-1,594,1723,0,0
-623,-699,0,0,0,0,0,0,0,0,0,-1,601,1723,0,0
-616,-699,0,0,0,0,0,0,0,0,0,-1,608,1723,0,0
-609,-699,0,0,0,0,0,0,0,0,0,-1,615,1723,0,0
-602,-699,0,0,0,0,0,0,0,0,0,-1,622,1723,0,0
-595,-699,0,0,0,0,0,0,0,0,0,-1,629,1723,0,0
-588,-699,0,0,0,0,0,0,0,0,0,-1,636,1723,0,0
-581,-699,0,0,0,0,0,0,0,0,0,-1,643,1723,0,0
-574,-699,0,0,0,0,0,0,0,0,0,-1,650,1723,0,0
-567,-699,0,0,0,0,0,0,0,0,0,-1,657,1723,0,0
-560,-699,0,0,0,0,0,0,0,0,0,-1,664,1723,0,0
-553,-699,0,0,0,0,0,0,0,0,0,-1,671,1723,0,0
-546,-699,0,0,0,0,0,0,0,0,0,-1,678,1723,0,0
-539,-699,0,0,0,0,0,0,0,0,0,-1,685,1723,0,0
-532,-699,0,0,0,0,0,0,0,0,0,-1,692,1723,0,0
-525,-699,0,0,0,0,0,0,0,0,0,-1,699,1723,0,0
-518,-699,0,0,0,0,0,0,0,0,0,-1,706,1723,0,0
-511,-699,0,0,0,0,0,0,0,0,0,-1,713,1723,0,0
-504,-699,0,0,0,0,0,0,0,0,0,-1,720,1723,0,0
-497,-699,0,0,0,0,0,0,0,0,0,-1,727,1723,0,0
-490,-699,0,0,0,0,0,0,0,0,0,-1,734,1723,0,0
-483,-699,0,0,0,0,0,0,0,0,0,-1,741,1723,0,0
-476,-699,0,0,0,0,0,0,0,0,0,-1,748,1723,0,0
-469,-699,0,0,0,0,0,0,0,0,0,-1,755,1723,0,0
-462,-699,0,0,0,0,0,0,0,0,0,-1,762,1723,0,0
-455,-699,0,0,0,0,0,0,0,0,0,-1,769,1723,0,0
-448,-699,0,0,0,0,0,0,0,0,0,-1,776,1723,0,0
-441,-699,0,0,0,0,0,0,0,0,0,-1,783,1723,0,0
-434,-699,0,0,0,0,0,0,0,0,0,-1,790,1723,0,0
-427,-699,0,0,0,0,0,0,0,0,0,-1,797,1723,0,0
-420,-699,0,0,0,0,0,0,0,0,0,-1,804,1723,0,0
-413,-699,0,0,0,0,0,0,0,0,0,-1,811,1723,0,0
-406,-699,0,0,0,0,0,0,0,0,0,-1,818,1723,0,0
-399,-699,0,0,0,0,0,0,0,0,0,-1,825,1723,0,0
-392,-699,0,0,0,0,0,0,0,0,0,-1,832,1723,0,0
-385,-699,0,0,0,0,0,0,0,0,0,-1,839,1723,0,0
-378,-699,0,0,0,0,0,0,0,0,0,-1,846,1723,0,0
-371,-699,0,0,0,0,0,0,0,0,0,-1,853,1723,0,0
-364,-699,0,0,0,0,0,0,0,0,0,-1,860,1723,0,0
-357,-699,0,0,0,0,0,0,0,0,0,-1,867,1723,0,0
-350,-699,0,0,0,0,0,0,0,0,0,-1,874,1723,0,0
-343,-699,0,0,0,0,0,0,0,0,0,-1,881,1723,0,0
-336,-699,0,0,0,0,0,0,0,0,0,-1,888,1723,0,0
-329,-699,0,0,0,0,0,0,0,0,0,-1,895,1723,0,0
-322,-699,0,0,0,0,0,0,0,0,0,-1,902,1723,0,0
-315,-699,4.27734,16.1066,0,0,0,0,0,0,0,-1,909,1723,4.27737,-16.1066
-308,-699,4.55981,14.3354,0,0,0,0,0,0,0,-1,916,1723,4.55981,-14.3355
-301,-699,4.72729,12.8752,0,0,0,0,0,0,0,-1,923,1723,4.72732,-12.8752
-294,-699,6.0799,10.2083,0,0,0,0,0,0,0,-1,930,1723,6.07988,-10.2082
-287,-699,4.49268,10.8807,0,0,0,0,0,0,0,-1,937,1723,4.49265,-10.8807
-280,-699,4.09491,12.0865,-0.0156927,-0.00661439,0.0448569,0.0339325,-0.0562395,0.835822,0.0525892,0.0460598,944,1723,4.09492,-12.0865
-273,-699,3.8446,13.3297,-0.00170099,-0.00158363,0.0338038,0.0321615,-0.0354462,0.786266,0.0390487,0.0465148,951,1723,3.84458,-13.3297
-266,-699,3.69946,14.5386,0,0,0,0,0,0,0,-1,958,1723,3.69944,-14.5386
-259,-699,5.67737,10.8545,0,0,0,0,0,0,0,-1,965,1723,5.67736,-10.8545
-252,-699,5.83777,10.5712,0,0,0,0,0,0,0,-1,972,1723,5.83777,-10.5712
-245,-699,4.50574,11.8698,0,0,0,0,0,0,0,-1,979,1723,4.50571,-11.8698
-238,-699,4.39435,12.136,0,0,0,0,0,0,0,-1,986,1723,4.39436,-12.136
-231,-699,4.31689,12.416,0,0,0,0,0,0,0,-1,993,1723,4.3169,-12.416
-224,-699,4.36206,12.5922,0,0,0,0,0,0,0,-1,1000,1723,4.36204,-12.5922
-217,-699,4.29358,12.7194,0.0254319,0.010103,-0.00841847,0.0291523,0.00638265,-0.416125,0.0176953,0.0258717,1007,1723,4.29359,-12.7194
-210,-699,4.32367,12.8398,0.0206053,0.00841507,-0.00720506,0.0239476,0.00507286,-0.434328,0.0145715,0.0179453,1014,1723,4.3237,-12.8398
-203,-699,4.33252,12.9763,0.0160765,0.00698352,-0.00570595,0.0188258,0.00423424,-0.449005,0.0114042,0.0203646,1021,1723,4.33251,-12.9763
-196,-699,4.32129,13.1018,0.0120935,0.00605695,-0.00395704,0.014052,0.00409846,-0.45959,0.00834435,0.0174148,1028,1723,4.3213,-13.1018
-189,-699,4.27002,13.2748,0.00881707,0.00498364,-0.00259559,0.0101269,0.00367377,-0.467364,0.00591974,0.00923511,1035,1723,4.26998,-13.2748
-182,-699,4.255,13.4241,0.00599489,0.00413938,-0.00151283,0.00684179,0.00329248,-0.510342,0.00395104,0.0116859,1042,1723,4.25504,-13.4241
-175,-699,4.26062,13.5914,0.00363357,0.0033096,-0.000466444,0.00396535,0.00297781,-0.618277,0.00238358,0.0138073,1049,1723,4.26064,-13.5914
-168,-699,4.26685,13.7242,0.00105016,0.00238161,0.000526129,0.00256441,0.000867359,1.23639,0.00150617,0.0152163,1056,1723,4.26681,-13.7242
-161,-699,4.2583,13.8378,9.94345e-05,0.00192157,0.00127334,0.00257621,-0.000555205,1.09592,0.00192935,0.0137137,1063,1723,4.25836,-13.8377
-154,-699,4.23865,13.9508,0.00065391,0.00120881,0.00136798,0.00232719,-0.000464468,0.88545,0.00172723,0.0132676,1070,1723,4.23866,-13.9508
-147,-699,4.22766,14.0491,0.0012035,0.000584909,0.00135504,0.00228409,-0.000495685,0.673193,0.00171204,0.0138515,1077,1723,4.22771,-14.0491
-140,-699,4.21631,14.1539,0.00169654,-6.68302e-05,0.00129862,0.0023845,-0.000754789,0.487173,0.00189213,0.0101967,1084,1723,4.21627,-14.154
-133,-699,4.22461,14.2828,0.00214568,-0.000731349,0.00121648,0.00259108,-0.00117675,0.350982,0.00222586,0.00950391,1091,1723,4.22455,-14.2829
-126,-699,4.24121,14.3859,0.00252055,-0.00135292,0.00116757,0.00284526,-0.00167764,0.271258,0.00264014,0.0113692,1098,1723,4.24118,-14.3858
-119,-699,4.25964,14.4882,0.00275736,-0.00175564,0.00115345,0.00303507,-0.00203335,0.236271,0.00294524,0.0159227,1105,1723,4.25959,-14.4882
-112,-699,4.2356,14.5879,0.00286676,-0.00213814,0.00107005,0.00308593,-0.00235732,0.202036,0.00315203,0.0114641,1112,1723,4.23556,-14.5879
-105,-699,4.24512,14.6906,0.00283805,-0.00243425,0.000981773,0.00301494,-0.00261114,0.178256,0.003251,0.0125868,1119,1723,4.24507,-14.6906
-98,-699,4.28015,14.7827,0.00268222,-0.00257153,0.000927533,0.00284116,-0.00273047,0.169714,0.003217,0.0139083,1126,1723,4.28018,-14.7827
-91,-699,4.28027,14.8368,0.00249913,-0.00245019,0.000878718,0.00265051,-0.00260157,0.1706,0.00303233,0.0189206,1133,1723,4.28032,-14.8368
-84,-699,4.25964,14.9023,0.00235734,-0.0021722,0.000836635,0.00250693,-0.00232179,0.176932,0.00278854,0.0231794,1140,1723,4.25968,-14.9023
-77,-699,4.27454,15.0105,0.0023455,-0.00172895,0.000651806,0.00244724,-0.00183068,0.154828,0.00247839,0.0157921,1147,1723,4.27449,-15.0105
-70,-699,4.2771,15.1152,0.00245032,-0.00157402,0.000448665,0.00249974,-0.00162343,0.109693,0.00239837,0.0169447,1154,1723,4.27704,-15.1152
-63,-699,4.27966,15.2108,0.0034052,-0.00232173,0.000377957,0.00343004,-0.00234657,0.0656171,0.00335463,0.0144122,1161,1723,4.27965,-15.2108
-56,-699,4.27563,15.2543,0.00486853,-0.00399388,0.00106161,0.00499393,-0.00411927,0.117572,0.00526958,0.0106604,1168,1723,4.27559,-15.2542
-49,-699,4.27466,15.3445,0.00480374,-0.00534005,0.0017359,0.00509258,-0.00562889,0.164881,0.00619262,0.023014,1175,1723,4.27467,-15.3445
-42,-699,4.27307,15.4674,0.00388527,-0.0059171,0.00183164,0.00421634,-0.00624817,0.178822,0.00607953,0.0252532,1182,1723,4.27306,-15.4674
-35,-699,4.26477,15.5289,0.00437173,-0.00643864,0.00186524,0.00468451,-0.00675142,0.166144,0.00663839,0.023276,1189,1723,4.26479,-15.5289
-28,-699,4.34875,15.5453,0.00441123,-0.00668029,0.001913,0.0047319,-0.00700097,0.166084,0.00681607,0.017944,1196,1723,4.34873,-15.5453
-21,-699,4.34766,15.5538,0.0042081,-0.00694564,0.00176617,0.00448109,-0.00721863,0.153352,0.00681619,0.0122148,1203,1723,4.34767,-15.5538
-14,-699,4.33984,15.5992,0.00426858,-0.00733159,0.00213692,0.00464971,-0.00771272,0.176499,0.00721011,0.0107663,1210,1723,4.33989,-15.5993
-7,-699,4.36255,15.658,0.00514376,-0.00725939,0.00209361,0.00548762,-0.00760325,0.16279,0.00759085,0.0083533,1217,1723,4.3625,-15.6579
0,-699,4.38428,15.6987,0.0067009,-0.00408109,0.000586664,0.00673272,-0.00411292,0.0541982,0.00632234,0.00979798,1224,1723,4.38427,-15.6987
7,-699,4.39478,15.7357,0.00844116,-0.00167645,-0.000919776,0.00852409,-0.00175938,-0.0899262,0.00635095,0.015693,1231,1723,4.39477,-15.7358
14,-699,4.42358,15.7688,0.0104263,0.000805943,-0.00261893,0.011093,0.000139205,-0.249289,0.00734939,0.0174239,1238,1723,4.42355,-15.7688
21,-699,4.45728,15.7798,0.0129348,0.00471998,-0.00548671,0.0156812,0.00197357,-0.464094,0.0098623,0.0162592,1245,1723,4.45725,-15.7798
28,-699,4.45886,15.8108,0.0150474,0.00882839,-0.00629962,0.0189631,0.00491263,-0.556141,0.0113642,0.0152087,1252,1723,4.4589,-15.8108
35,-699,4.48633,15.858,0.0170226,0.0134271,-0.00662035,0.022085,0.00836477,-0.652822,0.0128751,0.0127491,1259,1723,4.48636,-15.858
42,-699,4.50745,15.8837,0.0184956,0.0196833,-0.00490471,0.02403,0.014149,-0.845644,0.0139465,0.0124218,1266,1723,4.50749,-15.8836
49,-699,4.5238,15.9063,0.0196604,0.0240288,-0.00439303,0.0267506,0.0169385,-1.0161,0.0156261,0.0150085,1273,1723,4.52374,-15.9062
56,-699,4.54089,15.9347,0.0198274,0.0276638,-0.00255078,0.028421,0.0190702,-1.28226,0.0167256,0.0154447,1280,1723,4.54086,-15.9347
63,-699,4.56555,15.9249,0.0193726,0.0303727,0.000201289,0.0303764,0.019369,1.55251,0.0177579,0.0126616,1287,1723,4.56552,-15.9249
70,-699,4.5813,15.9308,0.0170277,0.0317154,0.00343517,0.0324791,0.016264,1.35203,0.0187518,0.0102599,1294,1723,4.58134,-15.9308
77,-699,4.56921,15.9274,0.0145875,0.0322434,0.00647735,0.0343648,0.0124661,1.25429,0.0200881,0.0104295,1301,1723,4.56927,-15.9274
84,-699,4.5675,15.913,0.0119529,0.0315827,0.00937163,0.0353384,0.00819724,1.18965,0.0213575,0.0137666,1308,1723,4.56744,-15.913
91,-699,4.59314,15.9246,0.00897107,0.0301437,0.0110497,0.0348599,0.00425492,1.16739,0.0219595,0.0133926,1315,1723,4.59312,-15.9245
98,-699,4.62012,15.9497,0.00566512,0.0281148,0.0123305,0.0335645,0.000215461,1.15464,0.0223048,0.0107989,1322,1723,4.62018,-15.9497
105,-699,4.62292,15.9614,0.00293151,0.0232788,0.0135371,0.030039,-0.00382868,1.10764,0.0214166,0.0145596,1329,1723,4.62296,-15.9615
112,-699,4.60571,15.9585,0.00156927,0.0208681,0.0127258,0.0271892,-0.00475184,1.10978,0.0199001,0.0218887,1336,1723,4.6057,-15.9585
119,-699,4.61609,15.9199,0.00093796,0.0184564,0.0108455,0.0236381,-0.00424376,1.12509,0.0173472,0.0161786,1343,1723,4.61611,-15.92
126,-699,4.65247,15.8967,0.000394181,0.0149553,0.00949257,0.0196379,-0.00428834,1.11254,0.0147309,0.0158795,1350,1723,4.65247,-15.8967
133,-699,4.69739,15.8739,0.000253973,0.0119598,0.00640916,0.0147864,-0.00257263,1.15543,0.0108176,0.014657,1357,1723,4.69738,-15.8739
140,-699,4.7063,15.8499,8.66066e-05,0.00886814,0.00407865,0.0104702,-0.00151547,1.19652,0.00753627,0.0166881,1364,1723,4.70633,-15.8499
147,-699,4.73242,15.8438,-6.45614e-05,0.00459431,0.00100349,0.00480126,-0.000271513,1.36742,0.00329508,0.0139652,1371,1723,4.73238,-15.8437
154,-699,4.72815,15.8018,-3.2339e-05,0.00428783,0.00123615,0.00461652,-0.000361034,1.31091,0.00320481,0.013977,1378,1723,4.72813,-15.8018
161,-699,4.73279,15.7544,0.000813731,0.00345815,0.000898848,0.00373474,0.000537139,1.27227,0.0023315,0.0110074,1385,1723,4.73277,-15.7544
168,-699,4.77002,15.7256,0.00166687,0.00247113,0.000776762,0.00294368,0.00119432,1.02425,0.00170957,0.0124237,1392,1723,4.76997,-15.7256
175,-699,4.7854,15.6937,0.00186793,0.00157513,0.000888071,0.00262159,0.000821472,0.703705,0.00154833,0.0133747,1399,1723,4.78541,-15.6938
182,-699,4.7915,15.6506,0.00161375,0.000991362,0.0011798,0.00252271,8.24096e-05,0.656449,0.00165502,0.0142091,1406,1723,4.79154,-15.6506
189,-699,4.77954,15.5768,0.00102896,0.00149919,0.000894418,0.00218888,0.000339273,0.913925,0.00136034,0.0166529,1413,1723,4.7795,-15.5768
196,-699,4.77686,15.493,0.000709415,0.00171876,0.000505171,0.00192816,0.00050002,1.17785,0.00115541,0.0162398,1420,1723,4.77683,-15.493
203,-699,4.76978,15.4602,0.000793331,0.0016373,0.000210055,0.00168669,0.000743941,1.33986,0.000976066,0.0134426,1427,1723,4.76977,-15.4602
210,-699,4.79041,15.4052,0.000847582,0.00145443,7.4152e-05,0.00146336,0.000838652,1.45095,0.000847876,0.0133422,1434,1723,4.79039,-15.4052
217,-699,4.80066,15.3525,0.000901963,0.00107276,-0.000167039,0.00117497,0.00079976,-1.02171,0.000692972,0.0145466,1441,1723,4.80071,-15.3526
224,-699,4.80005,15.2902,0.000888223,0.000501986,-0.000133176,0.000929691,0.000460518,-0.301859,0.000536765,0.0161684,1448,1723,4.80006,-15.2901
231,-699,4.81897,15.2133,0.00102802,-8.34991e-05,-6.41795e-05,0.00103171,-8.71926e-05,-0.0574858,0.000718637,0.0119174,1455,1723,4.819,-15.2132
238,-699,4.80676,15.1271,0.000950751,-0.000552375,9.5634e-05,0.000956811,-0.000558435,0.0632833,0.000884849,0.0105617,1462,1723,4.80679,-15.1271
245,-699,4.8197,15.0355,0.000475705,-0.00101486,0.000235052,0.000511893,-0.00105105,0.152756,0.000920086,0.0117663,1469,1723,4.81972,-15.0355
252,-699,4.81909,14.9567,-0.000586835,-0.00143879,0.000282176,-0.000501852,-0.00152377,0.292529,0.000896665,0.0101312,1476,1723,4.81905,-14.9567
259,-699,4.80591,14.8956,-0.00218438,-0.00181897,0.00031201,-0.00164011,-0.00236325,1.05027,0.00139824,0.0106605,1483,1723,4.80586,-14.8957
266,-699,4.79639,14.8083,-0.00415832,-0.00203025,0.000343687,-0.00197612,-0.00421245,1.41458,0.0024336,0.0124255,1490,1723,4.79642,-14.8084
273,-699,4.8064,14.7151,-0.00648382,-0.00200162,0.000312628,-0.00197992,-0.00650552,1.50149,0.00385062,0.0116463,1497,1723,4.80645,-14.715
280,-699,4.83765,14.6213,-0.00890219,-0.00178835,0.000272243,-0.00177795,-0.00891259,1.5326,0.00544668,0.0127752,1504,1723,4.83764,-14.6213
287,-699,4.83728,14.5028,-0.0109644,-0.00154755,0.000237731,-0.00154156,-0.0109704,1.54557,0.00685772,0.0111809,1511,1723,4.8373,-14.5028
294,-699,4.83447,14.3937,-0.0125972,-0.00123438,0.000204014,-0.00123072,-0.0126009,1.55285,0.00802187,0.0104552,1518,1723,4.83445,-14.3936
301,-699,4.82776,14.3148,-0.0135971,-0.00087017,0.000210826,-0.000866679,-0.0136006,1.55424,0.00879239,0.0117317,1525,1723,4.82781,-14.3148
308,-699,4.82971,14.2423,-0.0133778,-0.000227732,0.000957993,-0.000158309,-0.0134472,1.49845,0.00891253,0.0163701,1532,1723,4.82969,-14.2423
315,-699,4.87183,14.1246,-0.0121477,-0.00111089,0.00194771,-0.000777254,-0.0124813,1.40115,0.00807429,0.0183435,1539,1723,4.87187,-14.1247
322,-699,4.84045,13.9772,-0.00982453,-0.00237022,0.00289674,-0.00137691,-0.0108178,1.24045,0.00679955,0.0184261,1546,1723,4.84048,-13.9772
329,-699,4.78137,13.8207,-0.00685059,-0.0043759,0.00376149,-0.00165348,-0.00957302,0.944299,0.00590849,0.0143373,1553,1723,4.78139,-13.8206
336,-699,4.76782,13.6857,-0.00329218,-0.00658528,0.00491187,0.00024178,-0.0101192,0.623675,0.00682817,0.0124348,1560,1723,4.76785,-13.6856
343,-699,4.80701,13.5823,0.000673136,-0.00893996,0.00599012,0.00354672,-0.0118135,0.447293,0.00928651,0.0165137,1567,1723,4.807,-13.5823
350,-699,4.8302,13.4939,0.00602363,-0.0123099,0.00727887,0.00856206,-0.0148483,0.335551,0.0136775,0.0259368,1574,1723,4.83026,-13.4939
357,-699,4.81104,13.5179,0.0113373,-0.0155296,0.00825632,0.0136717,-0.017864,0.275547,0.0182606,0.0339881,1581,1723,4.81106,-13.518
364,-699,4.85535,13.567,0.0149259,-0.0196915,0.00846131,0.0168833,-0.021649,0.227343,0.0223033,0.0370474,1588,1723,4.8554,-13.5671
371,-699,5.04492,13.7576,0.0178075,-0.0239785,0.00804204,0.0193018,-0.0254728,0.183718,0.0259324,0.0439574,1595,1723,5.04495,-13.7575
378,-699,5.35913,13.6687,0.0205952,-0.0271176,0.00703933,0.0216121,-0.0281345,0.143464,0.0288034,0.0475381,1602,1723,5.35908,-13.6686
385,-699,5.77527,13.5045,0,0,0,0,0,0,0,-1,1609,1723,5.7753,-13.5045
392,-699,4.98376,12.5409,0,0,0,0,0,0,0,-1,1616,1723,4.98372,-12.5409
399,-699,3.91516,9.81726,0,0,0,0,0,0,0,-1,1623,1723,3.9152,-9.81721
406,-699,5.50757,21.6672,0,0,0,0,0,0,0,-1,1630,1723,5.50755,-21.6672
413,-699,4.92773,3.5918,0,0,0,0,0,0,0,-1,1637,1723,4.92777,-3.59182
420,-699,2.15076,7.65527,0,0,0,0,0,0,0,-1,1644,1723,2.15079,-7.65522
427,-699,3.36328,8.2428,0,0,0,0,0,0,0,-1,1651,1723,3.36332,-8.24283
434,-699,4.66455,8.90222,0,0,0,0,0,0,0,-1,1658,1723,4.66456,-8.90223
441,-699,0,0,0,0,0,0,0,0,0,-1,1665,1723,0,0
448,-699,0,0,0,0,0,0,0,0,0,-1,1672,1723,0,0
455,-699,0,0,0,0,0,0,0,0,0,-1,1679,1723,0,0
462,-699,0,0,0,0,0,0,0,0,0,-1,1686,1723,0,0
469,-699,0,0,0,0,0,0,0,0,0,-1,1693,1723,0,0
476,-699,0,0,0,0,0,0,0,0,0,-1,1700,1723,0,0
483,-699,0,0,0,0,0,0,0,0,0,-1,1707,1723,0,0
490,-699,0,0,0,0,0,0,0,0,0,-1,1714,1723,0,0
497,-699,0,0,0,0,0,0,0,0,0,-1,1721,1723,0,0
504,-699,0,0,0,0,0,0,0,0,0,-1,1728,1723,0,0
511,-699,0,0,0,0,0,0,0,0,0,-1,1735,1723,0,0
518,-699,0,0,0,0,0,0,0,0,0,-1,1742,1723,0,0
525,-699,0,0,0,0,0,0,0,0,0,-1,1749,1723,0,0
532,-699,0,0,0,0,0,0,0,0,0,-1,1756,1723,0,0
539,-699,0,0,0,0,0,0,0,0,0,-1,1763,1723,0,0
546,-699,0,0,0,0,0,0,0,0,0,-1,1770,1723,0,0
553,-699,0,0,0,0,0,0,0,0,0,-1,1777,1723,0,0
560,-699,0,0,0,0,0,0,0,0,0,-1,1784,1723,0,0
567,-699,0,0,0,0,0,0,0,0,0,-1,1791,1723,0,0
574,-699,0,0,0,0,0,0,0,0,0,-1,1798,1723,0,0
581,-699,0,0,0,0,0,0,0,0,0,-1,1805,1723,0,0
588,-699,0,0,0,0,0,0,0,0,0,-1,1812,1723,0,0
595,-699,0,0,0,0,0,0,0,0,0,-1,1819,1723,0,0
602,-699,0,0,0,0,0,0,0,0,0,-1,1826,1723,0,0
609,-699,0,0,0,0,0,0,0,0,0,-1,1833,1723,0,0
616,-699,0,0,0,0,0,0,0,0,0,-1,1840,1723,0,0
623,-699,0,0,0,0,0,0,0,0,0,-1,1847,1723,0,0
630,-699,0,0,0,0,0,0,0,0,0,-1,1854,1723,0,0
637,-699,0,0,0,0,0,0,0,0,0,-1,1861,1723,0,0
644,-699,0,0,0,0,0,0,0,0,0,-1,1868,1723,0,0
651,-699,0,0,0,0,0,0,0,0,0,-1,1875,1723,0,0
658,-699,0,0,0,0,0,0,0,0,0,-1,1882,1723,0,0
665,-699,0,0,0,0,0,0,0,0,0,-1,1889,1723,0,0
672,-699,0,0,0,0,0,0,0,0,0,-1,1896,1723,0,0
679,-699,0,0,0,0,0,0,0,0,0,-1,1903,1723,0,0
686,-699,0,0,0,0,0,0,0,0,0,-1,1910,1723,0,0
693,-699,0,0,0,0,0,0,0,0,0,-1,1917,1723,0,0
700,-699,0,0,0,0,0,0,0,0,0,-1,1924,1723,0,0
707,-699,0,0,0,0,0,0,0,0,0,-1,1931,1723,0,0
714,-699,0,0,0,0,0,0,0,0,0,-1,1938,1723,0,0
721,-699,0,0,0,0,0,0,0,0,0,-1,1945,1723,0,0
728,-699,0,0,0,0,0,0,0,0,0,-1,1952,1723,0,0
735,-699,0,0,0,0,0,0,0,0,0,-1,1959,1723,0,0
742,-699,0,0,0,0,0,0,0,0,0,-1,1966,1723,0,0
749,-699,0,0,0,0,0,0,0,0,0,-1,1973,1723,0,0
756,-699,0,0,0,0,0,0,0,0,0,-1,1980,1723,0,0
763,-699,0,0,0,0,0,0,0,0,0,-1,1987,1723,0,0
770,-699,0,0,0,0,0,0,0,0,0,-1,1994,1723,0,0
777,-699,0,0,0,0,0,0,0,0,0,-1,2001,1723,0,0
784,-699,0,0,0,0,0,0,0,0,0,-1,2008,1723,0,0
791,-699,0,0,0,0,0,0,0,0,0,-1,2015,1723,0,0
798,-699,0,0,0,0,0,0,0,0,0,-1,2022,1723,0,0
805,-699,0,0,0,0,0,0,0,0,0,-1,2029,1723,0,0
812,-699,0,0,0,0,0,0,0,0,0,-1,2036,1723,0,0
-700,-706,0,0,0,0,0,0,0,0,0,-1,524,1730,0,0
-693,-706,0,0,0,0,0,0,0,0,0,-1,531,1730,0,0
-686,-706,0,0,0,0,0,0,0,0,0,-1,538,1730,0,0
-679,-706,0,0,0,0,0,0,0,0,0,-1,545,1730,0,0
-672,-706,0,0,0,0,0,0,0,0,0,-1,552,1730,0,0
-665,-706,0,0,0,0,0,0,0,0,0,-1,559,1730,0,0
-658,-706,0,0,0,0,0,0,0,0,0,-1,566,1730,0,0
-651,-706,0,0,0,0,0,0,0,0,0,-1,573,1730,0,0
-644,-706,0,0,0,0,0,0,0,0,0,-1,580,1730,0,0
-637,-706,0,0,0,0,0,0,0,0,0,-1,587,1730,0,0
-630,-706,0,0,0,0,0,0,0,0,0,-1,594,1730,0,0
-623,-706,0,0,0,0,0,0,0,0,0,-1,601,1730,0,0
-616,-706,0,0,0,0,0,0,0,0,0,-1,608,1730,0,0
-609,-706,0,0,0,0,0,0,0,0,0,-1,615,1730,0,0
-602,-706,0,0,0,0,0,0,0,0,0,-1,622,1730,0,0
-595,-706,0,0,0,0,0,0,0,0,0,-1,629,1730,0,0
-588,-706,0,0,0,0,0,0,0,0,0,-1,636,1730,0,0
-581,-706,0,0,0,0,0,0,0,0,0,-1,643,1730,0,0
-574,-706,0,0,0,0,0,0,0,0,0,-1,650,1730,0,0
-567,-706,0,0,0,0,0,0,0,0,0,-1,657,1730,0,0
-560,-706,0,0,0,0,0,0,0,0,0,-1,664,1730,0,0
-553,-706,0,0,0,0,0,0,0,0,0,-1,671,1730,0,0
-546,-706,0,0,0,0,0,0,0,0,0,-1,678,1730,0,0
-539,-706,0,0,0,0,0,0,0,0,0,-1,685,1730,0,0
-532,-706,0,0,0,0,0,0,0,0,0,-1,692,1730,0,0
-525,-706,0,0,0,0,0,0,0,0,0,-1,699,1730,0,0
-518,-706,0,0,0,0,0,0,0,0,0,-1,706,1730,0,0
-511,-706,0,0,0,0,0,0,0,0,0,-1,713,1730,0,0
-504,-706,0,0,0,0,0,0,0,0,0,-1,720,1730,0,0
-497,-706,0,0,0,0,0,0,0,0,0,-1,727,1730,0,0
-490,-706,0,0,0,0,0,0,0,0,0,-1,734,1730,0,0
-483,-706,0,0,0,0,0,0,0,0,0,-1,741,1730,0,0
-476,-706,0,0,0,0,0,0,0,0,0,-1,748,1730,0,0
-469,-706,0,0,0,0,0,0,0,0,0,-1,755,1730,0,0
-462,-706,0,0,0,0,0,0,0,0,0,-1,762,1730,0,0
-455,-706,0,0,0,0,0,0,0,0,0,-1,769,1730,0,0
-448,-706,0,0,0,0,0,0,0,0,0,-1,776,1730,0,0
-441,-706,0,0,0,0,0,0,0,0,0,-1,783,1730,0,0
-434,-706,0,0,0,0,0,0,0,0,0,-1,790,1730,0,0
-427,-706,0,0,0,0,0,0,0,0,0,-1,797,1730,0,0
-420,-706,0,0,0,0,0,0,0,0,0,-1,804,1730,0,0
-413,-706,0,0,0,0,0,0,0,0,0,-1,811,1730,0,0
-406,-706,0,0,0,0,0,0,0,0,0,-1,818,1730,0,0
-399,-706,0,0,0,0,0,0,0,0,0,-1,825,1730,0,0
-392,-706,0,0,0,0,0,0,0,0,0,-1,832,1730,0,0
-385,-706,0,0,0,0,0,0,0,0,0,-1,839,1730,0,0
-378,-706,0,0,0,0,0,0,0,0,0,-1,846,1730,0,0
-371,-706,0,0,0,0,0,0,0,0,0,-1,853,1730,0,0
-364,-706,0,0,0,0,0,0,0,0,0,-1,860,1730,0,0
-357,-706,0,0,0,0,0,0,0,0,0,-1,867,1730,0,0
-350,-706,0,0,0,0,0,0,0,0,0,-1,874,1730,0,0
-343,-706,0,0,0,0,0,0,0,0,0,-1,881,1730,0,0
-336,-706,0,0,0,0,0,0,0,0,0,-1,888,1730,0,0
-329,-706,0,0,0,0,0,0,0,0,0,-1,895,1730,0,0
-322,-706,0,0,0,0,0,0,0,0,0,-1,902,1730,0,0
-315,-706,0,0,0,0,0,0,0,0,0,-1,909,1730,0,0
-308,-706,5.08191,14.6245,0,0,0,0,0,0,0,-1,916,1730,5.08188,-14.6245
-301,-706,5.28516,13.4028,0,0,0,0,0,0,0,-1,923,1730,5.28516,-13.4029
-294,-706,7.08746,11.6641,0,0,0,0,0,0,0,-1,930,1730,7.08747,-11.664
-287,-706,5.89063,11.7506,0,0,0,0,0,0,0,-1,937,1730,5.89062,-11.7507
-280,-706,4.76031,12.1731,-0.0238739,-0.00995895,0.0567168,0.0402255,-0.0740584,0.846429,0.0669387,0.0488837,944,1730,4.76029,-12.1731
-273,-706,4.0885,13.5424,-0.000757904,-0.00260164,0.0405393,0.03887,-0.0422295,0.77403,0.0468362,0.0499034,951,1730,4.08853,-13.5424
-266,-706,3.96924,14.7784,0,0,0,0,0,0,0,-1,958,1730,3.96921,-14.7785
-259,-706,3.3598,9.72961,0,0,0,0,0,0,0,-1,965,1730,3.35979,-9.72962
-252,-706,3.05963,10.0499,0,0,0,0,0,0,0,-1,972,1730,3.05962,-10.05
-245,-706,3.63794,9.28613,0,0,0,0,0,0,0,-1,979,1730,3.63792,-9.28608
-238,-706,4.93787,12.7544,0,0,0,0,0,0,0,-1,986,1730,4.93787,-12.7544
-231,-706,4.55469,12.4562,0,0,0,0,0,0,0,-1,993,1730,4.5547,-12.4562
-224,-706,4.05103,13.0836,0.0425766,0.0134123,-0.0113955,0.0465011,0.00948782,-0.33167,0.028372,0.0438709,1000,1730,4.05104,-13.0836
-217,-706,4.43408,12.8046,0.0397014,0.0132634,-0.0130528,0.0450597,0.00790504,-0.389535,0.0277822,0.0429637,1007,1730,4.43411,-12.8046
-210,-706,4.57666,12.7655,0.0328625,0.0111797,-0.0111479,0.0375713,0.00647082,-0.399667,0.0231935,0.0406449,1014,1730,4.57667,-12.7655
-203,-706,4.50146,12.9541,0.0261673,0.009371,-0.00892657,0.0300253,0.00551303,-0.407945,0.0184557,0.0300935,1021,1730,4.50141,-12.9541
-196,-706,4.448,13.1233,0.0199936,0.0082614,-0.00634449,0.0227684,0.00548669,-0.412278,0.0137207,0.0213208,1028,1730,4.44805,-13.1233
-189,-706,4.40015,13.2876,0.014715,0.00692188,-0.00419439,0.0165435,0.0050934,-0.411095,0.0097836,0.0172321,1035,1730,4.4001,-13.2875
-182,-706,4.38989,13.4436,0.0101472,0.00591735,-0.00244571,0.0112656,0.00479894,-0.428903,0.00652789,0.0131094,1042,1730,4.38991,-13.4436
-175,-706,4.3822,13.5792,0.00629224,0.00493669,-0.000787269,0.0066533,0.00457563,-0.429998,0.00393049,0.0144656,1049,1730,4.38214,-13.5793
-168,-706,4.38525,13.7003,0.00192673,0.00377402,0.00083063,0.00409258,0.00160818,1.20458,0.00238083,0.0156895,1056,1730,4.38528,-13.7003
-161,-706,4.35242,13.8361,7.54514e-05,0.00326082,0.00209158,0.00429708,-0.000960807,1.1108,0.00323294,0.0129522,1063,1730,4.35237,-13.836
-154,-706,4.34729,13.9674,0.000746656,0.00246295,0.00217635,0.00394423,-0.000734621,0.973192,0.00290548,0.0124134,1070,1730,4.34731,-13.9674
-147,-706,4.34473,14.0548,0.00136595,0.00182904,0.00212942,0.00373946,-0.00054447,0.839554,0.00269288,0.0120171,1077,1730,4.34477,-14.0548
-140,-706,4.34338,14.1821,0.00191976,0.00113904,0.00202861,0.00359523,-0.000536424,0.690346,0.00259418,0.0112126,1084,1730,4.34338,-14.1822
-133,-706,4.34021,14.2826,0.00239851,0.00044802,0.00188238,0.00354328,-0.000696745,0.54639,0.00262543,0.00880047,1091,1730,4.34018,-14.2826
-126,-706,4.35693,14.3939,0.00276475,-0.000202779,0.00174832,0.00357406,-0.00101209,0.433535,0.00278212,0.0133236,1098,1730,4.35695,-14.3939
-119,-706,4.35779,14.4812,0.00296264,-0.000674779,0.00164199,0.00359421,-0.00130634,0.367189,0.00293031,0.0182985,1105,1730,4.35784,-14.4812
-112,-706,4.34009,14.5947,0.00302639,-0.0011174,0.00146919,0.00349443,-0.00158544,0.308404,0.0030011,0.0127011,1112,1730,4.34011,-14.5947
-105,-706,4.33252,14.7085,0.00291618,-0.00146568,0.00127801,0.00326168,-0.00181118,0.264031,0.00296846,0.00943835,1119,1730,4.33246,-14.7086
-98,-706,4.35974,14.7786,0.00265597,-0.00166806,0.00112882,0.00293292,-0.00194501,0.240591,0.00283546,0.0103284,1126,1730,4.35977,-14.7786
-91,-706,4.36511,14.8528,0.00234358,-0.00169624,0.000937049,0.00255034,-0.00190301,0.217179,0.00258018,0.01372,1133,1730,4.36511,-14.8527
-84,-706,4.34192,14.9342,0.00205467,-0.00142166,0.000799154,0.00222958,-0.00159657,0.215474,0.00221908,0.0169052,1140,1730,4.34194,-14.9343
-77,-706,4.36169,15.0363,0.00189495,-0.00111636,0.000632773,0.00202251,-0.00124393,0.198926,0.00190365,0.0161137,1147,1730,4.36165,-15.0362
-70,-706,4.34741,15.15,0.0018382,-0.000973855,0.00045258,0.00190924,-0.0010449,0.155706,0.00172974,0.0185007,1154,1730,4.34744,-15.15
-63,-706,4.32666,15.2147,0.00224181,-0.0013048,0.000308501,0.00226845,-0.00133143,0.0861228,0.00210173,0.0137991,1161,1730,4.32668,-15.2147
-56,-706,4.35071,15.2675,0.00326022,-0.00205073,0.000329824,0.00328062,-0.00207113,0.0617863,0.00311603,0.0129914,1168,1730,4.35073,-15.2674
-49,-706,4.35669,15.3463,0.00333858,-0.00279146,0.000640737,0.00340484,-0.00285771,0.10304,0.00362028,0.0138472,1175,1730,4.35666,-15.3464
-42,-706,4.3634,15.4221,0.00280617,-0.00336815,0.000749011,0.00289573,-0.00345772,0.119011,0.00367294,0.0180287,1182,1730,4.36345,-15.4221
-35,-706,4.3772,15.4916,0.00315209,-0.00397528,0.000823041,0.0032459,-0.00406908,0.113486,0.00423221,0.0177743,1189,1730,4.37725,-15.4916
-28,-706,4.39832,15.5413,0.00319555,-0.00442046,0.000897162,0.00329981,-0.00452472,0.11569,0.00453591,0.011022,1196,1730,4.39831,-15.5413
-21,-706,4.39966,15.5844,0.00304151,-0.00483929,0.000875801,0.00313766,-0.00493544,0.109353,0.00469937,0.0107811,1203,1730,4.39968,-15.5844
-14,-706,4.40283,15.623,0.00299521,-0.00543615,0.00117822,0.00315676,-0.0055977,0.136265,0.00511946,0.0106147,1210,1730,4.40289,-15.623
-7,-706,4.41772,15.6746,0.00342776,-0.00565205,0.00130753,0.0036123,-0.00583659,0.14021,0.00550547,0.00897316,1217,1730,4.41773,-15.6746
0,-706,4.43518,15.7184,0.00397791,-0.00420065,0.000713918,0.00403976,-0.0042625,0.0864204,0.00479389,0.0118772,1224,1730,4.43523,-15.7184
7,-706,4.46362,15.7433,0.0044781,-0.0032447,0.000233764,0.00448517,-0.00325177,0.0302324,0.00448581,0.0138713,1231,1730,4.46364,-15.7432
14,-706,4.4613,15.7778,0.00522201,-0.00236987,-0.00038456,0.00524144,-0.0023893,-0.050482,0.00450702,0.0143099,1238,1730,4.46133,-15.7779
21,-706,4.45581,15.8044,0.00628748,-0.000399025,-0.00182407,0.00675271,-0.000864259,-0.249728,0.00481582,0.0117629,1245,1730,4.45579,-15.8044
28,-706,4.46985,15.8364,0.00716264,0.0018308,-0.00182181,0.00772567,0.00126777,-0.299739,0.00478418,0.0117835,1252,1730,4.46987,-15.8365
35,-706,4.48425,15.8722,0.00805869,0.00454494,-0.00153511,0.00863487,0.00396875,-0.359067,0.00499076,0.0136606,1259,1730,4.4842,-15.8721
42,-706,4.50159,15.897,0.00868273,0.00860603,0.000168885,0.00881756,0.00847119,0.673754,0.00576639,0.0128801,1266,1730,4.50157,-15.897
49,-706,4.51355,15.9236,0.00906911,0.0112018,0.00101097,0.0116048,0.00866604,1.19142,0.00696673,0.0147389,1273,1730,4.51361,-15.9236
56,-706,4.54468,15.9436,0.00918175,0.0136707,0.00244184,0.0147429,0.00810956,1.15705,0.00852603,0.0134282,1280,1730,4.54465,-15.9436
63,-706,4.55249,15.9443,0.00904484,0.0155579,0.00434344,0.01773,0.00687269,1.10707,0.0103222,0.0113861,1287,1730,4.55249,-15.9444
70,-706,4.54944,15.9401,0.00777283,0.0167479,0.00626637,0.0199679,0.00455289,1.09613,0.0120837,0.0120381,1294,1730,4.54939,-15.9401
77,-706,4.54553,15.9438,0.00658196,0.0174689,0.0078542,0.0215816,0.00246929,1.08843,0.0136393,0.0108127,1301,1730,4.54558,-15.9439
84,-706,4.54907,15.9496,0.00539203,0.0174734,0.00919848,0.0224374,0.000428101,1.07594,0.0148176,0.00920204,1308,1730,4.54908,-15.9495
91,-706,4.56689,15.97,0.00402235,0.01697,0.00969715,0.0221557,-0.00116338,1.07972,0.0151731,0.0103704,1315,1730,4.5669,-15.97
98,-706,4.58899,15.989,0.00243476,0.016009,0.0098623,0.021194,-0.00275016,1.08678,0.0151296,0.0132321,1322,1730,4.58896,-15.989
105,-706,4.5946,15.983,0.0013756,0.0136388,0.00980961,0.0190755,-0.00406108,1.06472,0.0142647,0.0151838,1329,1730,4.59457,-15.983
112,-706,4.58008,15.964,0.000998193,0.0124089,0.00867871,0.0170896,-0.00368256,1.07618,0.0127984,0.0158625,1336,1730,4.58013,-15.964
119,-706,4.61523,15.9713,0.000713336,0.0110796,0.00716343,0.0147384,-0.00294546,1.09858,0.0109404,0.0132107,1343,1730,4.61527,-15.9713
126,-706,4.64539,15.9421,0.000454239,0.00885032,0.00611106,0.0120664,-0.0027618,1.08636,0.00910555,0.0137881,1350,1730,4.64541,-15.9422
133,-706,4.66541,15.8893,0.000422693,0.00694259,0.00403085,0.00886675,-0.00150147,1.12542,0.00646999,0.0121303,1357,1730,4.66535,-15.8892
140,-706,4.67102,15.8448,0.000367912,0.00503117,0.00251108,0.0061262,-0.000727126,1.15958,0.00434683,0.0125367,1364,1730,4.67103,-15.8449
147,-706,4.71851,15.8066,0.000356147,0.00252702,0.000672002,0.00271821,0.000164963,1.29362,0.00175973,0.0226177,1371,1730,4.71844,-15.8067
154,-706,4.69897,15.7896,0.000352748,0.0023763,0.000815858,0.00266426,6.47876e-05,1.23149,0.00175498,0.0205464,1378,1730,4.69903,-15.7895
161,-706,4.68372,15.7489,0.000804019,0.00196788,0.000607251,0.00222702,0.000544881,1.16745,0.00134049,0.0111758,1385,1730,4.68371,-15.7488
168,-706,4.69873,15.72,0.0012692,0.00148047,0.000553017,0.00193785,0.000811822,0.879771,0.00112371,0.0113815,1392,1730,4.69878,-15.72
175,-706,4.71558,15.7001,0.00133681,0.000982859,0.000603622,0.00178887,0.000530804,0.6428,0.00106087,0.010999,1399,1730,4.71563,-15.7
182,-706,4.703,15.64,0.00114172,0.000613419,0.000747423,0.00167029,8.48412e-05,0.615542,0.00108635,0.0115077,1406,1730,4.70302,-15.6401
189,-706,4.69092,15.5597,0.000789065,0.000901583,0.000524702,0.00137303,0.000317614,0.838805,0.000829994,0.014276,1413,1730,4.69096,-15.5597
196,-706,4.6958,15.4966,0.00060866,0.000985111,0.000230482,0.00109446,0.00049931,1.12781,0.000632694,0.0123006,1420,1730,4.69581,-15.4966
203,-706,4.70435,15.4465,0.000675231,0.000845128,1.62923e-05,0.000846676,0.000673683,1.47605,0.000516535,0.0134966,1427,1730,4.70433,-15.4466
210,-706,4.71387,15.3728,0.000667049,0.00060532,-9.14534e-05,0.000732706,0.000539664,-0.622657,0.000438523,0.0131163,1434,1730,4.71388,-15.3728
217,-706,4.71094,15.3248,0.000518379,0.000191975,-0.000253116,0.000656346,5.40082e-05,-0.499052,0.000420718,0.0143924,1441,1730,4.71091,-15.3248
224,-706,4.70593,15.2869,0.000223766,-0.000329332,-0.000251154,0.000320791,-0.000426357,-0.368656,0.000432799,0.0193824,1448,1730,4.70589,-15.2868
231,-706,4.72375,15.1952,-0.000331497,-0.000848495,-0.000184491,-0.000272413,-0.000907579,-0.309932,0.000537762,0.013745,1455,1730,4.72381,-15.1952
238,-706,4.72253,15.1125,-0.00124777,-0.00132573,-1.69448e-05,-0.00124425,-0.00132925,-0.205031,0.000859236,0.00896985,1462,1730,4.72259,-15.1125
245,-706,4.74878,15.0283,-0.00308298,-0.00174676,9.73421e-05,-0.00173971,-0.00309003,1.49846,0.00178875,0.0110315,1469,1730,4.74878,-15.0283
252,-706,4.75159,14.9531,-0.00575987,-0.00242905,0.000158083,-0.00242157,-0.00576736,1.52348,0.00334401,0.0108928,1476,1730,4.75157,-14.9532
259,-706,4.73718,14.8607,-0.00880983,-0.0030164,0.000283503,-0.00300256,-0.00882367,1.52202,0.00518026,0.0120835,1483,1730,4.73713,-14.8607
266,-706,4.72107,14.7977,-0.0121029,-0.00330882,0.000406492,-0.00329007,-0.0121216,1.5247,0.00723808,0.0123912,1490,1730,4.72105,-14.7978
273,-706,4.7323,14.7234,-0.0156924,-0.0035429,0.000505156,-0.00352194,-0.0157134,1.52931,0.00952128,0.0124242,1497,1730,4.73227,-14.7234
280,-706,4.73254,14.6187,-0.0193016,-0.00363916,0.000613364,-0.00361518,-0.0193255,1.53171,0.0118637,0.0107739,1504,1730,4.73251,-14.6187
287,-706,4.71912,14.4918,-0.0223468,-0.0037432,0.000721437,-0.00371527,-0.0223747,1.53209,0.0138452,0.0110255,1511,1730,4.71906,-14.4918
294,-706,4.73499,14.4006,-0.0247846,-0.00378992,0.000823023,-0.00375771,-0.0248168,1.53167,0.0154451,0.0101503,1518,1730,4.73498,-14.4006
301,-706,4.72693,14.2954,-0.0263258,-0.00372777,0.000963864,-0.00368673,-0.0263669,1.52825,0.016487,0.00941785,1525,1730,4.72687,-14.2954
308,-706,4.71472,14.1808,-0.0260999,-0.00322276,0.00198347,-0.00305207,-0.0262706,1.48495,0.0165902,0.0111251,1532,1730,4.71473,-14.1807
315,-706,4.75159,14.0806,-0.0244251,-0.00450531,0.00329046,-0.00397584,-0.0249546,1.41126,0.0154822,0.0173505,1539,1730,4.75159,-14.0806
322,-706,4.75049,13.9563,-0.0211181,-0.00606542,0.00454289,-0.00480065,-0.0223829,1.29927,0.013607,0.0185235,1546,1730,4.75052,-13.9562
329,-706,4.69666,13.8112,-0.0168065,-0.00841211,0.00577467,-0.00547045,-0.0197481,1.09965,0.0117735,0.0156444,1553,1730,4.69662,-13.8112
336,-706,4.68018,13.672,-0.0111784,-0.0110429,0.007374,-0.00373631,-0.0184849,0.789993,0.0112859,0.0216025,1560,1730,4.68023,-13.672
343,-706,4.72729,13.5754,-0.00466396,-0.0137936,0.00897708,0.000842259,-0.0192998,0.550188,0.0131563,0.0307831,1567,1730,4.72733,-13.5755
350,-706,4.75903,13.5089,0.00398463,-0.0179737,0.011075,0.00860029,-0.0225893,0.394873,0.0186013,0.0372002,1574,1730,4.75904,-13.5089
357,-706,4.71826,13.4302,0.0137302,-0.0214994,0.0128883,0.0179417,-0.0257109,0.315835,0.0253356,0.0450505,1581,1730,4.71821,-13.4302
364,-706,4.66223,13.5009,0.0205743,-0.0270073,0.0134719,0.0241238,-0.0305569,0.257622,0.0316426,0.0472863,1588,1730,4.66219,-13.5008
371,-706,4.86267,14.2642,0.0246695,-0.0334933,0.0132215,0.0275339,-0.0363577,0.213351,0.0370049,0.0491689,1595,1730,4.86273,-14.2642
378,-706,5.38574,14.059,0.0286462,-0.038412,0.0121374,0.0307755,-0.0405412,0.173661,0.0413032,0.0452092,1602,1730,5.38574,-14.059
385,-706,5.89661,14.1049,0,0,0,0,0,0,0,-1,1609,1730,5.89663,-14.1049
392,-706,3.42236,11.9617,0,0,0,0,0,0,0,-1,1616,1730,3.42241,-11.9617
399,-706,3.21667,13.4043,0,0,0,0,0,0,0,-1,1623,1730,3.21671,-13.4043
406,-706,3.80188,18.3816,0,0,0,0,0,0,0,-1,1630,1730,3.80184,-18.3815
413,-706,4.23645,20.028,0,0,0,0,0,0,0,-1,1637,1730,4.23649,-20.0279
420,-706,5.7926,4.15125,0,0,0,0,0,0,0,-1,1644,1730,5.79255,-4.15128
427,-706,0,0,0,0,0,0,0,0,0,-1,1651,1730,0,0
434,-706,0,0,0,0,0,0,0,0,0,-1,1658,1730,0,0
441,-706,0,0,0,0,0,0,0,0,0,-1,1665,1730,0,0
448,-706,0,0,0,0,0,0,0,0,0,-1,1672,1730,0,0
455,-706,0,0,0,0,0,0,0,0,0,-1,1679,1730,0,0
462,-706,0,0,0,0,0,0,0,0,0,-1,1686,1730,0,0
469,-706,0,0,0,0,0,0,0,0,0,-1,1693,1730,0,0
476,-706,0,0,0,0,0,0,0,0,0,-1,1700,1730,0,0
483,-706,0,0,0,0,0,0,0,0,0,-1,1707,1730,0,0
490,-706,0,0,0,0,0,0,0,0,0,-1,1714,1730,0,0
497,-706,0,0,0,0,0,0,0,0,0,-1,1721,1730,0,0
504,-706,0,0,0,0,0,0,0,0,0,-1,1728,1730,0,0
511,-706,0,0,0,0,0,0,0,0,0,-1,1735,1730,0,0
518,-706,0,0,0,0,0,0,0,0,0,-1,1742,1730,0,0
525,-706,0,0,0,0,0,0,0,0,0,-1,1749,1730,0,0
532,-706,0,0,0,0,0,0,0,0,0,-1,1756,1730,0,0
539,-706,0,0,0,0,0,0,0,0,0,-1,1763,1730,0,0
546,-706,0,0,0,0,0,0,0,0,0,-1,1770,1730,0,0
553,-706,0,0,0,0,0,0,0,0,0,-1,1777,1730,0,0
560,-706,0,0,0,0,0,0,0,0,0,-1,1784,1730,0,0
567,-706,0,0,0,0,0,0,0,0,0,-1,1791,1730,0,0
574,-706,0,0,0,0,0,0,0,0,0,-1,1798,1730,0,0
581,-706,0,0,0,0,0,0,0,0,0,-1,1805,1730,0,0
588,-706,0,0,0,0,0,0,0,0,0,-1,1812,1730,0,0
595,-706,0,0,0,0,0,0,0,0,0,-1,1819,1730,0,0
602,-706,0,0,0,0,0,0,0,0,0,-1,1826,1730,0,0
609,-706,0,0,0,0,0,0,0,0,0,-1,1833,1730,0,0
616,-706,0,0,0,0,0,0,0,0,0,-1,1840,1730,0,0
623,-706,0,0,0,0,0,0,0,0,0,-1,1847,1730,0,0
630,-706,0,0,0,0,0,0,0,0,0,-1,1854,1730,0,0
637,-706,0,0,0,0,0,0,0,0,0,-1,1861,1730,0,0
644,-706,0,0,0,0,0,0,0,0,0,-1,1868,1730,0,0
651,-706,0,0,0,0,0,0,0,0,0,-1,1875,1730,0,0
658,-706,0,0,0,0,0,0,0,0,0,-1,1882,1730,0,0
665,-706,0,0,0,0,0,0,0,0,0,-1,1889,1730,0,0
672,-706,0,0,0,0,0,0,0,0,0,-1,1896,1730,0,0
679,-706,0,0,0,0,0,0,0,0,0,-1,1903,1730,0,0
686,-706,0,0,0,0,0,0,0,0,0,-1,1910,1730,0,0
693,-706,0,0,0,0,0,0,0,0,0,-1,1917,1730,0,0
700,-706,0,0,0,0,0,0,0,0,0,-1,1924,1730,0,0
707,-706,0,0,0,0,0,0,0,0,0,-1,1931,1730,0,0
714,-706,0,0,0,0,0,0,0,0,0,-1,1938,1730,0,0
721,-706,0,0,0,0,0,0,0,0,0,-1,1945,1730,0,0
728,-706,0,0,0,0,0,0,0,0,0,-1,1952,1730,0,0
735,-706,0,0,0,0,0,0,0,0,0,-1,1959,1730,0,0
742,-706,0,0,0,0,0,0,0,0,0,-1,1966,1730,0,0
749,-706,0,0,0,0,0,0,0,0,0,-1,1973,1730,0,0
756,-706,0,0,0,0,0,0,0,0,0,-1,1980,1730,0,0
763,-706,0,0,0,0,0,0,0,0,0,-1,1987,1730,0,0
770,-706,0,0,0,0,0,0,0,0,0,-1,1994,1730,0,0
777,-706,0,0,0,0,0,0,0,0,0,-1,2001,1730,0,0
784,-706,0,0,0,0,0,0,0,0,0,-1,2008,1730,0,0
791,-706,0,0,0,0,0,0,0,0,0,-1,2015,1730,0,0
798,-706,0,0,0,0,0,0,0,0,0,-1,2022,1730,0,0
805,-706,0,0,0,0,0,0,0,0,0,-1,2029,1730,0,0
812,-706,0,0,0,0,0,0,0,0,0,-1,2036,1730,0,0
-700,-713,0,0,0,0,0,0,0,0,0,-1,524,1737,0,0
-693,-713,0,0,0,0,0,0,0,0,0,-1,531,1737,0,0
-686,-713,0,0,0,0,0,0,0,0,0,-1,538,1737,0,0
-679,-713,0,0,0,0,0,0,0,0,0,-1,545,1737,0,0
-672,-713,0,0,0,0,0,0,0,0,0,-1,552,1737,0,0
-665,-713,0,0,0,0,0,0,0,0,0,-1,559,1737,0,0
-658,-713,0,0,0,0,0,0,0,0,0,-1,566,1737,0,0
-651,-713,0,0,0,0,0,0,0,0,0,-1,573,1737,0,0
-644,-713,0,0,0,0,0,0,0,0,0,-1,580,1737,0,0
-637,-713,0,0,0,0,0,0,0,0,0,-1,587,1737,0,0
-630,-713,0,0,0,0,0,0,0,0,0,-1,594,1737,0,0
-623,-713,0,0,0,0,0,0,0,0,0,-1,601,1737,0,0
-616,-713,0,0,0,0,0,0,0,0,0,-1,608,1737,0,0
-609,-713,0,0,0,0,0,0,0,0,0,-1,615,1737,0,0
-602,-713,0,0,0,0,0,0,0,0,0,-1,622,1737,0,0
-595,-713,0,0,0,0,0,0,0,0,0,-1,629,1737,0,0
-588,-713,0,0,0,0,0,0,0,0,0,-1,636,1737,0,0
-581,-713,0,0,0,0,0,0,0,0,0,-1,643,1737,0,0
-574,-713,0,0,0,0,0,0,0,0,0,-1,650,1737,0,0
-567,-713,0,0,0,0,0,0,0,0,0,-1,657,1737,0,0
-560,-713,0,0,0,0,0,0,0,0,0,-1,664,1737,0,0
-553,-713,0,0,0,0,0,0,0,0,0,-1,671,1737,0,0
-546,-713,0,0,0,0,0,0,0,0,0,-1,678,1737,0,0
-539,-713,0,0,0,0,0,0,0,0,0,-1,685,1737,0,0
-532,-713,0,0,0,0,0,0,0,0,0,-1,692,1737,0,0
-525,-713,0,0,0,0,0,0,0,0,0,-1,699,1737,0,0
-518,-713,0,0,0,0,0,0,0,0,0,-1,706,1737,0,0
-511,-713,0,0,0,0,0,0,0,0,0,-1,713,1737,0,0
-504,-713,0,0,0,0,0,0,0,0,0,-1,720,1737,0,0
-497,-713,0,0,0,0,0,0,0,0,0,-1,727,1737,0,0
-490,-713,0,0,0,0,0,0,0,0,0,-1,734,1737,0,0
-483,-713,0,0,0,0,0,0,0,0,0,-1,741,1737,0,0
-476,-713,0,0,0,0,0,0,0,0,0,-1,748,1737,0,0
-469,-713,0,0,0,0,0,0,0,0,0,-1,755,1737,0,0
-462,-713,0,0,0,0,0,0,0,0,0,-1,762,1737,0,0
-455,-713,0,0,0,0,0,0,0,0,0,-1,769,1737,0,0
-448,-713,0,0,0,0,0,0,0,0,0,-1,776,1737,0,0
-441,-713,0,0,0,0,0,0,0,0,0,-1,783,1737,0,0
-434,-713,0,0,0,0,0,0,0,0,0,-1,790,1737,0,0
-427,-713,0,0,0,0,0,0,0,0,0,-1,797,1737,0,0
-420,-713,0,0,0,0,0,0,0,0,0,-1,804,1737,0,0
-413,-713,0,0,0,0,0,0,0,0,0,-1,811,1737,0,0
-406,-713,0,0,0,0,0,0,0,0,0,-1,818,1737,0,0
-399,-713,0,0,0,0,0,0,0,0,0,-1,825,1737,0,0
-392,-713,0,0,0,0,0,0,0,0,0,-1,832,1737,0,0
-385,-713,0,0,0,0,0,0,0,0,0,-1,839,1737,0,0
-378,-713,0,0,0,0,0,0,0,0,0,-1,846,1737,0,0
-371,-713,0,0,0,0,0,0,0,0,0,-1,853,1737,0,0
-364,-713,0,0,0,0,0,0,0,0,0,-1,860,1737,0,0
-357,-713,0,0,0,0,0,0,0,0,0,-1,867,1737,0,0
-350,-713,0,0,0,0,0,0,0,0,0,-1,874,1737,0,0
-343,-713,0,0,0,0,0,0,0,0,0,-1,881,1737,0,0
-336,-713,0,0,0,0,0,0,0,0,0,-1,888,1737,0,0
-329,-713,0,0,0,0,0,0,0,0,0,-1,895,1737,0,0
-322,-713,0,0,0,0,0,0,0,0,0,-1,902,1737,0,0
-315,-713,0,0,0,0,0,0,0,0,0,-1,909,1737,0,0
-308,-713,0,0,0,0,0,0,0,0,0,-1,916,1737,0,0
-301,-713,0,0,0,0,0,0,0,0,0,-1,923,1737,0,0
-294,-713,6.3161,13.046,0,0,0,0,0,0,0,-1,930,1737,6.31612,-13.046
-287,-713,6.46362,12.1899,0,0,0,0,0,0,0,-1,937,1737,6.46362,-12.19
-280,-713,5.58942,11.9073,0,0,0,0,0,0,0,-1,944,1737,5.58943,-11.9073
-273,-713,4.32233,13.7266,0,0,0,0,0,0,0,-1,951,1737,4.32236,-13.7265
-266,-713,3.72046,9.64844,0,0,0,0,0,0,0,-1,958,1737,3.72048,-9.64845
-259,-713,2.67322,10.5743,0,0,0,0,0,0,0,-1,965,1737,2.67324,-10.5743
-252,-713,3.55267,8.86694,0,0,0,0,0,0,0,-1,972,1737,3.55265,-8.86693
-245,-713,2.92108,11.5321,0,0,0,0,0,0,0,-1,979,1737,2.9211,-11.5321
-238,-713,2.87256,14.5018,0,0,0,0,0,0,0,-1,986,1737,2.87259,-14.5018
-231,-713,3.34991,13.5475,0.0632489,0.0165278,-0.0144422,0.0673528,0.012424,-0.276858,0.0413869,0.0456678,993,1737,3.34992,-13.5475
-224,-713,3.63361,12.933,0.063504,0.0170176,-0.0178044,0.0695395,0.0109821,-0.326833,0.0431672,0.0461051,1000,1737,3.63358,-12.9329
-217,-713,4.64294,12.8058,0,0,0,0,0,0,0,-1,1007,1737,4.64294,-12.8058
-210,-713,4.81036,12.6726,0,0,0,0,0,0,0,-1,1014,1737,4.81038,-12.6726
-203,-713,4.6377,12.827,0.0409971,0.0121511,-0.0134982,0.0463282,0.00681995,-0.376144,0.0288818,0.0433942,1021,1737,4.63763,-12.827
-196,-713,4.5957,12.9529,0.0319806,0.0109391,-0.00984749,0.0358702,0.00704945,-0.376178,0.0219444,0.0401209,1028,1737,4.59575,-12.9529
-189,-713,4.55371,13.1897,0.0239435,0.00934181,-0.0066445,0.0265144,0.00677088,-0.369184,0.0159071,0.037981,1035,1737,4.55375,-13.1897
-182,-713,4.50842,13.4607,0.0168757,0.00813542,-0.00396883,0.018409,0.00660221,-0.368654,0.0107691,0.0253227,1042,1737,4.50842,-13.4607
-175,-713,4.53735,13.5441,0.0108665,0.00693825,-0.00143399,0.0113343,0.00647049,-0.315317,0.00656573,0.0216255,1049,1737,4.53736,-13.5441
-168,-713,4.58386,13.6184,0.00377171,0.00540232,0.00114404,0.00599184,0.00318219,1.09498,0.00346162,0.0242895,1056,1737,4.5839,-13.6184
-161,-713,4.48645,13.8066,0.000414308,0.00466393,0.00328481,0.00645125,-0.00137301,1.07248,0.00482408,0.0131387,1063,1737,4.48649,-13.8067
-154,-713,4.46167,13.9208,0.00131159,0.00358694,0.00337079,0.00600687,-0.00110834,0.94815,0.00442058,0.0112015,1070,1737,4.46166,-13.9207
-147,-713,4.45227,14.0669,0.00205607,0.00281974,0.00330251,0.00576242,-0.000886602,0.842952,0.00416869,0.0176086,1077,1737,4.45231,-14.0668
-140,-713,4.46533,14.2091,0.00272498,0.00196863,0.00317195,0.00554122,-0.000847614,0.726066,0.00400668,0.0177338,1084,1737,4.46538,-14.2091
-133,-713,4.44556,14.2958,0.00327059,0.00114167,0.00296556,0.00535695,-0.000944684,0.613089,0.00392428,0.011762,1091,1737,4.44551,-14.2958
-126,-713,4.45264,14.3921,0.0036536,0.000368765,0.00273898,0.00520485,-0.00118249,0.515319,0.00392391,0.0183164,1098,1737,4.45266,-14.392
-119,-713,4.44189,14.4532,0.00383094,-0.000239158,0.00252296,0.0050373,-0.00144552,0.446018,0.00392968,0.0280529,1105,1737,4.44183,-14.4533
-112,-713,4.45459,14.6222,0.00385314,-0.00077627,0.00223441,0.00475565,-0.00167878,0.383875,0.0038539,0.0139171,1112,1737,4.45461,-14.6222
-105,-713,4.44006,14.7097,0.00364671,-0.00118706,0.00191787,0.0043152,-0.00185556,0.335391,0.00365581,0.0107519,1119,1737,4.4401,-14.7097
-98,-713,4.45264,14.7847,0.00325952,-0.00143577,0.00164679,0.00377951,-0.00195576,0.305854,0.0033666,0.00955531,1126,1737,4.45263,-14.7847
-91,-713,4.44165,14.8712,0.00278732,-0.00157667,0.00128009,0.0031351,-0.00192445,0.265277,0.00294887,0.00935612,1133,1737,4.44159,-14.8713
-84,-713,4.42566,14.9653,0.00230826,-0.00125093,0.00101278,0.00257627,-0.00151894,0.258697,0.0023905,0.00929556,1140,1737,4.42564,-14.9653
-77,-713,4.43823,15.0648,0.00194746,-0.000943072,0.000792745,0.0021506,-0.00114621,0.25085,0.00193263,0.0124068,1147,1737,4.43827,-15.0649
-70,-713,4.43115,15.1404,0.00166988,-0.000732156,0.000568827,0.00179777,-0.000860051,0.221161,0.00156601,0.0143785,1154,1737,4.43112,-15.1404
-63,-713,4.4137,15.22,0.00150104,-0.000690979,0.000318225,0.0015463,-0.000736243,0.14129,0.00134521,0.0124851,1161,1737,4.41365,-15.22
-56,-713,4.42395,15.2944,0.00164174,-0.000833564,0.000202065,0.00165812,-0.00084995,0.0809187,0.00147288,0.01194,1168,1737,4.42389,-15.2944
-49,-713,4.41296,15.3531,0.00156692,-0.00102961,0.000340823,0.00161091,-0.0010736,0.128364,0.00156022,0.0146498,1175,1737,4.413,-15.3531
-42,-713,4.42859,15.3944,0.00135665,-0.00150792,0.000453976,0.00142688,-0.00157814,0.153471,0.00173568,0.0175073,1182,1737,4.4286,-15.3944
-35,-713,4.45422,15.4617,0.00157546,-0.00205029,0.000565966,0.00166175,-0.00213658,0.151302,0.00219868,0.0152022,1189,1737,4.45419,-15.4617
-28,-713,4.45251,15.538,0.00159809,-0.00255681,0.000689461,0.00170952,-0.00266823,0.16022,0.00254762,0.0133309,1196,1737,4.45256,-15.538
-21,-713,4.4325,15.6151,0.00147097,-0.00308783,0.000802883,0.00160824,-0.0032251,0.169332,0.0028421,0.00937285,1203,1737,4.43252,-15.6152
-14,-713,4.4469,15.6376,0.00130526,-0.00378476,0.00103754,0.00150862,-0.00398813,0.193553,0.00327941,0.010887,1210,1737,4.44693,-15.6375
-7,-713,4.47449,15.6879,0.00106745,-0.00420971,0.00136742,0.00140073,-0.00454299,0.239067,0.0035879,0.0103046,1217,1737,4.47448,-15.6878
0,-713,4.48901,15.7179,0.000763608,-0.00441959,0.00165852,0.00124887,-0.00490485,0.284643,0.00375605,0.0146463,1224,1737,4.48898,-15.7179
7,-713,4.50525,15.7286,0.000503796,-0.00469986,0.00185039,0.00109469,-0.00529076,0.309098,0.00394305,0.0171218,1231,1737,4.50526,-15.7286
14,-713,4.51123,15.7712,0.000326266,-0.00506338,0.0019536,0.000959901,-0.00569702,0.313637,0.0041551,0.0126449,1238,1737,4.51128,-15.7713
21,-713,4.49854,15.812,0.000246195,-0.00493976,0.00175654,0.000785146,-0.00547871,0.297706,0.00394035,0.0109092,1245,1737,4.49849,-15.8121
28,-713,4.49268,15.8553,0.000152677,-0.00451546,0.00248829,0.00123028,-0.00559306,0.408684,0.00419931,0.010991,1252,1737,4.49269,-15.8554
35,-713,4.49756,15.892,0.000176381,-0.00363631,0.00337997,0.00215054,-0.00561047,0.528629,0.00462687,0.0107562,1259,1737,4.49754,-15.892
42,-713,4.51794,15.9111,0.000118424,-0.00158933,0.0051783,0.00451277,-0.00598368,0.703686,0.00607993,0.01126,1266,1737,4.51794,-15.9111
49,-713,4.52551,15.9081,0.000164164,-0.000364412,0.00617019,0.00607572,-0.00627597,0.763995,0.00713156,0.0116616,1273,1737,4.52553,-15.9081
56,-713,4.5376,15.9213,0.000321638,0.0012429,0.0073149,0.00811166,-0.00654712,0.816842,0.00847931,0.0116248,1280,1737,4.5376,-15.9213
63,-713,4.54016,15.9481,0.00057075,0.00281557,0.00849243,0.0102594,-0.00687313,0.8511,0.00995569,0.0119269,1287,1737,4.54017,-15.9481
70,-713,4.5376,15.9509,0.000288608,0.00432462,0.00934508,0.0118671,-0.00725387,0.891737,0.0111461,0.0119213,1294,1737,4.53766,-15.951
77,-713,4.54248,15.9508,0.000157495,0.00567703,0.00978609,0.013085,-0.00725053,0.922834,0.0119007,0.0116837,1301,1737,4.54244,-15.9508
84,-713,4.55566,15.9722,5.69612e-05,0.00656529,0.00994257,0.0137727,-0.00715043,0.943552,0.01228,0.0116091,1308,1737,4.55569,-15.9721
91,-713,4.57458,15.995,-7.88948e-05,0.00714149,0.00957617,0.0137654,-0.00670279,0.965658,0.0120495,0.0119849,1315,1737,4.57456,-15.995
98,-713,4.57715,15.9843,-0.000221026,0.00730758,0.00882712,0.0131395,-0.00605297,0.986946,0.0113298,0.0114593,1322,1737,4.57717,-15.9842
105,-713,4.57813,15.9711,-0.000301306,0.00706641,0.00776318,0.0119754,-0.00521034,1.00693,0.0101752,0.0129329,1329,1737,4.57814,-15.9711
112,-713,4.58801,15.9685,-0.00029713,0.00665158,0.00656661,0.0106063,-0.00425187,1.02872,0.00883602,0.0137258,1336,1737,4.58804,-15.9685
119,-713,4.62146,15.9777,-0.000260983,0.00598838,0.00527624,0.00899577,-0.00326838,1.05274,0.00733357,0.0142729,1343,1737,4.62143,-15.9777
126,-713,4.63135,15.9503,-0.000139395,0.00478145,0.00415355,0.00714862,-0.00250656,1.05279,0.0057852,0.013861,1350,1737,4.63135,-15.9503
133,-713,4.62744,15.8915,4.36314e-05,0.00368035,0.00259017,0.00502671,-0.00130272,1.09144,0.00385937,0.0126736,1357,1737,4.62741,-15.8915
140,-713,4.64648,15.8698,0.000187688,0.00259129,0.00151026,0.00331957,-0.000540593,1.12147,0.00241351,0.0135908,1364,1737,4.64652,-15.8698
147,-713,4.6604,15.8219,0.000363671,0.00121801,0.000423198,0.00139215,0.000189533,1.18043,0.000871814,0.0148743,1371,1737,4.66042,-15.8219
154,-713,4.6217,15.8004,0.000353651,0.00112791,0.000500758,0.00137373,0.000107829,1.11445,0.000882077,0.0142743,1378,1737,4.62172,-15.8004
161,-713,4.61511,15.7583,0.000560005,0.000978897,0.000376532,0.00120031,0.000338587,1.03921,0.000714605,0.0105706,1385,1737,4.61513,-15.7583
168,-713,4.63855,15.7112,0.000825044,0.000807869,0.00036617,0.00118273,0.000450186,0.773675,0.000689304,0.0107606,1392,1737,4.63861,-15.7112
175,-713,4.6626,15.6833,0.000876538,0.000505459,0.00034967,0.00108684,0.000295153,0.54148,0.000648951,0.0139795,1399,1737,4.66254,-15.6834
182,-713,4.6333,15.6371,0.000779963,0.000169186,0.00037274,0.000956443,-7.29421e-06,0.442197,0.000640074,0.01251,1406,1737,4.63326,-15.6371
189,-713,4.62805,15.5657,0.000642624,0.000232391,0.000190599,0.000717509,0.000157507,0.374364,0.000435438,0.0116044,1413,1737,4.62804,-15.5657
196,-713,4.65295,15.5142,0.000606455,0.000125446,-3.36023e-05,0.000608791,0.00012311,-0.0694087,0.000371684,0.0132048,1420,1737,4.65298,-15.5142
203,-713,4.65674,15.4657,0.000363162,-8.43756e-05,-0.000106014,0.000387004,-0.000108218,-0.22122,0.00030064,0.0185084,1427,1737,4.65678,-15.4657
210,-713,4.65942,15.3668,-0.000126752,-0.000332777,-9.25795e-05,-9.12637e-05,-0.000368265,-0.366055,0.000221449,0.0152526,1434,1737,4.65938,-15.3669
217,-713,4.66821,15.3033,-0.000972581,-0.000724903,-9.46952e-05,-0.000692847,-0.00100464,-1.24439,0.000593772,0.0117582,1441,1737,4.66823,-15.3033
224,-713,4.67053,15.2598,-0.00186279,-0.00112861,-3.27027e-05,-0.00112715,-0.00186425,-1.52637,0.00108415,0.0122906,1448,1737,4.67058,-15.2598
231,-713,4.65784,15.1923,-0.00354498,-0.00146738,0.000200304,-0.00144825,-0.00356412,1.47555,0.00206974,0.0110963,1455,1737,4.65784,-15.1922
238,-713,4.64978,15.1127,-0.00576377,-0.00190482,0.000581529,-0.00181909,-0.0058495,1.42443,0.00345671,0.00822794,1462,1737,4.64979,-15.1127
245,-713,4.66821,15.0464,-0.00925103,-0.00223353,0.000806932,-0.00214193,-0.00934263,1.45777,0.0056514,0.0105204,1469,1737,4.66823,-15.0464
252,-713,4.67639,14.957,-0.0137584,-0.00319374,0.000985793,-0.00310254,-0.0138496,1.47855,0.00839231,0.0112799,1476,1737,4.67642,-14.9571
259,-713,4.67883,14.8521,-0.0183986,-0.00402124,0.00130199,-0.00390428,-0.0185155,1.48121,0.01127,0.0114538,1483,1737,4.67886,-14.8521
266,-713,4.65222,14.7986,-0.0231041,-0.00446601,0.00157868,-0.00433324,-0.0232369,1.48689,0.0142679,0.0107612,1490,1737,4.65222,-14.7985
273,-713,4.64014,14.7255,-0.0280001,-0.00502226,0.00182698,-0.00487791,-0.0281444,1.49195,0.0173669,0.0094997,1497,1737,4.64009,-14.7255
280,-713,4.63831,14.6084,-0.032814,-0.00550309,0.00207539,-0.00534628,-0.0329708,1.49538,0.0204329,0.0109855,1504,1737,4.63831,-14.6083
287,-713,4.63379,14.4965,-0.0368617,-0.00604713,0.00228824,-0.00587814,-0.0370307,1.49708,0.0229797,0.0118031,1511,1737,4.63374,-14.4965
294,-713,4.62671,14.3922,-0.040135,-0.0065917,0.00246566,-0.00641142,-0.0403153,1.49781,0.0250151,0.01572,1518,1737,4.62672,-14.3922
301,-713,4.58496,14.2623,-0.0422954,-0.00699298,0.00267351,-0.00679166,-0.0424968,1.49564,0.0263606,0.0163373,1525,1737,4.58497,-14.2623
308,-713,4.53564,14.1239,-0.042249,-0.00694128,0.00391293,-0.00651284,-0.0426774,1.46174,0.0265483,0.0185659,1532,1737,4.53566,-14.1239
315,-713,4.54651,14.0105,-0.040345,-0.00893887,0.00548591,-0.00800819,-0.0412757,1.40275,0.0252742,0.0254474,1539,1737,4.54645,-14.0105
322,-713,4.50476,13.8612,-0.0362493,-0.0110955,0.00699965,-0.00927891,-0.0380659,1.31687,0.0229192,0.0317553,1546,1737,4.50481,-13.8612
329,-713,4.48572,13.7262,-0.0306036,-0.0139442,0.00862289,-0.0102848,-0.0342629,1.16945,0.0203015,0.0369611,1553,1737,4.48566,-13.7262
336,-713,4.58765,13.8317,-0.0226853,-0.0172201,0.0106025,-0.00900375,-0.0309016,0.911519,0.0183515,0.0435795,1560,1737,4.58759,-13.8316
343,-713,4.46777,13.7472,0,0,0,0,0,0,0,-1,1567,1737,4.46772,-13.7472
350,-713,4.67603,13.4944,0,0,0,0,0,0,0,-1,1574,1737,4.67605,-13.4944
357,-713,4.36865,13.1571,0.0161322,-0.0288659,0.0192603,0.0232502,-0.0359839,0.353998,0.0344612,0.0493277,1581,1737,4.3687,-13.1571
364,-713,4.49841,14.8025,0.0278393,-0.0359453,0.0205903,0.0339086,-0.0420146,0.286644,0.0439174,0.0482708,1588,1737,4.49846,-14.8025
371,-713,4.76038,14.5554,0.0335072,-0.0454565,0.0206677,0.0385896,-0.0505389,0.241125,0.0516123,0.0459527,1595,1737,4.76039,-14.5554
378,-713,5.04297,14.3257,0,0,0,0,0,0,0,-1,1602,1737,5.04296,-14.3257
385,-713,5.3429,14.0168,0,0,0,0,0,0,0,-1,1609,1737,5.34292,-14.0169
392,-713,4.18201,13.3433,0,0,0,0,0,0,0,-1,1616,1737,4.18198,-13.3433
399,-713,1.93323,14.2748,0,0,0,0,0,0,0,-1,1623,1737,1.93325,-14.2748
406,-713,2.13525,15.2334,0,0,0,0,0,0,0,-1,1630,1737,2.13526,-15.2334
413,-713,2.59546,16.7579,0,0,0,0,0,0,0,-1,1637,1737,2.5955,-16.7579
420,-713,0,0,0,0,0,0,0,0,0,-1,1644,1737,0,0
427,-713,0,0,0,0,0,0,0,0,0,-1,1651,1737,0,0
434,-713,0,0,0,0,0,0,0,0,0,-1,1658,1737,0,0
441,-713,0,0,0,0,0,0,0,0,0,-1,1665,1737,0,0
448,-713,0,0,0,0,0,0,0,0,0,-1,1672,1737,0,0
455,-713,0,0,0,0,0,0,0,0,0,-1,1679,1737,0,0
462,-713,0,0,0,0,0,0,0,0,0,-1,1686,1737,0,0
469,-713,0,0,0,0,0,0,0,0,0,-1,1693,1737,0,0
476,-713,0,0,0,0,0,0,0,0,0,-1,1700,1737,0,0
483,-713,0,0,0,0,0,0,0,0,0,-1,1707,1737,0,0
490,-713,0,0,0,0,0,0,0,0,0,-1,1714,1737,0,0
497,-713,0,0,0,0,0,0,0,0,0,-1,1721,1737,0,0
504,-713,0,0,0,0,0,0,0,0,0,-1,1728,1737,0,0
511,-713,0,0,0,0,0,0,0,0,0,-1,1735,1737,0,0
518,-713,0,0,0,0,0,0,0,0,0,-1,1742,1737,0,0
525,-713,0,0,0,0,0,0,0,0,0,-1,1749,1737,0,0
532,-713,0,0,0,0,0,0,0,0,0,-1,1756,1737,0,0
539,-713,0,0,0,0,0,0,0,0,0,-1,1763,1737,0,0
546,-713,0,0,0,0,0,0,0,0,0,-1,1770,1737,0,0
553,-713,0,0,0,0,0,0,0,0,0,-1,1777,1737,0,0
560,-713,0,0,0,0,0,0,0,0,0,-1,1784,1737,0,0
567,-713,0,0,0,0,0,0,0,0,0,-1,1791,1737,0,0
574,-713,0,0,0,0,0,0,0,0,0,-1,1798,1737,0,0
581,-713,0,0,0,0,0,0,0,0,0,-1,1805,1737,0,0
588,-713,0,0,0,0,0,0,0,0,0,-1,1812,1737,0,0
595,-713,0,0,0,0,0,0,0,0,0,-1,1819,1737,0,0
602,-713,0,0,0,0,0,0,0,0,0,-1,1826,1737,0,0
609,-713,0,0,0,0,0,0,0,0,0,-1,1833,1737,0,0
616,-713,0,0,0,0,0,0,0,0,0,-1,1840,1737,0,0
623,-713,0,0,0,0,0,0,0,0,0,-1,1847,1737,0,0
630,-713,0,0,0,0,0,0,0,0,0,-1,1854,1737,0,0
637,-713,0,0,0,0,0,0,0,0,0,-1,1861,1737,0,0
644,-713,0,0,0,0,0,0,0,0,0,-1,1868,1737,0,0
651,-713,0,0,0,0,0,0,0,0,0,-1,1875,1737,0,0
658,-713,0,0,0,0,0,0,0,0,0,-1,1882,1737,0,0
665,-713,0,0,0,0,0,0,0,0,0,-1,1889,1737,0,0
672,-713,0,0,0,0,0,0,0,0,0,-1,1896,1737,0,0
679,-713,0,0,0,0,0,0,0,0,0,-1,1903,1737,0,0
686,-713,0,0,0,0,0,0,0,0,0,-1,1910,1737,0,0
693,-713,0,0,0,0,0,0,0,0,0,-1,1917,1737,0,0
700,-713,0,0,0,0,0,0,0,0,0,-1,1924,1737,0,0
707,-713,0,0,0,0,0,0,0,0,0,-1,1931,1737,0,0
714,-713,0,0,0,0,0,0,0,0,0,-1,1938,1737,0,0
721,-713,0,0,0,0,0,0,0,0,0,-1,1945,1737,0,0
728,-713,0,0,0,0,0,0,0,0,0,-1,1952,1737,0,0
735,-713,0,0,0,0,0,0,0,0,0,-1,1959,1737,0,0
742,-713,0,0,0,0,0,0,0,0,0,-1,1966,1737,0,0
749,-713,0,0,0,0,0,0,0,0,0,-1,1973,1737,0,0
756,-713,0,0,0,0,0,0,0,0,0,-1,1980,1737,0,0
763,-713,0,0,0,0,0,0,0,0,0,-1,1987,1737,0,0
770,-713,0,0,0,0,0,0,0,0,0,-1,1994,1737,0,0
777,-713,0,0,0,0,0,0,0,0,0,-1,2001,1737,0,0
784,-713,0,0,0,0,0,0,0,0,0,-1,2008,1737,0,0
791,-713,0,0,0,0,0,0,0,0,0,-1,2015,1737,0,0
798,-713,0,0,0,0,0,0,0,0,0,-1,2022,1737,0,0
805,-713,0,0,0,0,0,0,0,0,0,-1,2029,1737,0,0
812,-713,0,0,0,0,0,0,0,0,0,-1,2036,1737,0,0
-700,-720,0,0,0,0,0,0,0,0,0,-1,524,1744,0,0
-693,-720,0,0,0,0,0,0,0,0,0,-1,531,1744,0,0
-686,-720,0,0,0,0,0,0,0,0,0,-1,538,1744,0,0
-679,-720,0,0,0,0,0,0,0,0,0,-1,545,1744,0,0
-672,-720,0,0,0,0,0,0,0,0,0,-1,552,1744,0,0
-665,-720,0,0,0,0,0,0,0,0,0,-1,559,1744,0,0
-658,-720,0,0,0,0,0,0,0,0,0,-1,566,1744,0,0
-651,-720,0,0,0,0,0,0,0,0,0,-1,573,1744,0,0
-644,-720,0,0,0,0,0,0,0,0,0,-1,580,1744,0,0
-637,-720,0,0,0,0,0,0,0,0,0,-1,587,1744,0,0
-630,-720,0,0,0,0,0,0,0,0,0,-1,594,1744,0,0
-623,-720,0,0,0,0,0,0,0,0,0,-1,601,1744,0,0
-616,-720,0,0,0,0,0,0,0,0,0,-1,608,1744,0,0
-609,-720,0,0,0,0,0,0,0,0,0,-1,615,1744,0,0
-602,-720,0,0,0,0,0,0,0,0,0,-1,622,1744,0,0
-595,-720,0,0,0,0,0,0,0,0,0,-1,629,1744,0,0
-588,-720,0,0,0,0,0,0,0,0,0,-1,636,1744,0,0
-581,-720,0,0,0,0,0,0,0,0,0,-1,643,1744,0,0
-574,-720,0,0,0,0,0,0,0,0,0,-1,650,1744,0,0
-567,-720,0,0,0,0,0,0,0,0,0,-1,657,1744,0,0
-560,-720,0,0,0,0,0,0,0,0,0,-1,664,1744,0,0
-553,-720,0,0,0,0,0,0,0,0,0,-1,671,1744,0,0
-546,-720,0,0,0,0,0,0,0,0,0,-1,678,1744,0,0
-539,-720,0,0,0,0,0,0,0,0,0,-1,685,1744,0,0
-532,-720,0,0,0,0,0,0,0,0,0,-1,692,1744,0,0
-525,-720,0,0,0,0,0,0,0,0,0,-1,699,1744,0,0
-518,-720,0,0,0,0,0,0,0,0,0,-1,706,1744,0,0
-511,-720,0,0,0,0,0,0,0,0,0,-1,713,1744,0,0
-504,-720,0,0,0,0,0,0,0,0,0,-1,720,1744,0,0
-497,-720,0,0,0,0,0,0,0,0,0,-1,727,1744,0,0
-490,-720,0,0,0,0,0,0,0,0,0,-1,734,1744,0,0
-483,-720,0,0,0,0,0,0,0,0,0,-1,741,1744,0,0
-476,-720,0,0,0,0,0,0,0,0,0,-1,748,1744,0,0
-469,-720,0,0,0,0,0,0,0,0,0,-1,755,1744,0,0
-462,-720,0,0,0,0,0,0,0,0,0,-1,762,1744,0,0
-455,-720,0,0,0,0,0,0,0,0,0,-1,769,1744,0,0
-448,-720,0,0,0,0,0,0,0,0,0,-1,776,1744,0,0
-441,-720,0,0,0,0,0,0,0,0,0,-1,783,1744,0,0
-434,-720,0,0,0,0,0,0,0,0,0,-1,790,1744,0,0
-427,-720,0,0,0,0,0,0,0,0,0,-1,797,1744,0,0
-420,-720,0,0,0,0,0,0,0,0,0,-1,804,1744,0,0
-413,-720,0,0,0,0,0,0,0,0,0,-1,811,1744,0,0
-406,-720,0,0,0,0,0,0,0,0,0,-1,818,1744,0,0
-399,-720,0,0,0,0,0,0,0,0,0,-1,825,1744,0,0
-392,-720,0,0,0,0,0,0,0,0,0,-1,832,1744,0,0
-385,-720,0,0,0,0,0,0,0,0,0,-1,839,1744,0,0
-378,-720,0,0,0,0,0,0,0,0,0,-1,846,1744,0,0
-371,-720,0,0,0,0,0,0,0,0,0,-1,853,1744,0,0
-364,-720,0,0,0,0,0,0,0,0,0,-1,860,1744,0,0
-357,-720,0,0,0,0,0,0,0,0,0,-1,867,1744,0,0
-350,-720,0,0,0,0,0,0,0,0,0,-1,874,1744,0,0
-343,-720,0,0,0,0,0,0,0,0,0,-1,881,1744,0,0
-336,-720,0,0,0,0,0,0,0,0,0,-1,888,1744,0,0
-329,-720,0,0,0,0,0,0,0,0,0,-1,895,1744,0,0
-322,-720,0,0,0,0,0,0,0,0,0,-1,902,1744,0,0
-315,-720,0,0,0,0,0,0,0,0,0,-1,909,1744,0,0
-308,-720,0,0,0,0,0,0,0,0,0,-1,916,1744,0,0
-301,-720,0,0,0,0,0,0,0,0,0,-1,923,1744,0,0
-294,-720,0,0,0,0,0,0,0,0,0,-1,930,1744,0,0
-287,-720,0,0,0,0,0,0,0,0,0,-1,937,1744,0,0
-280,-720,6.13525,11.8578,0,0,0,0,0,0,0,-1,944,1744,6.13524,-11.8578
-273,-720,4.63739,8.22498,0,0,0,0,0,0,0,-1,951,1744,4.6374,-8.22496
-266,-720,4.37134,7.47217,0,0,0,0,0,0,0,-1,958,1744,4.37132,-7.47215
-259,-720,2.38904,5.20947,0,0,0,0,0,0,0,-1,965,1744,2.38906,-5.20952
-252,-720,3.71014,6.78967,0,0,0,0,0,0,0,-1,972,1744,3.71016,-6.78973
-245,-720,3.47345,14.1595,0,0,0,0,0,0,0,-1,979,1744,3.47346,-14.1595
-238,-720,2.81946,14.811,0,0,0,0,0,0,0,-1,986,1744,2.81946,-14.811
-231,-720,3.02106,13.3254,0.0908735,0.0202998,-0.0225285,0.0974519,0.0137214,-0.284103,0.0609115,0.0438278,993,1744,3.02108,-13.3254
-224,-720,3.42377,12.4288,0.0907234,0.020796,-0.0260698,0.0993727,0.0121467,-0.320347,0.0625937,0.0466205,1000,1744,3.42378,-12.4288
-217,-720,4.27509,11.3352,0,0,0,0,0,0,0,-1,1007,1744,4.27508,-11.3352
-210,-720,5.08185,10.3125,0,0,0,0,0,0,0,-1,1014,1744,5.08186,-10.3125
-203,-720,4.76208,12.6395,0,0,0,0,0,0,0,-1,1021,1744,4.76213,-12.6395
-196,-720,4.75098,12.7764,0,0,0,0,0,0,0,-1,1028,1744,4.75102,-12.7764
-189,-720,4.71301,12.9993,0,0,0,0,0,0,0,-1,1035,1744,4.71304,-12.9992
-182,-720,4.6554,13.429,0.027408,0.0110111,-0.00632289,0.029563,0.00885609,-0.328475,0.0175193,0.044211,1042,1744,4.65539,-13.4289
-175,-720,4.65503,13.6598,0.0183993,0.00963071,-0.00260017,0.0191124,0.00891766,-0.267652,0.0110427,0.045981,1049,1744,4.65506,-13.6598
-168,-720,4.60571,13.7595,0.00657938,0.00672261,0.00123494,0.00788801,0.00541398,0.814362,0.00465839,0.0376575,1056,1744,4.60573,-13.7595
-161,-720,4.52234,13.8402,0.000107464,0.00478145,0.00465427,0.0076525,-0.00276359,1.01807,0.00623062,0.0281861,1063,1744,4.52235,-13.8402
-154,-720,4.61035,13.9341,0.00112116,0.0029488,0.00465954,0.00678328,-0.00271332,0.882228,0.00564821,0.0219383,1070,1744,4.6103,-13.9341
-147,-720,4.57971,14.1125,0.00182283,0.0016779,0.0044972,0.00624815,-0.00274742,0.777342,0.00532307,0.0212434,1077,1744,4.57969,-14.1126
-140,-720,4.57446,14.2437,0.0024715,0.000343534,0.0042734,0.00581138,-0.00299634,0.66339,0.00517099,0.01802,1084,1744,4.57451,-14.2436
-133,-720,4.55115,14.2979,0.00299639,-0.00084875,0.00395364,0.00547013,-0.00332249,0.559093,0.00512665,0.0138902,1091,1744,4.55109,-14.2979
-126,-720,4.54651,14.3982,0.00336122,-0.00188146,0.00359787,0.00519141,-0.00371165,0.470572,0.0051638,0.0137414,1098,1744,4.54656,-14.3982
-119,-720,4.56311,14.5077,0.00355526,-0.00264622,0.00325477,0.00494987,-0.00404082,0.404814,0.00519961,0.0160343,1105,1744,4.56305,-14.5077
-112,-720,4.54382,14.5978,0.00363026,-0.00318485,0.00285464,0.00466797,-0.00422256,0.348666,0.0051351,0.0148345,1112,1744,4.54377,-14.5978
-105,-720,4.51794,14.6984,0.0034751,-0.00345773,0.00243672,0.00424586,-0.00422849,0.306352,0.00489267,0.0139459,1119,1744,4.51799,-14.6984
-98,-720,4.51819,14.7732,0.00313708,-0.00347954,0.00207303,0.00373292,-0.00407538,0.279878,0.00450957,0.0100136,1126,1744,4.51822,-14.7731
-91,-720,4.51624,14.8625,0.00269484,-0.00341404,0.00157244,0.00307583,-0.00379503,0.23771,0.00397413,0.00831748,1133,1744,4.51626,-14.8625
-84,-720,4.50354,14.9672,0.00223036,-0.00270443,0.00122083,0.00251587,-0.00298994,0.229733,0.00318271,0.00960917,1140,1744,4.50356,-14.9671
-77,-720,4.51221,15.0736,0.00185205,-0.00202102,0.000972386,0.00208247,-0.00225144,0.232674,0.00250282,0.0128003,1147,1744,4.51215,-15.0736
-70,-720,4.51758,15.1589,0.00148066,-0.00144151,0.000715995,0.00164667,-0.00160751,0.227825,0.00187885,0.0110994,1154,1744,4.51753,-15.159
-63,-720,4.49402,15.2142,0.00107977,-0.000744555,0.0003863,0.0011582,-0.000822983,0.2003,0.00114928,0.0100591,1161,1744,4.49399,-15.2143
-56,-720,4.49658,15.2888,0.00063605,-0.000216478,0.000139891,0.000658417,-0.000238845,0.158552,0.000536582,0.0119997,1168,1744,4.49653,-15.2889
-49,-720,4.4668,15.3571,0.000298185,0.00012195,0.00014293,0.000377977,4.21581e-05,0.509163,0.000239174,0.0178908,1175,1744,4.46685,-15.3571
-42,-720,4.47351,15.3944,0.00044245,-0.000298105,0.000217224,0.000501464,-0.00035712,0.265273,0.000498033,0.0199237,1182,1744,4.47356,-15.3943
-35,-720,4.51685,15.4502,0.000680283,-0.000756727,0.000284478,0.000734551,-0.000810994,0.188497,0.000892685,0.0178487,1189,1744,4.51686,-15.4502
-28,-720,4.50427,15.5264,0.000766341,-0.00124403,0.000377297,0.000834818,-0.00131251,0.179539,0.00124994,0.0109022,1196,1744,4.50433,-15.5264
-21,-720,4.4812,15.621,0.000747171,-0.0017827,0.000529,0.000853331,-0.00188886,0.19805,0.0016204,0.00925959,1203,1744,4.4812,-15.621
-14,-720,4.48877,15.649,0.000718482,-0.00246228,0.000782029,0.000900354,-0.00264415,0.228502,0.00212737,0.0113711,1210,1744,4.48871,-15.649
-7,-720,4.50769,15.6937,0.000616202,-0.00299308,0.00113031,0.000940956,-0.00331784,0.279779,0.00258331,0.0125408,1217,1744,4.50768,-15.6937
0,-720,4.52441,15.7394,0.000448667,-0.00335344,0.00146063,0.000944996,-0.00384977,0.327563,0.00293271,0.0131769,1224,1744,4.52446,-15.7394
7,-720,4.52563,15.7317,0.000286714,-0.00375297,0.00170616,0.000910875,-0.00437713,0.350705,0.00326435,0.0157307,1231,1744,4.52568,-15.7317
14,-720,4.54004,15.762,0.00015546,-0.00416985,0.00186288,0.000847171,-0.00486156,0.355534,0.00355721,0.0146248,1238,1744,4.54003,-15.762
21,-720,4.53723,15.8141,8.55237e-05,-0.00440364,0.00193733,0.00080597,-0.00512408,0.356029,0.00371398,0.0115356,1245,1744,4.53721,-15.8141
28,-720,4.51965,15.8528,2.10223e-05,-0.00437035,0.00229361,0.0010005,-0.00534983,0.403604,0.0039426,0.0110094,1252,1744,4.51969,-15.8528
35,-720,4.52795,15.8907,2.74476e-05,-0.00413958,0.00263677,0.00130452,-0.00541666,0.451037,0.00411545,0.0104436,1259,1744,4.5279,-15.8907
42,-720,4.53406,15.9116,3.4094e-06,-0.00331455,0.00336789,0.00209874,-0.00540988,0.556548,0.0044734,0.0109633,1266,1744,4.53411,-15.9117
49,-720,4.53137,15.9132,5.19684e-05,-0.00282833,0.00366426,0.00254893,-0.00532529,0.598158,0.00463942,0.0119075,1273,1744,4.53138,-15.9133
56,-720,4.54102,15.9381,0.000124449,-0.0020813,0.00405217,0.00322114,-0.005178,0.652532,0.00489292,0.0107219,1280,1744,4.54098,-15.9381
63,-720,4.55591,15.9556,0.000251545,-0.00119459,0.00444262,0.00402955,-0.0049726,0.704727,0.00520689,0.0125504,1287,1744,4.55593,-15.9556
70,-720,4.57825,15.9539,0.000102862,-0.000211471,0.00466561,0.00461395,-0.00472256,0.768561,0.00539055,0.0129134,1294,1744,4.57826,-15.9539
77,-720,4.56714,15.9482,5.45612e-05,0.000750709,0.00471844,0.0051339,-0.00432863,0.822216,0.00546978,0.0141123,1301,1744,4.56715,-15.9482
84,-720,4.55457,15.9495,2.24298e-05,0.00146667,0.00464921,0.00544951,-0.0039604,0.862443,0.00545544,0.0138047,1308,1744,4.55451,-15.9494
91,-720,4.5741,15.9517,-5.42991e-05,0.00207722,0.00438124,0.00552046,-0.00349754,0.904709,0.00525003,0.0133529,1315,1744,4.57415,-15.9516
98,-720,4.56567,15.967,-0.000151812,0.00250638,0.00397521,0.00536879,-0.00301423,0.946729,0.00490317,0.0122797,1322,1744,4.56564,-15.967
105,-720,4.56226,15.9697,-0.000216804,0.0026401,0.00343827,0.00493485,-0.00251155,0.982278,0.00437441,0.0113952,1329,1744,4.56223,-15.9697
112,-720,4.5791,15.9667,-0.000227262,0.00267968,0.00288433,0.00445606,-0.00200365,1.01879,0.00381805,0.0106338,1336,1744,4.5791,-15.9667
119,-720,4.599,15.9492,-0.000220692,0.00251528,0.00229369,0.00381794,-0.00152336,1.05429,0.00317724,0.010753,1343,1744,4.59906,-15.9492
126,-720,4.60779,15.92,-0.000156539,0.00204716,0.0017319,0.002998,-0.00110738,1.06871,0.00245259,0.011237,1350,1744,4.60779,-15.9201
133,-720,4.60352,15.8953,-7.5597e-05,0.00151259,0.00109509,0.0020712,-0.000634211,1.0991,0.00163377,0.0127653,1357,1744,4.60354,-15.8953
140,-720,4.62183,15.9084,-1.54214e-05,0.00102414,0.000693676,0.00137117,-0.00036245,1.10693,0.00105587,0.0186935,1364,1744,4.62186,-15.9085
147,-720,4.62537,15.8568,5.89521e-05,0.000457388,0.000334269,0.000647302,-0.000130962,1.05413,0.000481167,0.019403,1371,1744,4.62541,-15.8568
154,-720,4.60559,15.7836,2.09971e-05,0.000367122,0.000360552,0.000593995,-0.000205876,1.00916,0.000479585,0.012782,1378,1744,4.60556,-15.7835
161,-720,4.59485,15.7632,7.5138e-05,0.000376932,0.000271281,0.000536459,-8.43898e-05,1.03921,0.000388834,0.0094133,1385,1744,4.5948,-15.7632
168,-720,4.60657,15.7161,0.000291338,0.000380415,0.000277653,0.000617079,5.46745e-05,0.864926,0.000394426,0.00972879,1392,1744,4.60652,-15.716
175,-720,4.62073,15.6675,0.000441274,0.000105364,0.00016698,0.000510154,3.64838e-05,0.391243,0.000328617,0.0156839,1399,1744,4.62077,-15.6675
182,-720,4.60986,15.6299,0.000505524,-0.000351942,5.53171e-05,0.000509078,-0.000355496,0.0641578,0.000501781,0.0153161,1406,1744,4.60984,-15.6299
189,-720,4.60364,15.5723,0.00059025,-0.000533757,-9.51341e-05,0.000598246,-0.000541752,-0.0838435,0.000658448,0.0127297,1413,1744,4.60359,-15.5723
196,-720,4.61597,15.5079,0.000722867,-0.000899344,-0.000263606,0.000764627,-0.000941105,-0.157114,0.00098656,0.0145482,1420,1744,4.61596,-15.5079
203,-720,4.61255,15.4436,-0.000105397,-0.00114716,-0.000132026,-8.89248e-05,-0.00116364,-0.124119,0.00074788,0.0177816,1427,1744,4.61255,-15.4436
210,-720,4.6084,15.386,-0.00140705,-0.0013617,8.41152e-05,-0.00129726,-0.00147149,0.917038,0.000928382,0.0150763,1434,1744,4.60838,-15.3859
217,-720,4.604,15.3116,-0.00327973,-0.0017262,0.00029638,-0.00167158,-0.00333436,1.38854,0.00192509,0.0127354,1441,1744,4.60404,-15.3116
224,-720,4.60681,15.2476,-0.00494086,-0.00205297,0.000461635,-0.00198097,-0.00501286,1.41608,0.0029153,0.00941365,1448,1744,4.60686,-15.2475
231,-720,4.59607,15.1769,-0.00802635,-0.00227245,0.000921717,-0.0021284,-0.0081704,1.41577,0.00489424,0.009232,1455,1744,4.59603,-15.1769
238,-720,4.58374,15.0977,-0.0117785,-0.00278986,0.00156412,-0.00252546,-0.0120429,1.40334,0.00733319,0.00783195,1462,1744,4.58372,-15.0977
245,-720,4.57434,15.0458,-0.017094,-0.00313029,0.00190222,-0.00287579,-0.0173485,1.4378,0.0107362,0.0105083,1469,1744,4.57431,-15.0457
252,-720,4.58606,14.967,-0.0236483,-0.00454793,0.00217794,-0.00430274,-0.0238934,1.45869,0.0147061,0.0113161,1476,1744,4.58606,-14.9671
259,-720,4.58484,14.8815,-0.0301237,-0.00580539,0.00265431,-0.00551905,-0.03041,1.46333,0.018707,0.00973583,1483,1744,4.58487,-14.8815
266,-720,4.5658,14.802,-0.0365215,-0.00659925,0.00303441,-0.00629464,-0.0368261,1.47074,0.0227447,0.0084075,1490,1744,4.56585,-14.802
273,-720,4.5575,14.6816,-0.0430517,-0.00765379,0.00337504,-0.00733487,-0.0433707,1.47658,0.0268054,0.0146983,1497,1744,4.55745,-14.6816
280,-720,4.51379,14.5723,-0.0494286,-0.00867866,0.00371909,-0.00834201,-0.0497652,1.48052,0.0307753,0.0196517,1504,1744,4.51381,-14.5723
287,-720,4.47949,14.4335,-0.0548771,-0.00980876,0.00401074,-0.00945461,-0.0552312,1.48273,0.0341089,0.0306193,1511,1744,4.47952,-14.4335
294,-720,4.5238,14.3088,-0.0593892,-0.0110251,0.00426318,-0.0106522,-0.0597622,1.48355,0.0368081,0.0374588,1518,1744,4.52385,-14.3088
301,-720,4.45667,14.2109,-0.0625827,-0.0120673,0.00456691,-0.0116578,-0.0629923,1.48136,0.0386987,0.0371644,1525,1744,4.45667,-14.211
308,-720,4.37317,14.0576,-0.0631918,-0.0126151,0.00610071,-0.0118897,-0.0639172,1.45243,0.0392532,0.0376015,1532,1744,4.37321,-14.0577
315,-720,4.23047,13.5549,-0.0615086,-0.015536,0.00806494,-0.0141622,-0.0628824,1.40208,0.0380888,0.0406257,1539,1744,4.2305,-13.5549
322,-720,4.30505,13.6953,-0.0570789,-0.0185723,0.00997458,-0.016142,-0.0595093,1.3318,0.035536,0.0480492,1546,1744,4.3051,-13.6953
329,-720,4.22925,13.6172,0,0,0,0,0,0,0,-1,1553,1744,4.22921,-13.6172
336,-720,4.61133,14.0112,0,0,0,0,0,0,0,-1,1560,1744,4.61127,-14.0113
343,-720,4.92786,14.7799,0,0,0,0,0,0,0,-1,1567,1744,4.92783,-14.78
350,-720,4.0741,11.1836,0,0,0,0,0,0,0,-1,1574,1744,4.07412,-11.1836
357,-720,3.94836,13.0232,0,0,0,0,0,0,0,-1,1581,1744,3.94832,-13.0232
364,-720,4.34363,15.1404,0,0,0,0,0,0,0,-1,1588,1744,4.34367,-15.1404
371,-720,4.60352,14.8754,0,0,0,0,0,0,0,-1,1595,1744,4.60355,-14.8753
378,-720,4.03125,13.9476,0,0,0,0,0,0,0,-1,1602,1744,4.03122,-13.9476
385,-720,4.19629,14.5133,0,0,0,0,0,0,0,-1,1609,1744,4.19627,-14.5133
392,-720,0.0194092,12.0704,0,0,0,0,0,0,0,-1,1616,1744,0.019362,-12.0704
399,-720,-0.525269,12.6698,0,0,0,0,0,0,0,-1,1623,1744,-0.525208,-12.6698
406,-720,0,0,0,0,0,0,0,0,0,-1,1630,1744,0,0
413,-720,0,0,0,0,0,0,0,0,0,-1,1637,1744,0,0
420,-720,0,0,0,0,0,0,0,0,0,-1,1644,1744,0,0
427,-720,0,0,0,0,0,0,0,0,0,-1,1651,1744,0,0
434,-720,0,0,0,0,0,0,0,0,0,-1,1658,1744,0,0
441,-720,0,0,0,0,0,0,0,0,0,-1,1665,1744,0,0
448,-720,0,0,0,0,0,0,0,0,0,-1,1672,1744,0,0
455,-720,0,0,0,0,0,0,0,0,0,-1,1679,1744,0,0
462,-720,0,0,0,0,0,0,0,0,0,-1,1686,1744,0,0
469,-720,0,0,0,0,0,0,0,0,0,-1,1693,1744,0,0
476,-720,0,0,0,0,0,0,0,0,0,-1,1700,1744,0,0
483,-720,0,0,0,0,0,0,0,0,0,-1,1707,1744,0,0
490,-720,0,0,0,0,0,0,0,0,0,-1,1714,1744,0,0
497,-720,0,0,0,0,0,0,0,0,0,-1,1721,1744,0,0
504,-720,0,0,0,0,0,0,0,0,0,-1,1728,1744,0,0
511,-720,0,0,0,0,0,0,0,0,0,-1,1735,1744,0,0
518,-720,0,0,0,0,0,0,0,0,0,-1,1742,1744,0,0
525,-720,0,0,0,0,0,0,0,0,0,-1,1749,1744,0,0
532,-720,0,0,0,0,0,0,0,0,0,-1,1756,1744,0,0
539,-720,0,0,0,0,0,0,0,0,0,-1,1763,1744,0,0
546,-720,0,0,0,0,0,0,0,0,0,-1,1770,1744,0,0
553,-720,0,0,0,0,0,0,0,0,0,-1,1777,1744,0,0
560,-720,0,0,0,0,0,0,0,0,0,-1,1784,1744,0,0
567,-720,0,0,0,0,0,0,0,0,0,-1,1791,1744,0,0
574,-720,0,0,0,0,0,0,0,0,0,-1,1798,1744,0,0
581,-720,0,0,0,0,0,0,0,0,0,-1,1805,1744,0,0
588,-720,0,0,0,0,0,0,0,0,0,-1,1812,1744,0,0
595,-720,0,0,0,0,0,0,0,0,0,-1,1819,1744,0,0
602,-720,0,0,0,0,0,0,0,0,0,-1,1826,1744,0,0
609,-720,0,0,0,0,0,0,0,0,0,-1,1833,1744,0,0
616,-720,0,0,0,0,0,0,0,0,0,-1,1840,1744,0,0
623,-720,0,0,0,0,0,0,0,0,0,-1,1847,1744,0,0
630,-720,0,0,0,0,0,0,0,0,0,-1,1854,1744,0,0
637,-720,0,0,0,0,0,0,0,0,0,-1,1861,1744,0,0
644,-720,0,0,0,0,0,0,0,0,0,-1,1868,1744,0,0
651,-720,0,0,0,0,0,0,0,0,0,-1,1875,1744,0,0
658,-720,0,0,0,0,0,0,0,0,0,-1,1882,1744,0,0
665,-720,0,0,0,0,0,0,0,0,0,-1,1889,1744,0,0
672,-720,0,0,0,0,0,0,0,0,0,-1,1896,1744,0,0
679,-720,0,0,0,0,0,0,0,0,0,-1,1903,1744,0,0
686,-720,0,0,0,0,0,0,0,0,0,-1,1910,1744,0,0
693,-720,0,0,0,0,0,0,0,0,0,-1,1917,1744,0,0
700,-720,0,0,0,0,0,0,0,0,0,-1,1924,1744,0,0
707,-720,0,0,0,0,0,0,0,0,0,-1,1931,1744,0,0
714,-720,0,0,0,0,0,0,0,0,0,-1,1938,1744,0,0
721,-720,0,0,0,0,0,0,0,0,0,-1,1945,1744,0,0
728,-720,0,0,0,0,0,0,0,0,0,-1,1952,1744,0,0
735,-720,0,0,0,0,0,0,0,0,0,-1,1959,1744,0,0
742,-720,0,0,0,0,0,0,0,0,0,-1,1966,1744,0,0
749,-720,0,0,0,0,0,0,0,0,0,-1,1973,1744,0,0
756,-720,0,0,0,0,0,0,0,0,0,-1,1980,1744,0,0
763,-720,0,0,0,0,0,0,0,0,0,-1,1987,1744,0,0
770,-720,0,0,0,0,0,0,0,0,0,-1,1994,1744,0,0
777,-720,0,0,0,0,0,0,0,0,0,-1,2001,1744,0,0
784,-720,0,0,0,0,0,0,0,0,0,-1,2008,1744,0,0
791,-720,0,0,0,0,0,0,0,0,0,-1,2015,1744,0,0
798,-720,0,0,0,0,0,0,0,0,0,-1,2022,1744,0,0
805,-720,0,0,0,0,0,0,0,0,0,-1,2029,1744,0,0
812,-720,0,0,0,0,0,0,0,0,0,-1,2036,1744,0,0
-700,-727,0,0,0,0,0,0,0,0,0,-1,524,1751,0,0
-693,-727,0,0,0,0,0,0,0,0,0,-1,531,1751,0,0
-686,-727,0,0,0,0,0,0,0,0,0,-1,538,1751,0,0
-679,-727,0,0,0,0,0,0,0,0,0,-1,545,1751,0,0
-672,-727,0,0,0,0,0,0,0,0,0,-1,552,1751,0,0
-665,-727,0,0,0,0,0,0,0,0,0,-1,559,1751,0,0
-658,-727,0,0,0,0,0,0,0,0,0,-1,566,1751,0,0
-651,-727,0,0,0,0,0,0,0,0,0,-1,573,1751,0,0
-644,-727,0,0,0,0,0,0,0,0,0,-1,580,1751,0,0
-637,-727,0,0,0,0,0,0,0,0,0,-1,587,1751,0,0
-630,-727,0,0,0,0,0,0,0,0,0,-1,594,1751,0,0
-623,-727,0,0,0,0,0,0,0,0,0,-1,601,1751,0,0
-616,-727,0,0,0,0,0,0,0,0,0,-1,608,1751,0,0
-609,-727,0,0,0,0,0,0,0,0,0,-1,615,1751,0,0
-602,-727,0,0,0,0,0,0,0,0,0,-1,622,1751,0,0
-595,-727,0,0,0,0,0,0,0,0,0,-1,629,1751,0,0
-588,-727,0,0,0,0,0,0,0,0,0,-1,636,1751,0,0
-581,-727,0,0,0,0,0,0,0,0,0,-1,643,1751,0,0
-574,-727,0,0,0,0,0,0,0,0,0,-1,650,1751,0,0
-567,-727,0,0,0,0,0,0,0,0,0,-1,657,1751,0,0
-560,-727,0,0,0,0,0,0,0,0,0,-1,664,1751,0,0
-553,-727,0,0,0,0,0,0,0,0,0,-1,671,1751,0,0
-546,-727,0,0,0,0,0,0,0,0,0,-1,678,1751,0,0
-539,-727,0,0,0,0,0,0,0,0,0,-1,685,1751,0,0
-532,-727,0,0,0,0,0,0,0,0,0,-1,692,1751,0,0
-525,-727,0,0,0,0,0,0,0,0,0,-1,699,1751,0,0
-518,-727,0,0,0,0,0,0,0,0,0,-1,706,1751,0,0
-511,-727,0,0,0,0,0,0,0,0,0,-1,713,1751,0,0
-504,-727,0,0,0,0,0,0,0,0,0,-1,720,1751,0,0
-497,-727,0,0,0,0,0,0,0,0,0,-1,727,1751,0,0
-490,-727,0,0,0,0,0,0,0,0,0,-1,734,1751,0,0
-483,-727,0,0,0,0,0,0,0,0,0,-1,741,1751,0,0
-476,-727,0,0,0,0,0,0,0,0,0,-1,748,1751,0,0
-469,-727,0,0,0,0,0,0,0,0,0,-1,755,1751,0,0
-462,-727,0,0,0,0,0,0,0,0,0,-1,762,1751,0,0
-455,-727,0,0,0,0,0,0,0,0,0,-1,769,1751,0,0
-448,-727,0,0,0,0,0,0,0,0,0,-1,776,1751,0,0
-441,-727,0,0,0,0,0,0,0,0,0,-1,783,1751,0,0
-434,-727,0,0,0,0,0,0,0,0,0,-1,790,1751,0,0
-427,-727,0,0,0,0,0,0,0,0,0,-1,797,1751,0,0
-420,-727,0,0,0,0,0,0,0,0,0,-1,804,1751,0,0
-413,-727,0,0,0,0,0,0,0,0,0,-1,811,1751,0,0
-406,-727,0,0,0,0,0,0,0,0,0,-1,818,1751,0,0
-399,-727,0,0,0,0,0,0,0,0,0,-1,825,1751,0,0
-392,-727,0,0,0,0,0,0,0,0,0,-1,832,1751,0,0
-385,-727,0,0,0,0,0,0,0,0,0,-1,839,1751,0,0
-378,-727,0,0,0,0,0,0,0,0,0,-1,846,1751,0,0
-371,-727,0,0,0,0,0,0,0,0,0,-1,853,1751,0,0
-364,-727,0,0,0,0,0,0,0,0,0,-1,860,1751,0,0
-357,-727,0,0,0,0,0,0,0,0,0,-1,867,1751,0,0
-350,-727,0,0,0,0,0,0,0,0,0,-1,874,1751,0,0
-343,-727,0,0,0,0,0,0,0,0,0,-1,881,1751,0,0
-336,-727,0,0,0,0,0,0,0,0,0,-1,888,1751,0,0
-329,-727,0,0,0,0,0,0,0,0,0,-1,895,1751,0,0
-322,-727,0,0,0,0,0,0,0,0,0,-1,902,1751,0,0
-315,-727,0,0,0,0,0,0,0,0,0,-1,909,1751,0,0
-308,-727,0,0,0,0,0,0,0,0,0,-1,916,1751,0,0
-301,-727,0,0,0,0,0,0,0,0,0,-1,923,1751,0,0
-294,-727,0,0,0,0,0,0,0,0,0,-1,930,1751,0,0
-287,-727,0,0,0,0,0,0,0,0,0,-1,937,1751,0,0
-280,-727,0,0,0,0,0,0,0,0,0,-1,944,1751,0,0
-273,-727,0,0,0,0,0,0,0,0,0,-1,951,1751,0,0
-266,-727,4.24805,7.61145,0,0,0,0,0,0,0,-1,958,1751,4.24802,-7.6115
-259,-727,3.65228,5.4082,0,0,0,0,0,0,0,-1,965,1751,3.65229,-5.40818
-252,-727,7.05829,12.9366,0,0,0,0,0,0,0,-1,972,1751,7.0583,-12.9366
-245,-727,5.67279,14.0586,0,0,0,0,0,0,0,-1,979,1751,5.67278,-14.0586
-238,-727,4.28748,13.7914,0,0,0,0,0,0,0,-1,986,1751,4.28745,-13.7914
-231,-727,2.14203,13.4685,0,0,0,0,0,0,0,-1,993,1751,2.14203,-13.4685
-224,-727,3.11902,12.2279,0,0,0,0,0,0,0,-1,1000,1751,3.11904,-12.2279
-217,-727,4.15839,11.0604,0,0,0,0,0,0,0,-1,1007,1751,4.15839,-11.0605
-210,-727,2.78741,11.5624,0,0,0,0,0,0,0,-1,1014,1751,2.78739,-11.5624
-203,-727,2.81818,11.854,0,0,0,0,0,0,0,-1,1021,1751,2.81818,-11.854
-196,-727,4.10425,13.3547,0,0,0,0,0,0,0,-1,1028,1751,4.1043,-13.3548
-189,-727,4.22009,12.8853,0,0,0,0,0,0,0,-1,1035,1751,4.22003,-12.8853
-182,-727,4.85034,13.4353,0,0,0,0,0,0,0,-1,1042,1751,4.85038,-13.4353
-175,-727,4.77002,13.8168,0,0,0,0,0,0,0,-1,1049,1751,4.76997,-13.8167
-168,-727,4.57336,13.9338,0,0,0,0,0,0,0,-1,1056,1751,4.57332,-13.9338
-161,-727,4.68237,13.4845,0,0,0,0,0,0,0,-1,1063,1751,4.68241,-13.4845
-154,-727,4.73157,13.7992,-0.000729512,-0.00054069,0.0055745,0.0049402,-0.0062104,0.793866,0.00645171,0.0459491,1070,1751,4.73162,-13.7992
-147,-727,4.71436,13.9159,-0.000228723,-0.00252822,0.00518222,0.00392976,-0.00668671,0.676235,0.00619793,0.0367317,1077,1751,4.71441,-13.9158
-140,-727,4.63525,14.0685,0.000305387,-0.00447971,0.00475619,0.0032369,-0.00741123,0.55236,0.0063032,0.0256907,1084,1751,4.63527,-14.0684
-133,-727,4.68347,14.1838,0.000782251,-0.00608542,0.00424988,0.00281218,-0.00811535,0.445603,0.00655198,0.0197053,1091,1751,4.68352,-14.1839
-126,-727,4.6106,14.3513,0.00115323,-0.00736984,0.00372941,0.00255467,-0.00877127,0.359453,0.00685952,0.0143046,1098,1751,4.61056,-14.3513
-119,-727,4.61658,14.504,0.0014372,-0.00823425,0.00325724,0.00243189,-0.00922895,0.296386,0.00710341,0.0121976,1105,1751,4.61656,-14.504
-112,-727,4.62488,14.5875,0.00166465,-0.00868115,0.0027732,0.00236112,-0.00937762,0.246055,0.00716958,0.0138775,1112,1751,4.62484,-14.5876
-105,-727,4.59302,14.6881,0.00169353,-0.00867714,0.00230925,0.00218449,-0.0091681,0.209487,0.00695553,0.0138015,1119,1751,4.59302,-14.6881
-98,-727,4.59094,14.7853,0.00156284,-0.00827518,0.0019202,0.00192435,-0.00863669,0.186086,0.00649497,0.0105231,1126,1751,4.59098,-14.7852
-91,-727,4.60083,14.8629,0.00133026,-0.00773995,0.00138156,0.00153602,-0.00794572,0.147853,0.00587646,0.00936901,1133,1751,4.6008,-14.8629
-84,-727,4.58521,14.9449,0.00110472,-0.00635876,0.00104443,0.00124812,-0.00650216,0.136447,0.00480515,0.0101089,1140,1751,4.58515,-14.945
-77,-727,4.58521,15.0475,0.000969933,-0.00494792,0.000860009,0.00109238,-0.00507036,0.141428,0.00379711,0.0122557,1147,1751,4.58526,-15.0475
-70,-727,4.59009,15.1569,0.000757368,-0.00364767,0.000659865,0.00085409,-0.00374439,0.145543,0.00282434,0.0131248,1154,1751,4.5901,-15.1568
-63,-727,4.5813,15.2197,0.000435664,-0.00174669,0.000290548,0.000473683,-0.00178471,0.130116,0.00137517,0.0104942,1161,1751,4.58131,-15.2198
-56,-727,4.57178,15.2948,-0.000455581,-0.000347959,-8.7016e-05,-0.00029946,-0.00050408,-1.06232,0.000292743,0.0103808,1168,1751,4.57181,-15.2948
-49,-727,4.54846,15.3617,-0.00158015,0.000260258,-0.000259902,0.000296257,-0.00161615,-1.43316,0.00118856,0.0127585,1175,1751,4.54847,-15.3618
-42,-727,4.56006,15.4185,-0.00158359,-0.000329123,-0.000236683,-0.000285953,-0.00162676,-1.39038,0.00100287,0.0158003,1182,1751,4.56004,-15.4184
-35,-727,4.57385,15.4746,-0.00140542,-0.00078939,-0.000265654,-0.000690655,-0.00150415,-1.21495,0.000869388,0.0145521,1189,1751,4.57391,-15.4746
-28,-727,4.55334,15.5123,-0.00131919,-0.00127365,-0.000269597,-0.00102586,-0.00156697,-0.827527,0.000919008,0.00891253,1196,1751,4.55332,-15.5124
-21,-727,4.53687,15.5848,-0.00125972,-0.00177778,-0.000168817,-0.00120957,-0.00182794,-0.288795,0.0010736,0.0102563,1203,1751,4.53688,-15.5848
-14,-727,4.5415,15.6426,-0.00114342,-0.00241066,5.34373e-05,-0.00114117,-0.0024129,0.0420687,0.00139377,0.0118736,1210,1751,4.54156,-15.6426
-7,-727,4.56091,15.6914,-0.00105497,-0.00296988,0.000380565,-0.00098211,-0.00304274,0.189164,0.00179314,0.0155235,1217,1751,4.56085,-15.6914
0,-727,4.57849,15.7605,-0.000990619,-0.00333816,0.000711967,-0.000791569,-0.00353721,0.272616,0.00214357,0.0148513,1224,1751,4.57852,-15.7605
7,-727,4.56494,15.769,-0.000904169,-0.00369382,0.000991107,-0.000587904,-0.00401009,0.308889,0.00250057,0.0146302,1231,1751,4.56493,-15.7691
14,-727,4.56274,15.7894,-0.00080347,-0.00401506,0.00120358,-0.000402482,-0.00441605,0.321598,0.00281947,0.0145057,1238,1751,4.56276,-15.7894
21,-727,4.5542,15.83,-0.000649834,-0.00418333,0.00133473,-0.000202333,-0.00463083,0.323497,0.00302204,0.0122145,1245,1751,4.55421,-15.8299
28,-727,4.5614,15.8478,-0.000456708,-0.00416349,0.00133805,-2.41802e-05,-0.00459602,0.312651,0.00305599,0.0113609,1252,1751,4.56137,-15.8478
35,-727,4.57837,15.8719,-0.000216773,-0.00404863,0.00128788,0.000175854,-0.00444125,0.295911,0.00302116,0.0119959,1259,1751,4.57841,-15.872
42,-727,4.55884,15.8859,5.58408e-05,-0.00382645,0.00120614,0.000400042,-0.00417065,0.277986,0.00292292,0.0124411,1266,1751,4.55889,-15.8859
49,-727,4.53259,15.8992,0.000335473,-0.00358603,0.000938075,0.00054832,-0.00379887,0.22312,0.00273375,0.0114799,1273,1751,4.53257,-15.8991
56,-727,4.53564,15.9624,0.000599934,-0.00329926,0.000711122,0.000725577,-0.0034249,0.174879,0.00255964,0.0101703,1280,1751,4.53566,-15.9623
63,-727,4.57288,15.9669,0.000807693,-0.00282068,0.000502548,0.000876012,-0.002889,0.135117,0.00227494,0.0122204,1287,1751,4.57293,-15.967
70,-727,4.6001,15.954,0.000854039,-0.00226377,0.000318387,0.00088622,-0.00229595,0.100733,0.00189637,0.0138923,1294,1751,4.60007,-15.954
77,-727,4.5907,15.9642,0.000943052,-0.00173677,0.00018996,0.000956451,-0.00175017,0.0704161,0.00158491,0.0154524,1301,1751,4.59075,-15.9642
84,-727,4.56812,15.9401,0.000995999,-0.00131636,8.97706e-05,0.000999479,-0.00131984,0.0387444,0.00134331,0.0162076,1308,1751,4.56815,-15.9401
91,-727,4.57043,15.9102,0.000962549,-0.000828956,2.34793e-05,0.000962857,-0.000829263,0.0131029,0.00103564,0.0169517,1315,1751,4.5704,-15.9101
98,-727,4.56946,15.9479,0.000846617,-0.000342594,4.54576e-05,0.000848352,-0.000344329,0.0381508,0.000708794,0.0142511,1322,1751,4.56951,-15.9479
105,-727,4.56799,15.9659,0.000704484,-9.37319e-05,9.71633e-05,0.000716141,-0.000105389,0.119403,0.000516156,0.01321,1329,1751,4.56794,-15.966
112,-727,4.57654,15.9479,0.000551408,0.000178265,0.000217464,0.000651366,7.83064e-05,0.430854,0.000410638,0.011582,1336,1751,4.57657,-15.9479
119,-727,4.58557,15.9213,0.000378936,0.000328988,0.000317542,0.000672484,3.54395e-05,0.746155,0.000436989,0.00895485,1343,1751,4.58562,-15.9213
126,-727,4.6012,15.9015,0.000205798,0.000297675,0.000414793,0.000669066,-0.000165593,0.840549,0.000510278,0.0102674,1350,1751,4.60126,-15.9015
133,-727,4.59741,15.8988,1.70693e-05,0.000194858,0.000489388,0.000603359,-0.000391432,0.875241,0.000578671,0.0152623,1357,1751,4.59742,-15.8988
140,-727,4.61267,15.9088,-0.000153085,0.000110945,0.000487539,0.000484027,-0.000526166,0.917617,0.000583404,0.0218864,1364,1751,4.61269,-15.9088
147,-727,4.60828,15.8558,-0.000300772,4.12717e-06,0.000483219,0.000358374,-0.000655019,0.9382,0.00059338,0.0187529,1371,1751,4.60829,-15.8558
154,-727,4.59204,15.781,-0.000443761,-5.47508e-05,0.000467166,0.000256784,-0.000755295,0.982659,0.000607493,0.0115408,1378,1751,4.5921,-15.781
161,-727,4.56689,15.762,-0.000505872,6.29289e-05,0.000371172,0.000246131,-0.000689074,1.1123,0.000559764,0.00916619,1385,1751,4.56687,-15.762
168,-727,4.55298,15.7233,-0.000222597,0.000131074,0.000379092,0.000372547,-0.00046407,1.00363,0.000483983,0.0116541,1392,1751,4.55294,-15.7232
175,-727,4.58899,15.673,0.000104478,-0.000284797,0.000120855,0.000138947,-0.000319266,0.277832,0.000271291,0.0166542,1399,1751,4.58897,-15.673
182,-727,4.60669,15.6317,0.000342199,-0.000978335,-0.000191331,0.000369362,-0.0010055,-0.141026,0.00082161,0.0187612,1406,1751,4.60668,-15.6317
189,-727,4.56006,15.5601,0.000654356,-0.00142585,-0.000314651,0.000700908,-0.0014724,-0.146883,0.00128084,0.0114723,1413,1751,4.56005,-15.5601
196,-727,4.55835,15.5021,0.000978177,-0.00212209,-0.000433194,0.00103757,-0.00218149,-0.136252,0.00189723,0.0135335,1420,1751,4.55831,-15.5021
203,-727,4.54993,15.4443,-0.000731934,-0.00239634,-2.74299e-05,-0.000731482,-0.00239679,-0.0164744,0.00141837,0.0174367,1427,1751,4.54993,-15.4443
210,-727,4.53723,15.3893,-0.00319956,-0.00252654,0.000478344,-0.0022782,-0.0034479,1.09193,0.00202465,0.0164168,1434,1751,4.53721,-15.3893
217,-727,4.52661,15.3179,-0.00646478,-0.00282837,0.000967613,-0.00258693,-0.00670622,1.32627,0.00390539,0.011312,1441,1751,4.52665,-15.3179
224,-727,4.53442,15.2329,-0.00919229,-0.00306049,0.00131347,-0.00279098,-0.0094618,1.36842,0.00561377,0.0119117,1448,1751,4.53446,-15.2329
231,-727,4.52454,15.1573,-0.0141018,-0.00313307,0.00209139,-0.00274784,-0.014487,1.38864,0.00888483,0.00955806,1455,1751,4.52448,-15.1574
238,-727,4.52527,15.0791,-0.0197847,-0.00377217,0.00308158,-0.0031996,-0.0203573,1.38709,0.0126407,0.00963814,1462,1751,4.52527,-15.0791
245,-727,4.52173,15.019,-0.0272054,-0.00413341,0.00361348,-0.00358071,-0.0277581,1.41902,0.0174348,0.00982782,1469,1751,4.52175,-15.0191
252,-727,4.50647,14.9407,-0.0360466,-0.00606007,0.00405888,-0.00552038,-0.0365863,1.43861,0.0227748,0.0110843,1476,1751,4.50647,-14.9406
259,-727,4.51526,14.8535,-0.0446349,-0.00785863,0.00475358,-0.00725413,-0.0452394,1.44431,0.0280559,0.0147939,1483,1751,4.51524,-14.8535
266,-727,4.56311,14.8037,-0.0530293,-0.00918585,0.00527929,-0.00855911,-0.053656,1.45263,0.0332865,0.0220894,1490,1751,4.56311,-14.8037
273,-727,4.67908,14.7382,-0.0615142,-0.0109339,0.00573478,-0.0102919,-0.0621562,1.4593,0.0384685,0.0383339,1497,1751,4.67908,-14.7381
280,-727,4.57239,14.6416,0,0,0,0,0,0,0,-1,1504,1751,4.5724,-14.6416
287,-727,4.29065,14.4097,0,0,0,0,0,0,0,-1,1511,1751,4.29067,-14.4096
294,-727,4.3739,14.25,0,0,0,0,0,0,0,-1,1518,1751,4.37385,-14.25
301,-727,4.35327,14.1803,0,0,0,0,0,0,0,-1,1525,1751,4.35323,-14.1803
308,-727,4.03186,12.533,0,0,0,0,0,0,0,-1,1532,1751,4.03189,-12.533
315,-727,3.90051,12.8354,0,0,0,0,0,0,0,-1,1539,1751,3.9005,-12.8354
322,-727,4.02625,13.3643,0,0,0,0,0,0,0,-1,1546,1751,4.02627,-13.3643
329,-727,6.61853,11.6267,0,0,0,0,0,0,0,-1,1553,1751,6.61859,-11.6267
336,-727,3.34875,7.61792,0,0,0,0,0,0,0,-1,1560,1751,3.34872,-7.61791
343,-727,2.41699,8.72095,0,0,0,0,0,0,0,-1,1567,1751,2.41702,-8.72098
350,-727,3.89783,7.50195,0,0,0,0,0,0,0,-1,1574,1751,3.89782,-7.50193
357,-727,4.48462,10.2948,0,0,0,0,0,0,0,-1,1581,1751,4.48464,-10.2948
364,-727,4.47852,11.4702,0,0,0,0,0,0,0,-1,1588,1751,4.47846,-11.4703
371,-727,3.57446,12.9564,0,0,0,0,0,0,0,-1,1595,1751,3.57443,-12.9564
378,-727,3.19482,14.0498,0,0,0,0,0,0,0,-1,1602,1751,3.19486,-14.0498
385,-727,3.19275,14.7679,0,0,0,0,0,0,0,-1,1609,1751,3.19274,-14.768
392,-727,0,0,0,0,0,0,0,0,0,-1,1616,1751,0,0
399,-727,0,0,0,0,0,0,0,0,0,-1,1623,1751,0,0
406,-727,0,0,0,0,0,0,0,0,0,-1,1630,1751,0,0
413,-727,0,0,0,0,0,0,0,0,0,-1,1637,1751,0,0
420,-727,0,0,0,0,0,0,0,0,0,-1,1644,1751,0,0
427,-727,0,0,0,0,0,0,0,0,0,-1,1651,1751,0,0
434,-727,0,0,0,0,0,0,0,0,0,-1,1658,1751,0,0
441,-727,0,0,0,0,0,0,0,0,0,-1,1665,1751,0,0
448,-727,0,0,0,0,0,0,0,0,0,-1,1672,1751,0,0
455,-727,0,0,0,0,0,0,0,0,0,-1,1679,1751,0,0
462,-727,0,0,0,0,0,0,0,0,0,-1,1686,1751,0,0
469,-727,0,0,0,0,0,0,0,0,0,-1,1693,1751,0,0
476,-727,0,0,0,0,0,0,0,0,0,-1,1700,1751,0,0
483,-727,0,0,0,0,0,0,0,0,0,-1,1707,1751,0,0
490,-727,0,0,0,0,0,0,0,0,0,-1,1714,1751,0,0
497,-727,0,0,0,0,0,0,0,0,0,-1,1721,1751,0,0
504,-727,0,0,0,0,0,0,0,0,0,-1,1728,1751,0,0
511,-727,0,0,0,0,0,0,0,0,0,-1,1735,1751,0,0
518,-727,0,0,0,0,0,0,0,0,0,-1,1742,1751,0,0
525,-727,0,0,0,0,0,0,0,0,0,-1,1749,1751,0,0
532,-727,0,0,0,0,0,0,0,0,0,-1,1756,1751,0,0
539,-727,0,0,0,0,0,0,0,0,0,-1,1763,1751,0,0
546,-727,0,0,0,0,0,0,0,0,0,-1,1770,1751,0,0
553,-727,0,0,0,0,0,0,0,0,0,-1,1777,1751,0,0
560,-727,0,0,0,0,0,0,0,0,0,-1,1784,1751,0,0
567,-727,0,0,0,0,0,0,0,0,0,-1,1791,1751,0,0
574,-727,0,0,0,0,0,0,0,0,0,-1,1798,1751,0,0
581,-727,0,0,0,0,0,0,0,0,0,-1,1805,1751,0,0
588,-727,0,0,0,0,0,0,0,0,0,-1,1812,1751,0,0
595,-727,0,0,0,0,0,0,0,0,0,-1,1819,1751,0,0
602,-727,0,0,0,0,0,0,0,0,0,-1,1826,1751,0,0
609,-727,0,0,0,0,0,0,0,0,0,-1,1833,1751,0,0
616,-727,0,0,0,0,0,0,0,0,0,-1,1840,1751,0,0
623,-727,0,0,0,0,0,0,0,0,0,-1,1847,1751,0,0
630,-727,0,0,0,0,0,0,0,0,0,-1,1854,1751,0,0
637,-727,0,0,0,0,0,0,0,0,0,-1,1861,1751,0,0
644,-727,0,0,0,0,0,0,0,0,0,-1,1868,1751,0,0
651,-727,0,0,0,0,0,0,0,0,0,-1,1875,1751,0,0
658,-727,0,0,0,0,0,0,0,0,0,-1,1882,1751,0,0
665,-727,0,0,0,0,0,0,0,0,0,-1,1889,1751,0,0
672,-727,0,0,0,0,0,0,0,0,0,-1,1896,1751,0,0
679,-727,0,0,0,0,0,0,0,0,0,-1,1903,1751,0,0
686,-727,0,0,0,0,0,0,0,0,0,-1,1910,1751,0,0
693,-727,0,0,0,0,0,0,0,0,0,-1,1917,1751,0,0
700,-727,0,0,0,0,0,0,0,0,0,-1,1924,1751,0,0
707,-727,0,0,0,0,0,0,0,0,0,-1,1931,1751,0,0
714,-727,0,0,0,0,0,0,0,0,0,-1,1938,1751,0,0
721,-727,0,0,0,0,0,0,0,0,0,-1,1945,1751,0,0
728,-727,0,0,0,0,0,0,0,0,0,-1,1952,1751,0,0
735,-727,0,0,0,0,0,0,0,0,0,-1,1959,1751,0,0
742,-727,0,0,0,0,0,0,0,0,0,-1,1966,1751,0,0
749,-727,0,0,0,0,0,0,0,0,0,-1,1973,1751,0,0
756,-727,0,0,0,0,0,0,0,0,0,-1,1980,1751,0,0
763,-727,0,0,0,0,0,0,0,0,0,-1,1987,1751,0,0
770,-727,0,0,0,0,0,0,0,0,0,-1,1994,1751,0,0
777,-727,0,0,0,0,0,0,0,0,0,-1,2001,1751,0,0
784,-727,0,0,0,0,0,0,0,0,0,-1,2008,1751,0,0
791,-727,0,0,0,0,0,0,0,0,0,-1,2015,1751,0,0
798,-727,0,0,0,0,0,0,0,0,0,-1,2022,1751,0,0
805,-727,0,0,0,0,0,0,0,0,0,-1,2029,1751,0,0
812,-727,0,0,0,0,0,0,0,0,0,-1,2036,1751,0,0
-700,-734,0,0,0,0,0,0,0,0,0,-1,524,1758,0,0
-693,-734,0,0,0,0,0,0,0,0,0,-1,531,1758,0,0
-686,-734,0,0,0,0,0,0,0,0,0,-1,538,1758,0,0
-679,-734,0,0,0,0,0,0,0,0,0,-1,545,1758,0,0
-672,-734,0,0,0,0,0,0,0,0,0,-1,552,1758,0,0
-665,-734,0,0,0,0,0,0,0,0,0,-1,559,1758,0,0
-658,-734,0,0,0,0,0,0,0,0,0,-1,566,1758,0,0
-651,-734,0,0,0,0,0,0,0,0,0,-1,573,1758,0,0
-644,-734,0,0,0,0,0,0,0,0,0,-1,580,1758,0,0
-637,-734,0,0,0,0,0,0,0,0,0,-1,587,1758,0,0
-630,-734,0,0,0,0,0,0,0,0,0,-1,594,1758,0,0
-623,-734,0,0,0,0,0,0,0,0,0,-1,601,1758,0,0
-616,-734,0,0,0,0,0,0,0,0,0,-1,608,1758,0,0
-609,-734,0,0,0,0,0,0,0,0,0,-1,615,1758,0,0
-602,-734,0,0,0,0,0,0,0,0,0,-1,622,1758,0,0
-595,-734,0,0,0,0,0,0,0,0,0,-1,629,1758,0,0
-588,-734,0,0,0,0,0,0,0,0,0,-1,636,1758,0,0
-581,-734,0,0,0,0,0,0,0,0,0,-1,643,1758,0,0
-574,-734,0,0,0,0,0,0,0,0,0,-1,650,1758,0,0
-567,-734,0,0,0,0,0,0,0,0,0,-1,657,1758,0,0
-560,-734,0,0,0,0,0,0,0,0,0,-1,664,1758,0,0
-553,-734,0,0,0,0,0,0,0,0,0,-1,671,1758,0,0
-546,-734,0,0,0,0,0,0,0,0,0,-1,678,1758,0,0
-539,-734,0,0,0,0,0,0,0,0,0,-1,685,1758,0,0
-532,-734,0,0,0,0,0,0,0,0,0,-1,692,1758,0,0
-525,-734,0,0,0,0,0,0,0,0,0,-1,699,1758,0,0
-518,-734,0,0,0,0,0,0,0,0,0,-1,706,1758,0,0
-511,-734,0,0,0,0,0,0,0,0,0,-1,713,1758,0,0
-504,-734,0,0,0,0,0,0,0,0,0,-1,720,1758,0,0
-497,-734,0,0,0,0,0,0,0,0,0,-1,727,1758,0,0
-490,-734,0,0,0,0,0,0,0,0,0,-1,734,1758,0,0
-483,-734,0,0,0,0,0,0,0,0,0,-1,741,1758,0,0
-476,-734,0,0,0,0,0,0,0,0,0,-1,748,1758,0,0
-469,-734,0,0,0,0,0,0,0,0,0,-1,755,1758,0,0
-462,-734,0,0,0,0,0,0,0,0,0,-1,762,1758,0,0
-455,-734,0,0,0,0,0,0,0,0,0,-1,769,1758,0,0
-448,-734,0,0,0,0,0,0,0,0,0,-1,776,1758,0,0
-441,-734,0,0,0,0,0,0,0,0,0,-1,783,1758,0,0
-434,-734,0,0,0,0,0,0,0,0,0,-1,790,1758,0,0
-427,-734,0,0,0,0,0,0,0,0,0,-1,797,1758,0,0
-420,-734,0,0,0,0,0,0,0,0,0,-1,804,1758,0,0
-413,-734,0,0,0,0,0,0,0,0,0,-1,811,1758,0,0
-406,-734,0,0,0,0,0,0,0,0,0,-1,818,1758,0,0
-399,-734,0,0,0,0,0,0,0,0,0,-1,825,1758,0,0
-392,-734,0,0,0,0,0,0,0,0,0,-1,832,1758,0,0
-385,-734,0,0,0,0,0,0,0,0,0,-1,839,1758,0,0
-378,-734,0,0,0,0,0,0,0,0,0,-1,846,1758,0,0
-371,-734,0,0,0,0,0,0,0,0,0,-1,853,1758,0,0
-364,-734,0,0,0,0,0,0,0,0,0,-1,860,1758,0,0
-357,-734,0,0,0,0,0,0,0,0,0,-1,867,1758,0,0
-350,-734,0,0,0,0,0,0,0,0,0,-1,874,1758,0,0
-343,-734,0,0,0,0,0,0,0,0,0,-1,881,1758,0,0
-336,-734,0,0,0,0,0,0,0,0,0,-1,888,1758,0,0
-329,-734,0,0,0,0,0,0,0,0,0,-1,895,1758,0,0
-322,-734,0,0,0,0,0,0,0,0,0,-1,902,1758,0,0
-315,-734,0,0,0,0,0,0,0,0,0,-1,909,1758,0,0
-308,-734,0,0,0,0,0,0,0,0,0,-1,916,1758,0,0
-301,-734,0,0,0,0,0,0,0,0,0,-1,923,1758,0,0
-294,-734,0,0,0,0,0,0,0,0,0,-1,930,1758,0,0
-287,-734,0,0,0,0,0,0,0,0,0,-1,937,1758,0,0
-280,-734,0,0,0,0,0,0,0,0,0,-1,944,1758,0,0
-273,-734,0,0,0,0,0,0,0,0,0,-1,951,1758,0,0
-266,-734,0,0,0,0,0,0,0,0,0,-1,958,1758,0,0
-259,-734,0,0,0,0,0,0,0,0,0,-1,965,1758,0,0
-252,-734,6.44257,12.0737,0,0,0,0,0,0,0,-1,972,1758,6.44255,-12.0737
-245,-734,5.9212,12.6437,0,0,0,0,0,0,0,-1,979,1758,5.9212,-12.6437
-238,-734,5.40942,12.9744,0,0,0,0,0,0,0,-1,986,1758,5.40944,-12.9743
-231,-734,1.7262,13.4697,0,0,0,0,0,0,0,-1,993,1758,1.7262,-13.4697
-224,-734,2.7373,12.3075,0.165302,0.0275421,-0.0480256,0.180392,0.0124524,-0.304433,0.116333,0.0468003,1000,1758,2.73732,-12.3075
-217,-734,3.72894,11.104,0.156225,0.0260724,-0.0471667,0.17152,0.0107768,-0.313586,0.110929,0.0451894,1007,1758,3.72896,-11.1039
-210,-734,4.80286,10.0284,0,0,0,0,0,0,0,-1,1014,1758,4.80287,-10.0285
-203,-734,1.61005,12.5138,0,0,0,0,0,0,0,-1,1021,1758,1.61005,-12.5138
-196,-734,1.82971,12.6195,0,0,0,0,0,0,0,-1,1028,1758,1.82974,-12.6195
-189,-734,5.8573,13.1915,0,0,0,0,0,0,0,-1,1035,1758,5.85734,-13.1915
-182,-734,4.66089,12.6896,0,0,0,0,0,0,0,-1,1042,1758,4.66084,-12.6896
-175,-734,4.53308,12.047,0,0,0,0,0,0,0,-1,1049,1758,4.53303,-12.0469
-168,-734,-0.634521,9.44177,0,0,0,0,0,0,0,-1,1056,1758,-0.63449,-9.4418
-161,-734,3.51257,9.94104,0,0,0,0,0,0,0,-1,1063,1758,3.51257,-9.94101
-154,-734,4.86658,13.7808,0,0,0,0,0,0,0,-1,1070,1758,4.86658,-13.7808
-147,-734,4.68445,13.459,-0.00308673,-0.00858354,0.00604631,0.000806514,-0.0124768,0.572079,0.00859931,0.0480856,1077,1758,4.6845,-13.459
-140,-734,4.83289,14.0548,-0.00252612,-0.0111511,0.0053978,7.03647e-05,-0.0137476,0.448353,0.00918858,0.0415032,1084,1758,4.83292,-14.0548
-133,-734,4.93591,14.1248,0,0,0,0,0,0,0,-1,1091,1758,4.93594,-14.1247
-126,-734,4.54553,14.3611,0,0,0,0,0,0,0,-1,1098,1758,4.54549,-14.3611
-119,-734,4.50061,14.4736,-0.000884799,-0.0157092,0.00337702,-0.000151756,-0.0164422,0.213752,0.0109113,0.032136,1105,1758,4.50066,-14.4736
-112,-734,4.65686,14.5541,-0.000451207,-0.0160703,0.00277487,2.71257e-05,-0.0165486,0.170703,0.0110414,0.0272819,1112,1758,4.65683,-14.5541
-105,-734,4.68884,14.6614,-0.000244418,-0.015806,0.00222747,6.81421e-05,-0.0161186,0.13941,0.0107685,0.0204479,1119,1758,4.68885,-14.6614
-98,-734,4.67957,14.755,-0.000201768,-0.014976,0.00177446,8.36467e-06,-0.0151861,0.117872,0.0101269,0.0170387,1126,1758,4.67961,-14.755
-91,-734,4.68445,14.8298,-0.000262073,-0.0139288,0.00118033,-0.000160881,-0.01403,0.0855216,0.00930016,0.0200294,1133,1758,4.68449,-14.8299
-84,-734,4.65625,14.9258,-0.000247352,-0.011805,0.000847164,-0.000185586,-0.0118668,0.0727805,0.00785005,0.0172605,1140,1758,4.65626,-14.9258
-77,-734,4.6593,15.0333,-8.48221e-05,-0.00950493,0.000723294,-2.961e-05,-0.00956014,0.0761868,0.00636358,0.0158049,1147,1758,4.65934,-15.0334
-70,-734,4.63916,15.0952,-6.08263e-05,-0.00726209,0.000591351,-1.25892e-05,-0.00731033,0.0813911,0.00486936,0.0126086,1154,1758,4.63915,-15.0953
-63,-734,4.62988,15.1882,-0.00047698,-0.00380242,7.86043e-05,-0.000475123,-0.00380428,0.0236197,0.00239358,0.0115403,1161,1758,4.62989,-15.1882
-56,-734,4.6322,15.2755,-0.00199956,-0.00151919,-0.000495646,-0.0012086,-0.00231015,-1.01102,0.00133424,0.0113221,1168,1758,4.63226,-15.2755
-49,-734,4.61963,15.3539,-0.00434724,-0.000759987,-0.00088116,-0.000555229,-0.004552,-1.34248,0.00286756,0.011422,1175,1758,4.61969,-15.3539
-42,-734,4.61426,15.4189,-0.00492086,-0.00168428,-0.000965361,-0.00141822,-0.00518692,-1.30186,0.00309547,0.0130975,1182,1758,4.61423,-15.4189
-35,-734,4.62463,15.4711,-0.00498698,-0.0023688,-0.00114229,-0.00194049,-0.00541528,-1.21207,0.00316807,0.0138729,1189,1758,4.62469,-15.471
-28,-734,4.63586,15.5106,-0.00506578,-0.00304449,-0.00130208,-0.00240686,-0.00570341,-1.11542,0.00330619,0.00983547,1196,1758,4.63582,-15.5106
-21,-734,4.66016,15.5647,-0.00498028,-0.00356349,-0.00125988,-0.00282651,-0.00571727,-1.04151,0.00330093,0.014665,1203,1758,4.6602,-15.5647
-14,-734,4.60913,15.6442,-0.00471784,-0.00414587,-0.00106201,-0.00333202,-0.00553169,-0.91692,0.00321595,0.0162039,1210,1758,4.60918,-15.6441
-7,-734,4.61902,15.6907,-0.00440253,-0.00469082,-0.000738492,-0.00379424,-0.0052991,-0.689015,0.00315318,0.0182925,1217,1758,4.61898,-15.6907
0,-734,4.61572,15.7306,-0.00406212,-0.00503764,-0.000391152,-0.00392466,-0.00517511,-0.33796,0.00311799,0.0164725,1224,1758,4.61576,-15.7306
7,-734,4.59106,15.7839,-0.00365935,-0.0053152,-6.15608e-05,-0.00365706,-0.00531749,-0.0371094,0.00314137,0.0126799,1231,1758,4.59101,-15.784
14,-734,4.58167,15.8256,-0.00322687,-0.0054912,0.000231051,-0.00320354,-0.00551453,0.100657,0.00319769,0.0135943,1238,1758,4.58168,-15.8255
21,-734,4.5658,15.8381,-0.00279032,-0.00544371,0.000472554,-0.00270868,-0.00552536,0.171089,0.00319027,0.012068,1245,1758,4.56582,-15.8382
28,-734,4.57422,15.8573,-0.00236439,-0.00511244,0.000565293,-0.00225265,-0.00522418,0.195154,0.00302569,0.0119474,1252,1758,4.57425,-15.8573
35,-734,4.5874,15.8966,-0.00194497,-0.00465961,0.000657753,-0.001794,-0.00481059,0.225624,0.00280714,0.0145203,1259,1758,4.58736,-15.8966
42,-734,4.58484,15.891,-0.0014679,-0.00405568,0.000736843,-0.0012728,-0.00425078,0.258838,0.00251915,0.0124234,1266,1758,4.58484,-15.891
49,-734,4.55029,15.9104,-0.00115267,-0.00331724,0.000631265,-0.000982028,-0.00348788,0.264015,0.0020768,0.0105486,1273,1758,4.55035,-15.9104
56,-734,4.54944,15.9565,-0.000909261,-0.00265554,0.000512567,-0.000769929,-0.00279487,0.265418,0.00166696,0.00986471,1280,1758,4.54944,-15.9566
63,-734,4.56641,15.9608,-0.000801633,-0.00174322,0.000364291,-0.00067715,-0.0018677,0.329275,0.00109181,0.0125849,1287,1758,4.56639,-15.9608
70,-734,4.55518,15.9631,-0.000779866,-0.000869656,0.000320231,-0.000501399,-0.00114812,0.715754,0.000664637,0.0125464,1294,1758,4.55522,-15.9632
77,-734,4.58594,15.9948,-0.000664658,-0.000277375,0.000429415,4.03379e-08,-0.000942073,0.997217,0.000628062,0.0162618,1301,1758,4.58599,-15.9948
84,-734,4.55981,15.9697,-0.000644944,0.000117799,0.000430456,0.000311525,-0.000838669,1.1479,0.000686919,0.0163659,1308,1758,4.55983,-15.9698
91,-734,4.55737,15.9459,-0.000648453,0.000536814,0.000466328,0.000698286,-0.000809926,1.23745,0.000871561,0.0179315,1315,1758,4.55737,-15.9459
98,-734,4.57703,15.9736,-0.000676883,0.000922965,0.000605586,0.00112634,-0.000880259,1.2468,0.00116141,0.0139476,1322,1758,4.57697,-15.9736
105,-734,4.58447,15.9717,-0.000673352,0.000959533,0.000771874,0.00126664,-0.000980461,1.19212,0.00130087,0.014643,1329,1758,4.58446,-15.9716
112,-734,4.58398,15.9457,-0.000662759,0.0010025,0.000996067,0.00146811,-0.00112837,1.13353,0.00150335,0.0128995,1336,1758,4.58393,-15.9457
119,-734,4.57935,15.9148,-0.00065944,0.000928284,0.00118309,0.00155918,-0.00129033,1.0809,0.0016476,0.0134236,1343,1758,4.57938,-15.9148
126,-734,4.58508,15.8918,-0.000646354,0.000725996,0.00134099,0.00154617,-0.00146653,1.02188,0.00173958,0.015658,1350,1758,4.58509,-15.8919
133,-734,4.56897,15.8645,-0.000695006,0.000482245,0.00146174,0.00146942,-0.00168218,0.976809,0.00182096,0.0147171,1357,1758,4.56896,-15.8645
140,-734,4.55688,15.835,-0.000782422,0.000341834,0.00142285,0.00130957,-0.00175016,0.973523,0.00177263,0.0195311,1364,1758,4.55689,-15.8349
147,-734,4.56238,15.8093,-0.00090945,0.000193811,0.00135704,0.00110705,-0.00182269,0.978445,0.00170823,0.0145148,1371,1758,4.56238,-15.8093
154,-734,4.54529,15.8053,-0.0010522,4.87072e-05,0.00123001,0.000845811,-0.00184931,0.995794,0.00159157,0.0106085,1378,1758,4.5453,-15.8053
161,-734,4.53662,15.7688,-0.00115638,0.00015131,0.00103437,0.00072116,-0.00172623,1.06725,0.00145217,0.00918065,1385,1758,4.53657,-15.7688
168,-734,4.49866,15.7179,-0.000637576,6.22772e-05,0.000978808,0.000751828,-0.00132713,0.95707,0.00121551,0.0134479,1392,1758,4.49866,-15.7179
175,-734,4.51501,15.6854,-7.52834e-05,-0.000719053,0.000406277,0.000121166,-0.000915503,0.45039,0.000654473,0.0164517,1399,1758,4.51498,-15.6854
182,-734,4.55884,15.6237,0.000292967,-0.00172383,-0.000358277,0.000354722,-0.00178558,-0.170692,0.00132456,0.0148657,1406,1758,4.55889,-15.6237
189,-734,4.51868,15.5598,0.000841659,-0.00245865,-0.000452326,0.00090253,-0.00251953,-0.13377,0.00204793,0.0106179,1413,1758,4.51867,-15.5598
196,-734,4.4989,15.5115,0.00138581,-0.00356815,-0.000513878,0.00143856,-0.0036209,-0.10228,0.0030103,0.0114405,1420,1758,4.49886,-15.5114
203,-734,4.50208,15.4514,-0.00159464,-0.0038262,0.000267585,-0.001563,-0.00385784,0.117687,0.00224064,0.0124937,1427,1758,4.50202,-15.4514
210,-734,4.49194,15.3802,-0.00565179,-0.00378555,0.00117933,-0.00321483,-0.00622251,1.12008,0.00359323,0.0131872,1434,1758,4.49191,-15.3802
217,-734,4.47119,15.3096,-0.0107152,-0.00395701,0.00202017,-0.00339918,-0.011273,1.30138,0.00667722,0.0105056,1441,1758,4.47117,-15.3096
224,-734,4.48828,15.2266,-0.0148368,-0.00403946,0.00262367,-0.00343569,-0.0154406,1.34461,0.00936106,0.0116766,1448,1758,4.4883,-15.2266
231,-734,4.47925,15.1697,-0.0219765,-0.00390599,0.00380695,-0.00313672,-0.0227458,1.37141,0.014234,0.013183,1455,1758,4.47924,-15.1697
238,-734,4.49597,15.0997,-0.0299385,-0.00469078,0.00521818,-0.0036548,-0.0309745,1.37481,0.0195456,0.0174389,1462,1758,4.49603,-15.0997
245,-734,4.52441,14.9723,-0.0396493,-0.00506273,0.00603187,-0.00404096,-0.040671,1.40299,0.0258724,0.0237649,1469,1758,4.52439,-14.9723
252,-734,4.48877,14.8738,-0.0508992,-0.00749533,0.00672922,-0.00647598,-0.0519185,1.42046,0.0326683,0.0285348,1476,1758,4.48874,-14.8737
259,-734,4.54199,14.9097,-0.0617836,-0.00992625,0.00769591,-0.00880824,-0.0629016,1.42653,0.0393285,0.0371462,1483,1758,4.54201,-14.9097
266,-734,4.51831,14.9862,-0.0724178,-0.011976,0.0084128,-0.0108268,-0.0735669,1.43504,0.0458636,0.0485888,1490,1758,4.5183,-14.9862
273,-734,4.50281,15.1478,0,0,0,0,0,0,0,-1,1497,1758,4.50278,-15.1479
280,-734,16.6191,7.38013,0,0,0,0,0,0,0,-1,1504,1758,16.6192,-7.38011
287,-734,14.1356,7.42139,0,0,0,0,0,0,0,-1,1511,1758,14.1356,-7.42135
294,-734,12.1967,6.48743,-0.110667,-0.0241471,0.0104531,-0.0229021,-0.111912,1.45225,0.0682668,0.0446775,1518,1758,12.1967,-6.48738
301,-734,10.1635,5.59741,-0.116932,-0.0275567,0.0109758,-0.0262286,-0.11826,1.45037,0.0717144,0.0447766,1525,1758,10.1634,-5.59746
308,-734,8.15198,5.06226,0,0,0,0,0,0,0,-1,1532,1758,8.15195,-5.06227
315,-734,3.35669,12.2948,0,0,0,0,0,0,0,-1,1539,1758,3.35673,-12.2948
322,-734,4.17163,11.5508,0,0,0,0,0,0,0,-1,1546,1758,4.17163,-11.5508
329,-734,5.45972,12.4125,0,0,0,0,0,0,0,-1,1553,1758,5.45969,-12.4125
336,-734,5.92188,13.8751,0,0,0,0,0,0,0,-1,1560,1758,5.92183,-13.8751
343,-734,5.54968,5.14221,0,0,0,0,0,0,0,-1,1567,1758,5.54973,-5.14225
350,-734,5.07397,6.73242,0,0,0,0,0,0,0,-1,1574,1758,5.07402,-6.73243
357,-734,5.05542,7.19189,0,0,0,0,0,0,0,-1,1581,1758,5.05541,-7.19184
364,-734,4.43896,10.4904,0,0,0,0,0,0,0,-1,1588,1758,4.43893,-10.4904
371,-734,4.22766,11.9165,0,0,0,0,0,0,0,-1,1595,1758,4.22769,-11.9165
378,-734,0,0,0,0,0,0,0,0,0,-1,1602,1758,0,0
385,-734,0,0,0,0,0,0,0,0,0,-1,1609,1758,0,0
392,-734,0,0,0,0,0,0,0,0,0,-1,1616,1758,0,0
399,-734,0,0,0,0,0,0,0,0,0,-1,1623,1758,0,0
406,-734,0,0,0,0,0,0,0,0,0,-1,1630,1758,0,0
413,-734,0,0,0,0,0,0,0,0,0,-1,1637,1758,0,0
420,-734,0,0,0,0,0,0,0,0,0,-1,1644,1758,0,0
427,-734,0,0,0,0,0,0,0,0,0,-1,1651,1758,0,0
434,-734,0,0,0,0,0,0,0,0,0,-1,1658,1758,0,0
441,-734,0,0,0,0,0,0,0,0,0,-1,1665,1758,0,0
448,-734,0,0,0,0,0,0,0,0,0,-1,1672,1758,0,0
455,-734,0,0,0,0,0,0,0,0,0,-1,1679,1758,0,0
462,-734,0,0,0,0,0,0,0,0,0,-1,1686,1758,0,0
469,-734,0,0,0,0,0,0,0,0,0,-1,1693,1758,0,0
476,-734,0,0,0,0,0,0,0,0,0,-1,1700,1758,0,0
483,-734,0,0,0,0,0,0,0,0,0,-1,1707,1758,0,0
490,-734,0,0,0,0,0,0,0,0,0,-1,1714,1758,0,0
497,-734,0,0,0,0,0,0,0,0,0,-1,1721,1758,0,0
504,-734,0,0,0,0,0,0,0,0,0,-1,1728,1758,0,0
511,-734,0,0,0,0,0,0,0,0,0,-1,1735,1758,0,0
518,-734,0,0,0,0,0,0,0,0,0,-1,1742,1758,0,0
525,-734,0,0,0,0,0,0,0,0,0,-1,1749,1758,0,0
532,-734,0,0,0,0,0,0,0,0,0,-1,1756,1758,0,0
539,-734,0,0,0,0,0,0,0,0,0,-1,1763,1758,0,0
546,-734,0,0,0,0,0,0,0,0,0,-1,1770,1758,0,0
553,-734,0,0,0,0,0,0,0,0,0,-1,1777,1758,0,0
560,-734,0,0,0,0,0,0,0,0,0,-1,1784,1758,0,0
567,-734,0,0,0,0,0,0,0,0,0,-1,1791,1758,0,0
574,-734,0,0,0,0,0,0,0,0,0,-1,1798,1758,0,0
581,-734,0,0,0,0,0,0,0,0,0,-1,1805,1758,0,0
588,-734,0,0,0,0,0,0,0,0,0,-1,1812,1758,0,0
595,-734,0,0,0,0,0,0,0,0,0,-1,1819,1758,0,0
602,-734,0,0,0,0,0,0,0,0,0,-1,1826,1758,0,0
609,-734,0,0,0,0,0,0,0,0,0,-1,1833,1758,0,0
616,-734,0,0,0,0,0,0,0,0,0,-1,1840,1758,0,0
623,-734,0,0,0,0,0,0,0,0,0,-1,1847,1758,0,0
630,-734,0,0,0,0,0,0,0,0,0,-1,1854,1758,0,0
637,-734,0,0,0,0,0,0,0,0,0,-1,1861,1758,0,0
644,-734,0,0,0,0,0,0,0,0,0,-1,1868,1758,0,0
651,-734,0,0,0,0,0,0,0,0,0,-1,1875,1758,0,0
658,-734,0,0,0,0,0,0,0,0,0,-1,1882,1758,0,0
665,-734,0,0,0,0,0,0,0,0,0,-1,1889,1758,0,0
672,-734,0,0,0,0,0,0,0,0,0,-1,1896,1758,0,0
679,-734,0,0,0,0,0,0,0,0,0,-1,1903,1758,0,0
686,-734,0,0,0,0,0,0,0,0,0,-1,1910,1758,0,0
693,-734,0,0,0,0,0,0,0,0,0,-1,1917,1758,0,0
700,-734,0,0,0,0,0,0,0,0,0,-1,1924,1758,0,0
707,-734,0,0,0,0,0,0,0,0,0,-1,1931,1758,0,0
714,-734,0,0,0,0,0,0,0,0,0,-1,1938,1758,0,0
721,-734,0,0,0,0,0,0,0,0,0,-1,1945,1758,0,0
728,-734,0,0,0,0,0,0,0,0,0,-1,1952,1758,0,0
735,-734,0,0,0,0,0,0,0,0,0,-1,1959,1758,0,0
742,-734,0,0,0,0,0,0,0,0,0,-1,1966,1758,0,0
749,-734,0,0,0,0,0,0,0,0,0,-1,1973,1758,0,0
756,-734,0,0,0,0,0,0,0,0,0,-1,1980,1758,0,0
763,-734,0,0,0,0,0,0,0,0,0,-1,1987,1758,0,0
770,-734,0,0,0,0,0,0,0,0,0,-1,1994,1758,0,0
777,-734,0,0,0,0,0,0,0,0,0,-1,2001,1758,0,0
784,-734,0,0,0,0,0,0,0,0,0,-1,2008,1758,0,0
791,-734,0,0,0,0,0,0,0,0,0,-1,2015,1758,0,0
798,-734,0,0,0,0,0,0,0,0,0,-1,2022,1758,0,0
805,-734,0,0,0,0,0,0,0,0,0,-1,2029,1758,0,0
812,-734,0,0,0,0,0,0,0,0,0,-1,2036,1758,0,0
-700,-741,0,0,0,0,0,0,0,0,0,-1,524,1765,0,0
-693,-741,0,0,0,0,0,0,0,0,0,-1,531,1765,0,0
-686,-741,0,0,0,0,0,0,0,0,0,-1,538,1765,0,0
-679,-741,0,0,0,0,0,0,0,0,0,-1,545,1765,0,0
-672,-741,0,0,0,0,0,0,0,0,0,-1,552,1765,0,0
-665,-741,0,0,0,0,0,0,0,0,0,-1,559,1765,0,0
-658,-741,0,0,0,0,0,0,0,0,0,-1,566,1765,0,0
-651,-741,0,0,0,0,0,0,0,0,0,-1,573,1765,0,0
-644,-741,0,0,0,0,0,0,0,0,0,-1,580,1765,0,0
-637,-741,0,0,0,0,0,0,0,0,0,-1,587,1765,0,0
-630,-741,0,0,0,0,0,0,0,0,0,-1,594,1765,0,0
-623,-741,0,0,0,0,0,0,0,0,0,-1,601,1765,0,0
-616,-741,0,0,0,0,0,0,0,0,0,-1,608,1765,0,0
-609,-741,0,0,0,0,0,0,0,0,0,-1,615,1765,0,0
-602,-741,0,0,0,0,0,0,0,0,0,-1,622,1765,0,0
-595,-741,0,0,0,0,0,0,0,0,0,-1,629,1765,0,0
-588,-741,0,0,0,0,0,0,0,0,0,-1,636,1765,0,0
-581,-741,0,0,0,0,0,0,0,0,0,-1,643,1765,0,0
-574,-741,0,0,0,0,0,0,0,0,0,-1,650,1765,0,0
-567,-741,0,0,0,0,0,0,0,0,0,-1,657,1765,0,0
-560,-741,0,0,0,0,0,0,0,0,0,-1,664,1765,0,0
-553,-741,0,0,0,0,0,0,0,0,0,-1,671,1765,0,0
-546,-741,0,0,0,0,0,0,0,0,0,-1,678,1765,0,0
-539,-741,0,0,0,0,0,0,0,0,0,-1,685,1765,0,0
-532,-741,0,0,0,0,0,0,0,0,0,-1,692,1765,0,0
-525,-741,0,0,0,0,0,0,0,0,0,-1,699,1765,0,0
-518,-741,0,0,0,0,0,0,0,0,0,-1,706,1765,0,0
-511,-741,0,0,0,0,0,0,0,0,0,-1,713,1765,0,0
-504,-741,0,0,0,0,0,0,0,0,0,-1,720,1765,0,0
-497,-741,0,0,0,0,0,0,0,0,0,-1,727,1765,0,0
-490,-741,0,0,0,0,0,0,0,0,0,-1,734,1765,0,0
-483,-741,0,0,0,0,0,0,0,0,0,-1,741,1765,0,0
-476,-741,0,0,0,0,0,0,0,0,0,-1,748,1765,0,0
-469,-741,0,0,0,0,0,0,0,0,0,-1,755,1765,0,0
-462,-741,0,0,0,0,0,0,0,0,0,-1,762,1765,0,0
-455,-741,0,0,0,0,0,0,0,0,0,-1,769,1765,0,0
-448,-741,0,0,0,0,0,0,0,0,0,-1,776,1765,0,0
-441,-741,0,0,0,0,0,0,0,0,0,-1,783,1765,0,0
-434,-741,0,0,0,0,0,0,0,0,0,-1,790,1765,0,0
-427,-741,0,0,0,0,0,0,0,0,0,-1,797,1765,0,0
-420,-741,0,0,0,0,0,0,0,0,0,-1,804,1765,0,0
-413,-741,0,0,0,0,0,0,0,0,0,-1,811,1765,0,0
-406,-741,0,0,0,0,0,0,0,0,0,-1,818,1765,0,0
-399,-741,0,0,0,0,0,0,0,0,0,-1,825,1765,0,0
-392,-741,0,0,0,0,0,0,0,0,0,-1,832,1765,0,0
-385,-741,0,0,0,0,0,0,0,0,0,-1,839,1765,0,0
-378,-741,0,0,0,0,0,0,0,0,0,-1,846,1765,0,0
-371,-741,0,0,0,0,0,0,0,0,0,-1,853,1765,0,0
-364,-741,0,0,0,0,0,0,0,0,0,-1,860,1765,0,0
-357,-741,0,0,0,0,0,0,0,0,0,-1,867,1765,0,0
-350,-741,0,0,0,0,0,0,0,0,0,-1,874,1765,0,0
-343,-741,0,0,0,0,0,0,0,0,0,-1,881,1765,0,0
-336,-741,0,0,0,0,0,0,0,0,0,-1,888,1765,0,0
-329,-741,0,0,0,0,0,0,0,0,0,-1,895,1765,0,0
-322,-741,0,0,0,0,0,0,0,0,0,-1,902,1765,0,0
-315,-741,0,0,0,0,0,0,0,0,0,-1,909,1765,0,0
-308,-741,0,0,0,0,0,0,0,0,0,-1,916,1765,0,0
-301,-741,0,0,0,0,0,0,0,0,0,-1,923,1765,0,0
-294,-741,0,0,0,0,0,0,0,0,0,-1,930,1765,0,0
-287,-741,0,0,0,0,0,0,0,0,0,-1,937,1765,0,0
-280,-741,0,0,0,0,0,0,0,0,0,-1,944,1765,0,0
-273,-741,0,0,0,0,0,0,0,0,0,-1,951,1765,0,0
-266,-741,0,0,0,0,0,0,0,0,0,-1,958,1765,0,0
-259,-741,0,0,0,0,0,0,0,0,0,-1,965,1765,0,0
-252,-741,0,0,0,0,0,0,0,0,0,-1,972,1765,0,0
-245,-741,0,0,0,0,0,0,0,0,0,-1,979,1765,0,0
-238,-741,-0.463745,11.9711,0,0,0,0,0,0,0,-1,986,1765,-0.463721,-11.971
-231,-741,0.793701,13.0378,0,0,0,0,0,0,0,-1,993,1765,0.793672,-13.0378
-224,-741,2.10309,12.1971,0.214764,0.0299759,-0.0620749,0.23368,0.0110598,-0.295791,0.152234,0.0452234,1000,1765,2.1031,-12.1971
-217,-741,3.67175,10.9446,0.203161,0.0268326,-0.0591256,0.221151,0.00884241,-0.295371,0.144577,0.0416374,1007,1765,3.67178,-10.9445
-210,-741,5.06232,10.7715,0,0,0,0,0,0,0,-1,1014,1765,5.06233,-10.7715
-203,-741,0.0250854,12.8517,0,0,0,0,0,0,0,-1,1021,1765,0.0250615,-12.8517
-196,-741,0.178589,13.0951,0,0,0,0,0,0,0,-1,1028,1765,0.178619,-13.0951
-189,-741,0.345947,13.1218,0,0,0,0,0,0,0,-1,1035,1765,0.345937,-13.1219
-182,-741,1.48218,11.8832,0,0,0,0,0,0,0,-1,1042,1765,1.48213,-11.8832
-175,-741,0.265747,10.8716,0,0,0,0,0,0,0,-1,1049,1765,0.26575,-10.8716
-168,-741,-0.978516,10.1857,0,0,0,0,0,0,0,-1,1056,1765,-0.978468,-10.1857
-161,-741,-2.14868,9.89905,0,0,0,0,0,0,0,-1,1063,1765,-2.14874,-9.89902
-154,-741,2.46143,9.75415,0,0,0,0,0,0,0,-1,1070,1765,2.46145,-9.75416
-147,-741,4.5166,13.2251,0,0,0,0,0,0,0,-1,1077,1765,4.51657,-13.2251
-140,-741,5.04688,14.1019,0,0,0,0,0,0,0,-1,1084,1765,5.04684,-14.1019
-133,-741,4.04541,14.8179,0,0,0,0,0,0,0,-1,1091,1765,4.04547,-14.8178
-126,-741,4.18335,14.5414,0,0,0,0,0,0,0,-1,1098,1765,4.18333,-14.5413
-119,-741,4.32422,14.6201,-0.00607661,-0.0271019,0.0026777,-0.00574094,-0.0274375,0.124705,0.0167101,0.0409846,1105,1765,4.3242,-14.6201
-112,-741,4.54712,14.7555,-0.00526413,-0.0272708,0.00199698,-0.00508439,-0.0274505,0.0897674,0.016863,0.0407688,1112,1765,4.54717,-14.7555
-105,-741,4.80591,14.6732,-0.00474448,-0.0266586,0.001406,-0.00465464,-0.0267485,0.0638107,0.0165011,0.0378637,1119,1765,4.80586,-14.6732
-98,-741,4.82239,14.7115,-0.00439271,-0.0252619,0.000935317,-0.00435087,-0.0253037,0.0446987,0.0156221,0.0410116,1126,1765,4.82233,-14.7115
-91,-741,4.90356,14.6039,0,0,0,0,0,0,0,-1,1133,1765,4.90359,-14.6039
-84,-741,4.7019,14.8179,0,0,0,0,0,0,0,-1,1140,1765,4.70188,-14.8178
-77,-741,4.73865,14.8225,0,0,0,0,0,0,0,-1,1147,1765,4.73862,-14.8225
-70,-741,4.66968,14.955,0,0,0,0,0,0,0,-1,1154,1765,4.66963,-14.955
-63,-741,4.63184,15.125,0,0,0,0,0,0,0,-1,1161,1765,4.63179,-15.125
-56,-741,4.69727,15.2373,0,0,0,0,0,0,0,-1,1168,1765,4.69729,-15.2373
-49,-741,4.672,15.3552,0,0,0,0,0,0,0,-1,1175,1765,4.67201,-15.3553
-42,-741,4.64807,15.4293,0,0,0,0,0,0,0,-1,1182,1765,4.6481,-15.4294
-35,-741,4.67126,15.459,-0.00902949,-0.00529131,-0.00229263,-0.00420241,-0.0101184,-1.12739,0.00586971,0.0199676,1189,1765,4.67126,-15.459
-28,-741,4.70007,15.5233,-0.00921378,-0.00625009,-0.00262848,-0.00471453,-0.0107494,-1.04207,0.00622173,0.0140156,1196,1765,4.70006,-15.5233
-21,-741,4.7262,15.58,-0.00904991,-0.00682154,-0.00267258,-0.0050402,-0.0108313,-0.982891,0.00625843,0.0175694,1203,1765,4.72624,-15.58
-14,-741,4.67053,15.6387,-0.00858908,-0.00735849,-0.00249933,-0.00539983,-0.0105477,-0.906091,0.00609032,0.0179735,1210,1765,4.67051,-15.6386
-7,-741,4.65271,15.6648,-0.00802817,-0.00785627,-0.00217556,-0.00576496,-0.0101195,-0.805141,0.00586137,0.0152059,1217,1765,4.65268,-15.6649
0,-741,4.64282,15.6954,-0.00743132,-0.00817906,-0.0017773,-0.00598899,-0.00962139,-0.681732,0.00561018,0.0142679,1224,1765,4.64282,-15.6954
7,-741,4.61865,15.7584,-0.00676412,-0.00835513,-0.00138933,-0.00595866,-0.00916058,-0.525392,0.0053681,0.0159139,1231,1765,4.61868,-15.7584
14,-741,4.62244,15.8174,-0.00610567,-0.00854775,-0.000988637,-0.00575562,-0.0088978,-0.340305,0.00521049,0.0159814,1238,1765,4.62242,-15.8174
21,-741,4.60315,15.8275,-0.00550559,-0.00837439,-0.000574978,-0.00539464,-0.00848534,-0.190619,0.00495884,0.0135731,1245,1765,4.60314,-15.8276
28,-741,4.57813,15.8693,-0.00502923,-0.00781461,-0.000321154,-0.00499268,-0.00785116,-0.113319,0.00458835,0.0141644,1252,1765,4.57816,-15.8693
35,-741,4.59229,15.8971,-0.00467108,-0.00707764,2.92289e-05,-0.00467072,-0.00707799,0.0121431,0.00415555,0.0148335,1259,1765,4.59233,-15.8971
42,-741,4.62256,15.9122,-0.00426186,-0.00616253,0.000374459,-0.00419075,-0.00623364,0.187675,0.00366952,0.0147193,1266,1765,4.62256,-15.9122
49,-741,4.58826,15.9291,-0.00409106,-0.00495948,0.000516282,-0.00385067,-0.00519987,0.435766,0.00311579,0.00967165,1273,1765,4.58824,-15.9291
56,-741,4.56848,15.9487,-0.00408664,-0.00384113,0.000637415,-0.00331476,-0.00461302,0.880525,0.00274684,0.00963569,1280,1765,4.56852,-15.9487
63,-741,4.5459,15.957,-0.00420569,-0.00229605,0.000675709,-0.00208114,-0.0044206,1.26287,0.00255369,0.0143677,1287,1765,4.54586,-15.9571
70,-741,4.53455,15.9685,-0.00432523,-0.00084731,0.000821851,-0.000662882,-0.00450966,1.35005,0.00281165,0.0158142,1294,1765,4.53453,-15.9685
77,-741,4.54968,15.9877,-0.00427676,0.000202285,0.00114811,0.00047943,-0.0045539,1.33393,0.00320771,0.0132159,1301,1765,4.5497,-15.9877
84,-741,4.54553,15.9902,-0.00432577,0.000960911,0.0012472,0.00124037,-0.00460524,1.35037,0.00355646,0.0161686,1308,1765,4.54557,-15.9902
91,-741,4.54358,15.9919,-0.00432195,0.00166697,0.00135626,0.00195979,-0.00461478,1.35816,0.00389763,0.0130308,1315,1765,4.5436,-15.9919
98,-741,4.55774,15.9806,-0.0042278,0.00225795,0.00155115,0.00260984,-0.00457969,1.34772,0.00420249,0.010405,1322,1765,4.55774,-15.9806
105,-741,4.56885,15.9437,-0.00398278,0.00240178,0.00175357,0.00285171,-0.00443271,1.31964,0.00423855,0.0105348,1329,1765,4.56882,-15.9437
112,-741,4.57385,15.9402,-0.00371349,0.00242457,0.00204742,0.00304483,-0.00433374,1.27664,0.00428163,0.0104653,1336,1765,4.5739,-15.9402
119,-741,4.55908,15.9175,-0.00340265,0.00239003,0.00228131,0.00318058,-0.0041932,1.23721,0.00427061,0.013434,1343,1765,4.55908,-15.9175
126,-741,4.54675,15.8722,-0.00307058,0.00205587,0.00245226,0.00303999,-0.00405471,1.18916,0.00411007,0.0188897,1350,1765,4.54679,-15.8722
133,-741,4.52271,15.854,-0.00277391,0.00161866,0.00259909,0.00282517,-0.00398041,1.1362,0.00394803,0.0141362,1357,1765,4.52271,-15.854
140,-741,4.51892,15.8291,-0.0025257,0.00128434,0.00247926,0.00250595,-0.00374731,1.11298,0.00363396,0.0108559,1364,1765,4.51886,-15.8292
147,-741,4.51331,15.8262,-0.00237619,0.000942057,0.00234003,0.00215146,-0.00358559,1.09377,0.0033466,0.0108598,1371,1765,4.51326,-15.8261
154,-741,4.50439,15.8201,-0.00220233,0.000546222,0.00215198,0.0017253,-0.00338141,1.06956,0.0029996,0.00972954,1378,1765,4.50444,-15.8201
161,-741,4.50012,15.7722,-0.00201992,0.000523898,0.00186631,0.0015105,-0.00300652,1.0845,0.00265515,0.0108405,1385,1765,4.50017,-15.7722
168,-741,4.48315,15.7311,-0.000942586,7.03507e-05,0.00179215,0.00142622,-0.00229846,0.923109,0.00217001,0.0222722,1392,1765,4.48318,-15.7311
175,-741,4.45251,15.7302,0,0,0,0,0,0,0,-1,1399,1765,4.4525,-15.7302
182,-741,4.48779,15.6265,0,0,0,0,0,0,0,-1,1406,1765,4.48783,-15.6264
189,-741,4.4762,15.5844,0,0,0,0,0,0,0,-1,1413,1765,4.47618,-15.5843
196,-741,4.43848,15.5385,0,0,0,0,0,0,0,-1,1420,1765,4.43851,-15.5384
203,-741,4.44836,15.4521,0,0,0,0,0,0,0,-1,1427,1765,4.44836,-15.4521
210,-741,4.3877,15.3479,-0.00918964,-0.005146,0.00224991,-0.00414295,-0.0101927,1.15143,0.00591898,0.0384658,1434,1765,4.38768,-15.3479
217,-741,4.43152,15.269,-0.016656,-0.00506112,0.00359106,-0.00403903,-0.0176781,1.29351,0.0106963,0.0210883,1441,1765,4.43158,-15.269
224,-741,4.50354,15.2146,-0.0226302,-0.00487941,0.00457978,-0.00376746,-0.0237422,1.33261,0.0147337,0.0258059,1448,1765,4.50353,-15.2146
231,-741,4.57361,15.1824,-0.0324357,-0.00442727,0.00628515,-0.00308153,-0.0337815,1.35987,0.0215673,0.0339632,1455,1765,4.57358,-15.1823
238,-741,4.54785,15.1945,-0.0429442,-0.0053545,0.00819283,-0.00364646,-0.0446523,1.36526,0.0286302,0.0386755,1462,1765,4.54786,-15.1945
245,-741,4.55676,15.0964,-0.0550026,-0.00569183,0.00939032,-0.00396416,-0.0567303,1.38885,0.0365705,0.0471852,1469,1765,4.55678,-15.0965
252,-741,4.5636,14.9824,0,0,0,0,0,0,0,-1,1476,1765,4.56359,-14.9824
259,-741,4.54077,15.0292,0,0,0,0,0,0,0,-1,1483,1765,4.54071,-15.0292
266,-741,4.40173,15.2345,0,0,0,0,0,0,0,-1,1490,1765,4.40175,-15.2345
273,-741,17.0328,7.54468,0,0,0,0,0,0,0,-1,1497,1765,17.0328,-7.54474
280,-741,15.7959,7.14307,0,0,0,0,0,0,0,-1,1504,1765,15.7959,-7.14305
287,-741,13.988,6.99292,0,0,0,0,0,0,0,-1,1511,1765,13.988,-6.99287
294,-741,12.1141,6.63208,-0.141895,-0.0327216,0.0151425,-0.0306602,-0.143956,1.4355,0.0875589,0.0489896,1518,1765,12.1142,-6.63211
301,-741,10.2242,6.40942,-0.149965,-0.0380217,0.0157735,-0.0358416,-0.152145,1.43345,0.0918444,0.0477248,1525,1765,10.2242,-6.40947
308,-741,8.27747,6.42419,0,0,0,0,0,0,0,-1,1532,1765,8.27746,-6.42424
315,-741,7.94568,6.22974,0,0,0,0,0,0,0,-1,1539,1765,7.94567,-6.22972
322,-741,3.08521,12.3561,0,0,0,0,0,0,0,-1,1546,1765,3.08526,-12.3561
329,-741,4.46472,13.5316,0,0,0,0,0,0,0,-1,1553,1765,4.46467,-13.5316
336,-741,4.74475,14.6453,0,0,0,0,0,0,0,-1,1560,1765,4.7447,-14.6452
343,-741,5.42297,5.93701,0,0,0,0,0,0,0,-1,1567,1765,5.42296,-5.937
350,-741,4.90369,5.44666,0,0,0,0,0,0,0,-1,1574,1765,4.90368,-5.44664
357,-741,4.02063,5.16626,0,0,0,0,0,0,0,-1,1581,1765,4.02058,-5.1662
364,-741,0,0,0,0,0,0,0,0,0,-1,1588,1765,0,0
371,-741,0,0,0,0,0,0,0,0,0,-1,1595,1765,0,0
378,-741,0,0,0,0,0,0,0,0,0,-1,1602,1765,0,0
385,-741,0,0,0,0,0,0,0,0,0,-1,1609,1765,0,0
392,-741,0,0,0,0,0,0,0,0,0,-1,1616,1765,0,0
399,-741,0,0,0,0,0,0,0,0,0,-1,1623,1765,0,0
406,-741,0,0,0,0,0,0,0,0,0,-1,1630,1765,0,0
413,-741,0,0,0,0,0,0,0,0,0,-1,1637,1765,0,0
420,-741,0,0,0,0,0,0,0,0,0,-1,1644,1765,0,0
427,-741,0,0,0,0,0,0,0,0,0,-1,1651,1765,0,0
434,-741,0,0,0,0,0,0,0,0,0,-1,1658,1765,0,0
441,-741,0,0,0,0,0,0,0,0,0,-1,1665,1765,0,0
448,-741,0,0,0,0,0,0,0,0,0,-1,1672,1765,0,0
455,-741,0,0,0,0,0,0,0,0,0,-1,1679,1765,0,0
462,-741,0,0,0,0,0,0,0,0,0,-1,1686,1765,0,0
469,-741,0,0,0,0,0,0,0,0,0,-1,1693,1765,0,0
476,-741,0,0,0,0,0,0,0,0,0,-1,1700,1765,0,0
483,-741,0,0,0,0,0,0,0,0,0,-1,1707,1765,0,0
490,-741,0,0,0,0,0,0,0,0,0,-1,1714,1765,0,0
497,-741,0,0,0,0,0,0,0,0,0,-1,1721,1765,0,0
504,-741,0,0,0,0,0,0,0,0,0,-1,1728,1765,0,0
511,-741,0,0,0,0,0,0,0,0,0,-1,1735,1765,0,0
518,-741,0,0,0,0,0,0,0,0,0,-1,1742,1765,0,0
525,-741,0,0,0,0,0,0,0,0,0,-1,1749,1765,0,0
532,-741,0,0,0,0,0,0,0,0,0,-1,1756,1765,0,0
539,-741,0,0,0,0,0,0,0,0,0,-1,1763,1765,0,0
546,-741,0,0,0,0,0,0,0,0,0,-1,1770,1765,0,0
553,-741,0,0,0,0,0,0,0,0,0,-1,1777,1765,0,0
560,-741,0,0,0,0,0,0,0,0,0,-1,1784,1765,0,0
567,-741,0,0,0,0,0,0,0,0,0,-1,1791,1765,0,0
574,-741,0,0,0,0,0,0,0,0,0,-1,1798,1765,0,0
581,-741,0,0,0,0,0,0,0,0,0,-1,1805,1765,0,0
588,-741,0,0,0,0,0,0,0,0,0,-1,1812,1765,0,0
595,-741,0,0,0,0,0,0,0,0,0,-1,1819,1765,0,0
602,-741,0,0,0,0,0,0,0,0,0,-1,1826,1765,0,0
609,-741,0,0,0,0,0,0,0,0,0,-1,1833,1765,0,0
616,-741,0,0,0,0,0,0,0,0,0,-1,1840,1765,0,0
623,-741,0,0,0,0,0,0,0,0,0,-1,1847,1765,0,0
630,-741,0,0,0,0,0,0,0,0,0,-1,1854,1765,0,0
637,-741,0,0,0,0,0,0,0,0,0,-1,1861,1765,0,0
644,-741,0,0,0,0,0,0,0,0,0,-1,1868,1765,0,0
651,-741,0,0,0,0,0,0,0,0,0,-1,1875,1765,0,0
658,-741,0,0,0,0,0,0,0,0,0,-1,1882,1765,0,0
665,-741,0,0,0,0,0,0,0,0,0,-1,1889,1765,0,0
672,-741,0,0,0,0,0,0,0,0,0,-1,1896,1765,0,0
679,-741,0,0,0,0,0,0,0,0,0,-1,1903,1765,0,0
686,-741,0,0,0,0,0,0,0,0,0,-1,1910,1765,0,0
693,-741,0,0,0,0,0,0,0,0,0,-1,1917,1765,0,0
700,-741,0,0,0,0,0,0,0,0,0,-1,1924,1765,0,0
707,-741,0,0,0,0,0,0,0,0,0,-1,1931,1765,0,0
714,-741,0,0,0,0,0,0,0,0,0,-1,1938,1765,0,0
721,-741,0,0,0,0,0,0,0,0,0,-1,1945,1765,0,0
728,-741,0,0,0,0,0,0,0,0,0,-1,1952,1765,0,0
735,-741,0,0,0,0,0,0,0,0,0,-1,1959,1765,0,0
742,-741,0,0,0,0,0,0,0,0,0,-1,1966,1765,0,0
749,-741,0,0,0,0,0,0,0,0,0,-1,1973,1765,0,0
756,-741,0,0,0,0,0,0,0,0,0,-1,1980,1765,0,0
763,-741,0,0,0,0,0,0,0,0,0,-1,1987,1765,0,0
770,-741,0,0,0,0,0,0,0,0,0,-1,1994,1765,0,0
777,-741,0,0,0,0,0,0,0,0,0,-1,2001,1765,0,0
784,-741,0,0,0,0,0,0,0,0,0,-1,2008,1765,0,0
791,-741,0,0,0,0,0,0,0,0,0,-1,2015,1765,0,0
798,-741,0,0,0,0,0,0,0,0,0,-1,2022,1765,0,0
805,-741,0,0,0,0,0,0,0,0,0,-1,2029,1765,0,0
812,-741,0,0,0,0,0,0,0,0,0,-1,2036,1765,0,0
-700,-748,0,0,0,0,0,0,0,0,0,-1,524,1772,0,0
-693,-748,0,0,0,0,0,0,0,0,0,-1,531,1772,0,0
-686,-748,0,0,0,0,0,0,0,0,0,-1,538,1772,0,0
-679,-748,0,0,0,0,0,0,0,0,0,-1,545,1772,0,0
-672,-748,0,0,0,0,0,0,0,0,0,-1,552,1772,0,0
-665,-748,0,0,0,0,0,0,0,0,0,-1,559,1772,0,0
-658,-748,0,0,0,0,0,0,0,0,0,-1,566,1772,0,0
-651,-748,0,0,0,0,0,0,0,0,0,-1,573,1772,0,0
-644,-748,0,0,0,0,0,0,0,0,0,-1,580,1772,0,0
-637,-748,0,0,0,0,0,0,0,0,0,-1,587,1772,0,0
-630,-748,0,0,0,0,0,0,0,0,0,-1,594,1772,0,0
-623,-748,0,0,0,0,0,0,0,0,0,-1,601,1772,0,0
-616,-748,0,0,0,0,0,0,0,0,0,-1,608,1772,0,0
-609,-748,0,0,0,0,0,0,0,0,0,-1,615,1772,0,0
-602,-748,0,0,0,0,0,0,0,0,0,-1,622,1772,0,0
-595,-748,0,0,0,0,0,0,0,0,0,-1,629,1772,0,0
-588,-748,0,0,0,0,0,0,0,0,0,-1,636,1772,0,0
-581,-748,0,0,0,0,0,0,0,0,0,-1,643,1772,0,0
-574,-748,0,0,0,0,0,0,0,0,0,-1,650,1772,0,0
-567,-748,0,0,0,0,0,0,0,0,0,-1,657,1772,0,0
-560,-748,0,0,0,0,0,0,0,0,0,-1,664,1772,0,0
-553,-748,0,0,0,0,0,0,0,0,0,-1,671,1772,0,0
-546,-748,0,0,0,0,0,0,0,0,0,-1,678,1772,0,0
-539,-748,0,0,0,0,0,0,0,0,0,-1,685,1772,0,0
-532,-748,0,0,0,0,0,0,0,0,0,-1,692,1772,0,0
-525,-748,0,0,0,0,0,0,0,0,0,-1,699,1772,0,0
-518,-748,0,0,0,0,0,0,0,0,0,-1,706,1772,0,0
-511,-748,0,0,0,0,0,0,0,0,0,-1,713,1772,0,0
-504,-748,0,0,0,0,0,0,0,0,0,-1,720,1772,0,0
-497,-748,0,0,0,0,0,0,0,0,0,-1,727,1772,0,0
-490,-748,0,0,0,0,0,0,0,0,0,-1,734,1772,0,0
-483,-748,0,0,0,0,0,0,0,0,0,-1,741,1772,0,0
-476,-748,0,0,0,0,0,0,0,0,0,-1,748,1772,0,0
-469,-748,0,0,0,0,0,0,0,0,0,-1,755,1772,0,0
-462,-748,0,0,0,0,0,0,0,0,0,-1,762,1772,0,0
-455,-748,0,0,0,0,0,0,0,0,0,-1,769,1772,0,0
-448,-748,0,0,0,0,0,0,0,0,0,-1,776,1772,0,0
-441,-748,0,0,0,0,0,0,0,0,0,-1,783,1772,0,0
-434,-748,0,0,0,0,0,0,0,0,0,-1,790,1772,0,0
-427,-748,0,0,0,0,0,0,0,0,0,-1,797,1772,0,0
-420,-748,0,0,0,0,0,0,0,0,0,-1,804,1772,0,0
-413,-748,0,0,0,0,0,0,0,0,0,-1,811,1772,0,0
-406,-748,0,0,0,0,0,0,0,0,0,-1,818,1772,0,0
-399,-748,0,0,0,0,0,0,0,0,0,-1,825,1772,0,0
-392,-748,0,0,0,0,0,0,0,0,0,-1,832,1772,0,0
-385,-748,0,0,0,0,0,0,0,0,0,-1,839,1772,0,0
-378,-748,0,0,0,0,0,0,0,0,0,-1,846,1772,0,0
-371,-748,0,0,0,0,0,0,0,0,0,-1,853,1772,0,0
-364,-748,0,0,0,0,0,0,0,0,0,-1,860,1772,0,0
-357,-748,0,0,0,0,0,0,0,0,0,-1,867,1772,0,0
-350,-748,0,0,0,0,0,0,0,0,0,-1,874,1772,0,0
-343,-748,0,0,0,0,0,0,0,0,0,-1,881,1772,0,0
-336,-748,0,0,0,0,0,0,0,0,0,-1,888,1772,0,0
-329,-748,0,0,0,0,0,0,0,0,0,-1,895,1772,0,0
-322,-748,0,0,0,0,0,0,0,0,0,-1,902,1772,0,0
-315,-748,0,0,0,0,0,0,0,0,0,-1,909,1772,0,0
-308,-748,0,0,0,0,0,0,0,0,0,-1,916,1772,0,0
-301,-748,0,0,0,0,0,0,0,0,0,-1,923,1772,0,0
-294,-748,0,0,0,0,0,0,0,0,0,-1,930,1772,0,0
-287,-748,0,0,0,0,0,0,0,0,0,-1,937,1772,0,0
-280,-748,0,0,0,0,0,0,0,0,0,-1,944,1772,0,0
-273,-748,0,0,0,0,0,0,0,0,0,-1,951,1772,0,0
-266,-748,0,0,0,0,0,0,0,0,0,-1,958,1772,0,0
-259,-748,0,0,0,0,0,0,0,0,0,-1,965,1772,0,0
-252,-748,0,0,0,0,0,0,0,0,0,-1,972,1772,0,0
-245,-748,0,0,0,0,0,0,0,0,0,-1,979,1772,0,0
-238,-748,0,0,0,0,0,0,0,0,0,-1,986,1772,0,0
-231,-748,0,0,0,0,0,0,0,0,0,-1,993,1772,0,0
-224,-748,0,0,0,0,0,0,0,0,0,-1,1000,1772,0,0
-217,-748,3.46191,10.7076,0,0,0,0,0,0,0,-1,1007,1772,3.46191,-10.7077
-210,-748,1.71094,11.5168,0,0,0,0,0,0,0,-1,1014,1772,1.71096,-11.5168
-203,-748,-1.52362,13.2166,0,0,0,0,0,0,0,-1,1021,1772,-1.5236,-13.2166
-196,-748,-1.09497,13.6892,0,0,0,0,0,0,0,-1,1028,1772,-1.09499,-13.6892
-189,-748,2.37354,13.27,0,0,0,0,0,0,0,-1,1035,1772,2.37358,-13.27
-182,-748,1.1593,12.4589,0,0,0,0,0,0,0,-1,1042,1772,1.15932,-12.4589
-175,-748,-0.0640869,11.6606,0,0,0,0,0,0,0,-1,1049,1772,-0.0640899,-11.6606
-168,-748,-1.30481,10.9001,0,0,0,0,0,0,0,-1,1056,1772,-1.30482,-10.9001
-161,-748,-2.63501,10.4792,0,0,0,0,0,0,0,-1,1063,1772,-2.63505,-10.4793
-154,-748,-3.92529,10.2404,0,0,0,0,0,0,0,-1,1070,1772,-3.92526,-10.2404
-147,-748,-4.87122,10.7748,0,0,0,0,0,0,0,-1,1077,1772,-4.87117,-10.7748
-140,-748,5.38965,8.78552,0,0,0,0,0,0,0,-1,1084,1772,5.38969,-8.78552
-133,-748,5.90283,12.8345,0,0,0,0,0,0,0,-1,1091,1772,5.90281,-12.8345
-126,-748,3.82117,14.7216,0,0,0,0,0,0,0,-1,1098,1772,3.82116,-14.7215
-119,-748,4.25098,15.0106,0,0,0,0,0,0,0,-1,1105,1772,4.25095,-15.0107
-112,-748,4.44275,14.9556,-0.014045,-0.0427177,-4.34737e-05,-0.0140449,-0.0427177,-0.0015162,0.0251405,0.043114,1112,1772,4.44275,-14.9556
-105,-748,4.99536,15.3763,-0.0131501,-0.0417521,-0.000653591,-0.0131352,-0.041767,-0.0228353,0.0246613,0.0441602,1119,1772,4.99538,-15.3763
-98,-748,4.99365,14.6396,0,0,0,0,0,0,0,-1,1126,1772,4.99363,-14.6396
-91,-748,4.66907,14.3898,0,0,0,0,0,0,0,-1,1133,1772,4.66903,-14.3898
-84,-748,-0.192017,7.26196,0,0,0,0,0,0,0,-1,1140,1772,-0.192047,-7.26201
-77,-748,4.42615,13.5537,0,0,0,0,0,0,0,-1,1147,1772,4.4261,-13.5538
-70,-748,4.46191,13.7446,0,0,0,0,0,0,0,-1,1154,1772,4.4619,-13.7446
-63,-748,4.49768,13.9355,0,0,0,0,0,0,0,-1,1161,1772,4.49769,-13.9355
-56,-748,3.05762,7.87817,0,0,0,0,0,0,0,-1,1168,1772,3.05768,-7.87822
-49,-748,3.04102,7.82471,0,0,0,0,0,0,0,-1,1175,1772,3.04096,-7.82468
-42,-748,0.793457,14.9474,0,0,0,0,0,0,0,-1,1182,1772,0.793413,-14.9474
-35,-748,4.75806,15.4183,0,0,0,0,0,0,0,-1,1189,1772,4.75804,-15.4184
-28,-748,4.74536,15.5709,-0.0149952,-0.0112206,-0.00462222,-0.00811525,-0.0181006,-0.979225,0.010469,0.0482529,1196,1772,4.74538,-15.5709
-21,-748,4.74304,15.6289,-0.0146344,-0.0118212,-0.00468519,-0.00833606,-0.0181196,-0.931227,0.0104725,0.0239805,1203,1772,4.743,-15.6289
-14,-748,4.70789,15.623,-0.0138419,-0.0123019,-0.00447327,-0.0085328,-0.0176109,-0.87063,0.0101693,0.0161678,1210,1772,4.70794,-15.623
-7,-748,4.69019,15.6542,-0.0129073,-0.0127067,-0.0040763,-0.00872947,-0.0168845,-0.797699,0.00975017,0.0149317,1217,1772,4.69018,-15.6542
0,-748,4.68262,15.6923,-0.0119626,-0.0128955,-0.0035523,-0.00884626,-0.0160119,-0.720112,0.00926141,0.0144336,1224,1772,4.68258,-15.6923
7,-748,4.68628,15.7098,-0.0109701,-0.0129008,-0.00302194,-0.00876307,-0.0151079,-0.630792,0.00875969,0.0135641,1231,1772,4.68633,-15.7098
14,-748,4.66162,15.7904,-0.0100419,-0.0130742,-0.00244523,-0.00868089,-0.0144352,-0.507883,0.00839105,0.0146454,1238,1772,4.66156,-15.7904
21,-748,4.64136,15.8326,-0.00924962,-0.0127361,-0.00180682,-0.00848218,-0.0135035,-0.401655,0.00788114,0.0116126,1245,1772,4.64132,-15.8326
28,-748,4.60095,15.849,-0.00881522,-0.0119245,-0.00134422,-0.00831467,-0.0124251,-0.356467,0.00730923,0.012281,1252,1772,4.60089,-15.849
35,-748,4.61438,15.8785,-0.00879552,-0.0108302,-0.00065842,-0.00860104,-0.0110246,-0.287205,0.00668987,0.0126681,1259,1772,4.61434,-15.8785
42,-748,4.62512,15.8988,-0.00857576,-0.00957633,-9.52455e-06,-0.00857567,-0.00957642,-0.00951803,0.00607822,0.0120813,1266,1772,4.62516,-15.8988
49,-748,4.61707,15.9164,-0.00874211,-0.00784587,0.000420724,-0.00767932,-0.00890866,1.19386,0.00557469,0.009393,1273,1772,4.6171,-15.9164
56,-748,4.59656,15.9452,-0.0091834,-0.00622268,0.000808386,-0.00601634,-0.00938974,1.32088,0.00549229,0.00976574,1280,1772,4.59651,-15.9452
63,-748,4.5769,15.948,-0.00968808,-0.00393437,0.00116706,-0.00370666,-0.00991579,1.3781,0.00578533,0.0116721,1287,1772,4.57691,-15.948
70,-748,4.55981,15.9623,-0.0100723,-0.00178132,0.00159202,-0.00148614,-0.0103675,1.38746,0.0064734,0.0134494,1294,1772,4.55978,-15.9623
77,-748,4.55725,15.9724,-0.0101396,-0.0001083,0.00220081,0.000353307,-0.0106012,1.36405,0.00718811,0.01268,1301,1772,4.55731,-15.9724
84,-748,4.54712,15.9855,-0.0102936,0.00120093,0.00247227,0.00171012,-0.0108028,1.36768,0.00783435,0.0141336,1308,1772,4.54717,-15.9855
91,-748,4.54407,15.9935,-0.0102974,0.00240055,0.00273729,0.0029655,-0.0108623,1.36727,0.00840623,0.0115709,1315,1772,4.54404,-15.9935
98,-748,4.54175,15.968,-0.0100026,0.00337377,0.00305148,0.004037,-0.0106658,1.35678,0.00877156,0.0104934,1322,1772,4.54179,-15.968
105,-748,4.54578,15.9294,-0.00938089,0.00377599,0.00337287,0.00459025,-0.0101952,1.33391,0.00873842,0.0111932,1329,1772,4.54583,-15.9294
112,-748,4.55481,15.9269,-0.0087138,0.00394212,0.00379818,0.00499449,-0.00976617,1.3005,0.00866923,0.0136609,1336,1772,4.55485,-15.9268
119,-748,4.53967,15.9224,-0.00795639,0.00409317,0.00415235,0.00538549,-0.00924871,1.26907,0.00854663,0.0132532,1343,1772,4.53969,-15.9224
126,-748,4.52576,15.9009,-0.00715164,0.00370595,0.00441865,0.00527689,-0.00872258,1.22921,0.0081638,0.0156517,1350,1772,4.52575,-15.9009
133,-748,4.50305,15.8823,-0.00624301,0.00311517,0.00465415,0.0050357,-0.00816355,1.17943,0.00769158,0.00913922,1357,1772,4.50304,-15.8823
140,-748,4.51233,15.8542,-0.00524703,0.00253521,0.00446024,0.00456309,-0.00727491,1.14408,0.00689419,0.01146,1364,1772,4.51233,-15.8542
147,-748,4.54395,15.8441,-0.00474597,0.0019396,0.00425033,0.00400418,-0.00681054,1.11862,0.00631356,0.0133599,1371,1772,4.54396,-15.8441
154,-748,4.50098,15.8153,-0.00397172,0.00119584,0.00398443,0.00336091,-0.00613679,1.07305,0.00556102,0.0118536,1378,1772,4.50095,-15.8153
161,-748,4.46643,15.7871,-0.00313043,0.00104501,0.0036528,0.00316461,-0.00525003,1.04501,0.00490767,0.0195535,1385,1772,4.46638,-15.7871
168,-748,4.46948,15.7629,0,0,0,0,0,0,0,-1,1392,1772,4.46951,-15.763
175,-748,4.22009,13.4792,0,0,0,0,0,0,0,-1,1399,1772,4.2201,-13.4793
182,-748,7.62476,10.3058,0,0,0,0,0,0,0,-1,1406,1772,7.62476,-10.3058
189,-748,6.15857,6.95898,0,0,0,0,0,0,0,-1,1413,1772,6.15862,-6.95896
196,-748,3.9425,8.46021,0,0,0,0,0,0,0,-1,1420,1772,3.9425,-8.46026
203,-748,3.9668,12.9835,0,0,0,0,0,0,0,-1,1427,1772,3.96678,-12.9836
210,-748,4.38892,15.1106,0,0,0,0,0,0,0,-1,1434,1772,4.38892,-15.1106
217,-748,4.44556,15.1915,-0.0249653,-0.00584002,0.00618601,-0.0040136,-0.0267917,1.2837,0.016685,0.0466344,1441,1772,4.44558,-15.1915
224,-748,4.78027,15.5674,-0.0333092,-0.00520304,0.00763208,-0.00326432,-0.0352479,1.32204,0.0224896,0.0412596,1448,1772,4.78022,-15.5673
231,-748,4.66687,15.8032,-0.0461436,-0.00429512,0.00990614,-0.00206865,-0.04837,1.34971,0.0315797,0.0428925,1455,1772,4.66689,-15.8032
238,-748,4.85364,15.9965,0,0,0,0,0,0,0,-1,1462,1772,4.85361,-15.9965
245,-748,4.59485,15.1813,0,0,0,0,0,0,0,-1,1469,1772,4.59488,-15.1813
252,-748,20.6545,8.29456,-0.089328,-0.00876514,0.0154571,-0.00590129,-0.0921919,1.3876,0.0595916,0.048638,1476,1772,20.6545,-8.2946
259,-748,19.3467,7.92981,-0.104747,-0.0126891,0.0170604,-0.00962915,-0.107807,1.39332,0.0688863,0.0441636,1483,1772,19.3466,-7.92977
266,-748,17.9011,7.59448,-0.119987,-0.016834,0.0182425,-0.0137029,-0.123118,1.40081,0.077914,0.0447646,1490,1772,17.9011,-7.59452
273,-748,16.4131,7.57129,0,0,0,0,0,0,0,-1,1497,1772,16.413,-7.57125
280,-748,15.2177,7.24829,-0.150245,-0.0279048,0.0200085,-0.0247156,-0.153434,1.41273,0.0951271,0.0484029,1504,1772,15.2176,-7.24833
287,-748,13.697,6.93396,-0.163807,-0.0346307,0.0206137,-0.0314209,-0.167017,1.41633,0.102489,0.0452845,1511,1772,13.697,-6.93401
294,-748,11.8735,6.83142,-0.175887,-0.0424359,0.0211366,-0.0391682,-0.179155,1.41741,0.108757,0.0472268,1518,1772,11.8735,-6.83142
301,-748,10.1475,7.08789,-0.185931,-0.0503049,0.0218641,-0.0468674,-0.189368,1.41485,0.113884,0.045059,1525,1772,10.1474,-7.08787
308,-748,8.37451,7.6344,-0.192242,-0.0573315,0.0250184,-0.0528414,-0.196732,1.39322,0.117568,0.0445301,1532,1772,8.37447,-7.63443
315,-748,6.65149,8.06299,0,0,0,0,0,0,0,-1,1539,1772,6.65144,-8.063
322,-748,2.9469,13.4518,0,0,0,0,0,0,0,-1,1546,1772,2.94694,-13.4518
329,-748,3.48315,14.6533,0,0,0,0,0,0,0,-1,1553,1772,3.48316,-14.6534
336,-748,3.76001,15.8163,0,0,0,0,0,0,0,-1,1560,1772,3.75995,-15.8163
343,-748,0,0,0,0,0,0,0,0,0,-1,1567,1772,0,0
350,-748,0,0,0,0,0,0,0,0,0,-1,1574,1772,0,0
357,-748,0,0,0,0,0,0,0,0,0,-1,1581,1772,0,0
364,-748,0,0,0,0,0,0,0,0,0,-1,1588,1772,0,0
371,-748,0,0,0,0,0,0,0,0,0,-1,1595,1772,0,0
378,-748,0,0,0,0,0,0,0,0,0,-1,1602,1772,0,0
385,-748,0,0,0,0,0,0,0,0,0,-1,1609,1772,0,0
392,-748,0,0,0,0,0,0,0,0,0,-1,1616,1772,0,0
399,-748,0,0,0,0,0,0,0,0,0,-1,1623,1772,0,0
406,-748,0,0,0,0,0,0,0,0,0,-1,1630,1772,0,0
413,-748,0,0,0,0,0,0,0,0,0,-1,1637,1772,0,0
420,-748,0,0,0,0,0,0,0,0,0,-1,1644,1772,0,0
427,-748,0,0,0,0,0,0,0,0,0,-1,1651,1772,0,0
434,-748,0,0,0,0,0,0,0,0,0,-1,1658,1772,0,0
441,-748,0,0,0,0,0,0,0,0,0,-1,1665,1772,0,0
448,-748,0,0,0,0,0,0,0,0,0,-1,1672,1772,0,0
455,-748,0,0,0,0,0,0,0,0,0,-1,1679,1772,0,0
462,-748,0,0,0,0,0,0,0,0,0,-1,1686,1772,0,0
469,-748,0,0,0,0,0,0,0,0,0,-1,1693,1772,0,0
476,-748,0,0,0,0,0,0,0,0,0,-1,1700,1772,0,0
483,-748,0,0,0,0,0,0,0,0,0,-1,1707,1772,0,0
490,-748,0,0,0,0,0,0,0,0,0,-1,1714,1772,0,0
497,-748,0,0,0,0,0,0,0,0,0,-1,1721,1772,0,0
504,-748,0,0,0,0,0,0,0,0,0,-1,1728,1772,0,0
511,-748,0,0,0,0,0,0,0,0,0,-1,1735,1772,0,0
518,-748,0,0,0,0,0,0,0,0,0,-1,1742,1772,0,0
525,-748,0,0,0,0,0,0,0,0,0,-1,1749,1772,0,0
532,-748,0,0,0,0,0,0,0,0,0,-1,1756,1772,0,0
539,-748,0,0,0,0,0,0,0,0,0,-1,1763,1772,0,0
546,-748,0,0,0,0,0,0,0,0,0,-1,1770,1772,0,0
553,-748,0,0,0,0,0,0,0,0,0,-1,1777,1772,0,0
560,-748,0,0,0,0,0,0,0,0,0,-1,1784,1772,0,0
567,-748,0,0,0,0,0,0,0,0,0,-1,1791,1772,0,0
574,-748,0,0,0,0,0,0,0,0,0,-1,1798,1772,0,0
581,-748,0,0,0,0,0,0,0,0,0,-1,1805,1772,0,0
588,-748,0,0,0,0,0,0,0,0,0,-1,1812,1772,0,0
595,-748,0,0,0,0,0,0,0,0,0,-1,1819,1772,0,0
602,-748,0,0,0,0,0,0,0,0,0,-1,1826,1772,0,0
609,-748,0,0,0,0,0,0,0,0,0,-1,1833,1772,0,0
616,-748,0,0,0,0,0,0,0,0,0,-1,1840,1772,0,0
623,-748,0,0,0,0,0,0,0,0,0,-1,1847,1772,0,0
630,-748,0,0,0,0,0,0,0,0,0,-1,1854,1772,0,0
637,-748,0,0,0,0,0,0,0,0,0,-1,1861,1772,0,0
644,-748,0,0,0,0,0,0,0,0,0,-1,1868,1772,0,0
651,-748,0,0,0,0,0,0,0,0,0,-1,1875,1772,0,0
658,-748,0,0,0,0,0,0,0,0,0,-1,1882,1772,0,0
665,-748,0,0,0,0,0,0,0,0,0,-1,1889,1772,0,0
672,-748,0,0,0,0,0,0,0,0,0,-1,1896,1772,0,0
679,-748,0,0,0,0,0,0,0,0,0,-1,1903,1772,0,0
686,-748,0,0,0,0,0,0,0,0,0,-1,1910,1772,0,0
693,-748,0,0,0,0,0,0,0,0,0,-1,1917,1772,0,0
700,-748,0,0,0,0,0,0,0,0,0,-1,1924,1772,0,0
707,-748,0,0,0,0,0,0,0,0,0,-1,1931,1772,0,0
714,-748,0,0,0,0,0,0,0,0,0,-1,1938,1772,0,0
721,-748,0,0,0,0,0,0,0,0,0,-1,1945,1772,0,0
728,-748,0,0,0,0,0,0,0,0,0,-1,1952,1772,0,0
735,-748,0,0,0,0,0,0,0,0,0,-1,1959,1772,0,0
742,-748,0,0,0,0,0,0,0,0,0,-1,1966,1772,0,0
749,-748,0,0,0,0,0,0,0,0,0,-1,1973,1772,0,0
756,-748,0,0,0,0,0,0,0,0,0,-1,1980,1772,0,0
763,-748,0,0,0,0,0,0,0,0,0,-1,1987,1772,0,0
770,-748,0,0,0,0,0,0,0,0,0,-1,1994,1772,0,0
777,-748,0,0,0,0,0,0,0,0,0,-1,2001,1772,0,0
784,-748,0,0,0,0,0,0,0,0,0,-1,2008,1772,0,0
791,-748,0,0,0,0,0,0,0,0,0,-1,2015,1772,0,0
798,-748,0,0,0,0,0,0,0,0,0,-1,2022,1772,0,0
805,-748,0,0,0,0,0,0,0,0,0,-1,2029,1772,0,0
812,-748,0,0,0,0,0,0,0,0,0,-1,2036,1772,0,0
-700,-755,0,0,0,0,0,0,0,0,0,-1,524,1779,0,0
-693,-755,0,0,0,0,0,0,0,0,0,-1,531,1779,0,0
-686,-755,0,0,0,0,0,0,0,0,0,-1,538,1779,0,0
-679,-755,0,0,0,0,0,0,0,0,0,-1,545,1779,0,0
-672,-755,0,0,0,0,0,0,0,0,0,-1,552,1779,0,0
-665,-755,0,0,0,0,0,0,0,0,0,-1,559,1779,0,0
-658,-755,0,0,0,0,0,0,0,0,0,-1,566,1779,0,0
-651,-755,0,0,0,0,0,0,0,0,0,-1,573,1779,0,0
-644,-755,0,0,0,0,0,0,0,0,0,-1,580,1779,0,0
-637,-755,0,0,0,0,0,0,0,0,0,-1,587,1779,0,0
-630,-755,0,0,0,0,0,0,0,0,0,-1,594,1779,0,0
-623,-755,0,0,0,0,0,0,0,0,0,-1,601,1779,0,0
-616,-755,0,0,0,0,0,0,0,0,0,-1,608,1779,0,0
-609,-755,0,0,0,0,0,0,0,0,0,-1,615,1779,0,0
-602,-755,0,0,0,0,0,0,0,0,0,-1,622,1779,0,0
-595,-755,0,0,0,0,0,0,0,0,0,-1,629,1779,0,0
-588,-755,0,0,0,0,0,0,0,0,0,-1,636,1779,0,0
-581,-755,0,0,0,0,0,0,0,0,0,-1,643,1779,0,0
-574,-755,0,0,0,0,0,0,0,0,0,-1,650,1779,0,0
-567,-755,0,0,0,0,0,0,0,0,0,-1,657,1779,0,0
-560,-755,0,0,0,0,0,0,0,0,0,-1,664,1779,0,0
-553,-755,0,0,0,0,0,0,0,0,0,-1,671,1779,0,0
-546,-755,0,0,0,0,0,0,0,0,0,-1,678,1779,0,0
-539,-755,0,0,0,0,0,0,0,0,0,-1,685,1779,0,0
-532,-755,0,0,0,0,0,0,0,0,0,-1,692,1779,0,0
-525,-755,0,0,0,0,0,0,0,0,0,-1,699,1779,0,0
-518,-755,0,0,0,0,0,0,0,0,0,-1,706,1779,0,0
-511,-755,0,0,0,0,0,0,0,0,0,-1,713,1779,0,0
-504,-755,0,0,0,0,0,0,0,0,0,-1,720,1779,0,0
-497,-755,0,0,0,0,0,0,0,0,0,-1,727,1779,0,0
-490,-755,0,0,0,0,0,0,0,0,0,-1,734,1779,0,0
-483,-755,0,0,0,0,0,0,0,0,0,-1,741,1779,0,0
-476,-755,0,0,0,0,0,0,0,0,0,-1,748,1779,0,0
-469,-755,0,0,0,0,0,0,0,0,0,-1,755,1779,0,0
-462,-755,0,0,0,0,0,0,0,0,0,-1,762,1779,0,0
-455,-755,0,0,0,0,0,0,0,0,0,-1,769,1779,0,0
-448,-755,0,0,0,0,0,0,0,0,0,-1,776,1779,0,0
-441,-755,0,0,0,0,0,0,0,0,0,-1,783,1779,0,0
-434,-755,0,0,0,0,0,0,0,0,0,-1,790,1779,0,0
-427,-755,0,0,0,0,0,0,0,0,0,-1,797,1779,0,0
-420,-755,0,0,0,0,0,0,0,0,0,-1,804,1779,0,0
-413,-755,0,0,0,0,0,0,0,0,0,-1,811,1779,0,0
-406,-755,0,0,0,0,0,0,0,0,0,-1,818,1779,0,0
-399,-755,0,0,0,0,0,0,0,0,0,-1,825,1779,0,0
-392,-755,0,0,0,0,0,0,0,0,0,-1,832,1779,0,0
-385,-755,0,0,0,0,0,0,0,0,0,-1,839,1779,0,0
-378,-755,0,0,0,0,0,0,0,0,0,-1,846,1779,0,0
-371,-755,0,0,0,0,0,0,0,0,0,-1,853,1779,0,0
-364,-755,0,0,0,0,0,0,0,0,0,-1,860,1779,0,0
-357,-755,0,0,0,0,0,0,0,0,0,-1,867,1779,0,0
-350,-755,0,0,0,0,0,0,0,0,0,-1,874,1779,0,0
-343,-755,0,0,0,0,0,0,0,0,0,-1,881,1779,0,0
-336,-755,0,0,0,0,0,0,0,0,0,-1,888,1779,0,0
-329,-755,0,0,0,0,0,0,0,0,0,-1,895,1779,0,0
-322,-755,0,0,0,0,0,0,0,0,0,-1,902,1779,0,0
-315,-755,0,0,0,0,0,0,0,0,0,-1,909,1779,0,0
-308,-755,0,0,0,0,0,0,0,0,0,-1,916,1779,0,0
-301,-755,0,0,0,0,0,0,0,0,0,-1,923,1779,0,0
-294,-755,0,0,0,0,0,0,0,0,0,-1,930,1779,0,0
-287,-755,0,0,0,0,0,0,0,0,0,-1,937,1779,0,0
-280,-755,0,0,0,0,0,0,0,0,0,-1,944,1779,0,0
-273,-755,0,0,0,0,0,0,0,0,0,-1,951,1779,0,0
-266,-755,0,0,0,0,0,0,0,0,0,-1,958,1779,0,0
-259,-755,0,0,0,0,0,0,0,0,0,-1,965,1779,0,0
-252,-755,0,0,0,0,0,0,0,0,0,-1,972,1779,0,0
-245,-755,0,0,0,0,0,0,0,0,0,-1,979,1779,0,0
-238,-755,0,0,0,0,0,0,0,0,0,-1,986,1779,0,0
-231,-755,0,0,0,0,0,0,0,0,0,-1,993,1779,0,0
-224,-755,0,0,0,0,0,0,0,0,0,-1,1000,1779,0,0
-217,-755,0,0,0,0,0,0,0,0,0,-1,1007,1779,0,0
-210,-755,0,0,0,0,0,0,0,0,0,-1,1014,1779,0,0
-203,-755,-3.07153,13.8969,0,0,0,0,0,0,0,-1,1021,1779,-3.07152,-13.8969
-196,-755,4.91333,14.9064,0,0,0,0,0,0,0,-1,1028,1779,4.91327,-14.9063
-189,-755,4.85864,12.9271,0,0,0,0,0,0,0,-1,1035,1779,4.85866,-12.9272
-182,-755,0.733154,13.2736,0,0,0,0,0,0,0,-1,1042,1779,0.733112,-13.2735
-175,-755,-0.495972,12.4688,0,0,0,0,0,0,0,-1,1049,1779,-0.495979,-12.4687
-168,-755,-1.77759,11.6711,0,0,0,0,0,0,0,-1,1056,1779,-1.77753,-11.6711
-161,-755,-3.06799,11.2112,0,0,0,0,0,0,0,-1,1063,1779,-3.06805,-11.2111
-154,-755,-4.35852,10.7511,0,0,0,0,0,0,0,-1,1070,1779,-4.35858,-10.7511
-147,-755,-5.40332,10.7094,0,0,0,0,0,0,0,-1,1077,1779,-5.40328,-10.7094
-140,-755,3.29346,10.2112,0,0,0,0,0,0,0,-1,1084,1779,3.2935,-10.2112
-133,-755,6.0802,13.4475,0,0,0,0,0,0,0,-1,1091,1779,6.08021,-13.4475
-126,-755,5.32227,13.6213,0,0,0,0,0,0,0,-1,1098,1779,5.32222,-13.6214
-119,-755,4.57471,13.9894,0,0,0,0,0,0,0,-1,1105,1779,4.57472,-13.9894
-112,-755,5.07214,16.256,0,0,0,0,0,0,0,-1,1112,1779,5.07215,-16.256
-105,-755,5.17139,15.8057,0,0,0,0,0,0,0,-1,1119,1779,5.17139,-15.8057
-98,-755,5.27063,15.3553,0,0,0,0,0,0,0,-1,1126,1779,5.27063,-15.3553
-91,-755,0.160522,10.7096,0,0,0,0,0,0,0,-1,1133,1779,0.160512,-10.7096
-84,-755,0.169312,8.66443,0,0,0,0,0,0,0,-1,1140,1779,0.16932,-8.66446
-77,-755,-0.0491943,6.87439,0,0,0,0,0,0,0,-1,1147,1779,-0.0491385,-6.87443
-70,-755,4.5686,13.2169,0,0,0,0,0,0,0,-1,1154,1779,4.56865,-13.2169
-63,-755,-1.36316,7.3147,0,0,0,0,0,0,0,-1,1161,1779,-1.36312,-7.31473
-56,-755,0.0483398,5.06079,0,0,0,0,0,0,0,-1,1168,1779,0.0483138,-5.06084
-49,-755,-1.32263,5.33716,0,0,0,0,0,0,0,-1,1175,1779,-1.32264,-5.33718
-42,-755,-2.03613,4.01672,0,0,0,0,0,0,0,-1,1182,1779,-2.0361,-4.01671
-35,-755,-2.72498,2.37476,0,0,0,0,0,0,0,-1,1189,1779,-2.72502,-2.37473
-28,-755,4.6759,15.6616,0,0,0,0,0,0,0,-1,1196,1779,4.6759,-15.6616
-21,-755,4.68274,15.7361,0,0,0,0,0,0,0,-1,1203,1779,4.68271,-15.7361
-14,-755,4.77515,15.6195,-0.0204283,-0.0181801,-0.00697867,-0.0122356,-0.0263728,-0.865252,0.0152395,0.0330816,1210,1779,4.77516,-15.6195
-7,-755,4.70923,15.6586,-0.0189512,-0.0184846,-0.00641479,-0.0122989,-0.0251369,-0.803572,0.0145139,0.0226801,1217,1779,4.70924,-15.6585
0,-755,4.70959,15.6765,-0.0175071,-0.0184516,-0.00557147,-0.0123879,-0.0235708,-0.743121,0.0136145,0.0140319,1224,1779,4.70963,-15.6765
7,-755,4.73926,15.712,-0.0160641,-0.0182207,-0.00470298,-0.0123174,-0.0219674,-0.672705,0.012714,0.0125798,1231,1779,4.7393,-15.712
14,-755,4.70544,15.7821,-0.0147839,-0.0183194,-0.00376612,-0.0123913,-0.020712,-0.565973,0.0120348,0.0103824,1238,1779,4.70543,-15.7821
21,-755,4.68213,15.8215,-0.0137491,-0.0176899,-0.00270852,-0.0123701,-0.0190689,-0.470932,0.0111706,0.0141491,1245,1779,4.68212,-15.8215
28,-755,4.65186,15.8245,-0.0134743,-0.0165192,-0.00187578,-0.0125809,-0.0174126,-0.444501,0.0103797,0.0181024,1252,1779,4.6518,-15.8245
35,-755,4.62598,15.8832,-0.0141233,-0.0149449,-0.000724379,-0.0137013,-0.0153668,-0.52745,0.00973698,0.0184505,1259,1779,4.62594,-15.8832
42,-755,4.62878,15.8918,-0.0142679,-0.0132815,0.000334934,-0.0131785,-0.0143709,1.2725,0.0092089,0.0126701,1266,1779,4.62881,-15.8919
49,-755,4.63953,15.9071,-0.0149221,-0.0110033,0.00109608,-0.0107176,-0.0152079,1.31578,0.0090223,0.00873263,1273,1779,4.63952,-15.9071
56,-755,4.61829,15.9423,-0.0159817,-0.00887656,0.00176971,-0.00846017,-0.0163981,1.33971,0.00946905,0.00873135,1280,1779,4.61826,-15.9422
63,-755,4.60437,15.959,-0.0170089,-0.00593499,0.00237544,-0.00544695,-0.017497,1.36816,0.0103389,0.00901544,1287,1779,4.60433,-15.959
70,-755,4.58984,15.9542,-0.0178175,-0.00313636,0.00300503,-0.00254508,-0.0184088,1.37652,0.0115183,0.011397,1294,1779,4.58987,-15.9542
77,-755,4.58459,15.9513,-0.0180997,-0.000880835,0.00382205,-7.05868e-05,-0.0189099,1.3619,0.0125832,0.0108195,1301,1779,4.58457,-15.9512
84,-755,4.60767,15.9526,-0.0184073,0.00097254,0.00420472,0.00184549,-0.0192803,1.36609,0.0135108,0.011229,1308,1779,4.60768,-15.9526
91,-755,4.59265,15.9568,-0.0184111,0.00268167,0.00458301,0.00363443,-0.0193639,1.36583,0.0142758,0.0111137,1315,1779,4.59269,-15.9568
98,-755,4.5531,15.9631,-0.0178235,0.00410465,0.0050041,0.00519263,-0.0189115,1.35671,0.0146486,0.0122393,1322,1779,4.55312,-15.9631
105,-755,4.54858,15.9607,-0.0167092,0.00482552,0.0054284,0.0061165,-0.0180002,1.33731,0.0144763,0.0153864,1329,1779,4.54853,-15.9607
112,-755,4.5376,15.9353,-0.0154615,0.00526563,0.00601977,0.0068871,-0.017083,1.30768,0.0142504,0.0196797,1336,1779,4.53761,-15.9353
119,-755,4.52429,15.9194,-0.0140176,0.00573614,0.0065637,0.00771822,-0.0159997,1.27753,0.013969,0.0207579,1343,1779,4.5243,-15.9194
126,-755,4.5155,15.9465,-0.0124757,0.00537559,0.00699173,0.007788,-0.0148881,1.23855,0.0133042,0.0243684,1350,1779,4.51545,-15.9465
133,-755,4.46826,15.9111,-0.0105456,0.00475345,0.00740153,0.00774808,-0.0135402,1.18633,0.0124415,0.0246567,1357,1779,4.46823,-15.9111
140,-755,4.49683,15.8656,-0.00817757,0.00399084,0.00720223,0.00733477,-0.0115215,1.13612,0.0109758,0.0304302,1364,1779,4.49686,-15.8656
147,-755,4.53918,15.8783,-0.00728564,0.00318604,0.00696456,0.00666336,-0.010763,1.10772,0.0101535,0.0318747,1371,1779,4.53916,-15.8783
154,-755,4.53357,15.8584,-0.00589639,0.00209746,0.00666834,0.00587499,-0.00967392,1.05538,0.00906604,0.0343704,1378,1779,4.53359,-15.8584
161,-755,4.40967,15.8384,0,0,0,0,0,0,0,-1,1385,1779,4.40971,-15.8383
168,-755,3.98181,7.35901,0,0,0,0,0,0,0,-1,1392,1779,3.98184,-7.35904
175,-755,8.17065,1.34363,0,0,0,0,0,0,0,-1,1399,1779,8.1706,-1.34368
182,-755,8.09216,2.96924,0,0,0,0,0,0,0,-1,1406,1779,8.09213,-2.9693
189,-755,8.04419,4.68042,0,0,0,0,0,0,0,-1,1413,1779,8.04419,-4.68046
196,-755,7.74841,7.4541,0,0,0,0,0,0,0,-1,1420,1779,7.74842,-7.45405
203,-755,4.80554,6.88696,0,0,0,0,0,0,0,-1,1427,1779,4.80554,-6.88697
210,-755,25.1694,7.35693,0,0,0,0,0,0,0,-1,1434,1779,25.1694,-7.35688
217,-755,4.44592,15.1106,0,0,0,0,0,0,0,-1,1441,1779,4.44595,-15.1106
224,-755,5.12952,15.925,0,0,0,0,0,0,0,-1,1448,1779,5.12952,-15.925
231,-755,4.83398,16.4189,0,0,0,0,0,0,0,-1,1455,1779,4.83399,-16.4189
238,-755,5.14697,16.1724,0,0,0,0,0,0,0,-1,1462,1779,5.14693,-16.1724
245,-755,20.302,9.36731,0,0,0,0,0,0,0,-1,1469,1779,20.302,-9.36729
252,-755,19.3887,8.81555,-0.112615,-0.00712794,0.0221215,-0.0026767,-0.117066,1.37223,0.0771672,0.0485154,1476,1779,19.3887,-8.81555
259,-755,18.481,8.25134,-0.129906,-0.0118729,0.0240611,-0.00715653,-0.134622,1.37723,0.0874604,0.0474044,1483,1779,18.4809,-8.25139
266,-755,17.255,7.86096,-0.147166,-0.0174567,0.0254956,-0.0126252,-0.151998,1.38352,0.0973965,0.0454713,1490,1779,17.255,-7.86092
273,-755,15.7932,7.59778,0,0,0,0,0,0,0,-1,1497,1779,15.7932,-7.59777
280,-755,14.6255,7.34802,-0.181667,-0.0324841,0.0275528,-0.027558,-0.186593,1.39388,0.116303,0.0473146,1504,1779,14.6254,-7.34806
287,-755,13.1736,7.34705,-0.197407,-0.0419292,0.0282102,-0.036969,-0.202367,1.39674,0.124433,0.0428291,1511,1779,13.1736,-7.34709
294,-755,11.4563,7.27002,0,0,0,0,0,0,0,-1,1518,1779,11.4563,-7.26998
301,-755,9.98267,7.87927,-0.223962,-0.0643893,0.029551,-0.0590926,-0.229258,1.39344,0.137443,0.046845,1525,1779,9.98265,-7.87925
308,-755,8.23889,8.34631,-0.23228,-0.0747147,0.0331748,-0.0680148,-0.23898,1.37152,0.142179,0.0471873,1532,1779,8.23889,-8.34626
315,-755,6.46362,8.76587,0,0,0,0,0,0,0,-1,1539,1779,6.46364,-8.76592
322,-755,0,0,0,0,0,0,0,0,0,-1,1546,1779,0,0
329,-755,0,0,0,0,0,0,0,0,0,-1,1553,1779,0,0
336,-755,0,0,0,0,0,0,0,0,0,-1,1560,1779,0,0
343,-755,0,0,0,0,0,0,0,0,0,-1,1567,1779,0,0
350,-755,0,0,0,0,0,0,0,0,0,-1,1574,1779,0,0
357,-755,0,0,0,0,0,0,0,0,0,-1,1581,1779,0,0
364,-755,0,0,0,0,0,0,0,0,0,-1,1588,1779,0,0
371,-755,0,0,0,0,0,0,0,0,0,-1,1595,1779,0,0
378,-755,0,0,0,0,0,0,0,0,0,-1,1602,1779,0,0
385,-755,0,0,0,0,0,0,0,0,0,-1,1609,1779,0,0
392,-755,0,0,0,0,0,0,0,0,0,-1,1616,1779,0,0
399,-755,0,0,0,0,0,0,0,0,0,-1,1623,1779,0,0
406,-755,0,0,0,0,0,0,0,0,0,-1,1630,1779,0,0
413,-755,0,0,0,0,0,0,0,0,0,-1,1637,1779,0,0
420,-755,0,0,0,0,0,0,0,0,0,-1,1644,1779,0,0
427,-755,0,0,0,0,0,0,0,0,0,-1,1651,1779,0,0
434,-755,0,0,0,0,0,0,0,0,0,-1,1658,1779,0,0
441,-755,0,0,0,0,0,0,0,0,0,-1,1665,1779,0,0
448,-755,0,0,0,0,0,0,0,0,0,-1,1672,1779,0,0
455,-755,0,0,0,0,0,0,0,0,0,-1,1679,1779,0,0
462,-755,0,0,0,0,0,0,0,0,0,-1,1686,1779,0,0
469,-755,0,0,0,0,0,0,0,0,0,-1,1693,1779,0,0
476,-755,0,0,0,0,0,0,0,0,0,-1,1700,1779,0,0
483,-755,0,0,0,0,0,0,0,0,0,-1,1707,1779,0,0
490,-755,0,0,0,0,0,0,0,0,0,-1,1714,1779,0,0
497,-755,0,0,0,0,0,0,0,0,0,-1,1721,1779,0,0
504,-755,0,0,0,0,0,0,0,0,0,-1,1728,1779,0,0
511,-755,0,0,0,0,0,0,0,0,0,-1,1735,1779,0,0
518,-755,0,0,0,0,0,0,0,0,0,-1,1742,1779,0,0
525,-755,0,0,0,0,0,0,0,0,0,-1,1749,1779,0,0
532,-755,0,0,0,0,0,0,0,0,0,-1,1756,1779,0,0
539,-755,0,0,0,0,0,0,0,0,0,-1,1763,1779,0,0
546,-755,0,0,0,0,0,0,0,0,0,-1,1770,1779,0,0
553,-755,0,0,0,0,0,0,0,0,0,-1,1777,1779,0,0
560,-755,0,0,0,0,0,0,0,0,0,-1,1784,1779,0,0
567,-755,0,0,0,0,0,0,0,0,0,-1,1791,1779,0,0
574,-755,0,0,0,0,0,0,0,0,0,-1,1798,1779,0,0
581,-755,0,0,0,0,0,0,0,0,0,-1,1805,1779,0,0
588,-755,0,0,0,0,0,0,0,0,0,-1,1812,1779,0,0
595,-755,0,0,0,0,0,0,0,0,0,-1,1819,1779,0,0
602,-755,0,0,0,0,0,0,0,0,0,-1,1826,1779,0,0
609,-755,0,0,0,0,0,0,0,0,0,-1,1833,1779,0,0
616,-755,0,0,0,0,0,0,0,0,0,-1,1840,1779,0,0
623,-755,0,0,0,0,0,0,0,0,0,-1,1847,1779,0,0
630,-755,0,0,0,0,0,0,0,0,0,-1,1854,1779,0,0
637,-755,0,0,0,0,0,0,0,0,0,-1,1861,1779,0,0
644,-755,0,0,0,0,0,0,0,0,0,-1,1868,1779,0,0
651,-755,0,0,0,0,0,0,0,0,0,-1,1875,1779,0,0
658,-755,0,0,0,0,0,0,0,0,0,-1,1882,1779,0,0
665,-755,0,0,0,0,0,0,0,0,0,-1,1889,1779,0,0
672,-755,0,0,0,0,0,0,0,0,0,-1,1896,1779,0,0
679,-755,0,0,0,0,0,0,0,0,0,-1,1903,1779,0,0
686,-755,0,0,0,0,0,0,0,0,0,-1,1910,1779,0,0
693,-755,0,0,0,0,0,0,0,0,0,-1,1917,1779,0,0
700,-755,0,0,0,0,0,0,0,0,0,-1,1924,1779,0,0
707,-755,0,0,0,0,0,0,0,0,0,-1,1931,1779,0,0
714,-755,0,0,0,0,0,0,0,0,0,-1,1938,1779,0,0
721,-755,0,0,0,0,0,0,0,0,0,-1,1945,1779,0,0
728,-755,0,0,0,0,0,0,0,0,0,-1,1952,1779,0,0
735,-755,0,0,0,0,0,0,0,0,0,-1,1959,1779,0,0
742,-755,0,0,0,0,0,0,0,0,0,-1,1966,1779,0,0
749,-755,0,0,0,0,0,0,0,0,0,-1,1973,1779,0,0
756,-755,0,0,0,0,0,0,0,0,0,-1,1980,1779,0,0
763,-755,0,0,0,0,0,0,0,0,0,-1,1987,1779,0,0
770,-755,0,0,0,0,0,0,0,0,0,-1,1994,1779,0,0
777,-755,0,0,0,0,0,0,0,0,0,-1,2001,1779,0,0
784,-755,0,0,0,0,0,0,0,0,0,-1,2008,1779,0,0
791,-755,0,0,0,0,0,0,0,0,0,-1,2015,1779,0,0
798,-755,0,0,0,0,0,0,0,0,0,-1,2022,1779,0,0
805,-755,0,0,0,0,0,0,0,0,0,-1,2029,1779,0,0
812,-755,0,0,0,0,0,0,0,0,0,-1,2036,1779,0,0
-700,-762,0,0,0,0,0,0,0,0,0,-1,524,1786,0,0
-693,-762,0,0,0,0,0,0,0,0,0,-1,531,1786,0,0
-686,-762,0,0,0,0,0,0,0,0,0,-1,538,1786,0,0
-679,-762,0,0,0,0,0,0,0,0,0,-1,545,1786,0,0
-672,-762,0,0,0,0,0,0,0,0,0,-1,552,1786,0,0
-665,-762,0,0,0,0,0,0,0,0,0,-1,559,1786,0,0
-658,-762,0,0,0,0,0,0,0,0,0,-1,566,1786,0,0
-651,-762,0,0,0,0,0,0,0,0,0,-1,573,1786,0,0
-644,-762,0,0,0,0,0,0,0,0,0,-1,580,1786,0,0
-637,-762,0,0,0,0,0,0,0,0,0,-1,587,1786,0,0
-630,-762,0,0,0,0,0,0,0,0,0,-1,594,1786,0,0
-623,-762,0,0,0,0,0,0,0,0,0,-1,601,1786,0,0
-616,-762,0,0,0,0,0,0,0,0,0,-1,608,1786,0,0
-609,-762,0,0,0,0,0,0,0,0,0,-1,615,1786,0,0
-602,-762,0,0,0,0,0,0,0,0,0,-1,622,1786,0,0
-595,-762,0,0,0,0,0,0,0,0,0,-1,629,1786,0,0
-588,-762,0,0,0,0,0,0,0,0,0,-1,636,1786,0,0
-581,-762,0,0,0,0,0,0,0,0,0,-1,643,1786,0,0
-574,-762,0,0,0,0,0,0,0,0,0,-1,650,1786,0,0
-567,-762,0,0,0,0,0,0,0,0,0,-1,657,1786,0,0
-560,-762,0,0,0,0,0,0,0,0,0,-1,664,1786,0,0
-553,-762,0,0,0,0,0,0,0,0,0,-1,671,1786,0,0
-546,-762,0,0,0,0,0,0,0,0,0,-1,678,1786,0,0
-539,-762,0,0,0,0,0,0,0,0,0,-1,685,1786,0,0
-532,-762,0,0,0,0,0,0,0,0,0,-1,692,1786,0,0
-525,-762,0,0,0,0,0,0,0,0,0,-1,699,1786,0,0
-518,-762,0,0,0,0,0,0,0,0,0,-1,706,1786,0,0
-511,-762,0,0,0,0,0,0,0,0,0,-1,713,1786,0,0
-504,-762,0,0,0,0,0,0,0,0,0,-1,720,1786,0,0
-497,-762,0,0,0,0,0,0,0,0,0,-1,727,1786,0,0
-490,-762,0,0,0,0,0,0,0,0,0,-1,734,1786,0,0
-483,-762,0,0,0,0,0,0,0,0,0,-1,741,1786,0,0
-476,-762,0,0,0,0,0,0,0,0,0,-1,748,1786,0,0
-469,-762,0,0,0,0,0,0,0,0,0,-1,755,1786,0,0
-462,-762,0,0,0,0,0,0,0,0,0,-1,762,1786,0,0
-455,-762,0,0,0,0,0,0,0,0,0,-1,769,1786,0,0
-448,-762,0,0,0,0,0,0,0,0,0,-1,776,1786,0,0
-441,-762,0,0,0,0,0,0,0,0,0,-1,783,1786,0,0
-434,-762,0,0,0,0,0,0,0,0,0,-1,790,1786,0,0
-427,-762,0,0,0,0,0,0,0,0,0,-1,797,1786,0,0
-420,-762,0,0,0,0,0,0,0,0,0,-1,804,1786,0,0
-413,-762,0,0,0,0,0,0,0,0,0,-1,811,1786,0,0
-406,-762,0,0,0,0,0,0,0,0,0,-1,818,1786,0,0
-399,-762,0,0,0,0,0,0,0,0,0,-1,825,1786,0,0
-392,-762,0,0,0,0,0,0,0,0,0,-1,832,1786,0,0
-385,-762,0,0,0,0,0,0,0,0,0,-1,839,1786,0,0
-378,-762,0,0,0,0,0,0,0,0,0,-1,846,1786,0,0
-371,-762,0,0,0,0,0,0,0,0,0,-1,853,1786,0,0
-364,-762,0,0,0,0,0,0,0,0,0,-1,860,1786,0,0
-357,-762,0,0,0,0,0,0,0,0,0,-1,867,1786,0,0
-350,-762,0,0,0,0,0,0,0,0,0,-1,874,1786,0,0
-343,-762,0,0,0,0,0,0,0,0,0,-1,881,1786,0,0
-336,-762,0,0,0,0,0,0,0,0,0,-1,888,1786,0,0
-329,-762,0,0,0,0,0,0,0,0,0,-1,895,1786,0,0
-322,-762,0,0,0,0,0,0,0,0,0,-1,902,1786,0,0
-315,-762,0,0,0,0,0,0,0,0,0,-1,909,1786,0,0
-308,-762,0,0,0,0,0,0,0,0,0,-1,916,1786,0,0
-301,-762,0,0,0,0,0,0,0,0,0,-1,923,1786,0,0
-294,-762,0,0,0,0,0,0,0,0,0,-1,930,1786,0,0
-287,-762,0,0,0,0,0,0,0,0,0,-1,937,1786,0,0
-280,-762,0,0,0,0,0,0,0,0,0,-1,944,1786,0,0
-273,-762,0,0,0,0,0,0,0,0,0,-1,951,1786,0,0
-266,-762,0,0,0,0,0,0,0,0,0,-1,958,1786,0,0
-259,-762,0,0,0,0,0,0,0,0,0,-1,965,1786,0,0
-252,-762,0,0,0,0,0,0,0,0,0,-1,972,1786,0,0
-245,-762,0,0,0,0,0,0,0,0,0,-1,979,1786,0,0
-238,-762,0,0,0,0,0,0,0,0,0,-1,986,1786,0,0
-231,-762,0,0,0,0,0,0,0,0,0,-1,993,1786,0,0
-224,-762,0,0,0,0,0,0,0,0,0,-1,1000,1786,0,0
-217,-762,0,0,0,0,0,0,0,0,0,-1,1007,1786,0,0
-210,-762,0,0,0,0,0,0,0,0,0,-1,1014,1786,0,0
-203,-762,0,0,0,0,0,0,0,0,0,-1,1021,1786,0,0
-196,-762,0,0,0,0,0,0,0,0,0,-1,1028,1786,0,0
-189,-762,0,0,0,0,0,0,0,0,0,-1,1035,1786,0,0
-182,-762,4.44226,13.2462,0,0,0,0,0,0,0,-1,1042,1786,4.44227,-13.2462
-175,-762,4.07861,11.6385,0,0,0,0,0,0,0,-1,1049,1786,4.07866,-11.6386
-168,-762,3.71509,10.031,0,0,0,0,0,0,0,-1,1056,1786,3.71504,-10.031
-161,-762,-3.43958,11.9911,0,0,0,0,0,0,0,-1,1063,1786,-3.43953,-11.9911
-154,-762,-4.57129,10.9923,0,0,0,0,0,0,0,-1,1070,1786,-4.57132,-10.9923
-147,-762,-1.09119,4.58313,0,0,0,0,0,0,0,-1,1077,1786,-1.09124,-4.58313
-140,-762,4.99792,5.28589,0,0,0,0,0,0,0,-1,1084,1786,4.99793,-5.28587
-133,-762,3.75159,9.08374,0,0,0,0,0,0,0,-1,1091,1786,3.75161,-9.08378
-126,-762,6.12231,12.5032,0,0,0,0,0,0,0,-1,1098,1786,6.12238,-12.5032
-119,-762,4.32642,11.1714,0,0,0,0,0,0,0,-1,1105,1786,4.32644,-11.1713
-112,-762,5.2428,16.5427,0,0,0,0,0,0,0,-1,1112,1786,5.24275,-16.5428
-105,-762,5.32837,16.2157,0,0,0,0,0,0,0,-1,1119,1786,5.32834,-16.2157
-98,-762,5.41394,15.8887,0,0,0,0,0,0,0,-1,1126,1786,5.41392,-15.8886
-91,-762,3.979,11.474,0,0,0,0,0,0,0,-1,1133,1786,3.97904,-11.474
-84,-762,0.415161,10.0322,0,0,0,0,0,0,0,-1,1140,1786,0.415179,-10.0322
-77,-762,0.305054,8.49365,0,0,0,0,0,0,0,-1,1147,1786,0.305008,-8.49362
-70,-762,0.183716,6.74622,0,0,0,0,0,0,0,-1,1154,1786,0.183696,-6.74621
-63,-762,0.350098,6.29749,0,0,0,0,0,0,0,-1,1161,1786,0.350114,-6.29743
-56,-762,-0.578979,5.10254,0,0,0,0,0,0,0,-1,1168,1786,-0.578951,-5.10249
-49,-762,-2.04541,3.66321,0,0,0,0,0,0,0,-1,1175,1786,-2.0454,-3.66319
-42,-762,-2.23462,3.474,0,0,0,0,0,0,0,-1,1182,1786,-2.23459,-3.47399
-35,-762,-3.28992,1.68164,0,0,0,0,0,0,0,-1,1189,1786,-3.28998,-1.68164
-28,-762,-3.75378,1.37769,0,0,0,0,0,0,0,-1,1196,1786,-3.75373,-1.37767
-21,-762,5.01001,15.5505,0,0,0,0,0,0,0,-1,1203,1786,5.01003,-15.5506
-14,-762,4.85413,15.6287,-0.028726,-0.0254968,-0.0103683,-0.0166182,-0.0376047,-0.86264,0.0217598,0.0484498,1210,1786,4.8541,-15.6287
-7,-762,4.69226,15.6667,-0.0265196,-0.0257105,-0.00959231,-0.0165143,-0.0357159,-0.806473,0.02064,0.0477269,1217,1786,4.69222,-15.6668
0,-762,4.68018,15.6732,-0.0243662,-0.0255211,-0.00838656,-0.0165372,-0.0333501,-0.751023,0.0192549,0.0359801,1224,1786,4.68017,-15.6732
7,-762,4.724,15.7054,-0.0223079,-0.0250681,-0.00712541,-0.0164302,-0.0309458,-0.689741,0.017878,0.0214715,1231,1786,4.724,-15.7055
14,-762,4.703,15.8766,-0.0205488,-0.0251255,-0.00576402,-0.0166355,-0.0290388,-0.596437,0.0168248,0.0333414,1238,1786,4.70297,-15.8766
21,-762,4.66003,15.9609,-0.0191932,-0.02419,-0.00420735,-0.0167984,-0.0265849,-0.517468,0.0155257,0.0395109,1245,1786,4.66005,-15.9609
28,-762,4.51013,15.9375,-0.0190094,-0.0226048,-0.00291941,-0.0173786,-0.0242356,-0.509428,0.0144253,0.0399331,1252,1786,4.51013,-15.9375
35,-762,4.56421,15.95,-0.0202426,-0.020464,-0.0011866,-0.0191615,-0.021545,-0.738888,0.0136385,0.0422145,1259,1786,4.56422,-15.9499
42,-762,4.58679,15.9666,-0.0207232,-0.0182961,0.000397878,-0.0182325,-0.0207868,1.41239,0.0130898,0.0391828,1266,1786,4.58679,-15.9666
49,-762,4.62219,15.9824,-0.0218745,-0.0153096,0.00161413,-0.0149342,-0.0222499,1.34229,0.0130946,0.0304412,1273,1786,4.62219,-15.9825
56,-762,4.64685,15.9612,-0.0235875,-0.0125165,0.0026985,-0.0118938,-0.0242102,1.344,0.0139785,0.0218663,1280,1786,4.6469,-15.9612
63,-762,4.61169,15.9565,-0.0251849,-0.00870532,0.00370206,-0.00791187,-0.0259783,1.35966,0.0153758,0.0196767,1287,1786,4.61168,-15.9565
70,-762,4.59668,15.951,-0.0265033,-0.0050391,0.00468154,-0.00406245,-0.02748,1.36513,0.0171272,0.0188158,1294,1786,4.59669,-15.9511
77,-762,4.62341,15.8929,-0.0271108,-0.00199389,0.00585199,-0.000697366,-0.0284074,1.35277,0.0187101,0.0260564,1301,1786,4.62343,-15.8929
84,-762,4.65625,15.8792,-0.0277095,0.000612675,0.00645842,0.0020159,-0.0291127,1.35685,0.0201141,0.0326259,1308,1786,4.65623,-15.8791
91,-762,4.71936,15.8872,-0.0278233,0.00302086,0.0070493,0.00455558,-0.029358,1.35643,0.0212539,0.0402343,1315,1786,4.71936,-15.8872
98,-762,4.64014,15.9862,-0.0269924,0.00504109,0.00765366,0.00677581,-0.0287271,1.34791,0.0217645,0.0420098,1322,1786,4.64011,-15.9862
105,-762,4.61536,16.0876,-0.0254537,0.00622616,0.00827664,0.00825817,-0.0274857,1.33005,0.0216091,0.0403791,1329,1786,4.6153,-16.0876
112,-762,4.60229,16.0181,-0.0236434,0.00703571,0.00912629,0.00954528,-0.0261529,1.30245,0.0213409,0.0406301,1336,1786,4.60232,-16.0181
119,-762,4.4624,15.8036,-0.0214935,0.0079245,0.00994174,0.0109692,-0.0245382,1.27361,0.0209932,0.0413475,1343,1786,4.46238,-15.8036
126,-762,4.42981,16.0426,-0.0191522,0.00763635,0.0106153,0.0113328,-0.0228486,1.23571,0.0201045,0.0453385,1350,1786,4.42983,-16.0425
133,-762,4.40991,16.0762,-0.0161402,0.00703314,0.0112717,0.0116113,-0.0207184,1.18499,0.0189108,0.0469103,1357,1786,4.40988,-16.0761
140,-762,4.50476,15.8594,-0.0123315,0.00610862,0.0111453,0.0113533,-0.0175761,1.13097,0.0168307,0.0474243,1364,1786,4.50476,-15.8593
147,-762,4.30872,15.709,-0.0109185,0.00511789,0.0109401,0.0106635,-0.0164641,1.10164,0.0157811,0.0458806,1371,1786,4.30875,-15.709
154,-762,4.53455,15.9279,0,0,0,0,0,0,0,-1,1378,1786,4.53459,-15.9279
161,-762,7.93408,-0.126221,0,0,0,0,0,0,0,-1,1385,1786,7.93402,0.126232
168,-762,8.19287,0.880615,0,0,0,0,0,0,0,-1,1392,1786,8.19291,-0.880603
175,-762,8.33997,1.95947,0,0,0,0,0,0,0,-1,1399,1786,8.33997,-1.95942
182,-762,8.28418,3.56482,0,0,0,0,0,0,0,-1,1406,1786,8.28415,-3.56485
189,-762,8.21179,5.23389,0,0,0,0,0,0,0,-1,1413,1786,8.21183,-5.23383
196,-762,8.05969,6.95483,0,0,0,0,0,0,0,-1,1420,1786,8.05972,-6.9548
203,-762,24.0077,7.10425,0,0,0,0,0,0,0,-1,1427,1786,24.0077,-7.10426
210,-762,23.8073,7.6499,0,0,0,0,0,0,0,-1,1434,1786,23.8073,-7.64987
217,-762,23.3193,8.24426,0,0,0,0,0,0,0,-1,1441,1786,23.3194,-8.2442
224,-762,4.64465,18.4674,0,0,0,0,0,0,0,-1,1448,1786,4.64462,-18.4674
231,-762,5.33093,17.0375,0,0,0,0,0,0,0,-1,1455,1786,5.33091,-17.0374
238,-762,6.01721,15.6074,0,0,0,0,0,0,0,-1,1462,1786,6.01719,-15.6075
245,-762,19.4435,8.03296,0,0,0,0,0,0,0,-1,1469,1786,19.4434,-8.03292
252,-762,18.4817,8.25159,-0.137623,-0.00203823,0.0309099,0.00467598,-0.144337,1.3569,0.0978207,0.0437139,1476,1786,18.4816,-8.25162
259,-762,17.4619,7.89832,-0.156272,-0.00757309,0.033238,-0.00048174,-0.163364,1.3606,0.108749,0.0474837,1483,1786,17.462,-7.89836
266,-762,16.451,7.67773,-0.175094,-0.0149363,0.0350021,-0.00762077,-0.18241,1.36476,0.119148,0.0477658,1490,1786,16.4511,-7.67773
273,-762,15.287,7.5304,0,0,0,0,0,0,0,-1,1497,1786,15.2869,-7.53044
280,-762,14.1501,7.38379,-0.213131,-0.0349629,0.0374956,-0.0273935,-0.2207,1.3716,0.138905,0.0465282,1504,1786,14.1502,-7.38376
287,-762,12.6891,7.99133,-0.230862,-0.0480389,0.0382552,-0.0403569,-0.238544,1.37262,0.14743,0.0428612,1511,1786,12.6891,-7.99135
294,-762,11.6133,8.5918,0,0,0,0,0,0,0,-1,1518,1786,11.6133,-8.59175
301,-762,9.90637,8.80591,0,0,0,0,0,0,0,-1,1525,1786,9.90636,-8.80596
308,-762,0,0,0,0,0,0,0,0,0,-1,1532,1786,0,0
315,-762,0,0,0,0,0,0,0,0,0,-1,1539,1786,0,0
322,-762,0,0,0,0,0,0,0,0,0,-1,1546,1786,0,0
329,-762,0,0,0,0,0,0,0,0,0,-1,1553,1786,0,0
336,-762,0,0,0,0,0,0,0,0,0,-1,1560,1786,0,0
343,-762,0,0,0,0,0,0,0,0,0,-1,1567,1786,0,0
350,-762,0,0,0,0,0,0,0,0,0,-1,1574,1786,0,0
357,-762,0,0,0,0,0,0,0,0,0,-1,1581,1786,0,0
364,-762,0,0,0,0,0,0,0,0,0,-1,1588,1786,0,0
371,-762,0,0,0,0,0,0,0,0,0,-1,1595,1786,0,0
378,-762,0,0,0,0,0,0,0,0,0,-1,1602,1786,0,0
385,-762,0,0,0,0,0,0,0,0,0,-1,1609,1786,0,0
392,-762,0,0,0,0,0,0,0,0,0,-1,1616,1786,0,0
399,-762,0,0,0,0,0,0,0,0,0,-1,1623,1786,0,0
406,-762,0,0,0,0,0,0,0,0,0,-1,1630,1786,0,0
413,-762,0,0,0,0,0,0,0,0,0,-1,1637,1786,0,0
420,-762,0,0,0,0,0,0,0,0,0,-1,1644,1786,0,0
427,-762,0,0,0,0,0,0,0,0,0,-1,1651,1786,0,0
434,-762,0,0,0,0,0,0,0,0,0,-1,1658,1786,0,0
441,-762,0,0,0,0,0,0,0,0,0,-1,1665,1786,0,0
448,-762,0,0,0,0,0,0,0,0,0,-1,1672,1786,0,0
455,-762,0,0,0,0,0,0,0,0,0,-1,1679,1786,0,0
462,-762,0,0,0,0,0,0,0,0,0,-1,1686,1786,0,0
469,-762,0,0,0,0,0,0,0,0,0,-1,1693,1786,0,0
476,-762,0,0,0,0,0,0,0,0,0,-1,1700,1786,0,0
483,-762,0,0,0,0,0,0,0,0,0,-1,1707,1786,0,0
490,-762,0,0,0,0,0,0,0,0,0,-1,1714,1786,0,0
497,-762,0,0,0,0,0,0,0,0,0,-1,1721,1786,0,0
504,-762,0,0,0,0,0,0,0,0,0,-1,1728,1786,0,0
511,-762,0,0,0,0,0,0,0,0,0,-1,1735,1786,0,0
518,-762,0,0,0,0,0,0,0,0,0,-1,1742,1786,0,0
525,-762,0,0,0,0,0,0,0,0,0,-1,1749,1786,0,0
532,-762,0,0,0,0,0,0,0,0,0,-1,1756,1786,0,0
539,-762,0,0,0,0,0,0,0,0,0,-1,1763,1786,0,0
546,-762,0,0,0,0,0,0,0,0,0,-1,1770,1786,0,0
553,-762,0,0,0,0,0,0,0,0,0,-1,1777,1786,0,0
560,-762,0,0,0,0,0,0,0,0,0,-1,1784,1786,0,0
567,-762,0,0,0,0,0,0,0,0,0,-1,1791,1786,0,0
574,-762,0,0,0,0,0,0,0,0,0,-1,1798,1786,0,0
581,-762,0,0,0,0,0,0,0,0,0,-1,1805,1786,0,0
588,-762,0,0,0,0,0,0,0,0,0,-1,1812,1786,0,0
595,-762,0,0,0,0,0,0,0,0,0,-1,1819,1786,0,0
602,-762,0,0,0,0,0,0,0,0,0,-1,1826,1786,0,0
609,-762,0,0,0,0,0,0,0,0,0,-1,1833,1786,0,0
616,-762,0,0,0,0,0,0,0,0,0,-1,1840,1786,0,0
623,-762,0,0,0,0,0,0,0,0,0,-1,1847,1786,0,0
630,-762,0,0,0,0,0,0,0,0,0,-1,1854,1786,0,0
637,-762,0,0,0,0,0,0,0,0,0,-1,1861,1786,0,0
644,-762,0,0,0,0,0,0,0,0,0,-1,1868,1786,0,0
651,-762,0,0,0,0,0,0,0,0,0,-1,1875,1786,0,0
658,-762,0,0,0,0,0,0,0,0,0,-1,1882,1786,0,0
665,-762,0,0,0,0,0,0,0,0,0,-1,1889,1786,0,0
672,-762,0,0,0,0,0,0,0,0,0,-1,1896,1786,0,0
679,-762,0,0,0,0,0,0,0,0,0,-1,1903,1786,0,0
686,-762,0,0,0,0,0,0,0,0,0,-1,1910,1786,0,0
693,-762,0,0,0,0,0,0,0,0,0,-1,1917,1786,0,0
700,-762,0,0,0,0,0,0,0,0,0,-1,1924,1786,0,0
707,-762,0,0,0,0,0,0,0,0,0,-1,1931,1786,0,0
714,-762,0,0,0,0,0,0,0,0,0,-1,1938,1786,0,0
721,-762,0,0,0,0,0,0,0,0,0,-1,1945,1786,0,0
728,-762,0,0,0,0,0,0,0,0,0,-1,1952,1786,0,0
735,-762,0,0,0,0,0,0,0,0,0,-1,1959,1786,0,0
742,-762,0,0,0,0,0,0,0,0,0,-1,1966,1786,0,0
749,-762,0,0,0,0,0,0,0,0,0,-1,1973,1786,0,0
756,-762,0,0,0,0,0,0,0,0,0,-1,1980,1786,0,0
763,-762,0,0,0,0,0,0,0,0,0,-1,1987,1786,0,0
770,-762,0,0,0,0,0,0,0,0,0,-1,1994,1786,0,0
777,-762,0,0,0,0,0,0,0,0,0,-1,2001,1786,0,0
784,-762,0,0,0,0,0,0,0,0,0,-1,2008,1786,0,0
791,-762,0,0,0,0,0,0,0,0,0,-1,2015,1786,0,0
798,-762,0,0,0,0,0,0,0,0,0,-1,2022,1786,0,0
805,-762,0,0,0,0,0,0,0,0,0,-1,2029,1786,0,0
812,-762,0,0,0,0,0,0,0,0,0,-1,2036,1786,0,0
-700,-769,0,0,0,0,0,0,0,0,0,-1,524,1793,0,0
-693,-769,0,0,0,0,0,0,0,0,0,-1,531,1793,0,0
-686,-769,0,0,0,0,0,0,0,0,0,-1,538,1793,0,0
-679,-769,0,0,0,0,0,0,0,0,0,-1,545,1793,0,0
-672,-769,0,0,0,0,0,0,0,0,0,-1,552,1793,0,0
-665,-769,0,0,0,0,0,0,0,0,0,-1,559,1793,0,0
-658,-769,0,0,0,0,0,0,0,0,0,-1,566,1793,0,0
-651,-769,0,0,0,0,0,0,0,0,0,-1,573,1793,0,0
-644,-769,0,0,0,0,0,0,0,0,0,-1,580,1793,0,0
-637,-769,0,0,0,0,0,0,0,0,0,-1,587,1793,0,0
-630,-769,0,0,0,0,0,0,0,0,0,-1,594,1793,0,0
-623,-769,0,0,0,0,0,0,0,0,0,-1,601,1793,0,0
-616,-769,0,0,0,0,0,0,0,0,0,-1,608,1793,0,0
-609,-769,0,0,0,0,0,0,0,0,0,-1,615,1793,0,0
-602,-769,0,0,0,0,0,0,0,0,0,-1,622,1793,0,0
-595,-769,0,0,0,0,0,0,0,0,0,-1,629,1793,0,0
-588,-769,0,0,0,0,0,0,0,0,0,-1,636,1793,0,0
-581,-769,0,0,0,0,0,0,0,0,0,-1,643,1793,0,0
-574,-769,0,0,0,0,0,0,0,0,0,-1,650,1793,0,0
-567,-769,0,0,0,0,0,0,0,0,0,-1,657,1793,0,0
-560,-769,0,0,0,0,0,0,0,0,0,-1,664,1793,0,0
-553,-769,0,0,0,0,0,0,0,0,0,-1,671,1793,0,0
-546,-769,0,0,0,0,0,0,0,0,0,-1,678,1793,0,0
-539,-769,0,0,0,0,0,0,0,0,0,-1,685,1793,0,0
-532,-769,0,0,0,0,0,0,0,0,0,-1,692,1793,0,0
-525,-769,0,0,0,0,0,0,0,0,0,-1,699,1793,0,0
-518,-769,0,0,0,0,0,0,0,0,0,-1,706,1793,0,0
-511,-769,0,0,0,0,0,0,0,0,0,-1,713,1793,0,0
-504,-769,0,0,0,0,0,0,0,0,0,-1,720,1793,0,0
-497,-769,0,0,0,0,0,0,0,0,0,-1,727,1793,0,0
-490,-769,0,0,0,0,0,0,0,0,0,-1,734,1793,0,0
-483,-769,0,0,0,0,0,0,0,0,0,-1,741,1793,0,0
-476,-769,0,0,0,0,0,0,0,0,0,-1,748,1793,0,0
-469,-769,0,0,0,0,0,0,0,0,0,-1,755,1793,0,0
-462,-769,0,0,0,0,0,0,0,0,0,-1,762,1793,0,0
-455,-769,0,0,0,0,0,0,0,0,0,-1,769,1793,0,0
-448,-769,0,0,0,0,0,0,0,0,0,-1,776,1793,0,0
-441,-769,0,0,0,0,0,0,0,0,0,-1,783,1793,0,0
-434,-769,0,0,0,0,0,0,0,0,0,-1,790,1793,0,0
-427,-769,0,0,0,0,0,0,0,0,0,-1,797,1793,0,0
-420,-769,0,0,0,0,0,0,0,0,0,-1,804,1793,0,0
-413,-769,0,0,0,0,0,0,0,0,0,-1,811,1793,0,0
-406,-769,0,0,0,0,0,0,0,0,0,-1,818,1793,0,0
-399,-769,0,0,0,0,0,0,0,0,0,-1,825,1793,0,0
-392,-769,0,0,0,0,0,0,0,0,0,-1,832,1793,0,0
-385,-769,0,0,0,0,0,0,0,0,0,-1,839,1793,0,0
-378,-769,0,0,0,0,0,0,0,0,0,-1,846,1793,0,0
-371,-769,0,0,0,0,0,0,0,0,0,-1,853,1793,0,0
-364,-769,0,0,0,0,0,0,0,0,0,-1,860,1793,0,0
-357,-769,0,0,0,0,0,0,0,0,0,-1,867,1793,0,0
-350,-769,0,0,0,0,0,0,0,0,0,-1,874,1793,0,0
-343,-769,0,0,0,0,0,0,0,0,0,-1,881,1793,0,0
-336,-769,0,0,0,0,0,0,0,0,0,-1,888,1793,0,0
-329,-769,0,0,0,0,0,0,0,0,0,-1,895,1793,0,0
-322,-769,0,0,0,0,0,0,0,0,0,-1,902,1793,0,0
-315,-769,0,0,0,0,0,0,0,0,0,-1,909,1793,0,0
-308,-769,0,0,0,0,0,0,0,0,0,-1,916,1793,0,0
-301,-769,0,0,0,0,0,0,0,0,0,-1,923,1793,0,0
-294,-769,0,0,0,0,0,0,0,0,0,-1,930,1793,0,0
-287,-769,0,0,0,0,0,0,0,0,0,-1,937,1793,0,0
-280,-769,0,0,0,0,0,0,0,0,0,-1,944,1793,0,0
-273,-769,0,0,0,0,0,0,0,0,0,-1,951,1793,0,0
-266,-769,0,0,0,0,0,0,0,0,0,-1,958,1793,0,0
-259,-769,0,0,0,0,0,0,0,0,0,-1,965,1793,0,0
-252,-769,0,0,0,0,0,0,0,0,0,-1,972,1793,0,0
-245,-769,0,0,0,0,0,0,0,0,0,-1,979,1793,0,0
-238,-769,0,0,0,0,0,0,0,0,0,-1,986,1793,0,0
-231,-769,0,0,0,0,0,0,0,0,0,-1,993,1793,0,0
-224,-769,0,0,0,0,0,0,0,0,0,-1,1000,1793,0,0
-217,-769,0,0,0,0,0,0,0,0,0,-1,1007,1793,0,0
-210,-769,0,0,0,0,0,0,0,0,0,-1,1014,1793,0,0
-203,-769,0,0,0,0,0,0,0,0,0,-1,1021,1793,0,0
-196,-769,0,0,0,0,0,0,0,0,0,-1,1028,1793,0,0
-189,-769,0,0,0,0,0,0,0,0,0,-1,1035,1793,0,0
-182,-769,0,0,0,0,0,0,0,0,0,-1,1042,1793,0,0
-175,-769,0,0,0,0,0,0,0,0,0,-1,1049,1793,0,0
-168,-769,0,0,0,0,0,0,0,0,0,-1,1056,1793,0,0
-161,-769,-3.39258,12.5125,0,0,0,0,0,0,0,-1,1063,1793,-3.39257,-12.5125
-154,-769,-0.813232,5.32874,0,0,0,0,0,0,0,-1,1070,1793,-0.813269,-5.32872
-147,-769,4.26587,4.7002,0,0,0,0,0,0,0,-1,1077,1793,4.26593,-4.70022
-140,-769,4.10376,5.28589,0,0,0,0,0,0,0,-1,1084,1793,4.10371,-5.28584
-133,-769,6.422,8.21777,0,0,0,0,0,0,0,-1,1091,1793,6.42198,-8.21773
-126,-769,5.93201,12.4241,0,0,0,0,0,0,0,-1,1098,1793,5.93198,-12.424
-119,-769,5.14551,12.6484,-0.0706361,-0.109517,-0.0141347,-0.0660408,-0.114113,-0.314332,0.0661547,0.0447126,1105,1793,5.14551,-12.6484
-112,-769,4.38989,12.9652,-0.0682929,-0.109569,-0.0151086,-0.0633536,-0.114508,-0.315966,0.0662362,0.0430039,1112,1793,4.38988,-12.9652
-105,-769,5.58887,16.5793,0,0,0,0,0,0,0,-1,1119,1793,5.58887,-16.5793
-98,-769,3.82715,12.5313,0,0,0,0,0,0,0,-1,1126,1793,3.82715,-12.5313
-91,-769,3.25049,12.1672,0,0,0,0,0,0,0,-1,1133,1793,3.25045,-12.1673
-84,-769,3.25684,11.7041,0,0,0,0,0,0,0,-1,1140,1793,3.25681,-11.7041
-77,-769,0.406616,9.9126,0,0,0,0,0,0,0,-1,1147,1793,0.406638,-9.91265
-70,-769,0.99707,7.63843,0,0,0,0,0,0,0,-1,1154,1793,0.997071,-7.63837
-63,-769,-1.5824,8.45093,0,0,0,0,0,0,0,-1,1161,1793,-1.58236,-8.45099
-56,-769,-4.21289,5.6886,0,0,0,0,0,0,0,-1,1168,1793,-4.21291,-5.68859
-49,-769,-2.41443,3.95471,0,0,0,0,0,0,0,-1,1175,1793,-2.41446,-3.95471
-42,-769,-3.1991,2.64941,0,0,0,0,0,0,0,-1,1182,1793,-3.19914,-2.64944
-35,-769,-3.50183,1.73389,0,0,0,0,0,0,0,-1,1189,1793,-3.50189,-1.7339
-28,-769,-3.96985,1.14075,0,0,0,0,0,0,0,-1,1196,1793,-3.96985,-1.14078
-21,-769,3.54541,10.4323,0,0,0,0,0,0,0,-1,1203,1793,3.54539,-10.4322
-14,-769,4.89124,15.6964,0,0,0,0,0,0,0,-1,1210,1793,4.89124,-15.6965
-7,-769,4.69141,15.687,0,0,0,0,0,0,0,-1,1217,1793,4.69135,-15.687
0,-769,4.63049,15.6676,0,0,0,0,0,0,0,-1,1224,1793,4.63048,-15.6676
7,-769,4.45496,16.0222,-0.0297441,-0.0332218,-0.0102457,-0.0210907,-0.0418752,-0.701341,0.0241769,0.0446757,1231,1793,4.45491,-16.0222
14,-769,4.68799,15.932,-0.0274286,-0.0331884,-0.00832099,-0.0215033,-0.0391138,-0.618799,0.0226196,0.0451555,1238,1793,4.68797,-15.932
21,-769,4.72742,16.0225,0,0,0,0,0,0,0,-1,1245,1793,4.72741,-16.0225
28,-769,4.34851,16.0271,0,0,0,0,0,0,0,-1,1252,1793,4.34847,-16.0271
35,-769,4.53528,15.9626,-0.0278001,-0.027013,-0.00172704,-0.0256352,-0.0291778,-0.897419,0.0183851,0.0482019,1259,1793,4.53526,-15.9626
42,-769,4.49414,16.1526,-0.0287769,-0.0242949,0.000527468,-0.0242337,-0.0288382,1.45521,0.0178892,0.0475295,1266,1793,4.49418,-16.1526
49,-769,4.86926,16.1182,0,0,0,0,0,0,0,-1,1273,1793,4.86926,-16.1182
56,-769,4.6698,16.1029,-0.0331881,-0.0170238,0.00394726,-0.0161114,-0.0341005,1.34364,0.0196979,0.0458103,1280,1793,4.66978,-16.1029
63,-769,4.57397,15.9767,-0.03555,-0.0122891,0.00546585,-0.0110688,-0.0367703,1.35113,0.0217825,0.0465713,1287,1793,4.57402,-15.9767
70,-769,4.55347,15.9198,-0.0376061,-0.00767205,0.00688958,-0.00616248,-0.0391156,1.3551,0.024285,0.0456245,1294,1793,4.55342,-15.9198
77,-769,4.95178,15.5864,-0.0387681,-0.00372333,0.00848787,-0.00177579,-0.0407157,1.34525,0.0265716,0.0467178,1301,1793,4.95182,-15.5865
84,-769,4.74915,15.7866,-0.0398541,-0.000200322,0.00938765,0.00190982,-0.0419643,1.34969,0.028634,0.0473956,1308,1793,4.74912,-15.7866
91,-769,4.96631,15.7087,-0.0401803,0.00307886,0.0102549,0.00538675,-0.0424881,1.34943,0.0302811,0.046185,1315,1793,4.96627,-15.7088
98,-769,5.25623,15.9108,-0.0390908,0.00586918,0.0110985,0.00845961,-0.0416813,1.3415,0.0309946,0.0456759,1322,1793,5.25629,-15.9108
105,-769,4.68164,16.1992,0,0,0,0,0,0,0,-1,1329,1793,4.68163,-16.1992
112,-769,4.48889,15.5808,-0.0346521,0.0090819,0.0131754,0.0127444,-0.0383147,1.29966,0.0306865,0.0440591,1336,1793,4.48893,-15.5808
119,-769,4.42188,15.6476,-0.0316269,0.0105808,0.0143734,0.0150106,-0.0360567,1.27184,0.0303069,0.0434149,1343,1793,4.42186,-15.6476
126,-769,4.24329,16.1299,-0.0282625,0.0105059,0.0154255,0.0158945,-0.0336512,1.23472,0.0292112,0.0493984,1350,1793,4.24328,-16.1299
133,-769,4.32825,16.2214,0,0,0,0,0,0,0,-1,1357,1793,4.32822,-16.2215
140,-769,4.54553,15.89,0,0,0,0,0,0,0,-1,1364,1793,4.54549,-15.89
147,-769,4.3009,15.5565,0,0,0,0,0,0,0,-1,1371,1793,4.30089,-15.5565
154,-769,6.37561,1.00024,0,0,0,0,0,0,0,-1,1378,1793,6.37566,-1.00028
161,-769,6.57019,1.53223,0,0,0,0,0,0,0,-1,1385,1793,6.57019,-1.53226
168,-769,8.27637,0.756958,0,0,0,0,0,0,0,-1,1392,1793,8.27639,-0.756944
175,-769,8.47144,2.41174,0,0,0,0,0,0,0,-1,1399,1793,8.47147,-2.4118
182,-769,8.41479,4.05994,0,0,0,0,0,0,0,-1,1406,1793,8.41479,-4.05997
189,-769,8.25049,5.68433,0,0,0,0,0,0,0,-1,1413,1793,8.25054,-5.68428
196,-769,7.97729,7.42847,0,0,0,0,0,0,0,-1,1420,1793,7.9773,-7.42848
203,-769,22.0977,6.73889,0,0,0,0,0,0,0,-1,1427,1793,22.0977,-6.7389
210,-769,22.1115,7.77246,0,0,0,0,0,0,0,-1,1434,1793,22.1115,-7.77248
217,-769,22.4723,8.79102,0,0,0,0,0,0,0,-1,1441,1793,22.4723,-8.79099
224,-769,22.1348,9.35278,0,0,0,0,0,0,0,-1,1448,1793,22.1348,-9.35283
231,-769,5.99573,17.9962,0,0,0,0,0,0,0,-1,1455,1793,5.99578,-17.9962
238,-769,21.7686,9.32788,0,0,0,0,0,0,0,-1,1462,1793,21.7685,-9.3279
245,-769,18.8502,7.89856,0,0,0,0,0,0,0,-1,1469,1793,18.8502,-7.89854
252,-769,17.4956,7.51794,0,0,0,0,0,0,0,-1,1476,1793,17.4956,-7.51795
259,-769,16.4871,7.42102,0,0,0,0,0,0,0,-1,1483,1793,16.4871,-7.42104
266,-769,15.8488,7.3905,0,0,0,0,0,0,0,-1,1490,1793,15.8488,-7.39046
273,-769,14.8075,7.56152,0,0,0,0,0,0,0,-1,1497,1793,14.8075,-7.56152
280,-769,13.6519,7.43054,0,0,0,0,0,0,0,-1,1504,1793,13.6518,-7.43058
287,-769,0,0,0,0,0,0,0,0,0,-1,1511,1793,0,0
294,-769,0,0,0,0,0,0,0,0,0,-1,1518,1793,0,0
301,-769,0,0,0,0,0,0,0,0,0,-1,1525,1793,0,0
308,-769,0,0,0,0,0,0,0,0,0,-1,1532,1793,0,0
315,-769,0,0,0,0,0,0,0,0,0,-1,1539,1793,0,0
322,-769,0,0,0,0,0,0,0,0,0,-1,1546,1793,0,0
329,-769,0,0,0,0,0,0,0,0,0,-1,1553,1793,0,0
336,-769,0,0,0,0,0,0,0,0,0,-1,1560,1793,0,0
343,-769,0,0,0,0,0,0,0,0,0,-1,1567,1793,0,0
350,-769,0,0,0,0,0,0,0,0,0,-1,1574,1793,0,0
357,-769,0,0,0,0,0,0,0,0,0,-1,1581,1793,0,0
364,-769,0,0,0,0,0,0,0,0,0,-1,1588,1793,0,0
371,-769,0,0,0,0,0,0,0,0,0,-1,1595,1793,0,0
378,-769,0,0,0,0,0,0,0,0,0,-1,1602,1793,0,0
385,-769,0,0,0,0,0,0,0,0,0,-1,1609,1793,0,0
392,-769,0,0,0,0,0,0,0,0,0,-1,1616,1793,0,0
399,-769,0,0,0,0,0,0,0,0,0,-1,1623,1793,0,0
406,-769,0,0,0,0,0,0,0,0,0,-1,1630,1793,0,0
413,-769,0,0,0,0,0,0,0,0,0,-1,1637,1793,0,0
420,-769,0,0,0,0,0,0,0,0,0,-1,1644,1793,0,0
427,-769,0,0,0,0,0,0,0,0,0,-1,1651,1793,0,0
434,-769,0,0,0,0,0,0,0,0,0,-1,1658,1793,0,0
441,-769,0,0,0,0,0,0,0,0,0,-1,1665,1793,0,0
448,-769,0,0,0,0,0,0,0,0,0,-1,1672,1793,0,0
455,-769,0,0,0,0,0,0,0,0,0,-1,1679,1793,0,0
462,-769,0,0,0,0,0,0,0,0,0,-1,1686,1793,0,0
469,-769,0,0,0,0,0,0,0,0,0,-1,1693,1793,0,0
476,-769,0,0,0,0,0,0,0,0,0,-1,1700,1793,0,0
483,-769,0,0,0,0,0,0,0,0,0,-1,1707,1793,0,0
490,-769,0,0,0,0,0,0,0,0,0,-1,1714,1793,0,0
497,-769,0,0,0,0,0,0,0,0,0,-1,1721,1793,0,0
504,-769,0,0,0,0,0,0,0,0,0,-1,1728,1793,0,0
511,-769,0,0,0,0,0,0,0,0,0,-1,1735,1793,0,0
518,-769,0,0,0,0,0,0,0,0,0,-1,1742,1793,0,0
525,-769,0,0,0,0,0,0,0,0,0,-1,1749,1793,0,0
532,-769,0,0,0,0,0,0,0,0,0,-1,1756,1793,0,0
539,-769,0,0,0,0,0,0,0,0,0,-1,1763,1793,0,0
546,-769,0,0,0,0,0,0,0,0,0,-1,1770,1793,0,0
553,-769,0,0,0,0,0,0,0,0,0,-1,1777,1793,0,0
560,-769,0,0,0,0,0,0,0,0,0,-1,1784,1793,0,0
567,-769,0,0,0,0,0,0,0,0,0,-1,1791,1793,0,0
574,-769,0,0,0,0,0,0,0,0,0,-1,1798,1793,0,0
581,-769,0,0,0,0,0,0,0,0,0,-1,1805,1793,0,0
588,-769,0,0,0,0,0,0,0,0,0,-1,1812,1793,0,0
595,-769,0,0,0,0,0,0,0,0,0,-1,1819,1793,0,0
602,-769,0,0,0,0,0,0,0,0,0,-1,1826,1793,0,0
609,-769,0,0,0,0,0,0,0,0,0,-1,1833,1793,0,0
616,-769,0,0,0,0,0,0,0,0,0,-1,1840,1793,0,0
623,-769,0,0,0,0,0,0,0,0,0,-1,1847,1793,0,0
630,-769,0,0,0,0,0,0,0,0,0,-1,1854,1793,0,0
637,-769,0,0,0,0,0,0,0,0,0,-1,1861,1793,0,0
644,-769,0,0,0,0,0,0,0,0,0,-1,1868,1793,0,0
651,-769,0,0,0,0,0,0,0,0,0,-1,1875,1793,0,0
658,-769,0,0,0,0,0,0,0,0,0,-1,1882,1793,0,0
665,-769,0,0,0,0,0,0,0,0,0,-1,1889,1793,0,0
672,-769,0,0,0,0,0,0,0,0,0,-1,1896,1793,0,0
679,-769,0,0,0,0,0,0,0,0,0,-1,1903,1793,0,0
686,-769,0,0,0,0,0,0,0,0,0,-1,1910,1793,0,0
693,-769,0,0,0,0,0,0,0,0,0,-1,1917,1793,0,0
700,-769,0,0,0,0,0,0,0,0,0,-1,1924,1793,0,0
707,-769,0,0,0,0,0,0,0,0,0,-1,1931,1793,0,0
714,-769,0,0,0,0,0,0,0,0,0,-1,1938,1793,0,0
721,-769,0,0,0,0,0,0,0,0,0,-1,1945,1793,0,0
728,-769,0,0,0,0,0,0,0,0,0,-1,1952,1793,0,0
735,-769,0,0,0,0,0,0,0,0,0,-1,1959,1793,0,0
742,-769,0,0,0,0,0,0,0,0,0,-1,1966,1793,0,0
749,-769,0,0,0,0,0,0,0,0,0,-1,1973,1793,0,0
756,-769,0,0,0,0,0,0,0,0,0,-1,1980,1793,0,0
763,-769,0,0,0,0,0,0,0,0,0,-1,1987,1793,0,0
770,-769,0,0,0,0,0,0,0,0,0,-1,1994,1793,0,0
777,-769,0,0,0,0,0,0,0,0,0,-1,2001,1793,0,0
784,-769,0,0,0,0,0,0,0,0,0,-1,2008,1793,0,0
791,-769,0,0,0,0,0,0,0,0,0,-1,2015,1793,0,0
798,-769,0,0,0,0,0,0,0,0,0,-1,2022,1793,0,0
805,-769,0,0,0,0,0,0,0,0,0,-1,2029,1793,0,0
812,-769,0,0,0,0,0,0,0,0,0,-1,2036,1793,0,0
-700,-776,0,0,0,0,0,0,0,0,0,-1,524,1800,0,0
-693,-776,0,0,0,0,0,0,0,0,0,-1,531,1800,0,0
-686,-776,0,0,0,0,0,0,0,0,0,-1,538,1800,0,0
-679,-776,0,0,0,0,0,0,0,0,0,-1,545,1800,0,0
-672,-776,0,0,0,0,0,0,0,0,0,-1,552,1800,0,0
-665,-776,0,0,0,0,0,0,0,0,0,-1,559,1800,0,0
-658,-776,0,0,0,0,0,0,0,0,0,-1,566,1800,0,0
-651,-776,0,0,0,0,0,0,0,0,0,-1,573,1800,0,0
-644,-776,0,0,0,0,0,0,0,0,0,-1,580,1800,0,0
-637,-776,0,0,0,0,0,0,0,0,0,-1,587,1800,0,0
-630,-776,0,0,0,0,0,0,0,0,0,-1,594,1800,0,0
-623,-776,0,0,0,0,0,0,0,0,0,-1,601,1800,0,0
-616,-776,0,0,0,0,0,0,0,0,0,-1,608,1800,0,0
-609,-776,0,0,0,0,0,0,0,0,0,-1,615,1800,0,0
-602,-776,0,0,0,0,0,0,0,0,0,-1,622,1800,0,0
-595,-776,0,0,0,0,0,0,0,0,0,-1,629,1800,0,0
-588,-776,0,0,0,0,0,0,0,0,0,-1,636,1800,0,0
-581,-776,0,0,0,0,0,0,0,0,0,-1,643,1800,0,0
-574,-776,0,0,0,0,0,0,0,0,0,-1,650,1800,0,0
-567,-776,0,0,0,0,0,0,0,0,0,-1,657,1800,0,0
-560,-776,0,0,0,0,0,0,0,0,0,-1,664,1800,0,0
-553,-776,0,0,0,0,0,0,0,0,0,-1,671,1800,0,0
-546,-776,0,0,0,0,0,0,0,0,0,-1,678,1800,0,0
-539,-776,0,0,0,0,0,0,0,0,0,-1,685,1800,0,0
-532,-776,0,0,0,0,0,0,0,0,0,-1,692,1800,0,0
-525,-776,0,0,0,0,0,0,0,0,0,-1,699,1800,0,0
-518,-776,0,0,0,0,0,0,0,0,0,-1,706,1800,0,0
-511,-776,0,0,0,0,0,0,0,0,0,-1,713,1800,0,0
-504,-776,0,0,0,0,0,0,0,0,0,-1,720,1800,0,0
-497,-776,0,0,0,0,0,0,0,0,0,-1,727,1800,0,0
-490,-776,0,0,0,0,0,0,0,0,0,-1,734,1800,0,0
-483,-776,0,0,0,0,0,0,0,0,0,-1,741,1800,0,0
-476,-776,0,0,0,0,0,0,0,0,0,-1,748,1800,0,0
-469,-776,0,0,0,0,0,0,0,0,0,-1,755,1800,0,0
-462,-776,0,0,0,0,0,0,0,0,0,-1,762,1800,0,0
-455,-776,0,0,0,0,0,0,0,0,0,-1,769,1800,0,0
-448,-776,0,0,0,0,0,0,0,0,0,-1,776,1800,0,0
-441,-776,0,0,0,0,0,0,0,0,0,-1,783,1800,0,0
-434,-776,0,0,0,0,0,0,0,0,0,-1,790,1800,0,0
-427,-776,0,0,0,0,0,0,0,0,0,-1,797,1800,0,0
-420,-776,0,0,0,0,0,0,0,0,0,-1,804,1800,0,0
-413,-776,0,0,0,0,0,0,0,0,0,-1,811,1800,0,0
-406,-776,0,0,0,0,0,0,0,0,0,-1,818,1800,0,0
-399,-776,0,0,0,0,0,0,0,0,0,-1,825,1800,0,0
-392,-776,0,0,0,0,0,0,0,0,0,-1,832,1800,0,0
-385,-776,0,0,0,0,0,0,0,0,0,-1,839,1800,0,0
-378,-776,0,0,0,0,0,0,0,0,0,-1,846,1800,0,0
-371,-776,0,0,0,0,0,0,0,0,0,-1,853,1800,0,0
-364,-776,0,0,0,0,0,0,0,0,0,-1,860,1800,0,0
-357,-776,0,0,0,0,0,0,0,0,0,-1,867,1800,0,0
-350,-776,0,0,0,0,0,0,0,0,0,-1,874,1800,0,0
-343,-776,0,0,0,0,0,0,0,0,0,-1,881,1800,0,0
-336,-776,0,0,0,0,0,0,0,0,0,-1,888,1800,0,0
-329,-776,0,0,0,0,0,0,0,0,0,-1,895,1800,0,0
-322,-776,0,0,0,0,0,0,0,0,0,-1,902,1800,0,0
-315,-776,0,0,0,0,0,0,0,0,0,-1,909,1800,0,0
-308,-776,0,0,0,0,0,0,0,0,0,-1,916,1800,0,0
-301,-776,0,0,0,0,0,0,0,0,0,-1,923,1800,0,0
-294,-776,0,0,0,0,0,0,0,0,0,-1,930,1800,0,0
-287,-776,0,0,0,0,0,0,0,0,0,-1,937,1800,0,0
-280,-776,0,0,0,0,0,0,0,0,0,-1,944,1800,0,0
-273,-776,0,0,0,0,0,0,0,0,0,-1,951,1800,0,0
-266,-776,0,0,0,0,0,0,0,0,0,-1,958,1800,0,0
-259,-776,0,0,0,0,0,0,0,0,0,-1,965,1800,0,0
-252,-776,0,0,0,0,0,0,0,0,0,-1,972,1800,0,0
-245,-776,0,0,0,0,0,0,0,0,0,-1,979,1800,0,0
-238,-776,0,0,0,0,0,0,0,0,0,-1,986,1800,0,0
-231,-776,0,0,0,0,0,0,0,0,0,-1,993,1800,0,0
-224,-776,0,0,0,0,0,0,0,0,0,-1,1000,1800,0,0
-217,-776,0,0,0,0,0,0,0,0,0,-1,1007,1800,0,0
-210,-776,0,0,0,0,0,0,0,0,0,-1,1014,1800,0,0
-203,-776,0,0,0,0,0,0,0,0,0,-1,1021,1800,0,0
-196,-776,0,0,0,0,0,0,0,0,0,-1,1028,1800,0,0
-189,-776,0,0,0,0,0,0,0,0,0,-1,1035,1800,0,0
-182,-776,0,0,0,0,0,0,0,0,0,-1,1042,1800,0,0
-175,-776,0,0,0,0,0,0,0,0,0,-1,1049,1800,0,0
-168,-776,0,0,0,0,0,0,0,0,0,-1,1056,1800,0,0
-161,-776,0,0,0,0,0,0,0,0,0,-1,1063,1800,0,0
-154,-776,0,0,0,0,0,0,0,0,0,-1,1070,1800,0,0
-147,-776,0,0,0,0,0,0,0,0,0,-1,1077,1800,0,0
-140,-776,2.98499,5.20911,0,0,0,0,0,0,0,-1,1084,1800,2.98493,-5.2091
-133,-776,6.72363,9.35828,0,0,0,0,0,0,0,-1,1091,1800,6.72358,-9.35824
-126,-776,6.55029,13.7832,0,0,0,0,0,0,0,-1,1098,1800,6.55029,-13.7832
-119,-776,5.72107,13.7787,-0.0979683,-0.134864,-0.0220359,-0.0876777,-0.145155,-0.436896,0.0844077,0.0469778,1105,1800,5.72106,-13.7787
-112,-776,4.88489,13.7853,-0.0963132,-0.135374,-0.0237276,-0.0851119,-0.146575,-0.441063,0.0849915,0.0448599,1112,1800,4.88489,-13.7853
-105,-776,4.08447,13.7748,0,0,0,0,0,0,0,-1,1119,1800,4.08449,-13.7748
-98,-776,3.68726,13.4067,0,0,0,0,0,0,0,-1,1126,1800,3.6873,-13.4068
-91,-776,3.00159,13.1172,0,0,0,0,0,0,0,-1,1133,1800,3.00159,-13.1171
-84,-776,2.27747,12.7086,0,0,0,0,0,0,0,-1,1140,1800,2.27747,-12.7087
-77,-776,0.580078,11.1272,0,0,0,0,0,0,0,-1,1147,1800,0.58002,-11.1272
-70,-776,-0.187744,12.3109,0,0,0,0,0,0,0,-1,1154,1800,-0.187766,-12.3109
-63,-776,-2.69922,9.16687,0,0,0,0,0,0,0,-1,1161,1800,-2.69921,-9.16686
-56,-776,-5.23718,6.32825,0,0,0,0,0,0,0,-1,1168,1800,-5.23714,-6.32822
-49,-776,-7.62952,3.1908,0,0,0,0,0,0,0,-1,1175,1800,-7.62955,-3.19076
-42,-776,-3.41272,3.0249,0,0,0,0,0,0,0,-1,1182,1800,-3.41269,-3.02488
-35,-776,-3.71753,1.63635,0,0,0,0,0,0,0,-1,1189,1800,-3.71755,-1.63631
-28,-776,-4.03979,0.716064,0,0,0,0,0,0,0,-1,1196,1800,-4.03977,-0.716055
-21,-776,6.71973,18.7478,0,0,0,0,0,0,0,-1,1203,1800,6.71967,-18.7478
-14,-776,6.37683,17.9773,-0.0504097,-0.0438418,-0.0197638,-0.0270909,-0.0671605,-0.867725,0.0390157,0.046979,1210,1800,6.37684,-17.9773
-7,-776,5.80786,17.178,-0.0461265,-0.0441053,-0.0185988,-0.0264897,-0.0637421,-0.81254,0.036976,0.0479878,1217,1800,5.80787,-17.178
0,-776,4.9884,16.6553,-0.0419789,-0.0436748,-0.0165017,-0.0263033,-0.0593504,-0.759729,0.0343396,0.046452,1224,1800,4.98839,-16.6553
7,-776,4.27039,16.3386,-0.0382868,-0.0425799,-0.0140823,-0.0261884,-0.0546784,-0.709767,0.0315779,0.0452028,1231,1800,4.27044,-16.3387
14,-776,4.65002,16.0233,0,0,0,0,0,0,0,-1,1238,1800,4.65003,-16.0233
21,-776,4.72998,15.8159,0,0,0,0,0,0,0,-1,1245,1800,4.72999,-15.8159
28,-776,4.74524,16.0863,0,0,0,0,0,0,0,-1,1252,1800,4.74519,-16.0862
35,-776,4.65271,16.3029,-0.0367822,-0.0344401,-0.00233438,-0.0329995,-0.0382228,-1.01788,0.0239315,0.0453677,1259,1800,4.65266,-16.3028
42,-776,4.62915,16.6476,-0.0384383,-0.0311433,0.000733698,-0.0310702,-0.0385114,1.47155,0.0235884,0.0451811,1266,1800,4.6291,-16.6476
49,-776,4.61963,16.7057,0,0,0,0,0,0,0,-1,1273,1800,4.61963,-16.7057
56,-776,4.61487,16.1775,0,0,0,0,0,0,0,-1,1280,1800,4.61488,-16.1775
63,-776,4.56641,15.9653,0,0,0,0,0,0,0,-1,1287,1800,4.56643,-15.9653
70,-776,4.51953,15.8936,0,0,0,0,0,0,0,-1,1294,1800,4.51959,-15.8936
77,-776,5.14795,15.2566,0,0,0,0,0,0,0,-1,1301,1800,5.14792,-15.2566
84,-776,4.80261,15.6788,0,0,0,0,0,0,0,-1,1308,1800,4.80265,-15.6789
91,-776,5.21033,15.6969,0,0,0,0,0,0,0,-1,1315,1800,5.21031,-15.6969
98,-776,5.6864,15.8787,0,0,0,0,0,0,0,-1,1322,1800,5.68642,-15.8787
105,-776,4.48633,15.7699,0,0,0,0,0,0,0,-1,1329,1800,4.48638,-15.77
112,-776,4.40527,15.6821,-0.0489666,0.0114407,0.018206,0.0165034,-0.0540294,1.29957,0.0426,0.0468938,1336,1800,4.40531,-15.6822
119,-776,4.38232,15.5375,-0.0448922,0.0137314,0.0199279,0.019864,-0.0510247,1.27226,0.0422251,0.0441792,1343,1800,4.38231,-15.5374
126,-776,4.42529,16.1356,-0.0402315,0.0140327,0.0215413,0.0215442,-0.047743,1.23528,0.0409451,0.0489432,1350,1800,4.42532,-16.1356
133,-776,4.64465,16.1669,0,0,0,0,0,0,0,-1,1357,1800,4.64464,-16.1668
140,-776,4.39331,10.0631,0,0,0,0,0,0,0,-1,1364,1800,4.39332,-10.0631
147,-776,6.46301,-0.617188,0,0,0,0,0,0,0,-1,1371,1800,6.46305,0.61724
154,-776,6.43774,0.344116,0,0,0,0,0,0,0,-1,1378,1800,6.43776,-0.344162
161,-776,6.50293,1.1731,0,0,0,0,0,0,0,-1,1385,1800,6.5029,-1.17313
168,-776,8.44971,1.22913,0,0,0,0,0,0,0,-1,1392,1800,8.44974,-1.22915
175,-776,8.61523,2.87061,0,0,0,0,0,0,0,-1,1399,1800,8.6152,-2.87063
182,-776,8.54065,4.60645,0,0,0,0,0,0,0,-1,1406,1800,8.5407,-4.60643
189,-776,8.35303,6.28223,0,0,0,0,0,0,0,-1,1413,1800,8.35297,-6.28225
196,-776,8.0387,8.21704,0,0,0,0,0,0,0,-1,1420,1800,8.03865,-8.217
203,-776,7.91736,9.79919,0,0,0,0,0,0,0,-1,1427,1800,7.91735,-9.79922
210,-776,20.2479,7.85718,0,0,0,0,0,0,0,-1,1434,1800,20.248,-7.85719
217,-776,21.5171,9.3418,0,0,0,0,0,0,0,-1,1441,1800,21.5171,-9.34182
224,-776,3.09253,14.9313,0,0,0,0,0,0,0,-1,1448,1800,3.09254,-14.9313
231,-776,20.8671,9.21057,0,0,0,0,0,0,0,-1,1455,1800,20.867,-9.21054
238,-776,20.7511,9.05847,0,0,0,0,0,0,0,-1,1462,1800,20.7511,-9.05848
245,-776,21.0875,9.85986,0,0,0,0,0,0,0,-1,1469,1800,21.0875,-9.8599
252,-776,16.6313,6.47168,0,0,0,0,0,0,0,-1,1476,1800,16.6313,-6.47165
259,-776,14.1882,7.69055,0,0,0,0,0,0,0,-1,1483,1800,14.1882,-7.69061
266,-776,0,0,0,0,0,0,0,0,0,-1,1490,1800,0,0
273,-776,0,0,0,0,0,0,0,0,0,-1,1497,1800,0,0
280,-776,0,0,0,0,0,0,0,0,0,-1,1504,1800,0,0
287,-776,0,0,0,0,0,0,0,0,0,-1,1511,1800,0,0
294,-776,0,0,0,0,0,0,0,0,0,-1,1518,1800,0,0
301,-776,0,0,0,0,0,0,0,0,0,-1,1525,1800,0,0
308,-776,0,0,0,0,0,0,0,0,0,-1,1532,1800,0,0
315,-776,0,0,0,0,0,0,0,0,0,-1,1539,1800,0,0
322,-776,0,0,0,0,0,0,0,0,0,-1,1546,1800,0,0
329,-776,0,0,0,0,0,0,0,0,0,-1,1553,1800,0,0
336,-776,0,0,0,0,0,0,0,0,0,-1,1560,1800,0,0
343,-776,0,0,0,0,0,0,0,0,0,-1,1567,1800,0,0
350,-776,0,0,0,0,0,0,0,0,0,-1,1574,1800,0,0
357,-776,0,0,0,0,0,0,0,0,0,-1,1581,1800,0,0
364,-776,0,0,0,0,0,0,0,0,0,-1,1588,1800,0,0
371,-776,0,0,0,0,0,0,0,0,0,-1,1595,1800,0,0
378,-776,0,0,0,0,0,0,0,0,0,-1,1602,1800,0,0
385,-776,0,0,0,0,0,0,0,0,0,-1,1609,1800,0,0
392,-776,0,0,0,0,0,0,0,0,0,-1,1616,1800,0,0
399,-776,0,0,0,0,0,0,0,0,0,-1,1623,1800,0,0
406,-776,0,0,0,0,0,0,0,0,0,-1,1630,1800,0,0
413,-776,0,0,0,0,0,0,0,0,0,-1,1637,1800,0,0
420,-776,0,0,0,0,0,0,0,0,0,-1,1644,1800,0,0
427,-776,0,0,0,0,0,0,0,0,0,-1,1651,1800,0,0
434,-776,0,0,0,0,0,0,0,0,0,-1,1658,1800,0,0
441,-776,0,0,0,0,0,0,0,0,0,-1,1665,1800,0,0
448,-776,0,0,0,0,0,0,0,0,0,-1,1672,1800,0,0
455,-776,0,0,0,0,0,0,0,0,0,-1,1679,1800,0,0
462,-776,0,0,0,0,0,0,0,0,0,-1,1686,1800,0,0
469,-776,0,0,0,0,0,0,0,0,0,-1,1693,1800,0,0
476,-776,0,0,0,0,0,0,0,0,0,-1,1700,1800,0,0
483,-776,0,0,0,0,0,0,0,0,0,-1,1707,1800,0,0
490,-776,0,0,0,0,0,0,0,0,0,-1,1714,1800,0,0
497,-776,0,0,0,0,0,0,0,0,0,-1,1721,1800,0,0
504,-776,0,0,0,0,0,0,0,0,0,-1,1728,1800,0,0
511,-776,0,0,0,0,0,0,0,0,0,-1,1735,1800,0,0
518,-776,0,0,0,0,0,0,0,0,0,-1,1742,1800,0,0
525,-776,0,0,0,0,0,0,0,0,0,-1,1749,1800,0,0
532,-776,0,0,0,0,0,0,0,0,0,-1,1756,1800,0,0
539,-776,0,0,0,0,0,0,0,0,0,-1,1763,1800,0,0
546,-776,0,0,0,0,0,0,0,0,0,-1,1770,1800,0,0
553,-776,0,0,0,0,0,0,0,0,0,-1,1777,1800,0,0
560,-776,0,0,0,0,0,0,0,0,0,-1,1784,1800,0,0
567,-776,0,0,0,0,0,0,0,0,0,-1,1791,1800,0,0
574,-776,0,0,0,0,0,0,0,0,0,-1,1798,1800,0,0
581,-776,0,0,0,0,0,0,0,0,0,-1,1805,1800,0,0
588,-776,0,0,0,0,0,0,0,0,0,-1,1812,1800,0,0
595,-776,0,0,0,0,0,0,0,0,0,-1,1819,1800,0,0
602,-776,0,0,0,0,0,0,0,0,0,-1,1826,1800,0,0
609,-776,0,0,0,0,0,0,0,0,0,-1,1833,1800,0,0
616,-776,0,0,0,0,0,0,0,0,0,-1,1840,1800,0,0
623,-776,0,0,0,0,0,0,0,0,0,-1,1847,1800,0,0
630,-776,0,0,0,0,0,0,0,0,0,-1,1854,1800,0,0
637,-776,0,0,0,0,0,0,0,0,0,-1,1861,1800,0,0
644,-776,0,0,0,0,0,0,0,0,0,-1,1868,1800,0,0
651,-776,0,0,0,0,0,0,0,0,0,-1,1875,1800,0,0
658,-776,0,0,0,0,0,0,0,0,0,-1,1882,1800,0,0
665,-776,0,0,0,0,0,0,0,0,0,-1,1889,1800,0,0
672,-776,0,0,0,0,0,0,0,0,0,-1,1896,1800,0,0
679,-776,0,0,0,0,0,0,0,0,0,-1,1903,1800,0,0
686,-776,0,0,0,0,0,0,0,0,0,-1,1910,1800,0,0
693,-776,0,0,0,0,0,0,0,0,0,-1,1917,1800,0,0
700,-776,0,0,0,0,0,0,0,0,0,-1,1924,1800,0,0
707,-776,0,0,0,0,0,0,0,0,0,-1,1931,1800,0,0
714,-776,0,0,0,0,0,0,0,0,0,-1,1938,1800,0,0
721,-776,0,0,0,0,0,0,0,0,0,-1,1945,1800,0,0
728,-776,0,0,0,0,0,0,0,0,0,-1,1952,1800,0,0
735,-776,0,0,0,0,0,0,0,0,0,-1,1959,1800,0,0
742,-776,0,0,0,0,0,0,0,0,0,-1,1966,1800,0,0
749,-776,0,0,0,0,0,0,0,0,0,-1,1973,1800,0,0
756,-776,0,0,0,0,0,0,0,0,0,-1,1980,1800,0,0
763,-776,0,0,0,0,0,0,0,0,0,-1,1987,1800,0,0
770,-776,0,0,0,0,0,0,0,0,0,-1,1994,1800,0,0
777,-776,0,0,0,0,0,0,0,0,0,-1,2001,1800,0,0
784,-776,0,0,0,0,0,0,0,0,0,-1,2008,1800,0,0
791,-776,0,0,0,0,0,0,0,0,0,-1,2015,1800,0,0
798,-776,0,0,0,0,0,0,0,0,0,-1,2022,1800,0,0
805,-776,0,0,0,0,0,0,0,0,0,-1,2029,1800,0,0
812,-776,0,0,0,0,0,0,0,0,0,-1,2036,1800,0,0
-700,-783,0,0,0,0,0,0,0,0,0,-1,524,1807,0,0
-693,-783,0,0,0,0,0,0,0,0,0,-1,531,1807,0,0
-686,-783,0,0,0,0,0,0,0,0,0,-1,538,1807,0,0
-679,-783,0,0,0,0,0,0,0,0,0,-1,545,1807,0,0
-672,-783,0,0,0,0,0,0,0,0,0,-1,552,1807,0,0
-665,-783,0,0,0,0,0,0,0,0,0,-1,559,1807,0,0
-658,-783,0,0,0,0,0,0,0,0,0,-1,566,1807,0,0
-651,-783,0,0,0,0,0,0,0,0,0,-1,573,1807,0,0
-644,-783,0,0,0,0,0,0,0,0,0,-1,580,1807,0,0
-637,-783,0,0,0,0,0,0,0,0,0,-1,587,1807,0,0
-630,-783,0,0,0,0,0,0,0,0,0,-1,594,1807,0,0
-623,-783,0,0,0,0,0,0,0,0,0,-1,601,1807,0,0
-616,-783,0,0,0,0,0,0,0,0,0,-1,608,1807,0,0
-609,-783,0,0,0,0,0,0,0,0,0,-1,615,1807,0,0
-602,-783,0,0,0,0,0,0,0,0,0,-1,622,1807,0,0
-595,-783,0,0,0,0,0,0,0,0,0,-1,629,1807,0,0
-588,-783,0,0,0,0,0,0,0,0,0,-1,636,1807,0,0
-581,-783,0,0,0,0,0,0,0,0,0,-1,643,1807,0,0
-574,-783,0,0,0,0,0,0,0,0,0,-1,650,1807,0,0
-567,-783,0,0,0,0,0,0,0,0,0,-1,657,1807,0,0
-560,-783,0,0,0,0,0,0,0,0,0,-1,664,1807,0,0
-553,-783,0,0,0,0,0,0,0,0,0,-1,671,1807,0,0
-546,-783,0,0,0,0,0,0,0,0,0,-1,678,1807,0,0
-539,-783,0,0,0,0,0,0,0,0,0,-1,685,1807,0,0
-532,-783,0,0,0,0,0,0,0,0,0,-1,692,1807,0,0
-525,-783,0,0,0,0,0,0,0,0,0,-1,699,1807,0,0
-518,-783,0,0,0,0,0,0,0,0,0,-1,706,1807,0,0
-511,-783,0,0,0,0,0,0,0,0,0,-1,713,1807,0,0
-504,-783,0,0,0,0,0,0,0,0,0,-1,720,1807,0,0
-497,-783,0,0,0,0,0,0,0,0,0,-1,727,1807,0,0
-490,-783,0,0,0,0,0,0,0,0,0,-1,734,1807,0,0
-483,-783,0,0,0,0,0,0,0,0,0,-1,741,1807,0,0
-476,-783,0,0,0,0,0,0,0,0,0,-1,748,1807,0,0
-469,-783,0,0,0,0,0,0,0,0,0,-1,755,1807,0,0
-462,-783,0,0,0,0,0,0,0,0,0,-1,762,1807,0,0
-455,-783,0,0,0,0,0,0,0,0,0,-1,769,1807,0,0
-448,-783,0,0,0,0,0,0,0,0,0,-1,776,1807,0,0
-441,-783,0,0,0,0,0,0,0,0,0,-1,783,1807,0,0
-434,-783,0,0,0,0,0,0,0,0,0,-1,790,1807,0,0
-427,-783,0,0,0,0,0,0,0,0,0,-1,797,1807,0,0
-420,-783,0,0,0,0,0,0,0,0,0,-1,804,1807,0,0
-413,-783,0,0,0,0,0,0,0,0,0,-1,811,1807,0,0
-406,-783,0,0,0,0,0,0,0,0,0,-1,818,1807,0,0
-399,-783,0,0,0,0,0,0,0,0,0,-1,825,1807,0,0
-392,-783,0,0,0,0,0,0,0,0,0,-1,832,1807,0,0
-385,-783,0,0,0,0,0,0,0,0,0,-1,839,1807,0,0
-378,-783,0,0,0,0,0,0,0,0,0,-1,846,1807,0,0
-371,-783,0,0,0,0,0,0,0,0,0,-1,853,1807,0,0
-364,-783,0,0,0,0,0,0,0,0,0,-1,860,1807,0,0
-357,-783,0,0,0,0,0,0,0,0,0,-1,867,1807,0,0
-350,-783,0,0,0,0,0,0,0,0,0,-1,874,1807,0,0
-343,-783,0,0,0,0,0,0,0,0,0,-1,881,1807,0,0
-336,-783,0,0,0,0,0,0,0,0,0,-1,888,1807,0,0
-329,-783,0,0,0,0,0,0,0,0,0,-1,895,1807,0,0
-322,-783,0,0,0,0,0,0,0,0,0,-1,902,1807,0,0
-315,-783,0,0,0,0,0,0,0,0,0,-1,909,1807,0,0
-308,-783,0,0,0,0,0,0,0,0,0,-1,916,1807,0,0
-301,-783,0,0,0,0,0,0,0,0,0,-1,923,1807,0,0
-294,-783,0,0,0,0,0,0,0,0,0,-1,930,1807,0,0
-287,-783,0,0,0,0,0,0,0,0,0,-1,937,1807,0,0
-280,-783,0,0,0,0,0,0,0,0,0,-1,944,1807,0,0
-273,-783,0,0,0,0,0,0,0,0,0,-1,951,1807,0,0
-266,-783,0,0,0,0,0,0,0,0,0,-1,958,1807,0,0
-259,-783,0,0,0,0,0,0,0,0,0,-1,965,1807,0,0
-252,-783,0,0,0,0,0,0,0,0,0,-1,972,1807,0,0
-245,-783,0,0,0,0,0,0,0,0,0,-1,979,1807,0,0
-238,-783,0,0,0,0,0,0,0,0,0,-1,986,1807,0,0
-231,-783,0,0,0,0,0,0,0,0,0,-1,993,1807,0,0
-224,-783,0,0,0,0,0,0,0,0,0,-1,1000,1807,0,0
-217,-783,0,0,0,0,0,0,0,0,0,-1,1007,1807,0,0
-210,-783,0,0,0,0,0,0,0,0,0,-1,1014,1807,0,0
-203,-783,0,0,0,0,0,0,0,0,0,-1,1021,1807,0,0
-196,-783,0,0,0,0,0,0,0,0,0,-1,1028,1807,0,0
-189,-783,0,0,0,0,0,0,0,0,0,-1,1035,1807,0,0
-182,-783,0,0,0,0,0,0,0,0,0,-1,1042,1807,0,0
-175,-783,0,0,0,0,0,0,0,0,0,-1,1049,1807,0,0
-168,-783,0,0,0,0,0,0,0,0,0,-1,1056,1807,0,0
-161,-783,0,0,0,0,0,0,0,0,0,-1,1063,1807,0,0
-154,-783,0,0,0,0,0,0,0,0,0,-1,1070,1807,0,0
-147,-783,0,0,0,0,0,0,0,0,0,-1,1077,1807,0,0
-140,-783,0,0,0,0,0,0,0,0,0,-1,1084,1807,0,0
-133,-783,0,0,0,0,0,0,0,0,0,-1,1091,1807,0,0
-126,-783,0,0,0,0,0,0,0,0,0,-1,1098,1807,0,0
-119,-783,0,0,0,0,0,0,0,0,0,-1,1105,1807,0,0
-112,-783,5.33936,14.7699,0,0,0,0,0,0,0,-1,1112,1807,5.33931,-14.7699
-105,-783,4.53088,14.7312,0,0,0,0,0,0,0,-1,1119,1807,4.53083,-14.7312
-98,-783,3.57434,14.3257,0,0,0,0,0,0,0,-1,1126,1807,3.57437,-14.3257
-91,-783,2.78186,14.2633,0,0,0,0,0,0,0,-1,1133,1807,2.78186,-14.2633
-84,-783,-0.0491943,14.5743,0,0,0,0,0,0,0,-1,1140,1807,-0.0491562,-14.5743
-77,-783,0.332764,12.7788,0,0,0,0,0,0,0,-1,1147,1807,0.332743,-12.7788
-70,-783,-1.93176,5.12817,0,0,0,0,0,0,0,-1,1154,1807,-1.93171,-5.12813
-63,-783,-3.81604,9.88269,0,0,0,0,0,0,0,-1,1161,1807,-3.81606,-9.88272
-56,-783,-6.26135,6.9679,0,0,0,0,0,0,0,-1,1168,1807,-6.26136,-6.96785
-49,-783,-3.17688,4.59705,0,0,0,0,0,0,0,-1,1175,1807,-3.17685,-4.5971
-42,-783,-3.72876,3.1405,0,0,0,0,0,0,0,-1,1182,1807,-3.72874,-3.14055
-35,-783,-3.97046,1.59399,0,0,0,0,0,0,0,-1,1189,1807,-3.97041,-1.59401
-28,-783,-4.12195,0.270386,0,0,0,0,0,0,0,-1,1196,1807,-4.12197,-0.270408
-21,-783,6.55774,18.9026,0,0,0,0,0,0,0,-1,1203,1807,6.55769,-18.9025
-14,-783,6.10889,18.1989,-0.0637854,-0.0544638,-0.0257116,-0.032994,-0.0852552,-0.875061,0.0496393,0.0491661,1210,1807,6.1089,-18.1989
-7,-783,5.47168,17.6027,-0.0579919,-0.0550849,-0.0244465,-0.0320488,-0.0810281,-0.815092,0.0471207,0.0459671,1217,1807,5.47171,-17.6027
0,-783,4.90491,17.1504,-0.0525139,-0.054638,-0.0218763,-0.0316739,-0.075478,-0.761143,0.0437645,0.0441941,1224,1807,4.90496,-17.1504
7,-783,4.36536,16.5952,-0.0478078,-0.053034,-0.0186498,-0.0315889,-0.0692528,-0.715794,0.0400344,0.0458507,1231,1807,4.3654,-16.5952
14,-783,3.78125,16.5155,-0.0442099,-0.0524125,-0.0151055,-0.0326588,-0.0639635,-0.652838,0.0369321,0.0463907,1238,1807,3.78129,-16.5156
21,-783,3.14526,16.5409,-0.0417878,-0.0500209,-0.0110631,-0.0341002,-0.0577085,-0.607286,0.0335011,0.0457539,1245,1807,3.14524,-16.5409
28,-783,4.8595,16.5172,0,0,0,0,0,0,0,-1,1252,1807,4.85949,-16.5172
35,-783,4.77673,16.6854,0,0,0,0,0,0,0,-1,1259,1807,4.77674,-16.6855
42,-783,5.01392,17.0054,0,0,0,0,0,0,0,-1,1266,1807,5.01396,-17.0053
49,-783,11.9265,11.3864,0,0,0,0,0,0,0,-1,1273,1807,11.9265,-11.3863
56,-783,11.2772,12.0304,0,0,0,0,0,0,0,-1,1280,1807,11.2772,-12.0304
63,-783,9.53333,12.0212,0,0,0,0,0,0,0,-1,1287,1807,9.53333,-12.0212
70,-783,8.90234,13.0065,-0.0676851,-0.0151756,0.0128779,-0.0121874,-0.0706733,1.34279,0.0436243,0.0474616,1294,1807,8.90239,-13.0065
77,-783,8.18555,13.8723,-0.0709839,-0.00918823,0.015512,-0.005513,-0.0746591,1.33816,0.0480406,0.0452336,1301,1807,8.18554,-13.8723
84,-783,7.5957,14.5773,-0.0739269,-0.00339632,0.0172116,0.000579685,-0.077903,1.34377,0.0521296,0.0443625,1308,1807,7.59568,-14.5772
91,-783,7.08691,15.0739,-0.0751799,0.00216173,0.0188405,0.00650714,-0.0795253,1.34412,0.0553136,0.0442546,1315,1807,7.08694,-15.0739
98,-783,6.3396,15.4207,-0.0737429,0.00707186,0.0203896,0.0119248,-0.0785958,1.33714,0.056791,0.0441316,1322,1807,6.3396,-15.4207
105,-783,4.44397,15.677,0,0,0,0,0,0,0,-1,1329,1807,4.44398,-15.677
112,-783,4.29004,15.3137,-0.0670867,0.0140829,0.0242172,0.0207591,-0.0737628,1.3018,0.057361,0.0480303,1336,1807,4.29009,-15.3137
119,-783,4.19177,15.3135,-0.0617464,0.0172868,0.0266233,0.0254185,-0.0698781,1.27436,0.0569805,0.0452815,1343,1807,4.19174,-15.3135
126,-783,4.33875,16.3708,-0.0553819,0.0181192,0.029017,0.0281938,-0.0654564,1.23662,0.0554773,0.0488407,1350,1807,4.33875,-16.3708
133,-783,4.81702,16.1606,0,0,0,0,0,0,0,-1,1357,1807,4.81705,-16.1607
140,-783,2.6543,15.261,0,0,0,0,0,0,0,-1,1364,1807,2.65435,-15.261
147,-783,6.45825,-1.2334,0,0,0,0,0,0,0,-1,1371,1807,6.45822,1.23339
154,-783,6.37024,-0.145874,0,0,0,0,0,0,0,-1,1378,1807,6.37018,0.145866
161,-783,6.57568,1.16174,0,0,0,0,0,0,0,-1,1385,1807,6.57562,-1.1617
168,-783,8.62561,1.79944,0,0,0,0,0,0,0,-1,1392,1807,8.62561,-1.79946
175,-783,8.78699,3.40857,0,0,0,0,0,0,0,-1,1399,1807,8.78697,-3.40854
182,-783,8.70984,5.14661,0,0,0,0,0,0,0,-1,1406,1807,8.70989,-5.14666
189,-783,8.55762,6.79871,0,0,0,0,0,0,0,-1,1413,1807,8.55766,-6.79872
196,-783,8.25488,8.66626,0,0,0,0,0,0,0,-1,1420,1807,8.25492,-8.66628
203,-783,7.86755,10.5735,0,0,0,0,0,0,0,-1,1427,1807,7.8676,-10.5734
210,-783,5.6969,8.99231,0,0,0,0,0,0,0,-1,1434,1807,5.69693,-8.99234
217,-783,5.28503,3.80872,0,0,0,0,0,0,0,-1,1441,1807,5.285,-3.80868
224,-783,3.22571,6.62903,0,0,0,0,0,0,0,-1,1448,1807,3.2257,-6.62907
231,-783,4.27942,4.56262,0,0,0,0,0,0,0,-1,1455,1807,4.27948,-4.56267
238,-783,0,0,0,0,0,0,0,0,0,-1,1462,1807,0,0
245,-783,0,0,0,0,0,0,0,0,0,-1,1469,1807,0,0
252,-783,0,0,0,0,0,0,0,0,0,-1,1476,1807,0,0
259,-783,0,0,0,0,0,0,0,0,0,-1,1483,1807,0,0
266,-783,0,0,0,0,0,0,0,0,0,-1,1490,1807,0,0
273,-783,0,0,0,0,0,0,0,0,0,-1,1497,1807,0,0
280,-783,0,0,0,0,0,0,0,0,0,-1,1504,1807,0,0
287,-783,0,0,0,0,0,0,0,0,0,-1,1511,1807,0,0
294,-783,0,0,0,0,0,0,0,0,0,-1,1518,1807,0,0
301,-783,0,0,0,0,0,0,0,0,0,-1,1525,1807,0,0
308,-783,0,0,0,0,0,0,0,0,0,-1,1532,1807,0,0
315,-783,0,0,0,0,0,0,0,0,0,-1,1539,1807,0,0
322,-783,0,0,0,0,0,0,0,0,0,-1,1546,1807,0,0
329,-783,0,0,0,0,0,0,0,0,0,-1,1553,1807,0,0
336,-783,0,0,0,0,0,0,0,0,0,-1,1560,1807,0,0
343,-783,0,0,0,0,0,0,0,0,0,-1,1567,1807,0,0
350,-783,0,0,0,0,0,0,0,0,0,-1,1574,1807,0,0
357,-783,0,0,0,0,0,0,0,0,0,-1,1581,1807,0,0
364,-783,0,0,0,0,0,0,0,0,0,-1,1588,1807,0,0
371,-783,0,0,0,0,0,0,0,0,0,-1,1595,1807,0,0
378,-783,0,0,0,0,0,0,0,0,0,-1,1602,1807,0,0
385,-783,0,0,0,0,0,0,0,0,0,-1,1609,1807,0,0
392,-783,0,0,0,0,0,0,0,0,0,-1,1616,1807,0,0
399,-783,0,0,0,0,0,0,0,0,0,-1,1623,1807,0,0
406,-783,0,0,0,0,0,0,0,0,0,-1,1630,1807,0,0
413,-783,0,0,0,0,0,0,0,0,0,-1,1637,1807,0,0
420,-783,0,0,0,0,0,0,0,0,0,-1,1644,1807,0,0
427,-783,0,0,0,0,0,0,0,0,0,-1,1651,1807,0,0
434,-783,0,0,0,0,0,0,0,0,0,-1,1658,1807,0,0
441,-783,0,0,0,0,0,0,0,0,0,-1,1665,1807,0,0
448,-783,0,0,0,0,0,0,0,0,0,-1,1672,1807,0,0
455,-783,0,0,0,0,0,0,0,0,0,-1,1679,1807,0,0
462,-783,0,0,0,0,0,0,0,0,0,-1,1686,1807,0,0
469,-783,0,0,0,0,0,0,0,0,0,-1,1693,1807,0,0
476,-783,0,0,0,0,0,0,0,0,0,-1,1700,1807,0,0
483,-783,0,0,0,0,0,0,0,0,0,-1,1707,1807,0,0
490,-783,0,0,0,0,0,0,0,0,0,-1,1714,1807,0,0
497,-783,0,0,0,0,0,0,0,0,0,-1,1721,1807,0,0
504,-783,0,0,0,0,0,0,0,0,0,-1,1728,1807,0,0
511,-783,0,0,0,0,0,0,0,0,0,-1,1735,1807,0,0
518,-783,0,0,0,0,0,0,0,0,0,-1,1742,1807,0,0
525,-783,0,0,0,0,0,0,0,0,0,-1,1749,1807,0,0
532,-783,0,0,0,0,0,0,0,0,0,-1,1756,1807,0,0
539,-783,0,0,0,0,0,0,0,0,0,-1,1763,1807,0,0
546,-783,0,0,0,0,0,0,0,0,0,-1,1770,1807,0,0
553,-783,0,0,0,0,0,0,0,0,0,-1,1777,1807,0,0
560,-783,0,0,0,0,0,0,0,0,0,-1,1784,1807,0,0
567,-783,0,0,0,0,0,0,0,0,0,-1,1791,1807,0,0
574,-783,0,0,0,0,0,0,0,0,0,-1,1798,1807,0,0
581,-783,0,0,0,0,0,0,0,0,0,-1,1805,1807,0,0
588,-783,0,0,0,0,0,0,0,0,0,-1,1812,1807,0,0
595,-783,0,0,0,0,0,0,0,0,0,-1,1819,1807,0,0
602,-783,0,0,0,0,0,0,0,0,0,-1,1826,1807,0,0
609,-783,0,0,0,0,0,0,0,0,0,-1,1833,1807,0,0
616,-783,0,0,0,0,0,0,0,0,0,-1,1840,1807,0,0
623,-783,0,0,0,0,0,0,0,0,0,-1,1847,1807,0,0
630,-783,0,0,0,0,0,0,0,0,0,-1,1854,1807,0,0
637,-783,0,0,0,0,0,0,0,0,0,-1,1861,1807,0,0
644,-783,0,0,0,0,0,0,0,0,0,-1,1868,1807,0,0
651,-783,0,0,0,0,0,0,0,0,0,-1,1875,1807,0,0
658,-783,0,0,0,0,0,0,0,0,0,-1,1882,1807,0,0
665,-783,0,0,0,0,0,0,0,0,0,-1,1889,1807,0,0
672,-783,0,0,0,0,0,0,0,0,0,-1,1896,1807,0,0
679,-783,0,0,0,0,0,0,0,0,0,-1,1903,1807,0,0
686,-783,0,0,0,0,0,0,0,0,0,-1,1910,1807,0,0
693,-783,0,0,0,0,0,0,0,0,0,-1,1917,1807,0,0
700,-783,0,0,0,0,0,0,0,0,0,-1,1924,1807,0,0
707,-783,0,0,0,0,0,0,0,0,0,-1,1931,1807,0,0
714,-783,0,0,0,0,0,0,0,0,0,-1,1938,1807,0,0
721,-783,0,0,0,0,0,0,0,0,0,-1,1945,1807,0,0
728,-783,0,0,0,0,0,0,0,0,0,-1,1952,1807,0,0
735,-783,0,0,0,0,0,0,0,0,0,-1,1959,1807,0,0
742,-783,0,0,0,0,0,0,0,0,0,-1,1966,1807,0,0
749,-783,0,0,0,0,0,0,0,0,0,-1,1973,1807,0,0
756,-783,0,0,0,0,0,0,0,0,0,-1,1980,1807,0,0
763,-783,0,0,0,0,0,0,0,0,0,-1,1987,1807,0,0
770,-783,0,0,0,0,0,0,0,0,0,-1,1994,1807,0,0
777,-783,0,0,0,0,0,0,0,0,0,-1,2001,1807,0,0
784,-783,0,0,0,0,0,0,0,0,0,-1,2008,1807,0,0
791,-783,0,0,0,0,0,0,0,0,0,-1,2015,1807,0,0
798,-783,0,0,0,0,0,0,0,0,0,-1,2022,1807,0,0
805,-783,0,0,0,0,0,0,0,0,0,-1,2029,1807,0,0
812,-783,0,0,0,0,0,0,0,0,0,-1,2036,1807,0,0
-700,-790,0,0,0,0,0,0,0,0,0,-1,524,1814,0,0
-693,-790,0,0,0,0,0,0,0,0,0,-1,531,1814,0,0
-686,-790,0,0,0,0,0,0,0,0,0,-1,538,1814,0,0
-679,-790,0,0,0,0,0,0,0,0,0,-1,545,1814,0,0
-672,-790,0,0,0,0,0,0,0,0,0,-1,552,1814,0,0
-665,-790,0,0,0,0,0,0,0,0,0,-1,559,1814,0,0
-658,-790,0,0,0,0,0,0,0,0,0,-1,566,1814,0,0
-651,-790,0,0,0,0,0,0,0,0,0,-1,573,1814,0,0
-644,-790,0,0,0,0,0,0,0,0,0,-1,580,1814,0,0
-637,-790,0,0,0,0,0,0,0,0,0,-1,587,1814,0,0
-630,-790,0,0,0,0,0,0,0,0,0,-1,594,1814,0,0
-623,-790,0,0,0,0,0,0,0,0,0,-1,601,1814,0,0
-616,-790,0,0,0,0,0,0,0,0,0,-1,608,1814,0,0
-609,-790,0,0,0,0,0,0,0,0,0,-1,615,1814,0,0
-602,-790,0,0,0,0,0,0,0,0,0,-1,622,1814,0,0
-595,-790,0,0,0,0,0,0,0,0,0,-1,629,1814,0,0
-588,-790,0,0,0,0,0,0,0,0,0,-1,636,1814,0,0
-581,-790,0,0,0,0,0,0,0,0,0,-1,643,1814,0,0
-574,-790,0,0,0,0,0,0,0,0,0,-1,650,1814,0,0
-567,-790,0,0,0,0,0,0,0,0,0,-1,657,1814,0,0
-560,-790,0,0,0,0,0,0,0,0,0,-1,664,1814,0,0
-553,-790,0,0,0,0,0,0,0,0,0,-1,671,1814,0,0
-546,-790,0,0,0,0,0,0,0,0,0,-1,678,1814,0,0
-539,-790,0,0,0,0,0,0,0,0,0,-1,685,1814,0,0
-532,-790,0,0,0,0,0,0,0,0,0,-1,692,1814,0,0
-525,-790,0,0,0,0,0,0,0,0,0,-1,699,1814,0,0
-518,-790,0,0,0,0,0,0,0,0,0,-1,706,1814,0,0
-511,-790,0,0,0,0,0,0,0,0,0,-1,713,1814,0,0
-504,-790,0,0,0,0,0,0,0,0,0,-1,720,1814,0,0
-497,-790,0,0,0,0,0,0,0,0,0,-1,727,1814,0,0
-490,-790,0,0,0,0,0,0,0,0,0,-1,734,1814,0,0
-483,-790,0,0,0,0,0,0,0,0,0,-1,741,1814,0,0
-476,-790,0,0,0,0,0,0,0,0,0,-1,748,1814,0,0
-469,-790,0,0,0,0,0,0,0,0,0,-1,755,1814,0,0
-462,-790,0,0,0,0,0,0,0,0,0,-1,762,1814,0,0
-455,-790,0,0,0,0,0,0,0,0,0,-1,769,1814,0,0
-448,-790,0,0,0,0,0,0,0,0,0,-1,776,1814,0,0
-441,-790,0,0,0,0,0,0,0,0,0,-1,783,1814,0,0
-434,-790,0,0,0,0,0,0,0,0,0,-1,790,1814,0,0
-427,-790,0,0,0,0,0,0,0,0,0,-1,797,1814,0,0
-420,-790,0,0,0,0,0,0,0,0,0,-1,804,1814,0,0
-413,-790,0,0,0,0,0,0,0,0,0,-1,811,1814,0,0
-406,-790,0,0,0,0,0,0,0,0,0,-1,818,1814,0,0
-399,-790,0,0,0,0,0,0,0,0,0,-1,825,1814,0,0
-392,-790,0,0,0,0,0,0,0,0,0,-1,832,1814,0,0
-385,-790,0,0,0,0,0,0,0,0,0,-1,839,1814,0,0
-378,-790,0,0,0,0,0,0,0,0,0,-1,846,1814,0,0
-371,-790,0,0,0,0,0,0,0,0,0,-1,853,1814,0,0
-364,-790,0,0,0,0,0,0,0,0,0,-1,860,1814,0,0
-357,-790,0,0,0,0,0,0,0,0,0,-1,867,1814,0,0
-350,-790,0,0,0,0,0,0,0,0,0,-1,874,1814,0,0
-343,-790,0,0,0,0,0,0,0,0,0,-1,881,1814,0,0
-336,-790,0,0,0,0,0,0,0,0,0,-1,888,1814,0,0
-329,-790,0,0,0,0,0,0,0,0,0,-1,895,1814,0,0
-322,-790,0,0,0,0,0,0,0,0,0,-1,902,1814,0,0
-315,-790,0,0,0,0,0,0,0,0,0,-1,909,1814,0,0
-308,-790,0,0,0,0,0,0,0,0,0,-1,916,1814,0,0
-301,-790,0,0,0,0,0,0,0,0,0,-1,923,1814,0,0
-294,-790,0,0,0,0,0,0,0,0,0,-1,930,1814,0,0
-287,-790,0,0,0,0,0,0,0,0,0,-1,937,1814,0,0
-280,-790,0,0,0,0,0,0,0,0,0,-1,944,1814,0,0
-273,-790,0,0,0,0,0,0,0,0,0,-1,951,1814,0,0
-266,-790,0,0,0,0,0,0,0,0,0,-1,958,1814,0,0
-259,-790,0,0,0,0,0,0,0,0,0,-1,965,1814,0,0
-252,-790,0,0,0,0,0,0,0,0,0,-1,972,1814,0,0
-245,-790,0,0,0,0,0,0,0,0,0,-1,979,1814,0,0
-238,-790,0,0,0,0,0,0,0,0,0,-1,986,1814,0,0
-231,-790,0,0,0,0,0,0,0,0,0,-1,993,1814,0,0
-224,-790,0,0,0,0,0,0,0,0,0,-1,1000,1814,0,0
-217,-790,0,0,0,0,0,0,0,0,0,-1,1007,1814,0,0
-210,-790,0,0,0,0,0,0,0,0,0,-1,1014,1814,0,0
-203,-790,0,0,0,0,0,0,0,0,0,-1,1021,1814,0,0
-196,-790,0,0,0,0,0,0,0,0,0,-1,1028,1814,0,0
-189,-790,0,0,0,0,0,0,0,0,0,-1,1035,1814,0,0
-182,-790,0,0,0,0,0,0,0,0,0,-1,1042,1814,0,0
-175,-790,0,0,0,0,0,0,0,0,0,-1,1049,1814,0,0
-168,-790,0,0,0,0,0,0,0,0,0,-1,1056,1814,0,0
-161,-790,0,0,0,0,0,0,0,0,0,-1,1063,1814,0,0
-154,-790,0,0,0,0,0,0,0,0,0,-1,1070,1814,0,0
-147,-790,0,0,0,0,0,0,0,0,0,-1,1077,1814,0,0
-140,-790,0,0,0,0,0,0,0,0,0,-1,1084,1814,0,0
-133,-790,0,0,0,0,0,0,0,0,0,-1,1091,1814,0,0
-126,-790,0,0,0,0,0,0,0,0,0,-1,1098,1814,0,0
-119,-790,0,0,0,0,0,0,0,0,0,-1,1105,1814,0,0
-112,-790,0,0,0,0,0,0,0,0,0,-1,1112,1814,0,0
-105,-790,0,0,0,0,0,0,0,0,0,-1,1119,1814,0,0
-98,-790,0,0,0,0,0,0,0,0,0,-1,1126,1814,0,0
-91,-790,0,0,0,0,0,0,0,0,0,-1,1133,1814,0,0
-84,-790,0,0,0,0,0,0,0,0,0,-1,1140,1814,0,0
-77,-790,-0.969238,5.30847,0,0,0,0,0,0,0,-1,1147,1814,-0.969277,-5.3085
-70,-790,-1.23169,4.98914,0,0,0,0,0,0,0,-1,1154,1814,-1.23163,-4.98916
-63,-790,-1.69128,4.32263,0,0,0,0,0,0,0,-1,1161,1814,-1.69128,-4.32258
-56,-790,-2.24756,3.75305,0,0,0,0,0,0,0,-1,1168,1814,-2.24758,-3.75302
-49,-790,-3.11011,3.35779,0,0,0,0,0,0,0,-1,1175,1814,-3.11006,-3.35781
-42,-790,0.593262,1.19165,0,0,0,0,0,0,0,-1,1182,1814,0.593225,-1.19165
-35,-790,0.307129,-0.20105,0,0,0,0,0,0,0,-1,1189,1814,0.307178,0.201006
-28,-790,-2.78467,0.785156,0,0,0,0,0,0,0,-1,1196,1814,-2.78471,-0.785183
-21,-790,-2.11377,14.2496,0,0,0,0,0,0,0,-1,1203,1814,-2.11375,-14.2496
-14,-790,5.94177,18.1649,0,0,0,0,0,0,0,-1,1210,1814,5.94176,-18.1649
-7,-790,5.35046,17.7208,0,0,0,0,0,0,0,-1,1217,1814,5.3505,-17.7208
0,-790,4.88733,17.4285,-0.0639742,-0.066709,-0.0282167,-0.0370917,-0.0935914,-0.761187,0.0544209,0.0491784,1224,1814,4.88729,-17.4285
7,-790,4.72498,17.0261,-0.058136,-0.0643642,-0.0239678,-0.0370808,-0.0854193,-0.720796,0.0494594,0.0457208,1231,1814,4.72502,-17.0261
14,-790,4.22766,17.2957,-0.0538706,-0.0630745,-0.0193036,-0.0386279,-0.0783171,-0.668383,0.0452178,0.0438672,1238,1814,4.22764,-17.2957
21,-790,3.83118,17.3965,-0.0510964,-0.0599675,-0.0140574,-0.0407914,-0.0702725,-0.632577,0.0407467,0.0430765,1245,1814,3.83113,-17.3965
28,-790,3.73486,17.4423,-0.0524518,-0.0562337,-0.00924764,-0.0449038,-0.0637817,-0.68455,0.0378325,0.0438692,1252,1814,3.73491,-17.4422
35,-790,3.72278,17.4578,-0.0587096,-0.0511766,-0.00362848,-0.0497132,-0.0601731,-1.18743,0.0371233,0.0489139,1259,1814,3.72273,-17.4578
42,-790,3.64063,17.5663,0,0,0,0,0,0,0,-1,1266,1814,3.6406,-17.5663
49,-790,11.4413,12.2007,-0.0677299,-0.0407482,0.00591146,-0.0395099,-0.0689682,1.3643,0.0399595,0.0445688,1273,1814,11.4413,-12.2006
56,-790,11.0088,12.7828,-0.0743682,-0.035086,0.00970854,-0.0328176,-0.0766366,1.34126,0.0443979,0.0483905,1280,1814,11.0088,-12.7828
63,-790,10.4614,11.5402,-0.0807204,-0.0276983,0.0134405,-0.0244859,-0.0839328,1.33619,0.0498402,0.0462576,1287,1814,10.4614,-11.5402
70,-790,9.5531,12.6805,-0.0870983,-0.0201061,0.0166899,-0.0161784,-0.091026,1.33967,0.0560747,0.0436657,1294,1814,9.55305,-12.6806
77,-790,9.00671,13.6936,-0.0921867,-0.0130648,0.0198793,-0.00835095,-0.0969006,1.33797,0.0620045,0.0402995,1301,1814,9.00668,-13.6936
84,-790,7.48987,14.4425,-0.0966654,-0.00598078,0.0220621,-0.000898298,-0.101748,1.34437,0.0675345,0.043447,1308,1814,7.48985,-14.4425
91,-790,6.67786,14.9719,-0.0987668,0.000992014,0.0241702,0.00653961,-0.104314,1.34518,0.0718221,0.0468381,1315,1814,6.67792,-14.9719
98,-790,5.92542,14.9576,-0.0974046,0.00728833,0.0262112,0.013484,-0.1036,1.33868,0.0739723,0.0459305,1322,1814,5.92539,-14.9577
105,-790,4.89246,14.7546,-0.0946032,0.0124104,0.0284254,0.0194922,-0.101685,1.32663,0.075135,0.0472383,1329,1814,4.89242,-14.7546
112,-790,4.1897,14.7035,-0.0896678,0.0170079,0.0312133,0.0254697,-0.0981295,1.30606,0.0753582,0.0439068,1336,1814,4.18974,-14.7035
119,-790,4.03186,15.1229,0,0,0,0,0,0,0,-1,1343,1814,4.03182,-15.1229
126,-790,3.9939,16.7889,0,0,0,0,0,0,0,-1,1350,1814,3.99389,-16.7889
133,-790,4.61584,16.5592,0,0,0,0,0,0,0,-1,1357,1814,4.61589,-16.5592
140,-790,5.39819,15.8282,0,0,0,0,0,0,0,-1,1364,1814,5.39814,-15.8282
147,-790,3.4906,13.9751,0,0,0,0,0,0,0,-1,1371,1814,3.49064,-13.9751
154,-790,6.34485,-0.540405,0,0,0,0,0,0,0,-1,1378,1814,6.34482,0.540409
161,-790,6.62683,1.1134,0,0,0,0,0,0,0,-1,1385,1814,6.62682,-1.11344
168,-790,7.04077,2.23279,0,0,0,0,0,0,0,-1,1392,1814,7.04082,-2.23275
175,-790,9.03918,3.98535,0,0,0,0,0,0,0,-1,1399,1814,9.0392,-3.98535
182,-790,8.96997,5.67896,0,0,0,0,0,0,0,-1,1406,1814,8.97001,-5.6789
189,-790,8.59729,6.86975,0,0,0,0,0,0,0,-1,1413,1814,8.59728,-6.86972
196,-790,8.21924,9.29053,0,0,0,0,0,0,0,-1,1420,1814,8.21924,-9.29048
203,-790,0,0,0,0,0,0,0,0,0,-1,1427,1814,0,0
210,-790,0,0,0,0,0,0,0,0,0,-1,1434,1814,0,0
217,-790,0,0,0,0,0,0,0,0,0,-1,1441,1814,0,0
224,-790,0,0,0,0,0,0,0,0,0,-1,1448,1814,0,0
231,-790,0,0,0,0,0,0,0,0,0,-1,1455,1814,0,0
238,-790,0,0,0,0,0,0,0,0,0,-1,1462,1814,0,0
245,-790,0,0,0,0,0,0,0,0,0,-1,1469,1814,0,0
252,-790,0,0,0,0,0,0,0,0,0,-1,1476,1814,0,0
259,-790,0,0,0,0,0,0,0,0,0,-1,1483,1814,0,0
266,-790,0,0,0,0,0,0,0,0,0,-1,1490,1814,0,0
273,-790,0,0,0,0,0,0,0,0,0,-1,1497,1814,0,0
280,-790,0,0,0,0,0,0,0,0,0,-1,1504,1814,0,0
287,-790,0,0,0,0,0,0,0,0,0,-1,1511,1814,0,0
294,-790,0,0,0,0,0,0,0,0,0,-1,1518,1814,0,0
301,-790,0,0,0,0,0,0,0,0,0,-1,1525,1814,0,0
308,-790,0,0,0,0,0,0,0,0,0,-1,1532,1814,0,0
315,-790,0,0,0,0,0,0,0,0,0,-1,1539,1814,0,0
322,-790,0,0,0,0,0,0,0,0,0,-1,1546,1814,0,0
329,-790,0,0,0,0,0,0,0,0,0,-1,1553,1814,0,0
336,-790,0,0,0,0,0,0,0,0,0,-1,1560,1814,0,0
343,-790,0,0,0,0,0,0,0,0,0,-1,1567,1814,0,0
350,-790,0,0,0,0,0,0,0,0,0,-1,1574,1814,0,0
357,-790,0,0,0,0,0,0,0,0,0,-1,1581,1814,0,0
364,-790,0,0,0,0,0,0,0,0,0,-1,1588,1814,0,0
371,-790,0,0,0,0,0,0,0,0,0,-1,1595,1814,0,0
378,-790,0,0,0,0,0,0,0,0,0,-1,1602,1814,0,0
385,-790,0,0,0,0,0,0,0,0,0,-1,1609,1814,0,0
392,-790,0,0,0,0,0,0,0,0,0,-1,1616,1814,0,0
399,-790,0,0,0,0,0,0,0,0,0,-1,1623,1814,0,0
406,-790,0,0,0,0,0,0,0,0,0,-1,1630,1814,0,0
413,-790,0,0,0,0,0,0,0,0,0,-1,1637,1814,0,0
420,-790,0,0,0,0,0,0,0,0,0,-1,1644,1814,0,0
427,-790,0,0,0,0,0,0,0,0,0,-1,1651,1814,0,0
434,-790,0,0,0,0,0,0,0,0,0,-1,1658,1814,0,0
441,-790,0,0,0,0,0,0,0,0,0,-1,1665,1814,0,0
448,-790,0,0,0,0,0,0,0,0,0,-1,1672,1814,0,0
455,-790,0,0,0,0,0,0,0,0,0,-1,1679,1814,0,0
462,-790,0,0,0,0,0,0,0,0,0,-1,1686,1814,0,0
469,-790,0,0,0,0,0,0,0,0,0,-1,1693,1814,0,0
476,-790,0,0,0,0,0,0,0,0,0,-1,1700,1814,0,0
483,-790,0,0,0,0,0,0,0,0,0,-1,1707,1814,0,0
490,-790,0,0,0,0,0,0,0,0,0,-1,1714,1814,0,0
497,-790,0,0,0,0,0,0,0,0,0,-1,1721,1814,0,0
504,-790,0,0,0,0,0,0,0,0,0,-1,1728,1814,0,0
511,-790,0,0,0,0,0,0,0,0,0,-1,1735,1814,0,0
518,-790,0,0,0,0,0,0,0,0,0,-1,1742,1814,0,0
525,-790,0,0,0,0,0,0,0,0,0,-1,1749,1814,0,0
532,-790,0,0,0,0,0,0,0,0,0,-1,1756,1814,0,0
539,-790,0,0,0,0,0,0,0,0,0,-1,1763,1814,0,0
546,-790,0,0,0,0,0,0,0,0,0,-1,1770,1814,0,0
553,-790,0,0,0,0,0,0,0,0,0,-1,1777,1814,0,0
560,-790,0,0,0,0,0,0,0,0,0,-1,1784,1814,0,0
567,-790,0,0,0,0,0,0,0,0,0,-1,1791,1814,0,0
574,-790,0,0,0,0,0,0,0,0,0,-1,1798,1814,0,0
581,-790,0,0,0,0,0,0,0,0,0,-1,1805,1814,0,0
588,-790,0,0,0,0,0,0,0,0,0,-1,1812,1814,0,0
595,-790,0,0,0,0,0,0,0,0,0,-1,1819,1814,0,0
602,-790,0,0,0,0,0,0,0,0,0,-1,1826,1814,0,0
609,-790,0,0,0,0,0,0,0,0,0,-1,1833,1814,0,0
616,-790,0,0,0,0,0,0,0,0,0,-1,1840,1814,0,0
623,-790,0,0,0,0,0,0,0,0,0,-1,1847,1814,0,0
630,-790,0,0,0,0,0,0,0,0,0,-1,1854,1814,0,0
637,-790,0,0,0,0,0,0,0,0,0,-1,1861,1814,0,0
644,-790,0,0,0,0,0,0,0,0,0,-1,1868,1814,0,0
651,-790,0,0,0,0,0,0,0,0,0,-1,1875,1814,0,0
658,-790,0,0,0,0,0,0,0,0,0,-1,1882,1814,0,0
665,-790,0,0,0,0,0,0,0,0,0,-1,1889,1814,0,0
672,-790,0,0,0,0,0,0,0,0,0,-1,1896,1814,0,0
679,-790,0,0,0,0,0,0,0,0,0,-1,1903,1814,0,0
686,-790,0,0,0,0,0,0,0,0,0,-1,1910,1814,0,0
693,-790,0,0,0,0,0,0,0,0,0,-1,1917,1814,0,0
700,-790,0,0,0,0,0,0,0,0,0,-1,1924,1814,0,0
707,-790,0,0,0,0,0,0,0,0,0,-1,1931,1814,0,0
714,-790,0,0,0,0,0,0,0,0,0,-1,1938,1814,0,0
721,-790,0,0,0,0,0,0,0,0,0,-1,1945,1814,0,0
728,-790,0,0,0,0,0,0,0,0,0,-1,1952,1814,0,0
735,-790,0,0,0,0,0,0,0,0,0,-1,1959,1814,0,0
742,-790,0,0,0,0,0,0,0,0,0,-1,1966,1814,0,0
749,-790,0,0,0,0,0,0,0,0,0,-1,1973,1814,0,0
756,-790,0,0,0,0,0,0,0,0,0,-1,1980,1814,0,0
763,-790,0,0,0,0,0,0,0,0,0,-1,1987,1814,0,0
770,-790,0,0,0,0,0,0,0,0,0,-1,1994,1814,0,0
777,-790,0,0,0,0,0,0,0,0,0,-1,2001,1814,0,0
784,-790,0,0,0,0,0,0,0,0,0,-1,2008,1814,0,0
791,-790,0,0,0,0,0,0,0,0,0,-1,2015,1814,0,0
798,-790,0,0,0,0,0,0,0,0,0,-1,2022,1814,0,0
805,-790,0,0,0,0,0,0,0,0,0,-1,2029,1814,0,0
812,-790,0,0,0,0,0,0,0,0,0,-1,2036,1814,0,0
-700,-797,0,0,0,0,0,0,0,0,0,-1,524,1821,0,0
-693,-797,0,0,0,0,0,0,0,0,0,-1,531,1821,0,0
-686,-797,0,0,0,0,0,0,0,0,0,-1,538,1821,0,0
-679,-797,0,0,0,0,0,0,0,0,0,-1,545,1821,0,0
-672,-797,0,0,0,0,0,0,0,0,0,-1,552,1821,0,0
-665,-797,0,0,0,0,0,0,0,0,0,-1,559,1821,0,0
-658,-797,0,0,0,0,0,0,0,0,0,-1,566,1821,0,0
-651,-797,0,0,0,0,0,0,0,0,0,-1,573,1821,0,0
-644,-797,0,0,0,0,0,0,0,0,0,-1,580,1821,0,0
-637,-797,0,0,0,0,0,0,0,0,0,-1,587,1821,0,0
-630,-797,0,0,0,0,0,0,0,0,0,-1,594,1821,0,0
-623,-797,0,0,0,0,0,0,0,0,0,-1,601,1821,0,0
-616,-797,0,0,0,0,0,0,0,0,0,-1,608,1821,0,0
-609,-797,0,0,0,0,0,0,0,0,0,-1,615,1821,0,0
-602,-797,0,0,0,0,0,0,0,0,0,-1,622,1821,0,0
-595,-797,0,0,0,0,0,0,0,0,0,-1,629,1821,0,0
-588,-797,0,0,0,0,0,0,0,0,0,-1,636,1821,0,0
-581,-797,0,0,0,0,0,0,0,0,0,-1,643,1821,0,0
-574,-797,0,0,0,0,0,0,0,0,0,-1,650,1821,0,0
-567,-797,0,0,0,0,0,0,0,0,0,-1,657,1821,0,0
-560,-797,0,0,0,0,0,0,0,0,0,-1,664,1821,0,0
-553,-797,0,0,0,0,0,0,0,0,0,-1,671,1821,0,0
-546,-797,0,0,0,0,0,0,0,0,0,-1,678,1821,0,0
-539,-797,0,0,0,0,0,0,0,0,0,-1,685,1821,0,0
-532,-797,0,0,0,0,0,0,0,0,0,-1,692,1821,0,0
-525,-797,0,0,0,0,0,0,0,0,0,-1,699,1821,0,0
-518,-797,0,0,0,0,0,0,0,0,0,-1,706,1821,0,0
-511,-797,0,0,0,0,0,0,0,0,0,-1,713,1821,0,0
-504,-797,0,0,0,0,0,0,0,0,0,-1,720,1821,0,0
-497,-797,0,0,0,0,0,0,0,0,0,-1,727,1821,0,0
-490,-797,0,0,0,0,0,0,0,0,0,-1,734,1821,0,0
-483,-797,0,0,0,0,0,0,0,0,0,-1,741,1821,0,0
-476,-797,0,0,0,0,0,0,0,0,0,-1,748,1821,0,0
-469,-797,0,0,0,0,0,0,0,0,0,-1,755,1821,0,0
-462,-797,0,0,0,0,0,0,0,0,0,-1,762,1821,0,0
-455,-797,0,0,0,0,0,0,0,0,0,-1,769,1821,0,0
-448,-797,0,0,0,0,0,0,0,0,0,-1,776,1821,0,0
-441,-797,0,0,0,0,0,0,0,0,0,-1,783,1821,0,0
-434,-797,0,0,0,0,0,0,0,0,0,-1,790,1821,0,0
-427,-797,0,0,0,0,0,0,0,0,0,-1,797,1821,0,0
-420,-797,0,0,0,0,0,0,0,0,0,-1,804,1821,0,0
-413,-797,0,0,0,0,0,0,0,0,0,-1,811,1821,0,0
-406,-797,0,0,0,0,0,0,0,0,0,-1,818,1821,0,0
-399,-797,0,0,0,0,0,0,0,0,0,-1,825,1821,0,0
-392,-797,0,0,0,0,0,0,0,0,0,-1,832,1821,0,0
-385,-797,0,0,0,0,0,0,0,0,0,-1,839,1821,0,0
-378,-797,0,0,0,0,0,0,0,0,0,-1,846,1821,0,0
-371,-797,0,0,0,0,0,0,0,0,0,-1,853,1821,0,0
-364,-797,0,0,0,0,0,0,0,0,0,-1,860,1821,0,0
-357,-797,0,0,0,0,0,0,0,0,0,-1,867,1821,0,0
-350,-797,0,0,0,0,0,0,0,0,0,-1,874,1821,0,0
-343,-797,0,0,0,0,0,0,0,0,0,-1,881,1821,0,0
-336,-797,0,0,0,0,0,0,0,0,0,-1,888,1821,0,0
-329,-797,0,0,0,0,0,0,0,0,0,-1,895,1821,0,0
-322,-797,0,0,0,0,0,0,0,0,0,-1,902,1821,0,0
-315,-797,0,0,0,0,0,0,0,0,0,-1,909,1821,0,0
-308,-797,0,0,0,0,0,0,0,0,0,-1,916,1821,0,0
-301,-797,0,0,0,0,0,0,0,0,0,-1,923,1821,0,0
-294,-797,0,0,0,0,0,0,0,0,0,-1,930,1821,0,0
-287,-797,0,0,0,0,0,0,0,0,0,-1,937,1821,0,0
-280,-797,0,0,0,0,0,0,0,0,0,-1,944,1821,0,0
-273,-797,0,0,0,0,0,0,0,0,0,-1,951,1821,0,0
-266,-797,0,0,0,0,0,0,0,0,0,-1,958,1821,0,0
-259,-797,0,0,0,0,0,0,0,0,0,-1,965,1821,0,0
-252,-797,0,0,0,0,0,0,0,0,0,-1,972,1821,0,0
-245,-797,0,0,0,0,0,0,0,0,0,-1,979,1821,0,0
-238,-797,0,0,0,0,0,0,0,0,0,-1,986,1821,0,0
-231,-797,0,0,0,0,0,0,0,0,0,-1,993,1821,0,0
-224,-797,0,0,0,0,0,0,0,0,0,-1,1000,1821,0,0
-217,-797,0,0,0,0,0,0,0,0,0,-1,1007,1821,0,0
-210,-797,0,0,0,0,0,0,0,0,0,-1,1014,1821,0,0
-203,-797,0,0,0,0,0,0,0,0,0,-1,1021,1821,0,0
-196,-797,0,0,0,0,0,0,0,0,0,-1,1028,1821,0,0
-189,-797,0,0,0,0,0,0,0,0,0,-1,1035,1821,0,0
-182,-797,0,0,0,0,0,0,0,0,0,-1,1042,1821,0,0
-175,-797,0,0,0,0,0,0,0,0,0,-1,1049,1821,0,0
-168,-797,0,0,0,0,0,0,0,0,0,-1,1056,1821,0,0
-161,-797,0,0,0,0,0,0,0,0,0,-1,1063,1821,0,0
-154,-797,0,0,0,0,0,0,0,0,0,-1,1070,1821,0,0
-147,-797,0,0,0,0,0,0,0,0,0,-1,1077,1821,0,0
-140,-797,0,0,0,0,0,0,0,0,0,-1,1084,1821,0,0
-133,-797,0,0,0,0,0,0,0,0,0,-1,1091,1821,0,0
-126,-797,0,0,0,0,0,0,0,0,0,-1,1098,1821,0,0
-119,-797,0,0,0,0,0,0,0,0,0,-1,1105,1821,0,0
-112,-797,0,0,0,0,0,0,0,0,0,-1,1112,1821,0,0
-105,-797,0,0,0,0,0,0,0,0,0,-1,1119,1821,0,0
-98,-797,0,0,0,0,0,0,0,0,0,-1,1126,1821,0,0
-91,-797,0,0,0,0,0,0,0,0,0,-1,1133,1821,0,0
-84,-797,0,0,0,0,0,0,0,0,0,-1,1140,1821,0,0
-77,-797,0,0,0,0,0,0,0,0,0,-1,1147,1821,0,0
-70,-797,0,0,0,0,0,0,0,0,0,-1,1154,1821,0,0
-63,-797,0,0,0,0,0,0,0,0,0,-1,1161,1821,0,0
-56,-797,0,0,0,0,0,0,0,0,0,-1,1168,1821,0,0
-49,-797,0,0,0,0,0,0,0,0,0,-1,1175,1821,0,0
-42,-797,0.579834,0.692871,0,0,0,0,0,0,0,-1,1182,1821,0.579856,-0.692816
-35,-797,-0.185425,5.55396,0,0,0,0,0,0,0,-1,1189,1821,-0.18542,-5.55396
-28,-797,-0.310181,4.71509,0,0,0,0,0,0,0,-1,1196,1821,-0.310228,-4.71503
-21,-797,4.38428,20.1439,0,0,0,0,0,0,0,-1,1203,1821,4.38424,-20.1439
-14,-797,0.0683594,15.439,0,0,0,0,0,0,0,-1,1210,1821,0.0683846,-15.4389
-7,-797,2.67822,15.2222,0,0,0,0,0,0,0,-1,1217,1821,2.67818,-15.2222
0,-797,5.53149,17.5408,0,0,0,0,0,0,0,-1,1224,1821,5.53155,-17.5407
7,-797,5.24182,17.7667,-0.0689219,-0.0759808,-0.0300316,-0.0422131,-0.10269,-0.726904,0.0595996,0.0482981,1231,1821,5.24187,-17.7667
14,-797,4.87573,18.0133,-0.0640905,-0.0736561,-0.023999,-0.0444024,-0.0933443,-0.687041,0.0539136,0.0444394,1238,1821,4.87571,-18.0133
21,-797,4.34131,17.8992,-0.0610176,-0.0697433,-0.0173454,-0.0474948,-0.0832661,-0.66219,0.0482323,0.0433619,1245,1821,4.34136,-17.8992
28,-797,4.05835,17.8569,-0.0631322,-0.0654999,-0.0111364,-0.0531169,-0.0755151,-0.732445,0.044785,0.0425103,1252,1821,4.05841,-17.8569
35,-797,3.97192,17.738,-0.0714186,-0.0597577,-0.0042133,-0.0583947,-0.0727816,-1.25792,0.0445074,0.0499087,1259,1821,3.97194,-17.738
42,-797,3.79932,17.6796,0,0,0,0,0,0,0,-1,1266,1821,3.79927,-17.6795
49,-797,11.546,12.5909,-0.0837891,-0.0484031,0.00776521,-0.046774,-0.0854182,1.36401,0.0493906,0.0467279,1273,1821,11.546,-12.591
56,-797,10.8713,12.8881,-0.092461,-0.0422566,0.0124569,-0.0393357,-0.0953819,1.34048,0.0553497,0.04788,1280,1821,10.8713,-12.8881
63,-797,10.3695,13.2831,-0.101093,-0.0342385,0.0171478,-0.0300967,-0.105234,1.3338,0.0625846,0.0438497,1287,1821,10.3696,-13.283
70,-797,9.89734,13.6991,-0.110027,-0.0258164,0.0211049,-0.0208232,-0.115021,1.33848,0.070768,0.0409771,1294,1821,9.89737,-13.6991
77,-797,9.54346,14.1492,-0.117592,-0.0177718,0.0248025,-0.0119488,-0.123415,1.3402,0.0785973,0.0392059,1301,1821,9.54341,-14.1491
84,-797,6.65112,14.3844,-0.124148,-0.00935323,0.0274747,-0.00311636,-0.130385,1.34758,0.0859032,0.0459609,1308,1821,6.65117,-14.3845
91,-797,6.31494,14.6945,0,0,0,0,0,0,0,-1,1315,1821,6.31492,-14.6944
98,-797,5.60474,14.7328,-0.126581,0.00714855,0.0327234,0.0147265,-0.134159,1.34323,0.0947303,0.0465117,1322,1821,5.60471,-14.7328
105,-797,4.7583,14.6476,-0.123755,0.0139027,0.0355592,0.0225455,-0.132398,1.33236,0.0966611,0.0422587,1329,1821,4.75827,-14.6476
112,-797,3.9281,14.2749,-0.117759,0.0203216,0.0390911,0.0306203,-0.128058,1.3132,0.0971997,0.0406984,1336,1821,3.92808,-14.2749
119,-797,2.59143,16.6523,0,0,0,0,0,0,0,-1,1343,1821,2.59147,-16.6523
126,-797,3.46887,16.6646,0,0,0,0,0,0,0,-1,1350,1821,3.46883,-16.6645
133,-797,4.2887,16.4135,0,0,0,0,0,0,0,-1,1357,1821,4.28874,-16.4135
140,-797,4.93518,16.1045,0,0,0,0,0,0,0,-1,1364,1821,4.93516,-16.1045
147,-797,5.44116,15.9459,0,0,0,0,0,0,0,-1,1371,1821,5.44118,-15.9459
154,-797,14.49,10.5256,0,0,0,0,0,0,0,-1,1378,1821,14.49,-10.5256
161,-797,6.79199,1.12952,0,0,0,0,0,0,0,-1,1385,1821,6.79203,-1.12957
168,-797,0,0,0,0,0,0,0,0,0,-1,1392,1821,0,0
175,-797,0,0,0,0,0,0,0,0,0,-1,1399,1821,0,0
182,-797,0,0,0,0,0,0,0,0,0,-1,1406,1821,0,0
189,-797,0,0,0,0,0,0,0,0,0,-1,1413,1821,0,0
196,-797,0,0,0,0,0,0,0,0,0,-1,1420,1821,0,0
203,-797,0,0,0,0,0,0,0,0,0,-1,1427,1821,0,0
210,-797,0,0,0,0,0,0,0,0,0,-1,1434,1821,0,0
217,-797,0,0,0,0,0,0,0,0,0,-1,1441,1821,0,0
224,-797,0,0,0,0,0,0,0,0,0,-1,1448,1821,0,0
231,-797,0,0,0,0,0,0,0,0,0,-1,1455,1821,0,0
238,-797,0,0,0,0,0,0,0,0,0,-1,1462,1821,0,0
245,-797,0,0,0,0,0,0,0,0,0,-1,1469,1821,0,0
252,-797,0,0,0,0,0,0,0,0,0,-1,1476,1821,0,0
259,-797,0,0,0,0,0,0,0,0,0,-1,1483,1821,0,0
266,-797,0,0,0,0,0,0,0,0,0,-1,1490,1821,0,0
273,-797,0,0,0,0,0,0,0,0,0,-1,1497,1821,0,0
280,-797,0,0,0,0,0,0,0,0,0,-1,1504,1821,0,0
287,-797,0,0,0,0,0,0,0,0,0,-1,1511,1821,0,0
294,-797,0,0,0,0,0,0,0,0,0,-1,1518,1821,0,0
301,-797,0,0,0,0,0,0,0,0,0,-1,1525,1821,0,0
308,-797,0,0,0,0,0,0,0,0,0,-1,1532,1821,0,0
315,-797,0,0,0,0,0,0,0,0,0,-1,1539,1821,0,0
322,-797,0,0,0,0,0,0,0,0,0,-1,1546,1821,0,0
329,-797,0,0,0,0,0,0,0,0,0,-1,1553,1821,0,0
336,-797,0,0,0,0,0,0,0,0,0,-1,1560,1821,0,0
343,-797,0,0,0,0,0,0,0,0,0,-1,1567,1821,0,0
350,-797,0,0,0,0,0,0,0,0,0,-1,1574,1821,0,0
357,-797,0,0,0,0,0,0,0,0,0,-1,1581,1821,0,0
364,-797,0,0,0,0,0,0,0,0,0,-1,1588,1821,0,0
371,-797,0,0,0,0,0,0,0,0,0,-1,1595,1821,0,0
378,-797,0,0,0,0,0,0,0,0,0,-1,1602,1821,0,0
385,-797,0,0,0,0,0,0,0,0,0,-1,1609,1821,0,0
392,-797,0,0,0,0,0,0,0,0,0,-1,1616,1821,0,0
399,-797,0,0,0,0,0,0,0,0,0,-1,1623,1821,0,0
406,-797,0,0,0,0,0,0,0,0,0,-1,1630,1821,0,0
413,-797,0,0,0,0,0,0,0,0,0,-1,1637,1821,0,0
420,-797,0,0,0,0,0,0,0,0,0,-1,1644,1821,0,0
427,-797,0,0,0,0,0,0,0,0,0,-1,1651,1821,0,0
434,-797,0,0,0,0,0,0,0,0,0,-1,1658,1821,0,0
441,-797,0,0,0,0,0,0,0,0,0,-1,1665,1821,0,0
448,-797,0,0,0,0,0,0,0,0,0,-1,1672,1821,0,0
455,-797,0,0,0,0,0,0,0,0,0,-1,1679,1821,0,0
462,-797,0,0,0,0,0,0,0,0,0,-1,1686,1821,0,0
469,-797,0,0,0,0,0,0,0,0,0,-1,1693,1821,0,0
476,-797,0,0,0,0,0,0,0,0,0,-1,1700,1821,0,0
483,-797,0,0,0,0,0,0,0,0,0,-1,1707,1821,0,0
490,-797,0,0,0,0,0,0,0,0,0,-1,1714,1821,0,0
497,-797,0,0,0,0,0,0,0,0,0,-1,1721,1821,0,0
504,-797,0,0,0,0,0,0,0,0,0,-1,1728,1821,0,0
511,-797,0,0,0,0,0,0,0,0,0,-1,1735,1821,0,0
518,-797,0,0,0,0,0,0,0,0,0,-1,1742,1821,0,0
525,-797,0,0,0,0,0,0,0,0,0,-1,1749,1821,0,0
532,-797,0,0,0,0,0,0,0,0,0,-1,1756,1821,0,0
539,-797,0,0,0,0,0,0,0,0,0,-1,1763,1821,0,0
546,-797,0,0,0,0,0,0,0,0,0,-1,1770,1821,0,0
553,-797,0,0,0,0,0,0,0,0,0,-1,1777,1821,0,0
560,-797,0,0,0,0,0,0,0,0,0,-1,1784,1821,0,0
567,-797,0,0,0,0,0,0,0,0,0,-1,1791,1821,0,0
574,-797,0,0,0,0,0,0,0,0,0,-1,1798,1821,0,0
581,-797,0,0,0,0,0,0,0,0,0,-1,1805,1821,0,0
588,-797,0,0,0,0,0,0,0,0,0,-1,1812,1821,0,0
595,-797,0,0,0,0,0,0,0,0,0,-1,1819,1821,0,0
602,-797,0,0,0,0,0,0,0,0,0,-1,1826,1821,0,0
609,-797,0,0,0,0,0,0,0,0,0,-1,1833,1821,0,0
616,-797,0,0,0,0,0,0,0,0,0,-1,1840,1821,0,0
623,-797,0,0,0,0,0,0,0,0,0,-1,1847,1821,0,0
630,-797,0,0,0,0,0,0,0,0,0,-1,1854,1821,0,0
637,-797,0,0,0,0,0,0,0,0,0,-1,1861,1821,0,0
644,-797,0,0,0,0,0,0,0,0,0,-1,1868,1821,0,0
651,-797,0,0,0,0,0,0,0,0,0,-1,1875,1821,0,0
658,-797,0,0,0,0,0,0,0,0,0,-1,1882,1821,0,0
665,-797,0,0,0,0,0,0,0,0,0,-1,1889,1821,0,0
672,-797,0,0,0,0,0,0,0,0,0,-1,1896,1821,0,0
679,-797,0,0,0,0,0,0,0,0,0,-1,1903,1821,0,0
686,-797,0,0,0,0,0,0,0,0,0,-1,1910,1821,0,0
693,-797,0,0,0,0,0,0,0,0,0,-1,1917,1821,0,0
700,-797,0,0,0,0,0,0,0,0,0,-1,1924,1821,0,0
707,-797,0,0,0,0,0,0,0,0,0,-1,1931,1821,0,0
714,-797,0,0,0,0,0,0,0,0,0,-1,1938,1821,0,0
721,-797,0,0,0,0,0,0,0,0,0,-1,1945,1821,0,0
728,-797,0,0,0,0,0,0,0,0,0,-1,1952,1821,0,0
735,-797,0,0,0,0,0,0,0,0,0,-1,1959,1821,0,0
742,-797,0,0,0,0,0,0,0,0,0,-1,1966,1821,0,0
749,-797,0,0,0,0,0,0,0,0,0,-1,1973,1821,0,0
756,-797,0,0,0,0,0,0,0,0,0,-1,1980,1821,0,0
763,-797,0,0,0,0,0,0,0,0,0,-1,1987,1821,0,0
770,-797,0,0,0,0,0,0,0,0,0,-1,1994,1821,0,0
777,-797,0,0,0,0,0,0,0,0,0,-1,2001,1821,0,0
784,-797,0,0,0,0,0,0,0,0,0,-1,2008,1821,0,0
791,-797,0,0,0,0,0,0,0,0,0,-1,2015,1821,0,0
798,-797,0,0,0,0,0,0,0,0,0,-1,2022,1821,0,0
805,-797,0,0,0,0,0,0,0,0,0,-1,2029,1821,0,0
812,-797,0,0,0,0,0,0,0,0,0,-1,2036,1821,0,0
-700,-804,0,0,0,0,0,0,0,0,0,-1,524,1828,0,0
-693,-804,0,0,0,0,0,0,0,0,0,-1,531,1828,0,0
-686,-804,0,0,0,0,0,0,0,0,0,-1,538,1828,0,0
-679,-804,0,0,0,0,0,0,0,0,0,-1,545,1828,0,0
-672,-804,0,0,0,0,0,0,0,0,0,-1,552,1828,0,0
-665,-804,0,0,0,0,0,0,0,0,0,-1,559,1828,0,0
-658,-804,0,0,0,0,0,0,0,0,0,-1,566,1828,0,0
-651,-804,0,0,0,0,0,0,0,0,0,-1,573,1828,0,0
-644,-804,0,0,0,0,0,0,0,0,0,-1,580,1828,0,0
-637,-804,0,0,0,0,0,0,0,0,0,-1,587,1828,0,0
-630,-804,0,0,0,0,0,0,0,0,0,-1,594,1828,0,0
-623,-804,0,0,0,0,0,0,0,0,0,-1,601,1828,0,0
-616,-804,0,0,0,0,0,0,0,0,0,-1,608,1828,0,0
-609,-804,0,0,0,0,0,0,0,0,0,-1,615,1828,0,0
-602,-804,0,0,0,0,0,0,0,0,0,-1,622,1828,0,0
-595,-804,0,0,0,0,0,0,0,0,0,-1,629,1828,0,0
-588,-804,0,0,0,0,0,0,0,0,0,-1,636,1828,0,0
-581,-804,0,0,0,0,0,0,0,0,0,-1,643,1828,0,0
-574,-804,0,0,0,0,0,0,0,0,0,-1,650,1828,0,0
-567,-804,0,0,0,0,0,0,0,0,0,-1,657,1828,0,0
-560,-804,0,0,0,0,0,0,0,0,0,-1,664,1828,0,0
-553,-804,0,0,0,0,0,0,0,0,0,-1,671,1828,0,0
-546,-804,0,0,0,0,0,0,0,0,0,-1,678,1828,0,0
-539,-804,0,0,0,0,0,0,0,0,0,-1,685,1828,0,0
-532,-804,0,0,0,0,0,0,0,0,0,-1,692,1828,0,0
-525,-804,0,0,0,0,0,0,0,0,0,-1,699,1828,0,0
-518,-804,0,0,0,0,0,0,0,0,0,-1,706,1828,0,0
-511,-804,0,0,0,0,0,0,0,0,0,-1,713,1828,0,0
-504,-804,0,0,0,0,0,0,0,0,0,-1,720,1828,0,0
-497,-804,0,0,0,0,0,0,0,0,0,-1,727,1828,0,0
-490,-804,0,0,0,0,0,0,0,0,0,-1,734,1828,0,0
-483,-804,0,0,0,0,0,0,0,0,0,-1,741,1828,0,0
-476,-804,0,0,0,0,0,0,0,0,0,-1,748,1828,0,0
-469,-804,0,0,0,0,0,0,0,0,0,-1,755,1828,0,0
-462,-804,0,0,0,0,0,0,0,0,0,-1,762,1828,0,0
-455,-804,0,0,0,0,0,0,0,0,0,-1,769,1828,0,0
-448,-804,0,0,0,0,0,0,0,0,0,-1,776,1828,0,0
-441,-804,0,0,0,0,0,0,0,0,0,-1,783,1828,0,0
-434,-804,0,0,0,0,0,0,0,0,0,-1,790,1828,0,0
-427,-804,0,0,0,0,0,0,0,0,0,-1,797,1828,0,0
-420,-804,0,0,0,0,0,0,0,0,0,-1,804,1828,0,0
-413,-804,0,0,0,0,0,0,0,0,0,-1,811,1828,0,0
-406,-804,0,0,0,0,0,0,0,0,0,-1,818,1828,0,0
-399,-804,0,0,0,0,0,0,0,0,0,-1,825,1828,0,0
-392,-804,0,0,0,0,0,0,0,0,0,-1,832,1828,0,0
-385,-804,0,0,0,0,0,0,0,0,0,-1,839,1828,0,0
-378,-804,0,0,0,0,0,0,0,0,0,-1,846,1828,0,0
-371,-804,0,0,0,0,0,0,0,0,0,-1,853,1828,0,0
-364,-804,0,0,0,0,0,0,0,0,0,-1,860,1828,0,0
-357,-804,0,0,0,0,0,0,0,0,0,-1,867,1828,0,0
-350,-804,0,0,0,0,0,0,0,0,0,-1,874,1828,0,0
-343,-804,0,0,0,0,0,0,0,0,0,-1,881,1828,0,0
-336,-804,0,0,0,0,0,0,0,0,0,-1,888,1828,0,0
-329,-804,0,0,0,0,0,0,0,0,0,-1,895,1828,0,0
-322,-804,0,0,0,0,0,0,0,0,0,-1,902,1828,0,0
-315,-804,0,0,0,0,0,0,0,0,0,-1,909,1828,0,0
-308,-804,0,0,0,0,0,0,0,0,0,-1,916,1828,0,0
-301,-804,0,0,0,0,0,0,0,0,0,-1,923,1828,0,0
-294,-804,0,0,0,0,0,0,0,0,0,-1,930,1828,0,0
-287,-804,0,0,0,0,0,0,0,0,0,-1,937,1828,0,0
-280,-804,0,0,0,0,0,0,0,0,0,-1,944,1828,0,0
-273,-804,0,0,0,0,0,0,0,0,0,-1,951,1828,0,0
-266,-804,0,0,0,0,0,0,0,0,0,-1,958,1828,0,0
-259,-804,0,0,0,0,0,0,0,0,0,-1,965,1828,0,0
-252,-804,0,0,0,0,0,0,0,0,0,-1,972,1828,0,0
-245,-804,0,0,0,0,0,0,0,0,0,-1,979,1828,0,0
-238,-804,0,0,0,0,0,0,0,0,0,-1,986,1828,0,0
-231,-804,0,0,0,0,0,0,0,0,0,-1,993,1828,0,0
-224,-804,0,0,0,0,0,0,0,0,0,-1,1000,1828,0,0
-217,-804,0,0,0,0,0,0,0,0,0,-1,1007,1828,0,0
-210,-804,0,0,0,0,0,0,0,0,0,-1,1014,1828,0,0
-203,-804,0,0,0,0,0,0,0,0,0,-1,1021,1828,0,0
-196,-804,0,0,0,0,0,0,0,0,0,-1,1028,1828,0,0
-189,-804,0,0,0,0,0,0,0,0,0,-1,1035,1828,0,0
-182,-804,0,0,0,0,0,0,0,0,0,-1,1042,1828,0,0
-175,-804,0,0,0,0,0,0,0,0,0,-1,1049,1828,0,0
-168,-804,0,0,0,0,0,0,0,0,0,-1,1056,1828,0,0
-161,-804,0,0,0,0,0,0,0,0,0,-1,1063,1828,0,0
-154,-804,0,0,0,0,0,0,0,0,0,-1,1070,1828,0,0
-147,-804,0,0,0,0,0,0,0,0,0,-1,1077,1828,0,0
-140,-804,0,0,0,0,0,0,0,0,0,-1,1084,1828,0,0
-133,-804,0,0,0,0,0,0,0,0,0,-1,1091,1828,0,0
-126,-804,0,0,0,0,0,0,0,0,0,-1,1098,1828,0,0
-119,-804,0,0,0,0,0,0,0,0,0,-1,1105,1828,0,0
-112,-804,0,0,0,0,0,0,0,0,0,-1,1112,1828,0,0
-105,-804,0,0,0,0,0,0,0,0,0,-1,1119,1828,0,0
-98,-804,0,0,0,0,0,0,0,0,0,-1,1126,1828,0,0
-91,-804,0,0,0,0,0,0,0,0,0,-1,1133,1828,0,0
-84,-804,0,0,0,0,0,0,0,0,0,-1,1140,1828,0,0
-77,-804,0,0,0,0,0,0,0,0,0,-1,1147,1828,0,0
-70,-804,0,0,0,0,0,0,0,0,0,-1,1154,1828,0,0
-63,-804,0,0,0,0,0,0,0,0,0,-1,1161,1828,0,0
-56,-804,0,0,0,0,0,0,0,0,0,-1,1168,1828,0,0
-49,-804,0,0,0,0,0,0,0,0,0,-1,1175,1828,0,0
-42,-804,0,0,0,0,0,0,0,0,0,-1,1182,1828,0,0
-35,-804,0,0,0,0,0,0,0,0,0,-1,1189,1828,0,0
-28,-804,0,0,0,0,0,0,0,0,0,-1,1196,1828,0,0
-21,-804,0,0,0,0,0,0,0,0,0,-1,1203,1828,0,0
-14,-804,0,0,0,0,0,0,0,0,0,-1,1210,1828,0,0
-7,-804,0,0,0,0,0,0,0,0,0,-1,1217,1828,0,0
0,-804,0,0,0,0,0,0,0,0,0,-1,1224,1828,0,0
7,-804,0,0,0,0,0,0,0,0,0,-1,1231,1828,0,0
14,-804,0,0,0,0,0,0,0,0,0,-1,1238,1828,0,0
21,-804,0,0,0,0,0,0,0,0,0,-1,1245,1828,0,0
28,-804,0,0,0,0,0,0,0,0,0,-1,1252,1828,0,0
35,-804,4.36365,18.4076,0,0,0,0,0,0,0,-1,1259,1828,4.3637,-18.4076
42,-804,4.354,18.4545,0,0,0,0,0,0,0,-1,1266,1828,4.35405,-18.4544
49,-804,11.469,12.2632,-0.101768,-0.0556809,0.010121,-0.0535563,-0.103893,1.36387,0.0599921,0.045586,1273,1828,11.469,-12.2632
56,-804,10.9147,13.0085,-0.113068,-0.0494248,0.0157547,-0.0457383,-0.116755,1.34094,0.067933,0.0468811,1280,1828,10.9146,-13.0085
63,-804,10.5488,13.7255,-0.124915,-0.04116,0.0215125,-0.0359577,-0.130117,1.33352,0.077588,0.0466269,1287,1828,10.5488,-13.7255
70,-804,9.99536,13.9569,-0.137401,-0.032223,0.0261332,-0.0260877,-0.143536,1.3402,0.088289,0.0445462,1294,1828,9.99536,-13.9569
77,-804,9.83203,14.5712,-0.148422,-0.0233526,0.0301615,-0.0164589,-0.155316,1.3461,0.0985168,0.0425171,1301,1828,9.83197,-14.5711
84,-804,5.85339,14.4642,-0.157745,-0.0136845,0.0332452,-0.00638255,-0.165047,1.35459,0.107967,0.048753,1308,1828,5.8534,-14.4642
91,-804,0,0,0,0,0,0,0,0,0,-1,1315,1828,0,0
98,-804,0,0,0,0,0,0,0,0,0,-1,1322,1828,0,0
105,-804,0,0,0,0,0,0,0,0,0,-1,1329,1828,0,0
112,-804,0,0,0,0,0,0,0,0,0,-1,1336,1828,0,0
119,-804,0,0,0,0,0,0,0,0,0,-1,1343,1828,0,0
126,-804,0,0,0,0,0,0,0,0,0,-1,1350,1828,0,0
133,-804,0,0,0,0,0,0,0,0,0,-1,1357,1828,0,0
140,-804,0,0,0,0,0,0,0,0,0,-1,1364,1828,0,0
147,-804,0,0,0,0,0,0,0,0,0,-1,1371,1828,0,0
154,-804,0,0,0,0,0,0,0,0,0,-1,1378,1828,0,0
161,-804,0,0,0,0,0,0,0,0,0,-1,1385,1828,0,0
168,-804,0,0,0,0,0,0,0,0,0,-1,1392,1828,0,0
175,-804,0,0,0,0,0,0,0,0,0,-1,1399,1828,0,0
182,-804,0,0,0,0,0,0,0,0,0,-1,1406,1828,0,0
189,-804,0,0,0,0,0,0,0,0,0,-1,1413,1828,0,0
196,-804,0,0,0,0,0,0,0,0,0,-1,1420,1828,0,0
203,-804,0,0,0,0,0,0,0,0,0,-1,1427,1828,0,0
210,-804,0,0,0,0,0,0,0,0,0,-1,1434,1828,0,0
217,-804,0,0,0,0,0,0,0,0,0,-1,1441,1828,0,0
224,-804,0,0,0,0,0,0,0,0,0,-1,1448,1828,0,0
231,-804,0,0,0,0,0,0,0,0,0,-1,1455,1828,0,0
238,-804,0,0,0,0,0,0,0,0,0,-1,1462,1828,0,0
245,-804,0,0,0,0,0,0,0,0,0,-1,1469,1828,0,0
252,-804,0,0,0,0,0,0,0,0,0,-1,1476,1828,0,0
259,-804,0,0,0,0,0,0,0,0,0,-1,1483,1828,0,0
266,-804,0,0,0,0,0,0,0,0,0,-1,1490,1828,0,0
273,-804,0,0,0,0,0,0,0,0,0,-1,1497,1828,0,0
280,-804,0,0,0,0,0,0,0,0,0,-1,1504,1828,0,0
287,-804,0,0,0,0,0,0,0,0,0,-1,1511,1828,0,0
294,-804,0,0,0,0,0,0,0,0,0,-1,1518,1828,0,0
301,-804,0,0,0,0,0,0,0,0,0,-1,1525,1828,0,0
308,-804,0,0,0,0,0,0,0,0,0,-1,1532,1828,0,0
315,-804,0,0,0,0,0,0,0,0,0,-1,1539,1828,0,0
322,-804,0,0,0,0,0,0,0,0,0,-1,1546,1828,0,0
329,-804,0,0,0,0,0,0,0,0,0,-1,1553,1828,0,0
336,-804,0,0,0,0,0,0,0,0,0,-1,1560,1828,0,0
343,-804,0,0,0,0,0,0,0,0,0,-1,1567,1828,0,0
350,-804,0,0,0,0,0,0,0,0,0,-1,1574,1828,0,0
357,-804,0,0,0,0,0,0,0,0,0,-1,1581,1828,0,0
364,-804,0,0,0,0,0,0,0,0,0,-1,1588,1828,0,0
371,-804,0,0,0,0,0,0,0,0,0,-1,1595,1828,0,0
378,-804,0,0,0,0,0,0,0,0,0,-1,1602,1828,0,0
385,-804,0,0,0,0,0,0,0,0,0,-1,1609,1828,0,0
392,-804,0,0,0,0,0,0,0,0,0,-1,1616,1828,0,0
399,-804,0,0,0,0,0,0,0,0,0,-1,1623,1828,0,0
406,-804,0,0,0,0,0,0,0,0,0,-1,1630,1828,0,0
413,-804,0,0,0,0,0,0,0,0,0,-1,1637,1828,0,0
420,-804,0,0,0,0,0,0,0,0,0,-1,1644,1828,0,0
427,-804,0,0,0,0,0,0,0,0,0,-1,1651,1828,0,0
434,-804,0,0,0,0,0,0,0,0,0,-1,1658,1828,0,0
441,-804,0,0,0,0,0,0,0,0,0,-1,1665,1828,0,0
448,-804,0,0,0,0,0,0,0,0,0,-1,1672,1828,0,0
455,-804,0,0,0,0,0,0,0,0,0,-1,1679,1828,0,0
462,-804,0,0,0,0,0,0,0,0,0,-1,1686,1828,0,0
469,-804,0,0,0,0,0,0,0,0,0,-1,1693,1828,0,0
476,-804,0,0,0,0,0,0,0,0,0,-1,1700,1828,0,0
483,-804,0,0,0,0,0,0,0,0,0,-1,1707,1828,0,0
490,-804,0,0,0,0,0,0,0,0,0,-1,1714,1828,0,0
497,-804,0,0,0,0,0,0,0,0,0,-1,1721,1828,0,0
504,-804,0,0,0,0,0,0,0,0,0,-1,1728,1828,0,0
511,-804,0,0,0,0,0,0,0,0,0,-1,1735,1828,0,0
518,-804,0,0,0,0,0,0,0,0,0,-1,1742,1828,0,0
525,-804,0,0,0,0,0,0,0,0,0,-1,1749,1828,0,0
532,-804,0,0,0,0,0,0,0,0,0,-1,1756,1828,0,0
539,-804,0,0,0,0,0,0,0,0,0,-1,1763,1828,0,0
546,-804,0,0,0,0,0,0,0,0,0,-1,1770,1828,0,0
553,-804,0,0,0,0,0,0,0,0,0,-1,1777,1828,0,0
560,-804,0,0,0,0,0,0,0,0,0,-1,1784,1828,0,0
567,-804,0,0,0,0,0,0,0,0,0,-1,1791,1828,0,0
574,-804,0,0,0,0,0,0,0,0,0,-1,1798,1828,0,0
581,-804,0,0,0,0,0,0,0,0,0,-1,1805,1828,0,0
588,-804,0,0,0,0,0,0,0,0,0,-1,1812,1828,0,0
595,-804,0,0,0,0,0,0,0,0,0,-1,1819,1828,0,0
602,-804,0,0,0,0,0,0,0,0,0,-1,1826,1828,0,0
609,-804,0,0,0,0,0,0,0,0,0,-1,1833,1828,0,0
616,-804,0,0,0,0,0,0,0,0,0,-1,1840,1828,0,0
623,-804,0,0,0,0,0,0,0,0,0,-1,1847,1828,0,0
630,-804,0,0,0,0,0,0,0,0,0,-1,1854,1828,0,0
637,-804,0,0,0,0,0,0,0,0,0,-1,1861,1828,0,0
644,-804,0,0,0,0,0,0,0,0,0,-1,1868,1828,0,0
651,-804,0,0,0,0,0,0,0,0,0,-1,1875,1828,0,0
658,-804,0,0,0,0,0,0,0,0,0,-1,1882,1828,0,0
665,-804,0,0,0,0,0,0,0,0,0,-1,1889,1828,0,0
672,-804,0,0,0,0,0,0,0,0,0,-1,1896,1828,0,0
679,-804,0,0,0,0,0,0,0,0,0,-1,1903,1828,0,0
686,-804,0,0,0,0,0,0,0,0,0,-1,1910,1828,0,0
693,-804,0,0,0,0,0,0,0,0,0,-1,1917,1828,0,0
700,-804,0,0,0,0,0,0,0,0,0,-1,1924,1828,0,0
707,-804,0,0,0,0,0,0,0,0,0,-1,1931,1828,0,0
714,-804,0,0,0,0,0,0,0,0,0,-1,1938,1828,0,0
721,-804,0,0,0,0,0,0,0,0,0,-1,1945,1828,0,0
728,-804,0,0,0,0,0,0,0,0,0,-1,1952,1828,0,0
735,-804,0,0,0,0,0,0,0,0,0,-1,1959,1828,0,0
742,-804,0,0,0,0,0,0,0,0,0,-1,1966,1828,0,0
749,-804,0,0,0,0,0,0,0,0,0,-1,1973,1828,0,0
756,-804,0,0,0,0,0,0,0,0,0,-1,1980,1828,0,0
763,-804,0,0,0,0,0,0,0,0,0,-1,1987,1828,0,0
770,-804,0,0,0,0,0,0,0,0,0,-1,1994,1828,0,0
777,-804,0,0,0,0,0,0,0,0,0,-1,2001,1828,0,0
784,-804,0,0,0,0,0,0,0,0,0,-1,2008,1828,0,0
791,-804,0,0,0,0,0,0,0,0,0,-1,2015,1828,0,0
798,-804,0,0,0,0,0,0,0,0,0,-1,2022,1828,0,0
805,-804,0,0,0,0,0,0,0,0,0,-1,2029,1828,0,0
812,-804,0,0,0,0,0,0,0,0,0,-1,2036,1828,0,0

