 "x_c",  "y_c",  "u_c",  "v_c",  "exx",  "eyy",  "exy",  "e1",  "e2",  "gamma",  "e_vonmises",  "sigma",  "x",  "y",  "u",  "v"
-700,715,0,0,0,0,0,0,0,0,0,-1,524,309,0,0
-693,715,0,0,0,0,0,0,0,0,0,-1,531,309,0,0
-686,715,0,0,0,0,0,0,0,0,0,-1,538,309,0,0
-679,715,0,0,0,0,0,0,0,0,0,-1,545,309,0,0
-672,715,0,0,0,0,0,0,0,0,0,-1,552,309,0,0
-665,715,0,0,0,0,0,0,0,0,0,-1,559,309,0,0
-658,715,0,0,0,0,0,0,0,0,0,-1,566,309,0,0
-651,715,0,0,0,0,0,0,0,0,0,-1,573,309,0,0
-644,715,0,0,0,0,0,0,0,0,0,-1,580,309,0,0
-637,715,0,0,0,0,0,0,0,0,0,-1,587,309,0,0
-630,715,0,0,0,0,0,0,0,0,0,-1,594,309,0,0
-623,715,0,0,0,0,0,0,0,0,0,-1,601,309,0,0
-616,715,0,0,0,0,0,0,0,0,0,-1,608,309,0,0
-609,715,0,0,0,0,0,0,0,0,0,-1,615,309,0,0
-602,715,0,0,0,0,0,0,0,0,0,-1,622,309,0,0
-595,715,0,0,0,0,0,0,0,0,0,-1,629,309,0,0
-588,715,0,0,0,0,0,0,0,0,0,-1,636,309,0,0
-581,715,0,0,0,0,0,0,0,0,0,-1,643,309,0,0
-574,715,0,0,0,0,0,0,0,0,0,-1,650,309,0,0
-567,715,0,0,0,0,0,0,0,0,0,-1,657,309,0,0
-560,715,0,0,0,0,0,0,0,0,0,-1,664,309,0,0
-553,715,0,0,0,0,0,0,0,0,0,-1,671,309,0,0
-546,715,0,0,0,0,0,0,0,0,0,-1,678,309,0,0
-539,715,0,0,0,0,0,0,0,0,0,-1,685,309,0,0
-532,715,0,0,0,0,0,0,0,0,0,-1,692,309,0,0
-525,715,0,0,0,0,0,0,0,0,0,-1,699,309,0,0
-518,715,0,0,0,0,0,0,0,0,0,-1,706,309,0,0
-511,715,0,0,0,0,0,0,0,0,0,-1,713,309,0,0
-504,715,0,0,0,0,0,0,0,0,0,-1,720,309,0,0
-497,715,0,0,0,0,0,0,0,0,0,-1,727,309,0,0
-490,715,0,0,0,0,0,0,0,0,0,-1,734,309,0,0
-483,715,0,0,0,0,0,0,0,0,0,-1,741,309,0,0
-476,715,0,0,0,0,0,0,0,0,0,-1,748,309,0,0
-469,715,0,0,0,0,0,0,0,0,0,-1,755,309,0,0
-462,715,0,0,0,0,0,0,0,0,0,-1,762,309,0,0
-455,715,0,0,0,0,0,0,0,0,0,-1,769,309,0,0
-448,715,0,0,0,0,0,0,0,0,0,-1,776,309,0,0
-441,715,0,0,0,0,0,0,0,0,0,-1,783,309,0,0
-434,715,0,0,0,0,0,0,0,0,0,-1,790,309,0,0
-427,715,0,0,0,0,0,0,0,0,0,-1,797,309,0,0
-420,715,0,0,0,0,0,0,0,0,0,-1,804,309,0,0
-413,715,0,0,0,0,0,0,0,0,0,-1,811,309,0,0
-406,715,0,0,0,0,0,0,0,0,0,-1,818,309,0,0
-399,715,0,0,0,0,0,0,0,0,0,-1,825,309,0,0
-392,715,0,0,0,0,0,0,0,0,0,-1,832,309,0,0
-385,715,0,0,0,0,0,0,0,0,0,-1,839,309,0,0
-378,715,0,0,0,0,0,0,0,0,0,-1,846,309,0,0
-371,715,0,0,0,0,0,0,0,0,0,-1,853,309,0,0
-364,715,0,0,0,0,0,0,0,0,0,-1,860,309,0,0
-357,715,0,0,0,0,0,0,0,0,0,-1,867,309,0,0
-350,715,0,0,0,0,0,0,0,0,0,-1,874,309,0,0
-343,715,0,0,0,0,0,0,0,0,0,-1,881,309,0,0
-336,715,0,0,0,0,0,0,0,0,0,-1,888,309,0,0
-329,715,0,0,0,0,0,0,0,0,0,-1,895,309,0,0
-322,715,0,0,0,0,0,0,0,0,0,-1,902,309,0,0
-315,715,0,0,0,0,0,0,0,0,0,-1,909,309,0,0
-308,715,0,0,0,0,0,0,0,0,0,-1,916,309,0,0
-301,715,0,0,0,0,0,0,0,0,0,-1,923,309,0,0
-294,715,0,0,0,0,0,0,0,0,0,-1,930,309,0,0
-287,715,0,0,0,0,0,0,0,0,0,-1,937,309,0,0
-280,715,0,0,0,0,0,0,0,0,0,-1,944,309,0,0
-273,715,0,0,0,0,0,0,0,0,0,-1,951,309,0,0
-266,715,0,0,0,0,0,0,0,0,0,-1,958,309,0,0
-259,715,0,0,0,0,0,0,0,0,0,-1,965,309,0,0
-252,715,0,0,0,0,0,0,0,0,0,-1,972,309,0,0
-245,715,0,0,0,0,0,0,0,0,0,-1,979,309,0,0
-238,715,0,0,0,0,0,0,0,0,0,-1,986,309,0,0
-231,715,0,0,0,0,0,0,0,0,0,-1,993,309,0,0
-224,715,0,0,0,0,0,0,0,0,0,-1,1000,309,0,0
-217,715,0,0,0,0,0,0,0,0,0,-1,1007,309,0,0
-210,715,0,0,0,0,0,0,0,0,0,-1,1014,309,0,0
-203,715,0,0,0,0,0,0,0,0,0,-1,1021,309,0,0
-196,715,0,0,0,0,0,0,0,0,0,-1,1028,309,0,0
-189,715,0,0,0,0,0,0,0,0,0,-1,1035,309,0,0
-182,715,0,0,0,0,0,0,0,0,0,-1,1042,309,0,0
-175,715,0,0,0,0,0,0,0,0,0,-1,1049,309,0,0
-168,715,0,0,0,0,0,0,0,0,0,-1,1056,309,0,0
-161,715,0,0,0,0,0,0,0,0,0,-1,1063,309,0,0
-154,715,0,0,0,0,0,0,0,0,0,-1,1070,309,0,0
-147,715,0,0,0,0,0,0,0,0,0,-1,1077,309,0,0
-140,715,0,0,0,0,0,0,0,0,0,-1,1084,309,0,0
-133,715,0,0,0,0,0,0,0,0,0,-1,1091,309,0,0
-126,715,0,0,0,0,0,0,0,0,0,-1,1098,309,0,0
-119,715,0,0,0,0,0,0,0,0,0,-1,1105,309,0,0
-112,715,0,0,0,0,0,0,0,0,0,-1,1112,309,0,0
-105,715,0,0,0,0,0,0,0,0,0,-1,1119,309,0,0
-98,715,0,0,0,0,0,0,0,0,0,-1,1126,309,0,0
-91,715,0,0,0,0,0,0,0,0,0,-1,1133,309,0,0
-84,715,0,0,0,0,0,0,0,0,0,-1,1140,309,0,0
-77,715,0,0,0,0,0,0,0,0,0,-1,1147,309,0,0
-70,715,0,0,0,0,0,0,0,0,0,-1,1154,309,0,0
-63,715,0,0,0,0,0,0,0,0,0,-1,1161,309,0,0
-56,715,0,0,0,0,0,0,0,0,0,-1,1168,309,0,0
-49,715,0,0,0,0,0,0,0,0,0,-1,1175,309,0,0
-42,715,0,0,0,0,0,0,0,0,0,-1,1182,309,0,0
-35,715,0,0,0,0,0,0,0,0,0,-1,1189,309,0,0
-28,715,0,0,0,0,0,0,0,0,0,-1,1196,309,0,0
-21,715,0,0,0,0,0,0,0,0,0,-1,1203,309,0,0
-14,715,0,0,0,0,0,0,0,0,0,-1,1210,309,0,0
-7,715,0,0,0,0,0,0,0,0,0,-1,1217,309,0,0
0,715,0,0,0,0,0,0,0,0,0,-1,1224,309,0,0
7,715,0,0,0,0,0,0,0,0,0,-1,1231,309,0,0
14,715,0,0,0,0,0,0,0,0,0,-1,1238,309,0,0
21,715,0,0,0,0,0,0,0,0,0,-1,1245,309,0,0
28,715,0,0,0,0,0,0,0,0,0,-1,1252,309,0,0
35,715,0,0,0,0,0,0,0,0,0,-1,1259,309,0,0
42,715,0,0,0,0,0,0,0,0,0,-1,1266,309,0,0
49,715,0,0,0,0,0,0,0,0,0,-1,1273,309,0,0
56,715,0,0,0,0,0,0,0,0,0,-1,1280,309,0,0
63,715,14.8544,-68.8202,0,0,0,0,0,0,0,-1,1287,309,14.8543,68.8202
70,715,13.8502,-68.4278,0,0,0,0,0,0,0,-1,1294,309,13.8502,68.4278
77,715,0,0,0,0,0,0,0,0,0,-1,1301,309,0,0
84,715,0,0,0,0,0,0,0,0,0,-1,1308,309,0,0
91,715,0,0,0,0,0,0,0,0,0,-1,1315,309,0,0
98,715,0,0,0,0,0,0,0,0,0,-1,1322,309,0,0
105,715,0,0,0,0,0,0,0,0,0,-1,1329,309,0,0
112,715,0,0,0,0,0,0,0,0,0,-1,1336,309,0,0
119,715,0,0,0,0,0,0,0,0,0,-1,1343,309,0,0
126,715,0,0,0,0,0,0,0,0,0,-1,1350,309,0,0
133,715,0,0,0,0,0,0,0,0,0,-1,1357,309,0,0
140,715,0,0,0,0,0,0,0,0,0,-1,1364,309,0,0
147,715,0,0,0,0,0,0,0,0,0,-1,1371,309,0,0
154,715,0,0,0,0,0,0,0,0,0,-1,1378,309,0,0
161,715,0,0,0,0,0,0,0,0,0,-1,1385,309,0,0
168,715,0,0,0,0,0,0,0,0,0,-1,1392,309,0,0
175,715,0,0,0,0,0,0,0,0,0,-1,1399,309,0,0
182,715,0,0,0,0,0,0,0,0,0,-1,1406,309,0,0
189,715,0,0,0,0,0,0,0,0,0,-1,1413,309,0,0
196,715,0,0,0,0,0,0,0,0,0,-1,1420,309,0,0
203,715,0,0,0,0,0,0,0,0,0,-1,1427,309,0,0
210,715,0,0,0,0,0,0,0,0,0,-1,1434,309,0,0
217,715,0,0,0,0,0,0,0,0,0,-1,1441,309,0,0
224,715,0,0,0,0,0,0,0,0,0,-1,1448,309,0,0
231,715,0,0,0,0,0,0,0,0,0,-1,1455,309,0,0
238,715,0,0,0,0,0,0,0,0,0,-1,1462,309,0,0
245,715,0,0,0,0,0,0,0,0,0,-1,1469,309,0,0
252,715,0,0,0,0,0,0,0,0,0,-1,1476,309,0,0
259,715,0,0,0,0,0,0,0,0,0,-1,1483,309,0,0
266,715,0,0,0,0,0,0,0,0,0,-1,1490,309,0,0
273,715,0,0,0,0,0,0,0,0,0,-1,1497,309,0,0
280,715,0,0,0,0,0,0,0,0,0,-1,1504,309,0,0
287,715,0,0,0,0,0,0,0,0,0,-1,1511,309,0,0
294,715,0,0,0,0,0,0,0,0,0,-1,1518,309,0,0
301,715,0,0,0,0,0,0,0,0,0,-1,1525,309,0,0
308,715,0,0,0,0,0,0,0,0,0,-1,1532,309,0,0
315,715,0,0,0,0,0,0,0,0,0,-1,1539,309,0,0
322,715,0,0,0,0,0,0,0,0,0,-1,1546,309,0,0
329,715,0,0,0,0,0,0,0,0,0,-1,1553,309,0,0
336,715,0,0,0,0,0,0,0,0,0,-1,1560,309,0,0
343,715,0,0,0,0,0,0,0,0,0,-1,1567,309,0,0
350,715,0,0,0,0,0,0,0,0,0,-1,1574,309,0,0
357,715,0,0,0,0,0,0,0,0,0,-1,1581,309,0,0
364,715,0,0,0,0,0,0,0,0,0,-1,1588,309,0,0
371,715,0,0,0,0,0,0,0,0,0,-1,1595,309,0,0
378,715,0,0,0,0,0,0,0,0,0,-1,1602,309,0,0
385,715,0,0,0,0,0,0,0,0,0,-1,1609,309,0,0
392,715,0,0,0,0,0,0,0,0,0,-1,1616,309,0,0
399,715,0,0,0,0,0,0,0,0,0,-1,1623,309,0,0
406,715,0,0,0,0,0,0,0,0,0,-1,1630,309,0,0
413,715,0,0,0,0,0,0,0,0,0,-1,1637,309,0,0
420,715,0,0,0,0,0,0,0,0,0,-1,1644,309,0,0
427,715,0,0,0,0,0,0,0,0,0,-1,1651,309,0,0
434,715,0,0,0,0,0,0,0,0,0,-1,1658,309,0,0
441,715,0,0,0,0,0,0,0,0,0,-1,1665,309,0,0
448,715,0,0,0,0,0,0,0,0,0,-1,1672,309,0,0
455,715,0,0,0,0,0,0,0,0,0,-1,1679,309,0,0
462,715,0,0,0,0,0,0,0,0,0,-1,1686,309,0,0
469,715,0,0,0,0,0,0,0,0,0,-1,1693,309,0,0
476,715,0,0,0,0,0,0,0,0,0,-1,1700,309,0,0
483,715,0,0,0,0,0,0,0,0,0,-1,1707,309,0,0
490,715,0,0,0,0,0,0,0,0,0,-1,1714,309,0,0
497,715,0,0,0,0,0,0,0,0,0,-1,1721,309,0,0
504,715,0,0,0,0,0,0,0,0,0,-1,1728,309,0,0
511,715,0,0,0,0,0,0,0,0,0,-1,1735,309,0,0
518,715,0,0,0,0,0,0,0,0,0,-1,1742,309,0,0
525,715,0,0,0,0,0,0,0,0,0,-1,1749,309,0,0
532,715,0,0,0,0,0,0,0,0,0,-1,1756,309,0,0
539,715,0,0,0,0,0,0,0,0,0,-1,1763,309,0,0
546,715,0,0,0,0,0,0,0,0,0,-1,1770,309,0,0
553,715,0,0,0,0,0,0,0,0,0,-1,1777,309,0,0
560,715,0,0,0,0,0,0,0,0,0,-1,1784,309,0,0
567,715,0,0,0,0,0,0,0,0,0,-1,1791,309,0,0
574,715,0,0,0,0,0,0,0,0,0,-1,1798,309,0,0
581,715,0,0,0,0,0,0,0,0,0,-1,1805,309,0,0
588,715,0,0,0,0,0,0,0,0,0,-1,1812,309,0,0
595,715,0,0,0,0,0,0,0,0,0,-1,1819,309,0,0
602,715,0,0,0,0,0,0,0,0,0,-1,1826,309,0,0
609,715,0,0,0,0,0,0,0,0,0,-1,1833,309,0,0
616,715,0,0,0,0,0,0,0,0,0,-1,1840,309,0,0
623,715,0,0,0,0,0,0,0,0,0,-1,1847,309,0,0
630,715,0,0,0,0,0,0,0,0,0,-1,1854,309,0,0
637,715,0,0,0,0,0,0,0,0,0,-1,1861,309,0,0
644,715,0,0,0,0,0,0,0,0,0,-1,1868,309,0,0
651,715,0,0,0,0,0,0,0,0,0,-1,1875,309,0,0
658,715,0,0,0,0,0,0,0,0,0,-1,1882,309,0,0
665,715,0,0,0,0,0,0,0,0,0,-1,1889,309,0,0
672,715,0,0,0,0,0,0,0,0,0,-1,1896,309,0,0
679,715,0,0,0,0,0,0,0,0,0,-1,1903,309,0,0
686,715,0,0,0,0,0,0,0,0,0,-1,1910,309,0,0
693,715,0,0,0,0,0,0,0,0,0,-1,1917,309,0,0
700,715,0,0,0,0,0,0,0,0,0,-1,1924,309,0,0
707,715,0,0,0,0,0,0,0,0,0,-1,1931,309,0,0
714,715,0,0,0,0,0,0,0,0,0,-1,1938,309,0,0
721,715,0,0,0,0,0,0,0,0,0,-1,1945,309,0,0
728,715,0,0,0,0,0,0,0,0,0,-1,1952,309,0,0
735,715,0,0,0,0,0,0,0,0,0,-1,1959,309,0,0
742,715,0,0,0,0,0,0,0,0,0,-1,1966,309,0,0
749,715,0,0,0,0,0,0,0,0,0,-1,1973,309,0,0
756,715,0,0,0,0,0,0,0,0,0,-1,1980,309,0,0
763,715,0,0,0,0,0,0,0,0,0,-1,1987,309,0,0
770,715,0,0,0,0,0,0,0,0,0,-1,1994,309,0,0
777,715,0,0,0,0,0,0,0,0,0,-1,2001,309,0,0
784,715,0,0,0,0,0,0,0,0,0,-1,2008,309,0,0
791,715,0,0,0,0,0,0,0,0,0,-1,2015,309,0,0
798,715,0,0,0,0,0,0,0,0,0,-1,2022,309,0,0
805,715,0,0,0,0,0,0,0,0,0,-1,2029,309,0,0
812,715,0,0,0,0,0,0,0,0,0,-1,2036,309,0,0
-700,708,0,0,0,0,0,0,0,0,0,-1,524,316,0,0
-693,708,0,0,0,0,0,0,0,0,0,-1,531,316,0,0
-686,708,0,0,0,0,0,0,0,0,0,-1,538,316,0,0
-679,708,0,0,0,0,0,0,0,0,0,-1,545,316,0,0
-672,708,0,0,0,0,0,0,0,0,0,-1,552,316,0,0
-665,708,0,0,0,0,0,0,0,0,0,-1,559,316,0,0
-658,708,0,0,0,0,0,0,0,0,0,-1,566,316,0,0
-651,708,0,0,0,0,0,0,0,0,0,-1,573,316,0,0
-644,708,0,0,0,0,0,0,0,0,0,-1,580,316,0,0
-637,708,0,0,0,0,0,0,0,0,0,-1,587,316,0,0
-630,708,0,0,0,0,0,0,0,0,0,-1,594,316,0,0
-623,708,0,0,0,0,0,0,0,0,0,-1,601,316,0,0
-616,708,0,0,0,0,0,0,0,0,0,-1,608,316,0,0
-609,708,0,0,0,0,0,0,0,0,0,-1,615,316,0,0
-602,708,0,0,0,0,0,0,0,0,0,-1,622,316,0,0
-595,708,0,0,0,0,0,0,0,0,0,-1,629,316,0,0
-588,708,0,0,0,0,0,0,0,0,0,-1,636,316,0,0
-581,708,0,0,0,0,0,0,0,0,0,-1,643,316,0,0
-574,708,0,0,0,0,0,0,0,0,0,-1,650,316,0,0
-567,708,0,0,0,0,0,0,0,0,0,-1,657,316,0,0
-560,708,0,0,0,0,0,0,0,0,0,-1,664,316,0,0
-553,708,0,0,0,0,0,0,0,0,0,-1,671,316,0,0
-546,708,0,0,0,0,0,0,0,0,0,-1,678,316,0,0
-539,708,0,0,0,0,0,0,0,0,0,-1,685,316,0,0
-532,708,0,0,0,0,0,0,0,0,0,-1,692,316,0,0
-525,708,0,0,0,0,0,0,0,0,0,-1,699,316,0,0
-518,708,0,0,0,0,0,0,0,0,0,-1,706,316,0,0
-511,708,0,0,0,0,0,0,0,0,0,-1,713,316,0,0
-504,708,0,0,0,0,0,0,0,0,0,-1,720,316,0,0
-497,708,0,0,0,0,0,0,0,0,0,-1,727,316,0,0
-490,708,0,0,0,0,0,0,0,0,0,-1,734,316,0,0
-483,708,0,0,0,0,0,0,0,0,0,-1,741,316,0,0
-476,708,0,0,0,0,0,0,0,0,0,-1,748,316,0,0
-469,708,0,0,0,0,0,0,0,0,0,-1,755,316,0,0
-462,708,0,0,0,0,0,0,0,0,0,-1,762,316,0,0
-455,708,0,0,0,0,0,0,0,0,0,-1,769,316,0,0
-448,708,0,0,0,0,0,0,0,0,0,-1,776,316,0,0
-441,708,0,0,0,0,0,0,0,0,0,-1,783,316,0,0
-434,708,0,0,0,0,0,0,0,0,0,-1,790,316,0,0
-427,708,0,0,0,0,0,0,0,0,0,-1,797,316,0,0
-420,708,0,0,0,0,0,0,0,0,0,-1,804,316,0,0
-413,708,0,0,0,0,0,0,0,0,0,-1,811,316,0,0
-406,708,0,0,0,0,0,0,0,0,0,-1,818,316,0,0
-399,708,0,0,0,0,0,0,0,0,0,-1,825,316,0,0
-392,708,0,0,0,0,0,0,0,0,0,-1,832,316,0,0
-385,708,0,0,0,0,0,0,0,0,0,-1,839,316,0,0
-378,708,0,0,0,0,0,0,0,0,0,-1,846,316,0,0
-371,708,0,0,0,0,0,0,0,0,0,-1,853,316,0,0
-364,708,0,0,0,0,0,0,0,0,0,-1,860,316,0,0
-357,708,0,0,0,0,0,0,0,0,0,-1,867,316,0,0
-350,708,0,0,0,0,0,0,0,0,0,-1,874,316,0,0
-343,708,0,0,0,0,0,0,0,0,0,-1,881,316,0,0
-336,708,0,0,0,0,0,0,0,0,0,-1,888,316,0,0
-329,708,0,0,0,0,0,0,0,0,0,-1,895,316,0,0
-322,708,0,0,0,0,0,0,0,0,0,-1,902,316,0,0
-315,708,0,0,0,0,0,0,0,0,0,-1,909,316,0,0
-308,708,0,0,0,0,0,0,0,0,0,-1,916,316,0,0
-301,708,0,0,0,0,0,0,0,0,0,-1,923,316,0,0
-294,708,0,0,0,0,0,0,0,0,0,-1,930,316,0,0
-287,708,0,0,0,0,0,0,0,0,0,-1,937,316,0,0
-280,708,0,0,0,0,0,0,0,0,0,-1,944,316,0,0
-273,708,0,0,0,0,0,0,0,0,0,-1,951,316,0,0
-266,708,0,0,0,0,0,0,0,0,0,-1,958,316,0,0
-259,708,0,0,0,0,0,0,0,0,0,-1,965,316,0,0
-252,708,0,0,0,0,0,0,0,0,0,-1,972,316,0,0
-245,708,0,0,0,0,0,0,0,0,0,-1,979,316,0,0
-238,708,0,0,0,0,0,0,0,0,0,-1,986,316,0,0
-231,708,0,0,0,0,0,0,0,0,0,-1,993,316,0,0
-224,708,0,0,0,0,0,0,0,0,0,-1,1000,316,0,0
-217,708,0,0,0,0,0,0,0,0,0,-1,1007,316,0,0
-210,708,0,0,0,0,0,0,0,0,0,-1,1014,316,0,0
-203,708,0,0,0,0,0,0,0,0,0,-1,1021,316,0,0
-196,708,0,0,0,0,0,0,0,0,0,-1,1028,316,0,0
-189,708,0,0,0,0,0,0,0,0,0,-1,1035,316,0,0
-182,708,0,0,0,0,0,0,0,0,0,-1,1042,316,0,0
-175,708,0,0,0,0,0,0,0,0,0,-1,1049,316,0,0
-168,708,0,0,0,0,0,0,0,0,0,-1,1056,316,0,0
-161,708,0,0,0,0,0,0,0,0,0,-1,1063,316,0,0
-154,708,0,0,0,0,0,0,0,0,0,-1,1070,316,0,0
-147,708,0,0,0,0,0,0,0,0,0,-1,1077,316,0,0
-140,708,0,0,0,0,0,0,0,0,0,-1,1084,316,0,0
-133,708,0,0,0,0,0,0,0,0,0,-1,1091,316,0,0
-126,708,0,0,0,0,0,0,0,0,0,-1,1098,316,0,0
-119,708,0,0,0,0,0,0,0,0,0,-1,1105,316,0,0
-112,708,0,0,0,0,0,0,0,0,0,-1,1112,316,0,0
-105,708,0,0,0,0,0,0,0,0,0,-1,1119,316,0,0
-98,708,0,0,0,0,0,0,0,0,0,-1,1126,316,0,0
-91,708,0,0,0,0,0,0,0,0,0,-1,1133,316,0,0
-84,708,0,0,0,0,0,0,0,0,0,-1,1140,316,0,0
-77,708,0,0,0,0,0,0,0,0,0,-1,1147,316,0,0
-70,708,0,0,0,0,0,0,0,0,0,-1,1154,316,0,0
-63,708,0,0,0,0,0,0,0,0,0,-1,1161,316,0,0
-56,708,0,0,0,0,0,0,0,0,0,-1,1168,316,0,0
-49,708,0,0,0,0,0,0,0,0,0,-1,1175,316,0,0
-42,708,0,0,0,0,0,0,0,0,0,-1,1182,316,0,0
-35,708,-2.71204,-6.31558,0,0,0,0,0,0,0,-1,1189,316,-2.712,6.3156
-28,708,-2.92371,-5.53253,0,0,0,0,0,0,0,-1,1196,316,-2.92375,5.53254
-21,708,-0.417969,-24.5911,0,0,0,0,0,0,0,-1,1203,316,-0.418022,24.5911
-14,708,8.30457,-61.598,0,0,0,0,0,0,0,-1,1210,316,8.30459,61.598
-7,708,8.30359,-62.2942,0,0,0,0,0,0,0,-1,1217,316,8.3036,62.2942
0,708,9.36816,-63.644,0,0,0,0,0,0,0,-1,1224,316,9.36822,63.644
7,708,10.9524,-68.0367,0,0,0,0,0,0,0,-1,1231,316,10.9524,68.0367
14,708,8.87012,-68.0363,0,0,0,0,0,0,0,-1,1238,316,8.87017,68.0363
21,708,7.48425,-62.1471,0,0,0,0,0,0,0,-1,1245,316,7.48424,62.1471
28,708,7.42395,-63.0061,0,0,0,0,0,0,0,-1,1252,316,7.42389,63.0061
35,708,7.24023,-63.9429,0,0,0,0,0,0,0,-1,1259,316,7.24019,63.9429
42,708,6.87549,-64.8772,0,0,0,0,0,0,0,-1,1266,316,6.87548,64.8772
49,708,6.37817,-65.2113,0,0,0,0,0,0,0,-1,1273,316,6.37823,65.2113
56,708,15.1842,-69.8805,0,0,0,0,0,0,0,-1,1280,316,15.1843,69.8805
63,708,14.1266,-69.5418,0,0,0,0,0,0,0,-1,1287,316,14.1266,69.5418
70,708,13.1257,-69.16,-0.141446,0.0981522,0.0456929,0.10657,-0.149864,1.38861,0.148754,0.0449484,1294,316,13.1257,69.16
77,708,12.105,-68.6805,-0.150785,0.0893603,0.0430148,0.0968326,-0.158258,1.3988,0.148693,0.0425229,1301,316,12.105,68.6805
84,708,11.3292,-68.083,0,0,0,0,0,0,0,-1,1308,316,11.3292,68.083
91,708,10.5095,-68.1335,0,0,0,0,0,0,0,-1,1315,316,10.5095,68.1335
98,708,9.15515,-68.3411,0,0,0,0,0,0,0,-1,1322,316,9.1552,68.3411
105,708,8.12183,-69.1552,0,0,0,0,0,0,0,-1,1329,316,8.12184,69.1552
112,708,6.82654,-69.7006,-0.188744,0.0585653,0.0223137,0.0605625,-0.190741,1.48153,0.15144,0.0465949,1336,316,6.8265,69.7006
119,708,4.65894,-69.8856,-0.189866,0.0603758,0.0196079,0.0619029,-0.191393,1.49307,0.152477,0.044646,1343,316,4.65891,69.8856
126,708,3.70044,-70.0444,-0.188892,0.0648552,0.0176438,0.0660762,-0.190113,1.50171,0.153581,0.0458126,1350,316,3.70042,70.0444
133,708,2.41956,-70.0073,0,0,0,0,0,0,0,-1,1357,316,2.41952,70.0073
140,708,1.42651,-70.4258,0,0,0,0,0,0,0,-1,1364,316,1.42653,70.4258
147,708,10.6436,-66.2709,0,0,0,0,0,0,0,-1,1371,316,10.6436,66.2709
154,708,0,0,0,0,0,0,0,0,0,-1,1378,316,0,0
161,708,0,0,0,0,0,0,0,0,0,-1,1385,316,0,0
168,708,0,0,0,0,0,0,0,0,0,-1,1392,316,0,0
175,708,0,0,0,0,0,0,0,0,0,-1,1399,316,0,0
182,708,0,0,0,0,0,0,0,0,0,-1,1406,316,0,0
189,708,0,0,0,0,0,0,0,0,0,-1,1413,316,0,0
196,708,0,0,0,0,0,0,0,0,0,-1,1420,316,0,0
203,708,0,0,0,0,0,0,0,0,0,-1,1427,316,0,0
210,708,0,0,0,0,0,0,0,0,0,-1,1434,316,0,0
217,708,0,0,0,0,0,0,0,0,0,-1,1441,316,0,0
224,708,0,0,0,0,0,0,0,0,0,-1,1448,316,0,0
231,708,0,0,0,0,0,0,0,0,0,-1,1455,316,0,0
238,708,0,0,0,0,0,0,0,0,0,-1,1462,316,0,0
245,708,0,0,0,0,0,0,0,0,0,-1,1469,316,0,0
252,708,0,0,0,0,0,0,0,0,0,-1,1476,316,0,0
259,708,0,0,0,0,0,0,0,0,0,-1,1483,316,0,0
266,708,0,0,0,0,0,0,0,0,0,-1,1490,316,0,0
273,708,0,0,0,0,0,0,0,0,0,-1,1497,316,0,0
280,708,0,0,0,0,0,0,0,0,0,-1,1504,316,0,0
287,708,0,0,0,0,0,0,0,0,0,-1,1511,316,0,0
294,708,0,0,0,0,0,0,0,0,0,-1,1518,316,0,0
301,708,0,0,0,0,0,0,0,0,0,-1,1525,316,0,0
308,708,0,0,0,0,0,0,0,0,0,-1,1532,316,0,0
315,708,0,0,0,0,0,0,0,0,0,-1,1539,316,0,0
322,708,0,0,0,0,0,0,0,0,0,-1,1546,316,0,0
329,708,0,0,0,0,0,0,0,0,0,-1,1553,316,0,0
336,708,0,0,0,0,0,0,0,0,0,-1,1560,316,0,0
343,708,0,0,0,0,0,0,0,0,0,-1,1567,316,0,0
350,708,0,0,0,0,0,0,0,0,0,-1,1574,316,0,0
357,708,0,0,0,0,0,0,0,0,0,-1,1581,316,0,0
364,708,0,0,0,0,0,0,0,0,0,-1,1588,316,0,0
371,708,0,0,0,0,0,0,0,0,0,-1,1595,316,0,0
378,708,0,0,0,0,0,0,0,0,0,-1,1602,316,0,0
385,708,0,0,0,0,0,0,0,0,0,-1,1609,316,0,0
392,708,0,0,0,0,0,0,0,0,0,-1,1616,316,0,0
399,708,0,0,0,0,0,0,0,0,0,-1,1623,316,0,0
406,708,0,0,0,0,0,0,0,0,0,-1,1630,316,0,0
413,708,0,0,0,0,0,0,0,0,0,-1,1637,316,0,0
420,708,0,0,0,0,0,0,0,0,0,-1,1644,316,0,0
427,708,0,0,0,0,0,0,0,0,0,-1,1651,316,0,0
434,708,0,0,0,0,0,0,0,0,0,-1,1658,316,0,0
441,708,0,0,0,0,0,0,0,0,0,-1,1665,316,0,0
448,708,0,0,0,0,0,0,0,0,0,-1,1672,316,0,0
455,708,0,0,0,0,0,0,0,0,0,-1,1679,316,0,0
462,708,0,0,0,0,0,0,0,0,0,-1,1686,316,0,0
469,708,0,0,0,0,0,0,0,0,0,-1,1693,316,0,0
476,708,0,0,0,0,0,0,0,0,0,-1,1700,316,0,0
483,708,0,0,0,0,0,0,0,0,0,-1,1707,316,0,0
490,708,0,0,0,0,0,0,0,0,0,-1,1714,316,0,0
497,708,0,0,0,0,0,0,0,0,0,-1,1721,316,0,0
504,708,0,0,0,0,0,0,0,0,0,-1,1728,316,0,0
511,708,0,0,0,0,0,0,0,0,0,-1,1735,316,0,0
518,708,0,0,0,0,0,0,0,0,0,-1,1742,316,0,0
525,708,0,0,0,0,0,0,0,0,0,-1,1749,316,0,0
532,708,0,0,0,0,0,0,0,0,0,-1,1756,316,0,0
539,708,0,0,0,0,0,0,0,0,0,-1,1763,316,0,0
546,708,0,0,0,0,0,0,0,0,0,-1,1770,316,0,0
553,708,0,0,0,0,0,0,0,0,0,-1,1777,316,0,0
560,708,0,0,0,0,0,0,0,0,0,-1,1784,316,0,0
567,708,0,0,0,0,0,0,0,0,0,-1,1791,316,0,0
574,708,0,0,0,0,0,0,0,0,0,-1,1798,316,0,0
581,708,0,0,0,0,0,0,0,0,0,-1,1805,316,0,0
588,708,0,0,0,0,0,0,0,0,0,-1,1812,316,0,0
595,708,0,0,0,0,0,0,0,0,0,-1,1819,316,0,0
602,708,0,0,0,0,0,0,0,0,0,-1,1826,316,0,0
609,708,0,0,0,0,0,0,0,0,0,-1,1833,316,0,0
616,708,0,0,0,0,0,0,0,0,0,-1,1840,316,0,0
623,708,0,0,0,0,0,0,0,0,0,-1,1847,316,0,0
630,708,0,0,0,0,0,0,0,0,0,-1,1854,316,0,0
637,708,0,0,0,0,0,0,0,0,0,-1,1861,316,0,0
644,708,0,0,0,0,0,0,0,0,0,-1,1868,316,0,0
651,708,0,0,0,0,0,0,0,0,0,-1,1875,316,0,0
658,708,0,0,0,0,0,0,0,0,0,-1,1882,316,0,0
665,708,0,0,0,0,0,0,0,0,0,-1,1889,316,0,0
672,708,0,0,0,0,0,0,0,0,0,-1,1896,316,0,0
679,708,0,0,0,0,0,0,0,0,0,-1,1903,316,0,0
686,708,0,0,0,0,0,0,0,0,0,-1,1910,316,0,0
693,708,0,0,0,0,0,0,0,0,0,-1,1917,316,0,0
700,708,0,0,0,0,0,0,0,0,0,-1,1924,316,0,0
707,708,0,0,0,0,0,0,0,0,0,-1,1931,316,0,0
714,708,0,0,0,0,0,0,0,0,0,-1,1938,316,0,0
721,708,0,0,0,0,0,0,0,0,0,-1,1945,316,0,0
728,708,0,0,0,0,0,0,0,0,0,-1,1952,316,0,0
735,708,0,0,0,0,0,0,0,0,0,-1,1959,316,0,0
742,708,0,0,0,0,0,0,0,0,0,-1,1966,316,0,0
749,708,0,0,0,0,0,0,0,0,0,-1,1973,316,0,0
756,708,0,0,0,0,0,0,0,0,0,-1,1980,316,0,0
763,708,0,0,0,0,0,0,0,0,0,-1,1987,316,0,0
770,708,0,0,0,0,0,0,0,0,0,-1,1994,316,0,0
777,708,0,0,0,0,0,0,0,0,0,-1,2001,316,0,0
784,708,0,0,0,0,0,0,0,0,0,-1,2008,316,0,0
791,708,0,0,0,0,0,0,0,0,0,-1,2015,316,0,0
798,708,0,0,0,0,0,0,0,0,0,-1,2022,316,0,0
805,708,0,0,0,0,0,0,0,0,0,-1,2029,316,0,0
812,708,0,0,0,0,0,0,0,0,0,-1,2036,316,0,0
-700,701,0,0,0,0,0,0,0,0,0,-1,524,323,0,0
-693,701,0,0,0,0,0,0,0,0,0,-1,531,323,0,0
-686,701,0,0,0,0,0,0,0,0,0,-1,538,323,0,0
-679,701,0,0,0,0,0,0,0,0,0,-1,545,323,0,0
-672,701,0,0,0,0,0,0,0,0,0,-1,552,323,0,0
-665,701,0,0,0,0,0,0,0,0,0,-1,559,323,0,0
-658,701,0,0,0,0,0,0,0,0,0,-1,566,323,0,0
-651,701,0,0,0,0,0,0,0,0,0,-1,573,323,0,0
-644,701,0,0,0,0,0,0,0,0,0,-1,580,323,0,0
-637,701,0,0,0,0,0,0,0,0,0,-1,587,323,0,0
-630,701,0,0,0,0,0,0,0,0,0,-1,594,323,0,0
-623,701,0,0,0,0,0,0,0,0,0,-1,601,323,0,0
-616,701,0,0,0,0,0,0,0,0,0,-1,608,323,0,0
-609,701,0,0,0,0,0,0,0,0,0,-1,615,323,0,0
-602,701,0,0,0,0,0,0,0,0,0,-1,622,323,0,0
-595,701,0,0,0,0,0,0,0,0,0,-1,629,323,0,0
-588,701,0,0,0,0,0,0,0,0,0,-1,636,323,0,0
-581,701,0,0,0,0,0,0,0,0,0,-1,643,323,0,0
-574,701,0,0,0,0,0,0,0,0,0,-1,650,323,0,0
-567,701,0,0,0,0,0,0,0,0,0,-1,657,323,0,0
-560,701,0,0,0,0,0,0,0,0,0,-1,664,323,0,0
-553,701,0,0,0,0,0,0,0,0,0,-1,671,323,0,0
-546,701,0,0,0,0,0,0,0,0,0,-1,678,323,0,0
-539,701,0,0,0,0,0,0,0,0,0,-1,685,323,0,0
-532,701,0,0,0,0,0,0,0,0,0,-1,692,323,0,0
-525,701,0,0,0,0,0,0,0,0,0,-1,699,323,0,0
-518,701,0,0,0,0,0,0,0,0,0,-1,706,323,0,0
-511,701,0,0,0,0,0,0,0,0,0,-1,713,323,0,0
-504,701,0,0,0,0,0,0,0,0,0,-1,720,323,0,0
-497,701,0,0,0,0,0,0,0,0,0,-1,727,323,0,0
-490,701,0,0,0,0,0,0,0,0,0,-1,734,323,0,0
-483,701,0,0,0,0,0,0,0,0,0,-1,741,323,0,0
-476,701,0,0,0,0,0,0,0,0,0,-1,748,323,0,0
-469,701,0,0,0,0,0,0,0,0,0,-1,755,323,0,0
-462,701,0,0,0,0,0,0,0,0,0,-1,762,323,0,0
-455,701,0,0,0,0,0,0,0,0,0,-1,769,323,0,0
-448,701,0,0,0,0,0,0,0,0,0,-1,776,323,0,0
-441,701,0,0,0,0,0,0,0,0,0,-1,783,323,0,0
-434,701,0,0,0,0,0,0,0,0,0,-1,790,323,0,0
-427,701,0,0,0,0,0,0,0,0,0,-1,797,323,0,0
-420,701,0,0,0,0,0,0,0,0,0,-1,804,323,0,0
-413,701,0,0,0,0,0,0,0,0,0,-1,811,323,0,0
-406,701,0,0,0,0,0,0,0,0,0,-1,818,323,0,0
-399,701,0,0,0,0,0,0,0,0,0,-1,825,323,0,0
-392,701,0,0,0,0,0,0,0,0,0,-1,832,323,0,0
-385,701,0,0,0,0,0,0,0,0,0,-1,839,323,0,0
-378,701,0,0,0,0,0,0,0,0,0,-1,846,323,0,0
-371,701,0,0,0,0,0,0,0,0,0,-1,853,323,0,0
-364,701,0,0,0,0,0,0,0,0,0,-1,860,323,0,0
-357,701,0,0,0,0,0,0,0,0,0,-1,867,323,0,0
-350,701,0,0,0,0,0,0,0,0,0,-1,874,323,0,0
-343,701,0,0,0,0,0,0,0,0,0,-1,881,323,0,0
-336,701,0,0,0,0,0,0,0,0,0,-1,888,323,0,0
-329,701,0,0,0,0,0,0,0,0,0,-1,895,323,0,0
-322,701,0,0,0,0,0,0,0,0,0,-1,902,323,0,0
-315,701,0,0,0,0,0,0,0,0,0,-1,909,323,0,0
-308,701,0,0,0,0,0,0,0,0,0,-1,916,323,0,0
-301,701,0,0,0,0,0,0,0,0,0,-1,923,323,0,0
-294,701,0,0,0,0,0,0,0,0,0,-1,930,323,0,0
-287,701,0,0,0,0,0,0,0,0,0,-1,937,323,0,0
-280,701,0,0,0,0,0,0,0,0,0,-1,944,323,0,0
-273,701,0,0,0,0,0,0,0,0,0,-1,951,323,0,0
-266,701,0,0,0,0,0,0,0,0,0,-1,958,323,0,0
-259,701,0,0,0,0,0,0,0,0,0,-1,965,323,0,0
-252,701,0,0,0,0,0,0,0,0,0,-1,972,323,0,0
-245,701,0,0,0,0,0,0,0,0,0,-1,979,323,0,0
-238,701,0,0,0,0,0,0,0,0,0,-1,986,323,0,0
-231,701,0,0,0,0,0,0,0,0,0,-1,993,323,0,0
-224,701,0,0,0,0,0,0,0,0,0,-1,1000,323,0,0
-217,701,0,0,0,0,0,0,0,0,0,-1,1007,323,0,0
-210,701,0,0,0,0,0,0,0,0,0,-1,1014,323,0,0
-203,701,0,0,0,0,0,0,0,0,0,-1,1021,323,0,0
-196,701,0,0,0,0,0,0,0,0,0,-1,1028,323,0,0
-189,701,0,0,0,0,0,0,0,0,0,-1,1035,323,0,0
-182,701,0,0,0,0,0,0,0,0,0,-1,1042,323,0,0
-175,701,0,0,0,0,0,0,0,0,0,-1,1049,323,0,0
-168,701,0,0,0,0,0,0,0,0,0,-1,1056,323,0,0
-161,701,0,0,0,0,0,0,0,0,0,-1,1063,323,0,0
-154,701,0,0,0,0,0,0,0,0,0,-1,1070,323,0,0
-147,701,0,0,0,0,0,0,0,0,0,-1,1077,323,0,0
-140,701,0,0,0,0,0,0,0,0,0,-1,1084,323,0,0
-133,701,0,0,0,0,0,0,0,0,0,-1,1091,323,0,0
-126,701,0,0,0,0,0,0,0,0,0,-1,1098,323,0,0
-119,701,0,0,0,0,0,0,0,0,0,-1,1105,323,0,0
-112,701,0,0,0,0,0,0,0,0,0,-1,1112,323,0,0
-105,701,0,0,0,0,0,0,0,0,0,-1,1119,323,0,0
-98,701,0,0,0,0,0,0,0,0,0,-1,1126,323,0,0
-91,701,0,0,0,0,0,0,0,0,0,-1,1133,323,0,0
-84,701,0,0,0,0,0,0,0,0,0,-1,1140,323,0,0
-77,701,0,0,0,0,0,0,0,0,0,-1,1147,323,0,0
-70,701,-12.7566,-30.413,0,0,0,0,0,0,0,-1,1154,323,-12.7566,30.413
-63,701,-18.3169,-21.2322,0,0,0,0,0,0,0,-1,1161,323,-18.3169,21.2322
-56,701,-0.420166,-0.101776,0,0,0,0,0,0,0,-1,1168,323,-0.420119,0.101777
-49,701,-1.09021,-0.155762,0,0,0,0,0,0,0,-1,1175,323,-1.09024,0.155768
-42,701,-0.210327,-0.299133,0,0,0,0,0,0,0,-1,1182,323,-0.210379,0.29914
-35,701,-2.9635,-7.98676,0,0,0,0,0,0,0,-1,1189,323,-2.9635,7.98676
-28,701,-6.64417,-5.4917,0,0,0,0,0,0,0,-1,1196,323,-6.64411,5.4917
-21,701,6.90942,-60.6949,0,0,0,0,0,0,0,-1,1203,323,6.90938,60.6949
-14,701,8.8551,-63.0669,0,0,0,0,0,0,0,-1,1210,323,8.85508,63.0669
-7,701,9.01123,-63.9424,0,0,0,0,0,0,0,-1,1217,323,9.01127,63.9423
0,701,9.32458,-64.8014,0,0,0,0,0,0,0,-1,1224,323,9.3246,64.8014
7,701,10.526,-65.9704,0,0,0,0,0,0,0,-1,1231,323,10.526,65.9704
14,701,13.4808,-69.6502,0,0,0,0,0,0,0,-1,1238,323,13.4808,69.6502
21,701,8.93091,-63.436,0,0,0,0,0,0,0,-1,1245,323,8.93088,63.436
28,701,7.79749,-63.8244,0,0,0,0,0,0,0,-1,1252,323,7.79746,63.8244
35,701,7.52576,-64.7874,0,0,0,0,0,0,0,-1,1259,323,7.52572,64.7875
42,701,7.22339,-65.6034,0,0,0,0,0,0,0,-1,1266,323,7.22338,65.6034
49,701,6.88196,-66.0253,0,0,0,0,0,0,0,-1,1273,323,6.882,66.0253
56,701,6.5531,-66.5622,0,0,0,0,0,0,0,-1,1280,323,6.55313,66.5622
63,701,13.3989,-70.2635,0,0,0,0,0,0,0,-1,1287,323,13.3989,70.2635
70,701,12.3658,-69.9485,-0.116445,0.088909,0.0302978,0.0932859,-0.120822,1.42733,0.123955,0.0425727,1294,323,12.3659,69.9485
77,701,11.2682,-69.4642,-0.126133,0.0802218,0.0287589,0.0841549,-0.130066,1.43488,0.124624,0.0423234,1301,323,11.2682,69.4642
84,701,10.6483,-69.3423,0,0,0,0,0,0,0,-1,1308,323,10.6484,69.3423
91,701,9.46045,-69.5482,0,0,0,0,0,0,0,-1,1315,323,9.46049,69.5482
98,701,8.60413,-69.3477,0,0,0,0,0,0,0,-1,1322,323,8.60416,69.3477
105,701,7.42285,-69.6044,-0.158798,0.0554276,0.0191187,0.0571205,-0.160491,1.48248,0.130277,0.0490537,1329,323,7.42282,69.6044
112,701,6.17444,-70.0548,-0.162655,0.0545879,0.0163766,0.0558155,-0.163882,1.49598,0.131858,0.0451067,1336,323,6.17441,70.0548
119,701,4.63782,-70.1736,-0.164103,0.0566519,0.0147609,0.0576345,-0.165086,1.50433,0.133483,0.0413667,1343,323,4.63785,70.1736
126,701,3.45679,-70.1658,-0.163616,0.060831,0.0136551,0.0616588,-0.164444,1.51026,0.134962,0.0473561,1350,323,3.45676,70.1658
133,701,2.38806,-70.113,-0.159719,0.0707386,0.0145758,0.0716569,-0.160638,1.50788,0.137356,0.0495885,1357,323,2.38802,70.113
140,701,1.55383,-69.8236,-0.15221,0.0833742,0.0166234,0.0845414,-0.153377,1.5007,0.139265,0.0485734,1364,323,1.55388,69.8236
147,701,0.630127,-69.8141,0,0,0,0,0,0,0,-1,1371,323,0.63014,69.8141
154,701,9.1189,-64.9315,0,0,0,0,0,0,0,-1,1378,323,9.11892,64.9314
161,701,-4.83057,-59.3711,0,0,0,0,0,0,0,-1,1385,323,-4.83061,59.3711
168,701,30.7272,1.76184,0,0,0,0,0,0,0,-1,1392,323,30.7272,-1.76184
175,701,31.5035,2.25711,0,0,0,0,0,0,0,-1,1399,323,31.5036,-2.25712
182,701,8.80652,5.42807,0,0,0,0,0,0,0,-1,1406,323,8.8065,-5.42808
189,701,8.58081,4.24493,0,0,0,0,0,0,0,-1,1413,323,8.58082,-4.24494
196,701,0,0,0,0,0,0,0,0,0,-1,1420,323,0,0
203,701,0,0,0,0,0,0,0,0,0,-1,1427,323,0,0
210,701,0,0,0,0,0,0,0,0,0,-1,1434,323,0,0
217,701,0,0,0,0,0,0,0,0,0,-1,1441,323,0,0
224,701,0,0,0,0,0,0,0,0,0,-1,1448,323,0,0
231,701,0,0,0,0,0,0,0,0,0,-1,1455,323,0,0
238,701,0,0,0,0,0,0,0,0,0,-1,1462,323,0,0
245,701,0,0,0,0,0,0,0,0,0,-1,1469,323,0,0
252,701,0,0,0,0,0,0,0,0,0,-1,1476,323,0,0
259,701,0,0,0,0,0,0,0,0,0,-1,1483,323,0,0
266,701,0,0,0,0,0,0,0,0,0,-1,1490,323,0,0
273,701,0,0,0,0,0,0,0,0,0,-1,1497,323,0,0
280,701,0,0,0,0,0,0,0,0,0,-1,1504,323,0,0
287,701,0,0,0,0,0,0,0,0,0,-1,1511,323,0,0
294,701,0,0,0,0,0,0,0,0,0,-1,1518,323,0,0
301,701,0,0,0,0,0,0,0,0,0,-1,1525,323,0,0
308,701,0,0,0,0,0,0,0,0,0,-1,1532,323,0,0
315,701,0,0,0,0,0,0,0,0,0,-1,1539,323,0,0
322,701,0,0,0,0,0,0,0,0,0,-1,1546,323,0,0
329,701,0,0,0,0,0,0,0,0,0,-1,1553,323,0,0
336,701,0,0,0,0,0,0,0,0,0,-1,1560,323,0,0
343,701,0,0,0,0,0,0,0,0,0,-1,1567,323,0,0
350,701,0,0,0,0,0,0,0,0,0,-1,1574,323,0,0
357,701,0,0,0,0,0,0,0,0,0,-1,1581,323,0,0
364,701,0,0,0,0,0,0,0,0,0,-1,1588,323,0,0
371,701,0,0,0,0,0,0,0,0,0,-1,1595,323,0,0
378,701,0,0,0,0,0,0,0,0,0,-1,1602,323,0,0
385,701,0,0,0,0,0,0,0,0,0,-1,1609,323,0,0
392,701,0,0,0,0,0,0,0,0,0,-1,1616,323,0,0
399,701,0,0,0,0,0,0,0,0,0,-1,1623,323,0,0
406,701,0,0,0,0,0,0,0,0,0,-1,1630,323,0,0
413,701,0,0,0,0,0,0,0,0,0,-1,1637,323,0,0
420,701,0,0,0,0,0,0,0,0,0,-1,1644,323,0,0
427,701,0,0,0,0,0,0,0,0,0,-1,1651,323,0,0
434,701,0,0,0,0,0,0,0,0,0,-1,1658,323,0,0
441,701,0,0,0,0,0,0,0,0,0,-1,1665,323,0,0
448,701,0,0,0,0,0,0,0,0,0,-1,1672,323,0,0
455,701,0,0,0,0,0,0,0,0,0,-1,1679,323,0,0
462,701,0,0,0,0,0,0,0,0,0,-1,1686,323,0,0
469,701,0,0,0,0,0,0,0,0,0,-1,1693,323,0,0
476,701,0,0,0,0,0,0,0,0,0,-1,1700,323,0,0
483,701,0,0,0,0,0,0,0,0,0,-1,1707,323,0,0
490,701,0,0,0,0,0,0,0,0,0,-1,1714,323,0,0
497,701,0,0,0,0,0,0,0,0,0,-1,1721,323,0,0
504,701,0,0,0,0,0,0,0,0,0,-1,1728,323,0,0
511,701,0,0,0,0,0,0,0,0,0,-1,1735,323,0,0
518,701,0,0,0,0,0,0,0,0,0,-1,1742,323,0,0
525,701,0,0,0,0,0,0,0,0,0,-1,1749,323,0,0
532,701,0,0,0,0,0,0,0,0,0,-1,1756,323,0,0
539,701,0,0,0,0,0,0,0,0,0,-1,1763,323,0,0
546,701,0,0,0,0,0,0,0,0,0,-1,1770,323,0,0
553,701,0,0,0,0,0,0,0,0,0,-1,1777,323,0,0
560,701,0,0,0,0,0,0,0,0,0,-1,1784,323,0,0
567,701,0,0,0,0,0,0,0,0,0,-1,1791,323,0,0
574,701,0,0,0,0,0,0,0,0,0,-1,1798,323,0,0
581,701,0,0,0,0,0,0,0,0,0,-1,1805,323,0,0
588,701,0,0,0,0,0,0,0,0,0,-1,1812,323,0,0
595,701,0,0,0,0,0,0,0,0,0,-1,1819,323,0,0
602,701,0,0,0,0,0,0,0,0,0,-1,1826,323,0,0
609,701,0,0,0,0,0,0,0,0,0,-1,1833,323,0,0
616,701,0,0,0,0,0,0,0,0,0,-1,1840,323,0,0
623,701,0,0,0,0,0,0,0,0,0,-1,1847,323,0,0
630,701,0,0,0,0,0,0,0,0,0,-1,1854,323,0,0
637,701,0,0,0,0,0,0,0,0,0,-1,1861,323,0,0
644,701,0,0,0,0,0,0,0,0,0,-1,1868,323,0,0
651,701,0,0,0,0,0,0,0,0,0,-1,1875,323,0,0
658,701,0,0,0,0,0,0,0,0,0,-1,1882,323,0,0
665,701,0,0,0,0,0,0,0,0,0,-1,1889,323,0,0
672,701,0,0,0,0,0,0,0,0,0,-1,1896,323,0,0
679,701,0,0,0,0,0,0,0,0,0,-1,1903,323,0,0
686,701,0,0,0,0,0,0,0,0,0,-1,1910,323,0,0
693,701,0,0,0,0,0,0,0,0,0,-1,1917,323,0,0
700,701,0,0,0,0,0,0,0,0,0,-1,1924,323,0,0
707,701,0,0,0,0,0,0,0,0,0,-1,1931,323,0,0
714,701,0,0,0,0,0,0,0,0,0,-1,1938,323,0,0
721,701,0,0,0,0,0,0,0,0,0,-1,1945,323,0,0
728,701,0,0,0,0,0,0,0,0,0,-1,1952,323,0,0
735,701,0,0,0,0,0,0,0,0,0,-1,1959,323,0,0
742,701,0,0,0,0,0,0,0,0,0,-1,1966,323,0,0
749,701,0,0,0,0,0,0,0,0,0,-1,1973,323,0,0
756,701,0,0,0,0,0,0,0,0,0,-1,1980,323,0,0
763,701,0,0,0,0,0,0,0,0,0,-1,1987,323,0,0
770,701,0,0,0,0,0,0,0,0,0,-1,1994,323,0,0
777,701,0,0,0,0,0,0,0,0,0,-1,2001,323,0,0
784,701,0,0,0,0,0,0,0,0,0,-1,2008,323,0,0
791,701,0,0,0,0,0,0,0,0,0,-1,2015,323,0,0
798,701,0,0,0,0,0,0,0,0,0,-1,2022,323,0,0
805,701,0,0,0,0,0,0,0,0,0,-1,2029,323,0,0
812,701,0,0,0,0,0,0,0,0,0,-1,2036,323,0,0
-700,694,0,0,0,0,0,0,0,0,0,-1,524,330,0,0
-693,694,0,0,0,0,0,0,0,0,0,-1,531,330,0,0
-686,694,0,0,0,0,0,0,0,0,0,-1,538,330,0,0
-679,694,0,0,0,0,0,0,0,0,0,-1,545,330,0,0
-672,694,0,0,0,0,0,0,0,0,0,-1,552,330,0,0
-665,694,0,0,0,0,0,0,0,0,0,-1,559,330,0,0
-658,694,0,0,0,0,0,0,0,0,0,-1,566,330,0,0
-651,694,0,0,0,0,0,0,0,0,0,-1,573,330,0,0
-644,694,0,0,0,0,0,0,0,0,0,-1,580,330,0,0
-637,694,0,0,0,0,0,0,0,0,0,-1,587,330,0,0
-630,694,0,0,0,0,0,0,0,0,0,-1,594,330,0,0
-623,694,0,0,0,0,0,0,0,0,0,-1,601,330,0,0
-616,694,0,0,0,0,0,0,0,0,0,-1,608,330,0,0
-609,694,0,0,0,0,0,0,0,0,0,-1,615,330,0,0
-602,694,0,0,0,0,0,0,0,0,0,-1,622,330,0,0
-595,694,0,0,0,0,0,0,0,0,0,-1,629,330,0,0
-588,694,0,0,0,0,0,0,0,0,0,-1,636,330,0,0
-581,694,0,0,0,0,0,0,0,0,0,-1,643,330,0,0
-574,694,0,0,0,0,0,0,0,0,0,-1,650,330,0,0
-567,694,0,0,0,0,0,0,0,0,0,-1,657,330,0,0
-560,694,0,0,0,0,0,0,0,0,0,-1,664,330,0,0
-553,694,0,0,0,0,0,0,0,0,0,-1,671,330,0,0
-546,694,0,0,0,0,0,0,0,0,0,-1,678,330,0,0
-539,694,0,0,0,0,0,0,0,0,0,-1,685,330,0,0
-532,694,0,0,0,0,0,0,0,0,0,-1,692,330,0,0
-525,694,0,0,0,0,0,0,0,0,0,-1,699,330,0,0
-518,694,0,0,0,0,0,0,0,0,0,-1,706,330,0,0
-511,694,0,0,0,0,0,0,0,0,0,-1,713,330,0,0
-504,694,0,0,0,0,0,0,0,0,0,-1,720,330,0,0
-497,694,0,0,0,0,0,0,0,0,0,-1,727,330,0,0
-490,694,0,0,0,0,0,0,0,0,0,-1,734,330,0,0
-483,694,0,0,0,0,0,0,0,0,0,-1,741,330,0,0
-476,694,0,0,0,0,0,0,0,0,0,-1,748,330,0,0
-469,694,0,0,0,0,0,0,0,0,0,-1,755,330,0,0
-462,694,0,0,0,0,0,0,0,0,0,-1,762,330,0,0
-455,694,0,0,0,0,0,0,0,0,0,-1,769,330,0,0
-448,694,0,0,0,0,0,0,0,0,0,-1,776,330,0,0
-441,694,0,0,0,0,0,0,0,0,0,-1,783,330,0,0
-434,694,0,0,0,0,0,0,0,0,0,-1,790,330,0,0
-427,694,0,0,0,0,0,0,0,0,0,-1,797,330,0,0
-420,694,0,0,0,0,0,0,0,0,0,-1,804,330,0,0
-413,694,0,0,0,0,0,0,0,0,0,-1,811,330,0,0
-406,694,0,0,0,0,0,0,0,0,0,-1,818,330,0,0
-399,694,0,0,0,0,0,0,0,0,0,-1,825,330,0,0
-392,694,0,0,0,0,0,0,0,0,0,-1,832,330,0,0
-385,694,0,0,0,0,0,0,0,0,0,-1,839,330,0,0
-378,694,0,0,0,0,0,0,0,0,0,-1,846,330,0,0
-371,694,0,0,0,0,0,0,0,0,0,-1,853,330,0,0
-364,694,0,0,0,0,0,0,0,0,0,-1,860,330,0,0
-357,694,0,0,0,0,0,0,0,0,0,-1,867,330,0,0
-350,694,0,0,0,0,0,0,0,0,0,-1,874,330,0,0
-343,694,0,0,0,0,0,0,0,0,0,-1,881,330,0,0
-336,694,0,0,0,0,0,0,0,0,0,-1,888,330,0,0
-329,694,0,0,0,0,0,0,0,0,0,-1,895,330,0,0
-322,694,0,0,0,0,0,0,0,0,0,-1,902,330,0,0
-315,694,0,0,0,0,0,0,0,0,0,-1,909,330,0,0
-308,694,0,0,0,0,0,0,0,0,0,-1,916,330,0,0
-301,694,0,0,0,0,0,0,0,0,0,-1,923,330,0,0
-294,694,0,0,0,0,0,0,0,0,0,-1,930,330,0,0
-287,694,0,0,0,0,0,0,0,0,0,-1,937,330,0,0
-280,694,0,0,0,0,0,0,0,0,0,-1,944,330,0,0
-273,694,0,0,0,0,0,0,0,0,0,-1,951,330,0,0
-266,694,0,0,0,0,0,0,0,0,0,-1,958,330,0,0
-259,694,0,0,0,0,0,0,0,0,0,-1,965,330,0,0
-252,694,0,0,0,0,0,0,0,0,0,-1,972,330,0,0
-245,694,0,0,0,0,0,0,0,0,0,-1,979,330,0,0
-238,694,0,0,0,0,0,0,0,0,0,-1,986,330,0,0
-231,694,0,0,0,0,0,0,0,0,0,-1,993,330,0,0
-224,694,0,0,0,0,0,0,0,0,0,-1,1000,330,0,0
-217,694,0,0,0,0,0,0,0,0,0,-1,1007,330,0,0
-210,694,0,0,0,0,0,0,0,0,0,-1,1014,330,0,0
-203,694,0,0,0,0,0,0,0,0,0,-1,1021,330,0,0
-196,694,0,0,0,0,0,0,0,0,0,-1,1028,330,0,0
-189,694,0,0,0,0,0,0,0,0,0,-1,1035,330,0,0
-182,694,0,0,0,0,0,0,0,0,0,-1,1042,330,0,0
-175,694,0,0,0,0,0,0,0,0,0,-1,1049,330,0,0
-168,694,0,0,0,0,0,0,0,0,0,-1,1056,330,0,0
-161,694,0,0,0,0,0,0,0,0,0,-1,1063,330,0,0
-154,694,0,0,0,0,0,0,0,0,0,-1,1070,330,0,0
-147,694,0,0,0,0,0,0,0,0,0,-1,1077,330,0,0
-140,694,0,0,0,0,0,0,0,0,0,-1,1084,330,0,0
-133,694,0,0,0,0,0,0,0,0,0,-1,1091,330,0,0
-126,694,0,0,0,0,0,0,0,0,0,-1,1098,330,0,0
-119,694,0,0,0,0,0,0,0,0,0,-1,1105,330,0,0
-112,694,0,0,0,0,0,0,0,0,0,-1,1112,330,0,0
-105,694,2.5188,-19.3963,0,0,0,0,0,0,0,-1,1119,330,2.51882,19.3963
-98,694,1.34875,-10.1051,0,0,0,0,0,0,0,-1,1126,330,1.34874,10.1051
-91,694,6.62366,-46.8039,0,0,0,0,0,0,0,-1,1133,330,6.62363,46.8039
-84,694,0.0577393,-40.8823,0,0,0,0,0,0,0,-1,1140,330,0.0577026,40.8823
-77,694,-5.51379,-31.2714,0,0,0,0,0,0,0,-1,1147,330,-5.51383,31.2714
-70,694,-11.9945,-25.5143,0,0,0,0,0,0,0,-1,1154,330,-11.9945,25.5143
-63,694,-18.4752,-19.7572,0,0,0,0,0,0,0,-1,1161,330,-18.4752,19.7572
-56,694,-6.50623,-0.649139,0,0,0,0,0,0,0,-1,1168,330,-6.5062,0.649126
-49,694,-1.11426,0.0341797,0,0,0,0,0,0,0,-1,1175,330,-1.11424,-0.0341846
-42,694,-0.346313,-0.709595,0,0,0,0,0,0,0,-1,1182,330,-0.346298,0.709581
-35,694,-0.459106,-1.24713,0,0,0,0,0,0,0,-1,1189,330,-0.459142,1.24714
-28,694,-6.48413,-3.95972,0,0,0,0,0,0,0,-1,1196,330,-6.48414,3.9597
-21,694,10.1261,-64.907,0,0,0,0,0,0,0,-1,1203,330,10.1261,64.907
-14,694,7.74182,-65.584,0,0,0,0,0,0,0,-1,1210,330,7.74186,65.584
-7,694,9.0083,-65.4555,0,0,0,0,0,0,0,-1,1217,330,9.00832,65.4555
0,694,9.49023,-65.8961,0.0557564,0.0977878,-0.0128729,0.101417,0.0521272,-1.296,0.0585607,0.0489862,1224,330,9.49028,65.8961
7,694,10.0363,-66.4117,0.0513406,0.102719,-0.0124954,0.105597,0.0484629,-1.34444,0.0610347,0.0495298,1231,330,10.0362,66.4117
14,694,10.1724,-66.8193,0,0,0,0,0,0,0,-1,1238,330,10.1724,66.8193
21,694,9.2915,-64.6298,0,0,0,0,0,0,0,-1,1245,330,9.29149,64.6298
28,694,8.42566,-65.0361,0,0,0,0,0,0,0,-1,1252,330,8.4256,65.0361
35,694,7.79468,-65.6335,0,0,0,0,0,0,0,-1,1259,330,7.79472,65.6335
42,694,8.43286,-67.3365,0,0,0,0,0,0,0,-1,1266,330,8.43287,67.3365
49,694,8.38159,-67.5535,0,0,0,0,0,0,0,-1,1273,330,8.38165,67.5535
56,694,8.02185,-67.8836,0,0,0,0,0,0,0,-1,1280,330,8.02183,67.8836
63,694,7.74121,-68.6458,0,0,0,0,0,0,0,-1,1287,330,7.74125,68.6458
70,694,11.6039,-70.6259,0,0,0,0,0,0,0,-1,1294,330,11.6039,70.6259
77,694,11.4752,-68.935,-0.103476,0.0711497,0.0191369,0.0732222,-0.105549,1.46291,0.103775,0.0472563,1301,330,11.4752,68.935
84,694,9.97791,-69.3173,0,0,0,0,0,0,0,-1,1308,330,9.9779,69.3172
91,694,8.72583,-69.5188,0,0,0,0,0,0,0,-1,1315,330,8.72585,69.5188
98,694,7.61267,-69.9484,0,0,0,0,0,0,0,-1,1322,330,7.6127,69.9484
105,694,6.75293,-69.9767,-0.133771,0.050356,0.0139444,0.0514061,-0.134821,1.49564,0.111055,0.0463865,1329,330,6.75298,69.9767
112,694,5.57764,-70.4963,-0.137414,0.0499626,0.0122893,0.0507652,-0.138217,1.50558,0.112936,0.0427097,1336,330,5.57764,70.4963
119,694,4.42834,-70.5728,-0.139004,0.0519379,0.0113728,0.0526129,-0.139679,1.51151,0.11475,0.0410338,1343,330,4.42829,70.5728
126,694,3.2865,-70.5916,-0.138848,0.0554829,0.0107349,0.0560741,-0.139439,1.51578,0.11625,0.0432858,1350,330,3.28648,70.5916
133,694,2.16345,-70.6682,-0.136194,0.063317,0.0115957,0.0639887,-0.136866,1.51294,0.118481,0.0479152,1357,330,2.16351,70.6682
140,694,1.07214,-70.6879,-0.130918,0.0728805,0.0133065,0.0737456,-0.131783,1.50587,0.120229,0.0494801,1364,330,1.07216,70.6879
147,694,0.00512695,-70.7109,0,0,0,0,0,0,0,-1,1371,330,0.00514407,70.7109
154,694,7.39429,-65.2665,0,0,0,0,0,0,0,-1,1378,330,7.39426,65.2665
161,694,0.0187988,-38.6779,0,0,0,0,0,0,0,-1,1385,330,0.0187579,38.6779
168,694,30.451,0.196686,0,0,0,0,0,0,0,-1,1392,330,30.4511,-0.196674
175,694,31.0701,0.869873,0,0,0,0,0,0,0,-1,1399,330,31.07,-0.869874
182,694,8.29028,5.75238,0,0,0,0,0,0,0,-1,1406,330,8.29034,-5.75237
189,694,7.9801,4.46118,0,0,0,0,0,0,0,-1,1413,330,7.9801,-4.46118
196,694,7.39331,3.32632,0,0,0,0,0,0,0,-1,1420,330,7.39329,-3.32633
203,694,7.04492,2.20529,0,0,0,0,0,0,0,-1,1427,330,7.04496,-2.20529
210,694,6.44714,0.646912,0,0,0,0,0,0,0,-1,1434,330,6.44717,-0.646903
217,694,7.12061,-0.644958,0,0,0,0,0,0,0,-1,1441,330,7.12059,0.644961
224,694,6.74011,-1.70544,0,0,0,0,0,0,0,-1,1448,330,6.74013,1.70546
231,694,0,0,0,0,0,0,0,0,0,-1,1455,330,0,0
238,694,0,0,0,0,0,0,0,0,0,-1,1462,330,0,0
245,694,0,0,0,0,0,0,0,0,0,-1,1469,330,0,0
252,694,0,0,0,0,0,0,0,0,0,-1,1476,330,0,0
259,694,0,0,0,0,0,0,0,0,0,-1,1483,330,0,0
266,694,0,0,0,0,0,0,0,0,0,-1,1490,330,0,0
273,694,0,0,0,0,0,0,0,0,0,-1,1497,330,0,0
280,694,0,0,0,0,0,0,0,0,0,-1,1504,330,0,0
287,694,0,0,0,0,0,0,0,0,0,-1,1511,330,0,0
294,694,0,0,0,0,0,0,0,0,0,-1,1518,330,0,0
301,694,0,0,0,0,0,0,0,0,0,-1,1525,330,0,0
308,694,0,0,0,0,0,0,0,0,0,-1,1532,330,0,0
315,694,0,0,0,0,0,0,0,0,0,-1,1539,330,0,0
322,694,0,0,0,0,0,0,0,0,0,-1,1546,330,0,0
329,694,0,0,0,0,0,0,0,0,0,-1,1553,330,0,0
336,694,0,0,0,0,0,0,0,0,0,-1,1560,330,0,0
343,694,0,0,0,0,0,0,0,0,0,-1,1567,330,0,0
350,694,0,0,0,0,0,0,0,0,0,-1,1574,330,0,0
357,694,0,0,0,0,0,0,0,0,0,-1,1581,330,0,0
364,694,0,0,0,0,0,0,0,0,0,-1,1588,330,0,0
371,694,0,0,0,0,0,0,0,0,0,-1,1595,330,0,0
378,694,0,0,0,0,0,0,0,0,0,-1,1602,330,0,0
385,694,0,0,0,0,0,0,0,0,0,-1,1609,330,0,0
392,694,0,0,0,0,0,0,0,0,0,-1,1616,330,0,0
399,694,0,0,0,0,0,0,0,0,0,-1,1623,330,0,0
406,694,0,0,0,0,0,0,0,0,0,-1,1630,330,0,0
413,694,0,0,0,0,0,0,0,0,0,-1,1637,330,0,0
420,694,0,0,0,0,0,0,0,0,0,-1,1644,330,0,0
427,694,0,0,0,0,0,0,0,0,0,-1,1651,330,0,0
434,694,0,0,0,0,0,0,0,0,0,-1,1658,330,0,0
441,694,0,0,0,0,0,0,0,0,0,-1,1665,330,0,0
448,694,0,0,0,0,0,0,0,0,0,-1,1672,330,0,0
455,694,0,0,0,0,0,0,0,0,0,-1,1679,330,0,0
462,694,0,0,0,0,0,0,0,0,0,-1,1686,330,0,0
469,694,0,0,0,0,0,0,0,0,0,-1,1693,330,0,0
476,694,0,0,0,0,0,0,0,0,0,-1,1700,330,0,0
483,694,0,0,0,0,0,0,0,0,0,-1,1707,330,0,0
490,694,0,0,0,0,0,0,0,0,0,-1,1714,330,0,0
497,694,0,0,0,0,0,0,0,0,0,-1,1721,330,0,0
504,694,0,0,0,0,0,0,0,0,0,-1,1728,330,0,0
511,694,0,0,0,0,0,0,0,0,0,-1,1735,330,0,0
518,694,0,0,0,0,0,0,0,0,0,-1,1742,330,0,0
525,694,0,0,0,0,0,0,0,0,0,-1,1749,330,0,0
532,694,0,0,0,0,0,0,0,0,0,-1,1756,330,0,0
539,694,0,0,0,0,0,0,0,0,0,-1,1763,330,0,0
546,694,0,0,0,0,0,0,0,0,0,-1,1770,330,0,0
553,694,0,0,0,0,0,0,0,0,0,-1,1777,330,0,0
560,694,0,0,0,0,0,0,0,0,0,-1,1784,330,0,0
567,694,0,0,0,0,0,0,0,0,0,-1,1791,330,0,0
574,694,0,0,0,0,0,0,0,0,0,-1,1798,330,0,0
581,694,0,0,0,0,0,0,0,0,0,-1,1805,330,0,0
588,694,0,0,0,0,0,0,0,0,0,-1,1812,330,0,0
595,694,0,0,0,0,0,0,0,0,0,-1,1819,330,0,0
602,694,0,0,0,0,0,0,0,0,0,-1,1826,330,0,0
609,694,0,0,0,0,0,0,0,0,0,-1,1833,330,0,0
616,694,0,0,0,0,0,0,0,0,0,-1,1840,330,0,0
623,694,0,0,0,0,0,0,0,0,0,-1,1847,330,0,0
630,694,0,0,0,0,0,0,0,0,0,-1,1854,330,0,0
637,694,0,0,0,0,0,0,0,0,0,-1,1861,330,0,0
644,694,0,0,0,0,0,0,0,0,0,-1,1868,330,0,0
651,694,0,0,0,0,0,0,0,0,0,-1,1875,330,0,0
658,694,0,0,0,0,0,0,0,0,0,-1,1882,330,0,0
665,694,0,0,0,0,0,0,0,0,0,-1,1889,330,0,0
672,694,0,0,0,0,0,0,0,0,0,-1,1896,330,0,0
679,694,0,0,0,0,0,0,0,0,0,-1,1903,330,0,0
686,694,0,0,0,0,0,0,0,0,0,-1,1910,330,0,0
693,694,0,0,0,0,0,0,0,0,0,-1,1917,330,0,0
700,694,0,0,0,0,0,0,0,0,0,-1,1924,330,0,0
707,694,0,0,0,0,0,0,0,0,0,-1,1931,330,0,0
714,694,0,0,0,0,0,0,0,0,0,-1,1938,330,0,0
721,694,0,0,0,0,0,0,0,0,0,-1,1945,330,0,0
728,694,0,0,0,0,0,0,0,0,0,-1,1952,330,0,0
735,694,0,0,0,0,0,0,0,0,0,-1,1959,330,0,0
742,694,0,0,0,0,0,0,0,0,0,-1,1966,330,0,0
749,694,0,0,0,0,0,0,0,0,0,-1,1973,330,0,0
756,694,0,0,0,0,0,0,0,0,0,-1,1980,330,0,0
763,694,0,0,0,0,0,0,0,0,0,-1,1987,330,0,0
770,694,0,0,0,0,0,0,0,0,0,-1,1994,330,0,0
777,694,0,0,0,0,0,0,0,0,0,-1,2001,330,0,0
784,694,0,0,0,0,0,0,0,0,0,-1,2008,330,0,0
791,694,0,0,0,0,0,0,0,0,0,-1,2015,330,0,0
798,694,0,0,0,0,0,0,0,0,0,-1,2022,330,0,0
805,694,0,0,0,0,0,0,0,0,0,-1,2029,330,0,0
812,694,0,0,0,0,0,0,0,0,0,-1,2036,330,0,0
-700,687,0,0,0,0,0,0,0,0,0,-1,524,337,0,0
-693,687,0,0,0,0,0,0,0,0,0,-1,531,337,0,0
-686,687,0,0,0,0,0,0,0,0,0,-1,538,337,0,0
-679,687,0,0,0,0,0,0,0,0,0,-1,545,337,0,0
-672,687,0,0,0,0,0,0,0,0,0,-1,552,337,0,0
-665,687,0,0,0,0,0,0,0,0,0,-1,559,337,0,0
-658,687,0,0,0,0,0,0,0,0,0,-1,566,337,0,0
-651,687,0,0,0,0,0,0,0,0,0,-1,573,337,0,0
-644,687,0,0,0,0,0,0,0,0,0,-1,580,337,0,0
-637,687,0,0,0,0,0,0,0,0,0,-1,587,337,0,0
-630,687,0,0,0,0,0,0,0,0,0,-1,594,337,0,0
-623,687,0,0,0,0,0,0,0,0,0,-1,601,337,0,0
-616,687,0,0,0,0,0,0,0,0,0,-1,608,337,0,0
-609,687,0,0,0,0,0,0,0,0,0,-1,615,337,0,0
-602,687,0,0,0,0,0,0,0,0,0,-1,622,337,0,0
-595,687,0,0,0,0,0,0,0,0,0,-1,629,337,0,0
-588,687,0,0,0,0,0,0,0,0,0,-1,636,337,0,0
-581,687,0,0,0,0,0,0,0,0,0,-1,643,337,0,0
-574,687,0,0,0,0,0,0,0,0,0,-1,650,337,0,0
-567,687,0,0,0,0,0,0,0,0,0,-1,657,337,0,0
-560,687,0,0,0,0,0,0,0,0,0,-1,664,337,0,0
-553,687,0,0,0,0,0,0,0,0,0,-1,671,337,0,0
-546,687,0,0,0,0,0,0,0,0,0,-1,678,337,0,0
-539,687,0,0,0,0,0,0,0,0,0,-1,685,337,0,0
-532,687,0,0,0,0,0,0,0,0,0,-1,692,337,0,0
-525,687,0,0,0,0,0,0,0,0,0,-1,699,337,0,0
-518,687,0,0,0,0,0,0,0,0,0,-1,706,337,0,0
-511,687,0,0,0,0,0,0,0,0,0,-1,713,337,0,0
-504,687,0,0,0,0,0,0,0,0,0,-1,720,337,0,0
-497,687,0,0,0,0,0,0,0,0,0,-1,727,337,0,0
-490,687,0,0,0,0,0,0,0,0,0,-1,734,337,0,0
-483,687,0,0,0,0,0,0,0,0,0,-1,741,337,0,0
-476,687,0,0,0,0,0,0,0,0,0,-1,748,337,0,0
-469,687,0,0,0,0,0,0,0,0,0,-1,755,337,0,0
-462,687,0,0,0,0,0,0,0,0,0,-1,762,337,0,0
-455,687,0,0,0,0,0,0,0,0,0,-1,769,337,0,0
-448,687,0,0,0,0,0,0,0,0,0,-1,776,337,0,0
-441,687,0,0,0,0,0,0,0,0,0,-1,783,337,0,0
-434,687,0,0,0,0,0,0,0,0,0,-1,790,337,0,0
-427,687,0,0,0,0,0,0,0,0,0,-1,797,337,0,0
-420,687,0,0,0,0,0,0,0,0,0,-1,804,337,0,0
-413,687,0,0,0,0,0,0,0,0,0,-1,811,337,0,0
-406,687,0,0,0,0,0,0,0,0,0,-1,818,337,0,0
-399,687,0,0,0,0,0,0,0,0,0,-1,825,337,0,0
-392,687,0,0,0,0,0,0,0,0,0,-1,832,337,0,0
-385,687,0,0,0,0,0,0,0,0,0,-1,839,337,0,0
-378,687,0,0,0,0,0,0,0,0,0,-1,846,337,0,0
-371,687,0,0,0,0,0,0,0,0,0,-1,853,337,0,0
-364,687,0,0,0,0,0,0,0,0,0,-1,860,337,0,0
-357,687,0,0,0,0,0,0,0,0,0,-1,867,337,0,0
-350,687,0,0,0,0,0,0,0,0,0,-1,874,337,0,0
-343,687,0,0,0,0,0,0,0,0,0,-1,881,337,0,0
-336,687,0,0,0,0,0,0,0,0,0,-1,888,337,0,0
-329,687,0,0,0,0,0,0,0,0,0,-1,895,337,0,0
-322,687,0,0,0,0,0,0,0,0,0,-1,902,337,0,0
-315,687,0,0,0,0,0,0,0,0,0,-1,909,337,0,0
-308,687,0,0,0,0,0,0,0,0,0,-1,916,337,0,0
-301,687,0,0,0,0,0,0,0,0,0,-1,923,337,0,0
-294,687,0,0,0,0,0,0,0,0,0,-1,930,337,0,0
-287,687,0,0,0,0,0,0,0,0,0,-1,937,337,0,0
-280,687,0,0,0,0,0,0,0,0,0,-1,944,337,0,0
-273,687,0,0,0,0,0,0,0,0,0,-1,951,337,0,0
-266,687,0,0,0,0,0,0,0,0,0,-1,958,337,0,0
-259,687,0,0,0,0,0,0,0,0,0,-1,965,337,0,0
-252,687,0,0,0,0,0,0,0,0,0,-1,972,337,0,0
-245,687,0,0,0,0,0,0,0,0,0,-1,979,337,0,0
-238,687,0,0,0,0,0,0,0,0,0,-1,986,337,0,0
-231,687,0,0,0,0,0,0,0,0,0,-1,993,337,0,0
-224,687,0,0,0,0,0,0,0,0,0,-1,1000,337,0,0
-217,687,0,0,0,0,0,0,0,0,0,-1,1007,337,0,0
-210,687,0,0,0,0,0,0,0,0,0,-1,1014,337,0,0
-203,687,0,0,0,0,0,0,0,0,0,-1,1021,337,0,0
-196,687,0,0,0,0,0,0,0,0,0,-1,1028,337,0,0
-189,687,0,0,0,0,0,0,0,0,0,-1,1035,337,0,0
-182,687,0,0,0,0,0,0,0,0,0,-1,1042,337,0,0
-175,687,0,0,0,0,0,0,0,0,0,-1,1049,337,0,0
-168,687,0,0,0,0,0,0,0,0,0,-1,1056,337,0,0
-161,687,0,0,0,0,0,0,0,0,0,-1,1063,337,0,0
-154,687,0,0,0,0,0,0,0,0,0,-1,1070,337,0,0
-147,687,0,0,0,0,0,0,0,0,0,-1,1077,337,0,0
-140,687,0,0,0,0,0,0,0,0,0,-1,1084,337,0,0
-133,687,7.93958,-37.548,0,0,0,0,0,0,0,-1,1091,337,7.93957,37.548
-126,687,0.688477,-38.7298,0,0,0,0,0,0,0,-1,1098,337,0.688509,38.7298
-119,687,7.70825,-33.9236,0,0,0,0,0,0,0,-1,1105,337,7.70826,33.9236
-112,687,7.99866,-32.2983,0,0,0,0,0,0,0,-1,1112,337,7.99866,32.2983
-105,687,1.3208,-29.8313,0,0,0,0,0,0,0,-1,1119,337,1.3208,29.8313
-98,687,13.7111,-47.5645,0,0,0,0,0,0,0,-1,1126,337,13.711,47.5645
-91,687,7.22083,-41.1667,0,0,0,0,0,0,0,-1,1133,337,7.22079,41.1666
-84,687,0.745117,-35.0345,0,0,0,0,0,0,0,-1,1140,337,0.745155,35.0345
-77,687,-5.74353,-28.9553,0,0,0,0,0,0,0,-1,1147,337,-5.74357,28.9553
-70,687,-11.6842,-19.8473,0,0,0,0,0,0,0,-1,1154,337,-11.6842,19.8473
-63,687,-17.6757,-14.8966,0,0,0,0,0,0,0,-1,1161,337,-17.6756,14.8966
-56,687,-18.104,7.81931,0,0,0,0,0,0,0,-1,1168,337,-18.104,-7.81931
-49,687,-15.6449,-9.94391,0,0,0,0,0,0,0,-1,1175,337,-15.6449,9.94392
-42,687,-4.2019,-0.405609,0,0,0,0,0,0,0,-1,1182,337,-4.20192,0.405614
-35,687,-4.42273,-0.688171,0,0,0,0,0,0,0,-1,1189,337,-4.42276,0.688178
-28,687,-1.14038,-1.39072,0,0,0,0,0,0,0,-1,1196,337,-1.14035,1.3907
-21,687,6.89246,-64.809,0,0,0,0,0,0,0,-1,1203,337,6.89245,64.809
-14,687,7.66785,-65.2544,0,0,0,0,0,0,0,-1,1210,337,7.66782,65.2544
-7,687,8.44092,-65.8949,0,0,0,0,0,0,0,-1,1217,337,8.44087,65.8949
0,687,8.995,-66.3564,0.0358149,0.0834492,-0.0118098,0.0862164,0.0330477,-1.34063,0.0502269,0.0492092,1224,337,8.99503,66.3564
7,687,9.52539,-66.8391,0.0328644,0.0873019,-0.011231,0.0895279,0.0306383,-1.37513,0.0525398,0.0477627,1231,337,9.52535,66.8391
14,687,9.74585,-67.4404,0.028875,0.0909341,-0.0103957,0.0926292,0.0271799,-1.40916,0.0549798,0.0484689,1238,337,9.74586,67.4404
21,687,9.87,-67.8286,0,0,0,0,0,0,0,-1,1245,337,9.87003,67.8286
28,687,8.74329,-65.9453,0,0,0,0,0,0,0,-1,1252,337,8.74332,65.9453
35,687,8.67004,-67.8736,0,0,0,0,0,0,0,-1,1259,337,8.67009,67.8736
42,687,8.53052,-68.0605,-0.0214815,0.0900338,0.00432786,0.0902015,-0.0216492,1.53206,0.0685007,0.0499007,1266,337,8.53056,68.0605
49,687,8.49976,-68.2929,-0.0336466,0.0871165,0.00776458,0.0876136,-0.0341438,1.50685,0.072521,0.0489642,1273,337,8.49977,68.2929
56,687,8.53711,-68.6794,0,0,0,0,0,0,0,-1,1280,337,8.53715,68.6794
63,687,8.60486,-68.2239,0,0,0,0,0,0,0,-1,1287,337,8.60488,68.2239
70,687,8.40637,-67.481,0,0,0,0,0,0,0,-1,1294,337,8.40638,67.481
77,687,8.29382,-67.3696,0,0,0,0,0,0,0,-1,1301,337,8.29385,67.3696
84,687,8.11279,-68.924,0,0,0,0,0,0,0,-1,1308,337,8.1128,68.924
91,687,7.93604,-69.388,-0.0984199,0.0521483,0.0111129,0.0529641,-0.0992357,1.49752,0.089216,0.0452139,1315,337,7.9361,69.388
98,687,7.05933,-69.7301,-0.105192,0.0477102,0.0108618,0.048478,-0.10596,1.50023,0.0912001,0.0453439,1322,337,7.05938,69.7301
105,687,6.10486,-70.2749,-0.110517,0.0450457,0.0102015,0.0457118,-0.111183,1.50559,0.0931753,0.046578,1329,337,6.10484,70.2749
112,687,4.9552,-71.0157,0,0,0,0,0,0,0,-1,1336,337,4.95514,71.0157
119,687,3.83276,-70.821,-0.115436,0.0466784,0.00878764,0.0471534,-0.115911,1.5168,0.0968949,0.0419029,1343,337,3.83273,70.8211
126,687,2.77258,-70.7368,-0.115445,0.049537,0.0084254,0.0499662,-0.115875,1.5199,0.0982363,0.0419215,1350,337,2.77255,70.7368
133,687,1.64368,-70.7014,-0.113587,0.0556181,0.00922025,0.0561191,-0.114088,1.51652,0.100151,0.0467876,1357,337,1.64366,70.7014
140,687,0.539429,-70.5871,0,0,0,0,0,0,0,-1,1364,337,0.539387,70.5871
147,687,5.6842,-66.1339,0,0,0,0,0,0,0,-1,1371,337,5.68421,66.1339
154,687,5.73682,-64.9643,0,0,0,0,0,0,0,-1,1378,337,5.7368,64.9643
161,687,29.3895,-1.90628,0,0,0,0,0,0,0,-1,1385,337,29.3895,1.90628
168,687,29.8564,-1.19434,0,0,0,0,0,0,0,-1,1392,337,29.8564,1.19434
175,687,30.3419,-0.453583,0,0,0,0,0,0,0,-1,1399,337,30.3419,0.45357
182,687,6.67249,0.289917,0,0,0,0,0,0,0,-1,1406,337,6.67247,-0.289916
189,687,7.76062,4.53635,0,0,0,0,0,0,0,-1,1413,337,7.76064,-4.53636
196,687,6.99048,3.2966,0,0,0,0,0,0,0,-1,1420,337,6.99046,-3.2966
203,687,6.36499,2.1445,0,0,0,0,0,0,0,-1,1427,337,6.36499,-2.14451
210,687,6.68066,0.674652,0,0,0,0,0,0,0,-1,1434,337,6.68062,-0.674655
217,687,5.99683,-0.630493,0,0,0,0,0,0,0,-1,1441,337,5.99684,0.630497
224,687,5.52917,0.524902,0,0,0,0,0,0,0,-1,1448,337,5.5292,-0.524915
231,687,5.85583,-1.73651,0,0,0,0,0,0,0,-1,1455,337,5.85577,1.73651
238,687,5.96582,-2.96774,0,0,0,0,0,0,0,-1,1462,337,5.96577,2.96773
245,687,1.28259,2.32211,0,0,0,0,0,0,0,-1,1469,337,1.28258,-2.32211
252,687,1.97278,3.88422,0,0,0,0,0,0,0,-1,1476,337,1.97281,-3.88421
259,687,0,0,0,0,0,0,0,0,0,-1,1483,337,0,0
266,687,0,0,0,0,0,0,0,0,0,-1,1490,337,0,0
273,687,0,0,0,0,0,0,0,0,0,-1,1497,337,0,0
280,687,0,0,0,0,0,0,0,0,0,-1,1504,337,0,0
287,687,0,0,0,0,0,0,0,0,0,-1,1511,337,0,0
294,687,0,0,0,0,0,0,0,0,0,-1,1518,337,0,0
301,687,0,0,0,0,0,0,0,0,0,-1,1525,337,0,0
308,687,0,0,0,0,0,0,0,0,0,-1,1532,337,0,0
315,687,0,0,0,0,0,0,0,0,0,-1,1539,337,0,0
322,687,0,0,0,0,0,0,0,0,0,-1,1546,337,0,0
329,687,0,0,0,0,0,0,0,0,0,-1,1553,337,0,0
336,687,0,0,0,0,0,0,0,0,0,-1,1560,337,0,0
343,687,0,0,0,0,0,0,0,0,0,-1,1567,337,0,0
350,687,0,0,0,0,0,0,0,0,0,-1,1574,337,0,0
357,687,0,0,0,0,0,0,0,0,0,-1,1581,337,0,0
364,687,0,0,0,0,0,0,0,0,0,-1,1588,337,0,0
371,687,0,0,0,0,0,0,0,0,0,-1,1595,337,0,0
378,687,0,0,0,0,0,0,0,0,0,-1,1602,337,0,0
385,687,0,0,0,0,0,0,0,0,0,-1,1609,337,0,0
392,687,0,0,0,0,0,0,0,0,0,-1,1616,337,0,0
399,687,0,0,0,0,0,0,0,0,0,-1,1623,337,0,0
406,687,0,0,0,0,0,0,0,0,0,-1,1630,337,0,0
413,687,0,0,0,0,0,0,0,0,0,-1,1637,337,0,0
420,687,0,0,0,0,0,0,0,0,0,-1,1644,337,0,0
427,687,0,0,0,0,0,0,0,0,0,-1,1651,337,0,0
434,687,0,0,0,0,0,0,0,0,0,-1,1658,337,0,0
441,687,0,0,0,0,0,0,0,0,0,-1,1665,337,0,0
448,687,0,0,0,0,0,0,0,0,0,-1,1672,337,0,0
455,687,0,0,0,0,0,0,0,0,0,-1,1679,337,0,0
462,687,0,0,0,0,0,0,0,0,0,-1,1686,337,0,0
469,687,0,0,0,0,0,0,0,0,0,-1,1693,337,0,0
476,687,0,0,0,0,0,0,0,0,0,-1,1700,337,0,0
483,687,0,0,0,0,0,0,0,0,0,-1,1707,337,0,0
490,687,0,0,0,0,0,0,0,0,0,-1,1714,337,0,0
497,687,0,0,0,0,0,0,0,0,0,-1,1721,337,0,0
504,687,0,0,0,0,0,0,0,0,0,-1,1728,337,0,0
511,687,0,0,0,0,0,0,0,0,0,-1,1735,337,0,0
518,687,0,0,0,0,0,0,0,0,0,-1,1742,337,0,0
525,687,0,0,0,0,0,0,0,0,0,-1,1749,337,0,0
532,687,0,0,0,0,0,0,0,0,0,-1,1756,337,0,0
539,687,0,0,0,0,0,0,0,0,0,-1,1763,337,0,0
546,687,0,0,0,0,0,0,0,0,0,-1,1770,337,0,0
553,687,0,0,0,0,0,0,0,0,0,-1,1777,337,0,0
560,687,0,0,0,0,0,0,0,0,0,-1,1784,337,0,0
567,687,0,0,0,0,0,0,0,0,0,-1,1791,337,0,0
574,687,0,0,0,0,0,0,0,0,0,-1,1798,337,0,0
581,687,0,0,0,0,0,0,0,0,0,-1,1805,337,0,0
588,687,0,0,0,0,0,0,0,0,0,-1,1812,337,0,0
595,687,0,0,0,0,0,0,0,0,0,-1,1819,337,0,0
602,687,0,0,0,0,0,0,0,0,0,-1,1826,337,0,0
609,687,0,0,0,0,0,0,0,0,0,-1,1833,337,0,0
616,687,0,0,0,0,0,0,0,0,0,-1,1840,337,0,0
623,687,0,0,0,0,0,0,0,0,0,-1,1847,337,0,0
630,687,0,0,0,0,0,0,0,0,0,-1,1854,337,0,0
637,687,0,0,0,0,0,0,0,0,0,-1,1861,337,0,0
644,687,0,0,0,0,0,0,0,0,0,-1,1868,337,0,0
651,687,0,0,0,0,0,0,0,0,0,-1,1875,337,0,0
658,687,0,0,0,0,0,0,0,0,0,-1,1882,337,0,0
665,687,0,0,0,0,0,0,0,0,0,-1,1889,337,0,0
672,687,0,0,0,0,0,0,0,0,0,-1,1896,337,0,0
679,687,0,0,0,0,0,0,0,0,0,-1,1903,337,0,0
686,687,0,0,0,0,0,0,0,0,0,-1,1910,337,0,0
693,687,0,0,0,0,0,0,0,0,0,-1,1917,337,0,0
700,687,0,0,0,0,0,0,0,0,0,-1,1924,337,0,0
707,687,0,0,0,0,0,0,0,0,0,-1,1931,337,0,0
714,687,0,0,0,0,0,0,0,0,0,-1,1938,337,0,0
721,687,0,0,0,0,0,0,0,0,0,-1,1945,337,0,0
728,687,0,0,0,0,0,0,0,0,0,-1,1952,337,0,0
735,687,0,0,0,0,0,0,0,0,0,-1,1959,337,0,0
742,687,0,0,0,0,0,0,0,0,0,-1,1966,337,0,0
749,687,0,0,0,0,0,0,0,0,0,-1,1973,337,0,0
756,687,0,0,0,0,0,0,0,0,0,-1,1980,337,0,0
763,687,0,0,0,0,0,0,0,0,0,-1,1987,337,0,0
770,687,0,0,0,0,0,0,0,0,0,-1,1994,337,0,0
777,687,0,0,0,0,0,0,0,0,0,-1,2001,337,0,0
784,687,0,0,0,0,0,0,0,0,0,-1,2008,337,0,0
791,687,0,0,0,0,0,0,0,0,0,-1,2015,337,0,0
798,687,0,0,0,0,0,0,0,0,0,-1,2022,337,0,0
805,687,0,0,0,0,0,0,0,0,0,-1,2029,337,0,0
812,687,0,0,0,0,0,0,0,0,0,-1,2036,337,0,0
-700,680,0,0,0,0,0,0,0,0,0,-1,524,344,0,0
-693,680,0,0,0,0,0,0,0,0,0,-1,531,344,0,0
-686,680,0,0,0,0,0,0,0,0,0,-1,538,344,0,0
-679,680,0,0,0,0,0,0,0,0,0,-1,545,344,0,0
-672,680,0,0,0,0,0,0,0,0,0,-1,552,344,0,0
-665,680,0,0,0,0,0,0,0,0,0,-1,559,344,0,0
-658,680,0,0,0,0,0,0,0,0,0,-1,566,344,0,0
-651,680,0,0,0,0,0,0,0,0,0,-1,573,344,0,0
-644,680,0,0,0,0,0,0,0,0,0,-1,580,344,0,0
-637,680,0,0,0,0,0,0,0,0,0,-1,587,344,0,0
-630,680,0,0,0,0,0,0,0,0,0,-1,594,344,0,0
-623,680,0,0,0,0,0,0,0,0,0,-1,601,344,0,0
-616,680,0,0,0,0,0,0,0,0,0,-1,608,344,0,0
-609,680,0,0,0,0,0,0,0,0,0,-1,615,344,0,0
-602,680,0,0,0,0,0,0,0,0,0,-1,622,344,0,0
-595,680,0,0,0,0,0,0,0,0,0,-1,629,344,0,0
-588,680,0,0,0,0,0,0,0,0,0,-1,636,344,0,0
-581,680,0,0,0,0,0,0,0,0,0,-1,643,344,0,0
-574,680,0,0,0,0,0,0,0,0,0,-1,650,344,0,0
-567,680,0,0,0,0,0,0,0,0,0,-1,657,344,0,0
-560,680,0,0,0,0,0,0,0,0,0,-1,664,344,0,0
-553,680,0,0,0,0,0,0,0,0,0,-1,671,344,0,0
-546,680,0,0,0,0,0,0,0,0,0,-1,678,344,0,0
-539,680,0,0,0,0,0,0,0,0,0,-1,685,344,0,0
-532,680,0,0,0,0,0,0,0,0,0,-1,692,344,0,0
-525,680,0,0,0,0,0,0,0,0,0,-1,699,344,0,0
-518,680,0,0,0,0,0,0,0,0,0,-1,706,344,0,0
-511,680,0,0,0,0,0,0,0,0,0,-1,713,344,0,0
-504,680,0,0,0,0,0,0,0,0,0,-1,720,344,0,0
-497,680,0,0,0,0,0,0,0,0,0,-1,727,344,0,0
-490,680,0,0,0,0,0,0,0,0,0,-1,734,344,0,0
-483,680,0,0,0,0,0,0,0,0,0,-1,741,344,0,0
-476,680,0,0,0,0,0,0,0,0,0,-1,748,344,0,0
-469,680,0,0,0,0,0,0,0,0,0,-1,755,344,0,0
-462,680,0,0,0,0,0,0,0,0,0,-1,762,344,0,0
-455,680,0,0,0,0,0,0,0,0,0,-1,769,344,0,0
-448,680,0,0,0,0,0,0,0,0,0,-1,776,344,0,0
-441,680,0,0,0,0,0,0,0,0,0,-1,783,344,0,0
-434,680,0,0,0,0,0,0,0,0,0,-1,790,344,0,0
-427,680,0,0,0,0,0,0,0,0,0,-1,797,344,0,0
-420,680,0,0,0,0,0,0,0,0,0,-1,804,344,0,0
-413,680,0,0,0,0,0,0,0,0,0,-1,811,344,0,0
-406,680,0,0,0,0,0,0,0,0,0,-1,818,344,0,0
-399,680,0,0,0,0,0,0,0,0,0,-1,825,344,0,0
-392,680,0,0,0,0,0,0,0,0,0,-1,832,344,0,0
-385,680,0,0,0,0,0,0,0,0,0,-1,839,344,0,0
-378,680,0,0,0,0,0,0,0,0,0,-1,846,344,0,0
-371,680,0,0,0,0,0,0,0,0,0,-1,853,344,0,0
-364,680,0,0,0,0,0,0,0,0,0,-1,860,344,0,0
-357,680,0,0,0,0,0,0,0,0,0,-1,867,344,0,0
-350,680,0,0,0,0,0,0,0,0,0,-1,874,344,0,0
-343,680,0,0,0,0,0,0,0,0,0,-1,881,344,0,0
-336,680,0,0,0,0,0,0,0,0,0,-1,888,344,0,0
-329,680,0,0,0,0,0,0,0,0,0,-1,895,344,0,0
-322,680,0,0,0,0,0,0,0,0,0,-1,902,344,0,0
-315,680,0,0,0,0,0,0,0,0,0,-1,909,344,0,0
-308,680,0,0,0,0,0,0,0,0,0,-1,916,344,0,0
-301,680,0,0,0,0,0,0,0,0,0,-1,923,344,0,0
-294,680,0,0,0,0,0,0,0,0,0,-1,930,344,0,0
-287,680,0,0,0,0,0,0,0,0,0,-1,937,344,0,0
-280,680,0,0,0,0,0,0,0,0,0,-1,944,344,0,0
-273,680,0,0,0,0,0,0,0,0,0,-1,951,344,0,0
-266,680,0,0,0,0,0,0,0,0,0,-1,958,344,0,0
-259,680,0,0,0,0,0,0,0,0,0,-1,965,344,0,0
-252,680,0,0,0,0,0,0,0,0,0,-1,972,344,0,0
-245,680,0,0,0,0,0,0,0,0,0,-1,979,344,0,0
-238,680,0,0,0,0,0,0,0,0,0,-1,986,344,0,0
-231,680,0,0,0,0,0,0,0,0,0,-1,993,344,0,0
-224,680,0,0,0,0,0,0,0,0,0,-1,1000,344,0,0
-217,680,0,0,0,0,0,0,0,0,0,-1,1007,344,0,0
-210,680,0,0,0,0,0,0,0,0,0,-1,1014,344,0,0
-203,680,0,0,0,0,0,0,0,0,0,-1,1021,344,0,0
-196,680,0,0,0,0,0,0,0,0,0,-1,1028,344,0,0
-189,680,0,0,0,0,0,0,0,0,0,-1,1035,344,0,0
-182,680,0,0,0,0,0,0,0,0,0,-1,1042,344,0,0
-175,680,0,0,0,0,0,0,0,0,0,-1,1049,344,0,0
-168,680,0,0,0,0,0,0,0,0,0,-1,1056,344,0,0
-161,680,0,0,0,0,0,0,0,0,0,-1,1063,344,0,0
-154,680,2.25244,-29.1442,0,0,0,0,0,0,0,-1,1070,344,2.25241,29.1442
-147,680,9.29614,-33.0369,0,0,0,0,0,0,0,-1,1077,344,9.29612,33.0369
-140,680,6.98022,-36.6899,0,0,0,0,0,0,0,-1,1084,344,6.98023,36.6899
-133,680,1.85693,-39.7233,0,0,0,0,0,0,0,-1,1091,344,1.85699,39.7233
-126,680,2.30017,-38.3751,0,0,0,0,0,0,0,-1,1098,344,2.30011,38.3751
-119,680,2.74329,-37.0269,0,0,0,0,0,0,0,-1,1105,344,2.74323,37.0269
-112,680,7.7467,-32.4407,0,0,0,0,0,0,0,-1,1112,344,7.74668,32.4407
-105,680,20.6371,-48.461,0,0,0,0,0,0,0,-1,1119,344,20.6371,48.461
-98,680,14.2684,-41.9997,0,0,0,0,0,0,0,-1,1126,344,14.2685,41.9997
-91,680,7.89648,-35.5147,0,0,0,0,0,0,0,-1,1133,344,7.8965,35.5147
-84,680,1.47168,-29.471,0,0,0,0,0,0,0,-1,1140,344,1.47163,29.471
-77,680,-4.95337,-23.3355,0,0,0,0,0,0,0,-1,1147,344,-4.9534,23.3356
-70,680,-11.5099,-17.4337,0,0,0,0,0,0,0,-1,1154,344,-11.5098,17.4338
-63,680,-17.2391,-1.43134,0,0,0,0,0,0,0,-1,1161,344,-17.2392,1.43133
-56,680,-6.96912,-8.83356,0,0,0,0,0,0,0,-1,1168,344,-6.96907,8.83354
-49,680,-6.7677,-2.24063,0,0,0,0,0,0,0,-1,1175,344,-6.76772,2.24063
-42,680,-1.02368,0.618805,0,0,0,0,0,0,0,-1,1182,344,-1.0237,-0.618797
-35,680,-0.947876,-0.942719,0,0,0,0,0,0,0,-1,1189,344,-0.947842,0.942731
-28,680,-1.46118,-1.10574,0,0,0,0,0,0,0,-1,1196,344,-1.4612,1.10575
-21,680,9.64307,-65.8181,0,0,0,0,0,0,0,-1,1203,344,9.6431,65.8181
-14,680,9.52393,-67.5822,0,0,0,0,0,0,0,-1,1210,344,9.52397,67.5822
-7,680,9.49146,-68.4215,0,0,0,0,0,0,0,-1,1217,344,9.49147,68.4215
0,680,8.8833,-67.42,0,0,0,0,0,0,0,-1,1224,344,8.88329,67.42
7,680,9.0896,-67.6024,0.0193241,0.0722337,-0.00957789,0.0739142,0.0176437,-1.39711,0.0445745,0.0474925,1231,344,9.08954,67.6024
14,680,9.33301,-68.1692,0.0166472,0.0750194,-0.00870015,0.0762885,0.0153781,-1.42594,0.0465869,0.0454778,1238,344,9.33299,68.1692
21,680,9.5033,-68.5213,0.00936552,0.0781656,-0.00542398,0.0785906,0.00894054,-1.4926,0.0496824,0.0498358,1245,344,9.50328,68.5213
28,680,9.45532,-68.7733,0,0,0,0,0,0,0,-1,1252,344,9.45536,68.7733
35,680,8.7666,-68.6744,0,0,0,0,0,0,0,-1,1259,344,8.76658,68.6744
42,680,8.64111,-68.7999,-0.0166598,0.0764151,0.00118035,0.0764301,-0.0166748,1.55812,0.0573258,0.0486226,1266,344,8.64105,68.7999
49,680,8.54553,-69.283,-0.0256022,0.0743073,0.00370331,0.0744444,-0.0257393,1.5338,0.0600763,0.0448854,1273,344,8.54549,69.283
56,680,8.51685,-69.157,-0.0368313,0.0703456,0.00537645,0.0706147,-0.0371003,1.5208,0.0631847,0.043005,1280,344,8.5168,69.157
63,680,8.54468,-68.8485,-0.0481243,0.065976,0.00704681,0.0664095,-0.0485578,1.50935,0.0666426,0.0411634,1287,344,8.54471,68.8485
70,680,8.41638,-68.4077,-0.0575005,0.0595299,0.0078972,0.0600604,-0.058031,1.50372,0.0681835,0.0419254,1294,344,8.4164,68.4077
77,680,8.29993,-68.2692,-0.0653619,0.0534782,0.0080354,0.0540191,-0.0659028,1.50359,0.0693501,0.0460061,1301,344,8.29987,68.2692
84,680,8.16858,-69.2647,-0.0726075,0.0488759,0.00760515,0.0493502,-0.0730817,1.50852,0.0711273,0.0455067,1308,344,8.16862,69.2647
91,680,7.26062,-69.5071,-0.0788882,0.045154,0.00744484,0.0455993,-0.0793335,1.51106,0.0730012,0.0440613,1315,344,7.2606,69.5071
98,680,6.25232,-69.7357,-0.0846972,0.0416163,0.00762328,0.0420747,-0.0851557,1.51073,0.074847,0.043674,1322,344,6.25234,69.7357
105,680,5.51123,-69.8717,-0.0892555,0.0396668,0.00745729,0.0400967,-0.0896854,1.51321,0.0767313,0.0470777,1329,344,5.51128,69.8717
112,680,4.78528,-70.0564,0,0,0,0,0,0,0,-1,1336,344,4.78523,70.0564
119,680,3.89795,-70.3818,-0.0936563,0.041187,0.00677317,0.0415264,-0.0939957,1.52073,0.0801746,0.0439559,1343,344,3.89796,70.3818
126,680,3.00793,-70.8067,-0.0937094,0.0434118,0.00658303,0.0437271,-0.0940247,1.52293,0.081279,0.0425438,1350,344,3.0079,70.8067
133,680,1.99878,-71.6276,-0.0923572,0.0480379,0.00730832,0.0484173,-0.0927366,1.51893,0.0828234,0.0440419,1357,344,1.99874,71.6276
140,680,1.03503,-72.3852,0,0,0,0,0,0,0,-1,1364,344,1.03504,72.3852
147,680,6.63416,-66.4275,0,0,0,0,0,0,0,-1,1371,344,6.63413,66.4275
154,680,6.36902,-65.8368,0,0,0,0,0,0,0,-1,1378,344,6.36897,65.8368
161,680,5.30676,-60.3476,0,0,0,0,0,0,0,-1,1385,344,5.30681,60.3476
168,680,29.4142,-2.51651,0,0,0,0,0,0,0,-1,1392,344,29.4142,2.51652
175,680,6.66541,0.942078,0,0,0,0,0,0,0,-1,1399,344,6.66538,-0.942088
182,680,6.52917,0.532379,0,0,0,0,0,0,0,-1,1406,344,6.52922,-0.532385
189,680,7.55884,4.77695,0,0,0,0,0,0,0,-1,1413,344,7.55886,-4.77694
196,680,6.55627,3.35254,0,0,0,0,0,0,0,-1,1420,344,6.55622,-3.35255
203,680,5.7334,1.90753,0,0,0,0,0,0,0,-1,1427,344,5.73341,-1.90754
210,680,5.27515,0.493622,0,0,0,0,0,0,0,-1,1434,344,5.27514,-0.493632
217,680,6.56384,-0.374176,0,0,0,0,0,0,0,-1,1441,344,6.56379,0.374176
224,680,3.9491,-0.640228,0,0,0,0,0,0,0,-1,1448,344,3.94908,0.64024
231,680,4.24866,-1.96881,0,0,0,0,0,0,0,-1,1455,344,4.2486,1.96882
238,680,4.29333,-3.23984,0,0,0,0,0,0,0,-1,1462,344,4.29332,3.23984
245,680,2.44397,0.985382,0,0,0,0,0,0,0,-1,1469,344,2.44402,-0.985394
252,680,3.07349,2.18951,0,0,0,0,0,0,0,-1,1476,344,3.0735,-2.18952
259,680,2.82971,1.30682,0,0,0,0,0,0,0,-1,1483,344,2.82972,-1.30684
266,680,2.67554,1.44067,0,0,0,0,0,0,0,-1,1490,344,2.67551,-1.44066
273,680,2.46411,1.54666,0,0,0,0,0,0,0,-1,1497,344,2.46407,-1.54666
280,680,0,0,0,0,0,0,0,0,0,-1,1504,344,0,0
287,680,0,0,0,0,0,0,0,0,0,-1,1511,344,0,0
294,680,0,0,0,0,0,0,0,0,0,-1,1518,344,0,0
301,680,0,0,0,0,0,0,0,0,0,-1,1525,344,0,0
308,680,0,0,0,0,0,0,0,0,0,-1,1532,344,0,0
315,680,0,0,0,0,0,0,0,0,0,-1,1539,344,0,0
322,680,0,0,0,0,0,0,0,0,0,-1,1546,344,0,0
329,680,0,0,0,0,0,0,0,0,0,-1,1553,344,0,0
336,680,0,0,0,0,0,0,0,0,0,-1,1560,344,0,0
343,680,0,0,0,0,0,0,0,0,0,-1,1567,344,0,0
350,680,0,0,0,0,0,0,0,0,0,-1,1574,344,0,0
357,680,0,0,0,0,0,0,0,0,0,-1,1581,344,0,0
364,680,0,0,0,0,0,0,0,0,0,-1,1588,344,0,0
371,680,0,0,0,0,0,0,0,0,0,-1,1595,344,0,0
378,680,0,0,0,0,0,0,0,0,0,-1,1602,344,0,0
385,680,0,0,0,0,0,0,0,0,0,-1,1609,344,0,0
392,680,0,0,0,0,0,0,0,0,0,-1,1616,344,0,0
399,680,0,0,0,0,0,0,0,0,0,-1,1623,344,0,0
406,680,0,0,0,0,0,0,0,0,0,-1,1630,344,0,0
413,680,0,0,0,0,0,0,0,0,0,-1,1637,344,0,0
420,680,0,0,0,0,0,0,0,0,0,-1,1644,344,0,0
427,680,0,0,0,0,0,0,0,0,0,-1,1651,344,0,0
434,680,0,0,0,0,0,0,0,0,0,-1,1658,344,0,0
441,680,0,0,0,0,0,0,0,0,0,-1,1665,344,0,0
448,680,0,0,0,0,0,0,0,0,0,-1,1672,344,0,0
455,680,0,0,0,0,0,0,0,0,0,-1,1679,344,0,0
462,680,0,0,0,0,0,0,0,0,0,-1,1686,344,0,0
469,680,0,0,0,0,0,0,0,0,0,-1,1693,344,0,0
476,680,0,0,0,0,0,0,0,0,0,-1,1700,344,0,0
483,680,0,0,0,0,0,0,0,0,0,-1,1707,344,0,0
490,680,0,0,0,0,0,0,0,0,0,-1,1714,344,0,0
497,680,0,0,0,0,0,0,0,0,0,-1,1721,344,0,0
504,680,0,0,0,0,0,0,0,0,0,-1,1728,344,0,0
511,680,0,0,0,0,0,0,0,0,0,-1,1735,344,0,0
518,680,0,0,0,0,0,0,0,0,0,-1,1742,344,0,0
525,680,0,0,0,0,0,0,0,0,0,-1,1749,344,0,0
532,680,0,0,0,0,0,0,0,0,0,-1,1756,344,0,0
539,680,0,0,0,0,0,0,0,0,0,-1,1763,344,0,0
546,680,0,0,0,0,0,0,0,0,0,-1,1770,344,0,0
553,680,0,0,0,0,0,0,0,0,0,-1,1777,344,0,0
560,680,0,0,0,0,0,0,0,0,0,-1,1784,344,0,0
567,680,0,0,0,0,0,0,0,0,0,-1,1791,344,0,0
574,680,0,0,0,0,0,0,0,0,0,-1,1798,344,0,0
581,680,0,0,0,0,0,0,0,0,0,-1,1805,344,0,0
588,680,0,0,0,0,0,0,0,0,0,-1,1812,344,0,0
595,680,0,0,0,0,0,0,0,0,0,-1,1819,344,0,0
602,680,0,0,0,0,0,0,0,0,0,-1,1826,344,0,0
609,680,0,0,0,0,0,0,0,0,0,-1,1833,344,0,0
616,680,0,0,0,0,0,0,0,0,0,-1,1840,344,0,0
623,680,0,0,0,0,0,0,0,0,0,-1,1847,344,0,0
630,680,0,0,0,0,0,0,0,0,0,-1,1854,344,0,0
637,680,0,0,0,0,0,0,0,0,0,-1,1861,344,0,0
644,680,0,0,0,0,0,0,0,0,0,-1,1868,344,0,0
651,680,0,0,0,0,0,0,0,0,0,-1,1875,344,0,0
658,680,0,0,0,0,0,0,0,0,0,-1,1882,344,0,0
665,680,0,0,0,0,0,0,0,0,0,-1,1889,344,0,0
672,680,0,0,0,0,0,0,0,0,0,-1,1896,344,0,0
679,680,0,0,0,0,0,0,0,0,0,-1,1903,344,0,0
686,680,0,0,0,0,0,0,0,0,0,-1,1910,344,0,0
693,680,0,0,0,0,0,0,0,0,0,-1,1917,344,0,0
700,680,0,0,0,0,0,0,0,0,0,-1,1924,344,0,0
707,680,0,0,0,0,0,0,0,0,0,-1,1931,344,0,0
714,680,0,0,0,0,0,0,0,0,0,-1,1938,344,0,0
721,680,0,0,0,0,0,0,0,0,0,-1,1945,344,0,0
728,680,0,0,0,0,0,0,0,0,0,-1,1952,344,0,0
735,680,0,0,0,0,0,0,0,0,0,-1,1959,344,0,0
742,680,0,0,0,0,0,0,0,0,0,-1,1966,344,0,0
749,680,0,0,0,0,0,0,0,0,0,-1,1973,344,0,0
756,680,0,0,0,0,0,0,0,0,0,-1,1980,344,0,0
763,680,0,0,0,0,0,0,0,0,0,-1,1987,344,0,0
770,680,0,0,0,0,0,0,0,0,0,-1,1994,344,0,0
777,680,0,0,0,0,0,0,0,0,0,-1,2001,344,0,0
784,680,0,0,0,0,0,0,0,0,0,-1,2008,344,0,0
791,680,0,0,0,0,0,0,0,0,0,-1,2015,344,0,0
798,680,0,0,0,0,0,0,0,0,0,-1,2022,344,0,0
805,680,0,0,0,0,0,0,0,0,0,-1,2029,344,0,0
812,680,0,0,0,0,0,0,0,0,0,-1,2036,344,0,0
-700,673,0,0,0,0,0,0,0,0,0,-1,524,351,0,0
-693,673,0,0,0,0,0,0,0,0,0,-1,531,351,0,0
-686,673,0,0,0,0,0,0,0,0,0,-1,538,351,0,0
-679,673,0,0,0,0,0,0,0,0,0,-1,545,351,0,0
-672,673,0,0,0,0,0,0,0,0,0,-1,552,351,0,0
-665,673,0,0,0,0,0,0,0,0,0,-1,559,351,0,0
-658,673,0,0,0,0,0,0,0,0,0,-1,566,351,0,0
-651,673,0,0,0,0,0,0,0,0,0,-1,573,351,0,0
-644,673,0,0,0,0,0,0,0,0,0,-1,580,351,0,0
-637,673,0,0,0,0,0,0,0,0,0,-1,587,351,0,0
-630,673,0,0,0,0,0,0,0,0,0,-1,594,351,0,0
-623,673,0,0,0,0,0,0,0,0,0,-1,601,351,0,0
-616,673,0,0,0,0,0,0,0,0,0,-1,608,351,0,0
-609,673,0,0,0,0,0,0,0,0,0,-1,615,351,0,0
-602,673,0,0,0,0,0,0,0,0,0,-1,622,351,0,0
-595,673,0,0,0,0,0,0,0,0,0,-1,629,351,0,0
-588,673,0,0,0,0,0,0,0,0,0,-1,636,351,0,0
-581,673,0,0,0,0,0,0,0,0,0,-1,643,351,0,0
-574,673,0,0,0,0,0,0,0,0,0,-1,650,351,0,0
-567,673,0,0,0,0,0,0,0,0,0,-1,657,351,0,0
-560,673,0,0,0,0,0,0,0,0,0,-1,664,351,0,0
-553,673,0,0,0,0,0,0,0,0,0,-1,671,351,0,0
-546,673,0,0,0,0,0,0,0,0,0,-1,678,351,0,0
-539,673,0,0,0,0,0,0,0,0,0,-1,685,351,0,0
-532,673,0,0,0,0,0,0,0,0,0,-1,692,351,0,0
-525,673,0,0,0,0,0,0,0,0,0,-1,699,351,0,0
-518,673,0,0,0,0,0,0,0,0,0,-1,706,351,0,0
-511,673,0,0,0,0,0,0,0,0,0,-1,713,351,0,0
-504,673,0,0,0,0,0,0,0,0,0,-1,720,351,0,0
-497,673,0,0,0,0,0,0,0,0,0,-1,727,351,0,0
-490,673,0,0,0,0,0,0,0,0,0,-1,734,351,0,0
-483,673,0,0,0,0,0,0,0,0,0,-1,741,351,0,0
-476,673,0,0,0,0,0,0,0,0,0,-1,748,351,0,0
-469,673,0,0,0,0,0,0,0,0,0,-1,755,351,0,0
-462,673,0,0,0,0,0,0,0,0,0,-1,762,351,0,0
-455,673,0,0,0,0,0,0,0,0,0,-1,769,351,0,0
-448,673,0,0,0,0,0,0,0,0,0,-1,776,351,0,0
-441,673,0,0,0,0,0,0,0,0,0,-1,783,351,0,0
-434,673,0,0,0,0,0,0,0,0,0,-1,790,351,0,0
-427,673,0,0,0,0,0,0,0,0,0,-1,797,351,0,0
-420,673,0,0,0,0,0,0,0,0,0,-1,804,351,0,0
-413,673,0,0,0,0,0,0,0,0,0,-1,811,351,0,0
-406,673,0,0,0,0,0,0,0,0,0,-1,818,351,0,0
-399,673,0,0,0,0,0,0,0,0,0,-1,825,351,0,0
-392,673,0,0,0,0,0,0,0,0,0,-1,832,351,0,0
-385,673,0,0,0,0,0,0,0,0,0,-1,839,351,0,0
-378,673,0,0,0,0,0,0,0,0,0,-1,846,351,0,0
-371,673,0,0,0,0,0,0,0,0,0,-1,853,351,0,0
-364,673,0,0,0,0,0,0,0,0,0,-1,860,351,0,0
-357,673,0,0,0,0,0,0,0,0,0,-1,867,351,0,0
-350,673,0,0,0,0,0,0,0,0,0,-1,874,351,0,0
-343,673,0,0,0,0,0,0,0,0,0,-1,881,351,0,0
-336,673,0,0,0,0,0,0,0,0,0,-1,888,351,0,0
-329,673,0,0,0,0,0,0,0,0,0,-1,895,351,0,0
-322,673,0,0,0,0,0,0,0,0,0,-1,902,351,0,0
-315,673,0,0,0,0,0,0,0,0,0,-1,909,351,0,0
-308,673,0,0,0,0,0,0,0,0,0,-1,916,351,0,0
-301,673,0,0,0,0,0,0,0,0,0,-1,923,351,0,0
-294,673,0,0,0,0,0,0,0,0,0,-1,930,351,0,0
-287,673,0,0,0,0,0,0,0,0,0,-1,937,351,0,0
-280,673,0,0,0,0,0,0,0,0,0,-1,944,351,0,0
-273,673,0,0,0,0,0,0,0,0,0,-1,951,351,0,0
-266,673,0,0,0,0,0,0,0,0,0,-1,958,351,0,0
-259,673,0,0,0,0,0,0,0,0,0,-1,965,351,0,0
-252,673,0,0,0,0,0,0,0,0,0,-1,972,351,0,0
-245,673,0,0,0,0,0,0,0,0,0,-1,979,351,0,0
-238,673,0,0,0,0,0,0,0,0,0,-1,986,351,0,0
-231,673,0,0,0,0,0,0,0,0,0,-1,993,351,0,0
-224,673,0,0,0,0,0,0,0,0,0,-1,1000,351,0,0
-217,673,0,0,0,0,0,0,0,0,0,-1,1007,351,0,0
-210,673,0,0,0,0,0,0,0,0,0,-1,1014,351,0,0
-203,673,0,0,0,0,0,0,0,0,0,-1,1021,351,0,0
-196,673,0,0,0,0,0,0,0,0,0,-1,1028,351,0,0
-189,673,0,0,0,0,0,0,0,0,0,-1,1035,351,0,0
-182,673,0,0,0,0,0,0,0,0,0,-1,1042,351,0,0
-175,673,7.10449,-31.8279,0,0,0,0,0,0,0,-1,1049,351,7.10448,31.8279
-168,673,7.33081,-32.7122,0,0,0,0,0,0,0,-1,1056,351,7.33085,32.7122
-161,673,7.8938,-33.5352,0,0,0,0,0,0,0,-1,1063,351,7.89385,33.5352
-154,673,8.80566,-35.3518,0,0,0,0,0,0,0,-1,1070,351,8.80563,35.3518
-147,673,2.89221,-37.7351,0,0,0,0,0,0,0,-1,1077,351,2.89224,37.7351
-140,673,3.35046,-37.7151,0,0,0,0,0,0,0,-1,1084,351,3.35046,37.715
-133,673,3.35339,-39.0288,0,0,0,0,0,0,0,-1,1091,351,3.35342,39.0288
-126,673,3.7533,-38.0453,0,0,0,0,0,0,0,-1,1098,351,3.7533,38.0453
-119,673,4.1532,-37.0618,0,0,0,0,0,0,0,-1,1105,351,4.15318,37.0618
-112,673,7.27234,-32.5801,0,0,0,0,0,0,0,-1,1112,351,7.27231,32.5801
-105,673,21.1144,-43.3143,0,0,0,0,0,0,0,-1,1119,351,21.1143,43.3143
-98,673,14.8014,-36.7519,0,0,0,0,0,0,0,-1,1126,351,14.8014,36.7519
-91,673,8.54944,-29.9639,0,0,0,0,0,0,0,-1,1133,351,8.54949,29.9639
-84,673,2.17102,-24.3204,0,0,0,0,0,0,0,-1,1140,351,2.17107,24.3204
-77,673,-4.25378,-18.8346,0,0,0,0,0,0,0,-1,1147,351,-4.25381,18.8346
-70,673,-10.7933,-13.6681,0,0,0,0,0,0,0,-1,1154,351,-10.7934,13.6681
-63,673,-17.3896,-8.24469,0,0,0,0,0,0,0,-1,1161,351,-17.3896,8.2447
-56,673,-18.0282,2.79053,0,0,0,0,0,0,0,-1,1168,351,-18.0283,-2.79052
-49,673,-0.926758,-0.115448,0,0,0,0,0,0,0,-1,1175,351,-0.926732,0.115444
-42,673,-1.15015,0.289917,0,0,0,0,0,0,0,-1,1182,351,-1.15017,-0.289932
-35,673,-0.919556,-1.00711,0,0,0,0,0,0,0,-1,1189,351,-0.919514,1.00711
-28,673,5.28918,-39.2331,0,0,0,0,0,0,0,-1,1196,351,5.28924,39.2331
-21,673,9.45081,-67.5989,0,0,0,0,0,0,0,-1,1203,351,9.45077,67.5989
-14,673,9.44446,-68.0047,0.0113535,0.0499084,-0.00884976,0.0518427,0.00941916,-1.35561,0.0318892,0.0470097,1210,351,9.44443,68.0047
-7,673,9.42505,-68.6143,0.0115022,0.0527708,-0.00864451,0.0545084,0.00976462,-1.37243,0.0335609,0.0470958,1217,351,9.42509,68.6143
0,673,9.51624,-68.7108,0,0,0,0,0,0,0,-1,1224,351,9.51625,68.7108
7,673,9.31055,-68.7454,0,0,0,0,0,0,0,-1,1231,351,9.31051,68.7454
14,673,9.23022,-68.8737,0,0,0,0,0,0,0,-1,1238,351,9.2302,68.8737
21,673,9.23499,-69.1041,0.00393915,0.0630149,-0.00473146,0.0633914,0.0035626,-1.49138,0.0411249,0.0359332,1245,351,9.23499,69.104
28,673,9.17871,-69.2896,-0.00232376,0.0632778,-0.00304474,0.0634189,-0.00246477,-1.52452,0.0431243,0.0349698,1252,351,9.17873,69.2896
35,673,9.04749,-69.3257,0,0,0,0,0,0,0,-1,1259,351,9.04752,69.3258
42,673,8.70557,-69.4128,-0.013023,0.0629523,-0.00036556,0.0629541,-0.0130248,-1.56598,0.0469176,0.0452005,1266,351,8.70558,69.4128
49,673,8.54565,-69.5792,-0.019375,0.0615472,0.00143525,0.0615727,-0.0194004,1.55307,0.0488176,0.0277863,1273,351,8.5456,69.5792
56,673,8.49609,-69.6148,-0.0275503,0.0585358,0.00266162,0.058618,-0.0276326,1.53992,0.0508566,0.0205023,1280,351,8.49611,69.6148
63,673,8.50269,-69.3575,-0.0358545,0.0551763,0.00396025,0.0553483,-0.0360265,1.5274,0.0531469,0.0246214,1287,351,8.50268,69.3575
70,673,8.43799,-69.2758,-0.0433028,0.050046,0.00477382,0.0502895,-0.0435463,1.51983,0.0542227,0.0381434,1294,351,8.43796,69.2758
77,673,8.32068,-68.7981,-0.0499232,0.0451651,0.00506491,0.0454342,-0.0501922,1.51773,0.0552327,0.0418852,1301,351,8.32065,68.7981
84,673,8.27295,-69.5693,-0.0561267,0.0414883,0.00486352,0.04173,-0.0563684,1.52114,0.056847,0.0474564,1308,351,8.27295,69.5693
91,673,7.74866,-69.9506,0,0,0,0,0,0,0,-1,1315,351,7.74865,69.9506
98,673,7.78748,-69.6402,0,0,0,0,0,0,0,-1,1322,351,7.7875,69.6402
105,673,7.46973,-69.3409,0,0,0,0,0,0,0,-1,1329,351,7.46967,69.3409
112,673,3.90735,-69.3512,0,0,0,0,0,0,0,-1,1336,351,3.90739,69.3512
119,673,3.45374,-69.4532,0,0,0,0,0,0,0,-1,1343,351,3.45372,69.4531
126,673,2.80505,-69.9292,0,0,0,0,0,0,0,-1,1350,351,2.80501,69.9292
133,673,1.85193,-70.8762,0,0,0,0,0,0,0,-1,1357,351,1.85192,70.8762
140,673,6.79346,-67.9153,0,0,0,0,0,0,0,-1,1364,351,6.79345,67.9153
147,673,6.84229,-67.2736,-0.0672971,0.0492354,0.00784537,0.0497612,-0.0678229,1.50388,0.0681536,0.04854,1371,351,6.84223,67.2736
154,673,6.64294,-66.6603,-0.0638542,0.0530022,0.0089791,0.0536882,-0.0645401,1.49455,0.0683549,0.0473585,1378,351,6.64298,66.6603
161,673,6.69299,-66.3422,0,0,0,0,0,0,0,-1,1385,351,6.69293,66.3422
168,673,6.87061,1.83954,0,0,0,0,0,0,0,-1,1392,351,6.87063,-1.83953
175,673,6.6228,1.1459,0,0,0,0,0,0,0,-1,1399,351,6.62276,-1.14591
182,673,6.37244,0.796112,0,0,0,0,0,0,0,-1,1406,351,6.3724,-0.796102
189,673,6.12097,0.265472,0,0,0,0,0,0,0,-1,1413,351,6.121,-0.265482
196,673,6.02173,3.12717,0,0,0,0,0,0,0,-1,1420,351,6.02176,-3.12717
203,673,5.04456,1.6351,0,0,0,0,0,0,0,-1,1427,351,5.04455,-1.63509
210,673,4.79224,0.447479,0,0,0,0,0,0,0,-1,1434,351,4.79229,-0.447469
217,673,2.01648,0.972687,0,0,0,0,0,0,0,-1,1441,351,2.01644,-0.972691
224,673,2.3689,-1.80539,0,0,0,0,0,0,0,-1,1448,351,2.36896,1.80539
231,673,2.65857,-2.18497,0,0,0,0,0,0,0,-1,1455,351,2.65852,2.18496
238,673,3.77844,-2.06088,0,0,0,0,0,0,0,-1,1462,351,3.77839,2.06088
245,673,3.5376,-0.190399,0,0,0,0,0,0,0,-1,1469,351,3.53759,0.1904
252,673,3.80518,0.55603,0,0,0,0,0,0,0,-1,1476,351,3.80519,-0.556022
259,673,3.88562,1.29617,0,0,0,0,0,0,0,-1,1483,351,3.88562,-1.29618
266,673,4.22424,2.04834,0,0,0,0,0,0,0,-1,1490,351,4.22429,-2.04834
273,673,6.07886,0.385895,0,0,0,0,0,0,0,-1,1497,351,6.0789,-0.385906
280,673,6.97534,-0.0820007,0,0,0,0,0,0,0,-1,1504,351,6.97536,0.0820122
287,673,7.66968,-0.348541,0,0,0,0,0,0,0,-1,1511,351,7.66969,0.348534
294,673,8.20996,0.28537,0,0,0,0,0,0,0,-1,1518,351,8.20993,-0.28536
301,673,0,0,0,0,0,0,0,0,0,-1,1525,351,0,0
308,673,0,0,0,0,0,0,0,0,0,-1,1532,351,0,0
315,673,0,0,0,0,0,0,0,0,0,-1,1539,351,0,0
322,673,0,0,0,0,0,0,0,0,0,-1,1546,351,0,0
329,673,0,0,0,0,0,0,0,0,0,-1,1553,351,0,0
336,673,0,0,0,0,0,0,0,0,0,-1,1560,351,0,0
343,673,0,0,0,0,0,0,0,0,0,-1,1567,351,0,0
350,673,0,0,0,0,0,0,0,0,0,-1,1574,351,0,0
357,673,0,0,0,0,0,0,0,0,0,-1,1581,351,0,0
364,673,0,0,0,0,0,0,0,0,0,-1,1588,351,0,0
371,673,0,0,0,0,0,0,0,0,0,-1,1595,351,0,0
378,673,0,0,0,0,0,0,0,0,0,-1,1602,351,0,0
385,673,0,0,0,0,0,0,0,0,0,-1,1609,351,0,0
392,673,0,0,0,0,0,0,0,0,0,-1,1616,351,0,0
399,673,0,0,0,0,0,0,0,0,0,-1,1623,351,0,0
406,673,0,0,0,0,0,0,0,0,0,-1,1630,351,0,0
413,673,0,0,0,0,0,0,0,0,0,-1,1637,351,0,0
420,673,0,0,0,0,0,0,0,0,0,-1,1644,351,0,0
427,673,0,0,0,0,0,0,0,0,0,-1,1651,351,0,0
434,673,0,0,0,0,0,0,0,0,0,-1,1658,351,0,0
441,673,0,0,0,0,0,0,0,0,0,-1,1665,351,0,0
448,673,0,0,0,0,0,0,0,0,0,-1,1672,351,0,0
455,673,0,0,0,0,0,0,0,0,0,-1,1679,351,0,0
462,673,0,0,0,0,0,0,0,0,0,-1,1686,351,0,0
469,673,0,0,0,0,0,0,0,0,0,-1,1693,351,0,0
476,673,0,0,0,0,0,0,0,0,0,-1,1700,351,0,0
483,673,0,0,0,0,0,0,0,0,0,-1,1707,351,0,0
490,673,0,0,0,0,0,0,0,0,0,-1,1714,351,0,0
497,673,0,0,0,0,0,0,0,0,0,-1,1721,351,0,0
504,673,0,0,0,0,0,0,0,0,0,-1,1728,351,0,0
511,673,0,0,0,0,0,0,0,0,0,-1,1735,351,0,0
518,673,0,0,0,0,0,0,0,0,0,-1,1742,351,0,0
525,673,0,0,0,0,0,0,0,0,0,-1,1749,351,0,0
532,673,0,0,0,0,0,0,0,0,0,-1,1756,351,0,0
539,673,0,0,0,0,0,0,0,0,0,-1,1763,351,0,0
546,673,0,0,0,0,0,0,0,0,0,-1,1770,351,0,0
553,673,0,0,0,0,0,0,0,0,0,-1,1777,351,0,0
560,673,0,0,0,0,0,0,0,0,0,-1,1784,351,0,0
567,673,0,0,0,0,0,0,0,0,0,-1,1791,351,0,0
574,673,0,0,0,0,0,0,0,0,0,-1,1798,351,0,0
581,673,0,0,0,0,0,0,0,0,0,-1,1805,351,0,0
588,673,0,0,0,0,0,0,0,0,0,-1,1812,351,0,0
595,673,0,0,0,0,0,0,0,0,0,-1,1819,351,0,0
602,673,0,0,0,0,0,0,0,0,0,-1,1826,351,0,0
609,673,0,0,0,0,0,0,0,0,0,-1,1833,351,0,0
616,673,0,0,0,0,0,0,0,0,0,-1,1840,351,0,0
623,673,0,0,0,0,0,0,0,0,0,-1,1847,351,0,0
630,673,0,0,0,0,0,0,0,0,0,-1,1854,351,0,0
637,673,0,0,0,0,0,0,0,0,0,-1,1861,351,0,0
644,673,0,0,0,0,0,0,0,0,0,-1,1868,351,0,0
651,673,0,0,0,0,0,0,0,0,0,-1,1875,351,0,0
658,673,0,0,0,0,0,0,0,0,0,-1,1882,351,0,0
665,673,0,0,0,0,0,0,0,0,0,-1,1889,351,0,0
672,673,0,0,0,0,0,0,0,0,0,-1,1896,351,0,0
679,673,0,0,0,0,0,0,0,0,0,-1,1903,351,0,0
686,673,0,0,0,0,0,0,0,0,0,-1,1910,351,0,0
693,673,0,0,0,0,0,0,0,0,0,-1,1917,351,0,0
700,673,0,0,0,0,0,0,0,0,0,-1,1924,351,0,0
707,673,0,0,0,0,0,0,0,0,0,-1,1931,351,0,0
714,673,0,0,0,0,0,0,0,0,0,-1,1938,351,0,0
721,673,0,0,0,0,0,0,0,0,0,-1,1945,351,0,0
728,673,0,0,0,0,0,0,0,0,0,-1,1952,351,0,0
735,673,0,0,0,0,0,0,0,0,0,-1,1959,351,0,0
742,673,0,0,0,0,0,0,0,0,0,-1,1966,351,0,0
749,673,0,0,0,0,0,0,0,0,0,-1,1973,351,0,0
756,673,0,0,0,0,0,0,0,0,0,-1,1980,351,0,0
763,673,0,0,0,0,0,0,0,0,0,-1,1987,351,0,0
770,673,0,0,0,0,0,0,0,0,0,-1,1994,351,0,0
777,673,0,0,0,0,0,0,0,0,0,-1,2001,351,0,0
784,673,0,0,0,0,0,0,0,0,0,-1,2008,351,0,0
791,673,0,0,0,0,0,0,0,0,0,-1,2015,351,0,0
798,673,0,0,0,0,0,0,0,0,0,-1,2022,351,0,0
805,673,0,0,0,0,0,0,0,0,0,-1,2029,351,0,0
812,673,0,0,0,0,0,0,0,0,0,-1,2036,351,0,0
-700,666,0,0,0,0,0,0,0,0,0,-1,524,358,0,0
-693,666,0,0,0,0,0,0,0,0,0,-1,531,358,0,0
-686,666,0,0,0,0,0,0,0,0,0,-1,538,358,0,0
-679,666,0,0,0,0,0,0,0,0,0,-1,545,358,0,0
-672,666,0,0,0,0,0,0,0,0,0,-1,552,358,0,0
-665,666,0,0,0,0,0,0,0,0,0,-1,559,358,0,0
-658,666,0,0,0,0,0,0,0,0,0,-1,566,358,0,0
-651,666,0,0,0,0,0,0,0,0,0,-1,573,358,0,0
-644,666,0,0,0,0,0,0,0,0,0,-1,580,358,0,0
-637,666,0,0,0,0,0,0,0,0,0,-1,587,358,0,0
-630,666,0,0,0,0,0,0,0,0,0,-1,594,358,0,0
-623,666,0,0,0,0,0,0,0,0,0,-1,601,358,0,0
-616,666,0,0,0,0,0,0,0,0,0,-1,608,358,0,0
-609,666,0,0,0,0,0,0,0,0,0,-1,615,358,0,0
-602,666,0,0,0,0,0,0,0,0,0,-1,622,358,0,0
-595,666,0,0,0,0,0,0,0,0,0,-1,629,358,0,0
-588,666,0,0,0,0,0,0,0,0,0,-1,636,358,0,0
-581,666,0,0,0,0,0,0,0,0,0,-1,643,358,0,0
-574,666,0,0,0,0,0,0,0,0,0,-1,650,358,0,0
-567,666,0,0,0,0,0,0,0,0,0,-1,657,358,0,0
-560,666,0,0,0,0,0,0,0,0,0,-1,664,358,0,0
-553,666,0,0,0,0,0,0,0,0,0,-1,671,358,0,0
-546,666,0,0,0,0,0,0,0,0,0,-1,678,358,0,0
-539,666,0,0,0,0,0,0,0,0,0,-1,685,358,0,0
-532,666,0,0,0,0,0,0,0,0,0,-1,692,358,0,0
-525,666,0,0,0,0,0,0,0,0,0,-1,699,358,0,0
-518,666,0,0,0,0,0,0,0,0,0,-1,706,358,0,0
-511,666,0,0,0,0,0,0,0,0,0,-1,713,358,0,0
-504,666,0,0,0,0,0,0,0,0,0,-1,720,358,0,0
-497,666,0,0,0,0,0,0,0,0,0,-1,727,358,0,0
-490,666,0,0,0,0,0,0,0,0,0,-1,734,358,0,0
-483,666,0,0,0,0,0,0,0,0,0,-1,741,358,0,0
-476,666,0,0,0,0,0,0,0,0,0,-1,748,358,0,0
-469,666,0,0,0,0,0,0,0,0,0,-1,755,358,0,0
-462,666,0,0,0,0,0,0,0,0,0,-1,762,358,0,0
-455,666,0,0,0,0,0,0,0,0,0,-1,769,358,0,0
-448,666,0,0,0,0,0,0,0,0,0,-1,776,358,0,0
-441,666,0,0,0,0,0,0,0,0,0,-1,783,358,0,0
-434,666,0,0,0,0,0,0,0,0,0,-1,790,358,0,0
-427,666,0,0,0,0,0,0,0,0,0,-1,797,358,0,0
-420,666,0,0,0,0,0,0,0,0,0,-1,804,358,0,0
-413,666,0,0,0,0,0,0,0,0,0,-1,811,358,0,0
-406,666,0,0,0,0,0,0,0,0,0,-1,818,358,0,0
-399,666,0,0,0,0,0,0,0,0,0,-1,825,358,0,0
-392,666,0,0,0,0,0,0,0,0,0,-1,832,358,0,0
-385,666,0,0,0,0,0,0,0,0,0,-1,839,358,0,0
-378,666,0,0,0,0,0,0,0,0,0,-1,846,358,0,0
-371,666,0,0,0,0,0,0,0,0,0,-1,853,358,0,0
-364,666,0,0,0,0,0,0,0,0,0,-1,860,358,0,0
-357,666,0,0,0,0,0,0,0,0,0,-1,867,358,0,0
-350,666,0,0,0,0,0,0,0,0,0,-1,874,358,0,0
-343,666,0,0,0,0,0,0,0,0,0,-1,881,358,0,0
-336,666,0,0,0,0,0,0,0,0,0,-1,888,358,0,0
-329,666,0,0,0,0,0,0,0,0,0,-1,895,358,0,0
-322,666,0,0,0,0,0,0,0,0,0,-1,902,358,0,0
-315,666,0,0,0,0,0,0,0,0,0,-1,909,358,0,0
-308,666,0,0,0,0,0,0,0,0,0,-1,916,358,0,0
-301,666,0,0,0,0,0,0,0,0,0,-1,923,358,0,0
-294,666,0,0,0,0,0,0,0,0,0,-1,930,358,0,0
-287,666,0,0,0,0,0,0,0,0,0,-1,937,358,0,0
-280,666,0,0,0,0,0,0,0,0,0,-1,944,358,0,0
-273,666,0,0,0,0,0,0,0,0,0,-1,951,358,0,0
-266,666,0,0,0,0,0,0,0,0,0,-1,958,358,0,0
-259,666,0,0,0,0,0,0,0,0,0,-1,965,358,0,0
-252,666,0,0,0,0,0,0,0,0,0,-1,972,358,0,0
-245,666,0,0,0,0,0,0,0,0,0,-1,979,358,0,0
-238,666,0,0,0,0,0,0,0,0,0,-1,986,358,0,0
-231,666,0,0,0,0,0,0,0,0,0,-1,993,358,0,0
-224,666,0,0,0,0,0,0,0,0,0,-1,1000,358,0,0
-217,666,0,0,0,0,0,0,0,0,0,-1,1007,358,0,0
-210,666,0,0,0,0,0,0,0,0,0,-1,1014,358,0,0
-203,666,0,0,0,0,0,0,0,0,0,-1,1021,358,0,0
-196,666,4.03418,-28.8724,0,0,0,0,0,0,0,-1,1028,358,4.03422,28.8724
-189,666,5.00366,-29.597,0,0,0,0,0,0,0,-1,1035,358,5.00363,29.597
-182,666,6.83252,-30.9843,0,0,0,0,0,0,0,-1,1042,358,6.83247,30.9844
-175,666,7.01611,-31.8763,0,0,0,0,0,0,0,-1,1049,358,7.01617,31.8762
-168,666,7.21545,-32.7414,0,0,0,0,0,0,0,-1,1056,358,7.2154,32.7414
-161,666,7.69116,-33.6269,0,0,0,0,0,0,0,-1,1063,358,7.69121,33.6269
-154,666,3.79041,-37.9204,0,0,0,0,0,0,0,-1,1070,358,3.79034,37.9204
-147,666,4.17908,-37.7466,0,0,0,0,0,0,0,-1,1077,358,4.17912,37.7466
-140,666,4.54309,-37.735,0,0,0,0,0,0,0,-1,1084,358,4.54304,37.735
-133,666,4.65723,-39.0643,0,0,0,0,0,0,0,-1,1091,358,4.65727,39.0643
-126,666,5.02368,-38.0699,0,0,0,0,0,0,0,-1,1098,358,5.02363,38.0698
-119,666,5.39001,-37.0754,0,0,0,0,0,0,0,-1,1105,358,5.38999,37.0754
-112,666,6.77014,-32.8165,0,0,0,0,0,0,0,-1,1112,358,6.77013,32.8165
-105,666,6.30908,-29.0855,0,0,0,0,0,0,0,-1,1119,358,6.30905,29.0855
-98,666,15.4427,-31.5168,0,0,0,0,0,0,0,-1,1126,358,15.4428,31.5168
-91,666,9.5127,-25.1347,0,0,0,0,0,0,0,-1,1133,358,9.51269,25.1347
-84,666,2.91589,-19.4071,0,0,0,0,0,0,0,-1,1140,358,2.91592,19.4071
-77,666,-3.48083,-14.0782,0,0,0,0,0,0,0,-1,1147,358,-3.48081,14.0782
-70,666,-9.99438,-8.90146,0,0,0,0,0,0,0,-1,1154,358,-9.99433,8.90146
-63,666,-11.7778,-0.975189,0,0,0,0,0,0,0,-1,1161,358,-11.7778,0.97519
-56,666,0.424683,-2.04132,0,0,0,0,0,0,0,-1,1168,358,0.424665,2.04132
-49,666,0.754395,-2.23169,0,0,0,0,0,0,0,-1,1175,358,0.754383,2.23169
-42,666,1.34473,-3.53897,0,0,0,0,0,0,0,-1,1182,358,1.34476,3.53896
-35,666,9.66675,-67.7905,0,0,0,0,0,0,0,-1,1189,358,9.66675,67.7905
-28,666,9.79944,-67.9167,0,0,0,0,0,0,0,-1,1196,358,9.79947,67.9168
-21,666,9.70813,-68.0682,0.00286118,0.0369731,-0.00720629,0.038433,0.00140129,-1.37092,0.0251679,0.0468362,1203,358,9.70819,68.0682
-14,666,9.46338,-68.4056,0.00412425,0.0389725,-0.00685432,0.0402722,0.00282454,-1.3834,0.0259579,0.0429378,1210,358,9.46343,68.4056
-7,666,9.35413,-68.7049,0.00454441,0.0413831,-0.00673509,0.0425758,0.00335167,-1.39552,0.0273352,0.0255684,1217,358,9.35418,68.7049
0,666,9.31763,-69.0215,0.00447397,0.0437809,-0.00648282,0.0448225,0.00343238,-1.41149,0.0288058,0.017509,1224,358,9.31765,69.0215
7,666,9.19482,-69.1524,0.00408953,0.0457468,-0.00599808,0.0465932,0.00324308,-1.4306,0.0300395,0.0246446,1231,358,9.19485,69.1524
14,666,9.09302,-69.2706,0.00316288,0.0474061,-0.00531809,0.0480364,0.00253262,-1.45283,0.0312143,0.023112,1238,358,9.09308,69.2706
21,666,8.99341,-69.5806,0.000627268,0.0495371,-0.00384627,0.0498377,0.000326646,-1.4928,0.0331168,0.0174754,1245,358,8.99335,69.5806
28,666,8.91931,-69.8013,-0.00311693,0.0502606,-0.00275839,0.0504028,-0.0032591,-1.5193,0.0347392,0.0242387,1252,358,8.91929,69.8013
35,666,8.87158,-69.8015,-0.00598168,0.0507832,-0.00227614,0.0508743,-0.00607281,-1.53078,0.0361111,0.0224306,1259,358,8.87163,69.8015
42,666,8.72168,-69.9166,-0.0100038,0.0503897,-0.000976154,0.0504055,-0.0100195,-1.55464,0.0373937,0.0191264,1266,358,8.72174,69.9166
49,666,8.58606,-70.0167,-0.0143651,0.0495202,0.000282789,0.0495215,-0.0143663,1.56637,0.0387023,0.0190257,1273,358,8.58609,70.0167
56,666,8.53357,-70.0692,-0.0200835,0.0473621,0.00115119,0.0473817,-0.0201031,1.55373,0.0400093,0.0194848,1280,358,8.53363,70.0692
63,666,8.40613,-70.2386,0,0,0,0,0,0,0,-1,1287,358,8.40612,70.2387
70,666,8.27893,-70.3154,0,0,0,0,0,0,0,-1,1294,358,8.27895,70.3154
77,666,8.34094,-69.9485,-0.0367996,0.037269,0.00314072,0.0374019,-0.0369325,1.52849,0.0429173,0.0226548,1301,358,8.34098,69.9485
84,666,8.31641,-69.9745,-0.0418525,0.0344293,0.00306624,0.0345523,-0.0419755,1.53069,0.0442526,0.0309208,1308,358,8.31636,69.9745
91,666,8.11963,-70.0152,-0.0462062,0.0320333,0.00322818,0.0321663,-0.0463392,1.52963,0.0455707,0.0281167,1315,358,8.11962,70.0152
98,666,7.88477,-69.8669,-0.050069,0.0299197,0.00368983,0.0300896,-0.0502388,1.5248,0.0468614,0.0243872,1322,358,7.88474,69.8669
105,666,7.73022,-69.6422,-0.0530877,0.0289572,0.00393416,0.0291454,-0.053276,1.52299,0.048261,0.0313282,1329,358,7.73019,69.6422
112,666,7.68201,-69.442,0,0,0,0,0,0,0,-1,1336,358,7.682,69.442
119,666,7.56567,-69.2393,0,0,0,0,0,0,0,-1,1343,358,7.5657,69.2393
126,666,7.43689,-68.9309,0,0,0,0,0,0,0,-1,1350,358,7.43687,68.931
133,666,7.31458,-68.7224,0,0,0,0,0,0,0,-1,1357,358,7.31456,68.7224
140,666,7.15308,-68.3449,-0.053434,0.0369142,0.0055757,0.037257,-0.0537768,1.50939,0.0528461,0.0446131,1364,358,7.15312,68.3449
147,666,6.98218,-68.019,-0.0506735,0.0401837,0.00620406,0.0406054,-0.0510952,1.50293,0.0530587,0.0333457,1371,358,6.98221,68.019
154,666,6.93542,-67.4363,-0.0476554,0.0430111,0.00695976,0.0435422,-0.0481865,1.49463,0.0529822,0.0304924,1378,358,6.93546,67.4363
161,666,6.92017,-66.9964,-0.0442262,0.045605,0.00795587,0.0463042,-0.0449254,1.48314,0.0526734,0.0387512,1385,358,6.92019,66.9964
168,666,6.85168,-66.5367,0,0,0,0,0,0,0,-1,1392,358,6.85172,66.5367
175,666,6.8855,-66.6631,0,0,0,0,0,0,0,-1,1399,358,6.88554,66.6631
182,666,2.60876,-5.17068,0,0,0,0,0,0,0,-1,1406,358,2.6088,5.17068
189,666,2.46973,-5.49979,0,0,0,0,0,0,0,-1,1413,358,2.46975,5.49979
196,666,2.32458,-5.23651,0,0,0,0,0,0,0,-1,1420,358,2.32461,5.23653
203,666,2.28064,-3.88004,0,0,0,0,0,0,0,-1,1427,358,2.28059,3.88003
210,666,3.02576,-5.83548,0,0,0,0,0,0,0,-1,1434,358,3.02581,5.83547
217,666,2.30444,-5.36011,0,0,0,0,0,0,0,-1,1441,358,2.30447,5.3601
224,666,1.82324,-6.03101,0,0,0,0,0,0,0,-1,1448,358,1.82322,6.031
231,666,2.29797,-10.1093,0,0,0,0,0,0,0,-1,1455,358,2.29801,10.1093
238,666,2.52429,-6.10568,0,0,0,0,0,0,0,-1,1462,358,2.52423,6.10567
245,666,4.53345,-1.38205,0,0,0,0,0,0,0,-1,1469,358,4.53349,1.38204
252,666,4.77405,-0.246979,0,0,0,0,0,0,0,-1,1476,358,4.77405,0.246993
259,666,4.83655,1.14087,0,0,0,0,0,0,0,-1,1483,358,4.83652,-1.14087
266,666,6.14148,0.749512,0,0,0,0,0,0,0,-1,1490,358,6.14144,-0.749519
273,666,3.17737,-33.7881,0,0,0,0,0,0,0,-1,1497,358,3.17735,33.7881
280,666,3.37268,-35.2123,0,0,0,0,0,0,0,-1,1504,358,3.37266,35.2123
287,666,-7.06934,-20.3464,0,0,0,0,0,0,0,-1,1511,358,-7.06933,20.3464
294,666,-2.11157,-23.2753,0,0,0,0,0,0,0,-1,1518,358,-2.11162,23.2753
301,666,-3.16162,-22.2271,0,0,0,0,0,0,0,-1,1525,358,-3.16161,22.2271
308,666,-4.24951,-20.9112,0,0,0,0,0,0,0,-1,1532,358,-4.24948,20.9112
315,666,-5.64954,-19.5784,0,0,0,0,0,0,0,-1,1539,358,-5.64959,19.5784
322,666,0,0,0,0,0,0,0,0,0,-1,1546,358,0,0
329,666,0,0,0,0,0,0,0,0,0,-1,1553,358,0,0
336,666,0,0,0,0,0,0,0,0,0,-1,1560,358,0,0
343,666,0,0,0,0,0,0,0,0,0,-1,1567,358,0,0
350,666,0,0,0,0,0,0,0,0,0,-1,1574,358,0,0
357,666,0,0,0,0,0,0,0,0,0,-1,1581,358,0,0
364,666,0,0,0,0,0,0,0,0,0,-1,1588,358,0,0
371,666,0,0,0,0,0,0,0,0,0,-1,1595,358,0,0
378,666,0,0,0,0,0,0,0,0,0,-1,1602,358,0,0
385,666,0,0,0,0,0,0,0,0,0,-1,1609,358,0,0
392,666,0,0,0,0,0,0,0,0,0,-1,1616,358,0,0
399,666,0,0,0,0,0,0,0,0,0,-1,1623,358,0,0
406,666,0,0,0,0,0,0,0,0,0,-1,1630,358,0,0
413,666,0,0,0,0,0,0,0,0,0,-1,1637,358,0,0
420,666,0,0,0,0,0,0,0,0,0,-1,1644,358,0,0
427,666,0,0,0,0,0,0,0,0,0,-1,1651,358,0,0
434,666,0,0,0,0,0,0,0,0,0,-1,1658,358,0,0
441,666,0,0,0,0,0,0,0,0,0,-1,1665,358,0,0
448,666,0,0,0,0,0,0,0,0,0,-1,1672,358,0,0
455,666,0,0,0,0,0,0,0,0,0,-1,1679,358,0,0
462,666,0,0,0,0,0,0,0,0,0,-1,1686,358,0,0
469,666,0,0,0,0,0,0,0,0,0,-1,1693,358,0,0
476,666,0,0,0,0,0,0,0,0,0,-1,1700,358,0,0
483,666,0,0,0,0,0,0,0,0,0,-1,1707,358,0,0
490,666,0,0,0,0,0,0,0,0,0,-1,1714,358,0,0
497,666,0,0,0,0,0,0,0,0,0,-1,1721,358,0,0
504,666,0,0,0,0,0,0,0,0,0,-1,1728,358,0,0
511,666,0,0,0,0,0,0,0,0,0,-1,1735,358,0,0
518,666,0,0,0,0,0,0,0,0,0,-1,1742,358,0,0
525,666,0,0,0,0,0,0,0,0,0,-1,1749,358,0,0
532,666,0,0,0,0,0,0,0,0,0,-1,1756,358,0,0
539,666,0,0,0,0,0,0,0,0,0,-1,1763,358,0,0
546,666,0,0,0,0,0,0,0,0,0,-1,1770,358,0,0
553,666,0,0,0,0,0,0,0,0,0,-1,1777,358,0,0
560,666,0,0,0,0,0,0,0,0,0,-1,1784,358,0,0
567,666,0,0,0,0,0,0,0,0,0,-1,1791,358,0,0
574,666,0,0,0,0,0,0,0,0,0,-1,1798,358,0,0
581,666,0,0,0,0,0,0,0,0,0,-1,1805,358,0,0
588,666,0,0,0,0,0,0,0,0,0,-1,1812,358,0,0
595,666,0,0,0,0,0,0,0,0,0,-1,1819,358,0,0
602,666,0,0,0,0,0,0,0,0,0,-1,1826,358,0,0
609,666,0,0,0,0,0,0,0,0,0,-1,1833,358,0,0
616,666,0,0,0,0,0,0,0,0,0,-1,1840,358,0,0
623,666,0,0,0,0,0,0,0,0,0,-1,1847,358,0,0
630,666,0,0,0,0,0,0,0,0,0,-1,1854,358,0,0
637,666,0,0,0,0,0,0,0,0,0,-1,1861,358,0,0
644,666,0,0,0,0,0,0,0,0,0,-1,1868,358,0,0
651,666,0,0,0,0,0,0,0,0,0,-1,1875,358,0,0
658,666,0,0,0,0,0,0,0,0,0,-1,1882,358,0,0
665,666,0,0,0,0,0,0,0,0,0,-1,1889,358,0,0
672,666,0,0,0,0,0,0,0,0,0,-1,1896,358,0,0
679,666,0,0,0,0,0,0,0,0,0,-1,1903,358,0,0
686,666,0,0,0,0,0,0,0,0,0,-1,1910,358,0,0
693,666,0,0,0,0,0,0,0,0,0,-1,1917,358,0,0
700,666,0,0,0,0,0,0,0,0,0,-1,1924,358,0,0
707,666,0,0,0,0,0,0,0,0,0,-1,1931,358,0,0
714,666,0,0,0,0,0,0,0,0,0,-1,1938,358,0,0
721,666,0,0,0,0,0,0,0,0,0,-1,1945,358,0,0
728,666,0,0,0,0,0,0,0,0,0,-1,1952,358,0,0
735,666,0,0,0,0,0,0,0,0,0,-1,1959,358,0,0
742,666,0,0,0,0,0,0,0,0,0,-1,1966,358,0,0
749,666,0,0,0,0,0,0,0,0,0,-1,1973,358,0,0
756,666,0,0,0,0,0,0,0,0,0,-1,1980,358,0,0
763,666,0,0,0,0,0,0,0,0,0,-1,1987,358,0,0
770,666,0,0,0,0,0,0,0,0,0,-1,1994,358,0,0
777,666,0,0,0,0,0,0,0,0,0,-1,2001,358,0,0
784,666,0,0,0,0,0,0,0,0,0,-1,2008,358,0,0
791,666,0,0,0,0,0,0,0,0,0,-1,2015,358,0,0
798,666,0,0,0,0,0,0,0,0,0,-1,2022,358,0,0
805,666,0,0,0,0,0,0,0,0,0,-1,2029,358,0,0
812,666,0,0,0,0,0,0,0,0,0,-1,2036,358,0,0
-700,659,0,0,0,0,0,0,0,0,0,-1,524,365,0,0
-693,659,0,0,0,0,0,0,0,0,0,-1,531,365,0,0
-686,659,0,0,0,0,0,0,0,0,0,-1,538,365,0,0
-679,659,0,0,0,0,0,0,0,0,0,-1,545,365,0,0
-672,659,0,0,0,0,0,0,0,0,0,-1,552,365,0,0
-665,659,0,0,0,0,0,0,0,0,0,-1,559,365,0,0
-658,659,0,0,0,0,0,0,0,0,0,-1,566,365,0,0
-651,659,0,0,0,0,0,0,0,0,0,-1,573,365,0,0
-644,659,0,0,0,0,0,0,0,0,0,-1,580,365,0,0
-637,659,0,0,0,0,0,0,0,0,0,-1,587,365,0,0
-630,659,0,0,0,0,0,0,0,0,0,-1,594,365,0,0
-623,659,0,0,0,0,0,0,0,0,0,-1,601,365,0,0
-616,659,0,0,0,0,0,0,0,0,0,-1,608,365,0,0
-609,659,0,0,0,0,0,0,0,0,0,-1,615,365,0,0
-602,659,0,0,0,0,0,0,0,0,0,-1,622,365,0,0
-595,659,0,0,0,0,0,0,0,0,0,-1,629,365,0,0
-588,659,0,0,0,0,0,0,0,0,0,-1,636,365,0,0
-581,659,0,0,0,0,0,0,0,0,0,-1,643,365,0,0
-574,659,0,0,0,0,0,0,0,0,0,-1,650,365,0,0
-567,659,0,0,0,0,0,0,0,0,0,-1,657,365,0,0
-560,659,0,0,0,0,0,0,0,0,0,-1,664,365,0,0
-553,659,0,0,0,0,0,0,0,0,0,-1,671,365,0,0
-546,659,0,0,0,0,0,0,0,0,0,-1,678,365,0,0
-539,659,0,0,0,0,0,0,0,0,0,-1,685,365,0,0
-532,659,0,0,0,0,0,0,0,0,0,-1,692,365,0,0
-525,659,0,0,0,0,0,0,0,0,0,-1,699,365,0,0
-518,659,0,0,0,0,0,0,0,0,0,-1,706,365,0,0
-511,659,0,0,0,0,0,0,0,0,0,-1,713,365,0,0
-504,659,0,0,0,0,0,0,0,0,0,-1,720,365,0,0
-497,659,0,0,0,0,0,0,0,0,0,-1,727,365,0,0
-490,659,0,0,0,0,0,0,0,0,0,-1,734,365,0,0
-483,659,0,0,0,0,0,0,0,0,0,-1,741,365,0,0
-476,659,0,0,0,0,0,0,0,0,0,-1,748,365,0,0
-469,659,0,0,0,0,0,0,0,0,0,-1,755,365,0,0
-462,659,0,0,0,0,0,0,0,0,0,-1,762,365,0,0
-455,659,0,0,0,0,0,0,0,0,0,-1,769,365,0,0
-448,659,0,0,0,0,0,0,0,0,0,-1,776,365,0,0
-441,659,0,0,0,0,0,0,0,0,0,-1,783,365,0,0
-434,659,0,0,0,0,0,0,0,0,0,-1,790,365,0,0
-427,659,0,0,0,0,0,0,0,0,0,-1,797,365,0,0
-420,659,0,0,0,0,0,0,0,0,0,-1,804,365,0,0
-413,659,0,0,0,0,0,0,0,0,0,-1,811,365,0,0
-406,659,0,0,0,0,0,0,0,0,0,-1,818,365,0,0
-399,659,0,0,0,0,0,0,0,0,0,-1,825,365,0,0
-392,659,0,0,0,0,0,0,0,0,0,-1,832,365,0,0
-385,659,0,0,0,0,0,0,0,0,0,-1,839,365,0,0
-378,659,0,0,0,0,0,0,0,0,0,-1,846,365,0,0
-371,659,0,0,0,0,0,0,0,0,0,-1,853,365,0,0
-364,659,0,0,0,0,0,0,0,0,0,-1,860,365,0,0
-357,659,0,0,0,0,0,0,0,0,0,-1,867,365,0,0
-350,659,0,0,0,0,0,0,0,0,0,-1,874,365,0,0
-343,659,0,0,0,0,0,0,0,0,0,-1,881,365,0,0
-336,659,0,0,0,0,0,0,0,0,0,-1,888,365,0,0
-329,659,0,0,0,0,0,0,0,0,0,-1,895,365,0,0
-322,659,0,0,0,0,0,0,0,0,0,-1,902,365,0,0
-315,659,0,0,0,0,0,0,0,0,0,-1,909,365,0,0
-308,659,0,0,0,0,0,0,0,0,0,-1,916,365,0,0
-301,659,0,0,0,0,0,0,0,0,0,-1,923,365,0,0
-294,659,0,0,0,0,0,0,0,0,0,-1,930,365,0,0
-287,659,0,0,0,0,0,0,0,0,0,-1,937,365,0,0
-280,659,0,0,0,0,0,0,0,0,0,-1,944,365,0,0
-273,659,0,0,0,0,0,0,0,0,0,-1,951,365,0,0
-266,659,0,0,0,0,0,0,0,0,0,-1,958,365,0,0
-259,659,0,0,0,0,0,0,0,0,0,-1,965,365,0,0
-252,659,0,0,0,0,0,0,0,0,0,-1,972,365,0,0
-245,659,0,0,0,0,0,0,0,0,0,-1,979,365,0,0
-238,659,0,0,0,0,0,0,0,0,0,-1,986,365,0,0
-231,659,0,0,0,0,0,0,0,0,0,-1,993,365,0,0
-224,659,0,0,0,0,0,0,0,0,0,-1,1000,365,0,0
-217,659,10.1305,-25.2622,0,0,0,0,0,0,0,-1,1007,365,10.1305,25.2622
-210,659,9.65643,-25.515,0,0,0,0,0,0,0,-1,1014,365,9.65642,25.515
-203,659,8.58911,-25.7432,0,0,0,0,0,0,0,-1,1021,365,8.58916,25.7432
-196,659,2.68323,-27.8121,0,0,0,0,0,0,0,-1,1028,365,2.6832,27.8121
-189,659,6.88049,-28.9412,0,0,0,0,0,0,0,-1,1035,365,6.88045,28.9412
-182,659,6.94189,-30.6316,0,0,0,0,0,0,0,-1,1042,365,6.94189,30.6316
-175,659,6.948,-32.0092,0,0,0,0,0,0,0,-1,1049,365,6.94798,32.0093
-168,659,7.1416,-32.7405,0,0,0,0,0,0,0,-1,1056,365,7.14157,32.7405
-161,659,7.57361,-33.7099,0,0,0,0,0,0,0,-1,1063,365,7.57355,33.7099
-154,659,7.71448,-34.8995,0,0,0,0,0,0,0,-1,1070,365,7.7145,34.8995
-147,659,5.46606,-37.758,0,0,0,0,0,0,0,-1,1077,365,5.46601,37.758
-140,659,5.7356,-37.755,0,0,0,0,0,0,0,-1,1084,365,5.73562,37.755
-133,659,5.91455,-37.9017,0,0,0,0,0,0,0,-1,1091,365,5.9146,37.9017
-126,659,6.31226,-37.9904,0,0,0,0,0,0,0,-1,1098,365,6.3122,37.9904
-119,659,6.26941,-35.0837,0,0,0,0,0,0,0,-1,1105,365,6.26943,35.0837
-112,659,6.24353,-35.0562,0,0,0,0,0,0,0,-1,1112,365,6.24349,35.0562
-105,659,5.38696,-30.5854,0,0,0,0,0,0,0,-1,1119,365,5.387,30.5854
-98,659,4.68042,-26.2438,0,0,0,0,0,0,0,-1,1126,365,4.68041,26.2438
-91,659,4.20776,-20.8654,0,0,0,0,0,0,0,-1,1133,365,4.20777,20.8654
-84,659,2.8584,-17.8303,0,0,0,0,0,0,0,-1,1140,365,2.85836,17.8303
-77,659,2.80139,-15.3457,0,0,0,0,0,0,0,-1,1147,365,2.80139,15.3457
-70,659,2.9353,-12.7028,0,0,0,0,0,0,0,-1,1154,365,2.93533,12.7028
-63,659,2.11267,-9.7796,0,0,0,0,0,0,0,-1,1161,365,2.11266,9.7796
-56,659,2.11182,-9.91541,0,0,0,0,0,0,0,-1,1168,365,2.11178,9.91541
-49,659,9.70276,-66.9421,0,0,0,0,0,0,0,-1,1175,365,9.7027,66.9421
-42,659,9.65063,-67.3235,0,0,0,0,0,0,0,-1,1182,365,9.6506,67.3235
-35,659,9.52478,-67.7211,-0.00398223,0.0239218,-0.00561126,0.0250079,-0.00506833,-1.3796,0.0185931,0.0425079,1189,365,9.52482,67.7211
-28,659,9.49963,-67.9888,-0.00233661,0.0261277,-0.00557174,0.0271795,-0.00338838,-1.38422,0.0193483,0.0168375,1196,365,9.49961,67.9888
-21,659,9.39978,-68.3873,-0.000939752,0.0280148,-0.00545377,0.029008,-0.00193294,-1.39066,0.0200141,0.0159579,1203,365,9.39975,68.3873
-14,659,9.26404,-68.7487,0.00017613,0.0295861,-0.00515535,0.0304636,-0.000701384,-1.4022,0.0205468,0.0136978,1210,365,9.26401,68.7487
-7,659,9.15698,-69.0115,0.000746994,0.031531,-0.00506284,0.0323423,-6.42762e-05,-1.41191,0.021583,0.0127393,1217,365,9.15693,69.0115
0,659,9.10449,-69.2491,0.00098185,0.0333734,-0.00486508,0.0340884,0.000266913,-1.42489,0.0226371,0.010443,1224,365,9.10448,69.249
7,659,9.05884,-69.4508,0.000973777,0.0348866,-0.00448904,0.0354708,0.000389624,-1.4414,0.0235184,0.0107219,1231,365,9.05883,69.4508
14,659,8.96265,-69.5918,0.000543684,0.0361095,-0.00395344,0.0365436,0.000109524,-1.46142,0.024326,0.013643,1238,365,8.96267,69.5918
21,659,8.88049,-69.7892,-0.000845081,0.0377288,-0.00296922,0.037956,-0.0010723,-1.49442,0.0256689,0.0128628,1245,365,8.88047,69.7892
28,659,8.78406,-69.9692,-0.00296186,0.0385592,-0.00226694,0.0386826,-0.00308526,-1.51641,0.0268759,0.0121892,1252,365,8.78405,69.9692
35,659,8.73035,-70.0817,-0.0046364,0.0390457,-0.00198431,0.0391356,-0.00472635,-1.52549,0.0278001,0.0139447,1259,365,8.73033,70.0817
42,659,8.67053,-70.1852,-0.00721791,0.0388715,-0.00107838,0.0388967,-0.00724313,-1.54742,0.0286524,0.0154197,1266,365,8.67049,70.1852
49,659,8.56885,-70.2885,-0.010113,0.0383699,-0.000213122,0.0383708,-0.010114,-1.5664,0.0295349,0.0171234,1273,365,8.56882,70.2885
56,659,8.47388,-70.3259,-0.013956,0.0369007,0.000382092,0.0369035,-0.0139589,1.56328,0.0303451,0.0203811,1280,365,8.47385,70.3259
63,659,8.42212,-70.3722,-0.0178635,0.0351884,0.00105208,0.0352092,-0.0178843,1.55098,0.0311928,0.0192203,1287,365,8.42212,70.3722
70,659,8.29919,-70.3491,-0.0218687,0.0324045,0.0015993,0.0324516,-0.0219158,1.54136,0.0315849,0.0201975,1294,365,8.29918,70.3491
77,659,8.19702,-70.3436,-0.0258117,0.0296732,0.00190197,0.0297383,-0.0258768,1.53657,0.0321352,0.0205589,1301,365,8.19697,70.3436
84,659,8.18701,-70.2778,-0.0296878,0.0275938,0.00187728,0.0276552,-0.0297492,1.53807,0.0331498,0.0143215,1308,365,8.18698,70.2778
91,659,8.09473,-70.2007,-0.0330444,0.0257804,0.00203808,0.0258509,-0.0331149,1.5362,0.0341299,0.0122673,1315,365,8.09473,70.2006
98,659,7.9834,-70.0537,-0.0360083,0.0242178,0.00247907,0.0243197,-0.0361102,1.52973,0.0351099,0.0092834,1322,365,7.98337,70.0537
105,659,7.9176,-69.8598,-0.0383274,0.0235719,0.00276295,0.023695,-0.0384504,1.52628,0.0362152,0.0115414,1329,365,7.91766,69.8598
112,659,7.84277,-69.6639,-0.0398722,0.0237448,0.00283654,0.0238711,-0.0399984,1.52633,0.0372648,0.016158,1336,365,7.84271,69.6639
119,659,7.75281,-69.4502,-0.0406143,0.0244678,0.00293484,0.0245999,-0.0407464,1.52582,0.0381096,0.0178077,1343,365,7.75287,69.4502
126,659,7.66199,-69.1483,-0.0405248,0.0254043,0.00302571,0.0255428,-0.0406634,1.52503,0.0385551,0.0178033,1350,365,7.66195,69.1483
133,659,7.55908,-68.8847,-0.0398875,0.0271713,0.00356621,0.0273604,-0.0400766,1.51782,0.0391648,0.0183204,1357,365,7.55906,68.8847
140,659,7.45618,-68.6634,-0.0385109,0.0294406,0.00440887,0.0297255,-0.0387958,1.50627,0.0396761,0.013998,1364,365,7.45613,68.6634
147,659,7.38684,-68.3666,-0.03625,0.031916,0.00486903,0.0322621,-0.0365961,1.49985,0.0397815,0.0118621,1371,365,7.38686,68.3666
154,659,7.2793,-67.9785,-0.0337559,0.0340629,0.00541177,0.034492,-0.034185,1.49167,0.0396508,0.0139521,1378,365,7.27924,67.9785
161,659,7.19592,-67.5758,-0.0308676,0.0360629,0.00617092,0.0366271,-0.0314318,1.47962,0.039332,0.0152563,1385,365,7.19592,67.5758
168,659,7.12012,-67.1272,-0.0276574,0.0368135,0.00683478,0.0375301,-0.028374,1.46633,0.038172,0.020791,1392,365,7.12013,67.1272
175,659,7.05908,-66.7096,-0.0237669,0.0381882,0.0077019,0.0391313,-0.02471,1.44895,0.0371709,0.0438668,1399,365,7.05907,66.7096
182,659,6.90344,-66.3893,0,0,0,0,0,0,0,-1,1406,365,6.90348,66.3894
189,659,6.86841,-65.7346,0,0,0,0,0,0,0,-1,1413,365,6.86837,65.7346
196,659,2.41248,-13.4371,0,0,0,0,0,0,0,-1,1420,365,2.41243,13.4371
203,659,2.38623,-12.2163,0,0,0,0,0,0,0,-1,1427,365,2.38617,12.2163
210,659,2.20789,-13.9792,0,0,0,0,0,0,0,-1,1434,365,2.20794,13.9792
217,659,2.24121,-13.487,0,0,0,0,0,0,0,-1,1441,365,2.24116,13.487
224,659,2.3479,-15.2926,0,0,0,0,0,0,0,-1,1448,365,2.34793,15.2926
231,659,2.47974,-17.8629,0,0,0,0,0,0,0,-1,1455,365,2.47976,17.8628
238,659,3.57886,-21.1258,0,0,0,0,0,0,0,-1,1462,365,3.57889,21.1258
245,659,3.29883,-25.0283,0,0,0,0,0,0,0,-1,1469,365,3.29889,25.0283
252,659,2.81909,-24.1604,0,0,0,0,0,0,0,-1,1476,365,2.81905,24.1604
259,659,2.33069,-3.36703,0,0,0,0,0,0,0,-1,1483,365,2.33073,3.36702
266,659,3.40918,-35.2544,0,0,0,0,0,0,0,-1,1490,365,3.40913,35.2544
273,659,4.45557,-42.3683,0,0,0,0,0,0,0,-1,1497,365,4.45554,42.3683
280,659,4.87903,-41.4995,0,0,0,0,0,0,0,-1,1504,365,4.87898,41.4995
287,659,1.09851,-23.7787,0,0,0,0,0,0,0,-1,1511,365,1.09847,23.7787
294,659,0.115601,-24.0352,0,0,0,0,0,0,0,-1,1518,365,0.115612,24.0352
301,659,-1.21362,-22.6162,0,0,0,0,0,0,0,-1,1525,365,-1.21358,22.6162
308,659,-2.32605,-21.2737,0,0,0,0,0,0,0,-1,1532,365,-2.32606,21.2737
315,659,-3.69629,-19.8803,0,0,0,0,0,0,0,-1,1539,365,-3.69631,19.8803
322,659,-4.9646,-18.5258,0,0,0,0,0,0,0,-1,1546,365,-4.96464,18.5257
329,659,-7.67749,-23.0449,0,0,0,0,0,0,0,-1,1553,365,-7.67745,23.0449
336,659,-7.71436,-22.4188,0,0,0,0,0,0,0,-1,1560,365,-7.71432,22.4188
343,659,0,0,0,0,0,0,0,0,0,-1,1567,365,0,0
350,659,0,0,0,0,0,0,0,0,0,-1,1574,365,0,0
357,659,0,0,0,0,0,0,0,0,0,-1,1581,365,0,0
364,659,0,0,0,0,0,0,0,0,0,-1,1588,365,0,0
371,659,0,0,0,0,0,0,0,0,0,-1,1595,365,0,0
378,659,0,0,0,0,0,0,0,0,0,-1,1602,365,0,0
385,659,0,0,0,0,0,0,0,0,0,-1,1609,365,0,0
392,659,0,0,0,0,0,0,0,0,0,-1,1616,365,0,0
399,659,0,0,0,0,0,0,0,0,0,-1,1623,365,0,0
406,659,0,0,0,0,0,0,0,0,0,-1,1630,365,0,0
413,659,0,0,0,0,0,0,0,0,0,-1,1637,365,0,0
420,659,0,0,0,0,0,0,0,0,0,-1,1644,365,0,0
427,659,0,0,0,0,0,0,0,0,0,-1,1651,365,0,0
434,659,0,0,0,0,0,0,0,0,0,-1,1658,365,0,0
441,659,0,0,0,0,0,0,0,0,0,-1,1665,365,0,0
448,659,0,0,0,0,0,0,0,0,0,-1,1672,365,0,0
455,659,0,0,0,0,0,0,0,0,0,-1,1679,365,0,0
462,659,0,0,0,0,0,0,0,0,0,-1,1686,365,0,0
469,659,0,0,0,0,0,0,0,0,0,-1,1693,365,0,0
476,659,0,0,0,0,0,0,0,0,0,-1,1700,365,0,0
483,659,0,0,0,0,0,0,0,0,0,-1,1707,365,0,0
490,659,0,0,0,0,0,0,0,0,0,-1,1714,365,0,0
497,659,0,0,0,0,0,0,0,0,0,-1,1721,365,0,0
504,659,0,0,0,0,0,0,0,0,0,-1,1728,365,0,0
511,659,0,0,0,0,0,0,0,0,0,-1,1735,365,0,0
518,659,0,0,0,0,0,0,0,0,0,-1,1742,365,0,0
525,659,0,0,0,0,0,0,0,0,0,-1,1749,365,0,0
532,659,0,0,0,0,0,0,0,0,0,-1,1756,365,0,0
539,659,0,0,0,0,0,0,0,0,0,-1,1763,365,0,0
546,659,0,0,0,0,0,0,0,0,0,-1,1770,365,0,0
553,659,0,0,0,0,0,0,0,0,0,-1,1777,365,0,0
560,659,0,0,0,0,0,0,0,0,0,-1,1784,365,0,0
567,659,0,0,0,0,0,0,0,0,0,-1,1791,365,0,0
574,659,0,0,0,0,0,0,0,0,0,-1,1798,365,0,0
581,659,0,0,0,0,0,0,0,0,0,-1,1805,365,0,0
588,659,0,0,0,0,0,0,0,0,0,-1,1812,365,0,0
595,659,0,0,0,0,0,0,0,0,0,-1,1819,365,0,0
602,659,0,0,0,0,0,0,0,0,0,-1,1826,365,0,0
609,659,0,0,0,0,0,0,0,0,0,-1,1833,365,0,0
616,659,0,0,0,0,0,0,0,0,0,-1,1840,365,0,0
623,659,0,0,0,0,0,0,0,0,0,-1,1847,365,0,0
630,659,0,0,0,0,0,0,0,0,0,-1,1854,365,0,0
637,659,0,0,0,0,0,0,0,0,0,-1,1861,365,0,0
644,659,0,0,0,0,0,0,0,0,0,-1,1868,365,0,0
651,659,0,0,0,0,0,0,0,0,0,-1,1875,365,0,0
658,659,0,0,0,0,0,0,0,0,0,-1,1882,365,0,0
665,659,0,0,0,0,0,0,0,0,0,-1,1889,365,0,0
672,659,0,0,0,0,0,0,0,0,0,-1,1896,365,0,0
679,659,0,0,0,0,0,0,0,0,0,-1,1903,365,0,0
686,659,0,0,0,0,0,0,0,0,0,-1,1910,365,0,0
693,659,0,0,0,0,0,0,0,0,0,-1,1917,365,0,0
700,659,0,0,0,0,0,0,0,0,0,-1,1924,365,0,0
707,659,0,0,0,0,0,0,0,0,0,-1,1931,365,0,0
714,659,0,0,0,0,0,0,0,0,0,-1,1938,365,0,0
721,659,0,0,0,0,0,0,0,0,0,-1,1945,365,0,0
728,659,0,0,0,0,0,0,0,0,0,-1,1952,365,0,0
735,659,0,0,0,0,0,0,0,0,0,-1,1959,365,0,0
742,659,0,0,0,0,0,0,0,0,0,-1,1966,365,0,0
749,659,0,0,0,0,0,0,0,0,0,-1,1973,365,0,0
756,659,0,0,0,0,0,0,0,0,0,-1,1980,365,0,0
763,659,0,0,0,0,0,0,0,0,0,-1,1987,365,0,0
770,659,0,0,0,0,0,0,0,0,0,-1,1994,365,0,0
777,659,0,0,0,0,0,0,0,0,0,-1,2001,365,0,0
784,659,0,0,0,0,0,0,0,0,0,-1,2008,365,0,0
791,659,0,0,0,0,0,0,0,0,0,-1,2015,365,0,0
798,659,0,0,0,0,0,0,0,0,0,-1,2022,365,0,0
805,659,0,0,0,0,0,0,0,0,0,-1,2029,365,0,0
812,659,0,0,0,0,0,0,0,0,0,-1,2036,365,0,0
-700,652,0,0,0,0,0,0,0,0,0,-1,524,372,0,0
-693,652,0,0,0,0,0,0,0,0,0,-1,531,372,0,0
-686,652,0,0,0,0,0,0,0,0,0,-1,538,372,0,0
-679,652,0,0,0,0,0,0,0,0,0,-1,545,372,0,0
-672,652,0,0,0,0,0,0,0,0,0,-1,552,372,0,0
-665,652,0,0,0,0,0,0,0,0,0,-1,559,372,0,0
-658,652,0,0,0,0,0,0,0,0,0,-1,566,372,0,0
-651,652,0,0,0,0,0,0,0,0,0,-1,573,372,0,0
-644,652,0,0,0,0,0,0,0,0,0,-1,580,372,0,0
-637,652,0,0,0,0,0,0,0,0,0,-1,587,372,0,0
-630,652,0,0,0,0,0,0,0,0,0,-1,594,372,0,0
-623,652,0,0,0,0,0,0,0,0,0,-1,601,372,0,0
-616,652,0,0,0,0,0,0,0,0,0,-1,608,372,0,0
-609,652,0,0,0,0,0,0,0,0,0,-1,615,372,0,0
-602,652,0,0,0,0,0,0,0,0,0,-1,622,372,0,0
-595,652,0,0,0,0,0,0,0,0,0,-1,629,372,0,0
-588,652,0,0,0,0,0,0,0,0,0,-1,636,372,0,0
-581,652,0,0,0,0,0,0,0,0,0,-1,643,372,0,0
-574,652,0,0,0,0,0,0,0,0,0,-1,650,372,0,0
-567,652,0,0,0,0,0,0,0,0,0,-1,657,372,0,0
-560,652,0,0,0,0,0,0,0,0,0,-1,664,372,0,0
-553,652,0,0,0,0,0,0,0,0,0,-1,671,372,0,0
-546,652,0,0,0,0,0,0,0,0,0,-1,678,372,0,0
-539,652,0,0,0,0,0,0,0,0,0,-1,685,372,0,0
-532,652,0,0,0,0,0,0,0,0,0,-1,692,372,0,0
-525,652,0,0,0,0,0,0,0,0,0,-1,699,372,0,0
-518,652,0,0,0,0,0,0,0,0,0,-1,706,372,0,0
-511,652,0,0,0,0,0,0,0,0,0,-1,713,372,0,0
-504,652,0,0,0,0,0,0,0,0,0,-1,720,372,0,0
-497,652,0,0,0,0,0,0,0,0,0,-1,727,372,0,0
-490,652,0,0,0,0,0,0,0,0,0,-1,734,372,0,0
-483,652,0,0,0,0,0,0,0,0,0,-1,741,372,0,0
-476,652,0,0,0,0,0,0,0,0,0,-1,748,372,0,0
-469,652,0,0,0,0,0,0,0,0,0,-1,755,372,0,0
-462,652,0,0,0,0,0,0,0,0,0,-1,762,372,0,0
-455,652,0,0,0,0,0,0,0,0,0,-1,769,372,0,0
-448,652,0,0,0,0,0,0,0,0,0,-1,776,372,0,0
-441,652,0,0,0,0,0,0,0,0,0,-1,783,372,0,0
-434,652,0,0,0,0,0,0,0,0,0,-1,790,372,0,0
-427,652,0,0,0,0,0,0,0,0,0,-1,797,372,0,0
-420,652,0,0,0,0,0,0,0,0,0,-1,804,372,0,0
-413,652,0,0,0,0,0,0,0,0,0,-1,811,372,0,0
-406,652,0,0,0,0,0,0,0,0,0,-1,818,372,0,0
-399,652,0,0,0,0,0,0,0,0,0,-1,825,372,0,0
-392,652,0,0,0,0,0,0,0,0,0,-1,832,372,0,0
-385,652,0,0,0,0,0,0,0,0,0,-1,839,372,0,0
-378,652,0,0,0,0,0,0,0,0,0,-1,846,372,0,0
-371,652,0,0,0,0,0,0,0,0,0,-1,853,372,0,0
-364,652,0,0,0,0,0,0,0,0,0,-1,860,372,0,0
-357,652,0,0,0,0,0,0,0,0,0,-1,867,372,0,0
-350,652,0,0,0,0,0,0,0,0,0,-1,874,372,0,0
-343,652,0,0,0,0,0,0,0,0,0,-1,881,372,0,0
-336,652,0,0,0,0,0,0,0,0,0,-1,888,372,0,0
-329,652,0,0,0,0,0,0,0,0,0,-1,895,372,0,0
-322,652,0,0,0,0,0,0,0,0,0,-1,902,372,0,0
-315,652,0,0,0,0,0,0,0,0,0,-1,909,372,0,0
-308,652,0,0,0,0,0,0,0,0,0,-1,916,372,0,0
-301,652,0,0,0,0,0,0,0,0,0,-1,923,372,0,0
-294,652,0,0,0,0,0,0,0,0,0,-1,930,372,0,0
-287,652,0,0,0,0,0,0,0,0,0,-1,937,372,0,0
-280,652,0,0,0,0,0,0,0,0,0,-1,944,372,0,0
-273,652,0,0,0,0,0,0,0,0,0,-1,951,372,0,0
-266,652,0,0,0,0,0,0,0,0,0,-1,958,372,0,0
-259,652,0,0,0,0,0,0,0,0,0,-1,965,372,0,0
-252,652,0,0,0,0,0,0,0,0,0,-1,972,372,0,0
-245,652,0,0,0,0,0,0,0,0,0,-1,979,372,0,0
-238,652,0,0,0,0,0,0,0,0,0,-1,986,372,0,0
-231,652,8.79358,-27.1656,0,0,0,0,0,0,0,-1,993,372,8.79357,27.1656
-224,652,8.84552,-27.675,0,0,0,0,0,0,0,-1,1000,372,8.84555,27.675
-217,652,9.03113,-27.7474,0,0,0,0,0,0,0,-1,1007,372,9.0311,27.7474
-210,652,9.72803,-30.4624,0,0,0,0,0,0,0,-1,1014,372,9.72805,30.4624
-203,652,7.2677,-26.0732,0,0,0,0,0,0,0,-1,1021,372,7.26775,26.0732
-196,652,5.90686,-26.957,0,0,0,0,0,0,0,-1,1028,372,5.9068,26.957
-189,652,6.21326,-28.3035,0,0,0,0,0,0,0,-1,1035,372,6.21331,28.3035
-182,652,6.45068,-29.9377,0,0,0,0,0,0,0,-1,1042,372,6.45074,29.9377
-175,652,6.72559,-31.6948,0,0,0,0,0,0,0,-1,1049,372,6.72563,31.6948
-168,652,7.08533,-32.8669,0,0,0,0,0,0,0,-1,1056,372,7.08532,32.8669
-161,652,7.85291,-37.3545,0,0,0,0,0,0,0,-1,1063,372,7.85294,37.3545
-154,652,7.54639,-37.9586,0,0,0,0,0,0,0,-1,1070,372,7.54642,37.9586
-147,652,7.85571,-42.3712,0,0,0,0,0,0,0,-1,1077,372,7.8557,42.3712
-140,652,5.6842,-33.9781,0,0,0,0,0,0,0,-1,1084,372,5.68421,33.9781
-133,652,6.3009,-35.2887,0,0,0,0,0,0,0,-1,1091,372,6.30093,35.2887
-126,652,5.86841,-37.0981,0,0,0,0,0,0,0,-1,1098,372,5.86845,37.0981
-119,652,8.18018,-49.52,0,0,0,0,0,0,0,-1,1105,372,8.18015,49.52
-112,652,7.81982,-48.4793,0,0,0,0,0,0,0,-1,1112,372,7.81981,48.4793
-105,652,6.63855,-39.9965,0,0,0,0,0,0,0,-1,1119,372,6.63852,39.9965
-98,652,5.84302,-35.2455,0,0,0,0,0,0,0,-1,1126,372,5.84307,35.2455
-91,652,5.66296,-32.9003,0,0,0,0,0,0,0,-1,1133,372,5.66297,32.9003
-84,652,5.46057,-34.9186,0,0,0,0,0,0,0,-1,1140,372,5.46057,34.9186
-77,652,9.68604,-64.8733,0,0,0,0,0,0,0,-1,1147,372,9.686,64.8733
-70,652,9.6073,-65.5057,0,0,0,0,0,0,0,-1,1154,372,9.6073,65.5057
-63,652,9.5658,-66.016,0,0,0,0,0,0,0,-1,1161,372,9.56576,66.016
-56,652,9.40735,-66.531,0,0,0,0,0,0,0,-1,1168,372,9.4074,66.531
-49,652,9.38953,-66.9903,-0.00825063,0.0135528,-0.00421544,0.0143394,-0.00903725,-1.38631,0.0136117,0.0383242,1175,372,9.38947,66.9903
-42,652,9.2832,-67.3208,-0.00600597,0.015663,-0.00420388,0.01645,-0.00679296,-1.38573,0.0138,0.0138908,1182,372,9.28321,67.3208
-35,652,9.23584,-67.6946,-0.00452177,0.0175283,-0.00420987,0.0183047,-0.00529819,-1.38842,0.0143002,0.0103024,1189,372,9.23579,67.6946
-28,652,9.16479,-68.0728,-0.00325267,0.0190416,-0.00410617,0.0197738,-0.0039849,-1.39433,0.0146921,0.0079759,1196,372,9.16476,68.0728
-21,652,9.07153,-68.4564,-0.00213375,0.0203563,-0.00396016,0.0210332,-0.0028107,-1.40149,0.0150468,0.0089393,1203,372,9.07151,68.4564
-14,652,9.00403,-68.7767,-0.00121151,0.0214757,-0.00370631,0.0220658,-0.00180164,-1.4129,0.0153464,0.0112964,1210,372,9.00404,68.7767
-7,652,8.9281,-69.0794,-0.000625718,0.0229072,-0.00361185,0.0234491,-0.00116759,-1.42188,0.0160361,0.014016,1217,372,8.92815,69.0794
0,652,8.87805,-69.3174,-0.000268339,0.0241886,-0.00345354,0.024667,-0.000746654,-1.43317,0.0166991,0.0140746,1224,372,8.87801,69.3174
7,652,8.82654,-69.4989,-0.000100331,0.0252426,-0.00317751,0.0256349,-0.000492657,-1.44795,0.0172565,0.0151868,1231,372,8.82659,69.4989
14,652,8.77368,-69.6977,-0.000255233,0.0260273,-0.00278168,0.0263185,-0.000546413,-1.4665,0.0177306,0.0123473,1238,372,8.77369,69.6977
21,652,8.70361,-69.9117,-0.000860751,0.0270872,-0.00222427,0.0272631,-0.00103667,-1.49187,0.0185306,0.0105531,1245,372,8.70362,69.9116
28,652,8.66418,-70.0763,-0.00185498,0.0277432,-0.00189661,0.0278643,-0.00197602,-1.50707,0.0192687,0.0100831,1252,372,8.66422,70.0763
35,652,8.60376,-70.2023,-0.00269308,0.0280671,-0.00181286,0.0281736,-0.00279955,-1.51213,0.0197817,0.0116141,1259,372,8.6037,70.2023
42,652,8.54578,-70.2986,-0.00419915,0.0279648,-0.00127528,0.0280153,-0.00424963,-1.53123,0.0202426,0.0132657,1266,372,8.54583,70.2986
49,652,8.53113,-70.3841,-0.005966,0.0276661,-0.000769773,0.0276837,-0.00598361,-1.54792,0.0207401,0.016285,1273,372,8.53117,70.3841
56,652,8.46472,-70.4171,-0.00836922,0.026698,-0.000436689,0.0267034,-0.00837466,-1.55835,0.0211538,0.0178072,1280,372,8.4647,70.4171
63,652,8.41138,-70.4261,-0.0106501,0.0255873,-6.29964e-05,0.0255875,-0.0106502,-1.56906,0.0215061,0.0215302,1287,372,8.41136,70.4261
70,652,8.32971,-70.3765,-0.0131847,0.0237377,0.000314542,0.0237404,-0.0131873,1.56228,0.0216085,0.0190712,1294,372,8.32967,70.3765
77,652,8.22327,-70.3943,-0.0158366,0.0219382,0.000563483,0.0219466,-0.015845,1.55588,0.0219136,0.0165055,1301,372,8.22322,70.3944
84,652,8.23254,-70.3667,-0.0185285,0.0205522,0.00058222,0.0205609,-0.0185372,1.5559,0.0225834,0.0135404,1308,372,8.2326,70.3667
91,652,8.17053,-70.3205,-0.0208954,0.019291,0.000750114,0.019305,-0.0209094,1.55214,0.023224,0.0167152,1315,372,8.17055,70.3205
98,652,8.13416,-70.1655,-0.0230132,0.0182539,0.00117843,0.0182876,-0.0230468,1.54227,0.0239171,0.0135238,1322,372,8.13416,70.1655
105,652,8.06848,-69.9715,-0.0247067,0.0179069,0.00151104,0.0179604,-0.0247603,1.5354,0.0247687,0.0114896,1329,372,8.06847,69.9715
112,652,7.98767,-69.7694,-0.0258841,0.0181028,0.00168779,0.0181675,-0.0259487,1.5325,0.0256022,0.010317,1336,372,7.98768,69.7694
119,652,7.94495,-69.5531,-0.0264764,0.0186987,0.00186787,0.0187758,-0.0265535,1.52954,0.026299,0.0111829,1343,372,7.94489,69.5531
126,652,7.88757,-69.285,-0.0264712,0.0194933,0.00208356,0.0195876,-0.0265655,1.52559,0.0267478,0.0128236,1350,372,7.88763,69.285
133,652,7.8147,-69.0292,-0.0260993,0.0208537,0.00264053,0.0210018,-0.0262473,1.51479,0.0273353,0.0125262,1357,372,7.81475,69.0292
140,652,7.73022,-68.765,-0.0251946,0.0226106,0.00336739,0.0228466,-0.0254306,1.50082,0.0278862,0.00970954,1364,372,7.73025,68.7649
147,652,7.68445,-68.4301,-0.0235574,0.024542,0.00374012,0.0248311,-0.0238464,1.49366,0.0281059,0.0103492,1371,372,7.68444,68.4301
154,652,7.62366,-68.0678,-0.0217582,0.0262137,0.00416944,0.0265734,-0.0221179,1.48474,0.0281512,0.0103902,1378,372,7.62367,68.0678
161,652,7.52551,-67.6978,-0.0196582,0.0277628,0.00479655,0.0282431,-0.0201385,1.471,0.0280635,0.0123224,1385,372,7.52549,67.6978
168,652,7.44189,-67.2683,-0.0177939,0.0281944,0.00536852,0.0288128,-0.0184123,1.45611,0.0274849,0.0134994,1392,372,7.44191,67.2683
175,652,7.38232,-66.8094,-0.0154716,0.028863,0.00601597,0.0296648,-0.0162734,1.43829,0.0268955,0.0133105,1399,372,7.3823,66.8094
182,652,7.30457,-66.3927,-0.0130491,0.0288831,0.00680113,0.0299586,-0.0141246,1.41396,0.0259929,0.0196317,1406,372,7.30451,66.3927
189,652,7.25769,-65.9209,-0.0101264,0.0271801,0.00775973,0.0287297,-0.011676,1.37369,0.0240109,0.0325907,1413,372,7.25774,65.9209
196,652,7.18445,-65.4211,0,0,0,0,0,0,0,-1,1420,372,7.18447,65.4211
203,652,7.07312,-64.8965,0,0,0,0,0,0,0,-1,1427,372,7.07312,64.8965
210,652,7.06567,-64.2145,0,0,0,0,0,0,0,-1,1434,372,7.06565,64.2145
217,652,6.58093,-61.7512,0,0,0,0,0,0,0,-1,1441,372,6.58095,61.7512
224,652,3.63794,-31.2791,0,0,0,0,0,0,0,-1,1448,372,3.63799,31.2791
231,652,3.83936,-30.4812,0,0,0,0,0,0,0,-1,1455,372,3.8393,30.4812
238,652,4.42358,-36.4103,0,0,0,0,0,0,0,-1,1462,372,4.4236,36.4103
245,652,4.53296,-41.8512,0,0,0,0,0,0,0,-1,1469,372,4.5329,41.8512
252,652,5.00793,-47.7065,0,0,0,0,0,0,0,-1,1476,372,5.00791,47.7064
259,652,3.44922,-31.2655,0,0,0,0,0,0,0,-1,1483,372,3.44921,31.2655
266,652,5.5387,-50.3915,0,0,0,0,0,0,0,-1,1490,372,5.53875,50.3915
273,652,5.76855,-57.8665,0,0,0,0,0,0,0,-1,1497,372,5.76858,57.8665
280,652,4.05066,-24.6993,0,0,0,0,0,0,0,-1,1504,372,4.05066,24.6993
287,652,3.0979,-23.6951,0,0,0,0,0,0,0,-1,1511,372,3.09796,23.6951
294,652,2.06946,-24.1711,0,0,0,0,0,0,0,-1,1518,372,2.0694,24.1711
301,652,0.770264,-23.0697,0,0,0,0,0,0,0,-1,1525,372,0.770217,23.0697
308,652,-0.706299,-22.1083,0,0,0,0,0,0,0,-1,1532,372,-0.706291,22.1083
315,652,-1.65198,-21.8662,0,0,0,0,0,0,0,-1,1539,372,-1.65204,21.8662
322,652,-2.66101,-21.728,0,0,0,0,0,0,0,-1,1546,372,-2.66097,21.728
329,652,-7.12329,-21.7065,0,0,0,0,0,0,0,-1,1553,372,-7.12334,21.7065
336,652,-3.56519,-22.3688,0,0,0,0,0,0,0,-1,1560,372,-3.56517,22.3688
343,652,-3.58069,-21.9185,0,0,0,0,0,0,0,-1,1567,372,-3.58069,21.9185
350,652,5.28394,-25.6715,0,0,0,0,0,0,0,-1,1574,372,5.28393,25.6715
357,652,0,0,0,0,0,0,0,0,0,-1,1581,372,0,0
364,652,0,0,0,0,0,0,0,0,0,-1,1588,372,0,0
371,652,0,0,0,0,0,0,0,0,0,-1,1595,372,0,0
378,652,0,0,0,0,0,0,0,0,0,-1,1602,372,0,0
385,652,0,0,0,0,0,0,0,0,0,-1,1609,372,0,0
392,652,0,0,0,0,0,0,0,0,0,-1,1616,372,0,0
399,652,0,0,0,0,0,0,0,0,0,-1,1623,372,0,0
406,652,0,0,0,0,0,0,0,0,0,-1,1630,372,0,0
413,652,0,0,0,0,0,0,0,0,0,-1,1637,372,0,0
420,652,0,0,0,0,0,0,0,0,0,-1,1644,372,0,0
427,652,0,0,0,0,0,0,0,0,0,-1,1651,372,0,0
434,652,0,0,0,0,0,0,0,0,0,-1,1658,372,0,0
441,652,0,0,0,0,0,0,0,0,0,-1,1665,372,0,0
448,652,0,0,0,0,0,0,0,0,0,-1,1672,372,0,0
455,652,0,0,0,0,0,0,0,0,0,-1,1679,372,0,0
462,652,0,0,0,0,0,0,0,0,0,-1,1686,372,0,0
469,652,0,0,0,0,0,0,0,0,0,-1,1693,372,0,0
476,652,0,0,0,0,0,0,0,0,0,-1,1700,372,0,0
483,652,0,0,0,0,0,0,0,0,0,-1,1707,372,0,0
490,652,0,0,0,0,0,0,0,0,0,-1,1714,372,0,0
497,652,0,0,0,0,0,0,0,0,0,-1,1721,372,0,0
504,652,0,0,0,0,0,0,0,0,0,-1,1728,372,0,0
511,652,0,0,0,0,0,0,0,0,0,-1,1735,372,0,0
518,652,0,0,0,0,0,0,0,0,0,-1,1742,372,0,0
525,652,0,0,0,0,0,0,0,0,0,-1,1749,372,0,0
532,652,0,0,0,0,0,0,0,0,0,-1,1756,372,0,0
539,652,0,0,0,0,0,0,0,0,0,-1,1763,372,0,0
546,652,0,0,0,0,0,0,0,0,0,-1,1770,372,0,0
553,652,0,0,0,0,0,0,0,0,0,-1,1777,372,0,0
560,652,0,0,0,0,0,0,0,0,0,-1,1784,372,0,0
567,652,0,0,0,0,0,0,0,0,0,-1,1791,372,0,0
574,652,0,0,0,0,0,0,0,0,0,-1,1798,372,0,0
581,652,0,0,0,0,0,0,0,0,0,-1,1805,372,0,0
588,652,0,0,0,0,0,0,0,0,0,-1,1812,372,0,0
595,652,0,0,0,0,0,0,0,0,0,-1,1819,372,0,0
602,652,0,0,0,0,0,0,0,0,0,-1,1826,372,0,0
609,652,0,0,0,0,0,0,0,0,0,-1,1833,372,0,0
616,652,0,0,0,0,0,0,0,0,0,-1,1840,372,0,0
623,652,0,0,0,0,0,0,0,0,0,-1,1847,372,0,0
630,652,0,0,0,0,0,0,0,0,0,-1,1854,372,0,0
637,652,0,0,0,0,0,0,0,0,0,-1,1861,372,0,0
644,652,0,0,0,0,0,0,0,0,0,-1,1868,372,0,0
651,652,0,0,0,0,0,0,0,0,0,-1,1875,372,0,0
658,652,0,0,0,0,0,0,0,0,0,-1,1882,372,0,0
665,652,0,0,0,0,0,0,0,0,0,-1,1889,372,0,0
672,652,0,0,0,0,0,0,0,0,0,-1,1896,372,0,0
679,652,0,0,0,0,0,0,0,0,0,-1,1903,372,0,0
686,652,0,0,0,0,0,0,0,0,0,-1,1910,372,0,0
693,652,0,0,0,0,0,0,0,0,0,-1,1917,372,0,0
700,652,0,0,0,0,0,0,0,0,0,-1,1924,372,0,0
707,652,0,0,0,0,0,0,0,0,0,-1,1931,372,0,0
714,652,0,0,0,0,0,0,0,0,0,-1,1938,372,0,0
721,652,0,0,0,0,0,0,0,0,0,-1,1945,372,0,0
728,652,0,0,0,0,0,0,0,0,0,-1,1952,372,0,0
735,652,0,0,0,0,0,0,0,0,0,-1,1959,372,0,0
742,652,0,0,0,0,0,0,0,0,0,-1,1966,372,0,0
749,652,0,0,0,0,0,0,0,0,0,-1,1973,372,0,0
756,652,0,0,0,0,0,0,0,0,0,-1,1980,372,0,0
763,652,0,0,0,0,0,0,0,0,0,-1,1987,372,0,0
770,652,0,0,0,0,0,0,0,0,0,-1,1994,372,0,0
777,652,0,0,0,0,0,0,0,0,0,-1,2001,372,0,0
784,652,0,0,0,0,0,0,0,0,0,-1,2008,372,0,0
791,652,0,0,0,0,0,0,0,0,0,-1,2015,372,0,0
798,652,0,0,0,0,0,0,0,0,0,-1,2022,372,0,0
805,652,0,0,0,0,0,0,0,0,0,-1,2029,372,0,0
812,652,0,0,0,0,0,0,0,0,0,-1,2036,372,0,0
-700,645,0,0,0,0,0,0,0,0,0,-1,524,379,0,0
-693,645,0,0,0,0,0,0,0,0,0,-1,531,379,0,0
-686,645,0,0,0,0,0,0,0,0,0,-1,538,379,0,0
-679,645,0,0,0,0,0,0,0,0,0,-1,545,379,0,0
-672,645,0,0,0,0,0,0,0,0,0,-1,552,379,0,0
-665,645,0,0,0,0,0,0,0,0,0,-1,559,379,0,0
-658,645,0,0,0,0,0,0,0,0,0,-1,566,379,0,0
-651,645,0,0,0,0,0,0,0,0,0,-1,573,379,0,0
-644,645,0,0,0,0,0,0,0,0,0,-1,580,379,0,0
-637,645,0,0,0,0,0,0,0,0,0,-1,587,379,0,0
-630,645,0,0,0,0,0,0,0,0,0,-1,594,379,0,0
-623,645,0,0,0,0,0,0,0,0,0,-1,601,379,0,0
-616,645,0,0,0,0,0,0,0,0,0,-1,608,379,0,0
-609,645,0,0,0,0,0,0,0,0,0,-1,615,379,0,0
-602,645,0,0,0,0,0,0,0,0,0,-1,622,379,0,0
-595,645,0,0,0,0,0,0,0,0,0,-1,629,379,0,0
-588,645,0,0,0,0,0,0,0,0,0,-1,636,379,0,0
-581,645,0,0,0,0,0,0,0,0,0,-1,643,379,0,0
-574,645,0,0,0,0,0,0,0,0,0,-1,650,379,0,0
-567,645,0,0,0,0,0,0,0,0,0,-1,657,379,0,0
-560,645,0,0,0,0,0,0,0,0,0,-1,664,379,0,0
-553,645,0,0,0,0,0,0,0,0,0,-1,671,379,0,0
-546,645,0,0,0,0,0,0,0,0,0,-1,678,379,0,0
-539,645,0,0,0,0,0,0,0,0,0,-1,685,379,0,0
-532,645,0,0,0,0,0,0,0,0,0,-1,692,379,0,0
-525,645,0,0,0,0,0,0,0,0,0,-1,699,379,0,0
-518,645,0,0,0,0,0,0,0,0,0,-1,706,379,0,0
-511,645,0,0,0,0,0,0,0,0,0,-1,713,379,0,0
-504,645,0,0,0,0,0,0,0,0,0,-1,720,379,0,0
-497,645,0,0,0,0,0,0,0,0,0,-1,727,379,0,0
-490,645,0,0,0,0,0,0,0,0,0,-1,734,379,0,0
-483,645,0,0,0,0,0,0,0,0,0,-1,741,379,0,0
-476,645,0,0,0,0,0,0,0,0,0,-1,748,379,0,0
-469,645,0,0,0,0,0,0,0,0,0,-1,755,379,0,0
-462,645,0,0,0,0,0,0,0,0,0,-1,762,379,0,0
-455,645,0,0,0,0,0,0,0,0,0,-1,769,379,0,0
-448,645,0,0,0,0,0,0,0,0,0,-1,776,379,0,0
-441,645,0,0,0,0,0,0,0,0,0,-1,783,379,0,0
-434,645,0,0,0,0,0,0,0,0,0,-1,790,379,0,0
-427,645,0,0,0,0,0,0,0,0,0,-1,797,379,0,0
-420,645,0,0,0,0,0,0,0,0,0,-1,804,379,0,0
-413,645,0,0,0,0,0,0,0,0,0,-1,811,379,0,0
-406,645,0,0,0,0,0,0,0,0,0,-1,818,379,0,0
-399,645,0,0,0,0,0,0,0,0,0,-1,825,379,0,0
-392,645,0,0,0,0,0,0,0,0,0,-1,832,379,0,0
-385,645,0,0,0,0,0,0,0,0,0,-1,839,379,0,0
-378,645,0,0,0,0,0,0,0,0,0,-1,846,379,0,0
-371,645,0,0,0,0,0,0,0,0,0,-1,853,379,0,0
-364,645,0,0,0,0,0,0,0,0,0,-1,860,379,0,0
-357,645,0,0,0,0,0,0,0,0,0,-1,867,379,0,0
-350,645,0,0,0,0,0,0,0,0,0,-1,874,379,0,0
-343,645,0,0,0,0,0,0,0,0,0,-1,881,379,0,0
-336,645,0,0,0,0,0,0,0,0,0,-1,888,379,0,0
-329,645,0,0,0,0,0,0,0,0,0,-1,895,379,0,0
-322,645,0,0,0,0,0,0,0,0,0,-1,902,379,0,0
-315,645,0,0,0,0,0,0,0,0,0,-1,909,379,0,0
-308,645,0,0,0,0,0,0,0,0,0,-1,916,379,0,0
-301,645,0,0,0,0,0,0,0,0,0,-1,923,379,0,0
-294,645,0,0,0,0,0,0,0,0,0,-1,930,379,0,0
-287,645,0,0,0,0,0,0,0,0,0,-1,937,379,0,0
-280,645,0,0,0,0,0,0,0,0,0,-1,944,379,0,0
-273,645,0,0,0,0,0,0,0,0,0,-1,951,379,0,0
-266,645,0,0,0,0,0,0,0,0,0,-1,958,379,0,0
-259,645,0,0,0,0,0,0,0,0,0,-1,965,379,0,0
-252,645,2.95691,-26.9133,0,0,0,0,0,0,0,-1,972,379,2.9569,26.9133
-245,645,2.73169,-27.0215,0,0,0,0,0,0,0,-1,979,379,2.73172,27.0215
-238,645,2.6665,-26.9464,0,0,0,0,0,0,0,-1,986,379,2.66649,26.9464
-231,645,7.26807,-29.1054,0,0,0,0,0,0,0,-1,993,379,7.26806,29.1054
-224,645,7.69073,-29.5737,0,0,0,0,0,0,0,-1,1000,379,7.69071,29.5737
-217,645,8.65485,-33.4136,0,0,0,0,0,0,0,-1,1007,379,8.65487,33.4136
-210,645,9.21594,-32.5157,0,0,0,0,0,0,0,-1,1014,379,9.21591,32.5156
-203,645,9.77698,-31.6176,0,0,0,0,0,0,0,-1,1021,379,9.77696,31.6177
-196,645,10.2664,-29.7741,0,0,0,0,0,0,0,-1,1028,379,10.2664,29.7741
-189,645,5.88062,-28.2191,0,0,0,0,0,0,0,-1,1035,379,5.88062,28.2191
-182,645,6.34167,-29.2525,0,0,0,0,0,0,0,-1,1042,379,6.3417,29.2525
-175,645,6.36462,-35.5586,0,0,0,0,0,0,0,-1,1049,379,6.3646,35.5586
-168,645,7.19116,-39.5785,0,0,0,0,0,0,0,-1,1056,379,7.19115,39.5785
-161,645,7.22083,-37.6093,0,0,0,0,0,0,0,-1,1063,379,7.22085,37.6094
-154,645,7.42102,-41.6806,0,0,0,0,0,0,0,-1,1070,379,7.42105,41.6806
-147,645,8.89526,-50.6488,0,0,0,0,0,0,0,-1,1077,379,8.89521,50.6488
-140,645,9.88196,-59.0189,0,0,0,0,0,0,0,-1,1084,379,9.88191,59.0189
-133,645,9.61304,-59.037,0,0,0,0,0,0,0,-1,1091,379,9.61299,59.0371
-126,645,9.97192,-60.5058,0,0,0,0,0,0,0,-1,1098,379,9.97197,60.5058
-119,645,9.72742,-61.1543,0,0,0,0,0,0,0,-1,1105,379,9.72736,61.1543
-112,645,9.57886,-62.0341,0,0,0,0,0,0,0,-1,1112,379,9.57884,62.0341
-105,645,9.51392,-62.8152,0,0,0,0,0,0,0,-1,1119,379,9.51395,62.8152
-98,645,9.43469,-63.4182,0,0,0,0,0,0,0,-1,1126,379,9.43467,63.4182
-91,645,9.30713,-64.024,0,0,0,0,0,0,0,-1,1133,379,9.30717,64.024
-84,645,9.24377,-64.5796,0,0,0,0,0,0,0,-1,1140,379,9.24382,64.5796
-77,645,9.27075,-65.0872,-0.00810244,0.00579238,-0.00261176,0.00626708,-0.00857714,-1.391,0.00860484,0.0442757,1147,379,9.27072,65.0872
-70,645,9.16406,-65.5899,-0.00821207,0.00644382,-0.00231971,0.00680221,-0.00857046,-1.41751,0.00889497,0.0162563,1154,379,9.16406,65.5899
-63,645,9.10327,-66.0463,-0.00793944,0.0079344,-0.00278278,0.0084081,-0.00841314,-1.40219,0.00971175,0.0119951,1161,379,9.10325,66.0463
-56,645,9.04614,-66.487,-0.0074494,0.00875033,-0.00312533,0.00933237,-0.00803144,-1.38667,0.0100344,0.0146459,1168,379,9.04613,66.487
-49,645,8.98645,-66.9533,-0.006065,0.00970464,-0.00304079,0.0102707,-0.00663102,-1.38676,0.00983332,0.0131742,1175,379,8.98644,66.9533
-42,645,8.9032,-67.3419,-0.00462946,0.0109117,-0.00294676,0.0114517,-0.00516943,-1.38956,0.00982203,0.012315,1182,379,8.90314,67.3419
-35,645,8.8667,-67.7477,-0.00357856,0.0120085,-0.00286444,0.0125182,-0.00408829,-1.39469,0.00999107,0.0107089,1189,379,8.86666,67.7476
-28,645,8.80933,-68.1624,-0.00262948,0.0129111,-0.00272994,0.0133767,-0.00309508,-1.40187,0.0101087,0.0085664,1196,379,8.80929,68.1624
-21,645,8.7395,-68.4982,-0.00177076,0.0136863,-0.00258452,0.014107,-0.00219146,-1.40944,0.0102138,0.0105637,1203,379,8.73955,68.4982
-14,645,8.70288,-68.8293,-0.0010501,0.0143596,-0.00238636,0.0147207,-0.0014112,-1.42062,0.0103164,0.0103592,1210,379,8.70285,68.8293
-7,645,8.68298,-69.1406,-0.000521102,0.0151853,-0.00231187,0.0155185,-0.000854322,-1.42765,0.0106419,0.0141893,1217,379,8.68298,69.1406
0,645,8.67432,-69.356,-0.000157739,0.0158562,-0.00220233,0.0161536,-0.000455095,-1.43659,0.0109239,0.0282035,1224,379,8.67431,69.356
7,645,8.61658,-69.56,3.2454e-05,0.0164257,-0.00202653,0.0166725,-0.000214349,-1.44961,0.0111871,0.0192697,1231,379,8.61662,69.56
14,645,8.55676,-69.7549,-1.49133e-05,0.0167793,-0.00176584,0.016963,-0.000198577,-1.46716,0.0113754,0.0166328,1238,379,8.55681,69.7549
21,645,8.52173,-69.965,-0.000247338,0.017302,-0.0014763,0.0174253,-0.000370664,-1.48745,0.0117424,0.0105649,1245,379,8.5217,69.965
28,645,8.5166,-70.133,-0.000637076,0.0177259,-0.00132087,0.0178204,-0.0007316,-1.49936,0.0121315,0.00987689,1252,379,8.51663,70.133
35,645,8.48035,-70.2682,-0.00101673,0.0178718,-0.00131432,0.0179628,-0.00110774,-1.50166,0.012361,0.010031,1259,379,8.48036,70.2682
42,645,8.45703,-70.3676,-0.00183012,0.0178213,-0.000997528,0.0178718,-0.00188062,-1.52021,0.0125883,0.0102652,1266,379,8.45707,70.3676
49,645,8.47925,-70.4479,-0.00281645,0.0177032,-0.000705101,0.0177274,-0.00284066,-1.53649,0.0128701,0.0143543,1273,379,8.47928,70.4479
56,645,8.4574,-70.468,-0.00408613,0.017204,-0.00052847,0.0172171,-0.00409924,-1.54599,0.0130607,0.0142543,1280,379,8.4574,70.468
63,645,8.41479,-70.5038,-0.00520631,0.0166173,-0.000350866,0.0166229,-0.00521195,-1.55472,0.0131677,0.0138871,1287,379,8.41478,70.5038
70,645,8.33398,-70.481,-0.00653925,0.0155869,-0.000145924,0.0155878,-0.00654021,-1.5642,0.0131268,0.0176619,1294,379,8.33399,70.481
77,645,8.31372,-70.4709,-0.00799162,0.0146034,-2.92462e-08,0.0146034,-0.00799162,-1.5708,0.0132301,0.019181,1301,379,8.31372,70.4709
84,645,8.32947,-70.3947,-0.00949377,0.0138156,-3.25081e-05,0.0138156,-0.00949381,-1.5694,0.0135346,0.0138967,1308,379,8.32949,70.3946
91,645,8.27795,-70.3456,-0.0108555,0.0129695,5.10854e-06,0.0129695,-0.0108555,1.57058,0.0137734,0.0165338,1315,379,8.27792,70.3456
98,645,8.26294,-70.1985,-0.0121304,0.0123374,0.000288256,0.0123408,-0.0121338,1.55902,0.0141306,0.0147519,1322,379,8.26294,70.1985
105,645,8.23511,-70.0094,-0.013114,0.0121773,0.000522849,0.0121881,-0.0131248,1.55014,0.0146177,0.0112793,1329,379,8.23506,70.0094
112,645,8.16284,-69.8185,-0.0138236,0.0122854,0.000664827,0.0123023,-0.0138405,1.54535,0.0151022,0.00975026,1336,379,8.16289,69.8185
119,645,8.13672,-69.5816,-0.0142427,0.0126486,0.000813217,0.0126732,-0.0142672,1.54059,0.0155631,0.0095266,1343,379,8.13676,69.5816
126,645,8.10986,-69.3379,-0.0143453,0.0132046,0.00102751,0.0132428,-0.0143835,1.53357,0.0159546,0.0119181,1350,379,8.10981,69.3379
133,645,8.06689,-69.0903,-0.0142641,0.0140798,0.00147158,0.014156,-0.0143403,1.51906,0.0164525,0.0133135,1357,379,8.06684,69.0903
140,645,8.0365,-68.8091,-0.0137949,0.0153594,0.00204139,0.0155017,-0.0139372,1.50123,0.0170045,0.0127543,1364,379,8.03652,68.809
147,645,7.98926,-68.4694,-0.0128214,0.0167878,0.00232434,0.0169691,-0.0130028,1.49293,0.0173547,0.0140995,1371,379,7.98922,68.4694
154,645,7.95386,-68.1181,-0.0117905,0.0180626,0.0026544,0.0182968,-0.0120247,1.4828,0.0176305,0.0131044,1378,379,7.95391,68.1181
161,645,7.88025,-67.7692,-0.0106688,0.0192807,0.003157,0.0196098,-0.010998,1.46691,0.017903,0.0162667,1385,379,7.88023,67.7692
168,645,7.84143,-67.3614,-0.00988103,0.0197158,0.00365137,0.0201596,-0.0103248,1.44984,0.0179029,0.0190472,1392,379,7.84142,67.3614
175,645,7.83081,-66.913,-0.0088311,0.0202486,0.00418114,0.0208379,-0.00942033,1.43079,0.0178793,0.015661,1399,379,7.83086,66.913
182,645,7.75,-66.4603,-0.00781057,0.0203172,0.00481617,0.021119,-0.00861236,1.40583,0.0176644,0.0109879,1406,379,7.75002,66.4603
189,645,7.66675,-65.9497,-0.00655173,0.0193924,0.00558413,0.0205433,-0.00770258,1.36755,0.0168601,0.0117778,1413,379,7.66674,65.9497
196,645,7.59167,-65.4866,-0.00614774,0.0184811,0.00584093,0.0197961,-0.00746275,1.34935,0.016266,0.0130106,1420,379,7.59163,65.4866
203,645,7.5116,-64.9582,-0.00634737,0.0170251,0.00584022,0.0184032,-0.00772545,1.33907,0.0154996,0.013245,1427,379,7.51154,64.9582
210,645,7.48389,-64.2891,-0.00638097,0.0151975,0.00592706,0.0167183,-0.0079018,1.31962,0.014515,0.0232284,1434,379,7.48388,64.2891
217,645,7.474,-63.6246,0,0,0,0,0,0,0,-1,1441,379,7.47404,63.6246
224,645,7.33301,-63.2604,0,0,0,0,0,0,0,-1,1448,379,7.333,63.2604
231,645,7.19751,-62.6048,0,0,0,0,0,0,0,-1,1455,379,7.19751,62.6048
238,645,7.08655,-61.9584,0,0,0,0,0,0,0,-1,1462,379,7.08651,61.9584
245,645,7.10693,-61.0727,0,0,0,0,0,0,0,-1,1469,379,7.10688,61.0727
252,645,6.27942,-52.6305,0,0,0,0,0,0,0,-1,1476,379,6.27947,52.6305
259,645,6.5321,-54.0518,0,0,0,0,0,0,0,-1,1483,379,6.53211,54.0518
266,645,6.68542,-59.2814,0,0,0,0,0,0,0,-1,1490,379,6.68548,59.2814
273,645,6.63525,-58.6008,0,0,0,0,0,0,0,-1,1497,379,6.63521,58.6008
280,645,6.81909,-57.8789,0,0,0,0,0,0,0,-1,1504,379,6.81913,57.8789
287,645,7.07959,-56.7928,0,0,0,0,0,0,0,-1,1511,379,7.07954,56.7928
294,645,3.76428,-22.9539,0,0,0,0,0,0,0,-1,1518,379,3.7643,22.9539
301,645,2.74219,-23.503,0,0,0,0,0,0,0,-1,1525,379,2.74222,23.503
308,645,1.82227,-23.9479,0,0,0,0,0,0,0,-1,1532,379,1.82227,23.9479
315,645,0.990356,-24.8735,0,0,0,0,0,0,0,-1,1539,379,0.990376,24.8735
322,645,-0.256714,-24.7577,0,0,0,0,0,0,0,-1,1546,379,-0.256653,24.7577
329,645,-4.45581,-22.707,0,0,0,0,0,0,0,-1,1553,379,-4.45579,22.707
336,645,-5.83154,-22.8404,0,0,0,0,0,0,0,-1,1560,379,-5.83149,22.8404
343,645,4.03186,-38.0623,0,0,0,0,0,0,0,-1,1567,379,4.03187,38.0623
350,645,4.76404,-22.1987,0,0,0,0,0,0,0,-1,1574,379,4.76399,22.1987
357,645,4.61316,-21.967,0,0,0,0,0,0,0,-1,1581,379,4.61316,21.967
364,645,-0.0794678,-3.22021,0,0,0,0,0,0,0,-1,1588,379,-0.0794987,3.22021
371,645,0,0,0,0,0,0,0,0,0,-1,1595,379,0,0
378,645,0,0,0,0,0,0,0,0,0,-1,1602,379,0,0
385,645,0,0,0,0,0,0,0,0,0,-1,1609,379,0,0
392,645,0,0,0,0,0,0,0,0,0,-1,1616,379,0,0
399,645,0,0,0,0,0,0,0,0,0,-1,1623,379,0,0
406,645,0,0,0,0,0,0,0,0,0,-1,1630,379,0,0
413,645,0,0,0,0,0,0,0,0,0,-1,1637,379,0,0
420,645,0,0,0,0,0,0,0,0,0,-1,1644,379,0,0
427,645,0,0,0,0,0,0,0,0,0,-1,1651,379,0,0
434,645,0,0,0,0,0,0,0,0,0,-1,1658,379,0,0
441,645,0,0,0,0,0,0,0,0,0,-1,1665,379,0,0
448,645,0,0,0,0,0,0,0,0,0,-1,1672,379,0,0
455,645,0,0,0,0,0,0,0,0,0,-1,1679,379,0,0
462,645,0,0,0,0,0,0,0,0,0,-1,1686,379,0,0
469,645,0,0,0,0,0,0,0,0,0,-1,1693,379,0,0
476,645,0,0,0,0,0,0,0,0,0,-1,1700,379,0,0
483,645,0,0,0,0,0,0,0,0,0,-1,1707,379,0,0
490,645,0,0,0,0,0,0,0,0,0,-1,1714,379,0,0
497,645,0,0,0,0,0,0,0,0,0,-1,1721,379,0,0
504,645,0,0,0,0,0,0,0,0,0,-1,1728,379,0,0
511,645,0,0,0,0,0,0,0,0,0,-1,1735,379,0,0
518,645,0,0,0,0,0,0,0,0,0,-1,1742,379,0,0
525,645,0,0,0,0,0,0,0,0,0,-1,1749,379,0,0
532,645,0,0,0,0,0,0,0,0,0,-1,1756,379,0,0
539,645,0,0,0,0,0,0,0,0,0,-1,1763,379,0,0
546,645,0,0,0,0,0,0,0,0,0,-1,1770,379,0,0
553,645,0,0,0,0,0,0,0,0,0,-1,1777,379,0,0
560,645,0,0,0,0,0,0,0,0,0,-1,1784,379,0,0
567,645,0,0,0,0,0,0,0,0,0,-1,1791,379,0,0
574,645,0,0,0,0,0,0,0,0,0,-1,1798,379,0,0
581,645,0,0,0,0,0,0,0,0,0,-1,1805,379,0,0
588,645,0,0,0,0,0,0,0,0,0,-1,1812,379,0,0
595,645,0,0,0,0,0,0,0,0,0,-1,1819,379,0,0
602,645,0,0,0,0,0,0,0,0,0,-1,1826,379,0,0
609,645,0,0,0,0,0,0,0,0,0,-1,1833,379,0,0
616,645,0,0,0,0,0,0,0,0,0,-1,1840,379,0,0
623,645,0,0,0,0,0,0,0,0,0,-1,1847,379,0,0
630,645,0,0,0,0,0,0,0,0,0,-1,1854,379,0,0
637,645,0,0,0,0,0,0,0,0,0,-1,1861,379,0,0
644,645,0,0,0,0,0,0,0,0,0,-1,1868,379,0,0
651,645,0,0,0,0,0,0,0,0,0,-1,1875,379,0,0
658,645,0,0,0,0,0,0,0,0,0,-1,1882,379,0,0
665,645,0,0,0,0,0,0,0,0,0,-1,1889,379,0,0
672,645,0,0,0,0,0,0,0,0,0,-1,1896,379,0,0
679,645,0,0,0,0,0,0,0,0,0,-1,1903,379,0,0
686,645,0,0,0,0,0,0,0,0,0,-1,1910,379,0,0
693,645,0,0,0,0,0,0,0,0,0,-1,1917,379,0,0
700,645,0,0,0,0,0,0,0,0,0,-1,1924,379,0,0
707,645,0,0,0,0,0,0,0,0,0,-1,1931,379,0,0
714,645,0,0,0,0,0,0,0,0,0,-1,1938,379,0,0
721,645,0,0,0,0,0,0,0,0,0,-1,1945,379,0,0
728,645,0,0,0,0,0,0,0,0,0,-1,1952,379,0,0
735,645,0,0,0,0,0,0,0,0,0,-1,1959,379,0,0
742,645,0,0,0,0,0,0,0,0,0,-1,1966,379,0,0
749,645,0,0,0,0,0,0,0,0,0,-1,1973,379,0,0
756,645,0,0,0,0,0,0,0,0,0,-1,1980,379,0,0
763,645,0,0,0,0,0,0,0,0,0,-1,1987,379,0,0
770,645,0,0,0,0,0,0,0,0,0,-1,1994,379,0,0
777,645,0,0,0,0,0,0,0,0,0,-1,2001,379,0,0
784,645,0,0,0,0,0,0,0,0,0,-1,2008,379,0,0
791,645,0,0,0,0,0,0,0,0,0,-1,2015,379,0,0
798,645,0,0,0,0,0,0,0,0,0,-1,2022,379,0,0
805,645,0,0,0,0,0,0,0,0,0,-1,2029,379,0,0
812,645,0,0,0,0,0,0,0,0,0,-1,2036,379,0,0
-700,638,0,0,0,0,0,0,0,0,0,-1,524,386,0,0
-693,638,0,0,0,0,0,0,0,0,0,-1,531,386,0,0
-686,638,0,0,0,0,0,0,0,0,0,-1,538,386,0,0
-679,638,0,0,0,0,0,0,0,0,0,-1,545,386,0,0
-672,638,0,0,0,0,0,0,0,0,0,-1,552,386,0,0
-665,638,0,0,0,0,0,0,0,0,0,-1,559,386,0,0
-658,638,0,0,0,0,0,0,0,0,0,-1,566,386,0,0
-651,638,0,0,0,0,0,0,0,0,0,-1,573,386,0,0
-644,638,0,0,0,0,0,0,0,0,0,-1,580,386,0,0
-637,638,0,0,0,0,0,0,0,0,0,-1,587,386,0,0
-630,638,0,0,0,0,0,0,0,0,0,-1,594,386,0,0
-623,638,0,0,0,0,0,0,0,0,0,-1,601,386,0,0
-616,638,0,0,0,0,0,0,0,0,0,-1,608,386,0,0
-609,638,0,0,0,0,0,0,0,0,0,-1,615,386,0,0
-602,638,0,0,0,0,0,0,0,0,0,-1,622,386,0,0
-595,638,0,0,0,0,0,0,0,0,0,-1,629,386,0,0
-588,638,0,0,0,0,0,0,0,0,0,-1,636,386,0,0
-581,638,0,0,0,0,0,0,0,0,0,-1,643,386,0,0
-574,638,0,0,0,0,0,0,0,0,0,-1,650,386,0,0
-567,638,0,0,0,0,0,0,0,0,0,-1,657,386,0,0
-560,638,0,0,0,0,0,0,0,0,0,-1,664,386,0,0
-553,638,0,0,0,0,0,0,0,0,0,-1,671,386,0,0
-546,638,0,0,0,0,0,0,0,0,0,-1,678,386,0,0
-539,638,0,0,0,0,0,0,0,0,0,-1,685,386,0,0
-532,638,0,0,0,0,0,0,0,0,0,-1,692,386,0,0
-525,638,0,0,0,0,0,0,0,0,0,-1,699,386,0,0
-518,638,0,0,0,0,0,0,0,0,0,-1,706,386,0,0
-511,638,0,0,0,0,0,0,0,0,0,-1,713,386,0,0
-504,638,0,0,0,0,0,0,0,0,0,-1,720,386,0,0
-497,638,0,0,0,0,0,0,0,0,0,-1,727,386,0,0
-490,638,0,0,0,0,0,0,0,0,0,-1,734,386,0,0
-483,638,0,0,0,0,0,0,0,0,0,-1,741,386,0,0
-476,638,0,0,0,0,0,0,0,0,0,-1,748,386,0,0
-469,638,0,0,0,0,0,0,0,0,0,-1,755,386,0,0
-462,638,0,0,0,0,0,0,0,0,0,-1,762,386,0,0
-455,638,0,0,0,0,0,0,0,0,0,-1,769,386,0,0
-448,638,0,0,0,0,0,0,0,0,0,-1,776,386,0,0
-441,638,0,0,0,0,0,0,0,0,0,-1,783,386,0,0
-434,638,0,0,0,0,0,0,0,0,0,-1,790,386,0,0
-427,638,0,0,0,0,0,0,0,0,0,-1,797,386,0,0
-420,638,0,0,0,0,0,0,0,0,0,-1,804,386,0,0
-413,638,0,0,0,0,0,0,0,0,0,-1,811,386,0,0
-406,638,0,0,0,0,0,0,0,0,0,-1,818,386,0,0
-399,638,0,0,0,0,0,0,0,0,0,-1,825,386,0,0
-392,638,0,0,0,0,0,0,0,0,0,-1,832,386,0,0
-385,638,0,0,0,0,0,0,0,0,0,-1,839,386,0,0
-378,638,0,0,0,0,0,0,0,0,0,-1,846,386,0,0
-371,638,0,0,0,0,0,0,0,0,0,-1,853,386,0,0
-364,638,0,0,0,0,0,0,0,0,0,-1,860,386,0,0
-357,638,0,0,0,0,0,0,0,0,0,-1,867,386,0,0
-350,638,0,0,0,0,0,0,0,0,0,-1,874,386,0,0
-343,638,0,0,0,0,0,0,0,0,0,-1,881,386,0,0
-336,638,0,0,0,0,0,0,0,0,0,-1,888,386,0,0
-329,638,0,0,0,0,0,0,0,0,0,-1,895,386,0,0
-322,638,0,0,0,0,0,0,0,0,0,-1,902,386,0,0
-315,638,0,0,0,0,0,0,0,0,0,-1,909,386,0,0
-308,638,0,0,0,0,0,0,0,0,0,-1,916,386,0,0
-301,638,0,0,0,0,0,0,0,0,0,-1,923,386,0,0
-294,638,0,0,0,0,0,0,0,0,0,-1,930,386,0,0
-287,638,0,0,0,0,0,0,0,0,0,-1,937,386,0,0
-280,638,0,0,0,0,0,0,0,0,0,-1,944,386,0,0
-273,638,0,0,0,0,0,0,0,0,0,-1,951,386,0,0
-266,638,10.1613,-36.3326,0,0,0,0,0,0,0,-1,958,386,10.1612,36.3326
-259,638,9.95282,-34.6103,0,0,0,0,0,0,0,-1,965,386,9.9528,34.6103
-252,638,9.95746,-33.6964,0,0,0,0,0,0,0,-1,972,386,9.95744,33.6965
-245,638,9.84143,-32.9009,0,0,0,0,0,0,0,-1,979,386,9.84145,32.9009
-238,638,2.93518,-26.3649,0,0,0,0,0,0,0,-1,986,386,2.93516,26.3649
-231,638,2.36829,-26.0088,0,0,0,0,0,0,0,-1,993,386,2.3683,26.0088
-224,638,6.3465,-30.9124,0,0,0,0,0,0,0,-1,1000,386,6.34648,30.9124
-217,638,7.41205,-32.7263,0,0,0,0,0,0,0,-1,1007,386,7.41204,32.7262
-210,638,8.7038,-34.5688,0,0,0,0,0,0,0,-1,1014,386,8.70378,34.5689
-203,638,4.32593,-27.5803,0,0,0,0,0,0,0,-1,1021,386,4.32594,27.5803
-196,638,6.0614,-28.4651,0,0,0,0,0,0,0,-1,1028,386,6.06143,28.4651
-189,638,11.4561,-30.1556,0,0,0,0,0,0,0,-1,1035,386,11.456,30.1556
-182,638,6.45471,-33.4271,0,0,0,0,0,0,0,-1,1042,386,6.45473,33.427
-175,638,8.39648,-48.7238,0,0,0,0,0,0,0,-1,1049,386,8.39643,48.7238
-168,638,9.61011,-56.9337,0,0,0,0,0,0,0,-1,1056,386,9.61015,56.9337
-161,638,9.66711,-57.7087,0,0,0,0,0,0,0,-1,1063,386,9.66712,57.7088
-154,638,9.5083,-58.3098,0,0,0,0,0,0,0,-1,1070,386,9.50827,58.3097
-147,638,9.60205,-58.5404,0,0,0,0,0,0,0,-1,1077,386,9.60201,58.5405
-140,638,9.39648,-59.2939,0,0,0,0,0,0,0,-1,1084,386,9.39653,59.2939
-133,638,9.19104,-60.0474,0,0,0,0,0,0,0,-1,1091,386,9.19105,60.0474
-126,638,9.17615,-60.8593,-0.00591531,0.0091226,-0.00618889,0.0113421,-0.00813479,-1.22646,0.0112957,0.040663,1098,386,9.17612,60.8592
-119,638,9.10156,-61.5576,-0.00612507,0.00776671,-0.00532825,0.009575,-0.00793336,-1.24362,0.0101233,0.0404372,1105,386,9.10156,61.5576
-112,638,9.05566,-62.2246,-0.00610483,0.00674671,-0.00458069,0.00821228,-0.0075704,-1.26114,0.00911464,0.026695,1112,386,9.05564,62.2246
-105,638,9.00098,-62.8626,-0.00594834,0.00606511,-0.00407243,0.00731548,-0.00719871,-1.2729,0.00837986,0.0197715,1119,386,9.00093,62.8626
-98,638,8.92639,-63.4405,-0.00592606,0.00539949,-0.00350702,0.00639752,-0.00692408,-1.29355,0.00769323,0.0185576,1126,386,8.92643,63.4405
-91,638,8.83765,-64.0095,-0.00580993,0.00493674,-0.00301858,0.00572656,-0.00659976,-1.31488,0.00712255,0.0134573,1133,386,8.83767,64.0095
-84,638,8.7793,-64.5584,-0.00548449,0.00453242,-0.00261692,0.00517488,-0.00612696,-1.33005,0.00653283,0.0147402,1140,386,8.77927,64.5584
-77,638,8.71387,-65.0909,-0.00521808,0.00452365,-0.00227214,0.00502753,-0.00572196,-1.35256,0.00621054,0.0139337,1147,386,8.7139,65.0909
-70,638,8.65393,-65.5919,-0.00514778,0.00479283,-0.00198066,0.00517294,-0.00552789,-1.38119,0.00617926,0.0144714,1154,386,8.65392,65.5919
-63,638,8.62622,-66.0795,-0.00492985,0.00559111,-0.00218705,0.00602763,-0.00536637,-1.37379,0.00658202,0.0133325,1161,386,8.62626,66.0795
-56,638,8.6134,-66.5432,-0.00445194,0.00591611,-0.00223576,0.00637768,-0.0049135,-1.36721,0.00653721,0.0159334,1168,386,8.61339,66.5433
-49,638,8.5686,-66.983,-0.00371147,0.00618644,-0.00204713,0.00659313,-0.00411815,-1.37469,0.00623895,0.0140821,1175,386,8.56862,66.983
-42,638,8.51855,-67.3917,-0.00294142,0.00662224,-0.00182846,0.00695989,-0.00327908,-1.38819,0.00603746,0.0130442,1182,386,8.5185,67.3917
-35,638,8.4928,-67.7909,-0.00216148,0.00705125,-0.00164966,0.00733774,-0.00244796,-1.39885,0.00588019,0.0114063,1189,386,8.49284,67.7909
-28,638,8.46655,-68.1778,-0.0013109,0.00736299,-0.0014796,0.00760844,-0.00155635,-1.40641,0.00566282,0.0107151,1196,386,8.46655,68.1778
-21,638,8.42322,-68.5012,-0.000469071,0.00760628,-0.00134153,0.00782331,-0.000686102,-1.41041,0.00545863,0.0123167,1203,386,8.42317,68.5012
-14,638,8.39148,-68.8523,0.000372544,0.00782578,-0.00116536,0.00800374,0.000194583,-1.41926,0.00527216,0.0123524,1210,386,8.39146,68.8522
-7,638,8.39587,-69.1884,0.00112562,0.00804066,-0.00109538,0.00821002,0.000956252,-1.41739,0.00518408,0.0183921,1217,386,8.39593,69.1884
0,638,8.53345,-69.3173,0.00164081,0.00807367,-0.000998459,0.00822508,0.0014894,-1.4203,0.00506051,0.0365958,1224,386,8.53343,69.3173
7,638,8.42627,-69.5782,0.00191837,0.00814996,-0.000882545,0.00827254,0.00179579,-1.43279,0.00502456,0.027874,1231,386,8.42628,69.5781
14,638,8.34521,-69.8289,0.00200681,0.0080761,-0.000692648,0.00815414,0.00192876,-1.45859,0.00492083,0.013648,1238,386,8.34523,69.8288
21,638,8.35571,-70.0298,0.00189264,0.00812717,-0.000485104,0.00816469,0.00185512,-1.49361,0.0049422,0.0122978,1245,386,8.35576,70.0299
28,638,8.36145,-70.1766,0.00159849,0.00822031,-0.000318207,0.00823557,0.00158323,-1.52289,0.00504612,0.0104099,1252,386,8.36142,70.1766
35,638,8.36414,-70.2875,0.001107,0.0081028,-0.000278966,0.0081139,0.0010959,-1.531,0.0050835,0.0117999,1259,386,8.36416,70.2875
42,638,8.3905,-70.3936,0.000349983,0.00801206,-7.63911e-05,0.00801282,0.000349221,-1.56083,0.00522936,0.0109407,1266,386,8.3905,70.3936
49,638,8.41821,-70.4645,-0.00048557,0.00798279,0.000130001,0.00798479,-0.000487566,1.55545,0.00549293,0.00970419,1273,386,8.41817,70.4645
56,638,8.40613,-70.4948,-0.00141299,0.00816553,0.000322437,0.00817637,-0.00142383,1.53718,0.00598227,0.0126798,1280,386,8.40608,70.4948
63,638,8.36121,-70.5262,-0.00223254,0.00815527,0.000510951,0.00818035,-0.00225761,1.52177,0.0063415,0.0159442,1287,386,8.36127,70.5262
70,638,8.33289,-70.5348,-0.00309576,0.00798939,0.000619682,0.00802393,-0.00313029,1.51513,0.00664327,0.0204309,1294,386,8.33284,70.5348
77,638,8.39075,-70.4748,-0.00380838,0.00789502,0.00071191,0.00793816,-0.00385153,1.51026,0.00694175,0.0201514,1301,386,8.39078,70.4748
84,638,8.43494,-70.3975,-0.00440149,0.0078506,0.000652493,0.00788525,-0.00443614,1.51774,0.00720607,0.0145768,1308,386,8.43493,70.3975
91,638,8.43359,-70.3143,-0.00495543,0.00761689,0.000513087,0.0076378,-0.00497634,1.53008,0.00733661,0.0161546,1315,386,8.43359,70.3143
98,638,8.43213,-70.179,-0.00538195,0.00747569,0.000638277,0.0075073,-0.00541356,1.52132,0.00749244,0.0149252,1322,386,8.43208,70.179
105,638,8.39905,-70.0389,-0.00550706,0.00758324,0.000710433,0.00762169,-0.0055455,1.51674,0.00763352,0.0115191,1329,386,8.39903,70.0389
112,638,8.35974,-69.8568,-0.00549372,0.00759317,0.000725171,0.00763323,-0.00553378,1.51561,0.00763412,0.0106426,1336,386,8.35968,69.8568
119,638,8.36731,-69.6109,-0.00547514,0.00766431,0.000714784,0.00770308,-0.00551391,1.51661,0.00766565,0.0124713,1343,386,8.36736,69.6109
126,638,8.35608,-69.3565,-0.00537914,0.00785567,0.000731517,0.00789598,-0.00541945,1.51575,0.00773186,0.016669,1350,386,8.35612,69.3565
133,638,8.32544,-69.1207,-0.00525502,0.00821215,0.00087747,0.00826908,-0.00531195,1.50601,0.00790273,0.0184847,1357,386,8.32547,69.1207
140,638,8.33008,-68.8633,-0.00494486,0.00897681,0.00119042,0.00907786,-0.00504591,1.48611,0.00826438,0.0186907,1364,386,8.33004,68.8633
147,638,8.28735,-68.5419,-0.00450099,0.00981216,0.00131845,0.0099326,-0.00462142,1.4797,0.00858725,0.0197499,1371,386,8.28734,68.5419
154,638,8.26184,-68.1737,-0.00410869,0.0106473,0.00149466,0.0107972,-0.00425856,1.47086,0.00896153,0.017828,1378,386,8.26178,68.1737
161,638,8.24866,-67.7878,-0.00378509,0.0115285,0.00182223,0.0117423,-0.00399894,1.45398,0.00944766,0.0205409,1385,386,8.24871,67.7878
168,638,8.2677,-67.3642,-0.0037908,0.0121193,0.00222961,0.0124259,-0.00409734,1.43416,0.00993542,0.0259102,1392,386,8.26775,67.3642
175,638,8.27319,-66.9656,-0.00367282,0.0127127,0.00267136,0.0131373,-0.00409733,1.4132,0.0103967,0.0214793,1399,386,8.27319,66.9656
182,638,8.16699,-66.4973,-0.00361653,0.0130367,0.00316097,0.0136165,-0.00419633,1.38939,0.0107529,0.0139279,1406,386,8.16695,66.4973
189,638,8.10815,-65.9944,-0.00344487,0.012828,0.00375303,0.0136519,-0.00426873,1.35471,0.0108089,0.0116248,1413,386,8.10815,65.9945
196,638,8.06567,-65.5032,-0.00366737,0.0127753,0.00409982,0.0137409,-0.00463292,1.3395,0.011034,0.0149752,1420,386,8.06567,65.5032
203,638,8.01318,-65.0439,-0.00397655,0.0121833,0.00424663,0.0132313,-0.00502455,1.32885,0.0108892,0.0214934,1427,386,8.01321,65.0439
210,638,7.96533,-64.5105,-0.00417526,0.0113431,0.00445587,0.0125315,-0.00536368,1.31015,0.0106045,0.0174948,1434,386,7.96531,64.5105
217,638,7.93481,-63.9208,-0.00419766,0.0110001,0.0045689,0.0122679,-0.00546545,1.30012,0.0104864,0.0138843,1441,386,7.93484,63.9208
224,638,7.87793,-63.3012,-0.00403165,0.0113707,0.00470076,0.012692,-0.00535296,1.29678,0.0107017,0.012289,1448,386,7.87789,63.3012
231,638,7.76514,-62.6789,-0.0035311,0.0116897,0.00511514,0.013249,-0.00509037,1.27491,0.0109319,0.0127565,1455,386,7.76513,62.6789
238,638,7.68713,-62.0688,-0.00273917,0.0127984,0.00621091,0.014976,-0.0049167,1.23359,0.0119645,0.0175482,1462,386,7.68713,62.0688
245,638,7.6731,-61.386,-0.0022984,0.0138257,0.00692333,0.0163905,-0.00486316,1.21602,0.0128583,0.0383614,1469,386,7.67307,61.3861
252,638,7.68274,-60.4824,0,0,0,0,0,0,0,-1,1476,386,7.68273,60.4824
259,638,7.49768,-60.165,0,0,0,0,0,0,0,-1,1483,386,7.49773,60.1651
266,638,7.33606,-59.42,-0.000622062,0.016725,0.010081,0.0213502,-0.0052473,1.14064,0.0162672,0.0384038,1490,386,7.33608,59.42
273,638,7.31018,-58.7086,-0.000140985,0.0182563,0.0114753,0.0237647,-0.0056494,1.12326,0.0180238,0.0173137,1497,386,7.31016,58.7086
280,638,7.37524,-57.9583,0.000424017,0.0197689,0.0129174,0.0262339,-0.00604096,1.10676,0.0198123,0.0234282,1504,386,7.37525,57.9583
287,638,7.49194,-56.9373,0.000947842,0.0217587,0.0146467,0.0293198,-0.00661332,1.09424,0.0220836,0.0446149,1511,386,7.49188,56.9373
294,638,7.43726,-56.0332,0,0,0,0,0,0,0,-1,1518,386,7.43722,56.0332
301,638,6.77051,-54.9463,0,0,0,0,0,0,0,-1,1525,386,6.7705,54.9463
308,638,7.52539,-54.089,0,0,0,0,0,0,0,-1,1532,386,7.52535,54.089
315,638,3.3927,-28.2032,0,0,0,0,0,0,0,-1,1539,386,3.39269,28.2032
322,638,6.1698,-44.6835,0,0,0,0,0,0,0,-1,1546,386,6.16984,44.6835
329,638,6.06885,-44.2856,0,0,0,0,0,0,0,-1,1553,386,6.06881,44.2855
336,638,5.15234,-38.1966,0,0,0,0,0,0,0,-1,1560,386,5.15238,38.1966
343,638,4.8208,-37.2159,0,0,0,0,0,0,0,-1,1567,386,4.82078,37.2159
350,638,4.35254,-37.1565,0,0,0,0,0,0,0,-1,1574,386,4.35259,37.1565
357,638,0.387329,-3.01077,0,0,0,0,0,0,0,-1,1581,386,0.387332,3.01077
364,638,3.78149,-6.45215,0,0,0,0,0,0,0,-1,1588,386,3.78155,6.45216
371,638,4.18604,-6.71164,0,0,0,0,0,0,0,-1,1595,386,4.18598,6.71164
378,638,4.59045,-6.97113,0,0,0,0,0,0,0,-1,1602,386,4.5904,6.97112
385,638,0,0,0,0,0,0,0,0,0,-1,1609,386,0,0
392,638,0,0,0,0,0,0,0,0,0,-1,1616,386,0,0
399,638,0,0,0,0,0,0,0,0,0,-1,1623,386,0,0
406,638,0,0,0,0,0,0,0,0,0,-1,1630,386,0,0
413,638,0,0,0,0,0,0,0,0,0,-1,1637,386,0,0
420,638,0,0,0,0,0,0,0,0,0,-1,1644,386,0,0
427,638,0,0,0,0,0,0,0,0,0,-1,1651,386,0,0
434,638,0,0,0,0,0,0,0,0,0,-1,1658,386,0,0
441,638,0,0,0,0,0,0,0,0,0,-1,1665,386,0,0
448,638,0,0,0,0,0,0,0,0,0,-1,1672,386,0,0
455,638,0,0,0,0,0,0,0,0,0,-1,1679,386,0,0
462,638,0,0,0,0,0,0,0,0,0,-1,1686,386,0,0
469,638,0,0,0,0,0,0,0,0,0,-1,1693,386,0,0
476,638,0,0,0,0,0,0,0,0,0,-1,1700,386,0,0
483,638,0,0,0,0,0,0,0,0,0,-1,1707,386,0,0
490,638,0,0,0,0,0,0,0,0,0,-1,1714,386,0,0
497,638,0,0,0,0,0,0,0,0,0,-1,1721,386,0,0
504,638,0,0,0,0,0,0,0,0,0,-1,1728,386,0,0
511,638,0,0,0,0,0,0,0,0,0,-1,1735,386,0,0
518,638,0,0,0,0,0,0,0,0,0,-1,1742,386,0,0
525,638,0,0,0,0,0,0,0,0,0,-1,1749,386,0,0
532,638,0,0,0,0,0,0,0,0,0,-1,1756,386,0,0
539,638,0,0,0,0,0,0,0,0,0,-1,1763,386,0,0
546,638,0,0,0,0,0,0,0,0,0,-1,1770,386,0,0
553,638,0,0,0,0,0,0,0,0,0,-1,1777,386,0,0
560,638,0,0,0,0,0,0,0,0,0,-1,1784,386,0,0
567,638,0,0,0,0,0,0,0,0,0,-1,1791,386,0,0
574,638,0,0,0,0,0,0,0,0,0,-1,1798,386,0,0
581,638,0,0,0,0,0,0,0,0,0,-1,1805,386,0,0
588,638,0,0,0,0,0,0,0,0,0,-1,1812,386,0,0
595,638,0,0,0,0,0,0,0,0,0,-1,1819,386,0,0
602,638,0,0,0,0,0,0,0,0,0,-1,1826,386,0,0
609,638,0,0,0,0,0,0,0,0,0,-1,1833,386,0,0
616,638,0,0,0,0,0,0,0,0,0,-1,1840,386,0,0
623,638,0,0,0,0,0,0,0,0,0,-1,1847,386,0,0
630,638,0,0,0,0,0,0,0,0,0,-1,1854,386,0,0
637,638,0,0,0,0,0,0,0,0,0,-1,1861,386,0,0
644,638,0,0,0,0,0,0,0,0,0,-1,1868,386,0,0
651,638,0,0,0,0,0,0,0,0,0,-1,1875,386,0,0
658,638,0,0,0,0,0,0,0,0,0,-1,1882,386,0,0
665,638,0,0,0,0,0,0,0,0,0,-1,1889,386,0,0
672,638,0,0,0,0,0,0,0,0,0,-1,1896,386,0,0
679,638,0,0,0,0,0,0,0,0,0,-1,1903,386,0,0
686,638,0,0,0,0,0,0,0,0,0,-1,1910,386,0,0
693,638,0,0,0,0,0,0,0,0,0,-1,1917,386,0,0
700,638,0,0,0,0,0,0,0,0,0,-1,1924,386,0,0
707,638,0,0,0,0,0,0,0,0,0,-1,1931,386,0,0
714,638,0,0,0,0,0,0,0,0,0,-1,1938,386,0,0
721,638,0,0,0,0,0,0,0,0,0,-1,1945,386,0,0
728,638,0,0,0,0,0,0,0,0,0,-1,1952,386,0,0
735,638,0,0,0,0,0,0,0,0,0,-1,1959,386,0,0
742,638,0,0,0,0,0,0,0,0,0,-1,1966,386,0,0
749,638,0,0,0,0,0,0,0,0,0,-1,1973,386,0,0
756,638,0,0,0,0,0,0,0,0,0,-1,1980,386,0,0
763,638,0,0,0,0,0,0,0,0,0,-1,1987,386,0,0
770,638,0,0,0,0,0,0,0,0,0,-1,1994,386,0,0
777,638,0,0,0,0,0,0,0,0,0,-1,2001,386,0,0
784,638,0,0,0,0,0,0,0,0,0,-1,2008,386,0,0
791,638,0,0,0,0,0,0,0,0,0,-1,2015,386,0,0
798,638,0,0,0,0,0,0,0,0,0,-1,2022,386,0,0
805,638,0,0,0,0,0,0,0,0,0,-1,2029,386,0,0
812,638,0,0,0,0,0,0,0,0,0,-1,2036,386,0,0
-700,631,0,0,0,0,0,0,0,0,0,-1,524,393,0,0
-693,631,0,0,0,0,0,0,0,0,0,-1,531,393,0,0
-686,631,0,0,0,0,0,0,0,0,0,-1,538,393,0,0
-679,631,0,0,0,0,0,0,0,0,0,-1,545,393,0,0
-672,631,0,0,0,0,0,0,0,0,0,-1,552,393,0,0
-665,631,0,0,0,0,0,0,0,0,0,-1,559,393,0,0
-658,631,0,0,0,0,0,0,0,0,0,-1,566,393,0,0
-651,631,0,0,0,0,0,0,0,0,0,-1,573,393,0,0
-644,631,0,0,0,0,0,0,0,0,0,-1,580,393,0,0
-637,631,0,0,0,0,0,0,0,0,0,-1,587,393,0,0
-630,631,0,0,0,0,0,0,0,0,0,-1,594,393,0,0
-623,631,0,0,0,0,0,0,0,0,0,-1,601,393,0,0
-616,631,0,0,0,0,0,0,0,0,0,-1,608,393,0,0
-609,631,0,0,0,0,0,0,0,0,0,-1,615,393,0,0
-602,631,0,0,0,0,0,0,0,0,0,-1,622,393,0,0
-595,631,0,0,0,0,0,0,0,0,0,-1,629,393,0,0
-588,631,0,0,0,0,0,0,0,0,0,-1,636,393,0,0
-581,631,0,0,0,0,0,0,0,0,0,-1,643,393,0,0
-574,631,0,0,0,0,0,0,0,0,0,-1,650,393,0,0
-567,631,0,0,0,0,0,0,0,0,0,-1,657,393,0,0
-560,631,0,0,0,0,0,0,0,0,0,-1,664,393,0,0
-553,631,0,0,0,0,0,0,0,0,0,-1,671,393,0,0
-546,631,0,0,0,0,0,0,0,0,0,-1,678,393,0,0
-539,631,0,0,0,0,0,0,0,0,0,-1,685,393,0,0
-532,631,0,0,0,0,0,0,0,0,0,-1,692,393,0,0
-525,631,0,0,0,0,0,0,0,0,0,-1,699,393,0,0
-518,631,0,0,0,0,0,0,0,0,0,-1,706,393,0,0
-511,631,0,0,0,0,0,0,0,0,0,-1,713,393,0,0
-504,631,0,0,0,0,0,0,0,0,0,-1,720,393,0,0
-497,631,0,0,0,0,0,0,0,0,0,-1,727,393,0,0
-490,631,0,0,0,0,0,0,0,0,0,-1,734,393,0,0
-483,631,0,0,0,0,0,0,0,0,0,-1,741,393,0,0
-476,631,0,0,0,0,0,0,0,0,0,-1,748,393,0,0
-469,631,0,0,0,0,0,0,0,0,0,-1,755,393,0,0
-462,631,0,0,0,0,0,0,0,0,0,-1,762,393,0,0
-455,631,0,0,0,0,0,0,0,0,0,-1,769,393,0,0
-448,631,0,0,0,0,0,0,0,0,0,-1,776,393,0,0
-441,631,0,0,0,0,0,0,0,0,0,-1,783,393,0,0
-434,631,0,0,0,0,0,0,0,0,0,-1,790,393,0,0
-427,631,0,0,0,0,0,0,0,0,0,-1,797,393,0,0
-420,631,0,0,0,0,0,0,0,0,0,-1,804,393,0,0
-413,631,0,0,0,0,0,0,0,0,0,-1,811,393,0,0
-406,631,0,0,0,0,0,0,0,0,0,-1,818,393,0,0
-399,631,0,0,0,0,0,0,0,0,0,-1,825,393,0,0
-392,631,0,0,0,0,0,0,0,0,0,-1,832,393,0,0
-385,631,0,0,0,0,0,0,0,0,0,-1,839,393,0,0
-378,631,0,0,0,0,0,0,0,0,0,-1,846,393,0,0
-371,631,0,0,0,0,0,0,0,0,0,-1,853,393,0,0
-364,631,0,0,0,0,0,0,0,0,0,-1,860,393,0,0
-357,631,0,0,0,0,0,0,0,0,0,-1,867,393,0,0
-350,631,0,0,0,0,0,0,0,0,0,-1,874,393,0,0
-343,631,0,0,0,0,0,0,0,0,0,-1,881,393,0,0
-336,631,0,0,0,0,0,0,0,0,0,-1,888,393,0,0
-329,631,0,0,0,0,0,0,0,0,0,-1,895,393,0,0
-322,631,0,0,0,0,0,0,0,0,0,-1,902,393,0,0
-315,631,0,0,0,0,0,0,0,0,0,-1,909,393,0,0
-308,631,0,0,0,0,0,0,0,0,0,-1,916,393,0,0
-301,631,0,0,0,0,0,0,0,0,0,-1,923,393,0,0
-294,631,0,0,0,0,0,0,0,0,0,-1,930,393,0,0
-287,631,0,0,0,0,0,0,0,0,0,-1,937,393,0,0
-280,631,7.71283,-34.969,0,0,0,0,0,0,0,-1,944,393,7.71282,34.969
-273,631,8.04437,-34.934,0,0,0,0,0,0,0,-1,951,393,8.04436,34.9339
-266,631,8.40277,-34.7584,0,0,0,0,0,0,0,-1,958,393,8.40275,34.7584
-259,631,8.56659,-34.037,0,0,0,0,0,0,0,-1,965,393,8.56662,34.037
-252,631,8.44446,-33.2643,0,0,0,0,0,0,0,-1,972,393,8.44445,33.2644
-245,631,8.34705,-32.527,0,0,0,0,0,0,0,-1,979,393,8.34704,32.527
-238,631,8.41888,-31.8855,0,0,0,0,0,0,0,-1,986,393,8.41887,31.8855
-231,631,2.14966,-25.2306,0,0,0,0,0,0,0,-1,993,393,2.14968,25.2306
-224,631,6.83575,-19.7909,0,0,0,0,0,0,0,-1,1000,393,6.83575,19.7909
-217,631,5.05188,-18.3867,0,0,0,0,0,0,0,-1,1007,393,5.0519,18.3866
-210,631,3.37842,-26.3769,0,0,0,0,0,0,0,-1,1014,393,3.37839,26.3769
-203,631,8.59509,-47.1953,0,0,0,0,0,0,0,-1,1021,393,8.5951,47.1954
-196,631,8.51001,-47.9163,0,0,0,0,0,0,0,-1,1028,393,8.50997,47.9163
-189,631,6.57983,-42.4494,0,0,0,0,0,0,0,-1,1035,393,6.57983,42.4494
-182,631,8.0531,-47.8031,0,0,0,0,0,0,0,-1,1042,393,8.05311,47.8031
-175,631,8.95801,-55.5633,0,0,0,0,0,0,0,-1,1049,393,8.95805,55.5633
-168,631,9.02478,-56.6645,-0.00438922,0.014799,-0.0100601,0.0191064,-0.00869666,-1.16624,0.0164229,0.0462208,1056,393,9.02477,56.6645
-161,631,8.9751,-57.5169,-0.00438962,0.0131378,-0.0090444,0.0169679,-0.00821971,-1.17022,0.0148315,0.025548,1063,393,8.97514,57.5169
-154,631,8.8783,-58.2935,-0.00421963,0.0116179,-0.00811639,0.0150385,-0.00764029,-1.17194,0.0133238,0.0223214,1070,393,8.8783,58.2935
-147,631,8.81665,-58.9841,-0.00425904,0.0102462,-0.00714874,0.0131771,-0.00718999,-1.1817,0.0119271,0.0181342,1077,393,8.8167,58.9841
-140,631,8.74316,-59.6591,-0.00422216,0.00896046,-0.00637473,0.0115388,-0.00680051,-1.18645,0.0107054,0.0115687,1084,393,8.74319,59.6591
-133,631,8.64758,-60.3372,-0.00408981,0.00797555,-0.00567766,0.0102271,-0.0063414,-1.19325,0.00965314,0.00867097,1091,393,8.64762,60.3371
-126,631,8.5918,-60.9992,-0.00406374,0.0070442,-0.00494795,0.00892857,-0.00594811,-1.20692,0.00864632,0.0131141,1098,393,8.59184,60.9992
-119,631,8.53455,-61.6272,-0.00405815,0.00595505,-0.00423169,0.00750384,-0.00560695,-1.21994,0.00759588,0.0168554,1105,393,8.53451,61.6272
-112,631,8.47766,-62.2544,-0.00387068,0.00513816,-0.00362724,0.00641705,-0.00514957,-1.23183,0.00669134,0.0159912,1112,393,8.47769,62.2544
-105,631,8.46948,-62.8654,-0.00359442,0.00458551,-0.00322783,0.00570579,-0.0047147,-1.23673,0.00602534,0.0217547,1119,393,8.46944,62.8654
-98,631,8.41931,-63.4447,-0.00340942,0.00407475,-0.0028173,0.00501672,-0.00435139,-1.24813,0.00541323,0.0190697,1126,393,8.41928,63.4447
-91,631,8.35913,-64.0021,-0.00316423,0.00371336,-0.00245024,0.004497,-0.00394787,-1.26125,0.00487908,0.0191078,1133,393,8.35907,64.0021
-84,631,8.31152,-64.5718,-0.0027728,0.00337314,-0.00211615,0.00403129,-0.00343094,-1.26927,0.00431297,0.018003,1140,393,8.31149,64.5718
-77,631,8.22546,-65.095,-0.00240559,0.00322792,-0.00181443,0.00376173,-0.0029394,-1.28467,0.00387859,0.0137061,1147,393,8.22551,65.095
-70,631,8.18005,-65.587,-0.00213523,0.00316471,-0.00152968,0.00357452,-0.00254504,-1.30904,0.00354976,0.0161908,1154,393,8.18002,65.587
-63,631,8.17798,-66.1053,-0.00174231,0.00326476,-0.00143369,0.00364621,-0.00212376,-1.31076,0.00336973,0.0150721,1161,393,8.17801,66.1053
-56,631,8.16248,-66.6055,-0.00123711,0.00311645,-0.00124534,0.00344751,-0.00156816,-1.31097,0.00296278,0.0151439,1168,393,8.16251,66.6055
-49,631,8.1438,-67.0083,-0.00070003,0.00289229,-0.000947127,0.00312671,-0.000934446,-1.32817,0.00245594,0.0118724,1175,393,8.14374,67.0083
-42,631,8.13379,-67.4221,1.49057e-05,0.00267049,-0.000673495,0.00283153,-0.000146137,-1.33609,0.00193824,0.00975279,1182,393,8.13373,67.4222
-35,631,8.11938,-67.8069,0.000885943,0.00240609,-0.000440987,0.00252476,0.000767278,-1.30793,0.00149457,0.0108164,1189,393,8.11938,67.8069
-28,631,8.12122,-68.1803,0.00175458,0.00215946,-0.000262979,0.00228889,0.00162514,-1.11343,0.00135979,0.0139556,1196,393,8.12116,68.1803
-21,631,8.0979,-68.5226,0.0026605,0.0018503,-0.000224093,0.00271835,0.00179245,-0.252642,0.0015958,0.0119539,1203,393,8.09784,68.5226
-14,631,8.07178,-68.8573,0.00371025,0.00151272,-0.000129481,0.00371785,0.00150512,-0.0586509,0.00215942,0.0144598,1210,393,8.07176,68.8573
-7,631,8.11169,-69.1705,0.00460424,0.00106082,-0.000169134,0.00461229,0.00105276,-0.0475877,0.00279093,0.0240208,1217,393,8.11168,69.1705
0,631,8.12683,-69.4048,0.00507432,0.000338273,-0.000223093,0.0050848,0.000327787,-0.0469668,0.00328606,0.0294206,1224,393,8.12689,69.4048
7,631,8.12549,-69.6315,0.00517991,-9.55163e-05,-0.000292049,0.00519603,-0.000111635,-0.0551357,0.00350183,0.0225104,1231,393,8.12546,69.6315
14,631,8.16382,-69.8713,0.00505948,-0.000550098,-0.000241869,0.00506989,-0.000560508,-0.0430107,0.00358141,0.0116319,1238,393,8.16386,69.8713
21,631,8.17932,-70.0428,0.00480025,-0.000911343,-0.000185051,0.00480624,-0.000917332,-0.0323539,0.00354967,0.0155085,1245,393,8.17931,70.0428
28,631,8.17603,-70.1463,0.00403507,-0.00119118,-7.57173e-05,0.00403617,-0.00119228,-0.0144838,0.00316399,0.01751,1252,393,8.17603,70.1463
35,631,8.24805,-70.2708,0.00293615,-0.00159359,-2.09898e-05,0.00293625,-0.00159368,-0.00463364,0.00265337,0.0159496,1259,393,8.24804,70.2708
42,631,8.31274,-70.3902,0.00177622,-0.00171855,0.000119753,0.00178032,-0.00172265,0.0342129,0.00202253,0.0135037,1266,393,8.31269,70.3902
49,631,8.33093,-70.4754,0.000434935,-0.00169791,0.000359501,0.000493901,-0.00175688,0.162572,0.00136598,0.0120471,1273,393,8.33088,70.4754
56,631,8.36877,-70.5428,-0.000886019,-0.00086148,0.000806032,-6.76246e-05,-0.00167987,0.793009,0.00109807,0.0146364,1280,393,8.36879,70.5428
63,631,8.36096,-70.5785,-0.00209928,-0.000208906,0.00134007,0.000485771,-0.00279396,1.09255,0.0020439,0.0180266,1287,393,8.36096,70.5785
70,631,8.36414,-70.5546,-0.00313201,0.0004428,0.00169255,0.00111701,-0.00380622,1.19172,0.00298043,0.0181968,1294,393,8.36419,70.5546
77,631,8.43494,-70.4951,-0.00363837,0.00120065,0.00203918,0.00194537,-0.00438308,1.22064,0.003743,0.0181388,1301,393,8.43495,70.4951
84,631,8.48718,-70.424,-0.00378753,0.00192926,0.00228826,0.00273236,-0.00459063,1.23326,0.00427307,0.0143651,1308,393,8.48723,70.424
91,631,8.51685,-70.3172,-0.00392068,0.00246207,0.00229432,0.00320118,-0.0046598,1.25914,0.00456451,0.0174262,1315,393,8.51683,70.3172
98,631,8.55676,-70.1862,-0.00369559,0.00293992,0.00243209,0.00373587,-0.00449154,1.25451,0.00475677,0.0152474,1322,393,8.55671,70.1863
105,631,8.53076,-70.0336,-0.00309932,0.00355376,0.00249944,0.00438812,-0.00393368,1.24861,0.00480698,0.0126881,1329,393,8.53082,70.0336
112,631,8.54382,-69.8622,-0.00225324,0.00362934,0.00242482,0.0045,-0.00312389,1.22607,0.00442549,0.0126324,1336,393,8.5438,69.8622
119,631,8.56653,-69.6633,-0.00148528,0.00354353,0.00216373,0.00434635,-0.0022881,1.21551,0.00389136,0.0133501,1343,393,8.56649,69.6633
126,631,8.5697,-69.3981,-0.000929177,0.00350423,0.00186875,0.00418684,-0.00161179,1.22058,0.00345612,0.0191078,1350,393,8.5697,69.3981
133,631,8.57874,-69.1447,-0.000269335,0.00356836,0.00157372,0.00413116,-0.000832136,1.22735,0.00306932,0.0210296,1357,393,8.5787,69.1446
140,631,8.61121,-68.8966,0.000292274,0.0039157,0.00142338,0.00440796,-0.00019999,1.23783,0.00300752,0.0219195,1364,393,8.61125,68.8966
147,631,8.59351,-68.5403,0.000518806,0.00410561,0.00117836,0.00445809,0.000166323,1.28014,0.0029182,0.0246117,1371,393,8.59348,68.5403
154,631,8.59143,-68.1487,0.000723409,0.00447234,0.000970248,0.00470856,0.000487186,1.33198,0.00298991,0.0229514,1378,393,8.5914,68.1487
161,631,8.65332,-67.7849,0.000750217,0.00471163,0.0008371,0.00488126,0.00058059,1.37087,0.00307894,0.0246861,1385,393,8.65329,67.785
168,631,8.69702,-67.3397,0.000490999,0.0053816,0.000926499,0.00555124,0.000321362,1.38971,0.00359849,0.0291357,1392,393,8.697,67.3397
175,631,8.65991,-66.929,0.000130528,0.00613282,0.0012313,0.00637559,-0.000112241,1.37613,0.0042883,0.0222822,1399,393,8.65993,66.929
182,631,8.59875,-66.5242,-0.000337299,0.00676946,0.00159363,0.00711045,-0.000678296,1.36,0.00498182,0.0118275,1406,393,8.59873,66.5242
189,631,8.55786,-66.0241,-0.000765386,0.00722656,0.00204856,0.00772106,-0.00125989,1.33394,0.00561465,0.0106852,1413,393,8.55786,66.0241
196,631,8.51941,-65.5277,-0.00115111,0.00771173,0.00244291,0.00834048,-0.00177986,1.31889,0.00623881,0.0123979,1420,393,8.51942,65.5277
203,631,8.52991,-65.0318,-0.00155585,0.0078309,0.00270708,0.00855564,-0.0022806,1.30921,0.0065967,0.0146754,1427,393,8.52987,65.0318
210,631,8.50757,-64.5244,-0.00193049,0.00773036,0.00300414,0.00858833,-0.00278846,1.29261,0.006847,0.0164591,1434,393,8.5076,64.5244
217,631,8.47974,-63.9872,-0.00217244,0.00783584,0.00321731,0.00878086,-0.00311746,1.2851,0.00712417,0.0184599,1441,393,8.47973,63.9872
224,631,8.42261,-63.3864,-0.00223382,0.00827556,0.00342579,0.00929365,-0.00325191,1.28192,0.00751795,0.015265,1448,393,8.42259,63.3864
231,631,8.34387,-62.7683,-0.00201846,0.00864317,0.00383843,0.0098813,-0.00325659,1.25877,0.00790007,0.012138,1455,393,8.34388,62.7684
238,631,8.28381,-62.0982,-0.00159621,0.00954386,0.00470479,0.0112649,-0.00331729,1.2201,0.00882603,0.0180276,1462,393,8.28378,62.0982
245,631,8.2533,-61.4831,-0.00142901,0.0103857,0.00529539,0.0124117,-0.003455,1.20538,0.00963488,0.019154,1469,393,8.25325,61.4831
252,631,8.17883,-60.8675,-0.00119796,0.0111327,0.00603838,0.0135972,-0.00366243,1.1833,0.0105007,0.0192649,1476,393,8.17887,60.8675
259,631,8.12805,-60.186,-0.000949,0.0119905,0.00689816,0.0149781,-0.00393665,1.16208,0.011524,0.0147584,1483,393,8.1281,60.186
266,631,8.05347,-59.507,-0.00074046,0.0128325,0.00782359,0.0164029,-0.00431085,1.14266,0.0126201,0.0127124,1490,393,8.0535,59.507
273,631,7.9989,-58.8033,-0.000573469,0.0140487,0.00888059,0.0182405,-0.00476529,1.12978,0.0140213,0.0151075,1497,393,7.99891,58.8032
280,631,7.94861,-58.0212,-0.0003273,0.015225,0.00998046,0.020101,-0.00520335,1.11634,0.0154304,0.0143951,1504,393,7.94864,58.0212
287,631,7.86731,-57.2595,-6.86145e-05,0.0167891,0.0113025,0.0224597,-0.00573916,1.10579,0.0172082,0.0162103,1511,393,7.86729,57.2595
294,631,7.75574,-56.4223,-4.20816e-05,0.0182244,0.0125029,0.0245746,-0.00639231,1.10085,0.0188781,0.0210897,1518,393,7.75577,56.4223
301,631,7.8335,-55.309,0,0,0,0,0,0,0,-1,1525,393,7.8335,55.309
308,631,7.97131,-54.4692,0,0,0,0,0,0,0,-1,1532,393,7.97134,54.4692
315,631,8.10913,-53.6295,0,0,0,0,0,0,0,-1,1539,393,8.10917,53.6295
322,631,7.62439,-53.4194,0,0,0,0,0,0,0,-1,1546,393,7.62441,53.4194
329,631,5.70972,-38.2651,0,0,0,0,0,0,0,-1,1553,393,5.70967,38.2651
336,631,5.38281,-39.6306,0,0,0,0,0,0,0,-1,1560,393,5.38277,39.6306
343,631,6.21558,-38.7278,0,0,0,0,0,0,0,-1,1567,393,6.21558,38.7278
350,631,5.18359,-35.9677,0,0,0,0,0,0,0,-1,1574,393,5.18355,35.9677
357,631,2.6449,-9.60303,0,0,0,0,0,0,0,-1,1581,393,2.64491,9.60304
364,631,3.39136,-5.7594,0,0,0,0,0,0,0,-1,1588,393,3.39137,5.75939
371,631,3.72839,-6.0574,0,0,0,0,0,0,0,-1,1595,393,3.72845,6.05742
378,631,4.06555,-6.35544,0,0,0,0,0,0,0,-1,1602,393,4.06553,6.35544
385,631,3.90442,-3.58298,0,0,0,0,0,0,0,-1,1609,393,3.90437,3.58299
392,631,0.352295,-2.21301,0,0,0,0,0,0,0,-1,1616,393,0.352345,2.213
399,631,0,0,0,0,0,0,0,0,0,-1,1623,393,0,0
406,631,0,0,0,0,0,0,0,0,0,-1,1630,393,0,0
413,631,0,0,0,0,0,0,0,0,0,-1,1637,393,0,0
420,631,0,0,0,0,0,0,0,0,0,-1,1644,393,0,0
427,631,0,0,0,0,0,0,0,0,0,-1,1651,393,0,0
434,631,0,0,0,0,0,0,0,0,0,-1,1658,393,0,0
441,631,0,0,0,0,0,0,0,0,0,-1,1665,393,0,0
448,631,0,0,0,0,0,0,0,0,0,-1,1672,393,0,0
455,631,0,0,0,0,0,0,0,0,0,-1,1679,393,0,0
462,631,0,0,0,0,0,0,0,0,0,-1,1686,393,0,0
469,631,0,0,0,0,0,0,0,0,0,-1,1693,393,0,0
476,631,0,0,0,0,0,0,0,0,0,-1,1700,393,0,0
483,631,0,0,0,0,0,0,0,0,0,-1,1707,393,0,0
490,631,0,0,0,0,0,0,0,0,0,-1,1714,393,0,0
497,631,0,0,0,0,0,0,0,0,0,-1,1721,393,0,0
504,631,0,0,0,0,0,0,0,0,0,-1,1728,393,0,0
511,631,0,0,0,0,0,0,0,0,0,-1,1735,393,0,0
518,631,0,0,0,0,0,0,0,0,0,-1,1742,393,0,0
525,631,0,0,0,0,0,0,0,0,0,-1,1749,393,0,0
532,631,0,0,0,0,0,0,0,0,0,-1,1756,393,0,0
539,631,0,0,0,0,0,0,0,0,0,-1,1763,393,0,0
546,631,0,0,0,0,0,0,0,0,0,-1,1770,393,0,0
553,631,0,0,0,0,0,0,0,0,0,-1,1777,393,0,0
560,631,0,0,0,0,0,0,0,0,0,-1,1784,393,0,0
567,631,0,0,0,0,0,0,0,0,0,-1,1791,393,0,0
574,631,0,0,0,0,0,0,0,0,0,-1,1798,393,0,0
581,631,0,0,0,0,0,0,0,0,0,-1,1805,393,0,0
588,631,0,0,0,0,0,0,0,0,0,-1,1812,393,0,0
595,631,0,0,0,0,0,0,0,0,0,-1,1819,393,0,0
602,631,0,0,0,0,0,0,0,0,0,-1,1826,393,0,0
609,631,0,0,0,0,0,0,0,0,0,-1,1833,393,0,0
616,631,0,0,0,0,0,0,0,0,0,-1,1840,393,0,0
623,631,0,0,0,0,0,0,0,0,0,-1,1847,393,0,0
630,631,0,0,0,0,0,0,0,0,0,-1,1854,393,0,0
637,631,0,0,0,0,0,0,0,0,0,-1,1861,393,0,0
644,631,0,0,0,0,0,0,0,0,0,-1,1868,393,0,0
651,631,0,0,0,0,0,0,0,0,0,-1,1875,393,0,0
658,631,0,0,0,0,0,0,0,0,0,-1,1882,393,0,0
665,631,0,0,0,0,0,0,0,0,0,-1,1889,393,0,0
672,631,0,0,0,0,0,0,0,0,0,-1,1896,393,0,0
679,631,0,0,0,0,0,0,0,0,0,-1,1903,393,0,0
686,631,0,0,0,0,0,0,0,0,0,-1,1910,393,0,0
693,631,0,0,0,0,0,0,0,0,0,-1,1917,393,0,0
700,631,0,0,0,0,0,0,0,0,0,-1,1924,393,0,0
707,631,0,0,0,0,0,0,0,0,0,-1,1931,393,0,0
714,631,0,0,0,0,0,0,0,0,0,-1,1938,393,0,0
721,631,0,0,0,0,0,0,0,0,0,-1,1945,393,0,0
728,631,0,0,0,0,0,0,0,0,0,-1,1952,393,0,0
735,631,0,0,0,0,0,0,0,0,0,-1,1959,393,0,0
742,631,0,0,0,0,0,0,0,0,0,-1,1966,393,0,0
749,631,0,0,0,0,0,0,0,0,0,-1,1973,393,0,0
756,631,0,0,0,0,0,0,0,0,0,-1,1980,393,0,0
763,631,0,0,0,0,0,0,0,0,0,-1,1987,393,0,0
770,631,0,0,0,0,0,0,0,0,0,-1,1994,393,0,0
777,631,0,0,0,0,0,0,0,0,0,-1,2001,393,0,0
784,631,0,0,0,0,0,0,0,0,0,-1,2008,393,0,0
791,631,0,0,0,0,0,0,0,0,0,-1,2015,393,0,0
798,631,0,0,0,0,0,0,0,0,0,-1,2022,393,0,0
805,631,0,0,0,0,0,0,0,0,0,-1,2029,393,0,0
812,631,0,0,0,0,0,0,0,0,0,-1,2036,393,0,0
-700,624,0,0,0,0,0,0,0,0,0,-1,524,400,0,0
-693,624,0,0,0,0,0,0,0,0,0,-1,531,400,0,0
-686,624,0,0,0,0,0,0,0,0,0,-1,538,400,0,0
-679,624,0,0,0,0,0,0,0,0,0,-1,545,400,0,0
-672,624,0,0,0,0,0,0,0,0,0,-1,552,400,0,0
-665,624,0,0,0,0,0,0,0,0,0,-1,559,400,0,0
-658,624,0,0,0,0,0,0,0,0,0,-1,566,400,0,0
-651,624,0,0,0,0,0,0,0,0,0,-1,573,400,0,0
-644,624,0,0,0,0,0,0,0,0,0,-1,580,400,0,0
-637,624,0,0,0,0,0,0,0,0,0,-1,587,400,0,0
-630,624,0,0,0,0,0,0,0,0,0,-1,594,400,0,0
-623,624,0,0,0,0,0,0,0,0,0,-1,601,400,0,0
-616,624,0,0,0,0,0,0,0,0,0,-1,608,400,0,0
-609,624,0,0,0,0,0,0,0,0,0,-1,615,400,0,0
-602,624,0,0,0,0,0,0,0,0,0,-1,622,400,0,0
-595,624,0,0,0,0,0,0,0,0,0,-1,629,400,0,0
-588,624,0,0,0,0,0,0,0,0,0,-1,636,400,0,0
-581,624,0,0,0,0,0,0,0,0,0,-1,643,400,0,0
-574,624,0,0,0,0,0,0,0,0,0,-1,650,400,0,0
-567,624,0,0,0,0,0,0,0,0,0,-1,657,400,0,0
-560,624,0,0,0,0,0,0,0,0,0,-1,664,400,0,0
-553,624,0,0,0,0,0,0,0,0,0,-1,671,400,0,0
-546,624,0,0,0,0,0,0,0,0,0,-1,678,400,0,0
-539,624,0,0,0,0,0,0,0,0,0,-1,685,400,0,0
-532,624,0,0,0,0,0,0,0,0,0,-1,692,400,0,0
-525,624,0,0,0,0,0,0,0,0,0,-1,699,400,0,0
-518,624,0,0,0,0,0,0,0,0,0,-1,706,400,0,0
-511,624,0,0,0,0,0,0,0,0,0,-1,713,400,0,0
-504,624,0,0,0,0,0,0,0,0,0,-1,720,400,0,0
-497,624,0,0,0,0,0,0,0,0,0,-1,727,400,0,0
-490,624,0,0,0,0,0,0,0,0,0,-1,734,400,0,0
-483,624,0,0,0,0,0,0,0,0,0,-1,741,400,0,0
-476,624,0,0,0,0,0,0,0,0,0,-1,748,400,0,0
-469,624,0,0,0,0,0,0,0,0,0,-1,755,400,0,0
-462,624,0,0,0,0,0,0,0,0,0,-1,762,400,0,0
-455,624,0,0,0,0,0,0,0,0,0,-1,769,400,0,0
-448,624,0,0,0,0,0,0,0,0,0,-1,776,400,0,0
-441,624,0,0,0,0,0,0,0,0,0,-1,783,400,0,0
-434,624,0,0,0,0,0,0,0,0,0,-1,790,400,0,0
-427,624,0,0,0,0,0,0,0,0,0,-1,797,400,0,0
-420,624,0,0,0,0,0,0,0,0,0,-1,804,400,0,0
-413,624,0,0,0,0,0,0,0,0,0,-1,811,400,0,0
-406,624,0,0,0,0,0,0,0,0,0,-1,818,400,0,0
-399,624,0,0,0,0,0,0,0,0,0,-1,825,400,0,0
-392,624,0,0,0,0,0,0,0,0,0,-1,832,400,0,0
-385,624,0,0,0,0,0,0,0,0,0,-1,839,400,0,0
-378,624,0,0,0,0,0,0,0,0,0,-1,846,400,0,0
-371,624,0,0,0,0,0,0,0,0,0,-1,853,400,0,0
-364,624,0,0,0,0,0,0,0,0,0,-1,860,400,0,0
-357,624,0,0,0,0,0,0,0,0,0,-1,867,400,0,0
-350,624,0,0,0,0,0,0,0,0,0,-1,874,400,0,0
-343,624,0,0,0,0,0,0,0,0,0,-1,881,400,0,0
-336,624,0,0,0,0,0,0,0,0,0,-1,888,400,0,0
-329,624,0,0,0,0,0,0,0,0,0,-1,895,400,0,0
-322,624,0,0,0,0,0,0,0,0,0,-1,902,400,0,0
-315,624,0,0,0,0,0,0,0,0,0,-1,909,400,0,0
-308,624,0,0,0,0,0,0,0,0,0,-1,916,400,0,0
-301,624,0,0,0,0,0,0,0,0,0,-1,923,400,0,0
-294,624,5.08527,-28.5311,0,0,0,0,0,0,0,-1,930,400,5.08525,28.5311
-287,624,6.70825,-33.8,0,0,0,0,0,0,0,-1,937,400,6.70827,33.8
-280,624,6.92474,-33.8738,0,0,0,0,0,0,0,-1,944,400,6.92477,33.8739
-273,624,8.617,-37.3463,0,0,0,0,0,0,0,-1,951,400,8.61697,37.3463
-266,624,7.71747,-37.0599,0,0,0,0,0,0,0,-1,958,400,7.7175,37.0599
-259,624,7.33569,-33.1199,0,0,0,0,0,0,0,-1,965,400,7.33567,33.1199
-252,624,7.5528,-32.8158,0,0,0,0,0,0,0,-1,972,400,7.5528,32.8158
-245,624,6.8396,-32.02,0,0,0,0,0,0,0,-1,979,400,6.83963,32.02
-238,624,6.99402,-31.5278,0,0,0,0,0,0,0,-1,986,400,6.99404,31.5278
-231,624,3.86121,-29.6032,0,0,0,0,0,0,0,-1,993,400,3.86122,29.6032
-224,624,4.59351,-27.4048,0,0,0,0,0,0,0,-1,1000,400,4.59353,27.4048
-217,624,5.90167,-32.048,0,0,0,0,0,0,0,-1,1007,400,5.90167,32.048
-210,624,8.95941,-51.913,0,0,0,0,0,0,0,-1,1014,400,8.95943,51.913
-203,624,8.62366,-52.7464,0,0,0,0,0,0,0,-1,1021,400,8.62363,52.7464
-196,624,8.71448,-53.4636,0,0,0,0,0,0,0,-1,1028,400,8.71446,53.4636
-189,624,8.61072,-54.4408,0,0,0,0,0,0,0,-1,1035,400,8.61066,54.4408
-182,624,8.47522,-55.2972,0,0,0,0,0,0,0,-1,1042,400,8.47524,55.2972
-175,624,8.36719,-55.8487,-0.00324248,0.0135319,-0.00888177,0.0173607,-0.0070713,-1.16378,0.0145168,0.0332908,1049,400,8.36717,55.8487
-168,624,8.42517,-56.7774,-0.00336383,0.0116801,-0.00793196,0.0150896,-0.00677327,-1.16484,0.0129233,0.0239613,1056,400,8.42523,56.7774
-161,624,8.28906,-57.5833,-0.00325958,0.0102442,-0.00711065,0.0132979,-0.00631326,-1.16516,0.0115594,0.0128904,1063,400,8.28906,57.5833
-154,624,8.23572,-58.3048,-0.00300465,0.00894351,-0.00633362,0.011676,-0.00573714,-1.1635,0.0102465,0.0110868,1070,400,8.23577,58.3048
-147,624,8.18506,-59.0169,-0.00289574,0.0077779,-0.00552976,0.0101261,-0.00524396,-1.16922,0.00902191,0.0118219,1077,400,8.18511,59.0169
-140,624,8.10779,-59.6869,-0.00272776,0.00665448,-0.00487211,0.0087268,-0.00480008,-1.16864,0.00791867,0.0103397,1084,400,8.10776,59.6869
-133,624,8.02026,-60.3464,-0.00247754,0.00579486,-0.00427641,0.0076081,-0.00429078,-1.16976,0.00695824,0.0112982,1091,400,8.02023,60.3464
-126,624,7.97498,-60.9805,-0.00229095,0.0050233,-0.00368399,0.00655716,-0.00382482,-1.17627,0.00606284,0.0133849,1098,400,7.97502,60.9805
-119,624,7.91711,-61.6151,-0.0021001,0.00415381,-0.00309834,0.00542885,-0.00337514,-1.1804,0.00512888,0.0157759,1105,400,7.91707,61.6152
-112,624,7.90369,-62.227,-0.00176234,0.00351652,-0.00262149,0.00459714,-0.00284297,-1.1798,0.00433516,0.0188557,1112,400,7.90374,62.227
-105,624,7.9187,-62.8413,-0.00136864,0.00309015,-0.00232001,0.0040783,-0.0023568,-1.16814,0.00375936,0.014588,1119,400,7.91874,62.8413
-98,624,7.86792,-63.4209,-0.00102845,0.00271357,-0.00203712,0.00360852,-0.0019234,-1.15686,0.00324287,0.0143694,1126,400,7.86793,63.4209
-91,624,7.84167,-64.001,-0.0006433,0.00245333,-0.00178098,0.00326493,-0.0014549,-1.14321,0.00279099,0.0206924,1133,400,7.84173,64.001
-84,624,7.83032,-64.5793,-0.000144122,0.00216618,-0.00151447,0.00291575,-0.000893698,-1.1112,0.00230035,0.0201493,1140,400,7.83035,64.5793
-77,624,7.77332,-65.1025,0.000366351,0.00190558,-0.00125898,0.00261155,-0.000339617,-1.05974,0.00186458,0.0159967,1147,400,7.77337,65.1025
-70,624,7.76917,-65.589,0.000850792,0.00154573,-0.00097906,0.00223715,0.00015937,-0.955915,0.00144125,0.0177183,1154,400,7.76911,65.5889
-63,624,7.78772,-66.1058,0.00145241,0.00100627,-0.000585851,0.00185622,0.000602458,-0.603494,0.00109346,0.01987,1161,400,7.78767,66.1058
-56,624,7.73645,-66.5823,0.00192118,0.000340378,-0.000184337,0.00194239,0.000319167,-0.114562,0.00120274,0.0156759,1168,400,7.7364,66.5823
-49,624,7.73938,-67.0258,0.00244549,-0.000439189,0.000281422,0.00247269,-0.000466387,0.0963469,0.00182391,0.0104264,1175,400,7.73937,67.0257
-42,624,7.73315,-67.425,0.00345383,-0.00124959,0.000712709,0.00355946,-0.00135522,0.147131,0.00293108,0.00967349,1182,400,7.73321,67.425
-35,624,7.7251,-67.8004,0.00469699,-0.00217347,0.00109522,0.00486736,-0.00234383,0.154317,0.00424751,0.015649,1189,400,7.72506,67.8004
-28,624,7.74365,-68.2058,0.00570005,-0.00295918,0.00139553,0.0059194,-0.00317853,0.155904,0.00533156,0.0209435,1196,400,7.74361,68.2058
-21,624,7.7644,-68.5316,0.00672033,-0.00383752,0.00139039,0.00690037,-0.00401756,0.128768,0.00637629,0.0144006,1203,400,7.76434,68.5316
-14,624,7.80127,-68.8314,0.00799381,-0.00482655,0.00148402,0.00816335,-0.00499609,0.113751,0.00767061,0.0155912,1210,400,7.80132,68.8314
-7,624,7.85461,-69.1053,0.0090366,-0.00587506,0.00140449,0.00916773,-0.0060062,0.0930963,0.00882383,0.0223939,1217,400,7.85456,69.1053
0,624,7.90112,-69.3588,0.00943958,-0.00695966,0.00105064,0.00950661,-0.0070267,0.0637191,0.00958124,0.0240681,1224,400,7.9011,69.3588
7,624,7.90613,-69.6119,0.00924719,-0.00766314,0.000677078,0.00927426,-0.00769021,0.0399541,0.00980866,0.0170481,1231,400,7.9061,69.6119
14,624,7.98889,-69.8566,0.00868087,-0.00823734,0.000468792,0.00869385,-0.00825032,0.027681,0.00978384,0.0139652,1238,400,7.9889,69.8566
21,624,8.02026,-70.0273,0.00809398,-0.00875108,0.000205093,0.00809647,-0.00875358,0.0121729,0.00973085,0.0164489,1245,400,8.02032,70.0273
28,624,8.03479,-70.17,0.00653875,-0.00915632,0.000134765,0.00653991,-0.00915748,0.00858563,0.00910479,0.0149736,1252,400,8.03483,70.1701
35,624,8.09131,-70.2731,0.00451174,-0.00971594,0.000108568,0.00451257,-0.00971677,0.00763019,0.00839647,0.0164854,1259,400,8.09127,70.2731
42,624,8.17163,-70.3973,0.00250722,-0.00987705,0.000175466,0.0025097,-0.00987953,0.0141647,0.00756302,0.0183549,1266,400,8.17164,70.3973
49,624,8.24463,-70.451,0.000238466,-0.00985723,0.000510757,0.00026424,-0.00988301,0.05042,0.00667849,0.0198551,1273,400,8.24468,70.451
56,624,8.33008,-70.5362,-0.00200614,-0.00866069,0.00127125,-0.00177155,-0.00889527,0.182476,0.00543674,0.0205787,1280,400,8.33005,70.5362
63,624,8.38477,-70.5743,-0.00411862,-0.00773016,0.0023274,-0.00297861,-0.00887016,0.45547,0.00521243,0.0175593,1287,400,8.38474,70.5743
70,624,8.38647,-70.5892,-0.00584339,-0.00674102,0.00331249,-0.00294944,-0.00963497,0.718062,0.00570045,0.0163023,1294,400,8.38642,70.5892
77,624,8.45337,-70.524,-0.00654106,-0.00556859,0.00437483,-0.00165306,-0.0104566,0.840742,0.0064906,0.0165819,1301,400,8.45338,70.524
84,624,8.54309,-70.4318,-0.00663905,-0.00435109,0.00545242,7.60653e-05,-0.0110662,0.888804,0.00740296,0.0134445,1308,400,8.54309,70.4318
91,624,8.60608,-70.3145,-0.00669262,-0.00318417,0.0061166,0.00142479,-0.0113016,0.925048,0.00805145,0.0139963,1315,400,8.60612,70.3145
98,624,8.66113,-70.1989,-0.00603744,-0.00211753,0.0068604,0.00305739,-0.0112124,0.924537,0.00867551,0.0142073,1322,400,8.66112,70.1989
105,624,8.69556,-70.0472,-0.00507116,-0.000994767,0.00768255,0.00491535,-0.0109813,0.915062,0.00939802,0.0152216,1329,400,8.6955,70.0472
112,624,8.74951,-69.8715,-0.00352756,-0.000459083,0.00801875,0.00617088,-0.0101575,0.879921,0.00952041,0.0152057,1336,400,8.74949,69.8715
119,624,8.79553,-69.7165,-0.00191933,-0.000163849,0.00785895,0.00686622,-0.0089494,0.841011,0.00915752,0.015573,1343,400,8.79554,69.7165
126,624,8.79114,-69.4465,-0.000717759,0.00013762,0.00748028,0.00720243,-0.00778257,0.813955,0.00865375,0.0190654,1350,400,8.79112,69.4465
133,624,8.84546,-69.134,0.000745652,0.00048394,0.00687446,0.0074905,-0.00626091,0.775882,0.00794995,0.0194995,1357,400,8.8454,69.134
140,624,8.9043,-68.8578,0.00193095,0.000968257,0.00626532,0.00773338,-0.00483418,0.74706,0.00731996,0.0190246,1364,400,8.90434,68.8578
147,624,8.93115,-68.4944,0.00251675,0.000879933,0.0053828,0.007143,-0.00374632,0.709955,0.00638809,0.0231318,1371,400,8.93113,68.4944
154,624,9.01221,-68.1694,0.00309519,0.000960431,0.00440899,0.00656416,-0.00250854,0.666637,0.00540976,0.0261003,1378,400,9.01224,68.1694
161,624,9.04993,-67.802,0.00338927,0.000540973,0.0033128,0.00557107,-0.00164082,0.582394,0.00436502,0.0250674,1385,400,9.04994,67.802
168,624,9.10571,-67.3431,0.00334645,0.000855093,0.00236239,0.00477146,-0.000569919,0.542775,0.00338697,0.0247568,1392,400,9.10572,67.3431
175,624,9.09534,-66.9372,0.00308083,0.00145696,0.00176305,0.00420992,0.000327871,0.56961,0.00270396,0.0185647,1399,400,9.09534,66.9372
182,624,9.05139,-66.5355,0.00248699,0.00199439,0.00135891,0.00362175,0.000859637,0.695747,0.00218506,0.0111342,1406,400,9.05142,66.5355
189,624,9.02649,-66.0454,0.00179344,0.00261254,0.00117199,0.00344448,0.000961506,0.953489,0.00205232,0.0106508,1413,400,9.02654,66.0454
196,624,8.99011,-65.5417,0.00130358,0.00335484,0.00124116,0.0039393,0.000719124,1.1307,0.00242234,0.0119951,1420,400,8.99006,65.5417
203,624,9.00781,-65.0056,0.000861828,0.00391307,0.00132084,0.0044054,0.000369498,1.21401,0.00282184,0.0147647,1427,400,9.00786,65.0056
210,624,9.02869,-64.4832,0.000347585,0.00429242,0.00156054,0.0048351,-0.000195096,1.23613,0.00329036,0.0189978,1434,400,9.02868,64.4832
217,624,8.98865,-63.9391,-0.000126923,0.0047959,0.00188335,0.00543377,-0.000764796,1.24423,0.00390251,0.0234708,1441,400,8.98863,63.9391
224,624,8.94495,-63.3553,-0.000406265,0.00538584,0.00218929,0.00612023,-0.00114066,1.24714,0.00450873,0.0188087,1448,400,8.94499,63.3553
231,624,8.92896,-62.7749,-0.000447283,0.00586351,0.00263057,0.0068162,-0.00139998,1.22333,0.00507557,0.0133484,1455,400,8.92897,62.7749
238,624,8.88708,-62.1455,-0.000321571,0.00665348,0.00332719,0.00798601,-0.00165411,1.18986,0.00595249,0.0184012,1462,400,8.88706,62.1455
245,624,8.85767,-61.5253,-0.000347245,0.00741018,0.00383083,0.00898304,-0.00192011,1.1812,0.00672079,0.018305,1469,400,8.85761,61.5253
252,624,8.82275,-60.8816,-0.000348845,0.00811447,0.00443989,0.0100163,-0.00225067,1.16609,0.00754056,0.0136777,1476,400,8.82281,60.8816
259,624,8.74841,-60.1964,-0.000332121,0.00886928,0.005139,0.0111661,-0.00262894,1.15049,0.00845769,0.0102468,1483,400,8.74837,60.1964
266,624,8.69629,-59.5029,-0.000331965,0.00960572,0.00587331,0.0123301,-0.00305631,1.13648,0.00940582,0.0133741,1490,400,8.69629,59.5029
273,624,8.64795,-58.8184,-0.000365719,0.0106143,0.00668799,0.013777,-0.00352842,1.12907,0.0105592,0.0159994,1497,400,8.64793,58.8184
280,624,8.57117,-58.1032,-0.000330795,0.011585,0.0075479,0.0152431,-0.00398889,1.1195,0.0117202,0.0150936,1504,400,8.57119,58.1032
287,624,8.51074,-57.3814,-0.000246431,0.0128663,0.00857946,0.0171078,-0.00448789,1.11166,0.0131588,0.0121836,1511,400,8.51072,57.3815
294,624,8.45813,-56.6233,-0.000334144,0.0140036,0.00949317,0.0187306,-0.0050612,1.1088,0.0144722,0.0113901,1518,400,8.45816,56.6233
301,624,8.37683,-55.8062,-0.000392554,0.0152341,0.0104407,0.0204613,-0.00561976,1.10662,0.0158498,0.012891,1525,400,8.37683,55.8062
308,624,8.34741,-54.9655,-0.000256499,0.0170184,0.0115073,0.0227692,-0.00600733,1.10734,0.0175285,0.0196561,1532,400,8.34738,54.9655
315,624,8.34058,-54.1569,0.000107131,0.019471,0.0127782,0.025821,-0.00624289,1.1096,0.0196287,0.0274746,1539,400,8.34057,54.1569
322,624,8.24646,-53.3806,0.000493532,0.0219656,0.0141962,0.0290283,-0.00656918,1.10915,0.0218732,0.0496912,1546,400,8.24649,53.3806
329,624,8.04651,-52.7712,0,0,0,0,0,0,0,-1,1553,400,8.04651,52.7713
336,624,8.08923,-51.2212,0,0,0,0,0,0,0,-1,1560,400,8.08924,51.2212
343,624,6.53369,-39.5615,0,0,0,0,0,0,0,-1,1567,400,6.53364,39.5615
350,624,1.99194,-7.29742,0,0,0,0,0,0,0,-1,1574,400,1.99198,7.29741
357,624,2.64075,-3.13092,0,0,0,0,0,0,0,-1,1581,400,2.64076,3.13091
364,624,3.16565,-4.9458,0,0,0,0,0,0,0,-1,1588,400,3.16564,4.94579
371,624,3.37561,-5.23529,0,0,0,0,0,0,0,-1,1595,400,3.37563,5.23529
378,624,1.50439,-5.22165,0,0,0,0,0,0,0,-1,1602,400,1.50438,5.22164
385,624,1.2301,-10.5866,0,0,0,0,0,0,0,-1,1609,400,1.2301,10.5866
392,624,4.26819,-5.14236,0,0,0,0,0,0,0,-1,1616,400,4.26818,5.14236
399,624,2.22168,-9.19293,0,0,0,0,0,0,0,-1,1623,400,2.22173,9.19294
406,624,2.68213,-9.91171,0,0,0,0,0,0,0,-1,1630,400,2.68213,9.91171
413,624,0,0,0,0,0,0,0,0,0,-1,1637,400,0,0
420,624,0,0,0,0,0,0,0,0,0,-1,1644,400,0,0
427,624,0,0,0,0,0,0,0,0,0,-1,1651,400,0,0
434,624,0,0,0,0,0,0,0,0,0,-1,1658,400,0,0
441,624,0,0,0,0,0,0,0,0,0,-1,1665,400,0,0
448,624,0,0,0,0,0,0,0,0,0,-1,1672,400,0,0
455,624,0,0,0,0,0,0,0,0,0,-1,1679,400,0,0
462,624,0,0,0,0,0,0,0,0,0,-1,1686,400,0,0
469,624,0,0,0,0,0,0,0,0,0,-1,1693,400,0,0
476,624,0,0,0,0,0,0,0,0,0,-1,1700,400,0,0
483,624,0,0,0,0,0,0,0,0,0,-1,1707,400,0,0
490,624,0,0,0,0,0,0,0,0,0,-1,1714,400,0,0
497,624,0,0,0,0,0,0,0,0,0,-1,1721,400,0,0
504,624,0,0,0,0,0,0,0,0,0,-1,1728,400,0,0
511,624,0,0,0,0,0,0,0,0,0,-1,1735,400,0,0
518,624,0,0,0,0,0,0,0,0,0,-1,1742,400,0,0
525,624,0,0,0,0,0,0,0,0,0,-1,1749,400,0,0
532,624,0,0,0,0,0,0,0,0,0,-1,1756,400,0,0
539,624,0,0,0,0,0,0,0,0,0,-1,1763,400,0,0
546,624,0,0,0,0,0,0,0,0,0,-1,1770,400,0,0
553,624,0,0,0,0,0,0,0,0,0,-1,1777,400,0,0
560,624,0,0,0,0,0,0,0,0,0,-1,1784,400,0,0
567,624,0,0,0,0,0,0,0,0,0,-1,1791,400,0,0
574,624,0,0,0,0,0,0,0,0,0,-1,1798,400,0,0
581,624,0,0,0,0,0,0,0,0,0,-1,1805,400,0,0
588,624,0,0,0,0,0,0,0,0,0,-1,1812,400,0,0
595,624,0,0,0,0,0,0,0,0,0,-1,1819,400,0,0
602,624,0,0,0,0,0,0,0,0,0,-1,1826,400,0,0
609,624,0,0,0,0,0,0,0,0,0,-1,1833,400,0,0
616,624,0,0,0,0,0,0,0,0,0,-1,1840,400,0,0
623,624,0,0,0,0,0,0,0,0,0,-1,1847,400,0,0
630,624,0,0,0,0,0,0,0,0,0,-1,1854,400,0,0
637,624,0,0,0,0,0,0,0,0,0,-1,1861,400,0,0
644,624,0,0,0,0,0,0,0,0,0,-1,1868,400,0,0
651,624,0,0,0,0,0,0,0,0,0,-1,1875,400,0,0
658,624,0,0,0,0,0,0,0,0,0,-1,1882,400,0,0
665,624,0,0,0,0,0,0,0,0,0,-1,1889,400,0,0
672,624,0,0,0,0,0,0,0,0,0,-1,1896,400,0,0
679,624,0,0,0,0,0,0,0,0,0,-1,1903,400,0,0
686,624,0,0,0,0,0,0,0,0,0,-1,1910,400,0,0
693,624,0,0,0,0,0,0,0,0,0,-1,1917,400,0,0
700,624,0,0,0,0,0,0,0,0,0,-1,1924,400,0,0
707,624,0,0,0,0,0,0,0,0,0,-1,1931,400,0,0
714,624,0,0,0,0,0,0,0,0,0,-1,1938,400,0,0
721,624,0,0,0,0,0,0,0,0,0,-1,1945,400,0,0
728,624,0,0,0,0,0,0,0,0,0,-1,1952,400,0,0
735,624,0,0,0,0,0,0,0,0,0,-1,1959,400,0,0
742,624,0,0,0,0,0,0,0,0,0,-1,1966,400,0,0
749,624,0,0,0,0,0,0,0,0,0,-1,1973,400,0,0
756,624,0,0,0,0,0,0,0,0,0,-1,1980,400,0,0
763,624,0,0,0,0,0,0,0,0,0,-1,1987,400,0,0
770,624,0,0,0,0,0,0,0,0,0,-1,1994,400,0,0
777,624,0,0,0,0,0,0,0,0,0,-1,2001,400,0,0
784,624,0,0,0,0,0,0,0,0,0,-1,2008,400,0,0
791,624,0,0,0,0,0,0,0,0,0,-1,2015,400,0,0
798,624,0,0,0,0,0,0,0,0,0,-1,2022,400,0,0
805,624,0,0,0,0,0,0,0,0,0,-1,2029,400,0,0
812,624,0,0,0,0,0,0,0,0,0,-1,2036,400,0,0
-700,617,0,0,0,0,0,0,0,0,0,-1,524,407,0,0
-693,617,0,0,0,0,0,0,0,0,0,-1,531,407,0,0
-686,617,0,0,0,0,0,0,0,0,0,-1,538,407,0,0
-679,617,0,0,0,0,0,0,0,0,0,-1,545,407,0,0
-672,617,0,0,0,0,0,0,0,0,0,-1,552,407,0,0
-665,617,0,0,0,0,0,0,0,0,0,-1,559,407,0,0
-658,617,0,0,0,0,0,0,0,0,0,-1,566,407,0,0
-651,617,0,0,0,0,0,0,0,0,0,-1,573,407,0,0
-644,617,0,0,0,0,0,0,0,0,0,-1,580,407,0,0
-637,617,0,0,0,0,0,0,0,0,0,-1,587,407,0,0
-630,617,0,0,0,0,0,0,0,0,0,-1,594,407,0,0
-623,617,0,0,0,0,0,0,0,0,0,-1,601,407,0,0
-616,617,0,0,0,0,0,0,0,0,0,-1,608,407,0,0
-609,617,0,0,0,0,0,0,0,0,0,-1,615,407,0,0
-602,617,0,0,0,0,0,0,0,0,0,-1,622,407,0,0
-595,617,0,0,0,0,0,0,0,0,0,-1,629,407,0,0
-588,617,0,0,0,0,0,0,0,0,0,-1,636,407,0,0
-581,617,0,0,0,0,0,0,0,0,0,-1,643,407,0,0
-574,617,0,0,0,0,0,0,0,0,0,-1,650,407,0,0
-567,617,0,0,0,0,0,0,0,0,0,-1,657,407,0,0
-560,617,0,0,0,0,0,0,0,0,0,-1,664,407,0,0
-553,617,0,0,0,0,0,0,0,0,0,-1,671,407,0,0
-546,617,0,0,0,0,0,0,0,0,0,-1,678,407,0,0
-539,617,0,0,0,0,0,0,0,0,0,-1,685,407,0,0
-532,617,0,0,0,0,0,0,0,0,0,-1,692,407,0,0
-525,617,0,0,0,0,0,0,0,0,0,-1,699,407,0,0
-518,617,0,0,0,0,0,0,0,0,0,-1,706,407,0,0
-511,617,0,0,0,0,0,0,0,0,0,-1,713,407,0,0
-504,617,0,0,0,0,0,0,0,0,0,-1,720,407,0,0
-497,617,0,0,0,0,0,0,0,0,0,-1,727,407,0,0
-490,617,0,0,0,0,0,0,0,0,0,-1,734,407,0,0
-483,617,0,0,0,0,0,0,0,0,0,-1,741,407,0,0
-476,617,0,0,0,0,0,0,0,0,0,-1,748,407,0,0
-469,617,0,0,0,0,0,0,0,0,0,-1,755,407,0,0
-462,617,0,0,0,0,0,0,0,0,0,-1,762,407,0,0
-455,617,0,0,0,0,0,0,0,0,0,-1,769,407,0,0
-448,617,0,0,0,0,0,0,0,0,0,-1,776,407,0,0
-441,617,0,0,0,0,0,0,0,0,0,-1,783,407,0,0
-434,617,0,0,0,0,0,0,0,0,0,-1,790,407,0,0
-427,617,0,0,0,0,0,0,0,0,0,-1,797,407,0,0
-420,617,0,0,0,0,0,0,0,0,0,-1,804,407,0,0
-413,617,0,0,0,0,0,0,0,0,0,-1,811,407,0,0
-406,617,0,0,0,0,0,0,0,0,0,-1,818,407,0,0
-399,617,0,0,0,0,0,0,0,0,0,-1,825,407,0,0
-392,617,0,0,0,0,0,0,0,0,0,-1,832,407,0,0
-385,617,0,0,0,0,0,0,0,0,0,-1,839,407,0,0
-378,617,0,0,0,0,0,0,0,0,0,-1,846,407,0,0
-371,617,0,0,0,0,0,0,0,0,0,-1,853,407,0,0
-364,617,0,0,0,0,0,0,0,0,0,-1,860,407,0,0
-357,617,0,0,0,0,0,0,0,0,0,-1,867,407,0,0
-350,617,0,0,0,0,0,0,0,0,0,-1,874,407,0,0
-343,617,0,0,0,0,0,0,0,0,0,-1,881,407,0,0
-336,617,0,0,0,0,0,0,0,0,0,-1,888,407,0,0
-329,617,0,0,0,0,0,0,0,0,0,-1,895,407,0,0
-322,617,0,0,0,0,0,0,0,0,0,-1,902,407,0,0
-315,617,0,0,0,0,0,0,0,0,0,-1,909,407,0,0
-308,617,0,0,0,0,0,0,0,0,0,-1,916,407,0,0
-301,617,6.81897,-24.525,0,0,0,0,0,0,0,-1,923,407,6.81899,24.525
-294,617,6.19263,-26.917,0,0,0,0,0,0,0,-1,930,407,6.19261,26.917
-287,617,7.00409,-31.9773,0,0,0,0,0,0,0,-1,937,407,7.00406,31.9773
-280,617,9.1106,-36.5021,0,0,0,0,0,0,0,-1,944,407,9.11059,36.5021
-273,617,8.35004,-36.2751,0,0,0,0,0,0,0,-1,951,407,8.35003,36.2751
-266,617,7.61749,-36.1671,0,0,0,0,0,0,0,-1,958,407,7.61746,36.1671
-259,617,6.83643,-36.3605,0,0,0,0,0,0,0,-1,965,407,6.83643,36.3605
-252,617,6.02264,-36.5001,0,0,0,0,0,0,0,-1,972,407,6.02265,36.5001
-245,617,6.72626,-34.4465,0,0,0,0,0,0,0,-1,979,407,6.72627,34.4465
-238,617,5.6474,-34.6842,0,0,0,0,0,0,0,-1,986,407,5.64741,34.6842
-231,617,7.91974,-48.7493,0,0,0,0,0,0,0,-1,993,407,7.91977,48.7493
-224,617,8.03607,-49.858,0,0,0,0,0,0,0,-1,1000,407,8.03606,49.858
-217,617,8.22925,-50.9507,0,0,0,0,0,0,0,-1,1007,407,8.22922,50.9507
-210,617,8.1637,-52.0188,-0.00152688,0.0239004,-0.0119459,0.0286322,-0.00625864,-1.19366,0.0214805,0.0360012,1014,407,8.16371,52.0188
-203,617,7.97986,-52.8784,-0.00180899,0.0204091,-0.0106619,0.0246976,-0.00609755,-1.18837,0.0188296,0.0284679,1021,407,7.97986,52.8784
-196,617,7.9834,-53.6243,-0.00206116,0.0173488,-0.00953812,0.0212513,-0.00596361,-1.18243,0.0165182,0.0217989,1028,407,7.98338,53.6243
-189,617,7.86975,-54.5032,-0.00214113,0.014656,-0.00863877,0.0183058,-0.00579098,-1.17105,0.0145243,0.0182157,1035,407,7.86977,54.5032
-182,617,7.76196,-55.2844,-0.00216316,0.0124559,-0.00774012,0.0157925,-0.00549969,-1.1638,0.0127628,0.0184023,1042,407,7.762,55.2844
-175,617,7.75891,-56.0373,-0.00230495,0.0103105,-0.00668147,0.0131914,-0.00518576,-1.16372,0.0109405,0.0172812,1049,407,7.75888,56.0373
-168,617,7.69275,-56.8161,-0.00230411,0.00867363,-0.00588261,0.0112304,-0.00486091,-1.16079,0.00952986,0.0133013,1056,407,7.69272,56.8161
-161,617,7.60413,-57.5864,-0.00211314,0.00738012,-0.00519203,0.00966823,-0.00440126,-1.1557,0.00831059,0.0117094,1063,407,7.60413,57.5864
-154,617,7.55847,-58.3,-0.00179026,0.00622478,-0.004522,0.0082595,-0.00382498,-1.14798,0.00713185,0.0127324,1070,407,7.55844,58.3
-147,617,7.52124,-59.0052,-0.00155432,0.00521288,-0.0038468,0.00695243,-0.00329387,-1.14611,0.00604009,0.0176936,1077,407,7.52118,59.0053
-140,617,7.46118,-59.7126,-0.00127009,0.00423555,-0.00328557,0.0057691,-0.00280364,-1.1341,0.00504722,0.0133927,1084,407,7.46118,59.7127
-133,617,7.3927,-60.3616,-0.000917495,0.00349841,-0.0027858,0.00484514,-0.00226422,-1.1205,0.00419378,0.015167,1091,407,7.39267,60.3616
-126,617,7.35718,-60.9748,-0.000593912,0.00288302,-0.00232336,0.00404632,-0.00175722,-1.10659,0.00343646,0.0155584,1098,407,7.35719,60.9748
-119,617,7.28381,-61.6161,-0.000230326,0.00224297,-0.00187438,0.0032519,-0.00123925,-1.077,0.00267835,0.0161029,1105,407,7.28385,61.6161
-112,617,7.2843,-62.2242,0.000252972,0.00181391,-0.00153037,0.00275133,-0.000684455,-1.0212,0.00209989,0.0175986,1112,407,7.28428,62.2242
-105,617,7.30969,-62.8109,0.000761631,0.00155416,-0.00133356,0.00254909,-0.000233295,-0.929818,0.00178226,0.0180553,1119,407,7.30967,62.8109
-98,617,7.2583,-63.4215,0.00124752,0.00131196,-0.00116882,0.002449,0.000110483,-0.799178,0.00159712,0.0142971,1126,407,7.25828,63.4215
-91,617,7.25488,-63.9945,0.00178425,0.00117068,-0.00103147,0.00255359,0.000401338,-0.640853,0.00158564,0.0186669,1133,407,7.25484,63.9945
-84,617,7.2832,-64.5657,0.00241792,0.000940339,-0.000836316,0.00279503,0.000563228,-0.423619,0.00170687,0.0186261,1140,407,7.28317,64.5657
-77,617,7.2677,-65.0793,0.00309818,0.000581368,-0.000624177,0.00324447,0.000435074,-0.230224,0.00203353,0.0158069,1147,407,7.26766,65.0793
-70,617,7.302,-65.5951,0.00381013,-6.23822e-05,-0.000335486,0.00383898,-9.12312e-05,-0.0857808,0.00259027,0.0181531,1154,407,7.30202,65.5951
-63,617,7.36572,-66.1051,0.00453055,-0.00105091,0.000591886,0.00459263,-0.00111299,0.104496,0.00349237,0.0237829,1161,407,7.36572,66.1051
-56,617,7.30164,-66.5611,0.00483986,-0.0021953,0.00135292,0.00509107,-0.0024465,0.183588,0.0044402,0.0178429,1168,407,7.30163,66.5611
-49,617,7.31921,-67.0202,0.00532237,-0.00379754,0.00210887,0.00578641,-0.00426158,0.21659,0.00582344,0.0120264,1175,407,7.31918,67.0202
-42,617,7.3501,-67.4409,0.00673101,-0.00505517,0.00281007,0.0073667,-0.00569086,0.222475,0.00755946,0.0125066,1182,407,7.35006,67.4409
-35,617,7.37927,-67.8052,0.00839405,-0.00646406,0.00348921,0.00917264,-0.00724265,0.219546,0.00949918,0.017598,1189,407,7.37921,67.8052
-28,617,7.39502,-68.162,0.00954456,-0.00760159,0.0040103,0.0104362,-0.00849319,0.21877,0.010948,0.0202116,1196,407,7.39499,68.1619
-21,617,7.47278,-68.4805,0.0107082,-0.00887703,0.00402128,0.0115017,-0.00967054,0.194825,0.012239,0.0148493,1203,407,7.47276,68.4805
-14,617,7.53125,-68.7845,0.0122661,-0.0103612,0.00412763,0.0129955,-0.0110907,0.174915,0.0139207,0.0165671,1210,407,7.53128,68.7845
-7,617,7.55469,-69.0132,0.0145996,-0.0118959,0.0038869,0.015158,-0.0124543,0.142696,0.0159675,0.0209198,1217,407,7.55466,69.0133
0,617,7.61353,-69.2649,0.0158807,-0.0126683,0.00294872,0.0161821,-0.0129697,0.101854,0.0168648,0.0194863,1224,407,7.61356,69.2649
7,617,7.71375,-69.6092,0.015992,-0.0133385,0.00214165,0.0161476,-0.0134941,0.0725053,0.0171365,0.0139416,1231,407,7.71378,69.6092
14,617,7.76892,-69.8486,0.0155242,-0.0137656,0.00150737,0.0156016,-0.013843,0.0512831,0.01701,0.01664,1238,407,7.76891,69.8486
21,617,7.88269,-69.9995,0.0149595,-0.0141795,0.000766185,0.0149796,-0.0141997,0.0262699,0.0168487,0.0157411,1245,407,7.8827,69.9995
28,617,7.96765,-70.1982,0.0127786,-0.0145974,0.000349768,0.012783,-0.0146019,0.0127737,0.0158223,0.0129521,1252,407,7.96759,70.1982
35,617,7.9696,-70.3525,0.00991795,-0.015204,6.56487e-05,0.00991812,-0.0152042,0.00261318,0.014611,0.014767,1259,407,7.96964,70.3525
42,617,8.0885,-70.3929,0.00686033,-0.0154581,-3.69534e-05,0.00686039,-0.0154581,-0.00165573,0.0132005,0.0226425,1266,407,8.08855,70.3929
49,617,8.20691,-70.4525,0.00303975,-0.0156301,0.00043716,0.00304999,-0.0156403,0.0233982,0.0115782,0.022569,1273,407,8.20696,70.4526
56,617,8.2832,-70.5231,-0.00100393,-0.0143372,0.00168769,-0.000793625,-0.0145475,0.123972,0.00944494,0.0158105,1280,407,8.28317,70.5231
63,617,8.33923,-70.5609,-0.00498502,-0.0136465,0.00345726,-0.00377429,-0.0148572,0.336854,0.00891707,0.012597,1287,407,8.33929,70.561
70,617,8.40991,-70.5797,-0.00849437,-0.012842,0.00521164,-0.00502137,-0.016315,0.587813,0.00964873,0.0193729,1294,407,8.40991,70.5797
77,617,8.54968,-70.5038,-0.0105182,-0.011705,0.00722353,-0.00386373,-0.0183595,0.744415,0.0111766,0.0176347,1301,407,8.54967,70.5038
84,617,8.63562,-70.4171,-0.0115488,-0.0102957,0.0093241,-0.00157709,-0.0202674,0.818946,0.0130178,0.0124526,1308,407,8.63563,70.4171
91,617,8.70325,-70.3195,-0.0122704,-0.00875885,0.0109126,0.000538331,-0.0215675,0.865161,0.0145611,0.0114387,1315,407,8.7032,70.3195
98,617,8.79053,-70.1997,-0.0123864,-0.00720183,0.0126073,0.00307691,-0.0226651,0.886794,0.0162332,0.0128313,1322,407,8.79052,70.1997
105,617,8.88025,-70.0341,-0.0114769,-0.00590678,0.0145198,0.00609259,-0.0234763,0.880154,0.0180282,0.0143469,1329,407,8.88026,70.034
112,617,8.97009,-69.8839,-0.0091936,-0.00469352,0.0154648,0.00868403,-0.0225712,0.857639,0.0186295,0.0167049,1336,407,8.97009,69.8839
119,617,9.03711,-69.6852,-0.00654871,-0.00365832,0.0156439,0.010607,-0.020814,0.831458,0.0184572,0.0191298,1343,407,9.03708,69.6851
126,617,9.07397,-69.4,-0.00432415,-0.00258244,0.0153972,0.0119685,-0.0188751,0.813648,0.0179558,0.0213384,1350,407,9.07392,69.4
133,617,9.13257,-69.1026,-0.00181594,-0.00147368,0.0148007,0.0131569,-0.0164465,0.791179,0.0171267,0.0186235,1357,407,9.13255,69.1026
140,617,9.23621,-68.8229,0.000153402,-0.000498428,0.0140179,0.0138492,-0.0141942,0.773775,0.0161913,0.0162321,1364,407,9.23619,68.8229
147,617,9.27844,-68.4594,0.00149288,-0.000372973,0.0126712,0.0132655,-0.0121456,0.748652,0.0146758,0.0196818,1371,407,9.27842,68.4594
154,617,9.33923,-68.1468,0.00286426,-0.000161256,0.0110855,0.0125398,-0.00983679,0.717586,0.0129505,0.0230042,1378,407,9.33927,68.1468
161,617,9.42249,-67.8362,0.00386477,-0.000902256,0.00911525,0.010903,-0.00794047,0.657519,0.010924,0.0248754,1385,407,9.42248,67.8362
168,617,9.50488,-67.4367,0.00445477,-0.000821736,0.00707846,0.00937065,-0.00573762,0.607015,0.00880643,0.0219632,1392,407,9.50487,67.4367
175,617,9.51135,-66.9995,0.00478421,-0.000505016,0.00536467,0.0081207,-0.00384151,0.556395,0.00705215,0.0177471,1399,407,9.51138,66.9995
182,617,9.50891,-66.5423,0.00448443,-0.000475759,0.00378389,0.00652857,-0.00251989,0.495305,0.00539231,0.0120737,1406,407,9.50889,66.5423
189,617,9.50098,-66.0423,0.00383755,-0.000356935,0.00242464,0.00494613,-0.00146551,0.428837,0.00387932,0.0114043,1413,407,9.50097,66.0423
196,617,9.4906,-65.5558,0.00343699,0.000138017,0.00147603,0.00400098,-0.000425968,0.364978,0.00282005,0.0155907,1420,407,9.49062,65.5558
203,617,9.50098,-65.0442,0.00313256,0.00062913,0.000586788,0.00326328,0.000498415,0.219183,0.00202988,0.0166099,1427,407,9.50094,65.0441
210,617,9.52393,-64.4906,0.0026382,0.000990421,0.000117307,0.00264651,0.000982112,0.0707154,0.0015448,0.0167948,1434,407,9.52391,64.4906
217,617,9.50806,-63.9194,0.00191732,0.00186051,0.000557613,0.00244726,0.00133058,0.759949,0.00141472,0.022708,1441,407,9.50808,63.9194
224,617,9.5033,-63.373,0.00146604,0.00278657,0.00106908,0.00338284,0.00086977,1.06203,0.00202844,0.0213748,1448,407,9.50331,63.373
231,617,9.52173,-62.7936,0.00121082,0.00343512,0.001608,0.0042781,0.000367842,1.08794,0.0027377,0.0155938,1455,407,9.52171,62.7936
238,617,9.50281,-62.1827,0.00109517,0.00415889,0.00218671,0.00529692,-4.28604e-05,1.09094,0.00354565,0.015904,1462,407,9.50277,62.1827
245,617,9.48694,-61.5565,0.0009189,0.00486318,0.00261047,0.00616272,-0.000380642,1.1089,0.00424106,0.0124776,1469,407,9.48688,61.5565
252,617,9.42419,-60.8636,0.000732043,0.00555143,0.00310449,0.00707168,-0.000788211,1.11543,0.00499795,0.0137156,1476,407,9.42415,60.8636
259,617,9.37463,-60.1878,0.000558373,0.00622131,0.00365994,0.00801719,-0.00123751,1.11463,0.00580146,0.0127905,1483,407,9.3746,60.1878
266,617,9.34265,-59.4881,0.000385697,0.00685706,0.00421738,0.008937,-0.00169425,1.11262,0.00659569,0.0145146,1490,407,9.34263,59.4881
273,617,9.31519,-58.7802,0.000187976,0.00770753,0.00482497,0.0100646,-0.00216913,1.11637,0.00753756,0.0150521,1497,407,9.31524,58.7803
280,617,9.26538,-58.0815,3.78662e-05,0.00853583,0.00547916,0.0112205,-0.00264677,1.1152,0.00850104,0.0138573,1504,407,9.26536,58.0815
287,617,9.20203,-57.3483,-3.91151e-05,0.00960872,0.00626638,0.0126929,-0.00312328,1.11343,0.00967258,0.0125105,1511,407,9.20202,57.3483
294,617,9.15735,-56.6183,-0.000240332,0.0105675,0.00695655,0.0139724,-0.00364527,1.11562,0.0107383,0.00999662,1518,407,9.15733,56.6183
301,617,9.08643,-55.8657,-0.000404515,0.0116339,0.00770312,0.0153907,-0.00416123,1.11705,0.0118927,0.00805433,1525,407,9.08643,55.8657
308,617,9.00635,-55.0751,-0.000392297,0.0131711,0.00857203,0.0173197,-0.00454088,1.12006,0.0133206,0.0084859,1532,407,9.00638,55.0751
315,617,8.9469,-54.2934,-0.000189366,0.0152353,0.00962213,0.0198545,-0.00480851,1.12323,0.0150966,0.0107666,1539,407,8.9469,54.2934
322,617,8.87219,-53.494,5.09195e-06,0.0172591,0.010745,0.0224118,-0.00514756,1.12365,0.0169201,0.0170482,1546,407,8.87219,53.4941
329,617,8.83167,-52.6639,0.000384156,0.0196672,0.012095,0.0254933,-0.00544194,1.1219,0.0190701,0.0221902,1553,407,8.83163,52.6639
336,617,8.88452,-51.6272,0.00082529,0.0224493,0.0133382,0.0288073,-0.00553269,1.12598,0.0212901,0.043748,1560,407,8.88449,51.6272
343,617,8.90906,-50.7845,0,0,0,0,0,0,0,-1,1567,407,8.90912,50.7845
350,617,8.67224,-49.9647,0,0,0,0,0,0,0,-1,1574,407,8.67229,49.9647
357,617,8.70093,-48.73,0,0,0,0,0,0,0,-1,1581,407,8.70097,48.73
364,617,8.6615,-47.74,0,0,0,0,0,0,0,-1,1588,407,8.66151,47.74
371,617,2.60266,-6.20667,0,0,0,0,0,0,0,-1,1595,407,2.60261,6.20668
378,617,1.56921,-10.3601,0,0,0,0,0,0,0,-1,1602,407,1.56918,10.3601
385,617,1.74146,-10.3561,0,0,0,0,0,0,0,-1,1609,407,1.7414,10.3561
392,617,1.96936,-5.10449,0,0,0,0,0,0,0,-1,1616,407,1.96931,5.10451
399,617,2.48889,-5.81256,0,0,0,0,0,0,0,-1,1623,407,2.48888,5.81255
406,617,3.01465,-6.51642,0,0,0,0,0,0,0,-1,1630,407,3.01461,6.51643
413,617,3.6427,-7.2074,0,0,0,0,0,0,0,-1,1637,407,3.64274,7.20739
420,617,3.42737,-4.47391,0,0,0,0,0,0,0,-1,1644,407,3.42737,4.47391
427,617,0,0,0,0,0,0,0,0,0,-1,1651,407,0,0
434,617,0,0,0,0,0,0,0,0,0,-1,1658,407,0,0
441,617,0,0,0,0,0,0,0,0,0,-1,1665,407,0,0
448,617,0,0,0,0,0,0,0,0,0,-1,1672,407,0,0
455,617,0,0,0,0,0,0,0,0,0,-1,1679,407,0,0
462,617,0,0,0,0,0,0,0,0,0,-1,1686,407,0,0
469,617,0,0,0,0,0,0,0,0,0,-1,1693,407,0,0
476,617,0,0,0,0,0,0,0,0,0,-1,1700,407,0,0
483,617,0,0,0,0,0,0,0,0,0,-1,1707,407,0,0
490,617,0,0,0,0,0,0,0,0,0,-1,1714,407,0,0
497,617,0,0,0,0,0,0,0,0,0,-1,1721,407,0,0
504,617,0,0,0,0,0,0,0,0,0,-1,1728,407,0,0
511,617,0,0,0,0,0,0,0,0,0,-1,1735,407,0,0
518,617,0,0,0,0,0,0,0,0,0,-1,1742,407,0,0
525,617,0,0,0,0,0,0,0,0,0,-1,1749,407,0,0
532,617,0,0,0,0,0,0,0,0,0,-1,1756,407,0,0
539,617,0,0,0,0,0,0,0,0,0,-1,1763,407,0,0
546,617,0,0,0,0,0,0,0,0,0,-1,1770,407,0,0
553,617,0,0,0,0,0,0,0,0,0,-1,1777,407,0,0
560,617,0,0,0,0,0,0,0,0,0,-1,1784,407,0,0
567,617,0,0,0,0,0,0,0,0,0,-1,1791,407,0,0
574,617,0,0,0,0,0,0,0,0,0,-1,1798,407,0,0
581,617,0,0,0,0,0,0,0,0,0,-1,1805,407,0,0
588,617,0,0,0,0,0,0,0,0,0,-1,1812,407,0,0
595,617,0,0,0,0,0,0,0,0,0,-1,1819,407,0,0
602,617,0,0,0,0,0,0,0,0,0,-1,1826,407,0,0
609,617,0,0,0,0,0,0,0,0,0,-1,1833,407,0,0
616,617,0,0,0,0,0,0,0,0,0,-1,1840,407,0,0
623,617,0,0,0,0,0,0,0,0,0,-1,1847,407,0,0
630,617,0,0,0,0,0,0,0,0,0,-1,1854,407,0,0
637,617,0,0,0,0,0,0,0,0,0,-1,1861,407,0,0
644,617,0,0,0,0,0,0,0,0,0,-1,1868,407,0,0
651,617,0,0,0,0,0,0,0,0,0,-1,1875,407,0,0
658,617,0,0,0,0,0,0,0,0,0,-1,1882,407,0,0
665,617,0,0,0,0,0,0,0,0,0,-1,1889,407,0,0
672,617,0,0,0,0,0,0,0,0,0,-1,1896,407,0,0
679,617,0,0,0,0,0,0,0,0,0,-1,1903,407,0,0
686,617,0,0,0,0,0,0,0,0,0,-1,1910,407,0,0
693,617,0,0,0,0,0,0,0,0,0,-1,1917,407,0,0
700,617,0,0,0,0,0,0,0,0,0,-1,1924,407,0,0
707,617,0,0,0,0,0,0,0,0,0,-1,1931,407,0,0
714,617,0,0,0,0,0,0,0,0,0,-1,1938,407,0,0
721,617,0,0,0,0,0,0,0,0,0,-1,1945,407,0,0
728,617,0,0,0,0,0,0,0,0,0,-1,1952,407,0,0
735,617,0,0,0,0,0,0,0,0,0,-1,1959,407,0,0
742,617,0,0,0,0,0,0,0,0,0,-1,1966,407,0,0
749,617,0,0,0,0,0,0,0,0,0,-1,1973,407,0,0
756,617,0,0,0,0,0,0,0,0,0,-1,1980,407,0,0
763,617,0,0,0,0,0,0,0,0,0,-1,1987,407,0,0
770,617,0,0,0,0,0,0,0,0,0,-1,1994,407,0,0
777,617,0,0,0,0,0,0,0,0,0,-1,2001,407,0,0
784,617,0,0,0,0,0,0,0,0,0,-1,2008,407,0,0
791,617,0,0,0,0,0,0,0,0,0,-1,2015,407,0,0
798,617,0,0,0,0,0,0,0,0,0,-1,2022,407,0,0
805,617,0,0,0,0,0,0,0,0,0,-1,2029,407,0,0
812,617,0,0,0,0,0,0,0,0,0,-1,2036,407,0,0
-700,610,0,0,0,0,0,0,0,0,0,-1,524,414,0,0
-693,610,0,0,0,0,0,0,0,0,0,-1,531,414,0,0
-686,610,0,0,0,0,0,0,0,0,0,-1,538,414,0,0
-679,610,0,0,0,0,0,0,0,0,0,-1,545,414,0,0
-672,610,0,0,0,0,0,0,0,0,0,-1,552,414,0,0
-665,610,0,0,0,0,0,0,0,0,0,-1,559,414,0,0
-658,610,0,0,0,0,0,0,0,0,0,-1,566,414,0,0
-651,610,0,0,0,0,0,0,0,0,0,-1,573,414,0,0
-644,610,0,0,0,0,0,0,0,0,0,-1,580,414,0,0
-637,610,0,0,0,0,0,0,0,0,0,-1,587,414,0,0
-630,610,0,0,0,0,0,0,0,0,0,-1,594,414,0,0
-623,610,0,0,0,0,0,0,0,0,0,-1,601,414,0,0
-616,610,0,0,0,0,0,0,0,0,0,-1,608,414,0,0
-609,610,0,0,0,0,0,0,0,0,0,-1,615,414,0,0
-602,610,0,0,0,0,0,0,0,0,0,-1,622,414,0,0
-595,610,0,0,0,0,0,0,0,0,0,-1,629,414,0,0
-588,610,0,0,0,0,0,0,0,0,0,-1,636,414,0,0
-581,610,0,0,0,0,0,0,0,0,0,-1,643,414,0,0
-574,610,0,0,0,0,0,0,0,0,0,-1,650,414,0,0
-567,610,0,0,0,0,0,0,0,0,0,-1,657,414,0,0
-560,610,0,0,0,0,0,0,0,0,0,-1,664,414,0,0
-553,610,0,0,0,0,0,0,0,0,0,-1,671,414,0,0
-546,610,0,0,0,0,0,0,0,0,0,-1,678,414,0,0
-539,610,0,0,0,0,0,0,0,0,0,-1,685,414,0,0
-532,610,0,0,0,0,0,0,0,0,0,-1,692,414,0,0
-525,610,0,0,0,0,0,0,0,0,0,-1,699,414,0,0
-518,610,0,0,0,0,0,0,0,0,0,-1,706,414,0,0
-511,610,0,0,0,0,0,0,0,0,0,-1,713,414,0,0
-504,610,0,0,0,0,0,0,0,0,0,-1,720,414,0,0
-497,610,0,0,0,0,0,0,0,0,0,-1,727,414,0,0
-490,610,0,0,0,0,0,0,0,0,0,-1,734,414,0,0
-483,610,0,0,0,0,0,0,0,0,0,-1,741,414,0,0
-476,610,0,0,0,0,0,0,0,0,0,-1,748,414,0,0
-469,610,0,0,0,0,0,0,0,0,0,-1,755,414,0,0
-462,610,0,0,0,0,0,0,0,0,0,-1,762,414,0,0
-455,610,0,0,0,0,0,0,0,0,0,-1,769,414,0,0
-448,610,0,0,0,0,0,0,0,0,0,-1,776,414,0,0
-441,610,0,0,0,0,0,0,0,0,0,-1,783,414,0,0
-434,610,0,0,0,0,0,0,0,0,0,-1,790,414,0,0
-427,610,0,0,0,0,0,0,0,0,0,-1,797,414,0,0
-420,610,0,0,0,0,0,0,0,0,0,-1,804,414,0,0
-413,610,0,0,0,0,0,0,0,0,0,-1,811,414,0,0
-406,610,0,0,0,0,0,0,0,0,0,-1,818,414,0,0
-399,610,0,0,0,0,0,0,0,0,0,-1,825,414,0,0
-392,610,0,0,0,0,0,0,0,0,0,-1,832,414,0,0
-385,610,0,0,0,0,0,0,0,0,0,-1,839,414,0,0
-378,610,0,0,0,0,0,0,0,0,0,-1,846,414,0,0
-371,610,0,0,0,0,0,0,0,0,0,-1,853,414,0,0
-364,610,0,0,0,0,0,0,0,0,0,-1,860,414,0,0
-357,610,0,0,0,0,0,0,0,0,0,-1,867,414,0,0
-350,610,0,0,0,0,0,0,0,0,0,-1,874,414,0,0
-343,610,0,0,0,0,0,0,0,0,0,-1,881,414,0,0
-336,610,0,0,0,0,0,0,0,0,0,-1,888,414,0,0
-329,610,0,0,0,0,0,0,0,0,0,-1,895,414,0,0
-322,610,0,0,0,0,0,0,0,0,0,-1,902,414,0,0
-315,610,7.68475,-21.5402,0,0,0,0,0,0,0,-1,909,414,7.68475,21.5402
-308,610,3.97211,-23.4133,0,0,0,0,0,0,0,-1,916,414,3.9721,23.4133
-301,610,7.38513,-22.4166,0,0,0,0,0,0,0,-1,923,414,7.38516,22.4166
-294,610,6.77832,-24.1945,0,0,0,0,0,0,0,-1,930,414,6.77829,24.1946
-287,610,3.39276,-28.5804,0,0,0,0,0,0,0,-1,937,414,3.39276,28.5803
-280,610,8.8728,-35.4336,0,0,0,0,0,0,0,-1,944,414,8.87283,35.4336
-273,610,8.14722,-35.5264,0,0,0,0,0,0,0,-1,951,414,8.14723,35.5264
-266,610,7.38361,-35.6366,0,0,0,0,0,0,0,-1,958,414,7.38359,35.6366
-259,610,6.47375,-35.762,0,0,0,0,0,0,0,-1,965,414,6.47373,35.762
-252,610,5.65308,-35.8931,0,0,0,0,0,0,0,-1,972,414,5.65305,35.8931
-245,610,7.93445,-47.5585,0,0,0,0,0,0,0,-1,979,414,7.93447,47.5585
-238,610,7.3609,-48.1855,0,0,0,0,0,0,0,-1,986,414,7.36091,48.1856
-231,610,7.32233,-49.1376,-0.000998497,0.0275751,-0.0126764,0.0323881,-0.0058115,-1.20793,0.0237673,0.0470059,993,414,7.32232,49.1376
-224,610,7.38397,-50.1769,-0.00100032,0.0245266,-0.0114127,0.0288849,-0.00535866,-1.206,0.0212691,0.0298847,1000,414,7.38398,50.1769
-217,610,7.42889,-51.1596,-0.00106148,0.0214723,-0.0103263,0.0254886,-0.00507778,-1.19986,0.0189136,0.0216331,1007,414,7.42888,51.1596
-210,610,7.36066,-52.1156,-0.00117958,0.0186341,-0.0092473,0.0222793,-0.00482479,-1.19531,0.0166952,0.0155725,1014,414,7.36067,52.1156
-203,610,7.29639,-52.9653,-0.00128071,0.0158961,-0.00819537,0.0191788,-0.00456348,-1.1898,0.0145476,0.0164767,1021,414,7.29635,52.9653
-196,610,7.224,-53.7643,-0.00137255,0.0133991,-0.00725849,0.0163688,-0.00434221,-1.18244,0.0126116,0.0150423,1028,414,7.22395,53.7643
-189,610,7.1488,-54.5309,-0.00132649,0.0111006,-0.00650104,0.01388,-0.00410581,-1.16679,0.0108832,0.0120841,1035,414,7.14884,54.5309
-182,610,7.08459,-55.273,-0.00123031,0.00915663,-0.00572832,0.0116953,-0.00376896,-1.15363,0.00931102,0.0139106,1042,414,7.08455,55.273
-175,610,7.0448,-56.0292,-0.00123422,0.00723565,-0.00481359,0.00941206,-0.00341063,-1.14617,0.00766871,0.0162418,1049,414,7.04478,56.0292
-168,610,6.96667,-56.8095,-0.00112906,0.00575419,-0.00410963,0.00767296,-0.00304783,-1.13398,0.00637877,0.0140149,1056,414,6.96662,56.8095
-161,610,6.91467,-57.5789,-0.00087128,0.00456432,-0.00349207,0.00627157,-0.00257852,-1.11608,0.0052558,0.0116876,1063,414,6.91462,57.5789
-154,610,6.88306,-58.2796,-0.000501259,0.00352371,-0.00287966,0.00502442,-0.00200197,-1.09038,0.00417992,0.0155483,1070,414,6.88303,58.2796
-147,610,6.83435,-58.9464,-0.000164201,0.00264575,-0.00228681,0.0039247,-0.00144315,-1.06086,0.00320762,0.0187617,1077,414,6.83439,58.9464
-140,610,6.80078,-59.6517,0.000211902,0.00181385,-0.00178601,0.00297027,-0.00094452,-0.996189,0.00235892,0.0142173,1084,414,6.80077,59.6517
-133,610,6.76855,-60.3219,0.000638611,0.00120538,-0.00135011,0.00230152,-0.000457538,-0.888844,0.00170742,0.0149864,1091,414,6.76857,60.3219
-126,610,6.73206,-60.9356,0.00107252,0.000750738,-0.000980826,0.00190556,-8.23053e-05,-0.704104,0.00129868,0.0141859,1098,414,6.73205,60.9356
-119,610,6.69934,-61.5736,0.00159499,0.000347515,-0.000646228,0.0018694,7.31115e-05,-0.401552,0.00122262,0.0124984,1105,414,6.69928,61.5736
-112,610,6.71216,-62.1948,0.00220999,0.000127563,-0.000419852,0.00229145,4.61008e-05,-0.191645,0.0015125,0.0213311,1112,414,6.71215,62.1948
-105,610,6.69556,-62.8,0.00282298,4.19588e-05,-0.00031568,0.00285836,6.5756e-06,-0.11162,0.00190339,0.0218513,1119,414,6.69556,62.8
-98,610,6.6969,-63.3849,0.00343847,-8.61197e-05,-0.000247886,0.00345581,-0.000103468,-0.0698721,0.00233913,0.0153668,1126,414,6.69687,63.3849
-91,610,6.68555,-63.9704,0.00412551,-0.000112973,-0.000223323,0.00413724,-0.000124707,-0.0524957,0.00280066,0.0159423,1133,414,6.68557,63.9704
-84,610,6.70984,-64.5184,0.00490714,-0.000294701,-9.41406e-05,0.00490884,-0.000296404,-0.0180897,0.0033757,0.0155164,1140,414,6.70984,64.5184
-77,610,6.71997,-65.079,0.00577779,-0.000730436,7.93969e-05,0.00577876,-0.000731405,0.012197,0.00411802,0.0134894,1147,414,6.71999,65.079
-70,610,6.77576,-65.5999,0.00671742,-0.00160781,0.000392198,0.00673586,-0.00162625,0.0469708,0.00511949,0.0163947,1154,414,6.77573,65.5999
-63,610,6.81628,-66.0779,0.00784444,-0.0024952,0.00256435,0.00844549,-0.00309625,0.230231,0.00689807,0.0175763,1161,414,6.81629,66.0779
-56,610,6.86841,-66.5339,0.00826393,-0.0039662,0.00397227,0.00944085,-0.00514312,0.288043,0.00854106,0.0164307,1168,414,6.86842,66.5339
-49,610,6.89636,-66.9731,0.00885372,-0.0063209,0.00516226,0.0104433,-0.00791052,0.298718,0.0106302,0.0154861,1175,414,6.89641,66.9731
-42,610,6.92786,-67.3946,0.010528,-0.00792599,0.00608345,0.012353,-0.00975095,0.291446,0.0127911,0.0175145,1182,414,6.92784,67.3946
-35,610,6.9978,-67.7753,0.0124387,-0.00965624,0.00692791,0.0144313,-0.0116488,0.280055,0.0150859,0.0174192,1189,414,6.99781,67.7753
-28,610,7.06482,-68.1102,0.01356,-0.0109985,0.00777686,0.0158155,-0.013254,0.282284,0.016805,0.0147656,1196,414,7.06477,68.1102
-21,610,7.1438,-68.4218,0.0145477,-0.0124469,0.00793582,0.0167078,-0.014607,0.265758,0.0180932,0.0127467,1203,414,7.14384,68.4217
-14,610,7.20532,-68.7262,0.0161266,-0.0143563,0.00797763,0.0180882,-0.0163178,0.241103,0.0198731,0.0135126,1210,414,7.20532,68.7262
-7,610,7.2832,-68.9787,0.0189109,-0.0162236,0.00759393,0.020482,-0.0177946,0.20401,0.0221172,0.0159791,1217,414,7.28325,68.9787
0,610,7.35278,-69.2756,0.0204587,-0.016997,0.00620043,0.0214584,-0.0179967,0.159861,0.0228086,0.0141267,1224,414,7.3528,69.2756
7,610,7.45093,-69.597,0.02025,-0.0178272,0.00502583,0.0209022,-0.0184794,0.129047,0.0227513,0.0174021,1231,414,7.45091,69.5969
14,610,7.66797,-69.7271,0.019182,-0.0183302,0.00408326,0.0196214,-0.0187695,0.107179,0.0221668,0.0258753,1238,414,7.66797,69.727
21,610,7.77332,-69.8544,0.0178667,-0.0188502,0.00302072,0.0181135,-0.0190971,0.0815398,0.0214861,0.0247975,1245,414,7.77333,69.8544
28,610,7.78113,-70.0681,0.01448,-0.0195174,0.00236401,0.0146436,-0.019681,0.0690919,0.0198883,0.0200972,1252,414,7.78117,70.0681
35,610,7.98267,-70.2069,0.0102486,-0.0204016,0.00192326,0.0103688,-0.0205218,0.0624223,0.018153,0.022049,1259,414,7.98268,70.2069
42,610,8.02551,-70.2419,0.00565078,-0.0210148,0.00171565,0.00576072,-0.0211247,0.0639879,0.0163453,0.0216521,1266,414,8.02546,70.2419
49,610,8.07166,-70.3868,8.41301e-05,-0.0215459,0.00233759,0.000333873,-0.0217957,0.106434,0.014643,0.0228638,1273,414,8.07162,70.3868
56,610,8.16138,-70.4255,-0.00564141,-0.0203044,0.00401813,-0.00461251,-0.0213333,0.250678,0.0129612,0.022243,1280,414,8.16139,70.4255
63,610,8.25049,-70.4899,-0.0111299,-0.0197624,0.00639514,-0.00773073,-0.0231615,0.488551,0.0136164,0.0305425,1287,414,8.25052,70.4899
70,610,8.40649,-70.478,-0.015973,-0.019112,0.00873712,-0.00866551,-0.0264195,0.696526,0.0155512,0.0445912,1294,414,8.40644,70.478
77,610,8.65076,-70.5219,0,0,0,0,0,0,0,-1,1301,414,8.6507,70.5219
84,610,8.75781,-70.2894,-0.0202824,-0.0161173,0.0143006,-0.00374845,-0.0326512,0.857703,0.0206318,0.0451002,1308,414,8.7578,70.2894
91,610,8.79175,-70.3726,-0.0211971,-0.0139547,0.0167467,-0.00044214,-0.0347096,0.891875,0.0229938,0.0319844,1315,414,8.79169,70.3726
98,610,8.95789,-70.2315,-0.0212558,-0.0117856,0.0192148,0.00326892,-0.0363104,0.906206,0.0253669,0.0282416,1322,414,8.95791,70.2315
105,610,9.11206,-70.0063,-0.0200745,-0.00996533,0.0219795,0.00753334,-0.0375731,0.898417,0.027901,0.0229001,1329,414,9.1121,70.0063
112,610,9.19165,-69.8204,-0.0170577,-0.00794843,0.0235999,0.0115323,-0.0365384,0.880723,0.0289783,0.0143833,1336,414,9.19162,69.8204
119,610,9.27185,-69.6436,-0.0133923,-0.00604172,0.0242734,0.014833,-0.0342671,0.860534,0.0290787,0.0200458,1343,414,9.2719,69.6436
126,610,9.37549,-69.3642,-0.010106,-0.00406865,0.0243749,0.0174738,-0.0316485,0.847006,0.0287516,0.0282411,1350,414,9.37549,69.3642
133,610,9.47974,-69.0795,-0.00661927,-0.00205836,0.0240672,0.0198362,-0.0285138,0.832634,0.0280643,0.0218607,1357,414,9.47971,69.0795
140,610,9.62305,-68.8339,-0.00379766,-0.000396629,0.0233626,0.0213273,-0.0255216,0.821728,0.0270843,0.020633,1364,414,9.62305,68.8339
147,610,9.58691,-68.4579,-0.0016556,0.00017596,0.0218295,0.0211089,-0.0225885,0.806362,0.0252336,0.0216248,1371,414,9.58695,68.4579
154,610,9.59607,-68.0787,0.000589397,0.000806635,0.0199372,0.0206355,-0.0192395,0.788122,0.0230265,0.0248788,1378,414,9.5961,68.0787
161,610,9.76855,-67.7502,0.0024653,1.6115e-05,0.0173592,0.0186431,-0.0161617,0.750184,0.0201116,0.0291974,1385,414,9.76853,67.7502
168,610,9.89929,-67.378,0.00396825,-6.80456e-05,0.0143416,0.016433,-0.0125328,0.715497,0.0167738,0.026686,1392,414,9.89932,67.378
175,610,9.92236,-66.9675,0.00504282,-8.01892e-06,0.0115419,0.0143324,-0.00929756,0.677693,0.0137456,0.0214687,1399,414,9.92235,66.9675
182,610,9.95801,-66.5061,0.00542425,-0.000784112,0.00854288,0.0114094,-0.00676931,0.611133,0.0106089,0.0160415,1406,414,9.95799,66.5061
189,610,9.98962,-66.0133,0.00523332,-0.00168317,0.0054952,0.0082679,-0.00471774,0.504548,0.00759008,0.0148331,1413,414,9.98959,66.0133
196,610,10.0282,-65.5259,0.00535895,-0.00201784,0.00274053,0.00626563,-0.00292452,0.319507,0.00542156,0.0151746,1420,414,10.0282,65.5259
203,610,10.0485,-65.0191,0.00527431,-0.00200706,0.000375755,0.00529365,-0.0020264,0.0514229,0.0043643,0.0170441,1427,414,10.0485,65.0191
210,610,10.0471,-64.5172,0.0049284,-0.00215458,-0.00132551,0.00516833,-0.00239451,-0.17907,0.00446323,0.0129761,1434,414,10.0471,64.5171
217,610,10.0894,-63.9109,0.00394487,-0.000968339,-0.000760192,0.0040598,-0.00108327,-0.150051,0.00313073,0.0185606,1441,414,10.0894,63.9109
224,610,10.1144,-63.3622,0.00335636,0.000437075,3.34254e-05,0.00335675,0.000436693,0.0114478,0.0021074,0.0210877,1448,414,10.1144,63.3622
231,610,10.14,-62.8004,0.00294055,0.00131015,0.000743017,0.00322835,0.00102234,0.369555,0.00190519,0.0167662,1455,414,10.14,62.8004
238,610,10.116,-62.1479,0.00266203,0.00201319,0.00128012,0.00365821,0.00101702,0.661296,0.00218035,0.0118121,1462,414,10.116,62.1479
245,610,10.1129,-61.4898,0.00232094,0.00261774,0.00160859,0.00408476,0.00085392,0.831396,0.00248787,0.0121661,1469,414,10.113,61.4898
252,610,10.0516,-60.8354,0.00197304,0.00326081,0.00201671,0.00473393,0.000499921,0.939921,0.00300321,0.0136466,1476,414,10.0516,60.8354
259,610,10.0425,-60.1612,0.0016634,0.00382535,0.00246357,0.00543467,5.4074e-05,0.992142,0.00360522,0.0125336,1483,414,10.0425,60.1612
266,610,10.0187,-59.4689,0.00137506,0.00434361,0.00288194,0.00610104,-0.000382369,1.0232,0.00420062,0.0127893,1490,414,10.0187,59.4689
273,610,9.99609,-58.7671,0.00106997,0.00503557,0.00333497,0.00693265,-0.000827122,1.0536,0.0049207,0.0106636,1497,414,9.99612,58.7671
280,610,9.96045,-58.0483,0.000803983,0.00573778,0.00385053,0.00784386,-0.0013021,1.07029,0.00571295,0.0100534,1504,414,9.96041,58.0483
287,610,9.89648,-57.3203,0.000637963,0.00663307,0.00447151,0.0090188,-0.00174777,1.08068,0.00667187,0.0125601,1511,414,9.89651,57.3203
294,610,9.86047,-56.5989,0.0004004,0.00747985,0.00503254,0.0100929,-0.00221261,1.09189,0.0075746,0.0110682,1518,414,9.86048,56.5989
301,610,9.81787,-55.8692,0.000205791,0.00845242,0.00566788,0.0113381,-0.00267993,1.09987,0.00859253,0.0103943,1525,414,9.81792,55.8692
308,610,9.76318,-55.0765,0.00016512,0.00983219,0.0064228,0.013037,-0.00303972,1.10797,0.009862,0.0128728,1532,414,9.76323,55.0765
315,610,9.68933,-54.2908,0.000270984,0.0116402,0.00732671,0.015229,-0.00331777,1.11533,0.0114204,0.0144603,1539,414,9.68929,54.2908
322,610,9.61694,-53.5,0.000344197,0.0133804,0.00825867,0.0173833,-0.0036587,1.11947,0.0129814,0.013428,1546,414,9.617,53.5
329,610,9.54663,-52.7007,0.000537176,0.0153295,0.00933391,0.0198423,-0.00397571,1.12044,0.0147334,0.0119365,1553,414,9.54663,52.7007
336,610,9.50745,-51.897,0.000798824,0.0175986,0.0103568,0.0225337,-0.00413628,1.12612,0.0165742,0.0134684,1560,414,9.5075,51.897
343,610,9.43176,-51.0697,0.00101147,0.0197053,0.0113197,0.0250383,-0.00432155,1.13051,0.0183036,0.0204425,1567,414,9.43177,51.0697
350,610,9.3656,-50.0992,0.00132018,0.0225735,0.0124401,0.0283078,-0.00441416,1.13887,0.0205023,0.0295413,1574,414,9.36565,50.0991
357,610,9.34766,-49.0241,0.00162614,0.0257062,0.0137663,0.0319548,-0.00462243,1.1447,0.0229994,0.0356239,1581,414,9.34767,49.0241
364,610,9.39441,-48.0038,0.00191371,0.0290536,0.0150512,0.0357489,-0.00478164,1.15224,0.0255759,0.0385186,1588,414,9.39437,48.0038
371,610,9.31165,-47.3586,0,0,0,0,0,0,0,-1,1595,414,9.31161,47.3586
378,610,9.31104,-46.5886,0,0,0,0,0,0,0,-1,1602,414,9.31106,46.5886
385,610,2.57104,-10.3878,0,0,0,0,0,0,0,-1,1609,414,2.57109,10.3878
392,610,1.99744,-1.83582,0,0,0,0,0,0,0,-1,1616,414,1.99741,1.8358
399,610,2.77136,-2.60333,0,0,0,0,0,0,0,-1,1623,414,2.77133,2.60332
406,610,3.54529,-3.37085,0,0,0,0,0,0,0,-1,1630,414,3.54525,3.37084
413,610,3.01929,-3.20306,0,0,0,0,0,0,0,-1,1637,414,3.01929,3.20306
420,610,4.78149,-3.64041,0,0,0,0,0,0,0,-1,1644,414,4.78152,3.64042
427,610,8.85168,-23.3853,0,0,0,0,0,0,0,-1,1651,414,8.85174,23.3853
434,610,8.73706,-22.6227,0,0,0,0,0,0,0,-1,1658,414,8.73703,22.6227
441,610,0,0,0,0,0,0,0,0,0,-1,1665,414,0,0
448,610,0,0,0,0,0,0,0,0,0,-1,1672,414,0,0
455,610,0,0,0,0,0,0,0,0,0,-1,1679,414,0,0
462,610,0,0,0,0,0,0,0,0,0,-1,1686,414,0,0
469,610,0,0,0,0,0,0,0,0,0,-1,1693,414,0,0
476,610,0,0,0,0,0,0,0,0,0,-1,1700,414,0,0
483,610,0,0,0,0,0,0,0,0,0,-1,1707,414,0,0
490,610,0,0,0,0,0,0,0,0,0,-1,1714,414,0,0
497,610,0,0,0,0,0,0,0,0,0,-1,1721,414,0,0
504,610,0,0,0,0,0,0,0,0,0,-1,1728,414,0,0
511,610,0,0,0,0,0,0,0,0,0,-1,1735,414,0,0
518,610,0,0,0,0,0,0,0,0,0,-1,1742,414,0,0
525,610,0,0,0,0,0,0,0,0,0,-1,1749,414,0,0
532,610,0,0,0,0,0,0,0,0,0,-1,1756,414,0,0
539,610,0,0,0,0,0,0,0,0,0,-1,1763,414,0,0
546,610,0,0,0,0,0,0,0,0,0,-1,1770,414,0,0
553,610,0,0,0,0,0,0,0,0,0,-1,1777,414,0,0
560,610,0,0,0,0,0,0,0,0,0,-1,1784,414,0,0
567,610,0,0,0,0,0,0,0,0,0,-1,1791,414,0,0
574,610,0,0,0,0,0,0,0,0,0,-1,1798,414,0,0
581,610,0,0,0,0,0,0,0,0,0,-1,1805,414,0,0
588,610,0,0,0,0,0,0,0,0,0,-1,1812,414,0,0
595,610,0,0,0,0,0,0,0,0,0,-1,1819,414,0,0
602,610,0,0,0,0,0,0,0,0,0,-1,1826,414,0,0
609,610,0,0,0,0,0,0,0,0,0,-1,1833,414,0,0
616,610,0,0,0,0,0,0,0,0,0,-1,1840,414,0,0
623,610,0,0,0,0,0,0,0,0,0,-1,1847,414,0,0
630,610,0,0,0,0,0,0,0,0,0,-1,1854,414,0,0
637,610,0,0,0,0,0,0,0,0,0,-1,1861,414,0,0
644,610,0,0,0,0,0,0,0,0,0,-1,1868,414,0,0
651,610,0,0,0,0,0,0,0,0,0,-1,1875,414,0,0
658,610,0,0,0,0,0,0,0,0,0,-1,1882,414,0,0
665,610,0,0,0,0,0,0,0,0,0,-1,1889,414,0,0
672,610,0,0,0,0,0,0,0,0,0,-1,1896,414,0,0
679,610,0,0,0,0,0,0,0,0,0,-1,1903,414,0,0
686,610,0,0,0,0,0,0,0,0,0,-1,1910,414,0,0
693,610,0,0,0,0,0,0,0,0,0,-1,1917,414,0,0
700,610,0,0,0,0,0,0,0,0,0,-1,1924,414,0,0
707,610,0,0,0,0,0,0,0,0,0,-1,1931,414,0,0
714,610,0,0,0,0,0,0,0,0,0,-1,1938,414,0,0
721,610,0,0,0,0,0,0,0,0,0,-1,1945,414,0,0
728,610,0,0,0,0,0,0,0,0,0,-1,1952,414,0,0
735,610,0,0,0,0,0,0,0,0,0,-1,1959,414,0,0
742,610,0,0,0,0,0,0,0,0,0,-1,1966,414,0,0
749,610,0,0,0,0,0,0,0,0,0,-1,1973,414,0,0
756,610,0,0,0,0,0,0,0,0,0,-1,1980,414,0,0
763,610,0,0,0,0,0,0,0,0,0,-1,1987,414,0,0
770,610,0,0,0,0,0,0,0,0,0,-1,1994,414,0,0
777,610,0,0,0,0,0,0,0,0,0,-1,2001,414,0,0
784,610,0,0,0,0,0,0,0,0,0,-1,2008,414,0,0
791,610,0,0,0,0,0,0,0,0,0,-1,2015,414,0,0
798,610,0,0,0,0,0,0,0,0,0,-1,2022,414,0,0
805,610,0,0,0,0,0,0,0,0,0,-1,2029,414,0,0
812,610,0,0,0,0,0,0,0,0,0,-1,2036,414,0,0
-700,603,0,0,0,0,0,0,0,0,0,-1,524,421,0,0
-693,603,0,0,0,0,0,0,0,0,0,-1,531,421,0,0
-686,603,0,0,0,0,0,0,0,0,0,-1,538,421,0,0
-679,603,0,0,0,0,0,0,0,0,0,-1,545,421,0,0
-672,603,0,0,0,0,0,0,0,0,0,-1,552,421,0,0
-665,603,0,0,0,0,0,0,0,0,0,-1,559,421,0,0
-658,603,0,0,0,0,0,0,0,0,0,-1,566,421,0,0
-651,603,0,0,0,0,0,0,0,0,0,-1,573,421,0,0
-644,603,0,0,0,0,0,0,0,0,0,-1,580,421,0,0
-637,603,0,0,0,0,0,0,0,0,0,-1,587,421,0,0
-630,603,0,0,0,0,0,0,0,0,0,-1,594,421,0,0
-623,603,0,0,0,0,0,0,0,0,0,-1,601,421,0,0
-616,603,0,0,0,0,0,0,0,0,0,-1,608,421,0,0
-609,603,0,0,0,0,0,0,0,0,0,-1,615,421,0,0
-602,603,0,0,0,0,0,0,0,0,0,-1,622,421,0,0
-595,603,0,0,0,0,0,0,0,0,0,-1,629,421,0,0
-588,603,0,0,0,0,0,0,0,0,0,-1,636,421,0,0
-581,603,0,0,0,0,0,0,0,0,0,-1,643,421,0,0
-574,603,0,0,0,0,0,0,0,0,0,-1,650,421,0,0
-567,603,0,0,0,0,0,0,0,0,0,-1,657,421,0,0
-560,603,0,0,0,0,0,0,0,0,0,-1,664,421,0,0
-553,603,0,0,0,0,0,0,0,0,0,-1,671,421,0,0
-546,603,0,0,0,0,0,0,0,0,0,-1,678,421,0,0
-539,603,0,0,0,0,0,0,0,0,0,-1,685,421,0,0
-532,603,0,0,0,0,0,0,0,0,0,-1,692,421,0,0
-525,603,0,0,0,0,0,0,0,0,0,-1,699,421,0,0
-518,603,0,0,0,0,0,0,0,0,0,-1,706,421,0,0
-511,603,0,0,0,0,0,0,0,0,0,-1,713,421,0,0
-504,603,0,0,0,0,0,0,0,0,0,-1,720,421,0,0
-497,603,0,0,0,0,0,0,0,0,0,-1,727,421,0,0
-490,603,0,0,0,0,0,0,0,0,0,-1,734,421,0,0
-483,603,0,0,0,0,0,0,0,0,0,-1,741,421,0,0
-476,603,0,0,0,0,0,0,0,0,0,-1,748,421,0,0
-469,603,0,0,0,0,0,0,0,0,0,-1,755,421,0,0
-462,603,0,0,0,0,0,0,0,0,0,-1,762,421,0,0
-455,603,0,0,0,0,0,0,0,0,0,-1,769,421,0,0
-448,603,0,0,0,0,0,0,0,0,0,-1,776,421,0,0
-441,603,0,0,0,0,0,0,0,0,0,-1,783,421,0,0
-434,603,0,0,0,0,0,0,0,0,0,-1,790,421,0,0
-427,603,0,0,0,0,0,0,0,0,0,-1,797,421,0,0
-420,603,0,0,0,0,0,0,0,0,0,-1,804,421,0,0
-413,603,0,0,0,0,0,0,0,0,0,-1,811,421,0,0
-406,603,0,0,0,0,0,0,0,0,0,-1,818,421,0,0
-399,603,0,0,0,0,0,0,0,0,0,-1,825,421,0,0
-392,603,0,0,0,0,0,0,0,0,0,-1,832,421,0,0
-385,603,0,0,0,0,0,0,0,0,0,-1,839,421,0,0
-378,603,0,0,0,0,0,0,0,0,0,-1,846,421,0,0
-371,603,0,0,0,0,0,0,0,0,0,-1,853,421,0,0
-364,603,0,0,0,0,0,0,0,0,0,-1,860,421,0,0
-357,603,0,0,0,0,0,0,0,0,0,-1,867,421,0,0
-350,603,0,0,0,0,0,0,0,0,0,-1,874,421,0,0
-343,603,0,0,0,0,0,0,0,0,0,-1,881,421,0,0
-336,603,0,0,0,0,0,0,0,0,0,-1,888,421,0,0
-329,603,4.09686,-17.9702,0,0,0,0,0,0,0,-1,895,421,4.09687,17.9702
-322,603,8.83179,-28.7376,0,0,0,0,0,0,0,-1,902,421,8.83179,28.7376
-315,603,5.99744,-20.4501,0,0,0,0,0,0,0,-1,909,421,5.99745,20.4501
-308,603,5.92249,-20.778,0,0,0,0,0,0,0,-1,916,421,5.92248,20.778
-301,603,2.72424,-20.9059,0,0,0,0,0,0,0,-1,923,421,2.72424,20.9059
-294,603,2.41553,-20.6767,0,0,0,0,0,0,0,-1,930,421,2.41554,20.6767
-287,603,1.91766,-21.2242,0,0,0,0,0,0,0,-1,937,421,1.91767,21.2242
-280,603,2.36121,-27.3314,0,0,0,0,0,0,0,-1,944,421,2.36119,27.3314
-273,603,7.96613,-34.8225,0,0,0,0,0,0,0,-1,951,421,7.96613,34.8225
-266,603,7.18787,-34.9736,0,0,0,0,0,0,0,-1,958,421,7.18788,34.9736
-259,603,5.44666,-36.8901,0,0,0,0,0,0,0,-1,965,421,5.44664,36.8901
-252,603,7.04456,-46.9271,0,0,0,0,0,0,0,-1,972,421,7.04454,46.9271
-245,603,6.99792,-47.6977,-0.000474058,0.0262692,-0.0125305,0.0312228,-0.00542764,-1.19433,0.0228404,0.0399902,979,421,6.9979,47.6977
-238,603,6.85681,-48.6214,-0.000710309,0.0237032,-0.0112499,0.0280966,-0.00510372,-1.19848,0.0206437,0.0229793,986,421,6.85682,48.6214
-231,603,6.73553,-49.5636,-0.000925772,0.0211273,-0.00989445,0.0249158,-0.00471425,-1.20513,0.0183845,0.0145841,993,421,6.73556,49.5636
-224,603,6.67255,-50.4558,-0.000832835,0.0187471,-0.00885345,0.0221566,-0.00424238,-1.20319,0.0163695,0.0148844,1000,421,6.67253,50.4559
-217,603,6.63324,-51.28,-0.000773449,0.0162965,-0.00793907,0.0194181,-0.00389499,-1.19618,0.0144201,0.0143122,1007,421,6.63327,51.28
-210,603,6.59296,-52.1099,-0.000732806,0.013949,-0.0070352,0.0167758,-0.00355965,-1.18873,0.01254,0.012805,1014,421,6.59293,52.1099
-203,603,6.53394,-52.9731,-0.000667865,0.0116747,-0.00613459,0.014205,-0.0031982,-1.17959,0.0106966,0.0183696,1021,421,6.53395,52.9731
-196,603,6.4895,-53.8087,-0.000605588,0.00953811,-0.00531342,0.0118117,-0.00287922,-1.16647,0.00898927,0.019498,1028,421,6.4895,53.8087
-189,603,6.4491,-54.5228,-0.000437764,0.00750423,-0.00463277,0.00963498,-0.00256852,-1.13971,0.007429,0.0168859,1035,421,6.44907,54.5228
-182,603,6.37073,-55.264,-0.000223977,0.00573255,-0.00393004,0.00768534,-0.00217676,-1.10964,0.00598264,0.0129227,1042,421,6.37073,55.264
-175,603,6.30579,-56.0241,-8.8263e-05,0.00400835,-0.00311751,0.00569026,-0.00177016,-1.07605,0.00450112,0.0135334,1049,421,6.3058,56.0241
-168,603,6.23425,-56.786,0.0001241,0.00267619,-0.00247188,0.00418195,-0.00138167,-1.02367,0.00334503,0.0162064,1056,421,6.23424,56.786
-161,603,6.19263,-57.5453,0.000448517,0.00159877,-0.00189224,0.00300135,-0.000954064,-0.932932,0.00238345,0.0150498,1063,421,6.19261,57.5453
-154,603,6.17273,-58.2436,0.000861719,0.000690056,-0.00131111,0.0020898,-0.00053803,-0.752712,0.00160293,0.0140442,1070,421,6.17268,58.2436
-147,603,6.13123,-58.9073,0.0012877,-2.42851e-05,-0.000778931,0.00165007,-0.000386653,-0.435432,0.00124904,0.0162675,1077,421,6.13124,58.9073
-140,603,6.16052,-59.5881,0.00173371,-0.000687034,-0.0003174,0.00177464,-0.000727958,-0.128229,0.0014864,0.0141616,1084,421,6.16053,59.5881
-133,603,6.12231,-60.2748,0.00220139,-0.00113359,7.428e-05,0.00220304,-0.00113525,0.0222583,0.00195995,0.0137434,1091,421,6.12226,60.2748
-126,603,6.10266,-60.8943,0.00270974,-0.00139416,0.000376167,0.00274394,-0.00142835,0.0906542,0.00244846,0.0125149,1098,421,6.10265,60.8943
-119,603,6.11926,-61.5242,0.00337487,-0.0015624,0.000610723,0.00344929,-0.00163683,0.121262,0.00299798,0.0122849,1105,421,6.11929,61.5242
-112,603,6.11389,-62.1669,0.00410767,-0.00157352,0.000729035,0.00419973,-0.00166558,0.125613,0.00349011,0.0169475,1112,421,6.11385,62.1669
-105,603,6.1106,-62.7562,0.00481431,-0.0014769,0.000748524,0.00490215,-0.00156474,0.116807,0.00389587,0.0170638,1119,421,6.1106,62.7562
-98,603,6.11353,-63.3219,0.00554218,-0.00150805,0.000738424,0.00561869,-0.00158456,0.103245,0.0043708,0.0152828,1126,421,6.11352,63.3219
-91,603,6.1355,-63.9123,0.0063773,-0.00142231,0.000651702,0.00643138,-0.00147639,0.0827907,0.00485513,0.0112657,1133,421,6.13554,63.9123
-84,603,6.16858,-64.4892,0.00732112,-0.00156335,0.000718684,0.00737888,-0.00162111,0.0801973,0.00553927,0.0123175,1140,421,6.16858,64.4892
-77,603,6.23401,-65.0763,0.00841083,-0.00202895,0.000858823,0.00848101,-0.00209913,0.0815339,0.00646827,0.0188323,1147,421,6.23405,65.0763
-70,603,6.20337,-65.5382,0,0,0,0,0,0,0,-1,1154,421,6.2034,65.5382
-63,603,6.22827,-65.9571,0,0,0,0,0,0,0,-1,1161,421,6.22827,65.9571
-56,603,6.37524,-66.4579,0,0,0,0,0,0,0,-1,1168,421,6.37525,66.4579
-49,603,6.47046,-66.9137,0,0,0,0,0,0,0,-1,1175,421,6.47041,66.9137
-42,603,6.53687,-67.3966,0,0,0,0,0,0,0,-1,1182,421,6.53686,67.3966
-35,603,6.53992,-67.6383,0.0156453,-0.0131526,0.0102837,0.0189406,-0.0164478,0.310095,0.0204484,0.0448653,1189,421,6.53988,67.6383
-28,603,6.61768,-67.9374,0.0160632,-0.0146621,0.0113392,0.0197948,-0.0183936,0.317921,0.022053,0.0325355,1196,421,6.61769,67.9374
-21,603,6.70776,-68.2804,0.0165474,-0.0161354,0.0115388,0.0202107,-0.0197987,0.307407,0.0230998,0.0275928,1203,421,6.7078,68.2804
-14,603,6.83093,-68.5831,0.0179385,-0.0183497,0.01136,0.0212013,-0.0216126,0.279694,0.024719,0.0228862,1210,421,6.83088,68.5831
-7,603,6.91418,-68.8935,0.0210495,-0.0204217,0.0107308,0.0236616,-0.0230337,0.238777,0.0269604,0.0265476,1217,421,6.91417,68.8935
0,603,6.96692,-69.2491,0.0229336,-0.0210258,0.00888544,0.0246617,-0.0227539,0.192085,0.0273828,0.0378122,1224,421,6.96694,69.2491
7,603,7.03821,-69.5558,0,0,0,0,0,0,0,-1,1231,421,7.03815,69.5558
14,603,7.46472,-69.3051,0,0,0,0,0,0,0,-1,1238,421,7.46477,69.3051
21,603,7.58472,-69.4746,0,0,0,0,0,0,0,-1,1245,421,7.58475,69.4746
28,603,7.72546,-69.5214,0,0,0,0,0,0,0,-1,1252,421,7.72542,69.5214
35,603,8.06238,-69.9358,0,0,0,0,0,0,0,-1,1259,421,8.06235,69.9358
42,603,7.93335,-69.5337,0.00191224,-0.0257158,0.00330961,0.00230318,-0.0261067,0.117576,0.0182208,0.0462248,1266,421,7.93335,69.5337
49,603,7.93494,-69.7067,-0.00517308,-0.0265712,0.00419291,-0.00438083,-0.0273634,0.18675,0.0169715,0.02438,1273,421,7.93498,69.7067
56,603,7.98218,-70.004,0,0,0,0,0,0,0,-1,1280,421,7.98215,70.004
63,603,8.10596,-70.3579,0,0,0,0,0,0,0,-1,1287,421,8.106,70.358
70,603,8.28589,-70.2839,0,0,0,0,0,0,0,-1,1294,421,8.28583,70.2839
77,603,9.49036,-68.8863,0,0,0,0,0,0,0,-1,1301,421,9.49038,68.8863
84,603,8.85913,-70.22,0,0,0,0,0,0,0,-1,1308,421,8.85914,70.22
91,603,8.8501,-70.4911,0,0,0,0,0,0,0,-1,1315,421,8.8501,70.4911
98,603,9.13135,-70.416,0,0,0,0,0,0,0,-1,1322,421,9.13136,70.4161
105,603,9.37964,-70.0696,0,0,0,0,0,0,0,-1,1329,421,9.37959,70.0696
112,603,9.57446,-69.4259,-0.0252315,-0.0115602,0.0318124,0.0141427,-0.0509344,0.891226,0.0395231,0.0460298,1336,421,9.57445,69.4259
119,603,9.7052,-69.288,-0.0204567,-0.00872202,0.0332196,0.0191444,-0.0483231,0.872808,0.0401484,0.0483003,1343,421,9.70517,69.288
126,603,9.69031,-69.2177,0,0,0,0,0,0,0,-1,1350,421,9.69027,69.2177
133,603,9.80493,-68.7554,-0.0115836,-0.00261677,0.0342568,0.0274487,-0.0416491,0.850467,0.0401735,0.0462483,1357,421,9.80499,68.7554
140,603,10.1464,-68.362,-0.00791807,1.40589e-05,0.0339844,0.030263,-0.038167,0.843487,0.0395959,0.0449,1364,421,10.1463,68.362
147,603,10.0361,-68.1286,-0.00512041,0.00139805,0.0326328,0.030934,-0.0346563,0.835171,0.0378889,0.0359697,1371,421,10.0361,68.1286
154,603,9.91211,-67.9855,-0.00220388,0.0029333,0.0308889,0.0313602,-0.0306308,0.826881,0.0357913,0.0416635,1378,421,9.91212,67.9855
161,603,10.1382,-67.6138,0.000524463,0.00267476,0.0281956,0.0298157,-0.0266165,0.804455,0.0325986,0.0369553,1385,421,10.1382,67.6138
168,603,10.3097,-67.232,0.00278154,0.00261377,0.0244471,0.0271449,-0.0217496,0.783683,0.0282865,0.0382888,1392,421,10.3096,67.232
175,603,10.5599,-66.8545,0.00462754,0.00252093,0.0206231,0.0242242,-0.0170757,0.759883,0.0239633,0.0427584,1399,421,10.5599,66.8545
182,603,10.6483,-66.4052,0.00566629,0.000935988,0.0161948,0.0196677,-0.0130654,0.712889,0.0190262,0.0486482,1406,421,10.6483,66.4052
189,603,10.5828,-65.9033,0.00597895,-0.00133226,0.0111347,0.0140428,-0.0093961,0.626788,0.0136208,0.0408775,1413,421,10.5828,65.9033
196,603,10.5557,-65.3512,0.00679442,-0.00295638,0.00595039,0.00961166,-0.00577362,0.442187,0.00897435,0.0295192,1420,421,10.5557,65.3512
203,603,10.5928,-64.9411,0.00712651,-0.00392859,0.00112322,0.00723948,-0.00404156,0.100238,0.00659977,0.0179323,1427,421,10.5928,64.9411
210,603,10.6115,-64.5336,0.00718675,-0.0051636,-0.00276036,0.00777562,-0.00575248,-0.210182,0.00783951,0.0146436,1434,421,10.6114,64.5336
217,603,10.629,-63.9003,0.00594192,-0.00367283,-0.00206032,0.00636482,-0.00409573,-0.202447,0.00608658,0.0141496,1441,421,10.629,63.9003
224,603,10.702,-63.3029,0.0052794,-0.00159243,-0.000866065,0.00538687,-0.0016999,-0.123459,0.00427214,0.0182483,1448,421,10.702,63.3029
231,603,10.7437,-62.7455,0.00475775,-0.000472731,7.7599e-05,0.0047589,-0.000473882,0.0148316,0.00334178,0.0169192,1455,421,10.7436,62.7455
238,603,10.7307,-62.1148,0.0043787,0.0002173,0.000619224,0.00446888,0.000127113,0.144629,0.0029378,0.0121363,1462,421,10.7307,62.1148
245,603,10.7291,-61.4725,0.00388767,0.000692039,0.000839723,0.00409489,0.00048482,0.241937,0.00258353,0.011768,1469,421,10.7292,61.4725
252,603,10.7235,-60.8163,0.00338989,0.00126272,0.00116445,0.00390337,0.000749232,0.415318,0.00239194,0.010518,1476,421,10.7235,60.8163
259,603,10.7125,-60.1475,0.00295103,0.00168771,0.00149825,0.00394533,0.000693411,0.585905,0.00243226,0.0107469,1483,421,10.7126,60.1475
266,603,10.6921,-59.4529,0.00253966,0.00204678,0.00176326,0.00407362,0.000512824,0.715966,0.00256197,0.0119958,1490,421,10.6922,59.4529
273,603,10.6906,-58.7515,0.00209333,0.00248904,0.00203118,0.00433198,0.000250394,0.83395,0.00280824,0.0110108,1497,421,10.6906,58.7515
280,603,10.6796,-58.0506,0.0016715,0.00299013,0.00237553,0.00479614,-0.000134511,0.920764,0.0032432,0.0124434,1504,421,10.6795,58.0506
287,603,10.6359,-57.3015,0.00136675,0.00365234,0.00279954,0.00553336,-0.000514263,0.979179,0.00387173,0.0119504,1511,421,10.6359,57.3015
294,603,10.5759,-56.5707,0.00103288,0.00434823,0.00320873,0.00630218,-0.000921078,1.02382,0.00453974,0.0102393,1518,421,10.5759,56.5707
301,603,10.5288,-55.8224,0.000747767,0.00519146,0.00371197,0.00729574,-0.00135651,1.05508,0.00537338,0.0124451,1525,421,10.5289,55.8224
308,603,10.4932,-55.0451,0.000607341,0.00640371,0.00434513,0.00872852,-0.00171746,1.07951,0.00646796,0.018412,1532,421,10.4932,55.0451
315,603,10.444,-54.2776,0.000596903,0.00799189,0.0051219,0.0106115,-0.00202267,1.09803,0.00783603,0.016931,1539,421,10.444,54.2776
322,603,10.3851,-53.489,0.000562247,0.00953937,0.00592887,0.0124871,-0.0023855,1.1094,0.00922332,0.0162285,1546,421,10.3851,53.489
329,603,10.3103,-52.6923,0.000616584,0.0111943,0.00683438,0.0145473,-0.00273636,1.1147,0.0107273,0.0117121,1553,421,10.3103,52.6922
336,603,10.2687,-51.8969,0.000762305,0.0131768,0.0077555,0.0169032,-0.00296412,1.12288,0.0123757,0.00999912,1560,421,10.2687,51.8969
343,603,10.2214,-51.0811,0.000866204,0.0150529,0.00867621,0.0191664,-0.00324723,1.12808,0.0139862,0.0118523,1567,421,10.2214,51.081
350,603,10.1583,-50.235,0.00100929,0.0174763,0.00965045,0.0219283,-0.00344269,1.13857,0.0158912,0.0129659,1574,421,10.1583,50.235
357,603,10.0825,-49.3671,0.00115021,0.019963,0.0107537,0.0248438,-0.00373056,1.14473,0.0179358,0.0142535,1581,421,10.0825,49.3671
364,603,10.0651,-48.4299,0.00124661,0.0225284,0.0118036,0.0277794,-0.00400443,1.15222,0.0199886,0.0175218,1588,421,10.0651,48.4299
371,603,10.0188,-47.5126,0.00128948,0.0252377,0.0128061,0.0307957,-0.00426856,1.16132,0.0220912,0.024211,1595,421,10.0188,47.5126
378,603,9.95227,-46.7025,0.00122969,0.0278476,0.0137089,0.0336453,-0.00456794,1.1707,0.0240976,0.038388,1602,421,9.95223,46.7025
385,603,9.82227,-45.8848,0,0,0,0,0,0,0,-1,1609,421,9.82227,45.8848
392,603,9.82898,-45.0142,0,0,0,0,0,0,0,-1,1616,421,9.82892,45.0142
399,603,9.37659,-43.3811,0,0,0,0,0,0,0,-1,1623,421,9.37653,43.3811
406,603,9.27148,-42.8571,0,0,0,0,0,0,0,-1,1630,421,9.27143,42.8571
413,603,2.38928,-2.41275,0,0,0,0,0,0,0,-1,1637,421,2.38926,2.41274
420,603,8.22217,-23.7068,0,0,0,0,0,0,0,-1,1644,421,8.22215,23.7068
427,603,8.20386,-23.1278,0,0,0,0,0,0,0,-1,1651,421,8.2039,23.1278
434,603,8.01489,-22.5655,0,0,0,0,0,0,0,-1,1658,421,8.01493,22.5655
441,603,8.00122,-22.3072,0,0,0,0,0,0,0,-1,1665,421,8.00116,22.3071
448,603,1.14355,-4.59842,0,0,0,0,0,0,0,-1,1672,421,1.14355,4.59841
455,603,0,0,0,0,0,0,0,0,0,-1,1679,421,0,0
462,603,0,0,0,0,0,0,0,0,0,-1,1686,421,0,0
469,603,0,0,0,0,0,0,0,0,0,-1,1693,421,0,0
476,603,0,0,0,0,0,0,0,0,0,-1,1700,421,0,0
483,603,0,0,0,0,0,0,0,0,0,-1,1707,421,0,0
490,603,0,0,0,0,0,0,0,0,0,-1,1714,421,0,0
497,603,0,0,0,0,0,0,0,0,0,-1,1721,421,0,0
504,603,0,0,0,0,0,0,0,0,0,-1,1728,421,0,0
511,603,0,0,0,0,0,0,0,0,0,-1,1735,421,0,0
518,603,0,0,0,0,0,0,0,0,0,-1,1742,421,0,0
525,603,0,0,0,0,0,0,0,0,0,-1,1749,421,0,0
532,603,0,0,0,0,0,0,0,0,0,-1,1756,421,0,0
539,603,0,0,0,0,0,0,0,0,0,-1,1763,421,0,0
546,603,0,0,0,0,0,0,0,0,0,-1,1770,421,0,0
553,603,0,0,0,0,0,0,0,0,0,-1,1777,421,0,0
560,603,0,0,0,0,0,0,0,0,0,-1,1784,421,0,0
567,603,0,0,0,0,0,0,0,0,0,-1,1791,421,0,0
574,603,0,0,0,0,0,0,0,0,0,-1,1798,421,0,0
581,603,0,0,0,0,0,0,0,0,0,-1,1805,421,0,0
588,603,0,0,0,0,0,0,0,0,0,-1,1812,421,0,0
595,603,0,0,0,0,0,0,0,0,0,-1,1819,421,0,0
602,603,0,0,0,0,0,0,0,0,0,-1,1826,421,0,0
609,603,0,0,0,0,0,0,0,0,0,-1,1833,421,0,0
616,603,0,0,0,0,0,0,0,0,0,-1,1840,421,0,0
623,603,0,0,0,0,0,0,0,0,0,-1,1847,421,0,0
630,603,0,0,0,0,0,0,0,0,0,-1,1854,421,0,0
637,603,0,0,0,0,0,0,0,0,0,-1,1861,421,0,0
644,603,0,0,0,0,0,0,0,0,0,-1,1868,421,0,0
651,603,0,0,0,0,0,0,0,0,0,-1,1875,421,0,0
658,603,0,0,0,0,0,0,0,0,0,-1,1882,421,0,0
665,603,0,0,0,0,0,0,0,0,0,-1,1889,421,0,0
672,603,0,0,0,0,0,0,0,0,0,-1,1896,421,0,0
679,603,0,0,0,0,0,0,0,0,0,-1,1903,421,0,0
686,603,0,0,0,0,0,0,0,0,0,-1,1910,421,0,0
693,603,0,0,0,0,0,0,0,0,0,-1,1917,421,0,0
700,603,0,0,0,0,0,0,0,0,0,-1,1924,421,0,0
707,603,0,0,0,0,0,0,0,0,0,-1,1931,421,0,0
714,603,0,0,0,0,0,0,0,0,0,-1,1938,421,0,0
721,603,0,0,0,0,0,0,0,0,0,-1,1945,421,0,0
728,603,0,0,0,0,0,0,0,0,0,-1,1952,421,0,0
735,603,0,0,0,0,0,0,0,0,0,-1,1959,421,0,0
742,603,0,0,0,0,0,0,0,0,0,-1,1966,421,0,0
749,603,0,0,0,0,0,0,0,0,0,-1,1973,421,0,0
756,603,0,0,0,0,0,0,0,0,0,-1,1980,421,0,0
763,603,0,0,0,0,0,0,0,0,0,-1,1987,421,0,0
770,603,0,0,0,0,0,0,0,0,0,-1,1994,421,0,0
777,603,0,0,0,0,0,0,0,0,0,-1,2001,421,0,0
784,603,0,0,0,0,0,0,0,0,0,-1,2008,421,0,0
791,603,0,0,0,0,0,0,0,0,0,-1,2015,421,0,0
798,603,0,0,0,0,0,0,0,0,0,-1,2022,421,0,0
805,603,0,0,0,0,0,0,0,0,0,-1,2029,421,0,0
812,603,0,0,0,0,0,0,0,0,0,-1,2036,421,0,0
-700,596,0,0,0,0,0,0,0,0,0,-1,524,428,0,0
-693,596,0,0,0,0,0,0,0,0,0,-1,531,428,0,0
-686,596,0,0,0,0,0,0,0,0,0,-1,538,428,0,0
-679,596,0,0,0,0,0,0,0,0,0,-1,545,428,0,0
-672,596,0,0,0,0,0,0,0,0,0,-1,552,428,0,0
-665,596,0,0,0,0,0,0,0,0,0,-1,559,428,0,0
-658,596,0,0,0,0,0,0,0,0,0,-1,566,428,0,0
-651,596,0,0,0,0,0,0,0,0,0,-1,573,428,0,0
-644,596,0,0,0,0,0,0,0,0,0,-1,580,428,0,0
-637,596,0,0,0,0,0,0,0,0,0,-1,587,428,0,0
-630,596,0,0,0,0,0,0,0,0,0,-1,594,428,0,0
-623,596,0,0,0,0,0,0,0,0,0,-1,601,428,0,0
-616,596,0,0,0,0,0,0,0,0,0,-1,608,428,0,0
-609,596,0,0,0,0,0,0,0,0,0,-1,615,428,0,0
-602,596,0,0,0,0,0,0,0,0,0,-1,622,428,0,0
-595,596,0,0,0,0,0,0,0,0,0,-1,629,428,0,0
-588,596,0,0,0,0,0,0,0,0,0,-1,636,428,0,0
-581,596,0,0,0,0,0,0,0,0,0,-1,643,428,0,0
-574,596,0,0,0,0,0,0,0,0,0,-1,650,428,0,0
-567,596,0,0,0,0,0,0,0,0,0,-1,657,428,0,0
-560,596,0,0,0,0,0,0,0,0,0,-1,664,428,0,0
-553,596,0,0,0,0,0,0,0,0,0,-1,671,428,0,0
-546,596,0,0,0,0,0,0,0,0,0,-1,678,428,0,0
-539,596,0,0,0,0,0,0,0,0,0,-1,685,428,0,0
-532,596,0,0,0,0,0,0,0,0,0,-1,692,428,0,0
-525,596,0,0,0,0,0,0,0,0,0,-1,699,428,0,0
-518,596,0,0,0,0,0,0,0,0,0,-1,706,428,0,0
-511,596,0,0,0,0,0,0,0,0,0,-1,713,428,0,0
-504,596,0,0,0,0,0,0,0,0,0,-1,720,428,0,0
-497,596,0,0,0,0,0,0,0,0,0,-1,727,428,0,0
-490,596,0,0,0,0,0,0,0,0,0,-1,734,428,0,0
-483,596,0,0,0,0,0,0,0,0,0,-1,741,428,0,0
-476,596,0,0,0,0,0,0,0,0,0,-1,748,428,0,0
-469,596,0,0,0,0,0,0,0,0,0,-1,755,428,0,0
-462,596,0,0,0,0,0,0,0,0,0,-1,762,428,0,0
-455,596,0,0,0,0,0,0,0,0,0,-1,769,428,0,0
-448,596,0,0,0,0,0,0,0,0,0,-1,776,428,0,0
-441,596,0,0,0,0,0,0,0,0,0,-1,783,428,0,0
-434,596,0,0,0,0,0,0,0,0,0,-1,790,428,0,0
-427,596,0,0,0,0,0,0,0,0,0,-1,797,428,0,0
-420,596,0,0,0,0,0,0,0,0,0,-1,804,428,0,0
-413,596,0,0,0,0,0,0,0,0,0,-1,811,428,0,0
-406,596,0,0,0,0,0,0,0,0,0,-1,818,428,0,0
-399,596,0,0,0,0,0,0,0,0,0,-1,825,428,0,0
-392,596,0,0,0,0,0,0,0,0,0,-1,832,428,0,0
-385,596,0,0,0,0,0,0,0,0,0,-1,839,428,0,0
-378,596,0,0,0,0,0,0,0,0,0,-1,846,428,0,0
-371,596,0,0,0,0,0,0,0,0,0,-1,853,428,0,0
-364,596,0,0,0,0,0,0,0,0,0,-1,860,428,0,0
-357,596,0,0,0,0,0,0,0,0,0,-1,867,428,0,0
-350,596,0,0,0,0,0,0,0,0,0,-1,874,428,0,0
-343,596,0,0,0,0,0,0,0,0,0,-1,881,428,0,0
-336,596,6.81445,-30.5258,0,0,0,0,0,0,0,-1,888,428,6.81446,30.5258
-329,596,6.84772,-28.9253,0,0,0,0,0,0,0,-1,895,428,6.84773,28.9253
-322,596,6.97449,-27.9047,0,0,0,0,0,0,0,-1,902,428,6.97451,27.9047
-315,596,7.10132,-26.8841,0,0,0,0,0,0,0,-1,909,428,7.10129,26.8841
-308,596,0.254761,-20.841,0,0,0,0,0,0,0,-1,916,428,0.254731,20.841
-301,596,3.43213,-26.756,0,0,0,0,0,0,0,-1,923,428,3.43214,26.756
-294,596,4.1767,-27.6454,0,0,0,0,0,0,0,-1,930,428,4.17667,27.6454
-287,596,4.36041,-27.6119,0,0,0,0,0,0,0,-1,937,428,4.3604,27.6119
-280,596,5.96619,-42.5634,0,0,0,0,0,0,0,-1,944,428,5.96616,42.5634
-273,596,6.40912,-44.162,0,0,0,0,0,0,0,-1,951,428,6.40911,44.162
-266,596,6.28253,-45.0493,0,0,0,0,0,0,0,-1,958,428,6.28255,45.0493
-259,596,6.1507,-46.0863,0,0,0,0,0,0,0,-1,965,428,6.15069,46.0863
-252,596,6.12073,-46.9755,-0.00044141,0.0216065,-0.0109615,0.0261287,-0.00496358,-1.17952,0.0192877,0.0222502,972,428,6.12074,46.9755
-245,596,6.11163,-47.9152,-0.000385855,0.0197353,-0.00993784,0.023816,-0.00446656,-1.18117,0.0175566,0.0138406,979,428,6.11166,47.9152
-238,596,6.04041,-48.7718,-0.000421731,0.0176856,-0.00886651,0.0213041,-0.00404023,-1.18332,0.0157235,0.0123096,986,428,6.04038,48.7718
-231,596,5.94873,-49.6349,-0.000462237,0.0155761,-0.00769802,0.018673,-0.00355911,-1.18831,0.013789,0.0141019,993,428,5.94873,49.6349
-224,596,5.89984,-50.4965,-0.000299627,0.0135641,-0.00675635,0.016312,-0.00304759,-1.18451,0.01202,0.0140741,1000,428,5.89984,50.4965
-217,596,5.83368,-51.31,-0.000158405,0.0114542,-0.00590529,0.0139296,-0.00263374,-1.17387,0.0102774,0.0143758,1007,428,5.83368,51.31
-210,596,5.81622,-52.1168,-1.71975e-05,0.00938817,-0.00507085,0.0116013,-0.00223034,-1.15927,0.0085749,0.0132987,1014,428,5.81621,52.1168
-203,596,5.76599,-52.9153,0.000156716,0.00740862,-0.00423988,0.00936157,-0.00179623,-1.13915,0.00691796,0.016533,1021,428,5.76594,52.9153
-196,596,5.72119,-53.708,0.000325518,0.00553045,-0.00347221,0.00726723,-0.00141126,-1.10699,0.00537733,0.0173734,1028,428,5.72113,53.708
-189,596,5.6781,-54.4846,0.00057449,0.00371474,-0.00282171,0.00537375,-0.00108452,-1.03929,0.0039934,0.0148171,1035,428,5.67812,54.4846
-182,596,5.62622,-55.2275,0.00087176,0.00210234,-0.0021598,0.00373279,-0.000758684,-0.924164,0.00277619,0.0136907,1042,428,5.62619,55.2276
-175,596,5.57153,-55.9832,0.0011212,0.000593681,-0.00143792,0.00231935,-0.000604467,-0.69469,0.00178223,0.0168738,1049,428,5.57152,55.9832
-168,596,5.52637,-56.7578,0.00142467,-0.000562483,-0.000848435,0.00173763,-0.000875442,-0.353383,0.00153579,0.0195235,1056,428,5.52641,56.7579
-161,596,5.48621,-57.5031,0.00180818,-0.00149383,-0.000307696,0.00183661,-0.00152226,-0.0921277,0.00194207,0.0165752,1063,428,5.48618,57.503
-154,596,5.45508,-58.2028,0.00226417,-0.00223704,0.000231743,0.00227607,-0.00224894,0.0513038,0.00261253,0.0135704,1070,428,5.45509,58.2028
-147,596,5.49048,-58.8526,0.00277573,-0.00276062,0.000688634,0.0028601,-0.00284498,0.12191,0.00329384,0.01481,1077,428,5.49046,58.8526
-140,596,5.50793,-59.5357,0.00327256,-0.00324858,0.00113098,0.00346314,-0.00343916,0.166939,0.00398505,0.0178925,1084,428,5.50789,59.5358
-133,596,5.48438,-60.2499,0.00375862,-0.00352484,0.0015008,0.00405575,-0.00382197,0.195453,0.00454887,0.0171441,1091,428,5.48433,60.2499
-126,596,5.4812,-60.8809,0.00431931,-0.00358601,0.0017613,0.00469397,-0.00396067,0.209593,0.00500273,0.0125685,1098,428,5.48114,60.8809
-119,596,5.5,-61.5234,0.00511109,-0.00351998,0.00191333,0.00551622,-0.00392511,0.208658,0.00547669,0.0151715,1105,428,5.49996,61.5234
-112,596,5.47302,-62.1478,0.00594716,-0.00332296,0.001933,0.00633408,-0.00370987,0.197554,0.00586448,0.0164405,1112,428,5.47299,62.1478
-105,596,5.46594,-62.7539,0.00673538,-0.00303581,0.00187642,0.00708333,-0.00338376,0.18335,0.00616772,0.0244728,1119,428,5.46588,62.7539
-98,596,5.5564,-63.3659,0.007551,-0.00299612,0.00181486,0.00785455,-0.00329967,0.165723,0.00661645,0.0357551,1126,428,5.55635,63.3659
-91,596,5.54663,-63.91,0,0,0,0,0,0,0,-1,1133,428,5.54669,63.91
-84,596,5.64136,-64.4537,0,0,0,0,0,0,0,-1,1140,428,5.64132,64.4538
-77,596,5.77808,-65.126,0,0,0,0,0,0,0,-1,1147,428,5.77802,65.126
-70,596,3.50696,-32.137,0,0,0,0,0,0,0,-1,1154,428,3.50696,32.137
-63,596,1.95569,-12.2758,0,0,0,0,0,0,0,-1,1161,428,1.95563,12.2759
-56,596,1.60107,-10.5827,0,0,0,0,0,0,0,-1,1168,428,1.60108,10.5827
-49,596,1.59473,-10.0393,0,0,0,0,0,0,0,-1,1175,428,1.59472,10.0393
-42,596,1.99585,-6.6246,0,0,0,0,0,0,0,-1,1182,428,1.99586,6.62459
-35,596,5.93396,-67.3159,0,0,0,0,0,0,0,-1,1189,428,5.93391,67.3159
-28,596,6.19128,-67.7095,0,0,0,0,0,0,0,-1,1196,428,6.19125,67.7095
-21,596,6.23901,-68.0769,0,0,0,0,0,0,0,-1,1203,428,6.23905,68.0769
-14,596,6.35876,-68.3012,0,0,0,0,0,0,0,-1,1210,428,6.35879,68.3012
-7,596,6.5033,-68.7266,0,0,0,0,0,0,0,-1,1217,428,6.50328,68.7266
0,596,6.54175,-69.1641,0,0,0,0,0,0,0,-1,1224,428,6.54176,69.1641
7,596,6.24878,-67.811,0,0,0,0,0,0,0,-1,1231,428,6.24879,67.811
14,596,7.56494,-68.3905,0,0,0,0,0,0,0,-1,1238,428,7.56489,68.3905
21,596,9.02942,-69.0637,0,0,0,0,0,0,0,-1,1245,428,9.02941,69.0637
28,596,7.64905,-68.8056,0,0,0,0,0,0,0,-1,1252,428,7.64901,68.8056
35,596,6.68127,-71.0039,0,0,0,0,0,0,0,-1,1259,428,6.68132,71.0039
42,596,7.77112,-68.8695,0,0,0,0,0,0,0,-1,1266,428,7.77111,68.8695
49,596,7.73108,-69.2548,-0.00849394,-0.0312588,0.00573909,-0.00712894,-0.0326238,0.233503,0.0198053,0.0432622,1273,428,7.73113,69.2548
56,596,7.21301,-69.3741,-0.0176222,-0.0304849,0.00812666,-0.0136899,-0.0344172,0.450663,0.0200088,0.0422085,1280,428,7.21296,69.3741
63,596,6.71619,-69.2249,0,0,0,0,0,0,0,-1,1287,428,6.71621,69.2249
70,596,5.5282,-69.2311,0,0,0,0,0,0,0,-1,1294,428,5.52824,69.2311
77,596,4.47583,-70.0902,0,0,0,0,0,0,0,-1,1301,428,4.47581,70.0902
84,596,3.34351,-70.1225,0,0,0,0,0,0,0,-1,1308,428,3.34348,70.1225
91,596,10.0889,-68.8681,0,0,0,0,0,0,0,-1,1315,428,10.0889,68.8681
98,596,11.1359,-68.8956,0,0,0,0,0,0,0,-1,1322,428,11.1359,68.8956
105,596,-0.601807,-63.7406,0,0,0,0,0,0,0,-1,1329,428,-0.601864,63.7406
112,596,9.93677,-68.9839,0,0,0,0,0,0,0,-1,1336,428,9.93679,68.9839
119,596,10.2174,-68.7458,0,0,0,0,0,0,0,-1,1343,428,10.2174,68.7458
126,596,9.96643,-68.5894,0,0,0,0,0,0,0,-1,1350,428,9.96646,68.5894
133,596,10.179,-68.3065,0,0,0,0,0,0,0,-1,1357,428,10.1789,68.3065
140,596,10.7538,-67.5629,0,0,0,0,0,0,0,-1,1364,428,10.7538,67.5629
147,596,10.4642,-67.2726,0,0,0,0,0,0,0,-1,1371,428,10.4643,67.2726
154,596,10.0909,-67.5764,0,0,0,0,0,0,0,-1,1378,428,10.091,67.5765
161,596,10.5906,-67.2579,0,0,0,0,0,0,0,-1,1385,428,10.5906,67.2579
168,596,10.7936,-66.722,0,0,0,0,0,0,0,-1,1392,428,10.7936,66.722
175,596,11.0862,-66.4191,0,0,0,0,0,0,0,-1,1399,428,11.0862,66.4191
182,596,11.2161,-66.1706,0,0,0,0,0,0,0,-1,1406,428,11.2161,66.1706
189,596,11.1664,-65.6906,0,0,0,0,0,0,0,-1,1413,428,11.1664,65.6907
196,596,11.1333,-65.0294,0,0,0,0,0,0,0,-1,1420,428,11.1333,65.0294
203,596,11.0696,-64.8652,0,0,0,0,0,0,0,-1,1427,428,11.0696,64.8652
210,596,11.1317,-64.5519,0,0,0,0,0,0,0,-1,1434,428,11.1317,64.5519
217,596,11.1805,-63.8728,0,0,0,0,0,0,0,-1,1441,428,11.1805,63.8728
224,596,11.2761,-63.249,0,0,0,0,0,0,0,-1,1448,428,11.2762,63.249
231,596,11.3854,-62.7235,0.00669973,-0.00185114,-0.000314706,0.0067113,-0.00186271,-0.0367377,0.00520736,0.0290429,1455,428,11.3853,62.7235
238,596,11.334,-62.064,0.00627931,-0.00119561,0.000267288,0.00628885,-0.00120515,0.0356972,0.00464668,0.0177859,1462,428,11.334,62.064
245,596,11.3619,-61.446,0.00560801,-0.000931582,0.000328815,0.00562451,-0.000948073,0.0501122,0.00410238,0.0132852,1469,428,11.362,61.446
252,596,11.3866,-60.7867,0.00495336,-0.000480783,0.000561432,0.00501075,-0.000538182,0.101882,0.00353358,0.0100313,1476,428,11.3866,60.7868
259,596,11.3885,-60.1011,0.00439042,-0.000234134,0.000771758,0.00451582,-0.000359527,0.16107,0.00313726,0.00924254,1483,428,11.3886,60.1011
266,596,11.3726,-59.4206,0.00385191,-7.17651e-05,0.000867208,0.00403504,-0.000254888,0.208107,0.00277889,0.0107982,1490,428,11.3726,59.4206
273,596,11.3794,-58.7415,0.00325116,7.96172e-05,0.000931977,0.00350475,-0.000173974,0.265668,0.0023966,0.0126524,1497,428,11.3794,58.7415
280,596,11.3781,-58.0508,0.0026589,0.000340435,0.0010855,0.00308778,-8.84522e-05,0.376281,0.00208863,0.0135331,1504,428,11.3781,58.0508
287,596,11.3473,-57.3118,0.00219573,0.000740092,0.00129522,0.00295361,-1.77943e-05,0.529422,0.00197503,0.0124007,1511,428,11.3473,57.3118
294,596,11.3005,-56.5506,0.00174187,0.00126524,0.00153868,0.00306058,-5.34699e-05,0.708566,0.00205844,0.0100835,1518,428,11.3005,56.5506
301,596,11.2544,-55.7922,0.00134371,0.00197425,0.00189969,0.00358465,-0.000266692,0.867628,0.00248344,0.0118215,1525,428,11.2544,55.7922
308,596,11.2374,-55.0315,0.00108543,0.00301104,0.00240383,0.00463771,-0.000541246,0.975879,0.00328711,0.0175852,1532,428,11.2374,55.0315
315,596,11.1903,-54.2635,0.000947432,0.00438518,0.00305577,0.00617234,-0.000839726,1.04159,0.00442146,0.0166786,1539,428,11.1903,54.2636
322,596,11.1602,-53.4639,0.000802692,0.00576256,0.00375639,0.0077838,-0.00121855,1.07715,0.00563944,0.0143757,1546,428,11.1602,53.4639
329,596,11.1031,-52.6695,0.000720765,0.00717353,0.00451403,0.00949566,-0.00160137,1.09568,0.00692621,0.0106931,1553,428,11.1032,52.6695
336,596,11.0358,-51.8855,0.000762967,0.00896701,0.00536196,0.0116161,-0.0018861,1.11192,0.00844327,0.00908954,1560,428,11.0358,51.8855
343,596,11.0084,-51.0671,0.000786755,0.0107107,0.00625365,0.0137318,-0.00223434,1.12077,0.00998301,0.0114869,1567,428,11.0084,51.0671
350,596,10.965,-50.2021,0.00084703,0.0128622,0.00716213,0.0162027,-0.00249349,1.13438,0.0117217,0.0117095,1574,428,10.965,50.2021
357,596,10.8889,-49.3581,0.000901793,0.014957,0.00813121,0.0186767,-0.00281788,1.14176,0.0134889,0.00967439,1581,428,10.8889,49.3581
364,596,10.8196,-48.5033,0.000893872,0.017044,0.00903937,0.0210899,-0.00315198,1.14996,0.0152198,0.0105545,1588,428,10.8196,48.5033
371,596,10.7504,-47.6497,0.000833631,0.0191765,0.00988848,0.023492,-0.00348187,1.1593,0.0169416,0.0114522,1595,428,10.7504,47.6496
378,596,10.6619,-46.7669,0.000700003,0.0211786,0.0106023,0.0256788,-0.00380017,1.16939,0.0185163,0.0167658,1602,428,10.6618,46.7669
385,596,10.6228,-45.6773,0.00040526,0.022965,0.0109993,0.0274401,-0.00406985,1.18439,0.01979,0.0357918,1609,428,10.6228,45.6773
392,596,10.5986,-44.7581,0.000161564,0.0244232,0.0112549,0.0288401,-0.0042554,1.19682,0.0207909,0.043281,1616,428,10.5986,44.7581
399,596,10.4009,-43.5583,0.00018032,0.0257366,0.0116117,0.0302244,-0.00430744,1.20199,0.0217282,0.0451867,1623,428,10.4009,43.5582
406,596,10.3502,-42.9315,0,0,0,0,0,0,0,-1,1630,428,10.3502,42.9315
413,596,10.312,-42.2151,0,0,0,0,0,0,0,-1,1637,428,10.312,42.2151
420,596,2.6344,-3.06308,0,0,0,0,0,0,0,-1,1644,428,2.63439,3.06308
427,596,7.61975,-22.7222,0,0,0,0,0,0,0,-1,1651,428,7.61974,22.7222
434,596,5.09753,-22.5213,0,0,0,0,0,0,0,-1,1658,428,5.09755,22.5213
441,596,7.19043,-22.087,0,0,0,0,0,0,0,-1,1665,428,7.19046,22.087
448,596,1.0769,0.0083313,0,0,0,0,0,0,0,-1,1672,428,1.07684,-0.00832231
455,596,2.00769,-1.43329,0,0,0,0,0,0,0,-1,1679,428,2.00765,1.4333
462,596,0,0,0,0,0,0,0,0,0,-1,1686,428,0,0
469,596,0,0,0,0,0,0,0,0,0,-1,1693,428,0,0
476,596,0,0,0,0,0,0,0,0,0,-1,1700,428,0,0
483,596,0,0,0,0,0,0,0,0,0,-1,1707,428,0,0
490,596,0,0,0,0,0,0,0,0,0,-1,1714,428,0,0
497,596,0,0,0,0,0,0,0,0,0,-1,1721,428,0,0
504,596,0,0,0,0,0,0,0,0,0,-1,1728,428,0,0
511,596,0,0,0,0,0,0,0,0,0,-1,1735,428,0,0
518,596,0,0,0,0,0,0,0,0,0,-1,1742,428,0,0
525,596,0,0,0,0,0,0,0,0,0,-1,1749,428,0,0
532,596,0,0,0,0,0,0,0,0,0,-1,1756,428,0,0
539,596,0,0,0,0,0,0,0,0,0,-1,1763,428,0,0
546,596,0,0,0,0,0,0,0,0,0,-1,1770,428,0,0
553,596,0,0,0,0,0,0,0,0,0,-1,1777,428,0,0
560,596,0,0,0,0,0,0,0,0,0,-1,1784,428,0,0
567,596,0,0,0,0,0,0,0,0,0,-1,1791,428,0,0
574,596,0,0,0,0,0,0,0,0,0,-1,1798,428,0,0
581,596,0,0,0,0,0,0,0,0,0,-1,1805,428,0,0
588,596,0,0,0,0,0,0,0,0,0,-1,1812,428,0,0
595,596,0,0,0,0,0,0,0,0,0,-1,1819,428,0,0
602,596,0,0,0,0,0,0,0,0,0,-1,1826,428,0,0
609,596,0,0,0,0,0,0,0,0,0,-1,1833,428,0,0
616,596,0,0,0,0,0,0,0,0,0,-1,1840,428,0,0
623,596,0,0,0,0,0,0,0,0,0,-1,1847,428,0,0
630,596,0,0,0,0,0,0,0,0,0,-1,1854,428,0,0
637,596,0,0,0,0,0,0,0,0,0,-1,1861,428,0,0
644,596,0,0,0,0,0,0,0,0,0,-1,1868,428,0,0
651,596,0,0,0,0,0,0,0,0,0,-1,1875,428,0,0
658,596,0,0,0,0,0,0,0,0,0,-1,1882,428,0,0
665,596,0,0,0,0,0,0,0,0,0,-1,1889,428,0,0
672,596,0,0,0,0,0,0,0,0,0,-1,1896,428,0,0
679,596,0,0,0,0,0,0,0,0,0,-1,1903,428,0,0
686,596,0,0,0,0,0,0,0,0,0,-1,1910,428,0,0
693,596,0,0,0,0,0,0,0,0,0,-1,1917,428,0,0
700,596,0,0,0,0,0,0,0,0,0,-1,1924,428,0,0
707,596,0,0,0,0,0,0,0,0,0,-1,1931,428,0,0
714,596,0,0,0,0,0,0,0,0,0,-1,1938,428,0,0
721,596,0,0,0,0,0,0,0,0,0,-1,1945,428,0,0
728,596,0,0,0,0,0,0,0,0,0,-1,1952,428,0,0
735,596,0,0,0,0,0,0,0,0,0,-1,1959,428,0,0
742,596,0,0,0,0,0,0,0,0,0,-1,1966,428,0,0
749,596,0,0,0,0,0,0,0,0,0,-1,1973,428,0,0
756,596,0,0,0,0,0,0,0,0,0,-1,1980,428,0,0
763,596,0,0,0,0,0,0,0,0,0,-1,1987,428,0,0
770,596,0,0,0,0,0,0,0,0,0,-1,1994,428,0,0
777,596,0,0,0,0,0,0,0,0,0,-1,2001,428,0,0
784,596,0,0,0,0,0,0,0,0,0,-1,2008,428,0,0
791,596,0,0,0,0,0,0,0,0,0,-1,2015,428,0,0
798,596,0,0,0,0,0,0,0,0,0,-1,2022,428,0,0
805,596,0,0,0,0,0,0,0,0,0,-1,2029,428,0,0
812,596,0,0,0,0,0,0,0,0,0,-1,2036,428,0,0
-700,589,0,0,0,0,0,0,0,0,0,-1,524,435,0,0
-693,589,0,0,0,0,0,0,0,0,0,-1,531,435,0,0
-686,589,0,0,0,0,0,0,0,0,0,-1,538,435,0,0
-679,589,0,0,0,0,0,0,0,0,0,-1,545,435,0,0
-672,589,0,0,0,0,0,0,0,0,0,-1,552,435,0,0
-665,589,0,0,0,0,0,0,0,0,0,-1,559,435,0,0
-658,589,0,0,0,0,0,0,0,0,0,-1,566,435,0,0
-651,589,0,0,0,0,0,0,0,0,0,-1,573,435,0,0
-644,589,0,0,0,0,0,0,0,0,0,-1,580,435,0,0
-637,589,0,0,0,0,0,0,0,0,0,-1,587,435,0,0
-630,589,0,0,0,0,0,0,0,0,0,-1,594,435,0,0
-623,589,0,0,0,0,0,0,0,0,0,-1,601,435,0,0
-616,589,0,0,0,0,0,0,0,0,0,-1,608,435,0,0
-609,589,0,0,0,0,0,0,0,0,0,-1,615,435,0,0
-602,589,0,0,0,0,0,0,0,0,0,-1,622,435,0,0
-595,589,0,0,0,0,0,0,0,0,0,-1,629,435,0,0
-588,589,0,0,0,0,0,0,0,0,0,-1,636,435,0,0
-581,589,0,0,0,0,0,0,0,0,0,-1,643,435,0,0
-574,589,0,0,0,0,0,0,0,0,0,-1,650,435,0,0
-567,589,0,0,0,0,0,0,0,0,0,-1,657,435,0,0
-560,589,0,0,0,0,0,0,0,0,0,-1,664,435,0,0
-553,589,0,0,0,0,0,0,0,0,0,-1,671,435,0,0
-546,589,0,0,0,0,0,0,0,0,0,-1,678,435,0,0
-539,589,0,0,0,0,0,0,0,0,0,-1,685,435,0,0
-532,589,0,0,0,0,0,0,0,0,0,-1,692,435,0,0
-525,589,0,0,0,0,0,0,0,0,0,-1,699,435,0,0
-518,589,0,0,0,0,0,0,0,0,0,-1,706,435,0,0
-511,589,0,0,0,0,0,0,0,0,0,-1,713,435,0,0
-504,589,0,0,0,0,0,0,0,0,0,-1,720,435,0,0
-497,589,0,0,0,0,0,0,0,0,0,-1,727,435,0,0
-490,589,0,0,0,0,0,0,0,0,0,-1,734,435,0,0
-483,589,0,0,0,0,0,0,0,0,0,-1,741,435,0,0
-476,589,0,0,0,0,0,0,0,0,0,-1,748,435,0,0
-469,589,0,0,0,0,0,0,0,0,0,-1,755,435,0,0
-462,589,0,0,0,0,0,0,0,0,0,-1,762,435,0,0
-455,589,0,0,0,0,0,0,0,0,0,-1,769,435,0,0
-448,589,0,0,0,0,0,0,0,0,0,-1,776,435,0,0
-441,589,0,0,0,0,0,0,0,0,0,-1,783,435,0,0
-434,589,0,0,0,0,0,0,0,0,0,-1,790,435,0,0
-427,589,0,0,0,0,0,0,0,0,0,-1,797,435,0,0
-420,589,0,0,0,0,0,0,0,0,0,-1,804,435,0,0
-413,589,0,0,0,0,0,0,0,0,0,-1,811,435,0,0
-406,589,0,0,0,0,0,0,0,0,0,-1,818,435,0,0
-399,589,0,0,0,0,0,0,0,0,0,-1,825,435,0,0
-392,589,0,0,0,0,0,0,0,0,0,-1,832,435,0,0
-385,589,0,0,0,0,0,0,0,0,0,-1,839,435,0,0
-378,589,0,0,0,0,0,0,0,0,0,-1,846,435,0,0
-371,589,0,0,0,0,0,0,0,0,0,-1,853,435,0,0
-364,589,0,0,0,0,0,0,0,0,0,-1,860,435,0,0
-357,589,0,0,0,0,0,0,0,0,0,-1,867,435,0,0
-350,589,-0.799927,-20.664,0,0,0,0,0,0,0,-1,874,435,-0.799952,20.664
-343,589,5.15289,-30.4847,0,0,0,0,0,0,0,-1,881,435,5.15291,30.4847
-336,589,5.07684,-29.2368,0,0,0,0,0,0,0,-1,888,435,5.07687,29.2368
-329,589,4.9624,-28.1366,0,0,0,0,0,0,0,-1,895,435,4.96242,28.1366
-322,589,5.10156,-27.065,0,0,0,0,0,0,0,-1,902,435,5.10155,27.065
-315,589,4.22705,-27.9655,0,0,0,0,0,0,0,-1,909,435,4.22705,27.9655
-308,589,4.46698,-29.037,0,0,0,0,0,0,0,-1,916,435,4.46696,29.037
-301,589,4.94867,-33.7458,0,0,0,0,0,0,0,-1,923,435,4.94869,33.7458
-294,589,4.1037,-31.2976,0,0,0,0,0,0,0,-1,930,435,4.10371,31.2976
-287,589,5.59943,-42.247,0,0,0,0,0,0,0,-1,937,435,5.59942,42.247
-280,589,5.63611,-43.1366,0,0,0,0,0,0,0,-1,944,435,5.63613,43.1366
-273,589,5.56781,-44.1654,-0.000524998,0.0221293,-0.0112618,0.026775,-0.00517071,-1.17954,0.0197999,0.0314522,951,435,5.56779,44.1654
-266,589,5.49323,-45.1528,-0.000462932,0.0201007,-0.0103029,0.0243745,-0.0047367,-1.17759,0.0180371,0.0280407,958,435,5.49322,45.1528
-259,589,5.37805,-46.1219,-0.000391316,0.0179347,-0.00938748,0.0218899,-0.00434643,-1.17205,0.0162371,0.0221453,965,435,5.37807,46.1218
-252,589,5.34009,-47.0972,-0.000204525,0.0160596,-0.00852722,0.0197108,-0.00385567,-1.16624,0.0145965,0.0117467,972,435,5.34008,47.0972
-245,589,5.3078,-47.9791,-6.42377e-05,0.0144347,-0.00763058,0.0177105,-0.00334,-1.16529,0.0130634,0.0106767,979,435,5.30782,47.9791
-238,589,5.21802,-48.7943,1.40437e-05,0.0125999,-0.006656,0.0154669,-0.0028529,-1.16408,0.011382,0.0131536,986,435,5.21803,48.7943
-231,589,5.17017,-49.5943,7.21816e-05,0.010679,-0.00558069,0.0130743,-0.00232312,-1.16536,0.0095849,0.0143409,993,435,5.17019,49.5943
-224,589,5.11548,-50.4221,0.000252777,0.0088135,-0.00467168,0.0108692,-0.00180296,-1.15625,0.00791588,0.0147788,1000,435,5.11546,50.422
-217,589,5.04553,-51.2704,0.000421465,0.00685581,-0.0038348,0.00864423,-0.00136695,-1.13442,0.00626835,0.015822,1007,435,5.0455,51.2704
-210,589,5.01819,-52.0873,0.000609739,0.00492222,-0.00303065,0.00648542,-0.000953461,-1.09459,0.00467396,0.0158881,1014,435,5.01817,52.0873
-203,589,4.98047,-52.8841,0.000854244,0.0031167,-0.00225074,0.0045045,-0.000533556,-1.01826,0.00319573,0.0119594,1021,435,4.98044,52.8841
-196,589,4.9386,-53.6724,0.00111102,0.00141788,-0.00153323,0.00280534,-0.000276434,-0.835268,0.00196885,0.014366,1028,435,4.93857,53.6724
-189,589,4.88306,-54.4827,0.00143758,-0.000224859,-0.000917314,0.00184426,-0.000631536,-0.417298,0.00148546,0.019114,1035,435,4.88309,54.4827
-182,589,4.86584,-55.1928,0.00182717,-0.00169815,-0.000306284,0.00185358,-0.00172457,-0.0860224,0.00206629,0.0146459,1042,435,4.86588,55.1928
-175,589,4.84314,-55.9435,0.00220881,-0.00298497,0.00030603,0.00222678,-0.00300294,0.0586519,0.00303045,0.0189834,1049,435,4.84317,55.9435
-168,589,4.82971,-56.7257,0.00263316,-0.00394682,0.000807639,0.00273084,-0.0040445,0.120362,0.00393618,0.0154646,1056,435,4.82975,56.7257
-161,589,4.79236,-57.4372,0.00311531,-0.00472068,0.00128522,0.00332072,-0.00492609,0.158485,0.00479127,0.013081,1063,435,4.79235,57.4372
-154,589,4.7561,-58.1339,0.00366719,-0.00527942,0.00176291,0.00400204,-0.00561426,0.187703,0.00557792,0.0133249,1070,435,4.75607,58.1339
-147,589,4.79895,-58.8126,0.0043167,-0.00562783,0.00212225,0.00475067,-0.00606179,0.201704,0.00625786,0.0140421,1077,435,4.79892,58.8126
-140,589,4.83643,-59.4833,0.00484464,-0.00593428,0.00256534,0.00542404,-0.00651367,0.222129,0.00690181,0.017025,1084,435,4.83637,59.4833
-133,589,4.82153,-60.18,0.00532064,-0.00602194,0.00293764,0.00603631,-0.00673762,0.238966,0.00737874,0.0168643,1091,435,4.82151,60.18
-126,589,4.83667,-60.8414,0.00590417,-0.00586013,0.0031871,0.00671211,-0.00666807,0.248273,0.00772506,0.0128594,1098,435,4.83664,60.8414
-119,589,4.77979,-61.5031,0.00680365,-0.00556243,0.00328122,0.00762036,-0.00637914,0.243945,0.00809319,0.0346093,1105,435,4.7798,61.5031
-112,589,4.83582,-62.1239,0,0,0,0,0,0,0,-1,1112,435,4.83584,62.1239
-105,589,4.84241,-62.8019,0,0,0,0,0,0,0,-1,1119,435,4.84244,62.8019
-98,589,4.89648,-63.6638,0,0,0,0,0,0,0,-1,1126,435,4.89652,63.6638
-91,589,3.39563,-37.8231,0,0,0,0,0,0,0,-1,1133,435,3.39565,37.8231
-84,589,2.76538,-22.6013,0,0,0,0,0,0,0,-1,1140,435,2.76539,22.6014
-77,589,2.18152,-14.8023,0,0,0,0,0,0,0,-1,1147,435,2.18155,14.8023
-70,589,1.48267,-9.90961,0,0,0,0,0,0,0,-1,1154,435,1.48264,9.9096
-63,589,0.880127,-5.50586,0,0,0,0,0,0,0,-1,1161,435,0.880186,5.50587
-56,589,-2.78052,-7.28082,0,0,0,0,0,0,0,-1,1168,435,-2.78053,7.28082
-49,589,-0.525757,-2.76703,0,0,0,0,0,0,0,-1,1175,435,-0.525771,2.76702
-42,589,-2.7738,-2.87921,0,0,0,0,0,0,0,-1,1182,435,-2.77383,2.87922
-35,589,-2.55225,-3.27551,0,0,0,0,0,0,0,-1,1189,435,-2.55223,3.27552
-28,589,-0.0632324,-3.42938,0,0,0,0,0,0,0,-1,1196,435,-0.063241,3.42938
-21,589,5.67859,-67.8022,0,0,0,0,0,0,0,-1,1203,435,5.67855,67.8022
-14,589,5.84839,-68.0576,0.0211994,-0.024823,0.0211416,0.0294369,-0.0330605,0.371541,0.0361031,0.0464711,1210,435,5.84833,68.0577
-7,589,6.33215,-68.0631,0,0,0,0,0,0,0,-1,1217,435,6.33214,68.0631
0,589,6.56348,-68.0901,0,0,0,0,0,0,0,-1,1224,435,6.56347,68.0901
7,589,5.90808,-67.7209,0.0285715,-0.0291896,0.013798,0.0316983,-0.0323164,0.22285,0.0369595,0.0473083,1231,435,5.90814,67.7209
14,589,6.72363,-68.459,0.0260881,-0.0295611,0.0114469,0.0283507,-0.0318237,0.195146,0.034761,0.0439364,1238,435,6.72365,68.459
21,589,8.08972,-69.1902,0,0,0,0,0,0,0,-1,1245,435,8.08974,69.1902
28,589,6.29797,-69.3602,0,0,0,0,0,0,0,-1,1252,435,6.29796,69.3602
35,589,6.70361,-70.3042,0.00672245,-0.032227,0.0066131,0.00781464,-0.0333192,0.163678,0.0252244,0.0489686,1259,435,6.70356,70.3042
42,589,7.53418,-68.3764,0,0,0,0,0,0,0,-1,1266,435,7.53417,68.3764
49,589,7.41211,-68.6673,-0.012778,-0.0352625,0.00766747,-0.0104123,-0.0376283,0.299279,0.0224352,0.0452185,1273,435,7.41205,68.6673
56,589,7.02722,-68.939,-0.0237408,-0.0348919,0.0103626,-0.0175491,-0.0410837,0.538589,0.0238035,0.0429371,1280,435,7.02719,68.939
63,589,6.13086,-68.2891,0,0,0,0,0,0,0,-1,1287,435,6.13087,68.2891
70,589,5.16296,-69.1205,0,0,0,0,0,0,0,-1,1294,435,5.16291,69.1205
77,589,4.08215,-69.253,-0.0490248,-0.0352947,0.0239154,-0.0172786,-0.067041,0.925168,0.0401921,0.0424762,1301,435,4.08213,69.253
84,589,3.10022,-69.3011,-0.0522751,-0.0334426,0.0294986,-0.0118938,-0.0738239,0.939892,0.0457694,0.0419481,1308,435,3.1002,69.301
91,589,2.17676,-68.9844,0,0,0,0,0,0,0,-1,1315,435,2.17675,68.9844
98,589,1.17249,-66.606,0,0,0,0,0,0,0,-1,1322,435,1.17246,66.606
105,589,-0.745728,-63.3181,-0.0508702,-0.0226982,0.0463442,0.0116534,-0.0852217,0.932933,0.0610707,0.0477648,1329,435,-0.74575,63.3181
112,589,-1.19495,-61.9581,-0.0451888,-0.0176602,0.0508131,0.0212199,-0.0840689,0.917664,0.0642972,0.0479833,1336,435,-1.19498,61.9581
119,589,-1.51843,-61.093,0,0,0,0,0,0,0,-1,1343,435,-1.51841,61.093
126,589,-2.75085,-73.4282,0,0,0,0,0,0,0,-1,1350,435,-2.75084,73.4281
133,589,-4.98535,-78.3274,0,0,0,0,0,0,0,-1,1357,435,-4.9853,78.3274
140,589,-6.44958,-80.1381,0,0,0,0,0,0,0,-1,1364,435,-6.44963,80.1381
147,589,-7.98096,-81.8212,0,0,0,0,0,0,0,-1,1371,435,-7.98102,81.8212
154,589,-9.36316,-83.563,0,0,0,0,0,0,0,-1,1378,435,-9.36311,83.5631
161,589,-5.66907,-75.1069,0,0,0,0,0,0,0,-1,1385,435,-5.66909,75.1069
168,589,20.0441,-47.9614,0,0,0,0,0,0,0,-1,1392,435,20.044,47.9613
175,589,8.66992,-7.65527,0,0,0,0,0,0,0,-1,1399,435,8.66994,7.65528
182,589,3.8136,-2.45389,0,0,0,0,0,0,0,-1,1406,435,3.81363,2.4539
189,589,3.69983,-3.68149,0,0,0,0,0,0,0,-1,1413,435,3.69987,3.68147
196,589,3.31055,-5.31677,0,0,0,0,0,0,0,-1,1420,435,3.31059,5.31678
203,589,2.72559,-8.84338,0,0,0,0,0,0,0,-1,1427,435,2.72558,8.84338
210,589,3.62378,-14.4032,0,0,0,0,0,0,0,-1,1434,435,3.62378,14.4032
217,589,4.65601,-22.3745,0,0,0,0,0,0,0,-1,1441,435,4.65607,22.3745
224,589,6.79028,-33.9412,0,0,0,0,0,0,0,-1,1448,435,6.79028,33.9412
231,589,12.0356,-62.76,0,0,0,0,0,0,0,-1,1455,435,12.0356,62.76
238,589,11.9355,-62.0364,0,0,0,0,0,0,0,-1,1462,435,11.9356,62.0364
245,589,12.0065,-61.4063,0,0,0,0,0,0,0,-1,1469,435,12.0065,61.4063
252,589,12.0769,-60.7098,0.00665743,-0.00198231,0.000244423,0.00666434,-0.00198922,0.0282605,0.00523353,0.0387606,1476,435,12.0769,60.7098
259,589,12.0687,-60.0658,0.00596291,-0.00197492,0.000303697,0.00597451,-0.00198653,0.0381851,0.00478468,0.0134623,1483,435,12.0687,60.0658
266,589,12.0609,-59.3766,0.00528124,-0.00205621,0.000200618,0.00528672,-0.00206169,0.0273144,0.00437669,0.0106397,1490,435,12.0609,59.3766
273,589,12.0746,-58.7198,0.00449473,-0.00227644,2.02437e-05,0.00449479,-0.0022765,0.00298965,0.00397872,0.0127227,1497,435,12.0745,58.7198
280,589,12.0747,-58.0204,0.00370487,-0.00232109,-5.65838e-05,0.0037054,-0.00232162,-0.00938891,0.00351014,0.013578,1504,435,12.0748,58.0204
287,589,12.0631,-57.289,0.00305717,-0.00221978,-9.11302e-05,0.00305874,-0.00222135,-0.0172626,0.00306122,0.0121184,1511,435,12.0631,57.289
294,589,12.0444,-56.5146,0.00245915,-0.00188223,-3.33633e-05,0.00245941,-0.00188248,-0.00768435,0.00251416,0.0109371,1518,435,12.0444,56.5146
301,589,12.0222,-55.7491,0.00193388,-0.00130918,0.000173542,0.00194314,-0.00131844,0.0533089,0.00189455,0.0113964,1525,435,12.0222,55.7491
308,589,11.9916,-54.982,0.00153262,-0.000437311,0.000539811,0.00167084,-0.000575535,0.250673,0.00134736,0.0108798,1532,435,11.9915,54.982
315,589,11.9674,-54.2135,0.00125841,0.000763041,0.00107171,0.00211069,-8.92361e-05,0.671836,0.0014378,0.0106356,1539,435,11.9674,54.2135
322,589,11.9453,-53.4347,0.00101378,0.00203638,0.001693,0.0032936,-0.000243444,0.932047,0.00228122,0.0118951,1546,435,11.9453,53.4347
329,589,11.8917,-52.6454,0.000808719,0.00328379,0.0023287,0.00468336,-0.00059085,1.02963,0.00333667,0.0109033,1553,435,11.8918,52.6454
336,589,11.8427,-51.8608,0.000768199,0.00500002,0.00313846,0.00666921,-0.000900994,1.08199,0.00477489,0.0103539,1560,435,11.8427,51.8608
343,589,11.8014,-51.0601,0.00074632,0.00671873,0.00403212,0.00875004,-0.00128498,1.10413,0.00630548,0.0110338,1567,435,11.8014,51.0601
350,589,11.7587,-50.2148,0.000794695,0.00873736,0.00494862,0.0111111,-0.00157908,1.12353,0.00798599,0.0153609,1574,435,11.7586,50.2148
357,589,11.7036,-49.3463,0.000827425,0.010619,0.00585736,0.0133572,-0.00191075,1.1335,0.00960525,0.0131371,1581,435,11.7037,49.3463
364,589,11.6448,-48.4973,0.000783396,0.0124296,0.00670632,0.0154882,-0.00227512,1.14291,0.0111614,0.0110619,1588,435,11.6447,48.4973
371,589,11.5736,-47.647,0.000699408,0.0142142,0.00749209,0.0175461,-0.00263248,1.15234,0.0126664,0.0112099,1595,435,11.5736,47.647
378,589,11.51,-46.774,0.000572317,0.0158823,0.00813133,0.019395,-0.00294038,1.16302,0.0140133,0.0134669,1602,435,11.51,46.774
385,589,11.4476,-45.8905,0.000343525,0.0172784,0.00847732,0.0207928,-0.00317079,1.17781,0.0150307,0.0222204,1609,435,11.4476,45.8905
392,589,11.3707,-44.8691,0.00016878,0.0183533,0.00872809,0.0218646,-0.00334248,1.18831,0.0158088,0.0297062,1616,435,11.3708,44.8691
399,589,11.3492,-43.7964,0.000173594,0.0192072,0.00902936,0.022809,-0.00342824,1.19124,0.0164682,0.038168,1623,435,11.3493,43.7964
406,589,11.3617,-42.8239,0,0,0,0,0,0,0,-1,1630,435,11.3617,42.8239
413,589,5.61377,-19.0606,0,0,0,0,0,0,0,-1,1637,435,5.61372,19.0606
420,589,2.79724,-5.79956,0,0,0,0,0,0,0,-1,1644,435,2.7973,5.79955
427,589,10.3475,-40.5802,0,0,0,0,0,0,0,-1,1651,435,10.3475,40.5802
434,589,9.14709,-34.4435,0,0,0,0,0,0,0,-1,1658,435,9.1471,34.4435
441,589,7.85901,-29.8665,0,0,0,0,0,0,0,-1,1665,435,7.85898,29.8666
448,589,0.453735,-3.2868,0,0,0,0,0,0,0,-1,1672,435,0.453701,3.28681
455,589,0.664307,-3.46848,0,0,0,0,0,0,0,-1,1679,435,0.66425,3.46846
462,589,3.46716,-4.41891,0,0,0,0,0,0,0,-1,1686,435,3.4672,4.41891
469,589,0.0238037,-3.81497,0,0,0,0,0,0,0,-1,1693,435,0.0237965,3.81498
476,589,0,0,0,0,0,0,0,0,0,-1,1700,435,0,0
483,589,0,0,0,0,0,0,0,0,0,-1,1707,435,0,0
490,589,0,0,0,0,0,0,0,0,0,-1,1714,435,0,0
497,589,0,0,0,0,0,0,0,0,0,-1,1721,435,0,0
504,589,0,0,0,0,0,0,0,0,0,-1,1728,435,0,0
511,589,0,0,0,0,0,0,0,0,0,-1,1735,435,0,0
518,589,0,0,0,0,0,0,0,0,0,-1,1742,435,0,0
525,589,0,0,0,0,0,0,0,0,0,-1,1749,435,0,0
532,589,0,0,0,0,0,0,0,0,0,-1,1756,435,0,0
539,589,0,0,0,0,0,0,0,0,0,-1,1763,435,0,0
546,589,0,0,0,0,0,0,0,0,0,-1,1770,435,0,0
553,589,0,0,0,0,0,0,0,0,0,-1,1777,435,0,0
560,589,0,0,0,0,0,0,0,0,0,-1,1784,435,0,0
567,589,0,0,0,0,0,0,0,0,0,-1,1791,435,0,0
574,589,0,0,0,0,0,0,0,0,0,-1,1798,435,0,0
581,589,0,0,0,0,0,0,0,0,0,-1,1805,435,0,0
588,589,0,0,0,0,0,0,0,0,0,-1,1812,435,0,0
595,589,0,0,0,0,0,0,0,0,0,-1,1819,435,0,0
602,589,0,0,0,0,0,0,0,0,0,-1,1826,435,0,0
609,589,0,0,0,0,0,0,0,0,0,-1,1833,435,0,0
616,589,0,0,0,0,0,0,0,0,0,-1,1840,435,0,0
623,589,0,0,0,0,0,0,0,0,0,-1,1847,435,0,0
630,589,0,0,0,0,0,0,0,0,0,-1,1854,435,0,0
637,589,0,0,0,0,0,0,0,0,0,-1,1861,435,0,0
644,589,0,0,0,0,0,0,0,0,0,-1,1868,435,0,0
651,589,0,0,0,0,0,0,0,0,0,-1,1875,435,0,0
658,589,0,0,0,0,0,0,0,0,0,-1,1882,435,0,0
665,589,0,0,0,0,0,0,0,0,0,-1,1889,435,0,0
672,589,0,0,0,0,0,0,0,0,0,-1,1896,435,0,0
679,589,0,0,0,0,0,0,0,0,0,-1,1903,435,0,0
686,589,0,0,0,0,0,0,0,0,0,-1,1910,435,0,0
693,589,0,0,0,0,0,0,0,0,0,-1,1917,435,0,0
700,589,0,0,0,0,0,0,0,0,0,-1,1924,435,0,0
707,589,0,0,0,0,0,0,0,0,0,-1,1931,435,0,0
714,589,0,0,0,0,0,0,0,0,0,-1,1938,435,0,0
721,589,0,0,0,0,0,0,0,0,0,-1,1945,435,0,0
728,589,0,0,0,0,0,0,0,0,0,-1,1952,435,0,0
735,589,0,0,0,0,0,0,0,0,0,-1,1959,435,0,0
742,589,0,0,0,0,0,0,0,0,0,-1,1966,435,0,0
749,589,0,0,0,0,0,0,0,0,0,-1,1973,435,0,0
756,589,0,0,0,0,0,0,0,0,0,-1,1980,435,0,0
763,589,0,0,0,0,0,0,0,0,0,-1,1987,435,0,0
770,589,0,0,0,0,0,0,0,0,0,-1,1994,435,0,0
777,589,0,0,0,0,0,0,0,0,0,-1,2001,435,0,0
784,589,0,0,0,0,0,0,0,0,0,-1,2008,435,0,0
791,589,0,0,0,0,0,0,0,0,0,-1,2015,435,0,0
798,589,0,0,0,0,0,0,0,0,0,-1,2022,435,0,0
805,589,0,0,0,0,0,0,0,0,0,-1,2029,435,0,0
812,589,0,0,0,0,0,0,0,0,0,-1,2036,435,0,0
-700,582,0,0,0,0,0,0,0,0,0,-1,524,442,0,0
-693,582,0,0,0,0,0,0,0,0,0,-1,531,442,0,0
-686,582,0,0,0,0,0,0,0,0,0,-1,538,442,0,0
-679,582,0,0,0,0,0,0,0,0,0,-1,545,442,0,0
-672,582,0,0,0,0,0,0,0,0,0,-1,552,442,0,0
-665,582,0,0,0,0,0,0,0,0,0,-1,559,442,0,0
-658,582,0,0,0,0,0,0,0,0,0,-1,566,442,0,0
-651,582,0,0,0,0,0,0,0,0,0,-1,573,442,0,0
-644,582,0,0,0,0,0,0,0,0,0,-1,580,442,0,0
-637,582,0,0,0,0,0,0,0,0,0,-1,587,442,0,0
-630,582,0,0,0,0,0,0,0,0,0,-1,594,442,0,0
-623,582,0,0,0,0,0,0,0,0,0,-1,601,442,0,0
-616,582,0,0,0,0,0,0,0,0,0,-1,608,442,0,0
-609,582,0,0,0,0,0,0,0,0,0,-1,615,442,0,0
-602,582,0,0,0,0,0,0,0,0,0,-1,622,442,0,0
-595,582,0,0,0,0,0,0,0,0,0,-1,629,442,0,0
-588,582,0,0,0,0,0,0,0,0,0,-1,636,442,0,0
-581,582,0,0,0,0,0,0,0,0,0,-1,643,442,0,0
-574,582,0,0,0,0,0,0,0,0,0,-1,650,442,0,0
-567,582,0,0,0,0,0,0,0,0,0,-1,657,442,0,0
-560,582,0,0,0,0,0,0,0,0,0,-1,664,442,0,0
-553,582,0,0,0,0,0,0,0,0,0,-1,671,442,0,0
-546,582,0,0,0,0,0,0,0,0,0,-1,678,442,0,0
-539,582,0,0,0,0,0,0,0,0,0,-1,685,442,0,0
-532,582,0,0,0,0,0,0,0,0,0,-1,692,442,0,0
-525,582,0,0,0,0,0,0,0,0,0,-1,699,442,0,0
-518,582,0,0,0,0,0,0,0,0,0,-1,706,442,0,0
-511,582,0,0,0,0,0,0,0,0,0,-1,713,442,0,0
-504,582,0,0,0,0,0,0,0,0,0,-1,720,442,0,0
-497,582,0,0,0,0,0,0,0,0,0,-1,727,442,0,0
-490,582,0,0,0,0,0,0,0,0,0,-1,734,442,0,0
-483,582,0,0,0,0,0,0,0,0,0,-1,741,442,0,0
-476,582,0,0,0,0,0,0,0,0,0,-1,748,442,0,0
-469,582,0,0,0,0,0,0,0,0,0,-1,755,442,0,0
-462,582,0,0,0,0,0,0,0,0,0,-1,762,442,0,0
-455,582,0,0,0,0,0,0,0,0,0,-1,769,442,0,0
-448,582,0,0,0,0,0,0,0,0,0,-1,776,442,0,0
-441,582,0,0,0,0,0,0,0,0,0,-1,783,442,0,0
-434,582,0,0,0,0,0,0,0,0,0,-1,790,442,0,0
-427,582,0,0,0,0,0,0,0,0,0,-1,797,442,0,0
-420,582,0,0,0,0,0,0,0,0,0,-1,804,442,0,0
-413,582,0,0,0,0,0,0,0,0,0,-1,811,442,0,0
-406,582,0,0,0,0,0,0,0,0,0,-1,818,442,0,0
-399,582,0,0,0,0,0,0,0,0,0,-1,825,442,0,0
-392,582,0,0,0,0,0,0,0,0,0,-1,832,442,0,0
-385,582,0,0,0,0,0,0,0,0,0,-1,839,442,0,0
-378,582,0,0,0,0,0,0,0,0,0,-1,846,442,0,0
-371,582,0,0,0,0,0,0,0,0,0,-1,853,442,0,0
-364,582,0,0,0,0,0,0,0,0,0,-1,860,442,0,0
-357,582,-1.4903,-21.5295,0,0,0,0,0,0,0,-1,867,442,-1.49031,21.5295
-350,582,-0.880859,-19.7966,0,0,0,0,0,0,0,-1,874,442,-0.880885,19.7966
-343,582,0.939941,-19.1705,0,0,0,0,0,0,0,-1,881,442,0.939935,19.1705
-336,582,3.33929,-27.9479,0,0,0,0,0,0,0,-1,888,442,3.33928,27.9479
-329,582,3.63544,-26.4736,0,0,0,0,0,0,0,-1,895,442,3.63546,26.4736
-322,582,3.67145,-27.1796,0,0,0,0,0,0,0,-1,902,442,3.67143,27.1796
-315,582,3.90686,-27.6446,0,0,0,0,0,0,0,-1,909,442,3.90689,27.6446
-308,582,4.07587,-33.1895,0,0,0,0,0,0,0,-1,916,442,4.07588,33.1895
-301,582,5.02643,-40.5036,0,0,0,0,0,0,0,-1,923,442,5.02642,40.5036
-294,582,4.94543,-41.2844,0,0,0,0,0,0,0,-1,930,442,4.94546,41.2844
-287,582,4.75488,-42.2945,-0.00136737,0.0199816,-0.00992298,0.0238814,-0.00526718,-1.19633,0.0179364,0.0446743,937,442,4.75491,42.2945
-280,582,4.76892,-43.3037,-0.000903815,0.0185978,-0.00939715,0.022389,-0.00469497,-1.18733,0.0167123,0.0207113,944,442,4.76894,43.3037
-273,582,4.76324,-44.3483,-0.000520485,0.0169955,-0.00879532,0.0206496,-0.00417458,-1.17703,0.0153484,0.0137937,951,442,4.76323,44.3483
-266,582,4.67218,-45.2624,-0.000351741,0.0152048,-0.00798371,0.0185729,-0.00371981,-1.17158,0.0137901,0.0115211,958,442,4.6722,45.2624
-259,582,4.5849,-46.1565,-0.00017524,0.0132032,-0.00717305,0.0163221,-0.00329409,-1.16065,0.0121294,0.00918075,965,442,4.5849,46.1565
-252,582,4.52057,-47.069,1.29188e-05,0.0114239,-0.00632027,0.014233,-0.0027962,-1.15256,0.010545,0.00841524,972,442,4.52056,47.069
-245,582,4.4917,-47.9117,0.000163864,0.00984122,-0.00544597,0.0122876,-0.00228247,-1.14861,0.00904899,0.0122705,979,442,4.49169,47.9117
-238,582,4.41931,-48.7057,0.000281319,0.00801992,-0.00448324,0.0100727,-0.00177146,-1.14141,0.00737685,0.0162699,986,442,4.4193,48.7057
-231,582,4.35059,-49.5323,0.000387876,0.00609708,-0.00343567,0.00770931,-0.00122435,-1.13204,0.00559251,0.0126387,993,442,4.35056,49.5323
-224,582,4.29944,-50.3791,0.000572355,0.00421641,-0.00252004,0.00550411,-0.000715345,-1.0984,0.00392962,0.0106933,1000,442,4.29941,50.3791
-217,582,4.25665,-51.2088,0.000765359,0.00226851,-0.001674,0.00335192,-0.000318045,-0.996396,0.00234782,0.0131272,1007,442,4.25665,51.2088
-210,582,4.23981,-52.0263,0.0010084,0.000351248,-0.000887815,0.00162649,-0.000266843,-0.608167,0.00118335,0.0142417,1014,442,4.23983,52.0263
-203,582,4.22583,-52.8365,0.00134752,-0.00137481,-0.000160447,0.00135694,-0.00138424,-0.0586667,0.00158265,0.0112595,1021,442,4.22587,52.8365
-196,582,4.1637,-53.664,0.00173332,-0.0029583,0.000495478,0.00178507,-0.00301006,0.104079,0.00279842,0.0163607,1028,442,4.16368,53.664
-189,582,4.11865,-54.4606,0.00217963,-0.00446558,0.00105694,0.00234369,-0.00462964,0.153992,0.00409753,0.0241595,1035,442,4.1187,54.4606
-182,582,4.1051,-55.2225,0.00270196,-0.00580488,0.0015957,0.00299143,-0.00609435,0.179454,0.00534667,0.0168302,1042,442,4.10505,55.2225
-175,582,4.08557,-55.9123,0.00327808,-0.00681808,0.00207074,0.00368628,-0.00722629,0.194636,0.00640992,0.0151167,1049,442,4.08553,55.9123
-168,582,4.06274,-56.6643,0.00389967,-0.00753844,0.00244441,0.00440016,-0.00803893,0.201957,0.00728342,0.0120832,1056,442,4.06271,56.6643
-161,582,4.04443,-57.3798,0.00448801,-0.00815589,0.00285545,0.00510296,-0.00877084,0.212122,0.00810282,0.0129205,1063,442,4.04446,57.3798
-154,582,4.03894,-58.0818,0.00514164,-0.00851962,0.00326622,0.00588238,-0.00926036,0.223017,0.00881488,0.0130423,1070,442,4.039,58.0819
-147,582,4.07642,-58.7838,0.00592407,-0.00866936,0.00352061,0.006729,-0.0094743,0.224772,0.00939963,0.0131602,1077,442,4.07642,58.7838
-140,582,4.0835,-59.4458,0.0064621,-0.00877577,0.0039784,0.00743827,-0.00975194,0.240614,0.00995469,0.0148796,1084,442,4.08344,59.4458
-133,582,4.13879,-60.0986,0.00689246,-0.00863698,0.00437111,0.00803827,-0.00978279,0.256364,0.0103054,0.0189768,1091,442,4.13876,60.0986
-126,582,4.1311,-60.731,0.00745075,-0.00820002,0.00463901,0.00872246,-0.00947172,0.26756,0.0105074,0.0294835,1098,442,4.13105,60.731
-119,582,4.21399,-61.5995,0,0,0,0,0,0,0,-1,1105,442,4.21399,61.5995
-112,582,3.47888,-53.7394,0,0,0,0,0,0,0,-1,1112,442,3.47883,53.7394
-105,582,2.87219,-43.073,0,0,0,0,0,0,0,-1,1119,442,2.87217,43.073
-98,582,2.61938,-32.8673,0,0,0,0,0,0,0,-1,1126,442,2.61944,32.8673
-91,582,2.16492,-24.1119,0,0,0,0,0,0,0,-1,1133,442,2.16496,24.1119
-84,582,2.10278,-16.7533,0,0,0,0,0,0,0,-1,1140,442,2.10279,16.7533
-77,582,2.30212,-11.4907,0,0,0,0,0,0,0,-1,1147,442,2.30207,11.4907
-70,582,1.49255,-6.36548,0,0,0,0,0,0,0,-1,1154,442,1.49251,6.36549
-63,582,-4.62915,-4.0347,0,0,0,0,0,0,0,-1,1161,442,-4.6292,4.03471
-56,582,-5.81714,-5.24149,0,0,0,0,0,0,0,-1,1168,442,-5.81718,5.24149
-49,582,-3.88672,-10.1064,0,0,0,0,0,0,0,-1,1175,442,-3.88678,10.1064
-42,582,-0.948975,1.13968,0,0,0,0,0,0,0,-1,1182,442,-0.949003,-1.13969
-35,582,-2.58435,-3.86911,0,0,0,0,0,0,0,-1,1189,442,-2.58437,3.86912
-28,582,-0.825317,-3.45941,0,0,0,0,0,0,0,-1,1196,442,-0.825377,3.45942
-21,582,5.05493,-67.4512,0,0,0,0,0,0,0,-1,1203,442,5.05499,67.4512
-14,582,5.21521,-67.7163,0,0,0,0,0,0,0,-1,1210,442,5.21515,67.7163
-7,582,5.37537,-67.9814,0,0,0,0,0,0,0,-1,1217,442,5.37532,67.9814
0,582,5.13171,-66.9972,0,0,0,0,0,0,0,-1,1224,442,5.1317,66.9972
7,582,5.71375,-67.3296,0.0298031,-0.0315922,0.018072,0.0347277,-0.0365167,0.266038,0.0411373,0.0497541,1231,442,5.7137,67.3296
14,582,6.17981,-67.8926,0.027069,-0.0318533,0.0150233,0.0306783,-0.0354626,0.235782,0.0382198,0.0457833,1238,442,6.17979,67.8927
21,582,6.21545,-68.0809,0,0,0,0,0,0,0,-1,1245,442,6.21549,68.0809
28,582,6.41638,-68.6665,0.0141827,-0.0330437,0.0100942,0.0162498,-0.0351108,0.201984,0.0303122,0.0457542,1252,442,6.41638,68.6665
35,582,6.6842,-69.587,0.0040716,-0.0345228,0.00895485,0.00604812,-0.0364993,0.217238,0.0265793,0.0484123,1259,442,6.68426,69.587
42,582,7.0144,-70.4531,0,0,0,0,0,0,0,-1,1266,442,7.01437,70.4531
49,582,6.90881,-67.882,-0.0182945,-0.038396,0.0100972,-0.0140985,-0.042592,0.393851,0.0250543,0.0441569,1273,442,6.90882,67.882
56,582,7.07837,-68.7514,-0.0310316,-0.0386506,0.0129722,-0.0213211,-0.0483611,0.642581,0.0279863,0.044455,1280,442,7.07836,68.7514
63,582,6.17554,-68.1933,-0.0431383,-0.039812,0.017503,-0.0238934,-0.059057,0.832767,0.0343029,0.0423981,1287,442,6.17552,68.1933
70,582,5.27161,-67.634,0,0,0,0,0,0,0,-1,1294,442,5.27167,67.634
77,582,3.66223,-68.5289,-0.0612979,-0.0411317,0.0285891,-0.0208997,-0.0815298,0.954933,0.0488988,0.0472755,1301,442,3.66228,68.5289
84,582,2.84912,-68.4701,-0.0654404,-0.0395233,0.0352596,-0.0149164,-0.0900473,0.961496,0.0557288,0.0471024,1308,442,2.8491,68.4701
91,582,2.00623,-67.2731,0,0,0,0,0,0,0,-1,1315,442,2.00622,67.2731
98,582,0.933228,-65.9807,-0.0666635,-0.0311066,0.0489661,0.00320866,-0.100979,0.959536,0.0684138,0.044832,1322,442,0.933217,65.9807
105,582,-0.268188,-65.2854,-0.063358,-0.0268535,0.056182,0.0139668,-0.104178,0.942459,0.0745452,0.0449437,1329,442,-0.268159,65.2854
112,582,-1.09692,-61.7224,-0.0564993,-0.0202644,0.0618859,0.0261015,-0.102865,0.927797,0.078733,0.0435058,1336,442,-1.09698,61.7224
119,582,-1.51343,-60.8128,-0.0480955,-0.0127717,0.0666027,0.0384712,-0.0993384,0.915006,0.0821105,0.044399,1343,442,-1.51342,60.8128
126,582,-2.10706,-59.9412,0,0,0,0,0,0,0,-1,1350,442,-2.10703,59.9412
133,582,-1.40918,-57.4547,0,0,0,0,0,0,0,-1,1357,442,-1.40916,57.4547
140,582,-1.56372,-56.899,0,0,0,0,0,0,0,-1,1364,442,-1.56366,56.8989
147,582,-0.303101,-56.5368,0,0,0,0,0,0,0,-1,1371,442,-0.30315,56.5368
154,582,-0.57251,-55.635,0,0,0,0,0,0,0,-1,1378,442,-0.572471,55.635
161,582,-10.9921,-86.2264,0,0,0,0,0,0,0,-1,1385,442,-10.9921,86.2264
168,582,0.081665,-40.4535,0,0,0,0,0,0,0,-1,1392,442,0.0816215,40.4535
175,582,6.50549,-2.00424,0,0,0,0,0,0,0,-1,1399,442,6.50546,2.00425
182,582,5.18958,-2.18652,0,0,0,0,0,0,0,-1,1406,442,5.1896,2.18652
189,582,6.19751,-0.880951,0,0,0,0,0,0,0,-1,1413,442,6.19754,0.88096
196,582,4.87354,-2.22327,0,0,0,0,0,0,0,-1,1420,442,4.87348,2.22325
203,582,3.11401,-4.48257,0,0,0,0,0,0,0,-1,1427,442,3.11404,4.48259
210,582,2.93115,-11.0731,0,0,0,0,0,0,0,-1,1434,442,2.93113,11.0731
217,582,4.94092,-16.5476,0,0,0,0,0,0,0,-1,1441,442,4.94087,16.5476
224,582,5.21008,-20.9908,0,0,0,0,0,0,0,-1,1448,442,5.21006,20.9908
231,582,5.70032,-25.622,0,0,0,0,0,0,0,-1,1455,442,5.70026,25.6221
238,582,6.44189,-30.7028,0,0,0,0,0,0,0,-1,1462,442,6.44195,30.7028
245,582,10.0378,-45.1569,0,0,0,0,0,0,0,-1,1469,442,10.0379,45.1568
252,582,12.8021,-60.851,0,0,0,0,0,0,0,-1,1476,442,12.8021,60.851
259,582,12.7446,-60.0457,0,0,0,0,0,0,0,-1,1483,442,12.7446,60.0457
266,582,12.7383,-59.4247,0.00720125,-0.00372088,5.27789e-05,0.0072015,-0.00372114,0.00483214,0.00641201,0.0207813,1490,442,12.7383,59.4248
273,582,12.8025,-58.6785,0.0060451,-0.00451993,-0.00052777,0.0060714,-0.00454623,-0.0497892,0.00615114,0.0118813,1497,442,12.8025,58.6785
280,582,12.8159,-57.9864,0.00490939,-0.00501637,-0.000964764,0.00500229,-0.00510928,-0.0960007,0.00583803,0.0121079,1504,442,12.8159,57.9864
287,582,12.8047,-57.2488,0.00396527,-0.00529557,-0.00134081,0.00415548,-0.00548579,-0.140928,0.00558403,0.0121071,1511,442,12.8047,57.2488
294,582,12.8021,-56.4803,0.00314766,-0.00518967,-0.00153358,0.0034208,-0.00546281,-0.176258,0.00517392,0.00970046,1518,442,12.8021,56.4803
301,582,12.7992,-55.6994,0.00245543,-0.00475394,-0.00151699,0.00276163,-0.00506014,-0.19917,0.00458044,0.0100534,1525,442,12.7992,55.6994
308,582,12.7834,-54.9286,0.00189944,-0.00402065,-0.00130249,0.00217333,-0.00429454,-0.207264,0.00380058,0.0127044,1532,442,12.7834,54.9285
315,582,12.7595,-54.178,0.00149657,-0.00294159,-0.000883501,0.00166599,-0.00311101,-0.18945,0.00279974,0.0140524,1539,442,12.7595,54.178
322,582,12.7194,-53.3897,0.00116968,-0.00170721,-0.000322383,0.00120537,-0.0017429,-0.110238,0.00171158,0.0112679,1546,442,12.7194,53.3897
329,582,12.6733,-52.6125,0.000859558,-0.000556301,0.000207887,0.00088945,-0.000586194,0.142813,0.000857939,0.0113679,1553,442,12.6733,52.6125
336,582,12.6349,-51.8215,0.000757493,0.00117437,0.00101066,0.00199787,-6.59972e-05,0.887093,0.00135445,0.0122832,1560,442,12.6349,51.8215
343,582,12.5956,-50.9894,0.000714185,0.00296469,0.00194166,0.0040836,-0.000404721,1.04801,0.00286684,0.0144666,1567,442,12.5955,50.9894
350,582,12.5599,-50.1667,0.000778253,0.00494384,0.00290628,0.00643659,-0.000714492,1.09631,0.00454797,0.0172045,1574,442,12.5599,50.1668
357,582,12.5287,-49.3155,0.000800032,0.00671896,0.00378594,0.00856489,-0.0010459,1.11714,0.00608857,0.0135486,1581,442,12.5287,49.3155
364,582,12.4575,-48.4738,0.000724724,0.00837025,0.00460809,0.0105348,-0.00143984,1.13166,0.00754906,0.010099,1588,442,12.4575,48.4738
371,582,12.3877,-47.6246,0.000626643,0.00994465,0.00536633,0.0123922,-0.00182096,1.14288,0.00893058,0.0147159,1595,442,12.3877,47.6246
378,582,12.3284,-46.7604,0.000515887,0.0114477,0.00598117,0.0140843,-0.0021207,1.15561,0.0101704,0.0173578,1602,442,12.3284,46.7604
385,582,12.276,-45.8936,0.000340065,0.0126362,0.00632464,0.0153086,-0.00233228,1.17102,0.0110654,0.0129907,1609,442,12.276,45.8936
392,582,12.2009,-45.0122,0.000219593,0.0134996,0.00659648,0.0162193,-0.00250006,1.17974,0.0117353,0.0109993,1616,442,12.2009,45.0122
399,582,12.124,-44.1455,0.000230157,0.0141017,0.00688471,0.0169386,-0.00260669,1.17995,0.012254,0.0187279,1623,442,12.124,44.1456
406,582,12.0925,-43.1176,-3.24493e-05,0.0145711,0.00699211,0.017379,-0.00284035,1.18893,0.0126396,0.0325429,1630,442,12.0925,43.1176
413,582,12.0759,-42.0581,0,0,0,0,0,0,0,-1,1637,442,12.0759,42.0581
420,582,11.8732,-41.3226,0,0,0,0,0,0,0,-1,1644,442,11.8732,41.3226
427,582,11.5374,-40.4171,0,0,0,0,0,0,0,-1,1651,442,11.5373,40.4171
434,582,11.3719,-39.49,0,0,0,0,0,0,0,-1,1658,442,11.372,39.49
441,582,10.8484,-36.2891,0,0,0,0,0,0,0,-1,1665,442,10.8484,36.2891
448,582,11.2651,-32.8669,0,0,0,0,0,0,0,-1,1672,442,11.2651,32.8668
455,582,6.4585,-19.4734,0,0,0,0,0,0,0,-1,1679,442,6.45854,19.4734
462,582,5.35022,-19.2616,0,0,0,0,0,0,0,-1,1686,442,5.35025,19.2616
469,582,6.28601,-21.5695,0,0,0,0,0,0,0,-1,1693,442,6.28597,21.5695
476,582,1.93579,-8.53891,0,0,0,0,0,0,0,-1,1700,442,1.93579,8.53892
483,582,0,0,0,0,0,0,0,0,0,-1,1707,442,0,0
490,582,0,0,0,0,0,0,0,0,0,-1,1714,442,0,0
497,582,0,0,0,0,0,0,0,0,0,-1,1721,442,0,0
504,582,0,0,0,0,0,0,0,0,0,-1,1728,442,0,0
511,582,0,0,0,0,0,0,0,0,0,-1,1735,442,0,0
518,582,0,0,0,0,0,0,0,0,0,-1,1742,442,0,0
525,582,0,0,0,0,0,0,0,0,0,-1,1749,442,0,0
532,582,0,0,0,0,0,0,0,0,0,-1,1756,442,0,0
539,582,0,0,0,0,0,0,0,0,0,-1,1763,442,0,0
546,582,0,0,0,0,0,0,0,0,0,-1,1770,442,0,0
553,582,0,0,0,0,0,0,0,0,0,-1,1777,442,0,0
560,582,0,0,0,0,0,0,0,0,0,-1,1784,442,0,0
567,582,0,0,0,0,0,0,0,0,0,-1,1791,442,0,0
574,582,0,0,0,0,0,0,0,0,0,-1,1798,442,0,0
581,582,0,0,0,0,0,0,0,0,0,-1,1805,442,0,0
588,582,0,0,0,0,0,0,0,0,0,-1,1812,442,0,0
595,582,0,0,0,0,0,0,0,0,0,-1,1819,442,0,0
602,582,0,0,0,0,0,0,0,0,0,-1,1826,442,0,0
609,582,0,0,0,0,0,0,0,0,0,-1,1833,442,0,0
616,582,0,0,0,0,0,0,0,0,0,-1,1840,442,0,0
623,582,0,0,0,0,0,0,0,0,0,-1,1847,442,0,0
630,582,0,0,0,0,0,0,0,0,0,-1,1854,442,0,0
637,582,0,0,0,0,0,0,0,0,0,-1,1861,442,0,0
644,582,0,0,0,0,0,0,0,0,0,-1,1868,442,0,0
651,582,0,0,0,0,0,0,0,0,0,-1,1875,442,0,0
658,582,0,0,0,0,0,0,0,0,0,-1,1882,442,0,0
665,582,0,0,0,0,0,0,0,0,0,-1,1889,442,0,0
672,582,0,0,0,0,0,0,0,0,0,-1,1896,442,0,0
679,582,0,0,0,0,0,0,0,0,0,-1,1903,442,0,0
686,582,0,0,0,0,0,0,0,0,0,-1,1910,442,0,0
693,582,0,0,0,0,0,0,0,0,0,-1,1917,442,0,0
700,582,0,0,0,0,0,0,0,0,0,-1,1924,442,0,0
707,582,0,0,0,0,0,0,0,0,0,-1,1931,442,0,0
714,582,0,0,0,0,0,0,0,0,0,-1,1938,442,0,0
721,582,0,0,0,0,0,0,0,0,0,-1,1945,442,0,0
728,582,0,0,0,0,0,0,0,0,0,-1,1952,442,0,0
735,582,0,0,0,0,0,0,0,0,0,-1,1959,442,0,0
742,582,0,0,0,0,0,0,0,0,0,-1,1966,442,0,0
749,582,0,0,0,0,0,0,0,0,0,-1,1973,442,0,0
756,582,0,0,0,0,0,0,0,0,0,-1,1980,442,0,0
763,582,0,0,0,0,0,0,0,0,0,-1,1987,442,0,0
770,582,0,0,0,0,0,0,0,0,0,-1,1994,442,0,0
777,582,0,0,0,0,0,0,0,0,0,-1,2001,442,0,0
784,582,0,0,0,0,0,0,0,0,0,-1,2008,442,0,0
791,582,0,0,0,0,0,0,0,0,0,-1,2015,442,0,0
798,582,0,0,0,0,0,0,0,0,0,-1,2022,442,0,0
805,582,0,0,0,0,0,0,0,0,0,-1,2029,442,0,0
812,582,0,0,0,0,0,0,0,0,0,-1,2036,442,0,0
-700,575,0,0,0,0,0,0,0,0,0,-1,524,449,0,0
-693,575,0,0,0,0,0,0,0,0,0,-1,531,449,0,0
-686,575,0,0,0,0,0,0,0,0,0,-1,538,449,0,0
-679,575,0,0,0,0,0,0,0,0,0,-1,545,449,0,0
-672,575,0,0,0,0,0,0,0,0,0,-1,552,449,0,0
-665,575,0,0,0,0,0,0,0,0,0,-1,559,449,0,0
-658,575,0,0,0,0,0,0,0,0,0,-1,566,449,0,0
-651,575,0,0,0,0,0,0,0,0,0,-1,573,449,0,0
-644,575,0,0,0,0,0,0,0,0,0,-1,580,449,0,0
-637,575,0,0,0,0,0,0,0,0,0,-1,587,449,0,0
-630,575,0,0,0,0,0,0,0,0,0,-1,594,449,0,0
-623,575,0,0,0,0,0,0,0,0,0,-1,601,449,0,0
-616,575,0,0,0,0,0,0,0,0,0,-1,608,449,0,0
-609,575,0,0,0,0,0,0,0,0,0,-1,615,449,0,0
-602,575,0,0,0,0,0,0,0,0,0,-1,622,449,0,0
-595,575,0,0,0,0,0,0,0,0,0,-1,629,449,0,0
-588,575,0,0,0,0,0,0,0,0,0,-1,636,449,0,0
-581,575,0,0,0,0,0,0,0,0,0,-1,643,449,0,0
-574,575,0,0,0,0,0,0,0,0,0,-1,650,449,0,0
-567,575,0,0,0,0,0,0,0,0,0,-1,657,449,0,0
-560,575,0,0,0,0,0,0,0,0,0,-1,664,449,0,0
-553,575,0,0,0,0,0,0,0,0,0,-1,671,449,0,0
-546,575,0,0,0,0,0,0,0,0,0,-1,678,449,0,0
-539,575,0,0,0,0,0,0,0,0,0,-1,685,449,0,0
-532,575,0,0,0,0,0,0,0,0,0,-1,692,449,0,0
-525,575,0,0,0,0,0,0,0,0,0,-1,699,449,0,0
-518,575,0,0,0,0,0,0,0,0,0,-1,706,449,0,0
-511,575,0,0,0,0,0,0,0,0,0,-1,713,449,0,0
-504,575,0,0,0,0,0,0,0,0,0,-1,720,449,0,0
-497,575,0,0,0,0,0,0,0,0,0,-1,727,449,0,0
-490,575,0,0,0,0,0,0,0,0,0,-1,734,449,0,0
-483,575,0,0,0,0,0,0,0,0,0,-1,741,449,0,0
-476,575,0,0,0,0,0,0,0,0,0,-1,748,449,0,0
-469,575,0,0,0,0,0,0,0,0,0,-1,755,449,0,0
-462,575,0,0,0,0,0,0,0,0,0,-1,762,449,0,0
-455,575,0,0,0,0,0,0,0,0,0,-1,769,449,0,0
-448,575,0,0,0,0,0,0,0,0,0,-1,776,449,0,0
-441,575,0,0,0,0,0,0,0,0,0,-1,783,449,0,0
-434,575,0,0,0,0,0,0,0,0,0,-1,790,449,0,0
-427,575,0,0,0,0,0,0,0,0,0,-1,797,449,0,0
-420,575,0,0,0,0,0,0,0,0,0,-1,804,449,0,0
-413,575,0,0,0,0,0,0,0,0,0,-1,811,449,0,0
-406,575,0,0,0,0,0,0,0,0,0,-1,818,449,0,0
-399,575,0,0,0,0,0,0,0,0,0,-1,825,449,0,0
-392,575,0,0,0,0,0,0,0,0,0,-1,832,449,0,0
-385,575,0,0,0,0,0,0,0,0,0,-1,839,449,0,0
-378,575,0,0,0,0,0,0,0,0,0,-1,846,449,0,0
-371,575,0.56897,-3.52304,0,0,0,0,0,0,0,-1,853,449,0.568955,3.52306
-364,575,1.49805,-4.67191,0,0,0,0,0,0,0,-1,860,449,1.49803,4.6719
-357,575,3.15521,-8.29892,0,0,0,0,0,0,0,-1,867,449,3.15521,8.29891
-350,575,-0.825928,-18.5347,0,0,0,0,0,0,0,-1,874,449,-0.825948,18.5347
-343,575,0.465393,-16.3569,0,0,0,0,0,0,0,-1,881,449,0.465397,16.3569
-336,575,3.1994,-17.5725,0,0,0,0,0,0,0,-1,888,449,3.19941,17.5725
-329,575,2.81946,-29.1576,0,0,0,0,0,0,0,-1,895,449,2.81945,29.1576
-322,575,4.28943,-27.9487,0,0,0,0,0,0,0,-1,902,449,4.28944,27.9487
-315,575,6.13507,-35.9424,0,0,0,0,0,0,0,-1,909,449,6.13508,35.9424
-308,575,4.01611,-39.8302,0,0,0,0,0,0,0,-1,916,449,4.01609,39.8302
-301,575,4.18738,-40.6428,-0.00204163,0.0199609,-0.00943166,0.0234505,-0.00553119,-1.21643,0.0177667,0.0427604,923,449,4.18736,40.6428
-294,575,4.11853,-41.4529,-0.00163872,0.0174892,-0.00847953,0.0207069,-0.00485646,-1.20811,0.0156762,0.0270607,930,449,4.11852,41.4529
-287,575,4.03247,-42.4543,-0.00144427,0.0153816,-0.00760798,0.0183115,-0.00437412,-1.2032,0.0138971,0.0192018,937,449,4.03247,42.4543
-280,575,3.98749,-43.42,-0.000955824,0.0140797,-0.00712665,0.0169208,-0.00379692,-1.19145,0.0127362,0.0146929,944,449,3.9875,43.42
-273,575,3.9259,-44.3498,-0.000549415,0.0125788,-0.00658109,0.0153097,-0.00328038,-1.17745,0.0114576,0.0132285,951,449,3.92592,44.3498
-266,575,3.86743,-45.2406,-0.000312502,0.0108978,-0.00585138,0.0133955,-0.0028102,-1.16735,0.0099996,0.0144157,958,449,3.86743,45.2406
-259,575,3.77759,-46.1197,-7.58306e-05,0.0089511,-0.00509013,0.0112406,-0.00236536,-1.14811,0.00839404,0.013456,965,449,3.77757,46.1197
-252,575,3.66467,-47.001,0.000109839,0.00717735,-0.00421413,0.00914326,-0.00185607,-1.1343,0.00679917,0.0118753,972,449,3.66468,47.001
-245,575,3.59784,-47.8463,0.00027515,0.00556204,-0.00332941,0.0071698,-0.00133261,-1.12092,0.00528043,0.0160625,979,449,3.59783,47.8463
-238,575,3.57452,-48.6646,0.000434073,0.00369307,-0.00235117,0.00492422,-0.000797073,-1.08842,0.00357822,0.0164775,986,449,3.57453,48.6646
-231,575,3.54156,-49.5073,0.000599394,0.00170536,-0.00130761,0.0025721,-0.000267353,-0.985441,0.00181044,0.0135302,993,449,3.54158,49.5073
-224,575,3.47864,-50.347,0.000804211,-0.000246112,-0.000364543,0.000918335,-0.000360236,-0.303396,0.000761264,0.0129792,1000,449,3.47865,50.347
-217,575,3.44629,-51.1652,0.00103183,-0.00224564,0.000520602,0.00111253,-0.00232635,0.153801,0.00202625,0.0113648,1007,449,3.44627,51.1652
-210,575,3.46387,-51.9963,0.00133394,-0.00421004,0.0013151,0.00163008,-0.00450618,0.22149,0.0036702,0.0101382,1014,449,3.46389,51.9964
-203,575,3.44885,-52.7931,0.00176766,-0.00592408,0.0020106,0.00226151,-0.00641794,0.240858,0.00519909,0.0131854,1021,449,3.44881,52.7931
-196,575,3.40527,-53.5969,0.00229075,-0.00743977,0.00260814,0.00294574,-0.00809476,0.246044,0.00660126,0.0176825,1028,449,3.40531,53.5969
-189,575,3.34705,-54.382,0.00286836,-0.00885909,0.00311558,0.00364467,-0.0096354,0.244198,0.00792303,0.0187666,1035,449,3.34703,54.3821
-182,575,3.32141,-55.1146,0.00353237,-0.0101093,0.00357925,0.00441445,-0.0109914,0.241626,0.00916076,0.0165987,1042,449,3.32142,55.1146
-175,575,3.32068,-55.8513,0.00430389,-0.0108983,0.00390943,0.00525032,-0.0118447,0.237521,0.0101117,0.0133513,1049,449,3.32063,55.8512
-168,575,3.27747,-56.5893,0.00513455,-0.0114167,0.00413122,0.00610841,-0.0123905,0.231505,0.0108837,0.0113884,1056,449,3.27752,56.5893
-161,575,3.27319,-57.308,0.00586379,-0.0119004,0.00444276,0.00691294,-0.0129495,0.231901,0.0116428,0.01559,1063,449,3.27323,57.308
-154,575,3.30823,-58.0219,0.00667205,-0.0120747,0.00474551,0.00780486,-0.0132075,0.234328,0.0122644,0.0169499,1070,449,3.30817,58.0218
-147,575,3.34644,-58.674,0.00765055,-0.0120444,0.00483683,0.00877429,-0.0131682,0.228281,0.0127529,0.0152002,1077,449,3.34644,58.674
-140,575,3.31677,-59.2606,0.00817451,-0.0119519,0.00534021,0.00950366,-0.0132811,0.243939,0.0132149,0.0248224,1084,449,3.31673,59.2606
-133,575,3.36157,-59.846,0.00850113,-0.0115606,0.00581246,0.0100635,-0.013123,0.262589,0.0134255,0.0437578,1091,449,3.36154,59.846
-126,575,3.48877,-60.4292,0,0,0,0,0,0,0,-1,1098,449,3.48875,60.4292
-119,575,3.00208,-52.3971,0,0,0,0,0,0,0,-1,1105,449,3.00204,52.3971
-112,575,2.70337,-43.3701,0,0,0,0,0,0,0,-1,1112,449,2.70333,43.3701
-105,575,2.18347,-36.5414,0,0,0,0,0,0,0,-1,1119,449,2.18351,36.5414
-98,575,1.521,-25.6961,0,0,0,0,0,0,0,-1,1126,449,1.52105,25.6961
-91,575,1.60803,-16.4247,0,0,0,0,0,0,0,-1,1133,449,1.60802,16.4247
-84,575,1.16553,-11.9056,0,0,0,0,0,0,0,-1,1140,449,1.16558,11.9056
-77,575,0.205078,-11.2584,0,0,0,0,0,0,0,-1,1147,449,0.205117,11.2584
-70,575,-4.2467,-1.78738,0,0,0,0,0,0,0,-1,1154,449,-4.24674,1.78739
-63,575,-4.52209,-3.48798,0,0,0,0,0,0,0,-1,1161,449,-4.5221,3.48796
-56,575,-5.5968,-5.4928,0,0,0,0,0,0,0,-1,1168,449,-5.59683,5.49281
-49,575,-5.96863,-7.17612,0,0,0,0,0,0,0,-1,1175,449,-5.96868,7.1761
-42,575,-0.830322,0.773499,0,0,0,0,0,0,0,-1,1182,449,-0.83038,-0.77351
-35,575,-0.62085,0.205139,0,0,0,0,0,0,0,-1,1189,449,-0.620855,-0.205126
-28,575,0.49292,-3.87988,0,0,0,0,0,0,0,-1,1196,449,0.492941,3.87989
-21,575,4.46448,-67.1827,0,0,0,0,0,0,0,-1,1203,449,4.46447,67.1827
-14,575,4.59949,-67.4231,0.0192989,-0.0255165,0.0347057,0.0382021,-0.0444197,0.498743,0.0477467,0.0462231,1210,449,4.59953,67.4231
-7,575,4.53882,-67.7831,0.0224253,-0.0295609,0.0318322,0.0375288,-0.0446644,0.443017,0.0475138,0.0442368,1217,449,4.53881,67.7831
0,575,4.37598,-68.1702,0.0279583,-0.0314414,0.0276269,0.0388211,-0.0423041,0.374626,0.0468521,0.0447613,1224,449,4.37597,68.1702
7,575,4.96851,-67.0019,0.029007,-0.0327877,0.0231641,0.036726,-0.0405066,0.321658,0.0446081,0.0495223,1231,449,4.96847,67.0019
14,575,5.51111,-67.2446,0.02602,-0.0328726,0.0193461,0.0318067,-0.0386592,0.290639,0.0407475,0.0458783,1238,449,5.51112,67.2447
21,575,5.9115,-67.5944,0,0,0,0,0,0,0,-1,1245,449,5.9115,67.5944
28,575,6.53723,-68.1403,0.0107703,-0.0338954,0.0134175,0.014491,-0.0376161,0.270502,0.0310559,0.0455394,1252,449,6.53723,68.1402
35,575,6.5376,-68.6072,-0.000879083,-0.0354772,0.0120814,0.00292201,-0.0392783,0.30482,0.0272119,0.0448863,1259,449,6.53754,68.6072
42,575,6.36853,-69.2892,0,0,0,0,0,0,0,-1,1266,449,6.3685,69.2892
49,575,6.75134,-67.133,-0.0256453,-0.0403199,0.0132987,-0.0177941,-0.0481711,0.533313,0.0281261,0.0437735,1273,449,6.75131,67.133
56,575,6.99707,-68.6921,-0.0399692,-0.0414997,0.0161423,-0.024574,-0.0568949,0.761712,0.0329496,0.0431703,1280,449,6.99709,68.6921
63,575,6.12415,-68.2129,-0.05378,-0.0435676,0.0209417,-0.0271185,-0.0702291,0.90498,0.0408957,0.0441567,1287,449,6.12419,68.2129
70,575,5.23206,-67.7026,0,0,0,0,0,0,0,-1,1294,449,5.23209,67.7027
77,575,3.62781,-68.3289,-0.0752057,-0.0469892,0.033348,-0.0248879,-0.097307,0.985512,0.0583716,0.048437,1301,449,3.62778,68.3289
84,575,2.74976,-67.3357,-0.080367,-0.0459477,0.0410313,-0.018663,-0.107652,0.983969,0.0664265,0.0480877,1308,449,2.74978,67.3357
91,575,1.90625,-66.3328,-0.0819873,-0.0417769,0.0492557,-0.0086811,-0.115083,0.979167,0.0739983,0.0471827,1315,449,1.90622,66.3328
98,575,1.0675,-65.2961,-0.0815307,-0.0365721,0.0577245,0.00289565,-0.120998,0.971076,0.0816479,0.0469762,1322,449,1.06755,65.2961
105,575,0.271851,-64.2889,-0.0772001,-0.0312483,0.0663514,0.0159926,-0.124441,0.952075,0.088773,0.0467703,1329,449,0.271893,64.2889
112,575,-0.244629,-63.3875,-0.0689643,-0.0227469,0.0734223,0.0311174,-0.122829,0.937859,0.0939912,0.0438,1336,449,-0.244616,63.3875
119,575,-1.55603,-60.5053,-0.0590909,-0.0129002,0.079657,0.046942,-0.118933,0.926497,0.0987287,0.0404255,1343,449,-1.556,60.5053
126,575,-2.24207,-59.4215,-0.0493776,-0.00221973,0.0853216,0.062721,-0.114318,0.92021,0.103651,0.0443026,1350,449,-2.24207,59.4216
133,575,-1.84155,-58.083,-0.040909,0.00765256,0.0901359,0.0767208,-0.109977,0.916965,0.108359,0.0479472,1357,449,-1.8415,58.083
140,575,-1.95459,-57.4678,-0.0340289,0.0159012,0.0939361,0.0881331,-0.106261,0.915279,0.112396,0.048036,1364,449,-1.95458,57.4678
147,575,-1.59216,-56.7136,-0.0288282,0.0227229,0.096723,0.0970459,-0.103151,0.915616,0.115602,0.0480428,1371,449,-1.59212,56.7136
154,575,-1.85986,-55.8064,-0.0252179,0.0286991,0.0989184,0.104267,-0.100786,0.918434,0.118393,0.0455809,1378,449,-1.85989,55.8064
161,575,-2.13928,-54.8979,0,0,0,0,0,0,0,-1,1385,449,-2.13929,54.8979
168,575,-4.97888,-77.9566,0,0,0,0,0,0,0,-1,1392,449,-4.97891,77.9566
175,575,4.32617,1.93634,0,0,0,0,0,0,0,-1,1399,449,4.32612,-1.93634
182,575,6.3147,-2.88345,0,0,0,0,0,0,0,-1,1406,449,6.31466,2.88346
189,575,6.10449,-1.30817,0,0,0,0,0,0,0,-1,1413,449,6.10455,1.30817
196,575,5.79895,0.818359,0,0,0,0,0,0,0,-1,1420,449,5.79895,-0.81837
203,575,3.29724,-1.46378,0,0,0,0,0,0,0,-1,1427,449,3.29722,1.46377
210,575,2.32739,-7.74503,0,0,0,0,0,0,0,-1,1434,449,2.32741,7.74502
217,575,3.33618,-11.5521,0,0,0,0,0,0,0,-1,1441,449,3.3362,11.5521
224,575,5.51709,-16.3903,0,0,0,0,0,0,0,-1,1448,449,5.51713,16.3903
231,575,5.48572,-20.4595,0,0,0,0,0,0,0,-1,1455,449,5.48571,20.4595
238,575,5.33484,-22.3575,0,0,0,0,0,0,0,-1,1462,449,5.33478,22.3575
245,575,5.59741,-23.513,0,0,0,0,0,0,0,-1,1469,449,5.5974,23.513
252,575,10.5602,-44.9309,0,0,0,0,0,0,0,-1,1476,449,10.5602,44.9309
259,575,12.6493,-57.551,0,0,0,0,0,0,0,-1,1483,449,12.6493,57.551
266,575,13.4156,-59.5452,0,0,0,0,0,0,0,-1,1490,449,13.4157,59.5452
273,575,13.5569,-58.6335,0.007329,-0.00673425,-0.000870266,0.00738265,-0.0067879,-0.0615692,0.00818377,0.020979,1497,449,13.5569,58.6335
280,575,13.5887,-57.8584,0.00590005,-0.00784197,-0.00176145,0.00612223,-0.00806415,-0.125477,0.00821605,0.0157749,1504,449,13.5888,57.8584
287,575,13.554,-57.1888,0.00470549,-0.00858109,-0.00253573,0.00517298,-0.00904859,-0.182315,0.00831184,0.0153043,1511,449,13.554,57.1888
294,575,13.5638,-56.4522,0.00370143,-0.00873887,-0.00300638,0.00438987,-0.0094273,-0.225111,0.00815215,0.0124897,1518,449,13.5638,56.4522
301,575,13.5717,-55.6971,0.00287673,-0.0084231,-0.0031858,0.00371302,-0.0092594,-0.256714,0.00771444,0.0106147,1525,449,13.5717,55.6971
308,575,13.5734,-54.9204,0.00218847,-0.0077935,-0.00312145,0.00308419,-0.00868922,-0.27945,0.00704948,0.0110522,1532,449,13.5734,54.9204
315,575,13.5424,-54.1651,0.00168044,-0.00677238,-0.00279884,0.00252316,-0.0076151,-0.292461,0.00609445,0.0120442,1539,449,13.5424,54.1651
322,575,13.5081,-53.3716,0.00129745,-0.00549971,-0.00226831,0.00198489,-0.00618715,-0.294266,0.00492167,0.0111177,1546,449,13.5081,53.3716
329,575,13.4788,-52.5898,0.000896506,-0.00437101,-0.00182509,0.00146706,-0.00494157,-0.302993,0.00387705,0.0115811,1553,449,13.4788,52.5898
336,575,13.4402,-51.7823,0.000739535,-0.00254051,-0.00101698,0.00102926,-0.00283023,-0.277535,0.00230773,0.0134071,1560,449,13.4401,51.7823
343,575,13.4242,-50.9019,0.000678219,-0.000620634,-5.16487e-05,0.00068027,-0.000622685,-0.0396814,0.000752506,0.0149309,1567,449,13.4242,50.9019
350,575,13.3883,-50.0811,0.000807972,0.00142126,0.00101183,0.00217189,5.7342e-05,0.93253,0.0014292,0.0141801,1574,449,13.3883,50.0812
357,575,13.3396,-49.2615,0.000851907,0.00319003,0.00189699,0.00424925,-0.00020732,1.06155,0.00290441,0.0118506,1581,449,13.3396,49.2615
364,575,13.2795,-48.4249,0.000766237,0.00478,0.00272255,0.0061554,-0.000609166,1.10301,0.00432099,0.0102378,1588,449,13.2795,48.4249
371,575,13.2349,-47.5937,0.00067234,0.00624299,0.003482,0.00791663,-0.0010013,1.12274,0.00564122,0.0191538,1595,449,13.2349,47.5937
378,575,13.1792,-46.7257,0.000587734,0.00770323,0.00410885,0.00958057,-0.00128961,1.14222,0.00685746,0.0196487,1602,449,13.1792,46.7257
385,575,13.1132,-45.8416,0.000447678,0.00880924,0.00448512,0.01076,-0.00150304,1.16054,0.00772323,0.0122455,1609,449,13.1131,45.8417
392,575,13.0461,-44.9847,0.000345416,0.00957484,0.00479411,0.0116144,-0.00169412,1.16857,0.00836501,0.00980472,1616,449,13.0461,44.9847
399,575,12.9701,-44.1445,0.000327928,0.0100691,0.00509045,0.0122438,-0.00184671,1.16706,0.00884259,0.0106316,1623,449,12.97,44.1445
406,575,12.9232,-43.2056,6.23025e-05,0.0104486,0.00524558,0.0126369,-0.00212593,1.17559,0.00921533,0.0123491,1630,449,12.9232,43.2056
413,575,12.8661,-42.279,-0.000564457,0.0104192,0.0050434,0.0123836,-0.00252891,1.19937,0.00921514,0.0144652,1637,449,12.8661,42.279
420,575,12.7655,-41.3445,-0.00142909,0.00990377,0.00498347,0.0117834,-0.00330874,1.21012,0.00915995,0.0152159,1644,449,12.7656,41.3445
427,575,12.642,-40.3871,-0.00241976,0.00942638,0.00567617,0.0117071,-0.00470045,1.18874,0.00975655,0.0203919,1651,449,12.642,40.3871
434,575,12.5409,-39.5812,-0.00340451,0.00892229,0.00603199,0.0113828,-0.00586505,1.18348,0.0101265,0.0354435,1658,449,12.5409,39.5812
441,575,12.5198,-38.9017,0,0,0,0,0,0,0,-1,1665,449,12.5198,38.9017
448,575,12.8059,-37.8685,0,0,0,0,0,0,0,-1,1672,449,12.8059,37.8685
455,575,11.7931,-31.6917,0,0,0,0,0,0,0,-1,1679,449,11.793,31.6917
462,575,7.12781,-21.7179,0,0,0,0,0,0,0,-1,1686,449,7.12778,21.7178
469,575,11.5,-34.4973,0,0,0,0,0,0,0,-1,1693,449,11.5,34.4973
476,575,10.3063,-31.0265,0,0,0,0,0,0,0,-1,1700,449,10.3063,31.0265
483,575,8.44177,-29.4231,0,0,0,0,0,0,0,-1,1707,449,8.44173,29.4231
490,575,7.42871,-25.5027,0,0,0,0,0,0,0,-1,1714,449,7.42869,25.5027
497,575,0,0,0,0,0,0,0,0,0,-1,1721,449,0,0
504,575,0,0,0,0,0,0,0,0,0,-1,1728,449,0,0
511,575,0,0,0,0,0,0,0,0,0,-1,1735,449,0,0
518,575,0,0,0,0,0,0,0,0,0,-1,1742,449,0,0
525,575,0,0,0,0,0,0,0,0,0,-1,1749,449,0,0
532,575,0,0,0,0,0,0,0,0,0,-1,1756,449,0,0
539,575,0,0,0,0,0,0,0,0,0,-1,1763,449,0,0
546,575,0,0,0,0,0,0,0,0,0,-1,1770,449,0,0
553,575,0,0,0,0,0,0,0,0,0,-1,1777,449,0,0
560,575,0,0,0,0,0,0,0,0,0,-1,1784,449,0,0
567,575,0,0,0,0,0,0,0,0,0,-1,1791,449,0,0
574,575,0,0,0,0,0,0,0,0,0,-1,1798,449,0,0
581,575,0,0,0,0,0,0,0,0,0,-1,1805,449,0,0
588,575,0,0,0,0,0,0,0,0,0,-1,1812,449,0,0
595,575,0,0,0,0,0,0,0,0,0,-1,1819,449,0,0
602,575,0,0,0,0,0,0,0,0,0,-1,1826,449,0,0
609,575,0,0,0,0,0,0,0,0,0,-1,1833,449,0,0
616,575,0,0,0,0,0,0,0,0,0,-1,1840,449,0,0
623,575,0,0,0,0,0,0,0,0,0,-1,1847,449,0,0
630,575,0,0,0,0,0,0,0,0,0,-1,1854,449,0,0
637,575,0,0,0,0,0,0,0,0,0,-1,1861,449,0,0
644,575,0,0,0,0,0,0,0,0,0,-1,1868,449,0,0
651,575,0,0,0,0,0,0,0,0,0,-1,1875,449,0,0
658,575,0,0,0,0,0,0,0,0,0,-1,1882,449,0,0
665,575,0,0,0,0,0,0,0,0,0,-1,1889,449,0,0
672,575,0,0,0,0,0,0,0,0,0,-1,1896,449,0,0
679,575,0,0,0,0,0,0,0,0,0,-1,1903,449,0,0
686,575,0,0,0,0,0,0,0,0,0,-1,1910,449,0,0
693,575,0,0,0,0,0,0,0,0,0,-1,1917,449,0,0
700,575,0,0,0,0,0,0,0,0,0,-1,1924,449,0,0
707,575,0,0,0,0,0,0,0,0,0,-1,1931,449,0,0
714,575,0,0,0,0,0,0,0,0,0,-1,1938,449,0,0
721,575,0,0,0,0,0,0,0,0,0,-1,1945,449,0,0
728,575,0,0,0,0,0,0,0,0,0,-1,1952,449,0,0
735,575,0,0,0,0,0,0,0,0,0,-1,1959,449,0,0
742,575,0,0,0,0,0,0,0,0,0,-1,1966,449,0,0
749,575,0,0,0,0,0,0,0,0,0,-1,1973,449,0,0
756,575,0,0,0,0,0,0,0,0,0,-1,1980,449,0,0
763,575,0,0,0,0,0,0,0,0,0,-1,1987,449,0,0
770,575,0,0,0,0,0,0,0,0,0,-1,1994,449,0,0
777,575,0,0,0,0,0,0,0,0,0,-1,2001,449,0,0
784,575,0,0,0,0,0,0,0,0,0,-1,2008,449,0,0
791,575,0,0,0,0,0,0,0,0,0,-1,2015,449,0,0
798,575,0,0,0,0,0,0,0,0,0,-1,2022,449,0,0
805,575,0,0,0,0,0,0,0,0,0,-1,2029,449,0,0
812,575,0,0,0,0,0,0,0,0,0,-1,2036,449,0,0
-700,568,0,0,0,0,0,0,0,0,0,-1,524,456,0,0
-693,568,0,0,0,0,0,0,0,0,0,-1,531,456,0,0
-686,568,0,0,0,0,0,0,0,0,0,-1,538,456,0,0
-679,568,0,0,0,0,0,0,0,0,0,-1,545,456,0,0
-672,568,0,0,0,0,0,0,0,0,0,-1,552,456,0,0
-665,568,0,0,0,0,0,0,0,0,0,-1,559,456,0,0
-658,568,0,0,0,0,0,0,0,0,0,-1,566,456,0,0
-651,568,0,0,0,0,0,0,0,0,0,-1,573,456,0,0
-644,568,0,0,0,0,0,0,0,0,0,-1,580,456,0,0
-637,568,0,0,0,0,0,0,0,0,0,-1,587,456,0,0
-630,568,0,0,0,0,0,0,0,0,0,-1,594,456,0,0
-623,568,0,0,0,0,0,0,0,0,0,-1,601,456,0,0
-616,568,0,0,0,0,0,0,0,0,0,-1,608,456,0,0
-609,568,0,0,0,0,0,0,0,0,0,-1,615,456,0,0
-602,568,0,0,0,0,0,0,0,0,0,-1,622,456,0,0
-595,568,0,0,0,0,0,0,0,0,0,-1,629,456,0,0
-588,568,0,0,0,0,0,0,0,0,0,-1,636,456,0,0
-581,568,0,0,0,0,0,0,0,0,0,-1,643,456,0,0
-574,568,0,0,0,0,0,0,0,0,0,-1,650,456,0,0
-567,568,0,0,0,0,0,0,0,0,0,-1,657,456,0,0
-560,568,0,0,0,0,0,0,0,0,0,-1,664,456,0,0
-553,568,0,0,0,0,0,0,0,0,0,-1,671,456,0,0
-546,568,0,0,0,0,0,0,0,0,0,-1,678,456,0,0
-539,568,0,0,0,0,0,0,0,0,0,-1,685,456,0,0
-532,568,0,0,0,0,0,0,0,0,0,-1,692,456,0,0
-525,568,0,0,0,0,0,0,0,0,0,-1,699,456,0,0
-518,568,0,0,0,0,0,0,0,0,0,-1,706,456,0,0
-511,568,0,0,0,0,0,0,0,0,0,-1,713,456,0,0
-504,568,0,0,0,0,0,0,0,0,0,-1,720,456,0,0
-497,568,0,0,0,0,0,0,0,0,0,-1,727,456,0,0
-490,568,0,0,0,0,0,0,0,0,0,-1,734,456,0,0
-483,568,0,0,0,0,0,0,0,0,0,-1,741,456,0,0
-476,568,0,0,0,0,0,0,0,0,0,-1,748,456,0,0
-469,568,0,0,0,0,0,0,0,0,0,-1,755,456,0,0
-462,568,0,0,0,0,0,0,0,0,0,-1,762,456,0,0
-455,568,0,0,0,0,0,0,0,0,0,-1,769,456,0,0
-448,568,0,0,0,0,0,0,0,0,0,-1,776,456,0,0
-441,568,0,0,0,0,0,0,0,0,0,-1,783,456,0,0
-434,568,0,0,0,0,0,0,0,0,0,-1,790,456,0,0
-427,568,0,0,0,0,0,0,0,0,0,-1,797,456,0,0
-420,568,0,0,0,0,0,0,0,0,0,-1,804,456,0,0
-413,568,0,0,0,0,0,0,0,0,0,-1,811,456,0,0
-406,568,0,0,0,0,0,0,0,0,0,-1,818,456,0,0
-399,568,0,0,0,0,0,0,0,0,0,-1,825,456,0,0
-392,568,0,0,0,0,0,0,0,0,0,-1,832,456,0,0
-385,568,0,0,0,0,0,0,0,0,0,-1,839,456,0,0
-378,568,0.321777,-7.29929,0,0,0,0,0,0,0,-1,846,456,0.321806,7.29927
-371,568,1.09595,-7.46707,0,0,0,0,0,0,0,-1,853,456,1.09597,7.46707
-364,568,2.70746,-23.4782,0,0,0,0,0,0,0,-1,860,456,2.70746,23.4782
-357,568,2.14166,-7.67645,0,0,0,0,0,0,0,-1,867,456,2.14167,7.67646
-350,568,2.7467,-11.2507,0,0,0,0,0,0,0,-1,874,456,2.7467,11.2507
-343,568,2.16516,-11.3762,0,0,0,0,0,0,0,-1,881,456,2.16514,11.3762
-336,568,1.14984,-29.3232,0,0,0,0,0,0,0,-1,888,456,1.14984,29.3231
-329,568,2.80359,-32.459,0,0,0,0,0,0,0,-1,895,456,2.80357,32.4591
-322,568,4.67688,-35.653,0,0,0,0,0,0,0,-1,902,456,4.67686,35.653
-315,568,4.08142,-37.8012,0,0,0,0,0,0,0,-1,909,456,4.08141,37.8012
-308,568,3.328,-39.7733,0,0,0,0,0,0,0,-1,916,456,3.32801,39.7733
-301,568,3.35669,-40.7003,-0.0018758,0.0156669,-0.00736001,0.0183457,-0.00455461,-1.22173,0.0139979,0.0259201,923,456,3.35668,40.7003
-294,568,3.26666,-41.5671,-0.00146451,0.0134994,-0.00650182,0.0159297,-0.00389484,-1.21309,0.0121284,0.0149462,930,456,3.26664,41.5671
-287,568,3.19702,-42.508,-0.00120887,0.0116788,-0.00572606,0.0138554,-0.00338541,-1.20755,0.0105481,0.0124557,937,456,3.19702,42.508
-280,568,3.13629,-43.4347,-0.000757394,0.0104021,-0.00524656,0.0124814,-0.00283662,-1.19348,0.00941005,0.012084,944,456,3.13627,43.4347
-273,568,3.06238,-44.342,-0.000392111,0.00890732,-0.00469169,0.010863,-0.00234784,-1.17585,0.00813832,0.0136174,951,456,3.0624,44.342
-266,568,3.00214,-45.2144,-0.000145308,0.00723579,-0.0039766,0.00897051,-0.00188003,-1.15945,0.00669558,0.0129289,958,456,3.00215,45.2144
-259,568,2.92743,-46.0696,8.02998e-05,0.00524103,-0.00319556,0.00676797,-0.00144663,-1.12504,0.00506355,0.0122816,965,456,2.92742,46.0696
-252,568,2.83466,-46.934,0.000209813,0.00336172,-0.00223697,0.00452213,-0.000950597,-1.09227,0.00337652,0.0133558,972,456,2.83467,46.934
-245,568,2.77655,-47.7618,0.000346534,0.0016012,-0.00128618,0.00240488,-0.000457152,-1.0123,0.00177537,0.0166338,979,456,2.77657,47.7618
-238,568,2.75574,-48.614,0.000502276,-0.000421498,-0.000239262,0.000560568,-0.00047979,-0.238976,0.000601254,0.0152625,986,456,2.75571,48.614
-231,568,2.71008,-49.4611,0.000692349,-0.002578,0.000850348,0.000900239,-0.00278589,0.239774,0.00221906,0.0129238,993,456,2.71011,49.4611
-224,568,2.6424,-50.2819,0.000888836,-0.00470407,0.00187279,0.00145801,-0.00527325,0.29505,0.00408909,0.0142693,1000,456,2.64237,50.2819
-217,568,2.62579,-51.097,0.00112652,-0.00683609,0.00283172,0.00203085,-0.00774042,0.30912,0.00595383,0.0123862,1007,456,2.62576,51.097
-210,568,2.63318,-51.9354,0.00146879,-0.00892199,0.00366685,0.00263248,-0.0100857,0.307301,0.00775174,0.0120254,1014,456,2.63318,51.9354
-203,568,2.60895,-52.7469,0.00198358,-0.0107006,0.00435281,0.00333364,-0.0120506,0.300749,0.00934532,0.0110784,1021,456,2.60893,52.7469
-196,568,2.59204,-53.5031,0.00264566,-0.0122162,0.00490351,0.00411771,-0.0136882,0.291645,0.0107639,0.0160608,1028,456,2.59209,53.5031
-189,568,2.56567,-54.2388,0.00337098,-0.0136047,0.00535501,0.00491905,-0.0151528,0.281417,0.0120801,0.0160206,1035,456,2.56571,54.2388
-182,568,2.56152,-55.0176,0.00420439,-0.0147991,0.00573109,0.00579897,-0.0163937,0.27137,0.0132907,0.0161066,1042,456,2.56151,55.0176
-175,568,2.55994,-55.7807,0.00522522,-0.0153568,0.00588876,0.00679095,-0.0169225,0.259873,0.0141014,0.0156712,1049,456,2.55997,55.7807
-168,568,2.56226,-56.4102,0.00635585,-0.0156545,0.00589482,0.00783518,-0.0171338,0.245877,0.0147453,0.021305,1056,456,2.56227,56.4101
-161,568,2.51892,-57.1072,0.00730206,-0.0160132,0.00605104,0.00877894,-0.0174901,0.23939,0.0154419,0.0319524,1063,456,2.5189,57.1072
-154,568,2.60779,-57.9904,0.00837666,-0.0159782,0.00617375,0.00985225,-0.0174538,0.234609,0.0159675,0.0369243,1070,456,2.60784,57.9904
-147,568,2.65857,-58.5933,0.00968936,-0.0157844,0.00599124,0.0110281,-0.0171231,0.219838,0.0163796,0.041654,1077,456,2.65856,58.5932
-140,568,2.70874,-59.199,0,0,0,0,0,0,0,-1,1084,456,2.70874,59.199
-133,568,2.59204,-59.34,0,0,0,0,0,0,0,-1,1091,456,2.59203,59.34
-126,568,2.47339,-55.9059,0,0,0,0,0,0,0,-1,1098,456,2.47343,55.9059
-119,568,1.89978,-50.8443,0,0,0,0,0,0,0,-1,1105,456,1.89978,50.8443
-112,568,1.98242,-35.0942,0,0,0,0,0,0,0,-1,1112,456,1.98247,35.0942
-105,568,2.02454,-25.038,0,0,0,0,0,0,0,-1,1119,456,2.02459,25.038
-98,568,1.58618,-14.7874,0,0,0,0,0,0,0,-1,1126,456,1.58617,14.7874
-91,568,1.11621,-11.1853,0,0,0,0,0,0,0,-1,1133,456,1.11626,11.1853
-84,568,0.461792,-9.7959,0,0,0,0,0,0,0,-1,1140,456,0.461793,9.7959
-77,568,-1.13806,-8.57822,0,0,0,0,0,0,0,-1,1147,456,-1.13807,8.57821
-70,568,-4.09766,-1.42911,0,0,0,0,0,0,0,-1,1154,456,-4.09767,1.4291
-63,568,-5.92273,-3.70752,0,0,0,0,0,0,0,-1,1161,456,-5.92272,3.70751
-56,568,-5.24158,-6.01385,0,0,0,0,0,0,0,-1,1168,456,-5.24161,6.01386
-49,568,-5.24365,-8.33557,0,0,0,0,0,0,0,-1,1175,456,-5.24371,8.33557
-42,568,-0.664795,0.521973,0,0,0,0,0,0,0,-1,1182,456,-0.664829,-0.521984
-35,568,-0.153076,-1.67731,0,0,0,0,0,0,0,-1,1189,456,-0.153068,1.67731
-28,568,1.25439,-4.48798,0,0,0,0,0,0,0,-1,1196,456,1.2544,4.48797
-21,568,4.25317,-67.6182,0,0,0,0,0,0,0,-1,1203,456,4.25316,67.6182
-14,568,4.0022,-67.3703,0.0159565,-0.0219472,0.0431149,0.0441011,-0.0500917,0.578327,0.0544189,0.0437716,1210,456,4.00221,67.3703
-7,568,3.92542,-67.2162,0.0164155,-0.027029,0.0393281,0.0396216,-0.0502352,0.533081,0.0519993,0.0441496,1217,456,3.92543,67.2163
0,568,4.15662,-67.1262,0.0229319,-0.030677,0.0346588,0.039942,-0.0476871,0.456249,0.0506585,0.0464209,1224,456,4.15667,67.1262
7,568,4.36536,-66.948,0.0249656,-0.0320475,0.0291783,0.0372512,-0.044333,0.398522,0.0471618,0.0457063,1231,456,4.36536,66.948
14,568,4.67712,-66.9401,0.0215754,-0.0318591,0.0245935,0.0311714,-0.0414552,0.372016,0.0420708,0.0459278,1238,456,4.67715,66.9401
21,568,5.02795,-66.8973,0,0,0,0,0,0,0,-1,1245,456,5.02798,66.8973
28,568,6.29102,-67.6514,0,0,0,0,0,0,0,-1,1252,456,6.29102,67.6514
35,568,6.59802,-67.9442,0,0,0,0,0,0,0,-1,1259,456,6.59807,67.9442
42,568,3.82166,-66.701,-0.0221528,-0.0372501,0.0162733,-0.0117626,-0.0476403,0.568234,0.0286557,0.0411609,1266,456,3.82162,66.701
49,568,7.4093,-69.5195,-0.0359584,-0.0403476,0.0177642,-0.0202538,-0.0560522,0.72394,0.0327739,0.0423893,1273,456,7.40934,69.5195
56,568,7.29492,-68.895,-0.0514407,-0.0429048,0.0202101,-0.026517,-0.0678286,0.889458,0.0394702,0.0424129,1280,456,7.29491,68.895
63,568,6.4679,-68.1765,-0.066676,-0.0462286,0.0249381,-0.0294999,-0.0834047,0.97993,0.0488361,0.0448611,1287,456,6.46789,68.1765
70,568,4.98621,-67.8824,-0.0811969,-0.0501701,0.0308626,-0.0311412,-0.100226,1.01828,0.0592315,0.0467224,1294,456,4.98615,67.8824
77,568,3.62195,-67.3438,-0.0911075,-0.0526481,0.0379512,-0.0293329,-0.114423,1.01989,0.0686266,0.045493,1301,456,3.62201,67.3438
84,568,2.64978,-66.3701,0,0,0,0,0,0,0,-1,1308,456,2.64982,66.3701
91,568,1.74182,-65.5577,-0.0989694,-0.0484852,0.0561303,-0.0121824,-0.135272,0.996703,0.0864074,0.0419389,1315,456,1.74183,65.5578
98,568,1.00684,-64.3925,-0.0982117,-0.0426897,0.0660736,0.00121797,-0.142119,0.984277,0.0951548,0.0434598,1322,456,1.00683,64.3925
105,568,0.0234375,-63.0444,-0.0924954,-0.0360377,0.0760828,0.0168843,-0.145417,0.96304,0.103035,0.0469688,1329,456,0.0233887,63.0444
112,568,-0.896362,-61.774,-0.0826976,-0.0252397,0.0845989,0.0353752,-0.143313,0.949084,0.109259,0.0471508,1336,456,-0.896337,61.7741
119,568,-1.7428,-60.4368,-0.0713207,-0.0126051,0.0925613,0.0551425,-0.139068,0.938966,0.115565,0.0444637,1343,456,-1.74278,60.4368
126,568,-2.41614,-59.4362,-0.0600039,0.00101954,0.100144,0.0751968,-0.134181,0.93327,0.122473,0.0444866,1350,456,-2.4161,59.4362
133,568,-2.57385,-58.5869,-0.0501424,0.01379,0.10692,0.09342,-0.129772,0.930656,0.129429,0.0488806,1357,456,-2.57384,58.5869
140,568,-2.61035,-57.7785,-0.0419626,0.0245399,0.112703,0.108794,-0.126217,0.928846,0.135808,0.0460885,1364,456,-2.61039,57.7785
147,568,-2.94067,-56.882,-0.0356185,0.0336431,0.11753,0.121538,-0.123513,0.928671,0.141482,0.0465778,1371,456,-2.94068,56.882
154,568,-3.02612,-56.1586,-0.0320371,0.0407438,0.121392,0.131083,-0.122376,0.931023,0.146364,0.0447912,1378,456,-3.02609,56.1586
161,568,-3.34375,-55.1836,0,0,0,0,0,0,0,-1,1385,456,-3.34374,55.1836
168,568,-11.53,-55.4321,0,0,0,0,0,0,0,-1,1392,456,-11.53,55.4321
175,568,10.5151,0.747498,0,0,0,0,0,0,0,-1,1399,456,10.5152,-0.747501
182,568,6.35095,-3.63361,0,0,0,0,0,0,0,-1,1406,456,6.35093,3.63359
189,568,6.17493,-1.70911,0,0,0,0,0,0,0,-1,1413,456,6.17497,1.70911
196,568,6.04724,0.200836,0,0,0,0,0,0,0,-1,1420,456,6.04724,-0.200835
203,568,5.9281,2.08649,0,0,0,0,0,0,0,-1,1427,456,5.92812,-2.08648
210,568,1.46216,-2.50446,0,0,0,0,0,0,0,-1,1434,456,1.46219,2.50446
217,568,2.62366,-7.86703,0,0,0,0,0,0,0,-1,1441,456,2.62365,7.86704
224,568,3.43494,-12.1555,0,0,0,0,0,0,0,-1,1448,456,3.43492,12.1555
231,568,4.38245,-9.3205,0,0,0,0,0,0,0,-1,1455,456,4.38244,9.32048
238,568,5.88879,-20.7448,0,0,0,0,0,0,0,-1,1462,456,5.88876,20.7449
245,568,3.34387,-10.6774,0,0,0,0,0,0,0,-1,1469,456,3.34389,10.6774
252,568,3.56946,-9.28928,0,0,0,0,0,0,0,-1,1476,456,3.56948,9.28928
259,568,3.38843,-8.73068,0,0,0,0,0,0,0,-1,1483,456,3.38842,8.73068
266,568,14.0127,-59.903,0,0,0,0,0,0,0,-1,1490,456,14.0127,59.9029
273,568,14.1097,-58.9822,0.00857819,-0.0092668,-0.000885138,0.00862199,-0.0093106,-0.0494397,0.0103559,0.048877,1497,456,14.1098,58.9822
280,568,14.296,-57.7485,0.00672577,-0.0111617,-0.00243444,0.00705117,-0.0114871,-0.132879,0.0108047,0.0364096,1504,456,14.296,57.7485
287,568,14.3486,-56.8971,0.00518697,-0.0124303,-0.00374711,0.00595084,-0.0131942,-0.2011,0.011314,0.0290558,1511,456,14.3487,56.8971
294,568,14.3864,-56.2683,0.00394927,-0.0128435,-0.00456428,0.00510966,-0.0140039,-0.248958,0.0114265,0.0249474,1518,456,14.3864,56.2683
301,568,14.3436,-55.576,0.0029994,-0.0125562,-0.0049535,0.00444284,-0.0139997,-0.283547,0.0111141,0.0200608,1525,456,14.3436,55.576
308,568,14.3185,-54.8451,0.00219446,-0.011928,-0.00503191,0.00380393,-0.0135374,-0.30957,0.0105246,0.013347,1532,456,14.3185,54.8451
315,568,14.3285,-54.1174,0.00162191,-0.010844,-0.00477462,0.0032405,-0.0124626,-0.32684,0.00957315,0.00902156,1539,456,14.3286,54.1174
322,568,14.316,-53.3385,0.0012397,-0.00941069,-0.00423165,0.00271631,-0.0108873,-0.335734,0.0083129,0.0108855,1546,456,14.316,53.3385
329,568,14.29,-52.5159,0.000797317,-0.00820337,-0.00384582,0.00221672,-0.00962278,-0.353568,0.00726767,0.0108071,1553,456,14.29,52.5159
336,568,14.2611,-51.68,0.000631603,-0.00618086,-0.00300371,0.00176681,-0.00731607,-0.361342,0.00556068,0.0115652,1560,456,14.2611,51.68
343,568,14.2606,-50.8481,0.000597725,-0.004058,-0.00197961,0.00132565,-0.00478593,-0.352363,0.00371225,0.0136397,1567,456,14.2607,50.8481
350,568,14.2275,-50.0526,0.00083615,-0.001883,-0.000788058,0.00104803,-0.00209489,-0.262655,0.00184781,0.0125768,1574,456,14.2275,50.0525
357,568,14.1698,-49.2259,0.000938572,-1.18432e-05,0.00014241,0.000959452,-3.27232e-05,0.145582,0.000650817,0.0104869,1581,456,14.1697,49.2259
364,568,14.1428,-48.3792,0.000869373,0.001614,0.00100889,0.00231709,0.000166286,0.962162,0.00149239,0.0120551,1588,456,14.1428,48.3792
371,568,14.0691,-47.5482,0.000802472,0.00306142,0.00180461,0.00406087,-0.000196979,1.06502,0.00277524,0.0216113,1595,456,14.0691,47.5482
378,568,14.0031,-46.6596,0.000762157,0.00457876,0.00248175,0.00580106,-0.00046015,1.11315,0.00402953,0.0200828,1602,456,14.003,46.6596
385,568,13.9698,-45.8027,0.000666007,0.005694,0.00292959,0.0070404,-0.000680394,1.14,0.00493605,0.0106229,1609,456,13.9698,45.8027
392,568,13.8844,-44.9655,0.000587055,0.00643869,0.00330115,0.007924,-0.000898252,1.148,0.00560612,0.0118731,1616,456,13.8844,44.9655
399,568,13.7858,-44.1593,0.00055532,0.00691595,0.00363285,0.00856389,-0.00109261,1.14494,0.00610613,0.0192748,1623,456,13.7858,44.1593
406,568,13.787,-43.2257,0.000306709,0.00728117,0.0038554,0.00899248,-0.00140461,1.15305,0.00651387,0.0171377,1630,456,13.787,43.2257
413,568,13.7548,-42.2457,-0.000230547,0.0073628,0.00380048,0.00893812,-0.00180587,1.17785,0.00664303,0.0128692,1637,456,13.7547,42.2457
420,568,13.6675,-41.3399,-0.000991162,0.00705695,0.00388071,0.00862333,-0.00255754,1.18716,0.00676452,0.0124107,1644,456,13.6675,41.3399
427,568,13.5778,-40.4183,-0.0019219,0.00680111,0.00455754,0.00874785,-0.00386864,1.16711,0.00746349,0.0161514,1651,456,13.5778,40.4183
434,568,13.5449,-39.5055,-0.00283914,0.00651481,0.00498324,0.00867207,-0.0049964,1.16225,0.00798604,0.0244221,1658,456,13.5449,39.5055
441,568,13.5436,-38.6537,-0.00413101,0.0059375,0.00566707,0.00848344,-0.00667695,1.14856,0.00877355,0.0325735,1665,456,13.5436,38.6537
448,568,13.5818,-37.7013,-0.00570175,0.00540324,0.0066041,0.00847886,-0.00877737,1.13495,0.00996338,0.0454684,1672,456,13.5818,37.7013
455,568,13.5297,-36.512,0,0,0,0,0,0,0,-1,1679,456,13.5297,36.512
462,568,12.9495,-35.487,0,0,0,0,0,0,0,-1,1686,456,12.9494,35.487
469,568,12.6754,-34.6436,0,0,0,0,0,0,0,-1,1693,456,12.6755,34.6437
476,568,12.715,-34.1714,0,0,0,0,0,0,0,-1,1700,456,12.7149,34.1715
483,568,10.9017,-29.747,0,0,0,0,0,0,0,-1,1707,456,10.9018,29.747
490,568,9.21021,-25.4427,0,0,0,0,0,0,0,-1,1714,456,9.21025,25.4427
497,568,9.19275,-22.8114,0,0,0,0,0,0,0,-1,1721,456,9.19273,22.8114
504,568,0,0,0,0,0,0,0,0,0,-1,1728,456,0,0
511,568,0,0,0,0,0,0,0,0,0,-1,1735,456,0,0
518,568,0,0,0,0,0,0,0,0,0,-1,1742,456,0,0
525,568,0,0,0,0,0,0,0,0,0,-1,1749,456,0,0
532,568,0,0,0,0,0,0,0,0,0,-1,1756,456,0,0
539,568,0,0,0,0,0,0,0,0,0,-1,1763,456,0,0
546,568,0,0,0,0,0,0,0,0,0,-1,1770,456,0,0
553,568,0,0,0,0,0,0,0,0,0,-1,1777,456,0,0
560,568,0,0,0,0,0,0,0,0,0,-1,1784,456,0,0
567,568,0,0,0,0,0,0,0,0,0,-1,1791,456,0,0
574,568,0,0,0,0,0,0,0,0,0,-1,1798,456,0,0
581,568,0,0,0,0,0,0,0,0,0,-1,1805,456,0,0
588,568,0,0,0,0,0,0,0,0,0,-1,1812,456,0,0
595,568,0,0,0,0,0,0,0,0,0,-1,1819,456,0,0
602,568,0,0,0,0,0,0,0,0,0,-1,1826,456,0,0
609,568,0,0,0,0,0,0,0,0,0,-1,1833,456,0,0
616,568,0,0,0,0,0,0,0,0,0,-1,1840,456,0,0
623,568,0,0,0,0,0,0,0,0,0,-1,1847,456,0,0
630,568,0,0,0,0,0,0,0,0,0,-1,1854,456,0,0
637,568,0,0,0,0,0,0,0,0,0,-1,1861,456,0,0
644,568,0,0,0,0,0,0,0,0,0,-1,1868,456,0,0
651,568,0,0,0,0,0,0,0,0,0,-1,1875,456,0,0
658,568,0,0,0,0,0,0,0,0,0,-1,1882,456,0,0
665,568,0,0,0,0,0,0,0,0,0,-1,1889,456,0,0
672,568,0,0,0,0,0,0,0,0,0,-1,1896,456,0,0
679,568,0,0,0,0,0,0,0,0,0,-1,1903,456,0,0
686,568,0,0,0,0,0,0,0,0,0,-1,1910,456,0,0
693,568,0,0,0,0,0,0,0,0,0,-1,1917,456,0,0
700,568,0,0,0,0,0,0,0,0,0,-1,1924,456,0,0
707,568,0,0,0,0,0,0,0,0,0,-1,1931,456,0,0
714,568,0,0,0,0,0,0,0,0,0,-1,1938,456,0,0
721,568,0,0,0,0,0,0,0,0,0,-1,1945,456,0,0
728,568,0,0,0,0,0,0,0,0,0,-1,1952,456,0,0
735,568,0,0,0,0,0,0,0,0,0,-1,1959,456,0,0
742,568,0,0,0,0,0,0,0,0,0,-1,1966,456,0,0
749,568,0,0,0,0,0,0,0,0,0,-1,1973,456,0,0
756,568,0,0,0,0,0,0,0,0,0,-1,1980,456,0,0
763,568,0,0,0,0,0,0,0,0,0,-1,1987,456,0,0
770,568,0,0,0,0,0,0,0,0,0,-1,1994,456,0,0
777,568,0,0,0,0,0,0,0,0,0,-1,2001,456,0,0
784,568,0,0,0,0,0,0,0,0,0,-1,2008,456,0,0
791,568,0,0,0,0,0,0,0,0,0,-1,2015,456,0,0
798,568,0,0,0,0,0,0,0,0,0,-1,2022,456,0,0
805,568,0,0,0,0,0,0,0,0,0,-1,2029,456,0,0
812,568,0,0,0,0,0,0,0,0,0,-1,2036,456,0,0
-700,561,0,0,0,0,0,0,0,0,0,-1,524,463,0,0
-693,561,0,0,0,0,0,0,0,0,0,-1,531,463,0,0
-686,561,0,0,0,0,0,0,0,0,0,-1,538,463,0,0
-679,561,0,0,0,0,0,0,0,0,0,-1,545,463,0,0
-672,561,0,0,0,0,0,0,0,0,0,-1,552,463,0,0
-665,561,0,0,0,0,0,0,0,0,0,-1,559,463,0,0
-658,561,0,0,0,0,0,0,0,0,0,-1,566,463,0,0
-651,561,0,0,0,0,0,0,0,0,0,-1,573,463,0,0
-644,561,0,0,0,0,0,0,0,0,0,-1,580,463,0,0
-637,561,0,0,0,0,0,0,0,0,0,-1,587,463,0,0
-630,561,0,0,0,0,0,0,0,0,0,-1,594,463,0,0
-623,561,0,0,0,0,0,0,0,0,0,-1,601,463,0,0
-616,561,0,0,0,0,0,0,0,0,0,-1,608,463,0,0
-609,561,0,0,0,0,0,0,0,0,0,-1,615,463,0,0
-602,561,0,0,0,0,0,0,0,0,0,-1,622,463,0,0
-595,561,0,0,0,0,0,0,0,0,0,-1,629,463,0,0
-588,561,0,0,0,0,0,0,0,0,0,-1,636,463,0,0
-581,561,0,0,0,0,0,0,0,0,0,-1,643,463,0,0
-574,561,0,0,0,0,0,0,0,0,0,-1,650,463,0,0
-567,561,0,0,0,0,0,0,0,0,0,-1,657,463,0,0
-560,561,0,0,0,0,0,0,0,0,0,-1,664,463,0,0
-553,561,0,0,0,0,0,0,0,0,0,-1,671,463,0,0
-546,561,0,0,0,0,0,0,0,0,0,-1,678,463,0,0
-539,561,0,0,0,0,0,0,0,0,0,-1,685,463,0,0
-532,561,0,0,0,0,0,0,0,0,0,-1,692,463,0,0
-525,561,0,0,0,0,0,0,0,0,0,-1,699,463,0,0
-518,561,0,0,0,0,0,0,0,0,0,-1,706,463,0,0
-511,561,0,0,0,0,0,0,0,0,0,-1,713,463,0,0
-504,561,0,0,0,0,0,0,0,0,0,-1,720,463,0,0
-497,561,0,0,0,0,0,0,0,0,0,-1,727,463,0,0
-490,561,0,0,0,0,0,0,0,0,0,-1,734,463,0,0
-483,561,0,0,0,0,0,0,0,0,0,-1,741,463,0,0
-476,561,0,0,0,0,0,0,0,0,0,-1,748,463,0,0
-469,561,0,0,0,0,0,0,0,0,0,-1,755,463,0,0
-462,561,0,0,0,0,0,0,0,0,0,-1,762,463,0,0
-455,561,0,0,0,0,0,0,0,0,0,-1,769,463,0,0
-448,561,0,0,0,0,0,0,0,0,0,-1,776,463,0,0
-441,561,0,0,0,0,0,0,0,0,0,-1,783,463,0,0
-434,561,0,0,0,0,0,0,0,0,0,-1,790,463,0,0
-427,561,0,0,0,0,0,0,0,0,0,-1,797,463,0,0
-420,561,0,0,0,0,0,0,0,0,0,-1,804,463,0,0
-413,561,0,0,0,0,0,0,0,0,0,-1,811,463,0,0
-406,561,0,0,0,0,0,0,0,0,0,-1,818,463,0,0
-399,561,0,0,0,0,0,0,0,0,0,-1,825,463,0,0
-392,561,4.92407,-2.54578,0,0,0,0,0,0,0,-1,832,463,4.92408,2.54576
-385,561,5.55634,-1.02338,0,0,0,0,0,0,0,-1,839,463,5.55634,1.02338
-378,561,0.160522,-4.51785,0,0,0,0,0,0,0,-1,846,463,0.160542,4.51785
-371,561,2.62524,-27.795,0,0,0,0,0,0,0,-1,853,463,2.62525,27.7949
-364,561,3.72833,-30.5013,0,0,0,0,0,0,0,-1,860,463,3.72835,30.5013
-357,561,2.16742,-23.5582,0,0,0,0,0,0,0,-1,867,463,2.1674,23.5582
-350,561,1.33124,-11.9406,0,0,0,0,0,0,0,-1,874,463,1.33127,11.9406
-343,561,1.13214,-14.1837,0,0,0,0,0,0,0,-1,881,463,1.13217,14.1837
-336,561,2.83185,-35.9362,0,0,0,0,0,0,0,-1,888,463,2.83184,35.9362
-329,561,2.59332,-36.9836,0,0,0,0,0,0,0,-1,895,463,2.59333,36.9836
-322,561,3.04358,-37.4155,0,0,0,0,0,0,0,-1,902,463,3.04358,37.4155
-315,561,2.78369,-38.4012,-0.00215446,0.0172886,-0.00774534,0.0199968,-0.00486266,-1.23443,0.0152134,0.0432744,909,463,2.7837,38.4012
-308,561,2.59698,-39.4974,-0.00205814,0.0145943,-0.00652518,0.0168466,-0.00431039,-1.23844,0.01291,0.032361,916,463,2.59699,39.4974
-301,561,2.47711,-40.6596,-0.00160222,0.0120627,-0.0056326,0.0140851,-0.00362463,-1.22608,0.0108029,0.0178232,923,463,2.47712,40.6596
-294,561,2.39655,-41.5757,-0.00118565,0.0101584,-0.00482899,0.0119356,-0.00296286,-1.21815,0.00910677,0.0118054,930,463,2.39657,41.5758
-287,561,2.3374,-42.4824,-0.000878596,0.00855669,-0.00410991,0.0100958,-0.00241775,-1.21247,0.00766466,0.0107617,937,463,2.33738,42.4824
-280,561,2.25146,-43.3788,-0.000464862,0.00726428,-0.00361164,0.00868921,-0.0018898,-1.19501,0.00651475,0.0131271,944,463,2.25144,43.3788
-273,561,2.15576,-44.2407,-0.000155835,0.00571692,-0.00300967,0.00698535,-0.00142426,-1.17193,0.00519712,0.0156795,951,463,2.15574,44.2407
-266,561,2.1167,-45.1281,8.48424e-05,0.00399825,-0.00226934,0.00503798,-0.000954883,-1.14118,0.00371805,0.0102713,958,463,2.11672,45.1281
-259,561,2.07324,-46.011,0.000273882,0.0018928,-0.00142379,0.00272114,-0.000554461,-1.04388,0.00202439,0.0101669,965,463,2.07324,46.011
-252,561,2.02545,-46.87,0.00031566,-0.000164394,-0.000340048,0.000491861,-0.000340595,-0.478074,0.000483256,0.0161085,972,463,2.02543,46.87
-245,561,1.97351,-47.7265,0.000387646,-0.00216414,0.000721038,0.00057729,-0.00235378,0.25719,0.00179287,0.0191155,979,463,1.97351,47.7265
-238,561,1.93231,-48.5817,0.000494993,-0.00443013,0.00188509,0.00113369,-0.00506883,0.326674,0.0038137,0.0144761,986,463,1.93231,48.5817
-231,561,1.86652,-49.4248,0.000668302,-0.00683316,0.00306775,0.00176309,-0.00792795,0.342782,0.00596056,0.0123644,993,463,1.8665,49.4248
-224,561,1.81708,-50.2379,0.000825112,-0.00920411,0.00420651,0.00235581,-0.0107348,0.348993,0.00805744,0.0123116,1000,463,1.8171,50.2379
-217,561,1.81207,-51.0437,0.00103236,-0.0115524,0.00528577,0.00295785,-0.0134779,0.349337,0.0101164,0.0127485,1007,463,1.81208,51.0437
-210,561,1.82019,-51.8759,0.00136352,-0.0138458,0.0062146,0.00357987,-0.0160621,0.342574,0.0120795,0.0131955,1014,463,1.82022,51.8759
-203,561,1.80286,-52.6749,0.00190389,-0.0157891,0.00694648,0.00430524,-0.0181904,0.332833,0.0137879,0.0145419,1021,463,1.80289,52.6749
-196,561,1.70374,-53.3875,0.00266074,-0.0174021,0.00749489,0.00515141,-0.0198927,0.320835,0.0152714,0.0177467,1028,463,1.70378,53.3875
-189,561,1.78979,-54.1047,0.00349696,-0.018862,0.00793082,0.00602436,-0.0213894,0.308506,0.0166354,0.0239545,1035,463,1.78976,54.1047
-182,561,1.89209,-54.8125,0.00447417,-0.0200881,0.00825468,0.00699054,-0.0226045,0.295892,0.0178618,0.0262918,1042,463,1.89211,54.8125
-175,561,1.85413,-55.5443,0.00576066,-0.0204437,0.00825423,0.00814394,-0.0228269,0.28109,0.0185388,0.0419322,1049,463,1.85414,55.5443
-168,561,1.79041,-56.2682,0,0,0,0,0,0,0,-1,1056,463,1.79041,56.2682
-161,561,1.76929,-56.9273,0,0,0,0,0,0,0,-1,1063,463,1.76931,56.9273
-154,561,1.9707,-58.065,0,0,0,0,0,0,0,-1,1070,463,1.97073,58.065
-147,561,1.93958,-58.5416,0,0,0,0,0,0,0,-1,1077,463,1.93953,58.5416
-140,561,2.37573,-58.7657,0,0,0,0,0,0,0,-1,1084,463,2.37572,58.7658
-133,561,1.37939,-55.0099,0,0,0,0,0,0,0,-1,1091,463,1.37945,55.01
-126,561,1.77014,-49.4318,0,0,0,0,0,0,0,-1,1098,463,1.7702,49.4318
-119,561,-0.336304,-35.422,0,0,0,0,0,0,0,-1,1105,463,-0.336245,35.422
-112,561,1.24365,-29.1982,0,0,0,0,0,0,0,-1,1112,463,1.2437,29.1981
-105,561,0.530518,-13.5379,0,0,0,0,0,0,0,-1,1119,463,0.530477,13.5379
-98,561,1.5387,-7.54352,0,0,0,0,0,0,0,-1,1126,463,1.53871,7.54351
-91,561,1.29553,-6.57968,0,0,0,0,0,0,0,-1,1133,463,1.29549,6.5797
-84,561,1.23364,-5.84555,0,0,0,0,0,0,0,-1,1140,463,1.23363,5.84556
-77,561,-2.36023,1.00204,0,0,0,0,0,0,0,-1,1147,463,-2.3602,-1.00205
-70,561,-3.90015,-1.41541,0,0,0,0,0,0,0,-1,1154,463,-3.90009,1.4154
-63,561,-6.95691,-4.02756,0,0,0,0,0,0,0,-1,1161,463,-6.95696,4.02756
-56,561,-5.37988,-6.66855,0,0,0,0,0,0,0,-1,1168,463,-5.37988,6.66854
-49,561,-5.7439,-9.11029,0,0,0,0,0,0,0,-1,1175,463,-5.74387,9.1103
-42,561,-1.72644,-5.63065,0,0,0,0,0,0,0,-1,1182,463,-1.72648,5.63064
-35,561,-1.65674,-4.87994,0,0,0,0,0,0,0,-1,1189,463,-1.6567,4.87993
-28,561,-1.91418,-3.86896,0,0,0,0,0,0,0,-1,1196,463,-1.91414,3.86895
-21,561,2.86902,-67.7974,0,0,0,0,0,0,0,-1,1203,463,2.869,67.7973
-14,561,2.78308,-67.6113,0.0100346,-0.013757,0.0525399,0.0520085,-0.055731,0.674068,0.0622158,0.0451774,1210,463,2.78305,67.6113
-7,561,3.35437,-67.3653,0.00469349,-0.020136,0.0476818,0.0415503,-0.0569928,0.658042,0.0571263,0.0476767,1217,463,3.35441,67.3653
0,561,3.59473,-67.1821,0,0,0,0,0,0,0,-1,1224,463,3.59468,67.1821
7,561,4.20435,-66.7213,0.0148961,-0.0278065,0.0362142,0.0355846,-0.048495,0.519035,0.0487338,0.0422299,1231,463,4.20433,66.7212
14,561,3.85242,-66.8988,0.0106401,-0.0272352,0.0310417,0.0280648,-0.0446599,0.511502,0.0423504,0.0435725,1238,463,3.85238,66.8988
21,561,3.94983,-66.8385,0.00172854,-0.0269859,0.026701,0.0176875,-0.0429449,0.538721,0.0360043,0.0413926,1245,463,3.94987,66.8385
28,561,3.74915,-66.6681,-0.0109963,-0.0280354,0.0241081,0.00605334,-0.045085,0.615552,0.0322643,0.043075,1252,463,3.74915,66.6681
35,561,3.23315,-66.2603,0,0,0,0,0,0,0,-1,1259,463,3.23311,66.2603
42,561,2.60535,-65.8088,0,0,0,0,0,0,0,-1,1266,463,2.60534,65.8088
49,561,9.72131,-69.1217,0,0,0,0,0,0,0,-1,1273,463,9.72129,69.1217
56,561,7.77698,-68.8984,-0.0671782,-0.0418991,0.025743,-0.0258601,-0.0832172,1.01361,0.0491792,0.0415543,1280,463,7.77693,68.8985
63,561,6.78088,-67.85,-0.0830822,-0.0470336,0.0297076,-0.0303099,-0.0998058,1.05807,0.0590848,0.0432299,1287,463,6.78083,67.8501
70,561,5.21277,-67.1984,-0.0984828,-0.0532181,0.0352507,-0.0339597,-0.117741,1.07078,0.0699771,0.0480957,1294,463,5.21275,67.1984
77,561,3.75757,-66.3825,-0.109459,-0.0577794,0.0416456,-0.0346084,-0.13263,1.06306,0.0794377,0.0465922,1301,463,3.75751,66.3825
84,561,2.5437,-65.6306,-0.116851,-0.0597693,0.0500032,-0.030735,-0.145885,1.04473,0.0888028,0.0445706,1308,463,2.54375,65.6306
91,561,1.56836,-64.7528,-0.118064,-0.0560706,0.0611333,-0.0185249,-0.15561,1.02003,0.0981496,0.0400117,1315,463,1.56838,64.7528
98,561,0.785645,-63.7709,-0.116717,-0.0499655,0.072167,-0.00383027,-0.162853,1.00199,0.107315,0.0426211,1322,463,0.785666,63.771
105,561,-0.127197,-62.7175,-0.109045,-0.0416762,0.0831547,0.0143576,-0.165079,0.977837,0.115137,0.0477713,1329,463,-0.127225,62.7174
112,561,-1.15491,-61.5779,-0.0975752,-0.0281757,0.0929914,0.0363791,-0.16213,0.963972,0.122034,0.0498614,1336,463,-1.15487,61.5779
119,561,-2.14014,-60.4357,0,0,0,0,0,0,0,-1,1343,463,-2.1402,60.4357
126,561,-2.79126,-59.8757,-0.0722615,0.00453735,0.112756,0.0852534,-0.152978,0.949515,0.139383,0.0455705,1350,463,-2.79124,59.8757
133,561,-3.28809,-58.9854,-0.0609539,0.0210272,0.122272,0.108997,-0.148924,0.947131,0.149504,0.0494492,1357,463,-3.28811,58.9854
140,561,-3.93103,-58.0507,-0.0510844,0.0353589,0.13103,0.130112,-0.145838,0.944709,0.159406,0.0486476,1364,463,-3.93104,58.0507
147,561,-4.4823,-56.9547,0,0,0,0,0,0,0,-1,1371,463,-4.48231,56.9546
154,561,-4.30835,-56.3213,0,0,0,0,0,0,0,-1,1378,463,-4.30831,56.3213
161,561,-4.59436,-55.3201,0,0,0,0,0,0,0,-1,1385,463,-4.59435,55.32
168,561,-10.8822,-56.4584,0,0,0,0,0,0,0,-1,1392,463,-10.8822,56.4584
175,561,10.4185,0.276398,0,0,0,0,0,0,0,-1,1399,463,10.4185,-0.276394
182,561,6.45703,-4.02127,0,0,0,0,0,0,0,-1,1406,463,6.45704,4.02127
189,561,6.50854,-2.08685,0,0,0,0,0,0,0,-1,1413,463,6.50851,2.08686
196,561,6.44775,-0.27182,0,0,0,0,0,0,0,-1,1420,463,6.44773,0.271814
203,561,6.18591,1.1301,0,0,0,0,0,0,0,-1,1427,463,6.18592,-1.13009
210,561,5.68713,2.68427,0,0,0,0,0,0,0,-1,1434,463,5.6871,-2.68425
217,561,3.61743,-7.33582,0,0,0,0,0,0,0,-1,1441,463,3.61738,7.33581
224,561,4.27466,-8.59171,0,0,0,0,0,0,0,-1,1448,463,4.27466,8.59171
231,561,4.93188,-9.8476,0,0,0,0,0,0,0,-1,1455,463,4.93193,9.84761
238,561,2.18018,-5.18359,0,0,0,0,0,0,0,-1,1462,463,2.18023,5.18359
245,561,3.07568,-3.50238,0,0,0,0,0,0,0,-1,1469,463,3.0757,3.50238
252,561,3.47412,-3.71109,0,0,0,0,0,0,0,-1,1476,463,3.47413,3.71109
259,561,3.42212,-3.2334,0,0,0,0,0,0,0,-1,1483,463,3.42214,3.2334
266,561,4.44373,-5.90027,0,0,0,0,0,0,0,-1,1490,463,4.44372,5.90026
273,561,14.923,-58.7319,0,0,0,0,0,0,0,-1,1497,463,14.923,58.732
280,561,15.0029,-57.6447,0,0,0,0,0,0,0,-1,1504,463,15.0029,57.6447
287,561,15.1749,-56.4936,0,0,0,0,0,0,0,-1,1511,463,15.1749,56.4936
294,561,15.493,-55.7489,0.0037937,-0.0180479,-0.00627908,0.00547015,-0.0197243,-0.260905,0.0153024,0.0393447,1518,463,15.4931,55.7489
301,561,15.1212,-55.2534,0.00278006,-0.0175694,-0.00686694,0.0048805,-0.0196699,-0.296841,0.015007,0.0373411,1525,463,15.1212,55.2534
308,561,15.1191,-54.6486,0.00190545,-0.0167287,-0.00705876,0.00427743,-0.0191007,-0.324179,0.0143733,0.0291625,1532,463,15.1191,54.6486
315,561,15.1659,-54.0348,0.00133079,-0.015366,-0.0068128,0.00375782,-0.0177931,-0.342228,0.0132929,0.0185687,1539,463,15.1659,54.0348
322,561,15.1375,-53.3067,0.00102066,-0.0135653,-0.00619705,0.003298,-0.0158426,-0.352168,0.0118155,0.0193204,1546,463,15.1375,53.3067
329,561,15.0975,-52.4711,0.000588108,-0.0121147,-0.00583043,0.00285843,-0.0143851,-0.371329,0.0106712,0.0137255,1553,463,15.0976,52.4712
336,561,15.0826,-51.6317,0.000447913,-0.00977238,-0.00492472,0.0024347,-0.0117592,-0.383461,0.00876447,0.0115392,1560,463,15.0827,51.6317
343,561,15.0698,-50.8379,0.000466529,-0.00735,-0.0038213,0.00202424,-0.00890771,-0.387074,0.00671569,0.0112964,1567,463,15.0698,50.8379
350,561,15.0303,-50.0201,0.000845422,-0.00496306,-0.00248104,0.00176089,-0.00587852,-0.353487,0.00461924,0.0111814,1574,463,15.0303,50.0201
357,561,14.9921,-49.1666,0.00101803,-0.00292789,-0.00149777,0.00152214,-0.003432,-0.324666,0.00293027,0.0109624,1581,463,14.992,49.1666
364,561,14.9624,-48.3393,0.000973623,-0.00121221,-0.000581518,0.0011187,-0.00135729,-0.24449,0.00143172,0.0101306,1588,463,14.9624,48.3393
371,561,14.8928,-47.4765,0.0009519,0.000302219,0.000270253,0.00104962,0.000204499,0.346962,0.000642522,0.0167067,1595,463,14.8928,47.4765
378,561,14.8329,-46.6271,0.000973068,0.00197597,0.00102981,0.00261993,0.000329111,1.01197,0.00164791,0.0123639,1602,463,14.8329,46.6271
385,561,14.7992,-45.761,0.000925832,0.00318721,0.00158532,0.00400375,0.000109293,1.09517,0.00263349,0.011657,1609,463,14.7992,45.761
392,561,14.7502,-44.8632,0.000876258,0.00399974,0.0020498,0.00501495,-0.000138958,1.11093,0.00339057,0.0161499,1616,463,14.7503,44.8632
399,561,14.7217,-44.0075,0.000834891,0.00454547,0.00243698,0.00575302,-0.000372655,1.11075,0.00396541,0.0217546,1623,463,14.7216,44.0075
406,561,14.6921,-43.1374,0.000615408,0.0049644,0.00273939,0.00628743,-0.000707624,1.12087,0.00444631,0.019861,1630,463,14.6922,43.1374
413,561,14.6582,-42.2234,0.000180671,0.00519139,0.00283485,0.00646931,-0.00109725,1.14729,0.00472131,0.0184867,1637,463,14.6582,42.2233
420,561,14.5492,-41.3312,-0.000474224,0.00507692,0.00302478,0.0064066,-0.0018039,1.15663,0.00498244,0.0147844,1644,463,14.5493,41.3312
427,561,14.4918,-40.3907,-0.00132241,0.00500368,0.00366597,0.00668256,-0.00300128,1.14134,0.00572404,0.0112153,1651,463,14.4918,40.3907
434,561,14.4502,-39.4553,-0.00214725,0.00487753,0.0041263,0.00678393,-0.00405364,1.138,0.00632291,0.0136819,1658,463,14.4502,39.4553
441,561,14.4103,-38.5313,-0.00325736,0.00464484,0.00481949,0.00692581,-0.00553833,1.12875,0.00721102,0.0160077,1665,463,14.4103,38.5313
448,561,14.3802,-37.5529,-0.00460861,0.00448402,0.00573685,0.00725757,-0.00738216,1.12047,0.00845235,0.0218735,1672,463,14.3802,37.5529
455,561,14.3298,-36.5691,-0.00624271,0.00416403,0.00710261,0.00776533,-0.00984401,1.10153,0.0101903,0.0421757,1679,463,14.3298,36.5691
462,561,13.9921,-35.6646,-0.00806581,0.00458732,0.00891247,0.00919041,-0.0126689,1.09405,0.0126736,0.0389305,1686,463,13.9921,35.6645
469,561,13.8409,-34.8373,-0.0100272,0.00522,0.0112359,0.0111745,-0.0159817,1.08348,0.0157603,0.0260804,1693,463,13.841,34.8373
476,561,13.6644,-33.5655,-0.012168,0.00592575,0.0140632,0.0136007,-0.0198429,1.07122,0.0194205,0.0458409,1700,463,13.6644,33.5654
483,561,13.4309,-32.1374,0,0,0,0,0,0,0,-1,1707,463,13.4309,32.1374
490,561,10.2549,-20.4551,0,0,0,0,0,0,0,-1,1714,463,10.2548,20.4551
497,561,11.7618,-20.3894,0,0,0,0,0,0,0,-1,1721,463,11.7618,20.3894
504,561,12.9351,-20.1285,0,0,0,0,0,0,0,-1,1728,463,12.935,20.1285
511,561,0,0,0,0,0,0,0,0,0,-1,1735,463,0,0
518,561,0,0,0,0,0,0,0,0,0,-1,1742,463,0,0
525,561,0,0,0,0,0,0,0,0,0,-1,1749,463,0,0
532,561,0,0,0,0,0,0,0,0,0,-1,1756,463,0,0
539,561,0,0,0,0,0,0,0,0,0,-1,1763,463,0,0
546,561,0,0,0,0,0,0,0,0,0,-1,1770,463,0,0
553,561,0,0,0,0,0,0,0,0,0,-1,1777,463,0,0
560,561,0,0,0,0,0,0,0,0,0,-1,1784,463,0,0
567,561,0,0,0,0,0,0,0,0,0,-1,1791,463,0,0
574,561,0,0,0,0,0,0,0,0,0,-1,1798,463,0,0
581,561,0,0,0,0,0,0,0,0,0,-1,1805,463,0,0
588,561,0,0,0,0,0,0,0,0,0,-1,1812,463,0,0
595,561,0,0,0,0,0,0,0,0,0,-1,1819,463,0,0
602,561,0,0,0,0,0,0,0,0,0,-1,1826,463,0,0
609,561,0,0,0,0,0,0,0,0,0,-1,1833,463,0,0
616,561,0,0,0,0,0,0,0,0,0,-1,1840,463,0,0
623,561,0,0,0,0,0,0,0,0,0,-1,1847,463,0,0
630,561,0,0,0,0,0,0,0,0,0,-1,1854,463,0,0
637,561,0,0,0,0,0,0,0,0,0,-1,1861,463,0,0
644,561,0,0,0,0,0,0,0,0,0,-1,1868,463,0,0
651,561,0,0,0,0,0,0,0,0,0,-1,1875,463,0,0
658,561,0,0,0,0,0,0,0,0,0,-1,1882,463,0,0
665,561,0,0,0,0,0,0,0,0,0,-1,1889,463,0,0
672,561,0,0,0,0,0,0,0,0,0,-1,1896,463,0,0
679,561,0,0,0,0,0,0,0,0,0,-1,1903,463,0,0
686,561,0,0,0,0,0,0,0,0,0,-1,1910,463,0,0
693,561,0,0,0,0,0,0,0,0,0,-1,1917,463,0,0
700,561,0,0,0,0,0,0,0,0,0,-1,1924,463,0,0
707,561,0,0,0,0,0,0,0,0,0,-1,1931,463,0,0
714,561,0,0,0,0,0,0,0,0,0,-1,1938,463,0,0
721,561,0,0,0,0,0,0,0,0,0,-1,1945,463,0,0
728,561,0,0,0,0,0,0,0,0,0,-1,1952,463,0,0
735,561,0,0,0,0,0,0,0,0,0,-1,1959,463,0,0
742,561,0,0,0,0,0,0,0,0,0,-1,1966,463,0,0
749,561,0,0,0,0,0,0,0,0,0,-1,1973,463,0,0
756,561,0,0,0,0,0,0,0,0,0,-1,1980,463,0,0
763,561,0,0,0,0,0,0,0,0,0,-1,1987,463,0,0
770,561,0,0,0,0,0,0,0,0,0,-1,1994,463,0,0
777,561,0,0,0,0,0,0,0,0,0,-1,2001,463,0,0
784,561,0,0,0,0,0,0,0,0,0,-1,2008,463,0,0
791,561,0,0,0,0,0,0,0,0,0,-1,2015,463,0,0
798,561,0,0,0,0,0,0,0,0,0,-1,2022,463,0,0
805,561,0,0,0,0,0,0,0,0,0,-1,2029,463,0,0
812,561,0,0,0,0,0,0,0,0,0,-1,2036,463,0,0
-700,554,0,0,0,0,0,0,0,0,0,-1,524,470,0,0
-693,554,0,0,0,0,0,0,0,0,0,-1,531,470,0,0
-686,554,0,0,0,0,0,0,0,0,0,-1,538,470,0,0
-679,554,0,0,0,0,0,0,0,0,0,-1,545,470,0,0
-672,554,0,0,0,0,0,0,0,0,0,-1,552,470,0,0
-665,554,0,0,0,0,0,0,0,0,0,-1,559,470,0,0
-658,554,0,0,0,0,0,0,0,0,0,-1,566,470,0,0
-651,554,0,0,0,0,0,0,0,0,0,-1,573,470,0,0
-644,554,0,0,0,0,0,0,0,0,0,-1,580,470,0,0
-637,554,0,0,0,0,0,0,0,0,0,-1,587,470,0,0
-630,554,0,0,0,0,0,0,0,0,0,-1,594,470,0,0
-623,554,0,0,0,0,0,0,0,0,0,-1,601,470,0,0
-616,554,0,0,0,0,0,0,0,0,0,-1,608,470,0,0
-609,554,0,0,0,0,0,0,0,0,0,-1,615,470,0,0
-602,554,0,0,0,0,0,0,0,0,0,-1,622,470,0,0
-595,554,0,0,0,0,0,0,0,0,0,-1,629,470,0,0
-588,554,0,0,0,0,0,0,0,0,0,-1,636,470,0,0
-581,554,0,0,0,0,0,0,0,0,0,-1,643,470,0,0
-574,554,0,0,0,0,0,0,0,0,0,-1,650,470,0,0
-567,554,0,0,0,0,0,0,0,0,0,-1,657,470,0,0
-560,554,0,0,0,0,0,0,0,0,0,-1,664,470,0,0
-553,554,0,0,0,0,0,0,0,0,0,-1,671,470,0,0
-546,554,0,0,0,0,0,0,0,0,0,-1,678,470,0,0
-539,554,0,0,0,0,0,0,0,0,0,-1,685,470,0,0
-532,554,0,0,0,0,0,0,0,0,0,-1,692,470,0,0
-525,554,0,0,0,0,0,0,0,0,0,-1,699,470,0,0
-518,554,0,0,0,0,0,0,0,0,0,-1,706,470,0,0
-511,554,0,0,0,0,0,0,0,0,0,-1,713,470,0,0
-504,554,0,0,0,0,0,0,0,0,0,-1,720,470,0,0
-497,554,0,0,0,0,0,0,0,0,0,-1,727,470,0,0
-490,554,0,0,0,0,0,0,0,0,0,-1,734,470,0,0
-483,554,0,0,0,0,0,0,0,0,0,-1,741,470,0,0
-476,554,0,0,0,0,0,0,0,0,0,-1,748,470,0,0
-469,554,0,0,0,0,0,0,0,0,0,-1,755,470,0,0
-462,554,0,0,0,0,0,0,0,0,0,-1,762,470,0,0
-455,554,0,0,0,0,0,0,0,0,0,-1,769,470,0,0
-448,554,0,0,0,0,0,0,0,0,0,-1,776,470,0,0
-441,554,0,0,0,0,0,0,0,0,0,-1,783,470,0,0
-434,554,0,0,0,0,0,0,0,0,0,-1,790,470,0,0
-427,554,0,0,0,0,0,0,0,0,0,-1,797,470,0,0
-420,554,0,0,0,0,0,0,0,0,0,-1,804,470,0,0
-413,554,0,0,0,0,0,0,0,0,0,-1,811,470,0,0
-406,554,0,0,0,0,0,0,0,0,0,-1,818,470,0,0
-399,554,-1.32275,-3.95142,0,0,0,0,0,0,0,-1,825,470,-1.32275,3.95141
-392,554,-1.35632,-3.7406,0,0,0,0,0,0,0,-1,832,470,-1.35632,3.7406
-385,554,1.54614,-28.7236,0,0,0,0,0,0,0,-1,839,470,1.54616,28.7236
-378,554,1.92175,-29.1808,0,0,0,0,0,0,0,-1,846,470,1.92174,29.1808
-371,554,2.90704,-29.4795,0,0,0,0,0,0,0,-1,853,470,2.90703,29.4795
-364,554,2.69928,-30.6884,0,0,0,0,0,0,0,-1,860,470,2.69926,30.6884
-357,554,2.43024,-31.9178,0,0,0,0,0,0,0,-1,867,470,2.43024,31.9178
-350,554,1.17157,-18.1341,0,0,0,0,0,0,0,-1,874,470,1.17156,18.1341
-343,554,2.11096,-35.2536,0,0,0,0,0,0,0,-1,881,470,2.11094,35.2536
-336,554,1.96637,-35.97,-0.00150751,0.0234479,-0.0117919,0.0281383,-0.00619786,-1.19222,0.02113,0.0461886,888,470,1.9664,35.97
-329,554,1.79846,-36.9018,-0.00165206,0.0195344,-0.00953666,0.0231947,-0.0053124,-1.20432,0.0175048,0.0266231,895,470,1.79849,36.9018
-322,554,1.70361,-37.8323,-0.00164037,0.0164264,-0.00776121,0.0193026,-0.00451657,-1.2159,0.0146086,0.0193782,902,470,1.70363,37.8324
-315,554,1.68909,-38.7438,-0.0016101,0.0135577,-0.00616688,0.0157486,-0.00380096,-1.22944,0.0119689,0.0173508,909,470,1.6891,38.7438
-308,554,1.62396,-39.6826,-0.00156424,0.0112338,-0.00499811,0.0129544,-0.00328486,-1.23925,0.0099143,0.0159826,916,470,1.62397,39.6826
-301,554,1.56805,-40.6263,-0.00118984,0.00902264,-0.00415225,0.0104978,-0.002665,-1.22944,0.00803556,0.0150352,923,470,1.56805,40.6263
-294,554,1.50775,-41.5221,-0.00077775,0.00735058,-0.00340022,0.00858537,-0.00201254,-1.22246,0.00649914,0.0129152,930,470,1.50778,41.5221
-287,554,1.44537,-42.4289,-0.000434585,0.00591606,-0.0027259,0.00692561,-0.00144414,-1.2161,0.00516618,0.0133863,937,470,1.44535,42.4289
-280,554,1.36389,-43.3252,-8.68144e-05,0.00452716,-0.00217869,0.00539332,-0.000952977,-1.19239,0.0039517,0.0126726,944,470,1.36389,43.3252
-273,554,1.27374,-44.2148,0.00012657,0.00284796,-0.00148628,0.00350233,-0.000527806,-1.15606,0.00252925,0.0161178,951,470,1.27372,44.2149
-266,554,1.21686,-45.0925,0.000332228,0.00102127,-0.000678369,0.00143759,-8.40927e-05,-1.02036,0.000987617,0.0128905,958,470,1.21685,45.0925
-259,554,1.19214,-45.9113,0.000433686,-0.00123512,0.000277657,0.00047867,-0.0012801,0.160618,0.00104998,0.0126688,965,470,1.19215,45.9112
-252,554,1.14166,-46.7657,0.000343734,-0.00351755,0.00152381,0.000872638,-0.00404646,0.334084,0.00303069,0.0161983,972,470,1.14168,46.7657
-245,554,1.08618,-47.6419,0.000305947,-0.00582544,0.00274009,0.00135201,-0.00687151,0.364687,0.00509186,0.0177436,979,470,1.08621,47.6419
-238,554,1.06464,-48.5243,0.000313819,-0.00839017,0.0040579,0.00191215,-0.0099885,0.375221,0.00737943,0.0123773,986,470,1.06461,48.5243
-231,554,1.04047,-49.3787,0.000422959,-0.0111095,0.00537925,0.00254252,-0.0132291,0.375346,0.00977771,0.0107871,993,470,1.04046,49.3786
-224,554,1.01678,-50.177,0.000501577,-0.0137992,0.00668437,0.00313939,-0.016437,0.375864,0.0121405,0.0106451,1000,470,1.01676,50.177
-217,554,1.01471,-50.9719,0.000643145,-0.0164414,0.00794086,0.00376397,-0.0195622,0.374464,0.0144603,0.011092,1007,470,1.0147,50.9719
-210,554,1.01453,-51.775,0.000936193,-0.0190231,0.00902108,0.00440918,-0.0224961,0.367496,0.0166627,0.0155911,1014,470,1.01454,51.775
-203,554,0.965271,-52.5147,0.00148239,-0.0212291,0.00985592,0.00516301,-0.0249097,0.357404,0.0185683,0.0245544,1021,470,0.965269,52.5147
-196,554,0.963623,-53.1895,0.00234179,-0.023032,0.0104395,0.00608478,-0.026775,0.344262,0.0201863,0.03322,1028,470,0.963629,53.1895
-189,554,1.06128,-53.8085,0.0033075,-0.0246638,0.0108937,0.00704954,-0.0284058,0.330877,0.0216727,0.0383345,1035,470,1.06134,53.8085
-182,554,1.20459,-54.4709,0.00444373,-0.0260209,0.0112036,0.00812024,-0.0296974,0.317083,0.0229882,0.0462338,1042,470,1.20456,54.471
-175,554,1.23169,-55.0419,0,0,0,0,0,0,0,-1,1049,470,1.23164,55.0419
-168,554,1.8866,-48.7592,0,0,0,0,0,0,0,-1,1056,470,1.88665,48.7591
-161,554,1.09583,-42.015,0,0,0,0,0,0,0,-1,1063,470,1.09577,42.015
-154,554,1.03186,-42.7216,0,0,0,0,0,0,0,-1,1070,470,1.03187,42.7216
-147,554,1.4552,-41.5187,0,0,0,0,0,0,0,-1,1077,470,1.45525,41.5187
-140,554,0.428101,-38.9893,0,0,0,0,0,0,0,-1,1084,470,0.428152,38.9893
-133,554,2.67163,-32.8187,0,0,0,0,0,0,0,-1,1091,470,2.67161,32.8187
-126,554,0.851929,-33.5393,0,0,0,0,0,0,0,-1,1098,470,0.851942,33.5393
-119,554,-1.03479,-32.1628,0,0,0,0,0,0,0,-1,1105,470,-1.03476,32.1628
-112,554,1.03162,-24.5784,0,0,0,0,0,0,0,-1,1112,470,1.03156,24.5784
-105,554,0.608765,-21.0475,0,0,0,0,0,0,0,-1,1119,470,0.608728,21.0475
-98,554,1.51929,-7.3624,0,0,0,0,0,0,0,-1,1126,470,1.51928,7.36241
-91,554,1.41089,-6.5864,0,0,0,0,0,0,0,-1,1133,470,1.41093,6.58638
-84,554,1.62305,-5.87186,0,0,0,0,0,0,0,-1,1140,470,1.62299,5.87186
-77,554,-2.56958,1.33258,0,0,0,0,0,0,0,-1,1147,470,-2.56959,-1.33257
-70,554,-3.68164,-1.18332,0,0,0,0,0,0,0,-1,1154,470,-3.68158,1.18331
-63,554,-4.86853,-3.88708,0,0,0,0,0,0,0,-1,1161,470,-4.86853,3.88708
-56,554,-5.69958,-6.45422,0,0,0,0,0,0,0,-1,1168,470,-5.69955,6.45422
-49,554,-6.23645,-8.8569,0,0,0,0,0,0,0,-1,1175,470,-6.23643,8.85689
-42,554,-6.62524,-11.5382,0,0,0,0,0,0,0,-1,1182,470,-6.62522,11.5382
-35,554,-2.40173,-4.59482,0,0,0,0,0,0,0,-1,1189,470,-2.40169,4.59481
-28,554,-0.760132,-1.65555,0,0,0,0,0,0,0,-1,1196,470,-0.760095,1.65556
-21,554,6.35388,-60.5687,0,0,0,0,0,0,0,-1,1203,470,6.35392,60.5687
-14,554,1.48401,-67.8572,0,0,0,0,0,0,0,-1,1210,470,1.48397,67.8573
-7,554,3.01025,-66.8904,0,0,0,0,0,0,0,-1,1217,470,3.01025,66.8905
0,554,4.06506,-65.9154,0,0,0,0,0,0,0,-1,1224,470,4.06509,65.9154
7,554,4.27417,-66.3012,-0.0100413,-0.0163684,0.044778,0.0316848,-0.0580944,0.750132,0.0525763,0.0462877,1231,470,4.27421,66.3012
14,554,4.50354,-66.725,-0.0160728,-0.0158664,0.0396979,0.0237285,-0.0556677,0.786699,0.0470595,0.0424893,1238,470,4.50351,66.725
21,554,2.60242,-66.5224,-0.0281431,-0.0161919,0.0361504,0.0144735,-0.0588085,0.867306,0.0448161,0.0427109,1245,470,2.60238,66.5224
28,554,2.20374,-66.7019,-0.042132,-0.0183012,0.0339344,0.00574889,-0.0661821,0.954239,0.0461572,0.0436131,1252,470,2.20371,66.7019
35,554,2.26697,-65.5903,0,0,0,0,0,0,0,-1,1259,470,2.26694,65.5903
42,554,11.4465,-69.0413,0,0,0,0,0,0,0,-1,1266,470,11.4465,69.0413
49,554,9.9718,-68.4628,0,0,0,0,0,0,0,-1,1273,470,9.97181,68.4628
56,554,8.48669,-67.9019,-0.0913389,-0.038622,0.0338702,-0.0220624,-0.107899,1.11606,0.0658225,0.0429875,1280,470,8.48674,67.9018
63,554,6.99341,-67.3378,-0.105693,-0.046337,0.0354614,-0.0297732,-0.122256,1.13382,0.0736149,0.0416275,1287,470,6.99336,67.3378
70,554,5.45142,-66.7084,-0.119807,-0.055584,0.038956,-0.0372108,-0.138181,1.13009,0.0825611,0.0421482,1294,470,5.45147,66.7084
77,554,3.85754,-65.9749,-0.130466,-0.0628742,0.0421309,-0.0426592,-0.150681,1.12343,0.0896827,0.0436802,1301,470,3.85757,65.9749
84,554,2.30591,-65.2034,-0.138607,-0.0682501,0.0482258,-0.0437355,-0.163121,1.10051,0.0974956,0.0455254,1308,470,2.30588,65.2033
91,554,0.709473,-64.6146,-0.138769,-0.0662029,0.0596077,-0.0327039,-0.172268,1.05879,0.105645,0.0442601,1315,470,0.709483,64.6146
98,554,0.853394,-63.1301,-0.136314,-0.0605888,0.0701814,-0.0187081,-0.178195,1.03277,0.113078,0.0434823,1322,470,0.853415,63.1301
105,554,-0.0148926,-62.2274,-0.125793,-0.0505902,0.0802172,0.000401206,-0.176784,1.00456,0.11799,0.0458691,1329,470,-0.0148618,62.2274
112,554,-1.30127,-61.2852,0,0,0,0,0,0,0,-1,1336,470,-1.30125,61.2852
119,554,-2.68555,-61.2647,0,0,0,0,0,0,0,-1,1343,470,-2.68558,61.2647
126,554,-3.19714,-60.28,0,0,0,0,0,0,0,-1,1350,470,-3.1971,60.2801
133,554,-3.70862,-59.2954,0,0,0,0,0,0,0,-1,1357,470,-3.70863,59.2954
140,554,-5.00891,-58.231,0,0,0,0,0,0,0,-1,1364,470,-5.00896,58.231
147,554,3.63062,-67.2021,0,0,0,0,0,0,0,-1,1371,470,3.63066,67.2021
154,554,-5.65051,-56.4983,0,0,0,0,0,0,0,-1,1378,470,-5.65054,56.4983
161,554,-5.23901,-84.4846,0,0,0,0,0,0,0,-1,1385,470,-5.23901,84.4846
168,554,-4.64307,-85.7873,0,0,0,0,0,0,0,-1,1392,470,-4.64312,85.7873
175,554,10.663,0.286957,0,0,0,0,0,0,0,-1,1399,470,10.663,-0.286966
182,554,6.71106,-4.50217,0,0,0,0,0,0,0,-1,1406,470,6.71107,4.50215
189,554,6.90479,-2.50348,0,0,0,0,0,0,0,-1,1413,470,6.90477,2.50348
196,554,6.96216,-0.740906,0,0,0,0,0,0,0,-1,1420,470,6.96214,0.740912
203,554,6.43518,0.414154,0,0,0,0,0,0,0,-1,1427,470,6.43523,-0.414141
210,554,6.21167,1.96707,0,0,0,0,0,0,0,-1,1434,470,6.21165,-1.96706
217,554,5.64551,3.4989,0,0,0,0,0,0,0,-1,1441,470,5.64555,-3.49891
224,554,4.85144,-8.85172,0,0,0,0,0,0,0,-1,1448,470,4.85146,8.85173
231,554,3.25073,-5.29642,0,0,0,0,0,0,0,-1,1455,470,3.25078,5.29642
238,554,4.28625,-3.25253,0,0,0,0,0,0,0,-1,1462,470,4.28622,3.25252
245,554,4.0752,-2.90033,0,0,0,0,0,0,0,-1,1469,470,4.07515,2.90032
252,554,3.52112,-0.934998,0,0,0,0,0,0,0,-1,1476,470,3.52113,0.934996
259,554,3.96448,-2.16425,0,0,0,0,0,0,0,-1,1483,470,3.96446,2.16424
266,554,3.0592,-2.71716,0,0,0,0,0,0,0,-1,1490,470,3.05923,2.71718
273,554,2.58521,-3.06876,0,0,0,0,0,0,0,-1,1497,470,2.58524,3.06874
280,554,15.7229,-57.3907,0,0,0,0,0,0,0,-1,1504,470,15.7229,57.3907
287,554,15.5852,-55.5956,0,0,0,0,0,0,0,-1,1511,470,15.5852,55.5956
294,554,16.7505,-55.0829,0,0,0,0,0,0,0,-1,1518,470,16.7505,55.0829
301,554,15.8335,-54.7933,0,0,0,0,0,0,0,-1,1525,470,15.8335,54.7933
308,554,15.9631,-54.4952,0,0,0,0,0,0,0,-1,1532,470,15.9632,54.4952
315,554,15.9928,-53.3281,0,0,0,0,0,0,0,-1,1539,470,15.9928,53.3281
322,554,16.014,-52.7474,0.000429763,-0.0180174,-0.00831798,0.00362645,-0.0212141,-0.366909,0.0154937,0.0477129,1546,470,16.014,52.7474
329,554,15.9154,-52.1508,0.000135795,-0.0160308,-0.00786007,0.00332727,-0.0192222,-0.385699,0.0140558,0.0328629,1553,470,15.9155,52.1508
336,554,15.8878,-51.5673,0.00012959,-0.0131323,-0.00678573,0.0029863,-0.015989,-0.398467,0.0117816,0.020284,1560,470,15.8878,51.5673
343,554,15.8671,-50.8084,0.000286639,-0.0102541,-0.00552811,0.00265412,-0.0126216,-0.404631,0.0094245,0.0138876,1567,470,15.867,50.8084
350,554,15.8547,-49.9536,0.000883232,-0.00757103,-0.00398235,0.00246366,-0.00915146,-0.377795,0.00706682,0.0112198,1574,470,15.8548,49.9536
357,554,15.8446,-49.1152,0.00116562,-0.00533093,-0.00292412,0.0022879,-0.00645322,-0.366465,0.0052342,0.0121871,1581,470,15.8446,49.1151
364,554,15.8032,-48.3002,0.00115887,-0.00352559,-0.00195693,0.00186879,-0.00423551,-0.348008,0.00361154,0.00957238,1588,470,15.8032,48.3002
371,554,15.7478,-47.4426,0.00118072,-0.00196548,-0.00106092,0.00150504,-0.00228979,-0.296673,0.00220651,0.00916165,1595,470,15.7478,47.4426
378,554,15.7,-46.5691,0.00124543,-9.25764e-05,-0.000203459,0.00127568,-0.000122831,-0.147617,0.000894215,0.0107966,1602,470,15.7,46.5691
385,554,15.6753,-45.6963,0.0012242,0.00123931,0.000478082,0.0017099,0.000753612,0.793302,0.000989517,0.0104134,1609,470,15.6752,45.6963
392,554,15.6516,-44.7789,0.0011753,0.00213722,0.00102856,0.00279171,0.000520809,1.0041,0.00171412,0.01415,1616,470,15.6516,44.7789
399,554,15.6038,-43.8752,0.0011145,0.00279533,0.00147602,0.00365343,0.00025641,1.0442,0.00235481,0.0192457,1623,470,15.6037,43.8752
406,554,15.563,-43.0156,0.000924179,0.00330806,0.00185803,0.0043236,-9.13644e-05,1.07059,0.00291333,0.0182589,1630,470,15.563,43.0156
413,554,15.5162,-42.1496,0.000596964,0.00371479,0.00209557,0.0047677,-0.000455944,1.10519,0.00334083,0.0170217,1637,470,15.5162,42.1496
420,554,15.4353,-41.263,4.76793e-05,0.00379986,0.00235912,0.00493793,-0.00109039,1.12132,0.00370923,0.0175721,1644,470,15.4353,41.263
427,554,15.3949,-40.3434,-0.000716038,0.00385643,0.00291648,0.00527597,-0.00213558,1.11782,0.00440524,0.0123491,1651,470,15.3949,40.3434
434,554,15.326,-39.4391,-0.00144948,0.00383118,0.00335427,0.00545963,-0.00307793,1.11883,0.00499268,0.0107408,1658,470,15.326,39.4391
441,554,15.2692,-38.5154,-0.00238586,0.00379707,0.0039919,0.00575461,-0.00434339,1.11488,0.00584903,0.0116092,1665,470,15.2692,38.5153
448,554,15.2151,-37.5407,-0.00351825,0.00382472,0.00481027,0.00620456,-0.00589809,1.11136,0.00698821,0.0161668,1672,470,15.2151,37.5407
455,554,15.1362,-36.622,-0.00484327,0.00383645,0.00594413,0.00685642,-0.00786324,1.10072,0.00850502,0.0180994,1679,470,15.1363,36.622
462,554,15.0115,-35.7322,-0.00620934,0.00433729,0.00738138,0.0081355,-0.0100076,1.09556,0.0104935,0.0204651,1686,470,15.0115,35.7322
469,554,14.7944,-34.7975,-0.00762048,0.00500645,0.0091676,0.00982423,-0.0124383,1.08694,0.0128828,0.0265444,1693,470,14.7944,34.7975
476,554,14.4496,-33.3033,-0.00907209,0.00578256,0.0112837,0.011864,-0.0151535,1.07647,0.0156371,0.045348,1700,470,14.4496,33.3033
483,554,14.0929,-31.7226,0,0,0,0,0,0,0,-1,1707,470,14.0928,31.7226
490,554,12.5504,-17.9805,0,0,0,0,0,0,0,-1,1714,470,12.5505,17.9805
497,554,14.3204,-17.9055,0,0,0,0,0,0,0,-1,1721,470,14.3204,17.9055
504,554,2.13257,-3.81628,0,0,0,0,0,0,0,-1,1728,470,2.1326,3.8163
511,554,1.31396,-4.02713,0,0,0,0,0,0,0,-1,1735,470,1.31398,4.02712
518,554,5.04236,-5.9472,0,0,0,0,0,0,0,-1,1742,470,5.04231,5.94721
525,554,0,0,0,0,0,0,0,0,0,-1,1749,470,0,0
532,554,0,0,0,0,0,0,0,0,0,-1,1756,470,0,0
539,554,0,0,0,0,0,0,0,0,0,-1,1763,470,0,0
546,554,0,0,0,0,0,0,0,0,0,-1,1770,470,0,0
553,554,0,0,0,0,0,0,0,0,0,-1,1777,470,0,0
560,554,0,0,0,0,0,0,0,0,0,-1,1784,470,0,0
567,554,0,0,0,0,0,0,0,0,0,-1,1791,470,0,0
574,554,0,0,0,0,0,0,0,0,0,-1,1798,470,0,0
581,554,0,0,0,0,0,0,0,0,0,-1,1805,470,0,0
588,554,0,0,0,0,0,0,0,0,0,-1,1812,470,0,0
595,554,0,0,0,0,0,0,0,0,0,-1,1819,470,0,0
602,554,0,0,0,0,0,0,0,0,0,-1,1826,470,0,0
609,554,0,0,0,0,0,0,0,0,0,-1,1833,470,0,0
616,554,0,0,0,0,0,0,0,0,0,-1,1840,470,0,0
623,554,0,0,0,0,0,0,0,0,0,-1,1847,470,0,0
630,554,0,0,0,0,0,0,0,0,0,-1,1854,470,0,0
637,554,0,0,0,0,0,0,0,0,0,-1,1861,470,0,0
644,554,0,0,0,0,0,0,0,0,0,-1,1868,470,0,0
651,554,0,0,0,0,0,0,0,0,0,-1,1875,470,0,0
658,554,0,0,0,0,0,0,0,0,0,-1,1882,470,0,0
665,554,0,0,0,0,0,0,0,0,0,-1,1889,470,0,0
672,554,0,0,0,0,0,0,0,0,0,-1,1896,470,0,0
679,554,0,0,0,0,0,0,0,0,0,-1,1903,470,0,0
686,554,0,0,0,0,0,0,0,0,0,-1,1910,470,0,0
693,554,0,0,0,0,0,0,0,0,0,-1,1917,470,0,0
700,554,0,0,0,0,0,0,0,0,0,-1,1924,470,0,0
707,554,0,0,0,0,0,0,0,0,0,-1,1931,470,0,0
714,554,0,0,0,0,0,0,0,0,0,-1,1938,470,0,0
721,554,0,0,0,0,0,0,0,0,0,-1,1945,470,0,0
728,554,0,0,0,0,0,0,0,0,0,-1,1952,470,0,0
735,554,0,0,0,0,0,0,0,0,0,-1,1959,470,0,0
742,554,0,0,0,0,0,0,0,0,0,-1,1966,470,0,0
749,554,0,0,0,0,0,0,0,0,0,-1,1973,470,0,0
756,554,0,0,0,0,0,0,0,0,0,-1,1980,470,0,0
763,554,0,0,0,0,0,0,0,0,0,-1,1987,470,0,0
770,554,0,0,0,0,0,0,0,0,0,-1,1994,470,0,0
777,554,0,0,0,0,0,0,0,0,0,-1,2001,470,0,0
784,554,0,0,0,0,0,0,0,0,0,-1,2008,470,0,0
791,554,0,0,0,0,0,0,0,0,0,-1,2015,470,0,0
798,554,0,0,0,0,0,0,0,0,0,-1,2022,470,0,0
805,554,0,0,0,0,0,0,0,0,0,-1,2029,470,0,0
812,554,0,0,0,0,0,0,0,0,0,-1,2036,470,0,0
-700,547,0,0,0,0,0,0,0,0,0,-1,524,477,0,0
-693,547,0,0,0,0,0,0,0,0,0,-1,531,477,0,0
-686,547,0,0,0,0,0,0,0,0,0,-1,538,477,0,0
-679,547,0,0,0,0,0,0,0,0,0,-1,545,477,0,0
-672,547,0,0,0,0,0,0,0,0,0,-1,552,477,0,0
-665,547,0,0,0,0,0,0,0,0,0,-1,559,477,0,0
-658,547,0,0,0,0,0,0,0,0,0,-1,566,477,0,0
-651,547,0,0,0,0,0,0,0,0,0,-1,573,477,0,0
-644,547,0,0,0,0,0,0,0,0,0,-1,580,477,0,0
-637,547,0,0,0,0,0,0,0,0,0,-1,587,477,0,0
-630,547,0,0,0,0,0,0,0,0,0,-1,594,477,0,0
-623,547,0,0,0,0,0,0,0,0,0,-1,601,477,0,0
-616,547,0,0,0,0,0,0,0,0,0,-1,608,477,0,0
-609,547,0,0,0,0,0,0,0,0,0,-1,615,477,0,0
-602,547,0,0,0,0,0,0,0,0,0,-1,622,477,0,0
-595,547,0,0,0,0,0,0,0,0,0,-1,629,477,0,0
-588,547,0,0,0,0,0,0,0,0,0,-1,636,477,0,0
-581,547,0,0,0,0,0,0,0,0,0,-1,643,477,0,0
-574,547,0,0,0,0,0,0,0,0,0,-1,650,477,0,0
-567,547,0,0,0,0,0,0,0,0,0,-1,657,477,0,0
-560,547,0,0,0,0,0,0,0,0,0,-1,664,477,0,0
-553,547,0,0,0,0,0,0,0,0,0,-1,671,477,0,0
-546,547,0,0,0,0,0,0,0,0,0,-1,678,477,0,0
-539,547,0,0,0,0,0,0,0,0,0,-1,685,477,0,0
-532,547,0,0,0,0,0,0,0,0,0,-1,692,477,0,0
-525,547,0,0,0,0,0,0,0,0,0,-1,699,477,0,0
-518,547,0,0,0,0,0,0,0,0,0,-1,706,477,0,0
-511,547,0,0,0,0,0,0,0,0,0,-1,713,477,0,0
-504,547,0,0,0,0,0,0,0,0,0,-1,720,477,0,0
-497,547,0,0,0,0,0,0,0,0,0,-1,727,477,0,0
-490,547,0,0,0,0,0,0,0,0,0,-1,734,477,0,0
-483,547,0,0,0,0,0,0,0,0,0,-1,741,477,0,0
-476,547,0,0,0,0,0,0,0,0,0,-1,748,477,0,0
-469,547,0,0,0,0,0,0,0,0,0,-1,755,477,0,0
-462,547,0,0,0,0,0,0,0,0,0,-1,762,477,0,0
-455,547,0,0,0,0,0,0,0,0,0,-1,769,477,0,0
-448,547,0,0,0,0,0,0,0,0,0,-1,776,477,0,0
-441,547,0,0,0,0,0,0,0,0,0,-1,783,477,0,0
-434,547,0,0,0,0,0,0,0,0,0,-1,790,477,0,0
-427,547,0,0,0,0,0,0,0,0,0,-1,797,477,0,0
-420,547,0,0,0,0,0,0,0,0,0,-1,804,477,0,0
-413,547,0,0,0,0,0,0,0,0,0,-1,811,477,0,0
-406,547,0.144592,-11.0292,0,0,0,0,0,0,0,-1,818,477,0.144583,11.0292
-399,547,0.775513,-10.0294,0,0,0,0,0,0,0,-1,825,477,0.775482,10.0295
-392,547,0.219055,-28.7913,0,0,0,0,0,0,0,-1,832,477,0.219056,28.7913
-385,547,0.564331,-29.2501,0,0,0,0,0,0,0,-1,839,477,0.564342,29.2501
-378,547,0.934631,-29.7303,0,0,0,0,0,0,0,-1,846,477,0.934644,29.7303
-371,547,1.85028,-29.6768,0,0,0,0,0,0,0,-1,853,477,1.85026,29.6768
-364,547,1.65063,-30.9048,0,0,0,0,0,0,0,-1,860,477,1.65062,30.9048
-357,547,1.38422,-32.116,0,0,0,0,0,0,0,-1,867,477,1.3842,32.116
-350,547,1.20465,-33.5225,0,0,0,0,0,0,0,-1,874,477,1.20465,33.5225
-343,547,1.09821,-34.6914,-6.97715e-05,0.0233882,-0.0125554,0.0288408,-0.00552234,-1.16109,0.0213079,0.0471841,881,477,1.09818,34.6914
-336,547,1.0592,-35.9041,-0.000604656,0.0192889,-0.010086,0.0235078,-0.00482352,-1.17462,0.0175027,0.0200868,888,477,1.05921,35.9041
-329,547,0.921326,-36.8494,-0.000885337,0.0158217,-0.00801034,0.0190417,-0.00410536,-1.18858,0.0142613,0.0127061,895,477,0.921347,36.8494
-322,547,0.837585,-37.8012,-0.000986848,0.013011,-0.00633761,0.015454,-0.00342986,-1.20287,0.011616,0.0127117,902,477,0.837564,37.8012
-315,547,0.767883,-38.7842,-0.00102143,0.0104161,-0.00481738,0.0121748,-0.00278005,-1.22077,0.00918452,0.0106531,909,477,0.767905,38.7843
-308,547,0.730164,-39.6777,-0.00100437,0.00837657,-0.00370525,0.00966351,-0.0022913,-1.2365,0.00732653,0.012357,916,477,0.730138,39.6777
-301,547,0.669861,-40.5673,-0.000696039,0.00644408,-0.00290185,0.00747468,-0.00172664,-1.22954,0.00564735,0.012544,923,477,0.669868,40.5673
-294,547,0.590942,-41.4583,-0.000289078,0.00495585,-0.0021868,0.00574797,-0.0010812,-1.22327,0.0042386,0.0108768,930,477,0.590957,41.4582
-287,547,0.524719,-42.3605,8.5823e-05,0.00363312,-0.0015365,0.0042061,-0.000487154,-1.21386,0.00297975,0.0125542,937,477,0.524749,42.3605
-280,547,0.476868,-43.2543,0.000383379,0.00214249,-0.000948294,0.00255633,-3.0464e-05,-1.1593,0.00171447,0.0140464,944,477,0.476853,43.2543
-273,547,0.427124,-44.1431,0.000503213,0.000318443,-0.00015563,0.000591813,0.000229843,-0.517541,0.00034451,0.0134734,951,477,0.427134,44.1431
-266,547,0.357788,-45.0048,0.000670885,-0.00162276,0.000737412,0.000887506,-0.00183939,0.28572,0.00160603,0.0130964,958,477,0.357767,45.0047
-259,547,0.302734,-45.8575,0.000661154,-0.0040262,0.0018314,0.00129184,-0.00465689,0.331654,0.00361303,0.012286,965,477,0.302737,45.8575
-252,547,0.285522,-46.7317,0.000396117,-0.00655496,0.0032731,0.00169473,-0.00785358,0.377705,0.00588257,0.0121657,972,477,0.285495,46.7317
-245,547,0.252808,-47.6046,0.000178193,-0.00923,0.00469121,0.00211759,-0.0111694,0.392013,0.00824329,0.0134502,979,477,0.25282,47.6046
-238,547,0.229065,-48.4675,-1.98351e-05,-0.0121881,0.00623793,0.00260972,-0.0148177,0.398939,0.0108534,0.00929713,986,477,0.229062,48.4674
-231,547,0.205444,-49.315,-9.53557e-05,-0.0153493,0.00780005,0.00318691,-0.0186316,0.398308,0.0136083,0.00862456,993,477,0.205467,49.315
-224,547,0.180115,-50.0923,-0.000230948,-0.0185281,0.00940101,0.00373823,-0.0224973,0.399503,0.016387,0.0106827,1000,477,0.180094,50.0923
-217,547,0.177795,-50.8365,-0.000305054,-0.0216529,0.010985,0.00433777,-0.0262957,0.39988,0.019141,0.0152032,1007,477,0.177822,50.8365
-210,547,0.138306,-51.4998,-0.000203463,-0.02473,0.0123809,0.00495952,-0.029893,0.395086,0.0217709,0.0252486,1014,477,0.138302,51.4998
-203,547,0.0911255,-51.9772,0.000201985,-0.0274265,0.0134846,0.00569237,-0.0329169,0.386662,0.0240675,0.0399992,1021,477,0.0911374,51.9772
-196,547,0.273193,-52.8116,0,0,0,0,0,0,0,-1,1028,477,0.273147,52.8117
-189,547,0.304199,-53.3021,0,0,0,0,0,0,0,-1,1035,477,0.304246,53.302
-182,547,0.525757,-54.0161,0,0,0,0,0,0,0,-1,1042,477,0.525774,54.0161
-175,547,1.37634,-47.526,0,0,0,0,0,0,0,-1,1049,477,1.3763,47.526
-168,547,0.761719,-32.9387,0,0,0,0,0,0,0,-1,1056,477,0.761738,32.9387
-161,547,0.0430908,-34.6016,0,0,0,0,0,0,0,-1,1063,477,0.0431231,34.6016
-154,547,-0.284424,-31.1176,0,0,0,0,0,0,0,-1,1070,477,-0.284395,31.1176
-147,547,3.69434,-26.413,0,0,0,0,0,0,0,-1,1077,477,3.69437,26.413
-140,547,1.55676,-22.5229,0,0,0,0,0,0,0,-1,1084,477,1.5568,22.5229
-133,547,2.31665,-17.9421,0,0,0,0,0,0,0,-1,1091,477,2.31667,17.9421
-126,547,-1.15271,-30.6984,0,0,0,0,0,0,0,-1,1098,477,-1.15267,30.6984
-119,547,0.967651,-24.9351,0,0,0,0,0,0,0,-1,1105,477,0.967657,24.9351
-112,547,1.15674,-22.2276,0,0,0,0,0,0,0,-1,1112,477,1.15677,22.2276
-105,547,0.966797,-20.5777,0,0,0,0,0,0,0,-1,1119,477,0.966804,20.5777
-98,547,0.70166,-18.9755,0,0,0,0,0,0,0,-1,1126,477,0.701713,18.9755
-91,547,1.37805,-7.12024,0,0,0,0,0,0,0,-1,1133,477,1.37804,7.12025
-84,547,1.94202,-6.66241,0,0,0,0,0,0,0,-1,1140,477,1.94201,6.66241
-77,547,-2.28357,1.8588,0,0,0,0,0,0,0,-1,1147,477,-2.28356,-1.85879
-70,547,-3.70178,-0.874908,0,0,0,0,0,0,0,-1,1154,477,-3.70182,0.874918
-63,547,-5.12012,-3.60861,0,0,0,0,0,0,0,-1,1161,477,-5.12009,3.60862
-56,547,-6.01917,-6.2399,0,0,0,0,0,0,0,-1,1168,477,-6.01921,6.23991
-49,547,-6.729,-8.60349,0,0,0,0,0,0,0,-1,1175,477,-6.72899,8.60348
-42,547,-2.41736,-5.53012,0,0,0,0,0,0,0,-1,1182,477,-2.41734,5.53011
-35,547,-2.96838,-4.45734,0,0,0,0,0,0,0,-1,1189,477,-2.96839,4.45734
-28,547,-0.869141,-1.29901,0,0,0,0,0,0,0,-1,1196,477,-0.869135,1.29901
-21,547,6.88403,-58.9171,0,0,0,0,0,0,0,-1,1203,477,6.88409,58.9171
-14,547,1.84644,-67.0497,0,0,0,0,0,0,0,-1,1210,477,1.8465,67.0497
-7,547,2.71216,-66.8472,0,0,0,0,0,0,0,-1,1217,477,2.7121,66.8472
0,547,3.57776,-66.6446,0,0,0,0,0,0,0,-1,1224,477,3.57771,66.6446
7,547,4.29456,-65.8998,0,0,0,0,0,0,0,-1,1231,477,4.2945,65.8998
14,547,0,0,0,0,0,0,0,0,0,-1,1238,477,0,0
21,547,0,0,0,0,0,0,0,0,0,-1,1245,477,0,0
28,547,0,0,0,0,0,0,0,0,0,-1,1252,477,0,0
35,547,0,0,0,0,0,0,0,0,0,-1,1259,477,0,0
42,547,0,0,0,0,0,0,0,0,0,-1,1266,477,0,0
49,547,0,0,0,0,0,0,0,0,0,-1,1273,477,0,0
56,547,0,0,0,0,0,0,0,0,0,-1,1280,477,0,0
63,547,0,0,0,0,0,0,0,0,0,-1,1287,477,0,0
70,547,0,0,0,0,0,0,0,0,0,-1,1294,477,0,0
77,547,0,0,0,0,0,0,0,0,0,-1,1301,477,0,0
84,547,0,0,0,0,0,0,0,0,0,-1,1308,477,0,0
91,547,0,0,0,0,0,0,0,0,0,-1,1315,477,0,0
98,547,0,0,0,0,0,0,0,0,0,-1,1322,477,0,0
105,547,0.260742,-61.2086,-0.145804,-0.0690173,0.0636721,-0.0330589,-0.181762,1.0567,0.111797,0.0439309,1329,477,0.260796,61.2086
112,547,-2.22864,-62.311,0,0,0,0,0,0,0,-1,1336,477,-2.22865,62.311
119,547,-2.93628,-61.3569,0,0,0,0,0,0,0,-1,1343,477,-2.93626,61.3569
126,547,-3.62732,-60.4818,0,0,0,0,0,0,0,-1,1350,477,-3.6273,60.4818
133,547,-4.3175,-59.5784,0,0,0,0,0,0,0,-1,1357,477,-4.31745,59.5784
140,547,4.30713,-65.322,0,0,0,0,0,0,0,-1,1364,477,4.3071,65.322
147,547,4.38892,-65.7489,0,0,0,0,0,0,0,-1,1371,477,4.38897,65.7489
154,547,-5.54907,-82.8379,0,0,0,0,0,0,0,-1,1378,477,-5.54906,82.8379
161,547,-5.20825,-84.0917,0,0,0,0,0,0,0,-1,1385,477,-5.20821,84.0918
168,547,-4.8114,-85.34,0,0,0,0,0,0,0,-1,1392,477,-4.81144,85.3399
175,547,3.35034,-0.26532,0,0,0,0,0,0,0,-1,1399,477,3.3503,0.265306
182,547,4.26038,3.72672,0,0,0,0,0,0,0,-1,1406,477,4.26039,-3.7267
189,547,3.40454,1.28671,0,0,0,0,0,0,0,-1,1413,477,3.40457,-1.28673
196,547,3.53931,1.87793,0,0,0,0,0,0,0,-1,1420,477,3.53928,-1.87794
203,547,6.49414,-0.425842,0,0,0,0,0,0,0,-1,1427,477,6.4941,0.425844
210,547,4.82092,0.53595,0,0,0,0,0,0,0,-1,1434,477,4.82096,-0.535942
217,547,4.68579,0.480072,0,0,0,0,0,0,0,-1,1441,477,4.68577,-0.480069
224,547,4.55615,0.739807,0,0,0,0,0,0,0,-1,1448,477,4.55613,-0.73981
231,547,5.90869,-3.57721,0,0,0,0,0,0,0,-1,1455,477,5.90871,3.57722
238,547,5.50049,-3.15356,0,0,0,0,0,0,0,-1,1462,477,5.50045,3.15356
245,547,5.13708,-2.65213,0,0,0,0,0,0,0,-1,1469,477,5.13708,2.65212
252,547,3.73511,-0.645233,0,0,0,0,0,0,0,-1,1476,477,3.73515,0.645237
259,547,5.86816,-3.20816,0,0,0,0,0,0,0,-1,1483,477,5.86815,3.20816
266,547,5.40222,-2.45731,0,0,0,0,0,0,0,-1,1490,477,5.40221,2.45732
273,547,3.05737,0.495789,0,0,0,0,0,0,0,-1,1497,477,3.05742,-0.49578
280,547,2.0885,1.47797,0,0,0,0,0,0,0,-1,1504,477,2.08848,-1.47795
287,547,16.7034,-52.6257,0,0,0,0,0,0,0,-1,1511,477,16.7033,52.6258
294,547,16.8954,-51.6904,0,0,0,0,0,0,0,-1,1518,477,16.8954,51.6904
301,547,16.5122,-48.5859,0,0,0,0,0,0,0,-1,1525,477,16.5122,48.5859
308,547,14.5352,-46.2472,0,0,0,0,0,0,0,-1,1532,477,14.5351,46.2472
315,547,16.3188,-48.3778,0,0,0,0,0,0,0,-1,1539,477,16.3188,48.3778
322,547,16.8643,-52.2822,0,0,0,0,0,0,0,-1,1546,477,16.8643,52.2822
329,547,16.6477,-51.8611,0,0,0,0,0,0,0,-1,1553,477,16.6477,51.8611
336,547,16.7312,-51.6457,0,0,0,0,0,0,0,-1,1560,477,16.7312,51.6457
343,547,16.7056,-50.8132,0,0,0,0,0,0,0,-1,1567,477,16.7055,50.8133
350,547,16.7375,-49.9423,0.000699377,-0.0100182,-0.00555854,0.0030616,-0.0123804,-0.401847,0.00944108,0.0326304,1574,477,16.7375,49.9423
357,547,16.7061,-49.1064,0.00120071,-0.00737807,-0.00430983,0.0029919,-0.00916926,-0.393887,0.00731696,0.0169657,1581,477,16.7061,49.1064
364,547,16.653,-48.2538,0.00131269,-0.0053535,-0.0032064,0.00260458,-0.0066454,-0.383013,0.00550772,0.0112331,1588,477,16.653,48.2539
371,547,16.6218,-47.3857,0.00144229,-0.00364655,-0.0022033,0.00226367,-0.00446793,-0.356837,0.00395533,0.0105098,1595,477,16.6218,47.3857
378,547,16.5859,-46.5215,0.00158807,-0.00152288,-0.00121076,0.00200375,-0.00193855,-0.330711,0.00227619,0.0110697,1602,477,16.586,46.5216
385,547,16.5444,-45.6399,0.00164652,-3.76116e-05,-0.000348539,0.0017158,-0.000106893,-0.19622,0.00118111,0.0109463,1609,477,16.5444,45.6399
392,547,16.5065,-44.7505,0.00162596,0.000922093,0.00029782,0.00173506,0.000812991,0.351155,0.0010024,0.0126749,1616,477,16.5064,44.7505
399,547,16.4496,-43.866,0.00154774,0.00168778,0.000801175,0.00242199,0.000813533,0.828985,0.00142322,0.015246,1623,477,16.4496,43.8659
406,547,16.4246,-42.9882,0.00137899,0.002261,0.00124162,0.00313761,0.000502381,0.956042,0.00194602,0.0150218,1630,477,16.4246,42.9882
413,547,16.3998,-42.1092,0.00114188,0.00278956,0.0015889,0.0037555,0.00017594,1.02457,0.00244713,0.0146367,1637,477,16.3998,42.1092
420,547,16.3577,-41.2285,0.000666526,0.00300177,0.00188288,0.00404968,-0.000381383,1.06294,0.00283548,0.0169905,1644,477,16.3577,41.2285
427,547,16.3115,-40.3019,-2.97608e-05,0.00315514,0.00234515,0.0043974,-0.00127203,1.08366,0.00343504,0.0172719,1651,477,16.3116,40.3019
434,547,16.2046,-39.4145,-0.000708218,0.00320427,0.00274397,0.00461794,-0.00212188,1.09507,0.00397919,0.0114071,1658,477,16.2046,39.4145
441,547,16.1283,-38.5239,-0.00151887,0.0032904,0.0033043,0.00497241,-0.00320087,1.09995,0.00475565,0.011003,1665,477,16.1283,38.5239
448,547,16.0652,-37.5783,-0.00248541,0.00341696,0.0039989,0.00543575,-0.00450421,1.10329,0.00574723,0.0123406,1672,477,16.0652,37.5783
455,547,16.0137,-36.644,-0.00358073,0.00359036,0.0049104,0.00608496,-0.00607533,1.10075,0.00702075,0.0124723,1679,477,16.0137,36.644
462,547,15.9154,-35.7073,-0.00460982,0.00410304,0.00603108,0.00718653,-0.00769332,1.09818,0.00859255,0.0123386,1686,477,15.9154,35.7073
469,547,15.7616,-34.7271,-0.00559042,0.00476752,0.00740575,0.00862552,-0.00944842,1.09053,0.0104386,0.0225403,1693,477,15.7616,34.7271
476,547,15.4606,-33.5184,-0.00653057,0.0055523,0.0089999,0.0103505,-0.0113287,1.08099,0.0125207,0.0408462,1700,477,15.4606,33.5184
483,547,15.2178,-32.2046,0,0,0,0,0,0,0,-1,1707,477,15.2178,32.2046
490,547,3.65271,-3.71707,0,0,0,0,0,0,0,-1,1714,477,3.65277,3.71708
497,547,2.55481,-3.81421,0,0,0,0,0,0,0,-1,1721,477,2.55476,3.8142
504,547,4.01953,-2.22714,0,0,0,0,0,0,0,-1,1728,477,4.0195,2.22713
511,547,5.2146,-6.9552,0,0,0,0,0,0,0,-1,1735,477,5.21464,6.95521
518,547,5.24243,-6.56122,0,0,0,0,0,0,0,-1,1742,477,5.24241,6.56121
525,547,5.89368,-5.49866,0,0,0,0,0,0,0,-1,1749,477,5.89372,5.49866
532,547,0,0,0,0,0,0,0,0,0,-1,1756,477,0,0
539,547,0,0,0,0,0,0,0,0,0,-1,1763,477,0,0
546,547,0,0,0,0,0,0,0,0,0,-1,1770,477,0,0
553,547,0,0,0,0,0,0,0,0,0,-1,1777,477,0,0
560,547,0,0,0,0,0,0,0,0,0,-1,1784,477,0,0
567,547,0,0,0,0,0,0,0,0,0,-1,1791,477,0,0
574,547,0,0,0,0,0,0,0,0,0,-1,1798,477,0,0
581,547,0,0,0,0,0,0,0,0,0,-1,1805,477,0,0
588,547,0,0,0,0,0,0,0,0,0,-1,1812,477,0,0
595,547,0,0,0,0,0,0,0,0,0,-1,1819,477,0,0
602,547,0,0,0,0,0,0,0,0,0,-1,1826,477,0,0
609,547,0,0,0,0,0,0,0,0,0,-1,1833,477,0,0
616,547,0,0,0,0,0,0,0,0,0,-1,1840,477,0,0
623,547,0,0,0,0,0,0,0,0,0,-1,1847,477,0,0
630,547,0,0,0,0,0,0,0,0,0,-1,1854,477,0,0
637,547,0,0,0,0,0,0,0,0,0,-1,1861,477,0,0
644,547,0,0,0,0,0,0,0,0,0,-1,1868,477,0,0
651,547,0,0,0,0,0,0,0,0,0,-1,1875,477,0,0
658,547,0,0,0,0,0,0,0,0,0,-1,1882,477,0,0
665,547,0,0,0,0,0,0,0,0,0,-1,1889,477,0,0
672,547,0,0,0,0,0,0,0,0,0,-1,1896,477,0,0
679,547,0,0,0,0,0,0,0,0,0,-1,1903,477,0,0
686,547,0,0,0,0,0,0,0,0,0,-1,1910,477,0,0
693,547,0,0,0,0,0,0,0,0,0,-1,1917,477,0,0
700,547,0,0,0,0,0,0,0,0,0,-1,1924,477,0,0
707,547,0,0,0,0,0,0,0,0,0,-1,1931,477,0,0
714,547,0,0,0,0,0,0,0,0,0,-1,1938,477,0,0
721,547,0,0,0,0,0,0,0,0,0,-1,1945,477,0,0
728,547,0,0,0,0,0,0,0,0,0,-1,1952,477,0,0
735,547,0,0,0,0,0,0,0,0,0,-1,1959,477,0,0
742,547,0,0,0,0,0,0,0,0,0,-1,1966,477,0,0
749,547,0,0,0,0,0,0,0,0,0,-1,1973,477,0,0
756,547,0,0,0,0,0,0,0,0,0,-1,1980,477,0,0
763,547,0,0,0,0,0,0,0,0,0,-1,1987,477,0,0
770,547,0,0,0,0,0,0,0,0,0,-1,1994,477,0,0
777,547,0,0,0,0,0,0,0,0,0,-1,2001,477,0,0
784,547,0,0,0,0,0,0,0,0,0,-1,2008,477,0,0
791,547,0,0,0,0,0,0,0,0,0,-1,2015,477,0,0
798,547,0,0,0,0,0,0,0,0,0,-1,2022,477,0,0
805,547,0,0,0,0,0,0,0,0,0,-1,2029,477,0,0
812,547,0,0,0,0,0,0,0,0,0,-1,2036,477,0,0
-700,540,0,0,0,0,0,0,0,0,0,-1,524,484,0,0
-693,540,0,0,0,0,0,0,0,0,0,-1,531,484,0,0
-686,540,0,0,0,0,0,0,0,0,0,-1,538,484,0,0
-679,540,0,0,0,0,0,0,0,0,0,-1,545,484,0,0
-672,540,0,0,0,0,0,0,0,0,0,-1,552,484,0,0
-665,540,0,0,0,0,0,0,0,0,0,-1,559,484,0,0
-658,540,0,0,0,0,0,0,0,0,0,-1,566,484,0,0
-651,540,0,0,0,0,0,0,0,0,0,-1,573,484,0,0
-644,540,0,0,0,0,0,0,0,0,0,-1,580,484,0,0
-637,540,0,0,0,0,0,0,0,0,0,-1,587,484,0,0
-630,540,0,0,0,0,0,0,0,0,0,-1,594,484,0,0
-623,540,0,0,0,0,0,0,0,0,0,-1,601,484,0,0
-616,540,0,0,0,0,0,0,0,0,0,-1,608,484,0,0
-609,540,0,0,0,0,0,0,0,0,0,-1,615,484,0,0
-602,540,0,0,0,0,0,0,0,0,0,-1,622,484,0,0
-595,540,0,0,0,0,0,0,0,0,0,-1,629,484,0,0
-588,540,0,0,0,0,0,0,0,0,0,-1,636,484,0,0
-581,540,0,0,0,0,0,0,0,0,0,-1,643,484,0,0
-574,540,0,0,0,0,0,0,0,0,0,-1,650,484,0,0
-567,540,0,0,0,0,0,0,0,0,0,-1,657,484,0,0
-560,540,0,0,0,0,0,0,0,0,0,-1,664,484,0,0
-553,540,0,0,0,0,0,0,0,0,0,-1,671,484,0,0
-546,540,0,0,0,0,0,0,0,0,0,-1,678,484,0,0
-539,540,0,0,0,0,0,0,0,0,0,-1,685,484,0,0
-532,540,0,0,0,0,0,0,0,0,0,-1,692,484,0,0
-525,540,0,0,0,0,0,0,0,0,0,-1,699,484,0,0
-518,540,0,0,0,0,0,0,0,0,0,-1,706,484,0,0
-511,540,0,0,0,0,0,0,0,0,0,-1,713,484,0,0
-504,540,0,0,0,0,0,0,0,0,0,-1,720,484,0,0
-497,540,0,0,0,0,0,0,0,0,0,-1,727,484,0,0
-490,540,0,0,0,0,0,0,0,0,0,-1,734,484,0,0
-483,540,0,0,0,0,0,0,0,0,0,-1,741,484,0,0
-476,540,0,0,0,0,0,0,0,0,0,-1,748,484,0,0
-469,540,0,0,0,0,0,0,0,0,0,-1,755,484,0,0
-462,540,0,0,0,0,0,0,0,0,0,-1,762,484,0,0
-455,540,0,0,0,0,0,0,0,0,0,-1,769,484,0,0
-448,540,0,0,0,0,0,0,0,0,0,-1,776,484,0,0
-441,540,0,0,0,0,0,0,0,0,0,-1,783,484,0,0
-434,540,0,0,0,0,0,0,0,0,0,-1,790,484,0,0
-427,540,0,0,0,0,0,0,0,0,0,-1,797,484,0,0
-420,540,0.227051,-10.0402,0,0,0,0,0,0,0,-1,804,484,0.227063,10.0402
-413,540,-0.0393677,-10.3862,0,0,0,0,0,0,0,-1,811,484,-0.0393683,10.3862
-406,540,-0.518372,-11.5288,0,0,0,0,0,0,0,-1,818,484,-0.518402,11.5288
-399,540,0.0863037,-11.3801,0,0,0,0,0,0,0,-1,825,484,0.0863201,11.3801
-392,540,-0.517395,-10.6735,0,0,0,0,0,0,0,-1,832,484,-0.517377,10.6735
-385,540,-0.41748,-29.7767,0,0,0,0,0,0,0,-1,839,484,-0.417475,29.7767
-378,540,-0.0524292,-30.2798,0,0,0,0,0,0,0,-1,846,484,-0.0524504,30.2798
-371,540,0.825806,-28.765,0,0,0,0,0,0,0,-1,853,484,0.8258,28.765
-364,540,0.631714,-31.1377,0,0,0,0,0,0,0,-1,860,484,0.631715,31.1377
-357,540,0.422424,-32.3635,0.00276437,0.0290374,-0.0166226,0.0370877,-0.0052859,-1.11979,0.0266623,0.0496815,867,484,0.422451,32.3635
-350,540,0.234619,-33.5465,0.00153278,0.0236512,-0.0133919,0.02996,-0.00477603,-1.13054,0.0217409,0.0345514,874,484,0.234595,33.5465
-343,540,0.166016,-34.8002,0.000611699,0.0192205,-0.0106623,0.0240673,-0.00423514,-1.14414,0.017627,0.0184431,881,484,0.166019,34.8002
-336,540,0.0645142,-35.938,7.64653e-05,0.0156152,-0.00845924,0.0193316,-0.00363988,-1.15686,0.0142567,0.0133704,888,484,0.0645433,35.9381
-329,540,-0.0106812,-36.8541,-0.000265516,0.0125339,-0.00657099,0.0153067,-0.00303828,-1.17149,0.0113535,0.01097,895,484,-0.0106633,36.8541
-322,540,-0.095459,-37.7687,-0.000429179,0.00998706,-0.00501458,0.0120088,-0.0024509,-1.18756,0.00893557,0.0147247,902,484,-0.0954738,37.7687
-315,540,-0.15332,-38.7081,-0.000495339,0.00763759,-0.00358967,0.00899532,-0.00185307,-1.2092,0.00670053,0.0131322,909,484,-0.153301,38.7081
-308,540,-0.169434,-39.6204,-0.00047274,0.00584428,-0.00255256,0.00674677,-0.00137523,-1.23095,0.00501945,0.0130443,916,484,-0.169452,39.6203
-301,540,-0.258789,-40.4814,-0.000207763,0.00417631,-0.00179846,0.00481967,-0.000851123,-1.22725,0.00353118,0.0136032,923,484,-0.25877,40.4814
-294,540,-0.317749,-41.3832,0.000188575,0.00288676,-0.00112313,0.00329308,-0.000217747,-1.22367,0.00227145,0.012319,930,484,-0.317746,41.3832
-287,540,-0.350159,-42.3105,0.00059245,0.00167833,-0.000499278,0.00187299,0.000397784,-1.19903,0.00113945,0.00887633,937,484,-0.350163,42.3105
-280,540,-0.407898,-43.2065,0.000837757,8.78167e-05,0.000128182,0.000859061,6.65126e-05,0.164696,0.000551874,0.00995179,944,484,-0.407911,43.2065
-273,540,-0.446472,-44.0865,0.000851034,-0.0018954,0.00103898,0.00119979,-0.00224416,0.323857,0.00201861,0.0119831,951,484,-0.446495,44.0865
-266,540,-0.483459,-44.9659,0.000979451,-0.00396806,0.0020454,0.00171554,-0.00470415,0.345447,0.00383795,0.0140583,958,484,-0.483478,44.9659
-259,540,-0.541321,-45.8408,0.000858727,-0.0065302,0.00331361,0.00212703,-0.0077985,0.365553,0.00603429,0.0140174,965,484,-0.541326,45.8408
-252,540,-0.574341,-46.6666,0.000389875,-0.00936095,0.00499423,0.00249386,-0.0114649,0.398718,0.00859602,0.0135943,972,484,-0.574345,46.6666
-245,540,-0.602112,-47.5148,-6.83467e-05,-0.012551,0.0066896,0.00283937,-0.0154587,0.410026,0.011371,0.0141905,979,484,-0.602125,47.5148
-238,540,-0.642395,-48.3558,-0.000569255,-0.0160849,0.00856724,0.00323066,-0.0198848,0.417469,0.0144543,0.0115154,986,484,-0.642422,48.3558
-231,540,-0.663757,-49.1703,-0.000946114,-0.0199128,0.0105083,0.00372535,-0.0245843,0.418312,0.017762,0.0147553,993,484,-0.663747,49.1703
-224,540,-0.707275,-49.931,-0.00143223,-0.0238669,0.0125784,0.00420408,-0.0295032,0.421268,0.0212095,0.0207089,1000,484,-0.707284,49.9309
-217,540,-0.73645,-50.5441,-0.00187983,-0.0277764,0.0146903,0.00475411,-0.0344104,0.424172,0.0246781,0.0312928,1007,484,-0.736477,50.5441
-210,540,-0.827637,-51.1401,-0.00214362,-0.0316655,0.0166284,0.00533029,-0.0391394,0.42241,0.0280391,0.0408527,1014,484,-0.827649,51.1402
-203,540,-1.07617,-51.8214,-0.00206521,-0.035179,0.0182434,0.00601432,-0.0432585,0.416912,0.0310386,0.0439514,1021,484,-1.07618,51.8214
-196,540,-1.28967,-52.3741,0,0,0,0,0,0,0,-1,1028,484,-1.28966,52.3742
-189,540,-1.2511,-49.0358,0,0,0,0,0,0,0,-1,1035,484,-1.25113,49.0358
-182,540,-0.826782,-43.3494,0,0,0,0,0,0,0,-1,1042,484,-0.826777,43.3494
-175,540,1.73413,-10.728,0,0,0,0,0,0,0,-1,1049,484,1.73414,10.728
-168,540,1.18164,-7.65347,0,0,0,0,0,0,0,-1,1056,484,1.18163,7.65347
-161,540,-0.405884,-9.86481,0,0,0,0,0,0,0,-1,1063,484,-0.405886,9.8648
-154,540,1.96863,-22.0727,0,0,0,0,0,0,0,-1,1070,484,1.96859,22.0727
-147,540,1.32764,-21.9952,0,0,0,0,0,0,0,-1,1077,484,1.32762,21.9952
-140,540,1.40735,-15.6289,0,0,0,0,0,0,0,-1,1084,484,1.4073,15.6289
-133,540,2.28345,-17.6413,0,0,0,0,0,0,0,-1,1091,484,2.2835,17.6413
-126,540,1.25293,-23.9108,0,0,0,0,0,0,0,-1,1098,484,1.25288,23.9108
-119,540,1.55969,-23.0125,0,0,0,0,0,0,0,-1,1105,484,1.55968,23.0125
-112,540,1.4801,-21.6515,0,0,0,0,0,0,0,-1,1112,484,1.4801,21.6515
-105,540,1.30078,-19.8938,0,0,0,0,0,0,0,-1,1119,484,1.30077,19.8938
-98,540,1.08105,-18.1304,0,0,0,0,0,0,0,-1,1126,484,1.08101,18.1304
-91,540,1.56519,-7.48666,0,0,0,0,0,0,0,-1,1133,484,1.56514,7.48667
-84,540,-0.945923,4.43073,0,0,0,0,0,0,0,-1,1140,484,-0.945891,-4.43074
-77,540,-2.28894,2.14368,0,0,0,0,0,0,0,-1,1147,484,-2.28894,-2.14368
-70,540,-3.75244,-0.452576,0,0,0,0,0,0,0,-1,1154,484,-3.75244,0.452576
-63,540,-5.26257,-3.04767,0,0,0,0,0,0,0,-1,1161,484,-5.26262,3.04766
-56,540,-5.19055,-6.12595,0,0,0,0,0,0,0,-1,1168,484,-5.19057,6.12595
-49,540,-5.63867,-8.52298,0,0,0,0,0,0,0,-1,1175,484,-5.63871,8.52298
-42,540,0,0,0,0,0,0,0,0,0,-1,1182,484,0,0
-35,540,0,0,0,0,0,0,0,0,0,-1,1189,484,0,0
-28,540,0,0,0,0,0,0,0,0,0,-1,1196,484,0,0
-21,540,0,0,0,0,0,0,0,0,0,-1,1203,484,0,0
-14,540,0,0,0,0,0,0,0,0,0,-1,1210,484,0,0
-7,540,0,0,0,0,0,0,0,0,0,-1,1217,484,0,0
0,540,0,0,0,0,0,0,0,0,0,-1,1224,484,0,0
7,540,0,0,0,0,0,0,0,0,0,-1,1231,484,0,0
14,540,0,0,0,0,0,0,0,0,0,-1,1238,484,0,0
21,540,0,0,0,0,0,0,0,0,0,-1,1245,484,0,0
28,540,0,0,0,0,0,0,0,0,0,-1,1252,484,0,0
35,540,0,0,0,0,0,0,0,0,0,-1,1259,484,0,0
42,540,0,0,0,0,0,0,0,0,0,-1,1266,484,0,0
49,540,0,0,0,0,0,0,0,0,0,-1,1273,484,0,0
56,540,0,0,0,0,0,0,0,0,0,-1,1280,484,0,0
63,540,0,0,0,0,0,0,0,0,0,-1,1287,484,0,0
70,540,0,0,0,0,0,0,0,0,0,-1,1294,484,0,0
77,540,0,0,0,0,0,0,0,0,0,-1,1301,484,0,0
84,540,0,0,0,0,0,0,0,0,0,-1,1308,484,0,0
91,540,0,0,0,0,0,0,0,0,0,-1,1315,484,0,0
98,540,0,0,0,0,0,0,0,0,0,-1,1322,484,0,0
105,540,0,0,0,0,0,0,0,0,0,-1,1329,484,0,0
112,540,0,0,0,0,0,0,0,0,0,-1,1336,484,0,0
119,540,0,0,0,0,0,0,0,0,0,-1,1343,484,0,0
126,540,0,0,0,0,0,0,0,0,0,-1,1350,484,0,0
133,540,0,0,0,0,0,0,0,0,0,-1,1357,484,0,0
140,540,0,0,0,0,0,0,0,0,0,-1,1364,484,0,0
147,540,0,0,0,0,0,0,0,0,0,-1,1371,484,0,0
154,540,0,0,0,0,0,0,0,0,0,-1,1378,484,0,0
161,540,0,0,0,0,0,0,0,0,0,-1,1385,484,0,0
168,540,3.05078,-0.0010376,0,0,0,0,0,0,0,-1,1392,484,3.05084,0.00102554
175,540,3.37708,0.617035,0,0,0,0,0,0,0,-1,1399,484,3.37707,-0.617046
182,540,3.32678,1.23267,0,0,0,0,0,0,0,-1,1406,484,3.32678,-1.23266
189,540,3.5813,2.15619,0,0,0,0,0,0,0,-1,1413,484,3.58129,-2.1562
196,540,1.84448,-0.801483,0,0,0,0,0,0,0,-1,1420,484,1.84446,0.80148
203,540,4.14648,0.702087,0,0,0,0,0,0,0,-1,1427,484,4.14645,-0.702089
210,540,4.50671,-0.56076,0,0,0,0,0,0,0,-1,1434,484,4.50667,0.560771
217,540,5.00452,-0.278717,0,0,0,0,0,0,0,-1,1441,484,5.00452,0.278709
224,540,6.44458,-2.83527,0,0,0,0,0,0,0,-1,1448,484,6.44457,2.83525
231,540,6.9231,-3.10504,0,0,0,0,0,0,0,-1,1455,484,6.92307,3.10505
238,540,6.4823,-2.58365,0,0,0,0,0,0,0,-1,1462,484,6.48225,2.58363
245,540,6.02087,-1.97916,0,0,0,0,0,0,0,-1,1469,484,6.02088,1.97915
252,540,6.50647,-3.56006,0,0,0,0,0,0,0,-1,1476,484,6.50649,3.56006
259,540,6.01941,-2.798,0,0,0,0,0,0,0,-1,1483,484,6.01941,2.79801
266,540,5.5332,-2.02853,0,0,0,0,0,0,0,-1,1490,484,5.53323,2.02855
273,540,5.06787,-1.28137,0,0,0,0,0,0,0,-1,1497,484,5.06786,1.28136
280,540,1.62903,-2.14609,0,0,0,0,0,0,0,-1,1504,484,1.62906,2.1461
287,540,1.97156,-2.45053,0,0,0,0,0,0,0,-1,1511,484,1.97159,2.45053
294,540,2.44165,-2.6185,0,0,0,0,0,0,0,-1,1518,484,2.44167,2.6185
301,540,4.36169,-2.54272,0,0,0,0,0,0,0,-1,1525,484,4.36165,2.54272
308,540,4.2019,-4.30469,0,0,0,0,0,0,0,-1,1532,484,4.20193,4.3047
315,540,4.45923,-5.32101,0,0,0,0,0,0,0,-1,1539,484,4.45923,5.32103
322,540,4.71655,-6.33737,0,0,0,0,0,0,0,-1,1546,484,4.71653,6.33736
329,540,15.0289,-44.3801,0,0,0,0,0,0,0,-1,1553,484,15.0289,44.3801
336,540,17.1764,-48.0145,0,0,0,0,0,0,0,-1,1560,484,17.1764,48.0145
343,540,17.5421,-50.0817,0,0,0,0,0,0,0,-1,1567,484,17.5421,50.0817
350,540,17.5498,-49.9783,0,0,0,0,0,0,0,-1,1574,484,17.5499,49.9783
357,540,17.6637,-48.838,0.00100334,-0.0091319,-0.00562745,0.00350863,-0.0116372,-0.418848,0.0091546,0.0369536,1581,484,17.6637,48.838
364,540,17.4891,-48.1066,0.00132691,-0.00665838,-0.00429,0.00319475,-0.00852622,-0.410642,0.00699657,0.0210627,1588,484,17.4891,48.1066
371,540,17.4595,-47.3073,0.00164012,-0.00463986,-0.00312036,0.00292689,-0.00592663,-0.391131,0.00520846,0.0168552,1595,484,17.4595,47.3073
378,540,17.458,-46.463,0.00190886,-0.00214462,-0.00194712,0.00269263,-0.00292839,-0.382683,0.00324625,0.0138013,1602,484,17.458,46.463
385,540,17.4187,-45.5991,0.00206843,-0.000519113,-0.000894994,0.00234782,-0.00079851,-0.302591,0.00188852,0.0141375,1609,484,17.4187,45.5991
392,540,17.348,-44.7265,0.00205857,0.000360486,-0.000231224,0.00208949,0.000329564,-0.132943,0.00129717,0.0131964,1616,484,17.348,44.7265
399,540,17.3151,-43.8572,0.00195086,0.0011372,0.000268642,0.00203156,0.00105651,0.291802,0.00117323,0.0182595,1623,484,17.3151,43.8572
406,540,17.3135,-42.9663,0.00181197,0.00165036,0.000722111,0.00245778,0.00100454,0.72968,0.00142686,0.0192243,1630,484,17.3135,42.9663
413,540,17.2712,-42.0839,0.00167256,0.00218436,0.00113125,0.00308829,0.000768624,0.896632,0.00185647,0.0150119,1637,484,17.2712,42.0839
420,540,17.249,-41.1429,0.00127562,0.00241692,0.00141676,0.00337364,0.000318897,0.97685,0.00215069,0.0148285,1644,484,17.249,41.1429
427,540,17.1769,-40.2414,0.000658825,0.00257315,0.00177706,0.00363443,-0.000402452,1.03243,0.00256764,0.0160531,1651,484,17.1769,40.2414
434,540,17.0862,-39.363,4.46738e-05,0.00264578,0.00214625,0.00385477,-0.00116432,1.0578,0.00303338,0.0180231,1658,484,17.0862,39.363
441,540,17.0466,-38.4406,-0.000635929,0.00280656,0.00265218,0.00424708,-0.00207645,1.07323,0.00372189,0.0202898,1665,484,17.0466,38.4406
448,540,16.9862,-37.5168,-0.00143701,0.00298584,0.00326122,0.00471472,-0.00316588,1.08334,0.00457906,0.0131449,1672,484,16.9862,37.5168
455,540,16.9164,-36.5828,-0.00232406,0.00325556,0.00400737,0.00534858,-0.00441709,1.08947,0.00564675,0.0117061,1679,484,16.9163,36.5828
462,540,16.83,-35.6493,-0.00307775,0.00375573,0.00490759,0.00631884,-0.00564086,1.08949,0.00690863,0.0113546,1686,484,16.8299,35.6493
469,540,16.7343,-34.6774,-0.00373578,0.004412,0.00600705,0.0075963,-0.00692007,1.08337,0.00838406,0.0167235,1693,484,16.7342,34.6774
476,540,16.6327,-33.7587,-0.00432237,0.00519551,0.00725313,0.00911155,-0.00823842,1.07573,0.0100212,0.025104,1700,484,16.6327,33.7587
483,540,16.5995,-32.7417,-0.00485733,0.00623313,0.0086862,0.0109932,-0.00961742,1.06949,0.0119084,0.0398019,1707,484,16.5995,32.7417
490,540,16.7159,-31.631,0,0,0,0,0,0,0,-1,1714,484,16.716,31.631
497,540,10.3452,-16.9359,0,0,0,0,0,0,0,-1,1721,484,10.3453,16.9359
504,540,12.519,-18.0764,0,0,0,0,0,0,0,-1,1728,484,12.519,18.0765
511,540,5.82471,-6.83521,0,0,0,0,0,0,0,-1,1735,484,5.82465,6.83522
518,540,9.98181,-12.4608,0,0,0,0,0,0,0,-1,1742,484,9.98187,12.4608
525,540,12.4843,-16.3481,0,0,0,0,0,0,0,-1,1749,484,12.4842,16.3481
532,540,2.84265,-1.07925,0,0,0,0,0,0,0,-1,1756,484,2.84269,1.07927
539,540,0,0,0,0,0,0,0,0,0,-1,1763,484,0,0
546,540,0,0,0,0,0,0,0,0,0,-1,1770,484,0,0
553,540,0,0,0,0,0,0,0,0,0,-1,1777,484,0,0
560,540,0,0,0,0,0,0,0,0,0,-1,1784,484,0,0
567,540,0,0,0,0,0,0,0,0,0,-1,1791,484,0,0
574,540,0,0,0,0,0,0,0,0,0,-1,1798,484,0,0
581,540,0,0,0,0,0,0,0,0,0,-1,1805,484,0,0
588,540,0,0,0,0,0,0,0,0,0,-1,1812,484,0,0
595,540,0,0,0,0,0,0,0,0,0,-1,1819,484,0,0
602,540,0,0,0,0,0,0,0,0,0,-1,1826,484,0,0
609,540,0,0,0,0,0,0,0,0,0,-1,1833,484,0,0
616,540,0,0,0,0,0,0,0,0,0,-1,1840,484,0,0
623,540,0,0,0,0,0,0,0,0,0,-1,1847,484,0,0
630,540,0,0,0,0,0,0,0,0,0,-1,1854,484,0,0
637,540,0,0,0,0,0,0,0,0,0,-1,1861,484,0,0
644,540,0,0,0,0,0,0,0,0,0,-1,1868,484,0,0
651,540,0,0,0,0,0,0,0,0,0,-1,1875,484,0,0
658,540,0,0,0,0,0,0,0,0,0,-1,1882,484,0,0
665,540,0,0,0,0,0,0,0,0,0,-1,1889,484,0,0
672,540,0,0,0,0,0,0,0,0,0,-1,1896,484,0,0
679,540,0,0,0,0,0,0,0,0,0,-1,1903,484,0,0
686,540,0,0,0,0,0,0,0,0,0,-1,1910,484,0,0
693,540,0,0,0,0,0,0,0,0,0,-1,1917,484,0,0
700,540,0,0,0,0,0,0,0,0,0,-1,1924,484,0,0
707,540,0,0,0,0,0,0,0,0,0,-1,1931,484,0,0
714,540,0,0,0,0,0,0,0,0,0,-1,1938,484,0,0
721,540,0,0,0,0,0,0,0,0,0,-1,1945,484,0,0
728,540,0,0,0,0,0,0,0,0,0,-1,1952,484,0,0
735,540,0,0,0,0,0,0,0,0,0,-1,1959,484,0,0
742,540,0,0,0,0,0,0,0,0,0,-1,1966,484,0,0
749,540,0,0,0,0,0,0,0,0,0,-1,1973,484,0,0
756,540,0,0,0,0,0,0,0,0,0,-1,1980,484,0,0
763,540,0,0,0,0,0,0,0,0,0,-1,1987,484,0,0
770,540,0,0,0,0,0,0,0,0,0,-1,1994,484,0,0
777,540,0,0,0,0,0,0,0,0,0,-1,2001,484,0,0
784,540,0,0,0,0,0,0,0,0,0,-1,2008,484,0,0
791,540,0,0,0,0,0,0,0,0,0,-1,2015,484,0,0
798,540,0,0,0,0,0,0,0,0,0,-1,2022,484,0,0
805,540,0,0,0,0,0,0,0,0,0,-1,2029,484,0,0
812,540,0,0,0,0,0,0,0,0,0,-1,2036,484,0,0
-700,533,0,0,0,0,0,0,0,0,0,-1,524,491,0,0
-693,533,0,0,0,0,0,0,0,0,0,-1,531,491,0,0
-686,533,0,0,0,0,0,0,0,0,0,-1,538,491,0,0
-679,533,0,0,0,0,0,0,0,0,0,-1,545,491,0,0
-672,533,0,0,0,0,0,0,0,0,0,-1,552,491,0,0
-665,533,0,0,0,0,0,0,0,0,0,-1,559,491,0,0
-658,533,0,0,0,0,0,0,0,0,0,-1,566,491,0,0
-651,533,0,0,0,0,0,0,0,0,0,-1,573,491,0,0
-644,533,0,0,0,0,0,0,0,0,0,-1,580,491,0,0
-637,533,0,0,0,0,0,0,0,0,0,-1,587,491,0,0
-630,533,0,0,0,0,0,0,0,0,0,-1,594,491,0,0
-623,533,0,0,0,0,0,0,0,0,0,-1,601,491,0,0
-616,533,0,0,0,0,0,0,0,0,0,-1,608,491,0,0
-609,533,0,0,0,0,0,0,0,0,0,-1,615,491,0,0
-602,533,0,0,0,0,0,0,0,0,0,-1,622,491,0,0
-595,533,0,0,0,0,0,0,0,0,0,-1,629,491,0,0
-588,533,0,0,0,0,0,0,0,0,0,-1,636,491,0,0
-581,533,0,0,0,0,0,0,0,0,0,-1,643,491,0,0
-574,533,0,0,0,0,0,0,0,0,0,-1,650,491,0,0
-567,533,0,0,0,0,0,0,0,0,0,-1,657,491,0,0
-560,533,0,0,0,0,0,0,0,0,0,-1,664,491,0,0
-553,533,0,0,0,0,0,0,0,0,0,-1,671,491,0,0
-546,533,0,0,0,0,0,0,0,0,0,-1,678,491,0,0
-539,533,0,0,0,0,0,0,0,0,0,-1,685,491,0,0
-532,533,0,0,0,0,0,0,0,0,0,-1,692,491,0,0
-525,533,0,0,0,0,0,0,0,0,0,-1,699,491,0,0
-518,533,0,0,0,0,0,0,0,0,0,-1,706,491,0,0
-511,533,0,0,0,0,0,0,0,0,0,-1,713,491,0,0
-504,533,0,0,0,0,0,0,0,0,0,-1,720,491,0,0
-497,533,0,0,0,0,0,0,0,0,0,-1,727,491,0,0
-490,533,0,0,0,0,0,0,0,0,0,-1,734,491,0,0
-483,533,0,0,0,0,0,0,0,0,0,-1,741,491,0,0
-476,533,0,0,0,0,0,0,0,0,0,-1,748,491,0,0
-469,533,0,0,0,0,0,0,0,0,0,-1,755,491,0,0
-462,533,0,0,0,0,0,0,0,0,0,-1,762,491,0,0
-455,533,0,0,0,0,0,0,0,0,0,-1,769,491,0,0
-448,533,0,0,0,0,0,0,0,0,0,-1,776,491,0,0
-441,533,0,0,0,0,0,0,0,0,0,-1,783,491,0,0
-434,533,0,0,0,0,0,0,0,0,0,-1,790,491,0,0
-427,533,0.559814,-4.40222,0,0,0,0,0,0,0,-1,797,491,0.559816,4.40222
-420,533,-1.11127,-10.9054,0,0,0,0,0,0,0,-1,804,491,-1.11124,10.9054
-413,533,-0.704773,-11.0942,0,0,0,0,0,0,0,-1,811,491,-0.704742,11.0942
-406,533,-0.670898,-12.0899,0,0,0,0,0,0,0,-1,818,491,-0.670908,12.0899
-399,533,-0.455017,-12.4423,0,0,0,0,0,0,0,-1,825,491,-0.455032,12.4423
-392,533,-1.89661,-10.3905,0,0,0,0,0,0,0,-1,832,491,-1.89661,10.3905
-385,533,0.797729,-17.0485,0,0,0,0,0,0,0,-1,839,491,0.797746,17.0485
-378,533,-1.89435,-19.6771,0,0,0,0,0,0,0,-1,846,491,-1.89433,19.6771
-371,533,-0.817566,-30.4526,0,0,0,0,0,0,0,-1,853,491,-0.817564,30.4526
-364,533,-0.665344,-31.5952,0.00361077,0.0278478,-0.0166363,0.0363114,-0.00485287,-1.10018,0.0259768,0.0499463,860,491,-0.665328,31.5952
-357,533,-0.57196,-32.7872,0.00262031,0.0232732,-0.0137664,0.0301557,-0.00426222,-1.10719,0.0216647,0.023563,867,491,-0.571966,32.7872
-350,533,-0.654541,-33.8538,0.00168163,0.0189739,-0.011104,0.0244009,-0.0037454,-1.11619,0.0176487,0.0130089,874,491,-0.65453,33.8537
-343,533,-0.742676,-34.8978,0.000965106,0.0152572,-0.00878852,0.0194383,-0.00321599,-1.12674,0.0141532,0.0121895,881,491,-0.742697,34.8978
-336,533,-0.850525,-35.8907,0.000497173,0.0121494,-0.00684535,0.0153123,-0.00266574,-1.13797,0.011203,0.0162719,888,491,-0.850543,35.8907
-329,533,-0.907532,-36.8055,0.000166592,0.00946178,-0.00515009,0.0117513,-0.00212293,-1.15248,0.00862933,0.0157246,895,491,-0.907558,36.8055
-322,533,-0.990295,-37.7067,-7.48744e-07,0.00718734,-0.00371941,0.00876544,-0.00157885,-1.16953,0.00643481,0.0124758,902,491,-0.990303,37.7067
-315,533,-1.04871,-38.6254,-4.72067e-05,0.0051063,-0.00241466,0.00606086,-0.00100177,-1.19433,0.00441257,0.0132628,909,491,-1.0487,38.6254
-308,533,-1.09509,-39.5449,2.89011e-05,0.00356499,-0.00147331,0.00409838,-0.000504493,-1.22344,0.00291501,0.0126008,916,491,-1.09508,39.5449
-301,533,-1.17255,-40.4474,0.000295024,0.00219187,-0.000789325,0.00247736,9.53441e-06,-1.22375,0.0016484,0.0135807,923,491,-1.17258,40.4474
-294,533,-1.20642,-41.3422,0.000702649,0.00112973,-0.000171968,0.00119037,0.000642013,-1.23181,0.000687967,0.0128228,930,491,-1.20643,41.3422
-287,533,-1.22217,-42.2546,0.0011441,5.23836e-05,0.000407656,0.00127952,-8.304e-05,0.32073,0.000882,0.00981146,937,491,-1.22217,42.2546
-280,533,-1.27338,-43.1719,0.00133995,-0.00164831,0.00106264,0.00167929,-0.00198766,0.309104,0.00211961,0.00881841,944,491,-1.27336,43.1719
-273,533,-1.33942,-44.0516,0.00123097,-0.00381425,0.00208376,0.0019803,-0.00456358,0.345208,0.003875,0.0121021,951,491,-1.33942,44.0516
-266,533,-1.37708,-44.9136,0.00130089,-0.00605998,0.00321061,0.00250447,-0.00726356,0.358662,0.00585845,0.0130385,958,491,-1.3771,44.9136
-259,533,-1.39691,-45.7811,0.00103899,-0.00883177,0.00468306,0.00290722,-0.0107,0.379585,0.00827443,0.0144683,965,491,-1.39689,45.7811
-252,533,-1.43518,-46.624,0.000301235,-0.0120828,0.006659,0.00320226,-0.0149838,0.410861,0.0112101,0.0185052,972,491,-1.43519,46.624
-245,533,-1.52063,-47.4396,-0.000522068,-0.0160408,0.00873615,0.00340308,-0.019966,0.422271,0.014578,0.0265465,979,491,-1.52063,47.4397
-238,533,-1.43671,-48.1427,-0.00150402,-0.0204526,0.0110865,0.00360496,-0.0255616,0.431824,0.0183611,0.0290542,986,491,-1.4367,48.1427
-231,533,-1.47418,-48.7058,-0.00238602,-0.0252949,0.0135977,0.00393875,-0.0316197,0.43537,0.0225079,0.0388937,993,491,-1.47416,48.7058
-224,533,-1.79132,-49.3006,-0.00346313,-0.0304345,0.0163737,0.00426348,-0.0381611,0.440909,0.0269744,0.0472143,1000,491,-1.79131,49.3006
-217,533,-1.6181,-50.3679,0,0,0,0,0,0,0,-1,1007,491,-1.61813,50.3678
-210,533,-1.73383,-50.9076,0,0,0,0,0,0,0,-1,1014,491,-1.73381,50.9076
-203,533,-2.05682,-51.6913,0,0,0,0,0,0,0,-1,1021,491,-2.05682,51.6914
-196,533,-2.22546,-48.6072,0,0,0,0,0,0,0,-1,1028,491,-2.22546,48.6072
-189,533,-1.75317,-43.4744,0,0,0,0,0,0,0,-1,1035,491,-1.75312,43.4744
-182,533,1.26123,-11.4969,0,0,0,0,0,0,0,-1,1042,491,1.26128,11.4969
-175,533,0.937744,-7.36966,0,0,0,0,0,0,0,-1,1049,491,0.937769,7.36965
-168,533,2.64807,-2.7543,0,0,0,0,0,0,0,-1,1056,491,2.64812,2.7543
-161,533,1.91833,-1.76553,0,0,0,0,0,0,0,-1,1063,491,1.91836,1.76554
-154,533,0.376709,-11.0633,0,0,0,0,0,0,0,-1,1070,491,0.376715,11.0632
-147,533,0.383789,-12.1586,0,0,0,0,0,0,0,-1,1077,491,0.383829,12.1586
-140,533,1.14001,-15.4608,0,0,0,0,0,0,0,-1,1084,491,1.14005,15.4608
-133,533,0.189941,-16.0795,0,0,0,0,0,0,0,-1,1091,491,0.18994,16.0795
-126,533,2.89612,-2.59003,0,0,0,0,0,0,0,-1,1098,491,2.89608,2.59003
-119,533,1.78284,-22.5394,0,0,0,0,0,0,0,-1,1105,491,1.78279,22.5394
-112,533,1.83862,-21.2401,0,0,0,0,0,0,0,-1,1112,491,1.83859,21.24
-105,533,1.67554,-19.4018,0,0,0,0,0,0,0,-1,1119,491,1.6755,19.4018
-98,533,-1.39392,-5.16367,0,0,0,0,0,0,0,-1,1126,491,-1.39394,5.16367
-91,533,0.367432,4.49753,0,0,0,0,0,0,0,-1,1133,491,0.367468,-4.49754
-84,533,-0.88623,3.03604,0,0,0,0,0,0,0,-1,1140,491,-0.886288,-3.03605
-77,533,0,0,0,0,0,0,0,0,0,-1,1147,491,0,0
-70,533,0,0,0,0,0,0,0,0,0,-1,1154,491,0,0
-63,533,0,0,0,0,0,0,0,0,0,-1,1161,491,0,0
-56,533,0,0,0,0,0,0,0,0,0,-1,1168,491,0,0
-49,533,0,0,0,0,0,0,0,0,0,-1,1175,491,0,0
-42,533,0,0,0,0,0,0,0,0,0,-1,1182,491,0,0
-35,533,0,0,0,0,0,0,0,0,0,-1,1189,491,0,0
-28,533,0,0,0,0,0,0,0,0,0,-1,1196,491,0,0
-21,533,0,0,0,0,0,0,0,0,0,-1,1203,491,0,0
-14,533,0,0,0,0,0,0,0,0,0,-1,1210,491,0,0
-7,533,0,0,0,0,0,0,0,0,0,-1,1217,491,0,0
0,533,0,0,0,0,0,0,0,0,0,-1,1224,491,0,0
7,533,0,0,0,0,0,0,0,0,0,-1,1231,491,0,0
14,533,0,0,0,0,0,0,0,0,0,-1,1238,491,0,0
21,533,0,0,0,0,0,0,0,0,0,-1,1245,491,0,0
28,533,0,0,0,0,0,0,0,0,0,-1,1252,491,0,0
35,533,0,0,0,0,0,0,0,0,0,-1,1259,491,0,0
42,533,0,0,0,0,0,0,0,0,0,-1,1266,491,0,0
49,533,0,0,0,0,0,0,0,0,0,-1,1273,491,0,0
56,533,0,0,0,0,0,0,0,0,0,-1,1280,491,0,0
63,533,0,0,0,0,0,0,0,0,0,-1,1287,491,0,0
70,533,0,0,0,0,0,0,0,0,0,-1,1294,491,0,0
77,533,0,0,0,0,0,0,0,0,0,-1,1301,491,0,0
84,533,0,0,0,0,0,0,0,0,0,-1,1308,491,0,0
91,533,0,0,0,0,0,0,0,0,0,-1,1315,491,0,0
98,533,0,0,0,0,0,0,0,0,0,-1,1322,491,0,0
105,533,0,0,0,0,0,0,0,0,0,-1,1329,491,0,0
112,533,0,0,0,0,0,0,0,0,0,-1,1336,491,0,0
119,533,0,0,0,0,0,0,0,0,0,-1,1343,491,0,0
126,533,0,0,0,0,0,0,0,0,0,-1,1350,491,0,0
133,533,0,0,0,0,0,0,0,0,0,-1,1357,491,0,0
140,533,0,0,0,0,0,0,0,0,0,-1,1364,491,0,0
147,533,0,0,0,0,0,0,0,0,0,-1,1371,491,0,0
154,533,0,0,0,0,0,0,0,0,0,-1,1378,491,0,0
161,533,0,0,0,0,0,0,0,0,0,-1,1385,491,0,0
168,533,0,0,0,0,0,0,0,0,0,-1,1392,491,0,0
175,533,0,0,0,0,0,0,0,0,0,-1,1399,491,0,0
182,533,0,0,0,0,0,0,0,0,0,-1,1406,491,0,0
189,533,0,0,0,0,0,0,0,0,0,-1,1413,491,0,0
196,533,0,0,0,0,0,0,0,0,0,-1,1420,491,0,0
203,533,3.7887,1.16193,0,0,0,0,0,0,0,-1,1427,491,3.78872,-1.16193
210,533,5.09558,-0.216034,0,0,0,0,0,0,0,-1,1434,491,5.09559,0.216028
217,533,6.91614,-2.46814,0,0,0,0,0,0,0,-1,1441,491,6.91618,2.46814
224,533,7.23621,-2.1857,0,0,0,0,0,0,0,-1,1448,491,7.23621,2.1857
231,533,7.23474,-1.92282,0,0,0,0,0,0,0,-1,1455,491,7.2347,1.92282
238,533,7.23535,-1.67258,0,0,0,0,0,0,0,-1,1462,491,7.23539,1.67258
245,533,6.86682,-1.2301,0,0,0,0,0,0,0,-1,1469,491,6.86686,1.23011
252,533,6.63354,-3.07825,0,0,0,0,0,0,0,-1,1476,491,6.6335,3.07824
259,533,6.16431,-2.35037,0,0,0,0,0,0,0,-1,1483,491,6.1643,2.35037
266,533,5.68884,-1.6214,0,0,0,0,0,0,0,-1,1490,491,5.68885,1.6214
273,533,5.21399,-0.864227,0,0,0,0,0,0,0,-1,1497,491,5.21403,0.864227
280,533,1.41089,-1.97946,0,0,0,0,0,0,0,-1,1504,491,1.41087,1.97946
287,533,1.6814,-2.44443,0,0,0,0,0,0,0,-1,1511,491,1.6814,2.44444
294,533,2.2384,-2.57626,0,0,0,0,0,0,0,-1,1518,491,2.23839,2.57625
301,533,3.39941,-4.0817,0,0,0,0,0,0,0,-1,1525,491,3.3994,4.08171
308,533,4.13733,-4.14752,0,0,0,0,0,0,0,-1,1532,491,4.13727,4.14752
315,533,4.80762,-5.29349,0,0,0,0,0,0,0,-1,1539,491,4.80762,5.29347
322,533,5.47803,-6.43942,0,0,0,0,0,0,0,-1,1546,491,5.47798,6.43943
329,533,3.88477,-3.86301,0,0,0,0,0,0,0,-1,1553,491,3.88475,3.86299
336,533,14.5214,-40.908,0,0,0,0,0,0,0,-1,1560,491,14.5214,40.908
343,533,16.3387,-44.9998,0,0,0,0,0,0,0,-1,1567,491,16.3387,44.9998
350,533,17.6749,-47.6289,0,0,0,0,0,0,0,-1,1574,491,17.6749,47.6289
357,533,18.5756,-48.5733,0,0,0,0,0,0,0,-1,1581,491,18.5755,48.5733
364,533,18.5031,-47.8932,0,0,0,0,0,0,0,-1,1588,491,18.5031,47.8932
371,533,18.3323,-47.1327,0,0,0,0,0,0,0,-1,1595,491,18.3323,47.1327
378,533,18.3423,-46.373,0,0,0,0,0,0,0,-1,1602,491,18.3423,46.3731
385,533,18.3313,-45.5222,0.00262267,-0.000183383,-0.00107604,0.00298779,-0.000548504,-0.327128,0.00219763,0.040861,1609,491,18.3313,45.5222
392,533,18.2612,-44.688,0.00260591,0.000551541,-0.000422495,0.00268941,0.000468046,-0.195111,0.00165908,0.0178028,1616,491,18.2612,44.688
399,533,18.2201,-43.8322,0.0024415,0.00127023,3.32066e-05,0.00244244,0.00126929,0.0283207,0.00141051,0.0139616,1623,491,18.2201,43.8322
406,533,18.1976,-42.9272,0.00231361,0.00164898,0.000456652,0.00254606,0.00141652,0.470854,0.00147308,0.0160392,1630,491,18.1977,42.9272
413,533,18.1592,-42.0037,0.00225124,0.00210991,0.000879561,0.00306297,0.00129818,0.745315,0.00177523,0.014592,1637,491,18.1592,42.0037
420,533,18.1042,-41.0886,0.00191313,0.00227188,0.00111089,0.00321778,0.000967227,0.865441,0.0019064,0.0151434,1644,491,18.1042,41.0886
427,533,18.0502,-40.1678,0.00135793,0.00232003,0.00133411,0.00325717,0.000420786,0.958431,0.00204566,0.0156557,1651,491,18.0502,40.1678
434,533,17.9824,-39.2923,0.000780047,0.00232709,0.00163089,0.0033586,-0.00025146,1.00683,0.00232742,0.013442,1658,491,17.9824,39.2923
441,533,17.9485,-38.3794,0.000193648,0.00244715,0.00204864,0.00365845,-0.00101766,1.03682,0.00283964,0.0159504,1665,491,17.9484,38.3794
448,533,17.9064,-37.4551,-0.000472355,0.00258591,0.00254857,0.0040289,-0.00191534,1.05561,0.00350347,0.0175068,1672,491,17.9064,37.4551
455,533,17.8304,-36.5159,-0.00119866,0.00283842,0.00314651,0.0045582,-0.00291844,1.07059,0.00435111,0.0166633,1679,491,17.8305,36.5159
462,533,17.7542,-35.5715,-0.00176957,0.00326932,0.00385486,0.00535504,-0.00385529,1.07484,0.00534104,0.0152714,1686,491,17.7542,35.5715
469,533,17.6949,-34.6596,-0.00222271,0.0038668,0.00473433,0.00645094,-0.00480684,1.07116,0.00652274,0.0101076,1693,491,17.6949,34.6596
476,533,17.6321,-33.6863,-0.00260304,0.00458594,0.0057273,0.00775328,-0.00577038,1.06563,0.00783581,0.0125213,1700,491,17.6321,33.6863
483,533,17.6136,-32.6888,-0.00292778,0.00549774,0.00686816,0.00934221,-0.00677225,1.0605,0.00934304,0.0226782,1707,491,17.6137,32.6889
490,533,17.678,-31.5527,0,0,0,0,0,0,0,-1,1714,491,17.678,31.5527
497,533,16.6541,-29.2406,0,0,0,0,0,0,0,-1,1721,491,16.654,29.2406
504,533,14.6896,-22.6455,0,0,0,0,0,0,0,-1,1728,491,14.6895,22.6455
511,533,13.6221,-19.2798,0,0,0,0,0,0,0,-1,1735,491,13.6221,19.2798
518,533,14.1954,-19.4995,0,0,0,0,0,0,0,-1,1742,491,14.1955,19.4995
525,533,13.7935,-19.6901,0,0,0,0,0,0,0,-1,1749,491,13.7934,19.6901
532,533,15.4377,-17.9016,0,0,0,0,0,0,0,-1,1756,491,15.4377,17.9015
539,533,12.8733,-18.2556,0,0,0,0,0,0,0,-1,1763,491,12.8733,18.2556
546,533,3.59607,1.65799,0,0,0,0,0,0,0,-1,1770,491,3.59605,-1.658
553,533,0,0,0,0,0,0,0,0,0,-1,1777,491,0,0
560,533,0,0,0,0,0,0,0,0,0,-1,1784,491,0,0
567,533,0,0,0,0,0,0,0,0,0,-1,1791,491,0,0
574,533,0,0,0,0,0,0,0,0,0,-1,1798,491,0,0
581,533,0,0,0,0,0,0,0,0,0,-1,1805,491,0,0
588,533,0,0,0,0,0,0,0,0,0,-1,1812,491,0,0
595,533,0,0,0,0,0,0,0,0,0,-1,1819,491,0,0
602,533,0,0,0,0,0,0,0,0,0,-1,1826,491,0,0
609,533,0,0,0,0,0,0,0,0,0,-1,1833,491,0,0
616,533,0,0,0,0,0,0,0,0,0,-1,1840,491,0,0
623,533,0,0,0,0,0,0,0,0,0,-1,1847,491,0,0
630,533,0,0,0,0,0,0,0,0,0,-1,1854,491,0,0
637,533,0,0,0,0,0,0,0,0,0,-1,1861,491,0,0
644,533,0,0,0,0,0,0,0,0,0,-1,1868,491,0,0
651,533,0,0,0,0,0,0,0,0,0,-1,1875,491,0,0
658,533,0,0,0,0,0,0,0,0,0,-1,1882,491,0,0
665,533,0,0,0,0,0,0,0,0,0,-1,1889,491,0,0
672,533,0,0,0,0,0,0,0,0,0,-1,1896,491,0,0
679,533,0,0,0,0,0,0,0,0,0,-1,1903,491,0,0
686,533,0,0,0,0,0,0,0,0,0,-1,1910,491,0,0
693,533,0,0,0,0,0,0,0,0,0,-1,1917,491,0,0
700,533,0,0,0,0,0,0,0,0,0,-1,1924,491,0,0
707,533,0,0,0,0,0,0,0,0,0,-1,1931,491,0,0
714,533,0,0,0,0,0,0,0,0,0,-1,1938,491,0,0
721,533,0,0,0,0,0,0,0,0,0,-1,1945,491,0,0
728,533,0,0,0,0,0,0,0,0,0,-1,1952,491,0,0
735,533,0,0,0,0,0,0,0,0,0,-1,1959,491,0,0
742,533,0,0,0,0,0,0,0,0,0,-1,1966,491,0,0
749,533,0,0,0,0,0,0,0,0,0,-1,1973,491,0,0
756,533,0,0,0,0,0,0,0,0,0,-1,1980,491,0,0
763,533,0,0,0,0,0,0,0,0,0,-1,1987,491,0,0
770,533,0,0,0,0,0,0,0,0,0,-1,1994,491,0,0
777,533,0,0,0,0,0,0,0,0,0,-1,2001,491,0,0
784,533,0,0,0,0,0,0,0,0,0,-1,2008,491,0,0
791,533,0,0,0,0,0,0,0,0,0,-1,2015,491,0,0
798,533,0,0,0,0,0,0,0,0,0,-1,2022,491,0,0
805,533,0,0,0,0,0,0,0,0,0,-1,2029,491,0,0
812,533,0,0,0,0,0,0,0,0,0,-1,2036,491,0,0
-700,526,0,0,0,0,0,0,0,0,0,-1,524,498,0,0
-693,526,0,0,0,0,0,0,0,0,0,-1,531,498,0,0
-686,526,0,0,0,0,0,0,0,0,0,-1,538,498,0,0
-679,526,0,0,0,0,0,0,0,0,0,-1,545,498,0,0
-672,526,0,0,0,0,0,0,0,0,0,-1,552,498,0,0
-665,526,0,0,0,0,0,0,0,0,0,-1,559,498,0,0
-658,526,0,0,0,0,0,0,0,0,0,-1,566,498,0,0
-651,526,0,0,0,0,0,0,0,0,0,-1,573,498,0,0
-644,526,0,0,0,0,0,0,0,0,0,-1,580,498,0,0
-637,526,0,0,0,0,0,0,0,0,0,-1,587,498,0,0
-630,526,0,0,0,0,0,0,0,0,0,-1,594,498,0,0
-623,526,0,0,0,0,0,0,0,0,0,-1,601,498,0,0
-616,526,0,0,0,0,0,0,0,0,0,-1,608,498,0,0
-609,526,0,0,0,0,0,0,0,0,0,-1,615,498,0,0
-602,526,0,0,0,0,0,0,0,0,0,-1,622,498,0,0
-595,526,0,0,0,0,0,0,0,0,0,-1,629,498,0,0
-588,526,0,0,0,0,0,0,0,0,0,-1,636,498,0,0
-581,526,0,0,0,0,0,0,0,0,0,-1,643,498,0,0
-574,526,0,0,0,0,0,0,0,0,0,-1,650,498,0,0
-567,526,0,0,0,0,0,0,0,0,0,-1,657,498,0,0
-560,526,0,0,0,0,0,0,0,0,0,-1,664,498,0,0
-553,526,0,0,0,0,0,0,0,0,0,-1,671,498,0,0
-546,526,0,0,0,0,0,0,0,0,0,-1,678,498,0,0
-539,526,0,0,0,0,0,0,0,0,0,-1,685,498,0,0
-532,526,0,0,0,0,0,0,0,0,0,-1,692,498,0,0
-525,526,0,0,0,0,0,0,0,0,0,-1,699,498,0,0
-518,526,0,0,0,0,0,0,0,0,0,-1,706,498,0,0
-511,526,0,0,0,0,0,0,0,0,0,-1,713,498,0,0
-504,526,0,0,0,0,0,0,0,0,0,-1,720,498,0,0
-497,526,0,0,0,0,0,0,0,0,0,-1,727,498,0,0
-490,526,0,0,0,0,0,0,0,0,0,-1,734,498,0,0
-483,526,0,0,0,0,0,0,0,0,0,-1,741,498,0,0
-476,526,0,0,0,0,0,0,0,0,0,-1,748,498,0,0
-469,526,0,0,0,0,0,0,0,0,0,-1,755,498,0,0
-462,526,0,0,0,0,0,0,0,0,0,-1,762,498,0,0
-455,526,0,0,0,0,0,0,0,0,0,-1,769,498,0,0
-448,526,0,0,0,0,0,0,0,0,0,-1,776,498,0,0
-441,526,0,0,0,0,0,0,0,0,0,-1,783,498,0,0
-434,526,-0.153564,-5.96649,0,0,0,0,0,0,0,-1,790,498,-0.153589,5.9665
-427,526,1.23206,-4.59808,0,0,0,0,0,0,0,-1,797,498,1.23208,4.59809
-420,526,-1.76373,-11.6241,0,0,0,0,0,0,0,-1,804,498,-1.76373,11.6241
-413,526,-1.38965,-11.7916,0,0,0,0,0,0,0,-1,811,498,-1.38963,11.7916
-406,526,-1.35187,-12.5182,0,0,0,0,0,0,0,-1,818,498,-1.35185,12.5181
-399,526,-1.32715,-13.2116,0,0,0,0,0,0,0,-1,825,498,-1.32713,13.2116
-392,526,0.197571,-15.303,0,0,0,0,0,0,0,-1,832,498,0.197598,15.303
-385,526,-2.69397,-19.6176,0,0,0,0,0,0,0,-1,839,498,-2.69399,19.6176
-378,526,-1.45398,-28.8696,0,0,0,0,0,0,0,-1,846,498,-1.45396,28.8696
-371,526,-1.51978,-30.3135,0.00347478,0.0253409,-0.0157908,0.0336141,-0.00479844,-1.08819,0.0241682,0.0472095,853,498,-1.51977,30.3135
-364,526,-1.57886,-31.799,0.00292145,0.0215772,-0.0133039,0.0284975,-0.00399887,-1.09114,0.020462,0.021192,860,498,-1.57884,31.799
-357,526,-1.55249,-32.8661,0.0022837,0.0180299,-0.0110156,0.0236967,-0.00338313,-1.09567,0.0170379,0.0133341,867,498,-1.55246,32.8661
-350,526,-1.57965,-33.8598,0.00163879,0.0146389,-0.00886054,0.0191279,-0.00285023,-1.10186,0.0138005,0.0135106,874,498,-1.57965,33.8598
-343,526,-1.67413,-34.8304,0.00114314,0.0115715,-0.00693468,0.0150336,-0.00231893,-1.10776,0.0108781,0.0173623,881,498,-1.67415,34.8305
-336,526,-1.75903,-35.7872,0.000777084,0.00893424,-0.00525261,0.0115058,-0.0017945,-1.11552,0.00833337,0.0164174,888,498,-1.75901,35.7872
-329,526,-1.81396,-36.7302,0.000492484,0.0066251,-0.0037561,0.00840756,-0.00128998,-1.12771,0.00608081,0.0174501,895,498,-1.81397,36.7302
-322,526,-1.86694,-37.6359,0.000355257,0.00464429,-0.00247653,0.00577577,-0.000776226,-1.14223,0.00413362,0.0113733,902,498,-1.86696,37.6358
-315,526,-1.93988,-38.5741,0.000355896,0.00286446,-0.00133086,0.00343895,-0.000218593,-1.16329,0.00236886,0.0095934,909,498,-1.93986,38.5741
-308,526,-1.99335,-39.5143,0.000515673,0.00158311,-0.00052084,0.00179513,0.000303649,-1.1842,0.00110948,0.00874327,916,498,-1.99338,39.5143
-301,526,-2.07123,-40.4063,0.000815381,0.00053305,6.28061e-05,0.000828722,0.000519709,0.209307,0.00048359,0.0101667,923,498,-2.07124,40.4063
-294,526,-2.09668,-41.2908,0.00125321,-0.000278716,0.000589906,0.00145404,-0.000479545,0.328136,0.00116266,0.0103802,930,498,-2.09668,41.2908
-287,526,-2.12567,-42.1902,0.00175076,-0.00121132,0.00109502,0.00211161,-0.00157217,0.318328,0.00213442,0.0104461,937,498,-2.12568,42.1902
-280,526,-2.18872,-43.0844,0.0019214,-0.00304809,0.0017625,0.00248303,-0.00360972,0.30848,0.00353764,0.0134753,944,498,-2.18871,43.0844
-273,526,-2.22382,-43.9825,0.00170968,-0.00544681,0.00288007,0.00272477,-0.00646189,0.338856,0.00544824,0.0122441,951,498,-2.22384,43.9825
-266,526,-2.27032,-44.8558,0.00173811,-0.00794993,0.00414571,0.00326994,-0.00948176,0.353937,0.00764783,0.019245,958,498,-2.27031,44.8558
-259,526,-2.24188,-45.7266,0.00133666,-0.0110099,0.00588167,0.00369001,-0.0133633,0.380606,0.0103603,0.0489557,965,498,-2.24186,45.7266
-252,526,-2.28174,-46.6155,0,0,0,0,0,0,0,-1,972,498,-2.28173,46.6155
-245,526,-2.3634,-47.4067,0,0,0,0,0,0,0,-1,979,498,-2.3634,47.4067
-238,526,-2.24066,-47.9487,0,0,0,0,0,0,0,-1,986,498,-2.24063,47.9488
-231,526,-2.33801,-47.8239,0,0,0,0,0,0,0,-1,993,498,-2.33802,47.8239
-224,526,-2.77301,-48.7542,0,0,0,0,0,0,0,-1,1000,498,-2.77302,48.7542
-217,526,-1.73199,-48.4462,0,0,0,0,0,0,0,-1,1007,498,-1.73199,48.4462
-210,526,-1.77289,-44.7313,0,0,0,0,0,0,0,-1,1014,498,-1.77289,44.7313
-203,526,-0.659302,-18.8818,0,0,0,0,0,0,0,-1,1021,498,-0.659273,18.8818
-196,526,-0.328247,-12.179,0,0,0,0,0,0,0,-1,1028,498,-0.328238,12.179
-189,526,0.401245,-5.96826,0,0,0,0,0,0,0,-1,1035,498,0.401197,5.96826
-182,526,1.7323,-2.99405,0,0,0,0,0,0,0,-1,1042,498,1.73226,2.99404
-175,526,2.27637,-2.07983,0,0,0,0,0,0,0,-1,1049,498,2.27639,2.07984
-168,526,2.12036,-1.66049,0,0,0,0,0,0,0,-1,1056,498,2.12035,1.66048
-161,526,2.09082,-1.20572,0,0,0,0,0,0,0,-1,1063,498,2.09086,1.2057
-154,526,-1.3446,-5.37799,0,0,0,0,0,0,0,-1,1070,498,-1.34457,5.37799
-147,526,-0.472656,-6.64996,0,0,0,0,0,0,0,-1,1077,498,-0.472659,6.64997
-140,526,0.422852,-8.03339,0,0,0,0,0,0,0,-1,1084,498,0.422844,8.0334
-133,526,1.09583,-9.2215,0,0,0,0,0,0,0,-1,1091,498,1.09581,9.2215
-126,526,3.42529,-2.36053,0,0,0,0,0,0,0,-1,1098,498,3.42523,2.36052
-119,526,2.7771,-0.764099,0,0,0,0,0,0,0,-1,1105,498,2.7771,0.764107
-112,526,2.57715,-1.1893,0,0,0,0,0,0,0,-1,1112,498,2.57718,1.1893
-105,526,0,0,0,0,0,0,0,0,0,-1,1119,498,0,0
-98,526,0,0,0,0,0,0,0,0,0,-1,1126,498,0,0
-91,526,0,0,0,0,0,0,0,0,0,-1,1133,498,0,0
-84,526,0,0,0,0,0,0,0,0,0,-1,1140,498,0,0
-77,526,0,0,0,0,0,0,0,0,0,-1,1147,498,0,0
-70,526,0,0,0,0,0,0,0,0,0,-1,1154,498,0,0
-63,526,0,0,0,0,0,0,0,0,0,-1,1161,498,0,0
-56,526,0,0,0,0,0,0,0,0,0,-1,1168,498,0,0
-49,526,0,0,0,0,0,0,0,0,0,-1,1175,498,0,0
-42,526,0,0,0,0,0,0,0,0,0,-1,1182,498,0,0
-35,526,0,0,0,0,0,0,0,0,0,-1,1189,498,0,0
-28,526,0,0,0,0,0,0,0,0,0,-1,1196,498,0,0
-21,526,0,0,0,0,0,0,0,0,0,-1,1203,498,0,0
-14,526,0,0,0,0,0,0,0,0,0,-1,1210,498,0,0
-7,526,0,0,0,0,0,0,0,0,0,-1,1217,498,0,0
0,526,0,0,0,0,0,0,0,0,0,-1,1224,498,0,0
7,526,0,0,0,0,0,0,0,0,0,-1,1231,498,0,0
14,526,0,0,0,0,0,0,0,0,0,-1,1238,498,0,0
21,526,0,0,0,0,0,0,0,0,0,-1,1245,498,0,0
28,526,0,0,0,0,0,0,0,0,0,-1,1252,498,0,0
35,526,0,0,0,0,0,0,0,0,0,-1,1259,498,0,0
42,526,0,0,0,0,0,0,0,0,0,-1,1266,498,0,0
49,526,0,0,0,0,0,0,0,0,0,-1,1273,498,0,0
56,526,0,0,0,0,0,0,0,0,0,-1,1280,498,0,0
63,526,0,0,0,0,0,0,0,0,0,-1,1287,498,0,0
70,526,0,0,0,0,0,0,0,0,0,-1,1294,498,0,0
77,526,0,0,0,0,0,0,0,0,0,-1,1301,498,0,0
84,526,0,0,0,0,0,0,0,0,0,-1,1308,498,0,0
91,526,0,0,0,0,0,0,0,0,0,-1,1315,498,0,0
98,526,0,0,0,0,0,0,0,0,0,-1,1322,498,0,0
105,526,0,0,0,0,0,0,0,0,0,-1,1329,498,0,0
112,526,0,0,0,0,0,0,0,0,0,-1,1336,498,0,0
119,526,0,0,0,0,0,0,0,0,0,-1,1343,498,0,0
126,526,0,0,0,0,0,0,0,0,0,-1,1350,498,0,0
133,526,0,0,0,0,0,0,0,0,0,-1,1357,498,0,0
140,526,0,0,0,0,0,0,0,0,0,-1,1364,498,0,0
147,526,0,0,0,0,0,0,0,0,0,-1,1371,498,0,0
154,526,0,0,0,0,0,0,0,0,0,-1,1378,498,0,0
161,526,0,0,0,0,0,0,0,0,0,-1,1385,498,0,0
168,526,0,0,0,0,0,0,0,0,0,-1,1392,498,0,0
175,526,0,0,0,0,0,0,0,0,0,-1,1399,498,0,0
182,526,0,0,0,0,0,0,0,0,0,-1,1406,498,0,0
189,526,0,0,0,0,0,0,0,0,0,-1,1413,498,0,0
196,526,0,0,0,0,0,0,0,0,0,-1,1420,498,0,0
203,526,0,0,0,0,0,0,0,0,0,-1,1427,498,0,0
210,526,0,0,0,0,0,0,0,0,0,-1,1434,498,0,0
217,526,0,0,0,0,0,0,0,0,0,-1,1441,498,0,0
224,526,0,0,0,0,0,0,0,0,0,-1,1448,498,0,0
231,526,7.93237,-1.30618,0,0,0,0,0,0,0,-1,1455,498,7.93238,1.30618
238,526,7.97717,-1.08197,0,0,0,0,0,0,0,-1,1462,498,7.97723,1.08196
245,526,7.2793,-0.792938,0,0,0,0,0,0,0,-1,1469,498,7.27931,0.792926
252,526,6.73523,-2.23608,0,0,0,0,0,0,0,-1,1476,498,6.73525,2.23608
259,526,6.22949,-1.84967,0,0,0,0,0,0,0,-1,1483,498,6.22953,1.84968
266,526,5.72375,-1.46329,0,0,0,0,0,0,0,-1,1490,498,5.72381,1.46328
273,526,4.33984,0.49173,0,0,0,0,0,0,0,-1,1497,498,4.33979,-0.491727
280,526,1.4585,-1.59897,0,0,0,0,0,0,0,-1,1504,498,1.45846,1.59895
287,526,1.46411,-2.40134,0,0,0,0,0,0,0,-1,1511,498,1.46406,2.40133
294,526,5.57471,-4.59085,0,0,0,0,0,0,0,-1,1518,498,5.57466,4.59084
301,526,4.42786,-3.99677,0,0,0,0,0,0,0,-1,1525,498,4.42788,3.99676
308,526,5.79529,-4.19366,0,0,0,0,0,0,0,-1,1532,498,5.79528,4.19368
315,526,5.09851,-5.20068,0,0,0,0,0,0,0,-1,1539,498,5.09851,5.20068
322,526,5.50708,-4.72348,0,0,0,0,0,0,0,-1,1546,498,5.50713,4.72347
329,526,3.88672,-4.345,0,0,0,0,0,0,0,-1,1553,498,3.88674,4.34501
336,526,4.97876,-2.23828,0,0,0,0,0,0,0,-1,1560,498,4.97877,2.23828
343,526,3.31665,-2.69696,0,0,0,0,0,0,0,-1,1567,498,3.31667,2.69696
350,526,6.06287,-6.12015,0,0,0,0,0,0,0,-1,1574,498,6.06286,6.12014
357,526,18.325,-47.38,0,0,0,0,0,0,0,-1,1581,498,18.325,47.38
364,526,19.5251,-47.8781,0,0,0,0,0,0,0,-1,1588,498,19.5251,47.8781
371,526,12.4481,-29.0131,0,0,0,0,0,0,0,-1,1595,498,12.4481,29.0131
378,526,18.5414,-46.6567,0,0,0,0,0,0,0,-1,1602,498,18.5413,46.6567
385,526,19.1123,-45.7093,0,0,0,0,0,0,0,-1,1609,498,19.1123,45.7093
392,526,19.0099,-44.8314,0,0,0,0,0,0,0,-1,1616,498,19.0099,44.8314
399,526,19.0405,-43.8041,0.00299442,0.00190203,1.36435e-05,0.00299459,0.00190186,0.012487,0.00174984,0.0340085,1623,498,19.0405,43.8041
406,526,19.0928,-42.8553,0.00288801,0.00208169,0.000384001,0.00304162,0.00192808,0.380532,0.00177695,0.0133877,1630,498,19.0928,42.8553
413,526,19.0634,-41.9614,0.00289753,0.00240189,0.000786381,0.00347421,0.0018252,0.632755,0.0020067,0.0128426,1637,498,19.0634,41.9613
420,526,19.0028,-41.0549,0.00260194,0.00242313,0.00093275,0.00344956,0.00157551,0.737618,0.00199409,0.0148656,1644,498,19.0028,41.0549
427,526,18.9546,-40.1495,0.00208808,0.00228777,0.00100173,0.00319462,0.00118123,0.835071,0.00186516,0.0155211,1651,498,18.9546,40.1495
434,526,18.8856,-39.236,0.00151603,0.00217244,0.00120449,0.00309264,0.000595833,0.91841,0.00189464,0.0130886,1658,498,18.8856,39.236
441,526,18.8292,-38.3088,0.000987048,0.00218469,0.00151513,0.00321504,-4.33011e-05,0.973591,0.00215794,0.0117267,1665,498,18.8292,38.3088
448,526,18.8088,-37.4097,0.000415873,0.00223557,0.00189731,0.00342991,-0.000778471,1.00897,0.00258546,0.0107835,1672,498,18.8088,37.4096
455,526,18.7319,-36.4883,-0.000200239,0.0024199,0.00235464,0.00380438,-0.00158472,1.03926,0.00319816,0.0135087,1679,498,18.7319,36.4883
462,526,18.6776,-35.54,-0.000650074,0.00277376,0.00290887,0.00443708,-0.00231339,1.05136,0.00396115,0.010784,1686,498,18.6776,35.54
469,526,18.6403,-34.6109,-0.000977722,0.00329588,0.00362028,0.00536293,-0.00304477,1.052,0.00491531,0.00804746,1693,498,18.6402,34.6109
476,526,18.5686,-33.6564,-0.00124669,0.00392023,0.00442613,0.0064617,-0.00378816,1.04957,0.00598449,0.00938166,1700,498,18.5686,33.6564
483,526,18.5142,-32.6376,-0.00145229,0.00466667,0.00535405,0.00777373,-0.00455935,1.04497,0.00720067,0.0134621,1707,498,18.5142,32.6375
490,526,18.5352,-31.5889,-0.00150491,0.00549433,0.00648832,0.00936667,-0.00537724,1.03272,0.00861564,0.0379465,1714,498,18.5352,31.5889
497,526,18.6003,-30.635,0,0,0,0,0,0,0,-1,1721,498,18.6003,30.635
504,526,17.8074,-28.809,0,0,0,0,0,0,0,-1,1728,498,17.8073,28.809
511,526,16.8915,-24.8813,0,0,0,0,0,0,0,-1,1735,498,16.8914,24.8813
518,526,14.7889,-20.4046,0,0,0,0,0,0,0,-1,1742,498,14.7889,20.4046
525,526,14.7009,-19.7487,0,0,0,0,0,0,0,-1,1749,498,14.7009,19.7486
532,526,15.7457,-17.9624,0,0,0,0,0,0,0,-1,1756,498,15.7458,17.9624
539,526,16.1064,-16.42,0,0,0,0,0,0,0,-1,1763,498,16.1065,16.42
546,526,12.4675,-17.1617,0,0,0,0,0,0,0,-1,1770,498,12.4675,17.1617
553,526,3.40796,1.37137,0,0,0,0,0,0,0,-1,1777,498,3.40792,-1.37138
560,526,0,0,0,0,0,0,0,0,0,-1,1784,498,0,0
567,526,0,0,0,0,0,0,0,0,0,-1,1791,498,0,0
574,526,0,0,0,0,0,0,0,0,0,-1,1798,498,0,0
581,526,0,0,0,0,0,0,0,0,0,-1,1805,498,0,0
588,526,0,0,0,0,0,0,0,0,0,-1,1812,498,0,0
595,526,0,0,0,0,0,0,0,0,0,-1,1819,498,0,0
602,526,0,0,0,0,0,0,0,0,0,-1,1826,498,0,0
609,526,0,0,0,0,0,0,0,0,0,-1,1833,498,0,0
616,526,0,0,0,0,0,0,0,0,0,-1,1840,498,0,0
623,526,0,0,0,0,0,0,0,0,0,-1,1847,498,0,0
630,526,0,0,0,0,0,0,0,0,0,-1,1854,498,0,0
637,526,0,0,0,0,0,0,0,0,0,-1,1861,498,0,0
644,526,0,0,0,0,0,0,0,0,0,-1,1868,498,0,0
651,526,0,0,0,0,0,0,0,0,0,-1,1875,498,0,0
658,526,0,0,0,0,0,0,0,0,0,-1,1882,498,0,0
665,526,0,0,0,0,0,0,0,0,0,-1,1889,498,0,0
672,526,0,0,0,0,0,0,0,0,0,-1,1896,498,0,0
679,526,0,0,0,0,0,0,0,0,0,-1,1903,498,0,0
686,526,0,0,0,0,0,0,0,0,0,-1,1910,498,0,0
693,526,0,0,0,0,0,0,0,0,0,-1,1917,498,0,0
700,526,0,0,0,0,0,0,0,0,0,-1,1924,498,0,0
707,526,0,0,0,0,0,0,0,0,0,-1,1931,498,0,0
714,526,0,0,0,0,0,0,0,0,0,-1,1938,498,0,0
721,526,0,0,0,0,0,0,0,0,0,-1,1945,498,0,0
728,526,0,0,0,0,0,0,0,0,0,-1,1952,498,0,0
735,526,0,0,0,0,0,0,0,0,0,-1,1959,498,0,0
742,526,0,0,0,0,0,0,0,0,0,-1,1966,498,0,0
749,526,0,0,0,0,0,0,0,0,0,-1,1973,498,0,0
756,526,0,0,0,0,0,0,0,0,0,-1,1980,498,0,0
763,526,0,0,0,0,0,0,0,0,0,-1,1987,498,0,0
770,526,0,0,0,0,0,0,0,0,0,-1,1994,498,0,0
777,526,0,0,0,0,0,0,0,0,0,-1,2001,498,0,0
784,526,0,0,0,0,0,0,0,0,0,-1,2008,498,0,0
791,526,0,0,0,0,0,0,0,0,0,-1,2015,498,0,0
798,526,0,0,0,0,0,0,0,0,0,-1,2022,498,0,0
805,526,0,0,0,0,0,0,0,0,0,-1,2029,498,0,0
812,526,0,0,0,0,0,0,0,0,0,-1,2036,498,0,0
-700,519,0,0,0,0,0,0,0,0,0,-1,524,505,0,0
-693,519,0,0,0,0,0,0,0,0,0,-1,531,505,0,0
-686,519,0,0,0,0,0,0,0,0,0,-1,538,505,0,0
-679,519,0,0,0,0,0,0,0,0,0,-1,545,505,0,0
-672,519,0,0,0,0,0,0,0,0,0,-1,552,505,0,0
-665,519,0,0,0,0,0,0,0,0,0,-1,559,505,0,0
-658,519,0,0,0,0,0,0,0,0,0,-1,566,505,0,0
-651,519,0,0,0,0,0,0,0,0,0,-1,573,505,0,0
-644,519,0,0,0,0,0,0,0,0,0,-1,580,505,0,0
-637,519,0,0,0,0,0,0,0,0,0,-1,587,505,0,0
-630,519,0,0,0,0,0,0,0,0,0,-1,594,505,0,0
-623,519,0,0,0,0,0,0,0,0,0,-1,601,505,0,0
-616,519,0,0,0,0,0,0,0,0,0,-1,608,505,0,0
-609,519,0,0,0,0,0,0,0,0,0,-1,615,505,0,0
-602,519,0,0,0,0,0,0,0,0,0,-1,622,505,0,0
-595,519,0,0,0,0,0,0,0,0,0,-1,629,505,0,0
-588,519,0,0,0,0,0,0,0,0,0,-1,636,505,0,0
-581,519,0,0,0,0,0,0,0,0,0,-1,643,505,0,0
-574,519,0,0,0,0,0,0,0,0,0,-1,650,505,0,0
-567,519,0,0,0,0,0,0,0,0,0,-1,657,505,0,0
-560,519,0,0,0,0,0,0,0,0,0,-1,664,505,0,0
-553,519,0,0,0,0,0,0,0,0,0,-1,671,505,0,0
-546,519,0,0,0,0,0,0,0,0,0,-1,678,505,0,0
-539,519,0,0,0,0,0,0,0,0,0,-1,685,505,0,0
-532,519,0,0,0,0,0,0,0,0,0,-1,692,505,0,0
-525,519,0,0,0,0,0,0,0,0,0,-1,699,505,0,0
-518,519,0,0,0,0,0,0,0,0,0,-1,706,505,0,0
-511,519,0,0,0,0,0,0,0,0,0,-1,713,505,0,0
-504,519,0,0,0,0,0,0,0,0,0,-1,720,505,0,0
-497,519,0,0,0,0,0,0,0,0,0,-1,727,505,0,0
-490,519,0,0,0,0,0,0,0,0,0,-1,734,505,0,0
-483,519,0,0,0,0,0,0,0,0,0,-1,741,505,0,0
-476,519,0,0,0,0,0,0,0,0,0,-1,748,505,0,0
-469,519,0,0,0,0,0,0,0,0,0,-1,755,505,0,0
-462,519,0,0,0,0,0,0,0,0,0,-1,762,505,0,0
-455,519,0,0,0,0,0,0,0,0,0,-1,769,505,0,0
-448,519,0,0,0,0,0,0,0,0,0,-1,776,505,0,0
-441,519,1.34839,-5.29346,0,0,0,0,0,0,0,-1,783,505,1.3484,5.29347
-434,519,0.949585,-5.77313,0,0,0,0,0,0,0,-1,790,505,0.949598,5.77315
-427,519,-0.0523682,-9.31567,0,0,0,0,0,0,0,-1,797,505,-0.0523854,9.31568
-420,519,-2.38867,-12.1938,0,0,0,0,0,0,0,-1,804,505,-2.38867,12.1938
-413,519,-2.2298,-12.4998,0,0,0,0,0,0,0,-1,811,505,-2.22979,12.4998
-406,519,-1.44373,-12.3475,0,0,0,0,0,0,0,-1,818,505,-1.44376,12.3475
-399,519,-1.60516,-15.0849,0,0,0,0,0,0,0,-1,825,505,-1.60518,15.0849
-392,519,-1.94183,-24.8959,0,0,0,0,0,0,0,-1,832,505,-1.94183,24.8958
-385,519,-2.85718,-27.9573,0,0,0,0,0,0,0,-1,839,505,-2.85717,27.9573
-378,519,-2.57007,-29.2675,0,0,0,0,0,0,0,-1,846,505,-2.57006,29.2675
-371,519,-2.38281,-30.6612,0.00275756,0.0193569,-0.0123909,0.0259709,-0.00385653,-1.08049,0.0187323,0.0205601,853,505,-2.38279,30.6612
-364,519,-2.43518,-31.8095,0.00242996,0.0163143,-0.0104397,0.0219093,-0.00316502,-1.07882,0.0157674,0.0116691,860,505,-2.43516,31.8095
-357,519,-2.46149,-32.8586,0.00202117,0.013498,-0.00858646,0.018087,-0.00256789,-1.07997,0.0129988,0.0112347,867,505,-2.46148,32.8586
-350,519,-2.52057,-33.8262,0.00158596,0.010794,-0.00682801,0.0144252,-0.00204524,-1.08203,0.010366,0.0135752,874,505,-2.52054,33.8262
-343,519,-2.62677,-34.739,0.00125494,0.00823983,-0.00521551,0.0110242,-0.00152945,-1.08042,0.00790875,0.0173341,881,505,-2.62675,34.739
-336,519,-2.71613,-35.6771,0.000989381,0.00600192,-0.00376842,0.0080214,-0.0010301,-1.07885,0.00572196,0.0175448,888,505,-2.71614,35.6771
-329,519,-2.72711,-36.6446,0.000767916,0.00402721,-0.00246259,0.00535054,-0.000555416,-1.0777,0.00376584,0.0154239,895,505,-2.72712,36.6446
-322,519,-2.76813,-37.5686,0.00067531,0.00232318,-0.00133381,0.00306702,-6.85338e-05,-1.06207,0.0020679,0.0118878,902,505,-2.7681,37.5686
-315,519,-2.84802,-38.5045,0.000733995,0.000857546,-0.000359609,0.00116065,0.000430894,-0.87046,0.000677464,0.00897562,909,505,-2.84801,38.5045
-308,519,-2.91119,-39.4576,0.000993619,-0.000160876,0.000309221,0.00107122,-0.000238481,0.245892,0.000805498,0.00784112,916,505,-2.91122,39.4576
-301,519,-3.00647,-40.3571,0.00133534,-0.000866928,0.000795147,0.00159243,-0.00112401,0.312707,0.00157609,0.0124965,923,505,-3.00649,40.3571
-294,519,-3.01953,-41.2053,0.00178234,-0.00141017,0.0012463,0.00221126,-0.00183908,0.331452,0.00234175,0.0160893,930,505,-3.01953,41.2053
-287,519,-3.05872,-42.1081,0.00230833,-0.00217306,0.00167683,0.00286629,-0.00273102,0.321223,0.00323192,0.0123899,937,505,-3.05869,42.1081
-280,519,-3.14038,-43.0212,0.00242082,-0.00416889,0.00236546,0.00318201,-0.00493008,0.311328,0.00471962,0.0269828,944,505,-3.1404,43.0212
-273,519,-3.13483,-43.9349,0,0,0,0,0,0,0,-1,951,505,-3.13484,43.9349
-266,519,-3.17114,-44.9188,0,0,0,0,0,0,0,-1,958,505,-3.17114,44.9188
-259,519,-3.01221,-45.9983,0,0,0,0,0,0,0,-1,965,505,-3.01219,45.9983
-252,519,-1.84009,-26.8372,0,0,0,0,0,0,0,-1,972,505,-1.8401,26.8372
-245,519,-1.23254,-23.2696,0,0,0,0,0,0,0,-1,979,505,-1.23256,23.2696
-238,519,-2.53619,-45.4996,0,0,0,0,0,0,0,-1,986,505,-2.53617,45.4996
-231,519,-3.05591,-47.0821,0,0,0,0,0,0,0,-1,993,505,-3.05589,47.0821
-224,519,-3.33752,-42.7635,0,0,0,0,0,0,0,-1,1000,505,-3.33753,42.7635
-217,519,-2.87396,-38.149,0,0,0,0,0,0,0,-1,1007,505,-2.87394,38.149
-210,519,-0.883362,-34.799,0,0,0,0,0,0,0,-1,1014,505,-0.883379,34.799
-203,519,-0.513611,-5.39017,0,0,0,0,0,0,0,-1,1021,505,-0.513585,5.39017
-196,519,-0.374023,-5.41635,0,0,0,0,0,0,0,-1,1028,505,-0.374047,5.41635
-189,519,-0.234497,-5.44254,0,0,0,0,0,0,0,-1,1035,505,-0.234508,5.44253
-182,519,2.76697,-1.19659,0,0,0,0,0,0,0,-1,1042,505,2.76696,1.19661
-175,519,2.31323,-0.960938,0,0,0,0,0,0,0,-1,1049,505,2.31319,0.960941
-168,519,2.01074,-0.721405,0,0,0,0,0,0,0,-1,1056,505,2.01072,0.721407
-161,519,2.32056,-0.522339,0,0,0,0,0,0,0,-1,1063,505,2.32057,0.522328
-154,519,2.55566,0.116669,0,0,0,0,0,0,0,-1,1070,505,2.55563,-0.116661
-147,519,-0.55127,-6.14001,0,0,0,0,0,0,0,-1,1077,505,-0.551252,6.14001
-140,519,0.240601,-7.53503,0,0,0,0,0,0,0,-1,1084,505,0.240653,7.53501
-133,519,2.70911,-4.4516,0,0,0,0,0,0,0,-1,1091,505,2.70915,4.45161
-126,519,0,0,0,0,0,0,0,0,0,-1,1098,505,0,0
-119,519,0,0,0,0,0,0,0,0,0,-1,1105,505,0,0
-112,519,0,0,0,0,0,0,0,0,0,-1,1112,505,0,0
-105,519,0,0,0,0,0,0,0,0,0,-1,1119,505,0,0
-98,519,0,0,0,0,0,0,0,0,0,-1,1126,505,0,0
-91,519,0,0,0,0,0,0,0,0,0,-1,1133,505,0,0
-84,519,0,0,0,0,0,0,0,0,0,-1,1140,505,0,0
-77,519,0,0,0,0,0,0,0,0,0,-1,1147,505,0,0
-70,519,0,0,0,0,0,0,0,0,0,-1,1154,505,0,0
-63,519,0,0,0,0,0,0,0,0,0,-1,1161,505,0,0
-56,519,0,0,0,0,0,0,0,0,0,-1,1168,505,0,0
-49,519,0,0,0,0,0,0,0,0,0,-1,1175,505,0,0
-42,519,0,0,0,0,0,0,0,0,0,-1,1182,505,0,0
-35,519,0,0,0,0,0,0,0,0,0,-1,1189,505,0,0
-28,519,0,0,0,0,0,0,0,0,0,-1,1196,505,0,0
-21,519,0,0,0,0,0,0,0,0,0,-1,1203,505,0,0
-14,519,0,0,0,0,0,0,0,0,0,-1,1210,505,0,0
-7,519,0,0,0,0,0,0,0,0,0,-1,1217,505,0,0
0,519,0,0,0,0,0,0,0,0,0,-1,1224,505,0,0
7,519,0,0,0,0,0,0,0,0,0,-1,1231,505,0,0
14,519,0,0,0,0,0,0,0,0,0,-1,1238,505,0,0
21,519,0,0,0,0,0,0,0,0,0,-1,1245,505,0,0
28,519,0,0,0,0,0,0,0,0,0,-1,1252,505,0,0
35,519,0,0,0,0,0,0,0,0,0,-1,1259,505,0,0
42,519,0,0,0,0,0,0,0,0,0,-1,1266,505,0,0
49,519,0,0,0,0,0,0,0,0,0,-1,1273,505,0,0
56,519,0,0,0,0,0,0,0,0,0,-1,1280,505,0,0
63,519,0,0,0,0,0,0,0,0,0,-1,1287,505,0,0
70,519,0,0,0,0,0,0,0,0,0,-1,1294,505,0,0
77,519,0,0,0,0,0,0,0,0,0,-1,1301,505,0,0
84,519,0,0,0,0,0,0,0,0,0,-1,1308,505,0,0
91,519,0,0,0,0,0,0,0,0,0,-1,1315,505,0,0
98,519,0,0,0,0,0,0,0,0,0,-1,1322,505,0,0
105,519,0,0,0,0,0,0,0,0,0,-1,1329,505,0,0
112,519,0,0,0,0,0,0,0,0,0,-1,1336,505,0,0
119,519,0,0,0,0,0,0,0,0,0,-1,1343,505,0,0
126,519,0,0,0,0,0,0,0,0,0,-1,1350,505,0,0
133,519,0,0,0,0,0,0,0,0,0,-1,1357,505,0,0
140,519,0,0,0,0,0,0,0,0,0,-1,1364,505,0,0
147,519,0,0,0,0,0,0,0,0,0,-1,1371,505,0,0
154,519,0,0,0,0,0,0,0,0,0,-1,1378,505,0,0
161,519,0,0,0,0,0,0,0,0,0,-1,1385,505,0,0
168,519,0,0,0,0,0,0,0,0,0,-1,1392,505,0,0
175,519,0,0,0,0,0,0,0,0,0,-1,1399,505,0,0
182,519,0,0,0,0,0,0,0,0,0,-1,1406,505,0,0
189,519,0,0,0,0,0,0,0,0,0,-1,1413,505,0,0
196,519,0,0,0,0,0,0,0,0,0,-1,1420,505,0,0
203,519,0,0,0,0,0,0,0,0,0,-1,1427,505,0,0
210,519,0,0,0,0,0,0,0,0,0,-1,1434,505,0,0
217,519,0,0,0,0,0,0,0,0,0,-1,1441,505,0,0
224,519,0,0,0,0,0,0,0,0,0,-1,1448,505,0,0
231,519,0,0,0,0,0,0,0,0,0,-1,1455,505,0,0
238,519,0,0,0,0,0,0,0,0,0,-1,1462,505,0,0
245,519,0,0,0,0,0,0,0,0,0,-1,1469,505,0,0
252,519,5.26208,0.0938416,0,0,0,0,0,0,0,-1,1476,505,5.26207,-0.0938493
259,519,6.14246,-1.36441,0,0,0,0,0,0,0,-1,1483,505,6.14241,1.36441
266,519,5.31909,-0.400787,0,0,0,0,0,0,0,-1,1490,505,5.31912,0.400773
273,519,4.02393,0.325531,0,0,0,0,0,0,0,-1,1497,505,4.0239,-0.325522
280,519,4.68848,0.53006,0,0,0,0,0,0,0,-1,1504,505,4.68842,-0.530073
287,519,7.9519,-3.80801,0,0,0,0,0,0,0,-1,1511,505,7.95193,3.808
294,519,6.92273,-3.38889,0,0,0,0,0,0,0,-1,1518,505,6.92268,3.38888
301,519,5.35669,-2.92661,0,0,0,0,0,0,0,-1,1525,505,5.35675,2.9266
308,519,7.37549,-5.64529,0,0,0,0,0,0,0,-1,1532,505,7.3755,5.64529
315,519,6.30029,-4.53754,0,0,0,0,0,0,0,-1,1539,505,6.30024,4.53753
322,519,5.84302,-5.45117,0,0,0,0,0,0,0,-1,1546,505,5.84303,5.45116
329,519,4.92407,0.62384,0,0,0,0,0,0,0,-1,1553,505,4.92403,-0.623832
336,519,3.10095,-0.329285,0,0,0,0,0,0,0,-1,1560,505,3.1009,0.329283
343,519,2.49146,-2.31119,0,0,0,0,0,0,0,-1,1567,505,2.49145,2.31119
350,519,3.47729,-2.22516,0,0,0,0,0,0,0,-1,1574,505,3.47726,2.22515
357,519,13.271,-29.6344,0,0,0,0,0,0,0,-1,1581,505,13.271,29.6344
364,519,12.8292,-28.3627,0,0,0,0,0,0,0,-1,1588,505,12.8292,28.3627
371,519,12.3875,-27.0911,0,0,0,0,0,0,0,-1,1595,505,12.3874,27.091
378,519,6.36597,-10.0967,0,0,0,0,0,0,0,-1,1602,505,6.36597,10.0967
385,519,6.24756,-9.72186,0,0,0,0,0,0,0,-1,1609,505,6.24752,9.72183
392,519,16.8391,-37.6736,0,0,0,0,0,0,0,-1,1616,505,16.8391,37.6737
399,519,20.0426,-43.9085,0,0,0,0,0,0,0,-1,1623,505,20.0426,43.9085
406,519,19.98,-42.9017,0.00338512,0.00286216,0.000319033,0.00353613,0.00271114,0.442111,0.0021362,0.0476429,1630,505,19.98,42.9017
413,519,20.0079,-41.9297,0.00350897,0.00298455,0.000708832,0.00400254,0.00249099,0.608245,0.00233381,0.0179939,1637,505,20.008,41.9297
420,519,19.9247,-40.9503,0.00327671,0.00279438,0.000779954,0.00385193,0.00221916,0.635458,0.00223249,0.0169155,1644,505,19.9247,40.9502
427,519,19.8926,-40.0898,0.00280714,0.00239522,0.000717991,0.00334813,0.00185423,0.645721,0.00193677,0.0162183,1651,505,19.8926,40.0898
434,519,19.8062,-39.187,0.00221731,0.00210838,0.000839232,0.00300384,0.00132185,0.752995,0.00173842,0.0141599,1658,505,19.8061,39.187
441,519,19.7277,-38.2406,0.00171665,0.00197711,0.00105308,0.00290798,0.000785778,0.846919,0.00173702,0.012913,1665,505,19.7277,38.2406
448,519,19.7113,-37.3406,0.00121108,0.00191394,0.00133263,0.00294069,0.000184322,0.914319,0.001902,0.00981489,1672,505,19.7113,37.3407
455,519,19.6343,-36.4309,0.000664179,0.00200527,0.00166448,0.0031292,-0.000459749,0.976881,0.00225506,0.0112879,1679,505,19.6342,36.4309
462,519,19.6021,-35.4833,0.000271228,0.00226734,0.00208773,0.00358331,-0.00104474,1.00837,0.0028028,0.0111207,1686,505,19.602,35.4833
469,519,19.5778,-34.5318,1.52185e-05,0.00270805,0.00266524,0.00434766,-0.00162439,1.01929,0.00356546,0.0113355,1693,505,19.5778,34.5318
476,519,19.5206,-33.5704,-0.000192149,0.00323806,0.00332802,0.00526693,-0.00222101,1.02333,0.00444079,0.012727,1700,505,19.5206,33.5705
483,519,19.4747,-32.6171,-0.000333198,0.00383048,0.0040828,0.00633158,-0.0028343,1.02117,0.0054188,0.0130319,1707,505,19.4748,32.6171
490,519,19.3976,-31.631,-0.000358126,0.00450316,0.00497733,0.00761163,-0.0034666,1.01254,0.00654355,0.0123654,1714,505,19.3976,31.6311
497,519,19.3291,-30.6462,0,0,0,0,0,0,0,-1,1721,505,19.3291,30.6462
504,519,19.3323,-29.6354,0,0,0,0,0,0,0,-1,1728,505,19.3323,29.6354
511,519,19.3875,-28.4346,0,0,0,0,0,0,0,-1,1735,505,19.3874,28.4346
518,519,19.4995,-27.3557,0,0,0,0,0,0,0,-1,1742,505,19.4995,27.3557
525,519,15.9647,-20.5714,0,0,0,0,0,0,0,-1,1749,505,15.9648,20.5714
532,519,15.825,-19.0025,0,0,0,0,0,0,0,-1,1756,505,15.8249,19.0025
539,519,16.5902,-16.8075,0,0,0,0,0,0,0,-1,1763,505,16.5903,16.8075
546,519,12.4001,-16.5616,0,0,0,0,0,0,0,-1,1770,505,12.4002,16.5616
553,519,4.14136,0.0667419,0,0,0,0,0,0,0,-1,1777,505,4.14141,-0.0667503
560,519,3.77856,0.279724,0,0,0,0,0,0,0,-1,1784,505,3.77861,-0.279731
567,519,0,0,0,0,0,0,0,0,0,-1,1791,505,0,0
574,519,0,0,0,0,0,0,0,0,0,-1,1798,505,0,0
581,519,0,0,0,0,0,0,0,0,0,-1,1805,505,0,0
588,519,0,0,0,0,0,0,0,0,0,-1,1812,505,0,0
595,519,0,0,0,0,0,0,0,0,0,-1,1819,505,0,0
602,519,0,0,0,0,0,0,0,0,0,-1,1826,505,0,0
609,519,0,0,0,0,0,0,0,0,0,-1,1833,505,0,0
616,519,0,0,0,0,0,0,0,0,0,-1,1840,505,0,0
623,519,0,0,0,0,0,0,0,0,0,-1,1847,505,0,0
630,519,0,0,0,0,0,0,0,0,0,-1,1854,505,0,0
637,519,0,0,0,0,0,0,0,0,0,-1,1861,505,0,0
644,519,0,0,0,0,0,0,0,0,0,-1,1868,505,0,0
651,519,0,0,0,0,0,0,0,0,0,-1,1875,505,0,0
658,519,0,0,0,0,0,0,0,0,0,-1,1882,505,0,0
665,519,0,0,0,0,0,0,0,0,0,-1,1889,505,0,0
672,519,0,0,0,0,0,0,0,0,0,-1,1896,505,0,0
679,519,0,0,0,0,0,0,0,0,0,-1,1903,505,0,0
686,519,0,0,0,0,0,0,0,0,0,-1,1910,505,0,0
693,519,0,0,0,0,0,0,0,0,0,-1,1917,505,0,0
700,519,0,0,0,0,0,0,0,0,0,-1,1924,505,0,0
707,519,0,0,0,0,0,0,0,0,0,-1,1931,505,0,0
714,519,0,0,0,0,0,0,0,0,0,-1,1938,505,0,0
721,519,0,0,0,0,0,0,0,0,0,-1,1945,505,0,0
728,519,0,0,0,0,0,0,0,0,0,-1,1952,505,0,0
735,519,0,0,0,0,0,0,0,0,0,-1,1959,505,0,0
742,519,0,0,0,0,0,0,0,0,0,-1,1966,505,0,0
749,519,0,0,0,0,0,0,0,0,0,-1,1973,505,0,0
756,519,0,0,0,0,0,0,0,0,0,-1,1980,505,0,0
763,519,0,0,0,0,0,0,0,0,0,-1,1987,505,0,0
770,519,0,0,0,0,0,0,0,0,0,-1,1994,505,0,0
777,519,0,0,0,0,0,0,0,0,0,-1,2001,505,0,0
784,519,0,0,0,0,0,0,0,0,0,-1,2008,505,0,0
791,519,0,0,0,0,0,0,0,0,0,-1,2015,505,0,0
798,519,0,0,0,0,0,0,0,0,0,-1,2022,505,0,0
805,519,0,0,0,0,0,0,0,0,0,-1,2029,505,0,0
812,519,0,0,0,0,0,0,0,0,0,-1,2036,505,0,0
-700,512,0,0,0,0,0,0,0,0,0,-1,524,512,0,0
-693,512,0,0,0,0,0,0,0,0,0,-1,531,512,0,0
-686,512,0,0,0,0,0,0,0,0,0,-1,538,512,0,0
-679,512,0,0,0,0,0,0,0,0,0,-1,545,512,0,0
-672,512,0,0,0,0,0,0,0,0,0,-1,552,512,0,0
-665,512,0,0,0,0,0,0,0,0,0,-1,559,512,0,0
-658,512,0,0,0,0,0,0,0,0,0,-1,566,512,0,0
-651,512,0,0,0,0,0,0,0,0,0,-1,573,512,0,0
-644,512,0,0,0,0,0,0,0,0,0,-1,580,512,0,0
-637,512,0,0,0,0,0,0,0,0,0,-1,587,512,0,0
-630,512,0,0,0,0,0,0,0,0,0,-1,594,512,0,0
-623,512,0,0,0,0,0,0,0,0,0,-1,601,512,0,0
-616,512,0,0,0,0,0,0,0,0,0,-1,608,512,0,0
-609,512,0,0,0,0,0,0,0,0,0,-1,615,512,0,0
-602,512,0,0,0,0,0,0,0,0,0,-1,622,512,0,0
-595,512,0,0,0,0,0,0,0,0,0,-1,629,512,0,0
-588,512,0,0,0,0,0,0,0,0,0,-1,636,512,0,0
-581,512,0,0,0,0,0,0,0,0,0,-1,643,512,0,0
-574,512,0,0,0,0,0,0,0,0,0,-1,650,512,0,0
-567,512,0,0,0,0,0,0,0,0,0,-1,657,512,0,0
-560,512,0,0,0,0,0,0,0,0,0,-1,664,512,0,0
-553,512,0,0,0,0,0,0,0,0,0,-1,671,512,0,0
-546,512,0,0,0,0,0,0,0,0,0,-1,678,512,0,0
-539,512,0,0,0,0,0,0,0,0,0,-1,685,512,0,0
-532,512,0,0,0,0,0,0,0,0,0,-1,692,512,0,0
-525,512,0,0,0,0,0,0,0,0,0,-1,699,512,0,0
-518,512,0,0,0,0,0,0,0,0,0,-1,706,512,0,0
-511,512,0,0,0,0,0,0,0,0,0,-1,713,512,0,0
-504,512,0,0,0,0,0,0,0,0,0,-1,720,512,0,0
-497,512,0,0,0,0,0,0,0,0,0,-1,727,512,0,0
-490,512,0,0,0,0,0,0,0,0,0,-1,734,512,0,0
-483,512,0,0,0,0,0,0,0,0,0,-1,741,512,0,0
-476,512,0,0,0,0,0,0,0,0,0,-1,748,512,0,0
-469,512,0,0,0,0,0,0,0,0,0,-1,755,512,0,0
-462,512,0,0,0,0,0,0,0,0,0,-1,762,512,0,0
-455,512,0,0,0,0,0,0,0,0,0,-1,769,512,0,0
-448,512,1.96283,-4.15674,0,0,0,0,0,0,0,-1,776,512,1.96285,4.15677
-441,512,1.78198,-4.88824,0,0,0,0,0,0,0,-1,783,512,1.78201,4.88826
-434,512,0.0726929,-9.85822,0,0,0,0,0,0,0,-1,790,512,0.0727008,9.85819
-427,512,-0.384583,-9.94824,0,0,0,0,0,0,0,-1,797,512,-0.384552,9.94823
-420,512,-2.93219,-12.4855,0,0,0,0,0,0,0,-1,804,512,-2.93219,12.4855
-413,512,-2.22711,-11.4485,0,0,0,0,0,0,0,-1,811,512,-2.22712,11.4485
-406,512,-2.38037,-13.5743,0,0,0,0,0,0,0,-1,818,512,-2.38034,13.5743
-399,512,-3.13367,-23.934,0,0,0,0,0,0,0,-1,825,512,-3.13368,23.934
-392,512,-3.10315,-27.9023,0,0,0,0,0,0,0,-1,832,512,-3.10314,27.9023
-385,512,-3.19757,-28.8722,0,0,0,0,0,0,0,-1,839,512,-3.19759,28.8722
-378,512,-3.27466,-29.8655,0,0,0,0,0,0,0,-1,846,512,-3.27464,29.8655
-371,512,-3.31726,-30.7847,0.00207743,0.0142393,-0.0094193,0.01937,-0.00305328,-1.07203,0.0140422,0.0156233,853,512,-3.31729,30.7846
-364,512,-3.3609,-31.8599,0.0019611,0.0117762,-0.00789883,0.0161679,-0.00243057,-1.06337,0.0116734,0.0105848,860,512,-3.36093,31.8599
-357,512,-3.40552,-32.8311,0.00177117,0.00953955,-0.00640919,0.0131497,-0.00183895,-1.05782,0.00943933,0.012259,867,512,-3.40549,32.8311
-350,512,-3.46814,-33.7819,0.00154238,0.00738428,-0.00498188,0.0102384,-0.00131171,-1.05055,0.00730219,0.0124461,874,512,-3.46814,33.7819
-343,512,-3.57239,-34.7072,0.00137137,0.00526896,-0.00364055,0.0074495,-0.000809168,-1.03114,0.00525686,0.0147301,881,512,-3.5724,34.7072
-336,512,-3.65649,-35.6656,0.00120897,0.00337969,-0.00240805,0.00493568,-0.000347014,-0.997125,0.00341201,0.016293,888,512,-3.65647,35.6656
-329,512,-3.65393,-36.5983,0.00105611,0.0017019,-0.001278,0.00269716,6.08398e-05,-0.909137,0.00177818,0.0179706,895,512,-3.6539,36.5983
-322,512,-3.69867,-37.5021,0.00100922,0.000244748,-0.000291436,0.00110765,0.000146318,-0.325712,0.000694812,0.0147831,902,512,-3.69865,37.5021
-315,512,-3.78052,-38.4641,0.00112446,-0.000910982,0.000503194,0.00124206,-0.00102859,0.229592,0.00131289,0.0116858,909,512,-3.78052,38.4641
-308,512,-3.8551,-39.4017,0.00148434,-0.00169455,0.00102811,0.00178787,-0.00199808,0.287074,0.00218694,0.0111075,916,512,-3.85513,39.4017
-301,512,-3.91193,-40.3065,0.00184724,-0.00209089,0.00143366,0.00231386,-0.00255752,0.314666,0.00281366,0.0156424,923,512,-3.9119,40.3065
-294,512,-3.91846,-41.1553,0.00222521,-0.00242734,0.00186103,0.00287802,-0.00308015,0.337372,0.00344061,0.0178485,930,512,-3.91845,41.1553
-287,512,-3.93433,-42.0208,0,0,0,0,0,0,0,-1,937,512,-3.93433,42.0208
-280,512,-4.07513,-42.9654,0,0,0,0,0,0,0,-1,944,512,-4.07511,42.9654
-273,512,-2.90118,-34.7153,0,0,0,0,0,0,0,-1,951,512,-2.90121,34.7153
-266,512,-2.33594,-25.9839,0,0,0,0,0,0,0,-1,958,512,-2.33592,25.9839
-259,512,-0.525452,-14.0815,0,0,0,0,0,0,0,-1,965,512,-0.525475,14.0815
-252,512,1.45941,-3.43475,0,0,0,0,0,0,0,-1,972,512,1.45938,3.43475
-245,512,-1.6731,-22.8959,0,0,0,0,0,0,0,-1,979,512,-1.67312,22.8959
-238,512,0.227051,-8.92969,0,0,0,0,0,0,0,-1,986,512,0.227073,8.92968
-231,512,-1.90576,-38.0918,0,0,0,0,0,0,0,-1,993,512,-1.90575,38.0918
-224,512,-1.29974,-33.6304,0,0,0,0,0,0,0,-1,1000,512,-1.29974,33.6304
-217,512,-0.963196,-34.1697,0,0,0,0,0,0,0,-1,1007,512,-0.963226,34.1697
-210,512,-3.76642,-1.94702,0,0,0,0,0,0,0,-1,1014,512,-3.76641,1.94702
-203,512,-2.48328,-5.19061,0,0,0,0,0,0,0,-1,1021,512,-2.48328,5.19059
-196,512,-1.14929,-4.63202,0,0,0,0,0,0,0,-1,1028,512,-1.14934,4.632
-189,512,0.197998,4.55505,0,0,0,0,0,0,0,-1,1035,512,0.197996,-4.55506
-182,512,2.73938,0.0778503,0,0,0,0,0,0,0,-1,1042,512,2.73944,-0.077852
-175,512,2.29565,0.209808,0,0,0,0,0,0,0,-1,1049,512,2.29565,-0.209813
-168,512,2.09399,-0.302856,0,0,0,0,0,0,0,-1,1056,512,2.09403,0.302826
-161,512,2.76636,0.0921021,0,0,0,0,0,0,0,-1,1063,512,2.76633,-0.0921104
-154,512,3.41382,0.466187,0,0,0,0,0,0,0,-1,1070,512,3.41382,-0.466178
-147,512,0,0,0,0,0,0,0,0,0,-1,1077,512,0,0
-140,512,0,0,0,0,0,0,0,0,0,-1,1084,512,0,0
-133,512,0,0,0,0,0,0,0,0,0,-1,1091,512,0,0
-126,512,0,0,0,0,0,0,0,0,0,-1,1098,512,0,0
-119,512,0,0,0,0,0,0,0,0,0,-1,1105,512,0,0
-112,512,0,0,0,0,0,0,0,0,0,-1,1112,512,0,0
-105,512,0,0,0,0,0,0,0,0,0,-1,1119,512,0,0
-98,512,0,0,0,0,0,0,0,0,0,-1,1126,512,0,0
-91,512,0,0,0,0,0,0,0,0,0,-1,1133,512,0,0
-84,512,0,0,0,0,0,0,0,0,0,-1,1140,512,0,0
-77,512,0,0,0,0,0,0,0,0,0,-1,1147,512,0,0
-70,512,0,0,0,0,0,0,0,0,0,-1,1154,512,0,0
-63,512,0,0,0,0,0,0,0,0,0,-1,1161,512,0,0
-56,512,0,0,0,0,0,0,0,0,0,-1,1168,512,0,0
-49,512,0,0,0,0,0,0,0,0,0,-1,1175,512,0,0
-42,512,0,0,0,0,0,0,0,0,0,-1,1182,512,0,0
-35,512,0,0,0,0,0,0,0,0,0,-1,1189,512,0,0
-28,512,0,0,0,0,0,0,0,0,0,-1,1196,512,0,0
-21,512,0,0,0,0,0,0,0,0,0,-1,1203,512,0,0
-14,512,0,0,0,0,0,0,0,0,0,-1,1210,512,0,0
-7,512,0,0,0,0,0,0,0,0,0,-1,1217,512,0,0
0,512,0,0,0,0,0,0,0,0,0,-1,1224,512,0,0
7,512,0,0,0,0,0,0,0,0,0,-1,1231,512,0,0
14,512,0,0,0,0,0,0,0,0,0,-1,1238,512,0,0
21,512,0,0,0,0,0,0,0,0,0,-1,1245,512,0,0
28,512,0,0,0,0,0,0,0,0,0,-1,1252,512,0,0
35,512,0,0,0,0,0,0,0,0,0,-1,1259,512,0,0
42,512,0,0,0,0,0,0,0,0,0,-1,1266,512,0,0
49,512,0,0,0,0,0,0,0,0,0,-1,1273,512,0,0
56,512,0,0,0,0,0,0,0,0,0,-1,1280,512,0,0
63,512,0,0,0,0,0,0,0,0,0,-1,1287,512,0,0
70,512,0,0,0,0,0,0,0,0,0,-1,1294,512,0,0
77,512,0,0,0,0,0,0,0,0,0,-1,1301,512,0,0
84,512,0,0,0,0,0,0,0,0,0,-1,1308,512,0,0
91,512,0,0,0,0,0,0,0,0,0,-1,1315,512,0,0
98,512,0,0,0,0,0,0,0,0,0,-1,1322,512,0,0
105,512,0,0,0,0,0,0,0,0,0,-1,1329,512,0,0
112,512,0,0,0,0,0,0,0,0,0,-1,1336,512,0,0
119,512,0,0,0,0,0,0,0,0,0,-1,1343,512,0,0
126,512,0,0,0,0,0,0,0,0,0,-1,1350,512,0,0
133,512,0,0,0,0,0,0,0,0,0,-1,1357,512,0,0
140,512,0,0,0,0,0,0,0,0,0,-1,1364,512,0,0
147,512,0,0,0,0,0,0,0,0,0,-1,1371,512,0,0
154,512,0,0,0,0,0,0,0,0,0,-1,1378,512,0,0
161,512,0,0,0,0,0,0,0,0,0,-1,1385,512,0,0
168,512,0,0,0,0,0,0,0,0,0,-1,1392,512,0,0
175,512,0,0,0,0,0,0,0,0,0,-1,1399,512,0,0
182,512,0,0,0,0,0,0,0,0,0,-1,1406,512,0,0
189,512,0,0,0,0,0,0,0,0,0,-1,1413,512,0,0
196,512,0,0,0,0,0,0,0,0,0,-1,1420,512,0,0
203,512,0,0,0,0,0,0,0,0,0,-1,1427,512,0,0
210,512,0,0,0,0,0,0,0,0,0,-1,1434,512,0,0
217,512,0,0,0,0,0,0,0,0,0,-1,1441,512,0,0
224,512,0,0,0,0,0,0,0,0,0,-1,1448,512,0,0
231,512,0,0,0,0,0,0,0,0,0,-1,1455,512,0,0
238,512,0,0,0,0,0,0,0,0,0,-1,1462,512,0,0
245,512,0,0,0,0,0,0,0,0,0,-1,1469,512,0,0
252,512,0,0,0,0,0,0,0,0,0,-1,1476,512,0,0
259,512,0,0,0,0,0,0,0,0,0,-1,1483,512,0,0
266,512,0,0,0,0,0,0,0,0,0,-1,1490,512,0,0
273,512,4.00745,0.618622,0,0,0,0,0,0,0,-1,1497,512,4.00747,-0.618611
280,512,4.49609,0.649841,0,0,0,0,0,0,0,-1,1504,512,4.49612,-0.649834
287,512,4.77234,0.458069,0,0,0,0,0,0,0,-1,1511,512,4.77233,-0.458083
294,512,8.54956,-2.36273,0,0,0,0,0,0,0,-1,1518,512,8.54952,2.36274
301,512,6.302,-1.69092,0,0,0,0,0,0,0,-1,1525,512,6.30196,1.69093
308,512,8.2439,-6.22754,0,0,0,0,0,0,0,-1,1532,512,8.24394,6.22757
315,512,7.53687,-6.04211,0,0,0,0,0,0,0,-1,1539,512,7.53691,6.04211
322,512,6.82983,-5.85663,0,0,0,0,0,0,0,-1,1546,512,6.82988,5.85666
329,512,4.38147,-0.329651,0,0,0,0,0,0,0,-1,1553,512,4.38144,0.329662
336,512,4.41467,-0.741455,0,0,0,0,0,0,0,-1,1560,512,4.41467,0.741442
343,512,4.44727,-1.21667,0,0,0,0,0,0,0,-1,1567,512,4.44732,1.21666
350,512,4.55469,-1.65082,0,0,0,0,0,0,0,-1,1574,512,4.5547,1.65083
357,512,5.79993,-2.67456,0,0,0,0,0,0,0,-1,1581,512,5.79991,2.67454
364,512,13.118,-28.5485,0,0,0,0,0,0,0,-1,1588,512,13.1181,28.5485
371,512,5.28467,-7.69269,0,0,0,0,0,0,0,-1,1595,512,5.28464,7.69269
378,512,6.29407,-9.88055,0,0,0,0,0,0,0,-1,1602,512,6.29412,9.88057
385,512,6.45569,-9.32233,0,0,0,0,0,0,0,-1,1609,512,6.45565,9.3223
392,512,6.35522,-8.98425,0,0,0,0,0,0,0,-1,1616,512,6.35526,8.98422
399,512,16.9089,-33.7311,0,0,0,0,0,0,0,-1,1623,512,16.9089,33.7311
406,512,20.9414,-43.0626,0,0,0,0,0,0,0,-1,1630,512,20.9414,43.0626
413,512,20.9364,-41.9424,0,0,0,0,0,0,0,-1,1637,512,20.9364,41.9424
420,512,20.8795,-40.977,0.00420763,0.00312973,0.000698017,0.00455055,0.00278681,0.456645,0.0026493,0.033358,1644,512,20.8795,40.977
427,512,20.8407,-40.0415,0.00365908,0.00245958,0.000479881,0.00382744,0.00229123,0.337412,0.00222406,0.01794,1651,512,20.8407,40.0415
434,512,20.7477,-39.1443,0.00294553,0.00201616,0.00049474,0.0031596,0.0018021,0.408357,0.0018302,0.0124187,1658,512,20.7477,39.1444
441,512,20.6487,-38.1953,0.00238026,0.00177586,0.000606379,0.00275557,0.00140055,0.554228,0.001591,0.0130504,1665,512,20.6487,38.1953
448,512,20.6034,-37.2905,0.00187082,0.00162813,0.000794028,0.00255272,0.000946228,0.709573,0.00149016,0.0101796,1672,512,20.6033,37.2905
455,512,20.5465,-36.3588,0.00134223,0.00164769,0.00102129,0.00252762,0.000462313,0.859621,0.00155407,0.010236,1679,512,20.5465,36.3588
462,512,20.5153,-35.4086,0.00095327,0.00182689,0.00134529,0.00280451,-2.43521e-05,0.942376,0.00187785,0.010499,1686,512,20.5153,35.4086
469,512,20.474,-34.4698,0.000718496,0.00219808,0.00182303,0.00342571,-0.00050913,0.978148,0.00247106,0.0117225,1693,512,20.474,34.4698
476,512,20.4243,-33.5287,0.000532471,0.00264222,0.00237971,0.00419038,-0.00101569,0.994023,0.00318657,0.0147819,1700,512,20.4244,33.5287
483,512,20.3815,-32.5573,0.000418824,0.00309342,0.00300346,0.00504385,-0.00153161,0.994847,0.00397276,0.0139644,1707,512,20.3814,32.5573
490,512,20.3353,-31.6143,0.000376049,0.00362954,0.00370458,0.00604881,-0.00204322,0.992282,0.00485898,0.0113503,1714,512,20.3354,31.6143
497,512,20.2566,-30.6671,0.000388406,0.00391428,0.0043107,0.0068086,-0.00250592,0.979504,0.00556571,0.0129748,1721,512,20.2566,30.6671
504,512,20.1581,-29.6604,0.000529353,0.00425904,0.004956,0.00768944,-0.00290105,0.965344,0.00631932,0.0201261,1728,512,20.1581,29.6604
511,512,20.059,-28.6177,0.000834338,0.00439688,0.0056326,0.00852316,-0.00329194,0.938544,0.00704079,0.0318272,1735,512,20.059,28.6178
518,512,20.2872,-27.6155,0,0,0,0,0,0,0,-1,1742,512,20.2872,27.6155
525,512,20.6846,-26.6,0,0,0,0,0,0,0,-1,1749,512,20.6846,26.6
532,512,16.6807,-19.0635,0,0,0,0,0,0,0,-1,1756,512,16.6807,19.0635
539,512,12.6367,-16.4022,0,0,0,0,0,0,0,-1,1763,512,12.6367,16.4021
546,512,2.77551,-0.66449,0,0,0,0,0,0,0,-1,1770,512,2.77548,0.664503
553,512,3.927,-0.448853,0,0,0,0,0,0,0,-1,1777,512,3.92704,0.448843
560,512,3.55762,-0.201233,0,0,0,0,0,0,0,-1,1784,512,3.55768,0.201259
567,512,3.09045,0.191193,0,0,0,0,0,0,0,-1,1791,512,3.09045,-0.191203
574,512,0,0,0,0,0,0,0,0,0,-1,1798,512,0,0
581,512,0,0,0,0,0,0,0,0,0,-1,1805,512,0,0
588,512,0,0,0,0,0,0,0,0,0,-1,1812,512,0,0
595,512,0,0,0,0,0,0,0,0,0,-1,1819,512,0,0
602,512,0,0,0,0,0,0,0,0,0,-1,1826,512,0,0
609,512,0,0,0,0,0,0,0,0,0,-1,1833,512,0,0
616,512,0,0,0,0,0,0,0,0,0,-1,1840,512,0,0
623,512,0,0,0,0,0,0,0,0,0,-1,1847,512,0,0
630,512,0,0,0,0,0,0,0,0,0,-1,1854,512,0,0
637,512,0,0,0,0,0,0,0,0,0,-1,1861,512,0,0
644,512,0,0,0,0,0,0,0,0,0,-1,1868,512,0,0
651,512,0,0,0,0,0,0,0,0,0,-1,1875,512,0,0
658,512,0,0,0,0,0,0,0,0,0,-1,1882,512,0,0
665,512,0,0,0,0,0,0,0,0,0,-1,1889,512,0,0
672,512,0,0,0,0,0,0,0,0,0,-1,1896,512,0,0
679,512,0,0,0,0,0,0,0,0,0,-1,1903,512,0,0
686,512,0,0,0,0,0,0,0,0,0,-1,1910,512,0,0
693,512,0,0,0,0,0,0,0,0,0,-1,1917,512,0,0
700,512,0,0,0,0,0,0,0,0,0,-1,1924,512,0,0
707,512,0,0,0,0,0,0,0,0,0,-1,1931,512,0,0
714,512,0,0,0,0,0,0,0,0,0,-1,1938,512,0,0
721,512,0,0,0,0,0,0,0,0,0,-1,1945,512,0,0
728,512,0,0,0,0,0,0,0,0,0,-1,1952,512,0,0
735,512,0,0,0,0,0,0,0,0,0,-1,1959,512,0,0
742,512,0,0,0,0,0,0,0,0,0,-1,1966,512,0,0
749,512,0,0,0,0,0,0,0,0,0,-1,1973,512,0,0
756,512,0,0,0,0,0,0,0,0,0,-1,1980,512,0,0
763,512,0,0,0,0,0,0,0,0,0,-1,1987,512,0,0
770,512,0,0,0,0,0,0,0,0,0,-1,1994,512,0,0
777,512,0,0,0,0,0,0,0,0,0,-1,2001,512,0,0
784,512,0,0,0,0,0,0,0,0,0,-1,2008,512,0,0
791,512,0,0,0,0,0,0,0,0,0,-1,2015,512,0,0
798,512,0,0,0,0,0,0,0,0,0,-1,2022,512,0,0
805,512,0,0,0,0,0,0,0,0,0,-1,2029,512,0,0
812,512,0,0,0,0,0,0,0,0,0,-1,2036,512,0,0
-700,505,0,0,0,0,0,0,0,0,0,-1,524,519,0,0
-693,505,0,0,0,0,0,0,0,0,0,-1,531,519,0,0
-686,505,0,0,0,0,0,0,0,0,0,-1,538,519,0,0
-679,505,0,0,0,0,0,0,0,0,0,-1,545,519,0,0
-672,505,0,0,0,0,0,0,0,0,0,-1,552,519,0,0
-665,505,0,0,0,0,0,0,0,0,0,-1,559,519,0,0
-658,505,0,0,0,0,0,0,0,0,0,-1,566,519,0,0
-651,505,0,0,0,0,0,0,0,0,0,-1,573,519,0,0
-644,505,0,0,0,0,0,0,0,0,0,-1,580,519,0,0
-637,505,0,0,0,0,0,0,0,0,0,-1,587,519,0,0
-630,505,0,0,0,0,0,0,0,0,0,-1,594,519,0,0
-623,505,0,0,0,0,0,0,0,0,0,-1,601,519,0,0
-616,505,0,0,0,0,0,0,0,0,0,-1,608,519,0,0
-609,505,0,0,0,0,0,0,0,0,0,-1,615,519,0,0
-602,505,0,0,0,0,0,0,0,0,0,-1,622,519,0,0
-595,505,0,0,0,0,0,0,0,0,0,-1,629,519,0,0
-588,505,0,0,0,0,0,0,0,0,0,-1,636,519,0,0
-581,505,0,0,0,0,0,0,0,0,0,-1,643,519,0,0
-574,505,0,0,0,0,0,0,0,0,0,-1,650,519,0,0
-567,505,0,0,0,0,0,0,0,0,0,-1,657,519,0,0
-560,505,0,0,0,0,0,0,0,0,0,-1,664,519,0,0
-553,505,0,0,0,0,0,0,0,0,0,-1,671,519,0,0
-546,505,0,0,0,0,0,0,0,0,0,-1,678,519,0,0
-539,505,0,0,0,0,0,0,0,0,0,-1,685,519,0,0
-532,505,0,0,0,0,0,0,0,0,0,-1,692,519,0,0
-525,505,0,0,0,0,0,0,0,0,0,-1,699,519,0,0
-518,505,0,0,0,0,0,0,0,0,0,-1,706,519,0,0
-511,505,0,0,0,0,0,0,0,0,0,-1,713,519,0,0
-504,505,0,0,0,0,0,0,0,0,0,-1,720,519,0,0
-497,505,0,0,0,0,0,0,0,0,0,-1,727,519,0,0
-490,505,0,0,0,0,0,0,0,0,0,-1,734,519,0,0
-483,505,0,0,0,0,0,0,0,0,0,-1,741,519,0,0
-476,505,0,0,0,0,0,0,0,0,0,-1,748,519,0,0
-469,505,0,0,0,0,0,0,0,0,0,-1,755,519,0,0
-462,505,0,0,0,0,0,0,0,0,0,-1,762,519,0,0
-455,505,2.72137,-3.26379,0,0,0,0,0,0,0,-1,769,519,2.72135,3.26377
-448,505,2.51111,-3.94989,0,0,0,0,0,0,0,-1,776,519,2.51112,3.94986
-441,505,2.80212,-6.8902,0,0,0,0,0,0,0,-1,783,519,2.80209,6.89019
-434,505,-0.155212,-10.6374,0,0,0,0,0,0,0,-1,790,519,-0.155194,10.6374
-427,505,-0.474426,-10.4702,0,0,0,0,0,0,0,-1,797,519,-0.474433,10.4702
-420,505,-0.922546,-10.1928,0,0,0,0,0,0,0,-1,804,519,-0.92257,10.1928
-413,505,-3.33948,-13.6183,0,0,0,0,0,0,0,-1,811,519,-3.33949,13.6184
-406,505,-3.2439,-18.3408,0,0,0,0,0,0,0,-1,818,519,-3.24389,18.3408
-399,505,-4.01923,-26.7482,0,0,0,0,0,0,0,-1,825,519,-4.0192,26.7482
-392,505,-4.0329,-27.8011,0.00137953,0.0165984,-0.0102402,0.0217469,-0.00376898,-1.10493,0.0159038,0.0302582,832,519,-4.0329,27.8011
-385,505,-4.13702,-28.8124,0.0014607,0.0142558,-0.00914474,0.0190187,-0.00330217,-1.09062,0.0139111,0.0129211,839,519,-4.137,28.8124
-378,505,-4.21399,-29.8174,0.00158776,0.0121769,-0.00806984,0.016534,-0.00276934,-1.07572,0.0120523,0.0125985,846,519,-4.21401,29.8174
-371,505,-4.26202,-30.842,0.00166398,0.0100926,-0.00699714,0.0140466,-0.00228995,-1.05645,0.0102136,0.0147639,853,519,-4.262,30.842
-364,505,-4.3161,-31.8339,0.0016809,0.00797231,-0.00576,0.0113896,-0.00173641,-1.03533,0.00823314,0.0166822,860,519,-4.3161,31.8339
-357,505,-4.35248,-32.801,0.00164118,0.00610963,-0.00451931,0.00891683,-0.00116602,-1.01497,0.0063689,0.0146641,867,519,-4.35245,32.801
-350,505,-4.42462,-33.7213,0.00155896,0.00433212,-0.00332676,0.0065497,-0.000658617,-0.982849,0.00460174,0.013375,874,519,-4.4246,33.7213
-343,505,-4.50336,-34.663,0.00149963,0.00255344,-0.00218961,0.00427865,-0.000225579,-0.903473,0.00293052,0.0124602,881,519,-4.50335,34.663
-336,505,-4.56812,-35.6206,0.0014097,0.000945135,-0.00112685,0.00232795,2.68775e-05,-0.683755,0.00154309,0.0155273,888,519,-4.56813,35.6206
-329,505,-4.59552,-36.5189,0.00130812,-0.000464553,-0.000146033,0.00132007,-0.000476503,-0.0816463,0.00107469,0.0208774,895,519,-4.59551,36.5189
-322,505,-4.64697,-37.4611,0.00128819,-0.00166462,0.000707276,0.00144886,-0.00182529,0.223375,0.00189449,0.0241463,902,519,-4.64695,37.4611
-315,505,-4.71863,-38.4315,0.00143204,-0.00243967,0.0013025,0.00182943,-0.00283706,0.296128,0.00271505,0.0173214,909,519,-4.71862,38.4315
-308,505,-4.789,-39.3322,0.00185656,-0.00289065,0.00164726,0.00237215,-0.00340625,0.303341,0.00335392,0.0128854,916,519,-4.78902,39.3322
-301,505,-4.80151,-40.2733,0.0021981,-0.00283896,0.00193659,0.00285657,-0.00349744,0.327756,0.00367471,0.0217398,923,519,-4.8015,40.2733
-294,505,-4.8172,-41.0977,0,0,0,0,0,0,0,-1,930,519,-4.81721,41.0976
-287,505,-5.00012,-41.7242,0,0,0,0,0,0,0,-1,937,519,-5.00011,41.7242
-280,505,-2.79846,-27.7252,0,0,0,0,0,0,0,-1,944,519,-2.79845,27.7252
-273,505,-0.0680542,-9.44867,0,0,0,0,0,0,0,-1,951,519,-0.0680462,9.44866
-266,505,-0.036377,-9.07922,0,0,0,0,0,0,0,-1,958,519,-0.0364055,9.0792
-259,505,0.10321,-6.69824,0,0,0,0,0,0,0,-1,965,519,0.103235,6.69826
-252,505,6.82312,-15.6972,0,0,0,0,0,0,0,-1,972,519,6.82314,15.6972
-245,505,4.26727,-12.9861,0,0,0,0,0,0,0,-1,979,519,4.2673,12.9861
-238,505,1.67432,-11.2307,0,0,0,0,0,0,0,-1,986,519,1.67429,11.2307
-231,505,-0.958435,-8.3075,0,0,0,0,0,0,0,-1,993,519,-0.958421,8.30751
-224,505,-1.46399,-33.4399,0,0,0,0,0,0,0,-1,1000,519,-1.46397,33.4399
-217,505,-6.34302,-1.65533,0,0,0,0,0,0,0,-1,1007,519,-6.34299,1.65535
-210,505,-3.06128,-0.396301,0,0,0,0,0,0,0,-1,1014,519,-3.06129,0.396294
-203,505,-4.26465,2.03607,0,0,0,0,0,0,0,-1,1021,519,-4.26462,-2.03606
-196,505,-5.47595,4.27295,0,0,0,0,0,0,0,-1,1028,519,-5.47597,-4.27292
-189,505,1.51526,5.56207,0,0,0,0,0,0,0,-1,1035,519,1.51523,-5.56209
-182,505,2.97815,7.5097,0,0,0,0,0,0,0,-1,1042,519,2.97812,-7.5097
-175,505,-2.38416,-2.17548,0,0,0,0,0,0,0,-1,1049,519,-2.38411,2.1755
-168,505,0,0,0,0,0,0,0,0,0,-1,1056,519,0,0
-161,505,0,0,0,0,0,0,0,0,0,-1,1063,519,0,0
-154,505,0,0,0,0,0,0,0,0,0,-1,1070,519,0,0
-147,505,0,0,0,0,0,0,0,0,0,-1,1077,519,0,0
-140,505,0,0,0,0,0,0,0,0,0,-1,1084,519,0,0
-133,505,0,0,0,0,0,0,0,0,0,-1,1091,519,0,0
-126,505,0,0,0,0,0,0,0,0,0,-1,1098,519,0,0
-119,505,0,0,0,0,0,0,0,0,0,-1,1105,519,0,0
-112,505,0,0,0,0,0,0,0,0,0,-1,1112,519,0,0
-105,505,0,0,0,0,0,0,0,0,0,-1,1119,519,0,0
-98,505,0,0,0,0,0,0,0,0,0,-1,1126,519,0,0
-91,505,0,0,0,0,0,0,0,0,0,-1,1133,519,0,0
-84,505,0,0,0,0,0,0,0,0,0,-1,1140,519,0,0
-77,505,0,0,0,0,0,0,0,0,0,-1,1147,519,0,0
-70,505,0,0,0,0,0,0,0,0,0,-1,1154,519,0,0
-63,505,0,0,0,0,0,0,0,0,0,-1,1161,519,0,0
-56,505,0,0,0,0,0,0,0,0,0,-1,1168,519,0,0
-49,505,0,0,0,0,0,0,0,0,0,-1,1175,519,0,0
-42,505,0,0,0,0,0,0,0,0,0,-1,1182,519,0,0
-35,505,0,0,0,0,0,0,0,0,0,-1,1189,519,0,0
-28,505,0,0,0,0,0,0,0,0,0,-1,1196,519,0,0
-21,505,0,0,0,0,0,0,0,0,0,-1,1203,519,0,0
-14,505,0,0,0,0,0,0,0,0,0,-1,1210,519,0,0
-7,505,0,0,0,0,0,0,0,0,0,-1,1217,519,0,0
0,505,0,0,0,0,0,0,0,0,0,-1,1224,519,0,0
7,505,0,0,0,0,0,0,0,0,0,-1,1231,519,0,0
14,505,0,0,0,0,0,0,0,0,0,-1,1238,519,0,0
21,505,0,0,0,0,0,0,0,0,0,-1,1245,519,0,0
28,505,0,0,0,0,0,0,0,0,0,-1,1252,519,0,0
35,505,0,0,0,0,0,0,0,0,0,-1,1259,519,0,0
42,505,0,0,0,0,0,0,0,0,0,-1,1266,519,0,0
49,505,0,0,0,0,0,0,0,0,0,-1,1273,519,0,0
56,505,0,0,0,0,0,0,0,0,0,-1,1280,519,0,0
63,505,0,0,0,0,0,0,0,0,0,-1,1287,519,0,0
70,505,0,0,0,0,0,0,0,0,0,-1,1294,519,0,0
77,505,0,0,0,0,0,0,0,0,0,-1,1301,519,0,0
84,505,0,0,0,0,0,0,0,0,0,-1,1308,519,0,0
91,505,0,0,0,0,0,0,0,0,0,-1,1315,519,0,0
98,505,0,0,0,0,0,0,0,0,0,-1,1322,519,0,0
105,505,0,0,0,0,0,0,0,0,0,-1,1329,519,0,0
112,505,0,0,0,0,0,0,0,0,0,-1,1336,519,0,0
119,505,0,0,0,0,0,0,0,0,0,-1,1343,519,0,0
126,505,0,0,0,0,0,0,0,0,0,-1,1350,519,0,0
133,505,0,0,0,0,0,0,0,0,0,-1,1357,519,0,0
140,505,0,0,0,0,0,0,0,0,0,-1,1364,519,0,0
147,505,0,0,0,0,0,0,0,0,0,-1,1371,519,0,0
154,505,0,0,0,0,0,0,0,0,0,-1,1378,519,0,0
161,505,0,0,0,0,0,0,0,0,0,-1,1385,519,0,0
168,505,0,0,0,0,0,0,0,0,0,-1,1392,519,0,0
175,505,0,0,0,0,0,0,0,0,0,-1,1399,519,0,0
182,505,0,0,0,0,0,0,0,0,0,-1,1406,519,0,0
189,505,0,0,0,0,0,0,0,0,0,-1,1413,519,0,0
196,505,0,0,0,0,0,0,0,0,0,-1,1420,519,0,0
203,505,0,0,0,0,0,0,0,0,0,-1,1427,519,0,0
210,505,0,0,0,0,0,0,0,0,0,-1,1434,519,0,0
217,505,0,0,0,0,0,0,0,0,0,-1,1441,519,0,0
224,505,0,0,0,0,0,0,0,0,0,-1,1448,519,0,0
231,505,0,0,0,0,0,0,0,0,0,-1,1455,519,0,0
238,505,0,0,0,0,0,0,0,0,0,-1,1462,519,0,0
245,505,0,0,0,0,0,0,0,0,0,-1,1469,519,0,0
252,505,0,0,0,0,0,0,0,0,0,-1,1476,519,0,0
259,505,0,0,0,0,0,0,0,0,0,-1,1483,519,0,0
266,505,0,0,0,0,0,0,0,0,0,-1,1490,519,0,0
273,505,0,0,0,0,0,0,0,0,0,-1,1497,519,0,0
280,505,0,0,0,0,0,0,0,0,0,-1,1504,519,0,0
287,505,4.39478,0.499512,0,0,0,0,0,0,0,-1,1511,519,4.39476,-0.499506
294,505,4.88867,0.0822754,0,0,0,0,0,0,0,-1,1518,519,4.88871,-0.0822748
301,505,4.82153,-0.0704346,0,0,0,0,0,0,0,-1,1525,519,4.82156,0.0704312
308,505,4.67761,-0.29187,0,0,0,0,0,0,0,-1,1532,519,4.67762,0.291845
315,505,8.44055,-6.54352,0,0,0,0,0,0,0,-1,1539,519,8.44059,6.54349
322,505,4.78955,-0.594116,0,0,0,0,0,0,0,-1,1546,519,4.78957,0.594096
329,505,5.16321,0.434631,0,0,0,0,0,0,0,-1,1553,519,5.16316,-0.434614
336,505,4.94495,-0.920471,0,0,0,0,0,0,0,-1,1560,519,4.945,0.920495
343,505,5.01855,-1.4823,0,0,0,0,0,0,0,-1,1567,519,5.01851,1.48227
350,505,5.33154,-1.77838,0,0,0,0,0,0,0,-1,1574,519,5.33152,1.77838
357,505,5.56567,-1.9425,0,0,0,0,0,0,0,-1,1581,519,5.56562,1.94248
364,505,5.85205,-2.6579,0,0,0,0,0,0,0,-1,1588,519,5.85211,2.65788
371,505,5.88477,-7.00922,0,0,0,0,0,0,0,-1,1595,519,5.88473,7.00924
378,505,5.44104,-7.10162,0,0,0,0,0,0,0,-1,1602,519,5.44099,7.10162
385,505,6.64661,-8.65015,0,0,0,0,0,0,0,-1,1609,519,6.64662,8.65014
392,505,6.34558,-8.3429,0,0,0,0,0,0,0,-1,1616,519,6.34554,8.34288
399,505,7.45898,-9.70386,0,0,0,0,0,0,0,-1,1623,519,7.45899,9.70388
406,505,7.08679,-9.4928,0,0,0,0,0,0,0,-1,1630,519,7.08678,9.49278
413,505,8.4032,-14.0308,0,0,0,0,0,0,0,-1,1637,519,8.4032,14.0308
420,505,21.7515,-41.2119,0,0,0,0,0,0,0,-1,1644,519,21.7515,41.2118
427,505,21.76,-40.1838,0.00429808,0.00254956,0.000466989,0.00441498,0.00243265,0.245297,0.00255341,0.0377463,1651,519,21.76,40.1839
434,505,21.6744,-39.1399,0.00346162,0.00190395,0.000307496,0.00352013,0.00184545,0.188015,0.00203314,0.0140017,1658,519,21.6744,39.1399
441,505,21.6255,-38.118,0.002857,0.0015104,0.00026329,0.00290665,0.00146076,0.186381,0.00167816,0.0105601,1665,519,21.6255,38.1181
448,505,21.5463,-37.21,0.00238989,0.00126397,0.000326206,0.00247757,0.00117629,0.262585,0.00143103,0.0114945,1672,519,21.5462,37.21
455,505,21.4877,-36.2852,0.00192756,0.00121069,0.000431428,0.00213002,0.00100823,0.438775,0.00123035,0.0127005,1679,519,21.4877,36.2852
462,505,21.4291,-35.3403,0.00156607,0.00131913,0.000649579,0.00210381,0.00078139,0.691479,0.00122795,0.0119149,1686,519,21.4291,35.3403
469,505,21.3929,-34.4105,0.00136568,0.00165293,0.00102685,0.00254615,0.000472461,0.854882,0.00156392,0.010844,1693,519,21.3929,34.4105
476,505,21.3422,-33.4831,0.00120974,0.00205864,0.00148794,0.00318148,8.68954e-05,0.924338,0.00209262,0.0118978,1700,519,21.3422,33.4831
483,505,21.3059,-32.5305,0.00112133,0.00243566,0.00200573,0.00388915,-0.000332152,0.943709,0.00271027,0.0134898,1707,519,21.3059,32.5304
490,505,21.2662,-31.5781,0.00104147,0.00292436,0.00256309,0.00471344,-0.00074761,0.961404,0.00341885,0.0129705,1714,519,21.2662,31.5781
497,505,21.1844,-30.6252,0.000997434,0.00324476,0.00308929,0.00540839,-0.0011662,0.959824,0.00405068,0.0128505,1721,519,21.1844,30.6252
504,505,21.0791,-29.6189,0.00107567,0.0035213,0.00364928,0.00614719,-0.00155022,0.947061,0.00470085,0.0133303,1728,519,21.0791,29.6189
511,505,21.0057,-28.6234,0.00120031,0.00371175,0.00422035,0.00685923,-0.00194717,0.929998,0.00534152,0.0148912,1735,519,21.0057,28.6234
518,505,20.9629,-27.6584,0,0,0,0,0,0,0,-1,1742,519,20.9629,27.6585
525,505,20.7158,-26.4478,0,0,0,0,0,0,0,-1,1749,519,20.7158,26.4477
532,505,20.189,-24.8809,0,0,0,0,0,0,0,-1,1756,519,20.189,24.8808
539,505,13.9879,-13.9018,0,0,0,0,0,0,0,-1,1763,519,13.988,13.9018
546,505,7.94946,-6.64539,0,0,0,0,0,0,0,-1,1770,519,7.94947,6.64539
553,505,2.82837,0.162659,0,0,0,0,0,0,0,-1,1777,519,2.82841,-0.162672
560,505,3.66223,-0.479797,0,0,0,0,0,0,0,-1,1784,519,3.66219,0.47982
567,505,4.65271,-0.950256,0,0,0,0,0,0,0,-1,1791,519,4.65274,0.95028
574,505,5.54443,-1.19977,0,0,0,0,0,0,0,-1,1798,519,5.54443,1.19974
581,505,0,0,0,0,0,0,0,0,0,-1,1805,519,0,0
588,505,0,0,0,0,0,0,0,0,0,-1,1812,519,0,0
595,505,0,0,0,0,0,0,0,0,0,-1,1819,519,0,0
602,505,0,0,0,0,0,0,0,0,0,-1,1826,519,0,0
609,505,0,0,0,0,0,0,0,0,0,-1,1833,519,0,0
616,505,0,0,0,0,0,0,0,0,0,-1,1840,519,0,0
623,505,0,0,0,0,0,0,0,0,0,-1,1847,519,0,0
630,505,0,0,0,0,0,0,0,0,0,-1,1854,519,0,0
637,505,0,0,0,0,0,0,0,0,0,-1,1861,519,0,0
644,505,0,0,0,0,0,0,0,0,0,-1,1868,519,0,0
651,505,0,0,0,0,0,0,0,0,0,-1,1875,519,0,0
658,505,0,0,0,0,0,0,0,0,0,-1,1882,519,0,0
665,505,0,0,0,0,0,0,0,0,0,-1,1889,519,0,0
672,505,0,0,0,0,0,0,0,0,0,-1,1896,519,0,0
679,505,0,0,0,0,0,0,0,0,0,-1,1903,519,0,0
686,505,0,0,0,0,0,0,0,0,0,-1,1910,519,0,0
693,505,0,0,0,0,0,0,0,0,0,-1,1917,519,0,0
700,505,0,0,0,0,0,0,0,0,0,-1,1924,519,0,0
707,505,0,0,0,0,0,0,0,0,0,-1,1931,519,0,0
714,505,0,0,0,0,0,0,0,0,0,-1,1938,519,0,0
721,505,0,0,0,0,0,0,0,0,0,-1,1945,519,0,0
728,505,0,0,0,0,0,0,0,0,0,-1,1952,519,0,0
735,505,0,0,0,0,0,0,0,0,0,-1,1959,519,0,0
742,505,0,0,0,0,0,0,0,0,0,-1,1966,519,0,0
749,505,0,0,0,0,0,0,0,0,0,-1,1973,519,0,0
756,505,0,0,0,0,0,0,0,0,0,-1,1980,519,0,0
763,505,0,0,0,0,0,0,0,0,0,-1,1987,519,0,0
770,505,0,0,0,0,0,0,0,0,0,-1,1994,519,0,0
777,505,0,0,0,0,0,0,0,0,0,-1,2001,519,0,0
784,505,0,0,0,0,0,0,0,0,0,-1,2008,519,0,0
791,505,0,0,0,0,0,0,0,0,0,-1,2015,519,0,0
798,505,0,0,0,0,0,0,0,0,0,-1,2022,519,0,0
805,505,0,0,0,0,0,0,0,0,0,-1,2029,519,0,0
812,505,0,0,0,0,0,0,0,0,0,-1,2036,519,0,0
-700,498,0,0,0,0,0,0,0,0,0,-1,524,526,0,0
-693,498,0,0,0,0,0,0,0,0,0,-1,531,526,0,0
-686,498,0,0,0,0,0,0,0,0,0,-1,538,526,0,0
-679,498,0,0,0,0,0,0,0,0,0,-1,545,526,0,0
-672,498,0,0,0,0,0,0,0,0,0,-1,552,526,0,0
-665,498,0,0,0,0,0,0,0,0,0,-1,559,526,0,0
-658,498,0,0,0,0,0,0,0,0,0,-1,566,526,0,0
-651,498,0,0,0,0,0,0,0,0,0,-1,573,526,0,0
-644,498,0,0,0,0,0,0,0,0,0,-1,580,526,0,0
-637,498,0,0,0,0,0,0,0,0,0,-1,587,526,0,0
-630,498,0,0,0,0,0,0,0,0,0,-1,594,526,0,0
-623,498,0,0,0,0,0,0,0,0,0,-1,601,526,0,0
-616,498,0,0,0,0,0,0,0,0,0,-1,608,526,0,0
-609,498,0,0,0,0,0,0,0,0,0,-1,615,526,0,0
-602,498,0,0,0,0,0,0,0,0,0,-1,622,526,0,0
-595,498,0,0,0,0,0,0,0,0,0,-1,629,526,0,0
-588,498,0,0,0,0,0,0,0,0,0,-1,636,526,0,0
-581,498,0,0,0,0,0,0,0,0,0,-1,643,526,0,0
-574,498,0,0,0,0,0,0,0,0,0,-1,650,526,0,0
-567,498,0,0,0,0,0,0,0,0,0,-1,657,526,0,0
-560,498,0,0,0,0,0,0,0,0,0,-1,664,526,0,0
-553,498,0,0,0,0,0,0,0,0,0,-1,671,526,0,0
-546,498,0,0,0,0,0,0,0,0,0,-1,678,526,0,0
-539,498,0,0,0,0,0,0,0,0,0,-1,685,526,0,0
-532,498,0,0,0,0,0,0,0,0,0,-1,692,526,0,0
-525,498,0,0,0,0,0,0,0,0,0,-1,699,526,0,0
-518,498,0,0,0,0,0,0,0,0,0,-1,706,526,0,0
-511,498,0,0,0,0,0,0,0,0,0,-1,713,526,0,0
-504,498,0,0,0,0,0,0,0,0,0,-1,720,526,0,0
-497,498,0,0,0,0,0,0,0,0,0,-1,727,526,0,0
-490,498,0,0,0,0,0,0,0,0,0,-1,734,526,0,0
-483,498,0,0,0,0,0,0,0,0,0,-1,741,526,0,0
-476,498,0,0,0,0,0,0,0,0,0,-1,748,526,0,0
-469,498,0,0,0,0,0,0,0,0,0,-1,755,526,0,0
-462,498,6.81024,1.15515,0,0,0,0,0,0,0,-1,762,526,6.81026,-1.15514
-455,498,3.25757,-3.0592,0,0,0,0,0,0,0,-1,769,526,3.25754,3.05921
-448,498,3.05939,-3.74298,0,0,0,0,0,0,0,-1,776,526,3.05939,3.74296
-441,498,2.77191,-6.08209,0,0,0,0,0,0,0,-1,783,526,2.77189,6.08207
-434,498,2.10681,-6.95929,0,0,0,0,0,0,0,-1,790,526,2.10682,6.9593
-427,498,-0.368042,-10.7726,0,0,0,0,0,0,0,-1,797,526,-0.36807,10.7726
-420,498,-1.05035,-10.5142,0,0,0,0,0,0,0,-1,804,526,-1.05034,10.5142
-413,498,-4.52112,-18.8354,0,0,0,0,0,0,0,-1,811,526,-4.52111,18.8354
-406,498,-4.85217,-25.585,0,0,0,0,0,0,0,-1,818,526,-4.85217,25.585
-399,498,-4.87732,-26.6992,0.000752951,0.0140962,-0.00835084,0.0181132,-0.00326406,-1.12244,0.0132977,0.0370482,825,526,-4.87733,26.6992
-392,498,-5.00366,-27.7587,0.000877431,0.0121353,-0.00760295,0.0159662,-0.00295354,-1.10405,0.011753,0.0192835,832,526,-5.00365,27.7587
-385,498,-5.07874,-28.7744,0.00108546,0.0102574,-0.00675724,0.0138379,-0.00249505,-1.08353,0.0101596,0.0105756,839,526,-5.07873,28.7743
-378,498,-5.13666,-29.7789,0.00131537,0.008543,-0.00588133,0.0118321,-0.00197369,-1.06089,0.00862157,0.0111614,846,526,-5.13667,29.7789
-371,498,-5.18457,-30.7554,0.00147475,0.00681026,-0.00501599,0.0098238,-0.00153878,-1.0298,0.00711779,0.017199,853,526,-5.18459,30.7553
-364,498,-5.255,-31.7436,0.00157641,0.00497634,-0.00399468,0.00761773,-0.00106498,-0.986569,0.00546816,0.0180295,860,526,-5.25502,31.7436
-357,498,-5.28644,-32.7112,0.00164157,0.00339824,-0.00295626,0.00560388,-0.000564078,-0.9298,0.00393744,0.0130005,867,526,-5.28644,32.7112
-350,498,-5.3656,-33.6432,0.00166466,0.00188543,-0.00195599,0.00373415,-0.000184057,-0.813585,0.002553,0.0132455,874,526,-5.36561,33.6432
-343,498,-5.43982,-34.6533,0.00167363,0.000348385,-0.000979636,0.0021937,-0.000171683,-0.488044,0.00152292,0.0170258,881,526,-5.43982,34.6533
-336,498,-5.46881,-35.6467,0.00161799,-0.00108153,-4.32334e-05,0.00161868,-0.00108223,-0.0160097,0.00156959,0.0223475,888,526,-5.46879,35.6467
-329,498,-5.52246,-36.4821,0.0015419,-0.00233844,0.000837355,0.00171488,-0.00251142,0.203719,0.00245446,0.0282178,895,526,-5.52245,36.4821
-322,498,-5.58655,-37.4108,0.00153203,-0.00340662,0.00161612,0.00201388,-0.00388847,0.289759,0.00346454,0.0279604,902,526,-5.58653,37.4108
-315,498,-5.67114,-38.3484,0.00169668,-0.00389789,0.0020649,0.00237626,-0.00457748,0.317947,0.00408124,0.0201949,909,526,-5.67116,38.3485
-308,498,-5.72174,-39.2576,0.00221847,-0.00411914,0.00228436,0.00295602,-0.0048567,0.312304,0.00455495,0.024151,916,526,-5.72177,39.2576
-301,498,-5.69055,-40.2602,0,0,0,0,0,0,0,-1,923,526,-5.69058,40.2602
-294,498,-5.49982,-39.5652,0,0,0,0,0,0,0,-1,930,526,-5.49979,39.5653
-287,498,-0.91394,-13.4327,0,0,0,0,0,0,0,-1,937,526,-0.913935,13.4327
-280,498,-0.341614,-8.66608,0,0,0,0,0,0,0,-1,944,526,-0.341589,8.66606
-273,498,-0.988892,-8.62921,0,0,0,0,0,0,0,-1,951,526,-0.988906,8.62922
-266,498,0.362488,-6.33545,0,0,0,0,0,0,0,-1,958,526,0.362478,6.33547
-259,498,10.9454,-17.3615,0,0,0,0,0,0,0,-1,965,526,10.9454,17.3614
-252,498,8.56586,-14.6886,0,0,0,0,0,0,0,-1,972,526,8.56584,14.6886
-245,498,5.97382,-11.928,0,0,0,0,0,0,0,-1,979,526,5.97381,11.928
-238,498,2.24841,-13.8145,0,0,0,0,0,0,0,-1,986,526,2.24838,13.8145
-231,498,0.665894,-10.4898,0,0,0,0,0,0,0,-1,993,526,0.665863,10.4898
-224,498,-2.11243,-4.76312,0,0,0,0,0,0,0,-1,1000,526,-2.11245,4.76314
-217,498,-3.82239,-1.42841,0,0,0,0,0,0,0,-1,1007,526,-3.82241,1.42843
-210,498,-1.80591,-0.358215,0,0,0,0,0,0,0,-1,1014,526,-1.8059,0.3582
-203,498,-3.17316,1.06641,0,0,0,0,0,0,0,-1,1021,526,-3.17313,-1.0664
-196,498,-0.103271,5.40527,0,0,0,0,0,0,0,-1,1028,526,-0.103285,-5.40528
-189,498,3.00256,6.47137,0,0,0,0,0,0,0,-1,1035,526,3.00256,-6.47139
-182,498,0,0,0,0,0,0,0,0,0,-1,1042,526,0,0
-175,498,0,0,0,0,0,0,0,0,0,-1,1049,526,0,0
-168,498,0,0,0,0,0,0,0,0,0,-1,1056,526,0,0
-161,498,0,0,0,0,0,0,0,0,0,-1,1063,526,0,0
-154,498,0,0,0,0,0,0,0,0,0,-1,1070,526,0,0
-147,498,0,0,0,0,0,0,0,0,0,-1,1077,526,0,0
-140,498,0,0,0,0,0,0,0,0,0,-1,1084,526,0,0
-133,498,0,0,0,0,0,0,0,0,0,-1,1091,526,0,0
-126,498,0,0,0,0,0,0,0,0,0,-1,1098,526,0,0
-119,498,0,0,0,0,0,0,0,0,0,-1,1105,526,0,0
-112,498,0,0,0,0,0,0,0,0,0,-1,1112,526,0,0
-105,498,0,0,0,0,0,0,0,0,0,-1,1119,526,0,0
-98,498,0,0,0,0,0,0,0,0,0,-1,1126,526,0,0
-91,498,0,0,0,0,0,0,0,0,0,-1,1133,526,0,0
-84,498,0,0,0,0,0,0,0,0,0,-1,1140,526,0,0
-77,498,0,0,0,0,0,0,0,0,0,-1,1147,526,0,0
-70,498,0,0,0,0,0,0,0,0,0,-1,1154,526,0,0
-63,498,0,0,0,0,0,0,0,0,0,-1,1161,526,0,0
-56,498,0,0,0,0,0,0,0,0,0,-1,1168,526,0,0
-49,498,0,0,0,0,0,0,0,0,0,-1,1175,526,0,0
-42,498,0,0,0,0,0,0,0,0,0,-1,1182,526,0,0
-35,498,0,0,0,0,0,0,0,0,0,-1,1189,526,0,0
-28,498,0,0,0,0,0,0,0,0,0,-1,1196,526,0,0
-21,498,0,0,0,0,0,0,0,0,0,-1,1203,526,0,0
-14,498,0,0,0,0,0,0,0,0,0,-1,1210,526,0,0
-7,498,0,0,0,0,0,0,0,0,0,-1,1217,526,0,0
0,498,0,0,0,0,0,0,0,0,0,-1,1224,526,0,0
7,498,0,0,0,0,0,0,0,0,0,-1,1231,526,0,0
14,498,0,0,0,0,0,0,0,0,0,-1,1238,526,0,0
21,498,0,0,0,0,0,0,0,0,0,-1,1245,526,0,0
28,498,0,0,0,0,0,0,0,0,0,-1,1252,526,0,0
35,498,0,0,0,0,0,0,0,0,0,-1,1259,526,0,0
42,498,0,0,0,0,0,0,0,0,0,-1,1266,526,0,0
49,498,0,0,0,0,0,0,0,0,0,-1,1273,526,0,0
56,498,0,0,0,0,0,0,0,0,0,-1,1280,526,0,0
63,498,0,0,0,0,0,0,0,0,0,-1,1287,526,0,0
70,498,0,0,0,0,0,0,0,0,0,-1,1294,526,0,0
77,498,0,0,0,0,0,0,0,0,0,-1,1301,526,0,0
84,498,0,0,0,0,0,0,0,0,0,-1,1308,526,0,0
91,498,0,0,0,0,0,0,0,0,0,-1,1315,526,0,0
98,498,0,0,0,0,0,0,0,0,0,-1,1322,526,0,0
105,498,0,0,0,0,0,0,0,0,0,-1,1329,526,0,0
112,498,0,0,0,0,0,0,0,0,0,-1,1336,526,0,0
119,498,0,0,0,0,0,0,0,0,0,-1,1343,526,0,0
126,498,0,0,0,0,0,0,0,0,0,-1,1350,526,0,0
133,498,0,0,0,0,0,0,0,0,0,-1,1357,526,0,0
140,498,0,0,0,0,0,0,0,0,0,-1,1364,526,0,0
147,498,0,0,0,0,0,0,0,0,0,-1,1371,526,0,0
154,498,0,0,0,0,0,0,0,0,0,-1,1378,526,0,0
161,498,0,0,0,0,0,0,0,0,0,-1,1385,526,0,0
168,498,0,0,0,0,0,0,0,0,0,-1,1392,526,0,0
175,498,0,0,0,0,0,0,0,0,0,-1,1399,526,0,0
182,498,0,0,0,0,0,0,0,0,0,-1,1406,526,0,0
189,498,0,0,0,0,0,0,0,0,0,-1,1413,526,0,0
196,498,0,0,0,0,0,0,0,0,0,-1,1420,526,0,0
203,498,0,0,0,0,0,0,0,0,0,-1,1427,526,0,0
210,498,0,0,0,0,0,0,0,0,0,-1,1434,526,0,0
217,498,0,0,0,0,0,0,0,0,0,-1,1441,526,0,0
224,498,0,0,0,0,0,0,0,0,0,-1,1448,526,0,0
231,498,0,0,0,0,0,0,0,0,0,-1,1455,526,0,0
238,498,0,0,0,0,0,0,0,0,0,-1,1462,526,0,0
245,498,0,0,0,0,0,0,0,0,0,-1,1469,526,0,0
252,498,0,0,0,0,0,0,0,0,0,-1,1476,526,0,0
259,498,0,0,0,0,0,0,0,0,0,-1,1483,526,0,0
266,498,0,0,0,0,0,0,0,0,0,-1,1490,526,0,0
273,498,0,0,0,0,0,0,0,0,0,-1,1497,526,0,0
280,498,0,0,0,0,0,0,0,0,0,-1,1504,526,0,0
287,498,0,0,0,0,0,0,0,0,0,-1,1511,526,0,0
294,498,0,0,0,0,0,0,0,0,0,-1,1518,526,0,0
301,498,0,0,0,0,0,0,0,0,0,-1,1525,526,0,0
308,498,4.77942,-0.293884,0,0,0,0,0,0,0,-1,1532,526,4.77939,0.293899
315,498,4.56091,-0.564148,0,0,0,0,0,0,0,-1,1539,526,4.56097,0.564142
322,498,4.52344,-0.447266,0,0,0,0,0,0,0,-1,1546,526,4.52341,0.447295
329,498,4.63232,-0.156982,0,0,0,0,0,0,0,-1,1553,526,4.63238,0.156991
336,498,5.22644,0.0925903,0,0,0,0,0,0,0,-1,1560,526,5.22648,-0.0926188
343,498,6.22607,-1.67615,0,0,0,0,0,0,0,-1,1567,526,6.22605,1.67617
350,498,6.19373,-1.59906,0,0,0,0,0,0,0,-1,1574,526,6.19367,1.59906
357,498,6.21472,-1.58929,0,0,0,0,0,0,0,-1,1581,526,6.21476,1.58927
364,498,5.73547,-1.2019,0,0,0,0,0,0,0,-1,1588,526,5.73547,1.20192
371,498,3.27087,-4.55334,0,0,0,0,0,0,0,-1,1595,526,3.27089,4.55332
378,498,8.42944,-4.70624,0,0,0,0,0,0,0,-1,1602,526,8.42942,4.70624
385,498,4.7793,-5.15314,0,0,0,0,0,0,0,-1,1609,526,4.77935,5.15311
392,498,9.12439,-8.57953,0,0,0,0,0,0,0,-1,1616,526,9.12443,8.57955
399,498,7.98938,-9.46021,0,0,0,0,0,0,0,-1,1623,526,7.98936,9.4602
406,498,7.58081,-9.26819,0,0,0,0,0,0,0,-1,1630,526,7.58085,9.26817
413,498,7.17236,-9.07611,0,0,0,0,0,0,0,-1,1637,526,7.17234,9.07614
420,498,11.4314,-16.1147,0,0,0,0,0,0,0,-1,1644,526,11.4313,16.1147
427,498,22.4821,-40.2686,0,0,0,0,0,0,0,-1,1651,526,22.4821,40.2686
434,498,22.4714,-39.1471,0.00367188,0.0019431,0.000376474,0.0037503,0.00186468,0.205382,0.00216525,0.0468063,1658,526,22.4715,39.1471
441,498,22.5505,-38.1125,0.00299986,0.00136674,0.000147506,0.00301308,0.00135352,0.0893575,0.00174259,0.0152681,1665,526,22.5505,38.1125
448,498,22.5081,-37.1438,0.0025707,0.00100727,7.16482e-05,0.00257398,0.001004,0.0456998,0.00149802,0.0115037,1672,526,22.508,37.1438
455,498,22.4236,-36.2148,0.00218786,0.000858215,3.57529e-05,0.00218882,0.000857254,0.0268631,0.00127357,0.01535,1679,526,22.4236,36.2148
462,498,22.3822,-35.3029,0.00185903,0.00085564,0.000134375,0.00187671,0.000837956,0.13085,0.00108559,0.0176614,1686,526,22.3822,35.3029
469,498,22.3558,-34.3938,0.00169584,0.00109626,0.000389631,0.00188767,0.000904438,0.45749,0.00109016,0.0149149,1693,526,22.3558,34.3938
476,498,22.2999,-33.4409,0.00158171,0.00141143,0.000739307,0.00224076,0.000752373,0.728071,0.00131676,0.0105053,1700,526,22.2999,33.4408
483,498,22.2338,-32.4884,0.00152525,0.00167858,0.00114193,0.00274642,0.000457416,0.818916,0.00169912,0.00867062,1707,526,22.2338,32.4884
490,498,22.1708,-31.5341,0.00141714,0.00208579,0.00156277,0.00334959,0.000153337,0.890776,0.00218375,0.0108605,1714,526,22.1708,31.534
497,498,22.1066,-30.5453,0.00134284,0.0024325,0.00203063,0.00399012,-0.000214781,0.916465,0.00273449,0.0130608,1721,526,22.1066,30.5454
504,498,22.0427,-29.5588,0.00137569,0.00263927,0.00251506,0.00460068,-0.000585723,0.908453,0.00327984,0.0154853,1728,526,22.0428,29.5588
511,498,21.9619,-28.5795,0.00138264,0.00283557,0.00299794,0.0051938,-0.000975602,0.904268,0.00382939,0.0167951,1735,526,21.9619,28.5796
518,498,22.0181,-27.584,0.00134191,0.0030643,0.00332706,0.00563982,-0.0012336,0.912042,0.00423145,0.028,1742,526,22.0181,27.5841
525,498,21.8506,-26.5679,0,0,0,0,0,0,0,-1,1749,526,21.8506,26.5679
532,498,21.5616,-25.3381,0,0,0,0,0,0,0,-1,1756,526,21.5617,25.3381
539,498,20.0029,-23.3469,0,0,0,0,0,0,0,-1,1763,526,20.003,23.3469
546,498,10.2014,-8.47589,0,0,0,0,0,0,0,-1,1770,526,10.2014,8.47589
553,498,5.93958,-1.71448,0,0,0,0,0,0,0,-1,1777,526,5.93956,1.71447
560,498,3.69385,-0.615112,0,0,0,0,0,0,0,-1,1784,526,3.69381,0.615118
567,498,5.12695,-0.581604,0,0,0,0,0,0,0,-1,1791,526,5.12699,0.58159
574,498,3.88,0.0286255,0,0,0,0,0,0,0,-1,1798,526,3.87999,-0.0286535
581,498,10.8722,2.58551,0,0,0,0,0,0,0,-1,1805,526,10.8723,-2.58551
588,498,0,0,0,0,0,0,0,0,0,-1,1812,526,0,0
595,498,0,0,0,0,0,0,0,0,0,-1,1819,526,0,0
602,498,0,0,0,0,0,0,0,0,0,-1,1826,526,0,0
609,498,0,0,0,0,0,0,0,0,0,-1,1833,526,0,0
616,498,0,0,0,0,0,0,0,0,0,-1,1840,526,0,0
623,498,0,0,0,0,0,0,0,0,0,-1,1847,526,0,0
630,498,0,0,0,0,0,0,0,0,0,-1,1854,526,0,0
637,498,0,0,0,0,0,0,0,0,0,-1,1861,526,0,0
644,498,0,0,0,0,0,0,0,0,0,-1,1868,526,0,0
651,498,0,0,0,0,0,0,0,0,0,-1,1875,526,0,0
658,498,0,0,0,0,0,0,0,0,0,-1,1882,526,0,0
665,498,0,0,0,0,0,0,0,0,0,-1,1889,526,0,0
672,498,0,0,0,0,0,0,0,0,0,-1,1896,526,0,0
679,498,0,0,0,0,0,0,0,0,0,-1,1903,526,0,0
686,498,0,0,0,0,0,0,0,0,0,-1,1910,526,0,0
693,498,0,0,0,0,0,0,0,0,0,-1,1917,526,0,0
700,498,0,0,0,0,0,0,0,0,0,-1,1924,526,0,0
707,498,0,0,0,0,0,0,0,0,0,-1,1931,526,0,0
714,498,0,0,0,0,0,0,0,0,0,-1,1938,526,0,0
721,498,0,0,0,0,0,0,0,0,0,-1,1945,526,0,0
728,498,0,0,0,0,0,0,0,0,0,-1,1952,526,0,0
735,498,0,0,0,0,0,0,0,0,0,-1,1959,526,0,0
742,498,0,0,0,0,0,0,0,0,0,-1,1966,526,0,0
749,498,0,0,0,0,0,0,0,0,0,-1,1973,526,0,0
756,498,0,0,0,0,0,0,0,0,0,-1,1980,526,0,0
763,498,0,0,0,0,0,0,0,0,0,-1,1987,526,0,0
770,498,0,0,0,0,0,0,0,0,0,-1,1994,526,0,0
777,498,0,0,0,0,0,0,0,0,0,-1,2001,526,0,0
784,498,0,0,0,0,0,0,0,0,0,-1,2008,526,0,0
791,498,0,0,0,0,0,0,0,0,0,-1,2015,526,0,0
798,498,0,0,0,0,0,0,0,0,0,-1,2022,526,0,0
805,498,0,0,0,0,0,0,0,0,0,-1,2029,526,0,0
812,498,0,0,0,0,0,0,0,0,0,-1,2036,526,0,0
-700,491,0,0,0,0,0,0,0,0,0,-1,524,533,0,0
-693,491,0,0,0,0,0,0,0,0,0,-1,531,533,0,0
-686,491,0,0,0,0,0,0,0,0,0,-1,538,533,0,0
-679,491,0,0,0,0,0,0,0,0,0,-1,545,533,0,0
-672,491,0,0,0,0,0,0,0,0,0,-1,552,533,0,0
-665,491,0,0,0,0,0,0,0,0,0,-1,559,533,0,0
-658,491,0,0,0,0,0,0,0,0,0,-1,566,533,0,0
-651,491,0,0,0,0,0,0,0,0,0,-1,573,533,0,0
-644,491,0,0,0,0,0,0,0,0,0,-1,580,533,0,0
-637,491,0,0,0,0,0,0,0,0,0,-1,587,533,0,0
-630,491,0,0,0,0,0,0,0,0,0,-1,594,533,0,0
-623,491,0,0,0,0,0,0,0,0,0,-1,601,533,0,0
-616,491,0,0,0,0,0,0,0,0,0,-1,608,533,0,0
-609,491,0,0,0,0,0,0,0,0,0,-1,615,533,0,0
-602,491,0,0,0,0,0,0,0,0,0,-1,622,533,0,0
-595,491,0,0,0,0,0,0,0,0,0,-1,629,533,0,0
-588,491,0,0,0,0,0,0,0,0,0,-1,636,533,0,0
-581,491,0,0,0,0,0,0,0,0,0,-1,643,533,0,0
-574,491,0,0,0,0,0,0,0,0,0,-1,650,533,0,0
-567,491,0,0,0,0,0,0,0,0,0,-1,657,533,0,0
-560,491,0,0,0,0,0,0,0,0,0,-1,664,533,0,0
-553,491,0,0,0,0,0,0,0,0,0,-1,671,533,0,0
-546,491,0,0,0,0,0,0,0,0,0,-1,678,533,0,0
-539,491,0,0,0,0,0,0,0,0,0,-1,685,533,0,0
-532,491,0,0,0,0,0,0,0,0,0,-1,692,533,0,0
-525,491,0,0,0,0,0,0,0,0,0,-1,699,533,0,0
-518,491,0,0,0,0,0,0,0,0,0,-1,706,533,0,0
-511,491,0,0,0,0,0,0,0,0,0,-1,713,533,0,0
-504,491,0,0,0,0,0,0,0,0,0,-1,720,533,0,0
-497,491,0,0,0,0,0,0,0,0,0,-1,727,533,0,0
-490,491,0,0,0,0,0,0,0,0,0,-1,734,533,0,0
-483,491,0,0,0,0,0,0,0,0,0,-1,741,533,0,0
-476,491,0,0,0,0,0,0,0,0,0,-1,748,533,0,0
-469,491,-5.85913,4.55011,0,0,0,0,0,0,0,-1,755,533,-5.8591,-4.55009
-462,491,-9.93713,4.90381,0,0,0,0,0,0,0,-1,762,533,-9.93716,-4.9038
-455,491,1.9494,-0.27887,0,0,0,0,0,0,0,-1,769,533,1.94941,0.27885
-448,491,2.68909,-1.8999,0,0,0,0,0,0,0,-1,776,533,2.6891,1.89988
-441,491,3.46069,-3.51855,0,0,0,0,0,0,0,-1,783,533,3.46071,3.51854
-434,491,2.67145,-7.44061,0,0,0,0,0,0,0,-1,790,533,2.67146,7.44061
-427,491,2.27136,-8.34546,0,0,0,0,0,0,0,-1,797,533,2.27136,8.34546
-420,491,-6.41321,-22.5922,0,0,0,0,0,0,0,-1,804,533,-6.41323,22.5922
-413,491,-5.82208,-24.7471,0,0,0,0,0,0,0,-1,811,533,-5.82211,24.7471
-406,491,-5.78687,-25.7532,0.000557419,0.0123851,-0.00684673,0.0155184,-0.00257591,-1.14161,0.0113025,0.0316011,818,533,-5.78687,25.7531
-399,491,-5.84302,-26.8085,0.000494839,0.0104202,-0.00617197,0.0133772,-0.00246216,-1.12401,0.00984208,0.0160648,825,533,-5.84302,26.8085
-392,491,-5.97375,-27.7872,0.000630592,0.0087123,-0.00552617,0.0115174,-0.00217451,-1.10109,0.00849637,0.011554,832,533,-5.97378,27.7872
-385,491,-6.02759,-28.7386,0.000882505,0.0071225,-0.00481978,0.00974398,-0.00173898,-1.07265,0.00714653,0.00916722,839,533,-6.0276,28.7387
-378,491,-6.06744,-29.7076,0.00116316,0.0056429,-0.00407011,0.00804876,-0.0012427,-1.03694,0.00582443,0.0140027,846,533,-6.06742,29.7077
-371,491,-6.11847,-30.678,0.00138408,0.00414977,-0.00334317,0.0063848,-0.000850952,-0.9815,0.00456669,0.0157116,853,533,-6.11846,30.678
-364,491,-6.18268,-31.6593,0.00155489,0.00255065,-0.00247835,0.00458064,-0.00047509,-0.884525,0.00322381,0.0151341,860,533,-6.1827,31.6593
-357,491,-6.2326,-32.611,0.00171215,0.00119046,-0.00160499,0.00307735,-0.000174744,-0.704841,0.00211222,0.0137822,867,533,-6.23262,32.611
-350,491,-6.30713,-33.541,0.00183968,-0.000127891,-0.000773371,0.00210726,-0.00039548,-0.33311,0.00155354,0.0169041,874,533,-6.3071,33.5409
-343,491,-6.34558,-34.5557,0.00192499,-0.00147129,5.17192e-05,0.00192577,-0.00147208,0.0152235,0.00196757,0.0284502,881,533,-6.34559,34.5557
-336,491,-6.40417,-35.5289,0.00192171,-0.00277277,0.000857993,0.00207361,-0.00292467,0.175222,0.00289967,0.0299803,888,533,-6.40417,35.5289
-329,491,-6.46063,-36.3589,0.00189599,-0.00394025,0.00162434,0.00231762,-0.00436187,0.253963,0.00391615,0.0282639,895,533,-6.4606,36.3589
-322,491,-6.51978,-37.3047,0.00192228,-0.00495973,0.00230947,0.00262545,-0.0056629,0.295554,0.00489122,0.0231325,902,533,-6.51978,37.3048
-315,491,-6.61652,-38.1856,0.00214698,-0.0052182,0.00255853,0.00294853,-0.00601975,0.303602,0.00527808,0.0237035,909,533,-6.61653,38.1856
-308,491,-6.64838,-39.317,0,0,0,0,0,0,0,-1,916,533,-6.64836,39.3169
-301,491,-6.54926,-39.0012,0,0,0,0,0,0,0,-1,923,533,-6.54927,39.0012
-294,491,-0.777283,-8.60913,0,0,0,0,0,0,0,-1,930,533,-0.777288,8.6091
-287,491,-0.26123,-8.69055,0,0,0,0,0,0,0,-1,937,533,-0.261204,8.69053
-280,491,0.2948,-5.99219,0,0,0,0,0,0,0,-1,944,533,0.294811,5.99221
-273,491,0.369995,-5.33691,0,0,0,0,0,0,0,-1,951,533,0.369985,5.33693
-266,491,1.1167,-5.0321,0,0,0,0,0,0,0,-1,958,533,1.11668,5.0321
-259,491,12.0862,-16.9615,0,0,0,0,0,0,0,-1,965,533,12.0862,16.9615
-252,491,9.72443,-13.8417,0,0,0,0,0,0,0,-1,972,533,9.72444,13.8418
-245,491,5.27258,-14.3619,0,0,0,0,0,0,0,-1,979,533,5.27255,14.3619
-238,491,3.65381,-11.1472,0,0,0,0,0,0,0,-1,986,533,3.6538,11.1472
-231,491,2.17719,-7.86835,0,0,0,0,0,0,0,-1,993,533,2.17719,7.86832
-224,491,0.554626,-4.61725,0,0,0,0,0,0,0,-1,1000,533,0.554608,4.61727
-217,491,-2.92743,-1.0766,0,0,0,0,0,0,0,-1,1007,533,-2.92743,1.07659
-210,491,-0.92395,0.374512,0,0,0,0,0,0,0,-1,1014,533,-0.923959,-0.374531
-203,491,0.417419,4.77161,0,0,0,0,0,0,0,-1,1021,533,0.417446,-4.77162
-196,491,0,0,0,0,0,0,0,0,0,-1,1028,533,0,0
-189,491,0,0,0,0,0,0,0,0,0,-1,1035,533,0,0
-182,491,0,0,0,0,0,0,0,0,0,-1,1042,533,0,0
-175,491,0,0,0,0,0,0,0,0,0,-1,1049,533,0,0
-168,491,0,0,0,0,0,0,0,0,0,-1,1056,533,0,0
-161,491,0,0,0,0,0,0,0,0,0,-1,1063,533,0,0
-154,491,0,0,0,0,0,0,0,0,0,-1,1070,533,0,0
-147,491,0,0,0,0,0,0,0,0,0,-1,1077,533,0,0
-140,491,0,0,0,0,0,0,0,0,0,-1,1084,533,0,0
-133,491,0,0,0,0,0,0,0,0,0,-1,1091,533,0,0
-126,491,0,0,0,0,0,0,0,0,0,-1,1098,533,0,0
-119,491,0,0,0,0,0,0,0,0,0,-1,1105,533,0,0
-112,491,0,0,0,0,0,0,0,0,0,-1,1112,533,0,0
-105,491,0,0,0,0,0,0,0,0,0,-1,1119,533,0,0
-98,491,0,0,0,0,0,0,0,0,0,-1,1126,533,0,0
-91,491,0,0,0,0,0,0,0,0,0,-1,1133,533,0,0
-84,491,0,0,0,0,0,0,0,0,0,-1,1140,533,0,0
-77,491,0,0,0,0,0,0,0,0,0,-1,1147,533,0,0
-70,491,0,0,0,0,0,0,0,0,0,-1,1154,533,0,0
-63,491,0,0,0,0,0,0,0,0,0,-1,1161,533,0,0
-56,491,0,0,0,0,0,0,0,0,0,-1,1168,533,0,0
-49,491,0,0,0,0,0,0,0,0,0,-1,1175,533,0,0
-42,491,0,0,0,0,0,0,0,0,0,-1,1182,533,0,0
-35,491,0,0,0,0,0,0,0,0,0,-1,1189,533,0,0
-28,491,0,0,0,0,0,0,0,0,0,-1,1196,533,0,0
-21,491,0,0,0,0,0,0,0,0,0,-1,1203,533,0,0
-14,491,0,0,0,0,0,0,0,0,0,-1,1210,533,0,0
-7,491,0,0,0,0,0,0,0,0,0,-1,1217,533,0,0
0,491,0,0,0,0,0,0,0,0,0,-1,1224,533,0,0
7,491,0,0,0,0,0,0,0,0,0,-1,1231,533,0,0
14,491,0,0,0,0,0,0,0,0,0,-1,1238,533,0,0
21,491,0,0,0,0,0,0,0,0,0,-1,1245,533,0,0
28,491,0,0,0,0,0,0,0,0,0,-1,1252,533,0,0
35,491,0,0,0,0,0,0,0,0,0,-1,1259,533,0,0
42,491,0,0,0,0,0,0,0,0,0,-1,1266,533,0,0
49,491,0,0,0,0,0,0,0,0,0,-1,1273,533,0,0
56,491,0,0,0,0,0,0,0,0,0,-1,1280,533,0,0
63,491,0,0,0,0,0,0,0,0,0,-1,1287,533,0,0
70,491,0,0,0,0,0,0,0,0,0,-1,1294,533,0,0
77,491,0,0,0,0,0,0,0,0,0,-1,1301,533,0,0
84,491,0,0,0,0,0,0,0,0,0,-1,1308,533,0,0
91,491,0,0,0,0,0,0,0,0,0,-1,1315,533,0,0
98,491,0,0,0,0,0,0,0,0,0,-1,1322,533,0,0
105,491,0,0,0,0,0,0,0,0,0,-1,1329,533,0,0
112,491,0,0,0,0,0,0,0,0,0,-1,1336,533,0,0
119,491,0,0,0,0,0,0,0,0,0,-1,1343,533,0,0
126,491,0,0,0,0,0,0,0,0,0,-1,1350,533,0,0
133,491,0,0,0,0,0,0,0,0,0,-1,1357,533,0,0
140,491,0,0,0,0,0,0,0,0,0,-1,1364,533,0,0
147,491,0,0,0,0,0,0,0,0,0,-1,1371,533,0,0
154,491,0,0,0,0,0,0,0,0,0,-1,1378,533,0,0
161,491,0,0,0,0,0,0,0,0,0,-1,1385,533,0,0
168,491,0,0,0,0,0,0,0,0,0,-1,1392,533,0,0
175,491,0,0,0,0,0,0,0,0,0,-1,1399,533,0,0
182,491,0,0,0,0,0,0,0,0,0,-1,1406,533,0,0
189,491,0,0,0,0,0,0,0,0,0,-1,1413,533,0,0
196,491,0,0,0,0,0,0,0,0,0,-1,1420,533,0,0
203,491,0,0,0,0,0,0,0,0,0,-1,1427,533,0,0
210,491,0,0,0,0,0,0,0,0,0,-1,1434,533,0,0
217,491,0,0,0,0,0,0,0,0,0,-1,1441,533,0,0
224,491,0,0,0,0,0,0,0,0,0,-1,1448,533,0,0
231,491,0,0,0,0,0,0,0,0,0,-1,1455,533,0,0
238,491,0,0,0,0,0,0,0,0,0,-1,1462,533,0,0
245,491,0,0,0,0,0,0,0,0,0,-1,1469,533,0,0
252,491,0,0,0,0,0,0,0,0,0,-1,1476,533,0,0
259,491,0,0,0,0,0,0,0,0,0,-1,1483,533,0,0
266,491,0,0,0,0,0,0,0,0,0,-1,1490,533,0,0
273,491,0,0,0,0,0,0,0,0,0,-1,1497,533,0,0
280,491,0,0,0,0,0,0,0,0,0,-1,1504,533,0,0
287,491,0,0,0,0,0,0,0,0,0,-1,1511,533,0,0
294,491,0,0,0,0,0,0,0,0,0,-1,1518,533,0,0
301,491,0,0,0,0,0,0,0,0,0,-1,1525,533,0,0
308,491,0,0,0,0,0,0,0,0,0,-1,1532,533,0,0
315,491,0,0,0,0,0,0,0,0,0,-1,1539,533,0,0
322,491,4.26331,-0.734314,0,0,0,0,0,0,0,-1,1546,533,4.26326,0.734324
329,491,4.25354,-0.783752,0,0,0,0,0,0,0,-1,1553,533,4.25359,0.783734
336,491,4.81604,-0.722107,0,0,0,0,0,0,0,-1,1560,533,4.81605,0.722115
343,491,6.14478,-1.44281,0,0,0,0,0,0,0,-1,1567,533,6.14474,1.44281
350,491,6.36353,-1.30792,0,0,0,0,0,0,0,-1,1574,533,6.36352,1.3079
357,491,6.69482,-1.06018,0,0,0,0,0,0,0,-1,1581,533,6.69489,1.06018
364,491,8.01086,-1.69604,0,0,0,0,0,0,0,-1,1588,533,8.01087,1.69607
371,491,8.2135,-0.539307,0,0,0,0,0,0,0,-1,1595,533,8.21348,0.53929
378,491,13.3589,2.17267,0,0,0,0,0,0,0,-1,1602,533,13.3589,-2.17264
385,491,8.08228,-4.95471,0,0,0,0,0,0,0,-1,1609,533,8.08227,4.95474
392,491,2.88721,-4.30988,0,0,0,0,0,0,0,-1,1616,533,2.88716,4.30986
399,491,8.95862,-8.55518,0,0,0,0,0,0,0,-1,1623,533,8.95864,8.55516
406,491,8.16541,-9.00806,0,0,0,0,0,0,0,-1,1630,533,8.16535,9.00807
413,491,5.31848,-3.7124,0,0,0,0,0,0,0,-1,1637,533,5.31849,3.7124
420,491,4.86389,-3.95892,0,0,0,0,0,0,0,-1,1644,533,4.86387,3.95893
427,491,11.5096,-15.2742,0,0,0,0,0,0,0,-1,1651,533,11.5096,15.2742
434,491,23.533,-38.6521,0,0,0,0,0,0,0,-1,1658,533,23.533,38.6521
441,491,23.4781,-37.8128,0.00278279,0.00138153,-6.86124e-05,0.00278614,0.00137818,-0.0488093,0.00160861,0.0452492,1665,533,23.4782,37.8128
448,491,23.412,-37.1415,0.00239434,0.000975181,-0.000240233,0.0024339,0.000935618,-0.163223,0.00141767,0.0263391,1672,533,23.412,37.1416
455,491,23.3325,-36.1392,0.00211893,0.000758577,-0.000360838,0.00220871,0.00066879,-0.243878,0.00130785,0.0167006,1679,533,23.3325,36.1391
462,491,23.3522,-35.2192,0.00183319,0.000634913,-0.000314704,0.00191082,0.000557291,-0.241825,0.00113469,0.0174436,1686,533,23.3521,35.2192
469,491,23.3068,-34.3284,0.00169128,0.000742163,-0.000118886,0.00170594,0.000727498,-0.122734,0.000988471,0.0170998,1693,533,23.3067,34.3284
476,491,23.2449,-33.384,0.00161785,0.000932475,0.000183614,0.00166394,0.000886384,0.24594,0.000961363,0.0111136,1700,533,23.2449,33.384
483,491,23.1711,-32.4196,0.00159667,0.0010707,0.00053171,0.00192688,0.000740496,0.555741,0.00112237,0.0122877,1707,533,23.1712,32.4195
490,491,23.1084,-31.4667,0.00147361,0.00136845,0.000874987,0.0022976,0.000544466,0.755386,0.00138635,0.0107741,1714,533,23.1084,31.4667
497,491,23.0664,-30.4814,0.00139042,0.0017231,0.00133692,0.00290398,0.000209532,0.847291,0.00187006,0.0116857,1721,533,23.0664,30.4815
504,491,23.0239,-29.498,0.00139213,0.00184915,0.00178094,0.00341618,-0.000174902,0.849203,0.00233794,0.0140256,1728,533,23.0239,29.498
511,491,22.9304,-28.5411,0.00132156,0.00203469,0.00221405,0.00392071,-0.000564457,0.865236,0.00282085,0.0135343,1735,533,22.9304,28.5411
518,491,22.8669,-27.5942,0.0011572,0.00225445,0.00252775,0.00429243,-0.000880775,0.892261,0.00319593,0.0106833,1742,533,22.8669,27.5942
525,491,22.8317,-26.6121,0.00105974,0.00241313,0.00285087,0.00466652,-0.00119364,0.901923,0.00357593,0.012296,1749,533,22.8316,26.6121
532,491,22.7528,-25.6604,0.000961739,0.00264792,0.0031922,0.00510649,-0.00149683,0.914505,0.00399779,0.0309403,1756,533,22.7529,25.6604
539,491,22.7029,-24.6173,0,0,0,0,0,0,0,-1,1763,533,22.7029,24.6173
546,491,21.6814,-23.2498,0,0,0,0,0,0,0,-1,1770,533,21.6814,23.2498
553,491,10.5021,-7.77869,0,0,0,0,0,0,0,-1,1777,533,10.502,7.77871
560,491,6.28455,-1.43585,0,0,0,0,0,0,0,-1,1784,533,6.28458,1.43586
567,491,5.67651,-1.3562,0,0,0,0,0,0,0,-1,1791,533,5.67649,1.3562
574,491,8.0719,1.58325,0,0,0,0,0,0,0,-1,1798,533,8.07195,-1.58326
581,491,9.44812,1.60931,0,0,0,0,0,0,0,-1,1805,533,9.44808,-1.60933
588,491,11.0497,1.54962,0,0,0,0,0,0,0,-1,1812,533,11.0496,-1.54963
595,491,0,0,0,0,0,0,0,0,0,-1,1819,533,0,0
602,491,0,0,0,0,0,0,0,0,0,-1,1826,533,0,0
609,491,0,0,0,0,0,0,0,0,0,-1,1833,533,0,0
616,491,0,0,0,0,0,0,0,0,0,-1,1840,533,0,0
623,491,0,0,0,0,0,0,0,0,0,-1,1847,533,0,0
630,491,0,0,0,0,0,0,0,0,0,-1,1854,533,0,0
637,491,0,0,0,0,0,0,0,0,0,-1,1861,533,0,0
644,491,0,0,0,0,0,0,0,0,0,-1,1868,533,0,0
651,491,0,0,0,0,0,0,0,0,0,-1,1875,533,0,0
658,491,0,0,0,0,0,0,0,0,0,-1,1882,533,0,0
665,491,0,0,0,0,0,0,0,0,0,-1,1889,533,0,0
672,491,0,0,0,0,0,0,0,0,0,-1,1896,533,0,0
679,491,0,0,0,0,0,0,0,0,0,-1,1903,533,0,0
686,491,0,0,0,0,0,0,0,0,0,-1,1910,533,0,0
693,491,0,0,0,0,0,0,0,0,0,-1,1917,533,0,0
700,491,0,0,0,0,0,0,0,0,0,-1,1924,533,0,0
707,491,0,0,0,0,0,0,0,0,0,-1,1931,533,0,0
714,491,0,0,0,0,0,0,0,0,0,-1,1938,533,0,0
721,491,0,0,0,0,0,0,0,0,0,-1,1945,533,0,0
728,491,0,0,0,0,0,0,0,0,0,-1,1952,533,0,0
735,491,0,0,0,0,0,0,0,0,0,-1,1959,533,0,0
742,491,0,0,0,0,0,0,0,0,0,-1,1966,533,0,0
749,491,0,0,0,0,0,0,0,0,0,-1,1973,533,0,0
756,491,0,0,0,0,0,0,0,0,0,-1,1980,533,0,0
763,491,0,0,0,0,0,0,0,0,0,-1,1987,533,0,0
770,491,0,0,0,0,0,0,0,0,0,-1,1994,533,0,0
777,491,0,0,0,0,0,0,0,0,0,-1,2001,533,0,0
784,491,0,0,0,0,0,0,0,0,0,-1,2008,533,0,0
791,491,0,0,0,0,0,0,0,0,0,-1,2015,533,0,0
798,491,0,0,0,0,0,0,0,0,0,-1,2022,533,0,0
805,491,0,0,0,0,0,0,0,0,0,-1,2029,533,0,0
812,491,0,0,0,0,0,0,0,0,0,-1,2036,533,0,0
-700,484,0,0,0,0,0,0,0,0,0,-1,524,540,0,0
-693,484,0,0,0,0,0,0,0,0,0,-1,531,540,0,0
-686,484,0,0,0,0,0,0,0,0,0,-1,538,540,0,0
-679,484,0,0,0,0,0,0,0,0,0,-1,545,540,0,0
-672,484,0,0,0,0,0,0,0,0,0,-1,552,540,0,0
-665,484,0,0,0,0,0,0,0,0,0,-1,559,540,0,0
-658,484,0,0,0,0,0,0,0,0,0,-1,566,540,0,0
-651,484,0,0,0,0,0,0,0,0,0,-1,573,540,0,0
-644,484,0,0,0,0,0,0,0,0,0,-1,580,540,0,0
-637,484,0,0,0,0,0,0,0,0,0,-1,587,540,0,0
-630,484,0,0,0,0,0,0,0,0,0,-1,594,540,0,0
-623,484,0,0,0,0,0,0,0,0,0,-1,601,540,0,0
-616,484,0,0,0,0,0,0,0,0,0,-1,608,540,0,0
-609,484,0,0,0,0,0,0,0,0,0,-1,615,540,0,0
-602,484,0,0,0,0,0,0,0,0,0,-1,622,540,0,0
-595,484,0,0,0,0,0,0,0,0,0,-1,629,540,0,0
-588,484,0,0,0,0,0,0,0,0,0,-1,636,540,0,0
-581,484,0,0,0,0,0,0,0,0,0,-1,643,540,0,0
-574,484,0,0,0,0,0,0,0,0,0,-1,650,540,0,0
-567,484,0,0,0,0,0,0,0,0,0,-1,657,540,0,0
-560,484,0,0,0,0,0,0,0,0,0,-1,664,540,0,0
-553,484,0,0,0,0,0,0,0,0,0,-1,671,540,0,0
-546,484,0,0,0,0,0,0,0,0,0,-1,678,540,0,0
-539,484,0,0,0,0,0,0,0,0,0,-1,685,540,0,0
-532,484,0,0,0,0,0,0,0,0,0,-1,692,540,0,0
-525,484,0,0,0,0,0,0,0,0,0,-1,699,540,0,0
-518,484,0,0,0,0,0,0,0,0,0,-1,706,540,0,0
-511,484,0,0,0,0,0,0,0,0,0,-1,713,540,0,0
-504,484,0,0,0,0,0,0,0,0,0,-1,720,540,0,0
-497,484,0,0,0,0,0,0,0,0,0,-1,727,540,0,0
-490,484,0,0,0,0,0,0,0,0,0,-1,734,540,0,0
-483,484,0,0,0,0,0,0,0,0,0,-1,741,540,0,0
-476,484,-8.46552,1.44702,0,0,0,0,0,0,0,-1,748,540,-8.46554,-1.44702
-469,484,-7.82343,1.70355,0,0,0,0,0,0,0,-1,755,540,-7.82345,-1.70355
-462,484,-8.36987,3.08612,0,0,0,0,0,0,0,-1,762,540,-8.36988,-3.0861
-455,484,-6.77197,2.07092,0,0,0,0,0,0,0,-1,769,540,-6.77197,-2.07094
-448,484,3.54895,-1.40106,0,0,0,0,0,0,0,-1,776,540,3.54897,1.40106
-441,484,4.28906,-3.05884,0,0,0,0,0,0,0,-1,783,540,4.28905,3.05883
-434,484,-2.17548,-5.07245,0,0,0,0,0,0,0,-1,790,540,-2.17546,5.07243
-427,484,-6.61584,-22.1362,0,0,0,0,0,0,0,-1,797,540,-6.61583,22.1362
-420,484,-6.53864,-23.4027,0,0,0,0,0,0,0,-1,804,540,-6.53863,23.4027
-413,484,-6.57855,-24.5777,0.000599935,0.0111751,-0.0054855,0.0135065,-0.00173148,-1.16891,0.00963353,0.0363526,811,540,-6.57853,24.5777
-406,484,-6.69678,-25.7055,0.000543005,0.00925468,-0.00505298,0.0115701,-0.00177243,-1.14112,0.00836704,0.0204127,818,540,-6.69677,25.7055
-399,484,-6.84021,-26.734,0.000482689,0.00745783,-0.00442939,0.00960786,-0.00166735,-1.11889,0.00702727,0.0173007,825,540,-6.84019,26.734
-392,484,-6.92938,-27.7102,0.000630738,0.00592117,-0.00385543,0.00795158,-0.00139967,-1.08607,0.00582395,0.0180691,832,540,-6.92938,27.7102
-385,484,-6.99817,-28.681,0.000912816,0.00452081,-0.00325149,0.00643522,-0.0010016,-1.03867,0.00466003,0.0130576,839,540,-6.99815,28.681
-378,484,-7.03949,-29.6547,0.00122354,0.00321503,-0.00259904,0.00500254,-0.000563978,-0.968334,0.00353803,0.0154551,846,540,-7.03947,29.6547
-371,484,-7.10028,-30.6176,0.00149406,0.00193295,-0.00198209,0.0037077,-0.00028069,-0.840531,0.00257048,0.0171585,853,540,-7.10027,30.6176
-364,484,-7.16254,-31.5642,0.00171809,0.000596089,-0.0012625,0.00253863,-0.000224445,-0.576323,0.00177198,0.0123652,860,540,-7.16255,31.5642
-357,484,-7.20868,-32.5184,0.00194321,-0.000509132,-0.000559135,0.00206467,-0.000630599,-0.213917,0.00162788,0.0134023,867,540,-7.20871,32.5184
-350,484,-7.29779,-33.4633,0.00214668,-0.00157489,8.81181e-05,0.00214876,-0.00157698,0.02366,0.00215948,0.0155143,874,540,-7.29776,33.4633
-343,484,-7.32166,-34.4384,0.00227728,-0.00262999,0.000738047,0.00238588,-0.00273859,0.146094,0.00296094,0.0229959,881,540,-7.32164,34.4383
-336,484,-7.36102,-35.3784,0.00229494,-0.00370691,0.00138793,0.00260036,-0.00401233,0.2166,0.00384674,0.0269019,888,540,-7.36104,35.3784
-329,484,-7.40924,-36.2393,0.00229745,-0.00470394,0.00200797,0.00283245,-0.00523893,0.260387,0.00472855,0.0384895,895,540,-7.40922,36.2393
-322,484,-7.39355,-37.1687,0,0,0,0,0,0,0,-1,902,540,-7.39356,37.1687
-315,484,-7.3158,-38.1885,0,0,0,0,0,0,0,-1,909,540,-7.31578,38.1885
-308,484,-1.32623,-8.9317,0,0,0,0,0,0,0,-1,916,540,-1.32626,8.93173
-301,484,-1.33453,-6.52667,0,0,0,0,0,0,0,-1,923,540,-1.33454,6.5267
-294,484,-1.61224,-8.17059,0,0,0,0,0,0,0,-1,930,540,-1.61227,8.17058
-287,484,-0.715759,-5.62103,0,0,0,0,0,0,0,-1,937,540,-0.715772,5.62105
-280,484,2.66742,-1.6795,0,0,0,0,0,0,0,-1,944,540,2.6674,1.67949
-273,484,2.53125,-2.22296,0,0,0,0,0,0,0,-1,951,540,2.53128,2.22295
-266,484,2.6778,-2.72058,0,0,0,0,0,0,0,-1,958,540,2.6778,2.72061
-259,484,2.41718,-2.59894,0,0,0,0,0,0,0,-1,965,540,2.41717,2.59892
-252,484,10.6069,-11.696,0,0,0,0,0,0,0,-1,972,540,10.6069,11.696
-245,484,6.34106,-11.6107,0,0,0,0,0,0,0,-1,979,540,6.34104,11.6107
-238,484,4.89319,-8.54059,0,0,0,0,0,0,0,-1,986,540,4.89321,8.5406
-231,484,3.47675,-5.22064,0,0,0,0,0,0,0,-1,993,540,3.47676,5.22067
-224,484,1.71344,-2.03473,0,0,0,0,0,0,0,-1,1000,540,1.71342,2.03472
-217,484,-0.745056,1.17358,0,0,0,0,0,0,0,-1,1007,540,-0.745043,-1.17359
-210,484,0,0,0,0,0,0,0,0,0,-1,1014,540,0,0
-203,484,0,0,0,0,0,0,0,0,0,-1,1021,540,0,0
-196,484,0,0,0,0,0,0,0,0,0,-1,1028,540,0,0
-189,484,0,0,0,0,0,0,0,0,0,-1,1035,540,0,0
-182,484,0,0,0,0,0,0,0,0,0,-1,1042,540,0,0
-175,484,0,0,0,0,0,0,0,0,0,-1,1049,540,0,0
-168,484,0,0,0,0,0,0,0,0,0,-1,1056,540,0,0
-161,484,0,0,0,0,0,0,0,0,0,-1,1063,540,0,0
-154,484,0,0,0,0,0,0,0,0,0,-1,1070,540,0,0
-147,484,0,0,0,0,0,0,0,0,0,-1,1077,540,0,0
-140,484,0,0,0,0,0,0,0,0,0,-1,1084,540,0,0
-133,484,0,0,0,0,0,0,0,0,0,-1,1091,540,0,0
-126,484,0,0,0,0,0,0,0,0,0,-1,1098,540,0,0
-119,484,0,0,0,0,0,0,0,0,0,-1,1105,540,0,0
-112,484,0,0,0,0,0,0,0,0,0,-1,1112,540,0,0
-105,484,0,0,0,0,0,0,0,0,0,-1,1119,540,0,0
-98,484,0,0,0,0,0,0,0,0,0,-1,1126,540,0,0
-91,484,0,0,0,0,0,0,0,0,0,-1,1133,540,0,0
-84,484,0,0,0,0,0,0,0,0,0,-1,1140,540,0,0
-77,484,0,0,0,0,0,0,0,0,0,-1,1147,540,0,0
-70,484,0,0,0,0,0,0,0,0,0,-1,1154,540,0,0
-63,484,0,0,0,0,0,0,0,0,0,-1,1161,540,0,0
-56,484,0,0,0,0,0,0,0,0,0,-1,1168,540,0,0
-49,484,0,0,0,0,0,0,0,0,0,-1,1175,540,0,0
-42,484,0,0,0,0,0,0,0,0,0,-1,1182,540,0,0
-35,484,0,0,0,0,0,0,0,0,0,-1,1189,540,0,0
-28,484,0,0,0,0,0,0,0,0,0,-1,1196,540,0,0
-21,484,0,0,0,0,0,0,0,0,0,-1,1203,540,0,0
-14,484,0,0,0,0,0,0,0,0,0,-1,1210,540,0,0
-7,484,0,0,0,0,0,0,0,0,0,-1,1217,540,0,0
0,484,0,0,0,0,0,0,0,0,0,-1,1224,540,0,0
7,484,0,0,0,0,0,0,0,0,0,-1,1231,540,0,0
14,484,0,0,0,0,0,0,0,0,0,-1,1238,540,0,0
21,484,0,0,0,0,0,0,0,0,0,-1,1245,540,0,0
28,484,0,0,0,0,0,0,0,0,0,-1,1252,540,0,0
35,484,0,0,0,0,0,0,0,0,0,-1,1259,540,0,0
42,484,0,0,0,0,0,0,0,0,0,-1,1266,540,0,0
49,484,0,0,0,0,0,0,0,0,0,-1,1273,540,0,0
56,484,0,0,0,0,0,0,0,0,0,-1,1280,540,0,0
63,484,0,0,0,0,0,0,0,0,0,-1,1287,540,0,0
70,484,0,0,0,0,0,0,0,0,0,-1,1294,540,0,0
77,484,0,0,0,0,0,0,0,0,0,-1,1301,540,0,0
84,484,0,0,0,0,0,0,0,0,0,-1,1308,540,0,0
91,484,0,0,0,0,0,0,0,0,0,-1,1315,540,0,0
98,484,0,0,0,0,0,0,0,0,0,-1,1322,540,0,0
105,484,0,0,0,0,0,0,0,0,0,-1,1329,540,0,0
112,484,0,0,0,0,0,0,0,0,0,-1,1336,540,0,0
119,484,0,0,0,0,0,0,0,0,0,-1,1343,540,0,0
126,484,0,0,0,0,0,0,0,0,0,-1,1350,540,0,0
133,484,0,0,0,0,0,0,0,0,0,-1,1357,540,0,0
140,484,0,0,0,0,0,0,0,0,0,-1,1364,540,0,0
147,484,0,0,0,0,0,0,0,0,0,-1,1371,540,0,0
154,484,0,0,0,0,0,0,0,0,0,-1,1378,540,0,0
161,484,0,0,0,0,0,0,0,0,0,-1,1385,540,0,0
168,484,0,0,0,0,0,0,0,0,0,-1,1392,540,0,0
175,484,0,0,0,0,0,0,0,0,0,-1,1399,540,0,0
182,484,0,0,0,0,0,0,0,0,0,-1,1406,540,0,0
189,484,0,0,0,0,0,0,0,0,0,-1,1413,540,0,0
196,484,0,0,0,0,0,0,0,0,0,-1,1420,540,0,0
203,484,0,0,0,0,0,0,0,0,0,-1,1427,540,0,0
210,484,0,0,0,0,0,0,0,0,0,-1,1434,540,0,0
217,484,0,0,0,0,0,0,0,0,0,-1,1441,540,0,0
224,484,0,0,0,0,0,0,0,0,0,-1,1448,540,0,0
231,484,0,0,0,0,0,0,0,0,0,-1,1455,540,0,0
238,484,0,0,0,0,0,0,0,0,0,-1,1462,540,0,0
245,484,0,0,0,0,0,0,0,0,0,-1,1469,540,0,0
252,484,0,0,0,0,0,0,0,0,0,-1,1476,540,0,0
259,484,0,0,0,0,0,0,0,0,0,-1,1483,540,0,0
266,484,0,0,0,0,0,0,0,0,0,-1,1490,540,0,0
273,484,0,0,0,0,0,0,0,0,0,-1,1497,540,0,0
280,484,0,0,0,0,0,0,0,0,0,-1,1504,540,0,0
287,484,0,0,0,0,0,0,0,0,0,-1,1511,540,0,0
294,484,0,0,0,0,0,0,0,0,0,-1,1518,540,0,0
301,484,0,0,0,0,0,0,0,0,0,-1,1525,540,0,0
308,484,0,0,0,0,0,0,0,0,0,-1,1532,540,0,0
315,484,0,0,0,0,0,0,0,0,0,-1,1539,540,0,0
322,484,0,0,0,0,0,0,0,0,0,-1,1546,540,0,0
329,484,0,0,0,0,0,0,0,0,0,-1,1553,540,0,0
336,484,4.38708,-1.64136,0,0,0,0,0,0,0,-1,1560,540,4.38704,1.64138
343,484,7.57996,-1.05457,0,0,0,0,0,0,0,-1,1567,540,7.57995,1.05454
350,484,8.10425,-1.18878,0,0,0,0,0,0,0,-1,1574,540,8.1043,1.18877
357,484,7.74902,-3.80286,0,0,0,0,0,0,0,-1,1581,540,7.74901,3.80287
364,484,6.31262,-3.87213,0,0,0,0,0,0,0,-1,1588,540,6.31263,3.87215
371,484,7.21008,0.973511,0,0,0,0,0,0,0,-1,1595,540,7.21014,-0.973541
378,484,11.0563,1.5014,0,0,0,0,0,0,0,-1,1602,540,11.0563,-1.5014
385,484,14.3469,2.5545,0,0,0,0,0,0,0,-1,1609,540,14.3469,-2.55453
392,484,7.39453,-4.95026,0,0,0,0,0,0,0,-1,1616,540,7.39448,4.95023
399,484,7.14417,-2.5639,0,0,0,0,0,0,0,-1,1623,540,7.14417,2.56391
406,484,7.88953,-2.47321,0,0,0,0,0,0,0,-1,1630,540,7.88954,2.47323
413,484,4.4895,-1.08673,0,0,0,0,0,0,0,-1,1637,540,4.48952,1.08674
420,484,4.50012,-2.11255,0,0,0,0,0,0,0,-1,1644,540,4.50012,2.11256
427,484,5.28601,-3.54053,0,0,0,0,0,0,0,-1,1651,540,5.28599,3.54051
434,484,11.1488,-13.5359,0,0,0,0,0,0,0,-1,1658,540,11.1489,13.5359
441,484,24.3011,-37.4371,0,0,0,0,0,0,0,-1,1665,540,24.3011,37.4371
448,484,24.2888,-37.2503,0,0,0,0,0,0,0,-1,1672,540,24.2888,37.2503
455,484,24.2849,-36.1357,0,0,0,0,0,0,0,-1,1679,540,24.285,36.1357
462,484,24.3044,-35.1747,0.00183249,0.00046738,-0.000964877,0.00233183,-3.19571e-05,-0.47756,0.00156531,0.0328961,1686,540,24.3045,35.1747
469,484,24.2609,-34.2506,0.00164659,0.000499181,-0.000738062,0.0020077,0.000138074,-0.455022,0.0012949,0.0206074,1693,540,24.2609,34.2506
476,484,24.1985,-33.2571,0.00158037,0.000625976,-0.000390346,0.00171968,0.000486661,-0.34281,0.00102356,0.0177325,1700,540,24.1985,33.2571
483,484,24.1245,-32.3232,0.00156262,0.000701485,-1.50216e-05,0.00156288,0.000701223,-0.0174369,0.000903913,0.0146455,1707,540,24.1246,32.3232
490,484,24.0623,-31.3982,0.00140508,0.000925629,0.000322502,0.00156719,0.000763514,0.465789,0.000904919,0.0135174,1714,540,24.0623,31.3982
497,484,24.0219,-30.421,0.00130367,0.00130236,0.000827407,0.00213042,0.00047561,0.785001,0.00129128,0.0131808,1721,540,24.0218,30.421
504,484,23.9807,-29.4585,0.00125791,0.00135596,0.00125268,0.00256057,5.32956e-05,0.804956,0.00168956,0.0167773,1728,540,23.9808,29.4585
511,484,23.9281,-28.5018,0.0011191,0.00151027,0.00164888,0.00297512,-0.000345753,0.844431,0.00210814,0.02064,1735,540,23.9281,28.5018
518,484,23.8494,-27.5583,0.000878575,0.00169968,0.00194929,0.00328118,-0.000702929,0.889189,0.00245553,0.0175251,1742,540,23.8493,27.5584
525,484,23.7523,-26.5773,0.000706031,0.00187431,0.00223747,0.00360263,-0.00102229,0.913084,0.00280531,0.0144439,1749,540,23.7523,26.5774
532,484,23.6805,-25.5538,0.000558698,0.00219935,0.00252999,0.00403868,-0.00128063,0.942171,0.00320576,0.0157183,1756,540,23.6805,25.5538
539,484,23.5751,-24.5317,0.000342797,0.002629,0.00272355,0.00443961,-0.00146781,0.984089,0.0035516,0.0446436,1763,540,23.5751,24.5318
546,484,23.4744,-23.3687,0,0,0,0,0,0,0,-1,1770,540,23.4744,23.3687
553,484,12.4246,-8.96423,0,0,0,0,0,0,0,-1,1777,540,12.4246,8.96422
560,484,10.0549,-5.47931,0,0,0,0,0,0,0,-1,1784,540,10.055,5.47928
567,484,7.78223,-1.38312,0,0,0,0,0,0,0,-1,1791,540,7.78224,1.38311
574,484,5.74463,1.50922,0,0,0,0,0,0,0,-1,1798,540,5.74463,-1.50924
581,484,10.34,2.9491,0,0,0,0,0,0,0,-1,1805,540,10.34,-2.94912
588,484,10.6669,2.88568,0,0,0,0,0,0,0,-1,1812,540,10.6669,-2.88567
595,484,10.7233,1.04767,0,0,0,0,0,0,0,-1,1819,540,10.7233,-1.04766
602,484,0,0,0,0,0,0,0,0,0,-1,1826,540,0,0
609,484,0,0,0,0,0,0,0,0,0,-1,1833,540,0,0
616,484,0,0,0,0,0,0,0,0,0,-1,1840,540,0,0
623,484,0,0,0,0,0,0,0,0,0,-1,1847,540,0,0
630,484,0,0,0,0,0,0,0,0,0,-1,1854,540,0,0
637,484,0,0,0,0,0,0,0,0,0,-1,1861,540,0,0
644,484,0,0,0,0,0,0,0,0,0,-1,1868,540,0,0
651,484,0,0,0,0,0,0,0,0,0,-1,1875,540,0,0
658,484,0,0,0,0,0,0,0,0,0,-1,1882,540,0,0
665,484,0,0,0,0,0,0,0,0,0,-1,1889,540,0,0
672,484,0,0,0,0,0,0,0,0,0,-1,1896,540,0,0
679,484,0,0,0,0,0,0,0,0,0,-1,1903,540,0,0
686,484,0,0,0,0,0,0,0,0,0,-1,1910,540,0,0
693,484,0,0,0,0,0,0,0,0,0,-1,1917,540,0,0
700,484,0,0,0,0,0,0,0,0,0,-1,1924,540,0,0
707,484,0,0,0,0,0,0,0,0,0,-1,1931,540,0,0
714,484,0,0,0,0,0,0,0,0,0,-1,1938,540,0,0
721,484,0,0,0,0,0,0,0,0,0,-1,1945,540,0,0
728,484,0,0,0,0,0,0,0,0,0,-1,1952,540,0,0
735,484,0,0,0,0,0,0,0,0,0,-1,1959,540,0,0
742,484,0,0,0,0,0,0,0,0,0,-1,1966,540,0,0
749,484,0,0,0,0,0,0,0,0,0,-1,1973,540,0,0
756,484,0,0,0,0,0,0,0,0,0,-1,1980,540,0,0
763,484,0,0,0,0,0,0,0,0,0,-1,1987,540,0,0
770,484,0,0,0,0,0,0,0,0,0,-1,1994,540,0,0
777,484,0,0,0,0,0,0,0,0,0,-1,2001,540,0,0
784,484,0,0,0,0,0,0,0,0,0,-1,2008,540,0,0
791,484,0,0,0,0,0,0,0,0,0,-1,2015,540,0,0
798,484,0,0,0,0,0,0,0,0,0,-1,2022,540,0,0
805,484,0,0,0,0,0,0,0,0,0,-1,2029,540,0,0
812,484,0,0,0,0,0,0,0,0,0,-1,2036,540,0,0
-700,477,0,0,0,0,0,0,0,0,0,-1,524,547,0,0
-693,477,0,0,0,0,0,0,0,0,0,-1,531,547,0,0
-686,477,0,0,0,0,0,0,0,0,0,-1,538,547,0,0
-679,477,0,0,0,0,0,0,0,0,0,-1,545,547,0,0
-672,477,0,0,0,0,0,0,0,0,0,-1,552,547,0,0
-665,477,0,0,0,0,0,0,0,0,0,-1,559,547,0,0
-658,477,0,0,0,0,0,0,0,0,0,-1,566,547,0,0
-651,477,0,0,0,0,0,0,0,0,0,-1,573,547,0,0
-644,477,0,0,0,0,0,0,0,0,0,-1,580,547,0,0
-637,477,0,0,0,0,0,0,0,0,0,-1,587,547,0,0
-630,477,0,0,0,0,0,0,0,0,0,-1,594,547,0,0
-623,477,0,0,0,0,0,0,0,0,0,-1,601,547,0,0
-616,477,0,0,0,0,0,0,0,0,0,-1,608,547,0,0
-609,477,0,0,0,0,0,0,0,0,0,-1,615,547,0,0
-602,477,0,0,0,0,0,0,0,0,0,-1,622,547,0,0
-595,477,0,0,0,0,0,0,0,0,0,-1,629,547,0,0
-588,477,0,0,0,0,0,0,0,0,0,-1,636,547,0,0
-581,477,0,0,0,0,0,0,0,0,0,-1,643,547,0,0
-574,477,0,0,0,0,0,0,0,0,0,-1,650,547,0,0
-567,477,0,0,0,0,0,0,0,0,0,-1,657,547,0,0
-560,477,0,0,0,0,0,0,0,0,0,-1,664,547,0,0
-553,477,0,0,0,0,0,0,0,0,0,-1,671,547,0,0
-546,477,0,0,0,0,0,0,0,0,0,-1,678,547,0,0
-539,477,0,0,0,0,0,0,0,0,0,-1,685,547,0,0
-532,477,0,0,0,0,0,0,0,0,0,-1,692,547,0,0
-525,477,0,0,0,0,0,0,0,0,0,-1,699,547,0,0
-518,477,0,0,0,0,0,0,0,0,0,-1,706,547,0,0
-511,477,0,0,0,0,0,0,0,0,0,-1,713,547,0,0
-504,477,0,0,0,0,0,0,0,0,0,-1,720,547,0,0
-497,477,0,0,0,0,0,0,0,0,0,-1,727,547,0,0
-490,477,0,0,0,0,0,0,0,0,0,-1,734,547,0,0
-483,477,-7.73151,-0.224182,0,0,0,0,0,0,0,-1,741,547,-7.73152,0.224176
-476,477,-6.25806,-0.310547,0,0,0,0,0,0,0,-1,748,547,-6.25804,0.310549
-469,477,-7.26617,0.525085,0,0,0,0,0,0,0,-1,755,547,-7.2662,-0.525111
-462,477,-6.65143,1.06042,0,0,0,0,0,0,0,-1,762,547,-6.65143,-1.06043
-455,477,-5.31757,0.429016,0,0,0,0,0,0,0,-1,769,547,-5.31756,-0.42902
-448,477,-4.0697,0.273376,0,0,0,0,0,0,0,-1,776,547,-4.06971,-0.273363
-441,477,-2.47504,-4.76971,0,0,0,0,0,0,0,-1,783,547,-2.47505,4.76973
-434,477,-7.27228,-21.8835,0,0,0,0,0,0,0,-1,790,547,-7.27226,21.8835
-427,477,-7.5177,-22.4407,0.000844108,0.0122736,-0.00412799,0.0136086,-0.000490873,-1.25801,0.00924036,0.0497012,797,547,-7.51772,22.4407
-420,477,-7.56464,-23.2244,0.000570933,0.0104152,-0.00416704,0.0119422,-0.000956093,-1.21954,0.00829853,0.0389268,804,547,-7.56466,23.2244
-413,477,-7.58887,-24.5471,0.000512666,0.00860033,-0.00404113,0.0102734,-0.00116043,-1.17826,0.00726672,0.0227616,811,547,-7.58889,24.547
-406,477,-7.73407,-25.6554,0.000453665,0.00685344,-0.0036319,0.008494,-0.0011869,-1.14652,0.00609693,0.01302,818,547,-7.73404,25.6554
-399,477,-7.78949,-26.6328,0.000436579,0.0052836,-0.00309847,0.00679378,-0.0010736,-1.11728,0.00492621,0.0204223,825,547,-7.7895,26.6327
-392,477,-7.87219,-27.6367,0.000619049,0.0039361,-0.00261806,0.00537676,-0.000821611,-1.06774,0.00388743,0.0179867,832,547,-7.87217,27.6367
-385,477,-7.92529,-28.6104,0.000945049,0.00272171,-0.00211608,0.00412836,-0.000461594,-0.984128,0.0029183,0.015536,839,547,-7.92527,28.6104
-378,477,-7.9953,-29.5891,0.00131276,0.0015832,-0.00155975,0.00301358,-0.000117623,-0.828636,0.00204938,0.0144341,846,547,-7.99532,29.5891
-371,477,-8.08118,-30.5405,0.00168228,0.000504251,-0.00103937,0.00228794,-0.000101404,-0.52761,0.00156019,0.0141055,853,547,-8.0812,30.5404
-364,477,-8.13129,-31.4693,0.00202866,-0.000565384,-0.000456331,0.00210659,-0.000643318,-0.169152,0.0016609,0.0138716,860,547,-8.13126,31.4693
-357,477,-8.18896,-32.4186,0.0023976,-0.00144815,8.93105e-05,0.00239967,-0.00145022,0.0232065,0.00224516,0.0113912,867,547,-8.18894,32.4185
-350,477,-8.26282,-33.3766,0.00275828,-0.00231969,0.00057303,0.00282214,-0.00238355,0.110987,0.00300907,0.0106295,874,547,-8.26283,33.3767
-343,477,-8.23895,-34.384,0.00301579,-0.00314382,0.00108214,0.00320037,-0.0033284,0.168945,0.00376963,0.0205122,881,547,-8.23893,34.384
-336,477,-8.22095,-35.3544,0.00313484,-0.00409902,0.00163103,0.00348559,-0.00444976,0.211819,0.00459273,0.0417893,888,547,-8.22092,35.3544
-329,477,-8.20557,-36.2859,0,0,0,0,0,0,0,-1,895,547,-8.2056,36.2859
-322,477,-5.91638,-27.4468,0,0,0,0,0,0,0,-1,902,547,-5.91639,27.4468
-315,477,-1.67358,-9.15253,0,0,0,0,0,0,0,-1,909,547,-1.67356,9.15253
-308,477,-1.30127,-6.55188,0,0,0,0,0,0,0,-1,916,547,-1.30128,6.55185
-301,477,-1.21185,-6.28351,0,0,0,0,0,0,0,-1,923,547,-1.21184,6.28352
-294,477,-0.352905,3.27142,0,0,0,0,0,0,0,-1,930,547,-0.35292,-3.27144
-287,477,3.54364,2.15399,0,0,0,0,0,0,0,-1,937,547,3.54362,-2.15396
-280,477,1.97308,-0.954163,0,0,0,0,0,0,0,-1,944,547,1.9731,0.954178
-273,477,2.11621,-3.76709,0,0,0,0,0,0,0,-1,951,547,2.11619,3.76706
-266,477,2.04669,-3.42389,0,0,0,0,0,0,0,-1,958,547,2.04671,3.42391
-259,477,-1.33478,-3.41205,0,0,0,0,0,0,0,-1,965,547,-1.3348,3.41206
-252,477,0.597168,-5.32922,0,0,0,0,0,0,0,-1,972,547,0.597144,5.32924
-245,477,8.2309,-8.48492,0,0,0,0,0,0,0,-1,979,547,8.23091,8.48494
-238,477,6.60938,-5.64063,0,0,0,0,0,0,0,-1,986,547,6.60938,5.64063
-231,477,4.71716,-2.52484,0,0,0,0,0,0,0,-1,993,547,4.71716,2.52483
-224,477,0,0,0,0,0,0,0,0,0,-1,1000,547,0,0
-217,477,0,0,0,0,0,0,0,0,0,-1,1007,547,0,0
-210,477,0,0,0,0,0,0,0,0,0,-1,1014,547,0,0
-203,477,0,0,0,0,0,0,0,0,0,-1,1021,547,0,0
-196,477,0,0,0,0,0,0,0,0,0,-1,1028,547,0,0
-189,477,0,0,0,0,0,0,0,0,0,-1,1035,547,0,0
-182,477,0,0,0,0,0,0,0,0,0,-1,1042,547,0,0
-175,477,0,0,0,0,0,0,0,0,0,-1,1049,547,0,0
-168,477,0,0,0,0,0,0,0,0,0,-1,1056,547,0,0
-161,477,0,0,0,0,0,0,0,0,0,-1,1063,547,0,0
-154,477,0,0,0,0,0,0,0,0,0,-1,1070,547,0,0
-147,477,0,0,0,0,0,0,0,0,0,-1,1077,547,0,0
-140,477,0,0,0,0,0,0,0,0,0,-1,1084,547,0,0
-133,477,0,0,0,0,0,0,0,0,0,-1,1091,547,0,0
-126,477,0,0,0,0,0,0,0,0,0,-1,1098,547,0,0
-119,477,0,0,0,0,0,0,0,0,0,-1,1105,547,0,0
-112,477,0,0,0,0,0,0,0,0,0,-1,1112,547,0,0
-105,477,0,0,0,0,0,0,0,0,0,-1,1119,547,0,0
-98,477,0,0,0,0,0,0,0,0,0,-1,1126,547,0,0
-91,477,0,0,0,0,0,0,0,0,0,-1,1133,547,0,0
-84,477,0,0,0,0,0,0,0,0,0,-1,1140,547,0,0
-77,477,0,0,0,0,0,0,0,0,0,-1,1147,547,0,0
-70,477,0,0,0,0,0,0,0,0,0,-1,1154,547,0,0
-63,477,0,0,0,0,0,0,0,0,0,-1,1161,547,0,0
-56,477,0,0,0,0,0,0,0,0,0,-1,1168,547,0,0
-49,477,0,0,0,0,0,0,0,0,0,-1,1175,547,0,0
-42,477,0,0,0,0,0,0,0,0,0,-1,1182,547,0,0
-35,477,0,0,0,0,0,0,0,0,0,-1,1189,547,0,0
-28,477,0,0,0,0,0,0,0,0,0,-1,1196,547,0,0
-21,477,0,0,0,0,0,0,0,0,0,-1,1203,547,0,0
-14,477,0,0,0,0,0,0,0,0,0,-1,1210,547,0,0
-7,477,0,0,0,0,0,0,0,0,0,-1,1217,547,0,0
0,477,0,0,0,0,0,0,0,0,0,-1,1224,547,0,0
7,477,0,0,0,0,0,0,0,0,0,-1,1231,547,0,0
14,477,0,0,0,0,0,0,0,0,0,-1,1238,547,0,0
21,477,0,0,0,0,0,0,0,0,0,-1,1245,547,0,0
28,477,0,0,0,0,0,0,0,0,0,-1,1252,547,0,0
35,477,0,0,0,0,0,0,0,0,0,-1,1259,547,0,0
42,477,0,0,0,0,0,0,0,0,0,-1,1266,547,0,0
49,477,0,0,0,0,0,0,0,0,0,-1,1273,547,0,0
56,477,0,0,0,0,0,0,0,0,0,-1,1280,547,0,0
63,477,0,0,0,0,0,0,0,0,0,-1,1287,547,0,0
70,477,0,0,0,0,0,0,0,0,0,-1,1294,547,0,0
77,477,0,0,0,0,0,0,0,0,0,-1,1301,547,0,0
84,477,0,0,0,0,0,0,0,0,0,-1,1308,547,0,0
91,477,0,0,0,0,0,0,0,0,0,-1,1315,547,0,0
98,477,0,0,0,0,0,0,0,0,0,-1,1322,547,0,0
105,477,0,0,0,0,0,0,0,0,0,-1,1329,547,0,0
112,477,0,0,0,0,0,0,0,0,0,-1,1336,547,0,0
119,477,0,0,0,0,0,0,0,0,0,-1,1343,547,0,0
126,477,0,0,0,0,0,0,0,0,0,-1,1350,547,0,0
133,477,0,0,0,0,0,0,0,0,0,-1,1357,547,0,0
140,477,0,0,0,0,0,0,0,0,0,-1,1364,547,0,0
147,477,0,0,0,0,0,0,0,0,0,-1,1371,547,0,0
154,477,0,0,0,0,0,0,0,0,0,-1,1378,547,0,0
161,477,0,0,0,0,0,0,0,0,0,-1,1385,547,0,0
168,477,0,0,0,0,0,0,0,0,0,-1,1392,547,0,0
175,477,0,0,0,0,0,0,0,0,0,-1,1399,547,0,0
182,477,0,0,0,0,0,0,0,0,0,-1,1406,547,0,0
189,477,0,0,0,0,0,0,0,0,0,-1,1413,547,0,0
196,477,0,0,0,0,0,0,0,0,0,-1,1420,547,0,0
203,477,0,0,0,0,0,0,0,0,0,-1,1427,547,0,0
210,477,0,0,0,0,0,0,0,0,0,-1,1434,547,0,0
217,477,0,0,0,0,0,0,0,0,0,-1,1441,547,0,0
224,477,0,0,0,0,0,0,0,0,0,-1,1448,547,0,0
231,477,0,0,0,0,0,0,0,0,0,-1,1455,547,0,0
238,477,0,0,0,0,0,0,0,0,0,-1,1462,547,0,0
245,477,0,0,0,0,0,0,0,0,0,-1,1469,547,0,0
252,477,0,0,0,0,0,0,0,0,0,-1,1476,547,0,0
259,477,0,0,0,0,0,0,0,0,0,-1,1483,547,0,0
266,477,0,0,0,0,0,0,0,0,0,-1,1490,547,0,0
273,477,0,0,0,0,0,0,0,0,0,-1,1497,547,0,0
280,477,0,0,0,0,0,0,0,0,0,-1,1504,547,0,0
287,477,0,0,0,0,0,0,0,0,0,-1,1511,547,0,0
294,477,0,0,0,0,0,0,0,0,0,-1,1518,547,0,0
301,477,0,0,0,0,0,0,0,0,0,-1,1525,547,0,0
308,477,0,0,0,0,0,0,0,0,0,-1,1532,547,0,0
315,477,0,0,0,0,0,0,0,0,0,-1,1539,547,0,0
322,477,0,0,0,0,0,0,0,0,0,-1,1546,547,0,0
329,477,0,0,0,0,0,0,0,0,0,-1,1553,547,0,0
336,477,0,0,0,0,0,0,0,0,0,-1,1560,547,0,0
343,477,0,0,0,0,0,0,0,0,0,-1,1567,547,0,0
350,477,1.7699,-3.32275,0,0,0,0,0,0,0,-1,1574,547,1.7699,3.32272
357,477,3.073,-4.83313,0,0,0,0,0,0,0,-1,1581,547,3.07303,4.83316
364,477,4.30127,-4.22864,0,0,0,0,0,0,0,-1,1588,547,4.30125,4.22865
371,477,4.57703,0.283264,0,0,0,0,0,0,0,-1,1595,547,4.57706,-0.283262
378,477,8.57947,1.05969,0,0,0,0,0,0,0,-1,1602,547,8.5795,-1.05972
385,477,12.3726,2.02356,0,0,0,0,0,0,0,-1,1609,547,12.3725,-2.02355
392,477,16.4678,2.76843,0,0,0,0,0,0,0,-1,1616,547,16.4678,-2.76845
399,477,8.00037,-2.29523,0,0,0,0,0,0,0,-1,1623,547,8.00031,2.2952
406,477,4.82495,2.7475,0,0,0,0,0,0,0,-1,1630,547,4.825,-2.74752
413,477,4.88171,-0.336426,0,0,0,0,0,0,0,-1,1637,547,4.88169,0.336398
420,477,3.34875,0.102722,0,0,0,0,0,0,0,-1,1644,547,3.34871,-0.1027
427,477,1.66772,-0.373108,0,0,0,0,0,0,0,-1,1651,547,1.66768,0.373104
434,477,3.76978,-2.30798,0,0,0,0,0,0,0,-1,1658,547,3.76974,2.30801
441,477,4.05444,-2.80402,0,0,0,0,0,0,0,-1,1665,547,4.05444,2.804
448,477,10.4247,-11.7421,0,0,0,0,0,0,0,-1,1672,547,10.4247,11.7421
455,477,13.3054,-16.8109,0,0,0,0,0,0,0,-1,1679,547,13.3054,16.8109
462,477,25.2094,-35.3335,0,0,0,0,0,0,0,-1,1686,547,25.2094,35.3335
469,477,25.2173,-34.2001,0,0,0,0,0,0,0,-1,1693,547,25.2172,34.2001
476,477,25.1587,-33.2448,0.00160797,0.000324154,-0.000928796,0.00209509,-0.000162969,-0.483029,0.0014541,0.0311116,1700,547,25.1587,33.2448
483,477,25.1112,-32.2761,0.00161617,0.000404164,-0.000498271,0.00179472,0.000225621,-0.344073,0.00112881,0.014927,1707,547,25.1112,32.2761
490,477,25.0295,-31.3539,0.00144659,0.000597431,-0.000149981,0.0014723,0.00057172,-0.169782,0.000857072,0.0140876,1714,547,25.0296,31.354
497,477,24.9723,-30.3556,0.00133824,0.00101993,0.000399255,0.0016089,0.00074928,0.595734,0.000929624,0.0135567,1721,547,24.9722,30.3556
504,477,24.9341,-29.407,0.0012443,0.00101946,0.000801191,0.00194092,0.000322839,0.715696,0.00120089,0.0194588,1728,547,24.934,29.407
511,477,24.908,-28.4838,0.00105876,0.00113263,0.00116173,0.00225801,-6.66243e-05,0.80129,0.00152804,0.0252985,1735,547,24.9079,28.4839
518,477,24.8146,-27.5157,0.00078255,0.00128491,0.00145104,0.00250635,-0.000438887,0.8711,0.00183477,0.0221965,1742,547,24.8146,27.5157
525,477,24.6947,-26.4977,0.000573564,0.00146673,0.00171046,0.00278795,-0.000747653,0.913092,0.0021516,0.0185131,1749,547,24.6947,26.4977
532,477,24.5962,-25.5112,0.000411031,0.00180224,0.00197869,0.00320404,-0.000990765,0.954425,0.00253175,0.0204008,1756,547,24.5961,25.5112
539,477,24.5747,-24.4528,0.000240366,0.00227728,0.00218699,0.00367133,-0.00115368,1.00331,0.00290938,0.01873,1763,547,24.5747,24.4527
546,477,24.443,-23.5435,0.000152131,0.00308466,0.00242408,0.00445143,-0.00121465,1.0574,0.00344464,0.0450204,1770,547,24.4429,23.5435
553,477,24.4739,-22.407,0,0,0,0,0,0,0,-1,1777,547,24.4738,22.407
560,477,19.4597,-16.1135,0,0,0,0,0,0,0,-1,1784,547,19.4597,16.1135
567,477,13.9529,-8.70972,0,0,0,0,0,0,0,-1,1791,547,13.9529,8.7097
574,477,6.82593,-0.916992,0,0,0,0,0,0,0,-1,1798,547,6.82598,0.916977
581,477,9.29321,-0.557007,0,0,0,0,0,0,0,-1,1805,547,9.29324,0.55703
588,477,9.75195,0.422729,0,0,0,0,0,0,0,-1,1812,547,9.75198,-0.42273
595,477,9.89172,1.21326,0,0,0,0,0,0,0,-1,1819,547,9.89174,-1.21328
602,477,6.5271,-0.964417,0,0,0,0,0,0,0,-1,1826,547,6.52706,0.964427
609,477,0,0,0,0,0,0,0,0,0,-1,1833,547,0,0
616,477,0,0,0,0,0,0,0,0,0,-1,1840,547,0,0
623,477,0,0,0,0,0,0,0,0,0,-1,1847,547,0,0
630,477,0,0,0,0,0,0,0,0,0,-1,1854,547,0,0
637,477,0,0,0,0,0,0,0,0,0,-1,1861,547,0,0
644,477,0,0,0,0,0,0,0,0,0,-1,1868,547,0,0
651,477,0,0,0,0,0,0,0,0,0,-1,1875,547,0,0
658,477,0,0,0,0,0,0,0,0,0,-1,1882,547,0,0
665,477,0,0,0,0,0,0,0,0,0,-1,1889,547,0,0
672,477,0,0,0,0,0,0,0,0,0,-1,1896,547,0,0
679,477,0,0,0,0,0,0,0,0,0,-1,1903,547,0,0
686,477,0,0,0,0,0,0,0,0,0,-1,1910,547,0,0
693,477,0,0,0,0,0,0,0,0,0,-1,1917,547,0,0
700,477,0,0,0,0,0,0,0,0,0,-1,1924,547,0,0
707,477,0,0,0,0,0,0,0,0,0,-1,1931,547,0,0
714,477,0,0,0,0,0,0,0,0,0,-1,1938,547,0,0
721,477,0,0,0,0,0,0,0,0,0,-1,1945,547,0,0
728,477,0,0,0,0,0,0,0,0,0,-1,1952,547,0,0
735,477,0,0,0,0,0,0,0,0,0,-1,1959,547,0,0
742,477,0,0,0,0,0,0,0,0,0,-1,1966,547,0,0
749,477,0,0,0,0,0,0,0,0,0,-1,1973,547,0,0
756,477,0,0,0,0,0,0,0,0,0,-1,1980,547,0,0
763,477,0,0,0,0,0,0,0,0,0,-1,1987,547,0,0
770,477,0,0,0,0,0,0,0,0,0,-1,1994,547,0,0
777,477,0,0,0,0,0,0,0,0,0,-1,2001,547,0,0
784,477,0,0,0,0,0,0,0,0,0,-1,2008,547,0,0
791,477,0,0,0,0,0,0,0,0,0,-1,2015,547,0,0
798,477,0,0,0,0,0,0,0,0,0,-1,2022,547,0,0
805,477,0,0,0,0,0,0,0,0,0,-1,2029,547,0,0
812,477,0,0,0,0,0,0,0,0,0,-1,2036,547,0,0
-700,470,0,0,0,0,0,0,0,0,0,-1,524,554,0,0
-693,470,0,0,0,0,0,0,0,0,0,-1,531,554,0,0
-686,470,0,0,0,0,0,0,0,0,0,-1,538,554,0,0
-679,470,0,0,0,0,0,0,0,0,0,-1,545,554,0,0
-672,470,0,0,0,0,0,0,0,0,0,-1,552,554,0,0
-665,470,0,0,0,0,0,0,0,0,0,-1,559,554,0,0
-658,470,0,0,0,0,0,0,0,0,0,-1,566,554,0,0
-651,470,0,0,0,0,0,0,0,0,0,-1,573,554,0,0
-644,470,0,0,0,0,0,0,0,0,0,-1,580,554,0,0
-637,470,0,0,0,0,0,0,0,0,0,-1,587,554,0,0
-630,470,0,0,0,0,0,0,0,0,0,-1,594,554,0,0
-623,470,0,0,0,0,0,0,0,0,0,-1,601,554,0,0
-616,470,0,0,0,0,0,0,0,0,0,-1,608,554,0,0
-609,470,0,0,0,0,0,0,0,0,0,-1,615,554,0,0
-602,470,0,0,0,0,0,0,0,0,0,-1,622,554,0,0
-595,470,0,0,0,0,0,0,0,0,0,-1,629,554,0,0
-588,470,0,0,0,0,0,0,0,0,0,-1,636,554,0,0
-581,470,0,0,0,0,0,0,0,0,0,-1,643,554,0,0
-574,470,0,0,0,0,0,0,0,0,0,-1,650,554,0,0
-567,470,0,0,0,0,0,0,0,0,0,-1,657,554,0,0
-560,470,0,0,0,0,0,0,0,0,0,-1,664,554,0,0
-553,470,0,0,0,0,0,0,0,0,0,-1,671,554,0,0
-546,470,0,0,0,0,0,0,0,0,0,-1,678,554,0,0
-539,470,0,0,0,0,0,0,0,0,0,-1,685,554,0,0
-532,470,0,0,0,0,0,0,0,0,0,-1,692,554,0,0
-525,470,0,0,0,0,0,0,0,0,0,-1,699,554,0,0
-518,470,0,0,0,0,0,0,0,0,0,-1,706,554,0,0
-511,470,0,0,0,0,0,0,0,0,0,-1,713,554,0,0
-504,470,0,0,0,0,0,0,0,0,0,-1,720,554,0,0
-497,470,0,0,0,0,0,0,0,0,0,-1,727,554,0,0
-490,470,-9.13263,-1.03125,0,0,0,0,0,0,0,-1,734,554,-9.1326,1.03127
-483,470,-7.68677,-1.03955,0,0,0,0,0,0,0,-1,741,554,-7.68678,1.03958
-476,470,-6.17969,-1.03394,0,0,0,0,0,0,0,-1,748,554,-6.17971,1.03395
-469,470,-6.23016,-0.651855,0,0,0,0,0,0,0,-1,755,554,-6.23014,0.651829
-462,470,-4.87915,-1.03705,0,0,0,0,0,0,0,-1,762,554,-4.87914,1.03702
-455,470,-4.14777,-1.37079,0,0,0,0,0,0,0,-1,769,554,-4.14779,1.37078
-448,470,-2.9314,-5.74518,0,0,0,0,0,0,0,-1,776,554,-2.93137,5.74518
-441,470,-8.03943,-19.0135,0,0,0,0,0,0,0,-1,783,554,-8.03942,19.0135
-434,470,-8.48053,-21.4821,0,0,0,0,0,0,0,-1,790,554,-8.48054,21.4821
-427,470,-8.53546,-22.4993,0.000666458,0.0094243,-0.00304217,0.0103773,-0.000286579,-1.26721,0.0070157,0.0292152,797,554,-8.53547,22.4993
-420,470,-8.53223,-23.5462,0.000617232,0.00792234,-0.00305851,0.00903378,-0.000494206,-1.22224,0.00619383,0.0190426,804,554,-8.53224,23.5462
-413,470,-8.61462,-24.5999,0.0005906,0.00643741,-0.00289179,0.00762603,-0.000598023,-1.18081,0.00529463,0.0159015,811,554,-8.61463,24.5999
-406,470,-8.68835,-25.6064,0.000517261,0.00495309,-0.00247918,0.00606165,-0.000591303,-1.15031,0.00425193,0.0143219,818,554,-8.68837,25.6065
-399,470,-8.74487,-26.5897,0.000534862,0.00365238,-0.00201404,0.0046404,-0.000453162,-1.11472,0.00325519,0.0178951,825,554,-8.74485,26.5897
-392,470,-8.79309,-27.5723,0.000743521,0.00252275,-0.00160622,0.00346927,-0.000202992,-1.0383,0.00238339,0.0150788,832,554,-8.79307,27.5723
-385,470,-8.875,-28.5294,0.00111124,0.00151185,-0.00120088,0.00252901,9.4076e-05,-0.868037,0.00165554,0.0116475,839,554,-8.87497,28.5294
-378,470,-8.95496,-29.5066,0.00154471,0.000561584,-0.000761186,0.00195926,0.000147036,-0.498695,0.00126002,0.0166892,846,554,-8.95494,29.5066
-371,470,-9.03613,-30.4752,0.00203579,-0.000292275,-0.000374295,0.00209449,-0.000350973,-0.155554,0.00152682,0.0147795,853,554,-9.03616,30.4752
-364,470,-9.09521,-31.4024,0.00254136,-0.0010575,5.83493e-06,0.00254137,-0.00105751,0.00162132,0.00213587,0.0152044,860,554,-9.09524,31.4024
-357,470,-9.17664,-32.344,0.00309815,-0.00172775,0.000309602,0.00311793,-0.00174753,0.0638055,0.00284598,0.0150864,867,554,-9.17664,32.344
-350,470,-9.20306,-33.3409,0.00367727,-0.00247603,0.000544967,0.00372517,-0.00252392,0.0876557,0.00363006,0.0130271,874,554,-9.20306,33.3409
-343,470,-9.12909,-34.3282,0,0,0,0,0,0,0,-1,881,554,-9.12909,34.3282
-336,470,-8.98645,-35.3829,0,0,0,0,0,0,0,-1,888,554,-8.98645,35.3829
-329,470,-2.78516,-12.3594,0,0,0,0,0,0,0,-1,895,554,-2.78517,12.3594
-322,470,-2.30829,-11.4527,0,0,0,0,0,0,0,-1,902,554,-2.30827,11.4527
-315,470,-1.04797,-8.29529,0,0,0,0,0,0,0,-1,909,554,-1.04797,8.29526
-308,470,-1.39368,-6.68152,0,0,0,0,0,0,0,-1,916,554,-1.39369,6.68149
-301,470,-0.0340576,3.34888,0,0,0,0,0,0,0,-1,923,554,-0.0340496,-3.3489
-294,470,-1.18378,3.22266,0,0,0,0,0,0,0,-1,930,554,-1.18376,-3.22268
-287,470,-2.15454,3.2204,0,0,0,0,0,0,0,-1,937,554,-2.15452,-3.22037
-280,470,-3.00537,3.099,0,0,0,0,0,0,0,-1,944,554,-3.00536,-3.09898
-273,470,-12.3932,3.65009,0,0,0,0,0,0,0,-1,951,554,-12.3932,-3.65011
-266,470,-11.5706,1.16028,0,0,0,0,0,0,0,-1,958,554,-11.5706,-1.16031
-259,470,-7.50415,-2.77167,0,0,0,0,0,0,0,-1,965,554,-7.50413,2.7717
-252,470,-0.371155,-5.87823,0,0,0,0,0,0,0,-1,972,554,-0.37114,5.87821
-245,470,1.33221,-6.81122,0,0,0,0,0,0,0,-1,979,554,1.33223,6.8112
-238,470,0,0,0,0,0,0,0,0,0,-1,986,554,0,0
-231,470,0,0,0,0,0,0,0,0,0,-1,993,554,0,0
-224,470,0,0,0,0,0,0,0,0,0,-1,1000,554,0,0
-217,470,0,0,0,0,0,0,0,0,0,-1,1007,554,0,0
-210,470,0,0,0,0,0,0,0,0,0,-1,1014,554,0,0
-203,470,0,0,0,0,0,0,0,0,0,-1,1021,554,0,0
-196,470,0,0,0,0,0,0,0,0,0,-1,1028,554,0,0
-189,470,0,0,0,0,0,0,0,0,0,-1,1035,554,0,0
-182,470,0,0,0,0,0,0,0,0,0,-1,1042,554,0,0
-175,470,0,0,0,0,0,0,0,0,0,-1,1049,554,0,0
-168,470,0,0,0,0,0,0,0,0,0,-1,1056,554,0,0
-161,470,0,0,0,0,0,0,0,0,0,-1,1063,554,0,0
-154,470,0,0,0,0,0,0,0,0,0,-1,1070,554,0,0
-147,470,0,0,0,0,0,0,0,0,0,-1,1077,554,0,0
-140,470,0,0,0,0,0,0,0,0,0,-1,1084,554,0,0
-133,470,0,0,0,0,0,0,0,0,0,-1,1091,554,0,0
-126,470,0,0,0,0,0,0,0,0,0,-1,1098,554,0,0
-119,470,0,0,0,0,0,0,0,0,0,-1,1105,554,0,0
-112,470,0,0,0,0,0,0,0,0,0,-1,1112,554,0,0
-105,470,0,0,0,0,0,0,0,0,0,-1,1119,554,0,0
-98,470,0,0,0,0,0,0,0,0,0,-1,1126,554,0,0
-91,470,0,0,0,0,0,0,0,0,0,-1,1133,554,0,0
-84,470,0,0,0,0,0,0,0,0,0,-1,1140,554,0,0
-77,470,0,0,0,0,0,0,0,0,0,-1,1147,554,0,0
-70,470,0,0,0,0,0,0,0,0,0,-1,1154,554,0,0
-63,470,0,0,0,0,0,0,0,0,0,-1,1161,554,0,0
-56,470,0,0,0,0,0,0,0,0,0,-1,1168,554,0,0
-49,470,0,0,0,0,0,0,0,0,0,-1,1175,554,0,0
-42,470,0,0,0,0,0,0,0,0,0,-1,1182,554,0,0
-35,470,0,0,0,0,0,0,0,0,0,-1,1189,554,0,0
-28,470,0,0,0,0,0,0,0,0,0,-1,1196,554,0,0
-21,470,0,0,0,0,0,0,0,0,0,-1,1203,554,0,0
-14,470,0,0,0,0,0,0,0,0,0,-1,1210,554,0,0
-7,470,0,0,0,0,0,0,0,0,0,-1,1217,554,0,0
0,470,0,0,0,0,0,0,0,0,0,-1,1224,554,0,0
7,470,0,0,0,0,0,0,0,0,0,-1,1231,554,0,0
14,470,0,0,0,0,0,0,0,0,0,-1,1238,554,0,0
21,470,0,0,0,0,0,0,0,0,0,-1,1245,554,0,0
28,470,0,0,0,0,0,0,0,0,0,-1,1252,554,0,0
35,470,0,0,0,0,0,0,0,0,0,-1,1259,554,0,0
42,470,0,0,0,0,0,0,0,0,0,-1,1266,554,0,0
49,470,0,0,0,0,0,0,0,0,0,-1,1273,554,0,0
56,470,0,0,0,0,0,0,0,0,0,-1,1280,554,0,0
63,470,0,0,0,0,0,0,0,0,0,-1,1287,554,0,0
70,470,0,0,0,0,0,0,0,0,0,-1,1294,554,0,0
77,470,0,0,0,0,0,0,0,0,0,-1,1301,554,0,0
84,470,0,0,0,0,0,0,0,0,0,-1,1308,554,0,0
91,470,0,0,0,0,0,0,0,0,0,-1,1315,554,0,0
98,470,0,0,0,0,0,0,0,0,0,-1,1322,554,0,0
105,470,0,0,0,0,0,0,0,0,0,-1,1329,554,0,0
112,470,0,0,0,0,0,0,0,0,0,-1,1336,554,0,0
119,470,0,0,0,0,0,0,0,0,0,-1,1343,554,0,0
126,470,0,0,0,0,0,0,0,0,0,-1,1350,554,0,0
133,470,0,0,0,0,0,0,0,0,0,-1,1357,554,0,0
140,470,0,0,0,0,0,0,0,0,0,-1,1364,554,0,0
147,470,0,0,0,0,0,0,0,0,0,-1,1371,554,0,0
154,470,0,0,0,0,0,0,0,0,0,-1,1378,554,0,0
161,470,0,0,0,0,0,0,0,0,0,-1,1385,554,0,0
168,470,0,0,0,0,0,0,0,0,0,-1,1392,554,0,0
175,470,0,0,0,0,0,0,0,0,0,-1,1399,554,0,0
182,470,0,0,0,0,0,0,0,0,0,-1,1406,554,0,0
189,470,0,0,0,0,0,0,0,0,0,-1,1413,554,0,0
196,470,0,0,0,0,0,0,0,0,0,-1,1420,554,0,0
203,470,0,0,0,0,0,0,0,0,0,-1,1427,554,0,0
210,470,0,0,0,0,0,0,0,0,0,-1,1434,554,0,0
217,470,0,0,0,0,0,0,0,0,0,-1,1441,554,0,0
224,470,0,0,0,0,0,0,0,0,0,-1,1448,554,0,0
231,470,0,0,0,0,0,0,0,0,0,-1,1455,554,0,0
238,470,0,0,0,0,0,0,0,0,0,-1,1462,554,0,0
245,470,0,0,0,0,0,0,0,0,0,-1,1469,554,0,0
252,470,0,0,0,0,0,0,0,0,0,-1,1476,554,0,0
259,470,0,0,0,0,0,0,0,0,0,-1,1483,554,0,0
266,470,0,0,0,0,0,0,0,0,0,-1,1490,554,0,0
273,470,0,0,0,0,0,0,0,0,0,-1,1497,554,0,0
280,470,0,0,0,0,0,0,0,0,0,-1,1504,554,0,0
287,470,0,0,0,0,0,0,0,0,0,-1,1511,554,0,0
294,470,0,0,0,0,0,0,0,0,0,-1,1518,554,0,0
301,470,0,0,0,0,0,0,0,0,0,-1,1525,554,0,0
308,470,0,0,0,0,0,0,0,0,0,-1,1532,554,0,0
315,470,0,0,0,0,0,0,0,0,0,-1,1539,554,0,0
322,470,0,0,0,0,0,0,0,0,0,-1,1546,554,0,0
329,470,0,0,0,0,0,0,0,0,0,-1,1553,554,0,0
336,470,0,0,0,0,0,0,0,0,0,-1,1560,554,0,0
343,470,0,0,0,0,0,0,0,0,0,-1,1567,554,0,0
350,470,0,0,0,0,0,0,0,0,0,-1,1574,554,0,0
357,470,0,0,0,0,0,0,0,0,0,-1,1581,554,0,0
364,470,1.33423,0.293335,0,0,0,0,0,0,0,-1,1588,554,1.33422,-0.293348
371,470,2.22498,-0.0305176,0,0,0,0,0,0,0,-1,1595,554,2.22494,0.0305046
378,470,6.27051,0.710083,0,0,0,0,0,0,0,-1,1602,554,6.27054,-0.710093
385,470,10.3657,1.47296,0,0,0,0,0,0,0,-1,1609,554,10.3657,-1.47299
392,470,15.3881,3.01935,0,0,0,0,0,0,0,-1,1616,554,15.388,-3.01937
399,470,18.4479,2.93793,0,0,0,0,0,0,0,-1,1623,554,18.4479,-2.93792
406,470,15.1896,1.36676,0,0,0,0,0,0,0,-1,1630,554,15.1896,-1.36679
413,470,6.55383,1.99207,0,0,0,0,0,0,0,-1,1637,554,6.5538,-1.99208
420,470,4.47095,0.845703,0,0,0,0,0,0,0,-1,1644,554,4.47098,-0.845718
427,470,3.51038,1.19684,0,0,0,0,0,0,0,-1,1651,554,3.51039,-1.19684
434,470,3.31775,-1.37427,0,0,0,0,0,0,0,-1,1658,554,3.31781,1.37426
441,470,2.55457,-2.05902,0,0,0,0,0,0,0,-1,1665,554,2.55461,2.05904
448,470,3.27258,-2.64032,0,0,0,0,0,0,0,-1,1672,554,3.27257,2.64029
455,470,10.3658,-9.82233,0,0,0,0,0,0,0,-1,1679,554,10.3659,9.82233
462,470,11.0651,-11.9958,0,0,0,0,0,0,0,-1,1686,554,11.0651,11.9958
469,470,15.4242,-19.0521,0,0,0,0,0,0,0,-1,1693,554,15.4242,19.0521
476,470,26.0588,-33.3131,0,0,0,0,0,0,0,-1,1700,554,26.0588,33.3131
483,470,26.0862,-32.2263,0.00188176,0.000243084,-0.000766961,0.00218472,-5.98723e-05,-0.376196,0.00147684,0.0219204,1707,554,26.0862,32.2263
490,470,26.0002,-31.2841,0.00168001,0.000400323,-0.000446628,0.00182047,0.000259861,-0.304701,0.00113697,0.0130778,1714,554,26.0002,31.2841
497,470,25.9508,-30.3109,0.00154139,0.000852037,0.000111096,0.00155886,0.000834575,0.155902,0.000900756,0.0133414,1721,554,25.9508,30.3109
504,470,25.931,-29.3825,0.00136061,0.000786414,0.000455517,0.00161195,0.000535069,0.50421,0.000948024,0.0203435,1728,554,25.9311,29.3825
511,470,25.877,-28.4349,0.00112046,0.000833241,0.000761776,0.00175204,0.000201655,0.692233,0.00110695,0.0282244,1735,554,25.8769,28.4349
518,470,25.7936,-27.4149,0.000826205,0.000930548,0.00104056,0.00192024,-0.000163489,0.810446,0.00133799,0.0268815,1742,554,25.7936,27.4149
525,470,25.7177,-26.3816,0.000598062,0.00109998,0.00128367,0.00215699,-0.000458949,0.881932,0.00161289,0.0166615,1749,554,25.7176,26.3816
532,470,25.621,-25.3585,0.000437436,0.00142303,0.00154799,0.00255477,-0.000694308,0.939499,0.00197571,0.0148837,1756,554,25.621,25.3585
539,470,25.5359,-24.4001,0.000327791,0.00190682,0.00178864,0.00307245,-0.00083783,0.993241,0.00237731,0.0177182,1763,554,25.5359,24.4001
546,470,25.4633,-23.4338,0.000339164,0.00270085,0.00207054,0.00390361,-0.000863591,1.04455,0.00293296,0.0157221,1770,554,25.4633,23.4337
553,470,25.4592,-22.4138,0.000524809,0.00373092,0.00243291,0.00504142,-0.000785697,1.0767,0.00365114,0.0267278,1777,554,25.4593,22.4138
560,470,25.4971,-21.1791,0,0,0,0,0,0,0,-1,1784,554,25.4971,21.1791
567,470,25.3708,-20.0349,0,0,0,0,0,0,0,-1,1791,554,25.3709,20.0348
574,470,14.2793,-8.07147,0,0,0,0,0,0,0,-1,1798,554,14.2793,8.07147
581,470,8.24646,-4.06317,0,0,0,0,0,0,0,-1,1805,554,8.24648,4.06318
588,470,11.1803,1.74927,0,0,0,0,0,0,0,-1,1812,554,11.1803,-1.74926
595,470,4.72192,3.44116,0,0,0,0,0,0,0,-1,1819,554,4.72191,-3.44116
602,470,14.4307,2.76141,0,0,0,0,0,0,0,-1,1826,554,14.4306,-2.76139
609,470,20.9181,4.41058,0,0,0,0,0,0,0,-1,1833,554,20.9181,-4.4106
616,470,0,0,0,0,0,0,0,0,0,-1,1840,554,0,0
623,470,0,0,0,0,0,0,0,0,0,-1,1847,554,0,0
630,470,0,0,0,0,0,0,0,0,0,-1,1854,554,0,0
637,470,0,0,0,0,0,0,0,0,0,-1,1861,554,0,0
644,470,0,0,0,0,0,0,0,0,0,-1,1868,554,0,0
651,470,0,0,0,0,0,0,0,0,0,-1,1875,554,0,0
658,470,0,0,0,0,0,0,0,0,0,-1,1882,554,0,0
665,470,0,0,0,0,0,0,0,0,0,-1,1889,554,0,0
672,470,0,0,0,0,0,0,0,0,0,-1,1896,554,0,0
679,470,0,0,0,0,0,0,0,0,0,-1,1903,554,0,0
686,470,0,0,0,0,0,0,0,0,0,-1,1910,554,0,0
693,470,0,0,0,0,0,0,0,0,0,-1,1917,554,0,0
700,470,0,0,0,0,0,0,0,0,0,-1,1924,554,0,0
707,470,0,0,0,0,0,0,0,0,0,-1,1931,554,0,0
714,470,0,0,0,0,0,0,0,0,0,-1,1938,554,0,0
721,470,0,0,0,0,0,0,0,0,0,-1,1945,554,0,0
728,470,0,0,0,0,0,0,0,0,0,-1,1952,554,0,0
735,470,0,0,0,0,0,0,0,0,0,-1,1959,554,0,0
742,470,0,0,0,0,0,0,0,0,0,-1,1966,554,0,0
749,470,0,0,0,0,0,0,0,0,0,-1,1973,554,0,0
756,470,0,0,0,0,0,0,0,0,0,-1,1980,554,0,0
763,470,0,0,0,0,0,0,0,0,0,-1,1987,554,0,0
770,470,0,0,0,0,0,0,0,0,0,-1,1994,554,0,0
777,470,0,0,0,0,0,0,0,0,0,-1,2001,554,0,0
784,470,0,0,0,0,0,0,0,0,0,-1,2008,554,0,0
791,470,0,0,0,0,0,0,0,0,0,-1,2015,554,0,0
798,470,0,0,0,0,0,0,0,0,0,-1,2022,554,0,0
805,470,0,0,0,0,0,0,0,0,0,-1,2029,554,0,0
812,470,0,0,0,0,0,0,0,0,0,-1,2036,554,0,0
-700,463,0,0,0,0,0,0,0,0,0,-1,524,561,0,0
-693,463,0,0,0,0,0,0,0,0,0,-1,531,561,0,0
-686,463,0,0,0,0,0,0,0,0,0,-1,538,561,0,0
-679,463,0,0,0,0,0,0,0,0,0,-1,545,561,0,0
-672,463,0,0,0,0,0,0,0,0,0,-1,552,561,0,0
-665,463,0,0,0,0,0,0,0,0,0,-1,559,561,0,0
-658,463,0,0,0,0,0,0,0,0,0,-1,566,561,0,0
-651,463,0,0,0,0,0,0,0,0,0,-1,573,561,0,0
-644,463,0,0,0,0,0,0,0,0,0,-1,580,561,0,0
-637,463,0,0,0,0,0,0,0,0,0,-1,587,561,0,0
-630,463,0,0,0,0,0,0,0,0,0,-1,594,561,0,0
-623,463,0,0,0,0,0,0,0,0,0,-1,601,561,0,0
-616,463,0,0,0,0,0,0,0,0,0,-1,608,561,0,0
-609,463,0,0,0,0,0,0,0,0,0,-1,615,561,0,0
-602,463,0,0,0,0,0,0,0,0,0,-1,622,561,0,0
-595,463,0,0,0,0,0,0,0,0,0,-1,629,561,0,0
-588,463,0,0,0,0,0,0,0,0,0,-1,636,561,0,0
-581,463,0,0,0,0,0,0,0,0,0,-1,643,561,0,0
-574,463,0,0,0,0,0,0,0,0,0,-1,650,561,0,0
-567,463,0,0,0,0,0,0,0,0,0,-1,657,561,0,0
-560,463,0,0,0,0,0,0,0,0,0,-1,664,561,0,0
-553,463,0,0,0,0,0,0,0,0,0,-1,671,561,0,0
-546,463,0,0,0,0,0,0,0,0,0,-1,678,561,0,0
-539,463,0,0,0,0,0,0,0,0,0,-1,685,561,0,0
-532,463,0,0,0,0,0,0,0,0,0,-1,692,561,0,0
-525,463,0,0,0,0,0,0,0,0,0,-1,699,561,0,0
-518,463,0,0,0,0,0,0,0,0,0,-1,706,561,0,0
-511,463,0,0,0,0,0,0,0,0,0,-1,713,561,0,0
-504,463,0,0,0,0,0,0,0,0,0,-1,720,561,0,0
-497,463,-9.81451,-1.67126,0,0,0,0,0,0,0,-1,727,561,-9.81452,1.67127
-490,463,-8.57043,-1.58942,0,0,0,0,0,0,0,-1,734,561,-8.57045,1.58944
-483,463,-7.29224,-1.7226,0,0,0,0,0,0,0,-1,741,561,-7.29226,1.72261
-476,463,-5.77704,-1.7312,0,0,0,0,0,0,0,-1,748,561,-5.77703,1.73121
-469,463,-5.14545,-2.138,0,0,0,0,0,0,0,-1,755,561,-5.14546,2.13799
-462,463,-3.13672,-3.07977,0,0,0,0,0,0,0,-1,762,561,-3.13672,3.07974
-455,463,-2.91406,-5.61798,0,0,0,0,0,0,0,-1,769,561,-2.91406,5.61801
-448,463,-4.00177,-8.54681,0,0,0,0,0,0,0,-1,776,561,-4.00175,8.54683
-441,463,-9.52252,-20.1302,0,0,0,0,0,0,0,-1,783,561,-9.52252,20.1302
-434,463,-9.40576,-21.4923,0.000302984,0.00811975,-0.001876,0.00854667,-0.000123932,-1.34704,0.00573954,0.0430356,790,561,-9.40574,21.4923
-427,463,-9.46967,-22.5398,0.000491251,0.00693404,-0.00209311,0.00755432,-0.000129033,-1.2827,0.00507977,0.0125189,797,561,-9.46967,22.5398
-420,463,-9.51569,-23.5444,0.000621008,0.00586342,-0.002208,0.00666946,-0.000185027,-1.22078,0.00450925,0.0104352,804,561,-9.51569,23.5444
-413,463,-9.58466,-24.5502,0.00068884,0.00475053,-0.00211226,0.00564987,-0.000210497,-1.16827,0.00383867,0.0110058,811,561,-9.58468,24.5502
-406,463,-9.66174,-25.5337,0.000680543,0.00359025,-0.00177765,0.00443249,-0.000161701,-1.12833,0.00301034,0.0117772,818,561,-9.66173,25.5337
-399,463,-9.7265,-26.5054,0.000779331,0.00258617,-0.00142288,0.00336821,-2.69955e-06,-1.06825,0.00224637,0.0124343,825,561,-9.72652,26.5053
-392,463,-9.8045,-27.4735,0.00103933,0.00168799,-0.0011025,0.00251288,0.000214443,-0.928452,0.00160854,0.0116191,832,561,-9.8045,27.4735
-385,463,-9.87854,-28.4639,0.00146388,0.000876812,-0.000786646,0.00200998,0.000330719,-0.606825,0.00124448,0.0117487,839,561,-9.87853,28.4639
-378,463,-9.94434,-29.441,0.00197387,0.000101722,-0.000437061,0.00207088,4.71447e-06,-0.218413,0.00137902,0.0130041,846,561,-9.94434,29.441
-371,463,-9.99249,-30.4072,0.00258964,-0.000544014,-0.000134161,0.00259537,-0.000549747,-0.0427089,0.00193964,0.0130498,853,561,-9.99248,30.4071
-364,463,-10.0513,-31.3347,0.00325222,-0.0010008,0.000100922,0.00325462,-0.00100319,0.0237118,0.00257025,0.0148148,860,561,-10.0513,31.3347
-357,463,-10.1528,-32.2556,0.00397649,-0.00147705,0.000239271,0.00398696,-0.00148753,0.0437624,0.00326866,0.021854,867,561,-10.1528,32.2556
-350,463,-10.0846,-33.3052,0.0047392,-0.00219849,0.000347797,0.00475659,-0.00221588,0.0499646,0.00411368,0.0460337,874,561,-10.0846,33.3052
-343,463,-9.74707,-34.3751,0,0,0,0,0,0,0,-1,881,561,-9.74706,34.3751
-336,463,-2.94928,-12.2127,0,0,0,0,0,0,0,-1,888,561,-2.94925,12.2127
-329,463,-2.64307,-12.7037,0,0,0,0,0,0,0,-1,895,561,-2.64307,12.7038
-322,463,-1.82898,-9.11957,0,0,0,0,0,0,0,-1,902,561,-1.829,9.11957
-315,463,-0.944763,-5.96234,0,0,0,0,0,0,0,-1,909,561,-0.94479,5.96237
-308,463,-1.1535,-3.17889,0,0,0,0,0,0,0,-1,916,561,-1.15352,3.17889
-301,463,-1.50366,-3.15338,0,0,0,0,0,0,0,-1,923,561,-1.50364,3.15341
-294,463,-2.35889,-3.93463,0,0,0,0,0,0,0,-1,930,561,-2.35886,3.93465
-287,463,-2.80322,2.73999,0,0,0,0,0,0,0,-1,937,561,-2.80322,-2.74
-280,463,-12.864,5.25146,0,0,0,0,0,0,0,-1,944,561,-12.864,-5.25149
-273,463,-12.4598,3.39178,0,0,0,0,0,0,0,-1,951,561,-12.4598,-3.3918
-266,463,-8.78101,-3.7356,0,0,0,0,0,0,0,-1,958,561,-8.78098,3.73562
-259,463,-6.23285,-5.68842,0,0,0,0,0,0,0,-1,965,561,-6.23288,5.68843
-252,463,0,0,0,0,0,0,0,0,0,-1,972,561,0,0
-245,463,0,0,0,0,0,0,0,0,0,-1,979,561,0,0
-238,463,0,0,0,0,0,0,0,0,0,-1,986,561,0,0
-231,463,0,0,0,0,0,0,0,0,0,-1,993,561,0,0
-224,463,0,0,0,0,0,0,0,0,0,-1,1000,561,0,0
-217,463,0,0,0,0,0,0,0,0,0,-1,1007,561,0,0
-210,463,0,0,0,0,0,0,0,0,0,-1,1014,561,0,0
-203,463,0,0,0,0,0,0,0,0,0,-1,1021,561,0,0
-196,463,0,0,0,0,0,0,0,0,0,-1,1028,561,0,0
-189,463,0,0,0,0,0,0,0,0,0,-1,1035,561,0,0
-182,463,0,0,0,0,0,0,0,0,0,-1,1042,561,0,0
-175,463,0,0,0,0,0,0,0,0,0,-1,1049,561,0,0
-168,463,0,0,0,0,0,0,0,0,0,-1,1056,561,0,0
-161,463,0,0,0,0,0,0,0,0,0,-1,1063,561,0,0
-154,463,0,0,0,0,0,0,0,0,0,-1,1070,561,0,0
-147,463,0,0,0,0,0,0,0,0,0,-1,1077,561,0,0
-140,463,0,0,0,0,0,0,0,0,0,-1,1084,561,0,0
-133,463,0,0,0,0,0,0,0,0,0,-1,1091,561,0,0
-126,463,0,0,0,0,0,0,0,0,0,-1,1098,561,0,0
-119,463,0,0,0,0,0,0,0,0,0,-1,1105,561,0,0
-112,463,0,0,0,0,0,0,0,0,0,-1,1112,561,0,0
-105,463,0,0,0,0,0,0,0,0,0,-1,1119,561,0,0
-98,463,0,0,0,0,0,0,0,0,0,-1,1126,561,0,0
-91,463,0,0,0,0,0,0,0,0,0,-1,1133,561,0,0
-84,463,0,0,0,0,0,0,0,0,0,-1,1140,561,0,0
-77,463,0,0,0,0,0,0,0,0,0,-1,1147,561,0,0
-70,463,0,0,0,0,0,0,0,0,0,-1,1154,561,0,0
-63,463,0,0,0,0,0,0,0,0,0,-1,1161,561,0,0
-56,463,0,0,0,0,0,0,0,0,0,-1,1168,561,0,0
-49,463,0,0,0,0,0,0,0,0,0,-1,1175,561,0,0
-42,463,0,0,0,0,0,0,0,0,0,-1,1182,561,0,0
-35,463,0,0,0,0,0,0,0,0,0,-1,1189,561,0,0
-28,463,0,0,0,0,0,0,0,0,0,-1,1196,561,0,0
-21,463,0,0,0,0,0,0,0,0,0,-1,1203,561,0,0
-14,463,0,0,0,0,0,0,0,0,0,-1,1210,561,0,0
-7,463,0,0,0,0,0,0,0,0,0,-1,1217,561,0,0
0,463,0,0,0,0,0,0,0,0,0,-1,1224,561,0,0
7,463,0,0,0,0,0,0,0,0,0,-1,1231,561,0,0
14,463,0,0,0,0,0,0,0,0,0,-1,1238,561,0,0
21,463,0,0,0,0,0,0,0,0,0,-1,1245,561,0,0
28,463,0,0,0,0,0,0,0,0,0,-1,1252,561,0,0
35,463,0,0,0,0,0,0,0,0,0,-1,1259,561,0,0
42,463,0,0,0,0,0,0,0,0,0,-1,1266,561,0,0
49,463,0,0,0,0,0,0,0,0,0,-1,1273,561,0,0
56,463,0,0,0,0,0,0,0,0,0,-1,1280,561,0,0
63,463,0,0,0,0,0,0,0,0,0,-1,1287,561,0,0
70,463,0,0,0,0,0,0,0,0,0,-1,1294,561,0,0
77,463,0,0,0,0,0,0,0,0,0,-1,1301,561,0,0
84,463,0,0,0,0,0,0,0,0,0,-1,1308,561,0,0
91,463,0,0,0,0,0,0,0,0,0,-1,1315,561,0,0
98,463,0,0,0,0,0,0,0,0,0,-1,1322,561,0,0
105,463,0,0,0,0,0,0,0,0,0,-1,1329,561,0,0
112,463,0,0,0,0,0,0,0,0,0,-1,1336,561,0,0
119,463,0,0,0,0,0,0,0,0,0,-1,1343,561,0,0
126,463,0,0,0,0,0,0,0,0,0,-1,1350,561,0,0
133,463,0,0,0,0,0,0,0,0,0,-1,1357,561,0,0
140,463,0,0,0,0,0,0,0,0,0,-1,1364,561,0,0
147,463,0,0,0,0,0,0,0,0,0,-1,1371,561,0,0
154,463,0,0,0,0,0,0,0,0,0,-1,1378,561,0,0
161,463,0,0,0,0,0,0,0,0,0,-1,1385,561,0,0
168,463,0,0,0,0,0,0,0,0,0,-1,1392,561,0,0
175,463,0,0,0,0,0,0,0,0,0,-1,1399,561,0,0
182,463,0,0,0,0,0,0,0,0,0,-1,1406,561,0,0
189,463,0,0,0,0,0,0,0,0,0,-1,1413,561,0,0
196,463,0,0,0,0,0,0,0,0,0,-1,1420,561,0,0
203,463,0,0,0,0,0,0,0,0,0,-1,1427,561,0,0
210,463,0,0,0,0,0,0,0,0,0,-1,1434,561,0,0
217,463,0,0,0,0,0,0,0,0,0,-1,1441,561,0,0
224,463,0,0,0,0,0,0,0,0,0,-1,1448,561,0,0
231,463,0,0,0,0,0,0,0,0,0,-1,1455,561,0,0
238,463,0,0,0,0,0,0,0,0,0,-1,1462,561,0,0
245,463,0,0,0,0,0,0,0,0,0,-1,1469,561,0,0
252,463,0,0,0,0,0,0,0,0,0,-1,1476,561,0,0
259,463,0,0,0,0,0,0,0,0,0,-1,1483,561,0,0
266,463,0,0,0,0,0,0,0,0,0,-1,1490,561,0,0
273,463,0,0,0,0,0,0,0,0,0,-1,1497,561,0,0
280,463,0,0,0,0,0,0,0,0,0,-1,1504,561,0,0
287,463,0,0,0,0,0,0,0,0,0,-1,1511,561,0,0
294,463,0,0,0,0,0,0,0,0,0,-1,1518,561,0,0
301,463,0,0,0,0,0,0,0,0,0,-1,1525,561,0,0
308,463,0,0,0,0,0,0,0,0,0,-1,1532,561,0,0
315,463,0,0,0,0,0,0,0,0,0,-1,1539,561,0,0
322,463,0,0,0,0,0,0,0,0,0,-1,1546,561,0,0
329,463,0,0,0,0,0,0,0,0,0,-1,1553,561,0,0
336,463,0,0,0,0,0,0,0,0,0,-1,1560,561,0,0
343,463,0,0,0,0,0,0,0,0,0,-1,1567,561,0,0
350,463,0,0,0,0,0,0,0,0,0,-1,1574,561,0,0
357,463,0,0,0,0,0,0,0,0,0,-1,1581,561,0,0
364,463,0,0,0,0,0,0,0,0,0,-1,1588,561,0,0
371,463,1.75842,0.152588,0,0,0,0,0,0,0,-1,1595,561,1.75844,-0.152558
378,463,4.58813,-0.0444336,0,0,0,0,0,0,0,-1,1602,561,4.58809,0.0444505
385,463,8.88574,1.65057,0,0,0,0,0,0,0,-1,1609,561,8.88575,-1.65055
392,463,14.0912,2.50513,0,0,0,0,0,0,0,-1,1616,561,14.0912,-2.5051
399,463,21.4769,2.7002,0,0,0,0,0,0,0,-1,1623,561,21.477,-2.70017
406,463,26.2987,4.32318,0,0,0,0,0,0,0,-1,1630,561,26.2987,-4.3232
413,463,26.5011,2.65222,0,0,0,0,0,0,0,-1,1637,561,26.5011,-2.65224
420,463,8.849,2.26611,0,0,0,0,0,0,0,-1,1644,561,8.84899,-2.26613
427,463,5.12207,1.69183,0,0,0,0,0,0,0,-1,1651,561,5.12206,-1.69184
434,463,4.59814,1.81995,0,0,0,0,0,0,0,-1,1658,561,4.59812,-1.81994
441,463,1.76392,-5.99225,0,0,0,0,0,0,0,-1,1665,561,1.7639,5.99225
448,463,2.49939,-4.30536,0,0,0,0,0,0,0,-1,1672,561,2.49941,4.30536
455,463,4.40295,-3.02557,0,0,0,0,0,0,0,-1,1679,561,4.40299,3.02558
462,463,5.38293,-4.06445,0,0,0,0,0,0,0,-1,1686,561,5.38289,4.06444
469,463,5.94373,-4.50647,0,0,0,0,0,0,0,-1,1693,561,5.94368,4.50646
476,463,15.2559,-17.3189,0,0,0,0,0,0,0,-1,1700,561,15.2558,17.3189
483,463,27.0286,-32.2712,0,0,0,0,0,0,0,-1,1707,561,27.0285,32.2713
490,463,27.0046,-31.301,0.00201545,0.000270249,-0.000588243,0.00219521,9.04896e-05,-0.296575,0.00143426,0.0347091,1714,561,27.0046,31.301
497,463,26.9204,-30.2464,0.00190691,0.000772353,-1.81168e-05,0.0019072,0.000772064,-0.0159627,0.00110776,0.0160169,1721,561,26.9204,30.2464
504,463,26.8934,-29.2853,0.00165354,0.000660395,0.000263484,0.00171911,0.000594821,0.243916,0.0010081,0.0168083,1728,561,26.8934,29.2853
511,463,26.8691,-28.3138,0.00137207,0.000627364,0.000503456,0.00162591,0.000373526,0.466995,0.000983367,0.023852,1735,561,26.8692,28.3138
518,463,26.8247,-27.2941,0.00106635,0.000658761,0.000764845,0.00165409,7.10259e-05,0.655197,0.00107983,0.0247887,1742,561,26.8247,27.2941
525,463,26.7228,-26.3362,0.000804608,0.000812985,0.000978629,0.00178744,-0.000169842,0.787538,0.00125208,0.0198129,1749,561,26.7228,26.3363
532,463,26.6666,-25.3371,0.000618625,0.00111272,0.001216,0.00210651,-0.000375171,0.885616,0.00154466,0.0181283,1756,561,26.6667,25.3371
539,463,26.5277,-24.3178,0.00050859,0.00157969,0.00145739,0.00259681,-0.000508536,0.961475,0.00192326,0.0202251,1763,561,26.5277,24.3178
546,463,26.4333,-23.3974,0.000515558,0.00230939,0.00174195,0.00337177,-0.000546821,1.02314,0.00245054,0.015828,1770,561,26.4334,23.3974
553,463,26.4125,-22.3776,0.000658936,0.00323931,0.00210207,0.00441555,-0.00051731,1.06064,0.00313042,0.0112472,1777,561,26.4125,22.3775
560,463,26.4045,-21.227,0.0010255,0.00439084,0.00257594,0.005785,-0.000368649,1.07472,0.00398524,0.0241376,1784,561,26.4046,21.227
567,463,26.2118,-20.2468,0.00150159,0.00576137,0.0032281,0.00749892,-0.00023596,1.07701,0.00507976,0.0409576,1791,561,26.2118,20.2468
574,463,26.3154,-19.2135,0,0,0,0,0,0,0,-1,1798,561,26.3155,19.2135
581,463,9.4939,-3.88245,0,0,0,0,0,0,0,-1,1805,561,9.49392,3.88245
588,463,1.97424,2.16016,0,0,0,0,0,0,0,-1,1812,561,1.97422,-2.16013
595,463,9.98657,2.99854,0,0,0,0,0,0,0,-1,1819,561,9.98662,-2.99856
602,463,17.2202,4.91302,0,0,0,0,0,0,0,-1,1826,561,17.2202,-4.91305
609,463,17.96,4.03131,0,0,0,0,0,0,0,-1,1833,561,17.96,-4.03132
616,463,20.8352,3.15131,0,0,0,0,0,0,0,-1,1840,561,20.8352,-3.1513
623,463,0,0,0,0,0,0,0,0,0,-1,1847,561,0,0
630,463,0,0,0,0,0,0,0,0,0,-1,1854,561,0,0
637,463,0,0,0,0,0,0,0,0,0,-1,1861,561,0,0
644,463,0,0,0,0,0,0,0,0,0,-1,1868,561,0,0
651,463,0,0,0,0,0,0,0,0,0,-1,1875,561,0,0
658,463,0,0,0,0,0,0,0,0,0,-1,1882,561,0,0
665,463,0,0,0,0,0,0,0,0,0,-1,1889,561,0,0
672,463,0,0,0,0,0,0,0,0,0,-1,1896,561,0,0
679,463,0,0,0,0,0,0,0,0,0,-1,1903,561,0,0
686,463,0,0,0,0,0,0,0,0,0,-1,1910,561,0,0
693,463,0,0,0,0,0,0,0,0,0,-1,1917,561,0,0
700,463,0,0,0,0,0,0,0,0,0,-1,1924,561,0,0
707,463,0,0,0,0,0,0,0,0,0,-1,1931,561,0,0
714,463,0,0,0,0,0,0,0,0,0,-1,1938,561,0,0
721,463,0,0,0,0,0,0,0,0,0,-1,1945,561,0,0
728,463,0,0,0,0,0,0,0,0,0,-1,1952,561,0,0
735,463,0,0,0,0,0,0,0,0,0,-1,1959,561,0,0
742,463,0,0,0,0,0,0,0,0,0,-1,1966,561,0,0
749,463,0,0,0,0,0,0,0,0,0,-1,1973,561,0,0
756,463,0,0,0,0,0,0,0,0,0,-1,1980,561,0,0
763,463,0,0,0,0,0,0,0,0,0,-1,1987,561,0,0
770,463,0,0,0,0,0,0,0,0,0,-1,1994,561,0,0
777,463,0,0,0,0,0,0,0,0,0,-1,2001,561,0,0
784,463,0,0,0,0,0,0,0,0,0,-1,2008,561,0,0
791,463,0,0,0,0,0,0,0,0,0,-1,2015,561,0,0
798,463,0,0,0,0,0,0,0,0,0,-1,2022,561,0,0
805,463,0,0,0,0,0,0,0,0,0,-1,2029,561,0,0
812,463,0,0,0,0,0,0,0,0,0,-1,2036,561,0,0
-700,456,0,0,0,0,0,0,0,0,0,-1,524,568,0,0
-693,456,0,0,0,0,0,0,0,0,0,-1,531,568,0,0
-686,456,0,0,0,0,0,0,0,0,0,-1,538,568,0,0
-679,456,0,0,0,0,0,0,0,0,0,-1,545,568,0,0
-672,456,0,0,0,0,0,0,0,0,0,-1,552,568,0,0
-665,456,0,0,0,0,0,0,0,0,0,-1,559,568,0,0
-658,456,0,0,0,0,0,0,0,0,0,-1,566,568,0,0
-651,456,0,0,0,0,0,0,0,0,0,-1,573,568,0,0
-644,456,0,0,0,0,0,0,0,0,0,-1,580,568,0,0
-637,456,0,0,0,0,0,0,0,0,0,-1,587,568,0,0
-630,456,0,0,0,0,0,0,0,0,0,-1,594,568,0,0
-623,456,0,0,0,0,0,0,0,0,0,-1,601,568,0,0
-616,456,0,0,0,0,0,0,0,0,0,-1,608,568,0,0
-609,456,0,0,0,0,0,0,0,0,0,-1,615,568,0,0
-602,456,0,0,0,0,0,0,0,0,0,-1,622,568,0,0
-595,456,0,0,0,0,0,0,0,0,0,-1,629,568,0,0
-588,456,0,0,0,0,0,0,0,0,0,-1,636,568,0,0
-581,456,0,0,0,0,0,0,0,0,0,-1,643,568,0,0
-574,456,0,0,0,0,0,0,0,0,0,-1,650,568,0,0
-567,456,0,0,0,0,0,0,0,0,0,-1,657,568,0,0
-560,456,0,0,0,0,0,0,0,0,0,-1,664,568,0,0
-553,456,0,0,0,0,0,0,0,0,0,-1,671,568,0,0
-546,456,0,0,0,0,0,0,0,0,0,-1,678,568,0,0
-539,456,0,0,0,0,0,0,0,0,0,-1,685,568,0,0
-532,456,0,0,0,0,0,0,0,0,0,-1,692,568,0,0
-525,456,0,0,0,0,0,0,0,0,0,-1,699,568,0,0
-518,456,0,0,0,0,0,0,0,0,0,-1,706,568,0,0
-511,456,0,0,0,0,0,0,0,0,0,-1,713,568,0,0
-504,456,-10.3994,-2.34839,0,0,0,0,0,0,0,-1,720,568,-10.3994,2.3484
-497,456,-9.21375,-2.38068,0,0,0,0,0,0,0,-1,727,568,-9.21372,2.38069
-490,456,-8.09058,-2.31824,0,0,0,0,0,0,0,-1,734,568,-8.09057,2.31821
-483,456,-6.66119,-2.24329,0,0,0,0,0,0,0,-1,741,568,-6.66121,2.24331
-476,456,-5.1499,-2.21185,0,0,0,0,0,0,0,-1,748,568,-5.14992,2.21184
-469,456,-2.81238,-3.51501,0,0,0,0,0,0,0,-1,755,568,-2.81237,3.51501
-462,456,-4.2431,-5.27478,0,0,0,0,0,0,0,-1,762,568,-4.24312,5.27476
-455,456,-5.98364,-8.72119,0,0,0,0,0,0,0,-1,769,568,-5.98364,8.72122
-448,456,-10.2927,-18.8931,0,0,0,0,0,0,0,-1,776,568,-10.2927,18.893
-441,456,-10.4832,-20.3021,0,0,0,0,0,0,0,-1,783,568,-10.4832,20.3021
-434,456,-10.3951,-21.455,8.65403e-05,0.00597375,-0.00127977,0.00623991,-0.000179625,-1.36574,0.00422109,0.0260242,790,568,-10.3951,21.455
-427,456,-10.4459,-22.4701,0.000419806,0.00511185,-0.00152115,0.00556185,-3.01898e-05,-1.28317,0.003718,0.0107752,797,568,-10.4458,22.4701
-420,456,-10.5201,-23.4767,0.000674174,0.00433137,-0.00167219,0.00498068,2.48693e-05,-1.20042,0.00331219,0.00926194,804,568,-10.5201,23.4767
-413,456,-10.5841,-24.4691,0.000817601,0.00348395,-0.00161563,0.00424544,5.61092e-05,-1.13035,0.00281178,0.00929733,811,568,-10.5841,24.469
-406,456,-10.6677,-25.4293,0.000869018,0.00257867,-0.00133486,0.00330895,0.000138736,-1.07019,0.00216121,0.0097051,818,568,-10.6677,25.4293
-399,456,-10.7443,-26.3961,0.00103848,0.00182277,-0.00106347,0.00256409,0.000297162,-0.962034,0.00161945,0.0112383,825,568,-10.7443,26.3961
-392,456,-10.7979,-27.3772,0.00134708,0.00112843,-0.000811522,0.00205661,0.000418903,-0.718444,0.00125496,0.0110812,832,568,-10.7979,27.3772
-385,456,-10.8571,-28.3586,0.00183658,0.000501227,-0.000570699,0.00204725,0.000290559,-0.353623,0.00127903,0.0103746,839,568,-10.8571,28.3587
-378,456,-10.9322,-29.3593,0.00244142,-0.000105947,-0.000298275,0.00247588,-0.000140406,-0.115019,0.00169932,0.0114592,846,568,-10.9322,29.3592
-371,456,-10.9747,-30.3196,0.00320209,-0.000539481,-6.37668e-05,0.00320318,-0.000540568,-0.0170362,0.00233658,0.0124055,853,568,-10.9747,30.3197
-364,456,-11.0176,-31.2309,0.00405117,-0.00066168,4.34811e-05,0.00405157,-0.000662081,0.00922503,0.00294664,0.0225844,860,568,-11.0176,31.2309
-357,456,-11.0675,-32.2401,0,0,0,0,0,0,0,-1,867,568,-11.0675,32.2401
-350,456,-10.8671,-33.5012,0,0,0,0,0,0,0,-1,874,568,-10.8671,33.5012
-343,456,-3.39081,-12.0217,0,0,0,0,0,0,0,-1,881,568,-3.39078,12.0217
-336,456,-3.04517,-12.4623,0,0,0,0,0,0,0,-1,888,568,-3.04519,12.4624
-329,456,-1.06183,-10.7184,0,0,0,0,0,0,0,-1,895,568,-1.06184,10.7184
-322,456,-0.662537,-7.66632,0,0,0,0,0,0,0,-1,902,568,-0.662564,7.66633
-315,456,-0.675476,-3.38397,0,0,0,0,0,0,0,-1,909,568,-0.675473,3.38399
-308,456,-1.1618,-3.15314,0,0,0,0,0,0,0,-1,916,568,-1.16178,3.15314
-301,456,-1.83551,-3.26447,0,0,0,0,0,0,0,-1,923,568,-1.8355,3.26449
-294,456,-2.93414,-3.35449,0,0,0,0,0,0,0,-1,930,568,-2.93413,3.35451
-287,456,-3.7569,-3.53101,0,0,0,0,0,0,0,-1,937,568,-3.75692,3.53101
-280,456,-13.072,4.52856,0,0,0,0,0,0,0,-1,944,568,-13.072,-4.52855
-273,456,-8.26538,-6.66748,0,0,0,0,0,0,0,-1,951,568,-8.26536,6.66745
-266,456,-5.71527,-9.36884,0,0,0,0,0,0,0,-1,958,568,-5.71529,9.36885
-259,456,0,0,0,0,0,0,0,0,0,-1,965,568,0,0
-252,456,0,0,0,0,0,0,0,0,0,-1,972,568,0,0
-245,456,0,0,0,0,0,0,0,0,0,-1,979,568,0,0
-238,456,0,0,0,0,0,0,0,0,0,-1,986,568,0,0
-231,456,0,0,0,0,0,0,0,0,0,-1,993,568,0,0
-224,456,0,0,0,0,0,0,0,0,0,-1,1000,568,0,0
-217,456,0,0,0,0,0,0,0,0,0,-1,1007,568,0,0
-210,456,0,0,0,0,0,0,0,0,0,-1,1014,568,0,0
-203,456,0,0,0,0,0,0,0,0,0,-1,1021,568,0,0
-196,456,0,0,0,0,0,0,0,0,0,-1,1028,568,0,0
-189,456,0,0,0,0,0,0,0,0,0,-1,1035,568,0,0
-182,456,0,0,0,0,0,0,0,0,0,-1,1042,568,0,0
-175,456,0,0,0,0,0,0,0,0,0,-1,1049,568,0,0
-168,456,0,0,0,0,0,0,0,0,0,-1,1056,568,0,0
-161,456,0,0,0,0,0,0,0,0,0,-1,1063,568,0,0
-154,456,0,0,0,0,0,0,0,0,0,-1,1070,568,0,0
-147,456,0,0,0,0,0,0,0,0,0,-1,1077,568,0,0
-140,456,0,0,0,0,0,0,0,0,0,-1,1084,568,0,0
-133,456,0,0,0,0,0,0,0,0,0,-1,1091,568,0,0
-126,456,0,0,0,0,0,0,0,0,0,-1,1098,568,0,0
-119,456,0,0,0,0,0,0,0,0,0,-1,1105,568,0,0
-112,456,0,0,0,0,0,0,0,0,0,-1,1112,568,0,0
-105,456,0,0,0,0,0,0,0,0,0,-1,1119,568,0,0
-98,456,0,0,0,0,0,0,0,0,0,-1,1126,568,0,0
-91,456,0,0,0,0,0,0,0,0,0,-1,1133,568,0,0
-84,456,0,0,0,0,0,0,0,0,0,-1,1140,568,0,0
-77,456,0,0,0,0,0,0,0,0,0,-1,1147,568,0,0
-70,456,0,0,0,0,0,0,0,0,0,-1,1154,568,0,0
-63,456,0,0,0,0,0,0,0,0,0,-1,1161,568,0,0
-56,456,0,0,0,0,0,0,0,0,0,-1,1168,568,0,0
-49,456,0,0,0,0,0,0,0,0,0,-1,1175,568,0,0
-42,456,0,0,0,0,0,0,0,0,0,-1,1182,568,0,0
-35,456,0,0,0,0,0,0,0,0,0,-1,1189,568,0,0
-28,456,0,0,0,0,0,0,0,0,0,-1,1196,568,0,0
-21,456,0,0,0,0,0,0,0,0,0,-1,1203,568,0,0
-14,456,0,0,0,0,0,0,0,0,0,-1,1210,568,0,0
-7,456,0,0,0,0,0,0,0,0,0,-1,1217,568,0,0
0,456,0,0,0,0,0,0,0,0,0,-1,1224,568,0,0
7,456,0,0,0,0,0,0,0,0,0,-1,1231,568,0,0
14,456,0,0,0,0,0,0,0,0,0,-1,1238,568,0,0
21,456,0,0,0,0,0,0,0,0,0,-1,1245,568,0,0
28,456,0,0,0,0,0,0,0,0,0,-1,1252,568,0,0
35,456,0,0,0,0,0,0,0,0,0,-1,1259,568,0,0
42,456,0,0,0,0,0,0,0,0,0,-1,1266,568,0,0
49,456,0,0,0,0,0,0,0,0,0,-1,1273,568,0,0
56,456,0,0,0,0,0,0,0,0,0,-1,1280,568,0,0
63,456,0,0,0,0,0,0,0,0,0,-1,1287,568,0,0
70,456,0,0,0,0,0,0,0,0,0,-1,1294,568,0,0
77,456,0,0,0,0,0,0,0,0,0,-1,1301,568,0,0
84,456,0,0,0,0,0,0,0,0,0,-1,1308,568,0,0
91,456,0,0,0,0,0,0,0,0,0,-1,1315,568,0,0
98,456,0,0,0,0,0,0,0,0,0,-1,1322,568,0,0
105,456,0,0,0,0,0,0,0,0,0,-1,1329,568,0,0
112,456,0,0,0,0,0,0,0,0,0,-1,1336,568,0,0
119,456,0,0,0,0,0,0,0,0,0,-1,1343,568,0,0
126,456,0,0,0,0,0,0,0,0,0,-1,1350,568,0,0
133,456,0,0,0,0,0,0,0,0,0,-1,1357,568,0,0
140,456,0,0,0,0,0,0,0,0,0,-1,1364,568,0,0
147,456,0,0,0,0,0,0,0,0,0,-1,1371,568,0,0
154,456,0,0,0,0,0,0,0,0,0,-1,1378,568,0,0
161,456,0,0,0,0,0,0,0,0,0,-1,1385,568,0,0
168,456,0,0,0,0,0,0,0,0,0,-1,1392,568,0,0
175,456,0,0,0,0,0,0,0,0,0,-1,1399,568,0,0
182,456,0,0,0,0,0,0,0,0,0,-1,1406,568,0,0
189,456,0,0,0,0,0,0,0,0,0,-1,1413,568,0,0
196,456,0,0,0,0,0,0,0,0,0,-1,1420,568,0,0
203,456,0,0,0,0,0,0,0,0,0,-1,1427,568,0,0
210,456,0,0,0,0,0,0,0,0,0,-1,1434,568,0,0
217,456,0,0,0,0,0,0,0,0,0,-1,1441,568,0,0
224,456,0,0,0,0,0,0,0,0,0,-1,1448,568,0,0
231,456,0,0,0,0,0,0,0,0,0,-1,1455,568,0,0
238,456,0,0,0,0,0,0,0,0,0,-1,1462,568,0,0
245,456,0,0,0,0,0,0,0,0,0,-1,1469,568,0,0
252,456,0,0,0,0,0,0,0,0,0,-1,1476,568,0,0
259,456,0,0,0,0,0,0,0,0,0,-1,1483,568,0,0
266,456,0,0,0,0,0,0,0,0,0,-1,1490,568,0,0
273,456,0,0,0,0,0,0,0,0,0,-1,1497,568,0,0
280,456,0,0,0,0,0,0,0,0,0,-1,1504,568,0,0
287,456,0,0,0,0,0,0,0,0,0,-1,1511,568,0,0
294,456,0,0,0,0,0,0,0,0,0,-1,1518,568,0,0
301,456,0,0,0,0,0,0,0,0,0,-1,1525,568,0,0
308,456,0,0,0,0,0,0,0,0,0,-1,1532,568,0,0
315,456,0,0,0,0,0,0,0,0,0,-1,1539,568,0,0
322,456,0,0,0,0,0,0,0,0,0,-1,1546,568,0,0
329,456,0,0,0,0,0,0,0,0,0,-1,1553,568,0,0
336,456,0,0,0,0,0,0,0,0,0,-1,1560,568,0,0
343,456,0,0,0,0,0,0,0,0,0,-1,1567,568,0,0
350,456,0,0,0,0,0,0,0,0,0,-1,1574,568,0,0
357,456,0,0,0,0,0,0,0,0,0,-1,1581,568,0,0
364,456,0,0,0,0,0,0,0,0,0,-1,1588,568,0,0
371,456,0,0,0,0,0,0,0,0,0,-1,1595,568,0,0
378,456,0,0,0,0,0,0,0,0,0,-1,1602,568,0,0
385,456,5.66284,0.660645,0,0,0,0,0,0,0,-1,1609,568,5.66285,-0.660615
392,456,17.5027,4.32971,0,0,0,0,0,0,0,-1,1616,568,17.5026,-4.32971
399,456,24.1917,5.99652,0,0,0,0,0,0,0,-1,1623,568,24.1916,-5.99651
406,456,24.446,4.53003,0,0,0,0,0,0,0,-1,1630,568,24.446,-4.53005
413,456,24.9418,2.90521,0,0,0,0,0,0,0,-1,1637,568,24.9418,-2.90524
420,456,25.3048,1.04712,0,0,0,0,0,0,0,-1,1644,568,25.3048,-1.04713
427,456,6.21375,2.02905,0,0,0,0,0,0,0,-1,1651,568,6.21372,-2.02904
434,456,3.0719,-4.86285,0,0,0,0,0,0,0,-1,1658,568,3.07184,4.86287
441,456,2.90344,-4.70459,0,0,0,0,0,0,0,-1,1665,568,2.90346,4.7046
448,456,3.06995,-4.93689,0,0,0,0,0,0,0,-1,1672,568,3.06991,4.93687
455,456,3.46582,-3.43701,0,0,0,0,0,0,0,-1,1679,568,3.46585,3.43698
462,456,4.68445,-4.45831,0,0,0,0,0,0,0,-1,1686,568,4.68439,4.45833
469,456,4.93201,-2.289,0,0,0,0,0,0,0,-1,1693,568,4.93197,2.28903
476,456,4.8363,-2.79364,0,0,0,0,0,0,0,-1,1700,568,4.83636,2.79363
483,456,12.8522,-13.692,0,0,0,0,0,0,0,-1,1707,568,12.8522,13.6919
490,456,27.8599,-31.5839,0,0,0,0,0,0,0,-1,1714,568,27.8598,31.5839
497,456,27.8339,-30.1642,0,0,0,0,0,0,0,-1,1721,568,27.8339,30.1642
504,456,27.8278,-29.204,0.00215838,0.00069571,0.000243567,0.00219788,0.000656217,0.160745,0.00130282,0.0175424,1728,568,27.8277,29.204
511,456,27.8147,-28.2334,0.00177002,0.000528138,0.00037506,0.0018745,0.000423656,0.271685,0.00113511,0.0150827,1735,568,27.8147,28.2334
518,456,27.7949,-27.2488,0.00139765,0.000455009,0.000589434,0.00168103,0.000171627,0.448146,0.00106808,0.0178992,1742,568,27.7949,27.2488
525,456,27.6971,-26.2955,0.00105399,0.000569058,0.00074853,0.00159834,2.47009e-05,0.628771,0.00105742,0.0174782,1749,568,27.6971,26.2955
532,456,27.6329,-25.2829,0.000807315,0.000821704,0.000936176,0.00175071,-0.000121695,0.789241,0.00120975,0.0183897,1756,568,27.6329,25.2829
539,456,27.5187,-24.2273,0.000678189,0.0012408,0.00115436,0.00214763,-0.000228648,0.904913,0.00151374,0.0264109,1763,568,27.5187,24.2273
546,456,27.3715,-23.2603,0.000679547,0.00187526,0.00140924,0.00280821,-0.000253409,0.986011,0.00196207,0.0297441,1770,568,27.3715,23.2603
553,456,27.3312,-22.265,0.000790601,0.00270052,0.00174533,0.00373506,-0.000243938,1.03573,0.00257521,0.0158801,1777,568,27.3311,22.265
560,456,27.3252,-21.285,0.00110564,0.00370551,0.00221798,0.00497642,-0.000165269,1.05046,0.00337405,0.011308,1784,568,27.3252,21.285
567,456,27.299,-20.2641,0.00164837,0.00496296,0.00290557,0.00665065,-3.93323e-05,1.04458,0.00444694,0.0239718,1791,568,27.299,20.2641
574,456,27.274,-19.2864,0,0,0,0,0,0,0,-1,1798,568,27.2741,19.2865
581,456,16.2228,-9.08563,0,0,0,0,0,0,0,-1,1805,568,16.2228,9.08562
588,456,5.23901,-0.0901489,0,0,0,0,0,0,0,-1,1812,568,5.23906,0.0901656
595,456,6.90063,3.14886,0,0,0,0,0,0,0,-1,1819,568,6.90066,-3.14887
602,456,16.894,4.10938,0,0,0,0,0,0,0,-1,1826,568,16.8941,-4.1094
609,456,14.9966,3.5708,0,0,0,0,0,0,0,-1,1833,568,14.9966,-3.57083
616,456,17.7407,2.6579,0,0,0,0,0,0,0,-1,1840,568,17.7408,-2.6579
623,456,20.6838,1.7121,0,0,0,0,0,0,0,-1,1847,568,20.6838,-1.71208
630,456,0,0,0,0,0,0,0,0,0,-1,1854,568,0,0
637,456,0,0,0,0,0,0,0,0,0,-1,1861,568,0,0
644,456,0,0,0,0,0,0,0,0,0,-1,1868,568,0,0
651,456,0,0,0,0,0,0,0,0,0,-1,1875,568,0,0
658,456,0,0,0,0,0,0,0,0,0,-1,1882,568,0,0
665,456,0,0,0,0,0,0,0,0,0,-1,1889,568,0,0
672,456,0,0,0,0,0,0,0,0,0,-1,1896,568,0,0
679,456,0,0,0,0,0,0,0,0,0,-1,1903,568,0,0
686,456,0,0,0,0,0,0,0,0,0,-1,1910,568,0,0
693,456,0,0,0,0,0,0,0,0,0,-1,1917,568,0,0
700,456,0,0,0,0,0,0,0,0,0,-1,1924,568,0,0
707,456,0,0,0,0,0,0,0,0,0,-1,1931,568,0,0
714,456,0,0,0,0,0,0,0,0,0,-1,1938,568,0,0
721,456,0,0,0,0,0,0,0,0,0,-1,1945,568,0,0
728,456,0,0,0,0,0,0,0,0,0,-1,1952,568,0,0
735,456,0,0,0,0,0,0,0,0,0,-1,1959,568,0,0
742,456,0,0,0,0,0,0,0,0,0,-1,1966,568,0,0
749,456,0,0,0,0,0,0,0,0,0,-1,1973,568,0,0
756,456,0,0,0,0,0,0,0,0,0,-1,1980,568,0,0
763,456,0,0,0,0,0,0,0,0,0,-1,1987,568,0,0
770,456,0,0,0,0,0,0,0,0,0,-1,1994,568,0,0
777,456,0,0,0,0,0,0,0,0,0,-1,2001,568,0,0
784,456,0,0,0,0,0,0,0,0,0,-1,2008,568,0,0
791,456,0,0,0,0,0,0,0,0,0,-1,2015,568,0,0
798,456,0,0,0,0,0,0,0,0,0,-1,2022,568,0,0
805,456,0,0,0,0,0,0,0,0,0,-1,2029,568,0,0
812,456,0,0,0,0,0,0,0,0,0,-1,2036,568,0,0
-700,449,0,0,0,0,0,0,0,0,0,-1,524,575,0,0
-693,449,0,0,0,0,0,0,0,0,0,-1,531,575,0,0
-686,449,0,0,0,0,0,0,0,0,0,-1,538,575,0,0
-679,449,0,0,0,0,0,0,0,0,0,-1,545,575,0,0
-672,449,0,0,0,0,0,0,0,0,0,-1,552,575,0,0
-665,449,0,0,0,0,0,0,0,0,0,-1,559,575,0,0
-658,449,0,0,0,0,0,0,0,0,0,-1,566,575,0,0
-651,449,0,0,0,0,0,0,0,0,0,-1,573,575,0,0
-644,449,0,0,0,0,0,0,0,0,0,-1,580,575,0,0
-637,449,0,0,0,0,0,0,0,0,0,-1,587,575,0,0
-630,449,0,0,0,0,0,0,0,0,0,-1,594,575,0,0
-623,449,0,0,0,0,0,0,0,0,0,-1,601,575,0,0
-616,449,0,0,0,0,0,0,0,0,0,-1,608,575,0,0
-609,449,0,0,0,0,0,0,0,0,0,-1,615,575,0,0
-602,449,0,0,0,0,0,0,0,0,0,-1,622,575,0,0
-595,449,0,0,0,0,0,0,0,0,0,-1,629,575,0,0
-588,449,0,0,0,0,0,0,0,0,0,-1,636,575,0,0
-581,449,0,0,0,0,0,0,0,0,0,-1,643,575,0,0
-574,449,0,0,0,0,0,0,0,0,0,-1,650,575,0,0
-567,449,0,0,0,0,0,0,0,0,0,-1,657,575,0,0
-560,449,0,0,0,0,0,0,0,0,0,-1,664,575,0,0
-553,449,0,0,0,0,0,0,0,0,0,-1,671,575,0,0
-546,449,0,0,0,0,0,0,0,0,0,-1,678,575,0,0
-539,449,0,0,0,0,0,0,0,0,0,-1,685,575,0,0
-532,449,0,0,0,0,0,0,0,0,0,-1,692,575,0,0
-525,449,0,0,0,0,0,0,0,0,0,-1,699,575,0,0
-518,449,0,0,0,0,0,0,0,0,0,-1,706,575,0,0
-511,449,-0.941345,-4.4519,0,0,0,0,0,0,0,-1,713,575,-0.941356,4.45191
-504,449,-14.1078,0.318237,0,0,0,0,0,0,0,-1,720,575,-14.1078,-0.318231
-497,449,-8.61292,-3.09009,0,0,0,0,0,0,0,-1,727,575,-8.61291,3.09011
-490,449,-7.50995,-2.96252,0,0,0,0,0,0,0,-1,734,575,-7.50995,2.96251
-483,449,-5.77789,-2.50061,0,0,0,0,0,0,0,-1,741,575,-5.77792,2.50059
-476,449,-4.1723,-2.07739,0,0,0,0,0,0,0,-1,748,575,-4.17228,2.0774
-469,449,-5.0976,-5.78448,0,0,0,0,0,0,0,-1,755,575,-5.09758,5.78451
-462,449,-6.54181,-9.54535,0,0,0,0,0,0,0,-1,762,575,-6.54178,9.54536
-455,449,-8.67291,-13.2226,0,0,0,0,0,0,0,-1,769,575,-8.67289,13.2226
-448,449,-11.2121,-19.4013,0,0,0,0,0,0,0,-1,776,575,-11.2121,19.4013
-441,449,-11.3809,-20.4385,0,0,0,0,0,0,0,-1,783,575,-11.3809,20.4386
-434,449,-11.3932,-21.3976,-3.33184e-05,0.00433319,-0.000850591,0.00449303,-0.000193161,-1.38504,0.00306177,0.0174842,790,575,-11.3932,21.3976
-427,449,-11.438,-22.3572,0.000418544,0.00372424,-0.00110762,0.00406105,8.17394e-05,-1.2756,0.00268053,0.0151121,797,575,-11.438,22.3572
-420,449,-11.5019,-23.3702,0.00079093,0.00318544,-0.00130723,0.00376082,0.000215544,-1.15616,0.00243855,0.0126324,804,575,-11.5019,23.3703
-413,449,-11.559,-24.3846,0.00100953,0.00257166,-0.00130156,0.00330853,0.000272659,-1.05564,0.00212065,0.0114368,811,575,-11.559,24.3846
-406,449,-11.6461,-25.3672,0.0011262,0.00190671,-0.00109338,0.0026774,0.00035552,-0.956814,0.00167902,0.0109349,818,575,-11.6461,25.3672
-399,449,-11.7407,-26.3313,0.00137179,0.00138052,-0.000920708,0.00229688,0.000455439,-0.787769,0.00140428,0.00958834,825,575,-11.7407,26.3313
-392,449,-11.7892,-27.3139,0.00173244,0.000879002,-0.000752988,0.00217121,0.000440226,-0.527611,0.00132533,0.0104253,832,575,-11.7893,27.3139
-385,449,-11.8373,-28.2914,0.0022889,0.000426476,-0.000602394,0.00246676,0.00024862,-0.287093,0.00156822,0.0111513,839,575,-11.8373,28.2915
-378,449,-11.9094,-29.2714,0.00300492,-1.32066e-05,-0.000423156,0.00306313,-7.14128e-05,-0.136694,0.0020663,0.0106838,846,575,-11.9093,29.2714
-371,449,-11.9276,-30.2478,0.00392728,-0.000227166,-0.000269465,0.00394469,-0.000244571,-0.0645016,0.00271499,0.0181877,853,575,-11.9276,30.2478
-364,449,-11.9733,-31.2686,0,0,0,0,0,0,0,-1,860,575,-11.9733,31.2686
-357,449,-5.88049,-15.8704,0,0,0,0,0,0,0,-1,867,575,-5.88051,15.8704
-350,449,-2.8764,-9.90204,0,0,0,0,0,0,0,-1,874,575,-2.87638,9.90203
-343,449,-2.98492,-9.2254,0,0,0,0,0,0,0,-1,881,575,-2.98491,9.22541
-336,449,-1.29523,-9.54626,0,0,0,0,0,0,0,-1,888,575,-1.29525,9.54626
-329,449,-0.733398,-7.78937,0,0,0,0,0,0,0,-1,895,575,-0.733398,7.78937
-322,449,-0.628845,-3.16669,0,0,0,0,0,0,0,-1,902,575,-0.628861,3.16667
-315,449,-0.540344,-3.21918,0,0,0,0,0,0,0,-1,909,575,-0.540336,3.21917
-308,449,-1.04413,-2.99341,0,0,0,0,0,0,0,-1,916,575,-1.04415,2.99338
-301,449,-1.58691,-2.80725,0,0,0,0,0,0,0,-1,923,575,-1.58692,2.80728
-294,449,-3.71118,-2.76086,0,0,0,0,0,0,0,-1,930,575,-3.71119,2.76087
-287,449,-4.4082,-2.69525,0,0,0,0,0,0,0,-1,937,575,-4.40822,2.69526
-280,449,0.723999,-14.2697,0,0,0,0,0,0,0,-1,944,575,0.723977,14.2696
-273,449,0,0,0,0,0,0,0,0,0,-1,951,575,0,0
-266,449,0,0,0,0,0,0,0,0,0,-1,958,575,0,0
-259,449,0,0,0,0,0,0,0,0,0,-1,965,575,0,0
-252,449,0,0,0,0,0,0,0,0,0,-1,972,575,0,0
-245,449,0,0,0,0,0,0,0,0,0,-1,979,575,0,0
-238,449,0,0,0,0,0,0,0,0,0,-1,986,575,0,0
-231,449,0,0,0,0,0,0,0,0,0,-1,993,575,0,0
-224,449,0,0,0,0,0,0,0,0,0,-1,1000,575,0,0
-217,449,0,0,0,0,0,0,0,0,0,-1,1007,575,0,0
-210,449,0,0,0,0,0,0,0,0,0,-1,1014,575,0,0
-203,449,0,0,0,0,0,0,0,0,0,-1,1021,575,0,0
-196,449,0,0,0,0,0,0,0,0,0,-1,1028,575,0,0
-189,449,0,0,0,0,0,0,0,0,0,-1,1035,575,0,0
-182,449,0,0,0,0,0,0,0,0,0,-1,1042,575,0,0
-175,449,0,0,0,0,0,0,0,0,0,-1,1049,575,0,0
-168,449,0,0,0,0,0,0,0,0,0,-1,1056,575,0,0
-161,449,0,0,0,0,0,0,0,0,0,-1,1063,575,0,0
-154,449,0,0,0,0,0,0,0,0,0,-1,1070,575,0,0
-147,449,0,0,0,0,0,0,0,0,0,-1,1077,575,0,0
-140,449,0,0,0,0,0,0,0,0,0,-1,1084,575,0,0
-133,449,0,0,0,0,0,0,0,0,0,-1,1091,575,0,0
-126,449,0,0,0,0,0,0,0,0,0,-1,1098,575,0,0
-119,449,0,0,0,0,0,0,0,0,0,-1,1105,575,0,0
-112,449,0,0,0,0,0,0,0,0,0,-1,1112,575,0,0
-105,449,0,0,0,0,0,0,0,0,0,-1,1119,575,0,0
-98,449,0,0,0,0,0,0,0,0,0,-1,1126,575,0,0
-91,449,0,0,0,0,0,0,0,0,0,-1,1133,575,0,0
-84,449,0,0,0,0,0,0,0,0,0,-1,1140,575,0,0
-77,449,0,0,0,0,0,0,0,0,0,-1,1147,575,0,0
-70,449,0,0,0,0,0,0,0,0,0,-1,1154,575,0,0
-63,449,0,0,0,0,0,0,0,0,0,-1,1161,575,0,0
-56,449,0,0,0,0,0,0,0,0,0,-1,1168,575,0,0
-49,449,0,0,0,0,0,0,0,0,0,-1,1175,575,0,0
-42,449,0,0,0,0,0,0,0,0,0,-1,1182,575,0,0
-35,449,0,0,0,0,0,0,0,0,0,-1,1189,575,0,0
-28,449,0,0,0,0,0,0,0,0,0,-1,1196,575,0,0
-21,449,0,0,0,0,0,0,0,0,0,-1,1203,575,0,0
-14,449,0,0,0,0,0,0,0,0,0,-1,1210,575,0,0
-7,449,0,0,0,0,0,0,0,0,0,-1,1217,575,0,0
0,449,0,0,0,0,0,0,0,0,0,-1,1224,575,0,0
7,449,0,0,0,0,0,0,0,0,0,-1,1231,575,0,0
14,449,0,0,0,0,0,0,0,0,0,-1,1238,575,0,0
21,449,0,0,0,0,0,0,0,0,0,-1,1245,575,0,0
28,449,0,0,0,0,0,0,0,0,0,-1,1252,575,0,0
35,449,0,0,0,0,0,0,0,0,0,-1,1259,575,0,0
42,449,0,0,0,0,0,0,0,0,0,-1,1266,575,0,0
49,449,0,0,0,0,0,0,0,0,0,-1,1273,575,0,0
56,449,0,0,0,0,0,0,0,0,0,-1,1280,575,0,0
63,449,0,0,0,0,0,0,0,0,0,-1,1287,575,0,0
70,449,0,0,0,0,0,0,0,0,0,-1,1294,575,0,0
77,449,0,0,0,0,0,0,0,0,0,-1,1301,575,0,0
84,449,0,0,0,0,0,0,0,0,0,-1,1308,575,0,0
91,449,0,0,0,0,0,0,0,0,0,-1,1315,575,0,0
98,449,0,0,0,0,0,0,0,0,0,-1,1322,575,0,0
105,449,0,0,0,0,0,0,0,0,0,-1,1329,575,0,0
112,449,0,0,0,0,0,0,0,0,0,-1,1336,575,0,0
119,449,0,0,0,0,0,0,0,0,0,-1,1343,575,0,0
126,449,0,0,0,0,0,0,0,0,0,-1,1350,575,0,0
133,449,0,0,0,0,0,0,0,0,0,-1,1357,575,0,0
140,449,0,0,0,0,0,0,0,0,0,-1,1364,575,0,0
147,449,0,0,0,0,0,0,0,0,0,-1,1371,575,0,0
154,449,0,0,0,0,0,0,0,0,0,-1,1378,575,0,0
161,449,0,0,0,0,0,0,0,0,0,-1,1385,575,0,0
168,449,0,0,0,0,0,0,0,0,0,-1,1392,575,0,0
175,449,0,0,0,0,0,0,0,0,0,-1,1399,575,0,0
182,449,0,0,0,0,0,0,0,0,0,-1,1406,575,0,0
189,449,0,0,0,0,0,0,0,0,0,-1,1413,575,0,0
196,449,0,0,0,0,0,0,0,0,0,-1,1420,575,0,0
203,449,0,0,0,0,0,0,0,0,0,-1,1427,575,0,0
210,449,0,0,0,0,0,0,0,0,0,-1,1434,575,0,0
217,449,0,0,0,0,0,0,0,0,0,-1,1441,575,0,0
224,449,0,0,0,0,0,0,0,0,0,-1,1448,575,0,0
231,449,0,0,0,0,0,0,0,0,0,-1,1455,575,0,0
238,449,0,0,0,0,0,0,0,0,0,-1,1462,575,0,0
245,449,0,0,0,0,0,0,0,0,0,-1,1469,575,0,0
252,449,0,0,0,0,0,0,0,0,0,-1,1476,575,0,0
259,449,0,0,0,0,0,0,0,0,0,-1,1483,575,0,0
266,449,0,0,0,0,0,0,0,0,0,-1,1490,575,0,0
273,449,0,0,0,0,0,0,0,0,0,-1,1497,575,0,0
280,449,0,0,0,0,0,0,0,0,0,-1,1504,575,0,0
287,449,0,0,0,0,0,0,0,0,0,-1,1511,575,0,0
294,449,0,0,0,0,0,0,0,0,0,-1,1518,575,0,0
301,449,0,0,0,0,0,0,0,0,0,-1,1525,575,0,0
308,449,0,0,0,0,0,0,0,0,0,-1,1532,575,0,0
315,449,0,0,0,0,0,0,0,0,0,-1,1539,575,0,0
322,449,0,0,0,0,0,0,0,0,0,-1,1546,575,0,0
329,449,0,0,0,0,0,0,0,0,0,-1,1553,575,0,0
336,449,0,0,0,0,0,0,0,0,0,-1,1560,575,0,0
343,449,0,0,0,0,0,0,0,0,0,-1,1567,575,0,0
350,449,0,0,0,0,0,0,0,0,0,-1,1574,575,0,0
357,449,0,0,0,0,0,0,0,0,0,-1,1581,575,0,0
364,449,0,0,0,0,0,0,0,0,0,-1,1588,575,0,0
371,449,0,0,0,0,0,0,0,0,0,-1,1595,575,0,0
378,449,0,0,0,0,0,0,0,0,0,-1,1602,575,0,0
385,449,0,0,0,0,0,0,0,0,0,-1,1609,575,0,0
392,449,7.95471,3.66217,0,0,0,0,0,0,0,-1,1616,575,7.95471,-3.66218
399,449,19.9791,5.565,0,0,0,0,0,0,0,-1,1623,575,19.9791,-5.56499
406,449,24.9847,4.55969,0,0,0,0,0,0,0,-1,1630,575,24.9848,-4.55968
413,449,30.4159,3.15027,0,0,0,0,0,0,0,-1,1637,575,30.4159,-3.15028
420,449,23.9675,1.29718,0,0,0,0,0,0,0,-1,1644,575,23.9675,-1.29721
427,449,24.4276,-0.596558,0,0,0,0,0,0,0,-1,1651,575,24.4277,0.596569
434,449,25.61,-2.96594,0,0,0,0,0,0,0,-1,1658,575,25.61,2.96595
441,449,3.89856,-6.06458,0,0,0,0,0,0,0,-1,1665,575,3.89855,6.06459
448,449,4.03198,-5.18207,0,0,0,0,0,0,0,-1,1672,575,4.03197,5.18207
455,449,4.21948,-4.09467,0,0,0,0,0,0,0,-1,1679,575,4.21952,4.09465
462,449,4.23181,-2.96924,0,0,0,0,0,0,0,-1,1686,575,4.23185,2.96926
469,449,4.51672,-2.95135,0,0,0,0,0,0,0,-1,1693,575,4.51672,2.95135
476,449,4.71838,-1.86688,0,0,0,0,0,0,0,-1,1700,575,4.71842,1.86689
483,449,4.87878,-1.73126,0,0,0,0,0,0,0,-1,1707,575,4.87875,1.73128
490,449,5.73279,-2.74573,0,0,0,0,0,0,0,-1,1714,575,5.73282,2.74575
497,449,17.2095,-16.4381,0,0,0,0,0,0,0,-1,1721,575,17.2094,16.4381
504,449,28.7539,-29.1646,0,0,0,0,0,0,0,-1,1728,575,28.7539,29.1646
511,449,28.7621,-28.168,0.00234237,0.000469695,0.000422664,0.00243335,0.000378719,0.212009,0.00151189,0.0176834,1735,575,28.7621,28.1681
518,449,28.7361,-27.1927,0.00193031,0.000286074,0.000581927,0.00211542,0.000100959,0.307984,0.00137786,0.0140572,1742,575,28.7361,27.1927
525,449,28.6545,-26.225,0.00150481,0.00036232,0.000669067,0.00181332,5.38078e-05,0.432052,0.00119135,0.0135819,1749,575,28.6546,26.225
532,449,28.5699,-25.2267,0.00118181,0.000562399,0.000781788,0.00171301,3.12081e-05,0.596805,0.00113174,0.0122075,1756,575,28.5699,25.2267
539,449,28.4507,-24.2139,0.0010013,0.00092853,0.000950495,0.00191611,1.37229e-05,0.766268,0.00127285,0.0193247,1763,575,28.4507,24.2139
546,449,28.3562,-23.1459,0.000943481,0.00146539,0.00114408,0.0023779,3.09721e-05,0.897526,0.00157505,0.0347157,1770,575,28.3562,23.146
553,449,28.3075,-22.2164,0.000956895,0.00218873,0.00141119,0.00311256,3.30671e-05,0.991163,0.0020641,0.0225801,1777,575,28.3075,22.2164
560,449,28.308,-21.2567,0.00112746,0.00306127,0.00180239,0.00413973,4.90039e-05,1.03159,0.00274363,0.0145109,1784,575,28.3079,21.2566
567,449,28.2463,-20.2501,0.00151199,0.00418528,0.00239385,0.00559038,0.000106897,1.04002,0.0036918,0.0106281,1791,575,28.2464,20.2501
574,449,28.2095,-19.2085,0.00189941,0.00541044,0.00304634,0.00717089,0.000138958,1.04679,0.00473495,0.0303094,1798,575,28.2095,19.2085
581,449,28.1847,-18.0579,0,0,0,0,0,0,0,-1,1805,575,28.1847,18.0579
588,449,12.3274,-4.5672,0,0,0,0,0,0,0,-1,1812,575,12.3274,4.5672
595,449,15.9352,-5.65479,0,0,0,0,0,0,0,-1,1819,575,15.9352,5.65478
602,449,9.46167,4.17444,0,0,0,0,0,0,0,-1,1826,575,9.46164,-4.17442
609,449,12.2028,3.18652,0,0,0,0,0,0,0,-1,1833,575,12.2027,-3.18655
616,449,14.9438,2.19867,0,0,0,0,0,0,0,-1,1840,575,14.9438,-2.19867
623,449,9.83789,-0.0820313,0,0,0,0,0,0,0,-1,1847,575,9.83794,0.0820443
630,449,8.90686,4.99329,0,0,0,0,0,0,0,-1,1854,575,8.90685,-4.99327
637,449,0,0,0,0,0,0,0,0,0,-1,1861,575,0,0
644,449,0,0,0,0,0,0,0,0,0,-1,1868,575,0,0
651,449,0,0,0,0,0,0,0,0,0,-1,1875,575,0,0
658,449,0,0,0,0,0,0,0,0,0,-1,1882,575,0,0
665,449,0,0,0,0,0,0,0,0,0,-1,1889,575,0,0
672,449,0,0,0,0,0,0,0,0,0,-1,1896,575,0,0
679,449,0,0,0,0,0,0,0,0,0,-1,1903,575,0,0
686,449,0,0,0,0,0,0,0,0,0,-1,1910,575,0,0
693,449,0,0,0,0,0,0,0,0,0,-1,1917,575,0,0
700,449,0,0,0,0,0,0,0,0,0,-1,1924,575,0,0
707,449,0,0,0,0,0,0,0,0,0,-1,1931,575,0,0
714,449,0,0,0,0,0,0,0,0,0,-1,1938,575,0,0
721,449,0,0,0,0,0,0,0,0,0,-1,1945,575,0,0
728,449,0,0,0,0,0,0,0,0,0,-1,1952,575,0,0
735,449,0,0,0,0,0,0,0,0,0,-1,1959,575,0,0
742,449,0,0,0,0,0,0,0,0,0,-1,1966,575,0,0
749,449,0,0,0,0,0,0,0,0,0,-1,1973,575,0,0
756,449,0,0,0,0,0,0,0,0,0,-1,1980,575,0,0
763,449,0,0,0,0,0,0,0,0,0,-1,1987,575,0,0
770,449,0,0,0,0,0,0,0,0,0,-1,1994,575,0,0
777,449,0,0,0,0,0,0,0,0,0,-1,2001,575,0,0
784,449,0,0,0,0,0,0,0,0,0,-1,2008,575,0,0
791,449,0,0,0,0,0,0,0,0,0,-1,2015,575,0,0
798,449,0,0,0,0,0,0,0,0,0,-1,2022,575,0,0
805,449,0,0,0,0,0,0,0,0,0,-1,2029,575,0,0
812,449,0,0,0,0,0,0,0,0,0,-1,2036,575,0,0
-700,442,0,0,0,0,0,0,0,0,0,-1,524,582,0,0
-693,442,0,0,0,0,0,0,0,0,0,-1,531,582,0,0
-686,442,0,0,0,0,0,0,0,0,0,-1,538,582,0,0
-679,442,0,0,0,0,0,0,0,0,0,-1,545,582,0,0
-672,442,0,0,0,0,0,0,0,0,0,-1,552,582,0,0
-665,442,0,0,0,0,0,0,0,0,0,-1,559,582,0,0
-658,442,0,0,0,0,0,0,0,0,0,-1,566,582,0,0
-651,442,0,0,0,0,0,0,0,0,0,-1,573,582,0,0
-644,442,0,0,0,0,0,0,0,0,0,-1,580,582,0,0
-637,442,0,0,0,0,0,0,0,0,0,-1,587,582,0,0
-630,442,0,0,0,0,0,0,0,0,0,-1,594,582,0,0
-623,442,0,0,0,0,0,0,0,0,0,-1,601,582,0,0
-616,442,0,0,0,0,0,0,0,0,0,-1,608,582,0,0
-609,442,0,0,0,0,0,0,0,0,0,-1,615,582,0,0
-602,442,0,0,0,0,0,0,0,0,0,-1,622,582,0,0
-595,442,0,0,0,0,0,0,0,0,0,-1,629,582,0,0
-588,442,0,0,0,0,0,0,0,0,0,-1,636,582,0,0
-581,442,0,0,0,0,0,0,0,0,0,-1,643,582,0,0
-574,442,0,0,0,0,0,0,0,0,0,-1,650,582,0,0
-567,442,0,0,0,0,0,0,0,0,0,-1,657,582,0,0
-560,442,0,0,0,0,0,0,0,0,0,-1,664,582,0,0
-553,442,0,0,0,0,0,0,0,0,0,-1,671,582,0,0
-546,442,0,0,0,0,0,0,0,0,0,-1,678,582,0,0
-539,442,0,0,0,0,0,0,0,0,0,-1,685,582,0,0
-532,442,0,0,0,0,0,0,0,0,0,-1,692,582,0,0
-525,442,0,0,0,0,0,0,0,0,0,-1,699,582,0,0
-518,442,-0.493774,-5.72943,0,0,0,0,0,0,0,-1,706,582,-0.493791,5.72946
-511,442,-1.33008,-6.18512,0,0,0,0,0,0,0,-1,713,582,-1.33006,6.18511
-504,442,-3.20807,-6.34082,0,0,0,0,0,0,0,-1,720,582,-3.2081,6.34083
-497,442,-13.6886,-0.250122,0,0,0,0,0,0,0,-1,727,582,-13.6886,0.250143
-490,442,-9.09039,-3.64862,0,0,0,0,0,0,0,-1,734,582,-9.09037,3.64861
-483,442,-7.36499,-1.01892,0,0,0,0,0,0,0,-1,741,582,-7.365,1.01895
-476,442,-4.84784,-4.44141,0,0,0,0,0,0,0,-1,748,582,-4.84787,4.44138
-469,442,-12.2953,-15.3968,0,0,0,0,0,0,0,-1,755,582,-12.2953,15.3968
-462,442,-11.9753,-16.9217,0,0,0,0,0,0,0,-1,762,582,-11.9753,16.9217
-455,442,-12.2084,-18.1462,0,0,0,0,0,0,0,-1,769,582,-12.2085,18.1462
-448,442,-12.2105,-19.3439,-0.0018793,0.00423406,0.000415031,0.00426211,-0.00190734,1.50332,0.0036474,0.0251881,776,582,-12.2105,19.3439
-441,442,-12.3056,-20.347,-0.00074732,0.00359616,-0.000174276,0.00360314,-0.000754301,-1.53076,0.00268903,0.0146574,783,582,-12.3056,20.347
-434,442,-12.3752,-21.3391,1.16828e-05,0.00305765,-0.000580186,0.00316442,-9.5087e-05,-1.38881,0.00214201,0.0144545,790,582,-12.3752,21.339
-427,442,-12.4341,-22.3102,0.000540899,0.0026539,-0.000861726,0.00296077,0.000234035,-1.22869,0.00190064,0.0132245,797,582,-12.4341,22.3102
-420,442,-12.4921,-23.309,0.000991595,0.0023276,-0.00110874,0.00295402,0.000365172,-1.05652,0.00185961,0.0134032,804,582,-12.4921,23.309
-413,442,-12.5425,-24.3191,0.00125925,0.00193905,-0.00115781,0.00280583,0.000392476,-0.928173,0.00175442,0.0120717,811,582,-12.5425,24.3191
-406,442,-12.6273,-25.3265,0.00142921,0.00153445,-0.00104393,0.00252708,0.000436578,-0.810581,0.0015597,0.0104512,818,582,-12.6273,25.3265
-399,442,-12.7295,-26.2897,0.00174388,0.00125797,-0.000994719,0.00252489,0.000476964,-0.665619,0.00154894,0.00879163,825,582,-12.7295,26.2897
-392,442,-12.7993,-27.2585,0.00215436,0.000984437,-0.000939698,0.00267629,0.000462505,-0.506999,0.00165175,0.0112467,832,582,-12.7993,27.2585
-385,442,-12.8533,-28.2393,0.0027797,0.000753713,-0.000920742,0.00313562,0.000397793,-0.368864,0.00197124,0.0138421,839,582,-12.8533,28.2393
-378,442,-12.8777,-29.2363,0.00362252,0.000548085,-0.000883587,0.00385836,0.000312236,-0.260841,0.00247474,0.0201831,846,582,-12.8778,29.2363
-371,442,-12.8198,-30.2612,0,0,0,0,0,0,0,-1,853,582,-12.8198,30.2612
-364,442,-6.89764,-17.5333,0,0,0,0,0,0,0,-1,860,582,-6.89765,17.5333
-357,442,-4.9115,-11.2649,0,0,0,0,0,0,0,-1,867,582,-4.91147,11.2649
-350,442,-1.75372,-6.27618,0,0,0,0,0,0,0,-1,874,582,-1.75371,6.27618
-343,442,-1.4599,-4.63605,0,0,0,0,0,0,0,-1,881,582,-1.4599,4.63607
-336,442,-1.4054,-2.64313,0,0,0,0,0,0,0,-1,888,582,-1.40539,2.64315
-329,442,-0.952576,-2.76923,0,0,0,0,0,0,0,-1,895,582,-0.952571,2.7692
-322,442,-0.972534,-2.63208,0,0,0,0,0,0,0,-1,902,582,-0.972512,2.6321
-315,442,-0.445557,-2.89764,0,0,0,0,0,0,0,-1,909,582,-0.445582,2.89765
-308,442,-0.654175,-3.07831,0,0,0,0,0,0,0,-1,916,582,-0.654145,3.07832
-301,442,-1.37427,-2.41455,0,0,0,0,0,0,0,-1,923,582,-1.37425,2.41453
-294,442,-2.99963,-2.07855,0,0,0,0,0,0,0,-1,930,582,-2.99964,2.07857
-287,442,3.91034,-10.1913,0,0,0,0,0,0,0,-1,937,582,3.91034,10.1913
-280,442,0,0,0,0,0,0,0,0,0,-1,944,582,0,0
-273,442,0,0,0,0,0,0,0,0,0,-1,951,582,0,0
-266,442,0,0,0,0,0,0,0,0,0,-1,958,582,0,0
-259,442,0,0,0,0,0,0,0,0,0,-1,965,582,0,0
-252,442,0,0,0,0,0,0,0,0,0,-1,972,582,0,0
-245,442,0,0,0,0,0,0,0,0,0,-1,979,582,0,0
-238,442,0,0,0,0,0,0,0,0,0,-1,986,582,0,0
-231,442,0,0,0,0,0,0,0,0,0,-1,993,582,0,0
-224,442,0,0,0,0,0,0,0,0,0,-1,1000,582,0,0
-217,442,0,0,0,0,0,0,0,0,0,-1,1007,582,0,0
-210,442,0,0,0,0,0,0,0,0,0,-1,1014,582,0,0
-203,442,0,0,0,0,0,0,0,0,0,-1,1021,582,0,0
-196,442,0,0,0,0,0,0,0,0,0,-1,1028,582,0,0
-189,442,0,0,0,0,0,0,0,0,0,-1,1035,582,0,0
-182,442,0,0,0,0,0,0,0,0,0,-1,1042,582,0,0
-175,442,0,0,0,0,0,0,0,0,0,-1,1049,582,0,0
-168,442,0,0,0,0,0,0,0,0,0,-1,1056,582,0,0
-161,442,0,0,0,0,0,0,0,0,0,-1,1063,582,0,0
-154,442,0,0,0,0,0,0,0,0,0,-1,1070,582,0,0
-147,442,0,0,0,0,0,0,0,0,0,-1,1077,582,0,0
-140,442,0,0,0,0,0,0,0,0,0,-1,1084,582,0,0
-133,442,0,0,0,0,0,0,0,0,0,-1,1091,582,0,0
-126,442,0,0,0,0,0,0,0,0,0,-1,1098,582,0,0
-119,442,0,0,0,0,0,0,0,0,0,-1,1105,582,0,0
-112,442,0,0,0,0,0,0,0,0,0,-1,1112,582,0,0
-105,442,0,0,0,0,0,0,0,0,0,-1,1119,582,0,0
-98,442,0,0,0,0,0,0,0,0,0,-1,1126,582,0,0
-91,442,0,0,0,0,0,0,0,0,0,-1,1133,582,0,0
-84,442,0,0,0,0,0,0,0,0,0,-1,1140,582,0,0
-77,442,0,0,0,0,0,0,0,0,0,-1,1147,582,0,0
-70,442,0,0,0,0,0,0,0,0,0,-1,1154,582,0,0
-63,442,0,0,0,0,0,0,0,0,0,-1,1161,582,0,0
-56,442,0,0,0,0,0,0,0,0,0,-1,1168,582,0,0
-49,442,0,0,0,0,0,0,0,0,0,-1,1175,582,0,0
-42,442,0,0,0,0,0,0,0,0,0,-1,1182,582,0,0
-35,442,0,0,0,0,0,0,0,0,0,-1,1189,582,0,0
-28,442,0,0,0,0,0,0,0,0,0,-1,1196,582,0,0
-21,442,0,0,0,0,0,0,0,0,0,-1,1203,582,0,0
-14,442,0,0,0,0,0,0,0,0,0,-1,1210,582,0,0
-7,442,0,0,0,0,0,0,0,0,0,-1,1217,582,0,0
0,442,0,0,0,0,0,0,0,0,0,-1,1224,582,0,0
7,442,0,0,0,0,0,0,0,0,0,-1,1231,582,0,0
14,442,0,0,0,0,0,0,0,0,0,-1,1238,582,0,0
21,442,0,0,0,0,0,0,0,0,0,-1,1245,582,0,0
28,442,0,0,0,0,0,0,0,0,0,-1,1252,582,0,0
35,442,0,0,0,0,0,0,0,0,0,-1,1259,582,0,0
42,442,0,0,0,0,0,0,0,0,0,-1,1266,582,0,0
49,442,0,0,0,0,0,0,0,0,0,-1,1273,582,0,0
56,442,0,0,0,0,0,0,0,0,0,-1,1280,582,0,0
63,442,0,0,0,0,0,0,0,0,0,-1,1287,582,0,0
70,442,0,0,0,0,0,0,0,0,0,-1,1294,582,0,0
77,442,0,0,0,0,0,0,0,0,0,-1,1301,582,0,0
84,442,0,0,0,0,0,0,0,0,0,-1,1308,582,0,0
91,442,0,0,0,0,0,0,0,0,0,-1,1315,582,0,0
98,442,0,0,0,0,0,0,0,0,0,-1,1322,582,0,0
105,442,0,0,0,0,0,0,0,0,0,-1,1329,582,0,0
112,442,0,0,0,0,0,0,0,0,0,-1,1336,582,0,0
119,442,0,0,0,0,0,0,0,0,0,-1,1343,582,0,0
126,442,0,0,0,0,0,0,0,0,0,-1,1350,582,0,0
133,442,0,0,0,0,0,0,0,0,0,-1,1357,582,0,0
140,442,0,0,0,0,0,0,0,0,0,-1,1364,582,0,0
147,442,0,0,0,0,0,0,0,0,0,-1,1371,582,0,0
154,442,0,0,0,0,0,0,0,0,0,-1,1378,582,0,0
161,442,0,0,0,0,0,0,0,0,0,-1,1385,582,0,0
168,442,0,0,0,0,0,0,0,0,0,-1,1392,582,0,0
175,442,0,0,0,0,0,0,0,0,0,-1,1399,582,0,0
182,442,0,0,0,0,0,0,0,0,0,-1,1406,582,0,0
189,442,0,0,0,0,0,0,0,0,0,-1,1413,582,0,0
196,442,0,0,0,0,0,0,0,0,0,-1,1420,582,0,0
203,442,0,0,0,0,0,0,0,0,0,-1,1427,582,0,0
210,442,0,0,0,0,0,0,0,0,0,-1,1434,582,0,0
217,442,0,0,0,0,0,0,0,0,0,-1,1441,582,0,0
224,442,0,0,0,0,0,0,0,0,0,-1,1448,582,0,0
231,442,0,0,0,0,0,0,0,0,0,-1,1455,582,0,0
238,442,0,0,0,0,0,0,0,0,0,-1,1462,582,0,0
245,442,0,0,0,0,0,0,0,0,0,-1,1469,582,0,0
252,442,0,0,0,0,0,0,0,0,0,-1,1476,582,0,0
259,442,0,0,0,0,0,0,0,0,0,-1,1483,582,0,0
266,442,0,0,0,0,0,0,0,0,0,-1,1490,582,0,0
273,442,0,0,0,0,0,0,0,0,0,-1,1497,582,0,0
280,442,0,0,0,0,0,0,0,0,0,-1,1504,582,0,0
287,442,0,0,0,0,0,0,0,0,0,-1,1511,582,0,0
294,442,0,0,0,0,0,0,0,0,0,-1,1518,582,0,0
301,442,0,0,0,0,0,0,0,0,0,-1,1525,582,0,0
308,442,0,0,0,0,0,0,0,0,0,-1,1532,582,0,0
315,442,0,0,0,0,0,0,0,0,0,-1,1539,582,0,0
322,442,0,0,0,0,0,0,0,0,0,-1,1546,582,0,0
329,442,0,0,0,0,0,0,0,0,0,-1,1553,582,0,0
336,442,0,0,0,0,0,0,0,0,0,-1,1560,582,0,0
343,442,0,0,0,0,0,0,0,0,0,-1,1567,582,0,0
350,442,0,0,0,0,0,0,0,0,0,-1,1574,582,0,0
357,442,0,0,0,0,0,0,0,0,0,-1,1581,582,0,0
364,442,0,0,0,0,0,0,0,0,0,-1,1588,582,0,0
371,442,0,0,0,0,0,0,0,0,0,-1,1595,582,0,0
378,442,0,0,0,0,0,0,0,0,0,-1,1602,582,0,0
385,442,0,0,0,0,0,0,0,0,0,-1,1609,582,0,0
392,442,0,0,0,0,0,0,0,0,0,-1,1616,582,0,0
399,442,0,0,0,0,0,0,0,0,0,-1,1623,582,0,0
406,442,17.6321,4.08295,0,0,0,0,0,0,0,-1,1630,582,17.6321,-4.08293
413,442,25.4768,2.74445,0,0,0,0,0,0,0,-1,1637,582,25.4768,-2.74444
420,442,22.7478,1.55011,0,0,0,0,0,0,0,-1,1644,582,22.7478,-1.55009
427,442,23.2969,-0.456787,0,0,0,0,0,0,0,-1,1651,582,23.2968,0.456769
434,442,23.9512,-2.49365,0,0,0,0,0,0,0,-1,1658,582,23.9512,2.49366
441,442,24.8251,-4.43958,0,0,0,0,0,0,0,-1,1665,582,24.8251,4.43956
448,442,4.7749,-5.88562,0,0,0,0,0,0,0,-1,1672,582,4.7749,5.8856
455,442,4.87024,-4.60687,0,0,0,0,0,0,0,-1,1679,582,4.87019,4.60686
462,442,5.02307,-3.72821,0,0,0,0,0,0,0,-1,1686,582,5.02311,3.7282
469,442,5.12976,-2.98834,0,0,0,0,0,0,0,-1,1693,582,5.12971,2.98834
476,442,5.4624,1.76947,0,0,0,0,0,0,0,-1,1700,582,5.46234,-1.76944
483,442,5.98486,1.87042,0,0,0,0,0,0,0,-1,1707,582,5.98492,-1.87045
490,442,5.04407,-2.35834,0,0,0,0,0,0,0,-1,1714,582,5.04411,2.35837
497,442,6.20984,-3.07831,0,0,0,0,0,0,0,-1,1721,582,6.2098,3.07833
504,442,20.9276,-19.7709,0,0,0,0,0,0,0,-1,1728,582,20.9276,19.771
511,442,29.702,-28.1117,0,0,0,0,0,0,0,-1,1735,582,29.702,28.1117
518,442,29.6936,-27.0891,0.00260754,0.000178373,0.000673665,0.00278186,4.05812e-06,0.253202,0.00185322,0.0180867,1742,582,29.6936,27.089
525,442,29.6063,-26.1293,0.00200418,0.000197105,0.000663013,0.00222134,-2.00571e-05,0.316526,0.00148762,0.0109595,1749,582,29.6063,26.1293
532,442,29.5496,-25.1483,0.00154932,0.000327903,0.000681649,0.00185382,2.34012e-05,0.420117,0.00122816,0.0123124,1756,582,29.5496,25.1483
539,442,29.4929,-24.1373,0.00129329,0.00063872,0.00079143,0.00182244,0.000109572,0.589338,0.00118013,0.0165286,1763,582,29.493,24.1373
546,442,29.4653,-23.1151,0.0011718,0.00108471,0.000924242,0.00205352,0.000202989,0.76186,0.00130662,0.0226249,1770,582,29.4653,23.1151
553,442,29.3381,-22.1492,0.00111329,0.00171475,0.00112897,0.00258236,0.000245683,0.915563,0.0016458,0.022408,1777,582,29.3382,22.1492
560,442,29.2893,-21.1899,0.00118032,0.00246931,0.00144439,0.00340647,0.000243158,0.995247,0.00219442,0.0156855,1784,582,29.2893,21.1899
567,442,29.2211,-20.1941,0.00146045,0.00345038,0.00195271,0.00464699,0.000263833,1.02102,0.0030139,0.0105123,1791,582,29.221,20.1941
574,442,29.1726,-19.1885,0.00179893,0.00454146,0.00253773,0.00605471,0.000285683,1.0331,0.0039447,0.0130524,1798,582,29.1726,19.1885
581,442,29.1876,-18.0743,0.00224232,0.00584015,0.00327408,0.00777697,0.000305503,1.03661,0.00508587,0.0339447,1805,582,29.1876,18.0743
588,442,29.2555,-16.9122,0,0,0,0,0,0,0,-1,1812,582,29.2555,16.9122
595,442,16.27,-6.47083,0,0,0,0,0,0,0,-1,1819,582,16.27,6.47082
602,442,16.2213,-4.49225,0,0,0,0,0,0,0,-1,1826,582,16.2213,4.49223
609,442,12.761,2.97223,0,0,0,0,0,0,0,-1,1833,582,12.761,-2.97221
616,442,9.78345,-0.103394,0,0,0,0,0,0,0,-1,1840,582,9.78341,0.103424
623,442,9.23828,0.326721,0,0,0,0,0,0,0,-1,1847,582,9.23829,-0.326727
630,442,7.74304,2.3924,0,0,0,0,0,0,0,-1,1854,582,7.7431,-2.39238
637,442,5.87805,1.84027,0,0,0,0,0,0,0,-1,1861,582,5.87807,-1.84025
644,442,0,0,0,0,0,0,0,0,0,-1,1868,582,0,0
651,442,0,0,0,0,0,0,0,0,0,-1,1875,582,0,0
658,442,0,0,0,0,0,0,0,0,0,-1,1882,582,0,0
665,442,0,0,0,0,0,0,0,0,0,-1,1889,582,0,0
672,442,0,0,0,0,0,0,0,0,0,-1,1896,582,0,0
679,442,0,0,0,0,0,0,0,0,0,-1,1903,582,0,0
686,442,0,0,0,0,0,0,0,0,0,-1,1910,582,0,0
693,442,0,0,0,0,0,0,0,0,0,-1,1917,582,0,0
700,442,0,0,0,0,0,0,0,0,0,-1,1924,582,0,0
707,442,0,0,0,0,0,0,0,0,0,-1,1931,582,0,0
714,442,0,0,0,0,0,0,0,0,0,-1,1938,582,0,0
721,442,0,0,0,0,0,0,0,0,0,-1,1945,582,0,0
728,442,0,0,0,0,0,0,0,0,0,-1,1952,582,0,0
735,442,0,0,0,0,0,0,0,0,0,-1,1959,582,0,0
742,442,0,0,0,0,0,0,0,0,0,-1,1966,582,0,0
749,442,0,0,0,0,0,0,0,0,0,-1,1973,582,0,0
756,442,0,0,0,0,0,0,0,0,0,-1,1980,582,0,0
763,442,0,0,0,0,0,0,0,0,0,-1,1987,582,0,0
770,442,0,0,0,0,0,0,0,0,0,-1,1994,582,0,0
777,442,0,0,0,0,0,0,0,0,0,-1,2001,582,0,0
784,442,0,0,0,0,0,0,0,0,0,-1,2008,582,0,0
791,442,0,0,0,0,0,0,0,0,0,-1,2015,582,0,0
798,442,0,0,0,0,0,0,0,0,0,-1,2022,582,0,0
805,442,0,0,0,0,0,0,0,0,0,-1,2029,582,0,0
812,442,0,0,0,0,0,0,0,0,0,-1,2036,582,0,0
-700,435,0,0,0,0,0,0,0,0,0,-1,524,589,0,0
-693,435,0,0,0,0,0,0,0,0,0,-1,531,589,0,0
-686,435,0,0,0,0,0,0,0,0,0,-1,538,589,0,0
-679,435,0,0,0,0,0,0,0,0,0,-1,545,589,0,0
-672,435,0,0,0,0,0,0,0,0,0,-1,552,589,0,0
-665,435,0,0,0,0,0,0,0,0,0,-1,559,589,0,0
-658,435,0,0,0,0,0,0,0,0,0,-1,566,589,0,0
-651,435,0,0,0,0,0,0,0,0,0,-1,573,589,0,0
-644,435,0,0,0,0,0,0,0,0,0,-1,580,589,0,0
-637,435,0,0,0,0,0,0,0,0,0,-1,587,589,0,0
-630,435,0,0,0,0,0,0,0,0,0,-1,594,589,0,0
-623,435,0,0,0,0,0,0,0,0,0,-1,601,589,0,0
-616,435,0,0,0,0,0,0,0,0,0,-1,608,589,0,0
-609,435,0,0,0,0,0,0,0,0,0,-1,615,589,0,0
-602,435,0,0,0,0,0,0,0,0,0,-1,622,589,0,0
-595,435,0,0,0,0,0,0,0,0,0,-1,629,589,0,0
-588,435,0,0,0,0,0,0,0,0,0,-1,636,589,0,0
-581,435,0,0,0,0,0,0,0,0,0,-1,643,589,0,0
-574,435,0,0,0,0,0,0,0,0,0,-1,650,589,0,0
-567,435,0,0,0,0,0,0,0,0,0,-1,657,589,0,0
-560,435,0,0,0,0,0,0,0,0,0,-1,664,589,0,0
-553,435,0,0,0,0,0,0,0,0,0,-1,671,589,0,0
-546,435,0,0,0,0,0,0,0,0,0,-1,678,589,0,0
-539,435,0,0,0,0,0,0,0,0,0,-1,685,589,0,0
-532,435,0,0,0,0,0,0,0,0,0,-1,692,589,0,0
-525,435,-10.0776,10.0547,0,0,0,0,0,0,0,-1,699,589,-10.0776,-10.0547
-518,435,-1.83093,-5.82367,0,0,0,0,0,0,0,-1,706,589,-1.83093,5.8237
-511,435,-2.45154,-5.33118,0,0,0,0,0,0,0,-1,713,589,-2.45151,5.33115
-504,435,-3.07208,-4.83862,0,0,0,0,0,0,0,-1,720,589,-3.0721,4.8386
-497,435,-6.31012,-5.84698,0,0,0,0,0,0,0,-1,727,589,-6.31012,5.84697
-490,435,-5.81903,-0.458679,0,0,0,0,0,0,0,-1,734,589,-5.81902,0.458684
-483,435,-6.96503,-3.01624,0,0,0,0,0,0,0,-1,741,589,-6.96505,3.01623
-476,435,-13.3896,-14.494,0,0,0,0,0,0,0,-1,748,589,-13.3896,14.494
-469,435,-13.0524,-15.767,0,0,0,0,0,0,0,-1,755,589,-13.0524,15.767
-462,435,-13.1516,-16.8713,0,0,0,0,0,0,0,-1,762,589,-13.1516,16.8713
-455,435,-13.1856,-18.1403,-0.00313677,0.00357792,0.00124662,0.0038019,-0.00336074,1.39303,0.00413797,0.0318437,769,589,-13.1856,18.1403
-448,435,-13.2127,-19.2609,-0.00167178,0.00306599,0.000472649,0.00311269,-0.00171848,1.47233,0.00282772,0.0141191,776,589,-13.2127,19.2609
-441,435,-13.2783,-20.2695,-0.000571659,0.00260284,-9.25508e-05,0.00260553,-0.000574355,-1.54167,0.00195678,0.0110576,783,589,-13.2783,20.2696
-434,435,-13.3599,-21.259,0.000195397,0.00222005,-0.000492178,0.00233336,8.20933e-05,-1.34453,0.00152894,0.0123122,790,589,-13.3599,21.259
-427,435,-13.438,-22.2775,0.000777844,0.00199212,-0.000816496,0.00240247,0.000367493,-1.10509,0.00149429,0.010279,797,589,-13.438,22.2774
-420,435,-13.4818,-23.2598,0.00127744,0.00184641,-0.00111573,0.00271335,0.000410502,-0.910228,0.00168878,0.0107322,804,589,-13.4818,23.2598
-413,435,-13.539,-24.2527,0.00157771,0.00166348,-0.00122981,0.00285114,0.000390039,-0.802827,0.00178501,0.0117545,811,589,-13.539,24.2528
-406,435,-13.6095,-25.2574,0.00179934,0.00151448,-0.00123422,0.00289932,0.0004145,-0.727952,0.0018106,0.0117684,818,589,-13.6095,25.2574
-399,435,-13.7011,-26.2355,0.00219248,0.00147376,-0.00133523,0.00321586,0.000450384,-0.653944,0.00201066,0.00994484,825,589,-13.7011,26.2355
-392,435,-13.7964,-27.2129,0.00268348,0.00141977,-0.00141944,0.00360535,0.000497902,-0.575993,0.00225599,0.0117955,832,589,-13.7964,27.2129
-385,435,-13.8358,-28.2119,0.003407,0.00141429,-0.00155633,0.00425859,0.000562703,-0.500673,0.00267132,0.025383,839,589,-13.8358,28.2118
-378,435,-13.7905,-29.2084,0,0,0,0,0,0,0,-1,846,589,-13.7905,29.2084
-371,435,-10.247,-21.7153,0,0,0,0,0,0,0,-1,853,589,-10.247,21.7153
-364,435,-5.62848,-11.5937,0,0,0,0,0,0,0,-1,860,589,-5.62847,11.5937
-357,435,-5.57343,-10.9666,0,0,0,0,0,0,0,-1,867,589,-5.57342,10.9666
-350,435,-0.86676,-3.69836,0,0,0,0,0,0,0,-1,874,589,-0.866784,3.69834
-343,435,-1.60706,-2.36835,0,0,0,0,0,0,0,-1,881,589,-1.60706,2.36838
-336,435,-2.07263,-1.94012,0,0,0,0,0,0,0,-1,888,589,-2.07265,1.94014
-329,435,-2.55963,-1.5517,0,0,0,0,0,0,0,-1,895,589,-2.5596,1.55168
-322,435,-3.08545,-1.55255,0,0,0,0,0,0,0,-1,902,589,-3.08544,1.55254
-315,435,-0.404297,-2.63763,0,0,0,0,0,0,0,-1,909,589,-0.404276,2.63761
-308,435,-1.70056,-1.90369,0,0,0,0,0,0,0,-1,916,589,-1.70056,1.90367
-301,435,-1.19391,-2.41632,0,0,0,0,0,0,0,-1,923,589,-1.1939,2.41635
-294,435,3.78278,-10.3275,0,0,0,0,0,0,0,-1,930,589,3.78281,10.3275
-287,435,0,0,0,0,0,0,0,0,0,-1,937,589,0,0
-280,435,0,0,0,0,0,0,0,0,0,-1,944,589,0,0
-273,435,0,0,0,0,0,0,0,0,0,-1,951,589,0,0
-266,435,0,0,0,0,0,0,0,0,0,-1,958,589,0,0
-259,435,0,0,0,0,0,0,0,0,0,-1,965,589,0,0
-252,435,0,0,0,0,0,0,0,0,0,-1,972,589,0,0
-245,435,0,0,0,0,0,0,0,0,0,-1,979,589,0,0
-238,435,0,0,0,0,0,0,0,0,0,-1,986,589,0,0
-231,435,0,0,0,0,0,0,0,0,0,-1,993,589,0,0
-224,435,0,0,0,0,0,0,0,0,0,-1,1000,589,0,0
-217,435,0,0,0,0,0,0,0,0,0,-1,1007,589,0,0
-210,435,0,0,0,0,0,0,0,0,0,-1,1014,589,0,0
-203,435,0,0,0,0,0,0,0,0,0,-1,1021,589,0,0
-196,435,0,0,0,0,0,0,0,0,0,-1,1028,589,0,0
-189,435,0,0,0,0,0,0,0,0,0,-1,1035,589,0,0
-182,435,0,0,0,0,0,0,0,0,0,-1,1042,589,0,0
-175,435,0,0,0,0,0,0,0,0,0,-1,1049,589,0,0
-168,435,0,0,0,0,0,0,0,0,0,-1,1056,589,0,0
-161,435,0,0,0,0,0,0,0,0,0,-1,1063,589,0,0
-154,435,0,0,0,0,0,0,0,0,0,-1,1070,589,0,0
-147,435,0,0,0,0,0,0,0,0,0,-1,1077,589,0,0
-140,435,0,0,0,0,0,0,0,0,0,-1,1084,589,0,0
-133,435,0,0,0,0,0,0,0,0,0,-1,1091,589,0,0
-126,435,0,0,0,0,0,0,0,0,0,-1,1098,589,0,0
-119,435,0,0,0,0,0,0,0,0,0,-1,1105,589,0,0
-112,435,0,0,0,0,0,0,0,0,0,-1,1112,589,0,0
-105,435,0,0,0,0,0,0,0,0,0,-1,1119,589,0,0
-98,435,0,0,0,0,0,0,0,0,0,-1,1126,589,0,0
-91,435,0,0,0,0,0,0,0,0,0,-1,1133,589,0,0
-84,435,0,0,0,0,0,0,0,0,0,-1,1140,589,0,0
-77,435,0,0,0,0,0,0,0,0,0,-1,1147,589,0,0
-70,435,0,0,0,0,0,0,0,0,0,-1,1154,589,0,0
-63,435,0,0,0,0,0,0,0,0,0,-1,1161,589,0,0
-56,435,0,0,0,0,0,0,0,0,0,-1,1168,589,0,0
-49,435,0,0,0,0,0,0,0,0,0,-1,1175,589,0,0
-42,435,0,0,0,0,0,0,0,0,0,-1,1182,589,0,0
-35,435,0,0,0,0,0,0,0,0,0,-1,1189,589,0,0
-28,435,0,0,0,0,0,0,0,0,0,-1,1196,589,0,0
-21,435,0,0,0,0,0,0,0,0,0,-1,1203,589,0,0
-14,435,0,0,0,0,0,0,0,0,0,-1,1210,589,0,0
-7,435,0,0,0,0,0,0,0,0,0,-1,1217,589,0,0
0,435,0,0,0,0,0,0,0,0,0,-1,1224,589,0,0
7,435,0,0,0,0,0,0,0,0,0,-1,1231,589,0,0
14,435,0,0,0,0,0,0,0,0,0,-1,1238,589,0,0
21,435,0,0,0,0,0,0,0,0,0,-1,1245,589,0,0
28,435,0,0,0,0,0,0,0,0,0,-1,1252,589,0,0
35,435,0,0,0,0,0,0,0,0,0,-1,1259,589,0,0
42,435,0,0,0,0,0,0,0,0,0,-1,1266,589,0,0
49,435,0,0,0,0,0,0,0,0,0,-1,1273,589,0,0
56,435,0,0,0,0,0,0,0,0,0,-1,1280,589,0,0
63,435,0,0,0,0,0,0,0,0,0,-1,1287,589,0,0
70,435,0,0,0,0,0,0,0,0,0,-1,1294,589,0,0
77,435,0,0,0,0,0,0,0,0,0,-1,1301,589,0,0
84,435,0,0,0,0,0,0,0,0,0,-1,1308,589,0,0
91,435,0,0,0,0,0,0,0,0,0,-1,1315,589,0,0
98,435,0,0,0,0,0,0,0,0,0,-1,1322,589,0,0
105,435,0,0,0,0,0,0,0,0,0,-1,1329,589,0,0
112,435,0,0,0,0,0,0,0,0,0,-1,1336,589,0,0
119,435,0,0,0,0,0,0,0,0,0,-1,1343,589,0,0
126,435,0,0,0,0,0,0,0,0,0,-1,1350,589,0,0
133,435,0,0,0,0,0,0,0,0,0,-1,1357,589,0,0
140,435,0,0,0,0,0,0,0,0,0,-1,1364,589,0,0
147,435,0,0,0,0,0,0,0,0,0,-1,1371,589,0,0
154,435,0,0,0,0,0,0,0,0,0,-1,1378,589,0,0
161,435,0,0,0,0,0,0,0,0,0,-1,1385,589,0,0
168,435,0,0,0,0,0,0,0,0,0,-1,1392,589,0,0
175,435,0,0,0,0,0,0,0,0,0,-1,1399,589,0,0
182,435,0,0,0,0,0,0,0,0,0,-1,1406,589,0,0
189,435,0,0,0,0,0,0,0,0,0,-1,1413,589,0,0
196,435,0,0,0,0,0,0,0,0,0,-1,1420,589,0,0
203,435,0,0,0,0,0,0,0,0,0,-1,1427,589,0,0
210,435,0,0,0,0,0,0,0,0,0,-1,1434,589,0,0
217,435,0,0,0,0,0,0,0,0,0,-1,1441,589,0,0
224,435,0,0,0,0,0,0,0,0,0,-1,1448,589,0,0
231,435,0,0,0,0,0,0,0,0,0,-1,1455,589,0,0
238,435,0,0,0,0,0,0,0,0,0,-1,1462,589,0,0
245,435,0,0,0,0,0,0,0,0,0,-1,1469,589,0,0
252,435,0,0,0,0,0,0,0,0,0,-1,1476,589,0,0
259,435,0,0,0,0,0,0,0,0,0,-1,1483,589,0,0
266,435,0,0,0,0,0,0,0,0,0,-1,1490,589,0,0
273,435,0,0,0,0,0,0,0,0,0,-1,1497,589,0,0
280,435,0,0,0,0,0,0,0,0,0,-1,1504,589,0,0
287,435,0,0,0,0,0,0,0,0,0,-1,1511,589,0,0
294,435,0,0,0,0,0,0,0,0,0,-1,1518,589,0,0
301,435,0,0,0,0,0,0,0,0,0,-1,1525,589,0,0
308,435,0,0,0,0,0,0,0,0,0,-1,1532,589,0,0
315,435,0,0,0,0,0,0,0,0,0,-1,1539,589,0,0
322,435,0,0,0,0,0,0,0,0,0,-1,1546,589,0,0
329,435,0,0,0,0,0,0,0,0,0,-1,1553,589,0,0
336,435,0,0,0,0,0,0,0,0,0,-1,1560,589,0,0
343,435,0,0,0,0,0,0,0,0,0,-1,1567,589,0,0
350,435,0,0,0,0,0,0,0,0,0,-1,1574,589,0,0
357,435,0,0,0,0,0,0,0,0,0,-1,1581,589,0,0
364,435,0,0,0,0,0,0,0,0,0,-1,1588,589,0,0
371,435,0,0,0,0,0,0,0,0,0,-1,1595,589,0,0
378,435,0,0,0,0,0,0,0,0,0,-1,1602,589,0,0
385,435,0,0,0,0,0,0,0,0,0,-1,1609,589,0,0
392,435,0,0,0,0,0,0,0,0,0,-1,1616,589,0,0
399,435,0,0,0,0,0,0,0,0,0,-1,1623,589,0,0
406,435,0,0,0,0,0,0,0,0,0,-1,1630,589,0,0
413,435,20.4565,3.49835,0,0,0,0,0,0,0,-1,1637,589,20.4565,-3.49836
420,435,21.4015,1.49609,0,0,0,0,0,0,0,-1,1644,589,21.4015,-1.49609
427,435,22.0464,-0.373962,0,0,0,0,0,0,0,-1,1651,589,22.0464,0.373972
434,435,22.1863,-1.54407,0,0,0,0,0,0,0,-1,1658,589,22.1862,1.54405
441,435,22.3992,-2.38287,0,0,0,0,0,0,0,-1,1665,589,22.3992,2.38289
448,435,7.4585,-0.00292969,0,0,0,0,0,0,0,-1,1672,589,7.45848,0.00294131
455,435,5.49915,-5.047,0,0,0,0,0,0,0,-1,1679,589,5.49914,5.04703
462,435,5.60669,-4.71466,0,0,0,0,0,0,0,-1,1686,589,5.60675,4.71469
469,435,5.87708,1.22351,0,0,0,0,0,0,0,-1,1693,589,5.87703,-1.22351
476,435,6.14136,1.37714,0,0,0,0,0,0,0,-1,1700,589,6.14138,-1.37712
483,435,6.49243,1.36169,0,0,0,0,0,0,0,-1,1707,589,6.49242,-1.36171
490,435,4.38391,-1.36218,0,0,0,0,0,0,0,-1,1714,589,4.38389,1.3622
497,435,7.23499,-3.64551,0,0,0,0,0,0,0,-1,1721,589,7.23495,3.64551
504,435,7.31189,-3.75909,0,0,0,0,0,0,0,-1,1728,589,7.31184,3.75911
511,435,28.9622,-27.0995,0,0,0,0,0,0,0,-1,1735,589,28.9621,27.0995
518,435,30.6594,-27.0753,0,0,0,0,0,0,0,-1,1742,589,30.6594,27.0753
525,435,30.5773,-26.0661,0.00253053,4.53581e-05,0.00071682,0.00272246,-0.000146577,0.261622,0.00186575,0.0155927,1749,589,30.5772,26.0661
532,435,30.5603,-25.068,0.0019578,0.000105539,0.000623842,0.00214831,-8.49761e-05,0.296394,0.00146136,0.0165531,1756,589,30.5603,25.068
539,435,30.5122,-24.045,0.00163321,0.000375265,0.000670866,0.00192384,8.46356e-05,0.408808,0.0012553,0.0169537,1763,589,30.5122,24.0451
546,435,30.4357,-23.074,0.00143806,0.000743871,0.000743811,0.00191178,0.000270156,0.567094,0.00119469,0.0173559,1770,589,30.4356,23.074
553,435,30.3468,-22.1223,0.00130905,0.00129557,0.000890831,0.00219317,0.000411457,0.781615,0.00134609,0.0125799,1777,589,30.3469,22.1223
560,435,30.2592,-21.1527,0.00128307,0.00194691,0.00114136,0.00280363,0.000426348,0.926902,0.00174443,0.00999002,1784,589,30.2591,21.1527
567,435,30.2236,-20.1179,0.00145815,0.00280483,0.00158101,0.00384991,0.000413067,0.986712,0.0024406,0.00912892,1791,589,30.2236,20.1179
574,435,30.1572,-19.0993,0.00174136,0.00377163,0.00210444,0.00509297,0.000420012,1.01012,0.00326433,0.0107071,1798,589,30.1572,19.0993
581,435,30.0598,-18.1179,0.0021768,0.00489003,0.00278436,0.00663068,0.000436142,1.01209,0.00428248,0.0180836,1805,589,30.0598,18.1179
588,435,29.9574,-17.1061,0,0,0,0,0,0,0,-1,1812,589,29.9574,17.1061
595,435,29.8094,-15.7678,0,0,0,0,0,0,0,-1,1819,589,29.8094,15.7678
602,435,16.8671,-6.39026,0,0,0,0,0,0,0,-1,1826,589,16.867,6.39024
609,435,15.2611,-3.42242,0,0,0,0,0,0,0,-1,1833,589,15.2611,3.42242
616,435,5.05151,-2.75269,0,0,0,0,0,0,0,-1,1840,589,5.05157,2.7527
623,435,11.7588,3.9704,0,0,0,0,0,0,0,-1,1847,589,11.7587,-3.97043
630,435,4.72742,-0.87561,0,0,0,0,0,0,0,-1,1854,589,4.7274,0.875636
637,435,5.05286,1.48792,0,0,0,0,0,0,0,-1,1861,589,5.05291,-1.48792
644,435,0,0,0,0,0,0,0,0,0,-1,1868,589,0,0
651,435,0,0,0,0,0,0,0,0,0,-1,1875,589,0,0
658,435,0,0,0,0,0,0,0,0,0,-1,1882,589,0,0
665,435,0,0,0,0,0,0,0,0,0,-1,1889,589,0,0
672,435,0,0,0,0,0,0,0,0,0,-1,1896,589,0,0
679,435,0,0,0,0,0,0,0,0,0,-1,1903,589,0,0
686,435,0,0,0,0,0,0,0,0,0,-1,1910,589,0,0
693,435,0,0,0,0,0,0,0,0,0,-1,1917,589,0,0
700,435,0,0,0,0,0,0,0,0,0,-1,1924,589,0,0
707,435,0,0,0,0,0,0,0,0,0,-1,1931,589,0,0
714,435,0,0,0,0,0,0,0,0,0,-1,1938,589,0,0
721,435,0,0,0,0,0,0,0,0,0,-1,1945,589,0,0
728,435,0,0,0,0,0,0,0,0,0,-1,1952,589,0,0
735,435,0,0,0,0,0,0,0,0,0,-1,1959,589,0,0
742,435,0,0,0,0,0,0,0,0,0,-1,1966,589,0,0
749,435,0,0,0,0,0,0,0,0,0,-1,1973,589,0,0
756,435,0,0,0,0,0,0,0,0,0,-1,1980,589,0,0
763,435,0,0,0,0,0,0,0,0,0,-1,1987,589,0,0
770,435,0,0,0,0,0,0,0,0,0,-1,1994,589,0,0
777,435,0,0,0,0,0,0,0,0,0,-1,2001,589,0,0
784,435,0,0,0,0,0,0,0,0,0,-1,2008,589,0,0
791,435,0,0,0,0,0,0,0,0,0,-1,2015,589,0,0
798,435,0,0,0,0,0,0,0,0,0,-1,2022,589,0,0
805,435,0,0,0,0,0,0,0,0,0,-1,2029,589,0,0
812,435,0,0,0,0,0,0,0,0,0,-1,2036,589,0,0
-700,428,0,0,0,0,0,0,0,0,0,-1,524,596,0,0
-693,428,0,0,0,0,0,0,0,0,0,-1,531,596,0,0
-686,428,0,0,0,0,0,0,0,0,0,-1,538,596,0,0
-679,428,0,0,0,0,0,0,0,0,0,-1,545,596,0,0
-672,428,0,0,0,0,0,0,0,0,0,-1,552,596,0,0
-665,428,0,0,0,0,0,0,0,0,0,-1,559,596,0,0
-658,428,0,0,0,0,0,0,0,0,0,-1,566,596,0,0
-651,428,0,0,0,0,0,0,0,0,0,-1,573,596,0,0
-644,428,0,0,0,0,0,0,0,0,0,-1,580,596,0,0
-637,428,0,0,0,0,0,0,0,0,0,-1,587,596,0,0
-630,428,0,0,0,0,0,0,0,0,0,-1,594,596,0,0
-623,428,0,0,0,0,0,0,0,0,0,-1,601,596,0,0
-616,428,0,0,0,0,0,0,0,0,0,-1,608,596,0,0
-609,428,0,0,0,0,0,0,0,0,0,-1,615,596,0,0
-602,428,0,0,0,0,0,0,0,0,0,-1,622,596,0,0
-595,428,0,0,0,0,0,0,0,0,0,-1,629,596,0,0
-588,428,0,0,0,0,0,0,0,0,0,-1,636,596,0,0
-581,428,0,0,0,0,0,0,0,0,0,-1,643,596,0,0
-574,428,0,0,0,0,0,0,0,0,0,-1,650,596,0,0
-567,428,0,0,0,0,0,0,0,0,0,-1,657,596,0,0
-560,428,0,0,0,0,0,0,0,0,0,-1,664,596,0,0
-553,428,0,0,0,0,0,0,0,0,0,-1,671,596,0,0
-546,428,0,0,0,0,0,0,0,0,0,-1,678,596,0,0
-539,428,0,0,0,0,0,0,0,0,0,-1,685,596,0,0
-532,428,0,0,0,0,0,0,0,0,0,-1,692,596,0,0
-525,428,-9.59918,7.58618,0,0,0,0,0,0,0,-1,699,596,-9.59918,-7.5862
-518,428,-2.92285,-4.81854,0,0,0,0,0,0,0,-1,706,596,-2.92285,4.81856
-511,428,-3.68811,-4.79474,0,0,0,0,0,0,0,-1,713,596,-3.68811,4.79474
-504,428,-4.45337,-4.77094,0,0,0,0,0,0,0,-1,720,596,-4.45337,4.77092
-497,428,-2.98108,-3.77502,0,0,0,0,0,0,0,-1,727,596,-2.98106,3.77505
-490,428,-6.39044,-2.80481,0,0,0,0,0,0,0,-1,734,596,-6.39047,2.80483
-483,428,-10.8474,-9.11322,0,0,0,0,0,0,0,-1,741,596,-10.8473,9.11321
-476,428,-13.7586,-14.9988,0,0,0,0,0,0,0,-1,748,596,-13.7586,14.9988
-469,428,-13.7797,-16.0511,-0.00613482,0.00409585,0.0028589,0.00484055,-0.00687951,1.31598,0.00680062,0.0408249,755,596,-13.7797,16.0511
-462,428,-14.0133,-16.9718,-0.00414328,0.00346479,0.00179626,0.00386756,-0.00454605,1.35022,0.00486286,0.0409904,762,596,-14.0133,16.9718
-455,428,-14.1722,-18.1043,-0.00252112,0.00267489,0.00105272,0.00288007,-0.0027263,1.3783,0.00323725,0.0189213,769,596,-14.1722,18.1043
-448,428,-14.2418,-19.1474,-0.00120985,0.00224085,0.000380963,0.00228241,-0.0012514,1.46214,0.00206899,0.0120407,776,596,-14.2418,19.1474
-441,428,-14.2902,-20.1559,-0.000174642,0.0019095,-0.000154441,0.00192089,-0.000186024,-1.49723,0.00134689,0.0132277,783,596,-14.2902,20.1559
-434,428,-14.3475,-21.1912,0.00058136,0.00166035,-0.00055773,0.00189682,0.000344892,-1.16979,0.0011667,0.0101211,790,596,-14.3475,21.1912
-427,428,-14.4113,-22.2159,0.00119231,0.00158643,-0.000935251,0.00234516,0.000433584,-0.889231,0.00144082,0.0110912,797,596,-14.4113,22.216
-420,428,-14.4615,-23.1754,0.00170488,0.00160143,-0.00129127,0.00294546,0.000360851,-0.765382,0.00185509,0.0119545,804,596,-14.4615,23.1754
-413,428,-14.5279,-24.1523,0.00200386,0.0016222,-0.00148675,0.00331198,0.000314078,-0.72157,0.0021111,0.0143111,811,596,-14.5279,24.1523
-406,428,-14.6078,-25.1555,0.00224708,0.00174634,-0.00165015,0.00366574,0.000327677,-0.710109,0.00234225,0.0167018,818,596,-14.6078,25.1555
-399,428,-14.662,-26.1708,0.00269217,0.0019503,-0.00196226,0.00431825,0.000324225,-0.691983,0.00277707,0.0174403,825,596,-14.6621,26.1708
-392,428,-14.6823,-27.2268,0.00324285,0.00210832,-0.00225684,0.00500263,0.000348546,-0.662272,0.00322519,0.0388552,832,596,-14.6822,27.2268
-385,428,-14.804,-28.4249,0,0,0,0,0,0,0,-1,839,596,-14.804,28.4249
-378,428,-10.8172,-20.952,0,0,0,0,0,0,0,-1,846,596,-10.8172,20.952
-371,428,-5.96155,-11.0703,0,0,0,0,0,0,0,-1,853,596,-5.96154,11.0702
-364,428,-6.33643,-10.7223,0,0,0,0,0,0,0,-1,860,596,-6.33645,10.7223
-357,428,-3.20996,-4.70966,0,0,0,0,0,0,0,-1,867,596,-3.20997,4.70965
-350,428,-1.62793,-3.94055,0,0,0,0,0,0,0,-1,874,596,-1.62794,3.94055
-343,428,-0.0567017,-4.80994,0,0,0,0,0,0,0,-1,881,596,-0.0567096,4.80996
-336,428,-3.29175,-1.39569,0,0,0,0,0,0,0,-1,888,596,-3.29172,1.39568
-329,428,-3.71564,-0.791321,0,0,0,0,0,0,0,-1,895,596,-3.71564,0.791299
-322,428,-5.52863,-3.59827,0,0,0,0,0,0,0,-1,902,596,-5.52865,3.59829
-315,428,-4.57172,-1.22052,0,0,0,0,0,0,0,-1,909,596,-4.57171,1.22052
-308,428,-5.60742,-3.40961,0,0,0,0,0,0,0,-1,916,596,-5.60744,3.40959
-301,428,0,0,0,0,0,0,0,0,0,-1,923,596,0,0
-294,428,0,0,0,0,0,0,0,0,0,-1,930,596,0,0
-287,428,0,0,0,0,0,0,0,0,0,-1,937,596,0,0
-280,428,0,0,0,0,0,0,0,0,0,-1,944,596,0,0
-273,428,0,0,0,0,0,0,0,0,0,-1,951,596,0,0
-266,428,0,0,0,0,0,0,0,0,0,-1,958,596,0,0
-259,428,0,0,0,0,0,0,0,0,0,-1,965,596,0,0
-252,428,0,0,0,0,0,0,0,0,0,-1,972,596,0,0
-245,428,0,0,0,0,0,0,0,0,0,-1,979,596,0,0
-238,428,0,0,0,0,0,0,0,0,0,-1,986,596,0,0
-231,428,0,0,0,0,0,0,0,0,0,-1,993,596,0,0
-224,428,0,0,0,0,0,0,0,0,0,-1,1000,596,0,0
-217,428,0,0,0,0,0,0,0,0,0,-1,1007,596,0,0
-210,428,0,0,0,0,0,0,0,0,0,-1,1014,596,0,0
-203,428,0,0,0,0,0,0,0,0,0,-1,1021,596,0,0
-196,428,0,0,0,0,0,0,0,0,0,-1,1028,596,0,0
-189,428,0,0,0,0,0,0,0,0,0,-1,1035,596,0,0
-182,428,0,0,0,0,0,0,0,0,0,-1,1042,596,0,0
-175,428,0,0,0,0,0,0,0,0,0,-1,1049,596,0,0
-168,428,0,0,0,0,0,0,0,0,0,-1,1056,596,0,0
-161,428,0,0,0,0,0,0,0,0,0,-1,1063,596,0,0
-154,428,0,0,0,0,0,0,0,0,0,-1,1070,596,0,0
-147,428,0,0,0,0,0,0,0,0,0,-1,1077,596,0,0
-140,428,0,0,0,0,0,0,0,0,0,-1,1084,596,0,0
-133,428,0,0,0,0,0,0,0,0,0,-1,1091,596,0,0
-126,428,0,0,0,0,0,0,0,0,0,-1,1098,596,0,0
-119,428,0,0,0,0,0,0,0,0,0,-1,1105,596,0,0
-112,428,0,0,0,0,0,0,0,0,0,-1,1112,596,0,0
-105,428,0,0,0,0,0,0,0,0,0,-1,1119,596,0,0
-98,428,0,0,0,0,0,0,0,0,0,-1,1126,596,0,0
-91,428,0,0,0,0,0,0,0,0,0,-1,1133,596,0,0
-84,428,0,0,0,0,0,0,0,0,0,-1,1140,596,0,0
-77,428,0,0,0,0,0,0,0,0,0,-1,1147,596,0,0
-70,428,0,0,0,0,0,0,0,0,0,-1,1154,596,0,0
-63,428,0,0,0,0,0,0,0,0,0,-1,1161,596,0,0
-56,428,0,0,0,0,0,0,0,0,0,-1,1168,596,0,0
-49,428,0,0,0,0,0,0,0,0,0,-1,1175,596,0,0
-42,428,0,0,0,0,0,0,0,0,0,-1,1182,596,0,0
-35,428,0,0,0,0,0,0,0,0,0,-1,1189,596,0,0
-28,428,0,0,0,0,0,0,0,0,0,-1,1196,596,0,0
-21,428,0,0,0,0,0,0,0,0,0,-1,1203,596,0,0
-14,428,0,0,0,0,0,0,0,0,0,-1,1210,596,0,0
-7,428,0,0,0,0,0,0,0,0,0,-1,1217,596,0,0
0,428,0,0,0,0,0,0,0,0,0,-1,1224,596,0,0
7,428,0,0,0,0,0,0,0,0,0,-1,1231,596,0,0
14,428,0,0,0,0,0,0,0,0,0,-1,1238,596,0,0
21,428,0,0,0,0,0,0,0,0,0,-1,1245,596,0,0
28,428,0,0,0,0,0,0,0,0,0,-1,1252,596,0,0
35,428,0,0,0,0,0,0,0,0,0,-1,1259,596,0,0
42,428,0,0,0,0,0,0,0,0,0,-1,1266,596,0,0
49,428,0,0,0,0,0,0,0,0,0,-1,1273,596,0,0
56,428,0,0,0,0,0,0,0,0,0,-1,1280,596,0,0
63,428,0,0,0,0,0,0,0,0,0,-1,1287,596,0,0
70,428,0,0,0,0,0,0,0,0,0,-1,1294,596,0,0
77,428,0,0,0,0,0,0,0,0,0,-1,1301,596,0,0
84,428,0,0,0,0,0,0,0,0,0,-1,1308,596,0,0
91,428,0,0,0,0,0,0,0,0,0,-1,1315,596,0,0
98,428,0,0,0,0,0,0,0,0,0,-1,1322,596,0,0
105,428,0,0,0,0,0,0,0,0,0,-1,1329,596,0,0
112,428,0,0,0,0,0,0,0,0,0,-1,1336,596,0,0
119,428,0,0,0,0,0,0,0,0,0,-1,1343,596,0,0
126,428,0,0,0,0,0,0,0,0,0,-1,1350,596,0,0
133,428,0,0,0,0,0,0,0,0,0,-1,1357,596,0,0
140,428,0,0,0,0,0,0,0,0,0,-1,1364,596,0,0
147,428,0,0,0,0,0,0,0,0,0,-1,1371,596,0,0
154,428,0,0,0,0,0,0,0,0,0,-1,1378,596,0,0
161,428,0,0,0,0,0,0,0,0,0,-1,1385,596,0,0
168,428,0,0,0,0,0,0,0,0,0,-1,1392,596,0,0
175,428,0,0,0,0,0,0,0,0,0,-1,1399,596,0,0
182,428,0,0,0,0,0,0,0,0,0,-1,1406,596,0,0
189,428,0,0,0,0,0,0,0,0,0,-1,1413,596,0,0
196,428,0,0,0,0,0,0,0,0,0,-1,1420,596,0,0
203,428,0,0,0,0,0,0,0,0,0,-1,1427,596,0,0
210,428,0,0,0,0,0,0,0,0,0,-1,1434,596,0,0
217,428,0,0,0,0,0,0,0,0,0,-1,1441,596,0,0
224,428,0,0,0,0,0,0,0,0,0,-1,1448,596,0,0
231,428,0,0,0,0,0,0,0,0,0,-1,1455,596,0,0
238,428,0,0,0,0,0,0,0,0,0,-1,1462,596,0,0
245,428,0,0,0,0,0,0,0,0,0,-1,1469,596,0,0
252,428,0,0,0,0,0,0,0,0,0,-1,1476,596,0,0
259,428,0,0,0,0,0,0,0,0,0,-1,1483,596,0,0
266,428,0,0,0,0,0,0,0,0,0,-1,1490,596,0,0
273,428,0,0,0,0,0,0,0,0,0,-1,1497,596,0,0
280,428,0,0,0,0,0,0,0,0,0,-1,1504,596,0,0
287,428,0,0,0,0,0,0,0,0,0,-1,1511,596,0,0
294,428,0,0,0,0,0,0,0,0,0,-1,1518,596,0,0
301,428,0,0,0,0,0,0,0,0,0,-1,1525,596,0,0
308,428,0,0,0,0,0,0,0,0,0,-1,1532,596,0,0
315,428,0,0,0,0,0,0,0,0,0,-1,1539,596,0,0
322,428,0,0,0,0,0,0,0,0,0,-1,1546,596,0,0
329,428,0,0,0,0,0,0,0,0,0,-1,1553,596,0,0
336,428,0,0,0,0,0,0,0,0,0,-1,1560,596,0,0
343,428,0,0,0,0,0,0,0,0,0,-1,1567,596,0,0
350,428,0,0,0,0,0,0,0,0,0,-1,1574,596,0,0
357,428,0,0,0,0,0,0,0,0,0,-1,1581,596,0,0
364,428,0,0,0,0,0,0,0,0,0,-1,1588,596,0,0
371,428,0,0,0,0,0,0,0,0,0,-1,1595,596,0,0
378,428,0,0,0,0,0,0,0,0,0,-1,1602,596,0,0
385,428,0,0,0,0,0,0,0,0,0,-1,1609,596,0,0
392,428,0,0,0,0,0,0,0,0,0,-1,1616,596,0,0
399,428,0,0,0,0,0,0,0,0,0,-1,1623,596,0,0
406,428,0,0,0,0,0,0,0,0,0,-1,1630,596,0,0
413,428,0,0,0,0,0,0,0,0,0,-1,1637,596,0,0
420,428,19.8469,1.3399,0,0,0,0,0,0,0,-1,1644,596,19.8469,-1.33992
427,428,20.7299,-0.225281,0,0,0,0,0,0,0,-1,1651,596,20.7299,0.225262
434,428,19.8915,-0.583069,0,0,0,0,0,0,0,-1,1658,596,19.8915,0.583075
441,428,8.17993,0.607483,0,0,0,0,0,0,0,-1,1665,596,8.17997,-0.607513
448,428,7.84338,-0.385986,0,0,0,0,0,0,0,-1,1672,596,7.84336,0.385978
455,428,6.64038,2.1123,0,0,0,0,0,0,0,-1,1679,596,6.64037,-2.11229
462,428,4.84106,4.12341,0,0,0,0,0,0,0,-1,1686,596,4.84107,-4.12339
469,428,7.83789,3.10083,0,0,0,0,0,0,0,-1,1693,596,7.83785,-3.10086
476,428,7.61255,1.73956,0,0,0,0,0,0,0,-1,1700,596,7.61252,-1.73958
483,428,7.22766,1.05121,0,0,0,0,0,0,0,-1,1707,596,7.2277,-1.05121
490,428,5.4071,-3.2793,0,0,0,0,0,0,0,-1,1714,596,5.40707,3.27929
497,428,7.84106,-3.65491,0,0,0,0,0,0,0,-1,1721,596,7.84107,3.65491
504,428,6.92139,-2.83356,0,0,0,0,0,0,0,-1,1728,596,6.92137,2.83353
511,428,7.88501,-3.78723,0,0,0,0,0,0,0,-1,1735,596,7.88502,3.78722
518,428,29.993,-26.0385,0,0,0,0,0,0,0,-1,1742,596,29.993,26.0384
525,428,31.5157,-26.0084,0,0,0,0,0,0,0,-1,1749,596,31.5157,26.0084
532,428,31.4962,-25.0076,0.00238755,-0.000121075,0.00065851,0.0025499,-0.000283426,0.241722,0.00180185,0.0249399,1756,596,31.4962,25.0076
539,428,31.484,-23.938,0.00200108,0.000115869,0.000609969,0.00218123,-6.42752e-05,0.28717,0.00147604,0.0224716,1763,596,31.484,23.938
546,428,31.4004,-22.9889,0.00172688,0.000410435,0.000603087,0.00196139,0.000175925,0.370857,0.00125307,0.018107,1770,596,31.4004,22.9889
553,428,31.3165,-22.0721,0.00153153,0.000891819,0.000680527,0.00196362,0.000459728,0.565713,0.00118592,0.0124211,1777,596,31.3165,22.0721
560,428,31.2655,-21.0639,0.00141136,0.00144721,0.000858888,0.00228836,0.00057021,0.795832,0.00137548,0.0117624,1784,596,31.2655,21.0639
567,428,31.2223,-20.0473,0.00147397,0.00218766,0.00122688,0.00310854,0.000553089,0.926921,0.00191481,0.0114631,1791,596,31.2222,20.0473
574,428,31.1487,-19.0695,0.00167156,0.00303981,0.00169379,0.00418242,0.000528954,0.97733,0.00262976,0.0140575,1798,596,31.1487,19.0695
581,428,31.0585,-18.0613,0.00202634,0.00401202,0.00232873,0.00555072,0.00048764,0.986902,0.00354912,0.0122373,1805,596,31.0584,18.0613
588,428,30.9823,-17.0359,0.00254872,0.00524619,0.003185,0.00735625,0.000438653,0.985683,0.00476469,0.0193623,1812,596,30.9824,17.0359
595,428,30.913,-15.9678,0.00326326,0.00675956,0.0042516,0.00960838,0.000414438,0.980449,0.00627201,0.0327987,1819,596,30.913,15.9678
602,428,31.0172,-14.854,0,0,0,0,0,0,0,-1,1826,596,31.0172,14.854
609,428,17.2073,-4.82446,0,0,0,0,0,0,0,-1,1833,596,17.2073,4.82447
616,428,15.7817,-3.09558,0,0,0,0,0,0,0,-1,1840,596,15.7817,3.09556
623,428,9.53577,1.12518,0,0,0,0,0,0,0,-1,1847,596,9.5358,-1.1252
630,428,7.07996,6.88562,0,0,0,0,0,0,0,-1,1854,596,7.0799,-6.88565
637,428,3.95435,1.90857,0,0,0,0,0,0,0,-1,1861,596,3.95439,-1.90858
644,428,5.75476,0.888977,0,0,0,0,0,0,0,-1,1868,596,5.75472,-0.888955
651,428,0,0,0,0,0,0,0,0,0,-1,1875,596,0,0
658,428,0,0,0,0,0,0,0,0,0,-1,1882,596,0,0
665,428,0,0,0,0,0,0,0,0,0,-1,1889,596,0,0
672,428,0,0,0,0,0,0,0,0,0,-1,1896,596,0,0
679,428,0,0,0,0,0,0,0,0,0,-1,1903,596,0,0
686,428,0,0,0,0,0,0,0,0,0,-1,1910,596,0,0
693,428,0,0,0,0,0,0,0,0,0,-1,1917,596,0,0
700,428,0,0,0,0,0,0,0,0,0,-1,1924,596,0,0
707,428,0,0,0,0,0,0,0,0,0,-1,1931,596,0,0
714,428,0,0,0,0,0,0,0,0,0,-1,1938,596,0,0
721,428,0,0,0,0,0,0,0,0,0,-1,1945,596,0,0
728,428,0,0,0,0,0,0,0,0,0,-1,1952,596,0,0
735,428,0,0,0,0,0,0,0,0,0,-1,1959,596,0,0
742,428,0,0,0,0,0,0,0,0,0,-1,1966,596,0,0
749,428,0,0,0,0,0,0,0,0,0,-1,1973,596,0,0
756,428,0,0,0,0,0,0,0,0,0,-1,1980,596,0,0
763,428,0,0,0,0,0,0,0,0,0,-1,1987,596,0,0
770,428,0,0,0,0,0,0,0,0,0,-1,1994,596,0,0
777,428,0,0,0,0,0,0,0,0,0,-1,2001,596,0,0
784,428,0,0,0,0,0,0,0,0,0,-1,2008,596,0,0
791,428,0,0,0,0,0,0,0,0,0,-1,2015,596,0,0
798,428,0,0,0,0,0,0,0,0,0,-1,2022,596,0,0
805,428,0,0,0,0,0,0,0,0,0,-1,2029,596,0,0
812,428,0,0,0,0,0,0,0,0,0,-1,2036,596,0,0
-700,421,0,0,0,0,0,0,0,0,0,-1,524,603,0,0
-693,421,0,0,0,0,0,0,0,0,0,-1,531,603,0,0
-686,421,0,0,0,0,0,0,0,0,0,-1,538,603,0,0
-679,421,0,0,0,0,0,0,0,0,0,-1,545,603,0,0
-672,421,0,0,0,0,0,0,0,0,0,-1,552,603,0,0
-665,421,0,0,0,0,0,0,0,0,0,-1,559,603,0,0
-658,421,0,0,0,0,0,0,0,0,0,-1,566,603,0,0
-651,421,0,0,0,0,0,0,0,0,0,-1,573,603,0,0
-644,421,0,0,0,0,0,0,0,0,0,-1,580,603,0,0
-637,421,0,0,0,0,0,0,0,0,0,-1,587,603,0,0
-630,421,0,0,0,0,0,0,0,0,0,-1,594,603,0,0
-623,421,0,0,0,0,0,0,0,0,0,-1,601,603,0,0
-616,421,0,0,0,0,0,0,0,0,0,-1,608,603,0,0
-609,421,0,0,0,0,0,0,0,0,0,-1,615,603,0,0
-602,421,0,0,0,0,0,0,0,0,0,-1,622,603,0,0
-595,421,0,0,0,0,0,0,0,0,0,-1,629,603,0,0
-588,421,0,0,0,0,0,0,0,0,0,-1,636,603,0,0
-581,421,0,0,0,0,0,0,0,0,0,-1,643,603,0,0
-574,421,0,0,0,0,0,0,0,0,0,-1,650,603,0,0
-567,421,0,0,0,0,0,0,0,0,0,-1,657,603,0,0
-560,421,0,0,0,0,0,0,0,0,0,-1,664,603,0,0
-553,421,0,0,0,0,0,0,0,0,0,-1,671,603,0,0
-546,421,0,0,0,0,0,0,0,0,0,-1,678,603,0,0
-539,421,0,0,0,0,0,0,0,0,0,-1,685,603,0,0
-532,421,-8.97382,6.95636,0,0,0,0,0,0,0,-1,692,603,-8.97384,-6.95634
-525,421,-2.11481,-8.04272,0,0,0,0,0,0,0,-1,699,603,-2.11483,8.0427
-518,421,-3.05908,-5.07233,0,0,0,0,0,0,0,-1,706,603,-3.0591,5.07235
-511,421,-4.63525,-4.08447,0,0,0,0,0,0,0,-1,713,603,-4.63524,4.08449
-504,421,-5.17029,-4.94458,0,0,0,0,0,0,0,-1,720,603,-5.17029,4.9446
-497,421,-6.63141,-2.32501,0,0,0,0,0,0,0,-1,727,603,-6.6314,2.32498
-490,421,-6.7616,-4.14783,0,0,0,0,0,0,0,-1,734,603,-6.76159,4.1478
-483,421,-14.5308,-14.2391,0,0,0,0,0,0,0,-1,741,603,-14.5308,14.2391
-476,421,-14.7437,-15.126,-0.00625001,0.00379808,0.00302165,0.00463675,-0.00708868,1.30006,0.00681884,0.0485681,748,603,-14.7437,15.126
-469,421,-15.0198,-15.9262,-0.00471312,0.00308263,0.00208591,0.00360567,-0.00523616,1.32512,0.00513368,0.0397725,755,603,-15.0198,15.9262
-462,421,-15.0881,-17.0663,-0.00316773,0.00243513,0.00131982,0.00273046,-0.00346306,1.35066,0.00358416,0.0244103,762,603,-15.088,17.0663
-455,421,-15.1895,-18.0833,-0.0018324,0.00180083,0.000705137,0.00193288,-0.00196445,1.38567,0.00225015,0.0218308,769,603,-15.1895,18.0833
-448,421,-15.2782,-19.0621,-0.000682278,0.00142208,0.000136007,0.00143084,-0.000691032,1.50652,0.00124964,0.0201456,776,603,-15.2782,19.0621
-441,421,-15.2955,-20.0872,0.000286222,0.00121011,-0.000363544,0.00133601,0.000160325,-1.23742,0.00084233,0.0150076,783,603,-15.2955,20.0872
-434,421,-15.3682,-21.1262,0.0010399,0.00112137,-0.000768312,0.00185003,0.000311243,-0.811882,0.00114381,0.0108832,790,603,-15.3682,21.1262
-427,421,-15.4143,-22.1317,0.00169221,0.00126207,-0.00119495,0.00269129,0.000262992,-0.696361,0.00171327,0.0104248,797,603,-15.4143,22.1317
-420,421,-15.4601,-23.0878,0.00222858,0.00153295,-0.0015968,0.00351501,0.000246523,-0.678164,0.00226564,0.0117835,804,603,-15.4602,23.0878
-413,421,-15.5361,-24.0674,0.00255161,0.00191226,-0.001881,0.0041399,0.000323967,-0.701228,0.00265853,0.0146363,811,603,-15.5361,24.0674
-406,421,-15.6511,-25.1099,0.00286326,0.00253256,-0.00225014,0.00495411,0.000441699,-0.748722,0.0031658,0.0228554,818,603,-15.6511,25.1099
-399,421,-15.7696,-26.1974,0,0,0,0,0,0,0,-1,825,603,-15.7696,26.1975
-392,421,-15.4296,-27.3293,0,0,0,0,0,0,0,-1,832,603,-15.4296,27.3294
-385,421,-11.5825,-18.8583,0,0,0,0,0,0,0,-1,839,603,-11.5825,18.8583
-378,421,-4.94733,-8.87909,0,0,0,0,0,0,0,-1,846,603,-4.94731,8.87906
-371,421,-5.65082,-7.01849,0,0,0,0,0,0,0,-1,853,603,-5.65082,7.0185
-364,421,-5.94189,-7.09875,0,0,0,0,0,0,0,-1,860,603,-5.94192,7.09878
-357,421,-7.62531,-8.26337,0,0,0,0,0,0,0,-1,867,603,-7.62532,8.26337
-350,421,-5.38019,-3.75024,0,0,0,0,0,0,0,-1,874,603,-5.38017,3.75026
-343,421,-6.22797,-2.57123,0,0,0,0,0,0,0,-1,881,603,-6.22798,2.57121
-336,421,-6.22882,-2.59369,0,0,0,0,0,0,0,-1,888,603,-6.22883,2.5937
-329,421,-4.50134,-1.49469,0,0,0,0,0,0,0,-1,895,603,-4.50137,1.49468
-322,421,-7.55817,1.13263,0,0,0,0,0,0,0,-1,902,603,-7.55818,-1.13263
-315,421,-4.16144,-1.96649,0,0,0,0,0,0,0,-1,909,603,-4.16146,1.9665
-308,421,0,0,0,0,0,0,0,0,0,-1,916,603,0,0
-301,421,0,0,0,0,0,0,0,0,0,-1,923,603,0,0
-294,421,0,0,0,0,0,0,0,0,0,-1,930,603,0,0
-287,421,0,0,0,0,0,0,0,0,0,-1,937,603,0,0
-280,421,0,0,0,0,0,0,0,0,0,-1,944,603,0,0
-273,421,0,0,0,0,0,0,0,0,0,-1,951,603,0,0
-266,421,0,0,0,0,0,0,0,0,0,-1,958,603,0,0
-259,421,0,0,0,0,0,0,0,0,0,-1,965,603,0,0
-252,421,0,0,0,0,0,0,0,0,0,-1,972,603,0,0
-245,421,0,0,0,0,0,0,0,0,0,-1,979,603,0,0
-238,421,0,0,0,0,0,0,0,0,0,-1,986,603,0,0
-231,421,0,0,0,0,0,0,0,0,0,-1,993,603,0,0
-224,421,0,0,0,0,0,0,0,0,0,-1,1000,603,0,0
-217,421,0,0,0,0,0,0,0,0,0,-1,1007,603,0,0
-210,421,0,0,0,0,0,0,0,0,0,-1,1014,603,0,0
-203,421,0,0,0,0,0,0,0,0,0,-1,1021,603,0,0
-196,421,0,0,0,0,0,0,0,0,0,-1,1028,603,0,0
-189,421,0,0,0,0,0,0,0,0,0,-1,1035,603,0,0
-182,421,0,0,0,0,0,0,0,0,0,-1,1042,603,0,0
-175,421,0,0,0,0,0,0,0,0,0,-1,1049,603,0,0
-168,421,0,0,0,0,0,0,0,0,0,-1,1056,603,0,0
-161,421,0,0,0,0,0,0,0,0,0,-1,1063,603,0,0
-154,421,0,0,0,0,0,0,0,0,0,-1,1070,603,0,0
-147,421,0,0,0,0,0,0,0,0,0,-1,1077,603,0,0
-140,421,0,0,0,0,0,0,0,0,0,-1,1084,603,0,0
-133,421,0,0,0,0,0,0,0,0,0,-1,1091,603,0,0
-126,421,0,0,0,0,0,0,0,0,0,-1,1098,603,0,0
-119,421,0,0,0,0,0,0,0,0,0,-1,1105,603,0,0
-112,421,0,0,0,0,0,0,0,0,0,-1,1112,603,0,0
-105,421,0,0,0,0,0,0,0,0,0,-1,1119,603,0,0
-98,421,0,0,0,0,0,0,0,0,0,-1,1126,603,0,0
-91,421,0,0,0,0,0,0,0,0,0,-1,1133,603,0,0
-84,421,0,0,0,0,0,0,0,0,0,-1,1140,603,0,0
-77,421,0,0,0,0,0,0,0,0,0,-1,1147,603,0,0
-70,421,0,0,0,0,0,0,0,0,0,-1,1154,603,0,0
-63,421,0,0,0,0,0,0,0,0,0,-1,1161,603,0,0
-56,421,0,0,0,0,0,0,0,0,0,-1,1168,603,0,0
-49,421,0,0,0,0,0,0,0,0,0,-1,1175,603,0,0
-42,421,0,0,0,0,0,0,0,0,0,-1,1182,603,0,0
-35,421,0,0,0,0,0,0,0,0,0,-1,1189,603,0,0
-28,421,0,0,0,0,0,0,0,0,0,-1,1196,603,0,0
-21,421,0,0,0,0,0,0,0,0,0,-1,1203,603,0,0
-14,421,0,0,0,0,0,0,0,0,0,-1,1210,603,0,0
-7,421,0,0,0,0,0,0,0,0,0,-1,1217,603,0,0
0,421,0,0,0,0,0,0,0,0,0,-1,1224,603,0,0
7,421,0,0,0,0,0,0,0,0,0,-1,1231,603,0,0
14,421,0,0,0,0,0,0,0,0,0,-1,1238,603,0,0
21,421,0,0,0,0,0,0,0,0,0,-1,1245,603,0,0
28,421,0,0,0,0,0,0,0,0,0,-1,1252,603,0,0
35,421,0,0,0,0,0,0,0,0,0,-1,1259,603,0,0
42,421,0,0,0,0,0,0,0,0,0,-1,1266,603,0,0
49,421,0,0,0,0,0,0,0,0,0,-1,1273,603,0,0
56,421,0,0,0,0,0,0,0,0,0,-1,1280,603,0,0
63,421,0,0,0,0,0,0,0,0,0,-1,1287,603,0,0
70,421,0,0,0,0,0,0,0,0,0,-1,1294,603,0,0
77,421,0,0,0,0,0,0,0,0,0,-1,1301,603,0,0
84,421,0,0,0,0,0,0,0,0,0,-1,1308,603,0,0
91,421,0,0,0,0,0,0,0,0,0,-1,1315,603,0,0
98,421,0,0,0,0,0,0,0,0,0,-1,1322,603,0,0
105,421,0,0,0,0,0,0,0,0,0,-1,1329,603,0,0
112,421,0,0,0,0,0,0,0,0,0,-1,1336,603,0,0
119,421,0,0,0,0,0,0,0,0,0,-1,1343,603,0,0
126,421,0,0,0,0,0,0,0,0,0,-1,1350,603,0,0
133,421,0,0,0,0,0,0,0,0,0,-1,1357,603,0,0
140,421,0,0,0,0,0,0,0,0,0,-1,1364,603,0,0
147,421,0,0,0,0,0,0,0,0,0,-1,1371,603,0,0
154,421,0,0,0,0,0,0,0,0,0,-1,1378,603,0,0
161,421,0,0,0,0,0,0,0,0,0,-1,1385,603,0,0
168,421,0,0,0,0,0,0,0,0,0,-1,1392,603,0,0
175,421,0,0,0,0,0,0,0,0,0,-1,1399,603,0,0
182,421,0,0,0,0,0,0,0,0,0,-1,1406,603,0,0
189,421,0,0,0,0,0,0,0,0,0,-1,1413,603,0,0
196,421,0,0,0,0,0,0,0,0,0,-1,1420,603,0,0
203,421,0,0,0,0,0,0,0,0,0,-1,1427,603,0,0
210,421,0,0,0,0,0,0,0,0,0,-1,1434,603,0,0
217,421,0,0,0,0,0,0,0,0,0,-1,1441,603,0,0
224,421,0,0,0,0,0,0,0,0,0,-1,1448,603,0,0
231,421,0,0,0,0,0,0,0,0,0,-1,1455,603,0,0
238,421,0,0,0,0,0,0,0,0,0,-1,1462,603,0,0
245,421,0,0,0,0,0,0,0,0,0,-1,1469,603,0,0
252,421,0,0,0,0,0,0,0,0,0,-1,1476,603,0,0
259,421,0,0,0,0,0,0,0,0,0,-1,1483,603,0,0
266,421,0,0,0,0,0,0,0,0,0,-1,1490,603,0,0
273,421,0,0,0,0,0,0,0,0,0,-1,1497,603,0,0
280,421,0,0,0,0,0,0,0,0,0,-1,1504,603,0,0
287,421,0,0,0,0,0,0,0,0,0,-1,1511,603,0,0
294,421,0,0,0,0,0,0,0,0,0,-1,1518,603,0,0
301,421,0,0,0,0,0,0,0,0,0,-1,1525,603,0,0
308,421,0,0,0,0,0,0,0,0,0,-1,1532,603,0,0
315,421,0,0,0,0,0,0,0,0,0,-1,1539,603,0,0
322,421,0,0,0,0,0,0,0,0,0,-1,1546,603,0,0
329,421,0,0,0,0,0,0,0,0,0,-1,1553,603,0,0
336,421,0,0,0,0,0,0,0,0,0,-1,1560,603,0,0
343,421,0,0,0,0,0,0,0,0,0,-1,1567,603,0,0
350,421,0,0,0,0,0,0,0,0,0,-1,1574,603,0,0
357,421,0,0,0,0,0,0,0,0,0,-1,1581,603,0,0
364,421,0,0,0,0,0,0,0,0,0,-1,1588,603,0,0
371,421,0,0,0,0,0,0,0,0,0,-1,1595,603,0,0
378,421,0,0,0,0,0,0,0,0,0,-1,1602,603,0,0
385,421,0,0,0,0,0,0,0,0,0,-1,1609,603,0,0
392,421,0,0,0,0,0,0,0,0,0,-1,1616,603,0,0
399,421,0,0,0,0,0,0,0,0,0,-1,1623,603,0,0
406,421,0,0,0,0,0,0,0,0,0,-1,1630,603,0,0
413,421,0,0,0,0,0,0,0,0,0,-1,1637,603,0,0
420,421,0,0,0,0,0,0,0,0,0,-1,1644,603,0,0
427,421,0,0,0,0,0,0,0,0,0,-1,1651,603,0,0
434,421,3.68176,-0.0327759,0,0,0,0,0,0,0,-1,1658,603,3.6818,0.0328037
441,421,8.06689,0.527832,0,0,0,0,0,0,0,-1,1665,603,8.06693,-0.527851
448,421,6.93921,0.802246,0,0,0,0,0,0,0,-1,1672,603,6.93923,-0.802251
455,421,7.29456,2.14825,0,0,0,0,0,0,0,-1,1679,603,7.29461,-2.14827
462,421,7.86902,3.53174,0,0,0,0,0,0,0,-1,1686,603,7.869,-3.53173
469,421,8.06604,2.81213,0,0,0,0,0,0,0,-1,1693,603,8.06606,-2.81212
476,421,8.26306,2.09253,0,0,0,0,0,0,0,-1,1700,603,8.26312,-2.09251
483,421,8.05322,0.798096,0,0,0,0,0,0,0,-1,1707,603,8.05323,-0.7981
490,421,7.51233,0.213074,0,0,0,0,0,0,0,-1,1714,603,7.51235,-0.213043
497,421,7.49634,-2.86688,0,0,0,0,0,0,0,-1,1721,603,7.4963,2.86688
504,421,6.90491,-2.18671,0,0,0,0,0,0,0,-1,1728,603,6.90491,2.18669
511,421,6.31348,-1.50653,0,0,0,0,0,0,0,-1,1735,603,6.31353,1.5065
518,421,6.27588,-2.49878,0,0,0,0,0,0,0,-1,1742,603,6.2759,2.4988
525,421,30.6759,-25.1779,0,0,0,0,0,0,0,-1,1749,603,30.6759,25.1779
532,421,32.3905,-24.9911,0,0,0,0,0,0,0,-1,1756,603,32.3905,24.9911
539,421,32.465,-23.9032,0.00235655,-0.000144394,0.000502874,0.00245387,-0.000241721,0.191179,0.00172215,0.0264931,1763,603,32.4649,23.9032
546,421,32.3967,-22.9434,0.00199321,0.000102685,0.000440695,0.0020909,5.0033e-06,0.218127,0.00139227,0.0151707,1770,603,32.3968,22.9434
553,421,32.3221,-21.9634,0.00174148,0.000533167,0.000473069,0.00190465,0.000369991,0.332153,0.00116617,0.0135037,1777,603,32.3222,21.9634
560,421,32.2448,-20.9592,0.0015349,0.000997407,0.00059612,0.00192005,0.000612253,0.573629,0.00113253,0.0147265,1784,603,32.2448,20.9592
567,421,32.2075,-19.9957,0.00148945,0.0016071,0.000900962,0.00245116,0.000645396,0.817999,0.00146708,0.0177542,1791,603,32.2075,19.9958
574,421,32.1509,-19.0178,0.00160773,0.00234692,0.00133236,0.00336,0.000594657,0.920696,0.00207044,0.0218598,1798,603,32.1509,19.0178
581,421,32.0824,-17.9852,0.00189166,0.00318898,0.00192937,0.00457581,0.000504821,0.947564,0.00289697,0.0228998,1805,603,32.0823,17.9852
588,421,32.0005,-17.0198,0.00234492,0.00429008,0.00271209,0.0061987,0.000436294,0.957561,0.00399499,0.0156914,1812,603,32.0005,17.0198
595,421,31.9928,-15.9977,0.00300369,0.00562785,0.00371155,0.00825241,0.000379127,0.955299,0.00537969,0.0215258,1819,603,31.9928,15.9977
602,421,31.9768,-14.9293,0,0,0,0,0,0,0,-1,1826,603,31.9769,14.9293
609,421,22.8762,-8.37524,0,0,0,0,0,0,0,-1,1833,603,22.8762,8.37525
616,421,17.7633,-4.72491,0,0,0,0,0,0,0,-1,1840,603,17.7633,4.7249
623,421,6.19885,0.376648,0,0,0,0,0,0,0,-1,1847,603,6.19881,-0.376624
630,421,6.54993,0.778748,0,0,0,0,0,0,0,-1,1854,603,6.54991,-0.778744
637,421,3.74512,1.65405,0,0,0,0,0,0,0,-1,1861,603,3.74517,-1.65407
644,421,3.58081,0.354675,0,0,0,0,0,0,0,-1,1868,603,3.58082,-0.354704
651,421,3.28687,3.66351,0,0,0,0,0,0,0,-1,1875,603,3.28688,-3.66353
658,421,0,0,0,0,0,0,0,0,0,-1,1882,603,0,0
665,421,0,0,0,0,0,0,0,0,0,-1,1889,603,0,0
672,421,0,0,0,0,0,0,0,0,0,-1,1896,603,0,0
679,421,0,0,0,0,0,0,0,0,0,-1,1903,603,0,0
686,421,0,0,0,0,0,0,0,0,0,-1,1910,603,0,0
693,421,0,0,0,0,0,0,0,0,0,-1,1917,603,0,0
700,421,0,0,0,0,0,0,0,0,0,-1,1924,603,0,0
707,421,0,0,0,0,0,0,0,0,0,-1,1931,603,0,0
714,421,0,0,0,0,0,0,0,0,0,-1,1938,603,0,0
721,421,0,0,0,0,0,0,0,0,0,-1,1945,603,0,0
728,421,0,0,0,0,0,0,0,0,0,-1,1952,603,0,0
735,421,0,0,0,0,0,0,0,0,0,-1,1959,603,0,0
742,421,0,0,0,0,0,0,0,0,0,-1,1966,603,0,0
749,421,0,0,0,0,0,0,0,0,0,-1,1973,603,0,0
756,421,0,0,0,0,0,0,0,0,0,-1,1980,603,0,0
763,421,0,0,0,0,0,0,0,0,0,-1,1987,603,0,0
770,421,0,0,0,0,0,0,0,0,0,-1,1994,603,0,0
777,421,0,0,0,0,0,0,0,0,0,-1,2001,603,0,0
784,421,0,0,0,0,0,0,0,0,0,-1,2008,603,0,0
791,421,0,0,0,0,0,0,0,0,0,-1,2015,603,0,0
798,421,0,0,0,0,0,0,0,0,0,-1,2022,603,0,0
805,421,0,0,0,0,0,0,0,0,0,-1,2029,603,0,0
812,421,0,0,0,0,0,0,0,0,0,-1,2036,603,0,0
-700,414,0,0,0,0,0,0,0,0,0,-1,524,610,0,0
-693,414,0,0,0,0,0,0,0,0,0,-1,531,610,0,0
-686,414,0,0,0,0,0,0,0,0,0,-1,538,610,0,0
-679,414,0,0,0,0,0,0,0,0,0,-1,545,610,0,0
-672,414,0,0,0,0,0,0,0,0,0,-1,552,610,0,0
-665,414,0,0,0,0,0,0,0,0,0,-1,559,610,0,0
-658,414,0,0,0,0,0,0,0,0,0,-1,566,610,0,0
-651,414,0,0,0,0,0,0,0,0,0,-1,573,610,0,0
-644,414,0,0,0,0,0,0,0,0,0,-1,580,610,0,0
-637,414,0,0,0,0,0,0,0,0,0,-1,587,610,0,0
-630,414,0,0,0,0,0,0,0,0,0,-1,594,610,0,0
-623,414,0,0,0,0,0,0,0,0,0,-1,601,610,0,0
-616,414,0,0,0,0,0,0,0,0,0,-1,608,610,0,0
-609,414,0,0,0,0,0,0,0,0,0,-1,615,610,0,0
-602,414,0,0,0,0,0,0,0,0,0,-1,622,610,0,0
-595,414,0,0,0,0,0,0,0,0,0,-1,629,610,0,0
-588,414,0,0,0,0,0,0,0,0,0,-1,636,610,0,0
-581,414,0,0,0,0,0,0,0,0,0,-1,643,610,0,0
-574,414,0,0,0,0,0,0,0,0,0,-1,650,610,0,0
-567,414,0,0,0,0,0,0,0,0,0,-1,657,610,0,0
-560,414,0,0,0,0,0,0,0,0,0,-1,664,610,0,0
-553,414,0,0,0,0,0,0,0,0,0,-1,671,610,0,0
-546,414,0,0,0,0,0,0,0,0,0,-1,678,610,0,0
-539,414,-7.50146,5.65619,0,0,0,0,0,0,0,-1,685,610,-7.50149,-5.65617
-532,414,-8.15204,4.01605,0,0,0,0,0,0,0,-1,692,610,-8.15206,-4.01606
-525,414,-3.47137,-3.27924,0,0,0,0,0,0,0,-1,699,610,-3.47136,3.27922
-518,414,-4.12909,-4.36908,0,0,0,0,0,0,0,-1,706,610,-4.12909,4.36909
-511,414,-3.92542,-4.97021,0,0,0,0,0,0,0,-1,713,610,-3.92542,4.97023
-504,414,-9.35394,-5.49896,0,0,0,0,0,0,0,-1,720,610,-9.35394,5.49898
-497,414,-9.67627,-6.54761,0,0,0,0,0,0,0,-1,727,610,-9.6763,6.5476
-490,414,-15.2787,-11.9947,0,0,0,0,0,0,0,-1,734,610,-15.2787,11.9947
-483,414,-15.7706,-13.9933,0,0,0,0,0,0,0,-1,741,610,-15.7705,13.9934
-476,414,-15.953,-14.9947,-0.00440588,0.00304666,0.00197988,0.00353998,-0.00489921,1.3266,0.00489339,0.026465,748,610,-15.953,14.9947
-469,414,-16.043,-15.9624,-0.00333465,0.00234974,0.00140566,0.00267834,-0.00366325,1.34115,0.00367601,0.0159773,755,610,-16.043,15.9624
-462,414,-16.1196,-16.9676,-0.00215494,0.00174509,0.000870297,0.00193048,-0.00234034,1.36091,0.00246954,0.0237453,762,610,-16.1196,16.9676
-455,414,-16.2347,-17.9772,-0.00107205,0.00126689,0.000369213,0.00132379,-0.00112895,1.41789,0.00141758,0.0262784,769,610,-16.2347,17.9772
-448,414,-16.2721,-18.9963,-6.28375e-05,0.000959751,-0.000120316,0.000973716,-7.68029e-05,-1.45524,0.0006762,0.0261185,776,610,-16.2721,18.9963
-441,414,-16.2715,-20.0469,0.000852421,0.00085793,-0.000608345,0.00146353,0.000246825,-0.787662,0.000904703,0.019005,783,610,-16.2716,20.0469
-434,414,-16.3785,-21.0586,0.00162807,0.000913947,-0.00105314,0.00238303,0.000158984,-0.621958,0.00153843,0.0107325,790,610,-16.3785,21.0586
-427,414,-16.441,-22.0571,0.00234165,0.0012356,-0.00156531,0.00344875,0.000128497,-0.615591,0.00225755,0.0115001,797,610,-16.441,22.0571
-420,414,-16.4852,-23.0312,0.00291722,0.00172479,-0.00203716,0.00444361,0.000198395,-0.64304,0.00289854,0.0111858,804,610,-16.4852,23.0312
-413,414,-16.5641,-24.0364,0.00330675,0.00244663,-0.00245291,0.00536701,0.000386361,-0.698617,0.00345643,0.0122199,811,610,-16.5641,24.0364
-406,414,-16.5913,-25.2583,0.00373797,0.00358604,-0.00310035,0.00676329,0.000560725,-0.773149,0.00433406,0.048494,818,610,-16.5913,25.2583
-399,414,-16.4612,-26.4935,0,0,0,0,0,0,0,-1,825,610,-16.4612,26.4935
-392,414,-9.43781,-14.5624,0,0,0,0,0,0,0,-1,832,610,-9.43779,14.5624
-385,414,-8.14691,-13.0653,0,0,0,0,0,0,0,-1,839,610,-8.14692,13.0653
-378,414,-8.04907,-11.3331,0,0,0,0,0,0,0,-1,846,610,-8.04905,11.3331
-371,414,-5.20886,-8.05151,0,0,0,0,0,0,0,-1,853,610,-5.20887,8.05153
-364,414,-6.76282,-6.58759,0,0,0,0,0,0,0,-1,860,610,-6.7628,6.58756
-357,414,-9.08685,-8.86188,0,0,0,0,0,0,0,-1,867,610,-9.08688,8.86187
-350,414,-6.4502,-2.41821,0,0,0,0,0,0,0,-1,874,610,-6.45021,2.41822
-343,414,-6.80249,-2.32117,0,0,0,0,0,0,0,-1,881,610,-6.80252,2.32116
-336,414,-7.11017,-2.52026,0,0,0,0,0,0,0,-1,888,610,-7.11016,2.52026
-329,414,-7.59747,-2.70313,0,0,0,0,0,0,0,-1,895,610,-7.59747,2.70315
-322,414,-4.42236,-1.29163,0,0,0,0,0,0,0,-1,902,610,-4.42238,1.2916
-315,414,0,0,0,0,0,0,0,0,0,-1,909,610,0,0
-308,414,0,0,0,0,0,0,0,0,0,-1,916,610,0,0
-301,414,0,0,0,0,0,0,0,0,0,-1,923,610,0,0
-294,414,0,0,0,0,0,0,0,0,0,-1,930,610,0,0
-287,414,0,0,0,0,0,0,0,0,0,-1,937,610,0,0
-280,414,0,0,0,0,0,0,0,0,0,-1,944,610,0,0
-273,414,0,0,0,0,0,0,0,0,0,-1,951,610,0,0
-266,414,0,0,0,0,0,0,0,0,0,-1,958,610,0,0
-259,414,0,0,0,0,0,0,0,0,0,-1,965,610,0,0
-252,414,0,0,0,0,0,0,0,0,0,-1,972,610,0,0
-245,414,0,0,0,0,0,0,0,0,0,-1,979,610,0,0
-238,414,0,0,0,0,0,0,0,0,0,-1,986,610,0,0
-231,414,0,0,0,0,0,0,0,0,0,-1,993,610,0,0
-224,414,0,0,0,0,0,0,0,0,0,-1,1000,610,0,0
-217,414,0,0,0,0,0,0,0,0,0,-1,1007,610,0,0
-210,414,0,0,0,0,0,0,0,0,0,-1,1014,610,0,0
-203,414,0,0,0,0,0,0,0,0,0,-1,1021,610,0,0
-196,414,0,0,0,0,0,0,0,0,0,-1,1028,610,0,0
-189,414,0,0,0,0,0,0,0,0,0,-1,1035,610,0,0
-182,414,0,0,0,0,0,0,0,0,0,-1,1042,610,0,0
-175,414,0,0,0,0,0,0,0,0,0,-1,1049,610,0,0
-168,414,0,0,0,0,0,0,0,0,0,-1,1056,610,0,0
-161,414,0,0,0,0,0,0,0,0,0,-1,1063,610,0,0
-154,414,0,0,0,0,0,0,0,0,0,-1,1070,610,0,0
-147,414,0,0,0,0,0,0,0,0,0,-1,1077,610,0,0
-140,414,0,0,0,0,0,0,0,0,0,-1,1084,610,0,0
-133,414,0,0,0,0,0,0,0,0,0,-1,1091,610,0,0
-126,414,0,0,0,0,0,0,0,0,0,-1,1098,610,0,0
-119,414,0,0,0,0,0,0,0,0,0,-1,1105,610,0,0
-112,414,0,0,0,0,0,0,0,0,0,-1,1112,610,0,0
-105,414,0,0,0,0,0,0,0,0,0,-1,1119,610,0,0
-98,414,0,0,0,0,0,0,0,0,0,-1,1126,610,0,0
-91,414,0,0,0,0,0,0,0,0,0,-1,1133,610,0,0
-84,414,0,0,0,0,0,0,0,0,0,-1,1140,610,0,0
-77,414,0,0,0,0,0,0,0,0,0,-1,1147,610,0,0
-70,414,0,0,0,0,0,0,0,0,0,-1,1154,610,0,0
-63,414,0,0,0,0,0,0,0,0,0,-1,1161,610,0,0
-56,414,0,0,0,0,0,0,0,0,0,-1,1168,610,0,0
-49,414,0,0,0,0,0,0,0,0,0,-1,1175,610,0,0
-42,414,0,0,0,0,0,0,0,0,0,-1,1182,610,0,0
-35,414,0,0,0,0,0,0,0,0,0,-1,1189,610,0,0
-28,414,0,0,0,0,0,0,0,0,0,-1,1196,610,0,0
-21,414,0,0,0,0,0,0,0,0,0,-1,1203,610,0,0
-14,414,0,0,0,0,0,0,0,0,0,-1,1210,610,0,0
-7,414,0,0,0,0,0,0,0,0,0,-1,1217,610,0,0
0,414,0,0,0,0,0,0,0,0,0,-1,1224,610,0,0
7,414,0,0,0,0,0,0,0,0,0,-1,1231,610,0,0
14,414,0,0,0,0,0,0,0,0,0,-1,1238,610,0,0
21,414,0,0,0,0,0,0,0,0,0,-1,1245,610,0,0
28,414,0,0,0,0,0,0,0,0,0,-1,1252,610,0,0
35,414,0,0,0,0,0,0,0,0,0,-1,1259,610,0,0
42,414,0,0,0,0,0,0,0,0,0,-1,1266,610,0,0
49,414,0,0,0,0,0,0,0,0,0,-1,1273,610,0,0
56,414,0,0,0,0,0,0,0,0,0,-1,1280,610,0,0
63,414,0,0,0,0,0,0,0,0,0,-1,1287,610,0,0
70,414,0,0,0,0,0,0,0,0,0,-1,1294,610,0,0
77,414,0,0,0,0,0,0,0,0,0,-1,1301,610,0,0
84,414,0,0,0,0,0,0,0,0,0,-1,1308,610,0,0
91,414,0,0,0,0,0,0,0,0,0,-1,1315,610,0,0
98,414,0,0,0,0,0,0,0,0,0,-1,1322,610,0,0
105,414,0,0,0,0,0,0,0,0,0,-1,1329,610,0,0
112,414,0,0,0,0,0,0,0,0,0,-1,1336,610,0,0
119,414,0,0,0,0,0,0,0,0,0,-1,1343,610,0,0
126,414,0,0,0,0,0,0,0,0,0,-1,1350,610,0,0
133,414,0,0,0,0,0,0,0,0,0,-1,1357,610,0,0
140,414,0,0,0,0,0,0,0,0,0,-1,1364,610,0,0
147,414,0,0,0,0,0,0,0,0,0,-1,1371,610,0,0
154,414,0,0,0,0,0,0,0,0,0,-1,1378,610,0,0
161,414,0,0,0,0,0,0,0,0,0,-1,1385,610,0,0
168,414,0,0,0,0,0,0,0,0,0,-1,1392,610,0,0
175,414,0,0,0,0,0,0,0,0,0,-1,1399,610,0,0
182,414,0,0,0,0,0,0,0,0,0,-1,1406,610,0,0
189,414,0,0,0,0,0,0,0,0,0,-1,1413,610,0,0
196,414,0,0,0,0,0,0,0,0,0,-1,1420,610,0,0
203,414,0,0,0,0,0,0,0,0,0,-1,1427,610,0,0
210,414,0,0,0,0,0,0,0,0,0,-1,1434,610,0,0
217,414,0,0,0,0,0,0,0,0,0,-1,1441,610,0,0
224,414,0,0,0,0,0,0,0,0,0,-1,1448,610,0,0
231,414,0,0,0,0,0,0,0,0,0,-1,1455,610,0,0
238,414,0,0,0,0,0,0,0,0,0,-1,1462,610,0,0
245,414,0,0,0,0,0,0,0,0,0,-1,1469,610,0,0
252,414,0,0,0,0,0,0,0,0,0,-1,1476,610,0,0
259,414,0,0,0,0,0,0,0,0,0,-1,1483,610,0,0
266,414,0,0,0,0,0,0,0,0,0,-1,1490,610,0,0
273,414,0,0,0,0,0,0,0,0,0,-1,1497,610,0,0
280,414,0,0,0,0,0,0,0,0,0,-1,1504,610,0,0
287,414,0,0,0,0,0,0,0,0,0,-1,1511,610,0,0
294,414,0,0,0,0,0,0,0,0,0,-1,1518,610,0,0
301,414,0,0,0,0,0,0,0,0,0,-1,1525,610,0,0
308,414,0,0,0,0,0,0,0,0,0,-1,1532,610,0,0
315,414,0,0,0,0,0,0,0,0,0,-1,1539,610,0,0
322,414,0,0,0,0,0,0,0,0,0,-1,1546,610,0,0
329,414,0,0,0,0,0,0,0,0,0,-1,1553,610,0,0
336,414,0,0,0,0,0,0,0,0,0,-1,1560,610,0,0
343,414,0,0,0,0,0,0,0,0,0,-1,1567,610,0,0
350,414,0,0,0,0,0,0,0,0,0,-1,1574,610,0,0
357,414,0,0,0,0,0,0,0,0,0,-1,1581,610,0,0
364,414,0,0,0,0,0,0,0,0,0,-1,1588,610,0,0
371,414,0,0,0,0,0,0,0,0,0,-1,1595,610,0,0
378,414,0,0,0,0,0,0,0,0,0,-1,1602,610,0,0
385,414,0,0,0,0,0,0,0,0,0,-1,1609,610,0,0
392,414,0,0,0,0,0,0,0,0,0,-1,1616,610,0,0
399,414,0,0,0,0,0,0,0,0,0,-1,1623,610,0,0
406,414,0,0,0,0,0,0,0,0,0,-1,1630,610,0,0
413,414,0,0,0,0,0,0,0,0,0,-1,1637,610,0,0
420,414,0,0,0,0,0,0,0,0,0,-1,1644,610,0,0
427,414,0,0,0,0,0,0,0,0,0,-1,1651,610,0,0
434,414,0,0,0,0,0,0,0,0,0,-1,1658,610,0,0
441,414,7.84375,0.584412,0,0,0,0,0,0,0,-1,1665,610,7.84379,-0.584394
448,414,7.40808,1.25446,0,0,0,0,0,0,0,-1,1672,610,7.40807,-1.25446
455,414,6.3512,1.73846,0,0,0,0,0,0,0,-1,1679,610,6.3512,-1.73847
462,414,8.18103,3.22113,0,0,0,0,0,0,0,-1,1686,610,8.18108,-3.22112
469,414,8.38513,2.49579,0,0,0,0,0,0,0,-1,1693,610,8.38516,-2.49576
476,414,8.64099,1.71161,0,0,0,0,0,0,0,-1,1700,610,8.64097,-1.71164
483,414,8.62744,0.687622,0,0,0,0,0,0,0,-1,1707,610,8.62749,-0.687615
490,414,8.38831,-0.0302734,0,0,0,0,0,0,0,-1,1714,610,8.38835,0.0302913
497,414,4.71094,-0.110046,0,0,0,0,0,0,0,-1,1721,610,4.71089,0.110024
504,414,7.19568,-1.43835,0,0,0,0,0,0,0,-1,1728,610,7.19563,1.43836
511,414,5.94153,-1.28772,0,0,0,0,0,0,0,-1,1735,610,5.94151,1.28769
518,414,4.53381,-0.0996704,0,0,0,0,0,0,0,-1,1742,610,4.53378,0.0996819
525,414,6.18811,-1.64056,0,0,0,0,0,0,0,-1,1749,610,6.18814,1.64055
532,414,32.4541,-24.196,0,0,0,0,0,0,0,-1,1756,610,32.4541,24.196
539,414,33.465,-23.9007,0,0,0,0,0,0,0,-1,1763,610,33.465,23.9007
546,414,33.3807,-22.8923,0.00239719,-4.15154e-05,0.000455191,0.00247939,-0.000123708,0.178642,0.00169567,0.0187869,1770,610,33.3807,22.8923
553,414,33.348,-21.8943,0.00203276,0.000295313,0.000427053,0.00213206,0.000196021,0.228447,0.00136074,0.0144754,1777,610,33.348,21.8944
560,414,33.2832,-20.9235,0.00169892,0.000626363,0.000468523,0.00187476,0.000450526,0.359033,0.00113001,0.0166183,1784,610,33.2832,20.9234
567,414,33.2189,-19.9376,0.0015073,0.00106269,0.000665803,0.00198693,0.000583058,0.624273,0.00117933,0.0261677,1791,610,33.2189,19.9376
574,414,33.1362,-18.9369,0.00151834,0.00167464,0.00101717,0.00261666,0.000576323,0.823739,0.00158759,0.0248443,1798,610,33.1362,18.9369
581,414,33.0935,-17.8997,0.00170663,0.00239702,0.00152397,0.0036144,0.000489246,0.896773,0.00226421,0.0219625,1805,610,33.0935,17.8997
588,414,33.0273,-16.9604,0.00207263,0.00337295,0.00218117,0.00499879,0.000446782,0.930245,0.00319403,0.0204349,1812,610,33.0274,16.9604
595,414,32.9347,-15.9055,0.00267502,0.00456101,0.00304509,0.00680577,0.000430255,0.935554,0.00440078,0.0225248,1819,610,32.9347,15.9055
602,414,32.847,-14.8914,0.0035392,0.00611565,0.00412176,0.00914581,0.000509044,0.93686,0.0059348,0.0293283,1826,610,32.8471,14.8914
609,414,32.8038,-13.8756,0,0,0,0,0,0,0,-1,1833,610,32.8039,13.8756
616,414,33.1322,-12.4442,0,0,0,0,0,0,0,-1,1840,610,33.1322,12.4442
623,414,9.6969,0.0378418,0,0,0,0,0,0,0,-1,1847,610,9.69685,-0.0378644
630,414,5.47144,0.499329,0,0,0,0,0,0,0,-1,1854,610,5.47142,-0.499303
637,414,8.36707,4.16278,0,0,0,0,0,0,0,-1,1861,610,8.36709,-4.16278
644,414,5.87073,1.51422,0,0,0,0,0,0,0,-1,1868,610,5.87076,-1.51424
651,414,3.6377,0.820557,0,0,0,0,0,0,0,-1,1875,610,3.6377,-0.820543
658,414,2.29761,3.87323,0,0,0,0,0,0,0,-1,1882,610,2.29758,-3.87325
665,414,0,0,0,0,0,0,0,0,0,-1,1889,610,0,0
672,414,0,0,0,0,0,0,0,0,0,-1,1896,610,0,0
679,414,0,0,0,0,0,0,0,0,0,-1,1903,610,0,0
686,414,0,0,0,0,0,0,0,0,0,-1,1910,610,0,0
693,414,0,0,0,0,0,0,0,0,0,-1,1917,610,0,0
700,414,0,0,0,0,0,0,0,0,0,-1,1924,610,0,0
707,414,0,0,0,0,0,0,0,0,0,-1,1931,610,0,0
714,414,0,0,0,0,0,0,0,0,0,-1,1938,610,0,0
721,414,0,0,0,0,0,0,0,0,0,-1,1945,610,0,0
728,414,0,0,0,0,0,0,0,0,0,-1,1952,610,0,0
735,414,0,0,0,0,0,0,0,0,0,-1,1959,610,0,0
742,414,0,0,0,0,0,0,0,0,0,-1,1966,610,0,0
749,414,0,0,0,0,0,0,0,0,0,-1,1973,610,0,0
756,414,0,0,0,0,0,0,0,0,0,-1,1980,610,0,0
763,414,0,0,0,0,0,0,0,0,0,-1,1987,610,0,0
770,414,0,0,0,0,0,0,0,0,0,-1,1994,610,0,0
777,414,0,0,0,0,0,0,0,0,0,-1,2001,610,0,0
784,414,0,0,0,0,0,0,0,0,0,-1,2008,610,0,0
791,414,0,0,0,0,0,0,0,0,0,-1,2015,610,0,0
798,414,0,0,0,0,0,0,0,0,0,-1,2022,610,0,0
805,414,0,0,0,0,0,0,0,0,0,-1,2029,610,0,0
812,414,0,0,0,0,0,0,0,0,0,-1,2036,610,0,0
-700,407,0,0,0,0,0,0,0,0,0,-1,524,617,0,0
-693,407,0,0,0,0,0,0,0,0,0,-1,531,617,0,0
-686,407,0,0,0,0,0,0,0,0,0,-1,538,617,0,0
-679,407,0,0,0,0,0,0,0,0,0,-1,545,617,0,0
-672,407,0,0,0,0,0,0,0,0,0,-1,552,617,0,0
-665,407,0,0,0,0,0,0,0,0,0,-1,559,617,0,0
-658,407,0,0,0,0,0,0,0,0,0,-1,566,617,0,0
-651,407,0,0,0,0,0,0,0,0,0,-1,573,617,0,0
-644,407,0,0,0,0,0,0,0,0,0,-1,580,617,0,0
-637,407,0,0,0,0,0,0,0,0,0,-1,587,617,0,0
-630,407,0,0,0,0,0,0,0,0,0,-1,594,617,0,0
-623,407,0,0,0,0,0,0,0,0,0,-1,601,617,0,0
-616,407,0,0,0,0,0,0,0,0,0,-1,608,617,0,0
-609,407,0,0,0,0,0,0,0,0,0,-1,615,617,0,0
-602,407,0,0,0,0,0,0,0,0,0,-1,622,617,0,0
-595,407,0,0,0,0,0,0,0,0,0,-1,629,617,0,0
-588,407,0,0,0,0,0,0,0,0,0,-1,636,617,0,0
-581,407,0,0,0,0,0,0,0,0,0,-1,643,617,0,0
-574,407,0,0,0,0,0,0,0,0,0,-1,650,617,0,0
-567,407,0,0,0,0,0,0,0,0,0,-1,657,617,0,0
-560,407,0,0,0,0,0,0,0,0,0,-1,664,617,0,0
-553,407,0,0,0,0,0,0,0,0,0,-1,671,617,0,0
-546,407,-8.54517,-0.658142,0,0,0,0,0,0,0,-1,678,617,-8.54515,0.658112
-539,407,-6.09442,-1.01154,0,0,0,0,0,0,0,-1,685,617,-6.09441,1.01155
-532,407,-7.75665,1.62152,0,0,0,0,0,0,0,-1,692,617,-7.75667,-1.62154
-525,407,-3.78247,-2.67639,0,0,0,0,0,0,0,-1,699,617,-3.78246,2.67638
-518,407,-5.013,-5.87323,0,0,0,0,0,0,0,-1,706,617,-5.013,5.87324
-511,407,-9.42743,-4.94189,0,0,0,0,0,0,0,-1,713,617,-9.42745,4.94191
-504,407,-10.8291,-8.05927,0,0,0,0,0,0,0,-1,720,617,-10.8291,8.05927
-497,407,-9.84467,-6.81641,0,0,0,0,0,0,0,-1,727,617,-9.84468,6.8164
-490,407,-17.1186,-12.8568,0,0,0,0,0,0,0,-1,734,617,-17.1186,12.8568
-483,407,-16.8369,-13.8365,0,0,0,0,0,0,0,-1,741,617,-16.8369,13.8365
-476,407,-16.9395,-14.8754,-0.00280833,0.00234225,0.00119239,0.00260491,-0.00307098,1.35399,0.00328065,0.0169173,748,617,-16.9395,14.8754
-469,407,-17.0211,-15.8713,-0.00207633,0.00173471,0.000846538,0.00191429,-0.00225591,1.36176,0.00241036,0.0140083,755,617,-17.0211,15.8713
-462,407,-17.1394,-16.8641,-0.00118334,0.00120995,0.00046556,0.00129733,-0.00127071,1.38528,0.00148269,0.0207166,762,617,-17.1394,16.8642
-455,407,-17.2214,-17.9184,-0.000297046,0.000882591,3.33449e-05,0.000883533,-0.000297988,1.54256,0.000709525,0.0224758,769,617,-17.2214,17.9184
-448,407,-17.2069,-18.959,0.000601287,0.000663697,-0.000410483,0.00104416,0.000220825,-0.823335,0.00063542,0.0210913,776,617,-17.2069,18.9591
-441,407,-17.2592,-19.9537,0.0014796,0.000666055,-0.000906325,0.00206625,7.94061e-05,-0.574463,0.00135181,0.0163761,783,617,-17.2592,19.9537
-434,407,-17.3917,-20.9413,0.00229832,0.000860056,-0.00141816,0.00316927,-1.08856e-05,-0.550747,0.00211648,0.0120118,790,617,-17.3917,20.9413
-427,407,-17.4504,-21.9534,0.00308354,0.00132412,-0.00203337,0.00441934,-1.16737e-05,-0.581237,0.00295012,0.0124025,797,617,-17.4504,21.9534
-420,407,-17.4753,-22.9501,0.00369636,0.0019738,-0.00258596,0.00556069,0.000109466,-0.624646,0.00367118,0.0115459,804,617,-17.4753,22.9502
-413,407,-17.5334,-23.9569,0.00416578,0.00299164,-0.00315685,0.00678969,0.000367737,-0.693464,0.00440899,0.0206484,811,617,-17.5334,23.9569
-406,407,-17.3969,-25.1789,0,0,0,0,0,0,0,-1,818,617,-17.3969,25.1789
-399,407,-16.5686,-23.1791,0,0,0,0,0,0,0,-1,825,617,-16.5686,23.1791
-392,407,-8.33612,-12.195,0,0,0,0,0,0,0,-1,832,617,-8.33611,12.195
-385,407,-7.65765,-10.7744,0,0,0,0,0,0,0,-1,839,617,-7.65767,10.7744
-378,407,-6.08655,-7.42291,0,0,0,0,0,0,0,-1,846,617,-6.08652,7.42292
-371,407,-7.4007,-5.79449,0,0,0,0,0,0,0,-1,853,617,-7.40072,5.79447
-364,407,-10.0638,-6.6228,0,0,0,0,0,0,0,-1,860,617,-10.0639,6.62279
-357,407,-6.64447,-1.83337,0,0,0,0,0,0,0,-1,867,617,-6.64446,1.8334
-350,407,-7.03351,-1.77551,0,0,0,0,0,0,0,-1,874,617,-7.03349,1.77551
-343,407,-7.40967,-1.95026,0,0,0,0,0,0,0,-1,881,617,-7.40969,1.95026
-336,407,-8.10229,-2.40662,0,0,0,0,0,0,0,-1,888,617,-8.10229,2.40664
-329,407,-8.81232,-2.76331,0,0,0,0,0,0,0,-1,895,617,-8.81235,2.76331
-322,407,0,0,0,0,0,0,0,0,0,-1,902,617,0,0
-315,407,0,0,0,0,0,0,0,0,0,-1,909,617,0,0
-308,407,0,0,0,0,0,0,0,0,0,-1,916,617,0,0
-301,407,0,0,0,0,0,0,0,0,0,-1,923,617,0,0
-294,407,0,0,0,0,0,0,0,0,0,-1,930,617,0,0
-287,407,0,0,0,0,0,0,0,0,0,-1,937,617,0,0
-280,407,0,0,0,0,0,0,0,0,0,-1,944,617,0,0
-273,407,0,0,0,0,0,0,0,0,0,-1,951,617,0,0
-266,407,0,0,0,0,0,0,0,0,0,-1,958,617,0,0
-259,407,0,0,0,0,0,0,0,0,0,-1,965,617,0,0
-252,407,0,0,0,0,0,0,0,0,0,-1,972,617,0,0
-245,407,0,0,0,0,0,0,0,0,0,-1,979,617,0,0
-238,407,0,0,0,0,0,0,0,0,0,-1,986,617,0,0
-231,407,0,0,0,0,0,0,0,0,0,-1,993,617,0,0
-224,407,0,0,0,0,0,0,0,0,0,-1,1000,617,0,0
-217,407,0,0,0,0,0,0,0,0,0,-1,1007,617,0,0
-210,407,0,0,0,0,0,0,0,0,0,-1,1014,617,0,0
-203,407,0,0,0,0,0,0,0,0,0,-1,1021,617,0,0
-196,407,0,0,0,0,0,0,0,0,0,-1,1028,617,0,0
-189,407,0,0,0,0,0,0,0,0,0,-1,1035,617,0,0
-182,407,0,0,0,0,0,0,0,0,0,-1,1042,617,0,0
-175,407,0,0,0,0,0,0,0,0,0,-1,1049,617,0,0
-168,407,0,0,0,0,0,0,0,0,0,-1,1056,617,0,0
-161,407,0,0,0,0,0,0,0,0,0,-1,1063,617,0,0
-154,407,0,0,0,0,0,0,0,0,0,-1,1070,617,0,0
-147,407,0,0,0,0,0,0,0,0,0,-1,1077,617,0,0
-140,407,0,0,0,0,0,0,0,0,0,-1,1084,617,0,0
-133,407,0,0,0,0,0,0,0,0,0,-1,1091,617,0,0
-126,407,0,0,0,0,0,0,0,0,0,-1,1098,617,0,0
-119,407,0,0,0,0,0,0,0,0,0,-1,1105,617,0,0
-112,407,0,0,0,0,0,0,0,0,0,-1,1112,617,0,0
-105,407,0,0,0,0,0,0,0,0,0,-1,1119,617,0,0
-98,407,0,0,0,0,0,0,0,0,0,-1,1126,617,0,0
-91,407,0,0,0,0,0,0,0,0,0,-1,1133,617,0,0
-84,407,0,0,0,0,0,0,0,0,0,-1,1140,617,0,0
-77,407,0,0,0,0,0,0,0,0,0,-1,1147,617,0,0
-70,407,0,0,0,0,0,0,0,0,0,-1,1154,617,0,0
-63,407,0,0,0,0,0,0,0,0,0,-1,1161,617,0,0
-56,407,0,0,0,0,0,0,0,0,0,-1,1168,617,0,0
-49,407,0,0,0,0,0,0,0,0,0,-1,1175,617,0,0
-42,407,0,0,0,0,0,0,0,0,0,-1,1182,617,0,0
-35,407,0,0,0,0,0,0,0,0,0,-1,1189,617,0,0
-28,407,0,0,0,0,0,0,0,0,0,-1,1196,617,0,0
-21,407,0,0,0,0,0,0,0,0,0,-1,1203,617,0,0
-14,407,0,0,0,0,0,0,0,0,0,-1,1210,617,0,0
-7,407,0,0,0,0,0,0,0,0,0,-1,1217,617,0,0
0,407,0,0,0,0,0,0,0,0,0,-1,1224,617,0,0
7,407,0,0,0,0,0,0,0,0,0,-1,1231,617,0,0
14,407,0,0,0,0,0,0,0,0,0,-1,1238,617,0,0
21,407,0,0,0,0,0,0,0,0,0,-1,1245,617,0,0
28,407,0,0,0,0,0,0,0,0,0,-1,1252,617,0,0
35,407,0,0,0,0,0,0,0,0,0,-1,1259,617,0,0
42,407,0,0,0,0,0,0,0,0,0,-1,1266,617,0,0
49,407,0,0,0,0,0,0,0,0,0,-1,1273,617,0,0
56,407,0,0,0,0,0,0,0,0,0,-1,1280,617,0,0
63,407,0,0,0,0,0,0,0,0,0,-1,1287,617,0,0
70,407,0,0,0,0,0,0,0,0,0,-1,1294,617,0,0
77,407,0,0,0,0,0,0,0,0,0,-1,1301,617,0,0
84,407,0,0,0,0,0,0,0,0,0,-1,1308,617,0,0
91,407,0,0,0,0,0,0,0,0,0,-1,1315,617,0,0
98,407,0,0,0,0,0,0,0,0,0,-1,1322,617,0,0
105,407,0,0,0,0,0,0,0,0,0,-1,1329,617,0,0
112,407,0,0,0,0,0,0,0,0,0,-1,1336,617,0,0
119,407,0,0,0,0,0,0,0,0,0,-1,1343,617,0,0
126,407,0,0,0,0,0,0,0,0,0,-1,1350,617,0,0
133,407,0,0,0,0,0,0,0,0,0,-1,1357,617,0,0
140,407,0,0,0,0,0,0,0,0,0,-1,1364,617,0,0
147,407,0,0,0,0,0,0,0,0,0,-1,1371,617,0,0
154,407,0,0,0,0,0,0,0,0,0,-1,1378,617,0,0
161,407,0,0,0,0,0,0,0,0,0,-1,1385,617,0,0
168,407,0,0,0,0,0,0,0,0,0,-1,1392,617,0,0
175,407,0,0,0,0,0,0,0,0,0,-1,1399,617,0,0
182,407,0,0,0,0,0,0,0,0,0,-1,1406,617,0,0
189,407,0,0,0,0,0,0,0,0,0,-1,1413,617,0,0
196,407,0,0,0,0,0,0,0,0,0,-1,1420,617,0,0
203,407,0,0,0,0,0,0,0,0,0,-1,1427,617,0,0
210,407,0,0,0,0,0,0,0,0,0,-1,1434,617,0,0
217,407,0,0,0,0,0,0,0,0,0,-1,1441,617,0,0
224,407,0,0,0,0,0,0,0,0,0,-1,1448,617,0,0
231,407,0,0,0,0,0,0,0,0,0,-1,1455,617,0,0
238,407,0,0,0,0,0,0,0,0,0,-1,1462,617,0,0
245,407,0,0,0,0,0,0,0,0,0,-1,1469,617,0,0
252,407,0,0,0,0,0,0,0,0,0,-1,1476,617,0,0
259,407,0,0,0,0,0,0,0,0,0,-1,1483,617,0,0
266,407,0,0,0,0,0,0,0,0,0,-1,1490,617,0,0
273,407,0,0,0,0,0,0,0,0,0,-1,1497,617,0,0
280,407,0,0,0,0,0,0,0,0,0,-1,1504,617,0,0
287,407,0,0,0,0,0,0,0,0,0,-1,1511,617,0,0
294,407,0,0,0,0,0,0,0,0,0,-1,1518,617,0,0
301,407,0,0,0,0,0,0,0,0,0,-1,1525,617,0,0
308,407,0,0,0,0,0,0,0,0,0,-1,1532,617,0,0
315,407,0,0,0,0,0,0,0,0,0,-1,1539,617,0,0
322,407,0,0,0,0,0,0,0,0,0,-1,1546,617,0,0
329,407,0,0,0,0,0,0,0,0,0,-1,1553,617,0,0
336,407,0,0,0,0,0,0,0,0,0,-1,1560,617,0,0
343,407,0,0,0,0,0,0,0,0,0,-1,1567,617,0,0
350,407,0,0,0,0,0,0,0,0,0,-1,1574,617,0,0
357,407,0,0,0,0,0,0,0,0,0,-1,1581,617,0,0
364,407,0,0,0,0,0,0,0,0,0,-1,1588,617,0,0
371,407,0,0,0,0,0,0,0,0,0,-1,1595,617,0,0
378,407,0,0,0,0,0,0,0,0,0,-1,1602,617,0,0
385,407,0,0,0,0,0,0,0,0,0,-1,1609,617,0,0
392,407,0,0,0,0,0,0,0,0,0,-1,1616,617,0,0
399,407,0,0,0,0,0,0,0,0,0,-1,1623,617,0,0
406,407,0,0,0,0,0,0,0,0,0,-1,1630,617,0,0
413,407,0,0,0,0,0,0,0,0,0,-1,1637,617,0,0
420,407,0,0,0,0,0,0,0,0,0,-1,1644,617,0,0
427,407,0,0,0,0,0,0,0,0,0,-1,1651,617,0,0
434,407,0,0,0,0,0,0,0,0,0,-1,1658,617,0,0
441,407,0,0,0,0,0,0,0,0,0,-1,1665,617,0,0
448,407,7.02893,2.13843,0,0,0,0,0,0,0,-1,1672,617,7.02899,-2.13844
455,407,7.55237,2.29242,0,0,0,0,0,0,0,-1,1679,617,7.55236,-2.29244
462,407,8.2926,2.46173,0,0,0,0,0,0,0,-1,1686,617,8.29261,-2.46174
469,407,8.71509,2.22681,0,0,0,0,0,0,0,-1,1693,617,8.71511,-2.22681
476,407,8.89917,1.47766,0,0,0,0,0,0,0,-1,1700,617,8.89914,-1.47768
483,407,9.02612,0.682983,0,0,0,0,0,0,0,-1,1707,617,9.02608,-0.683004
490,407,9.12659,0.000671387,0,0,0,0,0,0,0,-1,1714,617,9.12653,-0.000675931
497,407,7.76819,0.855835,0,0,0,0,0,0,0,-1,1721,617,7.7682,-0.855865
504,407,4.69336,0.160706,0,0,0,0,0,0,0,-1,1728,617,4.69337,-0.1607
511,407,4.07104,-0.00140381,0,0,0,0,0,0,0,-1,1735,617,4.07109,0.00141425
518,407,6.09534,1.9411,0,0,0,0,0,0,0,-1,1742,617,6.09532,-1.94113
525,407,5.72534,-1.35986,0,0,0,0,0,0,0,-1,1749,617,5.72529,1.35988
532,407,18.5767,-10.6388,0,0,0,0,0,0,0,-1,1756,617,18.5766,10.6388
539,407,34.3173,-23.9511,0,0,0,0,0,0,0,-1,1763,617,34.3173,23.9511
546,407,34.4111,-22.8486,0.00267403,3.58701e-05,0.000573116,0.00279315,-8.32551e-05,0.204937,0.00189047,0.0310801,1770,617,34.4111,22.8486
553,407,34.3372,-21.8576,0.00226086,0.000211137,0.000460368,0.00235951,0.000112486,0.211095,0.00153688,0.0183558,1777,617,34.3372,21.8576
560,407,34.3129,-20.8461,0.00186056,0.00036408,0.000385071,0.00195383,0.000270808,0.237644,0.00122233,0.0187769,1784,617,34.3129,20.8461
567,407,34.2341,-19.8757,0.001562,0.000593535,0.000438353,0.00173094,0.000424594,0.367855,0.00104168,0.0318666,1791,617,34.2341,19.8757
574,407,34.1416,-18.8851,0.001497,0.00107673,0.000702086,0.00201972,0.000554006,0.639993,0.00120504,0.0280409,1798,617,34.1416,18.8851
581,407,34.0548,-17.8152,0.00161432,0.00169628,0.00112689,0.00278294,0.00052766,0.803573,0.00170681,0.0191972,1805,617,34.0548,17.8152
588,407,33.9611,-16.8439,0.00191798,0.00256295,0.00169139,0.00396232,0.00051861,0.879598,0.00248677,0.0149917,1812,617,33.9611,16.8439
595,407,33.9642,-15.8613,0.00246801,0.0036114,0.00245507,0.00556046,0.000518949,0.899792,0.00354667,0.0288205,1819,617,33.9643,15.8613
602,407,33.8979,-14.7806,0.00327262,0.00495311,0.00341098,0.00762581,0.00059991,0.906161,0.00489617,0.0225366,1826,617,33.8979,14.7806
609,407,33.7594,-13.7546,0.00450509,0.00663273,0.00466759,0.0103562,0.000781627,0.897443,0.0066589,0.0227586,1833,617,33.7594,13.7546
616,407,33.8021,-12.5584,0.00619532,0.00863509,0.00615115,0.0136861,0.00114427,0.883287,0.0087676,0.0421979,1840,617,33.8021,12.5584
623,407,34.105,-11.1891,0,0,0,0,0,0,0,-1,1847,617,34.105,11.1891
630,407,7.06177,0.814575,0,0,0,0,0,0,0,-1,1854,617,7.06178,-0.814579
637,407,11.1063,0.391846,0,0,0,0,0,0,0,-1,1861,617,11.1063,-0.391862
644,407,5.09766,2.27747,0,0,0,0,0,0,0,-1,1868,617,5.09764,-2.27746
651,407,7.37524,0.0513916,0,0,0,0,0,0,0,-1,1875,617,7.3752,-0.0513923
658,407,3.76685,0.594177,0,0,0,0,0,0,0,-1,1882,617,3.76683,-0.594184
665,407,5.76123,0.375061,0,0,0,0,0,0,0,-1,1889,617,5.76118,-0.37509
672,407,0,0,0,0,0,0,0,0,0,-1,1896,617,0,0
679,407,0,0,0,0,0,0,0,0,0,-1,1903,617,0,0
686,407,0,0,0,0,0,0,0,0,0,-1,1910,617,0,0
693,407,0,0,0,0,0,0,0,0,0,-1,1917,617,0,0
700,407,0,0,0,0,0,0,0,0,0,-1,1924,617,0,0
707,407,0,0,0,0,0,0,0,0,0,-1,1931,617,0,0
714,407,0,0,0,0,0,0,0,0,0,-1,1938,617,0,0
721,407,0,0,0,0,0,0,0,0,0,-1,1945,617,0,0
728,407,0,0,0,0,0,0,0,0,0,-1,1952,617,0,0
735,407,0,0,0,0,0,0,0,0,0,-1,1959,617,0,0
742,407,0,0,0,0,0,0,0,0,0,-1,1966,617,0,0
749,407,0,0,0,0,0,0,0,0,0,-1,1973,617,0,0
756,407,0,0,0,0,0,0,0,0,0,-1,1980,617,0,0
763,407,0,0,0,0,0,0,0,0,0,-1,1987,617,0,0
770,407,0,0,0,0,0,0,0,0,0,-1,1994,617,0,0
777,407,0,0,0,0,0,0,0,0,0,-1,2001,617,0,0
784,407,0,0,0,0,0,0,0,0,0,-1,2008,617,0,0
791,407,0,0,0,0,0,0,0,0,0,-1,2015,617,0,0
798,407,0,0,0,0,0,0,0,0,0,-1,2022,617,0,0
805,407,0,0,0,0,0,0,0,0,0,-1,2029,617,0,0
812,407,0,0,0,0,0,0,0,0,0,-1,2036,617,0,0
-700,400,0,0,0,0,0,0,0,0,0,-1,524,624,0,0
-693,400,0,0,0,0,0,0,0,0,0,-1,531,624,0,0
-686,400,0,0,0,0,0,0,0,0,0,-1,538,624,0,0
-679,400,0,0,0,0,0,0,0,0,0,-1,545,624,0,0
-672,400,0,0,0,0,0,0,0,0,0,-1,552,624,0,0
-665,400,0,0,0,0,0,0,0,0,0,-1,559,624,0,0
-658,400,0,0,0,0,0,0,0,0,0,-1,566,624,0,0
-651,400,0,0,0,0,0,0,0,0,0,-1,573,624,0,0
-644,400,0,0,0,0,0,0,0,0,0,-1,580,624,0,0
-637,400,0,0,0,0,0,0,0,0,0,-1,587,624,0,0
-630,400,0,0,0,0,0,0,0,0,0,-1,594,624,0,0
-623,400,0,0,0,0,0,0,0,0,0,-1,601,624,0,0
-616,400,0,0,0,0,0,0,0,0,0,-1,608,624,0,0
-609,400,0,0,0,0,0,0,0,0,0,-1,615,624,0,0
-602,400,0,0,0,0,0,0,0,0,0,-1,622,624,0,0
-595,400,0,0,0,0,0,0,0,0,0,-1,629,624,0,0
-588,400,0,0,0,0,0,0,0,0,0,-1,636,624,0,0
-581,400,0,0,0,0,0,0,0,0,0,-1,643,624,0,0
-574,400,0,0,0,0,0,0,0,0,0,-1,650,624,0,0
-567,400,0,0,0,0,0,0,0,0,0,-1,657,624,0,0
-560,400,0,0,0,0,0,0,0,0,0,-1,664,624,0,0
-553,400,0,0,0,0,0,0,0,0,0,-1,671,624,0,0
-546,400,-8.41174,-1.4599,0,0,0,0,0,0,0,-1,678,624,-8.41173,1.45989
-539,400,-5.69104,-1.7337,0,0,0,0,0,0,0,-1,685,624,-5.69103,1.7337
-532,400,-3.03632,-2.03912,0,0,0,0,0,0,0,-1,692,624,-3.03632,2.03909
-525,400,-6.20813,-7.04071,0,0,0,0,0,0,0,-1,699,624,-6.20814,7.04071
-518,400,-5.26544,-1.58661,0,0,0,0,0,0,0,-1,706,624,-5.26544,1.58658
-511,400,-10.6307,-6.7121,0,0,0,0,0,0,0,-1,713,624,-10.6307,6.71209
-504,400,-10.2663,-6.55109,0,0,0,0,0,0,0,-1,720,624,-10.2663,6.55106
-497,400,-18.0474,-11.436,0,0,0,0,0,0,0,-1,727,624,-18.0474,11.4361
-490,400,-17.8159,-12.6253,-0.00179504,0.00279304,0.000682854,0.00289252,-0.00189451,1.42614,0.00278374,0.0440543,734,624,-17.8158,12.6253
-483,400,-17.8624,-13.7877,-0.00179342,0.00217352,0.000707115,0.0022958,-0.0019157,1.39957,0.00243481,0.0177766,741,624,-17.8624,13.7877
-476,400,-17.9486,-14.8044,-0.00155683,0.00167577,0.000593787,0.00178139,-0.00166245,1.39476,0.0019887,0.0149488,748,624,-17.9486,14.8044
-469,400,-18.0487,-15.8141,-0.00103098,0.0011904,0.000372541,0.00125121,-0.00109179,1.40899,0.00135378,0.0165545,755,624,-18.0487,15.8141
-462,400,-18.1027,-16.8492,-0.000333085,0.000763336,8.07951e-05,0.000769258,-0.000339007,1.49763,0.000655733,0.0205549,762,624,-18.1027,16.8492
-455,400,-18.1559,-17.8657,0.000433146,0.000571528,-0.000319613,0.000829353,0.00017532,-0.891995,0.000504716,0.0214455,769,624,-18.1559,17.8657
-448,400,-18.2026,-18.8728,0.00127102,0.000434595,-0.000745434,0.00170755,-1.92836e-06,-0.529761,0.00113901,0.0170879,776,624,-18.2026,18.8728
-441,400,-18.2767,-19.8346,0.00214349,0.000518911,-0.00126092,0.00283111,-0.000168713,-0.499254,0.00194609,0.0162939,783,624,-18.2767,19.8346
-434,400,-18.3862,-20.8305,0.00304113,0.000839168,-0.00185509,0.00409735,-0.000217056,-0.517588,0.00280672,0.0134137,790,624,-18.3862,20.8305
-427,400,-18.4633,-21.8376,0.00392699,0.00141111,-0.00256785,0.00552847,-0.000190367,-0.557638,0.00375071,0.0118416,797,624,-18.4633,21.8376
-420,400,-18.4326,-22.9044,0.00459276,0.00217085,-0.00318817,0.00679221,-2.85942e-05,-0.6039,0.0045377,0.0258551,804,624,-18.4325,22.9044
-413,400,-18.3835,-24.0581,0,0,0,0,0,0,0,-1,811,624,-18.3835,24.0581
-406,400,-18.9557,-24.3765,0,0,0,0,0,0,0,-1,818,624,-18.9557,24.3766
-399,400,-11.0176,-13.2944,0,0,0,0,0,0,0,-1,825,624,-11.0176,13.2944
-392,400,-4.92285,-6.63354,0,0,0,0,0,0,0,-1,832,624,-4.92285,6.63354
-385,400,-3.68738,-5.04205,0,0,0,0,0,0,0,-1,839,624,-3.68736,5.04207
-378,400,-6.84064,-1.28662,0,0,0,0,0,0,0,-1,846,624,-6.84062,1.28662
-371,400,-6.98865,-1.2572,0,0,0,0,0,0,0,-1,853,624,-6.98865,1.25721
-364,400,-6.97247,-1.24133,0,0,0,0,0,0,0,-1,860,624,-6.97249,1.24135
-357,400,-7.18329,-1.23218,0,0,0,0,0,0,0,-1,867,624,-7.18327,1.2322
-350,400,-7.40186,-1.19409,0,0,0,0,0,0,0,-1,874,624,-7.40187,1.19407
-343,400,-8.09357,-1.51147,0,0,0,0,0,0,0,-1,881,624,-8.09355,1.51148
-336,400,0,0,0,0,0,0,0,0,0,-1,888,624,0,0
-329,400,0,0,0,0,0,0,0,0,0,-1,895,624,0,0
-322,400,0,0,0,0,0,0,0,0,0,-1,902,624,0,0
-315,400,0,0,0,0,0,0,0,0,0,-1,909,624,0,0
-308,400,0,0,0,0,0,0,0,0,0,-1,916,624,0,0
-301,400,0,0,0,0,0,0,0,0,0,-1,923,624,0,0
-294,400,0,0,0,0,0,0,0,0,0,-1,930,624,0,0
-287,400,0,0,0,0,0,0,0,0,0,-1,937,624,0,0
-280,400,0,0,0,0,0,0,0,0,0,-1,944,624,0,0
-273,400,0,0,0,0,0,0,0,0,0,-1,951,624,0,0
-266,400,0,0,0,0,0,0,0,0,0,-1,958,624,0,0
-259,400,0,0,0,0,0,0,0,0,0,-1,965,624,0,0
-252,400,0,0,0,0,0,0,0,0,0,-1,972,624,0,0
-245,400,0,0,0,0,0,0,0,0,0,-1,979,624,0,0
-238,400,0,0,0,0,0,0,0,0,0,-1,986,624,0,0
-231,400,0,0,0,0,0,0,0,0,0,-1,993,624,0,0
-224,400,0,0,0,0,0,0,0,0,0,-1,1000,624,0,0
-217,400,0,0,0,0,0,0,0,0,0,-1,1007,624,0,0
-210,400,0,0,0,0,0,0,0,0,0,-1,1014,624,0,0
-203,400,0,0,0,0,0,0,0,0,0,-1,1021,624,0,0
-196,400,0,0,0,0,0,0,0,0,0,-1,1028,624,0,0
-189,400,0,0,0,0,0,0,0,0,0,-1,1035,624,0,0
-182,400,0,0,0,0,0,0,0,0,0,-1,1042,624,0,0
-175,400,0,0,0,0,0,0,0,0,0,-1,1049,624,0,0
-168,400,0,0,0,0,0,0,0,0,0,-1,1056,624,0,0
-161,400,0,0,0,0,0,0,0,0,0,-1,1063,624,0,0
-154,400,0,0,0,0,0,0,0,0,0,-1,1070,624,0,0
-147,400,0,0,0,0,0,0,0,0,0,-1,1077,624,0,0
-140,400,0,0,0,0,0,0,0,0,0,-1,1084,624,0,0
-133,400,0,0,0,0,0,0,0,0,0,-1,1091,624,0,0
-126,400,0,0,0,0,0,0,0,0,0,-1,1098,624,0,0
-119,400,0,0,0,0,0,0,0,0,0,-1,1105,624,0,0
-112,400,0,0,0,0,0,0,0,0,0,-1,1112,624,0,0
-105,400,0,0,0,0,0,0,0,0,0,-1,1119,624,0,0
-98,400,0,0,0,0,0,0,0,0,0,-1,1126,624,0,0
-91,400,0,0,0,0,0,0,0,0,0,-1,1133,624,0,0
-84,400,0,0,0,0,0,0,0,0,0,-1,1140,624,0,0
-77,400,0,0,0,0,0,0,0,0,0,-1,1147,624,0,0
-70,400,0,0,0,0,0,0,0,0,0,-1,1154,624,0,0
-63,400,0,0,0,0,0,0,0,0,0,-1,1161,624,0,0
-56,400,0,0,0,0,0,0,0,0,0,-1,1168,624,0,0
-49,400,0,0,0,0,0,0,0,0,0,-1,1175,624,0,0
-42,400,0,0,0,0,0,0,0,0,0,-1,1182,624,0,0
-35,400,0,0,0,0,0,0,0,0,0,-1,1189,624,0,0
-28,400,0,0,0,0,0,0,0,0,0,-1,1196,624,0,0
-21,400,0,0,0,0,0,0,0,0,0,-1,1203,624,0,0
-14,400,0,0,0,0,0,0,0,0,0,-1,1210,624,0,0
-7,400,0,0,0,0,0,0,0,0,0,-1,1217,624,0,0
0,400,0,0,0,0,0,0,0,0,0,-1,1224,624,0,0
7,400,0,0,0,0,0,0,0,0,0,-1,1231,624,0,0
14,400,0,0,0,0,0,0,0,0,0,-1,1238,624,0,0
21,400,0,0,0,0,0,0,0,0,0,-1,1245,624,0,0
28,400,0,0,0,0,0,0,0,0,0,-1,1252,624,0,0
35,400,0,0,0,0,0,0,0,0,0,-1,1259,624,0,0
42,400,0,0,0,0,0,0,0,0,0,-1,1266,624,0,0
49,400,0,0,0,0,0,0,0,0,0,-1,1273,624,0,0
56,400,0,0,0,0,0,0,0,0,0,-1,1280,624,0,0
63,400,0,0,0,0,0,0,0,0,0,-1,1287,624,0,0
70,400,0,0,0,0,0,0,0,0,0,-1,1294,624,0,0
77,400,0,0,0,0,0,0,0,0,0,-1,1301,624,0,0
84,400,0,0,0,0,0,0,0,0,0,-1,1308,624,0,0
91,400,0,0,0,0,0,0,0,0,0,-1,1315,624,0,0
98,400,0,0,0,0,0,0,0,0,0,-1,1322,624,0,0
105,400,0,0,0,0,0,0,0,0,0,-1,1329,624,0,0
112,400,0,0,0,0,0,0,0,0,0,-1,1336,624,0,0
119,400,0,0,0,0,0,0,0,0,0,-1,1343,624,0,0
126,400,0,0,0,0,0,0,0,0,0,-1,1350,624,0,0
133,400,0,0,0,0,0,0,0,0,0,-1,1357,624,0,0
140,400,0,0,0,0,0,0,0,0,0,-1,1364,624,0,0
147,400,0,0,0,0,0,0,0,0,0,-1,1371,624,0,0
154,400,0,0,0,0,0,0,0,0,0,-1,1378,624,0,0
161,400,0,0,0,0,0,0,0,0,0,-1,1385,624,0,0
168,400,0,0,0,0,0,0,0,0,0,-1,1392,624,0,0
175,400,0,0,0,0,0,0,0,0,0,-1,1399,624,0,0
182,400,0,0,0,0,0,0,0,0,0,-1,1406,624,0,0
189,400,0,0,0,0,0,0,0,0,0,-1,1413,624,0,0
196,400,0,0,0,0,0,0,0,0,0,-1,1420,624,0,0
203,400,0,0,0,0,0,0,0,0,0,-1,1427,624,0,0
210,400,0,0,0,0,0,0,0,0,0,-1,1434,624,0,0
217,400,0,0,0,0,0,0,0,0,0,-1,1441,624,0,0
224,400,0,0,0,0,0,0,0,0,0,-1,1448,624,0,0
231,400,0,0,0,0,0,0,0,0,0,-1,1455,624,0,0
238,400,0,0,0,0,0,0,0,0,0,-1,1462,624,0,0
245,400,0,0,0,0,0,0,0,0,0,-1,1469,624,0,0
252,400,0,0,0,0,0,0,0,0,0,-1,1476,624,0,0
259,400,0,0,0,0,0,0,0,0,0,-1,1483,624,0,0
266,400,0,0,0,0,0,0,0,0,0,-1,1490,624,0,0
273,400,0,0,0,0,0,0,0,0,0,-1,1497,624,0,0
280,400,0,0,0,0,0,0,0,0,0,-1,1504,624,0,0
287,400,0,0,0,0,0,0,0,0,0,-1,1511,624,0,0
294,400,0,0,0,0,0,0,0,0,0,-1,1518,624,0,0
301,400,0,0,0,0,0,0,0,0,0,-1,1525,624,0,0
308,400,0,0,0,0,0,0,0,0,0,-1,1532,624,0,0
315,400,0,0,0,0,0,0,0,0,0,-1,1539,624,0,0
322,400,0,0,0,0,0,0,0,0,0,-1,1546,624,0,0
329,400,0,0,0,0,0,0,0,0,0,-1,1553,624,0,0
336,400,0,0,0,0,0,0,0,0,0,-1,1560,624,0,0
343,400,0,0,0,0,0,0,0,0,0,-1,1567,624,0,0
350,400,0,0,0,0,0,0,0,0,0,-1,1574,624,0,0
357,400,0,0,0,0,0,0,0,0,0,-1,1581,624,0,0
364,400,0,0,0,0,0,0,0,0,0,-1,1588,624,0,0
371,400,0,0,0,0,0,0,0,0,0,-1,1595,624,0,0
378,400,0,0,0,0,0,0,0,0,0,-1,1602,624,0,0
385,400,0,0,0,0,0,0,0,0,0,-1,1609,624,0,0
392,400,0,0,0,0,0,0,0,0,0,-1,1616,624,0,0
399,400,0,0,0,0,0,0,0,0,0,-1,1623,624,0,0
406,400,0,0,0,0,0,0,0,0,0,-1,1630,624,0,0
413,400,0,0,0,0,0,0,0,0,0,-1,1637,624,0,0
420,400,0,0,0,0,0,0,0,0,0,-1,1644,624,0,0
427,400,0,0,0,0,0,0,0,0,0,-1,1651,624,0,0
434,400,0,0,0,0,0,0,0,0,0,-1,1658,624,0,0
441,400,0,0,0,0,0,0,0,0,0,-1,1665,624,0,0
448,400,0,0,0,0,0,0,0,0,0,-1,1672,624,0,0
455,400,8.91309,2.75885,0,0,0,0,0,0,0,-1,1679,624,8.91312,-2.75885
462,400,8.90356,2.37878,0,0,0,0,0,0,0,-1,1686,624,8.90353,-2.37878
469,400,9.14429,1.76849,0,0,0,0,0,0,0,-1,1693,624,9.14432,-1.76847
476,400,9.23254,1.25995,0,0,0,0,0,0,0,-1,1700,624,9.23252,-1.25994
483,400,9.59766,0.562439,0,0,0,0,0,0,0,-1,1707,624,9.59771,-0.56242
490,400,9.92578,-0.213745,0,0,0,0,0,0,0,-1,1714,624,9.92579,0.21376
497,400,9.19141,0.175232,0,0,0,0,0,0,0,-1,1721,624,9.19138,-0.175209
504,400,9.23438,0.00823975,0,0,0,0,0,0,0,-1,1728,624,9.23436,-0.00823766
511,400,6.16687,3.3501,0,0,0,0,0,0,0,-1,1735,624,6.16682,-3.35007
518,400,6.55237,1.74994,0,0,0,0,0,0,0,-1,1742,624,6.55236,-1.74993
525,400,6.99731,1.08783,0,0,0,0,0,0,0,-1,1749,624,6.99736,-1.08785
532,400,6.96582,-1.74982,0,0,0,0,0,0,0,-1,1756,624,6.96585,1.74983
539,400,21.2305,-10.5841,0,0,0,0,0,0,0,-1,1763,624,21.2304,10.5841
546,400,35.0728,-23.1226,0,0,0,0,0,0,0,-1,1770,624,35.0728,23.1226
553,400,35.2329,-21.8317,0.00276152,0.000261725,0.000540083,0.00287322,0.00015003,0.203935,0.00186748,0.0467169,1777,624,35.2329,21.8317
560,400,35.2823,-20.7626,0.00222506,0.000284431,0.00034905,0.00228593,0.000223559,0.172658,0.00145517,0.0175096,1784,624,35.2823,20.7626
567,400,35.2391,-19.7729,0.0017273,0.00032719,0.000243186,0.00176833,0.000286154,0.16717,0.00109603,0.0197275,1791,624,35.2392,19.773
574,400,35.1372,-18.7734,0.00150337,0.000696865,0.000421365,0.00168335,0.000516883,0.40368,0.00099571,0.0227553,1798,624,35.1372,18.7735
581,400,35.0077,-17.7671,0.00147578,0.00122143,0.000766393,0.00212548,0.000571735,0.703178,0.00127005,0.0229386,1805,624,35.0076,17.7671
588,400,34.9227,-16.7038,0.00166453,0.00196063,0.00124901,0.00307033,0.000554829,0.844391,0.0018893,0.0202228,1812,624,34.9227,16.7038
595,400,34.9237,-15.7057,0.00211387,0.00284537,0.00192193,0.00443604,0.0005232,0.879425,0.00279931,0.0192295,1819,624,34.9237,15.7057
602,400,34.8942,-14.7253,0.00279787,0.0039464,0.00276876,0.00619982,0.000544447,0.887652,0.00396421,0.0175433,1826,624,34.8941,14.7253
609,400,34.7272,-13.7109,0.00379733,0.00528215,0.00381683,0.0084281,0.000651378,0.881453,0.00541468,0.0158131,1833,624,34.7272,13.7109
616,400,34.6678,-12.696,0.00518889,0.00686792,0.00506623,0.0111637,0.000893082,0.867506,0.00716337,0.0198313,1840,624,34.6678,12.696
623,400,34.7178,-11.6517,0,0,0,0,0,0,0,-1,1847,624,34.7178,11.6518
630,400,11.9432,0.09021,0,0,0,0,0,0,0,-1,1854,624,11.9432,-0.0902007
637,400,6.92896,1.01917,0,0,0,0,0,0,0,-1,1861,624,6.92899,-1.01918
644,400,8.65381,1.4599,0,0,0,0,0,0,0,-1,1868,624,8.65379,-1.45991
651,400,7.90601,0.424072,0,0,0,0,0,0,0,-1,1875,624,7.90598,-0.424097
658,400,8.69031,1.0484,0,0,0,0,0,0,0,-1,1882,624,8.6903,-1.0484
665,400,5.98438,0.522522,0,0,0,0,0,0,0,-1,1889,624,5.98442,-0.522552
672,400,0,0,0,0,0,0,0,0,0,-1,1896,624,0,0
679,400,0,0,0,0,0,0,0,0,0,-1,1903,624,0,0
686,400,0,0,0,0,0,0,0,0,0,-1,1910,624,0,0
693,400,0,0,0,0,0,0,0,0,0,-1,1917,624,0,0
700,400,0,0,0,0,0,0,0,0,0,-1,1924,624,0,0
707,400,0,0,0,0,0,0,0,0,0,-1,1931,624,0,0
714,400,0,0,0,0,0,0,0,0,0,-1,1938,624,0,0
721,400,0,0,0,0,0,0,0,0,0,-1,1945,624,0,0
728,400,0,0,0,0,0,0,0,0,0,-1,1952,624,0,0
735,400,0,0,0,0,0,0,0,0,0,-1,1959,624,0,0
742,400,0,0,0,0,0,0,0,0,0,-1,1966,624,0,0
749,400,0,0,0,0,0,0,0,0,0,-1,1973,624,0,0
756,400,0,0,0,0,0,0,0,0,0,-1,1980,624,0,0
763,400,0,0,0,0,0,0,0,0,0,-1,1987,624,0,0
770,400,0,0,0,0,0,0,0,0,0,-1,1994,624,0,0
777,400,0,0,0,0,0,0,0,0,0,-1,2001,624,0,0
784,400,0,0,0,0,0,0,0,0,0,-1,2008,624,0,0
791,400,0,0,0,0,0,0,0,0,0,-1,2015,624,0,0
798,400,0,0,0,0,0,0,0,0,0,-1,2022,624,0,0
805,400,0,0,0,0,0,0,0,0,0,-1,2029,624,0,0
812,400,0,0,0,0,0,0,0,0,0,-1,2036,624,0,0
-700,393,0,0,0,0,0,0,0,0,0,-1,524,631,0,0
-693,393,0,0,0,0,0,0,0,0,0,-1,531,631,0,0
-686,393,0,0,0,0,0,0,0,0,0,-1,538,631,0,0
-679,393,0,0,0,0,0,0,0,0,0,-1,545,631,0,0
-672,393,0,0,0,0,0,0,0,0,0,-1,552,631,0,0
-665,393,0,0,0,0,0,0,0,0,0,-1,559,631,0,0
-658,393,0,0,0,0,0,0,0,0,0,-1,566,631,0,0
-651,393,0,0,0,0,0,0,0,0,0,-1,573,631,0,0
-644,393,0,0,0,0,0,0,0,0,0,-1,580,631,0,0
-637,393,0,0,0,0,0,0,0,0,0,-1,587,631,0,0
-630,393,0,0,0,0,0,0,0,0,0,-1,594,631,0,0
-623,393,0,0,0,0,0,0,0,0,0,-1,601,631,0,0
-616,393,0,0,0,0,0,0,0,0,0,-1,608,631,0,0
-609,393,0,0,0,0,0,0,0,0,0,-1,615,631,0,0
-602,393,0,0,0,0,0,0,0,0,0,-1,622,631,0,0
-595,393,0,0,0,0,0,0,0,0,0,-1,629,631,0,0
-588,393,0,0,0,0,0,0,0,0,0,-1,636,631,0,0
-581,393,0,0,0,0,0,0,0,0,0,-1,643,631,0,0
-574,393,0,0,0,0,0,0,0,0,0,-1,650,631,0,0
-567,393,0,0,0,0,0,0,0,0,0,-1,657,631,0,0
-560,393,0,0,0,0,0,0,0,0,0,-1,664,631,0,0
-553,393,-2.35107,3.92633,0,0,0,0,0,0,0,-1,671,631,-2.35108,-3.92634
-546,393,-1.78778,2.4856,0,0,0,0,0,0,0,-1,678,631,-1.78778,-2.48557
-539,393,-5.2113,-2.20245,0,0,0,0,0,0,0,-1,685,631,-5.21128,2.20247
-532,393,-2.83643,-2.01624,0,0,0,0,0,0,0,-1,692,631,-2.83642,2.01626
-525,393,-5.9505,-0.952698,0,0,0,0,0,0,0,-1,699,631,-5.95053,0.95268
-518,393,-5.80219,-1.57739,0,0,0,0,0,0,0,-1,706,631,-5.80219,1.57738
-511,393,-6.15527,-2.09906,0,0,0,0,0,0,0,-1,713,631,-6.15526,2.09903
-504,393,-13.6063,-6.95947,0,0,0,0,0,0,0,-1,720,631,-13.6063,6.95946
-497,393,-18.8776,-11.5462,0,0,0,0,0,0,0,-1,727,631,-18.8776,11.5462
-490,393,-18.8357,-12.6445,-0.000535043,0.00192484,9.78529e-05,0.00192872,-0.000538929,1.5311,0.00149813,0.0277171,734,631,-18.8357,12.6445
-483,393,-18.8683,-13.7264,-0.000687379,0.00149265,0.000183345,0.00150797,-0.000702691,1.48747,0.00130424,0.0207056,741,631,-18.8683,13.7264
-476,393,-18.9561,-14.7235,-0.00057892,0.00112221,0.000139152,0.00113352,-0.000590228,1.48972,0.00101155,0.0180229,748,631,-18.956,14.7235
-469,393,-19.0226,-15.7289,-0.000188286,0.000757174,-1.40032e-05,0.000757381,-0.000188493,-1.55599,0.000578088,0.0145753,755,631,-19.0226,15.7289
-462,393,-19.0946,-16.7855,0.000372746,0.000422182,-0.000251621,0.000650297,0.000144632,-0.834358,0.000394265,0.016546,762,631,-19.0946,16.7855
-455,393,-19.186,-17.8218,0.00105968,0.000332695,-0.000631235,0.0014246,-3.22257e-05,-0.524165,0.000960654,0.0159913,769,631,-19.186,17.8218
-448,393,-19.2574,-18.8087,0.00186631,0.000261508,-0.00104829,0.00238404,-0.000256225,-0.458744,0.00168129,0.0146991,776,631,-19.2574,18.8086
-441,393,-19.3194,-19.7667,0.00275652,0.000405772,-0.00158796,0.00355678,-0.000394485,-0.466805,0.00251302,0.0137071,783,631,-19.3194,19.7667
-434,393,-19.3987,-20.7415,0.00376899,0.000846698,-0.00228265,0.00501809,-0.000402403,-0.500703,0.00348728,0.0137303,790,631,-19.3988,20.7415
-427,393,-19.3942,-21.7913,0.00479072,0.0015047,-0.00309997,0.00665617,-0.000360747,-0.541715,0.00456245,0.0278621,797,631,-19.3942,21.7913
-420,393,-19.2802,-22.9565,0,0,0,0,0,0,0,-1,804,631,-19.2802,22.9565
-413,393,-15.0913,-18.3777,0,0,0,0,0,0,0,-1,811,631,-15.0913,18.3777
-406,393,-11.826,-12.7987,0,0,0,0,0,0,0,-1,818,631,-11.8261,12.7987
-399,393,-5.07343,-5.92365,0,0,0,0,0,0,0,-1,825,631,-5.07344,5.92364
-392,393,-2.08063,-3.02386,0,0,0,0,0,0,0,-1,832,631,-2.08063,3.02384
-385,393,-3.16931,-0.624756,0,0,0,0,0,0,0,-1,839,631,-3.16928,0.624764
-378,393,-7.33081,-0.872314,0,0,0,0,0,0,0,-1,846,631,-7.33081,0.872325
-371,393,-7.47858,-0.811096,0,0,0,0,0,0,0,-1,853,631,-7.47859,0.811075
-364,393,-7.64917,-0.662415,0,0,0,0,0,0,0,-1,860,631,-7.64917,0.662406
-357,393,-8.09686,-0.726013,0,0,0,0,0,0,0,-1,867,631,-8.09689,0.726029
-350,393,-8.38788,-0.511841,0,0,0,0,0,0,0,-1,874,631,-8.38785,0.511811
-343,393,0,0,0,0,0,0,0,0,0,-1,881,631,0,0
-336,393,0,0,0,0,0,0,0,0,0,-1,888,631,0,0
-329,393,0,0,0,0,0,0,0,0,0,-1,895,631,0,0
-322,393,0,0,0,0,0,0,0,0,0,-1,902,631,0,0
-315,393,0,0,0,0,0,0,0,0,0,-1,909,631,0,0
-308,393,0,0,0,0,0,0,0,0,0,-1,916,631,0,0
-301,393,0,0,0,0,0,0,0,0,0,-1,923,631,0,0
-294,393,0,0,0,0,0,0,0,0,0,-1,930,631,0,0
-287,393,0,0,0,0,0,0,0,0,0,-1,937,631,0,0
-280,393,0,0,0,0,0,0,0,0,0,-1,944,631,0,0
-273,393,0,0,0,0,0,0,0,0,0,-1,951,631,0,0
-266,393,0,0,0,0,0,0,0,0,0,-1,958,631,0,0
-259,393,0,0,0,0,0,0,0,0,0,-1,965,631,0,0
-252,393,0,0,0,0,0,0,0,0,0,-1,972,631,0,0
-245,393,0,0,0,0,0,0,0,0,0,-1,979,631,0,0
-238,393,0,0,0,0,0,0,0,0,0,-1,986,631,0,0
-231,393,0,0,0,0,0,0,0,0,0,-1,993,631,0,0
-224,393,0,0,0,0,0,0,0,0,0,-1,1000,631,0,0
-217,393,0,0,0,0,0,0,0,0,0,-1,1007,631,0,0
-210,393,0,0,0,0,0,0,0,0,0,-1,1014,631,0,0
-203,393,0,0,0,0,0,0,0,0,0,-1,1021,631,0,0
-196,393,0,0,0,0,0,0,0,0,0,-1,1028,631,0,0
-189,393,0,0,0,0,0,0,0,0,0,-1,1035,631,0,0
-182,393,0,0,0,0,0,0,0,0,0,-1,1042,631,0,0
-175,393,0,0,0,0,0,0,0,0,0,-1,1049,631,0,0
-168,393,0,0,0,0,0,0,0,0,0,-1,1056,631,0,0
-161,393,0,0,0,0,0,0,0,0,0,-1,1063,631,0,0
-154,393,0,0,0,0,0,0,0,0,0,-1,1070,631,0,0
-147,393,0,0,0,0,0,0,0,0,0,-1,1077,631,0,0
-140,393,0,0,0,0,0,0,0,0,0,-1,1084,631,0,0
-133,393,0,0,0,0,0,0,0,0,0,-1,1091,631,0,0
-126,393,0,0,0,0,0,0,0,0,0,-1,1098,631,0,0
-119,393,0,0,0,0,0,0,0,0,0,-1,1105,631,0,0
-112,393,0,0,0,0,0,0,0,0,0,-1,1112,631,0,0
-105,393,0,0,0,0,0,0,0,0,0,-1,1119,631,0,0
-98,393,0,0,0,0,0,0,0,0,0,-1,1126,631,0,0
-91,393,0,0,0,0,0,0,0,0,0,-1,1133,631,0,0
-84,393,0,0,0,0,0,0,0,0,0,-1,1140,631,0,0
-77,393,0,0,0,0,0,0,0,0,0,-1,1147,631,0,0
-70,393,0,0,0,0,0,0,0,0,0,-1,1154,631,0,0
-63,393,0,0,0,0,0,0,0,0,0,-1,1161,631,0,0
-56,393,0,0,0,0,0,0,0,0,0,-1,1168,631,0,0
-49,393,0,0,0,0,0,0,0,0,0,-1,1175,631,0,0
-42,393,0,0,0,0,0,0,0,0,0,-1,1182,631,0,0
-35,393,0,0,0,0,0,0,0,0,0,-1,1189,631,0,0
-28,393,0,0,0,0,0,0,0,0,0,-1,1196,631,0,0
-21,393,0,0,0,0,0,0,0,0,0,-1,1203,631,0,0
-14,393,0,0,0,0,0,0,0,0,0,-1,1210,631,0,0
-7,393,0,0,0,0,0,0,0,0,0,-1,1217,631,0,0
0,393,0,0,0,0,0,0,0,0,0,-1,1224,631,0,0
7,393,0,0,0,0,0,0,0,0,0,-1,1231,631,0,0
14,393,0,0,0,0,0,0,0,0,0,-1,1238,631,0,0
21,393,0,0,0,0,0,0,0,0,0,-1,1245,631,0,0
28,393,0,0,0,0,0,0,0,0,0,-1,1252,631,0,0
35,393,0,0,0,0,0,0,0,0,0,-1,1259,631,0,0
42,393,0,0,0,0,0,0,0,0,0,-1,1266,631,0,0
49,393,0,0,0,0,0,0,0,0,0,-1,1273,631,0,0
56,393,0,0,0,0,0,0,0,0,0,-1,1280,631,0,0
63,393,0,0,0,0,0,0,0,0,0,-1,1287,631,0,0
70,393,0,0,0,0,0,0,0,0,0,-1,1294,631,0,0
77,393,0,0,0,0,0,0,0,0,0,-1,1301,631,0,0
84,393,0,0,0,0,0,0,0,0,0,-1,1308,631,0,0
91,393,0,0,0,0,0,0,0,0,0,-1,1315,631,0,0
98,393,0,0,0,0,0,0,0,0,0,-1,1322,631,0,0
105,393,0,0,0,0,0,0,0,0,0,-1,1329,631,0,0
112,393,0,0,0,0,0,0,0,0,0,-1,1336,631,0,0
119,393,0,0,0,0,0,0,0,0,0,-1,1343,631,0,0
126,393,0,0,0,0,0,0,0,0,0,-1,1350,631,0,0
133,393,0,0,0,0,0,0,0,0,0,-1,1357,631,0,0
140,393,0,0,0,0,0,0,0,0,0,-1,1364,631,0,0
147,393,0,0,0,0,0,0,0,0,0,-1,1371,631,0,0
154,393,0,0,0,0,0,0,0,0,0,-1,1378,631,0,0
161,393,0,0,0,0,0,0,0,0,0,-1,1385,631,0,0
168,393,0,0,0,0,0,0,0,0,0,-1,1392,631,0,0
175,393,0,0,0,0,0,0,0,0,0,-1,1399,631,0,0
182,393,0,0,0,0,0,0,0,0,0,-1,1406,631,0,0
189,393,0,0,0,0,0,0,0,0,0,-1,1413,631,0,0
196,393,0,0,0,0,0,0,0,0,0,-1,1420,631,0,0
203,393,0,0,0,0,0,0,0,0,0,-1,1427,631,0,0
210,393,0,0,0,0,0,0,0,0,0,-1,1434,631,0,0
217,393,0,0,0,0,0,0,0,0,0,-1,1441,631,0,0
224,393,0,0,0,0,0,0,0,0,0,-1,1448,631,0,0
231,393,0,0,0,0,0,0,0,0,0,-1,1455,631,0,0
238,393,0,0,0,0,0,0,0,0,0,-1,1462,631,0,0
245,393,0,0,0,0,0,0,0,0,0,-1,1469,631,0,0
252,393,0,0,0,0,0,0,0,0,0,-1,1476,631,0,0
259,393,0,0,0,0,0,0,0,0,0,-1,1483,631,0,0
266,393,0,0,0,0,0,0,0,0,0,-1,1490,631,0,0
273,393,0,0,0,0,0,0,0,0,0,-1,1497,631,0,0
280,393,0,0,0,0,0,0,0,0,0,-1,1504,631,0,0
287,393,0,0,0,0,0,0,0,0,0,-1,1511,631,0,0
294,393,0,0,0,0,0,0,0,0,0,-1,1518,631,0,0
301,393,0,0,0,0,0,0,0,0,0,-1,1525,631,0,0
308,393,0,0,0,0,0,0,0,0,0,-1,1532,631,0,0
315,393,0,0,0,0,0,0,0,0,0,-1,1539,631,0,0
322,393,0,0,0,0,0,0,0,0,0,-1,1546,631,0,0
329,393,0,0,0,0,0,0,0,0,0,-1,1553,631,0,0
336,393,0,0,0,0,0,0,0,0,0,-1,1560,631,0,0
343,393,0,0,0,0,0,0,0,0,0,-1,1567,631,0,0
350,393,0,0,0,0,0,0,0,0,0,-1,1574,631,0,0
357,393,0,0,0,0,0,0,0,0,0,-1,1581,631,0,0
364,393,0,0,0,0,0,0,0,0,0,-1,1588,631,0,0
371,393,0,0,0,0,0,0,0,0,0,-1,1595,631,0,0
378,393,0,0,0,0,0,0,0,0,0,-1,1602,631,0,0
385,393,0,0,0,0,0,0,0,0,0,-1,1609,631,0,0
392,393,0,0,0,0,0,0,0,0,0,-1,1616,631,0,0
399,393,0,0,0,0,0,0,0,0,0,-1,1623,631,0,0
406,393,0,0,0,0,0,0,0,0,0,-1,1630,631,0,0
413,393,0,0,0,0,0,0,0,0,0,-1,1637,631,0,0
420,393,0,0,0,0,0,0,0,0,0,-1,1644,631,0,0
427,393,0,0,0,0,0,0,0,0,0,-1,1651,631,0,0
434,393,0,0,0,0,0,0,0,0,0,-1,1658,631,0,0
441,393,0,0,0,0,0,0,0,0,0,-1,1665,631,0,0
448,393,0,0,0,0,0,0,0,0,0,-1,1672,631,0,0
455,393,0,0,0,0,0,0,0,0,0,-1,1679,631,0,0
462,393,8.51099,1.89502,0,0,0,0,0,0,0,-1,1686,631,8.51103,-1.89504
469,393,9.39465,1.51703,0,0,0,0,0,0,0,-1,1693,631,9.39465,-1.51703
476,393,9.95569,1.185,0,0,0,0,0,0,0,-1,1700,631,9.95575,-1.18497
483,393,10.5267,0.887329,0,0,0,0,0,0,0,-1,1707,631,10.5267,-0.887321
490,393,10.9303,0.761414,0,0,0,0,0,0,0,-1,1714,631,10.9303,-0.761386
497,393,8.32153,1.88104,0,0,0,0,0,0,0,-1,1721,631,8.32148,-1.88103
504,393,9.46985,1.78711,0,0,0,0,0,0,0,-1,1728,631,9.46986,-1.78713
511,393,9.66565,-0.375977,0,0,0,0,0,0,0,-1,1735,631,9.66571,0.375949
518,393,7.01599,1.62482,0,0,0,0,0,0,0,-1,1742,631,7.01597,-1.62483
525,393,7.88245,-1.13422,0,0,0,0,0,0,0,-1,1749,631,7.88246,1.13423
532,393,7.06335,-1.18103,0,0,0,0,0,0,0,-1,1756,631,7.06332,1.18101
539,393,9.91626,-2.46301,0,0,0,0,0,0,0,-1,1763,631,9.91625,2.46302
546,393,16.4094,-8.04651,0,0,0,0,0,0,0,-1,1770,631,16.4094,8.04649
553,393,36.1829,-21.9077,0,0,0,0,0,0,0,-1,1777,631,36.1828,21.9077
560,393,36.2292,-20.7237,0.00255034,0.000251227,0.000362507,0.00260614,0.000195424,0.152737,0.00167609,0.0439267,1784,631,36.2292,20.7237
567,393,36.2021,-19.6937,0.00179881,8.79252e-05,7.2802e-05,0.0018019,8.48328e-05,0.0424499,0.00117401,0.0180646,1791,631,36.2021,19.6938
574,393,36.1409,-18.711,0.00138629,0.000338697,0.000161397,0.00141059,0.000314395,0.149449,0.000855082,0.0179869,1798,631,36.1408,18.711
581,393,36.028,-17.6628,0.0012126,0.000783715,0.000424467,0.00147372,0.000522596,0.551498,0.000862757,0.018793,1805,631,36.028,17.6629
588,393,35.9637,-16.5964,0.00132197,0.00141177,0.000830392,0.00219848,0.000535266,0.812409,0.00132381,0.022079,1812,631,35.9637,16.5964
595,393,35.9512,-15.652,0.00172675,0.00217348,0.00141584,0.00338346,0.000516769,0.863634,0.00210464,0.0194295,1819,631,35.9512,15.652
602,393,35.885,-14.6915,0.00237313,0.00310711,0.0021591,0.00493019,0.000550052,0.869581,0.00311965,0.0204981,1826,631,35.885,14.6915
609,393,35.7651,-13.686,0.00326541,0.00422438,0.00303001,0.00681261,0.000677183,0.86387,0.00433368,0.0170894,1833,631,35.7652,13.6861
616,393,35.6646,-12.648,0.00444661,0.00555658,0.00402347,0.00906316,0.000940029,0.853934,0.00575441,0.0158121,1840,631,35.6645,12.648
623,393,35.6416,-11.5055,0.00586167,0.00698345,0.00512167,0.0115749,0.00127026,0.839937,0.00732993,0.0369684,1847,631,35.6416,11.5055
630,393,35.9277,-10.4364,0,0,0,0,0,0,0,-1,1854,631,35.9278,10.4364
637,393,11.4626,0.608887,0,0,0,0,0,0,0,-1,1861,631,11.4627,-0.608904
644,393,8.97583,1.30585,0,0,0,0,0,0,0,-1,1868,631,8.97586,-1.30584
651,393,11.348,0.53302,0,0,0,0,0,0,0,-1,1875,631,11.348,-0.53305
658,393,9.21338,1.50836,0,0,0,0,0,0,0,-1,1882,631,9.21338,-1.50834
665,393,6.1001,2.32129,0,0,0,0,0,0,0,-1,1889,631,6.10012,-2.3213
672,393,7.14575,2.43225,0,0,0,0,0,0,0,-1,1896,631,7.14572,-2.43222
679,393,0,0,0,0,0,0,0,0,0,-1,1903,631,0,0
686,393,0,0,0,0,0,0,0,0,0,-1,1910,631,0,0
693,393,0,0,0,0,0,0,0,0,0,-1,1917,631,0,0
700,393,0,0,0,0,0,0,0,0,0,-1,1924,631,0,0
707,393,0,0,0,0,0,0,0,0,0,-1,1931,631,0,0
714,393,0,0,0,0,0,0,0,0,0,-1,1938,631,0,0
721,393,0,0,0,0,0,0,0,0,0,-1,1945,631,0,0
728,393,0,0,0,0,0,0,0,0,0,-1,1952,631,0,0
735,393,0,0,0,0,0,0,0,0,0,-1,1959,631,0,0
742,393,0,0,0,0,0,0,0,0,0,-1,1966,631,0,0
749,393,0,0,0,0,0,0,0,0,0,-1,1973,631,0,0
756,393,0,0,0,0,0,0,0,0,0,-1,1980,631,0,0
763,393,0,0,0,0,0,0,0,0,0,-1,1987,631,0,0
770,393,0,0,0,0,0,0,0,0,0,-1,1994,631,0,0
777,393,0,0,0,0,0,0,0,0,0,-1,2001,631,0,0
784,393,0,0,0,0,0,0,0,0,0,-1,2008,631,0,0
791,393,0,0,0,0,0,0,0,0,0,-1,2015,631,0,0
798,393,0,0,0,0,0,0,0,0,0,-1,2022,631,0,0
805,393,0,0,0,0,0,0,0,0,0,-1,2029,631,0,0
812,393,0,0,0,0,0,0,0,0,0,-1,2036,631,0,0
-700,386,0,0,0,0,0,0,0,0,0,-1,524,638,0,0
-693,386,0,0,0,0,0,0,0,0,0,-1,531,638,0,0
-686,386,0,0,0,0,0,0,0,0,0,-1,538,638,0,0
-679,386,0,0,0,0,0,0,0,0,0,-1,545,638,0,0
-672,386,0,0,0,0,0,0,0,0,0,-1,552,638,0,0
-665,386,0,0,0,0,0,0,0,0,0,-1,559,638,0,0
-658,386,0,0,0,0,0,0,0,0,0,-1,566,638,0,0
-651,386,0,0,0,0,0,0,0,0,0,-1,573,638,0,0
-644,386,0,0,0,0,0,0,0,0,0,-1,580,638,0,0
-637,386,0,0,0,0,0,0,0,0,0,-1,587,638,0,0
-630,386,0,0,0,0,0,0,0,0,0,-1,594,638,0,0
-623,386,0,0,0,0,0,0,0,0,0,-1,601,638,0,0
-616,386,0,0,0,0,0,0,0,0,0,-1,608,638,0,0
-609,386,0,0,0,0,0,0,0,0,0,-1,615,638,0,0
-602,386,0,0,0,0,0,0,0,0,0,-1,622,638,0,0
-595,386,0,0,0,0,0,0,0,0,0,-1,629,638,0,0
-588,386,0,0,0,0,0,0,0,0,0,-1,636,638,0,0
-581,386,0,0,0,0,0,0,0,0,0,-1,643,638,0,0
-574,386,0,0,0,0,0,0,0,0,0,-1,650,638,0,0
-567,386,0,0,0,0,0,0,0,0,0,-1,657,638,0,0
-560,386,-3.97229,-5.13898,0,0,0,0,0,0,0,-1,664,638,-3.97232,5.13897
-553,386,-4.94244,-5.54309,0,0,0,0,0,0,0,-1,671,638,-4.94242,5.5431
-546,386,-1.78668,1.72827,0,0,0,0,0,0,0,-1,678,638,-1.78668,-1.72829
-539,386,-0.879456,-2.90009,0,0,0,0,0,0,0,-1,685,638,-0.879442,2.90008
-532,386,-5.4884,1.73328,0,0,0,0,0,0,0,-1,692,638,-5.4884,-1.73325
-525,386,-6.64148,-1.50604,0,0,0,0,0,0,0,-1,699,638,-6.64149,1.50603
-518,386,-11.1217,-4.10382,0,0,0,0,0,0,0,-1,706,638,-11.1217,4.1038
-511,386,-13.0612,-5.05151,0,0,0,0,0,0,0,-1,713,638,-13.0612,5.05149
-504,386,-19.754,-10.3098,0,0,0,0,0,0,0,-1,720,638,-19.754,10.3097
-497,386,-19.8249,-11.571,0,0,0,0,0,0,0,-1,727,638,-19.8249,11.571
-490,386,-19.8354,-12.6794,0.000375625,0.00130328,-0.000276043,0.0013792,0.000299697,-1.30238,0.000837637,0.0142993,734,638,-19.8354,12.6794
-483,386,-19.8972,-13.7078,0.00013524,0.00099981,-0.000158223,0.00102786,0.000107194,-1.39536,0.000652448,0.0179145,741,638,-19.8971,13.7078
-476,386,-19.9722,-14.6876,0.000163042,0.000718312,-0.000165658,0.000763978,0.000117376,-1.30181,0.000475052,0.0165545,748,638,-19.9722,14.6876
-469,386,-20.04,-15.6638,0.000454321,0.000435708,-0.000277178,0.000722349,0.000167681,-0.768616,0.000436542,0.0125295,755,638,-20.04,15.6638
-462,386,-20.1133,-16.7093,0.000918519,0.000174551,-0.000489397,0.00116126,-6.81863e-05,-0.460436,0.000797871,0.0119832,762,638,-20.1134,16.7093
-455,386,-20.1926,-17.7575,0.00155789,0.000150256,-0.000864408,0.00196877,-0.000260629,-0.443723,0.00140746,0.0139798,769,638,-20.1926,17.7575
-448,386,-20.2667,-18.7354,0.0023595,0.000125862,-0.00129533,0.002953,-0.000467632,-0.429634,0.00214163,0.0130568,776,638,-20.2667,18.7354
-441,386,-20.3456,-19.7109,0.00329195,0.000311464,-0.00188738,0.0042065,-0.000603087,-0.45122,0.00302546,0.0138807,783,638,-20.3456,19.7109
-434,386,-20.3463,-20.754,0.00445302,0.000877868,-0.00272977,0.00592843,-0.000597541,-0.495511,0.00416578,0.0337296,790,638,-20.3462,20.754
-427,386,-20.2794,-21.8983,0,0,0,0,0,0,0,-1,797,638,-20.2794,21.8983
-420,386,-14.5338,-16.0451,0,0,0,0,0,0,0,-1,804,638,-14.5338,16.0451
-413,386,-5.45691,-5.35785,0,0,0,0,0,0,0,-1,811,638,-5.45691,5.35783
-406,386,-4.51135,-4.10999,0,0,0,0,0,0,0,-1,818,638,-4.51135,4.10996
-399,386,-3.57117,-3.42126,0,0,0,0,0,0,0,-1,825,638,-3.57116,3.42129
-392,386,-4.00977,0.403625,0,0,0,0,0,0,0,-1,832,638,-4.0098,-0.403616
-385,386,-3.2406,-0.118469,0,0,0,0,0,0,0,-1,839,638,-3.24058,0.118485
-378,386,-2.55243,-1.22748,0,0,0,0,0,0,0,-1,846,638,-2.55243,1.22748
-371,386,-7.95807,-0.330261,0,0,0,0,0,0,0,-1,853,638,-7.95806,0.330284
-364,386,-8.90637,-0.665955,0,0,0,0,0,0,0,-1,860,638,-8.90635,0.665951
-357,386,-9.10364,-0.388733,0,0,0,0,0,0,0,-1,867,638,-9.10364,0.388744
-350,386,0,0,0,0,0,0,0,0,0,-1,874,638,0,0
-343,386,0,0,0,0,0,0,0,0,0,-1,881,638,0,0
-336,386,0,0,0,0,0,0,0,0,0,-1,888,638,0,0
-329,386,0,0,0,0,0,0,0,0,0,-1,895,638,0,0
-322,386,0,0,0,0,0,0,0,0,0,-1,902,638,0,0
-315,386,0,0,0,0,0,0,0,0,0,-1,909,638,0,0
-308,386,0,0,0,0,0,0,0,0,0,-1,916,638,0,0
-301,386,0,0,0,0,0,0,0,0,0,-1,923,638,0,0
-294,386,0,0,0,0,0,0,0,0,0,-1,930,638,0,0
-287,386,0,0,0,0,0,0,0,0,0,-1,937,638,0,0
-280,386,0,0,0,0,0,0,0,0,0,-1,944,638,0,0
-273,386,0,0,0,0,0,0,0,0,0,-1,951,638,0,0
-266,386,0,0,0,0,0,0,0,0,0,-1,958,638,0,0
-259,386,0,0,0,0,0,0,0,0,0,-1,965,638,0,0
-252,386,0,0,0,0,0,0,0,0,0,-1,972,638,0,0
-245,386,0,0,0,0,0,0,0,0,0,-1,979,638,0,0
-238,386,0,0,0,0,0,0,0,0,0,-1,986,638,0,0
-231,386,0,0,0,0,0,0,0,0,0,-1,993,638,0,0
-224,386,0,0,0,0,0,0,0,0,0,-1,1000,638,0,0
-217,386,0,0,0,0,0,0,0,0,0,-1,1007,638,0,0
-210,386,0,0,0,0,0,0,0,0,0,-1,1014,638,0,0
-203,386,0,0,0,0,0,0,0,0,0,-1,1021,638,0,0
-196,386,0,0,0,0,0,0,0,0,0,-1,1028,638,0,0
-189,386,0,0,0,0,0,0,0,0,0,-1,1035,638,0,0
-182,386,0,0,0,0,0,0,0,0,0,-1,1042,638,0,0
-175,386,0,0,0,0,0,0,0,0,0,-1,1049,638,0,0
-168,386,0,0,0,0,0,0,0,0,0,-1,1056,638,0,0
-161,386,0,0,0,0,0,0,0,0,0,-1,1063,638,0,0
-154,386,0,0,0,0,0,0,0,0,0,-1,1070,638,0,0
-147,386,0,0,0,0,0,0,0,0,0,-1,1077,638,0,0
-140,386,0,0,0,0,0,0,0,0,0,-1,1084,638,0,0
-133,386,0,0,0,0,0,0,0,0,0,-1,1091,638,0,0
-126,386,0,0,0,0,0,0,0,0,0,-1,1098,638,0,0
-119,386,0,0,0,0,0,0,0,0,0,-1,1105,638,0,0
-112,386,0,0,0,0,0,0,0,0,0,-1,1112,638,0,0
-105,386,0,0,0,0,0,0,0,0,0,-1,1119,638,0,0
-98,386,0,0,0,0,0,0,0,0,0,-1,1126,638,0,0
-91,386,0,0,0,0,0,0,0,0,0,-1,1133,638,0,0
-84,386,0,0,0,0,0,0,0,0,0,-1,1140,638,0,0
-77,386,0,0,0,0,0,0,0,0,0,-1,1147,638,0,0
-70,386,0,0,0,0,0,0,0,0,0,-1,1154,638,0,0
-63,386,0,0,0,0,0,0,0,0,0,-1,1161,638,0,0
-56,386,0,0,0,0,0,0,0,0,0,-1,1168,638,0,0
-49,386,0,0,0,0,0,0,0,0,0,-1,1175,638,0,0
-42,386,0,0,0,0,0,0,0,0,0,-1,1182,638,0,0
-35,386,0,0,0,0,0,0,0,0,0,-1,1189,638,0,0
-28,386,0,0,0,0,0,0,0,0,0,-1,1196,638,0,0
-21,386,0,0,0,0,0,0,0,0,0,-1,1203,638,0,0
-14,386,0,0,0,0,0,0,0,0,0,-1,1210,638,0,0
-7,386,0,0,0,0,0,0,0,0,0,-1,1217,638,0,0
0,386,0,0,0,0,0,0,0,0,0,-1,1224,638,0,0
7,386,0,0,0,0,0,0,0,0,0,-1,1231,638,0,0
14,386,0,0,0,0,0,0,0,0,0,-1,1238,638,0,0
21,386,0,0,0,0,0,0,0,0,0,-1,1245,638,0,0
28,386,0,0,0,0,0,0,0,0,0,-1,1252,638,0,0
35,386,0,0,0,0,0,0,0,0,0,-1,1259,638,0,0
42,386,0,0,0,0,0,0,0,0,0,-1,1266,638,0,0
49,386,0,0,0,0,0,0,0,0,0,-1,1273,638,0,0
56,386,0,0,0,0,0,0,0,0,0,-1,1280,638,0,0
63,386,0,0,0,0,0,0,0,0,0,-1,1287,638,0,0
70,386,0,0,0,0,0,0,0,0,0,-1,1294,638,0,0
77,386,0,0,0,0,0,0,0,0,0,-1,1301,638,0,0
84,386,0,0,0,0,0,0,0,0,0,-1,1308,638,0,0
91,386,0,0,0,0,0,0,0,0,0,-1,1315,638,0,0
98,386,0,0,0,0,0,0,0,0,0,-1,1322,638,0,0
105,386,0,0,0,0,0,0,0,0,0,-1,1329,638,0,0
112,386,0,0,0,0,0,0,0,0,0,-1,1336,638,0,0
119,386,0,0,0,0,0,0,0,0,0,-1,1343,638,0,0
126,386,0,0,0,0,0,0,0,0,0,-1,1350,638,0,0
133,386,0,0,0,0,0,0,0,0,0,-1,1357,638,0,0
140,386,0,0,0,0,0,0,0,0,0,-1,1364,638,0,0
147,386,0,0,0,0,0,0,0,0,0,-1,1371,638,0,0
154,386,0,0,0,0,0,0,0,0,0,-1,1378,638,0,0
161,386,0,0,0,0,0,0,0,0,0,-1,1385,638,0,0
168,386,0,0,0,0,0,0,0,0,0,-1,1392,638,0,0
175,386,0,0,0,0,0,0,0,0,0,-1,1399,638,0,0
182,386,0,0,0,0,0,0,0,0,0,-1,1406,638,0,0
189,386,0,0,0,0,0,0,0,0,0,-1,1413,638,0,0
196,386,0,0,0,0,0,0,0,0,0,-1,1420,638,0,0
203,386,0,0,0,0,0,0,0,0,0,-1,1427,638,0,0
210,386,0,0,0,0,0,0,0,0,0,-1,1434,638,0,0
217,386,0,0,0,0,0,0,0,0,0,-1,1441,638,0,0
224,386,0,0,0,0,0,0,0,0,0,-1,1448,638,0,0
231,386,0,0,0,0,0,0,0,0,0,-1,1455,638,0,0
238,386,0,0,0,0,0,0,0,0,0,-1,1462,638,0,0
245,386,0,0,0,0,0,0,0,0,0,-1,1469,638,0,0
252,386,0,0,0,0,0,0,0,0,0,-1,1476,638,0,0
259,386,0,0,0,0,0,0,0,0,0,-1,1483,638,0,0
266,386,0,0,0,0,0,0,0,0,0,-1,1490,638,0,0
273,386,0,0,0,0,0,0,0,0,0,-1,1497,638,0,0
280,386,0,0,0,0,0,0,0,0,0,-1,1504,638,0,0
287,386,0,0,0,0,0,0,0,0,0,-1,1511,638,0,0
294,386,0,0,0,0,0,0,0,0,0,-1,1518,638,0,0
301,386,0,0,0,0,0,0,0,0,0,-1,1525,638,0,0
308,386,0,0,0,0,0,0,0,0,0,-1,1532,638,0,0
315,386,0,0,0,0,0,0,0,0,0,-1,1539,638,0,0
322,386,0,0,0,0,0,0,0,0,0,-1,1546,638,0,0
329,386,0,0,0,0,0,0,0,0,0,-1,1553,638,0,0
336,386,0,0,0,0,0,0,0,0,0,-1,1560,638,0,0
343,386,0,0,0,0,0,0,0,0,0,-1,1567,638,0,0
350,386,0,0,0,0,0,0,0,0,0,-1,1574,638,0,0
357,386,0,0,0,0,0,0,0,0,0,-1,1581,638,0,0
364,386,0,0,0,0,0,0,0,0,0,-1,1588,638,0,0
371,386,0,0,0,0,0,0,0,0,0,-1,1595,638,0,0
378,386,0,0,0,0,0,0,0,0,0,-1,1602,638,0,0
385,386,0,0,0,0,0,0,0,0,0,-1,1609,638,0,0
392,386,0,0,0,0,0,0,0,0,0,-1,1616,638,0,0
399,386,0,0,0,0,0,0,0,0,0,-1,1623,638,0,0
406,386,0,0,0,0,0,0,0,0,0,-1,1630,638,0,0
413,386,0,0,0,0,0,0,0,0,0,-1,1637,638,0,0
420,386,0,0,0,0,0,0,0,0,0,-1,1644,638,0,0
427,386,0,0,0,0,0,0,0,0,0,-1,1651,638,0,0
434,386,0,0,0,0,0,0,0,0,0,-1,1658,638,0,0
441,386,0,0,0,0,0,0,0,0,0,-1,1665,638,0,0
448,386,0,0,0,0,0,0,0,0,0,-1,1672,638,0,0
455,386,0,0,0,0,0,0,0,0,0,-1,1679,638,0,0
462,386,0,0,0,0,0,0,0,0,0,-1,1686,638,0,0
469,386,9.84692,1.55804,0,0,0,0,0,0,0,-1,1693,638,9.84691,-1.55807
476,386,10.6145,0.986511,0,0,0,0,0,0,0,-1,1700,638,10.6145,-0.986529
483,386,11.4113,0.732971,0,0,0,0,0,0,0,-1,1707,638,11.4112,-0.732958
490,386,7.79785,1.79572,0,0,0,0,0,0,0,-1,1714,638,7.79788,-1.7957
497,386,8.96362,1.77081,0,0,0,0,0,0,0,-1,1721,638,8.96357,-1.77081
504,386,10.0555,1.69427,0,0,0,0,0,0,0,-1,1728,638,10.0555,-1.69426
511,386,11.2172,1.534,0,0,0,0,0,0,0,-1,1735,638,11.2172,-1.53398
518,386,7.41553,1.75238,0,0,0,0,0,0,0,-1,1742,638,7.41547,-1.75238
525,386,8.82422,-1.1449,0,0,0,0,0,0,0,-1,1749,638,8.82426,1.14492
532,386,10.6432,0.617371,0,0,0,0,0,0,0,-1,1756,638,10.6432,-0.617359
539,386,9.62061,-0.393616,0,0,0,0,0,0,0,-1,1763,638,9.62059,0.393634
546,386,10.7963,-2.854,0,0,0,0,0,0,0,-1,1770,638,10.7962,2.854
553,386,16.9939,-7.27942,0,0,0,0,0,0,0,-1,1777,638,16.9939,7.27944
560,386,37.121,-20.7977,0,0,0,0,0,0,0,-1,1784,638,37.1209,20.7977
567,386,37.1519,-19.6719,0,0,0,0,0,0,0,-1,1791,638,37.1518,19.6719
574,386,37.1471,-18.6127,0.00134334,7.11215e-05,6.17371e-05,0.00134633,6.81326e-05,0.0483756,0.000875727,0.0165307,1798,638,37.1471,18.6127
581,386,37.0398,-17.6295,0.000987529,0.000434453,0.000201362,0.00105307,0.00036891,0.314686,0.000617006,0.0165967,1805,638,37.0398,17.6295
588,386,37.0227,-16.617,0.000990863,0.000940633,0.000499038,0.00146542,0.000466079,0.760256,0.00086453,0.0152405,1812,638,37.0227,16.617
595,386,36.9586,-15.6363,0.00131467,0.00158647,0.000966355,0.00242643,0.000474708,0.855254,0.0014849,0.016834,1819,638,36.9586,15.6363
602,386,36.8644,-14.6578,0.00187867,0.00237188,0.00157701,0.00372145,0.000529103,0.862958,0.00232476,0.0172031,1826,638,36.8644,14.6578
609,386,36.8083,-13.6569,0.00264077,0.0033035,0.00226344,0.0052597,0.00068457,0.858081,0.00330202,0.015188,1833,638,36.8083,13.6569
616,386,36.7316,-12.5967,0.00364683,0.00441338,0.00301828,0.00707263,0.000987585,0.848553,0.0044228,0.0120823,1840,638,36.7316,12.5967
623,386,36.6425,-11.5615,0.00487198,0.00554863,0.00382521,0.00905045,0.00137016,0.829506,0.00563274,0.0110714,1847,638,36.6425,11.5615
630,386,36.726,-10.5083,0.0061899,0.00669299,0.00459092,0.0110393,0.00184363,0.812767,0.00682843,0.0377275,1854,638,36.726,10.5083
637,386,36.8866,-9.42194,0,0,0,0,0,0,0,-1,1861,638,36.8866,9.42191
644,386,11.6521,0.723328,0,0,0,0,0,0,0,-1,1868,638,11.6521,-0.723355
651,386,9.3866,1.31097,0,0,0,0,0,0,0,-1,1875,638,9.3866,-1.31095
658,386,12.0731,-0.00415039,0,0,0,0,0,0,0,-1,1882,638,12.0731,0.00412803
665,386,6.33167,1.78601,0,0,0,0,0,0,0,-1,1889,638,6.33171,-1.78601
672,386,7.23352,2.14435,0,0,0,0,0,0,0,-1,1896,638,7.23353,-2.14433
679,386,8.07764,2.57104,0,0,0,0,0,0,0,-1,1903,638,8.07758,-2.57103
686,386,0,0,0,0,0,0,0,0,0,-1,1910,638,0,0
693,386,0,0,0,0,0,0,0,0,0,-1,1917,638,0,0
700,386,0,0,0,0,0,0,0,0,0,-1,1924,638,0,0
707,386,0,0,0,0,0,0,0,0,0,-1,1931,638,0,0
714,386,0,0,0,0,0,0,0,0,0,-1,1938,638,0,0
721,386,0,0,0,0,0,0,0,0,0,-1,1945,638,0,0
728,386,0,0,0,0,0,0,0,0,0,-1,1952,638,0,0
735,386,0,0,0,0,0,0,0,0,0,-1,1959,638,0,0
742,386,0,0,0,0,0,0,0,0,0,-1,1966,638,0,0
749,386,0,0,0,0,0,0,0,0,0,-1,1973,638,0,0
756,386,0,0,0,0,0,0,0,0,0,-1,1980,638,0,0
763,386,0,0,0,0,0,0,0,0,0,-1,1987,638,0,0
770,386,0,0,0,0,0,0,0,0,0,-1,1994,638,0,0
777,386,0,0,0,0,0,0,0,0,0,-1,2001,638,0,0
784,386,0,0,0,0,0,0,0,0,0,-1,2008,638,0,0
791,386,0,0,0,0,0,0,0,0,0,-1,2015,638,0,0
798,386,0,0,0,0,0,0,0,0,0,-1,2022,638,0,0
805,386,0,0,0,0,0,0,0,0,0,-1,2029,638,0,0
812,386,0,0,0,0,0,0,0,0,0,-1,2036,638,0,0
-700,379,0,0,0,0,0,0,0,0,0,-1,524,645,0,0
-693,379,0,0,0,0,0,0,0,0,0,-1,531,645,0,0
-686,379,0,0,0,0,0,0,0,0,0,-1,538,645,0,0
-679,379,0,0,0,0,0,0,0,0,0,-1,545,645,0,0
-672,379,0,0,0,0,0,0,0,0,0,-1,552,645,0,0
-665,379,0,0,0,0,0,0,0,0,0,-1,559,645,0,0
-658,379,0,0,0,0,0,0,0,0,0,-1,566,645,0,0
-651,379,0,0,0,0,0,0,0,0,0,-1,573,645,0,0
-644,379,0,0,0,0,0,0,0,0,0,-1,580,645,0,0
-637,379,0,0,0,0,0,0,0,0,0,-1,587,645,0,0
-630,379,0,0,0,0,0,0,0,0,0,-1,594,645,0,0
-623,379,0,0,0,0,0,0,0,0,0,-1,601,645,0,0
-616,379,0,0,0,0,0,0,0,0,0,-1,608,645,0,0
-609,379,0,0,0,0,0,0,0,0,0,-1,615,645,0,0
-602,379,0,0,0,0,0,0,0,0,0,-1,622,645,0,0
-595,379,0,0,0,0,0,0,0,0,0,-1,629,645,0,0
-588,379,0,0,0,0,0,0,0,0,0,-1,636,645,0,0
-581,379,0,0,0,0,0,0,0,0,0,-1,643,645,0,0
-574,379,0,0,0,0,0,0,0,0,0,-1,650,645,0,0
-567,379,-8.78058,0.59668,0,0,0,0,0,0,0,-1,657,645,-8.7806,-0.596692
-560,379,-9.53485,-0.211304,0,0,0,0,0,0,0,-1,664,645,-9.53487,0.211282
-553,379,-5.17108,-4.53119,0,0,0,0,0,0,0,-1,671,645,-5.17106,4.53117
-546,379,-6.23053,-4.92102,0,0,0,0,0,0,0,-1,678,645,-6.23054,4.92105
-539,379,-0.71698,-2.19427,0,0,0,0,0,0,0,-1,685,645,-0.716959,2.19427
-532,379,-7.69611,0.217224,0,0,0,0,0,0,0,-1,692,645,-7.69614,-0.217204
-525,379,-7.09833,-1.13043,0,0,0,0,0,0,0,-1,699,645,-7.0983,1.13041
-518,379,-13.126,-5.33893,0,0,0,0,0,0,0,-1,706,645,-13.126,5.33895
-511,379,-20.6022,-9.61798,0,0,0,0,0,0,0,-1,713,645,-20.6023,9.61796
-504,379,-20.7545,-10.5027,0,0,0,0,0,0,0,-1,720,645,-20.7545,10.5027
-497,379,-20.7979,-11.5473,0.00145313,0.0010503,-0.000726054,0.00200519,0.000498242,-0.650093,0.00120554,0.0166979,727,645,-20.7978,11.5473
-490,379,-20.8634,-12.5967,0.000950753,0.000823629,-0.000466228,0.00135773,0.00041665,-0.717649,0.000803142,0.0114602,734,645,-20.8634,12.5967
-483,379,-20.9186,-13.6329,0.000669509,0.000603007,-0.000327649,0.00096559,0.000306926,-0.734829,0.000569679,0.0136425,741,645,-20.9187,13.6329
-476,379,-20.9639,-14.5974,0.000644644,0.000385274,-0.000310969,0.000851886,0.000178031,-0.587846,0.000518863,0.0138805,748,645,-20.9639,14.5974
-469,379,-21.0483,-15.5839,0.000882593,0.000175845,-0.000416683,0.00107557,-1.71307e-05,-0.433713,0.000722824,0.0125274,755,645,-21.0483,15.5839
-462,379,-21.1389,-16.6168,0.00130293,-1.17172e-05,-0.00064029,0.00156324,-0.000272024,-0.386136,0.00114367,0.00987215,762,645,-21.1389,16.6168
-455,379,-21.2184,-17.6401,0.00194413,1.39488e-05,-0.00104242,0.00239962,-0.000441535,-0.411949,0.00176542,0.0102391,769,645,-21.2184,17.6401
-448,379,-21.2644,-18.6298,0.00279806,4.55545e-05,-0.00153237,0.00348147,-0.000637857,-0.41951,0.00256023,0.0119441,776,645,-21.2644,18.6297
-441,379,-21.3046,-19.6839,0.00384058,0.000276443,-0.00222497,0.00490917,-0.000792149,-0.447741,0.00356628,0.0247328,783,645,-21.3046,19.6839
-434,379,-21.1993,-20.8083,0,0,0,0,0,0,0,-1,790,645,-21.1993,20.8083
-427,379,-4.16113,-4.13452,0,0,0,0,0,0,0,-1,797,645,-4.16116,4.1345
-420,379,-4.63953,-3.46869,0,0,0,0,0,0,0,-1,804,645,-4.63953,3.46872
-413,379,-4.62543,-3.7912,0,0,0,0,0,0,0,-1,811,645,-4.62541,3.79123
-406,379,-4.64063,-4.38489,0,0,0,0,0,0,0,-1,818,645,-4.64065,4.3849
-399,379,-2.93536,-1.40118,0,0,0,0,0,0,0,-1,825,645,-2.93534,1.40119
-392,379,-4.16711,-0.466003,0,0,0,0,0,0,0,-1,832,645,-4.16714,0.465992
-385,379,-3.51862,0.441101,0,0,0,0,0,0,0,-1,839,645,-3.51859,-0.441072
-378,379,-5.3504,0.212219,0,0,0,0,0,0,0,-1,846,645,-5.35038,-0.212241
-371,379,-4.32092,-0.186707,0,0,0,0,0,0,0,-1,853,645,-4.3209,0.186707
-364,379,-3.40887,-0.549805,0,0,0,0,0,0,0,-1,860,645,-3.4089,0.549802
-357,379,0,0,0,0,0,0,0,0,0,-1,867,645,0,0
-350,379,0,0,0,0,0,0,0,0,0,-1,874,645,0,0
-343,379,0,0,0,0,0,0,0,0,0,-1,881,645,0,0
-336,379,0,0,0,0,0,0,0,0,0,-1,888,645,0,0
-329,379,0,0,0,0,0,0,0,0,0,-1,895,645,0,0
-322,379,0,0,0,0,0,0,0,0,0,-1,902,645,0,0
-315,379,0,0,0,0,0,0,0,0,0,-1,909,645,0,0
-308,379,0,0,0,0,0,0,0,0,0,-1,916,645,0,0
-301,379,0,0,0,0,0,0,0,0,0,-1,923,645,0,0
-294,379,0,0,0,0,0,0,0,0,0,-1,930,645,0,0
-287,379,0,0,0,0,0,0,0,0,0,-1,937,645,0,0
-280,379,0,0,0,0,0,0,0,0,0,-1,944,645,0,0
-273,379,0,0,0,0,0,0,0,0,0,-1,951,645,0,0
-266,379,0,0,0,0,0,0,0,0,0,-1,958,645,0,0
-259,379,0,0,0,0,0,0,0,0,0,-1,965,645,0,0
-252,379,0,0,0,0,0,0,0,0,0,-1,972,645,0,0
-245,379,0,0,0,0,0,0,0,0,0,-1,979,645,0,0
-238,379,0,0,0,0,0,0,0,0,0,-1,986,645,0,0
-231,379,0,0,0,0,0,0,0,0,0,-1,993,645,0,0
-224,379,0,0,0,0,0,0,0,0,0,-1,1000,645,0,0
-217,379,0,0,0,0,0,0,0,0,0,-1,1007,645,0,0
-210,379,0,0,0,0,0,0,0,0,0,-1,1014,645,0,0
-203,379,0,0,0,0,0,0,0,0,0,-1,1021,645,0,0
-196,379,0,0,0,0,0,0,0,0,0,-1,1028,645,0,0
-189,379,0,0,0,0,0,0,0,0,0,-1,1035,645,0,0
-182,379,0,0,0,0,0,0,0,0,0,-1,1042,645,0,0
-175,379,0,0,0,0,0,0,0,0,0,-1,1049,645,0,0
-168,379,0,0,0,0,0,0,0,0,0,-1,1056,645,0,0
-161,379,0,0,0,0,0,0,0,0,0,-1,1063,645,0,0
-154,379,0,0,0,0,0,0,0,0,0,-1,1070,645,0,0
-147,379,0,0,0,0,0,0,0,0,0,-1,1077,645,0,0
-140,379,0,0,0,0,0,0,0,0,0,-1,1084,645,0,0
-133,379,0,0,0,0,0,0,0,0,0,-1,1091,645,0,0
-126,379,0,0,0,0,0,0,0,0,0,-1,1098,645,0,0
-119,379,0,0,0,0,0,0,0,0,0,-1,1105,645,0,0
-112,379,0,0,0,0,0,0,0,0,0,-1,1112,645,0,0
-105,379,0,0,0,0,0,0,0,0,0,-1,1119,645,0,0
-98,379,0,0,0,0,0,0,0,0,0,-1,1126,645,0,0
-91,379,0,0,0,0,0,0,0,0,0,-1,1133,645,0,0
-84,379,0,0,0,0,0,0,0,0,0,-1,1140,645,0,0
-77,379,0,0,0,0,0,0,0,0,0,-1,1147,645,0,0
-70,379,0,0,0,0,0,0,0,0,0,-1,1154,645,0,0
-63,379,0,0,0,0,0,0,0,0,0,-1,1161,645,0,0
-56,379,0,0,0,0,0,0,0,0,0,-1,1168,645,0,0
-49,379,0,0,0,0,0,0,0,0,0,-1,1175,645,0,0
-42,379,0,0,0,0,0,0,0,0,0,-1,1182,645,0,0
-35,379,0,0,0,0,0,0,0,0,0,-1,1189,645,0,0
-28,379,0,0,0,0,0,0,0,0,0,-1,1196,645,0,0
-21,379,0,0,0,0,0,0,0,0,0,-1,1203,645,0,0
-14,379,0,0,0,0,0,0,0,0,0,-1,1210,645,0,0
-7,379,0,0,0,0,0,0,0,0,0,-1,1217,645,0,0
0,379,0,0,0,0,0,0,0,0,0,-1,1224,645,0,0
7,379,0,0,0,0,0,0,0,0,0,-1,1231,645,0,0
14,379,0,0,0,0,0,0,0,0,0,-1,1238,645,0,0
21,379,0,0,0,0,0,0,0,0,0,-1,1245,645,0,0
28,379,0,0,0,0,0,0,0,0,0,-1,1252,645,0,0
35,379,0,0,0,0,0,0,0,0,0,-1,1259,645,0,0
42,379,0,0,0,0,0,0,0,0,0,-1,1266,645,0,0
49,379,0,0,0,0,0,0,0,0,0,-1,1273,645,0,0
56,379,0,0,0,0,0,0,0,0,0,-1,1280,645,0,0
63,379,0,0,0,0,0,0,0,0,0,-1,1287,645,0,0
70,379,0,0,0,0,0,0,0,0,0,-1,1294,645,0,0
77,379,0,0,0,0,0,0,0,0,0,-1,1301,645,0,0
84,379,0,0,0,0,0,0,0,0,0,-1,1308,645,0,0
91,379,0,0,0,0,0,0,0,0,0,-1,1315,645,0,0
98,379,0,0,0,0,0,0,0,0,0,-1,1322,645,0,0
105,379,0,0,0,0,0,0,0,0,0,-1,1329,645,0,0
112,379,0,0,0,0,0,0,0,0,0,-1,1336,645,0,0
119,379,0,0,0,0,0,0,0,0,0,-1,1343,645,0,0
126,379,0,0,0,0,0,0,0,0,0,-1,1350,645,0,0
133,379,0,0,0,0,0,0,0,0,0,-1,1357,645,0,0
140,379,0,0,0,0,0,0,0,0,0,-1,1364,645,0,0
147,379,0,0,0,0,0,0,0,0,0,-1,1371,645,0,0
154,379,0,0,0,0,0,0,0,0,0,-1,1378,645,0,0
161,379,0,0,0,0,0,0,0,0,0,-1,1385,645,0,0
168,379,0,0,0,0,0,0,0,0,0,-1,1392,645,0,0
175,379,0,0,0,0,0,0,0,0,0,-1,1399,645,0,0
182,379,0,0,0,0,0,0,0,0,0,-1,1406,645,0,0
189,379,0,0,0,0,0,0,0,0,0,-1,1413,645,0,0
196,379,0,0,0,0,0,0,0,0,0,-1,1420,645,0,0
203,379,0,0,0,0,0,0,0,0,0,-1,1427,645,0,0
210,379,0,0,0,0,0,0,0,0,0,-1,1434,645,0,0
217,379,0,0,0,0,0,0,0,0,0,-1,1441,645,0,0
224,379,0,0,0,0,0,0,0,0,0,-1,1448,645,0,0
231,379,0,0,0,0,0,0,0,0,0,-1,1455,645,0,0
238,379,0,0,0,0,0,0,0,0,0,-1,1462,645,0,0
245,379,0,0,0,0,0,0,0,0,0,-1,1469,645,0,0
252,379,0,0,0,0,0,0,0,0,0,-1,1476,645,0,0
259,379,0,0,0,0,0,0,0,0,0,-1,1483,645,0,0
266,379,0,0,0,0,0,0,0,0,0,-1,1490,645,0,0
273,379,0,0,0,0,0,0,0,0,0,-1,1497,645,0,0
280,379,0,0,0,0,0,0,0,0,0,-1,1504,645,0,0
287,379,0,0,0,0,0,0,0,0,0,-1,1511,645,0,0
294,379,0,0,0,0,0,0,0,0,0,-1,1518,645,0,0
301,379,0,0,0,0,0,0,0,0,0,-1,1525,645,0,0
308,379,0,0,0,0,0,0,0,0,0,-1,1532,645,0,0
315,379,0,0,0,0,0,0,0,0,0,-1,1539,645,0,0
322,379,0,0,0,0,0,0,0,0,0,-1,1546,645,0,0
329,379,0,0,0,0,0,0,0,0,0,-1,1553,645,0,0
336,379,0,0,0,0,0,0,0,0,0,-1,1560,645,0,0
343,379,0,0,0,0,0,0,0,0,0,-1,1567,645,0,0
350,379,0,0,0,0,0,0,0,0,0,-1,1574,645,0,0
357,379,0,0,0,0,0,0,0,0,0,-1,1581,645,0,0
364,379,0,0,0,0,0,0,0,0,0,-1,1588,645,0,0
371,379,0,0,0,0,0,0,0,0,0,-1,1595,645,0,0
378,379,0,0,0,0,0,0,0,0,0,-1,1602,645,0,0
385,379,0,0,0,0,0,0,0,0,0,-1,1609,645,0,0
392,379,0,0,0,0,0,0,0,0,0,-1,1616,645,0,0
399,379,0,0,0,0,0,0,0,0,0,-1,1623,645,0,0
406,379,0,0,0,0,0,0,0,0,0,-1,1630,645,0,0
413,379,0,0,0,0,0,0,0,0,0,-1,1637,645,0,0
420,379,0,0,0,0,0,0,0,0,0,-1,1644,645,0,0
427,379,0,0,0,0,0,0,0,0,0,-1,1651,645,0,0
434,379,0,0,0,0,0,0,0,0,0,-1,1658,645,0,0
441,379,0,0,0,0,0,0,0,0,0,-1,1665,645,0,0
448,379,0,0,0,0,0,0,0,0,0,-1,1672,645,0,0
455,379,0,0,0,0,0,0,0,0,0,-1,1679,645,0,0
462,379,0,0,0,0,0,0,0,0,0,-1,1686,645,0,0
469,379,0,0,0,0,0,0,0,0,0,-1,1693,645,0,0
476,379,11.1787,0.830383,0,0,0,0,0,0,0,-1,1700,645,11.1787,-0.830365
483,379,7.4231,1.54321,0,0,0,0,0,0,0,-1,1707,645,7.42314,-1.54324
490,379,8.52881,1.56677,0,0,0,0,0,0,0,-1,1714,645,8.52878,-1.56677
497,379,9.63599,1.49573,0,0,0,0,0,0,0,-1,1721,645,9.63604,-1.4957
504,379,10.0833,1.35229,0,0,0,0,0,0,0,-1,1728,645,10.0832,-1.35227
511,379,8.14343,1.59912,0,0,0,0,0,0,0,-1,1735,645,8.14347,-1.59912
518,379,12.7955,-0.324097,0,0,0,0,0,0,0,-1,1742,645,12.7955,0.324101
525,379,6.03711,1.10352,0,0,0,0,0,0,0,-1,1749,645,6.03711,-1.10351
532,379,8.70947,0.887817,0,0,0,0,0,0,0,-1,1756,645,8.70953,-0.887808
539,379,9.87097,0.111389,0,0,0,0,0,0,0,-1,1763,645,9.87095,-0.111395
546,379,8.42383,-0.730652,0,0,0,0,0,0,0,-1,1770,645,8.42378,0.730638
553,379,19.2905,-7.67834,0,0,0,0,0,0,0,-1,1777,645,19.2905,7.67837
560,379,22.5734,-10.4749,0,0,0,0,0,0,0,-1,1784,645,22.5734,10.4749
567,379,38.1971,-19.6072,0,0,0,0,0,0,0,-1,1791,645,38.1971,19.6072
574,379,38.1359,-18.5305,0.00127673,-0.000146725,-4.37855e-05,0.00127808,-0.000148071,-0.0307212,0.000905455,0.0189283,1798,645,38.1359,18.5304
581,379,38.0636,-17.5396,0.000809457,0.000157952,2.86532e-05,0.000810715,0.000156694,0.0438672,0.000496556,0.016889,1805,645,38.0637,17.5396
588,379,38.0265,-16.5385,0.000742174,0.000546655,0.000265668,0.000927498,0.000361331,0.609099,0.000539827,0.0187473,1812,645,38.0265,16.5385
595,379,37.978,-15.58,0.000993338,0.00109514,0.000646866,0.0016931,0.000395373,0.82466,0.00102274,0.0156768,1819,645,37.978,15.5799
602,379,37.8994,-14.5964,0.00147684,0.00175314,0.00114849,0.00277175,0.000458223,0.845256,0.00171561,0.0178707,1826,645,37.8994,14.5965
609,379,37.8082,-13.6245,0.00210741,0.00252489,0.00168622,0.00401524,0.000617054,0.846981,0.00249669,0.0208583,1833,645,37.8082,13.6245
616,379,37.7004,-12.5862,0.0029381,0.00343907,0.00225843,0.00546087,0.000916308,0.840628,0.00337684,0.0156378,1840,645,37.7005,12.5862
623,379,37.6591,-11.4833,0.00399252,0.00433292,0.0028616,0.00702938,0.00129607,0.815103,0.00431954,0.0129784,1847,645,37.659,11.4833
630,379,37.6183,-10.4813,0.00507743,0.00524663,0.00340728,0.00857036,0.0017537,0.79781,0.00522798,0.0152283,1854,645,37.6183,10.4813
637,379,37.5909,-9.37274,0.00617406,0.00628728,0.00386837,0.0100995,0.00236188,0.792715,0.00610005,0.0452635,1861,645,37.591,9.37273
644,379,37.7568,-8.13696,0,0,0,0,0,0,0,-1,1868,645,37.7568,8.13698
651,379,12.9515,0.220825,0,0,0,0,0,0,0,-1,1875,645,12.9515,-0.220814
658,379,13.7498,0.37439,0,0,0,0,0,0,0,-1,1882,645,13.7498,-0.374371
665,379,11.9719,0.353333,0,0,0,0,0,0,0,-1,1889,645,11.9719,-0.353321
672,379,7.57605,2.15326,0,0,0,0,0,0,0,-1,1896,645,7.57599,-2.15326
679,379,8.55078,2.50409,0,0,0,0,0,0,0,-1,1903,645,8.55073,-2.50406
686,379,0,0,0,0,0,0,0,0,0,-1,1910,645,0,0
693,379,0,0,0,0,0,0,0,0,0,-1,1917,645,0,0
700,379,0,0,0,0,0,0,0,0,0,-1,1924,645,0,0
707,379,0,0,0,0,0,0,0,0,0,-1,1931,645,0,0
714,379,0,0,0,0,0,0,0,0,0,-1,1938,645,0,0
721,379,0,0,0,0,0,0,0,0,0,-1,1945,645,0,0
728,379,0,0,0,0,0,0,0,0,0,-1,1952,645,0,0
735,379,0,0,0,0,0,0,0,0,0,-1,1959,645,0,0
742,379,0,0,0,0,0,0,0,0,0,-1,1966,645,0,0
749,379,0,0,0,0,0,0,0,0,0,-1,1973,645,0,0
756,379,0,0,0,0,0,0,0,0,0,-1,1980,645,0,0
763,379,0,0,0,0,0,0,0,0,0,-1,1987,645,0,0
770,379,0,0,0,0,0,0,0,0,0,-1,1994,645,0,0
777,379,0,0,0,0,0,0,0,0,0,-1,2001,645,0,0
784,379,0,0,0,0,0,0,0,0,0,-1,2008,645,0,0
791,379,0,0,0,0,0,0,0,0,0,-1,2015,645,0,0
798,379,0,0,0,0,0,0,0,0,0,-1,2022,645,0,0
805,379,0,0,0,0,0,0,0,0,0,-1,2029,645,0,0
812,379,0,0,0,0,0,0,0,0,0,-1,2036,645,0,0
-700,372,0,0,0,0,0,0,0,0,0,-1,524,652,0,0
-693,372,0,0,0,0,0,0,0,0,0,-1,531,652,0,0
-686,372,0,0,0,0,0,0,0,0,0,-1,538,652,0,0
-679,372,0,0,0,0,0,0,0,0,0,-1,545,652,0,0
-672,372,0,0,0,0,0,0,0,0,0,-1,552,652,0,0
-665,372,0,0,0,0,0,0,0,0,0,-1,559,652,0,0
-658,372,0,0,0,0,0,0,0,0,0,-1,566,652,0,0
-651,372,0,0,0,0,0,0,0,0,0,-1,573,652,0,0
-644,372,0,0,0,0,0,0,0,0,0,-1,580,652,0,0
-637,372,0,0,0,0,0,0,0,0,0,-1,587,652,0,0
-630,372,0,0,0,0,0,0,0,0,0,-1,594,652,0,0
-623,372,0,0,0,0,0,0,0,0,0,-1,601,652,0,0
-616,372,0,0,0,0,0,0,0,0,0,-1,608,652,0,0
-609,372,0,0,0,0,0,0,0,0,0,-1,615,652,0,0
-602,372,0,0,0,0,0,0,0,0,0,-1,622,652,0,0
-595,372,0,0,0,0,0,0,0,0,0,-1,629,652,0,0
-588,372,0,0,0,0,0,0,0,0,0,-1,636,652,0,0
-581,372,0,0,0,0,0,0,0,0,0,-1,643,652,0,0
-574,372,0,0,0,0,0,0,0,0,0,-1,650,652,0,0
-567,372,-7.93744,0.73407,0,0,0,0,0,0,0,-1,657,652,-7.93741,-0.734076
-560,372,-8.78552,-0.158203,0,0,0,0,0,0,0,-1,664,652,-8.78552,0.158216
-553,372,-7.95551,1.61694,0,0,0,0,0,0,0,-1,671,652,-7.95552,-1.61697
-546,372,-4.2403,-3.75372,0,0,0,0,0,0,0,-1,678,652,-4.24028,3.75369
-539,372,-7.92285,-0.0650024,0,0,0,0,0,0,0,-1,685,652,-7.92287,0.0649772
-532,372,-8.59589,-0.419556,0,0,0,0,0,0,0,-1,692,652,-8.59591,0.419539
-525,372,-8.03674,-1.36804,0,0,0,0,0,0,0,-1,699,652,-8.03676,1.36806
-518,372,-21.6564,-8.28882,0,0,0,0,0,0,0,-1,706,652,-21.6564,8.28881
-511,372,-21.6644,-9.46521,0.00327777,0.000778932,-0.00178416,0.00420648,-0.000149786,-0.47994,0.00285556,0.0417566,713,652,-21.6644,9.46519
-504,372,-21.7375,-10.4369,0.00249652,0.000752537,-0.00128325,0.00317601,7.3047e-05,-0.486974,0.00209342,0.020137,720,652,-21.7375,10.4369
-497,372,-21.7827,-11.4849,0.00187419,0.000615504,-0.000921179,0.00236048,0.000129211,-0.48572,0.0015324,0.012816,727,652,-21.7827,11.4849
-490,372,-21.8754,-12.4915,0.00142303,0.000421599,-0.000647848,0.00174111,0.000103522,-0.456402,0.00112782,0.0130453,734,652,-21.8754,12.4914
-483,372,-21.9417,-13.505,0.00114984,0.000251691,-0.000494128,0.00136847,3.30597e-05,-0.416566,0.000901494,0.0130122,741,652,-21.9416,13.505
-476,372,-21.9833,-14.4959,0.00107795,0.000113542,-0.000456549,0.00125979,-6.82999e-05,-0.379038,0.00086353,0.0142015,748,652,-21.9833,14.4959
-469,372,-22.0638,-15.4869,0.00122902,7.93843e-06,-0.000546424,0.00143783,-0.000200873,-0.365018,0.00103205,0.0112818,755,652,-22.0638,15.4869
-462,372,-22.1416,-16.5035,0.00155228,-6.1984e-05,-0.000758538,0.00185277,-0.000362481,-0.377186,0.00137206,0.0102527,762,652,-22.1416,16.5035
-455,372,-22.2284,-17.511,0.00211925,4.81617e-05,-0.00115138,0.00263226,-0.000464849,-0.419158,0.00192856,0.0111495,769,652,-22.2284,17.511
-448,372,-22.2733,-18.5332,0.00291665,0.000205962,-0.00166541,0.00370852,-0.000585914,-0.443843,0.00268902,0.0174631,776,652,-22.2733,18.5332
-441,372,-22.1077,-19.7682,0,0,0,0,0,0,0,-1,783,652,-22.1077,19.7682
-434,372,-9.86865,-9.68494,0,0,0,0,0,0,0,-1,790,652,-9.86863,9.68492
-427,372,-4.54248,-3.56268,0,0,0,0,0,0,0,-1,797,652,-4.54247,3.56266
-420,372,-4.66168,-2.93597,0,0,0,0,0,0,0,-1,804,652,-4.66166,2.93599
-413,372,-4.74762,-3.29541,0,0,0,0,0,0,0,-1,811,652,-4.74763,3.29542
-406,372,-0.885437,-0.583923,0,0,0,0,0,0,0,-1,818,652,-0.885437,0.5839
-399,372,-3.97357,-0.825012,0,0,0,0,0,0,0,-1,825,652,-3.97359,0.825037
-392,372,-7.64337,0.173035,0,0,0,0,0,0,0,-1,832,652,-7.64337,-0.173019
-385,372,-6.48871,-0.0271606,0,0,0,0,0,0,0,-1,839,652,-6.48874,0.0271353
-378,372,-5.33044,-0.242432,0,0,0,0,0,0,0,-1,846,652,-5.33042,0.242457
-371,372,-4.40802,-0.495667,0,0,0,0,0,0,0,-1,853,652,-4.40802,0.495661
-364,372,0,0,0,0,0,0,0,0,0,-1,860,652,0,0
-357,372,0,0,0,0,0,0,0,0,0,-1,867,652,0,0
-350,372,0,0,0,0,0,0,0,0,0,-1,874,652,0,0
-343,372,0,0,0,0,0,0,0,0,0,-1,881,652,0,0
-336,372,0,0,0,0,0,0,0,0,0,-1,888,652,0,0
-329,372,0,0,0,0,0,0,0,0,0,-1,895,652,0,0
-322,372,0,0,0,0,0,0,0,0,0,-1,902,652,0,0
-315,372,0,0,0,0,0,0,0,0,0,-1,909,652,0,0
-308,372,0,0,0,0,0,0,0,0,0,-1,916,652,0,0
-301,372,0,0,0,0,0,0,0,0,0,-1,923,652,0,0
-294,372,0,0,0,0,0,0,0,0,0,-1,930,652,0,0
-287,372,0,0,0,0,0,0,0,0,0,-1,937,652,0,0
-280,372,0,0,0,0,0,0,0,0,0,-1,944,652,0,0
-273,372,0,0,0,0,0,0,0,0,0,-1,951,652,0,0
-266,372,0,0,0,0,0,0,0,0,0,-1,958,652,0,0
-259,372,0,0,0,0,0,0,0,0,0,-1,965,652,0,0
-252,372,0,0,0,0,0,0,0,0,0,-1,972,652,0,0
-245,372,0,0,0,0,0,0,0,0,0,-1,979,652,0,0
-238,372,0,0,0,0,0,0,0,0,0,-1,986,652,0,0
-231,372,0,0,0,0,0,0,0,0,0,-1,993,652,0,0
-224,372,0,0,0,0,0,0,0,0,0,-1,1000,652,0,0
-217,372,0,0,0,0,0,0,0,0,0,-1,1007,652,0,0
-210,372,0,0,0,0,0,0,0,0,0,-1,1014,652,0,0
-203,372,0,0,0,0,0,0,0,0,0,-1,1021,652,0,0
-196,372,0,0,0,0,0,0,0,0,0,-1,1028,652,0,0
-189,372,0,0,0,0,0,0,0,0,0,-1,1035,652,0,0
-182,372,0,0,0,0,0,0,0,0,0,-1,1042,652,0,0
-175,372,0,0,0,0,0,0,0,0,0,-1,1049,652,0,0
-168,372,0,0,0,0,0,0,0,0,0,-1,1056,652,0,0
-161,372,0,0,0,0,0,0,0,0,0,-1,1063,652,0,0
-154,372,0,0,0,0,0,0,0,0,0,-1,1070,652,0,0
-147,372,0,0,0,0,0,0,0,0,0,-1,1077,652,0,0
-140,372,0,0,0,0,0,0,0,0,0,-1,1084,652,0,0
-133,372,0,0,0,0,0,0,0,0,0,-1,1091,652,0,0
-126,372,0,0,0,0,0,0,0,0,0,-1,1098,652,0,0
-119,372,0,0,0,0,0,0,0,0,0,-1,1105,652,0,0
-112,372,0,0,0,0,0,0,0,0,0,-1,1112,652,0,0
-105,372,0,0,0,0,0,0,0,0,0,-1,1119,652,0,0
-98,372,0,0,0,0,0,0,0,0,0,-1,1126,652,0,0
-91,372,0,0,0,0,0,0,0,0,0,-1,1133,652,0,0
-84,372,0,0,0,0,0,0,0,0,0,-1,1140,652,0,0
-77,372,0,0,0,0,0,0,0,0,0,-1,1147,652,0,0
-70,372,0,0,0,0,0,0,0,0,0,-1,1154,652,0,0
-63,372,0,0,0,0,0,0,0,0,0,-1,1161,652,0,0
-56,372,0,0,0,0,0,0,0,0,0,-1,1168,652,0,0
-49,372,0,0,0,0,0,0,0,0,0,-1,1175,652,0,0
-42,372,0,0,0,0,0,0,0,0,0,-1,1182,652,0,0
-35,372,0,0,0,0,0,0,0,0,0,-1,1189,652,0,0
-28,372,0,0,0,0,0,0,0,0,0,-1,1196,652,0,0
-21,372,0,0,0,0,0,0,0,0,0,-1,1203,652,0,0
-14,372,0,0,0,0,0,0,0,0,0,-1,1210,652,0,0
-7,372,0,0,0,0,0,0,0,0,0,-1,1217,652,0,0
0,372,0,0,0,0,0,0,0,0,0,-1,1224,652,0,0
7,372,0,0,0,0,0,0,0,0,0,-1,1231,652,0,0
14,372,0,0,0,0,0,0,0,0,0,-1,1238,652,0,0
21,372,0,0,0,0,0,0,0,0,0,-1,1245,652,0,0
28,372,0,0,0,0,0,0,0,0,0,-1,1252,652,0,0
35,372,0,0,0,0,0,0,0,0,0,-1,1259,652,0,0
42,372,0,0,0,0,0,0,0,0,0,-1,1266,652,0,0
49,372,0,0,0,0,0,0,0,0,0,-1,1273,652,0,0
56,372,0,0,0,0,0,0,0,0,0,-1,1280,652,0,0
63,372,0,0,0,0,0,0,0,0,0,-1,1287,652,0,0
70,372,0,0,0,0,0,0,0,0,0,-1,1294,652,0,0
77,372,0,0,0,0,0,0,0,0,0,-1,1301,652,0,0
84,372,0,0,0,0,0,0,0,0,0,-1,1308,652,0,0
91,372,0,0,0,0,0,0,0,0,0,-1,1315,652,0,0
98,372,0,0,0,0,0,0,0,0,0,-1,1322,652,0,0
105,372,0,0,0,0,0,0,0,0,0,-1,1329,652,0,0
112,372,0,0,0,0,0,0,0,0,0,-1,1336,652,0,0
119,372,0,0,0,0,0,0,0,0,0,-1,1343,652,0,0
126,372,0,0,0,0,0,0,0,0,0,-1,1350,652,0,0
133,372,0,0,0,0,0,0,0,0,0,-1,1357,652,0,0
140,372,0,0,0,0,0,0,0,0,0,-1,1364,652,0,0
147,372,0,0,0,0,0,0,0,0,0,-1,1371,652,0,0
154,372,0,0,0,0,0,0,0,0,0,-1,1378,652,0,0
161,372,0,0,0,0,0,0,0,0,0,-1,1385,652,0,0
168,372,0,0,0,0,0,0,0,0,0,-1,1392,652,0,0
175,372,0,0,0,0,0,0,0,0,0,-1,1399,652,0,0
182,372,0,0,0,0,0,0,0,0,0,-1,1406,652,0,0
189,372,0,0,0,0,0,0,0,0,0,-1,1413,652,0,0
196,372,0,0,0,0,0,0,0,0,0,-1,1420,652,0,0
203,372,0,0,0,0,0,0,0,0,0,-1,1427,652,0,0
210,372,0,0,0,0,0,0,0,0,0,-1,1434,652,0,0
217,372,0,0,0,0,0,0,0,0,0,-1,1441,652,0,0
224,372,0,0,0,0,0,0,0,0,0,-1,1448,652,0,0
231,372,0,0,0,0,0,0,0,0,0,-1,1455,652,0,0
238,372,0,0,0,0,0,0,0,0,0,-1,1462,652,0,0
245,372,0,0,0,0,0,0,0,0,0,-1,1469,652,0,0
252,372,0,0,0,0,0,0,0,0,0,-1,1476,652,0,0
259,372,0,0,0,0,0,0,0,0,0,-1,1483,652,0,0
266,372,0,0,0,0,0,0,0,0,0,-1,1490,652,0,0
273,372,0,0,0,0,0,0,0,0,0,-1,1497,652,0,0
280,372,0,0,0,0,0,0,0,0,0,-1,1504,652,0,0
287,372,0,0,0,0,0,0,0,0,0,-1,1511,652,0,0
294,372,0,0,0,0,0,0,0,0,0,-1,1518,652,0,0
301,372,0,0,0,0,0,0,0,0,0,-1,1525,652,0,0
308,372,0,0,0,0,0,0,0,0,0,-1,1532,652,0,0
315,372,0,0,0,0,0,0,0,0,0,-1,1539,652,0,0
322,372,0,0,0,0,0,0,0,0,0,-1,1546,652,0,0
329,372,0,0,0,0,0,0,0,0,0,-1,1553,652,0,0
336,372,0,0,0,0,0,0,0,0,0,-1,1560,652,0,0
343,372,0,0,0,0,0,0,0,0,0,-1,1567,652,0,0
350,372,0,0,0,0,0,0,0,0,0,-1,1574,652,0,0
357,372,0,0,0,0,0,0,0,0,0,-1,1581,652,0,0
364,372,0,0,0,0,0,0,0,0,0,-1,1588,652,0,0
371,372,0,0,0,0,0,0,0,0,0,-1,1595,652,0,0
378,372,0,0,0,0,0,0,0,0,0,-1,1602,652,0,0
385,372,0,0,0,0,0,0,0,0,0,-1,1609,652,0,0
392,372,0,0,0,0,0,0,0,0,0,-1,1616,652,0,0
399,372,0,0,0,0,0,0,0,0,0,-1,1623,652,0,0
406,372,0,0,0,0,0,0,0,0,0,-1,1630,652,0,0
413,372,0,0,0,0,0,0,0,0,0,-1,1637,652,0,0
420,372,0,0,0,0,0,0,0,0,0,-1,1644,652,0,0
427,372,0,0,0,0,0,0,0,0,0,-1,1651,652,0,0
434,372,0,0,0,0,0,0,0,0,0,-1,1658,652,0,0
441,372,0,0,0,0,0,0,0,0,0,-1,1665,652,0,0
448,372,0,0,0,0,0,0,0,0,0,-1,1672,652,0,0
455,372,0,0,0,0,0,0,0,0,0,-1,1679,652,0,0
462,372,0,0,0,0,0,0,0,0,0,-1,1686,652,0,0
469,372,0,0,0,0,0,0,0,0,0,-1,1693,652,0,0
476,372,0,0,0,0,0,0,0,0,0,-1,1700,652,0,0
483,372,8.74182,1.53125,0,0,0,0,0,0,0,-1,1707,652,8.74186,-1.53126
490,372,9.78455,1.67096,0,0,0,0,0,0,0,-1,1714,652,9.7846,-1.67093
497,372,9.97644,1.46069,0,0,0,0,0,0,0,-1,1721,652,9.97647,-1.46071
504,372,10.1216,1.28375,0,0,0,0,0,0,0,-1,1728,652,10.1216,-1.28376
511,372,11.7367,-0.0272217,0,0,0,0,0,0,0,-1,1735,652,11.7367,0.0272326
518,372,12.0657,-0.0995483,0,0,0,0,0,0,0,-1,1742,652,12.0657,0.0995285
525,372,12.3947,-0.171814,0,0,0,0,0,0,0,-1,1749,652,12.3946,0.171824
532,372,9.36597,1.72034,0,0,0,0,0,0,0,-1,1756,652,9.36597,-1.72036
539,372,7.82886,-0.0865479,0,0,0,0,0,0,0,-1,1763,652,7.82882,0.0865771
546,372,10.953,-0.187195,0,0,0,0,0,0,0,-1,1770,652,10.953,0.187181
553,372,14.1201,-4.83234,0,0,0,0,0,0,0,-1,1777,652,14.1201,4.83235
560,372,20.1057,-8.06934,0,0,0,0,0,0,0,-1,1784,652,20.1058,8.06936
567,372,39.2548,-19.6904,0,0,0,0,0,0,0,-1,1791,652,39.2547,19.6904
574,372,39.1665,-18.3795,0.00138891,-0.000299298,-9.54701e-05,0.0013943,-0.000304679,-0.0563117,0.00104599,0.044437,1798,652,39.1665,18.3795
581,372,39.0956,-17.4695,0.000787173,-9.48771e-05,-6.47501e-05,0.000791901,-9.96049e-05,-0.072888,0.000564075,0.0230147,1805,652,39.0955,17.4695
588,372,39.0444,-16.4908,0.000642399,0.000143973,0.000141209,0.000679625,0.000106748,0.257756,0.000422025,0.0164403,1812,652,39.0444,16.4908
595,372,38.9954,-15.5258,0.00080413,0.000595778,0.000443984,0.001156,0.000243912,0.670163,0.000703597,0.0149848,1819,652,38.9953,15.5258
602,372,38.955,-14.5432,0.00119328,0.00113489,0.000842595,0.00200719,0.000320985,0.768082,0.001245,0.0198897,1826,652,38.955,14.5432
609,372,38.7662,-13.5613,0.00168748,0.00176995,0.00125763,0.00298702,0.000470406,0.801786,0.00185454,0.0226541,1833,652,38.7662,13.5613
616,372,38.6748,-12.5047,0.00232882,0.00252586,0.00168267,0.00411289,0.000741792,0.81464,0.00253116,0.0204658,1840,652,38.6749,12.5047
623,372,38.6583,-11.4147,0.0031691,0.00325557,0.00212837,0.00534114,0.00108353,0.795553,0.00326017,0.0143623,1847,652,38.6583,11.4147
630,372,38.6282,-10.4027,0.00399115,0.00402745,0.00251914,0.00652851,0.00149009,0.789,0.00395046,0.0184324,1854,652,38.6281,10.4027
637,372,38.6174,-9.4364,0.00477301,0.00485097,0.00281806,0.00763032,0.00199366,0.792313,0.00456967,0.0280035,1861,652,38.6175,9.43643
644,372,38.6104,-8.40277,0,0,0,0,0,0,0,-1,1868,652,38.6104,8.40277
651,372,21.3998,-0.888,0,0,0,0,0,0,0,-1,1875,652,21.3998,0.887992
658,372,14.157,0.280273,0,0,0,0,0,0,0,-1,1882,652,14.157,-0.280264
665,372,15.2286,0.463867,0,0,0,0,0,0,0,-1,1889,652,15.2287,-0.463854
672,372,9.34106,1.48444,0,0,0,0,0,0,0,-1,1896,652,9.34109,-1.48444
679,372,10.7308,2.32391,0,0,0,0,0,0,0,-1,1903,652,10.7309,-2.3239
686,372,11.6295,2.52997,0,0,0,0,0,0,0,-1,1910,652,11.6296,-2.52996
693,372,0,0,0,0,0,0,0,0,0,-1,1917,652,0,0
700,372,0,0,0,0,0,0,0,0,0,-1,1924,652,0,0
707,372,0,0,0,0,0,0,0,0,0,-1,1931,652,0,0
714,372,0,0,0,0,0,0,0,0,0,-1,1938,652,0,0
721,372,0,0,0,0,0,0,0,0,0,-1,1945,652,0,0
728,372,0,0,0,0,0,0,0,0,0,-1,1952,652,0,0
735,372,0,0,0,0,0,0,0,0,0,-1,1959,652,0,0
742,372,0,0,0,0,0,0,0,0,0,-1,1966,652,0,0
749,372,0,0,0,0,0,0,0,0,0,-1,1973,652,0,0
756,372,0,0,0,0,0,0,0,0,0,-1,1980,652,0,0
763,372,0,0,0,0,0,0,0,0,0,-1,1987,652,0,0
770,372,0,0,0,0,0,0,0,0,0,-1,1994,652,0,0
777,372,0,0,0,0,0,0,0,0,0,-1,2001,652,0,0
784,372,0,0,0,0,0,0,0,0,0,-1,2008,652,0,0
791,372,0,0,0,0,0,0,0,0,0,-1,2015,652,0,0
798,372,0,0,0,0,0,0,0,0,0,-1,2022,652,0,0
805,372,0,0,0,0,0,0,0,0,0,-1,2029,652,0,0
812,372,0,0,0,0,0,0,0,0,0,-1,2036,652,0,0
-700,365,0,0,0,0,0,0,0,0,0,-1,524,659,0,0
-693,365,0,0,0,0,0,0,0,0,0,-1,531,659,0,0
-686,365,0,0,0,0,0,0,0,0,0,-1,538,659,0,0
-679,365,0,0,0,0,0,0,0,0,0,-1,545,659,0,0
-672,365,0,0,0,0,0,0,0,0,0,-1,552,659,0,0
-665,365,0,0,0,0,0,0,0,0,0,-1,559,659,0,0
-658,365,0,0,0,0,0,0,0,0,0,-1,566,659,0,0
-651,365,0,0,0,0,0,0,0,0,0,-1,573,659,0,0
-644,365,0,0,0,0,0,0,0,0,0,-1,580,659,0,0
-637,365,0,0,0,0,0,0,0,0,0,-1,587,659,0,0
-630,365,0,0,0,0,0,0,0,0,0,-1,594,659,0,0
-623,365,0,0,0,0,0,0,0,0,0,-1,601,659,0,0
-616,365,0,0,0,0,0,0,0,0,0,-1,608,659,0,0
-609,365,0,0,0,0,0,0,0,0,0,-1,615,659,0,0
-602,365,0,0,0,0,0,0,0,0,0,-1,622,659,0,0
-595,365,0,0,0,0,0,0,0,0,0,-1,629,659,0,0
-588,365,0,0,0,0,0,0,0,0,0,-1,636,659,0,0
-581,365,0,0,0,0,0,0,0,0,0,-1,643,659,0,0
-574,365,-7.69281,1.59015,0,0,0,0,0,0,0,-1,650,659,-7.69282,-1.59018
-567,365,-8.2583,1.72638,0,0,0,0,0,0,0,-1,657,659,-8.25827,-1.72637
-560,365,-7.17767,0.275757,0,0,0,0,0,0,0,-1,664,659,-7.17768,-0.27577
-553,365,-10.0349,-0.169617,0,0,0,0,0,0,0,-1,671,659,-10.0349,0.169593
-546,365,-10.6303,-1.51642,0,0,0,0,0,0,0,-1,678,659,-10.6303,1.5164
-539,365,-8.38599,1.52936,0,0,0,0,0,0,0,-1,685,659,-8.38598,-1.52935
-532,365,-8.52863,0.166504,0,0,0,0,0,0,0,-1,692,659,-8.52863,-0.166501
-525,365,-9.28229,-2.62726,0,0,0,0,0,0,0,-1,699,659,-9.28227,2.62724
-518,365,-22.6682,-8.15509,0,0,0,0,0,0,0,-1,706,659,-22.6681,8.15509
-511,365,-22.6931,-9.31567,0.00335314,0.000768413,-0.0018432,0.00431191,-0.000190353,-0.479648,0.00294011,0.0387377,713,659,-22.6931,9.31568
-504,365,-22.7226,-10.3608,0.00269805,0.000589443,-0.00138534,0.00338465,-9.71504e-05,-0.460132,0.0022895,0.0139466,720,659,-22.7226,10.3608
-497,365,-22.7847,-11.4073,0.00215083,0.000395562,-0.00103564,0.00263069,-8.42971e-05,-0.433898,0.00178255,0.014416,727,659,-22.7846,11.4073
-490,365,-22.8646,-12.4307,0.00171737,0.000221548,-0.000769967,0.00204288,-0.000103956,-0.399963,0.00139786,0.0156191,734,659,-22.8646,12.4307
-483,365,-22.9603,-13.4167,0.00142729,9.30538e-05,-0.000612236,0.00166565,-0.0001453,-0.371263,0.0011619,0.0139448,741,659,-22.9604,13.4167
-476,365,-22.9456,-14.4523,0.00129122,2.22942e-05,-0.000554691,0.00149951,-0.000185991,-0.359207,0.00106709,0.0195514,748,659,-22.9456,14.4523
-469,365,-23.037,-15.4601,0.00134575,5.58084e-06,-0.000618165,0.00158734,-0.000236004,-0.372558,0.00114503,0.0194627,755,659,-23.037,15.4601
-462,365,-23.1622,-16.4156,0.00157749,4.0296e-05,-0.000800151,0.00191839,-0.000300603,-0.402754,0.00139001,0.0152671,762,659,-23.1622,16.4156
-455,365,-23.2145,-17.4069,0.00209064,0.000179711,-0.00113753,0.00262073,-0.000350385,-0.436085,0.0018749,0.0194982,769,659,-23.2145,17.4069
-448,365,-23.2726,-18.5491,0,0,0,0,0,0,0,-1,776,659,-23.2726,18.5491
-441,365,-16.9571,-15.1896,0,0,0,0,0,0,0,-1,783,659,-16.9571,15.1896
-434,365,-5.45056,-3.98041,0,0,0,0,0,0,0,-1,790,659,-5.45055,3.98042
-427,365,-5.05377,-4.74689,0,0,0,0,0,0,0,-1,797,659,-5.05376,4.7469
-420,365,-4.58813,-3.16376,0,0,0,0,0,0,0,-1,804,659,-4.58816,3.16374
-413,365,0.141357,0.672729,0,0,0,0,0,0,0,-1,811,659,0.141365,-0.672714
-406,365,-1.75067,-0.934448,0,0,0,0,0,0,0,-1,818,659,-1.7507,0.934424
-399,365,-4.10242,-1.25439,0,0,0,0,0,0,0,-1,825,659,-4.10244,1.25438
-392,365,-7.46545,-0.779724,0,0,0,0,0,0,0,-1,832,659,-7.46543,0.779744
-385,365,-6.27875,-0.887573,0,0,0,0,0,0,0,-1,839,659,-6.27874,0.887545
-378,365,-5.34503,-0.263306,0,0,0,0,0,0,0,-1,846,659,-5.34504,0.263275
-371,365,0,0,0,0,0,0,0,0,0,-1,853,659,0,0
-364,365,0,0,0,0,0,0,0,0,0,-1,860,659,0,0
-357,365,0,0,0,0,0,0,0,0,0,-1,867,659,0,0
-350,365,0,0,0,0,0,0,0,0,0,-1,874,659,0,0
-343,365,0,0,0,0,0,0,0,0,0,-1,881,659,0,0
-336,365,0,0,0,0,0,0,0,0,0,-1,888,659,0,0
-329,365,0,0,0,0,0,0,0,0,0,-1,895,659,0,0
-322,365,0,0,0,0,0,0,0,0,0,-1,902,659,0,0
-315,365,0,0,0,0,0,0,0,0,0,-1,909,659,0,0
-308,365,0,0,0,0,0,0,0,0,0,-1,916,659,0,0
-301,365,0,0,0,0,0,0,0,0,0,-1,923,659,0,0
-294,365,0,0,0,0,0,0,0,0,0,-1,930,659,0,0
-287,365,0,0,0,0,0,0,0,0,0,-1,937,659,0,0
-280,365,0,0,0,0,0,0,0,0,0,-1,944,659,0,0
-273,365,0,0,0,0,0,0,0,0,0,-1,951,659,0,0
-266,365,0,0,0,0,0,0,0,0,0,-1,958,659,0,0
-259,365,0,0,0,0,0,0,0,0,0,-1,965,659,0,0
-252,365,0,0,0,0,0,0,0,0,0,-1,972,659,0,0
-245,365,0,0,0,0,0,0,0,0,0,-1,979,659,0,0
-238,365,0,0,0,0,0,0,0,0,0,-1,986,659,0,0
-231,365,0,0,0,0,0,0,0,0,0,-1,993,659,0,0
-224,365,0,0,0,0,0,0,0,0,0,-1,1000,659,0,0
-217,365,0,0,0,0,0,0,0,0,0,-1,1007,659,0,0
-210,365,0,0,0,0,0,0,0,0,0,-1,1014,659,0,0
-203,365,0,0,0,0,0,0,0,0,0,-1,1021,659,0,0
-196,365,0,0,0,0,0,0,0,0,0,-1,1028,659,0,0
-189,365,0,0,0,0,0,0,0,0,0,-1,1035,659,0,0
-182,365,0,0,0,0,0,0,0,0,0,-1,1042,659,0,0
-175,365,0,0,0,0,0,0,0,0,0,-1,1049,659,0,0
-168,365,0,0,0,0,0,0,0,0,0,-1,1056,659,0,0
-161,365,0,0,0,0,0,0,0,0,0,-1,1063,659,0,0
-154,365,0,0,0,0,0,0,0,0,0,-1,1070,659,0,0
-147,365,0,0,0,0,0,0,0,0,0,-1,1077,659,0,0
-140,365,0,0,0,0,0,0,0,0,0,-1,1084,659,0,0
-133,365,0,0,0,0,0,0,0,0,0,-1,1091,659,0,0
-126,365,0,0,0,0,0,0,0,0,0,-1,1098,659,0,0
-119,365,0,0,0,0,0,0,0,0,0,-1,1105,659,0,0
-112,365,0,0,0,0,0,0,0,0,0,-1,1112,659,0,0
-105,365,0,0,0,0,0,0,0,0,0,-1,1119,659,0,0
-98,365,0,0,0,0,0,0,0,0,0,-1,1126,659,0,0
-91,365,0,0,0,0,0,0,0,0,0,-1,1133,659,0,0
-84,365,0,0,0,0,0,0,0,0,0,-1,1140,659,0,0
-77,365,0,0,0,0,0,0,0,0,0,-1,1147,659,0,0
-70,365,0,0,0,0,0,0,0,0,0,-1,1154,659,0,0
-63,365,0,0,0,0,0,0,0,0,0,-1,1161,659,0,0
-56,365,0,0,0,0,0,0,0,0,0,-1,1168,659,0,0
-49,365,0,0,0,0,0,0,0,0,0,-1,1175,659,0,0
-42,365,0,0,0,0,0,0,0,0,0,-1,1182,659,0,0
-35,365,0,0,0,0,0,0,0,0,0,-1,1189,659,0,0
-28,365,0,0,0,0,0,0,0,0,0,-1,1196,659,0,0
-21,365,0,0,0,0,0,0,0,0,0,-1,1203,659,0,0
-14,365,0,0,0,0,0,0,0,0,0,-1,1210,659,0,0
-7,365,0,0,0,0,0,0,0,0,0,-1,1217,659,0,0
0,365,0,0,0,0,0,0,0,0,0,-1,1224,659,0,0
7,365,0,0,0,0,0,0,0,0,0,-1,1231,659,0,0
14,365,0,0,0,0,0,0,0,0,0,-1,1238,659,0,0
21,365,0,0,0,0,0,0,0,0,0,-1,1245,659,0,0
28,365,0,0,0,0,0,0,0,0,0,-1,1252,659,0,0
35,365,0,0,0,0,0,0,0,0,0,-1,1259,659,0,0
42,365,0,0,0,0,0,0,0,0,0,-1,1266,659,0,0
49,365,0,0,0,0,0,0,0,0,0,-1,1273,659,0,0
56,365,0,0,0,0,0,0,0,0,0,-1,1280,659,0,0
63,365,0,0,0,0,0,0,0,0,0,-1,1287,659,0,0
70,365,0,0,0,0,0,0,0,0,0,-1,1294,659,0,0
77,365,0,0,0,0,0,0,0,0,0,-1,1301,659,0,0
84,365,0,0,0,0,0,0,0,0,0,-1,1308,659,0,0
91,365,0,0,0,0,0,0,0,0,0,-1,1315,659,0,0
98,365,0,0,0,0,0,0,0,0,0,-1,1322,659,0,0
105,365,0,0,0,0,0,0,0,0,0,-1,1329,659,0,0
112,365,0,0,0,0,0,0,0,0,0,-1,1336,659,0,0
119,365,0,0,0,0,0,0,0,0,0,-1,1343,659,0,0
126,365,0,0,0,0,0,0,0,0,0,-1,1350,659,0,0
133,365,0,0,0,0,0,0,0,0,0,-1,1357,659,0,0
140,365,0,0,0,0,0,0,0,0,0,-1,1364,659,0,0
147,365,0,0,0,0,0,0,0,0,0,-1,1371,659,0,0
154,365,0,0,0,0,0,0,0,0,0,-1,1378,659,0,0
161,365,0,0,0,0,0,0,0,0,0,-1,1385,659,0,0
168,365,0,0,0,0,0,0,0,0,0,-1,1392,659,0,0
175,365,0,0,0,0,0,0,0,0,0,-1,1399,659,0,0
182,365,0,0,0,0,0,0,0,0,0,-1,1406,659,0,0
189,365,0,0,0,0,0,0,0,0,0,-1,1413,659,0,0
196,365,0,0,0,0,0,0,0,0,0,-1,1420,659,0,0
203,365,0,0,0,0,0,0,0,0,0,-1,1427,659,0,0
210,365,0,0,0,0,0,0,0,0,0,-1,1434,659,0,0
217,365,0,0,0,0,0,0,0,0,0,-1,1441,659,0,0
224,365,0,0,0,0,0,0,0,0,0,-1,1448,659,0,0
231,365,0,0,0,0,0,0,0,0,0,-1,1455,659,0,0
238,365,0,0,0,0,0,0,0,0,0,-1,1462,659,0,0
245,365,0,0,0,0,0,0,0,0,0,-1,1469,659,0,0
252,365,0,0,0,0,0,0,0,0,0,-1,1476,659,0,0
259,365,0,0,0,0,0,0,0,0,0,-1,1483,659,0,0
266,365,0,0,0,0,0,0,0,0,0,-1,1490,659,0,0
273,365,0,0,0,0,0,0,0,0,0,-1,1497,659,0,0
280,365,0,0,0,0,0,0,0,0,0,-1,1504,659,0,0
287,365,0,0,0,0,0,0,0,0,0,-1,1511,659,0,0
294,365,0,0,0,0,0,0,0,0,0,-1,1518,659,0,0
301,365,0,0,0,0,0,0,0,0,0,-1,1525,659,0,0
308,365,0,0,0,0,0,0,0,0,0,-1,1532,659,0,0
315,365,0,0,0,0,0,0,0,0,0,-1,1539,659,0,0
322,365,0,0,0,0,0,0,0,0,0,-1,1546,659,0,0
329,365,0,0,0,0,0,0,0,0,0,-1,1553,659,0,0
336,365,0,0,0,0,0,0,0,0,0,-1,1560,659,0,0
343,365,0,0,0,0,0,0,0,0,0,-1,1567,659,0,0
350,365,0,0,0,0,0,0,0,0,0,-1,1574,659,0,0
357,365,0,0,0,0,0,0,0,0,0,-1,1581,659,0,0
364,365,0,0,0,0,0,0,0,0,0,-1,1588,659,0,0
371,365,0,0,0,0,0,0,0,0,0,-1,1595,659,0,0
378,365,0,0,0,0,0,0,0,0,0,-1,1602,659,0,0
385,365,0,0,0,0,0,0,0,0,0,-1,1609,659,0,0
392,365,0,0,0,0,0,0,0,0,0,-1,1616,659,0,0
399,365,0,0,0,0,0,0,0,0,0,-1,1623,659,0,0
406,365,0,0,0,0,0,0,0,0,0,-1,1630,659,0,0
413,365,0,0,0,0,0,0,0,0,0,-1,1637,659,0,0
420,365,0,0,0,0,0,0,0,0,0,-1,1644,659,0,0
427,365,0,0,0,0,0,0,0,0,0,-1,1651,659,0,0
434,365,0,0,0,0,0,0,0,0,0,-1,1658,659,0,0
441,365,0,0,0,0,0,0,0,0,0,-1,1665,659,0,0
448,365,0,0,0,0,0,0,0,0,0,-1,1672,659,0,0
455,365,0,0,0,0,0,0,0,0,0,-1,1679,659,0,0
462,365,0,0,0,0,0,0,0,0,0,-1,1686,659,0,0
469,365,0,0,0,0,0,0,0,0,0,-1,1693,659,0,0
476,365,0,0,0,0,0,0,0,0,0,-1,1700,659,0,0
483,365,0,0,0,0,0,0,0,0,0,-1,1707,659,0,0
490,365,8.39551,0.471252,0,0,0,0,0,0,0,-1,1714,659,8.39551,-0.471241
497,365,9.89233,1.35394,0,0,0,0,0,0,0,-1,1721,659,9.89237,-1.35396
504,365,10.1414,1.18005,0,0,0,0,0,0,0,-1,1728,659,10.1413,-1.18004
511,365,10.5151,0.993896,0,0,0,0,0,0,0,-1,1735,659,10.5152,-0.993894
518,365,11.2029,0.398132,0,0,0,0,0,0,0,-1,1742,659,11.2029,-0.398136
525,365,15.5748,3.85303,0,0,0,0,0,0,0,-1,1749,659,15.5748,-3.85303
532,365,11.2446,1.00629,0,0,0,0,0,0,0,-1,1756,659,11.2446,-1.00631
539,365,12.6301,1.03204,0,0,0,0,0,0,0,-1,1763,659,12.6302,-1.03204
546,365,11.647,0.84198,0,0,0,0,0,0,0,-1,1770,659,11.6469,-0.841955
553,365,12.028,-0.558899,0,0,0,0,0,0,0,-1,1777,659,12.028,0.558873
560,365,14.5372,-4.55548,0,0,0,0,0,0,0,-1,1784,659,14.5373,4.55547
567,365,20.5676,-7.53888,0,0,0,0,0,0,0,-1,1791,659,20.5676,7.53887
574,365,40.4558,-18.2307,0,0,0,0,0,0,0,-1,1798,659,40.4557,18.2307
581,365,39.9391,-17.6475,0,0,0,0,0,0,0,-1,1805,659,39.9391,17.6474
588,365,40.0104,-16.5197,0.000487681,-0.000184576,0.000104093,0.00050343,-0.000200325,0.150158,0.000418687,0.0228597,1812,659,40.0104,16.5197
595,365,39.9795,-15.4277,0.000537006,0.000220755,0.000326095,0.000741291,1.64697e-05,0.559648,0.000488797,0.0145596,1819,659,39.9794,15.4277
602,365,39.8923,-14.3881,0.000854402,0.000661698,0.000631835,0.00139719,0.000118911,0.709733,0.000894461,0.0196876,1826,659,39.8924,14.3881
609,365,39.7271,-13.3832,0.00126692,0.00117648,0.000952164,0.00217494,0.000268463,0.761668,0.00136927,0.0226142,1833,659,39.7271,13.3832
616,365,39.6844,-12.3466,0.0017891,0.00179128,0.00126396,0.00305414,0.000526232,0.785829,0.00188533,0.0230946,1840,659,39.6845,12.3466
623,365,39.6696,-11.3383,0.00249098,0.00237878,0.00157893,0.00401481,0.000854959,0.767641,0.00244196,0.0132684,1847,659,39.6695,11.3383
630,365,39.601,-10.3536,0.00315579,0.00301825,0.0018529,0.0049412,0.00123285,0.766849,0.00296974,0.0162952,1854,659,39.6009,10.3536
637,365,39.553,-9.37836,0.00375755,0.00366169,0.00202521,0.0057354,0.00168384,0.773567,0.00340409,0.0225653,1861,659,39.553,9.37837
644,365,39.5653,-8.36975,0.00430787,0.00443019,0.00213428,0.00650419,0.00223387,0.799722,0.00381606,0.0265126,1868,659,39.5653,8.36977
651,365,39.6272,-7.31299,0,0,0,0,0,0,0,-1,1875,659,39.6272,7.31297
658,365,24.745,-2.13275,0,0,0,0,0,0,0,-1,1882,659,24.745,2.13277
665,365,14.0961,0.769043,0,0,0,0,0,0,0,-1,1889,659,14.0961,-0.769063
672,365,10.0579,2.15088,0,0,0,0,0,0,0,-1,1896,659,10.0579,-2.15088
679,365,10.9718,2.19208,0,0,0,0,0,0,0,-1,1903,659,10.9718,-2.19211
686,365,12.2134,2.17108,0,0,0,0,0,0,0,-1,1910,659,12.2134,-2.17109
693,365,13.7141,1.98279,0,0,0,0,0,0,0,-1,1917,659,13.7141,-1.98278
700,365,0,0,0,0,0,0,0,0,0,-1,1924,659,0,0
707,365,0,0,0,0,0,0,0,0,0,-1,1931,659,0,0
714,365,0,0,0,0,0,0,0,0,0,-1,1938,659,0,0
721,365,0,0,0,0,0,0,0,0,0,-1,1945,659,0,0
728,365,0,0,0,0,0,0,0,0,0,-1,1952,659,0,0
735,365,0,0,0,0,0,0,0,0,0,-1,1959,659,0,0
742,365,0,0,0,0,0,0,0,0,0,-1,1966,659,0,0
749,365,0,0,0,0,0,0,0,0,0,-1,1973,659,0,0
756,365,0,0,0,0,0,0,0,0,0,-1,1980,659,0,0
763,365,0,0,0,0,0,0,0,0,0,-1,1987,659,0,0
770,365,0,0,0,0,0,0,0,0,0,-1,1994,659,0,0
777,365,0,0,0,0,0,0,0,0,0,-1,2001,659,0,0
784,365,0,0,0,0,0,0,0,0,0,-1,2008,659,0,0
791,365,0,0,0,0,0,0,0,0,0,-1,2015,659,0,0
798,365,0,0,0,0,0,0,0,0,0,-1,2022,659,0,0
805,365,0,0,0,0,0,0,0,0,0,-1,2029,659,0,0
812,365,0,0,0,0,0,0,0,0,0,-1,2036,659,0,0
-700,358,0,0,0,0,0,0,0,0,0,-1,524,666,0,0
-693,358,0,0,0,0,0,0,0,0,0,-1,531,666,0,0
-686,358,0,0,0,0,0,0,0,0,0,-1,538,666,0,0
-679,358,0,0,0,0,0,0,0,0,0,-1,545,666,0,0
-672,358,0,0,0,0,0,0,0,0,0,-1,552,666,0,0
-665,358,0,0,0,0,0,0,0,0,0,-1,559,666,0,0
-658,358,0,0,0,0,0,0,0,0,0,-1,566,666,0,0
-651,358,0,0,0,0,0,0,0,0,0,-1,573,666,0,0
-644,358,0,0,0,0,0,0,0,0,0,-1,580,666,0,0
-637,358,0,0,0,0,0,0,0,0,0,-1,587,666,0,0
-630,358,0,0,0,0,0,0,0,0,0,-1,594,666,0,0
-623,358,0,0,0,0,0,0,0,0,0,-1,601,666,0,0
-616,358,0,0,0,0,0,0,0,0,0,-1,608,666,0,0
-609,358,0,0,0,0,0,0,0,0,0,-1,615,666,0,0
-602,358,0,0,0,0,0,0,0,0,0,-1,622,666,0,0
-595,358,0,0,0,0,0,0,0,0,0,-1,629,666,0,0
-588,358,0,0,0,0,0,0,0,0,0,-1,636,666,0,0
-581,358,-8.31616,1.61993,0,0,0,0,0,0,0,-1,643,666,-8.31614,-1.61993
-574,358,-8.22406,1.75385,0,0,0,0,0,0,0,-1,650,666,-8.22408,-1.75383
-567,358,-8.14215,1.91577,0,0,0,0,0,0,0,-1,657,666,-8.14214,-1.91579
-560,358,-10.6086,2.18872,0,0,0,0,0,0,0,-1,664,666,-10.6086,-2.18873
-553,358,-13.4767,1.09552,0,0,0,0,0,0,0,-1,671,666,-13.4767,-1.09551
-546,358,-13.3743,-0.185059,0,0,0,0,0,0,0,-1,678,666,-13.3743,0.185037
-539,358,-9.43884,-2.04785,0,0,0,0,0,0,0,-1,685,666,-9.43884,2.04785
-532,358,-12.4141,-2.36572,0,0,0,0,0,0,0,-1,692,666,-12.4141,2.3657
-525,358,-12.731,-3.88031,0,0,0,0,0,0,0,-1,699,666,-12.731,3.88029
-518,358,-23.6619,-8.29218,0,0,0,0,0,0,0,-1,706,666,-23.6618,8.29218
-511,358,-23.6932,-9.26617,0.00336127,0.000833839,-0.00178101,0.00428135,-8.62447e-05,-0.476845,0.00288341,0.0173666,713,666,-23.6933,9.26616
-504,358,-23.7388,-10.2559,0.0026842,0.000562986,-0.00129633,0.00329852,-5.1329e-05,-0.44254,0.00221632,0.01345,720,666,-23.7388,10.2559
-497,358,-23.7901,-11.3079,0.00213768,0.000337658,-0.000930771,0.00253241,-5.70717e-05,-0.401099,0.00170762,0.0129666,727,666,-23.7901,11.3078
-490,358,-23.8527,-12.334,0.00169618,0.000184327,-0.000664532,0.00194674,-6.62397e-05,-0.360573,0.00132046,0.0125135,734,666,-23.8527,12.3341
-483,358,-23.954,-13.3201,0.00142596,0.000106035,-0.000534086,0.001615,-8.30011e-05,-0.340183,0.00110537,0.0111287,741,666,-23.954,13.32
-476,358,-23.964,-14.3359,0.00130588,9.87804e-05,-0.00051306,0.00149448,-8.98205e-05,-0.352267,0.00102757,0.0153413,748,666,-23.964,14.3359
-469,358,-24.0745,-15.3477,0.00136599,0.000157138,-0.00061957,0.00162713,-0.000103997,-0.398885,0.00112103,0.019921,755,666,-24.0745,15.3476
-462,358,-24.202,-16.347,0.00161297,0.000284582,-0.000842139,0.00202132,-0.000123768,-0.451492,0.00139064,0.0191711,762,666,-24.2019,16.3471
-455,358,-24.2568,-17.3541,0,0,0,0,0,0,0,-1,769,666,-24.2568,17.3541
-448,358,-17.7847,-14.434,0,0,0,0,0,0,0,-1,776,666,-17.7847,14.434
-441,358,-5.56293,-3.98041,0,0,0,0,0,0,0,-1,783,666,-5.56291,3.98043
-434,358,-5.21558,-4.43127,0,0,0,0,0,0,0,-1,790,666,-5.21559,4.43125
-427,358,-3.56189,-3.15729,0,0,0,0,0,0,0,-1,797,666,-3.56192,3.15729
-420,358,0.200195,1.08234,0,0,0,0,0,0,0,-1,804,666,0.200174,-1.08231
-413,358,0.0325317,0.161072,0,0,0,0,0,0,0,-1,811,666,0.0325501,-0.161098
-406,358,-3.85846,0.753113,0,0,0,0,0,0,0,-1,818,666,-3.85846,-0.753129
-399,358,-1.31213,0.190735,0,0,0,0,0,0,0,-1,825,666,-1.31215,-0.190763
-392,358,-3.73914,-0.832214,0,0,0,0,0,0,0,-1,832,666,-3.73915,0.832202
-385,358,-5.95178,-1.69141,0,0,0,0,0,0,0,-1,839,666,-5.9518,1.69143
-378,358,0,0,0,0,0,0,0,0,0,-1,846,666,0,0
-371,358,0,0,0,0,0,0,0,0,0,-1,853,666,0,0
-364,358,0,0,0,0,0,0,0,0,0,-1,860,666,0,0
-357,358,0,0,0,0,0,0,0,0,0,-1,867,666,0,0
-350,358,0,0,0,0,0,0,0,0,0,-1,874,666,0,0
-343,358,0,0,0,0,0,0,0,0,0,-1,881,666,0,0
-336,358,0,0,0,0,0,0,0,0,0,-1,888,666,0,0
-329,358,0,0,0,0,0,0,0,0,0,-1,895,666,0,0
-322,358,0,0,0,0,0,0,0,0,0,-1,902,666,0,0
-315,358,0,0,0,0,0,0,0,0,0,-1,909,666,0,0
-308,358,0,0,0,0,0,0,0,0,0,-1,916,666,0,0
-301,358,0,0,0,0,0,0,0,0,0,-1,923,666,0,0
-294,358,0,0,0,0,0,0,0,0,0,-1,930,666,0,0
-287,358,0,0,0,0,0,0,0,0,0,-1,937,666,0,0
-280,358,0,0,0,0,0,0,0,0,0,-1,944,666,0,0
-273,358,0,0,0,0,0,0,0,0,0,-1,951,666,0,0
-266,358,0,0,0,0,0,0,0,0,0,-1,958,666,0,0
-259,358,0,0,0,0,0,0,0,0,0,-1,965,666,0,0
-252,358,0,0,0,0,0,0,0,0,0,-1,972,666,0,0
-245,358,0,0,0,0,0,0,0,0,0,-1,979,666,0,0
-238,358,0,0,0,0,0,0,0,0,0,-1,986,666,0,0
-231,358,0,0,0,0,0,0,0,0,0,-1,993,666,0,0
-224,358,0,0,0,0,0,0,0,0,0,-1,1000,666,0,0
-217,358,0,0,0,0,0,0,0,0,0,-1,1007,666,0,0
-210,358,0,0,0,0,0,0,0,0,0,-1,1014,666,0,0
-203,358,0,0,0,0,0,0,0,0,0,-1,1021,666,0,0
-196,358,0,0,0,0,0,0,0,0,0,-1,1028,666,0,0
-189,358,0,0,0,0,0,0,0,0,0,-1,1035,666,0,0
-182,358,0,0,0,0,0,0,0,0,0,-1,1042,666,0,0
-175,358,0,0,0,0,0,0,0,0,0,-1,1049,666,0,0
-168,358,0,0,0,0,0,0,0,0,0,-1,1056,666,0,0
-161,358,0,0,0,0,0,0,0,0,0,-1,1063,666,0,0
-154,358,0,0,0,0,0,0,0,0,0,-1,1070,666,0,0
-147,358,0,0,0,0,0,0,0,0,0,-1,1077,666,0,0
-140,358,0,0,0,0,0,0,0,0,0,-1,1084,666,0,0
-133,358,0,0,0,0,0,0,0,0,0,-1,1091,666,0,0
-126,358,0,0,0,0,0,0,0,0,0,-1,1098,666,0,0
-119,358,0,0,0,0,0,0,0,0,0,-1,1105,666,0,0
-112,358,0,0,0,0,0,0,0,0,0,-1,1112,666,0,0
-105,358,0,0,0,0,0,0,0,0,0,-1,1119,666,0,0
-98,358,0,0,0,0,0,0,0,0,0,-1,1126,666,0,0
-91,358,0,0,0,0,0,0,0,0,0,-1,1133,666,0,0
-84,358,0,0,0,0,0,0,0,0,0,-1,1140,666,0,0
-77,358,0,0,0,0,0,0,0,0,0,-1,1147,666,0,0
-70,358,0,0,0,0,0,0,0,0,0,-1,1154,666,0,0
-63,358,0,0,0,0,0,0,0,0,0,-1,1161,666,0,0
-56,358,0,0,0,0,0,0,0,0,0,-1,1168,666,0,0
-49,358,0,0,0,0,0,0,0,0,0,-1,1175,666,0,0
-42,358,0,0,0,0,0,0,0,0,0,-1,1182,666,0,0
-35,358,0,0,0,0,0,0,0,0,0,-1,1189,666,0,0
-28,358,0,0,0,0,0,0,0,0,0,-1,1196,666,0,0
-21,358,0,0,0,0,0,0,0,0,0,-1,1203,666,0,0
-14,358,0,0,0,0,0,0,0,0,0,-1,1210,666,0,0
-7,358,0,0,0,0,0,0,0,0,0,-1,1217,666,0,0
0,358,0,0,0,0,0,0,0,0,0,-1,1224,666,0,0
7,358,0,0,0,0,0,0,0,0,0,-1,1231,666,0,0
14,358,0,0,0,0,0,0,0,0,0,-1,1238,666,0,0
21,358,0,0,0,0,0,0,0,0,0,-1,1245,666,0,0
28,358,0,0,0,0,0,0,0,0,0,-1,1252,666,0,0
35,358,0,0,0,0,0,0,0,0,0,-1,1259,666,0,0
42,358,0,0,0,0,0,0,0,0,0,-1,1266,666,0,0
49,358,0,0,0,0,0,0,0,0,0,-1,1273,666,0,0
56,358,0,0,0,0,0,0,0,0,0,-1,1280,666,0,0
63,358,0,0,0,0,0,0,0,0,0,-1,1287,666,0,0
70,358,0,0,0,0,0,0,0,0,0,-1,1294,666,0,0
77,358,0,0,0,0,0,0,0,0,0,-1,1301,666,0,0
84,358,0,0,0,0,0,0,0,0,0,-1,1308,666,0,0
91,358,0,0,0,0,0,0,0,0,0,-1,1315,666,0,0
98,358,0,0,0,0,0,0,0,0,0,-1,1322,666,0,0
105,358,0,0,0,0,0,0,0,0,0,-1,1329,666,0,0
112,358,0,0,0,0,0,0,0,0,0,-1,1336,666,0,0
119,358,0,0,0,0,0,0,0,0,0,-1,1343,666,0,0
126,358,0,0,0,0,0,0,0,0,0,-1,1350,666,0,0
133,358,0,0,0,0,0,0,0,0,0,-1,1357,666,0,0
140,358,0,0,0,0,0,0,0,0,0,-1,1364,666,0,0
147,358,0,0,0,0,0,0,0,0,0,-1,1371,666,0,0
154,358,0,0,0,0,0,0,0,0,0,-1,1378,666,0,0
161,358,0,0,0,0,0,0,0,0,0,-1,1385,666,0,0
168,358,0,0,0,0,0,0,0,0,0,-1,1392,666,0,0
175,358,0,0,0,0,0,0,0,0,0,-1,1399,666,0,0
182,358,0,0,0,0,0,0,0,0,0,-1,1406,666,0,0
189,358,0,0,0,0,0,0,0,0,0,-1,1413,666,0,0
196,358,0,0,0,0,0,0,0,0,0,-1,1420,666,0,0
203,358,0,0,0,0,0,0,0,0,0,-1,1427,666,0,0
210,358,0,0,0,0,0,0,0,0,0,-1,1434,666,0,0
217,358,0,0,0,0,0,0,0,0,0,-1,1441,666,0,0
224,358,0,0,0,0,0,0,0,0,0,-1,1448,666,0,0
231,358,0,0,0,0,0,0,0,0,0,-1,1455,666,0,0
238,358,0,0,0,0,0,0,0,0,0,-1,1462,666,0,0
245,358,0,0,0,0,0,0,0,0,0,-1,1469,666,0,0
252,358,0,0,0,0,0,0,0,0,0,-1,1476,666,0,0
259,358,0,0,0,0,0,0,0,0,0,-1,1483,666,0,0
266,358,0,0,0,0,0,0,0,0,0,-1,1490,666,0,0
273,358,0,0,0,0,0,0,0,0,0,-1,1497,666,0,0
280,358,0,0,0,0,0,0,0,0,0,-1,1504,666,0,0
287,358,0,0,0,0,0,0,0,0,0,-1,1511,666,0,0
294,358,0,0,0,0,0,0,0,0,0,-1,1518,666,0,0
301,358,0,0,0,0,0,0,0,0,0,-1,1525,666,0,0
308,358,0,0,0,0,0,0,0,0,0,-1,1532,666,0,0
315,358,0,0,0,0,0,0,0,0,0,-1,1539,666,0,0
322,358,0,0,0,0,0,0,0,0,0,-1,1546,666,0,0
329,358,0,0,0,0,0,0,0,0,0,-1,1553,666,0,0
336,358,0,0,0,0,0,0,0,0,0,-1,1560,666,0,0
343,358,0,0,0,0,0,0,0,0,0,-1,1567,666,0,0
350,358,0,0,0,0,0,0,0,0,0,-1,1574,666,0,0
357,358,0,0,0,0,0,0,0,0,0,-1,1581,666,0,0
364,358,0,0,0,0,0,0,0,0,0,-1,1588,666,0,0
371,358,0,0,0,0,0,0,0,0,0,-1,1595,666,0,0
378,358,0,0,0,0,0,0,0,0,0,-1,1602,666,0,0
385,358,0,0,0,0,0,0,0,0,0,-1,1609,666,0,0
392,358,0,0,0,0,0,0,0,0,0,-1,1616,666,0,0
399,358,0,0,0,0,0,0,0,0,0,-1,1623,666,0,0
406,358,0,0,0,0,0,0,0,0,0,-1,1630,666,0,0
413,358,0,0,0,0,0,0,0,0,0,-1,1637,666,0,0
420,358,0,0,0,0,0,0,0,0,0,-1,1644,666,0,0
427,358,0,0,0,0,0,0,0,0,0,-1,1651,666,0,0
434,358,0,0,0,0,0,0,0,0,0,-1,1658,666,0,0
441,358,0,0,0,0,0,0,0,0,0,-1,1665,666,0,0
448,358,0,0,0,0,0,0,0,0,0,-1,1672,666,0,0
455,358,0,0,0,0,0,0,0,0,0,-1,1679,666,0,0
462,358,0,0,0,0,0,0,0,0,0,-1,1686,666,0,0
469,358,0,0,0,0,0,0,0,0,0,-1,1693,666,0,0
476,358,0,0,0,0,0,0,0,0,0,-1,1700,666,0,0
483,358,0,0,0,0,0,0,0,0,0,-1,1707,666,0,0
490,358,0,0,0,0,0,0,0,0,0,-1,1714,666,0,0
497,358,8.57239,1.1322,0,0,0,0,0,0,0,-1,1721,666,8.57234,-1.13219
504,358,10.5972,0.832947,0,0,0,0,0,0,0,-1,1728,666,10.5972,-0.832968
511,358,10.6873,0.868469,0,0,0,0,0,0,0,-1,1735,666,10.6872,-0.868484
518,358,16.5884,2.34894,0,0,0,0,0,0,0,-1,1742,666,16.5884,-2.34894
525,358,15.7626,3.65344,0,0,0,0,0,0,0,-1,1749,666,15.7626,-3.65342
532,358,14.9368,4.95789,0,0,0,0,0,0,0,-1,1756,666,14.9367,-4.9579
539,358,15.1597,3.42694,0,0,0,0,0,0,0,-1,1763,666,15.1597,-3.42692
546,358,12.3792,1.53558,0,0,0,0,0,0,0,-1,1770,666,12.3792,-1.5356
553,358,11.6584,1.26172,0,0,0,0,0,0,0,-1,1777,666,11.6585,-1.26175
560,358,10.8234,1.43042,0,0,0,0,0,0,0,-1,1784,666,10.8233,-1.43041
567,358,10.1333,-0.955139,0,0,0,0,0,0,0,-1,1791,666,10.1333,0.955132
574,358,14.7886,-2.69293,0,0,0,0,0,0,0,-1,1798,666,14.7885,2.6929
581,358,20.1738,-6.76135,0,0,0,0,0,0,0,-1,1805,666,20.1738,6.76137
588,358,40.8815,-16.5542,0,0,0,0,0,0,0,-1,1812,666,40.8815,16.5542
595,358,40.9337,-15.3434,0.000309267,-9.92744e-05,0.000296563,0.000465102,-0.00025511,0.483816,0.000421665,0.0163167,1819,666,40.9338,15.3434
602,358,40.8406,-14.2571,0.000606612,0.000284456,0.000499124,0.000970006,-7.89379e-05,0.629313,0.000674525,0.0151955,1826,666,40.8406,14.2571
609,358,40.7246,-13.2361,0.000990979,0.000719054,0.000736017,0.00160349,0.000106547,0.694064,0.0010353,0.0205568,1833,666,40.7246,13.2361
616,358,40.6881,-12.2649,0.00143028,0.00122702,0.000963,0.002297,0.000360302,0.732823,0.00142648,0.018592,1840,666,40.6881,12.2649
623,358,40.6864,-11.2877,0.00201029,0.00170908,0.00118338,0.00305261,0.000666759,0.722107,0.00185324,0.0152215,1847,666,40.6864,11.2876
630,358,40.6183,-10.3073,0.00256185,0.00226045,0.0013928,0.00381208,0.00101022,0.731509,0.0022805,0.0186968,1854,666,40.6183,10.3073
637,358,40.5208,-9.33307,0.0030452,0.00278058,0.00150152,0.00442023,0.00140555,0.741452,0.00260778,0.0266107,1861,666,40.5208,9.33306
644,358,40.4943,-8.33716,0.00346859,0.00336266,0.00154123,0.00495777,0.00187349,0.768221,0.00289068,0.0220513,1868,666,40.4943,8.33719
651,358,40.507,-7.30334,0,0,0,0,0,0,0,-1,1875,666,40.507,7.30334
658,358,40.2349,-5.97021,0,0,0,0,0,0,0,-1,1882,666,40.2348,5.9702
665,358,28.0272,-2.07764,0,0,0,0,0,0,0,-1,1889,666,28.0272,2.07764
672,358,12.4299,1.47272,0,0,0,0,0,0,0,-1,1896,666,12.4299,-1.4727
679,358,12.1294,2.19702,0,0,0,0,0,0,0,-1,1903,666,12.1294,-2.19703
686,358,11.9557,2.2002,0,0,0,0,0,0,0,-1,1910,666,11.9557,-2.20021
693,358,13.188,2.52203,0,0,0,0,0,0,0,-1,1917,666,13.188,-2.52202
700,358,0,0,0,0,0,0,0,0,0,-1,1924,666,0,0
707,358,0,0,0,0,0,0,0,0,0,-1,1931,666,0,0
714,358,0,0,0,0,0,0,0,0,0,-1,1938,666,0,0
721,358,0,0,0,0,0,0,0,0,0,-1,1945,666,0,0
728,358,0,0,0,0,0,0,0,0,0,-1,1952,666,0,0
735,358,0,0,0,0,0,0,0,0,0,-1,1959,666,0,0
742,358,0,0,0,0,0,0,0,0,0,-1,1966,666,0,0
749,358,0,0,0,0,0,0,0,0,0,-1,1973,666,0,0
756,358,0,0,0,0,0,0,0,0,0,-1,1980,666,0,0
763,358,0,0,0,0,0,0,0,0,0,-1,1987,666,0,0
770,358,0,0,0,0,0,0,0,0,0,-1,1994,666,0,0
777,358,0,0,0,0,0,0,0,0,0,-1,2001,666,0,0
784,358,0,0,0,0,0,0,0,0,0,-1,2008,666,0,0
791,358,0,0,0,0,0,0,0,0,0,-1,2015,666,0,0
798,358,0,0,0,0,0,0,0,0,0,-1,2022,666,0,0
805,358,0,0,0,0,0,0,0,0,0,-1,2029,666,0,0
812,358,0,0,0,0,0,0,0,0,0,-1,2036,666,0,0
-700,351,0,0,0,0,0,0,0,0,0,-1,524,673,0,0
-693,351,0,0,0,0,0,0,0,0,0,-1,531,673,0,0
-686,351,0,0,0,0,0,0,0,0,0,-1,538,673,0,0
-679,351,0,0,0,0,0,0,0,0,0,-1,545,673,0,0
-672,351,0,0,0,0,0,0,0,0,0,-1,552,673,0,0
-665,351,0,0,0,0,0,0,0,0,0,-1,559,673,0,0
-658,351,0,0,0,0,0,0,0,0,0,-1,566,673,0,0
-651,351,0,0,0,0,0,0,0,0,0,-1,573,673,0,0
-644,351,0,0,0,0,0,0,0,0,0,-1,580,673,0,0
-637,351,0,0,0,0,0,0,0,0,0,-1,587,673,0,0
-630,351,0,0,0,0,0,0,0,0,0,-1,594,673,0,0
-623,351,0,0,0,0,0,0,0,0,0,-1,601,673,0,0
-616,351,0,0,0,0,0,0,0,0,0,-1,608,673,0,0
-609,351,0,0,0,0,0,0,0,0,0,-1,615,673,0,0
-602,351,0,0,0,0,0,0,0,0,0,-1,622,673,0,0
-595,351,0,0,0,0,0,0,0,0,0,-1,629,673,0,0
-588,351,0,0,0,0,0,0,0,0,0,-1,636,673,0,0
-581,351,-9.0647,1.71906,0,0,0,0,0,0,0,-1,643,673,-9.06472,-1.71908
-574,351,-8.23584,2.64764,0,0,0,0,0,0,0,-1,650,673,-8.23584,-2.64764
-567,351,-10.8027,4.56836,0,0,0,0,0,0,0,-1,657,673,-10.8027,-4.56839
-560,351,-14.2001,2.17084,0,0,0,0,0,0,0,-1,664,673,-14.2002,-2.17086
-553,351,-13.4979,0.779541,0,0,0,0,0,0,0,-1,671,673,-13.4978,-0.779519
-546,351,-14.0065,0.73645,0,0,0,0,0,0,0,-1,678,673,-14.0065,-0.736473
-539,351,-12.8123,-1.46393,0,0,0,0,0,0,0,-1,685,673,-12.8123,1.46395
-532,351,-16.0198,-4.03937,0,0,0,0,0,0,0,-1,692,673,-16.0198,4.03936
-525,351,-24.6786,-7.09076,0,0,0,0,0,0,0,-1,699,673,-24.6787,7.09076
-518,351,-24.6507,-8.11975,0.00411962,0.00152457,-0.00244383,0.00558903,5.51695e-05,-0.541353,0.00370777,0.0216665,706,673,-24.6507,8.11974
-511,351,-24.6802,-9.18585,0.00328626,0.000915436,-0.00165926,0.00414005,6.16454e-05,-0.475228,0.00273972,0.0117758,713,673,-24.6802,9.18587
-504,351,-24.7544,-10.1943,0.00258337,0.000553704,-0.0011335,0.00308996,4.71203e-05,-0.420289,0.00204445,0.0117148,720,673,-24.7544,10.1943
-497,351,-24.8165,-11.2252,0.00201977,0.000282673,-0.000737763,0.00229081,1.16285e-05,-0.352079,0.00152335,0.0115845,727,673,-24.8165,11.2251
-490,351,-24.8872,-12.2292,0.00158693,0.000146855,-0.000489913,0.0017378,-4.00835e-06,-0.298724,0.00115987,0.0116908,734,673,-24.8872,12.2292
-483,351,-24.9695,-13.2167,0.00133601,0.000123248,-0.000401877,0.0014571,2.16579e-06,-0.292641,0.000970677,0.013963,741,673,-24.9695,13.2167
-476,351,-25.0592,-14.2281,0.00123026,0.000192064,-0.000447632,0.00139661,2.57161e-05,-0.355802,0.000922622,0.0122837,748,673,-25.0592,14.2281
-469,351,-25.1019,-15.2343,0.0013016,0.00034962,-0.000637942,0.00162156,2.96611e-05,-0.464886,0.00107129,0.0144303,755,673,-25.1019,15.2343
-462,351,-25.1531,-16.3215,0.00159439,0.000624478,-0.000975374,0.00219872,2.01513e-05,-0.554696,0.00145914,0.0428662,762,673,-25.1531,16.3215
-455,351,-25.1421,-17.4466,0,0,0,0,0,0,0,-1,769,673,-25.1421,17.4466
-448,351,-6.61456,-4.38654,0,0,0,0,0,0,0,-1,776,673,-6.61456,4.38654
-441,351,-4.31567,-2.3009,0,0,0,0,0,0,0,-1,783,673,-4.31565,2.30089
-434,351,-3.81708,-2.28003,0,0,0,0,0,0,0,-1,790,673,-3.81706,2.28006
-427,351,-2.05157,-2.7785,0,0,0,0,0,0,0,-1,797,673,-2.05157,2.77848
-420,351,-1.06989,-2.43665,0,0,0,0,0,0,0,-1,804,673,-1.06991,2.43663
-413,351,-0.392334,-2.06671,0,0,0,0,0,0,0,-1,811,673,-0.392363,2.06672
-406,351,-1.86316,-2.58105,0,0,0,0,0,0,0,-1,818,673,-1.86313,2.58106
-399,351,1.00952,-1.53455,0,0,0,0,0,0,0,-1,825,673,1.00954,1.53457
-392,351,-1.02197,0.877136,0,0,0,0,0,0,0,-1,832,673,-1.02195,-0.877143
-385,351,-1.47205,1.04437,0,0,0,0,0,0,0,-1,839,673,-1.47207,-1.04435
-378,351,0,0,0,0,0,0,0,0,0,-1,846,673,0,0
-371,351,0,0,0,0,0,0,0,0,0,-1,853,673,0,0
-364,351,0,0,0,0,0,0,0,0,0,-1,860,673,0,0
-357,351,0,0,0,0,0,0,0,0,0,-1,867,673,0,0
-350,351,0,0,0,0,0,0,0,0,0,-1,874,673,0,0
-343,351,0,0,0,0,0,0,0,0,0,-1,881,673,0,0
-336,351,0,0,0,0,0,0,0,0,0,-1,888,673,0,0
-329,351,0,0,0,0,0,0,0,0,0,-1,895,673,0,0
-322,351,0,0,0,0,0,0,0,0,0,-1,902,673,0,0
-315,351,0,0,0,0,0,0,0,0,0,-1,909,673,0,0
-308,351,0,0,0,0,0,0,0,0,0,-1,916,673,0,0
-301,351,0,0,0,0,0,0,0,0,0,-1,923,673,0,0
-294,351,0,0,0,0,0,0,0,0,0,-1,930,673,0,0
-287,351,0,0,0,0,0,0,0,0,0,-1,937,673,0,0
-280,351,0,0,0,0,0,0,0,0,0,-1,944,673,0,0
-273,351,0,0,0,0,0,0,0,0,0,-1,951,673,0,0
-266,351,0,0,0,0,0,0,0,0,0,-1,958,673,0,0
-259,351,0,0,0,0,0,0,0,0,0,-1,965,673,0,0
-252,351,0,0,0,0,0,0,0,0,0,-1,972,673,0,0
-245,351,0,0,0,0,0,0,0,0,0,-1,979,673,0,0
-238,351,0,0,0,0,0,0,0,0,0,-1,986,673,0,0
-231,351,0,0,0,0,0,0,0,0,0,-1,993,673,0,0
-224,351,0,0,0,0,0,0,0,0,0,-1,1000,673,0,0
-217,351,0,0,0,0,0,0,0,0,0,-1,1007,673,0,0
-210,351,0,0,0,0,0,0,0,0,0,-1,1014,673,0,0
-203,351,0,0,0,0,0,0,0,0,0,-1,1021,673,0,0
-196,351,0,0,0,0,0,0,0,0,0,-1,1028,673,0,0
-189,351,0,0,0,0,0,0,0,0,0,-1,1035,673,0,0
-182,351,0,0,0,0,0,0,0,0,0,-1,1042,673,0,0
-175,351,0,0,0,0,0,0,0,0,0,-1,1049,673,0,0
-168,351,0,0,0,0,0,0,0,0,0,-1,1056,673,0,0
-161,351,0,0,0,0,0,0,0,0,0,-1,1063,673,0,0
-154,351,0,0,0,0,0,0,0,0,0,-1,1070,673,0,0
-147,351,0,0,0,0,0,0,0,0,0,-1,1077,673,0,0
-140,351,0,0,0,0,0,0,0,0,0,-1,1084,673,0,0
-133,351,0,0,0,0,0,0,0,0,0,-1,1091,673,0,0
-126,351,0,0,0,0,0,0,0,0,0,-1,1098,673,0,0
-119,351,0,0,0,0,0,0,0,0,0,-1,1105,673,0,0
-112,351,0,0,0,0,0,0,0,0,0,-1,1112,673,0,0
-105,351,0,0,0,0,0,0,0,0,0,-1,1119,673,0,0
-98,351,0,0,0,0,0,0,0,0,0,-1,1126,673,0,0
-91,351,0,0,0,0,0,0,0,0,0,-1,1133,673,0,0
-84,351,0,0,0,0,0,0,0,0,0,-1,1140,673,0,0
-77,351,0,0,0,0,0,0,0,0,0,-1,1147,673,0,0
-70,351,0,0,0,0,0,0,0,0,0,-1,1154,673,0,0
-63,351,0,0,0,0,0,0,0,0,0,-1,1161,673,0,0
-56,351,0,0,0,0,0,0,0,0,0,-1,1168,673,0,0
-49,351,0,0,0,0,0,0,0,0,0,-1,1175,673,0,0
-42,351,0,0,0,0,0,0,0,0,0,-1,1182,673,0,0
-35,351,0,0,0,0,0,0,0,0,0,-1,1189,673,0,0
-28,351,0,0,0,0,0,0,0,0,0,-1,1196,673,0,0
-21,351,0,0,0,0,0,0,0,0,0,-1,1203,673,0,0
-14,351,0,0,0,0,0,0,0,0,0,-1,1210,673,0,0
-7,351,0,0,0,0,0,0,0,0,0,-1,1217,673,0,0
0,351,0,0,0,0,0,0,0,0,0,-1,1224,673,0,0
7,351,0,0,0,0,0,0,0,0,0,-1,1231,673,0,0
14,351,0,0,0,0,0,0,0,0,0,-1,1238,673,0,0
21,351,0,0,0,0,0,0,0,0,0,-1,1245,673,0,0
28,351,0,0,0,0,0,0,0,0,0,-1,1252,673,0,0
35,351,0,0,0,0,0,0,0,0,0,-1,1259,673,0,0
42,351,0,0,0,0,0,0,0,0,0,-1,1266,673,0,0
49,351,0,0,0,0,0,0,0,0,0,-1,1273,673,0,0
56,351,0,0,0,0,0,0,0,0,0,-1,1280,673,0,0
63,351,0,0,0,0,0,0,0,0,0,-1,1287,673,0,0
70,351,0,0,0,0,0,0,0,0,0,-1,1294,673,0,0
77,351,0,0,0,0,0,0,0,0,0,-1,1301,673,0,0
84,351,0,0,0,0,0,0,0,0,0,-1,1308,673,0,0
91,351,0,0,0,0,0,0,0,0,0,-1,1315,673,0,0
98,351,0,0,0,0,0,0,0,0,0,-1,1322,673,0,0
105,351,0,0,0,0,0,0,0,0,0,-1,1329,673,0,0
112,351,0,0,0,0,0,0,0,0,0,-1,1336,673,0,0
119,351,0,0,0,0,0,0,0,0,0,-1,1343,673,0,0
126,351,0,0,0,0,0,0,0,0,0,-1,1350,673,0,0
133,351,0,0,0,0,0,0,0,0,0,-1,1357,673,0,0
140,351,0,0,0,0,0,0,0,0,0,-1,1364,673,0,0
147,351,0,0,0,0,0,0,0,0,0,-1,1371,673,0,0
154,351,0,0,0,0,0,0,0,0,0,-1,1378,673,0,0
161,351,0,0,0,0,0,0,0,0,0,-1,1385,673,0,0
168,351,0,0,0,0,0,0,0,0,0,-1,1392,673,0,0
175,351,0,0,0,0,0,0,0,0,0,-1,1399,673,0,0
182,351,0,0,0,0,0,0,0,0,0,-1,1406,673,0,0
189,351,0,0,0,0,0,0,0,0,0,-1,1413,673,0,0
196,351,0,0,0,0,0,0,0,0,0,-1,1420,673,0,0
203,351,0,0,0,0,0,0,0,0,0,-1,1427,673,0,0
210,351,0,0,0,0,0,0,0,0,0,-1,1434,673,0,0
217,351,0,0,0,0,0,0,0,0,0,-1,1441,673,0,0
224,351,0,0,0,0,0,0,0,0,0,-1,1448,673,0,0
231,351,0,0,0,0,0,0,0,0,0,-1,1455,673,0,0
238,351,0,0,0,0,0,0,0,0,0,-1,1462,673,0,0
245,351,0,0,0,0,0,0,0,0,0,-1,1469,673,0,0
252,351,0,0,0,0,0,0,0,0,0,-1,1476,673,0,0
259,351,0,0,0,0,0,0,0,0,0,-1,1483,673,0,0
266,351,0,0,0,0,0,0,0,0,0,-1,1490,673,0,0
273,351,0,0,0,0,0,0,0,0,0,-1,1497,673,0,0
280,351,0,0,0,0,0,0,0,0,0,-1,1504,673,0,0
287,351,0,0,0,0,0,0,0,0,0,-1,1511,673,0,0
294,351,0,0,0,0,0,0,0,0,0,-1,1518,673,0,0
301,351,0,0,0,0,0,0,0,0,0,-1,1525,673,0,0
308,351,0,0,0,0,0,0,0,0,0,-1,1532,673,0,0
315,351,0,0,0,0,0,0,0,0,0,-1,1539,673,0,0
322,351,0,0,0,0,0,0,0,0,0,-1,1546,673,0,0
329,351,0,0,0,0,0,0,0,0,0,-1,1553,673,0,0
336,351,0,0,0,0,0,0,0,0,0,-1,1560,673,0,0
343,351,0,0,0,0,0,0,0,0,0,-1,1567,673,0,0
350,351,0,0,0,0,0,0,0,0,0,-1,1574,673,0,0
357,351,0,0,0,0,0,0,0,0,0,-1,1581,673,0,0
364,351,0,0,0,0,0,0,0,0,0,-1,1588,673,0,0
371,351,0,0,0,0,0,0,0,0,0,-1,1595,673,0,0
378,351,0,0,0,0,0,0,0,0,0,-1,1602,673,0,0
385,351,0,0,0,0,0,0,0,0,0,-1,1609,673,0,0
392,351,0,0,0,0,0,0,0,0,0,-1,1616,673,0,0
399,351,0,0,0,0,0,0,0,0,0,-1,1623,673,0,0
406,351,0,0,0,0,0,0,0,0,0,-1,1630,673,0,0
413,351,0,0,0,0,0,0,0,0,0,-1,1637,673,0,0
420,351,0,0,0,0,0,0,0,0,0,-1,1644,673,0,0
427,351,0,0,0,0,0,0,0,0,0,-1,1651,673,0,0
434,351,0,0,0,0,0,0,0,0,0,-1,1658,673,0,0
441,351,0,0,0,0,0,0,0,0,0,-1,1665,673,0,0
448,351,0,0,0,0,0,0,0,0,0,-1,1672,673,0,0
455,351,0,0,0,0,0,0,0,0,0,-1,1679,673,0,0
462,351,0,0,0,0,0,0,0,0,0,-1,1686,673,0,0
469,351,0,0,0,0,0,0,0,0,0,-1,1693,673,0,0
476,351,0,0,0,0,0,0,0,0,0,-1,1700,673,0,0
483,351,0,0,0,0,0,0,0,0,0,-1,1707,673,0,0
490,351,0,0,0,0,0,0,0,0,0,-1,1714,673,0,0
497,351,0,0,0,0,0,0,0,0,0,-1,1721,673,0,0
504,351,10.8842,1.61615,0,0,0,0,0,0,0,-1,1728,673,10.8842,-1.61618
511,351,15.4548,0.0236816,0,0,0,0,0,0,0,-1,1735,673,15.4549,-0.0236664
518,351,16.7448,2.49268,0,0,0,0,0,0,0,-1,1742,673,16.7448,-2.49269
525,351,16.0701,3.43225,0,0,0,0,0,0,0,-1,1749,673,16.07,-3.43227
532,351,32.3822,3.03021,0,0,0,0,0,0,0,-1,1756,673,32.3822,-3.03019
539,351,15.3387,3.54486,0,0,0,0,0,0,0,-1,1763,673,15.3387,-3.54485
546,351,13.9387,4.59357,0,0,0,0,0,0,0,-1,1770,673,13.9388,-4.59359
553,351,12.0682,2.02832,0,0,0,0,0,0,0,-1,1777,673,12.0683,-2.02831
560,351,12.0173,0.55304,0,0,0,0,0,0,0,-1,1784,673,12.0174,-0.553028
567,351,10.7827,0.130188,0,0,0,0,0,0,0,-1,1791,673,10.7827,-0.130183
574,351,13.405,-1.09204,0,0,0,0,0,0,0,-1,1798,673,13.405,1.09207
581,351,15.2351,-3.06049,0,0,0,0,0,0,0,-1,1805,673,15.2351,3.06046
588,351,41.8361,-16.464,0,0,0,0,0,0,0,-1,1812,673,41.8361,16.464
595,351,41.9225,-15.3477,0.000227083,-0.000271715,0.000481947,0.000520337,-0.000564969,0.54663,0.000626778,0.0392732,1819,673,41.9225,15.3477
602,351,41.9026,-14.2168,0.000439405,-5.05068e-06,0.000482259,0.000748176,-0.000313821,0.569496,0.000630007,0.0194775,1826,673,41.9026,14.2168
609,351,41.8549,-13.2458,0.000775833,0.000302614,0.00058354,0.00116891,-9.04613e-05,0.59279,0.000811109,0.0192196,1833,673,41.8549,13.2458
616,351,41.7633,-12.2496,0.00112348,0.00067294,0.000704647,0.00163799,0.000158429,0.630688,0.0010432,0.0154462,1840,673,41.7634,12.2495
623,351,41.719,-11.2747,0.0015733,0.00105643,0.000820126,0.00217474,0.00045498,0.632765,0.00132448,0.0165764,1847,673,41.719,11.2747
630,351,41.6123,-10.2927,0.0020247,0.0015257,0.000962856,0.00276986,0.000780545,0.658626,0.00164916,0.027225,1854,673,41.6123,10.2927
637,351,41.5098,-9.28931,0.00243058,0.0019843,0.00103934,0.00327046,0.00114441,0.679657,0.00191635,0.0296254,1861,673,41.5098,9.2893
644,351,41.4724,-8.25354,0.0027926,0.0024691,0.00106009,0.0037032,0.00155849,0.709692,0.00214696,0.0208488,1868,673,41.4724,8.25357
651,351,41.4519,-7.11993,0.0031565,0.0030165,0.00106046,0.00414927,0.00202374,0.75244,0.00239582,0.0179429,1875,673,41.4519,7.11994
658,351,41.3004,-6.06726,0.00333312,0.00354087,0.000915045,0.00435791,0.00251607,0.841915,0.00252606,0.0478047,1882,673,41.3005,6.06729
665,351,40.829,-4.94031,0,0,0,0,0,0,0,-1,1889,673,40.829,4.9403
672,351,34.9646,-3.1748,0,0,0,0,0,0,0,-1,1896,673,34.9646,3.17482
679,351,14.1252,1.85681,0,0,0,0,0,0,0,-1,1903,673,14.1253,-1.85682
686,351,13.0294,2.1189,0,0,0,0,0,0,0,-1,1910,673,13.0294,-2.11892
693,351,13.5187,2.34595,0,0,0,0,0,0,0,-1,1917,673,13.5187,-2.34596
700,351,14.5629,-2.40173,0,0,0,0,0,0,0,-1,1924,673,14.5629,2.40172
707,351,0,0,0,0,0,0,0,0,0,-1,1931,673,0,0
714,351,0,0,0,0,0,0,0,0,0,-1,1938,673,0,0
721,351,0,0,0,0,0,0,0,0,0,-1,1945,673,0,0
728,351,0,0,0,0,0,0,0,0,0,-1,1952,673,0,0
735,351,0,0,0,0,0,0,0,0,0,-1,1959,673,0,0
742,351,0,0,0,0,0,0,0,0,0,-1,1966,673,0,0
749,351,0,0,0,0,0,0,0,0,0,-1,1973,673,0,0
756,351,0,0,0,0,0,0,0,0,0,-1,1980,673,0,0
763,351,0,0,0,0,0,0,0,0,0,-1,1987,673,0,0
770,351,0,0,0,0,0,0,0,0,0,-1,1994,673,0,0
777,351,0,0,0,0,0,0,0,0,0,-1,2001,673,0,0
784,351,0,0,0,0,0,0,0,0,0,-1,2008,673,0,0
791,351,0,0,0,0,0,0,0,0,0,-1,2015,673,0,0
798,351,0,0,0,0,0,0,0,0,0,-1,2022,673,0,0
805,351,0,0,0,0,0,0,0,0,0,-1,2029,673,0,0
812,351,0,0,0,0,0,0,0,0,0,-1,2036,673,0,0
-700,344,0,0,0,0,0,0,0,0,0,-1,524,680,0,0
-693,344,0,0,0,0,0,0,0,0,0,-1,531,680,0,0
-686,344,0,0,0,0,0,0,0,0,0,-1,538,680,0,0
-679,344,0,0,0,0,0,0,0,0,0,-1,545,680,0,0
-672,344,0,0,0,0,0,0,0,0,0,-1,552,680,0,0
-665,344,0,0,0,0,0,0,0,0,0,-1,559,680,0,0
-658,344,0,0,0,0,0,0,0,0,0,-1,566,680,0,0
-651,344,0,0,0,0,0,0,0,0,0,-1,573,680,0,0
-644,344,0,0,0,0,0,0,0,0,0,-1,580,680,0,0
-637,344,0,0,0,0,0,0,0,0,0,-1,587,680,0,0
-630,344,0,0,0,0,0,0,0,0,0,-1,594,680,0,0
-623,344,0,0,0,0,0,0,0,0,0,-1,601,680,0,0
-616,344,0,0,0,0,0,0,0,0,0,-1,608,680,0,0
-609,344,0,0,0,0,0,0,0,0,0,-1,615,680,0,0
-602,344,0,0,0,0,0,0,0,0,0,-1,622,680,0,0
-595,344,0,0,0,0,0,0,0,0,0,-1,629,680,0,0
-588,344,-9.27826,1.47302,0,0,0,0,0,0,0,-1,636,680,-9.27829,-1.473
-581,344,-10.0098,1.71753,0,0,0,0,0,0,0,-1,643,680,-10.0098,-1.7175
-574,344,-10.2208,3.04871,0,0,0,0,0,0,0,-1,650,680,-10.2208,-3.04869
-567,344,-14.3779,2.29016,0,0,0,0,0,0,0,-1,657,680,-14.3779,-2.29014
-560,344,-14.1238,1.8374,0,0,0,0,0,0,0,-1,664,680,-14.1238,-1.83743
-553,344,-14.7884,2.00116,0,0,0,0,0,0,0,-1,671,680,-14.7884,-2.00115
-546,344,-17.4192,0.157654,0,0,0,0,0,0,0,-1,678,680,-17.4192,-0.157635
-539,344,-17.2671,-2.75714,0,0,0,0,0,0,0,-1,685,680,-17.2671,2.75712
-532,344,-18.4417,-4.38605,0,0,0,0,0,0,0,-1,692,680,-18.4417,4.38603
-525,344,-25.6315,-7.05194,0,0,0,0,0,0,0,-1,699,680,-25.6315,7.05194
-518,344,-25.6583,-8.07361,0.00385325,0.00161398,-0.0021936,0.00519643,0.000270804,-0.549428,0.00337764,0.0212214,706,680,-25.6582,8.07364
-511,344,-25.6982,-9.12958,0.00302235,0.000888762,-0.00141489,0.00372755,0.000183563,-0.462377,0.00242616,0.0173265,713,680,-25.6983,9.12957
-504,344,-25.7626,-10.1561,0.00233446,0.00038989,-0.000868498,0.00266587,5.84776e-05,-0.364538,0.00175808,0.0182721,720,680,-25.7626,10.1561
-497,344,-25.8353,-11.1771,0.00178927,5.42166e-05,-0.00046602,0.00190651,-6.30296e-05,-0.246475,0.00129253,0.0169967,727,680,-25.8353,11.1771
-490,344,-25.9101,-12.1827,0.00138338,-8.98038e-05,-0.000253704,0.00142585,-0.000132271,-0.165851,0.000997583,0.0159905,734,680,-25.9101,12.1827
-483,344,-25.9548,-13.1726,0.00115621,-6.37075e-05,-0.000227006,0.00119708,-0.00010458,-0.178142,0.0008351,0.0164892,741,680,-25.9548,13.1726
-476,344,-26.0251,-14.1823,0.00108125,9.41156e-05,-0.000376818,0.00120865,-3.3285e-05,-0.32603,0.000817087,0.0159193,748,680,-26.0251,14.1823
-469,344,-26.0775,-15.2355,0.00116361,0.000399701,-0.000695292,0.00157495,-1.16424e-05,-0.53423,0.00105387,0.0241515,755,680,-26.0775,15.2355
-462,344,-26.1241,-16.3,0,0,0,0,0,0,0,-1,762,680,-26.1241,16.3
-455,344,-12.1653,-7.99176,0,0,0,0,0,0,0,-1,769,680,-12.1653,7.99174
-448,344,-5.67657,-2.72864,0,0,0,0,0,0,0,-1,776,680,-5.6766,2.72863
-441,344,-5.09229,-2.34167,0,0,0,0,0,0,0,-1,783,680,-5.09229,2.34168
-434,344,-4.28778,-2.08807,0,0,0,0,0,0,0,-1,790,680,-4.28778,2.08809
-427,344,-3.06506,-1.45404,0,0,0,0,0,0,0,-1,797,680,-3.06505,1.45402
-420,344,-1.96582,-1.57574,0,0,0,0,0,0,0,-1,804,680,-1.96579,1.57574
-413,344,-0.817993,-1.4751,0,0,0,0,0,0,0,-1,811,680,-0.818017,1.47511
-406,344,-0.00714111,-1.25189,0,0,0,0,0,0,0,-1,818,680,-0.00714956,1.25191
-399,344,0.240051,-1.75769,0,0,0,0,0,0,0,-1,825,680,0.240079,1.75767
-392,344,1.11353,-2.05615,0,0,0,0,0,0,0,-1,832,680,1.11351,2.05616
-385,344,0,0,0,0,0,0,0,0,0,-1,839,680,0,0
-378,344,0,0,0,0,0,0,0,0,0,-1,846,680,0,0
-371,344,0,0,0,0,0,0,0,0,0,-1,853,680,0,0
-364,344,0,0,0,0,0,0,0,0,0,-1,860,680,0,0
-357,344,0,0,0,0,0,0,0,0,0,-1,867,680,0,0
-350,344,0,0,0,0,0,0,0,0,0,-1,874,680,0,0
-343,344,0,0,0,0,0,0,0,0,0,-1,881,680,0,0
-336,344,0,0,0,0,0,0,0,0,0,-1,888,680,0,0
-329,344,0,0,0,0,0,0,0,0,0,-1,895,680,0,0
-322,344,0,0,0,0,0,0,0,0,0,-1,902,680,0,0
-315,344,0,0,0,0,0,0,0,0,0,-1,909,680,0,0
-308,344,0,0,0,0,0,0,0,0,0,-1,916,680,0,0
-301,344,0,0,0,0,0,0,0,0,0,-1,923,680,0,0
-294,344,0,0,0,0,0,0,0,0,0,-1,930,680,0,0
-287,344,0,0,0,0,0,0,0,0,0,-1,937,680,0,0
-280,344,0,0,0,0,0,0,0,0,0,-1,944,680,0,0
-273,344,0,0,0,0,0,0,0,0,0,-1,951,680,0,0
-266,344,0,0,0,0,0,0,0,0,0,-1,958,680,0,0
-259,344,0,0,0,0,0,0,0,0,0,-1,965,680,0,0
-252,344,0,0,0,0,0,0,0,0,0,-1,972,680,0,0
-245,344,0,0,0,0,0,0,0,0,0,-1,979,680,0,0
-238,344,0,0,0,0,0,0,0,0,0,-1,986,680,0,0
-231,344,0,0,0,0,0,0,0,0,0,-1,993,680,0,0
-224,344,0,0,0,0,0,0,0,0,0,-1,1000,680,0,0
-217,344,0,0,0,0,0,0,0,0,0,-1,1007,680,0,0
-210,344,0,0,0,0,0,0,0,0,0,-1,1014,680,0,0
-203,344,0,0,0,0,0,0,0,0,0,-1,1021,680,0,0
-196,344,0,0,0,0,0,0,0,0,0,-1,1028,680,0,0
-189,344,0,0,0,0,0,0,0,0,0,-1,1035,680,0,0
-182,344,0,0,0,0,0,0,0,0,0,-1,1042,680,0,0
-175,344,0,0,0,0,0,0,0,0,0,-1,1049,680,0,0
-168,344,0,0,0,0,0,0,0,0,0,-1,1056,680,0,0
-161,344,0,0,0,0,0,0,0,0,0,-1,1063,680,0,0
-154,344,0,0,0,0,0,0,0,0,0,-1,1070,680,0,0
-147,344,0,0,0,0,0,0,0,0,0,-1,1077,680,0,0
-140,344,0,0,0,0,0,0,0,0,0,-1,1084,680,0,0
-133,344,0,0,0,0,0,0,0,0,0,-1,1091,680,0,0
-126,344,0,0,0,0,0,0,0,0,0,-1,1098,680,0,0
-119,344,0,0,0,0,0,0,0,0,0,-1,1105,680,0,0
-112,344,0,0,0,0,0,0,0,0,0,-1,1112,680,0,0
-105,344,0,0,0,0,0,0,0,0,0,-1,1119,680,0,0
-98,344,0,0,0,0,0,0,0,0,0,-1,1126,680,0,0
-91,344,0,0,0,0,0,0,0,0,0,-1,1133,680,0,0
-84,344,0,0,0,0,0,0,0,0,0,-1,1140,680,0,0
-77,344,0,0,0,0,0,0,0,0,0,-1,1147,680,0,0
-70,344,0,0,0,0,0,0,0,0,0,-1,1154,680,0,0
-63,344,0,0,0,0,0,0,0,0,0,-1,1161,680,0,0
-56,344,0,0,0,0,0,0,0,0,0,-1,1168,680,0,0
-49,344,0,0,0,0,0,0,0,0,0,-1,1175,680,0,0
-42,344,0,0,0,0,0,0,0,0,0,-1,1182,680,0,0
-35,344,0,0,0,0,0,0,0,0,0,-1,1189,680,0,0
-28,344,0,0,0,0,0,0,0,0,0,-1,1196,680,0,0
-21,344,0,0,0,0,0,0,0,0,0,-1,1203,680,0,0
-14,344,0,0,0,0,0,0,0,0,0,-1,1210,680,0,0
-7,344,0,0,0,0,0,0,0,0,0,-1,1217,680,0,0
0,344,0,0,0,0,0,0,0,0,0,-1,1224,680,0,0
7,344,0,0,0,0,0,0,0,0,0,-1,1231,680,0,0
14,344,0,0,0,0,0,0,0,0,0,-1,1238,680,0,0
21,344,0,0,0,0,0,0,0,0,0,-1,1245,680,0,0
28,344,0,0,0,0,0,0,0,0,0,-1,1252,680,0,0
35,344,0,0,0,0,0,0,0,0,0,-1,1259,680,0,0
42,344,0,0,0,0,0,0,0,0,0,-1,1266,680,0,0
49,344,0,0,0,0,0,0,0,0,0,-1,1273,680,0,0
56,344,0,0,0,0,0,0,0,0,0,-1,1280,680,0,0
63,344,0,0,0,0,0,0,0,0,0,-1,1287,680,0,0
70,344,0,0,0,0,0,0,0,0,0,-1,1294,680,0,0
77,344,0,0,0,0,0,0,0,0,0,-1,1301,680,0,0
84,344,0,0,0,0,0,0,0,0,0,-1,1308,680,0,0
91,344,0,0,0,0,0,0,0,0,0,-1,1315,680,0,0
98,344,0,0,0,0,0,0,0,0,0,-1,1322,680,0,0
105,344,0,0,0,0,0,0,0,0,0,-1,1329,680,0,0
112,344,0,0,0,0,0,0,0,0,0,-1,1336,680,0,0
119,344,0,0,0,0,0,0,0,0,0,-1,1343,680,0,0
126,344,0,0,0,0,0,0,0,0,0,-1,1350,680,0,0
133,344,0,0,0,0,0,0,0,0,0,-1,1357,680,0,0
140,344,0,0,0,0,0,0,0,0,0,-1,1364,680,0,0
147,344,0,0,0,0,0,0,0,0,0,-1,1371,680,0,0
154,344,0,0,0,0,0,0,0,0,0,-1,1378,680,0,0
161,344,0,0,0,0,0,0,0,0,0,-1,1385,680,0,0
168,344,0,0,0,0,0,0,0,0,0,-1,1392,680,0,0
175,344,0,0,0,0,0,0,0,0,0,-1,1399,680,0,0
182,344,0,0,0,0,0,0,0,0,0,-1,1406,680,0,0
189,344,0,0,0,0,0,0,0,0,0,-1,1413,680,0,0
196,344,0,0,0,0,0,0,0,0,0,-1,1420,680,0,0
203,344,0,0,0,0,0,0,0,0,0,-1,1427,680,0,0
210,344,0,0,0,0,0,0,0,0,0,-1,1434,680,0,0
217,344,0,0,0,0,0,0,0,0,0,-1,1441,680,0,0
224,344,0,0,0,0,0,0,0,0,0,-1,1448,680,0,0
231,344,0,0,0,0,0,0,0,0,0,-1,1455,680,0,0
238,344,0,0,0,0,0,0,0,0,0,-1,1462,680,0,0
245,344,0,0,0,0,0,0,0,0,0,-1,1469,680,0,0
252,344,0,0,0,0,0,0,0,0,0,-1,1476,680,0,0
259,344,0,0,0,0,0,0,0,0,0,-1,1483,680,0,0
266,344,0,0,0,0,0,0,0,0,0,-1,1490,680,0,0
273,344,0,0,0,0,0,0,0,0,0,-1,1497,680,0,0
280,344,0,0,0,0,0,0,0,0,0,-1,1504,680,0,0
287,344,0,0,0,0,0,0,0,0,0,-1,1511,680,0,0
294,344,0,0,0,0,0,0,0,0,0,-1,1518,680,0,0
301,344,0,0,0,0,0,0,0,0,0,-1,1525,680,0,0
308,344,0,0,0,0,0,0,0,0,0,-1,1532,680,0,0
315,344,0,0,0,0,0,0,0,0,0,-1,1539,680,0,0
322,344,0,0,0,0,0,0,0,0,0,-1,1546,680,0,0
329,344,0,0,0,0,0,0,0,0,0,-1,1553,680,0,0
336,344,0,0,0,0,0,0,0,0,0,-1,1560,680,0,0
343,344,0,0,0,0,0,0,0,0,0,-1,1567,680,0,0
350,344,0,0,0,0,0,0,0,0,0,-1,1574,680,0,0
357,344,0,0,0,0,0,0,0,0,0,-1,1581,680,0,0
364,344,0,0,0,0,0,0,0,0,0,-1,1588,680,0,0
371,344,0,0,0,0,0,0,0,0,0,-1,1595,680,0,0
378,344,0,0,0,0,0,0,0,0,0,-1,1602,680,0,0
385,344,0,0,0,0,0,0,0,0,0,-1,1609,680,0,0
392,344,0,0,0,0,0,0,0,0,0,-1,1616,680,0,0
399,344,0,0,0,0,0,0,0,0,0,-1,1623,680,0,0
406,344,0,0,0,0,0,0,0,0,0,-1,1630,680,0,0
413,344,0,0,0,0,0,0,0,0,0,-1,1637,680,0,0
420,344,0,0,0,0,0,0,0,0,0,-1,1644,680,0,0
427,344,0,0,0,0,0,0,0,0,0,-1,1651,680,0,0
434,344,0,0,0,0,0,0,0,0,0,-1,1658,680,0,0
441,344,0,0,0,0,0,0,0,0,0,-1,1665,680,0,0
448,344,0,0,0,0,0,0,0,0,0,-1,1672,680,0,0
455,344,0,0,0,0,0,0,0,0,0,-1,1679,680,0,0
462,344,0,0,0,0,0,0,0,0,0,-1,1686,680,0,0
469,344,0,0,0,0,0,0,0,0,0,-1,1693,680,0,0
476,344,0,0,0,0,0,0,0,0,0,-1,1700,680,0,0
483,344,0,0,0,0,0,0,0,0,0,-1,1707,680,0,0
490,344,0,0,0,0,0,0,0,0,0,-1,1714,680,0,0
497,344,0,0,0,0,0,0,0,0,0,-1,1721,680,0,0
504,344,0,0,0,0,0,0,0,0,0,-1,1728,680,0,0
511,344,15.4819,0.452637,0,0,0,0,0,0,0,-1,1735,680,15.4819,-0.452656
518,344,17.1357,2.31207,0,0,0,0,0,0,0,-1,1742,680,17.1358,-2.31207
525,344,31.5201,2.6217,0,0,0,0,0,0,0,-1,1749,680,31.5201,-2.62168
532,344,31.9766,2.61047,0,0,0,0,0,0,0,-1,1756,680,31.9765,-2.6105
539,344,32.4379,2.65314,0,0,0,0,0,0,0,-1,1763,680,32.4378,-2.65316
546,344,14.6722,4.30243,0,0,0,0,0,0,0,-1,1770,680,14.6722,-4.30241
553,344,14.8136,4.35681,0,0,0,0,0,0,0,-1,1777,680,14.8136,-4.35679
560,344,11.9363,2.14185,0,0,0,0,0,0,0,-1,1784,680,11.9362,-2.14182
567,344,11.397,0.925842,0,0,0,0,0,0,0,-1,1791,680,11.397,-0.92583
574,344,10.0004,0.504639,0,0,0,0,0,0,0,-1,1798,680,10.0004,-0.504645
581,344,13.6709,-0.969604,0,0,0,0,0,0,0,-1,1805,680,13.6709,0.969629
588,344,16.1447,-3.15948,0,0,0,0,0,0,0,-1,1812,680,16.1447,3.15946
595,344,42.8923,-15.3,0,0,0,0,0,0,0,-1,1819,680,42.8923,15.3
602,344,43.0505,-14.1849,0.000305382,-0.000267551,0.000475206,0.000573788,-0.000535957,0.514151,0.000640836,0.0328758,1826,680,43.0505,14.185
609,344,42.8707,-13.204,0.000710892,-8.18464e-05,0.000531299,0.000977386,-0.00034834,0.464918,0.000793609,0.0178286,1833,680,42.8708,13.204
616,344,42.7837,-12.1781,0.00101992,0.000172101,0.000617392,0.00134492,-0.000152904,0.484557,0.000951685,0.0228646,1840,680,42.7837,12.1781
623,344,42.6964,-11.199,0.00135717,0.000496691,0.000674595,0.00172705,0.000126816,0.501531,0.00111151,0.0215197,1847,680,42.6964,11.199
630,344,42.5844,-10.2278,0.00172763,0.000907853,0.000774323,0.00219386,0.000441623,0.541972,0.00133985,0.0275551,1854,680,42.5844,10.2279
637,344,42.5293,-9.19788,0.00207849,0.00133423,0.000832384,0.00261814,0.000794577,0.575192,0.00155001,0.0247779,1861,680,42.5293,9.19787
644,344,42.521,-8.13776,0.00240506,0.00177404,0.000845776,0.00299226,0.00118684,0.606872,0.00173984,0.0169553,1868,680,42.521,8.13777
651,344,42.4442,-7.09155,0.00275924,0.00229309,0.000843679,0.00340145,0.00165089,0.65063,0.00196411,0.0121887,1875,680,42.4443,7.09155
658,344,42.3824,-5.97241,0.00304204,0.0028446,0.000771998,0.0037216,0.00216503,0.721804,0.00215822,0.028731,1882,680,42.3825,5.97242
665,344,42.1644,-5.02386,0.00355296,0.00332556,0.000615393,0.00406507,0.00281345,0.694048,0.00240402,0.0474789,1889,680,42.1645,5.02384
672,344,42.182,-4.11157,0,0,0,0,0,0,0,-1,1896,680,42.182,4.11158
679,344,36.7468,-2.59857,0,0,0,0,0,0,0,-1,1903,680,36.7468,2.59857
686,344,15.024,1.82709,0,0,0,0,0,0,0,-1,1910,680,15.024,-1.82706
693,344,12.4362,-1.42346,0,0,0,0,0,0,0,-1,1917,680,12.4361,1.42348
700,344,17.5396,2.61206,0,0,0,0,0,0,0,-1,1924,680,17.5396,-2.61204
707,344,18.5829,3.29352,0,0,0,0,0,0,0,-1,1931,680,18.5828,-3.2935
714,344,0,0,0,0,0,0,0,0,0,-1,1938,680,0,0
721,344,0,0,0,0,0,0,0,0,0,-1,1945,680,0,0
728,344,0,0,0,0,0,0,0,0,0,-1,1952,680,0,0
735,344,0,0,0,0,0,0,0,0,0,-1,1959,680,0,0
742,344,0,0,0,0,0,0,0,0,0,-1,1966,680,0,0
749,344,0,0,0,0,0,0,0,0,0,-1,1973,680,0,0
756,344,0,0,0,0,0,0,0,0,0,-1,1980,680,0,0
763,344,0,0,0,0,0,0,0,0,0,-1,1987,680,0,0
770,344,0,0,0,0,0,0,0,0,0,-1,1994,680,0,0
777,344,0,0,0,0,0,0,0,0,0,-1,2001,680,0,0
784,344,0,0,0,0,0,0,0,0,0,-1,2008,680,0,0
791,344,0,0,0,0,0,0,0,0,0,-1,2015,680,0,0
798,344,0,0,0,0,0,0,0,0,0,-1,2022,680,0,0
805,344,0,0,0,0,0,0,0,0,0,-1,2029,680,0,0
812,344,0,0,0,0,0,0,0,0,0,-1,2036,680,0,0
-700,337,0,0,0,0,0,0,0,0,0,-1,524,687,0,0
-693,337,0,0,0,0,0,0,0,0,0,-1,531,687,0,0
-686,337,0,0,0,0,0,0,0,0,0,-1,538,687,0,0
-679,337,0,0,0,0,0,0,0,0,0,-1,545,687,0,0
-672,337,0,0,0,0,0,0,0,0,0,-1,552,687,0,0
-665,337,0,0,0,0,0,0,0,0,0,-1,559,687,0,0
-658,337,0,0,0,0,0,0,0,0,0,-1,566,687,0,0
-651,337,0,0,0,0,0,0,0,0,0,-1,573,687,0,0
-644,337,0,0,0,0,0,0,0,0,0,-1,580,687,0,0
-637,337,0,0,0,0,0,0,0,0,0,-1,587,687,0,0
-630,337,0,0,0,0,0,0,0,0,0,-1,594,687,0,0
-623,337,0,0,0,0,0,0,0,0,0,-1,601,687,0,0
-616,337,0,0,0,0,0,0,0,0,0,-1,608,687,0,0
-609,337,0,0,0,0,0,0,0,0,0,-1,615,687,0,0
-602,337,0,0,0,0,0,0,0,0,0,-1,622,687,0,0
-595,337,0,0,0,0,0,0,0,0,0,-1,629,687,0,0
-588,337,-10.8413,1.27863,0,0,0,0,0,0,0,-1,636,687,-10.8413,-1.27861
-581,337,-11.2157,1.31567,0,0,0,0,0,0,0,-1,643,687,-11.2157,-1.3157
-574,337,-6.03339,2.0321,0,0,0,0,0,0,0,-1,650,687,-6.03337,-2.03213
-567,337,-13.8102,1.56787,0,0,0,0,0,0,0,-1,657,687,-13.8102,-1.56789
-560,337,-15.5435,2.34247,0,0,0,0,0,0,0,-1,664,687,-15.5435,-2.34247
-553,337,-18.0128,1.12927,0,0,0,0,0,0,0,-1,671,687,-18.0128,-1.12926
-546,337,-18.0244,-2.03845,0,0,0,0,0,0,0,-1,678,687,-18.0244,2.03846
-539,337,-19.2426,-3.53815,0,0,0,0,0,0,0,-1,685,687,-19.2426,3.53813
-532,337,-26.6201,-5.94836,0,0,0,0,0,0,0,-1,692,687,-26.6201,5.94839
-525,337,-26.6693,-6.99213,0.00415059,0.00261803,-0.0029255,0.0064085,0.000360112,-0.65731,0.0041575,0.022553,699,687,-26.6693,6.99213
-518,337,-26.69,-8.04187,0.00332666,0.00152291,-0.00193412,0.00455885,0.000290726,-0.567237,0.00294711,0.0244071,706,687,-26.69,8.04187
-511,337,-26.7162,-9.07031,0.00265183,0.000695986,-0.0011544,0.00318684,0.000160977,-0.433986,0.00207298,0.0243747,713,687,-26.7162,9.0703
-504,337,-26.7803,-10.0997,0.00202998,7.27503e-05,-0.00054339,0.00217072,-6.79919e-05,-0.253438,0.00147034,0.024689,720,687,-26.7802,10.0997
-497,337,-26.8575,-11.1276,0.00152719,-0.000355849,-8.62594e-05,0.00153113,-0.000359792,-0.045681,0.00115945,0.018345,727,687,-26.8575,11.1276
-490,337,-26.9366,-12.129,0.00118086,-0.000562843,0.000156307,0.00119476,-0.000576744,0.0886987,0.00104332,0.0160353,734,687,-26.9366,12.129
-483,337,-26.97,-13.1396,0.000986075,-0.000544649,0.000196462,0.00101089,-0.000569462,0.125633,0.000924204,0.0166117,741,687,-26.97,13.1396
-476,337,-27.0328,-14.1812,0.000942032,-0.000363097,1.83092e-06,0.000942034,-0.0003631,0.00140286,0.000777838,0.0195545,748,687,-27.0328,14.1812
-469,337,-27.0458,-15.2556,0,0,0,0,0,0,0,-1,755,687,-27.0458,15.2556
-462,337,-14.186,-8.89264,0,0,0,0,0,0,0,-1,762,687,-14.186,8.89266
-455,337,-6.00574,-3.12933,0,0,0,0,0,0,0,-1,769,687,-6.00576,3.12934
-448,337,-5.30627,-2.07202,0,0,0,0,0,0,0,-1,776,687,-5.30628,2.07205
-441,337,-4.24762,-1.49597,0,0,0,0,0,0,0,-1,783,687,-4.24762,1.49598
-434,337,-6.86908,1.37531,0,0,0,0,0,0,0,-1,790,687,-6.86908,-1.3753
-427,337,-9.92004,2.487,0,0,0,0,0,0,0,-1,797,687,-9.92002,-2.48701
-420,337,-2.95996,-1.76697,0,0,0,0,0,0,0,-1,804,687,-2.95998,1.76696
-413,337,-1.29169,-1.99487,0,0,0,0,0,0,0,-1,811,687,-1.29171,1.9949
-406,337,-1.02356,-1.89563,0,0,0,0,0,0,0,-1,818,687,-1.02357,1.89564
-399,337,-0.472839,-2.21338,0,0,0,0,0,0,0,-1,825,687,-0.472837,2.2134
-392,337,0,0,0,0,0,0,0,0,0,-1,832,687,0,0
-385,337,0,0,0,0,0,0,0,0,0,-1,839,687,0,0
-378,337,0,0,0,0,0,0,0,0,0,-1,846,687,0,0
-371,337,0,0,0,0,0,0,0,0,0,-1,853,687,0,0
-364,337,0,0,0,0,0,0,0,0,0,-1,860,687,0,0
-357,337,0,0,0,0,0,0,0,0,0,-1,867,687,0,0
-350,337,0,0,0,0,0,0,0,0,0,-1,874,687,0,0
-343,337,0,0,0,0,0,0,0,0,0,-1,881,687,0,0
-336,337,0,0,0,0,0,0,0,0,0,-1,888,687,0,0
-329,337,0,0,0,0,0,0,0,0,0,-1,895,687,0,0
-322,337,0,0,0,0,0,0,0,0,0,-1,902,687,0,0
-315,337,0,0,0,0,0,0,0,0,0,-1,909,687,0,0
-308,337,0,0,0,0,0,0,0,0,0,-1,916,687,0,0
-301,337,0,0,0,0,0,0,0,0,0,-1,923,687,0,0
-294,337,0,0,0,0,0,0,0,0,0,-1,930,687,0,0
-287,337,0,0,0,0,0,0,0,0,0,-1,937,687,0,0
-280,337,0,0,0,0,0,0,0,0,0,-1,944,687,0,0
-273,337,0,0,0,0,0,0,0,0,0,-1,951,687,0,0
-266,337,0,0,0,0,0,0,0,0,0,-1,958,687,0,0
-259,337,0,0,0,0,0,0,0,0,0,-1,965,687,0,0
-252,337,0,0,0,0,0,0,0,0,0,-1,972,687,0,0
-245,337,0,0,0,0,0,0,0,0,0,-1,979,687,0,0
-238,337,0,0,0,0,0,0,0,0,0,-1,986,687,0,0
-231,337,0,0,0,0,0,0,0,0,0,-1,993,687,0,0
-224,337,0,0,0,0,0,0,0,0,0,-1,1000,687,0,0
-217,337,0,0,0,0,0,0,0,0,0,-1,1007,687,0,0
-210,337,0,0,0,0,0,0,0,0,0,-1,1014,687,0,0
-203,337,0,0,0,0,0,0,0,0,0,-1,1021,687,0,0
-196,337,0,0,0,0,0,0,0,0,0,-1,1028,687,0,0
-189,337,0,0,0,0,0,0,0,0,0,-1,1035,687,0,0
-182,337,0,0,0,0,0,0,0,0,0,-1,1042,687,0,0
-175,337,0,0,0,0,0,0,0,0,0,-1,1049,687,0,0
-168,337,0,0,0,0,0,0,0,0,0,-1,1056,687,0,0
-161,337,0,0,0,0,0,0,0,0,0,-1,1063,687,0,0
-154,337,0,0,0,0,0,0,0,0,0,-1,1070,687,0,0
-147,337,0,0,0,0,0,0,0,0,0,-1,1077,687,0,0
-140,337,0,0,0,0,0,0,0,0,0,-1,1084,687,0,0
-133,337,0,0,0,0,0,0,0,0,0,-1,1091,687,0,0
-126,337,0,0,0,0,0,0,0,0,0,-1,1098,687,0,0
-119,337,0,0,0,0,0,0,0,0,0,-1,1105,687,0,0
-112,337,0,0,0,0,0,0,0,0,0,-1,1112,687,0,0
-105,337,0,0,0,0,0,0,0,0,0,-1,1119,687,0,0
-98,337,0,0,0,0,0,0,0,0,0,-1,1126,687,0,0
-91,337,0,0,0,0,0,0,0,0,0,-1,1133,687,0,0
-84,337,0,0,0,0,0,0,0,0,0,-1,1140,687,0,0
-77,337,0,0,0,0,0,0,0,0,0,-1,1147,687,0,0
-70,337,0,0,0,0,0,0,0,0,0,-1,1154,687,0,0
-63,337,0,0,0,0,0,0,0,0,0,-1,1161,687,0,0
-56,337,0,0,0,0,0,0,0,0,0,-1,1168,687,0,0
-49,337,0,0,0,0,0,0,0,0,0,-1,1175,687,0,0
-42,337,0,0,0,0,0,0,0,0,0,-1,1182,687,0,0
-35,337,0,0,0,0,0,0,0,0,0,-1,1189,687,0,0
-28,337,0,0,0,0,0,0,0,0,0,-1,1196,687,0,0
-21,337,0,0,0,0,0,0,0,0,0,-1,1203,687,0,0
-14,337,0,0,0,0,0,0,0,0,0,-1,1210,687,0,0
-7,337,0,0,0,0,0,0,0,0,0,-1,1217,687,0,0
0,337,0,0,0,0,0,0,0,0,0,-1,1224,687,0,0
7,337,0,0,0,0,0,0,0,0,0,-1,1231,687,0,0
14,337,0,0,0,0,0,0,0,0,0,-1,1238,687,0,0
21,337,0,0,0,0,0,0,0,0,0,-1,1245,687,0,0
28,337,0,0,0,0,0,0,0,0,0,-1,1252,687,0,0
35,337,0,0,0,0,0,0,0,0,0,-1,1259,687,0,0
42,337,0,0,0,0,0,0,0,0,0,-1,1266,687,0,0
49,337,0,0,0,0,0,0,0,0,0,-1,1273,687,0,0
56,337,0,0,0,0,0,0,0,0,0,-1,1280,687,0,0
63,337,0,0,0,0,0,0,0,0,0,-1,1287,687,0,0
70,337,0,0,0,0,0,0,0,0,0,-1,1294,687,0,0
77,337,0,0,0,0,0,0,0,0,0,-1,1301,687,0,0
84,337,0,0,0,0,0,0,0,0,0,-1,1308,687,0,0
91,337,0,0,0,0,0,0,0,0,0,-1,1315,687,0,0
98,337,0,0,0,0,0,0,0,0,0,-1,1322,687,0,0
105,337,0,0,0,0,0,0,0,0,0,-1,1329,687,0,0
112,337,0,0,0,0,0,0,0,0,0,-1,1336,687,0,0
119,337,0,0,0,0,0,0,0,0,0,-1,1343,687,0,0
126,337,0,0,0,0,0,0,0,0,0,-1,1350,687,0,0
133,337,0,0,0,0,0,0,0,0,0,-1,1357,687,0,0
140,337,0,0,0,0,0,0,0,0,0,-1,1364,687,0,0
147,337,0,0,0,0,0,0,0,0,0,-1,1371,687,0,0
154,337,0,0,0,0,0,0,0,0,0,-1,1378,687,0,0
161,337,0,0,0,0,0,0,0,0,0,-1,1385,687,0,0
168,337,0,0,0,0,0,0,0,0,0,-1,1392,687,0,0
175,337,0,0,0,0,0,0,0,0,0,-1,1399,687,0,0
182,337,0,0,0,0,0,0,0,0,0,-1,1406,687,0,0
189,337,0,0,0,0,0,0,0,0,0,-1,1413,687,0,0
196,337,0,0,0,0,0,0,0,0,0,-1,1420,687,0,0
203,337,0,0,0,0,0,0,0,0,0,-1,1427,687,0,0
210,337,0,0,0,0,0,0,0,0,0,-1,1434,687,0,0
217,337,0,0,0,0,0,0,0,0,0,-1,1441,687,0,0
224,337,0,0,0,0,0,0,0,0,0,-1,1448,687,0,0
231,337,0,0,0,0,0,0,0,0,0,-1,1455,687,0,0
238,337,0,0,0,0,0,0,0,0,0,-1,1462,687,0,0
245,337,0,0,0,0,0,0,0,0,0,-1,1469,687,0,0
252,337,0,0,0,0,0,0,0,0,0,-1,1476,687,0,0
259,337,0,0,0,0,0,0,0,0,0,-1,1483,687,0,0
266,337,0,0,0,0,0,0,0,0,0,-1,1490,687,0,0
273,337,0,0,0,0,0,0,0,0,0,-1,1497,687,0,0
280,337,0,0,0,0,0,0,0,0,0,-1,1504,687,0,0
287,337,0,0,0,0,0,0,0,0,0,-1,1511,687,0,0
294,337,0,0,0,0,0,0,0,0,0,-1,1518,687,0,0
301,337,0,0,0,0,0,0,0,0,0,-1,1525,687,0,0
308,337,0,0,0,0,0,0,0,0,0,-1,1532,687,0,0
315,337,0,0,0,0,0,0,0,0,0,-1,1539,687,0,0
322,337,0,0,0,0,0,0,0,0,0,-1,1546,687,0,0
329,337,0,0,0,0,0,0,0,0,0,-1,1553,687,0,0
336,337,0,0,0,0,0,0,0,0,0,-1,1560,687,0,0
343,337,0,0,0,0,0,0,0,0,0,-1,1567,687,0,0
350,337,0,0,0,0,0,0,0,0,0,-1,1574,687,0,0
357,337,0,0,0,0,0,0,0,0,0,-1,1581,687,0,0
364,337,0,0,0,0,0,0,0,0,0,-1,1588,687,0,0
371,337,0,0,0,0,0,0,0,0,0,-1,1595,687,0,0
378,337,0,0,0,0,0,0,0,0,0,-1,1602,687,0,0
385,337,0,0,0,0,0,0,0,0,0,-1,1609,687,0,0
392,337,0,0,0,0,0,0,0,0,0,-1,1616,687,0,0
399,337,0,0,0,0,0,0,0,0,0,-1,1623,687,0,0
406,337,0,0,0,0,0,0,0,0,0,-1,1630,687,0,0
413,337,0,0,0,0,0,0,0,0,0,-1,1637,687,0,0
420,337,0,0,0,0,0,0,0,0,0,-1,1644,687,0,0
427,337,0,0,0,0,0,0,0,0,0,-1,1651,687,0,0
434,337,0,0,0,0,0,0,0,0,0,-1,1658,687,0,0
441,337,0,0,0,0,0,0,0,0,0,-1,1665,687,0,0
448,337,0,0,0,0,0,0,0,0,0,-1,1672,687,0,0
455,337,0,0,0,0,0,0,0,0,0,-1,1679,687,0,0
462,337,0,0,0,0,0,0,0,0,0,-1,1686,687,0,0
469,337,0,0,0,0,0,0,0,0,0,-1,1693,687,0,0
476,337,0,0,0,0,0,0,0,0,0,-1,1700,687,0,0
483,337,0,0,0,0,0,0,0,0,0,-1,1707,687,0,0
490,337,0,0,0,0,0,0,0,0,0,-1,1714,687,0,0
497,337,0,0,0,0,0,0,0,0,0,-1,1721,687,0,0
504,337,0,0,0,0,0,0,0,0,0,-1,1728,687,0,0
511,337,0,0,0,0,0,0,0,0,0,-1,1735,687,0,0
518,337,18.0369,1.64581,0,0,0,0,0,0,0,-1,1742,687,18.0368,-1.64581
525,337,31.0717,2.13745,0,0,0,0,0,0,0,-1,1749,687,31.0717,-2.13747
532,337,31.5126,2.13904,0,0,0,0,0,0,0,-1,1756,687,31.5125,-2.13905
539,337,31.9684,2.15594,0,0,0,0,0,0,0,-1,1763,687,31.9684,-2.15596
546,337,32.3584,1.43719,0,0,0,0,0,0,0,-1,1770,687,32.3585,-1.43722
553,337,32.1809,1.36395,0,0,0,0,0,0,0,-1,1777,687,32.181,-1.36396
560,337,18.4053,3.62793,0,0,0,0,0,0,0,-1,1784,687,18.4052,-3.6279
567,337,11.9288,1.38776,0,0,0,0,0,0,0,-1,1791,687,11.9288,-1.38777
574,337,10.704,1.19476,0,0,0,0,0,0,0,-1,1798,687,10.704,-1.19478
581,337,8.50427,0.561768,0,0,0,0,0,0,0,-1,1805,687,8.5043,-0.561754
588,337,8.5885,-0.0536499,0,0,0,0,0,0,0,-1,1812,687,8.58844,0.0536788
595,337,43.8176,-15.3542,0,0,0,0,0,0,0,-1,1819,687,43.8176,15.3542
602,337,43.9574,-14.1188,0.000426623,-0.000554615,0.000601675,0.000712354,-0.000840346,0.443361,0.000897466,0.0444715,1826,687,43.9573,14.1188
609,337,43.8743,-13.1113,0.000830876,-0.000496414,0.00057081,0.00104259,-0.000708125,0.355168,0.0010169,0.023279,1833,687,43.8743,13.1113
616,337,43.7983,-12.0988,0.00107087,-0.000333625,0.000623762,0.00130789,-0.000570649,0.36314,0.00111207,0.0180787,1840,687,43.7984,12.0988
623,337,43.702,-11.1141,0.00126814,-3.19467e-05,0.000618258,0.00151521,-0.000279008,0.38017,0.00111484,0.0166394,1847,687,43.7021,11.1141
630,337,43.6187,-10.0966,0.00154163,0.000342535,0.000664705,0.00183723,4.69344e-05,0.418445,0.00120948,0.0214316,1854,687,43.6187,10.0965
637,337,43.5881,-9.08118,0.00182265,0.000760156,0.000702051,0.0021718,0.000411006,0.461509,0.00133217,0.01863,1861,687,43.5882,9.08117
644,337,43.5426,-8.04163,0.00211326,0.00121429,0.000727326,0.00251878,0.000808765,0.508626,0.00148492,0.0124231,1868,687,43.5426,8.04165
651,337,43.4436,-7.02118,0.00245015,0.00174928,0.000747226,0.00292503,0.0012744,0.566137,0.00169342,0.0114141,1875,687,43.4437,7.02118
658,337,43.3911,-6.02045,0.00280835,0.00235646,0.00076838,0.00338332,0.0017815,0.642403,0.00195428,0.0136539,1882,687,43.3911,6.02043
665,337,43.3649,-5.01648,0.00339589,0.00296794,0.000787172,0.00399765,0.00236618,0.65269,0.002321,0.0178515,1889,687,43.3649,5.01649
672,337,43.3412,-4.0788,0.00414422,0.00369466,0.000652407,0.00460948,0.0032294,0.619497,0.00273175,0.045025,1896,687,43.3412,4.07879
679,337,43.8593,-3.14471,0,0,0,0,0,0,0,-1,1903,687,43.8592,3.14473
686,337,18.5614,1.68597,0,0,0,0,0,0,0,-1,1910,687,18.5614,-1.68598
693,337,16.5415,2.21411,0,0,0,0,0,0,0,-1,1917,687,16.5415,-2.2141
700,337,17.2661,2.44379,0,0,0,0,0,0,0,-1,1924,687,17.2661,-2.44378
707,337,17.3544,5.61853,0,0,0,0,0,0,0,-1,1931,687,17.3543,-5.61851
714,337,0,0,0,0,0,0,0,0,0,-1,1938,687,0,0
721,337,0,0,0,0,0,0,0,0,0,-1,1945,687,0,0
728,337,0,0,0,0,0,0,0,0,0,-1,1952,687,0,0
735,337,0,0,0,0,0,0,0,0,0,-1,1959,687,0,0
742,337,0,0,0,0,0,0,0,0,0,-1,1966,687,0,0
749,337,0,0,0,0,0,0,0,0,0,-1,1973,687,0,0
756,337,0,0,0,0,0,0,0,0,0,-1,1980,687,0,0
763,337,0,0,0,0,0,0,0,0,0,-1,1987,687,0,0
770,337,0,0,0,0,0,0,0,0,0,-1,1994,687,0,0
777,337,0,0,0,0,0,0,0,0,0,-1,2001,687,0,0
784,337,0,0,0,0,0,0,0,0,0,-1,2008,687,0,0
791,337,0,0,0,0,0,0,0,0,0,-1,2015,687,0,0
798,337,0,0,0,0,0,0,0,0,0,-1,2022,687,0,0
805,337,0,0,0,0,0,0,0,0,0,-1,2029,687,0,0
812,337,0,0,0,0,0,0,0,0,0,-1,2036,687,0,0
-700,330,0,0,0,0,0,0,0,0,0,-1,524,694,0,0
-693,330,0,0,0,0,0,0,0,0,0,-1,531,694,0,0
-686,330,0,0,0,0,0,0,0,0,0,-1,538,694,0,0
-679,330,0,0,0,0,0,0,0,0,0,-1,545,694,0,0
-672,330,0,0,0,0,0,0,0,0,0,-1,552,694,0,0
-665,330,0,0,0,0,0,0,0,0,0,-1,559,694,0,0
-658,330,0,0,0,0,0,0,0,0,0,-1,566,694,0,0
-651,330,0,0,0,0,0,0,0,0,0,-1,573,694,0,0
-644,330,0,0,0,0,0,0,0,0,0,-1,580,694,0,0
-637,330,0,0,0,0,0,0,0,0,0,-1,587,694,0,0
-630,330,0,0,0,0,0,0,0,0,0,-1,594,694,0,0
-623,330,0,0,0,0,0,0,0,0,0,-1,601,694,0,0
-616,330,0,0,0,0,0,0,0,0,0,-1,608,694,0,0
-609,330,0,0,0,0,0,0,0,0,0,-1,615,694,0,0
-602,330,0,0,0,0,0,0,0,0,0,-1,622,694,0,0
-595,330,-4.67883,1.65515,0,0,0,0,0,0,0,-1,629,694,-4.67881,-1.65515
-588,330,-8.5047,2.67346,0,0,0,0,0,0,0,-1,636,694,-8.50469,-2.67348
-581,330,-12.4227,0.947083,0,0,0,0,0,0,0,-1,643,694,-12.4227,-0.947109
-574,330,-9.02118,1.87952,0,0,0,0,0,0,0,-1,650,694,-9.02115,-1.87953
-567,330,-8.35577,0.909973,0,0,0,0,0,0,0,-1,657,694,-8.35575,-0.909945
-560,330,-13.1036,-0.584656,0,0,0,0,0,0,0,-1,664,694,-13.1035,0.584658
-553,330,-17.5484,-1.21545,0,0,0,0,0,0,0,-1,671,694,-17.5484,1.21547
-546,330,-27.3008,-3.5592,0,0,0,0,0,0,0,-1,678,694,-27.3008,3.55918
-539,330,-27.6824,-4.76575,0,0,0,0,0,0,0,-1,685,694,-27.6824,4.76573
-532,330,-27.6375,-5.88232,0.00426397,0.00349851,-0.0033797,0.00728255,0.000479939,-0.729016,0.00470322,0.0304675,692,694,-27.6375,5.88232
-525,330,-27.6304,-6.99005,0.00356013,0.00221211,-0.00238247,0.0053621,0.000410138,-0.647549,0.00344616,0.0109756,699,694,-27.6304,6.99006
-518,330,-27.6974,-7.98431,0.0028863,0.00117114,-0.00149459,0.00375187,0.000305563,-0.524937,0.00240587,0.0150416,706,694,-27.6974,7.98428
-511,330,-27.7526,-8.98279,0.0022607,0.000366033,-0.00077497,0.0025373,8.94296e-05,-0.342827,0.00166252,0.0207777,713,694,-27.7525,8.98278
-504,330,-27.8062,-10.0311,0.00164114,-0.00026099,-0.000158493,0.00165425,-0.000274105,-0.0825651,0.00120464,0.0194811,720,694,-27.8062,10.0311
-497,330,-27.905,-11.032,0.00114125,-0.000700724,0.000309319,0.00119181,-0.00075128,0.162009,0.00113141,0.0143378,727,694,-27.905,11.032
-490,330,-27.95,-12.0424,0.000818565,-0.000924647,0.000561621,0.000983836,-0.00108992,0.286197,0.0011978,0.0152518,734,694,-27.95,12.0424
-483,330,-27.9882,-13.074,0.000602999,-0.000894991,0.000633394,0.000834912,-0.0011269,0.350984,0.00113683,0.015765,741,694,-27.9882,13.0741
-476,330,-28.0339,-14.1656,0,0,0,0,0,0,0,-1,748,694,-28.0339,14.1656
-469,330,-16.1478,-9.23303,0,0,0,0,0,0,0,-1,755,694,-16.1478,9.23301
-462,330,-7.26733,-3.84833,0,0,0,0,0,0,0,-1,762,694,-7.26731,3.84832
-455,330,-5.04254,-1.79303,0,0,0,0,0,0,0,-1,769,694,-5.04252,1.79305
-448,330,-4.89886,-1.66156,0,0,0,0,0,0,0,-1,776,694,-4.89886,1.66157
-441,330,-5.30676,-2.34045,0,0,0,0,0,0,0,-1,783,694,-5.30679,2.34048
-434,330,-7.20428,1.00024,0,0,0,0,0,0,0,-1,790,694,-7.20431,-1.00027
-427,330,-16.0428,2.89258,0,0,0,0,0,0,0,-1,797,694,-16.0428,-2.89259
-420,330,-29.0331,0.271606,0,0,0,0,0,0,0,-1,804,694,-29.0331,-0.27158
-413,330,-29.0896,0.56366,0,0,0,0,0,0,0,-1,811,694,-29.0896,-0.563671
-406,330,-1.65375,-1.74371,0,0,0,0,0,0,0,-1,818,694,-1.65375,1.74371
-399,330,0,0,0,0,0,0,0,0,0,-1,825,694,0,0
-392,330,0,0,0,0,0,0,0,0,0,-1,832,694,0,0
-385,330,0,0,0,0,0,0,0,0,0,-1,839,694,0,0
-378,330,0,0,0,0,0,0,0,0,0,-1,846,694,0,0
-371,330,0,0,0,0,0,0,0,0,0,-1,853,694,0,0
-364,330,0,0,0,0,0,0,0,0,0,-1,860,694,0,0
-357,330,0,0,0,0,0,0,0,0,0,-1,867,694,0,0
-350,330,0,0,0,0,0,0,0,0,0,-1,874,694,0,0
-343,330,0,0,0,0,0,0,0,0,0,-1,881,694,0,0
-336,330,0,0,0,0,0,0,0,0,0,-1,888,694,0,0
-329,330,0,0,0,0,0,0,0,0,0,-1,895,694,0,0
-322,330,0,0,0,0,0,0,0,0,0,-1,902,694,0,0
-315,330,0,0,0,0,0,0,0,0,0,-1,909,694,0,0
-308,330,0,0,0,0,0,0,0,0,0,-1,916,694,0,0
-301,330,0,0,0,0,0,0,0,0,0,-1,923,694,0,0
-294,330,0,0,0,0,0,0,0,0,0,-1,930,694,0,0
-287,330,0,0,0,0,0,0,0,0,0,-1,937,694,0,0
-280,330,0,0,0,0,0,0,0,0,0,-1,944,694,0,0
-273,330,0,0,0,0,0,0,0,0,0,-1,951,694,0,0
-266,330,0,0,0,0,0,0,0,0,0,-1,958,694,0,0
-259,330,0,0,0,0,0,0,0,0,0,-1,965,694,0,0
-252,330,0,0,0,0,0,0,0,0,0,-1,972,694,0,0
-245,330,0,0,0,0,0,0,0,0,0,-1,979,694,0,0
-238,330,0,0,0,0,0,0,0,0,0,-1,986,694,0,0
-231,330,0,0,0,0,0,0,0,0,0,-1,993,694,0,0
-224,330,0,0,0,0,0,0,0,0,0,-1,1000,694,0,0
-217,330,0,0,0,0,0,0,0,0,0,-1,1007,694,0,0
-210,330,0,0,0,0,0,0,0,0,0,-1,1014,694,0,0
-203,330,0,0,0,0,0,0,0,0,0,-1,1021,694,0,0
-196,330,0,0,0,0,0,0,0,0,0,-1,1028,694,0,0
-189,330,0,0,0,0,0,0,0,0,0,-1,1035,694,0,0
-182,330,0,0,0,0,0,0,0,0,0,-1,1042,694,0,0
-175,330,0,0,0,0,0,0,0,0,0,-1,1049,694,0,0
-168,330,0,0,0,0,0,0,0,0,0,-1,1056,694,0,0
-161,330,0,0,0,0,0,0,0,0,0,-1,1063,694,0,0
-154,330,0,0,0,0,0,0,0,0,0,-1,1070,694,0,0
-147,330,0,0,0,0,0,0,0,0,0,-1,1077,694,0,0
-140,330,0,0,0,0,0,0,0,0,0,-1,1084,694,0,0
-133,330,0,0,0,0,0,0,0,0,0,-1,1091,694,0,0
-126,330,0,0,0,0,0,0,0,0,0,-1,1098,694,0,0
-119,330,0,0,0,0,0,0,0,0,0,-1,1105,694,0,0
-112,330,0,0,0,0,0,0,0,0,0,-1,1112,694,0,0
-105,330,0,0,0,0,0,0,0,0,0,-1,1119,694,0,0
-98,330,0,0,0,0,0,0,0,0,0,-1,1126,694,0,0
-91,330,0,0,0,0,0,0,0,0,0,-1,1133,694,0,0
-84,330,0,0,0,0,0,0,0,0,0,-1,1140,694,0,0
-77,330,0,0,0,0,0,0,0,0,0,-1,1147,694,0,0
-70,330,0,0,0,0,0,0,0,0,0,-1,1154,694,0,0
-63,330,0,0,0,0,0,0,0,0,0,-1,1161,694,0,0
-56,330,0,0,0,0,0,0,0,0,0,-1,1168,694,0,0
-49,330,0,0,0,0,0,0,0,0,0,-1,1175,694,0,0
-42,330,0,0,0,0,0,0,0,0,0,-1,1182,694,0,0
-35,330,0,0,0,0,0,0,0,0,0,-1,1189,694,0,0
-28,330,0,0,0,0,0,0,0,0,0,-1,1196,694,0,0
-21,330,0,0,0,0,0,0,0,0,0,-1,1203,694,0,0
-14,330,0,0,0,0,0,0,0,0,0,-1,1210,694,0,0
-7,330,0,0,0,0,0,0,0,0,0,-1,1217,694,0,0
0,330,0,0,0,0,0,0,0,0,0,-1,1224,694,0,0
7,330,0,0,0,0,0,0,0,0,0,-1,1231,694,0,0
14,330,0,0,0,0,0,0,0,0,0,-1,1238,694,0,0
21,330,0,0,0,0,0,0,0,0,0,-1,1245,694,0,0
28,330,0,0,0,0,0,0,0,0,0,-1,1252,694,0,0
35,330,0,0,0,0,0,0,0,0,0,-1,1259,694,0,0
42,330,0,0,0,0,0,0,0,0,0,-1,1266,694,0,0
49,330,0,0,0,0,0,0,0,0,0,-1,1273,694,0,0
56,330,0,0,0,0,0,0,0,0,0,-1,1280,694,0,0
63,330,0,0,0,0,0,0,0,0,0,-1,1287,694,0,0
70,330,0,0,0,0,0,0,0,0,0,-1,1294,694,0,0
77,330,0,0,0,0,0,0,0,0,0,-1,1301,694,0,0
84,330,0,0,0,0,0,0,0,0,0,-1,1308,694,0,0
91,330,0,0,0,0,0,0,0,0,0,-1,1315,694,0,0
98,330,0,0,0,0,0,0,0,0,0,-1,1322,694,0,0
105,330,0,0,0,0,0,0,0,0,0,-1,1329,694,0,0
112,330,0,0,0,0,0,0,0,0,0,-1,1336,694,0,0
119,330,0,0,0,0,0,0,0,0,0,-1,1343,694,0,0
126,330,0,0,0,0,0,0,0,0,0,-1,1350,694,0,0
133,330,0,0,0,0,0,0,0,0,0,-1,1357,694,0,0
140,330,0,0,0,0,0,0,0,0,0,-1,1364,694,0,0
147,330,0,0,0,0,0,0,0,0,0,-1,1371,694,0,0
154,330,0,0,0,0,0,0,0,0,0,-1,1378,694,0,0
161,330,0,0,0,0,0,0,0,0,0,-1,1385,694,0,0
168,330,0,0,0,0,0,0,0,0,0,-1,1392,694,0,0
175,330,0,0,0,0,0,0,0,0,0,-1,1399,694,0,0
182,330,0,0,0,0,0,0,0,0,0,-1,1406,694,0,0
189,330,0,0,0,0,0,0,0,0,0,-1,1413,694,0,0
196,330,0,0,0,0,0,0,0,0,0,-1,1420,694,0,0
203,330,0,0,0,0,0,0,0,0,0,-1,1427,694,0,0
210,330,0,0,0,0,0,0,0,0,0,-1,1434,694,0,0
217,330,0,0,0,0,0,0,0,0,0,-1,1441,694,0,0
224,330,0,0,0,0,0,0,0,0,0,-1,1448,694,0,0
231,330,0,0,0,0,0,0,0,0,0,-1,1455,694,0,0
238,330,0,0,0,0,0,0,0,0,0,-1,1462,694,0,0
245,330,0,0,0,0,0,0,0,0,0,-1,1469,694,0,0
252,330,0,0,0,0,0,0,0,0,0,-1,1476,694,0,0
259,330,0,0,0,0,0,0,0,0,0,-1,1483,694,0,0
266,330,0,0,0,0,0,0,0,0,0,-1,1490,694,0,0
273,330,0,0,0,0,0,0,0,0,0,-1,1497,694,0,0
280,330,0,0,0,0,0,0,0,0,0,-1,1504,694,0,0
287,330,0,0,0,0,0,0,0,0,0,-1,1511,694,0,0
294,330,0,0,0,0,0,0,0,0,0,-1,1518,694,0,0
301,330,0,0,0,0,0,0,0,0,0,-1,1525,694,0,0
308,330,0,0,0,0,0,0,0,0,0,-1,1532,694,0,0
315,330,0,0,0,0,0,0,0,0,0,-1,1539,694,0,0
322,330,0,0,0,0,0,0,0,0,0,-1,1546,694,0,0
329,330,0,0,0,0,0,0,0,0,0,-1,1553,694,0,0
336,330,0,0,0,0,0,0,0,0,0,-1,1560,694,0,0
343,330,0,0,0,0,0,0,0,0,0,-1,1567,694,0,0
350,330,0,0,0,0,0,0,0,0,0,-1,1574,694,0,0
357,330,0,0,0,0,0,0,0,0,0,-1,1581,694,0,0
364,330,0,0,0,0,0,0,0,0,0,-1,1588,694,0,0
371,330,0,0,0,0,0,0,0,0,0,-1,1595,694,0,0
378,330,0,0,0,0,0,0,0,0,0,-1,1602,694,0,0
385,330,0,0,0,0,0,0,0,0,0,-1,1609,694,0,0
392,330,0,0,0,0,0,0,0,0,0,-1,1616,694,0,0
399,330,0,0,0,0,0,0,0,0,0,-1,1623,694,0,0
406,330,0,0,0,0,0,0,0,0,0,-1,1630,694,0,0
413,330,0,0,0,0,0,0,0,0,0,-1,1637,694,0,0
420,330,0,0,0,0,0,0,0,0,0,-1,1644,694,0,0
427,330,0,0,0,0,0,0,0,0,0,-1,1651,694,0,0
434,330,0,0,0,0,0,0,0,0,0,-1,1658,694,0,0
441,330,0,0,0,0,0,0,0,0,0,-1,1665,694,0,0
448,330,0,0,0,0,0,0,0,0,0,-1,1672,694,0,0
455,330,0,0,0,0,0,0,0,0,0,-1,1679,694,0,0
462,330,0,0,0,0,0,0,0,0,0,-1,1686,694,0,0
469,330,0,0,0,0,0,0,0,0,0,-1,1693,694,0,0
476,330,0,0,0,0,0,0,0,0,0,-1,1700,694,0,0
483,330,0,0,0,0,0,0,0,0,0,-1,1707,694,0,0
490,330,0,0,0,0,0,0,0,0,0,-1,1714,694,0,0
497,330,0,0,0,0,0,0,0,0,0,-1,1721,694,0,0
504,330,0,0,0,0,0,0,0,0,0,-1,1728,694,0,0
511,330,0,0,0,0,0,0,0,0,0,-1,1735,694,0,0
518,330,0,0,0,0,0,0,0,0,0,-1,1742,694,0,0
525,330,30.6694,0.69519,0,0,0,0,0,0,0,-1,1749,694,30.6694,-0.695206
532,330,30.9469,1.32501,0,0,0,0,0,0,0,-1,1756,694,30.9469,-1.32501
539,330,31.5155,1.62506,0,0,0,0,0,0,0,-1,1763,694,31.5155,-1.62507
546,330,31.4187,1.85651,0,0,0,0,0,0,0,-1,1770,694,31.4187,-1.85651
553,330,31.8452,1.81476,0,0,0,0,0,0,0,-1,1777,694,31.8452,-1.81475
560,330,32.2401,2.43225,0,0,0,0,0,0,0,-1,1784,694,32.2401,-2.43227
567,330,18.0321,3.98578,0,0,0,0,0,0,0,-1,1791,694,18.0321,-3.98576
574,330,12.0454,2.1662,0,0,0,0,0,0,0,-1,1798,694,12.0455,-2.16618
581,330,11.4215,4.50836,0,0,0,0,0,0,0,-1,1805,694,11.4215,-4.50837
588,330,6.45667,-0.0630493,0,0,0,0,0,0,0,-1,1812,694,6.45661,0.0630695
595,330,8.23193,-0.258484,0,0,0,0,0,0,0,-1,1819,694,8.23188,0.258459
602,330,44.7456,-14.3136,0,0,0,0,0,0,0,-1,1826,694,44.7456,14.3136
609,330,44.819,-13.0804,0.00125961,-0.000868549,0.000692535,0.00146512,-0.00107406,0.288479,0.00147178,0.0273715,1833,694,44.8189,13.0804
616,330,44.8112,-12.0664,0.00133865,-0.000758737,0.00069887,0.00155019,-0.000970272,0.293915,0.00146797,0.0122729,1840,694,44.8111,12.0664
623,330,44.7162,-11.0541,0.00133456,-0.000436934,0.000630352,0.00153596,-0.000638335,0.309255,0.00129049,0.0145894,1847,694,44.7162,11.0541
630,330,44.6543,-10.0162,0.00147629,-8.32916e-05,0.000623811,0.0016951,-0.000302107,0.337362,0.00124307,0.0149668,1854,694,44.6543,10.0161
637,330,44.613,-9.00043,0.00165893,0.000336282,0.000638501,0.00191687,7.83494e-05,0.38392,0.00125261,0.0129723,1861,694,44.6131,9.00045
644,330,44.5402,-7.9834,0.0018779,0.00080668,0.000673094,0.00220248,0.000482095,0.449329,0.00133692,0.00837763,1868,694,44.5402,7.98343
651,330,44.4698,-6.95569,0.00215163,0.00135559,0.000717246,0.00257389,0.000933329,0.53209,0.00150462,0.0125164,1875,694,44.4698,6.95566
658,330,44.3889,-5.96332,0.00250521,0.00198942,0.000802766,0.00309049,0.00140414,0.629978,0.00178677,0.0138545,1882,694,44.3889,5.96334
665,330,44.3164,-4.96948,0.00305536,0.00266922,0.000936561,0.00381854,0.00190604,0.683749,0.00220464,0.0126593,1889,694,44.3164,4.9695
672,330,44.3922,-3.9184,0.00376311,0.00348119,0.00103351,0.00466522,0.00257907,0.717622,0.00269847,0.0414126,1896,694,44.3922,3.91842
679,330,44.5819,-2.79065,0,0,0,0,0,0,0,-1,1903,694,44.5819,2.79067
686,330,30.6691,0.582825,0,0,0,0,0,0,0,-1,1910,694,30.6691,-0.582798
693,330,17.3999,2.5976,0,0,0,0,0,0,0,-1,1917,694,17.4,-2.59759
700,330,17.1072,4.13,0,0,0,0,0,0,0,-1,1924,694,17.1071,-4.13002
707,330,16.663,4.88672,0,0,0,0,0,0,0,-1,1931,694,16.6629,-4.88673
714,330,16.5454,5.80896,0,0,0,0,0,0,0,-1,1938,694,16.5454,-5.80899
721,330,0,0,0,0,0,0,0,0,0,-1,1945,694,0,0
728,330,0,0,0,0,0,0,0,0,0,-1,1952,694,0,0
735,330,0,0,0,0,0,0,0,0,0,-1,1959,694,0,0
742,330,0,0,0,0,0,0,0,0,0,-1,1966,694,0,0
749,330,0,0,0,0,0,0,0,0,0,-1,1973,694,0,0
756,330,0,0,0,0,0,0,0,0,0,-1,1980,694,0,0
763,330,0,0,0,0,0,0,0,0,0,-1,1987,694,0,0
770,330,0,0,0,0,0,0,0,0,0,-1,1994,694,0,0
777,330,0,0,0,0,0,0,0,0,0,-1,2001,694,0,0
784,330,0,0,0,0,0,0,0,0,0,-1,2008,694,0,0
791,330,0,0,0,0,0,0,0,0,0,-1,2015,694,0,0
798,330,0,0,0,0,0,0,0,0,0,-1,2022,694,0,0
805,330,0,0,0,0,0,0,0,0,0,-1,2029,694,0,0
812,330,0,0,0,0,0,0,0,0,0,-1,2036,694,0,0
-700,323,0,0,0,0,0,0,0,0,0,-1,524,701,0,0
-693,323,0,0,0,0,0,0,0,0,0,-1,531,701,0,0
-686,323,0,0,0,0,0,0,0,0,0,-1,538,701,0,0
-679,323,0,0,0,0,0,0,0,0,0,-1,545,701,0,0
-672,323,0,0,0,0,0,0,0,0,0,-1,552,701,0,0
-665,323,0,0,0,0,0,0,0,0,0,-1,559,701,0,0
-658,323,0,0,0,0,0,0,0,0,0,-1,566,701,0,0
-651,323,0,0,0,0,0,0,0,0,0,-1,573,701,0,0
-644,323,0,0,0,0,0,0,0,0,0,-1,580,701,0,0
-637,323,0,0,0,0,0,0,0,0,0,-1,587,701,0,0
-630,323,0,0,0,0,0,0,0,0,0,-1,594,701,0,0
-623,323,0,0,0,0,0,0,0,0,0,-1,601,701,0,0
-616,323,0,0,0,0,0,0,0,0,0,-1,608,701,0,0
-609,323,0,0,0,0,0,0,0,0,0,-1,615,701,0,0
-602,323,-4.15833,2.12256,0,0,0,0,0,0,0,-1,622,701,-4.1583,-2.12257
-595,323,-4.052,1.79156,0,0,0,0,0,0,0,-1,629,701,-4.05198,-1.79158
-588,323,-4.07019,1.94543,0,0,0,0,0,0,0,-1,636,701,-4.07019,-1.94542
-581,323,-6.63727,0.562805,0,0,0,0,0,0,0,-1,643,701,-6.63728,-0.56279
-574,323,-6.15887,0.426697,0,0,0,0,0,0,0,-1,650,701,-6.15887,-0.426727
-567,323,-10.0015,0.0371094,0,0,0,0,0,0,0,-1,657,701,-10.0015,-0.037126
-560,323,-16.3503,-1.16956,0,0,0,0,0,0,0,-1,664,701,-16.3503,1.16957
-553,323,-28.587,-3.01404,0,0,0,0,0,0,0,-1,671,701,-28.587,3.01403
-546,323,-28.4931,-3.85535,0,0,0,0,0,0,0,-1,678,701,-28.4931,3.85533
-539,323,-28.4653,-4.75262,0.00377898,0.00396555,-0.00340066,0.00727421,0.000470322,-0.799111,0.00470055,0.0333754,685,701,-28.4653,4.75265
-532,323,-28.5776,-5.84076,0.00338543,0.00273571,-0.00256263,0.00564371,0.000477431,-0.722351,0.00361386,0.0130772,692,701,-28.5777,5.84077
-525,323,-28.6465,-6.89636,0.00287451,0.00168198,-0.00175588,0.00413261,0.000423883,-0.621717,0.00262521,0.00812793,699,701,-28.6465,6.89637
-518,323,-28.7093,-7.8894,0.00235225,0.000790699,-0.00101139,0.00284917,0.000293773,-0.456687,0.00180949,0.0102468,706,701,-28.7093,7.88937
-511,323,-28.7935,-8.89978,0.00175977,6.91851e-05,-0.000376646,0.00183989,-1.09313e-05,-0.209586,0.00123025,0.0144569,713,701,-28.7935,8.89976
-504,323,-28.8754,-9.91125,0.00111948,-0.000516234,0.000207887,0.00114549,-0.000542242,0.124457,0.000994942,0.0153002,720,701,-28.8754,9.91126
-497,323,-28.9304,-10.9071,0.0005971,-0.000937032,0.000658044,0.000840683,-0.00118062,0.354523,0.00117249,0.0123514,727,701,-28.9304,10.9071
-490,323,-28.9958,-11.941,0.000278873,-0.00117735,0.000909816,0.000716056,-0.00161453,0.447941,0.00137849,0.0145046,734,701,-28.9958,11.941
-483,323,-29.0319,-12.9891,4.81119e-05,-0.00111392,0.00100557,0.000628458,-0.00169426,0.523432,0.00138728,0.0354239,741,701,-29.0319,12.9891
-476,323,-29.0541,-13.9993,0,0,0,0,0,0,0,-1,748,701,-29.0542,13.9993
-469,323,-8.33301,-3.64001,0,0,0,0,0,0,0,-1,755,701,-8.33298,3.64
-462,323,-5.29431,-1.45697,0,0,0,0,0,0,0,-1,762,701,-5.29431,1.45699
-455,323,-5.0658,-1.36639,0,0,0,0,0,0,0,-1,769,701,-5.06578,1.3664
-448,323,-4.91608,-1.59601,0,0,0,0,0,0,0,-1,776,701,-4.91606,1.59604
-441,323,-14.4006,0.535217,0,0,0,0,0,0,0,-1,783,701,-14.4006,-0.535203
-434,323,-15.3158,2.479,0,0,0,0,0,0,0,-1,790,701,-15.3158,-2.47898
-427,323,-28.3923,1.16797,0,0,0,0,0,0,0,-1,797,701,-28.3923,-1.16796
-420,323,-28.7292,1.09302,0,0,0,0,0,0,0,-1,804,701,-28.7292,-1.09304
-413,323,-28.7955,1.22418,0,0,0,0,0,0,0,-1,811,701,-28.7956,-1.22419
-406,323,0,0,0,0,0,0,0,0,0,-1,818,701,0,0
-399,323,0,0,0,0,0,0,0,0,0,-1,825,701,0,0
-392,323,0,0,0,0,0,0,0,0,0,-1,832,701,0,0
-385,323,0,0,0,0,0,0,0,0,0,-1,839,701,0,0
-378,323,0,0,0,0,0,0,0,0,0,-1,846,701,0,0
-371,323,0,0,0,0,0,0,0,0,0,-1,853,701,0,0
-364,323,0,0,0,0,0,0,0,0,0,-1,860,701,0,0
-357,323,0,0,0,0,0,0,0,0,0,-1,867,701,0,0
-350,323,0,0,0,0,0,0,0,0,0,-1,874,701,0,0
-343,323,0,0,0,0,0,0,0,0,0,-1,881,701,0,0
-336,323,0,0,0,0,0,0,0,0,0,-1,888,701,0,0
-329,323,0,0,0,0,0,0,0,0,0,-1,895,701,0,0
-322,323,0,0,0,0,0,0,0,0,0,-1,902,701,0,0
-315,323,0,0,0,0,0,0,0,0,0,-1,909,701,0,0
-308,323,0,0,0,0,0,0,0,0,0,-1,916,701,0,0
-301,323,0,0,0,0,0,0,0,0,0,-1,923,701,0,0
-294,323,0,0,0,0,0,0,0,0,0,-1,930,701,0,0
-287,323,0,0,0,0,0,0,0,0,0,-1,937,701,0,0
-280,323,0,0,0,0,0,0,0,0,0,-1,944,701,0,0
-273,323,0,0,0,0,0,0,0,0,0,-1,951,701,0,0
-266,323,0,0,0,0,0,0,0,0,0,-1,958,701,0,0
-259,323,0,0,0,0,0,0,0,0,0,-1,965,701,0,0
-252,323,0,0,0,0,0,0,0,0,0,-1,972,701,0,0
-245,323,0,0,0,0,0,0,0,0,0,-1,979,701,0,0
-238,323,0,0,0,0,0,0,0,0,0,-1,986,701,0,0
-231,323,0,0,0,0,0,0,0,0,0,-1,993,701,0,0
-224,323,0,0,0,0,0,0,0,0,0,-1,1000,701,0,0
-217,323,0,0,0,0,0,0,0,0,0,-1,1007,701,0,0
-210,323,0,0,0,0,0,0,0,0,0,-1,1014,701,0,0
-203,323,0,0,0,0,0,0,0,0,0,-1,1021,701,0,0
-196,323,0,0,0,0,0,0,0,0,0,-1,1028,701,0,0
-189,323,0,0,0,0,0,0,0,0,0,-1,1035,701,0,0
-182,323,0,0,0,0,0,0,0,0,0,-1,1042,701,0,0
-175,323,0,0,0,0,0,0,0,0,0,-1,1049,701,0,0
-168,323,0,0,0,0,0,0,0,0,0,-1,1056,701,0,0
-161,323,0,0,0,0,0,0,0,0,0,-1,1063,701,0,0
-154,323,0,0,0,0,0,0,0,0,0,-1,1070,701,0,0
-147,323,0,0,0,0,0,0,0,0,0,-1,1077,701,0,0
-140,323,0,0,0,0,0,0,0,0,0,-1,1084,701,0,0
-133,323,0,0,0,0,0,0,0,0,0,-1,1091,701,0,0
-126,323,0,0,0,0,0,0,0,0,0,-1,1098,701,0,0
-119,323,0,0,0,0,0,0,0,0,0,-1,1105,701,0,0
-112,323,0,0,0,0,0,0,0,0,0,-1,1112,701,0,0
-105,323,0,0,0,0,0,0,0,0,0,-1,1119,701,0,0
-98,323,0,0,0,0,0,0,0,0,0,-1,1126,701,0,0
-91,323,0,0,0,0,0,0,0,0,0,-1,1133,701,0,0
-84,323,0,0,0,0,0,0,0,0,0,-1,1140,701,0,0
-77,323,0,0,0,0,0,0,0,0,0,-1,1147,701,0,0
-70,323,0,0,0,0,0,0,0,0,0,-1,1154,701,0,0
-63,323,0,0,0,0,0,0,0,0,0,-1,1161,701,0,0
-56,323,0,0,0,0,0,0,0,0,0,-1,1168,701,0,0
-49,323,0,0,0,0,0,0,0,0,0,-1,1175,701,0,0
-42,323,0,0,0,0,0,0,0,0,0,-1,1182,701,0,0
-35,323,0,0,0,0,0,0,0,0,0,-1,1189,701,0,0
-28,323,0,0,0,0,0,0,0,0,0,-1,1196,701,0,0
-21,323,0,0,0,0,0,0,0,0,0,-1,1203,701,0,0
-14,323,0,0,0,0,0,0,0,0,0,-1,1210,701,0,0
-7,323,0,0,0,0,0,0,0,0,0,-1,1217,701,0,0
0,323,0,0,0,0,0,0,0,0,0,-1,1224,701,0,0
7,323,0,0,0,0,0,0,0,0,0,-1,1231,701,0,0
14,323,0,0,0,0,0,0,0,0,0,-1,1238,701,0,0
21,323,0,0,0,0,0,0,0,0,0,-1,1245,701,0,0
28,323,0,0,0,0,0,0,0,0,0,-1,1252,701,0,0
35,323,0,0,0,0,0,0,0,0,0,-1,1259,701,0,0
42,323,0,0,0,0,0,0,0,0,0,-1,1266,701,0,0
49,323,0,0,0,0,0,0,0,0,0,-1,1273,701,0,0
56,323,0,0,0,0,0,0,0,0,0,-1,1280,701,0,0
63,323,0,0,0,0,0,0,0,0,0,-1,1287,701,0,0
70,323,0,0,0,0,0,0,0,0,0,-1,1294,701,0,0
77,323,0,0,0,0,0,0,0,0,0,-1,1301,701,0,0
84,323,0,0,0,0,0,0,0,0,0,-1,1308,701,0,0
91,323,0,0,0,0,0,0,0,0,0,-1,1315,701,0,0
98,323,0,0,0,0,0,0,0,0,0,-1,1322,701,0,0
105,323,0,0,0,0,0,0,0,0,0,-1,1329,701,0,0
112,323,0,0,0,0,0,0,0,0,0,-1,1336,701,0,0
119,323,0,0,0,0,0,0,0,0,0,-1,1343,701,0,0
126,323,0,0,0,0,0,0,0,0,0,-1,1350,701,0,0
133,323,0,0,0,0,0,0,0,0,0,-1,1357,701,0,0
140,323,0,0,0,0,0,0,0,0,0,-1,1364,701,0,0
147,323,0,0,0,0,0,0,0,0,0,-1,1371,701,0,0
154,323,0,0,0,0,0,0,0,0,0,-1,1378,701,0,0
161,323,0,0,0,0,0,0,0,0,0,-1,1385,701,0,0
168,323,0,0,0,0,0,0,0,0,0,-1,1392,701,0,0
175,323,0,0,0,0,0,0,0,0,0,-1,1399,701,0,0
182,323,0,0,0,0,0,0,0,0,0,-1,1406,701,0,0
189,323,0,0,0,0,0,0,0,0,0,-1,1413,701,0,0
196,323,0,0,0,0,0,0,0,0,0,-1,1420,701,0,0
203,323,0,0,0,0,0,0,0,0,0,-1,1427,701,0,0
210,323,0,0,0,0,0,0,0,0,0,-1,1434,701,0,0
217,323,0,0,0,0,0,0,0,0,0,-1,1441,701,0,0
224,323,0,0,0,0,0,0,0,0,0,-1,1448,701,0,0
231,323,0,0,0,0,0,0,0,0,0,-1,1455,701,0,0
238,323,0,0,0,0,0,0,0,0,0,-1,1462,701,0,0
245,323,0,0,0,0,0,0,0,0,0,-1,1469,701,0,0
252,323,0,0,0,0,0,0,0,0,0,-1,1476,701,0,0
259,323,0,0,0,0,0,0,0,0,0,-1,1483,701,0,0
266,323,0,0,0,0,0,0,0,0,0,-1,1490,701,0,0
273,323,0,0,0,0,0,0,0,0,0,-1,1497,701,0,0
280,323,0,0,0,0,0,0,0,0,0,-1,1504,701,0,0
287,323,0,0,0,0,0,0,0,0,0,-1,1511,701,0,0
294,323,0,0,0,0,0,0,0,0,0,-1,1518,701,0,0
301,323,0,0,0,0,0,0,0,0,0,-1,1525,701,0,0
308,323,0,0,0,0,0,0,0,0,0,-1,1532,701,0,0
315,323,0,0,0,0,0,0,0,0,0,-1,1539,701,0,0
322,323,0,0,0,0,0,0,0,0,0,-1,1546,701,0,0
329,323,0,0,0,0,0,0,0,0,0,-1,1553,701,0,0
336,323,0,0,0,0,0,0,0,0,0,-1,1560,701,0,0
343,323,0,0,0,0,0,0,0,0,0,-1,1567,701,0,0
350,323,0,0,0,0,0,0,0,0,0,-1,1574,701,0,0
357,323,0,0,0,0,0,0,0,0,0,-1,1581,701,0,0
364,323,0,0,0,0,0,0,0,0,0,-1,1588,701,0,0
371,323,0,0,0,0,0,0,0,0,0,-1,1595,701,0,0
378,323,0,0,0,0,0,0,0,0,0,-1,1602,701,0,0
385,323,0,0,0,0,0,0,0,0,0,-1,1609,701,0,0
392,323,0,0,0,0,0,0,0,0,0,-1,1616,701,0,0
399,323,0,0,0,0,0,0,0,0,0,-1,1623,701,0,0
406,323,0,0,0,0,0,0,0,0,0,-1,1630,701,0,0
413,323,0,0,0,0,0,0,0,0,0,-1,1637,701,0,0
420,323,0,0,0,0,0,0,0,0,0,-1,1644,701,0,0
427,323,0,0,0,0,0,0,0,0,0,-1,1651,701,0,0
434,323,0,0,0,0,0,0,0,0,0,-1,1658,701,0,0
441,323,0,0,0,0,0,0,0,0,0,-1,1665,701,0,0
448,323,0,0,0,0,0,0,0,0,0,-1,1672,701,0,0
455,323,0,0,0,0,0,0,0,0,0,-1,1679,701,0,0
462,323,0,0,0,0,0,0,0,0,0,-1,1686,701,0,0
469,323,0,0,0,0,0,0,0,0,0,-1,1693,701,0,0
476,323,0,0,0,0,0,0,0,0,0,-1,1700,701,0,0
483,323,0,0,0,0,0,0,0,0,0,-1,1707,701,0,0
490,323,0,0,0,0,0,0,0,0,0,-1,1714,701,0,0
497,323,0,0,0,0,0,0,0,0,0,-1,1721,701,0,0
504,323,0,0,0,0,0,0,0,0,0,-1,1728,701,0,0
511,323,0,0,0,0,0,0,0,0,0,-1,1735,701,0,0
518,323,0,0,0,0,0,0,0,0,0,-1,1742,701,0,0
525,323,0,0,0,0,0,0,0,0,0,-1,1749,701,0,0
532,323,33.6193,1.69446,0,0,0,0,0,0,0,-1,1756,701,33.6193,-1.69444
539,323,32.2698,2.44037,0,0,0,0,0,0,0,-1,1763,701,32.2697,-2.44036
546,323,31.1644,3.9444,0,0,0,0,0,0,0,-1,1770,701,31.1644,-3.94438
553,323,30.2488,5.8775,0,0,0,0,0,0,0,-1,1777,701,30.2487,-5.87752
560,323,40.6711,1.25153,0,0,0,0,0,0,0,-1,1784,701,40.6711,-1.25154
567,323,42.1637,2.01208,0,0,0,0,0,0,0,-1,1791,701,42.1637,-2.01207
574,323,12.514,5.89685,0,0,0,0,0,0,0,-1,1798,701,12.5141,-5.89683
581,323,11.821,5.3476,0,0,0,0,0,0,0,-1,1805,701,11.821,-5.34762
588,323,11.7933,7.00818,0,0,0,0,0,0,0,-1,1812,701,11.7933,-7.00819
595,323,6.67847,0.06604,0,0,0,0,0,0,0,-1,1819,701,6.67841,-0.0660418
602,323,45.5315,-13.968,0,0,0,0,0,0,0,-1,1826,701,45.5315,13.968
609,323,45.7269,-12.9473,0.00184988,-0.000982753,0.000961114,0.00214519,-0.00127807,0.29811,0.00199745,0.0395492,1833,701,45.7269,12.9473
616,323,45.7991,-11.9545,0.00179945,-0.000948192,0.000903284,0.00206981,-0.00121854,0.290814,0.00191962,0.0133424,1840,701,45.7991,11.9545
623,323,45.7148,-10.9439,0.00160794,-0.000627195,0.000754805,0.00183896,-0.000858215,0.297012,0.00159116,0.0138757,1847,701,45.7148,10.9439
630,323,45.6456,-9.92365,0.00163786,-0.000329338,0.000679418,0.0018497,-0.000541178,0.302244,0.00144765,0.0150383,1854,701,45.6456,9.92366
637,323,45.6221,-8.91644,0.00172237,5.58742e-05,0.000656109,0.00194968,-0.000171435,0.333509,0.00136054,0.0115191,1861,701,45.6221,8.91646
644,323,45.5538,-7.92169,0.00185983,0.000506202,0.000677868,0.00214093,0.000225112,0.393087,0.00135848,0.00834004,1868,701,45.5538,7.92172
651,323,45.5137,-6.89087,0.00205999,0.00103842,0.000720533,0.00243242,0.000665993,0.477062,0.00145147,0.0135771,1875,701,45.5137,6.89087
658,323,45.3794,-5.86353,0.00236569,0.0016612,0.000825595,0.00291104,0.00111584,0.583762,0.00169588,0.0237711,1882,701,45.3794,5.86353
665,323,45.278,-4.86554,0.00283011,0.00235919,0.00100274,0.00362467,0.00156464,0.670079,0.00209921,0.0189395,1889,701,45.278,4.86555
672,323,45.2953,-3.80573,0.00345407,0.00319417,0.0012076,0.0045387,0.00210955,0.731799,0.00262258,0.023659,1896,701,45.2953,3.8057
679,323,45.3507,-2.62604,0,0,0,0,0,0,0,-1,1903,701,45.3507,2.62603
686,323,30.4916,0.378235,0,0,0,0,0,0,0,-1,1910,701,30.4916,-0.37825
693,323,23.8806,1.08844,0,0,0,0,0,0,0,-1,1917,701,23.8806,-1.08845
700,323,10.7705,0.828613,0,0,0,0,0,0,0,-1,1924,701,10.7705,-0.828591
707,323,16.9005,4.79193,0,0,0,0,0,0,0,-1,1931,701,16.9005,-4.7919
714,323,16.2346,6.25958,0,0,0,0,0,0,0,-1,1938,701,16.2346,-6.25956
721,323,0,0,0,0,0,0,0,0,0,-1,1945,701,0,0
728,323,0,0,0,0,0,0,0,0,0,-1,1952,701,0,0
735,323,0,0,0,0,0,0,0,0,0,-1,1959,701,0,0
742,323,0,0,0,0,0,0,0,0,0,-1,1966,701,0,0
749,323,0,0,0,0,0,0,0,0,0,-1,1973,701,0,0
756,323,0,0,0,0,0,0,0,0,0,-1,1980,701,0,0
763,323,0,0,0,0,0,0,0,0,0,-1,1987,701,0,0
770,323,0,0,0,0,0,0,0,0,0,-1,1994,701,0,0
777,323,0,0,0,0,0,0,0,0,0,-1,2001,701,0,0
784,323,0,0,0,0,0,0,0,0,0,-1,2008,701,0,0
791,323,0,0,0,0,0,0,0,0,0,-1,2015,701,0,0
798,323,0,0,0,0,0,0,0,0,0,-1,2022,701,0,0
805,323,0,0,0,0,0,0,0,0,0,-1,2029,701,0,0
812,323,0,0,0,0,0,0,0,0,0,-1,2036,701,0,0
-700,316,0,0,0,0,0,0,0,0,0,-1,524,708,0,0
-693,316,0,0,0,0,0,0,0,0,0,-1,531,708,0,0
-686,316,0,0,0,0,0,0,0,0,0,-1,538,708,0,0
-679,316,0,0,0,0,0,0,0,0,0,-1,545,708,0,0
-672,316,0,0,0,0,0,0,0,0,0,-1,552,708,0,0
-665,316,0,0,0,0,0,0,0,0,0,-1,559,708,0,0
-658,316,0,0,0,0,0,0,0,0,0,-1,566,708,0,0
-651,316,0,0,0,0,0,0,0,0,0,-1,573,708,0,0
-644,316,0,0,0,0,0,0,0,0,0,-1,580,708,0,0
-637,316,0,0,0,0,0,0,0,0,0,-1,587,708,0,0
-630,316,0,0,0,0,0,0,0,0,0,-1,594,708,0,0
-623,316,0,0,0,0,0,0,0,0,0,-1,601,708,0,0
-616,316,0,0,0,0,0,0,0,0,0,-1,608,708,0,0
-609,316,0,0,0,0,0,0,0,0,0,-1,615,708,0,0
-602,316,-0.451782,-0.0494995,0,0,0,0,0,0,0,-1,622,708,-0.451768,0.0495022
-595,316,-3.3761,2.17188,0,0,0,0,0,0,0,-1,629,708,-3.37609,-2.17189
-588,316,-5.00177,2.60675,0,0,0,0,0,0,0,-1,636,708,-5.00175,-2.60676
-581,316,-3.94653,0.393433,0,0,0,0,0,0,0,-1,643,708,-3.94655,-0.39342
-574,316,-9.67395,1.06067,0,0,0,0,0,0,0,-1,650,708,-9.67396,-1.06065
-567,316,-10.1962,0.448425,0,0,0,0,0,0,0,-1,657,708,-10.1962,-0.448411
-560,316,-18.9941,-1.75067,0,0,0,0,0,0,0,-1,664,708,-18.9941,1.75068
-553,316,-25.6896,-2.78827,0,0,0,0,0,0,0,-1,671,708,-25.6896,2.78827
-546,316,-29.4229,-3.75397,0,0,0,0,0,0,0,-1,678,708,-29.4228,3.75396
-539,316,-29.4974,-4.77802,0.00269713,0.00321873,-0.00262289,0.00559375,0.000322107,-0.834951,0.00362657,0.0150542,685,708,-29.4974,4.77799
-532,316,-29.5739,-5.77362,0.00255928,0.00216001,-0.00194861,0.00431845,0.000400836,-0.734351,0.00275509,0.0117252,692,708,-29.5739,5.77364
-525,316,-29.6379,-6.76965,0.00221954,0.00121937,-0.00125685,0.00307214,0.000366763,-0.596057,0.00193744,0.0106011,699,708,-29.6379,6.76963
-518,316,-29.6846,-7.7887,0.00183146,0.000383319,-0.000589979,0.00204139,0.000173391,-0.341853,0.00130697,0.0104151,706,708,-29.6846,7.78869
-511,316,-29.7822,-8.82056,0.00128648,-0.00033668,2.74727e-05,0.00128695,-0.000337145,0.0169189,0.000989679,0.0114612,713,708,-29.7822,8.82053
-504,316,-29.8773,-9.84332,0.000650775,-0.000961605,0.00063786,0.000872597,-0.00118343,0.334677,0.00119156,0.0149155,720,708,-29.8773,9.84334
-497,316,-29.9239,-10.818,0.000125384,-0.00144354,0.00112386,0.000711484,-0.00202964,0.480705,0.00164245,0.0134298,727,708,-29.9239,10.818
-490,316,-29.9705,-11.8466,-0.000158157,-0.00176649,0.00141146,0.000662151,-0.00258679,0.526463,0.00198246,0.0196687,734,708,-29.9705,11.8466
-483,316,-29.9265,-12.8829,0,0,0,0,0,0,0,-1,741,708,-29.9265,12.8829
-476,316,-8.90894,-3.31207,0,0,0,0,0,0,0,-1,748,708,-8.90896,3.31206
-469,316,-6.24194,-1.42725,0,0,0,0,0,0,0,-1,755,708,-6.24192,1.42725
-462,316,-5.74237,-1.40039,0,0,0,0,0,0,0,-1,762,708,-5.74238,1.40039
-455,316,-5.44745,-1.21899,0,0,0,0,0,0,0,-1,769,708,-5.44746,1.21898
-448,316,-14.8945,0.655396,0,0,0,0,0,0,0,-1,776,708,-14.8946,-0.655396
-441,316,-14.9626,0.576111,0,0,0,0,0,0,0,-1,783,708,-14.9626,-0.576115
-434,316,-27.7723,1.15576,0,0,0,0,0,0,0,-1,790,708,-27.7723,-1.15579
-427,316,-28.0504,1.31427,0,0,0,0,0,0,0,-1,797,708,-28.0504,-1.31427
-420,316,-28.198,1.62891,0,0,0,0,0,0,0,-1,804,708,-28.198,-1.62889
-413,316,0,0,0,0,0,0,0,0,0,-1,811,708,0,0
-406,316,0,0,0,0,0,0,0,0,0,-1,818,708,0,0
-399,316,0,0,0,0,0,0,0,0,0,-1,825,708,0,0
-392,316,0,0,0,0,0,0,0,0,0,-1,832,708,0,0
-385,316,0,0,0,0,0,0,0,0,0,-1,839,708,0,0
-378,316,0,0,0,0,0,0,0,0,0,-1,846,708,0,0
-371,316,0,0,0,0,0,0,0,0,0,-1,853,708,0,0
-364,316,0,0,0,0,0,0,0,0,0,-1,860,708,0,0
-357,316,0,0,0,0,0,0,0,0,0,-1,867,708,0,0
-350,316,0,0,0,0,0,0,0,0,0,-1,874,708,0,0
-343,316,0,0,0,0,0,0,0,0,0,-1,881,708,0,0
-336,316,0,0,0,0,0,0,0,0,0,-1,888,708,0,0
-329,316,0,0,0,0,0,0,0,0,0,-1,895,708,0,0
-322,316,0,0,0,0,0,0,0,0,0,-1,902,708,0,0
-315,316,0,0,0,0,0,0,0,0,0,-1,909,708,0,0
-308,316,0,0,0,0,0,0,0,0,0,-1,916,708,0,0
-301,316,0,0,0,0,0,0,0,0,0,-1,923,708,0,0
-294,316,0,0,0,0,0,0,0,0,0,-1,930,708,0,0
-287,316,0,0,0,0,0,0,0,0,0,-1,937,708,0,0
-280,316,0,0,0,0,0,0,0,0,0,-1,944,708,0,0
-273,316,0,0,0,0,0,0,0,0,0,-1,951,708,0,0
-266,316,0,0,0,0,0,0,0,0,0,-1,958,708,0,0
-259,316,0,0,0,0,0,0,0,0,0,-1,965,708,0,0
-252,316,0,0,0,0,0,0,0,0,0,-1,972,708,0,0
-245,316,0,0,0,0,0,0,0,0,0,-1,979,708,0,0
-238,316,0,0,0,0,0,0,0,0,0,-1,986,708,0,0
-231,316,0,0,0,0,0,0,0,0,0,-1,993,708,0,0
-224,316,0,0,0,0,0,0,0,0,0,-1,1000,708,0,0
-217,316,0,0,0,0,0,0,0,0,0,-1,1007,708,0,0
-210,316,0,0,0,0,0,0,0,0,0,-1,1014,708,0,0
-203,316,0,0,0,0,0,0,0,0,0,-1,1021,708,0,0
-196,316,0,0,0,0,0,0,0,0,0,-1,1028,708,0,0
-189,316,0,0,0,0,0,0,0,0,0,-1,1035,708,0,0
-182,316,0,0,0,0,0,0,0,0,0,-1,1042,708,0,0
-175,316,0,0,0,0,0,0,0,0,0,-1,1049,708,0,0
-168,316,0,0,0,0,0,0,0,0,0,-1,1056,708,0,0
-161,316,0,0,0,0,0,0,0,0,0,-1,1063,708,0,0
-154,316,0,0,0,0,0,0,0,0,0,-1,1070,708,0,0
-147,316,0,0,0,0,0,0,0,0,0,-1,1077,708,0,0
-140,316,0,0,0,0,0,0,0,0,0,-1,1084,708,0,0
-133,316,0,0,0,0,0,0,0,0,0,-1,1091,708,0,0
-126,316,0,0,0,0,0,0,0,0,0,-1,1098,708,0,0
-119,316,0,0,0,0,0,0,0,0,0,-1,1105,708,0,0
-112,316,0,0,0,0,0,0,0,0,0,-1,1112,708,0,0
-105,316,0,0,0,0,0,0,0,0,0,-1,1119,708,0,0
-98,316,0,0,0,0,0,0,0,0,0,-1,1126,708,0,0
-91,316,0,0,0,0,0,0,0,0,0,-1,1133,708,0,0
-84,316,0,0,0,0,0,0,0,0,0,-1,1140,708,0,0
-77,316,0,0,0,0,0,0,0,0,0,-1,1147,708,0,0
-70,316,0,0,0,0,0,0,0,0,0,-1,1154,708,0,0
-63,316,0,0,0,0,0,0,0,0,0,-1,1161,708,0,0
-56,316,0,0,0,0,0,0,0,0,0,-1,1168,708,0,0
-49,316,0,0,0,0,0,0,0,0,0,-1,1175,708,0,0
-42,316,0,0,0,0,0,0,0,0,0,-1,1182,708,0,0
-35,316,0,0,0,0,0,0,0,0,0,-1,1189,708,0,0
-28,316,0,0,0,0,0,0,0,0,0,-1,1196,708,0,0
-21,316,0,0,0,0,0,0,0,0,0,-1,1203,708,0,0
-14,316,0,0,0,0,0,0,0,0,0,-1,1210,708,0,0
-7,316,0,0,0,0,0,0,0,0,0,-1,1217,708,0,0
0,316,0,0,0,0,0,0,0,0,0,-1,1224,708,0,0
7,316,0,0,0,0,0,0,0,0,0,-1,1231,708,0,0
14,316,0,0,0,0,0,0,0,0,0,-1,1238,708,0,0
21,316,0,0,0,0,0,0,0,0,0,-1,1245,708,0,0
28,316,0,0,0,0,0,0,0,0,0,-1,1252,708,0,0
35,316,0,0,0,0,0,0,0,0,0,-1,1259,708,0,0
42,316,0,0,0,0,0,0,0,0,0,-1,1266,708,0,0
49,316,0,0,0,0,0,0,0,0,0,-1,1273,708,0,0
56,316,0,0,0,0,0,0,0,0,0,-1,1280,708,0,0
63,316,0,0,0,0,0,0,0,0,0,-1,1287,708,0,0
70,316,0,0,0,0,0,0,0,0,0,-1,1294,708,0,0
77,316,0,0,0,0,0,0,0,0,0,-1,1301,708,0,0
84,316,0,0,0,0,0,0,0,0,0,-1,1308,708,0,0
91,316,0,0,0,0,0,0,0,0,0,-1,1315,708,0,0
98,316,0,0,0,0,0,0,0,0,0,-1,1322,708,0,0
105,316,0,0,0,0,0,0,0,0,0,-1,1329,708,0,0
112,316,0,0,0,0,0,0,0,0,0,-1,1336,708,0,0
119,316,0,0,0,0,0,0,0,0,0,-1,1343,708,0,0
126,316,0,0,0,0,0,0,0,0,0,-1,1350,708,0,0
133,316,0,0,0,0,0,0,0,0,0,-1,1357,708,0,0
140,316,0,0,0,0,0,0,0,0,0,-1,1364,708,0,0
147,316,0,0,0,0,0,0,0,0,0,-1,1371,708,0,0
154,316,0,0,0,0,0,0,0,0,0,-1,1378,708,0,0
161,316,0,0,0,0,0,0,0,0,0,-1,1385,708,0,0
168,316,0,0,0,0,0,0,0,0,0,-1,1392,708,0,0
175,316,0,0,0,0,0,0,0,0,0,-1,1399,708,0,0
182,316,0,0,0,0,0,0,0,0,0,-1,1406,708,0,0
189,316,0,0,0,0,0,0,0,0,0,-1,1413,708,0,0
196,316,0,0,0,0,0,0,0,0,0,-1,1420,708,0,0
203,316,0,0,0,0,0,0,0,0,0,-1,1427,708,0,0
210,316,0,0,0,0,0,0,0,0,0,-1,1434,708,0,0
217,316,0,0,0,0,0,0,0,0,0,-1,1441,708,0,0
224,316,0,0,0,0,0,0,0,0,0,-1,1448,708,0,0
231,316,0,0,0,0,0,0,0,0,0,-1,1455,708,0,0
238,316,0,0,0,0,0,0,0,0,0,-1,1462,708,0,0
245,316,0,0,0,0,0,0,0,0,0,-1,1469,708,0,0
252,316,0,0,0,0,0,0,0,0,0,-1,1476,708,0,0
259,316,0,0,0,0,0,0,0,0,0,-1,1483,708,0,0
266,316,0,0,0,0,0,0,0,0,0,-1,1490,708,0,0
273,316,0,0,0,0,0,0,0,0,0,-1,1497,708,0,0
280,316,0,0,0,0,0,0,0,0,0,-1,1504,708,0,0
287,316,0,0,0,0,0,0,0,0,0,-1,1511,708,0,0
294,316,0,0,0,0,0,0,0,0,0,-1,1518,708,0,0
301,316,0,0,0,0,0,0,0,0,0,-1,1525,708,0,0
308,316,0,0,0,0,0,0,0,0,0,-1,1532,708,0,0
315,316,0,0,0,0,0,0,0,0,0,-1,1539,708,0,0
322,316,0,0,0,0,0,0,0,0,0,-1,1546,708,0,0
329,316,0,0,0,0,0,0,0,0,0,-1,1553,708,0,0
336,316,0,0,0,0,0,0,0,0,0,-1,1560,708,0,0
343,316,0,0,0,0,0,0,0,0,0,-1,1567,708,0,0
350,316,0,0,0,0,0,0,0,0,0,-1,1574,708,0,0
357,316,0,0,0,0,0,0,0,0,0,-1,1581,708,0,0
364,316,0,0,0,0,0,0,0,0,0,-1,1588,708,0,0
371,316,0,0,0,0,0,0,0,0,0,-1,1595,708,0,0
378,316,0,0,0,0,0,0,0,0,0,-1,1602,708,0,0
385,316,0,0,0,0,0,0,0,0,0,-1,1609,708,0,0
392,316,0,0,0,0,0,0,0,0,0,-1,1616,708,0,0
399,316,0,0,0,0,0,0,0,0,0,-1,1623,708,0,0
406,316,0,0,0,0,0,0,0,0,0,-1,1630,708,0,0
413,316,0,0,0,0,0,0,0,0,0,-1,1637,708,0,0
420,316,0,0,0,0,0,0,0,0,0,-1,1644,708,0,0
427,316,0,0,0,0,0,0,0,0,0,-1,1651,708,0,0
434,316,0,0,0,0,0,0,0,0,0,-1,1658,708,0,0
441,316,0,0,0,0,0,0,0,0,0,-1,1665,708,0,0
448,316,0,0,0,0,0,0,0,0,0,-1,1672,708,0,0
455,316,0,0,0,0,0,0,0,0,0,-1,1679,708,0,0
462,316,0,0,0,0,0,0,0,0,0,-1,1686,708,0,0
469,316,0,0,0,0,0,0,0,0,0,-1,1693,708,0,0
476,316,0,0,0,0,0,0,0,0,0,-1,1700,708,0,0
483,316,0,0,0,0,0,0,0,0,0,-1,1707,708,0,0
490,316,0,0,0,0,0,0,0,0,0,-1,1714,708,0,0
497,316,0,0,0,0,0,0,0,0,0,-1,1721,708,0,0
504,316,0,0,0,0,0,0,0,0,0,-1,1728,708,0,0
511,316,0,0,0,0,0,0,0,0,0,-1,1735,708,0,0
518,316,0,0,0,0,0,0,0,0,0,-1,1742,708,0,0
525,316,0,0,0,0,0,0,0,0,0,-1,1749,708,0,0
532,316,33.8604,0.531128,0,0,0,0,0,0,0,-1,1756,708,33.8604,-0.531151
539,316,44.4543,2.73468,0,0,0,0,0,0,0,-1,1763,708,44.4543,-2.7347
546,316,44.713,3.35498,0,0,0,0,0,0,0,-1,1770,708,44.7131,-3.35501
553,316,39.9031,6.57275,0,0,0,0,0,0,0,-1,1777,708,39.9031,-6.57274
560,316,39.1196,1.10046,0,0,0,0,0,0,0,-1,1784,708,39.1197,-1.10048
567,316,47.3683,6.04919,0,0,0,0,0,0,0,-1,1791,708,47.3683,-6.04918
574,316,45.9872,6.7655,0,0,0,0,0,0,0,-1,1798,708,45.9871,-6.76552
581,316,24.6815,7.77496,0,0,0,0,0,0,0,-1,1805,708,24.6815,-7.77499
588,316,19.7659,2.90198,0,0,0,0,0,0,0,-1,1812,708,19.7659,-2.902
595,316,12.5363,1.50702,0,0,0,0,0,0,0,-1,1819,708,12.5363,-1.50701
602,316,7.79919,0.0422363,0,0,0,0,0,0,0,-1,1826,708,7.79923,-0.0422066
609,316,46.642,-12.7761,0,0,0,0,0,0,0,-1,1833,708,46.6419,12.7761
616,316,46.7765,-11.8323,0.00234245,-0.00105343,0.00111324,0.00267485,-0.00138583,0.290166,0.00238349,0.0150459,1840,708,46.7765,11.8323
623,316,46.7012,-10.8443,0.00194345,-0.000695166,0.000896229,0.00221907,-0.000970788,0.298355,0.00188808,0.0110446,1847,708,46.7011,10.8443
630,316,46.6357,-9.88312,0.00186105,-0.000438433,0.000758973,0.00208897,-0.000666351,0.29173,0.00165996,0.0134761,1854,708,46.6358,9.88313
637,316,46.597,-8.84167,0.00184969,-7.50994e-05,0.000713709,0.00208546,-0.000310863,0.31905,0.00150467,0.0129267,1861,708,46.597,8.8417
644,316,46.5464,-7.82343,0.00190838,0.000367471,0.000734634,0.00220248,7.33653e-05,0.380802,0.00144449,0.012656,1868,708,46.5464,7.8234
651,316,46.4816,-6.81104,0.00203702,0.000885483,0.00078839,0.00243751,0.000485,0.470008,0.00148989,0.0196824,1875,708,46.4816,6.81105
658,316,46.3696,-5.73279,0.00228021,0.00149318,0.000912033,0.00288,0.000893392,0.58173,0.00170223,0.0409376,1882,708,46.3697,5.73278
665,316,46.2336,-4.72626,0.00264446,0.00219584,0.00111849,0.00356091,0.00127939,0.686435,0.00208285,0.0273454,1889,708,46.2336,4.72626
672,316,46.244,-3.77484,0.00316559,0.00303458,0.00139357,0.00449519,0.00170498,0.761914,0.00262039,0.0142129,1896,708,46.2441,3.77482
679,316,46.2576,-2.75861,0,0,0,0,0,0,0,-1,1903,708,46.2576,2.7586
686,316,34.0828,0.223206,0,0,0,0,0,0,0,-1,1910,708,34.0828,-0.223183
693,316,26.4315,1.80652,0,0,0,0,0,0,0,-1,1917,708,26.4315,-1.80651
700,316,12.8749,2.89136,0,0,0,0,0,0,0,-1,1924,708,12.8748,-2.89137
707,316,15.7089,5.41486,0,0,0,0,0,0,0,-1,1931,708,15.7088,-5.41487
714,316,16.1727,5.52045,0,0,0,0,0,0,0,-1,1938,708,16.1728,-5.52042
721,316,16.7094,6.53351,0,0,0,0,0,0,0,-1,1945,708,16.7094,-6.5335
728,316,0,0,0,0,0,0,0,0,0,-1,1952,708,0,0
735,316,0,0,0,0,0,0,0,0,0,-1,1959,708,0,0
742,316,0,0,0,0,0,0,0,0,0,-1,1966,708,0,0
749,316,0,0,0,0,0,0,0,0,0,-1,1973,708,0,0
756,316,0,0,0,0,0,0,0,0,0,-1,1980,708,0,0
763,316,0,0,0,0,0,0,0,0,0,-1,1987,708,0,0
770,316,0,0,0,0,0,0,0,0,0,-1,1994,708,0,0
777,316,0,0,0,0,0,0,0,0,0,-1,2001,708,0,0
784,316,0,0,0,0,0,0,0,0,0,-1,2008,708,0,0
791,316,0,0,0,0,0,0,0,0,0,-1,2015,708,0,0
798,316,0,0,0,0,0,0,0,0,0,-1,2022,708,0,0
805,316,0,0,0,0,0,0,0,0,0,-1,2029,708,0,0
812,316,0,0,0,0,0,0,0,0,0,-1,2036,708,0,0
-700,309,0,0,0,0,0,0,0,0,0,-1,524,715,0,0
-693,309,0,0,0,0,0,0,0,0,0,-1,531,715,0,0
-686,309,0,0,0,0,0,0,0,0,0,-1,538,715,0,0
-679,309,0,0,0,0,0,0,0,0,0,-1,545,715,0,0
-672,309,0,0,0,0,0,0,0,0,0,-1,552,715,0,0
-665,309,0,0,0,0,0,0,0,0,0,-1,559,715,0,0
-658,309,0,0,0,0,0,0,0,0,0,-1,566,715,0,0
-651,309,0,0,0,0,0,0,0,0,0,-1,573,715,0,0
-644,309,0,0,0,0,0,0,0,0,0,-1,580,715,0,0
-637,309,0,0,0,0,0,0,0,0,0,-1,587,715,0,0
-630,309,0,0,0,0,0,0,0,0,0,-1,594,715,0,0
-623,309,0,0,0,0,0,0,0,0,0,-1,601,715,0,0
-616,309,0,0,0,0,0,0,0,0,0,-1,608,715,0,0
-609,309,-5.95392,-3.93689,0,0,0,0,0,0,0,-1,615,715,-5.95392,3.93686
-602,309,-4.99786,-3.31287,0,0,0,0,0,0,0,-1,622,715,-4.99786,3.31284
-595,309,-6.80847,2.4046,0,0,0,0,0,0,0,-1,629,715,-6.80845,-2.40458
-588,309,-6.08795,2.19324,0,0,0,0,0,0,0,-1,636,715,-6.08793,-2.19325
-581,309,-5.97552,1.3277,0,0,0,0,0,0,0,-1,643,715,-5.97552,-1.32769
-574,309,-8.73602,0.208435,0,0,0,0,0,0,0,-1,650,715,-8.73604,-0.208437
-567,309,-10.3909,0.85968,0,0,0,0,0,0,0,-1,657,715,-10.3909,-0.859696
-560,309,-18.6088,-1.73389,0,0,0,0,0,0,0,-1,664,715,-18.6088,1.73389
-553,309,-30.7639,-2.55438,0,0,0,0,0,0,0,-1,671,715,-30.7639,2.55438
-546,309,-30.6136,-3.64154,0.00178131,0.00353505,-0.00233296,0.00515049,0.000165865,-0.965161,0.00337973,0.0443149,678,715,-30.6136,3.64154
-539,309,-30.5206,-4.72931,0.00198467,0.002491,-0.00183144,0.00408669,0.000388979,-0.854079,0.0026045,0.0168994,685,715,-30.5206,4.72934
-532,309,-30.5738,-5.72076,0.00186666,0.00153487,-0.00128059,0.00299206,0.000409468,-0.720984,0.00187319,0.0128706,692,715,-30.5738,5.72075
-525,309,-30.6555,-6.7312,0.0015078,0.000672229,-0.00068786,0.00189481,0.000285219,-0.512488,0.00117968,0.0165319,699,715,-30.6554,6.73119
-518,309,-30.7013,-7.74402,0.00109946,-0.000117398,-9.15697e-05,0.00110632,-0.00012425,-0.0746902,0.000782257,0.0171352,706,715,-30.7013,7.74403
-511,309,-30.7791,-8.72626,0.000493867,-0.000823365,0.000506232,0.000665941,-0.000995439,0.327659,0.000965466,0.0127609,713,715,-30.7791,8.72627
-504,309,-30.8718,-9.75214,-0.000203005,-0.00145901,0.0011277,0.000459768,-0.00212178,0.531341,0.00159009,0.0100035,720,715,-30.8717,9.75214
-497,309,-30.9411,-10.7275,-0.000754352,-0.00198116,0.0016227,0.000367012,-0.00310253,0.604693,0.00220091,0.0145106,727,715,-30.9411,10.7275
-490,309,-31.0092,-11.7127,0,0,0,0,0,0,0,-1,734,715,-31.0092,11.7127
-483,309,-17.7261,-7.75836,0,0,0,0,0,0,0,-1,741,715,-17.7261,7.75839
-476,309,-5.29486,-1.2262,0,0,0,0,0,0,0,-1,748,715,-5.29484,1.22622
-469,309,-4.22717,-0.592896,0,0,0,0,0,0,0,-1,755,715,-4.2272,0.592905
-462,309,-10.428,2.46948,0,0,0,0,0,0,0,-1,762,715,-10.428,-2.46947
-455,309,-15.8216,0.00915527,0,0,0,0,0,0,0,-1,769,715,-15.8216,-0.00913359
-448,309,-37.3543,-1.02441,0,0,0,0,0,0,0,-1,776,715,-37.3543,1.02444
-441,309,-19.8181,1.4425,0,0,0,0,0,0,0,-1,783,715,-19.8181,-1.44249
-434,309,-46.7953,1.72064,0,0,0,0,0,0,0,-1,790,715,-46.7953,-1.72067
-427,309,-27.8553,1.40332,0,0,0,0,0,0,0,-1,797,715,-27.8553,-1.40334
-420,309,-27.3148,1.90747,0,0,0,0,0,0,0,-1,804,715,-27.3148,-1.90745
-413,309,0,0,0,0,0,0,0,0,0,-1,811,715,0,0
-406,309,0,0,0,0,0,0,0,0,0,-1,818,715,0,0
-399,309,0,0,0,0,0,0,0,0,0,-1,825,715,0,0
-392,309,0,0,0,0,0,0,0,0,0,-1,832,715,0,0
-385,309,0,0,0,0,0,0,0,0,0,-1,839,715,0,0
-378,309,0,0,0,0,0,0,0,0,0,-1,846,715,0,0
-371,309,0,0,0,0,0,0,0,0,0,-1,853,715,0,0
-364,309,0,0,0,0,0,0,0,0,0,-1,860,715,0,0
-357,309,0,0,0,0,0,0,0,0,0,-1,867,715,0,0
-350,309,0,0,0,0,0,0,0,0,0,-1,874,715,0,0
-343,309,0,0,0,0,0,0,0,0,0,-1,881,715,0,0
-336,309,0,0,0,0,0,0,0,0,0,-1,888,715,0,0
-329,309,0,0,0,0,0,0,0,0,0,-1,895,715,0,0
-322,309,0,0,0,0,0,0,0,0,0,-1,902,715,0,0
-315,309,0,0,0,0,0,0,0,0,0,-1,909,715,0,0
-308,309,0,0,0,0,0,0,0,0,0,-1,916,715,0,0
-301,309,0,0,0,0,0,0,0,0,0,-1,923,715,0,0
-294,309,0,0,0,0,0,0,0,0,0,-1,930,715,0,0
-287,309,0,0,0,0,0,0,0,0,0,-1,937,715,0,0
-280,309,0,0,0,0,0,0,0,0,0,-1,944,715,0,0
-273,309,0,0,0,0,0,0,0,0,0,-1,951,715,0,0
-266,309,0,0,0,0,0,0,0,0,0,-1,958,715,0,0
-259,309,0,0,0,0,0,0,0,0,0,-1,965,715,0,0
-252,309,0,0,0,0,0,0,0,0,0,-1,972,715,0,0
-245,309,0,0,0,0,0,0,0,0,0,-1,979,715,0,0
-238,309,0,0,0,0,0,0,0,0,0,-1,986,715,0,0
-231,309,0,0,0,0,0,0,0,0,0,-1,993,715,0,0
-224,309,0,0,0,0,0,0,0,0,0,-1,1000,715,0,0
-217,309,0,0,0,0,0,0,0,0,0,-1,1007,715,0,0
-210,309,0,0,0,0,0,0,0,0,0,-1,1014,715,0,0
-203,309,0,0,0,0,0,0,0,0,0,-1,1021,715,0,0
-196,309,0,0,0,0,0,0,0,0,0,-1,1028,715,0,0
-189,309,0,0,0,0,0,0,0,0,0,-1,1035,715,0,0
-182,309,0,0,0,0,0,0,0,0,0,-1,1042,715,0,0
-175,309,0,0,0,0,0,0,0,0,0,-1,1049,715,0,0
-168,309,0,0,0,0,0,0,0,0,0,-1,1056,715,0,0
-161,309,0,0,0,0,0,0,0,0,0,-1,1063,715,0,0
-154,309,0,0,0,0,0,0,0,0,0,-1,1070,715,0,0
-147,309,0,0,0,0,0,0,0,0,0,-1,1077,715,0,0
-140,309,0,0,0,0,0,0,0,0,0,-1,1084,715,0,0
-133,309,0,0,0,0,0,0,0,0,0,-1,1091,715,0,0
-126,309,0,0,0,0,0,0,0,0,0,-1,1098,715,0,0
-119,309,0,0,0,0,0,0,0,0,0,-1,1105,715,0,0
-112,309,0,0,0,0,0,0,0,0,0,-1,1112,715,0,0
-105,309,0,0,0,0,0,0,0,0,0,-1,1119,715,0,0
-98,309,0,0,0,0,0,0,0,0,0,-1,1126,715,0,0
-91,309,0,0,0,0,0,0,0,0,0,-1,1133,715,0,0
-84,309,0,0,0,0,0,0,0,0,0,-1,1140,715,0,0
-77,309,0,0,0,0,0,0,0,0,0,-1,1147,715,0,0
-70,309,0,0,0,0,0,0,0,0,0,-1,1154,715,0,0
-63,309,0,0,0,0,0,0,0,0,0,-1,1161,715,0,0
-56,309,0,0,0,0,0,0,0,0,0,-1,1168,715,0,0
-49,309,0,0,0,0,0,0,0,0,0,-1,1175,715,0,0
-42,309,0,0,0,0,0,0,0,0,0,-1,1182,715,0,0
-35,309,0,0,0,0,0,0,0,0,0,-1,1189,715,0,0
-28,309,0,0,0,0,0,0,0,0,0,-1,1196,715,0,0
-21,309,0,0,0,0,0,0,0,0,0,-1,1203,715,0,0
-14,309,0,0,0,0,0,0,0,0,0,-1,1210,715,0,0
-7,309,0,0,0,0,0,0,0,0,0,-1,1217,715,0,0
0,309,0,0,0,0,0,0,0,0,0,-1,1224,715,0,0
7,309,0,0,0,0,0,0,0,0,0,-1,1231,715,0,0
14,309,0,0,0,0,0,0,0,0,0,-1,1238,715,0,0
21,309,0,0,0,0,0,0,0,0,0,-1,1245,715,0,0
28,309,0,0,0,0,0,0,0,0,0,-1,1252,715,0,0
35,309,0,0,0,0,0,0,0,0,0,-1,1259,715,0,0
42,309,0,0,0,0,0,0,0,0,0,-1,1266,715,0,0
49,309,0,0,0,0,0,0,0,0,0,-1,1273,715,0,0
56,309,0,0,0,0,0,0,0,0,0,-1,1280,715,0,0
63,309,0,0,0,0,0,0,0,0,0,-1,1287,715,0,0
70,309,0,0,0,0,0,0,0,0,0,-1,1294,715,0,0
77,309,0,0,0,0,0,0,0,0,0,-1,1301,715,0,0
84,309,0,0,0,0,0,0,0,0,0,-1,1308,715,0,0
91,309,0,0,0,0,0,0,0,0,0,-1,1315,715,0,0
98,309,0,0,0,0,0,0,0,0,0,-1,1322,715,0,0
105,309,0,0,0,0,0,0,0,0,0,-1,1329,715,0,0
112,309,0,0,0,0,0,0,0,0,0,-1,1336,715,0,0
119,309,0,0,0,0,0,0,0,0,0,-1,1343,715,0,0
126,309,0,0,0,0,0,0,0,0,0,-1,1350,715,0,0
133,309,0,0,0,0,0,0,0,0,0,-1,1357,715,0,0
140,309,0,0,0,0,0,0,0,0,0,-1,1364,715,0,0
147,309,0,0,0,0,0,0,0,0,0,-1,1371,715,0,0
154,309,0,0,0,0,0,0,0,0,0,-1,1378,715,0,0
161,309,0,0,0,0,0,0,0,0,0,-1,1385,715,0,0
168,309,0,0,0,0,0,0,0,0,0,-1,1392,715,0,0
175,309,0,0,0,0,0,0,0,0,0,-1,1399,715,0,0
182,309,0,0,0,0,0,0,0,0,0,-1,1406,715,0,0
189,309,0,0,0,0,0,0,0,0,0,-1,1413,715,0,0
196,309,0,0,0,0,0,0,0,0,0,-1,1420,715,0,0
203,309,0,0,0,0,0,0,0,0,0,-1,1427,715,0,0
210,309,0,0,0,0,0,0,0,0,0,-1,1434,715,0,0
217,309,0,0,0,0,0,0,0,0,0,-1,1441,715,0,0
224,309,0,0,0,0,0,0,0,0,0,-1,1448,715,0,0
231,309,0,0,0,0,0,0,0,0,0,-1,1455,715,0,0
238,309,0,0,0,0,0,0,0,0,0,-1,1462,715,0,0
245,309,0,0,0,0,0,0,0,0,0,-1,1469,715,0,0
252,309,0,0,0,0,0,0,0,0,0,-1,1476,715,0,0
259,309,0,0,0,0,0,0,0,0,0,-1,1483,715,0,0
266,309,0,0,0,0,0,0,0,0,0,-1,1490,715,0,0
273,309,0,0,0,0,0,0,0,0,0,-1,1497,715,0,0
280,309,0,0,0,0,0,0,0,0,0,-1,1504,715,0,0
287,309,0,0,0,0,0,0,0,0,0,-1,1511,715,0,0
294,309,0,0,0,0,0,0,0,0,0,-1,1518,715,0,0
301,309,0,0,0,0,0,0,0,0,0,-1,1525,715,0,0
308,309,0,0,0,0,0,0,0,0,0,-1,1532,715,0,0
315,309,0,0,0,0,0,0,0,0,0,-1,1539,715,0,0
322,309,0,0,0,0,0,0,0,0,0,-1,1546,715,0,0
329,309,0,0,0,0,0,0,0,0,0,-1,1553,715,0,0
336,309,0,0,0,0,0,0,0,0,0,-1,1560,715,0,0
343,309,0,0,0,0,0,0,0,0,0,-1,1567,715,0,0
350,309,0,0,0,0,0,0,0,0,0,-1,1574,715,0,0
357,309,0,0,0,0,0,0,0,0,0,-1,1581,715,0,0
364,309,0,0,0,0,0,0,0,0,0,-1,1588,715,0,0
371,309,0,0,0,0,0,0,0,0,0,-1,1595,715,0,0
378,309,0,0,0,0,0,0,0,0,0,-1,1602,715,0,0
385,309,0,0,0,0,0,0,0,0,0,-1,1609,715,0,0
392,309,0,0,0,0,0,0,0,0,0,-1,1616,715,0,0
399,309,0,0,0,0,0,0,0,0,0,-1,1623,715,0,0
406,309,0,0,0,0,0,0,0,0,0,-1,1630,715,0,0
413,309,0,0,0,0,0,0,0,0,0,-1,1637,715,0,0
420,309,0,0,0,0,0,0,0,0,0,-1,1644,715,0,0
427,309,0,0,0,0,0,0,0,0,0,-1,1651,715,0,0
434,309,0,0,0,0,0,0,0,0,0,-1,1658,715,0,0
441,309,0,0,0,0,0,0,0,0,0,-1,1665,715,0,0
448,309,0,0,0,0,0,0,0,0,0,-1,1672,715,0,0
455,309,0,0,0,0,0,0,0,0,0,-1,1679,715,0,0
462,309,0,0,0,0,0,0,0,0,0,-1,1686,715,0,0
469,309,0,0,0,0,0,0,0,0,0,-1,1693,715,0,0
476,309,0,0,0,0,0,0,0,0,0,-1,1700,715,0,0
483,309,0,0,0,0,0,0,0,0,0,-1,1707,715,0,0
490,309,0,0,0,0,0,0,0,0,0,-1,1714,715,0,0
497,309,0,0,0,0,0,0,0,0,0,-1,1721,715,0,0
504,309,0,0,0,0,0,0,0,0,0,-1,1728,715,0,0
511,309,0,0,0,0,0,0,0,0,0,-1,1735,715,0,0
518,309,0,0,0,0,0,0,0,0,0,-1,1742,715,0,0
525,309,0,0,0,0,0,0,0,0,0,-1,1749,715,0,0
532,309,0,0,0,0,0,0,0,0,0,-1,1756,715,0,0
539,309,44.2073,2.66235,0,0,0,0,0,0,0,-1,1763,715,44.2073,-2.66238
546,309,44.4976,3.25531,0,0,0,0,0,0,0,-1,1770,715,44.4976,-3.25533
553,309,47.9611,4.06433,0,0,0,0,0,0,0,-1,1777,715,47.9611,-4.06434
560,309,47.9784,4.64801,0,0,0,0,0,0,0,-1,1784,715,47.9784,-4.64799
567,309,47.0073,5.43121,0,0,0,0,0,0,0,-1,1791,715,47.0073,-5.43121
574,309,45.8746,6.53271,0,0,0,0,0,0,0,-1,1798,715,45.8747,-6.53269
581,309,45.0629,7.73468,0,0,0,0,0,0,0,-1,1805,715,45.0629,-7.73471
588,309,26.2064,7.76422,0,0,0,0,0,0,0,-1,1812,715,26.2064,-7.7642
595,309,19.585,3.71558,0,0,0,0,0,0,0,-1,1819,715,19.5849,-3.71555
602,309,11.0811,3.47772,0,0,0,0,0,0,0,-1,1826,715,11.0811,-3.47772
609,309,47.8419,-12.7684,0,0,0,0,0,0,0,-1,1833,715,47.8419,12.7684
616,309,47.7903,-11.7637,0.00270788,-0.00110198,0.00102215,0.00296478,-0.00135889,0.246241,0.00255302,0.0352411,1840,715,47.7903,11.7637
623,309,47.7335,-10.7771,0.00206965,-0.000692016,0.000825063,0.00229737,-0.000919731,0.269293,0.00191332,0.0110265,1847,715,47.7335,10.7771
630,309,47.641,-9.80731,0.00185967,-0.000469122,0.000681417,0.0020444,-0.000653855,0.264737,0.00162534,0.0111487,1854,715,47.641,9.80733
637,309,47.5621,-8.78662,0.00174431,-0.000144585,0.000641415,0.00194153,-0.0003418,0.298295,0.00142204,0.0142342,1861,715,47.5622,8.78661
644,309,47.4722,-7.75092,0.00173523,0.000281126,0.000678265,0.00200248,1.38698e-05,0.375348,0.00133039,0.0152484,1868,715,47.4722,7.75091
651,309,47.413,-6.73944,0.0018251,0.000773251,0.000758978,0.00222256,0.000375788,0.482413,0.00137369,0.0160795,1875,715,47.413,6.73945
658,309,47.3662,-5.73157,0.00205703,0.00135255,0.000914336,0.00268463,0.000724951,0.601538,0.00160369,0.0244286,1882,715,47.3662,5.73158
665,309,47.3523,-4.7254,0.00240725,0.00203679,0.00116042,0.00339713,0.00104691,0.706253,0.00200887,0.0191137,1889,715,47.3523,4.7254
672,309,47.2578,-3.73187,0.00294356,0.00285011,0.00150475,0.00440231,0.00139137,0.769877,0.00259838,0.0166688,1896,715,47.2579,3.73187
679,309,47.235,-2.61798,0.00360502,0.00382304,0.00194633,0.00566341,0.00176466,0.813373,0.00334626,0.0324067,1903,715,47.235,2.61797
686,309,47.2529,-1.40845,0,0,0,0,0,0,0,-1,1910,715,47.2529,1.40844
693,309,32.7026,1.51727,0,0,0,0,0,0,0,-1,1917,715,32.7026,-1.51727
700,309,23.0179,3.08337,0,0,0,0,0,0,0,-1,1924,715,23.018,-3.08336
707,309,15.6318,4.58655,0,0,0,0,0,0,0,-1,1931,715,15.6318,-4.58657
714,309,16.7573,6.68286,0,0,0,0,0,0,0,-1,1938,715,16.7574,-6.68284
721,309,16.8337,5.4458,0,0,0,0,0,0,0,-1,1945,715,16.8338,-5.44582
728,309,0,0,0,0,0,0,0,0,0,-1,1952,715,0,0
735,309,0,0,0,0,0,0,0,0,0,-1,1959,715,0,0
742,309,0,0,0,0,0,0,0,0,0,-1,1966,715,0,0
749,309,0,0,0,0,0,0,0,0,0,-1,1973,715,0,0
756,309,0,0,0,0,0,0,0,0,0,-1,1980,715,0,0
763,309,0,0,0,0,0,0,0,0,0,-1,1987,715,0,0
770,309,0,0,0,0,0,0,0,0,0,-1,1994,715,0,0
777,309,0,0,0,0,0,0,0,0,0,-1,2001,715,0,0
784,309,0,0,0,0,0,0,0,0,0,-1,2008,715,0,0
791,309,0,0,0,0,0,0,0,0,0,-1,2015,715,0,0
798,309,0,0,0,0,0,0,0,0,0,-1,2022,715,0,0
805,309,0,0,0,0,0,0,0,0,0,-1,2029,715,0,0
812,309,0,0,0,0,0,0,0,0,0,-1,2036,715,0,0
-700,302,0,0,0,0,0,0,0,0,0,-1,524,722,0,0
-693,302,0,0,0,0,0,0,0,0,0,-1,531,722,0,0
-686,302,0,0,0,0,0,0,0,0,0,-1,538,722,0,0
-679,302,0,0,0,0,0,0,0,0,0,-1,545,722,0,0
-672,302,0,0,0,0,0,0,0,0,0,-1,552,722,0,0
-665,302,0,0,0,0,0,0,0,0,0,-1,559,722,0,0
-658,302,0,0,0,0,0,0,0,0,0,-1,566,722,0,0
-651,302,0,0,0,0,0,0,0,0,0,-1,573,722,0,0
-644,302,0,0,0,0,0,0,0,0,0,-1,580,722,0,0
-637,302,0,0,0,0,0,0,0,0,0,-1,587,722,0,0
-630,302,0,0,0,0,0,0,0,0,0,-1,594,722,0,0
-623,302,0,0,0,0,0,0,0,0,0,-1,601,722,0,0
-616,302,0,0,0,0,0,0,0,0,0,-1,608,722,0,0
-609,302,-7.79266,-3.71649,0,0,0,0,0,0,0,-1,615,722,-7.79267,3.7165
-602,302,0.92865,-1.99158,0,0,0,0,0,0,0,-1,622,722,0.928637,1.99157
-595,302,-7.89941,2.13641,0,0,0,0,0,0,0,-1,629,722,-7.89939,-2.13639
-588,302,-7.10895,1.79163,0,0,0,0,0,0,0,-1,636,722,-7.10896,-1.79163
-581,302,-9.17566,1.09448,0,0,0,0,0,0,0,-1,643,722,-9.17569,-1.09445
-574,302,-11.5183,-0.344543,0,0,0,0,0,0,0,-1,650,722,-11.5183,0.344557
-567,302,-12.1534,-0.672241,0,0,0,0,0,0,0,-1,657,722,-12.1535,0.672246
-560,302,-31.5998,-1.52771,0,0,0,0,0,0,0,-1,664,722,-31.5998,1.52773
-553,302,-31.5247,-2.55212,0.00046266,0.00300724,-0.00154155,0.00373373,-0.000263824,-1.1304,0.00258159,0.0480881,671,722,-31.5247,2.55213
-546,302,-31.5035,-3.62128,0.00108919,0.00242923,-0.00143008,0.00333847,0.000179953,-1.00447,0.00216815,0.021188,678,722,-31.5035,3.62127
-539,302,-31.5525,-4.617,0.00124974,0.00166127,-0.00109578,0.00257043,0.000340575,-0.878209,0.00161213,0.0167487,685,722,-31.5525,4.61697
-532,302,-31.6116,-5.62573,0.001107,0.000913251,-0.000682229,0.0016992,0.000321053,-0.714871,0.00104239,0.014689,692,722,-31.6116,5.62574
-525,302,-31.6445,-6.71045,0.000724017,0.000183885,-0.000220989,0.000802909,0.000104993,-0.342894,0.000503934,0.0204484,699,722,-31.6445,6.71048
-518,302,-31.7026,-7.68805,0.000240821,-0.000471923,0.000280569,0.000338012,-0.000569115,0.333472,0.000529365,0.0230235,706,722,-31.7026,7.68807
-511,302,-31.7885,-8.66132,-0.000476841,-0.00112744,0.00079909,6.06256e-05,-0.0016649,0.592098,0.00113069,0.0113299,713,722,-31.7885,8.6613
-504,302,-31.8832,-9.67926,-0.00131405,-0.00172165,0.00135439,-0.000148208,-0.00288748,0.710721,0.00187754,0.00946603,720,722,-31.8832,9.67928
-497,302,-31.9926,-10.653,-0.00203409,-0.00225542,0.00177137,-0.000369928,-0.00391958,0.754201,0.00249889,0.0164229,727,722,-31.9926,10.6529
-490,302,-32.0982,-11.6285,0,0,0,0,0,0,0,-1,734,722,-32.0982,11.6285
-483,302,-9.53412,-3.1673,0,0,0,0,0,0,0,-1,741,722,-9.53411,3.1673
-476,302,-4.29749,-0.203491,0,0,0,0,0,0,0,-1,748,722,-4.29751,0.203464
-469,302,-12.369,1.42859,0,0,0,0,0,0,0,-1,755,722,-12.3689,-1.42857
-462,302,-17.4766,0.310791,0,0,0,0,0,0,0,-1,762,722,-17.4766,-0.310788
-455,302,-36.7368,-2.97418,0,0,0,0,0,0,0,-1,769,722,-36.7368,2.97416
-448,302,-42.1174,-1.44232,0,0,0,0,0,0,0,-1,776,722,-42.1174,1.44229
-441,302,-46.7637,0.580078,0,0,0,0,0,0,0,-1,783,722,-46.7636,-0.58007
-434,302,-46.574,1.30511,0,0,0,0,0,0,0,-1,790,722,-46.574,-1.30509
-427,302,-46.7514,1.51532,0,0,0,0,0,0,0,-1,797,722,-46.7514,-1.51532
-420,302,0,0,0,0,0,0,0,0,0,-1,804,722,0,0
-413,302,0,0,0,0,0,0,0,0,0,-1,811,722,0,0
-406,302,0,0,0,0,0,0,0,0,0,-1,818,722,0,0
-399,302,0,0,0,0,0,0,0,0,0,-1,825,722,0,0
-392,302,0,0,0,0,0,0,0,0,0,-1,832,722,0,0
-385,302,0,0,0,0,0,0,0,0,0,-1,839,722,0,0
-378,302,0,0,0,0,0,0,0,0,0,-1,846,722,0,0
-371,302,0,0,0,0,0,0,0,0,0,-1,853,722,0,0
-364,302,0,0,0,0,0,0,0,0,0,-1,860,722,0,0
-357,302,0,0,0,0,0,0,0,0,0,-1,867,722,0,0
-350,302,0,0,0,0,0,0,0,0,0,-1,874,722,0,0
-343,302,0,0,0,0,0,0,0,0,0,-1,881,722,0,0
-336,302,0,0,0,0,0,0,0,0,0,-1,888,722,0,0
-329,302,0,0,0,0,0,0,0,0,0,-1,895,722,0,0
-322,302,0,0,0,0,0,0,0,0,0,-1,902,722,0,0
-315,302,0,0,0,0,0,0,0,0,0,-1,909,722,0,0
-308,302,0,0,0,0,0,0,0,0,0,-1,916,722,0,0
-301,302,0,0,0,0,0,0,0,0,0,-1,923,722,0,0
-294,302,0,0,0,0,0,0,0,0,0,-1,930,722,0,0
-287,302,0,0,0,0,0,0,0,0,0,-1,937,722,0,0
-280,302,0,0,0,0,0,0,0,0,0,-1,944,722,0,0
-273,302,0,0,0,0,0,0,0,0,0,-1,951,722,0,0
-266,302,0,0,0,0,0,0,0,0,0,-1,958,722,0,0
-259,302,0,0,0,0,0,0,0,0,0,-1,965,722,0,0
-252,302,0,0,0,0,0,0,0,0,0,-1,972,722,0,0
-245,302,0,0,0,0,0,0,0,0,0,-1,979,722,0,0
-238,302,0,0,0,0,0,0,0,0,0,-1,986,722,0,0
-231,302,0,0,0,0,0,0,0,0,0,-1,993,722,0,0
-224,302,0,0,0,0,0,0,0,0,0,-1,1000,722,0,0
-217,302,0,0,0,0,0,0,0,0,0,-1,1007,722,0,0
-210,302,0,0,0,0,0,0,0,0,0,-1,1014,722,0,0
-203,302,0,0,0,0,0,0,0,0,0,-1,1021,722,0,0
-196,302,0,0,0,0,0,0,0,0,0,-1,1028,722,0,0
-189,302,0,0,0,0,0,0,0,0,0,-1,1035,722,0,0
-182,302,0,0,0,0,0,0,0,0,0,-1,1042,722,0,0
-175,302,0,0,0,0,0,0,0,0,0,-1,1049,722,0,0
-168,302,0,0,0,0,0,0,0,0,0,-1,1056,722,0,0
-161,302,0,0,0,0,0,0,0,0,0,-1,1063,722,0,0
-154,302,0,0,0,0,0,0,0,0,0,-1,1070,722,0,0
-147,302,0,0,0,0,0,0,0,0,0,-1,1077,722,0,0
-140,302,0,0,0,0,0,0,0,0,0,-1,1084,722,0,0
-133,302,0,0,0,0,0,0,0,0,0,-1,1091,722,0,0
-126,302,0,0,0,0,0,0,0,0,0,-1,1098,722,0,0
-119,302,0,0,0,0,0,0,0,0,0,-1,1105,722,0,0
-112,302,0,0,0,0,0,0,0,0,0,-1,1112,722,0,0
-105,302,0,0,0,0,0,0,0,0,0,-1,1119,722,0,0
-98,302,0,0,0,0,0,0,0,0,0,-1,1126,722,0,0
-91,302,0,0,0,0,0,0,0,0,0,-1,1133,722,0,0
-84,302,0,0,0,0,0,0,0,0,0,-1,1140,722,0,0
-77,302,0,0,0,0,0,0,0,0,0,-1,1147,722,0,0
-70,302,0,0,0,0,0,0,0,0,0,-1,1154,722,0,0
-63,302,0,0,0,0,0,0,0,0,0,-1,1161,722,0,0
-56,302,0,0,0,0,0,0,0,0,0,-1,1168,722,0,0
-49,302,0,0,0,0,0,0,0,0,0,-1,1175,722,0,0
-42,302,0,0,0,0,0,0,0,0,0,-1,1182,722,0,0
-35,302,0,0,0,0,0,0,0,0,0,-1,1189,722,0,0
-28,302,0,0,0,0,0,0,0,0,0,-1,1196,722,0,0
-21,302,0,0,0,0,0,0,0,0,0,-1,1203,722,0,0
-14,302,0,0,0,0,0,0,0,0,0,-1,1210,722,0,0
-7,302,0,0,0,0,0,0,0,0,0,-1,1217,722,0,0
0,302,0,0,0,0,0,0,0,0,0,-1,1224,722,0,0
7,302,0,0,0,0,0,0,0,0,0,-1,1231,722,0,0
14,302,0,0,0,0,0,0,0,0,0,-1,1238,722,0,0
21,302,0,0,0,0,0,0,0,0,0,-1,1245,722,0,0
28,302,0,0,0,0,0,0,0,0,0,-1,1252,722,0,0
35,302,0,0,0,0,0,0,0,0,0,-1,1259,722,0,0
42,302,0,0,0,0,0,0,0,0,0,-1,1266,722,0,0
49,302,0,0,0,0,0,0,0,0,0,-1,1273,722,0,0
56,302,0,0,0,0,0,0,0,0,0,-1,1280,722,0,0
63,302,0,0,0,0,0,0,0,0,0,-1,1287,722,0,0
70,302,0,0,0,0,0,0,0,0,0,-1,1294,722,0,0
77,302,0,0,0,0,0,0,0,0,0,-1,1301,722,0,0
84,302,0,0,0,0,0,0,0,0,0,-1,1308,722,0,0
91,302,0,0,0,0,0,0,0,0,0,-1,1315,722,0,0
98,302,0,0,0,0,0,0,0,0,0,-1,1322,722,0,0
105,302,0,0,0,0,0,0,0,0,0,-1,1329,722,0,0
112,302,0,0,0,0,0,0,0,0,0,-1,1336,722,0,0
119,302,0,0,0,0,0,0,0,0,0,-1,1343,722,0,0
126,302,0,0,0,0,0,0,0,0,0,-1,1350,722,0,0
133,302,0,0,0,0,0,0,0,0,0,-1,1357,722,0,0
140,302,0,0,0,0,0,0,0,0,0,-1,1364,722,0,0
147,302,0,0,0,0,0,0,0,0,0,-1,1371,722,0,0
154,302,0,0,0,0,0,0,0,0,0,-1,1378,722,0,0
161,302,0,0,0,0,0,0,0,0,0,-1,1385,722,0,0
168,302,0,0,0,0,0,0,0,0,0,-1,1392,722,0,0
175,302,0,0,0,0,0,0,0,0,0,-1,1399,722,0,0
182,302,0,0,0,0,0,0,0,0,0,-1,1406,722,0,0
189,302,0,0,0,0,0,0,0,0,0,-1,1413,722,0,0
196,302,0,0,0,0,0,0,0,0,0,-1,1420,722,0,0
203,302,0,0,0,0,0,0,0,0,0,-1,1427,722,0,0
210,302,0,0,0,0,0,0,0,0,0,-1,1434,722,0,0
217,302,0,0,0,0,0,0,0,0,0,-1,1441,722,0,0
224,302,0,0,0,0,0,0,0,0,0,-1,1448,722,0,0
231,302,0,0,0,0,0,0,0,0,0,-1,1455,722,0,0
238,302,0,0,0,0,0,0,0,0,0,-1,1462,722,0,0
245,302,0,0,0,0,0,0,0,0,0,-1,1469,722,0,0
252,302,0,0,0,0,0,0,0,0,0,-1,1476,722,0,0
259,302,0,0,0,0,0,0,0,0,0,-1,1483,722,0,0
266,302,0,0,0,0,0,0,0,0,0,-1,1490,722,0,0
273,302,0,0,0,0,0,0,0,0,0,-1,1497,722,0,0
280,302,0,0,0,0,0,0,0,0,0,-1,1504,722,0,0
287,302,0,0,0,0,0,0,0,0,0,-1,1511,722,0,0
294,302,0,0,0,0,0,0,0,0,0,-1,1518,722,0,0
301,302,0,0,0,0,0,0,0,0,0,-1,1525,722,0,0
308,302,0,0,0,0,0,0,0,0,0,-1,1532,722,0,0
315,302,0,0,0,0,0,0,0,0,0,-1,1539,722,0,0
322,302,0,0,0,0,0,0,0,0,0,-1,1546,722,0,0
329,302,0,0,0,0,0,0,0,0,0,-1,1553,722,0,0
336,302,0,0,0,0,0,0,0,0,0,-1,1560,722,0,0
343,302,0,0,0,0,0,0,0,0,0,-1,1567,722,0,0
350,302,0,0,0,0,0,0,0,0,0,-1,1574,722,0,0
357,302,0,0,0,0,0,0,0,0,0,-1,1581,722,0,0
364,302,0,0,0,0,0,0,0,0,0,-1,1588,722,0,0
371,302,0,0,0,0,0,0,0,0,0,-1,1595,722,0,0
378,302,0,0,0,0,0,0,0,0,0,-1,1602,722,0,0
385,302,0,0,0,0,0,0,0,0,0,-1,1609,722,0,0
392,302,0,0,0,0,0,0,0,0,0,-1,1616,722,0,0
399,302,0,0,0,0,0,0,0,0,0,-1,1623,722,0,0
406,302,0,0,0,0,0,0,0,0,0,-1,1630,722,0,0
413,302,0,0,0,0,0,0,0,0,0,-1,1637,722,0,0
420,302,0,0,0,0,0,0,0,0,0,-1,1644,722,0,0
427,302,0,0,0,0,0,0,0,0,0,-1,1651,722,0,0
434,302,0,0,0,0,0,0,0,0,0,-1,1658,722,0,0
441,302,0,0,0,0,0,0,0,0,0,-1,1665,722,0,0
448,302,0,0,0,0,0,0,0,0,0,-1,1672,722,0,0
455,302,0,0,0,0,0,0,0,0,0,-1,1679,722,0,0
462,302,0,0,0,0,0,0,0,0,0,-1,1686,722,0,0
469,302,0,0,0,0,0,0,0,0,0,-1,1693,722,0,0
476,302,0,0,0,0,0,0,0,0,0,-1,1700,722,0,0
483,302,0,0,0,0,0,0,0,0,0,-1,1707,722,0,0
490,302,0,0,0,0,0,0,0,0,0,-1,1714,722,0,0
497,302,0,0,0,0,0,0,0,0,0,-1,1721,722,0,0
504,302,0,0,0,0,0,0,0,0,0,-1,1728,722,0,0
511,302,0,0,0,0,0,0,0,0,0,-1,1735,722,0,0
518,302,0,0,0,0,0,0,0,0,0,-1,1742,722,0,0
525,302,0,0,0,0,0,0,0,0,0,-1,1749,722,0,0
532,302,0,0,0,0,0,0,0,0,0,-1,1756,722,0,0
539,302,0,0,0,0,0,0,0,0,0,-1,1763,722,0,0
546,302,48.9873,1.50562,0,0,0,0,0,0,0,-1,1770,722,48.9873,-1.50562
553,302,56.7844,3.46533,0,0,0,0,0,0,0,-1,1777,722,56.7844,-3.4653
560,302,56.7115,3.84808,0,0,0,0,0,0,0,-1,1784,722,56.7116,-3.84806
567,302,55.9475,4.24542,0,0,0,0,0,0,0,-1,1791,722,55.9475,-4.24542
574,302,45.9537,6.00867,0,0,0,0,0,0,0,-1,1798,722,45.9537,-6.00864
581,302,45.137,7.38043,0,0,0,0,0,0,0,-1,1805,722,45.1369,-7.38044
588,302,26.9731,7.19983,0,0,0,0,0,0,0,-1,1812,722,26.9732,-7.19981
595,302,27.3826,8.13104,0,0,0,0,0,0,0,-1,1819,722,27.3825,-8.13102
602,302,14.7349,5.21246,0,0,0,0,0,0,0,-1,1826,722,14.7349,-5.21247
609,302,31.1039,-6.34253,0,0,0,0,0,0,0,-1,1833,722,31.1039,6.34254
616,302,48.8281,-11.6636,0,0,0,0,0,0,0,-1,1840,722,48.8282,11.6636
623,302,48.7458,-10.693,0.00225371,-0.000715306,0.000843518,0.00247663,-0.000938219,0.258359,0.00203716,0.0185492,1847,722,48.7458,10.693
630,302,48.6444,-9.70483,0.00190151,-0.000543973,0.000655748,0.00206625,-0.000708712,0.246129,0.00166481,0.0110983,1854,722,48.6445,9.70481
637,302,48.5435,-8.70807,0.00166273,-0.000263512,0.000584746,0.00182635,-0.000427125,0.272825,0.00138212,0.0149713,1861,722,48.5435,8.70809
644,302,48.4774,-7.69067,0.00156362,0.000137226,0.000589635,0.0017758,-7.49522e-05,0.34542,0.00120963,0.0163919,1868,722,48.4774,7.69068
651,302,48.4233,-6.66931,0.00159649,0.000621112,0.000664715,0.00193323,0.00028437,0.468912,0.00120526,0.015702,1875,722,48.4233,6.6693
658,302,48.4119,-5.71979,0.00179172,0.00118477,0.000817573,0.00236033,0.000616168,0.607686,0.00141365,0.0165466,1882,722,48.4118,5.7198
665,302,48.3698,-4.71863,0.00209568,0.00185036,0.00106317,0.00304324,0.000902796,0.727966,0.0018048,0.0160416,1889,722,48.3697,4.71865
672,302,48.2706,-3.68274,0.00257672,0.00262118,0.00141481,0.00401393,0.00118396,0.793254,0.00238151,0.0129423,1896,722,48.2706,3.68273
679,302,48.1833,-2.64606,0.00320883,0.00353267,0.00187271,0.00525044,0.00149105,0.828523,0.00312422,0.0110762,1903,722,48.1834,2.64604
686,302,48.1472,-1.57104,0.00406619,0.00457181,0.00251488,0.00684656,0.00179144,0.835493,0.00409983,0.0279439,1910,722,48.1473,1.57107
693,302,48.0602,-0.511475,0,0,0,0,0,0,0,-1,1917,722,48.0601,0.511444
700,302,25.4069,1.97308,0,0,0,0,0,0,0,-1,1924,722,25.4068,-1.97311
707,302,16.7321,4.76685,0,0,0,0,0,0,0,-1,1931,722,16.7321,-4.76687
714,302,17.2,5.77594,0,0,0,0,0,0,0,-1,1938,722,17.2,-5.77595
721,302,17.7914,6.60394,0,0,0,0,0,0,0,-1,1945,722,17.7914,-6.60395
728,302,17.2798,4.81702,0,0,0,0,0,0,0,-1,1952,722,17.2798,-4.81703
735,302,0,0,0,0,0,0,0,0,0,-1,1959,722,0,0
742,302,0,0,0,0,0,0,0,0,0,-1,1966,722,0,0
749,302,0,0,0,0,0,0,0,0,0,-1,1973,722,0,0
756,302,0,0,0,0,0,0,0,0,0,-1,1980,722,0,0
763,302,0,0,0,0,0,0,0,0,0,-1,1987,722,0,0
770,302,0,0,0,0,0,0,0,0,0,-1,1994,722,0,0
777,302,0,0,0,0,0,0,0,0,0,-1,2001,722,0,0
784,302,0,0,0,0,0,0,0,0,0,-1,2008,722,0,0
791,302,0,0,0,0,0,0,0,0,0,-1,2015,722,0,0
798,302,0,0,0,0,0,0,0,0,0,-1,2022,722,0,0
805,302,0,0,0,0,0,0,0,0,0,-1,2029,722,0,0
812,302,0,0,0,0,0,0,0,0,0,-1,2036,722,0,0
-700,295,0,0,0,0,0,0,0,0,0,-1,524,729,0,0
-693,295,0,0,0,0,0,0,0,0,0,-1,531,729,0,0
-686,295,0,0,0,0,0,0,0,0,0,-1,538,729,0,0
-679,295,0,0,0,0,0,0,0,0,0,-1,545,729,0,0
-672,295,0,0,0,0,0,0,0,0,0,-1,552,729,0,0
-665,295,0,0,0,0,0,0,0,0,0,-1,559,729,0,0
-658,295,0,0,0,0,0,0,0,0,0,-1,566,729,0,0
-651,295,0,0,0,0,0,0,0,0,0,-1,573,729,0,0
-644,295,0,0,0,0,0,0,0,0,0,-1,580,729,0,0
-637,295,0,0,0,0,0,0,0,0,0,-1,587,729,0,0
-630,295,0,0,0,0,0,0,0,0,0,-1,594,729,0,0
-623,295,0,0,0,0,0,0,0,0,0,-1,601,729,0,0
-616,295,-13.4911,1.31738,0,0,0,0,0,0,0,-1,608,729,-13.4911,-1.3174
-609,295,-10.2864,0.832031,0,0,0,0,0,0,0,-1,615,729,-10.2863,-0.832034
-602,295,-8.19006,3.01587,0,0,0,0,0,0,0,-1,622,729,-8.19005,-3.01588
-595,295,-0.615479,-1.95447,0,0,0,0,0,0,0,-1,629,729,-0.615481,1.95445
-588,295,-7.98999,1.56903,0,0,0,0,0,0,0,-1,636,729,-7.98997,-1.56905
-581,295,-12.0404,0.150574,0,0,0,0,0,0,0,-1,643,729,-12.0404,-0.150604
-574,295,-12.1605,-0.0739746,0,0,0,0,0,0,0,-1,650,729,-12.1605,0.0739856
-567,295,-32.0501,-0.339172,0,0,0,0,0,0,0,-1,657,729,-32.0501,0.339175
-560,295,-32.34,-1.53522,-0.00124535,0.00258992,-0.000696559,0.00271251,-0.00136794,-1.39659,0.0023981,0.0434873,664,729,-32.34,1.53522
-553,295,-32.387,-2.57361,-0.000120926,0.00189001,-0.000768318,0.00214996,-0.000380875,-1.24455,0.00157568,0.024293,671,729,-32.387,2.5736
-546,295,-32.5257,-3.54309,0.000381917,0.00149038,-0.000714598,0.00184049,3.1813e-05,-1.11524,0.00121652,0.0234298,678,729,-32.5257,3.54308
-539,295,-32.5868,-4.5144,0.000481679,0.000964766,-0.000501603,0.00127995,0.000166492,-1.00979,0.000803574,0.020909,685,729,-32.5868,4.51438
-532,295,-32.6381,-5.52893,0.000331824,0.000398321,-0.000188131,0.000556119,0.000174026,-0.87286,0.000328481,0.0162672,692,729,-32.6381,5.52893
-525,295,-32.6995,-6.60126,-5.49686e-05,-0.000217076,0.000180915,6.22196e-05,-0.000334264,0.574794,0.000246217,0.0159308,699,729,-32.6995,6.60124
-518,295,-32.7222,-7.60571,-0.000579563,-0.000771106,0.000652332,-1.60103e-05,-0.00133466,0.712512,0.000884484,0.012052,706,729,-32.7223,7.6057
-511,295,-32.8071,-8.58405,-0.00124795,-0.00151457,0.00117125,-0.000202449,-0.00256007,0.728733,0.00164339,0.00987988,713,729,-32.8071,8.58404
-504,295,-32.8989,-9.57269,-0.00197664,-0.00223318,0.00177262,-0.00032766,-0.00388216,0.749281,0.0024861,0.0121246,720,729,-32.8989,9.57272
-497,295,-33.0075,-10.4883,-0.00246312,-0.00304272,0.00230298,-0.000431784,-0.00507406,0.722809,0.00324836,0.0279824,727,729,-33.0075,10.4883
-490,295,-33.1227,-11.3768,0,0,0,0,0,0,0,-1,734,729,-33.1228,11.3768
-483,295,-6.84503,-0.454651,0,0,0,0,0,0,0,-1,741,729,-6.84505,0.454639
-476,295,-13.1738,-0.836243,0,0,0,0,0,0,0,-1,748,729,-13.1738,0.836223
-469,295,-26.5608,-0.466187,0,0,0,0,0,0,0,-1,755,729,-26.5608,0.466162
-462,295,-29.7701,-0.792664,0,0,0,0,0,0,0,-1,762,729,-29.7701,0.792642
-455,295,-45.11,-2.79272,0,0,0,0,0,0,0,-1,769,729,-45.11,2.79272
-448,295,-48.0288,1.41229,0,0,0,0,0,0,0,-1,776,729,-48.0288,-1.41227
-441,295,-47.1089,1.03058,0,0,0,0,0,0,0,-1,783,729,-47.109,-1.0306
-434,295,-46.2319,1.10614,0,0,0,0,0,0,0,-1,790,729,-46.2319,-1.10612
-427,295,0,0,0,0,0,0,0,0,0,-1,797,729,0,0
-420,295,0,0,0,0,0,0,0,0,0,-1,804,729,0,0
-413,295,0,0,0,0,0,0,0,0,0,-1,811,729,0,0
-406,295,0,0,0,0,0,0,0,0,0,-1,818,729,0,0
-399,295,0,0,0,0,0,0,0,0,0,-1,825,729,0,0
-392,295,0,0,0,0,0,0,0,0,0,-1,832,729,0,0
-385,295,0,0,0,0,0,0,0,0,0,-1,839,729,0,0
-378,295,0,0,0,0,0,0,0,0,0,-1,846,729,0,0
-371,295,0,0,0,0,0,0,0,0,0,-1,853,729,0,0
-364,295,0,0,0,0,0,0,0,0,0,-1,860,729,0,0
-357,295,0,0,0,0,0,0,0,0,0,-1,867,729,0,0
-350,295,0,0,0,0,0,0,0,0,0,-1,874,729,0,0
-343,295,0,0,0,0,0,0,0,0,0,-1,881,729,0,0
-336,295,0,0,0,0,0,0,0,0,0,-1,888,729,0,0
-329,295,0,0,0,0,0,0,0,0,0,-1,895,729,0,0
-322,295,0,0,0,0,0,0,0,0,0,-1,902,729,0,0
-315,295,0,0,0,0,0,0,0,0,0,-1,909,729,0,0
-308,295,0,0,0,0,0,0,0,0,0,-1,916,729,0,0
-301,295,0,0,0,0,0,0,0,0,0,-1,923,729,0,0
-294,295,0,0,0,0,0,0,0,0,0,-1,930,729,0,0
-287,295,0,0,0,0,0,0,0,0,0,-1,937,729,0,0
-280,295,0,0,0,0,0,0,0,0,0,-1,944,729,0,0
-273,295,0,0,0,0,0,0,0,0,0,-1,951,729,0,0
-266,295,0,0,0,0,0,0,0,0,0,-1,958,729,0,0
-259,295,0,0,0,0,0,0,0,0,0,-1,965,729,0,0
-252,295,0,0,0,0,0,0,0,0,0,-1,972,729,0,0
-245,295,0,0,0,0,0,0,0,0,0,-1,979,729,0,0
-238,295,0,0,0,0,0,0,0,0,0,-1,986,729,0,0
-231,295,0,0,0,0,0,0,0,0,0,-1,993,729,0,0
-224,295,0,0,0,0,0,0,0,0,0,-1,1000,729,0,0
-217,295,0,0,0,0,0,0,0,0,0,-1,1007,729,0,0
-210,295,0,0,0,0,0,0,0,0,0,-1,1014,729,0,0
-203,295,0,0,0,0,0,0,0,0,0,-1,1021,729,0,0
-196,295,0,0,0,0,0,0,0,0,0,-1,1028,729,0,0
-189,295,0,0,0,0,0,0,0,0,0,-1,1035,729,0,0
-182,295,0,0,0,0,0,0,0,0,0,-1,1042,729,0,0
-175,295,0,0,0,0,0,0,0,0,0,-1,1049,729,0,0
-168,295,0,0,0,0,0,0,0,0,0,-1,1056,729,0,0
-161,295,0,0,0,0,0,0,0,0,0,-1,1063,729,0,0
-154,295,0,0,0,0,0,0,0,0,0,-1,1070,729,0,0
-147,295,0,0,0,0,0,0,0,0,0,-1,1077,729,0,0
-140,295,0,0,0,0,0,0,0,0,0,-1,1084,729,0,0
-133,295,0,0,0,0,0,0,0,0,0,-1,1091,729,0,0
-126,295,0,0,0,0,0,0,0,0,0,-1,1098,729,0,0
-119,295,0,0,0,0,0,0,0,0,0,-1,1105,729,0,0
-112,295,0,0,0,0,0,0,0,0,0,-1,1112,729,0,0
-105,295,0,0,0,0,0,0,0,0,0,-1,1119,729,0,0
-98,295,0,0,0,0,0,0,0,0,0,-1,1126,729,0,0
-91,295,0,0,0,0,0,0,0,0,0,-1,1133,729,0,0
-84,295,0,0,0,0,0,0,0,0,0,-1,1140,729,0,0
-77,295,0,0,0,0,0,0,0,0,0,-1,1147,729,0,0
-70,295,0,0,0,0,0,0,0,0,0,-1,1154,729,0,0
-63,295,0,0,0,0,0,0,0,0,0,-1,1161,729,0,0
-56,295,0,0,0,0,0,0,0,0,0,-1,1168,729,0,0
-49,295,0,0,0,0,0,0,0,0,0,-1,1175,729,0,0
-42,295,0,0,0,0,0,0,0,0,0,-1,1182,729,0,0
-35,295,0,0,0,0,0,0,0,0,0,-1,1189,729,0,0
-28,295,0,0,0,0,0,0,0,0,0,-1,1196,729,0,0
-21,295,0,0,0,0,0,0,0,0,0,-1,1203,729,0,0
-14,295,0,0,0,0,0,0,0,0,0,-1,1210,729,0,0
-7,295,0,0,0,0,0,0,0,0,0,-1,1217,729,0,0
0,295,0,0,0,0,0,0,0,0,0,-1,1224,729,0,0
7,295,0,0,0,0,0,0,0,0,0,-1,1231,729,0,0
14,295,0,0,0,0,0,0,0,0,0,-1,1238,729,0,0
21,295,0,0,0,0,0,0,0,0,0,-1,1245,729,0,0
28,295,0,0,0,0,0,0,0,0,0,-1,1252,729,0,0
35,295,0,0,0,0,0,0,0,0,0,-1,1259,729,0,0
42,295,0,0,0,0,0,0,0,0,0,-1,1266,729,0,0
49,295,0,0,0,0,0,0,0,0,0,-1,1273,729,0,0
56,295,0,0,0,0,0,0,0,0,0,-1,1280,729,0,0
63,295,0,0,0,0,0,0,0,0,0,-1,1287,729,0,0
70,295,0,0,0,0,0,0,0,0,0,-1,1294,729,0,0
77,295,0,0,0,0,0,0,0,0,0,-1,1301,729,0,0
84,295,0,0,0,0,0,0,0,0,0,-1,1308,729,0,0
91,295,0,0,0,0,0,0,0,0,0,-1,1315,729,0,0
98,295,0,0,0,0,0,0,0,0,0,-1,1322,729,0,0
105,295,0,0,0,0,0,0,0,0,0,-1,1329,729,0,0
112,295,0,0,0,0,0,0,0,0,0,-1,1336,729,0,0
119,295,0,0,0,0,0,0,0,0,0,-1,1343,729,0,0
126,295,0,0,0,0,0,0,0,0,0,-1,1350,729,0,0
133,295,0,0,0,0,0,0,0,0,0,-1,1357,729,0,0
140,295,0,0,0,0,0,0,0,0,0,-1,1364,729,0,0
147,295,0,0,0,0,0,0,0,0,0,-1,1371,729,0,0
154,295,0,0,0,0,0,0,0,0,0,-1,1378,729,0,0
161,295,0,0,0,0,0,0,0,0,0,-1,1385,729,0,0
168,295,0,0,0,0,0,0,0,0,0,-1,1392,729,0,0
175,295,0,0,0,0,0,0,0,0,0,-1,1399,729,0,0
182,295,0,0,0,0,0,0,0,0,0,-1,1406,729,0,0
189,295,0,0,0,0,0,0,0,0,0,-1,1413,729,0,0
196,295,0,0,0,0,0,0,0,0,0,-1,1420,729,0,0
203,295,0,0,0,0,0,0,0,0,0,-1,1427,729,0,0
210,295,0,0,0,0,0,0,0,0,0,-1,1434,729,0,0
217,295,0,0,0,0,0,0,0,0,0,-1,1441,729,0,0
224,295,0,0,0,0,0,0,0,0,0,-1,1448,729,0,0
231,295,0,0,0,0,0,0,0,0,0,-1,1455,729,0,0
238,295,0,0,0,0,0,0,0,0,0,-1,1462,729,0,0
245,295,0,0,0,0,0,0,0,0,0,-1,1469,729,0,0
252,295,0,0,0,0,0,0,0,0,0,-1,1476,729,0,0
259,295,0,0,0,0,0,0,0,0,0,-1,1483,729,0,0
266,295,0,0,0,0,0,0,0,0,0,-1,1490,729,0,0
273,295,0,0,0,0,0,0,0,0,0,-1,1497,729,0,0
280,295,0,0,0,0,0,0,0,0,0,-1,1504,729,0,0
287,295,0,0,0,0,0,0,0,0,0,-1,1511,729,0,0
294,295,0,0,0,0,0,0,0,0,0,-1,1518,729,0,0
301,295,0,0,0,0,0,0,0,0,0,-1,1525,729,0,0
308,295,0,0,0,0,0,0,0,0,0,-1,1532,729,0,0
315,295,0,0,0,0,0,0,0,0,0,-1,1539,729,0,0
322,295,0,0,0,0,0,0,0,0,0,-1,1546,729,0,0
329,295,0,0,0,0,0,0,0,0,0,-1,1553,729,0,0
336,295,0,0,0,0,0,0,0,0,0,-1,1560,729,0,0
343,295,0,0,0,0,0,0,0,0,0,-1,1567,729,0,0
350,295,0,0,0,0,0,0,0,0,0,-1,1574,729,0,0
357,295,0,0,0,0,0,0,0,0,0,-1,1581,729,0,0
364,295,0,0,0,0,0,0,0,0,0,-1,1588,729,0,0
371,295,0,0,0,0,0,0,0,0,0,-1,1595,729,0,0
378,295,0,0,0,0,0,0,0,0,0,-1,1602,729,0,0
385,295,0,0,0,0,0,0,0,0,0,-1,1609,729,0,0
392,295,0,0,0,0,0,0,0,0,0,-1,1616,729,0,0
399,295,0,0,0,0,0,0,0,0,0,-1,1623,729,0,0
406,295,0,0,0,0,0,0,0,0,0,-1,1630,729,0,0
413,295,0,0,0,0,0,0,0,0,0,-1,1637,729,0,0
420,295,0,0,0,0,0,0,0,0,0,-1,1644,729,0,0
427,295,0,0,0,0,0,0,0,0,0,-1,1651,729,0,0
434,295,0,0,0,0,0,0,0,0,0,-1,1658,729,0,0
441,295,0,0,0,0,0,0,0,0,0,-1,1665,729,0,0
448,295,0,0,0,0,0,0,0,0,0,-1,1672,729,0,0
455,295,0,0,0,0,0,0,0,0,0,-1,1679,729,0,0
462,295,0,0,0,0,0,0,0,0,0,-1,1686,729,0,0
469,295,0,0,0,0,0,0,0,0,0,-1,1693,729,0,0
476,295,0,0,0,0,0,0,0,0,0,-1,1700,729,0,0
483,295,0,0,0,0,0,0,0,0,0,-1,1707,729,0,0
490,295,0,0,0,0,0,0,0,0,0,-1,1714,729,0,0
497,295,0,0,0,0,0,0,0,0,0,-1,1721,729,0,0
504,295,0,0,0,0,0,0,0,0,0,-1,1728,729,0,0
511,295,0,0,0,0,0,0,0,0,0,-1,1735,729,0,0
518,295,0,0,0,0,0,0,0,0,0,-1,1742,729,0,0
525,295,0,0,0,0,0,0,0,0,0,-1,1749,729,0,0
532,295,0,0,0,0,0,0,0,0,0,-1,1756,729,0,0
539,295,0,0,0,0,0,0,0,0,0,-1,1763,729,0,0
546,295,57.4674,2.36884,0,0,0,0,0,0,0,-1,1770,729,57.4674,-2.36883
553,295,57.1969,2.73846,0,0,0,0,0,0,0,-1,1777,729,57.197,-2.73843
560,295,57.0291,3.27454,0,0,0,0,0,0,0,-1,1784,729,57.029,-3.27454
567,295,56.6243,3.88239,0,0,0,0,0,0,0,-1,1791,729,56.6242,-3.8824
574,295,56.5275,4.755,0,0,0,0,0,0,0,-1,1798,729,56.5274,-4.75501
581,295,37.8191,2.19592,0,0,0,0,0,0,0,-1,1805,729,37.8191,-2.19594
588,295,39.0542,2.45679,0,0,0,0,0,0,0,-1,1812,729,39.0542,-2.45676
595,295,27.2102,6.99121,0,0,0,0,0,0,0,-1,1819,729,27.2103,-6.99121
602,295,26.9065,7.82141,0,0,0,0,0,0,0,-1,1826,729,26.9064,-7.8214
609,295,11.7737,2.19989,0,0,0,0,0,0,0,-1,1833,729,11.7736,-2.19988
616,295,45.2537,-10.4867,0,0,0,0,0,0,0,-1,1840,729,45.2537,10.4867
623,295,49.7261,-10.6141,0,0,0,0,0,0,0,-1,1847,729,49.726,10.6141
630,295,49.6443,-9.61353,0.00269094,-0.00123582,0.00115851,0.00300726,-0.00155214,0.266539,0.00267668,0.0145578,1854,729,49.6443,9.61351
637,295,49.5686,-8.6098,0.00199154,-0.000574201,0.000775138,0.00220754,-0.000790195,0.271759,0.00179407,0.0145727,1861,729,49.5686,8.60981
644,295,49.5156,-7.61102,0.00156738,-2.07291e-05,0.0005577,0.00174366,-0.000197011,0.306149,0.00123337,0.0138859,1868,729,49.5156,7.61104
651,295,49.4622,-6.59949,0.0014168,0.000494396,0.000509819,0.00164307,0.000268122,0.417713,0.00101785,0.0147058,1875,729,49.4622,6.59949
658,295,49.3999,-5.61139,0.00156109,0.00101167,0.00063477,0.00197805,0.000594716,0.581179,0.00117189,0.014294,1882,729,49.4,5.61141
665,295,49.3228,-4.62915,0.00179971,0.0016235,0.000858934,0.00257504,0.000848162,0.734288,0.00151528,0.0131043,1889,729,49.3227,4.62915
672,295,49.2516,-3.63312,0.00223416,0.00231619,0.00120613,0.00348201,0.00106835,0.802393,0.00205975,0.0150567,1896,729,49.2516,3.63312
679,295,49.1646,-2.62079,0.00291597,0.00310693,0.00171995,0.00473405,0.00128885,0.813126,0.00282614,0.0119363,1903,729,49.1646,2.62078
686,295,49.1594,-1.62018,0.00376925,0.00400592,0.00238661,0.00627712,0.00149805,0.81017,0.00378553,0.0130077,1910,729,49.1595,1.62015
693,295,49.1776,-0.400818,0,0,0,0,0,0,0,-1,1917,729,49.1776,0.400822
700,295,31.3757,2.06982,0,0,0,0,0,0,0,-1,1924,729,31.3758,-2.0698
707,295,22.2661,3.05206,0,0,0,0,0,0,0,-1,1931,729,22.2662,-3.05207
714,295,17.4906,4.63068,0,0,0,0,0,0,0,-1,1938,729,17.4906,-4.63066
721,295,18.3792,5.32281,0,0,0,0,0,0,0,-1,1945,729,18.3791,-5.32283
728,295,17.379,3.74866,0,0,0,0,0,0,0,-1,1952,729,17.379,-3.74863
735,295,0,0,0,0,0,0,0,0,0,-1,1959,729,0,0
742,295,0,0,0,0,0,0,0,0,0,-1,1966,729,0,0
749,295,0,0,0,0,0,0,0,0,0,-1,1973,729,0,0
756,295,0,0,0,0,0,0,0,0,0,-1,1980,729,0,0
763,295,0,0,0,0,0,0,0,0,0,-1,1987,729,0,0
770,295,0,0,0,0,0,0,0,0,0,-1,1994,729,0,0
777,295,0,0,0,0,0,0,0,0,0,-1,2001,729,0,0
784,295,0,0,0,0,0,0,0,0,0,-1,2008,729,0,0
791,295,0,0,0,0,0,0,0,0,0,-1,2015,729,0,0
798,295,0,0,0,0,0,0,0,0,0,-1,2022,729,0,0
805,295,0,0,0,0,0,0,0,0,0,-1,2029,729,0,0
812,295,0,0,0,0,0,0,0,0,0,-1,2036,729,0,0
-700,288,0,0,0,0,0,0,0,0,0,-1,524,736,0,0
-693,288,0,0,0,0,0,0,0,0,0,-1,531,736,0,0
-686,288,0,0,0,0,0,0,0,0,0,-1,538,736,0,0
-679,288,0,0,0,0,0,0,0,0,0,-1,545,736,0,0
-672,288,0,0,0,0,0,0,0,0,0,-1,552,736,0,0
-665,288,0,0,0,0,0,0,0,0,0,-1,559,736,0,0
-658,288,0,0,0,0,0,0,0,0,0,-1,566,736,0,0
-651,288,0,0,0,0,0,0,0,0,0,-1,573,736,0,0
-644,288,0,0,0,0,0,0,0,0,0,-1,580,736,0,0
-637,288,0,0,0,0,0,0,0,0,0,-1,587,736,0,0
-630,288,0,0,0,0,0,0,0,0,0,-1,594,736,0,0
-623,288,0,0,0,0,0,0,0,0,0,-1,601,736,0,0
-616,288,-11.7584,2.4425,0,0,0,0,0,0,0,-1,608,736,-11.7584,-2.44251
-609,288,-10.3007,2.32178,0,0,0,0,0,0,0,-1,615,736,-10.3007,-2.32178
-602,288,-10.1458,-1.85559,0,0,0,0,0,0,0,-1,622,736,-10.1458,1.85556
-595,288,-7.63208,1.81769,0,0,0,0,0,0,0,-1,629,736,-7.63205,-1.81766
-588,288,-8.19269,1.50598,0,0,0,0,0,0,0,-1,636,736,-8.19268,-1.50601
-581,288,-13.1915,0.659241,0,0,0,0,0,0,0,-1,643,736,-13.1915,-0.659228
-574,288,-32.8495,0.618225,0,0,0,0,0,0,0,-1,650,736,-32.8496,-0.618255
-567,288,-33.0728,-0.451477,-0.00260336,0.00156543,-1.10842e-05,0.00156546,-0.00260339,-1.56814,0.00243162,0.0371151,657,736,-33.0728,0.451502
-560,288,-33.3764,-1.54395,-0.00146831,0.00143659,-0.000117392,0.00144132,-0.00147305,-1.53047,0.00168265,0.0181728,664,736,-33.3764,1.54396
-553,288,-33.3822,-2.47864,-0.00062774,0.00107626,-0.000209931,0.00110175,-0.000653222,-1.45,0.0010242,0.0210321,671,736,-33.3822,2.47861
-546,288,-33.4779,-3.45435,-0.000264183,0.00079462,-0.000179519,0.000824229,-0.000293792,-1.40733,0.000669268,0.0235059,678,736,-33.4779,3.45437
-539,288,-33.5667,-4.46112,-0.000251057,0.000441111,-4.60954e-05,0.000444167,-0.000254113,-1.50459,0.000408099,0.0197419,685,736,-33.5666,4.4611
-532,288,-33.5818,-5.47736,-0.000459954,1.97907e-05,0.000191373,8.67771e-05,-0.00052694,1.23409,0.000383506,0.0166874,692,736,-33.5818,5.47733
-525,288,-33.6705,-6.49377,-0.000838509,-0.0005196,0.000463374,-0.000189012,-0.0011691,0.95111,0.000724657,0.0147009,699,736,-33.6705,6.49376
-518,288,-33.7712,-7.50299,-0.00129474,-0.00106118,0.000886658,-0.000283646,-0.00207228,0.850874,0.00129735,0.0125583,706,736,-33.7712,7.503
-511,288,-33.8502,-8.4762,-0.00161976,-0.00207823,0.00132317,-0.00050612,-0.00319188,0.699626,0.00198088,0.00958727,713,736,-33.8502,8.47619
-504,288,-33.9363,-9.46448,-0.00186851,-0.00312258,0.00185319,-0.000539147,-0.00445194,0.622267,0.00280556,0.0124904,720,736,-33.9364,9.46449
-497,288,-33.9483,-10.2153,-0.00166724,-0.00445872,0.0023413,-0.000337224,-0.00578874,0.516611,0.00375181,0.0396882,727,736,-33.9483,10.2153
-490,288,-33.7902,-10.8888,0,0,0,0,0,0,0,-1,734,736,-33.7902,10.8888
-483,288,-17.3287,0.564758,0,0,0,0,0,0,0,-1,741,736,-17.3287,-0.56477
-476,288,-26.136,0.452148,0,0,0,0,0,0,0,-1,748,736,-26.136,-0.452177
-469,288,-27.7904,0.649841,0,0,0,0,0,0,0,-1,755,736,-27.7904,-0.649854
-462,288,-44.999,-2.65112,0,0,0,0,0,0,0,-1,762,736,-44.999,2.65111
-455,288,-49.1631,1.86432,0,0,0,0,0,0,0,-1,769,736,-49.1632,-1.8643
-448,288,-55.5283,0.0455933,0,0,0,0,0,0,0,-1,776,736,-55.5284,-0.0456
-441,288,-55.0096,0.39325,0,0,0,0,0,0,0,-1,783,736,-55.0096,-0.393269
-434,288,-46.7119,1.66388,0,0,0,0,0,0,0,-1,790,736,-46.7119,-1.66385
-427,288,0,0,0,0,0,0,0,0,0,-1,797,736,0,0
-420,288,0,0,0,0,0,0,0,0,0,-1,804,736,0,0
-413,288,0,0,0,0,0,0,0,0,0,-1,811,736,0,0
-406,288,0,0,0,0,0,0,0,0,0,-1,818,736,0,0
-399,288,0,0,0,0,0,0,0,0,0,-1,825,736,0,0
-392,288,0,0,0,0,0,0,0,0,0,-1,832,736,0,0
-385,288,0,0,0,0,0,0,0,0,0,-1,839,736,0,0
-378,288,0,0,0,0,0,0,0,0,0,-1,846,736,0,0
-371,288,0,0,0,0,0,0,0,0,0,-1,853,736,0,0
-364,288,0,0,0,0,0,0,0,0,0,-1,860,736,0,0
-357,288,0,0,0,0,0,0,0,0,0,-1,867,736,0,0
-350,288,0,0,0,0,0,0,0,0,0,-1,874,736,0,0
-343,288,0,0,0,0,0,0,0,0,0,-1,881,736,0,0
-336,288,0,0,0,0,0,0,0,0,0,-1,888,736,0,0
-329,288,0,0,0,0,0,0,0,0,0,-1,895,736,0,0
-322,288,0,0,0,0,0,0,0,0,0,-1,902,736,0,0
-315,288,0,0,0,0,0,0,0,0,0,-1,909,736,0,0
-308,288,0,0,0,0,0,0,0,0,0,-1,916,736,0,0
-301,288,0,0,0,0,0,0,0,0,0,-1,923,736,0,0
-294,288,0,0,0,0,0,0,0,0,0,-1,930,736,0,0
-287,288,0,0,0,0,0,0,0,0,0,-1,937,736,0,0
-280,288,0,0,0,0,0,0,0,0,0,-1,944,736,0,0
-273,288,0,0,0,0,0,0,0,0,0,-1,951,736,0,0
-266,288,0,0,0,0,0,0,0,0,0,-1,958,736,0,0
-259,288,0,0,0,0,0,0,0,0,0,-1,965,736,0,0
-252,288,0,0,0,0,0,0,0,0,0,-1,972,736,0,0
-245,288,0,0,0,0,0,0,0,0,0,-1,979,736,0,0
-238,288,0,0,0,0,0,0,0,0,0,-1,986,736,0,0
-231,288,0,0,0,0,0,0,0,0,0,-1,993,736,0,0
-224,288,0,0,0,0,0,0,0,0,0,-1,1000,736,0,0
-217,288,0,0,0,0,0,0,0,0,0,-1,1007,736,0,0
-210,288,0,0,0,0,0,0,0,0,0,-1,1014,736,0,0
-203,288,0,0,0,0,0,0,0,0,0,-1,1021,736,0,0
-196,288,0,0,0,0,0,0,0,0,0,-1,1028,736,0,0
-189,288,0,0,0,0,0,0,0,0,0,-1,1035,736,0,0
-182,288,0,0,0,0,0,0,0,0,0,-1,1042,736,0,0
-175,288,0,0,0,0,0,0,0,0,0,-1,1049,736,0,0
-168,288,0,0,0,0,0,0,0,0,0,-1,1056,736,0,0
-161,288,0,0,0,0,0,0,0,0,0,-1,1063,736,0,0
-154,288,0,0,0,0,0,0,0,0,0,-1,1070,736,0,0
-147,288,0,0,0,0,0,0,0,0,0,-1,1077,736,0,0
-140,288,0,0,0,0,0,0,0,0,0,-1,1084,736,0,0
-133,288,0,0,0,0,0,0,0,0,0,-1,1091,736,0,0
-126,288,0,0,0,0,0,0,0,0,0,-1,1098,736,0,0
-119,288,0,0,0,0,0,0,0,0,0,-1,1105,736,0,0
-112,288,0,0,0,0,0,0,0,0,0,-1,1112,736,0,0
-105,288,0,0,0,0,0,0,0,0,0,-1,1119,736,0,0
-98,288,0,0,0,0,0,0,0,0,0,-1,1126,736,0,0
-91,288,0,0,0,0,0,0,0,0,0,-1,1133,736,0,0
-84,288,0,0,0,0,0,0,0,0,0,-1,1140,736,0,0
-77,288,0,0,0,0,0,0,0,0,0,-1,1147,736,0,0
-70,288,0,0,0,0,0,0,0,0,0,-1,1154,736,0,0
-63,288,0,0,0,0,0,0,0,0,0,-1,1161,736,0,0
-56,288,0,0,0,0,0,0,0,0,0,-1,1168,736,0,0
-49,288,0,0,0,0,0,0,0,0,0,-1,1175,736,0,0
-42,288,0,0,0,0,0,0,0,0,0,-1,1182,736,0,0
-35,288,0,0,0,0,0,0,0,0,0,-1,1189,736,0,0
-28,288,0,0,0,0,0,0,0,0,0,-1,1196,736,0,0
-21,288,0,0,0,0,0,0,0,0,0,-1,1203,736,0,0
-14,288,0,0,0,0,0,0,0,0,0,-1,1210,736,0,0
-7,288,0,0,0,0,0,0,0,0,0,-1,1217,736,0,0
0,288,0,0,0,0,0,0,0,0,0,-1,1224,736,0,0
7,288,0,0,0,0,0,0,0,0,0,-1,1231,736,0,0
14,288,0,0,0,0,0,0,0,0,0,-1,1238,736,0,0
21,288,0,0,0,0,0,0,0,0,0,-1,1245,736,0,0
28,288,0,0,0,0,0,0,0,0,0,-1,1252,736,0,0
35,288,0,0,0,0,0,0,0,0,0,-1,1259,736,0,0
42,288,0,0,0,0,0,0,0,0,0,-1,1266,736,0,0
49,288,0,0,0,0,0,0,0,0,0,-1,1273,736,0,0
56,288,0,0,0,0,0,0,0,0,0,-1,1280,736,0,0
63,288,0,0,0,0,0,0,0,0,0,-1,1287,736,0,0
70,288,0,0,0,0,0,0,0,0,0,-1,1294,736,0,0
77,288,0,0,0,0,0,0,0,0,0,-1,1301,736,0,0
84,288,0,0,0,0,0,0,0,0,0,-1,1308,736,0,0
91,288,0,0,0,0,0,0,0,0,0,-1,1315,736,0,0
98,288,0,0,0,0,0,0,0,0,0,-1,1322,736,0,0
105,288,0,0,0,0,0,0,0,0,0,-1,1329,736,0,0
112,288,0,0,0,0,0,0,0,0,0,-1,1336,736,0,0
119,288,0,0,0,0,0,0,0,0,0,-1,1343,736,0,0
126,288,0,0,0,0,0,0,0,0,0,-1,1350,736,0,0
133,288,0,0,0,0,0,0,0,0,0,-1,1357,736,0,0
140,288,0,0,0,0,0,0,0,0,0,-1,1364,736,0,0
147,288,0,0,0,0,0,0,0,0,0,-1,1371,736,0,0
154,288,0,0,0,0,0,0,0,0,0,-1,1378,736,0,0
161,288,0,0,0,0,0,0,0,0,0,-1,1385,736,0,0
168,288,0,0,0,0,0,0,0,0,0,-1,1392,736,0,0
175,288,0,0,0,0,0,0,0,0,0,-1,1399,736,0,0
182,288,0,0,0,0,0,0,0,0,0,-1,1406,736,0,0
189,288,0,0,0,0,0,0,0,0,0,-1,1413,736,0,0
196,288,0,0,0,0,0,0,0,0,0,-1,1420,736,0,0
203,288,0,0,0,0,0,0,0,0,0,-1,1427,736,0,0
210,288,0,0,0,0,0,0,0,0,0,-1,1434,736,0,0
217,288,0,0,0,0,0,0,0,0,0,-1,1441,736,0,0
224,288,0,0,0,0,0,0,0,0,0,-1,1448,736,0,0
231,288,0,0,0,0,0,0,0,0,0,-1,1455,736,0,0
238,288,0,0,0,0,0,0,0,0,0,-1,1462,736,0,0
245,288,0,0,0,0,0,0,0,0,0,-1,1469,736,0,0
252,288,0,0,0,0,0,0,0,0,0,-1,1476,736,0,0
259,288,0,0,0,0,0,0,0,0,0,-1,1483,736,0,0
266,288,0,0,0,0,0,0,0,0,0,-1,1490,736,0,0
273,288,0,0,0,0,0,0,0,0,0,-1,1497,736,0,0
280,288,0,0,0,0,0,0,0,0,0,-1,1504,736,0,0
287,288,0,0,0,0,0,0,0,0,0,-1,1511,736,0,0
294,288,0,0,0,0,0,0,0,0,0,-1,1518,736,0,0
301,288,0,0,0,0,0,0,0,0,0,-1,1525,736,0,0
308,288,0,0,0,0,0,0,0,0,0,-1,1532,736,0,0
315,288,0,0,0,0,0,0,0,0,0,-1,1539,736,0,0
322,288,0,0,0,0,0,0,0,0,0,-1,1546,736,0,0
329,288,0,0,0,0,0,0,0,0,0,-1,1553,736,0,0
336,288,0,0,0,0,0,0,0,0,0,-1,1560,736,0,0
343,288,0,0,0,0,0,0,0,0,0,-1,1567,736,0,0
350,288,0,0,0,0,0,0,0,0,0,-1,1574,736,0,0
357,288,0,0,0,0,0,0,0,0,0,-1,1581,736,0,0
364,288,0,0,0,0,0,0,0,0,0,-1,1588,736,0,0
371,288,0,0,0,0,0,0,0,0,0,-1,1595,736,0,0
378,288,0,0,0,0,0,0,0,0,0,-1,1602,736,0,0
385,288,0,0,0,0,0,0,0,0,0,-1,1609,736,0,0
392,288,0,0,0,0,0,0,0,0,0,-1,1616,736,0,0
399,288,0,0,0,0,0,0,0,0,0,-1,1623,736,0,0
406,288,0,0,0,0,0,0,0,0,0,-1,1630,736,0,0
413,288,0,0,0,0,0,0,0,0,0,-1,1637,736,0,0
420,288,0,0,0,0,0,0,0,0,0,-1,1644,736,0,0
427,288,0,0,0,0,0,0,0,0,0,-1,1651,736,0,0
434,288,0,0,0,0,0,0,0,0,0,-1,1658,736,0,0
441,288,0,0,0,0,0,0,0,0,0,-1,1665,736,0,0
448,288,0,0,0,0,0,0,0,0,0,-1,1672,736,0,0
455,288,0,0,0,0,0,0,0,0,0,-1,1679,736,0,0
462,288,0,0,0,0,0,0,0,0,0,-1,1686,736,0,0
469,288,0,0,0,0,0,0,0,0,0,-1,1693,736,0,0
476,288,0,0,0,0,0,0,0,0,0,-1,1700,736,0,0
483,288,0,0,0,0,0,0,0,0,0,-1,1707,736,0,0
490,288,0,0,0,0,0,0,0,0,0,-1,1714,736,0,0
497,288,0,0,0,0,0,0,0,0,0,-1,1721,736,0,0
504,288,0,0,0,0,0,0,0,0,0,-1,1728,736,0,0
511,288,0,0,0,0,0,0,0,0,0,-1,1735,736,0,0
518,288,0,0,0,0,0,0,0,0,0,-1,1742,736,0,0
525,288,0,0,0,0,0,0,0,0,0,-1,1749,736,0,0
532,288,0,0,0,0,0,0,0,0,0,-1,1756,736,0,0
539,288,0,0,0,0,0,0,0,0,0,-1,1763,736,0,0
546,288,0,0,0,0,0,0,0,0,0,-1,1770,736,0,0
553,288,57.4934,2.28064,0,0,0,0,0,0,0,-1,1777,736,57.4934,-2.28064
560,288,57.3807,3.02881,0,0,0,0,0,0,0,-1,1784,736,57.3808,-3.0288
567,288,57.2081,3.74274,0,0,0,0,0,0,0,-1,1791,736,57.2081,-3.74273
574,288,56.9817,4.36981,0,0,0,0,0,0,0,-1,1798,736,56.9816,-4.36984
581,288,53.4904,5.33215,0,0,0,0,0,0,0,-1,1805,736,53.4904,-5.33218
588,288,54.9313,3.29852,0,0,0,0,0,0,0,-1,1812,736,54.9313,-3.29849
595,288,47.035,3.35156,0,0,0,0,0,0,0,-1,1819,736,47.035,-3.35157
602,288,26.7634,7.61279,0,0,0,0,0,0,0,-1,1826,736,26.7635,-7.61279
609,288,17.5223,4.86414,0,0,0,0,0,0,0,-1,1833,736,17.5223,-4.86412
616,288,13.4886,0.801331,0,0,0,0,0,0,0,-1,1840,736,13.4886,-0.80132
623,288,50.6271,-10.5398,0,0,0,0,0,0,0,-1,1847,736,50.627,10.5398
630,288,50.6017,-9.52838,0.00349046,-0.00163854,0.00180083,0.00405959,-0.00220767,0.306105,0.00367068,0.0396194,1854,736,50.6017,9.52839
637,288,50.5847,-8.53064,0.0024734,-0.000662396,0.00111379,0.00282873,-0.00101773,0.308826,0.00230134,0.012499,1861,736,50.5847,8.53062
644,288,50.5341,-7.53375,0.00169252,-3.89212e-05,0.00062882,0.00189679,-0.000243194,0.314098,0.0013529,0.0106907,1868,736,50.534,7.53375
651,288,50.4781,-6.52802,0.00127477,0.00041494,0.000393468,0.00142765,0.000262066,0.37058,0.000877551,0.0122756,1875,736,50.4782,6.52801
658,288,50.3927,-5.49597,0.00131737,0.000801436,0.000480428,0.00160471,0.000514097,0.539012,0.0009462,0.0179988,1882,736,50.3928,5.49598
665,288,50.313,-4.54407,0.00151125,0.0013069,0.00069235,0.00210892,0.000709228,0.71214,0.00123915,0.0187139,1889,736,50.313,4.54408
672,288,50.25,-3.56891,0.0019085,0.00188963,0.00102967,0.00292878,0.000869356,0.780817,0.00173684,0.0183495,1896,736,50.25,3.56893
679,288,50.1825,-2.56006,0.00259463,0.0026027,0.00158037,0.00417904,0.00101829,0.786674,0.00251624,0.0158684,1903,736,50.1825,2.56004
686,288,50.1152,-1.58868,0.00339435,0.00342336,0.00223494,0.00564384,0.00117387,0.788643,0.00343872,0.0127842,1910,736,50.1152,1.58866
693,288,50.1031,-0.494141,0.00465315,0.00448787,0.00319203,0.00776361,0.00137741,0.772456,0.00478317,0.0284187,1917,736,50.1032,0.494124
700,288,50.0798,0.668213,0,0,0,0,0,0,0,-1,1924,736,50.0798,-0.66822
707,288,30.9496,3.07977,0,0,0,0,0,0,0,-1,1931,736,30.9496,-3.07975
714,288,23.0149,3.82544,0,0,0,0,0,0,0,-1,1938,736,23.0149,-3.82541
721,288,18.0732,3.69385,0,0,0,0,0,0,0,-1,1945,736,18.0732,-3.69387
728,288,19.3208,3.91455,0,0,0,0,0,0,0,-1,1952,736,19.3209,-3.91455
735,288,18.7712,3.51312,0,0,0,0,0,0,0,-1,1959,736,18.7713,-3.51309
742,288,0,0,0,0,0,0,0,0,0,-1,1966,736,0,0
749,288,0,0,0,0,0,0,0,0,0,-1,1973,736,0,0
756,288,0,0,0,0,0,0,0,0,0,-1,1980,736,0,0
763,288,0,0,0,0,0,0,0,0,0,-1,1987,736,0,0
770,288,0,0,0,0,0,0,0,0,0,-1,1994,736,0,0
777,288,0,0,0,0,0,0,0,0,0,-1,2001,736,0,0
784,288,0,0,0,0,0,0,0,0,0,-1,2008,736,0,0
791,288,0,0,0,0,0,0,0,0,0,-1,2015,736,0,0
798,288,0,0,0,0,0,0,0,0,0,-1,2022,736,0,0
805,288,0,0,0,0,0,0,0,0,0,-1,2029,736,0,0
812,288,0,0,0,0,0,0,0,0,0,-1,2036,736,0,0
-700,281,0,0,0,0,0,0,0,0,0,-1,524,743,0,0
-693,281,0,0,0,0,0,0,0,0,0,-1,531,743,0,0
-686,281,0,0,0,0,0,0,0,0,0,-1,538,743,0,0
-679,281,0,0,0,0,0,0,0,0,0,-1,545,743,0,0
-672,281,0,0,0,0,0,0,0,0,0,-1,552,743,0,0
-665,281,0,0,0,0,0,0,0,0,0,-1,559,743,0,0
-658,281,0,0,0,0,0,0,0,0,0,-1,566,743,0,0
-651,281,0,0,0,0,0,0,0,0,0,-1,573,743,0,0
-644,281,0,0,0,0,0,0,0,0,0,-1,580,743,0,0
-637,281,0,0,0,0,0,0,0,0,0,-1,587,743,0,0
-630,281,0,0,0,0,0,0,0,0,0,-1,594,743,0,0
-623,281,-19.1697,5.67017,0,0,0,0,0,0,0,-1,601,743,-19.1697,-5.67019
-616,281,-11.5906,2.6853,0,0,0,0,0,0,0,-1,608,743,-11.5906,-2.68529
-609,281,-16.1972,4.14838,0,0,0,0,0,0,0,-1,615,743,-16.1972,-4.14837
-602,281,-21.9772,6.77417,0,0,0,0,0,0,0,-1,622,743,-21.9771,-6.77415
-595,281,-10.4797,-1.07404,0,0,0,0,0,0,0,-1,629,743,-10.4798,1.07402
-588,281,-13.277,1.49817,0,0,0,0,0,0,0,-1,636,743,-13.2771,-1.49817
-581,281,-34.1767,1.65198,0,0,0,0,0,0,0,-1,643,743,-34.1767,-1.65197
-574,281,-34.0771,0.589111,-0.00388033,0.000868199,0.000195247,0.000876213,-0.00388834,1.52977,0.00292833,0.0485043,650,743,-34.0771,-0.589121
-567,281,-34.3045,-0.394592,-0.00240032,0.000943607,0.000204072,0.000956015,-0.00241273,1.51007,0.00200464,0.0223414,657,743,-34.3045,0.394621
-560,281,-34.4111,-1.409,-0.00160086,0.000871658,0.000165187,0.000882645,-0.00161184,1.50438,0.00146056,0.00913839,664,743,-34.4111,1.409
-553,281,-34.438,-2.40454,-0.00101947,0.000633946,0.000125099,0.000643357,-0.00102888,1.49571,0.00097398,0.0158497,671,743,-34.4381,2.40454
-546,281,-34.5048,-3.37817,-0.000797373,0.000366179,0.000176546,0.000392377,-0.000823571,1.42348,0.00071659,0.0180164,678,743,-34.5048,3.37818
-539,281,-34.5704,-4.38965,-0.000885764,6.36411e-05,0.000287587,0.00014396,-0.000966083,1.29845,0.000697015,0.0156351,685,743,-34.5704,4.38966
-532,281,-34.607,-5.36627,-0.00114824,-0.000249279,0.000458081,-5.69879e-05,-0.00134053,1.17336,0.000875309,0.0165403,692,743,-34.607,5.36629
-525,281,-34.7067,-6.38196,-0.00144622,-0.000736945,0.00060628,-0.000389198,-0.00179396,1.05003,0.00108966,0.0193616,699,743,-34.7067,6.38195
-518,281,-34.7831,-7.41815,-0.00174271,-0.00126229,0.000959702,-0.000513195,-0.00249181,0.908026,0.00151931,0.0144089,706,743,-34.7831,7.41817
-511,281,-34.8499,-8.42352,-0.00172172,-0.00248717,0.00128804,-0.000760749,-0.00344814,0.640983,0.00209181,0.0141825,713,743,-34.8499,8.42355
-504,281,-34.9777,-9.40942,-0.00155685,-0.0037016,0.00170999,-0.000610793,-0.00464766,0.505336,0.00291624,0.0191034,720,743,-34.9777,9.40945
-497,281,-34.8491,-10.1851,0,0,0,0,0,0,0,-1,727,743,-34.8491,10.1851
-490,281,-27.6985,-9.63165,0,0,0,0,0,0,0,-1,734,743,-27.6986,9.63165
-483,281,-22.1078,-2.34973,0,0,0,0,0,0,0,-1,741,743,-22.1078,2.3497
-476,281,-28.0016,2.17786,0,0,0,0,0,0,0,-1,748,743,-28.0016,-2.17786
-469,281,-34.6448,0.171692,0,0,0,0,0,0,0,-1,755,743,-34.6448,-0.171685
-462,281,-46.6214,0.0193481,0,0,0,0,0,0,0,-1,762,743,-46.6214,-0.0193665
-455,281,-56.0239,-0.1521,0,0,0,0,0,0,0,-1,769,743,-56.024,0.152123
-448,281,-55.8145,0.304321,0,0,0,0,0,0,0,-1,776,743,-55.8145,-0.304294
-441,281,-55.4486,0.766052,0,0,0,0,0,0,0,-1,783,743,-55.4486,-0.766078
-434,281,0,0,0,0,0,0,0,0,0,-1,790,743,0,0
-427,281,0,0,0,0,0,0,0,0,0,-1,797,743,0,0
-420,281,0,0,0,0,0,0,0,0,0,-1,804,743,0,0
-413,281,0,0,0,0,0,0,0,0,0,-1,811,743,0,0
-406,281,0,0,0,0,0,0,0,0,0,-1,818,743,0,0
-399,281,0,0,0,0,0,0,0,0,0,-1,825,743,0,0
-392,281,0,0,0,0,0,0,0,0,0,-1,832,743,0,0
-385,281,0,0,0,0,0,0,0,0,0,-1,839,743,0,0
-378,281,0,0,0,0,0,0,0,0,0,-1,846,743,0,0
-371,281,0,0,0,0,0,0,0,0,0,-1,853,743,0,0
-364,281,0,0,0,0,0,0,0,0,0,-1,860,743,0,0
-357,281,0,0,0,0,0,0,0,0,0,-1,867,743,0,0
-350,281,0,0,0,0,0,0,0,0,0,-1,874,743,0,0
-343,281,0,0,0,0,0,0,0,0,0,-1,881,743,0,0
-336,281,0,0,0,0,0,0,0,0,0,-1,888,743,0,0
-329,281,0,0,0,0,0,0,0,0,0,-1,895,743,0,0
-322,281,0,0,0,0,0,0,0,0,0,-1,902,743,0,0
-315,281,0,0,0,0,0,0,0,0,0,-1,909,743,0,0
-308,281,0,0,0,0,0,0,0,0,0,-1,916,743,0,0
-301,281,0,0,0,0,0,0,0,0,0,-1,923,743,0,0
-294,281,0,0,0,0,0,0,0,0,0,-1,930,743,0,0
-287,281,0,0,0,0,0,0,0,0,0,-1,937,743,0,0
-280,281,0,0,0,0,0,0,0,0,0,-1,944,743,0,0
-273,281,0,0,0,0,0,0,0,0,0,-1,951,743,0,0
-266,281,0,0,0,0,0,0,0,0,0,-1,958,743,0,0
-259,281,0,0,0,0,0,0,0,0,0,-1,965,743,0,0
-252,281,0,0,0,0,0,0,0,0,0,-1,972,743,0,0
-245,281,0,0,0,0,0,0,0,0,0,-1,979,743,0,0
-238,281,0,0,0,0,0,0,0,0,0,-1,986,743,0,0
-231,281,0,0,0,0,0,0,0,0,0,-1,993,743,0,0
-224,281,0,0,0,0,0,0,0,0,0,-1,1000,743,0,0
-217,281,0,0,0,0,0,0,0,0,0,-1,1007,743,0,0
-210,281,0,0,0,0,0,0,0,0,0,-1,1014,743,0,0
-203,281,0,0,0,0,0,0,0,0,0,-1,1021,743,0,0
-196,281,0,0,0,0,0,0,0,0,0,-1,1028,743,0,0
-189,281,0,0,0,0,0,0,0,0,0,-1,1035,743,0,0
-182,281,0,0,0,0,0,0,0,0,0,-1,1042,743,0,0
-175,281,0,0,0,0,0,0,0,0,0,-1,1049,743,0,0
-168,281,0,0,0,0,0,0,0,0,0,-1,1056,743,0,0
-161,281,0,0,0,0,0,0,0,0,0,-1,1063,743,0,0
-154,281,0,0,0,0,0,0,0,0,0,-1,1070,743,0,0
-147,281,0,0,0,0,0,0,0,0,0,-1,1077,743,0,0
-140,281,0,0,0,0,0,0,0,0,0,-1,1084,743,0,0
-133,281,0,0,0,0,0,0,0,0,0,-1,1091,743,0,0
-126,281,0,0,0,0,0,0,0,0,0,-1,1098,743,0,0
-119,281,0,0,0,0,0,0,0,0,0,-1,1105,743,0,0
-112,281,0,0,0,0,0,0,0,0,0,-1,1112,743,0,0
-105,281,0,0,0,0,0,0,0,0,0,-1,1119,743,0,0
-98,281,0,0,0,0,0,0,0,0,0,-1,1126,743,0,0
-91,281,0,0,0,0,0,0,0,0,0,-1,1133,743,0,0
-84,281,0,0,0,0,0,0,0,0,0,-1,1140,743,0,0
-77,281,0,0,0,0,0,0,0,0,0,-1,1147,743,0,0
-70,281,0,0,0,0,0,0,0,0,0,-1,1154,743,0,0
-63,281,0,0,0,0,0,0,0,0,0,-1,1161,743,0,0
-56,281,0,0,0,0,0,0,0,0,0,-1,1168,743,0,0
-49,281,0,0,0,0,0,0,0,0,0,-1,1175,743,0,0
-42,281,0,0,0,0,0,0,0,0,0,-1,1182,743,0,0
-35,281,0,0,0,0,0,0,0,0,0,-1,1189,743,0,0
-28,281,0,0,0,0,0,0,0,0,0,-1,1196,743,0,0
-21,281,0,0,0,0,0,0,0,0,0,-1,1203,743,0,0
-14,281,0,0,0,0,0,0,0,0,0,-1,1210,743,0,0
-7,281,0,0,0,0,0,0,0,0,0,-1,1217,743,0,0
0,281,0,0,0,0,0,0,0,0,0,-1,1224,743,0,0
7,281,0,0,0,0,0,0,0,0,0,-1,1231,743,0,0
14,281,0,0,0,0,0,0,0,0,0,-1,1238,743,0,0
21,281,0,0,0,0,0,0,0,0,0,-1,1245,743,0,0
28,281,0,0,0,0,0,0,0,0,0,-1,1252,743,0,0
35,281,0,0,0,0,0,0,0,0,0,-1,1259,743,0,0
42,281,0,0,0,0,0,0,0,0,0,-1,1266,743,0,0
49,281,0,0,0,0,0,0,0,0,0,-1,1273,743,0,0
56,281,0,0,0,0,0,0,0,0,0,-1,1280,743,0,0
63,281,0,0,0,0,0,0,0,0,0,-1,1287,743,0,0
70,281,0,0,0,0,0,0,0,0,0,-1,1294,743,0,0
77,281,0,0,0,0,0,0,0,0,0,-1,1301,743,0,0
84,281,0,0,0,0,0,0,0,0,0,-1,1308,743,0,0
91,281,0,0,0,0,0,0,0,0,0,-1,1315,743,0,0
98,281,0,0,0,0,0,0,0,0,0,-1,1322,743,0,0
105,281,0,0,0,0,0,0,0,0,0,-1,1329,743,0,0
112,281,0,0,0,0,0,0,0,0,0,-1,1336,743,0,0
119,281,0,0,0,0,0,0,0,0,0,-1,1343,743,0,0
126,281,0,0,0,0,0,0,0,0,0,-1,1350,743,0,0
133,281,0,0,0,0,0,0,0,0,0,-1,1357,743,0,0
140,281,0,0,0,0,0,0,0,0,0,-1,1364,743,0,0
147,281,0,0,0,0,0,0,0,0,0,-1,1371,743,0,0
154,281,0,0,0,0,0,0,0,0,0,-1,1378,743,0,0
161,281,0,0,0,0,0,0,0,0,0,-1,1385,743,0,0
168,281,0,0,0,0,0,0,0,0,0,-1,1392,743,0,0
175,281,0,0,0,0,0,0,0,0,0,-1,1399,743,0,0
182,281,0,0,0,0,0,0,0,0,0,-1,1406,743,0,0
189,281,0,0,0,0,0,0,0,0,0,-1,1413,743,0,0
196,281,0,0,0,0,0,0,0,0,0,-1,1420,743,0,0
203,281,0,0,0,0,0,0,0,0,0,-1,1427,743,0,0
210,281,0,0,0,0,0,0,0,0,0,-1,1434,743,0,0
217,281,0,0,0,0,0,0,0,0,0,-1,1441,743,0,0
224,281,0,0,0,0,0,0,0,0,0,-1,1448,743,0,0
231,281,0,0,0,0,0,0,0,0,0,-1,1455,743,0,0
238,281,0,0,0,0,0,0,0,0,0,-1,1462,743,0,0
245,281,0,0,0,0,0,0,0,0,0,-1,1469,743,0,0
252,281,0,0,0,0,0,0,0,0,0,-1,1476,743,0,0
259,281,0,0,0,0,0,0,0,0,0,-1,1483,743,0,0
266,281,0,0,0,0,0,0,0,0,0,-1,1490,743,0,0
273,281,0,0,0,0,0,0,0,0,0,-1,1497,743,0,0
280,281,0,0,0,0,0,0,0,0,0,-1,1504,743,0,0
287,281,0,0,0,0,0,0,0,0,0,-1,1511,743,0,0
294,281,0,0,0,0,0,0,0,0,0,-1,1518,743,0,0
301,281,0,0,0,0,0,0,0,0,0,-1,1525,743,0,0
308,281,0,0,0,0,0,0,0,0,0,-1,1532,743,0,0
315,281,0,0,0,0,0,0,0,0,0,-1,1539,743,0,0
322,281,0,0,0,0,0,0,0,0,0,-1,1546,743,0,0
329,281,0,0,0,0,0,0,0,0,0,-1,1553,743,0,0
336,281,0,0,0,0,0,0,0,0,0,-1,1560,743,0,0
343,281,0,0,0,0,0,0,0,0,0,-1,1567,743,0,0
350,281,0,0,0,0,0,0,0,0,0,-1,1574,743,0,0
357,281,0,0,0,0,0,0,0,0,0,-1,1581,743,0,0
364,281,0,0,0,0,0,0,0,0,0,-1,1588,743,0,0
371,281,0,0,0,0,0,0,0,0,0,-1,1595,743,0,0
378,281,0,0,0,0,0,0,0,0,0,-1,1602,743,0,0
385,281,0,0,0,0,0,0,0,0,0,-1,1609,743,0,0
392,281,0,0,0,0,0,0,0,0,0,-1,1616,743,0,0
399,281,0,0,0,0,0,0,0,0,0,-1,1623,743,0,0
406,281,0,0,0,0,0,0,0,0,0,-1,1630,743,0,0
413,281,0,0,0,0,0,0,0,0,0,-1,1637,743,0,0
420,281,0,0,0,0,0,0,0,0,0,-1,1644,743,0,0
427,281,0,0,0,0,0,0,0,0,0,-1,1651,743,0,0
434,281,0,0,0,0,0,0,0,0,0,-1,1658,743,0,0
441,281,0,0,0,0,0,0,0,0,0,-1,1665,743,0,0
448,281,0,0,0,0,0,0,0,0,0,-1,1672,743,0,0
455,281,0,0,0,0,0,0,0,0,0,-1,1679,743,0,0
462,281,0,0,0,0,0,0,0,0,0,-1,1686,743,0,0
469,281,0,0,0,0,0,0,0,0,0,-1,1693,743,0,0
476,281,0,0,0,0,0,0,0,0,0,-1,1700,743,0,0
483,281,0,0,0,0,0,0,0,0,0,-1,1707,743,0,0
490,281,0,0,0,0,0,0,0,0,0,-1,1714,743,0,0
497,281,0,0,0,0,0,0,0,0,0,-1,1721,743,0,0
504,281,0,0,0,0,0,0,0,0,0,-1,1728,743,0,0
511,281,0,0,0,0,0,0,0,0,0,-1,1735,743,0,0
518,281,0,0,0,0,0,0,0,0,0,-1,1742,743,0,0
525,281,0,0,0,0,0,0,0,0,0,-1,1749,743,0,0
532,281,0,0,0,0,0,0,0,0,0,-1,1756,743,0,0
539,281,0,0,0,0,0,0,0,0,0,-1,1763,743,0,0
546,281,0,0,0,0,0,0,0,0,0,-1,1770,743,0,0
553,281,0,0,0,0,0,0,0,0,0,-1,1777,743,0,0
560,281,57.8354,3.06482,0,0,0,0,0,0,0,-1,1784,743,57.8354,-3.06479
567,281,57.6156,3.64508,0,0,0,0,0,0,0,-1,1791,743,57.6156,-3.64511
574,281,57.3431,4.17767,0,0,0,0,0,0,0,-1,1798,743,57.3431,-4.17769
581,281,57.0648,4.53906,0,0,0,0,0,0,0,-1,1805,743,57.0648,-4.53908
588,281,53.5422,6.00092,0,0,0,0,0,0,0,-1,1812,743,53.5422,-6.00092
595,281,54.8569,3.32269,0,0,0,0,0,0,0,-1,1819,743,54.857,-3.32269
602,281,45.9985,3.98254,0,0,0,0,0,0,0,-1,1826,743,45.9985,-3.98254
609,281,32.7925,1.28723,0,0,0,0,0,0,0,-1,1833,743,32.7925,-1.28722
616,281,21.3191,-0.253906,0,0,0,0,0,0,0,-1,1840,743,21.3191,0.253931
623,281,31.8741,-4.74182,0,0,0,0,0,0,0,-1,1847,743,31.8741,4.74184
630,281,51.4971,-9.41498,0,0,0,0,0,0,0,-1,1854,743,51.497,9.41496
637,281,51.4896,-8.45587,0.00299455,-0.000815698,0.00132986,0.00341279,-0.00123394,0.304706,0.00277936,0.0264891,1861,743,51.4896,8.45586
644,281,51.519,-7.46149,0.00184178,-0.000132032,0.000675779,0.00205097,-0.000341228,0.300207,0.0014941,0.0108294,1868,743,51.519,7.46147
651,281,51.4862,-6.45026,0.00103366,0.000303627,0.000218193,0.0010939,0.000243384,0.269386,0.000663198,0.0120036,1875,743,51.4862,6.45025
658,281,51.4049,-5.44183,0.000896211,0.000590061,0.000239019,0.00102697,0.000459301,0.500589,0.000594021,0.0213877,1882,743,51.4049,5.44182
665,281,51.3228,-4.48474,0.00100977,0.0010244,0.000435683,0.00145283,0.000581338,0.793791,0.000844347,0.0225985,1889,743,51.3228,4.48472
672,281,51.2405,-3.49231,0.00134798,0.00153257,0.000760996,0.00220685,0.000673704,0.845743,0.00130593,0.0150408,1896,743,51.2405,3.49232
679,281,51.1803,-2.51733,0.00198021,0.00224106,0.00131827,0.00343534,0.000785934,0.834706,0.00207839,0.0244136,1903,743,51.1803,2.51732
686,281,51.0586,-1.54803,0.00269771,0.00304309,0.00194048,0.00481856,0.000922251,0.829778,0.00295335,0.0195047,1910,743,51.0586,1.54805
693,281,51.0128,-0.539673,0.00376097,0.00406231,0.00280479,0.00672048,0.0011028,0.812231,0.00416171,0.0138664,1917,743,51.0128,0.539703
700,281,50.9249,0.566223,0.00520057,0.00534297,0.00402862,0.00930102,0.00124253,0.794234,0.0058308,0.0498978,1924,743,50.925,-0.566221
707,281,50.993,1.66956,0,0,0,0,0,0,0,-1,1931,743,50.993,-1.66953
714,281,25.0125,2.5105,0,0,0,0,0,0,0,-1,1938,743,25.0124,-2.51053
721,281,16.9656,3.22174,0,0,0,0,0,0,0,-1,1945,743,16.9656,-3.22172
728,281,19.0251,3.63934,0,0,0,0,0,0,0,-1,1952,743,19.0252,-3.63932
735,281,19.0869,2.50311,0,0,0,0,0,0,0,-1,1959,743,19.0869,-2.5031
742,281,0,0,0,0,0,0,0,0,0,-1,1966,743,0,0
749,281,0,0,0,0,0,0,0,0,0,-1,1973,743,0,0
756,281,0,0,0,0,0,0,0,0,0,-1,1980,743,0,0
763,281,0,0,0,0,0,0,0,0,0,-1,1987,743,0,0
770,281,0,0,0,0,0,0,0,0,0,-1,1994,743,0,0
777,281,0,0,0,0,0,0,0,0,0,-1,2001,743,0,0
784,281,0,0,0,0,0,0,0,0,0,-1,2008,743,0,0
791,281,0,0,0,0,0,0,0,0,0,-1,2015,743,0,0
798,281,0,0,0,0,0,0,0,0,0,-1,2022,743,0,0
805,281,0,0,0,0,0,0,0,0,0,-1,2029,743,0,0
812,281,0,0,0,0,0,0,0,0,0,-1,2036,743,0,0
-700,274,0,0,0,0,0,0,0,0,0,-1,524,750,0,0
-693,274,0,0,0,0,0,0,0,0,0,-1,531,750,0,0
-686,274,0,0,0,0,0,0,0,0,0,-1,538,750,0,0
-679,274,0,0,0,0,0,0,0,0,0,-1,545,750,0,0
-672,274,0,0,0,0,0,0,0,0,0,-1,552,750,0,0
-665,274,0,0,0,0,0,0,0,0,0,-1,559,750,0,0
-658,274,0,0,0,0,0,0,0,0,0,-1,566,750,0,0
-651,274,0,0,0,0,0,0,0,0,0,-1,573,750,0,0
-644,274,0,0,0,0,0,0,0,0,0,-1,580,750,0,0
-637,274,0,0,0,0,0,0,0,0,0,-1,587,750,0,0
-630,274,0,0,0,0,0,0,0,0,0,-1,594,750,0,0
-623,274,-19.6909,5.12701,0,0,0,0,0,0,0,-1,601,750,-19.6908,-5.12703
-616,274,-17.9133,3.9024,0,0,0,0,0,0,0,-1,608,750,-17.9133,-3.90239
-609,274,-26.0861,5.57306,0,0,0,0,0,0,0,-1,615,750,-26.0861,-5.57307
-602,274,-25.7372,3.73846,0,0,0,0,0,0,0,-1,622,750,-25.7372,-3.73849
-595,274,-25.258,2.53473,0,0,0,0,0,0,0,-1,629,750,-25.258,-2.53474
-588,274,-24.9805,2.2334,0,0,0,0,0,0,0,-1,636,750,-24.9805,-2.23341
-581,274,-35.1737,1.56958,0,0,0,0,0,0,0,-1,643,750,-35.1737,-1.56959
-574,274,-35.0358,0.554565,-0.0032618,0.000762113,0.000163662,0.000768759,-0.00326845,1.53021,0.00247533,0.0326313,650,750,-35.0358,-0.554588
-567,274,-35.3419,-0.38324,-0.00220802,0.000722551,0.000321201,0.000757343,-0.00224281,1.4629,0.00180152,0.0311196,657,750,-35.3419,0.383219
-560,274,-35.3917,-1.31378,-0.00165401,0.000635132,0.000360345,0.000690515,-0.00170939,1.41829,0.0014266,0.015314,664,750,-35.3917,1.31378
-553,274,-35.4477,-2.33405,-0.00128686,0.000488317,0.000371631,0.000562977,-0.00136152,1.37254,0.00114255,0.00984194,671,750,-35.4477,2.33406
-546,274,-35.5392,-3.32678,-0.00118072,0.000202532,0.000450626,0.000336382,-0.00131457,1.28206,0.0010074,0.0120157,678,750,-35.5392,3.32679
-539,274,-35.6065,-4.32013,-0.00137066,-1.75595e-05,0.000522715,0.000160847,-0.00154906,1.24189,0.00109029,0.0127055,685,750,-35.6065,4.32014
-532,274,-35.6402,-5.2926,-0.00166517,-0.000240396,0.000597359,-2.30874e-05,-0.00188247,1.2219,0.00124736,0.0142797,692,750,-35.6402,5.29259
-525,274,-35.7234,-6.28143,-0.00183112,-0.000740046,0.000599538,-0.000474992,-0.00209617,1.15453,0.0012691,0.0153982,699,750,-35.7235,6.28142
-518,274,-35.7934,-7.34259,-0.00196174,-0.00133627,0.000899859,-0.00069635,-0.00260166,0.95264,0.00155519,0.0151475,706,750,-35.7934,7.34257
-511,274,-35.842,-8.3927,-0.00165359,-0.00278808,0.00112975,-0.000956666,-0.003485,0.552736,0.00207915,0.0249782,713,750,-35.8421,8.3927
-504,274,-36.0217,-9.48413,-0.00124615,-0.00412914,0.00146101,-0.000635222,-0.00474007,0.396061,0.00297103,0.0452315,720,750,-36.0217,9.48414
-497,274,-36.3139,-10.623,0,0,0,0,0,0,0,-1,727,750,-36.3139,10.6231
-490,274,-13.6545,-3.58826,0,0,0,0,0,0,0,-1,734,750,-13.6546,3.58825
-483,274,-27.8608,1.30981,0,0,0,0,0,0,0,-1,741,750,-27.8608,-1.30979
-476,274,-33.7561,-0.508606,0,0,0,0,0,0,0,-1,748,750,-33.7561,0.508636
-469,274,-41.1387,0.907715,0,0,0,0,0,0,0,-1,755,750,-41.1387,-0.907744
-462,274,-56.4362,0.240723,0,0,0,0,0,0,0,-1,762,750,-56.4362,-0.240732
-455,274,-63.8356,0.142822,0,0,0,0,0,0,0,-1,769,750,-63.8357,-0.142803
-448,274,-56.1052,0.421143,0,0,0,0,0,0,0,-1,776,750,-56.1052,-0.421134
-441,274,0,0,0,0,0,0,0,0,0,-1,783,750,0,0
-434,274,0,0,0,0,0,0,0,0,0,-1,790,750,0,0
-427,274,0,0,0,0,0,0,0,0,0,-1,797,750,0,0
-420,274,0,0,0,0,0,0,0,0,0,-1,804,750,0,0
-413,274,0,0,0,0,0,0,0,0,0,-1,811,750,0,0
-406,274,0,0,0,0,0,0,0,0,0,-1,818,750,0,0
-399,274,0,0,0,0,0,0,0,0,0,-1,825,750,0,0
-392,274,0,0,0,0,0,0,0,0,0,-1,832,750,0,0
-385,274,0,0,0,0,0,0,0,0,0,-1,839,750,0,0
-378,274,0,0,0,0,0,0,0,0,0,-1,846,750,0,0
-371,274,0,0,0,0,0,0,0,0,0,-1,853,750,0,0
-364,274,0,0,0,0,0,0,0,0,0,-1,860,750,0,0
-357,274,0,0,0,0,0,0,0,0,0,-1,867,750,0,0
-350,274,0,0,0,0,0,0,0,0,0,-1,874,750,0,0
-343,274,0,0,0,0,0,0,0,0,0,-1,881,750,0,0
-336,274,0,0,0,0,0,0,0,0,0,-1,888,750,0,0
-329,274,0,0,0,0,0,0,0,0,0,-1,895,750,0,0
-322,274,0,0,0,0,0,0,0,0,0,-1,902,750,0,0
-315,274,0,0,0,0,0,0,0,0,0,-1,909,750,0,0
-308,274,0,0,0,0,0,0,0,0,0,-1,916,750,0,0
-301,274,0,0,0,0,0,0,0,0,0,-1,923,750,0,0
-294,274,0,0,0,0,0,0,0,0,0,-1,930,750,0,0
-287,274,0,0,0,0,0,0,0,0,0,-1,937,750,0,0
-280,274,0,0,0,0,0,0,0,0,0,-1,944,750,0,0
-273,274,0,0,0,0,0,0,0,0,0,-1,951,750,0,0
-266,274,0,0,0,0,0,0,0,0,0,-1,958,750,0,0
-259,274,0,0,0,0,0,0,0,0,0,-1,965,750,0,0
-252,274,0,0,0,0,0,0,0,0,0,-1,972,750,0,0
-245,274,0,0,0,0,0,0,0,0,0,-1,979,750,0,0
-238,274,0,0,0,0,0,0,0,0,0,-1,986,750,0,0
-231,274,0,0,0,0,0,0,0,0,0,-1,993,750,0,0
-224,274,0,0,0,0,0,0,0,0,0,-1,1000,750,0,0
-217,274,0,0,0,0,0,0,0,0,0,-1,1007,750,0,0
-210,274,0,0,0,0,0,0,0,0,0,-1,1014,750,0,0
-203,274,0,0,0,0,0,0,0,0,0,-1,1021,750,0,0
-196,274,0,0,0,0,0,0,0,0,0,-1,1028,750,0,0
-189,274,0,0,0,0,0,0,0,0,0,-1,1035,750,0,0
-182,274,0,0,0,0,0,0,0,0,0,-1,1042,750,0,0
-175,274,0,0,0,0,0,0,0,0,0,-1,1049,750,0,0
-168,274,0,0,0,0,0,0,0,0,0,-1,1056,750,0,0
-161,274,0,0,0,0,0,0,0,0,0,-1,1063,750,0,0
-154,274,0,0,0,0,0,0,0,0,0,-1,1070,750,0,0
-147,274,0,0,0,0,0,0,0,0,0,-1,1077,750,0,0
-140,274,0,0,0,0,0,0,0,0,0,-1,1084,750,0,0
-133,274,0,0,0,0,0,0,0,0,0,-1,1091,750,0,0
-126,274,0,0,0,0,0,0,0,0,0,-1,1098,750,0,0
-119,274,0,0,0,0,0,0,0,0,0,-1,1105,750,0,0
-112,274,0,0,0,0,0,0,0,0,0,-1,1112,750,0,0
-105,274,0,0,0,0,0,0,0,0,0,-1,1119,750,0,0
-98,274,0,0,0,0,0,0,0,0,0,-1,1126,750,0,0
-91,274,0,0,0,0,0,0,0,0,0,-1,1133,750,0,0
-84,274,0,0,0,0,0,0,0,0,0,-1,1140,750,0,0
-77,274,0,0,0,0,0,0,0,0,0,-1,1147,750,0,0
-70,274,0,0,0,0,0,0,0,0,0,-1,1154,750,0,0
-63,274,0,0,0,0,0,0,0,0,0,-1,1161,750,0,0
-56,274,0,0,0,0,0,0,0,0,0,-1,1168,750,0,0
-49,274,0,0,0,0,0,0,0,0,0,-1,1175,750,0,0
-42,274,0,0,0,0,0,0,0,0,0,-1,1182,750,0,0
-35,274,0,0,0,0,0,0,0,0,0,-1,1189,750,0,0
-28,274,0,0,0,0,0,0,0,0,0,-1,1196,750,0,0
-21,274,0,0,0,0,0,0,0,0,0,-1,1203,750,0,0
-14,274,0,0,0,0,0,0,0,0,0,-1,1210,750,0,0
-7,274,0,0,0,0,0,0,0,0,0,-1,1217,750,0,0
0,274,0,0,0,0,0,0,0,0,0,-1,1224,750,0,0
7,274,0,0,0,0,0,0,0,0,0,-1,1231,750,0,0
14,274,0,0,0,0,0,0,0,0,0,-1,1238,750,0,0
21,274,0,0,0,0,0,0,0,0,0,-1,1245,750,0,0
28,274,0,0,0,0,0,0,0,0,0,-1,1252,750,0,0
35,274,0,0,0,0,0,0,0,0,0,-1,1259,750,0,0
42,274,0,0,0,0,0,0,0,0,0,-1,1266,750,0,0
49,274,0,0,0,0,0,0,0,0,0,-1,1273,750,0,0
56,274,0,0,0,0,0,0,0,0,0,-1,1280,750,0,0
63,274,0,0,0,0,0,0,0,0,0,-1,1287,750,0,0
70,274,0,0,0,0,0,0,0,0,0,-1,1294,750,0,0
77,274,0,0,0,0,0,0,0,0,0,-1,1301,750,0,0
84,274,0,0,0,0,0,0,0,0,0,-1,1308,750,0,0
91,274,0,0,0,0,0,0,0,0,0,-1,1315,750,0,0
98,274,0,0,0,0,0,0,0,0,0,-1,1322,750,0,0
105,274,0,0,0,0,0,0,0,0,0,-1,1329,750,0,0
112,274,0,0,0,0,0,0,0,0,0,-1,1336,750,0,0
119,274,0,0,0,0,0,0,0,0,0,-1,1343,750,0,0
126,274,0,0,0,0,0,0,0,0,0,-1,1350,750,0,0
133,274,0,0,0,0,0,0,0,0,0,-1,1357,750,0,0
140,274,0,0,0,0,0,0,0,0,0,-1,1364,750,0,0
147,274,0,0,0,0,0,0,0,0,0,-1,1371,750,0,0
154,274,0,0,0,0,0,0,0,0,0,-1,1378,750,0,0
161,274,0,0,0,0,0,0,0,0,0,-1,1385,750,0,0
168,274,0,0,0,0,0,0,0,0,0,-1,1392,750,0,0
175,274,0,0,0,0,0,0,0,0,0,-1,1399,750,0,0
182,274,0,0,0,0,0,0,0,0,0,-1,1406,750,0,0
189,274,0,0,0,0,0,0,0,0,0,-1,1413,750,0,0
196,274,0,0,0,0,0,0,0,0,0,-1,1420,750,0,0
203,274,0,0,0,0,0,0,0,0,0,-1,1427,750,0,0
210,274,0,0,0,0,0,0,0,0,0,-1,1434,750,0,0
217,274,0,0,0,0,0,0,0,0,0,-1,1441,750,0,0
224,274,0,0,0,0,0,0,0,0,0,-1,1448,750,0,0
231,274,0,0,0,0,0,0,0,0,0,-1,1455,750,0,0
238,274,0,0,0,0,0,0,0,0,0,-1,1462,750,0,0
245,274,0,0,0,0,0,0,0,0,0,-1,1469,750,0,0
252,274,0,0,0,0,0,0,0,0,0,-1,1476,750,0,0
259,274,0,0,0,0,0,0,0,0,0,-1,1483,750,0,0
266,274,0,0,0,0,0,0,0,0,0,-1,1490,750,0,0
273,274,0,0,0,0,0,0,0,0,0,-1,1497,750,0,0
280,274,0,0,0,0,0,0,0,0,0,-1,1504,750,0,0
287,274,0,0,0,0,0,0,0,0,0,-1,1511,750,0,0
294,274,0,0,0,0,0,0,0,0,0,-1,1518,750,0,0
301,274,0,0,0,0,0,0,0,0,0,-1,1525,750,0,0
308,274,0,0,0,0,0,0,0,0,0,-1,1532,750,0,0
315,274,0,0,0,0,0,0,0,0,0,-1,1539,750,0,0
322,274,0,0,0,0,0,0,0,0,0,-1,1546,750,0,0
329,274,0,0,0,0,0,0,0,0,0,-1,1553,750,0,0
336,274,0,0,0,0,0,0,0,0,0,-1,1560,750,0,0
343,274,0,0,0,0,0,0,0,0,0,-1,1567,750,0,0
350,274,0,0,0,0,0,0,0,0,0,-1,1574,750,0,0
357,274,0,0,0,0,0,0,0,0,0,-1,1581,750,0,0
364,274,0,0,0,0,0,0,0,0,0,-1,1588,750,0,0
371,274,0,0,0,0,0,0,0,0,0,-1,1595,750,0,0
378,274,0,0,0,0,0,0,0,0,0,-1,1602,750,0,0
385,274,0,0,0,0,0,0,0,0,0,-1,1609,750,0,0
392,274,0,0,0,0,0,0,0,0,0,-1,1616,750,0,0
399,274,0,0,0,0,0,0,0,0,0,-1,1623,750,0,0
406,274,0,0,0,0,0,0,0,0,0,-1,1630,750,0,0
413,274,0,0,0,0,0,0,0,0,0,-1,1637,750,0,0
420,274,0,0,0,0,0,0,0,0,0,-1,1644,750,0,0
427,274,0,0,0,0,0,0,0,0,0,-1,1651,750,0,0
434,274,0,0,0,0,0,0,0,0,0,-1,1658,750,0,0
441,274,0,0,0,0,0,0,0,0,0,-1,1665,750,0,0
448,274,0,0,0,0,0,0,0,0,0,-1,1672,750,0,0
455,274,0,0,0,0,0,0,0,0,0,-1,1679,750,0,0
462,274,0,0,0,0,0,0,0,0,0,-1,1686,750,0,0
469,274,0,0,0,0,0,0,0,0,0,-1,1693,750,0,0
476,274,0,0,0,0,0,0,0,0,0,-1,1700,750,0,0
483,274,0,0,0,0,0,0,0,0,0,-1,1707,750,0,0
490,274,0,0,0,0,0,0,0,0,0,-1,1714,750,0,0
497,274,0,0,0,0,0,0,0,0,0,-1,1721,750,0,0
504,274,0,0,0,0,0,0,0,0,0,-1,1728,750,0,0
511,274,0,0,0,0,0,0,0,0,0,-1,1735,750,0,0
518,274,0,0,0,0,0,0,0,0,0,-1,1742,750,0,0
525,274,0,0,0,0,0,0,0,0,0,-1,1749,750,0,0
532,274,0,0,0,0,0,0,0,0,0,-1,1756,750,0,0
539,274,0,0,0,0,0,0,0,0,0,-1,1763,750,0,0
546,274,0,0,0,0,0,0,0,0,0,-1,1770,750,0,0
553,274,0,0,0,0,0,0,0,0,0,-1,1777,750,0,0
560,274,57.9182,3.24518,0,0,0,0,0,0,0,-1,1784,750,57.9182,-3.24516
567,274,57.8315,3.4137,0,0,0,0,0,0,0,-1,1791,750,57.8315,-3.41368
574,274,58.2571,3.11115,0,0,0,0,0,0,0,-1,1798,750,58.2571,-3.11114
581,274,54.4941,4.68127,0,0,0,0,0,0,0,-1,1805,750,54.4941,-4.68125
588,274,53.9908,5.6676,0,0,0,0,0,0,0,-1,1812,750,53.9908,-5.66763
595,274,66.2316,2.66986,0,0,0,0,0,0,0,-1,1819,750,66.2315,-2.66988
602,274,55.6321,2.56519,0,0,0,0,0,0,0,-1,1826,750,55.6321,-2.56521
609,274,44.6676,3.10461,0,0,0,0,0,0,0,-1,1833,750,44.6676,-3.1046
616,274,32.7869,1.78436,0,0,0,0,0,0,0,-1,1840,750,32.7868,-1.78437
623,274,24.8231,-1.80353,0,0,0,0,0,0,0,-1,1847,750,24.8232,1.80351
630,274,52.6022,-9.35687,0,0,0,0,0,0,0,-1,1854,750,52.6021,9.35689
637,274,52.4385,-8.47601,0.00314661,-0.00119457,0.00144754,0.00358501,-0.00163297,0.294078,0.00308207,0.0353476,1861,750,52.4385,8.47601
644,274,52.4688,-7.40948,0.00190078,-0.000437158,0.000736755,0.00211359,-0.000649962,0.281186,0.00166846,0.015736,1868,750,52.4687,7.40947
651,274,52.448,-6.37445,0.000796067,0.000103116,3.84424e-05,0.000798193,0.00010099,0.0552504,0.000501864,0.0142289,1875,750,52.448,6.37447
658,274,52.3773,-5.39771,0.000464049,0.000354674,-8.42933e-05,0.000509841,0.000308882,-0.497641,0.000296547,0.0176699,1882,750,52.3773,5.39769
665,274,52.2987,-4.41412,0.000504846,0.000739987,4.68464e-05,0.000748976,0.000495857,1.38121,0.000439927,0.0180126,1889,750,52.2987,4.41414
672,274,52.2365,-3.43024,0.000795622,0.00117384,0.000328246,0.00136355,0.000605907,1.04673,0.00078887,0.0151183,1896,750,52.2364,3.43022
679,274,52.1699,-2.42755,0.00136987,0.00181692,0.000850716,0.00247299,0.000713807,0.913869,0.00146969,0.0169411,1903,750,52.1699,2.42756
686,274,52.0814,-1.43237,0.00201786,0.00254117,0.00142399,0.00372735,0.000831683,0.876258,0.00225929,0.0193946,1910,750,52.0814,1.43239
693,274,52.0016,-0.434631,0.00293001,0.00342351,0.00219824,0.0053888,0.000964711,0.841289,0.00331805,0.0137227,1917,750,52.0016,0.434657
700,274,51.976,0.602173,0.00417206,0.00451782,0.00328946,0.00763894,0.00105094,0.811652,0.00478097,0.0215192,1924,750,51.976,-0.602181
707,274,51.954,1.66595,0,0,0,0,0,0,0,-1,1931,750,51.9539,-1.66595
714,274,49.125,2.56622,0,0,0,0,0,0,0,-1,1938,750,49.1251,-2.5662
721,274,25.6215,3.91144,0,0,0,0,0,0,0,-1,1945,750,25.6214,-3.91141
728,274,19.2209,3.95154,0,0,0,0,0,0,0,-1,1952,750,19.221,-3.95151
735,274,20.6608,4.10931,0,0,0,0,0,0,0,-1,1959,750,20.6607,-4.10932
742,274,11.7815,-0.740234,0,0,0,0,0,0,0,-1,1966,750,11.7815,0.740253
749,274,0,0,0,0,0,0,0,0,0,-1,1973,750,0,0
756,274,0,0,0,0,0,0,0,0,0,-1,1980,750,0,0
763,274,0,0,0,0,0,0,0,0,0,-1,1987,750,0,0
770,274,0,0,0,0,0,0,0,0,0,-1,1994,750,0,0
777,274,0,0,0,0,0,0,0,0,0,-1,2001,750,0,0
784,274,0,0,0,0,0,0,0,0,0,-1,2008,750,0,0
791,274,0,0,0,0,0,0,0,0,0,-1,2015,750,0,0
798,274,0,0,0,0,0,0,0,0,0,-1,2022,750,0,0
805,274,0,0,0,0,0,0,0,0,0,-1,2029,750,0,0
812,274,0,0,0,0,0,0,0,0,0,-1,2036,750,0,0
-700,267,0,0,0,0,0,0,0,0,0,-1,524,757,0,0
-693,267,0,0,0,0,0,0,0,0,0,-1,531,757,0,0
-686,267,0,0,0,0,0,0,0,0,0,-1,538,757,0,0
-679,267,0,0,0,0,0,0,0,0,0,-1,545,757,0,0
-672,267,0,0,0,0,0,0,0,0,0,-1,552,757,0,0
-665,267,0,0,0,0,0,0,0,0,0,-1,559,757,0,0
-658,267,0,0,0,0,0,0,0,0,0,-1,566,757,0,0
-651,267,0,0,0,0,0,0,0,0,0,-1,573,757,0,0
-644,267,0,0,0,0,0,0,0,0,0,-1,580,757,0,0
-637,267,0,0,0,0,0,0,0,0,0,-1,587,757,0,0
-630,267,-21.3979,5.17529,0,0,0,0,0,0,0,-1,594,757,-21.3979,-5.17529
-623,267,-20.043,4.43115,0,0,0,0,0,0,0,-1,601,757,-20.043,-4.43116
-616,267,-27.1628,5.9325,0,0,0,0,0,0,0,-1,608,757,-27.1629,-5.93249
-609,267,-26.9868,4.99658,0,0,0,0,0,0,0,-1,615,757,-26.9868,-4.99656
-602,267,-26.6637,3.74072,0,0,0,0,0,0,0,-1,622,757,-26.6637,-3.74075
-595,267,-32.7299,2.1203,0,0,0,0,0,0,0,-1,629,757,-32.7299,-2.12028
-588,267,-35.7354,3.18311,0,0,0,0,0,0,0,-1,636,757,-35.7354,-3.1831
-581,267,-36.1131,1.8761,0,0,0,0,0,0,0,-1,643,757,-36.1131,-1.87608
-574,267,-36.1064,0.756409,-0.00223188,0.000554492,0.000249105,0.000576587,-0.00225398,1.48233,0.00172723,0.0293892,650,757,-36.1064,-0.756413
-567,267,-36.2924,-0.232849,-0.00166331,0.000540238,0.000441642,0.000625458,-0.00174853,1.38018,0.00142082,0.0322134,657,757,-36.2924,0.232859
-560,267,-36.3629,-1.22516,-0.0014226,0.000530559,0.000501453,0.000651778,-0.00154382,1.33361,0.00130204,0.024462,664,757,-36.3629,1.22514
-553,267,-36.4386,-2.24835,-0.00134796,0.000533186,0.000528336,0.000671416,-0.00148619,1.3149,0.00127496,0.0183999,671,757,-36.4386,2.24837
-546,267,-36.5252,-3.27618,-0.00146208,0.000328674,0.000603695,0.00051318,-0.00164659,1.27418,0.00130292,0.0124154,678,757,-36.5252,3.27617
-539,267,-36.5725,-4.28613,-0.00184895,0.000202728,0.00063801,0.000384946,-0.00203117,1.2926,0.00149899,0.0121795,685,757,-36.5725,4.2861
-532,267,-36.5812,-5.27258,-0.00223803,1.15243e-05,0.000656284,0.000188988,-0.00241549,1.3067,0.00167688,0.0135347,692,757,-36.5812,5.27258
-525,267,-36.7029,-6.22675,-0.00226854,-0.000570737,0.000621247,-0.000367696,-0.00247158,1.25491,0.00153986,0.0136628,699,757,-36.703,6.22675
-518,267,-36.83,-7.27722,-0.00224118,-0.00130916,0.000958107,-0.000709739,-0.00284059,1.01175,0.00170706,0.018613,706,757,-36.83,7.27723
-511,267,-36.8163,-8.3172,-0.0016885,-0.00298096,0.00117151,-0.000996804,-0.00367266,0.533355,0.00219303,0.0403457,713,757,-36.8163,8.31721
-504,267,-37.0135,-9.4389,0,0,0,0,0,0,0,-1,720,757,-37.0135,9.4389
-497,267,-31.5913,-8.72119,0,0,0,0,0,0,0,-1,727,757,-31.5913,8.72117
-490,267,-23.4949,-0.494995,0,0,0,0,0,0,0,-1,734,757,-23.4949,0.494981
-483,267,-33.2785,-0.448425,0,0,0,0,0,0,0,-1,741,757,-33.2785,0.448407
-476,267,-40.2954,0.52002,0,0,0,0,0,0,0,-1,748,757,-40.2954,-0.520037
-469,267,-52.9857,0.187744,0,0,0,0,0,0,0,-1,755,757,-52.9857,-0.187726
-462,267,-64.7761,0.183594,0,0,0,0,0,0,0,-1,762,757,-64.7761,-0.183565
-455,267,-63.6348,0.206177,0,0,0,0,0,0,0,-1,769,757,-63.6348,-0.206181
-448,267,-63.1012,0.806885,0,0,0,0,0,0,0,-1,776,757,-63.1012,-0.806906
-441,267,0,0,0,0,0,0,0,0,0,-1,783,757,0,0
-434,267,0,0,0,0,0,0,0,0,0,-1,790,757,0,0
-427,267,0,0,0,0,0,0,0,0,0,-1,797,757,0,0
-420,267,0,0,0,0,0,0,0,0,0,-1,804,757,0,0
-413,267,0,0,0,0,0,0,0,0,0,-1,811,757,0,0
-406,267,0,0,0,0,0,0,0,0,0,-1,818,757,0,0
-399,267,0,0,0,0,0,0,0,0,0,-1,825,757,0,0
-392,267,0,0,0,0,0,0,0,0,0,-1,832,757,0,0
-385,267,0,0,0,0,0,0,0,0,0,-1,839,757,0,0
-378,267,0,0,0,0,0,0,0,0,0,-1,846,757,0,0
-371,267,0,0,0,0,0,0,0,0,0,-1,853,757,0,0
-364,267,0,0,0,0,0,0,0,0,0,-1,860,757,0,0
-357,267,0,0,0,0,0,0,0,0,0,-1,867,757,0,0
-350,267,0,0,0,0,0,0,0,0,0,-1,874,757,0,0
-343,267,0,0,0,0,0,0,0,0,0,-1,881,757,0,0
-336,267,0,0,0,0,0,0,0,0,0,-1,888,757,0,0
-329,267,0,0,0,0,0,0,0,0,0,-1,895,757,0,0
-322,267,0,0,0,0,0,0,0,0,0,-1,902,757,0,0
-315,267,0,0,0,0,0,0,0,0,0,-1,909,757,0,0
-308,267,0,0,0,0,0,0,0,0,0,-1,916,757,0,0
-301,267,0,0,0,0,0,0,0,0,0,-1,923,757,0,0
-294,267,0,0,0,0,0,0,0,0,0,-1,930,757,0,0
-287,267,0,0,0,0,0,0,0,0,0,-1,937,757,0,0
-280,267,0,0,0,0,0,0,0,0,0,-1,944,757,0,0
-273,267,0,0,0,0,0,0,0,0,0,-1,951,757,0,0
-266,267,0,0,0,0,0,0,0,0,0,-1,958,757,0,0
-259,267,0,0,0,0,0,0,0,0,0,-1,965,757,0,0
-252,267,0,0,0,0,0,0,0,0,0,-1,972,757,0,0
-245,267,0,0,0,0,0,0,0,0,0,-1,979,757,0,0
-238,267,0,0,0,0,0,0,0,0,0,-1,986,757,0,0
-231,267,0,0,0,0,0,0,0,0,0,-1,993,757,0,0
-224,267,0,0,0,0,0,0,0,0,0,-1,1000,757,0,0
-217,267,0,0,0,0,0,0,0,0,0,-1,1007,757,0,0
-210,267,0,0,0,0,0,0,0,0,0,-1,1014,757,0,0
-203,267,0,0,0,0,0,0,0,0,0,-1,1021,757,0,0
-196,267,0,0,0,0,0,0,0,0,0,-1,1028,757,0,0
-189,267,0,0,0,0,0,0,0,0,0,-1,1035,757,0,0
-182,267,0,0,0,0,0,0,0,0,0,-1,1042,757,0,0
-175,267,0,0,0,0,0,0,0,0,0,-1,1049,757,0,0
-168,267,0,0,0,0,0,0,0,0,0,-1,1056,757,0,0
-161,267,0,0,0,0,0,0,0,0,0,-1,1063,757,0,0
-154,267,0,0,0,0,0,0,0,0,0,-1,1070,757,0,0
-147,267,0,0,0,0,0,0,0,0,0,-1,1077,757,0,0
-140,267,0,0,0,0,0,0,0,0,0,-1,1084,757,0,0
-133,267,0,0,0,0,0,0,0,0,0,-1,1091,757,0,0
-126,267,0,0,0,0,0,0,0,0,0,-1,1098,757,0,0
-119,267,0,0,0,0,0,0,0,0,0,-1,1105,757,0,0
-112,267,0,0,0,0,0,0,0,0,0,-1,1112,757,0,0
-105,267,0,0,0,0,0,0,0,0,0,-1,1119,757,0,0
-98,267,0,0,0,0,0,0,0,0,0,-1,1126,757,0,0
-91,267,0,0,0,0,0,0,0,0,0,-1,1133,757,0,0
-84,267,0,0,0,0,0,0,0,0,0,-1,1140,757,0,0
-77,267,0,0,0,0,0,0,0,0,0,-1,1147,757,0,0
-70,267,0,0,0,0,0,0,0,0,0,-1,1154,757,0,0
-63,267,0,0,0,0,0,0,0,0,0,-1,1161,757,0,0
-56,267,0,0,0,0,0,0,0,0,0,-1,1168,757,0,0
-49,267,0,0,0,0,0,0,0,0,0,-1,1175,757,0,0
-42,267,0,0,0,0,0,0,0,0,0,-1,1182,757,0,0
-35,267,0,0,0,0,0,0,0,0,0,-1,1189,757,0,0
-28,267,0,0,0,0,0,0,0,0,0,-1,1196,757,0,0
-21,267,0,0,0,0,0,0,0,0,0,-1,1203,757,0,0
-14,267,0,0,0,0,0,0,0,0,0,-1,1210,757,0,0
-7,267,0,0,0,0,0,0,0,0,0,-1,1217,757,0,0
0,267,0,0,0,0,0,0,0,0,0,-1,1224,757,0,0
7,267,0,0,0,0,0,0,0,0,0,-1,1231,757,0,0
14,267,0,0,0,0,0,0,0,0,0,-1,1238,757,0,0
21,267,0,0,0,0,0,0,0,0,0,-1,1245,757,0,0
28,267,0,0,0,0,0,0,0,0,0,-1,1252,757,0,0
35,267,0,0,0,0,0,0,0,0,0,-1,1259,757,0,0
42,267,0,0,0,0,0,0,0,0,0,-1,1266,757,0,0
49,267,0,0,0,0,0,0,0,0,0,-1,1273,757,0,0
56,267,0,0,0,0,0,0,0,0,0,-1,1280,757,0,0
63,267,0,0,0,0,0,0,0,0,0,-1,1287,757,0,0
70,267,0,0,0,0,0,0,0,0,0,-1,1294,757,0,0
77,267,0,0,0,0,0,0,0,0,0,-1,1301,757,0,0
84,267,0,0,0,0,0,0,0,0,0,-1,1308,757,0,0
91,267,0,0,0,0,0,0,0,0,0,-1,1315,757,0,0
98,267,0,0,0,0,0,0,0,0,0,-1,1322,757,0,0
105,267,0,0,0,0,0,0,0,0,0,-1,1329,757,0,0
112,267,0,0,0,0,0,0,0,0,0,-1,1336,757,0,0
119,267,0,0,0,0,0,0,0,0,0,-1,1343,757,0,0
126,267,0,0,0,0,0,0,0,0,0,-1,1350,757,0,0
133,267,0,0,0,0,0,0,0,0,0,-1,1357,757,0,0
140,267,0,0,0,0,0,0,0,0,0,-1,1364,757,0,0
147,267,0,0,0,0,0,0,0,0,0,-1,1371,757,0,0
154,267,0,0,0,0,0,0,0,0,0,-1,1378,757,0,0
161,267,0,0,0,0,0,0,0,0,0,-1,1385,757,0,0
168,267,0,0,0,0,0,0,0,0,0,-1,1392,757,0,0
175,267,0,0,0,0,0,0,0,0,0,-1,1399,757,0,0
182,267,0,0,0,0,0,0,0,0,0,-1,1406,757,0,0
189,267,0,0,0,0,0,0,0,0,0,-1,1413,757,0,0
196,267,0,0,0,0,0,0,0,0,0,-1,1420,757,0,0
203,267,0,0,0,0,0,0,0,0,0,-1,1427,757,0,0
210,267,0,0,0,0,0,0,0,0,0,-1,1434,757,0,0
217,267,0,0,0,0,0,0,0,0,0,-1,1441,757,0,0
224,267,0,0,0,0,0,0,0,0,0,-1,1448,757,0,0
231,267,0,0,0,0,0,0,0,0,0,-1,1455,757,0,0
238,267,0,0,0,0,0,0,0,0,0,-1,1462,757,0,0
245,267,0,0,0,0,0,0,0,0,0,-1,1469,757,0,0
252,267,0,0,0,0,0,0,0,0,0,-1,1476,757,0,0
259,267,0,0,0,0,0,0,0,0,0,-1,1483,757,0,0
266,267,0,0,0,0,0,0,0,0,0,-1,1490,757,0,0
273,267,0,0,0,0,0,0,0,0,0,-1,1497,757,0,0
280,267,0,0,0,0,0,0,0,0,0,-1,1504,757,0,0
287,267,0,0,0,0,0,0,0,0,0,-1,1511,757,0,0
294,267,0,0,0,0,0,0,0,0,0,-1,1518,757,0,0
301,267,0,0,0,0,0,0,0,0,0,-1,1525,757,0,0
308,267,0,0,0,0,0,0,0,0,0,-1,1532,757,0,0
315,267,0,0,0,0,0,0,0,0,0,-1,1539,757,0,0
322,267,0,0,0,0,0,0,0,0,0,-1,1546,757,0,0
329,267,0,0,0,0,0,0,0,0,0,-1,1553,757,0,0
336,267,0,0,0,0,0,0,0,0,0,-1,1560,757,0,0
343,267,0,0,0,0,0,0,0,0,0,-1,1567,757,0,0
350,267,0,0,0,0,0,0,0,0,0,-1,1574,757,0,0
357,267,0,0,0,0,0,0,0,0,0,-1,1581,757,0,0
364,267,0,0,0,0,0,0,0,0,0,-1,1588,757,0,0
371,267,0,0,0,0,0,0,0,0,0,-1,1595,757,0,0
378,267,0,0,0,0,0,0,0,0,0,-1,1602,757,0,0
385,267,0,0,0,0,0,0,0,0,0,-1,1609,757,0,0
392,267,0,0,0,0,0,0,0,0,0,-1,1616,757,0,0
399,267,0,0,0,0,0,0,0,0,0,-1,1623,757,0,0
406,267,0,0,0,0,0,0,0,0,0,-1,1630,757,0,0
413,267,0,0,0,0,0,0,0,0,0,-1,1637,757,0,0
420,267,0,0,0,0,0,0,0,0,0,-1,1644,757,0,0
427,267,0,0,0,0,0,0,0,0,0,-1,1651,757,0,0
434,267,0,0,0,0,0,0,0,0,0,-1,1658,757,0,0
441,267,0,0,0,0,0,0,0,0,0,-1,1665,757,0,0
448,267,0,0,0,0,0,0,0,0,0,-1,1672,757,0,0
455,267,0,0,0,0,0,0,0,0,0,-1,1679,757,0,0
462,267,0,0,0,0,0,0,0,0,0,-1,1686,757,0,0
469,267,0,0,0,0,0,0,0,0,0,-1,1693,757,0,0
476,267,0,0,0,0,0,0,0,0,0,-1,1700,757,0,0
483,267,0,0,0,0,0,0,0,0,0,-1,1707,757,0,0
490,267,0,0,0,0,0,0,0,0,0,-1,1714,757,0,0
497,267,0,0,0,0,0,0,0,0,0,-1,1721,757,0,0
504,267,0,0,0,0,0,0,0,0,0,-1,1728,757,0,0
511,267,0,0,0,0,0,0,0,0,0,-1,1735,757,0,0
518,267,0,0,0,0,0,0,0,0,0,-1,1742,757,0,0
525,267,0,0,0,0,0,0,0,0,0,-1,1749,757,0,0
532,267,0,0,0,0,0,0,0,0,0,-1,1756,757,0,0
539,267,0,0,0,0,0,0,0,0,0,-1,1763,757,0,0
546,267,0,0,0,0,0,0,0,0,0,-1,1770,757,0,0
553,267,0,0,0,0,0,0,0,0,0,-1,1777,757,0,0
560,267,0,0,0,0,0,0,0,0,0,-1,1784,757,0,0
567,267,58.0104,3.24304,0,0,0,0,0,0,0,-1,1791,757,58.0104,-3.24306
574,267,64.5414,2.91858,0,0,0,0,0,0,0,-1,1798,757,64.5414,-2.91855
581,267,58.374,2.95636,0,0,0,0,0,0,0,-1,1805,757,58.3741,-2.95639
588,267,65.9681,2.6438,0,0,0,0,0,0,0,-1,1812,757,65.9682,-2.64382
595,267,66.191,2.60791,0,0,0,0,0,0,0,-1,1819,757,66.191,-2.60792
602,267,66.4139,2.57202,0,0,0,0,0,0,0,-1,1826,757,66.4139,-2.57203
609,267,54.5498,3.24054,0,0,0,0,0,0,0,-1,1833,757,54.5498,-3.24052
616,267,44.2543,3.28918,0,0,0,0,0,0,0,-1,1840,757,44.2542,-3.28918
623,267,24.1475,-1.1391,0,0,0,0,0,0,0,-1,1847,757,24.1475,1.13913
630,267,40.7198,-5.42108,0,0,0,0,0,0,0,-1,1854,757,40.7198,5.4211
637,267,53.3683,-8.26038,0,0,0,0,0,0,0,-1,1861,757,53.3683,8.26036
644,267,53.4434,-7.42761,0.00197022,-0.000729359,0.000561318,0.00208228,-0.000841421,0.19705,0.00173794,0.0274986,1868,757,53.4433,7.4276
651,267,53.3846,-6.26556,0.000671204,-0.000131243,-0.000196074,0.000716552,-0.00017659,-0.22728,0.000546165,0.0201827,1875,757,53.3847,6.26554
658,267,53.3575,-5.33099,0.000140185,0.000107229,-0.00040251,0.000526554,-0.000279141,-0.764941,0.000472423,0.0158137,1882,757,53.3575,5.331
665,267,53.2837,-4.35046,0.000121123,0.000462225,-0.000332158,0.00066506,-8.17116e-05,-1.02258,0.000472969,0.0167991,1889,757,53.2836,4.35044
672,267,53.2316,-3.35498,0.000399059,0.000825645,-9.58155e-05,0.000846178,0.000378526,-1.35969,0.000489444,0.0151559,1896,757,53.2316,3.35497
679,267,53.1842,-2.35266,0.000928198,0.0013993,0.000373304,0.00160516,0.000722343,1.06685,0.000928281,0.0137248,1903,757,53.1842,2.35267
686,267,53.1088,-1.3374,0.0015284,0.00204166,0.000895844,0.00271691,0.000853152,0.924896,0.00160437,0.0192072,1910,757,53.1087,1.33739
693,267,53.0134,-0.396729,0.00231869,0.00279537,0.00158756,0.00416239,0.000951675,0.859907,0.00251837,0.0186746,1917,757,53.0135,0.396714
700,267,52.9519,0.598938,0.00339767,0.00372305,0.00255698,0.00612251,0.000998214,0.817168,0.00379298,0.0168867,1924,757,52.9519,-0.598923
707,267,52.9188,1.59027,0.00454311,0.00477049,0.00361543,0.00827402,0.00103958,0.801116,0.00520421,0.0280871,1931,757,52.9188,-1.59026
714,267,52.9113,2.63593,0,0,0,0,0,0,0,-1,1938,757,52.9113,-2.63591
721,267,47.0829,3.73804,0,0,0,0,0,0,0,-1,1945,757,47.0828,-3.73803
728,267,26.7886,3.90027,0,0,0,0,0,0,0,-1,1952,757,26.7886,-3.90028
735,267,24.6713,2.82483,0,0,0,0,0,0,0,-1,1959,757,24.6713,-2.82483
742,267,18.1177,3.56561,0,0,0,0,0,0,0,-1,1966,757,18.1176,-3.56564
749,267,0,0,0,0,0,0,0,0,0,-1,1973,757,0,0
756,267,0,0,0,0,0,0,0,0,0,-1,1980,757,0,0
763,267,0,0,0,0,0,0,0,0,0,-1,1987,757,0,0
770,267,0,0,0,0,0,0,0,0,0,-1,1994,757,0,0
777,267,0,0,0,0,0,0,0,0,0,-1,2001,757,0,0
784,267,0,0,0,0,0,0,0,0,0,-1,2008,757,0,0
791,267,0,0,0,0,0,0,0,0,0,-1,2015,757,0,0
798,267,0,0,0,0,0,0,0,0,0,-1,2022,757,0,0
805,267,0,0,0,0,0,0,0,0,0,-1,2029,757,0,0
812,267,0,0,0,0,0,0,0,0,0,-1,2036,757,0,0
-700,260,0,0,0,0,0,0,0,0,0,-1,524,764,0,0
-693,260,0,0,0,0,0,0,0,0,0,-1,531,764,0,0
-686,260,0,0,0,0,0,0,0,0,0,-1,538,764,0,0
-679,260,0,0,0,0,0,0,0,0,0,-1,545,764,0,0
-672,260,0,0,0,0,0,0,0,0,0,-1,552,764,0,0
-665,260,0,0,0,0,0,0,0,0,0,-1,559,764,0,0
-658,260,0,0,0,0,0,0,0,0,0,-1,566,764,0,0
-651,260,0,0,0,0,0,0,0,0,0,-1,573,764,0,0
-644,260,0,0,0,0,0,0,0,0,0,-1,580,764,0,0
-637,260,0,0,0,0,0,0,0,0,0,-1,587,764,0,0
-630,260,-21.8905,4.49341,0,0,0,0,0,0,0,-1,594,764,-21.8905,-4.49342
-623,260,-20.3127,3.53546,0,0,0,0,0,0,0,-1,601,764,-20.3127,-3.53544
-616,260,-23.4346,3.65009,0,0,0,0,0,0,0,-1,608,764,-23.4345,-3.65008
-609,260,-27.8874,4.42004,0,0,0,0,0,0,0,-1,615,764,-27.8874,-4.42005
-602,260,-32.8671,3.61243,0,0,0,0,0,0,0,-1,622,764,-32.867,-3.61241
-595,260,-37.3934,3.3512,0,0,0,0,0,0,0,-1,629,764,-37.3934,-3.35118
-588,260,-37.4379,2.73737,0,0,0,0,0,0,0,-1,636,764,-37.4379,-2.73735
-581,260,-37.241,1.7265,-0.0022319,0.000667838,-0.000308642,0.000700325,-0.00226439,-1.46592,0.00178932,0.0351515,643,764,-37.241,-1.72648
-574,260,-37.2197,0.809082,-0.00173879,0.00074729,6.96504e-05,0.000749239,-0.00174074,1.54281,0.00147509,0.0225117,650,764,-37.2197,-0.809098
-567,260,-37.2803,-0.125977,-0.00140685,0.000672089,0.000377767,0.000738605,-0.00147336,1.3965,0.00130035,0.0198055,657,764,-37.2803,0.125978
-560,260,-37.3549,-1.15997,-0.00130876,0.000638129,0.000550068,0.000782794,-0.00145343,1.31363,0.00131029,0.0219127,664,764,-37.3549,1.15996
-553,260,-37.4527,-2.17157,-0.00137372,0.000687558,0.000674982,0.000888916,-0.00157508,1.28088,0.00144086,0.0182672,671,764,-37.4527,2.17156
-546,260,-37.5028,-3.20428,-0.0016473,0.000506541,0.000815258,0.000780325,-0.00192108,1.2468,0.00160534,0.012357,678,764,-37.5028,3.20425
-539,260,-37.5387,-4.20068,-0.00221019,0.000382051,0.000846799,0.000634154,-0.00246229,1.28144,0.00188874,0.0145133,685,764,-37.5387,4.20068
-532,260,-37.5651,-5.11914,-0.00265823,0.000213833,0.000820556,0.000431736,-0.00287613,1.31123,0.00207635,0.0195676,692,764,-37.565,5.11912
-525,260,-37.6973,-6.05389,-0.00258794,-0.000323803,0.000708608,-0.000120318,-0.00279143,1.29116,0.00182217,0.0222713,699,764,-37.6973,6.05387
-518,260,-37.9911,-7.12549,-0.00248924,-0.00106358,0.000997956,-0.000550017,-0.0030028,1.09552,0.00184605,0.031941,706,764,-37.9911,7.12552
-511,260,-37.8199,-8.17548,0,0,0,0,0,0,0,-1,713,764,-37.8199,8.1755
-504,260,-34.7117,-8.67163,0,0,0,0,0,0,0,-1,720,764,-34.7117,8.6716
-497,260,-16.6542,-3.67334,0,0,0,0,0,0,0,-1,727,764,-16.6542,3.67331
-490,260,-29.4557,0.921387,0,0,0,0,0,0,0,-1,734,764,-29.4557,-0.921369
-483,260,-40.8972,1.04193,0,0,0,0,0,0,0,-1,741,764,-40.8972,-1.04193
-476,260,-53.8282,0.00378418,0,0,0,0,0,0,0,-1,748,764,-53.8283,-0.00378825
-469,260,-64.1473,0.448486,0,0,0,0,0,0,0,-1,755,764,-64.1473,-0.448505
-462,260,-64.6227,0.182495,0,0,0,0,0,0,0,-1,762,764,-64.6228,-0.182475
-455,260,-64.5267,0.477417,0,0,0,0,0,0,0,-1,769,764,-64.5268,-0.477405
-448,260,0,0,0,0,0,0,0,0,0,-1,776,764,0,0
-441,260,0,0,0,0,0,0,0,0,0,-1,783,764,0,0
-434,260,0,0,0,0,0,0,0,0,0,-1,790,764,0,0
-427,260,0,0,0,0,0,0,0,0,0,-1,797,764,0,0
-420,260,0,0,0,0,0,0,0,0,0,-1,804,764,0,0
-413,260,0,0,0,0,0,0,0,0,0,-1,811,764,0,0
-406,260,0,0,0,0,0,0,0,0,0,-1,818,764,0,0
-399,260,0,0,0,0,0,0,0,0,0,-1,825,764,0,0
-392,260,0,0,0,0,0,0,0,0,0,-1,832,764,0,0
-385,260,0,0,0,0,0,0,0,0,0,-1,839,764,0,0
-378,260,0,0,0,0,0,0,0,0,0,-1,846,764,0,0
-371,260,0,0,0,0,0,0,0,0,0,-1,853,764,0,0
-364,260,0,0,0,0,0,0,0,0,0,-1,860,764,0,0
-357,260,0,0,0,0,0,0,0,0,0,-1,867,764,0,0
-350,260,0,0,0,0,0,0,0,0,0,-1,874,764,0,0
-343,260,0,0,0,0,0,0,0,0,0,-1,881,764,0,0
-336,260,0,0,0,0,0,0,0,0,0,-1,888,764,0,0
-329,260,0,0,0,0,0,0,0,0,0,-1,895,764,0,0
-322,260,0,0,0,0,0,0,0,0,0,-1,902,764,0,0
-315,260,0,0,0,0,0,0,0,0,0,-1,909,764,0,0
-308,260,0,0,0,0,0,0,0,0,0,-1,916,764,0,0
-301,260,0,0,0,0,0,0,0,0,0,-1,923,764,0,0
-294,260,0,0,0,0,0,0,0,0,0,-1,930,764,0,0
-287,260,0,0,0,0,0,0,0,0,0,-1,937,764,0,0
-280,260,0,0,0,0,0,0,0,0,0,-1,944,764,0,0
-273,260,0,0,0,0,0,0,0,0,0,-1,951,764,0,0
-266,260,0,0,0,0,0,0,0,0,0,-1,958,764,0,0
-259,260,0,0,0,0,0,0,0,0,0,-1,965,764,0,0
-252,260,0,0,0,0,0,0,0,0,0,-1,972,764,0,0
-245,260,0,0,0,0,0,0,0,0,0,-1,979,764,0,0
-238,260,0,0,0,0,0,0,0,0,0,-1,986,764,0,0
-231,260,0,0,0,0,0,0,0,0,0,-1,993,764,0,0
-224,260,0,0,0,0,0,0,0,0,0,-1,1000,764,0,0
-217,260,0,0,0,0,0,0,0,0,0,-1,1007,764,0,0
-210,260,0,0,0,0,0,0,0,0,0,-1,1014,764,0,0
-203,260,0,0,0,0,0,0,0,0,0,-1,1021,764,0,0
-196,260,0,0,0,0,0,0,0,0,0,-1,1028,764,0,0
-189,260,0,0,0,0,0,0,0,0,0,-1,1035,764,0,0
-182,260,0,0,0,0,0,0,0,0,0,-1,1042,764,0,0
-175,260,0,0,0,0,0,0,0,0,0,-1,1049,764,0,0
-168,260,0,0,0,0,0,0,0,0,0,-1,1056,764,0,0
-161,260,0,0,0,0,0,0,0,0,0,-1,1063,764,0,0
-154,260,0,0,0,0,0,0,0,0,0,-1,1070,764,0,0
-147,260,0,0,0,0,0,0,0,0,0,-1,1077,764,0,0
-140,260,0,0,0,0,0,0,0,0,0,-1,1084,764,0,0
-133,260,0,0,0,0,0,0,0,0,0,-1,1091,764,0,0
-126,260,0,0,0,0,0,0,0,0,0,-1,1098,764,0,0
-119,260,0,0,0,0,0,0,0,0,0,-1,1105,764,0,0
-112,260,0,0,0,0,0,0,0,0,0,-1,1112,764,0,0
-105,260,0,0,0,0,0,0,0,0,0,-1,1119,764,0,0
-98,260,0,0,0,0,0,0,0,0,0,-1,1126,764,0,0
-91,260,0,0,0,0,0,0,0,0,0,-1,1133,764,0,0
-84,260,0,0,0,0,0,0,0,0,0,-1,1140,764,0,0
-77,260,0,0,0,0,0,0,0,0,0,-1,1147,764,0,0
-70,260,0,0,0,0,0,0,0,0,0,-1,1154,764,0,0
-63,260,0,0,0,0,0,0,0,0,0,-1,1161,764,0,0
-56,260,0,0,0,0,0,0,0,0,0,-1,1168,764,0,0
-49,260,0,0,0,0,0,0,0,0,0,-1,1175,764,0,0
-42,260,0,0,0,0,0,0,0,0,0,-1,1182,764,0,0
-35,260,0,0,0,0,0,0,0,0,0,-1,1189,764,0,0
-28,260,0,0,0,0,0,0,0,0,0,-1,1196,764,0,0
-21,260,0,0,0,0,0,0,0,0,0,-1,1203,764,0,0
-14,260,0,0,0,0,0,0,0,0,0,-1,1210,764,0,0
-7,260,0,0,0,0,0,0,0,0,0,-1,1217,764,0,0
0,260,0,0,0,0,0,0,0,0,0,-1,1224,764,0,0
7,260,0,0,0,0,0,0,0,0,0,-1,1231,764,0,0
14,260,0,0,0,0,0,0,0,0,0,-1,1238,764,0,0
21,260,0,0,0,0,0,0,0,0,0,-1,1245,764,0,0
28,260,0,0,0,0,0,0,0,0,0,-1,1252,764,0,0
35,260,0,0,0,0,0,0,0,0,0,-1,1259,764,0,0
42,260,0,0,0,0,0,0,0,0,0,-1,1266,764,0,0
49,260,0,0,0,0,0,0,0,0,0,-1,1273,764,0,0
56,260,0,0,0,0,0,0,0,0,0,-1,1280,764,0,0
63,260,0,0,0,0,0,0,0,0,0,-1,1287,764,0,0
70,260,0,0,0,0,0,0,0,0,0,-1,1294,764,0,0
77,260,0,0,0,0,0,0,0,0,0,-1,1301,764,0,0
84,260,0,0,0,0,0,0,0,0,0,-1,1308,764,0,0
91,260,0,0,0,0,0,0,0,0,0,-1,1315,764,0,0
98,260,0,0,0,0,0,0,0,0,0,-1,1322,764,0,0
105,260,0,0,0,0,0,0,0,0,0,-1,1329,764,0,0
112,260,0,0,0,0,0,0,0,0,0,-1,1336,764,0,0
119,260,0,0,0,0,0,0,0,0,0,-1,1343,764,0,0
126,260,0,0,0,0,0,0,0,0,0,-1,1350,764,0,0
133,260,0,0,0,0,0,0,0,0,0,-1,1357,764,0,0
140,260,0,0,0,0,0,0,0,0,0,-1,1364,764,0,0
147,260,0,0,0,0,0,0,0,0,0,-1,1371,764,0,0
154,260,0,0,0,0,0,0,0,0,0,-1,1378,764,0,0
161,260,0,0,0,0,0,0,0,0,0,-1,1385,764,0,0
168,260,0,0,0,0,0,0,0,0,0,-1,1392,764,0,0
175,260,0,0,0,0,0,0,0,0,0,-1,1399,764,0,0
182,260,0,0,0,0,0,0,0,0,0,-1,1406,764,0,0
189,260,0,0,0,0,0,0,0,0,0,-1,1413,764,0,0
196,260,0,0,0,0,0,0,0,0,0,-1,1420,764,0,0
203,260,0,0,0,0,0,0,0,0,0,-1,1427,764,0,0
210,260,0,0,0,0,0,0,0,0,0,-1,1434,764,0,0
217,260,0,0,0,0,0,0,0,0,0,-1,1441,764,0,0
224,260,0,0,0,0,0,0,0,0,0,-1,1448,764,0,0
231,260,0,0,0,0,0,0,0,0,0,-1,1455,764,0,0
238,260,0,0,0,0,0,0,0,0,0,-1,1462,764,0,0
245,260,0,0,0,0,0,0,0,0,0,-1,1469,764,0,0
252,260,0,0,0,0,0,0,0,0,0,-1,1476,764,0,0
259,260,0,0,0,0,0,0,0,0,0,-1,1483,764,0,0
266,260,0,0,0,0,0,0,0,0,0,-1,1490,764,0,0
273,260,0,0,0,0,0,0,0,0,0,-1,1497,764,0,0
280,260,0,0,0,0,0,0,0,0,0,-1,1504,764,0,0
287,260,0,0,0,0,0,0,0,0,0,-1,1511,764,0,0
294,260,0,0,0,0,0,0,0,0,0,-1,1518,764,0,0
301,260,0,0,0,0,0,0,0,0,0,-1,1525,764,0,0
308,260,0,0,0,0,0,0,0,0,0,-1,1532,764,0,0
315,260,0,0,0,0,0,0,0,0,0,-1,1539,764,0,0
322,260,0,0,0,0,0,0,0,0,0,-1,1546,764,0,0
329,260,0,0,0,0,0,0,0,0,0,-1,1553,764,0,0
336,260,0,0,0,0,0,0,0,0,0,-1,1560,764,0,0
343,260,0,0,0,0,0,0,0,0,0,-1,1567,764,0,0
350,260,0,0,0,0,0,0,0,0,0,-1,1574,764,0,0
357,260,0,0,0,0,0,0,0,0,0,-1,1581,764,0,0
364,260,0,0,0,0,0,0,0,0,0,-1,1588,764,0,0
371,260,0,0,0,0,0,0,0,0,0,-1,1595,764,0,0
378,260,0,0,0,0,0,0,0,0,0,-1,1602,764,0,0
385,260,0,0,0,0,0,0,0,0,0,-1,1609,764,0,0
392,260,0,0,0,0,0,0,0,0,0,-1,1616,764,0,0
399,260,0,0,0,0,0,0,0,0,0,-1,1623,764,0,0
406,260,0,0,0,0,0,0,0,0,0,-1,1630,764,0,0
413,260,0,0,0,0,0,0,0,0,0,-1,1637,764,0,0
420,260,0,0,0,0,0,0,0,0,0,-1,1644,764,0,0
427,260,0,0,0,0,0,0,0,0,0,-1,1651,764,0,0
434,260,0,0,0,0,0,0,0,0,0,-1,1658,764,0,0
441,260,0,0,0,0,0,0,0,0,0,-1,1665,764,0,0
448,260,0,0,0,0,0,0,0,0,0,-1,1672,764,0,0
455,260,0,0,0,0,0,0,0,0,0,-1,1679,764,0,0
462,260,0,0,0,0,0,0,0,0,0,-1,1686,764,0,0
469,260,0,0,0,0,0,0,0,0,0,-1,1693,764,0,0
476,260,0,0,0,0,0,0,0,0,0,-1,1700,764,0,0
483,260,0,0,0,0,0,0,0,0,0,-1,1707,764,0,0
490,260,0,0,0,0,0,0,0,0,0,-1,1714,764,0,0
497,260,0,0,0,0,0,0,0,0,0,-1,1721,764,0,0
504,260,0,0,0,0,0,0,0,0,0,-1,1728,764,0,0
511,260,0,0,0,0,0,0,0,0,0,-1,1735,764,0,0
518,260,0,0,0,0,0,0,0,0,0,-1,1742,764,0,0
525,260,0,0,0,0,0,0,0,0,0,-1,1749,764,0,0
532,260,0,0,0,0,0,0,0,0,0,-1,1756,764,0,0
539,260,0,0,0,0,0,0,0,0,0,-1,1763,764,0,0
546,260,0,0,0,0,0,0,0,0,0,-1,1770,764,0,0
553,260,0,0,0,0,0,0,0,0,0,-1,1777,764,0,0
560,260,0,0,0,0,0,0,0,0,0,-1,1784,764,0,0
567,260,0,0,0,0,0,0,0,0,0,-1,1791,764,0,0
574,260,80.8627,2.21051,0,0,0,0,0,0,0,-1,1798,764,80.8627,-2.21053
581,260,80.8862,2.32202,0,0,0,0,0,0,0,-1,1805,764,80.8862,-2.32202
588,260,78.047,2.81091,0,0,0,0,0,0,0,-1,1812,764,78.047,-2.81091
595,260,66.1678,2.56989,0,0,0,0,0,0,0,-1,1819,764,66.1678,-2.56989
602,260,65.9274,2.69824,0,0,0,0,0,0,0,-1,1826,764,65.9274,-2.69825
609,260,65.4674,3.08105,0,0,0,0,0,0,0,-1,1833,764,65.4673,-3.08107
616,260,46.0709,2.74542,0,0,0,0,0,0,0,-1,1840,764,46.0709,-2.74545
623,260,32.2268,3.25836,0,0,0,0,0,0,0,-1,1847,764,32.2268,-3.25833
630,260,24.3739,-0.536316,0,0,0,0,0,0,0,-1,1854,764,24.3739,0.536343
637,260,42.7155,-5.35486,0,0,0,0,0,0,0,-1,1861,764,42.7154,5.35488
644,260,54.5109,-7.58203,0,0,0,0,0,0,0,-1,1868,764,54.5108,7.58201
651,260,54.6914,-6.21606,0.000503633,-0.00030142,-0.00031302,0.000611018,-0.000408804,-0.330478,0.00059264,0.0316932,1875,764,54.6914,6.21608
658,260,54.4042,-5.19745,-0.000127126,-8.12627e-05,-0.000563246,0.000459519,-0.000667907,-0.805744,0.000654616,0.0204921,1882,764,54.4041,5.19745
665,260,54.2462,-4.2691,-0.000205921,0.00025575,-0.000559245,0.000629927,-0.000580098,-0.981128,0.000698806,0.017551,1889,764,54.2463,4.26909
672,260,54.2128,-3.2691,6.13247e-05,0.000525901,-0.000372318,0.00073245,-0.000145225,-1.0643,0.000543218,0.0157203,1896,764,54.2128,3.26908
679,260,54.1499,-2.27332,0.000554773,0.00100437,1.97368e-05,0.00100523,0.000553908,1.52701,0.000581378,0.0135426,1903,764,54.1499,2.27331
686,260,54.074,-1.26953,0.00116481,0.00155666,0.000514624,0.00191139,0.000810075,0.967285,0.0011078,0.0247292,1910,764,54.074,1.26956
693,260,53.9526,-0.343079,0.00191029,0.00219776,0.00115557,0.0032185,0.000889552,0.847274,0.00191914,0.0244576,1917,764,53.9527,0.343053
700,260,53.8713,0.632141,0.00292464,0.00299862,0.00203962,0.00500159,0.00092167,0.794466,0.00307358,0.017622,1924,764,53.8713,-0.63215
707,260,53.8934,1.62476,0.00407908,0.0039431,0.00308192,0.00709376,0.000928423,0.77437,0.00445209,0.0197863,1931,764,53.8934,-1.62477
714,260,53.853,2.61096,0.00525194,0.00480615,0.00437088,0.0094056,0.000652482,0.759922,0.00606462,0.0433798,1938,764,53.8531,-2.61094
721,260,53.8219,3.60614,0,0,0,0,0,0,0,-1,1945,764,53.8219,-3.60616
728,260,33.4344,5.75409,0,0,0,0,0,0,0,-1,1952,764,33.4345,-5.75408
735,260,26.9788,4.85681,0,0,0,0,0,0,0,-1,1959,764,26.9787,-4.85678
742,260,32.1443,1.73688,0,0,0,0,0,0,0,-1,1966,764,32.1442,-1.73688
749,260,33.6013,2.94733,0,0,0,0,0,0,0,-1,1973,764,33.6013,-2.9473
756,260,0,0,0,0,0,0,0,0,0,-1,1980,764,0,0
763,260,0,0,0,0,0,0,0,0,0,-1,1987,764,0,0
770,260,0,0,0,0,0,0,0,0,0,-1,1994,764,0,0
777,260,0,0,0,0,0,0,0,0,0,-1,2001,764,0,0
784,260,0,0,0,0,0,0,0,0,0,-1,2008,764,0,0
791,260,0,0,0,0,0,0,0,0,0,-1,2015,764,0,0
798,260,0,0,0,0,0,0,0,0,0,-1,2022,764,0,0
805,260,0,0,0,0,0,0,0,0,0,-1,2029,764,0,0
812,260,0,0,0,0,0,0,0,0,0,-1,2036,764,0,0
-700,253,0,0,0,0,0,0,0,0,0,-1,524,771,0,0
-693,253,0,0,0,0,0,0,0,0,0,-1,531,771,0,0
-686,253,0,0,0,0,0,0,0,0,0,-1,538,771,0,0
-679,253,0,0,0,0,0,0,0,0,0,-1,545,771,0,0
-672,253,0,0,0,0,0,0,0,0,0,-1,552,771,0,0
-665,253,0,0,0,0,0,0,0,0,0,-1,559,771,0,0
-658,253,0,0,0,0,0,0,0,0,0,-1,566,771,0,0
-651,253,0,0,0,0,0,0,0,0,0,-1,573,771,0,0
-644,253,0,0,0,0,0,0,0,0,0,-1,580,771,0,0
-637,253,-24.7979,-0.491394,0,0,0,0,0,0,0,-1,587,771,-24.7978,0.491371
-630,253,-25.156,0.540405,0,0,0,0,0,0,0,-1,594,771,-25.156,-0.540421
-623,253,-20.808,2.84314,0,0,0,0,0,0,0,-1,601,771,-20.8081,-2.84312
-616,253,-25.0877,2.96875,0,0,0,0,0,0,0,-1,608,771,-25.0877,-2.96876
-609,253,-24.28,2.08228,0,0,0,0,0,0,0,-1,615,771,-24.2801,-2.08227
-602,253,-38.2668,4.34644,0,0,0,0,0,0,0,-1,622,771,-38.2668,-4.34645
-595,253,-38.2514,3.50568,-0.00284147,0.00214072,-0.00137339,0.00249422,-0.00319497,-1.31887,0.00329295,0.0493551,629,771,-38.2514,-3.50567
-588,253,-38.2733,2.61511,-0.00219869,0.00169366,-0.000945448,0.00191115,-0.00241618,-1.34469,0.00250405,0.046765,636,771,-38.2733,-2.6151
-581,253,-38.1791,1.75671,-0.00181908,0.00132997,-0.000485803,0.00140322,-0.00189232,-1.42116,0.00190965,0.0322709,643,771,-38.1791,-1.75673
-574,253,-38.2186,0.846924,-0.00145242,0.00117087,-1.00358e-05,0.00117091,-0.00145246,-1.56697,0.0015175,0.0248288,650,771,-38.2186,-0.846953
-567,253,-38.2974,-0.16272,-0.00128873,0.00100998,0.000371744,0.0010686,-0.00134736,1.41439,0.00139795,0.018405,657,771,-38.2974,0.162705
-560,253,-38.3558,-1.09302,-0.00130123,0.000936005,0.000621574,0.0010971,-0.00146232,1.31721,0.00148269,0.0141169,664,771,-38.3558,1.09303
-553,253,-38.4417,-2.09155,-0.00147342,0.000988491,0.000817452,0.0012352,-0.00172013,1.27769,0.0017139,0.0130155,671,771,-38.4416,2.09157
-546,253,-38.5033,-3.08881,-0.00190666,0.000834369,0.000991072,0.00115517,-0.00222745,1.25775,0.0019854,0.0115864,678,771,-38.5033,3.08883
-539,253,-38.6017,-4.09357,-0.00262429,0.000684173,0.000963906,0.000944516,-0.00288463,1.307,0.00230341,0.0136312,685,771,-38.6017,4.09359
-532,253,-38.6486,-5.0365,-0.00308047,0.000532311,0.000853491,0.000723792,-0.00327196,1.3501,0.00245835,0.0210855,692,771,-38.6486,5.03651
-525,253,-38.7512,-5.9436,-0.00292207,-2.33361e-05,0.000686428,0.000130995,-0.0030764,1.34964,0.00209596,0.0330956,699,771,-38.7512,5.94362
-518,253,-39.0165,-7.1499,-0.00276557,-0.000783341,0.00092791,-0.000416764,-0.00313215,1.19456,0.00196397,0.0477046,706,771,-39.0164,7.1499
-511,253,-39.5538,-8.3078,0,0,0,0,0,0,0,-1,713,771,-39.5538,8.3078
-504,253,-19.317,-4.1723,0,0,0,0,0,0,0,-1,720,771,-19.317,4.1723
-497,253,-21.7737,-1.76837,0,0,0,0,0,0,0,-1,727,771,-21.7738,1.7684
-490,253,-29.7674,0.438354,0,0,0,0,0,0,0,-1,734,771,-29.7674,-0.438339
-483,253,-45.4489,1.59302,0,0,0,0,0,0,0,-1,741,771,-45.4489,-1.59303
-476,253,-64.2688,0.0551758,0,0,0,0,0,0,0,-1,748,771,-64.2688,-0.0552001
-469,253,-64.2836,0.25769,0.00587493,-0.018941,0.00539174,0.00699577,-0.0200618,0.204961,0.0162175,0.0488636,755,771,-64.2836,-0.257665
-462,253,-64.5284,0.199341,0.00713424,-0.024227,0.00619773,0.00831463,-0.0254074,0.188201,0.020286,0.0428048,762,771,-64.5285,-0.199357
-455,253,-64.3505,0.463074,0,0,0,0,0,0,0,-1,769,771,-64.3505,-0.463087
-448,253,0,0,0,0,0,0,0,0,0,-1,776,771,0,0
-441,253,0,0,0,0,0,0,0,0,0,-1,783,771,0,0
-434,253,0,0,0,0,0,0,0,0,0,-1,790,771,0,0
-427,253,0,0,0,0,0,0,0,0,0,-1,797,771,0,0
-420,253,0,0,0,0,0,0,0,0,0,-1,804,771,0,0
-413,253,0,0,0,0,0,0,0,0,0,-1,811,771,0,0
-406,253,0,0,0,0,0,0,0,0,0,-1,818,771,0,0
-399,253,0,0,0,0,0,0,0,0,0,-1,825,771,0,0
-392,253,0,0,0,0,0,0,0,0,0,-1,832,771,0,0
-385,253,0,0,0,0,0,0,0,0,0,-1,839,771,0,0
-378,253,0,0,0,0,0,0,0,0,0,-1,846,771,0,0
-371,253,0,0,0,0,0,0,0,0,0,-1,853,771,0,0
-364,253,0,0,0,0,0,0,0,0,0,-1,860,771,0,0
-357,253,0,0,0,0,0,0,0,0,0,-1,867,771,0,0
-350,253,0,0,0,0,0,0,0,0,0,-1,874,771,0,0
-343,253,0,0,0,0,0,0,0,0,0,-1,881,771,0,0
-336,253,0,0,0,0,0,0,0,0,0,-1,888,771,0,0
-329,253,0,0,0,0,0,0,0,0,0,-1,895,771,0,0
-322,253,0,0,0,0,0,0,0,0,0,-1,902,771,0,0
-315,253,0,0,0,0,0,0,0,0,0,-1,909,771,0,0
-308,253,0,0,0,0,0,0,0,0,0,-1,916,771,0,0
-301,253,0,0,0,0,0,0,0,0,0,-1,923,771,0,0
-294,253,0,0,0,0,0,0,0,0,0,-1,930,771,0,0
-287,253,0,0,0,0,0,0,0,0,0,-1,937,771,0,0
-280,253,0,0,0,0,0,0,0,0,0,-1,944,771,0,0
-273,253,0,0,0,0,0,0,0,0,0,-1,951,771,0,0
-266,253,0,0,0,0,0,0,0,0,0,-1,958,771,0,0
-259,253,0,0,0,0,0,0,0,0,0,-1,965,771,0,0
-252,253,0,0,0,0,0,0,0,0,0,-1,972,771,0,0
-245,253,0,0,0,0,0,0,0,0,0,-1,979,771,0,0
-238,253,0,0,0,0,0,0,0,0,0,-1,986,771,0,0
-231,253,0,0,0,0,0,0,0,0,0,-1,993,771,0,0
-224,253,0,0,0,0,0,0,0,0,0,-1,1000,771,0,0
-217,253,0,0,0,0,0,0,0,0,0,-1,1007,771,0,0
-210,253,0,0,0,0,0,0,0,0,0,-1,1014,771,0,0
-203,253,0,0,0,0,0,0,0,0,0,-1,1021,771,0,0
-196,253,0,0,0,0,0,0,0,0,0,-1,1028,771,0,0
-189,253,0,0,0,0,0,0,0,0,0,-1,1035,771,0,0
-182,253,0,0,0,0,0,0,0,0,0,-1,1042,771,0,0
-175,253,0,0,0,0,0,0,0,0,0,-1,1049,771,0,0
-168,253,0,0,0,0,0,0,0,0,0,-1,1056,771,0,0
-161,253,0,0,0,0,0,0,0,0,0,-1,1063,771,0,0
-154,253,0,0,0,0,0,0,0,0,0,-1,1070,771,0,0
-147,253,0,0,0,0,0,0,0,0,0,-1,1077,771,0,0
-140,253,0,0,0,0,0,0,0,0,0,-1,1084,771,0,0
-133,253,0,0,0,0,0,0,0,0,0,-1,1091,771,0,0
-126,253,0,0,0,0,0,0,0,0,0,-1,1098,771,0,0
-119,253,0,0,0,0,0,0,0,0,0,-1,1105,771,0,0
-112,253,0,0,0,0,0,0,0,0,0,-1,1112,771,0,0
-105,253,0,0,0,0,0,0,0,0,0,-1,1119,771,0,0
-98,253,0,0,0,0,0,0,0,0,0,-1,1126,771,0,0
-91,253,0,0,0,0,0,0,0,0,0,-1,1133,771,0,0
-84,253,0,0,0,0,0,0,0,0,0,-1,1140,771,0,0
-77,253,0,0,0,0,0,0,0,0,0,-1,1147,771,0,0
-70,253,0,0,0,0,0,0,0,0,0,-1,1154,771,0,0
-63,253,0,0,0,0,0,0,0,0,0,-1,1161,771,0,0
-56,253,0,0,0,0,0,0,0,0,0,-1,1168,771,0,0
-49,253,0,0,0,0,0,0,0,0,0,-1,1175,771,0,0
-42,253,0,0,0,0,0,0,0,0,0,-1,1182,771,0,0
-35,253,0,0,0,0,0,0,0,0,0,-1,1189,771,0,0
-28,253,0,0,0,0,0,0,0,0,0,-1,1196,771,0,0
-21,253,0,0,0,0,0,0,0,0,0,-1,1203,771,0,0
-14,253,0,0,0,0,0,0,0,0,0,-1,1210,771,0,0
-7,253,0,0,0,0,0,0,0,0,0,-1,1217,771,0,0
0,253,0,0,0,0,0,0,0,0,0,-1,1224,771,0,0
7,253,0,0,0,0,0,0,0,0,0,-1,1231,771,0,0
14,253,0,0,0,0,0,0,0,0,0,-1,1238,771,0,0
21,253,0,0,0,0,0,0,0,0,0,-1,1245,771,0,0
28,253,0,0,0,0,0,0,0,0,0,-1,1252,771,0,0
35,253,0,0,0,0,0,0,0,0,0,-1,1259,771,0,0
42,253,0,0,0,0,0,0,0,0,0,-1,1266,771,0,0
49,253,0,0,0,0,0,0,0,0,0,-1,1273,771,0,0
56,253,0,0,0,0,0,0,0,0,0,-1,1280,771,0,0
63,253,0,0,0,0,0,0,0,0,0,-1,1287,771,0,0
70,253,0,0,0,0,0,0,0,0,0,-1,1294,771,0,0
77,253,0,0,0,0,0,0,0,0,0,-1,1301,771,0,0
84,253,0,0,0,0,0,0,0,0,0,-1,1308,771,0,0
91,253,0,0,0,0,0,0,0,0,0,-1,1315,771,0,0
98,253,0,0,0,0,0,0,0,0,0,-1,1322,771,0,0
105,253,0,0,0,0,0,0,0,0,0,-1,1329,771,0,0
112,253,0,0,0,0,0,0,0,0,0,-1,1336,771,0,0
119,253,0,0,0,0,0,0,0,0,0,-1,1343,771,0,0
126,253,0,0,0,0,0,0,0,0,0,-1,1350,771,0,0
133,253,0,0,0,0,0,0,0,0,0,-1,1357,771,0,0
140,253,0,0,0,0,0,0,0,0,0,-1,1364,771,0,0
147,253,0,0,0,0,0,0,0,0,0,-1,1371,771,0,0
154,253,0,0,0,0,0,0,0,0,0,-1,1378,771,0,0
161,253,0,0,0,0,0,0,0,0,0,-1,1385,771,0,0
168,253,0,0,0,0,0,0,0,0,0,-1,1392,771,0,0
175,253,0,0,0,0,0,0,0,0,0,-1,1399,771,0,0
182,253,0,0,0,0,0,0,0,0,0,-1,1406,771,0,0
189,253,0,0,0,0,0,0,0,0,0,-1,1413,771,0,0
196,253,0,0,0,0,0,0,0,0,0,-1,1420,771,0,0
203,253,0,0,0,0,0,0,0,0,0,-1,1427,771,0,0
210,253,0,0,0,0,0,0,0,0,0,-1,1434,771,0,0
217,253,0,0,0,0,0,0,0,0,0,-1,1441,771,0,0
224,253,0,0,0,0,0,0,0,0,0,-1,1448,771,0,0
231,253,0,0,0,0,0,0,0,0,0,-1,1455,771,0,0
238,253,0,0,0,0,0,0,0,0,0,-1,1462,771,0,0
245,253,0,0,0,0,0,0,0,0,0,-1,1469,771,0,0
252,253,0,0,0,0,0,0,0,0,0,-1,1476,771,0,0
259,253,0,0,0,0,0,0,0,0,0,-1,1483,771,0,0
266,253,0,0,0,0,0,0,0,0,0,-1,1490,771,0,0
273,253,0,0,0,0,0,0,0,0,0,-1,1497,771,0,0
280,253,0,0,0,0,0,0,0,0,0,-1,1504,771,0,0
287,253,0,0,0,0,0,0,0,0,0,-1,1511,771,0,0
294,253,0,0,0,0,0,0,0,0,0,-1,1518,771,0,0
301,253,0,0,0,0,0,0,0,0,0,-1,1525,771,0,0
308,253,0,0,0,0,0,0,0,0,0,-1,1532,771,0,0
315,253,0,0,0,0,0,0,0,0,0,-1,1539,771,0,0
322,253,0,0,0,0,0,0,0,0,0,-1,1546,771,0,0
329,253,0,0,0,0,0,0,0,0,0,-1,1553,771,0,0
336,253,0,0,0,0,0,0,0,0,0,-1,1560,771,0,0
343,253,0,0,0,0,0,0,0,0,0,-1,1567,771,0,0
350,253,0,0,0,0,0,0,0,0,0,-1,1574,771,0,0
357,253,0,0,0,0,0,0,0,0,0,-1,1581,771,0,0
364,253,0,0,0,0,0,0,0,0,0,-1,1588,771,0,0
371,253,0,0,0,0,0,0,0,0,0,-1,1595,771,0,0
378,253,0,0,0,0,0,0,0,0,0,-1,1602,771,0,0
385,253,0,0,0,0,0,0,0,0,0,-1,1609,771,0,0
392,253,0,0,0,0,0,0,0,0,0,-1,1616,771,0,0
399,253,0,0,0,0,0,0,0,0,0,-1,1623,771,0,0
406,253,0,0,0,0,0,0,0,0,0,-1,1630,771,0,0
413,253,0,0,0,0,0,0,0,0,0,-1,1637,771,0,0
420,253,0,0,0,0,0,0,0,0,0,-1,1644,771,0,0
427,253,0,0,0,0,0,0,0,0,0,-1,1651,771,0,0
434,253,0,0,0,0,0,0,0,0,0,-1,1658,771,0,0
441,253,0,0,0,0,0,0,0,0,0,-1,1665,771,0,0
448,253,0,0,0,0,0,0,0,0,0,-1,1672,771,0,0
455,253,0,0,0,0,0,0,0,0,0,-1,1679,771,0,0
462,253,0,0,0,0,0,0,0,0,0,-1,1686,771,0,0
469,253,0,0,0,0,0,0,0,0,0,-1,1693,771,0,0
476,253,0,0,0,0,0,0,0,0,0,-1,1700,771,0,0
483,253,0,0,0,0,0,0,0,0,0,-1,1707,771,0,0
490,253,0,0,0,0,0,0,0,0,0,-1,1714,771,0,0
497,253,0,0,0,0,0,0,0,0,0,-1,1721,771,0,0
504,253,0,0,0,0,0,0,0,0,0,-1,1728,771,0,0
511,253,0,0,0,0,0,0,0,0,0,-1,1735,771,0,0
518,253,0,0,0,0,0,0,0,0,0,-1,1742,771,0,0
525,253,0,0,0,0,0,0,0,0,0,-1,1749,771,0,0
532,253,0,0,0,0,0,0,0,0,0,-1,1756,771,0,0
539,253,0,0,0,0,0,0,0,0,0,-1,1763,771,0,0
546,253,0,0,0,0,0,0,0,0,0,-1,1770,771,0,0
553,253,0,0,0,0,0,0,0,0,0,-1,1777,771,0,0
560,253,0,0,0,0,0,0,0,0,0,-1,1784,771,0,0
567,253,0,0,0,0,0,0,0,0,0,-1,1791,771,0,0
574,253,80.8789,2.01282,0,0,0,0,0,0,0,-1,1798,771,80.879,-2.01282
581,253,80.9231,2.14294,0,0,0,0,0,0,0,-1,1805,771,80.9231,-2.14292
588,253,81.254,1.9986,0,0,0,0,0,0,0,-1,1812,771,81.254,-1.99859
595,253,81.7885,1.83679,0,0,0,0,0,0,0,-1,1819,771,81.7884,-1.83679
602,253,66.4502,2.6098,0,0,0,0,0,0,0,-1,1826,771,66.4502,-2.60979
609,253,65.2542,3.18195,0,0,0,0,0,0,0,-1,1833,771,65.2541,-3.18193
616,253,58.416,2.69031,0,0,0,0,0,0,0,-1,1840,771,58.4161,-2.69031
623,253,48.8328,3.01001,0,0,0,0,0,0,0,-1,1847,771,48.8328,-3.01002
630,253,33.561,2.96838,0,0,0,0,0,0,0,-1,1854,771,33.561,-2.96836
637,253,22.3192,-0.604004,0,0,0,0,0,0,0,-1,1861,771,22.3192,0.603986
644,253,48.2843,-5.22784,0,0,0,0,0,0,0,-1,1868,771,48.2843,5.22783
651,253,56.116,-6.17993,0,0,0,0,0,0,0,-1,1875,771,56.116,6.17995
658,253,55.4302,-5.05273,-8.245e-05,0.000291475,-0.000557432,0.000692463,-0.000483438,-0.947203,0.000682472,0.0326078,1882,771,55.4302,5.05273
665,253,55.197,-4.18579,-0.000172648,0.000510965,-0.000582944,0.000844921,-0.000506605,-1.05056,0.00078841,0.0231678,1889,771,55.197,4.1858
672,253,55.1565,-3.24738,6.70038e-05,0.000534902,-0.000444869,0.000803586,-0.000201681,-1.02747,0.000614091,0.0188236,1896,771,55.1565,3.24736
679,253,55.1584,-2.22626,0.000440589,0.000769925,-0.000198868,0.000863451,0.000347063,-1.1312,0.000501699,0.0140541,1903,771,55.1585,2.22628
686,253,55.0327,-1.21576,0.000953729,0.00115865,0.000207094,0.00128724,0.000825134,1.01512,0.000752977,0.0274688,1910,771,55.0327,1.21574
693,253,54.9323,-0.265747,0.00159113,0.00166485,0.000757441,0.00238633,0.000869656,0.809711,0.00139453,0.0268395,1917,771,54.9322,0.26575
700,253,54.8915,0.693481,0.00248088,0.00237305,0.00153046,0.00395837,0.000895557,0.767791,0.00239683,0.0178106,1924,771,54.8915,-0.693492
707,253,54.8726,1.68585,0.00354735,0.00323888,0.00250408,0.00590194,0.000884291,0.754639,0.00367549,0.0163276,1931,771,54.8725,-1.68588
714,253,54.7964,2.6488,0.00467177,0.00409968,0.00369976,0.00809653,0.000674922,0.746818,0.00518737,0.0274871,1938,771,54.7964,-2.64879
721,253,54.6722,3.59668,0.00647875,0.00533764,0.0054444,0.0113824,0.000433976,0.733191,0.00744783,0.0450641,1945,771,54.6722,-3.59668
728,253,54.6074,4.5744,0,0,0,0,0,0,0,-1,1952,771,54.6074,-4.57441
735,253,34.5735,6.15118,0,0,0,0,0,0,0,-1,1959,771,34.5734,-6.1512
742,253,31.0571,5.7337,0,0,0,0,0,0,0,-1,1966,771,31.0571,-5.73373
749,253,33.7754,3.21533,0,0,0,0,0,0,0,-1,1973,771,33.7754,-3.21533
756,253,0,0,0,0,0,0,0,0,0,-1,1980,771,0,0
763,253,0,0,0,0,0,0,0,0,0,-1,1987,771,0,0
770,253,0,0,0,0,0,0,0,0,0,-1,1994,771,0,0
777,253,0,0,0,0,0,0,0,0,0,-1,2001,771,0,0
784,253,0,0,0,0,0,0,0,0,0,-1,2008,771,0,0
791,253,0,0,0,0,0,0,0,0,0,-1,2015,771,0,0
798,253,0,0,0,0,0,0,0,0,0,-1,2022,771,0,0
805,253,0,0,0,0,0,0,0,0,0,-1,2029,771,0,0
812,253,0,0,0,0,0,0,0,0,0,-1,2036,771,0,0
-700,246,0,0,0,0,0,0,0,0,0,-1,524,778,0,0
-693,246,0,0,0,0,0,0,0,0,0,-1,531,778,0,0
-686,246,0,0,0,0,0,0,0,0,0,-1,538,778,0,0
-679,246,0,0,0,0,0,0,0,0,0,-1,545,778,0,0
-672,246,0,0,0,0,0,0,0,0,0,-1,552,778,0,0
-665,246,0,0,0,0,0,0,0,0,0,-1,559,778,0,0
-658,246,0,0,0,0,0,0,0,0,0,-1,566,778,0,0
-651,246,0,0,0,0,0,0,0,0,0,-1,573,778,0,0
-644,246,0,0,0,0,0,0,0,0,0,-1,580,778,0,0
-637,246,-24.1234,0.130432,0,0,0,0,0,0,0,-1,587,778,-24.1234,-0.130438
-630,246,-24.0781,1.38916,0,0,0,0,0,0,0,-1,594,778,-24.0781,-1.38913
-623,246,-23.9183,2.49573,0,0,0,0,0,0,0,-1,601,778,-23.9183,-2.49575
-616,246,-26.8182,2.0705,0,0,0,0,0,0,0,-1,608,778,-26.8182,-2.07052
-609,246,-26.0615,1.16388,0,0,0,0,0,0,0,-1,615,778,-26.0615,-1.16388
-602,246,-39.2354,4.55682,0,0,0,0,0,0,0,-1,622,778,-39.2354,-4.55681
-595,246,-39.1599,3.71875,-0.00297913,0.00365917,-0.00171726,0.00407709,-0.00339705,-1.33207,0.00432115,0.0490064,629,778,-39.1599,-3.71875
-588,246,-39.0712,2.8623,-0.00206358,0.00277696,-0.00118829,0.00305294,-0.00233956,-1.3426,0.00312243,0.0356455,636,778,-39.0713,-2.86229
-581,246,-39.1978,1.93152,-0.00155189,0.00213135,-0.000616322,0.00223174,-0.00165228,-1.40932,0.00225074,0.0220007,643,778,-39.1977,-1.93154
-574,246,-39.1987,0.870117,-0.00118966,0.00174685,-6.15966e-05,0.00174814,-0.00119095,-1.54983,0.00170702,0.02129,650,778,-39.1987,-0.870091
-567,246,-39.2681,-0.104248,-0.00108675,0.00149665,0.000382699,0.00155215,-0.00114225,1.42678,0.0015616,0.0282058,657,778,-39.2681,0.104273
-560,246,-39.3665,-1.04163,-0.00114054,0.00137941,0.000709991,0.00156568,-0.00132681,1.31422,0.00167188,0.0218909,664,778,-39.3664,1.0416
-553,246,-39.4308,-1.98834,-0.00141631,0.00138224,0.000977944,0.00169011,-0.00172418,1.26581,0.00197128,0.0142081,671,778,-39.4308,1.98837
-546,246,-39.5031,-2.97534,-0.00207819,0.00128506,0.00116694,0.00165029,-0.00244342,1.26747,0.00237824,0.01178,678,778,-39.5031,2.97534
-539,246,-39.5875,-4.01886,-0.00297418,0.00104713,0.00104857,0.00130413,-0.00323118,1.33044,0.0026961,0.0138422,685,778,-39.5875,4.01884
-532,246,-39.6978,-5.01801,-0.00341573,0.000824573,0.000851794,0.000989283,-0.00358044,1.37978,0.00277611,0.0328434,692,778,-39.6977,5.018
-525,246,-39.8893,-5.93121,0,0,0,0,0,0,0,-1,699,778,-39.8894,5.9312
-518,246,-40.0804,-7.50122,0,0,0,0,0,0,0,-1,706,778,-40.0804,7.50123
-511,246,-28.5886,-5.38635,0,0,0,0,0,0,0,-1,713,778,-28.5886,5.38633
-504,246,-20.0047,-2.88214,0,0,0,0,0,0,0,-1,720,778,-20.0047,2.88216
-497,246,-29.4669,1.82684,0,0,0,0,0,0,0,-1,727,778,-29.4669,-1.82687
-490,246,-40.4299,1.04309,0,0,0,0,0,0,0,-1,734,778,-40.4299,-1.04308
-483,246,-55.5514,-0.0795898,0,0,0,0,0,0,0,-1,741,778,-55.5514,0.0795595
-476,246,-64.5556,-0.0941772,0,0,0,0,0,0,0,-1,748,778,-64.5556,0.0941811
-469,246,-64.4427,0.176392,0.00660341,-0.0174252,0.00462627,0.00746334,-0.0182851,0.183782,0.0152973,0.0444804,755,778,-64.4427,-0.176375
-462,246,-64.3674,0.424683,0.00859833,-0.0222814,0.00557335,0.00957345,-0.0232565,0.173208,0.0194954,0.0480551,762,778,-64.3674,-0.424698
-455,246,0,0,0,0,0,0,0,0,0,-1,769,778,0,0
-448,246,0,0,0,0,0,0,0,0,0,-1,776,778,0,0
-441,246,0,0,0,0,0,0,0,0,0,-1,783,778,0,0
-434,246,0,0,0,0,0,0,0,0,0,-1,790,778,0,0
-427,246,0,0,0,0,0,0,0,0,0,-1,797,778,0,0
-420,246,0,0,0,0,0,0,0,0,0,-1,804,778,0,0
-413,246,0,0,0,0,0,0,0,0,0,-1,811,778,0,0
-406,246,0,0,0,0,0,0,0,0,0,-1,818,778,0,0
-399,246,0,0,0,0,0,0,0,0,0,-1,825,778,0,0
-392,246,0,0,0,0,0,0,0,0,0,-1,832,778,0,0
-385,246,0,0,0,0,0,0,0,0,0,-1,839,778,0,0
-378,246,0,0,0,0,0,0,0,0,0,-1,846,778,0,0
-371,246,0,0,0,0,0,0,0,0,0,-1,853,778,0,0
-364,246,0,0,0,0,0,0,0,0,0,-1,860,778,0,0
-357,246,0,0,0,0,0,0,0,0,0,-1,867,778,0,0
-350,246,0,0,0,0,0,0,0,0,0,-1,874,778,0,0
-343,246,0,0,0,0,0,0,0,0,0,-1,881,778,0,0
-336,246,0,0,0,0,0,0,0,0,0,-1,888,778,0,0
-329,246,0,0,0,0,0,0,0,0,0,-1,895,778,0,0
-322,246,0,0,0,0,0,0,0,0,0,-1,902,778,0,0
-315,246,0,0,0,0,0,0,0,0,0,-1,909,778,0,0
-308,246,0,0,0,0,0,0,0,0,0,-1,916,778,0,0
-301,246,0,0,0,0,0,0,0,0,0,-1,923,778,0,0
-294,246,0,0,0,0,0,0,0,0,0,-1,930,778,0,0
-287,246,0,0,0,0,0,0,0,0,0,-1,937,778,0,0
-280,246,0,0,0,0,0,0,0,0,0,-1,944,778,0,0
-273,246,0,0,0,0,0,0,0,0,0,-1,951,778,0,0
-266,246,0,0,0,0,0,0,0,0,0,-1,958,778,0,0
-259,246,0,0,0,0,0,0,0,0,0,-1,965,778,0,0
-252,246,0,0,0,0,0,0,0,0,0,-1,972,778,0,0
-245,246,0,0,0,0,0,0,0,0,0,-1,979,778,0,0
-238,246,0,0,0,0,0,0,0,0,0,-1,986,778,0,0
-231,246,0,0,0,0,0,0,0,0,0,-1,993,778,0,0
-224,246,0,0,0,0,0,0,0,0,0,-1,1000,778,0,0
-217,246,0,0,0,0,0,0,0,0,0,-1,1007,778,0,0
-210,246,0,0,0,0,0,0,0,0,0,-1,1014,778,0,0
-203,246,0,0,0,0,0,0,0,0,0,-1,1021,778,0,0
-196,246,0,0,0,0,0,0,0,0,0,-1,1028,778,0,0
-189,246,0,0,0,0,0,0,0,0,0,-1,1035,778,0,0
-182,246,0,0,0,0,0,0,0,0,0,-1,1042,778,0,0
-175,246,0,0,0,0,0,0,0,0,0,-1,1049,778,0,0
-168,246,0,0,0,0,0,0,0,0,0,-1,1056,778,0,0
-161,246,0,0,0,0,0,0,0,0,0,-1,1063,778,0,0
-154,246,0,0,0,0,0,0,0,0,0,-1,1070,778,0,0
-147,246,0,0,0,0,0,0,0,0,0,-1,1077,778,0,0
-140,246,0,0,0,0,0,0,0,0,0,-1,1084,778,0,0
-133,246,0,0,0,0,0,0,0,0,0,-1,1091,778,0,0
-126,246,0,0,0,0,0,0,0,0,0,-1,1098,778,0,0
-119,246,0,0,0,0,0,0,0,0,0,-1,1105,778,0,0
-112,246,0,0,0,0,0,0,0,0,0,-1,1112,778,0,0
-105,246,0,0,0,0,0,0,0,0,0,-1,1119,778,0,0
-98,246,0,0,0,0,0,0,0,0,0,-1,1126,778,0,0
-91,246,0,0,0,0,0,0,0,0,0,-1,1133,778,0,0
-84,246,0,0,0,0,0,0,0,0,0,-1,1140,778,0,0
-77,246,0,0,0,0,0,0,0,0,0,-1,1147,778,0,0
-70,246,0,0,0,0,0,0,0,0,0,-1,1154,778,0,0
-63,246,0,0,0,0,0,0,0,0,0,-1,1161,778,0,0
-56,246,0,0,0,0,0,0,0,0,0,-1,1168,778,0,0
-49,246,0,0,0,0,0,0,0,0,0,-1,1175,778,0,0
-42,246,0,0,0,0,0,0,0,0,0,-1,1182,778,0,0
-35,246,0,0,0,0,0,0,0,0,0,-1,1189,778,0,0
-28,246,0,0,0,0,0,0,0,0,0,-1,1196,778,0,0
-21,246,0,0,0,0,0,0,0,0,0,-1,1203,778,0,0
-14,246,0,0,0,0,0,0,0,0,0,-1,1210,778,0,0
-7,246,0,0,0,0,0,0,0,0,0,-1,1217,778,0,0
0,246,0,0,0,0,0,0,0,0,0,-1,1224,778,0,0
7,246,0,0,0,0,0,0,0,0,0,-1,1231,778,0,0
14,246,0,0,0,0,0,0,0,0,0,-1,1238,778,0,0
21,246,0,0,0,0,0,0,0,0,0,-1,1245,778,0,0
28,246,0,0,0,0,0,0,0,0,0,-1,1252,778,0,0
35,246,0,0,0,0,0,0,0,0,0,-1,1259,778,0,0
42,246,0,0,0,0,0,0,0,0,0,-1,1266,778,0,0
49,246,0,0,0,0,0,0,0,0,0,-1,1273,778,0,0
56,246,0,0,0,0,0,0,0,0,0,-1,1280,778,0,0
63,246,0,0,0,0,0,0,0,0,0,-1,1287,778,0,0
70,246,0,0,0,0,0,0,0,0,0,-1,1294,778,0,0
77,246,0,0,0,0,0,0,0,0,0,-1,1301,778,0,0
84,246,0,0,0,0,0,0,0,0,0,-1,1308,778,0,0
91,246,0,0,0,0,0,0,0,0,0,-1,1315,778,0,0
98,246,0,0,0,0,0,0,0,0,0,-1,1322,778,0,0
105,246,0,0,0,0,0,0,0,0,0,-1,1329,778,0,0
112,246,0,0,0,0,0,0,0,0,0,-1,1336,778,0,0
119,246,0,0,0,0,0,0,0,0,0,-1,1343,778,0,0
126,246,0,0,0,0,0,0,0,0,0,-1,1350,778,0,0
133,246,0,0,0,0,0,0,0,0,0,-1,1357,778,0,0
140,246,0,0,0,0,0,0,0,0,0,-1,1364,778,0,0
147,246,0,0,0,0,0,0,0,0,0,-1,1371,778,0,0
154,246,0,0,0,0,0,0,0,0,0,-1,1378,778,0,0
161,246,0,0,0,0,0,0,0,0,0,-1,1385,778,0,0
168,246,0,0,0,0,0,0,0,0,0,-1,1392,778,0,0
175,246,0,0,0,0,0,0,0,0,0,-1,1399,778,0,0
182,246,0,0,0,0,0,0,0,0,0,-1,1406,778,0,0
189,246,0,0,0,0,0,0,0,0,0,-1,1413,778,0,0
196,246,0,0,0,0,0,0,0,0,0,-1,1420,778,0,0
203,246,0,0,0,0,0,0,0,0,0,-1,1427,778,0,0
210,246,0,0,0,0,0,0,0,0,0,-1,1434,778,0,0
217,246,0,0,0,0,0,0,0,0,0,-1,1441,778,0,0
224,246,0,0,0,0,0,0,0,0,0,-1,1448,778,0,0
231,246,0,0,0,0,0,0,0,0,0,-1,1455,778,0,0
238,246,0,0,0,0,0,0,0,0,0,-1,1462,778,0,0
245,246,0,0,0,0,0,0,0,0,0,-1,1469,778,0,0
252,246,0,0,0,0,0,0,0,0,0,-1,1476,778,0,0
259,246,0,0,0,0,0,0,0,0,0,-1,1483,778,0,0
266,246,0,0,0,0,0,0,0,0,0,-1,1490,778,0,0
273,246,0,0,0,0,0,0,0,0,0,-1,1497,778,0,0
280,246,0,0,0,0,0,0,0,0,0,-1,1504,778,0,0
287,246,0,0,0,0,0,0,0,0,0,-1,1511,778,0,0
294,246,0,0,0,0,0,0,0,0,0,-1,1518,778,0,0
301,246,0,0,0,0,0,0,0,0,0,-1,1525,778,0,0
308,246,0,0,0,0,0,0,0,0,0,-1,1532,778,0,0
315,246,0,0,0,0,0,0,0,0,0,-1,1539,778,0,0
322,246,0,0,0,0,0,0,0,0,0,-1,1546,778,0,0
329,246,0,0,0,0,0,0,0,0,0,-1,1553,778,0,0
336,246,0,0,0,0,0,0,0,0,0,-1,1560,778,0,0
343,246,0,0,0,0,0,0,0,0,0,-1,1567,778,0,0
350,246,0,0,0,0,0,0,0,0,0,-1,1574,778,0,0
357,246,0,0,0,0,0,0,0,0,0,-1,1581,778,0,0
364,246,0,0,0,0,0,0,0,0,0,-1,1588,778,0,0
371,246,0,0,0,0,0,0,0,0,0,-1,1595,778,0,0
378,246,0,0,0,0,0,0,0,0,0,-1,1602,778,0,0
385,246,0,0,0,0,0,0,0,0,0,-1,1609,778,0,0
392,246,0,0,0,0,0,0,0,0,0,-1,1616,778,0,0
399,246,0,0,0,0,0,0,0,0,0,-1,1623,778,0,0
406,246,0,0,0,0,0,0,0,0,0,-1,1630,778,0,0
413,246,0,0,0,0,0,0,0,0,0,-1,1637,778,0,0
420,246,0,0,0,0,0,0,0,0,0,-1,1644,778,0,0
427,246,0,0,0,0,0,0,0,0,0,-1,1651,778,0,0
434,246,0,0,0,0,0,0,0,0,0,-1,1658,778,0,0
441,246,0,0,0,0,0,0,0,0,0,-1,1665,778,0,0
448,246,0,0,0,0,0,0,0,0,0,-1,1672,778,0,0
455,246,0,0,0,0,0,0,0,0,0,-1,1679,778,0,0
462,246,0,0,0,0,0,0,0,0,0,-1,1686,778,0,0
469,246,0,0,0,0,0,0,0,0,0,-1,1693,778,0,0
476,246,0,0,0,0,0,0,0,0,0,-1,1700,778,0,0
483,246,0,0,0,0,0,0,0,0,0,-1,1707,778,0,0
490,246,0,0,0,0,0,0,0,0,0,-1,1714,778,0,0
497,246,0,0,0,0,0,0,0,0,0,-1,1721,778,0,0
504,246,0,0,0,0,0,0,0,0,0,-1,1728,778,0,0
511,246,0,0,0,0,0,0,0,0,0,-1,1735,778,0,0
518,246,0,0,0,0,0,0,0,0,0,-1,1742,778,0,0
525,246,0,0,0,0,0,0,0,0,0,-1,1749,778,0,0
532,246,0,0,0,0,0,0,0,0,0,-1,1756,778,0,0
539,246,0,0,0,0,0,0,0,0,0,-1,1763,778,0,0
546,246,0,0,0,0,0,0,0,0,0,-1,1770,778,0,0
553,246,0,0,0,0,0,0,0,0,0,-1,1777,778,0,0
560,246,0,0,0,0,0,0,0,0,0,-1,1784,778,0,0
567,246,0,0,0,0,0,0,0,0,0,-1,1791,778,0,0
574,246,0,0,0,0,0,0,0,0,0,-1,1798,778,0,0
581,246,80.9751,2.12256,0.0153043,-0.0185412,0.00950388,0.0177904,-0.0210273,0.255854,0.0224374,0.0382354,1805,778,80.975,-2.12258
588,246,81.0494,2.08734,0.0141288,-0.0157939,0.00846335,0.0163567,-0.0180218,0.257401,0.0198562,0.0458584,1812,778,81.0494,-2.08733
595,246,81.3075,2.03894,0.0126581,-0.0125076,0.00719522,0.0145701,-0.0144195,0.259724,0.0167372,0.0472958,1819,778,81.3075,-2.03897
602,246,81.1643,2.24261,0,0,0,0,0,0,0,-1,1826,778,81.1643,-2.2426
609,246,65.04,3.03278,0,0,0,0,0,0,0,-1,1833,778,65.04,-3.03277
616,246,60.4568,3.98492,0,0,0,0,0,0,0,-1,1840,778,60.4568,-3.98491
623,246,55.8947,3.95953,0,0,0,0,0,0,0,-1,1847,778,55.8947,-3.95952
630,246,49.5938,1.99902,0,0,0,0,0,0,0,-1,1854,778,49.5937,-1.999
637,246,29.5785,0.837585,0,0,0,0,0,0,0,-1,1861,778,29.5785,-0.837606
644,246,28.1232,-1.43188,0,0,0,0,0,0,0,-1,1868,778,28.1232,1.43188
651,246,48.5865,-4.32922,0,0,0,0,0,0,0,-1,1875,778,48.5865,4.32921
658,246,56.4094,-4.92371,0,0,0,0,0,0,0,-1,1882,778,56.4094,4.9237
665,246,56.2581,-4.15015,-3.40346e-05,0.00101337,-0.000512375,0.00122233,-0.000242993,-1.18356,0.000906802,0.0323335,1889,778,56.258,4.15016
672,246,56.2107,-3.16217,0.00020938,0.000845326,-0.000351153,0.00100108,5.36285e-05,-1.15332,0.000650247,0.0232107,1896,778,56.2107,3.16219
679,246,56.146,-2.16095,0.000476852,0.000763307,-0.000270482,0.000926143,0.000314016,-1.02889,0.000543864,0.022738,1903,778,56.146,2.16096
686,246,56.0872,-1.13831,0.000862338,0.000943504,2.68076e-06,0.000943593,0.00086225,1.53782,0.000603777,0.0250086,1910,778,56.0872,1.13828
693,246,56.0186,-0.207947,0.00138833,0.00129471,0.000458964,0.00180287,0.000880175,0.734578,0.00104098,0.0197289,1917,778,56.0186,0.207924
700,246,55.9653,0.738342,0.00219941,0.00186421,0.00115757,0.00320145,0.000862171,0.713505,0.00191281,0.0155039,1924,778,55.9653,-0.738353
707,246,55.8682,1.74982,0.00321236,0.00261134,0.00208989,0.00502324,0.000800468,0.713991,0.00311646,0.0142815,1931,778,55.8682,-1.74981
714,246,55.7754,2.76141,0.00432108,0.00336884,0.00323977,0.00711953,0.000570396,0.71244,0.00456811,0.0149453,1938,778,55.7754,-2.76139
721,246,55.6622,3.66266,0.00596742,0.00432999,0.00486211,0.0100793,0.00021815,0.701987,0.00664798,0.0210283,1945,778,55.6623,-3.66268
728,246,55.8314,4.92773,0.00821742,0.00509849,0.00688994,0.0137222,-0.000406263,0.674104,0.0092865,0.0405109,1952,778,55.8315,-4.92773
735,246,56.118,6.30011,0,0,0,0,0,0,0,-1,1959,778,56.118,-6.30011
742,246,31.7356,6.70013,0,0,0,0,0,0,0,-1,1966,778,31.7356,-6.70011
749,246,32.3883,7.69324,0,0,0,0,0,0,0,-1,1973,778,32.3883,-7.69322
756,246,33.6919,3.45264,0,0,0,0,0,0,0,-1,1980,778,33.6919,-3.45262
763,246,0,0,0,0,0,0,0,0,0,-1,1987,778,0,0
770,246,0,0,0,0,0,0,0,0,0,-1,1994,778,0,0
777,246,0,0,0,0,0,0,0,0,0,-1,2001,778,0,0
784,246,0,0,0,0,0,0,0,0,0,-1,2008,778,0,0
791,246,0,0,0,0,0,0,0,0,0,-1,2015,778,0,0
798,246,0,0,0,0,0,0,0,0,0,-1,2022,778,0,0
805,246,0,0,0,0,0,0,0,0,0,-1,2029,778,0,0
812,246,0,0,0,0,0,0,0,0,0,-1,2036,778,0,0
-700,239,0,0,0,0,0,0,0,0,0,-1,524,785,0,0
-693,239,0,0,0,0,0,0,0,0,0,-1,531,785,0,0
-686,239,0,0,0,0,0,0,0,0,0,-1,538,785,0,0
-679,239,0,0,0,0,0,0,0,0,0,-1,545,785,0,0
-672,239,0,0,0,0,0,0,0,0,0,-1,552,785,0,0
-665,239,0,0,0,0,0,0,0,0,0,-1,559,785,0,0
-658,239,0,0,0,0,0,0,0,0,0,-1,566,785,0,0
-651,239,0,0,0,0,0,0,0,0,0,-1,573,785,0,0
-644,239,0,0,0,0,0,0,0,0,0,-1,580,785,0,0
-637,239,-23.2709,0.465088,0,0,0,0,0,0,0,-1,587,785,-23.271,-0.465116
-630,239,-23.4006,0.956299,0,0,0,0,0,0,0,-1,594,785,-23.4005,-0.956285
-623,239,-30.6328,2.52185,0,0,0,0,0,0,0,-1,601,785,-30.6328,-2.52183
-616,239,-29.1425,1.42139,0,0,0,0,0,0,0,-1,608,785,-29.1425,-1.42139
-609,239,-27.8569,0.322937,0,0,0,0,0,0,0,-1,615,785,-27.857,-0.322963
-602,239,-39.1626,6.22015,0,0,0,0,0,0,0,-1,622,785,-39.1626,-6.22013
-595,239,-40.1391,3.83441,0,0,0,0,0,0,0,-1,629,785,-40.1391,-3.83444
-588,239,-40.0552,3.11646,-0.00210216,0.00369812,-0.00125458,0.00395785,-0.00236189,-1.36665,0.00368728,0.0215878,636,785,-40.0552,-3.11644
-581,239,-40.2097,2.00739,-0.00135313,0.00288035,-0.000677683,0.00298618,-0.00145896,-1.41587,0.00261641,0.0119383,643,785,-40.2097,-2.00736
-574,239,-40.2366,0.94812,-0.000878642,0.00235407,-0.00011239,0.00235797,-0.000882545,-1.53609,0.00193447,0.0133467,650,785,-40.2366,-0.948149
-567,239,-40.28,-0.00640869,-0.000739079,0.00205751,0.000355627,0.00210202,-0.000783594,1.44627,0.001723,0.0204199,657,785,-40.28,0.00638951
-560,239,-40.3695,-0.953247,-0.000828978,0.00198512,0.000785304,0.00218944,-0.00103329,1.31627,0.00190014,0.0214012,664,785,-40.3695,0.95326
-553,239,-40.4294,-1.9444,-0.00128112,0.00204177,0.001191,0.00242456,-0.00166391,1.25983,0.00237406,0.0166387,671,785,-40.4294,1.9444
-546,239,-40.5016,-2.93109,-0.00224902,0.00216695,0.00147123,0.00261221,-0.00269428,1.27691,0.00306382,0.0192409,678,785,-40.5016,2.93111
-539,239,-40.6851,-3.96576,-0.00329695,0.0019108,0.00133543,0.00223328,-0.00361943,1.33385,0.0034105,0.0424163,685,785,-40.6852,3.96576
-532,239,-41.1635,-5.17291,0,0,0,0,0,0,0,-1,692,785,-41.1635,5.17294
-525,239,-40.6288,-5.58417,0,0,0,0,0,0,0,-1,699,785,-40.6288,5.58416
-518,239,-40.5128,-6.22827,0,0,0,0,0,0,0,-1,706,785,-40.5128,6.22828
-511,239,-20.9849,-2.09235,0,0,0,0,0,0,0,-1,713,785,-20.9848,2.09234
-504,239,-25.5015,2.00421,0,0,0,0,0,0,0,-1,720,785,-25.5015,-2.00422
-497,239,-40.2453,1.4447,0,0,0,0,0,0,0,-1,727,785,-40.2453,-1.4447
-490,239,-55.7633,-0.30426,0,0,0,0,0,0,0,-1,734,785,-55.7633,0.304271
-483,239,-64.5679,0.305969,0,0,0,0,0,0,0,-1,741,785,-64.5679,-0.305973
-476,239,-64.5126,0.330444,0.00419598,-0.0117651,0.00261903,0.00461475,-0.0121838,0.158552,0.0100215,0.0431143,748,785,-64.5126,-0.330474
-469,239,-64.3455,0.426086,0.00681448,-0.0159024,0.00366999,0.00739266,-0.0164806,0.156259,0.0141122,0.0452707,755,785,-64.3455,-0.426096
-462,239,-64.2053,0.661255,0.00935858,-0.0206179,0.00461033,0.0100516,-0.0213109,0.149206,0.018492,0.0471805,762,785,-64.2053,-0.661285
-455,239,0,0,0,0,0,0,0,0,0,-1,769,785,0,0
-448,239,0,0,0,0,0,0,0,0,0,-1,776,785,0,0
-441,239,0,0,0,0,0,0,0,0,0,-1,783,785,0,0
-434,239,0,0,0,0,0,0,0,0,0,-1,790,785,0,0
-427,239,0,0,0,0,0,0,0,0,0,-1,797,785,0,0
-420,239,0,0,0,0,0,0,0,0,0,-1,804,785,0,0
-413,239,0,0,0,0,0,0,0,0,0,-1,811,785,0,0
-406,239,0,0,0,0,0,0,0,0,0,-1,818,785,0,0
-399,239,0,0,0,0,0,0,0,0,0,-1,825,785,0,0
-392,239,0,0,0,0,0,0,0,0,0,-1,832,785,0,0
-385,239,0,0,0,0,0,0,0,0,0,-1,839,785,0,0
-378,239,0,0,0,0,0,0,0,0,0,-1,846,785,0,0
-371,239,0,0,0,0,0,0,0,0,0,-1,853,785,0,0
-364,239,0,0,0,0,0,0,0,0,0,-1,860,785,0,0
-357,239,0,0,0,0,0,0,0,0,0,-1,867,785,0,0
-350,239,0,0,0,0,0,0,0,0,0,-1,874,785,0,0
-343,239,0,0,0,0,0,0,0,0,0,-1,881,785,0,0
-336,239,0,0,0,0,0,0,0,0,0,-1,888,785,0,0
-329,239,0,0,0,0,0,0,0,0,0,-1,895,785,0,0
-322,239,0,0,0,0,0,0,0,0,0,-1,902,785,0,0
-315,239,0,0,0,0,0,0,0,0,0,-1,909,785,0,0
-308,239,0,0,0,0,0,0,0,0,0,-1,916,785,0,0
-301,239,0,0,0,0,0,0,0,0,0,-1,923,785,0,0
-294,239,0,0,0,0,0,0,0,0,0,-1,930,785,0,0
-287,239,0,0,0,0,0,0,0,0,0,-1,937,785,0,0
-280,239,0,0,0,0,0,0,0,0,0,-1,944,785,0,0
-273,239,0,0,0,0,0,0,0,0,0,-1,951,785,0,0
-266,239,0,0,0,0,0,0,0,0,0,-1,958,785,0,0
-259,239,0,0,0,0,0,0,0,0,0,-1,965,785,0,0
-252,239,0,0,0,0,0,0,0,0,0,-1,972,785,0,0
-245,239,0,0,0,0,0,0,0,0,0,-1,979,785,0,0
-238,239,0,0,0,0,0,0,0,0,0,-1,986,785,0,0
-231,239,0,0,0,0,0,0,0,0,0,-1,993,785,0,0
-224,239,0,0,0,0,0,0,0,0,0,-1,1000,785,0,0
-217,239,0,0,0,0,0,0,0,0,0,-1,1007,785,0,0
-210,239,0,0,0,0,0,0,0,0,0,-1,1014,785,0,0
-203,239,0,0,0,0,0,0,0,0,0,-1,1021,785,0,0
-196,239,0,0,0,0,0,0,0,0,0,-1,1028,785,0,0
-189,239,0,0,0,0,0,0,0,0,0,-1,1035,785,0,0
-182,239,0,0,0,0,0,0,0,0,0,-1,1042,785,0,0
-175,239,0,0,0,0,0,0,0,0,0,-1,1049,785,0,0
-168,239,0,0,0,0,0,0,0,0,0,-1,1056,785,0,0
-161,239,0,0,0,0,0,0,0,0,0,-1,1063,785,0,0
-154,239,0,0,0,0,0,0,0,0,0,-1,1070,785,0,0
-147,239,0,0,0,0,0,0,0,0,0,-1,1077,785,0,0
-140,239,0,0,0,0,0,0,0,0,0,-1,1084,785,0,0
-133,239,0,0,0,0,0,0,0,0,0,-1,1091,785,0,0
-126,239,0,0,0,0,0,0,0,0,0,-1,1098,785,0,0
-119,239,0,0,0,0,0,0,0,0,0,-1,1105,785,0,0
-112,239,0,0,0,0,0,0,0,0,0,-1,1112,785,0,0
-105,239,0,0,0,0,0,0,0,0,0,-1,1119,785,0,0
-98,239,0,0,0,0,0,0,0,0,0,-1,1126,785,0,0
-91,239,0,0,0,0,0,0,0,0,0,-1,1133,785,0,0
-84,239,0,0,0,0,0,0,0,0,0,-1,1140,785,0,0
-77,239,0,0,0,0,0,0,0,0,0,-1,1147,785,0,0
-70,239,0,0,0,0,0,0,0,0,0,-1,1154,785,0,0
-63,239,0,0,0,0,0,0,0,0,0,-1,1161,785,0,0
-56,239,0,0,0,0,0,0,0,0,0,-1,1168,785,0,0
-49,239,0,0,0,0,0,0,0,0,0,-1,1175,785,0,0
-42,239,0,0,0,0,0,0,0,0,0,-1,1182,785,0,0
-35,239,0,0,0,0,0,0,0,0,0,-1,1189,785,0,0
-28,239,0,0,0,0,0,0,0,0,0,-1,1196,785,0,0
-21,239,0,0,0,0,0,0,0,0,0,-1,1203,785,0,0
-14,239,0,0,0,0,0,0,0,0,0,-1,1210,785,0,0
-7,239,0,0,0,0,0,0,0,0,0,-1,1217,785,0,0
0,239,0,0,0,0,0,0,0,0,0,-1,1224,785,0,0
7,239,0,0,0,0,0,0,0,0,0,-1,1231,785,0,0
14,239,0,0,0,0,0,0,0,0,0,-1,1238,785,0,0
21,239,0,0,0,0,0,0,0,0,0,-1,1245,785,0,0
28,239,0,0,0,0,0,0,0,0,0,-1,1252,785,0,0
35,239,0,0,0,0,0,0,0,0,0,-1,1259,785,0,0
42,239,0,0,0,0,0,0,0,0,0,-1,1266,785,0,0
49,239,0,0,0,0,0,0,0,0,0,-1,1273,785,0,0
56,239,0,0,0,0,0,0,0,0,0,-1,1280,785,0,0
63,239,0,0,0,0,0,0,0,0,0,-1,1287,785,0,0
70,239,0,0,0,0,0,0,0,0,0,-1,1294,785,0,0
77,239,0,0,0,0,0,0,0,0,0,-1,1301,785,0,0
84,239,0,0,0,0,0,0,0,0,0,-1,1308,785,0,0
91,239,0,0,0,0,0,0,0,0,0,-1,1315,785,0,0
98,239,0,0,0,0,0,0,0,0,0,-1,1322,785,0,0
105,239,0,0,0,0,0,0,0,0,0,-1,1329,785,0,0
112,239,0,0,0,0,0,0,0,0,0,-1,1336,785,0,0
119,239,0,0,0,0,0,0,0,0,0,-1,1343,785,0,0
126,239,0,0,0,0,0,0,0,0,0,-1,1350,785,0,0
133,239,0,0,0,0,0,0,0,0,0,-1,1357,785,0,0
140,239,0,0,0,0,0,0,0,0,0,-1,1364,785,0,0
147,239,0,0,0,0,0,0,0,0,0,-1,1371,785,0,0
154,239,0,0,0,0,0,0,0,0,0,-1,1378,785,0,0
161,239,0,0,0,0,0,0,0,0,0,-1,1385,785,0,0
168,239,0,0,0,0,0,0,0,0,0,-1,1392,785,0,0
175,239,0,0,0,0,0,0,0,0,0,-1,1399,785,0,0
182,239,0,0,0,0,0,0,0,0,0,-1,1406,785,0,0
189,239,0,0,0,0,0,0,0,0,0,-1,1413,785,0,0
196,239,0,0,0,0,0,0,0,0,0,-1,1420,785,0,0
203,239,0,0,0,0,0,0,0,0,0,-1,1427,785,0,0
210,239,0,0,0,0,0,0,0,0,0,-1,1434,785,0,0
217,239,0,0,0,0,0,0,0,0,0,-1,1441,785,0,0
224,239,0,0,0,0,0,0,0,0,0,-1,1448,785,0,0
231,239,0,0,0,0,0,0,0,0,0,-1,1455,785,0,0
238,239,0,0,0,0,0,0,0,0,0,-1,1462,785,0,0
245,239,0,0,0,0,0,0,0,0,0,-1,1469,785,0,0
252,239,0,0,0,0,0,0,0,0,0,-1,1476,785,0,0
259,239,0,0,0,0,0,0,0,0,0,-1,1483,785,0,0
266,239,0,0,0,0,0,0,0,0,0,-1,1490,785,0,0
273,239,0,0,0,0,0,0,0,0,0,-1,1497,785,0,0
280,239,0,0,0,0,0,0,0,0,0,-1,1504,785,0,0
287,239,0,0,0,0,0,0,0,0,0,-1,1511,785,0,0
294,239,0,0,0,0,0,0,0,0,0,-1,1518,785,0,0
301,239,0,0,0,0,0,0,0,0,0,-1,1525,785,0,0
308,239,0,0,0,0,0,0,0,0,0,-1,1532,785,0,0
315,239,0,0,0,0,0,0,0,0,0,-1,1539,785,0,0
322,239,0,0,0,0,0,0,0,0,0,-1,1546,785,0,0
329,239,0,0,0,0,0,0,0,0,0,-1,1553,785,0,0
336,239,0,0,0,0,0,0,0,0,0,-1,1560,785,0,0
343,239,0,0,0,0,0,0,0,0,0,-1,1567,785,0,0
350,239,0,0,0,0,0,0,0,0,0,-1,1574,785,0,0
357,239,0,0,0,0,0,0,0,0,0,-1,1581,785,0,0
364,239,0,0,0,0,0,0,0,0,0,-1,1588,785,0,0
371,239,0,0,0,0,0,0,0,0,0,-1,1595,785,0,0
378,239,0,0,0,0,0,0,0,0,0,-1,1602,785,0,0
385,239,0,0,0,0,0,0,0,0,0,-1,1609,785,0,0
392,239,0,0,0,0,0,0,0,0,0,-1,1616,785,0,0
399,239,0,0,0,0,0,0,0,0,0,-1,1623,785,0,0
406,239,0,0,0,0,0,0,0,0,0,-1,1630,785,0,0
413,239,0,0,0,0,0,0,0,0,0,-1,1637,785,0,0
420,239,0,0,0,0,0,0,0,0,0,-1,1644,785,0,0
427,239,0,0,0,0,0,0,0,0,0,-1,1651,785,0,0
434,239,0,0,0,0,0,0,0,0,0,-1,1658,785,0,0
441,239,0,0,0,0,0,0,0,0,0,-1,1665,785,0,0
448,239,0,0,0,0,0,0,0,0,0,-1,1672,785,0,0
455,239,0,0,0,0,0,0,0,0,0,-1,1679,785,0,0
462,239,0,0,0,0,0,0,0,0,0,-1,1686,785,0,0
469,239,0,0,0,0,0,0,0,0,0,-1,1693,785,0,0
476,239,0,0,0,0,0,0,0,0,0,-1,1700,785,0,0
483,239,0,0,0,0,0,0,0,0,0,-1,1707,785,0,0
490,239,0,0,0,0,0,0,0,0,0,-1,1714,785,0,0
497,239,0,0,0,0,0,0,0,0,0,-1,1721,785,0,0
504,239,0,0,0,0,0,0,0,0,0,-1,1728,785,0,0
511,239,0,0,0,0,0,0,0,0,0,-1,1735,785,0,0
518,239,0,0,0,0,0,0,0,0,0,-1,1742,785,0,0
525,239,0,0,0,0,0,0,0,0,0,-1,1749,785,0,0
532,239,0,0,0,0,0,0,0,0,0,-1,1756,785,0,0
539,239,0,0,0,0,0,0,0,0,0,-1,1763,785,0,0
546,239,0,0,0,0,0,0,0,0,0,-1,1770,785,0,0
553,239,0,0,0,0,0,0,0,0,0,-1,1777,785,0,0
560,239,0,0,0,0,0,0,0,0,0,-1,1784,785,0,0
567,239,0,0,0,0,0,0,0,0,0,-1,1791,785,0,0
574,239,0,0,0,0,0,0,0,0,0,-1,1798,785,0,0
581,239,80.8502,2.29181,0.0126457,-0.0142113,0.00677029,0.0142559,-0.0158215,0.23349,0.017373,0.0344968,1805,785,80.8502,-2.29179
588,239,80.8486,2.27649,0.0119704,-0.0132696,0.00649519,0.0135438,-0.0148429,0.23766,0.0163948,0.0372004,1812,785,80.8486,-2.27648
595,239,80.9319,2.20654,0.011003,-0.0107434,0.00572587,0.0124185,-0.0121589,0.242352,0.01419,0.0337031,1819,785,80.9319,-2.20656
602,239,81.0139,2.19116,0.00941515,-0.00808742,0.00458227,0.0105422,-0.0092145,0.241179,0.0114151,0.0447352,1826,785,81.0139,-2.19117
609,239,81.0151,2.2594,0,0,0,0,0,0,0,-1,1833,785,81.0151,-2.25942
616,239,55.8469,3.72443,0,0,0,0,0,0,0,-1,1840,785,55.8469,-3.72445
623,239,65.0618,2.66516,0,0,0,0,0,0,0,-1,1847,785,65.0617,-2.66519
630,239,54.5767,3.64667,0,0,0,0,0,0,0,-1,1854,785,54.5766,-3.64667
637,239,39.5542,2.54114,0,0,0,0,0,0,0,-1,1861,785,39.5543,-2.54114
644,239,18.3466,0.735413,0,0,0,0,0,0,0,-1,1868,785,18.3465,-0.735414
651,239,34.2471,-2.15778,0,0,0,0,0,0,0,-1,1875,785,34.2471,2.1578
658,239,56.9706,-5.31482,0,0,0,0,0,0,0,-1,1882,785,56.9706,5.31479
665,239,57.231,-4.13434,0.000301377,0.0010234,-0.000132133,0.00104682,0.000277956,-1.39536,0.000626144,0.0434037,1889,785,57.231,4.13436
672,239,57.26,-3.04309,0.000408647,0.000914021,8.59603e-05,0.000928242,0.000394426,1.40684,0.000537931,0.0242848,1896,785,57.26,3.04307
679,239,57.1261,-2.02466,0.000569593,0.000712419,7.95932e-06,0.000712861,0.00056915,1.5153,0.000435318,0.0245188,1903,785,57.1261,2.02464
686,239,57.0198,-1.00745,0.000776434,0.000803414,6.71923e-05,0.000858457,0.00072139,0.884465,0.000532528,0.0267,1910,785,57.0197,1.00747
693,239,57.0188,-0.129883,0.00117103,0.00105774,0.000353274,0.00147217,0.000756596,0.705902,0.000850068,0.0176389,1917,785,57.0189,0.129893
700,239,56.9376,0.830139,0.00190867,0.00157678,0.000949079,0.0027062,0.000779249,0.69885,0.00160858,0.0125126,1924,785,56.9377,-0.830114
707,239,56.8546,1.82965,0.00286723,0.00227775,0.00183067,0.00442674,0.000718241,0.705583,0.00274327,0.0118297,1931,785,56.8546,-1.82964
714,239,56.7819,2.79449,0.00393648,0.00302107,0.00294152,0.0064557,0.000501854,0.708216,0.00414665,0.0108165,1938,785,56.7819,-2.79449
721,239,56.6792,3.77972,0.00539236,0.0038806,0.00447962,0.00917942,9.35383e-05,0.701816,0.00608868,0.022815,1945,785,56.6792,-3.7797
728,239,56.7191,5.03278,0.00730127,0.00457449,0.00643254,0.0125133,-0.000637554,0.680968,0.00856264,0.0430082,1952,785,56.7191,-5.03278
735,239,57.0426,6.50513,0,0,0,0,0,0,0,-1,1959,785,57.0426,-6.50514
742,239,32.4141,7.6665,0,0,0,0,0,0,0,-1,1966,785,32.4141,-7.6665
749,239,32.1489,3.4411,0,0,0,0,0,0,0,-1,1973,785,32.149,-3.44109
756,239,32.9064,3.6687,0,0,0,0,0,0,0,-1,1980,785,32.9063,-3.66873
763,239,0,0,0,0,0,0,0,0,0,-1,1987,785,0,0
770,239,0,0,0,0,0,0,0,0,0,-1,1994,785,0,0
777,239,0,0,0,0,0,0,0,0,0,-1,2001,785,0,0
784,239,0,0,0,0,0,0,0,0,0,-1,2008,785,0,0
791,239,0,0,0,0,0,0,0,0,0,-1,2015,785,0,0
798,239,0,0,0,0,0,0,0,0,0,-1,2022,785,0,0
805,239,0,0,0,0,0,0,0,0,0,-1,2029,785,0,0
812,239,0,0,0,0,0,0,0,0,0,-1,2036,785,0,0
-700,232,0,0,0,0,0,0,0,0,0,-1,524,792,0,0
-693,232,0,0,0,0,0,0,0,0,0,-1,531,792,0,0
-686,232,0,0,0,0,0,0,0,0,0,-1,538,792,0,0
-679,232,0,0,0,0,0,0,0,0,0,-1,545,792,0,0
-672,232,0,0,0,0,0,0,0,0,0,-1,552,792,0,0
-665,232,0,0,0,0,0,0,0,0,0,-1,559,792,0,0
-658,232,0,0,0,0,0,0,0,0,0,-1,566,792,0,0
-651,232,0,0,0,0,0,0,0,0,0,-1,573,792,0,0
-644,232,-41.2348,4.28168,0,0,0,0,0,0,0,-1,580,792,-41.2348,-4.28166
-637,232,-42.1427,3.51453,0,0,0,0,0,0,0,-1,587,792,-42.1427,-3.51452
-630,232,-32.2345,1.80212,0,0,0,0,0,0,0,-1,594,792,-32.2345,-1.80211
-623,232,-31.5665,1.05115,0,0,0,0,0,0,0,-1,601,792,-31.5664,-1.05112
-616,232,-30.6812,0.432861,0,0,0,0,0,0,0,-1,608,792,-30.6812,-0.432881
-609,232,-29.7142,-0.478943,0,0,0,0,0,0,0,-1,615,792,-29.7142,0.478965
-602,232,-40.831,5.87988,0,0,0,0,0,0,0,-1,622,792,-40.831,-5.8799
-595,232,-40.9428,4.50403,-0.00340232,0.00602077,-0.00152948,0.0062628,-0.00364436,-1.41385,0.00578611,0.0376314,629,792,-40.9428,-4.50404
-588,232,-41.1037,3.13519,-0.00193688,0.00460632,-0.00115861,0.00480542,-0.00213598,-1.40062,0.00410521,0.0131733,636,792,-41.1037,-3.13519
-581,232,-41.1767,2.04742,-0.00104197,0.00359923,-0.000625309,0.00368201,-0.00112474,-1.43919,0.00290314,0.0088318,643,792,-41.1767,-2.0474
-574,232,-41.2272,1.06427,-0.000499684,0.00291873,-6.24502e-05,0.00291987,-0.000500825,-1.55254,0.00213321,0.00906831,650,792,-41.2272,-1.06429
-567,232,-41.294,0.086731,-0.000345981,0.00253617,0.000427978,0.00259838,-0.000408189,1.42645,0.00188312,0.0109671,657,792,-41.294,-0.0867116
-560,232,-41.3846,-0.8927,-0.000563466,0.00255486,0.00102393,0.00286102,-0.000869626,1.28025,0.00225386,0.0154729,664,792,-41.3846,0.892712
-553,232,-41.4918,-1.89111,-0.00131229,0.00273826,0.00160191,0.00329521,-0.00186923,1.23619,0.00301934,0.0163978,671,792,-41.4918,1.89108
-546,232,-41.4952,-2.83795,-0.00254177,0.00311936,0.00192759,0.00371336,-0.00313577,1.27187,0.00395904,0.0425244,678,792,-41.4952,2.83798
-539,232,-41.3011,-3.74084,0,0,0,0,0,0,0,-1,685,792,-41.3011,3.74086
-532,232,-42.0667,-4.5351,0,0,0,0,0,0,0,-1,692,792,-42.0667,4.53507
-525,232,-41.7694,-5.81165,0,0,0,0,0,0,0,-1,699,792,-41.7694,5.81167
-518,232,-20.8098,-3.08154,0,0,0,0,0,0,0,-1,706,792,-20.8098,3.08155
-511,232,-21.6708,-0.962708,0,0,0,0,0,0,0,-1,713,792,-21.6708,0.962731
-504,232,-34.2155,0.346985,0,0,0,0,0,0,0,-1,720,792,-34.2155,-0.346955
-497,232,-52.7195,0.518677,0,0,0,0,0,0,0,-1,727,792,-52.7195,-0.518678
-490,232,-64.3625,0.275574,0,0,0,0,0,0,0,-1,734,792,-64.3625,-0.275586
-483,232,-64.4227,0.343079,0.00120711,-0.00676733,0.00128732,0.00140977,-0.00696999,0.156148,0.00518092,0.0450413,741,792,-64.4227,-0.343099
-476,232,-64.3352,0.463867,0.00381903,-0.0101215,0.00199069,0.00409773,-0.0104002,0.139096,0.00863001,0.0353584,748,792,-64.3352,-0.463877
-469,232,-64.2769,0.537659,0.00689781,-0.0142104,0.0030812,0.00733838,-0.0146509,0.142024,0.0129274,0.0339662,755,792,-64.2769,-0.537669
-462,232,0,0,0,0,0,0,0,0,0,-1,762,792,0,0
-455,232,0,0,0,0,0,0,0,0,0,-1,769,792,0,0
-448,232,0,0,0,0,0,0,0,0,0,-1,776,792,0,0
-441,232,0,0,0,0,0,0,0,0,0,-1,783,792,0,0
-434,232,0,0,0,0,0,0,0,0,0,-1,790,792,0,0
-427,232,0,0,0,0,0,0,0,0,0,-1,797,792,0,0
-420,232,0,0,0,0,0,0,0,0,0,-1,804,792,0,0
-413,232,0,0,0,0,0,0,0,0,0,-1,811,792,0,0
-406,232,0,0,0,0,0,0,0,0,0,-1,818,792,0,0
-399,232,0,0,0,0,0,0,0,0,0,-1,825,792,0,0
-392,232,0,0,0,0,0,0,0,0,0,-1,832,792,0,0
-385,232,0,0,0,0,0,0,0,0,0,-1,839,792,0,0
-378,232,0,0,0,0,0,0,0,0,0,-1,846,792,0,0
-371,232,0,0,0,0,0,0,0,0,0,-1,853,792,0,0
-364,232,0,0,0,0,0,0,0,0,0,-1,860,792,0,0
-357,232,0,0,0,0,0,0,0,0,0,-1,867,792,0,0
-350,232,0,0,0,0,0,0,0,0,0,-1,874,792,0,0
-343,232,0,0,0,0,0,0,0,0,0,-1,881,792,0,0
-336,232,0,0,0,0,0,0,0,0,0,-1,888,792,0,0
-329,232,0,0,0,0,0,0,0,0,0,-1,895,792,0,0
-322,232,0,0,0,0,0,0,0,0,0,-1,902,792,0,0
-315,232,0,0,0,0,0,0,0,0,0,-1,909,792,0,0
-308,232,0,0,0,0,0,0,0,0,0,-1,916,792,0,0
-301,232,0,0,0,0,0,0,0,0,0,-1,923,792,0,0
-294,232,0,0,0,0,0,0,0,0,0,-1,930,792,0,0
-287,232,0,0,0,0,0,0,0,0,0,-1,937,792,0,0
-280,232,0,0,0,0,0,0,0,0,0,-1,944,792,0,0
-273,232,0,0,0,0,0,0,0,0,0,-1,951,792,0,0
-266,232,0,0,0,0,0,0,0,0,0,-1,958,792,0,0
-259,232,0,0,0,0,0,0,0,0,0,-1,965,792,0,0
-252,232,0,0,0,0,0,0,0,0,0,-1,972,792,0,0
-245,232,0,0,0,0,0,0,0,0,0,-1,979,792,0,0
-238,232,0,0,0,0,0,0,0,0,0,-1,986,792,0,0
-231,232,0,0,0,0,0,0,0,0,0,-1,993,792,0,0
-224,232,0,0,0,0,0,0,0,0,0,-1,1000,792,0,0
-217,232,0,0,0,0,0,0,0,0,0,-1,1007,792,0,0
-210,232,0,0,0,0,0,0,0,0,0,-1,1014,792,0,0
-203,232,0,0,0,0,0,0,0,0,0,-1,1021,792,0,0
-196,232,0,0,0,0,0,0,0,0,0,-1,1028,792,0,0
-189,232,0,0,0,0,0,0,0,0,0,-1,1035,792,0,0
-182,232,0,0,0,0,0,0,0,0,0,-1,1042,792,0,0
-175,232,0,0,0,0,0,0,0,0,0,-1,1049,792,0,0
-168,232,0,0,0,0,0,0,0,0,0,-1,1056,792,0,0
-161,232,0,0,0,0,0,0,0,0,0,-1,1063,792,0,0
-154,232,0,0,0,0,0,0,0,0,0,-1,1070,792,0,0
-147,232,0,0,0,0,0,0,0,0,0,-1,1077,792,0,0
-140,232,0,0,0,0,0,0,0,0,0,-1,1084,792,0,0
-133,232,0,0,0,0,0,0,0,0,0,-1,1091,792,0,0
-126,232,0,0,0,0,0,0,0,0,0,-1,1098,792,0,0
-119,232,0,0,0,0,0,0,0,0,0,-1,1105,792,0,0
-112,232,0,0,0,0,0,0,0,0,0,-1,1112,792,0,0
-105,232,0,0,0,0,0,0,0,0,0,-1,1119,792,0,0
-98,232,0,0,0,0,0,0,0,0,0,-1,1126,792,0,0
-91,232,0,0,0,0,0,0,0,0,0,-1,1133,792,0,0
-84,232,0,0,0,0,0,0,0,0,0,-1,1140,792,0,0
-77,232,0,0,0,0,0,0,0,0,0,-1,1147,792,0,0
-70,232,0,0,0,0,0,0,0,0,0,-1,1154,792,0,0
-63,232,0,0,0,0,0,0,0,0,0,-1,1161,792,0,0
-56,232,0,0,0,0,0,0,0,0,0,-1,1168,792,0,0
-49,232,0,0,0,0,0,0,0,0,0,-1,1175,792,0,0
-42,232,0,0,0,0,0,0,0,0,0,-1,1182,792,0,0
-35,232,0,0,0,0,0,0,0,0,0,-1,1189,792,0,0
-28,232,0,0,0,0,0,0,0,0,0,-1,1196,792,0,0
-21,232,0,0,0,0,0,0,0,0,0,-1,1203,792,0,0
-14,232,0,0,0,0,0,0,0,0,0,-1,1210,792,0,0
-7,232,0,0,0,0,0,0,0,0,0,-1,1217,792,0,0
0,232,0,0,0,0,0,0,0,0,0,-1,1224,792,0,0
7,232,0,0,0,0,0,0,0,0,0,-1,1231,792,0,0
14,232,0,0,0,0,0,0,0,0,0,-1,1238,792,0,0
21,232,0,0,0,0,0,0,0,0,0,-1,1245,792,0,0
28,232,0,0,0,0,0,0,0,0,0,-1,1252,792,0,0
35,232,0,0,0,0,0,0,0,0,0,-1,1259,792,0,0
42,232,0,0,0,0,0,0,0,0,0,-1,1266,792,0,0
49,232,0,0,0,0,0,0,0,0,0,-1,1273,792,0,0
56,232,0,0,0,0,0,0,0,0,0,-1,1280,792,0,0
63,232,0,0,0,0,0,0,0,0,0,-1,1287,792,0,0
70,232,0,0,0,0,0,0,0,0,0,-1,1294,792,0,0
77,232,0,0,0,0,0,0,0,0,0,-1,1301,792,0,0
84,232,0,0,0,0,0,0,0,0,0,-1,1308,792,0,0
91,232,0,0,0,0,0,0,0,0,0,-1,1315,792,0,0
98,232,0,0,0,0,0,0,0,0,0,-1,1322,792,0,0
105,232,0,0,0,0,0,0,0,0,0,-1,1329,792,0,0
112,232,0,0,0,0,0,0,0,0,0,-1,1336,792,0,0
119,232,0,0,0,0,0,0,0,0,0,-1,1343,792,0,0
126,232,0,0,0,0,0,0,0,0,0,-1,1350,792,0,0
133,232,0,0,0,0,0,0,0,0,0,-1,1357,792,0,0
140,232,0,0,0,0,0,0,0,0,0,-1,1364,792,0,0
147,232,0,0,0,0,0,0,0,0,0,-1,1371,792,0,0
154,232,0,0,0,0,0,0,0,0,0,-1,1378,792,0,0
161,232,0,0,0,0,0,0,0,0,0,-1,1385,792,0,0
168,232,0,0,0,0,0,0,0,0,0,-1,1392,792,0,0
175,232,0,0,0,0,0,0,0,0,0,-1,1399,792,0,0
182,232,0,0,0,0,0,0,0,0,0,-1,1406,792,0,0
189,232,0,0,0,0,0,0,0,0,0,-1,1413,792,0,0
196,232,0,0,0,0,0,0,0,0,0,-1,1420,792,0,0
203,232,0,0,0,0,0,0,0,0,0,-1,1427,792,0,0
210,232,0,0,0,0,0,0,0,0,0,-1,1434,792,0,0
217,232,0,0,0,0,0,0,0,0,0,-1,1441,792,0,0
224,232,0,0,0,0,0,0,0,0,0,-1,1448,792,0,0
231,232,0,0,0,0,0,0,0,0,0,-1,1455,792,0,0
238,232,0,0,0,0,0,0,0,0,0,-1,1462,792,0,0
245,232,0,0,0,0,0,0,0,0,0,-1,1469,792,0,0
252,232,0,0,0,0,0,0,0,0,0,-1,1476,792,0,0
259,232,0,0,0,0,0,0,0,0,0,-1,1483,792,0,0
266,232,0,0,0,0,0,0,0,0,0,-1,1490,792,0,0
273,232,0,0,0,0,0,0,0,0,0,-1,1497,792,0,0
280,232,0,0,0,0,0,0,0,0,0,-1,1504,792,0,0
287,232,0,0,0,0,0,0,0,0,0,-1,1511,792,0,0
294,232,0,0,0,0,0,0,0,0,0,-1,1518,792,0,0
301,232,0,0,0,0,0,0,0,0,0,-1,1525,792,0,0
308,232,0,0,0,0,0,0,0,0,0,-1,1532,792,0,0
315,232,0,0,0,0,0,0,0,0,0,-1,1539,792,0,0
322,232,0,0,0,0,0,0,0,0,0,-1,1546,792,0,0
329,232,0,0,0,0,0,0,0,0,0,-1,1553,792,0,0
336,232,0,0,0,0,0,0,0,0,0,-1,1560,792,0,0
343,232,0,0,0,0,0,0,0,0,0,-1,1567,792,0,0
350,232,0,0,0,0,0,0,0,0,0,-1,1574,792,0,0
357,232,0,0,0,0,0,0,0,0,0,-1,1581,792,0,0
364,232,0,0,0,0,0,0,0,0,0,-1,1588,792,0,0
371,232,0,0,0,0,0,0,0,0,0,-1,1595,792,0,0
378,232,0,0,0,0,0,0,0,0,0,-1,1602,792,0,0
385,232,0,0,0,0,0,0,0,0,0,-1,1609,792,0,0
392,232,0,0,0,0,0,0,0,0,0,-1,1616,792,0,0
399,232,0,0,0,0,0,0,0,0,0,-1,1623,792,0,0
406,232,0,0,0,0,0,0,0,0,0,-1,1630,792,0,0
413,232,0,0,0,0,0,0,0,0,0,-1,1637,792,0,0
420,232,0,0,0,0,0,0,0,0,0,-1,1644,792,0,0
427,232,0,0,0,0,0,0,0,0,0,-1,1651,792,0,0
434,232,0,0,0,0,0,0,0,0,0,-1,1658,792,0,0
441,232,0,0,0,0,0,0,0,0,0,-1,1665,792,0,0
448,232,0,0,0,0,0,0,0,0,0,-1,1672,792,0,0
455,232,0,0,0,0,0,0,0,0,0,-1,1679,792,0,0
462,232,0,0,0,0,0,0,0,0,0,-1,1686,792,0,0
469,232,0,0,0,0,0,0,0,0,0,-1,1693,792,0,0
476,232,0,0,0,0,0,0,0,0,0,-1,1700,792,0,0
483,232,0,0,0,0,0,0,0,0,0,-1,1707,792,0,0
490,232,0,0,0,0,0,0,0,0,0,-1,1714,792,0,0
497,232,0,0,0,0,0,0,0,0,0,-1,1721,792,0,0
504,232,0,0,0,0,0,0,0,0,0,-1,1728,792,0,0
511,232,0,0,0,0,0,0,0,0,0,-1,1735,792,0,0
518,232,0,0,0,0,0,0,0,0,0,-1,1742,792,0,0
525,232,0,0,0,0,0,0,0,0,0,-1,1749,792,0,0
532,232,0,0,0,0,0,0,0,0,0,-1,1756,792,0,0
539,232,0,0,0,0,0,0,0,0,0,-1,1763,792,0,0
546,232,0,0,0,0,0,0,0,0,0,-1,1770,792,0,0
553,232,0,0,0,0,0,0,0,0,0,-1,1777,792,0,0
560,232,0,0,0,0,0,0,0,0,0,-1,1784,792,0,0
567,232,0,0,0,0,0,0,0,0,0,-1,1791,792,0,0
574,232,0,0,0,0,0,0,0,0,0,-1,1798,792,0,0
581,232,0,0,0,0,0,0,0,0,0,-1,1805,792,0,0
588,232,80.75,2.2851,0.0104564,-0.0100973,0.00459492,0.0114369,-0.0110778,0.210225,0.0129994,0.0353256,1812,792,80.7499,-2.2851
595,232,80.811,2.19202,0.00957041,-0.00877251,0.00428151,0.0105206,-0.00972266,0.21838,0.0116905,0.0339905,1819,792,80.8111,-2.192
602,232,80.9032,2.17816,0.00824869,-0.00673474,0.00358046,0.00906032,-0.00754637,0.222915,0.00960115,0.0361247,1826,792,80.9032,-2.17817
609,232,80.9409,2.15686,0.00644661,-0.00490827,0.00260173,0.00701436,-0.00547601,0.21485,0.00722953,0.0475878,1833,792,80.9409,-2.15687
616,232,80.8552,2.16901,0,0,0,0,0,0,0,-1,1840,792,80.8553,-2.16901
623,232,74.9668,2.53278,0,0,0,0,0,0,0,-1,1847,792,74.9667,-2.5328
630,232,64.9034,2.97992,0,0,0,0,0,0,0,-1,1854,792,64.9035,-2.9799
637,232,47.0471,4.04309,0,0,0,0,0,0,0,-1,1861,792,47.0471,-4.04309
644,232,30.7756,4.24139,0,0,0,0,0,0,0,-1,1868,792,30.7757,-4.24141
651,232,31.6797,-0.564087,0,0,0,0,0,0,0,-1,1875,792,31.6797,0.564059
658,232,46.7423,-3.10736,0,0,0,0,0,0,0,-1,1882,792,46.7423,3.10735
665,232,58.0328,-4.09125,0,0,0,0,0,0,0,-1,1889,792,58.0328,4.09125
672,232,58.1852,-2.96082,0,0,0,0,0,0,0,-1,1896,792,58.1852,2.96081
679,232,58.0714,-1.92719,0.000927102,0.000575418,0.000187395,0.00100824,0.000494283,0.408597,0.000582143,0.0223054,1903,792,58.0714,1.92718
686,232,57.9739,-0.915344,0.000956833,0.000607662,0.000133036,0.00100174,0.000562751,0.325572,0.000579826,0.0204604,1910,792,57.9738,0.915366
693,232,57.9486,-0.0432739,0.00118249,0.000803334,0.000259035,0.00131391,0.000671915,0.469504,0.00075865,0.0122863,1917,792,57.9486,0.0432521
700,232,57.9026,0.904419,0.00180241,0.001328,0.000707106,0.00231104,0.000819376,0.623567,0.00135297,0.0142569,1924,792,57.9026,-0.904397
707,232,57.8486,1.88855,0.00265329,0.00201685,0.00151624,0.00388434,0.000785798,0.681962,0.00237143,0.0138021,1931,792,57.8487,-1.88857
714,232,57.7903,2.84814,0.00364033,0.00277674,0.00256872,0.0058133,0.000603776,0.702128,0.00369077,0.0141668,1938,792,57.7903,-2.84817
721,232,57.7021,3.85059,0.00491119,0.00360436,0.00399128,0.00830218,0.000213365,0.704262,0.00546505,0.0201835,1945,792,57.7021,-3.85058
728,232,57.5782,4.77112,0.00655504,0.00432349,0.0058021,0.0113477,-0.000469151,0.690405,0.00772625,0.0494587,1952,792,57.5783,-4.77113
735,232,57.6752,5.89752,0,0,0,0,0,0,0,-1,1959,792,57.6751,-5.89753
742,232,25.6461,6.00684,0,0,0,0,0,0,0,-1,1966,792,25.6461,-6.00684
749,232,31.2874,3.74713,0,0,0,0,0,0,0,-1,1973,792,31.2874,-3.74713
756,232,34.9586,15.3984,0,0,0,0,0,0,0,-1,1980,792,34.9586,-15.3984
763,232,35.741,16.6099,0,0,0,0,0,0,0,-1,1987,792,35.741,-16.6099
770,232,0,0,0,0,0,0,0,0,0,-1,1994,792,0,0
777,232,0,0,0,0,0,0,0,0,0,-1,2001,792,0,0
784,232,0,0,0,0,0,0,0,0,0,-1,2008,792,0,0
791,232,0,0,0,0,0,0,0,0,0,-1,2015,792,0,0
798,232,0,0,0,0,0,0,0,0,0,-1,2022,792,0,0
805,232,0,0,0,0,0,0,0,0,0,-1,2029,792,0,0
812,232,0,0,0,0,0,0,0,0,0,-1,2036,792,0,0
-700,225,0,0,0,0,0,0,0,0,0,-1,524,799,0,0
-693,225,0,0,0,0,0,0,0,0,0,-1,531,799,0,0
-686,225,0,0,0,0,0,0,0,0,0,-1,538,799,0,0
-679,225,0,0,0,0,0,0,0,0,0,-1,545,799,0,0
-672,225,0,0,0,0,0,0,0,0,0,-1,552,799,0,0
-665,225,0,0,0,0,0,0,0,0,0,-1,559,799,0,0
-658,225,0,0,0,0,0,0,0,0,0,-1,566,799,0,0
-651,225,0,0,0,0,0,0,0,0,0,-1,573,799,0,0
-644,225,-40.8898,4.14661,0,0,0,0,0,0,0,-1,580,799,-40.8898,-4.14661
-637,225,-41.61,3.36749,0,0,0,0,0,0,0,-1,587,799,-41.61,-3.36751
-630,225,-30.244,4.82196,0,0,0,0,0,0,0,-1,594,799,-30.244,-4.82193
-623,225,-32.8276,-0.00836182,0,0,0,0,0,0,0,-1,601,799,-32.8276,0.00837668
-616,225,-32.0569,-0.549255,0,0,0,0,0,0,0,-1,608,799,-32.0569,0.549265
-609,225,-41.424,6.7843,0,0,0,0,0,0,0,-1,615,799,-41.424,-6.78427
-602,225,-41.7457,5.42902,-0.00555204,0.00949445,-0.000493395,0.00951061,-0.0055682,-1.53805,0.00880438,0.0482166,622,799,-41.7457,-5.429
-595,225,-42.0413,4.12347,-0.00340663,0.00697635,-0.000899295,0.00705367,-0.00348394,-1.48503,0.00619916,0.030454,629,799,-42.0413,-4.1235
-588,225,-42.0925,3.06415,-0.00178814,0.0053003,-0.000720675,0.00537283,-0.00186067,-1.47049,0.00433725,0.0129991,636,799,-42.0925,-3.06417
-581,225,-42.1603,2.0943,-0.000707823,0.00413546,-0.000274665,0.00415099,-0.00072335,-1.51433,0.00303729,0.0111761,643,799,-42.1603,-2.09428
-574,225,-42.2151,1.12567,-6.43163e-06,0.00331716,0.000241784,0.00333466,-2.39288e-05,1.49856,0.00223112,0.00942483,650,799,-42.2152,-1.12567
-567,225,-42.2878,0.146301,0.000229697,0.00285778,0.00075586,0.00305967,2.78133e-05,1.3098,0.00203057,0.0120609,657,799,-42.2878,-0.146291
-560,225,-42.3604,-0.807068,-0.000130288,0.00298678,0.00148724,0.00358252,-0.000726029,1.1898,0.00266355,0.0138602,664,799,-42.3604,0.807066
-553,225,-42.4485,-1.80707,-0.0011657,0.00323109,0.00213723,0.00409875,-0.00203336,1.18515,0.00360669,0.0133807,671,799,-42.4485,1.80707
-546,225,-42.4352,-2.68866,-0.00247549,0.00366333,0.00234435,0.0044562,-0.00326836,1.24467,0.00447732,0.044214,678,799,-42.4352,2.68868
-539,225,-42.3499,-3.34442,0,0,0,0,0,0,0,-1,685,799,-42.3498,3.34442
-532,225,-43.303,-4.36078,0,0,0,0,0,0,0,-1,692,799,-43.303,4.36081
-525,225,-29.1705,-3.88239,0,0,0,0,0,0,0,-1,699,799,-29.1705,3.88237
-518,225,-21.963,0.171326,0,0,0,0,0,0,0,-1,706,799,-21.9629,-0.171319
-511,225,-33.0002,0.660217,0,0,0,0,0,0,0,-1,713,799,-33.0002,-0.660239
-504,225,-50.4542,0.524109,0,0,0,0,0,0,0,-1,720,799,-50.4542,-0.524105
-497,225,-64.3135,0.304688,0,0,0,0,0,0,0,-1,727,799,-64.3135,-0.304691
-490,225,-64.2932,0.342041,-0.00109033,-0.0029558,0.000968915,-0.00067815,-0.00336798,0.40221,0.00205688,0.0395112,734,799,-64.2932,-0.342061
-483,225,-64.2831,0.406677,0.000994741,-0.00529186,0.00111072,0.00118521,-0.00548233,0.169833,0.00410736,0.0347826,741,799,-64.2831,-0.406674
-476,225,-64.227,0.507813,0.00411147,-0.00829611,0.001738,0.00435033,-0.00853496,0.136575,0.00756897,0.0318671,748,799,-64.227,-0.50783
-469,225,-64.2597,0.594849,0.008138,-0.0118973,0.00270652,0.00849718,-0.0122565,0.131937,0.0120475,0.0346958,755,799,-64.2597,-0.59485
-462,225,0,0,0,0,0,0,0,0,0,-1,762,799,0,0
-455,225,0,0,0,0,0,0,0,0,0,-1,769,799,0,0
-448,225,0,0,0,0,0,0,0,0,0,-1,776,799,0,0
-441,225,0,0,0,0,0,0,0,0,0,-1,783,799,0,0
-434,225,0,0,0,0,0,0,0,0,0,-1,790,799,0,0
-427,225,0,0,0,0,0,0,0,0,0,-1,797,799,0,0
-420,225,0,0,0,0,0,0,0,0,0,-1,804,799,0,0
-413,225,0,0,0,0,0,0,0,0,0,-1,811,799,0,0
-406,225,0,0,0,0,0,0,0,0,0,-1,818,799,0,0
-399,225,0,0,0,0,0,0,0,0,0,-1,825,799,0,0
-392,225,0,0,0,0,0,0,0,0,0,-1,832,799,0,0
-385,225,0,0,0,0,0,0,0,0,0,-1,839,799,0,0
-378,225,0,0,0,0,0,0,0,0,0,-1,846,799,0,0
-371,225,0,0,0,0,0,0,0,0,0,-1,853,799,0,0
-364,225,0,0,0,0,0,0,0,0,0,-1,860,799,0,0
-357,225,0,0,0,0,0,0,0,0,0,-1,867,799,0,0
-350,225,0,0,0,0,0,0,0,0,0,-1,874,799,0,0
-343,225,0,0,0,0,0,0,0,0,0,-1,881,799,0,0
-336,225,0,0,0,0,0,0,0,0,0,-1,888,799,0,0
-329,225,0,0,0,0,0,0,0,0,0,-1,895,799,0,0
-322,225,0,0,0,0,0,0,0,0,0,-1,902,799,0,0
-315,225,0,0,0,0,0,0,0,0,0,-1,909,799,0,0
-308,225,0,0,0,0,0,0,0,0,0,-1,916,799,0,0
-301,225,0,0,0,0,0,0,0,0,0,-1,923,799,0,0
-294,225,0,0,0,0,0,0,0,0,0,-1,930,799,0,0
-287,225,0,0,0,0,0,0,0,0,0,-1,937,799,0,0
-280,225,0,0,0,0,0,0,0,0,0,-1,944,799,0,0
-273,225,0,0,0,0,0,0,0,0,0,-1,951,799,0,0
-266,225,0,0,0,0,0,0,0,0,0,-1,958,799,0,0
-259,225,0,0,0,0,0,0,0,0,0,-1,965,799,0,0
-252,225,0,0,0,0,0,0,0,0,0,-1,972,799,0,0
-245,225,0,0,0,0,0,0,0,0,0,-1,979,799,0,0
-238,225,0,0,0,0,0,0,0,0,0,-1,986,799,0,0
-231,225,0,0,0,0,0,0,0,0,0,-1,993,799,0,0
-224,225,0,0,0,0,0,0,0,0,0,-1,1000,799,0,0
-217,225,0,0,0,0,0,0,0,0,0,-1,1007,799,0,0
-210,225,0,0,0,0,0,0,0,0,0,-1,1014,799,0,0
-203,225,0,0,0,0,0,0,0,0,0,-1,1021,799,0,0
-196,225,0,0,0,0,0,0,0,0,0,-1,1028,799,0,0
-189,225,0,0,0,0,0,0,0,0,0,-1,1035,799,0,0
-182,225,0,0,0,0,0,0,0,0,0,-1,1042,799,0,0
-175,225,0,0,0,0,0,0,0,0,0,-1,1049,799,0,0
-168,225,0,0,0,0,0,0,0,0,0,-1,1056,799,0,0
-161,225,0,0,0,0,0,0,0,0,0,-1,1063,799,0,0
-154,225,0,0,0,0,0,0,0,0,0,-1,1070,799,0,0
-147,225,0,0,0,0,0,0,0,0,0,-1,1077,799,0,0
-140,225,0,0,0,0,0,0,0,0,0,-1,1084,799,0,0
-133,225,0,0,0,0,0,0,0,0,0,-1,1091,799,0,0
-126,225,0,0,0,0,0,0,0,0,0,-1,1098,799,0,0
-119,225,0,0,0,0,0,0,0,0,0,-1,1105,799,0,0
-112,225,0,0,0,0,0,0,0,0,0,-1,1112,799,0,0
-105,225,0,0,0,0,0,0,0,0,0,-1,1119,799,0,0
-98,225,0,0,0,0,0,0,0,0,0,-1,1126,799,0,0
-91,225,0,0,0,0,0,0,0,0,0,-1,1133,799,0,0
-84,225,0,0,0,0,0,0,0,0,0,-1,1140,799,0,0
-77,225,0,0,0,0,0,0,0,0,0,-1,1147,799,0,0
-70,225,0,0,0,0,0,0,0,0,0,-1,1154,799,0,0
-63,225,0,0,0,0,0,0,0,0,0,-1,1161,799,0,0
-56,225,0,0,0,0,0,0,0,0,0,-1,1168,799,0,0
-49,225,0,0,0,0,0,0,0,0,0,-1,1175,799,0,0
-42,225,0,0,0,0,0,0,0,0,0,-1,1182,799,0,0
-35,225,0,0,0,0,0,0,0,0,0,-1,1189,799,0,0
-28,225,0,0,0,0,0,0,0,0,0,-1,1196,799,0,0
-21,225,0,0,0,0,0,0,0,0,0,-1,1203,799,0,0
-14,225,0,0,0,0,0,0,0,0,0,-1,1210,799,0,0
-7,225,0,0,0,0,0,0,0,0,0,-1,1217,799,0,0
0,225,0,0,0,0,0,0,0,0,0,-1,1224,799,0,0
7,225,0,0,0,0,0,0,0,0,0,-1,1231,799,0,0
14,225,0,0,0,0,0,0,0,0,0,-1,1238,799,0,0
21,225,0,0,0,0,0,0,0,0,0,-1,1245,799,0,0
28,225,0,0,0,0,0,0,0,0,0,-1,1252,799,0,0
35,225,0,0,0,0,0,0,0,0,0,-1,1259,799,0,0
42,225,0,0,0,0,0,0,0,0,0,-1,1266,799,0,0
49,225,0,0,0,0,0,0,0,0,0,-1,1273,799,0,0
56,225,0,0,0,0,0,0,0,0,0,-1,1280,799,0,0
63,225,0,0,0,0,0,0,0,0,0,-1,1287,799,0,0
70,225,0,0,0,0,0,0,0,0,0,-1,1294,799,0,0
77,225,0,0,0,0,0,0,0,0,0,-1,1301,799,0,0
84,225,0,0,0,0,0,0,0,0,0,-1,1308,799,0,0
91,225,0,0,0,0,0,0,0,0,0,-1,1315,799,0,0
98,225,0,0,0,0,0,0,0,0,0,-1,1322,799,0,0
105,225,0,0,0,0,0,0,0,0,0,-1,1329,799,0,0
112,225,0,0,0,0,0,0,0,0,0,-1,1336,799,0,0
119,225,0,0,0,0,0,0,0,0,0,-1,1343,799,0,0
126,225,0,0,0,0,0,0,0,0,0,-1,1350,799,0,0
133,225,0,0,0,0,0,0,0,0,0,-1,1357,799,0,0
140,225,0,0,0,0,0,0,0,0,0,-1,1364,799,0,0
147,225,0,0,0,0,0,0,0,0,0,-1,1371,799,0,0
154,225,0,0,0,0,0,0,0,0,0,-1,1378,799,0,0
161,225,0,0,0,0,0,0,0,0,0,-1,1385,799,0,0
168,225,0,0,0,0,0,0,0,0,0,-1,1392,799,0,0
175,225,0,0,0,0,0,0,0,0,0,-1,1399,799,0,0
182,225,0,0,0,0,0,0,0,0,0,-1,1406,799,0,0
189,225,0,0,0,0,0,0,0,0,0,-1,1413,799,0,0
196,225,0,0,0,0,0,0,0,0,0,-1,1420,799,0,0
203,225,0,0,0,0,0,0,0,0,0,-1,1427,799,0,0
210,225,0,0,0,0,0,0,0,0,0,-1,1434,799,0,0
217,225,0,0,0,0,0,0,0,0,0,-1,1441,799,0,0
224,225,0,0,0,0,0,0,0,0,0,-1,1448,799,0,0
231,225,0,0,0,0,0,0,0,0,0,-1,1455,799,0,0
238,225,0,0,0,0,0,0,0,0,0,-1,1462,799,0,0
245,225,0,0,0,0,0,0,0,0,0,-1,1469,799,0,0
252,225,0,0,0,0,0,0,0,0,0,-1,1476,799,0,0
259,225,0,0,0,0,0,0,0,0,0,-1,1483,799,0,0
266,225,0,0,0,0,0,0,0,0,0,-1,1490,799,0,0
273,225,0,0,0,0,0,0,0,0,0,-1,1497,799,0,0
280,225,0,0,0,0,0,0,0,0,0,-1,1504,799,0,0
287,225,0,0,0,0,0,0,0,0,0,-1,1511,799,0,0
294,225,0,0,0,0,0,0,0,0,0,-1,1518,799,0,0
301,225,0,0,0,0,0,0,0,0,0,-1,1525,799,0,0
308,225,0,0,0,0,0,0,0,0,0,-1,1532,799,0,0
315,225,0,0,0,0,0,0,0,0,0,-1,1539,799,0,0
322,225,0,0,0,0,0,0,0,0,0,-1,1546,799,0,0
329,225,0,0,0,0,0,0,0,0,0,-1,1553,799,0,0
336,225,0,0,0,0,0,0,0,0,0,-1,1560,799,0,0
343,225,0,0,0,0,0,0,0,0,0,-1,1567,799,0,0
350,225,0,0,0,0,0,0,0,0,0,-1,1574,799,0,0
357,225,0,0,0,0,0,0,0,0,0,-1,1581,799,0,0
364,225,0,0,0,0,0,0,0,0,0,-1,1588,799,0,0
371,225,0,0,0,0,0,0,0,0,0,-1,1595,799,0,0
378,225,0,0,0,0,0,0,0,0,0,-1,1602,799,0,0
385,225,0,0,0,0,0,0,0,0,0,-1,1609,799,0,0
392,225,0,0,0,0,0,0,0,0,0,-1,1616,799,0,0
399,225,0,0,0,0,0,0,0,0,0,-1,1623,799,0,0
406,225,0,0,0,0,0,0,0,0,0,-1,1630,799,0,0
413,225,0,0,0,0,0,0,0,0,0,-1,1637,799,0,0
420,225,0,0,0,0,0,0,0,0,0,-1,1644,799,0,0
427,225,0,0,0,0,0,0,0,0,0,-1,1651,799,0,0
434,225,0,0,0,0,0,0,0,0,0,-1,1658,799,0,0
441,225,0,0,0,0,0,0,0,0,0,-1,1665,799,0,0
448,225,0,0,0,0,0,0,0,0,0,-1,1672,799,0,0
455,225,0,0,0,0,0,0,0,0,0,-1,1679,799,0,0
462,225,0,0,0,0,0,0,0,0,0,-1,1686,799,0,0
469,225,0,0,0,0,0,0,0,0,0,-1,1693,799,0,0
476,225,0,0,0,0,0,0,0,0,0,-1,1700,799,0,0
483,225,0,0,0,0,0,0,0,0,0,-1,1707,799,0,0
490,225,0,0,0,0,0,0,0,0,0,-1,1714,799,0,0
497,225,0,0,0,0,0,0,0,0,0,-1,1721,799,0,0
504,225,0,0,0,0,0,0,0,0,0,-1,1728,799,0,0
511,225,0,0,0,0,0,0,0,0,0,-1,1735,799,0,0
518,225,0,0,0,0,0,0,0,0,0,-1,1742,799,0,0
525,225,0,0,0,0,0,0,0,0,0,-1,1749,799,0,0
532,225,0,0,0,0,0,0,0,0,0,-1,1756,799,0,0
539,225,0,0,0,0,0,0,0,0,0,-1,1763,799,0,0
546,225,0,0,0,0,0,0,0,0,0,-1,1770,799,0,0
553,225,0,0,0,0,0,0,0,0,0,-1,1777,799,0,0
560,225,0,0,0,0,0,0,0,0,0,-1,1784,799,0,0
567,225,0,0,0,0,0,0,0,0,0,-1,1791,799,0,0
574,225,0,0,0,0,0,0,0,0,0,-1,1798,799,0,0
581,225,0,0,0,0,0,0,0,0,0,-1,1805,799,0,0
588,225,80.7362,2.26385,0.0103762,-0.00659954,0.00266137,0.0107837,-0.00700699,0.15192,0.0103483,0.0372805,1812,799,80.7362,-2.26384
595,225,80.76,2.21301,0.00904845,-0.00628412,0.00258508,0.00947257,-0.00670824,0.162614,0.00938733,0.035536,1819,799,80.76,-2.21301
602,225,80.8276,2.2251,0.00759081,-0.00520984,0.00246901,0.00805053,-0.00566956,0.184086,0.00796096,0.0338522,1826,799,80.8276,-2.22508
609,225,80.9044,2.22534,0.00578602,-0.00394594,0.00189718,0.00614278,-0.0043027,0.185879,0.00606181,0.0337606,1833,799,80.9045,-2.22536
616,225,80.8574,2.20679,0.00454795,-0.0024948,0.00133672,0.00479313,-0.00273997,0.1814,0.00440276,0.0390453,1840,799,80.8575,-2.2068
623,225,80.8452,2.17542,0,0,0,0,0,0,0,-1,1847,799,80.8453,-2.17543
630,225,75.2485,2.28778,0,0,0,0,0,0,0,-1,1854,799,75.2485,-2.28778
637,225,55.6359,2.8064,0,0,0,0,0,0,0,-1,1861,799,55.6359,-2.80637
644,225,42.0298,2.46411,0,0,0,0,0,0,0,-1,1868,799,42.0298,-2.4641
651,225,27.9657,0.579529,0,0,0,0,0,0,0,-1,1875,799,27.9657,-0.579541
658,225,47.9047,-1.92926,0,0,0,0,0,0,0,-1,1882,799,47.9047,1.92927
665,225,47.541,-2.27985,0,0,0,0,0,0,0,-1,1889,799,47.5411,2.27983
672,225,58.5657,-3.16022,0,0,0,0,0,0,0,-1,1896,799,58.5656,3.16022
679,225,58.9739,-1.86755,0,0,0,0,0,0,0,-1,1903,799,58.9739,1.86753
686,225,58.955,-0.908813,0.000791174,0.000262404,0.000271431,0.000905701,0.000147877,0.399274,0.000561043,0.0141282,1910,799,58.9549,0.908795
693,225,58.915,0.0155029,0.000992654,0.000435608,0.000236276,0.00107937,0.00034889,0.351758,0.000636025,0.0110498,1917,799,58.9151,-0.0155169
700,225,58.863,0.969788,0.00162403,0.00103575,0.000514647,0.00192266,0.000737119,0.525787,0.00112007,0.0131142,1924,799,58.8631,-0.969814
707,225,58.7944,1.94794,0.00246509,0.001759,0.00123259,0.0033942,0.000829884,0.645921,0.00204315,0.0124865,1931,799,58.7945,-1.94795
714,225,58.7415,2.93213,0.00349517,0.00255655,0.00223556,0.00531015,0.000741574,0.681936,0.00332063,0.0132677,1938,799,58.7415,-2.9321
721,225,58.7157,3.91351,0.0047757,0.00337829,0.00357052,0.00771524,0.000438754,0.688775,0.00500366,0.0163244,1945,799,58.7157,-3.91351
728,225,58.6525,4.65509,0,0,0,0,0,0,0,-1,1952,799,58.6524,-4.65511
735,225,58.1963,5.76843,0,0,0,0,0,0,0,-1,1959,799,58.1963,-5.76842
742,225,55.3708,6.5321,0,0,0,0,0,0,0,-1,1966,799,55.3709,-6.53213
749,225,29.9529,4.45538,0,0,0,0,0,0,0,-1,1973,799,29.9529,-4.45537
756,225,42.6417,11.3672,0,0,0,0,0,0,0,-1,1980,799,42.6417,-11.3672
763,225,40.6626,12.6185,0,0,0,0,0,0,0,-1,1987,799,40.6625,-12.6184
770,225,0,0,0,0,0,0,0,0,0,-1,1994,799,0,0
777,225,0,0,0,0,0,0,0,0,0,-1,2001,799,0,0
784,225,0,0,0,0,0,0,0,0,0,-1,2008,799,0,0
791,225,0,0,0,0,0,0,0,0,0,-1,2015,799,0,0
798,225,0,0,0,0,0,0,0,0,0,-1,2022,799,0,0
805,225,0,0,0,0,0,0,0,0,0,-1,2029,799,0,0
812,225,0,0,0,0,0,0,0,0,0,-1,2036,799,0,0
-700,218,0,0,0,0,0,0,0,0,0,-1,524,806,0,0
-693,218,0,0,0,0,0,0,0,0,0,-1,531,806,0,0
-686,218,0,0,0,0,0,0,0,0,0,-1,538,806,0,0
-679,218,0,0,0,0,0,0,0,0,0,-1,545,806,0,0
-672,218,0,0,0,0,0,0,0,0,0,-1,552,806,0,0
-665,218,0,0,0,0,0,0,0,0,0,-1,559,806,0,0
-658,218,0,0,0,0,0,0,0,0,0,-1,566,806,0,0
-651,218,-40.3778,5.1792,0,0,0,0,0,0,0,-1,573,806,-40.3778,-5.1792
-644,218,-40.7704,4.19714,0,0,0,0,0,0,0,-1,580,806,-40.7704,-4.19714
-637,218,-41.541,3.36328,0,0,0,0,0,0,0,-1,587,806,-41.541,-3.36326
-630,218,-42.1423,2.85565,0,0,0,0,0,0,0,-1,594,806,-42.1423,-2.85567
-623,218,-42.7292,2.59015,0,0,0,0,0,0,0,-1,601,806,-42.7292,-2.59015
-616,218,-20.0258,1.87585,0,0,0,0,0,0,0,-1,608,806,-20.0258,-1.87585
-609,218,-42.8502,5.99542,0,0,0,0,0,0,0,-1,615,806,-42.8502,-5.99543
-602,218,-42.9559,5.00635,-0.00455487,0.00973481,0.000555507,0.00975638,-0.00457643,1.532,0.00845327,0.0434286,622,806,-42.9559,-5.00632
-595,218,-43.0628,4.07043,-0.00272805,0.00730011,-0.000115187,0.00730143,-0.00272938,-1.55931,0.00598846,0.0188125,629,806,-43.0628,-4.07045
-588,218,-43.1195,3.09894,-0.0012369,0.00561391,-0.000108669,0.00561564,-0.00123863,-1.55494,0.0042177,0.0124129,636,806,-43.1195,-3.09896
-581,218,-43.1513,2.15546,-0.000127533,0.00443557,0.000252033,0.00444945,-0.000141411,1.51579,0.00301454,0.0120394,643,806,-43.1513,-2.15545
-574,218,-43.2025,1.20593,0.000639648,0.00359647,0.000740624,0.0037716,0.000464511,1.33859,0.00237476,0.0112462,650,806,-43.2025,-1.20595
-567,218,-43.254,0.205627,0.00087894,0.00305221,0.00121959,0.00359903,0.00033212,1.1493,0.00229666,0.0186246,657,806,-43.254,-0.205619
-560,218,-43.3287,-0.728149,0.000294844,0.00329965,0.0019637,0.00426976,-0.000675267,1.11194,0.00309624,0.0192454,664,806,-43.3287,0.728122
-553,218,-43.2753,-1.93579,-0.00096608,0.00359021,0.0025298,0.00471645,-0.00209232,1.15195,0.00402718,0.0236022,671,806,-43.2753,1.93581
-546,218,-43.5135,-2.96094,-0.00220507,0.00403029,0.00255214,0.00494167,-0.00311645,1.22781,0.00469198,0.0319446,678,806,-43.5135,2.96093
-539,218,-43.692,-3.74573,-0.00267477,0.00359788,0.00206441,0.00421633,-0.00329322,1.27973,0.00434654,0.0343923,685,806,-43.692,3.74572
-532,218,-43.6209,-4.46069,0,0,0,0,0,0,0,-1,692,806,-43.6209,4.46069
-525,218,-29.3521,-3.64417,0,0,0,0,0,0,0,-1,699,806,-29.3521,3.64414
-518,218,-23.61,2.54181,0,0,0,0,0,0,0,-1,706,806,-23.61,-2.54183
-511,218,-41.0953,1.06879,0,0,0,0,0,0,0,-1,713,806,-41.0953,-1.06876
-504,218,-59.1388,0.682068,0,0,0,0,0,0,0,-1,720,806,-59.1388,-0.682072
-497,218,-63.8165,0.74408,0,0,0,0,0,0,0,-1,727,806,-63.8164,-0.744085
-490,218,-64.1643,0.414368,-0.00135323,-0.00171766,0.000995081,-0.000523815,-0.00254707,0.694844,0.00155317,0.036589,734,806,-64.1643,-0.414339
-483,218,-64.2427,0.457153,0.00119825,-0.00366394,0.000978177,0.00138766,-0.00385335,0.19127,0.00313553,0.0326992,741,806,-64.2427,-0.457152
-476,218,-64.2003,0.691528,0.0055406,-0.00599504,0.00138605,0.0057048,-0.00615925,0.117918,0.00685138,0.0369684,748,806,-64.2003,-0.691517
-469,218,0,0,0,0,0,0,0,0,0,-1,755,806,0,0
-462,218,0,0,0,0,0,0,0,0,0,-1,762,806,0,0
-455,218,0,0,0,0,0,0,0,0,0,-1,769,806,0,0
-448,218,0,0,0,0,0,0,0,0,0,-1,776,806,0,0
-441,218,0,0,0,0,0,0,0,0,0,-1,783,806,0,0
-434,218,0,0,0,0,0,0,0,0,0,-1,790,806,0,0
-427,218,0,0,0,0,0,0,0,0,0,-1,797,806,0,0
-420,218,0,0,0,0,0,0,0,0,0,-1,804,806,0,0
-413,218,0,0,0,0,0,0,0,0,0,-1,811,806,0,0
-406,218,0,0,0,0,0,0,0,0,0,-1,818,806,0,0
-399,218,0,0,0,0,0,0,0,0,0,-1,825,806,0,0
-392,218,0,0,0,0,0,0,0,0,0,-1,832,806,0,0
-385,218,0,0,0,0,0,0,0,0,0,-1,839,806,0,0
-378,218,0,0,0,0,0,0,0,0,0,-1,846,806,0,0
-371,218,0,0,0,0,0,0,0,0,0,-1,853,806,0,0
-364,218,0,0,0,0,0,0,0,0,0,-1,860,806,0,0
-357,218,0,0,0,0,0,0,0,0,0,-1,867,806,0,0
-350,218,0,0,0,0,0,0,0,0,0,-1,874,806,0,0
-343,218,0,0,0,0,0,0,0,0,0,-1,881,806,0,0
-336,218,0,0,0,0,0,0,0,0,0,-1,888,806,0,0
-329,218,0,0,0,0,0,0,0,0,0,-1,895,806,0,0
-322,218,0,0,0,0,0,0,0,0,0,-1,902,806,0,0
-315,218,0,0,0,0,0,0,0,0,0,-1,909,806,0,0
-308,218,0,0,0,0,0,0,0,0,0,-1,916,806,0,0
-301,218,0,0,0,0,0,0,0,0,0,-1,923,806,0,0
-294,218,0,0,0,0,0,0,0,0,0,-1,930,806,0,0
-287,218,0,0,0,0,0,0,0,0,0,-1,937,806,0,0
-280,218,0,0,0,0,0,0,0,0,0,-1,944,806,0,0
-273,218,0,0,0,0,0,0,0,0,0,-1,951,806,0,0
-266,218,0,0,0,0,0,0,0,0,0,-1,958,806,0,0
-259,218,0,0,0,0,0,0,0,0,0,-1,965,806,0,0
-252,218,0,0,0,0,0,0,0,0,0,-1,972,806,0,0
-245,218,0,0,0,0,0,0,0,0,0,-1,979,806,0,0
-238,218,0,0,0,0,0,0,0,0,0,-1,986,806,0,0
-231,218,0,0,0,0,0,0,0,0,0,-1,993,806,0,0
-224,218,0,0,0,0,0,0,0,0,0,-1,1000,806,0,0
-217,218,0,0,0,0,0,0,0,0,0,-1,1007,806,0,0
-210,218,0,0,0,0,0,0,0,0,0,-1,1014,806,0,0
-203,218,0,0,0,0,0,0,0,0,0,-1,1021,806,0,0
-196,218,0,0,0,0,0,0,0,0,0,-1,1028,806,0,0
-189,218,0,0,0,0,0,0,0,0,0,-1,1035,806,0,0
-182,218,0,0,0,0,0,0,0,0,0,-1,1042,806,0,0
-175,218,0,0,0,0,0,0,0,0,0,-1,1049,806,0,0
-168,218,0,0,0,0,0,0,0,0,0,-1,1056,806,0,0
-161,218,0,0,0,0,0,0,0,0,0,-1,1063,806,0,0
-154,218,0,0,0,0,0,0,0,0,0,-1,1070,806,0,0
-147,218,0,0,0,0,0,0,0,0,0,-1,1077,806,0,0
-140,218,0,0,0,0,0,0,0,0,0,-1,1084,806,0,0
-133,218,0,0,0,0,0,0,0,0,0,-1,1091,806,0,0
-126,218,0,0,0,0,0,0,0,0,0,-1,1098,806,0,0
-119,218,0,0,0,0,0,0,0,0,0,-1,1105,806,0,0
-112,218,0,0,0,0,0,0,0,0,0,-1,1112,806,0,0
-105,218,0,0,0,0,0,0,0,0,0,-1,1119,806,0,0
-98,218,0,0,0,0,0,0,0,0,0,-1,1126,806,0,0
-91,218,0,0,0,0,0,0,0,0,0,-1,1133,806,0,0
-84,218,0,0,0,0,0,0,0,0,0,-1,1140,806,0,0
-77,218,0,0,0,0,0,0,0,0,0,-1,1147,806,0,0
-70,218,0,0,0,0,0,0,0,0,0,-1,1154,806,0,0
-63,218,0,0,0,0,0,0,0,0,0,-1,1161,806,0,0
-56,218,0,0,0,0,0,0,0,0,0,-1,1168,806,0,0
-49,218,0,0,0,0,0,0,0,0,0,-1,1175,806,0,0
-42,218,0,0,0,0,0,0,0,0,0,-1,1182,806,0,0
-35,218,0,0,0,0,0,0,0,0,0,-1,1189,806,0,0
-28,218,0,0,0,0,0,0,0,0,0,-1,1196,806,0,0
-21,218,0,0,0,0,0,0,0,0,0,-1,1203,806,0,0
-14,218,0,0,0,0,0,0,0,0,0,-1,1210,806,0,0
-7,218,0,0,0,0,0,0,0,0,0,-1,1217,806,0,0
0,218,0,0,0,0,0,0,0,0,0,-1,1224,806,0,0
7,218,0,0,0,0,0,0,0,0,0,-1,1231,806,0,0
14,218,0,0,0,0,0,0,0,0,0,-1,1238,806,0,0
21,218,0,0,0,0,0,0,0,0,0,-1,1245,806,0,0
28,218,0,0,0,0,0,0,0,0,0,-1,1252,806,0,0
35,218,0,0,0,0,0,0,0,0,0,-1,1259,806,0,0
42,218,0,0,0,0,0,0,0,0,0,-1,1266,806,0,0
49,218,0,0,0,0,0,0,0,0,0,-1,1273,806,0,0
56,218,0,0,0,0,0,0,0,0,0,-1,1280,806,0,0
63,218,0,0,0,0,0,0,0,0,0,-1,1287,806,0,0
70,218,0,0,0,0,0,0,0,0,0,-1,1294,806,0,0
77,218,0,0,0,0,0,0,0,0,0,-1,1301,806,0,0
84,218,0,0,0,0,0,0,0,0,0,-1,1308,806,0,0
91,218,0,0,0,0,0,0,0,0,0,-1,1315,806,0,0
98,218,0,0,0,0,0,0,0,0,0,-1,1322,806,0,0
105,218,0,0,0,0,0,0,0,0,0,-1,1329,806,0,0
112,218,0,0,0,0,0,0,0,0,0,-1,1336,806,0,0
119,218,0,0,0,0,0,0,0,0,0,-1,1343,806,0,0
126,218,0,0,0,0,0,0,0,0,0,-1,1350,806,0,0
133,218,0,0,0,0,0,0,0,0,0,-1,1357,806,0,0
140,218,0,0,0,0,0,0,0,0,0,-1,1364,806,0,0
147,218,0,0,0,0,0,0,0,0,0,-1,1371,806,0,0
154,218,0,0,0,0,0,0,0,0,0,-1,1378,806,0,0
161,218,0,0,0,0,0,0,0,0,0,-1,1385,806,0,0
168,218,0,0,0,0,0,0,0,0,0,-1,1392,806,0,0
175,218,0,0,0,0,0,0,0,0,0,-1,1399,806,0,0
182,218,0,0,0,0,0,0,0,0,0,-1,1406,806,0,0
189,218,0,0,0,0,0,0,0,0,0,-1,1413,806,0,0
196,218,0,0,0,0,0,0,0,0,0,-1,1420,806,0,0
203,218,0,0,0,0,0,0,0,0,0,-1,1427,806,0,0
210,218,0,0,0,0,0,0,0,0,0,-1,1434,806,0,0
217,218,0,0,0,0,0,0,0,0,0,-1,1441,806,0,0
224,218,0,0,0,0,0,0,0,0,0,-1,1448,806,0,0
231,218,0,0,0,0,0,0,0,0,0,-1,1455,806,0,0
238,218,0,0,0,0,0,0,0,0,0,-1,1462,806,0,0
245,218,0,0,0,0,0,0,0,0,0,-1,1469,806,0,0
252,218,0,0,0,0,0,0,0,0,0,-1,1476,806,0,0
259,218,0,0,0,0,0,0,0,0,0,-1,1483,806,0,0
266,218,0,0,0,0,0,0,0,0,0,-1,1490,806,0,0
273,218,0,0,0,0,0,0,0,0,0,-1,1497,806,0,0
280,218,0,0,0,0,0,0,0,0,0,-1,1504,806,0,0
287,218,0,0,0,0,0,0,0,0,0,-1,1511,806,0,0
294,218,0,0,0,0,0,0,0,0,0,-1,1518,806,0,0
301,218,0,0,0,0,0,0,0,0,0,-1,1525,806,0,0
308,218,0,0,0,0,0,0,0,0,0,-1,1532,806,0,0
315,218,0,0,0,0,0,0,0,0,0,-1,1539,806,0,0
322,218,0,0,0,0,0,0,0,0,0,-1,1546,806,0,0
329,218,0,0,0,0,0,0,0,0,0,-1,1553,806,0,0
336,218,0,0,0,0,0,0,0,0,0,-1,1560,806,0,0
343,218,0,0,0,0,0,0,0,0,0,-1,1567,806,0,0
350,218,0,0,0,0,0,0,0,0,0,-1,1574,806,0,0
357,218,0,0,0,0,0,0,0,0,0,-1,1581,806,0,0
364,218,0,0,0,0,0,0,0,0,0,-1,1588,806,0,0
371,218,0,0,0,0,0,0,0,0,0,-1,1595,806,0,0
378,218,0,0,0,0,0,0,0,0,0,-1,1602,806,0,0
385,218,0,0,0,0,0,0,0,0,0,-1,1609,806,0,0
392,218,0,0,0,0,0,0,0,0,0,-1,1616,806,0,0
399,218,0,0,0,0,0,0,0,0,0,-1,1623,806,0,0
406,218,0,0,0,0,0,0,0,0,0,-1,1630,806,0,0
413,218,0,0,0,0,0,0,0,0,0,-1,1637,806,0,0
420,218,0,0,0,0,0,0,0,0,0,-1,1644,806,0,0
427,218,0,0,0,0,0,0,0,0,0,-1,1651,806,0,0
434,218,0,0,0,0,0,0,0,0,0,-1,1658,806,0,0
441,218,0,0,0,0,0,0,0,0,0,-1,1665,806,0,0
448,218,0,0,0,0,0,0,0,0,0,-1,1672,806,0,0
455,218,0,0,0,0,0,0,0,0,0,-1,1679,806,0,0
462,218,0,0,0,0,0,0,0,0,0,-1,1686,806,0,0
469,218,0,0,0,0,0,0,0,0,0,-1,1693,806,0,0
476,218,0,0,0,0,0,0,0,0,0,-1,1700,806,0,0
483,218,0,0,0,0,0,0,0,0,0,-1,1707,806,0,0
490,218,0,0,0,0,0,0,0,0,0,-1,1714,806,0,0
497,218,0,0,0,0,0,0,0,0,0,-1,1721,806,0,0
504,218,0,0,0,0,0,0,0,0,0,-1,1728,806,0,0
511,218,0,0,0,0,0,0,0,0,0,-1,1735,806,0,0
518,218,0,0,0,0,0,0,0,0,0,-1,1742,806,0,0
525,218,0,0,0,0,0,0,0,0,0,-1,1749,806,0,0
532,218,0,0,0,0,0,0,0,0,0,-1,1756,806,0,0
539,218,0,0,0,0,0,0,0,0,0,-1,1763,806,0,0
546,218,0,0,0,0,0,0,0,0,0,-1,1770,806,0,0
553,218,0,0,0,0,0,0,0,0,0,-1,1777,806,0,0
560,218,0,0,0,0,0,0,0,0,0,-1,1784,806,0,0
567,218,0,0,0,0,0,0,0,0,0,-1,1791,806,0,0
574,218,0,0,0,0,0,0,0,0,0,-1,1798,806,0,0
581,218,0,0,0,0,0,0,0,0,0,-1,1805,806,0,0
588,218,0,0,0,0,0,0,0,0,0,-1,1812,806,0,0
595,218,80.6996,2.35364,0.00983371,-0.00364154,0.00115927,0.00993272,-0.00374054,0.0851955,0.00815964,0.0384633,1819,806,80.6995,-2.35363
602,218,80.7931,2.33588,0.00786149,-0.00349482,0.00141342,0.00803476,-0.00366809,0.121982,0.00691165,0.0349003,1826,806,80.7931,-2.3359
609,218,80.8915,2.30359,0.00567181,-0.00294662,0.00128132,0.00585827,-0.00313308,0.14451,0.00527004,0.0306073,1833,806,80.8915,-2.30358
616,218,80.8989,2.25104,0.00415521,-0.00197383,0.00100947,0.00431719,-0.00213581,0.159105,0.00379593,0.0307623,1840,806,80.899,-2.25103
623,218,80.8794,2.19226,0.00318827,-0.00117054,0.000714684,0.00330246,-0.00128473,0.158438,0.00273248,0.0374988,1847,806,80.8793,-2.19229
630,218,80.9181,2.10706,0,0,0,0,0,0,0,-1,1854,806,80.9181,-2.10707
637,218,75.0532,2.44513,0,0,0,0,0,0,0,-1,1861,806,75.0532,-2.44515
644,218,52.4042,2.47949,0,0,0,0,0,0,0,-1,1868,806,52.4041,-2.47949
651,218,41.7338,1.99164,0,0,0,0,0,0,0,-1,1875,806,41.7338,-1.99162
658,218,28.41,0.514954,0,0,0,0,0,0,0,-1,1882,806,28.41,-0.514983
665,218,52.1176,-2.84406,0,0,0,0,0,0,0,-1,1889,806,52.1176,2.84404
672,218,52.8506,-2.1853,0,0,0,0,0,0,0,-1,1896,806,52.8506,2.18533
679,218,59.8525,-1.90265,0,0,0,0,0,0,0,-1,1903,806,59.8526,1.90265
686,218,59.9103,-0.877441,0.000319167,0.000148074,0.000429771,0.000671822,-0.000204581,0.687156,0.00052942,0.0303536,1910,806,59.9103,0.877467
693,218,59.9183,0.0857544,0.000467543,0.000218731,0.0001948,0.000574273,0.000112001,0.501227,0.000351514,0.0125604,1917,806,59.9183,-0.085725
700,218,59.845,1.03448,0.00109646,0.000785676,0.000262325,0.00124596,0.000636172,0.518008,0.000719409,0.0106994,1924,806,59.845,-1.03446
707,218,59.7511,1.99414,0.00193215,0.00148116,0.00086988,0.00260529,0.000808025,0.658577,0.00153988,0.00832148,1931,806,59.7511,-1.99414
714,218,59.6835,2.97253,0.00302537,0.00228346,0.00183271,0.00452429,0.000784539,0.685544,0.00279167,0.0101738,1938,806,59.6835,-2.97254
721,218,59.6544,3.93488,0.00435191,0.00307808,0.00309626,0.00687609,0.000553906,0.683961,0.00441103,0.0142902,1945,806,59.6544,-3.93488
728,218,59.6257,4.92358,0.00603403,0.00382394,0.00471963,0.00977626,8.17133e-05,0.6704,0.00649044,0.0303574,1952,806,59.6257,-4.92359
735,218,59.7694,6,0,0,0,0,0,0,0,-1,1959,806,59.7694,-6.00002
742,218,47.8733,6.84155,0,0,0,0,0,0,0,-1,1966,806,47.8733,-6.84158
749,218,42.0249,6.64703,0,0,0,0,0,0,0,-1,1973,806,42.0249,-6.64703
756,218,58.4941,6.8728,0,0,0,0,0,0,0,-1,1980,806,58.4942,-6.87278
763,218,45.4928,8.73566,0,0,0,0,0,0,0,-1,1987,806,45.4928,-8.73564
770,218,0,0,0,0,0,0,0,0,0,-1,1994,806,0,0
777,218,0,0,0,0,0,0,0,0,0,-1,2001,806,0,0
784,218,0,0,0,0,0,0,0,0,0,-1,2008,806,0,0
791,218,0,0,0,0,0,0,0,0,0,-1,2015,806,0,0
798,218,0,0,0,0,0,0,0,0,0,-1,2022,806,0,0
805,218,0,0,0,0,0,0,0,0,0,-1,2029,806,0,0
812,218,0,0,0,0,0,0,0,0,0,-1,2036,806,0,0
-700,211,0,0,0,0,0,0,0,0,0,-1,524,813,0,0
-693,211,0,0,0,0,0,0,0,0,0,-1,531,813,0,0
-686,211,0,0,0,0,0,0,0,0,0,-1,538,813,0,0
-679,211,0,0,0,0,0,0,0,0,0,-1,545,813,0,0
-672,211,0,0,0,0,0,0,0,0,0,-1,552,813,0,0
-665,211,0,0,0,0,0,0,0,0,0,-1,559,813,0,0
-658,211,0,0,0,0,0,0,0,0,0,-1,566,813,0,0
-651,211,-40.2495,5.20386,0,0,0,0,0,0,0,-1,573,813,-40.2494,-5.20384
-644,211,-40.6288,4.32092,0,0,0,0,0,0,0,-1,580,813,-40.6288,-4.3209
-637,211,-41.3664,3.51849,0,0,0,0,0,0,0,-1,587,813,-41.3664,-3.51847
-630,211,-41.9262,2.94977,0,0,0,0,0,0,0,-1,594,813,-41.9262,-2.94975
-623,211,-42.5012,2.62903,0,0,0,0,0,0,0,-1,601,813,-42.5011,-2.629
-616,211,-43.5746,6.98181,0,0,0,0,0,0,0,-1,608,813,-43.5746,-6.9818
-609,211,-43.678,6.03296,-0.00474814,0.0122373,0.00258937,0.0126233,-0.0051341,1.42283,0.0105518,0.0465128,615,813,-43.678,-6.03296
-602,211,-43.8923,5.11877,-0.0033725,0.00923763,0.00149347,0.00941209,-0.00354697,1.45451,0.00773312,0.023483,622,813,-43.8923,-5.11875
-595,211,-44.0311,4.16168,-0.00186791,0.00705372,0.00067689,0.00710479,-0.00191897,1.4955,0.00548916,0.0120175,629,813,-44.0311,-4.16168
-588,211,-44.0966,3.18268,-0.000518153,0.00548669,0.000557324,0.00553798,-0.000569442,1.47903,0.0038957,0.0126952,636,813,-44.0966,-3.18268
-581,211,-44.1472,2.2179,0.000619049,0.00438718,0.00083772,0.00456503,0.000441204,1.36161,0.00290747,0.0127812,643,813,-44.1472,-2.21792
-574,211,-44.1831,1.24719,0.00141382,0.00362824,0.00126649,0.00420327,0.000838797,1.1446,0.00256864,0.0140065,650,813,-44.1831,-1.2472
-567,211,-44.2953,0.281921,0.00153573,0.00301392,0.0015336,0.00397724,0.000572417,1.00994,0.00248278,0.0215227,657,813,-44.2953,-0.281945
-560,211,-44.3649,-0.74176,0.000569195,0.00338175,0.00204195,0.00445482,-0.000503873,1.08695,0.00315129,0.0434274,664,813,-44.365,0.741738
-553,211,-44.7262,-2.09241,0,0,0,0,0,0,0,-1,671,813,-44.7262,2.09238
-546,211,-44.6537,-2.8548,-0.00189706,0.00424434,0.00227251,0.00499379,-0.00264651,1.25224,0.00447998,0.0475524,678,813,-44.6537,2.85477
-539,211,-44.638,-3.66107,-0.0021932,0.00384898,0.00179592,0.00434248,-0.0026867,1.30263,0.00409565,0.0300226,685,813,-44.638,3.66106
-532,211,-44.6201,-4.41241,0,0,0,0,0,0,0,-1,692,813,-44.62,4.41243
-525,211,-14.3009,2.3233,0,0,0,0,0,0,0,-1,699,813,-14.3009,-2.3233
-518,211,-34.952,1.93011,0,0,0,0,0,0,0,-1,706,813,-34.952,-1.9301
-511,211,-53.0876,0.677734,0,0,0,0,0,0,0,-1,713,813,-53.0876,-0.677737
-504,211,-63.7482,0.934204,0,0,0,0,0,0,0,-1,720,813,-63.7482,-0.93422
-497,211,-63.9512,0.702881,-0.00276585,0.000987636,0.00120994,0.00134386,-0.00312207,1.28448,0.00264566,0.047162,727,813,-63.9512,-0.702872
-490,211,-64.1708,0.504028,-0.00120345,-0.000198664,0.000734921,0.000189171,-0.00159129,1.08522,0.00112921,0.0362437,734,813,-64.1708,-0.504021
-483,211,-64.2002,0.506409,0.00282463,-0.0018652,0.000586595,0.00289689,-0.00193746,0.122563,0.00280938,0.0325062,741,813,-64.2002,-0.506397
-476,211,-64.1815,0.538452,0.00993819,-0.00369535,0.000773148,0.0099819,-0.00373906,0.0564679,0.00819056,0.0366086,748,813,-64.1814,-0.538471
-469,211,0,0,0,0,0,0,0,0,0,-1,755,813,0,0
-462,211,0,0,0,0,0,0,0,0,0,-1,762,813,0,0
-455,211,0,0,0,0,0,0,0,0,0,-1,769,813,0,0
-448,211,0,0,0,0,0,0,0,0,0,-1,776,813,0,0
-441,211,0,0,0,0,0,0,0,0,0,-1,783,813,0,0
-434,211,0,0,0,0,0,0,0,0,0,-1,790,813,0,0
-427,211,0,0,0,0,0,0,0,0,0,-1,797,813,0,0
-420,211,0,0,0,0,0,0,0,0,0,-1,804,813,0,0
-413,211,0,0,0,0,0,0,0,0,0,-1,811,813,0,0
-406,211,0,0,0,0,0,0,0,0,0,-1,818,813,0,0
-399,211,0,0,0,0,0,0,0,0,0,-1,825,813,0,0
-392,211,0,0,0,0,0,0,0,0,0,-1,832,813,0,0
-385,211,0,0,0,0,0,0,0,0,0,-1,839,813,0,0
-378,211,0,0,0,0,0,0,0,0,0,-1,846,813,0,0
-371,211,0,0,0,0,0,0,0,0,0,-1,853,813,0,0
-364,211,0,0,0,0,0,0,0,0,0,-1,860,813,0,0
-357,211,0,0,0,0,0,0,0,0,0,-1,867,813,0,0
-350,211,0,0,0,0,0,0,0,0,0,-1,874,813,0,0
-343,211,0,0,0,0,0,0,0,0,0,-1,881,813,0,0
-336,211,0,0,0,0,0,0,0,0,0,-1,888,813,0,0
-329,211,0,0,0,0,0,0,0,0,0,-1,895,813,0,0
-322,211,0,0,0,0,0,0,0,0,0,-1,902,813,0,0
-315,211,0,0,0,0,0,0,0,0,0,-1,909,813,0,0
-308,211,0,0,0,0,0,0,0,0,0,-1,916,813,0,0
-301,211,0,0,0,0,0,0,0,0,0,-1,923,813,0,0
-294,211,0,0,0,0,0,0,0,0,0,-1,930,813,0,0
-287,211,0,0,0,0,0,0,0,0,0,-1,937,813,0,0
-280,211,0,0,0,0,0,0,0,0,0,-1,944,813,0,0
-273,211,0,0,0,0,0,0,0,0,0,-1,951,813,0,0
-266,211,0,0,0,0,0,0,0,0,0,-1,958,813,0,0
-259,211,0,0,0,0,0,0,0,0,0,-1,965,813,0,0
-252,211,0,0,0,0,0,0,0,0,0,-1,972,813,0,0
-245,211,0,0,0,0,0,0,0,0,0,-1,979,813,0,0
-238,211,0,0,0,0,0,0,0,0,0,-1,986,813,0,0
-231,211,0,0,0,0,0,0,0,0,0,-1,993,813,0,0
-224,211,0,0,0,0,0,0,0,0,0,-1,1000,813,0,0
-217,211,0,0,0,0,0,0,0,0,0,-1,1007,813,0,0
-210,211,0,0,0,0,0,0,0,0,0,-1,1014,813,0,0
-203,211,0,0,0,0,0,0,0,0,0,-1,1021,813,0,0
-196,211,0,0,0,0,0,0,0,0,0,-1,1028,813,0,0
-189,211,0,0,0,0,0,0,0,0,0,-1,1035,813,0,0
-182,211,0,0,0,0,0,0,0,0,0,-1,1042,813,0,0
-175,211,0,0,0,0,0,0,0,0,0,-1,1049,813,0,0
-168,211,0,0,0,0,0,0,0,0,0,-1,1056,813,0,0
-161,211,0,0,0,0,0,0,0,0,0,-1,1063,813,0,0
-154,211,0,0,0,0,0,0,0,0,0,-1,1070,813,0,0
-147,211,0,0,0,0,0,0,0,0,0,-1,1077,813,0,0
-140,211,0,0,0,0,0,0,0,0,0,-1,1084,813,0,0
-133,211,0,0,0,0,0,0,0,0,0,-1,1091,813,0,0
-126,211,0,0,0,0,0,0,0,0,0,-1,1098,813,0,0
-119,211,0,0,0,0,0,0,0,0,0,-1,1105,813,0,0
-112,211,0,0,0,0,0,0,0,0,0,-1,1112,813,0,0
-105,211,0,0,0,0,0,0,0,0,0,-1,1119,813,0,0
-98,211,0,0,0,0,0,0,0,0,0,-1,1126,813,0,0
-91,211,0,0,0,0,0,0,0,0,0,-1,1133,813,0,0
-84,211,0,0,0,0,0,0,0,0,0,-1,1140,813,0,0
-77,211,0,0,0,0,0,0,0,0,0,-1,1147,813,0,0
-70,211,0,0,0,0,0,0,0,0,0,-1,1154,813,0,0
-63,211,0,0,0,0,0,0,0,0,0,-1,1161,813,0,0
-56,211,0,0,0,0,0,0,0,0,0,-1,1168,813,0,0
-49,211,0,0,0,0,0,0,0,0,0,-1,1175,813,0,0
-42,211,0,0,0,0,0,0,0,0,0,-1,1182,813,0,0
-35,211,0,0,0,0,0,0,0,0,0,-1,1189,813,0,0
-28,211,0,0,0,0,0,0,0,0,0,-1,1196,813,0,0
-21,211,0,0,0,0,0,0,0,0,0,-1,1203,813,0,0
-14,211,0,0,0,0,0,0,0,0,0,-1,1210,813,0,0
-7,211,0,0,0,0,0,0,0,0,0,-1,1217,813,0,0
0,211,0,0,0,0,0,0,0,0,0,-1,1224,813,0,0
7,211,0,0,0,0,0,0,0,0,0,-1,1231,813,0,0
14,211,0,0,0,0,0,0,0,0,0,-1,1238,813,0,0
21,211,0,0,0,0,0,0,0,0,0,-1,1245,813,0,0
28,211,0,0,0,0,0,0,0,0,0,-1,1252,813,0,0
35,211,0,0,0,0,0,0,0,0,0,-1,1259,813,0,0
42,211,0,0,0,0,0,0,0,0,0,-1,1266,813,0,0
49,211,0,0,0,0,0,0,0,0,0,-1,1273,813,0,0
56,211,0,0,0,0,0,0,0,0,0,-1,1280,813,0,0
63,211,0,0,0,0,0,0,0,0,0,-1,1287,813,0,0
70,211,0,0,0,0,0,0,0,0,0,-1,1294,813,0,0
77,211,0,0,0,0,0,0,0,0,0,-1,1301,813,0,0
84,211,0,0,0,0,0,0,0,0,0,-1,1308,813,0,0
91,211,0,0,0,0,0,0,0,0,0,-1,1315,813,0,0
98,211,0,0,0,0,0,0,0,0,0,-1,1322,813,0,0
105,211,0,0,0,0,0,0,0,0,0,-1,1329,813,0,0
112,211,0,0,0,0,0,0,0,0,0,-1,1336,813,0,0
119,211,0,0,0,0,0,0,0,0,0,-1,1343,813,0,0
126,211,0,0,0,0,0,0,0,0,0,-1,1350,813,0,0
133,211,0,0,0,0,0,0,0,0,0,-1,1357,813,0,0
140,211,0,0,0,0,0,0,0,0,0,-1,1364,813,0,0
147,211,0,0,0,0,0,0,0,0,0,-1,1371,813,0,0
154,211,0,0,0,0,0,0,0,0,0,-1,1378,813,0,0
161,211,0,0,0,0,0,0,0,0,0,-1,1385,813,0,0
168,211,0,0,0,0,0,0,0,0,0,-1,1392,813,0,0
175,211,0,0,0,0,0,0,0,0,0,-1,1399,813,0,0
182,211,0,0,0,0,0,0,0,0,0,-1,1406,813,0,0
189,211,0,0,0,0,0,0,0,0,0,-1,1413,813,0,0
196,211,0,0,0,0,0,0,0,0,0,-1,1420,813,0,0
203,211,0,0,0,0,0,0,0,0,0,-1,1427,813,0,0
210,211,0,0,0,0,0,0,0,0,0,-1,1434,813,0,0
217,211,0,0,0,0,0,0,0,0,0,-1,1441,813,0,0
224,211,0,0,0,0,0,0,0,0,0,-1,1448,813,0,0
231,211,0,0,0,0,0,0,0,0,0,-1,1455,813,0,0
238,211,0,0,0,0,0,0,0,0,0,-1,1462,813,0,0
245,211,0,0,0,0,0,0,0,0,0,-1,1469,813,0,0
252,211,0,0,0,0,0,0,0,0,0,-1,1476,813,0,0
259,211,0,0,0,0,0,0,0,0,0,-1,1483,813,0,0
266,211,0,0,0,0,0,0,0,0,0,-1,1490,813,0,0
273,211,0,0,0,0,0,0,0,0,0,-1,1497,813,0,0
280,211,0,0,0,0,0,0,0,0,0,-1,1504,813,0,0
287,211,0,0,0,0,0,0,0,0,0,-1,1511,813,0,0
294,211,0,0,0,0,0,0,0,0,0,-1,1518,813,0,0
301,211,0,0,0,0,0,0,0,0,0,-1,1525,813,0,0
308,211,0,0,0,0,0,0,0,0,0,-1,1532,813,0,0
315,211,0,0,0,0,0,0,0,0,0,-1,1539,813,0,0
322,211,0,0,0,0,0,0,0,0,0,-1,1546,813,0,0
329,211,0,0,0,0,0,0,0,0,0,-1,1553,813,0,0
336,211,0,0,0,0,0,0,0,0,0,-1,1560,813,0,0
343,211,0,0,0,0,0,0,0,0,0,-1,1567,813,0,0
350,211,0,0,0,0,0,0,0,0,0,-1,1574,813,0,0
357,211,0,0,0,0,0,0,0,0,0,-1,1581,813,0,0
364,211,0,0,0,0,0,0,0,0,0,-1,1588,813,0,0
371,211,0,0,0,0,0,0,0,0,0,-1,1595,813,0,0
378,211,0,0,0,0,0,0,0,0,0,-1,1602,813,0,0
385,211,0,0,0,0,0,0,0,0,0,-1,1609,813,0,0
392,211,0,0,0,0,0,0,0,0,0,-1,1616,813,0,0
399,211,0,0,0,0,0,0,0,0,0,-1,1623,813,0,0
406,211,0,0,0,0,0,0,0,0,0,-1,1630,813,0,0
413,211,0,0,0,0,0,0,0,0,0,-1,1637,813,0,0
420,211,0,0,0,0,0,0,0,0,0,-1,1644,813,0,0
427,211,0,0,0,0,0,0,0,0,0,-1,1651,813,0,0
434,211,0,0,0,0,0,0,0,0,0,-1,1658,813,0,0
441,211,0,0,0,0,0,0,0,0,0,-1,1665,813,0,0
448,211,0,0,0,0,0,0,0,0,0,-1,1672,813,0,0
455,211,0,0,0,0,0,0,0,0,0,-1,1679,813,0,0
462,211,0,0,0,0,0,0,0,0,0,-1,1686,813,0,0
469,211,0,0,0,0,0,0,0,0,0,-1,1693,813,0,0
476,211,0,0,0,0,0,0,0,0,0,-1,1700,813,0,0
483,211,0,0,0,0,0,0,0,0,0,-1,1707,813,0,0
490,211,0,0,0,0,0,0,0,0,0,-1,1714,813,0,0
497,211,0,0,0,0,0,0,0,0,0,-1,1721,813,0,0
504,211,0,0,0,0,0,0,0,0,0,-1,1728,813,0,0
511,211,0,0,0,0,0,0,0,0,0,-1,1735,813,0,0
518,211,0,0,0,0,0,0,0,0,0,-1,1742,813,0,0
525,211,0,0,0,0,0,0,0,0,0,-1,1749,813,0,0
532,211,0,0,0,0,0,0,0,0,0,-1,1756,813,0,0
539,211,0,0,0,0,0,0,0,0,0,-1,1763,813,0,0
546,211,0,0,0,0,0,0,0,0,0,-1,1770,813,0,0
553,211,0,0,0,0,0,0,0,0,0,-1,1777,813,0,0
560,211,0,0,0,0,0,0,0,0,0,-1,1784,813,0,0
567,211,0,0,0,0,0,0,0,0,0,-1,1791,813,0,0
574,211,0,0,0,0,0,0,0,0,0,-1,1798,813,0,0
581,211,0,0,0,0,0,0,0,0,0,-1,1805,813,0,0
588,211,0,0,0,0,0,0,0,0,0,-1,1812,813,0,0
595,211,80.8806,2.28705,0.0109197,-0.00172253,0.000219732,0.0109235,-0.00172634,0.0173739,0.00792072,0.0391131,1819,813,80.8806,-2.28706
602,211,80.8966,2.31958,0.00880787,-0.00188795,0.000564772,0.00883761,-0.00191769,0.0526081,0.00662415,0.0379188,1826,813,80.8966,-2.31955
609,211,80.8984,2.32935,0.00641356,-0.00175369,0.000792284,0.00648971,-0.00182984,0.0958171,0.0050482,0.0370275,1833,813,80.8984,-2.32936
616,211,80.881,2.28979,0.00442044,-0.00125734,0.000824612,0.00453778,-0.00137468,0.141345,0.00357269,0.0320806,1840,813,80.881,-2.28978
623,211,80.8981,2.24408,0.0031367,-0.000712278,0.000740684,0.00327432,-0.000849893,0.183699,0.00251452,0.0329545,1847,813,80.8981,-2.24408
630,211,80.866,2.22455,0.00225425,-0.000365272,0.00081804,0.00248873,-0.000599746,0.279146,0.00189104,0.0381468,1854,813,80.866,-2.22457
637,211,80.7861,2.38715,0,0,0,0,0,0,0,-1,1861,813,80.7861,-2.38716
644,211,66.401,2.3595,0,0,0,0,0,0,0,-1,1868,813,66.401,-2.35952
651,211,48.5043,2.95557,0,0,0,0,0,0,0,-1,1875,813,48.5043,-2.95558
658,211,27.7909,1.52234,0,0,0,0,0,0,0,-1,1882,813,27.7909,-1.52234
665,211,42.2053,-0.745605,0,0,0,0,0,0,0,-1,1889,813,42.2054,0.745605
672,211,53.189,-1.99603,0,0,0,0,0,0,0,-1,1896,813,53.189,1.99603
679,211,61.2115,-1.60394,0,0,0,0,0,0,0,-1,1903,813,61.2115,1.60395
686,211,60.9213,-0.869934,0.000166606,0.000272178,0.000384808,0.000607803,-0.000169019,0.853561,0.000471745,0.035704,1910,813,60.9213,0.86992
693,211,60.8495,0.1026,6.86885e-05,0.000165827,1.88876e-05,0.00016937,6.51453e-05,1.38535,9.86498e-05,0.0160212,1917,813,60.8495,-0.102572
700,211,60.7399,1.06116,0.000501721,0.000545352,-8.09307e-05,0.000607355,0.000439717,-0.917047,0.000362195,0.0145746,1924,813,60.7398,-1.06113
707,211,60.7021,2.039,0.00119511,0.00111527,0.000406814,0.00156396,0.000746424,0.736491,0.000903264,0.0215547,1931,813,60.7021,-2.03899
714,211,60.6628,3.03754,0.00229179,0.00190331,0.00131924,0.00343101,0.000764083,0.712305,0.00207997,0.0216686,1938,813,60.6628,-3.03751
721,211,60.6226,3.94397,0.00364467,0.0026532,0.00249773,0.00569538,0.000602486,0.687434,0.00361288,0.0185337,1945,813,60.6226,-3.94394
728,211,60.5906,4.92102,0.00531102,0.00335715,0.0039986,0.00845029,0.000217874,0.665585,0.00556233,0.021565,1952,813,60.5906,-4.92101
735,211,60.6725,5.92279,0.00724856,0.00390139,0.00586772,0.0116767,-0.000526753,0.646477,0.00796586,0.0407163,1959,813,60.6725,-5.9228
742,211,60.9512,6.90082,0,0,0,0,0,0,0,-1,1966,813,60.9512,-6.90084
749,211,58.2174,7.58356,0,0,0,0,0,0,0,-1,1973,813,58.2174,-7.58358
756,211,58.7476,7.14038,0,0,0,0,0,0,0,-1,1980,813,58.7476,-7.14036
763,211,58.3169,7.26605,0,0,0,0,0,0,0,-1,1987,813,58.3169,-7.26605
770,211,46.2148,12.9099,0,0,0,0,0,0,0,-1,1994,813,46.2148,-12.9099
777,211,0,0,0,0,0,0,0,0,0,-1,2001,813,0,0
784,211,0,0,0,0,0,0,0,0,0,-1,2008,813,0,0
791,211,0,0,0,0,0,0,0,0,0,-1,2015,813,0,0
798,211,0,0,0,0,0,0,0,0,0,-1,2022,813,0,0
805,211,0,0,0,0,0,0,0,0,0,-1,2029,813,0,0
812,211,0,0,0,0,0,0,0,0,0,-1,2036,813,0,0
-700,204,0,0,0,0,0,0,0,0,0,-1,524,820,0,0
-693,204,0,0,0,0,0,0,0,0,0,-1,531,820,0,0
-686,204,0,0,0,0,0,0,0,0,0,-1,538,820,0,0
-679,204,0,0,0,0,0,0,0,0,0,-1,545,820,0,0
-672,204,0,0,0,0,0,0,0,0,0,-1,552,820,0,0
-665,204,0,0,0,0,0,0,0,0,0,-1,559,820,0,0
-658,204,0,0,0,0,0,0,0,0,0,-1,566,820,0,0
-651,204,-40.064,5.25806,0,0,0,0,0,0,0,-1,573,820,-40.064,-5.25806
-644,204,-40.4117,4.54321,0,0,0,0,0,0,0,-1,580,820,-40.4117,-4.54323
-637,204,-40.8671,3.93817,0,0,0,0,0,0,0,-1,587,820,-40.8671,-3.93819
-630,204,-41.7101,3.04382,0,0,0,0,0,0,0,-1,594,820,-41.7101,-3.04383
-623,204,-41.8597,2.11951,0,0,0,0,0,0,0,-1,601,820,-41.8597,-2.11951
-616,204,-44.6116,7.27423,0,0,0,0,0,0,0,-1,608,820,-44.6116,-7.27424
-609,204,-44.6967,6.24255,-0.00373742,0.011272,0.00348557,0.0120419,-0.00450737,1.35339,0.00987932,0.039932,615,820,-44.6967,-6.24256
-602,204,-44.9111,5.21661,-0.00259078,0.00856961,0.00219721,0.0089866,-0.00300778,1.38324,0.00720603,0.0197159,622,820,-44.9111,-5.21661
-595,204,-45.0121,4.23145,-0.00121385,0.00658122,0.00134983,0.00680835,-0.00144097,1.4041,0.0050877,0.0169804,629,820,-45.0121,-4.23143
-588,204,-45.06,3.23889,0.000131186,0.00514347,0.00118433,0.00540922,-0.000134563,1.35006,0.00365183,0.0154831,636,820,-45.06,-3.23888
-581,204,-45.1224,2.25385,0.00140814,0.00416474,0.00143562,0.00477659,0.000796285,1.16791,0.00295495,0.0141903,643,820,-45.1225,-2.25385
-574,204,-45.1591,1.28918,0.00230656,0.00358057,0.00182053,0.00487233,0.00101481,0.953691,0.00296835,0.0147568,650,820,-45.1591,-1.28921
-567,204,-45.2409,0.365356,0.00230878,0.00296866,0.00176753,0.00443679,0.000840657,0.877669,0.00272127,0.0159225,657,820,-45.2409,-0.365354
-560,204,-45.3393,-0.530334,0,0,0,0,0,0,0,-1,664,820,-45.3393,0.530357
-553,204,-46.0087,-1.48383,0,0,0,0,0,0,0,-1,671,820,-46.0087,1.48385
-546,204,-45.7833,-2.47137,0,0,0,0,0,0,0,-1,678,820,-45.7833,2.4714
-539,204,-45.5579,-3.45892,0,0,0,0,0,0,0,-1,685,820,-45.5579,3.45895
-532,204,-30.0565,-3.29065,0,0,0,0,0,0,0,-1,692,820,-30.0565,3.29063
-525,204,-25.7137,1.52496,0,0,0,0,0,0,0,-1,699,820,-25.7137,-1.52496
-518,204,-43.4591,0.383972,0,0,0,0,0,0,0,-1,706,820,-43.4591,-0.383942
-511,204,-64.1096,0.325378,0,0,0,0,0,0,0,-1,713,820,-64.1096,-0.325363
-504,204,-64.0469,0.601746,-0.00341121,0.00331878,0.000904521,0.00343823,-0.00353066,1.4395,0.00402361,0.0488572,720,820,-64.0469,-0.601726
-497,204,-64.0519,0.658569,-0.00241845,0.00233007,0.000773105,0.00245277,-0.00254115,1.4134,0.00288339,0.0384358,727,820,-64.052,-0.658581
-490,204,-64.2336,0.394592,4.88394e-05,0.0013615,0.000163093,0.00138146,2.88795e-05,1.44902,0.000911502,0.0351177,734,820,-64.2336,-0.394622
-483,204,-64.3046,0.223328,0.00656604,-0.000164033,-0.000207568,0.00657243,-0.000170429,-0.0308029,0.00443952,0.0394752,741,820,-64.3046,-0.223305
-476,204,0,0,0,0,0,0,0,0,0,-1,748,820,0,0
-469,204,0,0,0,0,0,0,0,0,0,-1,755,820,0,0
-462,204,0,0,0,0,0,0,0,0,0,-1,762,820,0,0
-455,204,0,0,0,0,0,0,0,0,0,-1,769,820,0,0
-448,204,0,0,0,0,0,0,0,0,0,-1,776,820,0,0
-441,204,0,0,0,0,0,0,0,0,0,-1,783,820,0,0
-434,204,0,0,0,0,0,0,0,0,0,-1,790,820,0,0
-427,204,0,0,0,0,0,0,0,0,0,-1,797,820,0,0
-420,204,0,0,0,0,0,0,0,0,0,-1,804,820,0,0
-413,204,0,0,0,0,0,0,0,0,0,-1,811,820,0,0
-406,204,0,0,0,0,0,0,0,0,0,-1,818,820,0,0
-399,204,0,0,0,0,0,0,0,0,0,-1,825,820,0,0
-392,204,0,0,0,0,0,0,0,0,0,-1,832,820,0,0
-385,204,0,0,0,0,0,0,0,0,0,-1,839,820,0,0
-378,204,0,0,0,0,0,0,0,0,0,-1,846,820,0,0
-371,204,0,0,0,0,0,0,0,0,0,-1,853,820,0,0
-364,204,0,0,0,0,0,0,0,0,0,-1,860,820,0,0
-357,204,0,0,0,0,0,0,0,0,0,-1,867,820,0,0
-350,204,0,0,0,0,0,0,0,0,0,-1,874,820,0,0
-343,204,0,0,0,0,0,0,0,0,0,-1,881,820,0,0
-336,204,0,0,0,0,0,0,0,0,0,-1,888,820,0,0
-329,204,0,0,0,0,0,0,0,0,0,-1,895,820,0,0
-322,204,0,0,0,0,0,0,0,0,0,-1,902,820,0,0
-315,204,0,0,0,0,0,0,0,0,0,-1,909,820,0,0
-308,204,0,0,0,0,0,0,0,0,0,-1,916,820,0,0
-301,204,0,0,0,0,0,0,0,0,0,-1,923,820,0,0
-294,204,0,0,0,0,0,0,0,0,0,-1,930,820,0,0
-287,204,0,0,0,0,0,0,0,0,0,-1,937,820,0,0
-280,204,0,0,0,0,0,0,0,0,0,-1,944,820,0,0
-273,204,0,0,0,0,0,0,0,0,0,-1,951,820,0,0
-266,204,0,0,0,0,0,0,0,0,0,-1,958,820,0,0
-259,204,0,0,0,0,0,0,0,0,0,-1,965,820,0,0
-252,204,0,0,0,0,0,0,0,0,0,-1,972,820,0,0
-245,204,0,0,0,0,0,0,0,0,0,-1,979,820,0,0
-238,204,0,0,0,0,0,0,0,0,0,-1,986,820,0,0
-231,204,0,0,0,0,0,0,0,0,0,-1,993,820,0,0
-224,204,0,0,0,0,0,0,0,0,0,-1,1000,820,0,0
-217,204,0,0,0,0,0,0,0,0,0,-1,1007,820,0,0
-210,204,0,0,0,0,0,0,0,0,0,-1,1014,820,0,0
-203,204,0,0,0,0,0,0,0,0,0,-1,1021,820,0,0
-196,204,0,0,0,0,0,0,0,0,0,-1,1028,820,0,0
-189,204,0,0,0,0,0,0,0,0,0,-1,1035,820,0,0
-182,204,0,0,0,0,0,0,0,0,0,-1,1042,820,0,0
-175,204,0,0,0,0,0,0,0,0,0,-1,1049,820,0,0
-168,204,0,0,0,0,0,0,0,0,0,-1,1056,820,0,0
-161,204,0,0,0,0,0,0,0,0,0,-1,1063,820,0,0
-154,204,0,0,0,0,0,0,0,0,0,-1,1070,820,0,0
-147,204,0,0,0,0,0,0,0,0,0,-1,1077,820,0,0
-140,204,0,0,0,0,0,0,0,0,0,-1,1084,820,0,0
-133,204,0,0,0,0,0,0,0,0,0,-1,1091,820,0,0
-126,204,0,0,0,0,0,0,0,0,0,-1,1098,820,0,0
-119,204,0,0,0,0,0,0,0,0,0,-1,1105,820,0,0
-112,204,0,0,0,0,0,0,0,0,0,-1,1112,820,0,0
-105,204,0,0,0,0,0,0,0,0,0,-1,1119,820,0,0
-98,204,0,0,0,0,0,0,0,0,0,-1,1126,820,0,0
-91,204,0,0,0,0,0,0,0,0,0,-1,1133,820,0,0
-84,204,0,0,0,0,0,0,0,0,0,-1,1140,820,0,0
-77,204,0,0,0,0,0,0,0,0,0,-1,1147,820,0,0
-70,204,0,0,0,0,0,0,0,0,0,-1,1154,820,0,0
-63,204,0,0,0,0,0,0,0,0,0,-1,1161,820,0,0
-56,204,0,0,0,0,0,0,0,0,0,-1,1168,820,0,0
-49,204,0,0,0,0,0,0,0,0,0,-1,1175,820,0,0
-42,204,0,0,0,0,0,0,0,0,0,-1,1182,820,0,0
-35,204,0,0,0,0,0,0,0,0,0,-1,1189,820,0,0
-28,204,0,0,0,0,0,0,0,0,0,-1,1196,820,0,0
-21,204,0,0,0,0,0,0,0,0,0,-1,1203,820,0,0
-14,204,0,0,0,0,0,0,0,0,0,-1,1210,820,0,0
-7,204,0,0,0,0,0,0,0,0,0,-1,1217,820,0,0
0,204,0,0,0,0,0,0,0,0,0,-1,1224,820,0,0
7,204,0,0,0,0,0,0,0,0,0,-1,1231,820,0,0
14,204,0,0,0,0,0,0,0,0,0,-1,1238,820,0,0
21,204,0,0,0,0,0,0,0,0,0,-1,1245,820,0,0
28,204,0,0,0,0,0,0,0,0,0,-1,1252,820,0,0
35,204,0,0,0,0,0,0,0,0,0,-1,1259,820,0,0
42,204,0,0,0,0,0,0,0,0,0,-1,1266,820,0,0
49,204,0,0,0,0,0,0,0,0,0,-1,1273,820,0,0
56,204,0,0,0,0,0,0,0,0,0,-1,1280,820,0,0
63,204,0,0,0,0,0,0,0,0,0,-1,1287,820,0,0
70,204,0,0,0,0,0,0,0,0,0,-1,1294,820,0,0
77,204,0,0,0,0,0,0,0,0,0,-1,1301,820,0,0
84,204,0,0,0,0,0,0,0,0,0,-1,1308,820,0,0
91,204,0,0,0,0,0,0,0,0,0,-1,1315,820,0,0
98,204,0,0,0,0,0,0,0,0,0,-1,1322,820,0,0
105,204,0,0,0,0,0,0,0,0,0,-1,1329,820,0,0
112,204,0,0,0,0,0,0,0,0,0,-1,1336,820,0,0
119,204,0,0,0,0,0,0,0,0,0,-1,1343,820,0,0
126,204,0,0,0,0,0,0,0,0,0,-1,1350,820,0,0
133,204,0,0,0,0,0,0,0,0,0,-1,1357,820,0,0
140,204,0,0,0,0,0,0,0,0,0,-1,1364,820,0,0
147,204,0,0,0,0,0,0,0,0,0,-1,1371,820,0,0
154,204,0,0,0,0,0,0,0,0,0,-1,1378,820,0,0
161,204,0,0,0,0,0,0,0,0,0,-1,1385,820,0,0
168,204,0,0,0,0,0,0,0,0,0,-1,1392,820,0,0
175,204,0,0,0,0,0,0,0,0,0,-1,1399,820,0,0
182,204,0,0,0,0,0,0,0,0,0,-1,1406,820,0,0
189,204,0,0,0,0,0,0,0,0,0,-1,1413,820,0,0
196,204,0,0,0,0,0,0,0,0,0,-1,1420,820,0,0
203,204,0,0,0,0,0,0,0,0,0,-1,1427,820,0,0
210,204,0,0,0,0,0,0,0,0,0,-1,1434,820,0,0
217,204,0,0,0,0,0,0,0,0,0,-1,1441,820,0,0
224,204,0,0,0,0,0,0,0,0,0,-1,1448,820,0,0
231,204,0,0,0,0,0,0,0,0,0,-1,1455,820,0,0
238,204,0,0,0,0,0,0,0,0,0,-1,1462,820,0,0
245,204,0,0,0,0,0,0,0,0,0,-1,1469,820,0,0
252,204,0,0,0,0,0,0,0,0,0,-1,1476,820,0,0
259,204,0,0,0,0,0,0,0,0,0,-1,1483,820,0,0
266,204,0,0,0,0,0,0,0,0,0,-1,1490,820,0,0
273,204,0,0,0,0,0,0,0,0,0,-1,1497,820,0,0
280,204,0,0,0,0,0,0,0,0,0,-1,1504,820,0,0
287,204,0,0,0,0,0,0,0,0,0,-1,1511,820,0,0
294,204,0,0,0,0,0,0,0,0,0,-1,1518,820,0,0
301,204,0,0,0,0,0,0,0,0,0,-1,1525,820,0,0
308,204,0,0,0,0,0,0,0,0,0,-1,1532,820,0,0
315,204,0,0,0,0,0,0,0,0,0,-1,1539,820,0,0
322,204,0,0,0,0,0,0,0,0,0,-1,1546,820,0,0
329,204,0,0,0,0,0,0,0,0,0,-1,1553,820,0,0
336,204,0,0,0,0,0,0,0,0,0,-1,1560,820,0,0
343,204,0,0,0,0,0,0,0,0,0,-1,1567,820,0,0
350,204,0,0,0,0,0,0,0,0,0,-1,1574,820,0,0
357,204,0,0,0,0,0,0,0,0,0,-1,1581,820,0,0
364,204,0,0,0,0,0,0,0,0,0,-1,1588,820,0,0
371,204,0,0,0,0,0,0,0,0,0,-1,1595,820,0,0
378,204,0,0,0,0,0,0,0,0,0,-1,1602,820,0,0
385,204,0,0,0,0,0,0,0,0,0,-1,1609,820,0,0
392,204,0,0,0,0,0,0,0,0,0,-1,1616,820,0,0
399,204,0,0,0,0,0,0,0,0,0,-1,1623,820,0,0
406,204,0,0,0,0,0,0,0,0,0,-1,1630,820,0,0
413,204,0,0,0,0,0,0,0,0,0,-1,1637,820,0,0
420,204,0,0,0,0,0,0,0,0,0,-1,1644,820,0,0
427,204,0,0,0,0,0,0,0,0,0,-1,1651,820,0,0
434,204,0,0,0,0,0,0,0,0,0,-1,1658,820,0,0
441,204,0,0,0,0,0,0,0,0,0,-1,1665,820,0,0
448,204,0,0,0,0,0,0,0,0,0,-1,1672,820,0,0
455,204,0,0,0,0,0,0,0,0,0,-1,1679,820,0,0
462,204,0,0,0,0,0,0,0,0,0,-1,1686,820,0,0
469,204,0,0,0,0,0,0,0,0,0,-1,1693,820,0,0
476,204,0,0,0,0,0,0,0,0,0,-1,1700,820,0,0
483,204,0,0,0,0,0,0,0,0,0,-1,1707,820,0,0
490,204,0,0,0,0,0,0,0,0,0,-1,1714,820,0,0
497,204,0,0,0,0,0,0,0,0,0,-1,1721,820,0,0
504,204,0,0,0,0,0,0,0,0,0,-1,1728,820,0,0
511,204,0,0,0,0,0,0,0,0,0,-1,1735,820,0,0
518,204,0,0,0,0,0,0,0,0,0,-1,1742,820,0,0
525,204,0,0,0,0,0,0,0,0,0,-1,1749,820,0,0
532,204,0,0,0,0,0,0,0,0,0,-1,1756,820,0,0
539,204,0,0,0,0,0,0,0,0,0,-1,1763,820,0,0
546,204,0,0,0,0,0,0,0,0,0,-1,1770,820,0,0
553,204,0,0,0,0,0,0,0,0,0,-1,1777,820,0,0
560,204,0,0,0,0,0,0,0,0,0,-1,1784,820,0,0
567,204,0,0,0,0,0,0,0,0,0,-1,1791,820,0,0
574,204,0,0,0,0,0,0,0,0,0,-1,1798,820,0,0
581,204,0,0,0,0,0,0,0,0,0,-1,1805,820,0,0
588,204,0,0,0,0,0,0,0,0,0,-1,1812,820,0,0
595,204,0,0,0,0,0,0,0,0,0,-1,1819,820,0,0
602,204,80.9331,2.32776,0.00924032,-0.000617539,-0.000439819,0.0092599,-0.000637123,-0.0444983,0.00639623,0.0396482,1826,820,80.9332,-2.32776
609,204,80.8907,2.349,0.00711508,-0.000650776,0.000159272,0.00711835,-0.000654041,0.0204977,0.00497792,0.0424908,1833,820,80.8908,-2.34902
616,204,80.8846,2.23083,0.00511911,-0.000511305,0.000666761,0.00519699,-0.000589186,0.116279,0.00367683,0.0403944,1840,820,80.8846,-2.23084
623,204,80.8354,2.23901,0.00368393,-0.000222936,0.000994894,0.00392269,-0.000461697,0.235532,0.00278183,0.0311411,1847,820,80.8355,-2.23902
630,204,80.8176,2.26208,0.00265894,-4.53312e-05,0.00127206,0.00316325,-0.00054965,0.377448,0.00231392,0.0305821,1854,820,80.8176,-2.26206
637,204,80.8812,2.24622,0.00254305,0.000235767,0.00110159,0.00298452,-0.000205703,0.38116,0.00206167,0.0491302,1861,820,80.8812,-2.24625
644,204,80.9747,2.19354,0,0,0,0,0,0,0,-1,1868,820,80.9747,-2.19357
651,204,53.7611,2.32251,0,0,0,0,0,0,0,-1,1875,820,53.7611,-2.32249
658,204,34.9631,1.64844,0,0,0,0,0,0,0,-1,1882,820,34.9631,-1.64842
665,204,21.8292,1.51099,0,0,0,0,0,0,0,-1,1889,820,21.8292,-1.51099
672,204,62.1243,-2.54401,0,0,0,0,0,0,0,-1,1896,820,62.1243,2.54403
679,204,62.1044,-1.65613,0,0,0,0,0,0,0,-1,1903,820,62.1043,1.65614
686,204,61.8746,-0.778198,0,0,0,0,0,0,0,-1,1910,820,61.8746,0.778194
693,204,61.6569,0.145752,-7.1778e-05,-1.11222e-05,7.40207e-05,3.85427e-05,-0.000121443,0.979827,9.64126e-05,0.0327234,1917,820,61.6569,-0.145723
700,204,61.7042,1.14703,6.5689e-05,0.000192277,-0.000277036,0.000413157,-0.000155191,-0.897705,0.000339216,0.0185186,1924,820,61.7043,-1.14704
707,204,61.6548,2.11658,0.000478824,0.000674794,-4.19927e-05,0.000683413,0.000470205,-1.36835,0.000403761,0.0160028,1931,820,61.6548,-2.11656
714,204,61.6162,3.12512,0.00147518,0.00152336,0.00074541,0.00224507,0.000753469,0.801549,0.00131934,0.0243268,1938,820,61.6162,-3.12512
721,204,61.5604,4.02551,0.00281582,0.00230059,0.00183266,0.00440888,0.000707528,0.715572,0.0027341,0.0231026,1945,820,61.5604,-4.02554
728,204,61.4779,4.91968,0.00444586,0.00301607,0.00324216,0.007051,0.000410926,0.676884,0.00456986,0.0159098,1952,820,61.4779,-4.9197
735,204,61.3724,5.91345,0.00630997,0.0035899,0.00496953,0.0101022,-0.000202337,0.651831,0.00680326,0.0196238,1959,820,61.3725,-5.91347
742,204,61.3979,6.77136,0.00878688,0.00401599,0.00724976,0.0140336,-0.0012307,0.626458,0.00979176,0.0366331,1966,820,61.398,-6.77138
749,204,61.474,7.64331,0,0,0,0,0,0,0,-1,1973,820,61.474,-7.64329
756,204,58.6871,8.49182,0,0,0,0,0,0,0,-1,1980,820,58.6872,-8.49182
763,204,58.373,9.49487,0,0,0,0,0,0,0,-1,1987,820,58.373,-9.49487
770,204,54.0085,7.94019,0,0,0,0,0,0,0,-1,1994,820,54.0084,-7.94017
777,204,0,0,0,0,0,0,0,0,0,-1,2001,820,0,0
784,204,0,0,0,0,0,0,0,0,0,-1,2008,820,0,0
791,204,0,0,0,0,0,0,0,0,0,-1,2015,820,0,0
798,204,0,0,0,0,0,0,0,0,0,-1,2022,820,0,0
805,204,0,0,0,0,0,0,0,0,0,-1,2029,820,0,0
812,204,0,0,0,0,0,0,0,0,0,-1,2036,820,0,0
-700,197,0,0,0,0,0,0,0,0,0,-1,524,827,0,0
-693,197,0,0,0,0,0,0,0,0,0,-1,531,827,0,0
-686,197,0,0,0,0,0,0,0,0,0,-1,538,827,0,0
-679,197,0,0,0,0,0,0,0,0,0,-1,545,827,0,0
-672,197,0,0,0,0,0,0,0,0,0,-1,552,827,0,0
-665,197,0,0,0,0,0,0,0,0,0,-1,559,827,0,0
-658,197,-39.9774,5.66638,0,0,0,0,0,0,0,-1,566,827,-39.9774,-5.66637
-651,197,-39.9665,5.23578,0,0,0,0,0,0,0,-1,573,827,-39.9665,-5.23575
-644,197,-38.9225,4.75665,0,0,0,0,0,0,0,-1,580,827,-38.9225,-4.75665
-637,197,-45.2572,7.41498,0,0,0,0,0,0,0,-1,587,827,-45.2572,-7.415
-630,197,-40.4908,2.45648,0,0,0,0,0,0,0,-1,594,827,-40.4908,-2.45649
-623,197,-45.8096,8.30988,0,0,0,0,0,0,0,-1,601,827,-45.8096,-8.3099
-616,197,-45.7905,7.43225,0,0,0,0,0,0,0,-1,608,827,-45.7905,-7.43226
-609,197,-45.7548,6.27667,-0.00277552,0.0107819,0.00422213,0.0119892,-0.00398288,1.29227,0.00959993,0.0366485,615,827,-45.7548,-6.27669
-602,197,-45.8512,5.21649,-0.00180884,0.00826923,0.00278979,0.00898995,-0.00252957,1.31798,0.00699074,0.0225026,622,827,-45.8512,-5.21652
-595,197,-45.9899,4.31384,-0.000504959,0.00637492,0.00193569,0.00688214,-0.00101218,1.31452,0.00496003,0.0194568,629,827,-45.9899,-4.31386
-588,197,-46.0137,3.31555,0.000884622,0.00497757,0.00175452,0.00562672,0.000235469,1.21643,0.00367517,0.0230913,636,827,-46.0136,-3.31554
-581,197,-46.1039,2.3194,0.00228617,0.00404675,0.00199986,0.00535149,0.00098143,0.992725,0.00328968,0.0132865,643,827,-46.1039,-2.31939
-574,197,-46.1482,1.34772,0.00316661,0.0036199,0.0023418,0.005746,0.00104051,0.833639,0.00353524,0.014305,650,827,-46.1482,-1.34772
-567,197,-46.0874,0.42981,0.00288252,0.00301737,0.00192137,0.0048725,0.00102739,0.802937,0.00296579,0.0233804,657,827,-46.0874,-0.429825
-560,197,-45.9914,-0.467468,0,0,0,0,0,0,0,-1,664,827,-45.9914,0.467486
-553,197,-33.1771,-1.4881,0,0,0,0,0,0,0,-1,671,827,-33.1771,1.4881
-546,197,-46.8687,-2.26044,0,0,0,0,0,0,0,-1,678,827,-46.8687,2.26045
-539,197,-32.8993,-2.61737,0,0,0,0,0,0,0,-1,685,827,-32.8993,2.61737
-532,197,-16.0519,0.0410156,0,0,0,0,0,0,0,-1,692,827,-16.0519,-0.0410415
-525,197,-35.3785,2.11829,0,0,0,0,0,0,0,-1,699,827,-35.3785,-2.11826
-518,197,-57.6698,0.308533,0,0,0,0,0,0,0,-1,706,827,-57.6698,-0.308561
-511,197,-64.0828,0.494141,0,0,0,0,0,0,0,-1,713,827,-64.0828,-0.494168
-504,197,-64.0917,0.696411,-0.00311359,0.00395892,0.000612409,0.00401155,-0.00316622,1.48506,0.00415366,0.0387452,720,827,-64.0917,-0.6964
-497,197,-64.2512,0.553894,-0.00148822,0.00322452,0.000241318,0.00323685,-0.00150054,1.51977,0.0027957,0.0371875,727,827,-64.2512,-0.553874
-490,197,-64.3266,0.339294,0.00287358,0.00249488,-0.000709281,0.00341835,0.00195011,-0.654959,0.00198011,0.0373457,734,827,-64.3266,-0.339296
-483,197,-64.2803,0.239319,0.0138356,0.000982014,-0.00174494,0.0140683,0.000749341,-0.132559,0.00913935,0.0410424,741,827,-64.2803,-0.239327
-476,197,0,0,0,0,0,0,0,0,0,-1,748,827,0,0
-469,197,0,0,0,0,0,0,0,0,0,-1,755,827,0,0
-462,197,0,0,0,0,0,0,0,0,0,-1,762,827,0,0
-455,197,0,0,0,0,0,0,0,0,0,-1,769,827,0,0
-448,197,0,0,0,0,0,0,0,0,0,-1,776,827,0,0
-441,197,0,0,0,0,0,0,0,0,0,-1,783,827,0,0
-434,197,0,0,0,0,0,0,0,0,0,-1,790,827,0,0
-427,197,0,0,0,0,0,0,0,0,0,-1,797,827,0,0
-420,197,0,0,0,0,0,0,0,0,0,-1,804,827,0,0
-413,197,0,0,0,0,0,0,0,0,0,-1,811,827,0,0
-406,197,0,0,0,0,0,0,0,0,0,-1,818,827,0,0
-399,197,0,0,0,0,0,0,0,0,0,-1,825,827,0,0
-392,197,0,0,0,0,0,0,0,0,0,-1,832,827,0,0
-385,197,0,0,0,0,0,0,0,0,0,-1,839,827,0,0
-378,197,0,0,0,0,0,0,0,0,0,-1,846,827,0,0
-371,197,0,0,0,0,0,0,0,0,0,-1,853,827,0,0
-364,197,0,0,0,0,0,0,0,0,0,-1,860,827,0,0
-357,197,0,0,0,0,0,0,0,0,0,-1,867,827,0,0
-350,197,0,0,0,0,0,0,0,0,0,-1,874,827,0,0
-343,197,0,0,0,0,0,0,0,0,0,-1,881,827,0,0
-336,197,0,0,0,0,0,0,0,0,0,-1,888,827,0,0
-329,197,0,0,0,0,0,0,0,0,0,-1,895,827,0,0
-322,197,0,0,0,0,0,0,0,0,0,-1,902,827,0,0
-315,197,0,0,0,0,0,0,0,0,0,-1,909,827,0,0
-308,197,0,0,0,0,0,0,0,0,0,-1,916,827,0,0
-301,197,0,0,0,0,0,0,0,0,0,-1,923,827,0,0
-294,197,0,0,0,0,0,0,0,0,0,-1,930,827,0,0
-287,197,0,0,0,0,0,0,0,0,0,-1,937,827,0,0
-280,197,0,0,0,0,0,0,0,0,0,-1,944,827,0,0
-273,197,0,0,0,0,0,0,0,0,0,-1,951,827,0,0
-266,197,0,0,0,0,0,0,0,0,0,-1,958,827,0,0
-259,197,0,0,0,0,0,0,0,0,0,-1,965,827,0,0
-252,197,0,0,0,0,0,0,0,0,0,-1,972,827,0,0
-245,197,0,0,0,0,0,0,0,0,0,-1,979,827,0,0
-238,197,0,0,0,0,0,0,0,0,0,-1,986,827,0,0
-231,197,0,0,0,0,0,0,0,0,0,-1,993,827,0,0
-224,197,0,0,0,0,0,0,0,0,0,-1,1000,827,0,0
-217,197,0,0,0,0,0,0,0,0,0,-1,1007,827,0,0
-210,197,0,0,0,0,0,0,0,0,0,-1,1014,827,0,0
-203,197,0,0,0,0,0,0,0,0,0,-1,1021,827,0,0
-196,197,0,0,0,0,0,0,0,0,0,-1,1028,827,0,0
-189,197,0,0,0,0,0,0,0,0,0,-1,1035,827,0,0
-182,197,0,0,0,0,0,0,0,0,0,-1,1042,827,0,0
-175,197,0,0,0,0,0,0,0,0,0,-1,1049,827,0,0
-168,197,0,0,0,0,0,0,0,0,0,-1,1056,827,0,0
-161,197,0,0,0,0,0,0,0,0,0,-1,1063,827,0,0
-154,197,0,0,0,0,0,0,0,0,0,-1,1070,827,0,0
-147,197,0,0,0,0,0,0,0,0,0,-1,1077,827,0,0
-140,197,0,0,0,0,0,0,0,0,0,-1,1084,827,0,0
-133,197,0,0,0,0,0,0,0,0,0,-1,1091,827,0,0
-126,197,0,0,0,0,0,0,0,0,0,-1,1098,827,0,0
-119,197,0,0,0,0,0,0,0,0,0,-1,1105,827,0,0
-112,197,0,0,0,0,0,0,0,0,0,-1,1112,827,0,0
-105,197,0,0,0,0,0,0,0,0,0,-1,1119,827,0,0
-98,197,0,0,0,0,0,0,0,0,0,-1,1126,827,0,0
-91,197,0,0,0,0,0,0,0,0,0,-1,1133,827,0,0
-84,197,0,0,0,0,0,0,0,0,0,-1,1140,827,0,0
-77,197,0,0,0,0,0,0,0,0,0,-1,1147,827,0,0
-70,197,0,0,0,0,0,0,0,0,0,-1,1154,827,0,0
-63,197,0,0,0,0,0,0,0,0,0,-1,1161,827,0,0
-56,197,0,0,0,0,0,0,0,0,0,-1,1168,827,0,0
-49,197,0,0,0,0,0,0,0,0,0,-1,1175,827,0,0
-42,197,0,0,0,0,0,0,0,0,0,-1,1182,827,0,0
-35,197,0,0,0,0,0,0,0,0,0,-1,1189,827,0,0
-28,197,0,0,0,0,0,0,0,0,0,-1,1196,827,0,0
-21,197,0,0,0,0,0,0,0,0,0,-1,1203,827,0,0
-14,197,0,0,0,0,0,0,0,0,0,-1,1210,827,0,0
-7,197,0,0,0,0,0,0,0,0,0,-1,1217,827,0,0
0,197,0,0,0,0,0,0,0,0,0,-1,1224,827,0,0
7,197,0,0,0,0,0,0,0,0,0,-1,1231,827,0,0
14,197,0,0,0,0,0,0,0,0,0,-1,1238,827,0,0
21,197,0,0,0,0,0,0,0,0,0,-1,1245,827,0,0
28,197,0,0,0,0,0,0,0,0,0,-1,1252,827,0,0
35,197,0,0,0,0,0,0,0,0,0,-1,1259,827,0,0
42,197,0,0,0,0,0,0,0,0,0,-1,1266,827,0,0
49,197,0,0,0,0,0,0,0,0,0,-1,1273,827,0,0
56,197,0,0,0,0,0,0,0,0,0,-1,1280,827,0,0
63,197,0,0,0,0,0,0,0,0,0,-1,1287,827,0,0
70,197,0,0,0,0,0,0,0,0,0,-1,1294,827,0,0
77,197,0,0,0,0,0,0,0,0,0,-1,1301,827,0,0
84,197,0,0,0,0,0,0,0,0,0,-1,1308,827,0,0
91,197,0,0,0,0,0,0,0,0,0,-1,1315,827,0,0
98,197,0,0,0,0,0,0,0,0,0,-1,1322,827,0,0
105,197,0,0,0,0,0,0,0,0,0,-1,1329,827,0,0
112,197,0,0,0,0,0,0,0,0,0,-1,1336,827,0,0
119,197,0,0,0,0,0,0,0,0,0,-1,1343,827,0,0
126,197,0,0,0,0,0,0,0,0,0,-1,1350,827,0,0
133,197,0,0,0,0,0,0,0,0,0,-1,1357,827,0,0
140,197,0,0,0,0,0,0,0,0,0,-1,1364,827,0,0
147,197,0,0,0,0,0,0,0,0,0,-1,1371,827,0,0
154,197,0,0,0,0,0,0,0,0,0,-1,1378,827,0,0
161,197,0,0,0,0,0,0,0,0,0,-1,1385,827,0,0
168,197,0,0,0,0,0,0,0,0,0,-1,1392,827,0,0
175,197,0,0,0,0,0,0,0,0,0,-1,1399,827,0,0
182,197,0,0,0,0,0,0,0,0,0,-1,1406,827,0,0
189,197,0,0,0,0,0,0,0,0,0,-1,1413,827,0,0
196,197,0,0,0,0,0,0,0,0,0,-1,1420,827,0,0
203,197,0,0,0,0,0,0,0,0,0,-1,1427,827,0,0
210,197,0,0,0,0,0,0,0,0,0,-1,1434,827,0,0
217,197,0,0,0,0,0,0,0,0,0,-1,1441,827,0,0
224,197,0,0,0,0,0,0,0,0,0,-1,1448,827,0,0
231,197,0,0,0,0,0,0,0,0,0,-1,1455,827,0,0
238,197,0,0,0,0,0,0,0,0,0,-1,1462,827,0,0
245,197,0,0,0,0,0,0,0,0,0,-1,1469,827,0,0
252,197,0,0,0,0,0,0,0,0,0,-1,1476,827,0,0
259,197,0,0,0,0,0,0,0,0,0,-1,1483,827,0,0
266,197,0,0,0,0,0,0,0,0,0,-1,1490,827,0,0
273,197,0,0,0,0,0,0,0,0,0,-1,1497,827,0,0
280,197,0,0,0,0,0,0,0,0,0,-1,1504,827,0,0
287,197,0,0,0,0,0,0,0,0,0,-1,1511,827,0,0
294,197,0,0,0,0,0,0,0,0,0,-1,1518,827,0,0
301,197,0,0,0,0,0,0,0,0,0,-1,1525,827,0,0
308,197,0,0,0,0,0,0,0,0,0,-1,1532,827,0,0
315,197,0,0,0,0,0,0,0,0,0,-1,1539,827,0,0
322,197,0,0,0,0,0,0,0,0,0,-1,1546,827,0,0
329,197,0,0,0,0,0,0,0,0,0,-1,1553,827,0,0
336,197,0,0,0,0,0,0,0,0,0,-1,1560,827,0,0
343,197,0,0,0,0,0,0,0,0,0,-1,1567,827,0,0
350,197,0,0,0,0,0,0,0,0,0,-1,1574,827,0,0
357,197,0,0,0,0,0,0,0,0,0,-1,1581,827,0,0
364,197,0,0,0,0,0,0,0,0,0,-1,1588,827,0,0
371,197,0,0,0,0,0,0,0,0,0,-1,1595,827,0,0
378,197,0,0,0,0,0,0,0,0,0,-1,1602,827,0,0
385,197,0,0,0,0,0,0,0,0,0,-1,1609,827,0,0
392,197,0,0,0,0,0,0,0,0,0,-1,1616,827,0,0
399,197,0,0,0,0,0,0,0,0,0,-1,1623,827,0,0
406,197,0,0,0,0,0,0,0,0,0,-1,1630,827,0,0
413,197,0,0,0,0,0,0,0,0,0,-1,1637,827,0,0
420,197,0,0,0,0,0,0,0,0,0,-1,1644,827,0,0
427,197,0,0,0,0,0,0,0,0,0,-1,1651,827,0,0
434,197,0,0,0,0,0,0,0,0,0,-1,1658,827,0,0
441,197,0,0,0,0,0,0,0,0,0,-1,1665,827,0,0
448,197,0,0,0,0,0,0,0,0,0,-1,1672,827,0,0
455,197,0,0,0,0,0,0,0,0,0,-1,1679,827,0,0
462,197,0,0,0,0,0,0,0,0,0,-1,1686,827,0,0
469,197,0,0,0,0,0,0,0,0,0,-1,1693,827,0,0
476,197,0,0,0,0,0,0,0,0,0,-1,1700,827,0,0
483,197,0,0,0,0,0,0,0,0,0,-1,1707,827,0,0
490,197,0,0,0,0,0,0,0,0,0,-1,1714,827,0,0
497,197,0,0,0,0,0,0,0,0,0,-1,1721,827,0,0
504,197,0,0,0,0,0,0,0,0,0,-1,1728,827,0,0
511,197,0,0,0,0,0,0,0,0,0,-1,1735,827,0,0
518,197,0,0,0,0,0,0,0,0,0,-1,1742,827,0,0
525,197,0,0,0,0,0,0,0,0,0,-1,1749,827,0,0
532,197,0,0,0,0,0,0,0,0,0,-1,1756,827,0,0
539,197,0,0,0,0,0,0,0,0,0,-1,1763,827,0,0
546,197,0,0,0,0,0,0,0,0,0,-1,1770,827,0,0
553,197,0,0,0,0,0,0,0,0,0,-1,1777,827,0,0
560,197,0,0,0,0,0,0,0,0,0,-1,1784,827,0,0
567,197,0,0,0,0,0,0,0,0,0,-1,1791,827,0,0
574,197,0,0,0,0,0,0,0,0,0,-1,1798,827,0,0
581,197,0,0,0,0,0,0,0,0,0,-1,1805,827,0,0
588,197,0,0,0,0,0,0,0,0,0,-1,1812,827,0,0
595,197,0,0,0,0,0,0,0,0,0,-1,1819,827,0,0
602,197,80.7772,2.3222,0.00989432,0.000358649,-0.00123497,0.0100517,0.000201302,-0.126726,0.00663503,0.0420947,1826,827,80.7772,-2.32221
609,197,80.8256,2.30664,0.00773544,0.000212605,-0.000525448,0.00777196,0.000176081,-0.069398,0.00512362,0.0439699,1833,827,80.8255,-2.30664
616,197,80.9127,2.11823,0.00566744,0.000137097,0.000258008,0.00567945,0.000125086,0.0465185,0.0037453,0.0429325,1840,827,80.9127,-2.11822
623,197,80.7831,2.06958,0.00401822,0.000207353,0.000995744,0.00426271,-3.71397e-05,0.240775,0.00285427,0.0393061,1847,827,80.783,-2.06961
630,197,80.8298,2.09186,0.00276254,0.000219586,0.00161317,0.00354508,-0.000562952,0.451651,0.00257166,0.0337471,1854,827,80.8298,-2.09187
637,197,80.8816,2.125,0.00255803,0.000354568,0.00155592,0.00336279,-0.00045019,0.477331,0.002406,0.0284357,1861,827,80.8816,-2.12499
644,197,80.8729,2.22308,0,0,0,0,0,0,0,-1,1868,827,80.8729,-2.22308
651,197,73.8147,2.2644,0,0,0,0,0,0,0,-1,1875,827,73.8147,-2.26442
658,197,40.4694,3.05927,0,0,0,0,0,0,0,-1,1882,827,40.4694,-3.05926
665,197,14.0618,1.80304,0,0,0,0,0,0,0,-1,1889,827,14.0617,-1.80303
672,197,63.2184,-2.96692,0,0,0,0,0,0,0,-1,1896,827,63.2184,2.9669
679,197,63.0818,-1.66327,0,0,0,0,0,0,0,-1,1903,827,63.0818,1.66329
686,197,62.9976,-0.5979,0,0,0,0,0,0,0,-1,1910,827,62.9976,0.597892
693,197,62.8007,0.137512,0,0,0,0,0,0,0,-1,1917,827,62.8007,-0.137536
700,197,62.674,1.17279,-0.000908902,-0.000194082,-0.000227876,-0.000127618,-0.000975366,-1.287,0.000612155,0.03643,1924,827,62.674,-1.17276
707,197,62.6248,2.20715,-0.000756453,0.00018564,-0.000272328,0.000258696,-0.000829509,-1.3087,0.000656455,0.00977929,1931,827,62.6248,-2.20713
714,197,62.5853,3.1391,0.000269917,0.00112269,0.000263196,0.00119738,0.000195227,1.29429,0.000741791,0.0128789,1938,827,62.5853,-3.13909
721,197,62.5129,4.05829,0.00183327,0.00200192,0.00114462,0.00306532,0.000769869,0.822168,0.00184138,0.0142372,1945,827,62.5129,-4.05828
728,197,62.4253,4.98248,0.00372274,0.00280598,0.0023601,0.00566857,0.000860154,0.689481,0.00352746,0.0120104,1952,827,62.4253,-4.98249
735,197,62.3326,5.94708,0.0058529,0.00350043,0.0038137,0.00866763,0.000685696,0.635815,0.00556396,0.0120695,1959,827,62.3327,-5.94707
742,197,62.301,6.95825,0.00854246,0.00406839,0.00565482,0.0123866,0.000224202,0.597045,0.00818405,0.023601,1966,827,62.301,-6.95827
749,197,62.3168,8.0202,0.0118227,0.00453519,0.00820131,0.0171533,-0.000795383,0.576352,0.0117096,0.0498178,1973,827,62.3167,-8.0202
756,197,62.3118,9.07507,0,0,0,0,0,0,0,-1,1980,827,62.3118,-9.07507
763,197,59.4764,9.61688,0,0,0,0,0,0,0,-1,1987,827,59.4765,-9.61686
770,197,59.1899,10.6091,0,0,0,0,0,0,0,-1,1994,827,59.1899,-10.6091
777,197,0,0,0,0,0,0,0,0,0,-1,2001,827,0,0
784,197,0,0,0,0,0,0,0,0,0,-1,2008,827,0,0
791,197,0,0,0,0,0,0,0,0,0,-1,2015,827,0,0
798,197,0,0,0,0,0,0,0,0,0,-1,2022,827,0,0
805,197,0,0,0,0,0,0,0,0,0,-1,2029,827,0,0
812,197,0,0,0,0,0,0,0,0,0,-1,2036,827,0,0
-700,190,0,0,0,0,0,0,0,0,0,-1,524,834,0,0
-693,190,0,0,0,0,0,0,0,0,0,-1,531,834,0,0
-686,190,0,0,0,0,0,0,0,0,0,-1,538,834,0,0
-679,190,0,0,0,0,0,0,0,0,0,-1,545,834,0,0
-672,190,0,0,0,0,0,0,0,0,0,-1,552,834,0,0
-665,190,0,0,0,0,0,0,0,0,0,-1,559,834,0,0
-658,190,-41.9736,5.50092,0,0,0,0,0,0,0,-1,566,834,-41.9736,-5.50089
-651,190,-40.1895,4.99677,0,0,0,0,0,0,0,-1,573,834,-40.1894,-4.99677
-644,190,-43.4772,11.1134,0,0,0,0,0,0,0,-1,580,834,-43.4771,-11.1134
-637,190,-43.1797,9.53918,0,0,0,0,0,0,0,-1,587,834,-43.1797,-9.53917
-630,190,-43.3638,9.78387,0,0,0,0,0,0,0,-1,594,834,-43.3638,-9.78386
-623,190,-46.4818,8.42511,0,0,0,0,0,0,0,-1,601,834,-46.4817,-8.42509
-616,190,-46.7995,7.19617,0,0,0,0,0,0,0,-1,608,834,-46.7995,-7.19617
-609,190,-46.7435,6.22485,-0.00150126,0.0100407,0.00483997,0.0118016,-0.00326219,1.22185,0.00915103,0.0285478,615,834,-46.7435,-6.22484
-602,190,-46.8519,5.29053,-0.000942824,0.00771549,0.0032934,0.00882582,-0.00205316,1.24562,0.00667438,0.0197066,622,834,-46.8518,-5.29052
-595,190,-46.9464,4.35797,7.58297e-05,0.00592551,0.00242473,0.00679988,-0.000798539,1.22471,0.00482153,0.0205446,629,834,-46.9464,-4.35797
-588,190,-46.9964,3.36829,0.00129472,0.00460141,0.0022253,0.00572034,0.000175787,1.10489,0.00375633,0.0218125,636,834,-46.9964,-3.3683
-581,190,-47.0491,2.40588,0.00257605,0.00378138,0.00245072,0.00570244,0.000654985,0.905962,0.0036032,0.0155626,643,834,-47.0491,-2.40587
-574,190,-47.097,1.4433,0.00319398,0.00355054,0.00270359,0.00608172,0.0006628,0.818321,0.0038526,0.0151297,650,834,-47.0971,-1.44328
-567,190,-46.9977,0.334534,0.00262937,0.00292534,0.00189023,0.00467337,0.000881337,0.824462,0.00286731,0.0350663,657,834,-46.9977,-0.334558
-560,190,-46.805,-0.812622,0,0,0,0,0,0,0,-1,664,834,-46.805,0.812626
-553,190,-33.9625,-1.6355,0,0,0,0,0,0,0,-1,671,834,-33.9625,1.63552
-546,190,-33.7621,-2.04889,0,0,0,0,0,0,0,-1,678,834,-33.7621,2.04886
-539,190,-16.4624,-0.542542,0,0,0,0,0,0,0,-1,685,834,-16.4624,0.542527
-532,190,-21.6292,2.06122,0,0,0,0,0,0,0,-1,692,834,-21.6292,-2.06123
-525,190,-38.9377,1.03369,0,0,0,0,0,0,0,-1,699,834,-38.9377,-1.0337
-518,190,-64.0398,0.470886,0,0,0,0,0,0,0,-1,706,834,-64.0398,-0.470911
-511,190,-64.1484,0.526306,-0.00367498,0.00436571,0.000282502,0.00437562,-0.0036849,1.53572,0.00465944,0.0436405,713,834,-64.1484,-0.526294
-504,190,-64.3643,0.734924,-0.00283956,0.00415434,3.63379e-05,0.00415453,-0.00283975,1.5656,0.00406186,0.0419993,720,834,-64.3643,-0.734909
-497,190,-64.4532,0.476685,-0.000116177,0.00365776,-0.000658726,0.00376943,-0.000227851,-1.40286,0.00259225,0.0413196,727,834,-64.4532,-0.476655
-490,190,-64.3879,0.437988,0.00663938,0.0028311,-0.00173503,0.00731129,0.00215918,-0.369481,0.00433747,0.0390326,734,834,-64.388,-0.438011
-483,190,0,0,0,0,0,0,0,0,0,-1,741,834,0,0
-476,190,0,0,0,0,0,0,0,0,0,-1,748,834,0,0
-469,190,0,0,0,0,0,0,0,0,0,-1,755,834,0,0
-462,190,0,0,0,0,0,0,0,0,0,-1,762,834,0,0
-455,190,0,0,0,0,0,0,0,0,0,-1,769,834,0,0
-448,190,0,0,0,0,0,0,0,0,0,-1,776,834,0,0
-441,190,0,0,0,0,0,0,0,0,0,-1,783,834,0,0
-434,190,0,0,0,0,0,0,0,0,0,-1,790,834,0,0
-427,190,0,0,0,0,0,0,0,0,0,-1,797,834,0,0
-420,190,0,0,0,0,0,0,0,0,0,-1,804,834,0,0
-413,190,0,0,0,0,0,0,0,0,0,-1,811,834,0,0
-406,190,0,0,0,0,0,0,0,0,0,-1,818,834,0,0
-399,190,0,0,0,0,0,0,0,0,0,-1,825,834,0,0
-392,190,0,0,0,0,0,0,0,0,0,-1,832,834,0,0
-385,190,0,0,0,0,0,0,0,0,0,-1,839,834,0,0
-378,190,0,0,0,0,0,0,0,0,0,-1,846,834,0,0
-371,190,0,0,0,0,0,0,0,0,0,-1,853,834,0,0
-364,190,0,0,0,0,0,0,0,0,0,-1,860,834,0,0
-357,190,0,0,0,0,0,0,0,0,0,-1,867,834,0,0
-350,190,0,0,0,0,0,0,0,0,0,-1,874,834,0,0
-343,190,0,0,0,0,0,0,0,0,0,-1,881,834,0,0
-336,190,0,0,0,0,0,0,0,0,0,-1,888,834,0,0
-329,190,0,0,0,0,0,0,0,0,0,-1,895,834,0,0
-322,190,0,0,0,0,0,0,0,0,0,-1,902,834,0,0
-315,190,0,0,0,0,0,0,0,0,0,-1,909,834,0,0
-308,190,0,0,0,0,0,0,0,0,0,-1,916,834,0,0
-301,190,0,0,0,0,0,0,0,0,0,-1,923,834,0,0
-294,190,0,0,0,0,0,0,0,0,0,-1,930,834,0,0
-287,190,0,0,0,0,0,0,0,0,0,-1,937,834,0,0
-280,190,0,0,0,0,0,0,0,0,0,-1,944,834,0,0
-273,190,0,0,0,0,0,0,0,0,0,-1,951,834,0,0
-266,190,0,0,0,0,0,0,0,0,0,-1,958,834,0,0
-259,190,0,0,0,0,0,0,0,0,0,-1,965,834,0,0
-252,190,0,0,0,0,0,0,0,0,0,-1,972,834,0,0
-245,190,0,0,0,0,0,0,0,0,0,-1,979,834,0,0
-238,190,0,0,0,0,0,0,0,0,0,-1,986,834,0,0
-231,190,0,0,0,0,0,0,0,0,0,-1,993,834,0,0
-224,190,0,0,0,0,0,0,0,0,0,-1,1000,834,0,0
-217,190,0,0,0,0,0,0,0,0,0,-1,1007,834,0,0
-210,190,0,0,0,0,0,0,0,0,0,-1,1014,834,0,0
-203,190,0,0,0,0,0,0,0,0,0,-1,1021,834,0,0
-196,190,0,0,0,0,0,0,0,0,0,-1,1028,834,0,0
-189,190,0,0,0,0,0,0,0,0,0,-1,1035,834,0,0
-182,190,0,0,0,0,0,0,0,0,0,-1,1042,834,0,0
-175,190,0,0,0,0,0,0,0,0,0,-1,1049,834,0,0
-168,190,0,0,0,0,0,0,0,0,0,-1,1056,834,0,0
-161,190,0,0,0,0,0,0,0,0,0,-1,1063,834,0,0
-154,190,0,0,0,0,0,0,0,0,0,-1,1070,834,0,0
-147,190,0,0,0,0,0,0,0,0,0,-1,1077,834,0,0
-140,190,0,0,0,0,0,0,0,0,0,-1,1084,834,0,0
-133,190,0,0,0,0,0,0,0,0,0,-1,1091,834,0,0
-126,190,0,0,0,0,0,0,0,0,0,-1,1098,834,0,0
-119,190,0,0,0,0,0,0,0,0,0,-1,1105,834,0,0
-112,190,0,0,0,0,0,0,0,0,0,-1,1112,834,0,0
-105,190,0,0,0,0,0,0,0,0,0,-1,1119,834,0,0
-98,190,0,0,0,0,0,0,0,0,0,-1,1126,834,0,0
-91,190,0,0,0,0,0,0,0,0,0,-1,1133,834,0,0
-84,190,0,0,0,0,0,0,0,0,0,-1,1140,834,0,0
-77,190,0,0,0,0,0,0,0,0,0,-1,1147,834,0,0
-70,190,0,0,0,0,0,0,0,0,0,-1,1154,834,0,0
-63,190,0,0,0,0,0,0,0,0,0,-1,1161,834,0,0
-56,190,0,0,0,0,0,0,0,0,0,-1,1168,834,0,0
-49,190,0,0,0,0,0,0,0,0,0,-1,1175,834,0,0
-42,190,0,0,0,0,0,0,0,0,0,-1,1182,834,0,0
-35,190,0,0,0,0,0,0,0,0,0,-1,1189,834,0,0
-28,190,0,0,0,0,0,0,0,0,0,-1,1196,834,0,0
-21,190,0,0,0,0,0,0,0,0,0,-1,1203,834,0,0
-14,190,0,0,0,0,0,0,0,0,0,-1,1210,834,0,0
-7,190,0,0,0,0,0,0,0,0,0,-1,1217,834,0,0
0,190,0,0,0,0,0,0,0,0,0,-1,1224,834,0,0
7,190,0,0,0,0,0,0,0,0,0,-1,1231,834,0,0
14,190,0,0,0,0,0,0,0,0,0,-1,1238,834,0,0
21,190,0,0,0,0,0,0,0,0,0,-1,1245,834,0,0
28,190,0,0,0,0,0,0,0,0,0,-1,1252,834,0,0
35,190,0,0,0,0,0,0,0,0,0,-1,1259,834,0,0
42,190,0,0,0,0,0,0,0,0,0,-1,1266,834,0,0
49,190,0,0,0,0,0,0,0,0,0,-1,1273,834,0,0
56,190,0,0,0,0,0,0,0,0,0,-1,1280,834,0,0
63,190,0,0,0,0,0,0,0,0,0,-1,1287,834,0,0
70,190,0,0,0,0,0,0,0,0,0,-1,1294,834,0,0
77,190,0,0,0,0,0,0,0,0,0,-1,1301,834,0,0
84,190,0,0,0,0,0,0,0,0,0,-1,1308,834,0,0
91,190,0,0,0,0,0,0,0,0,0,-1,1315,834,0,0
98,190,0,0,0,0,0,0,0,0,0,-1,1322,834,0,0
105,190,0,0,0,0,0,0,0,0,0,-1,1329,834,0,0
112,190,0,0,0,0,0,0,0,0,0,-1,1336,834,0,0
119,190,0,0,0,0,0,0,0,0,0,-1,1343,834,0,0
126,190,0,0,0,0,0,0,0,0,0,-1,1350,834,0,0
133,190,0,0,0,0,0,0,0,0,0,-1,1357,834,0,0
140,190,0,0,0,0,0,0,0,0,0,-1,1364,834,0,0
147,190,0,0,0,0,0,0,0,0,0,-1,1371,834,0,0
154,190,0,0,0,0,0,0,0,0,0,-1,1378,834,0,0
161,190,0,0,0,0,0,0,0,0,0,-1,1385,834,0,0
168,190,0,0,0,0,0,0,0,0,0,-1,1392,834,0,0
175,190,0,0,0,0,0,0,0,0,0,-1,1399,834,0,0
182,190,0,0,0,0,0,0,0,0,0,-1,1406,834,0,0
189,190,0,0,0,0,0,0,0,0,0,-1,1413,834,0,0
196,190,0,0,0,0,0,0,0,0,0,-1,1420,834,0,0
203,190,0,0,0,0,0,0,0,0,0,-1,1427,834,0,0
210,190,0,0,0,0,0,0,0,0,0,-1,1434,834,0,0
217,190,0,0,0,0,0,0,0,0,0,-1,1441,834,0,0
224,190,0,0,0,0,0,0,0,0,0,-1,1448,834,0,0
231,190,0,0,0,0,0,0,0,0,0,-1,1455,834,0,0
238,190,0,0,0,0,0,0,0,0,0,-1,1462,834,0,0
245,190,0,0,0,0,0,0,0,0,0,-1,1469,834,0,0
252,190,0,0,0,0,0,0,0,0,0,-1,1476,834,0,0
259,190,0,0,0,0,0,0,0,0,0,-1,1483,834,0,0
266,190,0,0,0,0,0,0,0,0,0,-1,1490,834,0,0
273,190,0,0,0,0,0,0,0,0,0,-1,1497,834,0,0
280,190,0,0,0,0,0,0,0,0,0,-1,1504,834,0,0
287,190,0,0,0,0,0,0,0,0,0,-1,1511,834,0,0
294,190,0,0,0,0,0,0,0,0,0,-1,1518,834,0,0
301,190,0,0,0,0,0,0,0,0,0,-1,1525,834,0,0
308,190,0,0,0,0,0,0,0,0,0,-1,1532,834,0,0
315,190,0,0,0,0,0,0,0,0,0,-1,1539,834,0,0
322,190,0,0,0,0,0,0,0,0,0,-1,1546,834,0,0
329,190,0,0,0,0,0,0,0,0,0,-1,1553,834,0,0
336,190,0,0,0,0,0,0,0,0,0,-1,1560,834,0,0
343,190,0,0,0,0,0,0,0,0,0,-1,1567,834,0,0
350,190,0,0,0,0,0,0,0,0,0,-1,1574,834,0,0
357,190,0,0,0,0,0,0,0,0,0,-1,1581,834,0,0
364,190,0,0,0,0,0,0,0,0,0,-1,1588,834,0,0
371,190,0,0,0,0,0,0,0,0,0,-1,1595,834,0,0
378,190,0,0,0,0,0,0,0,0,0,-1,1602,834,0,0
385,190,0,0,0,0,0,0,0,0,0,-1,1609,834,0,0
392,190,0,0,0,0,0,0,0,0,0,-1,1616,834,0,0
399,190,0,0,0,0,0,0,0,0,0,-1,1623,834,0,0
406,190,0,0,0,0,0,0,0,0,0,-1,1630,834,0,0
413,190,0,0,0,0,0,0,0,0,0,-1,1637,834,0,0
420,190,0,0,0,0,0,0,0,0,0,-1,1644,834,0,0
427,190,0,0,0,0,0,0,0,0,0,-1,1651,834,0,0
434,190,0,0,0,0,0,0,0,0,0,-1,1658,834,0,0
441,190,0,0,0,0,0,0,0,0,0,-1,1665,834,0,0
448,190,0,0,0,0,0,0,0,0,0,-1,1672,834,0,0
455,190,0,0,0,0,0,0,0,0,0,-1,1679,834,0,0
462,190,0,0,0,0,0,0,0,0,0,-1,1686,834,0,0
469,190,0,0,0,0,0,0,0,0,0,-1,1693,834,0,0
476,190,0,0,0,0,0,0,0,0,0,-1,1700,834,0,0
483,190,0,0,0,0,0,0,0,0,0,-1,1707,834,0,0
490,190,0,0,0,0,0,0,0,0,0,-1,1714,834,0,0
497,190,0,0,0,0,0,0,0,0,0,-1,1721,834,0,0
504,190,0,0,0,0,0,0,0,0,0,-1,1728,834,0,0
511,190,0,0,0,0,0,0,0,0,0,-1,1735,834,0,0
518,190,0,0,0,0,0,0,0,0,0,-1,1742,834,0,0
525,190,0,0,0,0,0,0,0,0,0,-1,1749,834,0,0
532,190,0,0,0,0,0,0,0,0,0,-1,1756,834,0,0
539,190,0,0,0,0,0,0,0,0,0,-1,1763,834,0,0
546,190,0,0,0,0,0,0,0,0,0,-1,1770,834,0,0
553,190,0,0,0,0,0,0,0,0,0,-1,1777,834,0,0
560,190,0,0,0,0,0,0,0,0,0,-1,1784,834,0,0
567,190,0,0,0,0,0,0,0,0,0,-1,1791,834,0,0
574,190,0,0,0,0,0,0,0,0,0,-1,1798,834,0,0
581,190,0,0,0,0,0,0,0,0,0,-1,1805,834,0,0
588,190,0,0,0,0,0,0,0,0,0,-1,1812,834,0,0
595,190,0,0,0,0,0,0,0,0,0,-1,1819,834,0,0
602,190,80.6724,2.12836,0.0107902,0.000927041,-0.00270985,0.0114856,0.000231563,-0.251226,0.00758109,0.0440211,1826,834,80.6723,-2.12834
609,190,80.7838,2.24536,0.00854818,0.000660431,-0.00171478,0.00890484,0.000303768,-0.20507,0.00583794,0.0421456,1833,834,80.7838,-2.24537
616,190,80.975,2.09412,0.00636962,0.000457976,-0.000673565,0.0064454,0.000382202,-0.112026,0.00417537,0.0413697,1840,834,80.9749,-2.09411
623,190,80.6982,1.98041,0,0,0,0,0,0,0,-1,1847,834,80.6983,-1.98039
630,190,80.7637,2.09088,0.00276028,0.000263347,0.00140589,0.00339203,-0.000368399,0.422318,0.00239362,0.0418463,1854,834,80.7637,-2.09088
637,190,80.8521,2.1145,0.00226299,0.000226398,0.00161691,0.00315554,-0.00066615,0.504384,0.00235733,0.0338374,1861,834,80.852,-2.11451
644,190,80.8501,2.255,0.00207492,0.00022309,0.00169898,0.00308391,-0.000785898,0.535906,0.0023619,0.0326686,1868,834,80.8501,-2.25498
651,190,80.8276,2.44708,0,0,0,0,0,0,0,-1,1875,834,80.8276,-2.44711
658,190,54.0599,3.0943,0,0,0,0,0,0,0,-1,1882,834,54.0599,-3.09428
665,190,25.9916,3.05157,0,0,0,0,0,0,0,-1,1889,834,25.9916,-3.05156
672,190,27.2662,1.70862,0,0,0,0,0,0,0,-1,1896,834,27.2662,-1.70861
679,190,63.9257,-1.48682,0,0,0,0,0,0,0,-1,1903,834,63.9257,1.48679
686,190,63.9369,-0.521912,-0.000646167,-0.000111145,0.000602751,0.000280791,-0.0010381,0.994249,0.000802217,0.0307318,1910,834,63.9369,0.521908
693,190,63.9117,0.461792,-0.00106549,-0.000342939,0.000162855,-0.000307929,-0.0011005,1.35905,0.000655587,0.0395752,1917,834,63.9117,-0.461764
700,190,63.6232,1.34088,-0.00140586,-0.000223202,-0.000400526,-0.000100324,-0.00152874,-1.27312,0.000987416,0.0278771,1924,834,63.6231,-1.34087
707,190,63.5768,2.28564,-0.0015279,0.000137083,-0.000622927,0.000344341,-0.00173516,-1.2496,0.001287,0.0141805,1931,834,63.5767,-2.28566
714,190,63.5629,3.19653,-0.000683044,0.00108263,-0.000333971,0.00114368,-0.000744102,-1.38997,0.00109802,0.0132462,1938,834,63.5629,-3.19653
721,190,63.5208,4.12115,0.000820885,0.00194258,0.000295061,0.00201546,0.000748005,1.32864,0.00117644,0.0129035,1945,834,63.5207,-4.12118
728,190,63.4332,5.039,0.00270534,0.00273242,0.00128625,0.00400521,0.00143256,0.790662,0.00234343,0.0143622,1952,834,63.4332,-5.03903
735,190,63.3473,5.9599,0.00489855,0.00345492,0.00246951,0.00674958,0.0016039,0.643214,0.00407178,0.0128114,1959,834,63.3473,-5.95988
742,190,63.276,6.96136,0.00756698,0.00405717,0.003909,0.0100969,0.00152722,0.574412,0.00628438,0.0190736,1966,834,63.2761,-6.96138
749,190,63.1302,8.37012,0.0108112,0.00459674,0.00580016,0.014284,0.00112394,0.539495,0.00917098,0.0430531,1973,834,63.1302,-8.37011
756,190,62.9518,9.73981,0,0,0,0,0,0,0,-1,1980,834,62.9518,-9.73981
763,190,60.58,9.73883,0,0,0,0,0,0,0,-1,1987,834,60.5799,-9.73885
770,190,54.7947,10.1494,0,0,0,0,0,0,0,-1,1994,834,54.7947,-10.1494
777,190,51.4365,10.3331,0,0,0,0,0,0,0,-1,2001,834,51.4366,-10.3331
784,190,0,0,0,0,0,0,0,0,0,-1,2008,834,0,0
791,190,0,0,0,0,0,0,0,0,0,-1,2015,834,0,0
798,190,0,0,0,0,0,0,0,0,0,-1,2022,834,0,0
805,190,0,0,0,0,0,0,0,0,0,-1,2029,834,0,0
812,190,0,0,0,0,0,0,0,0,0,-1,2036,834,0,0
-700,183,0,0,0,0,0,0,0,0,0,-1,524,841,0,0
-693,183,0,0,0,0,0,0,0,0,0,-1,531,841,0,0
-686,183,0,0,0,0,0,0,0,0,0,-1,538,841,0,0
-679,183,0,0,0,0,0,0,0,0,0,-1,545,841,0,0
-672,183,0,0,0,0,0,0,0,0,0,-1,552,841,0,0
-665,183,0,0,0,0,0,0,0,0,0,-1,559,841,0,0
-658,183,-56.7401,1.32843,0,0,0,0,0,0,0,-1,566,841,-56.7401,-1.32844
-651,183,-44.3059,12.2423,0,0,0,0,0,0,0,-1,573,841,-44.3059,-12.2423
-644,183,-46.8565,10.944,0,0,0,0,0,0,0,-1,580,841,-46.8565,-10.944
-637,183,-44.9379,10.8293,0,0,0,0,0,0,0,-1,587,841,-44.9379,-10.8293
-630,183,-47.6258,9.10583,0,0,0,0,0,0,0,-1,594,841,-47.6258,-9.10585
-623,183,-47.5877,8.15985,0.00267854,0.0153798,0.0116364,0.0222857,-0.00422735,1.03519,0.0164483,0.047444,601,841,-47.5877,-8.15984
-616,183,-47.6602,7.32104,0.000149248,0.0113947,0.00779637,0.0153844,-0.00384043,1.0978,0.0117476,0.0411315,608,841,-47.6602,-7.32104
-609,183,-47.7821,6.33051,-0.000396866,0.00884947,0.00541214,0.0113442,-0.00289163,1.13887,0.0086886,0.0196864,615,841,-47.7821,-6.33052
-602,183,-47.8415,5.33197,-0.000305654,0.00678312,0.00375692,0.00840373,-0.00192626,1.16355,0.00634283,0.0117816,622,841,-47.8415,-5.332
-595,183,-47.9017,4.35217,0.000310169,0.00520565,0.002811,0.00648526,-0.00096944,1.14361,0.00468024,0.0122399,629,841,-47.9017,-4.35218
-588,183,-47.934,3.40356,0.0012019,0.00409495,0.00252129,0.0055552,-0.000258349,1.04583,0.00379252,0.0155777,636,841,-47.934,-3.40356
-581,183,-48.0249,2.46161,0.00217504,0.00352213,0.0026521,0.00558487,0.000112294,0.909753,0.00368639,0.0172943,643,841,-48.0249,-2.46163
-574,183,-48.069,1.50867,0.00253461,0.00340895,0.0028015,0.00580718,0.000136377,0.862799,0.0038268,0.0254376,650,841,-48.069,-1.50864
-567,183,-48.0225,0.580811,0,0,0,0,0,0,0,-1,657,841,-48.0225,-0.58079
-560,183,-47.8532,-0.483398,0,0,0,0,0,0,0,-1,664,841,-47.8532,0.483385
-553,183,-47.9464,-1.70038,0,0,0,0,0,0,0,-1,671,841,-47.9464,1.7004
-546,183,-27.8053,-1.91199,0,0,0,0,0,0,0,-1,678,841,-27.8053,1.91201
-539,183,-16.8032,-0.417297,0,0,0,0,0,0,0,-1,685,841,-16.8032,0.41732
-532,183,-29.9686,0.953613,0,0,0,0,0,0,0,-1,692,841,-29.9686,-0.953627
-525,183,-55.6847,0.842468,0,0,0,0,0,0,0,-1,699,841,-55.6847,-0.842446
-518,183,-64.3937,-0.0055542,0,0,0,0,0,0,0,-1,706,841,-64.3937,0.00556082
-511,183,-64.3101,0.25592,-0.00332566,0.00388526,-0.000349406,0.00390215,-0.00334255,-1.52249,0.00418689,0.0410677,713,841,-64.3101,-0.255937
-504,183,-64.4783,0.422119,-0.00169325,0.00384589,-0.000819791,0.00396467,-0.00181203,-1.42691,0.0034115,0.0404103,720,841,-64.4783,-0.422092
-497,183,-64.6074,0.394409,0.00245326,0.00346603,-0.00184785,0.00487562,0.00104367,-0.919135,0.00296441,0.0409367,727,841,-64.6074,-0.394436
-490,183,-64.2783,0.449524,0.0113362,0.00235658,-0.00294998,0.0122187,0.00147417,-0.290653,0.00770156,0.0396395,734,841,-64.2783,-0.449525
-483,183,0,0,0,0,0,0,0,0,0,-1,741,841,0,0
-476,183,0,0,0,0,0,0,0,0,0,-1,748,841,0,0
-469,183,0,0,0,0,0,0,0,0,0,-1,755,841,0,0
-462,183,0,0,0,0,0,0,0,0,0,-1,762,841,0,0
-455,183,0,0,0,0,0,0,0,0,0,-1,769,841,0,0
-448,183,0,0,0,0,0,0,0,0,0,-1,776,841,0,0
-441,183,0,0,0,0,0,0,0,0,0,-1,783,841,0,0
-434,183,0,0,0,0,0,0,0,0,0,-1,790,841,0,0
-427,183,0,0,0,0,0,0,0,0,0,-1,797,841,0,0
-420,183,0,0,0,0,0,0,0,0,0,-1,804,841,0,0
-413,183,0,0,0,0,0,0,0,0,0,-1,811,841,0,0
-406,183,0,0,0,0,0,0,0,0,0,-1,818,841,0,0
-399,183,0,0,0,0,0,0,0,0,0,-1,825,841,0,0
-392,183,0,0,0,0,0,0,0,0,0,-1,832,841,0,0
-385,183,0,0,0,0,0,0,0,0,0,-1,839,841,0,0
-378,183,0,0,0,0,0,0,0,0,0,-1,846,841,0,0
-371,183,0,0,0,0,0,0,0,0,0,-1,853,841,0,0
-364,183,0,0,0,0,0,0,0,0,0,-1,860,841,0,0
-357,183,0,0,0,0,0,0,0,0,0,-1,867,841,0,0
-350,183,0,0,0,0,0,0,0,0,0,-1,874,841,0,0
-343,183,0,0,0,0,0,0,0,0,0,-1,881,841,0,0
-336,183,0,0,0,0,0,0,0,0,0,-1,888,841,0,0
-329,183,0,0,0,0,0,0,0,0,0,-1,895,841,0,0
-322,183,0,0,0,0,0,0,0,0,0,-1,902,841,0,0
-315,183,0,0,0,0,0,0,0,0,0,-1,909,841,0,0
-308,183,0,0,0,0,0,0,0,0,0,-1,916,841,0,0
-301,183,0,0,0,0,0,0,0,0,0,-1,923,841,0,0
-294,183,0,0,0,0,0,0,0,0,0,-1,930,841,0,0
-287,183,0,0,0,0,0,0,0,0,0,-1,937,841,0,0
-280,183,0,0,0,0,0,0,0,0,0,-1,944,841,0,0
-273,183,0,0,0,0,0,0,0,0,0,-1,951,841,0,0
-266,183,0,0,0,0,0,0,0,0,0,-1,958,841,0,0
-259,183,0,0,0,0,0,0,0,0,0,-1,965,841,0,0
-252,183,0,0,0,0,0,0,0,0,0,-1,972,841,0,0
-245,183,0,0,0,0,0,0,0,0,0,-1,979,841,0,0
-238,183,0,0,0,0,0,0,0,0,0,-1,986,841,0,0
-231,183,0,0,0,0,0,0,0,0,0,-1,993,841,0,0
-224,183,0,0,0,0,0,0,0,0,0,-1,1000,841,0,0
-217,183,0,0,0,0,0,0,0,0,0,-1,1007,841,0,0
-210,183,0,0,0,0,0,0,0,0,0,-1,1014,841,0,0
-203,183,0,0,0,0,0,0,0,0,0,-1,1021,841,0,0
-196,183,0,0,0,0,0,0,0,0,0,-1,1028,841,0,0
-189,183,0,0,0,0,0,0,0,0,0,-1,1035,841,0,0
-182,183,0,0,0,0,0,0,0,0,0,-1,1042,841,0,0
-175,183,0,0,0,0,0,0,0,0,0,-1,1049,841,0,0
-168,183,0,0,0,0,0,0,0,0,0,-1,1056,841,0,0
-161,183,0,0,0,0,0,0,0,0,0,-1,1063,841,0,0
-154,183,0,0,0,0,0,0,0,0,0,-1,1070,841,0,0
-147,183,0,0,0,0,0,0,0,0,0,-1,1077,841,0,0
-140,183,0,0,0,0,0,0,0,0,0,-1,1084,841,0,0
-133,183,0,0,0,0,0,0,0,0,0,-1,1091,841,0,0
-126,183,0,0,0,0,0,0,0,0,0,-1,1098,841,0,0
-119,183,0,0,0,0,0,0,0,0,0,-1,1105,841,0,0
-112,183,0,0,0,0,0,0,0,0,0,-1,1112,841,0,0
-105,183,0,0,0,0,0,0,0,0,0,-1,1119,841,0,0
-98,183,0,0,0,0,0,0,0,0,0,-1,1126,841,0,0
-91,183,0,0,0,0,0,0,0,0,0,-1,1133,841,0,0
-84,183,0,0,0,0,0,0,0,0,0,-1,1140,841,0,0
-77,183,0,0,0,0,0,0,0,0,0,-1,1147,841,0,0
-70,183,0,0,0,0,0,0,0,0,0,-1,1154,841,0,0
-63,183,0,0,0,0,0,0,0,0,0,-1,1161,841,0,0
-56,183,0,0,0,0,0,0,0,0,0,-1,1168,841,0,0
-49,183,0,0,0,0,0,0,0,0,0,-1,1175,841,0,0
-42,183,0,0,0,0,0,0,0,0,0,-1,1182,841,0,0
-35,183,0,0,0,0,0,0,0,0,0,-1,1189,841,0,0
-28,183,0,0,0,0,0,0,0,0,0,-1,1196,841,0,0
-21,183,0,0,0,0,0,0,0,0,0,-1,1203,841,0,0
-14,183,0,0,0,0,0,0,0,0,0,-1,1210,841,0,0
-7,183,0,0,0,0,0,0,0,0,0,-1,1217,841,0,0
0,183,0,0,0,0,0,0,0,0,0,-1,1224,841,0,0
7,183,0,0,0,0,0,0,0,0,0,-1,1231,841,0,0
14,183,0,0,0,0,0,0,0,0,0,-1,1238,841,0,0
21,183,0,0,0,0,0,0,0,0,0,-1,1245,841,0,0
28,183,0,0,0,0,0,0,0,0,0,-1,1252,841,0,0
35,183,0,0,0,0,0,0,0,0,0,-1,1259,841,0,0
42,183,0,0,0,0,0,0,0,0,0,-1,1266,841,0,0
49,183,0,0,0,0,0,0,0,0,0,-1,1273,841,0,0
56,183,0,0,0,0,0,0,0,0,0,-1,1280,841,0,0
63,183,0,0,0,0,0,0,0,0,0,-1,1287,841,0,0
70,183,0,0,0,0,0,0,0,0,0,-1,1294,841,0,0
77,183,0,0,0,0,0,0,0,0,0,-1,1301,841,0,0
84,183,0,0,0,0,0,0,0,0,0,-1,1308,841,0,0
91,183,0,0,0,0,0,0,0,0,0,-1,1315,841,0,0
98,183,0,0,0,0,0,0,0,0,0,-1,1322,841,0,0
105,183,0,0,0,0,0,0,0,0,0,-1,1329,841,0,0
112,183,0,0,0,0,0,0,0,0,0,-1,1336,841,0,0
119,183,0,0,0,0,0,0,0,0,0,-1,1343,841,0,0
126,183,0,0,0,0,0,0,0,0,0,-1,1350,841,0,0
133,183,0,0,0,0,0,0,0,0,0,-1,1357,841,0,0
140,183,0,0,0,0,0,0,0,0,0,-1,1364,841,0,0
147,183,0,0,0,0,0,0,0,0,0,-1,1371,841,0,0
154,183,0,0,0,0,0,0,0,0,0,-1,1378,841,0,0
161,183,0,0,0,0,0,0,0,0,0,-1,1385,841,0,0
168,183,0,0,0,0,0,0,0,0,0,-1,1392,841,0,0
175,183,0,0,0,0,0,0,0,0,0,-1,1399,841,0,0
182,183,0,0,0,0,0,0,0,0,0,-1,1406,841,0,0
189,183,0,0,0,0,0,0,0,0,0,-1,1413,841,0,0
196,183,0,0,0,0,0,0,0,0,0,-1,1420,841,0,0
203,183,0,0,0,0,0,0,0,0,0,-1,1427,841,0,0
210,183,0,0,0,0,0,0,0,0,0,-1,1434,841,0,0
217,183,0,0,0,0,0,0,0,0,0,-1,1441,841,0,0
224,183,0,0,0,0,0,0,0,0,0,-1,1448,841,0,0
231,183,0,0,0,0,0,0,0,0,0,-1,1455,841,0,0
238,183,0,0,0,0,0,0,0,0,0,-1,1462,841,0,0
245,183,0,0,0,0,0,0,0,0,0,-1,1469,841,0,0
252,183,0,0,0,0,0,0,0,0,0,-1,1476,841,0,0
259,183,0,0,0,0,0,0,0,0,0,-1,1483,841,0,0
266,183,0,0,0,0,0,0,0,0,0,-1,1490,841,0,0
273,183,0,0,0,0,0,0,0,0,0,-1,1497,841,0,0
280,183,0,0,0,0,0,0,0,0,0,-1,1504,841,0,0
287,183,0,0,0,0,0,0,0,0,0,-1,1511,841,0,0
294,183,0,0,0,0,0,0,0,0,0,-1,1518,841,0,0
301,183,0,0,0,0,0,0,0,0,0,-1,1525,841,0,0
308,183,0,0,0,0,0,0,0,0,0,-1,1532,841,0,0
315,183,0,0,0,0,0,0,0,0,0,-1,1539,841,0,0
322,183,0,0,0,0,0,0,0,0,0,-1,1546,841,0,0
329,183,0,0,0,0,0,0,0,0,0,-1,1553,841,0,0
336,183,0,0,0,0,0,0,0,0,0,-1,1560,841,0,0
343,183,0,0,0,0,0,0,0,0,0,-1,1567,841,0,0
350,183,0,0,0,0,0,0,0,0,0,-1,1574,841,0,0
357,183,0,0,0,0,0,0,0,0,0,-1,1581,841,0,0
364,183,0,0,0,0,0,0,0,0,0,-1,1588,841,0,0
371,183,0,0,0,0,0,0,0,0,0,-1,1595,841,0,0
378,183,0,0,0,0,0,0,0,0,0,-1,1602,841,0,0
385,183,0,0,0,0,0,0,0,0,0,-1,1609,841,0,0
392,183,0,0,0,0,0,0,0,0,0,-1,1616,841,0,0
399,183,0,0,0,0,0,0,0,0,0,-1,1623,841,0,0
406,183,0,0,0,0,0,0,0,0,0,-1,1630,841,0,0
413,183,0,0,0,0,0,0,0,0,0,-1,1637,841,0,0
420,183,0,0,0,0,0,0,0,0,0,-1,1644,841,0,0
427,183,0,0,0,0,0,0,0,0,0,-1,1651,841,0,0
434,183,0,0,0,0,0,0,0,0,0,-1,1658,841,0,0
441,183,0,0,0,0,0,0,0,0,0,-1,1665,841,0,0
448,183,0,0,0,0,0,0,0,0,0,-1,1672,841,0,0
455,183,0,0,0,0,0,0,0,0,0,-1,1679,841,0,0
462,183,0,0,0,0,0,0,0,0,0,-1,1686,841,0,0
469,183,0,0,0,0,0,0,0,0,0,-1,1693,841,0,0
476,183,0,0,0,0,0,0,0,0,0,-1,1700,841,0,0
483,183,0,0,0,0,0,0,0,0,0,-1,1707,841,0,0
490,183,0,0,0,0,0,0,0,0,0,-1,1714,841,0,0
497,183,0,0,0,0,0,0,0,0,0,-1,1721,841,0,0
504,183,0,0,0,0,0,0,0,0,0,-1,1728,841,0,0
511,183,0,0,0,0,0,0,0,0,0,-1,1735,841,0,0
518,183,0,0,0,0,0,0,0,0,0,-1,1742,841,0,0
525,183,0,0,0,0,0,0,0,0,0,-1,1749,841,0,0
532,183,0,0,0,0,0,0,0,0,0,-1,1756,841,0,0
539,183,0,0,0,0,0,0,0,0,0,-1,1763,841,0,0
546,183,0,0,0,0,0,0,0,0,0,-1,1770,841,0,0
553,183,0,0,0,0,0,0,0,0,0,-1,1777,841,0,0
560,183,0,0,0,0,0,0,0,0,0,-1,1784,841,0,0
567,183,0,0,0,0,0,0,0,0,0,-1,1791,841,0,0
574,183,0,0,0,0,0,0,0,0,0,-1,1798,841,0,0
581,183,0,0,0,0,0,0,0,0,0,-1,1805,841,0,0
588,183,0,0,0,0,0,0,0,0,0,-1,1812,841,0,0
595,183,0,0,0,0,0,0,0,0,0,-1,1819,841,0,0
602,183,0,0,0,0,0,0,0,0,0,-1,1826,841,0,0
609,183,80.6844,2.39679,0.00869191,0.000400408,-0.00281047,0.00955476,-0.000462435,-0.297875,0.00652944,0.0402597,1833,841,80.6845,-2.39677
616,183,80.8514,2.29199,0.00667912,0.00018519,-0.00152193,0.0070181,-0.000153796,-0.219157,0.00473083,0.0393755,1840,841,80.8514,-2.29199
623,183,81.0421,1.80096,0,0,0,0,0,0,0,-1,1847,841,81.0421,-1.80098
630,183,80.7301,2.21686,0.00291185,1.56393e-05,0.0010213,0.00323577,-0.000308275,0.307124,0.00226693,0.0427201,1854,841,80.7301,-2.21684
637,183,80.8258,2.20728,0.00201523,-5.44658e-05,0.00154919,0.00284342,-0.000882655,0.490938,0.00224835,0.0355097,1861,841,80.8258,-2.20728
644,183,80.7825,2.27014,0.00162152,-0.000114359,0.00174038,0.00269838,-0.00119121,0.554091,0.00230117,0.0276819,1868,841,80.7825,-2.27012
651,183,80.8298,2.31616,0.00124233,-0.00044284,0.00173702,0.00233033,-0.00153085,0.55958,0.00224513,0.0441637,1875,841,80.8299,-2.31615
658,183,80.9139,2.29163,0,0,0,0,0,0,0,-1,1882,841,80.914,-2.2916
665,183,38.4337,2.66992,0,0,0,0,0,0,0,-1,1889,841,38.4337,-2.6699
672,183,29.168,1.54572,0,0,0,0,0,0,0,-1,1896,841,29.168,-1.54574
679,183,64.7996,-1.34003,0,0,0,0,0,0,0,-1,1903,841,64.7995,1.34005
686,183,64.8149,-0.415771,-0.00110949,-0.000285542,0.000359007,-0.000151065,-0.00124396,1.21239,0.000783822,0.0389676,1910,841,64.815,0.415775
693,183,64.7648,0.435547,-0.00142529,-0.000479,-9.25472e-05,-0.000470033,-0.00143425,-1.47422,0.000844292,0.0355875,1917,841,64.7648,-0.435529
700,183,64.4862,1.38757,0,0,0,0,0,0,0,-1,1924,841,64.4862,-1.38759
707,183,64.5027,2.33978,-0.00202218,0.000186595,-0.000988382,0.00056429,-0.00239988,-1.20578,0.00181745,0.0145451,1931,841,64.5027,-2.33981
714,183,64.547,3.25134,-0.001381,0.0011701,-0.000922313,0.00146862,-0.00167952,-1.25777,0.00181893,0.0174698,1938,841,64.5471,-3.25135
721,183,64.4829,4.19934,1.95523e-05,0.00196365,-0.000505582,0.00208727,-0.000104068,-1.33099,0.00142747,0.016624,1945,841,64.4829,-4.19933
728,183,64.3668,5.10596,0.00179184,0.00264001,0.000277471,0.00272272,0.00170913,1.28111,0.00158897,0.0148289,1952,841,64.3668,-5.10598
735,183,64.3195,5.99762,0.00394312,0.00330243,0.00121395,0.00487828,0.00236727,0.656396,0.00281688,0.0137433,1959,841,64.3195,-5.9976
742,183,64.2694,6.94202,0.00649201,0.0038845,0.00229739,0.00782981,0.00254671,0.52731,0.00461164,0.0139945,1966,841,64.2693,-6.942
749,183,64.2939,8.1416,0.00954529,0.00444871,0.00363123,0.0114332,0.00256083,0.479441,0.0069281,0.0376213,1973,841,64.294,-8.14162
756,183,64.332,9.38263,0,0,0,0,0,0,0,-1,1980,841,64.332,-9.38263
763,183,63.7366,10.6603,0,0,0,0,0,0,0,-1,1987,841,63.7366,-10.6603
770,183,51.5659,9.50665,0,0,0,0,0,0,0,-1,1994,841,51.5659,-9.50663
777,183,42.1948,7.22906,0,0,0,0,0,0,0,-1,2001,841,42.1948,-7.22905
784,183,0,0,0,0,0,0,0,0,0,-1,2008,841,0,0
791,183,0,0,0,0,0,0,0,0,0,-1,2015,841,0,0
798,183,0,0,0,0,0,0,0,0,0,-1,2022,841,0,0
805,183,0,0,0,0,0,0,0,0,0,-1,2029,841,0,0
812,183,0,0,0,0,0,0,0,0,0,-1,2036,841,0,0
-700,176,0,0,0,0,0,0,0,0,0,-1,524,848,0,0
-693,176,0,0,0,0,0,0,0,0,0,-1,531,848,0,0
-686,176,0,0,0,0,0,0,0,0,0,-1,538,848,0,0
-679,176,0,0,0,0,0,0,0,0,0,-1,545,848,0,0
-672,176,0,0,0,0,0,0,0,0,0,-1,552,848,0,0
-665,176,-59.6962,8.75854,0,0,0,0,0,0,0,-1,559,848,-59.6962,-8.75853
-658,176,-59.6349,7.95142,0,0,0,0,0,0,0,-1,566,848,-59.6349,-7.95144
-651,176,-48.0698,11.1422,0,0,0,0,0,0,0,-1,573,848,-48.0697,-11.1421
-644,176,-44.7598,11.0023,0,0,0,0,0,0,0,-1,580,848,-44.7598,-11.0023
-637,176,-48.3014,9.77625,0,0,0,0,0,0,0,-1,587,848,-48.3014,-9.77625
-630,176,-48.6365,8.82495,0.00642687,0.0168482,0.0172548,0.029662,-0.00638689,0.932036,0.0222118,0.0450413,594,848,-48.6366,-8.82498
-623,176,-48.7193,8.03851,0.00314245,0.0132179,0.0119508,0.0211494,-0.00478906,0.984865,0.0159376,0.0397575,601,848,-48.7193,-8.03853
-616,176,-48.7366,7.25067,0.000729143,0.0097648,0.00822999,0.0146355,-0.00414151,1.03642,0.0113913,0.0287919,608,848,-48.7366,-7.25067
-609,176,-48.7664,6.33429,6.24132e-05,0.00753509,0.0057747,0.0106768,-0.00307929,1.07254,0.00833607,0.0131664,615,848,-48.7664,-6.33427
-602,176,-48.8062,5.3631,2.09126e-05,0.00577506,0.00396498,0.00779682,-0.00200085,1.09926,0.00597752,0.0125281,622,848,-48.8061,-5.36307
-595,176,-48.8597,4.39587,0.00050167,0.00450493,0.00284617,0.00598284,-0.000976239,1.09186,0.00435064,0.012681,629,848,-48.8597,-4.3959
-588,176,-48.8837,3.46674,0.00126105,0.00368167,0.00241687,0.00517434,-0.000231623,1.01753,0.0035293,0.015398,636,848,-48.8837,-3.46672
-581,176,-49.0012,2.56848,0.0020519,0.0033634,0.00247836,0.0052713,0.000144001,0.914729,0.0034672,0.0164995,643,848,-49.0012,-2.56851
-574,176,-49.1725,1.67371,0.00219028,0.00332014,0.00268274,0.00549678,1.36343e-05,0.889172,0.00365999,0.0330488,650,848,-49.1725,-1.6737
-567,176,-48.8881,0.743835,0.00166856,0.002391,0.00160031,0.00367035,0.000389206,0.896396,0.00232804,0.0484069,657,848,-48.8881,-0.743838
-560,176,-48.8544,-0.422852,0,0,0,0,0,0,0,-1,664,848,-48.8544,0.422873
-553,176,-48.7212,-1.62811,0,0,0,0,0,0,0,-1,671,848,-48.7212,1.6281
-546,176,-16.657,-0.403198,0,0,0,0,0,0,0,-1,678,848,-16.657,0.403182
-539,176,-22.7061,1.48657,0,0,0,0,0,0,0,-1,685,848,-22.7061,-1.48657
-532,176,-38.8326,1.29749,0,0,0,0,0,0,0,-1,692,848,-38.8326,-1.29747
-525,176,-64.1638,0.285461,0,0,0,0,0,0,0,-1,699,848,-64.1638,-0.285441
-518,176,-64.2844,0.209839,-0.00174313,0.00380858,-0.000486596,0.00385091,-0.00178546,-1.48403,0.00332619,0.0441032,706,848,-64.2844,-0.209812
-511,176,-64.3859,0.0829468,-0.00277438,0.0034019,-0.00093837,0.00354132,-0.0029138,-1.4233,0.00373273,0.0393361,713,848,-64.3859,-0.0829677
-504,176,-64.4905,0.251282,0.000197725,0.00318819,-0.00166531,0.00393103,-0.000545115,-1.15122,0.00282001,0.0396695,720,848,-64.4905,-0.251255
-497,176,-64.4622,0.411072,0.00584764,0.00259027,-0.00283599,0.00748934,0.000948562,-0.524747,0.00470866,0.0407572,727,848,-64.4622,-0.411074
-490,176,-64.1568,0.448425,0.0158388,0.00107026,-0.00364846,0.0166909,0.000218108,-0.229453,0.0110553,0.0392464,734,848,-64.1568,-0.448409
-483,176,0,0,0,0,0,0,0,0,0,-1,741,848,0,0
-476,176,0,0,0,0,0,0,0,0,0,-1,748,848,0,0
-469,176,0,0,0,0,0,0,0,0,0,-1,755,848,0,0
-462,176,0,0,0,0,0,0,0,0,0,-1,762,848,0,0
-455,176,0,0,0,0,0,0,0,0,0,-1,769,848,0,0
-448,176,0,0,0,0,0,0,0,0,0,-1,776,848,0,0
-441,176,0,0,0,0,0,0,0,0,0,-1,783,848,0,0
-434,176,0,0,0,0,0,0,0,0,0,-1,790,848,0,0
-427,176,0,0,0,0,0,0,0,0,0,-1,797,848,0,0
-420,176,0,0,0,0,0,0,0,0,0,-1,804,848,0,0
-413,176,0,0,0,0,0,0,0,0,0,-1,811,848,0,0
-406,176,0,0,0,0,0,0,0,0,0,-1,818,848,0,0
-399,176,0,0,0,0,0,0,0,0,0,-1,825,848,0,0
-392,176,0,0,0,0,0,0,0,0,0,-1,832,848,0,0
-385,176,0,0,0,0,0,0,0,0,0,-1,839,848,0,0
-378,176,0,0,0,0,0,0,0,0,0,-1,846,848,0,0
-371,176,0,0,0,0,0,0,0,0,0,-1,853,848,0,0
-364,176,0,0,0,0,0,0,0,0,0,-1,860,848,0,0
-357,176,0,0,0,0,0,0,0,0,0,-1,867,848,0,0
-350,176,0,0,0,0,0,0,0,0,0,-1,874,848,0,0
-343,176,0,0,0,0,0,0,0,0,0,-1,881,848,0,0
-336,176,0,0,0,0,0,0,0,0,0,-1,888,848,0,0
-329,176,0,0,0,0,0,0,0,0,0,-1,895,848,0,0
-322,176,0,0,0,0,0,0,0,0,0,-1,902,848,0,0
-315,176,0,0,0,0,0,0,0,0,0,-1,909,848,0,0
-308,176,0,0,0,0,0,0,0,0,0,-1,916,848,0,0
-301,176,0,0,0,0,0,0,0,0,0,-1,923,848,0,0
-294,176,0,0,0,0,0,0,0,0,0,-1,930,848,0,0
-287,176,0,0,0,0,0,0,0,0,0,-1,937,848,0,0
-280,176,0,0,0,0,0,0,0,0,0,-1,944,848,0,0
-273,176,0,0,0,0,0,0,0,0,0,-1,951,848,0,0
-266,176,0,0,0,0,0,0,0,0,0,-1,958,848,0,0
-259,176,0,0,0,0,0,0,0,0,0,-1,965,848,0,0
-252,176,0,0,0,0,0,0,0,0,0,-1,972,848,0,0
-245,176,0,0,0,0,0,0,0,0,0,-1,979,848,0,0
-238,176,0,0,0,0,0,0,0,0,0,-1,986,848,0,0
-231,176,0,0,0,0,0,0,0,0,0,-1,993,848,0,0
-224,176,0,0,0,0,0,0,0,0,0,-1,1000,848,0,0
-217,176,0,0,0,0,0,0,0,0,0,-1,1007,848,0,0
-210,176,0,0,0,0,0,0,0,0,0,-1,1014,848,0,0
-203,176,0,0,0,0,0,0,0,0,0,-1,1021,848,0,0
-196,176,0,0,0,0,0,0,0,0,0,-1,1028,848,0,0
-189,176,0,0,0,0,0,0,0,0,0,-1,1035,848,0,0
-182,176,0,0,0,0,0,0,0,0,0,-1,1042,848,0,0
-175,176,0,0,0,0,0,0,0,0,0,-1,1049,848,0,0
-168,176,0,0,0,0,0,0,0,0,0,-1,1056,848,0,0
-161,176,0,0,0,0,0,0,0,0,0,-1,1063,848,0,0
-154,176,0,0,0,0,0,0,0,0,0,-1,1070,848,0,0
-147,176,0,0,0,0,0,0,0,0,0,-1,1077,848,0,0
-140,176,0,0,0,0,0,0,0,0,0,-1,1084,848,0,0
-133,176,0,0,0,0,0,0,0,0,0,-1,1091,848,0,0
-126,176,0,0,0,0,0,0,0,0,0,-1,1098,848,0,0
-119,176,0,0,0,0,0,0,0,0,0,-1,1105,848,0,0
-112,176,0,0,0,0,0,0,0,0,0,-1,1112,848,0,0
-105,176,0,0,0,0,0,0,0,0,0,-1,1119,848,0,0
-98,176,0,0,0,0,0,0,0,0,0,-1,1126,848,0,0
-91,176,0,0,0,0,0,0,0,0,0,-1,1133,848,0,0
-84,176,0,0,0,0,0,0,0,0,0,-1,1140,848,0,0
-77,176,0,0,0,0,0,0,0,0,0,-1,1147,848,0,0
-70,176,0,0,0,0,0,0,0,0,0,-1,1154,848,0,0
-63,176,0,0,0,0,0,0,0,0,0,-1,1161,848,0,0
-56,176,0,0,0,0,0,0,0,0,0,-1,1168,848,0,0
-49,176,0,0,0,0,0,0,0,0,0,-1,1175,848,0,0
-42,176,0,0,0,0,0,0,0,0,0,-1,1182,848,0,0
-35,176,0,0,0,0,0,0,0,0,0,-1,1189,848,0,0
-28,176,0,0,0,0,0,0,0,0,0,-1,1196,848,0,0
-21,176,0,0,0,0,0,0,0,0,0,-1,1203,848,0,0
-14,176,0,0,0,0,0,0,0,0,0,-1,1210,848,0,0
-7,176,0,0,0,0,0,0,0,0,0,-1,1217,848,0,0
0,176,0,0,0,0,0,0,0,0,0,-1,1224,848,0,0
7,176,0,0,0,0,0,0,0,0,0,-1,1231,848,0,0
14,176,0,0,0,0,0,0,0,0,0,-1,1238,848,0,0
21,176,0,0,0,0,0,0,0,0,0,-1,1245,848,0,0
28,176,0,0,0,0,0,0,0,0,0,-1,1252,848,0,0
35,176,0,0,0,0,0,0,0,0,0,-1,1259,848,0,0
42,176,0,0,0,0,0,0,0,0,0,-1,1266,848,0,0
49,176,0,0,0,0,0,0,0,0,0,-1,1273,848,0,0
56,176,0,0,0,0,0,0,0,0,0,-1,1280,848,0,0
63,176,0,0,0,0,0,0,0,0,0,-1,1287,848,0,0
70,176,0,0,0,0,0,0,0,0,0,-1,1294,848,0,0
77,176,0,0,0,0,0,0,0,0,0,-1,1301,848,0,0
84,176,0,0,0,0,0,0,0,0,0,-1,1308,848,0,0
91,176,0,0,0,0,0,0,0,0,0,-1,1315,848,0,0
98,176,0,0,0,0,0,0,0,0,0,-1,1322,848,0,0
105,176,0,0,0,0,0,0,0,0,0,-1,1329,848,0,0
112,176,0,0,0,0,0,0,0,0,0,-1,1336,848,0,0
119,176,0,0,0,0,0,0,0,0,0,-1,1343,848,0,0
126,176,0,0,0,0,0,0,0,0,0,-1,1350,848,0,0
133,176,0,0,0,0,0,0,0,0,0,-1,1357,848,0,0
140,176,0,0,0,0,0,0,0,0,0,-1,1364,848,0,0
147,176,0,0,0,0,0,0,0,0,0,-1,1371,848,0,0
154,176,0,0,0,0,0,0,0,0,0,-1,1378,848,0,0
161,176,0,0,0,0,0,0,0,0,0,-1,1385,848,0,0
168,176,0,0,0,0,0,0,0,0,0,-1,1392,848,0,0
175,176,0,0,0,0,0,0,0,0,0,-1,1399,848,0,0
182,176,0,0,0,0,0,0,0,0,0,-1,1406,848,0,0
189,176,0,0,0,0,0,0,0,0,0,-1,1413,848,0,0
196,176,0,0,0,0,0,0,0,0,0,-1,1420,848,0,0
203,176,0,0,0,0,0,0,0,0,0,-1,1427,848,0,0
210,176,0,0,0,0,0,0,0,0,0,-1,1434,848,0,0
217,176,0,0,0,0,0,0,0,0,0,-1,1441,848,0,0
224,176,0,0,0,0,0,0,0,0,0,-1,1448,848,0,0
231,176,0,0,0,0,0,0,0,0,0,-1,1455,848,0,0
238,176,0,0,0,0,0,0,0,0,0,-1,1462,848,0,0
245,176,0,0,0,0,0,0,0,0,0,-1,1469,848,0,0
252,176,0,0,0,0,0,0,0,0,0,-1,1476,848,0,0
259,176,0,0,0,0,0,0,0,0,0,-1,1483,848,0,0
266,176,0,0,0,0,0,0,0,0,0,-1,1490,848,0,0
273,176,0,0,0,0,0,0,0,0,0,-1,1497,848,0,0
280,176,0,0,0,0,0,0,0,0,0,-1,1504,848,0,0
287,176,0,0,0,0,0,0,0,0,0,-1,1511,848,0,0
294,176,0,0,0,0,0,0,0,0,0,-1,1518,848,0,0
301,176,0,0,0,0,0,0,0,0,0,-1,1525,848,0,0
308,176,0,0,0,0,0,0,0,0,0,-1,1532,848,0,0
315,176,0,0,0,0,0,0,0,0,0,-1,1539,848,0,0
322,176,0,0,0,0,0,0,0,0,0,-1,1546,848,0,0
329,176,0,0,0,0,0,0,0,0,0,-1,1553,848,0,0
336,176,0,0,0,0,0,0,0,0,0,-1,1560,848,0,0
343,176,0,0,0,0,0,0,0,0,0,-1,1567,848,0,0
350,176,0,0,0,0,0,0,0,0,0,-1,1574,848,0,0
357,176,0,0,0,0,0,0,0,0,0,-1,1581,848,0,0
364,176,0,0,0,0,0,0,0,0,0,-1,1588,848,0,0
371,176,0,0,0,0,0,0,0,0,0,-1,1595,848,0,0
378,176,0,0,0,0,0,0,0,0,0,-1,1602,848,0,0
385,176,0,0,0,0,0,0,0,0,0,-1,1609,848,0,0
392,176,0,0,0,0,0,0,0,0,0,-1,1616,848,0,0
399,176,0,0,0,0,0,0,0,0,0,-1,1623,848,0,0
406,176,0,0,0,0,0,0,0,0,0,-1,1630,848,0,0
413,176,0,0,0,0,0,0,0,0,0,-1,1637,848,0,0
420,176,0,0,0,0,0,0,0,0,0,-1,1644,848,0,0
427,176,0,0,0,0,0,0,0,0,0,-1,1651,848,0,0
434,176,0,0,0,0,0,0,0,0,0,-1,1658,848,0,0
441,176,0,0,0,0,0,0,0,0,0,-1,1665,848,0,0
448,176,0,0,0,0,0,0,0,0,0,-1,1672,848,0,0
455,176,0,0,0,0,0,0,0,0,0,-1,1679,848,0,0
462,176,0,0,0,0,0,0,0,0,0,-1,1686,848,0,0
469,176,0,0,0,0,0,0,0,0,0,-1,1693,848,0,0
476,176,0,0,0,0,0,0,0,0,0,-1,1700,848,0,0
483,176,0,0,0,0,0,0,0,0,0,-1,1707,848,0,0
490,176,0,0,0,0,0,0,0,0,0,-1,1714,848,0,0
497,176,0,0,0,0,0,0,0,0,0,-1,1721,848,0,0
504,176,0,0,0,0,0,0,0,0,0,-1,1728,848,0,0
511,176,0,0,0,0,0,0,0,0,0,-1,1735,848,0,0
518,176,0,0,0,0,0,0,0,0,0,-1,1742,848,0,0
525,176,0,0,0,0,0,0,0,0,0,-1,1749,848,0,0
532,176,0,0,0,0,0,0,0,0,0,-1,1756,848,0,0
539,176,0,0,0,0,0,0,0,0,0,-1,1763,848,0,0
546,176,0,0,0,0,0,0,0,0,0,-1,1770,848,0,0
553,176,0,0,0,0,0,0,0,0,0,-1,1777,848,0,0
560,176,0,0,0,0,0,0,0,0,0,-1,1784,848,0,0
567,176,0,0,0,0,0,0,0,0,0,-1,1791,848,0,0
574,176,0,0,0,0,0,0,0,0,0,-1,1798,848,0,0
581,176,0,0,0,0,0,0,0,0,0,-1,1805,848,0,0
588,176,0,0,0,0,0,0,0,0,0,-1,1812,848,0,0
595,176,0,0,0,0,0,0,0,0,0,-1,1819,848,0,0
602,176,0,0,0,0,0,0,0,0,0,-1,1826,848,0,0
609,176,80.7292,2.3399,0.00850633,0.000102228,-0.00353392,0.0097948,-0.00118624,-0.349622,0.00695906,0.0392665,1833,848,80.7292,-2.33993
616,176,80.8137,2.10529,0.00662694,-5.17625e-05,-0.00207072,0.00721686,-0.00064168,-0.277533,0.00503877,0.0406937,1840,848,80.8138,-2.10528
623,176,81.0555,1.78979,0.00475992,-0.000230707,-0.000644564,0.00484183,-0.000312612,-0.126392,0.00333697,0.0468752,1847,848,81.0556,-1.78977
630,176,81.0183,2.12262,0.00311125,-0.000297999,0.000604239,0.00321517,-0.000401924,0.170326,0.00228922,0.0444146,1854,848,81.0183,-2.12265
637,176,80.936,2.23541,0.00202251,-0.000410328,0.00135406,0.0026263,-0.00101412,0.419447,0.00216941,0.0330504,1861,848,80.9361,-2.23543
644,176,80.7887,2.30945,0.00141967,-0.000515325,0.00168041,0.0023912,-0.00148685,0.524199,0.00225919,0.0290431,1868,848,80.7887,-2.30946
651,176,80.7607,2.349,0.000944366,-0.000858386,0.00174357,0.00200577,-0.00191979,0.546832,0.0022666,0.0339558,1875,848,80.7607,-2.34899
658,176,80.8123,2.27002,0,0,0,0,0,0,0,-1,1882,848,80.8123,-2.27005
665,176,54.3333,2.34277,0,0,0,0,0,0,0,-1,1889,848,54.3333,-2.34279
672,176,16.9304,2.80719,0,0,0,0,0,0,0,-1,1896,848,16.9305,-2.80719
679,176,50.9341,0.315979,0,0,0,0,0,0,0,-1,1903,848,50.9341,-0.315984
686,176,65.6334,-0.3396,0,0,0,0,0,0,0,-1,1910,848,65.6334,0.339571
693,176,65.7362,0.593445,-0.00161776,-0.000715217,-0.000329964,-0.000607451,-0.00172552,-1.25512,0.00101067,0.0359867,1917,848,65.7363,-0.593416
700,176,65.6431,1.64178,0,0,0,0,0,0,0,-1,1924,848,65.643,-1.64178
707,176,65.6,2.4715,-0.00224113,-4.50921e-06,-0.00128564,0.000581144,-0.00282679,-1.14335,0.00210515,0.0355156,1931,848,65.5999,-2.47148
714,176,65.3979,3.29175,-0.00186308,0.000991697,-0.00136364,0.00153838,-0.00240976,-1.18952,0.00229789,0.0158314,1938,848,65.3979,-3.29178
721,176,65.3818,4.2215,-0.000698294,0.00178623,-0.00113039,0.00222355,-0.00113561,-1.20166,0.00197302,0.0141108,1945,848,65.3818,-4.22152
728,176,65.2902,5.151,0.000911761,0.00243304,-0.00054494,0.0026081,0.000736702,-1.25996,0.00155256,0.0165619,1952,848,65.2902,-5.151
735,176,65.2477,6.06067,0.00303765,0.00314135,0.000162307,0.00325989,0.00291911,0.939996,0.00206904,0.015438,1959,848,65.2477,-6.06066
742,176,65.1987,6.98071,0.00554172,0.00383859,0.000922248,0.00594543,0.00343489,0.412613,0.0034464,0.0247828,1966,848,65.1987,-6.98073
749,176,65.3981,8.06952,0.00848093,0.00458362,0.00176275,0.00915992,0.00390463,0.367674,0.00530761,0.0374112,1973,848,65.398,-8.06949
756,176,65.6838,9.23651,0,0,0,0,0,0,0,-1,1980,848,65.6838,-9.23652
763,176,44.4343,7.70581,0,0,0,0,0,0,0,-1,1987,848,44.4343,-7.70578
770,176,36.4186,4.25641,0,0,0,0,0,0,0,-1,1994,848,36.4186,-4.25639
777,176,43.8328,7.50177,0,0,0,0,0,0,0,-1,2001,848,43.8328,-7.50178
784,176,0,0,0,0,0,0,0,0,0,-1,2008,848,0,0
791,176,0,0,0,0,0,0,0,0,0,-1,2015,848,0,0
798,176,0,0,0,0,0,0,0,0,0,-1,2022,848,0,0
805,176,0,0,0,0,0,0,0,0,0,-1,2029,848,0,0
812,176,0,0,0,0,0,0,0,0,0,-1,2036,848,0,0
-700,169,0,0,0,0,0,0,0,0,0,-1,524,855,0,0
-693,169,0,0,0,0,0,0,0,0,0,-1,531,855,0,0
-686,169,0,0,0,0,0,0,0,0,0,-1,538,855,0,0
-679,169,0,0,0,0,0,0,0,0,0,-1,545,855,0,0
-672,169,0,0,0,0,0,0,0,0,0,-1,552,855,0,0
-665,169,-50.4697,8.3269,0,0,0,0,0,0,0,-1,559,855,-50.4697,-8.32688
-658,169,-58.8608,8.22839,0,0,0,0,0,0,0,-1,566,855,-58.8608,-8.2284
-651,169,-45.2885,12.1717,0,0,0,0,0,0,0,-1,573,855,-45.2885,-12.1717
-644,169,-51.215,8.30884,0,0,0,0,0,0,0,-1,580,855,-51.215,-8.30883
-637,169,-49.9127,9.28314,0,0,0,0,0,0,0,-1,587,855,-49.9126,-9.28317
-630,169,-50.0427,8.55444,0.00551541,0.0147312,0.0162883,0.0270509,-0.00680423,0.923245,0.0206786,0.0455802,594,855,-50.0427,-8.55445
-623,169,-49.8964,7.92035,0.00276493,0.0114364,0.0115353,0.0194238,-0.00522253,0.965163,0.0149963,0.0374854,601,855,-49.8964,-7.92033
-616,169,-49.6784,7.21783,0.000676869,0.00837347,0.0080937,0.0134872,-0.00443683,1.00731,0.0107792,0.0235072,608,855,-49.6784,-7.21782
-609,169,-49.7178,6.36615,4.31429e-05,0.00639307,0.00573177,0.00977048,-0.00333426,1.03832,0.00786432,0.0153001,615,855,-49.7177,-6.36612
-602,169,-49.7805,5.42383,-3.71512e-05,0.00487581,0.00394617,0.00706762,-0.00222896,1.0638,0.00560448,0.0145083,622,855,-49.7805,-5.42381
-595,169,-49.8312,4.45599,0.000367172,0.00381209,0.00283286,0.00540505,-0.00122578,1.05855,0.0040739,0.0137081,629,855,-49.8313,-4.45599
-588,169,-49.8497,3.53931,0.00105741,0.00313321,0.0024176,0.00472628,-0.000535669,0.988156,0.00334374,0.012878,636,855,-49.8497,-3.53929
-581,169,-49.9517,2.664,0.00172847,0.00288448,0.00249331,0.00486591,-0.000252954,0.899298,0.00333146,0.0297467,643,855,-49.9517,-2.66403
-574,169,-50.344,1.69812,0.00167138,0.00288819,0.00270525,0.00505261,-0.000493036,0.896007,0.0035442,0.0450434,650,855,-50.344,-1.69813
-567,169,-50.1578,0.695007,0.00113633,0.00207124,0.0015608,0.00323309,-2.55089e-05,0.930896,0.00216394,0.0389993,657,855,-50.1578,-0.69503
-560,169,-50.2524,-0.151489,0,0,0,0,0,0,0,-1,664,855,-50.2524,0.151485
-553,169,-32.1944,-0.787964,0,0,0,0,0,0,0,-1,671,855,-32.1944,0.787959
-546,169,-19.0852,-1.05609,0,0,0,0,0,0,0,-1,678,855,-19.0852,1.05612
-539,169,-33.2307,1.10706,0,0,0,0,0,0,0,-1,685,855,-33.2307,-1.10708
-532,169,-63.9528,-0.102661,0,0,0,0,0,0,0,-1,692,855,-63.9528,0.102655
-525,169,-64.1082,0.417786,0,0,0,0,0,0,0,-1,699,855,-64.1081,-0.417771
-518,169,-64.2933,0.376648,-0.00176172,0.00344038,-0.0010165,0.00363195,-0.00195329,-1.38452,0.00327283,0.0413973,706,855,-64.2933,-0.376657
-511,169,-64.3813,0.0823975,-0.0019475,0.00305926,-0.00171952,0.00359293,-0.00248117,-1.26986,0.00352641,0.0392483,713,855,-64.3813,-0.0824278
-504,169,-64.3428,0.126465,0.00227409,0.00293999,-0.0026561,0.00528393,-6.98485e-05,-0.847749,0.00354613,0.0394575,720,855,-64.3428,-0.126458
-497,169,-64.22,0.386658,0.00865434,0.00248324,-0.00379415,0.0104592,0.000678375,-0.444018,0.00675804,0.0416328,727,855,-64.22,-0.386667
-490,169,0,0,0,0,0,0,0,0,0,-1,734,855,0,0
-483,169,0,0,0,0,0,0,0,0,0,-1,741,855,0,0
-476,169,0,0,0,0,0,0,0,0,0,-1,748,855,0,0
-469,169,0,0,0,0,0,0,0,0,0,-1,755,855,0,0
-462,169,0,0,0,0,0,0,0,0,0,-1,762,855,0,0
-455,169,0,0,0,0,0,0,0,0,0,-1,769,855,0,0
-448,169,0,0,0,0,0,0,0,0,0,-1,776,855,0,0
-441,169,0,0,0,0,0,0,0,0,0,-1,783,855,0,0
-434,169,0,0,0,0,0,0,0,0,0,-1,790,855,0,0
-427,169,0,0,0,0,0,0,0,0,0,-1,797,855,0,0
-420,169,0,0,0,0,0,0,0,0,0,-1,804,855,0,0
-413,169,0,0,0,0,0,0,0,0,0,-1,811,855,0,0
-406,169,0,0,0,0,0,0,0,0,0,-1,818,855,0,0
-399,169,0,0,0,0,0,0,0,0,0,-1,825,855,0,0
-392,169,0,0,0,0,0,0,0,0,0,-1,832,855,0,0
-385,169,0,0,0,0,0,0,0,0,0,-1,839,855,0,0
-378,169,0,0,0,0,0,0,0,0,0,-1,846,855,0,0
-371,169,0,0,0,0,0,0,0,0,0,-1,853,855,0,0
-364,169,0,0,0,0,0,0,0,0,0,-1,860,855,0,0
-357,169,0,0,0,0,0,0,0,0,0,-1,867,855,0,0
-350,169,0,0,0,0,0,0,0,0,0,-1,874,855,0,0
-343,169,0,0,0,0,0,0,0,0,0,-1,881,855,0,0
-336,169,0,0,0,0,0,0,0,0,0,-1,888,855,0,0
-329,169,0,0,0,0,0,0,0,0,0,-1,895,855,0,0
-322,169,0,0,0,0,0,0,0,0,0,-1,902,855,0,0
-315,169,0,0,0,0,0,0,0,0,0,-1,909,855,0,0
-308,169,0,0,0,0,0,0,0,0,0,-1,916,855,0,0
-301,169,0,0,0,0,0,0,0,0,0,-1,923,855,0,0
-294,169,0,0,0,0,0,0,0,0,0,-1,930,855,0,0
-287,169,0,0,0,0,0,0,0,0,0,-1,937,855,0,0
-280,169,0,0,0,0,0,0,0,0,0,-1,944,855,0,0
-273,169,0,0,0,0,0,0,0,0,0,-1,951,855,0,0
-266,169,0,0,0,0,0,0,0,0,0,-1,958,855,0,0
-259,169,0,0,0,0,0,0,0,0,0,-1,965,855,0,0
-252,169,0,0,0,0,0,0,0,0,0,-1,972,855,0,0
-245,169,0,0,0,0,0,0,0,0,0,-1,979,855,0,0
-238,169,0,0,0,0,0,0,0,0,0,-1,986,855,0,0
-231,169,0,0,0,0,0,0,0,0,0,-1,993,855,0,0
-224,169,0,0,0,0,0,0,0,0,0,-1,1000,855,0,0
-217,169,0,0,0,0,0,0,0,0,0,-1,1007,855,0,0
-210,169,0,0,0,0,0,0,0,0,0,-1,1014,855,0,0
-203,169,0,0,0,0,0,0,0,0,0,-1,1021,855,0,0
-196,169,0,0,0,0,0,0,0,0,0,-1,1028,855,0,0
-189,169,0,0,0,0,0,0,0,0,0,-1,1035,855,0,0
-182,169,0,0,0,0,0,0,0,0,0,-1,1042,855,0,0
-175,169,0,0,0,0,0,0,0,0,0,-1,1049,855,0,0
-168,169,0,0,0,0,0,0,0,0,0,-1,1056,855,0,0
-161,169,0,0,0,0,0,0,0,0,0,-1,1063,855,0,0
-154,169,0,0,0,0,0,0,0,0,0,-1,1070,855,0,0
-147,169,0,0,0,0,0,0,0,0,0,-1,1077,855,0,0
-140,169,0,0,0,0,0,0,0,0,0,-1,1084,855,0,0
-133,169,0,0,0,0,0,0,0,0,0,-1,1091,855,0,0
-126,169,0,0,0,0,0,0,0,0,0,-1,1098,855,0,0
-119,169,0,0,0,0,0,0,0,0,0,-1,1105,855,0,0
-112,169,0,0,0,0,0,0,0,0,0,-1,1112,855,0,0
-105,169,0,0,0,0,0,0,0,0,0,-1,1119,855,0,0
-98,169,0,0,0,0,0,0,0,0,0,-1,1126,855,0,0
-91,169,0,0,0,0,0,0,0,0,0,-1,1133,855,0,0
-84,169,0,0,0,0,0,0,0,0,0,-1,1140,855,0,0
-77,169,0,0,0,0,0,0,0,0,0,-1,1147,855,0,0
-70,169,0,0,0,0,0,0,0,0,0,-1,1154,855,0,0
-63,169,0,0,0,0,0,0,0,0,0,-1,1161,855,0,0
-56,169,0,0,0,0,0,0,0,0,0,-1,1168,855,0,0
-49,169,0,0,0,0,0,0,0,0,0,-1,1175,855,0,0
-42,169,0,0,0,0,0,0,0,0,0,-1,1182,855,0,0
-35,169,0,0,0,0,0,0,0,0,0,-1,1189,855,0,0
-28,169,0,0,0,0,0,0,0,0,0,-1,1196,855,0,0
-21,169,0,0,0,0,0,0,0,0,0,-1,1203,855,0,0
-14,169,0,0,0,0,0,0,0,0,0,-1,1210,855,0,0
-7,169,0,0,0,0,0,0,0,0,0,-1,1217,855,0,0
0,169,0,0,0,0,0,0,0,0,0,-1,1224,855,0,0
7,169,0,0,0,0,0,0,0,0,0,-1,1231,855,0,0
14,169,0,0,0,0,0,0,0,0,0,-1,1238,855,0,0
21,169,0,0,0,0,0,0,0,0,0,-1,1245,855,0,0
28,169,0,0,0,0,0,0,0,0,0,-1,1252,855,0,0
35,169,0,0,0,0,0,0,0,0,0,-1,1259,855,0,0
42,169,0,0,0,0,0,0,0,0,0,-1,1266,855,0,0
49,169,0,0,0,0,0,0,0,0,0,-1,1273,855,0,0
56,169,0,0,0,0,0,0,0,0,0,-1,1280,855,0,0
63,169,0,0,0,0,0,0,0,0,0,-1,1287,855,0,0
70,169,0,0,0,0,0,0,0,0,0,-1,1294,855,0,0
77,169,0,0,0,0,0,0,0,0,0,-1,1301,855,0,0
84,169,0,0,0,0,0,0,0,0,0,-1,1308,855,0,0
91,169,0,0,0,0,0,0,0,0,0,-1,1315,855,0,0
98,169,0,0,0,0,0,0,0,0,0,-1,1322,855,0,0
105,169,0,0,0,0,0,0,0,0,0,-1,1329,855,0,0
112,169,0,0,0,0,0,0,0,0,0,-1,1336,855,0,0
119,169,0,0,0,0,0,0,0,0,0,-1,1343,855,0,0
126,169,0,0,0,0,0,0,0,0,0,-1,1350,855,0,0
133,169,0,0,0,0,0,0,0,0,0,-1,1357,855,0,0
140,169,0,0,0,0,0,0,0,0,0,-1,1364,855,0,0
147,169,0,0,0,0,0,0,0,0,0,-1,1371,855,0,0
154,169,0,0,0,0,0,0,0,0,0,-1,1378,855,0,0
161,169,0,0,0,0,0,0,0,0,0,-1,1385,855,0,0
168,169,0,0,0,0,0,0,0,0,0,-1,1392,855,0,0
175,169,0,0,0,0,0,0,0,0,0,-1,1399,855,0,0
182,169,0,0,0,0,0,0,0,0,0,-1,1406,855,0,0
189,169,0,0,0,0,0,0,0,0,0,-1,1413,855,0,0
196,169,0,0,0,0,0,0,0,0,0,-1,1420,855,0,0
203,169,0,0,0,0,0,0,0,0,0,-1,1427,855,0,0
210,169,0,0,0,0,0,0,0,0,0,-1,1434,855,0,0
217,169,0,0,0,0,0,0,0,0,0,-1,1441,855,0,0
224,169,0,0,0,0,0,0,0,0,0,-1,1448,855,0,0
231,169,0,0,0,0,0,0,0,0,0,-1,1455,855,0,0
238,169,0,0,0,0,0,0,0,0,0,-1,1462,855,0,0
245,169,0,0,0,0,0,0,0,0,0,-1,1469,855,0,0
252,169,0,0,0,0,0,0,0,0,0,-1,1476,855,0,0
259,169,0,0,0,0,0,0,0,0,0,-1,1483,855,0,0
266,169,0,0,0,0,0,0,0,0,0,-1,1490,855,0,0
273,169,0,0,0,0,0,0,0,0,0,-1,1497,855,0,0
280,169,0,0,0,0,0,0,0,0,0,-1,1504,855,0,0
287,169,0,0,0,0,0,0,0,0,0,-1,1511,855,0,0
294,169,0,0,0,0,0,0,0,0,0,-1,1518,855,0,0
301,169,0,0,0,0,0,0,0,0,0,-1,1525,855,0,0
308,169,0,0,0,0,0,0,0,0,0,-1,1532,855,0,0
315,169,0,0,0,0,0,0,0,0,0,-1,1539,855,0,0
322,169,0,0,0,0,0,0,0,0,0,-1,1546,855,0,0
329,169,0,0,0,0,0,0,0,0,0,-1,1553,855,0,0
336,169,0,0,0,0,0,0,0,0,0,-1,1560,855,0,0
343,169,0,0,0,0,0,0,0,0,0,-1,1567,855,0,0
350,169,0,0,0,0,0,0,0,0,0,-1,1574,855,0,0
357,169,0,0,0,0,0,0,0,0,0,-1,1581,855,0,0
364,169,0,0,0,0,0,0,0,0,0,-1,1588,855,0,0
371,169,0,0,0,0,0,0,0,0,0,-1,1595,855,0,0
378,169,0,0,0,0,0,0,0,0,0,-1,1602,855,0,0
385,169,0,0,0,0,0,0,0,0,0,-1,1609,855,0,0
392,169,0,0,0,0,0,0,0,0,0,-1,1616,855,0,0
399,169,0,0,0,0,0,0,0,0,0,-1,1623,855,0,0
406,169,0,0,0,0,0,0,0,0,0,-1,1630,855,0,0
413,169,0,0,0,0,0,0,0,0,0,-1,1637,855,0,0
420,169,0,0,0,0,0,0,0,0,0,-1,1644,855,0,0
427,169,0,0,0,0,0,0,0,0,0,-1,1651,855,0,0
434,169,0,0,0,0,0,0,0,0,0,-1,1658,855,0,0
441,169,0,0,0,0,0,0,0,0,0,-1,1665,855,0,0
448,169,0,0,0,0,0,0,0,0,0,-1,1672,855,0,0
455,169,0,0,0,0,0,0,0,0,0,-1,1679,855,0,0
462,169,0,0,0,0,0,0,0,0,0,-1,1686,855,0,0
469,169,0,0,0,0,0,0,0,0,0,-1,1693,855,0,0
476,169,0,0,0,0,0,0,0,0,0,-1,1700,855,0,0
483,169,0,0,0,0,0,0,0,0,0,-1,1707,855,0,0
490,169,0,0,0,0,0,0,0,0,0,-1,1714,855,0,0
497,169,0,0,0,0,0,0,0,0,0,-1,1721,855,0,0
504,169,0,0,0,0,0,0,0,0,0,-1,1728,855,0,0
511,169,0,0,0,0,0,0,0,0,0,-1,1735,855,0,0
518,169,0,0,0,0,0,0,0,0,0,-1,1742,855,0,0
525,169,0,0,0,0,0,0,0,0,0,-1,1749,855,0,0
532,169,0,0,0,0,0,0,0,0,0,-1,1756,855,0,0
539,169,0,0,0,0,0,0,0,0,0,-1,1763,855,0,0
546,169,0,0,0,0,0,0,0,0,0,-1,1770,855,0,0
553,169,0,0,0,0,0,0,0,0,0,-1,1777,855,0,0
560,169,0,0,0,0,0,0,0,0,0,-1,1784,855,0,0
567,169,0,0,0,0,0,0,0,0,0,-1,1791,855,0,0
574,169,0,0,0,0,0,0,0,0,0,-1,1798,855,0,0
581,169,0,0,0,0,0,0,0,0,0,-1,1805,855,0,0
588,169,0,0,0,0,0,0,0,0,0,-1,1812,855,0,0
595,169,0,0,0,0,0,0,0,0,0,-1,1819,855,0,0
602,169,0,0,0,0,0,0,0,0,0,-1,1826,855,0,0
609,169,0,0,0,0,0,0,0,0,0,-1,1833,855,0,0
616,169,80.7484,2.04089,0.00612728,-0.000180218,-0.0025994,0.00706046,-0.0011134,-0.34467,0.00511863,0.0434601,1840,855,80.7484,-2.04088
623,169,80.9459,1.92902,0.0044268,-0.000398839,-0.00106284,0.00465052,-0.000622557,-0.207462,0.00332734,0.046327,1847,855,80.9459,-1.92902
630,169,81.02,2.17981,0.00300538,-0.000513797,0.000186967,0.00301528,-0.000523703,0.0529294,0.00220558,0.0428453,1854,855,81.02,-2.17983
637,169,80.9543,2.25482,0.00195628,-0.00065758,0.00102493,0.00231024,-0.00101154,0.332524,0.00196608,0.0357859,1861,855,80.9543,-2.25481
644,169,80.8021,2.41223,0.00125719,-0.000821914,0.00144352,0.00199652,-0.00156124,0.473337,0.00205919,0.032617,1868,855,80.8021,-2.41224
651,169,80.7383,2.45483,0.000719308,-0.00116916,0.0015693,0.00160655,-0.0020564,0.514567,0.00212011,0.0346254,1875,855,80.7383,-2.45484
658,169,80.9342,2.00494,0,0,0,0,0,0,0,-1,1882,855,80.9342,-2.00495
665,169,74.1068,1.9809,0,0,0,0,0,0,0,-1,1889,855,74.1069,-1.98093
672,169,31.2465,2.96387,0,0,0,0,0,0,0,-1,1896,855,31.2464,-2.9639
679,169,38.4297,1.08197,0,0,0,0,0,0,0,-1,1903,855,38.4296,-1.08194
686,169,66.6407,-0.262573,0,0,0,0,0,0,0,-1,1910,855,66.6407,0.262564
693,169,66.8164,0.742615,0,0,0,0,0,0,0,-1,1917,855,66.8164,-0.74262
700,169,67.0851,2.20612,0,0,0,0,0,0,0,-1,1924,855,67.085,-2.20609
707,169,66.6563,2.64746,-0.00247262,2.78758e-05,-0.00153882,0.000760322,-0.00320507,-1.12655,0.00243013,0.0420614,1931,855,66.6563,-2.64745
714,169,66.2834,3.30115,-0.00232172,0.000956595,-0.00167709,0.00166253,-0.00302766,-1.17238,0.00274585,0.0239353,1938,855,66.2835,-3.30116
721,169,66.3054,4.26483,-0.00145925,0.00175886,-0.00161401,0.00242886,-0.00212924,-1.17733,0.00263352,0.0190257,1945,855,66.3055,-4.26486
728,169,66.2417,5.19556,-0.000130971,0.00240402,-0.00127116,0.00293162,-0.000658576,-1.17738,0.00220694,0.015429,1952,855,66.2417,-5.19558
735,169,66.1731,6.13513,0.00185451,0.00315518,-0.000848089,0.00357358,0.00143611,-1.11249,0.00207641,0.0205348,1959,855,66.1732,-6.13511
742,169,66.1484,7.03687,0.00430647,0.00395525,-0.000398163,0.00456603,0.00369569,-0.577709,0.00279937,0.0190246,1966,855,66.1484,-7.03688
749,169,66.1384,7.80786,0.00713998,0.00480424,1.90532e-05,0.00714014,0.00480409,0.00815649,0.00420365,0.031114,1973,855,66.1384,-7.80785
756,169,66.379,8.50427,0,0,0,0,0,0,0,-1,1980,855,66.379,-8.50429
763,169,61.2976,7.40009,0,0,0,0,0,0,0,-1,1987,855,61.2975,-7.40007
770,169,37.2059,3.97021,0,0,0,0,0,0,0,-1,1994,855,37.2059,-3.97022
777,169,41.7505,8.7085,0,0,0,0,0,0,0,-1,2001,855,41.7505,-8.70852
784,169,40.7385,9.24359,0,0,0,0,0,0,0,-1,2008,855,40.7384,-9.24361
791,169,0,0,0,0,0,0,0,0,0,-1,2015,855,0,0
798,169,0,0,0,0,0,0,0,0,0,-1,2022,855,0,0
805,169,0,0,0,0,0,0,0,0,0,-1,2029,855,0,0
812,169,0,0,0,0,0,0,0,0,0,-1,2036,855,0,0
-700,162,0,0,0,0,0,0,0,0,0,-1,524,862,0,0
-693,162,0,0,0,0,0,0,0,0,0,-1,531,862,0,0
-686,162,0,0,0,0,0,0,0,0,0,-1,538,862,0,0
-679,162,0,0,0,0,0,0,0,0,0,-1,545,862,0,0
-672,162,0,0,0,0,0,0,0,0,0,-1,552,862,0,0
-665,162,-50.6751,7.18884,0,0,0,0,0,0,0,-1,559,862,-50.6751,-7.18885
-658,162,-50.7888,6.02673,0,0,0,0,0,0,0,-1,566,862,-50.7888,-6.02673
-651,162,-53.0629,7.56506,0,0,0,0,0,0,0,-1,573,862,-53.0628,-7.56505
-644,162,-52.435,8.13208,0,0,0,0,0,0,0,-1,580,862,-52.435,-8.13207
-637,162,-51.7632,8.67255,0,0,0,0,0,0,0,-1,587,862,-51.7633,-8.67258
-630,162,-50.9307,8.73663,0.00361799,0.0131646,0.0147759,0.0239191,-0.00713647,0.94163,0.0187824,0.046585,594,862,-50.9307,-8.73665
-623,162,-50.6288,8.10272,0.00154352,0.0103312,0.0106024,0.0174142,-0.00553943,0.981836,0.0138308,0.0337924,601,862,-50.6288,-8.1027
-616,162,-50.5677,7.27435,-7.56718e-05,0.00767804,0.00753011,0.0122707,-0.00466833,1.02313,0.0101027,0.0208101,608,862,-50.5677,-7.27435
-609,162,-50.6774,6.36908,-0.000521112,0.00592342,0.00538165,0.00897373,-0.00357142,1.05515,0.00746345,0.0145984,615,862,-50.6774,-6.36909
-602,162,-50.7543,5.45966,-0.000502832,0.00456242,0.00378786,0.00658633,-0.00252675,1.08007,0.00543267,0.0128475,622,862,-50.7543,-5.45967
-595,162,-50.7859,4.54803,-1.66899e-05,0.00357907,0.00287082,0.00516852,-0.00160614,1.06515,0.00408763,0.0126738,629,862,-50.7859,-4.54801
-588,162,-50.7723,3.63641,0.000777834,0.00292967,0.00257297,0.00464262,-0.000935117,0.98343,0.0034493,0.0195854,636,862,-50.7723,-3.63639
-581,162,-50.8424,2.51489,0,0,0,0,0,0,0,-1,643,862,-50.8424,-2.51491
-574,162,-51.6659,1.35803,0,0,0,0,0,0,0,-1,650,862,-51.6659,-1.35801
-567,162,-51.6009,0.623901,0,0,0,0,0,0,0,-1,657,862,-51.6009,-0.623874
-560,162,-36.5075,-0.831665,0,0,0,0,0,0,0,-1,664,862,-36.5075,0.831657
-553,162,-35.9823,-1.60956,0,0,0,0,0,0,0,-1,671,862,-35.9823,1.60954
-546,162,-22.8181,-1.51154,0,0,0,0,0,0,0,-1,678,862,-22.8181,1.51155
-539,162,-53.0229,0.9328,0,0,0,0,0,0,0,-1,685,862,-53.0229,-0.932798
-532,162,-64.0276,0.509644,0,0,0,0,0,0,0,-1,692,862,-64.0276,-0.509651
-525,162,-64.1281,0.5401,-0.000649372,0.00265505,-0.000541803,0.00274162,-0.00073594,-1.41236,0.00211615,0.0400853,699,862,-64.1281,-0.540087
-518,162,-64.2351,0.491455,-0.00150202,0.00281681,-0.00148107,0.00327592,-0.00196112,-1.27021,0.0030552,0.040831,706,862,-64.2351,-0.491458
-511,162,-64.3467,0.0842285,-0.000893303,0.00259223,-0.00251028,0.0039054,-0.00220647,-1.08883,0.00357384,0.0421812,713,862,-64.3468,-0.0842045
-504,162,-64.2321,0.0516357,0.0034797,0.00266095,-0.00356641,0.00666015,-0.00051951,-0.728255,0.00462301,0.0420688,720,862,-64.2321,-0.0516367
-497,162,-64.0624,0.33844,0.00933388,0.00225139,-0.00436368,0.0114124,0.000172838,-0.444533,0.00755133,0.042226,727,862,-64.0624,-0.338448
-490,162,0,0,0,0,0,0,0,0,0,-1,734,862,0,0
-483,162,0,0,0,0,0,0,0,0,0,-1,741,862,0,0
-476,162,0,0,0,0,0,0,0,0,0,-1,748,862,0,0
-469,162,0,0,0,0,0,0,0,0,0,-1,755,862,0,0
-462,162,0,0,0,0,0,0,0,0,0,-1,762,862,0,0
-455,162,0,0,0,0,0,0,0,0,0,-1,769,862,0,0
-448,162,0,0,0,0,0,0,0,0,0,-1,776,862,0,0
-441,162,0,0,0,0,0,0,0,0,0,-1,783,862,0,0
-434,162,0,0,0,0,0,0,0,0,0,-1,790,862,0,0
-427,162,0,0,0,0,0,0,0,0,0,-1,797,862,0,0
-420,162,0,0,0,0,0,0,0,0,0,-1,804,862,0,0
-413,162,0,0,0,0,0,0,0,0,0,-1,811,862,0,0
-406,162,0,0,0,0,0,0,0,0,0,-1,818,862,0,0
-399,162,0,0,0,0,0,0,0,0,0,-1,825,862,0,0
-392,162,0,0,0,0,0,0,0,0,0,-1,832,862,0,0
-385,162,0,0,0,0,0,0,0,0,0,-1,839,862,0,0
-378,162,0,0,0,0,0,0,0,0,0,-1,846,862,0,0
-371,162,0,0,0,0,0,0,0,0,0,-1,853,862,0,0
-364,162,0,0,0,0,0,0,0,0,0,-1,860,862,0,0
-357,162,0,0,0,0,0,0,0,0,0,-1,867,862,0,0
-350,162,0,0,0,0,0,0,0,0,0,-1,874,862,0,0
-343,162,0,0,0,0,0,0,0,0,0,-1,881,862,0,0
-336,162,0,0,0,0,0,0,0,0,0,-1,888,862,0,0
-329,162,0,0,0,0,0,0,0,0,0,-1,895,862,0,0
-322,162,0,0,0,0,0,0,0,0,0,-1,902,862,0,0
-315,162,0,0,0,0,0,0,0,0,0,-1,909,862,0,0
-308,162,0,0,0,0,0,0,0,0,0,-1,916,862,0,0
-301,162,0,0,0,0,0,0,0,0,0,-1,923,862,0,0
-294,162,0,0,0,0,0,0,0,0,0,-1,930,862,0,0
-287,162,0,0,0,0,0,0,0,0,0,-1,937,862,0,0
-280,162,0,0,0,0,0,0,0,0,0,-1,944,862,0,0
-273,162,0,0,0,0,0,0,0,0,0,-1,951,862,0,0
-266,162,0,0,0,0,0,0,0,0,0,-1,958,862,0,0
-259,162,0,0,0,0,0,0,0,0,0,-1,965,862,0,0
-252,162,0,0,0,0,0,0,0,0,0,-1,972,862,0,0
-245,162,0,0,0,0,0,0,0,0,0,-1,979,862,0,0
-238,162,0,0,0,0,0,0,0,0,0,-1,986,862,0,0
-231,162,0,0,0,0,0,0,0,0,0,-1,993,862,0,0
-224,162,0,0,0,0,0,0,0,0,0,-1,1000,862,0,0
-217,162,0,0,0,0,0,0,0,0,0,-1,1007,862,0,0
-210,162,0,0,0,0,0,0,0,0,0,-1,1014,862,0,0
-203,162,0,0,0,0,0,0,0,0,0,-1,1021,862,0,0
-196,162,0,0,0,0,0,0,0,0,0,-1,1028,862,0,0
-189,162,0,0,0,0,0,0,0,0,0,-1,1035,862,0,0
-182,162,0,0,0,0,0,0,0,0,0,-1,1042,862,0,0
-175,162,0,0,0,0,0,0,0,0,0,-1,1049,862,0,0
-168,162,0,0,0,0,0,0,0,0,0,-1,1056,862,0,0
-161,162,0,0,0,0,0,0,0,0,0,-1,1063,862,0,0
-154,162,0,0,0,0,0,0,0,0,0,-1,1070,862,0,0
-147,162,0,0,0,0,0,0,0,0,0,-1,1077,862,0,0
-140,162,0,0,0,0,0,0,0,0,0,-1,1084,862,0,0
-133,162,0,0,0,0,0,0,0,0,0,-1,1091,862,0,0
-126,162,0,0,0,0,0,0,0,0,0,-1,1098,862,0,0
-119,162,0,0,0,0,0,0,0,0,0,-1,1105,862,0,0
-112,162,0,0,0,0,0,0,0,0,0,-1,1112,862,0,0
-105,162,0,0,0,0,0,0,0,0,0,-1,1119,862,0,0
-98,162,0,0,0,0,0,0,0,0,0,-1,1126,862,0,0
-91,162,0,0,0,0,0,0,0,0,0,-1,1133,862,0,0
-84,162,0,0,0,0,0,0,0,0,0,-1,1140,862,0,0
-77,162,0,0,0,0,0,0,0,0,0,-1,1147,862,0,0
-70,162,0,0,0,0,0,0,0,0,0,-1,1154,862,0,0
-63,162,0,0,0,0,0,0,0,0,0,-1,1161,862,0,0
-56,162,0,0,0,0,0,0,0,0,0,-1,1168,862,0,0
-49,162,0,0,0,0,0,0,0,0,0,-1,1175,862,0,0
-42,162,0,0,0,0,0,0,0,0,0,-1,1182,862,0,0
-35,162,0,0,0,0,0,0,0,0,0,-1,1189,862,0,0
-28,162,0,0,0,0,0,0,0,0,0,-1,1196,862,0,0
-21,162,0,0,0,0,0,0,0,0,0,-1,1203,862,0,0
-14,162,0,0,0,0,0,0,0,0,0,-1,1210,862,0,0
-7,162,0,0,0,0,0,0,0,0,0,-1,1217,862,0,0
0,162,0,0,0,0,0,0,0,0,0,-1,1224,862,0,0
7,162,0,0,0,0,0,0,0,0,0,-1,1231,862,0,0
14,162,0,0,0,0,0,0,0,0,0,-1,1238,862,0,0
21,162,0,0,0,0,0,0,0,0,0,-1,1245,862,0,0
28,162,0,0,0,0,0,0,0,0,0,-1,1252,862,0,0
35,162,0,0,0,0,0,0,0,0,0,-1,1259,862,0,0
42,162,0,0,0,0,0,0,0,0,0,-1,1266,862,0,0
49,162,0,0,0,0,0,0,0,0,0,-1,1273,862,0,0
56,162,0,0,0,0,0,0,0,0,0,-1,1280,862,0,0
63,162,0,0,0,0,0,0,0,0,0,-1,1287,862,0,0
70,162,0,0,0,0,0,0,0,0,0,-1,1294,862,0,0
77,162,0,0,0,0,0,0,0,0,0,-1,1301,862,0,0
84,162,0,0,0,0,0,0,0,0,0,-1,1308,862,0,0
91,162,0,0,0,0,0,0,0,0,0,-1,1315,862,0,0
98,162,0,0,0,0,0,0,0,0,0,-1,1322,862,0,0
105,162,0,0,0,0,0,0,0,0,0,-1,1329,862,0,0
112,162,0,0,0,0,0,0,0,0,0,-1,1336,862,0,0
119,162,0,0,0,0,0,0,0,0,0,-1,1343,862,0,0
126,162,0,0,0,0,0,0,0,0,0,-1,1350,862,0,0
133,162,0,0,0,0,0,0,0,0,0,-1,1357,862,0,0
140,162,0,0,0,0,0,0,0,0,0,-1,1364,862,0,0
147,162,0,0,0,0,0,0,0,0,0,-1,1371,862,0,0
154,162,0,0,0,0,0,0,0,0,0,-1,1378,862,0,0
161,162,0,0,0,0,0,0,0,0,0,-1,1385,862,0,0
168,162,0,0,0,0,0,0,0,0,0,-1,1392,862,0,0
175,162,0,0,0,0,0,0,0,0,0,-1,1399,862,0,0
182,162,0,0,0,0,0,0,0,0,0,-1,1406,862,0,0
189,162,0,0,0,0,0,0,0,0,0,-1,1413,862,0,0
196,162,0,0,0,0,0,0,0,0,0,-1,1420,862,0,0
203,162,0,0,0,0,0,0,0,0,0,-1,1427,862,0,0
210,162,0,0,0,0,0,0,0,0,0,-1,1434,862,0,0
217,162,0,0,0,0,0,0,0,0,0,-1,1441,862,0,0
224,162,0,0,0,0,0,0,0,0,0,-1,1448,862,0,0
231,162,0,0,0,0,0,0,0,0,0,-1,1455,862,0,0
238,162,0,0,0,0,0,0,0,0,0,-1,1462,862,0,0
245,162,0,0,0,0,0,0,0,0,0,-1,1469,862,0,0
252,162,0,0,0,0,0,0,0,0,0,-1,1476,862,0,0
259,162,0,0,0,0,0,0,0,0,0,-1,1483,862,0,0
266,162,0,0,0,0,0,0,0,0,0,-1,1490,862,0,0
273,162,0,0,0,0,0,0,0,0,0,-1,1497,862,0,0
280,162,0,0,0,0,0,0,0,0,0,-1,1504,862,0,0
287,162,0,0,0,0,0,0,0,0,0,-1,1511,862,0,0
294,162,0,0,0,0,0,0,0,0,0,-1,1518,862,0,0
301,162,0,0,0,0,0,0,0,0,0,-1,1525,862,0,0
308,162,0,0,0,0,0,0,0,0,0,-1,1532,862,0,0
315,162,0,0,0,0,0,0,0,0,0,-1,1539,862,0,0
322,162,0,0,0,0,0,0,0,0,0,-1,1546,862,0,0
329,162,0,0,0,0,0,0,0,0,0,-1,1553,862,0,0
336,162,0,0,0,0,0,0,0,0,0,-1,1560,862,0,0
343,162,0,0,0,0,0,0,0,0,0,-1,1567,862,0,0
350,162,0,0,0,0,0,0,0,0,0,-1,1574,862,0,0
357,162,0,0,0,0,0,0,0,0,0,-1,1581,862,0,0
364,162,0,0,0,0,0,0,0,0,0,-1,1588,862,0,0
371,162,0,0,0,0,0,0,0,0,0,-1,1595,862,0,0
378,162,0,0,0,0,0,0,0,0,0,-1,1602,862,0,0
385,162,0,0,0,0,0,0,0,0,0,-1,1609,862,0,0
392,162,0,0,0,0,0,0,0,0,0,-1,1616,862,0,0
399,162,0,0,0,0,0,0,0,0,0,-1,1623,862,0,0
406,162,0,0,0,0,0,0,0,0,0,-1,1630,862,0,0
413,162,0,0,0,0,0,0,0,0,0,-1,1637,862,0,0
420,162,0,0,0,0,0,0,0,0,0,-1,1644,862,0,0
427,162,0,0,0,0,0,0,0,0,0,-1,1651,862,0,0
434,162,0,0,0,0,0,0,0,0,0,-1,1658,862,0,0
441,162,0,0,0,0,0,0,0,0,0,-1,1665,862,0,0
448,162,0,0,0,0,0,0,0,0,0,-1,1672,862,0,0
455,162,0,0,0,0,0,0,0,0,0,-1,1679,862,0,0
462,162,0,0,0,0,0,0,0,0,0,-1,1686,862,0,0
469,162,0,0,0,0,0,0,0,0,0,-1,1693,862,0,0
476,162,0,0,0,0,0,0,0,0,0,-1,1700,862,0,0
483,162,0,0,0,0,0,0,0,0,0,-1,1707,862,0,0
490,162,0,0,0,0,0,0,0,0,0,-1,1714,862,0,0
497,162,0,0,0,0,0,0,0,0,0,-1,1721,862,0,0
504,162,0,0,0,0,0,0,0,0,0,-1,1728,862,0,0
511,162,0,0,0,0,0,0,0,0,0,-1,1735,862,0,0
518,162,0,0,0,0,0,0,0,0,0,-1,1742,862,0,0
525,162,0,0,0,0,0,0,0,0,0,-1,1749,862,0,0
532,162,0,0,0,0,0,0,0,0,0,-1,1756,862,0,0
539,162,0,0,0,0,0,0,0,0,0,-1,1763,862,0,0
546,162,0,0,0,0,0,0,0,0,0,-1,1770,862,0,0
553,162,0,0,0,0,0,0,0,0,0,-1,1777,862,0,0
560,162,0,0,0,0,0,0,0,0,0,-1,1784,862,0,0
567,162,0,0,0,0,0,0,0,0,0,-1,1791,862,0,0
574,162,0,0,0,0,0,0,0,0,0,-1,1798,862,0,0
581,162,0,0,0,0,0,0,0,0,0,-1,1805,862,0,0
588,162,0,0,0,0,0,0,0,0,0,-1,1812,862,0,0
595,162,0,0,0,0,0,0,0,0,0,-1,1819,862,0,0
602,162,0,0,0,0,0,0,0,0,0,-1,1826,862,0,0
609,162,0,0,0,0,0,0,0,0,0,-1,1833,862,0,0
616,162,80.8063,2.1037,0.00532883,4.1612e-05,-0.00281826,0.00654931,-0.00117888,-0.408682,0.00480759,0.0434233,1840,862,80.8063,-2.10369
623,162,80.7845,2.21167,0.00384122,-0.000229496,-0.00125453,0.00419679,-0.000585064,-0.276184,0.00301188,0.0452109,1847,862,80.7845,-2.2117
630,162,80.7813,2.31476,0.0026395,-0.000440764,-7.25113e-05,0.00264121,-0.00044247,-0.0235232,0.00192532,0.0400055,1854,862,80.7812,-2.31474
637,162,80.7908,2.2467,0.00173675,-0.000689111,0.000705394,0.00192695,-0.000879313,0.263376,0.0016574,0.0375318,1861,862,80.7908,-2.24668
644,162,80.8438,2.22784,0.00105767,-0.000973674,0.00111237,0.0015483,-0.00146431,0.415403,0.00173955,0.0349557,1868,862,80.8438,-2.22786
651,162,80.7943,2.24066,0.000527091,-0.00137972,0.00123439,0.00113339,-0.00198602,0.456565,0.00182328,0.0317769,1875,862,80.7944,-2.24066
658,162,80.9133,2.03583,-0.000547926,-0.00174481,0.00043094,-0.000408912,-0.00188382,0.312046,0.0011442,0.0341813,1882,862,80.9133,-2.03582
665,162,81.0095,1.86304,0,0,0,0,0,0,0,-1,1889,862,81.0095,-1.86304
672,162,56.9712,3.04034,0,0,0,0,0,0,0,-1,1896,862,56.9711,-3.04034
679,162,26.5077,2.54785,0,0,0,0,0,0,0,-1,1903,862,26.5077,-2.54787
686,162,67.3174,-0.416748,0,0,0,0,0,0,0,-1,1910,862,67.3173,0.416766
693,162,67.8448,0.921204,0,0,0,0,0,0,0,-1,1917,862,67.8448,-0.921226
700,162,67.6267,1.99139,0,0,0,0,0,0,0,-1,1924,862,67.6267,-1.9914
707,162,67.549,2.64905,-0.00249757,4.47435e-05,-0.00181827,0.000992133,-0.00344496,-1.09046,0.00268907,0.0342768,1931,862,67.5489,-2.64902
714,162,67.288,3.32977,-0.00246152,0.000917167,-0.00195314,0.00181019,-0.00335454,-1.14195,0.00302597,0.0394026,1938,862,67.2879,-3.32976
721,162,67.118,4.36072,-0.00183965,0.00173628,-0.00199721,0.00262892,-0.00273229,-1.15049,0.00309549,0.035077,1945,862,67.118,-4.3607
728,162,67.0846,5.29498,-0.00087341,0.00239563,-0.00183123,0.00321571,-0.00169349,-1.14975,0.00287939,0.0276789,1952,862,67.0846,-5.29501
735,162,67.1064,6.19067,0.000783073,0.0031707,-0.00163231,0.00399917,-4.53978e-05,-1.10113,0.00268138,0.012499,1959,862,67.1064,-6.19069
742,162,67.0559,7.05646,0.00301841,0.00402433,-0.00143448,0.00504147,0.00200127,-0.954013,0.00293122,0.0134949,1966,862,67.0559,-7.05648
749,162,66.9406,7.89764,0.00558211,0.0049337,-0.00131483,0.00661211,0.00390369,-0.664521,0.00383824,0.0204122,1973,862,66.9405,-7.89767
756,162,66.7626,8.64465,0.00837681,0.00583378,-0.00136841,0.00897327,0.00523733,-0.411043,0.00520483,0.0476961,1980,862,66.7626,-8.64464
763,162,66.6379,9.42889,0,0,0,0,0,0,0,-1,1987,862,66.638,-9.42886
770,162,54.8257,9.36987,0,0,0,0,0,0,0,-1,1994,862,54.8256,-9.36988
777,162,66.324,10.5801,0,0,0,0,0,0,0,-1,2001,862,66.3239,-10.5802
784,162,55.6492,10.6049,0,0,0,0,0,0,0,-1,2008,862,55.6491,-10.6049
791,162,0,0,0,0,0,0,0,0,0,-1,2015,862,0,0
798,162,0,0,0,0,0,0,0,0,0,-1,2022,862,0,0
805,162,0,0,0,0,0,0,0,0,0,-1,2029,862,0,0
812,162,0,0,0,0,0,0,0,0,0,-1,2036,862,0,0
-700,155,0,0,0,0,0,0,0,0,0,-1,524,869,0,0
-693,155,0,0,0,0,0,0,0,0,0,-1,531,869,0,0
-686,155,0,0,0,0,0,0,0,0,0,-1,538,869,0,0
-679,155,0,0,0,0,0,0,0,0,0,-1,545,869,0,0
-672,155,0,0,0,0,0,0,0,0,0,-1,552,869,0,0
-665,155,-50.9639,6.01917,0,0,0,0,0,0,0,-1,559,869,-50.9639,-6.01917
-658,155,-51.2028,4.90723,0,0,0,0,0,0,0,-1,566,869,-51.2028,-4.90722
-651,155,-51.22,3.81226,0,0,0,0,0,0,0,-1,573,869,-51.2201,-3.81228
-644,155,-53.655,7.95532,0,0,0,0,0,0,0,-1,580,869,-53.655,-7.95531
-637,155,-52.8632,8.54626,0,0,0,0,0,0,0,-1,587,869,-52.8632,-8.54625
-630,155,-51.3355,9.19788,0,0,0,0,0,0,0,-1,594,869,-51.3355,-9.19787
-623,155,-51.3867,8.29883,-0.00121646,0.00993627,0.00973197,0.0155763,-0.00685647,1.04556,0.0132737,0.0298784,601,869,-51.3867,-8.29883
-616,155,-51.4919,7.36816,-0.00181898,0.00752658,0.00700845,0.0112772,-0.00556957,1.07942,0.0099108,0.0167323,608,869,-51.492,-7.36815
-609,155,-51.609,6.39984,-0.00171804,0.00583083,0.00505282,0.00836333,-0.00425053,1.10619,0.00741053,0.015653,615,869,-51.609,-6.39984
-602,155,-51.6865,5.49103,-0.00135672,0.00446317,0.00360648,0.00618728,-0.00308083,1.12485,0.00545022,0.0148539,622,869,-51.6864,-5.49106
-595,155,-51.754,4.60645,-0.000668783,0.00355646,0.00276802,0.00492595,-0.00203827,1.11135,0.00413441,0.0138819,629,869,-51.754,-4.60642
-588,155,-51.7053,3.78021,0.000236698,0.00303984,0.00248175,0.00448844,-0.0012119,1.04245,0.00346758,0.0273262,636,869,-51.7053,-3.7802
-581,155,-51.4,2.99542,0,0,0,0,0,0,0,-1,643,869,-51.4,-2.99541
-574,155,-50.6295,2.30585,0,0,0,0,0,0,0,-1,650,869,-50.6295,-2.30585
-567,155,-38.0134,0.582214,0,0,0,0,0,0,0,-1,657,869,-38.0134,-0.582192
-560,155,-37.1416,-0.708008,0,0,0,0,0,0,0,-1,664,869,-37.1416,0.70801
-553,155,-36.7729,-1.71521,0,0,0,0,0,0,0,-1,671,869,-36.7729,1.71523
-546,155,-22.7988,0.873657,0,0,0,0,0,0,0,-1,678,869,-22.7988,-0.873645
-539,155,-64.1687,0.208862,0,0,0,0,0,0,0,-1,685,869,-64.1687,-0.208848
-532,155,-64.0593,0.494141,0,0,0,0,0,0,0,-1,692,869,-64.0592,-0.494116
-525,155,-64.0648,0.5401,-0.000747317,0.00230833,-0.000965028,0.00258759,-0.00102657,-1.28912,0.00215053,0.03715,699,869,-64.0648,-0.540118
-518,155,-64.1082,0.515564,-0.00134452,0.00214225,-0.00203334,0.00307727,-0.00227954,-1.13979,0.00310416,0.0413292,706,869,-64.1082,-0.515557
-511,155,-64.1296,0.319275,0.000179786,0.00167081,-0.00294804,0.00396614,-0.00211555,-0.909243,0.00356504,0.0432518,713,869,-64.1296,-0.3193
-504,155,-64.2148,0.0936279,0,0,0,0,0,0,0,-1,720,869,-64.2148,-0.0936082
-497,155,0,0,0,0,0,0,0,0,0,-1,727,869,0,0
-490,155,0,0,0,0,0,0,0,0,0,-1,734,869,0,0
-483,155,0,0,0,0,0,0,0,0,0,-1,741,869,0,0
-476,155,0,0,0,0,0,0,0,0,0,-1,748,869,0,0
-469,155,0,0,0,0,0,0,0,0,0,-1,755,869,0,0
-462,155,0,0,0,0,0,0,0,0,0,-1,762,869,0,0
-455,155,0,0,0,0,0,0,0,0,0,-1,769,869,0,0
-448,155,0,0,0,0,0,0,0,0,0,-1,776,869,0,0
-441,155,0,0,0,0,0,0,0,0,0,-1,783,869,0,0
-434,155,0,0,0,0,0,0,0,0,0,-1,790,869,0,0
-427,155,0,0,0,0,0,0,0,0,0,-1,797,869,0,0
-420,155,0,0,0,0,0,0,0,0,0,-1,804,869,0,0
-413,155,0,0,0,0,0,0,0,0,0,-1,811,869,0,0
-406,155,0,0,0,0,0,0,0,0,0,-1,818,869,0,0
-399,155,0,0,0,0,0,0,0,0,0,-1,825,869,0,0
-392,155,0,0,0,0,0,0,0,0,0,-1,832,869,0,0
-385,155,0,0,0,0,0,0,0,0,0,-1,839,869,0,0
-378,155,0,0,0,0,0,0,0,0,0,-1,846,869,0,0
-371,155,0,0,0,0,0,0,0,0,0,-1,853,869,0,0
-364,155,0,0,0,0,0,0,0,0,0,-1,860,869,0,0
-357,155,0,0,0,0,0,0,0,0,0,-1,867,869,0,0
-350,155,0,0,0,0,0,0,0,0,0,-1,874,869,0,0
-343,155,0,0,0,0,0,0,0,0,0,-1,881,869,0,0
-336,155,0,0,0,0,0,0,0,0,0,-1,888,869,0,0
-329,155,0,0,0,0,0,0,0,0,0,-1,895,869,0,0
-322,155,0,0,0,0,0,0,0,0,0,-1,902,869,0,0
-315,155,0,0,0,0,0,0,0,0,0,-1,909,869,0,0
-308,155,0,0,0,0,0,0,0,0,0,-1,916,869,0,0
-301,155,0,0,0,0,0,0,0,0,0,-1,923,869,0,0
-294,155,0,0,0,0,0,0,0,0,0,-1,930,869,0,0
-287,155,0,0,0,0,0,0,0,0,0,-1,937,869,0,0
-280,155,0,0,0,0,0,0,0,0,0,-1,944,869,0,0
-273,155,0,0,0,0,0,0,0,0,0,-1,951,869,0,0
-266,155,0,0,0,0,0,0,0,0,0,-1,958,869,0,0
-259,155,0,0,0,0,0,0,0,0,0,-1,965,869,0,0
-252,155,0,0,0,0,0,0,0,0,0,-1,972,869,0,0
-245,155,0,0,0,0,0,0,0,0,0,-1,979,869,0,0
-238,155,0,0,0,0,0,0,0,0,0,-1,986,869,0,0
-231,155,0,0,0,0,0,0,0,0,0,-1,993,869,0,0
-224,155,0,0,0,0,0,0,0,0,0,-1,1000,869,0,0
-217,155,0,0,0,0,0,0,0,0,0,-1,1007,869,0,0
-210,155,0,0,0,0,0,0,0,0,0,-1,1014,869,0,0
-203,155,0,0,0,0,0,0,0,0,0,-1,1021,869,0,0
-196,155,0,0,0,0,0,0,0,0,0,-1,1028,869,0,0
-189,155,0,0,0,0,0,0,0,0,0,-1,1035,869,0,0
-182,155,0,0,0,0,0,0,0,0,0,-1,1042,869,0,0
-175,155,0,0,0,0,0,0,0,0,0,-1,1049,869,0,0
-168,155,0,0,0,0,0,0,0,0,0,-1,1056,869,0,0
-161,155,0,0,0,0,0,0,0,0,0,-1,1063,869,0,0
-154,155,0,0,0,0,0,0,0,0,0,-1,1070,869,0,0
-147,155,0,0,0,0,0,0,0,0,0,-1,1077,869,0,0
-140,155,0,0,0,0,0,0,0,0,0,-1,1084,869,0,0
-133,155,0,0,0,0,0,0,0,0,0,-1,1091,869,0,0
-126,155,0,0,0,0,0,0,0,0,0,-1,1098,869,0,0
-119,155,0,0,0,0,0,0,0,0,0,-1,1105,869,0,0
-112,155,0,0,0,0,0,0,0,0,0,-1,1112,869,0,0
-105,155,0,0,0,0,0,0,0,0,0,-1,1119,869,0,0
-98,155,0,0,0,0,0,0,0,0,0,-1,1126,869,0,0
-91,155,0,0,0,0,0,0,0,0,0,-1,1133,869,0,0
-84,155,0,0,0,0,0,0,0,0,0,-1,1140,869,0,0
-77,155,0,0,0,0,0,0,0,0,0,-1,1147,869,0,0
-70,155,0,0,0,0,0,0,0,0,0,-1,1154,869,0,0
-63,155,0,0,0,0,0,0,0,0,0,-1,1161,869,0,0
-56,155,0,0,0,0,0,0,0,0,0,-1,1168,869,0,0
-49,155,0,0,0,0,0,0,0,0,0,-1,1175,869,0,0
-42,155,0,0,0,0,0,0,0,0,0,-1,1182,869,0,0
-35,155,0,0,0,0,0,0,0,0,0,-1,1189,869,0,0
-28,155,0,0,0,0,0,0,0,0,0,-1,1196,869,0,0
-21,155,0,0,0,0,0,0,0,0,0,-1,1203,869,0,0
-14,155,0,0,0,0,0,0,0,0,0,-1,1210,869,0,0
-7,155,0,0,0,0,0,0,0,0,0,-1,1217,869,0,0
0,155,0,0,0,0,0,0,0,0,0,-1,1224,869,0,0
7,155,0,0,0,0,0,0,0,0,0,-1,1231,869,0,0
14,155,0,0,0,0,0,0,0,0,0,-1,1238,869,0,0
21,155,0,0,0,0,0,0,0,0,0,-1,1245,869,0,0
28,155,0,0,0,0,0,0,0,0,0,-1,1252,869,0,0
35,155,0,0,0,0,0,0,0,0,0,-1,1259,869,0,0
42,155,0,0,0,0,0,0,0,0,0,-1,1266,869,0,0
49,155,0,0,0,0,0,0,0,0,0,-1,1273,869,0,0
56,155,0,0,0,0,0,0,0,0,0,-1,1280,869,0,0
63,155,0,0,0,0,0,0,0,0,0,-1,1287,869,0,0
70,155,0,0,0,0,0,0,0,0,0,-1,1294,869,0,0
77,155,0,0,0,0,0,0,0,0,0,-1,1301,869,0,0
84,155,0,0,0,0,0,0,0,0,0,-1,1308,869,0,0
91,155,0,0,0,0,0,0,0,0,0,-1,1315,869,0,0
98,155,0,0,0,0,0,0,0,0,0,-1,1322,869,0,0
105,155,0,0,0,0,0,0,0,0,0,-1,1329,869,0,0
112,155,0,0,0,0,0,0,0,0,0,-1,1336,869,0,0
119,155,0,0,0,0,0,0,0,0,0,-1,1343,869,0,0
126,155,0,0,0,0,0,0,0,0,0,-1,1350,869,0,0
133,155,0,0,0,0,0,0,0,0,0,-1,1357,869,0,0
140,155,0,0,0,0,0,0,0,0,0,-1,1364,869,0,0
147,155,0,0,0,0,0,0,0,0,0,-1,1371,869,0,0
154,155,0,0,0,0,0,0,0,0,0,-1,1378,869,0,0
161,155,0,0,0,0,0,0,0,0,0,-1,1385,869,0,0
168,155,0,0,0,0,0,0,0,0,0,-1,1392,869,0,0
175,155,0,0,0,0,0,0,0,0,0,-1,1399,869,0,0
182,155,0,0,0,0,0,0,0,0,0,-1,1406,869,0,0
189,155,0,0,0,0,0,0,0,0,0,-1,1413,869,0,0
196,155,0,0,0,0,0,0,0,0,0,-1,1420,869,0,0
203,155,0,0,0,0,0,0,0,0,0,-1,1427,869,0,0
210,155,0,0,0,0,0,0,0,0,0,-1,1434,869,0,0
217,155,0,0,0,0,0,0,0,0,0,-1,1441,869,0,0
224,155,0,0,0,0,0,0,0,0,0,-1,1448,869,0,0
231,155,0,0,0,0,0,0,0,0,0,-1,1455,869,0,0
238,155,0,0,0,0,0,0,0,0,0,-1,1462,869,0,0
245,155,0,0,0,0,0,0,0,0,0,-1,1469,869,0,0
252,155,0,0,0,0,0,0,0,0,0,-1,1476,869,0,0
259,155,0,0,0,0,0,0,0,0,0,-1,1483,869,0,0
266,155,0,0,0,0,0,0,0,0,0,-1,1490,869,0,0
273,155,0,0,0,0,0,0,0,0,0,-1,1497,869,0,0
280,155,0,0,0,0,0,0,0,0,0,-1,1504,869,0,0
287,155,0,0,0,0,0,0,0,0,0,-1,1511,869,0,0
294,155,0,0,0,0,0,0,0,0,0,-1,1518,869,0,0
301,155,0,0,0,0,0,0,0,0,0,-1,1525,869,0,0
308,155,0,0,0,0,0,0,0,0,0,-1,1532,869,0,0
315,155,0,0,0,0,0,0,0,0,0,-1,1539,869,0,0
322,155,0,0,0,0,0,0,0,0,0,-1,1546,869,0,0
329,155,0,0,0,0,0,0,0,0,0,-1,1553,869,0,0
336,155,0,0,0,0,0,0,0,0,0,-1,1560,869,0,0
343,155,0,0,0,0,0,0,0,0,0,-1,1567,869,0,0
350,155,0,0,0,0,0,0,0,0,0,-1,1574,869,0,0
357,155,0,0,0,0,0,0,0,0,0,-1,1581,869,0,0
364,155,0,0,0,0,0,0,0,0,0,-1,1588,869,0,0
371,155,0,0,0,0,0,0,0,0,0,-1,1595,869,0,0
378,155,0,0,0,0,0,0,0,0,0,-1,1602,869,0,0
385,155,0,0,0,0,0,0,0,0,0,-1,1609,869,0,0
392,155,0,0,0,0,0,0,0,0,0,-1,1616,869,0,0
399,155,0,0,0,0,0,0,0,0,0,-1,1623,869,0,0
406,155,0,0,0,0,0,0,0,0,0,-1,1630,869,0,0
413,155,0,0,0,0,0,0,0,0,0,-1,1637,869,0,0
420,155,0,0,0,0,0,0,0,0,0,-1,1644,869,0,0
427,155,0,0,0,0,0,0,0,0,0,-1,1651,869,0,0
434,155,0,0,0,0,0,0,0,0,0,-1,1658,869,0,0
441,155,0,0,0,0,0,0,0,0,0,-1,1665,869,0,0
448,155,0,0,0,0,0,0,0,0,0,-1,1672,869,0,0
455,155,0,0,0,0,0,0,0,0,0,-1,1679,869,0,0
462,155,0,0,0,0,0,0,0,0,0,-1,1686,869,0,0
469,155,0,0,0,0,0,0,0,0,0,-1,1693,869,0,0
476,155,0,0,0,0,0,0,0,0,0,-1,1700,869,0,0
483,155,0,0,0,0,0,0,0,0,0,-1,1707,869,0,0
490,155,0,0,0,0,0,0,0,0,0,-1,1714,869,0,0
497,155,0,0,0,0,0,0,0,0,0,-1,1721,869,0,0
504,155,0,0,0,0,0,0,0,0,0,-1,1728,869,0,0
511,155,0,0,0,0,0,0,0,0,0,-1,1735,869,0,0
518,155,0,0,0,0,0,0,0,0,0,-1,1742,869,0,0
525,155,0,0,0,0,0,0,0,0,0,-1,1749,869,0,0
532,155,0,0,0,0,0,0,0,0,0,-1,1756,869,0,0
539,155,0,0,0,0,0,0,0,0,0,-1,1763,869,0,0
546,155,0,0,0,0,0,0,0,0,0,-1,1770,869,0,0
553,155,0,0,0,0,0,0,0,0,0,-1,1777,869,0,0
560,155,0,0,0,0,0,0,0,0,0,-1,1784,869,0,0
567,155,0,0,0,0,0,0,0,0,0,-1,1791,869,0,0
574,155,0,0,0,0,0,0,0,0,0,-1,1798,869,0,0
581,155,0,0,0,0,0,0,0,0,0,-1,1805,869,0,0
588,155,0,0,0,0,0,0,0,0,0,-1,1812,869,0,0
595,155,0,0,0,0,0,0,0,0,0,-1,1819,869,0,0
602,155,0,0,0,0,0,0,0,0,0,-1,1826,869,0,0
609,155,0,0,0,0,0,0,0,0,0,-1,1833,869,0,0
616,155,81.0913,2.12885,0.00412993,0.000819182,-0.00267352,0.00561907,-0.000669959,-0.508199,0.00398817,0.0446796,1840,869,81.0913,-2.12886
623,155,80.9639,2.19263,0.00288398,0.000459339,-0.00113424,0.00333185,1.14724e-05,-0.376068,0.00221742,0.0459867,1847,869,80.9639,-2.19263
630,155,80.8241,2.26831,0.00195111,8.01375e-05,-6.63554e-05,0.00195346,7.77871e-05,-0.0354064,0.00127717,0.0447017,1854,869,80.8241,-2.26833
637,155,80.7548,2.2074,0.00133033,-0.000388497,0.000552059,0.00149237,-0.000550534,0.285496,0.00122054,0.0386684,1861,869,80.7548,-2.20739
644,155,80.8591,2.06573,0.000865106,-0.000929883,0.000836008,0.00119415,-0.00125893,0.374972,0.00141645,0.0348763,1868,869,80.8591,-2.06574
651,155,80.8983,2.06494,0.000482987,-0.00153356,0.000869041,0.000805821,-0.0018564,0.355683,0.00157642,0.0321431,1875,869,80.8983,-2.06496
658,155,80.8607,2.10547,-0.000553756,-0.00198123,9.87049e-05,-0.000546964,-0.00198802,0.0687109,0.00118585,0.0272826,1882,869,80.8607,-2.10546
665,155,80.8308,2.12079,-0.00136279,-0.00150882,-0.000221095,-0.00120296,-0.00166864,-0.625911,0.000994244,0.0390911,1889,869,80.8308,-2.12082
672,155,80.7903,2.16492,0,0,0,0,0,0,0,-1,1896,869,80.7903,-2.16493
679,155,35.1565,2.78528,0,0,0,0,0,0,0,-1,1903,869,35.1565,-2.7853
686,155,43.6101,1.63361,0,0,0,0,0,0,0,-1,1910,869,43.6101,-1.63362
693,155,69.0775,1.15796,0,0,0,0,0,0,0,-1,1917,869,69.0775,-1.15794
700,155,68.1625,1.94788,0,0,0,0,0,0,0,-1,1924,869,68.1624,-1.94791
707,155,68.5654,2.79095,0,0,0,0,0,0,0,-1,1931,869,68.5654,-2.79094
714,155,68.338,3.32397,0,0,0,0,0,0,0,-1,1938,869,68.338,-3.32396
721,155,67.8978,4.4668,0,0,0,0,0,0,0,-1,1945,869,67.8978,-4.46678
728,155,68.0426,5.34998,-0.00135849,0.00238777,-0.00239244,0.00355313,-0.00252384,-1.11752,0.00352527,0.0216765,1952,869,68.0426,-5.34998
735,155,68.0118,6.22107,-0.000164875,0.00329234,-0.00235085,0.00448171,-0.00135424,-1.10242,0.00352697,0.0168961,1959,869,68.0119,-6.22108
742,155,67.9724,7.10034,0.00171995,0.00429402,-0.00235196,0.00568807,0.00032591,-1.03575,0.00368821,0.0187378,1966,869,67.9724,-7.10033
749,155,67.8497,7.92902,0.00400072,0.00532675,-0.00244793,0.00719987,0.00212761,-0.917649,0.00427116,0.0179096,1973,869,67.8497,-7.929
756,155,67.7075,8.80396,0.00651306,0.00640875,-0.0026874,0.00914881,0.00377299,-0.775696,0.00530902,0.0308128,1980,869,67.7076,-8.80397
763,155,67.5908,9.70007,0,0,0,0,0,0,0,-1,1987,869,67.5907,-9.70009
770,155,66.4995,11.4908,0,0,0,0,0,0,0,-1,1994,869,66.4996,-11.4908
777,155,67.8357,10.6007,0,0,0,0,0,0,0,-1,2001,869,67.8357,-10.6007
784,155,69.9526,8.4718,0,0,0,0,0,0,0,-1,2008,869,69.9525,-8.47183
791,155,0,0,0,0,0,0,0,0,0,-1,2015,869,0,0
798,155,0,0,0,0,0,0,0,0,0,-1,2022,869,0,0
805,155,0,0,0,0,0,0,0,0,0,-1,2029,869,0,0
812,155,0,0,0,0,0,0,0,0,0,-1,2036,869,0,0
-700,148,0,0,0,0,0,0,0,0,0,-1,524,876,0,0
-693,148,0,0,0,0,0,0,0,0,0,-1,531,876,0,0
-686,148,0,0,0,0,0,0,0,0,0,-1,538,876,0,0
-679,148,0,0,0,0,0,0,0,0,0,-1,545,876,0,0
-672,148,-48.1407,-0.726746,0,0,0,0,0,0,0,-1,552,876,-48.1407,0.726755
-665,148,-48.2041,-3.97095,0,0,0,0,0,0,0,-1,559,876,-48.2041,3.97096
-658,148,-51.7661,3.82794,0,0,0,0,0,0,0,-1,566,876,-51.7661,-3.82797
-651,148,-52.0392,2.79663,0,0,0,0,0,0,0,-1,573,876,-52.0392,-2.79661
-644,148,-52.2687,1.81482,0,0,0,0,0,0,0,-1,580,876,-52.2687,-1.81482
-637,148,-52.5708,0.881165,0,0,0,0,0,0,0,-1,587,876,-52.5708,-0.88117
-630,148,-51.9952,9.37903,0,0,0,0,0,0,0,-1,594,876,-51.9952,-9.37903
-623,148,-52.1996,8.38336,-0.00434671,0.00972091,0.00922268,0.0142859,-0.0089117,1.11118,0.0135124,0.0315924,601,876,-52.1996,-8.38335
-616,148,-52.4016,7.40045,-0.00383259,0.00738911,0.00671049,0.0105254,-0.00696887,1.13359,0.0101697,0.0154927,608,876,-52.4016,-7.40048
-609,148,-52.5428,6.44385,-0.00302705,0.00565806,0.00482682,0.00780827,-0.00517726,1.15171,0.00754831,0.0152921,615,876,-52.5428,-6.44386
-602,148,-52.6502,5.53003,-0.002193,0.00424459,0.00340888,0.00571419,-0.00366261,1.16376,0.00545672,0.017554,622,876,-52.6502,-5.53001
-595,148,-52.686,4.6499,-0.0012442,0.00343029,0.00259536,0.00458569,-0.00239961,1.15196,0.00409827,0.0152435,629,876,-52.686,-4.64993
-588,148,-52.6666,3.67554,-0.000275463,0.00302425,0.00234828,0.00424431,-0.00149552,1.09163,0.00343823,0.0369291,636,876,-52.6666,-3.67555
-581,148,-52.5273,2.72852,0,0,0,0,0,0,0,-1,643,876,-52.5274,-2.7285
-574,148,-51.1478,2.54205,0,0,0,0,0,0,0,-1,650,876,-51.1478,-2.54208
-567,148,-35.6293,0.615784,0,0,0,0,0,0,0,-1,657,876,-35.6293,-0.615792
-560,148,-37.7973,-0.588135,0,0,0,0,0,0,0,-1,664,876,-37.7973,0.588143
-553,148,-18.3896,-0.00280762,0,0,0,0,0,0,0,-1,671,876,-18.3897,0.00278524
-546,148,-64.1644,0.185059,0,0,0,0,0,0,0,-1,678,876,-64.1644,-0.185064
-539,148,-64.0577,0.279663,-0.00102199,0.00187787,3.25101e-05,0.00187824,-0.00102235,1.55959,0.00169878,0.0454635,685,876,-64.0577,-0.279666
-532,148,-64.0294,0.388855,-0.000709362,0.00171278,-7.50156e-05,0.0017151,-0.000711683,-1.53987,0.00144048,0.0350546,692,876,-64.0294,-0.388878
-525,148,-64.0209,0.472351,-0.00111056,0.00164487,-0.00106824,0.0020105,-0.00147618,-1.24103,0.0020209,0.0362289,699,876,-64.0208,-0.472366
-518,148,-64.051,0.472412,-0.00162763,0.00121764,-0.00217085,0.00239048,-0.00280047,-1.07546,0.00300011,0.0429109,706,876,-64.051,-0.472437
-511,148,-64.1199,-0.0101929,-0.000216288,0.000794106,-0.00284183,0.00317529,-0.00259747,-0.873365,0.00333847,0.0433388,713,876,-64.1199,0.0101732
-504,148,-64.1282,0.0421143,0.00258655,0.000168968,-0.00325702,0.00485186,-0.00209633,-0.607709,0.00411535,0.044558,720,876,-64.1282,-0.0421143
-497,148,0,0,0,0,0,0,0,0,0,-1,727,876,0,0
-490,148,0,0,0,0,0,0,0,0,0,-1,734,876,0,0
-483,148,0,0,0,0,0,0,0,0,0,-1,741,876,0,0
-476,148,0,0,0,0,0,0,0,0,0,-1,748,876,0,0
-469,148,0,0,0,0,0,0,0,0,0,-1,755,876,0,0
-462,148,0,0,0,0,0,0,0,0,0,-1,762,876,0,0
-455,148,0,0,0,0,0,0,0,0,0,-1,769,876,0,0
-448,148,0,0,0,0,0,0,0,0,0,-1,776,876,0,0
-441,148,0,0,0,0,0,0,0,0,0,-1,783,876,0,0
-434,148,0,0,0,0,0,0,0,0,0,-1,790,876,0,0
-427,148,0,0,0,0,0,0,0,0,0,-1,797,876,0,0
-420,148,0,0,0,0,0,0,0,0,0,-1,804,876,0,0
-413,148,0,0,0,0,0,0,0,0,0,-1,811,876,0,0
-406,148,0,0,0,0,0,0,0,0,0,-1,818,876,0,0
-399,148,0,0,0,0,0,0,0,0,0,-1,825,876,0,0
-392,148,0,0,0,0,0,0,0,0,0,-1,832,876,0,0
-385,148,0,0,0,0,0,0,0,0,0,-1,839,876,0,0
-378,148,0,0,0,0,0,0,0,0,0,-1,846,876,0,0
-371,148,0,0,0,0,0,0,0,0,0,-1,853,876,0,0
-364,148,0,0,0,0,0,0,0,0,0,-1,860,876,0,0
-357,148,0,0,0,0,0,0,0,0,0,-1,867,876,0,0
-350,148,0,0,0,0,0,0,0,0,0,-1,874,876,0,0
-343,148,0,0,0,0,0,0,0,0,0,-1,881,876,0,0
-336,148,0,0,0,0,0,0,0,0,0,-1,888,876,0,0
-329,148,0,0,0,0,0,0,0,0,0,-1,895,876,0,0
-322,148,0,0,0,0,0,0,0,0,0,-1,902,876,0,0
-315,148,0,0,0,0,0,0,0,0,0,-1,909,876,0,0
-308,148,0,0,0,0,0,0,0,0,0,-1,916,876,0,0
-301,148,0,0,0,0,0,0,0,0,0,-1,923,876,0,0
-294,148,0,0,0,0,0,0,0,0,0,-1,930,876,0,0
-287,148,0,0,0,0,0,0,0,0,0,-1,937,876,0,0
-280,148,0,0,0,0,0,0,0,0,0,-1,944,876,0,0
-273,148,0,0,0,0,0,0,0,0,0,-1,951,876,0,0
-266,148,0,0,0,0,0,0,0,0,0,-1,958,876,0,0
-259,148,0,0,0,0,0,0,0,0,0,-1,965,876,0,0
-252,148,0,0,0,0,0,0,0,0,0,-1,972,876,0,0
-245,148,0,0,0,0,0,0,0,0,0,-1,979,876,0,0
-238,148,0,0,0,0,0,0,0,0,0,-1,986,876,0,0
-231,148,0,0,0,0,0,0,0,0,0,-1,993,876,0,0
-224,148,0,0,0,0,0,0,0,0,0,-1,1000,876,0,0
-217,148,0,0,0,0,0,0,0,0,0,-1,1007,876,0,0
-210,148,0,0,0,0,0,0,0,0,0,-1,1014,876,0,0
-203,148,0,0,0,0,0,0,0,0,0,-1,1021,876,0,0
-196,148,0,0,0,0,0,0,0,0,0,-1,1028,876,0,0
-189,148,0,0,0,0,0,0,0,0,0,-1,1035,876,0,0
-182,148,0,0,0,0,0,0,0,0,0,-1,1042,876,0,0
-175,148,0,0,0,0,0,0,0,0,0,-1,1049,876,0,0
-168,148,0,0,0,0,0,0,0,0,0,-1,1056,876,0,0
-161,148,0,0,0,0,0,0,0,0,0,-1,1063,876,0,0
-154,148,0,0,0,0,0,0,0,0,0,-1,1070,876,0,0
-147,148,0,0,0,0,0,0,0,0,0,-1,1077,876,0,0
-140,148,0,0,0,0,0,0,0,0,0,-1,1084,876,0,0
-133,148,0,0,0,0,0,0,0,0,0,-1,1091,876,0,0
-126,148,0,0,0,0,0,0,0,0,0,-1,1098,876,0,0
-119,148,0,0,0,0,0,0,0,0,0,-1,1105,876,0,0
-112,148,0,0,0,0,0,0,0,0,0,-1,1112,876,0,0
-105,148,0,0,0,0,0,0,0,0,0,-1,1119,876,0,0
-98,148,0,0,0,0,0,0,0,0,0,-1,1126,876,0,0
-91,148,0,0,0,0,0,0,0,0,0,-1,1133,876,0,0
-84,148,0,0,0,0,0,0,0,0,0,-1,1140,876,0,0
-77,148,0,0,0,0,0,0,0,0,0,-1,1147,876,0,0
-70,148,0,0,0,0,0,0,0,0,0,-1,1154,876,0,0
-63,148,0,0,0,0,0,0,0,0,0,-1,1161,876,0,0
-56,148,0,0,0,0,0,0,0,0,0,-1,1168,876,0,0
-49,148,0,0,0,0,0,0,0,0,0,-1,1175,876,0,0
-42,148,0,0,0,0,0,0,0,0,0,-1,1182,876,0,0
-35,148,0,0,0,0,0,0,0,0,0,-1,1189,876,0,0
-28,148,0,0,0,0,0,0,0,0,0,-1,1196,876,0,0
-21,148,0,0,0,0,0,0,0,0,0,-1,1203,876,0,0
-14,148,0,0,0,0,0,0,0,0,0,-1,1210,876,0,0
-7,148,0,0,0,0,0,0,0,0,0,-1,1217,876,0,0
0,148,0,0,0,0,0,0,0,0,0,-1,1224,876,0,0
7,148,0,0,0,0,0,0,0,0,0,-1,1231,876,0,0
14,148,0,0,0,0,0,0,0,0,0,-1,1238,876,0,0
21,148,0,0,0,0,0,0,0,0,0,-1,1245,876,0,0
28,148,0,0,0,0,0,0,0,0,0,-1,1252,876,0,0
35,148,0,0,0,0,0,0,0,0,0,-1,1259,876,0,0
42,148,0,0,0,0,0,0,0,0,0,-1,1266,876,0,0
49,148,0,0,0,0,0,0,0,0,0,-1,1273,876,0,0
56,148,0,0,0,0,0,0,0,0,0,-1,1280,876,0,0
63,148,0,0,0,0,0,0,0,0,0,-1,1287,876,0,0
70,148,0,0,0,0,0,0,0,0,0,-1,1294,876,0,0
77,148,0,0,0,0,0,0,0,0,0,-1,1301,876,0,0
84,148,0,0,0,0,0,0,0,0,0,-1,1308,876,0,0
91,148,0,0,0,0,0,0,0,0,0,-1,1315,876,0,0
98,148,0,0,0,0,0,0,0,0,0,-1,1322,876,0,0
105,148,0,0,0,0,0,0,0,0,0,-1,1329,876,0,0
112,148,0,0,0,0,0,0,0,0,0,-1,1336,876,0,0
119,148,0,0,0,0,0,0,0,0,0,-1,1343,876,0,0
126,148,0,0,0,0,0,0,0,0,0,-1,1350,876,0,0
133,148,0,0,0,0,0,0,0,0,0,-1,1357,876,0,0
140,148,0,0,0,0,0,0,0,0,0,-1,1364,876,0,0
147,148,0,0,0,0,0,0,0,0,0,-1,1371,876,0,0
154,148,0,0,0,0,0,0,0,0,0,-1,1378,876,0,0
161,148,0,0,0,0,0,0,0,0,0,-1,1385,876,0,0
168,148,0,0,0,0,0,0,0,0,0,-1,1392,876,0,0
175,148,0,0,0,0,0,0,0,0,0,-1,1399,876,0,0
182,148,0,0,0,0,0,0,0,0,0,-1,1406,876,0,0
189,148,0,0,0,0,0,0,0,0,0,-1,1413,876,0,0
196,148,0,0,0,0,0,0,0,0,0,-1,1420,876,0,0
203,148,0,0,0,0,0,0,0,0,0,-1,1427,876,0,0
210,148,0,0,0,0,0,0,0,0,0,-1,1434,876,0,0
217,148,0,0,0,0,0,0,0,0,0,-1,1441,876,0,0
224,148,0,0,0,0,0,0,0,0,0,-1,1448,876,0,0
231,148,0,0,0,0,0,0,0,0,0,-1,1455,876,0,0
238,148,0,0,0,0,0,0,0,0,0,-1,1462,876,0,0
245,148,0,0,0,0,0,0,0,0,0,-1,1469,876,0,0
252,148,0,0,0,0,0,0,0,0,0,-1,1476,876,0,0
259,148,0,0,0,0,0,0,0,0,0,-1,1483,876,0,0
266,148,0,0,0,0,0,0,0,0,0,-1,1490,876,0,0
273,148,0,0,0,0,0,0,0,0,0,-1,1497,876,0,0
280,148,0,0,0,0,0,0,0,0,0,-1,1504,876,0,0
287,148,0,0,0,0,0,0,0,0,0,-1,1511,876,0,0
294,148,0,0,0,0,0,0,0,0,0,-1,1518,876,0,0
301,148,0,0,0,0,0,0,0,0,0,-1,1525,876,0,0
308,148,0,0,0,0,0,0,0,0,0,-1,1532,876,0,0
315,148,0,0,0,0,0,0,0,0,0,-1,1539,876,0,0
322,148,0,0,0,0,0,0,0,0,0,-1,1546,876,0,0
329,148,0,0,0,0,0,0,0,0,0,-1,1553,876,0,0
336,148,0,0,0,0,0,0,0,0,0,-1,1560,876,0,0
343,148,0,0,0,0,0,0,0,0,0,-1,1567,876,0,0
350,148,0,0,0,0,0,0,0,0,0,-1,1574,876,0,0
357,148,0,0,0,0,0,0,0,0,0,-1,1581,876,0,0
364,148,0,0,0,0,0,0,0,0,0,-1,1588,876,0,0
371,148,0,0,0,0,0,0,0,0,0,-1,1595,876,0,0
378,148,0,0,0,0,0,0,0,0,0,-1,1602,876,0,0
385,148,0,0,0,0,0,0,0,0,0,-1,1609,876,0,0
392,148,0,0,0,0,0,0,0,0,0,-1,1616,876,0,0
399,148,0,0,0,0,0,0,0,0,0,-1,1623,876,0,0
406,148,0,0,0,0,0,0,0,0,0,-1,1630,876,0,0
413,148,0,0,0,0,0,0,0,0,0,-1,1637,876,0,0
420,148,0,0,0,0,0,0,0,0,0,-1,1644,876,0,0
427,148,0,0,0,0,0,0,0,0,0,-1,1651,876,0,0
434,148,0,0,0,0,0,0,0,0,0,-1,1658,876,0,0
441,148,0,0,0,0,0,0,0,0,0,-1,1665,876,0,0
448,148,0,0,0,0,0,0,0,0,0,-1,1672,876,0,0
455,148,0,0,0,0,0,0,0,0,0,-1,1679,876,0,0
462,148,0,0,0,0,0,0,0,0,0,-1,1686,876,0,0
469,148,0,0,0,0,0,0,0,0,0,-1,1693,876,0,0
476,148,0,0,0,0,0,0,0,0,0,-1,1700,876,0,0
483,148,0,0,0,0,0,0,0,0,0,-1,1707,876,0,0
490,148,0,0,0,0,0,0,0,0,0,-1,1714,876,0,0
497,148,0,0,0,0,0,0,0,0,0,-1,1721,876,0,0
504,148,0,0,0,0,0,0,0,0,0,-1,1728,876,0,0
511,148,0,0,0,0,0,0,0,0,0,-1,1735,876,0,0
518,148,0,0,0,0,0,0,0,0,0,-1,1742,876,0,0
525,148,0,0,0,0,0,0,0,0,0,-1,1749,876,0,0
532,148,0,0,0,0,0,0,0,0,0,-1,1756,876,0,0
539,148,0,0,0,0,0,0,0,0,0,-1,1763,876,0,0
546,148,0,0,0,0,0,0,0,0,0,-1,1770,876,0,0
553,148,0,0,0,0,0,0,0,0,0,-1,1777,876,0,0
560,148,0,0,0,0,0,0,0,0,0,-1,1784,876,0,0
567,148,0,0,0,0,0,0,0,0,0,-1,1791,876,0,0
574,148,0,0,0,0,0,0,0,0,0,-1,1798,876,0,0
581,148,0,0,0,0,0,0,0,0,0,-1,1805,876,0,0
588,148,0,0,0,0,0,0,0,0,0,-1,1812,876,0,0
595,148,0,0,0,0,0,0,0,0,0,-1,1819,876,0,0
602,148,0,0,0,0,0,0,0,0,0,-1,1826,876,0,0
609,148,0,0,0,0,0,0,0,0,0,-1,1833,876,0,0
616,148,0,0,0,0,0,0,0,0,0,-1,1840,876,0,0
623,148,80.809,2.19916,0.00184885,0.00106118,-0.00123388,0.00275022,0.000159805,-0.630916,0.0017826,0.0451162,1847,876,80.809,-2.19915
630,148,80.7643,2.15729,0.00113856,0.000567316,-0.000144207,0.0011729,0.000532977,-0.233773,0.000678114,0.0448502,1854,876,80.7643,-2.15731
637,148,80.7911,2.11041,0.000764023,-3.11896e-05,0.000407561,0.0009358,-0.000202966,0.398881,0.00070138,0.0386282,1861,876,80.7911,-2.11039
644,148,80.8007,2.00812,0.000508491,-0.000718244,0.000612043,0.00076162,-0.000971374,0.392159,0.00100298,0.0360463,1868,876,80.8006,-2.00809
651,148,80.8729,2.02258,0.000278991,-0.00145146,0.000562689,0.000445868,-0.00161833,0.288307,0.00125421,0.0370068,1875,876,80.8729,-2.02257
658,148,80.8878,2.16992,-0.000599045,-0.00198147,-0.000155158,-0.000581845,-0.00199867,-0.110406,0.00118703,0.0323839,1882,876,80.8879,-2.16995
665,148,80.7368,2.29376,-0.00136666,-0.00150608,-0.000503687,-0.000927883,-0.00194486,-0.716633,0.00112326,0.0251752,1889,876,80.7368,-2.29378
672,148,80.6554,2.45081,0,0,0,0,0,0,0,-1,1896,876,80.6554,-2.45079
679,148,80.712,2.23431,0,0,0,0,0,0,0,-1,1903,876,80.712,-2.23433
686,148,21.6195,2.40845,0,0,0,0,0,0,0,-1,1910,876,21.6196,-2.40846
693,148,48.1387,1.97351,0,0,0,0,0,0,0,-1,1917,876,48.1387,-1.97351
700,148,69.5303,2.43085,0,0,0,0,0,0,0,-1,1924,876,69.5303,-2.43085
707,148,69.526,3.0683,0,0,0,0,0,0,0,-1,1931,876,69.526,-3.06831
714,148,69.403,3.76453,-0.00218516,0.000870032,-0.00257485,0.00233633,-0.00365146,-1.05313,0.00348473,0.0449851,1938,876,69.4029,-3.76455
721,148,68.9919,4.58051,-0.00185139,0.0017079,-0.00272868,0.00318599,-0.00332948,-1.07436,0.00376201,0.0368882,1945,876,68.992,-4.58048
728,148,68.9894,5.3916,-0.00146907,0.00248723,-0.00273468,0.00388422,-0.00286606,-1.09851,0.00391203,0.0225896,1952,876,68.9894,-5.39157
735,148,68.9658,6.28448,-0.000339563,0.00351046,-0.0027102,0.00490973,-0.00173884,-1.0942,0.00398141,0.021559,1959,876,68.9658,-6.28449
742,148,68.8606,7.15021,0.001797,0.00472107,-0.00271168,0.00633974,0.000178323,-1.03264,0.00416833,0.0228114,1966,876,68.8606,-7.15021
749,148,68.7343,7.95044,0.00480839,0.00597366,-0.00268539,0.00813889,0.00264316,-0.892225,0.00479423,0.0231255,1973,876,68.7342,-7.95045
756,148,68.6367,8.82361,0.00856956,0.00730625,-0.00259997,0.0106135,0.00526231,-0.666234,0.00612779,0.0281856,1980,876,68.6367,-8.82364
763,148,68.8577,9.62915,0.0131351,0.00869224,-0.00272749,0.0144314,0.00739601,-0.443649,0.00833282,0.0448116,1987,876,68.8576,-9.62917
770,148,69.0637,10.4283,0,0,0,0,0,0,0,-1,1994,876,69.0636,-10.4283
777,148,67.353,12.5724,0,0,0,0,0,0,0,-1,2001,876,67.353,-12.5724
784,148,71.5566,9.01587,0,0,0,0,0,0,0,-1,2008,876,71.5567,-9.01584
791,148,71.4524,10.6003,0,0,0,0,0,0,0,-1,2015,876,71.4523,-10.6003
798,148,0,0,0,0,0,0,0,0,0,-1,2022,876,0,0
805,148,0,0,0,0,0,0,0,0,0,-1,2029,876,0,0
812,148,0,0,0,0,0,0,0,0,0,-1,2036,876,0,0
-700,141,0,0,0,0,0,0,0,0,0,-1,524,883,0,0
-693,141,0,0,0,0,0,0,0,0,0,-1,531,883,0,0
-686,141,0,0,0,0,0,0,0,0,0,-1,538,883,0,0
-679,141,0,0,0,0,0,0,0,0,0,-1,545,883,0,0
-672,141,-48.7804,-0.600891,0,0,0,0,0,0,0,-1,552,883,-48.7804,0.600898
-665,141,-48.764,-3.67065,0,0,0,0,0,0,0,-1,559,883,-48.764,3.67066
-658,141,-52.3438,3.12531,0,0,0,0,0,0,0,-1,566,883,-52.3438,-3.1253
-651,141,-53.1779,1.50293,0,0,0,0,0,0,0,-1,573,883,-53.1778,-1.50292
-644,141,-52.4205,-0.191956,0,0,0,0,0,0,0,-1,580,883,-52.4205,0.191941
-637,141,-52.859,0.400024,0,0,0,0,0,0,0,-1,587,883,-52.859,-0.400006
-630,141,-52.8137,9.3949,0,0,0,0,0,0,0,-1,594,883,-52.8137,-9.39489
-623,141,-53.0613,8.32227,-0.00699651,0.00992396,0.00911121,0.0138971,-0.0109697,1.15958,0.01439,0.0390259,601,883,-53.0613,-8.32226
-616,141,-53.3421,7.36426,-0.0055431,0.0075065,0.00666221,0.0103068,-0.00834343,1.17289,0.0107876,0.0159683,608,883,-53.3421,-7.36426
-609,141,-53.4852,6.4823,-0.00412979,0.00561567,0.00473982,0.00754069,-0.00605481,1.18501,0.00786497,0.0155326,615,883,-53.4851,-6.48231
-602,141,-53.5568,5.58838,-0.00295247,0.00410368,0.00327868,0.00539194,-0.00424073,1.19641,0.00557465,0.0172026,622,883,-53.5568,-5.58838
-595,141,-53.5073,4.66821,-0.00192154,0.00329812,0.00243991,0.00426101,-0.00288444,1.19492,0.00415087,0.020534,629,883,-53.5073,-4.66822
-588,141,-53.9691,3.71838,-0.00102406,0.00285987,0.00220858,0.00385883,-0.00202302,1.14602,0.00345058,0.0400216,636,883,-53.9691,-3.71839
-581,141,-54.3391,2.73535,0,0,0,0,0,0,0,-1,643,883,-54.3391,-2.73533
-574,141,-42.7302,0.864685,0,0,0,0,0,0,0,-1,650,883,-42.7301,-0.864692
-567,141,-30.5335,0.480103,0,0,0,0,0,0,0,-1,657,883,-30.5335,-0.480081
-560,141,-30.5542,0.23175,0,0,0,0,0,0,0,-1,664,883,-30.5542,-0.231742
-553,141,-32.0876,1.39459,0,0,0,0,0,0,0,-1,671,883,-32.0876,-1.3946
-546,141,-64.0504,0.29718,0,0,0,0,0,0,0,-1,678,883,-64.0504,-0.297157
-539,141,-64.0444,0.314453,-0.00171742,0.00149129,0.000111644,0.00149517,-0.0017213,1.53606,0.00185856,0.0289653,685,883,-64.0445,-0.314481
-532,141,-64.0613,0.349854,-0.0011834,0.00121732,7.83558e-05,0.00121987,-0.00118595,1.5382,0.00138905,0.0284946,692,883,-64.0613,-0.34984
-525,141,-64.0983,0.375183,-0.00176457,0.00101996,-0.00100803,0.00134656,-0.00209117,-1.25746,0.00200024,0.0368715,699,883,-64.0982,-0.375202
-518,141,-64.1307,0.297913,-0.00237067,0.000618643,-0.00199083,0.00161345,-0.00336547,-1.10739,0.0029333,0.0429142,706,883,-64.1307,-0.297938
-511,141,-64.025,0.0507813,-0.00147182,0.000495935,-0.00242863,0.00213241,-0.00310829,-0.977853,0.00304316,0.0420794,713,883,-64.0249,-0.0508048
-504,141,-64.1502,0.252563,0.000244238,7.78205e-05,-0.00271653,0.00287884,-0.00255678,-0.770088,0.00314009,0.0436842,720,883,-64.1502,-0.252557
-497,141,0,0,0,0,0,0,0,0,0,-1,727,883,0,0
-490,141,0,0,0,0,0,0,0,0,0,-1,734,883,0,0
-483,141,0,0,0,0,0,0,0,0,0,-1,741,883,0,0
-476,141,0,0,0,0,0,0,0,0,0,-1,748,883,0,0
-469,141,0,0,0,0,0,0,0,0,0,-1,755,883,0,0
-462,141,0,0,0,0,0,0,0,0,0,-1,762,883,0,0
-455,141,0,0,0,0,0,0,0,0,0,-1,769,883,0,0
-448,141,0,0,0,0,0,0,0,0,0,-1,776,883,0,0
-441,141,0,0,0,0,0,0,0,0,0,-1,783,883,0,0
-434,141,0,0,0,0,0,0,0,0,0,-1,790,883,0,0
-427,141,0,0,0,0,0,0,0,0,0,-1,797,883,0,0
-420,141,0,0,0,0,0,0,0,0,0,-1,804,883,0,0
-413,141,0,0,0,0,0,0,0,0,0,-1,811,883,0,0
-406,141,0,0,0,0,0,0,0,0,0,-1,818,883,0,0
-399,141,0,0,0,0,0,0,0,0,0,-1,825,883,0,0
-392,141,0,0,0,0,0,0,0,0,0,-1,832,883,0,0
-385,141,0,0,0,0,0,0,0,0,0,-1,839,883,0,0
-378,141,0,0,0,0,0,0,0,0,0,-1,846,883,0,0
-371,141,0,0,0,0,0,0,0,0,0,-1,853,883,0,0
-364,141,0,0,0,0,0,0,0,0,0,-1,860,883,0,0
-357,141,0,0,0,0,0,0,0,0,0,-1,867,883,0,0
-350,141,0,0,0,0,0,0,0,0,0,-1,874,883,0,0
-343,141,0,0,0,0,0,0,0,0,0,-1,881,883,0,0
-336,141,0,0,0,0,0,0,0,0,0,-1,888,883,0,0
-329,141,0,0,0,0,0,0,0,0,0,-1,895,883,0,0
-322,141,0,0,0,0,0,0,0,0,0,-1,902,883,0,0
-315,141,0,0,0,0,0,0,0,0,0,-1,909,883,0,0
-308,141,0,0,0,0,0,0,0,0,0,-1,916,883,0,0
-301,141,0,0,0,0,0,0,0,0,0,-1,923,883,0,0
-294,141,0,0,0,0,0,0,0,0,0,-1,930,883,0,0
-287,141,0,0,0,0,0,0,0,0,0,-1,937,883,0,0
-280,141,0,0,0,0,0,0,0,0,0,-1,944,883,0,0
-273,141,0,0,0,0,0,0,0,0,0,-1,951,883,0,0
-266,141,0,0,0,0,0,0,0,0,0,-1,958,883,0,0
-259,141,0,0,0,0,0,0,0,0,0,-1,965,883,0,0
-252,141,0,0,0,0,0,0,0,0,0,-1,972,883,0,0
-245,141,0,0,0,0,0,0,0,0,0,-1,979,883,0,0
-238,141,0,0,0,0,0,0,0,0,0,-1,986,883,0,0
-231,141,0,0,0,0,0,0,0,0,0,-1,993,883,0,0
-224,141,0,0,0,0,0,0,0,0,0,-1,1000,883,0,0
-217,141,0,0,0,0,0,0,0,0,0,-1,1007,883,0,0
-210,141,0,0,0,0,0,0,0,0,0,-1,1014,883,0,0
-203,141,0,0,0,0,0,0,0,0,0,-1,1021,883,0,0
-196,141,0,0,0,0,0,0,0,0,0,-1,1028,883,0,0
-189,141,0,0,0,0,0,0,0,0,0,-1,1035,883,0,0
-182,141,0,0,0,0,0,0,0,0,0,-1,1042,883,0,0
-175,141,0,0,0,0,0,0,0,0,0,-1,1049,883,0,0
-168,141,0,0,0,0,0,0,0,0,0,-1,1056,883,0,0
-161,141,0,0,0,0,0,0,0,0,0,-1,1063,883,0,0
-154,141,0,0,0,0,0,0,0,0,0,-1,1070,883,0,0
-147,141,0,0,0,0,0,0,0,0,0,-1,1077,883,0,0
-140,141,0,0,0,0,0,0,0,0,0,-1,1084,883,0,0
-133,141,0,0,0,0,0,0,0,0,0,-1,1091,883,0,0
-126,141,0,0,0,0,0,0,0,0,0,-1,1098,883,0,0
-119,141,0,0,0,0,0,0,0,0,0,-1,1105,883,0,0
-112,141,0,0,0,0,0,0,0,0,0,-1,1112,883,0,0
-105,141,0,0,0,0,0,0,0,0,0,-1,1119,883,0,0
-98,141,0,0,0,0,0,0,0,0,0,-1,1126,883,0,0
-91,141,0,0,0,0,0,0,0,0,0,-1,1133,883,0,0
-84,141,0,0,0,0,0,0,0,0,0,-1,1140,883,0,0
-77,141,0,0,0,0,0,0,0,0,0,-1,1147,883,0,0
-70,141,0,0,0,0,0,0,0,0,0,-1,1154,883,0,0
-63,141,0,0,0,0,0,0,0,0,0,-1,1161,883,0,0
-56,141,0,0,0,0,0,0,0,0,0,-1,1168,883,0,0
-49,141,0,0,0,0,0,0,0,0,0,-1,1175,883,0,0
-42,141,0,0,0,0,0,0,0,0,0,-1,1182,883,0,0
-35,141,0,0,0,0,0,0,0,0,0,-1,1189,883,0,0
-28,141,0,0,0,0,0,0,0,0,0,-1,1196,883,0,0
-21,141,0,0,0,0,0,0,0,0,0,-1,1203,883,0,0
-14,141,0,0,0,0,0,0,0,0,0,-1,1210,883,0,0
-7,141,0,0,0,0,0,0,0,0,0,-1,1217,883,0,0
0,141,0,0,0,0,0,0,0,0,0,-1,1224,883,0,0
7,141,0,0,0,0,0,0,0,0,0,-1,1231,883,0,0
14,141,0,0,0,0,0,0,0,0,0,-1,1238,883,0,0
21,141,0,0,0,0,0,0,0,0,0,-1,1245,883,0,0
28,141,0,0,0,0,0,0,0,0,0,-1,1252,883,0,0
35,141,0,0,0,0,0,0,0,0,0,-1,1259,883,0,0
42,141,0,0,0,0,0,0,0,0,0,-1,1266,883,0,0
49,141,0,0,0,0,0,0,0,0,0,-1,1273,883,0,0
56,141,0,0,0,0,0,0,0,0,0,-1,1280,883,0,0
63,141,0,0,0,0,0,0,0,0,0,-1,1287,883,0,0
70,141,0,0,0,0,0,0,0,0,0,-1,1294,883,0,0
77,141,0,0,0,0,0,0,0,0,0,-1,1301,883,0,0
84,141,0,0,0,0,0,0,0,0,0,-1,1308,883,0,0
91,141,0,0,0,0,0,0,0,0,0,-1,1315,883,0,0
98,141,0,0,0,0,0,0,0,0,0,-1,1322,883,0,0
105,141,0,0,0,0,0,0,0,0,0,-1,1329,883,0,0
112,141,0,0,0,0,0,0,0,0,0,-1,1336,883,0,0
119,141,0,0,0,0,0,0,0,0,0,-1,1343,883,0,0
126,141,0,0,0,0,0,0,0,0,0,-1,1350,883,0,0
133,141,0,0,0,0,0,0,0,0,0,-1,1357,883,0,0
140,141,0,0,0,0,0,0,0,0,0,-1,1364,883,0,0
147,141,0,0,0,0,0,0,0,0,0,-1,1371,883,0,0
154,141,0,0,0,0,0,0,0,0,0,-1,1378,883,0,0
161,141,0,0,0,0,0,0,0,0,0,-1,1385,883,0,0
168,141,0,0,0,0,0,0,0,0,0,-1,1392,883,0,0
175,141,0,0,0,0,0,0,0,0,0,-1,1399,883,0,0
182,141,0,0,0,0,0,0,0,0,0,-1,1406,883,0,0
189,141,0,0,0,0,0,0,0,0,0,-1,1413,883,0,0
196,141,0,0,0,0,0,0,0,0,0,-1,1420,883,0,0
203,141,0,0,0,0,0,0,0,0,0,-1,1427,883,0,0
210,141,0,0,0,0,0,0,0,0,0,-1,1434,883,0,0
217,141,0,0,0,0,0,0,0,0,0,-1,1441,883,0,0
224,141,0,0,0,0,0,0,0,0,0,-1,1448,883,0,0
231,141,0,0,0,0,0,0,0,0,0,-1,1455,883,0,0
238,141,0,0,0,0,0,0,0,0,0,-1,1462,883,0,0
245,141,0,0,0,0,0,0,0,0,0,-1,1469,883,0,0
252,141,0,0,0,0,0,0,0,0,0,-1,1476,883,0,0
259,141,0,0,0,0,0,0,0,0,0,-1,1483,883,0,0
266,141,0,0,0,0,0,0,0,0,0,-1,1490,883,0,0
273,141,0,0,0,0,0,0,0,0,0,-1,1497,883,0,0
280,141,0,0,0,0,0,0,0,0,0,-1,1504,883,0,0
287,141,0,0,0,0,0,0,0,0,0,-1,1511,883,0,0
294,141,0,0,0,0,0,0,0,0,0,-1,1518,883,0,0
301,141,0,0,0,0,0,0,0,0,0,-1,1525,883,0,0
308,141,0,0,0,0,0,0,0,0,0,-1,1532,883,0,0
315,141,0,0,0,0,0,0,0,0,0,-1,1539,883,0,0
322,141,0,0,0,0,0,0,0,0,0,-1,1546,883,0,0
329,141,0,0,0,0,0,0,0,0,0,-1,1553,883,0,0
336,141,0,0,0,0,0,0,0,0,0,-1,1560,883,0,0
343,141,0,0,0,0,0,0,0,0,0,-1,1567,883,0,0
350,141,0,0,0,0,0,0,0,0,0,-1,1574,883,0,0
357,141,0,0,0,0,0,0,0,0,0,-1,1581,883,0,0
364,141,0,0,0,0,0,0,0,0,0,-1,1588,883,0,0
371,141,0,0,0,0,0,0,0,0,0,-1,1595,883,0,0
378,141,0,0,0,0,0,0,0,0,0,-1,1602,883,0,0
385,141,0,0,0,0,0,0,0,0,0,-1,1609,883,0,0
392,141,0,0,0,0,0,0,0,0,0,-1,1616,883,0,0
399,141,0,0,0,0,0,0,0,0,0,-1,1623,883,0,0
406,141,0,0,0,0,0,0,0,0,0,-1,1630,883,0,0
413,141,0,0,0,0,0,0,0,0,0,-1,1637,883,0,0
420,141,0,0,0,0,0,0,0,0,0,-1,1644,883,0,0
427,141,0,0,0,0,0,0,0,0,0,-1,1651,883,0,0
434,141,0,0,0,0,0,0,0,0,0,-1,1658,883,0,0
441,141,0,0,0,0,0,0,0,0,0,-1,1665,883,0,0
448,141,0,0,0,0,0,0,0,0,0,-1,1672,883,0,0
455,141,0,0,0,0,0,0,0,0,0,-1,1679,883,0,0
462,141,0,0,0,0,0,0,0,0,0,-1,1686,883,0,0
469,141,0,0,0,0,0,0,0,0,0,-1,1693,883,0,0
476,141,0,0,0,0,0,0,0,0,0,-1,1700,883,0,0
483,141,0,0,0,0,0,0,0,0,0,-1,1707,883,0,0
490,141,0,0,0,0,0,0,0,0,0,-1,1714,883,0,0
497,141,0,0,0,0,0,0,0,0,0,-1,1721,883,0,0
504,141,0,0,0,0,0,0,0,0,0,-1,1728,883,0,0
511,141,0,0,0,0,0,0,0,0,0,-1,1735,883,0,0
518,141,0,0,0,0,0,0,0,0,0,-1,1742,883,0,0
525,141,0,0,0,0,0,0,0,0,0,-1,1749,883,0,0
532,141,0,0,0,0,0,0,0,0,0,-1,1756,883,0,0
539,141,0,0,0,0,0,0,0,0,0,-1,1763,883,0,0
546,141,0,0,0,0,0,0,0,0,0,-1,1770,883,0,0
553,141,0,0,0,0,0,0,0,0,0,-1,1777,883,0,0
560,141,0,0,0,0,0,0,0,0,0,-1,1784,883,0,0
567,141,0,0,0,0,0,0,0,0,0,-1,1791,883,0,0
574,141,0,0,0,0,0,0,0,0,0,-1,1798,883,0,0
581,141,0,0,0,0,0,0,0,0,0,-1,1805,883,0,0
588,141,0,0,0,0,0,0,0,0,0,-1,1812,883,0,0
595,141,0,0,0,0,0,0,0,0,0,-1,1819,883,0,0
602,141,0,0,0,0,0,0,0,0,0,-1,1826,883,0,0
609,141,0,0,0,0,0,0,0,0,0,-1,1833,883,0,0
616,141,0,0,0,0,0,0,0,0,0,-1,1840,883,0,0
623,141,80.765,2.16382,9.59067e-05,0.00177775,-0.00119984,0.00240201,-0.00052836,-1.09105,0.00180345,0.0451168,1847,883,80.765,-2.16381
630,141,80.9308,1.9693,-0.000226575,0.00134026,-0.000116196,0.00134883,-0.000235145,-1.49717,0.000986984,0.0443342,1854,883,80.9308,-1.96931
637,141,80.8193,1.99603,0,0,0,0,0,0,0,-1,1861,883,80.8193,-1.99605
644,141,80.7843,2.11981,-0.000116978,-9.96529e-06,0.000490162,0.000429602,-0.000556546,0.839763,0.000570923,0.0389646,1868,883,80.7843,-2.11982
651,141,80.9226,2.16699,-1.24155e-05,-0.000821492,0.000380373,0.000138325,-0.000972233,0.37731,0.000698842,0.0359598,1875,883,80.9226,-2.16698
658,141,80.9894,2.2226,-0.00050205,-0.00146791,-0.000248662,-0.000441791,-0.00152817,-0.237748,0.000908077,0.0358329,1882,883,80.9893,-2.22258
665,141,80.7676,2.24048,-0.00108199,-0.00110291,-0.000616038,-0.000476326,-0.00170858,-0.776909,0.00101812,0.0299512,1889,883,80.7676,-2.24046
672,141,80.7736,2.22827,-0.0013716,-0.00095893,-0.000879967,-0.000261429,-0.0020691,-0.900557,0.00130104,0.0221044,1896,883,80.7736,-2.22827
679,141,80.7983,2.12592,-0.00145733,-0.000608326,-0.00110928,0.000154904,-0.00222056,-0.968142,0.00153461,0.0347377,1903,883,80.7983,-2.12591
686,141,80.8232,1.96881,0,0,0,0,0,0,0,-1,1910,883,80.8233,-1.96879
693,141,51.7202,1.76593,0,0,0,0,0,0,0,-1,1917,883,51.7202,-1.76595
700,141,62.7651,1.95361,0,0,0,0,0,0,0,-1,1924,883,62.7651,-1.95364
707,141,70.236,3.10809,0,0,0,0,0,0,0,-1,1931,883,70.236,-3.1081
714,141,69.8528,3.85181,-0.00198402,0.00102828,-0.00267653,0.00259334,-0.00354908,-1.04168,0.00356061,0.0426859,1938,883,69.8528,-3.85178
721,141,69.9064,4.59509,-0.00178582,0.00171959,-0.00287467,0.00333374,-0.00339997,-1.05916,0.00388777,0.0241085,1945,883,69.9064,-4.59507
728,141,69.9817,5.42291,-0.0016054,0.00245364,-0.00294667,0.00400208,-0.00315384,-1.08697,0.00414114,0.0185201,1952,883,69.9817,-5.4229
735,141,69.8923,6.39832,-0.000653536,0.00355671,-0.00293748,0.0050655,-0.00216232,-1.0963,0.00428372,0.0215865,1959,883,69.8924,-6.3983
742,141,69.7399,7.19806,0.00152322,0.00502649,-0.00290174,0.0066643,-0.000114592,-1.05695,0.00448155,0.0218781,1966,883,69.7399,-7.19804
749,141,69.6929,7.96582,0.00494991,0.00663365,-0.00263934,0.00856213,0.00302143,-0.939782,0.00501417,0.0162977,1973,883,69.6929,-7.96585
756,141,69.6311,8.82629,0.00944121,0.00830639,-0.00210515,0.0110541,0.00669352,-0.653759,0.00642928,0.0243408,1980,883,69.631,-8.82631
763,141,69.9575,9.61023,0.015201,0.0100115,-0.00131681,0.015516,0.00969647,-0.23481,0.00905092,0.0469311,1987,883,69.9576,-9.61024
770,141,70.2024,10.3993,0,0,0,0,0,0,0,-1,1994,883,70.2025,-10.3993
777,141,73.0037,8.44788,0,0,0,0,0,0,0,-1,2001,883,73.0038,-8.44787
784,141,73.3435,9.80182,0,0,0,0,0,0,0,-1,2008,883,73.3434,-9.80183
791,141,73.7993,11.1595,0,0,0,0,0,0,0,-1,2015,883,73.7994,-11.1595
798,141,0,0,0,0,0,0,0,0,0,-1,2022,883,0,0
805,141,0,0,0,0,0,0,0,0,0,-1,2029,883,0,0
812,141,0,0,0,0,0,0,0,0,0,-1,2036,883,0,0
-700,134,0,0,0,0,0,0,0,0,0,-1,524,890,0,0
-693,134,0,0,0,0,0,0,0,0,0,-1,531,890,0,0
-686,134,0,0,0,0,0,0,0,0,0,-1,538,890,0,0
-679,134,0,0,0,0,0,0,0,0,0,-1,545,890,0,0
-672,134,-49.3306,-0.500671,0,0,0,0,0,0,0,-1,552,890,-49.3306,0.500651
-665,134,-49.3356,-3.00098,0,0,0,0,0,0,0,-1,559,890,-49.3356,3.00096
-658,134,-49.3368,-5.46246,0,0,0,0,0,0,0,-1,566,890,-49.3368,5.46248
-651,134,-53.0905,0.530762,0,0,0,0,0,0,0,-1,573,890,-53.0905,-0.530792
-644,134,-51.8253,-1.26782,0,0,0,0,0,0,0,-1,580,890,-51.8253,1.26783
-637,134,-50.5067,-2.83545,0,0,0,0,0,0,0,-1,587,890,-50.5066,2.83545
-630,134,-53.7232,8.86554,0,0,0,0,0,0,0,-1,594,890,-53.7232,-8.86557
-623,134,-53.9489,8.18549,-0.0083789,0.0103506,0.00928236,0.0141715,-0.0121998,1.18031,0.0152396,0.0370659,601,890,-53.9489,-8.18546
-616,134,-54.2733,7.38519,-0.00632747,0.00772724,0.00681558,0.0104895,-0.00908969,1.18575,0.0113137,0.0155416,608,890,-54.2733,-7.38522
-609,134,-54.4174,6.51788,-0.00448286,0.00552805,0.00482064,0.00747193,-0.00642673,1.1875,0.00803195,0.0124916,615,890,-54.4174,-6.51789
-602,134,-54.4491,5.62372,-0.00309638,0.00379104,0.00330863,0.00512291,-0.00442825,1.1881,0.00551923,0.0144654,622,890,-54.4491,-5.62372
-595,134,-54.2902,4.79321,-0.00211451,0.0029057,0.00245832,0.00390899,-0.0031178,1.18331,0.00406548,0.0321138,629,890,-54.2901,-4.79321
-588,134,-54.8668,3.90643,-0.00136938,0.00242554,0.00221616,0.00344557,-0.00238941,1.13944,0.00338717,0.0482263,636,890,-54.8668,-3.90643
-581,134,-54.8506,2.81818,0,0,0,0,0,0,0,-1,643,890,-54.8506,-2.81817
-574,134,-31.1517,0.757751,0,0,0,0,0,0,0,-1,650,890,-31.1517,-0.757758
-567,134,-30.9003,0.296326,0,0,0,0,0,0,0,-1,657,890,-30.9002,-0.296302
-560,134,-22.9123,0.106567,0,0,0,0,0,0,0,-1,664,890,-22.9123,-0.106594
-553,134,-64.0177,0.279419,0,0,0,0,0,0,0,-1,671,890,-64.0177,-0.279413
-546,134,-64.0499,0.299927,-0.0019877,0.000775557,0.000477696,0.000855808,-0.00206795,1.40436,0.00173571,0.0323169,678,890,-64.0498,-0.299919
-539,134,-64.0623,0.318909,-0.00218024,0.000851439,0.00013563,0.000857495,-0.0021863,1.52618,0.0018123,0.0182521,685,890,-64.0623,-0.318921
-532,134,-64.0865,0.312744,-0.00160721,0.000500481,0.000126162,0.000508006,-0.00161473,1.51122,0.00127988,0.0228181,692,890,-64.0865,-0.31274
-525,134,-64.1593,0.465759,-0.00239282,0.000396948,-0.000991185,0.000713247,-0.00270912,-1.2619,0.0020849,0.0344217,699,890,-64.1593,-0.465751
-518,134,-64.1479,0.598206,-0.00315015,0.000359318,-0.00186813,0.00116759,-0.00395842,-1.16245,0.00310227,0.0421929,706,890,-64.1479,-0.598215
-511,134,-63.9278,0.138672,-0.00282472,0.000745471,-0.00218497,0.00178184,-0.00386109,-1.12791,0.00333085,0.0425807,713,890,-63.9278,-0.138667
-504,134,0,0,0,0,0,0,0,0,0,-1,720,890,0,0
-497,134,0,0,0,0,0,0,0,0,0,-1,727,890,0,0
-490,134,0,0,0,0,0,0,0,0,0,-1,734,890,0,0
-483,134,0,0,0,0,0,0,0,0,0,-1,741,890,0,0
-476,134,0,0,0,0,0,0,0,0,0,-1,748,890,0,0
-469,134,0,0,0,0,0,0,0,0,0,-1,755,890,0,0
-462,134,0,0,0,0,0,0,0,0,0,-1,762,890,0,0
-455,134,0,0,0,0,0,0,0,0,0,-1,769,890,0,0
-448,134,0,0,0,0,0,0,0,0,0,-1,776,890,0,0
-441,134,0,0,0,0,0,0,0,0,0,-1,783,890,0,0
-434,134,0,0,0,0,0,0,0,0,0,-1,790,890,0,0
-427,134,0,0,0,0,0,0,0,0,0,-1,797,890,0,0
-420,134,0,0,0,0,0,0,0,0,0,-1,804,890,0,0
-413,134,0,0,0,0,0,0,0,0,0,-1,811,890,0,0
-406,134,0,0,0,0,0,0,0,0,0,-1,818,890,0,0
-399,134,0,0,0,0,0,0,0,0,0,-1,825,890,0,0
-392,134,0,0,0,0,0,0,0,0,0,-1,832,890,0,0
-385,134,0,0,0,0,0,0,0,0,0,-1,839,890,0,0
-378,134,0,0,0,0,0,0,0,0,0,-1,846,890,0,0
-371,134,0,0,0,0,0,0,0,0,0,-1,853,890,0,0
-364,134,0,0,0,0,0,0,0,0,0,-1,860,890,0,0
-357,134,0,0,0,0,0,0,0,0,0,-1,867,890,0,0
-350,134,0,0,0,0,0,0,0,0,0,-1,874,890,0,0
-343,134,0,0,0,0,0,0,0,0,0,-1,881,890,0,0
-336,134,0,0,0,0,0,0,0,0,0,-1,888,890,0,0
-329,134,0,0,0,0,0,0,0,0,0,-1,895,890,0,0
-322,134,0,0,0,0,0,0,0,0,0,-1,902,890,0,0
-315,134,0,0,0,0,0,0,0,0,0,-1,909,890,0,0
-308,134,0,0,0,0,0,0,0,0,0,-1,916,890,0,0
-301,134,0,0,0,0,0,0,0,0,0,-1,923,890,0,0
-294,134,0,0,0,0,0,0,0,0,0,-1,930,890,0,0
-287,134,0,0,0,0,0,0,0,0,0,-1,937,890,0,0
-280,134,0,0,0,0,0,0,0,0,0,-1,944,890,0,0
-273,134,0,0,0,0,0,0,0,0,0,-1,951,890,0,0
-266,134,0,0,0,0,0,0,0,0,0,-1,958,890,0,0
-259,134,0,0,0,0,0,0,0,0,0,-1,965,890,0,0
-252,134,0,0,0,0,0,0,0,0,0,-1,972,890,0,0
-245,134,0,0,0,0,0,0,0,0,0,-1,979,890,0,0
-238,134,0,0,0,0,0,0,0,0,0,-1,986,890,0,0
-231,134,0,0,0,0,0,0,0,0,0,-1,993,890,0,0
-224,134,0,0,0,0,0,0,0,0,0,-1,1000,890,0,0
-217,134,0,0,0,0,0,0,0,0,0,-1,1007,890,0,0
-210,134,0,0,0,0,0,0,0,0,0,-1,1014,890,0,0
-203,134,0,0,0,0,0,0,0,0,0,-1,1021,890,0,0
-196,134,0,0,0,0,0,0,0,0,0,-1,1028,890,0,0
-189,134,0,0,0,0,0,0,0,0,0,-1,1035,890,0,0
-182,134,0,0,0,0,0,0,0,0,0,-1,1042,890,0,0
-175,134,0,0,0,0,0,0,0,0,0,-1,1049,890,0,0
-168,134,0,0,0,0,0,0,0,0,0,-1,1056,890,0,0
-161,134,0,0,0,0,0,0,0,0,0,-1,1063,890,0,0
-154,134,0,0,0,0,0,0,0,0,0,-1,1070,890,0,0
-147,134,0,0,0,0,0,0,0,0,0,-1,1077,890,0,0
-140,134,0,0,0,0,0,0,0,0,0,-1,1084,890,0,0
-133,134,0,0,0,0,0,0,0,0,0,-1,1091,890,0,0
-126,134,0,0,0,0,0,0,0,0,0,-1,1098,890,0,0
-119,134,0,0,0,0,0,0,0,0,0,-1,1105,890,0,0
-112,134,0,0,0,0,0,0,0,0,0,-1,1112,890,0,0
-105,134,0,0,0,0,0,0,0,0,0,-1,1119,890,0,0
-98,134,0,0,0,0,0,0,0,0,0,-1,1126,890,0,0
-91,134,0,0,0,0,0,0,0,0,0,-1,1133,890,0,0
-84,134,0,0,0,0,0,0,0,0,0,-1,1140,890,0,0
-77,134,0,0,0,0,0,0,0,0,0,-1,1147,890,0,0
-70,134,0,0,0,0,0,0,0,0,0,-1,1154,890,0,0
-63,134,0,0,0,0,0,0,0,0,0,-1,1161,890,0,0
-56,134,0,0,0,0,0,0,0,0,0,-1,1168,890,0,0
-49,134,0,0,0,0,0,0,0,0,0,-1,1175,890,0,0
-42,134,0,0,0,0,0,0,0,0,0,-1,1182,890,0,0
-35,134,0,0,0,0,0,0,0,0,0,-1,1189,890,0,0
-28,134,0,0,0,0,0,0,0,0,0,-1,1196,890,0,0
-21,134,0,0,0,0,0,0,0,0,0,-1,1203,890,0,0
-14,134,0,0,0,0,0,0,0,0,0,-1,1210,890,0,0
-7,134,0,0,0,0,0,0,0,0,0,-1,1217,890,0,0
0,134,0,0,0,0,0,0,0,0,0,-1,1224,890,0,0
7,134,0,0,0,0,0,0,0,0,0,-1,1231,890,0,0
14,134,0,0,0,0,0,0,0,0,0,-1,1238,890,0,0
21,134,0,0,0,0,0,0,0,0,0,-1,1245,890,0,0
28,134,0,0,0,0,0,0,0,0,0,-1,1252,890,0,0
35,134,0,0,0,0,0,0,0,0,0,-1,1259,890,0,0
42,134,0,0,0,0,0,0,0,0,0,-1,1266,890,0,0
49,134,0,0,0,0,0,0,0,0,0,-1,1273,890,0,0
56,134,0,0,0,0,0,0,0,0,0,-1,1280,890,0,0
63,134,0,0,0,0,0,0,0,0,0,-1,1287,890,0,0
70,134,0,0,0,0,0,0,0,0,0,-1,1294,890,0,0
77,134,0,0,0,0,0,0,0,0,0,-1,1301,890,0,0
84,134,0,0,0,0,0,0,0,0,0,-1,1308,890,0,0
91,134,0,0,0,0,0,0,0,0,0,-1,1315,890,0,0
98,134,0,0,0,0,0,0,0,0,0,-1,1322,890,0,0
105,134,0,0,0,0,0,0,0,0,0,-1,1329,890,0,0
112,134,0,0,0,0,0,0,0,0,0,-1,1336,890,0,0
119,134,0,0,0,0,0,0,0,0,0,-1,1343,890,0,0
126,134,0,0,0,0,0,0,0,0,0,-1,1350,890,0,0
133,134,0,0,0,0,0,0,0,0,0,-1,1357,890,0,0
140,134,0,0,0,0,0,0,0,0,0,-1,1364,890,0,0
147,134,0,0,0,0,0,0,0,0,0,-1,1371,890,0,0
154,134,0,0,0,0,0,0,0,0,0,-1,1378,890,0,0
161,134,0,0,0,0,0,0,0,0,0,-1,1385,890,0,0
168,134,0,0,0,0,0,0,0,0,0,-1,1392,890,0,0
175,134,0,0,0,0,0,0,0,0,0,-1,1399,890,0,0
182,134,0,0,0,0,0,0,0,0,0,-1,1406,890,0,0
189,134,0,0,0,0,0,0,0,0,0,-1,1413,890,0,0
196,134,0,0,0,0,0,0,0,0,0,-1,1420,890,0,0
203,134,0,0,0,0,0,0,0,0,0,-1,1427,890,0,0
210,134,0,0,0,0,0,0,0,0,0,-1,1434,890,0,0
217,134,0,0,0,0,0,0,0,0,0,-1,1441,890,0,0
224,134,0,0,0,0,0,0,0,0,0,-1,1448,890,0,0
231,134,0,0,0,0,0,0,0,0,0,-1,1455,890,0,0
238,134,0,0,0,0,0,0,0,0,0,-1,1462,890,0,0
245,134,0,0,0,0,0,0,0,0,0,-1,1469,890,0,0
252,134,0,0,0,0,0,0,0,0,0,-1,1476,890,0,0
259,134,0,0,0,0,0,0,0,0,0,-1,1483,890,0,0
266,134,0,0,0,0,0,0,0,0,0,-1,1490,890,0,0
273,134,0,0,0,0,0,0,0,0,0,-1,1497,890,0,0
280,134,0,0,0,0,0,0,0,0,0,-1,1504,890,0,0
287,134,0,0,0,0,0,0,0,0,0,-1,1511,890,0,0
294,134,0,0,0,0,0,0,0,0,0,-1,1518,890,0,0
301,134,0,0,0,0,0,0,0,0,0,-1,1525,890,0,0
308,134,0,0,0,0,0,0,0,0,0,-1,1532,890,0,0
315,134,0,0,0,0,0,0,0,0,0,-1,1539,890,0,0
322,134,0,0,0,0,0,0,0,0,0,-1,1546,890,0,0
329,134,0,0,0,0,0,0,0,0,0,-1,1553,890,0,0
336,134,0,0,0,0,0,0,0,0,0,-1,1560,890,0,0
343,134,0,0,0,0,0,0,0,0,0,-1,1567,890,0,0
350,134,0,0,0,0,0,0,0,0,0,-1,1574,890,0,0
357,134,0,0,0,0,0,0,0,0,0,-1,1581,890,0,0
364,134,0,0,0,0,0,0,0,0,0,-1,1588,890,0,0
371,134,0,0,0,0,0,0,0,0,0,-1,1595,890,0,0
378,134,0,0,0,0,0,0,0,0,0,-1,1602,890,0,0
385,134,0,0,0,0,0,0,0,0,0,-1,1609,890,0,0
392,134,0,0,0,0,0,0,0,0,0,-1,1616,890,0,0
399,134,0,0,0,0,0,0,0,0,0,-1,1623,890,0,0
406,134,0,0,0,0,0,0,0,0,0,-1,1630,890,0,0
413,134,0,0,0,0,0,0,0,0,0,-1,1637,890,0,0
420,134,0,0,0,0,0,0,0,0,0,-1,1644,890,0,0
427,134,0,0,0,0,0,0,0,0,0,-1,1651,890,0,0
434,134,0,0,0,0,0,0,0,0,0,-1,1658,890,0,0
441,134,0,0,0,0,0,0,0,0,0,-1,1665,890,0,0
448,134,0,0,0,0,0,0,0,0,0,-1,1672,890,0,0
455,134,0,0,0,0,0,0,0,0,0,-1,1679,890,0,0
462,134,0,0,0,0,0,0,0,0,0,-1,1686,890,0,0
469,134,0,0,0,0,0,0,0,0,0,-1,1693,890,0,0
476,134,0,0,0,0,0,0,0,0,0,-1,1700,890,0,0
483,134,0,0,0,0,0,0,0,0,0,-1,1707,890,0,0
490,134,0,0,0,0,0,0,0,0,0,-1,1714,890,0,0
497,134,0,0,0,0,0,0,0,0,0,-1,1721,890,0,0
504,134,0,0,0,0,0,0,0,0,0,-1,1728,890,0,0
511,134,0,0,0,0,0,0,0,0,0,-1,1735,890,0,0
518,134,0,0,0,0,0,0,0,0,0,-1,1742,890,0,0
525,134,0,0,0,0,0,0,0,0,0,-1,1749,890,0,0
532,134,0,0,0,0,0,0,0,0,0,-1,1756,890,0,0
539,134,0,0,0,0,0,0,0,0,0,-1,1763,890,0,0
546,134,0,0,0,0,0,0,0,0,0,-1,1770,890,0,0
553,134,0,0,0,0,0,0,0,0,0,-1,1777,890,0,0
560,134,0,0,0,0,0,0,0,0,0,-1,1784,890,0,0
567,134,0,0,0,0,0,0,0,0,0,-1,1791,890,0,0
574,134,0,0,0,0,0,0,0,0,0,-1,1798,890,0,0
581,134,0,0,0,0,0,0,0,0,0,-1,1805,890,0,0
588,134,0,0,0,0,0,0,0,0,0,-1,1812,890,0,0
595,134,0,0,0,0,0,0,0,0,0,-1,1819,890,0,0
602,134,0,0,0,0,0,0,0,0,0,-1,1826,890,0,0
609,134,0,0,0,0,0,0,0,0,0,-1,1833,890,0,0
616,134,0,0,0,0,0,0,0,0,0,-1,1840,890,0,0
623,134,81.0331,2.34875,-0.00238043,0.00288987,-0.00144183,0.00325854,-0.0027491,-1.32047,0.00347266,0.0459194,1847,890,81.0331,-2.34875
630,134,80.8763,2.30688,-0.0020778,0.00252535,-0.000295427,0.00254424,-0.00209668,-1.50697,0.00268359,0.0445053,1854,890,80.8764,-2.30686
637,134,80.9587,2.37238,-0.00156729,0.00187979,0.000154869,0.00188673,-0.00157423,1.52599,0.0020009,0.0453927,1861,890,80.9588,-2.37235
644,134,80.9551,2.42059,-0.00103217,0.00105669,0.000284622,0.00109478,-0.00107026,1.43777,0.00125001,0.0397622,1868,890,80.9551,-2.42057
651,134,80.9419,2.43481,-0.000488366,8.24982e-05,0.000170423,0.000129505,-0.000535373,1.30166,0.00040701,0.0402666,1875,890,80.9419,-2.43484
658,134,80.881,2.42474,-0.000448382,-0.000816374,-0.000350924,-0.000236143,-0.00102861,-0.543942,0.00062215,0.0408243,1882,890,80.8809,-2.42475
665,134,80.6592,2.29779,0,0,0,0,0,0,0,-1,1889,890,80.6591,-2.29778
672,134,80.7902,2.18494,-0.000963435,-0.000701396,-0.000977423,0.00015375,-0.00181858,-0.852024,0.00126675,0.0235128,1896,890,80.7902,-2.18497
679,134,80.8182,2.12006,-0.00110025,-0.000482427,-0.00117131,0.000420021,-0.0020027,-0.914328,0.00149494,0.0197347,1903,890,80.8183,-2.12003
686,134,80.8354,2.03754,0,0,0,0,0,0,0,-1,1910,890,80.8355,-2.03752
693,134,34.5778,2.48096,0,0,0,0,0,0,0,-1,1917,890,34.5777,-2.48099
700,134,70.6556,1.63416,0,0,0,0,0,0,0,-1,1924,890,70.6557,-1.63417
707,134,70.6293,2.52051,0,0,0,0,0,0,0,-1,1931,890,70.6293,-2.52052
714,134,70.7218,3.55499,-0.00176635,0.000973977,-0.00271012,0.00264061,-0.00343298,-1.01945,0.00351652,0.0306763,1938,890,70.7218,-3.55496
721,134,70.8383,4.44403,-0.00171971,0.00157533,-0.00295019,0.00330685,-0.00345123,-1.04005,0.00390208,0.0288412,1945,890,70.8382,-4.44404
728,134,70.8853,5.37421,-0.00175878,0.00228461,-0.00309414,0.00395899,-0.00343316,-1.07478,0.00427145,0.0249677,1952,890,70.8852,-5.37419
735,134,70.7986,6.42169,-0.00107055,0.00340055,-0.00314643,0.00502475,-0.00269476,-1.09427,0.00452403,0.0306701,1959,890,70.7986,-6.42168
742,134,70.6592,7.2677,0.00092943,0.00501213,-0.00315386,0.00672763,-0.000786076,-1.07262,0.00476876,0.0197722,1966,890,70.6592,-7.26771
749,134,70.6378,8.01697,0.00440935,0.00690791,-0.00281152,0.00873521,0.00258205,-0.994468,0.00518186,0.013901,1973,890,70.6378,-8.01699
756,134,70.5784,8.80884,0.00922035,0.00889509,-0.00204699,0.0111112,0.00700428,-0.745757,0.00648733,0.0195008,1980,890,70.5783,-8.80885
763,134,70.6528,9.59418,0.0154226,0.0108719,-0.000804578,0.0155607,0.0107338,-0.169941,0.0091972,0.0422759,1987,890,70.6529,-9.5942
770,134,70.7009,10.3712,0,0,0,0,0,0,0,-1,1994,890,70.7008,-10.3712
777,134,74.8572,9.58441,0,0,0,0,0,0,0,-1,2001,890,74.8572,-9.58442
784,134,75.1489,10.8398,0,0,0,0,0,0,0,-1,2008,890,75.1489,-10.8398
791,134,75.4202,12.0895,0,0,0,0,0,0,0,-1,2015,890,75.4202,-12.0896
798,134,0,0,0,0,0,0,0,0,0,-1,2022,890,0,0
805,134,0,0,0,0,0,0,0,0,0,-1,2029,890,0,0
812,134,0,0,0,0,0,0,0,0,0,-1,2036,890,0,0
-700,127,0,0,0,0,0,0,0,0,0,-1,524,897,0,0
-693,127,0,0,0,0,0,0,0,0,0,-1,531,897,0,0
-686,127,0,0,0,0,0,0,0,0,0,-1,538,897,0,0
-679,127,-52.0821,4.30957,0,0,0,0,0,0,0,-1,545,897,-52.0821,-4.30955
-672,127,-50.373,4.8219,0,0,0,0,0,0,0,-1,552,897,-50.373,-4.8219
-665,127,-49.6271,-2.44153,0,0,0,0,0,0,0,-1,559,897,-49.6271,2.44154
-658,127,-48.965,-4.18744,0,0,0,0,0,0,0,-1,566,897,-48.965,4.18745
-651,127,-52.9149,-0.455505,0,0,0,0,0,0,0,-1,573,897,-52.9149,0.455524
-644,127,-51.6913,-2.33765,0,0,0,0,0,0,0,-1,580,897,-51.6914,2.33763
-637,127,-50.3104,-4.18658,0,0,0,0,0,0,0,-1,587,897,-50.3104,4.18656
-630,127,-55.0566,8.76874,0,0,0,0,0,0,0,-1,594,897,-55.0566,-8.76876
-623,127,-55.1357,8.14069,-0.00867177,0.0105081,0.00927708,0.014261,-0.0124247,1.18639,0.0154191,0.0243974,601,897,-55.1357,-8.14068
-616,127,-55.2264,7.39484,-0.00637024,0.00768087,0.00685619,0.0104719,-0.00916129,1.1842,0.0113437,0.0128499,608,897,-55.2264,-7.39482
-609,127,-55.3277,6.52905,-0.0043776,0.00524935,0.00483645,0.00725942,-0.00638767,1.17691,0.00788451,0.0153568,615,897,-55.3277,-6.52903
-602,127,-55.3365,5.67053,-0.00301132,0.00338044,0.00329227,0.00477288,-0.00440376,1.17067,0.00529956,0.0185486,622,897,-55.3365,-5.67052
-595,127,-55.2592,4.89966,-0.00214255,0.00250991,0.00242036,0.00354068,-0.00317333,1.16818,0.00387827,0.0373715,629,897,-55.2592,-4.89967
-588,127,-55.2219,3.77759,-0.00150564,0.00208099,0.0021387,0.00307873,-0.00250339,1.13429,0.00322854,0.0440758,636,897,-55.2219,-3.7776
-581,127,-54.6368,2.52136,0,0,0,0,0,0,0,-1,643,897,-54.6368,-2.52136
-574,127,-25.2603,0.511169,0,0,0,0,0,0,0,-1,650,897,-25.2603,-0.51117
-567,127,-24.5417,-0.0447388,0,0,0,0,0,0,0,-1,657,897,-24.5417,0.0447226
-560,127,-18.9678,1.21667,0,0,0,0,0,0,0,-1,664,897,-18.9677,-1.2167
-553,127,-64.0461,0.299377,0,0,0,0,0,0,0,-1,671,897,-64.0462,-0.299347
-546,127,-64.0592,0.314636,-0.00214008,0.000520768,0.000406824,0.000581579,-0.00220089,1.42242,0.00169471,0.0239079,678,897,-64.0592,-0.314621
-539,127,-64.0563,0.33429,-0.00244251,0.00061385,8.90079e-05,0.00061644,-0.0024451,1.54171,0.00186973,0.0200369,685,897,-64.0562,-0.334291
-532,127,-64.0131,0.321716,-0.00206839,0.000355138,0.000100621,0.000359308,-0.00207256,1.52937,0.00151574,0.0172133,692,897,-64.0131,-0.321732
-525,127,-64.0869,0.70575,-0.00329604,0.000527197,-0.000910417,0.000732922,-0.00350177,-1.34856,0.0026133,0.0325721,699,897,-64.0869,-0.705771
-518,127,-64.1897,1.03198,0,0,0,0,0,0,0,-1,706,897,-64.1897,-1.03201
-511,127,-64.0791,0.349426,0,0,0,0,0,0,0,-1,713,897,-64.0791,-0.349426
-504,127,0,0,0,0,0,0,0,0,0,-1,720,897,0,0
-497,127,0,0,0,0,0,0,0,0,0,-1,727,897,0,0
-490,127,0,0,0,0,0,0,0,0,0,-1,734,897,0,0
-483,127,0,0,0,0,0,0,0,0,0,-1,741,897,0,0
-476,127,0,0,0,0,0,0,0,0,0,-1,748,897,0,0
-469,127,0,0,0,0,0,0,0,0,0,-1,755,897,0,0
-462,127,0,0,0,0,0,0,0,0,0,-1,762,897,0,0
-455,127,0,0,0,0,0,0,0,0,0,-1,769,897,0,0
-448,127,0,0,0,0,0,0,0,0,0,-1,776,897,0,0
-441,127,0,0,0,0,0,0,0,0,0,-1,783,897,0,0
-434,127,0,0,0,0,0,0,0,0,0,-1,790,897,0,0
-427,127,0,0,0,0,0,0,0,0,0,-1,797,897,0,0
-420,127,0,0,0,0,0,0,0,0,0,-1,804,897,0,0
-413,127,0,0,0,0,0,0,0,0,0,-1,811,897,0,0
-406,127,0,0,0,0,0,0,0,0,0,-1,818,897,0,0
-399,127,0,0,0,0,0,0,0,0,0,-1,825,897,0,0
-392,127,0,0,0,0,0,0,0,0,0,-1,832,897,0,0
-385,127,0,0,0,0,0,0,0,0,0,-1,839,897,0,0
-378,127,0,0,0,0,0,0,0,0,0,-1,846,897,0,0
-371,127,0,0,0,0,0,0,0,0,0,-1,853,897,0,0
-364,127,0,0,0,0,0,0,0,0,0,-1,860,897,0,0
-357,127,0,0,0,0,0,0,0,0,0,-1,867,897,0,0
-350,127,0,0,0,0,0,0,0,0,0,-1,874,897,0,0
-343,127,0,0,0,0,0,0,0,0,0,-1,881,897,0,0
-336,127,0,0,0,0,0,0,0,0,0,-1,888,897,0,0
-329,127,0,0,0,0,0,0,0,0,0,-1,895,897,0,0
-322,127,0,0,0,0,0,0,0,0,0,-1,902,897,0,0
-315,127,0,0,0,0,0,0,0,0,0,-1,909,897,0,0
-308,127,0,0,0,0,0,0,0,0,0,-1,916,897,0,0
-301,127,0,0,0,0,0,0,0,0,0,-1,923,897,0,0
-294,127,0,0,0,0,0,0,0,0,0,-1,930,897,0,0
-287,127,0,0,0,0,0,0,0,0,0,-1,937,897,0,0
-280,127,0,0,0,0,0,0,0,0,0,-1,944,897,0,0
-273,127,0,0,0,0,0,0,0,0,0,-1,951,897,0,0
-266,127,0,0,0,0,0,0,0,0,0,-1,958,897,0,0
-259,127,0,0,0,0,0,0,0,0,0,-1,965,897,0,0
-252,127,0,0,0,0,0,0,0,0,0,-1,972,897,0,0
-245,127,0,0,0,0,0,0,0,0,0,-1,979,897,0,0
-238,127,0,0,0,0,0,0,0,0,0,-1,986,897,0,0
-231,127,0,0,0,0,0,0,0,0,0,-1,993,897,0,0
-224,127,0,0,0,0,0,0,0,0,0,-1,1000,897,0,0
-217,127,0,0,0,0,0,0,0,0,0,-1,1007,897,0,0
-210,127,0,0,0,0,0,0,0,0,0,-1,1014,897,0,0
-203,127,0,0,0,0,0,0,0,0,0,-1,1021,897,0,0
-196,127,0,0,0,0,0,0,0,0,0,-1,1028,897,0,0
-189,127,0,0,0,0,0,0,0,0,0,-1,1035,897,0,0
-182,127,0,0,0,0,0,0,0,0,0,-1,1042,897,0,0
-175,127,0,0,0,0,0,0,0,0,0,-1,1049,897,0,0
-168,127,0,0,0,0,0,0,0,0,0,-1,1056,897,0,0
-161,127,0,0,0,0,0,0,0,0,0,-1,1063,897,0,0
-154,127,0,0,0,0,0,0,0,0,0,-1,1070,897,0,0
-147,127,0,0,0,0,0,0,0,0,0,-1,1077,897,0,0
-140,127,0,0,0,0,0,0,0,0,0,-1,1084,897,0,0
-133,127,0,0,0,0,0,0,0,0,0,-1,1091,897,0,0
-126,127,0,0,0,0,0,0,0,0,0,-1,1098,897,0,0
-119,127,0,0,0,0,0,0,0,0,0,-1,1105,897,0,0
-112,127,0,0,0,0,0,0,0,0,0,-1,1112,897,0,0
-105,127,0,0,0,0,0,0,0,0,0,-1,1119,897,0,0
-98,127,0,0,0,0,0,0,0,0,0,-1,1126,897,0,0
-91,127,0,0,0,0,0,0,0,0,0,-1,1133,897,0,0
-84,127,0,0,0,0,0,0,0,0,0,-1,1140,897,0,0
-77,127,0,0,0,0,0,0,0,0,0,-1,1147,897,0,0
-70,127,0,0,0,0,0,0,0,0,0,-1,1154,897,0,0
-63,127,0,0,0,0,0,0,0,0,0,-1,1161,897,0,0
-56,127,0,0,0,0,0,0,0,0,0,-1,1168,897,0,0
-49,127,0,0,0,0,0,0,0,0,0,-1,1175,897,0,0
-42,127,0,0,0,0,0,0,0,0,0,-1,1182,897,0,0
-35,127,0,0,0,0,0,0,0,0,0,-1,1189,897,0,0
-28,127,0,0,0,0,0,0,0,0,0,-1,1196,897,0,0
-21,127,0,0,0,0,0,0,0,0,0,-1,1203,897,0,0
-14,127,0,0,0,0,0,0,0,0,0,-1,1210,897,0,0
-7,127,0,0,0,0,0,0,0,0,0,-1,1217,897,0,0
0,127,0,0,0,0,0,0,0,0,0,-1,1224,897,0,0
7,127,0,0,0,0,0,0,0,0,0,-1,1231,897,0,0
14,127,0,0,0,0,0,0,0,0,0,-1,1238,897,0,0
21,127,0,0,0,0,0,0,0,0,0,-1,1245,897,0,0
28,127,0,0,0,0,0,0,0,0,0,-1,1252,897,0,0
35,127,0,0,0,0,0,0,0,0,0,-1,1259,897,0,0
42,127,0,0,0,0,0,0,0,0,0,-1,1266,897,0,0
49,127,0,0,0,0,0,0,0,0,0,-1,1273,897,0,0
56,127,0,0,0,0,0,0,0,0,0,-1,1280,897,0,0
63,127,0,0,0,0,0,0,0,0,0,-1,1287,897,0,0
70,127,0,0,0,0,0,0,0,0,0,-1,1294,897,0,0
77,127,0,0,0,0,0,0,0,0,0,-1,1301,897,0,0
84,127,0,0,0,0,0,0,0,0,0,-1,1308,897,0,0
91,127,0,0,0,0,0,0,0,0,0,-1,1315,897,0,0
98,127,0,0,0,0,0,0,0,0,0,-1,1322,897,0,0
105,127,0,0,0,0,0,0,0,0,0,-1,1329,897,0,0
112,127,0,0,0,0,0,0,0,0,0,-1,1336,897,0,0
119,127,0,0,0,0,0,0,0,0,0,-1,1343,897,0,0
126,127,0,0,0,0,0,0,0,0,0,-1,1350,897,0,0
133,127,0,0,0,0,0,0,0,0,0,-1,1357,897,0,0
140,127,0,0,0,0,0,0,0,0,0,-1,1364,897,0,0
147,127,0,0,0,0,0,0,0,0,0,-1,1371,897,0,0
154,127,0,0,0,0,0,0,0,0,0,-1,1378,897,0,0
161,127,0,0,0,0,0,0,0,0,0,-1,1385,897,0,0
168,127,0,0,0,0,0,0,0,0,0,-1,1392,897,0,0
175,127,0,0,0,0,0,0,0,0,0,-1,1399,897,0,0
182,127,0,0,0,0,0,0,0,0,0,-1,1406,897,0,0
189,127,0,0,0,0,0,0,0,0,0,-1,1413,897,0,0
196,127,0,0,0,0,0,0,0,0,0,-1,1420,897,0,0
203,127,0,0,0,0,0,0,0,0,0,-1,1427,897,0,0
210,127,0,0,0,0,0,0,0,0,0,-1,1434,897,0,0
217,127,0,0,0,0,0,0,0,0,0,-1,1441,897,0,0
224,127,0,0,0,0,0,0,0,0,0,-1,1448,897,0,0
231,127,0,0,0,0,0,0,0,0,0,-1,1455,897,0,0
238,127,0,0,0,0,0,0,0,0,0,-1,1462,897,0,0
245,127,0,0,0,0,0,0,0,0,0,-1,1469,897,0,0
252,127,0,0,0,0,0,0,0,0,0,-1,1476,897,0,0
259,127,0,0,0,0,0,0,0,0,0,-1,1483,897,0,0
266,127,0,0,0,0,0,0,0,0,0,-1,1490,897,0,0
273,127,0,0,0,0,0,0,0,0,0,-1,1497,897,0,0
280,127,0,0,0,0,0,0,0,0,0,-1,1504,897,0,0
287,127,0,0,0,0,0,0,0,0,0,-1,1511,897,0,0
294,127,0,0,0,0,0,0,0,0,0,-1,1518,897,0,0
301,127,0,0,0,0,0,0,0,0,0,-1,1525,897,0,0
308,127,0,0,0,0,0,0,0,0,0,-1,1532,897,0,0
315,127,0,0,0,0,0,0,0,0,0,-1,1539,897,0,0
322,127,0,0,0,0,0,0,0,0,0,-1,1546,897,0,0
329,127,0,0,0,0,0,0,0,0,0,-1,1553,897,0,0
336,127,0,0,0,0,0,0,0,0,0,-1,1560,897,0,0
343,127,0,0,0,0,0,0,0,0,0,-1,1567,897,0,0
350,127,0,0,0,0,0,0,0,0,0,-1,1574,897,0,0
357,127,0,0,0,0,0,0,0,0,0,-1,1581,897,0,0
364,127,0,0,0,0,0,0,0,0,0,-1,1588,897,0,0
371,127,0,0,0,0,0,0,0,0,0,-1,1595,897,0,0
378,127,0,0,0,0,0,0,0,0,0,-1,1602,897,0,0
385,127,0,0,0,0,0,0,0,0,0,-1,1609,897,0,0
392,127,0,0,0,0,0,0,0,0,0,-1,1616,897,0,0
399,127,0,0,0,0,0,0,0,0,0,-1,1623,897,0,0
406,127,0,0,0,0,0,0,0,0,0,-1,1630,897,0,0
413,127,0,0,0,0,0,0,0,0,0,-1,1637,897,0,0
420,127,0,0,0,0,0,0,0,0,0,-1,1644,897,0,0
427,127,0,0,0,0,0,0,0,0,0,-1,1651,897,0,0
434,127,0,0,0,0,0,0,0,0,0,-1,1658,897,0,0
441,127,0,0,0,0,0,0,0,0,0,-1,1665,897,0,0
448,127,0,0,0,0,0,0,0,0,0,-1,1672,897,0,0
455,127,0,0,0,0,0,0,0,0,0,-1,1679,897,0,0
462,127,0,0,0,0,0,0,0,0,0,-1,1686,897,0,0
469,127,0,0,0,0,0,0,0,0,0,-1,1693,897,0,0
476,127,0,0,0,0,0,0,0,0,0,-1,1700,897,0,0
483,127,0,0,0,0,0,0,0,0,0,-1,1707,897,0,0
490,127,0,0,0,0,0,0,0,0,0,-1,1714,897,0,0
497,127,0,0,0,0,0,0,0,0,0,-1,1721,897,0,0
504,127,0,0,0,0,0,0,0,0,0,-1,1728,897,0,0
511,127,0,0,0,0,0,0,0,0,0,-1,1735,897,0,0
518,127,0,0,0,0,0,0,0,0,0,-1,1742,897,0,0
525,127,0,0,0,0,0,0,0,0,0,-1,1749,897,0,0
532,127,0,0,0,0,0,0,0,0,0,-1,1756,897,0,0
539,127,0,0,0,0,0,0,0,0,0,-1,1763,897,0,0
546,127,0,0,0,0,0,0,0,0,0,-1,1770,897,0,0
553,127,0,0,0,0,0,0,0,0,0,-1,1777,897,0,0
560,127,0,0,0,0,0,0,0,0,0,-1,1784,897,0,0
567,127,0,0,0,0,0,0,0,0,0,-1,1791,897,0,0
574,127,0,0,0,0,0,0,0,0,0,-1,1798,897,0,0
581,127,0,0,0,0,0,0,0,0,0,-1,1805,897,0,0
588,127,0,0,0,0,0,0,0,0,0,-1,1812,897,0,0
595,127,0,0,0,0,0,0,0,0,0,-1,1819,897,0,0
602,127,0,0,0,0,0,0,0,0,0,-1,1826,897,0,0
609,127,0,0,0,0,0,0,0,0,0,-1,1833,897,0,0
616,127,0,0,0,0,0,0,0,0,0,-1,1840,897,0,0
623,127,0,0,0,0,0,0,0,0,0,-1,1847,897,0,0
630,127,80.8387,2.29456,-0.00417656,0.00368128,-0.000394584,0.00370104,-0.00419632,-1.52075,0.00456253,0.0422573,1854,897,80.8388,-2.29458
637,127,80.7122,2.20966,-0.00313686,0.00288415,5.30927e-05,0.00288462,-0.00313733,1.56198,0.00347779,0.0412003,1861,897,80.7122,-2.20965
644,127,80.9182,2.49408,-0.00216271,0.00196713,0.000210409,0.00197782,-0.00217341,1.52002,0.0023976,0.0419377,1868,897,80.9182,-2.49408
651,127,80.7312,2.54694,-0.00121456,0.000892296,0.000140767,0.00090166,-0.00122393,1.50438,0.0012319,0.045737,1875,897,80.7312,-2.54695
658,127,80.6245,2.52661,-0.000668427,-0.000168737,-0.000238791,-7.29755e-05,-0.000764188,-1.18941,0.00048696,0.0455481,1882,897,80.6246,-2.5266
665,127,80.6761,2.20367,-0.000548738,-0.000341628,-0.00059627,0.000160012,-0.00105038,-0.871376,0.000759231,0.0407359,1889,897,80.6761,-2.20368
672,127,80.7356,2.13074,-0.00067881,-0.000498341,-0.000882968,0.000298992,-0.00147614,-0.836319,0.00109742,0.034825,1896,897,80.7355,-2.13071
679,127,80.8364,2.13574,-0.000839976,-0.000434645,-0.00108157,0.000463082,-0.0017377,-0.878015,0.00133978,0.0241149,1903,897,80.8365,-2.13576
686,127,80.8029,2.15997,0,0,0,0,0,0,0,-1,1910,897,80.8028,-2.15999
693,127,59.2523,2.33673,0,0,0,0,0,0,0,-1,1917,897,59.2524,-2.33674
700,127,58.717,1.80957,0,0,0,0,0,0,0,-1,1924,897,58.717,-1.80956
707,127,71.0879,2.02808,0,0,0,0,0,0,0,-1,1931,897,71.0879,-2.02805
714,127,71.9205,3.61304,-0.00174644,0.000833117,-0.00270407,0.00253926,-0.00345258,-1.00793,0.00347276,0.0300114,1938,897,71.9206,-3.61303
721,127,71.9165,4.63885,-0.00180232,0.00144109,-0.00301797,0.00324547,-0.0036067,-1.03194,0.00395793,0.0281367,1945,897,71.9165,-4.63888
728,127,71.7504,5.49463,-0.00198701,0.00218534,-0.00322437,0.00393956,-0.00374124,-1.07253,0.00443501,0.0257412,1952,897,71.7504,-5.49465
735,127,71.6649,6.43799,-0.00153759,0.00331165,-0.00327498,0.00496186,-0.0031878,-1.10405,0.00474222,0.0217032,1959,897,71.6649,-6.43796
742,127,71.5768,7.25995,0.000188549,0.00500377,-0.00323138,0.00662585,-0.00143353,-1.10557,0.00496455,0.0199393,1966,897,71.5767,-7.25997
749,127,71.5128,8.03918,0.0035843,0.00715282,-0.00269694,0.0086023,0.00213481,-1.07764,0.00517226,0.0139287,1973,897,71.5128,-8.03921
756,127,71.4294,8.79358,0.00862076,0.00943294,-0.00158941,0.0106673,0.00738638,-0.910471,0.00630899,0.0167542,1980,897,71.4294,-8.7936
763,127,71.3621,9.53577,0.0151687,0.0116587,0.000157215,0.0151757,0.0116517,0.0446711,0.009171,0.0269895,1987,897,71.3622,-9.53579
770,127,71.4019,10.2839,0,0,0,0,0,0,0,-1,1994,897,71.402,-10.2839
777,127,76.3003,10.8735,0,0,0,0,0,0,0,-1,2001,897,76.3003,-10.8735
784,127,76.6069,11.9427,0,0,0,0,0,0,0,-1,2008,897,76.6069,-11.9427
791,127,76.7629,12.9143,0,0,0,0,0,0,0,-1,2015,897,76.763,-12.9143
798,127,0,0,0,0,0,0,0,0,0,-1,2022,897,0,0
805,127,0,0,0,0,0,0,0,0,0,-1,2029,897,0,0
812,127,0,0,0,0,0,0,0,0,0,-1,2036,897,0,0
-700,120,0,0,0,0,0,0,0,0,0,-1,524,904,0,0
-693,120,0,0,0,0,0,0,0,0,0,-1,531,904,0,0
-686,120,0,0,0,0,0,0,0,0,0,-1,538,904,0,0
-679,120,-52.0888,4.76025,0,0,0,0,0,0,0,-1,545,904,-52.0888,-4.76024
-672,120,-51.1454,5.42755,0,0,0,0,0,0,0,-1,552,904,-51.1454,-5.42753
-665,120,-50.2376,-2.67987,0,0,0,0,0,0,0,-1,559,904,-50.2376,2.67988
-658,120,-54.6443,7.5307,0,0,0,0,0,0,0,-1,566,904,-54.6443,-7.53071
-651,120,-52.9452,-1.22644,0,0,0,0,0,0,0,-1,573,904,-52.9452,1.22647
-644,120,-51.6526,-3.15863,0,0,0,0,0,0,0,-1,580,904,-51.6526,3.15864
-637,120,-55.7896,9.43622,0,0,0,0,0,0,0,-1,587,904,-55.7896,-9.43622
-630,120,-55.8835,8.85077,-0.0123591,0.0138199,0.0115925,0.0182153,-0.0167544,1.20839,0.0201957,0.0458179,594,904,-55.8835,-8.85078
-623,120,-56.0614,8.14362,-0.00929848,0.0106235,0.0090363,0.0141116,-0.0127865,1.20242,0.0155359,0.0154684,601,904,-56.0614,-8.14363
-616,120,-56.1599,7.35748,-0.00658037,0.00753834,0.00674363,0.0102417,-0.00928375,1.18953,0.0112776,0.0112751,608,904,-56.1598,-7.3575
-609,120,-56.2101,6.54913,-0.00439329,0.00481129,0.00476268,0.00683201,-0.006414,1.16953,0.00764885,0.0150222,615,904,-56.2101,-6.54913
-602,120,-56.2524,5.7478,-0.00307644,0.00281379,0.00321863,0.00423139,-0.00449405,1.15592,0.00503839,0.0184712,622,904,-56.2524,-5.74778
-595,120,-56.1426,4.99493,-0.00230747,0.00201022,0.00231474,0.0030166,-0.00331385,1.16068,0.00365623,0.0374543,629,904,-56.1426,-4.99491
-588,120,-55.9062,4.20044,0,0,0,0,0,0,0,-1,636,904,-55.9062,-4.20043
-581,120,-56.3462,3.54993,0,0,0,0,0,0,0,-1,643,904,-56.3462,-3.54992
-574,120,-27.5438,0.505066,0,0,0,0,0,0,0,-1,650,904,-27.5438,-0.505085
-567,120,-25.2822,-0.410645,0,0,0,0,0,0,0,-1,657,904,-25.2821,0.410629
-560,120,-27.3358,1.10327,0,0,0,0,0,0,0,-1,664,904,-27.3358,-1.10324
-553,120,-63.993,0.385986,0,0,0,0,0,0,0,-1,671,904,-63.993,-0.386012
-546,120,-64.0199,0.386841,-0.0023917,0.000406777,0.000394345,0.000461284,-0.00244621,1.43344,0.00180433,0.0310779,678,904,-64.0199,-0.386868
-539,120,-63.9968,0.362366,-0.00280032,0.000634526,0.00015965,0.000641931,-0.00280772,1.52445,0.00211846,0.023656,685,904,-63.9967,-0.362338
-532,120,-63.9249,0.328369,-0.00273235,0.000696993,0.000276638,0.000719166,-0.00275452,1.49082,0.00211718,0.0263887,692,904,-63.925,-0.328384
-525,120,-64.0099,0.469971,-0.00436291,0.00125206,-0.000426227,0.00128423,-0.00439508,-1.49546,0.00343901,0.0349167,699,904,-64.0099,-0.469948
-518,120,-64.3187,0.738831,-0.00599531,0.00197747,-0.00116911,0.00214537,-0.00616321,-1.42816,0.00498041,0.0399363,706,904,-64.3187,-0.738853
-511,120,-64.4116,0.549255,-0.00726376,0.00292823,-0.00189155,0.00326796,-0.00760349,-1.39309,0.00644086,0.0406931,713,904,-64.4115,-0.549233
-504,120,0,0,0,0,0,0,0,0,0,-1,720,904,0,0
-497,120,0,0,0,0,0,0,0,0,0,-1,727,904,0,0
-490,120,0,0,0,0,0,0,0,0,0,-1,734,904,0,0
-483,120,0,0,0,0,0,0,0,0,0,-1,741,904,0,0
-476,120,0,0,0,0,0,0,0,0,0,-1,748,904,0,0
-469,120,0,0,0,0,0,0,0,0,0,-1,755,904,0,0
-462,120,0,0,0,0,0,0,0,0,0,-1,762,904,0,0
-455,120,0,0,0,0,0,0,0,0,0,-1,769,904,0,0
-448,120,0,0,0,0,0,0,0,0,0,-1,776,904,0,0
-441,120,0,0,0,0,0,0,0,0,0,-1,783,904,0,0
-434,120,0,0,0,0,0,0,0,0,0,-1,790,904,0,0
-427,120,0,0,0,0,0,0,0,0,0,-1,797,904,0,0
-420,120,0,0,0,0,0,0,0,0,0,-1,804,904,0,0
-413,120,0,0,0,0,0,0,0,0,0,-1,811,904,0,0
-406,120,0,0,0,0,0,0,0,0,0,-1,818,904,0,0
-399,120,0,0,0,0,0,0,0,0,0,-1,825,904,0,0
-392,120,0,0,0,0,0,0,0,0,0,-1,832,904,0,0
-385,120,0,0,0,0,0,0,0,0,0,-1,839,904,0,0
-378,120,0,0,0,0,0,0,0,0,0,-1,846,904,0,0
-371,120,0,0,0,0,0,0,0,0,0,-1,853,904,0,0
-364,120,0,0,0,0,0,0,0,0,0,-1,860,904,0,0
-357,120,0,0,0,0,0,0,0,0,0,-1,867,904,0,0
-350,120,0,0,0,0,0,0,0,0,0,-1,874,904,0,0
-343,120,0,0,0,0,0,0,0,0,0,-1,881,904,0,0
-336,120,0,0,0,0,0,0,0,0,0,-1,888,904,0,0
-329,120,0,0,0,0,0,0,0,0,0,-1,895,904,0,0
-322,120,0,0,0,0,0,0,0,0,0,-1,902,904,0,0
-315,120,0,0,0,0,0,0,0,0,0,-1,909,904,0,0
-308,120,0,0,0,0,0,0,0,0,0,-1,916,904,0,0
-301,120,0,0,0,0,0,0,0,0,0,-1,923,904,0,0
-294,120,0,0,0,0,0,0,0,0,0,-1,930,904,0,0
-287,120,0,0,0,0,0,0,0,0,0,-1,937,904,0,0
-280,120,0,0,0,0,0,0,0,0,0,-1,944,904,0,0
-273,120,0,0,0,0,0,0,0,0,0,-1,951,904,0,0
-266,120,0,0,0,0,0,0,0,0,0,-1,958,904,0,0
-259,120,0,0,0,0,0,0,0,0,0,-1,965,904,0,0
-252,120,0,0,0,0,0,0,0,0,0,-1,972,904,0,0
-245,120,0,0,0,0,0,0,0,0,0,-1,979,904,0,0
-238,120,0,0,0,0,0,0,0,0,0,-1,986,904,0,0
-231,120,0,0,0,0,0,0,0,0,0,-1,993,904,0,0
-224,120,0,0,0,0,0,0,0,0,0,-1,1000,904,0,0
-217,120,0,0,0,0,0,0,0,0,0,-1,1007,904,0,0
-210,120,0,0,0,0,0,0,0,0,0,-1,1014,904,0,0
-203,120,0,0,0,0,0,0,0,0,0,-1,1021,904,0,0
-196,120,0,0,0,0,0,0,0,0,0,-1,1028,904,0,0
-189,120,0,0,0,0,0,0,0,0,0,-1,1035,904,0,0
-182,120,0,0,0,0,0,0,0,0,0,-1,1042,904,0,0
-175,120,0,0,0,0,0,0,0,0,0,-1,1049,904,0,0
-168,120,0,0,0,0,0,0,0,0,0,-1,1056,904,0,0
-161,120,0,0,0,0,0,0,0,0,0,-1,1063,904,0,0
-154,120,0,0,0,0,0,0,0,0,0,-1,1070,904,0,0
-147,120,0,0,0,0,0,0,0,0,0,-1,1077,904,0,0
-140,120,0,0,0,0,0,0,0,0,0,-1,1084,904,0,0
-133,120,0,0,0,0,0,0,0,0,0,-1,1091,904,0,0
-126,120,0,0,0,0,0,0,0,0,0,-1,1098,904,0,0
-119,120,0,0,0,0,0,0,0,0,0,-1,1105,904,0,0
-112,120,0,0,0,0,0,0,0,0,0,-1,1112,904,0,0
-105,120,0,0,0,0,0,0,0,0,0,-1,1119,904,0,0
-98,120,0,0,0,0,0,0,0,0,0,-1,1126,904,0,0
-91,120,0,0,0,0,0,0,0,0,0,-1,1133,904,0,0
-84,120,0,0,0,0,0,0,0,0,0,-1,1140,904,0,0
-77,120,0,0,0,0,0,0,0,0,0,-1,1147,904,0,0
-70,120,0,0,0,0,0,0,0,0,0,-1,1154,904,0,0
-63,120,0,0,0,0,0,0,0,0,0,-1,1161,904,0,0
-56,120,0,0,0,0,0,0,0,0,0,-1,1168,904,0,0
-49,120,0,0,0,0,0,0,0,0,0,-1,1175,904,0,0
-42,120,0,0,0,0,0,0,0,0,0,-1,1182,904,0,0
-35,120,0,0,0,0,0,0,0,0,0,-1,1189,904,0,0
-28,120,0,0,0,0,0,0,0,0,0,-1,1196,904,0,0
-21,120,0,0,0,0,0,0,0,0,0,-1,1203,904,0,0
-14,120,0,0,0,0,0,0,0,0,0,-1,1210,904,0,0
-7,120,0,0,0,0,0,0,0,0,0,-1,1217,904,0,0
0,120,0,0,0,0,0,0,0,0,0,-1,1224,904,0,0
7,120,0,0,0,0,0,0,0,0,0,-1,1231,904,0,0
14,120,0,0,0,0,0,0,0,0,0,-1,1238,904,0,0
21,120,0,0,0,0,0,0,0,0,0,-1,1245,904,0,0
28,120,0,0,0,0,0,0,0,0,0,-1,1252,904,0,0
35,120,0,0,0,0,0,0,0,0,0,-1,1259,904,0,0
42,120,0,0,0,0,0,0,0,0,0,-1,1266,904,0,0
49,120,0,0,0,0,0,0,0,0,0,-1,1273,904,0,0
56,120,0,0,0,0,0,0,0,0,0,-1,1280,904,0,0
63,120,0,0,0,0,0,0,0,0,0,-1,1287,904,0,0
70,120,0,0,0,0,0,0,0,0,0,-1,1294,904,0,0
77,120,0,0,0,0,0,0,0,0,0,-1,1301,904,0,0
84,120,0,0,0,0,0,0,0,0,0,-1,1308,904,0,0
91,120,0,0,0,0,0,0,0,0,0,-1,1315,904,0,0
98,120,0,0,0,0,0,0,0,0,0,-1,1322,904,0,0
105,120,0,0,0,0,0,0,0,0,0,-1,1329,904,0,0
112,120,0,0,0,0,0,0,0,0,0,-1,1336,904,0,0
119,120,0,0,0,0,0,0,0,0,0,-1,1343,904,0,0
126,120,0,0,0,0,0,0,0,0,0,-1,1350,904,0,0
133,120,0,0,0,0,0,0,0,0,0,-1,1357,904,0,0
140,120,0,0,0,0,0,0,0,0,0,-1,1364,904,0,0
147,120,0,0,0,0,0,0,0,0,0,-1,1371,904,0,0
154,120,0,0,0,0,0,0,0,0,0,-1,1378,904,0,0
161,120,0,0,0,0,0,0,0,0,0,-1,1385,904,0,0
168,120,0,0,0,0,0,0,0,0,0,-1,1392,904,0,0
175,120,0,0,0,0,0,0,0,0,0,-1,1399,904,0,0
182,120,0,0,0,0,0,0,0,0,0,-1,1406,904,0,0
189,120,0,0,0,0,0,0,0,0,0,-1,1413,904,0,0
196,120,0,0,0,0,0,0,0,0,0,-1,1420,904,0,0
203,120,0,0,0,0,0,0,0,0,0,-1,1427,904,0,0
210,120,0,0,0,0,0,0,0,0,0,-1,1434,904,0,0
217,120,0,0,0,0,0,0,0,0,0,-1,1441,904,0,0
224,120,0,0,0,0,0,0,0,0,0,-1,1448,904,0,0
231,120,0,0,0,0,0,0,0,0,0,-1,1455,904,0,0
238,120,0,0,0,0,0,0,0,0,0,-1,1462,904,0,0
245,120,0,0,0,0,0,0,0,0,0,-1,1469,904,0,0
252,120,0,0,0,0,0,0,0,0,0,-1,1476,904,0,0
259,120,0,0,0,0,0,0,0,0,0,-1,1483,904,0,0
266,120,0,0,0,0,0,0,0,0,0,-1,1490,904,0,0
273,120,0,0,0,0,0,0,0,0,0,-1,1497,904,0,0
280,120,0,0,0,0,0,0,0,0,0,-1,1504,904,0,0
287,120,0,0,0,0,0,0,0,0,0,-1,1511,904,0,0
294,120,0,0,0,0,0,0,0,0,0,-1,1518,904,0,0
301,120,0,0,0,0,0,0,0,0,0,-1,1525,904,0,0
308,120,0,0,0,0,0,0,0,0,0,-1,1532,904,0,0
315,120,0,0,0,0,0,0,0,0,0,-1,1539,904,0,0
322,120,0,0,0,0,0,0,0,0,0,-1,1546,904,0,0
329,120,0,0,0,0,0,0,0,0,0,-1,1553,904,0,0
336,120,0,0,0,0,0,0,0,0,0,-1,1560,904,0,0
343,120,0,0,0,0,0,0,0,0,0,-1,1567,904,0,0
350,120,0,0,0,0,0,0,0,0,0,-1,1574,904,0,0
357,120,0,0,0,0,0,0,0,0,0,-1,1581,904,0,0
364,120,0,0,0,0,0,0,0,0,0,-1,1588,904,0,0
371,120,0,0,0,0,0,0,0,0,0,-1,1595,904,0,0
378,120,0,0,0,0,0,0,0,0,0,-1,1602,904,0,0
385,120,0,0,0,0,0,0,0,0,0,-1,1609,904,0,0
392,120,0,0,0,0,0,0,0,0,0,-1,1616,904,0,0
399,120,0,0,0,0,0,0,0,0,0,-1,1623,904,0,0
406,120,0,0,0,0,0,0,0,0,0,-1,1630,904,0,0
413,120,0,0,0,0,0,0,0,0,0,-1,1637,904,0,0
420,120,0,0,0,0,0,0,0,0,0,-1,1644,904,0,0
427,120,0,0,0,0,0,0,0,0,0,-1,1651,904,0,0
434,120,0,0,0,0,0,0,0,0,0,-1,1658,904,0,0
441,120,0,0,0,0,0,0,0,0,0,-1,1665,904,0,0
448,120,0,0,0,0,0,0,0,0,0,-1,1672,904,0,0
455,120,0,0,0,0,0,0,0,0,0,-1,1679,904,0,0
462,120,0,0,0,0,0,0,0,0,0,-1,1686,904,0,0
469,120,0,0,0,0,0,0,0,0,0,-1,1693,904,0,0
476,120,0,0,0,0,0,0,0,0,0,-1,1700,904,0,0
483,120,0,0,0,0,0,0,0,0,0,-1,1707,904,0,0
490,120,0,0,0,0,0,0,0,0,0,-1,1714,904,0,0
497,120,0,0,0,0,0,0,0,0,0,-1,1721,904,0,0
504,120,0,0,0,0,0,0,0,0,0,-1,1728,904,0,0
511,120,0,0,0,0,0,0,0,0,0,-1,1735,904,0,0
518,120,0,0,0,0,0,0,0,0,0,-1,1742,904,0,0
525,120,0,0,0,0,0,0,0,0,0,-1,1749,904,0,0
532,120,0,0,0,0,0,0,0,0,0,-1,1756,904,0,0
539,120,0,0,0,0,0,0,0,0,0,-1,1763,904,0,0
546,120,0,0,0,0,0,0,0,0,0,-1,1770,904,0,0
553,120,0,0,0,0,0,0,0,0,0,-1,1777,904,0,0
560,120,0,0,0,0,0,0,0,0,0,-1,1784,904,0,0
567,120,0,0,0,0,0,0,0,0,0,-1,1791,904,0,0
574,120,0,0,0,0,0,0,0,0,0,-1,1798,904,0,0
581,120,0,0,0,0,0,0,0,0,0,-1,1805,904,0,0
588,120,0,0,0,0,0,0,0,0,0,-1,1812,904,0,0
595,120,0,0,0,0,0,0,0,0,0,-1,1819,904,0,0
602,120,0,0,0,0,0,0,0,0,0,-1,1826,904,0,0
609,120,0,0,0,0,0,0,0,0,0,-1,1833,904,0,0
616,120,0,0,0,0,0,0,0,0,0,-1,1840,904,0,0
623,120,0,0,0,0,0,0,0,0,0,-1,1847,904,0,0
630,120,80.7917,2.21759,-0.00647762,0.00454892,-0.000467914,0.00456874,-0.00649744,-1.52846,0.00642133,0.03976,1854,904,80.7918,-2.21761
637,120,80.6664,2.22168,-0.00480197,0.00365697,-3.09704e-05,0.00365708,-0.00480208,-1.56714,0.00489879,0.0405993,1861,904,80.6663,-2.2217
644,120,80.6586,2.39172,-0.00336113,0.00273634,0.000143638,0.00273972,-0.00336451,1.54726,0.00353043,0.0415502,1868,904,80.6585,-2.39172
651,120,80.5889,2.53882,-0.0019954,0.00167058,0.000113429,0.00167409,-0.00199891,1.53989,0.00212337,0.0439675,1875,904,80.5889,-2.53881
658,120,80.6074,2.42529,-0.000910456,0.000608464,-0.000142083,0.00062164,-0.000923633,-1.47832,0.000897825,0.0421117,1882,904,80.6074,-2.42532
665,120,80.6755,2.28491,-0.000274978,0.000211053,-0.000472588,0.000499447,-0.000563372,-1.02288,0.000613989,0.0372579,1889,904,80.6755,-2.28491
672,120,80.7565,2.19812,-0.000245028,-0.000141736,-0.000738222,0.000546645,-0.000933408,-0.820321,0.00086418,0.0355021,1896,904,80.7565,-2.19809
679,120,80.8022,2.10034,-0.000412781,-0.000303257,-0.000904428,0.000548065,-0.0012641,-0.815636,0.00107313,0.0294289,1903,904,80.8023,-2.10035
686,120,80.772,2.17035,-0.00068286,-0.000355824,-0.00119591,0.000687696,-0.00172638,-0.853342,0.00143613,0.032587,1910,904,80.772,-2.17037
693,120,80.7753,2.23541,0,0,0,0,0,0,0,-1,1917,904,80.7752,-2.23541
700,120,42.2007,3.00946,0,0,0,0,0,0,0,-1,1924,904,42.2007,-3.00944
707,120,71.7679,3.24939,0,0,0,0,0,0,0,-1,1931,904,71.768,-3.2494
714,120,73.2798,3.71332,0,0,0,0,0,0,0,-1,1938,904,73.2798,-3.71333
721,120,72.7482,4.91455,-0.00195803,0.00134605,-0.0029383,0.00306489,-0.00367688,-1.0415,0.0038977,0.0265573,1945,904,72.7481,-4.91454
728,120,72.5753,5.70758,-0.00227914,0.00211006,-0.00315352,0.00375746,-0.00392654,-1.08939,0.00443671,0.0174737,1952,904,72.5753,-5.70761
735,120,72.5079,6.45526,-0.0020727,0.00323942,-0.00318738,0.00473234,-0.00356562,-1.13276,0.00480659,0.0144383,1959,904,72.508,-6.45525
742,120,72.4258,7.27594,-0.000732707,0.00501191,-0.0031656,0.00641408,-0.00213488,-1.15383,0.00513772,0.0156864,1966,904,72.4257,-7.27594
749,120,72.3766,8.04675,0.00236977,0.00746635,-0.00259034,0.00855174,0.00128438,-1.17401,0.00532492,0.0119692,1973,904,72.3766,-8.04676
756,120,72.2612,8.80206,0.00737539,0.0101313,-0.00130261,0.0106495,0.00685715,-1.19215,0.00623279,0.0149183,1980,904,72.2611,-8.80207
763,120,72.1023,9.5401,0.0139784,0.0127094,0.000754789,0.01433,0.0123579,0.435893,0.00896851,0.0336983,1987,904,72.1023,-9.54009
770,120,71.9836,10.3062,0,0,0,0,0,0,0,-1,1994,904,71.9837,-10.3062
777,120,77.7629,11.9034,0,0,0,0,0,0,0,-1,2001,904,77.763,-11.9034
784,120,78.0063,12.8853,0,0,0,0,0,0,0,-1,2008,904,78.0063,-12.8852
791,120,78.2561,13.8319,0,0,0,0,0,0,0,-1,2015,904,78.2561,-13.8319
798,120,78.5127,14.8143,0,0,0,0,0,0,0,-1,2022,904,78.5128,-14.8143
805,120,0,0,0,0,0,0,0,0,0,-1,2029,904,0,0
812,120,0,0,0,0,0,0,0,0,0,-1,2036,904,0,0
-700,113,0,0,0,0,0,0,0,0,0,-1,524,911,0,0
-693,113,0,0,0,0,0,0,0,0,0,-1,531,911,0,0
-686,113,0,0,0,0,0,0,0,0,0,-1,538,911,0,0
-679,113,-55.9637,4.78546,0,0,0,0,0,0,0,-1,545,911,-55.9637,-4.78548
-672,113,-52.5881,5.49811,0,0,0,0,0,0,0,-1,552,911,-52.5881,-5.49808
-665,113,-56.8114,7.23682,0,0,0,0,0,0,0,-1,559,911,-56.8114,-7.23679
-658,113,-54.1535,7.58624,0,0,0,0,0,0,0,-1,566,911,-54.1535,-7.58627
-651,113,-53.3762,7.8313,0,0,0,0,0,0,0,-1,573,911,-53.3762,-7.8313
-644,113,-48.5211,7.83691,0,0,0,0,0,0,0,-1,580,911,-48.5211,-7.83694
-637,113,-56.7908,9.63904,0,0,0,0,0,0,0,-1,587,911,-56.7908,-9.63903
-630,113,-56.8443,8.88953,-0.0117552,0.0146941,0.010826,0.0185602,-0.0156213,1.2278,0.019759,0.0275565,594,911,-56.8443,-8.8895
-623,113,-56.9881,8.1405,-0.00945966,0.0119916,0.00874999,0.015108,-0.0125761,1.22864,0.0160056,0.0139675,601,911,-56.9881,-8.14052
-616,113,-57.0347,7.35199,-0.00650921,0.00815303,0.00664064,0.0107135,-0.00906967,1.20279,0.011435,0.0124205,608,911,-57.0347,-7.35198
-609,113,-57.0698,6.6051,-0.00431634,0.00482343,0.00476015,0.00685225,-0.00634516,1.1679,0.0076214,0.0124563,615,911,-57.0698,-6.6051
-602,113,-57.1312,5.80414,-0.00312973,0.00259474,0.00321833,0.00403948,-0.00457448,1.14885,0.00497647,0.0217778,622,911,-57.1312,-5.80415
-595,113,-57.1953,5.14282,-0.00243991,0.00181234,0.00228878,0.00281014,-0.00343771,1.15968,0.00361326,0.0294459,629,911,-57.1953,-5.14285
-588,113,-57.0987,4.24512,-0.00188859,0.00150043,0.00194535,0.00238579,-0.00277395,1.14369,0.00298179,0.038992,636,911,-57.0987,-4.24509
-581,113,-57.1492,3.44043,0,0,0,0,0,0,0,-1,643,911,-57.1492,-3.44041
-574,113,-57.1661,2.39307,0,0,0,0,0,0,0,-1,650,911,-57.1661,-2.39308
-567,113,-21.8396,0.437378,0,0,0,0,0,0,0,-1,657,911,-21.8396,-0.437351
-560,113,-63.999,0.379578,0,0,0,0,0,0,0,-1,664,911,-63.999,-0.379548
-553,113,-63.9783,0.387939,-0.00195893,0.000271286,0.000775428,0.000514395,-0.00220204,1.26699,0.00166618,0.0466376,671,911,-63.9783,-0.38794
-546,113,-64.0043,0.460022,-0.00247052,0.000414169,0.000517303,0.00050413,-0.00256048,1.39861,0.00189749,0.034777,678,911,-64.0042,-0.460023
-539,113,-63.9333,0.436218,-0.00297902,0.000827867,0.000403554,0.000870176,-0.00302133,1.46634,0.00235841,0.0341527,685,911,-63.9333,-0.436197
-532,113,-63.8406,0.399597,-0.00328847,0.00126755,0.000654769,0.00135978,-0.0033807,1.43085,0.0028186,0.0354172,692,911,-63.8406,-0.399617
-525,113,-63.8796,0.241638,-0.00508985,0.00214612,0.000283026,0.00215717,-0.0051009,1.53176,0.0043038,0.0383721,699,911,-63.8797,-0.241665
-518,113,-64.1899,0.379761,-0.00688225,0.00307108,-0.000319765,0.00308135,-0.00689251,-1.53871,0.00589688,0.0409108,706,911,-64.19,-0.379742
-511,113,-64.4059,0.399902,-0.00864853,0.00404036,-0.0011869,0.00415042,-0.0087586,-1.47833,0.00760967,0.0411961,713,911,-64.4059,-0.399884
-504,113,0,0,0,0,0,0,0,0,0,-1,720,911,0,0
-497,113,0,0,0,0,0,0,0,0,0,-1,727,911,0,0
-490,113,0,0,0,0,0,0,0,0,0,-1,734,911,0,0
-483,113,0,0,0,0,0,0,0,0,0,-1,741,911,0,0
-476,113,0,0,0,0,0,0,0,0,0,-1,748,911,0,0
-469,113,0,0,0,0,0,0,0,0,0,-1,755,911,0,0
-462,113,0,0,0,0,0,0,0,0,0,-1,762,911,0,0
-455,113,0,0,0,0,0,0,0,0,0,-1,769,911,0,0
-448,113,0,0,0,0,0,0,0,0,0,-1,776,911,0,0
-441,113,0,0,0,0,0,0,0,0,0,-1,783,911,0,0
-434,113,0,0,0,0,0,0,0,0,0,-1,790,911,0,0
-427,113,0,0,0,0,0,0,0,0,0,-1,797,911,0,0
-420,113,0,0,0,0,0,0,0,0,0,-1,804,911,0,0
-413,113,0,0,0,0,0,0,0,0,0,-1,811,911,0,0
-406,113,0,0,0,0,0,0,0,0,0,-1,818,911,0,0
-399,113,0,0,0,0,0,0,0,0,0,-1,825,911,0,0
-392,113,0,0,0,0,0,0,0,0,0,-1,832,911,0,0
-385,113,0,0,0,0,0,0,0,0,0,-1,839,911,0,0
-378,113,0,0,0,0,0,0,0,0,0,-1,846,911,0,0
-371,113,0,0,0,0,0,0,0,0,0,-1,853,911,0,0
-364,113,0,0,0,0,0,0,0,0,0,-1,860,911,0,0
-357,113,0,0,0,0,0,0,0,0,0,-1,867,911,0,0
-350,113,0,0,0,0,0,0,0,0,0,-1,874,911,0,0
-343,113,0,0,0,0,0,0,0,0,0,-1,881,911,0,0
-336,113,0,0,0,0,0,0,0,0,0,-1,888,911,0,0
-329,113,0,0,0,0,0,0,0,0,0,-1,895,911,0,0
-322,113,0,0,0,0,0,0,0,0,0,-1,902,911,0,0
-315,113,0,0,0,0,0,0,0,0,0,-1,909,911,0,0
-308,113,0,0,0,0,0,0,0,0,0,-1,916,911,0,0
-301,113,0,0,0,0,0,0,0,0,0,-1,923,911,0,0
-294,113,0,0,0,0,0,0,0,0,0,-1,930,911,0,0
-287,113,0,0,0,0,0,0,0,0,0,-1,937,911,0,0
-280,113,0,0,0,0,0,0,0,0,0,-1,944,911,0,0
-273,113,0,0,0,0,0,0,0,0,0,-1,951,911,0,0
-266,113,0,0,0,0,0,0,0,0,0,-1,958,911,0,0
-259,113,0,0,0,0,0,0,0,0,0,-1,965,911,0,0
-252,113,0,0,0,0,0,0,0,0,0,-1,972,911,0,0
-245,113,0,0,0,0,0,0,0,0,0,-1,979,911,0,0
-238,113,0,0,0,0,0,0,0,0,0,-1,986,911,0,0
-231,113,0,0,0,0,0,0,0,0,0,-1,993,911,0,0
-224,113,0,0,0,0,0,0,0,0,0,-1,1000,911,0,0
-217,113,0,0,0,0,0,0,0,0,0,-1,1007,911,0,0
-210,113,0,0,0,0,0,0,0,0,0,-1,1014,911,0,0
-203,113,0,0,0,0,0,0,0,0,0,-1,1021,911,0,0
-196,113,0,0,0,0,0,0,0,0,0,-1,1028,911,0,0
-189,113,0,0,0,0,0,0,0,0,0,-1,1035,911,0,0
-182,113,0,0,0,0,0,0,0,0,0,-1,1042,911,0,0
-175,113,0,0,0,0,0,0,0,0,0,-1,1049,911,0,0
-168,113,0,0,0,0,0,0,0,0,0,-1,1056,911,0,0
-161,113,0,0,0,0,0,0,0,0,0,-1,1063,911,0,0
-154,113,0,0,0,0,0,0,0,0,0,-1,1070,911,0,0
-147,113,0,0,0,0,0,0,0,0,0,-1,1077,911,0,0
-140,113,0,0,0,0,0,0,0,0,0,-1,1084,911,0,0
-133,113,0,0,0,0,0,0,0,0,0,-1,1091,911,0,0
-126,113,0,0,0,0,0,0,0,0,0,-1,1098,911,0,0
-119,113,0,0,0,0,0,0,0,0,0,-1,1105,911,0,0
-112,113,0,0,0,0,0,0,0,0,0,-1,1112,911,0,0
-105,113,0,0,0,0,0,0,0,0,0,-1,1119,911,0,0
-98,113,0,0,0,0,0,0,0,0,0,-1,1126,911,0,0
-91,113,0,0,0,0,0,0,0,0,0,-1,1133,911,0,0
-84,113,0,0,0,0,0,0,0,0,0,-1,1140,911,0,0
-77,113,0,0,0,0,0,0,0,0,0,-1,1147,911,0,0
-70,113,0,0,0,0,0,0,0,0,0,-1,1154,911,0,0
-63,113,0,0,0,0,0,0,0,0,0,-1,1161,911,0,0
-56,113,0,0,0,0,0,0,0,0,0,-1,1168,911,0,0
-49,113,0,0,0,0,0,0,0,0,0,-1,1175,911,0,0
-42,113,0,0,0,0,0,0,0,0,0,-1,1182,911,0,0
-35,113,0,0,0,0,0,0,0,0,0,-1,1189,911,0,0
-28,113,0,0,0,0,0,0,0,0,0,-1,1196,911,0,0
-21,113,0,0,0,0,0,0,0,0,0,-1,1203,911,0,0
-14,113,0,0,0,0,0,0,0,0,0,-1,1210,911,0,0
-7,113,0,0,0,0,0,0,0,0,0,-1,1217,911,0,0
0,113,0,0,0,0,0,0,0,0,0,-1,1224,911,0,0
7,113,0,0,0,0,0,0,0,0,0,-1,1231,911,0,0
14,113,0,0,0,0,0,0,0,0,0,-1,1238,911,0,0
21,113,0,0,0,0,0,0,0,0,0,-1,1245,911,0,0
28,113,0,0,0,0,0,0,0,0,0,-1,1252,911,0,0
35,113,0,0,0,0,0,0,0,0,0,-1,1259,911,0,0
42,113,0,0,0,0,0,0,0,0,0,-1,1266,911,0,0
49,113,0,0,0,0,0,0,0,0,0,-1,1273,911,0,0
56,113,0,0,0,0,0,0,0,0,0,-1,1280,911,0,0
63,113,0,0,0,0,0,0,0,0,0,-1,1287,911,0,0
70,113,0,0,0,0,0,0,0,0,0,-1,1294,911,0,0
77,113,0,0,0,0,0,0,0,0,0,-1,1301,911,0,0
84,113,0,0,0,0,0,0,0,0,0,-1,1308,911,0,0
91,113,0,0,0,0,0,0,0,0,0,-1,1315,911,0,0
98,113,0,0,0,0,0,0,0,0,0,-1,1322,911,0,0
105,113,0,0,0,0,0,0,0,0,0,-1,1329,911,0,0
112,113,0,0,0,0,0,0,0,0,0,-1,1336,911,0,0
119,113,0,0,0,0,0,0,0,0,0,-1,1343,911,0,0
126,113,0,0,0,0,0,0,0,0,0,-1,1350,911,0,0
133,113,0,0,0,0,0,0,0,0,0,-1,1357,911,0,0
140,113,0,0,0,0,0,0,0,0,0,-1,1364,911,0,0
147,113,0,0,0,0,0,0,0,0,0,-1,1371,911,0,0
154,113,0,0,0,0,0,0,0,0,0,-1,1378,911,0,0
161,113,0,0,0,0,0,0,0,0,0,-1,1385,911,0,0
168,113,0,0,0,0,0,0,0,0,0,-1,1392,911,0,0
175,113,0,0,0,0,0,0,0,0,0,-1,1399,911,0,0
182,113,0,0,0,0,0,0,0,0,0,-1,1406,911,0,0
189,113,0,0,0,0,0,0,0,0,0,-1,1413,911,0,0
196,113,0,0,0,0,0,0,0,0,0,-1,1420,911,0,0
203,113,0,0,0,0,0,0,0,0,0,-1,1427,911,0,0
210,113,0,0,0,0,0,0,0,0,0,-1,1434,911,0,0
217,113,0,0,0,0,0,0,0,0,0,-1,1441,911,0,0
224,113,0,0,0,0,0,0,0,0,0,-1,1448,911,0,0
231,113,0,0,0,0,0,0,0,0,0,-1,1455,911,0,0
238,113,0,0,0,0,0,0,0,0,0,-1,1462,911,0,0
245,113,0,0,0,0,0,0,0,0,0,-1,1469,911,0,0
252,113,0,0,0,0,0,0,0,0,0,-1,1476,911,0,0
259,113,0,0,0,0,0,0,0,0,0,-1,1483,911,0,0
266,113,0,0,0,0,0,0,0,0,0,-1,1490,911,0,0
273,113,0,0,0,0,0,0,0,0,0,-1,1497,911,0,0
280,113,0,0,0,0,0,0,0,0,0,-1,1504,911,0,0
287,113,0,0,0,0,0,0,0,0,0,-1,1511,911,0,0
294,113,0,0,0,0,0,0,0,0,0,-1,1518,911,0,0
301,113,0,0,0,0,0,0,0,0,0,-1,1525,911,0,0
308,113,0,0,0,0,0,0,0,0,0,-1,1532,911,0,0
315,113,0,0,0,0,0,0,0,0,0,-1,1539,911,0,0
322,113,0,0,0,0,0,0,0,0,0,-1,1546,911,0,0
329,113,0,0,0,0,0,0,0,0,0,-1,1553,911,0,0
336,113,0,0,0,0,0,0,0,0,0,-1,1560,911,0,0
343,113,0,0,0,0,0,0,0,0,0,-1,1567,911,0,0
350,113,0,0,0,0,0,0,0,0,0,-1,1574,911,0,0
357,113,0,0,0,0,0,0,0,0,0,-1,1581,911,0,0
364,113,0,0,0,0,0,0,0,0,0,-1,1588,911,0,0
371,113,0,0,0,0,0,0,0,0,0,-1,1595,911,0,0
378,113,0,0,0,0,0,0,0,0,0,-1,1602,911,0,0
385,113,0,0,0,0,0,0,0,0,0,-1,1609,911,0,0
392,113,0,0,0,0,0,0,0,0,0,-1,1616,911,0,0
399,113,0,0,0,0,0,0,0,0,0,-1,1623,911,0,0
406,113,0,0,0,0,0,0,0,0,0,-1,1630,911,0,0
413,113,0,0,0,0,0,0,0,0,0,-1,1637,911,0,0
420,113,0,0,0,0,0,0,0,0,0,-1,1644,911,0,0
427,113,0,0,0,0,0,0,0,0,0,-1,1651,911,0,0
434,113,0,0,0,0,0,0,0,0,0,-1,1658,911,0,0
441,113,0,0,0,0,0,0,0,0,0,-1,1665,911,0,0
448,113,0,0,0,0,0,0,0,0,0,-1,1672,911,0,0
455,113,0,0,0,0,0,0,0,0,0,-1,1679,911,0,0
462,113,0,0,0,0,0,0,0,0,0,-1,1686,911,0,0
469,113,0,0,0,0,0,0,0,0,0,-1,1693,911,0,0
476,113,0,0,0,0,0,0,0,0,0,-1,1700,911,0,0
483,113,0,0,0,0,0,0,0,0,0,-1,1707,911,0,0
490,113,0,0,0,0,0,0,0,0,0,-1,1714,911,0,0
497,113,0,0,0,0,0,0,0,0,0,-1,1721,911,0,0
504,113,0,0,0,0,0,0,0,0,0,-1,1728,911,0,0
511,113,0,0,0,0,0,0,0,0,0,-1,1735,911,0,0
518,113,0,0,0,0,0,0,0,0,0,-1,1742,911,0,0
525,113,0,0,0,0,0,0,0,0,0,-1,1749,911,0,0
532,113,0,0,0,0,0,0,0,0,0,-1,1756,911,0,0
539,113,0,0,0,0,0,0,0,0,0,-1,1763,911,0,0
546,113,0,0,0,0,0,0,0,0,0,-1,1770,911,0,0
553,113,0,0,0,0,0,0,0,0,0,-1,1777,911,0,0
560,113,0,0,0,0,0,0,0,0,0,-1,1784,911,0,0
567,113,0,0,0,0,0,0,0,0,0,-1,1791,911,0,0
574,113,0,0,0,0,0,0,0,0,0,-1,1798,911,0,0
581,113,0,0,0,0,0,0,0,0,0,-1,1805,911,0,0
588,113,0,0,0,0,0,0,0,0,0,-1,1812,911,0,0
595,113,0,0,0,0,0,0,0,0,0,-1,1819,911,0,0
602,113,0,0,0,0,0,0,0,0,0,-1,1826,911,0,0
609,113,0,0,0,0,0,0,0,0,0,-1,1833,911,0,0
616,113,0,0,0,0,0,0,0,0,0,-1,1840,911,0,0
623,113,0,0,0,0,0,0,0,0,0,-1,1847,911,0,0
630,113,80.7507,2.09027,-0.00830298,0.00536958,-0.000930818,0.00543266,-0.00836606,-1.50313,0.00802648,0.039052,1854,911,80.7507,-2.09024
637,113,80.7632,2.37268,-0.00612247,0.00427964,-0.000372496,0.00429296,-0.00613579,-1.53505,0.0060523,0.0386912,1861,911,80.7632,-2.37266
644,113,80.6843,2.46826,-0.0043612,0.00330465,-0.000104141,0.00330606,-0.00436262,-1.55721,0.0044415,0.0378013,1868,911,80.6843,-2.46827
651,113,80.6595,2.40332,-0.0027379,0.00222779,-3.53923e-05,0.00222804,-0.00273816,-1.56367,0.00287227,0.0397646,1875,911,80.6596,-2.40329
658,113,80.8778,2.15533,-0.00130933,0.00118037,-0.000145273,0.00118882,-0.00131778,-1.51271,0.00144782,0.040186,1882,911,80.8778,-2.15536
665,113,80.902,2.21857,-0.000225247,0.000589275,-0.000367983,0.000730898,-0.000366869,-1.20341,0.000645307,0.0360466,1889,911,80.902,-2.21854
672,113,80.7806,2.30438,-1.63006e-05,4.45918e-05,-0.000558669,0.000573643,-0.000545352,-0.81262,0.000646121,0.0345254,1896,911,80.7806,-2.30435
679,113,80.7277,2.13287,-0.000156374,-0.000352361,-0.000670127,0.000422887,-0.000931621,-0.712797,0.0008002,0.0304198,1903,911,80.7276,-2.13288
686,113,80.7655,2.11389,-0.000409833,-0.000555995,-0.000964557,0.000484407,-0.00145024,-0.747587,0.00116244,0.029157,1910,911,80.7655,-2.11387
693,113,80.8088,2.13318,0,0,0,0,0,0,0,-1,1917,911,80.8088,-2.13317
700,113,43.897,2.79669,0,0,0,0,0,0,0,-1,1924,911,43.897,-2.79671
707,113,73.4672,3.34088,0,0,0,0,0,0,0,-1,1931,911,73.4672,-3.3409
714,113,73.4578,4.14526,0,0,0,0,0,0,0,-1,1938,911,73.4578,-4.14525
721,113,73.4398,4.89728,-0.0021224,0.00117456,-0.00279604,0.0027719,-0.00371973,-1.05176,0.00376124,0.0269063,1945,911,73.4398,-4.8973
728,113,73.4668,5.72455,-0.00250597,0.00199043,-0.00300481,0.003495,-0.00401054,-1.10657,0.00433673,0.0270053,1952,911,73.4668,-5.72457
735,113,73.3706,6.51666,-0.00240137,0.00317981,-0.00303809,0.00451443,-0.00373599,-1.15688,0.00477045,0.0232096,1959,911,73.3707,-6.51665
742,113,73.2549,7.24988,-0.00133126,0.005077,-0.00312592,0.00634923,-0.00260349,-1.18427,0.00531752,0.0145665,1966,911,73.2549,-7.24988
749,113,73.2363,8.02515,0.00154358,0.00784865,-0.00269955,0.00884654,0.000545691,-1.21672,0.00572447,0.0112628,1973,911,73.2364,-8.02517
756,113,73.1213,8.82043,0.00659343,0.010937,-0.00149437,0.0114015,0.00612897,-1.26946,0.00658885,0.016047,1980,911,73.1214,-8.82044
763,113,72.877,9.7702,0.0133196,0.0139236,0.000499228,0.014205,0.0130381,1.05742,0.009106,0.0393719,1987,911,72.877,-9.77019
770,113,72.6912,10.7543,0,0,0,0,0,0,0,-1,1994,911,72.6912,-10.7543
777,113,58.1719,9.65338,0,0,0,0,0,0,0,-1,2001,911,58.172,-9.6534
784,113,79.3757,13.6559,0,0,0,0,0,0,0,-1,2008,911,79.3756,-13.6559
791,113,74.5583,10.0654,0,0,0,0,0,0,0,-1,2015,911,74.5583,-10.0654
798,113,74.8208,11.6051,0,0,0,0,0,0,0,-1,2022,911,74.8207,-11.6051
805,113,0,0,0,0,0,0,0,0,0,-1,2029,911,0,0
812,113,0,0,0,0,0,0,0,0,0,-1,2036,911,0,0
-700,106,0,0,0,0,0,0,0,0,0,-1,524,918,0,0
-693,106,0,0,0,0,0,0,0,0,0,-1,531,918,0,0
-686,106,0,0,0,0,0,0,0,0,0,-1,538,918,0,0
-679,106,-60.4137,10.3801,0,0,0,0,0,0,0,-1,545,918,-60.4137,-10.3802
-672,106,-59.9378,11.2709,0,0,0,0,0,0,0,-1,552,918,-59.9378,-11.271
-665,106,-53.5263,9.70886,0,0,0,0,0,0,0,-1,559,918,-53.5263,-9.70888
-658,106,-53.7712,10.2163,0,0,0,0,0,0,0,-1,566,918,-53.7712,-10.2163
-651,106,-52.8008,8.01733,0,0,0,0,0,0,0,-1,573,918,-52.8008,-8.01734
-644,106,-56.4586,10.5562,0,0,0,0,0,0,0,-1,580,918,-56.4586,-10.5562
-637,106,-57.0464,9.67456,-0.00860924,0.0136532,0.0120583,0.0189325,-0.0138886,1.15812,0.0190237,0.0471927,587,918,-57.0464,-9.67459
-630,106,-57.6265,8.97992,-0.0100287,0.0155579,0.0105794,0.0193656,-0.0138364,1.22532,0.0192576,0.0215461,594,918,-57.6265,-8.97991
-623,106,-57.8693,8.08374,-0.00877321,0.0134914,0.00883777,0.016573,-0.0118548,1.2353,0.0164879,0.0217289,601,918,-57.8693,-8.08372
-616,106,-57.9525,7.30811,-0.00584394,0.00896648,0.00686978,0.0116623,-0.00853978,1.19684,0.01171,0.0210878,608,918,-57.9525,-7.30808
-609,106,-57.9395,6.60834,-0.00377702,0.0052264,0.00513668,0.00755483,-0.00610546,1.1452,0.00790156,0.0137586,615,918,-57.9395,-6.60832
-602,106,-57.9781,5.79846,-0.00268596,0.00283237,0.00364924,0.00464813,-0.00450172,1.10909,0.00528289,0.0234609,622,918,-57.9781,-5.79848
-595,106,-58.1622,5.06494,-0.00205852,0.00191701,0.00271397,0.00329329,-0.0034348,1.10148,0.00388475,0.0290777,629,918,-58.1623,-5.06494
-588,106,-58.2242,4.25751,-0.00154898,0.00147941,0.00231604,0.00273231,-0.00280188,1.07491,0.00319525,0.0357449,636,918,-58.2242,-4.25753
-581,106,-57.7915,3.5545,0,0,0,0,0,0,0,-1,643,918,-57.7915,-3.55449
-574,106,-57.6215,2.41992,0,0,0,0,0,0,0,-1,650,918,-57.6215,-2.41991
-567,106,-41.3706,0.420776,0,0,0,0,0,0,0,-1,657,918,-41.3706,-0.420794
-560,106,-63.9651,0.34375,0,0,0,0,0,0,0,-1,664,918,-63.9651,-0.343754
-553,106,-64.0486,0.414612,-0.0016374,0.000247696,0.00105678,0.000721195,-0.0021109,1.14956,0.00169946,0.0358642,671,918,-64.0486,-0.414632
-546,106,-64.0715,0.304993,-0.00224387,0.000547627,0.000864042,0.000793427,-0.00248967,1.29364,0.00197803,0.0383879,678,918,-64.0716,-0.305007
-539,106,-64.0009,0.28479,-0.0029336,0.00113308,0.00082471,0.00129396,-0.00309448,1.37814,0.00260379,0.0393519,685,918,-64.0008,-0.284768
-532,106,-63.9427,0.383728,-0.00374254,0.00185923,0.00101528,0.00203756,-0.00392088,1.39692,0.00349692,0.0394982,692,918,-63.9427,-0.383746
-525,106,-64.0112,0.393799,-0.00568473,0.0029799,0.000748774,0.00304413,-0.00574896,1.48522,0.00515613,0.0383709,699,918,-64.0112,-0.393773
-518,106,-64.0839,0.436035,-0.00773067,0.00421603,0.000191199,0.00421909,-0.00773372,1.5548,0.0069997,0.0397043,706,918,-64.0839,-0.436022
-511,106,0,0,0,0,0,0,0,0,0,-1,713,918,0,0
-504,106,0,0,0,0,0,0,0,0,0,-1,720,918,0,0
-497,106,0,0,0,0,0,0,0,0,0,-1,727,918,0,0
-490,106,0,0,0,0,0,0,0,0,0,-1,734,918,0,0
-483,106,0,0,0,0,0,0,0,0,0,-1,741,918,0,0
-476,106,0,0,0,0,0,0,0,0,0,-1,748,918,0,0
-469,106,0,0,0,0,0,0,0,0,0,-1,755,918,0,0
-462,106,0,0,0,0,0,0,0,0,0,-1,762,918,0,0
-455,106,0,0,0,0,0,0,0,0,0,-1,769,918,0,0
-448,106,0,0,0,0,0,0,0,0,0,-1,776,918,0,0
-441,106,0,0,0,0,0,0,0,0,0,-1,783,918,0,0
-434,106,0,0,0,0,0,0,0,0,0,-1,790,918,0,0
-427,106,0,0,0,0,0,0,0,0,0,-1,797,918,0,0
-420,106,0,0,0,0,0,0,0,0,0,-1,804,918,0,0
-413,106,0,0,0,0,0,0,0,0,0,-1,811,918,0,0
-406,106,0,0,0,0,0,0,0,0,0,-1,818,918,0,0
-399,106,0,0,0,0,0,0,0,0,0,-1,825,918,0,0
-392,106,0,0,0,0,0,0,0,0,0,-1,832,918,0,0
-385,106,0,0,0,0,0,0,0,0,0,-1,839,918,0,0
-378,106,0,0,0,0,0,0,0,0,0,-1,846,918,0,0
-371,106,0,0,0,0,0,0,0,0,0,-1,853,918,0,0
-364,106,0,0,0,0,0,0,0,0,0,-1,860,918,0,0
-357,106,0,0,0,0,0,0,0,0,0,-1,867,918,0,0
-350,106,0,0,0,0,0,0,0,0,0,-1,874,918,0,0
-343,106,0,0,0,0,0,0,0,0,0,-1,881,918,0,0
-336,106,0,0,0,0,0,0,0,0,0,-1,888,918,0,0
-329,106,0,0,0,0,0,0,0,0,0,-1,895,918,0,0
-322,106,0,0,0,0,0,0,0,0,0,-1,902,918,0,0
-315,106,0,0,0,0,0,0,0,0,0,-1,909,918,0,0
-308,106,0,0,0,0,0,0,0,0,0,-1,916,918,0,0
-301,106,0,0,0,0,0,0,0,0,0,-1,923,918,0,0
-294,106,0,0,0,0,0,0,0,0,0,-1,930,918,0,0
-287,106,0,0,0,0,0,0,0,0,0,-1,937,918,0,0
-280,106,0,0,0,0,0,0,0,0,0,-1,944,918,0,0
-273,106,0,0,0,0,0,0,0,0,0,-1,951,918,0,0
-266,106,0,0,0,0,0,0,0,0,0,-1,958,918,0,0
-259,106,0,0,0,0,0,0,0,0,0,-1,965,918,0,0
-252,106,0,0,0,0,0,0,0,0,0,-1,972,918,0,0
-245,106,0,0,0,0,0,0,0,0,0,-1,979,918,0,0
-238,106,0,0,0,0,0,0,0,0,0,-1,986,918,0,0
-231,106,0,0,0,0,0,0,0,0,0,-1,993,918,0,0
-224,106,0,0,0,0,0,0,0,0,0,-1,1000,918,0,0
-217,106,0,0,0,0,0,0,0,0,0,-1,1007,918,0,0
-210,106,0,0,0,0,0,0,0,0,0,-1,1014,918,0,0
-203,106,0,0,0,0,0,0,0,0,0,-1,1021,918,0,0
-196,106,0,0,0,0,0,0,0,0,0,-1,1028,918,0,0
-189,106,0,0,0,0,0,0,0,0,0,-1,1035,918,0,0
-182,106,0,0,0,0,0,0,0,0,0,-1,1042,918,0,0
-175,106,0,0,0,0,0,0,0,0,0,-1,1049,918,0,0
-168,106,0,0,0,0,0,0,0,0,0,-1,1056,918,0,0
-161,106,0,0,0,0,0,0,0,0,0,-1,1063,918,0,0
-154,106,0,0,0,0,0,0,0,0,0,-1,1070,918,0,0
-147,106,0,0,0,0,0,0,0,0,0,-1,1077,918,0,0
-140,106,0,0,0,0,0,0,0,0,0,-1,1084,918,0,0
-133,106,0,0,0,0,0,0,0,0,0,-1,1091,918,0,0
-126,106,0,0,0,0,0,0,0,0,0,-1,1098,918,0,0
-119,106,0,0,0,0,0,0,0,0,0,-1,1105,918,0,0
-112,106,0,0,0,0,0,0,0,0,0,-1,1112,918,0,0
-105,106,0,0,0,0,0,0,0,0,0,-1,1119,918,0,0
-98,106,0,0,0,0,0,0,0,0,0,-1,1126,918,0,0
-91,106,0,0,0,0,0,0,0,0,0,-1,1133,918,0,0
-84,106,0,0,0,0,0,0,0,0,0,-1,1140,918,0,0
-77,106,0,0,0,0,0,0,0,0,0,-1,1147,918,0,0
-70,106,0,0,0,0,0,0,0,0,0,-1,1154,918,0,0
-63,106,0,0,0,0,0,0,0,0,0,-1,1161,918,0,0
-56,106,0,0,0,0,0,0,0,0,0,-1,1168,918,0,0
-49,106,0,0,0,0,0,0,0,0,0,-1,1175,918,0,0
-42,106,0,0,0,0,0,0,0,0,0,-1,1182,918,0,0
-35,106,0,0,0,0,0,0,0,0,0,-1,1189,918,0,0
-28,106,0,0,0,0,0,0,0,0,0,-1,1196,918,0,0
-21,106,0,0,0,0,0,0,0,0,0,-1,1203,918,0,0
-14,106,0,0,0,0,0,0,0,0,0,-1,1210,918,0,0
-7,106,0,0,0,0,0,0,0,0,0,-1,1217,918,0,0
0,106,0,0,0,0,0,0,0,0,0,-1,1224,918,0,0
7,106,0,0,0,0,0,0,0,0,0,-1,1231,918,0,0
14,106,0,0,0,0,0,0,0,0,0,-1,1238,918,0,0
21,106,0,0,0,0,0,0,0,0,0,-1,1245,918,0,0
28,106,0,0,0,0,0,0,0,0,0,-1,1252,918,0,0
35,106,0,0,0,0,0,0,0,0,0,-1,1259,918,0,0
42,106,0,0,0,0,0,0,0,0,0,-1,1266,918,0,0
49,106,0,0,0,0,0,0,0,0,0,-1,1273,918,0,0
56,106,0,0,0,0,0,0,0,0,0,-1,1280,918,0,0
63,106,0,0,0,0,0,0,0,0,0,-1,1287,918,0,0
70,106,0,0,0,0,0,0,0,0,0,-1,1294,918,0,0
77,106,0,0,0,0,0,0,0,0,0,-1,1301,918,0,0
84,106,0,0,0,0,0,0,0,0,0,-1,1308,918,0,0
91,106,0,0,0,0,0,0,0,0,0,-1,1315,918,0,0
98,106,0,0,0,0,0,0,0,0,0,-1,1322,918,0,0
105,106,0,0,0,0,0,0,0,0,0,-1,1329,918,0,0
112,106,0,0,0,0,0,0,0,0,0,-1,1336,918,0,0
119,106,0,0,0,0,0,0,0,0,0,-1,1343,918,0,0
126,106,0,0,0,0,0,0,0,0,0,-1,1350,918,0,0
133,106,0,0,0,0,0,0,0,0,0,-1,1357,918,0,0
140,106,0,0,0,0,0,0,0,0,0,-1,1364,918,0,0
147,106,0,0,0,0,0,0,0,0,0,-1,1371,918,0,0
154,106,0,0,0,0,0,0,0,0,0,-1,1378,918,0,0
161,106,0,0,0,0,0,0,0,0,0,-1,1385,918,0,0
168,106,0,0,0,0,0,0,0,0,0,-1,1392,918,0,0
175,106,0,0,0,0,0,0,0,0,0,-1,1399,918,0,0
182,106,0,0,0,0,0,0,0,0,0,-1,1406,918,0,0
189,106,0,0,0,0,0,0,0,0,0,-1,1413,918,0,0
196,106,0,0,0,0,0,0,0,0,0,-1,1420,918,0,0
203,106,0,0,0,0,0,0,0,0,0,-1,1427,918,0,0
210,106,0,0,0,0,0,0,0,0,0,-1,1434,918,0,0
217,106,0,0,0,0,0,0,0,0,0,-1,1441,918,0,0
224,106,0,0,0,0,0,0,0,0,0,-1,1448,918,0,0
231,106,0,0,0,0,0,0,0,0,0,-1,1455,918,0,0
238,106,0,0,0,0,0,0,0,0,0,-1,1462,918,0,0
245,106,0,0,0,0,0,0,0,0,0,-1,1469,918,0,0
252,106,0,0,0,0,0,0,0,0,0,-1,1476,918,0,0
259,106,0,0,0,0,0,0,0,0,0,-1,1483,918,0,0
266,106,0,0,0,0,0,0,0,0,0,-1,1490,918,0,0
273,106,0,0,0,0,0,0,0,0,0,-1,1497,918,0,0
280,106,0,0,0,0,0,0,0,0,0,-1,1504,918,0,0
287,106,0,0,0,0,0,0,0,0,0,-1,1511,918,0,0
294,106,0,0,0,0,0,0,0,0,0,-1,1518,918,0,0
301,106,0,0,0,0,0,0,0,0,0,-1,1525,918,0,0
308,106,0,0,0,0,0,0,0,0,0,-1,1532,918,0,0
315,106,0,0,0,0,0,0,0,0,0,-1,1539,918,0,0
322,106,0,0,0,0,0,0,0,0,0,-1,1546,918,0,0
329,106,0,0,0,0,0,0,0,0,0,-1,1553,918,0,0
336,106,0,0,0,0,0,0,0,0,0,-1,1560,918,0,0
343,106,0,0,0,0,0,0,0,0,0,-1,1567,918,0,0
350,106,0,0,0,0,0,0,0,0,0,-1,1574,918,0,0
357,106,0,0,0,0,0,0,0,0,0,-1,1581,918,0,0
364,106,0,0,0,0,0,0,0,0,0,-1,1588,918,0,0
371,106,0,0,0,0,0,0,0,0,0,-1,1595,918,0,0
378,106,0,0,0,0,0,0,0,0,0,-1,1602,918,0,0
385,106,0,0,0,0,0,0,0,0,0,-1,1609,918,0,0
392,106,0,0,0,0,0,0,0,0,0,-1,1616,918,0,0
399,106,0,0,0,0,0,0,0,0,0,-1,1623,918,0,0
406,106,0,0,0,0,0,0,0,0,0,-1,1630,918,0,0
413,106,0,0,0,0,0,0,0,0,0,-1,1637,918,0,0
420,106,0,0,0,0,0,0,0,0,0,-1,1644,918,0,0
427,106,0,0,0,0,0,0,0,0,0,-1,1651,918,0,0
434,106,0,0,0,0,0,0,0,0,0,-1,1658,918,0,0
441,106,0,0,0,0,0,0,0,0,0,-1,1665,918,0,0
448,106,0,0,0,0,0,0,0,0,0,-1,1672,918,0,0
455,106,0,0,0,0,0,0,0,0,0,-1,1679,918,0,0
462,106,0,0,0,0,0,0,0,0,0,-1,1686,918,0,0
469,106,0,0,0,0,0,0,0,0,0,-1,1693,918,0,0
476,106,0,0,0,0,0,0,0,0,0,-1,1700,918,0,0
483,106,0,0,0,0,0,0,0,0,0,-1,1707,918,0,0
490,106,0,0,0,0,0,0,0,0,0,-1,1714,918,0,0
497,106,0,0,0,0,0,0,0,0,0,-1,1721,918,0,0
504,106,0,0,0,0,0,0,0,0,0,-1,1728,918,0,0
511,106,0,0,0,0,0,0,0,0,0,-1,1735,918,0,0
518,106,0,0,0,0,0,0,0,0,0,-1,1742,918,0,0
525,106,0,0,0,0,0,0,0,0,0,-1,1749,918,0,0
532,106,0,0,0,0,0,0,0,0,0,-1,1756,918,0,0
539,106,0,0,0,0,0,0,0,0,0,-1,1763,918,0,0
546,106,0,0,0,0,0,0,0,0,0,-1,1770,918,0,0
553,106,0,0,0,0,0,0,0,0,0,-1,1777,918,0,0
560,106,0,0,0,0,0,0,0,0,0,-1,1784,918,0,0
567,106,0,0,0,0,0,0,0,0,0,-1,1791,918,0,0
574,106,0,0,0,0,0,0,0,0,0,-1,1798,918,0,0
581,106,0,0,0,0,0,0,0,0,0,-1,1805,918,0,0
588,106,0,0,0,0,0,0,0,0,0,-1,1812,918,0,0
595,106,0,0,0,0,0,0,0,0,0,-1,1819,918,0,0
602,106,0,0,0,0,0,0,0,0,0,-1,1826,918,0,0
609,106,0,0,0,0,0,0,0,0,0,-1,1833,918,0,0
616,106,0,0,0,0,0,0,0,0,0,-1,1840,918,0,0
623,106,0,0,0,0,0,0,0,0,0,-1,1847,918,0,0
630,106,80.9349,1.84381,-0.00949561,0.00558919,-0.00178843,0.00579832,-0.00970474,-1.45439,0.00904492,0.0420996,1854,918,80.9349,-1.84378
637,106,80.7594,2.27423,-0.00706734,0.00437029,-0.000934075,0.00444607,-0.00714312,-1.48984,0.00675115,0.0415956,1861,918,80.7594,-2.2742
644,106,80.8036,2.22778,-0.0051894,0.00340531,-0.000460761,0.00342994,-0.00521403,-1.51739,0.00502591,0.0392073,1868,918,80.8036,-2.22777
651,106,80.826,2.18347,-0.00346783,0.00238315,-0.000207242,0.00239048,-0.00347516,-1.53544,0.00340577,0.0400557,1875,918,80.8261,-2.18346
658,106,80.9344,2.1416,-0.00190683,0.00143306,-0.000129278,0.00143806,-0.00191183,-1.53217,0.0019405,0.0420487,1882,918,80.9344,-2.14159
665,106,80.8767,2.25934,-0.000555361,0.000782521,-0.000208234,0.000814182,-0.000587022,-1.41991,0.000812521,0.0403014,1889,918,80.8767,-2.25932
672,106,80.7368,2.35663,-0.00016103,0.00014512,-0.000318165,0.000345119,-0.000361028,-1.00961,0.000407728,0.0394176,1896,918,80.7368,-2.35664
679,106,80.7368,2.25745,-0.000238402,-0.000422774,-0.000395026,7.5052e-05,-0.000736228,-0.670767,0.000517653,0.0350388,1903,918,80.7368,-2.25742
686,106,80.7664,2.19873,-0.000434815,-0.000755872,-0.0007252,0.000147411,-0.0013381,-0.676476,0.000945043,0.0324559,1910,918,80.7663,-2.19873
693,106,80.8313,2.01013,-0.000704177,-0.000714448,-0.00111954,0.000410237,-0.00182886,-0.783105,0.00137652,0.0406531,1917,918,80.8313,-2.01014
700,106,81.0197,1.75153,0,0,0,0,0,0,0,-1,1924,918,81.0197,-1.75155
707,106,59.4137,3.22595,0,0,0,0,0,0,0,-1,1931,918,59.4136,-3.22598
714,106,74.0096,4.0943,0,0,0,0,0,0,0,-1,1938,918,74.0096,-4.0943
721,106,74.3358,5.02698,-0.00235555,0.00112562,-0.00273988,0.00263105,-0.00386098,-1.06838,0.00377053,0.0351602,1945,918,74.3358,-5.02695
728,106,74.3647,5.82727,-0.0027072,0.00200429,-0.0029616,0.0034328,-0.00413571,-1.12137,0.00437596,0.0326834,1952,918,74.3647,-5.82726
735,106,74.2711,6.56262,-0.00258009,0.00326544,-0.00299732,0.00452915,-0.00384379,-1.1718,0.00483951,0.0289077,1959,918,74.2712,-6.5626
742,106,74.1382,7.25104,-0.00170217,0.00526862,-0.00317251,0.00649627,-0.00292982,-1.20158,0.00557049,0.0146486,1966,918,74.1382,-7.25105
749,106,74.0715,8.00085,0.000952568,0.00829289,-0.00290249,0.00930189,-5.64321e-05,-1.23623,0.00622016,0.0116374,1973,918,74.0716,-8.00084
756,106,73.9692,8.75421,0.00603653,0.0117805,-0.00181644,0.0123067,0.00551032,-1.28882,0.00711821,0.0150517,1980,918,73.9692,-8.75423
763,106,73.8274,9.63879,0.0129141,0.0151845,6.11207e-05,0.0151862,0.0129125,1.5439,0.00945775,0.0336302,1987,918,73.8273,-9.6388
770,106,73.7395,10.5433,0,0,0,0,0,0,0,-1,1994,918,73.7395,-10.5433
777,106,75.4224,10.6877,0,0,0,0,0,0,0,-1,2001,918,75.4224,-10.6878
784,106,76.145,11.3091,0,0,0,0,0,0,0,-1,2008,918,76.145,-11.3091
791,106,75.1431,10.694,0,0,0,0,0,0,0,-1,2015,918,75.143,-10.6939
798,106,74.9373,11.025,0,0,0,0,0,0,0,-1,2022,918,74.9373,-11.0249
805,106,0,0,0,0,0,0,0,0,0,-1,2029,918,0,0
812,106,0,0,0,0,0,0,0,0,0,-1,2036,918,0,0
-700,99,0,0,0,0,0,0,0,0,0,-1,524,925,0,0
-693,99,0,0,0,0,0,0,0,0,0,-1,531,925,0,0
-686,99,0,0,0,0,0,0,0,0,0,-1,538,925,0,0
-679,99,-60.0285,9.58405,0,0,0,0,0,0,0,-1,545,925,-60.0285,-9.58402
-672,99,-59.5222,10.1797,0,0,0,0,0,0,0,-1,552,925,-59.5222,-10.1797
-665,99,-58.8331,10.9661,0,0,0,0,0,0,0,-1,559,925,-58.8331,-10.9661
-658,99,-58.6227,11.3068,0,0,0,0,0,0,0,-1,566,925,-58.6227,-11.3068
-651,99,-58.2084,11.0227,0,0,0,0,0,0,0,-1,573,925,-58.2084,-11.0227
-644,99,-57.6816,10.2763,0,0,0,0,0,0,0,-1,580,925,-57.6816,-10.2763
-637,99,-58.0682,9.58453,-0.00445008,0.0132535,0.0119343,0.0192604,-0.010457,1.10449,0.0174065,0.0384994,587,925,-58.0682,-9.58455
-630,99,-58.462,8.93164,-0.00725465,0.0161086,0.0106006,0.0202014,-0.0113475,1.20234,0.0184523,0.0215766,594,925,-58.462,-8.93167
-623,99,-58.7515,8.10321,-0.00688996,0.014224,0.00897816,0.0175255,-0.0101914,1.21842,0.016188,0.0152356,601,925,-58.7515,-8.10322
-616,99,-58.7823,7.33514,-0.00445546,0.00930849,0.0071087,0.0123207,-0.00746768,1.17,0.0115388,0.0173219,608,925,-58.7823,-7.33514
-609,99,-58.7856,6.65259,-0.00279582,0.00538081,0.00548029,0.00812973,-0.00554475,1.10587,0.00794185,0.0128776,615,925,-58.7857,-6.6526
-602,99,-58.7828,5.94189,-0.00192732,0.00286508,0.00406824,0.00519036,-0.0042526,1.05155,0.00546085,0.019395,622,925,-58.7828,-5.94189
-595,99,-58.917,5.2146,-0.00138412,0.00177244,0.00315291,0.00372004,-0.00333172,1.01745,0.00407339,0.0267376,629,925,-58.917,-5.21461
-588,99,-58.9876,4.4245,-0.000937007,0.00116338,0.0027045,0.00301443,-0.00278806,0.970594,0.00335092,0.0305626,636,925,-58.9876,-4.42448
-581,99,-58.6208,3.70715,0,0,0,0,0,0,0,-1,643,925,-58.6209,-3.70718
-574,99,-58.6707,2.4903,0,0,0,0,0,0,0,-1,650,925,-58.6707,-2.49027
-567,99,-50.5977,0.659485,0,0,0,0,0,0,0,-1,657,925,-50.5977,-0.659461
-560,99,-63.9025,0.251587,0,0,0,0,0,0,0,-1,664,925,-63.9025,-0.251609
-553,99,-64.0656,0.267517,0,0,0,0,0,0,0,-1,671,925,-64.0656,-0.267525
-546,99,-64.0121,0.101685,-0.00191091,0.000387279,0.000992702,0.000756696,-0.00228032,1.21454,0.0018255,0.0424324,678,925,-64.0121,-0.101662
-539,99,-63.9543,0.0634155,-0.00268101,0.00115601,0.000943424,0.00137542,-0.00290042,1.34228,0.00252046,0.0394591,685,925,-63.9544,-0.063402
-532,99,-63.9883,0.401001,-0.00366757,0.0021582,0.000950668,0.0023094,-0.00381878,1.41306,0.0035737,0.0409677,692,925,-63.9883,-0.400989
-525,99,-64.1511,0.549194,-0.00538576,0.00356808,0.000576784,0.00360508,-0.00542276,1.50673,0.00524732,0.0405067,699,925,-64.1512,-0.549212
-518,99,-64.2575,0.651428,-0.00724066,0.00520178,-6.21239e-05,0.00520209,-0.00724097,-1.5658,0.00721608,0.0396011,706,925,-64.2575,-0.651424
-511,99,0,0,0,0,0,0,0,0,0,-1,713,925,0,0
-504,99,0,0,0,0,0,0,0,0,0,-1,720,925,0,0
-497,99,0,0,0,0,0,0,0,0,0,-1,727,925,0,0
-490,99,0,0,0,0,0,0,0,0,0,-1,734,925,0,0
-483,99,0,0,0,0,0,0,0,0,0,-1,741,925,0,0
-476,99,0,0,0,0,0,0,0,0,0,-1,748,925,0,0
-469,99,0,0,0,0,0,0,0,0,0,-1,755,925,0,0
-462,99,0,0,0,0,0,0,0,0,0,-1,762,925,0,0
-455,99,0,0,0,0,0,0,0,0,0,-1,769,925,0,0
-448,99,0,0,0,0,0,0,0,0,0,-1,776,925,0,0
-441,99,0,0,0,0,0,0,0,0,0,-1,783,925,0,0
-434,99,0,0,0,0,0,0,0,0,0,-1,790,925,0,0
-427,99,0,0,0,0,0,0,0,0,0,-1,797,925,0,0
-420,99,0,0,0,0,0,0,0,0,0,-1,804,925,0,0
-413,99,0,0,0,0,0,0,0,0,0,-1,811,925,0,0
-406,99,0,0,0,0,0,0,0,0,0,-1,818,925,0,0
-399,99,0,0,0,0,0,0,0,0,0,-1,825,925,0,0
-392,99,0,0,0,0,0,0,0,0,0,-1,832,925,0,0
-385,99,0,0,0,0,0,0,0,0,0,-1,839,925,0,0
-378,99,0,0,0,0,0,0,0,0,0,-1,846,925,0,0
-371,99,0,0,0,0,0,0,0,0,0,-1,853,925,0,0
-364,99,0,0,0,0,0,0,0,0,0,-1,860,925,0,0
-357,99,0,0,0,0,0,0,0,0,0,-1,867,925,0,0
-350,99,0,0,0,0,0,0,0,0,0,-1,874,925,0,0
-343,99,0,0,0,0,0,0,0,0,0,-1,881,925,0,0
-336,99,0,0,0,0,0,0,0,0,0,-1,888,925,0,0
-329,99,0,0,0,0,0,0,0,0,0,-1,895,925,0,0
-322,99,0,0,0,0,0,0,0,0,0,-1,902,925,0,0
-315,99,0,0,0,0,0,0,0,0,0,-1,909,925,0,0
-308,99,0,0,0,0,0,0,0,0,0,-1,916,925,0,0
-301,99,0,0,0,0,0,0,0,0,0,-1,923,925,0,0
-294,99,0,0,0,0,0,0,0,0,0,-1,930,925,0,0
-287,99,0,0,0,0,0,0,0,0,0,-1,937,925,0,0
-280,99,0,0,0,0,0,0,0,0,0,-1,944,925,0,0
-273,99,0,0,0,0,0,0,0,0,0,-1,951,925,0,0
-266,99,0,0,0,0,0,0,0,0,0,-1,958,925,0,0
-259,99,0,0,0,0,0,0,0,0,0,-1,965,925,0,0
-252,99,0,0,0,0,0,0,0,0,0,-1,972,925,0,0
-245,99,0,0,0,0,0,0,0,0,0,-1,979,925,0,0
-238,99,0,0,0,0,0,0,0,0,0,-1,986,925,0,0
-231,99,0,0,0,0,0,0,0,0,0,-1,993,925,0,0
-224,99,0,0,0,0,0,0,0,0,0,-1,1000,925,0,0
-217,99,0,0,0,0,0,0,0,0,0,-1,1007,925,0,0
-210,99,0,0,0,0,0,0,0,0,0,-1,1014,925,0,0
-203,99,0,0,0,0,0,0,0,0,0,-1,1021,925,0,0
-196,99,0,0,0,0,0,0,0,0,0,-1,1028,925,0,0
-189,99,0,0,0,0,0,0,0,0,0,-1,1035,925,0,0
-182,99,0,0,0,0,0,0,0,0,0,-1,1042,925,0,0
-175,99,0,0,0,0,0,0,0,0,0,-1,1049,925,0,0
-168,99,0,0,0,0,0,0,0,0,0,-1,1056,925,0,0
-161,99,0,0,0,0,0,0,0,0,0,-1,1063,925,0,0
-154,99,0,0,0,0,0,0,0,0,0,-1,1070,925,0,0
-147,99,0,0,0,0,0,0,0,0,0,-1,1077,925,0,0
-140,99,0,0,0,0,0,0,0,0,0,-1,1084,925,0,0
-133,99,0,0,0,0,0,0,0,0,0,-1,1091,925,0,0
-126,99,0,0,0,0,0,0,0,0,0,-1,1098,925,0,0
-119,99,0,0,0,0,0,0,0,0,0,-1,1105,925,0,0
-112,99,0,0,0,0,0,0,0,0,0,-1,1112,925,0,0
-105,99,0,0,0,0,0,0,0,0,0,-1,1119,925,0,0
-98,99,0,0,0,0,0,0,0,0,0,-1,1126,925,0,0
-91,99,0,0,0,0,0,0,0,0,0,-1,1133,925,0,0
-84,99,0,0,0,0,0,0,0,0,0,-1,1140,925,0,0
-77,99,0,0,0,0,0,0,0,0,0,-1,1147,925,0,0
-70,99,0,0,0,0,0,0,0,0,0,-1,1154,925,0,0
-63,99,0,0,0,0,0,0,0,0,0,-1,1161,925,0,0
-56,99,0,0,0,0,0,0,0,0,0,-1,1168,925,0,0
-49,99,0,0,0,0,0,0,0,0,0,-1,1175,925,0,0
-42,99,0,0,0,0,0,0,0,0,0,-1,1182,925,0,0
-35,99,0,0,0,0,0,0,0,0,0,-1,1189,925,0,0
-28,99,0,0,0,0,0,0,0,0,0,-1,1196,925,0,0
-21,99,0,0,0,0,0,0,0,0,0,-1,1203,925,0,0
-14,99,0,0,0,0,0,0,0,0,0,-1,1210,925,0,0
-7,99,0,0,0,0,0,0,0,0,0,-1,1217,925,0,0
0,99,0,0,0,0,0,0,0,0,0,-1,1224,925,0,0
7,99,0,0,0,0,0,0,0,0,0,-1,1231,925,0,0
14,99,0,0,0,0,0,0,0,0,0,-1,1238,925,0,0
21,99,0,0,0,0,0,0,0,0,0,-1,1245,925,0,0
28,99,0,0,0,0,0,0,0,0,0,-1,1252,925,0,0
35,99,0,0,0,0,0,0,0,0,0,-1,1259,925,0,0
42,99,0,0,0,0,0,0,0,0,0,-1,1266,925,0,0
49,99,0,0,0,0,0,0,0,0,0,-1,1273,925,0,0
56,99,0,0,0,0,0,0,0,0,0,-1,1280,925,0,0
63,99,0,0,0,0,0,0,0,0,0,-1,1287,925,0,0
70,99,0,0,0,0,0,0,0,0,0,-1,1294,925,0,0
77,99,0,0,0,0,0,0,0,0,0,-1,1301,925,0,0
84,99,0,0,0,0,0,0,0,0,0,-1,1308,925,0,0
91,99,0,0,0,0,0,0,0,0,0,-1,1315,925,0,0
98,99,0,0,0,0,0,0,0,0,0,-1,1322,925,0,0
105,99,0,0,0,0,0,0,0,0,0,-1,1329,925,0,0
112,99,0,0,0,0,0,0,0,0,0,-1,1336,925,0,0
119,99,0,0,0,0,0,0,0,0,0,-1,1343,925,0,0
126,99,0,0,0,0,0,0,0,0,0,-1,1350,925,0,0
133,99,0,0,0,0,0,0,0,0,0,-1,1357,925,0,0
140,99,0,0,0,0,0,0,0,0,0,-1,1364,925,0,0
147,99,0,0,0,0,0,0,0,0,0,-1,1371,925,0,0
154,99,0,0,0,0,0,0,0,0,0,-1,1378,925,0,0
161,99,0,0,0,0,0,0,0,0,0,-1,1385,925,0,0
168,99,0,0,0,0,0,0,0,0,0,-1,1392,925,0,0
175,99,0,0,0,0,0,0,0,0,0,-1,1399,925,0,0
182,99,0,0,0,0,0,0,0,0,0,-1,1406,925,0,0
189,99,0,0,0,0,0,0,0,0,0,-1,1413,925,0,0
196,99,0,0,0,0,0,0,0,0,0,-1,1420,925,0,0
203,99,0,0,0,0,0,0,0,0,0,-1,1427,925,0,0
210,99,0,0,0,0,0,0,0,0,0,-1,1434,925,0,0
217,99,0,0,0,0,0,0,0,0,0,-1,1441,925,0,0
224,99,0,0,0,0,0,0,0,0,0,-1,1448,925,0,0
231,99,0,0,0,0,0,0,0,0,0,-1,1455,925,0,0
238,99,0,0,0,0,0,0,0,0,0,-1,1462,925,0,0
245,99,0,0,0,0,0,0,0,0,0,-1,1469,925,0,0
252,99,0,0,0,0,0,0,0,0,0,-1,1476,925,0,0
259,99,0,0,0,0,0,0,0,0,0,-1,1483,925,0,0
266,99,0,0,0,0,0,0,0,0,0,-1,1490,925,0,0
273,99,0,0,0,0,0,0,0,0,0,-1,1497,925,0,0
280,99,0,0,0,0,0,0,0,0,0,-1,1504,925,0,0
287,99,0,0,0,0,0,0,0,0,0,-1,1511,925,0,0
294,99,0,0,0,0,0,0,0,0,0,-1,1518,925,0,0
301,99,0,0,0,0,0,0,0,0,0,-1,1525,925,0,0
308,99,0,0,0,0,0,0,0,0,0,-1,1532,925,0,0
315,99,0,0,0,0,0,0,0,0,0,-1,1539,925,0,0
322,99,0,0,0,0,0,0,0,0,0,-1,1546,925,0,0
329,99,0,0,0,0,0,0,0,0,0,-1,1553,925,0,0
336,99,0,0,0,0,0,0,0,0,0,-1,1560,925,0,0
343,99,0,0,0,0,0,0,0,0,0,-1,1567,925,0,0
350,99,0,0,0,0,0,0,0,0,0,-1,1574,925,0,0
357,99,0,0,0,0,0,0,0,0,0,-1,1581,925,0,0
364,99,0,0,0,0,0,0,0,0,0,-1,1588,925,0,0
371,99,0,0,0,0,0,0,0,0,0,-1,1595,925,0,0
378,99,0,0,0,0,0,0,0,0,0,-1,1602,925,0,0
385,99,0,0,0,0,0,0,0,0,0,-1,1609,925,0,0
392,99,0,0,0,0,0,0,0,0,0,-1,1616,925,0,0
399,99,0,0,0,0,0,0,0,0,0,-1,1623,925,0,0
406,99,0,0,0,0,0,0,0,0,0,-1,1630,925,0,0
413,99,0,0,0,0,0,0,0,0,0,-1,1637,925,0,0
420,99,0,0,0,0,0,0,0,0,0,-1,1644,925,0,0
427,99,0,0,0,0,0,0,0,0,0,-1,1651,925,0,0
434,99,0,0,0,0,0,0,0,0,0,-1,1658,925,0,0
441,99,0,0,0,0,0,0,0,0,0,-1,1665,925,0,0
448,99,0,0,0,0,0,0,0,0,0,-1,1672,925,0,0
455,99,0,0,0,0,0,0,0,0,0,-1,1679,925,0,0
462,99,0,0,0,0,0,0,0,0,0,-1,1686,925,0,0
469,99,0,0,0,0,0,0,0,0,0,-1,1693,925,0,0
476,99,0,0,0,0,0,0,0,0,0,-1,1700,925,0,0
483,99,0,0,0,0,0,0,0,0,0,-1,1707,925,0,0
490,99,0,0,0,0,0,0,0,0,0,-1,1714,925,0,0
497,99,0,0,0,0,0,0,0,0,0,-1,1721,925,0,0
504,99,0,0,0,0,0,0,0,0,0,-1,1728,925,0,0
511,99,0,0,0,0,0,0,0,0,0,-1,1735,925,0,0
518,99,0,0,0,0,0,0,0,0,0,-1,1742,925,0,0
525,99,0,0,0,0,0,0,0,0,0,-1,1749,925,0,0
532,99,0,0,0,0,0,0,0,0,0,-1,1756,925,0,0
539,99,0,0,0,0,0,0,0,0,0,-1,1763,925,0,0
546,99,0,0,0,0,0,0,0,0,0,-1,1770,925,0,0
553,99,0,0,0,0,0,0,0,0,0,-1,1777,925,0,0
560,99,0,0,0,0,0,0,0,0,0,-1,1784,925,0,0
567,99,0,0,0,0,0,0,0,0,0,-1,1791,925,0,0
574,99,0,0,0,0,0,0,0,0,0,-1,1798,925,0,0
581,99,0,0,0,0,0,0,0,0,0,-1,1805,925,0,0
588,99,0,0,0,0,0,0,0,0,0,-1,1812,925,0,0
595,99,0,0,0,0,0,0,0,0,0,-1,1819,925,0,0
602,99,0,0,0,0,0,0,0,0,0,-1,1826,925,0,0
609,99,0,0,0,0,0,0,0,0,0,-1,1833,925,0,0
616,99,0,0,0,0,0,0,0,0,0,-1,1840,925,0,0
623,99,0,0,0,0,0,0,0,0,0,-1,1847,925,0,0
630,99,0,0,0,0,0,0,0,0,0,-1,1854,925,0,0
637,99,80.87,2.18335,-0.00775896,0.00398645,-0.00159876,0.00420018,-0.00797269,-1.4379,0.00713962,0.0454487,1861,925,80.87,-2.18332
644,99,80.8303,2.12689,-0.00580037,0.00317119,-0.000938264,0.00326827,-0.00589744,-1.4677,0.0053639,0.0405989,1868,925,80.8303,-2.12688
651,99,80.8947,2.03729,-0.00400669,0.00231534,-0.000517339,0.00235739,-0.00404874,-1.48968,0.00374131,0.0391255,1875,925,80.8946,-2.0373
658,99,80.8595,2.1886,-0.0023788,0.0015653,-0.000285884,0.00158591,-0.00239941,-1.49881,0.00231685,0.038968,1882,925,80.8595,-2.18857
665,99,80.7915,2.30664,-0.0009259,0.00100226,-0.000243751,0.00103259,-0.000956237,-1.44697,0.00114853,0.0397353,1889,925,80.7915,-2.30664
672,99,80.7321,2.34387,-0.000450012,0.00036474,-0.000252747,0.000436777,-0.000522048,-1.29314,0.000554307,0.0393849,1896,925,80.732,-2.34386
679,99,80.7452,2.30713,-0.000495493,-0.000309673,-0.000257289,-0.000129033,-0.000676133,-0.958667,0.000414494,0.0362111,1903,925,80.7452,-2.30715
686,99,80.734,2.25934,-0.000650538,-0.000767918,-0.000578943,-0.000127318,-0.00129114,-0.734884,0.000821614,0.0314842,1910,925,80.734,-2.25933
693,99,80.7933,2.16364,-0.000894218,-0.000815091,-0.000942392,8.85669e-05,-0.00179788,-0.806377,0.00122917,0.0369973,1917,925,80.7934,-2.16363
700,99,80.8247,2.01062,0,0,0,0,0,0,0,-1,1924,925,80.8247,-2.0106
707,99,47.9915,3.27429,0,0,0,0,0,0,0,-1,1931,925,47.9914,-3.27427
714,99,74.3445,4.07611,0,0,0,0,0,0,0,-1,1938,925,74.3444,-4.07608
721,99,75.1095,4.99304,0,0,0,0,0,0,0,-1,1945,925,75.1094,-4.99304
728,99,75.1455,5.7713,-0.00317626,0.00207873,-0.00292333,0.00338183,-0.00447936,-1.15147,0.00455338,0.0312418,1952,925,75.1455,-5.77131
735,99,75.0643,6.54504,-0.00294034,0.003384,-0.00297762,0.00456528,-0.00412162,-1.19312,0.00501756,0.0253456,1959,925,75.0644,-6.54502
742,99,74.952,7.27576,-0.00219979,0.0054281,-0.00324062,0.00661893,-0.00339063,-1.21864,0.00587836,0.0169013,1966,925,74.952,-7.27575
749,99,74.8663,7.98651,0.000177786,0.00855036,-0.00319629,0.00963107,-0.000902924,-1.24475,0.00674187,0.014754,1973,925,74.8663,-7.98652
756,99,74.783,8.66156,0.00506844,0.0122742,-0.00239035,0.012995,0.0043476,-1.27791,0.00763835,0.0152099,1980,925,74.7831,-8.66154
763,99,74.7654,9.36243,0.0119282,0.0159914,-0.000805552,0.0161453,0.0117743,-1.38205,0.00964261,0.0192209,1987,925,74.7655,-9.36246
770,99,75.0171,10.0554,0.0208468,0.0195246,0.00160797,0.0219243,0.0184471,0.590365,0.0136061,0.0337731,1994,925,75.0171,-10.0554
777,99,75.7061,10.4017,0.0331344,0.0224325,0.00590807,0.0357545,0.0198124,0.41742,0.0206831,0.0430071,2001,925,75.706,-10.4017
784,99,76.6294,10.9568,0.0514368,0.0237988,0.0128467,0.0564858,0.0187498,0.374477,0.0332205,0.0439753,2008,925,76.6294,-10.9569
791,99,77.3945,11.4116,0,0,0,0,0,0,0,-1,2015,925,77.3946,-11.4115
798,99,75.6328,11.8039,0,0,0,0,0,0,0,-1,2022,925,75.6327,-11.8039
805,99,0,0,0,0,0,0,0,0,0,-1,2029,925,0,0
812,99,0,0,0,0,0,0,0,0,0,-1,2036,925,0,0
-700,92,0,0,0,0,0,0,0,0,0,-1,524,932,0,0
-693,92,0,0,0,0,0,0,0,0,0,-1,531,932,0,0
-686,92,-65.1993,-12.1267,0,0,0,0,0,0,0,-1,538,932,-65.1993,12.1267
-679,92,-59.6551,8.78845,0,0,0,0,0,0,0,-1,545,932,-59.655,-8.78845
-672,92,-59.2169,9.25281,0,0,0,0,0,0,0,-1,552,932,-59.2169,-9.25281
-665,92,-58.6809,9.84479,0,0,0,0,0,0,0,-1,559,932,-58.6809,-9.8448
-658,92,-58.4986,10.1044,0,0,0,0,0,0,0,-1,566,932,-58.4986,-10.1044
-651,92,-58.3638,10.0627,0,0,0,0,0,0,0,-1,573,932,-58.3637,-10.0627
-644,92,-59.2082,9.97809,0,0,0,0,0,0,0,-1,580,932,-59.2082,-9.97808
-637,92,-59.2311,9.44153,-0.000773897,0.0102204,0.0121937,0.0180988,-0.00865225,0.997167,0.0157624,0.0336294,587,932,-59.2311,-9.4415
-630,92,-59.3304,8.78766,-0.00456258,0.0156153,0.0105393,0.0201162,-0.00906347,1.16718,0.017245,0.0165887,594,932,-59.3304,-8.78767
-623,92,-59.5071,8.10199,-0.00504644,0.014783,0.00890299,0.0181936,-0.00845706,1.20495,0.0157254,0.0109377,601,932,-59.5072,-8.10197
-616,92,-59.5501,7.4046,-0.00311037,0.00948559,0.00722474,0.0127721,-0.00639683,1.14388,0.0112693,0.0102118,608,932,-59.5501,-7.40463
-609,92,-59.606,6.69409,-0.00182222,0.00538265,0.00577675,0.00858818,-0.00502775,1.0642,0.00795025,0.0095671,615,932,-59.606,-6.6941
-602,92,-59.5972,5.96228,-0.00113328,0.00277397,0.00447633,0.00570442,-0.00406373,0.991156,0.0056661,0.0126682,622,932,-59.5972,-5.96229
-595,92,-59.4814,5.1264,-0.000657445,0.00154492,0.00359731,0.00420582,-0.00331834,0.933926,0.00435414,0.026705,629,932,-59.4814,-5.12638
-588,92,-59.4734,4.42963,-0.00027456,0.000779944,0.00310903,0.00340611,-0.00290073,0.869393,0.00364515,0.0369207,636,932,-59.4734,-4.42962
-581,92,-60.3217,3.67346,0,0,0,0,0,0,0,-1,643,932,-60.3217,-3.67348
-574,92,-61.3358,2.7663,0,0,0,0,0,0,0,-1,650,932,-61.3358,-2.76628
-567,92,-63.8856,0.304504,0,0,0,0,0,0,0,-1,657,932,-63.8856,-0.304512
-560,92,-63.9194,0.229431,-0.00048772,-0.000516146,0.00143371,0.000931851,-0.00193572,0.780442,0.00168907,0.0405247,664,932,-63.9194,-0.229438
-553,92,-64.0294,0.242493,-0.000917867,-0.000293451,0.00118632,0.000621052,-0.00183237,0.914068,0.00147291,0.0392478,671,932,-64.0293,-0.242498
-546,92,-63.9548,-0.00494385,-0.00156117,0.000338311,0.000991716,0.000761709,-0.00198456,1.16729,0.00163712,0.0412581,678,932,-63.9548,0.00496528
-539,92,-63.9459,0.188171,-0.00232155,0.00132271,0.000863436,0.00151694,-0.00251577,1.34954,0.00235197,0.0387977,685,932,-63.9459,-0.188174
-532,92,-63.9856,0.414795,-0.00331717,0.00260391,0.000718816,0.00268993,-0.00340318,1.4517,0.00352588,0.0413311,692,932,-63.9856,-0.414789
-525,92,-64.1133,0.524414,-0.00476175,0.00429858,0.000265101,0.00430633,-0.0047695,1.54157,0.00524221,0.0397222,699,932,-64.1133,-0.524403
-518,92,-64.1016,0.795898,-0.00639696,0.00633541,-0.000442482,0.00635077,-0.00641231,-1.5361,0.0073688,0.041275,706,932,-64.1016,-0.795872
-511,92,0,0,0,0,0,0,0,0,0,-1,713,932,0,0
-504,92,0,0,0,0,0,0,0,0,0,-1,720,932,0,0
-497,92,0,0,0,0,0,0,0,0,0,-1,727,932,0,0
-490,92,0,0,0,0,0,0,0,0,0,-1,734,932,0,0
-483,92,0,0,0,0,0,0,0,0,0,-1,741,932,0,0
-476,92,0,0,0,0,0,0,0,0,0,-1,748,932,0,0
-469,92,0,0,0,0,0,0,0,0,0,-1,755,932,0,0
-462,92,0,0,0,0,0,0,0,0,0,-1,762,932,0,0
-455,92,0,0,0,0,0,0,0,0,0,-1,769,932,0,0
-448,92,0,0,0,0,0,0,0,0,0,-1,776,932,0,0
-441,92,0,0,0,0,0,0,0,0,0,-1,783,932,0,0
-434,92,0,0,0,0,0,0,0,0,0,-1,790,932,0,0
-427,92,0,0,0,0,0,0,0,0,0,-1,797,932,0,0
-420,92,0,0,0,0,0,0,0,0,0,-1,804,932,0,0
-413,92,0,0,0,0,0,0,0,0,0,-1,811,932,0,0
-406,92,0,0,0,0,0,0,0,0,0,-1,818,932,0,0
-399,92,0,0,0,0,0,0,0,0,0,-1,825,932,0,0
-392,92,0,0,0,0,0,0,0,0,0,-1,832,932,0,0
-385,92,0,0,0,0,0,0,0,0,0,-1,839,932,0,0
-378,92,0,0,0,0,0,0,0,0,0,-1,846,932,0,0
-371,92,0,0,0,0,0,0,0,0,0,-1,853,932,0,0
-364,92,0,0,0,0,0,0,0,0,0,-1,860,932,0,0
-357,92,0,0,0,0,0,0,0,0,0,-1,867,932,0,0
-350,92,0,0,0,0,0,0,0,0,0,-1,874,932,0,0
-343,92,0,0,0,0,0,0,0,0,0,-1,881,932,0,0
-336,92,0,0,0,0,0,0,0,0,0,-1,888,932,0,0
-329,92,0,0,0,0,0,0,0,0,0,-1,895,932,0,0
-322,92,0,0,0,0,0,0,0,0,0,-1,902,932,0,0
-315,92,0,0,0,0,0,0,0,0,0,-1,909,932,0,0
-308,92,0,0,0,0,0,0,0,0,0,-1,916,932,0,0
-301,92,0,0,0,0,0,0,0,0,0,-1,923,932,0,0
-294,92,0,0,0,0,0,0,0,0,0,-1,930,932,0,0
-287,92,0,0,0,0,0,0,0,0,0,-1,937,932,0,0
-280,92,0,0,0,0,0,0,0,0,0,-1,944,932,0,0
-273,92,0,0,0,0,0,0,0,0,0,-1,951,932,0,0
-266,92,0,0,0,0,0,0,0,0,0,-1,958,932,0,0
-259,92,0,0,0,0,0,0,0,0,0,-1,965,932,0,0
-252,92,0,0,0,0,0,0,0,0,0,-1,972,932,0,0
-245,92,0,0,0,0,0,0,0,0,0,-1,979,932,0,0
-238,92,0,0,0,0,0,0,0,0,0,-1,986,932,0,0
-231,92,0,0,0,0,0,0,0,0,0,-1,993,932,0,0
-224,92,0,0,0,0,0,0,0,0,0,-1,1000,932,0,0
-217,92,0,0,0,0,0,0,0,0,0,-1,1007,932,0,0
-210,92,0,0,0,0,0,0,0,0,0,-1,1014,932,0,0
-203,92,0,0,0,0,0,0,0,0,0,-1,1021,932,0,0
-196,92,0,0,0,0,0,0,0,0,0,-1,1028,932,0,0
-189,92,0,0,0,0,0,0,0,0,0,-1,1035,932,0,0
-182,92,0,0,0,0,0,0,0,0,0,-1,1042,932,0,0
-175,92,0,0,0,0,0,0,0,0,0,-1,1049,932,0,0
-168,92,0,0,0,0,0,0,0,0,0,-1,1056,932,0,0
-161,92,0,0,0,0,0,0,0,0,0,-1,1063,932,0,0
-154,92,0,0,0,0,0,0,0,0,0,-1,1070,932,0,0
-147,92,0,0,0,0,0,0,0,0,0,-1,1077,932,0,0
-140,92,0,0,0,0,0,0,0,0,0,-1,1084,932,0,0
-133,92,0,0,0,0,0,0,0,0,0,-1,1091,932,0,0
-126,92,0,0,0,0,0,0,0,0,0,-1,1098,932,0,0
-119,92,0,0,0,0,0,0,0,0,0,-1,1105,932,0,0
-112,92,0,0,0,0,0,0,0,0,0,-1,1112,932,0,0
-105,92,0,0,0,0,0,0,0,0,0,-1,1119,932,0,0
-98,92,0,0,0,0,0,0,0,0,0,-1,1126,932,0,0
-91,92,0,0,0,0,0,0,0,0,0,-1,1133,932,0,0
-84,92,0,0,0,0,0,0,0,0,0,-1,1140,932,0,0
-77,92,0,0,0,0,0,0,0,0,0,-1,1147,932,0,0
-70,92,0,0,0,0,0,0,0,0,0,-1,1154,932,0,0
-63,92,0,0,0,0,0,0,0,0,0,-1,1161,932,0,0
-56,92,0,0,0,0,0,0,0,0,0,-1,1168,932,0,0
-49,92,0,0,0,0,0,0,0,0,0,-1,1175,932,0,0
-42,92,0,0,0,0,0,0,0,0,0,-1,1182,932,0,0
-35,92,0,0,0,0,0,0,0,0,0,-1,1189,932,0,0
-28,92,0,0,0,0,0,0,0,0,0,-1,1196,932,0,0
-21,92,0,0,0,0,0,0,0,0,0,-1,1203,932,0,0
-14,92,0,0,0,0,0,0,0,0,0,-1,1210,932,0,0
-7,92,0,0,0,0,0,0,0,0,0,-1,1217,932,0,0
0,92,0,0,0,0,0,0,0,0,0,-1,1224,932,0,0
7,92,0,0,0,0,0,0,0,0,0,-1,1231,932,0,0
14,92,0,0,0,0,0,0,0,0,0,-1,1238,932,0,0
21,92,0,0,0,0,0,0,0,0,0,-1,1245,932,0,0
28,92,0,0,0,0,0,0,0,0,0,-1,1252,932,0,0
35,92,0,0,0,0,0,0,0,0,0,-1,1259,932,0,0
42,92,0,0,0,0,0,0,0,0,0,-1,1266,932,0,0
49,92,0,0,0,0,0,0,0,0,0,-1,1273,932,0,0
56,92,0,0,0,0,0,0,0,0,0,-1,1280,932,0,0
63,92,0,0,0,0,0,0,0,0,0,-1,1287,932,0,0
70,92,0,0,0,0,0,0,0,0,0,-1,1294,932,0,0
77,92,0,0,0,0,0,0,0,0,0,-1,1301,932,0,0
84,92,0,0,0,0,0,0,0,0,0,-1,1308,932,0,0
91,92,0,0,0,0,0,0,0,0,0,-1,1315,932,0,0
98,92,0,0,0,0,0,0,0,0,0,-1,1322,932,0,0
105,92,0,0,0,0,0,0,0,0,0,-1,1329,932,0,0
112,92,0,0,0,0,0,0,0,0,0,-1,1336,932,0,0
119,92,0,0,0,0,0,0,0,0,0,-1,1343,932,0,0
126,92,0,0,0,0,0,0,0,0,0,-1,1350,932,0,0
133,92,0,0,0,0,0,0,0,0,0,-1,1357,932,0,0
140,92,0,0,0,0,0,0,0,0,0,-1,1364,932,0,0
147,92,0,0,0,0,0,0,0,0,0,-1,1371,932,0,0
154,92,0,0,0,0,0,0,0,0,0,-1,1378,932,0,0
161,92,0,0,0,0,0,0,0,0,0,-1,1385,932,0,0
168,92,0,0,0,0,0,0,0,0,0,-1,1392,932,0,0
175,92,0,0,0,0,0,0,0,0,0,-1,1399,932,0,0
182,92,0,0,0,0,0,0,0,0,0,-1,1406,932,0,0
189,92,0,0,0,0,0,0,0,0,0,-1,1413,932,0,0
196,92,0,0,0,0,0,0,0,0,0,-1,1420,932,0,0
203,92,0,0,0,0,0,0,0,0,0,-1,1427,932,0,0
210,92,0,0,0,0,0,0,0,0,0,-1,1434,932,0,0
217,92,0,0,0,0,0,0,0,0,0,-1,1441,932,0,0
224,92,0,0,0,0,0,0,0,0,0,-1,1448,932,0,0
231,92,0,0,0,0,0,0,0,0,0,-1,1455,932,0,0
238,92,0,0,0,0,0,0,0,0,0,-1,1462,932,0,0
245,92,0,0,0,0,0,0,0,0,0,-1,1469,932,0,0
252,92,0,0,0,0,0,0,0,0,0,-1,1476,932,0,0
259,92,0,0,0,0,0,0,0,0,0,-1,1483,932,0,0
266,92,0,0,0,0,0,0,0,0,0,-1,1490,932,0,0
273,92,0,0,0,0,0,0,0,0,0,-1,1497,932,0,0
280,92,0,0,0,0,0,0,0,0,0,-1,1504,932,0,0
287,92,0,0,0,0,0,0,0,0,0,-1,1511,932,0,0
294,92,0,0,0,0,0,0,0,0,0,-1,1518,932,0,0
301,92,0,0,0,0,0,0,0,0,0,-1,1525,932,0,0
308,92,0,0,0,0,0,0,0,0,0,-1,1532,932,0,0
315,92,0,0,0,0,0,0,0,0,0,-1,1539,932,0,0
322,92,0,0,0,0,0,0,0,0,0,-1,1546,932,0,0
329,92,0,0,0,0,0,0,0,0,0,-1,1553,932,0,0
336,92,0,0,0,0,0,0,0,0,0,-1,1560,932,0,0
343,92,0,0,0,0,0,0,0,0,0,-1,1567,932,0,0
350,92,0,0,0,0,0,0,0,0,0,-1,1574,932,0,0
357,92,0,0,0,0,0,0,0,0,0,-1,1581,932,0,0
364,92,0,0,0,0,0,0,0,0,0,-1,1588,932,0,0
371,92,0,0,0,0,0,0,0,0,0,-1,1595,932,0,0
378,92,0,0,0,0,0,0,0,0,0,-1,1602,932,0,0
385,92,0,0,0,0,0,0,0,0,0,-1,1609,932,0,0
392,92,0,0,0,0,0,0,0,0,0,-1,1616,932,0,0
399,92,0,0,0,0,0,0,0,0,0,-1,1623,932,0,0
406,92,0,0,0,0,0,0,0,0,0,-1,1630,932,0,0
413,92,0,0,0,0,0,0,0,0,0,-1,1637,932,0,0
420,92,0,0,0,0,0,0,0,0,0,-1,1644,932,0,0
427,92,0,0,0,0,0,0,0,0,0,-1,1651,932,0,0
434,92,0,0,0,0,0,0,0,0,0,-1,1658,932,0,0
441,92,0,0,0,0,0,0,0,0,0,-1,1665,932,0,0
448,92,0,0,0,0,0,0,0,0,0,-1,1672,932,0,0
455,92,0,0,0,0,0,0,0,0,0,-1,1679,932,0,0
462,92,0,0,0,0,0,0,0,0,0,-1,1686,932,0,0
469,92,0,0,0,0,0,0,0,0,0,-1,1693,932,0,0
476,92,0,0,0,0,0,0,0,0,0,-1,1700,932,0,0
483,92,0,0,0,0,0,0,0,0,0,-1,1707,932,0,0
490,92,0,0,0,0,0,0,0,0,0,-1,1714,932,0,0
497,92,0,0,0,0,0,0,0,0,0,-1,1721,932,0,0
504,92,0,0,0,0,0,0,0,0,0,-1,1728,932,0,0
511,92,0,0,0,0,0,0,0,0,0,-1,1735,932,0,0
518,92,0,0,0,0,0,0,0,0,0,-1,1742,932,0,0
525,92,0,0,0,0,0,0,0,0,0,-1,1749,932,0,0
532,92,0,0,0,0,0,0,0,0,0,-1,1756,932,0,0
539,92,0,0,0,0,0,0,0,0,0,-1,1763,932,0,0
546,92,0,0,0,0,0,0,0,0,0,-1,1770,932,0,0
553,92,0,0,0,0,0,0,0,0,0,-1,1777,932,0,0
560,92,0,0,0,0,0,0,0,0,0,-1,1784,932,0,0
567,92,0,0,0,0,0,0,0,0,0,-1,1791,932,0,0
574,92,0,0,0,0,0,0,0,0,0,-1,1798,932,0,0
581,92,0,0,0,0,0,0,0,0,0,-1,1805,932,0,0
588,92,0,0,0,0,0,0,0,0,0,-1,1812,932,0,0
595,92,0,0,0,0,0,0,0,0,0,-1,1819,932,0,0
602,92,0,0,0,0,0,0,0,0,0,-1,1826,932,0,0
609,92,0,0,0,0,0,0,0,0,0,-1,1833,932,0,0
616,92,0,0,0,0,0,0,0,0,0,-1,1840,932,0,0
623,92,0,0,0,0,0,0,0,0,0,-1,1847,932,0,0
630,92,0,0,0,0,0,0,0,0,0,-1,1854,932,0,0
637,92,81.0112,2.24628,-0.00855661,0.00324587,-0.00225934,0.00366359,-0.00897433,-1.38797,0.00750818,0.0462135,1861,932,81.0113,-2.24627
644,92,80.8447,2.06165,-0.00641243,0.00255895,-0.00140728,0.00277452,-0.006628,-1.4188,0.00557845,0.0422908,1868,932,80.8448,-2.06165
651,92,80.8186,2.02319,-0.00449656,0.00183637,-0.000840236,0.00194595,-0.00460615,-1.44111,0.00388539,0.0406586,1875,932,80.8186,-2.0232
658,92,80.7416,2.12476,-0.00278273,0.00125625,-0.000484034,0.00131345,-0.00283992,-1.45317,0.00245134,0.0417127,1882,932,80.7416,-2.12476
665,92,80.7415,2.12939,-0.0011993,0.000806311,-0.000351804,0.000866231,-0.00125922,-1.40209,0.0012341,0.0396865,1889,932,80.7415,-2.12941
672,92,80.7825,2.14484,-0.000562045,0.000226372,-0.000274367,0.000312453,-0.000648125,-1.26678,0.000565765,0.0386396,1896,932,80.7825,-2.14483
679,92,80.7859,2.19873,-0.000516116,-0.000481958,-0.000203419,-0.000294902,-0.000703172,-0.82728,0.000407732,0.0362704,1903,932,80.7859,-2.19875
686,92,80.7135,2.14832,-0.000588487,-0.000995633,-0.000497894,-0.000254156,-0.00132996,-0.591335,0.000815239,0.0305674,1910,932,80.7135,-2.14833
693,92,80.7728,2.29413,-0.000794354,-0.00108968,-0.000825497,-0.000103416,-0.00178062,-0.696896,0.00115415,0.0282315,1917,932,80.7729,-2.2941
700,92,80.7283,2.27777,0,0,0,0,0,0,0,-1,1924,932,80.7283,-2.27776
707,92,32.9893,3.26874,0,0,0,0,0,0,0,-1,1931,932,32.9893,-3.26874
714,92,76.2889,4.45471,0,0,0,0,0,0,0,-1,1938,932,76.2889,-4.45471
721,92,76.0817,5.25879,-0.00313484,0.00104135,-0.00259618,0.00228496,-0.00437846,-1.12408,0.00390991,0.0388824,1945,932,76.0816,-5.25877
728,92,75.8434,5.95728,-0.00339828,0.00208505,-0.00284667,0.00329563,-0.00460887,-1.1687,0.00458461,0.0306068,1952,932,75.8434,-5.95729
735,92,75.7898,6.60321,-0.00314944,0.00345707,-0.0029044,0.00455234,-0.00424472,-1.21018,0.00508002,0.024076,1959,932,75.7898,-6.60319
742,92,75.7926,7.2912,-0.00265988,0.00554224,-0.00321495,0.00665219,-0.00376982,-1.23836,0.00609338,0.0239737,1966,932,75.7926,-7.2912
749,92,75.6743,7.98151,-0.000764499,0.00885171,-0.00342635,0.00994765,-0.00186044,-1.26122,0.00733103,0.0212222,1973,932,75.6744,-7.98151
756,92,75.5503,8.61536,0.00352645,0.0130771,-0.00311773,0.0140048,0.0025988,-1.2816,0.00860212,0.0164096,1980,932,75.5502,-8.61535
763,92,75.5417,9.27142,0.00988373,0.0175493,-0.00214665,0.0181095,0.00932353,-1.31552,0.0104571,0.018455,1987,932,75.5417,-9.27142
770,92,75.5386,9.86377,0.0180182,0.021999,-0.0006472,0.0221016,0.0179157,-1.41361,0.0135562,0.0277569,1994,932,75.5385,-9.86377
777,92,75.8911,10.2762,0.0287407,0.0263854,0.0019926,0.0298776,0.0252485,0.518508,0.0185687,0.0450908,2001,932,75.891,-10.2763
784,92,76.4036,10.9368,0.0444236,0.0302563,0.00619732,0.0467519,0.027928,0.35938,0.0271623,0.0494281,2008,932,76.4037,-10.9368
791,92,76.9316,11.757,0,0,0,0,0,0,0,-1,2015,932,76.9316,-11.757
798,92,76.1191,12.6068,0,0,0,0,0,0,0,-1,2022,932,76.119,-12.6067
805,92,0,0,0,0,0,0,0,0,0,-1,2029,932,0,0
812,92,0,0,0,0,0,0,0,0,0,-1,2036,932,0,0
-700,85,0,0,0,0,0,0,0,0,0,-1,524,939,0,0
-693,85,0,0,0,0,0,0,0,0,0,-1,531,939,0,0
-686,85,-65.2188,-11.0956,0,0,0,0,0,0,0,-1,538,939,-65.2188,11.0956
-679,85,-64.4731,-11.0507,0,0,0,0,0,0,0,-1,545,939,-64.4731,11.0507
-672,85,-58.9819,8.30292,0,0,0,0,0,0,0,-1,552,939,-58.9819,-8.30292
-665,85,-58.5912,8.72552,0,0,0,0,0,0,0,-1,559,939,-58.5912,-8.7255
-658,85,-58.3745,8.90198,0,0,0,0,0,0,0,-1,566,939,-58.3745,-8.90199
-651,85,-58.5191,9.10278,0,0,0,0,0,0,0,-1,573,939,-58.5191,-9.1028
-644,85,-61.2692,9.68933,0,0,0,0,0,0,0,-1,580,939,-61.2692,-9.68933
-637,85,-60.5728,9.20844,0.00126315,0.00407028,0.0121536,0.0149011,-0.00956767,0.842886,0.0142385,0.0388493,587,939,-60.5728,-9.20843
-630,85,-60.1776,8.6825,-0.00268412,0.0124708,0.0103006,0.0176808,-0.00789415,1.10252,0.0151218,0.0167609,594,939,-60.1776,-8.68252
-623,85,-60.2879,8.02277,-0.00361842,0.0137986,0.0086879,0.0173912,-0.00721104,1.17869,0.0146038,0.0102904,601,939,-60.2879,-8.02279
-616,85,-60.3214,7.36469,-0.00196743,0.00932979,0.0072095,0.01284,-0.00547762,1.1177,0.0108567,0.0103708,608,939,-60.3214,-7.36466
-609,85,-60.3848,6.69812,-0.000868939,0.00551073,0.00595253,0.00907424,-0.00443245,1.03137,0.00795011,0.0131126,615,939,-60.3848,-6.6981
-602,85,-60.4155,6.00317,-0.00025668,0.00286494,0.00475918,0.00631271,-0.00370446,0.94385,0.0058484,0.018642,622,939,-60.4155,-6.0032
-595,85,-60.3071,5.276,0.000181526,0.00153167,0.00393274,0.00484686,-0.00313366,0.870397,0.00464281,0.023087,629,939,-60.307,-5.27597
-588,85,-60.2165,4.55615,0.0005306,0.000611498,0.00344552,0.00401681,-0.00287471,0.791268,0.00399699,0.0287077,636,939,-60.2165,-4.55614
-581,85,-60.1682,3.75995,0,0,0,0,0,0,0,-1,643,939,-60.1682,-3.75995
-574,85,-57.1787,1.97198,0,0,0,0,0,0,0,-1,650,939,-57.1787,-1.97196
-567,85,-63.909,0.315125,0,0,0,0,0,0,0,-1,657,939,-63.909,-0.315104
-560,85,-63.9529,0.253662,0.000106498,-0.000553763,0.00147764,0.00129044,-0.0017377,0.675494,0.00175464,0.0366735,664,939,-63.9529,-0.253692
-553,85,-63.9976,0.174683,-0.000350259,-0.000104894,0.00116571,0.000944569,-0.00139972,0.837827,0.00136195,0.041907,671,939,-63.9976,-0.17469
-546,85,-63.9603,0.249084,-0.000951331,0.000771746,0.000901638,0.00115728,-0.00133687,1.16673,0.00144124,0.0394236,678,939,-63.9603,-0.249087
-539,85,-63.9242,0.418701,-0.00166164,0.00203489,0.000659925,0.00214917,-0.00177592,1.39933,0.00226956,0.0351283,685,939,-63.9242,-0.418689
-532,85,-63.9531,0.509705,-0.00250547,0.00368274,0.000365363,0.00370424,-0.00252697,1.51203,0.00361893,0.0370859,692,939,-63.9531,-0.509705
-525,85,-64.0417,0.488281,-0.00355866,0.00577961,-0.0001915,0.00578354,-0.00356259,-1.5503,0.00544654,0.0374068,699,939,-64.0417,-0.488256
-518,85,-63.8981,0.595398,-0.00486095,0.00833802,-0.00102261,0.00841678,-0.00493971,-1.49393,0.00779799,0.0370625,706,939,-63.8981,-0.595388
-511,85,0,0,0,0,0,0,0,0,0,-1,713,939,0,0
-504,85,0,0,0,0,0,0,0,0,0,-1,720,939,0,0
-497,85,0,0,0,0,0,0,0,0,0,-1,727,939,0,0
-490,85,0,0,0,0,0,0,0,0,0,-1,734,939,0,0
-483,85,0,0,0,0,0,0,0,0,0,-1,741,939,0,0
-476,85,0,0,0,0,0,0,0,0,0,-1,748,939,0,0
-469,85,0,0,0,0,0,0,0,0,0,-1,755,939,0,0
-462,85,0,0,0,0,0,0,0,0,0,-1,762,939,0,0
-455,85,0,0,0,0,0,0,0,0,0,-1,769,939,0,0
-448,85,0,0,0,0,0,0,0,0,0,-1,776,939,0,0
-441,85,0,0,0,0,0,0,0,0,0,-1,783,939,0,0
-434,85,0,0,0,0,0,0,0,0,0,-1,790,939,0,0
-427,85,0,0,0,0,0,0,0,0,0,-1,797,939,0,0
-420,85,0,0,0,0,0,0,0,0,0,-1,804,939,0,0
-413,85,0,0,0,0,0,0,0,0,0,-1,811,939,0,0
-406,85,0,0,0,0,0,0,0,0,0,-1,818,939,0,0
-399,85,0,0,0,0,0,0,0,0,0,-1,825,939,0,0
-392,85,0,0,0,0,0,0,0,0,0,-1,832,939,0,0
-385,85,0,0,0,0,0,0,0,0,0,-1,839,939,0,0
-378,85,0,0,0,0,0,0,0,0,0,-1,846,939,0,0
-371,85,0,0,0,0,0,0,0,0,0,-1,853,939,0,0
-364,85,0,0,0,0,0,0,0,0,0,-1,860,939,0,0
-357,85,0,0,0,0,0,0,0,0,0,-1,867,939,0,0
-350,85,0,0,0,0,0,0,0,0,0,-1,874,939,0,0
-343,85,0,0,0,0,0,0,0,0,0,-1,881,939,0,0
-336,85,0,0,0,0,0,0,0,0,0,-1,888,939,0,0
-329,85,0,0,0,0,0,0,0,0,0,-1,895,939,0,0
-322,85,0,0,0,0,0,0,0,0,0,-1,902,939,0,0
-315,85,0,0,0,0,0,0,0,0,0,-1,909,939,0,0
-308,85,0,0,0,0,0,0,0,0,0,-1,916,939,0,0
-301,85,0,0,0,0,0,0,0,0,0,-1,923,939,0,0
-294,85,0,0,0,0,0,0,0,0,0,-1,930,939,0,0
-287,85,0,0,0,0,0,0,0,0,0,-1,937,939,0,0
-280,85,0,0,0,0,0,0,0,0,0,-1,944,939,0,0
-273,85,0,0,0,0,0,0,0,0,0,-1,951,939,0,0
-266,85,0,0,0,0,0,0,0,0,0,-1,958,939,0,0
-259,85,0,0,0,0,0,0,0,0,0,-1,965,939,0,0
-252,85,0,0,0,0,0,0,0,0,0,-1,972,939,0,0
-245,85,0,0,0,0,0,0,0,0,0,-1,979,939,0,0
-238,85,0,0,0,0,0,0,0,0,0,-1,986,939,0,0
-231,85,0,0,0,0,0,0,0,0,0,-1,993,939,0,0
-224,85,0,0,0,0,0,0,0,0,0,-1,1000,939,0,0
-217,85,0,0,0,0,0,0,0,0,0,-1,1007,939,0,0
-210,85,0,0,0,0,0,0,0,0,0,-1,1014,939,0,0
-203,85,0,0,0,0,0,0,0,0,0,-1,1021,939,0,0
-196,85,0,0,0,0,0,0,0,0,0,-1,1028,939,0,0
-189,85,0,0,0,0,0,0,0,0,0,-1,1035,939,0,0
-182,85,0,0,0,0,0,0,0,0,0,-1,1042,939,0,0
-175,85,0,0,0,0,0,0,0,0,0,-1,1049,939,0,0
-168,85,0,0,0,0,0,0,0,0,0,-1,1056,939,0,0
-161,85,0,0,0,0,0,0,0,0,0,-1,1063,939,0,0
-154,85,0,0,0,0,0,0,0,0,0,-1,1070,939,0,0
-147,85,0,0,0,0,0,0,0,0,0,-1,1077,939,0,0
-140,85,0,0,0,0,0,0,0,0,0,-1,1084,939,0,0
-133,85,0,0,0,0,0,0,0,0,0,-1,1091,939,0,0
-126,85,0,0,0,0,0,0,0,0,0,-1,1098,939,0,0
-119,85,0,0,0,0,0,0,0,0,0,-1,1105,939,0,0
-112,85,0,0,0,0,0,0,0,0,0,-1,1112,939,0,0
-105,85,0,0,0,0,0,0,0,0,0,-1,1119,939,0,0
-98,85,0,0,0,0,0,0,0,0,0,-1,1126,939,0,0
-91,85,0,0,0,0,0,0,0,0,0,-1,1133,939,0,0
-84,85,0,0,0,0,0,0,0,0,0,-1,1140,939,0,0
-77,85,0,0,0,0,0,0,0,0,0,-1,1147,939,0,0
-70,85,0,0,0,0,0,0,0,0,0,-1,1154,939,0,0
-63,85,0,0,0,0,0,0,0,0,0,-1,1161,939,0,0
-56,85,0,0,0,0,0,0,0,0,0,-1,1168,939,0,0
-49,85,0,0,0,0,0,0,0,0,0,-1,1175,939,0,0
-42,85,0,0,0,0,0,0,0,0,0,-1,1182,939,0,0
-35,85,0,0,0,0,0,0,0,0,0,-1,1189,939,0,0
-28,85,0,0,0,0,0,0,0,0,0,-1,1196,939,0,0
-21,85,0,0,0,0,0,0,0,0,0,-1,1203,939,0,0
-14,85,0,0,0,0,0,0,0,0,0,-1,1210,939,0,0
-7,85,0,0,0,0,0,0,0,0,0,-1,1217,939,0,0
0,85,0,0,0,0,0,0,0,0,0,-1,1224,939,0,0
7,85,0,0,0,0,0,0,0,0,0,-1,1231,939,0,0
14,85,0,0,0,0,0,0,0,0,0,-1,1238,939,0,0
21,85,0,0,0,0,0,0,0,0,0,-1,1245,939,0,0
28,85,0,0,0,0,0,0,0,0,0,-1,1252,939,0,0
35,85,0,0,0,0,0,0,0,0,0,-1,1259,939,0,0
42,85,0,0,0,0,0,0,0,0,0,-1,1266,939,0,0
49,85,0,0,0,0,0,0,0,0,0,-1,1273,939,0,0
56,85,0,0,0,0,0,0,0,0,0,-1,1280,939,0,0
63,85,0,0,0,0,0,0,0,0,0,-1,1287,939,0,0
70,85,0,0,0,0,0,0,0,0,0,-1,1294,939,0,0
77,85,0,0,0,0,0,0,0,0,0,-1,1301,939,0,0
84,85,0,0,0,0,0,0,0,0,0,-1,1308,939,0,0
91,85,0,0,0,0,0,0,0,0,0,-1,1315,939,0,0
98,85,0,0,0,0,0,0,0,0,0,-1,1322,939,0,0
105,85,0,0,0,0,0,0,0,0,0,-1,1329,939,0,0
112,85,0,0,0,0,0,0,0,0,0,-1,1336,939,0,0
119,85,0,0,0,0,0,0,0,0,0,-1,1343,939,0,0
126,85,0,0,0,0,0,0,0,0,0,-1,1350,939,0,0
133,85,0,0,0,0,0,0,0,0,0,-1,1357,939,0,0
140,85,0,0,0,0,0,0,0,0,0,-1,1364,939,0,0
147,85,0,0,0,0,0,0,0,0,0,-1,1371,939,0,0
154,85,0,0,0,0,0,0,0,0,0,-1,1378,939,0,0
161,85,0,0,0,0,0,0,0,0,0,-1,1385,939,0,0
168,85,0,0,0,0,0,0,0,0,0,-1,1392,939,0,0
175,85,0,0,0,0,0,0,0,0,0,-1,1399,939,0,0
182,85,0,0,0,0,0,0,0,0,0,-1,1406,939,0,0
189,85,0,0,0,0,0,0,0,0,0,-1,1413,939,0,0
196,85,0,0,0,0,0,0,0,0,0,-1,1420,939,0,0
203,85,0,0,0,0,0,0,0,0,0,-1,1427,939,0,0
210,85,0,0,0,0,0,0,0,0,0,-1,1434,939,0,0
217,85,0,0,0,0,0,0,0,0,0,-1,1441,939,0,0
224,85,0,0,0,0,0,0,0,0,0,-1,1448,939,0,0
231,85,0,0,0,0,0,0,0,0,0,-1,1455,939,0,0
238,85,0,0,0,0,0,0,0,0,0,-1,1462,939,0,0
245,85,0,0,0,0,0,0,0,0,0,-1,1469,939,0,0
252,85,0,0,0,0,0,0,0,0,0,-1,1476,939,0,0
259,85,0,0,0,0,0,0,0,0,0,-1,1483,939,0,0
266,85,0,0,0,0,0,0,0,0,0,-1,1490,939,0,0
273,85,0,0,0,0,0,0,0,0,0,-1,1497,939,0,0
280,85,0,0,0,0,0,0,0,0,0,-1,1504,939,0,0
287,85,0,0,0,0,0,0,0,0,0,-1,1511,939,0,0
294,85,0,0,0,0,0,0,0,0,0,-1,1518,939,0,0
301,85,0,0,0,0,0,0,0,0,0,-1,1525,939,0,0
308,85,0,0,0,0,0,0,0,0,0,-1,1532,939,0,0
315,85,0,0,0,0,0,0,0,0,0,-1,1539,939,0,0
322,85,0,0,0,0,0,0,0,0,0,-1,1546,939,0,0
329,85,0,0,0,0,0,0,0,0,0,-1,1553,939,0,0
336,85,0,0,0,0,0,0,0,0,0,-1,1560,939,0,0
343,85,0,0,0,0,0,0,0,0,0,-1,1567,939,0,0
350,85,0,0,0,0,0,0,0,0,0,-1,1574,939,0,0
357,85,0,0,0,0,0,0,0,0,0,-1,1581,939,0,0
364,85,0,0,0,0,0,0,0,0,0,-1,1588,939,0,0
371,85,0,0,0,0,0,0,0,0,0,-1,1595,939,0,0
378,85,0,0,0,0,0,0,0,0,0,-1,1602,939,0,0
385,85,0,0,0,0,0,0,0,0,0,-1,1609,939,0,0
392,85,0,0,0,0,0,0,0,0,0,-1,1616,939,0,0
399,85,0,0,0,0,0,0,0,0,0,-1,1623,939,0,0
406,85,0,0,0,0,0,0,0,0,0,-1,1630,939,0,0
413,85,0,0,0,0,0,0,0,0,0,-1,1637,939,0,0
420,85,0,0,0,0,0,0,0,0,0,-1,1644,939,0,0
427,85,0,0,0,0,0,0,0,0,0,-1,1651,939,0,0
434,85,0,0,0,0,0,0,0,0,0,-1,1658,939,0,0
441,85,0,0,0,0,0,0,0,0,0,-1,1665,939,0,0
448,85,0,0,0,0,0,0,0,0,0,-1,1672,939,0,0
455,85,0,0,0,0,0,0,0,0,0,-1,1679,939,0,0
462,85,0,0,0,0,0,0,0,0,0,-1,1686,939,0,0
469,85,0,0,0,0,0,0,0,0,0,-1,1693,939,0,0
476,85,0,0,0,0,0,0,0,0,0,-1,1700,939,0,0
483,85,0,0,0,0,0,0,0,0,0,-1,1707,939,0,0
490,85,0,0,0,0,0,0,0,0,0,-1,1714,939,0,0
497,85,0,0,0,0,0,0,0,0,0,-1,1721,939,0,0
504,85,0,0,0,0,0,0,0,0,0,-1,1728,939,0,0
511,85,0,0,0,0,0,0,0,0,0,-1,1735,939,0,0
518,85,0,0,0,0,0,0,0,0,0,-1,1742,939,0,0
525,85,0,0,0,0,0,0,0,0,0,-1,1749,939,0,0
532,85,0,0,0,0,0,0,0,0,0,-1,1756,939,0,0
539,85,0,0,0,0,0,0,0,0,0,-1,1763,939,0,0
546,85,0,0,0,0,0,0,0,0,0,-1,1770,939,0,0
553,85,0,0,0,0,0,0,0,0,0,-1,1777,939,0,0
560,85,0,0,0,0,0,0,0,0,0,-1,1784,939,0,0
567,85,0,0,0,0,0,0,0,0,0,-1,1791,939,0,0
574,85,0,0,0,0,0,0,0,0,0,-1,1798,939,0,0
581,85,0,0,0,0,0,0,0,0,0,-1,1805,939,0,0
588,85,0,0,0,0,0,0,0,0,0,-1,1812,939,0,0
595,85,0,0,0,0,0,0,0,0,0,-1,1819,939,0,0
602,85,0,0,0,0,0,0,0,0,0,-1,1826,939,0,0
609,85,0,0,0,0,0,0,0,0,0,-1,1833,939,0,0
616,85,0,0,0,0,0,0,0,0,0,-1,1840,939,0,0
623,85,0,0,0,0,0,0,0,0,0,-1,1847,939,0,0
630,85,0,0,0,0,0,0,0,0,0,-1,1854,939,0,0
637,85,80.9601,2.28149,-0.00929822,0.00275513,-0.00252789,0.00326382,-0.00980691,-1.37222,0.00785525,0.0490143,1861,939,80.9601,-2.28147
644,85,80.8049,1.9707,-0.00691331,0.00201593,-0.00156223,0.00228136,-0.00717874,-1.4025,0.00570053,0.0445813,1868,939,80.8049,-1.97072
651,85,80.7789,1.77899,-0.00487124,0.00128536,-0.000915838,0.00141871,-0.00500459,-1.42621,0.00389636,0.0423137,1875,939,80.7789,-1.779
658,85,80.7137,1.92151,-0.00310051,0.000760653,-0.000499448,0.000824211,-0.00316407,-1.44422,0.00243114,0.0420701,1882,939,80.7137,-1.92153
665,85,80.6882,1.94891,-0.0014935,0.000345535,-0.000313315,0.000397448,-0.00154541,-1.4066,0.00118518,0.0397405,1889,939,80.6882,-1.94894
672,85,80.8578,2.13092,-0.00081165,-0.000214605,-0.000179731,-0.000164675,-0.00086158,-1.29983,0.000528123,0.0379979,1896,939,80.8578,-2.13089
679,85,80.8406,2.12256,-0.000720045,-0.000954658,-5.13715e-05,-0.00070929,-0.000965414,-0.206384,0.000577488,0.0374528,1903,939,80.8406,-2.12257
686,85,80.7004,2.08411,-0.000737309,-0.00152016,-0.000307756,-0.000630811,-0.00162666,-0.333149,0.000947001,0.0341365,1910,939,80.7004,-2.08413
693,85,80.7211,2.23572,-0.000929914,-0.00165713,-0.000585804,-0.000604047,-0.001983,-0.507647,0.00117366,0.030928,1917,939,80.7211,-2.23573
700,85,80.77,2.20435,-0.00150283,-0.00150203,-0.000871492,-0.000630937,-0.00237392,-0.785629,0.00141983,0.0436241,1924,939,80.7701,-2.20433
707,85,80.9248,2.09778,0,0,0,0,0,0,0,-1,1931,939,80.9249,-2.09779
714,85,77.1993,4.5705,0,0,0,0,0,0,0,-1,1938,939,77.1993,-4.57052
721,85,76.8351,5.34802,-0.00358159,0.000692105,-0.00239935,0.0017682,-0.00465768,-1.1492,0.00383297,0.0358939,1945,939,76.8351,-5.34803
728,85,76.5118,6.20105,-0.00381695,0.00187953,-0.0026757,0.00293921,-0.00487662,-1.19371,0.00455845,0.0419985,1952,939,76.5118,-6.20103
735,85,76.5153,6.73846,-0.00351558,0.00339146,-0.00278467,0.00437429,-0.00449841,-1.2315,0.00512283,0.0393941,1959,939,76.5153,-6.73847
742,85,76.5762,7.34424,-0.00317513,0.0055657,-0.00317825,0.00659916,-0.00420859,-1.25642,0.00629053,0.0254806,1966,939,76.5762,-7.34426
749,85,76.4412,7.98346,-0.00162301,0.00911525,-0.00372132,0.0102788,-0.00278655,-1.26776,0.00794595,0.0164338,1973,939,76.4411,-7.98347
756,85,76.2737,8.58051,0.00207002,0.0138982,-0.00405527,0.015155,0.00081322,-1.27027,0.00984347,0.0140305,1980,939,76.2738,-8.58052
763,85,76.2139,9.15967,0.00763534,0.0194361,-0.00402187,0.0206764,0.00639499,-1.27165,0.0122236,0.0141459,1987,939,76.2139,-9.15967
770,85,76.0923,9.71472,0.0146839,0.0251443,-0.00372419,0.0263347,0.0134934,-1.26141,0.0152059,0.020253,1994,939,76.0923,-9.71474
777,85,75.9529,10.2435,0.0233606,0.0313793,-0.00298773,0.0323701,0.0223698,-1.25059,0.0191383,0.0448105,2001,939,75.9529,-10.2434
784,85,75.9165,10.8333,0,0,0,0,0,0,0,-1,2008,939,75.9166,-10.8333
791,85,76.5981,12.6173,0,0,0,0,0,0,0,-1,2015,939,76.5982,-12.6173
798,85,75.4956,11.9659,0,0,0,0,0,0,0,-1,2022,939,75.4955,-11.966
805,85,67.4045,8.44751,0,0,0,0,0,0,0,-1,2029,939,67.4046,-8.4475
812,85,0,0,0,0,0,0,0,0,0,-1,2036,939,0,0
-700,78,0,0,0,0,0,0,0,0,0,-1,524,946,0,0
-693,78,0,0,0,0,0,0,0,0,0,-1,531,946,0,0
-686,78,-65.1783,-10.0879,0,0,0,0,0,0,0,-1,538,946,-65.1784,10.0879
-679,78,-64.4832,-10.0981,0,0,0,0,0,0,0,-1,545,946,-64.4832,10.0982
-672,78,-58.5675,7.63623,0,0,0,0,0,0,0,-1,552,946,-58.5675,-7.63621
-665,78,-58.3835,7.82446,0,0,0,0,0,0,0,-1,559,946,-58.3835,-7.82444
-658,78,-58.2188,7.96997,0,0,0,0,0,0,0,-1,566,946,-58.2188,-7.96998
-651,78,-57.2355,9.40192,0,0,0,0,0,0,0,-1,573,946,-57.2355,-9.40191
-644,78,-62.368,9.99933,0,0,0,0,0,0,0,-1,580,946,-62.368,-9.99935
-637,78,-61.5099,9.30426,0.0023321,-0.00144564,0.0121824,0.0127712,-0.0118847,0.708486,0.0142381,0.038889,587,946,-61.5099,-9.30429
-630,78,-61.0035,8.57367,-0.00157595,0.00917853,0.0101522,0.0152896,-0.00768705,1.02895,0.0135055,0.0227917,594,946,-61.0035,-8.57367
-623,78,-61.0148,7.9516,-0.00281613,0.0125856,0.00848719,0.0163449,-0.00657545,1.15383,0.0136279,0.014022,601,946,-61.0148,-7.95163
-616,78,-61.0517,7.31531,-0.00140816,0.00918495,0.00711459,0.0127581,-0.00498126,1.10537,0.0105648,0.0126194,608,946,-61.0517,-7.31531
-609,78,-61.0724,6.73645,-0.000430797,0.00577168,0.00599558,0.0094206,-0.00407972,1.02408,0.00799514,0.0123969,615,946,-61.0724,-6.73645
-602,78,-61.1113,6.09381,0.00015171,0.00304192,0.00490793,0.00671308,-0.00351945,0.928573,0.0060029,0.0174441,622,946,-61.1113,-6.09383
-595,78,-61.0175,5.37976,0.000572871,0.00154475,0.00414711,0.0052343,-0.00311667,0.84372,0.00487283,0.0178983,629,946,-61.0175,-5.37973
-588,78,-60.9965,4.74249,0.000931397,0.00043737,0.00368172,0.00437438,-0.00300561,0.751902,0.0042852,0.0149967,636,946,-60.9965,-4.74251
-581,78,-60.9426,3.99689,0,0,0,0,0,0,0,-1,643,946,-60.9425,-3.99689
-574,78,-63.8776,0.211121,0,0,0,0,0,0,0,-1,650,946,-63.8775,-0.211113
-567,78,-63.8869,0.296936,0.000825819,-0.000782346,0.00192906,0.00211167,-0.0020682,0.587935,0.00241329,0.0360991,657,946,-63.8869,-0.296955
-560,78,-63.924,0.295715,0.00048024,-0.000547087,0.00149751,0.00154974,-0.00161658,0.62018,0.00182821,0.0331385,664,946,-63.9239,-0.295713
-553,78,-63.9196,0.193665,5.25258e-05,0.000107411,0.00111833,0.00119864,-0.0010387,0.797665,0.00129283,0.041738,671,946,-63.9196,-0.193672
-546,78,-63.8679,0.347107,-0.000442561,0.00123608,0.000775523,0.00153951,-0.000745998,1.19784,0.00134579,0.0395017,678,946,-63.8679,-0.347077
-539,78,-63.7907,0.508911,-0.00104638,0.00277508,0.000436443,0.00282429,-0.00109559,1.45851,0.00233535,0.0346785,685,946,-63.7907,-0.508928
-532,78,-63.8561,0.546631,-0.00166494,0.00476958,7.45354e-05,0.00477045,-0.0016658,1.55921,0.00385738,0.0360896,692,946,-63.8562,-0.546627
-525,78,-63.9728,0.466919,-0.00239594,0.00721755,-0.00048508,0.00724196,-0.00242036,-1.52051,0.00580545,0.0381739,699,946,-63.9728,-0.46691
-518,78,-63.9224,0.266907,-0.00348417,0.0102367,-0.001297,0.0103583,-0.00360569,-1.47737,0.0083704,0.0391529,706,946,-63.9224,-0.266894
-511,78,0,0,0,0,0,0,0,0,0,-1,713,946,0,0
-504,78,0,0,0,0,0,0,0,0,0,-1,720,946,0,0
-497,78,0,0,0,0,0,0,0,0,0,-1,727,946,0,0
-490,78,0,0,0,0,0,0,0,0,0,-1,734,946,0,0
-483,78,0,0,0,0,0,0,0,0,0,-1,741,946,0,0
-476,78,0,0,0,0,0,0,0,0,0,-1,748,946,0,0
-469,78,0,0,0,0,0,0,0,0,0,-1,755,946,0,0
-462,78,0,0,0,0,0,0,0,0,0,-1,762,946,0,0
-455,78,0,0,0,0,0,0,0,0,0,-1,769,946,0,0
-448,78,0,0,0,0,0,0,0,0,0,-1,776,946,0,0
-441,78,0,0,0,0,0,0,0,0,0,-1,783,946,0,0
-434,78,0,0,0,0,0,0,0,0,0,-1,790,946,0,0
-427,78,0,0,0,0,0,0,0,0,0,-1,797,946,0,0
-420,78,0,0,0,0,0,0,0,0,0,-1,804,946,0,0
-413,78,0,0,0,0,0,0,0,0,0,-1,811,946,0,0
-406,78,0,0,0,0,0,0,0,0,0,-1,818,946,0,0
-399,78,0,0,0,0,0,0,0,0,0,-1,825,946,0,0
-392,78,0,0,0,0,0,0,0,0,0,-1,832,946,0,0
-385,78,0,0,0,0,0,0,0,0,0,-1,839,946,0,0
-378,78,0,0,0,0,0,0,0,0,0,-1,846,946,0,0
-371,78,0,0,0,0,0,0,0,0,0,-1,853,946,0,0
-364,78,0,0,0,0,0,0,0,0,0,-1,860,946,0,0
-357,78,0,0,0,0,0,0,0,0,0,-1,867,946,0,0
-350,78,0,0,0,0,0,0,0,0,0,-1,874,946,0,0
-343,78,0,0,0,0,0,0,0,0,0,-1,881,946,0,0
-336,78,0,0,0,0,0,0,0,0,0,-1,888,946,0,0
-329,78,0,0,0,0,0,0,0,0,0,-1,895,946,0,0
-322,78,0,0,0,0,0,0,0,0,0,-1,902,946,0,0
-315,78,0,0,0,0,0,0,0,0,0,-1,909,946,0,0
-308,78,0,0,0,0,0,0,0,0,0,-1,916,946,0,0
-301,78,0,0,0,0,0,0,0,0,0,-1,923,946,0,0
-294,78,0,0,0,0,0,0,0,0,0,-1,930,946,0,0
-287,78,0,0,0,0,0,0,0,0,0,-1,937,946,0,0
-280,78,0,0,0,0,0,0,0,0,0,-1,944,946,0,0
-273,78,0,0,0,0,0,0,0,0,0,-1,951,946,0,0
-266,78,0,0,0,0,0,0,0,0,0,-1,958,946,0,0
-259,78,0,0,0,0,0,0,0,0,0,-1,965,946,0,0
-252,78,0,0,0,0,0,0,0,0,0,-1,972,946,0,0
-245,78,0,0,0,0,0,0,0,0,0,-1,979,946,0,0
-238,78,0,0,0,0,0,0,0,0,0,-1,986,946,0,0
-231,78,0,0,0,0,0,0,0,0,0,-1,993,946,0,0
-224,78,0,0,0,0,0,0,0,0,0,-1,1000,946,0,0
-217,78,0,0,0,0,0,0,0,0,0,-1,1007,946,0,0
-210,78,0,0,0,0,0,0,0,0,0,-1,1014,946,0,0
-203,78,0,0,0,0,0,0,0,0,0,-1,1021,946,0,0
-196,78,0,0,0,0,0,0,0,0,0,-1,1028,946,0,0
-189,78,0,0,0,0,0,0,0,0,0,-1,1035,946,0,0
-182,78,0,0,0,0,0,0,0,0,0,-1,1042,946,0,0
-175,78,0,0,0,0,0,0,0,0,0,-1,1049,946,0,0
-168,78,0,0,0,0,0,0,0,0,0,-1,1056,946,0,0
-161,78,0,0,0,0,0,0,0,0,0,-1,1063,946,0,0
-154,78,0,0,0,0,0,0,0,0,0,-1,1070,946,0,0
-147,78,0,0,0,0,0,0,0,0,0,-1,1077,946,0,0
-140,78,0,0,0,0,0,0,0,0,0,-1,1084,946,0,0
-133,78,0,0,0,0,0,0,0,0,0,-1,1091,946,0,0
-126,78,0,0,0,0,0,0,0,0,0,-1,1098,946,0,0
-119,78,0,0,0,0,0,0,0,0,0,-1,1105,946,0,0
-112,78,0,0,0,0,0,0,0,0,0,-1,1112,946,0,0
-105,78,0,0,0,0,0,0,0,0,0,-1,1119,946,0,0
-98,78,0,0,0,0,0,0,0,0,0,-1,1126,946,0,0
-91,78,0,0,0,0,0,0,0,0,0,-1,1133,946,0,0
-84,78,0,0,0,0,0,0,0,0,0,-1,1140,946,0,0
-77,78,0,0,0,0,0,0,0,0,0,-1,1147,946,0,0
-70,78,0,0,0,0,0,0,0,0,0,-1,1154,946,0,0
-63,78,0,0,0,0,0,0,0,0,0,-1,1161,946,0,0
-56,78,0,0,0,0,0,0,0,0,0,-1,1168,946,0,0
-49,78,0,0,0,0,0,0,0,0,0,-1,1175,946,0,0
-42,78,0,0,0,0,0,0,0,0,0,-1,1182,946,0,0
-35,78,0,0,0,0,0,0,0,0,0,-1,1189,946,0,0
-28,78,0,0,0,0,0,0,0,0,0,-1,1196,946,0,0
-21,78,0,0,0,0,0,0,0,0,0,-1,1203,946,0,0
-14,78,0,0,0,0,0,0,0,0,0,-1,1210,946,0,0
-7,78,0,0,0,0,0,0,0,0,0,-1,1217,946,0,0
0,78,0,0,0,0,0,0,0,0,0,-1,1224,946,0,0
7,78,0,0,0,0,0,0,0,0,0,-1,1231,946,0,0
14,78,0,0,0,0,0,0,0,0,0,-1,1238,946,0,0
21,78,0,0,0,0,0,0,0,0,0,-1,1245,946,0,0
28,78,0,0,0,0,0,0,0,0,0,-1,1252,946,0,0
35,78,0,0,0,0,0,0,0,0,0,-1,1259,946,0,0
42,78,0,0,0,0,0,0,0,0,0,-1,1266,946,0,0
49,78,0,0,0,0,0,0,0,0,0,-1,1273,946,0,0
56,78,0,0,0,0,0,0,0,0,0,-1,1280,946,0,0
63,78,0,0,0,0,0,0,0,0,0,-1,1287,946,0,0
70,78,0,0,0,0,0,0,0,0,0,-1,1294,946,0,0
77,78,0,0,0,0,0,0,0,0,0,-1,1301,946,0,0
84,78,0,0,0,0,0,0,0,0,0,-1,1308,946,0,0
91,78,0,0,0,0,0,0,0,0,0,-1,1315,946,0,0
98,78,0,0,0,0,0,0,0,0,0,-1,1322,946,0,0
105,78,0,0,0,0,0,0,0,0,0,-1,1329,946,0,0
112,78,0,0,0,0,0,0,0,0,0,-1,1336,946,0,0
119,78,0,0,0,0,0,0,0,0,0,-1,1343,946,0,0
126,78,0,0,0,0,0,0,0,0,0,-1,1350,946,0,0
133,78,0,0,0,0,0,0,0,0,0,-1,1357,946,0,0
140,78,0,0,0,0,0,0,0,0,0,-1,1364,946,0,0
147,78,0,0,0,0,0,0,0,0,0,-1,1371,946,0,0
154,78,0,0,0,0,0,0,0,0,0,-1,1378,946,0,0
161,78,0,0,0,0,0,0,0,0,0,-1,1385,946,0,0
168,78,0,0,0,0,0,0,0,0,0,-1,1392,946,0,0
175,78,0,0,0,0,0,0,0,0,0,-1,1399,946,0,0
182,78,0,0,0,0,0,0,0,0,0,-1,1406,946,0,0
189,78,0,0,0,0,0,0,0,0,0,-1,1413,946,0,0
196,78,0,0,0,0,0,0,0,0,0,-1,1420,946,0,0
203,78,0,0,0,0,0,0,0,0,0,-1,1427,946,0,0
210,78,0,0,0,0,0,0,0,0,0,-1,1434,946,0,0
217,78,0,0,0,0,0,0,0,0,0,-1,1441,946,0,0
224,78,0,0,0,0,0,0,0,0,0,-1,1448,946,0,0
231,78,0,0,0,0,0,0,0,0,0,-1,1455,946,0,0
238,78,0,0,0,0,0,0,0,0,0,-1,1462,946,0,0
245,78,0,0,0,0,0,0,0,0,0,-1,1469,946,0,0
252,78,0,0,0,0,0,0,0,0,0,-1,1476,946,0,0
259,78,0,0,0,0,0,0,0,0,0,-1,1483,946,0,0
266,78,0,0,0,0,0,0,0,0,0,-1,1490,946,0,0
273,78,0,0,0,0,0,0,0,0,0,-1,1497,946,0,0
280,78,0,0,0,0,0,0,0,0,0,-1,1504,946,0,0
287,78,0,0,0,0,0,0,0,0,0,-1,1511,946,0,0
294,78,0,0,0,0,0,0,0,0,0,-1,1518,946,0,0
301,78,0,0,0,0,0,0,0,0,0,-1,1525,946,0,0
308,78,0,0,0,0,0,0,0,0,0,-1,1532,946,0,0
315,78,0,0,0,0,0,0,0,0,0,-1,1539,946,0,0
322,78,0,0,0,0,0,0,0,0,0,-1,1546,946,0,0
329,78,0,0,0,0,0,0,0,0,0,-1,1553,946,0,0
336,78,0,0,0,0,0,0,0,0,0,-1,1560,946,0,0
343,78,0,0,0,0,0,0,0,0,0,-1,1567,946,0,0
350,78,0,0,0,0,0,0,0,0,0,-1,1574,946,0,0
357,78,0,0,0,0,0,0,0,0,0,-1,1581,946,0,0
364,78,0,0,0,0,0,0,0,0,0,-1,1588,946,0,0
371,78,0,0,0,0,0,0,0,0,0,-1,1595,946,0,0
378,78,0,0,0,0,0,0,0,0,0,-1,1602,946,0,0
385,78,0,0,0,0,0,0,0,0,0,-1,1609,946,0,0
392,78,0,0,0,0,0,0,0,0,0,-1,1616,946,0,0
399,78,0,0,0,0,0,0,0,0,0,-1,1623,946,0,0
406,78,0,0,0,0,0,0,0,0,0,-1,1630,946,0,0
413,78,0,0,0,0,0,0,0,0,0,-1,1637,946,0,0
420,78,0,0,0,0,0,0,0,0,0,-1,1644,946,0,0
427,78,0,0,0,0,0,0,0,0,0,-1,1651,946,0,0
434,78,0,0,0,0,0,0,0,0,0,-1,1658,946,0,0
441,78,0,0,0,0,0,0,0,0,0,-1,1665,946,0,0
448,78,0,0,0,0,0,0,0,0,0,-1,1672,946,0,0
455,78,0,0,0,0,0,0,0,0,0,-1,1679,946,0,0
462,78,0,0,0,0,0,0,0,0,0,-1,1686,946,0,0
469,78,0,0,0,0,0,0,0,0,0,-1,1693,946,0,0
476,78,0,0,0,0,0,0,0,0,0,-1,1700,946,0,0
483,78,0,0,0,0,0,0,0,0,0,-1,1707,946,0,0
490,78,0,0,0,0,0,0,0,0,0,-1,1714,946,0,0
497,78,0,0,0,0,0,0,0,0,0,-1,1721,946,0,0
504,78,0,0,0,0,0,0,0,0,0,-1,1728,946,0,0
511,78,0,0,0,0,0,0,0,0,0,-1,1735,946,0,0
518,78,0,0,0,0,0,0,0,0,0,-1,1742,946,0,0
525,78,0,0,0,0,0,0,0,0,0,-1,1749,946,0,0
532,78,0,0,0,0,0,0,0,0,0,-1,1756,946,0,0
539,78,0,0,0,0,0,0,0,0,0,-1,1763,946,0,0
546,78,0,0,0,0,0,0,0,0,0,-1,1770,946,0,0
553,78,0,0,0,0,0,0,0,0,0,-1,1777,946,0,0
560,78,0,0,0,0,0,0,0,0,0,-1,1784,946,0,0
567,78,0,0,0,0,0,0,0,0,0,-1,1791,946,0,0
574,78,0,0,0,0,0,0,0,0,0,-1,1798,946,0,0
581,78,0,0,0,0,0,0,0,0,0,-1,1805,946,0,0
588,78,0,0,0,0,0,0,0,0,0,-1,1812,946,0,0
595,78,0,0,0,0,0,0,0,0,0,-1,1819,946,0,0
602,78,0,0,0,0,0,0,0,0,0,-1,1826,946,0,0
609,78,0,0,0,0,0,0,0,0,0,-1,1833,946,0,0
616,78,0,0,0,0,0,0,0,0,0,-1,1840,946,0,0
623,78,0,0,0,0,0,0,0,0,0,-1,1847,946,0,0
630,78,0,0,0,0,0,0,0,0,0,-1,1854,946,0,0
637,78,81.0283,2.35168,-0.00873602,0.00270211,-0.00303802,0.00345894,-0.00949285,-1.32664,0.00774349,0.0452037,1861,946,81.0283,-2.35169
644,78,80.7953,2.02881,-0.00649482,0.00182513,-0.00191648,0.00224536,-0.00691506,-1.35494,0.00551307,0.0430222,1868,946,80.7952,-2.02881
651,78,80.6857,1.78467,-0.00460419,0.00103511,-0.00116026,0.0012645,-0.00483358,-1.37561,0.0037163,0.0410132,1875,946,80.6857,-1.7847
658,78,80.7189,1.9718,-0.00298675,0.000503631,-0.000675094,0.000629655,-0.00311277,-1.38624,0.0023138,0.0400417,1882,946,80.7189,-1.97182
665,78,80.718,2.20538,-0.00152495,8.60638e-05,-0.000434877,0.000195958,-0.00163484,-1.32328,0.00116074,0.040503,1889,946,80.718,-2.2054
672,78,80.7054,2.42908,-0.000884276,-0.000455245,-0.000250435,-0.000340011,-0.00099951,-1.13955,0.000586812,0.0376698,1896,946,80.7054,-2.42909
679,78,80.8285,2.26636,-0.000804063,-0.00120299,-7.20879e-05,-0.000791436,-0.00121562,-0.173401,0.000712433,0.0369344,1903,946,80.8285,-2.26635
686,78,80.652,2.16681,-0.000809185,-0.00181626,-0.000268388,-0.000742125,-0.00188332,-0.24485,0.00109544,0.0360905,1910,946,80.652,-2.16683
693,78,80.6779,2.16187,-0.00100432,-0.00199935,-0.000483138,-0.000808332,-0.00219533,-0.385368,0.00128207,0.0318797,1917,946,80.6778,-2.16184
700,78,80.7186,2.11499,-0.00161786,-0.00185836,-0.000734086,-0.000994241,-0.00248198,-0.704213,0.00144238,0.0266218,1924,946,80.7187,-2.11496
707,78,80.8202,2.13239,0,0,0,0,0,0,0,-1,1931,946,80.8201,-2.13238
714,78,77.6875,4.62769,0,0,0,0,0,0,0,-1,1938,946,77.6875,-4.62766
721,78,77.4492,5.37708,0,0,0,0,0,0,0,-1,1945,946,77.4492,-5.37707
728,78,77.1694,6.41718,0,0,0,0,0,0,0,-1,1952,946,77.1695,-6.41716
735,78,77.304,6.8266,-0.00374138,0.00343666,-0.00277501,0.00438435,-0.00468907,-1.24171,0.00523952,0.034816,1959,946,77.304,-6.8266
742,78,77.2817,7.34619,-0.00354028,0.00566602,-0.00323472,0.00668892,-0.00456317,-1.26452,0.00653493,0.0251508,1966,946,77.2817,-7.34618
749,78,77.116,7.94824,-0.00229155,0.00932929,-0.0040234,0.0105863,-0.00354857,-1.26798,0.00849127,0.0171058,1973,946,77.1161,-7.94824
756,78,77.031,8.50269,0.000876752,0.0144162,-0.00482714,0.0159609,-0.000667996,-1.26108,0.0108701,0.0163044,1980,946,77.0309,-8.50269
763,78,76.9204,9.00781,0.00588218,0.0205947,-0.00550415,0.022426,0.00405094,-1.24961,0.0138,0.0180987,1987,946,76.9205,-9.0078
770,78,76.7698,9.50549,0.0122434,0.0270977,-0.00612098,0.0292949,0.0100462,-1.22615,0.0171894,0.0236864,1994,946,76.7699,-9.50548
777,78,76.6301,10.11,0.0197823,0.0343461,-0.00670099,0.0369602,0.0171683,-1.19886,0.0213569,0.0446899,2001,946,76.6302,-10.11
784,78,76.5645,10.7372,0,0,0,0,0,0,0,-1,2008,946,76.5644,-10.7373
791,78,75.637,12.0598,0,0,0,0,0,0,0,-1,2015,946,75.6369,-12.0598
798,78,67.9287,7.90448,0,0,0,0,0,0,0,-1,2022,946,67.9287,-7.90446
805,78,68.5852,7.34106,0,0,0,0,0,0,0,-1,2029,946,68.5853,-7.34105
812,78,0,0,0,0,0,0,0,0,0,-1,2036,946,0,0
-700,71,0,0,0,0,0,0,0,0,0,-1,524,953,0,0
-693,71,0,0,0,0,0,0,0,0,0,-1,531,953,0,0
-686,71,-65.1362,-9.00238,0,0,0,0,0,0,0,-1,538,953,-65.1362,9.0024
-679,71,-64.5307,-9.08795,0,0,0,0,0,0,0,-1,545,953,-64.5307,9.08794
-672,71,-58.2416,6.89581,0,0,0,0,0,0,0,-1,552,953,-58.2416,-6.89579
-665,71,-58.091,6.93811,0,0,0,0,0,0,0,-1,559,953,-58.091,-6.93811
-658,71,-57.7852,6.99481,0,0,0,0,0,0,0,-1,566,953,-57.7852,-6.99479
-651,71,-58.3897,9.255,0,0,0,0,0,0,0,-1,573,953,-58.3897,-9.25503
-644,71,-61.5162,9.74713,0,0,0,0,0,0,0,-1,580,953,-61.5162,-9.74714
-637,71,-61.5212,9.02173,0,0,0,0,0,0,0,-1,587,953,-61.5212,-9.02176
-630,71,-61.6627,8.45551,-0.00167153,0.00775541,0.00981514,0.0139302,-0.0078463,1.00925,0.0127352,0.0194172,594,953,-61.6626,-8.45549
-623,71,-61.6939,7.88812,-0.00314007,0.0121265,0.00817841,0.0156804,-0.00669398,1.16087,0.0132606,0.0155934,601,953,-61.6939,-7.88815
-616,71,-61.7344,7.24774,-0.00193672,0.00922994,0.0069724,0.012579,-0.0052858,1.12301,0.0105969,0.0156538,608,953,-61.7344,-7.24775
-609,71,-61.7268,6.69507,-0.00105481,0.0060543,0.00601274,0.00948458,-0.00448509,1.05235,0.00823576,0.0157643,615,953,-61.7268,-6.69509
-602,71,-61.7232,6.17932,-0.000493017,0.00323306,0.005047,0.00674991,-0.00400986,0.962209,0.00627894,0.0174544,622,953,-61.7232,-6.17932
-595,71,-61.7092,5.62744,-5.87498e-05,0.00155614,0.00437228,0.00519491,-0.00369752,0.876706,0.00515825,0.0229763,629,953,-61.7092,-5.62745
-588,71,-61.6624,5.01331,0.00038632,0.000222372,0.00393555,0.00424075,-0.00363206,0.774985,0.00454989,0.0309786,636,953,-61.6623,-5.0133
-581,71,-61.4197,4.26031,0,0,0,0,0,0,0,-1,643,953,-61.4197,-4.26033
-574,71,-63.9636,0.168213,0,0,0,0,0,0,0,-1,650,953,-63.9636,-0.168214
-567,71,-63.9153,0.236206,0.000609325,-0.00113144,0.00198932,0.00191034,-0.00243246,0.579182,0.00251335,0.0212033,657,953,-63.9153,-0.236194
-560,71,-63.8958,0.263123,0.000432435,-0.000830791,0.00147837,0.00140846,-0.00180682,0.583516,0.00186109,0.0284242,664,953,-63.8957,-0.263124
-553,71,-63.952,0.304871,0.000231291,-6.70518e-05,0.000967414,0.00106097,-0.000896728,0.708903,0.0011316,0.0391146,671,953,-63.9521,-0.3049
-546,71,-63.8842,0.345337,6.19247e-05,0.00117381,0.000452745,0.00133484,-9.9106e-05,1.22907,0.0009247,0.0389764,678,953,-63.8842,-0.345346
-539,71,-63.7905,0.362488,-0.000154736,0.00278073,-0.00012974,0.00278645,-0.000160459,-1.52671,0.00191336,0.0394569,685,953,-63.7905,-0.36247
-532,71,-63.7918,0.331116,-0.000291127,0.00481051,-0.00073627,0.00491465,-0.00039526,-1.43029,0.00341582,0.0438656,692,953,-63.7918,-0.331139
-525,71,-63.9224,0.35498,-0.000482318,0.00727281,-0.00153559,0.0075658,-0.000775309,-1.38226,0.00532117,0.044256,699,953,-63.9223,-0.35496
-518,71,0,0,0,0,0,0,0,0,0,-1,706,953,0,0
-511,71,0,0,0,0,0,0,0,0,0,-1,713,953,0,0
-504,71,0,0,0,0,0,0,0,0,0,-1,720,953,0,0
-497,71,0,0,0,0,0,0,0,0,0,-1,727,953,0,0
-490,71,0,0,0,0,0,0,0,0,0,-1,734,953,0,0
-483,71,0,0,0,0,0,0,0,0,0,-1,741,953,0,0
-476,71,0,0,0,0,0,0,0,0,0,-1,748,953,0,0
-469,71,0,0,0,0,0,0,0,0,0,-1,755,953,0,0
-462,71,0,0,0,0,0,0,0,0,0,-1,762,953,0,0
-455,71,0,0,0,0,0,0,0,0,0,-1,769,953,0,0
-448,71,0,0,0,0,0,0,0,0,0,-1,776,953,0,0
-441,71,0,0,0,0,0,0,0,0,0,-1,783,953,0,0
-434,71,0,0,0,0,0,0,0,0,0,-1,790,953,0,0
-427,71,0,0,0,0,0,0,0,0,0,-1,797,953,0,0
-420,71,0,0,0,0,0,0,0,0,0,-1,804,953,0,0
-413,71,0,0,0,0,0,0,0,0,0,-1,811,953,0,0
-406,71,0,0,0,0,0,0,0,0,0,-1,818,953,0,0
-399,71,0,0,0,0,0,0,0,0,0,-1,825,953,0,0
-392,71,0,0,0,0,0,0,0,0,0,-1,832,953,0,0
-385,71,0,0,0,0,0,0,0,0,0,-1,839,953,0,0
-378,71,0,0,0,0,0,0,0,0,0,-1,846,953,0,0
-371,71,0,0,0,0,0,0,0,0,0,-1,853,953,0,0
-364,71,0,0,0,0,0,0,0,0,0,-1,860,953,0,0
-357,71,0,0,0,0,0,0,0,0,0,-1,867,953,0,0
-350,71,0,0,0,0,0,0,0,0,0,-1,874,953,0,0
-343,71,0,0,0,0,0,0,0,0,0,-1,881,953,0,0
-336,71,0,0,0,0,0,0,0,0,0,-1,888,953,0,0
-329,71,0,0,0,0,0,0,0,0,0,-1,895,953,0,0
-322,71,0,0,0,0,0,0,0,0,0,-1,902,953,0,0
-315,71,0,0,0,0,0,0,0,0,0,-1,909,953,0,0
-308,71,0,0,0,0,0,0,0,0,0,-1,916,953,0,0
-301,71,0,0,0,0,0,0,0,0,0,-1,923,953,0,0
-294,71,0,0,0,0,0,0,0,0,0,-1,930,953,0,0
-287,71,0,0,0,0,0,0,0,0,0,-1,937,953,0,0
-280,71,0,0,0,0,0,0,0,0,0,-1,944,953,0,0
-273,71,0,0,0,0,0,0,0,0,0,-1,951,953,0,0
-266,71,0,0,0,0,0,0,0,0,0,-1,958,953,0,0
-259,71,0,0,0,0,0,0,0,0,0,-1,965,953,0,0
-252,71,0,0,0,0,0,0,0,0,0,-1,972,953,0,0
-245,71,0,0,0,0,0,0,0,0,0,-1,979,953,0,0
-238,71,0,0,0,0,0,0,0,0,0,-1,986,953,0,0
-231,71,0,0,0,0,0,0,0,0,0,-1,993,953,0,0
-224,71,0,0,0,0,0,0,0,0,0,-1,1000,953,0,0
-217,71,0,0,0,0,0,0,0,0,0,-1,1007,953,0,0
-210,71,0,0,0,0,0,0,0,0,0,-1,1014,953,0,0
-203,71,0,0,0,0,0,0,0,0,0,-1,1021,953,0,0
-196,71,0,0,0,0,0,0,0,0,0,-1,1028,953,0,0
-189,71,0,0,0,0,0,0,0,0,0,-1,1035,953,0,0
-182,71,0,0,0,0,0,0,0,0,0,-1,1042,953,0,0
-175,71,0,0,0,0,0,0,0,0,0,-1,1049,953,0,0
-168,71,0,0,0,0,0,0,0,0,0,-1,1056,953,0,0
-161,71,0,0,0,0,0,0,0,0,0,-1,1063,953,0,0
-154,71,0,0,0,0,0,0,0,0,0,-1,1070,953,0,0
-147,71,0,0,0,0,0,0,0,0,0,-1,1077,953,0,0
-140,71,0,0,0,0,0,0,0,0,0,-1,1084,953,0,0
-133,71,0,0,0,0,0,0,0,0,0,-1,1091,953,0,0
-126,71,0,0,0,0,0,0,0,0,0,-1,1098,953,0,0
-119,71,0,0,0,0,0,0,0,0,0,-1,1105,953,0,0
-112,71,0,0,0,0,0,0,0,0,0,-1,1112,953,0,0
-105,71,0,0,0,0,0,0,0,0,0,-1,1119,953,0,0
-98,71,0,0,0,0,0,0,0,0,0,-1,1126,953,0,0
-91,71,0,0,0,0,0,0,0,0,0,-1,1133,953,0,0
-84,71,0,0,0,0,0,0,0,0,0,-1,1140,953,0,0
-77,71,0,0,0,0,0,0,0,0,0,-1,1147,953,0,0
-70,71,0,0,0,0,0,0,0,0,0,-1,1154,953,0,0
-63,71,0,0,0,0,0,0,0,0,0,-1,1161,953,0,0
-56,71,0,0,0,0,0,0,0,0,0,-1,1168,953,0,0
-49,71,0,0,0,0,0,0,0,0,0,-1,1175,953,0,0
-42,71,0,0,0,0,0,0,0,0,0,-1,1182,953,0,0
-35,71,0,0,0,0,0,0,0,0,0,-1,1189,953,0,0
-28,71,0,0,0,0,0,0,0,0,0,-1,1196,953,0,0
-21,71,0,0,0,0,0,0,0,0,0,-1,1203,953,0,0
-14,71,0,0,0,0,0,0,0,0,0,-1,1210,953,0,0
-7,71,0,0,0,0,0,0,0,0,0,-1,1217,953,0,0
0,71,0,0,0,0,0,0,0,0,0,-1,1224,953,0,0
7,71,0,0,0,0,0,0,0,0,0,-1,1231,953,0,0
14,71,0,0,0,0,0,0,0,0,0,-1,1238,953,0,0
21,71,0,0,0,0,0,0,0,0,0,-1,1245,953,0,0
28,71,0,0,0,0,0,0,0,0,0,-1,1252,953,0,0
35,71,0,0,0,0,0,0,0,0,0,-1,1259,953,0,0
42,71,0,0,0,0,0,0,0,0,0,-1,1266,953,0,0
49,71,0,0,0,0,0,0,0,0,0,-1,1273,953,0,0
56,71,0,0,0,0,0,0,0,0,0,-1,1280,953,0,0
63,71,0,0,0,0,0,0,0,0,0,-1,1287,953,0,0
70,71,0,0,0,0,0,0,0,0,0,-1,1294,953,0,0
77,71,0,0,0,0,0,0,0,0,0,-1,1301,953,0,0
84,71,0,0,0,0,0,0,0,0,0,-1,1308,953,0,0
91,71,0,0,0,0,0,0,0,0,0,-1,1315,953,0,0
98,71,0,0,0,0,0,0,0,0,0,-1,1322,953,0,0
105,71,0,0,0,0,0,0,0,0,0,-1,1329,953,0,0
112,71,0,0,0,0,0,0,0,0,0,-1,1336,953,0,0
119,71,0,0,0,0,0,0,0,0,0,-1,1343,953,0,0
126,71,0,0,0,0,0,0,0,0,0,-1,1350,953,0,0
133,71,0,0,0,0,0,0,0,0,0,-1,1357,953,0,0
140,71,0,0,0,0,0,0,0,0,0,-1,1364,953,0,0
147,71,0,0,0,0,0,0,0,0,0,-1,1371,953,0,0
154,71,0,0,0,0,0,0,0,0,0,-1,1378,953,0,0
161,71,0,0,0,0,0,0,0,0,0,-1,1385,953,0,0
168,71,0,0,0,0,0,0,0,0,0,-1,1392,953,0,0
175,71,0,0,0,0,0,0,0,0,0,-1,1399,953,0,0
182,71,0,0,0,0,0,0,0,0,0,-1,1406,953,0,0
189,71,0,0,0,0,0,0,0,0,0,-1,1413,953,0,0
196,71,0,0,0,0,0,0,0,0,0,-1,1420,953,0,0
203,71,0,0,0,0,0,0,0,0,0,-1,1427,953,0,0
210,71,0,0,0,0,0,0,0,0,0,-1,1434,953,0,0
217,71,0,0,0,0,0,0,0,0,0,-1,1441,953,0,0
224,71,0,0,0,0,0,0,0,0,0,-1,1448,953,0,0
231,71,0,0,0,0,0,0,0,0,0,-1,1455,953,0,0
238,71,0,0,0,0,0,0,0,0,0,-1,1462,953,0,0
245,71,0,0,0,0,0,0,0,0,0,-1,1469,953,0,0
252,71,0,0,0,0,0,0,0,0,0,-1,1476,953,0,0
259,71,0,0,0,0,0,0,0,0,0,-1,1483,953,0,0
266,71,0,0,0,0,0,0,0,0,0,-1,1490,953,0,0
273,71,0,0,0,0,0,0,0,0,0,-1,1497,953,0,0
280,71,0,0,0,0,0,0,0,0,0,-1,1504,953,0,0
287,71,0,0,0,0,0,0,0,0,0,-1,1511,953,0,0
294,71,0,0,0,0,0,0,0,0,0,-1,1518,953,0,0
301,71,0,0,0,0,0,0,0,0,0,-1,1525,953,0,0
308,71,0,0,0,0,0,0,0,0,0,-1,1532,953,0,0
315,71,0,0,0,0,0,0,0,0,0,-1,1539,953,0,0
322,71,0,0,0,0,0,0,0,0,0,-1,1546,953,0,0
329,71,0,0,0,0,0,0,0,0,0,-1,1553,953,0,0
336,71,0,0,0,0,0,0,0,0,0,-1,1560,953,0,0
343,71,0,0,0,0,0,0,0,0,0,-1,1567,953,0,0
350,71,0,0,0,0,0,0,0,0,0,-1,1574,953,0,0
357,71,0,0,0,0,0,0,0,0,0,-1,1581,953,0,0
364,71,0,0,0,0,0,0,0,0,0,-1,1588,953,0,0
371,71,0,0,0,0,0,0,0,0,0,-1,1595,953,0,0
378,71,0,0,0,0,0,0,0,0,0,-1,1602,953,0,0
385,71,0,0,0,0,0,0,0,0,0,-1,1609,953,0,0
392,71,0,0,0,0,0,0,0,0,0,-1,1616,953,0,0
399,71,0,0,0,0,0,0,0,0,0,-1,1623,953,0,0
406,71,0,0,0,0,0,0,0,0,0,-1,1630,953,0,0
413,71,0,0,0,0,0,0,0,0,0,-1,1637,953,0,0
420,71,0,0,0,0,0,0,0,0,0,-1,1644,953,0,0
427,71,0,0,0,0,0,0,0,0,0,-1,1651,953,0,0
434,71,0,0,0,0,0,0,0,0,0,-1,1658,953,0,0
441,71,0,0,0,0,0,0,0,0,0,-1,1665,953,0,0
448,71,0,0,0,0,0,0,0,0,0,-1,1672,953,0,0
455,71,0,0,0,0,0,0,0,0,0,-1,1679,953,0,0
462,71,0,0,0,0,0,0,0,0,0,-1,1686,953,0,0
469,71,0,0,0,0,0,0,0,0,0,-1,1693,953,0,0
476,71,0,0,0,0,0,0,0,0,0,-1,1700,953,0,0
483,71,0,0,0,0,0,0,0,0,0,-1,1707,953,0,0
490,71,0,0,0,0,0,0,0,0,0,-1,1714,953,0,0
497,71,0,0,0,0,0,0,0,0,0,-1,1721,953,0,0
504,71,0,0,0,0,0,0,0,0,0,-1,1728,953,0,0
511,71,0,0,0,0,0,0,0,0,0,-1,1735,953,0,0
518,71,0,0,0,0,0,0,0,0,0,-1,1742,953,0,0
525,71,0,0,0,0,0,0,0,0,0,-1,1749,953,0,0
532,71,0,0,0,0,0,0,0,0,0,-1,1756,953,0,0
539,71,0,0,0,0,0,0,0,0,0,-1,1763,953,0,0
546,71,0,0,0,0,0,0,0,0,0,-1,1770,953,0,0
553,71,0,0,0,0,0,0,0,0,0,-1,1777,953,0,0
560,71,0,0,0,0,0,0,0,0,0,-1,1784,953,0,0
567,71,0,0,0,0,0,0,0,0,0,-1,1791,953,0,0
574,71,0,0,0,0,0,0,0,0,0,-1,1798,953,0,0
581,71,0,0,0,0,0,0,0,0,0,-1,1805,953,0,0
588,71,0,0,0,0,0,0,0,0,0,-1,1812,953,0,0
595,71,0,0,0,0,0,0,0,0,0,-1,1819,953,0,0
602,71,0,0,0,0,0,0,0,0,0,-1,1826,953,0,0
609,71,0,0,0,0,0,0,0,0,0,-1,1833,953,0,0
616,71,0,0,0,0,0,0,0,0,0,-1,1840,953,0,0
623,71,0,0,0,0,0,0,0,0,0,-1,1847,953,0,0
630,71,0,0,0,0,0,0,0,0,0,-1,1854,953,0,0
637,71,80.9707,2.26251,-0.00768799,0.00189021,-0.00345053,0.00300379,-0.00880157,-1.25862,0.00708452,0.0415718,1861,953,80.9707,-2.26251
644,71,80.6796,2.00067,-0.00571932,0.00114516,-0.0021803,0.00177912,-0.00635327,-1.28783,0.0049366,0.0422227,1868,953,80.6796,-2.00066
651,71,80.5994,1.8562,-0.00407686,0.000498728,-0.00133264,0.000858564,-0.00443669,-1.30707,0.00328164,0.0405621,1875,953,80.5993,-1.8562
658,71,80.7469,2.12921,-0.00268926,9.49425e-05,-0.000809513,0.000313201,-0.00290752,-1.30744,0.00205073,0.0390665,1882,953,80.747,-2.12919
665,71,80.7452,2.4422,-0.0014336,-0.000202032,-0.000563483,1.68705e-05,-0.00165251,-1.20026,0.00110734,0.0411161,1889,953,80.7453,-2.44222
672,71,80.5553,2.5816,-0.000848142,-0.00059601,-0.000383573,-0.000318318,-0.00112583,-0.944168,0.000670143,0.0404199,1896,953,80.5554,-2.5816
679,71,80.6791,2.34326,-0.000737287,-0.00122406,-0.000182367,-0.000676544,-0.0012848,-0.321523,0.00074213,0.0377813,1903,953,80.6791,-2.34328
686,71,80.6879,2.05634,-0.000700773,-0.00181224,-0.000327414,-0.000611495,-0.00190152,-0.266205,0.0011209,0.036067,1910,953,80.6879,-2.05633
693,71,80.7246,2.01794,-0.000867121,-0.00203441,-0.000489831,-0.000688811,-0.00221272,-0.349114,0.00130749,0.033693,1917,953,80.7246,-2.01792
700,71,80.7489,2.05389,-0.0014709,-0.00189637,-0.000696572,-0.000955303,-0.00241197,-0.637197,0.00140254,0.033576,1924,953,80.7489,-2.0539
707,71,80.8085,2.08466,0,0,0,0,0,0,0,-1,1931,953,80.8084,-2.08463
714,71,78.5212,4.76782,0,0,0,0,0,0,0,-1,1938,953,78.5212,-4.76782
721,71,78.1528,5.5022,-0.00384283,0.000663181,-0.00226607,0.00160566,-0.00478531,-1.17665,0.00383903,0.0364442,1945,953,78.1529,-5.50217
728,71,77.8867,6.32007,-0.00403816,0.00203321,-0.00257601,0.00297889,-0.00498384,-1.21896,0.0046456,0.0424382,1952,953,77.8867,-6.32005
735,71,77.87,6.91907,-0.00367587,0.00370565,-0.00279227,0.0046429,-0.00461312,-1.24695,0.00534398,0.029014,1959,953,77.87,-6.91908
742,71,77.8751,7.40674,-0.00365632,0.0059445,-0.00329694,0.00696764,-0.00467946,-1.26989,0.00676758,0.0276798,1966,953,77.8751,-7.40674
749,71,77.8042,7.93524,-0.00275382,0.00966459,-0.00428463,0.0109994,-0.00408864,-1.26879,0.00901053,0.0211573,1973,953,77.8043,-7.93526
756,71,77.7378,8.41785,-0.000198886,0.0149756,-0.00548806,0.0167524,-0.00197567,-1.25769,0.0118817,0.019523,1980,953,77.7378,-8.41783
763,71,77.6343,8.93414,0.00410098,0.0217558,-0.00683984,0.0240956,0.00176119,-1.24119,0.0155101,0.0227046,1987,953,77.6343,-8.93412
770,71,77.3408,9.35657,0.00971487,0.0290887,-0.00836212,0.0321987,0.00660486,-1.21473,0.019638,0.0258604,1994,953,77.3408,-9.35656
777,71,76.9915,9.85394,0.0161984,0.0373755,-0.0101784,0.0414743,0.0120996,-1.18797,0.0246278,0.045635,2001,953,76.9914,-9.85393
784,71,76.708,10.4026,0,0,0,0,0,0,0,-1,2008,953,76.708,-10.4026
791,71,75.9294,11.9259,0,0,0,0,0,0,0,-1,2015,953,75.9295,-11.9259
798,71,74.6741,11.5202,0,0,0,0,0,0,0,-1,2022,953,74.6741,-11.5202
805,71,59.978,6.41992,0,0,0,0,0,0,0,-1,2029,953,59.9781,-6.41992
812,71,0,0,0,0,0,0,0,0,0,-1,2036,953,0,0
-700,64,0,0,0,0,0,0,0,0,0,-1,524,960,0,0
-693,64,0,0,0,0,0,0,0,0,0,-1,531,960,0,0
-686,64,-65.175,-7.88928,0.0797503,-0.151742,0.0250585,0.0824318,-0.154424,0.106602,0.138838,0.0452841,538,960,-65.175,7.88931
-679,64,-64.4641,-7.91315,0.0556214,-0.132162,0.0253916,0.0589943,-0.135534,0.132059,0.115173,0.0496339,545,960,-64.4641,7.91313
-672,64,-63.718,-7.93152,0,0,0,0,0,0,0,-1,552,960,-63.718,7.93152
-665,64,-57.8604,5.71631,0,0,0,0,0,0,0,-1,559,960,-57.8604,-5.71629
-658,64,-66.1065,2.58191,0,0,0,0,0,0,0,-1,566,960,-66.1065,-2.58189
-651,64,-62.2149,10.1021,0,0,0,0,0,0,0,-1,573,960,-62.2149,-10.102
-644,64,-62.1938,9.41779,0.00502973,-0.0242869,0.0146651,0.0111062,-0.0303634,0.392815,0.0247881,0.0411321,580,960,-62.1938,-9.41778
-637,64,-62.1574,8.76227,0.00177921,-0.00726696,0.0117335,0.00983126,-0.015319,0.601433,0.0146353,0.0211342,587,960,-62.1574,-8.76228
-630,64,-62.2549,8.29413,-0.00202863,0.00587255,0.00943015,0.0121462,-0.00830227,0.983758,0.0118752,0.0153059,594,960,-62.2549,-8.29414
-623,64,-62.3104,7.83588,-0.00363167,0.0115536,0.00767895,0.0147598,-0.00683784,1.17527,0.0127459,0.0152157,601,960,-62.3103,-7.8359
-616,64,-62.3533,7.27435,-0.00259144,0.00929877,0.00653886,0.0121911,-0.00548381,1.15433,0.0104467,0.0192255,608,960,-62.3533,-7.27434
-609,64,-62.3452,6.76367,-0.00178784,0.00649056,0.00566479,0.00936727,-0.00466454,1.10091,0.00825153,0.0186719,615,960,-62.3451,-6.76365
-602,64,-62.3405,6.23248,-0.00124928,0.00362174,0.00479389,0.00656332,-0.00419086,1.02043,0.00625909,0.0179844,622,960,-62.3405,-6.23248
-595,64,-62.3701,5.77124,-0.000803951,0.00179875,0.00419576,0.00489034,-0.00389554,0.935773,0.00508336,0.0331415,629,960,-62.3701,-5.77123
-588,64,-62.3957,5.27368,0,0,0,0,0,0,0,-1,636,960,-62.3957,-5.2737
-581,64,-60.9595,4.38037,0,0,0,0,0,0,0,-1,643,960,-60.9595,-4.38034
-574,64,-63.932,0.166565,0,0,0,0,0,0,0,-1,650,960,-63.932,-0.166555
-567,64,-63.8857,0.270813,0.000373324,-0.00134111,0.00178293,0.0014944,-0.00246219,0.561316,0.002307,0.0258856,657,960,-63.8857,-0.270812
-560,64,-63.9265,0.270386,0.000427216,-0.00103856,0.00124732,0.00114103,-0.00175237,0.519784,0.00168289,0.0334864,664,960,-63.9265,-0.270383
-553,64,-63.874,0.0478516,0.000512388,-0.000265766,0.00067547,0.000902824,-0.000656202,0.524102,0.00090385,0.0382041,671,960,-63.874,-0.0478651
-546,64,-63.8905,0.0847778,0.000715227,0.000939221,6.32858e-05,0.000955865,0.000698584,1.31363,0.000571137,0.0390274,678,960,-63.8905,-0.0847812
-539,64,-64.0056,0.329102,0.000910142,0.00239002,-0.000675357,0.00265188,0.000648273,-1.2009,0.00159633,0.0412979,685,960,-64.0056,-0.329097
-532,64,-63.8859,0.388,0.00133813,0.00421901,-0.001479,0.00484311,0.000714035,-1.17149,0.00301901,0.0439302,692,960,-63.8859,-0.387985
-525,64,-63.905,0.339905,0.00170422,0.00646057,-0.00248935,0.00752515,0.000639637,-1.16668,0.00481773,0.043485,699,960,-63.905,-0.339917
-518,64,0,0,0,0,0,0,0,0,0,-1,706,960,0,0
-511,64,0,0,0,0,0,0,0,0,0,-1,713,960,0,0
-504,64,0,0,0,0,0,0,0,0,0,-1,720,960,0,0
-497,64,0,0,0,0,0,0,0,0,0,-1,727,960,0,0
-490,64,0,0,0,0,0,0,0,0,0,-1,734,960,0,0
-483,64,0,0,0,0,0,0,0,0,0,-1,741,960,0,0
-476,64,0,0,0,0,0,0,0,0,0,-1,748,960,0,0
-469,64,0,0,0,0,0,0,0,0,0,-1,755,960,0,0
-462,64,0,0,0,0,0,0,0,0,0,-1,762,960,0,0
-455,64,0,0,0,0,0,0,0,0,0,-1,769,960,0,0
-448,64,0,0,0,0,0,0,0,0,0,-1,776,960,0,0
-441,64,0,0,0,0,0,0,0,0,0,-1,783,960,0,0
-434,64,0,0,0,0,0,0,0,0,0,-1,790,960,0,0
-427,64,0,0,0,0,0,0,0,0,0,-1,797,960,0,0
-420,64,0,0,0,0,0,0,0,0,0,-1,804,960,0,0
-413,64,0,0,0,0,0,0,0,0,0,-1,811,960,0,0
-406,64,0,0,0,0,0,0,0,0,0,-1,818,960,0,0
-399,64,0,0,0,0,0,0,0,0,0,-1,825,960,0,0
-392,64,0,0,0,0,0,0,0,0,0,-1,832,960,0,0
-385,64,0,0,0,0,0,0,0,0,0,-1,839,960,0,0
-378,64,0,0,0,0,0,0,0,0,0,-1,846,960,0,0
-371,64,0,0,0,0,0,0,0,0,0,-1,853,960,0,0
-364,64,0,0,0,0,0,0,0,0,0,-1,860,960,0,0
-357,64,0,0,0,0,0,0,0,0,0,-1,867,960,0,0
-350,64,0,0,0,0,0,0,0,0,0,-1,874,960,0,0
-343,64,0,0,0,0,0,0,0,0,0,-1,881,960,0,0
-336,64,0,0,0,0,0,0,0,0,0,-1,888,960,0,0
-329,64,0,0,0,0,0,0,0,0,0,-1,895,960,0,0
-322,64,0,0,0,0,0,0,0,0,0,-1,902,960,0,0
-315,64,0,0,0,0,0,0,0,0,0,-1,909,960,0,0
-308,64,0,0,0,0,0,0,0,0,0,-1,916,960,0,0
-301,64,0,0,0,0,0,0,0,0,0,-1,923,960,0,0
-294,64,0,0,0,0,0,0,0,0,0,-1,930,960,0,0
-287,64,0,0,0,0,0,0,0,0,0,-1,937,960,0,0
-280,64,0,0,0,0,0,0,0,0,0,-1,944,960,0,0
-273,64,0,0,0,0,0,0,0,0,0,-1,951,960,0,0
-266,64,0,0,0,0,0,0,0,0,0,-1,958,960,0,0
-259,64,0,0,0,0,0,0,0,0,0,-1,965,960,0,0
-252,64,0,0,0,0,0,0,0,0,0,-1,972,960,0,0
-245,64,0,0,0,0,0,0,0,0,0,-1,979,960,0,0
-238,64,0,0,0,0,0,0,0,0,0,-1,986,960,0,0
-231,64,0,0,0,0,0,0,0,0,0,-1,993,960,0,0
-224,64,0,0,0,0,0,0,0,0,0,-1,1000,960,0,0
-217,64,0,0,0,0,0,0,0,0,0,-1,1007,960,0,0
-210,64,0,0,0,0,0,0,0,0,0,-1,1014,960,0,0
-203,64,0,0,0,0,0,0,0,0,0,-1,1021,960,0,0
-196,64,0,0,0,0,0,0,0,0,0,-1,1028,960,0,0
-189,64,0,0,0,0,0,0,0,0,0,-1,1035,960,0,0
-182,64,0,0,0,0,0,0,0,0,0,-1,1042,960,0,0
-175,64,0,0,0,0,0,0,0,0,0,-1,1049,960,0,0
-168,64,0,0,0,0,0,0,0,0,0,-1,1056,960,0,0
-161,64,0,0,0,0,0,0,0,0,0,-1,1063,960,0,0
-154,64,0,0,0,0,0,0,0,0,0,-1,1070,960,0,0
-147,64,0,0,0,0,0,0,0,0,0,-1,1077,960,0,0
-140,64,0,0,0,0,0,0,0,0,0,-1,1084,960,0,0
-133,64,0,0,0,0,0,0,0,0,0,-1,1091,960,0,0
-126,64,0,0,0,0,0,0,0,0,0,-1,1098,960,0,0
-119,64,0,0,0,0,0,0,0,0,0,-1,1105,960,0,0
-112,64,0,0,0,0,0,0,0,0,0,-1,1112,960,0,0
-105,64,0,0,0,0,0,0,0,0,0,-1,1119,960,0,0
-98,64,0,0,0,0,0,0,0,0,0,-1,1126,960,0,0
-91,64,0,0,0,0,0,0,0,0,0,-1,1133,960,0,0
-84,64,0,0,0,0,0,0,0,0,0,-1,1140,960,0,0
-77,64,0,0,0,0,0,0,0,0,0,-1,1147,960,0,0
-70,64,0,0,0,0,0,0,0,0,0,-1,1154,960,0,0
-63,64,0,0,0,0,0,0,0,0,0,-1,1161,960,0,0
-56,64,0,0,0,0,0,0,0,0,0,-1,1168,960,0,0
-49,64,0,0,0,0,0,0,0,0,0,-1,1175,960,0,0
-42,64,0,0,0,0,0,0,0,0,0,-1,1182,960,0,0
-35,64,0,0,0,0,0,0,0,0,0,-1,1189,960,0,0
-28,64,0,0,0,0,0,0,0,0,0,-1,1196,960,0,0
-21,64,0,0,0,0,0,0,0,0,0,-1,1203,960,0,0
-14,64,0,0,0,0,0,0,0,0,0,-1,1210,960,0,0
-7,64,0,0,0,0,0,0,0,0,0,-1,1217,960,0,0
0,64,0,0,0,0,0,0,0,0,0,-1,1224,960,0,0
7,64,0,0,0,0,0,0,0,0,0,-1,1231,960,0,0
14,64,0,0,0,0,0,0,0,0,0,-1,1238,960,0,0
21,64,0,0,0,0,0,0,0,0,0,-1,1245,960,0,0
28,64,0,0,0,0,0,0,0,0,0,-1,1252,960,0,0
35,64,0,0,0,0,0,0,0,0,0,-1,1259,960,0,0
42,64,0,0,0,0,0,0,0,0,0,-1,1266,960,0,0
49,64,0,0,0,0,0,0,0,0,0,-1,1273,960,0,0
56,64,0,0,0,0,0,0,0,0,0,-1,1280,960,0,0
63,64,0,0,0,0,0,0,0,0,0,-1,1287,960,0,0
70,64,0,0,0,0,0,0,0,0,0,-1,1294,960,0,0
77,64,0,0,0,0,0,0,0,0,0,-1,1301,960,0,0
84,64,0,0,0,0,0,0,0,0,0,-1,1308,960,0,0
91,64,0,0,0,0,0,0,0,0,0,-1,1315,960,0,0
98,64,0,0,0,0,0,0,0,0,0,-1,1322,960,0,0
105,64,0,0,0,0,0,0,0,0,0,-1,1329,960,0,0
112,64,0,0,0,0,0,0,0,0,0,-1,1336,960,0,0
119,64,0,0,0,0,0,0,0,0,0,-1,1343,960,0,0
126,64,0,0,0,0,0,0,0,0,0,-1,1350,960,0,0
133,64,0,0,0,0,0,0,0,0,0,-1,1357,960,0,0
140,64,0,0,0,0,0,0,0,0,0,-1,1364,960,0,0
147,64,0,0,0,0,0,0,0,0,0,-1,1371,960,0,0
154,64,0,0,0,0,0,0,0,0,0,-1,1378,960,0,0
161,64,0,0,0,0,0,0,0,0,0,-1,1385,960,0,0
168,64,0,0,0,0,0,0,0,0,0,-1,1392,960,0,0
175,64,0,0,0,0,0,0,0,0,0,-1,1399,960,0,0
182,64,0,0,0,0,0,0,0,0,0,-1,1406,960,0,0
189,64,0,0,0,0,0,0,0,0,0,-1,1413,960,0,0
196,64,0,0,0,0,0,0,0,0,0,-1,1420,960,0,0
203,64,0,0,0,0,0,0,0,0,0,-1,1427,960,0,0
210,64,0,0,0,0,0,0,0,0,0,-1,1434,960,0,0
217,64,0,0,0,0,0,0,0,0,0,-1,1441,960,0,0
224,64,0,0,0,0,0,0,0,0,0,-1,1448,960,0,0
231,64,0,0,0,0,0,0,0,0,0,-1,1455,960,0,0
238,64,0,0,0,0,0,0,0,0,0,-1,1462,960,0,0
245,64,0,0,0,0,0,0,0,0,0,-1,1469,960,0,0
252,64,0,0,0,0,0,0,0,0,0,-1,1476,960,0,0
259,64,0,0,0,0,0,0,0,0,0,-1,1483,960,0,0
266,64,0,0,0,0,0,0,0,0,0,-1,1490,960,0,0
273,64,0,0,0,0,0,0,0,0,0,-1,1497,960,0,0
280,64,0,0,0,0,0,0,0,0,0,-1,1504,960,0,0
287,64,0,0,0,0,0,0,0,0,0,-1,1511,960,0,0
294,64,0,0,0,0,0,0,0,0,0,-1,1518,960,0,0
301,64,0,0,0,0,0,0,0,0,0,-1,1525,960,0,0
308,64,0,0,0,0,0,0,0,0,0,-1,1532,960,0,0
315,64,0,0,0,0,0,0,0,0,0,-1,1539,960,0,0
322,64,0,0,0,0,0,0,0,0,0,-1,1546,960,0,0
329,64,0,0,0,0,0,0,0,0,0,-1,1553,960,0,0
336,64,0,0,0,0,0,0,0,0,0,-1,1560,960,0,0
343,64,0,0,0,0,0,0,0,0,0,-1,1567,960,0,0
350,64,0,0,0,0,0,0,0,0,0,-1,1574,960,0,0
357,64,0,0,0,0,0,0,0,0,0,-1,1581,960,0,0
364,64,0,0,0,0,0,0,0,0,0,-1,1588,960,0,0
371,64,0,0,0,0,0,0,0,0,0,-1,1595,960,0,0
378,64,0,0,0,0,0,0,0,0,0,-1,1602,960,0,0
385,64,0,0,0,0,0,0,0,0,0,-1,1609,960,0,0
392,64,0,0,0,0,0,0,0,0,0,-1,1616,960,0,0
399,64,0,0,0,0,0,0,0,0,0,-1,1623,960,0,0
406,64,0,0,0,0,0,0,0,0,0,-1,1630,960,0,0
413,64,0,0,0,0,0,0,0,0,0,-1,1637,960,0,0
420,64,0,0,0,0,0,0,0,0,0,-1,1644,960,0,0
427,64,0,0,0,0,0,0,0,0,0,-1,1651,960,0,0
434,64,0,0,0,0,0,0,0,0,0,-1,1658,960,0,0
441,64,0,0,0,0,0,0,0,0,0,-1,1665,960,0,0
448,64,0,0,0,0,0,0,0,0,0,-1,1672,960,0,0
455,64,0,0,0,0,0,0,0,0,0,-1,1679,960,0,0
462,64,0,0,0,0,0,0,0,0,0,-1,1686,960,0,0
469,64,0,0,0,0,0,0,0,0,0,-1,1693,960,0,0
476,64,0,0,0,0,0,0,0,0,0,-1,1700,960,0,0
483,64,0,0,0,0,0,0,0,0,0,-1,1707,960,0,0
490,64,0,0,0,0,0,0,0,0,0,-1,1714,960,0,0
497,64,0,0,0,0,0,0,0,0,0,-1,1721,960,0,0
504,64,0,0,0,0,0,0,0,0,0,-1,1728,960,0,0
511,64,0,0,0,0,0,0,0,0,0,-1,1735,960,0,0
518,64,0,0,0,0,0,0,0,0,0,-1,1742,960,0,0
525,64,0,0,0,0,0,0,0,0,0,-1,1749,960,0,0
532,64,0,0,0,0,0,0,0,0,0,-1,1756,960,0,0
539,64,0,0,0,0,0,0,0,0,0,-1,1763,960,0,0
546,64,0,0,0,0,0,0,0,0,0,-1,1770,960,0,0
553,64,0,0,0,0,0,0,0,0,0,-1,1777,960,0,0
560,64,0,0,0,0,0,0,0,0,0,-1,1784,960,0,0
567,64,0,0,0,0,0,0,0,0,0,-1,1791,960,0,0
574,64,0,0,0,0,0,0,0,0,0,-1,1798,960,0,0
581,64,0,0,0,0,0,0,0,0,0,-1,1805,960,0,0
588,64,0,0,0,0,0,0,0,0,0,-1,1812,960,0,0
595,64,0,0,0,0,0,0,0,0,0,-1,1819,960,0,0
602,64,0,0,0,0,0,0,0,0,0,-1,1826,960,0,0
609,64,0,0,0,0,0,0,0,0,0,-1,1833,960,0,0
616,64,0,0,0,0,0,0,0,0,0,-1,1840,960,0,0
623,64,0,0,0,0,0,0,0,0,0,-1,1847,960,0,0
630,64,0,0,0,0,0,0,0,0,0,-1,1854,960,0,0
637,64,0,0,0,0,0,0,0,0,0,-1,1861,960,0,0
644,64,80.6078,2.04346,-0.00446005,0.000344049,-0.0019246,0.00101997,-0.00513597,-1.23305,0.00380976,0.043037,1868,960,80.6078,-2.04343
651,64,80.7023,2.10657,-0.00318509,-0.000146481,-0.00110923,0.000215354,-0.00354692,-1.25548,0.00243957,0.0412826,1875,960,80.7022,-2.10655
658,64,80.7399,2.24969,-0.00211163,-0.000410545,-0.000646979,-0.000192442,-0.00232974,-1.24565,0.00149315,0.0371264,1882,960,80.7399,-2.24969
665,64,80.6143,2.56763,-0.00112967,-0.000564538,-0.000485082,-0.000285724,-0.00140849,-1.04913,0.000859725,0.040701,1889,960,80.6142,-2.56766
672,64,80.5714,2.55072,-0.000645832,-0.000790558,-0.000394909,-0.000316711,-0.00111968,-0.694784,0.000666458,0.043423,1896,960,80.5714,-2.55073
679,64,80.6344,2.29596,-0.00051946,-0.00127188,-0.000232562,-0.000453382,-0.00133796,-0.276837,0.000785728,0.0391123,1903,960,80.6343,-2.29593
686,64,80.6377,1.9469,-0.00044049,-0.00180828,-0.000339387,-0.000360909,-0.00188786,-0.230324,0.00115719,0.0344216,1910,960,80.6376,-1.94691
693,64,80.6887,1.98358,-0.000571402,-0.00208564,-0.00046711,-0.000438903,-0.00221814,-0.276397,0.00135634,0.0317183,1917,960,80.6887,-1.98361
700,64,80.7532,2.08435,-0.00114163,-0.0019759,-0.000651108,-0.000785497,-0.00233203,-0.500509,0.00137009,0.0332393,1924,960,80.7532,-2.08436
707,64,80.8632,2.03467,0,0,0,0,0,0,0,-1,1931,960,80.8632,-2.03466
714,64,79.3669,5.04358,0,0,0,0,0,0,0,-1,1938,960,79.367,-5.0436
721,64,78.7236,5.64978,-0.00357954,0.000743746,-0.00216475,0.00164132,-0.00447712,-1.17774,0.00365677,0.0366828,1945,960,78.7236,-5.64975
728,64,78.365,6.33685,-0.00379991,0.00216872,-0.00249004,0.00307111,-0.00470229,-1.22312,0.00452079,0.0307648,1952,960,78.365,-6.33688
735,64,78.2874,6.99066,-0.00346926,0.00391705,-0.00275675,0.00483248,-0.00438469,-1.25018,0.00532363,0.0404266,1959,960,78.2873,-6.99067
742,64,78.4429,7.36993,-0.00363491,0.00621637,-0.00330536,0.00722262,-0.00464116,-1.27528,0.00690339,0.0332029,1966,960,78.4429,-7.36993
749,64,78.3955,7.88397,-0.00305197,0.0100247,-0.0044634,0.0114029,-0.00443019,-1.2713,0.00943207,0.0177993,1973,960,78.3955,-7.88394
756,64,78.3364,8.35986,-0.00112286,0.0155362,-0.00598933,0.017466,-0.00305263,-1.2591,0.0127836,0.0174762,1980,960,78.3365,-8.35988
763,64,78.2852,8.85345,0.00236527,0.0228649,-0.00791153,0.0255631,-0.000332937,-1.24212,0.0171541,0.0198751,1987,960,78.2853,-8.85346
770,64,77.9663,9.20398,0.00719693,0.0310528,-0.0102281,0.0348376,0.00341214,-1.21638,0.0221754,0.0205305,1994,960,77.9663,-9.20395
777,64,77.6382,9.60144,0.0126965,0.0403551,-0.0130837,0.0455634,0.00748817,-1.19195,0.0282128,0.0369066,2001,960,77.6382,-9.60143
784,64,78.0615,9.82874,0.0196069,0.0513784,-0.0167915,0.0586078,0.0123774,-1.16424,0.0356693,0.0441089,2008,960,78.0615,-9.82872
791,64,78.384,10.2337,0,0,0,0,0,0,0,-1,2015,960,78.3839,-10.2337
798,64,76.1096,9.16791,0,0,0,0,0,0,0,-1,2022,960,76.1096,-9.16789
805,64,71.8018,7.16925,0,0,0,0,0,0,0,-1,2029,960,71.8016,-7.16926
812,64,0,0,0,0,0,0,0,0,0,-1,2036,960,0,0
-700,57,0,0,0,0,0,0,0,0,0,-1,524,967,0,0
-693,57,0,0,0,0,0,0,0,0,0,-1,531,967,0,0
-686,57,-65.2987,-6.84564,0.060213,-0.15766,0.0288157,0.0639597,-0.161407,0.129298,0.134109,0.0447995,538,967,-65.2987,6.84566
-679,57,-64.4962,-6.95886,0.0431632,-0.134794,0.0274297,0.0472952,-0.138926,0.149515,0.111769,0.0492092,545,967,-64.4962,6.95888
-672,57,-63.6047,-7.05688,0,0,0,0,0,0,0,-1,552,967,-63.6047,7.0569
-665,57,-66.4033,0.171631,0,0,0,0,0,0,0,-1,559,967,-66.4033,-0.171637
-658,57,-65.6603,1.69305,0,0,0,0,0,0,0,-1,566,967,-65.6603,-1.69307
-651,57,-62.8848,9.35767,0,0,0,0,0,0,0,-1,573,967,-62.8848,-9.35765
-644,57,-62.8024,8.92859,0.00279283,-0.0271022,0.0146662,0.00878632,-0.0330957,0.38795,0.0255022,0.0410205,580,967,-62.8024,-8.92857
-637,57,-62.759,8.51526,9.55172e-05,-0.00987293,0.0116674,0.00779872,-0.0175761,0.583535,0.0150083,0.0223175,587,967,-62.759,-8.51524
-630,57,-62.8486,8.12555,-0.00329727,0.0041144,0.00919656,0.0103237,-0.00950657,0.976925,0.0114523,0.0145966,594,967,-62.8486,-8.12555
-623,57,-62.8942,7.75037,-0.00474611,0.0108576,0.00728665,0.0137312,-0.00761965,1.19516,0.0124941,0.0144348,601,967,-62.8942,-7.75037
-616,57,-62.8964,7.29504,-0.00368611,0.00921837,0.0061422,0.0116744,-0.00614218,1.1904,0.0104504,0.0171673,608,967,-62.8964,-7.29507
-609,57,-62.9287,6.80084,-0.00282978,0.00677593,0.00529262,0.00912005,-0.0051739,1.15386,0.00835679,0.0174181,615,967,-62.9287,-6.80082
-602,57,-62.9356,6.27612,-0.00223461,0.00384478,0.00446978,0.00621051,-0.00460034,1.08401,0.00626468,0.0122292,622,967,-62.9356,-6.2761
-595,57,-62.9291,5.79181,-0.00173135,0.00191711,0.00390175,0.00440002,-0.00421426,1.00407,0.00497385,0.0247963,629,967,-62.9292,-5.79178
-588,57,-62.637,5.4234,-0.00106383,0.000212086,0.00347513,0.00310733,-0.00395907,0.876177,0.00408965,0.0424454,636,967,-62.637,-5.4234
-581,57,-62.3208,4.90723,0,0,0,0,0,0,0,-1,643,967,-62.3208,-4.90721
-574,57,-63.8962,0.240234,-0.00033855,-0.0014119,0.00193594,0.00113373,-0.00288418,0.650185,0.002392,0.0345658,650,967,-63.8962,-0.240232
-567,57,-63.913,0.331543,6.84782e-05,-0.00149661,0.00139265,0.000883385,-0.00231152,0.529428,0.00190502,0.0322532,657,967,-63.913,-0.331537
-560,57,-63.8998,0.343567,0.000382618,-0.00115877,0.0008079,0.000728469,-0.00150462,0.404482,0.00131497,0.0399499,664,967,-63.8999,-0.343581
-553,57,-63.5248,-0.151245,0.000780117,-0.000331079,0.000155869,0.000801567,-0.000352529,0.136756,0.000682922,0.0395392,671,967,-63.5248,0.151253
-546,57,-63.7735,-0.0444336,0.00138552,0.000914315,-0.00057422,0.00177059,0.000529241,-0.590723,0.00104945,0.0398736,678,967,-63.7735,0.0444194
-539,57,-63.9944,0.265564,0.00204405,0.00232782,-0.00148206,0.00367478,0.000697095,-0.833119,0.00225371,0.0410268,685,967,-63.9944,-0.265563
-532,57,-64.0092,0.535706,0.00308192,0.00413644,-0.00248523,0.00614973,0.00106864,-0.889927,0.00379411,0.0414869,692,967,-64.0092,-0.535733
-525,57,-63.9871,0.355103,0.00405726,0.00634745,-0.00370329,0.00907863,0.00132607,-0.935341,0.0056624,0.0421691,699,967,-63.9871,-0.355088
-518,57,0,0,0,0,0,0,0,0,0,-1,706,967,0,0
-511,57,0,0,0,0,0,0,0,0,0,-1,713,967,0,0
-504,57,0,0,0,0,0,0,0,0,0,-1,720,967,0,0
-497,57,0,0,0,0,0,0,0,0,0,-1,727,967,0,0
-490,57,0,0,0,0,0,0,0,0,0,-1,734,967,0,0
-483,57,0,0,0,0,0,0,0,0,0,-1,741,967,0,0
-476,57,0,0,0,0,0,0,0,0,0,-1,748,967,0,0
-469,57,0,0,0,0,0,0,0,0,0,-1,755,967,0,0
-462,57,0,0,0,0,0,0,0,0,0,-1,762,967,0,0
-455,57,0,0,0,0,0,0,0,0,0,-1,769,967,0,0
-448,57,0,0,0,0,0,0,0,0,0,-1,776,967,0,0
-441,57,0,0,0,0,0,0,0,0,0,-1,783,967,0,0
-434,57,0,0,0,0,0,0,0,0,0,-1,790,967,0,0
-427,57,0,0,0,0,0,0,0,0,0,-1,797,967,0,0
-420,57,0,0,0,0,0,0,0,0,0,-1,804,967,0,0
-413,57,0,0,0,0,0,0,0,0,0,-1,811,967,0,0
-406,57,0,0,0,0,0,0,0,0,0,-1,818,967,0,0
-399,57,0,0,0,0,0,0,0,0,0,-1,825,967,0,0
-392,57,0,0,0,0,0,0,0,0,0,-1,832,967,0,0
-385,57,0,0,0,0,0,0,0,0,0,-1,839,967,0,0
-378,57,0,0,0,0,0,0,0,0,0,-1,846,967,0,0
-371,57,0,0,0,0,0,0,0,0,0,-1,853,967,0,0
-364,57,0,0,0,0,0,0,0,0,0,-1,860,967,0,0
-357,57,0,0,0,0,0,0,0,0,0,-1,867,967,0,0
-350,57,0,0,0,0,0,0,0,0,0,-1,874,967,0,0
-343,57,0,0,0,0,0,0,0,0,0,-1,881,967,0,0
-336,57,0,0,0,0,0,0,0,0,0,-1,888,967,0,0
-329,57,0,0,0,0,0,0,0,0,0,-1,895,967,0,0
-322,57,0,0,0,0,0,0,0,0,0,-1,902,967,0,0
-315,57,0,0,0,0,0,0,0,0,0,-1,909,967,0,0
-308,57,0,0,0,0,0,0,0,0,0,-1,916,967,0,0
-301,57,0,0,0,0,0,0,0,0,0,-1,923,967,0,0
-294,57,0,0,0,0,0,0,0,0,0,-1,930,967,0,0
-287,57,0,0,0,0,0,0,0,0,0,-1,937,967,0,0
-280,57,0,0,0,0,0,0,0,0,0,-1,944,967,0,0
-273,57,0,0,0,0,0,0,0,0,0,-1,951,967,0,0
-266,57,0,0,0,0,0,0,0,0,0,-1,958,967,0,0
-259,57,0,0,0,0,0,0,0,0,0,-1,965,967,0,0
-252,57,0,0,0,0,0,0,0,0,0,-1,972,967,0,0
-245,57,0,0,0,0,0,0,0,0,0,-1,979,967,0,0
-238,57,0,0,0,0,0,0,0,0,0,-1,986,967,0,0
-231,57,0,0,0,0,0,0,0,0,0,-1,993,967,0,0
-224,57,0,0,0,0,0,0,0,0,0,-1,1000,967,0,0
-217,57,0,0,0,0,0,0,0,0,0,-1,1007,967,0,0
-210,57,0,0,0,0,0,0,0,0,0,-1,1014,967,0,0
-203,57,0,0,0,0,0,0,0,0,0,-1,1021,967,0,0
-196,57,0,0,0,0,0,0,0,0,0,-1,1028,967,0,0
-189,57,0,0,0,0,0,0,0,0,0,-1,1035,967,0,0
-182,57,0,0,0,0,0,0,0,0,0,-1,1042,967,0,0
-175,57,0,0,0,0,0,0,0,0,0,-1,1049,967,0,0
-168,57,0,0,0,0,0,0,0,0,0,-1,1056,967,0,0
-161,57,0,0,0,0,0,0,0,0,0,-1,1063,967,0,0
-154,57,0,0,0,0,0,0,0,0,0,-1,1070,967,0,0
-147,57,0,0,0,0,0,0,0,0,0,-1,1077,967,0,0
-140,57,0,0,0,0,0,0,0,0,0,-1,1084,967,0,0
-133,57,0,0,0,0,0,0,0,0,0,-1,1091,967,0,0
-126,57,0,0,0,0,0,0,0,0,0,-1,1098,967,0,0
-119,57,0,0,0,0,0,0,0,0,0,-1,1105,967,0,0
-112,57,0,0,0,0,0,0,0,0,0,-1,1112,967,0,0
-105,57,0,0,0,0,0,0,0,0,0,-1,1119,967,0,0
-98,57,0,0,0,0,0,0,0,0,0,-1,1126,967,0,0
-91,57,0,0,0,0,0,0,0,0,0,-1,1133,967,0,0
-84,57,0,0,0,0,0,0,0,0,0,-1,1140,967,0,0
-77,57,0,0,0,0,0,0,0,0,0,-1,1147,967,0,0
-70,57,0,0,0,0,0,0,0,0,0,-1,1154,967,0,0
-63,57,0,0,0,0,0,0,0,0,0,-1,1161,967,0,0
-56,57,0,0,0,0,0,0,0,0,0,-1,1168,967,0,0
-49,57,0,0,0,0,0,0,0,0,0,-1,1175,967,0,0
-42,57,0,0,0,0,0,0,0,0,0,-1,1182,967,0,0
-35,57,0,0,0,0,0,0,0,0,0,-1,1189,967,0,0
-28,57,0,0,0,0,0,0,0,0,0,-1,1196,967,0,0
-21,57,0,0,0,0,0,0,0,0,0,-1,1203,967,0,0
-14,57,0,0,0,0,0,0,0,0,0,-1,1210,967,0,0
-7,57,0,0,0,0,0,0,0,0,0,-1,1217,967,0,0
0,57,0,0,0,0,0,0,0,0,0,-1,1224,967,0,0
7,57,0,0,0,0,0,0,0,0,0,-1,1231,967,0,0
14,57,0,0,0,0,0,0,0,0,0,-1,1238,967,0,0
21,57,0,0,0,0,0,0,0,0,0,-1,1245,967,0,0
28,57,0,0,0,0,0,0,0,0,0,-1,1252,967,0,0
35,57,0,0,0,0,0,0,0,0,0,-1,1259,967,0,0
42,57,0,0,0,0,0,0,0,0,0,-1,1266,967,0,0
49,57,0,0,0,0,0,0,0,0,0,-1,1273,967,0,0
56,57,0,0,0,0,0,0,0,0,0,-1,1280,967,0,0
63,57,0,0,0,0,0,0,0,0,0,-1,1287,967,0,0
70,57,0,0,0,0,0,0,0,0,0,-1,1294,967,0,0
77,57,0,0,0,0,0,0,0,0,0,-1,1301,967,0,0
84,57,0,0,0,0,0,0,0,0,0,-1,1308,967,0,0
91,57,0,0,0,0,0,0,0,0,0,-1,1315,967,0,0
98,57,0,0,0,0,0,0,0,0,0,-1,1322,967,0,0
105,57,0,0,0,0,0,0,0,0,0,-1,1329,967,0,0
112,57,0,0,0,0,0,0,0,0,0,-1,1336,967,0,0
119,57,0,0,0,0,0,0,0,0,0,-1,1343,967,0,0
126,57,0,0,0,0,0,0,0,0,0,-1,1350,967,0,0
133,57,0,0,0,0,0,0,0,0,0,-1,1357,967,0,0
140,57,0,0,0,0,0,0,0,0,0,-1,1364,967,0,0
147,57,0,0,0,0,0,0,0,0,0,-1,1371,967,0,0
154,57,0,0,0,0,0,0,0,0,0,-1,1378,967,0,0
161,57,0,0,0,0,0,0,0,0,0,-1,1385,967,0,0
168,57,0,0,0,0,0,0,0,0,0,-1,1392,967,0,0
175,57,0,0,0,0,0,0,0,0,0,-1,1399,967,0,0
182,57,0,0,0,0,0,0,0,0,0,-1,1406,967,0,0
189,57,0,0,0,0,0,0,0,0,0,-1,1413,967,0,0
196,57,0,0,0,0,0,0,0,0,0,-1,1420,967,0,0
203,57,0,0,0,0,0,0,0,0,0,-1,1427,967,0,0
210,57,0,0,0,0,0,0,0,0,0,-1,1434,967,0,0
217,57,0,0,0,0,0,0,0,0,0,-1,1441,967,0,0
224,57,0,0,0,0,0,0,0,0,0,-1,1448,967,0,0
231,57,0,0,0,0,0,0,0,0,0,-1,1455,967,0,0
238,57,0,0,0,0,0,0,0,0,0,-1,1462,967,0,0
245,57,0,0,0,0,0,0,0,0,0,-1,1469,967,0,0
252,57,0,0,0,0,0,0,0,0,0,-1,1476,967,0,0
259,57,0,0,0,0,0,0,0,0,0,-1,1483,967,0,0
266,57,0,0,0,0,0,0,0,0,0,-1,1490,967,0,0
273,57,0,0,0,0,0,0,0,0,0,-1,1497,967,0,0
280,57,0,0,0,0,0,0,0,0,0,-1,1504,967,0,0
287,57,0,0,0,0,0,0,0,0,0,-1,1511,967,0,0
294,57,0,0,0,0,0,0,0,0,0,-1,1518,967,0,0
301,57,0,0,0,0,0,0,0,0,0,-1,1525,967,0,0
308,57,0,0,0,0,0,0,0,0,0,-1,1532,967,0,0
315,57,0,0,0,0,0,0,0,0,0,-1,1539,967,0,0
322,57,0,0,0,0,0,0,0,0,0,-1,1546,967,0,0
329,57,0,0,0,0,0,0,0,0,0,-1,1553,967,0,0
336,57,0,0,0,0,0,0,0,0,0,-1,1560,967,0,0
343,57,0,0,0,0,0,0,0,0,0,-1,1567,967,0,0
350,57,0,0,0,0,0,0,0,0,0,-1,1574,967,0,0
357,57,0,0,0,0,0,0,0,0,0,-1,1581,967,0,0
364,57,0,0,0,0,0,0,0,0,0,-1,1588,967,0,0
371,57,0,0,0,0,0,0,0,0,0,-1,1595,967,0,0
378,57,0,0,0,0,0,0,0,0,0,-1,1602,967,0,0
385,57,0,0,0,0,0,0,0,0,0,-1,1609,967,0,0
392,57,0,0,0,0,0,0,0,0,0,-1,1616,967,0,0
399,57,0,0,0,0,0,0,0,0,0,-1,1623,967,0,0
406,57,0,0,0,0,0,0,0,0,0,-1,1630,967,0,0
413,57,0,0,0,0,0,0,0,0,0,-1,1637,967,0,0
420,57,0,0,0,0,0,0,0,0,0,-1,1644,967,0,0
427,57,0,0,0,0,0,0,0,0,0,-1,1651,967,0,0
434,57,0,0,0,0,0,0,0,0,0,-1,1658,967,0,0
441,57,0,0,0,0,0,0,0,0,0,-1,1665,967,0,0
448,57,0,0,0,0,0,0,0,0,0,-1,1672,967,0,0
455,57,0,0,0,0,0,0,0,0,0,-1,1679,967,0,0
462,57,0,0,0,0,0,0,0,0,0,-1,1686,967,0,0
469,57,0,0,0,0,0,0,0,0,0,-1,1693,967,0,0
476,57,0,0,0,0,0,0,0,0,0,-1,1700,967,0,0
483,57,0,0,0,0,0,0,0,0,0,-1,1707,967,0,0
490,57,0,0,0,0,0,0,0,0,0,-1,1714,967,0,0
497,57,0,0,0,0,0,0,0,0,0,-1,1721,967,0,0
504,57,0,0,0,0,0,0,0,0,0,-1,1728,967,0,0
511,57,0,0,0,0,0,0,0,0,0,-1,1735,967,0,0
518,57,0,0,0,0,0,0,0,0,0,-1,1742,967,0,0
525,57,0,0,0,0,0,0,0,0,0,-1,1749,967,0,0
532,57,0,0,0,0,0,0,0,0,0,-1,1756,967,0,0
539,57,0,0,0,0,0,0,0,0,0,-1,1763,967,0,0
546,57,0,0,0,0,0,0,0,0,0,-1,1770,967,0,0
553,57,0,0,0,0,0,0,0,0,0,-1,1777,967,0,0
560,57,0,0,0,0,0,0,0,0,0,-1,1784,967,0,0
567,57,0,0,0,0,0,0,0,0,0,-1,1791,967,0,0
574,57,0,0,0,0,0,0,0,0,0,-1,1798,967,0,0
581,57,0,0,0,0,0,0,0,0,0,-1,1805,967,0,0
588,57,0,0,0,0,0,0,0,0,0,-1,1812,967,0,0
595,57,0,0,0,0,0,0,0,0,0,-1,1819,967,0,0
602,57,0,0,0,0,0,0,0,0,0,-1,1826,967,0,0
609,57,0,0,0,0,0,0,0,0,0,-1,1833,967,0,0
616,57,0,0,0,0,0,0,0,0,0,-1,1840,967,0,0
623,57,0,0,0,0,0,0,0,0,0,-1,1847,967,0,0
630,57,0,0,0,0,0,0,0,0,0,-1,1854,967,0,0
637,57,0,0,0,0,0,0,0,0,0,-1,1861,967,0,0
644,57,80.6509,2.3396,-0.00333399,-0.000610759,-0.0014704,3.16438e-05,-0.00397639,-1.1589,0.00266154,0.0414517,1868,967,80.6509,-2.33961
651,57,80.7781,2.23328,-0.00237839,-0.000827668,-0.000741193,-0.000530391,-0.00267567,-1.18936,0.0016359,0.0359453,1875,967,80.7781,-2.23325
658,57,80.8353,2.22339,-0.00157083,-0.000901793,-0.000377338,-0.000732043,-0.00174058,-1.14806,0.00100914,0.0350305,1882,967,80.8353,-2.22341
665,57,80.7317,2.32233,-0.000814706,-0.000902542,-0.000328719,-0.000526985,-0.00119026,-0.718989,0.000688699,0.0405617,1889,967,80.7317,-2.32232
672,57,80.7058,2.35199,-0.000428241,-0.00097436,-0.000353543,-0.000254586,-0.00114802,-0.456572,0.000696175,0.0425477,1896,967,80.7058,-2.35199
679,57,80.6816,2.34802,-0.000299936,-0.00132544,-0.000264195,-0.000235875,-0.0013895,-0.237887,0.000858576,0.0400702,1903,967,80.6816,-2.34805
686,57,80.6215,2.13574,-0.000188731,-0.00180551,-0.000356634,-0.000113559,-0.00188069,-0.207742,0.0012177,0.036716,1910,967,80.6215,-2.13577
693,57,80.6786,2.09906,-0.00030282,-0.00212384,-0.000466243,-0.000190389,-0.00223628,-0.236627,0.00143161,0.0317597,1917,967,80.6785,-2.09908
700,57,80.7159,2.1308,-0.000847613,-0.00204847,-0.000643597,-0.000567852,-0.00232823,-0.410043,0.00140175,0.0263898,1924,967,80.716,-2.13077
707,57,80.8428,2.20123,0,0,0,0,0,0,0,-1,1931,967,80.8428,-2.20123
714,57,76.8607,2.55151,0,0,0,0,0,0,0,-1,1938,967,76.8607,-2.55154
721,57,79.2573,5.93408,0,0,0,0,0,0,0,-1,1945,967,79.2574,-5.93411
728,57,78.9836,6.48425,-0.00366703,0.00230272,-0.00238662,0.00313955,-0.00450386,-1.23356,0.0044363,0.0272515,1952,967,78.9837,-6.48424
735,57,78.975,7.01709,-0.00339146,0.00413927,-0.00271279,0.00501472,-0.00426691,-1.25863,0.00536455,0.0366049,1959,967,78.975,-7.01708
742,57,79.0245,7.3266,-0.00375703,0.00651437,-0.00329849,0.00748239,-0.00472505,-1.28534,0.00710765,0.0258444,1966,967,79.0245,-7.32661
749,57,78.9382,7.82501,-0.00348986,0.0104132,-0.00457108,0.0117815,-0.00485809,-1.27996,0.00988016,0.0160616,1973,967,78.9382,-7.82502
756,57,78.8682,8.27332,-0.00214965,0.0160493,-0.00629795,0.0180162,-0.00411655,-1.26809,0.0135924,0.0130348,1980,967,78.8682,-8.27334
763,57,78.7478,8.70148,0.000553799,0.0237649,-0.00862662,0.0266199,-0.0023012,-1.25119,0.0185613,0.0146223,1987,967,78.7478,-8.7015
770,57,78.5574,9.07104,0.00467452,0.0326867,-0.0115874,0.0368586,0.000502646,-1.22521,0.0244066,0.0144956,1994,967,78.5573,-9.07106
777,57,78.4207,9.40515,0.00934321,0.0428708,-0.0152534,0.0487718,0.00344225,-1.20167,0.03143,0.0277082,2001,967,78.4207,-9.40514
784,57,79.1018,9.66394,0.0150584,0.0549686,-0.0199993,0.0632656,0.00676144,-1.17754,0.0401136,0.0453733,2008,967,79.1019,-9.66395
791,57,79.6699,10.0611,0,0,0,0,0,0,0,-1,2015,967,79.67,-10.0611
798,57,77.2507,10.8243,0,0,0,0,0,0,0,-1,2022,967,77.2508,-10.8243
805,57,79.8223,8.00629,0,0,0,0,0,0,0,-1,2029,967,79.8223,-8.00626
812,57,0,0,0,0,0,0,0,0,0,-1,2036,967,0,0
-700,50,0,0,0,0,0,0,0,0,0,-1,524,974,0,0
-693,50,-65.9845,-6.53326,0,0,0,0,0,0,0,-1,531,974,-65.9845,6.53325
-686,50,-65.5759,-6.00989,0,0,0,0,0,0,0,-1,538,974,-65.5759,6.00987
-679,50,-65.1673,-5.48651,0,0,0,0,0,0,0,-1,545,974,-65.1673,5.48648
-672,50,-62.6164,4.36829,0,0,0,0,0,0,0,-1,552,974,-62.6164,-4.36826
-665,50,-60.8032,4.2865,0,0,0,0,0,0,0,-1,559,974,-60.8032,-4.28652
-658,50,-62.2433,8.87628,0,0,0,0,0,0,0,-1,566,974,-62.2433,-8.87625
-651,50,-62.7964,9.04657,0,0,0,0,0,0,0,-1,573,974,-62.7965,-9.04657
-644,50,-63.054,8.67334,0.00046637,-0.0295507,0.0146378,0.00642257,-0.0355069,0.386446,0.0260771,0.0361353,580,974,-63.0539,-8.67333
-637,50,-63.2528,8.30408,-0.00165132,-0.0121811,0.0116048,0.00582703,-0.0196595,0.572442,0.0154201,0.0196439,587,974,-63.2528,-8.30409
-630,50,-63.3739,7.97644,-0.00449178,0.00241129,0.00902644,0.00862359,-0.0107041,0.968011,0.0111804,0.0119511,594,974,-63.3739,-7.97644
-623,50,-63.4178,7.65387,-0.00563891,0.0100568,0.0069957,0.0127222,-0.00830431,1.20677,0.0122287,0.0140734,601,974,-63.4178,-7.65384
-616,50,-63.4182,7.27252,-0.00450002,0.00905007,0.00585222,0.0112277,-0.00667761,1.21457,0.0104483,0.0152028,608,974,-63.4181,-7.27252
-609,50,-63.437,6.79651,-0.00358004,0.00701941,0.00503424,0.00902932,-0.00558994,1.19094,0.00851794,0.0133257,615,974,-63.4369,-6.7965
-602,50,-63.4315,6.33313,-0.00294878,0.00407475,0.00428072,0.00609987,-0.0049739,1.12892,0.00640445,0.0132451,622,974,-63.4315,-6.33312
-595,50,-63.4692,5.91223,-0.00242116,0.00207461,0.00374702,0.0041963,-0.00454285,1.05558,0.00504687,0.0208509,629,974,-63.4692,-5.91224
-588,50,-63.4528,5.24951,-0.00164736,0.000243482,0.003292,0.00272313,-0.00412701,0.925229,0.00398252,0.0390041,636,974,-63.4528,-5.24954
-581,50,-63.3801,4.25934,0,0,0,0,0,0,0,-1,643,974,-63.3801,-4.25935
-574,50,-63.8904,0.232788,-0.000686204,-0.00147588,0.00171658,0.000680365,-0.00284245,0.672357,0.00215781,0.0278991,650,974,-63.8904,-0.232797
-567,50,-63.9067,0.330078,-0.000188745,-0.00157227,0.00111944,0.000435426,-0.00219644,0.50864,0.00162895,0.0368657,657,974,-63.9067,-0.330061
-560,50,-63.7156,0.286255,0.000310559,-0.00119507,0.000471716,0.000446139,-0.00133065,0.279875,0.00106736,0.0435661,664,974,-63.7157,-0.286281
-553,50,-63.7183,0.295654,0.000936356,-0.000316825,-0.000283927,0.000997683,-0.000378152,-0.212727,0.000820743,0.0407985,671,974,-63.7183,-0.29565
-546,50,-63.8232,0.348816,0.00184269,0.000972881,-0.00116307,0.00264951,0.000166062,-0.606483,0.00171367,0.0402419,678,974,-63.8232,-0.348819
-539,50,-63.7389,0.472595,0.00282362,0.00240351,-0.00226893,0.0048922,0.000334926,-0.739241,0.00315575,0.0439412,685,974,-63.7389,-0.472622
-532,50,-63.7639,0.46637,0.00425769,0.00433482,-0.00347336,0.00776984,0.000822677,-0.79095,0.0049286,0.0438493,692,974,-63.7639,-0.46635
-525,50,-63.6711,0.139099,0.00560399,0.00670259,-0.00490107,0.011085,0.00122154,-0.841204,0.00701837,0.0427836,699,974,-63.6712,-0.139078
-518,50,0,0,0,0,0,0,0,0,0,-1,706,974,0,0
-511,50,0,0,0,0,0,0,0,0,0,-1,713,974,0,0
-504,50,0,0,0,0,0,0,0,0,0,-1,720,974,0,0
-497,50,0,0,0,0,0,0,0,0,0,-1,727,974,0,0
-490,50,0,0,0,0,0,0,0,0,0,-1,734,974,0,0
-483,50,0,0,0,0,0,0,0,0,0,-1,741,974,0,0
-476,50,0,0,0,0,0,0,0,0,0,-1,748,974,0,0
-469,50,0,0,0,0,0,0,0,0,0,-1,755,974,0,0
-462,50,0,0,0,0,0,0,0,0,0,-1,762,974,0,0
-455,50,0,0,0,0,0,0,0,0,0,-1,769,974,0,0
-448,50,0,0,0,0,0,0,0,0,0,-1,776,974,0,0
-441,50,0,0,0,0,0,0,0,0,0,-1,783,974,0,0
-434,50,0,0,0,0,0,0,0,0,0,-1,790,974,0,0
-427,50,0,0,0,0,0,0,0,0,0,-1,797,974,0,0
-420,50,0,0,0,0,0,0,0,0,0,-1,804,974,0,0
-413,50,0,0,0,0,0,0,0,0,0,-1,811,974,0,0
-406,50,0,0,0,0,0,0,0,0,0,-1,818,974,0,0
-399,50,0,0,0,0,0,0,0,0,0,-1,825,974,0,0
-392,50,0,0,0,0,0,0,0,0,0,-1,832,974,0,0
-385,50,0,0,0,0,0,0,0,0,0,-1,839,974,0,0
-378,50,0,0,0,0,0,0,0,0,0,-1,846,974,0,0
-371,50,0,0,0,0,0,0,0,0,0,-1,853,974,0,0
-364,50,0,0,0,0,0,0,0,0,0,-1,860,974,0,0
-357,50,0,0,0,0,0,0,0,0,0,-1,867,974,0,0
-350,50,0,0,0,0,0,0,0,0,0,-1,874,974,0,0
-343,50,0,0,0,0,0,0,0,0,0,-1,881,974,0,0
-336,50,0,0,0,0,0,0,0,0,0,-1,888,974,0,0
-329,50,0,0,0,0,0,0,0,0,0,-1,895,974,0,0
-322,50,0,0,0,0,0,0,0,0,0,-1,902,974,0,0
-315,50,0,0,0,0,0,0,0,0,0,-1,909,974,0,0
-308,50,0,0,0,0,0,0,0,0,0,-1,916,974,0,0
-301,50,0,0,0,0,0,0,0,0,0,-1,923,974,0,0
-294,50,0,0,0,0,0,0,0,0,0,-1,930,974,0,0
-287,50,0,0,0,0,0,0,0,0,0,-1,937,974,0,0
-280,50,0,0,0,0,0,0,0,0,0,-1,944,974,0,0
-273,50,0,0,0,0,0,0,0,0,0,-1,951,974,0,0
-266,50,0,0,0,0,0,0,0,0,0,-1,958,974,0,0
-259,50,0,0,0,0,0,0,0,0,0,-1,965,974,0,0
-252,50,0,0,0,0,0,0,0,0,0,-1,972,974,0,0
-245,50,0,0,0,0,0,0,0,0,0,-1,979,974,0,0
-238,50,0,0,0,0,0,0,0,0,0,-1,986,974,0,0
-231,50,0,0,0,0,0,0,0,0,0,-1,993,974,0,0
-224,50,0,0,0,0,0,0,0,0,0,-1,1000,974,0,0
-217,50,0,0,0,0,0,0,0,0,0,-1,1007,974,0,0
-210,50,0,0,0,0,0,0,0,0,0,-1,1014,974,0,0
-203,50,0,0,0,0,0,0,0,0,0,-1,1021,974,0,0
-196,50,0,0,0,0,0,0,0,0,0,-1,1028,974,0,0
-189,50,0,0,0,0,0,0,0,0,0,-1,1035,974,0,0
-182,50,0,0,0,0,0,0,0,0,0,-1,1042,974,0,0
-175,50,0,0,0,0,0,0,0,0,0,-1,1049,974,0,0
-168,50,0,0,0,0,0,0,0,0,0,-1,1056,974,0,0
-161,50,0,0,0,0,0,0,0,0,0,-1,1063,974,0,0
-154,50,0,0,0,0,0,0,0,0,0,-1,1070,974,0,0
-147,50,0,0,0,0,0,0,0,0,0,-1,1077,974,0,0
-140,50,0,0,0,0,0,0,0,0,0,-1,1084,974,0,0
-133,50,0,0,0,0,0,0,0,0,0,-1,1091,974,0,0
-126,50,0,0,0,0,0,0,0,0,0,-1,1098,974,0,0
-119,50,0,0,0,0,0,0,0,0,0,-1,1105,974,0,0
-112,50,0,0,0,0,0,0,0,0,0,-1,1112,974,0,0
-105,50,0,0,0,0,0,0,0,0,0,-1,1119,974,0,0
-98,50,0,0,0,0,0,0,0,0,0,-1,1126,974,0,0
-91,50,0,0,0,0,0,0,0,0,0,-1,1133,974,0,0
-84,50,0,0,0,0,0,0,0,0,0,-1,1140,974,0,0
-77,50,0,0,0,0,0,0,0,0,0,-1,1147,974,0,0
-70,50,0,0,0,0,0,0,0,0,0,-1,1154,974,0,0
-63,50,0,0,0,0,0,0,0,0,0,-1,1161,974,0,0
-56,50,0,0,0,0,0,0,0,0,0,-1,1168,974,0,0
-49,50,0,0,0,0,0,0,0,0,0,-1,1175,974,0,0
-42,50,0,0,0,0,0,0,0,0,0,-1,1182,974,0,0
-35,50,0,0,0,0,0,0,0,0,0,-1,1189,974,0,0
-28,50,0,0,0,0,0,0,0,0,0,-1,1196,974,0,0
-21,50,0,0,0,0,0,0,0,0,0,-1,1203,974,0,0
-14,50,0,0,0,0,0,0,0,0,0,-1,1210,974,0,0
-7,50,0,0,0,0,0,0,0,0,0,-1,1217,974,0,0
0,50,0,0,0,0,0,0,0,0,0,-1,1224,974,0,0
7,50,0,0,0,0,0,0,0,0,0,-1,1231,974,0,0
14,50,0,0,0,0,0,0,0,0,0,-1,1238,974,0,0
21,50,0,0,0,0,0,0,0,0,0,-1,1245,974,0,0
28,50,0,0,0,0,0,0,0,0,0,-1,1252,974,0,0
35,50,0,0,0,0,0,0,0,0,0,-1,1259,974,0,0
42,50,0,0,0,0,0,0,0,0,0,-1,1266,974,0,0
49,50,0,0,0,0,0,0,0,0,0,-1,1273,974,0,0
56,50,0,0,0,0,0,0,0,0,0,-1,1280,974,0,0
63,50,0,0,0,0,0,0,0,0,0,-1,1287,974,0,0
70,50,0,0,0,0,0,0,0,0,0,-1,1294,974,0,0
77,50,0,0,0,0,0,0,0,0,0,-1,1301,974,0,0
84,50,0,0,0,0,0,0,0,0,0,-1,1308,974,0,0
91,50,0,0,0,0,0,0,0,0,0,-1,1315,974,0,0
98,50,0,0,0,0,0,0,0,0,0,-1,1322,974,0,0
105,50,0,0,0,0,0,0,0,0,0,-1,1329,974,0,0
112,50,0,0,0,0,0,0,0,0,0,-1,1336,974,0,0
119,50,0,0,0,0,0,0,0,0,0,-1,1343,974,0,0
126,50,0,0,0,0,0,0,0,0,0,-1,1350,974,0,0
133,50,0,0,0,0,0,0,0,0,0,-1,1357,974,0,0
140,50,0,0,0,0,0,0,0,0,0,-1,1364,974,0,0
147,50,0,0,0,0,0,0,0,0,0,-1,1371,974,0,0
154,50,0,0,0,0,0,0,0,0,0,-1,1378,974,0,0
161,50,0,0,0,0,0,0,0,0,0,-1,1385,974,0,0
168,50,0,0,0,0,0,0,0,0,0,-1,1392,974,0,0
175,50,0,0,0,0,0,0,0,0,0,-1,1399,974,0,0
182,50,0,0,0,0,0,0,0,0,0,-1,1406,974,0,0
189,50,0,0,0,0,0,0,0,0,0,-1,1413,974,0,0
196,50,0,0,0,0,0,0,0,0,0,-1,1420,974,0,0
203,50,0,0,0,0,0,0,0,0,0,-1,1427,974,0,0
210,50,0,0,0,0,0,0,0,0,0,-1,1434,974,0,0
217,50,0,0,0,0,0,0,0,0,0,-1,1441,974,0,0
224,50,0,0,0,0,0,0,0,0,0,-1,1448,974,0,0
231,50,0,0,0,0,0,0,0,0,0,-1,1455,974,0,0
238,50,0,0,0,0,0,0,0,0,0,-1,1462,974,0,0
245,50,0,0,0,0,0,0,0,0,0,-1,1469,974,0,0
252,50,0,0,0,0,0,0,0,0,0,-1,1476,974,0,0
259,50,0,0,0,0,0,0,0,0,0,-1,1483,974,0,0
266,50,0,0,0,0,0,0,0,0,0,-1,1490,974,0,0
273,50,0,0,0,0,0,0,0,0,0,-1,1497,974,0,0
280,50,0,0,0,0,0,0,0,0,0,-1,1504,974,0,0
287,50,0,0,0,0,0,0,0,0,0,-1,1511,974,0,0
294,50,0,0,0,0,0,0,0,0,0,-1,1518,974,0,0
301,50,0,0,0,0,0,0,0,0,0,-1,1525,974,0,0
308,50,0,0,0,0,0,0,0,0,0,-1,1532,974,0,0
315,50,0,0,0,0,0,0,0,0,0,-1,1539,974,0,0
322,50,0,0,0,0,0,0,0,0,0,-1,1546,974,0,0
329,50,0,0,0,0,0,0,0,0,0,-1,1553,974,0,0
336,50,0,0,0,0,0,0,0,0,0,-1,1560,974,0,0
343,50,0,0,0,0,0,0,0,0,0,-1,1567,974,0,0
350,50,0,0,0,0,0,0,0,0,0,-1,1574,974,0,0
357,50,0,0,0,0,0,0,0,0,0,-1,1581,974,0,0
364,50,0,0,0,0,0,0,0,0,0,-1,1588,974,0,0
371,50,0,0,0,0,0,0,0,0,0,-1,1595,974,0,0
378,50,0,0,0,0,0,0,0,0,0,-1,1602,974,0,0
385,50,0,0,0,0,0,0,0,0,0,-1,1609,974,0,0
392,50,0,0,0,0,0,0,0,0,0,-1,1616,974,0,0
399,50,0,0,0,0,0,0,0,0,0,-1,1623,974,0,0
406,50,0,0,0,0,0,0,0,0,0,-1,1630,974,0,0
413,50,0,0,0,0,0,0,0,0,0,-1,1637,974,0,0
420,50,0,0,0,0,0,0,0,0,0,-1,1644,974,0,0
427,50,0,0,0,0,0,0,0,0,0,-1,1651,974,0,0
434,50,0,0,0,0,0,0,0,0,0,-1,1658,974,0,0
441,50,0,0,0,0,0,0,0,0,0,-1,1665,974,0,0
448,50,0,0,0,0,0,0,0,0,0,-1,1672,974,0,0
455,50,0,0,0,0,0,0,0,0,0,-1,1679,974,0,0
462,50,0,0,0,0,0,0,0,0,0,-1,1686,974,0,0
469,50,0,0,0,0,0,0,0,0,0,-1,1693,974,0,0
476,50,0,0,0,0,0,0,0,0,0,-1,1700,974,0,0
483,50,0,0,0,0,0,0,0,0,0,-1,1707,974,0,0
490,50,0,0,0,0,0,0,0,0,0,-1,1714,974,0,0
497,50,0,0,0,0,0,0,0,0,0,-1,1721,974,0,0
504,50,0,0,0,0,0,0,0,0,0,-1,1728,974,0,0
511,50,0,0,0,0,0,0,0,0,0,-1,1735,974,0,0
518,50,0,0,0,0,0,0,0,0,0,-1,1742,974,0,0
525,50,0,0,0,0,0,0,0,0,0,-1,1749,974,0,0
532,50,0,0,0,0,0,0,0,0,0,-1,1756,974,0,0
539,50,0,0,0,0,0,0,0,0,0,-1,1763,974,0,0
546,50,0,0,0,0,0,0,0,0,0,-1,1770,974,0,0
553,50,0,0,0,0,0,0,0,0,0,-1,1777,974,0,0
560,50,0,0,0,0,0,0,0,0,0,-1,1784,974,0,0
567,50,0,0,0,0,0,0,0,0,0,-1,1791,974,0,0
574,50,0,0,0,0,0,0,0,0,0,-1,1798,974,0,0
581,50,0,0,0,0,0,0,0,0,0,-1,1805,974,0,0
588,50,0,0,0,0,0,0,0,0,0,-1,1812,974,0,0
595,50,0,0,0,0,0,0,0,0,0,-1,1819,974,0,0
602,50,0,0,0,0,0,0,0,0,0,-1,1826,974,0,0
609,50,0,0,0,0,0,0,0,0,0,-1,1833,974,0,0
616,50,0,0,0,0,0,0,0,0,0,-1,1840,974,0,0
623,50,0,0,0,0,0,0,0,0,0,-1,1847,974,0,0
630,50,0,0,0,0,0,0,0,0,0,-1,1854,974,0,0
637,50,0,0,0,0,0,0,0,0,0,-1,1861,974,0,0
644,50,80.7673,2.5025,-0.0021275,-0.00139342,-0.00109926,-0.000601537,-0.00291938,-0.946525,0.00177995,0.0374996,1868,974,80.7674,-2.50248
651,50,80.8125,2.26868,-0.0015687,-0.00125493,-0.00053496,-0.000854328,-0.00196931,-0.928033,0.0011403,0.0303014,1875,974,80.8125,-2.26867
658,50,80.775,2.27209,-0.00106382,-0.00110788,-0.000296733,-0.000788299,-0.0013834,-0.748347,0.000801298,0.0361257,1882,974,80.775,-2.27209
665,50,80.751,2.23309,-0.000543456,-0.000953701,-0.000360685,-0.000333646,-0.00116351,-0.526853,0.000691818,0.0413688,1889,974,80.751,-2.23311
672,50,80.6917,2.14423,-0.000268843,-0.000871658,-0.000479038,-4.27919e-06,-0.00113622,-0.504594,0.000756059,0.0398855,1896,974,80.6917,-2.14424
679,50,80.6327,2.27856,-0.000150264,-0.00109173,-0.000446855,2.80562e-05,-0.00127005,-0.379692,0.000856203,0.038591,1903,974,80.6327,-2.27858
686,50,80.6455,2.18744,-1.81743e-05,-0.00152328,-0.000509006,0.000137801,-0.00167925,-0.297347,0.00116815,0.0408348,1910,974,80.6455,-2.18741
693,50,80.698,2.08783,-0.000101702,-0.00188577,-0.000584413,7.26894e-05,-0.00206016,-0.289993,0.0013983,0.0403753,1917,974,80.698,-2.08785
700,50,80.6582,2.18945,-0.000591508,-0.00187441,-0.000741793,-0.000252288,-0.00221363,-0.428906,0.00139926,0.0228032,1924,974,80.6582,-2.18948
707,50,80.7279,2.11871,-0.00130938,-0.00130891,-0.00107928,-0.000229868,-0.00238842,-0.785507,0.00152146,0.0355579,1931,974,80.7279,-2.11873
714,50,80.6853,2.0235,0,0,0,0,0,0,0,-1,1938,974,80.6853,-2.02349
721,50,79.5568,6.03558,0,0,0,0,0,0,0,-1,1945,974,79.5568,-6.03557
728,50,79.5587,6.49622,-0.00365853,0.00256358,-0.00230906,0.00332685,-0.0044218,-1.25155,0.00448855,0.0218025,1952,974,79.5587,-6.4962
735,50,79.5673,6.99976,-0.0034817,0.00445587,-0.00267296,0.00527205,-0.00429788,-1.27444,0.00553474,0.025315,1959,974,79.5672,-6.99978
742,50,79.541,7.44543,-0.00409739,0.00684533,-0.00327531,0.00775076,-0.00500282,-1.30109,0.00742003,0.0187973,1966,974,79.5411,-7.44543
749,50,79.4509,7.74695,-0.00406462,0.0107393,-0.00472036,0.0121164,-0.00544165,-1.28695,0.0103784,0.0174808,1973,974,79.451,-7.74692
756,50,79.3562,8.14612,-0.00322409,0.0163531,-0.00661634,0.0183794,-0.00525043,-1.2736,0.0143274,0.0149801,1980,974,79.3561,-8.14612
763,50,79.2297,8.55029,-0.00115797,0.0241841,-0.00932852,0.0272476,-0.0042215,-1.25349,0.0197234,0.015338,1987,974,79.2297,-8.55027
770,50,79.0879,8.90741,0.00249382,0.0335455,-0.0129855,0.0382601,-0.00222079,-1.22253,0.0262783,0.0145697,1994,974,79.088,-8.90742
777,50,79.0398,9.29523,0.00675359,0.0442557,-0.0175378,0.051179,-0.000169784,-1.19481,0.0341761,0.024879,2001,974,79.0397,-9.29522
784,50,79.6653,9.41919,0.0119331,0.0568842,-0.0233823,0.0668414,0.0019759,-1.16821,0.0439171,0.0413437,2008,974,79.6652,-9.41916
791,50,80.1724,9.66718,0,0,0,0,0,0,0,-1,2015,974,80.1724,-9.66717
798,50,80.2859,8.0625,0,0,0,0,0,0,0,-1,2022,974,80.286,-8.06249
805,50,80.1882,7.09143,0,0,0,0,0,0,0,-1,2029,974,80.1883,-7.09146
812,50,0,0,0,0,0,0,0,0,0,-1,2036,974,0,0
-700,43,0,0,0,0,0,0,0,0,0,-1,524,981,0,0
-693,43,-65.7174,-5.29492,0.0376646,-0.186748,0.0375977,0.0437962,-0.192879,0.16166,0.1454,0.0451662,531,981,-65.7174,5.29493
-686,43,-65.7224,-4.505,0.028128,-0.165383,0.0341237,0.033969,-0.171224,0.16953,0.126996,0.0432971,538,981,-65.7224,4.50498
-679,43,-65.8232,-3.94873,0.0194223,-0.139747,0.0307424,0.0251536,-0.145479,0.184314,0.106366,0.0451817,545,981,-65.8232,3.94874
-672,43,-65.9372,-3.55304,0,0,0,0,0,0,0,-1,552,981,-65.9371,3.55305
-665,43,-66.1105,-4.43768,0,0,0,0,0,0,0,-1,559,981,-66.1105,4.43767
-658,43,-62.5038,8.5155,0,0,0,0,0,0,0,-1,566,981,-62.5038,-8.51547
-651,43,-63.5518,8.77612,0,0,0,0,0,0,0,-1,573,981,-63.5518,-8.77614
-644,43,-63.4996,8.48627,-0.00248676,-0.0317591,0.0145308,0.00350133,-0.0377472,0.390892,0.0264094,0.0279646,580,981,-63.4996,-8.48629
-637,43,-63.7247,8.09503,-0.00393288,-0.0141503,0.0114216,0.00347046,-0.0215537,0.575101,0.0156547,0.0198591,587,981,-63.7247,-8.09506
-630,43,-63.7992,7.83868,-0.00608454,0.000868795,0.00871258,0.00677276,-0.0119885,0.975237,0.0109705,0.0149266,594,981,-63.7992,-7.83866
-623,43,-63.8436,7.55573,-0.00679915,0.00917761,0.00655137,0.0115205,-0.00914202,1.22735,0.0119558,0.0137472,601,981,-63.8435,-7.55571
-616,43,-63.8648,7.17529,-0.00551173,0.00873953,0.0054202,0.0105667,-0.00733893,1.24565,0.0103937,0.0139439,608,981,-63.8648,-7.1753
-609,43,-63.8622,6.77759,-0.00448819,0.00710459,0.00466664,0.00874968,-0.00613328,1.23188,0.00863683,0.0154945,615,981,-63.8622,-6.77761
-602,43,-63.821,6.4173,-0.00380617,0.00421689,0.00401917,0.00588392,-0.00547321,1.17762,0.00655847,0.0186808,622,981,-63.821,-6.41732
-595,43,-64.0201,6.09229,-0.003245,0.00221463,0.003553,0.00396541,-0.00499578,1.11296,0.00518513,0.0216725,629,981,-64.0201,-6.0923
-588,43,-64.3768,5.9024,0,0,0,0,0,0,0,-1,636,981,-64.3768,-5.90238
-581,43,-63.8969,0.296936,0,0,0,0,0,0,0,-1,643,981,-63.8969,-0.296933
-574,43,-63.8687,0.28717,-0.00118509,-0.00145943,0.00157369,0.000257398,-0.00290192,0.741926,0.00202587,0.0292355,650,981,-63.8687,-0.287167
-567,43,-63.8436,0.209717,-0.000596689,-0.00158444,0.000963482,-7.87829e-06,-0.00217325,0.548562,0.00144622,0.0379662,657,981,-63.8436,-0.20973
-560,43,-63.871,0.547791,8.37504e-05,-0.00119666,0.000283966,0.000143902,-0.00125681,0.20874,0.00088973,0.0413628,664,981,-63.871,-0.547767
-553,43,-63.9003,0.518738,0.000930728,-0.00033191,-0.000550323,0.00113692,-0.000538098,-0.35848,0.000987455,0.0399324,671,981,-63.9003,-0.518723
-546,43,-63.905,0.418396,0.00211163,0.000886651,-0.00155733,0.00317259,-0.000174308,-0.598042,0.00217549,0.0430259,678,981,-63.905,-0.418417
-539,43,-63.6281,0.481567,0.00335191,0.0021643,-0.00282481,0.00564465,-0.000128437,-0.681801,0.00380664,0.0484452,685,981,-63.6281,-0.481539
-532,43,-63.6241,0.373718,0.00505829,0.0039849,-0.00414084,0.00869707,0.00034612,-0.720953,0.00568618,0.0456728,692,981,-63.6241,-0.373711
-525,43,-63.5991,0.275085,0.00668502,0.00628534,-0.00572593,0.0122146,0.000755762,-0.767954,0.0079032,0.0419421,699,981,-63.5991,-0.27509
-518,43,0,0,0,0,0,0,0,0,0,-1,706,981,0,0
-511,43,0,0,0,0,0,0,0,0,0,-1,713,981,0,0
-504,43,0,0,0,0,0,0,0,0,0,-1,720,981,0,0
-497,43,0,0,0,0,0,0,0,0,0,-1,727,981,0,0
-490,43,0,0,0,0,0,0,0,0,0,-1,734,981,0,0
-483,43,0,0,0,0,0,0,0,0,0,-1,741,981,0,0
-476,43,0,0,0,0,0,0,0,0,0,-1,748,981,0,0
-469,43,0,0,0,0,0,0,0,0,0,-1,755,981,0,0
-462,43,0,0,0,0,0,0,0,0,0,-1,762,981,0,0
-455,43,0,0,0,0,0,0,0,0,0,-1,769,981,0,0
-448,43,0,0,0,0,0,0,0,0,0,-1,776,981,0,0
-441,43,0,0,0,0,0,0,0,0,0,-1,783,981,0,0
-434,43,0,0,0,0,0,0,0,0,0,-1,790,981,0,0
-427,43,0,0,0,0,0,0,0,0,0,-1,797,981,0,0
-420,43,0,0,0,0,0,0,0,0,0,-1,804,981,0,0
-413,43,0,0,0,0,0,0,0,0,0,-1,811,981,0,0
-406,43,0,0,0,0,0,0,0,0,0,-1,818,981,0,0
-399,43,0,0,0,0,0,0,0,0,0,-1,825,981,0,0
-392,43,0,0,0,0,0,0,0,0,0,-1,832,981,0,0
-385,43,0,0,0,0,0,0,0,0,0,-1,839,981,0,0
-378,43,0,0,0,0,0,0,0,0,0,-1,846,981,0,0
-371,43,0,0,0,0,0,0,0,0,0,-1,853,981,0,0
-364,43,0,0,0,0,0,0,0,0,0,-1,860,981,0,0
-357,43,0,0,0,0,0,0,0,0,0,-1,867,981,0,0
-350,43,0,0,0,0,0,0,0,0,0,-1,874,981,0,0
-343,43,0,0,0,0,0,0,0,0,0,-1,881,981,0,0
-336,43,0,0,0,0,0,0,0,0,0,-1,888,981,0,0
-329,43,0,0,0,0,0,0,0,0,0,-1,895,981,0,0
-322,43,0,0,0,0,0,0,0,0,0,-1,902,981,0,0
-315,43,0,0,0,0,0,0,0,0,0,-1,909,981,0,0
-308,43,0,0,0,0,0,0,0,0,0,-1,916,981,0,0
-301,43,0,0,0,0,0,0,0,0,0,-1,923,981,0,0
-294,43,0,0,0,0,0,0,0,0,0,-1,930,981,0,0
-287,43,0,0,0,0,0,0,0,0,0,-1,937,981,0,0
-280,43,0,0,0,0,0,0,0,0,0,-1,944,981,0,0
-273,43,0,0,0,0,0,0,0,0,0,-1,951,981,0,0
-266,43,0,0,0,0,0,0,0,0,0,-1,958,981,0,0
-259,43,0,0,0,0,0,0,0,0,0,-1,965,981,0,0
-252,43,0,0,0,0,0,0,0,0,0,-1,972,981,0,0
-245,43,0,0,0,0,0,0,0,0,0,-1,979,981,0,0
-238,43,0,0,0,0,0,0,0,0,0,-1,986,981,0,0
-231,43,0,0,0,0,0,0,0,0,0,-1,993,981,0,0
-224,43,0,0,0,0,0,0,0,0,0,-1,1000,981,0,0
-217,43,0,0,0,0,0,0,0,0,0,-1,1007,981,0,0
-210,43,0,0,0,0,0,0,0,0,0,-1,1014,981,0,0
-203,43,0,0,0,0,0,0,0,0,0,-1,1021,981,0,0
-196,43,0,0,0,0,0,0,0,0,0,-1,1028,981,0,0
-189,43,0,0,0,0,0,0,0,0,0,-1,1035,981,0,0
-182,43,0,0,0,0,0,0,0,0,0,-1,1042,981,0,0
-175,43,0,0,0,0,0,0,0,0,0,-1,1049,981,0,0
-168,43,0,0,0,0,0,0,0,0,0,-1,1056,981,0,0
-161,43,0,0,0,0,0,0,0,0,0,-1,1063,981,0,0
-154,43,0,0,0,0,0,0,0,0,0,-1,1070,981,0,0
-147,43,0,0,0,0,0,0,0,0,0,-1,1077,981,0,0
-140,43,0,0,0,0,0,0,0,0,0,-1,1084,981,0,0
-133,43,0,0,0,0,0,0,0,0,0,-1,1091,981,0,0
-126,43,0,0,0,0,0,0,0,0,0,-1,1098,981,0,0
-119,43,0,0,0,0,0,0,0,0,0,-1,1105,981,0,0
-112,43,0,0,0,0,0,0,0,0,0,-1,1112,981,0,0
-105,43,0,0,0,0,0,0,0,0,0,-1,1119,981,0,0
-98,43,0,0,0,0,0,0,0,0,0,-1,1126,981,0,0
-91,43,0,0,0,0,0,0,0,0,0,-1,1133,981,0,0
-84,43,0,0,0,0,0,0,0,0,0,-1,1140,981,0,0
-77,43,0,0,0,0,0,0,0,0,0,-1,1147,981,0,0
-70,43,0,0,0,0,0,0,0,0,0,-1,1154,981,0,0
-63,43,0,0,0,0,0,0,0,0,0,-1,1161,981,0,0
-56,43,0,0,0,0,0,0,0,0,0,-1,1168,981,0,0
-49,43,0,0,0,0,0,0,0,0,0,-1,1175,981,0,0
-42,43,0,0,0,0,0,0,0,0,0,-1,1182,981,0,0
-35,43,0,0,0,0,0,0,0,0,0,-1,1189,981,0,0
-28,43,0,0,0,0,0,0,0,0,0,-1,1196,981,0,0
-21,43,0,0,0,0,0,0,0,0,0,-1,1203,981,0,0
-14,43,0,0,0,0,0,0,0,0,0,-1,1210,981,0,0
-7,43,0,0,0,0,0,0,0,0,0,-1,1217,981,0,0
0,43,0,0,0,0,0,0,0,0,0,-1,1224,981,0,0
7,43,0,0,0,0,0,0,0,0,0,-1,1231,981,0,0
14,43,0,0,0,0,0,0,0,0,0,-1,1238,981,0,0
21,43,0,0,0,0,0,0,0,0,0,-1,1245,981,0,0
28,43,0,0,0,0,0,0,0,0,0,-1,1252,981,0,0
35,43,0,0,0,0,0,0,0,0,0,-1,1259,981,0,0
42,43,0,0,0,0,0,0,0,0,0,-1,1266,981,0,0
49,43,0,0,0,0,0,0,0,0,0,-1,1273,981,0,0
56,43,0,0,0,0,0,0,0,0,0,-1,1280,981,0,0
63,43,0,0,0,0,0,0,0,0,0,-1,1287,981,0,0
70,43,0,0,0,0,0,0,0,0,0,-1,1294,981,0,0
77,43,0,0,0,0,0,0,0,0,0,-1,1301,981,0,0
84,43,0,0,0,0,0,0,0,0,0,-1,1308,981,0,0
91,43,0,0,0,0,0,0,0,0,0,-1,1315,981,0,0
98,43,0,0,0,0,0,0,0,0,0,-1,1322,981,0,0
105,43,0,0,0,0,0,0,0,0,0,-1,1329,981,0,0
112,43,0,0,0,0,0,0,0,0,0,-1,1336,981,0,0
119,43,0,0,0,0,0,0,0,0,0,-1,1343,981,0,0
126,43,0,0,0,0,0,0,0,0,0,-1,1350,981,0,0
133,43,0,0,0,0,0,0,0,0,0,-1,1357,981,0,0
140,43,0,0,0,0,0,0,0,0,0,-1,1364,981,0,0
147,43,0,0,0,0,0,0,0,0,0,-1,1371,981,0,0
154,43,0,0,0,0,0,0,0,0,0,-1,1378,981,0,0
161,43,0,0,0,0,0,0,0,0,0,-1,1385,981,0,0
168,43,0,0,0,0,0,0,0,0,0,-1,1392,981,0,0
175,43,0,0,0,0,0,0,0,0,0,-1,1399,981,0,0
182,43,0,0,0,0,0,0,0,0,0,-1,1406,981,0,0
189,43,0,0,0,0,0,0,0,0,0,-1,1413,981,0,0
196,43,0,0,0,0,0,0,0,0,0,-1,1420,981,0,0
203,43,0,0,0,0,0,0,0,0,0,-1,1427,981,0,0
210,43,0,0,0,0,0,0,0,0,0,-1,1434,981,0,0
217,43,0,0,0,0,0,0,0,0,0,-1,1441,981,0,0
224,43,0,0,0,0,0,0,0,0,0,-1,1448,981,0,0
231,43,0,0,0,0,0,0,0,0,0,-1,1455,981,0,0
238,43,0,0,0,0,0,0,0,0,0,-1,1462,981,0,0
245,43,0,0,0,0,0,0,0,0,0,-1,1469,981,0,0
252,43,0,0,0,0,0,0,0,0,0,-1,1476,981,0,0
259,43,0,0,0,0,0,0,0,0,0,-1,1483,981,0,0
266,43,0,0,0,0,0,0,0,0,0,-1,1490,981,0,0
273,43,0,0,0,0,0,0,0,0,0,-1,1497,981,0,0
280,43,0,0,0,0,0,0,0,0,0,-1,1504,981,0,0
287,43,0,0,0,0,0,0,0,0,0,-1,1511,981,0,0
294,43,0,0,0,0,0,0,0,0,0,-1,1518,981,0,0
301,43,0,0,0,0,0,0,0,0,0,-1,1525,981,0,0
308,43,0,0,0,0,0,0,0,0,0,-1,1532,981,0,0
315,43,0,0,0,0,0,0,0,0,0,-1,1539,981,0,0
322,43,0,0,0,0,0,0,0,0,0,-1,1546,981,0,0
329,43,0,0,0,0,0,0,0,0,0,-1,1553,981,0,0
336,43,0,0,0,0,0,0,0,0,0,-1,1560,981,0,0
343,43,0,0,0,0,0,0,0,0,0,-1,1567,981,0,0
350,43,0,0,0,0,0,0,0,0,0,-1,1574,981,0,0
357,43,0,0,0,0,0,0,0,0,0,-1,1581,981,0,0
364,43,0,0,0,0,0,0,0,0,0,-1,1588,981,0,0
371,43,0,0,0,0,0,0,0,0,0,-1,1595,981,0,0
378,43,0,0,0,0,0,0,0,0,0,-1,1602,981,0,0
385,43,0,0,0,0,0,0,0,0,0,-1,1609,981,0,0
392,43,0,0,0,0,0,0,0,0,0,-1,1616,981,0,0
399,43,0,0,0,0,0,0,0,0,0,-1,1623,981,0,0
406,43,0,0,0,0,0,0,0,0,0,-1,1630,981,0,0
413,43,0,0,0,0,0,0,0,0,0,-1,1637,981,0,0
420,43,0,0,0,0,0,0,0,0,0,-1,1644,981,0,0
427,43,0,0,0,0,0,0,0,0,0,-1,1651,981,0,0
434,43,0,0,0,0,0,0,0,0,0,-1,1658,981,0,0
441,43,0,0,0,0,0,0,0,0,0,-1,1665,981,0,0
448,43,0,0,0,0,0,0,0,0,0,-1,1672,981,0,0
455,43,0,0,0,0,0,0,0,0,0,-1,1679,981,0,0
462,43,0,0,0,0,0,0,0,0,0,-1,1686,981,0,0
469,43,0,0,0,0,0,0,0,0,0,-1,1693,981,0,0
476,43,0,0,0,0,0,0,0,0,0,-1,1700,981,0,0
483,43,0,0,0,0,0,0,0,0,0,-1,1707,981,0,0
490,43,0,0,0,0,0,0,0,0,0,-1,1714,981,0,0
497,43,0,0,0,0,0,0,0,0,0,-1,1721,981,0,0
504,43,0,0,0,0,0,0,0,0,0,-1,1728,981,0,0
511,43,0,0,0,0,0,0,0,0,0,-1,1735,981,0,0
518,43,0,0,0,0,0,0,0,0,0,-1,1742,981,0,0
525,43,0,0,0,0,0,0,0,0,0,-1,1749,981,0,0
532,43,0,0,0,0,0,0,0,0,0,-1,1756,981,0,0
539,43,0,0,0,0,0,0,0,0,0,-1,1763,981,0,0
546,43,0,0,0,0,0,0,0,0,0,-1,1770,981,0,0
553,43,0,0,0,0,0,0,0,0,0,-1,1777,981,0,0
560,43,0,0,0,0,0,0,0,0,0,-1,1784,981,0,0
567,43,0,0,0,0,0,0,0,0,0,-1,1791,981,0,0
574,43,0,0,0,0,0,0,0,0,0,-1,1798,981,0,0
581,43,0,0,0,0,0,0,0,0,0,-1,1805,981,0,0
588,43,0,0,0,0,0,0,0,0,0,-1,1812,981,0,0
595,43,0,0,0,0,0,0,0,0,0,-1,1819,981,0,0
602,43,0,0,0,0,0,0,0,0,0,-1,1826,981,0,0
609,43,0,0,0,0,0,0,0,0,0,-1,1833,981,0,0
616,43,0,0,0,0,0,0,0,0,0,-1,1840,981,0,0
623,43,0,0,0,0,0,0,0,0,0,-1,1847,981,0,0
630,43,0,0,0,0,0,0,0,0,0,-1,1854,981,0,0
637,43,0,0,0,0,0,0,0,0,0,-1,1861,981,0,0
644,43,80.7271,2.32904,-0.000998064,-0.00108201,-0.000371561,-0.000666111,-0.00141396,-0.729156,0.000816805,0.038642,1868,981,80.727,-2.32902
651,43,80.709,2.33954,-0.000806371,-0.000927906,-0.000154598,-0.000701026,-0.00103325,-0.598139,0.000609083,0.0343513,1875,981,80.709,-2.33957
658,43,80.7761,2.30011,-0.000592334,-0.000779583,-0.00013198,-0.000524143,-0.000847774,-0.476899,0.000494005,0.0381983,1882,981,80.7762,-2.30009
665,43,80.7976,2.09802,-0.00029472,-0.000645974,-0.000353828,-7.53292e-05,-0.000865365,-0.555031,0.000553512,0.0411479,1889,981,80.7976,-2.09804
672,43,80.667,2.04773,-0.000130921,-0.000558539,-0.000597642,0.000290006,-0.000979466,-0.613615,0.000768117,0.0402009,1896,981,80.667,-2.04772
679,43,80.6252,2.12408,-2.26678e-05,-0.000727926,-0.000663307,0.000375918,-0.00112651,-0.541086,0.000902791,0.0390524,1903,981,80.6252,-2.12411
686,43,80.7084,2.15558,0.000133412,-0.00115292,-0.000741246,0.000471627,-0.00149113,-0.428063,0.00118306,0.0409583,1910,981,80.7083,-2.15561
693,43,80.7371,2.12158,8.87532e-05,-0.00157031,-0.000813354,0.000420973,-0.00190253,-0.387775,0.00142949,0.0403409,1917,981,80.7371,-2.12155
700,43,80.6907,2.15765,-0.000329292,-0.00164069,-0.000959085,0.000176812,-0.00214679,-0.485557,0.00149362,0.0349877,1924,981,80.6907,-2.15767
707,43,80.7574,2.14978,-0.00106595,-0.00108962,-0.0012459,0.000168169,-0.00232374,-0.78065,0.00160815,0.0319008,1931,981,80.7575,-2.1498
714,43,80.7158,2.13379,0,0,0,0,0,0,0,-1,1938,981,80.7158,-2.13381
721,43,79.8907,6.10956,0,0,0,0,0,0,0,-1,1945,981,79.8907,-6.10956
728,43,79.9578,6.57019,-0.00395594,0.00294457,-0.00230113,0.00364154,-0.0046529,-1.2767,0.00480065,0.0188244,1952,981,79.9577,-6.57016
735,43,80.0245,7.0282,-0.00401407,0.00492401,-0.00269185,0.00567209,-0.00476216,-1.29973,0.00603185,0.0165096,1959,981,80.0246,-7.02818
742,43,79.9622,7.42047,-0.00499133,0.00733059,-0.00327632,0.00814757,-0.00580832,-1.32642,0.00809508,0.0183585,1966,981,79.9622,-7.42049
749,43,79.866,7.72919,-0.00538096,0.0112061,-0.00477689,0.0124834,-0.00665829,-1.30951,0.0112207,0.0202943,1973,981,79.8659,-7.72919
756,43,79.8157,8.05902,-0.00524428,0.0167622,-0.00668755,0.0186351,-0.00711717,-1.29774,0.0153558,0.0245705,1980,981,79.8156,-8.05902
763,43,79.7578,8.35571,-0.0041212,0.0246461,-0.00956517,0.0275362,-0.00701128,-1.27737,0.0210867,0.0276227,1987,981,79.7578,-8.35569
770,43,79.6191,8.73553,-0.00134736,0.0344225,-0.0137114,0.0390737,-0.00599847,-1.24376,0.0282616,0.0223984,1994,981,79.619,-8.73555
777,43,79.6575,9.1203,0.00214175,0.0456709,-0.0189183,0.0527438,-0.00493115,-1.21302,0.0369162,0.0271588,2001,981,79.6576,-9.12028
784,43,79.771,9.5719,0.00651484,0.0588339,-0.0255298,0.0692269,-0.0038782,-1.18419,0.0474968,0.045614,2008,981,79.7711,-9.57192
791,43,79.8774,10.0248,0,0,0,0,0,0,0,-1,2015,981,79.8775,-10.0249
798,43,80.3391,6.95709,0.0165841,0.0926455,-0.0454025,0.113841,-0.00461124,-1.13403,0.0774767,0.0460917,2022,981,80.3392,-6.95709
805,43,80.4202,6.34961,0.0190761,0.113769,-0.058404,0.141607,-0.00876211,-1.126,0.0974566,0.0469012,2029,981,80.4203,-6.34959
812,43,79.9668,6.02869,0,0,0,0,0,0,0,-1,2036,981,79.9668,-6.02868
-700,36,0,0,0,0,0,0,0,0,0,-1,524,988,0,0
-693,36,-65.9612,-3.58313,0.0214524,-0.183913,0.0401841,0.0290353,-0.191496,0.186511,0.138361,0.0465469,531,988,-65.9612,3.58312
-686,36,-66.174,-3.18634,0.0131184,-0.161671,0.0363727,0.0203852,-0.168938,0.197191,0.119999,0.0440337,538,988,-66.1739,3.18634
-679,36,-66.3546,-2.75684,0.00661841,-0.135148,0.0325895,0.0137512,-0.142281,0.215471,0.0997543,0.0458614,545,988,-66.3546,2.75683
-672,36,-66.3667,-2.52887,0.00196241,-0.110326,0.0288521,0.00894202,-0.117306,0.23735,0.0813485,0.0484839,552,988,-66.3667,2.52886
-665,36,-66.7066,-2.53955,-0.0013599,-0.0876121,0.0251453,0.00543538,-0.0944074,0.263937,0.0648261,0.0461439,559,988,-66.7066,2.53958
-658,36,-63.6749,8.4668,0,0,0,0,0,0,0,-1,566,988,-63.6749,-8.46681
-651,36,-63.8354,8.2738,0,0,0,0,0,0,0,-1,573,988,-63.8354,-8.27382
-644,36,-63.9632,8.07343,-0.00667851,-0.0307149,0.0146283,0.000235397,-0.0376288,0.44152,0.0251647,0.0318051,580,988,-63.9632,-8.07344
-637,36,-64.1252,7.85632,-0.00694547,-0.0140723,0.0111154,0.00116376,-0.0221816,0.630282,0.0151905,0.0239834,587,988,-64.1252,-7.85633
-630,36,-64.196,7.69476,-0.00806811,0.000304813,0.00819142,0.00531758,-0.0130809,1.02163,0.010933,0.0170875,594,988,-64.196,-7.69476
-623,36,-64.2631,7.45538,-0.0081564,0.00854947,0.00586575,0.0104033,-0.0100103,1.26468,0.0117865,0.0146339,601,988,-64.2631,-7.45539
-616,36,-64.2813,7.18262,-0.00664435,0.00846359,0.00477981,0.00984881,-0.00802957,1.28872,0.0103399,0.0130292,608,988,-64.2813,-7.1826
-609,36,-64.1443,6.91815,-0.00544641,0.00711005,0.00410312,0.00833193,-0.00666829,1.28136,0.00867812,0.0193309,615,988,-64.1443,-6.91812
-602,36,-64.2025,6.54968,-0.00464825,0.00429403,0.00358228,0.0055521,-0.00590631,1.23306,0.00661657,0.0235732,622,988,-64.2025,-6.54967
-595,36,-64.5587,6.17041,-0.00401434,0.00235707,0.00320093,0.0036874,-0.00534467,1.17691,0.00524385,0.0278238,629,988,-64.5587,-6.17043
-588,36,-64.9045,5.953,0,0,0,0,0,0,0,-1,636,988,-64.9045,-5.95301
-581,36,-63.8291,0.417419,0,0,0,0,0,0,0,-1,643,988,-63.8291,-0.417443
-574,36,-63.8162,0.294128,-0.00160974,-0.0013065,0.00137924,-7.05684e-05,-0.00284567,0.840143,0.00187403,0.0287311,650,988,-63.8162,-0.294104
-567,36,-63.8503,0.194031,-0.000973375,-0.00143257,0.000792359,-0.000378021,-0.00202793,0.644377,0.00124522,0.0361484,657,988,-63.8503,-0.194014
-560,36,-63.9577,0.519958,-0.000173915,-0.00102164,0.000117954,-0.000157809,-0.00103775,0.135707,0.000645691,0.039104,664,988,-63.9577,-0.519982
-553,36,-63.9653,0.403076,0.000817647,-0.000193439,-0.000744226,0.0012118,-0.000587589,-0.487054,0.00105951,0.0416442,671,988,-63.9653,-0.403073
-546,36,-63.8856,0.314026,0.00217497,0.000878053,-0.00181513,0.003454,-0.00040097,-0.613837,0.0024473,0.0460332,678,988,-63.8856,-0.31403
-539,36,-63.7838,0.444946,0.00352469,0.0018607,-0.00316934,0.00596942,-0.000584029,-0.657037,0.00418789,0.0463409,685,988,-63.7838,-0.444956
-532,36,-63.7197,0.130432,0.00538606,0.00333989,-0.00453545,0.00901239,-0.00028644,-0.674467,0.00610598,0.0463519,692,988,-63.7197,-0.130411
-525,36,-63.6108,0.224121,0.00718391,0.00529735,-0.00622933,0.012541,-5.97183e-05,-0.710256,0.00838063,0.0448592,699,988,-63.6108,-0.224141
-518,36,0,0,0,0,0,0,0,0,0,-1,706,988,0,0
-511,36,0,0,0,0,0,0,0,0,0,-1,713,988,0,0
-504,36,0,0,0,0,0,0,0,0,0,-1,720,988,0,0
-497,36,0,0,0,0,0,0,0,0,0,-1,727,988,0,0
-490,36,0,0,0,0,0,0,0,0,0,-1,734,988,0,0
-483,36,0,0,0,0,0,0,0,0,0,-1,741,988,0,0
-476,36,0,0,0,0,0,0,0,0,0,-1,748,988,0,0
-469,36,0,0,0,0,0,0,0,0,0,-1,755,988,0,0
-462,36,0,0,0,0,0,0,0,0,0,-1,762,988,0,0
-455,36,0,0,0,0,0,0,0,0,0,-1,769,988,0,0
-448,36,0,0,0,0,0,0,0,0,0,-1,776,988,0,0
-441,36,0,0,0,0,0,0,0,0,0,-1,783,988,0,0
-434,36,0,0,0,0,0,0,0,0,0,-1,790,988,0,0
-427,36,0,0,0,0,0,0,0,0,0,-1,797,988,0,0
-420,36,0,0,0,0,0,0,0,0,0,-1,804,988,0,0
-413,36,0,0,0,0,0,0,0,0,0,-1,811,988,0,0
-406,36,0,0,0,0,0,0,0,0,0,-1,818,988,0,0
-399,36,0,0,0,0,0,0,0,0,0,-1,825,988,0,0
-392,36,0,0,0,0,0,0,0,0,0,-1,832,988,0,0
-385,36,0,0,0,0,0,0,0,0,0,-1,839,988,0,0
-378,36,0,0,0,0,0,0,0,0,0,-1,846,988,0,0
-371,36,0,0,0,0,0,0,0,0,0,-1,853,988,0,0
-364,36,0,0,0,0,0,0,0,0,0,-1,860,988,0,0
-357,36,0,0,0,0,0,0,0,0,0,-1,867,988,0,0
-350,36,0,0,0,0,0,0,0,0,0,-1,874,988,0,0
-343,36,0,0,0,0,0,0,0,0,0,-1,881,988,0,0
-336,36,0,0,0,0,0,0,0,0,0,-1,888,988,0,0
-329,36,0,0,0,0,0,0,0,0,0,-1,895,988,0,0
-322,36,0,0,0,0,0,0,0,0,0,-1,902,988,0,0
-315,36,0,0,0,0,0,0,0,0,0,-1,909,988,0,0
-308,36,0,0,0,0,0,0,0,0,0,-1,916,988,0,0
-301,36,0,0,0,0,0,0,0,0,0,-1,923,988,0,0
-294,36,0,0,0,0,0,0,0,0,0,-1,930,988,0,0
-287,36,0,0,0,0,0,0,0,0,0,-1,937,988,0,0
-280,36,0,0,0,0,0,0,0,0,0,-1,944,988,0,0
-273,36,0,0,0,0,0,0,0,0,0,-1,951,988,0,0
-266,36,0,0,0,0,0,0,0,0,0,-1,958,988,0,0
-259,36,0,0,0,0,0,0,0,0,0,-1,965,988,0,0
-252,36,0,0,0,0,0,0,0,0,0,-1,972,988,0,0
-245,36,0,0,0,0,0,0,0,0,0,-1,979,988,0,0
-238,36,0,0,0,0,0,0,0,0,0,-1,986,988,0,0
-231,36,0,0,0,0,0,0,0,0,0,-1,993,988,0,0
-224,36,0,0,0,0,0,0,0,0,0,-1,1000,988,0,0
-217,36,0,0,0,0,0,0,0,0,0,-1,1007,988,0,0
-210,36,0,0,0,0,0,0,0,0,0,-1,1014,988,0,0
-203,36,0,0,0,0,0,0,0,0,0,-1,1021,988,0,0
-196,36,0,0,0,0,0,0,0,0,0,-1,1028,988,0,0
-189,36,0,0,0,0,0,0,0,0,0,-1,1035,988,0,0
-182,36,0,0,0,0,0,0,0,0,0,-1,1042,988,0,0
-175,36,0,0,0,0,0,0,0,0,0,-1,1049,988,0,0
-168,36,0,0,0,0,0,0,0,0,0,-1,1056,988,0,0
-161,36,0,0,0,0,0,0,0,0,0,-1,1063,988,0,0
-154,36,0,0,0,0,0,0,0,0,0,-1,1070,988,0,0
-147,36,0,0,0,0,0,0,0,0,0,-1,1077,988,0,0
-140,36,0,0,0,0,0,0,0,0,0,-1,1084,988,0,0
-133,36,0,0,0,0,0,0,0,0,0,-1,1091,988,0,0
-126,36,0,0,0,0,0,0,0,0,0,-1,1098,988,0,0
-119,36,0,0,0,0,0,0,0,0,0,-1,1105,988,0,0
-112,36,0,0,0,0,0,0,0,0,0,-1,1112,988,0,0
-105,36,0,0,0,0,0,0,0,0,0,-1,1119,988,0,0
-98,36,0,0,0,0,0,0,0,0,0,-1,1126,988,0,0
-91,36,0,0,0,0,0,0,0,0,0,-1,1133,988,0,0
-84,36,0,0,0,0,0,0,0,0,0,-1,1140,988,0,0
-77,36,0,0,0,0,0,0,0,0,0,-1,1147,988,0,0
-70,36,0,0,0,0,0,0,0,0,0,-1,1154,988,0,0
-63,36,0,0,0,0,0,0,0,0,0,-1,1161,988,0,0
-56,36,0,0,0,0,0,0,0,0,0,-1,1168,988,0,0
-49,36,0,0,0,0,0,0,0,0,0,-1,1175,988,0,0
-42,36,0,0,0,0,0,0,0,0,0,-1,1182,988,0,0
-35,36,0,0,0,0,0,0,0,0,0,-1,1189,988,0,0
-28,36,0,0,0,0,0,0,0,0,0,-1,1196,988,0,0
-21,36,0,0,0,0,0,0,0,0,0,-1,1203,988,0,0
-14,36,0,0,0,0,0,0,0,0,0,-1,1210,988,0,0
-7,36,0,0,0,0,0,0,0,0,0,-1,1217,988,0,0
0,36,0,0,0,0,0,0,0,0,0,-1,1224,988,0,0
7,36,0,0,0,0,0,0,0,0,0,-1,1231,988,0,0
14,36,0,0,0,0,0,0,0,0,0,-1,1238,988,0,0
21,36,0,0,0,0,0,0,0,0,0,-1,1245,988,0,0
28,36,0,0,0,0,0,0,0,0,0,-1,1252,988,0,0
35,36,0,0,0,0,0,0,0,0,0,-1,1259,988,0,0
42,36,0,0,0,0,0,0,0,0,0,-1,1266,988,0,0
49,36,0,0,0,0,0,0,0,0,0,-1,1273,988,0,0
56,36,0,0,0,0,0,0,0,0,0,-1,1280,988,0,0
63,36,0,0,0,0,0,0,0,0,0,-1,1287,988,0,0
70,36,0,0,0,0,0,0,0,0,0,-1,1294,988,0,0
77,36,0,0,0,0,0,0,0,0,0,-1,1301,988,0,0
84,36,0,0,0,0,0,0,0,0,0,-1,1308,988,0,0
91,36,0,0,0,0,0,0,0,0,0,-1,1315,988,0,0
98,36,0,0,0,0,0,0,0,0,0,-1,1322,988,0,0
105,36,0,0,0,0,0,0,0,0,0,-1,1329,988,0,0
112,36,0,0,0,0,0,0,0,0,0,-1,1336,988,0,0
119,36,0,0,0,0,0,0,0,0,0,-1,1343,988,0,0
126,36,0,0,0,0,0,0,0,0,0,-1,1350,988,0,0
133,36,0,0,0,0,0,0,0,0,0,-1,1357,988,0,0
140,36,0,0,0,0,0,0,0,0,0,-1,1364,988,0,0
147,36,0,0,0,0,0,0,0,0,0,-1,1371,988,0,0
154,36,0,0,0,0,0,0,0,0,0,-1,1378,988,0,0
161,36,0,0,0,0,0,0,0,0,0,-1,1385,988,0,0
168,36,0,0,0,0,0,0,0,0,0,-1,1392,988,0,0
175,36,0,0,0,0,0,0,0,0,0,-1,1399,988,0,0
182,36,0,0,0,0,0,0,0,0,0,-1,1406,988,0,0
189,36,0,0,0,0,0,0,0,0,0,-1,1413,988,0,0
196,36,0,0,0,0,0,0,0,0,0,-1,1420,988,0,0
203,36,0,0,0,0,0,0,0,0,0,-1,1427,988,0,0
210,36,0,0,0,0,0,0,0,0,0,-1,1434,988,0,0
217,36,0,0,0,0,0,0,0,0,0,-1,1441,988,0,0
224,36,0,0,0,0,0,0,0,0,0,-1,1448,988,0,0
231,36,0,0,0,0,0,0,0,0,0,-1,1455,988,0,0
238,36,0,0,0,0,0,0,0,0,0,-1,1462,988,0,0
245,36,0,0,0,0,0,0,0,0,0,-1,1469,988,0,0
252,36,0,0,0,0,0,0,0,0,0,-1,1476,988,0,0
259,36,0,0,0,0,0,0,0,0,0,-1,1483,988,0,0
266,36,0,0,0,0,0,0,0,0,0,-1,1490,988,0,0
273,36,0,0,0,0,0,0,0,0,0,-1,1497,988,0,0
280,36,0,0,0,0,0,0,0,0,0,-1,1504,988,0,0
287,36,0,0,0,0,0,0,0,0,0,-1,1511,988,0,0
294,36,0,0,0,0,0,0,0,0,0,-1,1518,988,0,0
301,36,0,0,0,0,0,0,0,0,0,-1,1525,988,0,0
308,36,0,0,0,0,0,0,0,0,0,-1,1532,988,0,0
315,36,0,0,0,0,0,0,0,0,0,-1,1539,988,0,0
322,36,0,0,0,0,0,0,0,0,0,-1,1546,988,0,0
329,36,0,0,0,0,0,0,0,0,0,-1,1553,988,0,0
336,36,0,0,0,0,0,0,0,0,0,-1,1560,988,0,0
343,36,0,0,0,0,0,0,0,0,0,-1,1567,988,0,0
350,36,0,0,0,0,0,0,0,0,0,-1,1574,988,0,0
357,36,0,0,0,0,0,0,0,0,0,-1,1581,988,0,0
364,36,0,0,0,0,0,0,0,0,0,-1,1588,988,0,0
371,36,0,0,0,0,0,0,0,0,0,-1,1595,988,0,0
378,36,0,0,0,0,0,0,0,0,0,-1,1602,988,0,0
385,36,0,0,0,0,0,0,0,0,0,-1,1609,988,0,0
392,36,0,0,0,0,0,0,0,0,0,-1,1616,988,0,0
399,36,0,0,0,0,0,0,0,0,0,-1,1623,988,0,0
406,36,0,0,0,0,0,0,0,0,0,-1,1630,988,0,0
413,36,0,0,0,0,0,0,0,0,0,-1,1637,988,0,0
420,36,0,0,0,0,0,0,0,0,0,-1,1644,988,0,0
427,36,0,0,0,0,0,0,0,0,0,-1,1651,988,0,0
434,36,0,0,0,0,0,0,0,0,0,-1,1658,988,0,0
441,36,0,0,0,0,0,0,0,0,0,-1,1665,988,0,0
448,36,0,0,0,0,0,0,0,0,0,-1,1672,988,0,0
455,36,0,0,0,0,0,0,0,0,0,-1,1679,988,0,0
462,36,0,0,0,0,0,0,0,0,0,-1,1686,988,0,0
469,36,0,0,0,0,0,0,0,0,0,-1,1693,988,0,0
476,36,0,0,0,0,0,0,0,0,0,-1,1700,988,0,0
483,36,0,0,0,0,0,0,0,0,0,-1,1707,988,0,0
490,36,0,0,0,0,0,0,0,0,0,-1,1714,988,0,0
497,36,0,0,0,0,0,0,0,0,0,-1,1721,988,0,0
504,36,0,0,0,0,0,0,0,0,0,-1,1728,988,0,0
511,36,0,0,0,0,0,0,0,0,0,-1,1735,988,0,0
518,36,0,0,0,0,0,0,0,0,0,-1,1742,988,0,0
525,36,0,0,0,0,0,0,0,0,0,-1,1749,988,0,0
532,36,0,0,0,0,0,0,0,0,0,-1,1756,988,0,0
539,36,0,0,0,0,0,0,0,0,0,-1,1763,988,0,0
546,36,0,0,0,0,0,0,0,0,0,-1,1770,988,0,0
553,36,0,0,0,0,0,0,0,0,0,-1,1777,988,0,0
560,36,0,0,0,0,0,0,0,0,0,-1,1784,988,0,0
567,36,0,0,0,0,0,0,0,0,0,-1,1791,988,0,0
574,36,0,0,0,0,0,0,0,0,0,-1,1798,988,0,0
581,36,0,0,0,0,0,0,0,0,0,-1,1805,988,0,0
588,36,0,0,0,0,0,0,0,0,0,-1,1812,988,0,0
595,36,0,0,0,0,0,0,0,0,0,-1,1819,988,0,0
602,36,0,0,0,0,0,0,0,0,0,-1,1826,988,0,0
609,36,0,0,0,0,0,0,0,0,0,-1,1833,988,0,0
616,36,0,0,0,0,0,0,0,0,0,-1,1840,988,0,0
623,36,0,0,0,0,0,0,0,0,0,-1,1847,988,0,0
630,36,0,0,0,0,0,0,0,0,0,-1,1854,988,0,0
637,36,0,0,0,0,0,0,0,0,0,-1,1861,988,0,0
644,36,80.6095,2.23853,0.000277492,-0.000514108,0.000374025,0.000426259,-0.000662875,0.37856,0.000633739,0.0400094,1868,988,80.6095,-2.23851
651,36,80.5897,2.41711,-4.67579e-06,-0.000475667,0.00027345,0.000120707,-0.00060105,0.429917,0.000446409,0.0387783,1875,988,80.5897,-2.41708
658,36,80.7703,2.37817,-0.000137051,-0.000383928,9.56165e-05,-0.00010435,-0.000416629,0.329532,0.000250328,0.0384858,1882,988,80.7702,-2.37819
665,36,80.8646,2.26678,-8.05145e-05,-0.00030536,-0.000260308,9.061e-05,-0.000476484,-0.581555,0.000351771,0.0400425,1889,988,80.8646,-2.26681
672,36,80.6398,2.45636,-3.38737e-05,-0.000241682,-0.000605165,0.000476242,-0.000751798,-0.700379,0.000714934,0.0416324,1896,988,80.6398,-2.45635
679,36,80.6488,2.37946,6.47973e-05,-0.000359146,-0.000754738,0.000636766,-0.000931114,-0.648498,0.000910518,0.0410593,1903,988,80.6488,-2.37945
686,36,80.7611,2.21173,0.000246682,-0.000747255,-0.000840023,0.000725734,-0.00122631,-0.518283,0.0011393,0.0385653,1910,988,80.7611,-2.2117
693,36,80.7683,2.32373,0.000277366,-0.00115595,-0.000888928,0.000702545,-0.00158113,-0.446142,0.00135061,0.0402808,1917,988,80.7683,-2.32372
700,36,80.7228,2.24628,-2.88271e-05,-0.0012601,-0.000996285,0.000526686,-0.00181561,-0.508648,0.00141894,0.0374601,1924,988,80.7228,-2.24625
707,36,80.7809,2.10999,-0.000743621,-0.000706342,-0.00121431,0.000489475,-0.00193944,-0.793072,0.00148329,0.0288265,1931,988,80.7809,-2.10999
714,36,80.8119,1.96234,0,0,0,0,0,0,0,-1,1938,988,80.8118,-1.96233
721,36,80.0807,6.24622,0,0,0,0,0,0,0,-1,1945,988,80.0807,-6.24619
728,36,80.1924,6.6911,-0.00397229,0.00351287,-0.00210163,0.00406258,-0.004522,-1.31496,0.00495868,0.0246014,1952,988,80.1924,-6.69109
735,36,80.3193,7.11359,-0.00418232,0.00553021,-0.00248881,0.00613082,-0.00478294,-1.334,0.00631706,0.0202718,1959,988,80.3193,-7.1136
742,36,80.2612,7.38245,-0.00540444,0.0079133,-0.00303173,0.00857098,-0.00606212,-1.35717,0.00848971,0.0168325,1966,988,80.2612,-7.38243
749,36,80.2224,7.72321,-0.00608426,0.011647,-0.00452781,0.0127363,-0.00717355,-1.33471,0.0116436,0.0192505,1973,988,80.2223,-7.72318
756,36,80.178,8.02826,-0.00646985,0.0169866,-0.00638441,0.0186117,-0.00809497,-1.32154,0.0158126,0.019469,1980,988,80.178,-8.02829
763,36,80.0449,8.24786,-0.00605563,0.0247133,-0.00932508,0.0273188,-0.00866113,-1.29834,0.021684,0.0220324,1987,988,80.045,-8.24786
770,36,79.9685,8.55432,-0.00395632,0.0346602,-0.01382,0.0390965,-0.00839256,-1.26019,0.0292658,0.0188283,1994,988,79.9685,-8.55431
777,36,80.0366,8.89386,-0.000993146,0.0461679,-0.0195114,0.0531935,-0.00801874,-1.22517,0.0384152,0.0274986,2001,988,80.0366,-8.89388
784,36,80.4766,8.64386,0.00287889,0.0595012,-0.0266436,0.0700668,-0.00768671,-1.19326,0.0494729,0.0493808,2008,988,80.4765,-8.64388
791,36,80.7048,8.66278,0,0,0,0,0,0,0,-1,2015,988,80.7047,-8.66278
798,36,80.6528,6.0647,0.0122653,0.0932089,-0.0475656,0.115191,-0.00971651,-1.1379,0.080229,0.0463182,2022,988,80.653,-6.0647
805,36,80.7278,5.50751,0.01498,0.113855,-0.0610241,0.142954,-0.0141191,-1.12584,0.100341,0.0489161,2029,988,80.7278,-5.5075
812,36,80.2622,5.14569,0.0141576,0.13823,-0.0764708,0.174663,-0.0222759,-1.12618,0.124533,0.0488729,2036,988,80.2621,-5.1457
-700,29,0,0,0,0,0,0,0,0,0,-1,524,995,0,0
-693,29,-66.2071,-2.10486,0.00380499,-0.166484,0.0442857,0.0146334,-0.177313,0.239808,0.123376,0.0433262,531,995,-66.2071,2.10483
-686,29,-66.433,-1.82764,-0.00189744,-0.143904,0.0398079,0.00850038,-0.154302,0.255491,0.105815,0.0447245,538,995,-66.433,1.82762
-679,29,-66.6327,-1.50128,-0.00588004,-0.119032,0.0353057,0.0042323,-0.129144,0.278955,0.087541,0.0480209,545,995,-66.6327,1.50125
-672,29,-66.7019,-1.19476,-0.00824272,-0.0962815,0.0309353,0.00154032,-0.106065,0.30629,0.0712287,0.0438331,552,995,-66.7019,1.19478
-665,29,-66.9216,-0.650085,-0.00968075,-0.0756811,0.0266716,-0.000249989,-0.0851118,0.339868,0.0566581,0.0434386,559,995,-66.9216,0.650064
-658,29,-67.3591,-0.0218506,0,0,0,0,0,0,0,-1,566,995,-67.3591,0.0218259
-651,29,-64.1191,7.77148,0,0,0,0,0,0,0,-1,573,995,-64.1191,-7.77149
-644,29,-64.1767,7.60687,-0.0107357,-0.0253879,0.0148451,-0.00150743,-0.0346162,0.55618,0.0225918,0.0490733,580,995,-64.1767,-7.60686
-637,29,-64.4523,7.63623,-0.00993315,-0.0107375,0.0108471,0.000519236,-0.0211899,0.766869,0.0143028,0.0288914,587,995,-64.4524,-7.63626
-630,29,-64.5049,7.51978,-0.00999166,0.00191188,0.00766313,0.00566306,-0.0137428,1.11558,0.0115232,0.0160516,594,995,-64.505,-7.51979
-623,29,-64.5161,7.36597,-0.00932097,0.00897286,0.00512528,0.0103109,-0.010659,1.31543,0.0121076,0.015092,601,995,-64.516,-7.36597
-616,29,-64.5878,7.14978,-0.00752467,0.00846,0.00395041,0.009383,-0.00844766,1.34127,0.0102993,0.0184068,608,995,-64.5878,-7.14979
-609,29,-64.4688,6.98859,-0.00624488,0.00723326,0.00335,0.00801998,-0.0070316,1.34013,0.00869628,0.0295746,615,995,-64.4688,-6.9886
-602,29,-64.6306,6.70416,-0.00537748,0.00453663,0.00293663,0.00534119,-0.00618204,1.30338,0.00665884,0.0286279,622,995,-64.6306,-6.70416
-595,29,-64.9938,6.30463,-0.00471331,0.00268565,0.00263038,0.00352545,-0.00555311,1.26176,0.00528491,0.0278472,629,995,-64.9938,-6.30461
-588,29,-65.3207,5.9397,0,0,0,0,0,0,0,-1,636,995,-65.3208,-5.93972
-581,29,-63.7664,0.475281,0,0,0,0,0,0,0,-1,643,995,-63.7664,-0.475263
-574,29,-63.7853,0.329224,-0.00207812,-0.000822429,0.00101178,-0.000259524,-0.00264102,1.06309,0.00168087,0.031598,650,995,-63.7854,-0.329218
-567,29,-63.8589,0.233521,-0.00144224,-0.000911352,0.000482191,-0.000626369,-0.00172722,1.03701,0.00100967,0.0329351,657,995,-63.8589,-0.233507
-560,29,-63.9707,0.334839,-0.000577754,-0.000463755,-0.000137879,-0.000371558,-0.000669951,-0.981399,0.000387565,0.0362635,664,995,-63.9707,-0.334869
-553,29,-63.9292,0.289001,0.000496653,0.000305539,-0.000958655,0.0013645,-0.00056231,-0.735723,0.00114413,0.0394052,671,995,-63.9292,-0.288989
-546,29,-63.8817,0.197571,0.00196548,0.00116481,-0.00200014,0.00360496,-0.000474671,-0.686627,0.00257615,0.0429657,678,995,-63.8817,-0.197582
-539,29,-63.9329,0.250549,0.00335274,0.00176934,-0.0033197,0.00597384,-0.000851762,-0.668342,0.00429473,0.0442534,685,995,-63.9329,-0.250525
-532,29,-63.7916,-0.0300903,0.00516524,0.00281561,-0.00463446,0.00877147,-0.000790617,-0.661265,0.00612821,0.0470623,692,995,-63.7916,0.030079
-525,29,-63.7019,0.0458374,0.0070117,0.00423654,-0.00629946,0.0120746,-0.000826343,-0.676994,0.00833883,0.0450534,699,995,-63.7019,-0.0458633
-518,29,0,0,0,0,0,0,0,0,0,-1,706,995,0,0
-511,29,0,0,0,0,0,0,0,0,0,-1,713,995,0,0
-504,29,0,0,0,0,0,0,0,0,0,-1,720,995,0,0
-497,29,0,0,0,0,0,0,0,0,0,-1,727,995,0,0
-490,29,0,0,0,0,0,0,0,0,0,-1,734,995,0,0
-483,29,0,0,0,0,0,0,0,0,0,-1,741,995,0,0
-476,29,0,0,0,0,0,0,0,0,0,-1,748,995,0,0
-469,29,0,0,0,0,0,0,0,0,0,-1,755,995,0,0
-462,29,0,0,0,0,0,0,0,0,0,-1,762,995,0,0
-455,29,0,0,0,0,0,0,0,0,0,-1,769,995,0,0
-448,29,0,0,0,0,0,0,0,0,0,-1,776,995,0,0
-441,29,0,0,0,0,0,0,0,0,0,-1,783,995,0,0
-434,29,0,0,0,0,0,0,0,0,0,-1,790,995,0,0
-427,29,0,0,0,0,0,0,0,0,0,-1,797,995,0,0
-420,29,0,0,0,0,0,0,0,0,0,-1,804,995,0,0
-413,29,0,0,0,0,0,0,0,0,0,-1,811,995,0,0
-406,29,0,0,0,0,0,0,0,0,0,-1,818,995,0,0
-399,29,0,0,0,0,0,0,0,0,0,-1,825,995,0,0
-392,29,0,0,0,0,0,0,0,0,0,-1,832,995,0,0
-385,29,0,0,0,0,0,0,0,0,0,-1,839,995,0,0
-378,29,0,0,0,0,0,0,0,0,0,-1,846,995,0,0
-371,29,0,0,0,0,0,0,0,0,0,-1,853,995,0,0
-364,29,0,0,0,0,0,0,0,0,0,-1,860,995,0,0
-357,29,0,0,0,0,0,0,0,0,0,-1,867,995,0,0
-350,29,0,0,0,0,0,0,0,0,0,-1,874,995,0,0
-343,29,0,0,0,0,0,0,0,0,0,-1,881,995,0,0
-336,29,0,0,0,0,0,0,0,0,0,-1,888,995,0,0
-329,29,0,0,0,0,0,0,0,0,0,-1,895,995,0,0
-322,29,0,0,0,0,0,0,0,0,0,-1,902,995,0,0
-315,29,0,0,0,0,0,0,0,0,0,-1,909,995,0,0
-308,29,0,0,0,0,0,0,0,0,0,-1,916,995,0,0
-301,29,0,0,0,0,0,0,0,0,0,-1,923,995,0,0
-294,29,0,0,0,0,0,0,0,0,0,-1,930,995,0,0
-287,29,0,0,0,0,0,0,0,0,0,-1,937,995,0,0
-280,29,0,0,0,0,0,0,0,0,0,-1,944,995,0,0
-273,29,0,0,0,0,0,0,0,0,0,-1,951,995,0,0
-266,29,0,0,0,0,0,0,0,0,0,-1,958,995,0,0
-259,29,0,0,0,0,0,0,0,0,0,-1,965,995,0,0
-252,29,0,0,0,0,0,0,0,0,0,-1,972,995,0,0
-245,29,0,0,0,0,0,0,0,0,0,-1,979,995,0,0
-238,29,0,0,0,0,0,0,0,0,0,-1,986,995,0,0
-231,29,0,0,0,0,0,0,0,0,0,-1,993,995,0,0
-224,29,0,0,0,0,0,0,0,0,0,-1,1000,995,0,0
-217,29,0,0,0,0,0,0,0,0,0,-1,1007,995,0,0
-210,29,0,0,0,0,0,0,0,0,0,-1,1014,995,0,0
-203,29,0,0,0,0,0,0,0,0,0,-1,1021,995,0,0
-196,29,0,0,0,0,0,0,0,0,0,-1,1028,995,0,0
-189,29,0,0,0,0,0,0,0,0,0,-1,1035,995,0,0
-182,29,0,0,0,0,0,0,0,0,0,-1,1042,995,0,0
-175,29,0,0,0,0,0,0,0,0,0,-1,1049,995,0,0
-168,29,0,0,0,0,0,0,0,0,0,-1,1056,995,0,0
-161,29,0,0,0,0,0,0,0,0,0,-1,1063,995,0,0
-154,29,0,0,0,0,0,0,0,0,0,-1,1070,995,0,0
-147,29,0,0,0,0,0,0,0,0,0,-1,1077,995,0,0
-140,29,0,0,0,0,0,0,0,0,0,-1,1084,995,0,0
-133,29,0,0,0,0,0,0,0,0,0,-1,1091,995,0,0
-126,29,0,0,0,0,0,0,0,0,0,-1,1098,995,0,0
-119,29,0,0,0,0,0,0,0,0,0,-1,1105,995,0,0
-112,29,0,0,0,0,0,0,0,0,0,-1,1112,995,0,0
-105,29,0,0,0,0,0,0,0,0,0,-1,1119,995,0,0
-98,29,0,0,0,0,0,0,0,0,0,-1,1126,995,0,0
-91,29,0,0,0,0,0,0,0,0,0,-1,1133,995,0,0
-84,29,0,0,0,0,0,0,0,0,0,-1,1140,995,0,0
-77,29,0,0,0,0,0,0,0,0,0,-1,1147,995,0,0
-70,29,0,0,0,0,0,0,0,0,0,-1,1154,995,0,0
-63,29,0,0,0,0,0,0,0,0,0,-1,1161,995,0,0
-56,29,0,0,0,0,0,0,0,0,0,-1,1168,995,0,0
-49,29,0,0,0,0,0,0,0,0,0,-1,1175,995,0,0
-42,29,0,0,0,0,0,0,0,0,0,-1,1182,995,0,0
-35,29,0,0,0,0,0,0,0,0,0,-1,1189,995,0,0
-28,29,0,0,0,0,0,0,0,0,0,-1,1196,995,0,0
-21,29,0,0,0,0,0,0,0,0,0,-1,1203,995,0,0
-14,29,0,0,0,0,0,0,0,0,0,-1,1210,995,0,0
-7,29,0,0,0,0,0,0,0,0,0,-1,1217,995,0,0
0,29,0,0,0,0,0,0,0,0,0,-1,1224,995,0,0
7,29,0,0,0,0,0,0,0,0,0,-1,1231,995,0,0
14,29,0,0,0,0,0,0,0,0,0,-1,1238,995,0,0
21,29,0,0,0,0,0,0,0,0,0,-1,1245,995,0,0
28,29,0,0,0,0,0,0,0,0,0,-1,1252,995,0,0
35,29,0,0,0,0,0,0,0,0,0,-1,1259,995,0,0
42,29,0,0,0,0,0,0,0,0,0,-1,1266,995,0,0
49,29,0,0,0,0,0,0,0,0,0,-1,1273,995,0,0
56,29,0,0,0,0,0,0,0,0,0,-1,1280,995,0,0
63,29,0,0,0,0,0,0,0,0,0,-1,1287,995,0,0
70,29,0,0,0,0,0,0,0,0,0,-1,1294,995,0,0
77,29,0,0,0,0,0,0,0,0,0,-1,1301,995,0,0
84,29,0,0,0,0,0,0,0,0,0,-1,1308,995,0,0
91,29,0,0,0,0,0,0,0,0,0,-1,1315,995,0,0
98,29,0,0,0,0,0,0,0,0,0,-1,1322,995,0,0
105,29,0,0,0,0,0,0,0,0,0,-1,1329,995,0,0
112,29,0,0,0,0,0,0,0,0,0,-1,1336,995,0,0
119,29,0,0,0,0,0,0,0,0,0,-1,1343,995,0,0
126,29,0,0,0,0,0,0,0,0,0,-1,1350,995,0,0
133,29,0,0,0,0,0,0,0,0,0,-1,1357,995,0,0
140,29,0,0,0,0,0,0,0,0,0,-1,1364,995,0,0
147,29,0,0,0,0,0,0,0,0,0,-1,1371,995,0,0
154,29,0,0,0,0,0,0,0,0,0,-1,1378,995,0,0
161,29,0,0,0,0,0,0,0,0,0,-1,1385,995,0,0
168,29,0,0,0,0,0,0,0,0,0,-1,1392,995,0,0
175,29,0,0,0,0,0,0,0,0,0,-1,1399,995,0,0
182,29,0,0,0,0,0,0,0,0,0,-1,1406,995,0,0
189,29,0,0,0,0,0,0,0,0,0,-1,1413,995,0,0
196,29,0,0,0,0,0,0,0,0,0,-1,1420,995,0,0
203,29,0,0,0,0,0,0,0,0,0,-1,1427,995,0,0
210,29,0,0,0,0,0,0,0,0,0,-1,1434,995,0,0
217,29,0,0,0,0,0,0,0,0,0,-1,1441,995,0,0
224,29,0,0,0,0,0,0,0,0,0,-1,1448,995,0,0
231,29,0,0,0,0,0,0,0,0,0,-1,1455,995,0,0
238,29,0,0,0,0,0,0,0,0,0,-1,1462,995,0,0
245,29,0,0,0,0,0,0,0,0,0,-1,1469,995,0,0
252,29,0,0,0,0,0,0,0,0,0,-1,1476,995,0,0
259,29,0,0,0,0,0,0,0,0,0,-1,1483,995,0,0
266,29,0,0,0,0,0,0,0,0,0,-1,1490,995,0,0
273,29,0,0,0,0,0,0,0,0,0,-1,1497,995,0,0
280,29,0,0,0,0,0,0,0,0,0,-1,1504,995,0,0
287,29,0,0,0,0,0,0,0,0,0,-1,1511,995,0,0
294,29,0,0,0,0,0,0,0,0,0,-1,1518,995,0,0
301,29,0,0,0,0,0,0,0,0,0,-1,1525,995,0,0
308,29,0,0,0,0,0,0,0,0,0,-1,1532,995,0,0
315,29,0,0,0,0,0,0,0,0,0,-1,1539,995,0,0
322,29,0,0,0,0,0,0,0,0,0,-1,1546,995,0,0
329,29,0,0,0,0,0,0,0,0,0,-1,1553,995,0,0
336,29,0,0,0,0,0,0,0,0,0,-1,1560,995,0,0
343,29,0,0,0,0,0,0,0,0,0,-1,1567,995,0,0
350,29,0,0,0,0,0,0,0,0,0,-1,1574,995,0,0
357,29,0,0,0,0,0,0,0,0,0,-1,1581,995,0,0
364,29,0,0,0,0,0,0,0,0,0,-1,1588,995,0,0
371,29,0,0,0,0,0,0,0,0,0,-1,1595,995,0,0
378,29,0,0,0,0,0,0,0,0,0,-1,1602,995,0,0
385,29,0,0,0,0,0,0,0,0,0,-1,1609,995,0,0
392,29,0,0,0,0,0,0,0,0,0,-1,1616,995,0,0
399,29,0,0,0,0,0,0,0,0,0,-1,1623,995,0,0
406,29,0,0,0,0,0,0,0,0,0,-1,1630,995,0,0
413,29,0,0,0,0,0,0,0,0,0,-1,1637,995,0,0
420,29,0,0,0,0,0,0,0,0,0,-1,1644,995,0,0
427,29,0,0,0,0,0,0,0,0,0,-1,1651,995,0,0
434,29,0,0,0,0,0,0,0,0,0,-1,1658,995,0,0
441,29,0,0,0,0,0,0,0,0,0,-1,1665,995,0,0
448,29,0,0,0,0,0,0,0,0,0,-1,1672,995,0,0
455,29,0,0,0,0,0,0,0,0,0,-1,1679,995,0,0
462,29,0,0,0,0,0,0,0,0,0,-1,1686,995,0,0
469,29,0,0,0,0,0,0,0,0,0,-1,1693,995,0,0
476,29,0,0,0,0,0,0,0,0,0,-1,1700,995,0,0
483,29,0,0,0,0,0,0,0,0,0,-1,1707,995,0,0
490,29,0,0,0,0,0,0,0,0,0,-1,1714,995,0,0
497,29,0,0,0,0,0,0,0,0,0,-1,1721,995,0,0
504,29,0,0,0,0,0,0,0,0,0,-1,1728,995,0,0
511,29,0,0,0,0,0,0,0,0,0,-1,1735,995,0,0
518,29,0,0,0,0,0,0,0,0,0,-1,1742,995,0,0
525,29,0,0,0,0,0,0,0,0,0,-1,1749,995,0,0
532,29,0,0,0,0,0,0,0,0,0,-1,1756,995,0,0
539,29,0,0,0,0,0,0,0,0,0,-1,1763,995,0,0
546,29,0,0,0,0,0,0,0,0,0,-1,1770,995,0,0
553,29,0,0,0,0,0,0,0,0,0,-1,1777,995,0,0
560,29,0,0,0,0,0,0,0,0,0,-1,1784,995,0,0
567,29,0,0,0,0,0,0,0,0,0,-1,1791,995,0,0
574,29,0,0,0,0,0,0,0,0,0,-1,1798,995,0,0
581,29,0,0,0,0,0,0,0,0,0,-1,1805,995,0,0
588,29,0,0,0,0,0,0,0,0,0,-1,1812,995,0,0
595,29,0,0,0,0,0,0,0,0,0,-1,1819,995,0,0
602,29,0,0,0,0,0,0,0,0,0,-1,1826,995,0,0
609,29,0,0,0,0,0,0,0,0,0,-1,1833,995,0,0
616,29,0,0,0,0,0,0,0,0,0,-1,1840,995,0,0
623,29,0,0,0,0,0,0,0,0,0,-1,1847,995,0,0
630,29,0,0,0,0,0,0,0,0,0,-1,1854,995,0,0
637,29,0,0,0,0,0,0,0,0,0,-1,1861,995,0,0
644,29,80.6326,2.2157,0.0010804,0.000342086,0.00133723,0.00209849,-0.000676006,0.650721,0.00167056,0.0396776,1868,995,80.6325,-2.21573
651,29,80.6591,2.19788,0.000444433,0.000345682,0.000869915,0.00126637,-0.000476257,0.757049,0.00104001,0.0393466,1875,995,80.659,-2.19787
658,29,80.7268,2.32983,5.09451e-05,0.000382646,0.000441606,0.000688518,-0.000254927,0.96503,0.000563547,0.0412268,1882,995,80.7268,-2.32982
665,29,80.8184,2.47516,-5.48752e-05,0.000394305,-7.2824e-05,0.000405817,-6.63869e-05,-1.41402,0.000295173,0.0402932,1889,995,80.8184,-2.47515
672,29,80.6946,2.62378,-7.11499e-05,0.000399251,-0.000534136,0.000747678,-0.000419577,-0.992793,0.000682731,0.0396646,1896,995,80.6945,-2.62379
679,29,80.6031,2.43585,4.38021e-05,0.000270424,-0.000787674,0.000952896,-0.00063867,-0.856836,0.000924841,0.0397648,1903,995,80.6031,-2.43585
686,29,80.6932,2.17871,0.000210687,-0.000158145,-0.000906463,0.000951303,-0.000898761,-0.685045,0.00106828,0.03761,1910,995,80.6932,-2.17872
693,29,80.6617,2.36469,0.000271743,-0.000638592,-0.000952846,0.000872555,-0.0012394,-0.562577,0.00122546,0.0386139,1917,995,80.6618,-2.3647
700,29,80.6492,2.34253,5.95118e-05,-0.000841003,-0.00102227,0.000726286,-0.00150778,-0.577956,0.00131588,0.0356968,1924,995,80.6492,-2.34252
707,29,80.7117,2.11884,-0.000668806,-0.000340338,-0.00117995,0.000686755,-0.0016959,-0.854547,0.00141616,0.0251777,1931,995,80.7116,-2.11881
714,29,80.8267,1.77155,0,0,0,0,0,0,0,-1,1938,995,80.8267,-1.77153
721,29,78.8949,6.53455,0,0,0,0,0,0,0,-1,1945,995,78.8949,-6.53457
728,29,80.3751,6.80853,0,0,0,0,0,0,0,-1,1952,995,80.3752,-6.80854
735,29,80.5638,7.17639,-0.00456113,0.00588971,-0.00223229,0.00634656,-0.00501797,-1.36893,0.00657624,0.0165522,1959,995,80.5639,-7.17638
742,29,80.5347,7.41052,-0.00591676,0.00817083,-0.00269521,0.00866887,-0.00641479,-1.38807,0.00874091,0.0146345,1966,995,80.5347,-7.41055
749,29,80.5037,7.69995,-0.00675353,0.0116799,-0.00410039,0.0125509,-0.00762448,-1.3615,0.0117634,0.0158777,1973,995,80.5036,-7.69993
756,29,80.46,7.96643,-0.00736214,0.0166924,-0.00585334,0.0180411,-0.00871085,-1.34433,0.0157553,0.0152189,1980,995,80.4601,-7.96642
763,29,80.3752,8.12854,-0.00719185,0.0239622,-0.0087711,0.0262618,-0.00949151,-1.31438,0.0213857,0.0134643,1987,995,80.3752,-8.12854
770,29,80.251,8.28162,-0.00524626,0.0335883,-0.0134122,0.0377702,-0.00942811,-1.26856,0.0288412,0.0201033,1994,995,80.251,-8.28162
777,29,80.1321,8.56042,-0.00217147,0.0447436,-0.0194394,0.0517515,-0.00917943,-1.2248,0.0379329,0.0348371,2001,995,80.1322,-8.5604
784,29,80.282,8.40131,0.00192983,0.0573623,-0.0269746,0.0683219,-0.00902976,-1.18488,0.0488369,0.0493498,2008,995,80.2821,-8.40129
791,29,80.4316,8.21277,0,0,0,0,0,0,0,-1,2015,995,80.4316,-8.21275
798,29,80.6086,8.14484,0,0,0,0,0,0,0,-1,2022,995,80.6088,-8.14486
805,29,80.6165,4.90216,0,0,0,0,0,0,0,-1,2029,995,80.6163,-4.90218
812,29,80.5537,4.20605,0,0,0,0,0,0,0,-1,2036,995,80.5537,-4.20605
-700,22,0,0,0,0,0,0,0,0,0,-1,524,1002,0,0
-693,22,-66.7156,-1.17401,-0.0133393,-0.134446,0.0514386,0.00555944,-0.153345,0.352094,0.104133,0.0433392,531,1002,-66.7156,1.17402
-686,22,-66.5835,-0.756409,-0.015814,-0.114358,0.0452177,0.00178982,-0.131962,0.371259,0.0885771,0.0424625,538,1002,-66.5835,0.756407
-679,22,-66.4565,-0.319275,0,0,0,0,0,0,0,-1,545,1002,-66.4565,0.319264
-672,22,-66.9143,0.129028,0,0,0,0,0,0,0,-1,552,1002,-66.9143,-0.129022
-665,22,-67.157,1.09253,0,0,0,0,0,0,0,-1,559,1002,-67.1571,-1.09255
-658,22,-59.6215,4.85364,0,0,0,0,0,0,0,-1,566,1002,-59.6215,-4.85361
-651,22,-63.4975,7.11328,0,0,0,0,0,0,0,-1,573,1002,-63.4975,-7.11331
-644,22,-64.2825,7.26892,-0.0143308,-0.016948,0.0154616,-0.00012245,-0.0311563,0.743181,0.0207302,0.0475796,580,1002,-64.2825,-7.26891
-637,22,-64.7646,7.38336,-0.0124471,-0.00514404,0.010918,0.00271693,-0.020308,0.946775,0.0145293,0.0325783,587,1002,-64.7647,-7.38337
-630,22,-64.742,7.34406,-0.0114774,0.00505616,0.00740406,0.00788712,-0.0143083,1.2056,0.0129921,0.0187293,594,1002,-64.742,-7.34403
-623,22,-64.7729,7.22205,-0.010128,0.01036,0.00468172,0.0113791,-0.0111472,1.35646,0.0130058,0.0144387,601,1002,-64.7729,-7.22206
-616,22,-64.8081,7.01727,-0.00793557,0.00871194,0.00329242,0.00933944,-0.00856307,1.38247,0.0103393,0.0238279,608,1002,-64.8081,-7.01727
-609,22,-64.902,6.94641,-0.00650691,0.00717042,0.00265212,0.00766667,-0.00700316,1.38582,0.00847252,0.0378341,615,1002,-64.902,-6.94643
-602,22,-65.0845,6.79797,-0.00558059,0.00459841,0.00230119,0.00509447,-0.00607665,1.35848,0.00645795,0.0331705,622,1002,-65.0844,-6.79795
-595,22,-65.3472,6.40186,-0.00491039,0.0028108,0.00204245,0.00331778,-0.00541738,1.32749,0.00509158,0.0383308,629,1002,-65.3472,-6.40186
-588,22,-65.4686,5.89703,0,0,0,0,0,0,0,-1,636,1002,-65.4686,-5.89706
-581,22,-63.7891,0.232361,0,0,0,0,0,0,0,-1,643,1002,-63.7891,-0.232335
-574,22,-63.7828,0.284851,-0.00221903,-0.000535822,0.000633853,-0.000323829,-0.00243103,1.24804,0.00152425,0.0333217,650,1002,-63.7828,-0.284826
-567,22,-63.8754,0.364807,-0.0016408,-0.000596562,0.000202302,-0.000558739,-0.00167862,1.38597,0.000987037,0.0318205,657,1002,-63.8754,-0.364835
-560,22,-63.9658,0.477844,-0.000812414,-0.00013338,-0.000304734,-1.66795e-05,-0.000929114,-1.20507,0.000613925,0.0359007,664,1002,-63.9658,-0.477873
-553,22,-63.9702,0.422791,0.000224751,0.000544666,-0.00100303,0.00140042,-0.000631,-0.864469,0.00120055,0.0378398,671,1002,-63.9702,-0.422791
-546,22,-63.9837,0.314026,0.0016729,0.00114529,-0.00190739,0.00333464,-0.000516458,-0.716681,0.00241374,0.0407263,678,1002,-63.9837,-0.314053
-539,22,-64.0152,0.210083,0.00298367,0.00136225,-0.00304104,0.00532021,-0.000974282,-0.655133,0.00391221,0.0436544,685,1002,-64.0152,-0.210069
-532,22,-63.8713,0.0233154,0.00467789,0.0019883,-0.00415148,0.00769695,-0.00103076,-0.628766,0.00550714,0.0437353,692,1002,-63.8713,-0.0233458
-525,22,0,0,0,0,0,0,0,0,0,-1,699,1002,0,0
-518,22,0,0,0,0,0,0,0,0,0,-1,706,1002,0,0
-511,22,0,0,0,0,0,0,0,0,0,-1,713,1002,0,0
-504,22,0,0,0,0,0,0,0,0,0,-1,720,1002,0,0
-497,22,0,0,0,0,0,0,0,0,0,-1,727,1002,0,0
-490,22,0,0,0,0,0,0,0,0,0,-1,734,1002,0,0
-483,22,0,0,0,0,0,0,0,0,0,-1,741,1002,0,0
-476,22,0,0,0,0,0,0,0,0,0,-1,748,1002,0,0
-469,22,0,0,0,0,0,0,0,0,0,-1,755,1002,0,0
-462,22,0,0,0,0,0,0,0,0,0,-1,762,1002,0,0
-455,22,0,0,0,0,0,0,0,0,0,-1,769,1002,0,0
-448,22,0,0,0,0,0,0,0,0,0,-1,776,1002,0,0
-441,22,0,0,0,0,0,0,0,0,0,-1,783,1002,0,0
-434,22,0,0,0,0,0,0,0,0,0,-1,790,1002,0,0
-427,22,0,0,0,0,0,0,0,0,0,-1,797,1002,0,0
-420,22,0,0,0,0,0,0,0,0,0,-1,804,1002,0,0
-413,22,0,0,0,0,0,0,0,0,0,-1,811,1002,0,0
-406,22,0,0,0,0,0,0,0,0,0,-1,818,1002,0,0
-399,22,0,0,0,0,0,0,0,0,0,-1,825,1002,0,0
-392,22,0,0,0,0,0,0,0,0,0,-1,832,1002,0,0
-385,22,0,0,0,0,0,0,0,0,0,-1,839,1002,0,0
-378,22,0,0,0,0,0,0,0,0,0,-1,846,1002,0,0
-371,22,0,0,0,0,0,0,0,0,0,-1,853,1002,0,0
-364,22,0,0,0,0,0,0,0,0,0,-1,860,1002,0,0
-357,22,0,0,0,0,0,0,0,0,0,-1,867,1002,0,0
-350,22,0,0,0,0,0,0,0,0,0,-1,874,1002,0,0
-343,22,0,0,0,0,0,0,0,0,0,-1,881,1002,0,0
-336,22,0,0,0,0,0,0,0,0,0,-1,888,1002,0,0
-329,22,0,0,0,0,0,0,0,0,0,-1,895,1002,0,0
-322,22,0,0,0,0,0,0,0,0,0,-1,902,1002,0,0
-315,22,0,0,0,0,0,0,0,0,0,-1,909,1002,0,0
-308,22,0,0,0,0,0,0,0,0,0,-1,916,1002,0,0
-301,22,0,0,0,0,0,0,0,0,0,-1,923,1002,0,0
-294,22,0,0,0,0,0,0,0,0,0,-1,930,1002,0,0
-287,22,0,0,0,0,0,0,0,0,0,-1,937,1002,0,0
-280,22,0,0,0,0,0,0,0,0,0,-1,944,1002,0,0
-273,22,0,0,0,0,0,0,0,0,0,-1,951,1002,0,0
-266,22,0,0,0,0,0,0,0,0,0,-1,958,1002,0,0
-259,22,0,0,0,0,0,0,0,0,0,-1,965,1002,0,0
-252,22,0,0,0,0,0,0,0,0,0,-1,972,1002,0,0
-245,22,0,0,0,0,0,0,0,0,0,-1,979,1002,0,0
-238,22,0,0,0,0,0,0,0,0,0,-1,986,1002,0,0
-231,22,0,0,0,0,0,0,0,0,0,-1,993,1002,0,0
-224,22,0,0,0,0,0,0,0,0,0,-1,1000,1002,0,0
-217,22,0,0,0,0,0,0,0,0,0,-1,1007,1002,0,0
-210,22,0,0,0,0,0,0,0,0,0,-1,1014,1002,0,0
-203,22,0,0,0,0,0,0,0,0,0,-1,1021,1002,0,0
-196,22,0,0,0,0,0,0,0,0,0,-1,1028,1002,0,0
-189,22,0,0,0,0,0,0,0,0,0,-1,1035,1002,0,0
-182,22,0,0,0,0,0,0,0,0,0,-1,1042,1002,0,0
-175,22,0,0,0,0,0,0,0,0,0,-1,1049,1002,0,0
-168,22,0,0,0,0,0,0,0,0,0,-1,1056,1002,0,0
-161,22,0,0,0,0,0,0,0,0,0,-1,1063,1002,0,0
-154,22,0,0,0,0,0,0,0,0,0,-1,1070,1002,0,0
-147,22,0,0,0,0,0,0,0,0,0,-1,1077,1002,0,0
-140,22,0,0,0,0,0,0,0,0,0,-1,1084,1002,0,0
-133,22,0,0,0,0,0,0,0,0,0,-1,1091,1002,0,0
-126,22,0,0,0,0,0,0,0,0,0,-1,1098,1002,0,0
-119,22,0,0,0,0,0,0,0,0,0,-1,1105,1002,0,0
-112,22,0,0,0,0,0,0,0,0,0,-1,1112,1002,0,0
-105,22,0,0,0,0,0,0,0,0,0,-1,1119,1002,0,0
-98,22,0,0,0,0,0,0,0,0,0,-1,1126,1002,0,0
-91,22,0,0,0,0,0,0,0,0,0,-1,1133,1002,0,0
-84,22,0,0,0,0,0,0,0,0,0,-1,1140,1002,0,0
-77,22,0,0,0,0,0,0,0,0,0,-1,1147,1002,0,0
-70,22,0,0,0,0,0,0,0,0,0,-1,1154,1002,0,0
-63,22,0,0,0,0,0,0,0,0,0,-1,1161,1002,0,0
-56,22,0,0,0,0,0,0,0,0,0,-1,1168,1002,0,0
-49,22,0,0,0,0,0,0,0,0,0,-1,1175,1002,0,0
-42,22,0,0,0,0,0,0,0,0,0,-1,1182,1002,0,0
-35,22,0,0,0,0,0,0,0,0,0,-1,1189,1002,0,0
-28,22,0,0,0,0,0,0,0,0,0,-1,1196,1002,0,0
-21,22,0,0,0,0,0,0,0,0,0,-1,1203,1002,0,0
-14,22,0,0,0,0,0,0,0,0,0,-1,1210,1002,0,0
-7,22,0,0,0,0,0,0,0,0,0,-1,1217,1002,0,0
0,22,0,0,0,0,0,0,0,0,0,-1,1224,1002,0,0
7,22,0,0,0,0,0,0,0,0,0,-1,1231,1002,0,0
14,22,0,0,0,0,0,0,0,0,0,-1,1238,1002,0,0
21,22,0,0,0,0,0,0,0,0,0,-1,1245,1002,0,0
28,22,0,0,0,0,0,0,0,0,0,-1,1252,1002,0,0
35,22,0,0,0,0,0,0,0,0,0,-1,1259,1002,0,0
42,22,0,0,0,0,0,0,0,0,0,-1,1266,1002,0,0
49,22,0,0,0,0,0,0,0,0,0,-1,1273,1002,0,0
56,22,0,0,0,0,0,0,0,0,0,-1,1280,1002,0,0
63,22,0,0,0,0,0,0,0,0,0,-1,1287,1002,0,0
70,22,0,0,0,0,0,0,0,0,0,-1,1294,1002,0,0
77,22,0,0,0,0,0,0,0,0,0,-1,1301,1002,0,0
84,22,0,0,0,0,0,0,0,0,0,-1,1308,1002,0,0
91,22,0,0,0,0,0,0,0,0,0,-1,1315,1002,0,0
98,22,0,0,0,0,0,0,0,0,0,-1,1322,1002,0,0
105,22,0,0,0,0,0,0,0,0,0,-1,1329,1002,0,0
112,22,0,0,0,0,0,0,0,0,0,-1,1336,1002,0,0
119,22,0,0,0,0,0,0,0,0,0,-1,1343,1002,0,0
126,22,0,0,0,0,0,0,0,0,0,-1,1350,1002,0,0
133,22,0,0,0,0,0,0,0,0,0,-1,1357,1002,0,0
140,22,0,0,0,0,0,0,0,0,0,-1,1364,1002,0,0
147,22,0,0,0,0,0,0,0,0,0,-1,1371,1002,0,0
154,22,0,0,0,0,0,0,0,0,0,-1,1378,1002,0,0
161,22,0,0,0,0,0,0,0,0,0,-1,1385,1002,0,0
168,22,0,0,0,0,0,0,0,0,0,-1,1392,1002,0,0
175,22,0,0,0,0,0,0,0,0,0,-1,1399,1002,0,0
182,22,0,0,0,0,0,0,0,0,0,-1,1406,1002,0,0
189,22,0,0,0,0,0,0,0,0,0,-1,1413,1002,0,0
196,22,0,0,0,0,0,0,0,0,0,-1,1420,1002,0,0
203,22,0,0,0,0,0,0,0,0,0,-1,1427,1002,0,0
210,22,0,0,0,0,0,0,0,0,0,-1,1434,1002,0,0
217,22,0,0,0,0,0,0,0,0,0,-1,1441,1002,0,0
224,22,0,0,0,0,0,0,0,0,0,-1,1448,1002,0,0
231,22,0,0,0,0,0,0,0,0,0,-1,1455,1002,0,0
238,22,0,0,0,0,0,0,0,0,0,-1,1462,1002,0,0
245,22,0,0,0,0,0,0,0,0,0,-1,1469,1002,0,0
252,22,0,0,0,0,0,0,0,0,0,-1,1476,1002,0,0
259,22,0,0,0,0,0,0,0,0,0,-1,1483,1002,0,0
266,22,0,0,0,0,0,0,0,0,0,-1,1490,1002,0,0
273,22,0,0,0,0,0,0,0,0,0,-1,1497,1002,0,0
280,22,0,0,0,0,0,0,0,0,0,-1,1504,1002,0,0
287,22,0,0,0,0,0,0,0,0,0,-1,1511,1002,0,0
294,22,0,0,0,0,0,0,0,0,0,-1,1518,1002,0,0
301,22,0,0,0,0,0,0,0,0,0,-1,1525,1002,0,0
308,22,0,0,0,0,0,0,0,0,0,-1,1532,1002,0,0
315,22,0,0,0,0,0,0,0,0,0,-1,1539,1002,0,0
322,22,0,0,0,0,0,0,0,0,0,-1,1546,1002,0,0
329,22,0,0,0,0,0,0,0,0,0,-1,1553,1002,0,0
336,22,0,0,0,0,0,0,0,0,0,-1,1560,1002,0,0
343,22,0,0,0,0,0,0,0,0,0,-1,1567,1002,0,0
350,22,0,0,0,0,0,0,0,0,0,-1,1574,1002,0,0
357,22,0,0,0,0,0,0,0,0,0,-1,1581,1002,0,0
364,22,0,0,0,0,0,0,0,0,0,-1,1588,1002,0,0
371,22,0,0,0,0,0,0,0,0,0,-1,1595,1002,0,0
378,22,0,0,0,0,0,0,0,0,0,-1,1602,1002,0,0
385,22,0,0,0,0,0,0,0,0,0,-1,1609,1002,0,0
392,22,0,0,0,0,0,0,0,0,0,-1,1616,1002,0,0
399,22,0,0,0,0,0,0,0,0,0,-1,1623,1002,0,0
406,22,0,0,0,0,0,0,0,0,0,-1,1630,1002,0,0
413,22,0,0,0,0,0,0,0,0,0,-1,1637,1002,0,0
420,22,0,0,0,0,0,0,0,0,0,-1,1644,1002,0,0
427,22,0,0,0,0,0,0,0,0,0,-1,1651,1002,0,0
434,22,0,0,0,0,0,0,0,0,0,-1,1658,1002,0,0
441,22,0,0,0,0,0,0,0,0,0,-1,1665,1002,0,0
448,22,0,0,0,0,0,0,0,0,0,-1,1672,1002,0,0
455,22,0,0,0,0,0,0,0,0,0,-1,1679,1002,0,0
462,22,0,0,0,0,0,0,0,0,0,-1,1686,1002,0,0
469,22,0,0,0,0,0,0,0,0,0,-1,1693,1002,0,0
476,22,0,0,0,0,0,0,0,0,0,-1,1700,1002,0,0
483,22,0,0,0,0,0,0,0,0,0,-1,1707,1002,0,0
490,22,0,0,0,0,0,0,0,0,0,-1,1714,1002,0,0
497,22,0,0,0,0,0,0,0,0,0,-1,1721,1002,0,0
504,22,0,0,0,0,0,0,0,0,0,-1,1728,1002,0,0
511,22,0,0,0,0,0,0,0,0,0,-1,1735,1002,0,0
518,22,0,0,0,0,0,0,0,0,0,-1,1742,1002,0,0
525,22,0,0,0,0,0,0,0,0,0,-1,1749,1002,0,0
532,22,0,0,0,0,0,0,0,0,0,-1,1756,1002,0,0
539,22,0,0,0,0,0,0,0,0,0,-1,1763,1002,0,0
546,22,0,0,0,0,0,0,0,0,0,-1,1770,1002,0,0
553,22,0,0,0,0,0,0,0,0,0,-1,1777,1002,0,0
560,22,0,0,0,0,0,0,0,0,0,-1,1784,1002,0,0
567,22,0,0,0,0,0,0,0,0,0,-1,1791,1002,0,0
574,22,0,0,0,0,0,0,0,0,0,-1,1798,1002,0,0
581,22,0,0,0,0,0,0,0,0,0,-1,1805,1002,0,0
588,22,0,0,0,0,0,0,0,0,0,-1,1812,1002,0,0
595,22,0,0,0,0,0,0,0,0,0,-1,1819,1002,0,0
602,22,0,0,0,0,0,0,0,0,0,-1,1826,1002,0,0
609,22,0,0,0,0,0,0,0,0,0,-1,1833,1002,0,0
616,22,0,0,0,0,0,0,0,0,0,-1,1840,1002,0,0
623,22,0,0,0,0,0,0,0,0,0,-1,1847,1002,0,0
630,22,0,0,0,0,0,0,0,0,0,-1,1854,1002,0,0
637,22,0,0,0,0,0,0,0,0,0,-1,1861,1002,0,0
644,22,80.6282,2.06317,0.00149651,0.00128601,0.00217215,0.00356596,-0.000783438,0.761189,0.00267694,0.0379373,1868,1002,80.6282,-2.06317
651,22,80.6227,2.02588,0.000628326,0.00131924,0.00138376,0.00240001,-0.000452445,0.907723,0.0017702,0.0384593,1875,1002,80.6227,-2.02586
658,22,80.6891,2.16272,6.40915e-05,0.0013047,0.00074067,0.00165051,-0.000281714,1.13399,0.00120527,0.0402602,1882,1002,80.6891,-2.16272
665,22,80.7699,2.3996,-0.000137382,0.00122961,0.000108262,0.00123813,-0.000145903,1.49225,0.000878106,0.0397769,1889,1002,80.7699,-2.39962
672,22,80.7758,2.43451,-0.000187119,0.0011393,-0.000415033,0.00125846,-0.000306278,-1.29121,0.000957534,0.0398867,1896,1002,80.7758,-2.43448
679,22,80.6536,2.25861,-7.81109e-05,0.000924905,-0.000723852,0.00130401,-0.000457212,-1.08835,0.00105529,0.0403122,1903,1002,80.6535,-2.25862
686,22,80.6934,2.12903,4.24475e-05,0.000392445,-0.000844476,0.00107986,-0.000644972,-0.887566,0.00100633,0.038926,1910,1002,80.6934,-2.12903
693,22,80.67,2.33838,0.000104254,-0.00021801,-0.000877145,0.000834944,-0.0009487,-0.694561,0.00103049,0.0374783,1917,1002,80.67,-2.33836
700,22,80.6952,2.35345,-4.27412e-05,-0.000571514,-0.000907171,0.000637784,-0.00125204,-0.643605,0.00111014,0.0346307,1924,1002,80.6952,-2.35345
707,22,80.6885,2.18286,-0.000799762,-0.00016015,-0.00100749,0.000577071,-0.00153698,-0.939083,0.00126179,0.0347914,1931,1002,80.6885,-2.18283
714,22,80.6901,2.16144,0,0,0,0,0,0,0,-1,1938,1002,80.6901,-2.16144
721,22,76.814,2.41211,0,0,0,0,0,0,0,-1,1945,1002,76.814,-2.41212
728,22,80.7639,7.11969,0,0,0,0,0,0,0,-1,1952,1002,80.764,-7.11966
735,22,80.7645,7.31104,-0.0051712,0.00601867,-0.00182157,0.00630773,-0.00546026,-1.41342,0.00680012,0.0178474,1959,1002,80.7645,-7.31104
742,22,80.7809,7.47589,-0.00663105,0.00821988,-0.002207,0.00854092,-0.00695209,-1.42634,0.00896056,0.018102,1966,1002,80.7808,-7.47587
749,22,80.7048,7.67542,-0.00758755,0.0115342,-0.00350306,0.0121558,-0.00820909,-1.39519,0.011831,0.0139037,1973,1002,80.7049,-7.67541
756,22,80.688,7.836,-0.00831718,0.0162474,-0.00513322,0.0172769,-0.00934671,-1.37286,0.0155968,0.0197067,1980,1002,80.6881,-7.836
763,22,80.6387,7.99536,-0.00827046,0.0229593,-0.00793978,0.024862,-0.0101731,-1.33559,0.0208117,0.0213361,1987,1002,80.6386,-7.99536
770,22,80.387,8.12885,-0.00641337,0.0320105,-0.0125522,0.0357476,-0.0101504,-1.28143,0.027839,0.0227454,1994,1002,80.3869,-8.12885
777,22,79.9802,8.18451,-0.00313484,0.0425214,-0.0187054,0.0492062,-0.00981966,-1.22757,0.0365201,0.0458524,2001,1002,79.9802,-8.18453
784,22,79.6707,8.29926,0,0,0,0,0,0,0,-1,2008,1002,79.6707,-8.29928
791,22,80.1584,7.7627,0,0,0,0,0,0,0,-1,2015,1002,80.1584,-7.76271
798,22,78.3704,5.79449,0,0,0,0,0,0,0,-1,2022,1002,78.3704,-5.79452
805,22,79.262,5.11011,0,0,0,0,0,0,0,-1,2029,1002,79.262,-5.11012
812,22,80.3025,4.15588,0,0,0,0,0,0,0,-1,2036,1002,80.3025,-4.15589
-700,15,0,0,0,0,0,0,0,0,0,-1,524,1009,0,0
-693,15,-66.5631,0.0125732,-0.0278698,-0.0936081,0.0588054,0.00662905,-0.128107,0.530555,0.0876979,0.0461441,531,1009,-66.5631,-0.0125956
-686,15,-66.6036,0.411987,-0.0274377,-0.077994,0.0512418,0.00442183,-0.109854,0.556257,0.0747532,0.0412637,538,1009,-66.6036,-0.411995
-679,15,-66.4209,0.906982,-0.0268749,-0.0616,0.044516,0.00354475,-0.0920196,0.599457,0.0625615,0.0477134,545,1009,-66.4209,-0.907002
-672,15,-66.2372,1.46704,0,0,0,0,0,0,0,-1,552,1009,-66.2372,-1.46705
-665,15,-60.031,3.28375,0,0,0,0,0,0,0,-1,559,1009,-60.031,-3.28373
-658,15,-64.2608,5.32886,0,0,0,0,0,0,0,-1,566,1009,-64.2608,-5.32885
-651,15,-51.4943,3.62128,0,0,0,0,0,0,0,-1,573,1009,-51.4943,-3.62128
-644,15,-64.6843,7.05109,0,0,0,0,0,0,0,-1,580,1009,-64.6843,-7.05111
-637,15,-64.8643,7.32428,-0.0139283,0.00204025,0.0113501,0.00793304,-0.019821,1.09192,0.0165065,0.0365364,587,1009,-64.8642,-7.32429
-630,15,-64.8782,7.22717,-0.0119626,0.00917509,0.0073846,0.0114994,-0.0142869,1.26587,0.0149167,0.0206719,594,1009,-64.8782,-7.22718
-623,15,-64.9268,7.12793,-0.0100492,0.0121615,0.00441764,0.0130079,-0.0108956,1.38149,0.0138187,0.0117662,601,1009,-64.9268,-7.12791
-616,15,-64.9429,7.01312,-0.00765741,0.00893342,0.00267315,0.00935348,-0.00807747,1.41493,0.0100728,0.0187511,608,1009,-64.943,-7.01312
-609,15,-65.0763,6.95532,-0.0062051,0.00683589,0.00192321,0.0071136,-0.00648281,1.42739,0.00785271,0.0253777,615,1009,-65.0763,-6.95532
-602,15,-65.1711,6.90259,-0.00532511,0.00432996,0.00163336,0.00459879,-0.00559394,1.40767,0.00589412,0.0261015,622,1009,-65.1711,-6.90259
-595,15,-65.66,6.38354,0,0,0,0,0,0,0,-1,629,1009,-65.66,-6.38352
-588,15,-63.7709,0.380066,0,0,0,0,0,0,0,-1,636,1009,-63.7709,-0.380043
-581,15,-63.7634,0.285583,-0.00285567,-0.00022677,0.000661997,-6.94798e-05,-0.00301296,1.33752,0.00198589,0.0390746,643,1009,-63.7634,-0.285607
-574,15,-63.7631,0.242859,-0.00226181,-0.000781372,0.000260516,-0.000736866,-0.00230631,1.40159,0.00136017,0.0318791,650,1009,-63.7631,-0.242851
-567,15,-63.9409,0.322754,-0.00178637,-0.000844896,-6.48306e-05,-0.000840452,-0.00179081,-1.50237,0.00103457,0.0324544,657,1009,-63.9409,-0.322735
-560,15,-64.0815,0.438538,-0.00106083,-0.000396153,-0.000442798,-0.000174849,-0.00128213,-1.10732,0.000802842,0.0372063,664,1009,-64.0815,-0.438511
-553,15,-63.9992,0.42804,-0.000146124,0.000199365,-0.000998349,0.0010398,-0.000986564,-0.871065,0.00117006,0.0383643,671,1009,-63.9992,-0.42805
-546,15,-64.0153,0.516418,0.00117381,0.000619275,-0.00175871,0.00267698,-0.000883893,-0.707215,0.00214099,0.0405975,678,1009,-64.0153,-0.516433
-539,15,-63.9991,0.441345,0.00229899,0.000633739,-0.0027299,0.00432041,-0.00138769,-0.637379,0.00343751,0.0423791,685,1009,-63.9991,-0.441338
-532,15,-63.9166,0.17981,0.00375001,0.00106322,-0.00369505,0.00633829,-0.00152507,-0.611044,0.00481508,0.0426072,692,1009,-63.9166,-0.179819
-525,15,0,0,0,0,0,0,0,0,0,-1,699,1009,0,0
-518,15,0,0,0,0,0,0,0,0,0,-1,706,1009,0,0
-511,15,0,0,0,0,0,0,0,0,0,-1,713,1009,0,0
-504,15,0,0,0,0,0,0,0,0,0,-1,720,1009,0,0
-497,15,0,0,0,0,0,0,0,0,0,-1,727,1009,0,0
-490,15,0,0,0,0,0,0,0,0,0,-1,734,1009,0,0
-483,15,0,0,0,0,0,0,0,0,0,-1,741,1009,0,0
-476,15,0,0,0,0,0,0,0,0,0,-1,748,1009,0,0
-469,15,0,0,0,0,0,0,0,0,0,-1,755,1009,0,0
-462,15,0,0,0,0,0,0,0,0,0,-1,762,1009,0,0
-455,15,0,0,0,0,0,0,0,0,0,-1,769,1009,0,0
-448,15,0,0,0,0,0,0,0,0,0,-1,776,1009,0,0
-441,15,0,0,0,0,0,0,0,0,0,-1,783,1009,0,0
-434,15,0,0,0,0,0,0,0,0,0,-1,790,1009,0,0
-427,15,0,0,0,0,0,0,0,0,0,-1,797,1009,0,0
-420,15,0,0,0,0,0,0,0,0,0,-1,804,1009,0,0
-413,15,0,0,0,0,0,0,0,0,0,-1,811,1009,0,0
-406,15,0,0,0,0,0,0,0,0,0,-1,818,1009,0,0
-399,15,0,0,0,0,0,0,0,0,0,-1,825,1009,0,0
-392,15,0,0,0,0,0,0,0,0,0,-1,832,1009,0,0
-385,15,0,0,0,0,0,0,0,0,0,-1,839,1009,0,0
-378,15,0,0,0,0,0,0,0,0,0,-1,846,1009,0,0
-371,15,0,0,0,0,0,0,0,0,0,-1,853,1009,0,0
-364,15,0,0,0,0,0,0,0,0,0,-1,860,1009,0,0
-357,15,0,0,0,0,0,0,0,0,0,-1,867,1009,0,0
-350,15,0,0,0,0,0,0,0,0,0,-1,874,1009,0,0
-343,15,0,0,0,0,0,0,0,0,0,-1,881,1009,0,0
-336,15,0,0,0,0,0,0,0,0,0,-1,888,1009,0,0
-329,15,0,0,0,0,0,0,0,0,0,-1,895,1009,0,0
-322,15,0,0,0,0,0,0,0,0,0,-1,902,1009,0,0
-315,15,0,0,0,0,0,0,0,0,0,-1,909,1009,0,0
-308,15,0,0,0,0,0,0,0,0,0,-1,916,1009,0,0
-301,15,0,0,0,0,0,0,0,0,0,-1,923,1009,0,0
-294,15,0,0,0,0,0,0,0,0,0,-1,930,1009,0,0
-287,15,0,0,0,0,0,0,0,0,0,-1,937,1009,0,0
-280,15,0,0,0,0,0,0,0,0,0,-1,944,1009,0,0
-273,15,0,0,0,0,0,0,0,0,0,-1,951,1009,0,0
-266,15,0,0,0,0,0,0,0,0,0,-1,958,1009,0,0
-259,15,0,0,0,0,0,0,0,0,0,-1,965,1009,0,0
-252,15,0,0,0,0,0,0,0,0,0,-1,972,1009,0,0
-245,15,0,0,0,0,0,0,0,0,0,-1,979,1009,0,0
-238,15,0,0,0,0,0,0,0,0,0,-1,986,1009,0,0
-231,15,0,0,0,0,0,0,0,0,0,-1,993,1009,0,0
-224,15,0,0,0,0,0,0,0,0,0,-1,1000,1009,0,0
-217,15,0,0,0,0,0,0,0,0,0,-1,1007,1009,0,0
-210,15,0,0,0,0,0,0,0,0,0,-1,1014,1009,0,0
-203,15,0,0,0,0,0,0,0,0,0,-1,1021,1009,0,0
-196,15,0,0,0,0,0,0,0,0,0,-1,1028,1009,0,0
-189,15,0,0,0,0,0,0,0,0,0,-1,1035,1009,0,0
-182,15,0,0,0,0,0,0,0,0,0,-1,1042,1009,0,0
-175,15,0,0,0,0,0,0,0,0,0,-1,1049,1009,0,0
-168,15,0,0,0,0,0,0,0,0,0,-1,1056,1009,0,0
-161,15,0,0,0,0,0,0,0,0,0,-1,1063,1009,0,0
-154,15,0,0,0,0,0,0,0,0,0,-1,1070,1009,0,0
-147,15,0,0,0,0,0,0,0,0,0,-1,1077,1009,0,0
-140,15,0,0,0,0,0,0,0,0,0,-1,1084,1009,0,0
-133,15,0,0,0,0,0,0,0,0,0,-1,1091,1009,0,0
-126,15,0,0,0,0,0,0,0,0,0,-1,1098,1009,0,0
-119,15,0,0,0,0,0,0,0,0,0,-1,1105,1009,0,0
-112,15,0,0,0,0,0,0,0,0,0,-1,1112,1009,0,0
-105,15,0,0,0,0,0,0,0,0,0,-1,1119,1009,0,0
-98,15,0,0,0,0,0,0,0,0,0,-1,1126,1009,0,0
-91,15,0,0,0,0,0,0,0,0,0,-1,1133,1009,0,0
-84,15,0,0,0,0,0,0,0,0,0,-1,1140,1009,0,0
-77,15,0,0,0,0,0,0,0,0,0,-1,1147,1009,0,0
-70,15,0,0,0,0,0,0,0,0,0,-1,1154,1009,0,0
-63,15,0,0,0,0,0,0,0,0,0,-1,1161,1009,0,0
-56,15,0,0,0,0,0,0,0,0,0,-1,1168,1009,0,0
-49,15,0,0,0,0,0,0,0,0,0,-1,1175,1009,0,0
-42,15,0,0,0,0,0,0,0,0,0,-1,1182,1009,0,0
-35,15,0,0,0,0,0,0,0,0,0,-1,1189,1009,0,0
-28,15,0,0,0,0,0,0,0,0,0,-1,1196,1009,0,0
-21,15,0,0,0,0,0,0,0,0,0,-1,1203,1009,0,0
-14,15,0,0,0,0,0,0,0,0,0,-1,1210,1009,0,0
-7,15,0,0,0,0,0,0,0,0,0,-1,1217,1009,0,0
0,15,0,0,0,0,0,0,0,0,0,-1,1224,1009,0,0
7,15,0,0,0,0,0,0,0,0,0,-1,1231,1009,0,0
14,15,0,0,0,0,0,0,0,0,0,-1,1238,1009,0,0
21,15,0,0,0,0,0,0,0,0,0,-1,1245,1009,0,0
28,15,0,0,0,0,0,0,0,0,0,-1,1252,1009,0,0
35,15,0,0,0,0,0,0,0,0,0,-1,1259,1009,0,0
42,15,0,0,0,0,0,0,0,0,0,-1,1266,1009,0,0
49,15,0,0,0,0,0,0,0,0,0,-1,1273,1009,0,0
56,15,0,0,0,0,0,0,0,0,0,-1,1280,1009,0,0
63,15,0,0,0,0,0,0,0,0,0,-1,1287,1009,0,0
70,15,0,0,0,0,0,0,0,0,0,-1,1294,1009,0,0
77,15,0,0,0,0,0,0,0,0,0,-1,1301,1009,0,0
84,15,0,0,0,0,0,0,0,0,0,-1,1308,1009,0,0
91,15,0,0,0,0,0,0,0,0,0,-1,1315,1009,0,0
98,15,0,0,0,0,0,0,0,0,0,-1,1322,1009,0,0
105,15,0,0,0,0,0,0,0,0,0,-1,1329,1009,0,0
112,15,0,0,0,0,0,0,0,0,0,-1,1336,1009,0,0
119,15,0,0,0,0,0,0,0,0,0,-1,1343,1009,0,0
126,15,0,0,0,0,0,0,0,0,0,-1,1350,1009,0,0
133,15,0,0,0,0,0,0,0,0,0,-1,1357,1009,0,0
140,15,0,0,0,0,0,0,0,0,0,-1,1364,1009,0,0
147,15,0,0,0,0,0,0,0,0,0,-1,1371,1009,0,0
154,15,0,0,0,0,0,0,0,0,0,-1,1378,1009,0,0
161,15,0,0,0,0,0,0,0,0,0,-1,1385,1009,0,0
168,15,0,0,0,0,0,0,0,0,0,-1,1392,1009,0,0
175,15,0,0,0,0,0,0,0,0,0,-1,1399,1009,0,0
182,15,0,0,0,0,0,0,0,0,0,-1,1406,1009,0,0
189,15,0,0,0,0,0,0,0,0,0,-1,1413,1009,0,0
196,15,0,0,0,0,0,0,0,0,0,-1,1420,1009,0,0
203,15,0,0,0,0,0,0,0,0,0,-1,1427,1009,0,0
210,15,0,0,0,0,0,0,0,0,0,-1,1434,1009,0,0
217,15,0,0,0,0,0,0,0,0,0,-1,1441,1009,0,0
224,15,0,0,0,0,0,0,0,0,0,-1,1448,1009,0,0
231,15,0,0,0,0,0,0,0,0,0,-1,1455,1009,0,0
238,15,0,0,0,0,0,0,0,0,0,-1,1462,1009,0,0
245,15,0,0,0,0,0,0,0,0,0,-1,1469,1009,0,0
252,15,0,0,0,0,0,0,0,0,0,-1,1476,1009,0,0
259,15,0,0,0,0,0,0,0,0,0,-1,1483,1009,0,0
266,15,0,0,0,0,0,0,0,0,0,-1,1490,1009,0,0
273,15,0,0,0,0,0,0,0,0,0,-1,1497,1009,0,0
280,15,0,0,0,0,0,0,0,0,0,-1,1504,1009,0,0
287,15,0,0,0,0,0,0,0,0,0,-1,1511,1009,0,0
294,15,0,0,0,0,0,0,0,0,0,-1,1518,1009,0,0
301,15,0,0,0,0,0,0,0,0,0,-1,1525,1009,0,0
308,15,0,0,0,0,0,0,0,0,0,-1,1532,1009,0,0
315,15,0,0,0,0,0,0,0,0,0,-1,1539,1009,0,0
322,15,0,0,0,0,0,0,0,0,0,-1,1546,1009,0,0
329,15,0,0,0,0,0,0,0,0,0,-1,1553,1009,0,0
336,15,0,0,0,0,0,0,0,0,0,-1,1560,1009,0,0
343,15,0,0,0,0,0,0,0,0,0,-1,1567,1009,0,0
350,15,0,0,0,0,0,0,0,0,0,-1,1574,1009,0,0
357,15,0,0,0,0,0,0,0,0,0,-1,1581,1009,0,0
364,15,0,0,0,0,0,0,0,0,0,-1,1588,1009,0,0
371,15,0,0,0,0,0,0,0,0,0,-1,1595,1009,0,0
378,15,0,0,0,0,0,0,0,0,0,-1,1602,1009,0,0
385,15,0,0,0,0,0,0,0,0,0,-1,1609,1009,0,0
392,15,0,0,0,0,0,0,0,0,0,-1,1616,1009,0,0
399,15,0,0,0,0,0,0,0,0,0,-1,1623,1009,0,0
406,15,0,0,0,0,0,0,0,0,0,-1,1630,1009,0,0
413,15,0,0,0,0,0,0,0,0,0,-1,1637,1009,0,0
420,15,0,0,0,0,0,0,0,0,0,-1,1644,1009,0,0
427,15,0,0,0,0,0,0,0,0,0,-1,1651,1009,0,0
434,15,0,0,0,0,0,0,0,0,0,-1,1658,1009,0,0
441,15,0,0,0,0,0,0,0,0,0,-1,1665,1009,0,0
448,15,0,0,0,0,0,0,0,0,0,-1,1672,1009,0,0
455,15,0,0,0,0,0,0,0,0,0,-1,1679,1009,0,0
462,15,0,0,0,0,0,0,0,0,0,-1,1686,1009,0,0
469,15,0,0,0,0,0,0,0,0,0,-1,1693,1009,0,0
476,15,0,0,0,0,0,0,0,0,0,-1,1700,1009,0,0
483,15,0,0,0,0,0,0,0,0,0,-1,1707,1009,0,0
490,15,0,0,0,0,0,0,0,0,0,-1,1714,1009,0,0
497,15,0,0,0,0,0,0,0,0,0,-1,1721,1009,0,0
504,15,0,0,0,0,0,0,0,0,0,-1,1728,1009,0,0
511,15,0,0,0,0,0,0,0,0,0,-1,1735,1009,0,0
518,15,0,0,0,0,0,0,0,0,0,-1,1742,1009,0,0
525,15,0,0,0,0,0,0,0,0,0,-1,1749,1009,0,0
532,15,0,0,0,0,0,0,0,0,0,-1,1756,1009,0,0
539,15,0,0,0,0,0,0,0,0,0,-1,1763,1009,0,0
546,15,0,0,0,0,0,0,0,0,0,-1,1770,1009,0,0
553,15,0,0,0,0,0,0,0,0,0,-1,1777,1009,0,0
560,15,0,0,0,0,0,0,0,0,0,-1,1784,1009,0,0
567,15,0,0,0,0,0,0,0,0,0,-1,1791,1009,0,0
574,15,0,0,0,0,0,0,0,0,0,-1,1798,1009,0,0
581,15,0,0,0,0,0,0,0,0,0,-1,1805,1009,0,0
588,15,0,0,0,0,0,0,0,0,0,-1,1812,1009,0,0
595,15,0,0,0,0,0,0,0,0,0,-1,1819,1009,0,0
602,15,0,0,0,0,0,0,0,0,0,-1,1826,1009,0,0
609,15,0,0,0,0,0,0,0,0,0,-1,1833,1009,0,0
616,15,0,0,0,0,0,0,0,0,0,-1,1840,1009,0,0
623,15,0,0,0,0,0,0,0,0,0,-1,1847,1009,0,0
630,15,0,0,0,0,0,0,0,0,0,-1,1854,1009,0,0
637,15,0,0,0,0,0,0,0,0,0,-1,1861,1009,0,0
644,15,80.5868,1.96997,0.00155557,0.00202186,0.00251291,0.00431242,-0.000734988,0.831655,0.00314866,0.039839,1868,1009,80.5868,-1.97
651,15,80.6337,2.13348,0.000566657,0.00208001,0.00158374,0.00307856,-0.000431889,1.00825,0.00221044,0.037691,1875,1009,80.6336,-2.13351
658,15,80.736,2.28607,-9.01539e-05,0.00203905,0.000851913,0.00233795,-0.000389052,1.23336,0.00170319,0.0389267,1882,1009,80.736,-2.28607
665,15,80.8464,2.42389,-0.000343585,0.00189919,0.000201207,0.0019171,-0.000361493,1.48203,0.00141405,0.0412867,1889,1009,80.8464,-2.42387
672,15,80.7847,2.4101,-0.000397482,0.00173807,-0.000301212,0.00177974,-0.000439154,-1.43332,0.00135678,0.0400274,1896,1009,80.7847,-2.41009
679,15,80.6736,2.21661,-0.000262698,0.00146725,-0.000619055,0.00166595,-0.000461402,-1.26021,0.00129219,0.0396847,1903,1009,80.6736,-2.21659
686,15,80.7795,2.03033,-0.000158905,0.0008755,-0.000742719,0.00126336,-0.000546761,-1.08954,0.00107202,0.0426643,1910,1009,80.7795,-2.03033
693,15,80.7705,2.18805,-7.89777e-05,0.000206006,-0.000772369,0.000848917,-0.000721889,-0.876616,0.000907893,0.0391791,1917,1009,80.7705,-2.18803
700,15,80.7007,2.15942,-0.000155987,-0.00023721,-0.000773584,0.000578051,-0.000971247,-0.759173,0.000904039,0.0310156,1924,1009,80.7006,-2.15941
707,15,80.6732,2.15662,-0.000943251,0.000126761,-0.00083621,0.000584467,-0.00140096,-1.06998,0.00117815,0.030591,1931,1009,80.6733,-2.15662
714,15,80.6674,2.25098,-0.00213957,0.00107337,-0.000935625,0.00132597,-0.00239217,-1.3071,0.00217589,0.0435342,1938,1009,80.6673,-2.25095
721,15,80.5758,2.216,0,0,0,0,0,0,0,-1,1945,1009,80.5758,-2.21599
728,15,80.9684,7.27972,0,0,0,0,0,0,0,-1,1952,1009,80.9684,-7.2797
735,15,80.874,7.45953,-0.00564976,0.00629872,-0.00142214,0.00646565,-0.00581669,-1.45395,0.00709452,0.0241918,1959,1009,80.874,-7.45955
742,15,80.9042,7.69489,-0.00717006,0.00843999,-0.0017406,0.00863172,-0.00736179,-1.46109,0.00924355,0.0489569,1966,1009,80.9042,-7.69489
749,15,80.8953,7.74963,-0.00821652,0.0115608,-0.00290552,0.0119788,-0.00863454,-1.42791,0.0119532,0.030985,1973,1009,80.8952,-7.74961
756,15,80.8757,7.65088,-0.00902893,0.01602,-0.0043268,0.0167463,-0.00975525,-1.40448,0.0154771,0.0225727,1980,1009,80.8757,-7.65091
763,15,80.7998,7.81787,-0.00909409,0.0221574,-0.00683885,0.0235884,-0.0105251,-1.36452,0.0201711,0.016324,1987,1009,80.7998,-7.81787
770,15,80.5867,7.85315,-0.00735803,0.0305392,-0.0111334,0.0335678,-0.0103867,-1.30519,0.0265275,0.0221231,1994,1009,80.5866,-7.85315
777,15,80.0791,7.91852,-0.00392305,0.0402978,-0.0170237,0.0460922,-0.00971742,-1.24273,0.0344275,0.0482784,2001,1009,80.079,-7.91849
784,15,79.6277,8.04114,0,0,0,0,0,0,0,-1,2008,1009,79.6276,-8.04112
791,15,77.2153,5.6933,0,0,0,0,0,0,0,-1,2015,1009,77.2154,-5.69328
798,15,78.0652,5.2652,0,0,0,0,0,0,0,-1,2022,1009,78.0652,-5.26518
805,15,79.0955,4.66681,0,0,0,0,0,0,0,-1,2029,1009,79.0955,-4.66682
812,15,80.2139,4.08624,0,0,0,0,0,0,0,-1,2036,1009,80.2139,-4.08623
-700,8,0,0,0,0,0,0,0,0,0,-1,524,1016,0,0
-693,8,-66.9214,2.16553,0,0,0,0,0,0,0,-1,531,1016,-66.9214,-2.16554
-686,8,-66.5251,1.71716,-0.0405556,-0.0427856,0.0575256,0.0158658,-0.0992071,0.775708,0.0720116,0.0431974,538,1016,-66.5252,-1.71717
-679,8,-66.5035,2.211,-0.0374456,-0.0323494,0.0493333,0.0145016,-0.0842966,0.8112,0.0616032,0.042424,545,1016,-66.5035,-2.211
-672,8,-66.84,2.62518,0,0,0,0,0,0,0,-1,552,1016,-66.84,-2.62521
-665,8,-63.8641,5.05444,0,0,0,0,0,0,0,-1,559,1016,-63.8641,-5.05442
-658,8,-63.5308,5.51825,0,0,0,0,0,0,0,-1,566,1016,-63.5308,-5.51823
-651,8,-62.4905,6.31323,0,0,0,0,0,0,0,-1,573,1016,-62.4905,-6.31323
-644,8,-64.6301,6.76099,0,0,0,0,0,0,0,-1,580,1016,-64.6301,-6.76096
-637,8,-64.6816,6.93866,-0.015528,0.00800934,0.0113853,0.0126152,-0.0201339,1.18637,0.0190731,0.0469362,587,1016,-64.6816,-6.93864
-630,8,-64.9412,7.09351,-0.012497,0.0124799,0.00706065,0.0143377,-0.0143547,1.31351,0.0165656,0.0287453,594,1016,-64.9412,-7.09352
-623,8,-64.923,7.10956,-0.00989231,0.0133324,0.00392549,0.0139779,-0.0105379,1.4078,0.0142006,0.0180405,601,1016,-64.923,-7.10956
-616,8,-65.014,7.0069,-0.00726676,0.00889127,0.002001,0.00913538,-0.00751087,1.4494,0.00962596,0.0204572,608,1016,-65.014,-7.0069
-609,8,-65.1107,6.91443,-0.00575638,0.00631777,0.00121277,0.00643838,-0.00587699,1.47167,0.00711275,0.0247471,615,1016,-65.1107,-6.91444
-602,8,-65.0464,6.99231,-0.00488902,0.00382067,0.00100032,0.00393408,-0.00500243,1.4579,0.00517177,0.0283721,622,1016,-65.0464,-6.99234
-595,8,-65.1356,6.91656,0,0,0,0,0,0,0,-1,629,1016,-65.1356,-6.91658
-588,8,-63.6854,0.232971,0,0,0,0,0,0,0,-1,636,1016,-63.6854,-0.232969
-581,8,-63.7421,0.252075,-0.00263225,-0.000650232,0.000263184,-0.00061588,-0.0026666,1.44101,0.00161214,0.0307118,643,1016,-63.7421,-0.252088
-574,8,-63.7587,0.270386,-0.00214346,-0.00119419,-1.92751e-05,-0.0011938,-0.00214385,-1.5505,0.00124042,0.0326078,650,1016,-63.7587,-0.270405
-567,8,-63.8503,0.261414,-0.00181481,-0.0012227,-0.000230312,-0.00114367,-0.00189384,-1.24022,0.00110125,0.0365689,657,1016,-63.8504,-0.261429
-560,8,-63.8345,0.323853,-0.00127618,-0.000732157,-0.000473748,-0.000457883,-0.00155045,-1.046,0.000919814,0.0394036,664,1016,-63.8345,-0.323874
-553,8,-63.6295,0.291626,0,0,0,0,0,0,0,-1,671,1016,-63.6295,-0.291639
-546,8,-63.8667,0.565918,0.000419097,0.000286158,-0.00150575,0.00185984,-0.00115459,-0.763341,0.00175619,0.0402572,678,1016,-63.8667,-0.565929
-539,8,-63.9107,0.56842,0.00117491,0.000291795,-0.00234557,0.00312012,-0.00165342,-0.692361,0.00279903,0.0411606,685,1016,-63.9107,-0.568421
-532,8,-63.8118,0.358704,0.00220347,0.000640774,-0.00319411,0.00471041,-0.00186617,-0.665443,0.00391357,0.041515,692,1016,-63.8118,-0.358734
-525,8,0,0,0,0,0,0,0,0,0,-1,699,1016,0,0
-518,8,0,0,0,0,0,0,0,0,0,-1,706,1016,0,0
-511,8,0,0,0,0,0,0,0,0,0,-1,713,1016,0,0
-504,8,0,0,0,0,0,0,0,0,0,-1,720,1016,0,0
-497,8,0,0,0,0,0,0,0,0,0,-1,727,1016,0,0
-490,8,0,0,0,0,0,0,0,0,0,-1,734,1016,0,0
-483,8,0,0,0,0,0,0,0,0,0,-1,741,1016,0,0
-476,8,0,0,0,0,0,0,0,0,0,-1,748,1016,0,0
-469,8,0,0,0,0,0,0,0,0,0,-1,755,1016,0,0
-462,8,0,0,0,0,0,0,0,0,0,-1,762,1016,0,0
-455,8,0,0,0,0,0,0,0,0,0,-1,769,1016,0,0
-448,8,0,0,0,0,0,0,0,0,0,-1,776,1016,0,0
-441,8,0,0,0,0,0,0,0,0,0,-1,783,1016,0,0
-434,8,0,0,0,0,0,0,0,0,0,-1,790,1016,0,0
-427,8,0,0,0,0,0,0,0,0,0,-1,797,1016,0,0
-420,8,0,0,0,0,0,0,0,0,0,-1,804,1016,0,0
-413,8,0,0,0,0,0,0,0,0,0,-1,811,1016,0,0
-406,8,0,0,0,0,0,0,0,0,0,-1,818,1016,0,0
-399,8,0,0,0,0,0,0,0,0,0,-1,825,1016,0,0
-392,8,0,0,0,0,0,0,0,0,0,-1,832,1016,0,0
-385,8,0,0,0,0,0,0,0,0,0,-1,839,1016,0,0
-378,8,0,0,0,0,0,0,0,0,0,-1,846,1016,0,0
-371,8,0,0,0,0,0,0,0,0,0,-1,853,1016,0,0
-364,8,0,0,0,0,0,0,0,0,0,-1,860,1016,0,0
-357,8,0,0,0,0,0,0,0,0,0,-1,867,1016,0,0
-350,8,0,0,0,0,0,0,0,0,0,-1,874,1016,0,0
-343,8,0,0,0,0,0,0,0,0,0,-1,881,1016,0,0
-336,8,0,0,0,0,0,0,0,0,0,-1,888,1016,0,0
-329,8,0,0,0,0,0,0,0,0,0,-1,895,1016,0,0
-322,8,0,0,0,0,0,0,0,0,0,-1,902,1016,0,0
-315,8,0,0,0,0,0,0,0,0,0,-1,909,1016,0,0
-308,8,0,0,0,0,0,0,0,0,0,-1,916,1016,0,0
-301,8,0,0,0,0,0,0,0,0,0,-1,923,1016,0,0
-294,8,0,0,0,0,0,0,0,0,0,-1,930,1016,0,0
-287,8,0,0,0,0,0,0,0,0,0,-1,937,1016,0,0
-280,8,0,0,0,0,0,0,0,0,0,-1,944,1016,0,0
-273,8,0,0,0,0,0,0,0,0,0,-1,951,1016,0,0
-266,8,0,0,0,0,0,0,0,0,0,-1,958,1016,0,0
-259,8,0,0,0,0,0,0,0,0,0,-1,965,1016,0,0
-252,8,0,0,0,0,0,0,0,0,0,-1,972,1016,0,0
-245,8,0,0,0,0,0,0,0,0,0,-1,979,1016,0,0
-238,8,0,0,0,0,0,0,0,0,0,-1,986,1016,0,0
-231,8,0,0,0,0,0,0,0,0,0,-1,993,1016,0,0
-224,8,0,0,0,0,0,0,0,0,0,-1,1000,1016,0,0
-217,8,0,0,0,0,0,0,0,0,0,-1,1007,1016,0,0
-210,8,0,0,0,0,0,0,0,0,0,-1,1014,1016,0,0
-203,8,0,0,0,0,0,0,0,0,0,-1,1021,1016,0,0
-196,8,0,0,0,0,0,0,0,0,0,-1,1028,1016,0,0
-189,8,0,0,0,0,0,0,0,0,0,-1,1035,1016,0,0
-182,8,0,0,0,0,0,0,0,0,0,-1,1042,1016,0,0
-175,8,0,0,0,0,0,0,0,0,0,-1,1049,1016,0,0
-168,8,0,0,0,0,0,0,0,0,0,-1,1056,1016,0,0
-161,8,0,0,0,0,0,0,0,0,0,-1,1063,1016,0,0
-154,8,0,0,0,0,0,0,0,0,0,-1,1070,1016,0,0
-147,8,0,0,0,0,0,0,0,0,0,-1,1077,1016,0,0
-140,8,0,0,0,0,0,0,0,0,0,-1,1084,1016,0,0
-133,8,0,0,0,0,0,0,0,0,0,-1,1091,1016,0,0
-126,8,0,0,0,0,0,0,0,0,0,-1,1098,1016,0,0
-119,8,0,0,0,0,0,0,0,0,0,-1,1105,1016,0,0
-112,8,0,0,0,0,0,0,0,0,0,-1,1112,1016,0,0
-105,8,0,0,0,0,0,0,0,0,0,-1,1119,1016,0,0
-98,8,0,0,0,0,0,0,0,0,0,-1,1126,1016,0,0
-91,8,0,0,0,0,0,0,0,0,0,-1,1133,1016,0,0
-84,8,0,0,0,0,0,0,0,0,0,-1,1140,1016,0,0
-77,8,0,0,0,0,0,0,0,0,0,-1,1147,1016,0,0
-70,8,0,0,0,0,0,0,0,0,0,-1,1154,1016,0,0
-63,8,0,0,0,0,0,0,0,0,0,-1,1161,1016,0,0
-56,8,0,0,0,0,0,0,0,0,0,-1,1168,1016,0,0
-49,8,0,0,0,0,0,0,0,0,0,-1,1175,1016,0,0
-42,8,0,0,0,0,0,0,0,0,0,-1,1182,1016,0,0
-35,8,0,0,0,0,0,0,0,0,0,-1,1189,1016,0,0
-28,8,0,0,0,0,0,0,0,0,0,-1,1196,1016,0,0
-21,8,0,0,0,0,0,0,0,0,0,-1,1203,1016,0,0
-14,8,0,0,0,0,0,0,0,0,0,-1,1210,1016,0,0
-7,8,0,0,0,0,0,0,0,0,0,-1,1217,1016,0,0
0,8,0,0,0,0,0,0,0,0,0,-1,1224,1016,0,0
7,8,0,0,0,0,0,0,0,0,0,-1,1231,1016,0,0
14,8,0,0,0,0,0,0,0,0,0,-1,1238,1016,0,0
21,8,0,0,0,0,0,0,0,0,0,-1,1245,1016,0,0
28,8,0,0,0,0,0,0,0,0,0,-1,1252,1016,0,0
35,8,0,0,0,0,0,0,0,0,0,-1,1259,1016,0,0
42,8,0,0,0,0,0,0,0,0,0,-1,1266,1016,0,0
49,8,0,0,0,0,0,0,0,0,0,-1,1273,1016,0,0
56,8,0,0,0,0,0,0,0,0,0,-1,1280,1016,0,0
63,8,0,0,0,0,0,0,0,0,0,-1,1287,1016,0,0
70,8,0,0,0,0,0,0,0,0,0,-1,1294,1016,0,0
77,8,0,0,0,0,0,0,0,0,0,-1,1301,1016,0,0
84,8,0,0,0,0,0,0,0,0,0,-1,1308,1016,0,0
91,8,0,0,0,0,0,0,0,0,0,-1,1315,1016,0,0
98,8,0,0,0,0,0,0,0,0,0,-1,1322,1016,0,0
105,8,0,0,0,0,0,0,0,0,0,-1,1329,1016,0,0
112,8,0,0,0,0,0,0,0,0,0,-1,1336,1016,0,0
119,8,0,0,0,0,0,0,0,0,0,-1,1343,1016,0,0
126,8,0,0,0,0,0,0,0,0,0,-1,1350,1016,0,0
133,8,0,0,0,0,0,0,0,0,0,-1,1357,1016,0,0
140,8,0,0,0,0,0,0,0,0,0,-1,1364,1016,0,0
147,8,0,0,0,0,0,0,0,0,0,-1,1371,1016,0,0
154,8,0,0,0,0,0,0,0,0,0,-1,1378,1016,0,0
161,8,0,0,0,0,0,0,0,0,0,-1,1385,1016,0,0
168,8,0,0,0,0,0,0,0,0,0,-1,1392,1016,0,0
175,8,0,0,0,0,0,0,0,0,0,-1,1399,1016,0,0
182,8,0,0,0,0,0,0,0,0,0,-1,1406,1016,0,0
189,8,0,0,0,0,0,0,0,0,0,-1,1413,1016,0,0
196,8,0,0,0,0,0,0,0,0,0,-1,1420,1016,0,0
203,8,0,0,0,0,0,0,0,0,0,-1,1427,1016,0,0
210,8,0,0,0,0,0,0,0,0,0,-1,1434,1016,0,0
217,8,0,0,0,0,0,0,0,0,0,-1,1441,1016,0,0
224,8,0,0,0,0,0,0,0,0,0,-1,1448,1016,0,0
231,8,0,0,0,0,0,0,0,0,0,-1,1455,1016,0,0
238,8,0,0,0,0,0,0,0,0,0,-1,1462,1016,0,0
245,8,0,0,0,0,0,0,0,0,0,-1,1469,1016,0,0
252,8,0,0,0,0,0,0,0,0,0,-1,1476,1016,0,0
259,8,0,0,0,0,0,0,0,0,0,-1,1483,1016,0,0
266,8,0,0,0,0,0,0,0,0,0,-1,1490,1016,0,0
273,8,0,0,0,0,0,0,0,0,0,-1,1497,1016,0,0
280,8,0,0,0,0,0,0,0,0,0,-1,1504,1016,0,0
287,8,0,0,0,0,0,0,0,0,0,-1,1511,1016,0,0
294,8,0,0,0,0,0,0,0,0,0,-1,1518,1016,0,0
301,8,0,0,0,0,0,0,0,0,0,-1,1525,1016,0,0
308,8,0,0,0,0,0,0,0,0,0,-1,1532,1016,0,0
315,8,0,0,0,0,0,0,0,0,0,-1,1539,1016,0,0
322,8,0,0,0,0,0,0,0,0,0,-1,1546,1016,0,0
329,8,0,0,0,0,0,0,0,0,0,-1,1553,1016,0,0
336,8,0,0,0,0,0,0,0,0,0,-1,1560,1016,0,0
343,8,0,0,0,0,0,0,0,0,0,-1,1567,1016,0,0
350,8,0,0,0,0,0,0,0,0,0,-1,1574,1016,0,0
357,8,0,0,0,0,0,0,0,0,0,-1,1581,1016,0,0
364,8,0,0,0,0,0,0,0,0,0,-1,1588,1016,0,0
371,8,0,0,0,0,0,0,0,0,0,-1,1595,1016,0,0
378,8,0,0,0,0,0,0,0,0,0,-1,1602,1016,0,0
385,8,0,0,0,0,0,0,0,0,0,-1,1609,1016,0,0
392,8,0,0,0,0,0,0,0,0,0,-1,1616,1016,0,0
399,8,0,0,0,0,0,0,0,0,0,-1,1623,1016,0,0
406,8,0,0,0,0,0,0,0,0,0,-1,1630,1016,0,0
413,8,0,0,0,0,0,0,0,0,0,-1,1637,1016,0,0
420,8,0,0,0,0,0,0,0,0,0,-1,1644,1016,0,0
427,8,0,0,0,0,0,0,0,0,0,-1,1651,1016,0,0
434,8,0,0,0,0,0,0,0,0,0,-1,1658,1016,0,0
441,8,0,0,0,0,0,0,0,0,0,-1,1665,1016,0,0
448,8,0,0,0,0,0,0,0,0,0,-1,1672,1016,0,0
455,8,0,0,0,0,0,0,0,0,0,-1,1679,1016,0,0
462,8,0,0,0,0,0,0,0,0,0,-1,1686,1016,0,0
469,8,0,0,0,0,0,0,0,0,0,-1,1693,1016,0,0
476,8,0,0,0,0,0,0,0,0,0,-1,1700,1016,0,0
483,8,0,0,0,0,0,0,0,0,0,-1,1707,1016,0,0
490,8,0,0,0,0,0,0,0,0,0,-1,1714,1016,0,0
497,8,0,0,0,0,0,0,0,0,0,-1,1721,1016,0,0
504,8,0,0,0,0,0,0,0,0,0,-1,1728,1016,0,0
511,8,0,0,0,0,0,0,0,0,0,-1,1735,1016,0,0
518,8,0,0,0,0,0,0,0,0,0,-1,1742,1016,0,0
525,8,0,0,0,0,0,0,0,0,0,-1,1749,1016,0,0
532,8,0,0,0,0,0,0,0,0,0,-1,1756,1016,0,0
539,8,0,0,0,0,0,0,0,0,0,-1,1763,1016,0,0
546,8,0,0,0,0,0,0,0,0,0,-1,1770,1016,0,0
553,8,0,0,0,0,0,0,0,0,0,-1,1777,1016,0,0
560,8,0,0,0,0,0,0,0,0,0,-1,1784,1016,0,0
567,8,0,0,0,0,0,0,0,0,0,-1,1791,1016,0,0
574,8,0,0,0,0,0,0,0,0,0,-1,1798,1016,0,0
581,8,0,0,0,0,0,0,0,0,0,-1,1805,1016,0,0
588,8,0,0,0,0,0,0,0,0,0,-1,1812,1016,0,0
595,8,0,0,0,0,0,0,0,0,0,-1,1819,1016,0,0
602,8,0,0,0,0,0,0,0,0,0,-1,1826,1016,0,0
609,8,0,0,0,0,0,0,0,0,0,-1,1833,1016,0,0
616,8,0,0,0,0,0,0,0,0,0,-1,1840,1016,0,0
623,8,0,0,0,0,0,0,0,0,0,-1,1847,1016,0,0
630,8,0,0,0,0,0,0,0,0,0,-1,1854,1016,0,0
637,8,0,0,0,0,0,0,0,0,0,-1,1861,1016,0,0
644,8,80.6923,2.08093,0.000757417,0.00319832,0.00237046,0.00464406,-0.000688322,1.02313,0.00334914,0.0468043,1868,1016,80.6923,-2.08092
651,8,80.7754,2.26318,-3.92962e-05,0.00314991,0.00156164,0.00378723,-0.000676612,1.18332,0.00277796,0.0406759,1875,1016,80.7754,-2.2632
658,8,80.7523,2.37537,-0.000582356,0.00304536,0.000895151,0.00325422,-0.000791213,1.34158,0.00247573,0.0405463,1882,1016,80.7523,-2.37537
665,8,80.6708,2.26746,-0.000762622,0.00283118,0.000317736,0.00285906,-0.000790497,1.48329,0.00221702,0.0424648,1889,1016,80.6707,-2.26747
672,8,80.6432,2.14044,-0.000746303,0.00259723,-0.000103912,0.00260045,-0.00074953,-1.53976,0.00203014,0.0419994,1896,1016,80.6432,-2.14045
679,8,80.6495,2.15796,-0.000532534,0.00228459,-0.000382043,0.00233549,-0.000583425,-1.43837,0.00178356,0.0405126,1903,1016,80.6496,-2.15796
686,8,80.6035,2.12122,-0.000420612,0.00164183,-0.000487151,0.00175111,-0.000529888,-1.35013,0.00137841,0.0413167,1910,1016,80.6035,-2.1212
693,8,80.6874,2.2547,-0.000314256,0.000907154,-0.00049734,0.00108405,-0.000491147,-1.22908,0.000930664,0.0372178,1917,1016,80.6873,-2.25471
700,8,80.6865,2.17334,-0.000320251,0.000364425,-0.000461071,0.000596353,-0.000552179,-1.10473,0.000663269,0.0286868,1924,1016,80.6865,-2.17334
707,8,80.6572,2.16553,-0.00113711,0.000643368,-0.000484233,0.000766543,-0.00126029,-1.32171,0.00118171,0.0261172,1931,1016,80.6572,-2.16552
714,8,80.6757,2.12372,-0.00236103,0.00152066,-0.000535431,0.00159316,-0.00243354,-1.43621,0.00234163,0.0383933,1938,1016,80.6756,-2.12372
721,8,80.702,2.04315,0,0,0,0,0,0,0,-1,1945,1016,80.702,-2.04315
728,8,52.1681,5.36774,0,0,0,0,0,0,0,-1,1952,1016,52.168,-5.36773
735,8,80.969,7.62372,0,0,0,0,0,0,0,-1,1959,1016,80.969,-7.6237
742,8,80.8994,7.85657,0,0,0,0,0,0,0,-1,1966,1016,80.8994,-7.85659
749,8,81.1375,7.81915,0,0,0,0,0,0,0,-1,1973,1016,81.1375,-7.81917
756,8,80.9841,7.49677,-0.00987476,0.0156951,-0.00337655,0.0161335,-0.0103131,-1.44169,0.0153917,0.0457474,1980,1016,80.9841,-7.49676
763,8,80.9065,7.62628,-0.0101214,0.0213608,-0.00566773,0.0223501,-0.0111107,-1.39799,0.0196785,0.0185461,1987,1016,80.9065,-7.62626
770,8,80.7458,7.56915,-0.00862249,0.0291089,-0.00968609,0.0314501,-0.0109637,-1.33363,0.025422,0.0224927,1994,1016,80.7458,-7.56912
777,8,80.3252,7.59363,-0.00519889,0.0381579,-0.0153906,0.0430657,-0.0101067,-1.26211,0.0326057,0.0367098,2001,1016,80.3252,-7.5936
784,8,79.8965,7.62073,0,0,0,0,0,0,0,-1,2008,1016,79.8966,-7.62075
791,8,75.5461,6.04517,0,0,0,0,0,0,0,-1,2015,1016,75.5462,-6.04517
798,8,77.3247,5.55457,0,0,0,0,0,0,0,-1,2022,1016,77.3248,-5.55454
805,8,78.6448,4.92102,0,0,0,0,0,0,0,-1,2029,1016,78.6449,-4.92102
812,8,80.1187,4.07129,0,0,0,0,0,0,0,-1,2036,1016,80.1187,-4.07129
-700,1,0,0,0,0,0,0,0,0,0,-1,524,1023,0,0
-693,1,-66.4645,2.44598,0,0,0,0,0,0,0,-1,531,1023,-66.4645,-2.44597
-686,1,-66.4102,2.61877,-0.0532517,-0.00342058,0.0645057,0.0408142,-0.0974865,0.969698,0.0820521,0.0439198,538,1023,-66.4103,-2.61875
-679,1,-66.4584,2.95282,-0.0476062,0.000231894,0.0547283,0.0360398,-0.0834141,0.991415,0.0707516,0.0450825,545,1023,-66.4584,-2.95281
-672,1,-66.6063,3.25421,0,0,0,0,0,0,0,-1,552,1023,-66.6063,-3.25419
-665,1,-66.702,3.55676,0,0,0,0,0,0,0,-1,559,1023,-66.702,-3.55674
-658,1,-64.6025,6.51764,0,0,0,0,0,0,0,-1,566,1023,-64.6025,-6.51763
-651,1,-63.4994,6.59363,0,0,0,0,0,0,0,-1,573,1023,-63.4994,-6.59364
-644,1,-64.4288,6.97388,0,0,0,0,0,0,0,-1,580,1023,-64.4288,-6.97388
-637,1,-64.6683,6.87097,-0.0168296,0.0146765,0.0115593,0.0184625,-0.0206157,1.25428,0.0225732,0.0453888,587,1023,-64.6683,-6.87094
-630,1,-65.0243,6.88153,-0.0127791,0.0161789,0.00684014,0.0177133,-0.0143135,1.35013,0.0185254,0.0393452,594,1023,-65.0243,-6.88154
-623,1,-64.8776,7.02765,-0.00957071,0.0146448,0.00350642,0.0151423,-0.0100682,1.42985,0.0146533,0.0196317,601,1023,-64.8776,-7.02766
-616,1,-65.0334,6.71588,0,0,0,0,0,0,0,-1,608,1023,-65.0334,-6.71588
-609,1,-65.1249,6.93689,-0.00527752,0.00576127,0.000496621,0.00578357,-0.00529982,1.52593,0.00640102,0.0285318,615,1023,-65.1249,-6.93691
-602,1,-64.8986,7.09698,-0.00448086,0.00331818,0.000315429,0.00333091,-0.0044936,1.53044,0.00453408,0.0188084,622,1023,-64.8986,-7.09701
-595,1,-64.9998,7.10974,0,0,0,0,0,0,0,-1,629,1023,-64.9998,-7.10976
-588,1,-63.6606,0.291016,0,0,0,0,0,0,0,-1,636,1023,-63.6606,-0.291006
-581,1,-63.7401,0.278809,-0.00252431,-0.000875937,-0.000201679,-0.00085162,-0.00254863,-1.4508,0.00149819,0.0290249,643,1023,-63.7401,-0.278836
-574,1,-63.7335,0.33252,-0.00215774,-0.00132824,-0.000337967,-0.00120797,-0.002278,-1.22893,0.00131601,0.0338854,650,1023,-63.7335,-0.332539
-567,1,-63.5721,0.273438,-0.00199741,-0.00121907,-0.000395207,-0.00105359,-0.0021629,-1.17425,0.00124889,0.0399632,657,1023,-63.5721,-0.273427
-560,1,-63.6661,0.326294,-0.00168264,-0.000568805,-0.000436207,-0.00041831,-0.00183314,-1.23857,0.00110926,0.0413167,664,1023,-63.6661,-0.326323
-553,1,-63.6549,0.317444,-0.00127293,0.000201932,-0.00060141,0.000416078,-0.00148708,-1.22872,0.00115533,0.0391194,671,1023,-63.6549,-0.317442
-546,1,-63.7095,0.429565,-0.000536026,0.000724619,-0.000947016,0.0012319,-0.00104331,-1.07903,0.0013151,0.0402758,678,1023,-63.7095,-0.429581
-539,1,-63.7922,0.375183,-9.43954e-05,0.000797152,-0.00151973,0.00193513,-0.00123238,-0.928059,0.0018437,0.0403502,685,1023,-63.7923,-0.375197
-532,1,-63.723,0.244629,0.000513227,0.0010535,-0.00215919,0.00295939,-0.00139266,-0.847629,0.00256635,0.0411238,692,1023,-63.7229,-0.244607
-525,1,0,0,0,0,0,0,0,0,0,-1,699,1023,0,0
-518,1,0,0,0,0,0,0,0,0,0,-1,706,1023,0,0
-511,1,0,0,0,0,0,0,0,0,0,-1,713,1023,0,0
-504,1,0,0,0,0,0,0,0,0,0,-1,720,1023,0,0
-497,1,0,0,0,0,0,0,0,0,0,-1,727,1023,0,0
-490,1,0,0,0,0,0,0,0,0,0,-1,734,1023,0,0
-483,1,0,0,0,0,0,0,0,0,0,-1,741,1023,0,0
-476,1,0,0,0,0,0,0,0,0,0,-1,748,1023,0,0
-469,1,0,0,0,0,0,0,0,0,0,-1,755,1023,0,0
-462,1,0,0,0,0,0,0,0,0,0,-1,762,1023,0,0
-455,1,0,0,0,0,0,0,0,0,0,-1,769,1023,0,0
-448,1,0,0,0,0,0,0,0,0,0,-1,776,1023,0,0
-441,1,0,0,0,0,0,0,0,0,0,-1,783,1023,0,0
-434,1,0,0,0,0,0,0,0,0,0,-1,790,1023,0,0
-427,1,0,0,0,0,0,0,0,0,0,-1,797,1023,0,0
-420,1,0,0,0,0,0,0,0,0,0,-1,804,1023,0,0
-413,1,0,0,0,0,0,0,0,0,0,-1,811,1023,0,0
-406,1,0,0,0,0,0,0,0,0,0,-1,818,1023,0,0
-399,1,0,0,0,0,0,0,0,0,0,-1,825,1023,0,0
-392,1,0,0,0,0,0,0,0,0,0,-1,832,1023,0,0
-385,1,0,0,0,0,0,0,0,0,0,-1,839,1023,0,0
-378,1,0,0,0,0,0,0,0,0,0,-1,846,1023,0,0
-371,1,0,0,0,0,0,0,0,0,0,-1,853,1023,0,0
-364,1,0,0,0,0,0,0,0,0,0,-1,860,1023,0,0
-357,1,0,0,0,0,0,0,0,0,0,-1,867,1023,0,0
-350,1,0,0,0,0,0,0,0,0,0,-1,874,1023,0,0
-343,1,0,0,0,0,0,0,0,0,0,-1,881,1023,0,0
-336,1,0,0,0,0,0,0,0,0,0,-1,888,1023,0,0
-329,1,0,0,0,0,0,0,0,0,0,-1,895,1023,0,0
-322,1,0,0,0,0,0,0,0,0,0,-1,902,1023,0,0
-315,1,0,0,0,0,0,0,0,0,0,-1,909,1023,0,0
-308,1,0,0,0,0,0,0,0,0,0,-1,916,1023,0,0
-301,1,0,0,0,0,0,0,0,0,0,-1,923,1023,0,0
-294,1,0,0,0,0,0,0,0,0,0,-1,930,1023,0,0
-287,1,0,0,0,0,0,0,0,0,0,-1,937,1023,0,0
-280,1,0,0,0,0,0,0,0,0,0,-1,944,1023,0,0
-273,1,0,0,0,0,0,0,0,0,0,-1,951,1023,0,0
-266,1,0,0,0,0,0,0,0,0,0,-1,958,1023,0,0
-259,1,0,0,0,0,0,0,0,0,0,-1,965,1023,0,0
-252,1,0,0,0,0,0,0,0,0,0,-1,972,1023,0,0
-245,1,0,0,0,0,0,0,0,0,0,-1,979,1023,0,0
-238,1,0,0,0,0,0,0,0,0,0,-1,986,1023,0,0
-231,1,0,0,0,0,0,0,0,0,0,-1,993,1023,0,0
-224,1,0,0,0,0,0,0,0,0,0,-1,1000,1023,0,0
-217,1,0,0,0,0,0,0,0,0,0,-1,1007,1023,0,0
-210,1,0,0,0,0,0,0,0,0,0,-1,1014,1023,0,0
-203,1,0,0,0,0,0,0,0,0,0,-1,1021,1023,0,0
-196,1,0,0,0,0,0,0,0,0,0,-1,1028,1023,0,0
-189,1,0,0,0,0,0,0,0,0,0,-1,1035,1023,0,0
-182,1,0,0,0,0,0,0,0,0,0,-1,1042,1023,0,0
-175,1,0,0,0,0,0,0,0,0,0,-1,1049,1023,0,0
-168,1,0,0,0,0,0,0,0,0,0,-1,1056,1023,0,0
-161,1,0,0,0,0,0,0,0,0,0,-1,1063,1023,0,0
-154,1,0,0,0,0,0,0,0,0,0,-1,1070,1023,0,0
-147,1,0,0,0,0,0,0,0,0,0,-1,1077,1023,0,0
-140,1,0,0,0,0,0,0,0,0,0,-1,1084,1023,0,0
-133,1,0,0,0,0,0,0,0,0,0,-1,1091,1023,0,0
-126,1,0,0,0,0,0,0,0,0,0,-1,1098,1023,0,0
-119,1,0,0,0,0,0,0,0,0,0,-1,1105,1023,0,0
-112,1,0,0,0,0,0,0,0,0,0,-1,1112,1023,0,0
-105,1,0,0,0,0,0,0,0,0,0,-1,1119,1023,0,0
-98,1,0,0,0,0,0,0,0,0,0,-1,1126,1023,0,0
-91,1,0,0,0,0,0,0,0,0,0,-1,1133,1023,0,0
-84,1,0,0,0,0,0,0,0,0,0,-1,1140,1023,0,0
-77,1,0,0,0,0,0,0,0,0,0,-1,1147,1023,0,0
-70,1,0,0,0,0,0,0,0,0,0,-1,1154,1023,0,0
-63,1,0,0,0,0,0,0,0,0,0,-1,1161,1023,0,0
-56,1,0,0,0,0,0,0,0,0,0,-1,1168,1023,0,0
-49,1,0,0,0,0,0,0,0,0,0,-1,1175,1023,0,0
-42,1,0,0,0,0,0,0,0,0,0,-1,1182,1023,0,0
-35,1,0,0,0,0,0,0,0,0,0,-1,1189,1023,0,0
-28,1,0,0,0,0,0,0,0,0,0,-1,1196,1023,0,0
-21,1,0,0,0,0,0,0,0,0,0,-1,1203,1023,0,0
-14,1,0,0,0,0,0,0,0,0,0,-1,1210,1023,0,0
-7,1,0,0,0,0,0,0,0,0,0,-1,1217,1023,0,0
0,1,0,0,0,0,0,0,0,0,0,-1,1224,1023,0,0
7,1,0,0,0,0,0,0,0,0,0,-1,1231,1023,0,0
14,1,0,0,0,0,0,0,0,0,0,-1,1238,1023,0,0
21,1,0,0,0,0,0,0,0,0,0,-1,1245,1023,0,0
28,1,0,0,0,0,0,0,0,0,0,-1,1252,1023,0,0
35,1,0,0,0,0,0,0,0,0,0,-1,1259,1023,0,0
42,1,0,0,0,0,0,0,0,0,0,-1,1266,1023,0,0
49,1,0,0,0,0,0,0,0,0,0,-1,1273,1023,0,0
56,1,0,0,0,0,0,0,0,0,0,-1,1280,1023,0,0
63,1,0,0,0,0,0,0,0,0,0,-1,1287,1023,0,0
70,1,0,0,0,0,0,0,0,0,0,-1,1294,1023,0,0
77,1,0,0,0,0,0,0,0,0,0,-1,1301,1023,0,0
84,1,0,0,0,0,0,0,0,0,0,-1,1308,1023,0,0
91,1,0,0,0,0,0,0,0,0,0,-1,1315,1023,0,0
98,1,0,0,0,0,0,0,0,0,0,-1,1322,1023,0,0
105,1,0,0,0,0,0,0,0,0,0,-1,1329,1023,0,0
112,1,0,0,0,0,0,0,0,0,0,-1,1336,1023,0,0
119,1,0,0,0,0,0,0,0,0,0,-1,1343,1023,0,0
126,1,0,0,0,0,0,0,0,0,0,-1,1350,1023,0,0
133,1,0,0,0,0,0,0,0,0,0,-1,1357,1023,0,0
140,1,0,0,0,0,0,0,0,0,0,-1,1364,1023,0,0
147,1,0,0,0,0,0,0,0,0,0,-1,1371,1023,0,0
154,1,0,0,0,0,0,0,0,0,0,-1,1378,1023,0,0
161,1,0,0,0,0,0,0,0,0,0,-1,1385,1023,0,0
168,1,0,0,0,0,0,0,0,0,0,-1,1392,1023,0,0
175,1,0,0,0,0,0,0,0,0,0,-1,1399,1023,0,0
182,1,0,0,0,0,0,0,0,0,0,-1,1406,1023,0,0
189,1,0,0,0,0,0,0,0,0,0,-1,1413,1023,0,0
196,1,0,0,0,0,0,0,0,0,0,-1,1420,1023,0,0
203,1,0,0,0,0,0,0,0,0,0,-1,1427,1023,0,0
210,1,0,0,0,0,0,0,0,0,0,-1,1434,1023,0,0
217,1,0,0,0,0,0,0,0,0,0,-1,1441,1023,0,0
224,1,0,0,0,0,0,0,0,0,0,-1,1448,1023,0,0
231,1,0,0,0,0,0,0,0,0,0,-1,1455,1023,0,0
238,1,0,0,0,0,0,0,0,0,0,-1,1462,1023,0,0
245,1,0,0,0,0,0,0,0,0,0,-1,1469,1023,0,0
252,1,0,0,0,0,0,0,0,0,0,-1,1476,1023,0,0
259,1,0,0,0,0,0,0,0,0,0,-1,1483,1023,0,0
266,1,0,0,0,0,0,0,0,0,0,-1,1490,1023,0,0
273,1,0,0,0,0,0,0,0,0,0,-1,1497,1023,0,0
280,1,0,0,0,0,0,0,0,0,0,-1,1504,1023,0,0
287,1,0,0,0,0,0,0,0,0,0,-1,1511,1023,0,0
294,1,0,0,0,0,0,0,0,0,0,-1,1518,1023,0,0
301,1,0,0,0,0,0,0,0,0,0,-1,1525,1023,0,0
308,1,0,0,0,0,0,0,0,0,0,-1,1532,1023,0,0
315,1,0,0,0,0,0,0,0,0,0,-1,1539,1023,0,0
322,1,0,0,0,0,0,0,0,0,0,-1,1546,1023,0,0
329,1,0,0,0,0,0,0,0,0,0,-1,1553,1023,0,0
336,1,0,0,0,0,0,0,0,0,0,-1,1560,1023,0,0
343,1,0,0,0,0,0,0,0,0,0,-1,1567,1023,0,0
350,1,0,0,0,0,0,0,0,0,0,-1,1574,1023,0,0
357,1,0,0,0,0,0,0,0,0,0,-1,1581,1023,0,0
364,1,0,0,0,0,0,0,0,0,0,-1,1588,1023,0,0
371,1,0,0,0,0,0,0,0,0,0,-1,1595,1023,0,0
378,1,0,0,0,0,0,0,0,0,0,-1,1602,1023,0,0
385,1,0,0,0,0,0,0,0,0,0,-1,1609,1023,0,0
392,1,0,0,0,0,0,0,0,0,0,-1,1616,1023,0,0
399,1,0,0,0,0,0,0,0,0,0,-1,1623,1023,0,0
406,1,0,0,0,0,0,0,0,0,0,-1,1630,1023,0,0
413,1,0,0,0,0,0,0,0,0,0,-1,1637,1023,0,0
420,1,0,0,0,0,0,0,0,0,0,-1,1644,1023,0,0
427,1,0,0,0,0,0,0,0,0,0,-1,1651,1023,0,0
434,1,0,0,0,0,0,0,0,0,0,-1,1658,1023,0,0
441,1,0,0,0,0,0,0,0,0,0,-1,1665,1023,0,0
448,1,0,0,0,0,0,0,0,0,0,-1,1672,1023,0,0
455,1,0,0,0,0,0,0,0,0,0,-1,1679,1023,0,0
462,1,0,0,0,0,0,0,0,0,0,-1,1686,1023,0,0
469,1,0,0,0,0,0,0,0,0,0,-1,1693,1023,0,0
476,1,0,0,0,0,0,0,0,0,0,-1,1700,1023,0,0
483,1,0,0,0,0,0,0,0,0,0,-1,1707,1023,0,0
490,1,0,0,0,0,0,0,0,0,0,-1,1714,1023,0,0
497,1,0,0,0,0,0,0,0,0,0,-1,1721,1023,0,0
504,1,0,0,0,0,0,0,0,0,0,-1,1728,1023,0,0
511,1,0,0,0,0,0,0,0,0,0,-1,1735,1023,0,0
518,1,0,0,0,0,0,0,0,0,0,-1,1742,1023,0,0
525,1,0,0,0,0,0,0,0,0,0,-1,1749,1023,0,0
532,1,0,0,0,0,0,0,0,0,0,-1,1756,1023,0,0
539,1,0,0,0,0,0,0,0,0,0,-1,1763,1023,0,0
546,1,0,0,0,0,0,0,0,0,0,-1,1770,1023,0,0
553,1,0,0,0,0,0,0,0,0,0,-1,1777,1023,0,0
560,1,0,0,0,0,0,0,0,0,0,-1,1784,1023,0,0
567,1,0,0,0,0,0,0,0,0,0,-1,1791,1023,0,0
574,1,0,0,0,0,0,0,0,0,0,-1,1798,1023,0,0
581,1,0,0,0,0,0,0,0,0,0,-1,1805,1023,0,0
588,1,0,0,0,0,0,0,0,0,0,-1,1812,1023,0,0
595,1,0,0,0,0,0,0,0,0,0,-1,1819,1023,0,0
602,1,0,0,0,0,0,0,0,0,0,-1,1826,1023,0,0
609,1,0,0,0,0,0,0,0,0,0,-1,1833,1023,0,0
616,1,0,0,0,0,0,0,0,0,0,-1,1840,1023,0,0
623,1,0,0,0,0,0,0,0,0,0,-1,1847,1023,0,0
630,1,0,0,0,0,0,0,0,0,0,-1,1854,1023,0,0
637,1,0,0,0,0,0,0,0,0,0,-1,1861,1023,0,0
644,1,0,0,0,0,0,0,0,0,0,-1,1868,1023,0,0
651,1,80.8925,2.38855,-0.000703483,0.00353627,0.00168513,0.00412444,-0.00129165,1.23498,0.00326645,0.0418427,1875,1023,80.8924,-2.38852
658,1,80.751,2.35297,-0.00105669,0.00341986,0.00103469,0.00364744,-0.00128427,1.35429,0.00295428,0.0422433,1882,1023,80.7509,-2.35299
665,1,80.6633,2.29572,-0.00111377,0.00320236,0.00049798,0.00325907,-0.00117048,1.4574,0.00265047,0.0424069,1889,1023,80.6634,-2.29573
672,1,80.7545,2.13855,-0.00101124,0.00297371,0.00013892,0.00297854,-0.00101607,1.53599,0.00239727,0.0439239,1896,1023,80.7545,-2.13853
679,1,80.6666,2.13403,-0.00075536,0.0026894,-9.02525e-05,0.00269176,-0.000757723,-1.54462,0.0020933,0.0429808,1903,1023,80.6666,-2.13402
686,1,80.5333,2.32538,-0.00070182,0.00204802,-0.000152111,0.00205641,-0.000710208,-1.5157,0.00165914,0.0418908,1910,1023,80.5333,-2.32537
693,1,80.6976,2.27136,-0.00064652,0.00130078,-0.000126279,0.00130894,-0.000654675,-1.50631,0.00115448,0.0368089,1917,1023,80.6976,-2.27137
700,1,80.6904,2.2691,-0.000651964,0.00069317,-4.43559e-05,0.000694631,-0.000653425,-1.53787,0.000778421,0.0289389,1924,1023,80.6905,-2.2691
707,1,80.6583,2.14233,-0.00149966,0.000890607,-1.79484e-05,0.000890742,-0.0014998,-1.56329,0.00139503,0.0274308,1931,1023,80.6583,-2.14231
714,1,80.6439,2.03064,-0.00273787,0.00169083,-2.21005e-05,0.00169094,-0.00273798,-1.56581,0.00258075,0.0333154,1938,1023,80.6439,-2.03064
721,1,80.7355,2.00958,0,0,0,0,0,0,0,-1,1945,1023,80.7355,-2.00959
728,1,52.4639,5.59277,0,0,0,0,0,0,0,-1,1952,1023,52.4639,-5.59276
735,1,53.3617,6.10699,0,0,0,0,0,0,0,-1,1959,1023,53.3617,-6.10698
742,1,52.4393,5.81525,0,0,0,0,0,0,0,-1,1966,1023,52.4393,-5.81527
749,1,81.303,7.49677,0,0,0,0,0,0,0,-1,1973,1023,81.303,-7.49677
756,1,81.1128,7.60388,-0.0107177,0.0150221,-0.00235766,0.0152363,-0.0109319,-1.4802,0.0151762,0.0492862,1980,1023,81.1127,-7.60388
763,1,80.8562,7.49048,-0.0110546,0.0201687,-0.00441402,0.0207807,-0.0116667,-1.43302,0.0189782,0.0193735,1987,1023,80.8561,-7.4905
770,1,80.7715,7.38989,-0.00973448,0.0270912,-0.00801451,0.0287598,-0.0114031,-1.36553,0.0238989,0.0204913,1994,1023,80.7716,-7.3899
777,1,80.4443,7.25482,-0.00637241,0.0351755,-0.0132862,0.0390608,-0.0102577,-1.2863,0.0300492,0.0279059,2001,1023,80.4443,-7.25481
784,1,80.1077,7.10394,0,0,0,0,0,0,0,-1,2008,1023,80.1078,-7.10394
791,1,77.6589,6.51508,0,0,0,0,0,0,0,-1,2015,1023,77.659,-6.51509
798,1,78.511,5.62354,0.0140595,0.0614116,-0.0388911,0.0832666,-0.00779544,-1.05882,0.0582835,0.0480031,2022,1023,78.5109,-5.62355
805,1,79.3179,4.77759,0,0,0,0,0,0,0,-1,2029,1023,79.3179,-4.77757
812,1,80.2903,4.01508,0,0,0,0,0,0,0,-1,2036,1023,80.2902,-4.01508
-700,-6,0,0,0,0,0,0,0,0,0,-1,524,1030,0,0
-693,-6,-57.0518,5.87219,0,0,0,0,0,0,0,-1,531,1030,-57.0518,-5.87224
-686,-6,-59.7563,7.46851,0,0,0,0,0,0,0,-1,538,1030,-59.7563,-7.4685
-679,-6,-60.5114,7.81775,0,0,0,0,0,0,0,-1,545,1030,-60.5113,-7.81775
-672,-6,-66.3725,3.88318,0,0,0,0,0,0,0,-1,552,1030,-66.3725,-3.88318
-665,-6,-64.6358,6.27728,0,0,0,0,0,0,0,-1,559,1030,-64.6358,-6.2773
-658,-6,-64.1791,6.33777,0,0,0,0,0,0,0,-1,566,1030,-64.1791,-6.33775
-651,-6,-64.3585,6.30768,0,0,0,0,0,0,0,-1,573,1030,-64.3585,-6.3077
-644,-6,-63.202,6.79126,0,0,0,0,0,0,0,-1,580,1030,-63.202,-6.79127
-637,-6,-64.798,6.98608,0,0,0,0,0,0,0,-1,587,1030,-64.798,-6.98608
-630,-6,-64.9135,6.78223,-0.0123475,0.0195057,0.00647959,0.0207733,-0.0136151,1.3776,0.0199971,0.0291742,594,1030,-64.9135,-6.78221
-623,-6,-64.8351,6.91913,-0.008801,0.0157627,0.00308177,0.0161434,-0.00918174,1.44787,0.0148045,0.0224,601,1030,-64.8351,-6.91913
-616,-6,-64.9285,6.88849,-0.0058432,0.00876701,0.000793054,0.00880993,-0.00588612,1.51673,0.00854056,0.0257107,608,1030,-64.9285,-6.88846
-609,-6,-64.9385,7.03436,-0.00432146,0.00508366,-9.75659e-05,0.00508467,-0.00432247,-1.56042,0.00543716,0.0247724,615,1030,-64.9385,-7.03437
-602,-6,-64.7827,7.19458,-0.00356273,0.00272065,-0.000261357,0.0027315,-0.00357358,-1.5293,0.00365105,0.0159886,622,1030,-64.7826,-7.19458
-595,-6,-64.8042,7.31812,0,0,0,0,0,0,0,-1,629,1030,-64.8042,-7.31812
-588,-6,-63.7276,0.389771,0,0,0,0,0,0,0,-1,636,1030,-63.7276,-0.389785
-581,-6,-63.7503,0.268555,-0.00201258,-0.00119648,-0.000574361,-0.000899979,-0.00230908,-1.09425,0.00134391,0.0254938,643,1030,-63.7503,-0.268611
-574,-6,-63.7648,0.264648,-0.00180477,-0.00153204,-0.000601136,-0.001052,-0.00228481,-0.896937,0.00132051,0.0313658,650,1030,-63.7648,-0.264646
-567,-6,-63.7164,0.22229,-0.00186604,-0.00126593,-0.00054077,-0.000947548,-0.00218443,-1.03869,0.00126486,0.0412199,657,1030,-63.7164,-0.222257
-560,-6,-63.7188,0.335815,-0.00188511,-0.000431945,-0.000412166,-0.000323182,-0.00199388,-1.31279,0.00123569,0.0427983,664,1030,-63.7187,-0.335806
-553,-6,-63.6406,0.373535,-0.00188734,0.000526035,-0.00034882,0.000575441,-0.00193675,-1.4301,0.00151974,0.0404743,671,1030,-63.6406,-0.373538
-546,-6,-63.7144,0.435059,-0.00164031,0.0012257,-0.000398226,0.00128,-0.00169461,-1.43527,0.00172295,0.0407998,678,1030,-63.7144,-0.435063
-539,-6,-63.8006,0.404053,-0.00167407,0.00143653,-0.000638708,0.00156257,-0.00180011,-1.37596,0.00194305,0.0422335,685,1030,-63.8006,-0.404076
-532,-6,-63.9309,0.367676,-0.00158506,0.00169437,-0.000914981,0.00193238,-0.00182307,-1.31631,0.00216852,0.0419078,692,1030,-63.9309,-0.36762
-525,-6,0,0,0,0,0,0,0,0,0,-1,699,1030,0,0
-518,-6,0,0,0,0,0,0,0,0,0,-1,706,1030,0,0
-511,-6,0,0,0,0,0,0,0,0,0,-1,713,1030,0,0
-504,-6,0,0,0,0,0,0,0,0,0,-1,720,1030,0,0
-497,-6,0,0,0,0,0,0,0,0,0,-1,727,1030,0,0
-490,-6,0,0,0,0,0,0,0,0,0,-1,734,1030,0,0
-483,-6,0,0,0,0,0,0,0,0,0,-1,741,1030,0,0
-476,-6,0,0,0,0,0,0,0,0,0,-1,748,1030,0,0
-469,-6,0,0,0,0,0,0,0,0,0,-1,755,1030,0,0
-462,-6,0,0,0,0,0,0,0,0,0,-1,762,1030,0,0
-455,-6,0,0,0,0,0,0,0,0,0,-1,769,1030,0,0
-448,-6,0,0,0,0,0,0,0,0,0,-1,776,1030,0,0
-441,-6,0,0,0,0,0,0,0,0,0,-1,783,1030,0,0
-434,-6,0,0,0,0,0,0,0,0,0,-1,790,1030,0,0
-427,-6,0,0,0,0,0,0,0,0,0,-1,797,1030,0,0
-420,-6,0,0,0,0,0,0,0,0,0,-1,804,1030,0,0
-413,-6,0,0,0,0,0,0,0,0,0,-1,811,1030,0,0
-406,-6,0,0,0,0,0,0,0,0,0,-1,818,1030,0,0
-399,-6,0,0,0,0,0,0,0,0,0,-1,825,1030,0,0
-392,-6,0,0,0,0,0,0,0,0,0,-1,832,1030,0,0
-385,-6,0,0,0,0,0,0,0,0,0,-1,839,1030,0,0
-378,-6,0,0,0,0,0,0,0,0,0,-1,846,1030,0,0
-371,-6,0,0,0,0,0,0,0,0,0,-1,853,1030,0,0
-364,-6,0,0,0,0,0,0,0,0,0,-1,860,1030,0,0
-357,-6,0,0,0,0,0,0,0,0,0,-1,867,1030,0,0
-350,-6,0,0,0,0,0,0,0,0,0,-1,874,1030,0,0
-343,-6,0,0,0,0,0,0,0,0,0,-1,881,1030,0,0
-336,-6,0,0,0,0,0,0,0,0,0,-1,888,1030,0,0
-329,-6,0,0,0,0,0,0,0,0,0,-1,895,1030,0,0
-322,-6,0,0,0,0,0,0,0,0,0,-1,902,1030,0,0
-315,-6,0,0,0,0,0,0,0,0,0,-1,909,1030,0,0
-308,-6,0,0,0,0,0,0,0,0,0,-1,916,1030,0,0
-301,-6,0,0,0,0,0,0,0,0,0,-1,923,1030,0,0
-294,-6,0,0,0,0,0,0,0,0,0,-1,930,1030,0,0
-287,-6,0,0,0,0,0,0,0,0,0,-1,937,1030,0,0
-280,-6,0,0,0,0,0,0,0,0,0,-1,944,1030,0,0
-273,-6,0,0,0,0,0,0,0,0,0,-1,951,1030,0,0
-266,-6,0,0,0,0,0,0,0,0,0,-1,958,1030,0,0
-259,-6,0,0,0,0,0,0,0,0,0,-1,965,1030,0,0
-252,-6,0,0,0,0,0,0,0,0,0,-1,972,1030,0,0
-245,-6,0,0,0,0,0,0,0,0,0,-1,979,1030,0,0
-238,-6,0,0,0,0,0,0,0,0,0,-1,986,1030,0,0
-231,-6,0,0,0,0,0,0,0,0,0,-1,993,1030,0,0
-224,-6,0,0,0,0,0,0,0,0,0,-1,1000,1030,0,0
-217,-6,0,0,0,0,0,0,0,0,0,-1,1007,1030,0,0
-210,-6,0,0,0,0,0,0,0,0,0,-1,1014,1030,0,0
-203,-6,0,0,0,0,0,0,0,0,0,-1,1021,1030,0,0
-196,-6,0,0,0,0,0,0,0,0,0,-1,1028,1030,0,0
-189,-6,0,0,0,0,0,0,0,0,0,-1,1035,1030,0,0
-182,-6,0,0,0,0,0,0,0,0,0,-1,1042,1030,0,0
-175,-6,0,0,0,0,0,0,0,0,0,-1,1049,1030,0,0
-168,-6,0,0,0,0,0,0,0,0,0,-1,1056,1030,0,0
-161,-6,0,0,0,0,0,0,0,0,0,-1,1063,1030,0,0
-154,-6,0,0,0,0,0,0,0,0,0,-1,1070,1030,0,0
-147,-6,0,0,0,0,0,0,0,0,0,-1,1077,1030,0,0
-140,-6,0,0,0,0,0,0,0,0,0,-1,1084,1030,0,0
-133,-6,0,0,0,0,0,0,0,0,0,-1,1091,1030,0,0
-126,-6,0,0,0,0,0,0,0,0,0,-1,1098,1030,0,0
-119,-6,0,0,0,0,0,0,0,0,0,-1,1105,1030,0,0
-112,-6,0,0,0,0,0,0,0,0,0,-1,1112,1030,0,0
-105,-6,0,0,0,0,0,0,0,0,0,-1,1119,1030,0,0
-98,-6,0,0,0,0,0,0,0,0,0,-1,1126,1030,0,0
-91,-6,0,0,0,0,0,0,0,0,0,-1,1133,1030,0,0
-84,-6,0,0,0,0,0,0,0,0,0,-1,1140,1030,0,0
-77,-6,0,0,0,0,0,0,0,0,0,-1,1147,1030,0,0
-70,-6,0,0,0,0,0,0,0,0,0,-1,1154,1030,0,0
-63,-6,0,0,0,0,0,0,0,0,0,-1,1161,1030,0,0
-56,-6,0,0,0,0,0,0,0,0,0,-1,1168,1030,0,0
-49,-6,0,0,0,0,0,0,0,0,0,-1,1175,1030,0,0
-42,-6,0,0,0,0,0,0,0,0,0,-1,1182,1030,0,0
-35,-6,0,0,0,0,0,0,0,0,0,-1,1189,1030,0,0
-28,-6,0,0,0,0,0,0,0,0,0,-1,1196,1030,0,0
-21,-6,0,0,0,0,0,0,0,0,0,-1,1203,1030,0,0
-14,-6,0,0,0,0,0,0,0,0,0,-1,1210,1030,0,0
-7,-6,0,0,0,0,0,0,0,0,0,-1,1217,1030,0,0
0,-6,0,0,0,0,0,0,0,0,0,-1,1224,1030,0,0
7,-6,0,0,0,0,0,0,0,0,0,-1,1231,1030,0,0
14,-6,0,0,0,0,0,0,0,0,0,-1,1238,1030,0,0
21,-6,0,0,0,0,0,0,0,0,0,-1,1245,1030,0,0
28,-6,0,0,0,0,0,0,0,0,0,-1,1252,1030,0,0
35,-6,0,0,0,0,0,0,0,0,0,-1,1259,1030,0,0
42,-6,0,0,0,0,0,0,0,0,0,-1,1266,1030,0,0
49,-6,0,0,0,0,0,0,0,0,0,-1,1273,1030,0,0
56,-6,0,0,0,0,0,0,0,0,0,-1,1280,1030,0,0
63,-6,0,0,0,0,0,0,0,0,0,-1,1287,1030,0,0
70,-6,0,0,0,0,0,0,0,0,0,-1,1294,1030,0,0
77,-6,0,0,0,0,0,0,0,0,0,-1,1301,1030,0,0
84,-6,0,0,0,0,0,0,0,0,0,-1,1308,1030,0,0
91,-6,0,0,0,0,0,0,0,0,0,-1,1315,1030,0,0
98,-6,0,0,0,0,0,0,0,0,0,-1,1322,1030,0,0
105,-6,0,0,0,0,0,0,0,0,0,-1,1329,1030,0,0
112,-6,0,0,0,0,0,0,0,0,0,-1,1336,1030,0,0
119,-6,0,0,0,0,0,0,0,0,0,-1,1343,1030,0,0
126,-6,0,0,0,0,0,0,0,0,0,-1,1350,1030,0,0
133,-6,0,0,0,0,0,0,0,0,0,-1,1357,1030,0,0
140,-6,0,0,0,0,0,0,0,0,0,-1,1364,1030,0,0
147,-6,0,0,0,0,0,0,0,0,0,-1,1371,1030,0,0
154,-6,0,0,0,0,0,0,0,0,0,-1,1378,1030,0,0
161,-6,0,0,0,0,0,0,0,0,0,-1,1385,1030,0,0
168,-6,0,0,0,0,0,0,0,0,0,-1,1392,1030,0,0
175,-6,0,0,0,0,0,0,0,0,0,-1,1399,1030,0,0
182,-6,0,0,0,0,0,0,0,0,0,-1,1406,1030,0,0
189,-6,0,0,0,0,0,0,0,0,0,-1,1413,1030,0,0
196,-6,0,0,0,0,0,0,0,0,0,-1,1420,1030,0,0
203,-6,0,0,0,0,0,0,0,0,0,-1,1427,1030,0,0
210,-6,0,0,0,0,0,0,0,0,0,-1,1434,1030,0,0
217,-6,0,0,0,0,0,0,0,0,0,-1,1441,1030,0,0
224,-6,0,0,0,0,0,0,0,0,0,-1,1448,1030,0,0
231,-6,0,0,0,0,0,0,0,0,0,-1,1455,1030,0,0
238,-6,0,0,0,0,0,0,0,0,0,-1,1462,1030,0,0
245,-6,0,0,0,0,0,0,0,0,0,-1,1469,1030,0,0
252,-6,0,0,0,0,0,0,0,0,0,-1,1476,1030,0,0
259,-6,0,0,0,0,0,0,0,0,0,-1,1483,1030,0,0
266,-6,0,0,0,0,0,0,0,0,0,-1,1490,1030,0,0
273,-6,0,0,0,0,0,0,0,0,0,-1,1497,1030,0,0
280,-6,0,0,0,0,0,0,0,0,0,-1,1504,1030,0,0
287,-6,0,0,0,0,0,0,0,0,0,-1,1511,1030,0,0
294,-6,0,0,0,0,0,0,0,0,0,-1,1518,1030,0,0
301,-6,0,0,0,0,0,0,0,0,0,-1,1525,1030,0,0
308,-6,0,0,0,0,0,0,0,0,0,-1,1532,1030,0,0
315,-6,0,0,0,0,0,0,0,0,0,-1,1539,1030,0,0
322,-6,0,0,0,0,0,0,0,0,0,-1,1546,1030,0,0
329,-6,0,0,0,0,0,0,0,0,0,-1,1553,1030,0,0
336,-6,0,0,0,0,0,0,0,0,0,-1,1560,1030,0,0
343,-6,0,0,0,0,0,0,0,0,0,-1,1567,1030,0,0
350,-6,0,0,0,0,0,0,0,0,0,-1,1574,1030,0,0
357,-6,0,0,0,0,0,0,0,0,0,-1,1581,1030,0,0
364,-6,0,0,0,0,0,0,0,0,0,-1,1588,1030,0,0
371,-6,0,0,0,0,0,0,0,0,0,-1,1595,1030,0,0
378,-6,0,0,0,0,0,0,0,0,0,-1,1602,1030,0,0
385,-6,0,0,0,0,0,0,0,0,0,-1,1609,1030,0,0
392,-6,0,0,0,0,0,0,0,0,0,-1,1616,1030,0,0
399,-6,0,0,0,0,0,0,0,0,0,-1,1623,1030,0,0
406,-6,0,0,0,0,0,0,0,0,0,-1,1630,1030,0,0
413,-6,0,0,0,0,0,0,0,0,0,-1,1637,1030,0,0
420,-6,0,0,0,0,0,0,0,0,0,-1,1644,1030,0,0
427,-6,0,0,0,0,0,0,0,0,0,-1,1651,1030,0,0
434,-6,0,0,0,0,0,0,0,0,0,-1,1658,1030,0,0
441,-6,0,0,0,0,0,0,0,0,0,-1,1665,1030,0,0
448,-6,0,0,0,0,0,0,0,0,0,-1,1672,1030,0,0
455,-6,0,0,0,0,0,0,0,0,0,-1,1679,1030,0,0
462,-6,0,0,0,0,0,0,0,0,0,-1,1686,1030,0,0
469,-6,0,0,0,0,0,0,0,0,0,-1,1693,1030,0,0
476,-6,0,0,0,0,0,0,0,0,0,-1,1700,1030,0,0
483,-6,0,0,0,0,0,0,0,0,0,-1,1707,1030,0,0
490,-6,0,0,0,0,0,0,0,0,0,-1,1714,1030,0,0
497,-6,0,0,0,0,0,0,0,0,0,-1,1721,1030,0,0
504,-6,0,0,0,0,0,0,0,0,0,-1,1728,1030,0,0
511,-6,0,0,0,0,0,0,0,0,0,-1,1735,1030,0,0
518,-6,0,0,0,0,0,0,0,0,0,-1,1742,1030,0,0
525,-6,0,0,0,0,0,0,0,0,0,-1,1749,1030,0,0
532,-6,0,0,0,0,0,0,0,0,0,-1,1756,1030,0,0
539,-6,0,0,0,0,0,0,0,0,0,-1,1763,1030,0,0
546,-6,0,0,0,0,0,0,0,0,0,-1,1770,1030,0,0
553,-6,0,0,0,0,0,0,0,0,0,-1,1777,1030,0,0
560,-6,0,0,0,0,0,0,0,0,0,-1,1784,1030,0,0
567,-6,0,0,0,0,0,0,0,0,0,-1,1791,1030,0,0
574,-6,0,0,0,0,0,0,0,0,0,-1,1798,1030,0,0
581,-6,0,0,0,0,0,0,0,0,0,-1,1805,1030,0,0
588,-6,0,0,0,0,0,0,0,0,0,-1,1812,1030,0,0
595,-6,0,0,0,0,0,0,0,0,0,-1,1819,1030,0,0
602,-6,0,0,0,0,0,0,0,0,0,-1,1826,1030,0,0
609,-6,0,0,0,0,0,0,0,0,0,-1,1833,1030,0,0
616,-6,0,0,0,0,0,0,0,0,0,-1,1840,1030,0,0
623,-6,0,0,0,0,0,0,0,0,0,-1,1847,1030,0,0
630,-6,0,0,0,0,0,0,0,0,0,-1,1854,1030,0,0
637,-6,0,0,0,0,0,0,0,0,0,-1,1861,1030,0,0
644,-6,0,0,0,0,0,0,0,0,0,-1,1868,1030,0,0
651,-6,80.8354,2.40442,-0.000850725,0.00302758,0.00183598,0.00375885,-0.00158199,1.19176,0.00316776,0.0394461,1875,1030,80.8355,-2.40446
658,-6,80.6722,2.35693,-0.00113667,0.00295635,0.00113355,0.00324932,-0.00142963,1.31788,0.00276865,0.0401668,1882,1030,80.6723,-2.35689
665,-6,80.7584,2.18408,-0.00117194,0.00279251,0.000602506,0.00288205,-0.00126148,1.42326,0.0024525,0.0427684,1889,1030,80.7585,-2.18405
672,-6,80.9773,1.99963,-0.0010641,0.00262931,0.000287086,0.00265149,-0.00108628,1.49368,0.00222018,0.0449188,1896,1030,80.9773,-1.99968
679,-6,80.8004,2.14294,-0.000830697,0.00242949,0.000102164,0.00243269,-0.000833896,1.5395,0.00195982,0.04398,1903,1030,80.8005,-2.14294
686,-6,80.6019,2.1178,-0.000864523,0.00186793,7.76172e-05,0.00187014,-0.000866726,1.54242,0.00161514,0.040341,1910,1030,80.602,-2.11776
693,-6,80.6556,2.22583,-0.000878894,0.00119978,0.000132493,0.00120819,-0.000887305,1.5074,0.00121455,0.0374671,1917,1030,80.6556,-2.2258
700,-6,80.6467,2.26184,-0.000910873,0.000636677,0.000257393,0.000678364,-0.00095256,1.41023,0.00094604,0.0308927,1924,1030,80.6467,-2.26183
707,-6,80.6394,2.09546,-0.00177788,0.000806541,0.000329964,0.000848003,-0.00181935,1.44579,0.00157366,0.027893,1931,1030,80.6394,-2.09543
714,-6,80.6691,1.90808,-0.00300962,0.0015612,0.000378195,0.00159228,-0.0030407,1.4888,0.00271808,0.0401143,1938,1030,80.669,-1.90805
721,-6,80.7179,1.67761,0,0,0,0,0,0,0,-1,1945,1030,80.7178,-1.67759
728,-6,53.1713,6.25494,0,0,0,0,0,0,0,-1,1952,1030,53.1713,-6.25495
735,-6,78.4772,7.47345,0,0,0,0,0,0,0,-1,1959,1030,78.4772,-7.47343
742,-6,80.9369,7.97467,0,0,0,0,0,0,0,-1,1966,1030,80.9369,-7.97469
749,-6,80.9231,7.84271,0,0,0,0,0,0,0,-1,1973,1030,80.9231,-7.84271
756,-6,81.1846,7.37854,-0.0114305,0.014349,-0.00141486,0.0144265,-0.0115079,-1.51613,0.0150048,0.0398274,1980,1030,81.1846,-7.37852
763,-6,80.7769,7.2674,-0.0119077,0.0190836,-0.00322839,0.0194164,-0.0122404,-1.46809,0.0184329,0.0248316,1987,1030,80.7769,-7.26741
770,-6,80.6956,7.16357,-0.0109349,0.0252971,-0.00633408,0.0263725,-0.0120103,-1.40262,0.0226716,0.0213801,1994,1030,80.6955,-7.16355
777,-6,80.4937,7.0686,-0.00791747,0.0325435,-0.0110353,0.0353575,-0.0107315,-1.32111,0.0278469,0.0218007,2001,1030,80.4937,-7.06863
784,-6,80.3665,6.91736,-0.00339014,0.0398677,-0.0169583,0.0457232,-0.00924568,-1.23832,0.0339859,0.0497665,2008,1030,80.3666,-6.91734
791,-6,80.2559,6.76904,0,0,0,0,0,0,0,-1,2015,1030,80.2558,-6.76906
798,-6,79.7229,5.70496,0,0,0,0,0,0,0,-1,2022,1030,79.7229,-5.70492
805,-6,80.6426,4.84961,0,0,0,0,0,0,0,-1,2029,1030,80.6425,-4.8496
812,-6,79.3044,5.8717,0,0,0,0,0,0,0,-1,2036,1030,79.3044,-5.87174
-700,-13,0,0,0,0,0,0,0,0,0,-1,524,1037,0,0
-693,-13,-58.126,4.87024,-0.0858809,0.0954963,0.0948617,0.136045,-0.126429,1.16685,0.151573,0.0498145,531,1037,-58.126,-4.87027
-686,-13,-60.0988,6.15259,-0.0741248,0.0839935,0.0791892,0.116833,-0.106964,1.17769,0.129251,0.0484101,538,1037,-60.0989,-6.15263
-679,-13,-60.8534,6.52649,-0.0639631,0.0730347,0.065815,0.099529,-0.0904575,1.18809,0.10973,0.0494986,545,1037,-60.8534,-6.52643
-672,-13,-61.7122,7.2998,0,0,0,0,0,0,0,-1,552,1037,-61.7121,-7.29985
-665,-13,-64.2728,6.46338,0,0,0,0,0,0,0,-1,559,1037,-64.2728,-6.46338
-658,-13,-64.152,6.45483,0,0,0,0,0,0,0,-1,566,1037,-64.1521,-6.45478
-651,-13,-64.2965,6.24695,0,0,0,0,0,0,0,-1,573,1037,-64.2965,-6.24701
-644,-13,-64.241,6.52991,0,0,0,0,0,0,0,-1,580,1037,-64.241,-6.52994
-637,-13,-64.4603,6.59473,-0.0172588,0.0276898,0.0113046,0.0303728,-0.0199418,1.33777,0.0292565,0.0325076,587,1037,-64.4603,-6.59473
-630,-13,-64.67,6.61365,-0.0117799,0.0228271,0.0060139,0.0238424,-0.0127952,1.40355,0.0214709,0.0197408,594,1037,-64.67,-6.61371
-623,-13,-64.7251,6.79138,-0.00786758,0.0167333,0.0026195,0.0170092,-0.00814341,1.46588,0.0148195,0.0170078,601,1037,-64.7251,-6.79144
-616,-13,-64.7234,6.98022,-0.0047537,0.00871102,0.00022152,0.00871466,-0.00475734,1.55435,0.00788913,0.01588,608,1037,-64.7235,-6.98029
-609,-13,-64.718,7.14758,-0.00318031,0.00459536,-0.000714737,0.00466051,-0.00324546,-1.47989,0.00458882,0.0197981,615,1037,-64.718,-7.14759
-602,-13,-64.6449,7.26831,-0.00244656,0.00230533,-0.000859675,0.00245608,-0.0025973,-1.39721,0.00291795,0.0139128,622,1037,-64.6449,-7.26825
-595,-13,-64.6385,7.36011,0,0,0,0,0,0,0,-1,629,1037,-64.6385,-7.36013
-588,-13,-63.6682,0.4646,0,0,0,0,0,0,0,-1,636,1037,-63.6681,-0.464605
-581,-13,-63.7464,0.209839,-0.00133321,-0.00144763,-0.000982036,-0.000406722,-0.00237412,-0.756304,0.0014661,0.023374,643,1037,-63.7464,-0.209875
-574,-13,-63.807,0.267944,-0.00129147,-0.00170507,-0.000929388,-0.000546156,-0.00245039,-0.675927,0.0014854,0.0341512,650,1037,-63.807,-0.267887
-567,-13,-63.8074,0.314087,-0.00159213,-0.00136576,-0.000779935,-0.000690841,-0.00226705,-0.857457,0.00134174,0.0414652,657,1037,-63.8074,-0.314057
-560,-13,-63.7657,0.307251,-0.00197448,-0.000465311,-0.000531208,-0.000297085,-0.00214271,-1.2641,0.00134046,0.0440014,664,1037,-63.7657,-0.307237
-553,-13,-63.7407,0.196411,-0.00242139,0.00055343,-0.000316613,0.000586754,-0.00245471,-1.46593,0.00186312,0.0429803,671,1037,-63.7406,-0.196354
-546,-13,-63.8737,0.359985,-0.00270889,0.00130987,-0.00019622,0.00131943,-0.00271844,-1.52212,0.00237745,0.0398994,678,1037,-63.8736,-0.359926
-539,-13,-63.8849,0.52478,-0.00322893,0.00154139,-0.000283992,0.00155824,-0.00324577,-1.51154,0.00283006,0.0405206,685,1037,-63.8849,-0.524743
-532,-13,-63.9703,0.569214,-0.00366217,0.00178393,-0.000380273,0.00181035,-0.00368859,-1.50142,0.00323596,0.0407134,692,1037,-63.9703,-0.569169
-525,-13,0,0,0,0,0,0,0,0,0,-1,699,1037,0,0
-518,-13,0,0,0,0,0,0,0,0,0,-1,706,1037,0,0
-511,-13,0,0,0,0,0,0,0,0,0,-1,713,1037,0,0
-504,-13,0,0,0,0,0,0,0,0,0,-1,720,1037,0,0
-497,-13,0,0,0,0,0,0,0,0,0,-1,727,1037,0,0
-490,-13,0,0,0,0,0,0,0,0,0,-1,734,1037,0,0
-483,-13,0,0,0,0,0,0,0,0,0,-1,741,1037,0,0
-476,-13,0,0,0,0,0,0,0,0,0,-1,748,1037,0,0
-469,-13,0,0,0,0,0,0,0,0,0,-1,755,1037,0,0
-462,-13,0,0,0,0,0,0,0,0,0,-1,762,1037,0,0
-455,-13,0,0,0,0,0,0,0,0,0,-1,769,1037,0,0
-448,-13,0,0,0,0,0,0,0,0,0,-1,776,1037,0,0
-441,-13,0,0,0,0,0,0,0,0,0,-1,783,1037,0,0
-434,-13,0,0,0,0,0,0,0,0,0,-1,790,1037,0,0
-427,-13,0,0,0,0,0,0,0,0,0,-1,797,1037,0,0
-420,-13,0,0,0,0,0,0,0,0,0,-1,804,1037,0,0
-413,-13,0,0,0,0,0,0,0,0,0,-1,811,1037,0,0
-406,-13,0,0,0,0,0,0,0,0,0,-1,818,1037,0,0
-399,-13,0,0,0,0,0,0,0,0,0,-1,825,1037,0,0
-392,-13,0,0,0,0,0,0,0,0,0,-1,832,1037,0,0
-385,-13,0,0,0,0,0,0,0,0,0,-1,839,1037,0,0
-378,-13,0,0,0,0,0,0,0,0,0,-1,846,1037,0,0
-371,-13,0,0,0,0,0,0,0,0,0,-1,853,1037,0,0
-364,-13,0,0,0,0,0,0,0,0,0,-1,860,1037,0,0
-357,-13,0,0,0,0,0,0,0,0,0,-1,867,1037,0,0
-350,-13,0,0,0,0,0,0,0,0,0,-1,874,1037,0,0
-343,-13,0,0,0,0,0,0,0,0,0,-1,881,1037,0,0
-336,-13,0,0,0,0,0,0,0,0,0,-1,888,1037,0,0
-329,-13,0,0,0,0,0,0,0,0,0,-1,895,1037,0,0
-322,-13,0,0,0,0,0,0,0,0,0,-1,902,1037,0,0
-315,-13,0,0,0,0,0,0,0,0,0,-1,909,1037,0,0
-308,-13,0,0,0,0,0,0,0,0,0,-1,916,1037,0,0
-301,-13,0,0,0,0,0,0,0,0,0,-1,923,1037,0,0
-294,-13,0,0,0,0,0,0,0,0,0,-1,930,1037,0,0
-287,-13,0,0,0,0,0,0,0,0,0,-1,937,1037,0,0
-280,-13,0,0,0,0,0,0,0,0,0,-1,944,1037,0,0
-273,-13,0,0,0,0,0,0,0,0,0,-1,951,1037,0,0
-266,-13,0,0,0,0,0,0,0,0,0,-1,958,1037,0,0
-259,-13,0,0,0,0,0,0,0,0,0,-1,965,1037,0,0
-252,-13,0,0,0,0,0,0,0,0,0,-1,972,1037,0,0
-245,-13,0,0,0,0,0,0,0,0,0,-1,979,1037,0,0
-238,-13,0,0,0,0,0,0,0,0,0,-1,986,1037,0,0
-231,-13,0,0,0,0,0,0,0,0,0,-1,993,1037,0,0
-224,-13,0,0,0,0,0,0,0,0,0,-1,1000,1037,0,0
-217,-13,0,0,0,0,0,0,0,0,0,-1,1007,1037,0,0
-210,-13,0,0,0,0,0,0,0,0,0,-1,1014,1037,0,0
-203,-13,0,0,0,0,0,0,0,0,0,-1,1021,1037,0,0
-196,-13,0,0,0,0,0,0,0,0,0,-1,1028,1037,0,0
-189,-13,0,0,0,0,0,0,0,0,0,-1,1035,1037,0,0
-182,-13,0,0,0,0,0,0,0,0,0,-1,1042,1037,0,0
-175,-13,0,0,0,0,0,0,0,0,0,-1,1049,1037,0,0
-168,-13,0,0,0,0,0,0,0,0,0,-1,1056,1037,0,0
-161,-13,0,0,0,0,0,0,0,0,0,-1,1063,1037,0,0
-154,-13,0,0,0,0,0,0,0,0,0,-1,1070,1037,0,0
-147,-13,0,0,0,0,0,0,0,0,0,-1,1077,1037,0,0
-140,-13,0,0,0,0,0,0,0,0,0,-1,1084,1037,0,0
-133,-13,0,0,0,0,0,0,0,0,0,-1,1091,1037,0,0
-126,-13,0,0,0,0,0,0,0,0,0,-1,1098,1037,0,0
-119,-13,0,0,0,0,0,0,0,0,0,-1,1105,1037,0,0
-112,-13,0,0,0,0,0,0,0,0,0,-1,1112,1037,0,0
-105,-13,0,0,0,0,0,0,0,0,0,-1,1119,1037,0,0
-98,-13,0,0,0,0,0,0,0,0,0,-1,1126,1037,0,0
-91,-13,0,0,0,0,0,0,0,0,0,-1,1133,1037,0,0
-84,-13,0,0,0,0,0,0,0,0,0,-1,1140,1037,0,0
-77,-13,0,0,0,0,0,0,0,0,0,-1,1147,1037,0,0
-70,-13,0,0,0,0,0,0,0,0,0,-1,1154,1037,0,0
-63,-13,0,0,0,0,0,0,0,0,0,-1,1161,1037,0,0
-56,-13,0,0,0,0,0,0,0,0,0,-1,1168,1037,0,0
-49,-13,0,0,0,0,0,0,0,0,0,-1,1175,1037,0,0
-42,-13,0,0,0,0,0,0,0,0,0,-1,1182,1037,0,0
-35,-13,0,0,0,0,0,0,0,0,0,-1,1189,1037,0,0
-28,-13,0,0,0,0,0,0,0,0,0,-1,1196,1037,0,0
-21,-13,0,0,0,0,0,0,0,0,0,-1,1203,1037,0,0
-14,-13,0,0,0,0,0,0,0,0,0,-1,1210,1037,0,0
-7,-13,0,0,0,0,0,0,0,0,0,-1,1217,1037,0,0
0,-13,0,0,0,0,0,0,0,0,0,-1,1224,1037,0,0
7,-13,0,0,0,0,0,0,0,0,0,-1,1231,1037,0,0
14,-13,0,0,0,0,0,0,0,0,0,-1,1238,1037,0,0
21,-13,0,0,0,0,0,0,0,0,0,-1,1245,1037,0,0
28,-13,0,0,0,0,0,0,0,0,0,-1,1252,1037,0,0
35,-13,0,0,0,0,0,0,0,0,0,-1,1259,1037,0,0
42,-13,0,0,0,0,0,0,0,0,0,-1,1266,1037,0,0
49,-13,0,0,0,0,0,0,0,0,0,-1,1273,1037,0,0
56,-13,0,0,0,0,0,0,0,0,0,-1,1280,1037,0,0
63,-13,0,0,0,0,0,0,0,0,0,-1,1287,1037,0,0
70,-13,0,0,0,0,0,0,0,0,0,-1,1294,1037,0,0
77,-13,0,0,0,0,0,0,0,0,0,-1,1301,1037,0,0
84,-13,0,0,0,0,0,0,0,0,0,-1,1308,1037,0,0
91,-13,0,0,0,0,0,0,0,0,0,-1,1315,1037,0,0
98,-13,0,0,0,0,0,0,0,0,0,-1,1322,1037,0,0
105,-13,0,0,0,0,0,0,0,0,0,-1,1329,1037,0,0
112,-13,0,0,0,0,0,0,0,0,0,-1,1336,1037,0,0
119,-13,0,0,0,0,0,0,0,0,0,-1,1343,1037,0,0
126,-13,0,0,0,0,0,0,0,0,0,-1,1350,1037,0,0
133,-13,0,0,0,0,0,0,0,0,0,-1,1357,1037,0,0
140,-13,0,0,0,0,0,0,0,0,0,-1,1364,1037,0,0
147,-13,0,0,0,0,0,0,0,0,0,-1,1371,1037,0,0
154,-13,0,0,0,0,0,0,0,0,0,-1,1378,1037,0,0
161,-13,0,0,0,0,0,0,0,0,0,-1,1385,1037,0,0
168,-13,0,0,0,0,0,0,0,0,0,-1,1392,1037,0,0
175,-13,0,0,0,0,0,0,0,0,0,-1,1399,1037,0,0
182,-13,0,0,0,0,0,0,0,0,0,-1,1406,1037,0,0
189,-13,0,0,0,0,0,0,0,0,0,-1,1413,1037,0,0
196,-13,0,0,0,0,0,0,0,0,0,-1,1420,1037,0,0
203,-13,0,0,0,0,0,0,0,0,0,-1,1427,1037,0,0
210,-13,0,0,0,0,0,0,0,0,0,-1,1434,1037,0,0
217,-13,0,0,0,0,0,0,0,0,0,-1,1441,1037,0,0
224,-13,0,0,0,0,0,0,0,0,0,-1,1448,1037,0,0
231,-13,0,0,0,0,0,0,0,0,0,-1,1455,1037,0,0
238,-13,0,0,0,0,0,0,0,0,0,-1,1462,1037,0,0
245,-13,0,0,0,0,0,0,0,0,0,-1,1469,1037,0,0
252,-13,0,0,0,0,0,0,0,0,0,-1,1476,1037,0,0
259,-13,0,0,0,0,0,0,0,0,0,-1,1483,1037,0,0
266,-13,0,0,0,0,0,0,0,0,0,-1,1490,1037,0,0
273,-13,0,0,0,0,0,0,0,0,0,-1,1497,1037,0,0
280,-13,0,0,0,0,0,0,0,0,0,-1,1504,1037,0,0
287,-13,0,0,0,0,0,0,0,0,0,-1,1511,1037,0,0
294,-13,0,0,0,0,0,0,0,0,0,-1,1518,1037,0,0
301,-13,0,0,0,0,0,0,0,0,0,-1,1525,1037,0,0
308,-13,0,0,0,0,0,0,0,0,0,-1,1532,1037,0,0
315,-13,0,0,0,0,0,0,0,0,0,-1,1539,1037,0,0
322,-13,0,0,0,0,0,0,0,0,0,-1,1546,1037,0,0
329,-13,0,0,0,0,0,0,0,0,0,-1,1553,1037,0,0
336,-13,0,0,0,0,0,0,0,0,0,-1,1560,1037,0,0
343,-13,0,0,0,0,0,0,0,0,0,-1,1567,1037,0,0
350,-13,0,0,0,0,0,0,0,0,0,-1,1574,1037,0,0
357,-13,0,0,0,0,0,0,0,0,0,-1,1581,1037,0,0
364,-13,0,0,0,0,0,0,0,0,0,-1,1588,1037,0,0
371,-13,0,0,0,0,0,0,0,0,0,-1,1595,1037,0,0
378,-13,0,0,0,0,0,0,0,0,0,-1,1602,1037,0,0
385,-13,0,0,0,0,0,0,0,0,0,-1,1609,1037,0,0
392,-13,0,0,0,0,0,0,0,0,0,-1,1616,1037,0,0
399,-13,0,0,0,0,0,0,0,0,0,-1,1623,1037,0,0
406,-13,0,0,0,0,0,0,0,0,0,-1,1630,1037,0,0
413,-13,0,0,0,0,0,0,0,0,0,-1,1637,1037,0,0
420,-13,0,0,0,0,0,0,0,0,0,-1,1644,1037,0,0
427,-13,0,0,0,0,0,0,0,0,0,-1,1651,1037,0,0
434,-13,0,0,0,0,0,0,0,0,0,-1,1658,1037,0,0
441,-13,0,0,0,0,0,0,0,0,0,-1,1665,1037,0,0
448,-13,0,0,0,0,0,0,0,0,0,-1,1672,1037,0,0
455,-13,0,0,0,0,0,0,0,0,0,-1,1679,1037,0,0
462,-13,0,0,0,0,0,0,0,0,0,-1,1686,1037,0,0
469,-13,0,0,0,0,0,0,0,0,0,-1,1693,1037,0,0
476,-13,0,0,0,0,0,0,0,0,0,-1,1700,1037,0,0
483,-13,0,0,0,0,0,0,0,0,0,-1,1707,1037,0,0
490,-13,0,0,0,0,0,0,0,0,0,-1,1714,1037,0,0
497,-13,0,0,0,0,0,0,0,0,0,-1,1721,1037,0,0
504,-13,0,0,0,0,0,0,0,0,0,-1,1728,1037,0,0
511,-13,0,0,0,0,0,0,0,0,0,-1,1735,1037,0,0
518,-13,0,0,0,0,0,0,0,0,0,-1,1742,1037,0,0
525,-13,0,0,0,0,0,0,0,0,0,-1,1749,1037,0,0
532,-13,0,0,0,0,0,0,0,0,0,-1,1756,1037,0,0
539,-13,0,0,0,0,0,0,0,0,0,-1,1763,1037,0,0
546,-13,0,0,0,0,0,0,0,0,0,-1,1770,1037,0,0
553,-13,0,0,0,0,0,0,0,0,0,-1,1777,1037,0,0
560,-13,0,0,0,0,0,0,0,0,0,-1,1784,1037,0,0
567,-13,0,0,0,0,0,0,0,0,0,-1,1791,1037,0,0
574,-13,0,0,0,0,0,0,0,0,0,-1,1798,1037,0,0
581,-13,0,0,0,0,0,0,0,0,0,-1,1805,1037,0,0
588,-13,0,0,0,0,0,0,0,0,0,-1,1812,1037,0,0
595,-13,0,0,0,0,0,0,0,0,0,-1,1819,1037,0,0
602,-13,0,0,0,0,0,0,0,0,0,-1,1826,1037,0,0
609,-13,0,0,0,0,0,0,0,0,0,-1,1833,1037,0,0
616,-13,0,0,0,0,0,0,0,0,0,-1,1840,1037,0,0
623,-13,0,0,0,0,0,0,0,0,0,-1,1847,1037,0,0
630,-13,0,0,0,0,0,0,0,0,0,-1,1854,1037,0,0
637,-13,0,0,0,0,0,0,0,0,0,-1,1861,1037,0,0
644,-13,0,0,0,0,0,0,0,0,0,-1,1868,1037,0,0
651,-13,80.804,2.31641,0.000150381,0.00268132,0.00196862,0.00375612,-0.00092442,1.07105,0.00286242,0.0380062,1875,1037,80.804,-2.31645
658,-13,80.7483,2.26367,-0.000410829,0.00276014,0.001245,0.00319054,-0.00084123,1.23795,0.00245594,0.041748,1882,1037,80.7483,-2.26363
665,-13,80.7659,2.22168,-0.000669457,0.00269167,0.000728632,0.00284283,-0.000820614,1.36625,0.0022199,0.0445934,1889,1037,80.7658,-2.22167
672,-13,80.9147,1.9928,-0.000738621,0.00259292,0.000448774,0.00265231,-0.000798015,1.43922,0.00208574,0.038982,1896,1037,80.9147,-1.99275
679,-13,80.6619,2.09521,-0.000670771,0.0024555,0.000291997,0.00248254,-0.00069781,1.47846,0.00193015,0.0376973,1903,1037,80.6619,-2.09521
686,-13,80.5411,2.11621,-0.000892566,0.00194713,0.000286041,0.00197565,-0.000921092,1.4714,0.00170898,0.0400923,1910,1037,80.5412,-2.11616
693,-13,80.5516,2.12634,-0.00105386,0.00131152,0.000355565,0.00136382,-0.00110615,1.42477,0.00142862,0.0400948,1917,1037,80.5517,-2.12634
700,-13,80.5813,2.12439,-0.00118057,0.000776863,0.000516915,0.000904983,-0.00130869,1.32784,0.00128513,0.0367945,1924,1037,80.5812,-2.12439
707,-13,80.7073,2.05322,-0.00208623,0.000887052,0.000636059,0.00101741,-0.00221658,1.36866,0.00190945,0.0312497,1931,1037,80.7072,-2.05318
714,-13,80.6823,2.24597,-0.00331094,0.00155331,0.000722786,0.00165844,-0.00341607,1.42636,0.00298777,0.0357214,1938,1037,80.6823,-2.24603
721,-13,80.4283,2.3512,0,0,0,0,0,0,0,-1,1945,1037,80.4284,-2.35119
728,-13,78.576,7.60706,0,0,0,0,0,0,0,-1,1952,1037,78.5761,-7.60708
735,-13,80.5179,7.82959,0,0,0,0,0,0,0,-1,1959,1037,80.518,-7.82962
742,-13,80.6884,7.66516,-0.00925597,0.0078204,0.000711715,0.00785001,-0.00928558,1.52921,0.0099048,0.0368428,1966,1037,80.6884,-7.66514
749,-13,80.8567,7.47791,-0.0106603,0.00996925,0.000206631,0.00997132,-0.0106624,1.56078,0.0119151,0.0491079,1973,1037,80.8566,-7.47792
756,-13,80.8,7.30713,-0.011753,0.0133272,-0.000579028,0.0133406,-0.0117663,-1.54773,0.014505,0.0242314,1980,1037,80.8,-7.30708
763,-13,80.729,7.16492,-0.0121419,0.0175098,-0.00218321,0.0176697,-0.0123017,-1.49769,0.0173963,0.0343906,1987,1037,80.7291,-7.16494
770,-13,80.5913,7.02161,-0.0112328,0.022813,-0.00482436,0.0234835,-0.0119032,-1.43272,0.020792,0.0282156,1994,1037,80.5913,-7.0216
777,-13,80.3552,6.82129,-0.00826261,0.0288834,-0.00893413,0.0309204,-0.0102997,-1.34662,0.0247712,0.0190786,2001,1037,80.3551,-6.82134
784,-13,80.2959,6.65381,-0.00383725,0.0348711,-0.0142082,0.0395265,-0.00849261,-1.25417,0.0295909,0.0400167,2008,1037,80.296,-6.65381
791,-13,80.2649,6.49097,0,0,0,0,0,0,0,-1,2015,1037,80.2649,-6.49095
798,-13,80.5007,5.96704,0,0,0,0,0,0,0,-1,2022,1037,80.5008,-5.96707
805,-13,80.875,5.57202,0,0,0,0,0,0,0,-1,2029,1037,80.8751,-5.57198
812,-13,80.2588,5.03943,0,0,0,0,0,0,0,-1,2036,1037,80.2589,-5.03946
-700,-20,-58.6166,2.89758,0,0,0,0,0,0,0,-1,524,1044,-58.6166,-2.89753
-693,-20,-59.3065,4.01794,-0.0970511,0.145789,0.105574,0.185269,-0.136531,1.21294,0.1865,0.0453969,531,1044,-59.3064,-4.01797
-686,-20,-60.1189,4.89014,-0.0831142,0.127057,0.0875995,0.15878,-0.114837,1.22335,0.158651,0.0456559,538,1044,-60.1189,-4.89013
-679,-20,-61.1944,5.30957,-0.0709796,0.108845,0.0721309,0.134203,-0.0963369,1.23275,0.133699,0.047225,545,1044,-61.1944,-5.30957
-672,-20,-62.1113,5.93774,-0.0600743,0.0930357,0.0589663,0.113112,-0.080151,1.24263,0.11212,0.0481651,552,1044,-62.1113,-5.93778
-665,-20,-63.3225,5.69238,0,0,0,0,0,0,0,-1,559,1044,-63.3225,-5.69239
-658,-20,-64.239,5.97351,0,0,0,0,0,0,0,-1,566,1044,-64.2389,-5.9735
-651,-20,-64.2197,5.99939,-0.0327862,0.0561073,0.0281712,0.0642831,-0.0409619,1.28834,0.0612585,0.0464646,573,1044,-64.2197,-5.99938
-644,-20,-64.1542,6.04675,-0.0252541,0.0450771,0.0194057,0.0500762,-0.0302532,1.31867,0.0468465,0.031902,580,1044,-64.1542,-6.04679
-637,-20,-64.2532,6.17102,-0.0173428,0.034903,0.0111079,0.0371665,-0.0196064,1.36977,0.0332964,0.0240885,587,1044,-64.2532,-6.17098
-630,-20,-64.3899,6.4502,-0.0111768,0.0265525,0.00545268,0.0273248,-0.011949,1.43011,0.0232467,0.0190854,594,1044,-64.3899,-6.45016
-623,-20,-64.4871,6.74377,-0.00694605,0.0180108,0.00202236,0.0181737,-0.00710887,1.49046,0.0150556,0.0158067,601,1044,-64.4871,-6.7438
-616,-20,-64.5037,6.97168,-0.00371608,0.0088015,-0.000437043,0.00881674,-0.00373132,-1.53594,0.0074403,0.0156261,608,1044,-64.5037,-6.97165
-609,-20,-64.5237,7.18945,-0.00211271,0.00413236,-0.00138647,0.00442634,-0.00240668,-1.36186,0.00400208,0.0174782,615,1044,-64.5237,-7.18944
-602,-20,-64.4651,7.33728,-0.00138935,0.00190039,-0.00148904,0.00247427,-0.00196323,-1.20294,0.00256765,0.0148381,622,1044,-64.4651,-7.3373
-595,-20,-64.4785,7.49683,0,0,0,0,0,0,0,-1,629,1044,-64.4784,-7.49684
-588,-20,-63.6851,0.368652,0,0,0,0,0,0,0,-1,636,1044,-63.6851,-0.368605
-581,-20,-63.7341,0.164551,-0.000618801,-0.0017418,-0.00138617,0.000315276,-0.00267588,-0.592962,0.00189776,0.0302058,643,1044,-63.7342,-0.164502
-574,-20,-63.756,0.222168,-0.000715844,-0.00197586,-0.00125294,5.65629e-05,-0.00274827,-0.552446,0.00185132,0.0391954,650,1044,-63.756,-0.222166
-567,-20,-63.6443,0.224731,-0.00120727,-0.00162877,-0.00100623,-0.000389954,-0.00244608,-0.682169,0.00151753,0.0446073,657,1044,-63.6444,-0.224766
-560,-20,-63.6777,0.128418,-0.00188956,-0.000740339,-0.000635549,-0.000458153,-0.00217175,-1.15294,0.00132185,0.0446236,664,1044,-63.6777,-0.128462
-553,-20,-63.7921,0.196167,-0.00272027,0.000269446,-0.000273185,0.000294203,-0.00274503,-1.48042,0.00193555,0.0419915,671,1044,-63.7921,-0.196139
-546,-20,-63.7695,0.292603,-0.00349704,0.00102298,2.59289e-06,0.00102298,-0.00349704,1.57022,0.00273684,0.0388059,678,1044,-63.7694,-0.292652
-539,-20,-63.7664,0.45459,-0.0044894,0.00119487,3.16006e-05,0.00119504,-0.00448958,1.56524,0.00346087,0.0388539,685,1044,-63.7664,-0.454587
-532,-20,-63.8458,0.620728,-0.00545567,0.00135556,4.3536e-05,0.00135583,-0.00545595,1.5644,0.00416349,0.0399142,692,1044,-63.8458,-0.620776
-525,-20,0,0,0,0,0,0,0,0,0,-1,699,1044,0,0
-518,-20,0,0,0,0,0,0,0,0,0,-1,706,1044,0,0
-511,-20,0,0,0,0,0,0,0,0,0,-1,713,1044,0,0
-504,-20,0,0,0,0,0,0,0,0,0,-1,720,1044,0,0
-497,-20,0,0,0,0,0,0,0,0,0,-1,727,1044,0,0
-490,-20,0,0,0,0,0,0,0,0,0,-1,734,1044,0,0
-483,-20,0,0,0,0,0,0,0,0,0,-1,741,1044,0,0
-476,-20,0,0,0,0,0,0,0,0,0,-1,748,1044,0,0
-469,-20,0,0,0,0,0,0,0,0,0,-1,755,1044,0,0
-462,-20,0,0,0,0,0,0,0,0,0,-1,762,1044,0,0
-455,-20,0,0,0,0,0,0,0,0,0,-1,769,1044,0,0
-448,-20,0,0,0,0,0,0,0,0,0,-1,776,1044,0,0
-441,-20,0,0,0,0,0,0,0,0,0,-1,783,1044,0,0
-434,-20,0,0,0,0,0,0,0,0,0,-1,790,1044,0,0
-427,-20,0,0,0,0,0,0,0,0,0,-1,797,1044,0,0
-420,-20,0,0,0,0,0,0,0,0,0,-1,804,1044,0,0
-413,-20,0,0,0,0,0,0,0,0,0,-1,811,1044,0,0
-406,-20,0,0,0,0,0,0,0,0,0,-1,818,1044,0,0
-399,-20,0,0,0,0,0,0,0,0,0,-1,825,1044,0,0
-392,-20,0,0,0,0,0,0,0,0,0,-1,832,1044,0,0
-385,-20,0,0,0,0,0,0,0,0,0,-1,839,1044,0,0
-378,-20,0,0,0,0,0,0,0,0,0,-1,846,1044,0,0
-371,-20,0,0,0,0,0,0,0,0,0,-1,853,1044,0,0
-364,-20,0,0,0,0,0,0,0,0,0,-1,860,1044,0,0
-357,-20,0,0,0,0,0,0,0,0,0,-1,867,1044,0,0
-350,-20,0,0,0,0,0,0,0,0,0,-1,874,1044,0,0
-343,-20,0,0,0,0,0,0,0,0,0,-1,881,1044,0,0
-336,-20,0,0,0,0,0,0,0,0,0,-1,888,1044,0,0
-329,-20,0,0,0,0,0,0,0,0,0,-1,895,1044,0,0
-322,-20,0,0,0,0,0,0,0,0,0,-1,902,1044,0,0
-315,-20,0,0,0,0,0,0,0,0,0,-1,909,1044,0,0
-308,-20,0,0,0,0,0,0,0,0,0,-1,916,1044,0,0
-301,-20,0,0,0,0,0,0,0,0,0,-1,923,1044,0,0
-294,-20,0,0,0,0,0,0,0,0,0,-1,930,1044,0,0
-287,-20,0,0,0,0,0,0,0,0,0,-1,937,1044,0,0
-280,-20,0,0,0,0,0,0,0,0,0,-1,944,1044,0,0
-273,-20,0,0,0,0,0,0,0,0,0,-1,951,1044,0,0
-266,-20,0,0,0,0,0,0,0,0,0,-1,958,1044,0,0
-259,-20,0,0,0,0,0,0,0,0,0,-1,965,1044,0,0
-252,-20,0,0,0,0,0,0,0,0,0,-1,972,1044,0,0
-245,-20,0,0,0,0,0,0,0,0,0,-1,979,1044,0,0
-238,-20,0,0,0,0,0,0,0,0,0,-1,986,1044,0,0
-231,-20,0,0,0,0,0,0,0,0,0,-1,993,1044,0,0
-224,-20,0,0,0,0,0,0,0,0,0,-1,1000,1044,0,0
-217,-20,0,0,0,0,0,0,0,0,0,-1,1007,1044,0,0
-210,-20,0,0,0,0,0,0,0,0,0,-1,1014,1044,0,0
-203,-20,0,0,0,0,0,0,0,0,0,-1,1021,1044,0,0
-196,-20,0,0,0,0,0,0,0,0,0,-1,1028,1044,0,0
-189,-20,0,0,0,0,0,0,0,0,0,-1,1035,1044,0,0
-182,-20,0,0,0,0,0,0,0,0,0,-1,1042,1044,0,0
-175,-20,0,0,0,0,0,0,0,0,0,-1,1049,1044,0,0
-168,-20,0,0,0,0,0,0,0,0,0,-1,1056,1044,0,0
-161,-20,0,0,0,0,0,0,0,0,0,-1,1063,1044,0,0
-154,-20,0,0,0,0,0,0,0,0,0,-1,1070,1044,0,0
-147,-20,0,0,0,0,0,0,0,0,0,-1,1077,1044,0,0
-140,-20,0,0,0,0,0,0,0,0,0,-1,1084,1044,0,0
-133,-20,0,0,0,0,0,0,0,0,0,-1,1091,1044,0,0
-126,-20,0,0,0,0,0,0,0,0,0,-1,1098,1044,0,0
-119,-20,0,0,0,0,0,0,0,0,0,-1,1105,1044,0,0
-112,-20,0,0,0,0,0,0,0,0,0,-1,1112,1044,0,0
-105,-20,0,0,0,0,0,0,0,0,0,-1,1119,1044,0,0
-98,-20,0,0,0,0,0,0,0,0,0,-1,1126,1044,0,0
-91,-20,0,0,0,0,0,0,0,0,0,-1,1133,1044,0,0
-84,-20,0,0,0,0,0,0,0,0,0,-1,1140,1044,0,0
-77,-20,0,0,0,0,0,0,0,0,0,-1,1147,1044,0,0
-70,-20,0,0,0,0,0,0,0,0,0,-1,1154,1044,0,0
-63,-20,0,0,0,0,0,0,0,0,0,-1,1161,1044,0,0
-56,-20,0,0,0,0,0,0,0,0,0,-1,1168,1044,0,0
-49,-20,0,0,0,0,0,0,0,0,0,-1,1175,1044,0,0
-42,-20,0,0,0,0,0,0,0,0,0,-1,1182,1044,0,0
-35,-20,0,0,0,0,0,0,0,0,0,-1,1189,1044,0,0
-28,-20,0,0,0,0,0,0,0,0,0,-1,1196,1044,0,0
-21,-20,0,0,0,0,0,0,0,0,0,-1,1203,1044,0,0
-14,-20,0,0,0,0,0,0,0,0,0,-1,1210,1044,0,0
-7,-20,0,0,0,0,0,0,0,0,0,-1,1217,1044,0,0
0,-20,0,0,0,0,0,0,0,0,0,-1,1224,1044,0,0
7,-20,0,0,0,0,0,0,0,0,0,-1,1231,1044,0,0
14,-20,0,0,0,0,0,0,0,0,0,-1,1238,1044,0,0
21,-20,0,0,0,0,0,0,0,0,0,-1,1245,1044,0,0
28,-20,0,0,0,0,0,0,0,0,0,-1,1252,1044,0,0
35,-20,0,0,0,0,0,0,0,0,0,-1,1259,1044,0,0
42,-20,0,0,0,0,0,0,0,0,0,-1,1266,1044,0,0
49,-20,0,0,0,0,0,0,0,0,0,-1,1273,1044,0,0
56,-20,0,0,0,0,0,0,0,0,0,-1,1280,1044,0,0
63,-20,0,0,0,0,0,0,0,0,0,-1,1287,1044,0,0
70,-20,0,0,0,0,0,0,0,0,0,-1,1294,1044,0,0
77,-20,0,0,0,0,0,0,0,0,0,-1,1301,1044,0,0
84,-20,0,0,0,0,0,0,0,0,0,-1,1308,1044,0,0
91,-20,0,0,0,0,0,0,0,0,0,-1,1315,1044,0,0
98,-20,0,0,0,0,0,0,0,0,0,-1,1322,1044,0,0
105,-20,0,0,0,0,0,0,0,0,0,-1,1329,1044,0,0
112,-20,0,0,0,0,0,0,0,0,0,-1,1336,1044,0,0
119,-20,0,0,0,0,0,0,0,0,0,-1,1343,1044,0,0
126,-20,0,0,0,0,0,0,0,0,0,-1,1350,1044,0,0
133,-20,0,0,0,0,0,0,0,0,0,-1,1357,1044,0,0
140,-20,0,0,0,0,0,0,0,0,0,-1,1364,1044,0,0
147,-20,0,0,0,0,0,0,0,0,0,-1,1371,1044,0,0
154,-20,0,0,0,0,0,0,0,0,0,-1,1378,1044,0,0
161,-20,0,0,0,0,0,0,0,0,0,-1,1385,1044,0,0
168,-20,0,0,0,0,0,0,0,0,0,-1,1392,1044,0,0
175,-20,0,0,0,0,0,0,0,0,0,-1,1399,1044,0,0
182,-20,0,0,0,0,0,0,0,0,0,-1,1406,1044,0,0
189,-20,0,0,0,0,0,0,0,0,0,-1,1413,1044,0,0
196,-20,0,0,0,0,0,0,0,0,0,-1,1420,1044,0,0
203,-20,0,0,0,0,0,0,0,0,0,-1,1427,1044,0,0
210,-20,0,0,0,0,0,0,0,0,0,-1,1434,1044,0,0
217,-20,0,0,0,0,0,0,0,0,0,-1,1441,1044,0,0
224,-20,0,0,0,0,0,0,0,0,0,-1,1448,1044,0,0
231,-20,0,0,0,0,0,0,0,0,0,-1,1455,1044,0,0
238,-20,0,0,0,0,0,0,0,0,0,-1,1462,1044,0,0
245,-20,0,0,0,0,0,0,0,0,0,-1,1469,1044,0,0
252,-20,0,0,0,0,0,0,0,0,0,-1,1476,1044,0,0
259,-20,0,0,0,0,0,0,0,0,0,-1,1483,1044,0,0
266,-20,0,0,0,0,0,0,0,0,0,-1,1490,1044,0,0
273,-20,0,0,0,0,0,0,0,0,0,-1,1497,1044,0,0
280,-20,0,0,0,0,0,0,0,0,0,-1,1504,1044,0,0
287,-20,0,0,0,0,0,0,0,0,0,-1,1511,1044,0,0
294,-20,0,0,0,0,0,0,0,0,0,-1,1518,1044,0,0
301,-20,0,0,0,0,0,0,0,0,0,-1,1525,1044,0,0
308,-20,0,0,0,0,0,0,0,0,0,-1,1532,1044,0,0
315,-20,0,0,0,0,0,0,0,0,0,-1,1539,1044,0,0
322,-20,0,0,0,0,0,0,0,0,0,-1,1546,1044,0,0
329,-20,0,0,0,0,0,0,0,0,0,-1,1553,1044,0,0
336,-20,0,0,0,0,0,0,0,0,0,-1,1560,1044,0,0
343,-20,0,0,0,0,0,0,0,0,0,-1,1567,1044,0,0
350,-20,0,0,0,0,0,0,0,0,0,-1,1574,1044,0,0
357,-20,0,0,0,0,0,0,0,0,0,-1,1581,1044,0,0
364,-20,0,0,0,0,0,0,0,0,0,-1,1588,1044,0,0
371,-20,0,0,0,0,0,0,0,0,0,-1,1595,1044,0,0
378,-20,0,0,0,0,0,0,0,0,0,-1,1602,1044,0,0
385,-20,0,0,0,0,0,0,0,0,0,-1,1609,1044,0,0
392,-20,0,0,0,0,0,0,0,0,0,-1,1616,1044,0,0
399,-20,0,0,0,0,0,0,0,0,0,-1,1623,1044,0,0
406,-20,0,0,0,0,0,0,0,0,0,-1,1630,1044,0,0
413,-20,0,0,0,0,0,0,0,0,0,-1,1637,1044,0,0
420,-20,0,0,0,0,0,0,0,0,0,-1,1644,1044,0,0
427,-20,0,0,0,0,0,0,0,0,0,-1,1651,1044,0,0
434,-20,0,0,0,0,0,0,0,0,0,-1,1658,1044,0,0
441,-20,0,0,0,0,0,0,0,0,0,-1,1665,1044,0,0
448,-20,0,0,0,0,0,0,0,0,0,-1,1672,1044,0,0
455,-20,0,0,0,0,0,0,0,0,0,-1,1679,1044,0,0
462,-20,0,0,0,0,0,0,0,0,0,-1,1686,1044,0,0
469,-20,0,0,0,0,0,0,0,0,0,-1,1693,1044,0,0
476,-20,0,0,0,0,0,0,0,0,0,-1,1700,1044,0,0
483,-20,0,0,0,0,0,0,0,0,0,-1,1707,1044,0,0
490,-20,0,0,0,0,0,0,0,0,0,-1,1714,1044,0,0
497,-20,0,0,0,0,0,0,0,0,0,-1,1721,1044,0,0
504,-20,0,0,0,0,0,0,0,0,0,-1,1728,1044,0,0
511,-20,0,0,0,0,0,0,0,0,0,-1,1735,1044,0,0
518,-20,0,0,0,0,0,0,0,0,0,-1,1742,1044,0,0
525,-20,0,0,0,0,0,0,0,0,0,-1,1749,1044,0,0
532,-20,0,0,0,0,0,0,0,0,0,-1,1756,1044,0,0
539,-20,0,0,0,0,0,0,0,0,0,-1,1763,1044,0,0
546,-20,0,0,0,0,0,0,0,0,0,-1,1770,1044,0,0
553,-20,0,0,0,0,0,0,0,0,0,-1,1777,1044,0,0
560,-20,0,0,0,0,0,0,0,0,0,-1,1784,1044,0,0
567,-20,0,0,0,0,0,0,0,0,0,-1,1791,1044,0,0
574,-20,0,0,0,0,0,0,0,0,0,-1,1798,1044,0,0
581,-20,0,0,0,0,0,0,0,0,0,-1,1805,1044,0,0
588,-20,0,0,0,0,0,0,0,0,0,-1,1812,1044,0,0
595,-20,0,0,0,0,0,0,0,0,0,-1,1819,1044,0,0
602,-20,0,0,0,0,0,0,0,0,0,-1,1826,1044,0,0
609,-20,0,0,0,0,0,0,0,0,0,-1,1833,1044,0,0
616,-20,0,0,0,0,0,0,0,0,0,-1,1840,1044,0,0
623,-20,0,0,0,0,0,0,0,0,0,-1,1847,1044,0,0
630,-20,0,0,0,0,0,0,0,0,0,-1,1854,1044,0,0
637,-20,0,0,0,0,0,0,0,0,0,-1,1861,1044,0,0
644,-20,0,0,0,0,0,0,0,0,0,-1,1868,1044,0,0
651,-20,80.7821,2.14856,0.00168582,0.00254633,0.00183623,0.00400204,0.000230104,0.90048,0.00259473,0.0400236,1875,1044,80.7821,-2.14859
658,-20,80.7697,2.22498,0.000742142,0.00274968,0.0011601,0.00327998,0.000211835,1.14204,0.00211958,0.0423806,1882,1044,80.7696,-2.22498
665,-20,80.712,2.22375,0.000171266,0.00275228,0.000713513,0.0029364,-1.28485e-05,1.31827,0.00196189,0.0407707,1889,1044,80.712,-2.2237
672,-20,80.7047,2.12219,-0.000143023,0.00268979,0.000504525,0.00277696,-0.000230197,1.3997,0.00193262,0.0260062,1896,1044,80.7047,-2.12219
679,-20,80.5978,2.08716,-0.000303244,0.00258493,0.000405741,0.00264085,-0.000359162,1.43384,0.00189168,0.0277546,1903,1044,80.5977,-2.08714
686,-20,80.6072,2.1333,-0.000762683,0.00209374,0.000449255,0.00216273,-0.000831675,1.41842,0.00178485,0.0377989,1910,1044,80.6072,-2.13334
693,-20,80.6285,1.99304,-0.00113348,0.00146038,0.000569223,0.0015798,-0.0012529,1.364,0.00163909,0.0423568,1917,1044,80.6286,-1.99306
700,-20,80.5953,1.94751,-0.00141009,0.00092489,0.000785401,0.00116449,-0.00164968,1.2747,0.00163279,0.0382635,1924,1044,80.5953,-1.9475
707,-20,80.675,2.02832,-0.00235641,0.000968551,0.000960865,0.00122625,-0.00261412,1.30876,0.00226499,0.0333091,1931,1044,80.6751,-2.02833
714,-20,80.6801,2.255,-0.003583,0.00153507,0.00109683,0.00176022,-0.00380815,1.36833,0.00328658,0.0351032,1938,1044,80.68,-2.25503
721,-20,80.4774,2.33655,0,0,0,0,0,0,0,-1,1945,1044,80.4774,-2.33658
728,-20,81.1124,8.03992,0,0,0,0,0,0,0,-1,1952,1044,81.1124,-8.03994
735,-20,80.7887,7.86804,-0.00800399,0.00570216,0.00133187,0.00583039,-0.00813221,1.47482,0.00809774,0.0382023,1959,1044,80.7886,-7.868
742,-20,80.4469,7.49561,-0.00950097,0.00726728,0.00133725,0.00737325,-0.00960695,1.49171,0.00983176,0.0426678,1966,1044,80.4469,-7.49558
749,-20,80.6162,7.41553,-0.0109515,0.0091378,0.00104435,0.00919194,-0.0110056,1.519,0.0116767,0.0419021,1973,1044,80.6162,-7.41556
756,-20,80.6226,7.28735,-0.0119815,0.0121811,0.000413275,0.0121882,-0.0119885,1.5537,0.0139586,0.0235041,1980,1044,80.6226,-7.28736
763,-20,80.5181,7.11267,-0.01223,0.0158186,-0.000911333,0.0158482,-0.0122596,-1.53835,0.0162721,0.0349,1987,1044,80.5181,-7.11262
770,-20,80.3792,6.995,-0.0113295,0.0203247,-0.0030321,0.0206126,-0.0116173,-1.47615,0.0188479,0.0290605,1994,1044,80.3791,-6.99494
777,-20,80.1577,6.67249,-0.00832783,0.025356,-0.00643234,0.0265425,-0.00951437,-1.38838,0.0215774,0.0192246,2001,1044,80.1578,-6.67248
784,-20,80.1155,6.45911,-0.00386938,0.0301331,-0.0109088,0.033332,-0.00706822,-1.28556,0.0249139,0.0243997,2008,1044,80.1156,-6.45905
791,-20,80.2495,6.11279,0.00252281,0.034617,-0.0171723,0.042073,-0.00493324,-1.16117,0.0298294,0.0413745,2015,1044,80.2495,-6.11279
798,-20,80.4758,5.82861,0,0,0,0,0,0,0,-1,2022,1044,80.4757,-5.82859
805,-20,80.8186,5.43738,0.0242391,0.0432178,-0.0359495,0.0709093,-0.00345244,-0.914436,0.0484647,0.0439442,2029,1044,80.8185,-5.43735
812,-20,81.0283,4.66003,0.0390314,0.0477294,-0.0489955,0.0925686,-0.00580773,-0.829664,0.0637366,0.0432939,2036,1044,81.0283,-4.66004
-700,-27,-59.2341,2.28259,-0.115005,0.192846,0.134664,0.243438,-0.165597,1.21142,0.237578,0.0485364,524,1051,-59.2341,-2.28258
-693,-27,-60.0378,3.24976,-0.106376,0.193078,0.117688,0.233794,-0.147092,1.23772,0.221796,0.0477235,531,1051,-60.0379,-3.24971
-686,-27,-60.8615,3.97083,-0.0905971,0.166148,0.0968236,0.198568,-0.123017,1.24769,0.187368,0.0457086,538,1051,-60.8615,-3.97083
-679,-27,-62.1916,3.91565,0,0,0,0,0,0,0,-1,545,1051,-62.1916,-3.91564
-672,-27,-62.7667,4.40759,-0.0645644,0.118989,0.0635835,0.138863,-0.0844382,1.26786,0.130193,0.0439242,552,1051,-62.7667,-4.40758
-665,-27,-63.6487,4.72888,-0.0534542,0.100561,0.0505966,0.115695,-0.0685888,1.28014,0.107549,0.0460472,559,1051,-63.6488,-4.72885
-658,-27,-63.9745,5.10413,0,0,0,0,0,0,0,-1,566,1051,-63.9746,-5.10408
-651,-27,-63.9583,5.45898,-0.0340797,0.0689768,0.0291105,0.0766311,-0.0417341,1.31367,0.0693211,0.0398342,573,1051,-63.9583,-5.45903
-644,-27,-63.9509,5.76025,-0.0258147,0.0544752,0.0196169,0.0590118,-0.0303513,1.34353,0.0524709,0.0196144,580,1051,-63.9509,-5.76019
-637,-27,-64.0205,5.96582,-0.0171737,0.0406199,0.0107706,0.0425619,-0.0191157,1.39241,0.0364571,0.0164591,587,1051,-64.0205,-5.96581
-630,-27,-64.1345,6.39014,-0.0104206,0.0290291,0.00479181,0.0296028,-0.0109943,1.45164,0.0242457,0.0208246,594,1051,-64.1345,-6.39009
-623,-27,-64.2288,6.73743,-0.00599794,0.0184647,0.00138448,0.0185428,-0.00607605,1.51444,0.0148087,0.0189685,601,1051,-64.2288,-6.73748
-616,-27,-64.2013,6.99915,-0.0027525,0.00849785,-0.00104267,0.00859366,-0.00284832,-1.47916,0.00687803,0.0156455,608,1051,-64.2013,-6.9991
-609,-27,-64.136,7.23474,-0.00115171,0.00346441,-0.00195913,0.00418378,-0.00187108,-1.21889,0.00357976,0.01545,615,1051,-64.136,-7.23469
-602,-27,-64.1226,7.4823,-0.000470448,0.00127852,-0.00202491,0.00260971,-0.00180163,-0.989233,0.00256109,0.014148,622,1051,-64.1226,-7.48232
-595,-27,-64.1104,7.75903,-0.000252122,-0.000561433,-0.00200444,0.00160362,-0.00241718,-0.746896,0.0023372,0.0296201,629,1051,-64.1103,-7.75898
-588,-27,-64.2408,8.0564,0,0,0,0,0,0,0,-1,636,1051,-64.2408,-8.05645
-581,-27,-63.6968,0.178101,-2.31062e-05,-0.002242,-0.0017106,0.000906328,-0.00317143,-0.497714,0.0024724,0.0258767,643,1051,-63.6969,-0.178101
-574,-27,-63.722,0.0959473,-0.000211699,-0.00246081,-0.00150317,0.00054102,-0.00321353,-0.46425,0.0023436,0.0380751,650,1051,-63.7221,-0.0959426
-567,-27,-63.5685,-0.0584717,-0.000820861,-0.00210928,-0.00117186,-0.000127815,-0.00280232,-0.534079,0.0018271,0.0459525,657,1051,-63.5685,0.0584954
-560,-27,-63.5831,-0.134521,-0.0017067,-0.00122391,-0.000699185,-0.000725622,-0.00220499,-0.951616,0.00129761,0.0466275,664,1051,-63.5831,0.134502
-553,-27,-63.5768,0.0268555,-0.0027996,-0.000184289,-0.000201312,-0.000168884,-0.00281501,-1.49442,0.00182299,0.0407035,671,1051,-63.5768,-0.0268322
-546,-27,-63.5938,0.144409,-0.00391933,0.000647516,0.000217762,0.000657876,-0.00392969,1.52326,0.00286438,0.0395784,678,1051,-63.5938,-0.144359
-539,-27,-63.61,0.293579,-0.00528066,0.000887128,0.000370389,0.000909291,-0.00530283,1.51103,0.00387405,0.0403613,685,1051,-63.61,-0.293586
-532,-27,-63.7036,0.444824,-0.00667669,0.00110969,0.000500527,0.00114173,-0.00670873,1.50686,0.00489763,0.0402381,692,1051,-63.7036,-0.444865
-525,-27,0,0,0,0,0,0,0,0,0,-1,699,1051,0,0
-518,-27,0,0,0,0,0,0,0,0,0,-1,706,1051,0,0
-511,-27,0,0,0,0,0,0,0,0,0,-1,713,1051,0,0
-504,-27,0,0,0,0,0,0,0,0,0,-1,720,1051,0,0
-497,-27,0,0,0,0,0,0,0,0,0,-1,727,1051,0,0
-490,-27,0,0,0,0,0,0,0,0,0,-1,734,1051,0,0
-483,-27,0,0,0,0,0,0,0,0,0,-1,741,1051,0,0
-476,-27,0,0,0,0,0,0,0,0,0,-1,748,1051,0,0
-469,-27,0,0,0,0,0,0,0,0,0,-1,755,1051,0,0
-462,-27,0,0,0,0,0,0,0,0,0,-1,762,1051,0,0
-455,-27,0,0,0,0,0,0,0,0,0,-1,769,1051,0,0
-448,-27,0,0,0,0,0,0,0,0,0,-1,776,1051,0,0
-441,-27,0,0,0,0,0,0,0,0,0,-1,783,1051,0,0
-434,-27,0,0,0,0,0,0,0,0,0,-1,790,1051,0,0
-427,-27,0,0,0,0,0,0,0,0,0,-1,797,1051,0,0
-420,-27,0,0,0,0,0,0,0,0,0,-1,804,1051,0,0
-413,-27,0,0,0,0,0,0,0,0,0,-1,811,1051,0,0
-406,-27,0,0,0,0,0,0,0,0,0,-1,818,1051,0,0
-399,-27,0,0,0,0,0,0,0,0,0,-1,825,1051,0,0
-392,-27,0,0,0,0,0,0,0,0,0,-1,832,1051,0,0
-385,-27,0,0,0,0,0,0,0,0,0,-1,839,1051,0,0
-378,-27,0,0,0,0,0,0,0,0,0,-1,846,1051,0,0
-371,-27,0,0,0,0,0,0,0,0,0,-1,853,1051,0,0
-364,-27,0,0,0,0,0,0,0,0,0,-1,860,1051,0,0
-357,-27,0,0,0,0,0,0,0,0,0,-1,867,1051,0,0
-350,-27,0,0,0,0,0,0,0,0,0,-1,874,1051,0,0
-343,-27,0,0,0,0,0,0,0,0,0,-1,881,1051,0,0
-336,-27,0,0,0,0,0,0,0,0,0,-1,888,1051,0,0
-329,-27,0,0,0,0,0,0,0,0,0,-1,895,1051,0,0
-322,-27,0,0,0,0,0,0,0,0,0,-1,902,1051,0,0
-315,-27,0,0,0,0,0,0,0,0,0,-1,909,1051,0,0
-308,-27,0,0,0,0,0,0,0,0,0,-1,916,1051,0,0
-301,-27,0,0,0,0,0,0,0,0,0,-1,923,1051,0,0
-294,-27,0,0,0,0,0,0,0,0,0,-1,930,1051,0,0
-287,-27,0,0,0,0,0,0,0,0,0,-1,937,1051,0,0
-280,-27,0,0,0,0,0,0,0,0,0,-1,944,1051,0,0
-273,-27,0,0,0,0,0,0,0,0,0,-1,951,1051,0,0
-266,-27,0,0,0,0,0,0,0,0,0,-1,958,1051,0,0
-259,-27,0,0,0,0,0,0,0,0,0,-1,965,1051,0,0
-252,-27,0,0,0,0,0,0,0,0,0,-1,972,1051,0,0
-245,-27,0,0,0,0,0,0,0,0,0,-1,979,1051,0,0
-238,-27,0,0,0,0,0,0,0,0,0,-1,986,1051,0,0
-231,-27,0,0,0,0,0,0,0,0,0,-1,993,1051,0,0
-224,-27,0,0,0,0,0,0,0,0,0,-1,1000,1051,0,0
-217,-27,0,0,0,0,0,0,0,0,0,-1,1007,1051,0,0
-210,-27,0,0,0,0,0,0,0,0,0,-1,1014,1051,0,0
-203,-27,0,0,0,0,0,0,0,0,0,-1,1021,1051,0,0
-196,-27,0,0,0,0,0,0,0,0,0,-1,1028,1051,0,0
-189,-27,0,0,0,0,0,0,0,0,0,-1,1035,1051,0,0
-182,-27,0,0,0,0,0,0,0,0,0,-1,1042,1051,0,0
-175,-27,0,0,0,0,0,0,0,0,0,-1,1049,1051,0,0
-168,-27,0,0,0,0,0,0,0,0,0,-1,1056,1051,0,0
-161,-27,0,0,0,0,0,0,0,0,0,-1,1063,1051,0,0
-154,-27,0,0,0,0,0,0,0,0,0,-1,1070,1051,0,0
-147,-27,0,0,0,0,0,0,0,0,0,-1,1077,1051,0,0
-140,-27,0,0,0,0,0,0,0,0,0,-1,1084,1051,0,0
-133,-27,0,0,0,0,0,0,0,0,0,-1,1091,1051,0,0
-126,-27,0,0,0,0,0,0,0,0,0,-1,1098,1051,0,0
-119,-27,0,0,0,0,0,0,0,0,0,-1,1105,1051,0,0
-112,-27,0,0,0,0,0,0,0,0,0,-1,1112,1051,0,0
-105,-27,0,0,0,0,0,0,0,0,0,-1,1119,1051,0,0
-98,-27,0,0,0,0,0,0,0,0,0,-1,1126,1051,0,0
-91,-27,0,0,0,0,0,0,0,0,0,-1,1133,1051,0,0
-84,-27,0,0,0,0,0,0,0,0,0,-1,1140,1051,0,0
-77,-27,0,0,0,0,0,0,0,0,0,-1,1147,1051,0,0
-70,-27,0,0,0,0,0,0,0,0,0,-1,1154,1051,0,0
-63,-27,0,0,0,0,0,0,0,0,0,-1,1161,1051,0,0
-56,-27,0,0,0,0,0,0,0,0,0,-1,1168,1051,0,0
-49,-27,0,0,0,0,0,0,0,0,0,-1,1175,1051,0,0
-42,-27,0,0,0,0,0,0,0,0,0,-1,1182,1051,0,0
-35,-27,0,0,0,0,0,0,0,0,0,-1,1189,1051,0,0
-28,-27,0,0,0,0,0,0,0,0,0,-1,1196,1051,0,0
-21,-27,0,0,0,0,0,0,0,0,0,-1,1203,1051,0,0
-14,-27,0,0,0,0,0,0,0,0,0,-1,1210,1051,0,0
-7,-27,0,0,0,0,0,0,0,0,0,-1,1217,1051,0,0
0,-27,0,0,0,0,0,0,0,0,0,-1,1224,1051,0,0
7,-27,0,0,0,0,0,0,0,0,0,-1,1231,1051,0,0
14,-27,0,0,0,0,0,0,0,0,0,-1,1238,1051,0,0
21,-27,0,0,0,0,0,0,0,0,0,-1,1245,1051,0,0
28,-27,0,0,0,0,0,0,0,0,0,-1,1252,1051,0,0
35,-27,0,0,0,0,0,0,0,0,0,-1,1259,1051,0,0
42,-27,0,0,0,0,0,0,0,0,0,-1,1266,1051,0,0
49,-27,0,0,0,0,0,0,0,0,0,-1,1273,1051,0,0
56,-27,0,0,0,0,0,0,0,0,0,-1,1280,1051,0,0
63,-27,0,0,0,0,0,0,0,0,0,-1,1287,1051,0,0
70,-27,0,0,0,0,0,0,0,0,0,-1,1294,1051,0,0
77,-27,0,0,0,0,0,0,0,0,0,-1,1301,1051,0,0
84,-27,0,0,0,0,0,0,0,0,0,-1,1308,1051,0,0
91,-27,0,0,0,0,0,0,0,0,0,-1,1315,1051,0,0
98,-27,0,0,0,0,0,0,0,0,0,-1,1322,1051,0,0
105,-27,0,0,0,0,0,0,0,0,0,-1,1329,1051,0,0
112,-27,0,0,0,0,0,0,0,0,0,-1,1336,1051,0,0
119,-27,0,0,0,0,0,0,0,0,0,-1,1343,1051,0,0
126,-27,0,0,0,0,0,0,0,0,0,-1,1350,1051,0,0
133,-27,0,0,0,0,0,0,0,0,0,-1,1357,1051,0,0
140,-27,0,0,0,0,0,0,0,0,0,-1,1364,1051,0,0
147,-27,0,0,0,0,0,0,0,0,0,-1,1371,1051,0,0
154,-27,0,0,0,0,0,0,0,0,0,-1,1378,1051,0,0
161,-27,0,0,0,0,0,0,0,0,0,-1,1385,1051,0,0
168,-27,0,0,0,0,0,0,0,0,0,-1,1392,1051,0,0
175,-27,0,0,0,0,0,0,0,0,0,-1,1399,1051,0,0
182,-27,0,0,0,0,0,0,0,0,0,-1,1406,1051,0,0
189,-27,0,0,0,0,0,0,0,0,0,-1,1413,1051,0,0
196,-27,0,0,0,0,0,0,0,0,0,-1,1420,1051,0,0
203,-27,0,0,0,0,0,0,0,0,0,-1,1427,1051,0,0
210,-27,0,0,0,0,0,0,0,0,0,-1,1434,1051,0,0
217,-27,0,0,0,0,0,0,0,0,0,-1,1441,1051,0,0
224,-27,0,0,0,0,0,0,0,0,0,-1,1448,1051,0,0
231,-27,0,0,0,0,0,0,0,0,0,-1,1455,1051,0,0
238,-27,0,0,0,0,0,0,0,0,0,-1,1462,1051,0,0
245,-27,0,0,0,0,0,0,0,0,0,-1,1469,1051,0,0
252,-27,0,0,0,0,0,0,0,0,0,-1,1476,1051,0,0
259,-27,0,0,0,0,0,0,0,0,0,-1,1483,1051,0,0
266,-27,0,0,0,0,0,0,0,0,0,-1,1490,1051,0,0
273,-27,0,0,0,0,0,0,0,0,0,-1,1497,1051,0,0
280,-27,0,0,0,0,0,0,0,0,0,-1,1504,1051,0,0
287,-27,0,0,0,0,0,0,0,0,0,-1,1511,1051,0,0
294,-27,0,0,0,0,0,0,0,0,0,-1,1518,1051,0,0
301,-27,0,0,0,0,0,0,0,0,0,-1,1525,1051,0,0
308,-27,0,0,0,0,0,0,0,0,0,-1,1532,1051,0,0
315,-27,0,0,0,0,0,0,0,0,0,-1,1539,1051,0,0
322,-27,0,0,0,0,0,0,0,0,0,-1,1546,1051,0,0
329,-27,0,0,0,0,0,0,0,0,0,-1,1553,1051,0,0
336,-27,0,0,0,0,0,0,0,0,0,-1,1560,1051,0,0
343,-27,0,0,0,0,0,0,0,0,0,-1,1567,1051,0,0
350,-27,0,0,0,0,0,0,0,0,0,-1,1574,1051,0,0
357,-27,0,0,0,0,0,0,0,0,0,-1,1581,1051,0,0
364,-27,0,0,0,0,0,0,0,0,0,-1,1588,1051,0,0
371,-27,0,0,0,0,0,0,0,0,0,-1,1595,1051,0,0
378,-27,0,0,0,0,0,0,0,0,0,-1,1602,1051,0,0
385,-27,0,0,0,0,0,0,0,0,0,-1,1609,1051,0,0
392,-27,0,0,0,0,0,0,0,0,0,-1,1616,1051,0,0
399,-27,0,0,0,0,0,0,0,0,0,-1,1623,1051,0,0
406,-27,0,0,0,0,0,0,0,0,0,-1,1630,1051,0,0
413,-27,0,0,0,0,0,0,0,0,0,-1,1637,1051,0,0
420,-27,0,0,0,0,0,0,0,0,0,-1,1644,1051,0,0
427,-27,0,0,0,0,0,0,0,0,0,-1,1651,1051,0,0
434,-27,0,0,0,0,0,0,0,0,0,-1,1658,1051,0,0
441,-27,0,0,0,0,0,0,0,0,0,-1,1665,1051,0,0
448,-27,0,0,0,0,0,0,0,0,0,-1,1672,1051,0,0
455,-27,0,0,0,0,0,0,0,0,0,-1,1679,1051,0,0
462,-27,0,0,0,0,0,0,0,0,0,-1,1686,1051,0,0
469,-27,0,0,0,0,0,0,0,0,0,-1,1693,1051,0,0
476,-27,0,0,0,0,0,0,0,0,0,-1,1700,1051,0,0
483,-27,0,0,0,0,0,0,0,0,0,-1,1707,1051,0,0
490,-27,0,0,0,0,0,0,0,0,0,-1,1714,1051,0,0
497,-27,0,0,0,0,0,0,0,0,0,-1,1721,1051,0,0
504,-27,0,0,0,0,0,0,0,0,0,-1,1728,1051,0,0
511,-27,0,0,0,0,0,0,0,0,0,-1,1735,1051,0,0
518,-27,0,0,0,0,0,0,0,0,0,-1,1742,1051,0,0
525,-27,0,0,0,0,0,0,0,0,0,-1,1749,1051,0,0
532,-27,0,0,0,0,0,0,0,0,0,-1,1756,1051,0,0
539,-27,0,0,0,0,0,0,0,0,0,-1,1763,1051,0,0
546,-27,0,0,0,0,0,0,0,0,0,-1,1770,1051,0,0
553,-27,0,0,0,0,0,0,0,0,0,-1,1777,1051,0,0
560,-27,0,0,0,0,0,0,0,0,0,-1,1784,1051,0,0
567,-27,0,0,0,0,0,0,0,0,0,-1,1791,1051,0,0
574,-27,0,0,0,0,0,0,0,0,0,-1,1798,1051,0,0
581,-27,0,0,0,0,0,0,0,0,0,-1,1805,1051,0,0
588,-27,0,0,0,0,0,0,0,0,0,-1,1812,1051,0,0
595,-27,0,0,0,0,0,0,0,0,0,-1,1819,1051,0,0
602,-27,0,0,0,0,0,0,0,0,0,-1,1826,1051,0,0
609,-27,0,0,0,0,0,0,0,0,0,-1,1833,1051,0,0
616,-27,0,0,0,0,0,0,0,0,0,-1,1840,1051,0,0
623,-27,0,0,0,0,0,0,0,0,0,-1,1847,1051,0,0
630,-27,0,0,0,0,0,0,0,0,0,-1,1854,1051,0,0
637,-27,0,0,0,0,0,0,0,0,0,-1,1861,1051,0,0
644,-27,0,0,0,0,0,0,0,0,0,-1,1868,1051,0,0
651,-27,80.7408,1.97559,0.00315501,0.00211009,0.00158172,0.00429833,0.000966777,0.625885,0.00260382,0.0396377,1875,1051,80.7409,-1.97558
658,-27,80.6798,2.11597,0.00191606,0.00224597,0.000970079,0.00306502,0.00109701,0.869612,0.00179325,0.0388542,1882,1051,80.6798,-2.11596
665,-27,80.6195,2.14905,0.00107422,0.00222894,0.000613064,0.00249372,0.000809442,1.16311,0.00146898,0.0363415,1889,1051,80.6195,-2.14901
672,-27,80.59,2.18347,0.000537291,0.0021721,0.000485364,0.00230534,0.00040405,1.30288,0.00142149,0.0290232,1896,1051,80.5899,-2.18348
679,-27,80.5504,2.13599,0.000168449,0.00209102,0.000462604,0.00219654,6.29304e-05,1.34653,0.00144384,0.0287115,1903,1051,80.5504,-2.13593
686,-27,80.6837,2.17871,-0.000483083,0.00164783,0.000577622,0.00179433,-0.000629586,1.3224,0.00145231,0.0401338,1910,1051,80.6838,-2.17872
693,-27,80.7594,2.0802,-0.00104178,0.00107691,0.000768484,0.0013263,-0.00129116,1.257,0.00151124,0.0433119,1917,1051,80.7593,-2.08014
700,-27,80.6984,1.99268,-0.00145267,0.000607505,0.00103858,0.0010402,-0.00188536,1.17605,0.00171241,0.0385895,1924,1051,80.6983,-1.99266
707,-27,80.6274,2.06226,-0.00242539,0.000639925,0.00127746,0.0011025,-0.00288797,1.22338,0.00237953,0.026655,1931,1051,80.6274,-2.0623
714,-27,80.689,2.2345,-0.00363969,0.00115114,0.00148547,0.00157434,-0.0040629,1.29325,0.00335871,0.0282081,1938,1051,80.689,-2.2345
721,-27,80.6173,2.4812,0,0,0,0,0,0,0,-1,1945,1051,80.6173,-2.4812
728,-27,81.0632,8.11182,0,0,0,0,0,0,0,-1,1952,1051,81.0632,-8.11178
735,-27,80.579,7.99158,-0.00785644,0.00510427,0.00186833,0.00536822,-0.00812039,1.43045,0.0078415,0.0296504,1959,1051,80.579,-7.99153
742,-27,80.3282,7.76685,-0.00919428,0.0065938,0.00196527,0.00683475,-0.00943524,1.4488,0.0094334,0.0232901,1966,1051,80.3283,-7.76683
749,-27,80.3577,7.43811,-0.0105689,0.0083856,0.00182365,0.00855946,-0.0107428,1.47575,0.0111679,0.0184285,1973,1051,80.3577,-7.4381
756,-27,80.3325,7.19861,-0.0114738,0.011343,0.00126002,0.0114124,-0.0115432,1.5158,0.0132535,0.0179894,1980,1051,80.3325,-7.19856
763,-27,80.2346,6.95093,-0.0116463,0.014826,0.000107362,0.0148264,-0.0116467,1.56674,0.015321,0.0172361,1987,1051,80.2346,-6.95094
770,-27,80.1191,6.68823,-0.0108803,0.0191433,-0.00165853,0.0192347,-0.0109717,-1.51578,0.0176558,0.0180286,1994,1051,80.119,-6.68825
777,-27,79.9624,6.54822,-0.00821996,0.0240467,-0.00450331,0.0246634,-0.00883668,-1.43469,0.0200479,0.0215081,2001,1051,79.9623,-6.54822
784,-27,79.8892,6.40649,-0.0043689,0.0287312,-0.00826457,0.03068,-0.00631769,-1.33923,0.0228522,0.0302663,2008,1051,79.8892,-6.40649
791,-27,79.9214,6.12122,0.00102283,0.0331539,-0.0134598,0.0380471,-0.00387035,-1.22211,0.0267483,0.045366,2015,1051,79.9214,-6.12126
798,-27,80.2085,5.9248,0,0,0,0,0,0,0,-1,2022,1051,80.2085,-5.9248
805,-27,81.1965,4.92896,0.0190969,0.0415369,-0.029173,0.0615732,-0.000939347,-0.968979,0.0413654,0.0446197,2029,1051,81.1965,-4.92899
812,-27,81.4424,4.14893,0.0315107,0.0457612,-0.0399959,0.0792616,-0.00198962,-0.873548,0.0535166,0.0424109,2036,1051,81.4423,-4.14889
-700,-34,-60.5182,1.52856,-0.0990256,0.16136,0.130941,0.215817,-0.153483,1.17666,0.214225,0.0472744,524,1058,-60.5182,-1.52851
-693,-34,-60.7851,1.74927,-0.0929511,0.166813,0.116193,0.211201,-0.13734,1.20588,0.202731,0.0461882,531,1058,-60.7851,-1.7493
-686,-34,-61.5861,2.91602,-0.0828087,0.154349,0.0984875,0.189916,-0.118375,1.22425,0.179582,0.049143,538,1058,-61.5861,-2.91604
-679,-34,-62.3189,3.4137,0,0,0,0,0,0,0,-1,545,1058,-62.3189,-3.41375
-672,-34,-63.5504,2.43152,-0.0624834,0.121243,0.0667737,0.142948,-0.0841876,1.25653,0.132591,0.0443448,552,1058,-63.5504,-2.43156
-665,-34,-64.0224,3.15112,-0.0524386,0.104605,0.053329,0.121002,-0.068836,1.27249,0.110974,0.0466522,559,1058,-64.0224,-3.1511
-658,-34,-64.2903,4.27881,0,0,0,0,0,0,0,-1,566,1058,-64.2903,-4.27882
-651,-34,-63.6959,5.13416,-0.0334657,0.0720638,0.0303362,0.0801629,-0.0415648,1.3099,0.0714475,0.0326731,573,1058,-63.6959,-5.13413
-644,-34,-63.7499,5.54932,-0.0251369,0.0564907,0.0202866,0.0612545,-0.0299007,1.34015,0.0536561,0.015946,580,1058,-63.7499,-5.54935
-637,-34,-63.7758,5.86548,-0.0164262,0.0412214,0.0110012,0.0432495,-0.0184543,1.38849,0.0365709,0.0169883,587,1058,-63.7758,-5.86552
-630,-34,-63.8326,6.29199,-0.00953597,0.0282706,0.0046609,0.0288368,-0.0101021,1.44992,0.0233326,0.0185281,594,1058,-63.8326,-6.29202
-623,-34,-63.861,6.65112,-0.00517801,0.0174731,0.00109255,0.0175257,-0.00523059,1.52271,0.0137627,0.0153004,601,1058,-63.861,-6.6511
-616,-34,-63.8015,7.0365,-0.00198776,0.00777036,-0.0014374,0.00797769,-0.00219509,-1.42755,0.00618147,0.0218379,608,1058,-63.8015,-7.03644
-609,-34,-63.7274,7.36829,-0.00035035,0.00278458,-0.00242329,0.00410316,-0.00166893,-1.07247,0.00342988,0.0218578,615,1058,-63.7274,-7.36831
-602,-34,-63.7257,7.61829,0.000310926,0.000630402,-0.00246844,0.00294427,-0.00200294,-0.817709,0.00287346,0.017017,622,1058,-63.7257,-7.61824
-595,-34,-63.8572,7.85693,0.000485683,-0.00119897,-0.00242411,0.00220964,-0.00292292,-0.618185,0.00297281,0.0206481,629,1058,-63.8572,-7.85692
-588,-34,-64.1852,8.08362,0,0,0,0,0,0,0,-1,636,1058,-64.1853,-8.08356
-581,-34,-63.6925,0.266846,0.000533226,-0.00278721,-0.00200386,0.00147527,-0.00372926,-0.439455,0.00309734,0.0264823,643,1058,-63.6925,-0.266889
-574,-34,-63.7236,0.0985107,0.000292452,-0.00297969,-0.00173539,0.0010414,-0.00372864,-0.407425,0.00289599,0.0364865,650,1058,-63.7236,-0.0984858
-567,-34,-63.6883,0.00341797,-0.000382049,-0.0026137,-0.00133637,0.000243085,-0.00323883,-0.437547,0.00224464,0.0429004,657,1058,-63.6883,-0.00341796
-560,-34,-63.7059,0.050415,-0.00140494,-0.0017119,-0.000780419,-0.000763052,-0.00235379,-0.688304,0.00138668,0.0425591,664,1058,-63.7059,-0.050448
-553,-34,-63.5995,0.141602,-0.00267195,-0.000583878,-0.000159966,-0.000571694,-0.00268413,-1.49478,0.00163257,0.041752,671,1058,-63.5995,-0.141574
-546,-34,-63.6114,0.338745,-0.00400916,0.000448156,0.000412799,0.000486064,-0.00404707,1.47922,0.0028738,0.0429386,678,1058,-63.6114,-0.338775
-539,-34,-63.6666,0.375977,-0.00559378,0.000981699,0.000739715,0.00106389,-0.00567597,1.46014,0.00418394,0.0416349,685,1058,-63.6666,-0.375986
-532,-34,-63.7615,0.292847,-0.00725105,0.00152362,0.0010506,0.00164765,-0.00737508,1.45328,0.0055481,0.0417117,692,1058,-63.7615,-0.292788
-525,-34,0,0,0,0,0,0,0,0,0,-1,699,1058,0,0
-518,-34,0,0,0,0,0,0,0,0,0,-1,706,1058,0,0
-511,-34,0,0,0,0,0,0,0,0,0,-1,713,1058,0,0
-504,-34,0,0,0,0,0,0,0,0,0,-1,720,1058,0,0
-497,-34,0,0,0,0,0,0,0,0,0,-1,727,1058,0,0
-490,-34,0,0,0,0,0,0,0,0,0,-1,734,1058,0,0
-483,-34,0,0,0,0,0,0,0,0,0,-1,741,1058,0,0
-476,-34,0,0,0,0,0,0,0,0,0,-1,748,1058,0,0
-469,-34,0,0,0,0,0,0,0,0,0,-1,755,1058,0,0
-462,-34,0,0,0,0,0,0,0,0,0,-1,762,1058,0,0
-455,-34,0,0,0,0,0,0,0,0,0,-1,769,1058,0,0
-448,-34,0,0,0,0,0,0,0,0,0,-1,776,1058,0,0
-441,-34,0,0,0,0,0,0,0,0,0,-1,783,1058,0,0
-434,-34,0,0,0,0,0,0,0,0,0,-1,790,1058,0,0
-427,-34,0,0,0,0,0,0,0,0,0,-1,797,1058,0,0
-420,-34,0,0,0,0,0,0,0,0,0,-1,804,1058,0,0
-413,-34,0,0,0,0,0,0,0,0,0,-1,811,1058,0,0
-406,-34,0,0,0,0,0,0,0,0,0,-1,818,1058,0,0
-399,-34,0,0,0,0,0,0,0,0,0,-1,825,1058,0,0
-392,-34,0,0,0,0,0,0,0,0,0,-1,832,1058,0,0
-385,-34,0,0,0,0,0,0,0,0,0,-1,839,1058,0,0
-378,-34,0,0,0,0,0,0,0,0,0,-1,846,1058,0,0
-371,-34,0,0,0,0,0,0,0,0,0,-1,853,1058,0,0
-364,-34,0,0,0,0,0,0,0,0,0,-1,860,1058,0,0
-357,-34,0,0,0,0,0,0,0,0,0,-1,867,1058,0,0
-350,-34,0,0,0,0,0,0,0,0,0,-1,874,1058,0,0
-343,-34,0,0,0,0,0,0,0,0,0,-1,881,1058,0,0
-336,-34,0,0,0,0,0,0,0,0,0,-1,888,1058,0,0
-329,-34,0,0,0,0,0,0,0,0,0,-1,895,1058,0,0
-322,-34,0,0,0,0,0,0,0,0,0,-1,902,1058,0,0
-315,-34,0,0,0,0,0,0,0,0,0,-1,909,1058,0,0
-308,-34,0,0,0,0,0,0,0,0,0,-1,916,1058,0,0
-301,-34,0,0,0,0,0,0,0,0,0,-1,923,1058,0,0
-294,-34,0,0,0,0,0,0,0,0,0,-1,930,1058,0,0
-287,-34,0,0,0,0,0,0,0,0,0,-1,937,1058,0,0
-280,-34,0,0,0,0,0,0,0,0,0,-1,944,1058,0,0
-273,-34,0,0,0,0,0,0,0,0,0,-1,951,1058,0,0
-266,-34,0,0,0,0,0,0,0,0,0,-1,958,1058,0,0
-259,-34,0,0,0,0,0,0,0,0,0,-1,965,1058,0,0
-252,-34,0,0,0,0,0,0,0,0,0,-1,972,1058,0,0
-245,-34,0,0,0,0,0,0,0,0,0,-1,979,1058,0,0
-238,-34,0,0,0,0,0,0,0,0,0,-1,986,1058,0,0
-231,-34,0,0,0,0,0,0,0,0,0,-1,993,1058,0,0
-224,-34,0,0,0,0,0,0,0,0,0,-1,1000,1058,0,0
-217,-34,0,0,0,0,0,0,0,0,0,-1,1007,1058,0,0
-210,-34,0,0,0,0,0,0,0,0,0,-1,1014,1058,0,0
-203,-34,0,0,0,0,0,0,0,0,0,-1,1021,1058,0,0
-196,-34,0,0,0,0,0,0,0,0,0,-1,1028,1058,0,0
-189,-34,0,0,0,0,0,0,0,0,0,-1,1035,1058,0,0
-182,-34,0,0,0,0,0,0,0,0,0,-1,1042,1058,0,0
-175,-34,0,0,0,0,0,0,0,0,0,-1,1049,1058,0,0
-168,-34,0,0,0,0,0,0,0,0,0,-1,1056,1058,0,0
-161,-34,0,0,0,0,0,0,0,0,0,-1,1063,1058,0,0
-154,-34,0,0,0,0,0,0,0,0,0,-1,1070,1058,0,0
-147,-34,0,0,0,0,0,0,0,0,0,-1,1077,1058,0,0
-140,-34,0,0,0,0,0,0,0,0,0,-1,1084,1058,0,0
-133,-34,0,0,0,0,0,0,0,0,0,-1,1091,1058,0,0
-126,-34,0,0,0,0,0,0,0,0,0,-1,1098,1058,0,0
-119,-34,0,0,0,0,0,0,0,0,0,-1,1105,1058,0,0
-112,-34,0,0,0,0,0,0,0,0,0,-1,1112,1058,0,0
-105,-34,0,0,0,0,0,0,0,0,0,-1,1119,1058,0,0
-98,-34,0,0,0,0,0,0,0,0,0,-1,1126,1058,0,0
-91,-34,0,0,0,0,0,0,0,0,0,-1,1133,1058,0,0
-84,-34,0,0,0,0,0,0,0,0,0,-1,1140,1058,0,0
-77,-34,0,0,0,0,0,0,0,0,0,-1,1147,1058,0,0
-70,-34,0,0,0,0,0,0,0,0,0,-1,1154,1058,0,0
-63,-34,0,0,0,0,0,0,0,0,0,-1,1161,1058,0,0
-56,-34,0,0,0,0,0,0,0,0,0,-1,1168,1058,0,0
-49,-34,0,0,0,0,0,0,0,0,0,-1,1175,1058,0,0
-42,-34,0,0,0,0,0,0,0,0,0,-1,1182,1058,0,0
-35,-34,0,0,0,0,0,0,0,0,0,-1,1189,1058,0,0
-28,-34,0,0,0,0,0,0,0,0,0,-1,1196,1058,0,0
-21,-34,0,0,0,0,0,0,0,0,0,-1,1203,1058,0,0
-14,-34,0,0,0,0,0,0,0,0,0,-1,1210,1058,0,0
-7,-34,0,0,0,0,0,0,0,0,0,-1,1217,1058,0,0
0,-34,0,0,0,0,0,0,0,0,0,-1,1224,1058,0,0
7,-34,0,0,0,0,0,0,0,0,0,-1,1231,1058,0,0
14,-34,0,0,0,0,0,0,0,0,0,-1,1238,1058,0,0
21,-34,0,0,0,0,0,0,0,0,0,-1,1245,1058,0,0
28,-34,0,0,0,0,0,0,0,0,0,-1,1252,1058,0,0
35,-34,0,0,0,0,0,0,0,0,0,-1,1259,1058,0,0
42,-34,0,0,0,0,0,0,0,0,0,-1,1266,1058,0,0
49,-34,0,0,0,0,0,0,0,0,0,-1,1273,1058,0,0
56,-34,0,0,0,0,0,0,0,0,0,-1,1280,1058,0,0
63,-34,0,0,0,0,0,0,0,0,0,-1,1287,1058,0,0
70,-34,0,0,0,0,0,0,0,0,0,-1,1294,1058,0,0
77,-34,0,0,0,0,0,0,0,0,0,-1,1301,1058,0,0
84,-34,0,0,0,0,0,0,0,0,0,-1,1308,1058,0,0
91,-34,0,0,0,0,0,0,0,0,0,-1,1315,1058,0,0
98,-34,0,0,0,0,0,0,0,0,0,-1,1322,1058,0,0
105,-34,0,0,0,0,0,0,0,0,0,-1,1329,1058,0,0
112,-34,0,0,0,0,0,0,0,0,0,-1,1336,1058,0,0
119,-34,0,0,0,0,0,0,0,0,0,-1,1343,1058,0,0
126,-34,0,0,0,0,0,0,0,0,0,-1,1350,1058,0,0
133,-34,0,0,0,0,0,0,0,0,0,-1,1357,1058,0,0
140,-34,0,0,0,0,0,0,0,0,0,-1,1364,1058,0,0
147,-34,0,0,0,0,0,0,0,0,0,-1,1371,1058,0,0
154,-34,0,0,0,0,0,0,0,0,0,-1,1378,1058,0,0
161,-34,0,0,0,0,0,0,0,0,0,-1,1385,1058,0,0
168,-34,0,0,0,0,0,0,0,0,0,-1,1392,1058,0,0
175,-34,0,0,0,0,0,0,0,0,0,-1,1399,1058,0,0
182,-34,0,0,0,0,0,0,0,0,0,-1,1406,1058,0,0
189,-34,0,0,0,0,0,0,0,0,0,-1,1413,1058,0,0
196,-34,0,0,0,0,0,0,0,0,0,-1,1420,1058,0,0
203,-34,0,0,0,0,0,0,0,0,0,-1,1427,1058,0,0
210,-34,0,0,0,0,0,0,0,0,0,-1,1434,1058,0,0
217,-34,0,0,0,0,0,0,0,0,0,-1,1441,1058,0,0
224,-34,0,0,0,0,0,0,0,0,0,-1,1448,1058,0,0
231,-34,0,0,0,0,0,0,0,0,0,-1,1455,1058,0,0
238,-34,0,0,0,0,0,0,0,0,0,-1,1462,1058,0,0
245,-34,0,0,0,0,0,0,0,0,0,-1,1469,1058,0,0
252,-34,0,0,0,0,0,0,0,0,0,-1,1476,1058,0,0
259,-34,0,0,0,0,0,0,0,0,0,-1,1483,1058,0,0
266,-34,0,0,0,0,0,0,0,0,0,-1,1490,1058,0,0
273,-34,0,0,0,0,0,0,0,0,0,-1,1497,1058,0,0
280,-34,0,0,0,0,0,0,0,0,0,-1,1504,1058,0,0
287,-34,0,0,0,0,0,0,0,0,0,-1,1511,1058,0,0
294,-34,0,0,0,0,0,0,0,0,0,-1,1518,1058,0,0
301,-34,0,0,0,0,0,0,0,0,0,-1,1525,1058,0,0
308,-34,0,0,0,0,0,0,0,0,0,-1,1532,1058,0,0
315,-34,0,0,0,0,0,0,0,0,0,-1,1539,1058,0,0
322,-34,0,0,0,0,0,0,0,0,0,-1,1546,1058,0,0
329,-34,0,0,0,0,0,0,0,0,0,-1,1553,1058,0,0
336,-34,0,0,0,0,0,0,0,0,0,-1,1560,1058,0,0
343,-34,0,0,0,0,0,0,0,0,0,-1,1567,1058,0,0
350,-34,0,0,0,0,0,0,0,0,0,-1,1574,1058,0,0
357,-34,0,0,0,0,0,0,0,0,0,-1,1581,1058,0,0
364,-34,0,0,0,0,0,0,0,0,0,-1,1588,1058,0,0
371,-34,0,0,0,0,0,0,0,0,0,-1,1595,1058,0,0
378,-34,0,0,0,0,0,0,0,0,0,-1,1602,1058,0,0
385,-34,0,0,0,0,0,0,0,0,0,-1,1609,1058,0,0
392,-34,0,0,0,0,0,0,0,0,0,-1,1616,1058,0,0
399,-34,0,0,0,0,0,0,0,0,0,-1,1623,1058,0,0
406,-34,0,0,0,0,0,0,0,0,0,-1,1630,1058,0,0
413,-34,0,0,0,0,0,0,0,0,0,-1,1637,1058,0,0
420,-34,0,0,0,0,0,0,0,0,0,-1,1644,1058,0,0
427,-34,0,0,0,0,0,0,0,0,0,-1,1651,1058,0,0
434,-34,0,0,0,0,0,0,0,0,0,-1,1658,1058,0,0
441,-34,0,0,0,0,0,0,0,0,0,-1,1665,1058,0,0
448,-34,0,0,0,0,0,0,0,0,0,-1,1672,1058,0,0
455,-34,0,0,0,0,0,0,0,0,0,-1,1679,1058,0,0
462,-34,0,0,0,0,0,0,0,0,0,-1,1686,1058,0,0
469,-34,0,0,0,0,0,0,0,0,0,-1,1693,1058,0,0
476,-34,0,0,0,0,0,0,0,0,0,-1,1700,1058,0,0
483,-34,0,0,0,0,0,0,0,0,0,-1,1707,1058,0,0
490,-34,0,0,0,0,0,0,0,0,0,-1,1714,1058,0,0
497,-34,0,0,0,0,0,0,0,0,0,-1,1721,1058,0,0
504,-34,0,0,0,0,0,0,0,0,0,-1,1728,1058,0,0
511,-34,0,0,0,0,0,0,0,0,0,-1,1735,1058,0,0
518,-34,0,0,0,0,0,0,0,0,0,-1,1742,1058,0,0
525,-34,0,0,0,0,0,0,0,0,0,-1,1749,1058,0,0
532,-34,0,0,0,0,0,0,0,0,0,-1,1756,1058,0,0
539,-34,0,0,0,0,0,0,0,0,0,-1,1763,1058,0,0
546,-34,0,0,0,0,0,0,0,0,0,-1,1770,1058,0,0
553,-34,0,0,0,0,0,0,0,0,0,-1,1777,1058,0,0
560,-34,0,0,0,0,0,0,0,0,0,-1,1784,1058,0,0
567,-34,0,0,0,0,0,0,0,0,0,-1,1791,1058,0,0
574,-34,0,0,0,0,0,0,0,0,0,-1,1798,1058,0,0
581,-34,0,0,0,0,0,0,0,0,0,-1,1805,1058,0,0
588,-34,0,0,0,0,0,0,0,0,0,-1,1812,1058,0,0
595,-34,0,0,0,0,0,0,0,0,0,-1,1819,1058,0,0
602,-34,0,0,0,0,0,0,0,0,0,-1,1826,1058,0,0
609,-34,0,0,0,0,0,0,0,0,0,-1,1833,1058,0,0
616,-34,0,0,0,0,0,0,0,0,0,-1,1840,1058,0,0
623,-34,0,0,0,0,0,0,0,0,0,-1,1847,1058,0,0
630,-34,0,0,0,0,0,0,0,0,0,-1,1854,1058,0,0
637,-34,0,0,0,0,0,0,0,0,0,-1,1861,1058,0,0
644,-34,0,0,0,0,0,0,0,0,0,-1,1868,1058,0,0
651,-34,80.7236,2.04028,0.00419424,0.00172393,0.00123597,0.00470643,0.00121174,0.392865,0.00282181,0.0390019,1875,1058,80.7236,-2.04031
658,-34,80.6952,2.09741,0.00285552,0.00166259,0.000745309,0.00321365,0.00130445,0.447938,0.00186632,0.0410061,1882,1058,80.6952,-2.09743
665,-34,80.6528,2.11902,0.0018725,0.00154954,0.000494944,0.00223164,0.0011904,0.627713,0.0012894,0.0396829,1889,1058,80.6528,-2.11908
672,-34,80.6223,2.14221,0.00119275,0.00145698,0.000438001,0.00178236,0.000867374,0.93187,0.00102917,0.0384644,1896,1058,80.6223,-2.14226
679,-34,80.6021,2.15051,0.000671024,0.0013743,0.000469204,0.00160901,0.000436316,1.10697,0.000960844,0.0399121,1903,1058,80.602,-2.15056
686,-34,80.7454,2.22961,-0.000124579,0.000969483,0.000633518,0.00125946,-0.000414559,1.14153,0.00100669,0.0447434,1910,1058,80.7453,-2.22965
693,-34,80.8575,2.19861,-0.000804839,0.000477542,0.000888973,0.000932435,-0.00125973,1.09783,0.00127034,0.0442319,1917,1058,80.8575,-2.19866
700,-34,80.7155,2.12292,-0.00130403,0.000113743,0.00120037,0.000798921,-0.00198921,1.05212,0.0016579,0.0396948,1924,1058,80.7154,-2.12288
707,-34,80.6085,2.12683,-0.00229878,0.000164865,0.00149488,0.000870064,-0.00300397,1.13001,0.00234706,0.0265789,1931,1058,80.6086,-2.12682
714,-34,80.6233,2.26367,-0.00348748,0.00065391,0.00176187,0.00130203,-0.0041356,1.2183,0.00327843,0.0264213,1938,1058,80.6233,-2.2637
721,-34,80.6079,2.44873,0,0,0,0,0,0,0,-1,1945,1058,80.6079,-2.44873
728,-34,80.3032,8.30762,0,0,0,0,0,0,0,-1,1952,1058,80.3033,-8.30758
735,-34,80.1512,8.06409,-0.00737694,0.00448918,0.00232176,0.00492728,-0.00781504,1.38429,0.00741949,0.0236692,1959,1058,80.1513,-8.0641
742,-34,80.0596,7.72766,-0.00844755,0.00593652,0.00252445,0.00636671,-0.00887774,1.40201,0.00884109,0.0218063,1966,1058,80.0596,-7.72769
749,-34,80.0408,7.43323,-0.00963741,0.00769486,0.00258074,0.00807097,-0.0100135,1.42608,0.0104611,0.0183056,1973,1058,80.0407,-7.43326
756,-34,80.0134,7.12463,-0.0103949,0.0105831,0.0021629,0.0108038,-0.0106155,1.46912,0.0123666,0.0131549,1980,1058,80.0135,-7.12466
763,-34,79.9082,6.83679,-0.0104297,0.0139061,0.0012701,0.0139722,-0.0104958,1.51879,0.0141741,0.0138828,1987,1058,79.9081,-6.83685
770,-34,79.7366,6.53992,-0.00965195,0.0180574,-6.74626e-05,0.0180575,-0.00965211,-1.56836,0.0162417,0.0201168,1994,1058,79.7367,-6.53993
777,-34,79.5188,6.34949,-0.00716574,0.0228271,-0.00224386,0.022994,-0.00733268,-1.49653,0.0182708,0.0227909,2001,1058,79.5188,-6.34947
784,-34,79.5264,6.12073,-0.00372597,0.0273897,-0.00516305,0.028224,-0.00456031,-1.41058,0.0205059,0.0394823,2008,1058,79.5263,-6.12078
791,-34,79.7136,5.83069,0,0,0,0,0,0,0,-1,2015,1058,79.7137,-5.83072
798,-34,80.6975,4.43958,0,0,0,0,0,0,0,-1,2022,1058,80.6975,-4.43958
805,-34,80.834,4.39612,0.0159563,0.0396757,-0.0217034,0.0525484,0.0030836,-1.03545,0.034051,0.0457551,2029,1058,80.8339,-4.39609
812,-34,80.9351,4.15649,0.0261225,0.0435184,-0.0305038,0.0665401,0.00310079,-0.924284,0.0433634,0.0466052,2036,1058,80.935,-4.15652
-700,-41,-61.4018,-0.00256348,0,0,0,0,0,0,0,-1,524,1065,-61.4018,0.00253481
-693,-41,-61.7104,0.277954,0,0,0,0,0,0,0,-1,531,1065,-61.7104,-0.277968
-686,-41,-62.3033,1.87268,0,0,0,0,0,0,0,-1,538,1065,-62.3032,-1.87267
-679,-41,-62.9359,2.3623,0,0,0,0,0,0,0,-1,545,1065,-62.9358,-2.36228
-672,-41,-64.5572,0.436279,0,0,0,0,0,0,0,-1,552,1065,-64.5572,-0.436301
-665,-41,-63.3991,2.70068,0,0,0,0,0,0,0,-1,559,1065,-63.3991,-2.70067
-658,-41,-63.2482,3.76514,0,0,0,0,0,0,0,-1,566,1065,-63.2482,-3.76514
-651,-41,-63.1355,4.89429,-0.0319314,0.0715557,0.0315099,0.0803949,-0.0407706,1.2973,0.0711909,0.0337185,573,1065,-63.1355,-4.89431
-644,-41,-63.3324,5.42261,-0.0239529,0.0557016,0.0210782,0.0609354,-0.0291867,1.32741,0.0530974,0.0175678,580,1065,-63.3324,-5.4226
-637,-41,-63.4031,5.78259,-0.0157276,0.0400215,0.0115006,0.0423008,-0.0180069,1.37514,0.0357479,0.0190692,587,1065,-63.4032,-5.7826
-630,-41,-63.4423,6.19458,-0.00906918,0.0265596,0.0048605,0.0272108,-0.00972035,1.43762,0.0221049,0.0173922,594,1065,-63.4423,-6.19464
-623,-41,-63.4503,6.60034,-0.0048327,0.0158176,0.00110155,0.0158762,-0.00489129,1.51765,0.0125367,0.0140245,601,1065,-63.4503,-6.60028
-616,-41,-63.438,7.04114,-0.00174683,0.00683066,-0.00151331,0.00708982,-0.00200599,-1.40119,0.00551812,0.0180595,608,1065,-63.438,-7.04115
-609,-41,-63.3744,7.42578,-5.40472e-05,0.00210269,-0.00259355,0.00383312,-0.00178448,-0.98242,0.00331443,0.0243725,615,1065,-63.3744,-7.42572
-602,-41,-63.4026,7.71802,0.000656563,6.54163e-05,-0.00266256,0.00303991,-0.00231793,-0.730119,0.0031027,0.0160226,622,1065,-63.4026,-7.71797
-595,-41,-63.5518,7.9635,0.000846091,-0.00169691,-0.00263562,0.00250089,-0.00335171,-0.560652,0.00339088,0.0257754,629,1065,-63.5517,-7.96349
-588,-41,-63.9948,8.07532,0,0,0,0,0,0,0,-1,636,1065,-63.9948,-8.07536
-581,-41,-63.6931,0.296875,0.000868744,-0.00318335,-0.00219836,0.00183229,-0.00414689,-0.413083,0.00353725,0.0334347,643,1065,-63.693,-0.296881
-574,-41,-63.8196,0.441284,0.000629019,-0.00335679,-0.00190281,0.00139153,-0.00411931,-0.381137,0.00330906,0.0349948,650,1065,-63.8196,-0.441298
-567,-41,-63.7134,0.515747,-3.02231e-05,-0.00299346,-0.0014772,0.00058036,-0.00360404,-0.391952,0.00261768,0.0418373,657,1065,-63.7134,-0.515728
-560,-41,-63.5764,0.298828,-0.00108277,-0.00208804,-0.000892115,-0.000561439,-0.00260938,-0.528854,0.00158592,0.0407112,664,1065,-63.5764,-0.298807
-553,-41,-63.5999,0.340576,-0.00239694,-0.000884819,-0.000222684,-0.000852707,-0.00242906,-1.42758,0.00142301,0.0432642,671,1065,-63.5999,-0.340611
-546,-41,-63.6679,0.449097,-0.00381799,0.000327954,0.000418767,0.000369829,-0.00385987,1.47113,0.00270496,0.0425088,678,1065,-63.6679,-0.449064
-539,-41,-63.7762,0.399414,-0.00551801,0.00112171,0.000822256,0.00122202,-0.00561832,1.4494,0.00421239,0.0396885,685,1065,-63.7763,-0.399358
-532,-41,-63.8381,0.398926,-0.00729784,0.00195785,0.00120322,0.00211171,-0.00745169,1.44361,0.00580126,0.0389494,692,1065,-63.8381,-0.398889
-525,-41,0,0,0,0,0,0,0,0,0,-1,699,1065,0,0
-518,-41,0,0,0,0,0,0,0,0,0,-1,706,1065,0,0
-511,-41,0,0,0,0,0,0,0,0,0,-1,713,1065,0,0
-504,-41,0,0,0,0,0,0,0,0,0,-1,720,1065,0,0
-497,-41,0,0,0,0,0,0,0,0,0,-1,727,1065,0,0
-490,-41,0,0,0,0,0,0,0,0,0,-1,734,1065,0,0
-483,-41,0,0,0,0,0,0,0,0,0,-1,741,1065,0,0
-476,-41,0,0,0,0,0,0,0,0,0,-1,748,1065,0,0
-469,-41,0,0,0,0,0,0,0,0,0,-1,755,1065,0,0
-462,-41,0,0,0,0,0,0,0,0,0,-1,762,1065,0,0
-455,-41,0,0,0,0,0,0,0,0,0,-1,769,1065,0,0
-448,-41,0,0,0,0,0,0,0,0,0,-1,776,1065,0,0
-441,-41,0,0,0,0,0,0,0,0,0,-1,783,1065,0,0
-434,-41,0,0,0,0,0,0,0,0,0,-1,790,1065,0,0
-427,-41,0,0,0,0,0,0,0,0,0,-1,797,1065,0,0
-420,-41,0,0,0,0,0,0,0,0,0,-1,804,1065,0,0
-413,-41,0,0,0,0,0,0,0,0,0,-1,811,1065,0,0
-406,-41,0,0,0,0,0,0,0,0,0,-1,818,1065,0,0
-399,-41,0,0,0,0,0,0,0,0,0,-1,825,1065,0,0
-392,-41,0,0,0,0,0,0,0,0,0,-1,832,1065,0,0
-385,-41,0,0,0,0,0,0,0,0,0,-1,839,1065,0,0
-378,-41,0,0,0,0,0,0,0,0,0,-1,846,1065,0,0
-371,-41,0,0,0,0,0,0,0,0,0,-1,853,1065,0,0
-364,-41,0,0,0,0,0,0,0,0,0,-1,860,1065,0,0
-357,-41,0,0,0,0,0,0,0,0,0,-1,867,1065,0,0
-350,-41,0,0,0,0,0,0,0,0,0,-1,874,1065,0,0
-343,-41,0,0,0,0,0,0,0,0,0,-1,881,1065,0,0
-336,-41,0,0,0,0,0,0,0,0,0,-1,888,1065,0,0
-329,-41,0,0,0,0,0,0,0,0,0,-1,895,1065,0,0
-322,-41,0,0,0,0,0,0,0,0,0,-1,902,1065,0,0
-315,-41,0,0,0,0,0,0,0,0,0,-1,909,1065,0,0
-308,-41,0,0,0,0,0,0,0,0,0,-1,916,1065,0,0
-301,-41,0,0,0,0,0,0,0,0,0,-1,923,1065,0,0
-294,-41,0,0,0,0,0,0,0,0,0,-1,930,1065,0,0
-287,-41,0,0,0,0,0,0,0,0,0,-1,937,1065,0,0
-280,-41,0,0,0,0,0,0,0,0,0,-1,944,1065,0,0
-273,-41,0,0,0,0,0,0,0,0,0,-1,951,1065,0,0
-266,-41,0,0,0,0,0,0,0,0,0,-1,958,1065,0,0
-259,-41,0,0,0,0,0,0,0,0,0,-1,965,1065,0,0
-252,-41,0,0,0,0,0,0,0,0,0,-1,972,1065,0,0
-245,-41,0,0,0,0,0,0,0,0,0,-1,979,1065,0,0
-238,-41,0,0,0,0,0,0,0,0,0,-1,986,1065,0,0
-231,-41,0,0,0,0,0,0,0,0,0,-1,993,1065,0,0
-224,-41,0,0,0,0,0,0,0,0,0,-1,1000,1065,0,0
-217,-41,0,0,0,0,0,0,0,0,0,-1,1007,1065,0,0
-210,-41,0,0,0,0,0,0,0,0,0,-1,1014,1065,0,0
-203,-41,0,0,0,0,0,0,0,0,0,-1,1021,1065,0,0
-196,-41,0,0,0,0,0,0,0,0,0,-1,1028,1065,0,0
-189,-41,0,0,0,0,0,0,0,0,0,-1,1035,1065,0,0
-182,-41,0,0,0,0,0,0,0,0,0,-1,1042,1065,0,0
-175,-41,0,0,0,0,0,0,0,0,0,-1,1049,1065,0,0
-168,-41,0,0,0,0,0,0,0,0,0,-1,1056,1065,0,0
-161,-41,0,0,0,0,0,0,0,0,0,-1,1063,1065,0,0
-154,-41,0,0,0,0,0,0,0,0,0,-1,1070,1065,0,0
-147,-41,0,0,0,0,0,0,0,0,0,-1,1077,1065,0,0
-140,-41,0,0,0,0,0,0,0,0,0,-1,1084,1065,0,0
-133,-41,0,0,0,0,0,0,0,0,0,-1,1091,1065,0,0
-126,-41,0,0,0,0,0,0,0,0,0,-1,1098,1065,0,0
-119,-41,0,0,0,0,0,0,0,0,0,-1,1105,1065,0,0
-112,-41,0,0,0,0,0,0,0,0,0,-1,1112,1065,0,0
-105,-41,0,0,0,0,0,0,0,0,0,-1,1119,1065,0,0
-98,-41,0,0,0,0,0,0,0,0,0,-1,1126,1065,0,0
-91,-41,0,0,0,0,0,0,0,0,0,-1,1133,1065,0,0
-84,-41,0,0,0,0,0,0,0,0,0,-1,1140,1065,0,0
-77,-41,0,0,0,0,0,0,0,0,0,-1,1147,1065,0,0
-70,-41,0,0,0,0,0,0,0,0,0,-1,1154,1065,0,0
-63,-41,0,0,0,0,0,0,0,0,0,-1,1161,1065,0,0
-56,-41,0,0,0,0,0,0,0,0,0,-1,1168,1065,0,0
-49,-41,0,0,0,0,0,0,0,0,0,-1,1175,1065,0,0
-42,-41,0,0,0,0,0,0,0,0,0,-1,1182,1065,0,0
-35,-41,0,0,0,0,0,0,0,0,0,-1,1189,1065,0,0
-28,-41,0,0,0,0,0,0,0,0,0,-1,1196,1065,0,0
-21,-41,0,0,0,0,0,0,0,0,0,-1,1203,1065,0,0
-14,-41,0,0,0,0,0,0,0,0,0,-1,1210,1065,0,0
-7,-41,0,0,0,0,0,0,0,0,0,-1,1217,1065,0,0
0,-41,0,0,0,0,0,0,0,0,0,-1,1224,1065,0,0
7,-41,0,0,0,0,0,0,0,0,0,-1,1231,1065,0,0
14,-41,0,0,0,0,0,0,0,0,0,-1,1238,1065,0,0
21,-41,0,0,0,0,0,0,0,0,0,-1,1245,1065,0,0
28,-41,0,0,0,0,0,0,0,0,0,-1,1252,1065,0,0
35,-41,0,0,0,0,0,0,0,0,0,-1,1259,1065,0,0
42,-41,0,0,0,0,0,0,0,0,0,-1,1266,1065,0,0
49,-41,0,0,0,0,0,0,0,0,0,-1,1273,1065,0,0
56,-41,0,0,0,0,0,0,0,0,0,-1,1280,1065,0,0
63,-41,0,0,0,0,0,0,0,0,0,-1,1287,1065,0,0
70,-41,0,0,0,0,0,0,0,0,0,-1,1294,1065,0,0
77,-41,0,0,0,0,0,0,0,0,0,-1,1301,1065,0,0
84,-41,0,0,0,0,0,0,0,0,0,-1,1308,1065,0,0
91,-41,0,0,0,0,0,0,0,0,0,-1,1315,1065,0,0
98,-41,0,0,0,0,0,0,0,0,0,-1,1322,1065,0,0
105,-41,0,0,0,0,0,0,0,0,0,-1,1329,1065,0,0
112,-41,0,0,0,0,0,0,0,0,0,-1,1336,1065,0,0
119,-41,0,0,0,0,0,0,0,0,0,-1,1343,1065,0,0
126,-41,0,0,0,0,0,0,0,0,0,-1,1350,1065,0,0
133,-41,0,0,0,0,0,0,0,0,0,-1,1357,1065,0,0
140,-41,0,0,0,0,0,0,0,0,0,-1,1364,1065,0,0
147,-41,0,0,0,0,0,0,0,0,0,-1,1371,1065,0,0
154,-41,0,0,0,0,0,0,0,0,0,-1,1378,1065,0,0
161,-41,0,0,0,0,0,0,0,0,0,-1,1385,1065,0,0
168,-41,0,0,0,0,0,0,0,0,0,-1,1392,1065,0,0
175,-41,0,0,0,0,0,0,0,0,0,-1,1399,1065,0,0
182,-41,0,0,0,0,0,0,0,0,0,-1,1406,1065,0,0
189,-41,0,0,0,0,0,0,0,0,0,-1,1413,1065,0,0
196,-41,0,0,0,0,0,0,0,0,0,-1,1420,1065,0,0
203,-41,0,0,0,0,0,0,0,0,0,-1,1427,1065,0,0
210,-41,0,0,0,0,0,0,0,0,0,-1,1434,1065,0,0
217,-41,0,0,0,0,0,0,0,0,0,-1,1441,1065,0,0
224,-41,0,0,0,0,0,0,0,0,0,-1,1448,1065,0,0
231,-41,0,0,0,0,0,0,0,0,0,-1,1455,1065,0,0
238,-41,0,0,0,0,0,0,0,0,0,-1,1462,1065,0,0
245,-41,0,0,0,0,0,0,0,0,0,-1,1469,1065,0,0
252,-41,0,0,0,0,0,0,0,0,0,-1,1476,1065,0,0
259,-41,0,0,0,0,0,0,0,0,0,-1,1483,1065,0,0
266,-41,0,0,0,0,0,0,0,0,0,-1,1490,1065,0,0
273,-41,0,0,0,0,0,0,0,0,0,-1,1497,1065,0,0
280,-41,0,0,0,0,0,0,0,0,0,-1,1504,1065,0,0
287,-41,0,0,0,0,0,0,0,0,0,-1,1511,1065,0,0
294,-41,0,0,0,0,0,0,0,0,0,-1,1518,1065,0,0
301,-41,0,0,0,0,0,0,0,0,0,-1,1525,1065,0,0
308,-41,0,0,0,0,0,0,0,0,0,-1,1532,1065,0,0
315,-41,0,0,0,0,0,0,0,0,0,-1,1539,1065,0,0
322,-41,0,0,0,0,0,0,0,0,0,-1,1546,1065,0,0
329,-41,0,0,0,0,0,0,0,0,0,-1,1553,1065,0,0
336,-41,0,0,0,0,0,0,0,0,0,-1,1560,1065,0,0
343,-41,0,0,0,0,0,0,0,0,0,-1,1567,1065,0,0
350,-41,0,0,0,0,0,0,0,0,0,-1,1574,1065,0,0
357,-41,0,0,0,0,0,0,0,0,0,-1,1581,1065,0,0
364,-41,0,0,0,0,0,0,0,0,0,-1,1588,1065,0,0
371,-41,0,0,0,0,0,0,0,0,0,-1,1595,1065,0,0
378,-41,0,0,0,0,0,0,0,0,0,-1,1602,1065,0,0
385,-41,0,0,0,0,0,0,0,0,0,-1,1609,1065,0,0
392,-41,0,0,0,0,0,0,0,0,0,-1,1616,1065,0,0
399,-41,0,0,0,0,0,0,0,0,0,-1,1623,1065,0,0
406,-41,0,0,0,0,0,0,0,0,0,-1,1630,1065,0,0
413,-41,0,0,0,0,0,0,0,0,0,-1,1637,1065,0,0
420,-41,0,0,0,0,0,0,0,0,0,-1,1644,1065,0,0
427,-41,0,0,0,0,0,0,0,0,0,-1,1651,1065,0,0
434,-41,0,0,0,0,0,0,0,0,0,-1,1658,1065,0,0
441,-41,0,0,0,0,0,0,0,0,0,-1,1665,1065,0,0
448,-41,0,0,0,0,0,0,0,0,0,-1,1672,1065,0,0
455,-41,0,0,0,0,0,0,0,0,0,-1,1679,1065,0,0
462,-41,0,0,0,0,0,0,0,0,0,-1,1686,1065,0,0
469,-41,0,0,0,0,0,0,0,0,0,-1,1693,1065,0,0
476,-41,0,0,0,0,0,0,0,0,0,-1,1700,1065,0,0
483,-41,0,0,0,0,0,0,0,0,0,-1,1707,1065,0,0
490,-41,0,0,0,0,0,0,0,0,0,-1,1714,1065,0,0
497,-41,0,0,0,0,0,0,0,0,0,-1,1721,1065,0,0
504,-41,0,0,0,0,0,0,0,0,0,-1,1728,1065,0,0
511,-41,0,0,0,0,0,0,0,0,0,-1,1735,1065,0,0
518,-41,0,0,0,0,0,0,0,0,0,-1,1742,1065,0,0
525,-41,0,0,0,0,0,0,0,0,0,-1,1749,1065,0,0
532,-41,0,0,0,0,0,0,0,0,0,-1,1756,1065,0,0
539,-41,0,0,0,0,0,0,0,0,0,-1,1763,1065,0,0
546,-41,0,0,0,0,0,0,0,0,0,-1,1770,1065,0,0
553,-41,0,0,0,0,0,0,0,0,0,-1,1777,1065,0,0
560,-41,0,0,0,0,0,0,0,0,0,-1,1784,1065,0,0
567,-41,0,0,0,0,0,0,0,0,0,-1,1791,1065,0,0
574,-41,0,0,0,0,0,0,0,0,0,-1,1798,1065,0,0
581,-41,0,0,0,0,0,0,0,0,0,-1,1805,1065,0,0
588,-41,0,0,0,0,0,0,0,0,0,-1,1812,1065,0,0
595,-41,0,0,0,0,0,0,0,0,0,-1,1819,1065,0,0
602,-41,0,0,0,0,0,0,0,0,0,-1,1826,1065,0,0
609,-41,0,0,0,0,0,0,0,0,0,-1,1833,1065,0,0
616,-41,0,0,0,0,0,0,0,0,0,-1,1840,1065,0,0
623,-41,0,0,0,0,0,0,0,0,0,-1,1847,1065,0,0
630,-41,0,0,0,0,0,0,0,0,0,-1,1854,1065,0,0
637,-41,0,0,0,0,0,0,0,0,0,-1,1861,1065,0,0
644,-41,0,0,0,0,0,0,0,0,0,-1,1868,1065,0,0
651,-41,80.6324,2.12256,0.00520943,0.0012748,0.00086033,0.00538932,0.0010949,0.206126,0.00328923,0.0358904,1875,1065,80.6324,-2.12253
658,-41,80.6906,1.96521,0.00378917,0.00106459,0.000515062,0.00388329,0.00097047,0.180736,0.00233363,0.039939,1882,1065,80.6905,-1.96519
665,-41,80.7761,1.96558,0.00267331,0.000898204,0.000349812,0.00273976,0.000831756,0.187718,0.00162197,0.0403754,1889,1065,80.7761,-1.96558
672,-41,80.7107,2.1073,0.00184319,0.000793872,0.000324552,0.00193546,0.000701602,0.276991,0.00113143,0.0411919,1896,1065,80.7107,-2.10729
679,-41,80.6814,2.06091,0.0011595,0.000726849,0.000361635,0.00136457,0.000521776,0.515856,0.00079507,0.0418087,1903,1065,80.6814,-2.06087
686,-41,80.618,2.14722,0.000259986,0.000384059,0.00049372,0.000819625,-0.000175579,0.847896,0.000613377,0.0434711,1910,1065,80.6181,-2.14724
693,-41,80.5898,2.14221,-0.000462323,-2.07156e-05,0.000743021,0.000533615,-0.00101665,0.929828,0.000909416,0.0451695,1917,1065,80.5898,-2.14216
700,-41,80.6443,2.12097,-0.00096509,-0.000274683,0.00105036,0.000485748,-0.00172552,0.944164,0.0013419,0.0419573,1924,1065,80.6442,-2.12093
707,-41,80.615,2.15112,-0.00193884,-0.000189259,0.0013769,0.000567239,-0.00269534,1.0684,0.0020128,0.0319886,1931,1065,80.615,-2.15108
714,-41,80.6208,2.19446,-0.00307222,0.000288118,0.00168194,0.000985317,-0.00376942,1.17783,0.00289777,0.030898,1938,1065,80.6209,-2.1944
721,-41,80.6556,2.34058,0,0,0,0,0,0,0,-1,1945,1065,80.6556,-2.34053
728,-41,79.8938,8.37952,0,0,0,0,0,0,0,-1,1952,1065,79.8937,-8.37957
735,-41,79.7694,8.0271,-0.00663028,0.00395641,0.00244808,0.0044951,-0.00716896,1.3542,0.00679298,0.0245957,1959,1065,79.7695,-8.02704
742,-41,79.6923,7.65771,-0.00749294,0.0053501,0.00277467,0.00592392,-0.00806675,1.36687,0.00810904,0.0220797,1966,1065,79.6923,-7.65767
749,-41,79.6377,7.39893,-0.00857322,0.0070561,0.00305248,0.00763111,-0.00914823,1.3846,0.00970074,0.0187296,1973,1065,79.6377,-7.39898
756,-41,79.6321,7.11194,-0.00928876,0.00982278,0.00284249,0.0102366,-0.00970257,1.42623,0.0115133,0.0158728,1980,1065,79.6322,-7.11189
763,-41,79.4993,6.74854,-0.00933741,0.0129743,0.00228075,0.013205,-0.00956817,1.46996,0.0132039,0.0135218,1987,1065,79.4992,-6.74848
770,-41,79.3301,6.41492,-0.00870378,0.0169564,0.00138871,0.0170314,-0.00877872,1.51689,0.0151532,0.0152334,1994,1065,79.3302,-6.41494
777,-41,79.1064,6.08948,-0.00661986,0.0215311,-0.000136728,0.0215317,-0.00662053,-1.56594,0.0169967,0.0185547,2001,1065,79.1065,-6.08943
784,-41,79.0686,5.69336,-0.00374015,0.0259241,-0.00225715,0.0260948,-0.00391092,-1.49529,0.018836,0.0297642,2008,1065,79.0685,-5.69332
791,-41,79.0039,5.18701,0,0,0,0,0,0,0,-1,2015,1065,79.004,-5.18699
798,-41,78.8066,4.67627,0,0,0,0,0,0,0,-1,2022,1065,78.8066,-4.67632
805,-41,80.2576,3.61975,0,0,0,0,0,0,0,-1,2029,1065,80.2575,-3.61975
812,-41,78.0742,5.37524,0,0,0,0,0,0,0,-1,2036,1065,78.0743,-5.37519
-700,-48,-62.2444,-1.57324,0,0,0,0,0,0,0,-1,524,1072,-62.2444,1.5733
-693,-48,-66.6678,6.07422,0,0,0,0,0,0,0,-1,531,1072,-66.6678,-6.07425
-686,-48,-69.6655,-4.78552,0,0,0,0,0,0,0,-1,538,1072,-69.6655,4.78552
-679,-48,-65.3322,7.38513,0,0,0,0,0,0,0,-1,545,1072,-65.3322,-7.38517
-672,-48,-65.1371,7.42358,0,0,0,0,0,0,0,-1,552,1072,-65.1371,-7.4236
-665,-48,-62.4854,1.82947,0,0,0,0,0,0,0,-1,559,1072,-62.4854,-1.82952
-658,-48,-62.5349,3.14209,0,0,0,0,0,0,0,-1,566,1072,-62.5349,-3.14205
-651,-48,-62.6581,4.32654,-0.029613,0.0672046,0.0316012,0.0766062,-0.0390146,1.28163,0.0679196,0.0447792,573,1072,-62.6581,-4.32655
-644,-48,-62.779,5.38757,-0.0222208,0.0518426,0.0210989,0.0574314,-0.0278096,1.31186,0.0501947,0.0253436,580,1072,-62.779,-5.38762
-637,-48,-62.8604,5.64404,-0.0148472,0.0370903,0.0115558,0.0395453,-0.0173023,1.36146,0.033648,0.0262789,587,1072,-62.8604,-5.64404
-630,-48,-62.9384,6.09985,-0.00861309,0.0239553,0.00479978,0.0246479,-0.00930573,1.42748,0.0202593,0.0321427,594,1072,-62.9384,-6.09985
-623,-48,-63.0655,6.53088,-0.004591,0.0137583,0.000949326,0.0138073,-0.00463998,1.51924,0.0110802,0.015404,601,1072,-63.0655,-6.53086
-616,-48,-63.0345,6.95447,-0.00165813,0.00573569,-0.00159149,0.0060637,-0.00198614,-1.36754,0.00484224,0.0126986,608,1072,-63.0346,-6.95444
-609,-48,-62.965,7.41541,4.82758e-05,0.00147992,-0.00267055,0.00352892,-0.00200072,-0.916342,0.00323292,0.0143041,615,1072,-62.965,-7.41547
-602,-48,-62.9575,7.80273,0.000798529,-0.000283465,-0.00273361,0.00304416,-0.0025291,-0.687708,0.0032223,0.0149826,622,1072,-62.9574,-7.80271
-595,-48,-62.9965,8.14417,0.00101956,-0.00191616,-0.00270922,0.00263301,-0.00352961,-0.537134,0.00357052,0.0349595,629,1072,-62.9965,-8.14412
-588,-48,-63.2168,8.46179,0,0,0,0,0,0,0,-1,636,1072,-63.2168,-8.46182
-581,-48,-63.6354,0.130737,0,0,0,0,0,0,0,-1,643,1072,-63.6354,-0.130714
-574,-48,-63.7771,0.361816,0,0,0,0,0,0,0,-1,650,1072,-63.7771,-0.361825
-567,-48,-63.5868,0.843872,0,0,0,0,0,0,0,-1,657,1072,-63.5868,-0.843847
-560,-48,-63.504,0.379395,-0.00082361,-0.00232439,-0.00102833,-0.00030099,-0.00284701,-0.470203,0.00180605,0.0410362,664,1072,-63.504,-0.379358
-553,-48,-63.5804,0.384277,-0.00213815,-0.00118748,-0.000377269,-0.00105596,-0.00226967,-1.23535,0.00131145,0.0423087,671,1072,-63.5804,-0.384243
-546,-48,-63.7176,0.24707,-0.00359999,-1.88321e-05,0.000261316,1.35624e-07,-0.00361896,1.49834,0.00241269,0.0405693,678,1072,-63.7176,-0.247036
-539,-48,-63.7541,0.200806,-0.00533567,0.000693713,0.000639082,0.000760708,-0.00540267,1.46635,0.00388028,0.0401854,685,1072,-63.7541,-0.200761
-532,-48,-63.8175,0.391602,-0.00715811,0.00147864,0.000976229,0.00158761,-0.00726708,1.45963,0.00545153,0.0400186,692,1072,-63.8175,-0.391559
-525,-48,0,0,0,0,0,0,0,0,0,-1,699,1072,0,0
-518,-48,0,0,0,0,0,0,0,0,0,-1,706,1072,0,0
-511,-48,0,0,0,0,0,0,0,0,0,-1,713,1072,0,0
-504,-48,0,0,0,0,0,0,0,0,0,-1,720,1072,0,0
-497,-48,0,0,0,0,0,0,0,0,0,-1,727,1072,0,0
-490,-48,0,0,0,0,0,0,0,0,0,-1,734,1072,0,0
-483,-48,0,0,0,0,0,0,0,0,0,-1,741,1072,0,0
-476,-48,0,0,0,0,0,0,0,0,0,-1,748,1072,0,0
-469,-48,0,0,0,0,0,0,0,0,0,-1,755,1072,0,0
-462,-48,0,0,0,0,0,0,0,0,0,-1,762,1072,0,0
-455,-48,0,0,0,0,0,0,0,0,0,-1,769,1072,0,0
-448,-48,0,0,0,0,0,0,0,0,0,-1,776,1072,0,0
-441,-48,0,0,0,0,0,0,0,0,0,-1,783,1072,0,0
-434,-48,0,0,0,0,0,0,0,0,0,-1,790,1072,0,0
-427,-48,0,0,0,0,0,0,0,0,0,-1,797,1072,0,0
-420,-48,0,0,0,0,0,0,0,0,0,-1,804,1072,0,0
-413,-48,0,0,0,0,0,0,0,0,0,-1,811,1072,0,0
-406,-48,0,0,0,0,0,0,0,0,0,-1,818,1072,0,0
-399,-48,0,0,0,0,0,0,0,0,0,-1,825,1072,0,0
-392,-48,0,0,0,0,0,0,0,0,0,-1,832,1072,0,0
-385,-48,0,0,0,0,0,0,0,0,0,-1,839,1072,0,0
-378,-48,0,0,0,0,0,0,0,0,0,-1,846,1072,0,0
-371,-48,0,0,0,0,0,0,0,0,0,-1,853,1072,0,0
-364,-48,0,0,0,0,0,0,0,0,0,-1,860,1072,0,0
-357,-48,0,0,0,0,0,0,0,0,0,-1,867,1072,0,0
-350,-48,0,0,0,0,0,0,0,0,0,-1,874,1072,0,0
-343,-48,0,0,0,0,0,0,0,0,0,-1,881,1072,0,0
-336,-48,0,0,0,0,0,0,0,0,0,-1,888,1072,0,0
-329,-48,0,0,0,0,0,0,0,0,0,-1,895,1072,0,0
-322,-48,0,0,0,0,0,0,0,0,0,-1,902,1072,0,0
-315,-48,0,0,0,0,0,0,0,0,0,-1,909,1072,0,0
-308,-48,0,0,0,0,0,0,0,0,0,-1,916,1072,0,0
-301,-48,0,0,0,0,0,0,0,0,0,-1,923,1072,0,0
-294,-48,0,0,0,0,0,0,0,0,0,-1,930,1072,0,0
-287,-48,0,0,0,0,0,0,0,0,0,-1,937,1072,0,0
-280,-48,0,0,0,0,0,0,0,0,0,-1,944,1072,0,0
-273,-48,0,0,0,0,0,0,0,0,0,-1,951,1072,0,0
-266,-48,0,0,0,0,0,0,0,0,0,-1,958,1072,0,0
-259,-48,0,0,0,0,0,0,0,0,0,-1,965,1072,0,0
-252,-48,0,0,0,0,0,0,0,0,0,-1,972,1072,0,0
-245,-48,0,0,0,0,0,0,0,0,0,-1,979,1072,0,0
-238,-48,0,0,0,0,0,0,0,0,0,-1,986,1072,0,0
-231,-48,0,0,0,0,0,0,0,0,0,-1,993,1072,0,0
-224,-48,0,0,0,0,0,0,0,0,0,-1,1000,1072,0,0
-217,-48,0,0,0,0,0,0,0,0,0,-1,1007,1072,0,0
-210,-48,0,0,0,0,0,0,0,0,0,-1,1014,1072,0,0
-203,-48,0,0,0,0,0,0,0,0,0,-1,1021,1072,0,0
-196,-48,0,0,0,0,0,0,0,0,0,-1,1028,1072,0,0
-189,-48,0,0,0,0,0,0,0,0,0,-1,1035,1072,0,0
-182,-48,0,0,0,0,0,0,0,0,0,-1,1042,1072,0,0
-175,-48,0,0,0,0,0,0,0,0,0,-1,1049,1072,0,0
-168,-48,0,0,0,0,0,0,0,0,0,-1,1056,1072,0,0
-161,-48,0,0,0,0,0,0,0,0,0,-1,1063,1072,0,0
-154,-48,0,0,0,0,0,0,0,0,0,-1,1070,1072,0,0
-147,-48,0,0,0,0,0,0,0,0,0,-1,1077,1072,0,0
-140,-48,0,0,0,0,0,0,0,0,0,-1,1084,1072,0,0
-133,-48,0,0,0,0,0,0,0,0,0,-1,1091,1072,0,0
-126,-48,0,0,0,0,0,0,0,0,0,-1,1098,1072,0,0
-119,-48,0,0,0,0,0,0,0,0,0,-1,1105,1072,0,0
-112,-48,0,0,0,0,0,0,0,0,0,-1,1112,1072,0,0
-105,-48,0,0,0,0,0,0,0,0,0,-1,1119,1072,0,0
-98,-48,0,0,0,0,0,0,0,0,0,-1,1126,1072,0,0
-91,-48,0,0,0,0,0,0,0,0,0,-1,1133,1072,0,0
-84,-48,0,0,0,0,0,0,0,0,0,-1,1140,1072,0,0
-77,-48,0,0,0,0,0,0,0,0,0,-1,1147,1072,0,0
-70,-48,0,0,0,0,0,0,0,0,0,-1,1154,1072,0,0
-63,-48,0,0,0,0,0,0,0,0,0,-1,1161,1072,0,0
-56,-48,0,0,0,0,0,0,0,0,0,-1,1168,1072,0,0
-49,-48,0,0,0,0,0,0,0,0,0,-1,1175,1072,0,0
-42,-48,0,0,0,0,0,0,0,0,0,-1,1182,1072,0,0
-35,-48,0,0,0,0,0,0,0,0,0,-1,1189,1072,0,0
-28,-48,0,0,0,0,0,0,0,0,0,-1,1196,1072,0,0
-21,-48,0,0,0,0,0,0,0,0,0,-1,1203,1072,0,0
-14,-48,0,0,0,0,0,0,0,0,0,-1,1210,1072,0,0
-7,-48,0,0,0,0,0,0,0,0,0,-1,1217,1072,0,0
0,-48,0,0,0,0,0,0,0,0,0,-1,1224,1072,0,0
7,-48,0,0,0,0,0,0,0,0,0,-1,1231,1072,0,0
14,-48,0,0,0,0,0,0,0,0,0,-1,1238,1072,0,0
21,-48,0,0,0,0,0,0,0,0,0,-1,1245,1072,0,0
28,-48,0,0,0,0,0,0,0,0,0,-1,1252,1072,0,0
35,-48,0,0,0,0,0,0,0,0,0,-1,1259,1072,0,0
42,-48,0,0,0,0,0,0,0,0,0,-1,1266,1072,0,0
49,-48,0,0,0,0,0,0,0,0,0,-1,1273,1072,0,0
56,-48,0,0,0,0,0,0,0,0,0,-1,1280,1072,0,0
63,-48,0,0,0,0,0,0,0,0,0,-1,1287,1072,0,0
70,-48,0,0,0,0,0,0,0,0,0,-1,1294,1072,0,0
77,-48,0,0,0,0,0,0,0,0,0,-1,1301,1072,0,0
84,-48,0,0,0,0,0,0,0,0,0,-1,1308,1072,0,0
91,-48,0,0,0,0,0,0,0,0,0,-1,1315,1072,0,0
98,-48,0,0,0,0,0,0,0,0,0,-1,1322,1072,0,0
105,-48,0,0,0,0,0,0,0,0,0,-1,1329,1072,0,0
112,-48,0,0,0,0,0,0,0,0,0,-1,1336,1072,0,0
119,-48,0,0,0,0,0,0,0,0,0,-1,1343,1072,0,0
126,-48,0,0,0,0,0,0,0,0,0,-1,1350,1072,0,0
133,-48,0,0,0,0,0,0,0,0,0,-1,1357,1072,0,0
140,-48,0,0,0,0,0,0,0,0,0,-1,1364,1072,0,0
147,-48,0,0,0,0,0,0,0,0,0,-1,1371,1072,0,0
154,-48,0,0,0,0,0,0,0,0,0,-1,1378,1072,0,0
161,-48,0,0,0,0,0,0,0,0,0,-1,1385,1072,0,0
168,-48,0,0,0,0,0,0,0,0,0,-1,1392,1072,0,0
175,-48,0,0,0,0,0,0,0,0,0,-1,1399,1072,0,0
182,-48,0,0,0,0,0,0,0,0,0,-1,1406,1072,0,0
189,-48,0,0,0,0,0,0,0,0,0,-1,1413,1072,0,0
196,-48,0,0,0,0,0,0,0,0,0,-1,1420,1072,0,0
203,-48,0,0,0,0,0,0,0,0,0,-1,1427,1072,0,0
210,-48,0,0,0,0,0,0,0,0,0,-1,1434,1072,0,0
217,-48,0,0,0,0,0,0,0,0,0,-1,1441,1072,0,0
224,-48,0,0,0,0,0,0,0,0,0,-1,1448,1072,0,0
231,-48,0,0,0,0,0,0,0,0,0,-1,1455,1072,0,0
238,-48,0,0,0,0,0,0,0,0,0,-1,1462,1072,0,0
245,-48,0,0,0,0,0,0,0,0,0,-1,1469,1072,0,0
252,-48,0,0,0,0,0,0,0,0,0,-1,1476,1072,0,0
259,-48,0,0,0,0,0,0,0,0,0,-1,1483,1072,0,0
266,-48,0,0,0,0,0,0,0,0,0,-1,1490,1072,0,0
273,-48,0,0,0,0,0,0,0,0,0,-1,1497,1072,0,0
280,-48,0,0,0,0,0,0,0,0,0,-1,1504,1072,0,0
287,-48,0,0,0,0,0,0,0,0,0,-1,1511,1072,0,0
294,-48,0,0,0,0,0,0,0,0,0,-1,1518,1072,0,0
301,-48,0,0,0,0,0,0,0,0,0,-1,1525,1072,0,0
308,-48,0,0,0,0,0,0,0,0,0,-1,1532,1072,0,0
315,-48,0,0,0,0,0,0,0,0,0,-1,1539,1072,0,0
322,-48,0,0,0,0,0,0,0,0,0,-1,1546,1072,0,0
329,-48,0,0,0,0,0,0,0,0,0,-1,1553,1072,0,0
336,-48,0,0,0,0,0,0,0,0,0,-1,1560,1072,0,0
343,-48,0,0,0,0,0,0,0,0,0,-1,1567,1072,0,0
350,-48,0,0,0,0,0,0,0,0,0,-1,1574,1072,0,0
357,-48,0,0,0,0,0,0,0,0,0,-1,1581,1072,0,0
364,-48,0,0,0,0,0,0,0,0,0,-1,1588,1072,0,0
371,-48,0,0,0,0,0,0,0,0,0,-1,1595,1072,0,0
378,-48,0,0,0,0,0,0,0,0,0,-1,1602,1072,0,0
385,-48,0,0,0,0,0,0,0,0,0,-1,1609,1072,0,0
392,-48,0,0,0,0,0,0,0,0,0,-1,1616,1072,0,0
399,-48,0,0,0,0,0,0,0,0,0,-1,1623,1072,0,0
406,-48,0,0,0,0,0,0,0,0,0,-1,1630,1072,0,0
413,-48,0,0,0,0,0,0,0,0,0,-1,1637,1072,0,0
420,-48,0,0,0,0,0,0,0,0,0,-1,1644,1072,0,0
427,-48,0,0,0,0,0,0,0,0,0,-1,1651,1072,0,0
434,-48,0,0,0,0,0,0,0,0,0,-1,1658,1072,0,0
441,-48,0,0,0,0,0,0,0,0,0,-1,1665,1072,0,0
448,-48,0,0,0,0,0,0,0,0,0,-1,1672,1072,0,0
455,-48,0,0,0,0,0,0,0,0,0,-1,1679,1072,0,0
462,-48,0,0,0,0,0,0,0,0,0,-1,1686,1072,0,0
469,-48,0,0,0,0,0,0,0,0,0,-1,1693,1072,0,0
476,-48,0,0,0,0,0,0,0,0,0,-1,1700,1072,0,0
483,-48,0,0,0,0,0,0,0,0,0,-1,1707,1072,0,0
490,-48,0,0,0,0,0,0,0,0,0,-1,1714,1072,0,0
497,-48,0,0,0,0,0,0,0,0,0,-1,1721,1072,0,0
504,-48,0,0,0,0,0,0,0,0,0,-1,1728,1072,0,0
511,-48,0,0,0,0,0,0,0,0,0,-1,1735,1072,0,0
518,-48,0,0,0,0,0,0,0,0,0,-1,1742,1072,0,0
525,-48,0,0,0,0,0,0,0,0,0,-1,1749,1072,0,0
532,-48,0,0,0,0,0,0,0,0,0,-1,1756,1072,0,0
539,-48,0,0,0,0,0,0,0,0,0,-1,1763,1072,0,0
546,-48,0,0,0,0,0,0,0,0,0,-1,1770,1072,0,0
553,-48,0,0,0,0,0,0,0,0,0,-1,1777,1072,0,0
560,-48,0,0,0,0,0,0,0,0,0,-1,1784,1072,0,0
567,-48,0,0,0,0,0,0,0,0,0,-1,1791,1072,0,0
574,-48,0,0,0,0,0,0,0,0,0,-1,1798,1072,0,0
581,-48,0,0,0,0,0,0,0,0,0,-1,1805,1072,0,0
588,-48,0,0,0,0,0,0,0,0,0,-1,1812,1072,0,0
595,-48,0,0,0,0,0,0,0,0,0,-1,1819,1072,0,0
602,-48,0,0,0,0,0,0,0,0,0,-1,1826,1072,0,0
609,-48,0,0,0,0,0,0,0,0,0,-1,1833,1072,0,0
616,-48,0,0,0,0,0,0,0,0,0,-1,1840,1072,0,0
623,-48,0,0,0,0,0,0,0,0,0,-1,1847,1072,0,0
630,-48,0,0,0,0,0,0,0,0,0,-1,1854,1072,0,0
637,-48,0,0,0,0,0,0,0,0,0,-1,1861,1072,0,0
644,-48,0,0,0,0,0,0,0,0,0,-1,1868,1072,0,0
651,-48,80.5427,2.0011,0.00640116,0.000520946,0.000629292,0.00646775,0.000454354,0.105428,0.00416864,0.0330315,1875,1072,80.5428,-2.00105
658,-48,80.5486,1.88123,0.00484399,0.000350937,0.000385904,0.0048769,0.000318033,0.0850588,0.00315061,0.0364087,1882,1072,80.5485,-1.88119
665,-48,80.5531,1.83081,0.00355854,0.000264376,0.000269362,0.00358042,0.000242496,0.081052,0.00231036,0.0400012,1889,1072,80.5531,-1.83081
672,-48,80.6219,1.70313,0.00253753,0.000247035,0.000244589,0.00256336,0.000221208,0.105204,0.00164015,0.0410222,1896,1072,80.6219,-1.7031
679,-48,80.7168,1.70898,0.00165434,0.000275129,0.000259452,0.00170153,0.000227936,0.179926,0.00106653,0.0417651,1903,1072,80.7169,-1.70894
686,-48,80.6003,1.9823,0.000630789,3.00741e-05,0.000334142,0.000779726,-0.000118863,0.419297,0.000563632,0.0416403,1910,1072,80.6003,-1.98235
693,-48,80.4779,2.14941,-0.000137507,-0.000313427,0.00055245,0.000333942,-0.000784875,0.706452,0.000663207,0.0417705,1917,1072,80.478,-2.14945
700,-48,80.641,1.9635,-0.000633096,-0.000508752,0.000816009,0.00024745,-0.0013893,0.82342,0.00101875,0.036638,1924,1072,80.641,-1.96347
707,-48,80.6666,2.08691,-0.00157747,-0.000398988,0.0011431,0.000297809,-0.00227426,1.02337,0.00162457,0.0309245,1931,1072,80.6666,-2.08697
714,-48,80.6125,2.08569,-0.00265586,4.7699e-05,0.00146122,0.000686519,-0.00329468,1.15865,0.00245747,0.0469085,1938,1072,80.6125,-2.0857
721,-48,80.6951,2.00208,0,0,0,0,0,0,0,-1,1945,1072,80.6951,-2.00202
728,-48,79.4636,8.56616,0,0,0,0,0,0,0,-1,1952,1072,79.4636,-8.56617
735,-48,79.3387,8.20459,-0.00587874,0.00339532,0.00237894,0.00396995,-0.00645337,1.33379,0.00607458,0.0245463,1959,1072,79.3388,-8.20455
742,-48,79.1886,7.80652,-0.00652552,0.00468946,0.00282071,0.00535894,-0.007195,1.33776,0.00727382,0.018457,1966,1072,79.1886,-7.80651
749,-48,79.1619,7.41809,-0.00746353,0.00633478,0.003286,0.00707737,-0.00820611,1.34855,0.00883194,0.0167332,1973,1072,79.1619,-7.41807
756,-48,79.145,7.04883,-0.00816971,0.00896561,0.00328433,0.00957355,-0.00877764,1.38777,0.0105984,0.0147008,1980,1072,79.145,-7.04881
763,-48,79.0315,6.67664,-0.00826183,0.0120056,0.00304579,0.0124534,-0.00870966,1.42481,0.0122821,0.0142571,1987,1072,79.0314,-6.67667
770,-48,78.9441,6.28723,-0.00775928,0.0159092,0.00255521,0.0161819,-0.00803199,1.46447,0.0142414,0.0155973,1994,1072,78.944,-6.28724
777,-48,78.7654,5.86987,-0.00606836,0.0203802,0.00160375,0.0204771,-0.00616525,1.51045,0.0161048,0.014553,2001,1072,78.7653,-5.86989
784,-48,78.6499,5.43616,-0.00372631,0.0246955,0.00018836,0.0246968,-0.00372756,1.56417,0.0178373,0.0268005,2008,1072,78.6499,-5.43621
791,-48,78.6423,4.98999,-0.000606728,0.0288283,-0.00191096,0.0289518,-0.000730271,-1.50624,0.0195492,0.0426408,2015,1072,78.6422,-4.98993
798,-48,78.6802,4.51843,0.00376368,0.0326949,-0.00490431,0.0335037,0.00295493,-1.40736,0.0214188,0.048347,2022,1072,78.6803,-4.51847
805,-48,77.1663,5.47253,0,0,0,0,0,0,0,-1,2029,1072,77.1662,-5.47251
812,-48,77.9309,4.8219,0,0,0,0,0,0,0,-1,2036,1072,77.931,-4.82194
-700,-55,-66.7924,5.02954,0,0,0,0,0,0,0,-1,524,1079,-66.7924,-5.0295
-693,-55,-67.3549,-4.41882,0,0,0,0,0,0,0,-1,531,1079,-67.355,4.41886
-686,-55,-67.691,-3.71802,0,0,0,0,0,0,0,-1,538,1079,-67.691,3.71807
-679,-55,-67.6107,-2.57495,0,0,0,0,0,0,0,-1,545,1079,-67.6107,2.5749
-672,-55,-64.985,7.27808,0,0,0,0,0,0,0,-1,552,1079,-64.985,-7.27803
-665,-55,-62.1671,1.34192,0,0,0,0,0,0,0,-1,559,1079,-62.1671,-1.3419
-658,-55,-61.5821,2.10559,0,0,0,0,0,0,0,-1,566,1079,-61.5821,-2.10563
-651,-55,-62.3144,4.82092,0,0,0,0,0,0,0,-1,573,1079,-62.3144,-4.82091
-644,-55,-62.3619,5.23328,-0.0204476,0.0471296,0.0209268,0.0530852,-0.0264032,1.29353,0.0467466,0.0332042,580,1079,-62.3619,-5.23323
-637,-55,-62.4285,5.52893,-0.0140594,0.0335503,0.0115193,0.036191,-0.0167001,1.34545,0.0312202,0.0254465,587,1079,-62.4285,-5.52893
-630,-55,-62.4918,6.02283,-0.00843939,0.0212928,0.00474532,0.0220318,-0.00917839,1.41631,0.0185216,0.0284116,594,1079,-62.4917,-6.02284
-623,-55,-62.6603,6.5603,-0.00479066,0.0117798,0.000754186,0.0118141,-0.00482492,1.52541,0.009885,0.0215953,601,1079,-62.6603,-6.56026
-616,-55,-62.682,6.98547,-0.00205344,0.00477847,-0.00171827,0.00518628,-0.00246126,-1.33777,0.00450778,0.0191385,608,1079,-62.682,-6.98551
-609,-55,-62.5889,7.48669,-0.00032584,0.00105414,-0.00279867,0.00324662,-0.00251832,-0.906259,0.00333723,0.0196797,615,1079,-62.5889,-7.48665
-602,-55,-62.4976,7.91772,0.000487753,-0.000425645,-0.00284507,0.00291254,-0.00285044,-0.705816,0.00332732,0.0156815,622,1079,-62.4976,-7.91769
-595,-55,-62.2911,8.35461,0.000761701,-0.00186635,-0.00281129,0.0025509,-0.00365555,-0.56678,0.00360217,0.0337014,629,1079,-62.291,-8.35463
-588,-55,-62.1868,8.85278,0,0,0,0,0,0,0,-1,636,1079,-62.1868,-8.85275
-581,-55,-63.6205,0.153687,0,0,0,0,0,0,0,-1,643,1079,-63.6205,-0.153636
-574,-55,-63.6989,0.280884,0.000767793,-0.00337872,-0.00218453,0.00170627,-0.0043172,-0.405763,0.0035849,0.0391998,650,1079,-63.6989,-0.280853
-567,-55,-63.7363,0.402832,0.00032082,-0.00312704,-0.00181782,0.00110216,-0.00390838,-0.405951,0.00304031,0.0388006,657,1079,-63.7363,-0.402802
-560,-55,-63.7546,0.547241,-0.000587393,-0.00241605,-0.00133627,0.00011742,-0.00312086,-0.485364,0.0021208,0.0428184,664,1079,-63.7546,-0.547272
-553,-55,-63.6299,0.179199,-0.00181692,-0.00143204,-0.000741302,-0.000858606,-0.00239035,-0.912392,0.00139819,0.0434673,671,1079,-63.6299,-0.179144
-546,-55,-63.6829,0.138794,-0.0032193,-0.000454878,-0.00015895,-0.000445768,-0.00322841,-1.51355,0.00202015,0.0396176,678,1079,-63.6829,-0.138823
-539,-55,-63.7366,0.0639648,-0.00479159,-6.97382e-05,0.000103253,-6.74815e-05,-0.00479385,1.54894,0.00317364,0.0393223,685,1079,-63.7366,-0.0640244
-532,-55,-63.8214,0.141968,-0.00643272,0.000357743,0.000283206,0.000369534,-0.00644451,1.52919,0.00442467,0.0400369,692,1079,-63.8214,-0.141948
-525,-55,0,0,0,0,0,0,0,0,0,-1,699,1079,0,0
-518,-55,0,0,0,0,0,0,0,0,0,-1,706,1079,0,0
-511,-55,0,0,0,0,0,0,0,0,0,-1,713,1079,0,0
-504,-55,0,0,0,0,0,0,0,0,0,-1,720,1079,0,0
-497,-55,0,0,0,0,0,0,0,0,0,-1,727,1079,0,0
-490,-55,0,0,0,0,0,0,0,0,0,-1,734,1079,0,0
-483,-55,0,0,0,0,0,0,0,0,0,-1,741,1079,0,0
-476,-55,0,0,0,0,0,0,0,0,0,-1,748,1079,0,0
-469,-55,0,0,0,0,0,0,0,0,0,-1,755,1079,0,0
-462,-55,0,0,0,0,0,0,0,0,0,-1,762,1079,0,0
-455,-55,0,0,0,0,0,0,0,0,0,-1,769,1079,0,0
-448,-55,0,0,0,0,0,0,0,0,0,-1,776,1079,0,0
-441,-55,0,0,0,0,0,0,0,0,0,-1,783,1079,0,0
-434,-55,0,0,0,0,0,0,0,0,0,-1,790,1079,0,0
-427,-55,0,0,0,0,0,0,0,0,0,-1,797,1079,0,0
-420,-55,0,0,0,0,0,0,0,0,0,-1,804,1079,0,0
-413,-55,0,0,0,0,0,0,0,0,0,-1,811,1079,0,0
-406,-55,0,0,0,0,0,0,0,0,0,-1,818,1079,0,0
-399,-55,0,0,0,0,0,0,0,0,0,-1,825,1079,0,0
-392,-55,0,0,0,0,0,0,0,0,0,-1,832,1079,0,0
-385,-55,0,0,0,0,0,0,0,0,0,-1,839,1079,0,0
-378,-55,0,0,0,0,0,0,0,0,0,-1,846,1079,0,0
-371,-55,0,0,0,0,0,0,0,0,0,-1,853,1079,0,0
-364,-55,0,0,0,0,0,0,0,0,0,-1,860,1079,0,0
-357,-55,0,0,0,0,0,0,0,0,0,-1,867,1079,0,0
-350,-55,0,0,0,0,0,0,0,0,0,-1,874,1079,0,0
-343,-55,0,0,0,0,0,0,0,0,0,-1,881,1079,0,0
-336,-55,0,0,0,0,0,0,0,0,0,-1,888,1079,0,0
-329,-55,0,0,0,0,0,0,0,0,0,-1,895,1079,0,0
-322,-55,0,0,0,0,0,0,0,0,0,-1,902,1079,0,0
-315,-55,0,0,0,0,0,0,0,0,0,-1,909,1079,0,0
-308,-55,0,0,0,0,0,0,0,0,0,-1,916,1079,0,0
-301,-55,0,0,0,0,0,0,0,0,0,-1,923,1079,0,0
-294,-55,0,0,0,0,0,0,0,0,0,-1,930,1079,0,0
-287,-55,0,0,0,0,0,0,0,0,0,-1,937,1079,0,0
-280,-55,0,0,0,0,0,0,0,0,0,-1,944,1079,0,0
-273,-55,0,0,0,0,0,0,0,0,0,-1,951,1079,0,0
-266,-55,0,0,0,0,0,0,0,0,0,-1,958,1079,0,0
-259,-55,0,0,0,0,0,0,0,0,0,-1,965,1079,0,0
-252,-55,0,0,0,0,0,0,0,0,0,-1,972,1079,0,0
-245,-55,0,0,0,0,0,0,0,0,0,-1,979,1079,0,0
-238,-55,0,0,0,0,0,0,0,0,0,-1,986,1079,0,0
-231,-55,0,0,0,0,0,0,0,0,0,-1,993,1079,0,0
-224,-55,0,0,0,0,0,0,0,0,0,-1,1000,1079,0,0
-217,-55,0,0,0,0,0,0,0,0,0,-1,1007,1079,0,0
-210,-55,0,0,0,0,0,0,0,0,0,-1,1014,1079,0,0
-203,-55,0,0,0,0,0,0,0,0,0,-1,1021,1079,0,0
-196,-55,0,0,0,0,0,0,0,0,0,-1,1028,1079,0,0
-189,-55,0,0,0,0,0,0,0,0,0,-1,1035,1079,0,0
-182,-55,0,0,0,0,0,0,0,0,0,-1,1042,1079,0,0
-175,-55,0,0,0,0,0,0,0,0,0,-1,1049,1079,0,0
-168,-55,0,0,0,0,0,0,0,0,0,-1,1056,1079,0,0
-161,-55,0,0,0,0,0,0,0,0,0,-1,1063,1079,0,0
-154,-55,0,0,0,0,0,0,0,0,0,-1,1070,1079,0,0
-147,-55,0,0,0,0,0,0,0,0,0,-1,1077,1079,0,0
-140,-55,0,0,0,0,0,0,0,0,0,-1,1084,1079,0,0
-133,-55,0,0,0,0,0,0,0,0,0,-1,1091,1079,0,0
-126,-55,0,0,0,0,0,0,0,0,0,-1,1098,1079,0,0
-119,-55,0,0,0,0,0,0,0,0,0,-1,1105,1079,0,0
-112,-55,0,0,0,0,0,0,0,0,0,-1,1112,1079,0,0
-105,-55,0,0,0,0,0,0,0,0,0,-1,1119,1079,0,0
-98,-55,0,0,0,0,0,0,0,0,0,-1,1126,1079,0,0
-91,-55,0,0,0,0,0,0,0,0,0,-1,1133,1079,0,0
-84,-55,0,0,0,0,0,0,0,0,0,-1,1140,1079,0,0
-77,-55,0,0,0,0,0,0,0,0,0,-1,1147,1079,0,0
-70,-55,0,0,0,0,0,0,0,0,0,-1,1154,1079,0,0
-63,-55,0,0,0,0,0,0,0,0,0,-1,1161,1079,0,0
-56,-55,0,0,0,0,0,0,0,0,0,-1,1168,1079,0,0
-49,-55,0,0,0,0,0,0,0,0,0,-1,1175,1079,0,0
-42,-55,0,0,0,0,0,0,0,0,0,-1,1182,1079,0,0
-35,-55,0,0,0,0,0,0,0,0,0,-1,1189,1079,0,0
-28,-55,0,0,0,0,0,0,0,0,0,-1,1196,1079,0,0
-21,-55,0,0,0,0,0,0,0,0,0,-1,1203,1079,0,0
-14,-55,0,0,0,0,0,0,0,0,0,-1,1210,1079,0,0
-7,-55,0,0,0,0,0,0,0,0,0,-1,1217,1079,0,0
0,-55,0,0,0,0,0,0,0,0,0,-1,1224,1079,0,0
7,-55,0,0,0,0,0,0,0,0,0,-1,1231,1079,0,0
14,-55,0,0,0,0,0,0,0,0,0,-1,1238,1079,0,0
21,-55,0,0,0,0,0,0,0,0,0,-1,1245,1079,0,0
28,-55,0,0,0,0,0,0,0,0,0,-1,1252,1079,0,0
35,-55,0,0,0,0,0,0,0,0,0,-1,1259,1079,0,0
42,-55,0,0,0,0,0,0,0,0,0,-1,1266,1079,0,0
49,-55,0,0,0,0,0,0,0,0,0,-1,1273,1079,0,0
56,-55,0,0,0,0,0,0,0,0,0,-1,1280,1079,0,0
63,-55,0,0,0,0,0,0,0,0,0,-1,1287,1079,0,0
70,-55,0,0,0,0,0,0,0,0,0,-1,1294,1079,0,0
77,-55,0,0,0,0,0,0,0,0,0,-1,1301,1079,0,0
84,-55,0,0,0,0,0,0,0,0,0,-1,1308,1079,0,0
91,-55,0,0,0,0,0,0,0,0,0,-1,1315,1079,0,0
98,-55,0,0,0,0,0,0,0,0,0,-1,1322,1079,0,0
105,-55,0,0,0,0,0,0,0,0,0,-1,1329,1079,0,0
112,-55,0,0,0,0,0,0,0,0,0,-1,1336,1079,0,0
119,-55,0,0,0,0,0,0,0,0,0,-1,1343,1079,0,0
126,-55,0,0,0,0,0,0,0,0,0,-1,1350,1079,0,0
133,-55,0,0,0,0,0,0,0,0,0,-1,1357,1079,0,0
140,-55,0,0,0,0,0,0,0,0,0,-1,1364,1079,0,0
147,-55,0,0,0,0,0,0,0,0,0,-1,1371,1079,0,0
154,-55,0,0,0,0,0,0,0,0,0,-1,1378,1079,0,0
161,-55,0,0,0,0,0,0,0,0,0,-1,1385,1079,0,0
168,-55,0,0,0,0,0,0,0,0,0,-1,1392,1079,0,0
175,-55,0,0,0,0,0,0,0,0,0,-1,1399,1079,0,0
182,-55,0,0,0,0,0,0,0,0,0,-1,1406,1079,0,0
189,-55,0,0,0,0,0,0,0,0,0,-1,1413,1079,0,0
196,-55,0,0,0,0,0,0,0,0,0,-1,1420,1079,0,0
203,-55,0,0,0,0,0,0,0,0,0,-1,1427,1079,0,0
210,-55,0,0,0,0,0,0,0,0,0,-1,1434,1079,0,0
217,-55,0,0,0,0,0,0,0,0,0,-1,1441,1079,0,0
224,-55,0,0,0,0,0,0,0,0,0,-1,1448,1079,0,0
231,-55,0,0,0,0,0,0,0,0,0,-1,1455,1079,0,0
238,-55,0,0,0,0,0,0,0,0,0,-1,1462,1079,0,0
245,-55,0,0,0,0,0,0,0,0,0,-1,1469,1079,0,0
252,-55,0,0,0,0,0,0,0,0,0,-1,1476,1079,0,0
259,-55,0,0,0,0,0,0,0,0,0,-1,1483,1079,0,0
266,-55,0,0,0,0,0,0,0,0,0,-1,1490,1079,0,0
273,-55,0,0,0,0,0,0,0,0,0,-1,1497,1079,0,0
280,-55,0,0,0,0,0,0,0,0,0,-1,1504,1079,0,0
287,-55,0,0,0,0,0,0,0,0,0,-1,1511,1079,0,0
294,-55,0,0,0,0,0,0,0,0,0,-1,1518,1079,0,0
301,-55,0,0,0,0,0,0,0,0,0,-1,1525,1079,0,0
308,-55,0,0,0,0,0,0,0,0,0,-1,1532,1079,0,0
315,-55,0,0,0,0,0,0,0,0,0,-1,1539,1079,0,0
322,-55,0,0,0,0,0,0,0,0,0,-1,1546,1079,0,0
329,-55,0,0,0,0,0,0,0,0,0,-1,1553,1079,0,0
336,-55,0,0,0,0,0,0,0,0,0,-1,1560,1079,0,0
343,-55,0,0,0,0,0,0,0,0,0,-1,1567,1079,0,0
350,-55,0,0,0,0,0,0,0,0,0,-1,1574,1079,0,0
357,-55,0,0,0,0,0,0,0,0,0,-1,1581,1079,0,0
364,-55,0,0,0,0,0,0,0,0,0,-1,1588,1079,0,0
371,-55,0,0,0,0,0,0,0,0,0,-1,1595,1079,0,0
378,-55,0,0,0,0,0,0,0,0,0,-1,1602,1079,0,0
385,-55,0,0,0,0,0,0,0,0,0,-1,1609,1079,0,0
392,-55,0,0,0,0,0,0,0,0,0,-1,1616,1079,0,0
399,-55,0,0,0,0,0,0,0,0,0,-1,1623,1079,0,0
406,-55,0,0,0,0,0,0,0,0,0,-1,1630,1079,0,0
413,-55,0,0,0,0,0,0,0,0,0,-1,1637,1079,0,0
420,-55,0,0,0,0,0,0,0,0,0,-1,1644,1079,0,0
427,-55,0,0,0,0,0,0,0,0,0,-1,1651,1079,0,0
434,-55,0,0,0,0,0,0,0,0,0,-1,1658,1079,0,0
441,-55,0,0,0,0,0,0,0,0,0,-1,1665,1079,0,0
448,-55,0,0,0,0,0,0,0,0,0,-1,1672,1079,0,0
455,-55,0,0,0,0,0,0,0,0,0,-1,1679,1079,0,0
462,-55,0,0,0,0,0,0,0,0,0,-1,1686,1079,0,0
469,-55,0,0,0,0,0,0,0,0,0,-1,1693,1079,0,0
476,-55,0,0,0,0,0,0,0,0,0,-1,1700,1079,0,0
483,-55,0,0,0,0,0,0,0,0,0,-1,1707,1079,0,0
490,-55,0,0,0,0,0,0,0,0,0,-1,1714,1079,0,0
497,-55,0,0,0,0,0,0,0,0,0,-1,1721,1079,0,0
504,-55,0,0,0,0,0,0,0,0,0,-1,1728,1079,0,0
511,-55,0,0,0,0,0,0,0,0,0,-1,1735,1079,0,0
518,-55,0,0,0,0,0,0,0,0,0,-1,1742,1079,0,0
525,-55,0,0,0,0,0,0,0,0,0,-1,1749,1079,0,0
532,-55,0,0,0,0,0,0,0,0,0,-1,1756,1079,0,0
539,-55,0,0,0,0,0,0,0,0,0,-1,1763,1079,0,0
546,-55,0,0,0,0,0,0,0,0,0,-1,1770,1079,0,0
553,-55,0,0,0,0,0,0,0,0,0,-1,1777,1079,0,0
560,-55,0,0,0,0,0,0,0,0,0,-1,1784,1079,0,0
567,-55,0,0,0,0,0,0,0,0,0,-1,1791,1079,0,0
574,-55,0,0,0,0,0,0,0,0,0,-1,1798,1079,0,0
581,-55,0,0,0,0,0,0,0,0,0,-1,1805,1079,0,0
588,-55,0,0,0,0,0,0,0,0,0,-1,1812,1079,0,0
595,-55,0,0,0,0,0,0,0,0,0,-1,1819,1079,0,0
602,-55,0,0,0,0,0,0,0,0,0,-1,1826,1079,0,0
609,-55,0,0,0,0,0,0,0,0,0,-1,1833,1079,0,0
616,-55,0,0,0,0,0,0,0,0,0,-1,1840,1079,0,0
623,-55,0,0,0,0,0,0,0,0,0,-1,1847,1079,0,0
630,-55,0,0,0,0,0,0,0,0,0,-1,1854,1079,0,0
637,-55,0,0,0,0,0,0,0,0,0,-1,1861,1079,0,0
644,-55,0,0,0,0,0,0,0,0,0,-1,1868,1079,0,0
651,-55,80.5016,2.11682,0.00757494,-0.00012054,0.000393868,0.00759505,-0.000140646,0.051004,0.00511089,0.0354907,1875,1079,80.5016,-2.11688
658,-55,80.6272,2.15247,0.00584767,-0.000180601,0.000253104,0.00585828,-0.000191209,0.0418878,0.00397079,0.0339571,1882,1079,80.6272,-2.15241
665,-55,80.5356,2.15247,0.00440023,-0.000178361,0.000191322,0.00440821,-0.000186342,0.0416894,0.00300285,0.0382512,1889,1079,80.5356,-2.15243
672,-55,80.6226,2.16895,0.00319903,-0.000119654,0.000171629,0.00320788,-0.000128506,0.0515327,0.00218268,0.0400191,1896,1079,80.6225,-2.16892
679,-55,80.7723,1.9574,0.00213646,-2.43574e-05,0.000167892,0.00214943,-3.73244e-05,0.0770817,0.00144555,0.0392638,1903,1079,80.7723,-1.9574
686,-55,80.6428,2.02405,0.0010214,-0.000210205,0.000188205,0.00104952,-0.000238323,0.148305,0.000791177,0.041332,1910,1079,80.6429,-2.02404
693,-55,80.608,2.02917,0.000234058,-0.000523404,0.000376815,0.00038958,-0.000678927,0.391432,0.000624397,0.0385294,1917,1079,80.608,-2.02918
700,-55,80.6278,2.09729,-0.000235933,-0.000672376,0.000587954,0.00017299,-0.0010813,0.607701,0.00078491,0.0323186,1924,1079,80.6278,-2.09733
707,-55,80.6332,2.10071,-0.00112443,-0.00053282,0.000925437,0.000142939,-0.00180019,0.940085,0.0012505,0.0279257,1931,1079,80.6332,-2.10074
714,-55,80.6359,2.02173,-0.00213893,-9.6458e-05,0.00125919,0.000503566,-0.00273895,1.12611,0.00201491,0.0499706,1938,1079,80.6359,-2.02178
721,-55,80.6902,1.85754,0,0,0,0,0,0,0,-1,1945,1079,80.6901,-1.8576
728,-55,78.9042,8.81848,0,0,0,0,0,0,0,-1,1952,1079,78.9042,-8.81845
735,-55,78.8052,8.36389,-0.00509851,0.00296139,0.00228598,0.0035646,-0.00570172,1.3128,0.00539714,0.0247083,1959,1079,78.8052,-8.3639
742,-55,78.7959,7.92725,-0.00555432,0.00418177,0.00282429,0.00494173,-0.00631428,1.30794,0.00651475,0.0234257,1966,1079,78.796,-7.9273
749,-55,78.7759,7.474,-0.00640945,0.00578857,0.00348959,0.00671631,-0.00733718,1.31095,0.00811643,0.0156498,1973,1079,78.7758,-7.47394
756,-55,78.6536,7.03027,-0.00717802,0.0082837,0.00373034,0.00913665,-0.00803096,1.34601,0.00991857,0.0132417,1980,1079,78.6535,-7.03025
763,-55,78.5527,6.62048,-0.0074032,0.0112645,0.00384183,0.0120243,-0.00816293,1.37556,0.0117259,0.0158474,1987,1079,78.5527,-6.62052
770,-55,78.4485,6.17981,-0.00712078,0.0151597,0.00381305,0.0157942,-0.00775528,1.40591,0.0138578,0.0181554,1994,1079,78.4484,-6.17979
777,-55,78.3254,5.74268,-0.0058952,0.0196113,0.00348798,0.0200797,-0.00636358,1.43731,0.0159369,0.0156957,2001,1079,78.3255,-5.74264
784,-55,78.241,5.27686,-0.00415827,0.023945,0.00282568,0.0242263,-0.00443957,1.47157,0.0178161,0.031416,2008,1079,78.2409,-5.27687
791,-55,78.1646,4.87036,-0.00184697,0.0281362,0.00166664,0.0282286,-0.00193932,1.51544,0.0194977,0.0427341,2015,1079,78.1645,-4.87039
798,-55,77.5139,4.93848,0.00143923,0.0320974,-0.000149498,0.0320981,0.0014385,-1.56592,0.0209357,0.0474154,2022,1079,77.5139,-4.93853
805,-55,77.2705,4.62927,0,0,0,0,0,0,0,-1,2029,1079,77.2704,-4.62921
812,-55,77.8022,4.28577,0,0,0,0,0,0,0,-1,2036,1079,77.8023,-4.28579
-700,-62,-65.194,-4.64453,0,0,0,0,0,0,0,-1,524,1086,-65.194,4.64458
-693,-62,-65.5257,-3.6167,0,0,0,0,0,0,0,-1,531,1086,-65.5257,3.61667
-686,-62,-65.7058,-2.62793,0,0,0,0,0,0,0,-1,538,1086,-65.7058,2.62799
-679,-62,-65.4929,-1.55457,0,0,0,0,0,0,0,-1,545,1086,-65.4929,1.55454
-672,-62,-62.0673,2.07764,0,0,0,0,0,0,0,-1,552,1086,-62.0673,-2.07766
-665,-62,-61.7704,3.07751,0,0,0,0,0,0,0,-1,559,1086,-61.7704,-3.07746
-658,-62,-61.0638,2.4115,0,0,0,0,0,0,0,-1,566,1086,-61.0638,-2.41149
-651,-62,-61.7563,4.23303,0,0,0,0,0,0,0,-1,573,1086,-61.7563,-4.23302
-644,-62,-61.9138,5.00415,-0.019258,0.0398722,0.0203091,0.0461757,-0.0255615,1.26985,0.0419836,0.0403596,580,1086,-61.9138,-5.00418
-637,-62,-61.9742,5.53796,-0.0136421,0.0285864,0.0112898,0.0314152,-0.0164709,1.32529,0.0280923,0.0180778,587,1086,-61.9742,-5.53797
-630,-62,-62.0618,6.02515,-0.00856603,0.0182325,0.00460424,0.0190015,-0.00933501,1.40531,0.0166744,0.017927,594,1086,-62.0618,-6.02515
-623,-62,-62.1548,6.58557,-0.00525908,0.00984536,0.000520374,0.00986326,-0.00527698,1.5364,0.0088739,0.0201429,601,1086,-62.1548,-6.58561
-616,-62,-62.1639,7.12524,-0.00267404,0.00395056,-0.00187668,0.00444526,-0.00316874,-1.31306,0.00441649,0.0206555,608,1086,-62.1639,-7.12521
-609,-62,-62.1143,7.58887,-0.000905293,0.000795233,-0.00294811,0.00301324,-0.0031233,-0.925793,0.00354312,0.0200888,615,1086,-62.1142,-7.58892
-602,-62,-61.9579,8.01343,4.83729e-06,-0.000431143,-0.00296668,0.00276153,-0.00318783,-0.748724,0.0034378,0.0168939,622,1086,-61.9579,-8.01344
-595,-62,-61.8264,8.53455,0.00037256,-0.00168901,-0.00292044,0.00243878,-0.00375523,-0.615745,0.00360294,0.0398825,629,1086,-61.8264,-8.53451
-588,-62,-61.7146,9.05615,0,0,0,0,0,0,0,-1,636,1086,-61.7146,-9.05618
-581,-62,-63.6219,0.320435,0,0,0,0,0,0,0,-1,643,1086,-63.6219,-0.320442
-574,-62,-63.6757,0.375244,0.000740476,-0.00326385,-0.00244074,0.00189519,-0.00441857,-0.441897,0.00374104,0.0349923,650,1086,-63.6757,-0.37521
-567,-62,-63.6572,0.417358,0.000479316,-0.00312097,-0.00213471,0.00147158,-0.00411323,-0.435111,0.00334247,0.0385537,657,1086,-63.6572,-0.417364
-560,-62,-63.6031,0.418945,-0.000259066,-0.00257397,-0.00173665,0.000670504,-0.00350354,-0.49146,0.00258831,0.0423139,664,1086,-63.6031,-0.418982
-553,-62,-63.5527,0.0733643,-0.00137978,-0.00177091,-0.0012371,-0.00032288,-0.00282781,-0.707006,0.00178732,0.0396576,671,1086,-63.5527,-0.073382
-546,-62,-63.596,0.197876,-0.00269869,-0.000977188,-0.000768492,-0.000684045,-0.00299183,-1.20638,0.00181015,0.0334512,678,1086,-63.596,-0.197918
-539,-62,-63.6859,0.19458,-0.00407554,-0.000852185,-0.000683272,-0.00071333,-0.00421439,-1.37031,0.00260458,0.0377453,685,1086,-63.6859,-0.194567
-532,-62,-63.7256,0.132324,-0.00550825,-0.000704269,-0.000722578,-0.000597938,-0.00561458,-1.42469,0.00356052,0.0404441,692,1086,-63.7256,-0.132285
-525,-62,0,0,0,0,0,0,0,0,0,-1,699,1086,0,0
-518,-62,0,0,0,0,0,0,0,0,0,-1,706,1086,0,0
-511,-62,0,0,0,0,0,0,0,0,0,-1,713,1086,0,0
-504,-62,0,0,0,0,0,0,0,0,0,-1,720,1086,0,0
-497,-62,0,0,0,0,0,0,0,0,0,-1,727,1086,0,0
-490,-62,0,0,0,0,0,0,0,0,0,-1,734,1086,0,0
-483,-62,0,0,0,0,0,0,0,0,0,-1,741,1086,0,0
-476,-62,0,0,0,0,0,0,0,0,0,-1,748,1086,0,0
-469,-62,0,0,0,0,0,0,0,0,0,-1,755,1086,0,0
-462,-62,0,0,0,0,0,0,0,0,0,-1,762,1086,0,0
-455,-62,0,0,0,0,0,0,0,0,0,-1,769,1086,0,0
-448,-62,0,0,0,0,0,0,0,0,0,-1,776,1086,0,0
-441,-62,0,0,0,0,0,0,0,0,0,-1,783,1086,0,0
-434,-62,0,0,0,0,0,0,0,0,0,-1,790,1086,0,0
-427,-62,0,0,0,0,0,0,0,0,0,-1,797,1086,0,0
-420,-62,0,0,0,0,0,0,0,0,0,-1,804,1086,0,0
-413,-62,0,0,0,0,0,0,0,0,0,-1,811,1086,0,0
-406,-62,0,0,0,0,0,0,0,0,0,-1,818,1086,0,0
-399,-62,0,0,0,0,0,0,0,0,0,-1,825,1086,0,0
-392,-62,0,0,0,0,0,0,0,0,0,-1,832,1086,0,0
-385,-62,0,0,0,0,0,0,0,0,0,-1,839,1086,0,0
-378,-62,0,0,0,0,0,0,0,0,0,-1,846,1086,0,0
-371,-62,0,0,0,0,0,0,0,0,0,-1,853,1086,0,0
-364,-62,0,0,0,0,0,0,0,0,0,-1,860,1086,0,0
-357,-62,0,0,0,0,0,0,0,0,0,-1,867,1086,0,0
-350,-62,0,0,0,0,0,0,0,0,0,-1,874,1086,0,0
-343,-62,0,0,0,0,0,0,0,0,0,-1,881,1086,0,0
-336,-62,0,0,0,0,0,0,0,0,0,-1,888,1086,0,0
-329,-62,0,0,0,0,0,0,0,0,0,-1,895,1086,0,0
-322,-62,0,0,0,0,0,0,0,0,0,-1,902,1086,0,0
-315,-62,0,0,0,0,0,0,0,0,0,-1,909,1086,0,0
-308,-62,0,0,0,0,0,0,0,0,0,-1,916,1086,0,0
-301,-62,0,0,0,0,0,0,0,0,0,-1,923,1086,0,0
-294,-62,0,0,0,0,0,0,0,0,0,-1,930,1086,0,0
-287,-62,0,0,0,0,0,0,0,0,0,-1,937,1086,0,0
-280,-62,0,0,0,0,0,0,0,0,0,-1,944,1086,0,0
-273,-62,0,0,0,0,0,0,0,0,0,-1,951,1086,0,0
-266,-62,0,0,0,0,0,0,0,0,0,-1,958,1086,0,0
-259,-62,0,0,0,0,0,0,0,0,0,-1,965,1086,0,0
-252,-62,0,0,0,0,0,0,0,0,0,-1,972,1086,0,0
-245,-62,0,0,0,0,0,0,0,0,0,-1,979,1086,0,0
-238,-62,0,0,0,0,0,0,0,0,0,-1,986,1086,0,0
-231,-62,0,0,0,0,0,0,0,0,0,-1,993,1086,0,0
-224,-62,0,0,0,0,0,0,0,0,0,-1,1000,1086,0,0
-217,-62,0,0,0,0,0,0,0,0,0,-1,1007,1086,0,0
-210,-62,0,0,0,0,0,0,0,0,0,-1,1014,1086,0,0
-203,-62,0,0,0,0,0,0,0,0,0,-1,1021,1086,0,0
-196,-62,0,0,0,0,0,0,0,0,0,-1,1028,1086,0,0
-189,-62,0,0,0,0,0,0,0,0,0,-1,1035,1086,0,0
-182,-62,0,0,0,0,0,0,0,0,0,-1,1042,1086,0,0
-175,-62,0,0,0,0,0,0,0,0,0,-1,1049,1086,0,0
-168,-62,0,0,0,0,0,0,0,0,0,-1,1056,1086,0,0
-161,-62,0,0,0,0,0,0,0,0,0,-1,1063,1086,0,0
-154,-62,0,0,0,0,0,0,0,0,0,-1,1070,1086,0,0
-147,-62,0,0,0,0,0,0,0,0,0,-1,1077,1086,0,0
-140,-62,0,0,0,0,0,0,0,0,0,-1,1084,1086,0,0
-133,-62,0,0,0,0,0,0,0,0,0,-1,1091,1086,0,0
-126,-62,0,0,0,0,0,0,0,0,0,-1,1098,1086,0,0
-119,-62,0,0,0,0,0,0,0,0,0,-1,1105,1086,0,0
-112,-62,0,0,0,0,0,0,0,0,0,-1,1112,1086,0,0
-105,-62,0,0,0,0,0,0,0,0,0,-1,1119,1086,0,0
-98,-62,0,0,0,0,0,0,0,0,0,-1,1126,1086,0,0
-91,-62,0,0,0,0,0,0,0,0,0,-1,1133,1086,0,0
-84,-62,0,0,0,0,0,0,0,0,0,-1,1140,1086,0,0
-77,-62,0,0,0,0,0,0,0,0,0,-1,1147,1086,0,0
-70,-62,0,0,0,0,0,0,0,0,0,-1,1154,1086,0,0
-63,-62,0,0,0,0,0,0,0,0,0,-1,1161,1086,0,0
-56,-62,0,0,0,0,0,0,0,0,0,-1,1168,1086,0,0
-49,-62,0,0,0,0,0,0,0,0,0,-1,1175,1086,0,0
-42,-62,0,0,0,0,0,0,0,0,0,-1,1182,1086,0,0
-35,-62,0,0,0,0,0,0,0,0,0,-1,1189,1086,0,0
-28,-62,0,0,0,0,0,0,0,0,0,-1,1196,1086,0,0
-21,-62,0,0,0,0,0,0,0,0,0,-1,1203,1086,0,0
-14,-62,0,0,0,0,0,0,0,0,0,-1,1210,1086,0,0
-7,-62,0,0,0,0,0,0,0,0,0,-1,1217,1086,0,0
0,-62,0,0,0,0,0,0,0,0,0,-1,1224,1086,0,0
7,-62,0,0,0,0,0,0,0,0,0,-1,1231,1086,0,0
14,-62,0,0,0,0,0,0,0,0,0,-1,1238,1086,0,0
21,-62,0,0,0,0,0,0,0,0,0,-1,1245,1086,0,0
28,-62,0,0,0,0,0,0,0,0,0,-1,1252,1086,0,0
35,-62,0,0,0,0,0,0,0,0,0,-1,1259,1086,0,0
42,-62,0,0,0,0,0,0,0,0,0,-1,1266,1086,0,0
49,-62,0,0,0,0,0,0,0,0,0,-1,1273,1086,0,0
56,-62,0,0,0,0,0,0,0,0,0,-1,1280,1086,0,0
63,-62,0,0,0,0,0,0,0,0,0,-1,1287,1086,0,0
70,-62,0,0,0,0,0,0,0,0,0,-1,1294,1086,0,0
77,-62,0,0,0,0,0,0,0,0,0,-1,1301,1086,0,0
84,-62,0,0,0,0,0,0,0,0,0,-1,1308,1086,0,0
91,-62,0,0,0,0,0,0,0,0,0,-1,1315,1086,0,0
98,-62,0,0,0,0,0,0,0,0,0,-1,1322,1086,0,0
105,-62,0,0,0,0,0,0,0,0,0,-1,1329,1086,0,0
112,-62,0,0,0,0,0,0,0,0,0,-1,1336,1086,0,0
119,-62,0,0,0,0,0,0,0,0,0,-1,1343,1086,0,0
126,-62,0,0,0,0,0,0,0,0,0,-1,1350,1086,0,0
133,-62,0,0,0,0,0,0,0,0,0,-1,1357,1086,0,0
140,-62,0,0,0,0,0,0,0,0,0,-1,1364,1086,0,0
147,-62,0,0,0,0,0,0,0,0,0,-1,1371,1086,0,0
154,-62,0,0,0,0,0,0,0,0,0,-1,1378,1086,0,0
161,-62,0,0,0,0,0,0,0,0,0,-1,1385,1086,0,0
168,-62,0,0,0,0,0,0,0,0,0,-1,1392,1086,0,0
175,-62,0,0,0,0,0,0,0,0,0,-1,1399,1086,0,0
182,-62,0,0,0,0,0,0,0,0,0,-1,1406,1086,0,0
189,-62,0,0,0,0,0,0,0,0,0,-1,1413,1086,0,0
196,-62,0,0,0,0,0,0,0,0,0,-1,1420,1086,0,0
203,-62,0,0,0,0,0,0,0,0,0,-1,1427,1086,0,0
210,-62,0,0,0,0,0,0,0,0,0,-1,1434,1086,0,0
217,-62,0,0,0,0,0,0,0,0,0,-1,1441,1086,0,0
224,-62,0,0,0,0,0,0,0,0,0,-1,1448,1086,0,0
231,-62,0,0,0,0,0,0,0,0,0,-1,1455,1086,0,0
238,-62,0,0,0,0,0,0,0,0,0,-1,1462,1086,0,0
245,-62,0,0,0,0,0,0,0,0,0,-1,1469,1086,0,0
252,-62,0,0,0,0,0,0,0,0,0,-1,1476,1086,0,0
259,-62,0,0,0,0,0,0,0,0,0,-1,1483,1086,0,0
266,-62,0,0,0,0,0,0,0,0,0,-1,1490,1086,0,0
273,-62,0,0,0,0,0,0,0,0,0,-1,1497,1086,0,0
280,-62,0,0,0,0,0,0,0,0,0,-1,1504,1086,0,0
287,-62,0,0,0,0,0,0,0,0,0,-1,1511,1086,0,0
294,-62,0,0,0,0,0,0,0,0,0,-1,1518,1086,0,0
301,-62,0,0,0,0,0,0,0,0,0,-1,1525,1086,0,0
308,-62,0,0,0,0,0,0,0,0,0,-1,1532,1086,0,0
315,-62,0,0,0,0,0,0,0,0,0,-1,1539,1086,0,0
322,-62,0,0,0,0,0,0,0,0,0,-1,1546,1086,0,0
329,-62,0,0,0,0,0,0,0,0,0,-1,1553,1086,0,0
336,-62,0,0,0,0,0,0,0,0,0,-1,1560,1086,0,0
343,-62,0,0,0,0,0,0,0,0,0,-1,1567,1086,0,0
350,-62,0,0,0,0,0,0,0,0,0,-1,1574,1086,0,0
357,-62,0,0,0,0,0,0,0,0,0,-1,1581,1086,0,0
364,-62,0,0,0,0,0,0,0,0,0,-1,1588,1086,0,0
371,-62,0,0,0,0,0,0,0,0,0,-1,1595,1086,0,0
378,-62,0,0,0,0,0,0,0,0,0,-1,1602,1086,0,0
385,-62,0,0,0,0,0,0,0,0,0,-1,1609,1086,0,0
392,-62,0,0,0,0,0,0,0,0,0,-1,1616,1086,0,0
399,-62,0,0,0,0,0,0,0,0,0,-1,1623,1086,0,0
406,-62,0,0,0,0,0,0,0,0,0,-1,1630,1086,0,0
413,-62,0,0,0,0,0,0,0,0,0,-1,1637,1086,0,0
420,-62,0,0,0,0,0,0,0,0,0,-1,1644,1086,0,0
427,-62,0,0,0,0,0,0,0,0,0,-1,1651,1086,0,0
434,-62,0,0,0,0,0,0,0,0,0,-1,1658,1086,0,0
441,-62,0,0,0,0,0,0,0,0,0,-1,1665,1086,0,0
448,-62,0,0,0,0,0,0,0,0,0,-1,1672,1086,0,0
455,-62,0,0,0,0,0,0,0,0,0,-1,1679,1086,0,0
462,-62,0,0,0,0,0,0,0,0,0,-1,1686,1086,0,0
469,-62,0,0,0,0,0,0,0,0,0,-1,1693,1086,0,0
476,-62,0,0,0,0,0,0,0,0,0,-1,1700,1086,0,0
483,-62,0,0,0,0,0,0,0,0,0,-1,1707,1086,0,0
490,-62,0,0,0,0,0,0,0,0,0,-1,1714,1086,0,0
497,-62,0,0,0,0,0,0,0,0,0,-1,1721,1086,0,0
504,-62,0,0,0,0,0,0,0,0,0,-1,1728,1086,0,0
511,-62,0,0,0,0,0,0,0,0,0,-1,1735,1086,0,0
518,-62,0,0,0,0,0,0,0,0,0,-1,1742,1086,0,0
525,-62,0,0,0,0,0,0,0,0,0,-1,1749,1086,0,0
532,-62,0,0,0,0,0,0,0,0,0,-1,1756,1086,0,0
539,-62,0,0,0,0,0,0,0,0,0,-1,1763,1086,0,0
546,-62,0,0,0,0,0,0,0,0,0,-1,1770,1086,0,0
553,-62,0,0,0,0,0,0,0,0,0,-1,1777,1086,0,0
560,-62,0,0,0,0,0,0,0,0,0,-1,1784,1086,0,0
567,-62,0,0,0,0,0,0,0,0,0,-1,1791,1086,0,0
574,-62,0,0,0,0,0,0,0,0,0,-1,1798,1086,0,0
581,-62,0,0,0,0,0,0,0,0,0,-1,1805,1086,0,0
588,-62,0,0,0,0,0,0,0,0,0,-1,1812,1086,0,0
595,-62,0,0,0,0,0,0,0,0,0,-1,1819,1086,0,0
602,-62,0,0,0,0,0,0,0,0,0,-1,1826,1086,0,0
609,-62,0,0,0,0,0,0,0,0,0,-1,1833,1086,0,0
616,-62,0,0,0,0,0,0,0,0,0,-1,1840,1086,0,0
623,-62,0,0,0,0,0,0,0,0,0,-1,1847,1086,0,0
630,-62,0,0,0,0,0,0,0,0,0,-1,1854,1086,0,0
637,-62,0,0,0,0,0,0,0,0,0,-1,1861,1086,0,0
644,-62,0,0,0,0,0,0,0,0,0,-1,1868,1086,0,0
651,-62,80.2455,2.18958,0.00830965,-0.00122708,0.000337138,0.00832155,-0.00123898,0.0352928,0.00600347,0.0437023,1875,1086,80.2455,-2.18963
658,-62,80.7432,2.22363,0.00650091,-0.00116603,0.000255203,0.00650939,-0.00117451,0.0332371,0.00477945,0.0407974,1882,1086,80.7432,-2.22369
665,-62,80.7158,2.22803,0.00496846,-0.0010497,0.000209887,0.00497577,-0.00105701,0.0348192,0.00371992,0.0410571,1889,1086,80.7159,-2.22798
672,-62,80.6713,2.25647,0.00365503,-0.000874443,0.000171859,0.00366154,-0.000880954,0.0378698,0.00278158,0.0397395,1896,1086,80.6713,-2.25646
679,-62,80.6897,2.25891,0.00249408,-0.00067146,0.000136436,0.00249995,-0.00067733,0.042994,0.00193239,0.0382902,1903,1086,80.6897,-2.25886
686,-62,80.6141,2.1521,0.00136458,-0.000735343,9.72986e-05,0.00136908,-0.000739842,0.0462024,0.00123552,0.0413251,1910,1086,80.6141,-2.15205
693,-62,80.613,2.07861,0.000614192,-0.000951274,0.000252057,0.000653775,-0.000990857,0.155768,0.000956153,0.0387806,1917,1086,80.613,-2.07861
700,-62,80.6508,2.09412,0.000207701,-0.00100522,0.000406829,0.000331517,-0.00112903,0.295439,0.000884161,0.0315224,1924,1086,80.6507,-2.09416
707,-62,80.6132,2.10571,-0.000590651,-0.00079878,0.000736483,4.90832e-05,-0.00143851,0.715213,0.000975783,0.0244412,1931,1086,80.6132,-2.10573
714,-62,80.621,2.01855,-0.00152353,-0.000333726,0.00107608,0.000300952,-0.00215821,1.03791,0.0015489,0.0408418,1938,1086,80.621,-2.01854
721,-62,80.6444,1.95581,0,0,0,0,0,0,0,-1,1945,1086,80.6444,-1.95583
728,-62,78.4366,9.02124,0,0,0,0,0,0,0,-1,1952,1086,78.4366,-9.02129
735,-62,78.3456,8.4126,-0.00430257,0.0025325,0.00211073,0.00313178,-0.00490184,1.29416,0.00467559,0.033267,1959,1086,78.3456,-8.41257
742,-62,78.2732,7.99854,-0.00463563,0.00372533,0.00270359,0.00452338,-0.00543369,1.28376,0.00575672,0.035027,1966,1086,78.2732,-7.99858
749,-62,78.252,7.52124,-0.00537201,0.00531043,0.00342781,0.00631574,-0.00637732,1.28551,0.00732837,0.0268354,1973,1086,78.2519,-7.52125
756,-62,78.1123,7.09509,-0.00617596,0.00769681,0.00380825,0.00867346,-0.00715262,1.31975,0.00915124,0.0173557,1980,1086,78.1123,-7.09509
763,-62,78.0359,6.5946,-0.00645993,0.0106302,0.00412324,0.011573,-0.00740271,1.34601,0.0110434,0.0205566,1987,1086,78.0359,-6.59466
770,-62,77.9585,6.0686,-0.0062625,0.0145022,0.00435338,0.0153779,-0.00713826,1.37228,0.0132867,0.0190585,1994,1086,77.9585,-6.06857
777,-62,77.7588,5.55518,-0.00530115,0.0189216,0.00439122,0.0196931,-0.00607264,1.39688,0.0155533,0.0191735,2001,1086,77.7588,-5.55519
784,-62,77.7043,5.09912,-0.00391511,0.0232771,0.00418871,0.0239077,-0.00454571,1.42137,0.0176499,0.0300656,2008,1086,77.7044,-5.09916
791,-62,77.6648,4.70642,-0.00209252,0.0275466,0.00363634,0.0279862,-0.00253213,1.45049,0.0195562,0.0450519,2015,1086,77.6648,-4.70639
798,-62,77.5315,4.65149,0.000490825,0.0316627,0.00263169,0.0318833,0.000270206,1.48716,0.0211661,0.0450319,2022,1086,77.5316,-4.65155
805,-62,77.3362,4.32959,0.00399814,0.0356838,0.000981645,0.0357142,0.00396775,1.53986,0.0226033,0.0449008,2029,1086,77.3362,-4.32961
812,-62,77.7168,3.67981,0.0077724,0.0395529,-0.00132248,0.0396078,0.00771746,-1.52928,0.0242457,0.0438637,2036,1086,77.7169,-3.67982
-700,-69,-63.3404,-4.04761,0,0,0,0,0,0,0,-1,524,1093,-63.3404,4.04757
-693,-69,-56.0118,-0.672729,0,0,0,0,0,0,0,-1,531,1093,-56.0118,0.672703
-686,-69,-63.7752,-1.80518,0,0,0,0,0,0,0,-1,538,1093,-63.7752,1.80514
-679,-69,-60.9651,0.515137,0,0,0,0,0,0,0,-1,545,1093,-60.9651,-0.515081
-672,-69,-61.1746,1.7738,0,0,0,0,0,0,0,-1,552,1093,-61.1746,-1.77384
-665,-69,-60.8883,2.83252,0,0,0,0,0,0,0,-1,559,1093,-60.8883,-2.83247
-658,-69,-60.6426,3.87988,0,0,0,0,0,0,0,-1,566,1093,-60.6426,-3.87984
-651,-69,-60.4377,4.38599,0,0,0,0,0,0,0,-1,573,1093,-60.4377,-4.38595
-644,-69,-61.2089,4.96143,-0.0184807,0.0320832,0.0191287,0.0385043,-0.0249018,1.24694,0.0368873,0.0476296,580,1093,-61.2089,-4.96137
-637,-69,-61.3118,5.46423,-0.0137889,0.0230593,0.0106773,0.0259296,-0.0166592,1.30818,0.0247821,0.0200262,587,1093,-61.3118,-5.46421
-630,-69,-61.4049,6.00305,-0.00922478,0.0147767,0.00423039,0.0155005,-0.00994858,1.40134,0.0148091,0.0168061,594,1093,-61.4049,-6.00309
-623,-69,-61.4299,6.53247,-0.00599778,0.0078266,0.000192463,0.00782928,-0.00600046,1.55688,0.00800784,0.0211746,601,1093,-61.4299,-6.53253
-616,-69,-61.4738,7.06897,-0.00343659,0.00315748,-0.00208149,0.00375955,-0.00403866,-1.28923,0.00450326,0.0267493,608,1093,-61.4738,-7.06891
-609,-69,-61.4853,7.53552,-0.00167128,0.000584815,-0.00311569,0.00277038,-0.00385685,-0.959084,0.00384333,0.0220798,615,1093,-61.4853,-7.53553
-602,-69,-61.4346,8.0824,-0.000669111,-0.000367436,-0.00307071,0.00255614,-0.00359268,-0.809939,0.0035668,0.0205243,622,1093,-61.4346,-8.08244
-595,-69,-61.3292,8.47095,-0.000180298,-0.00142507,-0.00297608,0.00223778,-0.00384315,-0.682319,0.00355138,0.04737,629,1093,-61.3292,-8.471
-588,-69,-61.3735,8.70605,0,0,0,0,0,0,0,-1,636,1093,-61.3735,-8.70603
-581,-69,-63.6395,0.471802,0,0,0,0,0,0,0,-1,643,1093,-63.6395,-0.471745
-574,-69,-63.6767,0.373291,0.000566402,-0.00301963,-0.00255834,0.00189749,-0.00435072,-0.47975,0.00369893,0.0334132,650,1093,-63.6767,-0.373246
-567,-69,-63.6853,0.164551,0.00052022,-0.00299371,-0.00227074,0.00163435,-0.00410784,-0.456137,0.00341624,0.0387549,657,1093,-63.6853,-0.164512
-560,-69,-63.7343,-0.164063,-3.46218e-06,-0.00261234,-0.0019098,0.00100487,-0.00362067,-0.485778,0.00280929,0.0409835,664,1093,-63.7343,0.164094
-553,-69,-63.5377,0.0273438,-0.00101967,-0.00199986,-0.00148848,5.73252e-05,-0.00307686,-0.62636,0.00207061,0.0409237,671,1093,-63.5377,-0.0273152
-546,-69,-63.5591,0.262329,-0.00235407,-0.00137482,-0.00116155,-0.000603917,-0.00312498,-0.98486,0.00191404,0.0372429,678,1093,-63.5591,-0.262321
-539,-69,-63.6349,0.313843,-0.00372838,-0.00143133,-0.00129314,-0.000850305,-0.0043094,-1.14852,0.00263562,0.0391349,685,1093,-63.6349,-0.313881
-532,-69,-63.5848,0.325195,-0.0051743,-0.00145909,-0.00160453,-0.00086206,-0.00577132,-1.21458,0.00359482,0.0408896,692,1093,-63.5849,-0.325184
-525,-69,0,0,0,0,0,0,0,0,0,-1,699,1093,0,0
-518,-69,0,0,0,0,0,0,0,0,0,-1,706,1093,0,0
-511,-69,0,0,0,0,0,0,0,0,0,-1,713,1093,0,0
-504,-69,0,0,0,0,0,0,0,0,0,-1,720,1093,0,0
-497,-69,0,0,0,0,0,0,0,0,0,-1,727,1093,0,0
-490,-69,0,0,0,0,0,0,0,0,0,-1,734,1093,0,0
-483,-69,0,0,0,0,0,0,0,0,0,-1,741,1093,0,0
-476,-69,0,0,0,0,0,0,0,0,0,-1,748,1093,0,0
-469,-69,0,0,0,0,0,0,0,0,0,-1,755,1093,0,0
-462,-69,0,0,0,0,0,0,0,0,0,-1,762,1093,0,0
-455,-69,0,0,0,0,0,0,0,0,0,-1,769,1093,0,0
-448,-69,0,0,0,0,0,0,0,0,0,-1,776,1093,0,0
-441,-69,0,0,0,0,0,0,0,0,0,-1,783,1093,0,0
-434,-69,0,0,0,0,0,0,0,0,0,-1,790,1093,0,0
-427,-69,0,0,0,0,0,0,0,0,0,-1,797,1093,0,0
-420,-69,0,0,0,0,0,0,0,0,0,-1,804,1093,0,0
-413,-69,0,0,0,0,0,0,0,0,0,-1,811,1093,0,0
-406,-69,0,0,0,0,0,0,0,0,0,-1,818,1093,0,0
-399,-69,0,0,0,0,0,0,0,0,0,-1,825,1093,0,0
-392,-69,0,0,0,0,0,0,0,0,0,-1,832,1093,0,0
-385,-69,0,0,0,0,0,0,0,0,0,-1,839,1093,0,0
-378,-69,0,0,0,0,0,0,0,0,0,-1,846,1093,0,0
-371,-69,0,0,0,0,0,0,0,0,0,-1,853,1093,0,0
-364,-69,0,0,0,0,0,0,0,0,0,-1,860,1093,0,0
-357,-69,0,0,0,0,0,0,0,0,0,-1,867,1093,0,0
-350,-69,0,0,0,0,0,0,0,0,0,-1,874,1093,0,0
-343,-69,0,0,0,0,0,0,0,0,0,-1,881,1093,0,0
-336,-69,0,0,0,0,0,0,0,0,0,-1,888,1093,0,0
-329,-69,0,0,0,0,0,0,0,0,0,-1,895,1093,0,0
-322,-69,0,0,0,0,0,0,0,0,0,-1,902,1093,0,0
-315,-69,0,0,0,0,0,0,0,0,0,-1,909,1093,0,0
-308,-69,0,0,0,0,0,0,0,0,0,-1,916,1093,0,0
-301,-69,0,0,0,0,0,0,0,0,0,-1,923,1093,0,0
-294,-69,0,0,0,0,0,0,0,0,0,-1,930,1093,0,0
-287,-69,0,0,0,0,0,0,0,0,0,-1,937,1093,0,0
-280,-69,0,0,0,0,0,0,0,0,0,-1,944,1093,0,0
-273,-69,0,0,0,0,0,0,0,0,0,-1,951,1093,0,0
-266,-69,0,0,0,0,0,0,0,0,0,-1,958,1093,0,0
-259,-69,0,0,0,0,0,0,0,0,0,-1,965,1093,0,0
-252,-69,0,0,0,0,0,0,0,0,0,-1,972,1093,0,0
-245,-69,0,0,0,0,0,0,0,0,0,-1,979,1093,0,0
-238,-69,0,0,0,0,0,0,0,0,0,-1,986,1093,0,0
-231,-69,0,0,0,0,0,0,0,0,0,-1,993,1093,0,0
-224,-69,0,0,0,0,0,0,0,0,0,-1,1000,1093,0,0
-217,-69,0,0,0,0,0,0,0,0,0,-1,1007,1093,0,0
-210,-69,0,0,0,0,0,0,0,0,0,-1,1014,1093,0,0
-203,-69,0,0,0,0,0,0,0,0,0,-1,1021,1093,0,0
-196,-69,0,0,0,0,0,0,0,0,0,-1,1028,1093,0,0
-189,-69,0,0,0,0,0,0,0,0,0,-1,1035,1093,0,0
-182,-69,0,0,0,0,0,0,0,0,0,-1,1042,1093,0,0
-175,-69,0,0,0,0,0,0,0,0,0,-1,1049,1093,0,0
-168,-69,0,0,0,0,0,0,0,0,0,-1,1056,1093,0,0
-161,-69,0,0,0,0,0,0,0,0,0,-1,1063,1093,0,0
-154,-69,0,0,0,0,0,0,0,0,0,-1,1070,1093,0,0
-147,-69,0,0,0,0,0,0,0,0,0,-1,1077,1093,0,0
-140,-69,0,0,0,0,0,0,0,0,0,-1,1084,1093,0,0
-133,-69,0,0,0,0,0,0,0,0,0,-1,1091,1093,0,0
-126,-69,0,0,0,0,0,0,0,0,0,-1,1098,1093,0,0
-119,-69,0,0,0,0,0,0,0,0,0,-1,1105,1093,0,0
-112,-69,0,0,0,0,0,0,0,0,0,-1,1112,1093,0,0
-105,-69,0,0,0,0,0,0,0,0,0,-1,1119,1093,0,0
-98,-69,0,0,0,0,0,0,0,0,0,-1,1126,1093,0,0
-91,-69,0,0,0,0,0,0,0,0,0,-1,1133,1093,0,0
-84,-69,0,0,0,0,0,0,0,0,0,-1,1140,1093,0,0
-77,-69,0,0,0,0,0,0,0,0,0,-1,1147,1093,0,0
-70,-69,0,0,0,0,0,0,0,0,0,-1,1154,1093,0,0
-63,-69,0,0,0,0,0,0,0,0,0,-1,1161,1093,0,0
-56,-69,0,0,0,0,0,0,0,0,0,-1,1168,1093,0,0
-49,-69,0,0,0,0,0,0,0,0,0,-1,1175,1093,0,0
-42,-69,0,0,0,0,0,0,0,0,0,-1,1182,1093,0,0
-35,-69,0,0,0,0,0,0,0,0,0,-1,1189,1093,0,0
-28,-69,0,0,0,0,0,0,0,0,0,-1,1196,1093,0,0
-21,-69,0,0,0,0,0,0,0,0,0,-1,1203,1093,0,0
-14,-69,0,0,0,0,0,0,0,0,0,-1,1210,1093,0,0
-7,-69,0,0,0,0,0,0,0,0,0,-1,1217,1093,0,0
0,-69,0,0,0,0,0,0,0,0,0,-1,1224,1093,0,0
7,-69,0,0,0,0,0,0,0,0,0,-1,1231,1093,0,0
14,-69,0,0,0,0,0,0,0,0,0,-1,1238,1093,0,0
21,-69,0,0,0,0,0,0,0,0,0,-1,1245,1093,0,0
28,-69,0,0,0,0,0,0,0,0,0,-1,1252,1093,0,0
35,-69,0,0,0,0,0,0,0,0,0,-1,1259,1093,0,0
42,-69,0,0,0,0,0,0,0,0,0,-1,1266,1093,0,0
49,-69,0,0,0,0,0,0,0,0,0,-1,1273,1093,0,0
56,-69,0,0,0,0,0,0,0,0,0,-1,1280,1093,0,0
63,-69,0,0,0,0,0,0,0,0,0,-1,1287,1093,0,0
70,-69,0,0,0,0,0,0,0,0,0,-1,1294,1093,0,0
77,-69,0,0,0,0,0,0,0,0,0,-1,1301,1093,0,0
84,-69,0,0,0,0,0,0,0,0,0,-1,1308,1093,0,0
91,-69,0,0,0,0,0,0,0,0,0,-1,1315,1093,0,0
98,-69,0,0,0,0,0,0,0,0,0,-1,1322,1093,0,0
105,-69,0,0,0,0,0,0,0,0,0,-1,1329,1093,0,0
112,-69,0,0,0,0,0,0,0,0,0,-1,1336,1093,0,0
119,-69,0,0,0,0,0,0,0,0,0,-1,1343,1093,0,0
126,-69,0,0,0,0,0,0,0,0,0,-1,1350,1093,0,0
133,-69,0,0,0,0,0,0,0,0,0,-1,1357,1093,0,0
140,-69,0,0,0,0,0,0,0,0,0,-1,1364,1093,0,0
147,-69,0,0,0,0,0,0,0,0,0,-1,1371,1093,0,0
154,-69,0,0,0,0,0,0,0,0,0,-1,1378,1093,0,0
161,-69,0,0,0,0,0,0,0,0,0,-1,1385,1093,0,0
168,-69,0,0,0,0,0,0,0,0,0,-1,1392,1093,0,0
175,-69,0,0,0,0,0,0,0,0,0,-1,1399,1093,0,0
182,-69,0,0,0,0,0,0,0,0,0,-1,1406,1093,0,0
189,-69,0,0,0,0,0,0,0,0,0,-1,1413,1093,0,0
196,-69,0,0,0,0,0,0,0,0,0,-1,1420,1093,0,0
203,-69,0,0,0,0,0,0,0,0,0,-1,1427,1093,0,0
210,-69,0,0,0,0,0,0,0,0,0,-1,1434,1093,0,0
217,-69,0,0,0,0,0,0,0,0,0,-1,1441,1093,0,0
224,-69,0,0,0,0,0,0,0,0,0,-1,1448,1093,0,0
231,-69,0,0,0,0,0,0,0,0,0,-1,1455,1093,0,0
238,-69,0,0,0,0,0,0,0,0,0,-1,1462,1093,0,0
245,-69,0,0,0,0,0,0,0,0,0,-1,1469,1093,0,0
252,-69,0,0,0,0,0,0,0,0,0,-1,1476,1093,0,0
259,-69,0,0,0,0,0,0,0,0,0,-1,1483,1093,0,0
266,-69,0,0,0,0,0,0,0,0,0,-1,1490,1093,0,0
273,-69,0,0,0,0,0,0,0,0,0,-1,1497,1093,0,0
280,-69,0,0,0,0,0,0,0,0,0,-1,1504,1093,0,0
287,-69,0,0,0,0,0,0,0,0,0,-1,1511,1093,0,0
294,-69,0,0,0,0,0,0,0,0,0,-1,1518,1093,0,0
301,-69,0,0,0,0,0,0,0,0,0,-1,1525,1093,0,0
308,-69,0,0,0,0,0,0,0,0,0,-1,1532,1093,0,0
315,-69,0,0,0,0,0,0,0,0,0,-1,1539,1093,0,0
322,-69,0,0,0,0,0,0,0,0,0,-1,1546,1093,0,0
329,-69,0,0,0,0,0,0,0,0,0,-1,1553,1093,0,0
336,-69,0,0,0,0,0,0,0,0,0,-1,1560,1093,0,0
343,-69,0,0,0,0,0,0,0,0,0,-1,1567,1093,0,0
350,-69,0,0,0,0,0,0,0,0,0,-1,1574,1093,0,0
357,-69,0,0,0,0,0,0,0,0,0,-1,1581,1093,0,0
364,-69,0,0,0,0,0,0,0,0,0,-1,1588,1093,0,0
371,-69,0,0,0,0,0,0,0,0,0,-1,1595,1093,0,0
378,-69,0,0,0,0,0,0,0,0,0,-1,1602,1093,0,0
385,-69,0,0,0,0,0,0,0,0,0,-1,1609,1093,0,0
392,-69,0,0,0,0,0,0,0,0,0,-1,1616,1093,0,0
399,-69,0,0,0,0,0,0,0,0,0,-1,1623,1093,0,0
406,-69,0,0,0,0,0,0,0,0,0,-1,1630,1093,0,0
413,-69,0,0,0,0,0,0,0,0,0,-1,1637,1093,0,0
420,-69,0,0,0,0,0,0,0,0,0,-1,1644,1093,0,0
427,-69,0,0,0,0,0,0,0,0,0,-1,1651,1093,0,0
434,-69,0,0,0,0,0,0,0,0,0,-1,1658,1093,0,0
441,-69,0,0,0,0,0,0,0,0,0,-1,1665,1093,0,0
448,-69,0,0,0,0,0,0,0,0,0,-1,1672,1093,0,0
455,-69,0,0,0,0,0,0,0,0,0,-1,1679,1093,0,0
462,-69,0,0,0,0,0,0,0,0,0,-1,1686,1093,0,0
469,-69,0,0,0,0,0,0,0,0,0,-1,1693,1093,0,0
476,-69,0,0,0,0,0,0,0,0,0,-1,1700,1093,0,0
483,-69,0,0,0,0,0,0,0,0,0,-1,1707,1093,0,0
490,-69,0,0,0,0,0,0,0,0,0,-1,1714,1093,0,0
497,-69,0,0,0,0,0,0,0,0,0,-1,1721,1093,0,0
504,-69,0,0,0,0,0,0,0,0,0,-1,1728,1093,0,0
511,-69,0,0,0,0,0,0,0,0,0,-1,1735,1093,0,0
518,-69,0,0,0,0,0,0,0,0,0,-1,1742,1093,0,0
525,-69,0,0,0,0,0,0,0,0,0,-1,1749,1093,0,0
532,-69,0,0,0,0,0,0,0,0,0,-1,1756,1093,0,0
539,-69,0,0,0,0,0,0,0,0,0,-1,1763,1093,0,0
546,-69,0,0,0,0,0,0,0,0,0,-1,1770,1093,0,0
553,-69,0,0,0,0,0,0,0,0,0,-1,1777,1093,0,0
560,-69,0,0,0,0,0,0,0,0,0,-1,1784,1093,0,0
567,-69,0,0,0,0,0,0,0,0,0,-1,1791,1093,0,0
574,-69,0,0,0,0,0,0,0,0,0,-1,1798,1093,0,0
581,-69,0,0,0,0,0,0,0,0,0,-1,1805,1093,0,0
588,-69,0,0,0,0,0,0,0,0,0,-1,1812,1093,0,0
595,-69,0,0,0,0,0,0,0,0,0,-1,1819,1093,0,0
602,-69,0,0,0,0,0,0,0,0,0,-1,1826,1093,0,0
609,-69,0,0,0,0,0,0,0,0,0,-1,1833,1093,0,0
616,-69,0,0,0,0,0,0,0,0,0,-1,1840,1093,0,0
623,-69,0,0,0,0,0,0,0,0,0,-1,1847,1093,0,0
630,-69,0,0,0,0,0,0,0,0,0,-1,1854,1093,0,0
637,-69,0,0,0,0,0,0,0,0,0,-1,1861,1093,0,0
644,-69,0,0,0,0,0,0,0,0,0,-1,1868,1093,0,0
651,-69,80.0952,2.22766,0.00879183,-0.0025791,0.000455692,0.00881007,-0.00259733,0.0399897,0.00690398,0.0448045,1875,1093,80.0953,-2.22769
658,-69,80.4297,2.16516,0.00693206,-0.00223492,0.000325316,0.00694359,-0.00224645,0.0354284,0.00553206,0.0431108,1882,1093,80.4296,-2.16514
665,-69,80.7168,2.1499,0.0053396,-0.00189662,0.000218163,0.00534617,-0.00190319,0.0301124,0.00433992,0.0430351,1889,1093,80.7167,-2.14996
672,-69,80.6578,2.26733,0.00394592,-0.00153718,0.000101782,0.00394781,-0.00153907,0.0185543,0.00326802,0.0386195,1896,1093,80.6578,-2.26735
679,-69,80.6049,2.2793,0.00272697,-0.00119273,-9.93987e-06,0.002727,-0.00119275,-0.00253585,0.00232013,0.0380413,1903,1093,80.6048,-2.27935
686,-69,80.6505,2.09839,0.00162741,-0.00112585,-0.000133977,0.00163391,-0.00113235,-0.0485086,0.00160583,0.0407067,1910,1093,80.6505,-2.09833
693,-69,80.635,1.96716,0.000923772,-0.00126644,-1.82483e-05,0.000923924,-0.00126659,-0.00833101,0.00126984,0.0367216,1917,1093,80.635,-1.96715
700,-69,80.6115,1.99207,0.00056917,-0.00125402,8.33735e-05,0.000572975,-0.00125783,0.0456025,0.00108138,0.0293159,1924,1093,80.6114,-1.99203
707,-69,80.5957,2.04309,-0.000164613,-0.000986657,0.000407858,3.40468e-06,-0.00115467,0.390767,0.000770921,0.0240642,1931,1093,80.5957,-2.04304
714,-69,80.6387,2.0354,-0.00104408,-0.000499452,0.000772071,4.6921e-05,-0.00159045,0.95494,0.00107628,0.0389448,1938,1093,80.6387,-2.03536
721,-69,80.6992,2.03589,0,0,0,0,0,0,0,-1,1945,1093,80.6992,-2.03586
728,-69,77.458,9.20447,0,0,0,0,0,0,0,-1,1952,1093,77.458,-9.20445
735,-69,77.7875,8.58569,-0.00373434,0.00217203,0.00182846,0.00269225,-0.00425457,1.29361,0.00404442,0.0486411,1959,1093,77.7875,-8.5857
742,-69,77.6688,8.17761,-0.00399851,0.0033257,0.00246606,0.00407863,-0.00475144,1.27447,0.00510297,0.0364568,1966,1093,77.6688,-8.17763
749,-69,77.6826,7.57629,0,0,0,0,0,0,0,-1,1973,1093,77.6826,-7.57632
756,-69,77.5566,7.08618,-0.00552521,0.00720379,0.00374386,0.00822328,-0.0065447,1.30493,0.00854463,0.0196178,1980,1093,77.5566,-7.08617
763,-69,77.5012,6.55371,-0.00586343,0.0101405,0.00424856,0.0111985,-0.00692136,1.32675,0.0105582,0.021497,1987,1093,77.5012,-6.55366
770,-69,77.363,6.06653,-0.00572347,0.0140503,0.00472236,0.0151202,-0.00679337,1.348,0.0129527,0.0232394,1994,1093,77.3631,-6.0665
777,-69,77.1638,5.61804,-0.00493752,0.018488,0.00507647,0.0195408,-0.0059903,1.36631,0.0154169,0.0279594,2001,1093,77.1639,-5.61806
784,-69,77.1531,5.16699,-0.00380328,0.0229231,0.00527984,0.0239283,-0.00480851,1.38266,0.0177732,0.032971,2008,1093,77.153,-5.16699
791,-69,77.3831,4.82153,-0.00234217,0.0273428,0.0052698,0.0282505,-0.00324993,1.40021,0.0200052,0.0421269,2015,1093,77.383,-4.82158
798,-69,77.4829,4.3894,-0.000316923,0.0316996,0.00499686,0.0324614,-0.00107866,1.41952,0.0220093,0.043336,2022,1093,77.4828,-4.38941
805,-69,77.2825,4.11829,0.00236953,0.0360824,0.00427229,0.0366154,0.00183655,1.44668,0.0238217,0.0438254,2029,1093,77.2824,-4.11825
812,-69,77.522,3.86401,0.00494133,0.0404523,0.00316502,0.0407322,0.00466145,1.48259,0.025742,0.0452808,2036,1093,77.5221,-3.86399
-700,-76,0,0,0,0,0,0,0,0,0,-1,524,1100,0,0
-693,-76,-56.6375,-0.542725,0,0,0,0,0,0,0,-1,531,1100,-56.6375,0.542741
-686,-76,-56.9846,0.424072,0,0,0,0,0,0,0,-1,538,1100,-56.9846,-0.42412
-679,-76,-57.2389,1.08789,0,0,0,0,0,0,0,-1,545,1100,-57.2389,-1.08786
-672,-76,-57.7786,1.90295,0,0,0,0,0,0,0,-1,552,1100,-57.7786,-1.903
-665,-76,-58.1492,3.09668,0,0,0,0,0,0,0,-1,559,1100,-58.1492,-3.09674
-658,-76,-59.5177,3.39111,0,0,0,0,0,0,0,-1,566,1100,-59.5177,-3.39117
-651,-76,-55.1196,3.9519,0,0,0,0,0,0,0,-1,573,1100,-55.1196,-3.95193
-644,-76,-60.6309,4.83423,0,0,0,0,0,0,0,-1,580,1100,-60.6309,-4.83423
-637,-76,-60.6944,5.3894,-0.0144463,0.017585,0.00990373,0.0203997,-0.0172611,1.29388,0.0217686,0.0250863,587,1100,-60.6944,-5.38936
-630,-76,-60.7332,5.93542,-0.0100976,0.0113212,0.00375493,0.0119604,-0.0107368,1.40218,0.0131106,0.0168759,594,1100,-60.7331,-5.93547
-623,-76,-60.7859,6.48352,-0.00680984,0.00584044,-0.000137232,0.00584193,-0.00681133,-1.55995,0.00731251,0.0229774,601,1100,-60.7859,-6.48347
-616,-76,-60.8882,7.09094,-0.00423603,0.00240847,-0.00220712,0.0030748,-0.00490235,-1.2776,0.00464572,0.0244845,608,1100,-60.8882,-7.0909
-609,-76,-60.9057,7.59229,-0.00250304,0.00039605,-0.0031453,0.00240975,-0.00451675,-1.00132,0.00406022,0.0223814,615,1100,-60.9057,-7.5923
-602,-76,-60.8444,8.16248,-0.00144302,-0.000260374,-0.00299566,0.00220177,-0.00390516,-0.882842,0.00357126,0.0217686,622,1100,-60.8444,-8.16247
-595,-76,-60.8463,8.63794,-0.000833635,-0.00108867,-0.00280446,0.0018462,-0.00376851,-0.762679,0.00330438,0.0424833,629,1100,-60.8462,-8.63799
-588,-76,-60.982,9.10193,0,0,0,0,0,0,0,-1,636,1100,-60.982,-9.10189
-581,-76,-63.5601,0.236816,0,0,0,0,0,0,0,-1,643,1100,-63.5601,-0.236859
-574,-76,-63.632,0.151245,0.000315812,-0.00267616,-0.00242971,0.00167315,-0.0040335,-0.509454,0.00338737,0.0366822,650,1100,-63.632,-0.151303
-567,-76,-63.7871,0.0919189,0.000508761,-0.00276161,-0.00216137,0.00158381,-0.00383665,-0.461558,0.00321834,0.041096,657,1100,-63.7871,-0.0919151
-560,-76,-63.626,0.100708,0.000235991,-0.00254162,-0.00184419,0.00115582,-0.00346145,-0.462666,0.00277436,0.0421954,664,1100,-63.626,-0.100743
-553,-76,-63.4449,0.113159,-0.000655406,-0.00210815,-0.00151529,0.000298619,-0.00306217,-0.561899,0.00214792,0.0450641,671,1100,-63.445,-0.11319
-546,-76,-63.5669,0.326782,-0.00197614,-0.00165395,-0.00136623,-0.000439351,-0.00319075,-0.844083,0.00199689,0.041574,678,1100,-63.5669,-0.326809
-539,-76,-63.5726,0.358521,-0.00332704,-0.0018405,-0.00177774,-0.000656903,-0.00451064,-0.983402,0.0028138,0.0400081,685,1100,-63.5727,-0.358465
-532,-76,-63.5091,0.392212,-0.00474854,-0.0020247,-0.0024571,-0.000577322,-0.00619592,-1.03846,0.00395225,0.0416756,692,1100,-63.5091,-0.392195
-525,-76,0,0,0,0,0,0,0,0,0,-1,699,1100,0,0
-518,-76,0,0,0,0,0,0,0,0,0,-1,706,1100,0,0
-511,-76,0,0,0,0,0,0,0,0,0,-1,713,1100,0,0
-504,-76,0,0,0,0,0,0,0,0,0,-1,720,1100,0,0
-497,-76,0,0,0,0,0,0,0,0,0,-1,727,1100,0,0
-490,-76,0,0,0,0,0,0,0,0,0,-1,734,1100,0,0
-483,-76,0,0,0,0,0,0,0,0,0,-1,741,1100,0,0
-476,-76,0,0,0,0,0,0,0,0,0,-1,748,1100,0,0
-469,-76,0,0,0,0,0,0,0,0,0,-1,755,1100,0,0
-462,-76,0,0,0,0,0,0,0,0,0,-1,762,1100,0,0
-455,-76,0,0,0,0,0,0,0,0,0,-1,769,1100,0,0
-448,-76,0,0,0,0,0,0,0,0,0,-1,776,1100,0,0
-441,-76,0,0,0,0,0,0,0,0,0,-1,783,1100,0,0
-434,-76,0,0,0,0,0,0,0,0,0,-1,790,1100,0,0
-427,-76,0,0,0,0,0,0,0,0,0,-1,797,1100,0,0
-420,-76,0,0,0,0,0,0,0,0,0,-1,804,1100,0,0
-413,-76,0,0,0,0,0,0,0,0,0,-1,811,1100,0,0
-406,-76,0,0,0,0,0,0,0,0,0,-1,818,1100,0,0
-399,-76,0,0,0,0,0,0,0,0,0,-1,825,1100,0,0
-392,-76,0,0,0,0,0,0,0,0,0,-1,832,1100,0,0
-385,-76,0,0,0,0,0,0,0,0,0,-1,839,1100,0,0
-378,-76,0,0,0,0,0,0,0,0,0,-1,846,1100,0,0
-371,-76,0,0,0,0,0,0,0,0,0,-1,853,1100,0,0
-364,-76,0,0,0,0,0,0,0,0,0,-1,860,1100,0,0
-357,-76,0,0,0,0,0,0,0,0,0,-1,867,1100,0,0
-350,-76,0,0,0,0,0,0,0,0,0,-1,874,1100,0,0
-343,-76,0,0,0,0,0,0,0,0,0,-1,881,1100,0,0
-336,-76,0,0,0,0,0,0,0,0,0,-1,888,1100,0,0
-329,-76,0,0,0,0,0,0,0,0,0,-1,895,1100,0,0
-322,-76,0,0,0,0,0,0,0,0,0,-1,902,1100,0,0
-315,-76,0,0,0,0,0,0,0,0,0,-1,909,1100,0,0
-308,-76,0,0,0,0,0,0,0,0,0,-1,916,1100,0,0
-301,-76,0,0,0,0,0,0,0,0,0,-1,923,1100,0,0
-294,-76,0,0,0,0,0,0,0,0,0,-1,930,1100,0,0
-287,-76,0,0,0,0,0,0,0,0,0,-1,937,1100,0,0
-280,-76,0,0,0,0,0,0,0,0,0,-1,944,1100,0,0
-273,-76,0,0,0,0,0,0,0,0,0,-1,951,1100,0,0
-266,-76,0,0,0,0,0,0,0,0,0,-1,958,1100,0,0
-259,-76,0,0,0,0,0,0,0,0,0,-1,965,1100,0,0
-252,-76,0,0,0,0,0,0,0,0,0,-1,972,1100,0,0
-245,-76,0,0,0,0,0,0,0,0,0,-1,979,1100,0,0
-238,-76,0,0,0,0,0,0,0,0,0,-1,986,1100,0,0
-231,-76,0,0,0,0,0,0,0,0,0,-1,993,1100,0,0
-224,-76,0,0,0,0,0,0,0,0,0,-1,1000,1100,0,0
-217,-76,0,0,0,0,0,0,0,0,0,-1,1007,1100,0,0
-210,-76,0,0,0,0,0,0,0,0,0,-1,1014,1100,0,0
-203,-76,0,0,0,0,0,0,0,0,0,-1,1021,1100,0,0
-196,-76,0,0,0,0,0,0,0,0,0,-1,1028,1100,0,0
-189,-76,0,0,0,0,0,0,0,0,0,-1,1035,1100,0,0
-182,-76,0,0,0,0,0,0,0,0,0,-1,1042,1100,0,0
-175,-76,0,0,0,0,0,0,0,0,0,-1,1049,1100,0,0
-168,-76,0,0,0,0,0,0,0,0,0,-1,1056,1100,0,0
-161,-76,0,0,0,0,0,0,0,0,0,-1,1063,1100,0,0
-154,-76,0,0,0,0,0,0,0,0,0,-1,1070,1100,0,0
-147,-76,0,0,0,0,0,0,0,0,0,-1,1077,1100,0,0
-140,-76,0,0,0,0,0,0,0,0,0,-1,1084,1100,0,0
-133,-76,0,0,0,0,0,0,0,0,0,-1,1091,1100,0,0
-126,-76,0,0,0,0,0,0,0,0,0,-1,1098,1100,0,0
-119,-76,0,0,0,0,0,0,0,0,0,-1,1105,1100,0,0
-112,-76,0,0,0,0,0,0,0,0,0,-1,1112,1100,0,0
-105,-76,0,0,0,0,0,0,0,0,0,-1,1119,1100,0,0
-98,-76,0,0,0,0,0,0,0,0,0,-1,1126,1100,0,0
-91,-76,0,0,0,0,0,0,0,0,0,-1,1133,1100,0,0
-84,-76,0,0,0,0,0,0,0,0,0,-1,1140,1100,0,0
-77,-76,0,0,0,0,0,0,0,0,0,-1,1147,1100,0,0
-70,-76,0,0,0,0,0,0,0,0,0,-1,1154,1100,0,0
-63,-76,0,0,0,0,0,0,0,0,0,-1,1161,1100,0,0
-56,-76,0,0,0,0,0,0,0,0,0,-1,1168,1100,0,0
-49,-76,0,0,0,0,0,0,0,0,0,-1,1175,1100,0,0
-42,-76,0,0,0,0,0,0,0,0,0,-1,1182,1100,0,0
-35,-76,0,0,0,0,0,0,0,0,0,-1,1189,1100,0,0
-28,-76,0,0,0,0,0,0,0,0,0,-1,1196,1100,0,0
-21,-76,0,0,0,0,0,0,0,0,0,-1,1203,1100,0,0
-14,-76,0,0,0,0,0,0,0,0,0,-1,1210,1100,0,0
-7,-76,0,0,0,0,0,0,0,0,0,-1,1217,1100,0,0
0,-76,0,0,0,0,0,0,0,0,0,-1,1224,1100,0,0
7,-76,0,0,0,0,0,0,0,0,0,-1,1231,1100,0,0
14,-76,0,0,0,0,0,0,0,0,0,-1,1238,1100,0,0
21,-76,0,0,0,0,0,0,0,0,0,-1,1245,1100,0,0
28,-76,0,0,0,0,0,0,0,0,0,-1,1252,1100,0,0
35,-76,0,0,0,0,0,0,0,0,0,-1,1259,1100,0,0
42,-76,0,0,0,0,0,0,0,0,0,-1,1266,1100,0,0
49,-76,0,0,0,0,0,0,0,0,0,-1,1273,1100,0,0
56,-76,0,0,0,0,0,0,0,0,0,-1,1280,1100,0,0
63,-76,0,0,0,0,0,0,0,0,0,-1,1287,1100,0,0
70,-76,0,0,0,0,0,0,0,0,0,-1,1294,1100,0,0
77,-76,0,0,0,0,0,0,0,0,0,-1,1301,1100,0,0
84,-76,0,0,0,0,0,0,0,0,0,-1,1308,1100,0,0
91,-76,0,0,0,0,0,0,0,0,0,-1,1315,1100,0,0
98,-76,0,0,0,0,0,0,0,0,0,-1,1322,1100,0,0
105,-76,0,0,0,0,0,0,0,0,0,-1,1329,1100,0,0
112,-76,0,0,0,0,0,0,0,0,0,-1,1336,1100,0,0
119,-76,0,0,0,0,0,0,0,0,0,-1,1343,1100,0,0
126,-76,0,0,0,0,0,0,0,0,0,-1,1350,1100,0,0
133,-76,0,0,0,0,0,0,0,0,0,-1,1357,1100,0,0
140,-76,0,0,0,0,0,0,0,0,0,-1,1364,1100,0,0
147,-76,0,0,0,0,0,0,0,0,0,-1,1371,1100,0,0
154,-76,0,0,0,0,0,0,0,0,0,-1,1378,1100,0,0
161,-76,0,0,0,0,0,0,0,0,0,-1,1385,1100,0,0
168,-76,0,0,0,0,0,0,0,0,0,-1,1392,1100,0,0
175,-76,0,0,0,0,0,0,0,0,0,-1,1399,1100,0,0
182,-76,0,0,0,0,0,0,0,0,0,-1,1406,1100,0,0
189,-76,0,0,0,0,0,0,0,0,0,-1,1413,1100,0,0
196,-76,0,0,0,0,0,0,0,0,0,-1,1420,1100,0,0
203,-76,0,0,0,0,0,0,0,0,0,-1,1427,1100,0,0
210,-76,0,0,0,0,0,0,0,0,0,-1,1434,1100,0,0
217,-76,0,0,0,0,0,0,0,0,0,-1,1441,1100,0,0
224,-76,0,0,0,0,0,0,0,0,0,-1,1448,1100,0,0
231,-76,0,0,0,0,0,0,0,0,0,-1,1455,1100,0,0
238,-76,0,0,0,0,0,0,0,0,0,-1,1462,1100,0,0
245,-76,0,0,0,0,0,0,0,0,0,-1,1469,1100,0,0
252,-76,0,0,0,0,0,0,0,0,0,-1,1476,1100,0,0
259,-76,0,0,0,0,0,0,0,0,0,-1,1483,1100,0,0
266,-76,0,0,0,0,0,0,0,0,0,-1,1490,1100,0,0
273,-76,0,0,0,0,0,0,0,0,0,-1,1497,1100,0,0
280,-76,0,0,0,0,0,0,0,0,0,-1,1504,1100,0,0
287,-76,0,0,0,0,0,0,0,0,0,-1,1511,1100,0,0
294,-76,0,0,0,0,0,0,0,0,0,-1,1518,1100,0,0
301,-76,0,0,0,0,0,0,0,0,0,-1,1525,1100,0,0
308,-76,0,0,0,0,0,0,0,0,0,-1,1532,1100,0,0
315,-76,0,0,0,0,0,0,0,0,0,-1,1539,1100,0,0
322,-76,0,0,0,0,0,0,0,0,0,-1,1546,1100,0,0
329,-76,0,0,0,0,0,0,0,0,0,-1,1553,1100,0,0
336,-76,0,0,0,0,0,0,0,0,0,-1,1560,1100,0,0
343,-76,0,0,0,0,0,0,0,0,0,-1,1567,1100,0,0
350,-76,0,0,0,0,0,0,0,0,0,-1,1574,1100,0,0
357,-76,0,0,0,0,0,0,0,0,0,-1,1581,1100,0,0
364,-76,0,0,0,0,0,0,0,0,0,-1,1588,1100,0,0
371,-76,0,0,0,0,0,0,0,0,0,-1,1595,1100,0,0
378,-76,0,0,0,0,0,0,0,0,0,-1,1602,1100,0,0
385,-76,0,0,0,0,0,0,0,0,0,-1,1609,1100,0,0
392,-76,0,0,0,0,0,0,0,0,0,-1,1616,1100,0,0
399,-76,0,0,0,0,0,0,0,0,0,-1,1623,1100,0,0
406,-76,0,0,0,0,0,0,0,0,0,-1,1630,1100,0,0
413,-76,0,0,0,0,0,0,0,0,0,-1,1637,1100,0,0
420,-76,0,0,0,0,0,0,0,0,0,-1,1644,1100,0,0
427,-76,0,0,0,0,0,0,0,0,0,-1,1651,1100,0,0
434,-76,0,0,0,0,0,0,0,0,0,-1,1658,1100,0,0
441,-76,0,0,0,0,0,0,0,0,0,-1,1665,1100,0,0
448,-76,0,0,0,0,0,0,0,0,0,-1,1672,1100,0,0
455,-76,0,0,0,0,0,0,0,0,0,-1,1679,1100,0,0
462,-76,0,0,0,0,0,0,0,0,0,-1,1686,1100,0,0
469,-76,0,0,0,0,0,0,0,0,0,-1,1693,1100,0,0
476,-76,0,0,0,0,0,0,0,0,0,-1,1700,1100,0,0
483,-76,0,0,0,0,0,0,0,0,0,-1,1707,1100,0,0
490,-76,0,0,0,0,0,0,0,0,0,-1,1714,1100,0,0
497,-76,0,0,0,0,0,0,0,0,0,-1,1721,1100,0,0
504,-76,0,0,0,0,0,0,0,0,0,-1,1728,1100,0,0
511,-76,0,0,0,0,0,0,0,0,0,-1,1735,1100,0,0
518,-76,0,0,0,0,0,0,0,0,0,-1,1742,1100,0,0
525,-76,0,0,0,0,0,0,0,0,0,-1,1749,1100,0,0
532,-76,0,0,0,0,0,0,0,0,0,-1,1756,1100,0,0
539,-76,0,0,0,0,0,0,0,0,0,-1,1763,1100,0,0
546,-76,0,0,0,0,0,0,0,0,0,-1,1770,1100,0,0
553,-76,0,0,0,0,0,0,0,0,0,-1,1777,1100,0,0
560,-76,0,0,0,0,0,0,0,0,0,-1,1784,1100,0,0
567,-76,0,0,0,0,0,0,0,0,0,-1,1791,1100,0,0
574,-76,0,0,0,0,0,0,0,0,0,-1,1798,1100,0,0
581,-76,0,0,0,0,0,0,0,0,0,-1,1805,1100,0,0
588,-76,0,0,0,0,0,0,0,0,0,-1,1812,1100,0,0
595,-76,0,0,0,0,0,0,0,0,0,-1,1819,1100,0,0
602,-76,0,0,0,0,0,0,0,0,0,-1,1826,1100,0,0
609,-76,0,0,0,0,0,0,0,0,0,-1,1833,1100,0,0
616,-76,0,0,0,0,0,0,0,0,0,-1,1840,1100,0,0
623,-76,0,0,0,0,0,0,0,0,0,-1,1847,1100,0,0
630,-76,0,0,0,0,0,0,0,0,0,-1,1854,1100,0,0
637,-76,0,0,0,0,0,0,0,0,0,-1,1861,1100,0,0
644,-76,0,0,0,0,0,0,0,0,0,-1,1868,1100,0,0
651,-76,80.3916,2.12939,0.008644,-0.00322901,-0.000145103,0.00864577,-0.00323078,-0.0122188,0.00709052,0.0446088,1875,1100,80.3916,-2.12941
658,-76,80.4436,2.08984,0.00688379,-0.00261423,-0.000103802,0.00688493,-0.00261537,-0.010927,0.00566663,0.0437584,1882,1100,80.4436,-2.0899
665,-76,80.6565,1.90796,0,0,0,0,0,0,0,-1,1889,1100,80.6565,-1.90793
672,-76,80.556,2.2312,0.00397597,-0.00158305,-0.000147588,0.00397989,-0.00158696,-0.0265244,0.00331152,0.0387686,1896,1100,80.556,-2.2312
679,-76,80.6235,2.29077,0.00280652,-0.00117905,-0.00020438,0.00281697,-0.00118951,-0.0511011,0.00237591,0.0379571,1903,1100,80.6235,-2.29077
686,-76,80.7151,2.02161,0.00184827,-0.00105664,-0.000319208,0.00188293,-0.00109131,-0.108166,0.00173733,0.038821,1910,1100,80.7151,-2.0216
693,-76,80.6572,1.99048,0.00128726,-0.00117705,-0.000191845,0.0013021,-0.0011919,-0.0772294,0.00144038,0.0394082,1917,1100,80.6572,-1.99047
700,-76,80.5773,2.00513,0.00104388,-0.00115623,-0.000105808,0.00104896,-0.00116131,-0.0479448,0.00127665,0.0332738,1924,1100,80.5773,-2.00512
707,-76,80.6,2.07275,0.000410901,-0.000892435,0.000235242,0.00045206,-0.000933595,0.173213,0.000815952,0.0253178,1931,1100,80.5999,-2.07271
714,-76,80.6936,2.01929,0,0,0,0,0,0,0,-1,1938,1100,80.6936,-2.01925
721,-76,45.1713,3.04919,0,0,0,0,0,0,0,-1,1945,1100,45.1713,-3.04915
728,-76,60.937,8.08447,0,0,0,0,0,0,0,-1,1952,1100,60.937,-8.08446
735,-76,76.9457,8.90198,0,0,0,0,0,0,0,-1,1959,1100,76.9457,-8.90193
742,-76,76.9939,8.26355,-0.00320529,0.00305919,0.00230669,0.0038169,-0.003963,1.25342,0.00449199,0.0382262,1966,1100,76.994,-8.2636
749,-76,76.8713,7.63269,-0.00386014,0.00460654,0.00309647,0.00561813,-0.00487173,1.25504,0.00606143,0.0343031,1973,1100,76.8713,-7.63271
756,-76,76.9456,7.07825,-0.00482442,0.00684213,0.00373162,0.0079336,-0.00591589,1.28624,0.00802424,0.018362,1980,1100,76.9455,-7.07826
763,-76,76.874,6.52563,-0.0053111,0.0098004,0.00445849,0.0110178,-0.00652846,1.30425,0.0102402,0.0187662,1987,1100,76.874,-6.52563
770,-76,76.7314,6.0282,-0.00536924,0.0137522,0.00522585,0.0150872,-0.00670424,1.32068,0.0128879,0.0202946,1994,1100,76.7315,-6.02826
777,-76,76.564,5.60742,-0.00489795,0.0181661,0.00596848,0.0196191,-0.00635093,1.332,0.0156325,0.0240337,2001,1100,76.5641,-5.60745
784,-76,76.6035,5.02075,-0.00412076,0.022641,0.00666554,0.0242093,-0.00568904,1.33972,0.0183325,0.0346198,2008,1100,76.6034,-5.0207
791,-76,76.9678,4.61694,-0.00305776,0.0271863,0.00729811,0.0288553,-0.00472675,1.34598,0.0209906,0.0414264,2015,1100,76.9677,-4.61697
798,-76,77.3428,4.1803,-0.00153697,0.0317767,0.00788908,0.0335505,-0.00331075,1.34963,0.0235483,0.0435674,2022,1100,77.3427,-4.18035
805,-76,77.0835,3.85059,0.000415462,0.0365217,0.00819347,0.038294,-0.00135686,1.35777,0.0259934,0.044536,2029,1100,77.0836,-3.85053
812,-76,76.5281,3.422,0.00189021,0.0413981,0.00844076,0.0431259,0.000162419,1.36889,0.0286966,0.0472442,2036,1100,76.528,-3.422
-700,-83,0,0,0,0,0,0,0,0,0,-1,524,1107,0,0
-693,-83,-57.4832,-0.538086,-0.037991,0.0675842,0.092404,0.121216,-0.0916225,1.04491,0.123277,0.0470838,531,1107,-57.4832,0.538097
-686,-83,-57.6157,0.240479,-0.0393189,0.0593606,0.0800989,0.104097,-0.084055,1.06144,0.108835,0.0487692,538,1107,-57.6157,-0.240437
-679,-83,-57.7054,0.884644,-0.0381741,0.0507525,0.0673738,0.0870123,-0.0744338,1.07707,0.0933052,0.0480039,545,1107,-57.7054,-0.884654
-672,-83,-57.6829,1.56848,-0.0354412,0.0427658,0.0552516,0.0713515,-0.0640268,1.09335,0.0781988,0.0431255,552,1107,-57.6829,-1.56852
-665,-83,-58.1734,2.48462,-0.0318842,0.0355297,0.0440728,0.0573076,-0.0536622,1.11185,0.06408,0.0456794,559,1107,-58.1734,-2.48458
-658,-83,-59.4578,2.90369,0,0,0,0,0,0,0,-1,566,1107,-59.4578,-2.90367
-651,-83,-59.3523,4.32678,0,0,0,0,0,0,0,-1,573,1107,-59.3523,-4.32673
-644,-83,-59.7861,4.79443,-0.019232,0.0176821,0.016569,0.0240281,-0.025578,1.20502,0.0286448,0.0336506,580,1107,-59.7862,-4.79446
-637,-83,-60.0424,5.32092,-0.0151807,0.0130263,0.00901233,0.0156599,-0.0178143,1.28649,0.0193397,0.0168253,587,1107,-60.0424,-5.32094
-630,-83,-60.0871,5.91113,-0.0109751,0.00853262,0.00313483,0.009024,-0.0114665,1.41531,0.0118582,0.0191843,594,1107,-60.0871,-5.91111
-623,-83,-60.148,6.47034,-0.00769852,0.00426025,-0.000630822,0.00429343,-0.0077317,-1.51824,0.00703668,0.0227786,601,1107,-60.148,-6.47031
-616,-83,-60.3065,7.09436,-0.00523894,0.00189397,-0.00247476,0.00266848,-0.00601346,-1.26749,0.00513503,0.019099,608,1107,-60.3065,-7.09439
-609,-83,-60.2891,7.63794,-0.00361581,0.000424152,-0.0032581,0.00223764,-0.00542931,-1.06289,0.00455257,0.0235546,615,1107,-60.2892,-7.63798
-602,-83,-60.2534,8.27551,-0.00254946,5.71633e-06,-0.00299386,0.00198319,-0.00452693,-0.987068,0.00385308,0.0209082,622,1107,-60.2534,-8.27553
-595,-83,-60.1644,8.84558,-0.00181228,-0.000677373,-0.0026813,0.00149586,-0.00398552,-0.889677,0.00327168,0.0304369,629,1107,-60.1644,-8.84557
-588,-83,-60.2406,9.21851,0,0,0,0,0,0,0,-1,636,1107,-60.2406,-9.2185
-581,-83,-63.55,0.123535,0,0,0,0,0,0,0,-1,643,1107,-63.55,-0.123564
-574,-83,-63.5833,0.14502,-0.000205256,-0.00230937,-0.00233825,0.00130672,-0.00382134,-0.573999,0.00307705,0.040112,650,1107,-63.5833,-0.145024
-567,-83,-63.626,0.185669,0.000285576,-0.00249644,-0.00208076,0.00139746,-0.00360833,-0.49076,0.00298257,0.0420922,657,1107,-63.626,-0.185709
-560,-83,-63.584,0.312622,0.000358297,-0.00241992,-0.00178749,0.00123298,-0.0032946,-0.455079,0.00270282,0.0425308,664,1107,-63.584,-0.312595
-553,-83,-63.5283,0.424438,-0.000353592,-0.00216477,-0.0015382,0.000525796,-0.00304416,-0.519351,0.0022255,0.0435519,671,1107,-63.5283,-0.424407
-546,-83,-63.5507,0.574951,-0.00163916,-0.00187432,-0.00155289,-0.000199407,-0.00331408,-0.747612,0.00214601,0.0406345,678,1107,-63.5507,-0.574892
-539,-83,-63.5529,0.496338,-0.00296084,-0.00219008,-0.00217731,-0.000364311,-0.00478661,-0.87299,0.00307684,0.0411333,685,1107,-63.5529,-0.496384
-532,-83,-63.5345,0.442017,-0.00435959,-0.00254394,-0.00313708,-0.00018597,-0.00671756,-0.926244,0.00441769,0.0429712,692,1107,-63.5345,-0.441965
-525,-83,0,0,0,0,0,0,0,0,0,-1,699,1107,0,0
-518,-83,0,0,0,0,0,0,0,0,0,-1,706,1107,0,0
-511,-83,0,0,0,0,0,0,0,0,0,-1,713,1107,0,0
-504,-83,0,0,0,0,0,0,0,0,0,-1,720,1107,0,0
-497,-83,0,0,0,0,0,0,0,0,0,-1,727,1107,0,0
-490,-83,0,0,0,0,0,0,0,0,0,-1,734,1107,0,0
-483,-83,0,0,0,0,0,0,0,0,0,-1,741,1107,0,0
-476,-83,0,0,0,0,0,0,0,0,0,-1,748,1107,0,0
-469,-83,0,0,0,0,0,0,0,0,0,-1,755,1107,0,0
-462,-83,0,0,0,0,0,0,0,0,0,-1,762,1107,0,0
-455,-83,0,0,0,0,0,0,0,0,0,-1,769,1107,0,0
-448,-83,0,0,0,0,0,0,0,0,0,-1,776,1107,0,0
-441,-83,0,0,0,0,0,0,0,0,0,-1,783,1107,0,0
-434,-83,0,0,0,0,0,0,0,0,0,-1,790,1107,0,0
-427,-83,0,0,0,0,0,0,0,0,0,-1,797,1107,0,0
-420,-83,0,0,0,0,0,0,0,0,0,-1,804,1107,0,0
-413,-83,0,0,0,0,0,0,0,0,0,-1,811,1107,0,0
-406,-83,0,0,0,0,0,0,0,0,0,-1,818,1107,0,0
-399,-83,0,0,0,0,0,0,0,0,0,-1,825,1107,0,0
-392,-83,0,0,0,0,0,0,0,0,0,-1,832,1107,0,0
-385,-83,0,0,0,0,0,0,0,0,0,-1,839,1107,0,0
-378,-83,0,0,0,0,0,0,0,0,0,-1,846,1107,0,0
-371,-83,0,0,0,0,0,0,0,0,0,-1,853,1107,0,0
-364,-83,0,0,0,0,0,0,0,0,0,-1,860,1107,0,0
-357,-83,0,0,0,0,0,0,0,0,0,-1,867,1107,0,0
-350,-83,0,0,0,0,0,0,0,0,0,-1,874,1107,0,0
-343,-83,0,0,0,0,0,0,0,0,0,-1,881,1107,0,0
-336,-83,0,0,0,0,0,0,0,0,0,-1,888,1107,0,0
-329,-83,0,0,0,0,0,0,0,0,0,-1,895,1107,0,0
-322,-83,0,0,0,0,0,0,0,0,0,-1,902,1107,0,0
-315,-83,0,0,0,0,0,0,0,0,0,-1,909,1107,0,0
-308,-83,0,0,0,0,0,0,0,0,0,-1,916,1107,0,0
-301,-83,0,0,0,0,0,0,0,0,0,-1,923,1107,0,0
-294,-83,0,0,0,0,0,0,0,0,0,-1,930,1107,0,0
-287,-83,0,0,0,0,0,0,0,0,0,-1,937,1107,0,0
-280,-83,0,0,0,0,0,0,0,0,0,-1,944,1107,0,0
-273,-83,0,0,0,0,0,0,0,0,0,-1,951,1107,0,0
-266,-83,0,0,0,0,0,0,0,0,0,-1,958,1107,0,0
-259,-83,0,0,0,0,0,0,0,0,0,-1,965,1107,0,0
-252,-83,0,0,0,0,0,0,0,0,0,-1,972,1107,0,0
-245,-83,0,0,0,0,0,0,0,0,0,-1,979,1107,0,0
-238,-83,0,0,0,0,0,0,0,0,0,-1,986,1107,0,0
-231,-83,0,0,0,0,0,0,0,0,0,-1,993,1107,0,0
-224,-83,0,0,0,0,0,0,0,0,0,-1,1000,1107,0,0
-217,-83,0,0,0,0,0,0,0,0,0,-1,1007,1107,0,0
-210,-83,0,0,0,0,0,0,0,0,0,-1,1014,1107,0,0
-203,-83,0,0,0,0,0,0,0,0,0,-1,1021,1107,0,0
-196,-83,0,0,0,0,0,0,0,0,0,-1,1028,1107,0,0
-189,-83,0,0,0,0,0,0,0,0,0,-1,1035,1107,0,0
-182,-83,0,0,0,0,0,0,0,0,0,-1,1042,1107,0,0
-175,-83,0,0,0,0,0,0,0,0,0,-1,1049,1107,0,0
-168,-83,0,0,0,0,0,0,0,0,0,-1,1056,1107,0,0
-161,-83,0,0,0,0,0,0,0,0,0,-1,1063,1107,0,0
-154,-83,0,0,0,0,0,0,0,0,0,-1,1070,1107,0,0
-147,-83,0,0,0,0,0,0,0,0,0,-1,1077,1107,0,0
-140,-83,0,0,0,0,0,0,0,0,0,-1,1084,1107,0,0
-133,-83,0,0,0,0,0,0,0,0,0,-1,1091,1107,0,0
-126,-83,0,0,0,0,0,0,0,0,0,-1,1098,1107,0,0
-119,-83,0,0,0,0,0,0,0,0,0,-1,1105,1107,0,0
-112,-83,0,0,0,0,0,0,0,0,0,-1,1112,1107,0,0
-105,-83,0,0,0,0,0,0,0,0,0,-1,1119,1107,0,0
-98,-83,0,0,0,0,0,0,0,0,0,-1,1126,1107,0,0
-91,-83,0,0,0,0,0,0,0,0,0,-1,1133,1107,0,0
-84,-83,0,0,0,0,0,0,0,0,0,-1,1140,1107,0,0
-77,-83,0,0,0,0,0,0,0,0,0,-1,1147,1107,0,0
-70,-83,0,0,0,0,0,0,0,0,0,-1,1154,1107,0,0
-63,-83,0,0,0,0,0,0,0,0,0,-1,1161,1107,0,0
-56,-83,0,0,0,0,0,0,0,0,0,-1,1168,1107,0,0
-49,-83,0,0,0,0,0,0,0,0,0,-1,1175,1107,0,0
-42,-83,0,0,0,0,0,0,0,0,0,-1,1182,1107,0,0
-35,-83,0,0,0,0,0,0,0,0,0,-1,1189,1107,0,0
-28,-83,0,0,0,0,0,0,0,0,0,-1,1196,1107,0,0
-21,-83,0,0,0,0,0,0,0,0,0,-1,1203,1107,0,0
-14,-83,0,0,0,0,0,0,0,0,0,-1,1210,1107,0,0
-7,-83,0,0,0,0,0,0,0,0,0,-1,1217,1107,0,0
0,-83,0,0,0,0,0,0,0,0,0,-1,1224,1107,0,0
7,-83,0,0,0,0,0,0,0,0,0,-1,1231,1107,0,0
14,-83,0,0,0,0,0,0,0,0,0,-1,1238,1107,0,0
21,-83,0,0,0,0,0,0,0,0,0,-1,1245,1107,0,0
28,-83,0,0,0,0,0,0,0,0,0,-1,1252,1107,0,0
35,-83,0,0,0,0,0,0,0,0,0,-1,1259,1107,0,0
42,-83,0,0,0,0,0,0,0,0,0,-1,1266,1107,0,0
49,-83,0,0,0,0,0,0,0,0,0,-1,1273,1107,0,0
56,-83,0,0,0,0,0,0,0,0,0,-1,1280,1107,0,0
63,-83,0,0,0,0,0,0,0,0,0,-1,1287,1107,0,0
70,-83,0,0,0,0,0,0,0,0,0,-1,1294,1107,0,0
77,-83,0,0,0,0,0,0,0,0,0,-1,1301,1107,0,0
84,-83,0,0,0,0,0,0,0,0,0,-1,1308,1107,0,0
91,-83,0,0,0,0,0,0,0,0,0,-1,1315,1107,0,0
98,-83,0,0,0,0,0,0,0,0,0,-1,1322,1107,0,0
105,-83,0,0,0,0,0,0,0,0,0,-1,1329,1107,0,0
112,-83,0,0,0,0,0,0,0,0,0,-1,1336,1107,0,0
119,-83,0,0,0,0,0,0,0,0,0,-1,1343,1107,0,0
126,-83,0,0,0,0,0,0,0,0,0,-1,1350,1107,0,0
133,-83,0,0,0,0,0,0,0,0,0,-1,1357,1107,0,0
140,-83,0,0,0,0,0,0,0,0,0,-1,1364,1107,0,0
147,-83,0,0,0,0,0,0,0,0,0,-1,1371,1107,0,0
154,-83,0,0,0,0,0,0,0,0,0,-1,1378,1107,0,0
161,-83,0,0,0,0,0,0,0,0,0,-1,1385,1107,0,0
168,-83,0,0,0,0,0,0,0,0,0,-1,1392,1107,0,0
175,-83,0,0,0,0,0,0,0,0,0,-1,1399,1107,0,0
182,-83,0,0,0,0,0,0,0,0,0,-1,1406,1107,0,0
189,-83,0,0,0,0,0,0,0,0,0,-1,1413,1107,0,0
196,-83,0,0,0,0,0,0,0,0,0,-1,1420,1107,0,0
203,-83,0,0,0,0,0,0,0,0,0,-1,1427,1107,0,0
210,-83,0,0,0,0,0,0,0,0,0,-1,1434,1107,0,0
217,-83,0,0,0,0,0,0,0,0,0,-1,1441,1107,0,0
224,-83,0,0,0,0,0,0,0,0,0,-1,1448,1107,0,0
231,-83,0,0,0,0,0,0,0,0,0,-1,1455,1107,0,0
238,-83,0,0,0,0,0,0,0,0,0,-1,1462,1107,0,0
245,-83,0,0,0,0,0,0,0,0,0,-1,1469,1107,0,0
252,-83,0,0,0,0,0,0,0,0,0,-1,1476,1107,0,0
259,-83,0,0,0,0,0,0,0,0,0,-1,1483,1107,0,0
266,-83,0,0,0,0,0,0,0,0,0,-1,1490,1107,0,0
273,-83,0,0,0,0,0,0,0,0,0,-1,1497,1107,0,0
280,-83,0,0,0,0,0,0,0,0,0,-1,1504,1107,0,0
287,-83,0,0,0,0,0,0,0,0,0,-1,1511,1107,0,0
294,-83,0,0,0,0,0,0,0,0,0,-1,1518,1107,0,0
301,-83,0,0,0,0,0,0,0,0,0,-1,1525,1107,0,0
308,-83,0,0,0,0,0,0,0,0,0,-1,1532,1107,0,0
315,-83,0,0,0,0,0,0,0,0,0,-1,1539,1107,0,0
322,-83,0,0,0,0,0,0,0,0,0,-1,1546,1107,0,0
329,-83,0,0,0,0,0,0,0,0,0,-1,1553,1107,0,0
336,-83,0,0,0,0,0,0,0,0,0,-1,1560,1107,0,0
343,-83,0,0,0,0,0,0,0,0,0,-1,1567,1107,0,0
350,-83,0,0,0,0,0,0,0,0,0,-1,1574,1107,0,0
357,-83,0,0,0,0,0,0,0,0,0,-1,1581,1107,0,0
364,-83,0,0,0,0,0,0,0,0,0,-1,1588,1107,0,0
371,-83,0,0,0,0,0,0,0,0,0,-1,1595,1107,0,0
378,-83,0,0,0,0,0,0,0,0,0,-1,1602,1107,0,0
385,-83,0,0,0,0,0,0,0,0,0,-1,1609,1107,0,0
392,-83,0,0,0,0,0,0,0,0,0,-1,1616,1107,0,0
399,-83,0,0,0,0,0,0,0,0,0,-1,1623,1107,0,0
406,-83,0,0,0,0,0,0,0,0,0,-1,1630,1107,0,0
413,-83,0,0,0,0,0,0,0,0,0,-1,1637,1107,0,0
420,-83,0,0,0,0,0,0,0,0,0,-1,1644,1107,0,0
427,-83,0,0,0,0,0,0,0,0,0,-1,1651,1107,0,0
434,-83,0,0,0,0,0,0,0,0,0,-1,1658,1107,0,0
441,-83,0,0,0,0,0,0,0,0,0,-1,1665,1107,0,0
448,-83,0,0,0,0,0,0,0,0,0,-1,1672,1107,0,0
455,-83,0,0,0,0,0,0,0,0,0,-1,1679,1107,0,0
462,-83,0,0,0,0,0,0,0,0,0,-1,1686,1107,0,0
469,-83,0,0,0,0,0,0,0,0,0,-1,1693,1107,0,0
476,-83,0,0,0,0,0,0,0,0,0,-1,1700,1107,0,0
483,-83,0,0,0,0,0,0,0,0,0,-1,1707,1107,0,0
490,-83,0,0,0,0,0,0,0,0,0,-1,1714,1107,0,0
497,-83,0,0,0,0,0,0,0,0,0,-1,1721,1107,0,0
504,-83,0,0,0,0,0,0,0,0,0,-1,1728,1107,0,0
511,-83,0,0,0,0,0,0,0,0,0,-1,1735,1107,0,0
518,-83,0,0,0,0,0,0,0,0,0,-1,1742,1107,0,0
525,-83,0,0,0,0,0,0,0,0,0,-1,1749,1107,0,0
532,-83,0,0,0,0,0,0,0,0,0,-1,1756,1107,0,0
539,-83,0,0,0,0,0,0,0,0,0,-1,1763,1107,0,0
546,-83,0,0,0,0,0,0,0,0,0,-1,1770,1107,0,0
553,-83,0,0,0,0,0,0,0,0,0,-1,1777,1107,0,0
560,-83,0,0,0,0,0,0,0,0,0,-1,1784,1107,0,0
567,-83,0,0,0,0,0,0,0,0,0,-1,1791,1107,0,0
574,-83,0,0,0,0,0,0,0,0,0,-1,1798,1107,0,0
581,-83,0,0,0,0,0,0,0,0,0,-1,1805,1107,0,0
588,-83,0,0,0,0,0,0,0,0,0,-1,1812,1107,0,0
595,-83,0,0,0,0,0,0,0,0,0,-1,1819,1107,0,0
602,-83,0,0,0,0,0,0,0,0,0,-1,1826,1107,0,0
609,-83,0,0,0,0,0,0,0,0,0,-1,1833,1107,0,0
616,-83,0,0,0,0,0,0,0,0,0,-1,1840,1107,0,0
623,-83,0,0,0,0,0,0,0,0,0,-1,1847,1107,0,0
630,-83,0,0,0,0,0,0,0,0,0,-1,1854,1107,0,0
637,-83,0,0,0,0,0,0,0,0,0,-1,1861,1107,0,0
644,-83,80.6508,2.12024,0.00977769,-0.00374383,-0.000789098,0.00982359,-0.00378973,-0.0580958,0.00811292,0.0403617,1868,1107,80.6507,-2.1202
651,-83,80.5721,2.11194,0.00778113,-0.00289963,-0.000498548,0.00780435,-0.00292285,-0.0465423,0.00640354,0.0458725,1875,1107,80.5721,-2.11197
658,-83,80.4789,2.03455,0.00625083,-0.00231257,-0.000359743,0.00626591,-0.00232765,-0.0419109,0.00513223,0.0442161,1882,1107,80.4789,-2.03452
665,-83,80.3875,2.00085,0.00488117,-0.0017873,-0.000283374,0.00489319,-0.00179932,-0.0423928,0.00399918,0.0425943,1889,1107,80.3874,-2.00089
672,-83,80.4521,2.18323,0.00363494,-0.00130062,-0.000270884,0.00364977,-0.00131544,-0.0546653,0.00297039,0.0404379,1896,1107,80.4521,-2.18317
679,-83,80.636,2.34619,0.0026138,-0.00096722,-0.000271671,0.00263429,-0.000987713,-0.0752899,0.00216199,0.0388615,1903,1107,80.636,-2.34615
686,-83,80.6962,2.20569,0.00185411,-0.000884092,-0.000386471,0.00190761,-0.000937594,-0.137561,0.0016742,0.0364811,1910,1107,80.6962,-2.20565
693,-83,80.5995,2.14856,0.00146572,-0.00101817,-0.000266724,0.00149404,-0.00104649,-0.105775,0.00147434,0.0384192,1917,1107,80.5995,-2.14856
700,-83,80.573,2.13013,0.00136078,-0.00101773,-0.000202781,0.00137794,-0.00103489,-0.0844432,0.00139774,0.0349167,1924,1107,80.573,-2.13016
707,-83,80.6077,2.07959,0.000842602,-0.000785537,0.000144515,0.00085533,-0.000798265,0.0878458,0.000954893,0.023868,1931,1107,80.6076,-2.07965
714,-83,80.6353,2.02271,0,0,0,0,0,0,0,-1,1938,1107,80.6352,-2.02268
721,-83,49.1162,7.36719,0,0,0,0,0,0,0,-1,1945,1107,49.1162,-7.36721
728,-83,66.6315,8.32141,0,0,0,0,0,0,0,-1,1952,1107,66.6314,-8.32147
735,-83,76.1018,8.84033,0,0,0,0,0,0,0,-1,1959,1107,76.1019,-8.84029
742,-83,76.252,8.25122,-0.00249014,0.00280245,0.00211442,0.00354343,-0.00323112,1.23373,0.00391267,0.033872,1966,1107,76.252,-8.25121
749,-83,76.3655,7.64746,-0.0031367,0.00429577,0.00290402,0.00529586,-0.00413679,1.23914,0.00545963,0.0218799,1973,1107,76.3655,-7.6475
756,-83,76.3555,7.07397,-0.00420093,0.0064657,0.00363074,0.00758424,-0.00531948,1.27195,0.00748812,0.018494,1980,1107,76.3554,-7.07397
763,-83,76.2893,6.47083,-0.00482607,0.00947211,0.00450117,0.0107711,-0.00612506,1.28984,0.00987717,0.0139565,1987,1107,76.2894,-6.47082
770,-83,76.1584,5.95374,-0.00507522,0.0134719,0.00544938,0.0149545,-0.00655781,1.30516,0.0127316,0.0169702,1994,1107,76.1584,-5.95372
777,-83,75.9775,5.40503,-0.00489385,0.0178963,0.0064271,0.0195839,-0.00658141,1.31402,0.015716,0.0185631,2001,1107,75.9774,-5.405
784,-83,75.7886,4.91711,-0.0044345,0.0224785,0.0074281,0.0243926,-0.00634856,1.3186,0.0187398,0.0273374,2008,1107,75.7886,-4.91716
791,-83,75.7366,4.36694,-0.0037174,0.0272829,0.0084387,0.0294312,-0.00586565,1.32152,0.0218402,0.0454486,2015,1107,75.7365,-4.3669
798,-83,77.323,3.47546,-0.00260034,0.0323352,0.00959867,0.0347987,-0.00506389,1.31956,0.0250583,0.0471369,2022,1107,77.323,-3.47548
805,-83,76.687,3.40283,-0.0012257,0.0377823,0.0105703,0.0404625,-0.00390588,1.32247,0.0283668,0.0479766,2029,1107,76.6871,-3.40282
812,-83,76.0649,3.2876,0,0,0,0,0,0,0,-1,2036,1107,76.0649,-3.28757
-700,-90,0,0,0,0,0,0,0,0,0,-1,524,1114,0,0
-693,-90,-58.1177,-0.737793,-0.0314754,0.0408334,0.090442,0.10208,-0.0927217,0.975545,0.112512,0.0466718,531,1114,-58.1177,0.737793
-686,-90,-58.1728,0.0384521,-0.0384486,0.0348858,0.0754072,0.0820681,-0.0856308,1.01169,0.0968283,0.045752,538,1114,-58.1728,-0.0384814
-679,-90,-58.1841,0.669434,-0.0396259,0.0298983,0.0621287,0.0663288,-0.0760563,1.04046,0.08227,0.0461325,545,1114,-58.1841,-0.669375
-672,-90,-58.256,1.25732,-0.0376673,0.0256319,0.050378,0.0534772,-0.0655125,1.06586,0.0688158,0.0456526,552,1114,-58.256,-1.25728
-665,-90,-58.4696,1.95471,-0.0342193,0.0218402,0.039959,0.0426202,-0.0549993,1.09125,0.0565115,0.0476168,559,1114,-58.4696,-1.95471
-658,-90,-58.8744,2.8374,-0.0300103,0.0184209,0.0306338,0.0332543,-0.0448437,1.11985,0.0452551,0.0466791,566,1114,-58.8744,-2.83739
-651,-90,-59.0956,3.70215,-0.0254459,0.0152219,0.0222245,0.0250111,-0.035235,1.1559,0.0349496,0.0400011,573,1114,-59.0956,-3.70217
-644,-90,-59.293,4.54541,-0.0207704,0.0121033,0.0147395,0.0177441,-0.0264112,1.20529,0.0256563,0.0227027,580,1114,-59.293,-4.54537
-637,-90,-59.3843,5.26709,-0.0164614,0.00934737,0.00772256,0.0114816,-0.0185957,1.30116,0.0175263,0.0177299,587,1114,-59.3843,-5.26709
-630,-90,-59.4446,5.89246,-0.0120587,0.00636903,0.00226188,0.0066426,-0.0123323,1.45043,0.0111181,0.0135689,594,1114,-59.4446,-5.89244
-623,-90,-59.4994,6.53003,-0.00861246,0.00320495,-0.00123557,0.00333275,-0.00874026,-1.46773,0.00719965,0.0142679,601,1114,-59.4994,-6.52997
-616,-90,-59.5823,7.16187,-0.00620286,0.00169359,-0.00281462,0.00259413,-0.0071034,-1.26114,0.00579712,0.0161405,608,1114,-59.5823,-7.16182
-609,-90,-59.5484,7.76758,-0.00468533,0.00063086,-0.00339911,0.00228779,-0.00634225,-1.11723,0.0051626,0.0255908,615,1114,-59.5484,-7.76759
-602,-90,-59.6498,8.35339,-0.00365789,0.000354396,-0.00299826,0.00195577,-0.00525926,-1.08024,0.00430869,0.0250607,622,1114,-59.6498,-8.35345
-595,-90,-59.4911,9.0094,0,0,0,0,0,0,0,-1,629,1114,-59.4911,-9.00936
-588,-90,-59.3374,9.16479,0,0,0,0,0,0,0,-1,636,1114,-59.3374,-9.1648
-581,-90,-63.5576,0.224365,0,0,0,0,0,0,0,-1,643,1114,-63.5576,-0.22431
-574,-90,-63.5682,0.245361,-0.000776524,-0.00197255,-0.00227801,0.000980662,-0.00372973,-0.657037,0.00286978,0.0401829,650,1114,-63.5682,-0.245308
-567,-90,-63.5328,0.148193,2.67312e-05,-0.00222303,-0.00203477,0.00122685,-0.00342315,-0.532892,0.00278271,0.0364875,657,1114,-63.5328,-0.148242
-560,-90,-63.5359,0.320557,0.000497215,-0.00221529,-0.00174793,0.00135335,-0.00307143,-0.455456,0.00261805,0.0390221,664,1114,-63.536,-0.320547
-553,-90,-63.5146,0.573364,-6.3981e-06,-0.00203186,-0.00155909,0.000840011,-0.00287827,-0.497364,0.0022517,0.0399225,671,1114,-63.5146,-0.573389
-546,-90,-63.6401,0.872314,0,0,0,0,0,0,0,-1,678,1114,-63.6402,-0.872262
-539,-90,-63.5861,0.585083,-0.00263635,-0.00214655,-0.00249734,0.00011787,-0.00490076,-0.834275,0.00330717,0.041038,685,1114,-63.5861,-0.585059
-532,-90,-63.5751,0.344727,-0.00406062,-0.00259147,-0.00364916,0.00039631,-0.0070484,-0.88472,0.00483645,0.0406958,692,1114,-63.5751,-0.34478
-525,-90,0,0,0,0,0,0,0,0,0,-1,699,1114,0,0
-518,-90,0,0,0,0,0,0,0,0,0,-1,706,1114,0,0
-511,-90,0,0,0,0,0,0,0,0,0,-1,713,1114,0,0
-504,-90,0,0,0,0,0,0,0,0,0,-1,720,1114,0,0
-497,-90,0,0,0,0,0,0,0,0,0,-1,727,1114,0,0
-490,-90,0,0,0,0,0,0,0,0,0,-1,734,1114,0,0
-483,-90,0,0,0,0,0,0,0,0,0,-1,741,1114,0,0
-476,-90,0,0,0,0,0,0,0,0,0,-1,748,1114,0,0
-469,-90,0,0,0,0,0,0,0,0,0,-1,755,1114,0,0
-462,-90,0,0,0,0,0,0,0,0,0,-1,762,1114,0,0
-455,-90,0,0,0,0,0,0,0,0,0,-1,769,1114,0,0
-448,-90,0,0,0,0,0,0,0,0,0,-1,776,1114,0,0
-441,-90,0,0,0,0,0,0,0,0,0,-1,783,1114,0,0
-434,-90,0,0,0,0,0,0,0,0,0,-1,790,1114,0,0
-427,-90,0,0,0,0,0,0,0,0,0,-1,797,1114,0,0
-420,-90,0,0,0,0,0,0,0,0,0,-1,804,1114,0,0
-413,-90,0,0,0,0,0,0,0,0,0,-1,811,1114,0,0
-406,-90,0,0,0,0,0,0,0,0,0,-1,818,1114,0,0
-399,-90,0,0,0,0,0,0,0,0,0,-1,825,1114,0,0
-392,-90,0,0,0,0,0,0,0,0,0,-1,832,1114,0,0
-385,-90,0,0,0,0,0,0,0,0,0,-1,839,1114,0,0
-378,-90,0,0,0,0,0,0,0,0,0,-1,846,1114,0,0
-371,-90,0,0,0,0,0,0,0,0,0,-1,853,1114,0,0
-364,-90,0,0,0,0,0,0,0,0,0,-1,860,1114,0,0
-357,-90,0,0,0,0,0,0,0,0,0,-1,867,1114,0,0
-350,-90,0,0,0,0,0,0,0,0,0,-1,874,1114,0,0
-343,-90,0,0,0,0,0,0,0,0,0,-1,881,1114,0,0
-336,-90,0,0,0,0,0,0,0,0,0,-1,888,1114,0,0
-329,-90,0,0,0,0,0,0,0,0,0,-1,895,1114,0,0
-322,-90,0,0,0,0,0,0,0,0,0,-1,902,1114,0,0
-315,-90,0,0,0,0,0,0,0,0,0,-1,909,1114,0,0
-308,-90,0,0,0,0,0,0,0,0,0,-1,916,1114,0,0
-301,-90,0,0,0,0,0,0,0,0,0,-1,923,1114,0,0
-294,-90,0,0,0,0,0,0,0,0,0,-1,930,1114,0,0
-287,-90,0,0,0,0,0,0,0,0,0,-1,937,1114,0,0
-280,-90,0,0,0,0,0,0,0,0,0,-1,944,1114,0,0
-273,-90,0,0,0,0,0,0,0,0,0,-1,951,1114,0,0
-266,-90,0,0,0,0,0,0,0,0,0,-1,958,1114,0,0
-259,-90,0,0,0,0,0,0,0,0,0,-1,965,1114,0,0
-252,-90,0,0,0,0,0,0,0,0,0,-1,972,1114,0,0
-245,-90,0,0,0,0,0,0,0,0,0,-1,979,1114,0,0
-238,-90,0,0,0,0,0,0,0,0,0,-1,986,1114,0,0
-231,-90,0,0,0,0,0,0,0,0,0,-1,993,1114,0,0
-224,-90,0,0,0,0,0,0,0,0,0,-1,1000,1114,0,0
-217,-90,0,0,0,0,0,0,0,0,0,-1,1007,1114,0,0
-210,-90,0,0,0,0,0,0,0,0,0,-1,1014,1114,0,0
-203,-90,0,0,0,0,0,0,0,0,0,-1,1021,1114,0,0
-196,-90,0,0,0,0,0,0,0,0,0,-1,1028,1114,0,0
-189,-90,0,0,0,0,0,0,0,0,0,-1,1035,1114,0,0
-182,-90,0,0,0,0,0,0,0,0,0,-1,1042,1114,0,0
-175,-90,0,0,0,0,0,0,0,0,0,-1,1049,1114,0,0
-168,-90,0,0,0,0,0,0,0,0,0,-1,1056,1114,0,0
-161,-90,0,0,0,0,0,0,0,0,0,-1,1063,1114,0,0
-154,-90,0,0,0,0,0,0,0,0,0,-1,1070,1114,0,0
-147,-90,0,0,0,0,0,0,0,0,0,-1,1077,1114,0,0
-140,-90,0,0,0,0,0,0,0,0,0,-1,1084,1114,0,0
-133,-90,0,0,0,0,0,0,0,0,0,-1,1091,1114,0,0
-126,-90,0,0,0,0,0,0,0,0,0,-1,1098,1114,0,0
-119,-90,0,0,0,0,0,0,0,0,0,-1,1105,1114,0,0
-112,-90,0,0,0,0,0,0,0,0,0,-1,1112,1114,0,0
-105,-90,0,0,0,0,0,0,0,0,0,-1,1119,1114,0,0
-98,-90,0,0,0,0,0,0,0,0,0,-1,1126,1114,0,0
-91,-90,0,0,0,0,0,0,0,0,0,-1,1133,1114,0,0
-84,-90,0,0,0,0,0,0,0,0,0,-1,1140,1114,0,0
-77,-90,0,0,0,0,0,0,0,0,0,-1,1147,1114,0,0
-70,-90,0,0,0,0,0,0,0,0,0,-1,1154,1114,0,0
-63,-90,0,0,0,0,0,0,0,0,0,-1,1161,1114,0,0
-56,-90,0,0,0,0,0,0,0,0,0,-1,1168,1114,0,0
-49,-90,0,0,0,0,0,0,0,0,0,-1,1175,1114,0,0
-42,-90,0,0,0,0,0,0,0,0,0,-1,1182,1114,0,0
-35,-90,0,0,0,0,0,0,0,0,0,-1,1189,1114,0,0
-28,-90,0,0,0,0,0,0,0,0,0,-1,1196,1114,0,0
-21,-90,0,0,0,0,0,0,0,0,0,-1,1203,1114,0,0
-14,-90,0,0,0,0,0,0,0,0,0,-1,1210,1114,0,0
-7,-90,0,0,0,0,0,0,0,0,0,-1,1217,1114,0,0
0,-90,0,0,0,0,0,0,0,0,0,-1,1224,1114,0,0
7,-90,0,0,0,0,0,0,0,0,0,-1,1231,1114,0,0
14,-90,0,0,0,0,0,0,0,0,0,-1,1238,1114,0,0
21,-90,0,0,0,0,0,0,0,0,0,-1,1245,1114,0,0
28,-90,0,0,0,0,0,0,0,0,0,-1,1252,1114,0,0
35,-90,0,0,0,0,0,0,0,0,0,-1,1259,1114,0,0
42,-90,0,0,0,0,0,0,0,0,0,-1,1266,1114,0,0
49,-90,0,0,0,0,0,0,0,0,0,-1,1273,1114,0,0
56,-90,0,0,0,0,0,0,0,0,0,-1,1280,1114,0,0
63,-90,0,0,0,0,0,0,0,0,0,-1,1287,1114,0,0
70,-90,0,0,0,0,0,0,0,0,0,-1,1294,1114,0,0
77,-90,0,0,0,0,0,0,0,0,0,-1,1301,1114,0,0
84,-90,0,0,0,0,0,0,0,0,0,-1,1308,1114,0,0
91,-90,0,0,0,0,0,0,0,0,0,-1,1315,1114,0,0
98,-90,0,0,0,0,0,0,0,0,0,-1,1322,1114,0,0
105,-90,0,0,0,0,0,0,0,0,0,-1,1329,1114,0,0
112,-90,0,0,0,0,0,0,0,0,0,-1,1336,1114,0,0
119,-90,0,0,0,0,0,0,0,0,0,-1,1343,1114,0,0
126,-90,0,0,0,0,0,0,0,0,0,-1,1350,1114,0,0
133,-90,0,0,0,0,0,0,0,0,0,-1,1357,1114,0,0
140,-90,0,0,0,0,0,0,0,0,0,-1,1364,1114,0,0
147,-90,0,0,0,0,0,0,0,0,0,-1,1371,1114,0,0
154,-90,0,0,0,0,0,0,0,0,0,-1,1378,1114,0,0
161,-90,0,0,0,0,0,0,0,0,0,-1,1385,1114,0,0
168,-90,0,0,0,0,0,0,0,0,0,-1,1392,1114,0,0
175,-90,0,0,0,0,0,0,0,0,0,-1,1399,1114,0,0
182,-90,0,0,0,0,0,0,0,0,0,-1,1406,1114,0,0
189,-90,0,0,0,0,0,0,0,0,0,-1,1413,1114,0,0
196,-90,0,0,0,0,0,0,0,0,0,-1,1420,1114,0,0
203,-90,0,0,0,0,0,0,0,0,0,-1,1427,1114,0,0
210,-90,0,0,0,0,0,0,0,0,0,-1,1434,1114,0,0
217,-90,0,0,0,0,0,0,0,0,0,-1,1441,1114,0,0
224,-90,0,0,0,0,0,0,0,0,0,-1,1448,1114,0,0
231,-90,0,0,0,0,0,0,0,0,0,-1,1455,1114,0,0
238,-90,0,0,0,0,0,0,0,0,0,-1,1462,1114,0,0
245,-90,0,0,0,0,0,0,0,0,0,-1,1469,1114,0,0
252,-90,0,0,0,0,0,0,0,0,0,-1,1476,1114,0,0
259,-90,0,0,0,0,0,0,0,0,0,-1,1483,1114,0,0
266,-90,0,0,0,0,0,0,0,0,0,-1,1490,1114,0,0
273,-90,0,0,0,0,0,0,0,0,0,-1,1497,1114,0,0
280,-90,0,0,0,0,0,0,0,0,0,-1,1504,1114,0,0
287,-90,0,0,0,0,0,0,0,0,0,-1,1511,1114,0,0
294,-90,0,0,0,0,0,0,0,0,0,-1,1518,1114,0,0
301,-90,0,0,0,0,0,0,0,0,0,-1,1525,1114,0,0
308,-90,0,0,0,0,0,0,0,0,0,-1,1532,1114,0,0
315,-90,0,0,0,0,0,0,0,0,0,-1,1539,1114,0,0
322,-90,0,0,0,0,0,0,0,0,0,-1,1546,1114,0,0
329,-90,0,0,0,0,0,0,0,0,0,-1,1553,1114,0,0
336,-90,0,0,0,0,0,0,0,0,0,-1,1560,1114,0,0
343,-90,0,0,0,0,0,0,0,0,0,-1,1567,1114,0,0
350,-90,0,0,0,0,0,0,0,0,0,-1,1574,1114,0,0
357,-90,0,0,0,0,0,0,0,0,0,-1,1581,1114,0,0
364,-90,0,0,0,0,0,0,0,0,0,-1,1588,1114,0,0
371,-90,0,0,0,0,0,0,0,0,0,-1,1595,1114,0,0
378,-90,0,0,0,0,0,0,0,0,0,-1,1602,1114,0,0
385,-90,0,0,0,0,0,0,0,0,0,-1,1609,1114,0,0
392,-90,0,0,0,0,0,0,0,0,0,-1,1616,1114,0,0
399,-90,0,0,0,0,0,0,0,0,0,-1,1623,1114,0,0
406,-90,0,0,0,0,0,0,0,0,0,-1,1630,1114,0,0
413,-90,0,0,0,0,0,0,0,0,0,-1,1637,1114,0,0
420,-90,0,0,0,0,0,0,0,0,0,-1,1644,1114,0,0
427,-90,0,0,0,0,0,0,0,0,0,-1,1651,1114,0,0
434,-90,0,0,0,0,0,0,0,0,0,-1,1658,1114,0,0
441,-90,0,0,0,0,0,0,0,0,0,-1,1665,1114,0,0
448,-90,0,0,0,0,0,0,0,0,0,-1,1672,1114,0,0
455,-90,0,0,0,0,0,0,0,0,0,-1,1679,1114,0,0
462,-90,0,0,0,0,0,0,0,0,0,-1,1686,1114,0,0
469,-90,0,0,0,0,0,0,0,0,0,-1,1693,1114,0,0
476,-90,0,0,0,0,0,0,0,0,0,-1,1700,1114,0,0
483,-90,0,0,0,0,0,0,0,0,0,-1,1707,1114,0,0
490,-90,0,0,0,0,0,0,0,0,0,-1,1714,1114,0,0
497,-90,0,0,0,0,0,0,0,0,0,-1,1721,1114,0,0
504,-90,0,0,0,0,0,0,0,0,0,-1,1728,1114,0,0
511,-90,0,0,0,0,0,0,0,0,0,-1,1735,1114,0,0
518,-90,0,0,0,0,0,0,0,0,0,-1,1742,1114,0,0
525,-90,0,0,0,0,0,0,0,0,0,-1,1749,1114,0,0
532,-90,0,0,0,0,0,0,0,0,0,-1,1756,1114,0,0
539,-90,0,0,0,0,0,0,0,0,0,-1,1763,1114,0,0
546,-90,0,0,0,0,0,0,0,0,0,-1,1770,1114,0,0
553,-90,0,0,0,0,0,0,0,0,0,-1,1777,1114,0,0
560,-90,0,0,0,0,0,0,0,0,0,-1,1784,1114,0,0
567,-90,0,0,0,0,0,0,0,0,0,-1,1791,1114,0,0
574,-90,0,0,0,0,0,0,0,0,0,-1,1798,1114,0,0
581,-90,0,0,0,0,0,0,0,0,0,-1,1805,1114,0,0
588,-90,0,0,0,0,0,0,0,0,0,-1,1812,1114,0,0
595,-90,0,0,0,0,0,0,0,0,0,-1,1819,1114,0,0
602,-90,0,0,0,0,0,0,0,0,0,-1,1826,1114,0,0
609,-90,0,0,0,0,0,0,0,0,0,-1,1833,1114,0,0
616,-90,0,0,0,0,0,0,0,0,0,-1,1840,1114,0,0
623,-90,0,0,0,0,0,0,0,0,0,-1,1847,1114,0,0
630,-90,0,0,0,0,0,0,0,0,0,-1,1854,1114,0,0
637,-90,0,0,0,0,0,0,0,0,0,-1,1861,1114,0,0
644,-90,80.6482,2.14441,0.00843722,-0.0030241,-0.000738981,0.00848467,-0.00307155,-0.0641222,0.00691167,0.0373721,1868,1114,80.6482,-2.14436
651,-90,80.6393,2.06299,0.00667406,-0.00239541,-0.000481217,0.00669952,-0.00242088,-0.0528612,0.00545539,0.0398522,1875,1114,80.6393,-2.06298
658,-90,80.5541,2.05981,0.00539953,-0.00194931,-0.000365382,0.00541766,-0.00196743,-0.0495568,0.00441616,0.0387181,1882,1114,80.5541,-2.05984
665,-90,80.5266,2.13342,0.00424211,-0.00151156,-0.000305023,0.00425823,-0.00152769,-0.0528163,0.00346228,0.0417624,1889,1114,80.5266,-2.13337
672,-90,80.583,2.11926,0.00319047,-0.00109313,-0.000306775,0.00321233,-0.00111499,-0.0711324,0.00259435,0.0430723,1896,1114,80.583,-2.11926
679,-90,80.6473,2.31519,0.0023932,-0.000864174,-0.000306612,0.00242181,-0.000892784,-0.0930398,0.00198039,0.0384611,1903,1114,80.6473,-2.31516
686,-90,80.6436,2.28552,0.00188563,-0.000823071,-0.000461786,0.00196219,-0.000899633,-0.164301,0.00168981,0.0346096,1910,1114,80.6435,-2.28546
693,-90,80.5868,2.19458,0.00167255,-0.000965345,-0.000387439,0.00172827,-0.00102107,-0.142856,0.00160475,0.036107,1917,1114,80.5868,-2.19461
700,-90,80.5887,2.12891,0.00167785,-0.000978057,-0.000351737,0.00172364,-0.00102385,-0.129463,0.00160332,0.0336569,1924,1114,80.5888,-2.12886
707,-90,80.5798,1.99561,0.0012666,-0.000765862,-7.69064e-06,0.00126663,-0.000765891,-0.00378383,0.00118529,0.0248988,1931,1114,80.5798,-1.99563
714,-90,80.5985,1.85852,0,0,0,0,0,0,0,-1,1938,1114,80.5985,-1.85851
721,-90,63.521,8.76965,0,0,0,0,0,0,0,-1,1945,1114,63.521,-8.7697
728,-90,75.4567,9.55127,0,0,0,0,0,0,0,-1,1952,1114,75.4567,-9.55131
735,-90,75.3259,8.95276,-0.00156024,0.00152465,0.00124685,0.00196557,-0.00200117,1.23089,0.00229023,0.0431641,1959,1114,75.3259,-8.95273
742,-90,75.4928,8.25171,-0.00174669,0.00247911,0.00184385,0.00317052,-0.00243809,1.21204,0.00324732,0.0403876,1966,1114,75.4928,-8.25169
749,-90,75.876,7.49829,-0.00242138,0.00387373,0.00264659,0.00483853,-0.00338619,1.22122,0.00477316,0.0244138,1973,1114,75.8759,-7.49829
756,-90,75.8,6.96863,-0.00357224,0.00594788,0.00344108,0.00706143,-0.00468578,1.25783,0.00682832,0.0195865,1980,1114,75.7999,-6.9686
763,-90,75.6926,6.4032,-0.0043098,0.00895687,0.00438392,0.0102746,-0.00562756,1.2788,0.00931089,0.0138071,1987,1114,75.6925,-6.40325
770,-90,75.5815,5.81836,-0.00470832,0.0128978,0.00541161,0.0144282,-0.00623866,1.2952,0.0122403,0.0184346,1994,1114,75.5815,-5.81834
777,-90,75.4226,5.28247,-0.00472987,0.0172332,0.00648108,0.0190031,-0.00649974,1.30421,0.0153026,0.0181306,2001,1114,75.4226,-5.28251
784,-90,75.2788,4.77356,-0.0044769,0.0218258,0.00760706,0.0238674,-0.00651849,1.30859,0.0184719,0.0307344,2008,1114,75.2788,-4.7736
791,-90,75.1348,4.2063,-0.00398815,0.0268214,0.00874402,0.02913,-0.00629678,1.31266,0.0218239,0.0447124,2015,1114,75.1347,-4.20632
798,-90,74.9478,3.62976,-0.00310426,0.0322741,0.0101679,0.0349882,-0.00581835,1.30995,0.0254873,0.0492452,2022,1114,74.9479,-3.62975
805,-90,76.5798,3.172,0,0,0,0,0,0,0,-1,2029,1114,76.5799,-3.17199
812,-90,73.9492,0.734863,0,0,0,0,0,0,0,-1,2036,1114,73.9493,-0.734923
-700,-97,0,0,0,0,0,0,0,0,0,-1,524,1121,0,0
-693,-97,-58.7263,-0.886108,-0.0485153,0.0310445,0.077637,0.0784996,-0.0959703,1.02215,0.100898,0.04517,531,1121,-58.7263,0.88608
-686,-97,-58.7509,-0.288086,-0.0486189,0.0289833,0.0675456,0.0680792,-0.0877147,1.04611,0.0901854,0.0468099,538,1121,-58.7509,0.288087
-679,-97,-58.9878,0.0545654,-0.0456425,0.0262594,0.0572139,0.0578799,-0.077263,1.0659,0.0782918,0.0466104,545,1121,-58.9878,-0.0545057
-672,-97,-58.7182,0.947998,0,0,0,0,0,0,0,-1,552,1121,-58.7182,-0.947958
-665,-97,-57.8067,2.1908,0,0,0,0,0,0,0,-1,559,1121,-57.8067,-2.19076
-658,-97,-58.1454,3.04114,-0.0314864,0.0173267,0.0295984,0.0312835,-0.0454432,1.13018,0.0445489,0.0451459,566,1121,-58.1453,-3.0411
-651,-97,-58.5051,3.8623,-0.0264464,0.0143478,0.0216176,0.0236721,-0.0357707,1.16358,0.0345555,0.0395356,573,1121,-58.5051,-3.86232
-644,-97,-58.677,4.53735,-0.0214938,0.0113751,0.0143298,0.0167451,-0.0268639,1.21225,0.0254026,0.0174214,580,1121,-58.677,-4.53729
-637,-97,-58.7219,5.2395,-0.016969,0.00875366,0.0074589,0.01076,-0.0189754,1.30802,0.0173848,0.0169385,587,1121,-58.7219,-5.23946
-630,-97,-58.7682,5.88733,-0.0126215,0.00585514,0.0019268,0.00605394,-0.0128203,1.46799,0.011128,0.0115538,594,1121,-58.7682,-5.88737
-623,-97,-58.8386,6.4386,-0.00924103,0.00293782,-0.00169406,0.00316907,-0.00947228,-1.43513,0.00759489,0.0157409,601,1121,-58.8386,-6.43856
-616,-97,-58.9622,7.15369,-0.00707831,0.00170153,-0.00328794,0.00279631,-0.00817309,-1.24937,0.0065819,0.0224387,608,1121,-58.9621,-7.15372
-609,-97,-59.0327,7.83826,-0.00571878,0.00091888,-0.00363178,0.00251986,-0.00731975,-1.1556,0.00590191,0.0313095,615,1121,-59.0327,-7.83829
-602,-97,-59.0992,8.39709,-0.00476384,0.000704597,-0.00307226,0.00208314,-0.00614237,-1.14902,0.004938,0.033589,622,1121,-59.0993,-8.39705
-595,-97,-58.8469,9.01709,0,0,0,0,0,0,0,-1,629,1121,-58.8469,-9.01713
-588,-97,-59.1338,9.27563,0,0,0,0,0,0,0,-1,636,1121,-59.1338,-9.27561
-581,-97,-51.2355,3.23926,0,0,0,0,0,0,0,-1,643,1121,-51.2355,-3.23926
-574,-97,-63.5759,0.355103,0,0,0,0,0,0,0,-1,650,1121,-63.5759,-0.355053
-567,-97,-63.4771,0.233765,-0.000483561,-0.00190989,-0.00202167,0.000947051,-0.0033405,-0.615833,0.00260081,0.0358518,657,1121,-63.4771,-0.233806
-560,-97,-63.3718,0.223145,0.000462728,-0.00198065,-0.00168072,0.00131886,-0.00283678,-0.471128,0.00245203,0.0408091,664,1121,-63.3718,-0.223163
-553,-97,-63.4942,0.405762,0.000219528,-0.00187713,-0.00148024,0.000985061,-0.00264266,-0.477289,0.00216612,0.0426831,671,1121,-63.4942,-0.405709
-546,-97,-63.557,0.776855,0,0,0,0,0,0,0,-1,678,1121,-63.557,-0.77683
-539,-97,-63.5684,0.475952,-0.00256791,-0.00214821,-0.00254639,0.000196958,-0.00491308,-0.826511,0.00334298,0.0398115,685,1121,-63.5683,-0.475964
-532,-97,-63.6419,0.237183,-0.00412234,-0.00274249,-0.00378187,0.00041187,-0.00727669,-0.875621,0.00499408,0.0385817,692,1121,-63.6419,-0.237164
-525,-97,0,0,0,0,0,0,0,0,0,-1,699,1121,0,0
-518,-97,0,0,0,0,0,0,0,0,0,-1,706,1121,0,0
-511,-97,0,0,0,0,0,0,0,0,0,-1,713,1121,0,0
-504,-97,0,0,0,0,0,0,0,0,0,-1,720,1121,0,0
-497,-97,0,0,0,0,0,0,0,0,0,-1,727,1121,0,0
-490,-97,0,0,0,0,0,0,0,0,0,-1,734,1121,0,0
-483,-97,0,0,0,0,0,0,0,0,0,-1,741,1121,0,0
-476,-97,0,0,0,0,0,0,0,0,0,-1,748,1121,0,0
-469,-97,0,0,0,0,0,0,0,0,0,-1,755,1121,0,0
-462,-97,0,0,0,0,0,0,0,0,0,-1,762,1121,0,0
-455,-97,0,0,0,0,0,0,0,0,0,-1,769,1121,0,0
-448,-97,0,0,0,0,0,0,0,0,0,-1,776,1121,0,0
-441,-97,0,0,0,0,0,0,0,0,0,-1,783,1121,0,0
-434,-97,0,0,0,0,0,0,0,0,0,-1,790,1121,0,0
-427,-97,0,0,0,0,0,0,0,0,0,-1,797,1121,0,0
-420,-97,0,0,0,0,0,0,0,0,0,-1,804,1121,0,0
-413,-97,0,0,0,0,0,0,0,0,0,-1,811,1121,0,0
-406,-97,0,0,0,0,0,0,0,0,0,-1,818,1121,0,0
-399,-97,0,0,0,0,0,0,0,0,0,-1,825,1121,0,0
-392,-97,0,0,0,0,0,0,0,0,0,-1,832,1121,0,0
-385,-97,0,0,0,0,0,0,0,0,0,-1,839,1121,0,0
-378,-97,0,0,0,0,0,0,0,0,0,-1,846,1121,0,0
-371,-97,0,0,0,0,0,0,0,0,0,-1,853,1121,0,0
-364,-97,0,0,0,0,0,0,0,0,0,-1,860,1121,0,0
-357,-97,0,0,0,0,0,0,0,0,0,-1,867,1121,0,0
-350,-97,0,0,0,0,0,0,0,0,0,-1,874,1121,0,0
-343,-97,0,0,0,0,0,0,0,0,0,-1,881,1121,0,0
-336,-97,0,0,0,0,0,0,0,0,0,-1,888,1121,0,0
-329,-97,0,0,0,0,0,0,0,0,0,-1,895,1121,0,0
-322,-97,0,0,0,0,0,0,0,0,0,-1,902,1121,0,0
-315,-97,0,0,0,0,0,0,0,0,0,-1,909,1121,0,0
-308,-97,0,0,0,0,0,0,0,0,0,-1,916,1121,0,0
-301,-97,0,0,0,0,0,0,0,0,0,-1,923,1121,0,0
-294,-97,0,0,0,0,0,0,0,0,0,-1,930,1121,0,0
-287,-97,0,0,0,0,0,0,0,0,0,-1,937,1121,0,0
-280,-97,0,0,0,0,0,0,0,0,0,-1,944,1121,0,0
-273,-97,0,0,0,0,0,0,0,0,0,-1,951,1121,0,0
-266,-97,0,0,0,0,0,0,0,0,0,-1,958,1121,0,0
-259,-97,0,0,0,0,0,0,0,0,0,-1,965,1121,0,0
-252,-97,0,0,0,0,0,0,0,0,0,-1,972,1121,0,0
-245,-97,0,0,0,0,0,0,0,0,0,-1,979,1121,0,0
-238,-97,0,0,0,0,0,0,0,0,0,-1,986,1121,0,0
-231,-97,0,0,0,0,0,0,0,0,0,-1,993,1121,0,0
-224,-97,0,0,0,0,0,0,0,0,0,-1,1000,1121,0,0
-217,-97,0,0,0,0,0,0,0,0,0,-1,1007,1121,0,0
-210,-97,0,0,0,0,0,0,0,0,0,-1,1014,1121,0,0
-203,-97,0,0,0,0,0,0,0,0,0,-1,1021,1121,0,0
-196,-97,0,0,0,0,0,0,0,0,0,-1,1028,1121,0,0
-189,-97,0,0,0,0,0,0,0,0,0,-1,1035,1121,0,0
-182,-97,0,0,0,0,0,0,0,0,0,-1,1042,1121,0,0
-175,-97,0,0,0,0,0,0,0,0,0,-1,1049,1121,0,0
-168,-97,0,0,0,0,0,0,0,0,0,-1,1056,1121,0,0
-161,-97,0,0,0,0,0,0,0,0,0,-1,1063,1121,0,0
-154,-97,0,0,0,0,0,0,0,0,0,-1,1070,1121,0,0
-147,-97,0,0,0,0,0,0,0,0,0,-1,1077,1121,0,0
-140,-97,0,0,0,0,0,0,0,0,0,-1,1084,1121,0,0
-133,-97,0,0,0,0,0,0,0,0,0,-1,1091,1121,0,0
-126,-97,0,0,0,0,0,0,0,0,0,-1,1098,1121,0,0
-119,-97,0,0,0,0,0,0,0,0,0,-1,1105,1121,0,0
-112,-97,0,0,0,0,0,0,0,0,0,-1,1112,1121,0,0
-105,-97,0,0,0,0,0,0,0,0,0,-1,1119,1121,0,0
-98,-97,0,0,0,0,0,0,0,0,0,-1,1126,1121,0,0
-91,-97,0,0,0,0,0,0,0,0,0,-1,1133,1121,0,0
-84,-97,0,0,0,0,0,0,0,0,0,-1,1140,1121,0,0
-77,-97,0,0,0,0,0,0,0,0,0,-1,1147,1121,0,0
-70,-97,0,0,0,0,0,0,0,0,0,-1,1154,1121,0,0
-63,-97,0,0,0,0,0,0,0,0,0,-1,1161,1121,0,0
-56,-97,0,0,0,0,0,0,0,0,0,-1,1168,1121,0,0
-49,-97,0,0,0,0,0,0,0,0,0,-1,1175,1121,0,0
-42,-97,0,0,0,0,0,0,0,0,0,-1,1182,1121,0,0
-35,-97,0,0,0,0,0,0,0,0,0,-1,1189,1121,0,0
-28,-97,0,0,0,0,0,0,0,0,0,-1,1196,1121,0,0
-21,-97,0,0,0,0,0,0,0,0,0,-1,1203,1121,0,0
-14,-97,0,0,0,0,0,0,0,0,0,-1,1210,1121,0,0
-7,-97,0,0,0,0,0,0,0,0,0,-1,1217,1121,0,0
0,-97,0,0,0,0,0,0,0,0,0,-1,1224,1121,0,0
7,-97,0,0,0,0,0,0,0,0,0,-1,1231,1121,0,0
14,-97,0,0,0,0,0,0,0,0,0,-1,1238,1121,0,0
21,-97,0,0,0,0,0,0,0,0,0,-1,1245,1121,0,0
28,-97,0,0,0,0,0,0,0,0,0,-1,1252,1121,0,0
35,-97,0,0,0,0,0,0,0,0,0,-1,1259,1121,0,0
42,-97,0,0,0,0,0,0,0,0,0,-1,1266,1121,0,0
49,-97,0,0,0,0,0,0,0,0,0,-1,1273,1121,0,0
56,-97,0,0,0,0,0,0,0,0,0,-1,1280,1121,0,0
63,-97,0,0,0,0,0,0,0,0,0,-1,1287,1121,0,0
70,-97,0,0,0,0,0,0,0,0,0,-1,1294,1121,0,0
77,-97,0,0,0,0,0,0,0,0,0,-1,1301,1121,0,0
84,-97,0,0,0,0,0,0,0,0,0,-1,1308,1121,0,0
91,-97,0,0,0,0,0,0,0,0,0,-1,1315,1121,0,0
98,-97,0,0,0,0,0,0,0,0,0,-1,1322,1121,0,0
105,-97,0,0,0,0,0,0,0,0,0,-1,1329,1121,0,0
112,-97,0,0,0,0,0,0,0,0,0,-1,1336,1121,0,0
119,-97,0,0,0,0,0,0,0,0,0,-1,1343,1121,0,0
126,-97,0,0,0,0,0,0,0,0,0,-1,1350,1121,0,0
133,-97,0,0,0,0,0,0,0,0,0,-1,1357,1121,0,0
140,-97,0,0,0,0,0,0,0,0,0,-1,1364,1121,0,0
147,-97,0,0,0,0,0,0,0,0,0,-1,1371,1121,0,0
154,-97,0,0,0,0,0,0,0,0,0,-1,1378,1121,0,0
161,-97,0,0,0,0,0,0,0,0,0,-1,1385,1121,0,0
168,-97,0,0,0,0,0,0,0,0,0,-1,1392,1121,0,0
175,-97,0,0,0,0,0,0,0,0,0,-1,1399,1121,0,0
182,-97,0,0,0,0,0,0,0,0,0,-1,1406,1121,0,0
189,-97,0,0,0,0,0,0,0,0,0,-1,1413,1121,0,0
196,-97,0,0,0,0,0,0,0,0,0,-1,1420,1121,0,0
203,-97,0,0,0,0,0,0,0,0,0,-1,1427,1121,0,0
210,-97,0,0,0,0,0,0,0,0,0,-1,1434,1121,0,0
217,-97,0,0,0,0,0,0,0,0,0,-1,1441,1121,0,0
224,-97,0,0,0,0,0,0,0,0,0,-1,1448,1121,0,0
231,-97,0,0,0,0,0,0,0,0,0,-1,1455,1121,0,0
238,-97,0,0,0,0,0,0,0,0,0,-1,1462,1121,0,0
245,-97,0,0,0,0,0,0,0,0,0,-1,1469,1121,0,0
252,-97,0,0,0,0,0,0,0,0,0,-1,1476,1121,0,0
259,-97,0,0,0,0,0,0,0,0,0,-1,1483,1121,0,0
266,-97,0,0,0,0,0,0,0,0,0,-1,1490,1121,0,0
273,-97,0,0,0,0,0,0,0,0,0,-1,1497,1121,0,0
280,-97,0,0,0,0,0,0,0,0,0,-1,1504,1121,0,0
287,-97,0,0,0,0,0,0,0,0,0,-1,1511,1121,0,0
294,-97,0,0,0,0,0,0,0,0,0,-1,1518,1121,0,0
301,-97,0,0,0,0,0,0,0,0,0,-1,1525,1121,0,0
308,-97,0,0,0,0,0,0,0,0,0,-1,1532,1121,0,0
315,-97,0,0,0,0,0,0,0,0,0,-1,1539,1121,0,0
322,-97,0,0,0,0,0,0,0,0,0,-1,1546,1121,0,0
329,-97,0,0,0,0,0,0,0,0,0,-1,1553,1121,0,0
336,-97,0,0,0,0,0,0,0,0,0,-1,1560,1121,0,0
343,-97,0,0,0,0,0,0,0,0,0,-1,1567,1121,0,0
350,-97,0,0,0,0,0,0,0,0,0,-1,1574,1121,0,0
357,-97,0,0,0,0,0,0,0,0,0,-1,1581,1121,0,0
364,-97,0,0,0,0,0,0,0,0,0,-1,1588,1121,0,0
371,-97,0,0,0,0,0,0,0,0,0,-1,1595,1121,0,0
378,-97,0,0,0,0,0,0,0,0,0,-1,1602,1121,0,0
385,-97,0,0,0,0,0,0,0,0,0,-1,1609,1121,0,0
392,-97,0,0,0,0,0,0,0,0,0,-1,1616,1121,0,0
399,-97,0,0,0,0,0,0,0,0,0,-1,1623,1121,0,0
406,-97,0,0,0,0,0,0,0,0,0,-1,1630,1121,0,0
413,-97,0,0,0,0,0,0,0,0,0,-1,1637,1121,0,0
420,-97,0,0,0,0,0,0,0,0,0,-1,1644,1121,0,0
427,-97,0,0,0,0,0,0,0,0,0,-1,1651,1121,0,0
434,-97,0,0,0,0,0,0,0,0,0,-1,1658,1121,0,0
441,-97,0,0,0,0,0,0,0,0,0,-1,1665,1121,0,0
448,-97,0,0,0,0,0,0,0,0,0,-1,1672,1121,0,0
455,-97,0,0,0,0,0,0,0,0,0,-1,1679,1121,0,0
462,-97,0,0,0,0,0,0,0,0,0,-1,1686,1121,0,0
469,-97,0,0,0,0,0,0,0,0,0,-1,1693,1121,0,0
476,-97,0,0,0,0,0,0,0,0,0,-1,1700,1121,0,0
483,-97,0,0,0,0,0,0,0,0,0,-1,1707,1121,0,0
490,-97,0,0,0,0,0,0,0,0,0,-1,1714,1121,0,0
497,-97,0,0,0,0,0,0,0,0,0,-1,1721,1121,0,0
504,-97,0,0,0,0,0,0,0,0,0,-1,1728,1121,0,0
511,-97,0,0,0,0,0,0,0,0,0,-1,1735,1121,0,0
518,-97,0,0,0,0,0,0,0,0,0,-1,1742,1121,0,0
525,-97,0,0,0,0,0,0,0,0,0,-1,1749,1121,0,0
532,-97,0,0,0,0,0,0,0,0,0,-1,1756,1121,0,0
539,-97,0,0,0,0,0,0,0,0,0,-1,1763,1121,0,0
546,-97,0,0,0,0,0,0,0,0,0,-1,1770,1121,0,0
553,-97,0,0,0,0,0,0,0,0,0,-1,1777,1121,0,0
560,-97,0,0,0,0,0,0,0,0,0,-1,1784,1121,0,0
567,-97,0,0,0,0,0,0,0,0,0,-1,1791,1121,0,0
574,-97,0,0,0,0,0,0,0,0,0,-1,1798,1121,0,0
581,-97,0,0,0,0,0,0,0,0,0,-1,1805,1121,0,0
588,-97,0,0,0,0,0,0,0,0,0,-1,1812,1121,0,0
595,-97,0,0,0,0,0,0,0,0,0,-1,1819,1121,0,0
602,-97,0,0,0,0,0,0,0,0,0,-1,1826,1121,0,0
609,-97,0,0,0,0,0,0,0,0,0,-1,1833,1121,0,0
616,-97,0,0,0,0,0,0,0,0,0,-1,1840,1121,0,0
623,-97,0,0,0,0,0,0,0,0,0,-1,1847,1121,0,0
630,-97,0,0,0,0,0,0,0,0,0,-1,1854,1121,0,0
637,-97,0,0,0,0,0,0,0,0,0,-1,1861,1121,0,0
644,-97,80.5616,2.3551,0.00670624,-0.00322673,-3.92038e-05,0.0067064,-0.00322688,-0.00394676,0.00585109,0.0374934,1868,1121,80.5616,-2.3551
651,-97,80.5621,2.21057,0.00532113,-0.00252645,-4.6727e-05,0.00532141,-0.00252673,-0.00595404,0.0046259,0.0381754,1875,1121,80.5621,-2.21053
658,-97,80.5613,2.23877,0.00437401,-0.00203088,-0.000111569,0.00437596,-0.00203282,-0.0174123,0.00378164,0.0380055,1882,1121,80.5613,-2.23883
665,-97,80.5765,2.16235,0.00349109,-0.00154746,-0.000172178,0.00349697,-0.00155334,-0.034119,0.00298691,0.0400701,1889,1121,80.5765,-2.16236
672,-97,80.5797,2.08228,0.00269201,-0.0010929,-0.000258025,0.00270952,-0.00111041,-0.0677541,0.00226894,0.0408684,1896,1121,80.5797,-2.08226
679,-97,80.5861,2.23193,0.00215497,-0.000900163,-0.000292604,0.00218274,-0.000927934,-0.0946284,0.00184401,0.0390108,1903,1121,80.586,-2.23196
686,-97,80.5804,2.37354,0.00192524,-0.000826565,-0.000479558,0.00200642,-0.000907743,-0.167687,0.00172189,0.0359808,1910,1121,80.5804,-2.37352
693,-97,80.5708,2.29492,0.00186401,-0.000929607,-0.000437286,0.00193085,-0.000996456,-0.151698,0.00171854,0.0348976,1917,1121,80.5708,-2.29493
700,-97,80.5676,2.1134,0.00193296,-0.000947117,-0.000415306,0.00199165,-0.00100581,-0.14039,0.00176151,0.0292964,1924,1121,80.5677,-2.11345
707,-97,80.5688,2.02588,0.00161395,-0.000751608,-8.13083e-05,0.00161674,-0.000754399,-0.0343177,0.00139883,0.0297006,1931,1121,80.5689,-2.02594
714,-97,80.5961,1.90149,0,0,0,0,0,0,0,-1,1938,1121,80.596,-1.90155
721,-97,75.2008,9.76489,0,0,0,0,0,0,0,-1,1945,1121,75.2008,-9.76486
728,-97,75.171,9.45227,0,0,0,0,0,0,0,-1,1952,1121,75.171,-9.45233
735,-97,75.0841,8.82153,-0.000899787,0.00130866,0.00111409,0.00177303,-0.00136416,1.17587,0.00181638,0.0315661,1959,1121,75.0841,-8.8215
742,-97,75.0133,8.23291,-0.00111412,0.00216764,0.00165135,0.00285472,-0.00180121,1.17651,0.00271095,0.027351,1966,1121,75.0133,-8.23291
749,-97,75.1377,7.56946,-0.00184103,0.00345104,0.00244767,0.00440953,-0.00279952,1.19756,0.00419661,0.026534,1973,1121,75.1377,-7.56944
756,-97,75.123,6.9436,-0.00306765,0.00547762,0.0032731,0.00658723,-0.00417726,1.24395,0.00626659,0.0180473,1980,1121,75.123,-6.94364
763,-97,74.9829,6.39575,-0.00393684,0.00844871,0.00421366,0.00974629,-0.00523441,1.27207,0.0087789,0.0147856,1987,1121,74.9829,-6.39576
770,-97,74.8745,5.83777,-0.00452433,0.0122291,0.00519347,0.0137084,-0.00600366,1.2933,0.011667,0.0146937,1994,1121,74.8746,-5.83783
777,-97,74.7993,5.25122,-0.00477479,0.0163693,0.00618337,0.0180448,-0.00645028,1.30618,0.0146609,0.0197093,2001,1121,74.7992,-5.2512
784,-97,74.6921,4.59436,-0.00474346,0.0208281,0.007221,0.0227263,-0.00664165,1.31374,0.0177831,0.0405531,2008,1121,74.6922,-4.59432
791,-97,74.5916,4.38696,0,0,0,0,0,0,0,-1,2015,1121,74.5917,-4.3869
798,-97,74.7466,3.54919,0,0,0,0,0,0,0,-1,2022,1121,74.7465,-3.54916
805,-97,74.8176,3.29114,0,0,0,0,0,0,0,-1,2029,1121,74.8176,-3.29112
812,-97,72.1426,1.68274,0,0,0,0,0,0,0,-1,2036,1121,72.1425,-1.6827
-700,-104,0,0,0,0,0,0,0,0,0,-1,524,1128,0,0
-693,-104,-58.2144,-0.368286,0,0,0,0,0,0,0,-1,531,1128,-58.2144,0.3683
-686,-104,-59.0908,-0.364624,-0.0553681,0.0302905,0.0624464,0.0631838,-0.0882613,1.08598,0.0878355,0.0485197,538,1128,-59.0908,0.364592
-679,-104,-59.6371,-0.794922,-0.0506033,0.0274071,0.0533942,0.0545256,-0.0777218,1.10085,0.0767436,0.0476736,545,1128,-59.6371,0.794939
-672,-104,-59.4161,-0.0330811,0,0,0,0,0,0,0,-1,552,1128,-59.4161,0.0331035
-665,-104,-57.354,2.81042,0,0,0,0,0,0,0,-1,559,1128,-57.354,-2.81044
-658,-104,-57.6341,3.65344,0,0,0,0,0,0,0,-1,566,1128,-57.6341,-3.65346
-651,-104,-57.8728,3.84143,0,0,0,0,0,0,0,-1,573,1128,-57.8728,-3.84141
-644,-104,-57.9519,4.54736,-0.0225791,0.0113722,0.0134028,0.0160254,-0.0272323,1.23663,0.0252527,0.0195975,580,1128,-57.9519,-4.54735
-637,-104,-58.0107,5.22144,-0.0176945,0.00864235,0.00676891,0.0102802,-0.0193323,1.33339,0.017361,0.0145955,587,1128,-58.0107,-5.22149
-630,-104,-58.0398,5.7959,-0.0132126,0.00563206,0.00133014,0.00572549,-0.013306,1.50068,0.0112746,0.0202644,594,1128,-58.0398,-5.7959
-623,-104,-58.1877,6.45483,-0.00978979,0.00289658,-0.00225623,0.00328589,-0.0101791,-1.39993,0.00810648,0.0231627,601,1128,-58.1877,-6.45484
-616,-104,-58.5616,7.23352,-0.00786377,0.00176504,-0.00376794,0.00306422,-0.00916295,-1.23876,0.00734624,0.0321794,608,1128,-58.5616,-7.23357
-609,-104,-58.7086,7.81909,-0.00664062,0.00113782,-0.00385658,0.00272575,-0.00822855,-1.1802,0.00658509,0.0429793,615,1128,-58.7086,-7.81912
-602,-104,-58.619,8.37512,0,0,0,0,0,0,0,-1,622,1128,-58.619,-8.37511
-595,-104,-57.9191,9.18555,0,0,0,0,0,0,0,-1,629,1128,-57.919,-9.1856
-588,-104,-58.1415,9.95251,0,0,0,0,0,0,0,-1,636,1128,-58.1415,-9.95256
-581,-104,-23.9373,2.85864,0,0,0,0,0,0,0,-1,643,1128,-23.9373,-2.85861
-574,-104,-63.5802,0.460693,0,0,0,0,0,0,0,-1,650,1128,-63.5802,-0.460679
-567,-104,-63.3952,0.273071,-0.00135019,-0.00170457,-0.00196063,0.000441241,-0.003496,-0.740333,0.00249081,0.0361025,657,1128,-63.3952,-0.27307
-560,-104,-63.2789,0.0325928,0.000102407,-0.00186294,-0.00150192,0.000914566,-0.0026751,-0.495711,0.00215398,0.0429025,664,1128,-63.2789,-0.0325844
-553,-104,-63.4016,-0.0552979,0.000217161,-0.00188138,-0.00125478,0.000803566,-0.00246779,-0.437178,0.0019685,0.04529,671,1128,-63.4016,0.0553062
-546,-104,-63.5798,0.338745,-0.00108587,-0.00172367,-0.00159741,0.000224166,-0.0030337,-0.686876,0.00210118,0.042091,678,1128,-63.5798,-0.338748
-539,-104,-63.6595,0.491943,-0.00265038,-0.00207569,-0.0024988,0.000152232,-0.00487831,-0.842644,0.00330412,0.0390434,685,1128,-63.6595,-0.491992
-532,-104,-63.7142,0.278687,-0.00433096,-0.00260565,-0.00381895,0.000446863,-0.00738348,-0.896478,0.00507783,0.0403181,692,1128,-63.7142,-0.278745
-525,-104,-63.6396,0.192139,-0.00616478,-0.00320069,-0.00546442,0.000979094,-0.0103446,-0.917822,0.00724483,0.0371536,699,1128,-63.6396,-0.192146
-518,-104,0,0,0,0,0,0,0,0,0,-1,706,1128,0,0
-511,-104,0,0,0,0,0,0,0,0,0,-1,713,1128,0,0
-504,-104,0,0,0,0,0,0,0,0,0,-1,720,1128,0,0
-497,-104,0,0,0,0,0,0,0,0,0,-1,727,1128,0,0
-490,-104,0,0,0,0,0,0,0,0,0,-1,734,1128,0,0
-483,-104,0,0,0,0,0,0,0,0,0,-1,741,1128,0,0
-476,-104,0,0,0,0,0,0,0,0,0,-1,748,1128,0,0
-469,-104,0,0,0,0,0,0,0,0,0,-1,755,1128,0,0
-462,-104,0,0,0,0,0,0,0,0,0,-1,762,1128,0,0
-455,-104,0,0,0,0,0,0,0,0,0,-1,769,1128,0,0
-448,-104,0,0,0,0,0,0,0,0,0,-1,776,1128,0,0
-441,-104,0,0,0,0,0,0,0,0,0,-1,783,1128,0,0
-434,-104,0,0,0,0,0,0,0,0,0,-1,790,1128,0,0
-427,-104,0,0,0,0,0,0,0,0,0,-1,797,1128,0,0
-420,-104,0,0,0,0,0,0,0,0,0,-1,804,1128,0,0
-413,-104,0,0,0,0,0,0,0,0,0,-1,811,1128,0,0
-406,-104,0,0,0,0,0,0,0,0,0,-1,818,1128,0,0
-399,-104,0,0,0,0,0,0,0,0,0,-1,825,1128,0,0
-392,-104,0,0,0,0,0,0,0,0,0,-1,832,1128,0,0
-385,-104,0,0,0,0,0,0,0,0,0,-1,839,1128,0,0
-378,-104,0,0,0,0,0,0,0,0,0,-1,846,1128,0,0
-371,-104,0,0,0,0,0,0,0,0,0,-1,853,1128,0,0
-364,-104,0,0,0,0,0,0,0,0,0,-1,860,1128,0,0
-357,-104,0,0,0,0,0,0,0,0,0,-1,867,1128,0,0
-350,-104,0,0,0,0,0,0,0,0,0,-1,874,1128,0,0
-343,-104,0,0,0,0,0,0,0,0,0,-1,881,1128,0,0
-336,-104,0,0,0,0,0,0,0,0,0,-1,888,1128,0,0
-329,-104,0,0,0,0,0,0,0,0,0,-1,895,1128,0,0
-322,-104,0,0,0,0,0,0,0,0,0,-1,902,1128,0,0
-315,-104,0,0,0,0,0,0,0,0,0,-1,909,1128,0,0
-308,-104,0,0,0,0,0,0,0,0,0,-1,916,1128,0,0
-301,-104,0,0,0,0,0,0,0,0,0,-1,923,1128,0,0
-294,-104,0,0,0,0,0,0,0,0,0,-1,930,1128,0,0
-287,-104,0,0,0,0,0,0,0,0,0,-1,937,1128,0,0
-280,-104,0,0,0,0,0,0,0,0,0,-1,944,1128,0,0
-273,-104,0,0,0,0,0,0,0,0,0,-1,951,1128,0,0
-266,-104,0,0,0,0,0,0,0,0,0,-1,958,1128,0,0
-259,-104,0,0,0,0,0,0,0,0,0,-1,965,1128,0,0
-252,-104,0,0,0,0,0,0,0,0,0,-1,972,1128,0,0
-245,-104,0,0,0,0,0,0,0,0,0,-1,979,1128,0,0
-238,-104,0,0,0,0,0,0,0,0,0,-1,986,1128,0,0
-231,-104,0,0,0,0,0,0,0,0,0,-1,993,1128,0,0
-224,-104,0,0,0,0,0,0,0,0,0,-1,1000,1128,0,0
-217,-104,0,0,0,0,0,0,0,0,0,-1,1007,1128,0,0
-210,-104,0,0,0,0,0,0,0,0,0,-1,1014,1128,0,0
-203,-104,0,0,0,0,0,0,0,0,0,-1,1021,1128,0,0
-196,-104,0,0,0,0,0,0,0,0,0,-1,1028,1128,0,0
-189,-104,0,0,0,0,0,0,0,0,0,-1,1035,1128,0,0
-182,-104,0,0,0,0,0,0,0,0,0,-1,1042,1128,0,0
-175,-104,0,0,0,0,0,0,0,0,0,-1,1049,1128,0,0
-168,-104,0,0,0,0,0,0,0,0,0,-1,1056,1128,0,0
-161,-104,0,0,0,0,0,0,0,0,0,-1,1063,1128,0,0
-154,-104,0,0,0,0,0,0,0,0,0,-1,1070,1128,0,0
-147,-104,0,0,0,0,0,0,0,0,0,-1,1077,1128,0,0
-140,-104,0,0,0,0,0,0,0,0,0,-1,1084,1128,0,0
-133,-104,0,0,0,0,0,0,0,0,0,-1,1091,1128,0,0
-126,-104,0,0,0,0,0,0,0,0,0,-1,1098,1128,0,0
-119,-104,0,0,0,0,0,0,0,0,0,-1,1105,1128,0,0
-112,-104,0,0,0,0,0,0,0,0,0,-1,1112,1128,0,0
-105,-104,0,0,0,0,0,0,0,0,0,-1,1119,1128,0,0
-98,-104,0,0,0,0,0,0,0,0,0,-1,1126,1128,0,0
-91,-104,0,0,0,0,0,0,0,0,0,-1,1133,1128,0,0
-84,-104,0,0,0,0,0,0,0,0,0,-1,1140,1128,0,0
-77,-104,0,0,0,0,0,0,0,0,0,-1,1147,1128,0,0
-70,-104,0,0,0,0,0,0,0,0,0,-1,1154,1128,0,0
-63,-104,0,0,0,0,0,0,0,0,0,-1,1161,1128,0,0
-56,-104,0,0,0,0,0,0,0,0,0,-1,1168,1128,0,0
-49,-104,0,0,0,0,0,0,0,0,0,-1,1175,1128,0,0
-42,-104,0,0,0,0,0,0,0,0,0,-1,1182,1128,0,0
-35,-104,0,0,0,0,0,0,0,0,0,-1,1189,1128,0,0
-28,-104,0,0,0,0,0,0,0,0,0,-1,1196,1128,0,0
-21,-104,0,0,0,0,0,0,0,0,0,-1,1203,1128,0,0
-14,-104,0,0,0,0,0,0,0,0,0,-1,1210,1128,0,0
-7,-104,0,0,0,0,0,0,0,0,0,-1,1217,1128,0,0
0,-104,0,0,0,0,0,0,0,0,0,-1,1224,1128,0,0
7,-104,0,0,0,0,0,0,0,0,0,-1,1231,1128,0,0
14,-104,0,0,0,0,0,0,0,0,0,-1,1238,1128,0,0
21,-104,0,0,0,0,0,0,0,0,0,-1,1245,1128,0,0
28,-104,0,0,0,0,0,0,0,0,0,-1,1252,1128,0,0
35,-104,0,0,0,0,0,0,0,0,0,-1,1259,1128,0,0
42,-104,0,0,0,0,0,0,0,0,0,-1,1266,1128,0,0
49,-104,0,0,0,0,0,0,0,0,0,-1,1273,1128,0,0
56,-104,0,0,0,0,0,0,0,0,0,-1,1280,1128,0,0
63,-104,0,0,0,0,0,0,0,0,0,-1,1287,1128,0,0
70,-104,0,0,0,0,0,0,0,0,0,-1,1294,1128,0,0
77,-104,0,0,0,0,0,0,0,0,0,-1,1301,1128,0,0
84,-104,0,0,0,0,0,0,0,0,0,-1,1308,1128,0,0
91,-104,0,0,0,0,0,0,0,0,0,-1,1315,1128,0,0
98,-104,0,0,0,0,0,0,0,0,0,-1,1322,1128,0,0
105,-104,0,0,0,0,0,0,0,0,0,-1,1329,1128,0,0
112,-104,0,0,0,0,0,0,0,0,0,-1,1336,1128,0,0
119,-104,0,0,0,0,0,0,0,0,0,-1,1343,1128,0,0
126,-104,0,0,0,0,0,0,0,0,0,-1,1350,1128,0,0
133,-104,0,0,0,0,0,0,0,0,0,-1,1357,1128,0,0
140,-104,0,0,0,0,0,0,0,0,0,-1,1364,1128,0,0
147,-104,0,0,0,0,0,0,0,0,0,-1,1371,1128,0,0
154,-104,0,0,0,0,0,0,0,0,0,-1,1378,1128,0,0
161,-104,0,0,0,0,0,0,0,0,0,-1,1385,1128,0,0
168,-104,0,0,0,0,0,0,0,0,0,-1,1392,1128,0,0
175,-104,0,0,0,0,0,0,0,0,0,-1,1399,1128,0,0
182,-104,0,0,0,0,0,0,0,0,0,-1,1406,1128,0,0
189,-104,0,0,0,0,0,0,0,0,0,-1,1413,1128,0,0
196,-104,0,0,0,0,0,0,0,0,0,-1,1420,1128,0,0
203,-104,0,0,0,0,0,0,0,0,0,-1,1427,1128,0,0
210,-104,0,0,0,0,0,0,0,0,0,-1,1434,1128,0,0
217,-104,0,0,0,0,0,0,0,0,0,-1,1441,1128,0,0
224,-104,0,0,0,0,0,0,0,0,0,-1,1448,1128,0,0
231,-104,0,0,0,0,0,0,0,0,0,-1,1455,1128,0,0
238,-104,0,0,0,0,0,0,0,0,0,-1,1462,1128,0,0
245,-104,0,0,0,0,0,0,0,0,0,-1,1469,1128,0,0
252,-104,0,0,0,0,0,0,0,0,0,-1,1476,1128,0,0
259,-104,0,0,0,0,0,0,0,0,0,-1,1483,1128,0,0
266,-104,0,0,0,0,0,0,0,0,0,-1,1490,1128,0,0
273,-104,0,0,0,0,0,0,0,0,0,-1,1497,1128,0,0
280,-104,0,0,0,0,0,0,0,0,0,-1,1504,1128,0,0
287,-104,0,0,0,0,0,0,0,0,0,-1,1511,1128,0,0
294,-104,0,0,0,0,0,0,0,0,0,-1,1518,1128,0,0
301,-104,0,0,0,0,0,0,0,0,0,-1,1525,1128,0,0
308,-104,0,0,0,0,0,0,0,0,0,-1,1532,1128,0,0
315,-104,0,0,0,0,0,0,0,0,0,-1,1539,1128,0,0
322,-104,0,0,0,0,0,0,0,0,0,-1,1546,1128,0,0
329,-104,0,0,0,0,0,0,0,0,0,-1,1553,1128,0,0
336,-104,0,0,0,0,0,0,0,0,0,-1,1560,1128,0,0
343,-104,0,0,0,0,0,0,0,0,0,-1,1567,1128,0,0
350,-104,0,0,0,0,0,0,0,0,0,-1,1574,1128,0,0
357,-104,0,0,0,0,0,0,0,0,0,-1,1581,1128,0,0
364,-104,0,0,0,0,0,0,0,0,0,-1,1588,1128,0,0
371,-104,0,0,0,0,0,0,0,0,0,-1,1595,1128,0,0
378,-104,0,0,0,0,0,0,0,0,0,-1,1602,1128,0,0
385,-104,0,0,0,0,0,0,0,0,0,-1,1609,1128,0,0
392,-104,0,0,0,0,0,0,0,0,0,-1,1616,1128,0,0
399,-104,0,0,0,0,0,0,0,0,0,-1,1623,1128,0,0
406,-104,0,0,0,0,0,0,0,0,0,-1,1630,1128,0,0
413,-104,0,0,0,0,0,0,0,0,0,-1,1637,1128,0,0
420,-104,0,0,0,0,0,0,0,0,0,-1,1644,1128,0,0
427,-104,0,0,0,0,0,0,0,0,0,-1,1651,1128,0,0
434,-104,0,0,0,0,0,0,0,0,0,-1,1658,1128,0,0
441,-104,0,0,0,0,0,0,0,0,0,-1,1665,1128,0,0
448,-104,0,0,0,0,0,0,0,0,0,-1,1672,1128,0,0
455,-104,0,0,0,0,0,0,0,0,0,-1,1679,1128,0,0
462,-104,0,0,0,0,0,0,0,0,0,-1,1686,1128,0,0
469,-104,0,0,0,0,0,0,0,0,0,-1,1693,1128,0,0
476,-104,0,0,0,0,0,0,0,0,0,-1,1700,1128,0,0
483,-104,0,0,0,0,0,0,0,0,0,-1,1707,1128,0,0
490,-104,0,0,0,0,0,0,0,0,0,-1,1714,1128,0,0
497,-104,0,0,0,0,0,0,0,0,0,-1,1721,1128,0,0
504,-104,0,0,0,0,0,0,0,0,0,-1,1728,1128,0,0
511,-104,0,0,0,0,0,0,0,0,0,-1,1735,1128,0,0
518,-104,0,0,0,0,0,0,0,0,0,-1,1742,1128,0,0
525,-104,0,0,0,0,0,0,0,0,0,-1,1749,1128,0,0
532,-104,0,0,0,0,0,0,0,0,0,-1,1756,1128,0,0
539,-104,0,0,0,0,0,0,0,0,0,-1,1763,1128,0,0
546,-104,0,0,0,0,0,0,0,0,0,-1,1770,1128,0,0
553,-104,0,0,0,0,0,0,0,0,0,-1,1777,1128,0,0
560,-104,0,0,0,0,0,0,0,0,0,-1,1784,1128,0,0
567,-104,0,0,0,0,0,0,0,0,0,-1,1791,1128,0,0
574,-104,0,0,0,0,0,0,0,0,0,-1,1798,1128,0,0
581,-104,0,0,0,0,0,0,0,0,0,-1,1805,1128,0,0
588,-104,0,0,0,0,0,0,0,0,0,-1,1812,1128,0,0
595,-104,0,0,0,0,0,0,0,0,0,-1,1819,1128,0,0
602,-104,0,0,0,0,0,0,0,0,0,-1,1826,1128,0,0
609,-104,0,0,0,0,0,0,0,0,0,-1,1833,1128,0,0
616,-104,0,0,0,0,0,0,0,0,0,-1,1840,1128,0,0
623,-104,0,0,0,0,0,0,0,0,0,-1,1847,1128,0,0
630,-104,0,0,0,0,0,0,0,0,0,-1,1854,1128,0,0
637,-104,0,0,0,0,0,0,0,0,0,-1,1861,1128,0,0
644,-104,80.5098,2.35876,0.00543208,-0.00286409,0.000460262,0.00545753,-0.00288955,0.0552529,0.00489462,0.0374612,1868,1128,80.5098,-2.35879
651,-104,80.5167,2.31323,0.00424623,-0.00208086,0.000272243,0.00425792,-0.00209255,0.0429225,0.00373682,0.0400239,1875,1128,80.5167,-2.31321
658,-104,80.4929,2.26563,0.00348638,-0.00154511,9.2715e-05,0.00348808,-0.00154682,0.0184186,0.00297805,0.0411034,1882,1128,80.493,-2.26561
665,-104,80.4857,2.09082,0.00278609,-0.00107002,-4.52485e-05,0.00278662,-0.00107055,-0.0117321,0.00229923,0.0423846,1889,1128,80.4857,-2.09076
672,-104,80.5482,2.0144,0.00217885,-0.000658022,-0.000179332,0.00219015,-0.000669314,-0.0628811,0.00172699,0.0417344,1896,1128,80.5483,-2.01439
679,-104,80.5743,2.12158,0.00185959,-0.000590696,-0.000210369,0.00187752,-0.000608626,-0.0850258,0.0014964,0.040281,1903,1128,80.5743,-2.12161
686,-104,80.4993,2.1571,0.00187181,-0.000575028,-0.000391744,0.001933,-0.000636217,-0.154945,0.00154503,0.0380217,1910,1128,80.4993,-2.15709
693,-104,80.5391,2.15295,0.00193364,-0.000692657,-0.000341447,0.00197731,-0.000736323,-0.127194,0.00162041,0.0349001,1917,1128,80.539,-2.15291
700,-104,80.5754,2.04224,0.00204513,-0.000746077,-0.00030515,0.0020781,-0.000779048,-0.107631,0.00170546,0.0281705,1924,1128,80.5755,-2.04223
707,-104,80.5712,2.08557,0,0,0,0,0,0,0,-1,1931,1128,80.5712,-2.08552
714,-104,45.5221,2.32166,0,0,0,0,0,0,0,-1,1938,1128,45.5221,-2.3216
721,-104,73.8613,10.292,0,0,0,0,0,0,0,-1,1945,1128,73.8613,-10.292
728,-104,74.6674,9.49109,0,0,0,0,0,0,0,-1,1952,1128,74.6674,-9.49111
735,-104,74.804,8.62646,0,0,0,0,0,0,0,-1,1959,1128,74.804,-8.62644
742,-104,74.5143,8.25549,-0.000525584,0.0018948,0.00160506,0.00269478,-0.00132556,1.10842,0.00236559,0.0273183,1966,1128,74.5142,-8.25553
749,-104,74.4052,7.60486,-0.00129146,0.00316556,0.00231312,0.00414903,-0.00227493,1.16878,0.00376111,0.0250368,1973,1128,74.4052,-7.60485
756,-104,74.3901,6.95142,-0.00254536,0.00524727,0.00307362,0.00631365,-0.00361174,1.23684,0.00580078,0.0183683,1980,1128,74.3901,-6.95143
763,-104,74.2644,6.38806,-0.00344019,0.00837052,0.00380995,0.00949289,-0.00456256,1.28431,0.00827966,0.021355,1987,1128,74.2644,-6.38807
770,-104,74.1755,5.82678,-0.00399847,0.0122898,0.00442058,0.0134122,-0.00512087,1.32215,0.0110512,0.0196724,1994,1128,74.1755,-5.82676
777,-104,74.0786,5.18042,-0.00416066,0.0166587,0.0049158,0.017761,-0.005263,1.3502,0.0139304,0.0283824,2001,1128,74.0785,-5.18047
784,-104,73.9329,4.53796,-0.00393211,0.0215039,0.0053379,0.0225787,-0.00500688,1.37211,0.0169695,0.0456693,2008,1128,73.933,-4.53792
791,-104,74.1494,4.08533,0,0,0,0,0,0,0,-1,2015,1128,74.1493,-4.08529
798,-104,74.1306,3.67664,0,0,0,0,0,0,0,-1,2022,1128,74.1307,-3.6766
805,-104,72.395,3.03723,0,0,0,0,0,0,0,-1,2029,1128,72.3951,-3.03729
812,-104,72.0347,2.20032,0,0,0,0,0,0,0,-1,2036,1128,72.0346,-2.2003
-700,-111,0,0,0,0,0,0,0,0,0,-1,524,1135,0,0
-693,-111,-58.6143,-0.119507,-0.0617005,0.0396242,0.0664407,0.0725145,-0.0945908,1.11113,0.0967585,0.0484327,531,1135,-58.6143,0.119545
-686,-111,-59.8119,-0.156738,-0.0590909,0.0365216,0.0585993,0.0643415,-0.0869108,1.12755,0.087649,0.0476447,538,1135,-59.8118,0.156756
-679,-111,-60.1821,-1.3717,0,0,0,0,0,0,0,-1,545,1135,-60.1821,1.37173
-672,-111,-60.0597,-0.502319,0,0,0,0,0,0,0,-1,552,1135,-60.0597,0.502368
-665,-111,-58.1647,4.56116,0,0,0,0,0,0,0,-1,559,1135,-58.1647,-4.56112
-658,-111,-57.3129,4.40613,0,0,0,0,0,0,0,-1,566,1135,-57.3129,-4.40608
-651,-111,-57.0345,3.69287,0,0,0,0,0,0,0,-1,573,1135,-57.0346,-3.69287
-644,-111,-57.1578,4.46326,-0.0234388,0.0124515,0.0124009,0.0163194,-0.0273067,1.26845,0.0254524,0.0320577,580,1135,-57.1578,-4.4632
-637,-111,-57.2856,5.20154,-0.0182992,0.00929341,0.00603435,0.0105554,-0.0195611,1.36464,0.017645,0.0146623,587,1135,-57.2856,-5.20159
-630,-111,-57.3365,5.76868,-0.0137945,0.00587908,0.000713923,0.00590495,-0.0138204,1.53457,0.0116901,0.0307527,594,1135,-57.3365,-5.76874
-623,-111,-57.3895,6.5177,-0.0104073,0.00311078,-0.00289548,0.00370486,-0.0110014,-1.36843,0.00883216,0.0273623,601,1135,-57.3895,-6.51775
-616,-111,-57.8113,7.20984,-0.00874546,0.00193478,-0.00436741,0.00349329,-0.010304,-1.22803,0.00828304,0.0339958,608,1135,-57.8114,-7.20989
-609,-111,-58.018,7.81592,-0.00758313,0.00132432,-0.00422103,0.00300678,-0.00926559,-1.19151,0.00738622,0.040235,615,1135,-58.018,-7.81597
-602,-111,-57.9348,8.62683,0,0,0,0,0,0,0,-1,622,1135,-57.9348,-8.6268
-595,-111,-57.1664,9.25317,0,0,0,0,0,0,0,-1,629,1135,-57.1664,-9.25322
-588,-111,-56.8052,10.1877,0,0,0,0,0,0,0,-1,636,1135,-56.8052,-10.1878
-581,-111,-21.0555,3.14551,0,0,0,0,0,0,0,-1,643,1135,-21.0555,-3.14548
-574,-111,-63.5447,0.441528,0,0,0,0,0,0,0,-1,650,1135,-63.5447,-0.441495
-567,-111,-63.4825,0.296997,-0.00231468,-0.00143727,-0.00228432,0.000450091,-0.00420203,-0.880269,0.0029628,0.0396027,657,1135,-63.4825,-0.297015
-560,-111,-63.4711,0.0517578,-0.00034886,-0.00166809,-0.00172686,0.000840073,-0.00285703,-0.602962,0.0022379,0.0402762,664,1135,-63.4711,-0.0517732
-553,-111,-63.4528,-0.0571289,0.000318645,-0.00174979,-0.00129692,0.000943227,-0.00237437,-0.448809,0.00197393,0.0429987,671,1135,-63.4528,0.057114
-546,-111,-63.4439,0.219238,-0.000866377,-0.00145833,-0.00165062,0.000514588,-0.0028393,-0.696684,0.00208566,0.0409766,678,1135,-63.4439,-0.219296
-539,-111,-63.5133,0.363037,-0.00241044,-0.00151116,-0.00255765,0.000636073,-0.00455768,-0.872409,0.00327116,0.0395471,685,1135,-63.5133,-0.363057
-532,-111,-63.5408,0.413452,-0.00408876,-0.0017288,-0.00389475,0.0011608,-0.00697835,-0.932486,0.00508354,0.0401713,692,1135,-63.5408,-0.413464
-525,-111,-63.6057,0.380371,-0.00593146,-0.00201083,-0.00555386,0.00191853,-0.00986082,-0.955055,0.00729794,0.0380706,699,1135,-63.6057,-0.380396
-518,-111,0,0,0,0,0,0,0,0,0,-1,706,1135,0,0
-511,-111,0,0,0,0,0,0,0,0,0,-1,713,1135,0,0
-504,-111,0,0,0,0,0,0,0,0,0,-1,720,1135,0,0
-497,-111,0,0,0,0,0,0,0,0,0,-1,727,1135,0,0
-490,-111,0,0,0,0,0,0,0,0,0,-1,734,1135,0,0
-483,-111,0,0,0,0,0,0,0,0,0,-1,741,1135,0,0
-476,-111,0,0,0,0,0,0,0,0,0,-1,748,1135,0,0
-469,-111,0,0,0,0,0,0,0,0,0,-1,755,1135,0,0
-462,-111,0,0,0,0,0,0,0,0,0,-1,762,1135,0,0
-455,-111,0,0,0,0,0,0,0,0,0,-1,769,1135,0,0
-448,-111,0,0,0,0,0,0,0,0,0,-1,776,1135,0,0
-441,-111,0,0,0,0,0,0,0,0,0,-1,783,1135,0,0
-434,-111,0,0,0,0,0,0,0,0,0,-1,790,1135,0,0
-427,-111,0,0,0,0,0,0,0,0,0,-1,797,1135,0,0
-420,-111,0,0,0,0,0,0,0,0,0,-1,804,1135,0,0
-413,-111,0,0,0,0,0,0,0,0,0,-1,811,1135,0,0
-406,-111,0,0,0,0,0,0,0,0,0,-1,818,1135,0,0
-399,-111,0,0,0,0,0,0,0,0,0,-1,825,1135,0,0
-392,-111,0,0,0,0,0,0,0,0,0,-1,832,1135,0,0
-385,-111,0,0,0,0,0,0,0,0,0,-1,839,1135,0,0
-378,-111,0,0,0,0,0,0,0,0,0,-1,846,1135,0,0
-371,-111,0,0,0,0,0,0,0,0,0,-1,853,1135,0,0
-364,-111,0,0,0,0,0,0,0,0,0,-1,860,1135,0,0
-357,-111,0,0,0,0,0,0,0,0,0,-1,867,1135,0,0
-350,-111,0,0,0,0,0,0,0,0,0,-1,874,1135,0,0
-343,-111,0,0,0,0,0,0,0,0,0,-1,881,1135,0,0
-336,-111,0,0,0,0,0,0,0,0,0,-1,888,1135,0,0
-329,-111,0,0,0,0,0,0,0,0,0,-1,895,1135,0,0
-322,-111,0,0,0,0,0,0,0,0,0,-1,902,1135,0,0
-315,-111,0,0,0,0,0,0,0,0,0,-1,909,1135,0,0
-308,-111,0,0,0,0,0,0,0,0,0,-1,916,1135,0,0
-301,-111,0,0,0,0,0,0,0,0,0,-1,923,1135,0,0
-294,-111,0,0,0,0,0,0,0,0,0,-1,930,1135,0,0
-287,-111,0,0,0,0,0,0,0,0,0,-1,937,1135,0,0
-280,-111,0,0,0,0,0,0,0,0,0,-1,944,1135,0,0
-273,-111,0,0,0,0,0,0,0,0,0,-1,951,1135,0,0
-266,-111,0,0,0,0,0,0,0,0,0,-1,958,1135,0,0
-259,-111,0,0,0,0,0,0,0,0,0,-1,965,1135,0,0
-252,-111,0,0,0,0,0,0,0,0,0,-1,972,1135,0,0
-245,-111,0,0,0,0,0,0,0,0,0,-1,979,1135,0,0
-238,-111,0,0,0,0,0,0,0,0,0,-1,986,1135,0,0
-231,-111,0,0,0,0,0,0,0,0,0,-1,993,1135,0,0
-224,-111,0,0,0,0,0,0,0,0,0,-1,1000,1135,0,0
-217,-111,0,0,0,0,0,0,0,0,0,-1,1007,1135,0,0
-210,-111,0,0,0,0,0,0,0,0,0,-1,1014,1135,0,0
-203,-111,0,0,0,0,0,0,0,0,0,-1,1021,1135,0,0
-196,-111,0,0,0,0,0,0,0,0,0,-1,1028,1135,0,0
-189,-111,0,0,0,0,0,0,0,0,0,-1,1035,1135,0,0
-182,-111,0,0,0,0,0,0,0,0,0,-1,1042,1135,0,0
-175,-111,0,0,0,0,0,0,0,0,0,-1,1049,1135,0,0
-168,-111,0,0,0,0,0,0,0,0,0,-1,1056,1135,0,0
-161,-111,0,0,0,0,0,0,0,0,0,-1,1063,1135,0,0
-154,-111,0,0,0,0,0,0,0,0,0,-1,1070,1135,0,0
-147,-111,0,0,0,0,0,0,0,0,0,-1,1077,1135,0,0
-140,-111,0,0,0,0,0,0,0,0,0,-1,1084,1135,0,0
-133,-111,0,0,0,0,0,0,0,0,0,-1,1091,1135,0,0
-126,-111,0,0,0,0,0,0,0,0,0,-1,1098,1135,0,0
-119,-111,0,0,0,0,0,0,0,0,0,-1,1105,1135,0,0
-112,-111,0,0,0,0,0,0,0,0,0,-1,1112,1135,0,0
-105,-111,0,0,0,0,0,0,0,0,0,-1,1119,1135,0,0
-98,-111,0,0,0,0,0,0,0,0,0,-1,1126,1135,0,0
-91,-111,0,0,0,0,0,0,0,0,0,-1,1133,1135,0,0
-84,-111,0,0,0,0,0,0,0,0,0,-1,1140,1135,0,0
-77,-111,0,0,0,0,0,0,0,0,0,-1,1147,1135,0,0
-70,-111,0,0,0,0,0,0,0,0,0,-1,1154,1135,0,0
-63,-111,0,0,0,0,0,0,0,0,0,-1,1161,1135,0,0
-56,-111,0,0,0,0,0,0,0,0,0,-1,1168,1135,0,0
-49,-111,0,0,0,0,0,0,0,0,0,-1,1175,1135,0,0
-42,-111,0,0,0,0,0,0,0,0,0,-1,1182,1135,0,0
-35,-111,0,0,0,0,0,0,0,0,0,-1,1189,1135,0,0
-28,-111,0,0,0,0,0,0,0,0,0,-1,1196,1135,0,0
-21,-111,0,0,0,0,0,0,0,0,0,-1,1203,1135,0,0
-14,-111,0,0,0,0,0,0,0,0,0,-1,1210,1135,0,0
-7,-111,0,0,0,0,0,0,0,0,0,-1,1217,1135,0,0
0,-111,0,0,0,0,0,0,0,0,0,-1,1224,1135,0,0
7,-111,0,0,0,0,0,0,0,0,0,-1,1231,1135,0,0
14,-111,0,0,0,0,0,0,0,0,0,-1,1238,1135,0,0
21,-111,0,0,0,0,0,0,0,0,0,-1,1245,1135,0,0
28,-111,0,0,0,0,0,0,0,0,0,-1,1252,1135,0,0
35,-111,0,0,0,0,0,0,0,0,0,-1,1259,1135,0,0
42,-111,0,0,0,0,0,0,0,0,0,-1,1266,1135,0,0
49,-111,0,0,0,0,0,0,0,0,0,-1,1273,1135,0,0
56,-111,0,0,0,0,0,0,0,0,0,-1,1280,1135,0,0
63,-111,0,0,0,0,0,0,0,0,0,-1,1287,1135,0,0
70,-111,0,0,0,0,0,0,0,0,0,-1,1294,1135,0,0
77,-111,0,0,0,0,0,0,0,0,0,-1,1301,1135,0,0
84,-111,0,0,0,0,0,0,0,0,0,-1,1308,1135,0,0
91,-111,0,0,0,0,0,0,0,0,0,-1,1315,1135,0,0
98,-111,0,0,0,0,0,0,0,0,0,-1,1322,1135,0,0
105,-111,0,0,0,0,0,0,0,0,0,-1,1329,1135,0,0
112,-111,0,0,0,0,0,0,0,0,0,-1,1336,1135,0,0
119,-111,0,0,0,0,0,0,0,0,0,-1,1343,1135,0,0
126,-111,0,0,0,0,0,0,0,0,0,-1,1350,1135,0,0
133,-111,0,0,0,0,0,0,0,0,0,-1,1357,1135,0,0
140,-111,0,0,0,0,0,0,0,0,0,-1,1364,1135,0,0
147,-111,0,0,0,0,0,0,0,0,0,-1,1371,1135,0,0
154,-111,0,0,0,0,0,0,0,0,0,-1,1378,1135,0,0
161,-111,0,0,0,0,0,0,0,0,0,-1,1385,1135,0,0
168,-111,0,0,0,0,0,0,0,0,0,-1,1392,1135,0,0
175,-111,0,0,0,0,0,0,0,0,0,-1,1399,1135,0,0
182,-111,0,0,0,0,0,0,0,0,0,-1,1406,1135,0,0
189,-111,0,0,0,0,0,0,0,0,0,-1,1413,1135,0,0
196,-111,0,0,0,0,0,0,0,0,0,-1,1420,1135,0,0
203,-111,0,0,0,0,0,0,0,0,0,-1,1427,1135,0,0
210,-111,0,0,0,0,0,0,0,0,0,-1,1434,1135,0,0
217,-111,0,0,0,0,0,0,0,0,0,-1,1441,1135,0,0
224,-111,0,0,0,0,0,0,0,0,0,-1,1448,1135,0,0
231,-111,0,0,0,0,0,0,0,0,0,-1,1455,1135,0,0
238,-111,0,0,0,0,0,0,0,0,0,-1,1462,1135,0,0
245,-111,0,0,0,0,0,0,0,0,0,-1,1469,1135,0,0
252,-111,0,0,0,0,0,0,0,0,0,-1,1476,1135,0,0
259,-111,0,0,0,0,0,0,0,0,0,-1,1483,1135,0,0
266,-111,0,0,0,0,0,0,0,0,0,-1,1490,1135,0,0
273,-111,0,0,0,0,0,0,0,0,0,-1,1497,1135,0,0
280,-111,0,0,0,0,0,0,0,0,0,-1,1504,1135,0,0
287,-111,0,0,0,0,0,0,0,0,0,-1,1511,1135,0,0
294,-111,0,0,0,0,0,0,0,0,0,-1,1518,1135,0,0
301,-111,0,0,0,0,0,0,0,0,0,-1,1525,1135,0,0
308,-111,0,0,0,0,0,0,0,0,0,-1,1532,1135,0,0
315,-111,0,0,0,0,0,0,0,0,0,-1,1539,1135,0,0
322,-111,0,0,0,0,0,0,0,0,0,-1,1546,1135,0,0
329,-111,0,0,0,0,0,0,0,0,0,-1,1553,1135,0,0
336,-111,0,0,0,0,0,0,0,0,0,-1,1560,1135,0,0
343,-111,0,0,0,0,0,0,0,0,0,-1,1567,1135,0,0
350,-111,0,0,0,0,0,0,0,0,0,-1,1574,1135,0,0
357,-111,0,0,0,0,0,0,0,0,0,-1,1581,1135,0,0
364,-111,0,0,0,0,0,0,0,0,0,-1,1588,1135,0,0
371,-111,0,0,0,0,0,0,0,0,0,-1,1595,1135,0,0
378,-111,0,0,0,0,0,0,0,0,0,-1,1602,1135,0,0
385,-111,0,0,0,0,0,0,0,0,0,-1,1609,1135,0,0
392,-111,0,0,0,0,0,0,0,0,0,-1,1616,1135,0,0
399,-111,0,0,0,0,0,0,0,0,0,-1,1623,1135,0,0
406,-111,0,0,0,0,0,0,0,0,0,-1,1630,1135,0,0
413,-111,0,0,0,0,0,0,0,0,0,-1,1637,1135,0,0
420,-111,0,0,0,0,0,0,0,0,0,-1,1644,1135,0,0
427,-111,0,0,0,0,0,0,0,0,0,-1,1651,1135,0,0
434,-111,0,0,0,0,0,0,0,0,0,-1,1658,1135,0,0
441,-111,0,0,0,0,0,0,0,0,0,-1,1665,1135,0,0
448,-111,0,0,0,0,0,0,0,0,0,-1,1672,1135,0,0
455,-111,0,0,0,0,0,0,0,0,0,-1,1679,1135,0,0
462,-111,0,0,0,0,0,0,0,0,0,-1,1686,1135,0,0
469,-111,0,0,0,0,0,0,0,0,0,-1,1693,1135,0,0
476,-111,0,0,0,0,0,0,0,0,0,-1,1700,1135,0,0
483,-111,0,0,0,0,0,0,0,0,0,-1,1707,1135,0,0
490,-111,0,0,0,0,0,0,0,0,0,-1,1714,1135,0,0
497,-111,0,0,0,0,0,0,0,0,0,-1,1721,1135,0,0
504,-111,0,0,0,0,0,0,0,0,0,-1,1728,1135,0,0
511,-111,0,0,0,0,0,0,0,0,0,-1,1735,1135,0,0
518,-111,0,0,0,0,0,0,0,0,0,-1,1742,1135,0,0
525,-111,0,0,0,0,0,0,0,0,0,-1,1749,1135,0,0
532,-111,0,0,0,0,0,0,0,0,0,-1,1756,1135,0,0
539,-111,0,0,0,0,0,0,0,0,0,-1,1763,1135,0,0
546,-111,0,0,0,0,0,0,0,0,0,-1,1770,1135,0,0
553,-111,0,0,0,0,0,0,0,0,0,-1,1777,1135,0,0
560,-111,0,0,0,0,0,0,0,0,0,-1,1784,1135,0,0
567,-111,0,0,0,0,0,0,0,0,0,-1,1791,1135,0,0
574,-111,0,0,0,0,0,0,0,0,0,-1,1798,1135,0,0
581,-111,0,0,0,0,0,0,0,0,0,-1,1805,1135,0,0
588,-111,0,0,0,0,0,0,0,0,0,-1,1812,1135,0,0
595,-111,0,0,0,0,0,0,0,0,0,-1,1819,1135,0,0
602,-111,0,0,0,0,0,0,0,0,0,-1,1826,1135,0,0
609,-111,0,0,0,0,0,0,0,0,0,-1,1833,1135,0,0
616,-111,0,0,0,0,0,0,0,0,0,-1,1840,1135,0,0
623,-111,0,0,0,0,0,0,0,0,0,-1,1847,1135,0,0
630,-111,0,0,0,0,0,0,0,0,0,-1,1854,1135,0,0
637,-111,0,0,0,0,0,0,0,0,0,-1,1861,1135,0,0
644,-111,80.469,2.1239,0.00413989,-0.00178403,0.000755656,0.00423476,-0.0018789,0.124896,0.00361603,0.0389496,1868,1135,80.469,-2.12385
651,-111,80.5315,2.30225,0.00314921,-0.00105413,0.000498095,0.00320743,-0.00111235,0.116353,0.00258995,0.0391605,1875,1135,80.5314,-2.30227
658,-111,80.6523,2.2323,0.0025834,-0.000579051,0.000267822,0.00260593,-0.000601572,0.0838918,0.00196869,0.0403477,1882,1135,80.6524,-2.23227
665,-111,80.5103,1.94543,0,0,0,0,0,0,0,-1,1889,1135,80.5103,-1.94544
672,-111,80.6349,1.78491,0.00168634,8.9112e-05,-6.94298e-05,0.00168935,8.60996e-05,-0.04336,0.00109866,0.0429839,1896,1135,80.6349,-1.7849
679,-111,80.5527,2.06458,0.00158614,-3.04595e-05,-8.4574e-05,0.00159055,-3.4872e-05,-0.0521263,0.00107218,0.041016,1903,1135,80.5528,-2.06452
686,-111,80.4788,2.13843,0.00180535,-0.000121809,-0.000243992,0.00183576,-0.00015222,-0.124001,0.0012776,0.0384213,1910,1135,80.4788,-2.13847
693,-111,80.4901,2.17297,0.00194371,-0.000298479,-0.000174269,0.00195717,-0.000311943,-0.0771056,0.00142023,0.0363166,1917,1135,80.4901,-2.17293
700,-111,80.6094,2.12219,0.00206787,-0.000401327,-0.000107013,0.0020725,-0.000405956,-0.043231,0.00153498,0.0288253,1924,1135,80.6094,-2.12222
707,-111,80.6407,2.14392,0,0,0,0,0,0,0,-1,1931,1135,80.6408,-2.14397
714,-111,45.1654,7.39746,0,0,0,0,0,0,0,-1,1938,1135,45.1654,-7.39745
721,-111,73.7976,10.4374,0,0,0,0,0,0,0,-1,1945,1135,73.7976,-10.4374
728,-111,73.8905,9.60876,0.000437644,0.000679201,0.00115359,0.00171832,-0.000601475,0.837557,0.00139011,0.0341965,1952,1135,73.8905,-9.60879
735,-111,73.9484,8.96155,0.000183857,0.00102025,0.0012912,0.00195929,-0.000755183,0.942008,0.00161778,0.0324288,1959,1135,73.9483,-8.96153
742,-111,73.797,8.34497,-4.68122e-05,0.00165284,0.00160474,0.00261888,-0.00101286,1.02891,0.00216405,0.0215183,1966,1135,73.797,-8.34495
749,-111,73.6809,7.65295,-0.000832332,0.00289007,0.00217992,0.00389524,-0.0018375,1.13874,0.00338013,0.0215022,1973,1135,73.6809,-7.65292
756,-111,73.6497,6.98523,-0.00202953,0.00504893,0.00275561,0.00599518,-0.00297578,1.24002,0.00527627,0.0181965,1980,1135,73.6496,-6.98526
763,-111,73.5867,6.39172,-0.00274088,0.00836577,0.00304349,0.00914507,-0.00352019,1.32012,0.00754885,0.0185656,1987,1135,73.5867,-6.39174
770,-111,73.5396,5.77502,-0.00298559,0.0125013,0.00297354,0.0130526,-0.0035369,1.38747,0.0100895,0.0168968,1994,1135,73.5396,-5.77499
777,-111,73.3145,5.10986,-0.00272875,0.0172144,0.00259932,0.0175476,-0.00306197,1.4433,0.0128413,0.031048,2001,1135,73.3144,-5.10984
784,-111,73.1738,4.33936,0,0,0,0,0,0,0,-1,2008,1135,73.1738,-4.33939
791,-111,73.707,3.78369,0,0,0,0,0,0,0,-1,2015,1135,73.707,-3.78368
798,-111,72.3945,3.65674,0,0,0,0,0,0,0,-1,2022,1135,72.3946,-3.6568
805,-111,72.3269,3.60278,0,0,0,0,0,0,0,-1,2029,1135,72.327,-3.60282
812,-111,72.1943,3.45728,0,0,0,0,0,0,0,-1,2036,1135,72.1943,-3.45723
-700,-118,0,0,0,0,0,0,0,0,0,-1,524,1142,0,0
-693,-118,-59.0006,0.0913086,0,0,0,0,0,0,0,-1,531,1142,-59.0006,-0.0912825
-686,-118,-60.5323,-0.0640869,0,0,0,0,0,0,0,-1,538,1142,-60.5323,0.0641189
-679,-118,-62.1689,-0.664307,-0.052414,0.0404324,0.04672,0.0598717,-0.0718533,1.1765,0.0761563,0.0432018,545,1142,-62.1689,0.664263
-672,-118,-63.5397,-1.13843,-0.0463693,0.0348675,0.0389728,0.0505406,-0.0620424,1.18843,0.0651128,0.0458843,552,1142,-63.5397,1.13844
-665,-118,-64.8722,-1.55542,0,0,0,0,0,0,0,-1,559,1142,-64.8722,1.55544
-658,-118,-55.0958,-1.94812,0,0,0,0,0,0,0,-1,566,1142,-55.0958,1.94813
-651,-118,-56.0145,3.35718,0,0,0,0,0,0,0,-1,573,1142,-56.0145,-3.35715
-644,-118,-56.3231,4.31311,-0.0231906,0.0144034,0.0112326,0.0175039,-0.026291,1.30148,0.0254541,0.0403183,580,1142,-56.3231,-4.31309
-637,-118,-56.5408,5.22314,-0.0181407,0.0104247,0.00521166,0.0113459,-0.0190619,1.39586,0.0177433,0.0212523,587,1142,-56.5407,-5.22318
-630,-118,-56.5909,5.85339,-0.0138797,0.00628015,0.000109828,0.00628075,-0.0138803,1.56535,0.0119124,0.0301279,594,1142,-56.5909,-5.8534
-623,-118,-56.5587,6.57886,-0.0106652,0.0031922,-0.00345053,0.00400385,-0.0114769,-1.33977,0.00927843,0.0246802,601,1142,-56.5586,-6.57888
-616,-118,-56.7642,7.26575,-0.00931499,0.00197151,-0.00481283,0.0037451,-0.0110886,-1.21772,0.00890718,0.0419729,608,1142,-56.7642,-7.26581
-609,-118,-57.083,7.74805,-0.00811965,0.00123144,-0.00447625,0.00302873,-0.00991694,-1.18898,0.00781891,0.0466799,615,1142,-57.083,-7.74803
-602,-118,-56.7669,8.62732,0,0,0,0,0,0,0,-1,622,1142,-56.7669,-8.62732
-595,-118,-56.58,9.19312,0,0,0,0,0,0,0,-1,629,1142,-56.5799,-9.19308
-588,-118,-55.8975,10.2943,0,0,0,0,0,0,0,-1,636,1142,-55.8974,-10.2943
-581,-118,-24.6116,3.89648,0,0,0,0,0,0,0,-1,643,1142,-24.6116,-3.89645
-574,-118,-63.434,0.276733,0,0,0,0,0,0,0,-1,650,1142,-63.434,-0.276752
-567,-118,-63.5126,0.210205,-0.00283385,-0.00158649,-0.00273051,0.000590663,-0.005011,-0.897677,0.00355395,0.0439489,657,1142,-63.5126,-0.210226
-560,-118,-63.5779,0.145752,-0.000451065,-0.00200821,-0.00216143,0.00106775,-0.00352702,-0.612527,0.00277656,0.0386811,664,1142,-63.578,-0.145699
-553,-118,-63.4461,0.209717,0.000762234,-0.00219015,-0.00152702,0.00140993,-0.00283785,-0.40116,0.00249822,0.0391478,671,1142,-63.4461,-0.209735
-546,-118,-63.3228,0.286865,-0.000400238,-0.00160505,-0.00179868,0.000894232,-0.00289952,-0.623811,0.00229005,0.0402306,678,1142,-63.3228,-0.286899
-539,-118,-63.2936,0.388184,-0.00203975,-0.0011878,-0.00259853,0.00101944,-0.00424699,-0.86664,0.0032253,0.0414196,685,1142,-63.2936,-0.388136
-532,-118,-63.3802,0.526978,-0.00388145,-0.000921005,-0.00381138,0.0016875,-0.00648995,-0.970618,0.00498527,0.0411498,692,1142,-63.3802,-0.526951
-525,-118,-63.5783,0.475098,-0.00595438,-0.000725702,-0.00531287,0.00258123,-0.00926131,-1.01404,0.00719074,0.0407139,699,1142,-63.5783,-0.475047
-518,-118,0,0,0,0,0,0,0,0,0,-1,706,1142,0,0
-511,-118,0,0,0,0,0,0,0,0,0,-1,713,1142,0,0
-504,-118,0,0,0,0,0,0,0,0,0,-1,720,1142,0,0
-497,-118,0,0,0,0,0,0,0,0,0,-1,727,1142,0,0
-490,-118,0,0,0,0,0,0,0,0,0,-1,734,1142,0,0
-483,-118,0,0,0,0,0,0,0,0,0,-1,741,1142,0,0
-476,-118,0,0,0,0,0,0,0,0,0,-1,748,1142,0,0
-469,-118,0,0,0,0,0,0,0,0,0,-1,755,1142,0,0
-462,-118,0,0,0,0,0,0,0,0,0,-1,762,1142,0,0
-455,-118,0,0,0,0,0,0,0,0,0,-1,769,1142,0,0
-448,-118,0,0,0,0,0,0,0,0,0,-1,776,1142,0,0
-441,-118,0,0,0,0,0,0,0,0,0,-1,783,1142,0,0
-434,-118,0,0,0,0,0,0,0,0,0,-1,790,1142,0,0
-427,-118,0,0,0,0,0,0,0,0,0,-1,797,1142,0,0
-420,-118,0,0,0,0,0,0,0,0,0,-1,804,1142,0,0
-413,-118,0,0,0,0,0,0,0,0,0,-1,811,1142,0,0
-406,-118,0,0,0,0,0,0,0,0,0,-1,818,1142,0,0
-399,-118,0,0,0,0,0,0,0,0,0,-1,825,1142,0,0
-392,-118,0,0,0,0,0,0,0,0,0,-1,832,1142,0,0
-385,-118,0,0,0,0,0,0,0,0,0,-1,839,1142,0,0
-378,-118,0,0,0,0,0,0,0,0,0,-1,846,1142,0,0
-371,-118,0,0,0,0,0,0,0,0,0,-1,853,1142,0,0
-364,-118,0,0,0,0,0,0,0,0,0,-1,860,1142,0,0
-357,-118,0,0,0,0,0,0,0,0,0,-1,867,1142,0,0
-350,-118,0,0,0,0,0,0,0,0,0,-1,874,1142,0,0
-343,-118,0,0,0,0,0,0,0,0,0,-1,881,1142,0,0
-336,-118,0,0,0,0,0,0,0,0,0,-1,888,1142,0,0
-329,-118,0,0,0,0,0,0,0,0,0,-1,895,1142,0,0
-322,-118,0,0,0,0,0,0,0,0,0,-1,902,1142,0,0
-315,-118,0,0,0,0,0,0,0,0,0,-1,909,1142,0,0
-308,-118,0,0,0,0,0,0,0,0,0,-1,916,1142,0,0
-301,-118,0,0,0,0,0,0,0,0,0,-1,923,1142,0,0
-294,-118,0,0,0,0,0,0,0,0,0,-1,930,1142,0,0
-287,-118,0,0,0,0,0,0,0,0,0,-1,937,1142,0,0
-280,-118,0,0,0,0,0,0,0,0,0,-1,944,1142,0,0
-273,-118,0,0,0,0,0,0,0,0,0,-1,951,1142,0,0
-266,-118,0,0,0,0,0,0,0,0,0,-1,958,1142,0,0
-259,-118,0,0,0,0,0,0,0,0,0,-1,965,1142,0,0
-252,-118,0,0,0,0,0,0,0,0,0,-1,972,1142,0,0
-245,-118,0,0,0,0,0,0,0,0,0,-1,979,1142,0,0
-238,-118,0,0,0,0,0,0,0,0,0,-1,986,1142,0,0
-231,-118,0,0,0,0,0,0,0,0,0,-1,993,1142,0,0
-224,-118,0,0,0,0,0,0,0,0,0,-1,1000,1142,0,0
-217,-118,0,0,0,0,0,0,0,0,0,-1,1007,1142,0,0
-210,-118,0,0,0,0,0,0,0,0,0,-1,1014,1142,0,0
-203,-118,0,0,0,0,0,0,0,0,0,-1,1021,1142,0,0
-196,-118,0,0,0,0,0,0,0,0,0,-1,1028,1142,0,0
-189,-118,0,0,0,0,0,0,0,0,0,-1,1035,1142,0,0
-182,-118,0,0,0,0,0,0,0,0,0,-1,1042,1142,0,0
-175,-118,0,0,0,0,0,0,0,0,0,-1,1049,1142,0,0
-168,-118,0,0,0,0,0,0,0,0,0,-1,1056,1142,0,0
-161,-118,0,0,0,0,0,0,0,0,0,-1,1063,1142,0,0
-154,-118,0,0,0,0,0,0,0,0,0,-1,1070,1142,0,0
-147,-118,0,0,0,0,0,0,0,0,0,-1,1077,1142,0,0
-140,-118,0,0,0,0,0,0,0,0,0,-1,1084,1142,0,0
-133,-118,0,0,0,0,0,0,0,0,0,-1,1091,1142,0,0
-126,-118,0,0,0,0,0,0,0,0,0,-1,1098,1142,0,0
-119,-118,0,0,0,0,0,0,0,0,0,-1,1105,1142,0,0
-112,-118,0,0,0,0,0,0,0,0,0,-1,1112,1142,0,0
-105,-118,0,0,0,0,0,0,0,0,0,-1,1119,1142,0,0
-98,-118,0,0,0,0,0,0,0,0,0,-1,1126,1142,0,0
-91,-118,0,0,0,0,0,0,0,0,0,-1,1133,1142,0,0
-84,-118,0,0,0,0,0,0,0,0,0,-1,1140,1142,0,0
-77,-118,0,0,0,0,0,0,0,0,0,-1,1147,1142,0,0
-70,-118,0,0,0,0,0,0,0,0,0,-1,1154,1142,0,0
-63,-118,0,0,0,0,0,0,0,0,0,-1,1161,1142,0,0
-56,-118,0,0,0,0,0,0,0,0,0,-1,1168,1142,0,0
-49,-118,0,0,0,0,0,0,0,0,0,-1,1175,1142,0,0
-42,-118,0,0,0,0,0,0,0,0,0,-1,1182,1142,0,0
-35,-118,0,0,0,0,0,0,0,0,0,-1,1189,1142,0,0
-28,-118,0,0,0,0,0,0,0,0,0,-1,1196,1142,0,0
-21,-118,0,0,0,0,0,0,0,0,0,-1,1203,1142,0,0
-14,-118,0,0,0,0,0,0,0,0,0,-1,1210,1142,0,0
-7,-118,0,0,0,0,0,0,0,0,0,-1,1217,1142,0,0
0,-118,0,0,0,0,0,0,0,0,0,-1,1224,1142,0,0
7,-118,0,0,0,0,0,0,0,0,0,-1,1231,1142,0,0
14,-118,0,0,0,0,0,0,0,0,0,-1,1238,1142,0,0
21,-118,0,0,0,0,0,0,0,0,0,-1,1245,1142,0,0
28,-118,0,0,0,0,0,0,0,0,0,-1,1252,1142,0,0
35,-118,0,0,0,0,0,0,0,0,0,-1,1259,1142,0,0
42,-118,0,0,0,0,0,0,0,0,0,-1,1266,1142,0,0
49,-118,0,0,0,0,0,0,0,0,0,-1,1273,1142,0,0
56,-118,0,0,0,0,0,0,0,0,0,-1,1280,1142,0,0
63,-118,0,0,0,0,0,0,0,0,0,-1,1287,1142,0,0
70,-118,0,0,0,0,0,0,0,0,0,-1,1294,1142,0,0
77,-118,0,0,0,0,0,0,0,0,0,-1,1301,1142,0,0
84,-118,0,0,0,0,0,0,0,0,0,-1,1308,1142,0,0
91,-118,0,0,0,0,0,0,0,0,0,-1,1315,1142,0,0
98,-118,0,0,0,0,0,0,0,0,0,-1,1322,1142,0,0
105,-118,0,0,0,0,0,0,0,0,0,-1,1329,1142,0,0
112,-118,0,0,0,0,0,0,0,0,0,-1,1336,1142,0,0
119,-118,0,0,0,0,0,0,0,0,0,-1,1343,1142,0,0
126,-118,0,0,0,0,0,0,0,0,0,-1,1350,1142,0,0
133,-118,0,0,0,0,0,0,0,0,0,-1,1357,1142,0,0
140,-118,0,0,0,0,0,0,0,0,0,-1,1364,1142,0,0
147,-118,0,0,0,0,0,0,0,0,0,-1,1371,1142,0,0
154,-118,0,0,0,0,0,0,0,0,0,-1,1378,1142,0,0
161,-118,0,0,0,0,0,0,0,0,0,-1,1385,1142,0,0
168,-118,0,0,0,0,0,0,0,0,0,-1,1392,1142,0,0
175,-118,0,0,0,0,0,0,0,0,0,-1,1399,1142,0,0
182,-118,0,0,0,0,0,0,0,0,0,-1,1406,1142,0,0
189,-118,0,0,0,0,0,0,0,0,0,-1,1413,1142,0,0
196,-118,0,0,0,0,0,0,0,0,0,-1,1420,1142,0,0
203,-118,0,0,0,0,0,0,0,0,0,-1,1427,1142,0,0
210,-118,0,0,0,0,0,0,0,0,0,-1,1434,1142,0,0
217,-118,0,0,0,0,0,0,0,0,0,-1,1441,1142,0,0
224,-118,0,0,0,0,0,0,0,0,0,-1,1448,1142,0,0
231,-118,0,0,0,0,0,0,0,0,0,-1,1455,1142,0,0
238,-118,0,0,0,0,0,0,0,0,0,-1,1462,1142,0,0
245,-118,0,0,0,0,0,0,0,0,0,-1,1469,1142,0,0
252,-118,0,0,0,0,0,0,0,0,0,-1,1476,1142,0,0
259,-118,0,0,0,0,0,0,0,0,0,-1,1483,1142,0,0
266,-118,0,0,0,0,0,0,0,0,0,-1,1490,1142,0,0
273,-118,0,0,0,0,0,0,0,0,0,-1,1497,1142,0,0
280,-118,0,0,0,0,0,0,0,0,0,-1,1504,1142,0,0
287,-118,0,0,0,0,0,0,0,0,0,-1,1511,1142,0,0
294,-118,0,0,0,0,0,0,0,0,0,-1,1518,1142,0,0
301,-118,0,0,0,0,0,0,0,0,0,-1,1525,1142,0,0
308,-118,0,0,0,0,0,0,0,0,0,-1,1532,1142,0,0
315,-118,0,0,0,0,0,0,0,0,0,-1,1539,1142,0,0
322,-118,0,0,0,0,0,0,0,0,0,-1,1546,1142,0,0
329,-118,0,0,0,0,0,0,0,0,0,-1,1553,1142,0,0
336,-118,0,0,0,0,0,0,0,0,0,-1,1560,1142,0,0
343,-118,0,0,0,0,0,0,0,0,0,-1,1567,1142,0,0
350,-118,0,0,0,0,0,0,0,0,0,-1,1574,1142,0,0
357,-118,0,0,0,0,0,0,0,0,0,-1,1581,1142,0,0
364,-118,0,0,0,0,0,0,0,0,0,-1,1588,1142,0,0
371,-118,0,0,0,0,0,0,0,0,0,-1,1595,1142,0,0
378,-118,0,0,0,0,0,0,0,0,0,-1,1602,1142,0,0
385,-118,0,0,0,0,0,0,0,0,0,-1,1609,1142,0,0
392,-118,0,0,0,0,0,0,0,0,0,-1,1616,1142,0,0
399,-118,0,0,0,0,0,0,0,0,0,-1,1623,1142,0,0
406,-118,0,0,0,0,0,0,0,0,0,-1,1630,1142,0,0
413,-118,0,0,0,0,0,0,0,0,0,-1,1637,1142,0,0
420,-118,0,0,0,0,0,0,0,0,0,-1,1644,1142,0,0
427,-118,0,0,0,0,0,0,0,0,0,-1,1651,1142,0,0
434,-118,0,0,0,0,0,0,0,0,0,-1,1658,1142,0,0
441,-118,0,0,0,0,0,0,0,0,0,-1,1665,1142,0,0
448,-118,0,0,0,0,0,0,0,0,0,-1,1672,1142,0,0
455,-118,0,0,0,0,0,0,0,0,0,-1,1679,1142,0,0
462,-118,0,0,0,0,0,0,0,0,0,-1,1686,1142,0,0
469,-118,0,0,0,0,0,0,0,0,0,-1,1693,1142,0,0
476,-118,0,0,0,0,0,0,0,0,0,-1,1700,1142,0,0
483,-118,0,0,0,0,0,0,0,0,0,-1,1707,1142,0,0
490,-118,0,0,0,0,0,0,0,0,0,-1,1714,1142,0,0
497,-118,0,0,0,0,0,0,0,0,0,-1,1721,1142,0,0
504,-118,0,0,0,0,0,0,0,0,0,-1,1728,1142,0,0
511,-118,0,0,0,0,0,0,0,0,0,-1,1735,1142,0,0
518,-118,0,0,0,0,0,0,0,0,0,-1,1742,1142,0,0
525,-118,0,0,0,0,0,0,0,0,0,-1,1749,1142,0,0
532,-118,0,0,0,0,0,0,0,0,0,-1,1756,1142,0,0
539,-118,0,0,0,0,0,0,0,0,0,-1,1763,1142,0,0
546,-118,0,0,0,0,0,0,0,0,0,-1,1770,1142,0,0
553,-118,0,0,0,0,0,0,0,0,0,-1,1777,1142,0,0
560,-118,0,0,0,0,0,0,0,0,0,-1,1784,1142,0,0
567,-118,0,0,0,0,0,0,0,0,0,-1,1791,1142,0,0
574,-118,0,0,0,0,0,0,0,0,0,-1,1798,1142,0,0
581,-118,0,0,0,0,0,0,0,0,0,-1,1805,1142,0,0
588,-118,0,0,0,0,0,0,0,0,0,-1,1812,1142,0,0
595,-118,0,0,0,0,0,0,0,0,0,-1,1819,1142,0,0
602,-118,0,0,0,0,0,0,0,0,0,-1,1826,1142,0,0
609,-118,0,0,0,0,0,0,0,0,0,-1,1833,1142,0,0
616,-118,0,0,0,0,0,0,0,0,0,-1,1840,1142,0,0
623,-118,0,0,0,0,0,0,0,0,0,-1,1847,1142,0,0
630,-118,0,0,0,0,0,0,0,0,0,-1,1854,1142,0,0
637,-118,0,0,0,0,0,0,0,0,0,-1,1861,1142,0,0
644,-118,80.3365,2.26843,0.00228074,-0.00134075,0.00122762,0.00265765,-0.00171766,0.29789,0.00254545,0.0410386,1868,1142,80.3365,-2.26841
651,-118,80.5422,2.67798,0.00167698,-0.000672232,0.000826051,0.00193836,-0.000933613,0.306455,0.00169162,0.0399438,1875,1142,80.5423,-2.67799
658,-118,80.6603,2.45935,0.00144582,-0.000238627,0.000497254,0.00158166,-0.000374464,0.266668,0.00119891,0.0396113,1882,1142,80.6603,-2.4593
665,-118,80.6709,2.14893,0.00126914,9.77563e-05,0.000247833,0.00131942,4.74796e-05,0.200149,0.00086422,0.040916,1889,1142,80.6709,-2.14891
672,-118,80.5631,2.16528,0.00118401,0.000354311,3.37344e-05,0.00118538,0.000352942,0.0405692,0.000702797,0.0462282,1896,1142,80.5631,-2.16534
679,-118,80.5947,2.2937,0.001349,0.000148834,1.65334e-05,0.00134923,0.000148606,0.0137724,0.000854269,0.0423927,1903,1142,80.5947,-2.29376
686,-118,80.5536,2.25684,0.00178724,4.47734e-05,-0.000123701,0.00179598,3.60355e-05,-0.0705204,0.00118549,0.0353658,1910,1142,80.5536,-2.25681
693,-118,80.4819,2.19543,0.00197507,-0.000131476,-4.87881e-05,0.0019762,-0.000132605,-0.0231437,0.00136382,0.0379694,1917,1142,80.4819,-2.19546
700,-118,80.606,2.12927,0.00208682,-0.000246169,4.06685e-05,0.00208752,-0.000246877,0.0174249,0.00148085,0.0276495,1924,1142,80.606,-2.12929
707,-118,80.7134,2.28967,0,0,0,0,0,0,0,-1,1931,1142,80.7134,-2.2897
714,-118,50.4819,8.53809,0,0,0,0,0,0,0,-1,1938,1142,50.4819,-8.53809
721,-118,73.119,10.4681,0,0,0,0,0,0,0,-1,1945,1142,73.119,-10.4682
728,-118,73.1427,9.72095,0.000781504,0.000661764,0.0012927,0.00201572,-0.000572454,0.762258,0.00156982,0.0242812,1952,1142,73.1427,-9.7209
735,-118,73.1498,9.05811,0.000657285,0.00085805,0.00139136,0.00215264,-0.000637309,0.821409,0.00168812,0.0241139,1959,1142,73.1498,-9.05808
742,-118,73.1132,8.41577,0.000435833,0.00133796,0.0015907,0.00254031,-0.000766523,0.923553,0.00199866,0.0364986,1966,1142,73.1132,-8.41574
749,-118,72.9338,7.7782,-0.000420867,0.00251874,0.00206327,0.00358219,-0.00148432,1.09489,0.00300758,0.0261509,1973,1142,72.9338,-7.7782
756,-118,72.9324,7.05811,-0.00163236,0.00477554,0.0024833,0.00562524,-0.00248206,1.24112,0.00479658,0.0192182,1980,1142,72.9323,-7.05813
763,-118,72.9451,6.38037,-0.00235456,0.00826745,0.00246996,0.0088137,-0.00290082,1.35314,0.00704472,0.0116976,1987,1142,72.945,-6.38032
770,-118,72.8159,5.77051,-0.00256978,0.0125565,0.00201104,0.0128193,-0.00283259,1.44085,0.0096303,0.0156214,1994,1142,72.8158,-5.77054
777,-118,72.5989,5.18152,-0.00226916,0.0175469,0.00117479,0.0176163,-0.00233857,1.51179,0.0125963,0.0319379,2001,1142,72.5988,-5.18157
784,-118,72.5481,4.50342,0,0,0,0,0,0,0,-1,2008,1142,72.5481,-4.50348
791,-118,72.5776,3.85547,0,0,0,0,0,0,0,-1,2015,1142,72.5776,-3.85544
798,-118,72.3276,3.6438,0,0,0,0,0,0,0,-1,2022,1142,72.3277,-3.64378
805,-118,71.9709,3.71191,0,0,0,0,0,0,0,-1,2029,1142,71.9708,-3.71194
812,-118,74.6331,-3.01611,0,0,0,0,0,0,0,-1,2036,1142,74.633,3.01615
-700,-125,0,0,0,0,0,0,0,0,0,-1,524,1149,0,0
-693,-125,-59.2158,0.59021,0,0,0,0,0,0,0,-1,531,1149,-59.2158,-0.590209
-686,-125,-60.5821,0.415649,0,0,0,0,0,0,0,-1,538,1149,-60.5821,-0.415651
-679,-125,-62.0607,-0.155884,-0.0491064,0.0497243,0.0430491,0.065846,-0.065228,1.21247,0.0756759,0.0412592,545,1149,-62.0607,0.155825
-672,-125,-63.4199,-0.51709,-0.043611,0.0426724,0.0359949,0.0557164,-0.056655,1.22313,0.0648785,0.0465267,552,1149,-63.4199,0.517048
-665,-125,-64.7874,-0.88855,0,0,0,0,0,0,0,-1,559,1149,-64.7874,0.88858
-658,-125,-60.2678,1.99365,0,0,0,0,0,0,0,-1,566,1149,-60.2678,-1.99367
-651,-125,-55.3478,3.70129,0,0,0,0,0,0,0,-1,573,1149,-55.3478,-3.70135
-644,-125,-55.6437,4.47278,-0.0222077,0.0167364,0.0103274,0.0193056,-0.0247768,1.32697,0.0255163,0.0397414,580,1149,-55.6437,-4.47282
-637,-125,-55.8328,5.21033,-0.0174371,0.0116636,0.00465965,0.0123915,-0.018165,1.41583,0.0177465,0.0174846,587,1149,-55.8328,-5.21028
-630,-125,-55.8367,5.89685,-0.0135435,0.00656458,-0.000187013,0.00656632,-0.0135453,-1.5615,0.0118422,0.0159416,594,1149,-55.8367,-5.89683
-623,-125,-55.8267,6.62329,-0.010579,0.00292291,-0.00372109,0.00388052,-0.0115366,-1.31892,0.00925972,0.0144547,601,1149,-55.8266,-6.62324
-616,-125,-55.9113,7.27637,-0.00956082,0.00181945,-0.00492533,0.00365504,-0.0113964,-1.21406,0.009065,0.0398634,608,1149,-55.9113,-7.27638
-609,-125,-56.2053,7.80212,0,0,0,0,0,0,0,-1,615,1149,-56.2053,-7.80206
-602,-125,-56.8663,8.45361,0,0,0,0,0,0,0,-1,622,1149,-56.8663,-8.45361
-595,-125,-55.8979,9.35608,0,0,0,0,0,0,0,-1,629,1149,-55.8979,-9.35606
-588,-125,-54.9294,10.2585,0,0,0,0,0,0,0,-1,636,1149,-54.9294,-10.2585
-581,-125,-26.4055,4.83203,0,0,0,0,0,0,0,-1,643,1149,-26.4055,-4.83204
-574,-125,-37.674,0.655151,0,0,0,0,0,0,0,-1,650,1149,-37.674,-0.655195
-567,-125,-63.4816,0.170654,0,0,0,0,0,0,0,-1,657,1149,-63.4816,-0.170615
-560,-125,-63.5685,0.159912,-0.000319378,-0.00240666,-0.0023218,0.00118256,-0.00390859,-0.574181,0.00307663,0.0397779,664,1149,-63.5685,-0.159943
-553,-125,-63.5817,0.259766,0.0015059,-0.00274748,-0.00149646,0.00197963,-0.00322121,-0.306588,0.00303109,0.0409324,671,1149,-63.5817,-0.259797
-546,-125,-63.4601,0.246582,0.000216487,-0.00183351,-0.00178278,0.00124792,-0.00286494,-0.524502,0.00243497,0.040925,678,1149,-63.4601,-0.246587
-539,-125,-63.3689,0.369751,-0.00163695,-0.000978998,-0.00252327,0.00123665,-0.00385259,-0.850221,0.00306493,0.0418932,685,1149,-63.3689,-0.3698
-532,-125,-63.4139,0.343628,-0.00375016,-0.00029006,-0.00360833,0.00198153,-0.00602175,-1.00894,0.00481295,0.0409555,692,1149,-63.4139,-0.343634
-525,-125,-63.4823,0.192505,-0.00614675,0.00029628,-0.00492717,0.00296163,-0.00881209,-1.07493,0.00707177,0.0407087,699,1149,-63.4823,-0.192548
-518,-125,0,0,0,0,0,0,0,0,0,-1,706,1149,0,0
-511,-125,0,0,0,0,0,0,0,0,0,-1,713,1149,0,0
-504,-125,0,0,0,0,0,0,0,0,0,-1,720,1149,0,0
-497,-125,0,0,0,0,0,0,0,0,0,-1,727,1149,0,0
-490,-125,0,0,0,0,0,0,0,0,0,-1,734,1149,0,0
-483,-125,0,0,0,0,0,0,0,0,0,-1,741,1149,0,0
-476,-125,0,0,0,0,0,0,0,0,0,-1,748,1149,0,0
-469,-125,0,0,0,0,0,0,0,0,0,-1,755,1149,0,0
-462,-125,0,0,0,0,0,0,0,0,0,-1,762,1149,0,0
-455,-125,0,0,0,0,0,0,0,0,0,-1,769,1149,0,0
-448,-125,0,0,0,0,0,0,0,0,0,-1,776,1149,0,0
-441,-125,0,0,0,0,0,0,0,0,0,-1,783,1149,0,0
-434,-125,0,0,0,0,0,0,0,0,0,-1,790,1149,0,0
-427,-125,0,0,0,0,0,0,0,0,0,-1,797,1149,0,0
-420,-125,0,0,0,0,0,0,0,0,0,-1,804,1149,0,0
-413,-125,0,0,0,0,0,0,0,0,0,-1,811,1149,0,0
-406,-125,0,0,0,0,0,0,0,0,0,-1,818,1149,0,0
-399,-125,0,0,0,0,0,0,0,0,0,-1,825,1149,0,0
-392,-125,0,0,0,0,0,0,0,0,0,-1,832,1149,0,0
-385,-125,0,0,0,0,0,0,0,0,0,-1,839,1149,0,0
-378,-125,0,0,0,0,0,0,0,0,0,-1,846,1149,0,0
-371,-125,0,0,0,0,0,0,0,0,0,-1,853,1149,0,0
-364,-125,0,0,0,0,0,0,0,0,0,-1,860,1149,0,0
-357,-125,0,0,0,0,0,0,0,0,0,-1,867,1149,0,0
-350,-125,0,0,0,0,0,0,0,0,0,-1,874,1149,0,0
-343,-125,0,0,0,0,0,0,0,0,0,-1,881,1149,0,0
-336,-125,0,0,0,0,0,0,0,0,0,-1,888,1149,0,0
-329,-125,0,0,0,0,0,0,0,0,0,-1,895,1149,0,0
-322,-125,0,0,0,0,0,0,0,0,0,-1,902,1149,0,0
-315,-125,0,0,0,0,0,0,0,0,0,-1,909,1149,0,0
-308,-125,0,0,0,0,0,0,0,0,0,-1,916,1149,0,0
-301,-125,0,0,0,0,0,0,0,0,0,-1,923,1149,0,0
-294,-125,0,0,0,0,0,0,0,0,0,-1,930,1149,0,0
-287,-125,0,0,0,0,0,0,0,0,0,-1,937,1149,0,0
-280,-125,0,0,0,0,0,0,0,0,0,-1,944,1149,0,0
-273,-125,0,0,0,0,0,0,0,0,0,-1,951,1149,0,0
-266,-125,0,0,0,0,0,0,0,0,0,-1,958,1149,0,0
-259,-125,0,0,0,0,0,0,0,0,0,-1,965,1149,0,0
-252,-125,0,0,0,0,0,0,0,0,0,-1,972,1149,0,0
-245,-125,0,0,0,0,0,0,0,0,0,-1,979,1149,0,0
-238,-125,0,0,0,0,0,0,0,0,0,-1,986,1149,0,0
-231,-125,0,0,0,0,0,0,0,0,0,-1,993,1149,0,0
-224,-125,0,0,0,0,0,0,0,0,0,-1,1000,1149,0,0
-217,-125,0,0,0,0,0,0,0,0,0,-1,1007,1149,0,0
-210,-125,0,0,0,0,0,0,0,0,0,-1,1014,1149,0,0
-203,-125,0,0,0,0,0,0,0,0,0,-1,1021,1149,0,0
-196,-125,0,0,0,0,0,0,0,0,0,-1,1028,1149,0,0
-189,-125,0,0,0,0,0,0,0,0,0,-1,1035,1149,0,0
-182,-125,0,0,0,0,0,0,0,0,0,-1,1042,1149,0,0
-175,-125,0,0,0,0,0,0,0,0,0,-1,1049,1149,0,0
-168,-125,0,0,0,0,0,0,0,0,0,-1,1056,1149,0,0
-161,-125,0,0,0,0,0,0,0,0,0,-1,1063,1149,0,0
-154,-125,0,0,0,0,0,0,0,0,0,-1,1070,1149,0,0
-147,-125,0,0,0,0,0,0,0,0,0,-1,1077,1149,0,0
-140,-125,0,0,0,0,0,0,0,0,0,-1,1084,1149,0,0
-133,-125,0,0,0,0,0,0,0,0,0,-1,1091,1149,0,0
-126,-125,0,0,0,0,0,0,0,0,0,-1,1098,1149,0,0
-119,-125,0,0,0,0,0,0,0,0,0,-1,1105,1149,0,0
-112,-125,0,0,0,0,0,0,0,0,0,-1,1112,1149,0,0
-105,-125,0,0,0,0,0,0,0,0,0,-1,1119,1149,0,0
-98,-125,0,0,0,0,0,0,0,0,0,-1,1126,1149,0,0
-91,-125,0,0,0,0,0,0,0,0,0,-1,1133,1149,0,0
-84,-125,0,0,0,0,0,0,0,0,0,-1,1140,1149,0,0
-77,-125,0,0,0,0,0,0,0,0,0,-1,1147,1149,0,0
-70,-125,0,0,0,0,0,0,0,0,0,-1,1154,1149,0,0
-63,-125,0,0,0,0,0,0,0,0,0,-1,1161,1149,0,0
-56,-125,0,0,0,0,0,0,0,0,0,-1,1168,1149,0,0
-49,-125,0,0,0,0,0,0,0,0,0,-1,1175,1149,0,0
-42,-125,0,0,0,0,0,0,0,0,0,-1,1182,1149,0,0
-35,-125,0,0,0,0,0,0,0,0,0,-1,1189,1149,0,0
-28,-125,0,0,0,0,0,0,0,0,0,-1,1196,1149,0,0
-21,-125,0,0,0,0,0,0,0,0,0,-1,1203,1149,0,0
-14,-125,0,0,0,0,0,0,0,0,0,-1,1210,1149,0,0
-7,-125,0,0,0,0,0,0,0,0,0,-1,1217,1149,0,0
0,-125,0,0,0,0,0,0,0,0,0,-1,1224,1149,0,0
7,-125,0,0,0,0,0,0,0,0,0,-1,1231,1149,0,0
14,-125,0,0,0,0,0,0,0,0,0,-1,1238,1149,0,0
21,-125,0,0,0,0,0,0,0,0,0,-1,1245,1149,0,0
28,-125,0,0,0,0,0,0,0,0,0,-1,1252,1149,0,0
35,-125,0,0,0,0,0,0,0,0,0,-1,1259,1149,0,0
42,-125,0,0,0,0,0,0,0,0,0,-1,1266,1149,0,0
49,-125,0,0,0,0,0,0,0,0,0,-1,1273,1149,0,0
56,-125,0,0,0,0,0,0,0,0,0,-1,1280,1149,0,0
63,-125,0,0,0,0,0,0,0,0,0,-1,1287,1149,0,0
70,-125,0,0,0,0,0,0,0,0,0,-1,1294,1149,0,0
77,-125,0,0,0,0,0,0,0,0,0,-1,1301,1149,0,0
84,-125,0,0,0,0,0,0,0,0,0,-1,1308,1149,0,0
91,-125,0,0,0,0,0,0,0,0,0,-1,1315,1149,0,0
98,-125,0,0,0,0,0,0,0,0,0,-1,1322,1149,0,0
105,-125,0,0,0,0,0,0,0,0,0,-1,1329,1149,0,0
112,-125,0,0,0,0,0,0,0,0,0,-1,1336,1149,0,0
119,-125,0,0,0,0,0,0,0,0,0,-1,1343,1149,0,0
126,-125,0,0,0,0,0,0,0,0,0,-1,1350,1149,0,0
133,-125,0,0,0,0,0,0,0,0,0,-1,1357,1149,0,0
140,-125,0,0,0,0,0,0,0,0,0,-1,1364,1149,0,0
147,-125,0,0,0,0,0,0,0,0,0,-1,1371,1149,0,0
154,-125,0,0,0,0,0,0,0,0,0,-1,1378,1149,0,0
161,-125,0,0,0,0,0,0,0,0,0,-1,1385,1149,0,0
168,-125,0,0,0,0,0,0,0,0,0,-1,1392,1149,0,0
175,-125,0,0,0,0,0,0,0,0,0,-1,1399,1149,0,0
182,-125,0,0,0,0,0,0,0,0,0,-1,1406,1149,0,0
189,-125,0,0,0,0,0,0,0,0,0,-1,1413,1149,0,0
196,-125,0,0,0,0,0,0,0,0,0,-1,1420,1149,0,0
203,-125,0,0,0,0,0,0,0,0,0,-1,1427,1149,0,0
210,-125,0,0,0,0,0,0,0,0,0,-1,1434,1149,0,0
217,-125,0,0,0,0,0,0,0,0,0,-1,1441,1149,0,0
224,-125,0,0,0,0,0,0,0,0,0,-1,1448,1149,0,0
231,-125,0,0,0,0,0,0,0,0,0,-1,1455,1149,0,0
238,-125,0,0,0,0,0,0,0,0,0,-1,1462,1149,0,0
245,-125,0,0,0,0,0,0,0,0,0,-1,1469,1149,0,0
252,-125,0,0,0,0,0,0,0,0,0,-1,1476,1149,0,0
259,-125,0,0,0,0,0,0,0,0,0,-1,1483,1149,0,0
266,-125,0,0,0,0,0,0,0,0,0,-1,1490,1149,0,0
273,-125,0,0,0,0,0,0,0,0,0,-1,1497,1149,0,0
280,-125,0,0,0,0,0,0,0,0,0,-1,1504,1149,0,0
287,-125,0,0,0,0,0,0,0,0,0,-1,1511,1149,0,0
294,-125,0,0,0,0,0,0,0,0,0,-1,1518,1149,0,0
301,-125,0,0,0,0,0,0,0,0,0,-1,1525,1149,0,0
308,-125,0,0,0,0,0,0,0,0,0,-1,1532,1149,0,0
315,-125,0,0,0,0,0,0,0,0,0,-1,1539,1149,0,0
322,-125,0,0,0,0,0,0,0,0,0,-1,1546,1149,0,0
329,-125,0,0,0,0,0,0,0,0,0,-1,1553,1149,0,0
336,-125,0,0,0,0,0,0,0,0,0,-1,1560,1149,0,0
343,-125,0,0,0,0,0,0,0,0,0,-1,1567,1149,0,0
350,-125,0,0,0,0,0,0,0,0,0,-1,1574,1149,0,0
357,-125,0,0,0,0,0,0,0,0,0,-1,1581,1149,0,0
364,-125,0,0,0,0,0,0,0,0,0,-1,1588,1149,0,0
371,-125,0,0,0,0,0,0,0,0,0,-1,1595,1149,0,0
378,-125,0,0,0,0,0,0,0,0,0,-1,1602,1149,0,0
385,-125,0,0,0,0,0,0,0,0,0,-1,1609,1149,0,0
392,-125,0,0,0,0,0,0,0,0,0,-1,1616,1149,0,0
399,-125,0,0,0,0,0,0,0,0,0,-1,1623,1149,0,0
406,-125,0,0,0,0,0,0,0,0,0,-1,1630,1149,0,0
413,-125,0,0,0,0,0,0,0,0,0,-1,1637,1149,0,0
420,-125,0,0,0,0,0,0,0,0,0,-1,1644,1149,0,0
427,-125,0,0,0,0,0,0,0,0,0,-1,1651,1149,0,0
434,-125,0,0,0,0,0,0,0,0,0,-1,1658,1149,0,0
441,-125,0,0,0,0,0,0,0,0,0,-1,1665,1149,0,0
448,-125,0,0,0,0,0,0,0,0,0,-1,1672,1149,0,0
455,-125,0,0,0,0,0,0,0,0,0,-1,1679,1149,0,0
462,-125,0,0,0,0,0,0,0,0,0,-1,1686,1149,0,0
469,-125,0,0,0,0,0,0,0,0,0,-1,1693,1149,0,0
476,-125,0,0,0,0,0,0,0,0,0,-1,1700,1149,0,0
483,-125,0,0,0,0,0,0,0,0,0,-1,1707,1149,0,0
490,-125,0,0,0,0,0,0,0,0,0,-1,1714,1149,0,0
497,-125,0,0,0,0,0,0,0,0,0,-1,1721,1149,0,0
504,-125,0,0,0,0,0,0,0,0,0,-1,1728,1149,0,0
511,-125,0,0,0,0,0,0,0,0,0,-1,1735,1149,0,0
518,-125,0,0,0,0,0,0,0,0,0,-1,1742,1149,0,0
525,-125,0,0,0,0,0,0,0,0,0,-1,1749,1149,0,0
532,-125,0,0,0,0,0,0,0,0,0,-1,1756,1149,0,0
539,-125,0,0,0,0,0,0,0,0,0,-1,1763,1149,0,0
546,-125,0,0,0,0,0,0,0,0,0,-1,1770,1149,0,0
553,-125,0,0,0,0,0,0,0,0,0,-1,1777,1149,0,0
560,-125,0,0,0,0,0,0,0,0,0,-1,1784,1149,0,0
567,-125,0,0,0,0,0,0,0,0,0,-1,1791,1149,0,0
574,-125,0,0,0,0,0,0,0,0,0,-1,1798,1149,0,0
581,-125,0,0,0,0,0,0,0,0,0,-1,1805,1149,0,0
588,-125,0,0,0,0,0,0,0,0,0,-1,1812,1149,0,0
595,-125,0,0,0,0,0,0,0,0,0,-1,1819,1149,0,0
602,-125,0,0,0,0,0,0,0,0,0,-1,1826,1149,0,0
609,-125,0,0,0,0,0,0,0,0,0,-1,1833,1149,0,0
616,-125,0,0,0,0,0,0,0,0,0,-1,1840,1149,0,0
623,-125,0,0,0,0,0,0,0,0,0,-1,1847,1149,0,0
630,-125,0,0,0,0,0,0,0,0,0,-1,1854,1149,0,0
637,-125,0,0,0,0,0,0,0,0,0,-1,1861,1149,0,0
644,-125,80.356,2.54382,0,0,0,0,0,0,0,-1,1868,1149,80.3559,-2.54385
651,-125,80.4763,2.72656,0.000705045,-0.000765238,0.00113433,0.00132162,-0.00138181,0.497885,0.00156096,0.0396722,1875,1149,80.4763,-2.72659
658,-125,80.5215,2.40833,0.000678238,-0.000326245,0.000691353,0.00103052,-0.00067853,0.471265,0.000993674,0.038598,1882,1149,80.5215,-2.40827
665,-125,80.5422,2.0885,0.000720482,2.65524e-05,0.000344708,0.000862606,-0.000115572,0.391067,0.000617212,0.0423659,1889,1149,80.5423,-2.08848
672,-125,80.5293,2.099,0.000861337,0.000316378,5.22705e-05,0.000866305,0.000311409,0.094765,0.000506704,0.0458791,1896,1149,80.5293,-2.09905
679,-125,80.5592,2.15869,0.00121983,9.87738e-05,1.55771e-05,0.00122005,9.85574e-05,0.0138915,0.000782583,0.0398309,1903,1149,80.5593,-2.15872
686,-125,80.554,2.17041,0.00189133,8.66493e-05,-0.000146167,0.00190309,7.48875e-05,-0.0802955,0.00124452,0.0343673,1910,1149,80.554,-2.17036
693,-125,80.4541,2.14111,0.00213953,-3.62878e-05,-6.92283e-05,0.00214173,-3.84883e-05,-0.0317743,0.00144082,0.0361167,1917,1149,80.4541,-2.14113
700,-125,80.5796,2.1311,0.00221361,-0.000121133,5.11068e-05,0.00221473,-0.000122251,0.0218757,0.00151888,0.0241597,1924,1149,80.5796,-2.13108
707,-125,80.7704,2.28369,0,0,0,0,0,0,0,-1,1931,1149,80.7704,-2.2837
714,-125,54.8745,9.21375,0,0,0,0,0,0,0,-1,1938,1149,54.8746,-9.21371
721,-125,72.3414,10.5548,0,0,0,0,0,0,0,-1,1945,1149,72.3414,-10.5548
728,-125,72.3557,9.87744,0.0012672,0.000712668,0.00127816,0.00229782,-0.000317955,0.67859,0.00164812,0.0211475,1952,1149,72.3558,-9.8775
735,-125,72.3893,9.20276,0.00130217,0.000802745,0.00134289,0.00241836,-0.000313453,0.693473,0.00172624,0.0247957,1959,1149,72.3893,-9.20272
742,-125,72.2993,8.47974,0.00111516,0.00115123,0.0014428,0.00257611,-0.000309722,0.791648,0.00182941,0.0384315,1966,1149,72.2993,-8.4797
749,-125,72.2327,7.81812,0.00015838,0.00227949,0.00181241,0.00331885,-0.000880973,1.05012,0.00255731,0.0278706,1973,1149,72.2327,-7.81808
756,-125,72.2388,7.10352,-0.00109356,0.00465539,0.00201051,0.00528873,-0.0017269,1.26562,0.0042209,0.0227901,1980,1149,72.2388,-7.10352
763,-125,72.1948,6.40356,-0.00182574,0.00828098,0.00155735,0.00851551,-0.00206027,1.42132,0.00647398,0.0125579,1987,1149,72.1947,-6.40352
770,-125,72.0964,5.71863,-0.00201784,0.0127058,0.000541393,0.0127257,-0.00203772,1.53409,0.00923826,0.0162049,1994,1149,72.0964,-5.71866
777,-125,71.9399,5.17456,-0.00166273,0.0179406,-0.0010048,0.017992,-0.0017141,-1.51972,0.0126049,0.0350258,2001,1149,71.94,-5.17452
784,-125,71.8308,4.48401,0,0,0,0,0,0,0,-1,2008,1149,71.8307,-4.48398
791,-125,70.7432,3.79858,0,0,0,0,0,0,0,-1,2015,1149,70.7432,-3.79856
798,-125,73.0706,-3.13586,0,0,0,0,0,0,0,-1,2022,1149,73.0705,3.13581
805,-125,73.2634,-4.34607,0,0,0,0,0,0,0,-1,2029,1149,73.2634,4.34607
812,-125,73.3831,0.178101,0,0,0,0,0,0,0,-1,2036,1149,73.383,-0.17812
-700,-132,0,0,0,0,0,0,0,0,0,-1,524,1156,0,0
-693,-132,-59.4966,1.06104,0,0,0,0,0,0,0,-1,531,1156,-59.4966,-1.06098
-686,-132,-60.6125,1.01477,0,0,0,0,0,0,0,-1,538,1156,-60.6125,-1.01477
-679,-132,-61.9339,0.468506,0,0,0,0,0,0,0,-1,545,1156,-61.9339,-0.468456
-672,-132,-63.3005,0.102905,0,0,0,0,0,0,0,-1,552,1156,-63.3005,-0.102875
-665,-132,-57.1749,5.797,0,0,0,0,0,0,0,-1,559,1156,-57.1749,-5.79706
-658,-132,-54.9409,3.22046,0,0,0,0,0,0,0,-1,566,1156,-54.9409,-3.22047
-651,-132,-54.9999,3.79089,0,0,0,0,0,0,0,-1,573,1156,-54.9999,-3.79094
-644,-132,-54.9603,4.48364,-0.020465,0.0211324,0.00870575,0.0228809,-0.0222135,1.37259,0.0260362,0.0321914,580,1156,-54.9603,-4.48361
-637,-132,-55.1004,5.18762,-0.0163026,0.0143782,0.00369673,0.0148173,-0.0167417,1.45256,0.0182319,0.0156964,587,1156,-55.1004,-5.18757
-630,-132,-55.0905,5.89966,-0.0130695,0.00780278,-0.000547645,0.00781714,-0.0130839,-1.54458,0.0121943,0.0112429,594,1156,-55.0905,-5.89963
-623,-132,-55.1287,6.66016,-0.0105324,0.00288192,-0.00374043,0.0038544,-0.0115048,-1.31644,0.00922706,0.0170367,601,1156,-55.1287,-6.66019
-616,-132,-55.3033,7.22839,-0.009788,0.00172867,-0.00470684,0.00340759,-0.0114669,-1.22817,0.00899818,0.048907,608,1156,-55.3033,-7.22842
-609,-132,-55.2749,8.26819,0,0,0,0,0,0,0,-1,615,1156,-55.2749,-8.26814
-602,-132,-51.2123,7.94373,0,0,0,0,0,0,0,-1,622,1156,-51.2123,-7.94373
-595,-132,-55.2007,9.62585,0,0,0,0,0,0,0,-1,629,1156,-55.2007,-9.62589
-588,-132,-42.6534,6.92969,0,0,0,0,0,0,0,-1,636,1156,-42.6535,-6.92967
-581,-132,-35.9343,6.42957,0,0,0,0,0,0,0,-1,643,1156,-35.9342,-6.42957
-574,-132,-33.2071,2.86963,0,0,0,0,0,0,0,-1,650,1156,-33.2071,-2.86963
-567,-132,-63.5236,0.395874,0,0,0,0,0,0,0,-1,657,1156,-63.5236,-0.395837
-560,-132,-63.5594,0.272949,-0.000845865,-0.00231073,-0.002577,0.00110076,-0.00425736,-0.646939,0.00326756,0.0357188,664,1156,-63.5595,-0.27294
-553,-132,-63.5922,0.135376,0.00138854,-0.00268097,-0.0017431,0.00203308,-0.00332551,-0.354175,0.00312363,0.0381796,671,1156,-63.5922,-0.135367
-546,-132,-63.6717,0.271606,0.000598099,-0.00159891,-0.00195944,0.00174595,-0.00274676,-0.529918,0.00261523,0.0405709,678,1156,-63.6717,-0.27157
-539,-132,-63.4304,0.37793,-0.000931335,-0.000487609,-0.00253216,0.00183239,-0.00325134,-0.829096,0.00297296,0.0418913,685,1156,-63.4304,-0.377905
-532,-132,-63.2809,0.119263,-0.00302014,0.000456442,-0.00338451,0.00252296,-0.00508666,-1.02263,0.00447576,0.041646,692,1156,-63.2809,-0.119253
-525,-132,-63.4292,0.209961,-0.00573806,0.00127137,-0.00450031,0.00347067,-0.00793736,-1.11623,0.00675262,0.038414,699,1156,-63.4292,-0.20994
-518,-132,0,0,0,0,0,0,0,0,0,-1,706,1156,0,0
-511,-132,0,0,0,0,0,0,0,0,0,-1,713,1156,0,0
-504,-132,0,0,0,0,0,0,0,0,0,-1,720,1156,0,0
-497,-132,0,0,0,0,0,0,0,0,0,-1,727,1156,0,0
-490,-132,0,0,0,0,0,0,0,0,0,-1,734,1156,0,0
-483,-132,0,0,0,0,0,0,0,0,0,-1,741,1156,0,0
-476,-132,0,0,0,0,0,0,0,0,0,-1,748,1156,0,0
-469,-132,0,0,0,0,0,0,0,0,0,-1,755,1156,0,0
-462,-132,0,0,0,0,0,0,0,0,0,-1,762,1156,0,0
-455,-132,0,0,0,0,0,0,0,0,0,-1,769,1156,0,0
-448,-132,0,0,0,0,0,0,0,0,0,-1,776,1156,0,0
-441,-132,0,0,0,0,0,0,0,0,0,-1,783,1156,0,0
-434,-132,0,0,0,0,0,0,0,0,0,-1,790,1156,0,0
-427,-132,0,0,0,0,0,0,0,0,0,-1,797,1156,0,0
-420,-132,0,0,0,0,0,0,0,0,0,-1,804,1156,0,0
-413,-132,0,0,0,0,0,0,0,0,0,-1,811,1156,0,0
-406,-132,0,0,0,0,0,0,0,0,0,-1,818,1156,0,0
-399,-132,0,0,0,0,0,0,0,0,0,-1,825,1156,0,0
-392,-132,0,0,0,0,0,0,0,0,0,-1,832,1156,0,0
-385,-132,0,0,0,0,0,0,0,0,0,-1,839,1156,0,0
-378,-132,0,0,0,0,0,0,0,0,0,-1,846,1156,0,0
-371,-132,0,0,0,0,0,0,0,0,0,-1,853,1156,0,0
-364,-132,0,0,0,0,0,0,0,0,0,-1,860,1156,0,0
-357,-132,0,0,0,0,0,0,0,0,0,-1,867,1156,0,0
-350,-132,0,0,0,0,0,0,0,0,0,-1,874,1156,0,0
-343,-132,0,0,0,0,0,0,0,0,0,-1,881,1156,0,0
-336,-132,0,0,0,0,0,0,0,0,0,-1,888,1156,0,0
-329,-132,0,0,0,0,0,0,0,0,0,-1,895,1156,0,0
-322,-132,0,0,0,0,0,0,0,0,0,-1,902,1156,0,0
-315,-132,0,0,0,0,0,0,0,0,0,-1,909,1156,0,0
-308,-132,0,0,0,0,0,0,0,0,0,-1,916,1156,0,0
-301,-132,0,0,0,0,0,0,0,0,0,-1,923,1156,0,0
-294,-132,0,0,0,0,0,0,0,0,0,-1,930,1156,0,0
-287,-132,0,0,0,0,0,0,0,0,0,-1,937,1156,0,0
-280,-132,0,0,0,0,0,0,0,0,0,-1,944,1156,0,0
-273,-132,0,0,0,0,0,0,0,0,0,-1,951,1156,0,0
-266,-132,0,0,0,0,0,0,0,0,0,-1,958,1156,0,0
-259,-132,0,0,0,0,0,0,0,0,0,-1,965,1156,0,0
-252,-132,0,0,0,0,0,0,0,0,0,-1,972,1156,0,0
-245,-132,0,0,0,0,0,0,0,0,0,-1,979,1156,0,0
-238,-132,0,0,0,0,0,0,0,0,0,-1,986,1156,0,0
-231,-132,0,0,0,0,0,0,0,0,0,-1,993,1156,0,0
-224,-132,0,0,0,0,0,0,0,0,0,-1,1000,1156,0,0
-217,-132,0,0,0,0,0,0,0,0,0,-1,1007,1156,0,0
-210,-132,0,0,0,0,0,0,0,0,0,-1,1014,1156,0,0
-203,-132,0,0,0,0,0,0,0,0,0,-1,1021,1156,0,0
-196,-132,0,0,0,0,0,0,0,0,0,-1,1028,1156,0,0
-189,-132,0,0,0,0,0,0,0,0,0,-1,1035,1156,0,0
-182,-132,0,0,0,0,0,0,0,0,0,-1,1042,1156,0,0
-175,-132,0,0,0,0,0,0,0,0,0,-1,1049,1156,0,0
-168,-132,0,0,0,0,0,0,0,0,0,-1,1056,1156,0,0
-161,-132,0,0,0,0,0,0,0,0,0,-1,1063,1156,0,0
-154,-132,0,0,0,0,0,0,0,0,0,-1,1070,1156,0,0
-147,-132,0,0,0,0,0,0,0,0,0,-1,1077,1156,0,0
-140,-132,0,0,0,0,0,0,0,0,0,-1,1084,1156,0,0
-133,-132,0,0,0,0,0,0,0,0,0,-1,1091,1156,0,0
-126,-132,0,0,0,0,0,0,0,0,0,-1,1098,1156,0,0
-119,-132,0,0,0,0,0,0,0,0,0,-1,1105,1156,0,0
-112,-132,0,0,0,0,0,0,0,0,0,-1,1112,1156,0,0
-105,-132,0,0,0,0,0,0,0,0,0,-1,1119,1156,0,0
-98,-132,0,0,0,0,0,0,0,0,0,-1,1126,1156,0,0
-91,-132,0,0,0,0,0,0,0,0,0,-1,1133,1156,0,0
-84,-132,0,0,0,0,0,0,0,0,0,-1,1140,1156,0,0
-77,-132,0,0,0,0,0,0,0,0,0,-1,1147,1156,0,0
-70,-132,0,0,0,0,0,0,0,0,0,-1,1154,1156,0,0
-63,-132,0,0,0,0,0,0,0,0,0,-1,1161,1156,0,0
-56,-132,0,0,0,0,0,0,0,0,0,-1,1168,1156,0,0
-49,-132,0,0,0,0,0,0,0,0,0,-1,1175,1156,0,0
-42,-132,0,0,0,0,0,0,0,0,0,-1,1182,1156,0,0
-35,-132,0,0,0,0,0,0,0,0,0,-1,1189,1156,0,0
-28,-132,0,0,0,0,0,0,0,0,0,-1,1196,1156,0,0
-21,-132,0,0,0,0,0,0,0,0,0,-1,1203,1156,0,0
-14,-132,0,0,0,0,0,0,0,0,0,-1,1210,1156,0,0
-7,-132,0,0,0,0,0,0,0,0,0,-1,1217,1156,0,0
0,-132,0,0,0,0,0,0,0,0,0,-1,1224,1156,0,0
7,-132,0,0,0,0,0,0,0,0,0,-1,1231,1156,0,0
14,-132,0,0,0,0,0,0,0,0,0,-1,1238,1156,0,0
21,-132,0,0,0,0,0,0,0,0,0,-1,1245,1156,0,0
28,-132,0,0,0,0,0,0,0,0,0,-1,1252,1156,0,0
35,-132,0,0,0,0,0,0,0,0,0,-1,1259,1156,0,0
42,-132,0,0,0,0,0,0,0,0,0,-1,1266,1156,0,0
49,-132,0,0,0,0,0,0,0,0,0,-1,1273,1156,0,0
56,-132,0,0,0,0,0,0,0,0,0,-1,1280,1156,0,0
63,-132,0,0,0,0,0,0,0,0,0,-1,1287,1156,0,0
70,-132,0,0,0,0,0,0,0,0,0,-1,1294,1156,0,0
77,-132,0,0,0,0,0,0,0,0,0,-1,1301,1156,0,0
84,-132,0,0,0,0,0,0,0,0,0,-1,1308,1156,0,0
91,-132,0,0,0,0,0,0,0,0,0,-1,1315,1156,0,0
98,-132,0,0,0,0,0,0,0,0,0,-1,1322,1156,0,0
105,-132,0,0,0,0,0,0,0,0,0,-1,1329,1156,0,0
112,-132,0,0,0,0,0,0,0,0,0,-1,1336,1156,0,0
119,-132,0,0,0,0,0,0,0,0,0,-1,1343,1156,0,0
126,-132,0,0,0,0,0,0,0,0,0,-1,1350,1156,0,0
133,-132,0,0,0,0,0,0,0,0,0,-1,1357,1156,0,0
140,-132,0,0,0,0,0,0,0,0,0,-1,1364,1156,0,0
147,-132,0,0,0,0,0,0,0,0,0,-1,1371,1156,0,0
154,-132,0,0,0,0,0,0,0,0,0,-1,1378,1156,0,0
161,-132,0,0,0,0,0,0,0,0,0,-1,1385,1156,0,0
168,-132,0,0,0,0,0,0,0,0,0,-1,1392,1156,0,0
175,-132,0,0,0,0,0,0,0,0,0,-1,1399,1156,0,0
182,-132,0,0,0,0,0,0,0,0,0,-1,1406,1156,0,0
189,-132,0,0,0,0,0,0,0,0,0,-1,1413,1156,0,0
196,-132,0,0,0,0,0,0,0,0,0,-1,1420,1156,0,0
203,-132,0,0,0,0,0,0,0,0,0,-1,1427,1156,0,0
210,-132,0,0,0,0,0,0,0,0,0,-1,1434,1156,0,0
217,-132,0,0,0,0,0,0,0,0,0,-1,1441,1156,0,0
224,-132,0,0,0,0,0,0,0,0,0,-1,1448,1156,0,0
231,-132,0,0,0,0,0,0,0,0,0,-1,1455,1156,0,0
238,-132,0,0,0,0,0,0,0,0,0,-1,1462,1156,0,0
245,-132,0,0,0,0,0,0,0,0,0,-1,1469,1156,0,0
252,-132,0,0,0,0,0,0,0,0,0,-1,1476,1156,0,0
259,-132,0,0,0,0,0,0,0,0,0,-1,1483,1156,0,0
266,-132,0,0,0,0,0,0,0,0,0,-1,1490,1156,0,0
273,-132,0,0,0,0,0,0,0,0,0,-1,1497,1156,0,0
280,-132,0,0,0,0,0,0,0,0,0,-1,1504,1156,0,0
287,-132,0,0,0,0,0,0,0,0,0,-1,1511,1156,0,0
294,-132,0,0,0,0,0,0,0,0,0,-1,1518,1156,0,0
301,-132,0,0,0,0,0,0,0,0,0,-1,1525,1156,0,0
308,-132,0,0,0,0,0,0,0,0,0,-1,1532,1156,0,0
315,-132,0,0,0,0,0,0,0,0,0,-1,1539,1156,0,0
322,-132,0,0,0,0,0,0,0,0,0,-1,1546,1156,0,0
329,-132,0,0,0,0,0,0,0,0,0,-1,1553,1156,0,0
336,-132,0,0,0,0,0,0,0,0,0,-1,1560,1156,0,0
343,-132,0,0,0,0,0,0,0,0,0,-1,1567,1156,0,0
350,-132,0,0,0,0,0,0,0,0,0,-1,1574,1156,0,0
357,-132,0,0,0,0,0,0,0,0,0,-1,1581,1156,0,0
364,-132,0,0,0,0,0,0,0,0,0,-1,1588,1156,0,0
371,-132,0,0,0,0,0,0,0,0,0,-1,1595,1156,0,0
378,-132,0,0,0,0,0,0,0,0,0,-1,1602,1156,0,0
385,-132,0,0,0,0,0,0,0,0,0,-1,1609,1156,0,0
392,-132,0,0,0,0,0,0,0,0,0,-1,1616,1156,0,0
399,-132,0,0,0,0,0,0,0,0,0,-1,1623,1156,0,0
406,-132,0,0,0,0,0,0,0,0,0,-1,1630,1156,0,0
413,-132,0,0,0,0,0,0,0,0,0,-1,1637,1156,0,0
420,-132,0,0,0,0,0,0,0,0,0,-1,1644,1156,0,0
427,-132,0,0,0,0,0,0,0,0,0,-1,1651,1156,0,0
434,-132,0,0,0,0,0,0,0,0,0,-1,1658,1156,0,0
441,-132,0,0,0,0,0,0,0,0,0,-1,1665,1156,0,0
448,-132,0,0,0,0,0,0,0,0,0,-1,1672,1156,0,0
455,-132,0,0,0,0,0,0,0,0,0,-1,1679,1156,0,0
462,-132,0,0,0,0,0,0,0,0,0,-1,1686,1156,0,0
469,-132,0,0,0,0,0,0,0,0,0,-1,1693,1156,0,0
476,-132,0,0,0,0,0,0,0,0,0,-1,1700,1156,0,0
483,-132,0,0,0,0,0,0,0,0,0,-1,1707,1156,0,0
490,-132,0,0,0,0,0,0,0,0,0,-1,1714,1156,0,0
497,-132,0,0,0,0,0,0,0,0,0,-1,1721,1156,0,0
504,-132,0,0,0,0,0,0,0,0,0,-1,1728,1156,0,0
511,-132,0,0,0,0,0,0,0,0,0,-1,1735,1156,0,0
518,-132,0,0,0,0,0,0,0,0,0,-1,1742,1156,0,0
525,-132,0,0,0,0,0,0,0,0,0,-1,1749,1156,0,0
532,-132,0,0,0,0,0,0,0,0,0,-1,1756,1156,0,0
539,-132,0,0,0,0,0,0,0,0,0,-1,1763,1156,0,0
546,-132,0,0,0,0,0,0,0,0,0,-1,1770,1156,0,0
553,-132,0,0,0,0,0,0,0,0,0,-1,1777,1156,0,0
560,-132,0,0,0,0,0,0,0,0,0,-1,1784,1156,0,0
567,-132,0,0,0,0,0,0,0,0,0,-1,1791,1156,0,0
574,-132,0,0,0,0,0,0,0,0,0,-1,1798,1156,0,0
581,-132,0,0,0,0,0,0,0,0,0,-1,1805,1156,0,0
588,-132,0,0,0,0,0,0,0,0,0,-1,1812,1156,0,0
595,-132,0,0,0,0,0,0,0,0,0,-1,1819,1156,0,0
602,-132,0,0,0,0,0,0,0,0,0,-1,1826,1156,0,0
609,-132,0,0,0,0,0,0,0,0,0,-1,1833,1156,0,0
616,-132,0,0,0,0,0,0,0,0,0,-1,1840,1156,0,0
623,-132,0,0,0,0,0,0,0,0,0,-1,1847,1156,0,0
630,-132,0,0,0,0,0,0,0,0,0,-1,1854,1156,0,0
637,-132,0,0,0,0,0,0,0,0,0,-1,1861,1156,0,0
644,-132,80.6799,2.24573,0.000631261,-0.00112952,0.00202244,0.00195662,-0.00245488,0.580113,0.00255239,0.0400549,1868,1156,80.6799,-2.24575
651,-132,80.5032,2.36047,0.000341782,-0.000552863,0.00137209,0.00133763,-0.00154871,0.627823,0.00166791,0.0386962,1875,1156,80.5032,-2.36048
658,-132,80.4821,2.27417,0.000389316,-0.000137315,0.000818429,0.000985745,-0.000733744,0.629761,0.000996295,0.0394269,1882,1156,80.482,-2.27413
665,-132,80.5005,2.11267,0.000527716,0.000211776,0.000353811,0.000757221,-1.77286e-05,0.575437,0.000510826,0.039431,1889,1156,80.5005,-2.11263
672,-132,80.5438,1.96875,0.000781714,0.000517434,-5.23776e-05,0.000791716,0.000507431,-0.188691,0.00046311,0.0395528,1896,1156,80.5438,-1.96878
679,-132,80.4773,1.9314,0.00124088,0.000279264,-0.000150951,0.00126402,0.000256125,-0.152103,0.000771609,0.0374989,1903,1156,80.4772,-1.93139
686,-132,80.4843,2.13708,0.00202722,0.000314179,-0.000312341,0.00208239,0.000259006,-0.174839,0.00131049,0.033492,1910,1156,80.4842,-2.13707
693,-132,80.4775,2.2207,0.00227145,0.000184326,-0.000170356,0.00228526,0.000170513,-0.0809088,0.00146997,0.0296692,1917,1156,80.4776,-2.22066
700,-132,80.5845,2.16113,0,0,0,0,0,0,0,-1,1924,1156,80.5845,-2.16116
707,-132,57.9275,3.01367,0,0,0,0,0,0,0,-1,1931,1156,57.9275,-3.01369
714,-132,57.8083,9.22156,0,0,0,0,0,0,0,-1,1938,1156,57.8084,-9.22151
721,-132,71.7167,10.6033,0,0,0,0,0,0,0,-1,1945,1156,71.7167,-10.6033
728,-132,71.6013,10.0361,0.00162781,0.0008632,0.00125379,0.00255629,-6.52741e-05,0.637416,0.00172636,0.031171,1952,1156,71.6013,-10.0361
735,-132,71.5488,9.30029,0.00181266,0.000866134,0.00132827,0.00274945,-7.06639e-05,0.61426,0.00185697,0.032417,1959,1156,71.5489,-9.30029
742,-132,71.5458,8.56067,0.00167674,0.00104629,0.00140455,0.002801,-7.79701e-05,0.675011,0.00189386,0.0308111,1966,1156,71.5458,-8.56071
749,-132,71.4913,7.80994,0.000623694,0.00207835,0.00167947,0.00318122,-0.000479179,0.989741,0.00229726,0.027373,1973,1156,71.4913,-7.80997
756,-132,71.4937,7.10449,-0.0005972,0.00451535,0.00153823,0.00494247,-0.00102433,1.29995,0.0036842,0.0242088,1980,1156,71.4937,-7.10445
763,-132,71.429,6.43018,-0.00112071,0.00812869,0.000498556,0.00815548,-0.00114751,1.5171,0.00585708,0.014398,1987,1156,71.429,-6.43015
770,-132,71.3872,5.75586,-0.00102034,0.0125187,-0.00126158,0.0126353,-0.00113689,-1.47867,0.00882692,0.0147951,1994,1156,71.3873,-5.75582
777,-132,71.2607,5.05872,-0.000228458,0.0177441,-0.00376496,0.0185009,-0.000985286,-1.37242,0.0126751,0.0289749,2001,1156,71.2607,-5.05866
784,-132,71.3936,4.41272,0,0,0,0,0,0,0,-1,2008,1156,71.3935,-4.41267
791,-132,70.4795,3.59009,0,0,0,0,0,0,0,-1,2015,1156,70.4795,-3.59005
798,-132,73.2852,-4.60278,0,0,0,0,0,0,0,-1,2022,1156,73.285,4.60284
805,-132,73.0271,0.386841,0,0,0,0,0,0,0,-1,2029,1156,73.0272,-0.386832
812,-132,73.3503,-0.32959,0,0,0,0,0,0,0,-1,2036,1156,73.3504,0.329639
-700,-139,0,0,0,0,0,0,0,0,0,-1,524,1163,0,0
-693,-139,-58.5739,4.16711,0,0,0,0,0,0,0,-1,531,1163,-58.5739,-4.16709
-686,-139,-57.9763,5.18054,0,0,0,0,0,0,0,-1,538,1163,-57.9763,-5.18049
-679,-139,-61.8008,1.12366,0,0,0,0,0,0,0,-1,545,1163,-61.8008,-1.1236
-672,-139,-57.3301,8.40369,0,0,0,0,0,0,0,-1,552,1163,-57.3301,-8.4037
-665,-139,-56.8233,10.0212,0,0,0,0,0,0,0,-1,559,1163,-56.8233,-10.0212
-658,-139,-54.7982,1.91382,0,0,0,0,0,0,0,-1,566,1163,-54.7982,-1.91385
-651,-139,-54.2145,3.71301,0,0,0,0,0,0,0,-1,573,1163,-54.2145,-3.71302
-644,-139,-54.1964,4.52979,-0.0185728,0.0255668,0.00641394,0.02648,-0.0194859,1.42938,0.0266406,0.0329542,580,1163,-54.1964,-4.52978
-637,-139,-54.3058,5.18713,-0.0149086,0.0171436,0.00233633,0.017313,-0.015078,1.49841,0.0187158,0.01809,587,1163,-54.3058,-5.18715
-630,-139,-54.3088,5.9137,-0.01224,0.00913486,-0.00109923,0.00919124,-0.0122964,-1.51955,0.012449,0.0113732,594,1163,-54.3088,-5.91365
-623,-139,-54.3664,6.6853,-0.0101494,0.00277085,-0.00365404,0.00373266,-0.0111112,-1.31341,0.00891608,0.0173782,601,1163,-54.3664,-6.68526
-616,-139,-54.486,7.43958,-0.00963532,0.00139651,-0.00433551,0.00289643,-0.0111352,-1.23772,0.00855401,0.0226165,608,1163,-54.486,-7.43959
-609,-139,-54.6578,8.21924,0,0,0,0,0,0,0,-1,615,1163,-54.6578,-8.21923
-602,-139,-50.4112,7.96228,0,0,0,0,0,0,0,-1,622,1163,-50.4112,-7.96224
-595,-139,-50.6539,8.62317,0,0,0,0,0,0,0,-1,629,1163,-50.6539,-8.62318
-588,-139,-51.0773,9.1781,0,0,0,0,0,0,0,-1,636,1163,-51.0773,-9.17806
-581,-139,-34.4892,6.72473,0,0,0,0,0,0,0,-1,643,1163,-34.4892,-6.72476
-574,-139,-23.0725,2.4043,0,0,0,0,0,0,0,-1,650,1163,-23.0725,-2.40433
-567,-139,-63.5445,0.523804,0,0,0,0,0,0,0,-1,657,1163,-63.5445,-0.523855
-560,-139,-63.5712,0.432251,-0.00110971,-0.00184232,-0.00306423,0.00161003,-0.00456206,-0.725909,0.00369682,0.0386737,664,1163,-63.5712,-0.432208
-553,-139,-63.5264,0.330566,0.00115699,-0.00221992,-0.00240398,0.00240622,-0.00346915,-0.479245,0.0034106,0.0389425,671,1163,-63.5264,-0.330538
-546,-139,-63.7773,0.707031,0.000912673,-0.0012952,-0.00245949,0.00250462,-0.00288715,-0.574451,0.00311555,0.0414716,678,1163,-63.7773,-0.707087
-539,-139,-63.5048,0.500732,-0.000119839,-0.00021645,-0.00263866,0.00247096,-0.00280725,-0.776246,0.00304944,0.0415743,685,1163,-63.5048,-0.500768
-532,-139,-63.3428,0.181274,-0.00197707,0.000710059,-0.00298651,0.00264131,-0.00390832,-0.996774,0.00380494,0.0415231,692,1163,-63.3428,-0.181295
-525,-139,-63.4528,0.14563,-0.00487723,0.00148447,-0.00360553,0.0031117,-0.00650446,-1.14685,0.00566591,0.039486,699,1163,-63.4528,-0.145587
-518,-139,0,0,0,0,0,0,0,0,0,-1,706,1163,0,0
-511,-139,0,0,0,0,0,0,0,0,0,-1,713,1163,0,0
-504,-139,0,0,0,0,0,0,0,0,0,-1,720,1163,0,0
-497,-139,0,0,0,0,0,0,0,0,0,-1,727,1163,0,0
-490,-139,0,0,0,0,0,0,0,0,0,-1,734,1163,0,0
-483,-139,0,0,0,0,0,0,0,0,0,-1,741,1163,0,0
-476,-139,0,0,0,0,0,0,0,0,0,-1,748,1163,0,0
-469,-139,0,0,0,0,0,0,0,0,0,-1,755,1163,0,0
-462,-139,0,0,0,0,0,0,0,0,0,-1,762,1163,0,0
-455,-139,0,0,0,0,0,0,0,0,0,-1,769,1163,0,0
-448,-139,0,0,0,0,0,0,0,0,0,-1,776,1163,0,0
-441,-139,0,0,0,0,0,0,0,0,0,-1,783,1163,0,0
-434,-139,0,0,0,0,0,0,0,0,0,-1,790,1163,0,0
-427,-139,0,0,0,0,0,0,0,0,0,-1,797,1163,0,0
-420,-139,0,0,0,0,0,0,0,0,0,-1,804,1163,0,0
-413,-139,0,0,0,0,0,0,0,0,0,-1,811,1163,0,0
-406,-139,0,0,0,0,0,0,0,0,0,-1,818,1163,0,0
-399,-139,0,0,0,0,0,0,0,0,0,-1,825,1163,0,0
-392,-139,0,0,0,0,0,0,0,0,0,-1,832,1163,0,0
-385,-139,0,0,0,0,0,0,0,0,0,-1,839,1163,0,0
-378,-139,0,0,0,0,0,0,0,0,0,-1,846,1163,0,0
-371,-139,0,0,0,0,0,0,0,0,0,-1,853,1163,0,0
-364,-139,0,0,0,0,0,0,0,0,0,-1,860,1163,0,0
-357,-139,0,0,0,0,0,0,0,0,0,-1,867,1163,0,0
-350,-139,0,0,0,0,0,0,0,0,0,-1,874,1163,0,0
-343,-139,0,0,0,0,0,0,0,0,0,-1,881,1163,0,0
-336,-139,0,0,0,0,0,0,0,0,0,-1,888,1163,0,0
-329,-139,0,0,0,0,0,0,0,0,0,-1,895,1163,0,0
-322,-139,0,0,0,0,0,0,0,0,0,-1,902,1163,0,0
-315,-139,0,0,0,0,0,0,0,0,0,-1,909,1163,0,0
-308,-139,0,0,0,0,0,0,0,0,0,-1,916,1163,0,0
-301,-139,0,0,0,0,0,0,0,0,0,-1,923,1163,0,0
-294,-139,0,0,0,0,0,0,0,0,0,-1,930,1163,0,0
-287,-139,0,0,0,0,0,0,0,0,0,-1,937,1163,0,0
-280,-139,0,0,0,0,0,0,0,0,0,-1,944,1163,0,0
-273,-139,0,0,0,0,0,0,0,0,0,-1,951,1163,0,0
-266,-139,0,0,0,0,0,0,0,0,0,-1,958,1163,0,0
-259,-139,0,0,0,0,0,0,0,0,0,-1,965,1163,0,0
-252,-139,0,0,0,0,0,0,0,0,0,-1,972,1163,0,0
-245,-139,0,0,0,0,0,0,0,0,0,-1,979,1163,0,0
-238,-139,0,0,0,0,0,0,0,0,0,-1,986,1163,0,0
-231,-139,0,0,0,0,0,0,0,0,0,-1,993,1163,0,0
-224,-139,0,0,0,0,0,0,0,0,0,-1,1000,1163,0,0
-217,-139,0,0,0,0,0,0,0,0,0,-1,1007,1163,0,0
-210,-139,0,0,0,0,0,0,0,0,0,-1,1014,1163,0,0
-203,-139,0,0,0,0,0,0,0,0,0,-1,1021,1163,0,0
-196,-139,0,0,0,0,0,0,0,0,0,-1,1028,1163,0,0
-189,-139,0,0,0,0,0,0,0,0,0,-1,1035,1163,0,0
-182,-139,0,0,0,0,0,0,0,0,0,-1,1042,1163,0,0
-175,-139,0,0,0,0,0,0,0,0,0,-1,1049,1163,0,0
-168,-139,0,0,0,0,0,0,0,0,0,-1,1056,1163,0,0
-161,-139,0,0,0,0,0,0,0,0,0,-1,1063,1163,0,0
-154,-139,0,0,0,0,0,0,0,0,0,-1,1070,1163,0,0
-147,-139,0,0,0,0,0,0,0,0,0,-1,1077,1163,0,0
-140,-139,0,0,0,0,0,0,0,0,0,-1,1084,1163,0,0
-133,-139,0,0,0,0,0,0,0,0,0,-1,1091,1163,0,0
-126,-139,0,0,0,0,0,0,0,0,0,-1,1098,1163,0,0
-119,-139,0,0,0,0,0,0,0,0,0,-1,1105,1163,0,0
-112,-139,0,0,0,0,0,0,0,0,0,-1,1112,1163,0,0
-105,-139,0,0,0,0,0,0,0,0,0,-1,1119,1163,0,0
-98,-139,0,0,0,0,0,0,0,0,0,-1,1126,1163,0,0
-91,-139,0,0,0,0,0,0,0,0,0,-1,1133,1163,0,0
-84,-139,0,0,0,0,0,0,0,0,0,-1,1140,1163,0,0
-77,-139,0,0,0,0,0,0,0,0,0,-1,1147,1163,0,0
-70,-139,0,0,0,0,0,0,0,0,0,-1,1154,1163,0,0
-63,-139,0,0,0,0,0,0,0,0,0,-1,1161,1163,0,0
-56,-139,0,0,0,0,0,0,0,0,0,-1,1168,1163,0,0
-49,-139,0,0,0,0,0,0,0,0,0,-1,1175,1163,0,0
-42,-139,0,0,0,0,0,0,0,0,0,-1,1182,1163,0,0
-35,-139,0,0,0,0,0,0,0,0,0,-1,1189,1163,0,0
-28,-139,0,0,0,0,0,0,0,0,0,-1,1196,1163,0,0
-21,-139,0,0,0,0,0,0,0,0,0,-1,1203,1163,0,0
-14,-139,0,0,0,0,0,0,0,0,0,-1,1210,1163,0,0
-7,-139,0,0,0,0,0,0,0,0,0,-1,1217,1163,0,0
0,-139,0,0,0,0,0,0,0,0,0,-1,1224,1163,0,0
7,-139,0,0,0,0,0,0,0,0,0,-1,1231,1163,0,0
14,-139,0,0,0,0,0,0,0,0,0,-1,1238,1163,0,0
21,-139,0,0,0,0,0,0,0,0,0,-1,1245,1163,0,0
28,-139,0,0,0,0,0,0,0,0,0,-1,1252,1163,0,0
35,-139,0,0,0,0,0,0,0,0,0,-1,1259,1163,0,0
42,-139,0,0,0,0,0,0,0,0,0,-1,1266,1163,0,0
49,-139,0,0,0,0,0,0,0,0,0,-1,1273,1163,0,0
56,-139,0,0,0,0,0,0,0,0,0,-1,1280,1163,0,0
63,-139,0,0,0,0,0,0,0,0,0,-1,1287,1163,0,0
70,-139,0,0,0,0,0,0,0,0,0,-1,1294,1163,0,0
77,-139,0,0,0,0,0,0,0,0,0,-1,1301,1163,0,0
84,-139,0,0,0,0,0,0,0,0,0,-1,1308,1163,0,0
91,-139,0,0,0,0,0,0,0,0,0,-1,1315,1163,0,0
98,-139,0,0,0,0,0,0,0,0,0,-1,1322,1163,0,0
105,-139,0,0,0,0,0,0,0,0,0,-1,1329,1163,0,0
112,-139,0,0,0,0,0,0,0,0,0,-1,1336,1163,0,0
119,-139,0,0,0,0,0,0,0,0,0,-1,1343,1163,0,0
126,-139,0,0,0,0,0,0,0,0,0,-1,1350,1163,0,0
133,-139,0,0,0,0,0,0,0,0,0,-1,1357,1163,0,0
140,-139,0,0,0,0,0,0,0,0,0,-1,1364,1163,0,0
147,-139,0,0,0,0,0,0,0,0,0,-1,1371,1163,0,0
154,-139,0,0,0,0,0,0,0,0,0,-1,1378,1163,0,0
161,-139,0,0,0,0,0,0,0,0,0,-1,1385,1163,0,0
168,-139,0,0,0,0,0,0,0,0,0,-1,1392,1163,0,0
175,-139,0,0,0,0,0,0,0,0,0,-1,1399,1163,0,0
182,-139,0,0,0,0,0,0,0,0,0,-1,1406,1163,0,0
189,-139,0,0,0,0,0,0,0,0,0,-1,1413,1163,0,0
196,-139,0,0,0,0,0,0,0,0,0,-1,1420,1163,0,0
203,-139,0,0,0,0,0,0,0,0,0,-1,1427,1163,0,0
210,-139,0,0,0,0,0,0,0,0,0,-1,1434,1163,0,0
217,-139,0,0,0,0,0,0,0,0,0,-1,1441,1163,0,0
224,-139,0,0,0,0,0,0,0,0,0,-1,1448,1163,0,0
231,-139,0,0,0,0,0,0,0,0,0,-1,1455,1163,0,0
238,-139,0,0,0,0,0,0,0,0,0,-1,1462,1163,0,0
245,-139,0,0,0,0,0,0,0,0,0,-1,1469,1163,0,0
252,-139,0,0,0,0,0,0,0,0,0,-1,1476,1163,0,0
259,-139,0,0,0,0,0,0,0,0,0,-1,1483,1163,0,0
266,-139,0,0,0,0,0,0,0,0,0,-1,1490,1163,0,0
273,-139,0,0,0,0,0,0,0,0,0,-1,1497,1163,0,0
280,-139,0,0,0,0,0,0,0,0,0,-1,1504,1163,0,0
287,-139,0,0,0,0,0,0,0,0,0,-1,1511,1163,0,0
294,-139,0,0,0,0,0,0,0,0,0,-1,1518,1163,0,0
301,-139,0,0,0,0,0,0,0,0,0,-1,1525,1163,0,0
308,-139,0,0,0,0,0,0,0,0,0,-1,1532,1163,0,0
315,-139,0,0,0,0,0,0,0,0,0,-1,1539,1163,0,0
322,-139,0,0,0,0,0,0,0,0,0,-1,1546,1163,0,0
329,-139,0,0,0,0,0,0,0,0,0,-1,1553,1163,0,0
336,-139,0,0,0,0,0,0,0,0,0,-1,1560,1163,0,0
343,-139,0,0,0,0,0,0,0,0,0,-1,1567,1163,0,0
350,-139,0,0,0,0,0,0,0,0,0,-1,1574,1163,0,0
357,-139,0,0,0,0,0,0,0,0,0,-1,1581,1163,0,0
364,-139,0,0,0,0,0,0,0,0,0,-1,1588,1163,0,0
371,-139,0,0,0,0,0,0,0,0,0,-1,1595,1163,0,0
378,-139,0,0,0,0,0,0,0,0,0,-1,1602,1163,0,0
385,-139,0,0,0,0,0,0,0,0,0,-1,1609,1163,0,0
392,-139,0,0,0,0,0,0,0,0,0,-1,1616,1163,0,0
399,-139,0,0,0,0,0,0,0,0,0,-1,1623,1163,0,0
406,-139,0,0,0,0,0,0,0,0,0,-1,1630,1163,0,0
413,-139,0,0,0,0,0,0,0,0,0,-1,1637,1163,0,0
420,-139,0,0,0,0,0,0,0,0,0,-1,1644,1163,0,0
427,-139,0,0,0,0,0,0,0,0,0,-1,1651,1163,0,0
434,-139,0,0,0,0,0,0,0,0,0,-1,1658,1163,0,0
441,-139,0,0,0,0,0,0,0,0,0,-1,1665,1163,0,0
448,-139,0,0,0,0,0,0,0,0,0,-1,1672,1163,0,0
455,-139,0,0,0,0,0,0,0,0,0,-1,1679,1163,0,0
462,-139,0,0,0,0,0,0,0,0,0,-1,1686,1163,0,0
469,-139,0,0,0,0,0,0,0,0,0,-1,1693,1163,0,0
476,-139,0,0,0,0,0,0,0,0,0,-1,1700,1163,0,0
483,-139,0,0,0,0,0,0,0,0,0,-1,1707,1163,0,0
490,-139,0,0,0,0,0,0,0,0,0,-1,1714,1163,0,0
497,-139,0,0,0,0,0,0,0,0,0,-1,1721,1163,0,0
504,-139,0,0,0,0,0,0,0,0,0,-1,1728,1163,0,0
511,-139,0,0,0,0,0,0,0,0,0,-1,1735,1163,0,0
518,-139,0,0,0,0,0,0,0,0,0,-1,1742,1163,0,0
525,-139,0,0,0,0,0,0,0,0,0,-1,1749,1163,0,0
532,-139,0,0,0,0,0,0,0,0,0,-1,1756,1163,0,0
539,-139,0,0,0,0,0,0,0,0,0,-1,1763,1163,0,0
546,-139,0,0,0,0,0,0,0,0,0,-1,1770,1163,0,0
553,-139,0,0,0,0,0,0,0,0,0,-1,1777,1163,0,0
560,-139,0,0,0,0,0,0,0,0,0,-1,1784,1163,0,0
567,-139,0,0,0,0,0,0,0,0,0,-1,1791,1163,0,0
574,-139,0,0,0,0,0,0,0,0,0,-1,1798,1163,0,0
581,-139,0,0,0,0,0,0,0,0,0,-1,1805,1163,0,0
588,-139,0,0,0,0,0,0,0,0,0,-1,1812,1163,0,0
595,-139,0,0,0,0,0,0,0,0,0,-1,1819,1163,0,0
602,-139,0,0,0,0,0,0,0,0,0,-1,1826,1163,0,0
609,-139,0,0,0,0,0,0,0,0,0,-1,1833,1163,0,0
616,-139,0,0,0,0,0,0,0,0,0,-1,1840,1163,0,0
623,-139,0,0,0,0,0,0,0,0,0,-1,1847,1163,0,0
630,-139,0,0,0,0,0,0,0,0,0,-1,1854,1163,0,0
637,-139,0,0,0,0,0,0,0,0,0,-1,1861,1163,0,0
644,-139,80.6879,2.04016,0.000494176,-0.000734422,0.00228395,0.00224499,-0.00248524,0.654025,0.00273218,0.0389294,1868,1163,80.6879,-2.04012
651,-139,80.6781,2.03735,0.000239444,-0.000185541,0.00154348,0.00158499,-0.00153109,0.716993,0.00179916,0.0400113,1875,1163,80.6781,-2.03738
658,-139,80.5618,2.12817,0.000280221,0.000227751,0.000886536,0.00114091,-0.000632938,0.770606,0.00103803,0.0413244,1882,1163,80.5618,-2.1282
665,-139,80.4481,2.2439,0.000428261,0.000579739,0.000308791,0.000821944,0.000186056,0.905662,0.000497675,0.0375266,1889,1163,80.4481,-2.24393
672,-139,80.5153,2.12915,0.000706496,0.00089514,-0.000210623,0.0010316,0.00057004,-0.995921,0.000596689,0.036377,1896,1163,80.5152,-2.12918
679,-139,80.549,2.06738,0.00119321,0.000630223,-0.000381819,0.00138608,0.000437348,-0.467756,0.000818208,0.0344511,1903,1163,80.549,-2.06744
686,-139,80.4755,2.22107,0.00206775,0.000702724,-0.000541777,0.00225664,0.000513833,-0.335473,0.00136576,0.0358364,1910,1163,80.4755,-2.22111
693,-139,80.5393,2.21924,0.00227373,0.000538666,-0.000324803,0.00233254,0.000479856,-0.179122,0.00142232,0.0286922,1917,1163,80.5393,-2.21923
700,-139,80.6494,2.1438,0,0,0,0,0,0,0,-1,1924,1163,80.6494,-2.14377
707,-139,32.116,6.54346,0,0,0,0,0,0,0,-1,1931,1163,32.116,-6.54343
714,-139,62.1425,10.1428,0,0,0,0,0,0,0,-1,1938,1163,62.1424,-10.1428
721,-139,69.8052,10.4543,0,0,0,0,0,0,0,-1,1945,1163,69.8052,-10.4543
728,-139,70.8341,10.1987,0,0,0,0,0,0,0,-1,1952,1163,70.8342,-10.1988
735,-139,70.7704,9.4187,0.00221745,0.00102401,0.0012294,0.00298729,0.000254173,0.559458,0.00191244,0.0363879,1959,1163,70.7704,-9.41875
742,-139,70.8234,8.5011,0.0021369,0.00102175,0.00137013,0.00305857,0.000100082,0.592155,0.00200652,0.027732,1966,1163,70.8234,-8.50114
749,-139,70.7516,7.78333,0.0010259,0.00195396,0.00159264,0.0031488,-0.000168934,0.927153,0.00215771,0.0214223,1973,1163,70.7516,-7.78327
756,-139,70.697,7.12158,-0.000100211,0.00449224,0.00101381,0.00470609,-0.000314059,1.36291,0.00324714,0.0121415,1980,1163,70.697,-7.12156
763,-139,70.6604,6.40417,-0.000456384,0.00818717,-0.000692465,0.0082423,-0.000511508,-1.49136,0.00567306,0.0119632,1987,1163,70.6604,-6.40423
770,-139,70.6348,5.71875,-0.000184245,0.0126701,-0.00333457,0.0134836,-0.000997783,-1.3315,0.00933947,0.013777,1994,1163,70.6348,-5.71877
777,-139,70.6082,5.06726,0.000778818,0.0180429,-0.00701116,0.0205315,-0.00170977,-1.22972,0.0142917,0.0290056,2001,1163,70.6081,-5.06731
784,-139,70.6553,4.41101,0.00279186,0.0245945,-0.0121617,0.0300255,-0.00263919,-1.1508,0.0209522,0.0479619,2008,1163,70.6553,-4.41106
791,-139,69.9668,3.86816,0,0,0,0,0,0,0,-1,2015,1163,69.9668,-3.86811
798,-139,72.6167,0.257446,0,0,0,0,0,0,0,-1,2022,1163,72.6167,-0.257404
805,-139,73.0437,-0.215698,0,0,0,0,0,0,0,-1,2029,1163,73.0437,0.215737
812,-139,0,0,0,0,0,0,0,0,0,-1,2036,1163,0,0
-700,-146,0,0,0,0,0,0,0,0,0,-1,524,1170,0,0
-693,-146,-58.0428,4.29419,0,0,0,0,0,0,0,-1,531,1170,-58.0429,-4.29422
-686,-146,-57.5737,5.78479,-0.0406199,0.0906896,0.032162,0.098144,-0.0480742,1.34304,0.0860531,0.0471844,538,1170,-57.5737,-5.78478
-679,-146,-57.2974,7.24365,-0.0369852,0.081998,0.0268025,0.0877569,-0.0427441,1.35915,0.0768242,0.0495397,545,1170,-57.2974,-7.24364
-672,-146,-56.8467,8.7804,-0.0325692,0.0721279,0.0216984,0.0764467,-0.036888,1.37432,0.0667492,0.043713,552,1170,-56.8467,-8.78035
-665,-146,-56.2542,10.3931,0,0,0,0,0,0,0,-1,559,1170,-56.2542,-10.3931
-658,-146,-55.0266,6.18408,0,0,0,0,0,0,0,-1,566,1170,-55.0266,-6.18405
-651,-146,-53.2232,3.68481,0,0,0,0,0,0,0,-1,573,1170,-53.2232,-3.68485
-644,-146,-53.3849,4.46667,-0.0169691,0.0298877,0.0046778,0.0303501,-0.0174316,1.47226,0.0279209,0.0321661,580,1170,-53.385,-4.46664
-637,-146,-53.5054,5.1969,-0.0137603,0.0198793,0.00136794,0.0199348,-0.0138158,1.53022,0.0195924,0.0148488,587,1170,-53.5054,-5.19685
-630,-146,-53.5219,5.95447,-0.0115252,0.0105593,-0.00143487,0.0106521,-0.011618,-1.50619,0.0128617,0.0112244,594,1170,-53.5219,-5.9545
-623,-146,-53.5769,6.67737,-0.00964831,0.00275746,-0.00347284,0.00366347,-0.0105543,-1.3156,0.00852396,0.0133568,601,1170,-53.5769,-6.67733
-616,-146,-53.7111,7.40234,-0.0091804,0.000615882,-0.00383892,0.00194101,-0.0105055,-1.23842,0.00773233,0.0206921,608,1170,-53.711,-7.4024
-609,-146,-53.8328,8.09949,0,0,0,0,0,0,0,-1,615,1170,-53.8328,-8.09945
-602,-146,-49.7178,7.99854,0,0,0,0,0,0,0,-1,622,1170,-49.7178,-7.99849
-595,-146,-49.8962,8.69519,0,0,0,0,0,0,0,-1,629,1170,-49.8963,-8.6952
-588,-146,-45.0034,7.81934,0,0,0,0,0,0,0,-1,636,1170,-45.0034,-7.81931
-581,-146,-31.7815,6.30347,0,0,0,0,0,0,0,-1,643,1170,-31.7815,-6.3035
-574,-146,-17.9915,3.79114,0,0,0,0,0,0,0,-1,650,1170,-17.9915,-3.79118
-567,-146,-44.4572,0.6604,0,0,0,0,0,0,0,-1,657,1170,-44.4572,-0.660404
-560,-146,-63.5991,0.561768,0,0,0,0,0,0,0,-1,664,1170,-63.5991,-0.561747
-553,-146,-63.6027,0.584351,0,0,0,0,0,0,0,-1,671,1170,-63.6027,-0.584329
-546,-146,-63.4891,0.602905,0.00107213,-0.00145486,-0.00282216,0.00290072,-0.00328345,-0.574926,0.00357271,0.0412882,678,1170,-63.4891,-0.602965
-539,-146,-63.4965,0.546875,0.000590887,-0.000457411,-0.00269637,0.00281358,-0.0026801,-0.6894,0.00317209,0.0424682,685,1170,-63.4965,-0.546892
-532,-146,-63.5163,0.343262,-0.000923729,0.000318825,-0.002486,0.00226001,-0.00286491,-0.907845,0.00296573,0.0410613,692,1170,-63.5163,-0.343292
-525,-146,-63.6306,0.382446,-0.0038555,0.000924843,-0.00243838,0.00194914,-0.0048798,-1.17311,0.00406191,0.0411233,699,1170,-63.6306,-0.38248
-518,-146,0,0,0,0,0,0,0,0,0,-1,706,1170,0,0
-511,-146,0,0,0,0,0,0,0,0,0,-1,713,1170,0,0
-504,-146,0,0,0,0,0,0,0,0,0,-1,720,1170,0,0
-497,-146,0,0,0,0,0,0,0,0,0,-1,727,1170,0,0
-490,-146,0,0,0,0,0,0,0,0,0,-1,734,1170,0,0
-483,-146,0,0,0,0,0,0,0,0,0,-1,741,1170,0,0
-476,-146,0,0,0,0,0,0,0,0,0,-1,748,1170,0,0
-469,-146,0,0,0,0,0,0,0,0,0,-1,755,1170,0,0
-462,-146,0,0,0,0,0,0,0,0,0,-1,762,1170,0,0
-455,-146,0,0,0,0,0,0,0,0,0,-1,769,1170,0,0
-448,-146,0,0,0,0,0,0,0,0,0,-1,776,1170,0,0
-441,-146,0,0,0,0,0,0,0,0,0,-1,783,1170,0,0
-434,-146,0,0,0,0,0,0,0,0,0,-1,790,1170,0,0
-427,-146,0,0,0,0,0,0,0,0,0,-1,797,1170,0,0
-420,-146,0,0,0,0,0,0,0,0,0,-1,804,1170,0,0
-413,-146,0,0,0,0,0,0,0,0,0,-1,811,1170,0,0
-406,-146,0,0,0,0,0,0,0,0,0,-1,818,1170,0,0
-399,-146,0,0,0,0,0,0,0,0,0,-1,825,1170,0,0
-392,-146,0,0,0,0,0,0,0,0,0,-1,832,1170,0,0
-385,-146,0,0,0,0,0,0,0,0,0,-1,839,1170,0,0
-378,-146,0,0,0,0,0,0,0,0,0,-1,846,1170,0,0
-371,-146,0,0,0,0,0,0,0,0,0,-1,853,1170,0,0
-364,-146,0,0,0,0,0,0,0,0,0,-1,860,1170,0,0
-357,-146,0,0,0,0,0,0,0,0,0,-1,867,1170,0,0
-350,-146,0,0,0,0,0,0,0,0,0,-1,874,1170,0,0
-343,-146,0,0,0,0,0,0,0,0,0,-1,881,1170,0,0
-336,-146,0,0,0,0,0,0,0,0,0,-1,888,1170,0,0
-329,-146,0,0,0,0,0,0,0,0,0,-1,895,1170,0,0
-322,-146,0,0,0,0,0,0,0,0,0,-1,902,1170,0,0
-315,-146,0,0,0,0,0,0,0,0,0,-1,909,1170,0,0
-308,-146,0,0,0,0,0,0,0,0,0,-1,916,1170,0,0
-301,-146,0,0,0,0,0,0,0,0,0,-1,923,1170,0,0
-294,-146,0,0,0,0,0,0,0,0,0,-1,930,1170,0,0
-287,-146,0,0,0,0,0,0,0,0,0,-1,937,1170,0,0
-280,-146,0,0,0,0,0,0,0,0,0,-1,944,1170,0,0
-273,-146,0,0,0,0,0,0,0,0,0,-1,951,1170,0,0
-266,-146,0,0,0,0,0,0,0,0,0,-1,958,1170,0,0
-259,-146,0,0,0,0,0,0,0,0,0,-1,965,1170,0,0
-252,-146,0,0,0,0,0,0,0,0,0,-1,972,1170,0,0
-245,-146,0,0,0,0,0,0,0,0,0,-1,979,1170,0,0
-238,-146,0,0,0,0,0,0,0,0,0,-1,986,1170,0,0
-231,-146,0,0,0,0,0,0,0,0,0,-1,993,1170,0,0
-224,-146,0,0,0,0,0,0,0,0,0,-1,1000,1170,0,0
-217,-146,0,0,0,0,0,0,0,0,0,-1,1007,1170,0,0
-210,-146,0,0,0,0,0,0,0,0,0,-1,1014,1170,0,0
-203,-146,0,0,0,0,0,0,0,0,0,-1,1021,1170,0,0
-196,-146,0,0,0,0,0,0,0,0,0,-1,1028,1170,0,0
-189,-146,0,0,0,0,0,0,0,0,0,-1,1035,1170,0,0
-182,-146,0,0,0,0,0,0,0,0,0,-1,1042,1170,0,0
-175,-146,0,0,0,0,0,0,0,0,0,-1,1049,1170,0,0
-168,-146,0,0,0,0,0,0,0,0,0,-1,1056,1170,0,0
-161,-146,0,0,0,0,0,0,0,0,0,-1,1063,1170,0,0
-154,-146,0,0,0,0,0,0,0,0,0,-1,1070,1170,0,0
-147,-146,0,0,0,0,0,0,0,0,0,-1,1077,1170,0,0
-140,-146,0,0,0,0,0,0,0,0,0,-1,1084,1170,0,0
-133,-146,0,0,0,0,0,0,0,0,0,-1,1091,1170,0,0
-126,-146,0,0,0,0,0,0,0,0,0,-1,1098,1170,0,0
-119,-146,0,0,0,0,0,0,0,0,0,-1,1105,1170,0,0
-112,-146,0,0,0,0,0,0,0,0,0,-1,1112,1170,0,0
-105,-146,0,0,0,0,0,0,0,0,0,-1,1119,1170,0,0
-98,-146,0,0,0,0,0,0,0,0,0,-1,1126,1170,0,0
-91,-146,0,0,0,0,0,0,0,0,0,-1,1133,1170,0,0
-84,-146,0,0,0,0,0,0,0,0,0,-1,1140,1170,0,0
-77,-146,0,0,0,0,0,0,0,0,0,-1,1147,1170,0,0
-70,-146,0,0,0,0,0,0,0,0,0,-1,1154,1170,0,0
-63,-146,0,0,0,0,0,0,0,0,0,-1,1161,1170,0,0
-56,-146,0,0,0,0,0,0,0,0,0,-1,1168,1170,0,0
-49,-146,0,0,0,0,0,0,0,0,0,-1,1175,1170,0,0
-42,-146,0,0,0,0,0,0,0,0,0,-1,1182,1170,0,0
-35,-146,0,0,0,0,0,0,0,0,0,-1,1189,1170,0,0
-28,-146,0,0,0,0,0,0,0,0,0,-1,1196,1170,0,0
-21,-146,0,0,0,0,0,0,0,0,0,-1,1203,1170,0,0
-14,-146,0,0,0,0,0,0,0,0,0,-1,1210,1170,0,0
-7,-146,0,0,0,0,0,0,0,0,0,-1,1217,1170,0,0
0,-146,0,0,0,0,0,0,0,0,0,-1,1224,1170,0,0
7,-146,0,0,0,0,0,0,0,0,0,-1,1231,1170,0,0
14,-146,0,0,0,0,0,0,0,0,0,-1,1238,1170,0,0
21,-146,0,0,0,0,0,0,0,0,0,-1,1245,1170,0,0
28,-146,0,0,0,0,0,0,0,0,0,-1,1252,1170,0,0
35,-146,0,0,0,0,0,0,0,0,0,-1,1259,1170,0,0
42,-146,0,0,0,0,0,0,0,0,0,-1,1266,1170,0,0
49,-146,0,0,0,0,0,0,0,0,0,-1,1273,1170,0,0
56,-146,0,0,0,0,0,0,0,0,0,-1,1280,1170,0,0
63,-146,0,0,0,0,0,0,0,0,0,-1,1287,1170,0,0
70,-146,0,0,0,0,0,0,0,0,0,-1,1294,1170,0,0
77,-146,0,0,0,0,0,0,0,0,0,-1,1301,1170,0,0
84,-146,0,0,0,0,0,0,0,0,0,-1,1308,1170,0,0
91,-146,0,0,0,0,0,0,0,0,0,-1,1315,1170,0,0
98,-146,0,0,0,0,0,0,0,0,0,-1,1322,1170,0,0
105,-146,0,0,0,0,0,0,0,0,0,-1,1329,1170,0,0
112,-146,0,0,0,0,0,0,0,0,0,-1,1336,1170,0,0
119,-146,0,0,0,0,0,0,0,0,0,-1,1343,1170,0,0
126,-146,0,0,0,0,0,0,0,0,0,-1,1350,1170,0,0
133,-146,0,0,0,0,0,0,0,0,0,-1,1357,1170,0,0
140,-146,0,0,0,0,0,0,0,0,0,-1,1364,1170,0,0
147,-146,0,0,0,0,0,0,0,0,0,-1,1371,1170,0,0
154,-146,0,0,0,0,0,0,0,0,0,-1,1378,1170,0,0
161,-146,0,0,0,0,0,0,0,0,0,-1,1385,1170,0,0
168,-146,0,0,0,0,0,0,0,0,0,-1,1392,1170,0,0
175,-146,0,0,0,0,0,0,0,0,0,-1,1399,1170,0,0
182,-146,0,0,0,0,0,0,0,0,0,-1,1406,1170,0,0
189,-146,0,0,0,0,0,0,0,0,0,-1,1413,1170,0,0
196,-146,0,0,0,0,0,0,0,0,0,-1,1420,1170,0,0
203,-146,0,0,0,0,0,0,0,0,0,-1,1427,1170,0,0
210,-146,0,0,0,0,0,0,0,0,0,-1,1434,1170,0,0
217,-146,0,0,0,0,0,0,0,0,0,-1,1441,1170,0,0
224,-146,0,0,0,0,0,0,0,0,0,-1,1448,1170,0,0
231,-146,0,0,0,0,0,0,0,0,0,-1,1455,1170,0,0
238,-146,0,0,0,0,0,0,0,0,0,-1,1462,1170,0,0
245,-146,0,0,0,0,0,0,0,0,0,-1,1469,1170,0,0
252,-146,0,0,0,0,0,0,0,0,0,-1,1476,1170,0,0
259,-146,0,0,0,0,0,0,0,0,0,-1,1483,1170,0,0
266,-146,0,0,0,0,0,0,0,0,0,-1,1490,1170,0,0
273,-146,0,0,0,0,0,0,0,0,0,-1,1497,1170,0,0
280,-146,0,0,0,0,0,0,0,0,0,-1,1504,1170,0,0
287,-146,0,0,0,0,0,0,0,0,0,-1,1511,1170,0,0
294,-146,0,0,0,0,0,0,0,0,0,-1,1518,1170,0,0
301,-146,0,0,0,0,0,0,0,0,0,-1,1525,1170,0,0
308,-146,0,0,0,0,0,0,0,0,0,-1,1532,1170,0,0
315,-146,0,0,0,0,0,0,0,0,0,-1,1539,1170,0,0
322,-146,0,0,0,0,0,0,0,0,0,-1,1546,1170,0,0
329,-146,0,0,0,0,0,0,0,0,0,-1,1553,1170,0,0
336,-146,0,0,0,0,0,0,0,0,0,-1,1560,1170,0,0
343,-146,0,0,0,0,0,0,0,0,0,-1,1567,1170,0,0
350,-146,0,0,0,0,0,0,0,0,0,-1,1574,1170,0,0
357,-146,0,0,0,0,0,0,0,0,0,-1,1581,1170,0,0
364,-146,0,0,0,0,0,0,0,0,0,-1,1588,1170,0,0
371,-146,0,0,0,0,0,0,0,0,0,-1,1595,1170,0,0
378,-146,0,0,0,0,0,0,0,0,0,-1,1602,1170,0,0
385,-146,0,0,0,0,0,0,0,0,0,-1,1609,1170,0,0
392,-146,0,0,0,0,0,0,0,0,0,-1,1616,1170,0,0
399,-146,0,0,0,0,0,0,0,0,0,-1,1623,1170,0,0
406,-146,0,0,0,0,0,0,0,0,0,-1,1630,1170,0,0
413,-146,0,0,0,0,0,0,0,0,0,-1,1637,1170,0,0
420,-146,0,0,0,0,0,0,0,0,0,-1,1644,1170,0,0
427,-146,0,0,0,0,0,0,0,0,0,-1,1651,1170,0,0
434,-146,0,0,0,0,0,0,0,0,0,-1,1658,1170,0,0
441,-146,0,0,0,0,0,0,0,0,0,-1,1665,1170,0,0
448,-146,0,0,0,0,0,0,0,0,0,-1,1672,1170,0,0
455,-146,0,0,0,0,0,0,0,0,0,-1,1679,1170,0,0
462,-146,0,0,0,0,0,0,0,0,0,-1,1686,1170,0,0
469,-146,0,0,0,0,0,0,0,0,0,-1,1693,1170,0,0
476,-146,0,0,0,0,0,0,0,0,0,-1,1700,1170,0,0
483,-146,0,0,0,0,0,0,0,0,0,-1,1707,1170,0,0
490,-146,0,0,0,0,0,0,0,0,0,-1,1714,1170,0,0
497,-146,0,0,0,0,0,0,0,0,0,-1,1721,1170,0,0
504,-146,0,0,0,0,0,0,0,0,0,-1,1728,1170,0,0
511,-146,0,0,0,0,0,0,0,0,0,-1,1735,1170,0,0
518,-146,0,0,0,0,0,0,0,0,0,-1,1742,1170,0,0
525,-146,0,0,0,0,0,0,0,0,0,-1,1749,1170,0,0
532,-146,0,0,0,0,0,0,0,0,0,-1,1756,1170,0,0
539,-146,0,0,0,0,0,0,0,0,0,-1,1763,1170,0,0
546,-146,0,0,0,0,0,0,0,0,0,-1,1770,1170,0,0
553,-146,0,0,0,0,0,0,0,0,0,-1,1777,1170,0,0
560,-146,0,0,0,0,0,0,0,0,0,-1,1784,1170,0,0
567,-146,0,0,0,0,0,0,0,0,0,-1,1791,1170,0,0
574,-146,0,0,0,0,0,0,0,0,0,-1,1798,1170,0,0
581,-146,0,0,0,0,0,0,0,0,0,-1,1805,1170,0,0
588,-146,0,0,0,0,0,0,0,0,0,-1,1812,1170,0,0
595,-146,0,0,0,0,0,0,0,0,0,-1,1819,1170,0,0
602,-146,0,0,0,0,0,0,0,0,0,-1,1826,1170,0,0
609,-146,0,0,0,0,0,0,0,0,0,-1,1833,1170,0,0
616,-146,0,0,0,0,0,0,0,0,0,-1,1840,1170,0,0
623,-146,0,0,0,0,0,0,0,0,0,-1,1847,1170,0,0
630,-146,0,0,0,0,0,0,0,0,0,-1,1854,1170,0,0
637,-146,80.6615,1.92236,0.000553062,-0.000947884,0.00328747,0.00317463,-0.00356945,0.67318,0.00389592,0.0400901,1861,1170,80.6615,-1.92236
644,-146,80.6385,2.02051,0.000147332,-0.000390052,0.00232038,0.00221452,-0.00245724,0.727757,0.00269846,0.0385464,1868,1170,80.6386,-2.02045
651,-146,80.6022,2.03369,2.86702e-06,0.000130382,0.0014827,0.00155069,-0.00141744,0.806885,0.00171423,0.0386527,1875,1170,80.6021,-2.03365
658,-146,80.5424,2.10107,0.000101437,0.000540632,0.000711579,0.00106573,-0.000423659,0.935065,0.000886132,0.0403852,1882,1170,80.5423,-2.1011
665,-146,80.5316,2.22998,0.000311071,0.000905073,7.97081e-06,0.00090518,0.000310964,1.55738,0.000531067,0.0379004,1889,1170,80.5316,-2.22994
672,-146,80.6094,2.26563,0.000649731,0.00124731,-0.00063876,0.00165371,0.000243333,-1.00416,0.00103098,0.0365176,1896,1170,80.6093,-2.26559
679,-146,80.6307,2.13306,0.00118006,0.00101335,-0.000919,0.00201948,0.000173932,-0.740173,0.00129225,0.0310411,1903,1170,80.6308,-2.13301
686,-146,80.4969,2.12854,0.0020945,0.0011259,-0.00101961,0.00273898,0.000481413,-0.563681,0.00168855,0.0263565,1910,1170,80.4969,-2.1285
693,-146,80.5728,2.1217,0.00223135,0.000923517,-0.000655588,0.0025034,0.000651474,-0.393337,0.00149971,0.0246027,1917,1170,80.5727,-2.12174
700,-146,80.6704,2.09424,0,0,0,0,0,0,0,-1,1924,1170,80.6704,-2.09429
707,-146,29.9441,6.94653,0,0,0,0,0,0,0,-1,1931,1170,29.9441,-6.94652
714,-146,31.325,6.13245,0,0,0,0,0,0,0,-1,1938,1170,31.325,-6.1325
721,-146,61.3608,9.47766,0,0,0,0,0,0,0,-1,1945,1170,61.3608,-9.47767
728,-146,70.0679,9.5863,0,0,0,0,0,0,0,-1,1952,1170,70.0679,-9.58635
735,-146,70.0643,9.25427,0.0024464,0.00118023,0.00107787,0.00306335,0.000563275,0.519866,0.00188277,0.0406059,1959,1170,70.0643,-9.25425
742,-146,70.1838,8.48169,0.00226892,0.00101801,0.00138689,0.00316486,0.000122067,0.573565,0.00207042,0.0199905,1966,1170,70.1838,-8.48164
749,-146,70.0206,7.83582,0.00114219,0.00190194,0.00157296,0.00314024,-9.61126e-05,0.903882,0.00212626,0.0163542,1973,1170,70.0207,-7.83581
756,-146,69.9658,7.13745,0.000413972,0.0046966,0.000532929,0.00476192,0.000348651,1.44883,0.00306501,0.0126859,1980,1170,69.9658,-7.13739
763,-146,69.9082,6.3999,0.000616991,0.00868124,-0.00177349,0.00905404,0.000244197,-1.36361,0.00595629,0.0118964,1987,1170,69.9081,-6.3999
770,-146,69.8665,5.69055,0.00154714,0.0135583,-0.00516878,0.0154763,-0.00037087,-1.21547,0.0104434,0.0135726,1994,1170,69.8665,-5.69057
777,-146,69.8938,5.07813,0.00326805,0.019474,-0.00980785,0.0240932,-0.00135108,-1.13065,0.0165309,0.0258786,2001,1170,69.8938,-5.07807
784,-146,69.9089,4.54883,0.00619217,0.0267999,-0.0162522,0.0357393,-0.00274728,-1.06792,0.0247928,0.0454453,2008,1170,69.9089,-4.54884
791,-146,69.731,3.53772,0.0109965,0.0369766,-0.0256165,0.0527084,-0.00473529,-1.02005,0.036819,0.0487654,2015,1170,69.7309,-3.53778
798,-146,70.0154,2.65039,0,0,0,0,0,0,0,-1,2022,1170,70.0153,-2.65039
805,-146,72.9839,-0.712646,0,0,0,0,0,0,0,-1,2029,1170,72.984,0.712678
812,-146,0,0,0,0,0,0,0,0,0,-1,2036,1170,0,0
-700,-153,0,0,0,0,0,0,0,0,0,-1,524,1177,0,0
-693,-153,0,0,0,0,0,0,0,0,0,-1,531,1177,0,0
-686,-153,-56.9661,5.07446,-0.0336035,0.103722,0.0273741,0.108977,-0.038859,1.38111,0.0884957,0.0445962,538,1177,-56.9661,-5.07444
-679,-153,-57.3829,6.16895,-0.0305361,0.0945666,0.0225751,0.0985157,-0.0344852,1.39762,0.0796992,0.0496237,545,1177,-57.3829,-6.1689
-672,-153,-57.7264,7.4939,-0.0269136,0.0834971,0.0180375,0.0863691,-0.0297856,1.4129,0.0696639,0.0491658,552,1177,-57.7264,-7.49387
-665,-153,-57.8772,8.5625,0,0,0,0,0,0,0,-1,559,1177,-57.8772,-8.56255
-658,-153,-57.9833,9.84338,0,0,0,0,0,0,0,-1,566,1177,-57.9833,-9.84335
-651,-153,-52.2706,3.66956,0,0,0,0,0,0,0,-1,573,1177,-52.2706,-3.66957
-644,-153,-52.494,4.43677,-0.0147429,0.0348576,0.00344482,0.0350957,-0.014981,1.50179,0.0296791,0.0355814,580,1177,-52.494,-4.43674
-637,-153,-52.6993,5.21802,-0.0122426,0.0231995,0.000779826,0.0232166,-0.0122597,1.54881,0.0208054,0.0140815,587,1177,-52.6993,-5.21797
-630,-153,-52.7527,5.97717,-0.0105887,0.0126173,-0.00154137,0.0127192,-0.0106906,-1.50476,0.0135326,0.0109562,594,1177,-52.7528,-5.97717
-623,-153,-52.8006,6.73132,-0.00905037,0.00346608,-0.00326336,0.00426582,-0.00985011,-1.33047,0.00835971,0.0123837,601,1177,-52.8006,-6.73137
-616,-153,-52.8785,7.44971,-0.00869214,-6.09385e-05,-0.00361256,0.00125151,-0.0100046,-1.22232,0.00712364,0.0162026,608,1177,-52.8785,-7.44971
-609,-153,-52.9689,8.16357,0,0,0,0,0,0,0,-1,615,1177,-52.9689,-8.16353
-602,-153,-50.7079,7.54736,0,0,0,0,0,0,0,-1,622,1177,-50.7079,-7.54741
-595,-153,-43.9551,7.35718,0,0,0,0,0,0,0,-1,629,1177,-43.9551,-7.35722
-588,-153,-32.348,5.51038,0,0,0,0,0,0,0,-1,636,1177,-32.348,-5.51034
-581,-153,-33.4568,6.41492,0,0,0,0,0,0,0,-1,643,1177,-33.4568,-6.41497
-574,-153,-25.4814,5.16956,0,0,0,0,0,0,0,-1,650,1177,-25.4814,-5.16961
-567,-153,-35.3121,1.09485,0,0,0,0,0,0,0,-1,657,1177,-35.3121,-1.09482
-560,-153,-63.4615,0.173706,0,0,0,0,0,0,0,-1,664,1177,-63.4616,-0.173661
-553,-153,-63.3749,0.37561,0,0,0,0,0,0,0,-1,671,1177,-63.3749,-0.375611
-546,-153,-63.3309,0.495361,0.00110965,-0.00173925,-0.003098,0.00309499,-0.00372459,-0.569913,0.00394287,0.0407273,678,1177,-63.331,-0.495373
-539,-153,-63.4644,0.385254,0.00133209,-0.00078016,-0.00276226,0.00323324,-0.00268131,-0.602802,0.00341972,0.0414025,685,1177,-63.4644,-0.38526
-532,-153,-63.6187,0.39502,0.000330547,-3.26843e-05,-0.00207132,0.0022282,-0.00193034,-0.741669,0.00240299,0.0434311,692,1177,-63.6187,-0.395032
-525,-153,-63.6668,0.564819,-0.00246843,0.000575424,-0.00140109,0.00112215,-0.00301515,-1.19875,0.00247061,0.0405933,699,1177,-63.6668,-0.564762
-518,-153,0,0,0,0,0,0,0,0,0,-1,706,1177,0,0
-511,-153,0,0,0,0,0,0,0,0,0,-1,713,1177,0,0
-504,-153,0,0,0,0,0,0,0,0,0,-1,720,1177,0,0
-497,-153,0,0,0,0,0,0,0,0,0,-1,727,1177,0,0
-490,-153,0,0,0,0,0,0,0,0,0,-1,734,1177,0,0
-483,-153,0,0,0,0,0,0,0,0,0,-1,741,1177,0,0
-476,-153,0,0,0,0,0,0,0,0,0,-1,748,1177,0,0
-469,-153,0,0,0,0,0,0,0,0,0,-1,755,1177,0,0
-462,-153,0,0,0,0,0,0,0,0,0,-1,762,1177,0,0
-455,-153,0,0,0,0,0,0,0,0,0,-1,769,1177,0,0
-448,-153,0,0,0,0,0,0,0,0,0,-1,776,1177,0,0
-441,-153,0,0,0,0,0,0,0,0,0,-1,783,1177,0,0
-434,-153,0,0,0,0,0,0,0,0,0,-1,790,1177,0,0
-427,-153,0,0,0,0,0,0,0,0,0,-1,797,1177,0,0
-420,-153,0,0,0,0,0,0,0,0,0,-1,804,1177,0,0
-413,-153,0,0,0,0,0,0,0,0,0,-1,811,1177,0,0
-406,-153,0,0,0,0,0,0,0,0,0,-1,818,1177,0,0
-399,-153,0,0,0,0,0,0,0,0,0,-1,825,1177,0,0
-392,-153,0,0,0,0,0,0,0,0,0,-1,832,1177,0,0
-385,-153,0,0,0,0,0,0,0,0,0,-1,839,1177,0,0
-378,-153,0,0,0,0,0,0,0,0,0,-1,846,1177,0,0
-371,-153,0,0,0,0,0,0,0,0,0,-1,853,1177,0,0
-364,-153,0,0,0,0,0,0,0,0,0,-1,860,1177,0,0
-357,-153,0,0,0,0,0,0,0,0,0,-1,867,1177,0,0
-350,-153,0,0,0,0,0,0,0,0,0,-1,874,1177,0,0
-343,-153,0,0,0,0,0,0,0,0,0,-1,881,1177,0,0
-336,-153,0,0,0,0,0,0,0,0,0,-1,888,1177,0,0
-329,-153,0,0,0,0,0,0,0,0,0,-1,895,1177,0,0
-322,-153,0,0,0,0,0,0,0,0,0,-1,902,1177,0,0
-315,-153,0,0,0,0,0,0,0,0,0,-1,909,1177,0,0
-308,-153,0,0,0,0,0,0,0,0,0,-1,916,1177,0,0
-301,-153,0,0,0,0,0,0,0,0,0,-1,923,1177,0,0
-294,-153,0,0,0,0,0,0,0,0,0,-1,930,1177,0,0
-287,-153,0,0,0,0,0,0,0,0,0,-1,937,1177,0,0
-280,-153,0,0,0,0,0,0,0,0,0,-1,944,1177,0,0
-273,-153,0,0,0,0,0,0,0,0,0,-1,951,1177,0,0
-266,-153,0,0,0,0,0,0,0,0,0,-1,958,1177,0,0
-259,-153,0,0,0,0,0,0,0,0,0,-1,965,1177,0,0
-252,-153,0,0,0,0,0,0,0,0,0,-1,972,1177,0,0
-245,-153,0,0,0,0,0,0,0,0,0,-1,979,1177,0,0
-238,-153,0,0,0,0,0,0,0,0,0,-1,986,1177,0,0
-231,-153,0,0,0,0,0,0,0,0,0,-1,993,1177,0,0
-224,-153,0,0,0,0,0,0,0,0,0,-1,1000,1177,0,0
-217,-153,0,0,0,0,0,0,0,0,0,-1,1007,1177,0,0
-210,-153,0,0,0,0,0,0,0,0,0,-1,1014,1177,0,0
-203,-153,0,0,0,0,0,0,0,0,0,-1,1021,1177,0,0
-196,-153,0,0,0,0,0,0,0,0,0,-1,1028,1177,0,0
-189,-153,0,0,0,0,0,0,0,0,0,-1,1035,1177,0,0
-182,-153,0,0,0,0,0,0,0,0,0,-1,1042,1177,0,0
-175,-153,0,0,0,0,0,0,0,0,0,-1,1049,1177,0,0
-168,-153,0,0,0,0,0,0,0,0,0,-1,1056,1177,0,0
-161,-153,0,0,0,0,0,0,0,0,0,-1,1063,1177,0,0
-154,-153,0,0,0,0,0,0,0,0,0,-1,1070,1177,0,0
-147,-153,0,0,0,0,0,0,0,0,0,-1,1077,1177,0,0
-140,-153,0,0,0,0,0,0,0,0,0,-1,1084,1177,0,0
-133,-153,0,0,0,0,0,0,0,0,0,-1,1091,1177,0,0
-126,-153,0,0,0,0,0,0,0,0,0,-1,1098,1177,0,0
-119,-153,0,0,0,0,0,0,0,0,0,-1,1105,1177,0,0
-112,-153,0,0,0,0,0,0,0,0,0,-1,1112,1177,0,0
-105,-153,0,0,0,0,0,0,0,0,0,-1,1119,1177,0,0
-98,-153,0,0,0,0,0,0,0,0,0,-1,1126,1177,0,0
-91,-153,0,0,0,0,0,0,0,0,0,-1,1133,1177,0,0
-84,-153,0,0,0,0,0,0,0,0,0,-1,1140,1177,0,0
-77,-153,0,0,0,0,0,0,0,0,0,-1,1147,1177,0,0
-70,-153,0,0,0,0,0,0,0,0,0,-1,1154,1177,0,0
-63,-153,0,0,0,0,0,0,0,0,0,-1,1161,1177,0,0
-56,-153,0,0,0,0,0,0,0,0,0,-1,1168,1177,0,0
-49,-153,0,0,0,0,0,0,0,0,0,-1,1175,1177,0,0
-42,-153,0,0,0,0,0,0,0,0,0,-1,1182,1177,0,0
-35,-153,0,0,0,0,0,0,0,0,0,-1,1189,1177,0,0
-28,-153,0,0,0,0,0,0,0,0,0,-1,1196,1177,0,0
-21,-153,0,0,0,0,0,0,0,0,0,-1,1203,1177,0,0
-14,-153,0,0,0,0,0,0,0,0,0,-1,1210,1177,0,0
-7,-153,0,0,0,0,0,0,0,0,0,-1,1217,1177,0,0
0,-153,0,0,0,0,0,0,0,0,0,-1,1224,1177,0,0
7,-153,0,0,0,0,0,0,0,0,0,-1,1231,1177,0,0
14,-153,0,0,0,0,0,0,0,0,0,-1,1238,1177,0,0
21,-153,0,0,0,0,0,0,0,0,0,-1,1245,1177,0,0
28,-153,0,0,0,0,0,0,0,0,0,-1,1252,1177,0,0
35,-153,0,0,0,0,0,0,0,0,0,-1,1259,1177,0,0
42,-153,0,0,0,0,0,0,0,0,0,-1,1266,1177,0,0
49,-153,0,0,0,0,0,0,0,0,0,-1,1273,1177,0,0
56,-153,0,0,0,0,0,0,0,0,0,-1,1280,1177,0,0
63,-153,0,0,0,0,0,0,0,0,0,-1,1287,1177,0,0
70,-153,0,0,0,0,0,0,0,0,0,-1,1294,1177,0,0
77,-153,0,0,0,0,0,0,0,0,0,-1,1301,1177,0,0
84,-153,0,0,0,0,0,0,0,0,0,-1,1308,1177,0,0
91,-153,0,0,0,0,0,0,0,0,0,-1,1315,1177,0,0
98,-153,0,0,0,0,0,0,0,0,0,-1,1322,1177,0,0
105,-153,0,0,0,0,0,0,0,0,0,-1,1329,1177,0,0
112,-153,0,0,0,0,0,0,0,0,0,-1,1336,1177,0,0
119,-153,0,0,0,0,0,0,0,0,0,-1,1343,1177,0,0
126,-153,0,0,0,0,0,0,0,0,0,-1,1350,1177,0,0
133,-153,0,0,0,0,0,0,0,0,0,-1,1357,1177,0,0
140,-153,0,0,0,0,0,0,0,0,0,-1,1364,1177,0,0
147,-153,0,0,0,0,0,0,0,0,0,-1,1371,1177,0,0
154,-153,0,0,0,0,0,0,0,0,0,-1,1378,1177,0,0
161,-153,0,0,0,0,0,0,0,0,0,-1,1385,1177,0,0
168,-153,0,0,0,0,0,0,0,0,0,-1,1392,1177,0,0
175,-153,0,0,0,0,0,0,0,0,0,-1,1399,1177,0,0
182,-153,0,0,0,0,0,0,0,0,0,-1,1406,1177,0,0
189,-153,0,0,0,0,0,0,0,0,0,-1,1413,1177,0,0
196,-153,0,0,0,0,0,0,0,0,0,-1,1420,1177,0,0
203,-153,0,0,0,0,0,0,0,0,0,-1,1427,1177,0,0
210,-153,0,0,0,0,0,0,0,0,0,-1,1434,1177,0,0
217,-153,0,0,0,0,0,0,0,0,0,-1,1441,1177,0,0
224,-153,0,0,0,0,0,0,0,0,0,-1,1448,1177,0,0
231,-153,0,0,0,0,0,0,0,0,0,-1,1455,1177,0,0
238,-153,0,0,0,0,0,0,0,0,0,-1,1462,1177,0,0
245,-153,0,0,0,0,0,0,0,0,0,-1,1469,1177,0,0
252,-153,0,0,0,0,0,0,0,0,0,-1,1476,1177,0,0
259,-153,0,0,0,0,0,0,0,0,0,-1,1483,1177,0,0
266,-153,0,0,0,0,0,0,0,0,0,-1,1490,1177,0,0
273,-153,0,0,0,0,0,0,0,0,0,-1,1497,1177,0,0
280,-153,0,0,0,0,0,0,0,0,0,-1,1504,1177,0,0
287,-153,0,0,0,0,0,0,0,0,0,-1,1511,1177,0,0
294,-153,0,0,0,0,0,0,0,0,0,-1,1518,1177,0,0
301,-153,0,0,0,0,0,0,0,0,0,-1,1525,1177,0,0
308,-153,0,0,0,0,0,0,0,0,0,-1,1532,1177,0,0
315,-153,0,0,0,0,0,0,0,0,0,-1,1539,1177,0,0
322,-153,0,0,0,0,0,0,0,0,0,-1,1546,1177,0,0
329,-153,0,0,0,0,0,0,0,0,0,-1,1553,1177,0,0
336,-153,0,0,0,0,0,0,0,0,0,-1,1560,1177,0,0
343,-153,0,0,0,0,0,0,0,0,0,-1,1567,1177,0,0
350,-153,0,0,0,0,0,0,0,0,0,-1,1574,1177,0,0
357,-153,0,0,0,0,0,0,0,0,0,-1,1581,1177,0,0
364,-153,0,0,0,0,0,0,0,0,0,-1,1588,1177,0,0
371,-153,0,0,0,0,0,0,0,0,0,-1,1595,1177,0,0
378,-153,0,0,0,0,0,0,0,0,0,-1,1602,1177,0,0
385,-153,0,0,0,0,0,0,0,0,0,-1,1609,1177,0,0
392,-153,0,0,0,0,0,0,0,0,0,-1,1616,1177,0,0
399,-153,0,0,0,0,0,0,0,0,0,-1,1623,1177,0,0
406,-153,0,0,0,0,0,0,0,0,0,-1,1630,1177,0,0
413,-153,0,0,0,0,0,0,0,0,0,-1,1637,1177,0,0
420,-153,0,0,0,0,0,0,0,0,0,-1,1644,1177,0,0
427,-153,0,0,0,0,0,0,0,0,0,-1,1651,1177,0,0
434,-153,0,0,0,0,0,0,0,0,0,-1,1658,1177,0,0
441,-153,0,0,0,0,0,0,0,0,0,-1,1665,1177,0,0
448,-153,0,0,0,0,0,0,0,0,0,-1,1672,1177,0,0
455,-153,0,0,0,0,0,0,0,0,0,-1,1679,1177,0,0
462,-153,0,0,0,0,0,0,0,0,0,-1,1686,1177,0,0
469,-153,0,0,0,0,0,0,0,0,0,-1,1693,1177,0,0
476,-153,0,0,0,0,0,0,0,0,0,-1,1700,1177,0,0
483,-153,0,0,0,0,0,0,0,0,0,-1,1707,1177,0,0
490,-153,0,0,0,0,0,0,0,0,0,-1,1714,1177,0,0
497,-153,0,0,0,0,0,0,0,0,0,-1,1721,1177,0,0
504,-153,0,0,0,0,0,0,0,0,0,-1,1728,1177,0,0
511,-153,0,0,0,0,0,0,0,0,0,-1,1735,1177,0,0
518,-153,0,0,0,0,0,0,0,0,0,-1,1742,1177,0,0
525,-153,0,0,0,0,0,0,0,0,0,-1,1749,1177,0,0
532,-153,0,0,0,0,0,0,0,0,0,-1,1756,1177,0,0
539,-153,0,0,0,0,0,0,0,0,0,-1,1763,1177,0,0
546,-153,0,0,0,0,0,0,0,0,0,-1,1770,1177,0,0
553,-153,0,0,0,0,0,0,0,0,0,-1,1777,1177,0,0
560,-153,0,0,0,0,0,0,0,0,0,-1,1784,1177,0,0
567,-153,0,0,0,0,0,0,0,0,0,-1,1791,1177,0,0
574,-153,0,0,0,0,0,0,0,0,0,-1,1798,1177,0,0
581,-153,0,0,0,0,0,0,0,0,0,-1,1805,1177,0,0
588,-153,0,0,0,0,0,0,0,0,0,-1,1812,1177,0,0
595,-153,0,0,0,0,0,0,0,0,0,-1,1819,1177,0,0
602,-153,0,0,0,0,0,0,0,0,0,-1,1826,1177,0,0
609,-153,0,0,0,0,0,0,0,0,0,-1,1833,1177,0,0
616,-153,0,0,0,0,0,0,0,0,0,-1,1840,1177,0,0
623,-153,0,0,0,0,0,0,0,0,0,-1,1847,1177,0,0
630,-153,0,0,0,0,0,0,0,0,0,-1,1854,1177,0,0
637,-153,80.5413,2.14441,0.000275168,-0.00043518,0.00318203,0.00312179,-0.0032818,0.729819,0.0036975,0.0407765,1861,1177,80.5412,-2.14445
644,-153,80.5621,2.13721,-4.81555e-05,-4.06307e-05,0.0021952,0.00215081,-0.0022396,0.786255,0.00253498,0.0368797,1868,1177,80.5621,-2.13721
651,-153,80.5698,2.10913,-0.000102289,0.000359293,0.00128134,0.00143046,-0.00117346,0.874501,0.00150581,0.0319251,1875,1177,80.5699,-2.10915
658,-153,80.5463,2.13159,5.27187e-05,0.000697468,0.000414319,0.000900056,-0.000149869,1.11601,0.000655727,0.0362535,1882,1177,80.5462,-2.13165
665,-153,80.5677,2.17749,0.000286994,0.00103861,-0.00032704,0.00116099,0.000164619,-1.21274,0.000725373,0.038357,1889,1177,80.5677,-2.17748
672,-153,80.5841,2.17065,0.00062141,0.00147818,-0.000961146,0.00210208,-2.49699e-06,-0.995034,0.00140222,0.0382699,1896,1177,80.5841,-2.1707
679,-153,80.5266,2.09692,0.00109778,0.00143645,-0.00120913,0.00248805,4.6185e-05,-0.854968,0.00164352,0.0294265,1903,1177,80.5266,-2.0969
686,-153,80.5071,2.1156,0.00197934,0.00165391,-0.00119277,0.00302044,0.000612811,-0.717609,0.00184363,0.0199941,1910,1177,80.507,-2.11557
693,-153,80.611,2.07178,0,0,0,0,0,0,0,-1,1917,1177,80.611,-2.07181
700,-153,79.9266,2.01807,0,0,0,0,0,0,0,-1,1924,1177,79.9267,-2.01805
707,-153,29.6483,6.6842,0,0,0,0,0,0,0,-1,1931,1177,29.6483,-6.68415
714,-153,36.0046,6.78418,0,0,0,0,0,0,0,-1,1938,1177,36.0046,-6.78418
721,-153,36.4866,6.47595,0,0,0,0,0,0,0,-1,1945,1177,36.4866,-6.47593
728,-153,47.7305,7.37024,0,0,0,0,0,0,0,-1,1952,1177,47.7304,-7.37022
735,-153,69.1794,8.86816,0,0,0,0,0,0,0,-1,1959,1177,69.1794,-8.86811
742,-153,69.3221,8.61438,0.00231239,0.00138255,0.00150579,0.0034234,0.000271545,0.635663,0.00219735,0.0192371,1966,1177,69.3221,-8.61438
749,-153,69.3073,7.91797,0.00138393,0.00229196,0.00146703,0.00337363,0.000302264,0.935464,0.00215541,0.0161686,1973,1177,69.3073,-7.91791
756,-153,69.2422,7.18066,0.00108474,0.00521571,-2.29855e-06,0.00521571,0.00108474,-1.57024,0.00317788,0.0114724,1980,1177,69.2422,-7.18066
763,-153,69.179,6.44263,0.00169705,0.00934027,-0.00272019,0.0102095,0.000827806,-1.2615,0.00654788,0.0112857,1987,1177,69.179,-6.44268
770,-153,69.1494,5.72522,0.003051,0.0145391,-0.00660669,0.0175496,4.0479e-05,-1.14323,0.0116863,0.0129132,1994,1177,69.1494,-5.72516
777,-153,69.1226,5.02197,0.00525182,0.0209802,-0.0118762,0.02736,-0.00112796,-1.07784,0.0186274,0.0259405,2001,1177,69.1225,-5.02201
784,-153,69.2146,4.34277,0.0087457,0.0290445,-0.0191477,0.0405664,-0.00277619,-1.0291,0.0280155,0.0472034,2008,1177,69.2145,-4.34278
791,-153,69.2683,3.5116,0.0142212,0.0401083,-0.0294244,0.0593102,-0.00498073,-0.992606,0.0413006,0.0482945,2015,1177,69.2684,-3.51165
798,-153,69.4507,2.66638,0.0215344,0.0546324,-0.0436932,0.0848057,-0.00863879,-0.966427,0.0596257,0.0475672,2022,1177,69.4508,-2.66636
805,-153,69.6201,2.04053,0,0,0,0,0,0,0,-1,2029,1177,69.6202,-2.04054
812,-153,0,0,0,0,0,0,0,0,0,-1,2036,1177,0,0
-700,-160,0,0,0,0,0,0,0,0,0,-1,524,1184,0,0
-693,-160,0,0,0,0,0,0,0,0,0,-1,531,1184,0,0
-686,-160,-56.2603,4.36707,-0.0225534,0.117764,0.0220962,0.121161,-0.0259508,1.41824,0.0906707,0.0476546,538,1184,-56.2603,-4.36708
-679,-160,-56.665,5.39478,-0.0213587,0.107423,0.0176354,0.109795,-0.0237301,1.43713,0.0822555,0.0471087,545,1184,-56.665,-5.39481
-672,-160,-57.328,6.57703,-0.0195404,0.0945401,0.013732,0.0961697,-0.0211701,1.45267,0.0722118,0.0438714,552,1184,-57.328,-6.57697
-665,-160,-57.8454,7.52563,0,0,0,0,0,0,0,-1,559,1184,-57.8454,-7.52563
-658,-160,-53.2408,7.34534,0,0,0,0,0,0,0,-1,566,1184,-53.2409,-7.34539
-651,-160,-51.4109,3.63953,0,0,0,0,0,0,0,-1,573,1184,-51.4109,-3.63955
-644,-160,-51.6188,4.44128,-0.0123612,0.0392886,0.0022098,0.039383,-0.0124556,1.52812,0.031246,0.0438492,580,1184,-51.6189,-4.44133
-637,-160,-51.8848,5.24304,-0.0106271,0.0263509,0.000209735,0.0263521,-0.0106282,1.56512,0.0219845,0.0174306,587,1184,-51.8848,-5.24306
-630,-160,-51.9838,5.95862,-0.00948684,0.0148014,-0.00157559,0.0149032,-0.00958862,-1.50629,0.0142509,0.00950211,594,1184,-51.9838,-5.95867
-623,-160,-52.0397,6.71741,-0.00813504,0.00466479,-0.00287921,0.00528262,-0.00875287,-1.35942,0.00818554,0.015939,601,1184,-52.0397,-6.71736
-616,-160,-52.0893,7.4989,-0.00766592,-0.000324197,-0.00318539,0.000865181,-0.00885529,-1.21344,0.00621204,0.0147071,608,1184,-52.0893,-7.49889
-609,-160,-52.3159,8.22839,-0.0072212,-0.00140773,-0.00345883,0.000203564,-0.0088325,-1.13484,0.00595734,0.0303192,615,1184,-52.3159,-8.22835
-602,-160,-52.6129,8.95728,0,0,0,0,0,0,0,-1,622,1184,-52.6129,-8.95725
-595,-160,-33.0669,5.93445,0,0,0,0,0,0,0,-1,629,1184,-33.0669,-5.93446
-588,-160,-33.4845,5.66699,0,0,0,0,0,0,0,-1,636,1184,-33.4845,-5.66697
-581,-160,-33.1338,6.41174,0,0,0,0,0,0,0,-1,643,1184,-33.1338,-6.41176
-574,-160,-32.7831,7.15649,0,0,0,0,0,0,0,-1,650,1184,-32.7831,-7.15655
-567,-160,-29.5828,0.643921,0,0,0,0,0,0,0,-1,657,1184,-29.5828,-0.643968
-560,-160,-57.0784,0.200806,0,0,0,0,0,0,0,-1,664,1184,-57.0784,-0.200768
-553,-160,-63.3762,0.299194,0,0,0,0,0,0,0,-1,671,1184,-63.3762,-0.299206
-546,-160,-63.4626,0.403442,0.00083573,-0.00178771,-0.00336145,0.00313233,-0.00408431,-0.599373,0.0041786,0.0388435,678,1184,-63.4626,-0.403386
-539,-160,-63.5366,0.130127,0.00159395,-0.000933194,-0.00299119,0.00357751,-0.00291675,-0.585552,0.00375593,0.0405769,685,1184,-63.5366,-0.130164
-532,-160,-63.4802,0.156006,0.00113604,-0.000114725,-0.00195771,0.00256583,-0.00154452,-0.630798,0.00239741,0.0454363,692,1184,-63.4802,-0.156065
-525,-160,-63.3006,0.307739,-0.00142761,0.000679974,-0.000723851,0.000904633,-0.00165227,-1.26986,0.00149712,0.0427934,699,1184,-63.3006,-0.30771
-518,-160,-63.2764,0.310425,-0.00444008,0.00130602,0.000608834,0.00136982,-0.00450389,1.46638,0.00354845,0.0394266,706,1184,-63.2764,-0.310442
-511,-160,0,0,0,0,0,0,0,0,0,-1,713,1184,0,0
-504,-160,0,0,0,0,0,0,0,0,0,-1,720,1184,0,0
-497,-160,0,0,0,0,0,0,0,0,0,-1,727,1184,0,0
-490,-160,0,0,0,0,0,0,0,0,0,-1,734,1184,0,0
-483,-160,0,0,0,0,0,0,0,0,0,-1,741,1184,0,0
-476,-160,0,0,0,0,0,0,0,0,0,-1,748,1184,0,0
-469,-160,0,0,0,0,0,0,0,0,0,-1,755,1184,0,0
-462,-160,0,0,0,0,0,0,0,0,0,-1,762,1184,0,0
-455,-160,0,0,0,0,0,0,0,0,0,-1,769,1184,0,0
-448,-160,0,0,0,0,0,0,0,0,0,-1,776,1184,0,0
-441,-160,0,0,0,0,0,0,0,0,0,-1,783,1184,0,0
-434,-160,0,0,0,0,0,0,0,0,0,-1,790,1184,0,0
-427,-160,0,0,0,0,0,0,0,0,0,-1,797,1184,0,0
-420,-160,0,0,0,0,0,0,0,0,0,-1,804,1184,0,0
-413,-160,0,0,0,0,0,0,0,0,0,-1,811,1184,0,0
-406,-160,0,0,0,0,0,0,0,0,0,-1,818,1184,0,0
-399,-160,0,0,0,0,0,0,0,0,0,-1,825,1184,0,0
-392,-160,0,0,0,0,0,0,0,0,0,-1,832,1184,0,0
-385,-160,0,0,0,0,0,0,0,0,0,-1,839,1184,0,0
-378,-160,0,0,0,0,0,0,0,0,0,-1,846,1184,0,0
-371,-160,0,0,0,0,0,0,0,0,0,-1,853,1184,0,0
-364,-160,0,0,0,0,0,0,0,0,0,-1,860,1184,0,0
-357,-160,0,0,0,0,0,0,0,0,0,-1,867,1184,0,0
-350,-160,0,0,0,0,0,0,0,0,0,-1,874,1184,0,0
-343,-160,0,0,0,0,0,0,0,0,0,-1,881,1184,0,0
-336,-160,0,0,0,0,0,0,0,0,0,-1,888,1184,0,0
-329,-160,0,0,0,0,0,0,0,0,0,-1,895,1184,0,0
-322,-160,0,0,0,0,0,0,0,0,0,-1,902,1184,0,0
-315,-160,0,0,0,0,0,0,0,0,0,-1,909,1184,0,0
-308,-160,0,0,0,0,0,0,0,0,0,-1,916,1184,0,0
-301,-160,0,0,0,0,0,0,0,0,0,-1,923,1184,0,0
-294,-160,0,0,0,0,0,0,0,0,0,-1,930,1184,0,0
-287,-160,0,0,0,0,0,0,0,0,0,-1,937,1184,0,0
-280,-160,0,0,0,0,0,0,0,0,0,-1,944,1184,0,0
-273,-160,0,0,0,0,0,0,0,0,0,-1,951,1184,0,0
-266,-160,0,0,0,0,0,0,0,0,0,-1,958,1184,0,0
-259,-160,0,0,0,0,0,0,0,0,0,-1,965,1184,0,0
-252,-160,0,0,0,0,0,0,0,0,0,-1,972,1184,0,0
-245,-160,0,0,0,0,0,0,0,0,0,-1,979,1184,0,0
-238,-160,0,0,0,0,0,0,0,0,0,-1,986,1184,0,0
-231,-160,0,0,0,0,0,0,0,0,0,-1,993,1184,0,0
-224,-160,0,0,0,0,0,0,0,0,0,-1,1000,1184,0,0
-217,-160,0,0,0,0,0,0,0,0,0,-1,1007,1184,0,0
-210,-160,0,0,0,0,0,0,0,0,0,-1,1014,1184,0,0
-203,-160,0,0,0,0,0,0,0,0,0,-1,1021,1184,0,0
-196,-160,0,0,0,0,0,0,0,0,0,-1,1028,1184,0,0
-189,-160,0,0,0,0,0,0,0,0,0,-1,1035,1184,0,0
-182,-160,0,0,0,0,0,0,0,0,0,-1,1042,1184,0,0
-175,-160,0,0,0,0,0,0,0,0,0,-1,1049,1184,0,0
-168,-160,0,0,0,0,0,0,0,0,0,-1,1056,1184,0,0
-161,-160,0,0,0,0,0,0,0,0,0,-1,1063,1184,0,0
-154,-160,0,0,0,0,0,0,0,0,0,-1,1070,1184,0,0
-147,-160,0,0,0,0,0,0,0,0,0,-1,1077,1184,0,0
-140,-160,0,0,0,0,0,0,0,0,0,-1,1084,1184,0,0
-133,-160,0,0,0,0,0,0,0,0,0,-1,1091,1184,0,0
-126,-160,0,0,0,0,0,0,0,0,0,-1,1098,1184,0,0
-119,-160,0,0,0,0,0,0,0,0,0,-1,1105,1184,0,0
-112,-160,0,0,0,0,0,0,0,0,0,-1,1112,1184,0,0
-105,-160,0,0,0,0,0,0,0,0,0,-1,1119,1184,0,0
-98,-160,0,0,0,0,0,0,0,0,0,-1,1126,1184,0,0
-91,-160,0,0,0,0,0,0,0,0,0,-1,1133,1184,0,0
-84,-160,0,0,0,0,0,0,0,0,0,-1,1140,1184,0,0
-77,-160,0,0,0,0,0,0,0,0,0,-1,1147,1184,0,0
-70,-160,0,0,0,0,0,0,0,0,0,-1,1154,1184,0,0
-63,-160,0,0,0,0,0,0,0,0,0,-1,1161,1184,0,0
-56,-160,0,0,0,0,0,0,0,0,0,-1,1168,1184,0,0
-49,-160,0,0,0,0,0,0,0,0,0,-1,1175,1184,0,0
-42,-160,0,0,0,0,0,0,0,0,0,-1,1182,1184,0,0
-35,-160,0,0,0,0,0,0,0,0,0,-1,1189,1184,0,0
-28,-160,0,0,0,0,0,0,0,0,0,-1,1196,1184,0,0
-21,-160,0,0,0,0,0,0,0,0,0,-1,1203,1184,0,0
-14,-160,0,0,0,0,0,0,0,0,0,-1,1210,1184,0,0
-7,-160,0,0,0,0,0,0,0,0,0,-1,1217,1184,0,0
0,-160,0,0,0,0,0,0,0,0,0,-1,1224,1184,0,0
7,-160,0,0,0,0,0,0,0,0,0,-1,1231,1184,0,0
14,-160,0,0,0,0,0,0,0,0,0,-1,1238,1184,0,0
21,-160,0,0,0,0,0,0,0,0,0,-1,1245,1184,0,0
28,-160,0,0,0,0,0,0,0,0,0,-1,1252,1184,0,0
35,-160,0,0,0,0,0,0,0,0,0,-1,1259,1184,0,0
42,-160,0,0,0,0,0,0,0,0,0,-1,1266,1184,0,0
49,-160,0,0,0,0,0,0,0,0,0,-1,1273,1184,0,0
56,-160,0,0,0,0,0,0,0,0,0,-1,1280,1184,0,0
63,-160,0,0,0,0,0,0,0,0,0,-1,1287,1184,0,0
70,-160,0,0,0,0,0,0,0,0,0,-1,1294,1184,0,0
77,-160,0,0,0,0,0,0,0,0,0,-1,1301,1184,0,0
84,-160,0,0,0,0,0,0,0,0,0,-1,1308,1184,0,0
91,-160,0,0,0,0,0,0,0,0,0,-1,1315,1184,0,0
98,-160,0,0,0,0,0,0,0,0,0,-1,1322,1184,0,0
105,-160,0,0,0,0,0,0,0,0,0,-1,1329,1184,0,0
112,-160,0,0,0,0,0,0,0,0,0,-1,1336,1184,0,0
119,-160,0,0,0,0,0,0,0,0,0,-1,1343,1184,0,0
126,-160,0,0,0,0,0,0,0,0,0,-1,1350,1184,0,0
133,-160,0,0,0,0,0,0,0,0,0,-1,1357,1184,0,0
140,-160,0,0,0,0,0,0,0,0,0,-1,1364,1184,0,0
147,-160,0,0,0,0,0,0,0,0,0,-1,1371,1184,0,0
154,-160,0,0,0,0,0,0,0,0,0,-1,1378,1184,0,0
161,-160,0,0,0,0,0,0,0,0,0,-1,1385,1184,0,0
168,-160,0,0,0,0,0,0,0,0,0,-1,1392,1184,0,0
175,-160,0,0,0,0,0,0,0,0,0,-1,1399,1184,0,0
182,-160,0,0,0,0,0,0,0,0,0,-1,1406,1184,0,0
189,-160,0,0,0,0,0,0,0,0,0,-1,1413,1184,0,0
196,-160,0,0,0,0,0,0,0,0,0,-1,1420,1184,0,0
203,-160,0,0,0,0,0,0,0,0,0,-1,1427,1184,0,0
210,-160,0,0,0,0,0,0,0,0,0,-1,1434,1184,0,0
217,-160,0,0,0,0,0,0,0,0,0,-1,1441,1184,0,0
224,-160,0,0,0,0,0,0,0,0,0,-1,1448,1184,0,0
231,-160,0,0,0,0,0,0,0,0,0,-1,1455,1184,0,0
238,-160,0,0,0,0,0,0,0,0,0,-1,1462,1184,0,0
245,-160,0,0,0,0,0,0,0,0,0,-1,1469,1184,0,0
252,-160,0,0,0,0,0,0,0,0,0,-1,1476,1184,0,0
259,-160,0,0,0,0,0,0,0,0,0,-1,1483,1184,0,0
266,-160,0,0,0,0,0,0,0,0,0,-1,1490,1184,0,0
273,-160,0,0,0,0,0,0,0,0,0,-1,1497,1184,0,0
280,-160,0,0,0,0,0,0,0,0,0,-1,1504,1184,0,0
287,-160,0,0,0,0,0,0,0,0,0,-1,1511,1184,0,0
294,-160,0,0,0,0,0,0,0,0,0,-1,1518,1184,0,0
301,-160,0,0,0,0,0,0,0,0,0,-1,1525,1184,0,0
308,-160,0,0,0,0,0,0,0,0,0,-1,1532,1184,0,0
315,-160,0,0,0,0,0,0,0,0,0,-1,1539,1184,0,0
322,-160,0,0,0,0,0,0,0,0,0,-1,1546,1184,0,0
329,-160,0,0,0,0,0,0,0,0,0,-1,1553,1184,0,0
336,-160,0,0,0,0,0,0,0,0,0,-1,1560,1184,0,0
343,-160,0,0,0,0,0,0,0,0,0,-1,1567,1184,0,0
350,-160,0,0,0,0,0,0,0,0,0,-1,1574,1184,0,0
357,-160,0,0,0,0,0,0,0,0,0,-1,1581,1184,0,0
364,-160,0,0,0,0,0,0,0,0,0,-1,1588,1184,0,0
371,-160,0,0,0,0,0,0,0,0,0,-1,1595,1184,0,0
378,-160,0,0,0,0,0,0,0,0,0,-1,1602,1184,0,0
385,-160,0,0,0,0,0,0,0,0,0,-1,1609,1184,0,0
392,-160,0,0,0,0,0,0,0,0,0,-1,1616,1184,0,0
399,-160,0,0,0,0,0,0,0,0,0,-1,1623,1184,0,0
406,-160,0,0,0,0,0,0,0,0,0,-1,1630,1184,0,0
413,-160,0,0,0,0,0,0,0,0,0,-1,1637,1184,0,0
420,-160,0,0,0,0,0,0,0,0,0,-1,1644,1184,0,0
427,-160,0,0,0,0,0,0,0,0,0,-1,1651,1184,0,0
434,-160,0,0,0,0,0,0,0,0,0,-1,1658,1184,0,0
441,-160,0,0,0,0,0,0,0,0,0,-1,1665,1184,0,0
448,-160,0,0,0,0,0,0,0,0,0,-1,1672,1184,0,0
455,-160,0,0,0,0,0,0,0,0,0,-1,1679,1184,0,0
462,-160,0,0,0,0,0,0,0,0,0,-1,1686,1184,0,0
469,-160,0,0,0,0,0,0,0,0,0,-1,1693,1184,0,0
476,-160,0,0,0,0,0,0,0,0,0,-1,1700,1184,0,0
483,-160,0,0,0,0,0,0,0,0,0,-1,1707,1184,0,0
490,-160,0,0,0,0,0,0,0,0,0,-1,1714,1184,0,0
497,-160,0,0,0,0,0,0,0,0,0,-1,1721,1184,0,0
504,-160,0,0,0,0,0,0,0,0,0,-1,1728,1184,0,0
511,-160,0,0,0,0,0,0,0,0,0,-1,1735,1184,0,0
518,-160,0,0,0,0,0,0,0,0,0,-1,1742,1184,0,0
525,-160,0,0,0,0,0,0,0,0,0,-1,1749,1184,0,0
532,-160,0,0,0,0,0,0,0,0,0,-1,1756,1184,0,0
539,-160,0,0,0,0,0,0,0,0,0,-1,1763,1184,0,0
546,-160,0,0,0,0,0,0,0,0,0,-1,1770,1184,0,0
553,-160,0,0,0,0,0,0,0,0,0,-1,1777,1184,0,0
560,-160,0,0,0,0,0,0,0,0,0,-1,1784,1184,0,0
567,-160,0,0,0,0,0,0,0,0,0,-1,1791,1184,0,0
574,-160,0,0,0,0,0,0,0,0,0,-1,1798,1184,0,0
581,-160,0,0,0,0,0,0,0,0,0,-1,1805,1184,0,0
588,-160,0,0,0,0,0,0,0,0,0,-1,1812,1184,0,0
595,-160,0,0,0,0,0,0,0,0,0,-1,1819,1184,0,0
602,-160,0,0,0,0,0,0,0,0,0,-1,1826,1184,0,0
609,-160,0,0,0,0,0,0,0,0,0,-1,1833,1184,0,0
616,-160,0,0,0,0,0,0,0,0,0,-1,1840,1184,0,0
623,-160,0,0,0,0,0,0,0,0,0,-1,1847,1184,0,0
630,-160,0,0,0,0,0,0,0,0,0,-1,1854,1184,0,0
637,-160,80.5665,2.22461,0.000193867,-0.0012331,0.0029162,0.0024826,-0.00352183,0.665424,0.00348392,0.0425501,1861,1184,80.5666,-2.2246
644,-160,80.6112,2.10083,-2.37985e-05,-0.000649868,0.00199392,0.00168151,-0.00235518,0.707537,0.00234138,0.0397809,1868,1184,80.6112,-2.10084
651,-160,80.5273,2.15344,1.32517e-05,-9.84093e-05,0.00105258,0.00101148,-0.00109664,0.758902,0.00121745,0.0370914,1875,1184,80.5273,-2.15341
658,-160,80.5167,2.1792,0.000213378,0.000395727,0.000130365,0.000463636,0.000145468,1.09055,0.000273801,0.0376882,1882,1184,80.5168,-2.17925
665,-160,80.634,2.18359,0.000463416,0.000912188,-0.000618945,0.00134616,2.94389e-05,-0.959295,0.000887793,0.0383834,1889,1184,80.634,-2.18364
672,-160,80.5839,2.17957,0.000796499,0.00158909,-0.00121113,0.00246711,-8.15208e-05,-0.943514,0.00167258,0.0351961,1896,1184,80.5838,-2.1796
679,-160,80.5078,2.14734,0.00120775,0.00178802,-0.00140818,0.00293564,6.01264e-05,-0.886995,0.00193736,0.0264426,1903,1184,80.5078,-2.14733
686,-160,80.5398,2.09021,0.00197136,0.00206584,-0.00136041,0.00337983,0.000657371,-0.802753,0.0020692,0.0180731,1910,1184,80.5397,-2.09026
693,-160,80.5984,2.03296,0,0,0,0,0,0,0,-1,1917,1184,80.5984,-2.03295
700,-160,42.8784,2.44617,0,0,0,0,0,0,0,-1,1924,1184,42.8785,-2.4462
707,-160,24.5115,6.27405,0,0,0,0,0,0,0,-1,1931,1184,24.5115,-6.27401
714,-160,35.6892,6.8905,0,0,0,0,0,0,0,-1,1938,1184,35.6892,-6.89048
721,-160,36.2388,6.37878,0,0,0,0,0,0,0,-1,1945,1184,36.2388,-6.37876
728,-160,52.2174,8.57385,0,0,0,0,0,0,0,-1,1952,1184,52.2174,-8.57381
735,-160,68.4114,9.38147,0,0,0,0,0,0,0,-1,1959,1184,68.4113,-9.38152
742,-160,68.5156,8.61804,0.00232992,0.00180692,0.0013798,0.00347278,0.000664065,0.691748,0.00212864,0.0212272,1966,1184,68.5157,-8.61803
749,-160,68.5283,7.89868,0.00163263,0.00282534,0.00109412,0.00347507,0.000982899,1.03492,0.00206845,0.0187108,1973,1184,68.5283,-7.89871
756,-160,68.4822,7.19275,0.00163819,0.00574471,-0.000621834,0.00583681,0.00154609,-1.42376,0.00349186,0.0121288,1980,1184,68.4823,-7.19274
763,-160,68.4148,6.48596,0.00248318,0.00988694,-0.00354739,0.0113122,0.00105789,-1.18875,0.00721476,0.0128378,1987,1184,68.4149,-6.486
770,-160,68.2886,5.69287,0.004111,0.0153121,-0.00776492,0.0192855,0.000137624,-1.09783,0.0128114,0.0321627,1994,1184,68.2886,-5.69284
777,-160,68.2056,4.94006,0.00665664,0.0221859,-0.0135184,0.0300109,-0.00116839,-1.04608,0.0204079,0.0429215,2001,1184,68.2056,-4.94007
784,-160,68.3376,3.97925,0,0,0,0,0,0,0,-1,2008,1184,68.3377,-3.97919
791,-160,69.1726,3.03699,0.0167213,0.0429985,-0.0327463,0.0651436,-0.00542386,-0.976178,0.0453453,0.0436627,2015,1184,69.1725,-3.03696
798,-160,69.3994,1.9541,0.0248815,0.0588303,-0.0481952,0.0929529,-0.00924116,-0.954715,0.0652674,0.0469004,2022,1184,69.3995,-1.95411
805,-160,69.4177,1.14673,0,0,0,0,0,0,0,-1,2029,1184,69.4178,-1.14676
812,-160,0,0,0,0,0,0,0,0,0,-1,2036,1184,0,0
-700,-167,0,0,0,0,0,0,0,0,0,-1,524,1191,0,0
-693,-167,0,0,0,0,0,0,0,0,0,-1,531,1191,0,0
-686,-167,-55.5388,3.71936,-0.0096581,0.133103,0.0133782,0.134346,-0.0109009,1.47816,0.09341,0.0494576,538,1191,-55.5388,-3.71941
-679,-167,-55.5666,4.82959,-0.011254,0.12088,0.00979832,0.121602,-0.0119766,1.49718,0.0853411,0.0442,545,1191,-55.5666,-4.82955
-672,-167,-55.6679,5.81824,-0.0116923,0.105805,0.00721255,0.106246,-0.0121334,1.50972,0.075202,0.0456788,552,1191,-55.6679,-5.81826
-665,-167,-55.704,6.98523,0,0,0,0,0,0,0,-1,559,1191,-55.704,-6.98527
-658,-167,-54.4078,8.56213,0,0,0,0,0,0,0,-1,566,1191,-54.4078,-8.56214
-651,-167,-50.5104,3.78052,0,0,0,0,0,0,0,-1,573,1191,-50.5104,-3.78055
-644,-167,-50.7441,4.53687,-0.00983975,0.0440491,0.000529699,0.0440543,-0.00984495,1.56097,0.0331422,0.0437959,580,1191,-50.7441,-4.53692
-637,-167,-51.0604,5.26306,-0.00894496,0.0298352,-0.000615239,0.0298449,-0.00895472,-1.55494,0.0234583,0.0208336,587,1191,-51.0603,-5.26301
-630,-167,-51.1927,5.9585,-0.00830998,0.0174332,-0.00169759,0.0175447,-0.00842144,-1.50523,0.0152969,0.00982321,594,1191,-51.1927,-5.95845
-623,-167,-51.2277,6.70227,-0.00717004,0.00632678,-0.00247801,0.00676737,-0.00761062,-1.39484,0.00830589,0.0148137,601,1191,-51.2277,-6.7023
-616,-167,-51.2706,7.49878,-0.00657605,-0.000156458,-0.00257222,0.000747032,-0.00747954,-1.23301,0.0052531,0.019339,608,1191,-51.2706,-7.4988
-609,-167,-51.349,8.35059,-0.00630151,-0.00190586,-0.00273573,-0.000594461,-0.00761291,-1.1238,0.00488918,0.0215882,615,1191,-51.349,-8.35053
-602,-167,-51.5367,9.1228,0,0,0,0,0,0,0,-1,622,1191,-51.5368,-9.12281
-595,-167,-47.733,8.40173,0,0,0,0,0,0,0,-1,629,1191,-47.733,-8.40171
-588,-167,-42.7112,7.92004,0,0,0,0,0,0,0,-1,636,1191,-42.7112,-7.92007
-581,-167,-32.8646,6.30542,0,0,0,0,0,0,0,-1,643,1191,-32.8646,-6.30537
-574,-167,-32.4808,7.37524,0,0,0,0,0,0,0,-1,650,1191,-32.4808,-7.37525
-567,-167,-27.3643,2.55859,0,0,0,0,0,0,0,-1,657,1191,-27.3643,-2.55864
-560,-167,-48.2598,0.834839,0,0,0,0,0,0,0,-1,664,1191,-48.2598,-0.834822
-553,-167,-63.3703,0.363647,0,0,0,0,0,0,0,-1,671,1191,-63.3703,-0.36366
-546,-167,-63.4195,0.379639,0.000460641,-0.00135371,-0.00358788,0.00325426,-0.00414733,-0.661571,0.00428366,0.0356854,678,1191,-63.4195,-0.379593
-539,-167,-63.3145,0.302856,0.00162198,-0.000735157,-0.00333166,0.00397739,-0.00309056,-0.615393,0.00409138,0.0380809,685,1191,-63.3145,-0.302837
-532,-167,-63.123,0.159668,0.0018342,-1.10939e-05,-0.00209284,0.00319875,-0.00137565,-0.577786,0.00271004,0.0441915,692,1191,-63.123,-0.159609
-525,-167,-62.973,0.276001,-0.000132505,0.000706987,-0.000377052,0.00085147,-0.000276988,-1.20486,0.000679075,0.0453164,699,1191,-62.973,-0.276017
-518,-167,-63.0919,0.196533,-0.00273958,0.00135135,0.0014228,0.00179753,-0.00318576,1.26692,0.00291408,0.0433284,706,1191,-63.0919,-0.196475
-511,-167,0,0,0,0,0,0,0,0,0,-1,713,1191,0,0
-504,-167,0,0,0,0,0,0,0,0,0,-1,720,1191,0,0
-497,-167,0,0,0,0,0,0,0,0,0,-1,727,1191,0,0
-490,-167,0,0,0,0,0,0,0,0,0,-1,734,1191,0,0
-483,-167,0,0,0,0,0,0,0,0,0,-1,741,1191,0,0
-476,-167,0,0,0,0,0,0,0,0,0,-1,748,1191,0,0
-469,-167,0,0,0,0,0,0,0,0,0,-1,755,1191,0,0
-462,-167,0,0,0,0,0,0,0,0,0,-1,762,1191,0,0
-455,-167,0,0,0,0,0,0,0,0,0,-1,769,1191,0,0
-448,-167,0,0,0,0,0,0,0,0,0,-1,776,1191,0,0
-441,-167,0,0,0,0,0,0,0,0,0,-1,783,1191,0,0
-434,-167,0,0,0,0,0,0,0,0,0,-1,790,1191,0,0
-427,-167,0,0,0,0,0,0,0,0,0,-1,797,1191,0,0
-420,-167,0,0,0,0,0,0,0,0,0,-1,804,1191,0,0
-413,-167,0,0,0,0,0,0,0,0,0,-1,811,1191,0,0
-406,-167,0,0,0,0,0,0,0,0,0,-1,818,1191,0,0
-399,-167,0,0,0,0,0,0,0,0,0,-1,825,1191,0,0
-392,-167,0,0,0,0,0,0,0,0,0,-1,832,1191,0,0
-385,-167,0,0,0,0,0,0,0,0,0,-1,839,1191,0,0
-378,-167,0,0,0,0,0,0,0,0,0,-1,846,1191,0,0
-371,-167,0,0,0,0,0,0,0,0,0,-1,853,1191,0,0
-364,-167,0,0,0,0,0,0,0,0,0,-1,860,1191,0,0
-357,-167,0,0,0,0,0,0,0,0,0,-1,867,1191,0,0
-350,-167,0,0,0,0,0,0,0,0,0,-1,874,1191,0,0
-343,-167,0,0,0,0,0,0,0,0,0,-1,881,1191,0,0
-336,-167,0,0,0,0,0,0,0,0,0,-1,888,1191,0,0
-329,-167,0,0,0,0,0,0,0,0,0,-1,895,1191,0,0
-322,-167,0,0,0,0,0,0,0,0,0,-1,902,1191,0,0
-315,-167,0,0,0,0,0,0,0,0,0,-1,909,1191,0,0
-308,-167,0,0,0,0,0,0,0,0,0,-1,916,1191,0,0
-301,-167,0,0,0,0,0,0,0,0,0,-1,923,1191,0,0
-294,-167,0,0,0,0,0,0,0,0,0,-1,930,1191,0,0
-287,-167,0,0,0,0,0,0,0,0,0,-1,937,1191,0,0
-280,-167,0,0,0,0,0,0,0,0,0,-1,944,1191,0,0
-273,-167,0,0,0,0,0,0,0,0,0,-1,951,1191,0,0
-266,-167,0,0,0,0,0,0,0,0,0,-1,958,1191,0,0
-259,-167,0,0,0,0,0,0,0,0,0,-1,965,1191,0,0
-252,-167,0,0,0,0,0,0,0,0,0,-1,972,1191,0,0
-245,-167,0,0,0,0,0,0,0,0,0,-1,979,1191,0,0
-238,-167,0,0,0,0,0,0,0,0,0,-1,986,1191,0,0
-231,-167,0,0,0,0,0,0,0,0,0,-1,993,1191,0,0
-224,-167,0,0,0,0,0,0,0,0,0,-1,1000,1191,0,0
-217,-167,0,0,0,0,0,0,0,0,0,-1,1007,1191,0,0
-210,-167,0,0,0,0,0,0,0,0,0,-1,1014,1191,0,0
-203,-167,0,0,0,0,0,0,0,0,0,-1,1021,1191,0,0
-196,-167,0,0,0,0,0,0,0,0,0,-1,1028,1191,0,0
-189,-167,0,0,0,0,0,0,0,0,0,-1,1035,1191,0,0
-182,-167,0,0,0,0,0,0,0,0,0,-1,1042,1191,0,0
-175,-167,0,0,0,0,0,0,0,0,0,-1,1049,1191,0,0
-168,-167,0,0,0,0,0,0,0,0,0,-1,1056,1191,0,0
-161,-167,0,0,0,0,0,0,0,0,0,-1,1063,1191,0,0
-154,-167,0,0,0,0,0,0,0,0,0,-1,1070,1191,0,0
-147,-167,0,0,0,0,0,0,0,0,0,-1,1077,1191,0,0
-140,-167,0,0,0,0,0,0,0,0,0,-1,1084,1191,0,0
-133,-167,0,0,0,0,0,0,0,0,0,-1,1091,1191,0,0
-126,-167,0,0,0,0,0,0,0,0,0,-1,1098,1191,0,0
-119,-167,0,0,0,0,0,0,0,0,0,-1,1105,1191,0,0
-112,-167,0,0,0,0,0,0,0,0,0,-1,1112,1191,0,0
-105,-167,0,0,0,0,0,0,0,0,0,-1,1119,1191,0,0
-98,-167,0,0,0,0,0,0,0,0,0,-1,1126,1191,0,0
-91,-167,0,0,0,0,0,0,0,0,0,-1,1133,1191,0,0
-84,-167,0,0,0,0,0,0,0,0,0,-1,1140,1191,0,0
-77,-167,0,0,0,0,0,0,0,0,0,-1,1147,1191,0,0
-70,-167,0,0,0,0,0,0,0,0,0,-1,1154,1191,0,0
-63,-167,0,0,0,0,0,0,0,0,0,-1,1161,1191,0,0
-56,-167,0,0,0,0,0,0,0,0,0,-1,1168,1191,0,0
-49,-167,0,0,0,0,0,0,0,0,0,-1,1175,1191,0,0
-42,-167,0,0,0,0,0,0,0,0,0,-1,1182,1191,0,0
-35,-167,0,0,0,0,0,0,0,0,0,-1,1189,1191,0,0
-28,-167,0,0,0,0,0,0,0,0,0,-1,1196,1191,0,0
-21,-167,0,0,0,0,0,0,0,0,0,-1,1203,1191,0,0
-14,-167,0,0,0,0,0,0,0,0,0,-1,1210,1191,0,0
-7,-167,0,0,0,0,0,0,0,0,0,-1,1217,1191,0,0
0,-167,0,0,0,0,0,0,0,0,0,-1,1224,1191,0,0
7,-167,0,0,0,0,0,0,0,0,0,-1,1231,1191,0,0
14,-167,0,0,0,0,0,0,0,0,0,-1,1238,1191,0,0
21,-167,0,0,0,0,0,0,0,0,0,-1,1245,1191,0,0
28,-167,0,0,0,0,0,0,0,0,0,-1,1252,1191,0,0
35,-167,0,0,0,0,0,0,0,0,0,-1,1259,1191,0,0
42,-167,0,0,0,0,0,0,0,0,0,-1,1266,1191,0,0
49,-167,0,0,0,0,0,0,0,0,0,-1,1273,1191,0,0
56,-167,0,0,0,0,0,0,0,0,0,-1,1280,1191,0,0
63,-167,0,0,0,0,0,0,0,0,0,-1,1287,1191,0,0
70,-167,0,0,0,0,0,0,0,0,0,-1,1294,1191,0,0
77,-167,0,0,0,0,0,0,0,0,0,-1,1301,1191,0,0
84,-167,0,0,0,0,0,0,0,0,0,-1,1308,1191,0,0
91,-167,0,0,0,0,0,0,0,0,0,-1,1315,1191,0,0
98,-167,0,0,0,0,0,0,0,0,0,-1,1322,1191,0,0
105,-167,0,0,0,0,0,0,0,0,0,-1,1329,1191,0,0
112,-167,0,0,0,0,0,0,0,0,0,-1,1336,1191,0,0
119,-167,0,0,0,0,0,0,0,0,0,-1,1343,1191,0,0
126,-167,0,0,0,0,0,0,0,0,0,-1,1350,1191,0,0
133,-167,0,0,0,0,0,0,0,0,0,-1,1357,1191,0,0
140,-167,0,0,0,0,0,0,0,0,0,-1,1364,1191,0,0
147,-167,0,0,0,0,0,0,0,0,0,-1,1371,1191,0,0
154,-167,0,0,0,0,0,0,0,0,0,-1,1378,1191,0,0
161,-167,0,0,0,0,0,0,0,0,0,-1,1385,1191,0,0
168,-167,0,0,0,0,0,0,0,0,0,-1,1392,1191,0,0
175,-167,0,0,0,0,0,0,0,0,0,-1,1399,1191,0,0
182,-167,0,0,0,0,0,0,0,0,0,-1,1406,1191,0,0
189,-167,0,0,0,0,0,0,0,0,0,-1,1413,1191,0,0
196,-167,0,0,0,0,0,0,0,0,0,-1,1420,1191,0,0
203,-167,0,0,0,0,0,0,0,0,0,-1,1427,1191,0,0
210,-167,0,0,0,0,0,0,0,0,0,-1,1434,1191,0,0
217,-167,0,0,0,0,0,0,0,0,0,-1,1441,1191,0,0
224,-167,0,0,0,0,0,0,0,0,0,-1,1448,1191,0,0
231,-167,0,0,0,0,0,0,0,0,0,-1,1455,1191,0,0
238,-167,0,0,0,0,0,0,0,0,0,-1,1462,1191,0,0
245,-167,0,0,0,0,0,0,0,0,0,-1,1469,1191,0,0
252,-167,0,0,0,0,0,0,0,0,0,-1,1476,1191,0,0
259,-167,0,0,0,0,0,0,0,0,0,-1,1483,1191,0,0
266,-167,0,0,0,0,0,0,0,0,0,-1,1490,1191,0,0
273,-167,0,0,0,0,0,0,0,0,0,-1,1497,1191,0,0
280,-167,0,0,0,0,0,0,0,0,0,-1,1504,1191,0,0
287,-167,0,0,0,0,0,0,0,0,0,-1,1511,1191,0,0
294,-167,0,0,0,0,0,0,0,0,0,-1,1518,1191,0,0
301,-167,0,0,0,0,0,0,0,0,0,-1,1525,1191,0,0
308,-167,0,0,0,0,0,0,0,0,0,-1,1532,1191,0,0
315,-167,0,0,0,0,0,0,0,0,0,-1,1539,1191,0,0
322,-167,0,0,0,0,0,0,0,0,0,-1,1546,1191,0,0
329,-167,0,0,0,0,0,0,0,0,0,-1,1553,1191,0,0
336,-167,0,0,0,0,0,0,0,0,0,-1,1560,1191,0,0
343,-167,0,0,0,0,0,0,0,0,0,-1,1567,1191,0,0
350,-167,0,0,0,0,0,0,0,0,0,-1,1574,1191,0,0
357,-167,0,0,0,0,0,0,0,0,0,-1,1581,1191,0,0
364,-167,0,0,0,0,0,0,0,0,0,-1,1588,1191,0,0
371,-167,0,0,0,0,0,0,0,0,0,-1,1595,1191,0,0
378,-167,0,0,0,0,0,0,0,0,0,-1,1602,1191,0,0
385,-167,0,0,0,0,0,0,0,0,0,-1,1609,1191,0,0
392,-167,0,0,0,0,0,0,0,0,0,-1,1616,1191,0,0
399,-167,0,0,0,0,0,0,0,0,0,-1,1623,1191,0,0
406,-167,0,0,0,0,0,0,0,0,0,-1,1630,1191,0,0
413,-167,0,0,0,0,0,0,0,0,0,-1,1637,1191,0,0
420,-167,0,0,0,0,0,0,0,0,0,-1,1644,1191,0,0
427,-167,0,0,0,0,0,0,0,0,0,-1,1651,1191,0,0
434,-167,0,0,0,0,0,0,0,0,0,-1,1658,1191,0,0
441,-167,0,0,0,0,0,0,0,0,0,-1,1665,1191,0,0
448,-167,0,0,0,0,0,0,0,0,0,-1,1672,1191,0,0
455,-167,0,0,0,0,0,0,0,0,0,-1,1679,1191,0,0
462,-167,0,0,0,0,0,0,0,0,0,-1,1686,1191,0,0
469,-167,0,0,0,0,0,0,0,0,0,-1,1693,1191,0,0
476,-167,0,0,0,0,0,0,0,0,0,-1,1700,1191,0,0
483,-167,0,0,0,0,0,0,0,0,0,-1,1707,1191,0,0
490,-167,0,0,0,0,0,0,0,0,0,-1,1714,1191,0,0
497,-167,0,0,0,0,0,0,0,0,0,-1,1721,1191,0,0
504,-167,0,0,0,0,0,0,0,0,0,-1,1728,1191,0,0
511,-167,0,0,0,0,0,0,0,0,0,-1,1735,1191,0,0
518,-167,0,0,0,0,0,0,0,0,0,-1,1742,1191,0,0
525,-167,0,0,0,0,0,0,0,0,0,-1,1749,1191,0,0
532,-167,0,0,0,0,0,0,0,0,0,-1,1756,1191,0,0
539,-167,0,0,0,0,0,0,0,0,0,-1,1763,1191,0,0
546,-167,0,0,0,0,0,0,0,0,0,-1,1770,1191,0,0
553,-167,0,0,0,0,0,0,0,0,0,-1,1777,1191,0,0
560,-167,0,0,0,0,0,0,0,0,0,-1,1784,1191,0,0
567,-167,0,0,0,0,0,0,0,0,0,-1,1791,1191,0,0
574,-167,0,0,0,0,0,0,0,0,0,-1,1798,1191,0,0
581,-167,0,0,0,0,0,0,0,0,0,-1,1805,1191,0,0
588,-167,0,0,0,0,0,0,0,0,0,-1,1812,1191,0,0
595,-167,0,0,0,0,0,0,0,0,0,-1,1819,1191,0,0
602,-167,0,0,0,0,0,0,0,0,0,-1,1826,1191,0,0
609,-167,0,0,0,0,0,0,0,0,0,-1,1833,1191,0,0
616,-167,0,0,0,0,0,0,0,0,0,-1,1840,1191,0,0
623,-167,0,0,0,0,0,0,0,0,0,-1,1847,1191,0,0
630,-167,0,0,0,0,0,0,0,0,0,-1,1854,1191,0,0
637,-167,80.5787,2.06262,0.000240376,-0.00191595,0.002167,0.00158261,-0.00325818,0.554561,0.0028501,0.0450101,1861,1191,80.5787,-2.06266
644,-167,80.5559,2.03516,0.000120447,-0.00102519,0.00138781,0.00104901,-0.00195375,0.589673,0.00175968,0.0427361,1868,1191,80.5559,-2.03512
651,-167,80.3693,2.0791,0.00024411,-0.000231656,0.00050355,0.000563139,-0.000550685,0.564731,0.00064308,0.0400248,1875,1191,80.3693,-2.07905
658,-167,80.4087,2.21094,0.000478966,0.000474484,-0.000374717,0.000851449,0.000102001,-0.782408,0.000536872,0.0405321,1882,1191,80.4087,-2.21098
665,-167,80.6044,2.27722,0.000694043,0.00119855,-0.00103683,0.00201337,-0.000120774,-0.904728,0.00138426,0.038626,1889,1191,80.6043,-2.27721
672,-167,80.589,2.19751,0.000935322,0.00207639,-0.00149171,0.00310295,-9.12332e-05,-0.968051,0.0020997,0.02821,1896,1191,80.589,-2.19747
679,-167,80.5328,2.14099,0.00118646,0.00242838,-0.00160484,0.0035282,8.66358e-05,-0.969992,0.00232379,0.0217484,1903,1191,80.5328,-2.14094
686,-167,80.5515,2.05164,0.00178169,0.00267163,-0.00154368,0.00383319,0.000620129,-0.925722,0.00237588,0.0420979,1910,1191,80.5515,-2.0516
693,-167,80.5341,1.97522,0,0,0,0,0,0,0,-1,1917,1191,80.5341,-1.97526
700,-167,28.0459,2.70508,0,0,0,0,0,0,0,-1,1924,1191,28.0459,-2.70513
707,-167,29.4708,7.10168,0,0,0,0,0,0,0,-1,1931,1191,29.4708,-7.10172
714,-167,35.9202,6.84668,0,0,0,0,0,0,0,-1,1938,1191,35.9202,-6.84664
721,-167,36.2072,6.38892,0,0,0,0,0,0,0,-1,1945,1191,36.2072,-6.38891
728,-167,63.7198,9.84265,0,0,0,0,0,0,0,-1,1952,1191,63.7199,-9.8427
735,-167,67.8354,9.49805,0,0,0,0,0,0,0,-1,1959,1191,67.8355,-9.49801
742,-167,67.7769,8.72974,0.0021824,0.00227974,0.00117373,0.00340581,0.00105633,0.806119,0.00201304,0.0184384,1966,1191,67.7768,-8.72969
749,-167,67.751,7.95837,0.00175961,0.00332798,0.000733736,0.00361772,0.00146987,1.19471,0.00210088,0.0161912,1973,1191,67.751,-7.95836
756,-167,67.7379,7.24365,0.0020423,0.00614323,-0.00104985,0.00639637,0.00178916,-1.33419,0.00381054,0.0118492,1980,1191,67.7379,-7.2436
763,-167,67.6523,6.51367,0.00308508,0.0102451,-0.00403224,0.0120573,0.00127293,-1.14843,0.00764925,0.0147864,1987,1191,67.6524,-6.51371
770,-167,67.5601,5.78186,0,0,0,0,0,0,0,-1,1994,1191,67.5601,-5.78186
777,-167,67.4731,4.88318,0,0,0,0,0,0,0,-1,2001,1191,67.4732,-4.88315
784,-167,69.0278,2.47791,0,0,0,0,0,0,0,-1,2008,1191,69.0277,-2.47786
791,-167,69.4055,2.75342,0,0,0,0,0,0,0,-1,2015,1191,69.4056,-2.7534
798,-167,69.3672,1.19922,0,0,0,0,0,0,0,-1,2022,1191,69.3672,-1.19919
805,-167,68.6003,1.69983,0,0,0,0,0,0,0,-1,2029,1191,68.6002,-1.69989
812,-167,0,0,0,0,0,0,0,0,0,-1,2036,1191,0,0
-700,-174,0,0,0,0,0,0,0,0,0,-1,524,1198,0,0
-693,-174,0,0,0,0,0,0,0,0,0,-1,531,1198,0,0
-686,-174,-54.3354,3.32715,-0.00224041,0.142854,-0.000875461,0.142859,-0.00224569,-1.56476,0.0959968,0.047751,538,1198,-54.3355,-3.32712
-679,-174,-54.3047,4.02368,-0.004988,0.130225,-0.00152748,0.130242,-0.00500525,-1.5595,0.0885436,0.0447872,545,1198,-54.3047,-4.02374
-672,-174,-54.533,4.802,0,0,0,0,0,0,0,-1,552,1198,-54.533,-4.80204
-665,-174,-54.3589,5.6748,0,0,0,0,0,0,0,-1,559,1198,-54.3589,-5.67477
-658,-174,-53.6221,6.91614,0,0,0,0,0,0,0,-1,566,1198,-53.6222,-6.91617
-651,-174,-50.085,3.78296,0,0,0,0,0,0,0,-1,573,1198,-50.085,-3.78293
-644,-174,-50.118,4.49414,-0.00746048,0.0490448,-0.0014633,0.0490827,-0.00749835,-1.54492,0.0354863,0.048601,580,1198,-50.1181,-4.49409
-637,-174,-50.1984,5.2334,-0.00707561,0.0339608,-0.0016961,0.0340308,-0.00714559,-1.52956,0.0254062,0.0292352,587,1198,-50.1984,-5.23346
-630,-174,-50.3776,5.98816,-0.00679223,0.0208417,-0.00206323,0.0209948,-0.00694543,-1.49668,0.0167974,0.0145287,594,1198,-50.3776,-5.98815
-623,-174,-50.4176,6.78308,-0.00607376,0.00862141,-0.00228187,0.00896758,-0.00641994,-1.42024,0.00892449,0.0155006,601,1198,-50.4176,-6.78314
-616,-174,-50.4245,7.59741,-0.00548564,0.000610351,-0.00205322,0.00123741,-0.0061127,-1.27439,0.00454411,0.0209556,608,1198,-50.4245,-7.59743
-609,-174,-50.5269,8.35864,-0.00522642,-0.00215595,-0.00191494,-0.00123681,-0.00614556,-1.12329,0.00375332,0.0232257,615,1198,-50.5269,-8.35864
-602,-174,-50.6479,9.08569,0,0,0,0,0,0,0,-1,622,1198,-50.6479,-9.08574
-595,-174,-48.6967,9.0376,0,0,0,0,0,0,0,-1,629,1198,-48.6967,-9.03761
-588,-174,-50.7786,10.7983,0,0,0,0,0,0,0,-1,636,1198,-50.7786,-10.7984
-581,-174,-51.1051,11.6198,0,0,0,0,0,0,0,-1,643,1198,-51.1051,-11.6197
-574,-174,-31.7448,7.09595,0,0,0,0,0,0,0,-1,650,1198,-31.7448,-7.09599
-567,-174,-26.6597,3.04041,0,0,0,0,0,0,0,-1,657,1198,-26.6597,-3.04039
-560,-174,-42.6953,1.07178,0,0,0,0,0,0,0,-1,664,1198,-42.6953,-1.07181
-553,-174,-63.378,0.304565,0,0,0,0,0,0,0,-1,671,1198,-63.378,-0.304542
-546,-174,-63.3722,0.328979,0.000261871,-0.00117713,-0.00354795,0.00316254,-0.0040778,-0.685358,0.00419133,0.0363641,678,1198,-63.3722,-0.328937
-539,-174,-63.2634,0.340332,0.0014636,-0.000751728,-0.00354569,0.00407062,-0.00335875,-0.634003,0.0042959,0.034752,685,1198,-63.2634,-0.34032
-532,-174,-63.0523,0.38501,0.00226802,-0.000167966,-0.00237266,0.00371705,-0.001617,-0.548265,0.00315817,0.0431108,692,1198,-63.0523,-0.385065
-525,-174,-63.0949,0.373901,0.00110295,0.000215465,-0.000258895,0.00117295,0.000145462,-0.264076,0.000738273,0.043985,699,1198,-63.0949,-0.373865
-518,-174,-63.1675,0.315674,-0.000966453,0.000595785,0.00194542,0.00191104,-0.00228171,0.976305,0.00242384,0.0437358,706,1198,-63.1675,-0.31562
-511,-174,0,0,0,0,0,0,0,0,0,-1,713,1198,0,0
-504,-174,0,0,0,0,0,0,0,0,0,-1,720,1198,0,0
-497,-174,0,0,0,0,0,0,0,0,0,-1,727,1198,0,0
-490,-174,0,0,0,0,0,0,0,0,0,-1,734,1198,0,0
-483,-174,0,0,0,0,0,0,0,0,0,-1,741,1198,0,0
-476,-174,0,0,0,0,0,0,0,0,0,-1,748,1198,0,0
-469,-174,0,0,0,0,0,0,0,0,0,-1,755,1198,0,0
-462,-174,0,0,0,0,0,0,0,0,0,-1,762,1198,0,0
-455,-174,0,0,0,0,0,0,0,0,0,-1,769,1198,0,0
-448,-174,0,0,0,0,0,0,0,0,0,-1,776,1198,0,0
-441,-174,0,0,0,0,0,0,0,0,0,-1,783,1198,0,0
-434,-174,0,0,0,0,0,0,0,0,0,-1,790,1198,0,0
-427,-174,0,0,0,0,0,0,0,0,0,-1,797,1198,0,0
-420,-174,0,0,0,0,0,0,0,0,0,-1,804,1198,0,0
-413,-174,0,0,0,0,0,0,0,0,0,-1,811,1198,0,0
-406,-174,0,0,0,0,0,0,0,0,0,-1,818,1198,0,0
-399,-174,0,0,0,0,0,0,0,0,0,-1,825,1198,0,0
-392,-174,0,0,0,0,0,0,0,0,0,-1,832,1198,0,0
-385,-174,0,0,0,0,0,0,0,0,0,-1,839,1198,0,0
-378,-174,0,0,0,0,0,0,0,0,0,-1,846,1198,0,0
-371,-174,0,0,0,0,0,0,0,0,0,-1,853,1198,0,0
-364,-174,0,0,0,0,0,0,0,0,0,-1,860,1198,0,0
-357,-174,0,0,0,0,0,0,0,0,0,-1,867,1198,0,0
-350,-174,0,0,0,0,0,0,0,0,0,-1,874,1198,0,0
-343,-174,0,0,0,0,0,0,0,0,0,-1,881,1198,0,0
-336,-174,0,0,0,0,0,0,0,0,0,-1,888,1198,0,0
-329,-174,0,0,0,0,0,0,0,0,0,-1,895,1198,0,0
-322,-174,0,0,0,0,0,0,0,0,0,-1,902,1198,0,0
-315,-174,0,0,0,0,0,0,0,0,0,-1,909,1198,0,0
-308,-174,0,0,0,0,0,0,0,0,0,-1,916,1198,0,0
-301,-174,0,0,0,0,0,0,0,0,0,-1,923,1198,0,0
-294,-174,0,0,0,0,0,0,0,0,0,-1,930,1198,0,0
-287,-174,0,0,0,0,0,0,0,0,0,-1,937,1198,0,0
-280,-174,0,0,0,0,0,0,0,0,0,-1,944,1198,0,0
-273,-174,0,0,0,0,0,0,0,0,0,-1,951,1198,0,0
-266,-174,0,0,0,0,0,0,0,0,0,-1,958,1198,0,0
-259,-174,0,0,0,0,0,0,0,0,0,-1,965,1198,0,0
-252,-174,0,0,0,0,0,0,0,0,0,-1,972,1198,0,0
-245,-174,0,0,0,0,0,0,0,0,0,-1,979,1198,0,0
-238,-174,0,0,0,0,0,0,0,0,0,-1,986,1198,0,0
-231,-174,0,0,0,0,0,0,0,0,0,-1,993,1198,0,0
-224,-174,0,0,0,0,0,0,0,0,0,-1,1000,1198,0,0
-217,-174,0,0,0,0,0,0,0,0,0,-1,1007,1198,0,0
-210,-174,0,0,0,0,0,0,0,0,0,-1,1014,1198,0,0
-203,-174,0,0,0,0,0,0,0,0,0,-1,1021,1198,0,0
-196,-174,0,0,0,0,0,0,0,0,0,-1,1028,1198,0,0
-189,-174,0,0,0,0,0,0,0,0,0,-1,1035,1198,0,0
-182,-174,0,0,0,0,0,0,0,0,0,-1,1042,1198,0,0
-175,-174,0,0,0,0,0,0,0,0,0,-1,1049,1198,0,0
-168,-174,0,0,0,0,0,0,0,0,0,-1,1056,1198,0,0
-161,-174,0,0,0,0,0,0,0,0,0,-1,1063,1198,0,0
-154,-174,0,0,0,0,0,0,0,0,0,-1,1070,1198,0,0
-147,-174,0,0,0,0,0,0,0,0,0,-1,1077,1198,0,0
-140,-174,0,0,0,0,0,0,0,0,0,-1,1084,1198,0,0
-133,-174,0,0,0,0,0,0,0,0,0,-1,1091,1198,0,0
-126,-174,0,0,0,0,0,0,0,0,0,-1,1098,1198,0,0
-119,-174,0,0,0,0,0,0,0,0,0,-1,1105,1198,0,0
-112,-174,0,0,0,0,0,0,0,0,0,-1,1112,1198,0,0
-105,-174,0,0,0,0,0,0,0,0,0,-1,1119,1198,0,0
-98,-174,0,0,0,0,0,0,0,0,0,-1,1126,1198,0,0
-91,-174,0,0,0,0,0,0,0,0,0,-1,1133,1198,0,0
-84,-174,0,0,0,0,0,0,0,0,0,-1,1140,1198,0,0
-77,-174,0,0,0,0,0,0,0,0,0,-1,1147,1198,0,0
-70,-174,0,0,0,0,0,0,0,0,0,-1,1154,1198,0,0
-63,-174,0,0,0,0,0,0,0,0,0,-1,1161,1198,0,0
-56,-174,0,0,0,0,0,0,0,0,0,-1,1168,1198,0,0
-49,-174,0,0,0,0,0,0,0,0,0,-1,1175,1198,0,0
-42,-174,0,0,0,0,0,0,0,0,0,-1,1182,1198,0,0
-35,-174,0,0,0,0,0,0,0,0,0,-1,1189,1198,0,0
-28,-174,0,0,0,0,0,0,0,0,0,-1,1196,1198,0,0
-21,-174,0,0,0,0,0,0,0,0,0,-1,1203,1198,0,0
-14,-174,0,0,0,0,0,0,0,0,0,-1,1210,1198,0,0
-7,-174,0,0,0,0,0,0,0,0,0,-1,1217,1198,0,0
0,-174,0,0,0,0,0,0,0,0,0,-1,1224,1198,0,0
7,-174,0,0,0,0,0,0,0,0,0,-1,1231,1198,0,0
14,-174,0,0,0,0,0,0,0,0,0,-1,1238,1198,0,0
21,-174,0,0,0,0,0,0,0,0,0,-1,1245,1198,0,0
28,-174,0,0,0,0,0,0,0,0,0,-1,1252,1198,0,0
35,-174,0,0,0,0,0,0,0,0,0,-1,1259,1198,0,0
42,-174,0,0,0,0,0,0,0,0,0,-1,1266,1198,0,0
49,-174,0,0,0,0,0,0,0,0,0,-1,1273,1198,0,0
56,-174,0,0,0,0,0,0,0,0,0,-1,1280,1198,0,0
63,-174,0,0,0,0,0,0,0,0,0,-1,1287,1198,0,0
70,-174,0,0,0,0,0,0,0,0,0,-1,1294,1198,0,0
77,-174,0,0,0,0,0,0,0,0,0,-1,1301,1198,0,0
84,-174,0,0,0,0,0,0,0,0,0,-1,1308,1198,0,0
91,-174,0,0,0,0,0,0,0,0,0,-1,1315,1198,0,0
98,-174,0,0,0,0,0,0,0,0,0,-1,1322,1198,0,0
105,-174,0,0,0,0,0,0,0,0,0,-1,1329,1198,0,0
112,-174,0,0,0,0,0,0,0,0,0,-1,1336,1198,0,0
119,-174,0,0,0,0,0,0,0,0,0,-1,1343,1198,0,0
126,-174,0,0,0,0,0,0,0,0,0,-1,1350,1198,0,0
133,-174,0,0,0,0,0,0,0,0,0,-1,1357,1198,0,0
140,-174,0,0,0,0,0,0,0,0,0,-1,1364,1198,0,0
147,-174,0,0,0,0,0,0,0,0,0,-1,1371,1198,0,0
154,-174,0,0,0,0,0,0,0,0,0,-1,1378,1198,0,0
161,-174,0,0,0,0,0,0,0,0,0,-1,1385,1198,0,0
168,-174,0,0,0,0,0,0,0,0,0,-1,1392,1198,0,0
175,-174,0,0,0,0,0,0,0,0,0,-1,1399,1198,0,0
182,-174,0,0,0,0,0,0,0,0,0,-1,1406,1198,0,0
189,-174,0,0,0,0,0,0,0,0,0,-1,1413,1198,0,0
196,-174,0,0,0,0,0,0,0,0,0,-1,1420,1198,0,0
203,-174,0,0,0,0,0,0,0,0,0,-1,1427,1198,0,0
210,-174,0,0,0,0,0,0,0,0,0,-1,1434,1198,0,0
217,-174,0,0,0,0,0,0,0,0,0,-1,1441,1198,0,0
224,-174,0,0,0,0,0,0,0,0,0,-1,1448,1198,0,0
231,-174,0,0,0,0,0,0,0,0,0,-1,1455,1198,0,0
238,-174,0,0,0,0,0,0,0,0,0,-1,1462,1198,0,0
245,-174,0,0,0,0,0,0,0,0,0,-1,1469,1198,0,0
252,-174,0,0,0,0,0,0,0,0,0,-1,1476,1198,0,0
259,-174,0,0,0,0,0,0,0,0,0,-1,1483,1198,0,0
266,-174,0,0,0,0,0,0,0,0,0,-1,1490,1198,0,0
273,-174,0,0,0,0,0,0,0,0,0,-1,1497,1198,0,0
280,-174,0,0,0,0,0,0,0,0,0,-1,1504,1198,0,0
287,-174,0,0,0,0,0,0,0,0,0,-1,1511,1198,0,0
294,-174,0,0,0,0,0,0,0,0,0,-1,1518,1198,0,0
301,-174,0,0,0,0,0,0,0,0,0,-1,1525,1198,0,0
308,-174,0,0,0,0,0,0,0,0,0,-1,1532,1198,0,0
315,-174,0,0,0,0,0,0,0,0,0,-1,1539,1198,0,0
322,-174,0,0,0,0,0,0,0,0,0,-1,1546,1198,0,0
329,-174,0,0,0,0,0,0,0,0,0,-1,1553,1198,0,0
336,-174,0,0,0,0,0,0,0,0,0,-1,1560,1198,0,0
343,-174,0,0,0,0,0,0,0,0,0,-1,1567,1198,0,0
350,-174,0,0,0,0,0,0,0,0,0,-1,1574,1198,0,0
357,-174,0,0,0,0,0,0,0,0,0,-1,1581,1198,0,0
364,-174,0,0,0,0,0,0,0,0,0,-1,1588,1198,0,0
371,-174,0,0,0,0,0,0,0,0,0,-1,1595,1198,0,0
378,-174,0,0,0,0,0,0,0,0,0,-1,1602,1198,0,0
385,-174,0,0,0,0,0,0,0,0,0,-1,1609,1198,0,0
392,-174,0,0,0,0,0,0,0,0,0,-1,1616,1198,0,0
399,-174,0,0,0,0,0,0,0,0,0,-1,1623,1198,0,0
406,-174,0,0,0,0,0,0,0,0,0,-1,1630,1198,0,0
413,-174,0,0,0,0,0,0,0,0,0,-1,1637,1198,0,0
420,-174,0,0,0,0,0,0,0,0,0,-1,1644,1198,0,0
427,-174,0,0,0,0,0,0,0,0,0,-1,1651,1198,0,0
434,-174,0,0,0,0,0,0,0,0,0,-1,1658,1198,0,0
441,-174,0,0,0,0,0,0,0,0,0,-1,1665,1198,0,0
448,-174,0,0,0,0,0,0,0,0,0,-1,1672,1198,0,0
455,-174,0,0,0,0,0,0,0,0,0,-1,1679,1198,0,0
462,-174,0,0,0,0,0,0,0,0,0,-1,1686,1198,0,0
469,-174,0,0,0,0,0,0,0,0,0,-1,1693,1198,0,0
476,-174,0,0,0,0,0,0,0,0,0,-1,1700,1198,0,0
483,-174,0,0,0,0,0,0,0,0,0,-1,1707,1198,0,0
490,-174,0,0,0,0,0,0,0,0,0,-1,1714,1198,0,0
497,-174,0,0,0,0,0,0,0,0,0,-1,1721,1198,0,0
504,-174,0,0,0,0,0,0,0,0,0,-1,1728,1198,0,0
511,-174,0,0,0,0,0,0,0,0,0,-1,1735,1198,0,0
518,-174,0,0,0,0,0,0,0,0,0,-1,1742,1198,0,0
525,-174,0,0,0,0,0,0,0,0,0,-1,1749,1198,0,0
532,-174,0,0,0,0,0,0,0,0,0,-1,1756,1198,0,0
539,-174,0,0,0,0,0,0,0,0,0,-1,1763,1198,0,0
546,-174,0,0,0,0,0,0,0,0,0,-1,1770,1198,0,0
553,-174,0,0,0,0,0,0,0,0,0,-1,1777,1198,0,0
560,-174,0,0,0,0,0,0,0,0,0,-1,1784,1198,0,0
567,-174,0,0,0,0,0,0,0,0,0,-1,1791,1198,0,0
574,-174,0,0,0,0,0,0,0,0,0,-1,1798,1198,0,0
581,-174,0,0,0,0,0,0,0,0,0,-1,1805,1198,0,0
588,-174,0,0,0,0,0,0,0,0,0,-1,1812,1198,0,0
595,-174,0,0,0,0,0,0,0,0,0,-1,1819,1198,0,0
602,-174,0,0,0,0,0,0,0,0,0,-1,1826,1198,0,0
609,-174,0,0,0,0,0,0,0,0,0,-1,1833,1198,0,0
616,-174,0,0,0,0,0,0,0,0,0,-1,1840,1198,0,0
623,-174,0,0,0,0,0,0,0,0,0,-1,1847,1198,0,0
630,-174,0,0,0,0,0,0,0,0,0,-1,1854,1198,0,0
637,-174,80.3892,2.1626,0.000448134,-0.00186174,0.00114136,0.000916952,-0.00233056,0.389743,0.00193325,0.0417557,1861,1198,80.3892,-2.16259
644,-174,80.4557,2.18555,0.000406139,-0.000797433,0.00058525,0.000643796,-0.00103509,0.385734,0.000978041,0.0403448,1868,1198,80.4557,-2.18553
651,-174,80.41,2.224,0.000603266,0.000133293,-0.000154307,0.000649401,8.71581e-05,-0.290523,0.000407004,0.0389228,1875,1198,80.4101,-2.22399
658,-174,80.3313,2.34387,0.000851705,0.000936303,-0.000875181,0.00177021,1.78014e-05,-0.809545,0.00117425,0.0380674,1882,1198,80.3313,-2.34393
665,-174,80.4883,2.28845,0.000951022,0.00171058,-0.00130932,0.00269409,-3.24806e-05,-0.926555,0.00180698,0.034624,1889,1198,80.4883,-2.28846
672,-174,80.5006,2.125,0.00100468,0.00260926,-0.00152003,0.00352574,8.82004e-05,-1.02822,0.00232165,0.0271146,1896,1198,80.5006,-2.12501
679,-174,80.5244,2.09412,0.00104296,0.00294638,-0.00149474,0.00376668,0.000222665,-1.06888,0.00244028,0.0261133,1903,1198,80.5244,-2.09416
686,-174,80.6412,2.05652,0,0,0,0,0,0,0,-1,1910,1198,80.6412,-2.05656
693,-174,51.1324,2.57349,0,0,0,0,0,0,0,-1,1917,1198,51.1325,-2.57343
700,-174,25.4004,6.11792,0,0,0,0,0,0,0,-1,1924,1198,25.4004,-6.11797
707,-174,34.7908,7.34473,0,0,0,0,0,0,0,-1,1931,1198,34.7908,-7.34475
714,-174,40.1135,7.79871,0,0,0,0,0,0,0,-1,1938,1198,40.1135,-7.79875
721,-174,40.8693,7.59863,0,0,0,0,0,0,0,-1,1945,1198,40.8693,-7.59859
728,-174,66.7374,10.2859,0,0,0,0,0,0,0,-1,1952,1198,66.7375,-10.2859
735,-174,66.9045,9.58289,0.00208658,0.00287725,0.000763314,0.00334153,0.0016223,1.02434,0.0019295,0.0293842,1959,1198,66.9045,-9.58292
742,-174,67.0236,8.7616,0.00194747,0.00271465,0.00105504,0.00345366,0.00120845,0.959759,0.0020237,0.0228108,1966,1198,67.0236,-8.76158
749,-174,67.0038,8.01636,0.00178463,0.00377283,0.000473074,0.00387965,0.0016778,1.34871,0.00224672,0.0201779,1973,1198,67.0038,-8.0163
756,-174,66.9608,7.27563,0.00224762,0.00635767,-0.00124216,0.00670392,0.00190137,-1.29895,0.00398949,0.0115026,1980,1198,66.9608,-7.27565
763,-174,66.9119,6.55115,0.00338492,0.0102967,-0.00412714,0.0122238,0.00145783,-1.13395,0.00770932,0.0179444,1987,1198,66.9118,-6.5512
770,-174,66.9099,5.76599,0,0,0,0,0,0,0,-1,1994,1198,66.91,-5.76598
777,-174,72.7517,-3.92542,0,0,0,0,0,0,0,-1,2001,1198,72.7517,3.92536
784,-174,72.8079,-3.6228,0,0,0,0,0,0,0,-1,2008,1198,72.8078,3.62276
791,-174,69.3472,2.32153,0,0,0,0,0,0,0,-1,2015,1198,69.3471,-2.32154
798,-174,66.0049,3.41138,0,0,0,0,0,0,0,-1,2022,1198,66.005,-3.41138
805,-174,67.0996,2.96021,0,0,0,0,0,0,0,-1,2029,1198,67.0996,-2.96025
812,-174,0,0,0,0,0,0,0,0,0,-1,2036,1198,0,0
-700,-181,0,0,0,0,0,0,0,0,0,-1,524,1205,0,0
-693,-181,0,0,0,0,0,0,0,0,0,-1,531,1205,0,0
-686,-181,-53.0796,2.70642,-0.000509532,0.145798,-0.0221859,0.149088,-0.00379979,-1.42357,0.100683,0.0474792,538,1205,-53.0796,-2.70645
-679,-181,-53.0724,3.26868,-0.00299781,0.134458,-0.0176748,0.136695,-0.00523415,-1.44494,0.0929236,0.0467885,545,1205,-53.0724,-3.26873
-672,-181,-53.1385,3.94397,-0.00432937,0.118699,-0.0131116,0.120081,-0.00571118,-1.46579,0.0820242,0.0455907,552,1205,-53.1385,-3.94393
-665,-181,-53.0972,4.69678,-0.00487881,0.102204,-0.00911664,0.102974,-0.00564943,-1.48647,0.0706081,0.0443325,559,1205,-53.0972,-4.69672
-658,-181,-53.1593,5.4906,-0.00524499,0.0859023,-0.00667287,0.0863882,-0.00573092,-1.4981,0.0595944,0.0442341,566,1205,-53.1593,-5.49066
-651,-181,-53.3136,6.21179,0,0,0,0,0,0,0,-1,573,1205,-53.3136,-6.21183
-644,-181,-49.3168,4.38342,0,0,0,0,0,0,0,-1,580,1205,-49.3167,-4.38344
-637,-181,-49.3923,5.2854,-0.00565403,0.0379,-0.00324554,0.0381405,-0.00589455,-1.49682,0.0276025,0.0304074,587,1205,-49.3924,-5.28542
-630,-181,-49.5952,6.02258,-0.00562723,0.0242353,-0.00287856,0.0245102,-0.00590217,-1.47557,0.018622,0.0153048,594,1205,-49.5951,-6.02258
-623,-181,-49.6511,6.83142,-0.00533636,0.0111666,-0.0025591,0.0115543,-0.00572409,-1.42043,0.0101632,0.0160032,601,1205,-49.6511,-6.83143
-616,-181,-49.6574,7.646,-0.0049731,0.00215704,-0.00204795,0.0027034,-0.00551945,-1.31009,0.00483938,0.0153645,608,1205,-49.6574,-7.64595
-609,-181,-49.7158,8.44446,-0.00481588,-0.00154803,-0.00158165,-0.000907901,-0.00545601,-1.18622,0.00337565,0.0142661,615,1205,-49.7158,-8.4445
-602,-181,-49.6833,9.27576,-0.00532369,-0.00189459,-0.00177115,-0.00114405,-0.00607423,-1.16998,0.00372713,0.0341474,622,1205,-49.6833,-9.27572
-595,-181,-49.3519,10.1348,0,0,0,0,0,0,0,-1,629,1205,-49.352,-10.1348
-588,-181,-50.0011,10.821,-0.00293178,-0.000839903,-0.00309176,0.00137804,-0.00514973,-0.948505,0.00397298,0.0380933,636,1205,-50.0011,-10.821
-581,-181,-50.2697,11.5571,-0.00167002,-0.000772059,-0.00317807,0.00198859,-0.00443067,-0.855571,0.00379451,0.0493098,643,1205,-50.2696,-11.5571
-574,-181,-49.6119,12.3185,0,0,0,0,0,0,0,-1,650,1205,-49.6119,-12.3185
-567,-181,-25.8839,3.34485,0,0,0,0,0,0,0,-1,657,1205,-25.8839,-3.3449
-560,-181,-31.7396,1.63306,0,0,0,0,0,0,0,-1,664,1205,-31.7396,-1.63303
-553,-181,-57.8761,0.527832,0,0,0,0,0,0,0,-1,671,1205,-57.8761,-0.527787
-546,-181,-63.3862,0.380859,0,0,0,0,0,0,0,-1,678,1205,-63.3863,-0.380804
-539,-181,-63.4474,0.419312,0.000868144,-0.000978428,-0.00360442,0.00366565,-0.00377593,-0.660017,0.00429655,0.037187,685,1205,-63.4474,-0.419335
-532,-181,-63.3475,0.377197,0.00204824,-0.000489635,-0.00276936,0.00382554,-0.00226694,-0.57057,0.00355565,0.0412952,692,1205,-63.3475,-0.377164
-525,-181,-63.3147,0.234863,0.00153636,-0.000434629,-0.000362909,0.00160106,-0.000499327,-0.17642,0.00126705,0.0403011,699,1205,-63.3147,-0.234897
-518,-181,-63.2498,0.302979,-0.000169486,-0.000339151,0.00223102,0.00197831,-0.00248695,0.766395,0.00258358,0.0402729,706,1205,-63.2498,-0.30298
-511,-181,0,0,0,0,0,0,0,0,0,-1,713,1205,0,0
-504,-181,0,0,0,0,0,0,0,0,0,-1,720,1205,0,0
-497,-181,0,0,0,0,0,0,0,0,0,-1,727,1205,0,0
-490,-181,0,0,0,0,0,0,0,0,0,-1,734,1205,0,0
-483,-181,0,0,0,0,0,0,0,0,0,-1,741,1205,0,0
-476,-181,0,0,0,0,0,0,0,0,0,-1,748,1205,0,0
-469,-181,0,0,0,0,0,0,0,0,0,-1,755,1205,0,0
-462,-181,0,0,0,0,0,0,0,0,0,-1,762,1205,0,0
-455,-181,0,0,0,0,0,0,0,0,0,-1,769,1205,0,0
-448,-181,0,0,0,0,0,0,0,0,0,-1,776,1205,0,0
-441,-181,0,0,0,0,0,0,0,0,0,-1,783,1205,0,0
-434,-181,0,0,0,0,0,0,0,0,0,-1,790,1205,0,0
-427,-181,0,0,0,0,0,0,0,0,0,-1,797,1205,0,0
-420,-181,0,0,0,0,0,0,0,0,0,-1,804,1205,0,0
-413,-181,0,0,0,0,0,0,0,0,0,-1,811,1205,0,0
-406,-181,0,0,0,0,0,0,0,0,0,-1,818,1205,0,0
-399,-181,0,0,0,0,0,0,0,0,0,-1,825,1205,0,0
-392,-181,0,0,0,0,0,0,0,0,0,-1,832,1205,0,0
-385,-181,0,0,0,0,0,0,0,0,0,-1,839,1205,0,0
-378,-181,0,0,0,0,0,0,0,0,0,-1,846,1205,0,0
-371,-181,0,0,0,0,0,0,0,0,0,-1,853,1205,0,0
-364,-181,0,0,0,0,0,0,0,0,0,-1,860,1205,0,0
-357,-181,0,0,0,0,0,0,0,0,0,-1,867,1205,0,0
-350,-181,0,0,0,0,0,0,0,0,0,-1,874,1205,0,0
-343,-181,0,0,0,0,0,0,0,0,0,-1,881,1205,0,0
-336,-181,0,0,0,0,0,0,0,0,0,-1,888,1205,0,0
-329,-181,0,0,0,0,0,0,0,0,0,-1,895,1205,0,0
-322,-181,0,0,0,0,0,0,0,0,0,-1,902,1205,0,0
-315,-181,0,0,0,0,0,0,0,0,0,-1,909,1205,0,0
-308,-181,0,0,0,0,0,0,0,0,0,-1,916,1205,0,0
-301,-181,0,0,0,0,0,0,0,0,0,-1,923,1205,0,0
-294,-181,0,0,0,0,0,0,0,0,0,-1,930,1205,0,0
-287,-181,0,0,0,0,0,0,0,0,0,-1,937,1205,0,0
-280,-181,0,0,0,0,0,0,0,0,0,-1,944,1205,0,0
-273,-181,0,0,0,0,0,0,0,0,0,-1,951,1205,0,0
-266,-181,0,0,0,0,0,0,0,0,0,-1,958,1205,0,0
-259,-181,0,0,0,0,0,0,0,0,0,-1,965,1205,0,0
-252,-181,0,0,0,0,0,0,0,0,0,-1,972,1205,0,0
-245,-181,0,0,0,0,0,0,0,0,0,-1,979,1205,0,0
-238,-181,0,0,0,0,0,0,0,0,0,-1,986,1205,0,0
-231,-181,0,0,0,0,0,0,0,0,0,-1,993,1205,0,0
-224,-181,0,0,0,0,0,0,0,0,0,-1,1000,1205,0,0
-217,-181,0,0,0,0,0,0,0,0,0,-1,1007,1205,0,0
-210,-181,0,0,0,0,0,0,0,0,0,-1,1014,1205,0,0
-203,-181,0,0,0,0,0,0,0,0,0,-1,1021,1205,0,0
-196,-181,0,0,0,0,0,0,0,0,0,-1,1028,1205,0,0
-189,-181,0,0,0,0,0,0,0,0,0,-1,1035,1205,0,0
-182,-181,0,0,0,0,0,0,0,0,0,-1,1042,1205,0,0
-175,-181,0,0,0,0,0,0,0,0,0,-1,1049,1205,0,0
-168,-181,0,0,0,0,0,0,0,0,0,-1,1056,1205,0,0
-161,-181,0,0,0,0,0,0,0,0,0,-1,1063,1205,0,0
-154,-181,0,0,0,0,0,0,0,0,0,-1,1070,1205,0,0
-147,-181,0,0,0,0,0,0,0,0,0,-1,1077,1205,0,0
-140,-181,0,0,0,0,0,0,0,0,0,-1,1084,1205,0,0
-133,-181,0,0,0,0,0,0,0,0,0,-1,1091,1205,0,0
-126,-181,0,0,0,0,0,0,0,0,0,-1,1098,1205,0,0
-119,-181,0,0,0,0,0,0,0,0,0,-1,1105,1205,0,0
-112,-181,0,0,0,0,0,0,0,0,0,-1,1112,1205,0,0
-105,-181,0,0,0,0,0,0,0,0,0,-1,1119,1205,0,0
-98,-181,0,0,0,0,0,0,0,0,0,-1,1126,1205,0,0
-91,-181,0,0,0,0,0,0,0,0,0,-1,1133,1205,0,0
-84,-181,0,0,0,0,0,0,0,0,0,-1,1140,1205,0,0
-77,-181,0,0,0,0,0,0,0,0,0,-1,1147,1205,0,0
-70,-181,0,0,0,0,0,0,0,0,0,-1,1154,1205,0,0
-63,-181,0,0,0,0,0,0,0,0,0,-1,1161,1205,0,0
-56,-181,0,0,0,0,0,0,0,0,0,-1,1168,1205,0,0
-49,-181,0,0,0,0,0,0,0,0,0,-1,1175,1205,0,0
-42,-181,0,0,0,0,0,0,0,0,0,-1,1182,1205,0,0
-35,-181,0,0,0,0,0,0,0,0,0,-1,1189,1205,0,0
-28,-181,0,0,0,0,0,0,0,0,0,-1,1196,1205,0,0
-21,-181,0,0,0,0,0,0,0,0,0,-1,1203,1205,0,0
-14,-181,0,0,0,0,0,0,0,0,0,-1,1210,1205,0,0
-7,-181,0,0,0,0,0,0,0,0,0,-1,1217,1205,0,0
0,-181,0,0,0,0,0,0,0,0,0,-1,1224,1205,0,0
7,-181,0,0,0,0,0,0,0,0,0,-1,1231,1205,0,0
14,-181,0,0,0,0,0,0,0,0,0,-1,1238,1205,0,0
21,-181,0,0,0,0,0,0,0,0,0,-1,1245,1205,0,0
28,-181,0,0,0,0,0,0,0,0,0,-1,1252,1205,0,0
35,-181,0,0,0,0,0,0,0,0,0,-1,1259,1205,0,0
42,-181,0,0,0,0,0,0,0,0,0,-1,1266,1205,0,0
49,-181,0,0,0,0,0,0,0,0,0,-1,1273,1205,0,0
56,-181,0,0,0,0,0,0,0,0,0,-1,1280,1205,0,0
63,-181,0,0,0,0,0,0,0,0,0,-1,1287,1205,0,0
70,-181,0,0,0,0,0,0,0,0,0,-1,1294,1205,0,0
77,-181,0,0,0,0,0,0,0,0,0,-1,1301,1205,0,0
84,-181,0,0,0,0,0,0,0,0,0,-1,1308,1205,0,0
91,-181,0,0,0,0,0,0,0,0,0,-1,1315,1205,0,0
98,-181,0,0,0,0,0,0,0,0,0,-1,1322,1205,0,0
105,-181,0,0,0,0,0,0,0,0,0,-1,1329,1205,0,0
112,-181,0,0,0,0,0,0,0,0,0,-1,1336,1205,0,0
119,-181,0,0,0,0,0,0,0,0,0,-1,1343,1205,0,0
126,-181,0,0,0,0,0,0,0,0,0,-1,1350,1205,0,0
133,-181,0,0,0,0,0,0,0,0,0,-1,1357,1205,0,0
140,-181,0,0,0,0,0,0,0,0,0,-1,1364,1205,0,0
147,-181,0,0,0,0,0,0,0,0,0,-1,1371,1205,0,0
154,-181,0,0,0,0,0,0,0,0,0,-1,1378,1205,0,0
161,-181,0,0,0,0,0,0,0,0,0,-1,1385,1205,0,0
168,-181,0,0,0,0,0,0,0,0,0,-1,1392,1205,0,0
175,-181,0,0,0,0,0,0,0,0,0,-1,1399,1205,0,0
182,-181,0,0,0,0,0,0,0,0,0,-1,1406,1205,0,0
189,-181,0,0,0,0,0,0,0,0,0,-1,1413,1205,0,0
196,-181,0,0,0,0,0,0,0,0,0,-1,1420,1205,0,0
203,-181,0,0,0,0,0,0,0,0,0,-1,1427,1205,0,0
210,-181,0,0,0,0,0,0,0,0,0,-1,1434,1205,0,0
217,-181,0,0,0,0,0,0,0,0,0,-1,1441,1205,0,0
224,-181,0,0,0,0,0,0,0,0,0,-1,1448,1205,0,0
231,-181,0,0,0,0,0,0,0,0,0,-1,1455,1205,0,0
238,-181,0,0,0,0,0,0,0,0,0,-1,1462,1205,0,0
245,-181,0,0,0,0,0,0,0,0,0,-1,1469,1205,0,0
252,-181,0,0,0,0,0,0,0,0,0,-1,1476,1205,0,0
259,-181,0,0,0,0,0,0,0,0,0,-1,1483,1205,0,0
266,-181,0,0,0,0,0,0,0,0,0,-1,1490,1205,0,0
273,-181,0,0,0,0,0,0,0,0,0,-1,1497,1205,0,0
280,-181,0,0,0,0,0,0,0,0,0,-1,1504,1205,0,0
287,-181,0,0,0,0,0,0,0,0,0,-1,1511,1205,0,0
294,-181,0,0,0,0,0,0,0,0,0,-1,1518,1205,0,0
301,-181,0,0,0,0,0,0,0,0,0,-1,1525,1205,0,0
308,-181,0,0,0,0,0,0,0,0,0,-1,1532,1205,0,0
315,-181,0,0,0,0,0,0,0,0,0,-1,1539,1205,0,0
322,-181,0,0,0,0,0,0,0,0,0,-1,1546,1205,0,0
329,-181,0,0,0,0,0,0,0,0,0,-1,1553,1205,0,0
336,-181,0,0,0,0,0,0,0,0,0,-1,1560,1205,0,0
343,-181,0,0,0,0,0,0,0,0,0,-1,1567,1205,0,0
350,-181,0,0,0,0,0,0,0,0,0,-1,1574,1205,0,0
357,-181,0,0,0,0,0,0,0,0,0,-1,1581,1205,0,0
364,-181,0,0,0,0,0,0,0,0,0,-1,1588,1205,0,0
371,-181,0,0,0,0,0,0,0,0,0,-1,1595,1205,0,0
378,-181,0,0,0,0,0,0,0,0,0,-1,1602,1205,0,0
385,-181,0,0,0,0,0,0,0,0,0,-1,1609,1205,0,0
392,-181,0,0,0,0,0,0,0,0,0,-1,1616,1205,0,0
399,-181,0,0,0,0,0,0,0,0,0,-1,1623,1205,0,0
406,-181,0,0,0,0,0,0,0,0,0,-1,1630,1205,0,0
413,-181,0,0,0,0,0,0,0,0,0,-1,1637,1205,0,0
420,-181,0,0,0,0,0,0,0,0,0,-1,1644,1205,0,0
427,-181,0,0,0,0,0,0,0,0,0,-1,1651,1205,0,0
434,-181,0,0,0,0,0,0,0,0,0,-1,1658,1205,0,0
441,-181,0,0,0,0,0,0,0,0,0,-1,1665,1205,0,0
448,-181,0,0,0,0,0,0,0,0,0,-1,1672,1205,0,0
455,-181,0,0,0,0,0,0,0,0,0,-1,1679,1205,0,0
462,-181,0,0,0,0,0,0,0,0,0,-1,1686,1205,0,0
469,-181,0,0,0,0,0,0,0,0,0,-1,1693,1205,0,0
476,-181,0,0,0,0,0,0,0,0,0,-1,1700,1205,0,0
483,-181,0,0,0,0,0,0,0,0,0,-1,1707,1205,0,0
490,-181,0,0,0,0,0,0,0,0,0,-1,1714,1205,0,0
497,-181,0,0,0,0,0,0,0,0,0,-1,1721,1205,0,0
504,-181,0,0,0,0,0,0,0,0,0,-1,1728,1205,0,0
511,-181,0,0,0,0,0,0,0,0,0,-1,1735,1205,0,0
518,-181,0,0,0,0,0,0,0,0,0,-1,1742,1205,0,0
525,-181,0,0,0,0,0,0,0,0,0,-1,1749,1205,0,0
532,-181,0,0,0,0,0,0,0,0,0,-1,1756,1205,0,0
539,-181,0,0,0,0,0,0,0,0,0,-1,1763,1205,0,0
546,-181,0,0,0,0,0,0,0,0,0,-1,1770,1205,0,0
553,-181,0,0,0,0,0,0,0,0,0,-1,1777,1205,0,0
560,-181,0,0,0,0,0,0,0,0,0,-1,1784,1205,0,0
567,-181,0,0,0,0,0,0,0,0,0,-1,1791,1205,0,0
574,-181,0,0,0,0,0,0,0,0,0,-1,1798,1205,0,0
581,-181,0,0,0,0,0,0,0,0,0,-1,1805,1205,0,0
588,-181,0,0,0,0,0,0,0,0,0,-1,1812,1205,0,0
595,-181,0,0,0,0,0,0,0,0,0,-1,1819,1205,0,0
602,-181,0,0,0,0,0,0,0,0,0,-1,1826,1205,0,0
609,-181,0,0,0,0,0,0,0,0,0,-1,1833,1205,0,0
616,-181,0,0,0,0,0,0,0,0,0,-1,1840,1205,0,0
623,-181,0,0,0,0,0,0,0,0,0,-1,1847,1205,0,0
630,-181,80.5376,2.21741,0.00112596,-0.0039067,0.00125887,0.00142328,-0.00420403,0.231936,0.00337857,0.0376578,1854,1205,80.5376,-2.21737
637,-181,80.6008,2.19409,0.000808859,-0.00224539,0.000918332,0.00106371,-0.00250024,0.270705,0.00211263,0.0384398,1861,1205,80.6008,-2.19409
644,-181,80.6392,2.16016,0.000727132,-0.000866733,0.000305514,0.000783687,-0.000923288,0.183041,0.00098662,0.0405813,1868,1205,80.6392,-2.16014
651,-181,80.5453,2.32349,0.000860301,0.000371934,-0.000529353,0.00119908,3.31594e-05,-0.569298,0.000788563,0.0387084,1875,1205,80.5453,-2.32351
658,-181,80.4298,2.39929,0.000996153,0.0014008,-0.00124901,0.00246376,-6.68101e-05,-0.865695,0.00166523,0.0339348,1882,1205,80.4298,-2.39931
665,-181,80.4976,2.30383,0.000931495,0.00219753,-0.00151044,0.00320223,-7.32084e-05,-0.983827,0.00215964,0.0326521,1889,1205,80.4976,-2.30389
672,-181,80.4993,2.1366,0.00085918,0.00298333,-0.00151693,0.00377303,6.94753e-05,-1.09081,0.00249252,0.0262964,1896,1205,80.4993,-2.13662
679,-181,80.5927,2.12561,0.000799802,0.00313953,-0.00137352,0.00377387,0.000165464,-1.13815,0.00246261,0.0488437,1903,1205,80.5926,-2.12563
686,-181,80.7158,2.08435,0,0,0,0,0,0,0,-1,1910,1205,80.7159,-2.08431
693,-181,36.1301,2.91016,0,0,0,0,0,0,0,-1,1917,1205,36.1302,-2.9102
700,-181,29.5845,6.58398,0,0,0,0,0,0,0,-1,1924,1205,29.5844,-6.58395
707,-181,55.4949,10.6722,0,0,0,0,0,0,0,-1,1931,1205,55.4949,-10.6722
714,-181,55.6268,10.3521,0,0,0,0,0,0,0,-1,1938,1205,55.6268,-10.3521
721,-181,51.2217,9.59631,0,0,0,0,0,0,0,-1,1945,1205,51.2217,-9.59637
728,-181,66.3015,10.3008,0,0,0,0,0,0,0,-1,1952,1205,66.3016,-10.3008
735,-181,66.2852,9.54077,0.00180034,0.00316865,0.000708793,0.00346961,0.00149938,1.16925,0.00200932,0.0200739,1959,1205,66.2852,-9.54079
742,-181,66.2561,8.84668,0.00172992,0.00301539,0.000895186,0.00347468,0.00127063,1.09675,0.00203009,0.0190605,1966,1205,66.2561,-8.84667
749,-181,66.2227,8.06348,0.0018138,0.00399431,0.000247204,0.00402198,0.00178612,1.45931,0.00232693,0.0178038,1973,1205,66.2227,-8.06342
756,-181,66.1899,7.29346,0.00240026,0.00623496,-0.00127442,0.00661986,0.00201536,-1.27749,0.00391821,0.0121601,1980,1205,66.19,-7.2935
763,-181,66.1741,6.54138,0.00357376,0.00988185,-0.00389765,0.0117418,0.00171385,-1.12557,0.00732371,0.0184414,1987,1205,66.174,-6.54134
770,-181,66.2532,5.75879,0,0,0,0,0,0,0,-1,1994,1205,66.2531,-5.75883
777,-181,69.6453,-1.67188,0,0,0,0,0,0,0,-1,2001,1205,69.6452,1.6719
784,-181,72.6182,-4.63086,0,0,0,0,0,0,0,-1,2008,1205,72.6181,4.63082
791,-181,69.3733,0.442383,0,0,0,0,0,0,0,-1,2015,1205,69.3733,-0.442431
798,-181,66.1357,-1.15442,0,0,0,0,0,0,0,-1,2022,1205,66.1358,1.15445
805,-181,0,0,0,0,0,0,0,0,0,-1,2029,1205,0,0
812,-181,0,0,0,0,0,0,0,0,0,-1,2036,1205,0,0
-700,-188,0,0,0,0,0,0,0,0,0,-1,524,1212,0,0
-693,-188,0,0,0,0,0,0,0,0,0,-1,531,1212,0,0
-686,-188,0,0,0,0,0,0,0,0,0,-1,538,1212,0,0
-679,-188,-51.8474,2.43372,-0.000999584,0.137828,-0.0352055,0.146246,-0.00941704,-1.33611,0.100783,0.0472133,545,1212,-51.8474,-2.4337
-672,-188,-51.8871,3.2561,-0.00278348,0.121459,-0.0250865,0.126334,-0.00765759,-1.37889,0.0868875,0.0476233,552,1212,-51.887,-3.25605
-665,-188,-51.8471,3.86658,-0.00359479,0.10489,-0.0169904,0.107489,-0.00619349,-1.41902,0.0738104,0.0459357,559,1212,-51.8471,-3.86661
-658,-188,-51.9416,4.32715,-0.00414238,0.0885505,-0.0119941,0.0900773,-0.00566923,-1.44418,0.0620277,0.0480431,566,1212,-51.9416,-4.32713
-651,-188,-52.0403,4.85095,0,0,0,0,0,0,0,-1,573,1212,-52.0403,-4.8509
-644,-188,-48.8123,4.60254,0,0,0,0,0,0,0,-1,580,1212,-48.8123,-4.60253
-637,-188,-48.7802,5.33923,-0.00497436,0.0403149,-0.00480206,0.0408185,-0.00547793,-1.46631,0.02921,0.0276044,587,1212,-48.7801,-5.33925
-630,-188,-48.8015,6.08398,-0.00497298,0.0263357,-0.00371076,0.0267695,-0.00540678,-1.45442,0.019895,0.0122035,594,1212,-48.8015,-6.08394
-623,-188,-48.8434,6.87964,-0.00470983,0.0130003,-0.00285129,0.013448,-0.00515756,-1.41504,0.0110917,0.0115693,601,1212,-48.8434,-6.87963
-616,-188,-48.8557,7.66895,-0.00432865,0.00358449,-0.00203417,0.00407677,-0.00482093,-1.33335,0.00514308,0.011077,608,1212,-48.8557,-7.66893
-609,-188,-48.8623,8.47205,-0.00418105,-0.000659277,-0.00127303,-0.000247301,-0.00459303,-1.25781,0.002983,0.0131475,615,1212,-48.8623,-8.47205
-602,-188,-48.8096,9.3501,-0.00468658,-0.00136441,-0.00130125,-0.00091541,-0.00513558,-1.23854,0.00316305,0.03173,622,1212,-48.8096,-9.3501
-595,-188,-48.7288,10.2939,0,0,0,0,0,0,0,-1,629,1212,-48.7287,-10.2939
-588,-188,-49.2526,10.9149,-0.00287464,-0.000425349,-0.002835,0.0014382,-0.00473819,-0.989279,0.00373175,0.028898,636,1212,-49.2526,-10.9149
-581,-188,-49.3414,11.6281,-0.00167773,-0.000451673,-0.00298786,0.0019854,-0.0041148,-0.886581,0.00359276,0.0346949,643,1212,-49.3414,-11.628
-574,-188,-49.366,12.2919,0,0,0,0,0,0,0,-1,650,1212,-49.3661,-12.2918
-567,-188,-19.5786,4.10388,0,0,0,0,0,0,0,-1,657,1212,-19.5785,-4.10383
-560,-188,-23.9507,0.416626,0,0,0,0,0,0,0,-1,664,1212,-23.9508,-0.416602
-553,-188,-49.2368,1.03101,0,0,0,0,0,0,0,-1,671,1212,-49.2367,-1.03099
-546,-188,-63.3781,0.412231,0,0,0,0,0,0,0,-1,678,1212,-63.3781,-0.412205
-539,-188,-63.4045,0.353516,0.000196577,-0.0010559,-0.00339659,0.00302418,-0.0038835,-0.694236,0.00399842,0.0354099,685,1212,-63.4045,-0.353538
-532,-188,-63.4003,0.203979,0.00144936,-0.000640767,-0.00308696,0.00366336,-0.00285477,-0.622183,0.00377288,0.0385393,692,1212,-63.4003,-0.204033
-525,-188,-63.2805,0.12793,0.00167336,-0.000740901,-0.000776292,0.00190142,-0.000968968,-0.285751,0.00168612,0.0394682,699,1212,-63.2805,-0.127871
-518,-188,-63.2012,0.291016,0.000493313,-0.00074069,0.0019495,0.00192112,-0.0021685,0.63214,0.00236259,0.0407848,706,1212,-63.2012,-0.290964
-511,-188,-63.2187,0.478394,-0.00074834,-0.000641315,0.00459151,0.003897,-0.00528665,0.791225,0.00532238,0.0398606,713,1212,-63.2187,-0.478347
-504,-188,0,0,0,0,0,0,0,0,0,-1,720,1212,0,0
-497,-188,0,0,0,0,0,0,0,0,0,-1,727,1212,0,0
-490,-188,0,0,0,0,0,0,0,0,0,-1,734,1212,0,0
-483,-188,0,0,0,0,0,0,0,0,0,-1,741,1212,0,0
-476,-188,0,0,0,0,0,0,0,0,0,-1,748,1212,0,0
-469,-188,0,0,0,0,0,0,0,0,0,-1,755,1212,0,0
-462,-188,0,0,0,0,0,0,0,0,0,-1,762,1212,0,0
-455,-188,0,0,0,0,0,0,0,0,0,-1,769,1212,0,0
-448,-188,0,0,0,0,0,0,0,0,0,-1,776,1212,0,0
-441,-188,0,0,0,0,0,0,0,0,0,-1,783,1212,0,0
-434,-188,0,0,0,0,0,0,0,0,0,-1,790,1212,0,0
-427,-188,0,0,0,0,0,0,0,0,0,-1,797,1212,0,0
-420,-188,0,0,0,0,0,0,0,0,0,-1,804,1212,0,0
-413,-188,0,0,0,0,0,0,0,0,0,-1,811,1212,0,0
-406,-188,0,0,0,0,0,0,0,0,0,-1,818,1212,0,0
-399,-188,0,0,0,0,0,0,0,0,0,-1,825,1212,0,0
-392,-188,0,0,0,0,0,0,0,0,0,-1,832,1212,0,0
-385,-188,0,0,0,0,0,0,0,0,0,-1,839,1212,0,0
-378,-188,0,0,0,0,0,0,0,0,0,-1,846,1212,0,0
-371,-188,0,0,0,0,0,0,0,0,0,-1,853,1212,0,0
-364,-188,0,0,0,0,0,0,0,0,0,-1,860,1212,0,0
-357,-188,0,0,0,0,0,0,0,0,0,-1,867,1212,0,0
-350,-188,0,0,0,0,0,0,0,0,0,-1,874,1212,0,0
-343,-188,0,0,0,0,0,0,0,0,0,-1,881,1212,0,0
-336,-188,0,0,0,0,0,0,0,0,0,-1,888,1212,0,0
-329,-188,0,0,0,0,0,0,0,0,0,-1,895,1212,0,0
-322,-188,0,0,0,0,0,0,0,0,0,-1,902,1212,0,0
-315,-188,0,0,0,0,0,0,0,0,0,-1,909,1212,0,0
-308,-188,0,0,0,0,0,0,0,0,0,-1,916,1212,0,0
-301,-188,0,0,0,0,0,0,0,0,0,-1,923,1212,0,0
-294,-188,0,0,0,0,0,0,0,0,0,-1,930,1212,0,0
-287,-188,0,0,0,0,0,0,0,0,0,-1,937,1212,0,0
-280,-188,0,0,0,0,0,0,0,0,0,-1,944,1212,0,0
-273,-188,0,0,0,0,0,0,0,0,0,-1,951,1212,0,0
-266,-188,0,0,0,0,0,0,0,0,0,-1,958,1212,0,0
-259,-188,0,0,0,0,0,0,0,0,0,-1,965,1212,0,0
-252,-188,0,0,0,0,0,0,0,0,0,-1,972,1212,0,0
-245,-188,0,0,0,0,0,0,0,0,0,-1,979,1212,0,0
-238,-188,0,0,0,0,0,0,0,0,0,-1,986,1212,0,0
-231,-188,0,0,0,0,0,0,0,0,0,-1,993,1212,0,0
-224,-188,0,0,0,0,0,0,0,0,0,-1,1000,1212,0,0
-217,-188,0,0,0,0,0,0,0,0,0,-1,1007,1212,0,0
-210,-188,0,0,0,0,0,0,0,0,0,-1,1014,1212,0,0
-203,-188,0,0,0,0,0,0,0,0,0,-1,1021,1212,0,0
-196,-188,0,0,0,0,0,0,0,0,0,-1,1028,1212,0,0
-189,-188,0,0,0,0,0,0,0,0,0,-1,1035,1212,0,0
-182,-188,0,0,0,0,0,0,0,0,0,-1,1042,1212,0,0
-175,-188,0,0,0,0,0,0,0,0,0,-1,1049,1212,0,0
-168,-188,0,0,0,0,0,0,0,0,0,-1,1056,1212,0,0
-161,-188,0,0,0,0,0,0,0,0,0,-1,1063,1212,0,0
-154,-188,0,0,0,0,0,0,0,0,0,-1,1070,1212,0,0
-147,-188,0,0,0,0,0,0,0,0,0,-1,1077,1212,0,0
-140,-188,0,0,0,0,0,0,0,0,0,-1,1084,1212,0,0
-133,-188,0,0,0,0,0,0,0,0,0,-1,1091,1212,0,0
-126,-188,0,0,0,0,0,0,0,0,0,-1,1098,1212,0,0
-119,-188,0,0,0,0,0,0,0,0,0,-1,1105,1212,0,0
-112,-188,0,0,0,0,0,0,0,0,0,-1,1112,1212,0,0
-105,-188,0,0,0,0,0,0,0,0,0,-1,1119,1212,0,0
-98,-188,0,0,0,0,0,0,0,0,0,-1,1126,1212,0,0
-91,-188,0,0,0,0,0,0,0,0,0,-1,1133,1212,0,0
-84,-188,0,0,0,0,0,0,0,0,0,-1,1140,1212,0,0
-77,-188,0,0,0,0,0,0,0,0,0,-1,1147,1212,0,0
-70,-188,0,0,0,0,0,0,0,0,0,-1,1154,1212,0,0
-63,-188,0,0,0,0,0,0,0,0,0,-1,1161,1212,0,0
-56,-188,0,0,0,0,0,0,0,0,0,-1,1168,1212,0,0
-49,-188,0,0,0,0,0,0,0,0,0,-1,1175,1212,0,0
-42,-188,0,0,0,0,0,0,0,0,0,-1,1182,1212,0,0
-35,-188,0,0,0,0,0,0,0,0,0,-1,1189,1212,0,0
-28,-188,0,0,0,0,0,0,0,0,0,-1,1196,1212,0,0
-21,-188,0,0,0,0,0,0,0,0,0,-1,1203,1212,0,0
-14,-188,0,0,0,0,0,0,0,0,0,-1,1210,1212,0,0
-7,-188,0,0,0,0,0,0,0,0,0,-1,1217,1212,0,0
0,-188,0,0,0,0,0,0,0,0,0,-1,1224,1212,0,0
7,-188,0,0,0,0,0,0,0,0,0,-1,1231,1212,0,0
14,-188,0,0,0,0,0,0,0,0,0,-1,1238,1212,0,0
21,-188,0,0,0,0,0,0,0,0,0,-1,1245,1212,0,0
28,-188,0,0,0,0,0,0,0,0,0,-1,1252,1212,0,0
35,-188,0,0,0,0,0,0,0,0,0,-1,1259,1212,0,0
42,-188,0,0,0,0,0,0,0,0,0,-1,1266,1212,0,0
49,-188,0,0,0,0,0,0,0,0,0,-1,1273,1212,0,0
56,-188,0,0,0,0,0,0,0,0,0,-1,1280,1212,0,0
63,-188,0,0,0,0,0,0,0,0,0,-1,1287,1212,0,0
70,-188,0,0,0,0,0,0,0,0,0,-1,1294,1212,0,0
77,-188,0,0,0,0,0,0,0,0,0,-1,1301,1212,0,0
84,-188,0,0,0,0,0,0,0,0,0,-1,1308,1212,0,0
91,-188,0,0,0,0,0,0,0,0,0,-1,1315,1212,0,0
98,-188,0,0,0,0,0,0,0,0,0,-1,1322,1212,0,0
105,-188,0,0,0,0,0,0,0,0,0,-1,1329,1212,0,0
112,-188,0,0,0,0,0,0,0,0,0,-1,1336,1212,0,0
119,-188,0,0,0,0,0,0,0,0,0,-1,1343,1212,0,0
126,-188,0,0,0,0,0,0,0,0,0,-1,1350,1212,0,0
133,-188,0,0,0,0,0,0,0,0,0,-1,1357,1212,0,0
140,-188,0,0,0,0,0,0,0,0,0,-1,1364,1212,0,0
147,-188,0,0,0,0,0,0,0,0,0,-1,1371,1212,0,0
154,-188,0,0,0,0,0,0,0,0,0,-1,1378,1212,0,0
161,-188,0,0,0,0,0,0,0,0,0,-1,1385,1212,0,0
168,-188,0,0,0,0,0,0,0,0,0,-1,1392,1212,0,0
175,-188,0,0,0,0,0,0,0,0,0,-1,1399,1212,0,0
182,-188,0,0,0,0,0,0,0,0,0,-1,1406,1212,0,0
189,-188,0,0,0,0,0,0,0,0,0,-1,1413,1212,0,0
196,-188,0,0,0,0,0,0,0,0,0,-1,1420,1212,0,0
203,-188,0,0,0,0,0,0,0,0,0,-1,1427,1212,0,0
210,-188,0,0,0,0,0,0,0,0,0,-1,1434,1212,0,0
217,-188,0,0,0,0,0,0,0,0,0,-1,1441,1212,0,0
224,-188,0,0,0,0,0,0,0,0,0,-1,1448,1212,0,0
231,-188,0,0,0,0,0,0,0,0,0,-1,1455,1212,0,0
238,-188,0,0,0,0,0,0,0,0,0,-1,1462,1212,0,0
245,-188,0,0,0,0,0,0,0,0,0,-1,1469,1212,0,0
252,-188,0,0,0,0,0,0,0,0,0,-1,1476,1212,0,0
259,-188,0,0,0,0,0,0,0,0,0,-1,1483,1212,0,0
266,-188,0,0,0,0,0,0,0,0,0,-1,1490,1212,0,0
273,-188,0,0,0,0,0,0,0,0,0,-1,1497,1212,0,0
280,-188,0,0,0,0,0,0,0,0,0,-1,1504,1212,0,0
287,-188,0,0,0,0,0,0,0,0,0,-1,1511,1212,0,0
294,-188,0,0,0,0,0,0,0,0,0,-1,1518,1212,0,0
301,-188,0,0,0,0,0,0,0,0,0,-1,1525,1212,0,0
308,-188,0,0,0,0,0,0,0,0,0,-1,1532,1212,0,0
315,-188,0,0,0,0,0,0,0,0,0,-1,1539,1212,0,0
322,-188,0,0,0,0,0,0,0,0,0,-1,1546,1212,0,0
329,-188,0,0,0,0,0,0,0,0,0,-1,1553,1212,0,0
336,-188,0,0,0,0,0,0,0,0,0,-1,1560,1212,0,0
343,-188,0,0,0,0,0,0,0,0,0,-1,1567,1212,0,0
350,-188,0,0,0,0,0,0,0,0,0,-1,1574,1212,0,0
357,-188,0,0,0,0,0,0,0,0,0,-1,1581,1212,0,0
364,-188,0,0,0,0,0,0,0,0,0,-1,1588,1212,0,0
371,-188,0,0,0,0,0,0,0,0,0,-1,1595,1212,0,0
378,-188,0,0,0,0,0,0,0,0,0,-1,1602,1212,0,0
385,-188,0,0,0,0,0,0,0,0,0,-1,1609,1212,0,0
392,-188,0,0,0,0,0,0,0,0,0,-1,1616,1212,0,0
399,-188,0,0,0,0,0,0,0,0,0,-1,1623,1212,0,0
406,-188,0,0,0,0,0,0,0,0,0,-1,1630,1212,0,0
413,-188,0,0,0,0,0,0,0,0,0,-1,1637,1212,0,0
420,-188,0,0,0,0,0,0,0,0,0,-1,1644,1212,0,0
427,-188,0,0,0,0,0,0,0,0,0,-1,1651,1212,0,0
434,-188,0,0,0,0,0,0,0,0,0,-1,1658,1212,0,0
441,-188,0,0,0,0,0,0,0,0,0,-1,1665,1212,0,0
448,-188,0,0,0,0,0,0,0,0,0,-1,1672,1212,0,0
455,-188,0,0,0,0,0,0,0,0,0,-1,1679,1212,0,0
462,-188,0,0,0,0,0,0,0,0,0,-1,1686,1212,0,0
469,-188,0,0,0,0,0,0,0,0,0,-1,1693,1212,0,0
476,-188,0,0,0,0,0,0,0,0,0,-1,1700,1212,0,0
483,-188,0,0,0,0,0,0,0,0,0,-1,1707,1212,0,0
490,-188,0,0,0,0,0,0,0,0,0,-1,1714,1212,0,0
497,-188,0,0,0,0,0,0,0,0,0,-1,1721,1212,0,0
504,-188,0,0,0,0,0,0,0,0,0,-1,1728,1212,0,0
511,-188,0,0,0,0,0,0,0,0,0,-1,1735,1212,0,0
518,-188,0,0,0,0,0,0,0,0,0,-1,1742,1212,0,0
525,-188,0,0,0,0,0,0,0,0,0,-1,1749,1212,0,0
532,-188,0,0,0,0,0,0,0,0,0,-1,1756,1212,0,0
539,-188,0,0,0,0,0,0,0,0,0,-1,1763,1212,0,0
546,-188,0,0,0,0,0,0,0,0,0,-1,1770,1212,0,0
553,-188,0,0,0,0,0,0,0,0,0,-1,1777,1212,0,0
560,-188,0,0,0,0,0,0,0,0,0,-1,1784,1212,0,0
567,-188,0,0,0,0,0,0,0,0,0,-1,1791,1212,0,0
574,-188,0,0,0,0,0,0,0,0,0,-1,1798,1212,0,0
581,-188,0,0,0,0,0,0,0,0,0,-1,1805,1212,0,0
588,-188,0,0,0,0,0,0,0,0,0,-1,1812,1212,0,0
595,-188,0,0,0,0,0,0,0,0,0,-1,1819,1212,0,0
602,-188,0,0,0,0,0,0,0,0,0,-1,1826,1212,0,0
609,-188,0,0,0,0,0,0,0,0,0,-1,1833,1212,0,0
616,-188,0,0,0,0,0,0,0,0,0,-1,1840,1212,0,0
623,-188,0,0,0,0,0,0,0,0,0,-1,1847,1212,0,0
630,-188,80.5602,2.1853,0.00180617,-0.00479711,0.000811527,0.00190444,-0.00489538,0.120509,0.00405049,0.0400311,1854,1212,80.5602,-2.18533
637,-188,80.5664,2.14563,0.00138549,-0.00274292,0.00046908,0.00143811,-0.00279555,0.111725,0.00248583,0.0422503,1861,1212,80.5664,-2.14565
644,-188,80.5598,2.11816,0.00118066,-0.000942596,-0.000163647,0.0011932,-0.000955135,-0.0764715,0.00124288,0.0389307,1868,1212,80.5598,-2.1182
651,-188,80.5164,2.16968,0.00115,0.000693133,-0.00101017,0.00195724,-0.000114112,-0.674203,0.00134448,0.0326846,1875,1212,80.5163,-2.16964
658,-188,80.527,2.23401,0.00100861,0.00191588,-0.00150961,0.00303854,-0.000114048,-0.931355,0.00206476,0.0315771,1882,1212,80.527,-2.23404
665,-188,80.4807,2.19067,0.000688413,0.00260075,-0.0014631,0.00339241,-0.000103247,-1.07482,0.0022968,0.0322912,1889,1212,80.4807,-2.19061
672,-188,80.4747,2.09998,0.000512401,0.00317099,-0.00125845,0.0036722,1.11978e-05,-1.19178,0.00244441,0.0292281,1896,1212,80.4748,-2.09992
679,-188,80.6687,2.22412,0,0,0,0,0,0,0,-1,1903,1212,80.6687,-2.22407
686,-188,60.1007,2.41321,0,0,0,0,0,0,0,-1,1910,1212,60.1007,-2.41325
693,-188,35.9054,2.18042,0,0,0,0,0,0,0,-1,1917,1212,35.9054,-2.18038
700,-188,54.452,11.2678,0,0,0,0,0,0,0,-1,1924,1212,54.452,-11.2678
707,-188,65.9268,12.9221,0,0,0,0,0,0,0,-1,1931,1212,65.9268,-12.9222
714,-188,54.7506,10.1539,0,0,0,0,0,0,0,-1,1938,1212,54.7507,-10.1539
721,-188,61.637,10.8645,0,0,0,0,0,0,0,-1,1945,1212,61.6369,-10.8645
728,-188,65.5933,10.3711,0,0,0,0,0,0,0,-1,1952,1212,65.5933,-10.3711
735,-188,65.5062,9.60754,0.00141719,0.00328538,0.0008035,0.00358342,0.00111916,1.21561,0.00211692,0.0149264,1959,1212,65.5062,-9.60758
742,-188,65.4525,8.84619,0.0014628,0.00303451,0.000906622,0.00344846,0.00104885,1.14248,0.00204125,0.0155756,1966,1212,65.4525,-8.84625
749,-188,65.4382,8.09045,0.0017318,0.00381412,0.000301406,0.00385687,0.00168905,1.4299,0.00223248,0.0153474,1973,1212,65.4383,-8.09044
756,-188,65.4117,7.31885,0.00235816,0.00556688,-0.000890659,0.00579752,0.00212752,-1.3174,0.00338646,0.0136196,1980,1212,65.4118,-7.3188
763,-188,65.3838,6.53967,0.00347732,0.00873893,-0.00304837,0.0101347,0.0020815,-1.1414,0.00618062,0.0199587,1987,1212,65.3838,-6.53963
770,-188,65.3975,5.7334,0,0,0,0,0,0,0,-1,1994,1212,65.3973,-5.73337
777,-188,61.4719,4.67664,0,0,0,0,0,0,0,-1,2001,1212,61.4719,-4.67659
784,-188,69.1482,-1.87268,0,0,0,0,0,0,0,-1,2008,1212,69.1481,1.87266
791,-188,68.3596,-0.192261,0,0,0,0,0,0,0,-1,2015,1212,68.3596,0.192286
798,-188,67.5286,1.23303,0,0,0,0,0,0,0,-1,2022,1212,67.5285,-1.23298
805,-188,0,0,0,0,0,0,0,0,0,-1,2029,1212,0,0
812,-188,0,0,0,0,0,0,0,0,0,-1,2036,1212,0,0
-700,-195,0,0,0,0,0,0,0,0,0,-1,524,1219,0,0
-693,-195,0,0,0,0,0,0,0,0,0,-1,531,1219,0,0
-686,-195,0,0,0,0,0,0,0,0,0,-1,538,1219,0,0
-679,-195,-50.7459,1.90869,0,0,0,0,0,0,0,-1,545,1219,-50.7459,-1.9087
-672,-195,-50.9967,2.63708,0,0,0,0,0,0,0,-1,552,1219,-50.9967,-2.63703
-665,-195,-50.7552,3.13232,0,0,0,0,0,0,0,-1,559,1219,-50.7552,-3.13237
-658,-195,-50.65,3.62805,0,0,0,0,0,0,0,-1,566,1219,-50.65,-3.628
-651,-195,-47.8471,4.65698,0,0,0,0,0,0,0,-1,573,1219,-47.8471,-4.65701
-644,-195,-47.8434,5.04395,0,0,0,0,0,0,0,-1,580,1219,-47.8435,-5.04391
-637,-195,-47.8438,5.34924,-0.00428272,0.0418326,-0.00618757,0.0426484,-0.00509851,-1.43971,0.0302752,0.0280075,587,1219,-47.8438,-5.34928
-630,-195,-47.959,6.11499,-0.00431769,0.0275529,-0.0044903,0.0281735,-0.00493825,-1.43347,0.0206264,0.00996922,594,1219,-47.959,-6.11493
-623,-195,-48.0124,6.9126,-0.00411229,0.0141259,-0.00319417,0.0146691,-0.00465552,-1.40234,0.0116457,0.00857298,601,1219,-48.0124,-6.91257
-616,-195,-48.0331,7.71924,-0.00376789,0.00461631,-0.0020999,0.00511285,-0.00426442,-1.33861,0.00542135,0.00993478,608,1219,-48.0331,-7.71926
-609,-195,-48.0208,8.5719,-0.00370144,6.18063e-05,-0.00115429,0.000387647,-0.00402728,-1.29567,0.00282296,0.0180125,615,1219,-48.0207,-8.57184
-602,-195,-48.0751,9.328,-0.00421689,-0.00105397,-0.00104206,-0.000741511,-0.00452934,-1.27948,0.00280525,0.0261208,622,1219,-48.0751,-9.32805
-595,-195,-48.1301,10.1516,-0.0041787,-0.000931084,-0.00164665,-0.000242274,-0.00486751,-1.17461,0.00316734,0.0468117,629,1219,-48.13,-10.1516
-588,-195,-48.3401,11.0625,0,0,0,0,0,0,0,-1,636,1219,-48.3401,-11.0625
-581,-195,-48.3543,11.682,0,0,0,0,0,0,0,-1,643,1219,-48.3543,-11.6821
-574,-195,-48.5243,12.2686,0,0,0,0,0,0,0,-1,650,1219,-48.5243,-12.2686
-567,-195,-20.6388,3.78369,0,0,0,0,0,0,0,-1,657,1219,-20.6388,-3.78369
-560,-195,-20.878,2.10388,0,0,0,0,0,0,0,-1,664,1219,-20.878,-2.10385
-553,-195,-41.595,0.613281,0,0,0,0,0,0,0,-1,671,1219,-41.595,-0.61334
-546,-195,-63.1177,0.371704,0,0,0,0,0,0,0,-1,678,1219,-63.1177,-0.371711
-539,-195,-63.3289,0.308472,-0.000463417,-0.00179735,-0.00287517,0.00182113,-0.00408189,-0.671427,0.00349043,0.0481466,685,1219,-63.3288,-0.30852
-532,-195,-63.3855,0.181274,0.000401923,-0.00151226,-0.00282506,0.00242762,-0.00353795,-0.622074,0.00346405,0.034993,692,1219,-63.3855,-0.181318
-525,-195,-63.2725,0.251465,0.00100453,-0.00134103,-0.00101919,0.00138551,-0.00172201,-0.357722,0.00179763,0.0380807,699,1219,-63.2725,-0.251431
-518,-195,-63.1976,0.422485,0.000563625,-0.000885864,0.0013464,0.00136795,-0.00169019,0.538497,0.00176888,0.040074,706,1219,-63.1976,-0.422467
-511,-195,-63.2604,0.554443,-5.89363e-05,-0.000436808,0.00401291,0.00376948,-0.00426523,0.761874,0.00464179,0.0420672,713,1219,-63.2604,-0.554443
-504,-195,0,0,0,0,0,0,0,0,0,-1,720,1219,0,0
-497,-195,0,0,0,0,0,0,0,0,0,-1,727,1219,0,0
-490,-195,0,0,0,0,0,0,0,0,0,-1,734,1219,0,0
-483,-195,0,0,0,0,0,0,0,0,0,-1,741,1219,0,0
-476,-195,0,0,0,0,0,0,0,0,0,-1,748,1219,0,0
-469,-195,0,0,0,0,0,0,0,0,0,-1,755,1219,0,0
-462,-195,0,0,0,0,0,0,0,0,0,-1,762,1219,0,0
-455,-195,0,0,0,0,0,0,0,0,0,-1,769,1219,0,0
-448,-195,0,0,0,0,0,0,0,0,0,-1,776,1219,0,0
-441,-195,0,0,0,0,0,0,0,0,0,-1,783,1219,0,0
-434,-195,0,0,0,0,0,0,0,0,0,-1,790,1219,0,0
-427,-195,0,0,0,0,0,0,0,0,0,-1,797,1219,0,0
-420,-195,0,0,0,0,0,0,0,0,0,-1,804,1219,0,0
-413,-195,0,0,0,0,0,0,0,0,0,-1,811,1219,0,0
-406,-195,0,0,0,0,0,0,0,0,0,-1,818,1219,0,0
-399,-195,0,0,0,0,0,0,0,0,0,-1,825,1219,0,0
-392,-195,0,0,0,0,0,0,0,0,0,-1,832,1219,0,0
-385,-195,0,0,0,0,0,0,0,0,0,-1,839,1219,0,0
-378,-195,0,0,0,0,0,0,0,0,0,-1,846,1219,0,0
-371,-195,0,0,0,0,0,0,0,0,0,-1,853,1219,0,0
-364,-195,0,0,0,0,0,0,0,0,0,-1,860,1219,0,0
-357,-195,0,0,0,0,0,0,0,0,0,-1,867,1219,0,0
-350,-195,0,0,0,0,0,0,0,0,0,-1,874,1219,0,0
-343,-195,0,0,0,0,0,0,0,0,0,-1,881,1219,0,0
-336,-195,0,0,0,0,0,0,0,0,0,-1,888,1219,0,0
-329,-195,0,0,0,0,0,0,0,0,0,-1,895,1219,0,0
-322,-195,0,0,0,0,0,0,0,0,0,-1,902,1219,0,0
-315,-195,0,0,0,0,0,0,0,0,0,-1,909,1219,0,0
-308,-195,0,0,0,0,0,0,0,0,0,-1,916,1219,0,0
-301,-195,0,0,0,0,0,0,0,0,0,-1,923,1219,0,0
-294,-195,0,0,0,0,0,0,0,0,0,-1,930,1219,0,0
-287,-195,0,0,0,0,0,0,0,0,0,-1,937,1219,0,0
-280,-195,0,0,0,0,0,0,0,0,0,-1,944,1219,0,0
-273,-195,0,0,0,0,0,0,0,0,0,-1,951,1219,0,0
-266,-195,0,0,0,0,0,0,0,0,0,-1,958,1219,0,0
-259,-195,0,0,0,0,0,0,0,0,0,-1,965,1219,0,0
-252,-195,0,0,0,0,0,0,0,0,0,-1,972,1219,0,0
-245,-195,0,0,0,0,0,0,0,0,0,-1,979,1219,0,0
-238,-195,0,0,0,0,0,0,0,0,0,-1,986,1219,0,0
-231,-195,0,0,0,0,0,0,0,0,0,-1,993,1219,0,0
-224,-195,0,0,0,0,0,0,0,0,0,-1,1000,1219,0,0
-217,-195,0,0,0,0,0,0,0,0,0,-1,1007,1219,0,0
-210,-195,0,0,0,0,0,0,0,0,0,-1,1014,1219,0,0
-203,-195,0,0,0,0,0,0,0,0,0,-1,1021,1219,0,0
-196,-195,0,0,0,0,0,0,0,0,0,-1,1028,1219,0,0
-189,-195,0,0,0,0,0,0,0,0,0,-1,1035,1219,0,0
-182,-195,0,0,0,0,0,0,0,0,0,-1,1042,1219,0,0
-175,-195,0,0,0,0,0,0,0,0,0,-1,1049,1219,0,0
-168,-195,0,0,0,0,0,0,0,0,0,-1,1056,1219,0,0
-161,-195,0,0,0,0,0,0,0,0,0,-1,1063,1219,0,0
-154,-195,0,0,0,0,0,0,0,0,0,-1,1070,1219,0,0
-147,-195,0,0,0,0,0,0,0,0,0,-1,1077,1219,0,0
-140,-195,0,0,0,0,0,0,0,0,0,-1,1084,1219,0,0
-133,-195,0,0,0,0,0,0,0,0,0,-1,1091,1219,0,0
-126,-195,0,0,0,0,0,0,0,0,0,-1,1098,1219,0,0
-119,-195,0,0,0,0,0,0,0,0,0,-1,1105,1219,0,0
-112,-195,0,0,0,0,0,0,0,0,0,-1,1112,1219,0,0
-105,-195,0,0,0,0,0,0,0,0,0,-1,1119,1219,0,0
-98,-195,0,0,0,0,0,0,0,0,0,-1,1126,1219,0,0
-91,-195,0,0,0,0,0,0,0,0,0,-1,1133,1219,0,0
-84,-195,0,0,0,0,0,0,0,0,0,-1,1140,1219,0,0
-77,-195,0,0,0,0,0,0,0,0,0,-1,1147,1219,0,0
-70,-195,0,0,0,0,0,0,0,0,0,-1,1154,1219,0,0
-63,-195,0,0,0,0,0,0,0,0,0,-1,1161,1219,0,0
-56,-195,0,0,0,0,0,0,0,0,0,-1,1168,1219,0,0
-49,-195,0,0,0,0,0,0,0,0,0,-1,1175,1219,0,0
-42,-195,0,0,0,0,0,0,0,0,0,-1,1182,1219,0,0
-35,-195,0,0,0,0,0,0,0,0,0,-1,1189,1219,0,0
-28,-195,0,0,0,0,0,0,0,0,0,-1,1196,1219,0,0
-21,-195,0,0,0,0,0,0,0,0,0,-1,1203,1219,0,0
-14,-195,0,0,0,0,0,0,0,0,0,-1,1210,1219,0,0
-7,-195,0,0,0,0,0,0,0,0,0,-1,1217,1219,0,0
0,-195,0,0,0,0,0,0,0,0,0,-1,1224,1219,0,0
7,-195,0,0,0,0,0,0,0,0,0,-1,1231,1219,0,0
14,-195,0,0,0,0,0,0,0,0,0,-1,1238,1219,0,0
21,-195,0,0,0,0,0,0,0,0,0,-1,1245,1219,0,0
28,-195,0,0,0,0,0,0,0,0,0,-1,1252,1219,0,0
35,-195,0,0,0,0,0,0,0,0,0,-1,1259,1219,0,0
42,-195,0,0,0,0,0,0,0,0,0,-1,1266,1219,0,0
49,-195,0,0,0,0,0,0,0,0,0,-1,1273,1219,0,0
56,-195,0,0,0,0,0,0,0,0,0,-1,1280,1219,0,0
63,-195,0,0,0,0,0,0,0,0,0,-1,1287,1219,0,0
70,-195,0,0,0,0,0,0,0,0,0,-1,1294,1219,0,0
77,-195,0,0,0,0,0,0,0,0,0,-1,1301,1219,0,0
84,-195,0,0,0,0,0,0,0,0,0,-1,1308,1219,0,0
91,-195,0,0,0,0,0,0,0,0,0,-1,1315,1219,0,0
98,-195,0,0,0,0,0,0,0,0,0,-1,1322,1219,0,0
105,-195,0,0,0,0,0,0,0,0,0,-1,1329,1219,0,0
112,-195,0,0,0,0,0,0,0,0,0,-1,1336,1219,0,0
119,-195,0,0,0,0,0,0,0,0,0,-1,1343,1219,0,0
126,-195,0,0,0,0,0,0,0,0,0,-1,1350,1219,0,0
133,-195,0,0,0,0,0,0,0,0,0,-1,1357,1219,0,0
140,-195,0,0,0,0,0,0,0,0,0,-1,1364,1219,0,0
147,-195,0,0,0,0,0,0,0,0,0,-1,1371,1219,0,0
154,-195,0,0,0,0,0,0,0,0,0,-1,1378,1219,0,0
161,-195,0,0,0,0,0,0,0,0,0,-1,1385,1219,0,0
168,-195,0,0,0,0,0,0,0,0,0,-1,1392,1219,0,0
175,-195,0,0,0,0,0,0,0,0,0,-1,1399,1219,0,0
182,-195,0,0,0,0,0,0,0,0,0,-1,1406,1219,0,0
189,-195,0,0,0,0,0,0,0,0,0,-1,1413,1219,0,0
196,-195,0,0,0,0,0,0,0,0,0,-1,1420,1219,0,0
203,-195,0,0,0,0,0,0,0,0,0,-1,1427,1219,0,0
210,-195,0,0,0,0,0,0,0,0,0,-1,1434,1219,0,0
217,-195,0,0,0,0,0,0,0,0,0,-1,1441,1219,0,0
224,-195,0,0,0,0,0,0,0,0,0,-1,1448,1219,0,0
231,-195,0,0,0,0,0,0,0,0,0,-1,1455,1219,0,0
238,-195,0,0,0,0,0,0,0,0,0,-1,1462,1219,0,0
245,-195,0,0,0,0,0,0,0,0,0,-1,1469,1219,0,0
252,-195,0,0,0,0,0,0,0,0,0,-1,1476,1219,0,0
259,-195,0,0,0,0,0,0,0,0,0,-1,1483,1219,0,0
266,-195,0,0,0,0,0,0,0,0,0,-1,1490,1219,0,0
273,-195,0,0,0,0,0,0,0,0,0,-1,1497,1219,0,0
280,-195,0,0,0,0,0,0,0,0,0,-1,1504,1219,0,0
287,-195,0,0,0,0,0,0,0,0,0,-1,1511,1219,0,0
294,-195,0,0,0,0,0,0,0,0,0,-1,1518,1219,0,0
301,-195,0,0,0,0,0,0,0,0,0,-1,1525,1219,0,0
308,-195,0,0,0,0,0,0,0,0,0,-1,1532,1219,0,0
315,-195,0,0,0,0,0,0,0,0,0,-1,1539,1219,0,0
322,-195,0,0,0,0,0,0,0,0,0,-1,1546,1219,0,0
329,-195,0,0,0,0,0,0,0,0,0,-1,1553,1219,0,0
336,-195,0,0,0,0,0,0,0,0,0,-1,1560,1219,0,0
343,-195,0,0,0,0,0,0,0,0,0,-1,1567,1219,0,0
350,-195,0,0,0,0,0,0,0,0,0,-1,1574,1219,0,0
357,-195,0,0,0,0,0,0,0,0,0,-1,1581,1219,0,0
364,-195,0,0,0,0,0,0,0,0,0,-1,1588,1219,0,0
371,-195,0,0,0,0,0,0,0,0,0,-1,1595,1219,0,0
378,-195,0,0,0,0,0,0,0,0,0,-1,1602,1219,0,0
385,-195,0,0,0,0,0,0,0,0,0,-1,1609,1219,0,0
392,-195,0,0,0,0,0,0,0,0,0,-1,1616,1219,0,0
399,-195,0,0,0,0,0,0,0,0,0,-1,1623,1219,0,0
406,-195,0,0,0,0,0,0,0,0,0,-1,1630,1219,0,0
413,-195,0,0,0,0,0,0,0,0,0,-1,1637,1219,0,0
420,-195,0,0,0,0,0,0,0,0,0,-1,1644,1219,0,0
427,-195,0,0,0,0,0,0,0,0,0,-1,1651,1219,0,0
434,-195,0,0,0,0,0,0,0,0,0,-1,1658,1219,0,0
441,-195,0,0,0,0,0,0,0,0,0,-1,1665,1219,0,0
448,-195,0,0,0,0,0,0,0,0,0,-1,1672,1219,0,0
455,-195,0,0,0,0,0,0,0,0,0,-1,1679,1219,0,0
462,-195,0,0,0,0,0,0,0,0,0,-1,1686,1219,0,0
469,-195,0,0,0,0,0,0,0,0,0,-1,1693,1219,0,0
476,-195,0,0,0,0,0,0,0,0,0,-1,1700,1219,0,0
483,-195,0,0,0,0,0,0,0,0,0,-1,1707,1219,0,0
490,-195,0,0,0,0,0,0,0,0,0,-1,1714,1219,0,0
497,-195,0,0,0,0,0,0,0,0,0,-1,1721,1219,0,0
504,-195,0,0,0,0,0,0,0,0,0,-1,1728,1219,0,0
511,-195,0,0,0,0,0,0,0,0,0,-1,1735,1219,0,0
518,-195,0,0,0,0,0,0,0,0,0,-1,1742,1219,0,0
525,-195,0,0,0,0,0,0,0,0,0,-1,1749,1219,0,0
532,-195,0,0,0,0,0,0,0,0,0,-1,1756,1219,0,0
539,-195,0,0,0,0,0,0,0,0,0,-1,1763,1219,0,0
546,-195,0,0,0,0,0,0,0,0,0,-1,1770,1219,0,0
553,-195,0,0,0,0,0,0,0,0,0,-1,1777,1219,0,0
560,-195,0,0,0,0,0,0,0,0,0,-1,1784,1219,0,0
567,-195,0,0,0,0,0,0,0,0,0,-1,1791,1219,0,0
574,-195,0,0,0,0,0,0,0,0,0,-1,1798,1219,0,0
581,-195,0,0,0,0,0,0,0,0,0,-1,1805,1219,0,0
588,-195,0,0,0,0,0,0,0,0,0,-1,1812,1219,0,0
595,-195,0,0,0,0,0,0,0,0,0,-1,1819,1219,0,0
602,-195,0,0,0,0,0,0,0,0,0,-1,1826,1219,0,0
609,-195,0,0,0,0,0,0,0,0,0,-1,1833,1219,0,0
616,-195,0,0,0,0,0,0,0,0,0,-1,1840,1219,0,0
623,-195,0,0,0,0,0,0,0,0,0,-1,1847,1219,0,0
630,-195,80.5486,2.16235,0.0020941,-0.00501735,0.000366287,0.00211291,-0.00503617,0.0513256,0.00424098,0.0408851,1854,1219,80.5486,-2.16236
637,-195,80.5494,2.11719,0.00157394,-0.0026142,-2.58566e-05,0.0015741,-0.00261436,-0.00617347,0.00244294,0.0404353,1861,1219,80.5494,-2.11719
644,-195,80.4868,2.12488,0.00125866,-0.000463737,-0.000678915,0.00149409,-0.000699164,-0.333794,0.0012937,0.0368214,1868,1219,80.4868,-2.1249
651,-195,80.4928,2.15991,0.00110013,0.0013299,-0.00142737,0.002647,-0.000216969,-0.825554,0.00184125,0.0281809,1875,1219,80.4928,-2.15988
658,-195,80.5261,2.19604,0.000824137,0.00243491,-0.00159756,0.00341861,-0.000159568,-1.01887,0.00233408,0.0247631,1882,1219,80.5262,-2.19604
665,-195,80.5214,2.17126,0.000461069,0.00282709,-0.00128099,0.00338777,-9.96084e-05,-1.15823,0.00229244,0.0246695,1889,1219,80.5213,-2.17131
672,-195,80.4407,1.84363,0.000314194,0.00317553,-0.000967051,0.00347171,1.80162e-05,-1.2736,0.00230849,0.0418737,1896,1219,80.4407,-1.84366
679,-195,80.2627,1.41028,0,0,0,0,0,0,0,-1,1903,1219,80.2627,-1.41031
686,-195,51.2117,1.94312,0,0,0,0,0,0,0,-1,1910,1219,51.2117,-1.9431
693,-195,24.4368,5.68298,0,0,0,0,0,0,0,-1,1917,1219,24.4368,-5.68293
700,-195,65.0161,13.6812,0,0,0,0,0,0,0,-1,1924,1219,65.0161,-13.6811
707,-195,65.0206,12.8478,0,0,0,0,0,0,0,-1,1931,1219,65.0206,-12.8478
714,-195,65.0234,12.5491,0,0,0,0,0,0,0,-1,1938,1219,65.0234,-12.5491
721,-195,64.657,11.4285,0,0,0,0,0,0,0,-1,1945,1219,64.657,-11.4284
728,-195,64.736,10.5054,0.000800008,0.00293308,0.000877886,0.00324791,0.000485174,1.22646,0.00202304,0.0139604,1952,1219,64.736,-10.5054
735,-195,64.7211,9.62463,0.000890535,0.00287671,0.00112937,0.00338752,0.000379727,1.14604,0.00214301,0.0137604,1959,1219,64.7211,-9.6246
742,-195,64.6851,8.86584,0.000953014,0.00254838,0.0012058,0.00319647,0.000304922,1.07762,0.00203696,0.0146101,1966,1219,64.685,-8.86583
749,-195,64.6594,8.12524,0.00122547,0.00313675,0.000773274,0.00341042,0.000951801,1.23064,0.00203206,0.0161206,1973,1219,64.6594,-8.12522
756,-195,64.6322,7.37769,0.00172534,0.00443299,-9.50259e-06,0.00443302,0.00172531,-1.56729,0.00258027,0.0159891,1980,1219,64.6322,-7.37768
763,-195,64.6047,6.5072,0.00262425,0.00707851,-0.0015689,0.00757564,0.00212713,-1.26394,0.00451174,0.0232213,1987,1219,64.6047,-6.50715
770,-195,64.373,5.71619,0,0,0,0,0,0,0,-1,1994,1219,64.373,-5.71621
777,-195,64.2148,5.09753,0,0,0,0,0,0,0,-1,2001,1219,64.2148,-5.09752
784,-195,69.7437,-3.15942,0,0,0,0,0,0,0,-1,2008,1219,69.7437,3.15944
791,-195,68.9104,-1.24268,0,0,0,0,0,0,0,-1,2015,1219,68.9103,1.24264
798,-195,66.05,2.49902,0,0,0,0,0,0,0,-1,2022,1219,66.0501,-2.499
805,-195,0,0,0,0,0,0,0,0,0,-1,2029,1219,0,0
812,-195,0,0,0,0,0,0,0,0,0,-1,2036,1219,0,0
-700,-202,0,0,0,0,0,0,0,0,0,-1,524,1226,0,0
-693,-202,0,0,0,0,0,0,0,0,0,-1,531,1226,0,0
-686,-202,0,0,0,0,0,0,0,0,0,-1,538,1226,0,0
-679,-202,-50.252,1.46204,0,0,0,0,0,0,0,-1,545,1226,-50.2521,-1.46206
-672,-202,-49.7662,1.78162,0,0,0,0,0,0,0,-1,552,1226,-49.7662,-1.78168
-665,-202,-49.5333,2.29883,0,0,0,0,0,0,0,-1,559,1226,-49.5332,-2.29888
-658,-202,-49.3003,2.81604,0,0,0,0,0,0,0,-1,566,1226,-49.3003,-2.81608
-651,-202,-58.2099,11.1689,0,0,0,0,0,0,0,-1,573,1226,-58.2099,-11.1689
-644,-202,-46.8824,4.99146,0,0,0,0,0,0,0,-1,580,1226,-46.8824,-4.99145
-637,-202,-46.9765,5.35266,0,0,0,0,0,0,0,-1,587,1226,-46.9765,-5.35271
-630,-202,-47.1348,6.08557,-0.00380458,0.0272882,-0.00582813,0.0283447,-0.00486113,-1.39146,0.0207079,0.0251109,594,1226,-47.1348,-6.08563
-623,-202,-47.1769,6.92151,-0.00344965,0.014184,-0.00381023,0.0149721,-0.00423773,-1.36684,0.0116537,0.00954989,601,1226,-47.1769,-6.9215
-616,-202,-47.2135,7.74536,-0.00305233,0.00511442,-0.00216274,0.00565181,-0.00358971,-1.32726,0.00537968,0.00878895,608,1226,-47.2135,-7.74533
-609,-202,-47.205,8.56824,-0.00310141,0.000519021,-0.00108507,0.000819316,-0.0034017,-1.3008,0.00258456,0.0228502,615,1226,-47.205,-8.56828
-602,-202,-47.2886,9.33167,-0.00364194,-0.00111025,-0.000770444,-0.000894218,-0.00385797,-1.29742,0.00233178,0.0240417,622,1226,-47.2886,-9.33166
-595,-202,-47.5918,10.3114,-0.00391649,-0.00147496,-0.00106784,-0.00107382,-0.00431762,-1.21146,0.0025956,0.0413753,629,1226,-47.5918,-10.3114
-588,-202,-47.6164,11.0099,0,0,0,0,0,0,0,-1,636,1226,-47.6164,-11.0098
-581,-202,-47.5237,11.684,0,0,0,0,0,0,0,-1,643,1226,-47.5237,-11.6839
-574,-202,-47.6211,12.4293,0,0,0,0,0,0,0,-1,650,1226,-47.6211,-12.4293
-567,-202,-22.1768,4.56995,0,0,0,0,0,0,0,-1,657,1226,-22.1768,-4.56991
-560,-202,-10.929,2.73096,0,0,0,0,0,0,0,-1,664,1226,-10.929,-2.73092
-553,-202,-30.2701,1.474,0,0,0,0,0,0,0,-1,671,1226,-30.2701,-1.47395
-546,-202,-53.2803,0.580933,0,0,0,0,0,0,0,-1,678,1226,-53.2803,-0.580945
-539,-202,-63.2584,0.447998,0,0,0,0,0,0,0,-1,685,1226,-63.2584,-0.447969
-532,-202,-63.3368,0.308716,-0.000702228,-0.00280392,-0.0022162,0.000699646,-0.00420579,-0.564015,0.00306382,0.0297926,692,1226,-63.3368,-0.308719
-525,-202,-63.3459,0.285522,-0.000196737,-0.0025187,-0.00105636,0.000211923,-0.00292736,-0.369125,0.00202591,0.0328321,699,1226,-63.3459,-0.285568
-518,-202,-63.2689,0.519653,-6.32955e-05,-0.00152531,0.000506586,9.50794e-05,-0.00168369,0.303005,0.00115546,0.0397044,706,1226,-63.2689,-0.519708
-511,-202,-63.2782,0.581299,1.9371e-06,-0.000438076,0.00271531,0.00250614,-0.00294228,0.744974,0.00314901,0.0432571,713,1226,-63.2782,-0.581345
-504,-202,0,0,0,0,0,0,0,0,0,-1,720,1226,0,0
-497,-202,0,0,0,0,0,0,0,0,0,-1,727,1226,0,0
-490,-202,0,0,0,0,0,0,0,0,0,-1,734,1226,0,0
-483,-202,0,0,0,0,0,0,0,0,0,-1,741,1226,0,0
-476,-202,0,0,0,0,0,0,0,0,0,-1,748,1226,0,0
-469,-202,0,0,0,0,0,0,0,0,0,-1,755,1226,0,0
-462,-202,0,0,0,0,0,0,0,0,0,-1,762,1226,0,0
-455,-202,0,0,0,0,0,0,0,0,0,-1,769,1226,0,0
-448,-202,0,0,0,0,0,0,0,0,0,-1,776,1226,0,0
-441,-202,0,0,0,0,0,0,0,0,0,-1,783,1226,0,0
-434,-202,0,0,0,0,0,0,0,0,0,-1,790,1226,0,0
-427,-202,0,0,0,0,0,0,0,0,0,-1,797,1226,0,0
-420,-202,0,0,0,0,0,0,0,0,0,-1,804,1226,0,0
-413,-202,0,0,0,0,0,0,0,0,0,-1,811,1226,0,0
-406,-202,0,0,0,0,0,0,0,0,0,-1,818,1226,0,0
-399,-202,0,0,0,0,0,0,0,0,0,-1,825,1226,0,0
-392,-202,0,0,0,0,0,0,0,0,0,-1,832,1226,0,0
-385,-202,0,0,0,0,0,0,0,0,0,-1,839,1226,0,0
-378,-202,0,0,0,0,0,0,0,0,0,-1,846,1226,0,0
-371,-202,0,0,0,0,0,0,0,0,0,-1,853,1226,0,0
-364,-202,0,0,0,0,0,0,0,0,0,-1,860,1226,0,0
-357,-202,0,0,0,0,0,0,0,0,0,-1,867,1226,0,0
-350,-202,0,0,0,0,0,0,0,0,0,-1,874,1226,0,0
-343,-202,0,0,0,0,0,0,0,0,0,-1,881,1226,0,0
-336,-202,0,0,0,0,0,0,0,0,0,-1,888,1226,0,0
-329,-202,0,0,0,0,0,0,0,0,0,-1,895,1226,0,0
-322,-202,0,0,0,0,0,0,0,0,0,-1,902,1226,0,0
-315,-202,0,0,0,0,0,0,0,0,0,-1,909,1226,0,0
-308,-202,0,0,0,0,0,0,0,0,0,-1,916,1226,0,0
-301,-202,0,0,0,0,0,0,0,0,0,-1,923,1226,0,0
-294,-202,0,0,0,0,0,0,0,0,0,-1,930,1226,0,0
-287,-202,0,0,0,0,0,0,0,0,0,-1,937,1226,0,0
-280,-202,0,0,0,0,0,0,0,0,0,-1,944,1226,0,0
-273,-202,0,0,0,0,0,0,0,0,0,-1,951,1226,0,0
-266,-202,0,0,0,0,0,0,0,0,0,-1,958,1226,0,0
-259,-202,0,0,0,0,0,0,0,0,0,-1,965,1226,0,0
-252,-202,0,0,0,0,0,0,0,0,0,-1,972,1226,0,0
-245,-202,0,0,0,0,0,0,0,0,0,-1,979,1226,0,0
-238,-202,0,0,0,0,0,0,0,0,0,-1,986,1226,0,0
-231,-202,0,0,0,0,0,0,0,0,0,-1,993,1226,0,0
-224,-202,0,0,0,0,0,0,0,0,0,-1,1000,1226,0,0
-217,-202,0,0,0,0,0,0,0,0,0,-1,1007,1226,0,0
-210,-202,0,0,0,0,0,0,0,0,0,-1,1014,1226,0,0
-203,-202,0,0,0,0,0,0,0,0,0,-1,1021,1226,0,0
-196,-202,0,0,0,0,0,0,0,0,0,-1,1028,1226,0,0
-189,-202,0,0,0,0,0,0,0,0,0,-1,1035,1226,0,0
-182,-202,0,0,0,0,0,0,0,0,0,-1,1042,1226,0,0
-175,-202,0,0,0,0,0,0,0,0,0,-1,1049,1226,0,0
-168,-202,0,0,0,0,0,0,0,0,0,-1,1056,1226,0,0
-161,-202,0,0,0,0,0,0,0,0,0,-1,1063,1226,0,0
-154,-202,0,0,0,0,0,0,0,0,0,-1,1070,1226,0,0
-147,-202,0,0,0,0,0,0,0,0,0,-1,1077,1226,0,0
-140,-202,0,0,0,0,0,0,0,0,0,-1,1084,1226,0,0
-133,-202,0,0,0,0,0,0,0,0,0,-1,1091,1226,0,0
-126,-202,0,0,0,0,0,0,0,0,0,-1,1098,1226,0,0
-119,-202,0,0,0,0,0,0,0,0,0,-1,1105,1226,0,0
-112,-202,0,0,0,0,0,0,0,0,0,-1,1112,1226,0,0
-105,-202,0,0,0,0,0,0,0,0,0,-1,1119,1226,0,0
-98,-202,0,0,0,0,0,0,0,0,0,-1,1126,1226,0,0
-91,-202,0,0,0,0,0,0,0,0,0,-1,1133,1226,0,0
-84,-202,0,0,0,0,0,0,0,0,0,-1,1140,1226,0,0
-77,-202,0,0,0,0,0,0,0,0,0,-1,1147,1226,0,0
-70,-202,0,0,0,0,0,0,0,0,0,-1,1154,1226,0,0
-63,-202,0,0,0,0,0,0,0,0,0,-1,1161,1226,0,0
-56,-202,0,0,0,0,0,0,0,0,0,-1,1168,1226,0,0
-49,-202,0,0,0,0,0,0,0,0,0,-1,1175,1226,0,0
-42,-202,0,0,0,0,0,0,0,0,0,-1,1182,1226,0,0
-35,-202,0,0,0,0,0,0,0,0,0,-1,1189,1226,0,0
-28,-202,0,0,0,0,0,0,0,0,0,-1,1196,1226,0,0
-21,-202,0,0,0,0,0,0,0,0,0,-1,1203,1226,0,0
-14,-202,0,0,0,0,0,0,0,0,0,-1,1210,1226,0,0
-7,-202,0,0,0,0,0,0,0,0,0,-1,1217,1226,0,0
0,-202,0,0,0,0,0,0,0,0,0,-1,1224,1226,0,0
7,-202,0,0,0,0,0,0,0,0,0,-1,1231,1226,0,0
14,-202,0,0,0,0,0,0,0,0,0,-1,1238,1226,0,0
21,-202,0,0,0,0,0,0,0,0,0,-1,1245,1226,0,0
28,-202,0,0,0,0,0,0,0,0,0,-1,1252,1226,0,0
35,-202,0,0,0,0,0,0,0,0,0,-1,1259,1226,0,0
42,-202,0,0,0,0,0,0,0,0,0,-1,1266,1226,0,0
49,-202,0,0,0,0,0,0,0,0,0,-1,1273,1226,0,0
56,-202,0,0,0,0,0,0,0,0,0,-1,1280,1226,0,0
63,-202,0,0,0,0,0,0,0,0,0,-1,1287,1226,0,0
70,-202,0,0,0,0,0,0,0,0,0,-1,1294,1226,0,0
77,-202,0,0,0,0,0,0,0,0,0,-1,1301,1226,0,0
84,-202,0,0,0,0,0,0,0,0,0,-1,1308,1226,0,0
91,-202,0,0,0,0,0,0,0,0,0,-1,1315,1226,0,0
98,-202,0,0,0,0,0,0,0,0,0,-1,1322,1226,0,0
105,-202,0,0,0,0,0,0,0,0,0,-1,1329,1226,0,0
112,-202,0,0,0,0,0,0,0,0,0,-1,1336,1226,0,0
119,-202,0,0,0,0,0,0,0,0,0,-1,1343,1226,0,0
126,-202,0,0,0,0,0,0,0,0,0,-1,1350,1226,0,0
133,-202,0,0,0,0,0,0,0,0,0,-1,1357,1226,0,0
140,-202,0,0,0,0,0,0,0,0,0,-1,1364,1226,0,0
147,-202,0,0,0,0,0,0,0,0,0,-1,1371,1226,0,0
154,-202,0,0,0,0,0,0,0,0,0,-1,1378,1226,0,0
161,-202,0,0,0,0,0,0,0,0,0,-1,1385,1226,0,0
168,-202,0,0,0,0,0,0,0,0,0,-1,1392,1226,0,0
175,-202,0,0,0,0,0,0,0,0,0,-1,1399,1226,0,0
182,-202,0,0,0,0,0,0,0,0,0,-1,1406,1226,0,0
189,-202,0,0,0,0,0,0,0,0,0,-1,1413,1226,0,0
196,-202,0,0,0,0,0,0,0,0,0,-1,1420,1226,0,0
203,-202,0,0,0,0,0,0,0,0,0,-1,1427,1226,0,0
210,-202,0,0,0,0,0,0,0,0,0,-1,1434,1226,0,0
217,-202,0,0,0,0,0,0,0,0,0,-1,1441,1226,0,0
224,-202,0,0,0,0,0,0,0,0,0,-1,1448,1226,0,0
231,-202,0,0,0,0,0,0,0,0,0,-1,1455,1226,0,0
238,-202,0,0,0,0,0,0,0,0,0,-1,1462,1226,0,0
245,-202,0,0,0,0,0,0,0,0,0,-1,1469,1226,0,0
252,-202,0,0,0,0,0,0,0,0,0,-1,1476,1226,0,0
259,-202,0,0,0,0,0,0,0,0,0,-1,1483,1226,0,0
266,-202,0,0,0,0,0,0,0,0,0,-1,1490,1226,0,0
273,-202,0,0,0,0,0,0,0,0,0,-1,1497,1226,0,0
280,-202,0,0,0,0,0,0,0,0,0,-1,1504,1226,0,0
287,-202,0,0,0,0,0,0,0,0,0,-1,1511,1226,0,0
294,-202,0,0,0,0,0,0,0,0,0,-1,1518,1226,0,0
301,-202,0,0,0,0,0,0,0,0,0,-1,1525,1226,0,0
308,-202,0,0,0,0,0,0,0,0,0,-1,1532,1226,0,0
315,-202,0,0,0,0,0,0,0,0,0,-1,1539,1226,0,0
322,-202,0,0,0,0,0,0,0,0,0,-1,1546,1226,0,0
329,-202,0,0,0,0,0,0,0,0,0,-1,1553,1226,0,0
336,-202,0,0,0,0,0,0,0,0,0,-1,1560,1226,0,0
343,-202,0,0,0,0,0,0,0,0,0,-1,1567,1226,0,0
350,-202,0,0,0,0,0,0,0,0,0,-1,1574,1226,0,0
357,-202,0,0,0,0,0,0,0,0,0,-1,1581,1226,0,0
364,-202,0,0,0,0,0,0,0,0,0,-1,1588,1226,0,0
371,-202,0,0,0,0,0,0,0,0,0,-1,1595,1226,0,0
378,-202,0,0,0,0,0,0,0,0,0,-1,1602,1226,0,0
385,-202,0,0,0,0,0,0,0,0,0,-1,1609,1226,0,0
392,-202,0,0,0,0,0,0,0,0,0,-1,1616,1226,0,0
399,-202,0,0,0,0,0,0,0,0,0,-1,1623,1226,0,0
406,-202,0,0,0,0,0,0,0,0,0,-1,1630,1226,0,0
413,-202,0,0,0,0,0,0,0,0,0,-1,1637,1226,0,0
420,-202,0,0,0,0,0,0,0,0,0,-1,1644,1226,0,0
427,-202,0,0,0,0,0,0,0,0,0,-1,1651,1226,0,0
434,-202,0,0,0,0,0,0,0,0,0,-1,1658,1226,0,0
441,-202,0,0,0,0,0,0,0,0,0,-1,1665,1226,0,0
448,-202,0,0,0,0,0,0,0,0,0,-1,1672,1226,0,0
455,-202,0,0,0,0,0,0,0,0,0,-1,1679,1226,0,0
462,-202,0,0,0,0,0,0,0,0,0,-1,1686,1226,0,0
469,-202,0,0,0,0,0,0,0,0,0,-1,1693,1226,0,0
476,-202,0,0,0,0,0,0,0,0,0,-1,1700,1226,0,0
483,-202,0,0,0,0,0,0,0,0,0,-1,1707,1226,0,0
490,-202,0,0,0,0,0,0,0,0,0,-1,1714,1226,0,0
497,-202,0,0,0,0,0,0,0,0,0,-1,1721,1226,0,0
504,-202,0,0,0,0,0,0,0,0,0,-1,1728,1226,0,0
511,-202,0,0,0,0,0,0,0,0,0,-1,1735,1226,0,0
518,-202,0,0,0,0,0,0,0,0,0,-1,1742,1226,0,0
525,-202,0,0,0,0,0,0,0,0,0,-1,1749,1226,0,0
532,-202,0,0,0,0,0,0,0,0,0,-1,1756,1226,0,0
539,-202,0,0,0,0,0,0,0,0,0,-1,1763,1226,0,0
546,-202,0,0,0,0,0,0,0,0,0,-1,1770,1226,0,0
553,-202,0,0,0,0,0,0,0,0,0,-1,1777,1226,0,0
560,-202,0,0,0,0,0,0,0,0,0,-1,1784,1226,0,0
567,-202,0,0,0,0,0,0,0,0,0,-1,1791,1226,0,0
574,-202,0,0,0,0,0,0,0,0,0,-1,1798,1226,0,0
581,-202,0,0,0,0,0,0,0,0,0,-1,1805,1226,0,0
588,-202,0,0,0,0,0,0,0,0,0,-1,1812,1226,0,0
595,-202,0,0,0,0,0,0,0,0,0,-1,1819,1226,0,0
602,-202,0,0,0,0,0,0,0,0,0,-1,1826,1226,0,0
609,-202,0,0,0,0,0,0,0,0,0,-1,1833,1226,0,0
616,-202,0,0,0,0,0,0,0,0,0,-1,1840,1226,0,0
623,-202,0,0,0,0,0,0,0,0,0,-1,1847,1226,0,0
630,-202,80.4828,2.18652,0.00214303,-0.00431679,-0.000242138,0.00215209,-0.00432585,-0.0374137,0.00380959,0.0367028,1854,1226,80.4827,-2.18654
637,-202,80.575,2.13257,0.0015431,-0.00178608,-0.000642993,0.00166297,-0.00190595,-0.184311,0.00206211,0.035283,1861,1226,80.575,-2.13257
644,-202,80.5602,2.14209,0.0011418,0.000437317,-0.00123678,0.00207552,-0.000496401,-0.646668,0.00157544,0.0332636,1868,1226,80.5602,-2.14206
651,-202,80.5826,2.19971,0.000909794,0.00201619,-0.00176037,0.00330824,-0.000382254,-0.937638,0.00234333,0.0270269,1875,1226,80.5826,-2.19975
658,-202,80.5459,2.17993,0.000596743,0.00273273,-0.00157904,0.00357103,-0.000241562,-1.08274,0.00246516,0.0225164,1882,1226,80.5459,-2.17992
665,-202,80.5842,2.13232,0.000257636,0.00279926,-0.00109208,0.00320404,-0.000147143,-1.21585,0.00218672,0.0225729,1889,1226,80.5842,-2.1323
672,-202,80.693,2.11401,0,0,0,0,0,0,0,-1,1896,1226,80.693,-2.11397
679,-202,72.3511,2.32935,0,0,0,0,0,0,0,-1,1903,1226,72.3511,-2.32932
686,-202,49.1708,2.15198,0,0,0,0,0,0,0,-1,1910,1226,49.1708,-2.15195
693,-202,52.1176,12.0886,0,0,0,0,0,0,0,-1,1917,1226,52.1176,-12.0886
700,-202,64.1906,13.6802,0,0,0,0,0,0,0,-1,1924,1226,64.1905,-13.6801
707,-202,64.1322,12.7787,0.00030631,0.00251587,-0.000122863,0.00252268,0.0002995,-1.51542,0.00159137,0.0340559,1931,1226,64.1323,-12.7787
714,-202,64.0135,12.1724,0.000154212,0.00290793,7.31014e-05,0.00290987,0.000152273,1.54427,0.0018912,0.0428632,1938,1226,64.0135,-12.1724
721,-202,63.9781,11.4836,-1.88269e-05,0.00324194,0.000677365,0.00337705,-0.000153939,1.37391,0.0023044,0.032132,1945,1226,63.9782,-11.4837
728,-202,63.9808,10.514,0.000346326,0.00255298,0.00114154,0.00303725,-0.000137937,1.16959,0.00207234,0.0124532,1952,1226,63.9808,-10.5141
735,-202,63.9363,9.70044,0.000363995,0.00234895,0.00138646,0.00306155,-0.000348602,1.09604,0.0021666,0.0119047,1959,1226,63.9363,-9.7004
742,-202,63.8704,8.90076,0.000412436,0.00197801,0.00157061,0.00295009,-0.000559644,1.01658,0.00217738,0.0127013,1966,1226,63.8704,-8.90081
749,-202,63.802,8.13501,0.000655744,0.00236963,0.00144001,0.00318838,-0.000163013,1.0538,0.00218196,0.0143871,1973,1226,63.8019,-8.13502
756,-202,63.8021,7.37537,0.00108583,0.00326821,0.00115202,0.00376379,0.000590249,1.16454,0.00233742,0.0141627,1980,1226,63.8021,-7.37536
763,-202,63.8767,6.57471,0.00187494,0.00538424,0.000358578,0.00542051,0.00183867,1.47001,0.00318302,0.0281148,1987,1226,63.8768,-6.5747
770,-202,63.9231,5.82764,0,0,0,0,0,0,0,-1,1994,1226,63.9232,-5.82761
777,-202,67.5615,-0.236572,0,0,0,0,0,0,0,-1,2001,1226,67.5615,0.236573
784,-202,66.7117,0.754517,0,0,0,0,0,0,0,-1,2008,1226,66.7118,-0.754543
791,-202,66.512,1.74207,0,0,0,0,0,0,0,-1,2015,1226,66.512,-1.74201
798,-202,51.8999,3.58789,0,0,0,0,0,0,0,-1,2022,1226,51.9,-3.58791
805,-202,0,0,0,0,0,0,0,0,0,-1,2029,1226,0,0
812,-202,0,0,0,0,0,0,0,0,0,-1,2036,1226,0,0
-700,-209,0,0,0,0,0,0,0,0,0,-1,524,1233,0,0
-693,-209,0,0,0,0,0,0,0,0,0,-1,531,1233,0,0
-686,-209,0,0,0,0,0,0,0,0,0,-1,538,1233,0,0
-679,-209,-49.6335,0.689209,0,0,0,0,0,0,0,-1,545,1233,-49.6335,-0.689193
-672,-209,-64.1638,5.7395,0,0,0,0,0,0,0,-1,552,1233,-64.1638,-5.73952
-665,-209,-48.448,1.49963,0,0,0,0,0,0,0,-1,559,1233,-48.448,-1.49966
-658,-209,-60.2764,8.84106,0,0,0,0,0,0,0,-1,566,1233,-60.2764,-8.84111
-651,-209,-58.6279,10.6505,0,0,0,0,0,0,0,-1,573,1233,-58.6279,-10.6505
-644,-209,-43.4648,-7.04663,0,0,0,0,0,0,0,-1,580,1233,-43.4648,7.04659
-637,-209,-46.0529,5.25439,0,0,0,0,0,0,0,-1,587,1233,-46.0529,-5.25442
-630,-209,-46.1187,6.08301,-0.00269617,0.0264304,-0.00673871,0.0279139,-0.00417967,-1.35411,0.0201476,0.0435877,594,1233,-46.1187,-6.08306
-623,-209,-46.3149,6.97034,-0.00251106,0.0137515,-0.00420252,0.0147733,-0.00353286,-1.33228,0.0112136,0.0180129,601,1233,-46.3149,-6.97034
-616,-209,-46.3791,7.79797,-0.00225861,0.00526218,-0.00220019,0.00585855,-0.00285498,-1.3061,0.00512942,0.0128312,608,1233,-46.3791,-7.79795
-609,-209,-46.4175,8.60315,-0.00240113,0.000788499,-0.00105812,0.0011076,-0.00272023,-1.2779,0.00227443,0.0153384,615,1233,-46.4175,-8.60309
-602,-209,-46.4849,9.40198,-0.00294692,-0.00112041,-0.000616035,-0.000932055,-0.00313527,-1.27408,0.00185908,0.0178046,622,1233,-46.4849,-9.40193
-595,-209,-46.5674,10.2875,-0.00337838,-0.00177874,-0.000712021,-0.00150773,-0.00364939,-1.2071,0.00211755,0.0279617,629,1233,-46.5674,-10.2874
-588,-209,-46.5924,11.1106,0,0,0,0,0,0,0,-1,636,1233,-46.5924,-11.1106
-581,-209,-46.4968,11.8457,0,0,0,0,0,0,0,-1,643,1233,-46.4967,-11.8457
-574,-209,-46.5352,12.6223,0,0,0,0,0,0,0,-1,650,1233,-46.5352,-12.6223
-567,-209,-46.5004,13.424,0,0,0,0,0,0,0,-1,657,1233,-46.5004,-13.4239
-560,-209,-13.9294,4.16626,0,0,0,0,0,0,0,-1,664,1233,-13.9294,-4.16621
-553,-209,-22.7542,0.748779,0,0,0,0,0,0,0,-1,671,1233,-22.7541,-0.748796
-546,-209,-44.691,0.142822,0,0,0,0,0,0,0,-1,678,1233,-44.6911,-0.142844
-539,-209,-63.0048,0.367065,0,0,0,0,0,0,0,-1,685,1233,-63.0048,-0.367101
-532,-209,-63.1746,0.390869,-0.00159549,-0.00383245,-0.00192908,-0.000484087,-0.00494384,-0.522681,0.00314697,0.0429113,692,1233,-63.1746,-0.390847
-525,-209,-63.3712,0.459595,-0.00157866,-0.00365815,-0.00127702,-0.000971639,-0.00426517,-0.443729,0.00258126,0.0334298,699,1233,-63.3712,-0.459645
-518,-209,-63.3483,0.480103,-0.0014537,-0.00254736,-0.000378485,-0.00133549,-0.00266557,-0.302716,0.00153897,0.0422012,706,1233,-63.3483,-0.480117
-511,-209,-63.3074,0.426758,-0.000963674,-0.00124074,0.00132965,0.000234635,-0.00243905,0.733491,0.00170962,0.0447202,713,1233,-63.3074,-0.426752
-504,-209,0,0,0,0,0,0,0,0,0,-1,720,1233,0,0
-497,-209,0,0,0,0,0,0,0,0,0,-1,727,1233,0,0
-490,-209,0,0,0,0,0,0,0,0,0,-1,734,1233,0,0
-483,-209,0,0,0,0,0,0,0,0,0,-1,741,1233,0,0
-476,-209,0,0,0,0,0,0,0,0,0,-1,748,1233,0,0
-469,-209,0,0,0,0,0,0,0,0,0,-1,755,1233,0,0
-462,-209,0,0,0,0,0,0,0,0,0,-1,762,1233,0,0
-455,-209,0,0,0,0,0,0,0,0,0,-1,769,1233,0,0
-448,-209,0,0,0,0,0,0,0,0,0,-1,776,1233,0,0
-441,-209,0,0,0,0,0,0,0,0,0,-1,783,1233,0,0
-434,-209,0,0,0,0,0,0,0,0,0,-1,790,1233,0,0
-427,-209,0,0,0,0,0,0,0,0,0,-1,797,1233,0,0
-420,-209,0,0,0,0,0,0,0,0,0,-1,804,1233,0,0
-413,-209,0,0,0,0,0,0,0,0,0,-1,811,1233,0,0
-406,-209,0,0,0,0,0,0,0,0,0,-1,818,1233,0,0
-399,-209,0,0,0,0,0,0,0,0,0,-1,825,1233,0,0
-392,-209,0,0,0,0,0,0,0,0,0,-1,832,1233,0,0
-385,-209,0,0,0,0,0,0,0,0,0,-1,839,1233,0,0
-378,-209,0,0,0,0,0,0,0,0,0,-1,846,1233,0,0
-371,-209,0,0,0,0,0,0,0,0,0,-1,853,1233,0,0
-364,-209,0,0,0,0,0,0,0,0,0,-1,860,1233,0,0
-357,-209,0,0,0,0,0,0,0,0,0,-1,867,1233,0,0
-350,-209,0,0,0,0,0,0,0,0,0,-1,874,1233,0,0
-343,-209,0,0,0,0,0,0,0,0,0,-1,881,1233,0,0
-336,-209,0,0,0,0,0,0,0,0,0,-1,888,1233,0,0
-329,-209,0,0,0,0,0,0,0,0,0,-1,895,1233,0,0
-322,-209,0,0,0,0,0,0,0,0,0,-1,902,1233,0,0
-315,-209,0,0,0,0,0,0,0,0,0,-1,909,1233,0,0
-308,-209,0,0,0,0,0,0,0,0,0,-1,916,1233,0,0
-301,-209,0,0,0,0,0,0,0,0,0,-1,923,1233,0,0
-294,-209,0,0,0,0,0,0,0,0,0,-1,930,1233,0,0
-287,-209,0,0,0,0,0,0,0,0,0,-1,937,1233,0,0
-280,-209,0,0,0,0,0,0,0,0,0,-1,944,1233,0,0
-273,-209,0,0,0,0,0,0,0,0,0,-1,951,1233,0,0
-266,-209,0,0,0,0,0,0,0,0,0,-1,958,1233,0,0
-259,-209,0,0,0,0,0,0,0,0,0,-1,965,1233,0,0
-252,-209,0,0,0,0,0,0,0,0,0,-1,972,1233,0,0
-245,-209,0,0,0,0,0,0,0,0,0,-1,979,1233,0,0
-238,-209,0,0,0,0,0,0,0,0,0,-1,986,1233,0,0
-231,-209,0,0,0,0,0,0,0,0,0,-1,993,1233,0,0
-224,-209,0,0,0,0,0,0,0,0,0,-1,1000,1233,0,0
-217,-209,0,0,0,0,0,0,0,0,0,-1,1007,1233,0,0
-210,-209,0,0,0,0,0,0,0,0,0,-1,1014,1233,0,0
-203,-209,0,0,0,0,0,0,0,0,0,-1,1021,1233,0,0
-196,-209,0,0,0,0,0,0,0,0,0,-1,1028,1233,0,0
-189,-209,0,0,0,0,0,0,0,0,0,-1,1035,1233,0,0
-182,-209,0,0,0,0,0,0,0,0,0,-1,1042,1233,0,0
-175,-209,0,0,0,0,0,0,0,0,0,-1,1049,1233,0,0
-168,-209,0,0,0,0,0,0,0,0,0,-1,1056,1233,0,0
-161,-209,0,0,0,0,0,0,0,0,0,-1,1063,1233,0,0
-154,-209,0,0,0,0,0,0,0,0,0,-1,1070,1233,0,0
-147,-209,0,0,0,0,0,0,0,0,0,-1,1077,1233,0,0
-140,-209,0,0,0,0,0,0,0,0,0,-1,1084,1233,0,0
-133,-209,0,0,0,0,0,0,0,0,0,-1,1091,1233,0,0
-126,-209,0,0,0,0,0,0,0,0,0,-1,1098,1233,0,0
-119,-209,0,0,0,0,0,0,0,0,0,-1,1105,1233,0,0
-112,-209,0,0,0,0,0,0,0,0,0,-1,1112,1233,0,0
-105,-209,0,0,0,0,0,0,0,0,0,-1,1119,1233,0,0
-98,-209,0,0,0,0,0,0,0,0,0,-1,1126,1233,0,0
-91,-209,0,0,0,0,0,0,0,0,0,-1,1133,1233,0,0
-84,-209,0,0,0,0,0,0,0,0,0,-1,1140,1233,0,0
-77,-209,0,0,0,0,0,0,0,0,0,-1,1147,1233,0,0
-70,-209,0,0,0,0,0,0,0,0,0,-1,1154,1233,0,0
-63,-209,0,0,0,0,0,0,0,0,0,-1,1161,1233,0,0
-56,-209,0,0,0,0,0,0,0,0,0,-1,1168,1233,0,0
-49,-209,0,0,0,0,0,0,0,0,0,-1,1175,1233,0,0
-42,-209,0,0,0,0,0,0,0,0,0,-1,1182,1233,0,0
-35,-209,0,0,0,0,0,0,0,0,0,-1,1189,1233,0,0
-28,-209,0,0,0,0,0,0,0,0,0,-1,1196,1233,0,0
-21,-209,0,0,0,0,0,0,0,0,0,-1,1203,1233,0,0
-14,-209,0,0,0,0,0,0,0,0,0,-1,1210,1233,0,0
-7,-209,0,0,0,0,0,0,0,0,0,-1,1217,1233,0,0
0,-209,0,0,0,0,0,0,0,0,0,-1,1224,1233,0,0
7,-209,0,0,0,0,0,0,0,0,0,-1,1231,1233,0,0
14,-209,0,0,0,0,0,0,0,0,0,-1,1238,1233,0,0
21,-209,0,0,0,0,0,0,0,0,0,-1,1245,1233,0,0
28,-209,0,0,0,0,0,0,0,0,0,-1,1252,1233,0,0
35,-209,0,0,0,0,0,0,0,0,0,-1,1259,1233,0,0
42,-209,0,0,0,0,0,0,0,0,0,-1,1266,1233,0,0
49,-209,0,0,0,0,0,0,0,0,0,-1,1273,1233,0,0
56,-209,0,0,0,0,0,0,0,0,0,-1,1280,1233,0,0
63,-209,0,0,0,0,0,0,0,0,0,-1,1287,1233,0,0
70,-209,0,0,0,0,0,0,0,0,0,-1,1294,1233,0,0
77,-209,0,0,0,0,0,0,0,0,0,-1,1301,1233,0,0
84,-209,0,0,0,0,0,0,0,0,0,-1,1308,1233,0,0
91,-209,0,0,0,0,0,0,0,0,0,-1,1315,1233,0,0
98,-209,0,0,0,0,0,0,0,0,0,-1,1322,1233,0,0
105,-209,0,0,0,0,0,0,0,0,0,-1,1329,1233,0,0
112,-209,0,0,0,0,0,0,0,0,0,-1,1336,1233,0,0
119,-209,0,0,0,0,0,0,0,0,0,-1,1343,1233,0,0
126,-209,0,0,0,0,0,0,0,0,0,-1,1350,1233,0,0
133,-209,0,0,0,0,0,0,0,0,0,-1,1357,1233,0,0
140,-209,0,0,0,0,0,0,0,0,0,-1,1364,1233,0,0
147,-209,0,0,0,0,0,0,0,0,0,-1,1371,1233,0,0
154,-209,0,0,0,0,0,0,0,0,0,-1,1378,1233,0,0
161,-209,0,0,0,0,0,0,0,0,0,-1,1385,1233,0,0
168,-209,0,0,0,0,0,0,0,0,0,-1,1392,1233,0,0
175,-209,0,0,0,0,0,0,0,0,0,-1,1399,1233,0,0
182,-209,0,0,0,0,0,0,0,0,0,-1,1406,1233,0,0
189,-209,0,0,0,0,0,0,0,0,0,-1,1413,1233,0,0
196,-209,0,0,0,0,0,0,0,0,0,-1,1420,1233,0,0
203,-209,0,0,0,0,0,0,0,0,0,-1,1427,1233,0,0
210,-209,0,0,0,0,0,0,0,0,0,-1,1434,1233,0,0
217,-209,0,0,0,0,0,0,0,0,0,-1,1441,1233,0,0
224,-209,0,0,0,0,0,0,0,0,0,-1,1448,1233,0,0
231,-209,0,0,0,0,0,0,0,0,0,-1,1455,1233,0,0
238,-209,0,0,0,0,0,0,0,0,0,-1,1462,1233,0,0
245,-209,0,0,0,0,0,0,0,0,0,-1,1469,1233,0,0
252,-209,0,0,0,0,0,0,0,0,0,-1,1476,1233,0,0
259,-209,0,0,0,0,0,0,0,0,0,-1,1483,1233,0,0
266,-209,0,0,0,0,0,0,0,0,0,-1,1490,1233,0,0
273,-209,0,0,0,0,0,0,0,0,0,-1,1497,1233,0,0
280,-209,0,0,0,0,0,0,0,0,0,-1,1504,1233,0,0
287,-209,0,0,0,0,0,0,0,0,0,-1,1511,1233,0,0
294,-209,0,0,0,0,0,0,0,0,0,-1,1518,1233,0,0
301,-209,0,0,0,0,0,0,0,0,0,-1,1525,1233,0,0
308,-209,0,0,0,0,0,0,0,0,0,-1,1532,1233,0,0
315,-209,0,0,0,0,0,0,0,0,0,-1,1539,1233,0,0
322,-209,0,0,0,0,0,0,0,0,0,-1,1546,1233,0,0
329,-209,0,0,0,0,0,0,0,0,0,-1,1553,1233,0,0
336,-209,0,0,0,0,0,0,0,0,0,-1,1560,1233,0,0
343,-209,0,0,0,0,0,0,0,0,0,-1,1567,1233,0,0
350,-209,0,0,0,0,0,0,0,0,0,-1,1574,1233,0,0
357,-209,0,0,0,0,0,0,0,0,0,-1,1581,1233,0,0
364,-209,0,0,0,0,0,0,0,0,0,-1,1588,1233,0,0
371,-209,0,0,0,0,0,0,0,0,0,-1,1595,1233,0,0
378,-209,0,0,0,0,0,0,0,0,0,-1,1602,1233,0,0
385,-209,0,0,0,0,0,0,0,0,0,-1,1609,1233,0,0
392,-209,0,0,0,0,0,0,0,0,0,-1,1616,1233,0,0
399,-209,0,0,0,0,0,0,0,0,0,-1,1623,1233,0,0
406,-209,0,0,0,0,0,0,0,0,0,-1,1630,1233,0,0
413,-209,0,0,0,0,0,0,0,0,0,-1,1637,1233,0,0
420,-209,0,0,0,0,0,0,0,0,0,-1,1644,1233,0,0
427,-209,0,0,0,0,0,0,0,0,0,-1,1651,1233,0,0
434,-209,0,0,0,0,0,0,0,0,0,-1,1658,1233,0,0
441,-209,0,0,0,0,0,0,0,0,0,-1,1665,1233,0,0
448,-209,0,0,0,0,0,0,0,0,0,-1,1672,1233,0,0
455,-209,0,0,0,0,0,0,0,0,0,-1,1679,1233,0,0
462,-209,0,0,0,0,0,0,0,0,0,-1,1686,1233,0,0
469,-209,0,0,0,0,0,0,0,0,0,-1,1693,1233,0,0
476,-209,0,0,0,0,0,0,0,0,0,-1,1700,1233,0,0
483,-209,0,0,0,0,0,0,0,0,0,-1,1707,1233,0,0
490,-209,0,0,0,0,0,0,0,0,0,-1,1714,1233,0,0
497,-209,0,0,0,0,0,0,0,0,0,-1,1721,1233,0,0
504,-209,0,0,0,0,0,0,0,0,0,-1,1728,1233,0,0
511,-209,0,0,0,0,0,0,0,0,0,-1,1735,1233,0,0
518,-209,0,0,0,0,0,0,0,0,0,-1,1742,1233,0,0
525,-209,0,0,0,0,0,0,0,0,0,-1,1749,1233,0,0
532,-209,0,0,0,0,0,0,0,0,0,-1,1756,1233,0,0
539,-209,0,0,0,0,0,0,0,0,0,-1,1763,1233,0,0
546,-209,0,0,0,0,0,0,0,0,0,-1,1770,1233,0,0
553,-209,0,0,0,0,0,0,0,0,0,-1,1777,1233,0,0
560,-209,0,0,0,0,0,0,0,0,0,-1,1784,1233,0,0
567,-209,0,0,0,0,0,0,0,0,0,-1,1791,1233,0,0
574,-209,0,0,0,0,0,0,0,0,0,-1,1798,1233,0,0
581,-209,0,0,0,0,0,0,0,0,0,-1,1805,1233,0,0
588,-209,0,0,0,0,0,0,0,0,0,-1,1812,1233,0,0
595,-209,0,0,0,0,0,0,0,0,0,-1,1819,1233,0,0
602,-209,0,0,0,0,0,0,0,0,0,-1,1826,1233,0,0
609,-209,0,0,0,0,0,0,0,0,0,-1,1833,1233,0,0
616,-209,0,0,0,0,0,0,0,0,0,-1,1840,1233,0,0
623,-209,80.4064,2.19873,0.00257994,-0.00654168,-6.82946e-05,0.00258045,-0.00654219,-0.00748656,0.00542999,0.032919,1847,1233,80.4064,-2.19873
630,-209,80.4292,2.04822,0.00173222,-0.00340574,-0.000421152,0.00176652,-0.00344004,-0.0812459,0.00305733,0.0357677,1854,1233,80.4292,-2.04825
637,-209,80.4861,1.98938,0.00109742,-0.000726743,-0.000898771,0.00146584,-0.00109516,-0.389023,0.00148375,0.0349374,1861,1233,80.4861,-1.98937
644,-209,80.5686,2.09766,0.000697042,0.00149128,-0.00148986,0.00263604,-0.000447717,-0.915644,0.00192404,0.0294206,1868,1233,80.5686,-2.09769
651,-209,80.6102,2.20288,0.000513999,0.00268611,-0.00180565,0.00370716,-0.000507049,-1.05615,0.00265663,0.0240407,1875,1233,80.6102,-2.20293
658,-209,80.5945,2.19312,0.000293445,0.0029858,-0.0013982,0.00358054,-0.000301296,-1.16862,0.00249353,0.0219836,1882,1233,80.5945,-2.19309
665,-209,80.7111,2.25598,4.9273e-05,0.00279019,-0.000873923,0.00304513,-0.00020566,-1.28696,0.00210199,0.0406693,1889,1233,80.7111,-2.256
672,-209,80.9233,2.3949,0,0,0,0,0,0,0,-1,1896,1233,80.9234,-2.39489
679,-209,55.2465,2.78674,0,0,0,0,0,0,0,-1,1903,1233,55.2464,-2.78678
686,-209,33.3711,3.89856,0,0,0,0,0,0,0,-1,1910,1233,33.3711,-3.89855
693,-209,60.7567,13.6616,0,0,0,0,0,0,0,-1,1917,1233,60.7567,-13.6616
700,-209,63.3103,13.6229,0,0,0,0,0,0,0,-1,1924,1233,63.3103,-13.6229
707,-209,63.2297,12.8315,2.78741e-05,0.00232198,0.000105942,0.00232687,2.2992e-05,1.52475,0.00154364,0.0355643,1931,1233,63.2297,-12.8316
714,-209,63.1843,12.1063,-0.00014643,0.00270706,0.000355247,0.00275062,-0.000189992,1.44878,0.00190025,0.0245975,1938,1233,63.1844,-12.1064
721,-209,63.246,11.3009,-0.000316887,0.0029788,0.000956386,0.00323622,-0.000574316,1.30786,0.00237221,0.0141805,1945,1233,63.246,-11.3009
728,-209,63.2222,10.5389,-7.4159e-05,0.00224595,0.0013888,0.00289545,-0.00072366,1.13335,0.00221135,0.0139702,1952,1233,63.2222,-10.539
735,-209,63.1653,9.75586,-0.000164722,0.00187791,0.00168741,0.00282902,-0.00111583,1.05754,0.00234806,0.016997,1959,1233,63.1653,-9.75583
742,-209,63.1036,8.93555,-0.000231466,0.00139059,0.00203051,0.00276605,-0.00160693,0.975401,0.00255413,0.0169094,1966,1233,63.1036,-8.93554
749,-209,63.0096,8.15894,-0.000184135,0.00128556,0.00231204,0.00297672,-0.00187529,0.939268,0.00282527,0.0149812,1973,1233,63.0096,-8.15895
756,-209,62.9894,7.40198,-2.43612e-05,0.00144122,0.00261614,0.00342526,-0.0020084,0.921951,0.00317247,0.0141236,1980,1233,62.9894,-7.40194
763,-209,62.9771,6.73486,0.000306082,0.00232072,0.00284698,0.00433333,-0.00170653,0.955435,0.00359537,0.0299351,1987,1233,62.9771,-6.73488
770,-209,63.1221,6.2406,0,0,0,0,0,0,0,-1,1994,1233,63.1221,-6.24061
777,-209,68.0347,-0.36377,0,0,0,0,0,0,0,-1,2001,1233,68.0346,0.363742
784,-209,67.6289,0.771729,0,0,0,0,0,0,0,-1,2008,1233,67.6289,-0.771742
791,-209,67.1841,1.90906,0,0,0,0,0,0,0,-1,2015,1233,67.1841,-1.90909
798,-209,53.6404,3.71179,0,0,0,0,0,0,0,-1,2022,1233,53.6404,-3.71185
805,-209,0,0,0,0,0,0,0,0,0,-1,2029,1233,0,0
812,-209,0,0,0,0,0,0,0,0,0,-1,2036,1233,0,0
-700,-216,0,0,0,0,0,0,0,0,0,-1,524,1240,0,0
-693,-216,0,0,0,0,0,0,0,0,0,-1,531,1240,0,0
-686,-216,0,0,0,0,0,0,0,0,0,-1,538,1240,0,0
-679,-216,-67.3322,2.74817,0,0,0,0,0,0,0,-1,545,1240,-67.3321,-2.74816
-672,-216,-65.1939,4.52673,0,0,0,0,0,0,0,-1,552,1240,-65.1939,-4.52677
-665,-216,-62.9736,6.34985,0,0,0,0,0,0,0,-1,559,1240,-62.9736,-6.34985
-658,-216,-61.016,8.34521,0,0,0,0,0,0,0,-1,566,1240,-61.0159,-8.34516
-651,-216,-59.255,10.1135,0,0,0,0,0,0,0,-1,573,1240,-59.255,-10.1135
-644,-216,-45.6099,1.72839,0,0,0,0,0,0,0,-1,580,1240,-45.6099,-1.72843
-637,-216,-44.3499,5.14063,0,0,0,0,0,0,0,-1,587,1240,-44.3498,-5.14063
-630,-216,-45.1999,6.09253,0,0,0,0,0,0,0,-1,594,1240,-45.1999,-6.0925
-623,-216,-45.4355,7.13977,-0.00110024,0.0126747,-0.00411758,0.0138117,-0.00223722,-1.30138,0.010037,0.0246572,601,1240,-45.4355,-7.13982
-616,-216,-45.5609,7.85583,-0.00118846,0.00499659,-0.00206264,0.00562135,-0.00181322,-1.27669,0.00447611,0.0135931,608,1240,-45.5608,-7.8558
-609,-216,-45.6171,8.66687,-0.00157058,0.000864069,-0.000982707,0.00121122,-0.00191773,-1.23122,0.00182179,0.0138254,615,1240,-45.6171,-8.66687
-602,-216,-45.6579,9.44482,-0.00234848,-0.00116634,-0.000551931,-0.000948715,-0.00256611,-1.19521,0.00149822,0.0141352,622,1240,-45.6579,-9.44482
-595,-216,-45.7247,10.2352,-0.00320969,-0.00200342,-0.000561446,-0.00178254,-0.00343057,-1.19599,0.00198115,0.0230729,629,1240,-45.7247,-10.2352
-588,-216,-45.8204,11.0615,0,0,0,0,0,0,0,-1,636,1240,-45.8204,-11.0615
-581,-216,-45.3167,11.9463,0,0,0,0,0,0,0,-1,643,1240,-45.3167,-11.9463
-574,-216,-45.8644,12.6111,0,0,0,0,0,0,0,-1,650,1240,-45.8644,-12.6111
-567,-216,-45.868,13.364,0,0,0,0,0,0,0,-1,657,1240,-45.868,-13.364
-560,-216,-16.5087,5.4574,0,0,0,0,0,0,0,-1,664,1240,-16.5087,-5.45746
-553,-216,-16.2355,1.22351,0,0,0,0,0,0,0,-1,671,1240,-16.2356,-1.22356
-546,-216,-37.1617,-0.25415,0,0,0,0,0,0,0,-1,678,1240,-37.1618,0.254161
-539,-216,-47.7817,1.47327,0,0,0,0,0,0,0,-1,685,1240,-47.7818,-1.4733
-532,-216,-63.0778,0.478027,0,0,0,0,0,0,0,-1,692,1240,-63.0778,-0.478048
-525,-216,-63.1924,0.450439,-0.00361555,-0.0043165,-0.00177874,-0.00215309,-0.00577896,-0.688127,0.00337241,0.0498878,699,1240,-63.1924,-0.450414
-518,-216,-63.3231,0.468994,-0.00337639,-0.00332308,-0.00157278,-0.00177673,-0.00492274,-0.793872,0.00287856,0.0431491,706,1240,-63.3231,-0.468988
-511,-216,-63.2854,0.343384,-0.00243255,-0.00213773,-0.000527716,-0.00173722,-0.00283305,-0.921595,0.00164958,0.0430901,713,1240,-63.2854,-0.343368
-504,-216,-63.2255,0.250854,-0.000836064,-0.00125858,0.00272245,0.00168331,-0.00377796,0.746677,0.00322945,0.0439754,720,1240,-63.2254,-0.250869
-497,-216,0,0,0,0,0,0,0,0,0,-1,727,1240,0,0
-490,-216,0,0,0,0,0,0,0,0,0,-1,734,1240,0,0
-483,-216,0,0,0,0,0,0,0,0,0,-1,741,1240,0,0
-476,-216,0,0,0,0,0,0,0,0,0,-1,748,1240,0,0
-469,-216,0,0,0,0,0,0,0,0,0,-1,755,1240,0,0
-462,-216,0,0,0,0,0,0,0,0,0,-1,762,1240,0,0
-455,-216,0,0,0,0,0,0,0,0,0,-1,769,1240,0,0
-448,-216,0,0,0,0,0,0,0,0,0,-1,776,1240,0,0
-441,-216,0,0,0,0,0,0,0,0,0,-1,783,1240,0,0
-434,-216,0,0,0,0,0,0,0,0,0,-1,790,1240,0,0
-427,-216,0,0,0,0,0,0,0,0,0,-1,797,1240,0,0
-420,-216,0,0,0,0,0,0,0,0,0,-1,804,1240,0,0
-413,-216,0,0,0,0,0,0,0,0,0,-1,811,1240,0,0
-406,-216,0,0,0,0,0,0,0,0,0,-1,818,1240,0,0
-399,-216,0,0,0,0,0,0,0,0,0,-1,825,1240,0,0
-392,-216,0,0,0,0,0,0,0,0,0,-1,832,1240,0,0
-385,-216,0,0,0,0,0,0,0,0,0,-1,839,1240,0,0
-378,-216,0,0,0,0,0,0,0,0,0,-1,846,1240,0,0
-371,-216,0,0,0,0,0,0,0,0,0,-1,853,1240,0,0
-364,-216,0,0,0,0,0,0,0,0,0,-1,860,1240,0,0
-357,-216,0,0,0,0,0,0,0,0,0,-1,867,1240,0,0
-350,-216,0,0,0,0,0,0,0,0,0,-1,874,1240,0,0
-343,-216,0,0,0,0,0,0,0,0,0,-1,881,1240,0,0
-336,-216,0,0,0,0,0,0,0,0,0,-1,888,1240,0,0
-329,-216,0,0,0,0,0,0,0,0,0,-1,895,1240,0,0
-322,-216,0,0,0,0,0,0,0,0,0,-1,902,1240,0,0
-315,-216,0,0,0,0,0,0,0,0,0,-1,909,1240,0,0
-308,-216,0,0,0,0,0,0,0,0,0,-1,916,1240,0,0
-301,-216,0,0,0,0,0,0,0,0,0,-1,923,1240,0,0
-294,-216,0,0,0,0,0,0,0,0,0,-1,930,1240,0,0
-287,-216,0,0,0,0,0,0,0,0,0,-1,937,1240,0,0
-280,-216,0,0,0,0,0,0,0,0,0,-1,944,1240,0,0
-273,-216,0,0,0,0,0,0,0,0,0,-1,951,1240,0,0
-266,-216,0,0,0,0,0,0,0,0,0,-1,958,1240,0,0
-259,-216,0,0,0,0,0,0,0,0,0,-1,965,1240,0,0
-252,-216,0,0,0,0,0,0,0,0,0,-1,972,1240,0,0
-245,-216,0,0,0,0,0,0,0,0,0,-1,979,1240,0,0
-238,-216,0,0,0,0,0,0,0,0,0,-1,986,1240,0,0
-231,-216,0,0,0,0,0,0,0,0,0,-1,993,1240,0,0
-224,-216,0,0,0,0,0,0,0,0,0,-1,1000,1240,0,0
-217,-216,0,0,0,0,0,0,0,0,0,-1,1007,1240,0,0
-210,-216,0,0,0,0,0,0,0,0,0,-1,1014,1240,0,0
-203,-216,0,0,0,0,0,0,0,0,0,-1,1021,1240,0,0
-196,-216,0,0,0,0,0,0,0,0,0,-1,1028,1240,0,0
-189,-216,0,0,0,0,0,0,0,0,0,-1,1035,1240,0,0
-182,-216,0,0,0,0,0,0,0,0,0,-1,1042,1240,0,0
-175,-216,0,0,0,0,0,0,0,0,0,-1,1049,1240,0,0
-168,-216,0,0,0,0,0,0,0,0,0,-1,1056,1240,0,0
-161,-216,0,0,0,0,0,0,0,0,0,-1,1063,1240,0,0
-154,-216,0,0,0,0,0,0,0,0,0,-1,1070,1240,0,0
-147,-216,0,0,0,0,0,0,0,0,0,-1,1077,1240,0,0
-140,-216,0,0,0,0,0,0,0,0,0,-1,1084,1240,0,0
-133,-216,0,0,0,0,0,0,0,0,0,-1,1091,1240,0,0
-126,-216,0,0,0,0,0,0,0,0,0,-1,1098,1240,0,0
-119,-216,0,0,0,0,0,0,0,0,0,-1,1105,1240,0,0
-112,-216,0,0,0,0,0,0,0,0,0,-1,1112,1240,0,0
-105,-216,0,0,0,0,0,0,0,0,0,-1,1119,1240,0,0
-98,-216,0,0,0,0,0,0,0,0,0,-1,1126,1240,0,0
-91,-216,0,0,0,0,0,0,0,0,0,-1,1133,1240,0,0
-84,-216,0,0,0,0,0,0,0,0,0,-1,1140,1240,0,0
-77,-216,0,0,0,0,0,0,0,0,0,-1,1147,1240,0,0
-70,-216,0,0,0,0,0,0,0,0,0,-1,1154,1240,0,0
-63,-216,0,0,0,0,0,0,0,0,0,-1,1161,1240,0,0
-56,-216,0,0,0,0,0,0,0,0,0,-1,1168,1240,0,0
-49,-216,0,0,0,0,0,0,0,0,0,-1,1175,1240,0,0
-42,-216,0,0,0,0,0,0,0,0,0,-1,1182,1240,0,0
-35,-216,0,0,0,0,0,0,0,0,0,-1,1189,1240,0,0
-28,-216,0,0,0,0,0,0,0,0,0,-1,1196,1240,0,0
-21,-216,0,0,0,0,0,0,0,0,0,-1,1203,1240,0,0
-14,-216,0,0,0,0,0,0,0,0,0,-1,1210,1240,0,0
-7,-216,0,0,0,0,0,0,0,0,0,-1,1217,1240,0,0
0,-216,0,0,0,0,0,0,0,0,0,-1,1224,1240,0,0
7,-216,0,0,0,0,0,0,0,0,0,-1,1231,1240,0,0
14,-216,0,0,0,0,0,0,0,0,0,-1,1238,1240,0,0
21,-216,0,0,0,0,0,0,0,0,0,-1,1245,1240,0,0
28,-216,0,0,0,0,0,0,0,0,0,-1,1252,1240,0,0
35,-216,0,0,0,0,0,0,0,0,0,-1,1259,1240,0,0
42,-216,0,0,0,0,0,0,0,0,0,-1,1266,1240,0,0
49,-216,0,0,0,0,0,0,0,0,0,-1,1273,1240,0,0
56,-216,0,0,0,0,0,0,0,0,0,-1,1280,1240,0,0
63,-216,0,0,0,0,0,0,0,0,0,-1,1287,1240,0,0
70,-216,0,0,0,0,0,0,0,0,0,-1,1294,1240,0,0
77,-216,0,0,0,0,0,0,0,0,0,-1,1301,1240,0,0
84,-216,0,0,0,0,0,0,0,0,0,-1,1308,1240,0,0
91,-216,0,0,0,0,0,0,0,0,0,-1,1315,1240,0,0
98,-216,0,0,0,0,0,0,0,0,0,-1,1322,1240,0,0
105,-216,0,0,0,0,0,0,0,0,0,-1,1329,1240,0,0
112,-216,0,0,0,0,0,0,0,0,0,-1,1336,1240,0,0
119,-216,0,0,0,0,0,0,0,0,0,-1,1343,1240,0,0
126,-216,0,0,0,0,0,0,0,0,0,-1,1350,1240,0,0
133,-216,0,0,0,0,0,0,0,0,0,-1,1357,1240,0,0
140,-216,0,0,0,0,0,0,0,0,0,-1,1364,1240,0,0
147,-216,0,0,0,0,0,0,0,0,0,-1,1371,1240,0,0
154,-216,0,0,0,0,0,0,0,0,0,-1,1378,1240,0,0
161,-216,0,0,0,0,0,0,0,0,0,-1,1385,1240,0,0
168,-216,0,0,0,0,0,0,0,0,0,-1,1392,1240,0,0
175,-216,0,0,0,0,0,0,0,0,0,-1,1399,1240,0,0
182,-216,0,0,0,0,0,0,0,0,0,-1,1406,1240,0,0
189,-216,0,0,0,0,0,0,0,0,0,-1,1413,1240,0,0
196,-216,0,0,0,0,0,0,0,0,0,-1,1420,1240,0,0
203,-216,0,0,0,0,0,0,0,0,0,-1,1427,1240,0,0
210,-216,0,0,0,0,0,0,0,0,0,-1,1434,1240,0,0
217,-216,0,0,0,0,0,0,0,0,0,-1,1441,1240,0,0
224,-216,0,0,0,0,0,0,0,0,0,-1,1448,1240,0,0
231,-216,0,0,0,0,0,0,0,0,0,-1,1455,1240,0,0
238,-216,0,0,0,0,0,0,0,0,0,-1,1462,1240,0,0
245,-216,0,0,0,0,0,0,0,0,0,-1,1469,1240,0,0
252,-216,0,0,0,0,0,0,0,0,0,-1,1476,1240,0,0
259,-216,0,0,0,0,0,0,0,0,0,-1,1483,1240,0,0
266,-216,0,0,0,0,0,0,0,0,0,-1,1490,1240,0,0
273,-216,0,0,0,0,0,0,0,0,0,-1,1497,1240,0,0
280,-216,0,0,0,0,0,0,0,0,0,-1,1504,1240,0,0
287,-216,0,0,0,0,0,0,0,0,0,-1,1511,1240,0,0
294,-216,0,0,0,0,0,0,0,0,0,-1,1518,1240,0,0
301,-216,0,0,0,0,0,0,0,0,0,-1,1525,1240,0,0
308,-216,0,0,0,0,0,0,0,0,0,-1,1532,1240,0,0
315,-216,0,0,0,0,0,0,0,0,0,-1,1539,1240,0,0
322,-216,0,0,0,0,0,0,0,0,0,-1,1546,1240,0,0
329,-216,0,0,0,0,0,0,0,0,0,-1,1553,1240,0,0
336,-216,0,0,0,0,0,0,0,0,0,-1,1560,1240,0,0
343,-216,0,0,0,0,0,0,0,0,0,-1,1567,1240,0,0
350,-216,0,0,0,0,0,0,0,0,0,-1,1574,1240,0,0
357,-216,0,0,0,0,0,0,0,0,0,-1,1581,1240,0,0
364,-216,0,0,0,0,0,0,0,0,0,-1,1588,1240,0,0
371,-216,0,0,0,0,0,0,0,0,0,-1,1595,1240,0,0
378,-216,0,0,0,0,0,0,0,0,0,-1,1602,1240,0,0
385,-216,0,0,0,0,0,0,0,0,0,-1,1609,1240,0,0
392,-216,0,0,0,0,0,0,0,0,0,-1,1616,1240,0,0
399,-216,0,0,0,0,0,0,0,0,0,-1,1623,1240,0,0
406,-216,0,0,0,0,0,0,0,0,0,-1,1630,1240,0,0
413,-216,0,0,0,0,0,0,0,0,0,-1,1637,1240,0,0
420,-216,0,0,0,0,0,0,0,0,0,-1,1644,1240,0,0
427,-216,0,0,0,0,0,0,0,0,0,-1,1651,1240,0,0
434,-216,0,0,0,0,0,0,0,0,0,-1,1658,1240,0,0
441,-216,0,0,0,0,0,0,0,0,0,-1,1665,1240,0,0
448,-216,0,0,0,0,0,0,0,0,0,-1,1672,1240,0,0
455,-216,0,0,0,0,0,0,0,0,0,-1,1679,1240,0,0
462,-216,0,0,0,0,0,0,0,0,0,-1,1686,1240,0,0
469,-216,0,0,0,0,0,0,0,0,0,-1,1693,1240,0,0
476,-216,0,0,0,0,0,0,0,0,0,-1,1700,1240,0,0
483,-216,0,0,0,0,0,0,0,0,0,-1,1707,1240,0,0
490,-216,0,0,0,0,0,0,0,0,0,-1,1714,1240,0,0
497,-216,0,0,0,0,0,0,0,0,0,-1,1721,1240,0,0
504,-216,0,0,0,0,0,0,0,0,0,-1,1728,1240,0,0
511,-216,0,0,0,0,0,0,0,0,0,-1,1735,1240,0,0
518,-216,0,0,0,0,0,0,0,0,0,-1,1742,1240,0,0
525,-216,0,0,0,0,0,0,0,0,0,-1,1749,1240,0,0
532,-216,0,0,0,0,0,0,0,0,0,-1,1756,1240,0,0
539,-216,0,0,0,0,0,0,0,0,0,-1,1763,1240,0,0
546,-216,0,0,0,0,0,0,0,0,0,-1,1770,1240,0,0
553,-216,0,0,0,0,0,0,0,0,0,-1,1777,1240,0,0
560,-216,0,0,0,0,0,0,0,0,0,-1,1784,1240,0,0
567,-216,0,0,0,0,0,0,0,0,0,-1,1791,1240,0,0
574,-216,0,0,0,0,0,0,0,0,0,-1,1798,1240,0,0
581,-216,0,0,0,0,0,0,0,0,0,-1,1805,1240,0,0
588,-216,0,0,0,0,0,0,0,0,0,-1,1812,1240,0,0
595,-216,0,0,0,0,0,0,0,0,0,-1,1819,1240,0,0
602,-216,0,0,0,0,0,0,0,0,0,-1,1826,1240,0,0
609,-216,0,0,0,0,0,0,0,0,0,-1,1833,1240,0,0
616,-216,0,0,0,0,0,0,0,0,0,-1,1840,1240,0,0
623,-216,80.3223,2.46484,0.00207679,-0.00519196,0.000268409,0.00208669,-0.00520186,0.0368594,0.00433427,0.0375427,1847,1240,80.3222,-2.46485
630,-216,80.3738,2.2677,0.000953179,-0.00190651,-0.000251976,0.000975211,-0.00192855,-0.0872174,0.00170634,0.035955,1854,1240,80.3737,-2.26765
637,-216,80.5073,2.11414,6.14805e-05,0.00103266,-0.000835512,0.00151344,-0.000419304,-1.04863,0.00117396,0.0324366,1861,1240,80.5073,-2.11417
644,-216,80.5344,2.19653,-0.00035256,0.00308306,-0.00142257,0.00359563,-0.000865127,-1.22497,0.00273152,0.0262135,1868,1240,80.5344,-2.19658
651,-216,80.5839,2.21472,-0.000352251,0.0036247,-0.00154768,0.00415602,-0.000883565,-1.2401,0.00310736,0.0228677,1875,1240,80.5838,-2.21469
658,-216,80.6383,2.26074,-0.000327561,0.00342081,-0.00105991,0.00369976,-0.000606508,-1.31345,0.00269155,0.0354636,1882,1240,80.6383,-2.26073
665,-216,80.8746,2.43457,0,0,0,0,0,0,0,-1,1889,1240,80.8746,-2.43456
672,-216,68.6339,1.33826,0,0,0,0,0,0,0,-1,1896,1240,68.6339,-1.33828
679,-216,47.3159,3.82703,0,0,0,0,0,0,0,-1,1903,1240,47.316,-3.82708
686,-216,21.5172,6.19458,0,0,0,0,0,0,0,-1,1910,1240,21.5172,-6.19453
693,-216,56.1224,12.7039,0,0,0,0,0,0,0,-1,1917,1240,56.1224,-12.7038
700,-216,62.4711,13.7002,0,0,0,0,0,0,0,-1,1924,1240,62.4711,-13.7002
707,-216,62.6973,12.6646,0,0,0,0,0,0,0,-1,1931,1240,62.6973,-12.6645
714,-216,62.5378,12.0483,-0.00046641,0.00241678,0.000711013,0.00258259,-0.000632215,1.3417,0.00196663,0.0320979,1938,1240,62.5378,-12.0484
721,-216,62.4675,11.369,-0.000676084,0.00254412,0.00130532,0.00300677,-0.00113873,1.23018,0.00247308,0.0141837,1945,1240,62.4675,-11.369
728,-216,62.4642,10.5846,-0.000591891,0.00177471,0.00172166,0.0026805,-0.00149768,1.08647,0.00244428,0.0141033,1952,1240,62.4642,-10.5846
735,-216,62.4584,9.79663,-0.000747441,0.00130765,0.00207883,0.00259903,-0.00203881,1.01493,0.00268416,0.0161897,1959,1240,62.4584,-9.7966
742,-216,62.3427,9.00073,-0.000907311,0.000714812,0.00264607,0.00267133,-0.00286383,0.93411,0.00319637,0.0177081,1966,1240,62.3426,-9.00078
749,-216,62.2583,8.20642,-0.00103804,0.000144176,0.00341995,0.00302372,-0.00391759,0.870974,0.00401863,0.0133855,1973,1240,62.2583,-8.20646
756,-216,62.2115,7.43201,-0.00111633,-0.000407303,0.00445701,0.00370927,-0.00523291,0.825085,0.00518769,0.0125613,1980,1240,62.2115,-7.43195
763,-216,62.1924,6.74487,-0.00124378,-0.000837587,0.00607369,0.0050364,-0.00711777,0.802111,0.00705142,0.0249841,1987,1240,62.1925,-6.74486
770,-216,62.4783,6.07361,0,0,0,0,0,0,0,-1,1994,1240,62.4783,-6.07366
777,-216,61.3721,6.01868,0,0,0,0,0,0,0,-1,2001,1240,61.372,-6.01869
784,-216,68.2205,0.660034,0,0,0,0,0,0,0,-1,2008,1240,68.2204,-0.660033
791,-216,67.71,1.8468,0,0,0,0,0,0,0,-1,2015,1240,67.7099,-1.84686
798,-216,0,0,0,0,0,0,0,0,0,-1,2022,1240,0,0
805,-216,0,0,0,0,0,0,0,0,0,-1,2029,1240,0,0
812,-216,0,0,0,0,0,0,0,0,0,-1,2036,1240,0,0
-700,-223,0,0,0,0,0,0,0,0,0,-1,524,1247,0,0
-693,-223,0,0,0,0,0,0,0,0,0,-1,531,1247,0,0
-686,-223,0,0,0,0,0,0,0,0,0,-1,538,1247,0,0
-679,-223,0,0,0,0,0,0,0,0,0,-1,545,1247,0,0
-672,-223,-66.0346,3.11548,0,0,0,0,0,0,0,-1,552,1247,-66.0346,-3.11552
-665,-223,-64.0319,5.19934,0,0,0,0,0,0,0,-1,559,1247,-64.0319,-5.19937
-658,-223,-61.9559,7.7594,0,0,0,0,0,0,0,-1,566,1247,-61.9559,-7.75934
-651,-223,-40.2339,-7.32275,0,0,0,0,0,0,0,-1,573,1247,-40.234,7.32277
-644,-223,-45.9081,3.8446,0,0,0,0,0,0,0,-1,580,1247,-45.9081,-3.84463
-637,-223,-49.2922,0.294189,0,0,0,0,0,0,0,-1,587,1247,-49.2922,-0.294245
-630,-223,-44.4318,5.99622,0,0,0,0,0,0,0,-1,594,1247,-44.4318,-5.99622
-623,-223,-44.724,7.03345,0,0,0,0,0,0,0,-1,601,1247,-44.724,-7.03345
-616,-223,-44.7632,7.8783,-0.000211235,0.00416709,-0.00199097,0.00493704,-0.000981192,-1.20179,0.0036625,0.0167805,608,1247,-44.7633,-7.87832
-609,-223,-44.7899,8.7041,-0.000844256,0.000644387,-0.00100761,0.00115278,-0.00135265,-1.10351,0.00144804,0.0119193,615,1247,-44.7899,-8.70408
-602,-223,-44.8357,9.46924,-0.00181957,-0.00125261,-0.000635851,-0.00083991,-0.00223227,-0.995085,0.00130189,0.0151826,622,1247,-44.8357,-9.46922
-595,-223,-44.847,10.2935,-0.00304039,-0.00212368,-0.000651187,-0.00178571,-0.00337836,-1.09206,0.00195156,0.0221689,629,1247,-44.8471,-10.2934
-588,-223,-44.8202,11.1533,-0.00371629,-0.00283881,-0.00105739,-0.00213275,-0.00442235,-0.982052,0.00255378,0.0465983,636,1247,-44.8202,-11.1534
-581,-223,-44.8077,11.8594,0,0,0,0,0,0,0,-1,643,1247,-44.8077,-11.8593
-574,-223,-45.3982,13.256,0,0,0,0,0,0,0,-1,650,1247,-45.3982,-13.2559
-567,-223,-45.6851,13.4939,0,0,0,0,0,0,0,-1,657,1247,-45.6851,-13.4939
-560,-223,-31.8748,9.50732,0,0,0,0,0,0,0,-1,664,1247,-31.8748,-9.50735
-553,-223,-11.4025,4.14722,0,0,0,0,0,0,0,-1,671,1247,-11.4025,-4.14719
-546,-223,-26.9034,-0.148682,0,0,0,0,0,0,0,-1,678,1247,-26.9034,0.14867
-539,-223,-36.7405,0.35376,0,0,0,0,0,0,0,-1,685,1247,-36.7405,-0.353807
-532,-223,-47.6184,1.39844,0,0,0,0,0,0,0,-1,692,1247,-47.6184,-1.3984
-525,-223,-63.0459,0.287598,0,0,0,0,0,0,0,-1,699,1247,-63.0459,-0.287588
-518,-223,-63.2991,0.418823,0,0,0,0,0,0,0,-1,706,1247,-63.2991,-0.418763
-511,-223,-63.3041,0.292236,-0.00368345,-0.00338648,-0.00288518,-0.000645961,-0.00642397,-0.811108,0.00408439,0.0406007,713,1247,-63.3041,-0.292205
-504,-223,-63.3213,0.214722,-0.00197284,-0.00220484,-0.000781394,-0.00129889,-0.0028788,-0.711711,0.00166471,0.0411289,720,1247,-63.3213,-0.214688
-497,-223,0,0,0,0,0,0,0,0,0,-1,727,1247,0,0
-490,-223,0,0,0,0,0,0,0,0,0,-1,734,1247,0,0
-483,-223,0,0,0,0,0,0,0,0,0,-1,741,1247,0,0
-476,-223,0,0,0,0,0,0,0,0,0,-1,748,1247,0,0
-469,-223,0,0,0,0,0,0,0,0,0,-1,755,1247,0,0
-462,-223,0,0,0,0,0,0,0,0,0,-1,762,1247,0,0
-455,-223,0,0,0,0,0,0,0,0,0,-1,769,1247,0,0
-448,-223,0,0,0,0,0,0,0,0,0,-1,776,1247,0,0
-441,-223,0,0,0,0,0,0,0,0,0,-1,783,1247,0,0
-434,-223,0,0,0,0,0,0,0,0,0,-1,790,1247,0,0
-427,-223,0,0,0,0,0,0,0,0,0,-1,797,1247,0,0
-420,-223,0,0,0,0,0,0,0,0,0,-1,804,1247,0,0
-413,-223,0,0,0,0,0,0,0,0,0,-1,811,1247,0,0
-406,-223,0,0,0,0,0,0,0,0,0,-1,818,1247,0,0
-399,-223,0,0,0,0,0,0,0,0,0,-1,825,1247,0,0
-392,-223,0,0,0,0,0,0,0,0,0,-1,832,1247,0,0
-385,-223,0,0,0,0,0,0,0,0,0,-1,839,1247,0,0
-378,-223,0,0,0,0,0,0,0,0,0,-1,846,1247,0,0
-371,-223,0,0,0,0,0,0,0,0,0,-1,853,1247,0,0
-364,-223,0,0,0,0,0,0,0,0,0,-1,860,1247,0,0
-357,-223,0,0,0,0,0,0,0,0,0,-1,867,1247,0,0
-350,-223,0,0,0,0,0,0,0,0,0,-1,874,1247,0,0
-343,-223,0,0,0,0,0,0,0,0,0,-1,881,1247,0,0
-336,-223,0,0,0,0,0,0,0,0,0,-1,888,1247,0,0
-329,-223,0,0,0,0,0,0,0,0,0,-1,895,1247,0,0
-322,-223,0,0,0,0,0,0,0,0,0,-1,902,1247,0,0
-315,-223,0,0,0,0,0,0,0,0,0,-1,909,1247,0,0
-308,-223,0,0,0,0,0,0,0,0,0,-1,916,1247,0,0
-301,-223,0,0,0,0,0,0,0,0,0,-1,923,1247,0,0
-294,-223,0,0,0,0,0,0,0,0,0,-1,930,1247,0,0
-287,-223,0,0,0,0,0,0,0,0,0,-1,937,1247,0,0
-280,-223,0,0,0,0,0,0,0,0,0,-1,944,1247,0,0
-273,-223,0,0,0,0,0,0,0,0,0,-1,951,1247,0,0
-266,-223,0,0,0,0,0,0,0,0,0,-1,958,1247,0,0
-259,-223,0,0,0,0,0,0,0,0,0,-1,965,1247,0,0
-252,-223,0,0,0,0,0,0,0,0,0,-1,972,1247,0,0
-245,-223,0,0,0,0,0,0,0,0,0,-1,979,1247,0,0
-238,-223,0,0,0,0,0,0,0,0,0,-1,986,1247,0,0
-231,-223,0,0,0,0,0,0,0,0,0,-1,993,1247,0,0
-224,-223,0,0,0,0,0,0,0,0,0,-1,1000,1247,0,0
-217,-223,0,0,0,0,0,0,0,0,0,-1,1007,1247,0,0
-210,-223,0,0,0,0,0,0,0,0,0,-1,1014,1247,0,0
-203,-223,0,0,0,0,0,0,0,0,0,-1,1021,1247,0,0
-196,-223,0,0,0,0,0,0,0,0,0,-1,1028,1247,0,0
-189,-223,0,0,0,0,0,0,0,0,0,-1,1035,1247,0,0
-182,-223,0,0,0,0,0,0,0,0,0,-1,1042,1247,0,0
-175,-223,0,0,0,0,0,0,0,0,0,-1,1049,1247,0,0
-168,-223,0,0,0,0,0,0,0,0,0,-1,1056,1247,0,0
-161,-223,0,0,0,0,0,0,0,0,0,-1,1063,1247,0,0
-154,-223,0,0,0,0,0,0,0,0,0,-1,1070,1247,0,0
-147,-223,0,0,0,0,0,0,0,0,0,-1,1077,1247,0,0
-140,-223,0,0,0,0,0,0,0,0,0,-1,1084,1247,0,0
-133,-223,0,0,0,0,0,0,0,0,0,-1,1091,1247,0,0
-126,-223,0,0,0,0,0,0,0,0,0,-1,1098,1247,0,0
-119,-223,0,0,0,0,0,0,0,0,0,-1,1105,1247,0,0
-112,-223,0,0,0,0,0,0,0,0,0,-1,1112,1247,0,0
-105,-223,0,0,0,0,0,0,0,0,0,-1,1119,1247,0,0
-98,-223,0,0,0,0,0,0,0,0,0,-1,1126,1247,0,0
-91,-223,0,0,0,0,0,0,0,0,0,-1,1133,1247,0,0
-84,-223,0,0,0,0,0,0,0,0,0,-1,1140,1247,0,0
-77,-223,0,0,0,0,0,0,0,0,0,-1,1147,1247,0,0
-70,-223,0,0,0,0,0,0,0,0,0,-1,1154,1247,0,0
-63,-223,0,0,0,0,0,0,0,0,0,-1,1161,1247,0,0
-56,-223,0,0,0,0,0,0,0,0,0,-1,1168,1247,0,0
-49,-223,0,0,0,0,0,0,0,0,0,-1,1175,1247,0,0
-42,-223,0,0,0,0,0,0,0,0,0,-1,1182,1247,0,0
-35,-223,0,0,0,0,0,0,0,0,0,-1,1189,1247,0,0
-28,-223,0,0,0,0,0,0,0,0,0,-1,1196,1247,0,0
-21,-223,0,0,0,0,0,0,0,0,0,-1,1203,1247,0,0
-14,-223,0,0,0,0,0,0,0,0,0,-1,1210,1247,0,0
-7,-223,0,0,0,0,0,0,0,0,0,-1,1217,1247,0,0
0,-223,0,0,0,0,0,0,0,0,0,-1,1224,1247,0,0
7,-223,0,0,0,0,0,0,0,0,0,-1,1231,1247,0,0
14,-223,0,0,0,0,0,0,0,0,0,-1,1238,1247,0,0
21,-223,0,0,0,0,0,0,0,0,0,-1,1245,1247,0,0
28,-223,0,0,0,0,0,0,0,0,0,-1,1252,1247,0,0
35,-223,0,0,0,0,0,0,0,0,0,-1,1259,1247,0,0
42,-223,0,0,0,0,0,0,0,0,0,-1,1266,1247,0,0
49,-223,0,0,0,0,0,0,0,0,0,-1,1273,1247,0,0
56,-223,0,0,0,0,0,0,0,0,0,-1,1280,1247,0,0
63,-223,0,0,0,0,0,0,0,0,0,-1,1287,1247,0,0
70,-223,0,0,0,0,0,0,0,0,0,-1,1294,1247,0,0
77,-223,0,0,0,0,0,0,0,0,0,-1,1301,1247,0,0
84,-223,0,0,0,0,0,0,0,0,0,-1,1308,1247,0,0
91,-223,0,0,0,0,0,0,0,0,0,-1,1315,1247,0,0
98,-223,0,0,0,0,0,0,0,0,0,-1,1322,1247,0,0
105,-223,0,0,0,0,0,0,0,0,0,-1,1329,1247,0,0
112,-223,0,0,0,0,0,0,0,0,0,-1,1336,1247,0,0
119,-223,0,0,0,0,0,0,0,0,0,-1,1343,1247,0,0
126,-223,0,0,0,0,0,0,0,0,0,-1,1350,1247,0,0
133,-223,0,0,0,0,0,0,0,0,0,-1,1357,1247,0,0
140,-223,0,0,0,0,0,0,0,0,0,-1,1364,1247,0,0
147,-223,0,0,0,0,0,0,0,0,0,-1,1371,1247,0,0
154,-223,0,0,0,0,0,0,0,0,0,-1,1378,1247,0,0
161,-223,0,0,0,0,0,0,0,0,0,-1,1385,1247,0,0
168,-223,0,0,0,0,0,0,0,0,0,-1,1392,1247,0,0
175,-223,0,0,0,0,0,0,0,0,0,-1,1399,1247,0,0
182,-223,0,0,0,0,0,0,0,0,0,-1,1406,1247,0,0
189,-223,0,0,0,0,0,0,0,0,0,-1,1413,1247,0,0
196,-223,0,0,0,0,0,0,0,0,0,-1,1420,1247,0,0
203,-223,0,0,0,0,0,0,0,0,0,-1,1427,1247,0,0
210,-223,0,0,0,0,0,0,0,0,0,-1,1434,1247,0,0
217,-223,0,0,0,0,0,0,0,0,0,-1,1441,1247,0,0
224,-223,0,0,0,0,0,0,0,0,0,-1,1448,1247,0,0
231,-223,0,0,0,0,0,0,0,0,0,-1,1455,1247,0,0
238,-223,0,0,0,0,0,0,0,0,0,-1,1462,1247,0,0
245,-223,0,0,0,0,0,0,0,0,0,-1,1469,1247,0,0
252,-223,0,0,0,0,0,0,0,0,0,-1,1476,1247,0,0
259,-223,0,0,0,0,0,0,0,0,0,-1,1483,1247,0,0
266,-223,0,0,0,0,0,0,0,0,0,-1,1490,1247,0,0
273,-223,0,0,0,0,0,0,0,0,0,-1,1497,1247,0,0
280,-223,0,0,0,0,0,0,0,0,0,-1,1504,1247,0,0
287,-223,0,0,0,0,0,0,0,0,0,-1,1511,1247,0,0
294,-223,0,0,0,0,0,0,0,0,0,-1,1518,1247,0,0
301,-223,0,0,0,0,0,0,0,0,0,-1,1525,1247,0,0
308,-223,0,0,0,0,0,0,0,0,0,-1,1532,1247,0,0
315,-223,0,0,0,0,0,0,0,0,0,-1,1539,1247,0,0
322,-223,0,0,0,0,0,0,0,0,0,-1,1546,1247,0,0
329,-223,0,0,0,0,0,0,0,0,0,-1,1553,1247,0,0
336,-223,0,0,0,0,0,0,0,0,0,-1,1560,1247,0,0
343,-223,0,0,0,0,0,0,0,0,0,-1,1567,1247,0,0
350,-223,0,0,0,0,0,0,0,0,0,-1,1574,1247,0,0
357,-223,0,0,0,0,0,0,0,0,0,-1,1581,1247,0,0
364,-223,0,0,0,0,0,0,0,0,0,-1,1588,1247,0,0
371,-223,0,0,0,0,0,0,0,0,0,-1,1595,1247,0,0
378,-223,0,0,0,0,0,0,0,0,0,-1,1602,1247,0,0
385,-223,0,0,0,0,0,0,0,0,0,-1,1609,1247,0,0
392,-223,0,0,0,0,0,0,0,0,0,-1,1616,1247,0,0
399,-223,0,0,0,0,0,0,0,0,0,-1,1623,1247,0,0
406,-223,0,0,0,0,0,0,0,0,0,-1,1630,1247,0,0
413,-223,0,0,0,0,0,0,0,0,0,-1,1637,1247,0,0
420,-223,0,0,0,0,0,0,0,0,0,-1,1644,1247,0,0
427,-223,0,0,0,0,0,0,0,0,0,-1,1651,1247,0,0
434,-223,0,0,0,0,0,0,0,0,0,-1,1658,1247,0,0
441,-223,0,0,0,0,0,0,0,0,0,-1,1665,1247,0,0
448,-223,0,0,0,0,0,0,0,0,0,-1,1672,1247,0,0
455,-223,0,0,0,0,0,0,0,0,0,-1,1679,1247,0,0
462,-223,0,0,0,0,0,0,0,0,0,-1,1686,1247,0,0
469,-223,0,0,0,0,0,0,0,0,0,-1,1693,1247,0,0
476,-223,0,0,0,0,0,0,0,0,0,-1,1700,1247,0,0
483,-223,0,0,0,0,0,0,0,0,0,-1,1707,1247,0,0
490,-223,0,0,0,0,0,0,0,0,0,-1,1714,1247,0,0
497,-223,0,0,0,0,0,0,0,0,0,-1,1721,1247,0,0
504,-223,0,0,0,0,0,0,0,0,0,-1,1728,1247,0,0
511,-223,0,0,0,0,0,0,0,0,0,-1,1735,1247,0,0
518,-223,0,0,0,0,0,0,0,0,0,-1,1742,1247,0,0
525,-223,0,0,0,0,0,0,0,0,0,-1,1749,1247,0,0
532,-223,0,0,0,0,0,0,0,0,0,-1,1756,1247,0,0
539,-223,0,0,0,0,0,0,0,0,0,-1,1763,1247,0,0
546,-223,0,0,0,0,0,0,0,0,0,-1,1770,1247,0,0
553,-223,0,0,0,0,0,0,0,0,0,-1,1777,1247,0,0
560,-223,0,0,0,0,0,0,0,0,0,-1,1784,1247,0,0
567,-223,0,0,0,0,0,0,0,0,0,-1,1791,1247,0,0
574,-223,0,0,0,0,0,0,0,0,0,-1,1798,1247,0,0
581,-223,0,0,0,0,0,0,0,0,0,-1,1805,1247,0,0
588,-223,0,0,0,0,0,0,0,0,0,-1,1812,1247,0,0
595,-223,0,0,0,0,0,0,0,0,0,-1,1819,1247,0,0
602,-223,0,0,0,0,0,0,0,0,0,-1,1826,1247,0,0
609,-223,0,0,0,0,0,0,0,0,0,-1,1833,1247,0,0
616,-223,0,0,0,0,0,0,0,0,0,-1,1840,1247,0,0
623,-223,80.1554,2.86621,0,0,0,0,0,0,0,-1,1847,1247,80.1554,-2.86616
630,-223,80.3148,2.41748,-0.000277396,0.000841685,-7.01678e-05,0.000846068,-0.000281778,-1.50842,0.000677785,0.035476,1854,1247,80.3148,-2.41744
637,-223,80.4707,2.1123,-0.00140632,0.00413704,-0.000460882,0.0041751,-0.00144438,-1.48841,0.00336968,0.0295909,1861,1247,80.4707,-2.11233
644,-223,80.4631,2.12915,-0.00157619,0.00548049,-0.000914508,0.00559708,-0.00169278,-1.44399,0.00440542,0.0242147,1868,1247,80.4631,-2.12915
651,-223,80.4946,2.08972,-0.00122266,0.00495785,-0.00094039,0.00509776,-0.00136257,-1.42309,0.0039322,0.0318299,1875,1247,80.4946,-2.08966
658,-223,80.6888,2.27844,0,0,0,0,0,0,0,-1,1882,1247,80.6889,-2.27839
665,-223,68.7177,1.6427,0,0,0,0,0,0,0,-1,1889,1247,68.7176,-1.64275
672,-223,56.4625,2.72424,0,0,0,0,0,0,0,-1,1896,1247,56.4626,-2.72418
679,-223,43.2783,2.46973,0,0,0,0,0,0,0,-1,1903,1247,43.2784,-2.46978
686,-223,40.7926,10.0316,0,0,0,0,0,0,0,-1,1910,1247,40.7926,-10.0316
693,-223,62.0984,14.6344,0,0,0,0,0,0,0,-1,1917,1247,62.0983,-14.6344
700,-223,61.8313,13.8628,0,0,0,0,0,0,0,-1,1924,1247,61.8313,-13.8628
707,-223,62.0067,12.7924,0,0,0,0,0,0,0,-1,1931,1247,62.0067,-12.7924
714,-223,61.7939,12.1101,-0.000729013,0.00195887,0.00105374,0.00232272,-0.00109286,1.23832,0.00201415,0.0304367,1938,1247,61.7939,-12.1101
721,-223,61.6713,11.4041,-0.00100144,0.00195698,0.00164943,0.00269332,-0.00173779,1.15092,0.00257806,0.0156185,1945,1247,61.6712,-11.404
728,-223,61.6243,10.6223,-0.00111367,0.00122667,0.00204276,0.00241068,-0.00229768,1.0455,0.00271863,0.0192048,1952,1247,61.6243,-10.6223
735,-223,61.5884,9.86462,-0.00139389,0.000697055,0.00242297,0.00229048,-0.00298732,0.989073,0.00305598,0.0191137,1959,1247,61.5884,-9.86459
742,-223,61.491,9.09851,-0.00166523,6.96665e-05,0.00301126,0.00233594,-0.0039315,0.925635,0.00365738,0.017661,1966,1247,61.4909,-9.09852
749,-223,61.4376,8.24841,-0.0018857,-0.000576065,0.00380315,0.00262823,-0.00509,0.870651,0.00453105,0.0137733,1973,1247,61.4377,-8.24846
756,-223,61.3816,7.45044,-0.00205221,-0.00125557,0.0048952,0.00325749,-0.00656527,0.825994,0.00577736,0.0158854,1980,1247,61.3816,-7.45049
763,-223,61.3486,6.76404,-0.00225231,-0.00183099,0.00657439,0.00453611,-0.00861941,0.801414,0.00771634,0.0226026,1987,1247,61.3487,-6.76408
770,-223,61.5654,6.03906,0,0,0,0,0,0,0,-1,1994,1247,61.5655,-6.03909
777,-223,53.7227,4.88562,0,0,0,0,0,0,0,-1,2001,1247,53.7227,-4.8856
784,-223,68.8677,0.507813,0,0,0,0,0,0,0,-1,2008,1247,68.8676,-0.507816
791,-223,34.7136,2.92554,0,0,0,0,0,0,0,-1,2015,1247,34.7137,-2.92555
798,-223,0,0,0,0,0,0,0,0,0,-1,2022,1247,0,0
805,-223,0,0,0,0,0,0,0,0,0,-1,2029,1247,0,0
812,-223,0,0,0,0,0,0,0,0,0,-1,2036,1247,0,0
-700,-230,0,0,0,0,0,0,0,0,0,-1,524,1254,0,0
-693,-230,0,0,0,0,0,0,0,0,0,-1,531,1254,0,0
-686,-230,0,0,0,0,0,0,0,0,0,-1,538,1254,0,0
-679,-230,0,0,0,0,0,0,0,0,0,-1,545,1254,0,0
-672,-230,-66.8678,2.11389,0,0,0,0,0,0,0,-1,552,1254,-66.8678,-2.11385
-665,-230,-64.7561,3.9519,0,0,0,0,0,0,0,-1,559,1254,-64.7561,-3.95185
-658,-230,-62.6445,5.78979,0,0,0,0,0,0,0,-1,566,1254,-62.6445,-5.78985
-651,-230,-39.3627,-7.38525,0,0,0,0,0,0,0,-1,573,1254,-39.3627,7.38529
-644,-230,-48.2715,0.872925,0,0,0,0,0,0,0,-1,580,1254,-48.2715,-0.87288
-637,-230,-49.1636,-0.158325,0,0,0,0,0,0,0,-1,587,1254,-49.1636,0.158288
-630,-230,-41.3331,5.24744,0,0,0,0,0,0,0,-1,594,1254,-41.3331,-5.24744
-623,-230,-43.8949,7.08032,0,0,0,0,0,0,0,-1,601,1254,-43.8949,-7.08038
-616,-230,-43.8893,7.90125,0.000719718,0.00316977,-0.00178941,0.00411331,-0.000223819,-1.08556,0.00281977,0.0205432,608,1254,-43.8893,-7.9012
-609,-230,-43.9166,8.71619,-0.000106687,0.000396829,-0.000942786,0.00112089,-0.00083075,-0.915872,0.00113092,0.0128717,615,1254,-43.9167,-8.7162
-602,-230,-43.977,9.55054,-0.00122444,-0.00123931,-0.000661521,-0.000570314,-0.00189344,-0.779779,0.00112161,0.0123126,622,1254,-43.977,-9.55048
-595,-230,-44.0403,10.3835,-0.00263443,-0.00210673,-0.000735004,-0.00158965,-0.0031515,-0.957723,0.00181955,0.0198569,629,1254,-44.0404,-10.3836
-588,-230,-44.1629,11.2924,-0.00383577,-0.00301997,-0.00114042,-0.00221669,-0.00463904,-0.957145,0.00267923,0.0319644,636,1254,-44.1629,-11.2924
-581,-230,-43.6942,12.7753,0,0,0,0,0,0,0,-1,643,1254,-43.6942,-12.7753
-574,-230,-44.1606,13.163,0,0,0,0,0,0,0,-1,650,1254,-44.1606,-13.1629
-567,-230,-44.398,13.6322,0,0,0,0,0,0,0,-1,657,1254,-44.398,-13.6322
-560,-230,-44.8459,14.0486,0,0,0,0,0,0,0,-1,664,1254,-44.8459,-14.0486
-553,-230,-13.1939,4.9718,0,0,0,0,0,0,0,-1,671,1254,-13.1939,-4.97175
-546,-230,-15.23,0.453979,0,0,0,0,0,0,0,-1,678,1254,-15.23,-0.453996
-539,-230,-25.8232,0.512817,0,0,0,0,0,0,0,-1,685,1254,-25.8232,-0.512878
-532,-230,-21.1644,1.52966,0,0,0,0,0,0,0,-1,692,1254,-21.1644,-1.52969
-525,-230,-29.4775,0.731445,0,0,0,0,0,0,0,-1,699,1254,-29.4775,-0.731432
-518,-230,-63.1596,0.458374,0,0,0,0,0,0,0,-1,706,1254,-63.1596,-0.458411
-511,-230,-63.2596,0.318604,-0.00437146,-0.00462089,-0.0044697,-2.47308e-05,-0.00896762,-0.771451,0.00597018,0.0447438,713,1254,-63.2597,-0.318562
-504,-230,-63.3551,0.246216,-0.00328151,-0.00389559,-0.00385628,0.000279938,-0.00745703,-0.745672,0.00506725,0.0389178,720,1254,-63.3551,-0.246164
-497,-230,0,0,0,0,0,0,0,0,0,-1,727,1254,0,0
-490,-230,0,0,0,0,0,0,0,0,0,-1,734,1254,0,0
-483,-230,0,0,0,0,0,0,0,0,0,-1,741,1254,0,0
-476,-230,0,0,0,0,0,0,0,0,0,-1,748,1254,0,0
-469,-230,0,0,0,0,0,0,0,0,0,-1,755,1254,0,0
-462,-230,0,0,0,0,0,0,0,0,0,-1,762,1254,0,0
-455,-230,0,0,0,0,0,0,0,0,0,-1,769,1254,0,0
-448,-230,0,0,0,0,0,0,0,0,0,-1,776,1254,0,0
-441,-230,0,0,0,0,0,0,0,0,0,-1,783,1254,0,0
-434,-230,0,0,0,0,0,0,0,0,0,-1,790,1254,0,0
-427,-230,0,0,0,0,0,0,0,0,0,-1,797,1254,0,0
-420,-230,0,0,0,0,0,0,0,0,0,-1,804,1254,0,0
-413,-230,0,0,0,0,0,0,0,0,0,-1,811,1254,0,0
-406,-230,0,0,0,0,0,0,0,0,0,-1,818,1254,0,0
-399,-230,0,0,0,0,0,0,0,0,0,-1,825,1254,0,0
-392,-230,0,0,0,0,0,0,0,0,0,-1,832,1254,0,0
-385,-230,0,0,0,0,0,0,0,0,0,-1,839,1254,0,0
-378,-230,0,0,0,0,0,0,0,0,0,-1,846,1254,0,0
-371,-230,0,0,0,0,0,0,0,0,0,-1,853,1254,0,0
-364,-230,0,0,0,0,0,0,0,0,0,-1,860,1254,0,0
-357,-230,0,0,0,0,0,0,0,0,0,-1,867,1254,0,0
-350,-230,0,0,0,0,0,0,0,0,0,-1,874,1254,0,0
-343,-230,0,0,0,0,0,0,0,0,0,-1,881,1254,0,0
-336,-230,0,0,0,0,0,0,0,0,0,-1,888,1254,0,0
-329,-230,0,0,0,0,0,0,0,0,0,-1,895,1254,0,0
-322,-230,0,0,0,0,0,0,0,0,0,-1,902,1254,0,0
-315,-230,0,0,0,0,0,0,0,0,0,-1,909,1254,0,0
-308,-230,0,0,0,0,0,0,0,0,0,-1,916,1254,0,0
-301,-230,0,0,0,0,0,0,0,0,0,-1,923,1254,0,0
-294,-230,0,0,0,0,0,0,0,0,0,-1,930,1254,0,0
-287,-230,0,0,0,0,0,0,0,0,0,-1,937,1254,0,0
-280,-230,0,0,0,0,0,0,0,0,0,-1,944,1254,0,0
-273,-230,0,0,0,0,0,0,0,0,0,-1,951,1254,0,0
-266,-230,0,0,0,0,0,0,0,0,0,-1,958,1254,0,0
-259,-230,0,0,0,0,0,0,0,0,0,-1,965,1254,0,0
-252,-230,0,0,0,0,0,0,0,0,0,-1,972,1254,0,0
-245,-230,0,0,0,0,0,0,0,0,0,-1,979,1254,0,0
-238,-230,0,0,0,0,0,0,0,0,0,-1,986,1254,0,0
-231,-230,0,0,0,0,0,0,0,0,0,-1,993,1254,0,0
-224,-230,0,0,0,0,0,0,0,0,0,-1,1000,1254,0,0
-217,-230,0,0,0,0,0,0,0,0,0,-1,1007,1254,0,0
-210,-230,0,0,0,0,0,0,0,0,0,-1,1014,1254,0,0
-203,-230,0,0,0,0,0,0,0,0,0,-1,1021,1254,0,0
-196,-230,0,0,0,0,0,0,0,0,0,-1,1028,1254,0,0
-189,-230,0,0,0,0,0,0,0,0,0,-1,1035,1254,0,0
-182,-230,0,0,0,0,0,0,0,0,0,-1,1042,1254,0,0
-175,-230,0,0,0,0,0,0,0,0,0,-1,1049,1254,0,0
-168,-230,0,0,0,0,0,0,0,0,0,-1,1056,1254,0,0
-161,-230,0,0,0,0,0,0,0,0,0,-1,1063,1254,0,0
-154,-230,0,0,0,0,0,0,0,0,0,-1,1070,1254,0,0
-147,-230,0,0,0,0,0,0,0,0,0,-1,1077,1254,0,0
-140,-230,0,0,0,0,0,0,0,0,0,-1,1084,1254,0,0
-133,-230,0,0,0,0,0,0,0,0,0,-1,1091,1254,0,0
-126,-230,0,0,0,0,0,0,0,0,0,-1,1098,1254,0,0
-119,-230,0,0,0,0,0,0,0,0,0,-1,1105,1254,0,0
-112,-230,0,0,0,0,0,0,0,0,0,-1,1112,1254,0,0
-105,-230,0,0,0,0,0,0,0,0,0,-1,1119,1254,0,0
-98,-230,0,0,0,0,0,0,0,0,0,-1,1126,1254,0,0
-91,-230,0,0,0,0,0,0,0,0,0,-1,1133,1254,0,0
-84,-230,0,0,0,0,0,0,0,0,0,-1,1140,1254,0,0
-77,-230,0,0,0,0,0,0,0,0,0,-1,1147,1254,0,0
-70,-230,0,0,0,0,0,0,0,0,0,-1,1154,1254,0,0
-63,-230,0,0,0,0,0,0,0,0,0,-1,1161,1254,0,0
-56,-230,0,0,0,0,0,0,0,0,0,-1,1168,1254,0,0
-49,-230,0,0,0,0,0,0,0,0,0,-1,1175,1254,0,0
-42,-230,0,0,0,0,0,0,0,0,0,-1,1182,1254,0,0
-35,-230,0,0,0,0,0,0,0,0,0,-1,1189,1254,0,0
-28,-230,0,0,0,0,0,0,0,0,0,-1,1196,1254,0,0
-21,-230,0,0,0,0,0,0,0,0,0,-1,1203,1254,0,0
-14,-230,0,0,0,0,0,0,0,0,0,-1,1210,1254,0,0
-7,-230,0,0,0,0,0,0,0,0,0,-1,1217,1254,0,0
0,-230,0,0,0,0,0,0,0,0,0,-1,1224,1254,0,0
7,-230,0,0,0,0,0,0,0,0,0,-1,1231,1254,0,0
14,-230,0,0,0,0,0,0,0,0,0,-1,1238,1254,0,0
21,-230,0,0,0,0,0,0,0,0,0,-1,1245,1254,0,0
28,-230,0,0,0,0,0,0,0,0,0,-1,1252,1254,0,0
35,-230,0,0,0,0,0,0,0,0,0,-1,1259,1254,0,0
42,-230,0,0,0,0,0,0,0,0,0,-1,1266,1254,0,0
49,-230,0,0,0,0,0,0,0,0,0,-1,1273,1254,0,0
56,-230,0,0,0,0,0,0,0,0,0,-1,1280,1254,0,0
63,-230,0,0,0,0,0,0,0,0,0,-1,1287,1254,0,0
70,-230,0,0,0,0,0,0,0,0,0,-1,1294,1254,0,0
77,-230,0,0,0,0,0,0,0,0,0,-1,1301,1254,0,0
84,-230,0,0,0,0,0,0,0,0,0,-1,1308,1254,0,0
91,-230,0,0,0,0,0,0,0,0,0,-1,1315,1254,0,0
98,-230,0,0,0,0,0,0,0,0,0,-1,1322,1254,0,0
105,-230,0,0,0,0,0,0,0,0,0,-1,1329,1254,0,0
112,-230,0,0,0,0,0,0,0,0,0,-1,1336,1254,0,0
119,-230,0,0,0,0,0,0,0,0,0,-1,1343,1254,0,0
126,-230,0,0,0,0,0,0,0,0,0,-1,1350,1254,0,0
133,-230,0,0,0,0,0,0,0,0,0,-1,1357,1254,0,0
140,-230,0,0,0,0,0,0,0,0,0,-1,1364,1254,0,0
147,-230,0,0,0,0,0,0,0,0,0,-1,1371,1254,0,0
154,-230,0,0,0,0,0,0,0,0,0,-1,1378,1254,0,0
161,-230,0,0,0,0,0,0,0,0,0,-1,1385,1254,0,0
168,-230,0,0,0,0,0,0,0,0,0,-1,1392,1254,0,0
175,-230,0,0,0,0,0,0,0,0,0,-1,1399,1254,0,0
182,-230,0,0,0,0,0,0,0,0,0,-1,1406,1254,0,0
189,-230,0,0,0,0,0,0,0,0,0,-1,1413,1254,0,0
196,-230,0,0,0,0,0,0,0,0,0,-1,1420,1254,0,0
203,-230,0,0,0,0,0,0,0,0,0,-1,1427,1254,0,0
210,-230,0,0,0,0,0,0,0,0,0,-1,1434,1254,0,0
217,-230,0,0,0,0,0,0,0,0,0,-1,1441,1254,0,0
224,-230,0,0,0,0,0,0,0,0,0,-1,1448,1254,0,0
231,-230,0,0,0,0,0,0,0,0,0,-1,1455,1254,0,0
238,-230,0,0,0,0,0,0,0,0,0,-1,1462,1254,0,0
245,-230,0,0,0,0,0,0,0,0,0,-1,1469,1254,0,0
252,-230,0,0,0,0,0,0,0,0,0,-1,1476,1254,0,0
259,-230,0,0,0,0,0,0,0,0,0,-1,1483,1254,0,0
266,-230,0,0,0,0,0,0,0,0,0,-1,1490,1254,0,0
273,-230,0,0,0,0,0,0,0,0,0,-1,1497,1254,0,0
280,-230,0,0,0,0,0,0,0,0,0,-1,1504,1254,0,0
287,-230,0,0,0,0,0,0,0,0,0,-1,1511,1254,0,0
294,-230,0,0,0,0,0,0,0,0,0,-1,1518,1254,0,0
301,-230,0,0,0,0,0,0,0,0,0,-1,1525,1254,0,0
308,-230,0,0,0,0,0,0,0,0,0,-1,1532,1254,0,0
315,-230,0,0,0,0,0,0,0,0,0,-1,1539,1254,0,0
322,-230,0,0,0,0,0,0,0,0,0,-1,1546,1254,0,0
329,-230,0,0,0,0,0,0,0,0,0,-1,1553,1254,0,0
336,-230,0,0,0,0,0,0,0,0,0,-1,1560,1254,0,0
343,-230,0,0,0,0,0,0,0,0,0,-1,1567,1254,0,0
350,-230,0,0,0,0,0,0,0,0,0,-1,1574,1254,0,0
357,-230,0,0,0,0,0,0,0,0,0,-1,1581,1254,0,0
364,-230,0,0,0,0,0,0,0,0,0,-1,1588,1254,0,0
371,-230,0,0,0,0,0,0,0,0,0,-1,1595,1254,0,0
378,-230,0,0,0,0,0,0,0,0,0,-1,1602,1254,0,0
385,-230,0,0,0,0,0,0,0,0,0,-1,1609,1254,0,0
392,-230,0,0,0,0,0,0,0,0,0,-1,1616,1254,0,0
399,-230,0,0,0,0,0,0,0,0,0,-1,1623,1254,0,0
406,-230,0,0,0,0,0,0,0,0,0,-1,1630,1254,0,0
413,-230,0,0,0,0,0,0,0,0,0,-1,1637,1254,0,0
420,-230,0,0,0,0,0,0,0,0,0,-1,1644,1254,0,0
427,-230,0,0,0,0,0,0,0,0,0,-1,1651,1254,0,0
434,-230,0,0,0,0,0,0,0,0,0,-1,1658,1254,0,0
441,-230,0,0,0,0,0,0,0,0,0,-1,1665,1254,0,0
448,-230,0,0,0,0,0,0,0,0,0,-1,1672,1254,0,0
455,-230,0,0,0,0,0,0,0,0,0,-1,1679,1254,0,0
462,-230,0,0,0,0,0,0,0,0,0,-1,1686,1254,0,0
469,-230,0,0,0,0,0,0,0,0,0,-1,1693,1254,0,0
476,-230,0,0,0,0,0,0,0,0,0,-1,1700,1254,0,0
483,-230,0,0,0,0,0,0,0,0,0,-1,1707,1254,0,0
490,-230,0,0,0,0,0,0,0,0,0,-1,1714,1254,0,0
497,-230,0,0,0,0,0,0,0,0,0,-1,1721,1254,0,0
504,-230,0,0,0,0,0,0,0,0,0,-1,1728,1254,0,0
511,-230,0,0,0,0,0,0,0,0,0,-1,1735,1254,0,0
518,-230,0,0,0,0,0,0,0,0,0,-1,1742,1254,0,0
525,-230,0,0,0,0,0,0,0,0,0,-1,1749,1254,0,0
532,-230,0,0,0,0,0,0,0,0,0,-1,1756,1254,0,0
539,-230,0,0,0,0,0,0,0,0,0,-1,1763,1254,0,0
546,-230,0,0,0,0,0,0,0,0,0,-1,1770,1254,0,0
553,-230,0,0,0,0,0,0,0,0,0,-1,1777,1254,0,0
560,-230,0,0,0,0,0,0,0,0,0,-1,1784,1254,0,0
567,-230,0,0,0,0,0,0,0,0,0,-1,1791,1254,0,0
574,-230,0,0,0,0,0,0,0,0,0,-1,1798,1254,0,0
581,-230,0,0,0,0,0,0,0,0,0,-1,1805,1254,0,0
588,-230,0,0,0,0,0,0,0,0,0,-1,1812,1254,0,0
595,-230,0,0,0,0,0,0,0,0,0,-1,1819,1254,0,0
602,-230,0,0,0,0,0,0,0,0,0,-1,1826,1254,0,0
609,-230,0,0,0,0,0,0,0,0,0,-1,1833,1254,0,0
616,-230,80.6359,2.104,0.00100925,-0.00393777,0.000744125,0.00111875,-0.00404728,0.146113,0.00313829,0.0380567,1840,1254,80.6359,-2.10396
623,-230,80.6162,2.16345,-0.000638407,0.000527426,0.00070442,0.00085884,-0.00096982,1.13104,0.00105643,0.0371135,1847,1254,80.6162,-2.1634
630,-230,80.5042,2.27173,-0.00220422,0.00471173,0.000497118,0.00474728,-0.00223977,1.49941,0.00411966,0.0323807,1854,1254,80.5042,-2.27172
637,-230,80.4447,2.08154,-0.00342891,0.00813508,0.000178306,0.00813783,-0.00343166,1.55538,0.00686138,0.0272237,1861,1254,80.4447,-2.08157
644,-230,80.3818,2.00854,-0.00289045,0.00793084,-0.000303833,0.00793936,-0.00289897,-1.54275,0.00647915,0.0221953,1868,1254,80.3818,-2.00857
651,-230,80.2223,1.76025,-0.00206769,0.00625276,-0.000354646,0.00626785,-0.00208277,-1.52828,0.005019,0.048015,1875,1254,80.2223,-1.76022
658,-230,80.0537,1.51208,0,0,0,0,0,0,0,-1,1882,1254,80.0537,-1.5121
665,-230,56.2585,2.51587,0,0,0,0,0,0,0,-1,1889,1254,56.2586,-2.51586
672,-230,43.0962,2.78699,0,0,0,0,0,0,0,-1,1896,1254,43.0962,-2.78698
679,-230,27.9967,2.37708,0,0,0,0,0,0,0,-1,1903,1254,27.9967,-2.3771
686,-230,40.8854,10.1788,0,0,0,0,0,0,0,-1,1910,1254,40.8853,-10.1788
693,-230,61.3932,14.567,0,0,0,0,0,0,0,-1,1917,1254,61.3932,-14.5671
700,-230,61.1832,13.7975,0,0,0,0,0,0,0,-1,1924,1254,61.1832,-13.7975
707,-230,60.9543,13.04,0,0,0,0,0,0,0,-1,1931,1254,60.9544,-13.0401
714,-230,60.891,12.2614,-0.000967963,0.00137045,0.00135028,0.00198739,-0.0015849,1.14222,0.00206682,0.0260857,1938,1254,60.891,-12.2613
721,-230,60.8529,11.4666,-0.00137067,0.00124986,0.00189488,0.00224337,-0.00236417,1.08789,0.00266047,0.0144444,1945,1254,60.8529,-11.4666
728,-230,60.771,10.7048,-0.00168724,0.000579763,0.00227106,0.00198448,-0.00309196,1.01686,0.00295404,0.0157635,1952,1254,60.771,-10.7049
735,-230,60.728,9.92615,-0.00210622,8.03176e-06,0.00267682,0.0018289,-0.00392709,0.973457,0.00339602,0.0161242,1959,1254,60.7281,-9.92614
742,-230,60.6682,9.09619,-0.00250996,-0.000659635,0.00327242,0.00181588,-0.00498548,0.92316,0.00406642,0.0124046,1966,1254,60.6682,-9.09621
749,-230,60.6294,8.26855,-0.00283387,-0.00140499,0.00405692,0.00199992,-0.00623878,0.872557,0.00496204,0.012001,1973,1254,60.6295,-8.26859
756,-230,60.5817,7.4967,-0.00311028,-0.00224898,0.00517648,0.00251474,-0.00787399,0.826899,0.00625832,0.0169767,1980,1254,60.5817,-7.49672
763,-230,60.5715,6.70801,-0.0033929,-0.00301677,0.00686477,0.0036625,-0.0100722,0.799093,0.00821252,0.0392168,1987,1254,60.5715,-6.70802
770,-230,60.9033,5.90527,0,0,0,0,0,0,0,-1,1994,1254,60.9034,-5.90533
777,-230,41.8693,3.74707,0,0,0,0,0,0,0,-1,2001,1254,41.8692,-3.74713
784,-230,35.8896,1.80334,0,0,0,0,0,0,0,-1,2008,1254,35.8897,-1.80338
791,-230,35.6028,2.20642,0,0,0,0,0,0,0,-1,2015,1254,35.6027,-2.2064
798,-230,0,0,0,0,0,0,0,0,0,-1,2022,1254,0,0
805,-230,0,0,0,0,0,0,0,0,0,-1,2029,1254,0,0
812,-230,0,0,0,0,0,0,0,0,0,-1,2036,1254,0,0
-700,-237,0,0,0,0,0,0,0,0,0,-1,524,1261,0,0
-693,-237,0,0,0,0,0,0,0,0,0,-1,531,1261,0,0
-686,-237,0,0,0,0,0,0,0,0,0,-1,538,1261,0,0
-679,-237,0,0,0,0,0,0,0,0,0,-1,545,1261,0,0
-672,-237,-36.6405,-12.5112,0,0,0,0,0,0,0,-1,552,1261,-36.6405,12.5113
-665,-237,-65.7281,2.94849,0,0,0,0,0,0,0,-1,559,1261,-65.7281,-2.94852
-658,-237,-37.8344,-8.67175,0,0,0,0,0,0,0,-1,566,1261,-37.8344,8.67179
-651,-237,-46.9487,1.65137,0,0,0,0,0,0,0,-1,573,1261,-46.9487,-1.65142
-644,-237,-47.6604,0.785034,0,0,0,0,0,0,0,-1,580,1261,-47.6604,-0.785034
-637,-237,-33.4961,2.71313,0,0,0,0,0,0,0,-1,587,1261,-33.4961,-2.71312
-630,-237,-43.0754,6.11987,0,0,0,0,0,0,0,-1,594,1261,-43.0754,-6.1199
-623,-237,-42.9164,6.93994,0.00235954,0.00349083,-0.00237363,0.00536528,0.000485091,-0.902368,0.00342662,0.0482504,601,1261,-42.9165,-6.93997
-616,-237,-42.9745,7.90259,0.00173774,0.000952109,-0.00126874,0.00267308,1.67676e-05,-0.635273,0.00177649,0.0186642,608,1261,-42.9745,-7.90264
-609,-237,-43.0621,8.74109,0.000699408,-0.000172284,-0.000710362,0.00109697,-0.00056985,-0.510235,0.000978251,0.0174845,615,1261,-43.0621,-8.74107
-602,-237,-43.1155,9.6001,-0.000534429,-0.00114164,-0.000580756,-0.000182708,-0.00149336,-0.544546,0.000940608,0.0124816,622,1261,-43.1155,-9.60013
-595,-237,-43.1893,10.4728,-0.00186148,-0.00194857,-0.000705635,-0.00119805,-0.002612,-0.754584,0.00150976,0.0168738,629,1261,-43.1893,-10.4728
-588,-237,-43.2529,11.3148,-0.00314325,-0.00296861,-0.00108155,-0.00197086,-0.004141,-0.825679,0.00239173,0.0287325,636,1261,-43.2529,-11.3148
-581,-237,-43.3236,12.087,-0.00416811,-0.00409488,-0.00166055,-0.00247054,-0.00579245,-0.796421,0.00335629,0.0285693,643,1261,-43.3236,-12.0871
-574,-237,-43.3224,13.1774,0,0,0,0,0,0,0,-1,650,1261,-43.3224,-13.1773
-567,-237,-43.4258,13.6868,0,0,0,0,0,0,0,-1,657,1261,-43.4258,-13.6867
-560,-237,-43.5292,14.1962,0,0,0,0,0,0,0,-1,664,1261,-43.5292,-14.1961
-553,-237,-20.6102,6.92139,0,0,0,0,0,0,0,-1,671,1261,-20.6102,-6.92138
-546,-237,-11.192,1.14014,0,0,0,0,0,0,0,-1,678,1261,-11.192,-1.14011
-539,-237,-16.512,1.53455,0,0,0,0,0,0,0,-1,685,1261,-16.512,-1.53457
-532,-237,-29.7025,1.23621,0,0,0,0,0,0,0,-1,692,1261,-29.7025,-1.23618
-525,-237,-47.2925,0.590942,0,0,0,0,0,0,0,-1,699,1261,-47.2925,-0.590989
-518,-237,-48.2897,0.765869,0,0,0,0,0,0,0,-1,706,1261,-48.2897,-0.765854
-511,-237,-63.2319,0.49707,0,0,0,0,0,0,0,-1,713,1261,-63.2319,-0.497085
-504,-237,-63.3493,0.388672,-0.00246255,-0.00430879,-0.00498608,0.00168514,-0.00845648,-0.693865,0.00627525,0.0442941,720,1261,-63.3493,-0.388622
-497,-237,-63.3082,0.320435,0,0,0,0,0,0,0,-1,727,1261,-63.3082,-0.320424
-490,-237,0,0,0,0,0,0,0,0,0,-1,734,1261,0,0
-483,-237,0,0,0,0,0,0,0,0,0,-1,741,1261,0,0
-476,-237,0,0,0,0,0,0,0,0,0,-1,748,1261,0,0
-469,-237,0,0,0,0,0,0,0,0,0,-1,755,1261,0,0
-462,-237,0,0,0,0,0,0,0,0,0,-1,762,1261,0,0
-455,-237,0,0,0,0,0,0,0,0,0,-1,769,1261,0,0
-448,-237,0,0,0,0,0,0,0,0,0,-1,776,1261,0,0
-441,-237,0,0,0,0,0,0,0,0,0,-1,783,1261,0,0
-434,-237,0,0,0,0,0,0,0,0,0,-1,790,1261,0,0
-427,-237,0,0,0,0,0,0,0,0,0,-1,797,1261,0,0
-420,-237,0,0,0,0,0,0,0,0,0,-1,804,1261,0,0
-413,-237,0,0,0,0,0,0,0,0,0,-1,811,1261,0,0
-406,-237,0,0,0,0,0,0,0,0,0,-1,818,1261,0,0
-399,-237,0,0,0,0,0,0,0,0,0,-1,825,1261,0,0
-392,-237,0,0,0,0,0,0,0,0,0,-1,832,1261,0,0
-385,-237,0,0,0,0,0,0,0,0,0,-1,839,1261,0,0
-378,-237,0,0,0,0,0,0,0,0,0,-1,846,1261,0,0
-371,-237,0,0,0,0,0,0,0,0,0,-1,853,1261,0,0
-364,-237,0,0,0,0,0,0,0,0,0,-1,860,1261,0,0
-357,-237,0,0,0,0,0,0,0,0,0,-1,867,1261,0,0
-350,-237,0,0,0,0,0,0,0,0,0,-1,874,1261,0,0
-343,-237,0,0,0,0,0,0,0,0,0,-1,881,1261,0,0
-336,-237,0,0,0,0,0,0,0,0,0,-1,888,1261,0,0
-329,-237,0,0,0,0,0,0,0,0,0,-1,895,1261,0,0
-322,-237,0,0,0,0,0,0,0,0,0,-1,902,1261,0,0
-315,-237,0,0,0,0,0,0,0,0,0,-1,909,1261,0,0
-308,-237,0,0,0,0,0,0,0,0,0,-1,916,1261,0,0
-301,-237,0,0,0,0,0,0,0,0,0,-1,923,1261,0,0
-294,-237,0,0,0,0,0,0,0,0,0,-1,930,1261,0,0
-287,-237,0,0,0,0,0,0,0,0,0,-1,937,1261,0,0
-280,-237,0,0,0,0,0,0,0,0,0,-1,944,1261,0,0
-273,-237,0,0,0,0,0,0,0,0,0,-1,951,1261,0,0
-266,-237,0,0,0,0,0,0,0,0,0,-1,958,1261,0,0
-259,-237,0,0,0,0,0,0,0,0,0,-1,965,1261,0,0
-252,-237,0,0,0,0,0,0,0,0,0,-1,972,1261,0,0
-245,-237,0,0,0,0,0,0,0,0,0,-1,979,1261,0,0
-238,-237,0,0,0,0,0,0,0,0,0,-1,986,1261,0,0
-231,-237,0,0,0,0,0,0,0,0,0,-1,993,1261,0,0
-224,-237,0,0,0,0,0,0,0,0,0,-1,1000,1261,0,0
-217,-237,0,0,0,0,0,0,0,0,0,-1,1007,1261,0,0
-210,-237,0,0,0,0,0,0,0,0,0,-1,1014,1261,0,0
-203,-237,0,0,0,0,0,0,0,0,0,-1,1021,1261,0,0
-196,-237,0,0,0,0,0,0,0,0,0,-1,1028,1261,0,0
-189,-237,0,0,0,0,0,0,0,0,0,-1,1035,1261,0,0
-182,-237,0,0,0,0,0,0,0,0,0,-1,1042,1261,0,0
-175,-237,0,0,0,0,0,0,0,0,0,-1,1049,1261,0,0
-168,-237,0,0,0,0,0,0,0,0,0,-1,1056,1261,0,0
-161,-237,0,0,0,0,0,0,0,0,0,-1,1063,1261,0,0
-154,-237,0,0,0,0,0,0,0,0,0,-1,1070,1261,0,0
-147,-237,0,0,0,0,0,0,0,0,0,-1,1077,1261,0,0
-140,-237,0,0,0,0,0,0,0,0,0,-1,1084,1261,0,0
-133,-237,0,0,0,0,0,0,0,0,0,-1,1091,1261,0,0
-126,-237,0,0,0,0,0,0,0,0,0,-1,1098,1261,0,0
-119,-237,0,0,0,0,0,0,0,0,0,-1,1105,1261,0,0
-112,-237,0,0,0,0,0,0,0,0,0,-1,1112,1261,0,0
-105,-237,0,0,0,0,0,0,0,0,0,-1,1119,1261,0,0
-98,-237,0,0,0,0,0,0,0,0,0,-1,1126,1261,0,0
-91,-237,0,0,0,0,0,0,0,0,0,-1,1133,1261,0,0
-84,-237,0,0,0,0,0,0,0,0,0,-1,1140,1261,0,0
-77,-237,0,0,0,0,0,0,0,0,0,-1,1147,1261,0,0
-70,-237,0,0,0,0,0,0,0,0,0,-1,1154,1261,0,0
-63,-237,0,0,0,0,0,0,0,0,0,-1,1161,1261,0,0
-56,-237,0,0,0,0,0,0,0,0,0,-1,1168,1261,0,0
-49,-237,0,0,0,0,0,0,0,0,0,-1,1175,1261,0,0
-42,-237,0,0,0,0,0,0,0,0,0,-1,1182,1261,0,0
-35,-237,0,0,0,0,0,0,0,0,0,-1,1189,1261,0,0
-28,-237,0,0,0,0,0,0,0,0,0,-1,1196,1261,0,0
-21,-237,0,0,0,0,0,0,0,0,0,-1,1203,1261,0,0
-14,-237,0,0,0,0,0,0,0,0,0,-1,1210,1261,0,0
-7,-237,0,0,0,0,0,0,0,0,0,-1,1217,1261,0,0
0,-237,0,0,0,0,0,0,0,0,0,-1,1224,1261,0,0
7,-237,0,0,0,0,0,0,0,0,0,-1,1231,1261,0,0
14,-237,0,0,0,0,0,0,0,0,0,-1,1238,1261,0,0
21,-237,0,0,0,0,0,0,0,0,0,-1,1245,1261,0,0
28,-237,0,0,0,0,0,0,0,0,0,-1,1252,1261,0,0
35,-237,0,0,0,0,0,0,0,0,0,-1,1259,1261,0,0
42,-237,0,0,0,0,0,0,0,0,0,-1,1266,1261,0,0
49,-237,0,0,0,0,0,0,0,0,0,-1,1273,1261,0,0
56,-237,0,0,0,0,0,0,0,0,0,-1,1280,1261,0,0
63,-237,0,0,0,0,0,0,0,0,0,-1,1287,1261,0,0
70,-237,0,0,0,0,0,0,0,0,0,-1,1294,1261,0,0
77,-237,0,0,0,0,0,0,0,0,0,-1,1301,1261,0,0
84,-237,0,0,0,0,0,0,0,0,0,-1,1308,1261,0,0
91,-237,0,0,0,0,0,0,0,0,0,-1,1315,1261,0,0
98,-237,0,0,0,0,0,0,0,0,0,-1,1322,1261,0,0
105,-237,0,0,0,0,0,0,0,0,0,-1,1329,1261,0,0
112,-237,0,0,0,0,0,0,0,0,0,-1,1336,1261,0,0
119,-237,0,0,0,0,0,0,0,0,0,-1,1343,1261,0,0
126,-237,0,0,0,0,0,0,0,0,0,-1,1350,1261,0,0
133,-237,0,0,0,0,0,0,0,0,0,-1,1357,1261,0,0
140,-237,0,0,0,0,0,0,0,0,0,-1,1364,1261,0,0
147,-237,0,0,0,0,0,0,0,0,0,-1,1371,1261,0,0
154,-237,0,0,0,0,0,0,0,0,0,-1,1378,1261,0,0
161,-237,0,0,0,0,0,0,0,0,0,-1,1385,1261,0,0
168,-237,0,0,0,0,0,0,0,0,0,-1,1392,1261,0,0
175,-237,0,0,0,0,0,0,0,0,0,-1,1399,1261,0,0
182,-237,0,0,0,0,0,0,0,0,0,-1,1406,1261,0,0
189,-237,0,0,0,0,0,0,0,0,0,-1,1413,1261,0,0
196,-237,0,0,0,0,0,0,0,0,0,-1,1420,1261,0,0
203,-237,0,0,0,0,0,0,0,0,0,-1,1427,1261,0,0
210,-237,0,0,0,0,0,0,0,0,0,-1,1434,1261,0,0
217,-237,0,0,0,0,0,0,0,0,0,-1,1441,1261,0,0
224,-237,0,0,0,0,0,0,0,0,0,-1,1448,1261,0,0
231,-237,0,0,0,0,0,0,0,0,0,-1,1455,1261,0,0
238,-237,0,0,0,0,0,0,0,0,0,-1,1462,1261,0,0
245,-237,0,0,0,0,0,0,0,0,0,-1,1469,1261,0,0
252,-237,0,0,0,0,0,0,0,0,0,-1,1476,1261,0,0
259,-237,0,0,0,0,0,0,0,0,0,-1,1483,1261,0,0
266,-237,0,0,0,0,0,0,0,0,0,-1,1490,1261,0,0
273,-237,0,0,0,0,0,0,0,0,0,-1,1497,1261,0,0
280,-237,0,0,0,0,0,0,0,0,0,-1,1504,1261,0,0
287,-237,0,0,0,0,0,0,0,0,0,-1,1511,1261,0,0
294,-237,0,0,0,0,0,0,0,0,0,-1,1518,1261,0,0
301,-237,0,0,0,0,0,0,0,0,0,-1,1525,1261,0,0
308,-237,0,0,0,0,0,0,0,0,0,-1,1532,1261,0,0
315,-237,0,0,0,0,0,0,0,0,0,-1,1539,1261,0,0
322,-237,0,0,0,0,0,0,0,0,0,-1,1546,1261,0,0
329,-237,0,0,0,0,0,0,0,0,0,-1,1553,1261,0,0
336,-237,0,0,0,0,0,0,0,0,0,-1,1560,1261,0,0
343,-237,0,0,0,0,0,0,0,0,0,-1,1567,1261,0,0
350,-237,0,0,0,0,0,0,0,0,0,-1,1574,1261,0,0
357,-237,0,0,0,0,0,0,0,0,0,-1,1581,1261,0,0
364,-237,0,0,0,0,0,0,0,0,0,-1,1588,1261,0,0
371,-237,0,0,0,0,0,0,0,0,0,-1,1595,1261,0,0
378,-237,0,0,0,0,0,0,0,0,0,-1,1602,1261,0,0
385,-237,0,0,0,0,0,0,0,0,0,-1,1609,1261,0,0
392,-237,0,0,0,0,0,0,0,0,0,-1,1616,1261,0,0
399,-237,0,0,0,0,0,0,0,0,0,-1,1623,1261,0,0
406,-237,0,0,0,0,0,0,0,0,0,-1,1630,1261,0,0
413,-237,0,0,0,0,0,0,0,0,0,-1,1637,1261,0,0
420,-237,0,0,0,0,0,0,0,0,0,-1,1644,1261,0,0
427,-237,0,0,0,0,0,0,0,0,0,-1,1651,1261,0,0
434,-237,0,0,0,0,0,0,0,0,0,-1,1658,1261,0,0
441,-237,0,0,0,0,0,0,0,0,0,-1,1665,1261,0,0
448,-237,0,0,0,0,0,0,0,0,0,-1,1672,1261,0,0
455,-237,0,0,0,0,0,0,0,0,0,-1,1679,1261,0,0
462,-237,0,0,0,0,0,0,0,0,0,-1,1686,1261,0,0
469,-237,0,0,0,0,0,0,0,0,0,-1,1693,1261,0,0
476,-237,0,0,0,0,0,0,0,0,0,-1,1700,1261,0,0
483,-237,0,0,0,0,0,0,0,0,0,-1,1707,1261,0,0
490,-237,0,0,0,0,0,0,0,0,0,-1,1714,1261,0,0
497,-237,0,0,0,0,0,0,0,0,0,-1,1721,1261,0,0
504,-237,0,0,0,0,0,0,0,0,0,-1,1728,1261,0,0
511,-237,0,0,0,0,0,0,0,0,0,-1,1735,1261,0,0
518,-237,0,0,0,0,0,0,0,0,0,-1,1742,1261,0,0
525,-237,0,0,0,0,0,0,0,0,0,-1,1749,1261,0,0
532,-237,0,0,0,0,0,0,0,0,0,-1,1756,1261,0,0
539,-237,0,0,0,0,0,0,0,0,0,-1,1763,1261,0,0
546,-237,0,0,0,0,0,0,0,0,0,-1,1770,1261,0,0
553,-237,0,0,0,0,0,0,0,0,0,-1,1777,1261,0,0
560,-237,0,0,0,0,0,0,0,0,0,-1,1784,1261,0,0
567,-237,0,0,0,0,0,0,0,0,0,-1,1791,1261,0,0
574,-237,0,0,0,0,0,0,0,0,0,-1,1798,1261,0,0
581,-237,0,0,0,0,0,0,0,0,0,-1,1805,1261,0,0
588,-237,0,0,0,0,0,0,0,0,0,-1,1812,1261,0,0
595,-237,0,0,0,0,0,0,0,0,0,-1,1819,1261,0,0
602,-237,0,0,0,0,0,0,0,0,0,-1,1826,1261,0,0
609,-237,0,0,0,0,0,0,0,0,0,-1,1833,1261,0,0
616,-237,80.5626,2.14001,-0.000712829,-0.000826572,0.00135912,0.000590607,-0.00213001,0.764488,0.00165244,0.0370459,1840,1261,80.5626,-2.14007
623,-237,80.5712,2.15442,-0.00263998,0.0043276,0.00144822,0.00461662,-0.002929,1.37381,0.00439264,0.0339591,1847,1261,80.5711,-2.15437
630,-237,80.5094,2.15576,-0.00448292,0.00907418,0.0013777,0.00921277,-0.00462151,1.47054,0.00813252,0.0273996,1854,1261,80.5094,-2.15579
637,-237,80.4086,2.07251,-0.00554063,0.0120443,0.00106158,0.0121082,-0.00560449,1.51072,0.0104537,0.0214642,1861,1261,80.4086,-2.07245
644,-237,80.3196,1.96619,-0.00408376,0.00977321,0.000417488,0.00978578,-0.00409632,1.5407,0.00823615,0.0427997,1868,1261,80.3196,-1.96623
651,-237,80.2402,1.84692,0,0,0,0,0,0,0,-1,1875,1261,80.2402,-1.8469
658,-237,76.8235,1.29675,0,0,0,0,0,0,0,-1,1882,1261,76.8235,-1.2968
665,-237,57.9302,3.30676,0,0,0,0,0,0,0,-1,1889,1261,57.9302,-3.30671
672,-237,45.3922,1.95618,0,0,0,0,0,0,0,-1,1896,1261,45.3922,-1.95623
679,-237,23.1501,7.37488,0,0,0,0,0,0,0,-1,1903,1261,23.1502,-7.37493
686,-237,36.8348,9.99426,0,0,0,0,0,0,0,-1,1910,1261,36.8349,-9.99424
693,-237,60.1904,14.7769,0,0,0,0,0,0,0,-1,1917,1261,60.1904,-14.7768
700,-237,60.3386,13.9054,-0.000403688,0.00168432,0.000996095,0.00208328,-0.00080265,1.18984,0.00172001,0.0452324,1924,1261,60.3386,-13.9054
707,-237,60.1903,13.196,-0.000542168,0.000753423,0.00107055,0.00135692,-0.00114566,1.05748,0.00144658,0.0324514,1931,1261,60.1903,-13.196
714,-237,60.0367,12.3683,-0.00107826,0.000829508,0.00149412,0.00164828,-0.00189703,1.0695,0.00204856,0.0196873,1938,1261,60.0368,-12.3683
721,-237,59.993,11.5558,-0.00157548,0.00065019,0.00194652,0.00177953,-0.00270482,1.04508,0.00260735,0.0199027,1945,1261,59.993,-11.5557
728,-237,59.9675,10.7411,-0.00203622,6.68077e-05,0.00230834,0.00155185,-0.00352126,0.999119,0.00300163,0.0163234,1952,1261,59.9675,-10.7411
735,-237,59.9296,9.92639,-0.00258301,-0.000498234,0.0027457,0.00139628,-0.00447753,0.966817,0.00354337,0.0193142,1959,1261,59.9295,-9.92643
742,-237,59.887,9.13879,-0.00314022,-0.00117546,0.00336028,0.0013431,-0.00565878,0.927611,0.00429087,0.0155727,1966,1261,59.8869,-9.13876
749,-237,59.8064,8.35217,-0.00362571,-0.00199868,0.00415452,0.00142122,-0.00704562,0.882082,0.00523552,0.0108679,1973,1261,59.8065,-8.35221
756,-237,59.7589,7.56091,-0.00411366,-0.00300367,0.00532691,0.00179707,-0.0089144,0.837305,0.00662373,0.0186053,1980,1261,59.7589,-7.56094
763,-237,59.7563,6.74097,0,0,0,0,0,0,0,-1,1987,1261,59.7563,-6.74097
770,-237,59.207,5.81018,0,0,0,0,0,0,0,-1,1994,1261,59.207,-5.81018
777,-237,56.8215,4.47815,0,0,0,0,0,0,0,-1,2001,1261,56.8214,-4.47817
784,-237,36.3441,1.68591,0,0,0,0,0,0,0,-1,2008,1261,36.3441,-1.68592
791,-237,32.3025,6.03235,0,0,0,0,0,0,0,-1,2015,1261,32.3025,-6.03229
798,-237,0,0,0,0,0,0,0,0,0,-1,2022,1261,0,0
805,-237,0,0,0,0,0,0,0,0,0,-1,2029,1261,0,0
812,-237,0,0,0,0,0,0,0,0,0,-1,2036,1261,0,0
-700,-244,0,0,0,0,0,0,0,0,0,-1,524,1268,0,0
-693,-244,0,0,0,0,0,0,0,0,0,-1,531,1268,0,0
-686,-244,0,0,0,0,0,0,0,0,0,-1,538,1268,0,0
-679,-244,0,0,0,0,0,0,0,0,0,-1,545,1268,0,0
-672,-244,-44.7993,4.39575,0,0,0,0,0,0,0,-1,552,1268,-44.7992,-4.39576
-665,-244,-46.0868,3.64392,0,0,0,0,0,0,0,-1,559,1268,-46.0868,-3.64391
-658,-244,-45.9758,2.05481,0,0,0,0,0,0,0,-1,566,1268,-45.9758,-2.05486
-651,-244,-46.4749,1.28564,0,0,0,0,0,0,0,-1,573,1268,-46.4749,-1.28561
-644,-244,-32.7362,1.51355,0,0,0,0,0,0,0,-1,580,1268,-32.7362,-1.51355
-637,-244,-34.8414,3.00073,0,0,0,0,0,0,0,-1,587,1268,-34.8414,-3.00078
-630,-244,-42.1643,6.41504,0,0,0,0,0,0,0,-1,594,1268,-42.1643,-6.41504
-623,-244,-42.145,7.18994,0.00385334,-0.00213485,-0.000685735,0.00393087,-0.00221238,-0.112573,0.00359276,0.046297,601,1268,-42.1449,-7.18988
-616,-244,-42.1421,7.96838,0.00289211,-0.00117205,-0.000492235,0.00295088,-0.00123082,-0.118827,0.00248145,0.0199471,608,1268,-42.1421,-7.96843
-609,-244,-42.2318,8.80212,0.00151133,-0.000686691,-0.00037605,0.00157389,-0.000749247,-0.164842,0.00136914,0.0159591,615,1268,-42.2318,-8.80217
-602,-244,-42.2692,9.64746,2.01611e-05,-0.00102298,-0.000461271,0.00019487,-0.00119769,-0.36206,0.000870719,0.015624,622,1268,-42.2692,-9.64743
-595,-244,-42.3584,10.5085,-0.00142048,-0.00177461,-0.000646545,-0.000927195,-0.0022679,-0.651742,0.00131661,0.0175657,629,1268,-42.3584,-10.5086
-588,-244,-42.3962,11.355,-0.00285029,-0.00286727,-0.000968711,-0.00189004,-0.00382753,-0.781016,0.00220988,0.0226042,636,1268,-42.3962,-11.355
-581,-244,-42.4337,12.129,-0.00413934,-0.00421844,-0.00145048,-0.00272787,-0.00562991,-0.771767,0.00325095,0.019928,643,1268,-42.4337,-12.129
-574,-244,-42.4933,12.8821,-0.00498004,-0.00535221,-0.00183072,-0.00332597,-0.00700628,-0.734749,0.0040468,0.0348152,650,1268,-42.4933,-12.8821
-567,-244,-42.6584,13.7491,-0.00515883,-0.00600904,-0.00196061,-0.00357777,-0.00759011,-0.678639,0.00438455,0.0379056,657,1268,-42.6584,-13.7491
-560,-244,-42.7252,14.5195,-0.00487162,-0.00524836,-0.00225695,-0.00279519,-0.00732479,-0.743764,0.00426831,0.0442703,664,1268,-42.7252,-14.5195
-553,-244,-42.722,15.2599,0,0,0,0,0,0,0,-1,671,1268,-42.722,-15.2598
-546,-244,-11.2686,4.41772,0,0,0,0,0,0,0,-1,678,1268,-11.2686,-4.41767
-539,-244,-12.8706,0.3302,0,0,0,0,0,0,0,-1,685,1268,-12.8706,-0.330156
-532,-244,-18.1502,0.816528,0,0,0,0,0,0,0,-1,692,1268,-18.1502,-0.816514
-525,-244,-33.0835,0.693604,0,0,0,0,0,0,0,-1,699,1268,-33.0835,-0.69365
-518,-244,-47.5015,0.609131,0,0,0,0,0,0,0,-1,706,1268,-47.5015,-0.60919
-511,-244,-48.6138,1.11877,0,0,0,0,0,0,0,-1,713,1268,-48.6138,-1.11872
-504,-244,-63.3266,0.492065,0,0,0,0,0,0,0,-1,720,1268,-63.3266,-0.492075
-497,-244,-63.4462,0.494385,0,0,0,0,0,0,0,-1,727,1268,-63.4461,-0.49444
-490,-244,0,0,0,0,0,0,0,0,0,-1,734,1268,0,0
-483,-244,0,0,0,0,0,0,0,0,0,-1,741,1268,0,0
-476,-244,0,0,0,0,0,0,0,0,0,-1,748,1268,0,0
-469,-244,0,0,0,0,0,0,0,0,0,-1,755,1268,0,0
-462,-244,0,0,0,0,0,0,0,0,0,-1,762,1268,0,0
-455,-244,0,0,0,0,0,0,0,0,0,-1,769,1268,0,0
-448,-244,0,0,0,0,0,0,0,0,0,-1,776,1268,0,0
-441,-244,0,0,0,0,0,0,0,0,0,-1,783,1268,0,0
-434,-244,0,0,0,0,0,0,0,0,0,-1,790,1268,0,0
-427,-244,0,0,0,0,0,0,0,0,0,-1,797,1268,0,0
-420,-244,0,0,0,0,0,0,0,0,0,-1,804,1268,0,0
-413,-244,0,0,0,0,0,0,0,0,0,-1,811,1268,0,0
-406,-244,0,0,0,0,0,0,0,0,0,-1,818,1268,0,0
-399,-244,0,0,0,0,0,0,0,0,0,-1,825,1268,0,0
-392,-244,0,0,0,0,0,0,0,0,0,-1,832,1268,0,0
-385,-244,0,0,0,0,0,0,0,0,0,-1,839,1268,0,0
-378,-244,0,0,0,0,0,0,0,0,0,-1,846,1268,0,0
-371,-244,0,0,0,0,0,0,0,0,0,-1,853,1268,0,0
-364,-244,0,0,0,0,0,0,0,0,0,-1,860,1268,0,0
-357,-244,0,0,0,0,0,0,0,0,0,-1,867,1268,0,0
-350,-244,0,0,0,0,0,0,0,0,0,-1,874,1268,0,0
-343,-244,0,0,0,0,0,0,0,0,0,-1,881,1268,0,0
-336,-244,0,0,0,0,0,0,0,0,0,-1,888,1268,0,0
-329,-244,0,0,0,0,0,0,0,0,0,-1,895,1268,0,0
-322,-244,0,0,0,0,0,0,0,0,0,-1,902,1268,0,0
-315,-244,0,0,0,0,0,0,0,0,0,-1,909,1268,0,0
-308,-244,0,0,0,0,0,0,0,0,0,-1,916,1268,0,0
-301,-244,0,0,0,0,0,0,0,0,0,-1,923,1268,0,0
-294,-244,0,0,0,0,0,0,0,0,0,-1,930,1268,0,0
-287,-244,0,0,0,0,0,0,0,0,0,-1,937,1268,0,0
-280,-244,0,0,0,0,0,0,0,0,0,-1,944,1268,0,0
-273,-244,0,0,0,0,0,0,0,0,0,-1,951,1268,0,0
-266,-244,0,0,0,0,0,0,0,0,0,-1,958,1268,0,0
-259,-244,0,0,0,0,0,0,0,0,0,-1,965,1268,0,0
-252,-244,0,0,0,0,0,0,0,0,0,-1,972,1268,0,0
-245,-244,0,0,0,0,0,0,0,0,0,-1,979,1268,0,0
-238,-244,0,0,0,0,0,0,0,0,0,-1,986,1268,0,0
-231,-244,0,0,0,0,0,0,0,0,0,-1,993,1268,0,0
-224,-244,0,0,0,0,0,0,0,0,0,-1,1000,1268,0,0
-217,-244,0,0,0,0,0,0,0,0,0,-1,1007,1268,0,0
-210,-244,0,0,0,0,0,0,0,0,0,-1,1014,1268,0,0
-203,-244,0,0,0,0,0,0,0,0,0,-1,1021,1268,0,0
-196,-244,0,0,0,0,0,0,0,0,0,-1,1028,1268,0,0
-189,-244,0,0,0,0,0,0,0,0,0,-1,1035,1268,0,0
-182,-244,0,0,0,0,0,0,0,0,0,-1,1042,1268,0,0
-175,-244,0,0,0,0,0,0,0,0,0,-1,1049,1268,0,0
-168,-244,0,0,0,0,0,0,0,0,0,-1,1056,1268,0,0
-161,-244,0,0,0,0,0,0,0,0,0,-1,1063,1268,0,0
-154,-244,0,0,0,0,0,0,0,0,0,-1,1070,1268,0,0
-147,-244,0,0,0,0,0,0,0,0,0,-1,1077,1268,0,0
-140,-244,0,0,0,0,0,0,0,0,0,-1,1084,1268,0,0
-133,-244,0,0,0,0,0,0,0,0,0,-1,1091,1268,0,0
-126,-244,0,0,0,0,0,0,0,0,0,-1,1098,1268,0,0
-119,-244,0,0,0,0,0,0,0,0,0,-1,1105,1268,0,0
-112,-244,0,0,0,0,0,0,0,0,0,-1,1112,1268,0,0
-105,-244,0,0,0,0,0,0,0,0,0,-1,1119,1268,0,0
-98,-244,0,0,0,0,0,0,0,0,0,-1,1126,1268,0,0
-91,-244,0,0,0,0,0,0,0,0,0,-1,1133,1268,0,0
-84,-244,0,0,0,0,0,0,0,0,0,-1,1140,1268,0,0
-77,-244,0,0,0,0,0,0,0,0,0,-1,1147,1268,0,0
-70,-244,0,0,0,0,0,0,0,0,0,-1,1154,1268,0,0
-63,-244,0,0,0,0,0,0,0,0,0,-1,1161,1268,0,0
-56,-244,0,0,0,0,0,0,0,0,0,-1,1168,1268,0,0
-49,-244,0,0,0,0,0,0,0,0,0,-1,1175,1268,0,0
-42,-244,0,0,0,0,0,0,0,0,0,-1,1182,1268,0,0
-35,-244,0,0,0,0,0,0,0,0,0,-1,1189,1268,0,0
-28,-244,0,0,0,0,0,0,0,0,0,-1,1196,1268,0,0
-21,-244,0,0,0,0,0,0,0,0,0,-1,1203,1268,0,0
-14,-244,0,0,0,0,0,0,0,0,0,-1,1210,1268,0,0
-7,-244,0,0,0,0,0,0,0,0,0,-1,1217,1268,0,0
0,-244,0,0,0,0,0,0,0,0,0,-1,1224,1268,0,0
7,-244,0,0,0,0,0,0,0,0,0,-1,1231,1268,0,0
14,-244,0,0,0,0,0,0,0,0,0,-1,1238,1268,0,0
21,-244,0,0,0,0,0,0,0,0,0,-1,1245,1268,0,0
28,-244,0,0,0,0,0,0,0,0,0,-1,1252,1268,0,0
35,-244,0,0,0,0,0,0,0,0,0,-1,1259,1268,0,0
42,-244,0,0,0,0,0,0,0,0,0,-1,1266,1268,0,0
49,-244,0,0,0,0,0,0,0,0,0,-1,1273,1268,0,0
56,-244,0,0,0,0,0,0,0,0,0,-1,1280,1268,0,0
63,-244,0,0,0,0,0,0,0,0,0,-1,1287,1268,0,0
70,-244,0,0,0,0,0,0,0,0,0,-1,1294,1268,0,0
77,-244,0,0,0,0,0,0,0,0,0,-1,1301,1268,0,0
84,-244,0,0,0,0,0,0,0,0,0,-1,1308,1268,0,0
91,-244,0,0,0,0,0,0,0,0,0,-1,1315,1268,0,0
98,-244,0,0,0,0,0,0,0,0,0,-1,1322,1268,0,0
105,-244,0,0,0,0,0,0,0,0,0,-1,1329,1268,0,0
112,-244,0,0,0,0,0,0,0,0,0,-1,1336,1268,0,0
119,-244,0,0,0,0,0,0,0,0,0,-1,1343,1268,0,0
126,-244,0,0,0,0,0,0,0,0,0,-1,1350,1268,0,0
133,-244,0,0,0,0,0,0,0,0,0,-1,1357,1268,0,0
140,-244,0,0,0,0,0,0,0,0,0,-1,1364,1268,0,0
147,-244,0,0,0,0,0,0,0,0,0,-1,1371,1268,0,0
154,-244,0,0,0,0,0,0,0,0,0,-1,1378,1268,0,0
161,-244,0,0,0,0,0,0,0,0,0,-1,1385,1268,0,0
168,-244,0,0,0,0,0,0,0,0,0,-1,1392,1268,0,0
175,-244,0,0,0,0,0,0,0,0,0,-1,1399,1268,0,0
182,-244,0,0,0,0,0,0,0,0,0,-1,1406,1268,0,0
189,-244,0,0,0,0,0,0,0,0,0,-1,1413,1268,0,0
196,-244,0,0,0,0,0,0,0,0,0,-1,1420,1268,0,0
203,-244,0,0,0,0,0,0,0,0,0,-1,1427,1268,0,0
210,-244,0,0,0,0,0,0,0,0,0,-1,1434,1268,0,0
217,-244,0,0,0,0,0,0,0,0,0,-1,1441,1268,0,0
224,-244,0,0,0,0,0,0,0,0,0,-1,1448,1268,0,0
231,-244,0,0,0,0,0,0,0,0,0,-1,1455,1268,0,0
238,-244,0,0,0,0,0,0,0,0,0,-1,1462,1268,0,0
245,-244,0,0,0,0,0,0,0,0,0,-1,1469,1268,0,0
252,-244,0,0,0,0,0,0,0,0,0,-1,1476,1268,0,0
259,-244,0,0,0,0,0,0,0,0,0,-1,1483,1268,0,0
266,-244,0,0,0,0,0,0,0,0,0,-1,1490,1268,0,0
273,-244,0,0,0,0,0,0,0,0,0,-1,1497,1268,0,0
280,-244,0,0,0,0,0,0,0,0,0,-1,1504,1268,0,0
287,-244,0,0,0,0,0,0,0,0,0,-1,1511,1268,0,0
294,-244,0,0,0,0,0,0,0,0,0,-1,1518,1268,0,0
301,-244,0,0,0,0,0,0,0,0,0,-1,1525,1268,0,0
308,-244,0,0,0,0,0,0,0,0,0,-1,1532,1268,0,0
315,-244,0,0,0,0,0,0,0,0,0,-1,1539,1268,0,0
322,-244,0,0,0,0,0,0,0,0,0,-1,1546,1268,0,0
329,-244,0,0,0,0,0,0,0,0,0,-1,1553,1268,0,0
336,-244,0,0,0,0,0,0,0,0,0,-1,1560,1268,0,0
343,-244,0,0,0,0,0,0,0,0,0,-1,1567,1268,0,0
350,-244,0,0,0,0,0,0,0,0,0,-1,1574,1268,0,0
357,-244,0,0,0,0,0,0,0,0,0,-1,1581,1268,0,0
364,-244,0,0,0,0,0,0,0,0,0,-1,1588,1268,0,0
371,-244,0,0,0,0,0,0,0,0,0,-1,1595,1268,0,0
378,-244,0,0,0,0,0,0,0,0,0,-1,1602,1268,0,0
385,-244,0,0,0,0,0,0,0,0,0,-1,1609,1268,0,0
392,-244,0,0,0,0,0,0,0,0,0,-1,1616,1268,0,0
399,-244,0,0,0,0,0,0,0,0,0,-1,1623,1268,0,0
406,-244,0,0,0,0,0,0,0,0,0,-1,1630,1268,0,0
413,-244,0,0,0,0,0,0,0,0,0,-1,1637,1268,0,0
420,-244,0,0,0,0,0,0,0,0,0,-1,1644,1268,0,0
427,-244,0,0,0,0,0,0,0,0,0,-1,1651,1268,0,0
434,-244,0,0,0,0,0,0,0,0,0,-1,1658,1268,0,0
441,-244,0,0,0,0,0,0,0,0,0,-1,1665,1268,0,0
448,-244,0,0,0,0,0,0,0,0,0,-1,1672,1268,0,0
455,-244,0,0,0,0,0,0,0,0,0,-1,1679,1268,0,0
462,-244,0,0,0,0,0,0,0,0,0,-1,1686,1268,0,0
469,-244,0,0,0,0,0,0,0,0,0,-1,1693,1268,0,0
476,-244,0,0,0,0,0,0,0,0,0,-1,1700,1268,0,0
483,-244,0,0,0,0,0,0,0,0,0,-1,1707,1268,0,0
490,-244,0,0,0,0,0,0,0,0,0,-1,1714,1268,0,0
497,-244,0,0,0,0,0,0,0,0,0,-1,1721,1268,0,0
504,-244,0,0,0,0,0,0,0,0,0,-1,1728,1268,0,0
511,-244,0,0,0,0,0,0,0,0,0,-1,1735,1268,0,0
518,-244,0,0,0,0,0,0,0,0,0,-1,1742,1268,0,0
525,-244,0,0,0,0,0,0,0,0,0,-1,1749,1268,0,0
532,-244,0,0,0,0,0,0,0,0,0,-1,1756,1268,0,0
539,-244,0,0,0,0,0,0,0,0,0,-1,1763,1268,0,0
546,-244,0,0,0,0,0,0,0,0,0,-1,1770,1268,0,0
553,-244,0,0,0,0,0,0,0,0,0,-1,1777,1268,0,0
560,-244,0,0,0,0,0,0,0,0,0,-1,1784,1268,0,0
567,-244,0,0,0,0,0,0,0,0,0,-1,1791,1268,0,0
574,-244,0,0,0,0,0,0,0,0,0,-1,1798,1268,0,0
581,-244,0,0,0,0,0,0,0,0,0,-1,1805,1268,0,0
588,-244,0,0,0,0,0,0,0,0,0,-1,1812,1268,0,0
595,-244,0,0,0,0,0,0,0,0,0,-1,1819,1268,0,0
602,-244,0,0,0,0,0,0,0,0,0,-1,1826,1268,0,0
609,-244,0,0,0,0,0,0,0,0,0,-1,1833,1268,0,0
616,-244,80.49,2.13452,-0.00295503,0.00413407,0.00219373,0.00475801,-0.00357897,1.2937,0.00482938,0.0343343,1840,1268,80.49,-2.1345
623,-244,80.4974,2.18005,-0.00520538,0.00992368,0.00251694,0.0103314,-0.00561312,1.41019,0.00933897,0.0282342,1847,1268,80.4974,-2.18002
630,-244,80.4733,2.1842,-0.0071504,0.0147305,0.00261486,0.0150386,-0.00745855,1.45349,0.0132322,0.0255076,1854,1268,80.4733,-2.18418
637,-244,80.3872,2.05957,-0.00723802,0.0154974,0.00211169,0.0156919,-0.00743249,1.47896,0.0136318,0.0394541,1861,1268,80.3872,-2.05961
644,-244,80.2823,1.96643,-0.0049777,0.0113565,0.00119851,0.011444,-0.00506517,1.49794,0.00976583,0.047773,1868,1268,80.2823,-1.96648
651,-244,80.2018,1.89758,0,0,0,0,0,0,0,-1,1875,1268,80.2018,-1.89763
658,-244,71.6105,1.55334,0,0,0,0,0,0,0,-1,1882,1268,71.6104,-1.55332
665,-244,50.7988,1.09888,0,0,0,0,0,0,0,-1,1889,1268,50.7989,-1.09893
672,-244,32.224,3.6123,0,0,0,0,0,0,0,-1,1896,1268,32.224,-3.6123
679,-244,27.2593,7.90649,0,0,0,0,0,0,0,-1,1903,1268,27.2592,-7.9065
686,-244,59.4597,15.5802,0,0,0,0,0,0,0,-1,1910,1268,59.4598,-15.5802
693,-244,59.394,14.8403,-0.000399524,0.00142031,0.000709962,0.00166452,-0.000643727,1.23951,0.00137542,0.0393282,1917,1268,59.394,-14.8403
700,-244,59.3837,14.0153,-5.91613e-05,0.00107726,0.00100257,0.00166144,-0.000643343,1.04321,0.00137326,0.0204527,1924,1268,59.3836,-14.0152
707,-244,59.3234,13.2091,-0.000323362,0.000220628,0.00109967,0.00108144,-0.00118418,0.906636,0.00130851,0.0163487,1931,1268,59.3234,-13.209
714,-244,59.3572,12.3839,-0.000999939,0.000317075,0.00147665,0.00127539,-0.00195825,0.995138,0.00188077,0.0168928,1938,1268,59.3572,-12.3839
721,-244,59.2136,11.6345,-0.00164284,0.000137441,0.00186346,0.00131245,-0.00281785,1.00822,0.00243685,0.0249591,1945,1268,59.2136,-11.6346
728,-244,59.1575,10.7831,-0.00226551,-0.000361784,0.00222295,0.00110453,-0.00373182,0.987686,0.00292638,0.0316301,1952,1268,59.1574,-10.7831
735,-244,59.0898,9.87207,-0.00295198,-0.000952955,0.00268011,0.000907953,-0.00481289,0.963879,0.00355016,0.0291917,1959,1268,59.0899,-9.87208
742,-244,59.0226,9.19763,-0.00366077,-0.00169705,0.00329543,0.000759682,-0.0061175,0.930184,0.00435371,0.0178362,1966,1268,59.0226,-9.19764
749,-244,58.8622,8.5498,-0.00431922,-0.00266143,0.0040817,0.000674685,-0.00765534,0.885574,0.00534268,0.024974,1973,1268,58.8622,-8.54978
756,-244,58.6648,7.88379,-0.00504747,-0.0039007,0.00528397,0.000840906,-0.00978907,0.839444,0.00682364,0.0359902,1980,1268,58.6648,-7.88378
763,-244,58.592,7.01086,0,0,0,0,0,0,0,-1,1987,1268,58.5921,-7.01083
770,-244,56.2969,5.43298,0,0,0,0,0,0,0,-1,1994,1268,56.2969,-5.43297
777,-244,48.7119,2.7002,0,0,0,0,0,0,0,-1,2001,1268,48.712,-2.70019
784,-244,31.7908,5.20081,0,0,0,0,0,0,0,-1,2008,1268,31.7907,-5.20083
791,-244,0,0,0,0,0,0,0,0,0,-1,2015,1268,0,0
798,-244,0,0,0,0,0,0,0,0,0,-1,2022,1268,0,0
805,-244,0,0,0,0,0,0,0,0,0,-1,2029,1268,0,0
812,-244,0,0,0,0,0,0,0,0,0,-1,2036,1268,0,0
-700,-251,0,0,0,0,0,0,0,0,0,-1,524,1275,0,0
-693,-251,0,0,0,0,0,0,0,0,0,-1,531,1275,0,0
-686,-251,0,0,0,0,0,0,0,0,0,-1,538,1275,0,0
-679,-251,0,0,0,0,0,0,0,0,0,-1,545,1275,0,0
-672,-251,0,0,0,0,0,0,0,0,0,-1,552,1275,0,0
-665,-251,-45.2521,2.44568,0,0,0,0,0,0,0,-1,559,1275,-45.2521,-2.44573
-658,-251,-45.5222,1.44397,0,0,0,0,0,0,0,-1,566,1275,-45.5221,-1.44401
-651,-251,-45.8498,0.382935,0,0,0,0,0,0,0,-1,573,1275,-45.8498,-0.382965
-644,-251,-46.2018,-0.658325,0,0,0,0,0,0,0,-1,580,1275,-46.2019,0.658365
-637,-251,-35.2292,3.33899,0,0,0,0,0,0,0,-1,587,1275,-35.2292,-3.33904
-630,-251,-41.5698,6.64917,0,0,0,0,0,0,0,-1,594,1275,-41.5698,-6.64914
-623,-251,-41.4518,7.32117,0.00548777,-0.00245067,0.000102979,0.0054891,-0.00245201,0.0129693,0.00469524,0.0409868,601,1275,-41.4518,-7.32118
-616,-251,-41.3405,8.02637,0.00425328,-0.0012239,4.38291e-05,0.00425363,-0.00122426,0.00800144,0.00331995,0.0204676,608,1275,-41.3405,-8.02635
-609,-251,-41.3979,8.83325,0.00262184,-0.000523434,-2.29456e-05,0.00262201,-0.000523602,-0.00729475,0.00194616,0.020347,615,1275,-41.398,-8.8333
-602,-251,-41.4328,9.6814,0.000917824,-0.000765923,-0.000275518,0.000961762,-0.000809861,-0.158141,0.0010241,0.0149564,622,1275,-41.4328,-9.68138
-595,-251,-41.4988,10.535,-0.000646361,-0.00142754,-0.000625374,-0.000299622,-0.00177428,-0.506253,0.00109671,0.0136017,629,1275,-41.4988,-10.535
-588,-251,-41.5612,11.3671,-0.00213637,-0.00245275,-0.00101815,-0.0012642,-0.00332492,-0.708328,0.00193792,0.016061,636,1275,-41.5612,-11.3671
-581,-251,-41.5831,12.2228,-0.00357719,-0.00378409,-0.00150493,-0.00217216,-0.00518913,-0.751081,0.00300915,0.0146494,643,1275,-41.5831,-12.2228
-574,-251,-41.6371,13.1182,-0.00474075,-0.00506514,-0.00195633,-0.0029399,-0.00686599,-0.744038,0.00397769,0.0242123,650,1275,-41.6371,-13.1181
-567,-251,-41.86,13.8661,-0.00523904,-0.00597597,-0.00221168,-0.00336534,-0.00784967,-0.702856,0.00454733,0.0385574,657,1275,-41.86,-13.8661
-560,-251,-41.9435,14.743,-0.00489455,-0.0053342,-0.00252044,-0.00258437,-0.00764438,-0.7419,0.00448997,0.045621,664,1275,-41.9435,-14.743
-553,-251,-41.7834,15.6227,0,0,0,0,0,0,0,-1,671,1275,-41.7834,-15.6226
-546,-251,-12.995,4.5675,0,0,0,0,0,0,0,-1,678,1275,-12.995,-4.56745
-539,-251,-10.7916,0.366333,0,0,0,0,0,0,0,-1,685,1275,-10.7916,-0.366282
-532,-251,-10.7391,-0.00769043,0,0,0,0,0,0,0,-1,692,1275,-10.7391,0.00773227
-525,-251,-29.4286,-0.250244,0,0,0,0,0,0,0,-1,699,1275,-29.4286,0.250266
-518,-251,-32.6981,0.678833,0,0,0,0,0,0,0,-1,706,1275,-32.6981,-0.678787
-511,-251,-29.4731,0.637085,0,0,0,0,0,0,0,-1,713,1275,-29.4731,-0.637025
-504,-251,-30.6428,0.792358,0,0,0,0,0,0,0,-1,720,1275,-30.6427,-0.792335
-497,-251,-54.1249,0.753784,0,0,0,0,0,0,0,-1,727,1275,-54.1249,-0.753774
-490,-251,0,0,0,0,0,0,0,0,0,-1,734,1275,0,0
-483,-251,0,0,0,0,0,0,0,0,0,-1,741,1275,0,0
-476,-251,0,0,0,0,0,0,0,0,0,-1,748,1275,0,0
-469,-251,0,0,0,0,0,0,0,0,0,-1,755,1275,0,0
-462,-251,0,0,0,0,0,0,0,0,0,-1,762,1275,0,0
-455,-251,0,0,0,0,0,0,0,0,0,-1,769,1275,0,0
-448,-251,0,0,0,0,0,0,0,0,0,-1,776,1275,0,0
-441,-251,0,0,0,0,0,0,0,0,0,-1,783,1275,0,0
-434,-251,0,0,0,0,0,0,0,0,0,-1,790,1275,0,0
-427,-251,0,0,0,0,0,0,0,0,0,-1,797,1275,0,0
-420,-251,0,0,0,0,0,0,0,0,0,-1,804,1275,0,0
-413,-251,0,0,0,0,0,0,0,0,0,-1,811,1275,0,0
-406,-251,0,0,0,0,0,0,0,0,0,-1,818,1275,0,0
-399,-251,0,0,0,0,0,0,0,0,0,-1,825,1275,0,0
-392,-251,0,0,0,0,0,0,0,0,0,-1,832,1275,0,0
-385,-251,0,0,0,0,0,0,0,0,0,-1,839,1275,0,0
-378,-251,0,0,0,0,0,0,0,0,0,-1,846,1275,0,0
-371,-251,0,0,0,0,0,0,0,0,0,-1,853,1275,0,0
-364,-251,0,0,0,0,0,0,0,0,0,-1,860,1275,0,0
-357,-251,0,0,0,0,0,0,0,0,0,-1,867,1275,0,0
-350,-251,0,0,0,0,0,0,0,0,0,-1,874,1275,0,0
-343,-251,0,0,0,0,0,0,0,0,0,-1,881,1275,0,0
-336,-251,0,0,0,0,0,0,0,0,0,-1,888,1275,0,0
-329,-251,0,0,0,0,0,0,0,0,0,-1,895,1275,0,0
-322,-251,0,0,0,0,0,0,0,0,0,-1,902,1275,0,0
-315,-251,0,0,0,0,0,0,0,0,0,-1,909,1275,0,0
-308,-251,0,0,0,0,0,0,0,0,0,-1,916,1275,0,0
-301,-251,0,0,0,0,0,0,0,0,0,-1,923,1275,0,0
-294,-251,0,0,0,0,0,0,0,0,0,-1,930,1275,0,0
-287,-251,0,0,0,0,0,0,0,0,0,-1,937,1275,0,0
-280,-251,0,0,0,0,0,0,0,0,0,-1,944,1275,0,0
-273,-251,0,0,0,0,0,0,0,0,0,-1,951,1275,0,0
-266,-251,0,0,0,0,0,0,0,0,0,-1,958,1275,0,0
-259,-251,0,0,0,0,0,0,0,0,0,-1,965,1275,0,0
-252,-251,0,0,0,0,0,0,0,0,0,-1,972,1275,0,0
-245,-251,0,0,0,0,0,0,0,0,0,-1,979,1275,0,0
-238,-251,0,0,0,0,0,0,0,0,0,-1,986,1275,0,0
-231,-251,0,0,0,0,0,0,0,0,0,-1,993,1275,0,0
-224,-251,0,0,0,0,0,0,0,0,0,-1,1000,1275,0,0
-217,-251,0,0,0,0,0,0,0,0,0,-1,1007,1275,0,0
-210,-251,0,0,0,0,0,0,0,0,0,-1,1014,1275,0,0
-203,-251,0,0,0,0,0,0,0,0,0,-1,1021,1275,0,0
-196,-251,0,0,0,0,0,0,0,0,0,-1,1028,1275,0,0
-189,-251,0,0,0,0,0,0,0,0,0,-1,1035,1275,0,0
-182,-251,0,0,0,0,0,0,0,0,0,-1,1042,1275,0,0
-175,-251,0,0,0,0,0,0,0,0,0,-1,1049,1275,0,0
-168,-251,0,0,0,0,0,0,0,0,0,-1,1056,1275,0,0
-161,-251,0,0,0,0,0,0,0,0,0,-1,1063,1275,0,0
-154,-251,0,0,0,0,0,0,0,0,0,-1,1070,1275,0,0
-147,-251,0,0,0,0,0,0,0,0,0,-1,1077,1275,0,0
-140,-251,0,0,0,0,0,0,0,0,0,-1,1084,1275,0,0
-133,-251,0,0,0,0,0,0,0,0,0,-1,1091,1275,0,0
-126,-251,0,0,0,0,0,0,0,0,0,-1,1098,1275,0,0
-119,-251,0,0,0,0,0,0,0,0,0,-1,1105,1275,0,0
-112,-251,0,0,0,0,0,0,0,0,0,-1,1112,1275,0,0
-105,-251,0,0,0,0,0,0,0,0,0,-1,1119,1275,0,0
-98,-251,0,0,0,0,0,0,0,0,0,-1,1126,1275,0,0
-91,-251,0,0,0,0,0,0,0,0,0,-1,1133,1275,0,0
-84,-251,0,0,0,0,0,0,0,0,0,-1,1140,1275,0,0
-77,-251,0,0,0,0,0,0,0,0,0,-1,1147,1275,0,0
-70,-251,0,0,0,0,0,0,0,0,0,-1,1154,1275,0,0
-63,-251,0,0,0,0,0,0,0,0,0,-1,1161,1275,0,0
-56,-251,0,0,0,0,0,0,0,0,0,-1,1168,1275,0,0
-49,-251,0,0,0,0,0,0,0,0,0,-1,1175,1275,0,0
-42,-251,0,0,0,0,0,0,0,0,0,-1,1182,1275,0,0
-35,-251,0,0,0,0,0,0,0,0,0,-1,1189,1275,0,0
-28,-251,0,0,0,0,0,0,0,0,0,-1,1196,1275,0,0
-21,-251,0,0,0,0,0,0,0,0,0,-1,1203,1275,0,0
-14,-251,0,0,0,0,0,0,0,0,0,-1,1210,1275,0,0
-7,-251,0,0,0,0,0,0,0,0,0,-1,1217,1275,0,0
0,-251,0,0,0,0,0,0,0,0,0,-1,1224,1275,0,0
7,-251,0,0,0,0,0,0,0,0,0,-1,1231,1275,0,0
14,-251,0,0,0,0,0,0,0,0,0,-1,1238,1275,0,0
21,-251,0,0,0,0,0,0,0,0,0,-1,1245,1275,0,0
28,-251,0,0,0,0,0,0,0,0,0,-1,1252,1275,0,0
35,-251,0,0,0,0,0,0,0,0,0,-1,1259,1275,0,0
42,-251,0,0,0,0,0,0,0,0,0,-1,1266,1275,0,0
49,-251,0,0,0,0,0,0,0,0,0,-1,1273,1275,0,0
56,-251,0,0,0,0,0,0,0,0,0,-1,1280,1275,0,0
63,-251,0,0,0,0,0,0,0,0,0,-1,1287,1275,0,0
70,-251,0,0,0,0,0,0,0,0,0,-1,1294,1275,0,0
77,-251,0,0,0,0,0,0,0,0,0,-1,1301,1275,0,0
84,-251,0,0,0,0,0,0,0,0,0,-1,1308,1275,0,0
91,-251,0,0,0,0,0,0,0,0,0,-1,1315,1275,0,0
98,-251,0,0,0,0,0,0,0,0,0,-1,1322,1275,0,0
105,-251,0,0,0,0,0,0,0,0,0,-1,1329,1275,0,0
112,-251,0,0,0,0,0,0,0,0,0,-1,1336,1275,0,0
119,-251,0,0,0,0,0,0,0,0,0,-1,1343,1275,0,0
126,-251,0,0,0,0,0,0,0,0,0,-1,1350,1275,0,0
133,-251,0,0,0,0,0,0,0,0,0,-1,1357,1275,0,0
140,-251,0,0,0,0,0,0,0,0,0,-1,1364,1275,0,0
147,-251,0,0,0,0,0,0,0,0,0,-1,1371,1275,0,0
154,-251,0,0,0,0,0,0,0,0,0,-1,1378,1275,0,0
161,-251,0,0,0,0,0,0,0,0,0,-1,1385,1275,0,0
168,-251,0,0,0,0,0,0,0,0,0,-1,1392,1275,0,0
175,-251,0,0,0,0,0,0,0,0,0,-1,1399,1275,0,0
182,-251,0,0,0,0,0,0,0,0,0,-1,1406,1275,0,0
189,-251,0,0,0,0,0,0,0,0,0,-1,1413,1275,0,0
196,-251,0,0,0,0,0,0,0,0,0,-1,1420,1275,0,0
203,-251,0,0,0,0,0,0,0,0,0,-1,1427,1275,0,0
210,-251,0,0,0,0,0,0,0,0,0,-1,1434,1275,0,0
217,-251,0,0,0,0,0,0,0,0,0,-1,1441,1275,0,0
224,-251,0,0,0,0,0,0,0,0,0,-1,1448,1275,0,0
231,-251,0,0,0,0,0,0,0,0,0,-1,1455,1275,0,0
238,-251,0,0,0,0,0,0,0,0,0,-1,1462,1275,0,0
245,-251,0,0,0,0,0,0,0,0,0,-1,1469,1275,0,0
252,-251,0,0,0,0,0,0,0,0,0,-1,1476,1275,0,0
259,-251,0,0,0,0,0,0,0,0,0,-1,1483,1275,0,0
266,-251,0,0,0,0,0,0,0,0,0,-1,1490,1275,0,0
273,-251,0,0,0,0,0,0,0,0,0,-1,1497,1275,0,0
280,-251,0,0,0,0,0,0,0,0,0,-1,1504,1275,0,0
287,-251,0,0,0,0,0,0,0,0,0,-1,1511,1275,0,0
294,-251,0,0,0,0,0,0,0,0,0,-1,1518,1275,0,0
301,-251,0,0,0,0,0,0,0,0,0,-1,1525,1275,0,0
308,-251,0,0,0,0,0,0,0,0,0,-1,1532,1275,0,0
315,-251,0,0,0,0,0,0,0,0,0,-1,1539,1275,0,0
322,-251,0,0,0,0,0,0,0,0,0,-1,1546,1275,0,0
329,-251,0,0,0,0,0,0,0,0,0,-1,1553,1275,0,0
336,-251,0,0,0,0,0,0,0,0,0,-1,1560,1275,0,0
343,-251,0,0,0,0,0,0,0,0,0,-1,1567,1275,0,0
350,-251,0,0,0,0,0,0,0,0,0,-1,1574,1275,0,0
357,-251,0,0,0,0,0,0,0,0,0,-1,1581,1275,0,0
364,-251,0,0,0,0,0,0,0,0,0,-1,1588,1275,0,0
371,-251,0,0,0,0,0,0,0,0,0,-1,1595,1275,0,0
378,-251,0,0,0,0,0,0,0,0,0,-1,1602,1275,0,0
385,-251,0,0,0,0,0,0,0,0,0,-1,1609,1275,0,0
392,-251,0,0,0,0,0,0,0,0,0,-1,1616,1275,0,0
399,-251,0,0,0,0,0,0,0,0,0,-1,1623,1275,0,0
406,-251,0,0,0,0,0,0,0,0,0,-1,1630,1275,0,0
413,-251,0,0,0,0,0,0,0,0,0,-1,1637,1275,0,0
420,-251,0,0,0,0,0,0,0,0,0,-1,1644,1275,0,0
427,-251,0,0,0,0,0,0,0,0,0,-1,1651,1275,0,0
434,-251,0,0,0,0,0,0,0,0,0,-1,1658,1275,0,0
441,-251,0,0,0,0,0,0,0,0,0,-1,1665,1275,0,0
448,-251,0,0,0,0,0,0,0,0,0,-1,1672,1275,0,0
455,-251,0,0,0,0,0,0,0,0,0,-1,1679,1275,0,0
462,-251,0,0,0,0,0,0,0,0,0,-1,1686,1275,0,0
469,-251,0,0,0,0,0,0,0,0,0,-1,1693,1275,0,0
476,-251,0,0,0,0,0,0,0,0,0,-1,1700,1275,0,0
483,-251,0,0,0,0,0,0,0,0,0,-1,1707,1275,0,0
490,-251,0,0,0,0,0,0,0,0,0,-1,1714,1275,0,0
497,-251,0,0,0,0,0,0,0,0,0,-1,1721,1275,0,0
504,-251,0,0,0,0,0,0,0,0,0,-1,1728,1275,0,0
511,-251,0,0,0,0,0,0,0,0,0,-1,1735,1275,0,0
518,-251,0,0,0,0,0,0,0,0,0,-1,1742,1275,0,0
525,-251,0,0,0,0,0,0,0,0,0,-1,1749,1275,0,0
532,-251,0,0,0,0,0,0,0,0,0,-1,1756,1275,0,0
539,-251,0,0,0,0,0,0,0,0,0,-1,1763,1275,0,0
546,-251,0,0,0,0,0,0,0,0,0,-1,1770,1275,0,0
553,-251,0,0,0,0,0,0,0,0,0,-1,1777,1275,0,0
560,-251,0,0,0,0,0,0,0,0,0,-1,1784,1275,0,0
567,-251,0,0,0,0,0,0,0,0,0,-1,1791,1275,0,0
574,-251,0,0,0,0,0,0,0,0,0,-1,1798,1275,0,0
581,-251,0,0,0,0,0,0,0,0,0,-1,1805,1275,0,0
588,-251,0,0,0,0,0,0,0,0,0,-1,1812,1275,0,0
595,-251,0,0,0,0,0,0,0,0,0,-1,1819,1275,0,0
602,-251,0,0,0,0,0,0,0,0,0,-1,1826,1275,0,0
609,-251,80.5157,2.15808,-0.00310149,0.00404076,0.00266812,0.00492742,-0.00398815,1.24996,0.00515692,0.0306952,1833,1275,80.5158,-2.15813
616,-251,80.4835,2.18481,-0.00589027,0.0112947,0.00352483,0.0119895,-0.00658516,1.37615,0.0108744,0.0286997,1840,1275,80.4835,-2.18483
623,-251,80.4641,2.20117,-0.00833926,0.0174433,0.00413217,0.0180894,-0.00898534,1.4157,0.0159234,0.0243666,1847,1275,80.4641,-2.2012
630,-251,80.4554,2.17468,-0.00946273,0.0203194,0.00408074,0.0208684,-0.0100117,1.43706,0.0181923,0.0362454,1854,1275,80.4555,-2.17474
637,-251,80.4614,2.07251,-0.00809585,0.0177414,0.00308405,0.0181044,-0.00845887,1.45362,0.0156697,0.044041,1861,1275,80.4615,-2.07253
644,-251,80.2759,1.92834,0,0,0,0,0,0,0,-1,1868,1275,80.2759,-1.92835
651,-251,79.5677,2.8844,0,0,0,0,0,0,0,-1,1875,1275,79.5677,-2.88437
658,-251,64.3931,2.57288,0,0,0,0,0,0,0,-1,1882,1275,64.393,-2.57287
665,-251,32.9579,2.60229,0,0,0,0,0,0,0,-1,1889,1275,32.9579,-2.60231
672,-251,26.0721,4.53064,0,0,0,0,0,0,0,-1,1896,1275,26.0721,-4.53063
679,-251,29.1344,8.63782,0,0,0,0,0,0,0,-1,1903,1275,29.1344,-8.63778
686,-251,58.7013,15.6404,0,0,0,0,0,0,0,-1,1910,1275,58.7013,-15.6404
693,-251,58.5901,14.911,-5.44906e-05,0.00101792,0.00077513,0.00142424,-0.000460804,1.08799,0.00113472,0.0405502,1917,1275,58.5901,-14.911
700,-251,58.5565,14.0663,0.000301992,0.000648512,0.00108365,0.00157267,-0.000622166,0.86467,0.0013062,0.0168358,1924,1275,58.5565,-14.0663
707,-251,58.5286,13.2404,-0.000111833,-0.000117236,0.00115167,0.00103714,-0.00126621,0.784225,0.00133203,0.0131849,1931,1275,58.5286,-13.2403
714,-251,58.5143,12.4143,-0.000927287,-7.21771e-05,0.0014667,0.00102802,-0.00202748,0.927222,0.00179528,0.0166951,1938,1275,58.5143,-12.4143
721,-251,58.3805,11.6566,-0.00173243,-0.000315597,0.00180302,0.000913183,-0.00296121,0.972586,0.00233873,0.0276674,1945,1275,58.3805,-11.6566
728,-251,58.3153,10.9169,-0.0025267,-0.000837108,0.00218134,0.000657313,-0.00402112,0.970146,0.00292458,0.0334093,1952,1275,58.3153,-10.9168
735,-251,58.2769,9.97705,-0.00336311,-0.00152437,0.00266793,0.000378152,-0.00526563,0.951326,0.00364302,0.025703,1959,1275,58.2769,-9.97705
742,-251,58.2018,9.28235,-0.00422619,-0.00239801,0.00328415,9.68906e-05,-0.00672109,0.92113,0.00451337,0.0190646,1966,1275,58.2018,-9.2824
749,-251,57.9502,8.75549,-0.00505257,-0.00356222,0.00404689,-0.000192467,-0.00842232,0.876445,0.00555184,0.0395476,1973,1275,57.9501,-8.75547
756,-251,57.7764,8.13342,0,0,0,0,0,0,0,-1,1980,1275,57.7764,-8.13338
763,-251,43.3652,5.7583,0,0,0,0,0,0,0,-1,1987,1275,43.3653,-5.75827
770,-251,49.4386,3.45508,0,0,0,0,0,0,0,-1,1994,1275,49.4386,-3.4551
777,-251,31.5731,4.33252,0,0,0,0,0,0,0,-1,2001,1275,31.5731,-4.33251
784,-251,32.0776,5.78247,0,0,0,0,0,0,0,-1,2008,1275,32.0776,-5.78247
791,-251,0,0,0,0,0,0,0,0,0,-1,2015,1275,0,0
798,-251,0,0,0,0,0,0,0,0,0,-1,2022,1275,0,0
805,-251,0,0,0,0,0,0,0,0,0,-1,2029,1275,0,0
812,-251,0,0,0,0,0,0,0,0,0,-1,2036,1275,0,0
-700,-258,0,0,0,0,0,0,0,0,0,-1,524,1282,0,0
-693,-258,0,0,0,0,0,0,0,0,0,-1,531,1282,0,0
-686,-258,0,0,0,0,0,0,0,0,0,-1,538,1282,0,0
-679,-258,0,0,0,0,0,0,0,0,0,-1,545,1282,0,0
-672,-258,0,0,0,0,0,0,0,0,0,-1,552,1282,0,0
-665,-258,-44.8717,2.03601,0,0,0,0,0,0,0,-1,559,1282,-44.8717,-2.03603
-658,-258,-45.2628,1.20544,0,0,0,0,0,0,0,-1,566,1282,-45.2627,-1.20545
-651,-258,-45.5418,0.0863037,0,0,0,0,0,0,0,-1,573,1282,-45.5418,-0.0863288
-644,-258,-45.1855,0.336792,0,0,0,0,0,0,0,-1,580,1282,-45.1855,-0.336733
-637,-258,-45.329,0.234253,0,0,0,0,0,0,0,-1,587,1282,-45.329,-0.234296
-630,-258,-34.6896,4.45715,0,0,0,0,0,0,0,-1,594,1282,-34.6896,-4.45712
-623,-258,-40.5581,7.29224,0,0,0,0,0,0,0,-1,601,1282,-40.5581,-7.29224
-616,-258,-40.5674,8.09192,0.00525054,-0.000909753,0.000455608,0.00528406,-0.000943267,0.0734263,0.00387558,0.0343905,608,1282,-40.5674,-8.09196
-609,-258,-40.5305,8.89478,0.0035715,-0.000111562,0.000316451,0.0035985,-0.000138554,0.0850896,0.00244649,0.0177953,615,1282,-40.5305,-8.89478
-602,-258,-40.5797,9.74622,0.00179476,-0.000327366,-1.23424e-05,0.00179483,-0.000327438,-0.00581581,0.00131932,0.0138914,622,1282,-40.5796,-9.74617
-595,-258,-40.6459,10.5914,0.000219032,-0.00095423,-0.000456265,0.00037558,-0.00111078,-0.33052,0.000892455,0.0114392,629,1282,-40.6459,-10.5914
-588,-258,-40.6932,11.427,-0.00121548,-0.00188169,-0.000902053,-0.000586994,-0.00251018,-0.608527,0.00151615,0.0133342,636,1282,-40.6932,-11.427
-581,-258,-40.7433,12.2666,-0.00262607,-0.00308265,-0.00140018,-0.00143569,-0.00427303,-0.704589,0.00251089,0.0156604,643,1282,-40.7433,-12.2666
-574,-258,-40.7436,13.1406,-0.00390769,-0.00433009,-0.00192938,-0.00217799,-0.00605979,-0.730882,0.00354442,0.0163617,650,1282,-40.7436,-13.1406
-567,-258,-41.123,13.8636,0,0,0,0,0,0,0,-1,657,1282,-41.123,-13.8637
-560,-258,-41.1921,14.9097,0,0,0,0,0,0,0,-1,664,1282,-41.1922,-14.9097
-553,-258,-32.5081,11.6642,0,0,0,0,0,0,0,-1,671,1282,-32.5081,-11.6641
-546,-258,-14.2231,5.92029,0,0,0,0,0,0,0,-1,678,1282,-14.2231,-5.92028
-539,-258,-10.2228,4.05823,0,0,0,0,0,0,0,-1,685,1282,-10.2228,-4.05823
-532,-258,-10.2173,-0.353882,0,0,0,0,0,0,0,-1,692,1282,-10.2173,0.353836
-525,-258,-21.8661,-1.5929,0,0,0,0,0,0,0,-1,699,1282,-21.8661,1.59285
-518,-258,-29.2484,0.123169,0,0,0,0,0,0,0,-1,706,1282,-29.2484,-0.123186
-511,-258,-23.5061,1.16833,0,0,0,0,0,0,0,-1,713,1282,-23.5061,-1.16833
-504,-258,-22.9178,0.484131,0,0,0,0,0,0,0,-1,720,1282,-22.9178,-0.484106
-497,-258,-17.8047,0.730469,0,0,0,0,0,0,0,-1,727,1282,-17.8048,-0.730489
-490,-258,-15.4346,0.632935,0,0,0,0,0,0,0,-1,734,1282,-15.4346,-0.632917
-483,-258,0,0,0,0,0,0,0,0,0,-1,741,1282,0,0
-476,-258,0,0,0,0,0,0,0,0,0,-1,748,1282,0,0
-469,-258,0,0,0,0,0,0,0,0,0,-1,755,1282,0,0
-462,-258,0,0,0,0,0,0,0,0,0,-1,762,1282,0,0
-455,-258,0,0,0,0,0,0,0,0,0,-1,769,1282,0,0
-448,-258,0,0,0,0,0,0,0,0,0,-1,776,1282,0,0
-441,-258,0,0,0,0,0,0,0,0,0,-1,783,1282,0,0
-434,-258,0,0,0,0,0,0,0,0,0,-1,790,1282,0,0
-427,-258,0,0,0,0,0,0,0,0,0,-1,797,1282,0,0
-420,-258,0,0,0,0,0,0,0,0,0,-1,804,1282,0,0
-413,-258,0,0,0,0,0,0,0,0,0,-1,811,1282,0,0
-406,-258,0,0,0,0,0,0,0,0,0,-1,818,1282,0,0
-399,-258,0,0,0,0,0,0,0,0,0,-1,825,1282,0,0
-392,-258,0,0,0,0,0,0,0,0,0,-1,832,1282,0,0
-385,-258,0,0,0,0,0,0,0,0,0,-1,839,1282,0,0
-378,-258,0,0,0,0,0,0,0,0,0,-1,846,1282,0,0
-371,-258,0,0,0,0,0,0,0,0,0,-1,853,1282,0,0
-364,-258,0,0,0,0,0,0,0,0,0,-1,860,1282,0,0
-357,-258,0,0,0,0,0,0,0,0,0,-1,867,1282,0,0
-350,-258,0,0,0,0,0,0,0,0,0,-1,874,1282,0,0
-343,-258,0,0,0,0,0,0,0,0,0,-1,881,1282,0,0
-336,-258,0,0,0,0,0,0,0,0,0,-1,888,1282,0,0
-329,-258,0,0,0,0,0,0,0,0,0,-1,895,1282,0,0
-322,-258,0,0,0,0,0,0,0,0,0,-1,902,1282,0,0
-315,-258,0,0,0,0,0,0,0,0,0,-1,909,1282,0,0
-308,-258,0,0,0,0,0,0,0,0,0,-1,916,1282,0,0
-301,-258,0,0,0,0,0,0,0,0,0,-1,923,1282,0,0
-294,-258,0,0,0,0,0,0,0,0,0,-1,930,1282,0,0
-287,-258,0,0,0,0,0,0,0,0,0,-1,937,1282,0,0
-280,-258,0,0,0,0,0,0,0,0,0,-1,944,1282,0,0
-273,-258,0,0,0,0,0,0,0,0,0,-1,951,1282,0,0
-266,-258,0,0,0,0,0,0,0,0,0,-1,958,1282,0,0
-259,-258,0,0,0,0,0,0,0,0,0,-1,965,1282,0,0
-252,-258,0,0,0,0,0,0,0,0,0,-1,972,1282,0,0
-245,-258,0,0,0,0,0,0,0,0,0,-1,979,1282,0,0
-238,-258,0,0,0,0,0,0,0,0,0,-1,986,1282,0,0
-231,-258,0,0,0,0,0,0,0,0,0,-1,993,1282,0,0
-224,-258,0,0,0,0,0,0,0,0,0,-1,1000,1282,0,0
-217,-258,0,0,0,0,0,0,0,0,0,-1,1007,1282,0,0
-210,-258,0,0,0,0,0,0,0,0,0,-1,1014,1282,0,0
-203,-258,0,0,0,0,0,0,0,0,0,-1,1021,1282,0,0
-196,-258,0,0,0,0,0,0,0,0,0,-1,1028,1282,0,0
-189,-258,0,0,0,0,0,0,0,0,0,-1,1035,1282,0,0
-182,-258,0,0,0,0,0,0,0,0,0,-1,1042,1282,0,0
-175,-258,0,0,0,0,0,0,0,0,0,-1,1049,1282,0,0
-168,-258,0,0,0,0,0,0,0,0,0,-1,1056,1282,0,0
-161,-258,0,0,0,0,0,0,0,0,0,-1,1063,1282,0,0
-154,-258,0,0,0,0,0,0,0,0,0,-1,1070,1282,0,0
-147,-258,0,0,0,0,0,0,0,0,0,-1,1077,1282,0,0
-140,-258,0,0,0,0,0,0,0,0,0,-1,1084,1282,0,0
-133,-258,0,0,0,0,0,0,0,0,0,-1,1091,1282,0,0
-126,-258,0,0,0,0,0,0,0,0,0,-1,1098,1282,0,0
-119,-258,0,0,0,0,0,0,0,0,0,-1,1105,1282,0,0
-112,-258,0,0,0,0,0,0,0,0,0,-1,1112,1282,0,0
-105,-258,0,0,0,0,0,0,0,0,0,-1,1119,1282,0,0
-98,-258,0,0,0,0,0,0,0,0,0,-1,1126,1282,0,0
-91,-258,0,0,0,0,0,0,0,0,0,-1,1133,1282,0,0
-84,-258,0,0,0,0,0,0,0,0,0,-1,1140,1282,0,0
-77,-258,0,0,0,0,0,0,0,0,0,-1,1147,1282,0,0
-70,-258,0,0,0,0,0,0,0,0,0,-1,1154,1282,0,0
-63,-258,0,0,0,0,0,0,0,0,0,-1,1161,1282,0,0
-56,-258,0,0,0,0,0,0,0,0,0,-1,1168,1282,0,0
-49,-258,0,0,0,0,0,0,0,0,0,-1,1175,1282,0,0
-42,-258,0,0,0,0,0,0,0,0,0,-1,1182,1282,0,0
-35,-258,0,0,0,0,0,0,0,0,0,-1,1189,1282,0,0
-28,-258,0,0,0,0,0,0,0,0,0,-1,1196,1282,0,0
-21,-258,0,0,0,0,0,0,0,0,0,-1,1203,1282,0,0
-14,-258,0,0,0,0,0,0,0,0,0,-1,1210,1282,0,0
-7,-258,0,0,0,0,0,0,0,0,0,-1,1217,1282,0,0
0,-258,0,0,0,0,0,0,0,0,0,-1,1224,1282,0,0
7,-258,0,0,0,0,0,0,0,0,0,-1,1231,1282,0,0
14,-258,0,0,0,0,0,0,0,0,0,-1,1238,1282,0,0
21,-258,0,0,0,0,0,0,0,0,0,-1,1245,1282,0,0
28,-258,0,0,0,0,0,0,0,0,0,-1,1252,1282,0,0
35,-258,0,0,0,0,0,0,0,0,0,-1,1259,1282,0,0
42,-258,0,0,0,0,0,0,0,0,0,-1,1266,1282,0,0
49,-258,0,0,0,0,0,0,0,0,0,-1,1273,1282,0,0
56,-258,0,0,0,0,0,0,0,0,0,-1,1280,1282,0,0
63,-258,0,0,0,0,0,0,0,0,0,-1,1287,1282,0,0
70,-258,0,0,0,0,0,0,0,0,0,-1,1294,1282,0,0
77,-258,0,0,0,0,0,0,0,0,0,-1,1301,1282,0,0
84,-258,0,0,0,0,0,0,0,0,0,-1,1308,1282,0,0
91,-258,0,0,0,0,0,0,0,0,0,-1,1315,1282,0,0
98,-258,0,0,0,0,0,0,0,0,0,-1,1322,1282,0,0
105,-258,0,0,0,0,0,0,0,0,0,-1,1329,1282,0,0
112,-258,0,0,0,0,0,0,0,0,0,-1,1336,1282,0,0
119,-258,0,0,0,0,0,0,0,0,0,-1,1343,1282,0,0
126,-258,0,0,0,0,0,0,0,0,0,-1,1350,1282,0,0
133,-258,0,0,0,0,0,0,0,0,0,-1,1357,1282,0,0
140,-258,0,0,0,0,0,0,0,0,0,-1,1364,1282,0,0
147,-258,0,0,0,0,0,0,0,0,0,-1,1371,1282,0,0
154,-258,0,0,0,0,0,0,0,0,0,-1,1378,1282,0,0
161,-258,0,0,0,0,0,0,0,0,0,-1,1385,1282,0,0
168,-258,0,0,0,0,0,0,0,0,0,-1,1392,1282,0,0
175,-258,0,0,0,0,0,0,0,0,0,-1,1399,1282,0,0
182,-258,0,0,0,0,0,0,0,0,0,-1,1406,1282,0,0
189,-258,0,0,0,0,0,0,0,0,0,-1,1413,1282,0,0
196,-258,0,0,0,0,0,0,0,0,0,-1,1420,1282,0,0
203,-258,0,0,0,0,0,0,0,0,0,-1,1427,1282,0,0
210,-258,0,0,0,0,0,0,0,0,0,-1,1434,1282,0,0
217,-258,0,0,0,0,0,0,0,0,0,-1,1441,1282,0,0
224,-258,0,0,0,0,0,0,0,0,0,-1,1448,1282,0,0
231,-258,0,0,0,0,0,0,0,0,0,-1,1455,1282,0,0
238,-258,0,0,0,0,0,0,0,0,0,-1,1462,1282,0,0
245,-258,0,0,0,0,0,0,0,0,0,-1,1469,1282,0,0
252,-258,0,0,0,0,0,0,0,0,0,-1,1476,1282,0,0
259,-258,0,0,0,0,0,0,0,0,0,-1,1483,1282,0,0
266,-258,0,0,0,0,0,0,0,0,0,-1,1490,1282,0,0
273,-258,0,0,0,0,0,0,0,0,0,-1,1497,1282,0,0
280,-258,0,0,0,0,0,0,0,0,0,-1,1504,1282,0,0
287,-258,0,0,0,0,0,0,0,0,0,-1,1511,1282,0,0
294,-258,0,0,0,0,0,0,0,0,0,-1,1518,1282,0,0
301,-258,0,0,0,0,0,0,0,0,0,-1,1525,1282,0,0
308,-258,0,0,0,0,0,0,0,0,0,-1,1532,1282,0,0
315,-258,0,0,0,0,0,0,0,0,0,-1,1539,1282,0,0
322,-258,0,0,0,0,0,0,0,0,0,-1,1546,1282,0,0
329,-258,0,0,0,0,0,0,0,0,0,-1,1553,1282,0,0
336,-258,0,0,0,0,0,0,0,0,0,-1,1560,1282,0,0
343,-258,0,0,0,0,0,0,0,0,0,-1,1567,1282,0,0
350,-258,0,0,0,0,0,0,0,0,0,-1,1574,1282,0,0
357,-258,0,0,0,0,0,0,0,0,0,-1,1581,1282,0,0
364,-258,0,0,0,0,0,0,0,0,0,-1,1588,1282,0,0
371,-258,0,0,0,0,0,0,0,0,0,-1,1595,1282,0,0
378,-258,0,0,0,0,0,0,0,0,0,-1,1602,1282,0,0
385,-258,0,0,0,0,0,0,0,0,0,-1,1609,1282,0,0
392,-258,0,0,0,0,0,0,0,0,0,-1,1616,1282,0,0
399,-258,0,0,0,0,0,0,0,0,0,-1,1623,1282,0,0
406,-258,0,0,0,0,0,0,0,0,0,-1,1630,1282,0,0
413,-258,0,0,0,0,0,0,0,0,0,-1,1637,1282,0,0
420,-258,0,0,0,0,0,0,0,0,0,-1,1644,1282,0,0
427,-258,0,0,0,0,0,0,0,0,0,-1,1651,1282,0,0
434,-258,0,0,0,0,0,0,0,0,0,-1,1658,1282,0,0
441,-258,0,0,0,0,0,0,0,0,0,-1,1665,1282,0,0
448,-258,0,0,0,0,0,0,0,0,0,-1,1672,1282,0,0
455,-258,0,0,0,0,0,0,0,0,0,-1,1679,1282,0,0
462,-258,0,0,0,0,0,0,0,0,0,-1,1686,1282,0,0
469,-258,0,0,0,0,0,0,0,0,0,-1,1693,1282,0,0
476,-258,0,0,0,0,0,0,0,0,0,-1,1700,1282,0,0
483,-258,0,0,0,0,0,0,0,0,0,-1,1707,1282,0,0
490,-258,0,0,0,0,0,0,0,0,0,-1,1714,1282,0,0
497,-258,0,0,0,0,0,0,0,0,0,-1,1721,1282,0,0
504,-258,0,0,0,0,0,0,0,0,0,-1,1728,1282,0,0
511,-258,0,0,0,0,0,0,0,0,0,-1,1735,1282,0,0
518,-258,0,0,0,0,0,0,0,0,0,-1,1742,1282,0,0
525,-258,0,0,0,0,0,0,0,0,0,-1,1749,1282,0,0
532,-258,0,0,0,0,0,0,0,0,0,-1,1756,1282,0,0
539,-258,0,0,0,0,0,0,0,0,0,-1,1763,1282,0,0
546,-258,0,0,0,0,0,0,0,0,0,-1,1770,1282,0,0
553,-258,0,0,0,0,0,0,0,0,0,-1,1777,1282,0,0
560,-258,0,0,0,0,0,0,0,0,0,-1,1784,1282,0,0
567,-258,0,0,0,0,0,0,0,0,0,-1,1791,1282,0,0
574,-258,0,0,0,0,0,0,0,0,0,-1,1798,1282,0,0
581,-258,0,0,0,0,0,0,0,0,0,-1,1805,1282,0,0
588,-258,0,0,0,0,0,0,0,0,0,-1,1812,1282,0,0
595,-258,0,0,0,0,0,0,0,0,0,-1,1819,1282,0,0
602,-258,0,0,0,0,0,0,0,0,0,-1,1826,1282,0,0
609,-258,80.5281,2.16516,-0.00659387,0.0129513,0.00420844,0.0138189,-0.00746151,1.36748,0.0124677,0.0270275,1833,1282,80.528,-2.16514
616,-258,80.452,2.20593,-0.00949689,0.0206911,0.00548596,0.0216571,-0.0104629,1.39649,0.0189162,0.0270854,1840,1282,80.452,-2.20594
623,-258,80.4167,2.16589,-0.0114905,0.0258461,0.00614033,0.02683,-0.0124744,1.41191,0.0231915,0.0361913,1847,1282,80.4168,-2.16594
630,-258,80.422,2.10022,-0.0112049,0.0251893,0.0055403,0.026014,-0.0120296,1.42302,0.0224537,0.0442764,1854,1282,80.4221,-2.10027
637,-258,80.449,2.047,0,0,0,0,0,0,0,-1,1861,1282,80.449,-2.04704
644,-258,79.8231,2.79272,0,0,0,0,0,0,0,-1,1868,1282,79.8231,-2.79276
651,-258,77.8041,3.65466,0,0,0,0,0,0,0,-1,1875,1282,77.8041,-3.65469
658,-258,45.4424,3.1405,0,0,0,0,0,0,0,-1,1882,1282,45.4423,-3.14046
665,-258,35.4747,1.1864,0,0,0,0,0,0,0,-1,1889,1282,35.4747,-1.18637
672,-258,22.703,2.80957,0,0,0,0,0,0,0,-1,1896,1282,22.703,-2.80962
679,-258,26.8693,8.19543,0,0,0,0,0,0,0,-1,1903,1282,26.8692,-8.19548
686,-258,57.9171,15.8644,0,0,0,0,0,0,0,-1,1910,1282,57.9171,-15.8644
693,-258,57.7834,14.9531,0.000183815,0.000836513,0.000554838,0.00115386,-0.000133535,1.05124,0.000817398,0.0352082,1917,1282,57.7834,-14.9532
700,-258,57.733,14.1055,0.000514434,0.000415807,0.00083494,0.00130152,-0.000371275,0.755901,0.00101434,0.0120896,1924,1282,57.7331,-14.1055
707,-258,57.7062,13.2867,1.8993e-06,-0.000346706,0.000944367,0.000787915,-0.00113272,0.69414,0.00111482,0.011444,1931,1282,57.7062,-13.2867
714,-258,57.6716,12.4778,-0.000858638,-0.000452395,0.00128786,0.000648268,-0.0019593,0.863614,0.00156763,0.0125695,1938,1282,57.6716,-12.4778
721,-258,57.6007,11.6559,-0.00174306,-0.000803077,0.00166135,0.000453486,-0.00299962,0.923244,0.00216679,0.024785,1945,1282,57.6007,-11.6559
728,-258,57.4919,10.8927,-0.0026618,-0.00137037,0.00207758,0.000159531,-0.0041917,0.936066,0.00284913,0.0240694,1952,1282,57.4919,-10.8927
735,-258,57.4949,10.0656,-0.0036574,-0.00211123,0.00256064,-0.000209511,-0.00555911,0.932002,0.00363825,0.0200799,1959,1282,57.4948,-10.0655
742,-258,57.4453,9.28918,-0.00471304,-0.00306906,0.00312985,-0.000655061,-0.00712704,0.913813,0.00454876,0.0188412,1966,1282,57.4453,-9.28918
749,-258,57.3334,8.67896,-0.00579597,-0.00438163,0.00379323,-0.00123021,-0.00894738,0.877555,0.00560008,0.0429012,1973,1282,57.3333,-8.67894
756,-258,57.2844,7.94543,0,0,0,0,0,0,0,-1,1980,1282,57.2844,-7.94545
763,-258,39.3638,5.09753,0,0,0,0,0,0,0,-1,1987,1282,39.3638,-5.09751
770,-258,40.3713,4.08325,0,0,0,0,0,0,0,-1,1994,1282,40.3713,-4.08323
777,-258,31.912,4.83093,0,0,0,0,0,0,0,-1,2001,1282,31.912,-4.8309
784,-258,32.6525,6.43091,0,0,0,0,0,0,0,-1,2008,1282,32.6525,-6.43091
791,-258,0,0,0,0,0,0,0,0,0,-1,2015,1282,0,0
798,-258,0,0,0,0,0,0,0,0,0,-1,2022,1282,0,0
805,-258,0,0,0,0,0,0,0,0,0,-1,2029,1282,0,0
812,-258,0,0,0,0,0,0,0,0,0,-1,2036,1282,0,0
-700,-265,0,0,0,0,0,0,0,0,0,-1,524,1289,0,0
-693,-265,0,0,0,0,0,0,0,0,0,-1,531,1289,0,0
-686,-265,0,0,0,0,0,0,0,0,0,-1,538,1289,0,0
-679,-265,0,0,0,0,0,0,0,0,0,-1,545,1289,0,0
-672,-265,0,0,0,0,0,0,0,0,0,-1,552,1289,0,0
-665,-265,-44.553,1.771,0,0,0,0,0,0,0,-1,559,1289,-44.553,-1.77096
-658,-265,-44.9351,1.32117,0,0,0,0,0,0,0,-1,566,1289,-44.9351,-1.32118
-651,-265,-44.821,1.0614,0,0,0,0,0,0,0,-1,573,1289,-44.821,-1.06141
-644,-265,-44.4684,0.304932,0,0,0,0,0,0,0,-1,580,1289,-44.4684,-0.304991
-637,-265,-44.6157,0.250122,0,0,0,0,0,0,0,-1,587,1289,-44.6157,-0.250067
-630,-265,-44.5689,0.900269,0,0,0,0,0,0,0,-1,594,1289,-44.5689,-0.900302
-623,-265,-39.9028,7.12292,0,0,0,0,0,0,0,-1,601,1289,-39.9027,-7.12293
-616,-265,-39.7634,7.995,0.00665529,-0.000145104,0.000942693,0.00678355,-0.000273364,0.135227,0.00461618,0.0498498,608,1289,-39.7634,-7.99505
-609,-265,-39.6758,8.91541,0.00480811,0.000632264,0.000795955,0.00495468,0.000485692,0.182106,0.00315372,0.0207364,615,1289,-39.6758,-8.91537
-602,-265,-39.7595,9.81921,0.00285163,0.000364133,0.000432396,0.00292465,0.000291115,0.167292,0.00186034,0.015058,622,1289,-39.7595,-9.81916
-595,-265,-39.7957,10.6726,0.00117792,-0.000300809,-9.47113e-05,0.00118396,-0.00030685,-0.0637021,0.000909023,0.0129106,629,1289,-39.7957,-10.6726
-588,-265,-39.8343,11.494,-0.000265571,-0.0011862,-0.00059208,2.40785e-05,-0.00147586,-0.454977,0.000992027,0.0124595,636,1289,-39.8343,-11.494
-581,-265,-39.8952,12.3242,-0.00159942,-0.00229119,-0.00112394,-0.000769345,-0.00312126,-0.636125,0.00187769,0.0151608,643,1289,-39.8952,-12.3242
-574,-265,-39.951,13.2286,-0.00279198,-0.0034829,-0.00168284,-0.00141951,-0.00485537,-0.684163,0.0028827,0.016164,650,1289,-39.951,-13.2287
-567,-265,-40.1422,14.0179,-0.00368603,-0.00470112,-0.00220738,-0.0019286,-0.00645855,-0.672396,0.00382834,0.0274805,657,1289,-40.1421,-14.0179
-560,-265,-40.4754,14.7786,-0.00381595,-0.00506333,-0.00263593,-0.00173093,-0.00714835,-0.66923,0.00430615,0.0388587,664,1289,-40.4754,-14.7786
-553,-265,-40.6366,15.6281,0,0,0,0,0,0,0,-1,671,1289,-40.6366,-15.628
-546,-265,-24.2283,10.2581,0,0,0,0,0,0,0,-1,678,1289,-24.2283,-10.258
-539,-265,-13.7668,6.39917,0,0,0,0,0,0,0,-1,685,1289,-13.7668,-6.39915
-532,-265,-8.53998,3.41467,0,0,0,0,0,0,0,-1,692,1289,-8.53996,-3.41473
-525,-265,-12.1317,0.514648,0,0,0,0,0,0,0,-1,699,1289,-12.1317,-0.514634
-518,-265,-24.1604,0.712402,0,0,0,0,0,0,0,-1,706,1289,-24.1604,-0.712425
-511,-265,-23.233,0.791626,0,0,0,0,0,0,0,-1,713,1289,-23.233,-0.791617
-504,-265,-22.3056,0.87085,0,0,0,0,0,0,0,-1,720,1289,-22.3056,-0.87081
-497,-265,-18.689,-0.278442,0,0,0,0,0,0,0,-1,727,1289,-18.689,0.278423
-490,-265,-15.1696,0.492676,0,0,0,0,0,0,0,-1,734,1289,-15.1696,-0.492688
-483,-265,0,0,0,0,0,0,0,0,0,-1,741,1289,0,0
-476,-265,0,0,0,0,0,0,0,0,0,-1,748,1289,0,0
-469,-265,0,0,0,0,0,0,0,0,0,-1,755,1289,0,0
-462,-265,0,0,0,0,0,0,0,0,0,-1,762,1289,0,0
-455,-265,0,0,0,0,0,0,0,0,0,-1,769,1289,0,0
-448,-265,0,0,0,0,0,0,0,0,0,-1,776,1289,0,0
-441,-265,0,0,0,0,0,0,0,0,0,-1,783,1289,0,0
-434,-265,0,0,0,0,0,0,0,0,0,-1,790,1289,0,0
-427,-265,0,0,0,0,0,0,0,0,0,-1,797,1289,0,0
-420,-265,0,0,0,0,0,0,0,0,0,-1,804,1289,0,0
-413,-265,0,0,0,0,0,0,0,0,0,-1,811,1289,0,0
-406,-265,0,0,0,0,0,0,0,0,0,-1,818,1289,0,0
-399,-265,0,0,0,0,0,0,0,0,0,-1,825,1289,0,0
-392,-265,0,0,0,0,0,0,0,0,0,-1,832,1289,0,0
-385,-265,0,0,0,0,0,0,0,0,0,-1,839,1289,0,0
-378,-265,0,0,0,0,0,0,0,0,0,-1,846,1289,0,0
-371,-265,0,0,0,0,0,0,0,0,0,-1,853,1289,0,0
-364,-265,0,0,0,0,0,0,0,0,0,-1,860,1289,0,0
-357,-265,0,0,0,0,0,0,0,0,0,-1,867,1289,0,0
-350,-265,0,0,0,0,0,0,0,0,0,-1,874,1289,0,0
-343,-265,0,0,0,0,0,0,0,0,0,-1,881,1289,0,0
-336,-265,0,0,0,0,0,0,0,0,0,-1,888,1289,0,0
-329,-265,0,0,0,0,0,0,0,0,0,-1,895,1289,0,0
-322,-265,0,0,0,0,0,0,0,0,0,-1,902,1289,0,0
-315,-265,0,0,0,0,0,0,0,0,0,-1,909,1289,0,0
-308,-265,0,0,0,0,0,0,0,0,0,-1,916,1289,0,0
-301,-265,0,0,0,0,0,0,0,0,0,-1,923,1289,0,0
-294,-265,0,0,0,0,0,0,0,0,0,-1,930,1289,0,0
-287,-265,0,0,0,0,0,0,0,0,0,-1,937,1289,0,0
-280,-265,0,0,0,0,0,0,0,0,0,-1,944,1289,0,0
-273,-265,0,0,0,0,0,0,0,0,0,-1,951,1289,0,0
-266,-265,0,0,0,0,0,0,0,0,0,-1,958,1289,0,0
-259,-265,0,0,0,0,0,0,0,0,0,-1,965,1289,0,0
-252,-265,0,0,0,0,0,0,0,0,0,-1,972,1289,0,0
-245,-265,0,0,0,0,0,0,0,0,0,-1,979,1289,0,0
-238,-265,0,0,0,0,0,0,0,0,0,-1,986,1289,0,0
-231,-265,0,0,0,0,0,0,0,0,0,-1,993,1289,0,0
-224,-265,0,0,0,0,0,0,0,0,0,-1,1000,1289,0,0
-217,-265,0,0,0,0,0,0,0,0,0,-1,1007,1289,0,0
-210,-265,0,0,0,0,0,0,0,0,0,-1,1014,1289,0,0
-203,-265,0,0,0,0,0,0,0,0,0,-1,1021,1289,0,0
-196,-265,0,0,0,0,0,0,0,0,0,-1,1028,1289,0,0
-189,-265,0,0,0,0,0,0,0,0,0,-1,1035,1289,0,0
-182,-265,0,0,0,0,0,0,0,0,0,-1,1042,1289,0,0
-175,-265,0,0,0,0,0,0,0,0,0,-1,1049,1289,0,0
-168,-265,0,0,0,0,0,0,0,0,0,-1,1056,1289,0,0
-161,-265,0,0,0,0,0,0,0,0,0,-1,1063,1289,0,0
-154,-265,0,0,0,0,0,0,0,0,0,-1,1070,1289,0,0
-147,-265,0,0,0,0,0,0,0,0,0,-1,1077,1289,0,0
-140,-265,0,0,0,0,0,0,0,0,0,-1,1084,1289,0,0
-133,-265,0,0,0,0,0,0,0,0,0,-1,1091,1289,0,0
-126,-265,0,0,0,0,0,0,0,0,0,-1,1098,1289,0,0
-119,-265,0,0,0,0,0,0,0,0,0,-1,1105,1289,0,0
-112,-265,0,0,0,0,0,0,0,0,0,-1,1112,1289,0,0
-105,-265,0,0,0,0,0,0,0,0,0,-1,1119,1289,0,0
-98,-265,0,0,0,0,0,0,0,0,0,-1,1126,1289,0,0
-91,-265,0,0,0,0,0,0,0,0,0,-1,1133,1289,0,0
-84,-265,0,0,0,0,0,0,0,0,0,-1,1140,1289,0,0
-77,-265,0,0,0,0,0,0,0,0,0,-1,1147,1289,0,0
-70,-265,0,0,0,0,0,0,0,0,0,-1,1154,1289,0,0
-63,-265,0,0,0,0,0,0,0,0,0,-1,1161,1289,0,0
-56,-265,0,0,0,0,0,0,0,0,0,-1,1168,1289,0,0
-49,-265,0,0,0,0,0,0,0,0,0,-1,1175,1289,0,0
-42,-265,0,0,0,0,0,0,0,0,0,-1,1182,1289,0,0
-35,-265,0,0,0,0,0,0,0,0,0,-1,1189,1289,0,0
-28,-265,0,0,0,0,0,0,0,0,0,-1,1196,1289,0,0
-21,-265,0,0,0,0,0,0,0,0,0,-1,1203,1289,0,0
-14,-265,0,0,0,0,0,0,0,0,0,-1,1210,1289,0,0
-7,-265,0,0,0,0,0,0,0,0,0,-1,1217,1289,0,0
0,-265,0,0,0,0,0,0,0,0,0,-1,1224,1289,0,0
7,-265,0,0,0,0,0,0,0,0,0,-1,1231,1289,0,0
14,-265,0,0,0,0,0,0,0,0,0,-1,1238,1289,0,0
21,-265,0,0,0,0,0,0,0,0,0,-1,1245,1289,0,0
28,-265,0,0,0,0,0,0,0,0,0,-1,1252,1289,0,0
35,-265,0,0,0,0,0,0,0,0,0,-1,1259,1289,0,0
42,-265,0,0,0,0,0,0,0,0,0,-1,1266,1289,0,0
49,-265,0,0,0,0,0,0,0,0,0,-1,1273,1289,0,0
56,-265,0,0,0,0,0,0,0,0,0,-1,1280,1289,0,0
63,-265,0,0,0,0,0,0,0,0,0,-1,1287,1289,0,0
70,-265,0,0,0,0,0,0,0,0,0,-1,1294,1289,0,0
77,-265,0,0,0,0,0,0,0,0,0,-1,1301,1289,0,0
84,-265,0,0,0,0,0,0,0,0,0,-1,1308,1289,0,0
91,-265,0,0,0,0,0,0,0,0,0,-1,1315,1289,0,0
98,-265,0,0,0,0,0,0,0,0,0,-1,1322,1289,0,0
105,-265,0,0,0,0,0,0,0,0,0,-1,1329,1289,0,0
112,-265,0,0,0,0,0,0,0,0,0,-1,1336,1289,0,0
119,-265,0,0,0,0,0,0,0,0,0,-1,1343,1289,0,0
126,-265,0,0,0,0,0,0,0,0,0,-1,1350,1289,0,0
133,-265,0,0,0,0,0,0,0,0,0,-1,1357,1289,0,0
140,-265,0,0,0,0,0,0,0,0,0,-1,1364,1289,0,0
147,-265,0,0,0,0,0,0,0,0,0,-1,1371,1289,0,0
154,-265,0,0,0,0,0,0,0,0,0,-1,1378,1289,0,0
161,-265,0,0,0,0,0,0,0,0,0,-1,1385,1289,0,0
168,-265,0,0,0,0,0,0,0,0,0,-1,1392,1289,0,0
175,-265,0,0,0,0,0,0,0,0,0,-1,1399,1289,0,0
182,-265,0,0,0,0,0,0,0,0,0,-1,1406,1289,0,0
189,-265,0,0,0,0,0,0,0,0,0,-1,1413,1289,0,0
196,-265,0,0,0,0,0,0,0,0,0,-1,1420,1289,0,0
203,-265,0,0,0,0,0,0,0,0,0,-1,1427,1289,0,0
210,-265,0,0,0,0,0,0,0,0,0,-1,1434,1289,0,0
217,-265,0,0,0,0,0,0,0,0,0,-1,1441,1289,0,0
224,-265,0,0,0,0,0,0,0,0,0,-1,1448,1289,0,0
231,-265,0,0,0,0,0,0,0,0,0,-1,1455,1289,0,0
238,-265,0,0,0,0,0,0,0,0,0,-1,1462,1289,0,0
245,-265,0,0,0,0,0,0,0,0,0,-1,1469,1289,0,0
252,-265,0,0,0,0,0,0,0,0,0,-1,1476,1289,0,0
259,-265,0,0,0,0,0,0,0,0,0,-1,1483,1289,0,0
266,-265,0,0,0,0,0,0,0,0,0,-1,1490,1289,0,0
273,-265,0,0,0,0,0,0,0,0,0,-1,1497,1289,0,0
280,-265,0,0,0,0,0,0,0,0,0,-1,1504,1289,0,0
287,-265,0,0,0,0,0,0,0,0,0,-1,1511,1289,0,0
294,-265,0,0,0,0,0,0,0,0,0,-1,1518,1289,0,0
301,-265,0,0,0,0,0,0,0,0,0,-1,1525,1289,0,0
308,-265,0,0,0,0,0,0,0,0,0,-1,1532,1289,0,0
315,-265,0,0,0,0,0,0,0,0,0,-1,1539,1289,0,0
322,-265,0,0,0,0,0,0,0,0,0,-1,1546,1289,0,0
329,-265,0,0,0,0,0,0,0,0,0,-1,1553,1289,0,0
336,-265,0,0,0,0,0,0,0,0,0,-1,1560,1289,0,0
343,-265,0,0,0,0,0,0,0,0,0,-1,1567,1289,0,0
350,-265,0,0,0,0,0,0,0,0,0,-1,1574,1289,0,0
357,-265,0,0,0,0,0,0,0,0,0,-1,1581,1289,0,0
364,-265,0,0,0,0,0,0,0,0,0,-1,1588,1289,0,0
371,-265,0,0,0,0,0,0,0,0,0,-1,1595,1289,0,0
378,-265,0,0,0,0,0,0,0,0,0,-1,1602,1289,0,0
385,-265,0,0,0,0,0,0,0,0,0,-1,1609,1289,0,0
392,-265,0,0,0,0,0,0,0,0,0,-1,1616,1289,0,0
399,-265,0,0,0,0,0,0,0,0,0,-1,1623,1289,0,0
406,-265,0,0,0,0,0,0,0,0,0,-1,1630,1289,0,0
413,-265,0,0,0,0,0,0,0,0,0,-1,1637,1289,0,0
420,-265,0,0,0,0,0,0,0,0,0,-1,1644,1289,0,0
427,-265,0,0,0,0,0,0,0,0,0,-1,1651,1289,0,0
434,-265,0,0,0,0,0,0,0,0,0,-1,1658,1289,0,0
441,-265,0,0,0,0,0,0,0,0,0,-1,1665,1289,0,0
448,-265,0,0,0,0,0,0,0,0,0,-1,1672,1289,0,0
455,-265,0,0,0,0,0,0,0,0,0,-1,1679,1289,0,0
462,-265,0,0,0,0,0,0,0,0,0,-1,1686,1289,0,0
469,-265,0,0,0,0,0,0,0,0,0,-1,1693,1289,0,0
476,-265,0,0,0,0,0,0,0,0,0,-1,1700,1289,0,0
483,-265,0,0,0,0,0,0,0,0,0,-1,1707,1289,0,0
490,-265,0,0,0,0,0,0,0,0,0,-1,1714,1289,0,0
497,-265,0,0,0,0,0,0,0,0,0,-1,1721,1289,0,0
504,-265,0,0,0,0,0,0,0,0,0,-1,1728,1289,0,0
511,-265,0,0,0,0,0,0,0,0,0,-1,1735,1289,0,0
518,-265,0,0,0,0,0,0,0,0,0,-1,1742,1289,0,0
525,-265,0,0,0,0,0,0,0,0,0,-1,1749,1289,0,0
532,-265,0,0,0,0,0,0,0,0,0,-1,1756,1289,0,0
539,-265,0,0,0,0,0,0,0,0,0,-1,1763,1289,0,0
546,-265,0,0,0,0,0,0,0,0,0,-1,1770,1289,0,0
553,-265,0,0,0,0,0,0,0,0,0,-1,1777,1289,0,0
560,-265,0,0,0,0,0,0,0,0,0,-1,1784,1289,0,0
567,-265,0,0,0,0,0,0,0,0,0,-1,1791,1289,0,0
574,-265,0,0,0,0,0,0,0,0,0,-1,1798,1289,0,0
581,-265,0,0,0,0,0,0,0,0,0,-1,1805,1289,0,0
588,-265,0,0,0,0,0,0,0,0,0,-1,1812,1289,0,0
595,-265,0,0,0,0,0,0,0,0,0,-1,1819,1289,0,0
602,-265,80.4668,2.10864,-0.00703169,0.0151135,0.0044165,0.0159618,-0.00787999,1.38103,0.0140262,0.0285917,1826,1289,80.4669,-2.10864
609,-265,80.467,2.06775,-0.0103198,0.0243377,0.00645753,0.0255018,-0.0114839,1.39244,0.0218589,0.0303047,1833,1289,80.4671,-2.06779
616,-265,80.4685,2.1106,-0.0134045,0.0325679,0.00824805,0.0340029,-0.0148395,1.39854,0.0289137,0.0372023,1840,1289,80.4685,-2.11055
623,-265,80.4257,2.02893,-0.0140732,0.0340488,0.00831654,0.0354456,-0.0154699,1.4044,0.0301408,0.0478198,1847,1289,80.4256,-2.02899
630,-265,80.0667,1.97754,-0.0122933,0.0290941,0.00685331,0.0301994,-0.0133987,1.41089,0.0257868,0.0433604,1854,1289,80.0667,-1.97758
637,-265,79.8251,2.09338,0,0,0,0,0,0,0,-1,1861,1289,79.8251,-2.09337
644,-265,77.3746,2.97742,0,0,0,0,0,0,0,-1,1868,1289,77.3746,-2.97738
651,-265,53.6781,1.57166,0,0,0,0,0,0,0,-1,1875,1289,53.6781,-1.57167
658,-265,41.7163,3.71619,0,0,0,0,0,0,0,-1,1882,1289,41.7163,-3.71624
665,-265,34.7902,1.43164,0,0,0,0,0,0,0,-1,1889,1289,34.7901,-1.43162
672,-265,20.0045,6.62671,0,0,0,0,0,0,0,-1,1896,1289,20.0045,-6.62668
679,-265,48.9694,14.0298,0,0,0,0,0,0,0,-1,1903,1289,48.9694,-14.0297
686,-265,56.9904,15.9711,0,0,0,0,0,0,0,-1,1910,1289,56.9904,-15.971
693,-265,56.9437,15.0145,0.000176838,0.000787394,0.000238873,0.000869743,9.44884e-05,1.23881,0.00055104,0.0207524,1917,1289,56.9438,-15.0146
700,-265,56.9142,14.1664,0.000469261,0.000319882,0.000587781,0.000987079,-0.000197936,0.722201,0.000732995,0.0103737,1924,1289,56.9142,-14.1663
707,-265,56.87,13.3384,-6.09873e-05,-0.000405091,0.000801744,0.000586958,-0.00105304,0.679703,0.000959513,0.0106817,1931,1289,56.87,-13.3383
714,-265,56.816,12.5148,-0.000865025,-0.00065223,0.00117145,0.00041764,-0.0019349,0.830687,0.00144934,0.0138984,1938,1289,56.816,-12.5148
721,-265,56.7224,11.6782,-0.0017343,-0.00110169,0.00155194,0.000165856,-0.00300184,0.885928,0.00205874,0.0163725,1945,1289,56.7224,-11.6782
728,-265,56.651,10.9036,-0.00268303,-0.00173069,0.00194855,-0.000200975,-0.00421275,0.905235,0.00274396,0.0164213,1952,1289,56.651,-10.9035
735,-265,56.6859,10.1016,-0.00373758,-0.00255693,0.00237033,-0.00070452,-0.00559,0.907439,0.00351544,0.017165,1959,1289,56.6859,-10.1015
742,-265,56.6194,9.27588,-0.00488249,-0.00365148,0.00282667,-0.00137408,-0.00715989,0.892599,0.00438755,0.0205713,1966,1289,56.6194,-9.27587
749,-265,56.5612,8.4314,0,0,0,0,0,0,0,-1,1973,1289,56.5612,-8.43134
756,-265,56.0557,7.52283,0,0,0,0,0,0,0,-1,1980,1289,56.0556,-7.52285
763,-265,39.1299,4.9679,0,0,0,0,0,0,0,-1,1987,1289,39.1299,-4.96791
770,-265,35.1674,5.07715,0,0,0,0,0,0,0,-1,1994,1289,35.1673,-5.07718
777,-265,32.1664,5.3457,0,0,0,0,0,0,0,-1,2001,1289,32.1664,-5.34568
784,-265,0,0,0,0,0,0,0,0,0,-1,2008,1289,0,0
791,-265,0,0,0,0,0,0,0,0,0,-1,2015,1289,0,0
798,-265,0,0,0,0,0,0,0,0,0,-1,2022,1289,0,0
805,-265,0,0,0,0,0,0,0,0,0,-1,2029,1289,0,0
812,-265,0,0,0,0,0,0,0,0,0,-1,2036,1289,0,0
-700,-272,0,0,0,0,0,0,0,0,0,-1,524,1296,0,0
-693,-272,0,0,0,0,0,0,0,0,0,-1,531,1296,0,0
-686,-272,0,0,0,0,0,0,0,0,0,-1,538,1296,0,0
-679,-272,0,0,0,0,0,0,0,0,0,-1,545,1296,0,0
-672,-272,0,0,0,0,0,0,0,0,0,-1,552,1296,0,0
-665,-272,0,0,0,0,0,0,0,0,0,-1,559,1296,0,0
-658,-272,-44.6526,1.54443,0,0,0,0,0,0,0,-1,566,1296,-44.6526,-1.5444
-651,-272,-44.3723,1.53772,0,0,0,0,0,0,0,-1,573,1296,-44.3723,-1.53774
-644,-272,-44.1104,1.46021,0,0,0,0,0,0,0,-1,580,1296,-44.1104,-1.46022
-637,-272,-43.9348,1.25171,0,0,0,0,0,0,0,-1,587,1296,-43.9348,-1.25175
-630,-272,-43.5906,0.784912,0,0,0,0,0,0,0,-1,594,1296,-43.5906,-0.784935
-623,-272,-36.8673,6.23547,0,0,0,0,0,0,0,-1,601,1296,-36.8673,-6.23548
-616,-272,-38.7778,8.00598,0,0,0,0,0,0,0,-1,608,1296,-38.7778,-8.00604
-609,-272,-38.7681,9.11084,0.00581665,0.00157105,0.00136121,0.00621559,0.00117211,0.285094,0.00381355,0.0289208,615,1296,-38.7681,-9.11081
-602,-272,-38.8605,9.84937,0.00375569,0.0011958,0.000989917,0.00409383,0.000857661,0.329156,0.00249301,0.0163666,622,1296,-38.8605,-9.84941
-595,-272,-38.9305,10.723,0.00204462,0.000452963,0.000382932,0.00213196,0.000365627,0.224237,0.00131646,0.0130326,629,1296,-38.9305,-10.723
-588,-272,-38.9713,11.5662,0.000649994,-0.000415265,-0.00016166,0.000673987,-0.000439258,-0.147338,0.000647477,0.0120519,636,1296,-38.9713,-11.5662
-581,-272,-39.0351,12.3932,-0.000565549,-0.0014261,-0.000709168,-0.000166334,-0.00182532,-0.51272,0.0011654,0.01139,643,1296,-39.0351,-12.3932
-574,-272,-39.1028,13.271,-0.00159532,-0.00253267,-0.00125403,-0.000725248,-0.00340274,-0.606567,0.00206955,0.0170562,650,1296,-39.1028,-13.271
-567,-272,-39.1947,14.1226,-0.00237411,-0.00371304,-0.00176497,-0.0011559,-0.00493124,-0.604128,0.00297794,0.024103,657,1296,-39.1947,-14.1225
-560,-272,-39.4277,14.9174,-0.00261446,-0.00451283,-0.00215081,-0.00121269,-0.00591459,-0.577594,0.00360742,0.0287974,664,1296,-39.4277,-14.9174
-553,-272,-39.4919,15.7378,-0.00219228,-0.00518208,-0.00233072,-0.000918252,-0.00645611,-0.500248,0.00403299,0.0428017,671,1296,-39.492,-15.7378
-546,-272,-39.793,16.7087,0,0,0,0,0,0,0,-1,678,1296,-39.793,-16.7087
-539,-272,-24.1416,11.0325,0,0,0,0,0,0,0,-1,685,1296,-24.1416,-11.0324
-532,-272,-10.5572,4.53943,0,0,0,0,0,0,0,-1,692,1296,-10.5572,-4.53943
-525,-272,-11.9599,0.0393066,0,0,0,0,0,0,0,-1,699,1296,-11.9599,-0.0393577
-518,-272,-21.1357,-1.41382,0,0,0,0,0,0,0,-1,706,1296,-21.1357,1.41379
-511,-272,-23.2565,0.226318,0,0,0,0,0,0,0,-1,713,1296,-23.2565,-0.22626
-504,-272,-19.7397,0.114746,0,0,0,0,0,0,0,-1,720,1296,-19.7397,-0.114701
-497,-272,-19.2225,1.71301,0,0,0,0,0,0,0,-1,727,1296,-19.2225,-1.71302
-490,-272,-20.1948,2.4032,0,0,0,0,0,0,0,-1,734,1296,-20.1948,-2.40322
-483,-272,-15.3736,0.792603,0,0,0,0,0,0,0,-1,741,1296,-15.3736,-0.79263
-476,-272,0,0,0,0,0,0,0,0,0,-1,748,1296,0,0
-469,-272,0,0,0,0,0,0,0,0,0,-1,755,1296,0,0
-462,-272,0,0,0,0,0,0,0,0,0,-1,762,1296,0,0
-455,-272,0,0,0,0,0,0,0,0,0,-1,769,1296,0,0
-448,-272,0,0,0,0,0,0,0,0,0,-1,776,1296,0,0
-441,-272,0,0,0,0,0,0,0,0,0,-1,783,1296,0,0
-434,-272,0,0,0,0,0,0,0,0,0,-1,790,1296,0,0
-427,-272,0,0,0,0,0,0,0,0,0,-1,797,1296,0,0
-420,-272,0,0,0,0,0,0,0,0,0,-1,804,1296,0,0
-413,-272,0,0,0,0,0,0,0,0,0,-1,811,1296,0,0
-406,-272,0,0,0,0,0,0,0,0,0,-1,818,1296,0,0
-399,-272,0,0,0,0,0,0,0,0,0,-1,825,1296,0,0
-392,-272,0,0,0,0,0,0,0,0,0,-1,832,1296,0,0
-385,-272,0,0,0,0,0,0,0,0,0,-1,839,1296,0,0
-378,-272,0,0,0,0,0,0,0,0,0,-1,846,1296,0,0
-371,-272,0,0,0,0,0,0,0,0,0,-1,853,1296,0,0
-364,-272,0,0,0,0,0,0,0,0,0,-1,860,1296,0,0
-357,-272,0,0,0,0,0,0,0,0,0,-1,867,1296,0,0
-350,-272,0,0,0,0,0,0,0,0,0,-1,874,1296,0,0
-343,-272,0,0,0,0,0,0,0,0,0,-1,881,1296,0,0
-336,-272,0,0,0,0,0,0,0,0,0,-1,888,1296,0,0
-329,-272,0,0,0,0,0,0,0,0,0,-1,895,1296,0,0
-322,-272,0,0,0,0,0,0,0,0,0,-1,902,1296,0,0
-315,-272,0,0,0,0,0,0,0,0,0,-1,909,1296,0,0
-308,-272,0,0,0,0,0,0,0,0,0,-1,916,1296,0,0
-301,-272,0,0,0,0,0,0,0,0,0,-1,923,1296,0,0
-294,-272,0,0,0,0,0,0,0,0,0,-1,930,1296,0,0
-287,-272,0,0,0,0,0,0,0,0,0,-1,937,1296,0,0
-280,-272,0,0,0,0,0,0,0,0,0,-1,944,1296,0,0
-273,-272,0,0,0,0,0,0,0,0,0,-1,951,1296,0,0
-266,-272,0,0,0,0,0,0,0,0,0,-1,958,1296,0,0
-259,-272,0,0,0,0,0,0,0,0,0,-1,965,1296,0,0
-252,-272,0,0,0,0,0,0,0,0,0,-1,972,1296,0,0
-245,-272,0,0,0,0,0,0,0,0,0,-1,979,1296,0,0
-238,-272,0,0,0,0,0,0,0,0,0,-1,986,1296,0,0
-231,-272,0,0,0,0,0,0,0,0,0,-1,993,1296,0,0
-224,-272,0,0,0,0,0,0,0,0,0,-1,1000,1296,0,0
-217,-272,0,0,0,0,0,0,0,0,0,-1,1007,1296,0,0
-210,-272,0,0,0,0,0,0,0,0,0,-1,1014,1296,0,0
-203,-272,0,0,0,0,0,0,0,0,0,-1,1021,1296,0,0
-196,-272,0,0,0,0,0,0,0,0,0,-1,1028,1296,0,0
-189,-272,0,0,0,0,0,0,0,0,0,-1,1035,1296,0,0
-182,-272,0,0,0,0,0,0,0,0,0,-1,1042,1296,0,0
-175,-272,0,0,0,0,0,0,0,0,0,-1,1049,1296,0,0
-168,-272,0,0,0,0,0,0,0,0,0,-1,1056,1296,0,0
-161,-272,0,0,0,0,0,0,0,0,0,-1,1063,1296,0,0
-154,-272,0,0,0,0,0,0,0,0,0,-1,1070,1296,0,0
-147,-272,0,0,0,0,0,0,0,0,0,-1,1077,1296,0,0
-140,-272,0,0,0,0,0,0,0,0,0,-1,1084,1296,0,0
-133,-272,0,0,0,0,0,0,0,0,0,-1,1091,1296,0,0
-126,-272,0,0,0,0,0,0,0,0,0,-1,1098,1296,0,0
-119,-272,0,0,0,0,0,0,0,0,0,-1,1105,1296,0,0
-112,-272,0,0,0,0,0,0,0,0,0,-1,1112,1296,0,0
-105,-272,0,0,0,0,0,0,0,0,0,-1,1119,1296,0,0
-98,-272,0,0,0,0,0,0,0,0,0,-1,1126,1296,0,0
-91,-272,0,0,0,0,0,0,0,0,0,-1,1133,1296,0,0
-84,-272,0,0,0,0,0,0,0,0,0,-1,1140,1296,0,0
-77,-272,0,0,0,0,0,0,0,0,0,-1,1147,1296,0,0
-70,-272,0,0,0,0,0,0,0,0,0,-1,1154,1296,0,0
-63,-272,0,0,0,0,0,0,0,0,0,-1,1161,1296,0,0
-56,-272,0,0,0,0,0,0,0,0,0,-1,1168,1296,0,0
-49,-272,0,0,0,0,0,0,0,0,0,-1,1175,1296,0,0
-42,-272,0,0,0,0,0,0,0,0,0,-1,1182,1296,0,0
-35,-272,0,0,0,0,0,0,0,0,0,-1,1189,1296,0,0
-28,-272,0,0,0,0,0,0,0,0,0,-1,1196,1296,0,0
-21,-272,0,0,0,0,0,0,0,0,0,-1,1203,1296,0,0
-14,-272,0,0,0,0,0,0,0,0,0,-1,1210,1296,0,0
-7,-272,0,0,0,0,0,0,0,0,0,-1,1217,1296,0,0
0,-272,0,0,0,0,0,0,0,0,0,-1,1224,1296,0,0
7,-272,0,0,0,0,0,0,0,0,0,-1,1231,1296,0,0
14,-272,0,0,0,0,0,0,0,0,0,-1,1238,1296,0,0
21,-272,0,0,0,0,0,0,0,0,0,-1,1245,1296,0,0
28,-272,0,0,0,0,0,0,0,0,0,-1,1252,1296,0,0
35,-272,0,0,0,0,0,0,0,0,0,-1,1259,1296,0,0
42,-272,0,0,0,0,0,0,0,0,0,-1,1266,1296,0,0
49,-272,0,0,0,0,0,0,0,0,0,-1,1273,1296,0,0
56,-272,0,0,0,0,0,0,0,0,0,-1,1280,1296,0,0
63,-272,0,0,0,0,0,0,0,0,0,-1,1287,1296,0,0
70,-272,0,0,0,0,0,0,0,0,0,-1,1294,1296,0,0
77,-272,0,0,0,0,0,0,0,0,0,-1,1301,1296,0,0
84,-272,0,0,0,0,0,0,0,0,0,-1,1308,1296,0,0
91,-272,0,0,0,0,0,0,0,0,0,-1,1315,1296,0,0
98,-272,0,0,0,0,0,0,0,0,0,-1,1322,1296,0,0
105,-272,0,0,0,0,0,0,0,0,0,-1,1329,1296,0,0
112,-272,0,0,0,0,0,0,0,0,0,-1,1336,1296,0,0
119,-272,0,0,0,0,0,0,0,0,0,-1,1343,1296,0,0
126,-272,0,0,0,0,0,0,0,0,0,-1,1350,1296,0,0
133,-272,0,0,0,0,0,0,0,0,0,-1,1357,1296,0,0
140,-272,0,0,0,0,0,0,0,0,0,-1,1364,1296,0,0
147,-272,0,0,0,0,0,0,0,0,0,-1,1371,1296,0,0
154,-272,0,0,0,0,0,0,0,0,0,-1,1378,1296,0,0
161,-272,0,0,0,0,0,0,0,0,0,-1,1385,1296,0,0
168,-272,0,0,0,0,0,0,0,0,0,-1,1392,1296,0,0
175,-272,0,0,0,0,0,0,0,0,0,-1,1399,1296,0,0
182,-272,0,0,0,0,0,0,0,0,0,-1,1406,1296,0,0
189,-272,0,0,0,0,0,0,0,0,0,-1,1413,1296,0,0
196,-272,0,0,0,0,0,0,0,0,0,-1,1420,1296,0,0
203,-272,0,0,0,0,0,0,0,0,0,-1,1427,1296,0,0
210,-272,0,0,0,0,0,0,0,0,0,-1,1434,1296,0,0
217,-272,0,0,0,0,0,0,0,0,0,-1,1441,1296,0,0
224,-272,0,0,0,0,0,0,0,0,0,-1,1448,1296,0,0
231,-272,0,0,0,0,0,0,0,0,0,-1,1455,1296,0,0
238,-272,0,0,0,0,0,0,0,0,0,-1,1462,1296,0,0
245,-272,0,0,0,0,0,0,0,0,0,-1,1469,1296,0,0
252,-272,0,0,0,0,0,0,0,0,0,-1,1476,1296,0,0
259,-272,0,0,0,0,0,0,0,0,0,-1,1483,1296,0,0
266,-272,0,0,0,0,0,0,0,0,0,-1,1490,1296,0,0
273,-272,0,0,0,0,0,0,0,0,0,-1,1497,1296,0,0
280,-272,0,0,0,0,0,0,0,0,0,-1,1504,1296,0,0
287,-272,0,0,0,0,0,0,0,0,0,-1,1511,1296,0,0
294,-272,0,0,0,0,0,0,0,0,0,-1,1518,1296,0,0
301,-272,0,0,0,0,0,0,0,0,0,-1,1525,1296,0,0
308,-272,0,0,0,0,0,0,0,0,0,-1,1532,1296,0,0
315,-272,0,0,0,0,0,0,0,0,0,-1,1539,1296,0,0
322,-272,0,0,0,0,0,0,0,0,0,-1,1546,1296,0,0
329,-272,0,0,0,0,0,0,0,0,0,-1,1553,1296,0,0
336,-272,0,0,0,0,0,0,0,0,0,-1,1560,1296,0,0
343,-272,0,0,0,0,0,0,0,0,0,-1,1567,1296,0,0
350,-272,0,0,0,0,0,0,0,0,0,-1,1574,1296,0,0
357,-272,0,0,0,0,0,0,0,0,0,-1,1581,1296,0,0
364,-272,0,0,0,0,0,0,0,0,0,-1,1588,1296,0,0
371,-272,0,0,0,0,0,0,0,0,0,-1,1595,1296,0,0
378,-272,0,0,0,0,0,0,0,0,0,-1,1602,1296,0,0
385,-272,0,0,0,0,0,0,0,0,0,-1,1609,1296,0,0
392,-272,0,0,0,0,0,0,0,0,0,-1,1616,1296,0,0
399,-272,0,0,0,0,0,0,0,0,0,-1,1623,1296,0,0
406,-272,0,0,0,0,0,0,0,0,0,-1,1630,1296,0,0
413,-272,0,0,0,0,0,0,0,0,0,-1,1637,1296,0,0
420,-272,0,0,0,0,0,0,0,0,0,-1,1644,1296,0,0
427,-272,0,0,0,0,0,0,0,0,0,-1,1651,1296,0,0
434,-272,0,0,0,0,0,0,0,0,0,-1,1658,1296,0,0
441,-272,0,0,0,0,0,0,0,0,0,-1,1665,1296,0,0
448,-272,0,0,0,0,0,0,0,0,0,-1,1672,1296,0,0
455,-272,0,0,0,0,0,0,0,0,0,-1,1679,1296,0,0
462,-272,0,0,0,0,0,0,0,0,0,-1,1686,1296,0,0
469,-272,0,0,0,0,0,0,0,0,0,-1,1693,1296,0,0
476,-272,0,0,0,0,0,0,0,0,0,-1,1700,1296,0,0
483,-272,0,0,0,0,0,0,0,0,0,-1,1707,1296,0,0
490,-272,0,0,0,0,0,0,0,0,0,-1,1714,1296,0,0
497,-272,0,0,0,0,0,0,0,0,0,-1,1721,1296,0,0
504,-272,0,0,0,0,0,0,0,0,0,-1,1728,1296,0,0
511,-272,0,0,0,0,0,0,0,0,0,-1,1735,1296,0,0
518,-272,0,0,0,0,0,0,0,0,0,-1,1742,1296,0,0
525,-272,0,0,0,0,0,0,0,0,0,-1,1749,1296,0,0
532,-272,0,0,0,0,0,0,0,0,0,-1,1756,1296,0,0
539,-272,0,0,0,0,0,0,0,0,0,-1,1763,1296,0,0
546,-272,0,0,0,0,0,0,0,0,0,-1,1770,1296,0,0
553,-272,0,0,0,0,0,0,0,0,0,-1,1777,1296,0,0
560,-272,0,0,0,0,0,0,0,0,0,-1,1784,1296,0,0
567,-272,0,0,0,0,0,0,0,0,0,-1,1791,1296,0,0
574,-272,0,0,0,0,0,0,0,0,0,-1,1798,1296,0,0
581,-272,0,0,0,0,0,0,0,0,0,-1,1805,1296,0,0
588,-272,0,0,0,0,0,0,0,0,0,-1,1812,1296,0,0
595,-272,0,0,0,0,0,0,0,0,0,-1,1819,1296,0,0
602,-272,80.389,2.04419,-0.0110631,0.0285389,0.00681864,0.0296801,-0.0122042,1.40498,0.0248736,0.0317527,1826,1296,80.389,-2.04415
609,-272,80.2982,1.94556,-0.0143877,0.0382269,0.00945785,0.0398754,-0.0160362,1.39823,0.0332442,0.0399322,1833,1296,80.2982,-1.94551
616,-272,80.1388,1.62891,-0.0166879,0.0445263,0.01118,0.0465043,-0.0186658,1.39569,0.0387534,0.0447826,1840,1296,80.1388,-1.62888
623,-272,79.8832,1.43408,-0.0149356,0.0393206,0.00981376,0.0410411,-0.0166561,1.39724,0.0342888,0.0442243,1847,1296,79.8831,-1.43403
630,-272,79.8527,1.6958,-0.0123515,0.0315881,0.00776431,0.0329197,-0.0136831,1.40094,0.0276597,0.0454249,1854,1296,79.8527,-1.69575
637,-272,79.5875,1.89844,0,0,0,0,0,0,0,-1,1861,1296,79.5875,-1.89842
644,-272,53.563,1.44336,0,0,0,0,0,0,0,-1,1868,1296,53.5629,-1.4433
651,-272,41.9225,4.27161,0,0,0,0,0,0,0,-1,1875,1296,41.9225,-4.27157
658,-272,35.1527,2.10571,0,0,0,0,0,0,0,-1,1882,1296,35.1527,-2.10573
665,-272,22.0238,4.14417,0,0,0,0,0,0,0,-1,1889,1296,22.0238,-4.14421
672,-272,22.661,7.21765,0,0,0,0,0,0,0,-1,1896,1296,22.661,-7.21761
679,-272,51.5885,15.1158,0,0,0,0,0,0,0,-1,1903,1296,51.5885,-15.1159
686,-272,55.969,15.9004,0,0,0,0,0,0,0,-1,1910,1296,55.969,-15.9004
693,-272,56.103,15.0643,0.000479073,0.000578446,-0.000105979,0.000645807,0.000411711,-1.0046,0.000377528,0.0135857,1917,1296,56.103,-15.0643
700,-272,56.0909,14.2241,0.000620277,0.000173474,0.000328017,0.000793743,8.61473e-09,0.486445,0.000529159,0.0120099,1924,1296,56.0909,-14.2241
707,-272,56.0391,13.3774,4.74442e-05,-0.00042097,0.00065615,0.000509933,-0.000883459,0.613975,0.000814054,0.0118559,1931,1296,56.0391,-13.3775
714,-272,55.9766,12.5516,-0.000750697,-0.000770283,0.00104817,0.00028773,-0.00180871,0.780727,0.00131227,0.0150209,1938,1296,55.9766,-12.5516
721,-272,55.9083,11.7711,-0.00164131,-0.00129907,0.00143138,-2.86216e-05,-0.00291176,0.844891,0.0019317,0.0188312,1945,1296,55.9083,-11.7711
728,-272,55.8772,10.9192,-0.00262909,-0.00202767,0.0018039,-0.00049958,-0.00415717,0.867989,0.00262084,0.0202018,1952,1296,55.8772,-10.9192
735,-272,55.8457,10.1396,-0.00375016,-0.00298942,0.00217138,-0.00116535,-0.00557423,0.872105,0.00339504,0.0178334,1959,1296,55.8457,-10.1396
742,-272,55.7164,9.36401,-0.00499207,-0.00429388,0.00252795,-0.00209104,-0.00719491,0.854012,0.00427366,0.0250329,1966,1296,55.7164,-9.36396
749,-272,55.619,8.30066,-0.00636868,-0.00618559,0.00281659,-0.00345905,-0.00909521,0.801644,0.00530103,0.0448933,1973,1296,55.619,-8.30069
756,-272,55.6575,7.28369,0,0,0,0,0,0,0,-1,1980,1296,55.6575,-7.28372
763,-272,34.3995,5.88416,0,0,0,0,0,0,0,-1,1987,1296,34.3996,-5.88419
770,-272,25.9485,3.67749,0,0,0,0,0,0,0,-1,1994,1296,25.9485,-3.67744
777,-272,32.3619,6.13257,0,0,0,0,0,0,0,-1,2001,1296,32.362,-6.1326
784,-272,0,0,0,0,0,0,0,0,0,-1,2008,1296,0,0
791,-272,0,0,0,0,0,0,0,0,0,-1,2015,1296,0,0
798,-272,0,0,0,0,0,0,0,0,0,-1,2022,1296,0,0
805,-272,0,0,0,0,0,0,0,0,0,-1,2029,1296,0,0
812,-272,0,0,0,0,0,0,0,0,0,-1,2036,1296,0,0
-700,-279,0,0,0,0,0,0,0,0,0,-1,524,1303,0,0
-693,-279,0,0,0,0,0,0,0,0,0,-1,531,1303,0,0
-686,-279,0,0,0,0,0,0,0,0,0,-1,538,1303,0,0
-679,-279,0,0,0,0,0,0,0,0,0,-1,545,1303,0,0
-672,-279,0,0,0,0,0,0,0,0,0,-1,552,1303,0,0
-665,-279,0,0,0,0,0,0,0,0,0,-1,559,1303,0,0
-658,-279,-44.3733,1.65881,0,0,0,0,0,0,0,-1,566,1303,-44.3733,-1.65883
-651,-279,-44.1603,1.61462,0,0,0,0,0,0,0,-1,573,1303,-44.1604,-1.61462
-644,-279,-43.8069,1.50903,0,0,0,0,0,0,0,-1,580,1303,-43.8069,-1.50909
-637,-279,-43.2951,1.33704,0,0,0,0,0,0,0,-1,587,1303,-43.2951,-1.33703
-630,-279,-42.6152,1.22852,0,0,0,0,0,0,0,-1,594,1303,-42.6152,-1.22856
-623,-279,-41.8359,0.907715,0,0,0,0,0,0,0,-1,601,1303,-41.8358,-0.907688
-616,-279,-36.7089,8.0625,0,0,0,0,0,0,0,-1,608,1303,-36.7089,-8.06252
-609,-279,-37.9446,8.99976,0,0,0,0,0,0,0,-1,615,1303,-37.9446,-8.9997
-602,-279,-37.97,9.89648,0.00466965,0.00203159,0.00166371,0.00547377,0.00122747,0.450223,0.00331662,0.0164196,622,1303,-37.97,-9.89644
-595,-279,-38.077,10.7396,0.00286878,0.00124314,0.000930372,0.00329138,0.000820538,0.426367,0.0019783,0.0114048,629,1303,-38.0771,-10.7397
-588,-279,-38.1357,11.588,0.0014821,0.000402534,0.000306226,0.00156291,0.00032172,0.25802,0.000952977,0.0118445,636,1303,-38.1357,-11.588
-581,-279,-38.1872,12.4198,0.000358533,-0.000521828,-0.0002672,0.000433284,-0.000596579,-0.272784,0.000597078,0.012265,643,1303,-38.1872,-12.4198
-574,-279,-38.2444,13.2855,-0.000531638,-0.0014936,-0.000804832,-7.50175e-05,-0.00195022,-0.516065,0.00127588,0.0134912,650,1303,-38.2444,-13.2855
-567,-279,-38.3065,14.1512,-0.00115598,-0.00246563,-0.00127938,-0.000373579,-0.00324803,-0.548865,0.00205219,0.0193552,657,1303,-38.3065,-14.1513
-560,-279,-38.4106,15.0818,-0.00136116,-0.00332374,-0.00161525,-0.000452485,-0.00423242,-0.512435,0.00268353,0.0204879,664,1303,-38.4106,-15.0818
-553,-279,-38.449,15.9375,-0.00104306,-0.00420032,-0.00179283,-0.000232898,-0.00501048,-0.424423,0.00326546,0.0284129,671,1303,-38.4491,-15.9375
-546,-279,-38.4991,16.8513,0,0,0,0,0,0,0,-1,678,1303,-38.4991,-16.8513
-539,-279,-38.3979,17.2278,0,0,0,0,0,0,0,-1,685,1303,-38.3979,-17.2278
-532,-279,-14.9813,7.89917,0,0,0,0,0,0,0,-1,692,1303,-14.9813,-7.89918
-525,-279,-11.7063,-0.539185,0,0,0,0,0,0,0,-1,699,1303,-11.7063,0.539166
-518,-279,-16.8138,1.11963,0,0,0,0,0,0,0,-1,706,1303,-16.8138,-1.11968
-511,-279,-20.1063,-1.37915,0,0,0,0,0,0,0,-1,713,1303,-20.1062,1.37918
-504,-279,-18.3766,1.04578,0,0,0,0,0,0,0,-1,720,1303,-18.3767,-1.04577
-497,-279,-19.0046,2.08911,0,0,0,0,0,0,0,-1,727,1303,-19.0046,-2.08905
-490,-279,-20.0176,2.55188,0,0,0,0,0,0,0,-1,734,1303,-20.0176,-2.55183
-483,-279,-20.8064,2.99792,0,0,0,0,0,0,0,-1,741,1303,-20.8064,-2.99797
-476,-279,0,0,0,0,0,0,0,0,0,-1,748,1303,0,0
-469,-279,0,0,0,0,0,0,0,0,0,-1,755,1303,0,0
-462,-279,0,0,0,0,0,0,0,0,0,-1,762,1303,0,0
-455,-279,0,0,0,0,0,0,0,0,0,-1,769,1303,0,0
-448,-279,0,0,0,0,0,0,0,0,0,-1,776,1303,0,0
-441,-279,0,0,0,0,0,0,0,0,0,-1,783,1303,0,0
-434,-279,0,0,0,0,0,0,0,0,0,-1,790,1303,0,0
-427,-279,0,0,0,0,0,0,0,0,0,-1,797,1303,0,0
-420,-279,0,0,0,0,0,0,0,0,0,-1,804,1303,0,0
-413,-279,0,0,0,0,0,0,0,0,0,-1,811,1303,0,0
-406,-279,0,0,0,0,0,0,0,0,0,-1,818,1303,0,0
-399,-279,0,0,0,0,0,0,0,0,0,-1,825,1303,0,0
-392,-279,0,0,0,0,0,0,0,0,0,-1,832,1303,0,0
-385,-279,0,0,0,0,0,0,0,0,0,-1,839,1303,0,0
-378,-279,0,0,0,0,0,0,0,0,0,-1,846,1303,0,0
-371,-279,0,0,0,0,0,0,0,0,0,-1,853,1303,0,0
-364,-279,0,0,0,0,0,0,0,0,0,-1,860,1303,0,0
-357,-279,0,0,0,0,0,0,0,0,0,-1,867,1303,0,0
-350,-279,0,0,0,0,0,0,0,0,0,-1,874,1303,0,0
-343,-279,0,0,0,0,0,0,0,0,0,-1,881,1303,0,0
-336,-279,0,0,0,0,0,0,0,0,0,-1,888,1303,0,0
-329,-279,0,0,0,0,0,0,0,0,0,-1,895,1303,0,0
-322,-279,0,0,0,0,0,0,0,0,0,-1,902,1303,0,0
-315,-279,0,0,0,0,0,0,0,0,0,-1,909,1303,0,0
-308,-279,0,0,0,0,0,0,0,0,0,-1,916,1303,0,0
-301,-279,0,0,0,0,0,0,0,0,0,-1,923,1303,0,0
-294,-279,0,0,0,0,0,0,0,0,0,-1,930,1303,0,0
-287,-279,0,0,0,0,0,0,0,0,0,-1,937,1303,0,0
-280,-279,0,0,0,0,0,0,0,0,0,-1,944,1303,0,0
-273,-279,0,0,0,0,0,0,0,0,0,-1,951,1303,0,0
-266,-279,0,0,0,0,0,0,0,0,0,-1,958,1303,0,0
-259,-279,0,0,0,0,0,0,0,0,0,-1,965,1303,0,0
-252,-279,0,0,0,0,0,0,0,0,0,-1,972,1303,0,0
-245,-279,0,0,0,0,0,0,0,0,0,-1,979,1303,0,0
-238,-279,0,0,0,0,0,0,0,0,0,-1,986,1303,0,0
-231,-279,0,0,0,0,0,0,0,0,0,-1,993,1303,0,0
-224,-279,0,0,0,0,0,0,0,0,0,-1,1000,1303,0,0
-217,-279,0,0,0,0,0,0,0,0,0,-1,1007,1303,0,0
-210,-279,0,0,0,0,0,0,0,0,0,-1,1014,1303,0,0
-203,-279,0,0,0,0,0,0,0,0,0,-1,1021,1303,0,0
-196,-279,0,0,0,0,0,0,0,0,0,-1,1028,1303,0,0
-189,-279,0,0,0,0,0,0,0,0,0,-1,1035,1303,0,0
-182,-279,0,0,0,0,0,0,0,0,0,-1,1042,1303,0,0
-175,-279,0,0,0,0,0,0,0,0,0,-1,1049,1303,0,0
-168,-279,0,0,0,0,0,0,0,0,0,-1,1056,1303,0,0
-161,-279,0,0,0,0,0,0,0,0,0,-1,1063,1303,0,0
-154,-279,0,0,0,0,0,0,0,0,0,-1,1070,1303,0,0
-147,-279,0,0,0,0,0,0,0,0,0,-1,1077,1303,0,0
-140,-279,0,0,0,0,0,0,0,0,0,-1,1084,1303,0,0
-133,-279,0,0,0,0,0,0,0,0,0,-1,1091,1303,0,0
-126,-279,0,0,0,0,0,0,0,0,0,-1,1098,1303,0,0
-119,-279,0,0,0,0,0,0,0,0,0,-1,1105,1303,0,0
-112,-279,0,0,0,0,0,0,0,0,0,-1,1112,1303,0,0
-105,-279,0,0,0,0,0,0,0,0,0,-1,1119,1303,0,0
-98,-279,0,0,0,0,0,0,0,0,0,-1,1126,1303,0,0
-91,-279,0,0,0,0,0,0,0,0,0,-1,1133,1303,0,0
-84,-279,0,0,0,0,0,0,0,0,0,-1,1140,1303,0,0
-77,-279,0,0,0,0,0,0,0,0,0,-1,1147,1303,0,0
-70,-279,0,0,0,0,0,0,0,0,0,-1,1154,1303,0,0
-63,-279,0,0,0,0,0,0,0,0,0,-1,1161,1303,0,0
-56,-279,0,0,0,0,0,0,0,0,0,-1,1168,1303,0,0
-49,-279,0,0,0,0,0,0,0,0,0,-1,1175,1303,0,0
-42,-279,0,0,0,0,0,0,0,0,0,-1,1182,1303,0,0
-35,-279,0,0,0,0,0,0,0,0,0,-1,1189,1303,0,0
-28,-279,0,0,0,0,0,0,0,0,0,-1,1196,1303,0,0
-21,-279,0,0,0,0,0,0,0,0,0,-1,1203,1303,0,0
-14,-279,0,0,0,0,0,0,0,0,0,-1,1210,1303,0,0
-7,-279,0,0,0,0,0,0,0,0,0,-1,1217,1303,0,0
0,-279,0,0,0,0,0,0,0,0,0,-1,1224,1303,0,0
7,-279,0,0,0,0,0,0,0,0,0,-1,1231,1303,0,0
14,-279,0,0,0,0,0,0,0,0,0,-1,1238,1303,0,0
21,-279,0,0,0,0,0,0,0,0,0,-1,1245,1303,0,0
28,-279,0,0,0,0,0,0,0,0,0,-1,1252,1303,0,0
35,-279,0,0,0,0,0,0,0,0,0,-1,1259,1303,0,0
42,-279,0,0,0,0,0,0,0,0,0,-1,1266,1303,0,0
49,-279,0,0,0,0,0,0,0,0,0,-1,1273,1303,0,0
56,-279,0,0,0,0,0,0,0,0,0,-1,1280,1303,0,0
63,-279,0,0,0,0,0,0,0,0,0,-1,1287,1303,0,0
70,-279,0,0,0,0,0,0,0,0,0,-1,1294,1303,0,0
77,-279,0,0,0,0,0,0,0,0,0,-1,1301,1303,0,0
84,-279,0,0,0,0,0,0,0,0,0,-1,1308,1303,0,0
91,-279,0,0,0,0,0,0,0,0,0,-1,1315,1303,0,0
98,-279,0,0,0,0,0,0,0,0,0,-1,1322,1303,0,0
105,-279,0,0,0,0,0,0,0,0,0,-1,1329,1303,0,0
112,-279,0,0,0,0,0,0,0,0,0,-1,1336,1303,0,0
119,-279,0,0,0,0,0,0,0,0,0,-1,1343,1303,0,0
126,-279,0,0,0,0,0,0,0,0,0,-1,1350,1303,0,0
133,-279,0,0,0,0,0,0,0,0,0,-1,1357,1303,0,0
140,-279,0,0,0,0,0,0,0,0,0,-1,1364,1303,0,0
147,-279,0,0,0,0,0,0,0,0,0,-1,1371,1303,0,0
154,-279,0,0,0,0,0,0,0,0,0,-1,1378,1303,0,0
161,-279,0,0,0,0,0,0,0,0,0,-1,1385,1303,0,0
168,-279,0,0,0,0,0,0,0,0,0,-1,1392,1303,0,0
175,-279,0,0,0,0,0,0,0,0,0,-1,1399,1303,0,0
182,-279,0,0,0,0,0,0,0,0,0,-1,1406,1303,0,0
189,-279,0,0,0,0,0,0,0,0,0,-1,1413,1303,0,0
196,-279,0,0,0,0,0,0,0,0,0,-1,1420,1303,0,0
203,-279,0,0,0,0,0,0,0,0,0,-1,1427,1303,0,0
210,-279,0,0,0,0,0,0,0,0,0,-1,1434,1303,0,0
217,-279,0,0,0,0,0,0,0,0,0,-1,1441,1303,0,0
224,-279,0,0,0,0,0,0,0,0,0,-1,1448,1303,0,0
231,-279,0,0,0,0,0,0,0,0,0,-1,1455,1303,0,0
238,-279,0,0,0,0,0,0,0,0,0,-1,1462,1303,0,0
245,-279,0,0,0,0,0,0,0,0,0,-1,1469,1303,0,0
252,-279,0,0,0,0,0,0,0,0,0,-1,1476,1303,0,0
259,-279,0,0,0,0,0,0,0,0,0,-1,1483,1303,0,0
266,-279,0,0,0,0,0,0,0,0,0,-1,1490,1303,0,0
273,-279,0,0,0,0,0,0,0,0,0,-1,1497,1303,0,0
280,-279,0,0,0,0,0,0,0,0,0,-1,1504,1303,0,0
287,-279,0,0,0,0,0,0,0,0,0,-1,1511,1303,0,0
294,-279,0,0,0,0,0,0,0,0,0,-1,1518,1303,0,0
301,-279,0,0,0,0,0,0,0,0,0,-1,1525,1303,0,0
308,-279,0,0,0,0,0,0,0,0,0,-1,1532,1303,0,0
315,-279,0,0,0,0,0,0,0,0,0,-1,1539,1303,0,0
322,-279,0,0,0,0,0,0,0,0,0,-1,1546,1303,0,0
329,-279,0,0,0,0,0,0,0,0,0,-1,1553,1303,0,0
336,-279,0,0,0,0,0,0,0,0,0,-1,1560,1303,0,0
343,-279,0,0,0,0,0,0,0,0,0,-1,1567,1303,0,0
350,-279,0,0,0,0,0,0,0,0,0,-1,1574,1303,0,0
357,-279,0,0,0,0,0,0,0,0,0,-1,1581,1303,0,0
364,-279,0,0,0,0,0,0,0,0,0,-1,1588,1303,0,0
371,-279,0,0,0,0,0,0,0,0,0,-1,1595,1303,0,0
378,-279,0,0,0,0,0,0,0,0,0,-1,1602,1303,0,0
385,-279,0,0,0,0,0,0,0,0,0,-1,1609,1303,0,0
392,-279,0,0,0,0,0,0,0,0,0,-1,1616,1303,0,0
399,-279,0,0,0,0,0,0,0,0,0,-1,1623,1303,0,0
406,-279,0,0,0,0,0,0,0,0,0,-1,1630,1303,0,0
413,-279,0,0,0,0,0,0,0,0,0,-1,1637,1303,0,0
420,-279,0,0,0,0,0,0,0,0,0,-1,1644,1303,0,0
427,-279,0,0,0,0,0,0,0,0,0,-1,1651,1303,0,0
434,-279,0,0,0,0,0,0,0,0,0,-1,1658,1303,0,0
441,-279,0,0,0,0,0,0,0,0,0,-1,1665,1303,0,0
448,-279,0,0,0,0,0,0,0,0,0,-1,1672,1303,0,0
455,-279,0,0,0,0,0,0,0,0,0,-1,1679,1303,0,0
462,-279,0,0,0,0,0,0,0,0,0,-1,1686,1303,0,0
469,-279,0,0,0,0,0,0,0,0,0,-1,1693,1303,0,0
476,-279,0,0,0,0,0,0,0,0,0,-1,1700,1303,0,0
483,-279,0,0,0,0,0,0,0,0,0,-1,1707,1303,0,0
490,-279,0,0,0,0,0,0,0,0,0,-1,1714,1303,0,0
497,-279,0,0,0,0,0,0,0,0,0,-1,1721,1303,0,0
504,-279,0,0,0,0,0,0,0,0,0,-1,1728,1303,0,0
511,-279,0,0,0,0,0,0,0,0,0,-1,1735,1303,0,0
518,-279,0,0,0,0,0,0,0,0,0,-1,1742,1303,0,0
525,-279,0,0,0,0,0,0,0,0,0,-1,1749,1303,0,0
532,-279,0,0,0,0,0,0,0,0,0,-1,1756,1303,0,0
539,-279,0,0,0,0,0,0,0,0,0,-1,1763,1303,0,0
546,-279,0,0,0,0,0,0,0,0,0,-1,1770,1303,0,0
553,-279,0,0,0,0,0,0,0,0,0,-1,1777,1303,0,0
560,-279,0,0,0,0,0,0,0,0,0,-1,1784,1303,0,0
567,-279,0,0,0,0,0,0,0,0,0,-1,1791,1303,0,0
574,-279,0,0,0,0,0,0,0,0,0,-1,1798,1303,0,0
581,-279,0,0,0,0,0,0,0,0,0,-1,1805,1303,0,0
588,-279,0,0,0,0,0,0,0,0,0,-1,1812,1303,0,0
595,-279,0,0,0,0,0,0,0,0,0,-1,1819,1303,0,0
602,-279,80.3708,1.97253,0,0,0,0,0,0,0,-1,1826,1303,80.3709,-1.97248
609,-279,80.1608,1.82837,0,0,0,0,0,0,0,-1,1833,1303,80.1608,-1.82843
616,-279,79.5942,1.01343,-0.0183294,0.054614,0.0129211,0.0568352,-0.0205505,1.40056,0.0462868,0.0467316,1840,1303,79.5942,-1.01339
623,-279,79.3715,0.766724,-0.0149139,0.0437094,0.0105196,0.0455399,-0.0167444,1.39851,0.0372189,0.0469432,1847,1303,79.3714,-0.766749
630,-279,79.6926,1.40601,0,0,0,0,0,0,0,-1,1854,1303,79.6926,-1.40598
637,-279,73.1141,1.62744,0,0,0,0,0,0,0,-1,1861,1303,73.1142,-1.62742
644,-279,33.5021,3.40234,0,0,0,0,0,0,0,-1,1868,1303,33.5021,-3.40237
651,-279,29.8456,2.3562,0,0,0,0,0,0,0,-1,1875,1303,29.8455,-2.35615
658,-279,21.5076,7.65649,0,0,0,0,0,0,0,-1,1882,1303,21.5076,-7.65648
665,-279,18.9794,6.09607,0,0,0,0,0,0,0,-1,1889,1303,18.9793,-6.09601
672,-279,23.5206,8.32507,0,0,0,0,0,0,0,-1,1896,1303,23.5206,-8.32512
679,-279,55.0487,16.781,0,0,0,0,0,0,0,-1,1903,1303,55.0487,-16.781
686,-279,55.2491,15.9298,0.000333559,0.000513069,-0.00113066,0.00155753,-0.000710906,-0.825006,0.00133974,0.0369385,1910,1303,55.2491,-15.9298
693,-279,55.2891,15.1416,0.00081426,0.000219812,-0.000399613,0.00101507,1.90068e-05,-0.465644,0.000670464,0.0179296,1917,1303,55.2891,-15.1416
700,-279,55.2556,14.2991,0.000770935,-8.87693e-06,0.000101973,0.000784049,-2.1991e-05,0.127901,0.000530182,0.0130032,1924,1303,55.2556,-14.299
707,-279,55.1978,13.4277,0.000176795,-0.000461699,0.000528998,0.000475413,-0.000760317,0.513906,0.000719742,0.0102792,1931,1303,55.1978,-13.4277
714,-279,55.15,12.613,-0.000602569,-0.000908183,0.000949519,0.00020636,-0.00171711,0.705617,0.00121936,0.0118579,1938,1303,55.1501,-12.613
721,-279,55.1412,11.8066,-0.00149341,-0.00154886,0.00135174,-0.000169114,-0.00287316,0.775145,0.00186163,0.0160118,1945,1303,55.1413,-11.8066
728,-279,55.1062,10.9929,-0.00251402,-0.00241445,0.00172403,-0.000739487,-0.00418899,0.799832,0.00258171,0.0182919,1952,1303,55.1062,-10.9929
735,-279,55.0125,10.2084,-0.00370634,-0.00355731,0.00206711,-0.00156338,-0.00570028,0.803414,0.00340102,0.0177783,1959,1303,55.0124,-10.2083
742,-279,54.9202,9.43494,-0.00505956,-0.00513472,0.00235437,-0.00274247,-0.00745181,0.777418,0.00435197,0.0270817,1966,1303,54.9201,-9.43495
749,-279,54.821,8.53699,-0.00662088,-0.00746082,0.00250279,-0.00450307,-0.00957863,0.702272,0.00553352,0.0492693,1973,1303,54.821,-8.53698
756,-279,54.8016,7.63879,0,0,0,0,0,0,0,-1,1980,1303,54.8016,-7.6388
763,-279,27.1613,3.46265,0,0,0,0,0,0,0,-1,1987,1303,27.1613,-3.4627
770,-279,21.5828,3.54199,0,0,0,0,0,0,0,-1,1994,1303,21.5827,-3.54198
777,-279,32.5369,6.99609,0,0,0,0,0,0,0,-1,2001,1303,32.5369,-6.99608
784,-279,0,0,0,0,0,0,0,0,0,-1,2008,1303,0,0
791,-279,0,0,0,0,0,0,0,0,0,-1,2015,1303,0,0
798,-279,0,0,0,0,0,0,0,0,0,-1,2022,1303,0,0
805,-279,0,0,0,0,0,0,0,0,0,-1,2029,1303,0,0
812,-279,0,0,0,0,0,0,0,0,0,-1,2036,1303,0,0
-700,-286,0,0,0,0,0,0,0,0,0,-1,524,1310,0,0
-693,-286,0,0,0,0,0,0,0,0,0,-1,531,1310,0,0
-686,-286,0,0,0,0,0,0,0,0,0,-1,538,1310,0,0
-679,-286,0,0,0,0,0,0,0,0,0,-1,545,1310,0,0
-672,-286,0,0,0,0,0,0,0,0,0,-1,552,1310,0,0
-665,-286,0,0,0,0,0,0,0,0,0,-1,559,1310,0,0
-658,-286,-44.103,1.76782,0,0,0,0,0,0,0,-1,566,1310,-44.103,-1.76778
-651,-286,-43.6417,1.98254,0,0,0,0,0,0,0,-1,573,1310,-43.6416,-1.98254
-644,-286,-43.3175,1.59558,0,0,0,0,0,0,0,-1,580,1310,-43.3175,-1.59556
-637,-286,-42.8448,1.15039,0,0,0,0,0,0,0,-1,587,1310,-42.8448,-1.15043
-630,-286,-42.1176,0.443848,0,0,0,0,0,0,0,-1,594,1310,-42.1176,-0.443802
-623,-286,-41.3121,-0.468384,0,0,0,0,0,0,0,-1,601,1310,-41.3121,0.468376
-616,-286,-22.0634,2.37744,0,0,0,0,0,0,0,-1,608,1310,-22.0633,-2.37746
-609,-286,-37.2548,8.80835,0,0,0,0,0,0,0,-1,615,1310,-37.2548,-8.80833
-602,-286,-37.1638,9.85974,0.00554123,0.00287897,0.00242494,0.00697637,0.00144384,0.534386,0.00425214,0.0251628,622,1310,-37.1638,-9.85979
-595,-286,-37.2628,10.7875,0.00368771,0.00201638,0.00154216,0.00460606,0.00109802,0.537104,0.002778,0.0137484,629,1310,-37.2628,-10.7875
-588,-286,-37.3233,11.6123,0.00232796,0.00117721,0.000829777,0.00276233,0.00074284,0.482253,0.00165063,0.0142733,636,1310,-37.3233,-11.6123
-581,-286,-37.3097,12.476,0.00131253,0.000320402,0.000239815,0.00136746,0.000265476,0.225154,0.000837296,0.014925,643,1310,-37.3097,-12.476
-574,-286,-37.3658,13.3569,0.00055798,-0.000546851,-0.000280729,0.000625219,-0.00061409,-0.235087,0.000715525,0.0149653,650,1310,-37.3658,-13.3569
-567,-286,-37.446,14.2233,7.06986e-05,-0.00137101,-0.000709391,0.000361213,-0.00166153,-0.388692,0.00124567,0.0153454,657,1310,-37.446,-14.2233
-560,-286,-37.4744,15.0897,-2.05937e-05,-0.00217232,-0.000982527,0.00036054,-0.00255346,-0.370042,0.00183433,0.0139937,664,1310,-37.4744,-15.0897
-553,-286,-37.4674,15.969,0.000381484,-0.00298112,-0.00109621,0.00070728,-0.00330692,-0.288889,0.0024743,0.0134772,671,1310,-37.4674,-15.969
-546,-286,-37.4031,16.9001,0.00108734,-0.00351478,-0.000893993,0.0012549,-0.00368234,-0.185283,0.00296314,0.0320576,678,1310,-37.4031,-16.9002
-539,-286,-37.5079,17.9438,0,0,0,0,0,0,0,-1,685,1310,-37.5079,-17.9438
-532,-286,-21.6771,10.4924,0,0,0,0,0,0,0,-1,692,1310,-21.6771,-10.4924
-525,-286,-11.4528,-1.11768,0,0,0,0,0,0,0,-1,699,1310,-11.4528,1.11769
-518,-286,-11.0701,1.37329,0,0,0,0,0,0,0,-1,706,1310,-11.0701,-1.37332
-511,-286,-17.7545,-0.0791016,0,0,0,0,0,0,0,-1,713,1310,-17.7544,0.0791606
-504,-286,-18.0455,1.29602,0,0,0,0,0,0,0,-1,720,1310,-18.0455,-1.29601
-497,-286,-18.3367,2.67114,0,0,0,0,0,0,0,-1,727,1310,-18.3366,-2.67118
-490,-286,-19.5795,2.47266,0,0,0,0,0,0,0,-1,734,1310,-19.5795,-2.4727
-483,-286,-19.7277,2.74744,0,0,0,0,0,0,0,-1,741,1310,-19.7277,-2.74747
-476,-286,-20.0391,3.06177,0,0,0,0,0,0,0,-1,748,1310,-20.0391,-3.06178
-469,-286,0,0,0,0,0,0,0,0,0,-1,755,1310,0,0
-462,-286,0,0,0,0,0,0,0,0,0,-1,762,1310,0,0
-455,-286,0,0,0,0,0,0,0,0,0,-1,769,1310,0,0
-448,-286,0,0,0,0,0,0,0,0,0,-1,776,1310,0,0
-441,-286,0,0,0,0,0,0,0,0,0,-1,783,1310,0,0
-434,-286,0,0,0,0,0,0,0,0,0,-1,790,1310,0,0
-427,-286,0,0,0,0,0,0,0,0,0,-1,797,1310,0,0
-420,-286,0,0,0,0,0,0,0,0,0,-1,804,1310,0,0
-413,-286,0,0,0,0,0,0,0,0,0,-1,811,1310,0,0
-406,-286,0,0,0,0,0,0,0,0,0,-1,818,1310,0,0
-399,-286,0,0,0,0,0,0,0,0,0,-1,825,1310,0,0
-392,-286,0,0,0,0,0,0,0,0,0,-1,832,1310,0,0
-385,-286,0,0,0,0,0,0,0,0,0,-1,839,1310,0,0
-378,-286,0,0,0,0,0,0,0,0,0,-1,846,1310,0,0
-371,-286,0,0,0,0,0,0,0,0,0,-1,853,1310,0,0
-364,-286,0,0,0,0,0,0,0,0,0,-1,860,1310,0,0
-357,-286,0,0,0,0,0,0,0,0,0,-1,867,1310,0,0
-350,-286,0,0,0,0,0,0,0,0,0,-1,874,1310,0,0
-343,-286,0,0,0,0,0,0,0,0,0,-1,881,1310,0,0
-336,-286,0,0,0,0,0,0,0,0,0,-1,888,1310,0,0
-329,-286,0,0,0,0,0,0,0,0,0,-1,895,1310,0,0
-322,-286,0,0,0,0,0,0,0,0,0,-1,902,1310,0,0
-315,-286,0,0,0,0,0,0,0,0,0,-1,909,1310,0,0
-308,-286,0,0,0,0,0,0,0,0,0,-1,916,1310,0,0
-301,-286,0,0,0,0,0,0,0,0,0,-1,923,1310,0,0
-294,-286,0,0,0,0,0,0,0,0,0,-1,930,1310,0,0
-287,-286,0,0,0,0,0,0,0,0,0,-1,937,1310,0,0
-280,-286,0,0,0,0,0,0,0,0,0,-1,944,1310,0,0
-273,-286,0,0,0,0,0,0,0,0,0,-1,951,1310,0,0
-266,-286,0,0,0,0,0,0,0,0,0,-1,958,1310,0,0
-259,-286,0,0,0,0,0,0,0,0,0,-1,965,1310,0,0
-252,-286,0,0,0,0,0,0,0,0,0,-1,972,1310,0,0
-245,-286,0,0,0,0,0,0,0,0,0,-1,979,1310,0,0
-238,-286,0,0,0,0,0,0,0,0,0,-1,986,1310,0,0
-231,-286,0,0,0,0,0,0,0,0,0,-1,993,1310,0,0
-224,-286,0,0,0,0,0,0,0,0,0,-1,1000,1310,0,0
-217,-286,0,0,0,0,0,0,0,0,0,-1,1007,1310,0,0
-210,-286,0,0,0,0,0,0,0,0,0,-1,1014,1310,0,0
-203,-286,0,0,0,0,0,0,0,0,0,-1,1021,1310,0,0
-196,-286,0,0,0,0,0,0,0,0,0,-1,1028,1310,0,0
-189,-286,0,0,0,0,0,0,0,0,0,-1,1035,1310,0,0
-182,-286,0,0,0,0,0,0,0,0,0,-1,1042,1310,0,0
-175,-286,0,0,0,0,0,0,0,0,0,-1,1049,1310,0,0
-168,-286,0,0,0,0,0,0,0,0,0,-1,1056,1310,0,0
-161,-286,0,0,0,0,0,0,0,0,0,-1,1063,1310,0,0
-154,-286,0,0,0,0,0,0,0,0,0,-1,1070,1310,0,0
-147,-286,0,0,0,0,0,0,0,0,0,-1,1077,1310,0,0
-140,-286,0,0,0,0,0,0,0,0,0,-1,1084,1310,0,0
-133,-286,0,0,0,0,0,0,0,0,0,-1,1091,1310,0,0
-126,-286,0,0,0,0,0,0,0,0,0,-1,1098,1310,0,0
-119,-286,0,0,0,0,0,0,0,0,0,-1,1105,1310,0,0
-112,-286,0,0,0,0,0,0,0,0,0,-1,1112,1310,0,0
-105,-286,0,0,0,0,0,0,0,0,0,-1,1119,1310,0,0
-98,-286,0,0,0,0,0,0,0,0,0,-1,1126,1310,0,0
-91,-286,0,0,0,0,0,0,0,0,0,-1,1133,1310,0,0
-84,-286,0,0,0,0,0,0,0,0,0,-1,1140,1310,0,0
-77,-286,0,0,0,0,0,0,0,0,0,-1,1147,1310,0,0
-70,-286,0,0,0,0,0,0,0,0,0,-1,1154,1310,0,0
-63,-286,0,0,0,0,0,0,0,0,0,-1,1161,1310,0,0
-56,-286,0,0,0,0,0,0,0,0,0,-1,1168,1310,0,0
-49,-286,0,0,0,0,0,0,0,0,0,-1,1175,1310,0,0
-42,-286,0,0,0,0,0,0,0,0,0,-1,1182,1310,0,0
-35,-286,0,0,0,0,0,0,0,0,0,-1,1189,1310,0,0
-28,-286,0,0,0,0,0,0,0,0,0,-1,1196,1310,0,0
-21,-286,0,0,0,0,0,0,0,0,0,-1,1203,1310,0,0
-14,-286,0,0,0,0,0,0,0,0,0,-1,1210,1310,0,0
-7,-286,0,0,0,0,0,0,0,0,0,-1,1217,1310,0,0
0,-286,0,0,0,0,0,0,0,0,0,-1,1224,1310,0,0
7,-286,0,0,0,0,0,0,0,0,0,-1,1231,1310,0,0
14,-286,0,0,0,0,0,0,0,0,0,-1,1238,1310,0,0
21,-286,0,0,0,0,0,0,0,0,0,-1,1245,1310,0,0
28,-286,0,0,0,0,0,0,0,0,0,-1,1252,1310,0,0
35,-286,0,0,0,0,0,0,0,0,0,-1,1259,1310,0,0
42,-286,0,0,0,0,0,0,0,0,0,-1,1266,1310,0,0
49,-286,0,0,0,0,0,0,0,0,0,-1,1273,1310,0,0
56,-286,0,0,0,0,0,0,0,0,0,-1,1280,1310,0,0
63,-286,0,0,0,0,0,0,0,0,0,-1,1287,1310,0,0
70,-286,0,0,0,0,0,0,0,0,0,-1,1294,1310,0,0
77,-286,0,0,0,0,0,0,0,0,0,-1,1301,1310,0,0
84,-286,0,0,0,0,0,0,0,0,0,-1,1308,1310,0,0
91,-286,0,0,0,0,0,0,0,0,0,-1,1315,1310,0,0
98,-286,0,0,0,0,0,0,0,0,0,-1,1322,1310,0,0
105,-286,0,0,0,0,0,0,0,0,0,-1,1329,1310,0,0
112,-286,0,0,0,0,0,0,0,0,0,-1,1336,1310,0,0
119,-286,0,0,0,0,0,0,0,0,0,-1,1343,1310,0,0
126,-286,0,0,0,0,0,0,0,0,0,-1,1350,1310,0,0
133,-286,0,0,0,0,0,0,0,0,0,-1,1357,1310,0,0
140,-286,0,0,0,0,0,0,0,0,0,-1,1364,1310,0,0
147,-286,0,0,0,0,0,0,0,0,0,-1,1371,1310,0,0
154,-286,0,0,0,0,0,0,0,0,0,-1,1378,1310,0,0
161,-286,0,0,0,0,0,0,0,0,0,-1,1385,1310,0,0
168,-286,0,0,0,0,0,0,0,0,0,-1,1392,1310,0,0
175,-286,0,0,0,0,0,0,0,0,0,-1,1399,1310,0,0
182,-286,0,0,0,0,0,0,0,0,0,-1,1406,1310,0,0
189,-286,0,0,0,0,0,0,0,0,0,-1,1413,1310,0,0
196,-286,0,0,0,0,0,0,0,0,0,-1,1420,1310,0,0
203,-286,0,0,0,0,0,0,0,0,0,-1,1427,1310,0,0
210,-286,0,0,0,0,0,0,0,0,0,-1,1434,1310,0,0
217,-286,0,0,0,0,0,0,0,0,0,-1,1441,1310,0,0
224,-286,0,0,0,0,0,0,0,0,0,-1,1448,1310,0,0
231,-286,0,0,0,0,0,0,0,0,0,-1,1455,1310,0,0
238,-286,0,0,0,0,0,0,0,0,0,-1,1462,1310,0,0
245,-286,0,0,0,0,0,0,0,0,0,-1,1469,1310,0,0
252,-286,0,0,0,0,0,0,0,0,0,-1,1476,1310,0,0
259,-286,0,0,0,0,0,0,0,0,0,-1,1483,1310,0,0
266,-286,0,0,0,0,0,0,0,0,0,-1,1490,1310,0,0
273,-286,0,0,0,0,0,0,0,0,0,-1,1497,1310,0,0
280,-286,0,0,0,0,0,0,0,0,0,-1,1504,1310,0,0
287,-286,0,0,0,0,0,0,0,0,0,-1,1511,1310,0,0
294,-286,0,0,0,0,0,0,0,0,0,-1,1518,1310,0,0
301,-286,0,0,0,0,0,0,0,0,0,-1,1525,1310,0,0
308,-286,0,0,0,0,0,0,0,0,0,-1,1532,1310,0,0
315,-286,0,0,0,0,0,0,0,0,0,-1,1539,1310,0,0
322,-286,0,0,0,0,0,0,0,0,0,-1,1546,1310,0,0
329,-286,0,0,0,0,0,0,0,0,0,-1,1553,1310,0,0
336,-286,0,0,0,0,0,0,0,0,0,-1,1560,1310,0,0
343,-286,0,0,0,0,0,0,0,0,0,-1,1567,1310,0,0
350,-286,0,0,0,0,0,0,0,0,0,-1,1574,1310,0,0
357,-286,0,0,0,0,0,0,0,0,0,-1,1581,1310,0,0
364,-286,0,0,0,0,0,0,0,0,0,-1,1588,1310,0,0
371,-286,0,0,0,0,0,0,0,0,0,-1,1595,1310,0,0
378,-286,0,0,0,0,0,0,0,0,0,-1,1602,1310,0,0
385,-286,0,0,0,0,0,0,0,0,0,-1,1609,1310,0,0
392,-286,0,0,0,0,0,0,0,0,0,-1,1616,1310,0,0
399,-286,0,0,0,0,0,0,0,0,0,-1,1623,1310,0,0
406,-286,0,0,0,0,0,0,0,0,0,-1,1630,1310,0,0
413,-286,0,0,0,0,0,0,0,0,0,-1,1637,1310,0,0
420,-286,0,0,0,0,0,0,0,0,0,-1,1644,1310,0,0
427,-286,0,0,0,0,0,0,0,0,0,-1,1651,1310,0,0
434,-286,0,0,0,0,0,0,0,0,0,-1,1658,1310,0,0
441,-286,0,0,0,0,0,0,0,0,0,-1,1665,1310,0,0
448,-286,0,0,0,0,0,0,0,0,0,-1,1672,1310,0,0
455,-286,0,0,0,0,0,0,0,0,0,-1,1679,1310,0,0
462,-286,0,0,0,0,0,0,0,0,0,-1,1686,1310,0,0
469,-286,0,0,0,0,0,0,0,0,0,-1,1693,1310,0,0
476,-286,0,0,0,0,0,0,0,0,0,-1,1700,1310,0,0
483,-286,0,0,0,0,0,0,0,0,0,-1,1707,1310,0,0
490,-286,0,0,0,0,0,0,0,0,0,-1,1714,1310,0,0
497,-286,0,0,0,0,0,0,0,0,0,-1,1721,1310,0,0
504,-286,0,0,0,0,0,0,0,0,0,-1,1728,1310,0,0
511,-286,0,0,0,0,0,0,0,0,0,-1,1735,1310,0,0
518,-286,0,0,0,0,0,0,0,0,0,-1,1742,1310,0,0
525,-286,0,0,0,0,0,0,0,0,0,-1,1749,1310,0,0
532,-286,0,0,0,0,0,0,0,0,0,-1,1756,1310,0,0
539,-286,0,0,0,0,0,0,0,0,0,-1,1763,1310,0,0
546,-286,0,0,0,0,0,0,0,0,0,-1,1770,1310,0,0
553,-286,0,0,0,0,0,0,0,0,0,-1,1777,1310,0,0
560,-286,0,0,0,0,0,0,0,0,0,-1,1784,1310,0,0
567,-286,0,0,0,0,0,0,0,0,0,-1,1791,1310,0,0
574,-286,0,0,0,0,0,0,0,0,0,-1,1798,1310,0,0
581,-286,0,0,0,0,0,0,0,0,0,-1,1805,1310,0,0
588,-286,0,0,0,0,0,0,0,0,0,-1,1812,1310,0,0
595,-286,80.5507,2.11548,0,0,0,0,0,0,0,-1,1819,1310,80.5507,-2.11547
602,-286,80.5229,1.80103,0,0,0,0,0,0,0,-1,1826,1310,80.5229,-1.80105
609,-286,80.4288,1.42419,0,0,0,0,0,0,0,-1,1833,1310,80.4288,-1.42425
616,-286,79.3413,0.55127,0,0,0,0,0,0,0,-1,1840,1310,79.3414,-0.551246
623,-286,78.8824,0.0750732,0,0,0,0,0,0,0,-1,1847,1310,78.8825,-0.0750347
630,-286,73.3732,1.46594,0,0,0,0,0,0,0,-1,1854,1310,73.3731,-1.46595
637,-286,47.8409,3.69824,0,0,0,0,0,0,0,-1,1861,1310,47.841,-3.69823
644,-286,25.6433,1.33862,0,0,0,0,0,0,0,-1,1868,1310,25.6433,-1.33858
651,-286,25.2507,1.88245,0,0,0,0,0,0,0,-1,1875,1310,25.2508,-1.88245
658,-286,25.9475,9.43689,0,0,0,0,0,0,0,-1,1882,1310,25.9475,-9.43693
665,-286,24.9838,8.03101,0,0,0,0,0,0,0,-1,1889,1310,24.9837,-8.03104
672,-286,40.2175,12.9626,0,0,0,0,0,0,0,-1,1896,1310,40.2175,-12.9627
679,-286,54.5038,16.8364,0,0,0,0,0,0,0,-1,1903,1310,54.5038,-16.8364
686,-286,54.5123,16.0233,0.00104898,7.02374e-05,-0.0011945,0.00185047,-0.000731253,-0.590984,0.00153654,0.0239989,1910,1310,54.5123,-16.0233
693,-286,54.4655,15.1997,0.0011558,-1.82234e-05,-0.00050102,0.00134054,-0.000202966,-0.353265,0.000968463,0.017747,1917,1310,54.4655,-15.1997
700,-286,54.4146,14.3307,0.000853553,-0.000147656,1.03091e-05,0.00085366,-0.000147762,0.0102952,0.000624218,0.0129824,1924,1310,54.4145,-14.3307
707,-286,54.3621,13.5072,0.000226635,-0.000519574,0.000490371,0.000469705,-0.000762644,0.46019,0.000718166,0.00951944,1931,1310,54.3621,-13.5072
714,-286,54.3153,12.692,-0.000510989,-0.00105662,0.000950335,0.000204914,-0.00177252,0.64562,0.00125557,0.00995799,1938,1310,54.3153,-12.692
721,-286,54.3123,11.8756,-0.00137088,-0.00179438,0.00138253,-0.000183983,-0.00298128,0.709409,0.00192912,0.0135107,1945,1310,54.3123,-11.8756
728,-286,54.2568,11.0603,-0.00239414,-0.0027891,0.00177462,-0.000806049,-0.0043772,0.729986,0.00269001,0.0176527,1952,1310,54.2568,-11.0603
735,-286,54.2239,10.2317,-0.00363667,-0.00412245,0.00212847,-0.00173728,-0.00602184,0.728586,0.0035789,0.0211508,1959,1310,54.2239,-10.2317
742,-286,54.1887,9.42688,-0.00509176,-0.00601159,0.00239445,-0.00311346,-0.00798989,0.690515,0.00465025,0.0370285,1966,1310,54.1887,-9.42687
749,-286,54.2345,8.60303,0,0,0,0,0,0,0,-1,1973,1310,54.2345,-8.60308
756,-286,24.8226,4.43481,0,0,0,0,0,0,0,-1,1980,1310,24.8227,-4.43479
763,-286,20.6671,3.99683,0,0,0,0,0,0,0,-1,1987,1310,20.6671,-3.99683
770,-286,23.9147,4.45679,0,0,0,0,0,0,0,-1,1994,1310,23.9146,-4.45675
777,-286,0,0,0,0,0,0,0,0,0,-1,2001,1310,0,0
784,-286,0,0,0,0,0,0,0,0,0,-1,2008,1310,0,0
791,-286,0,0,0,0,0,0,0,0,0,-1,2015,1310,0,0
798,-286,0,0,0,0,0,0,0,0,0,-1,2022,1310,0,0
805,-286,0,0,0,0,0,0,0,0,0,-1,2029,1310,0,0
812,-286,0,0,0,0,0,0,0,0,0,-1,2036,1310,0,0
-700,-293,0,0,0,0,0,0,0,0,0,-1,524,1317,0,0
-693,-293,0,0,0,0,0,0,0,0,0,-1,531,1317,0,0
-686,-293,0,0,0,0,0,0,0,0,0,-1,538,1317,0,0
-679,-293,0,0,0,0,0,0,0,0,0,-1,545,1317,0,0
-672,-293,0,0,0,0,0,0,0,0,0,-1,552,1317,0,0
-665,-293,0,0,0,0,0,0,0,0,0,-1,559,1317,0,0
-658,-293,0,0,0,0,0,0,0,0,0,-1,566,1317,0,0
-651,-293,-42.6636,2.1897,0,0,0,0,0,0,0,-1,573,1317,-42.6636,-2.18965
-644,-293,-42.6672,1.56262,0,0,0,0,0,0,0,-1,580,1317,-42.6672,-1.5626
-637,-293,-42.7898,0.963745,0,0,0,0,0,0,0,-1,587,1317,-42.7898,-0.963689
-630,-293,-42.7558,0.296021,0,0,0,0,0,0,0,-1,594,1317,-42.7558,-0.295997
-623,-293,-15.6058,0.229614,0,0,0,0,0,0,0,-1,601,1317,-15.6058,-0.229666
-616,-293,-15.5056,2.17737,0,0,0,0,0,0,0,-1,608,1317,-15.5055,-2.17742
-609,-293,-25.3796,5.07373,0,0,0,0,0,0,0,-1,615,1317,-25.3796,-5.07369
-602,-293,-36.4133,9.79956,0,0,0,0,0,0,0,-1,622,1317,-36.4132,-9.79956
-595,-293,-36.4454,10.8184,0.00451012,0.00293635,0.00201975,0.00589086,0.00155562,0.599647,0.00352503,0.0236907,629,1317,-36.4454,-10.8184
-588,-293,-36.4649,11.6833,0.00309658,0.00197276,0.00126315,0.00391717,0.00115217,0.576117,0.0023246,0.0183961,636,1317,-36.4649,-11.6833
-581,-293,-36.4443,12.5369,0.00214018,0.00110086,0.000702207,0.0024941,0.000746942,0.46685,0.00147807,0.0194327,643,1317,-36.4443,-12.5369
-574,-293,-36.478,13.4299,0.00147472,0.000266304,0.000233604,0.0015183,0.000222717,0.184464,0.000946736,0.0168019,650,1317,-36.478,-13.4299
-567,-293,-36.5569,14.2914,0.00110735,-0.000489518,-0.000111142,0.00111505,-0.000497216,-0.0691552,0.000953354,0.0167121,657,1317,-36.5569,-14.2913
-560,-293,-36.5987,15.1617,0.00110427,-0.0011966,-0.000304424,0.00114386,-0.0012362,-0.129344,0.00137447,0.0177306,664,1317,-36.5987,-15.1618
-553,-293,-36.6183,16.001,0.00151129,-0.0018192,-0.000317458,0.00154128,-0.00184919,-0.0941884,0.00196018,0.0119832,671,1317,-36.6183,-16.001
-546,-293,-36.6188,16.8934,0.00225832,-0.00223404,-3.37477e-05,0.00225858,-0.00223429,-0.00751168,0.00259397,0.0244454,678,1317,-36.6188,-16.8934
-539,-293,-36.5859,17.7939,0,0,0,0,0,0,0,-1,685,1317,-36.5859,-17.794
-532,-293,-27.4858,13.6715,0,0,0,0,0,0,0,-1,692,1317,-27.4858,-13.6715
-525,-293,-8.20642,3.62256,0,0,0,0,0,0,0,-1,699,1317,-8.20639,-3.6226
-518,-293,-10.1053,0.314209,0,0,0,0,0,0,0,-1,706,1317,-10.1053,-0.314234
-511,-293,-11.6276,0.235352,0,0,0,0,0,0,0,-1,713,1317,-11.6276,-0.235372
-504,-293,-17.9086,1.25427,0,0,0,0,0,0,0,-1,720,1317,-17.9086,-1.25423
-497,-293,-18.8006,1.62122,0,0,0,0,0,0,0,-1,727,1317,-18.8006,-1.62119
-490,-293,-18.8961,1.99255,0,0,0,0,0,0,0,-1,734,1317,-18.8961,-1.99251
-483,-293,-19.0831,2.35498,0,0,0,0,0,0,0,-1,741,1317,-19.0831,-2.35497
-476,-293,-19.5228,2.61243,0,0,0,0,0,0,0,-1,748,1317,-19.5228,-2.61237
-469,-293,0,0,0,0,0,0,0,0,0,-1,755,1317,0,0
-462,-293,0,0,0,0,0,0,0,0,0,-1,762,1317,0,0
-455,-293,0,0,0,0,0,0,0,0,0,-1,769,1317,0,0
-448,-293,0,0,0,0,0,0,0,0,0,-1,776,1317,0,0
-441,-293,0,0,0,0,0,0,0,0,0,-1,783,1317,0,0
-434,-293,0,0,0,0,0,0,0,0,0,-1,790,1317,0,0
-427,-293,0,0,0,0,0,0,0,0,0,-1,797,1317,0,0
-420,-293,0,0,0,0,0,0,0,0,0,-1,804,1317,0,0
-413,-293,0,0,0,0,0,0,0,0,0,-1,811,1317,0,0
-406,-293,0,0,0,0,0,0,0,0,0,-1,818,1317,0,0
-399,-293,0,0,0,0,0,0,0,0,0,-1,825,1317,0,0
-392,-293,0,0,0,0,0,0,0,0,0,-1,832,1317,0,0
-385,-293,0,0,0,0,0,0,0,0,0,-1,839,1317,0,0
-378,-293,0,0,0,0,0,0,0,0,0,-1,846,1317,0,0
-371,-293,0,0,0,0,0,0,0,0,0,-1,853,1317,0,0
-364,-293,0,0,0,0,0,0,0,0,0,-1,860,1317,0,0
-357,-293,0,0,0,0,0,0,0,0,0,-1,867,1317,0,0
-350,-293,0,0,0,0,0,0,0,0,0,-1,874,1317,0,0
-343,-293,0,0,0,0,0,0,0,0,0,-1,881,1317,0,0
-336,-293,0,0,0,0,0,0,0,0,0,-1,888,1317,0,0
-329,-293,0,0,0,0,0,0,0,0,0,-1,895,1317,0,0
-322,-293,0,0,0,0,0,0,0,0,0,-1,902,1317,0,0
-315,-293,0,0,0,0,0,0,0,0,0,-1,909,1317,0,0
-308,-293,0,0,0,0,0,0,0,0,0,-1,916,1317,0,0
-301,-293,0,0,0,0,0,0,0,0,0,-1,923,1317,0,0
-294,-293,0,0,0,0,0,0,0,0,0,-1,930,1317,0,0
-287,-293,0,0,0,0,0,0,0,0,0,-1,937,1317,0,0
-280,-293,0,0,0,0,0,0,0,0,0,-1,944,1317,0,0
-273,-293,0,0,0,0,0,0,0,0,0,-1,951,1317,0,0
-266,-293,0,0,0,0,0,0,0,0,0,-1,958,1317,0,0
-259,-293,0,0,0,0,0,0,0,0,0,-1,965,1317,0,0
-252,-293,0,0,0,0,0,0,0,0,0,-1,972,1317,0,0
-245,-293,0,0,0,0,0,0,0,0,0,-1,979,1317,0,0
-238,-293,0,0,0,0,0,0,0,0,0,-1,986,1317,0,0
-231,-293,0,0,0,0,0,0,0,0,0,-1,993,1317,0,0
-224,-293,0,0,0,0,0,0,0,0,0,-1,1000,1317,0,0
-217,-293,0,0,0,0,0,0,0,0,0,-1,1007,1317,0,0
-210,-293,0,0,0,0,0,0,0,0,0,-1,1014,1317,0,0
-203,-293,0,0,0,0,0,0,0,0,0,-1,1021,1317,0,0
-196,-293,0,0,0,0,0,0,0,0,0,-1,1028,1317,0,0
-189,-293,0,0,0,0,0,0,0,0,0,-1,1035,1317,0,0
-182,-293,0,0,0,0,0,0,0,0,0,-1,1042,1317,0,0
-175,-293,0,0,0,0,0,0,0,0,0,-1,1049,1317,0,0
-168,-293,0,0,0,0,0,0,0,0,0,-1,1056,1317,0,0
-161,-293,0,0,0,0,0,0,0,0,0,-1,1063,1317,0,0
-154,-293,0,0,0,0,0,0,0,0,0,-1,1070,1317,0,0
-147,-293,0,0,0,0,0,0,0,0,0,-1,1077,1317,0,0
-140,-293,0,0,0,0,0,0,0,0,0,-1,1084,1317,0,0
-133,-293,0,0,0,0,0,0,0,0,0,-1,1091,1317,0,0
-126,-293,0,0,0,0,0,0,0,0,0,-1,1098,1317,0,0
-119,-293,0,0,0,0,0,0,0,0,0,-1,1105,1317,0,0
-112,-293,0,0,0,0,0,0,0,0,0,-1,1112,1317,0,0
-105,-293,0,0,0,0,0,0,0,0,0,-1,1119,1317,0,0
-98,-293,0,0,0,0,0,0,0,0,0,-1,1126,1317,0,0
-91,-293,0,0,0,0,0,0,0,0,0,-1,1133,1317,0,0
-84,-293,0,0,0,0,0,0,0,0,0,-1,1140,1317,0,0
-77,-293,0,0,0,0,0,0,0,0,0,-1,1147,1317,0,0
-70,-293,0,0,0,0,0,0,0,0,0,-1,1154,1317,0,0
-63,-293,0,0,0,0,0,0,0,0,0,-1,1161,1317,0,0
-56,-293,0,0,0,0,0,0,0,0,0,-1,1168,1317,0,0
-49,-293,0,0,0,0,0,0,0,0,0,-1,1175,1317,0,0
-42,-293,0,0,0,0,0,0,0,0,0,-1,1182,1317,0,0
-35,-293,0,0,0,0,0,0,0,0,0,-1,1189,1317,0,0
-28,-293,0,0,0,0,0,0,0,0,0,-1,1196,1317,0,0
-21,-293,0,0,0,0,0,0,0,0,0,-1,1203,1317,0,0
-14,-293,0,0,0,0,0,0,0,0,0,-1,1210,1317,0,0
-7,-293,0,0,0,0,0,0,0,0,0,-1,1217,1317,0,0
0,-293,0,0,0,0,0,0,0,0,0,-1,1224,1317,0,0
7,-293,0,0,0,0,0,0,0,0,0,-1,1231,1317,0,0
14,-293,0,0,0,0,0,0,0,0,0,-1,1238,1317,0,0
21,-293,0,0,0,0,0,0,0,0,0,-1,1245,1317,0,0
28,-293,0,0,0,0,0,0,0,0,0,-1,1252,1317,0,0
35,-293,0,0,0,0,0,0,0,0,0,-1,1259,1317,0,0
42,-293,0,0,0,0,0,0,0,0,0,-1,1266,1317,0,0
49,-293,0,0,0,0,0,0,0,0,0,-1,1273,1317,0,0
56,-293,0,0,0,0,0,0,0,0,0,-1,1280,1317,0,0
63,-293,0,0,0,0,0,0,0,0,0,-1,1287,1317,0,0
70,-293,0,0,0,0,0,0,0,0,0,-1,1294,1317,0,0
77,-293,0,0,0,0,0,0,0,0,0,-1,1301,1317,0,0
84,-293,0,0,0,0,0,0,0,0,0,-1,1308,1317,0,0
91,-293,0,0,0,0,0,0,0,0,0,-1,1315,1317,0,0
98,-293,0,0,0,0,0,0,0,0,0,-1,1322,1317,0,0
105,-293,0,0,0,0,0,0,0,0,0,-1,1329,1317,0,0
112,-293,0,0,0,0,0,0,0,0,0,-1,1336,1317,0,0
119,-293,0,0,0,0,0,0,0,0,0,-1,1343,1317,0,0
126,-293,0,0,0,0,0,0,0,0,0,-1,1350,1317,0,0
133,-293,0,0,0,0,0,0,0,0,0,-1,1357,1317,0,0
140,-293,0,0,0,0,0,0,0,0,0,-1,1364,1317,0,0
147,-293,0,0,0,0,0,0,0,0,0,-1,1371,1317,0,0
154,-293,0,0,0,0,0,0,0,0,0,-1,1378,1317,0,0
161,-293,0,0,0,0,0,0,0,0,0,-1,1385,1317,0,0
168,-293,0,0,0,0,0,0,0,0,0,-1,1392,1317,0,0
175,-293,0,0,0,0,0,0,0,0,0,-1,1399,1317,0,0
182,-293,0,0,0,0,0,0,0,0,0,-1,1406,1317,0,0
189,-293,0,0,0,0,0,0,0,0,0,-1,1413,1317,0,0
196,-293,0,0,0,0,0,0,0,0,0,-1,1420,1317,0,0
203,-293,0,0,0,0,0,0,0,0,0,-1,1427,1317,0,0
210,-293,0,0,0,0,0,0,0,0,0,-1,1434,1317,0,0
217,-293,0,0,0,0,0,0,0,0,0,-1,1441,1317,0,0
224,-293,0,0,0,0,0,0,0,0,0,-1,1448,1317,0,0
231,-293,0,0,0,0,0,0,0,0,0,-1,1455,1317,0,0
238,-293,0,0,0,0,0,0,0,0,0,-1,1462,1317,0,0
245,-293,0,0,0,0,0,0,0,0,0,-1,1469,1317,0,0
252,-293,0,0,0,0,0,0,0,0,0,-1,1476,1317,0,0
259,-293,0,0,0,0,0,0,0,0,0,-1,1483,1317,0,0
266,-293,0,0,0,0,0,0,0,0,0,-1,1490,1317,0,0
273,-293,0,0,0,0,0,0,0,0,0,-1,1497,1317,0,0
280,-293,0,0,0,0,0,0,0,0,0,-1,1504,1317,0,0
287,-293,0,0,0,0,0,0,0,0,0,-1,1511,1317,0,0
294,-293,0,0,0,0,0,0,0,0,0,-1,1518,1317,0,0
301,-293,0,0,0,0,0,0,0,0,0,-1,1525,1317,0,0
308,-293,0,0,0,0,0,0,0,0,0,-1,1532,1317,0,0
315,-293,0,0,0,0,0,0,0,0,0,-1,1539,1317,0,0
322,-293,0,0,0,0,0,0,0,0,0,-1,1546,1317,0,0
329,-293,0,0,0,0,0,0,0,0,0,-1,1553,1317,0,0
336,-293,0,0,0,0,0,0,0,0,0,-1,1560,1317,0,0
343,-293,0,0,0,0,0,0,0,0,0,-1,1567,1317,0,0
350,-293,0,0,0,0,0,0,0,0,0,-1,1574,1317,0,0
357,-293,0,0,0,0,0,0,0,0,0,-1,1581,1317,0,0
364,-293,0,0,0,0,0,0,0,0,0,-1,1588,1317,0,0
371,-293,0,0,0,0,0,0,0,0,0,-1,1595,1317,0,0
378,-293,0,0,0,0,0,0,0,0,0,-1,1602,1317,0,0
385,-293,0,0,0,0,0,0,0,0,0,-1,1609,1317,0,0
392,-293,0,0,0,0,0,0,0,0,0,-1,1616,1317,0,0
399,-293,0,0,0,0,0,0,0,0,0,-1,1623,1317,0,0
406,-293,0,0,0,0,0,0,0,0,0,-1,1630,1317,0,0
413,-293,0,0,0,0,0,0,0,0,0,-1,1637,1317,0,0
420,-293,0,0,0,0,0,0,0,0,0,-1,1644,1317,0,0
427,-293,0,0,0,0,0,0,0,0,0,-1,1651,1317,0,0
434,-293,0,0,0,0,0,0,0,0,0,-1,1658,1317,0,0
441,-293,0,0,0,0,0,0,0,0,0,-1,1665,1317,0,0
448,-293,0,0,0,0,0,0,0,0,0,-1,1672,1317,0,0
455,-293,0,0,0,0,0,0,0,0,0,-1,1679,1317,0,0
462,-293,0,0,0,0,0,0,0,0,0,-1,1686,1317,0,0
469,-293,0,0,0,0,0,0,0,0,0,-1,1693,1317,0,0
476,-293,0,0,0,0,0,0,0,0,0,-1,1700,1317,0,0
483,-293,0,0,0,0,0,0,0,0,0,-1,1707,1317,0,0
490,-293,0,0,0,0,0,0,0,0,0,-1,1714,1317,0,0
497,-293,0,0,0,0,0,0,0,0,0,-1,1721,1317,0,0
504,-293,0,0,0,0,0,0,0,0,0,-1,1728,1317,0,0
511,-293,0,0,0,0,0,0,0,0,0,-1,1735,1317,0,0
518,-293,0,0,0,0,0,0,0,0,0,-1,1742,1317,0,0
525,-293,0,0,0,0,0,0,0,0,0,-1,1749,1317,0,0
532,-293,0,0,0,0,0,0,0,0,0,-1,1756,1317,0,0
539,-293,0,0,0,0,0,0,0,0,0,-1,1763,1317,0,0
546,-293,0,0,0,0,0,0,0,0,0,-1,1770,1317,0,0
553,-293,0,0,0,0,0,0,0,0,0,-1,1777,1317,0,0
560,-293,0,0,0,0,0,0,0,0,0,-1,1784,1317,0,0
567,-293,0,0,0,0,0,0,0,0,0,-1,1791,1317,0,0
574,-293,0,0,0,0,0,0,0,0,0,-1,1798,1317,0,0
581,-293,0,0,0,0,0,0,0,0,0,-1,1805,1317,0,0
588,-293,0,0,0,0,0,0,0,0,0,-1,1812,1317,0,0
595,-293,80.6711,1.9248,0,0,0,0,0,0,0,-1,1819,1317,80.6711,-1.92484
602,-293,80.6615,1.63855,0,0,0,0,0,0,0,-1,1826,1317,80.6615,-1.63851
609,-293,79.9369,0.984985,0,0,0,0,0,0,0,-1,1833,1317,79.9368,-0.985044
616,-293,79.1183,0.0614014,0,0,0,0,0,0,0,-1,1840,1317,79.1183,-0.061374
623,-293,64.6224,0.448364,0,0,0,0,0,0,0,-1,1847,1317,64.6224,-0.448318
630,-293,46.6716,3.21558,0,0,0,0,0,0,0,-1,1854,1317,46.6716,-3.2156
637,-293,42.7729,4.95544,0,0,0,0,0,0,0,-1,1861,1317,42.773,-4.95546
644,-293,24.4565,0.520752,0,0,0,0,0,0,0,-1,1868,1317,24.4566,-0.520709
651,-293,25.8926,9.51245,0,0,0,0,0,0,0,-1,1875,1317,25.8926,-9.51246
658,-293,25.4904,9.10205,0,0,0,0,0,0,0,-1,1882,1317,25.4904,-9.10209
665,-293,39.7999,13.4221,0,0,0,0,0,0,0,-1,1889,1317,39.8,-13.4221
672,-293,53.7411,17.7279,0,0,0,0,0,0,0,-1,1896,1317,53.7411,-17.7279
679,-293,53.7172,16.9042,0.000396903,0.00154985,-0.00038985,0.0016693,0.000277457,-1.27349,0.00103288,0.0255726,1903,1317,53.7172,-16.9042
686,-293,53.6901,16.089,0.00150557,0.000163365,-0.00122011,0.00222697,-0.00055803,-0.533963,0.00170144,0.0183985,1910,1317,53.69,-16.089
693,-293,53.6439,15.2372,0.00135311,2.79196e-05,-0.000556012,0.00155549,-0.00017446,-0.349078,0.00109977,0.0137388,1917,1317,53.6439,-15.2371
700,-293,53.5808,14.3696,0.000931441,-0.000200996,-2.69451e-05,0.000932082,-0.000201637,-0.023776,0.000698372,0.0114369,1924,1317,53.5808,-14.3696
707,-293,53.5328,13.5607,0.000319881,-0.000619373,0.000494765,0.000532414,-0.000831906,0.405729,0.000793991,0.0110938,1931,1317,53.5328,-13.5607
714,-293,53.4839,12.7528,-0.000406589,-0.00120303,0.000999745,0.000271328,-0.00188094,0.595869,0.0013535,0.00806049,1938,1317,53.4839,-12.7529
721,-293,53.4497,11.9111,-0.00126389,-0.00198911,0.00147047,-0.00011198,-0.00314101,0.664513,0.0020577,0.0105071,1945,1317,53.4497,-11.9112
728,-293,53.4211,11.0643,-0.00231168,-0.00304787,0.001891,-0.000753278,-0.00460626,0.689272,0.00285309,0.0143426,1952,1317,53.4211,-11.0643
735,-293,53.387,10.1926,-0.00361204,-0.00448547,0.00225849,-0.00174843,-0.00634908,0.689894,0.00378693,0.0245746,1959,1317,53.3869,-10.1926
742,-293,53.4307,9.3042,0,0,0,0,0,0,0,-1,1966,1317,53.4307,-9.30426
749,-293,53.1185,8.14404,0,0,0,0,0,0,0,-1,1973,1317,53.1186,-8.14408
756,-293,24.978,3.9718,0,0,0,0,0,0,0,-1,1980,1317,24.978,-3.97186
763,-293,26.6713,4.74097,0,0,0,0,0,0,0,-1,1987,1317,26.6713,-4.74098
770,-293,24.1349,4.69153,0,0,0,0,0,0,0,-1,1994,1317,24.1348,-4.69159
777,-293,0,0,0,0,0,0,0,0,0,-1,2001,1317,0,0
784,-293,0,0,0,0,0,0,0,0,0,-1,2008,1317,0,0
791,-293,0,0,0,0,0,0,0,0,0,-1,2015,1317,0,0
798,-293,0,0,0,0,0,0,0,0,0,-1,2022,1317,0,0
805,-293,0,0,0,0,0,0,0,0,0,-1,2029,1317,0,0
812,-293,0,0,0,0,0,0,0,0,0,-1,2036,1317,0,0
-700,-300,0,0,0,0,0,0,0,0,0,-1,524,1324,0,0
-693,-300,0,0,0,0,0,0,0,0,0,-1,531,1324,0,0
-686,-300,0,0,0,0,0,0,0,0,0,-1,538,1324,0,0
-679,-300,0,0,0,0,0,0,0,0,0,-1,545,1324,0,0
-672,-300,0,0,0,0,0,0,0,0,0,-1,552,1324,0,0
-665,-300,0,0,0,0,0,0,0,0,0,-1,559,1324,0,0
-658,-300,0,0,0,0,0,0,0,0,0,-1,566,1324,0,0
-651,-300,-41.7632,2.33789,0,0,0,0,0,0,0,-1,573,1324,-41.7632,-2.33789
-644,-300,-42.3084,1.3728,0,0,0,0,0,0,0,-1,580,1324,-42.3084,-1.37282
-637,-300,-42.6259,0.807251,0,0,0,0,0,0,0,-1,587,1324,-42.6259,-0.807209
-630,-300,-21.1108,2.26306,0,0,0,0,0,0,0,-1,594,1324,-21.1109,-2.2631
-623,-300,-12.7067,1.48462,0,0,0,0,0,0,0,-1,601,1324,-12.7067,-1.48462
-616,-300,-14.9988,1.68628,0,0,0,0,0,0,0,-1,608,1324,-14.9988,-1.68627
-609,-300,-15.5027,3.29907,0,0,0,0,0,0,0,-1,615,1324,-15.5027,-3.29902
-602,-300,-35.623,9.73779,0,0,0,0,0,0,0,-1,622,1324,-35.623,-9.73785
-595,-300,-35.6392,10.8225,0.00501685,0.00372582,0.00264883,0.00709768,0.00164499,0.665879,0.00428991,0.0418416,629,1324,-35.6392,-10.8225
-588,-300,-35.5524,11.7367,0.00353827,0.00266634,0.00174867,0.0049045,0.00130011,0.663231,0.00293394,0.0213129,636,1324,-35.5524,-11.7367
-581,-300,-35.6008,12.6125,0.00266287,0.00182024,0.00115359,0.00346967,0.00101344,0.610314,0.00206014,0.0205445,643,1324,-35.6007,-12.6126
-574,-300,-35.6219,13.4988,0.00209785,0.00103923,0.000687222,0.00243598,0.000701104,0.45724,0.00144801,0.0165494,650,1324,-35.622,-13.4988
-567,-300,-35.6746,14.33,0.00185336,0.000356652,0.000377317,0.0019431,0.000266913,0.233498,0.00121623,0.0182178,657,1324,-35.6745,-14.33
-560,-300,-35.7415,15.2067,0.00194152,-0.000257947,0.000228271,0.00196496,-0.000281388,0.102332,0.00141314,0.0169453,664,1324,-35.7414,-15.2067
-553,-300,-35.7587,16.0614,0.00242184,-0.000757412,0.000285819,0.00244733,-0.000782903,0.0889508,0.00194575,0.0115531,671,1324,-35.7587,-16.0614
-546,-300,-35.8223,16.921,0.00322994,-0.00112099,0.000605895,0.00331273,-0.00120379,0.135815,0.00270071,0.0127432,678,1324,-35.8223,-16.921
-539,-300,-35.697,17.8983,0.00465083,-0.0013399,0.00132212,0.00492964,-0.00161871,0.207835,0.00393848,0.0332286,685,1324,-35.697,-17.8983
-532,-300,-35.4897,18.8801,0,0,0,0,0,0,0,-1,692,1324,-35.4898,-18.8801
-525,-300,-13.5115,6.27783,0,0,0,0,0,0,0,-1,699,1324,-13.5115,-6.2778
-518,-300,-9.8349,-0.537109,0,0,0,0,0,0,0,-1,706,1324,-9.83487,0.537068
-511,-300,-12.8644,0.081665,0,0,0,0,0,0,0,-1,713,1324,-12.8644,-0.0817016
-504,-300,-13.4829,-0.165527,0,0,0,0,0,0,0,-1,720,1324,-13.4829,0.165544
-497,-300,-18.1063,0.956543,0,0,0,0,0,0,0,-1,727,1324,-18.1063,-0.9565
-490,-300,-18.2293,1.53625,0,0,0,0,0,0,0,-1,734,1324,-18.2293,-1.53626
-483,-300,-18.3522,1.61084,0,0,0,0,0,0,0,-1,741,1324,-18.3522,-1.6108
-476,-300,-18.7489,1.96387,0,0,0,0,0,0,0,-1,748,1324,-18.7489,-1.96387
-469,-300,0,0,0,0,0,0,0,0,0,-1,755,1324,0,0
-462,-300,0,0,0,0,0,0,0,0,0,-1,762,1324,0,0
-455,-300,0,0,0,0,0,0,0,0,0,-1,769,1324,0,0
-448,-300,0,0,0,0,0,0,0,0,0,-1,776,1324,0,0
-441,-300,0,0,0,0,0,0,0,0,0,-1,783,1324,0,0
-434,-300,0,0,0,0,0,0,0,0,0,-1,790,1324,0,0
-427,-300,0,0,0,0,0,0,0,0,0,-1,797,1324,0,0
-420,-300,0,0,0,0,0,0,0,0,0,-1,804,1324,0,0
-413,-300,0,0,0,0,0,0,0,0,0,-1,811,1324,0,0
-406,-300,0,0,0,0,0,0,0,0,0,-1,818,1324,0,0
-399,-300,0,0,0,0,0,0,0,0,0,-1,825,1324,0,0
-392,-300,0,0,0,0,0,0,0,0,0,-1,832,1324,0,0
-385,-300,0,0,0,0,0,0,0,0,0,-1,839,1324,0,0
-378,-300,0,0,0,0,0,0,0,0,0,-1,846,1324,0,0
-371,-300,0,0,0,0,0,0,0,0,0,-1,853,1324,0,0
-364,-300,0,0,0,0,0,0,0,0,0,-1,860,1324,0,0
-357,-300,0,0,0,0,0,0,0,0,0,-1,867,1324,0,0
-350,-300,0,0,0,0,0,0,0,0,0,-1,874,1324,0,0
-343,-300,0,0,0,0,0,0,0,0,0,-1,881,1324,0,0
-336,-300,0,0,0,0,0,0,0,0,0,-1,888,1324,0,0
-329,-300,0,0,0,0,0,0,0,0,0,-1,895,1324,0,0
-322,-300,0,0,0,0,0,0,0,0,0,-1,902,1324,0,0
-315,-300,0,0,0,0,0,0,0,0,0,-1,909,1324,0,0
-308,-300,0,0,0,0,0,0,0,0,0,-1,916,1324,0,0
-301,-300,0,0,0,0,0,0,0,0,0,-1,923,1324,0,0
-294,-300,0,0,0,0,0,0,0,0,0,-1,930,1324,0,0
-287,-300,0,0,0,0,0,0,0,0,0,-1,937,1324,0,0
-280,-300,0,0,0,0,0,0,0,0,0,-1,944,1324,0,0
-273,-300,0,0,0,0,0,0,0,0,0,-1,951,1324,0,0
-266,-300,0,0,0,0,0,0,0,0,0,-1,958,1324,0,0
-259,-300,0,0,0,0,0,0,0,0,0,-1,965,1324,0,0
-252,-300,0,0,0,0,0,0,0,0,0,-1,972,1324,0,0
-245,-300,0,0,0,0,0,0,0,0,0,-1,979,1324,0,0
-238,-300,0,0,0,0,0,0,0,0,0,-1,986,1324,0,0
-231,-300,0,0,0,0,0,0,0,0,0,-1,993,1324,0,0
-224,-300,0,0,0,0,0,0,0,0,0,-1,1000,1324,0,0
-217,-300,0,0,0,0,0,0,0,0,0,-1,1007,1324,0,0
-210,-300,0,0,0,0,0,0,0,0,0,-1,1014,1324,0,0
-203,-300,0,0,0,0,0,0,0,0,0,-1,1021,1324,0,0
-196,-300,0,0,0,0,0,0,0,0,0,-1,1028,1324,0,0
-189,-300,0,0,0,0,0,0,0,0,0,-1,1035,1324,0,0
-182,-300,0,0,0,0,0,0,0,0,0,-1,1042,1324,0,0
-175,-300,0,0,0,0,0,0,0,0,0,-1,1049,1324,0,0
-168,-300,0,0,0,0,0,0,0,0,0,-1,1056,1324,0,0
-161,-300,0,0,0,0,0,0,0,0,0,-1,1063,1324,0,0
-154,-300,0,0,0,0,0,0,0,0,0,-1,1070,1324,0,0
-147,-300,0,0,0,0,0,0,0,0,0,-1,1077,1324,0,0
-140,-300,0,0,0,0,0,0,0,0,0,-1,1084,1324,0,0
-133,-300,0,0,0,0,0,0,0,0,0,-1,1091,1324,0,0
-126,-300,0,0,0,0,0,0,0,0,0,-1,1098,1324,0,0
-119,-300,0,0,0,0,0,0,0,0,0,-1,1105,1324,0,0
-112,-300,0,0,0,0,0,0,0,0,0,-1,1112,1324,0,0
-105,-300,0,0,0,0,0,0,0,0,0,-1,1119,1324,0,0
-98,-300,0,0,0,0,0,0,0,0,0,-1,1126,1324,0,0
-91,-300,0,0,0,0,0,0,0,0,0,-1,1133,1324,0,0
-84,-300,0,0,0,0,0,0,0,0,0,-1,1140,1324,0,0
-77,-300,0,0,0,0,0,0,0,0,0,-1,1147,1324,0,0
-70,-300,0,0,0,0,0,0,0,0,0,-1,1154,1324,0,0
-63,-300,0,0,0,0,0,0,0,0,0,-1,1161,1324,0,0
-56,-300,0,0,0,0,0,0,0,0,0,-1,1168,1324,0,0
-49,-300,0,0,0,0,0,0,0,0,0,-1,1175,1324,0,0
-42,-300,0,0,0,0,0,0,0,0,0,-1,1182,1324,0,0
-35,-300,0,0,0,0,0,0,0,0,0,-1,1189,1324,0,0
-28,-300,0,0,0,0,0,0,0,0,0,-1,1196,1324,0,0
-21,-300,0,0,0,0,0,0,0,0,0,-1,1203,1324,0,0
-14,-300,0,0,0,0,0,0,0,0,0,-1,1210,1324,0,0
-7,-300,0,0,0,0,0,0,0,0,0,-1,1217,1324,0,0
0,-300,0,0,0,0,0,0,0,0,0,-1,1224,1324,0,0
7,-300,0,0,0,0,0,0,0,0,0,-1,1231,1324,0,0
14,-300,0,0,0,0,0,0,0,0,0,-1,1238,1324,0,0
21,-300,0,0,0,0,0,0,0,0,0,-1,1245,1324,0,0
28,-300,0,0,0,0,0,0,0,0,0,-1,1252,1324,0,0
35,-300,0,0,0,0,0,0,0,0,0,-1,1259,1324,0,0
42,-300,0,0,0,0,0,0,0,0,0,-1,1266,1324,0,0
49,-300,0,0,0,0,0,0,0,0,0,-1,1273,1324,0,0
56,-300,0,0,0,0,0,0,0,0,0,-1,1280,1324,0,0
63,-300,0,0,0,0,0,0,0,0,0,-1,1287,1324,0,0
70,-300,0,0,0,0,0,0,0,0,0,-1,1294,1324,0,0
77,-300,0,0,0,0,0,0,0,0,0,-1,1301,1324,0,0
84,-300,0,0,0,0,0,0,0,0,0,-1,1308,1324,0,0
91,-300,0,0,0,0,0,0,0,0,0,-1,1315,1324,0,0
98,-300,0,0,0,0,0,0,0,0,0,-1,1322,1324,0,0
105,-300,0,0,0,0,0,0,0,0,0,-1,1329,1324,0,0
112,-300,0,0,0,0,0,0,0,0,0,-1,1336,1324,0,0
119,-300,0,0,0,0,0,0,0,0,0,-1,1343,1324,0,0
126,-300,0,0,0,0,0,0,0,0,0,-1,1350,1324,0,0
133,-300,0,0,0,0,0,0,0,0,0,-1,1357,1324,0,0
140,-300,0,0,0,0,0,0,0,0,0,-1,1364,1324,0,0
147,-300,0,0,0,0,0,0,0,0,0,-1,1371,1324,0,0
154,-300,0,0,0,0,0,0,0,0,0,-1,1378,1324,0,0
161,-300,0,0,0,0,0,0,0,0,0,-1,1385,1324,0,0
168,-300,0,0,0,0,0,0,0,0,0,-1,1392,1324,0,0
175,-300,0,0,0,0,0,0,0,0,0,-1,1399,1324,0,0
182,-300,0,0,0,0,0,0,0,0,0,-1,1406,1324,0,0
189,-300,0,0,0,0,0,0,0,0,0,-1,1413,1324,0,0
196,-300,0,0,0,0,0,0,0,0,0,-1,1420,1324,0,0
203,-300,0,0,0,0,0,0,0,0,0,-1,1427,1324,0,0
210,-300,0,0,0,0,0,0,0,0,0,-1,1434,1324,0,0
217,-300,0,0,0,0,0,0,0,0,0,-1,1441,1324,0,0
224,-300,0,0,0,0,0,0,0,0,0,-1,1448,1324,0,0
231,-300,0,0,0,0,0,0,0,0,0,-1,1455,1324,0,0
238,-300,0,0,0,0,0,0,0,0,0,-1,1462,1324,0,0
245,-300,0,0,0,0,0,0,0,0,0,-1,1469,1324,0,0
252,-300,0,0,0,0,0,0,0,0,0,-1,1476,1324,0,0
259,-300,0,0,0,0,0,0,0,0,0,-1,1483,1324,0,0
266,-300,0,0,0,0,0,0,0,0,0,-1,1490,1324,0,0
273,-300,0,0,0,0,0,0,0,0,0,-1,1497,1324,0,0
280,-300,0,0,0,0,0,0,0,0,0,-1,1504,1324,0,0
287,-300,0,0,0,0,0,0,0,0,0,-1,1511,1324,0,0
294,-300,0,0,0,0,0,0,0,0,0,-1,1518,1324,0,0
301,-300,0,0,0,0,0,0,0,0,0,-1,1525,1324,0,0
308,-300,0,0,0,0,0,0,0,0,0,-1,1532,1324,0,0
315,-300,0,0,0,0,0,0,0,0,0,-1,1539,1324,0,0
322,-300,0,0,0,0,0,0,0,0,0,-1,1546,1324,0,0
329,-300,0,0,0,0,0,0,0,0,0,-1,1553,1324,0,0
336,-300,0,0,0,0,0,0,0,0,0,-1,1560,1324,0,0
343,-300,0,0,0,0,0,0,0,0,0,-1,1567,1324,0,0
350,-300,0,0,0,0,0,0,0,0,0,-1,1574,1324,0,0
357,-300,0,0,0,0,0,0,0,0,0,-1,1581,1324,0,0
364,-300,0,0,0,0,0,0,0,0,0,-1,1588,1324,0,0
371,-300,0,0,0,0,0,0,0,0,0,-1,1595,1324,0,0
378,-300,0,0,0,0,0,0,0,0,0,-1,1602,1324,0,0
385,-300,0,0,0,0,0,0,0,0,0,-1,1609,1324,0,0
392,-300,0,0,0,0,0,0,0,0,0,-1,1616,1324,0,0
399,-300,0,0,0,0,0,0,0,0,0,-1,1623,1324,0,0
406,-300,0,0,0,0,0,0,0,0,0,-1,1630,1324,0,0
413,-300,0,0,0,0,0,0,0,0,0,-1,1637,1324,0,0
420,-300,0,0,0,0,0,0,0,0,0,-1,1644,1324,0,0
427,-300,0,0,0,0,0,0,0,0,0,-1,1651,1324,0,0
434,-300,0,0,0,0,0,0,0,0,0,-1,1658,1324,0,0
441,-300,0,0,0,0,0,0,0,0,0,-1,1665,1324,0,0
448,-300,0,0,0,0,0,0,0,0,0,-1,1672,1324,0,0
455,-300,0,0,0,0,0,0,0,0,0,-1,1679,1324,0,0
462,-300,0,0,0,0,0,0,0,0,0,-1,1686,1324,0,0
469,-300,0,0,0,0,0,0,0,0,0,-1,1693,1324,0,0
476,-300,0,0,0,0,0,0,0,0,0,-1,1700,1324,0,0
483,-300,0,0,0,0,0,0,0,0,0,-1,1707,1324,0,0
490,-300,0,0,0,0,0,0,0,0,0,-1,1714,1324,0,0
497,-300,0,0,0,0,0,0,0,0,0,-1,1721,1324,0,0
504,-300,0,0,0,0,0,0,0,0,0,-1,1728,1324,0,0
511,-300,0,0,0,0,0,0,0,0,0,-1,1735,1324,0,0
518,-300,0,0,0,0,0,0,0,0,0,-1,1742,1324,0,0
525,-300,0,0,0,0,0,0,0,0,0,-1,1749,1324,0,0
532,-300,0,0,0,0,0,0,0,0,0,-1,1756,1324,0,0
539,-300,0,0,0,0,0,0,0,0,0,-1,1763,1324,0,0
546,-300,0,0,0,0,0,0,0,0,0,-1,1770,1324,0,0
553,-300,0,0,0,0,0,0,0,0,0,-1,1777,1324,0,0
560,-300,0,0,0,0,0,0,0,0,0,-1,1784,1324,0,0
567,-300,0,0,0,0,0,0,0,0,0,-1,1791,1324,0,0
574,-300,0,0,0,0,0,0,0,0,0,-1,1798,1324,0,0
581,-300,0,0,0,0,0,0,0,0,0,-1,1805,1324,0,0
588,-300,66.4561,1.99207,0,0,0,0,0,0,0,-1,1812,1324,66.456,-1.99202
595,-300,66.4685,1.95496,0,0,0,0,0,0,0,-1,1819,1324,66.4685,-1.95499
602,-300,66.5259,1.72363,0,0,0,0,0,0,0,-1,1826,1324,66.5259,-1.72367
609,-300,64.2576,2.90149,0,0,0,0,0,0,0,-1,1833,1324,64.2575,-2.90154
616,-300,65.1267,2.84033,0,0,0,0,0,0,0,-1,1840,1324,65.1267,-2.84037
623,-300,47.4474,2.43188,0,0,0,0,0,0,0,-1,1847,1324,47.4474,-2.43194
630,-300,42.4099,3.9165,0,0,0,0,0,0,0,-1,1854,1324,42.4099,-3.91649
637,-300,31.1719,4.6366,0,0,0,0,0,0,0,-1,1861,1324,31.1718,-4.63665
644,-300,22.9836,3.44934,0,0,0,0,0,0,0,-1,1868,1324,22.9836,-3.4493
651,-300,25.5004,9.11853,0,0,0,0,0,0,0,-1,1875,1324,25.5004,-9.11851
658,-300,25.4012,9.20032,0,0,0,0,0,0,0,-1,1882,1324,25.4012,-9.20036
665,-300,53.1328,18.5878,0,0,0,0,0,0,0,-1,1889,1324,53.1328,-18.5878
672,-300,52.9348,17.8247,-0.000998927,0.00645036,0.00107446,0.00660224,-0.00115081,1.43037,0.004831,0.0384635,1896,1324,52.9348,-17.8247
679,-300,52.8999,16.9446,0.000798979,0.00140485,-0.000449716,0.00164414,0.000559684,-1.0818,0.000965231,0.0144064,1903,1324,52.8999,-16.9446
686,-300,52.8429,16.1201,0.00151573,0.000224536,-0.00104028,0.00209446,-0.000354192,-0.507684,0.00152811,0.0151127,1910,1324,52.8429,-16.1201
693,-300,52.7903,15.2715,0.00127037,4.20872e-05,-0.000460601,0.00142391,-0.000111445,-0.321747,0.000988515,0.0127727,1917,1324,52.7903,-15.2714
700,-300,52.7441,14.4147,0.000899914,-0.00025073,2.83028e-05,0.00090061,-0.000251425,0.0245775,0.000699444,0.0135815,1924,1324,52.7442,-14.4147
707,-300,52.7225,13.5704,0.000438024,-0.000668828,0.000515199,0.000640713,-0.000871518,0.374821,0.00087647,0.00906399,1931,1324,52.7225,-13.5704
714,-300,52.6863,12.765,-0.000143096,-0.00125562,0.000996682,0.000442045,-0.00184076,0.530872,0.00139802,0.0104213,1938,1324,52.6863,-12.765
721,-300,52.637,11.9352,-0.000865142,-0.00204713,0.00144375,0.00010389,-0.00301616,0.591129,0.00204628,0.0128289,1945,1324,52.6369,-11.9352
728,-300,52.6213,11.0642,-0.00180548,-0.00312803,0.00183524,-0.00051602,-0.00441749,0.612478,0.00278895,0.0177806,1952,1324,52.6213,-11.0642
735,-300,52.4259,10.4816,-0.00303045,-0.00463751,0.00216034,-0.00152905,-0.00613891,0.607352,0.00369008,0.0345499,1959,1324,52.4259,-10.4815
742,-300,52.3408,9.76306,0,0,0,0,0,0,0,-1,1966,1324,52.3408,-9.76301
749,-300,27.4065,5.9718,0,0,0,0,0,0,0,-1,1973,1324,27.4065,-5.97181
756,-300,22.1423,3.45642,0,0,0,0,0,0,0,-1,1980,1324,22.1423,-3.45638
763,-300,22.6136,5.1571,0,0,0,0,0,0,0,-1,1987,1324,22.6136,-5.15706
770,-300,24.859,4.77979,0,0,0,0,0,0,0,-1,1994,1324,24.859,-4.77972
777,-300,0,0,0,0,0,0,0,0,0,-1,2001,1324,0,0
784,-300,0,0,0,0,0,0,0,0,0,-1,2008,1324,0,0
791,-300,0,0,0,0,0,0,0,0,0,-1,2015,1324,0,0
798,-300,0,0,0,0,0,0,0,0,0,-1,2022,1324,0,0
805,-300,0,0,0,0,0,0,0,0,0,-1,2029,1324,0,0
812,-300,0,0,0,0,0,0,0,0,0,-1,2036,1324,0,0
-700,-307,0,0,0,0,0,0,0,0,0,-1,524,1331,0,0
-693,-307,0,0,0,0,0,0,0,0,0,-1,531,1331,0,0
-686,-307,0,0,0,0,0,0,0,0,0,-1,538,1331,0,0
-679,-307,0,0,0,0,0,0,0,0,0,-1,545,1331,0,0
-672,-307,0,0,0,0,0,0,0,0,0,-1,552,1331,0,0
-665,-307,0,0,0,0,0,0,0,0,0,-1,559,1331,0,0
-658,-307,0,0,0,0,0,0,0,0,0,-1,566,1331,0,0
-651,-307,-40.7436,1.98755,0,0,0,0,0,0,0,-1,573,1331,-40.7436,-1.98753
-644,-307,-41.7838,1.24817,0,0,0,0,0,0,0,-1,580,1331,-41.7838,-1.2482
-637,-307,-41.9006,0.477783,0,0,0,0,0,0,0,-1,587,1331,-41.9006,-0.477844
-630,-307,-12.0005,0.767212,0,0,0,0,0,0,0,-1,594,1331,-12.0005,-0.767266
-623,-307,-12.2128,2.93811,0,0,0,0,0,0,0,-1,601,1331,-12.2128,-2.93813
-616,-307,-12.6612,2.08289,0,0,0,0,0,0,0,-1,608,1331,-12.6612,-2.08293
-609,-307,-12.2767,1.83228,0,0,0,0,0,0,0,-1,615,1331,-12.2768,-1.83224
-602,-307,-27.5659,6.93335,0,0,0,0,0,0,0,-1,622,1331,-27.5658,-6.9333
-595,-307,-34.9314,10.7998,0,0,0,0,0,0,0,-1,629,1331,-34.9314,-10.7998
-588,-307,-34.6953,11.8069,0.00388045,0.00332127,0.00234127,0.00595877,0.00124295,0.72597,0.00362984,0.0230715,636,1331,-34.6953,-11.8069
-581,-307,-34.7039,12.6727,0.00310655,0.00246139,0.00164202,0.00445737,0.00111057,0.688407,0.00267925,0.0159155,643,1331,-34.7038,-12.6727
-574,-307,-34.7562,13.5232,0.00261391,0.00167877,0.0011208,0.00336075,0.000931921,0.587784,0.00200346,0.0132938,650,1331,-34.7562,-13.5232
-567,-307,-34.8075,14.3856,0.00244532,0.00100789,0.00078319,0.00278959,0.000663616,0.41415,0.00168272,0.0142305,657,1331,-34.8075,-14.3856
-560,-307,-34.8634,15.2633,0.00255808,0.000422649,0.000621603,0.00272584,0.000254887,0.263607,0.00173851,0.0152634,664,1331,-34.8634,-15.2633
-553,-307,-34.9105,16.1154,0.00301972,-3.37342e-05,0.000678817,0.00316382,-0.000177842,0.209187,0.00217093,0.0123066,671,1331,-34.9105,-16.1154
-546,-307,-34.9957,16.9677,0.00378101,-0.000399392,0.000968271,0.00399439,-0.000612773,0.216906,0.00288893,0.0110488,678,1331,-34.9957,-16.9677
-539,-307,-34.9823,17.8977,0.00500699,-0.000639977,0.00158894,0.00542338,-0.00105637,0.256293,0.00401431,0.0264243,685,1331,-34.9823,-17.8977
-532,-307,-34.9043,18.8584,0,0,0,0,0,0,0,-1,692,1331,-34.9043,-18.8584
-525,-307,-13.2009,6.91309,0,0,0,0,0,0,0,-1,699,1331,-13.2009,-6.9131
-518,-307,-9.77777,-1.56653,0,0,0,0,0,0,0,-1,706,1331,-9.77777,1.56651
-511,-307,-12.5226,0.26709,0,0,0,0,0,0,0,-1,713,1331,-12.5226,-0.267038
-504,-307,-12.5913,-0.308105,0,0,0,0,0,0,0,-1,720,1331,-12.5913,0.308124
-497,-307,-13.8586,-0.115845,0,0,0,0,0,0,0,-1,727,1331,-13.8587,0.115861
-490,-307,-17.9429,0.982178,0,0,0,0,0,0,0,-1,734,1331,-17.9429,-0.982198
-483,-307,-18.1066,0.927612,0,0,0,0,0,0,0,-1,741,1331,-18.1066,-0.927609
-476,-307,-18.1288,1.1228,0,0,0,0,0,0,0,-1,748,1331,-18.1289,-1.12286
-469,-307,-18.2028,0.798584,0,0,0,0,0,0,0,-1,755,1331,-18.2027,-0.798546
-462,-307,0,0,0,0,0,0,0,0,0,-1,762,1331,0,0
-455,-307,0,0,0,0,0,0,0,0,0,-1,769,1331,0,0
-448,-307,0,0,0,0,0,0,0,0,0,-1,776,1331,0,0
-441,-307,0,0,0,0,0,0,0,0,0,-1,783,1331,0,0
-434,-307,0,0,0,0,0,0,0,0,0,-1,790,1331,0,0
-427,-307,0,0,0,0,0,0,0,0,0,-1,797,1331,0,0
-420,-307,0,0,0,0,0,0,0,0,0,-1,804,1331,0,0
-413,-307,0,0,0,0,0,0,0,0,0,-1,811,1331,0,0
-406,-307,0,0,0,0,0,0,0,0,0,-1,818,1331,0,0
-399,-307,0,0,0,0,0,0,0,0,0,-1,825,1331,0,0
-392,-307,0,0,0,0,0,0,0,0,0,-1,832,1331,0,0
-385,-307,0,0,0,0,0,0,0,0,0,-1,839,1331,0,0
-378,-307,0,0,0,0,0,0,0,0,0,-1,846,1331,0,0
-371,-307,0,0,0,0,0,0,0,0,0,-1,853,1331,0,0
-364,-307,0,0,0,0,0,0,0,0,0,-1,860,1331,0,0
-357,-307,0,0,0,0,0,0,0,0,0,-1,867,1331,0,0
-350,-307,0,0,0,0,0,0,0,0,0,-1,874,1331,0,0
-343,-307,0,0,0,0,0,0,0,0,0,-1,881,1331,0,0
-336,-307,0,0,0,0,0,0,0,0,0,-1,888,1331,0,0
-329,-307,0,0,0,0,0,0,0,0,0,-1,895,1331,0,0
-322,-307,0,0,0,0,0,0,0,0,0,-1,902,1331,0,0
-315,-307,0,0,0,0,0,0,0,0,0,-1,909,1331,0,0
-308,-307,0,0,0,0,0,0,0,0,0,-1,916,1331,0,0
-301,-307,0,0,0,0,0,0,0,0,0,-1,923,1331,0,0
-294,-307,0,0,0,0,0,0,0,0,0,-1,930,1331,0,0
-287,-307,0,0,0,0,0,0,0,0,0,-1,937,1331,0,0
-280,-307,0,0,0,0,0,0,0,0,0,-1,944,1331,0,0
-273,-307,0,0,0,0,0,0,0,0,0,-1,951,1331,0,0
-266,-307,0,0,0,0,0,0,0,0,0,-1,958,1331,0,0
-259,-307,0,0,0,0,0,0,0,0,0,-1,965,1331,0,0
-252,-307,0,0,0,0,0,0,0,0,0,-1,972,1331,0,0
-245,-307,0,0,0,0,0,0,0,0,0,-1,979,1331,0,0
-238,-307,0,0,0,0,0,0,0,0,0,-1,986,1331,0,0
-231,-307,0,0,0,0,0,0,0,0,0,-1,993,1331,0,0
-224,-307,0,0,0,0,0,0,0,0,0,-1,1000,1331,0,0
-217,-307,0,0,0,0,0,0,0,0,0,-1,1007,1331,0,0
-210,-307,0,0,0,0,0,0,0,0,0,-1,1014,1331,0,0
-203,-307,0,0,0,0,0,0,0,0,0,-1,1021,1331,0,0
-196,-307,0,0,0,0,0,0,0,0,0,-1,1028,1331,0,0
-189,-307,0,0,0,0,0,0,0,0,0,-1,1035,1331,0,0
-182,-307,0,0,0,0,0,0,0,0,0,-1,1042,1331,0,0
-175,-307,0,0,0,0,0,0,0,0,0,-1,1049,1331,0,0
-168,-307,0,0,0,0,0,0,0,0,0,-1,1056,1331,0,0
-161,-307,0,0,0,0,0,0,0,0,0,-1,1063,1331,0,0
-154,-307,0,0,0,0,0,0,0,0,0,-1,1070,1331,0,0
-147,-307,0,0,0,0,0,0,0,0,0,-1,1077,1331,0,0
-140,-307,0,0,0,0,0,0,0,0,0,-1,1084,1331,0,0
-133,-307,0,0,0,0,0,0,0,0,0,-1,1091,1331,0,0
-126,-307,0,0,0,0,0,0,0,0,0,-1,1098,1331,0,0
-119,-307,0,0,0,0,0,0,0,0,0,-1,1105,1331,0,0
-112,-307,0,0,0,0,0,0,0,0,0,-1,1112,1331,0,0
-105,-307,0,0,0,0,0,0,0,0,0,-1,1119,1331,0,0
-98,-307,0,0,0,0,0,0,0,0,0,-1,1126,1331,0,0
-91,-307,0,0,0,0,0,0,0,0,0,-1,1133,1331,0,0
-84,-307,0,0,0,0,0,0,0,0,0,-1,1140,1331,0,0
-77,-307,0,0,0,0,0,0,0,0,0,-1,1147,1331,0,0
-70,-307,0,0,0,0,0,0,0,0,0,-1,1154,1331,0,0
-63,-307,0,0,0,0,0,0,0,0,0,-1,1161,1331,0,0
-56,-307,0,0,0,0,0,0,0,0,0,-1,1168,1331,0,0
-49,-307,0,0,0,0,0,0,0,0,0,-1,1175,1331,0,0
-42,-307,0,0,0,0,0,0,0,0,0,-1,1182,1331,0,0
-35,-307,0,0,0,0,0,0,0,0,0,-1,1189,1331,0,0
-28,-307,0,0,0,0,0,0,0,0,0,-1,1196,1331,0,0
-21,-307,0,0,0,0,0,0,0,0,0,-1,1203,1331,0,0
-14,-307,0,0,0,0,0,0,0,0,0,-1,1210,1331,0,0
-7,-307,0,0,0,0,0,0,0,0,0,-1,1217,1331,0,0
0,-307,0,0,0,0,0,0,0,0,0,-1,1224,1331,0,0
7,-307,0,0,0,0,0,0,0,0,0,-1,1231,1331,0,0
14,-307,0,0,0,0,0,0,0,0,0,-1,1238,1331,0,0
21,-307,0,0,0,0,0,0,0,0,0,-1,1245,1331,0,0
28,-307,0,0,0,0,0,0,0,0,0,-1,1252,1331,0,0
35,-307,0,0,0,0,0,0,0,0,0,-1,1259,1331,0,0
42,-307,0,0,0,0,0,0,0,0,0,-1,1266,1331,0,0
49,-307,0,0,0,0,0,0,0,0,0,-1,1273,1331,0,0
56,-307,0,0,0,0,0,0,0,0,0,-1,1280,1331,0,0
63,-307,0,0,0,0,0,0,0,0,0,-1,1287,1331,0,0
70,-307,0,0,0,0,0,0,0,0,0,-1,1294,1331,0,0
77,-307,0,0,0,0,0,0,0,0,0,-1,1301,1331,0,0
84,-307,0,0,0,0,0,0,0,0,0,-1,1308,1331,0,0
91,-307,0,0,0,0,0,0,0,0,0,-1,1315,1331,0,0
98,-307,0,0,0,0,0,0,0,0,0,-1,1322,1331,0,0
105,-307,0,0,0,0,0,0,0,0,0,-1,1329,1331,0,0
112,-307,0,0,0,0,0,0,0,0,0,-1,1336,1331,0,0
119,-307,0,0,0,0,0,0,0,0,0,-1,1343,1331,0,0
126,-307,0,0,0,0,0,0,0,0,0,-1,1350,1331,0,0
133,-307,0,0,0,0,0,0,0,0,0,-1,1357,1331,0,0
140,-307,0,0,0,0,0,0,0,0,0,-1,1364,1331,0,0
147,-307,0,0,0,0,0,0,0,0,0,-1,1371,1331,0,0
154,-307,0,0,0,0,0,0,0,0,0,-1,1378,1331,0,0
161,-307,0,0,0,0,0,0,0,0,0,-1,1385,1331,0,0
168,-307,0,0,0,0,0,0,0,0,0,-1,1392,1331,0,0
175,-307,0,0,0,0,0,0,0,0,0,-1,1399,1331,0,0
182,-307,0,0,0,0,0,0,0,0,0,-1,1406,1331,0,0
189,-307,0,0,0,0,0,0,0,0,0,-1,1413,1331,0,0
196,-307,0,0,0,0,0,0,0,0,0,-1,1420,1331,0,0
203,-307,0,0,0,0,0,0,0,0,0,-1,1427,1331,0,0
210,-307,0,0,0,0,0,0,0,0,0,-1,1434,1331,0,0
217,-307,0,0,0,0,0,0,0,0,0,-1,1441,1331,0,0
224,-307,0,0,0,0,0,0,0,0,0,-1,1448,1331,0,0
231,-307,0,0,0,0,0,0,0,0,0,-1,1455,1331,0,0
238,-307,0,0,0,0,0,0,0,0,0,-1,1462,1331,0,0
245,-307,0,0,0,0,0,0,0,0,0,-1,1469,1331,0,0
252,-307,0,0,0,0,0,0,0,0,0,-1,1476,1331,0,0
259,-307,0,0,0,0,0,0,0,0,0,-1,1483,1331,0,0
266,-307,0,0,0,0,0,0,0,0,0,-1,1490,1331,0,0
273,-307,0,0,0,0,0,0,0,0,0,-1,1497,1331,0,0
280,-307,0,0,0,0,0,0,0,0,0,-1,1504,1331,0,0
287,-307,0,0,0,0,0,0,0,0,0,-1,1511,1331,0,0
294,-307,0,0,0,0,0,0,0,0,0,-1,1518,1331,0,0
301,-307,0,0,0,0,0,0,0,0,0,-1,1525,1331,0,0
308,-307,0,0,0,0,0,0,0,0,0,-1,1532,1331,0,0
315,-307,0,0,0,0,0,0,0,0,0,-1,1539,1331,0,0
322,-307,0,0,0,0,0,0,0,0,0,-1,1546,1331,0,0
329,-307,0,0,0,0,0,0,0,0,0,-1,1553,1331,0,0
336,-307,0,0,0,0,0,0,0,0,0,-1,1560,1331,0,0
343,-307,0,0,0,0,0,0,0,0,0,-1,1567,1331,0,0
350,-307,0,0,0,0,0,0,0,0,0,-1,1574,1331,0,0
357,-307,0,0,0,0,0,0,0,0,0,-1,1581,1331,0,0
364,-307,0,0,0,0,0,0,0,0,0,-1,1588,1331,0,0
371,-307,0,0,0,0,0,0,0,0,0,-1,1595,1331,0,0
378,-307,0,0,0,0,0,0,0,0,0,-1,1602,1331,0,0
385,-307,0,0,0,0,0,0,0,0,0,-1,1609,1331,0,0
392,-307,0,0,0,0,0,0,0,0,0,-1,1616,1331,0,0
399,-307,0,0,0,0,0,0,0,0,0,-1,1623,1331,0,0
406,-307,0,0,0,0,0,0,0,0,0,-1,1630,1331,0,0
413,-307,0,0,0,0,0,0,0,0,0,-1,1637,1331,0,0
420,-307,0,0,0,0,0,0,0,0,0,-1,1644,1331,0,0
427,-307,0,0,0,0,0,0,0,0,0,-1,1651,1331,0,0
434,-307,0,0,0,0,0,0,0,0,0,-1,1658,1331,0,0
441,-307,0,0,0,0,0,0,0,0,0,-1,1665,1331,0,0
448,-307,0,0,0,0,0,0,0,0,0,-1,1672,1331,0,0
455,-307,0,0,0,0,0,0,0,0,0,-1,1679,1331,0,0
462,-307,0,0,0,0,0,0,0,0,0,-1,1686,1331,0,0
469,-307,0,0,0,0,0,0,0,0,0,-1,1693,1331,0,0
476,-307,0,0,0,0,0,0,0,0,0,-1,1700,1331,0,0
483,-307,0,0,0,0,0,0,0,0,0,-1,1707,1331,0,0
490,-307,0,0,0,0,0,0,0,0,0,-1,1714,1331,0,0
497,-307,0,0,0,0,0,0,0,0,0,-1,1721,1331,0,0
504,-307,0,0,0,0,0,0,0,0,0,-1,1728,1331,0,0
511,-307,0,0,0,0,0,0,0,0,0,-1,1735,1331,0,0
518,-307,0,0,0,0,0,0,0,0,0,-1,1742,1331,0,0
525,-307,0,0,0,0,0,0,0,0,0,-1,1749,1331,0,0
532,-307,0,0,0,0,0,0,0,0,0,-1,1756,1331,0,0
539,-307,0,0,0,0,0,0,0,0,0,-1,1763,1331,0,0
546,-307,0,0,0,0,0,0,0,0,0,-1,1770,1331,0,0
553,-307,0,0,0,0,0,0,0,0,0,-1,1777,1331,0,0
560,-307,0,0,0,0,0,0,0,0,0,-1,1784,1331,0,0
567,-307,0,0,0,0,0,0,0,0,0,-1,1791,1331,0,0
574,-307,0,0,0,0,0,0,0,0,0,-1,1798,1331,0,0
581,-307,0,0,0,0,0,0,0,0,0,-1,1805,1331,0,0
588,-307,66.5917,1.60864,0,0,0,0,0,0,0,-1,1812,1331,66.5917,-1.60867
595,-307,66.708,1.85352,0,0,0,0,0,0,0,-1,1819,1331,66.708,-1.85351
602,-307,66.111,1.49976,0,0,0,0,0,0,0,-1,1826,1331,66.1109,-1.49974
609,-307,63.8848,2.78992,0,0,0,0,0,0,0,-1,1833,1331,63.8848,-2.78989
616,-307,53.2878,0.135498,0,0,0,0,0,0,0,-1,1840,1331,53.2878,-0.135477
623,-307,44.3966,2.84888,0,0,0,0,0,0,0,-1,1847,1331,44.3966,-2.84884
630,-307,29.8116,1.51184,0,0,0,0,0,0,0,-1,1854,1331,29.8116,-1.51188
637,-307,24.6407,4.09106,0,0,0,0,0,0,0,-1,1861,1331,24.6407,-4.09103
644,-307,22.6885,5.80408,0,0,0,0,0,0,0,-1,1868,1331,22.6884,-5.80408
651,-307,17.5013,5.80078,0,0,0,0,0,0,0,-1,1875,1331,17.5014,-5.80072
658,-307,37.4427,13.9775,0,0,0,0,0,0,0,-1,1882,1331,37.4427,-13.9776
665,-307,52.2688,18.66,0,0,0,0,0,0,0,-1,1889,1331,52.2688,-18.66
672,-307,52.1326,17.8229,-0.00069501,0.0053982,0.000776904,0.00549569,-0.000792508,1.44595,0.00395453,0.0227004,1896,1331,52.1326,-17.8228
679,-307,52.062,16.985,0.000833161,0.00109121,-0.000479451,0.00145869,0.000465676,-0.916837,0.000860326,0.0112294,1903,1331,52.062,-16.985
686,-307,52.007,16.1497,0.00133833,0.000208447,-0.000805602,0.00175734,-0.000210559,-0.47961,0.00124768,0.0110821,1910,1331,52.007,-16.1497
693,-307,51.9677,15.3123,0.00118871,1.79158e-05,-0.000336182,0.00127837,-7.17492e-05,-0.260648,0.000877142,0.013176,1917,1331,51.9677,-15.3122
700,-307,51.925,14.4479,0.000948039,-0.000289695,9.48001e-05,0.000955258,-0.000296914,0.0760008,0.000755515,0.014664,1924,1331,51.9251,-14.4478
707,-307,51.8821,13.597,0.000618416,-0.000699046,0.000553965,0.000820385,-0.000901014,0.34961,0.000994213,0.0157103,1931,1331,51.8821,-13.597
714,-307,51.8527,12.8202,0.000161012,-0.00128134,0.00102686,0.000694639,-0.00181496,0.47926,0.00149627,0.0136851,1938,1331,51.8526,-12.8202
721,-307,51.8541,11.9957,-0.000449319,-0.00209595,0.00149156,0.000431068,-0.00297634,0.533216,0.00214242,0.0175006,1945,1331,51.8541,-11.9957
728,-307,51.7936,11.3331,-0.00131684,-0.00324931,0.00194005,-0.000115723,-0.00445043,0.554356,0.00292914,0.0467781,1952,1331,51.7936,-11.3331
735,-307,51.7457,10.2347,0,0,0,0,0,0,0,-1,1959,1331,51.7458,-10.2347
742,-307,26.677,6.09192,0,0,0,0,0,0,0,-1,1966,1331,26.677,-6.0919
749,-307,26.7727,5.9032,0,0,0,0,0,0,0,-1,1973,1331,26.7727,-5.90323
756,-307,27.1556,5.74756,0,0,0,0,0,0,0,-1,1980,1331,27.1557,-5.7475
763,-307,18.7522,3.55298,0,0,0,0,0,0,0,-1,1987,1331,18.7522,-3.55301
770,-307,0,0,0,0,0,0,0,0,0,-1,1994,1331,0,0
777,-307,0,0,0,0,0,0,0,0,0,-1,2001,1331,0,0
784,-307,0,0,0,0,0,0,0,0,0,-1,2008,1331,0,0
791,-307,0,0,0,0,0,0,0,0,0,-1,2015,1331,0,0
798,-307,0,0,0,0,0,0,0,0,0,-1,2022,1331,0,0
805,-307,0,0,0,0,0,0,0,0,0,-1,2029,1331,0,0
812,-307,0,0,0,0,0,0,0,0,0,-1,2036,1331,0,0
-700,-314,0,0,0,0,0,0,0,0,0,-1,524,1338,0,0
-693,-314,0,0,0,0,0,0,0,0,0,-1,531,1338,0,0
-686,-314,0,0,0,0,0,0,0,0,0,-1,538,1338,0,0
-679,-314,0,0,0,0,0,0,0,0,0,-1,545,1338,0,0
-672,-314,0,0,0,0,0,0,0,0,0,-1,552,1338,0,0
-665,-314,0,0,0,0,0,0,0,0,0,-1,559,1338,0,0
-658,-314,0,0,0,0,0,0,0,0,0,-1,566,1338,0,0
-651,-314,0,0,0,0,0,0,0,0,0,-1,573,1338,0,0
-644,-314,-41.2806,1.17566,0,0,0,0,0,0,0,-1,580,1338,-41.2806,-1.17565
-637,-314,-58.369,7.97375,0,0,0,0,0,0,0,-1,587,1338,-58.369,-7.97376
-630,-314,-59.7463,6.72742,0,0,0,0,0,0,0,-1,594,1338,-59.7463,-6.72739
-623,-314,-13.3542,3.00903,0,0,0,0,0,0,0,-1,601,1338,-13.3542,-3.00907
-616,-314,-9.93311,1.15088,0,0,0,0,0,0,0,-1,608,1338,-9.93308,-1.15093
-609,-314,-9.4361,2.86292,0,0,0,0,0,0,0,-1,615,1338,-9.43612,-2.86286
-602,-314,-11.8027,2.42798,0,0,0,0,0,0,0,-1,622,1338,-11.8027,-2.42802
-595,-314,-34.0865,10.8466,0,0,0,0,0,0,0,-1,629,1338,-34.0865,-10.8466
-588,-314,-33.877,11.7789,0.00423861,0.00404994,0.00283662,0.00698246,0.00130609,0.768776,0.00428646,0.0367815,636,1338,-33.8769,-11.779
-581,-314,-33.8237,12.7025,0.00344646,0.00314112,0.00205745,0.0053569,0.00123068,0.748364,0.00323991,0.0130625,643,1338,-33.8236,-12.7025
-574,-314,-33.9086,13.5537,0.00291493,0.00228428,0.00150169,0.00413404,0.00106517,0.681911,0.00247848,0.0127754,650,1338,-33.9086,-13.5538
-567,-314,-33.9611,14.4369,0.00272517,0.00154612,0.00114392,0.00342254,0.000848752,0.547471,0.00205797,0.013987,657,1338,-33.9611,-14.4369
-560,-314,-33.9782,15.3302,0.00283962,0.000901993,0.000983408,0.00325127,0.000490338,0.396437,0.00202396,0.0150767,664,1338,-33.9782,-15.3302
-553,-314,-34.0331,16.1705,0.00327481,0.000383812,0.00103686,0.00360823,5.03937e-05,0.311122,0.00238887,0.0182419,671,1338,-34.0332,-16.1705
-546,-314,-34.1271,17.0272,0.00400873,-5.87972e-05,0.00130218,0.00438989,-0.000439959,0.284756,0.00308373,0.0199431,678,1338,-34.1271,-17.0272
-539,-314,-34.1301,17.9346,0.00513806,-0.000379403,0.00184968,0.00570076,-0.000942102,0.295319,0.00415034,0.023926,685,1338,-34.1301,-17.9346
-532,-314,-34.0392,18.8064,0,0,0,0,0,0,0,-1,692,1338,-34.0392,-18.8064
-525,-314,-13.3017,7.50671,0,0,0,0,0,0,0,-1,699,1338,-13.3017,-7.50669
-518,-314,-8.52753,4.70032,0,0,0,0,0,0,0,-1,706,1338,-8.52755,-4.70034
-511,-314,-11.8597,0.384888,0,0,0,0,0,0,0,-1,713,1338,-11.8597,-0.384927
-504,-314,-11.4322,-0.187378,0,0,0,0,0,0,0,-1,720,1338,-11.4322,0.187381
-497,-314,-11.0047,-0.759644,0,0,0,0,0,0,0,-1,727,1338,-11.0047,0.759689
-490,-314,-18.5143,0.471069,0,0,0,0,0,0,0,-1,734,1338,-18.5143,-0.47103
-483,-314,-17.8528,0.577271,0,0,0,0,0,0,0,-1,741,1338,-17.8528,-0.577327
-476,-314,-17.714,0.665405,0,0,0,0,0,0,0,-1,748,1338,-17.714,-0.665388
-469,-314,-17.7246,0.794678,0,0,0,0,0,0,0,-1,755,1338,-17.7246,-0.794645
-462,-314,0,0,0,0,0,0,0,0,0,-1,762,1338,0,0
-455,-314,0,0,0,0,0,0,0,0,0,-1,769,1338,0,0
-448,-314,0,0,0,0,0,0,0,0,0,-1,776,1338,0,0
-441,-314,0,0,0,0,0,0,0,0,0,-1,783,1338,0,0
-434,-314,0,0,0,0,0,0,0,0,0,-1,790,1338,0,0
-427,-314,0,0,0,0,0,0,0,0,0,-1,797,1338,0,0
-420,-314,0,0,0,0,0,0,0,0,0,-1,804,1338,0,0
-413,-314,0,0,0,0,0,0,0,0,0,-1,811,1338,0,0
-406,-314,0,0,0,0,0,0,0,0,0,-1,818,1338,0,0
-399,-314,0,0,0,0,0,0,0,0,0,-1,825,1338,0,0
-392,-314,0,0,0,0,0,0,0,0,0,-1,832,1338,0,0
-385,-314,0,0,0,0,0,0,0,0,0,-1,839,1338,0,0
-378,-314,0,0,0,0,0,0,0,0,0,-1,846,1338,0,0
-371,-314,0,0,0,0,0,0,0,0,0,-1,853,1338,0,0
-364,-314,0,0,0,0,0,0,0,0,0,-1,860,1338,0,0
-357,-314,0,0,0,0,0,0,0,0,0,-1,867,1338,0,0
-350,-314,0,0,0,0,0,0,0,0,0,-1,874,1338,0,0
-343,-314,0,0,0,0,0,0,0,0,0,-1,881,1338,0,0
-336,-314,0,0,0,0,0,0,0,0,0,-1,888,1338,0,0
-329,-314,0,0,0,0,0,0,0,0,0,-1,895,1338,0,0
-322,-314,0,0,0,0,0,0,0,0,0,-1,902,1338,0,0
-315,-314,0,0,0,0,0,0,0,0,0,-1,909,1338,0,0
-308,-314,0,0,0,0,0,0,0,0,0,-1,916,1338,0,0
-301,-314,0,0,0,0,0,0,0,0,0,-1,923,1338,0,0
-294,-314,0,0,0,0,0,0,0,0,0,-1,930,1338,0,0
-287,-314,0,0,0,0,0,0,0,0,0,-1,937,1338,0,0
-280,-314,0,0,0,0,0,0,0,0,0,-1,944,1338,0,0
-273,-314,0,0,0,0,0,0,0,0,0,-1,951,1338,0,0
-266,-314,0,0,0,0,0,0,0,0,0,-1,958,1338,0,0
-259,-314,0,0,0,0,0,0,0,0,0,-1,965,1338,0,0
-252,-314,0,0,0,0,0,0,0,0,0,-1,972,1338,0,0
-245,-314,0,0,0,0,0,0,0,0,0,-1,979,1338,0,0
-238,-314,0,0,0,0,0,0,0,0,0,-1,986,1338,0,0
-231,-314,0,0,0,0,0,0,0,0,0,-1,993,1338,0,0
-224,-314,0,0,0,0,0,0,0,0,0,-1,1000,1338,0,0
-217,-314,0,0,0,0,0,0,0,0,0,-1,1007,1338,0,0
-210,-314,0,0,0,0,0,0,0,0,0,-1,1014,1338,0,0
-203,-314,0,0,0,0,0,0,0,0,0,-1,1021,1338,0,0
-196,-314,0,0,0,0,0,0,0,0,0,-1,1028,1338,0,0
-189,-314,0,0,0,0,0,0,0,0,0,-1,1035,1338,0,0
-182,-314,0,0,0,0,0,0,0,0,0,-1,1042,1338,0,0
-175,-314,0,0,0,0,0,0,0,0,0,-1,1049,1338,0,0
-168,-314,0,0,0,0,0,0,0,0,0,-1,1056,1338,0,0
-161,-314,0,0,0,0,0,0,0,0,0,-1,1063,1338,0,0
-154,-314,0,0,0,0,0,0,0,0,0,-1,1070,1338,0,0
-147,-314,0,0,0,0,0,0,0,0,0,-1,1077,1338,0,0
-140,-314,0,0,0,0,0,0,0,0,0,-1,1084,1338,0,0
-133,-314,0,0,0,0,0,0,0,0,0,-1,1091,1338,0,0
-126,-314,0,0,0,0,0,0,0,0,0,-1,1098,1338,0,0
-119,-314,0,0,0,0,0,0,0,0,0,-1,1105,1338,0,0
-112,-314,0,0,0,0,0,0,0,0,0,-1,1112,1338,0,0
-105,-314,0,0,0,0,0,0,0,0,0,-1,1119,1338,0,0
-98,-314,0,0,0,0,0,0,0,0,0,-1,1126,1338,0,0
-91,-314,0,0,0,0,0,0,0,0,0,-1,1133,1338,0,0
-84,-314,0,0,0,0,0,0,0,0,0,-1,1140,1338,0,0
-77,-314,0,0,0,0,0,0,0,0,0,-1,1147,1338,0,0
-70,-314,0,0,0,0,0,0,0,0,0,-1,1154,1338,0,0
-63,-314,0,0,0,0,0,0,0,0,0,-1,1161,1338,0,0
-56,-314,0,0,0,0,0,0,0,0,0,-1,1168,1338,0,0
-49,-314,0,0,0,0,0,0,0,0,0,-1,1175,1338,0,0
-42,-314,0,0,0,0,0,0,0,0,0,-1,1182,1338,0,0
-35,-314,0,0,0,0,0,0,0,0,0,-1,1189,1338,0,0
-28,-314,0,0,0,0,0,0,0,0,0,-1,1196,1338,0,0
-21,-314,0,0,0,0,0,0,0,0,0,-1,1203,1338,0,0
-14,-314,0,0,0,0,0,0,0,0,0,-1,1210,1338,0,0
-7,-314,0,0,0,0,0,0,0,0,0,-1,1217,1338,0,0
0,-314,0,0,0,0,0,0,0,0,0,-1,1224,1338,0,0
7,-314,0,0,0,0,0,0,0,0,0,-1,1231,1338,0,0
14,-314,0,0,0,0,0,0,0,0,0,-1,1238,1338,0,0
21,-314,0,0,0,0,0,0,0,0,0,-1,1245,1338,0,0
28,-314,0,0,0,0,0,0,0,0,0,-1,1252,1338,0,0
35,-314,0,0,0,0,0,0,0,0,0,-1,1259,1338,0,0
42,-314,0,0,0,0,0,0,0,0,0,-1,1266,1338,0,0
49,-314,0,0,0,0,0,0,0,0,0,-1,1273,1338,0,0
56,-314,0,0,0,0,0,0,0,0,0,-1,1280,1338,0,0
63,-314,0,0,0,0,0,0,0,0,0,-1,1287,1338,0,0
70,-314,0,0,0,0,0,0,0,0,0,-1,1294,1338,0,0
77,-314,0,0,0,0,0,0,0,0,0,-1,1301,1338,0,0
84,-314,0,0,0,0,0,0,0,0,0,-1,1308,1338,0,0
91,-314,0,0,0,0,0,0,0,0,0,-1,1315,1338,0,0
98,-314,0,0,0,0,0,0,0,0,0,-1,1322,1338,0,0
105,-314,0,0,0,0,0,0,0,0,0,-1,1329,1338,0,0
112,-314,0,0,0,0,0,0,0,0,0,-1,1336,1338,0,0
119,-314,0,0,0,0,0,0,0,0,0,-1,1343,1338,0,0
126,-314,0,0,0,0,0,0,0,0,0,-1,1350,1338,0,0
133,-314,0,0,0,0,0,0,0,0,0,-1,1357,1338,0,0
140,-314,0,0,0,0,0,0,0,0,0,-1,1364,1338,0,0
147,-314,0,0,0,0,0,0,0,0,0,-1,1371,1338,0,0
154,-314,0,0,0,0,0,0,0,0,0,-1,1378,1338,0,0
161,-314,0,0,0,0,0,0,0,0,0,-1,1385,1338,0,0
168,-314,0,0,0,0,0,0,0,0,0,-1,1392,1338,0,0
175,-314,0,0,0,0,0,0,0,0,0,-1,1399,1338,0,0
182,-314,0,0,0,0,0,0,0,0,0,-1,1406,1338,0,0
189,-314,0,0,0,0,0,0,0,0,0,-1,1413,1338,0,0
196,-314,0,0,0,0,0,0,0,0,0,-1,1420,1338,0,0
203,-314,0,0,0,0,0,0,0,0,0,-1,1427,1338,0,0
210,-314,0,0,0,0,0,0,0,0,0,-1,1434,1338,0,0
217,-314,0,0,0,0,0,0,0,0,0,-1,1441,1338,0,0
224,-314,0,0,0,0,0,0,0,0,0,-1,1448,1338,0,0
231,-314,0,0,0,0,0,0,0,0,0,-1,1455,1338,0,0
238,-314,0,0,0,0,0,0,0,0,0,-1,1462,1338,0,0
245,-314,0,0,0,0,0,0,0,0,0,-1,1469,1338,0,0
252,-314,0,0,0,0,0,0,0,0,0,-1,1476,1338,0,0
259,-314,0,0,0,0,0,0,0,0,0,-1,1483,1338,0,0
266,-314,0,0,0,0,0,0,0,0,0,-1,1490,1338,0,0
273,-314,0,0,0,0,0,0,0,0,0,-1,1497,1338,0,0
280,-314,0,0,0,0,0,0,0,0,0,-1,1504,1338,0,0
287,-314,0,0,0,0,0,0,0,0,0,-1,1511,1338,0,0
294,-314,0,0,0,0,0,0,0,0,0,-1,1518,1338,0,0
301,-314,0,0,0,0,0,0,0,0,0,-1,1525,1338,0,0
308,-314,0,0,0,0,0,0,0,0,0,-1,1532,1338,0,0
315,-314,0,0,0,0,0,0,0,0,0,-1,1539,1338,0,0
322,-314,0,0,0,0,0,0,0,0,0,-1,1546,1338,0,0
329,-314,0,0,0,0,0,0,0,0,0,-1,1553,1338,0,0
336,-314,0,0,0,0,0,0,0,0,0,-1,1560,1338,0,0
343,-314,0,0,0,0,0,0,0,0,0,-1,1567,1338,0,0
350,-314,0,0,0,0,0,0,0,0,0,-1,1574,1338,0,0
357,-314,0,0,0,0,0,0,0,0,0,-1,1581,1338,0,0
364,-314,0,0,0,0,0,0,0,0,0,-1,1588,1338,0,0
371,-314,0,0,0,0,0,0,0,0,0,-1,1595,1338,0,0
378,-314,0,0,0,0,0,0,0,0,0,-1,1602,1338,0,0
385,-314,0,0,0,0,0,0,0,0,0,-1,1609,1338,0,0
392,-314,0,0,0,0,0,0,0,0,0,-1,1616,1338,0,0
399,-314,0,0,0,0,0,0,0,0,0,-1,1623,1338,0,0
406,-314,0,0,0,0,0,0,0,0,0,-1,1630,1338,0,0
413,-314,0,0,0,0,0,0,0,0,0,-1,1637,1338,0,0
420,-314,0,0,0,0,0,0,0,0,0,-1,1644,1338,0,0
427,-314,0,0,0,0,0,0,0,0,0,-1,1651,1338,0,0
434,-314,0,0,0,0,0,0,0,0,0,-1,1658,1338,0,0
441,-314,0,0,0,0,0,0,0,0,0,-1,1665,1338,0,0
448,-314,0,0,0,0,0,0,0,0,0,-1,1672,1338,0,0
455,-314,0,0,0,0,0,0,0,0,0,-1,1679,1338,0,0
462,-314,0,0,0,0,0,0,0,0,0,-1,1686,1338,0,0
469,-314,0,0,0,0,0,0,0,0,0,-1,1693,1338,0,0
476,-314,0,0,0,0,0,0,0,0,0,-1,1700,1338,0,0
483,-314,0,0,0,0,0,0,0,0,0,-1,1707,1338,0,0
490,-314,0,0,0,0,0,0,0,0,0,-1,1714,1338,0,0
497,-314,0,0,0,0,0,0,0,0,0,-1,1721,1338,0,0
504,-314,0,0,0,0,0,0,0,0,0,-1,1728,1338,0,0
511,-314,0,0,0,0,0,0,0,0,0,-1,1735,1338,0,0
518,-314,0,0,0,0,0,0,0,0,0,-1,1742,1338,0,0
525,-314,0,0,0,0,0,0,0,0,0,-1,1749,1338,0,0
532,-314,0,0,0,0,0,0,0,0,0,-1,1756,1338,0,0
539,-314,0,0,0,0,0,0,0,0,0,-1,1763,1338,0,0
546,-314,0,0,0,0,0,0,0,0,0,-1,1770,1338,0,0
553,-314,0,0,0,0,0,0,0,0,0,-1,1777,1338,0,0
560,-314,0,0,0,0,0,0,0,0,0,-1,1784,1338,0,0
567,-314,0,0,0,0,0,0,0,0,0,-1,1791,1338,0,0
574,-314,0,0,0,0,0,0,0,0,0,-1,1798,1338,0,0
581,-314,66.1637,1.86658,0,0,0,0,0,0,0,-1,1805,1338,66.1637,-1.86663
588,-314,66.4303,1.43481,0,0,0,0,0,0,0,-1,1812,1338,66.4303,-1.43487
595,-314,66.7465,0.982788,0,0,0,0,0,0,0,-1,1819,1338,66.7464,-0.982795
602,-314,66.322,1.38416,0,0,0,0,0,0,0,-1,1826,1338,66.322,-1.3842
609,-314,60.2225,1.27014,0,0,0,0,0,0,0,-1,1833,1338,60.2225,-1.27017
616,-314,48.1149,3.005,0,0,0,0,0,0,0,-1,1840,1338,48.1149,-3.00505
623,-314,38.7728,2.71741,0,0,0,0,0,0,0,-1,1847,1338,38.7728,-2.71737
630,-314,29.4308,6.23206,0,0,0,0,0,0,0,-1,1854,1338,29.4308,-6.23202
637,-314,22.1349,5.16418,0,0,0,0,0,0,0,-1,1861,1338,22.1349,-5.16414
644,-314,18.7517,6.2605,0,0,0,0,0,0,0,-1,1868,1338,18.7517,-6.26053
651,-314,23.1317,8.005,0,0,0,0,0,0,0,-1,1875,1338,23.1317,-8.00506
658,-314,49.9191,18.822,0,0,0,0,0,0,0,-1,1882,1338,49.9191,-18.8221
665,-314,51.3147,18.7815,0,0,0,0,0,0,0,-1,1889,1338,51.3147,-18.7815
672,-314,51.2609,17.9149,-0.000323771,0.00384728,0.000212845,0.00385811,-0.000334604,1.51994,0.00269055,0.0145444,1896,1338,51.2609,-17.9149
679,-314,51.2212,17.0533,0.000865378,0.000738872,-0.000623489,0.00142881,0.000175435,-0.734846,0.000899783,0.0110804,1903,1338,51.2212,-17.0533
686,-314,51.1488,16.2059,0.00128521,0.000189063,-0.00068864,0.00161725,-0.000142983,-0.449287,0.00112885,0.0134331,1910,1338,51.1488,-16.206
693,-314,51.0985,15.3428,0.0013186,3.8801e-05,-0.000328565,0.00139802,-4.06231e-05,-0.23718,0.000945847,0.0138778,1917,1338,51.0985,-15.3427
700,-314,51.0652,14.4872,0.0012652,-0.000250094,2.11721e-05,0.00126549,-0.00025039,0.0139686,0.000938328,0.0152435,1924,1338,51.0652,-14.4872
707,-314,51.0385,13.6592,0.00111081,-0.000624136,0.000421758,0.0012079,-0.00072123,0.22627,0.00112553,0.0143781,1931,1338,51.0385,-13.6592
714,-314,50.9923,12.88,0.000811132,-0.00117255,0.000860049,0.00113209,-0.0014935,0.357176,0.00152066,0.0123025,1938,1338,50.9923,-12.88
721,-314,50.9576,12.0916,0.000324598,-0.00199911,0.00133597,0.00093326,-0.00260777,0.427497,0.00211924,0.026352,1945,1338,50.9577,-12.0916
728,-314,51.0164,11.2922,0,0,0,0,0,0,0,-1,1952,1338,51.0164,-11.2922
735,-314,26.3665,6.21582,0,0,0,0,0,0,0,-1,1959,1338,26.3664,-6.21581
742,-314,26.2235,6.0166,0,0,0,0,0,0,0,-1,1966,1338,26.2235,-6.01662
749,-314,26.2223,5.47046,0,0,0,0,0,0,0,-1,1973,1338,26.2223,-5.47041
756,-314,24.2521,5.93408,0,0,0,0,0,0,0,-1,1980,1338,24.252,-5.93413
763,-314,19.2207,4.07239,0,0,0,0,0,0,0,-1,1987,1338,19.2206,-4.07239
770,-314,0,0,0,0,0,0,0,0,0,-1,1994,1338,0,0
777,-314,0,0,0,0,0,0,0,0,0,-1,2001,1338,0,0
784,-314,0,0,0,0,0,0,0,0,0,-1,2008,1338,0,0
791,-314,0,0,0,0,0,0,0,0,0,-1,2015,1338,0,0
798,-314,0,0,0,0,0,0,0,0,0,-1,2022,1338,0,0
805,-314,0,0,0,0,0,0,0,0,0,-1,2029,1338,0,0
812,-314,0,0,0,0,0,0,0,0,0,-1,2036,1338,0,0
-700,-321,0,0,0,0,0,0,0,0,0,-1,524,1345,0,0
-693,-321,0,0,0,0,0,0,0,0,0,-1,531,1345,0,0
-686,-321,0,0,0,0,0,0,0,0,0,-1,538,1345,0,0
-679,-321,0,0,0,0,0,0,0,0,0,-1,545,1345,0,0
-672,-321,0,0,0,0,0,0,0,0,0,-1,552,1345,0,0
-665,-321,0,0,0,0,0,0,0,0,0,-1,559,1345,0,0
-658,-321,0,0,0,0,0,0,0,0,0,-1,566,1345,0,0
-651,-321,0,0,0,0,0,0,0,0,0,-1,573,1345,0,0
-644,-321,-58.7329,10.2313,0,0,0,0,0,0,0,-1,580,1345,-58.7329,-10.2313
-637,-321,-59.9981,9.06421,0,0,0,0,0,0,0,-1,587,1345,-59.9981,-9.06417
-630,-321,-61.377,8.07166,0,0,0,0,0,0,0,-1,594,1345,-61.3769,-8.07168
-623,-321,-13.2242,3.14148,0,0,0,0,0,0,0,-1,601,1345,-13.2243,-3.14146
-616,-321,-11.6754,3.13794,0,0,0,0,0,0,0,-1,608,1345,-11.6754,-3.13789
-609,-321,-7.95209,1.14758,0,0,0,0,0,0,0,-1,615,1345,-7.95208,-1.14757
-602,-321,-8.85791,2.50049,0,0,0,0,0,0,0,-1,622,1345,-8.85791,-2.50048
-595,-321,-19.8463,5.36584,0,0,0,0,0,0,0,-1,629,1345,-19.8462,-5.36589
-588,-321,-33.1077,11.8053,0,0,0,0,0,0,0,-1,636,1345,-33.1077,-11.8053
-581,-321,-33.0065,12.7589,0.00371377,0.00388336,0.00245725,0.00625727,0.00133985,0.802645,0.00380437,0.0147057,643,1345,-33.0065,-12.7589
-574,-321,-33.0913,13.63,0.00327656,0.00295178,0.00190745,0.00502852,0.00119982,0.742932,0.00303258,0.0160909,650,1345,-33.0913,-13.63
-567,-321,-33.1366,14.509,0.00314106,0.00214071,0.00153985,0.00425993,0.00102184,0.628363,0.00256802,0.023116,657,1345,-33.1366,-14.5091
-560,-321,-33.1471,15.433,0.00328803,0.00143939,0.00137727,0.0040224,0.000705027,0.489857,0.00248022,0.0267882,664,1345,-33.1471,-15.4329
-553,-321,-33.1652,16.2635,0.00368076,0.000842188,0.00139991,0.00425499,0.000267956,0.389262,0.00275169,0.028241,671,1345,-33.1652,-16.2635
-546,-321,-33.1784,17.1077,0.00432356,0.000322612,0.00160407,0.00488725,-0.000241075,0.337932,0.00334143,0.0295349,678,1345,-33.1784,-17.1076
-539,-321,-33.2292,17.9377,0.00526644,-7.98328e-05,0.00203739,0.00595435,-0.000767743,0.325624,0.00424866,0.0261496,685,1345,-33.2292,-17.9378
-532,-321,-33.2516,18.8058,0.00666848,-0.000349025,0.0027293,0.00760499,-0.00128554,0.330546,0.00554838,0.0371517,692,1345,-33.2517,-18.8057
-525,-321,-33.2993,19.6649,0,0,0,0,0,0,0,-1,699,1345,-33.2993,-19.665
-518,-321,-10.3564,6.75696,0,0,0,0,0,0,0,-1,706,1345,-10.3564,-6.75694
-511,-321,-9.3302,5.29297,0,0,0,0,0,0,0,-1,713,1345,-9.33023,-5.29294
-504,-321,-10.4713,0.0145264,0,0,0,0,0,0,0,-1,720,1345,-10.4713,-0.0145296
-497,-321,-9.96771,0.313599,0,0,0,0,0,0,0,-1,727,1345,-9.96769,-0.313618
-490,-321,-10.7631,0.973511,0,0,0,0,0,0,0,-1,734,1345,-10.7631,-0.97353
-483,-321,-17.5908,0.2323,0,0,0,0,0,0,0,-1,741,1345,-17.5908,-0.232355
-476,-321,-17.2915,0.297363,0,0,0,0,0,0,0,-1,748,1345,-17.2915,-0.297342
-469,-321,-17.2441,0.478027,0,0,0,0,0,0,0,-1,755,1345,-17.2441,-0.477994
-462,-321,-17.1672,0.526489,0,0,0,0,0,0,0,-1,762,1345,-17.1672,-0.526533
-455,-321,0,0,0,0,0,0,0,0,0,-1,769,1345,0,0
-448,-321,0,0,0,0,0,0,0,0,0,-1,776,1345,0,0
-441,-321,0,0,0,0,0,0,0,0,0,-1,783,1345,0,0
-434,-321,0,0,0,0,0,0,0,0,0,-1,790,1345,0,0
-427,-321,0,0,0,0,0,0,0,0,0,-1,797,1345,0,0
-420,-321,0,0,0,0,0,0,0,0,0,-1,804,1345,0,0
-413,-321,0,0,0,0,0,0,0,0,0,-1,811,1345,0,0
-406,-321,0,0,0,0,0,0,0,0,0,-1,818,1345,0,0
-399,-321,0,0,0,0,0,0,0,0,0,-1,825,1345,0,0
-392,-321,0,0,0,0,0,0,0,0,0,-1,832,1345,0,0
-385,-321,0,0,0,0,0,0,0,0,0,-1,839,1345,0,0
-378,-321,0,0,0,0,0,0,0,0,0,-1,846,1345,0,0
-371,-321,0,0,0,0,0,0,0,0,0,-1,853,1345,0,0
-364,-321,0,0,0,0,0,0,0,0,0,-1,860,1345,0,0
-357,-321,0,0,0,0,0,0,0,0,0,-1,867,1345,0,0
-350,-321,0,0,0,0,0,0,0,0,0,-1,874,1345,0,0
-343,-321,0,0,0,0,0,0,0,0,0,-1,881,1345,0,0
-336,-321,0,0,0,0,0,0,0,0,0,-1,888,1345,0,0
-329,-321,0,0,0,0,0,0,0,0,0,-1,895,1345,0,0
-322,-321,0,0,0,0,0,0,0,0,0,-1,902,1345,0,0
-315,-321,0,0,0,0,0,0,0,0,0,-1,909,1345,0,0
-308,-321,0,0,0,0,0,0,0,0,0,-1,916,1345,0,0
-301,-321,0,0,0,0,0,0,0,0,0,-1,923,1345,0,0
-294,-321,0,0,0,0,0,0,0,0,0,-1,930,1345,0,0
-287,-321,0,0,0,0,0,0,0,0,0,-1,937,1345,0,0
-280,-321,0,0,0,0,0,0,0,0,0,-1,944,1345,0,0
-273,-321,0,0,0,0,0,0,0,0,0,-1,951,1345,0,0
-266,-321,0,0,0,0,0,0,0,0,0,-1,958,1345,0,0
-259,-321,0,0,0,0,0,0,0,0,0,-1,965,1345,0,0
-252,-321,0,0,0,0,0,0,0,0,0,-1,972,1345,0,0
-245,-321,0,0,0,0,0,0,0,0,0,-1,979,1345,0,0
-238,-321,0,0,0,0,0,0,0,0,0,-1,986,1345,0,0
-231,-321,0,0,0,0,0,0,0,0,0,-1,993,1345,0,0
-224,-321,0,0,0,0,0,0,0,0,0,-1,1000,1345,0,0
-217,-321,0,0,0,0,0,0,0,0,0,-1,1007,1345,0,0
-210,-321,0,0,0,0,0,0,0,0,0,-1,1014,1345,0,0
-203,-321,0,0,0,0,0,0,0,0,0,-1,1021,1345,0,0
-196,-321,0,0,0,0,0,0,0,0,0,-1,1028,1345,0,0
-189,-321,0,0,0,0,0,0,0,0,0,-1,1035,1345,0,0
-182,-321,0,0,0,0,0,0,0,0,0,-1,1042,1345,0,0
-175,-321,0,0,0,0,0,0,0,0,0,-1,1049,1345,0,0
-168,-321,0,0,0,0,0,0,0,0,0,-1,1056,1345,0,0
-161,-321,0,0,0,0,0,0,0,0,0,-1,1063,1345,0,0
-154,-321,0,0,0,0,0,0,0,0,0,-1,1070,1345,0,0
-147,-321,0,0,0,0,0,0,0,0,0,-1,1077,1345,0,0
-140,-321,0,0,0,0,0,0,0,0,0,-1,1084,1345,0,0
-133,-321,0,0,0,0,0,0,0,0,0,-1,1091,1345,0,0
-126,-321,0,0,0,0,0,0,0,0,0,-1,1098,1345,0,0
-119,-321,0,0,0,0,0,0,0,0,0,-1,1105,1345,0,0
-112,-321,0,0,0,0,0,0,0,0,0,-1,1112,1345,0,0
-105,-321,0,0,0,0,0,0,0,0,0,-1,1119,1345,0,0
-98,-321,0,0,0,0,0,0,0,0,0,-1,1126,1345,0,0
-91,-321,0,0,0,0,0,0,0,0,0,-1,1133,1345,0,0
-84,-321,0,0,0,0,0,0,0,0,0,-1,1140,1345,0,0
-77,-321,0,0,0,0,0,0,0,0,0,-1,1147,1345,0,0
-70,-321,0,0,0,0,0,0,0,0,0,-1,1154,1345,0,0
-63,-321,0,0,0,0,0,0,0,0,0,-1,1161,1345,0,0
-56,-321,0,0,0,0,0,0,0,0,0,-1,1168,1345,0,0
-49,-321,0,0,0,0,0,0,0,0,0,-1,1175,1345,0,0
-42,-321,0,0,0,0,0,0,0,0,0,-1,1182,1345,0,0
-35,-321,0,0,0,0,0,0,0,0,0,-1,1189,1345,0,0
-28,-321,0,0,0,0,0,0,0,0,0,-1,1196,1345,0,0
-21,-321,0,0,0,0,0,0,0,0,0,-1,1203,1345,0,0
-14,-321,0,0,0,0,0,0,0,0,0,-1,1210,1345,0,0
-7,-321,0,0,0,0,0,0,0,0,0,-1,1217,1345,0,0
0,-321,0,0,0,0,0,0,0,0,0,-1,1224,1345,0,0
7,-321,0,0,0,0,0,0,0,0,0,-1,1231,1345,0,0
14,-321,0,0,0,0,0,0,0,0,0,-1,1238,1345,0,0
21,-321,0,0,0,0,0,0,0,0,0,-1,1245,1345,0,0
28,-321,0,0,0,0,0,0,0,0,0,-1,1252,1345,0,0
35,-321,0,0,0,0,0,0,0,0,0,-1,1259,1345,0,0
42,-321,0,0,0,0,0,0,0,0,0,-1,1266,1345,0,0
49,-321,0,0,0,0,0,0,0,0,0,-1,1273,1345,0,0
56,-321,0,0,0,0,0,0,0,0,0,-1,1280,1345,0,0
63,-321,0,0,0,0,0,0,0,0,0,-1,1287,1345,0,0
70,-321,0,0,0,0,0,0,0,0,0,-1,1294,1345,0,0
77,-321,0,0,0,0,0,0,0,0,0,-1,1301,1345,0,0
84,-321,0,0,0,0,0,0,0,0,0,-1,1308,1345,0,0
91,-321,0,0,0,0,0,0,0,0,0,-1,1315,1345,0,0
98,-321,0,0,0,0,0,0,0,0,0,-1,1322,1345,0,0
105,-321,0,0,0,0,0,0,0,0,0,-1,1329,1345,0,0
112,-321,0,0,0,0,0,0,0,0,0,-1,1336,1345,0,0
119,-321,0,0,0,0,0,0,0,0,0,-1,1343,1345,0,0
126,-321,0,0,0,0,0,0,0,0,0,-1,1350,1345,0,0
133,-321,0,0,0,0,0,0,0,0,0,-1,1357,1345,0,0
140,-321,0,0,0,0,0,0,0,0,0,-1,1364,1345,0,0
147,-321,0,0,0,0,0,0,0,0,0,-1,1371,1345,0,0
154,-321,0,0,0,0,0,0,0,0,0,-1,1378,1345,0,0
161,-321,0,0,0,0,0,0,0,0,0,-1,1385,1345,0,0
168,-321,0,0,0,0,0,0,0,0,0,-1,1392,1345,0,0
175,-321,0,0,0,0,0,0,0,0,0,-1,1399,1345,0,0
182,-321,0,0,0,0,0,0,0,0,0,-1,1406,1345,0,0
189,-321,0,0,0,0,0,0,0,0,0,-1,1413,1345,0,0
196,-321,0,0,0,0,0,0,0,0,0,-1,1420,1345,0,0
203,-321,0,0,0,0,0,0,0,0,0,-1,1427,1345,0,0
210,-321,0,0,0,0,0,0,0,0,0,-1,1434,1345,0,0
217,-321,0,0,0,0,0,0,0,0,0,-1,1441,1345,0,0
224,-321,0,0,0,0,0,0,0,0,0,-1,1448,1345,0,0
231,-321,0,0,0,0,0,0,0,0,0,-1,1455,1345,0,0
238,-321,0,0,0,0,0,0,0,0,0,-1,1462,1345,0,0
245,-321,0,0,0,0,0,0,0,0,0,-1,1469,1345,0,0
252,-321,0,0,0,0,0,0,0,0,0,-1,1476,1345,0,0
259,-321,0,0,0,0,0,0,0,0,0,-1,1483,1345,0,0
266,-321,0,0,0,0,0,0,0,0,0,-1,1490,1345,0,0
273,-321,0,0,0,0,0,0,0,0,0,-1,1497,1345,0,0
280,-321,0,0,0,0,0,0,0,0,0,-1,1504,1345,0,0
287,-321,0,0,0,0,0,0,0,0,0,-1,1511,1345,0,0
294,-321,0,0,0,0,0,0,0,0,0,-1,1518,1345,0,0
301,-321,0,0,0,0,0,0,0,0,0,-1,1525,1345,0,0
308,-321,0,0,0,0,0,0,0,0,0,-1,1532,1345,0,0
315,-321,0,0,0,0,0,0,0,0,0,-1,1539,1345,0,0
322,-321,0,0,0,0,0,0,0,0,0,-1,1546,1345,0,0
329,-321,0,0,0,0,0,0,0,0,0,-1,1553,1345,0,0
336,-321,0,0,0,0,0,0,0,0,0,-1,1560,1345,0,0
343,-321,0,0,0,0,0,0,0,0,0,-1,1567,1345,0,0
350,-321,0,0,0,0,0,0,0,0,0,-1,1574,1345,0,0
357,-321,0,0,0,0,0,0,0,0,0,-1,1581,1345,0,0
364,-321,0,0,0,0,0,0,0,0,0,-1,1588,1345,0,0
371,-321,0,0,0,0,0,0,0,0,0,-1,1595,1345,0,0
378,-321,0,0,0,0,0,0,0,0,0,-1,1602,1345,0,0
385,-321,0,0,0,0,0,0,0,0,0,-1,1609,1345,0,0
392,-321,0,0,0,0,0,0,0,0,0,-1,1616,1345,0,0
399,-321,0,0,0,0,0,0,0,0,0,-1,1623,1345,0,0
406,-321,0,0,0,0,0,0,0,0,0,-1,1630,1345,0,0
413,-321,0,0,0,0,0,0,0,0,0,-1,1637,1345,0,0
420,-321,0,0,0,0,0,0,0,0,0,-1,1644,1345,0,0
427,-321,0,0,0,0,0,0,0,0,0,-1,1651,1345,0,0
434,-321,0,0,0,0,0,0,0,0,0,-1,1658,1345,0,0
441,-321,0,0,0,0,0,0,0,0,0,-1,1665,1345,0,0
448,-321,0,0,0,0,0,0,0,0,0,-1,1672,1345,0,0
455,-321,0,0,0,0,0,0,0,0,0,-1,1679,1345,0,0
462,-321,0,0,0,0,0,0,0,0,0,-1,1686,1345,0,0
469,-321,0,0,0,0,0,0,0,0,0,-1,1693,1345,0,0
476,-321,0,0,0,0,0,0,0,0,0,-1,1700,1345,0,0
483,-321,0,0,0,0,0,0,0,0,0,-1,1707,1345,0,0
490,-321,0,0,0,0,0,0,0,0,0,-1,1714,1345,0,0
497,-321,0,0,0,0,0,0,0,0,0,-1,1721,1345,0,0
504,-321,0,0,0,0,0,0,0,0,0,-1,1728,1345,0,0
511,-321,0,0,0,0,0,0,0,0,0,-1,1735,1345,0,0
518,-321,0,0,0,0,0,0,0,0,0,-1,1742,1345,0,0
525,-321,0,0,0,0,0,0,0,0,0,-1,1749,1345,0,0
532,-321,0,0,0,0,0,0,0,0,0,-1,1756,1345,0,0
539,-321,0,0,0,0,0,0,0,0,0,-1,1763,1345,0,0
546,-321,0,0,0,0,0,0,0,0,0,-1,1770,1345,0,0
553,-321,0,0,0,0,0,0,0,0,0,-1,1777,1345,0,0
560,-321,0,0,0,0,0,0,0,0,0,-1,1784,1345,0,0
567,-321,0,0,0,0,0,0,0,0,0,-1,1791,1345,0,0
574,-321,0,0,0,0,0,0,0,0,0,-1,1798,1345,0,0
581,-321,66.1073,1.6543,0,0,0,0,0,0,0,-1,1805,1345,66.1073,-1.65427
588,-321,66.6576,0.7948,0,0,0,0,0,0,0,-1,1812,1345,66.6575,-0.794774
595,-321,67.2585,-0.216431,0,0,0,0,0,0,0,-1,1819,1345,67.2586,0.216484
602,-321,60.3523,1.24133,0,0,0,0,0,0,0,-1,1826,1345,60.3523,-1.2413
609,-321,48.311,3.39575,0,0,0,0,0,0,0,-1,1833,1345,48.311,-3.39571
616,-321,37.8107,2.58704,0,0,0,0,0,0,0,-1,1840,1345,37.8106,-2.58705
623,-321,37.6854,3.68933,0,0,0,0,0,0,0,-1,1847,1345,37.6854,-3.68931
630,-321,23.6674,4.34106,0,0,0,0,0,0,0,-1,1854,1345,23.6674,-4.34112
637,-321,21.7925,6.79224,0,0,0,0,0,0,0,-1,1861,1345,21.7925,-6.7922
644,-321,16.8844,6.71973,0,0,0,0,0,0,0,-1,1868,1345,16.8844,-6.71971
651,-321,27.4924,10.0319,0,0,0,0,0,0,0,-1,1875,1345,27.4924,-10.0319
658,-321,50.3987,19.6218,0,0,0,0,0,0,0,-1,1882,1345,50.3987,-19.6219
665,-321,50.4205,18.8026,-0.000732759,0.00594963,0.000352123,0.00596813,-0.000751263,1.5183,0.00425136,0.0318531,1889,1345,50.4205,-18.8026
672,-321,50.4149,17.9592,0.000451882,0.00229418,-0.000328872,0.00235112,0.000394935,-1.39934,0.00145376,0.0141207,1896,1345,50.4149,-17.9592
679,-321,50.374,17.1045,0.00109438,0.000513919,-0.000736866,0.00159611,1.21861e-05,-0.597792,0.00106004,0.0127133,1903,1345,50.374,-17.1045
686,-321,50.2952,16.2526,0.00131407,0.000239877,-0.000660232,0.00162808,-7.41307e-05,-0.44394,0.00111092,0.013758,1910,1345,50.2952,-16.2525
693,-321,50.2444,15.4159,0.00146239,0.000128795,-0.000405934,0.00157623,1.49505e-05,-0.273427,0.00104587,0.0137148,1917,1345,50.2444,-15.4159
700,-321,50.2372,14.5603,0.0015358,-0.000107267,-0.000147048,0.00154886,-0.000120323,-0.0885579,0.00107493,0.0139064,1924,1345,50.2372,-14.5603
707,-321,50.2013,13.7273,0.00151122,-0.000414822,0.000176058,0.00152718,-0.000430784,0.0904108,0.00118804,0.0157337,1931,1345,50.2014,-13.7273
714,-321,50.1586,12.9121,0.00134221,-0.000873182,0.000548775,0.00147069,-0.00100167,0.229989,0.00143595,0.0151183,1938,1345,50.1585,-12.9121
721,-321,50.0814,12.0684,0.000969265,-0.00164229,0.00100298,0.00131,-0.00198303,0.327495,0.00191442,0.0429102,1945,1345,50.0815,-12.0683
728,-321,50.0792,11.2678,0,0,0,0,0,0,0,-1,1952,1345,50.0793,-11.2678
735,-321,22.0081,5.65479,0,0,0,0,0,0,0,-1,1959,1345,22.008,-5.65481
742,-321,24.5398,5.05725,0,0,0,0,0,0,0,-1,1966,1345,24.5398,-5.05729
749,-321,24.0675,5.4458,0,0,0,0,0,0,0,-1,1973,1345,24.0675,-5.44581
756,-321,19.6251,4.98315,0,0,0,0,0,0,0,-1,1980,1345,19.6251,-4.98311
763,-321,19.6747,4.61438,0,0,0,0,0,0,0,-1,1987,1345,19.6747,-4.61436
770,-321,0,0,0,0,0,0,0,0,0,-1,1994,1345,0,0
777,-321,0,0,0,0,0,0,0,0,0,-1,2001,1345,0,0
784,-321,0,0,0,0,0,0,0,0,0,-1,2008,1345,0,0
791,-321,0,0,0,0,0,0,0,0,0,-1,2015,1345,0,0
798,-321,0,0,0,0,0,0,0,0,0,-1,2022,1345,0,0
805,-321,0,0,0,0,0,0,0,0,0,-1,2029,1345,0,0
812,-321,0,0,0,0,0,0,0,0,0,-1,2036,1345,0,0
-700,-328,0,0,0,0,0,0,0,0,0,-1,524,1352,0,0
-693,-328,0,0,0,0,0,0,0,0,0,-1,531,1352,0,0
-686,-328,0,0,0,0,0,0,0,0,0,-1,538,1352,0,0
-679,-328,0,0,0,0,0,0,0,0,0,-1,545,1352,0,0
-672,-328,0,0,0,0,0,0,0,0,0,-1,552,1352,0,0
-665,-328,0,0,0,0,0,0,0,0,0,-1,559,1352,0,0
-658,-328,0,0,0,0,0,0,0,0,0,-1,566,1352,0,0
-651,-328,0,0,0,0,0,0,0,0,0,-1,573,1352,0,0
-644,-328,0,0,0,0,0,0,0,0,0,-1,580,1352,0,0
-637,-328,-61.3883,10.1125,0,0,0,0,0,0,0,-1,587,1352,-61.3883,-10.1126
-630,-328,-62.8012,9.14563,0,0,0,0,0,0,0,-1,594,1352,-62.8012,-9.14564
-623,-328,-10.7739,4.55042,0,0,0,0,0,0,0,-1,601,1352,-10.7739,-4.55041
-616,-328,-8.22198,-0.25708,0,0,0,0,0,0,0,-1,608,1352,-8.22201,0.257067
-609,-328,-7.87439,0.192871,0,0,0,0,0,0,0,-1,615,1352,-7.87441,-0.192822
-602,-328,-7.63062,1.31665,0,0,0,0,0,0,0,-1,622,1352,-7.63064,-1.3166
-595,-328,-9.42639,2.93494,0,0,0,0,0,0,0,-1,629,1352,-9.42638,-2.93499
-588,-328,-32.2741,11.6392,0,0,0,0,0,0,0,-1,636,1352,-32.2741,-11.6391
-581,-328,-32.1831,12.7455,0.00426292,0.00477625,0.00298315,0.00751376,0.00152541,0.828312,0.00458606,0.0279984,643,1352,-32.1831,-12.7455
-574,-328,-32.2022,13.677,0.00365396,0.00367724,0.00235844,0.00602407,0.00130713,0.787865,0.00365901,0.0156083,650,1352,-32.2022,-13.6771
-567,-328,-32.2774,14.5594,0.00339071,0.00274926,0.00192529,0.00502181,0.00111816,0.702864,0.00304439,0.0218297,657,1352,-32.2774,-14.5594
-560,-328,-32.3125,15.4974,0.0034417,0.00196698,0.00172131,0.00457693,0.000831751,0.583037,0.0028153,0.0297853,664,1352,-32.3125,-15.4974
-553,-328,-32.3284,16.3667,0.00372681,0.0012954,0.00169245,0.00459493,0.000427275,0.473944,0.00293126,0.0310586,671,1352,-32.3284,-16.3666
-546,-328,-32.3085,17.1857,0.00425694,0.000724387,0.00183573,0.00503815,-5.68146e-05,0.402339,0.00337786,0.0296807,678,1352,-32.3085,-17.1857
-539,-328,-32.3589,17.9891,0.00504089,0.000264099,0.00217114,0.00588024,-0.000575245,0.368893,0.0041253,0.0241611,685,1352,-32.3589,-17.9892
-532,-328,-32.4429,18.8837,0.00619024,-8.00976e-05,0.00271898,0.00720503,-0.00109488,0.357212,0.00520683,0.0195549,692,1352,-32.4429,-18.8836
-525,-328,-32.4758,19.813,0.0076536,-0.000312653,0.0035445,0.00900234,-0.00166139,0.363598,0.00662516,0.0345252,699,1352,-32.4758,-19.813
-518,-328,-32.6291,20.7542,0,0,0,0,0,0,0,-1,706,1352,-32.6291,-20.7541
-511,-328,-9.39868,7.16113,0,0,0,0,0,0,0,-1,713,1352,-9.39869,-7.16113
-504,-328,-8.60626,-0.905762,0,0,0,0,0,0,0,-1,720,1352,-8.60623,0.905787
-497,-328,-9.29102,-0.0517578,0,0,0,0,0,0,0,-1,727,1352,-9.29104,0.0518175
-490,-328,-10.0663,0.882813,0,0,0,0,0,0,0,-1,734,1352,-10.0663,-0.882795
-483,-328,-10.8181,1.72375,0,0,0,0,0,0,0,-1,741,1352,-10.8181,-1.72374
-476,-328,-16.8951,-0.150757,0,0,0,0,0,0,0,-1,748,1352,-16.8951,0.150795
-469,-328,-16.8412,0.00158691,0,0,0,0,0,0,0,-1,755,1352,-16.8412,-0.00161515
-462,-328,-16.3546,-0.203491,0,0,0,0,0,0,0,-1,762,1352,-16.3545,0.203532
-455,-328,0,0,0,0,0,0,0,0,0,-1,769,1352,0,0
-448,-328,0,0,0,0,0,0,0,0,0,-1,776,1352,0,0
-441,-328,0,0,0,0,0,0,0,0,0,-1,783,1352,0,0
-434,-328,0,0,0,0,0,0,0,0,0,-1,790,1352,0,0
-427,-328,0,0,0,0,0,0,0,0,0,-1,797,1352,0,0
-420,-328,0,0,0,0,0,0,0,0,0,-1,804,1352,0,0
-413,-328,0,0,0,0,0,0,0,0,0,-1,811,1352,0,0
-406,-328,0,0,0,0,0,0,0,0,0,-1,818,1352,0,0
-399,-328,0,0,0,0,0,0,0,0,0,-1,825,1352,0,0
-392,-328,0,0,0,0,0,0,0,0,0,-1,832,1352,0,0
-385,-328,0,0,0,0,0,0,0,0,0,-1,839,1352,0,0
-378,-328,0,0,0,0,0,0,0,0,0,-1,846,1352,0,0
-371,-328,0,0,0,0,0,0,0,0,0,-1,853,1352,0,0
-364,-328,0,0,0,0,0,0,0,0,0,-1,860,1352,0,0
-357,-328,0,0,0,0,0,0,0,0,0,-1,867,1352,0,0
-350,-328,0,0,0,0,0,0,0,0,0,-1,874,1352,0,0
-343,-328,0,0,0,0,0,0,0,0,0,-1,881,1352,0,0
-336,-328,0,0,0,0,0,0,0,0,0,-1,888,1352,0,0
-329,-328,0,0,0,0,0,0,0,0,0,-1,895,1352,0,0
-322,-328,0,0,0,0,0,0,0,0,0,-1,902,1352,0,0
-315,-328,0,0,0,0,0,0,0,0,0,-1,909,1352,0,0
-308,-328,0,0,0,0,0,0,0,0,0,-1,916,1352,0,0
-301,-328,0,0,0,0,0,0,0,0,0,-1,923,1352,0,0
-294,-328,0,0,0,0,0,0,0,0,0,-1,930,1352,0,0
-287,-328,0,0,0,0,0,0,0,0,0,-1,937,1352,0,0
-280,-328,0,0,0,0,0,0,0,0,0,-1,944,1352,0,0
-273,-328,0,0,0,0,0,0,0,0,0,-1,951,1352,0,0
-266,-328,0,0,0,0,0,0,0,0,0,-1,958,1352,0,0
-259,-328,0,0,0,0,0,0,0,0,0,-1,965,1352,0,0
-252,-328,0,0,0,0,0,0,0,0,0,-1,972,1352,0,0
-245,-328,0,0,0,0,0,0,0,0,0,-1,979,1352,0,0
-238,-328,0,0,0,0,0,0,0,0,0,-1,986,1352,0,0
-231,-328,0,0,0,0,0,0,0,0,0,-1,993,1352,0,0
-224,-328,0,0,0,0,0,0,0,0,0,-1,1000,1352,0,0
-217,-328,0,0,0,0,0,0,0,0,0,-1,1007,1352,0,0
-210,-328,0,0,0,0,0,0,0,0,0,-1,1014,1352,0,0
-203,-328,0,0,0,0,0,0,0,0,0,-1,1021,1352,0,0
-196,-328,0,0,0,0,0,0,0,0,0,-1,1028,1352,0,0
-189,-328,0,0,0,0,0,0,0,0,0,-1,1035,1352,0,0
-182,-328,0,0,0,0,0,0,0,0,0,-1,1042,1352,0,0
-175,-328,0,0,0,0,0,0,0,0,0,-1,1049,1352,0,0
-168,-328,0,0,0,0,0,0,0,0,0,-1,1056,1352,0,0
-161,-328,0,0,0,0,0,0,0,0,0,-1,1063,1352,0,0
-154,-328,0,0,0,0,0,0,0,0,0,-1,1070,1352,0,0
-147,-328,0,0,0,0,0,0,0,0,0,-1,1077,1352,0,0
-140,-328,0,0,0,0,0,0,0,0,0,-1,1084,1352,0,0
-133,-328,0,0,0,0,0,0,0,0,0,-1,1091,1352,0,0
-126,-328,0,0,0,0,0,0,0,0,0,-1,1098,1352,0,0
-119,-328,0,0,0,0,0,0,0,0,0,-1,1105,1352,0,0
-112,-328,0,0,0,0,0,0,0,0,0,-1,1112,1352,0,0
-105,-328,0,0,0,0,0,0,0,0,0,-1,1119,1352,0,0
-98,-328,0,0,0,0,0,0,0,0,0,-1,1126,1352,0,0
-91,-328,0,0,0,0,0,0,0,0,0,-1,1133,1352,0,0
-84,-328,0,0,0,0,0,0,0,0,0,-1,1140,1352,0,0
-77,-328,0,0,0,0,0,0,0,0,0,-1,1147,1352,0,0
-70,-328,0,0,0,0,0,0,0,0,0,-1,1154,1352,0,0
-63,-328,0,0,0,0,0,0,0,0,0,-1,1161,1352,0,0
-56,-328,0,0,0,0,0,0,0,0,0,-1,1168,1352,0,0
-49,-328,0,0,0,0,0,0,0,0,0,-1,1175,1352,0,0
-42,-328,0,0,0,0,0,0,0,0,0,-1,1182,1352,0,0
-35,-328,0,0,0,0,0,0,0,0,0,-1,1189,1352,0,0
-28,-328,0,0,0,0,0,0,0,0,0,-1,1196,1352,0,0
-21,-328,0,0,0,0,0,0,0,0,0,-1,1203,1352,0,0
-14,-328,0,0,0,0,0,0,0,0,0,-1,1210,1352,0,0
-7,-328,0,0,0,0,0,0,0,0,0,-1,1217,1352,0,0
0,-328,0,0,0,0,0,0,0,0,0,-1,1224,1352,0,0
7,-328,0,0,0,0,0,0,0,0,0,-1,1231,1352,0,0
14,-328,0,0,0,0,0,0,0,0,0,-1,1238,1352,0,0
21,-328,0,0,0,0,0,0,0,0,0,-1,1245,1352,0,0
28,-328,0,0,0,0,0,0,0,0,0,-1,1252,1352,0,0
35,-328,0,0,0,0,0,0,0,0,0,-1,1259,1352,0,0
42,-328,0,0,0,0,0,0,0,0,0,-1,1266,1352,0,0
49,-328,0,0,0,0,0,0,0,0,0,-1,1273,1352,0,0
56,-328,0,0,0,0,0,0,0,0,0,-1,1280,1352,0,0
63,-328,0,0,0,0,0,0,0,0,0,-1,1287,1352,0,0
70,-328,0,0,0,0,0,0,0,0,0,-1,1294,1352,0,0
77,-328,0,0,0,0,0,0,0,0,0,-1,1301,1352,0,0
84,-328,0,0,0,0,0,0,0,0,0,-1,1308,1352,0,0
91,-328,0,0,0,0,0,0,0,0,0,-1,1315,1352,0,0
98,-328,0,0,0,0,0,0,0,0,0,-1,1322,1352,0,0
105,-328,0,0,0,0,0,0,0,0,0,-1,1329,1352,0,0
112,-328,0,0,0,0,0,0,0,0,0,-1,1336,1352,0,0
119,-328,0,0,0,0,0,0,0,0,0,-1,1343,1352,0,0
126,-328,0,0,0,0,0,0,0,0,0,-1,1350,1352,0,0
133,-328,0,0,0,0,0,0,0,0,0,-1,1357,1352,0,0
140,-328,0,0,0,0,0,0,0,0,0,-1,1364,1352,0,0
147,-328,0,0,0,0,0,0,0,0,0,-1,1371,1352,0,0
154,-328,0,0,0,0,0,0,0,0,0,-1,1378,1352,0,0
161,-328,0,0,0,0,0,0,0,0,0,-1,1385,1352,0,0
168,-328,0,0,0,0,0,0,0,0,0,-1,1392,1352,0,0
175,-328,0,0,0,0,0,0,0,0,0,-1,1399,1352,0,0
182,-328,0,0,0,0,0,0,0,0,0,-1,1406,1352,0,0
189,-328,0,0,0,0,0,0,0,0,0,-1,1413,1352,0,0
196,-328,0,0,0,0,0,0,0,0,0,-1,1420,1352,0,0
203,-328,0,0,0,0,0,0,0,0,0,-1,1427,1352,0,0
210,-328,0,0,0,0,0,0,0,0,0,-1,1434,1352,0,0
217,-328,0,0,0,0,0,0,0,0,0,-1,1441,1352,0,0
224,-328,0,0,0,0,0,0,0,0,0,-1,1448,1352,0,0
231,-328,0,0,0,0,0,0,0,0,0,-1,1455,1352,0,0
238,-328,0,0,0,0,0,0,0,0,0,-1,1462,1352,0,0
245,-328,0,0,0,0,0,0,0,0,0,-1,1469,1352,0,0
252,-328,0,0,0,0,0,0,0,0,0,-1,1476,1352,0,0
259,-328,0,0,0,0,0,0,0,0,0,-1,1483,1352,0,0
266,-328,0,0,0,0,0,0,0,0,0,-1,1490,1352,0,0
273,-328,0,0,0,0,0,0,0,0,0,-1,1497,1352,0,0
280,-328,0,0,0,0,0,0,0,0,0,-1,1504,1352,0,0
287,-328,0,0,0,0,0,0,0,0,0,-1,1511,1352,0,0
294,-328,0,0,0,0,0,0,0,0,0,-1,1518,1352,0,0
301,-328,0,0,0,0,0,0,0,0,0,-1,1525,1352,0,0
308,-328,0,0,0,0,0,0,0,0,0,-1,1532,1352,0,0
315,-328,0,0,0,0,0,0,0,0,0,-1,1539,1352,0,0
322,-328,0,0,0,0,0,0,0,0,0,-1,1546,1352,0,0
329,-328,0,0,0,0,0,0,0,0,0,-1,1553,1352,0,0
336,-328,0,0,0,0,0,0,0,0,0,-1,1560,1352,0,0
343,-328,0,0,0,0,0,0,0,0,0,-1,1567,1352,0,0
350,-328,0,0,0,0,0,0,0,0,0,-1,1574,1352,0,0
357,-328,0,0,0,0,0,0,0,0,0,-1,1581,1352,0,0
364,-328,0,0,0,0,0,0,0,0,0,-1,1588,1352,0,0
371,-328,0,0,0,0,0,0,0,0,0,-1,1595,1352,0,0
378,-328,0,0,0,0,0,0,0,0,0,-1,1602,1352,0,0
385,-328,0,0,0,0,0,0,0,0,0,-1,1609,1352,0,0
392,-328,0,0,0,0,0,0,0,0,0,-1,1616,1352,0,0
399,-328,0,0,0,0,0,0,0,0,0,-1,1623,1352,0,0
406,-328,0,0,0,0,0,0,0,0,0,-1,1630,1352,0,0
413,-328,0,0,0,0,0,0,0,0,0,-1,1637,1352,0,0
420,-328,0,0,0,0,0,0,0,0,0,-1,1644,1352,0,0
427,-328,0,0,0,0,0,0,0,0,0,-1,1651,1352,0,0
434,-328,0,0,0,0,0,0,0,0,0,-1,1658,1352,0,0
441,-328,0,0,0,0,0,0,0,0,0,-1,1665,1352,0,0
448,-328,0,0,0,0,0,0,0,0,0,-1,1672,1352,0,0
455,-328,0,0,0,0,0,0,0,0,0,-1,1679,1352,0,0
462,-328,0,0,0,0,0,0,0,0,0,-1,1686,1352,0,0
469,-328,0,0,0,0,0,0,0,0,0,-1,1693,1352,0,0
476,-328,0,0,0,0,0,0,0,0,0,-1,1700,1352,0,0
483,-328,0,0,0,0,0,0,0,0,0,-1,1707,1352,0,0
490,-328,0,0,0,0,0,0,0,0,0,-1,1714,1352,0,0
497,-328,0,0,0,0,0,0,0,0,0,-1,1721,1352,0,0
504,-328,0,0,0,0,0,0,0,0,0,-1,1728,1352,0,0
511,-328,0,0,0,0,0,0,0,0,0,-1,1735,1352,0,0
518,-328,0,0,0,0,0,0,0,0,0,-1,1742,1352,0,0
525,-328,0,0,0,0,0,0,0,0,0,-1,1749,1352,0,0
532,-328,0,0,0,0,0,0,0,0,0,-1,1756,1352,0,0
539,-328,0,0,0,0,0,0,0,0,0,-1,1763,1352,0,0
546,-328,0,0,0,0,0,0,0,0,0,-1,1770,1352,0,0
553,-328,0,0,0,0,0,0,0,0,0,-1,1777,1352,0,0
560,-328,0,0,0,0,0,0,0,0,0,-1,1784,1352,0,0
567,-328,0,0,0,0,0,0,0,0,0,-1,1791,1352,0,0
574,-328,65.0565,3.09021,0,0,0,0,0,0,0,-1,1798,1352,65.0565,-3.09019
581,-328,66.3988,1.74048,0,0,0,0,0,0,0,-1,1805,1352,66.3989,-1.74051
588,-328,67.0304,0.506714,0,0,0,0,0,0,0,-1,1812,1352,67.0304,-0.506669
595,-328,60.5831,1.52856,0,0,0,0,0,0,0,-1,1819,1352,60.5832,-1.52861
602,-328,48.7734,3.66785,0,0,0,0,0,0,0,-1,1826,1352,48.7734,-3.66782
609,-328,37.0468,1.17407,0,0,0,0,0,0,0,-1,1833,1352,37.0468,-1.17407
616,-328,36.999,2.42859,0,0,0,0,0,0,0,-1,1840,1352,36.999,-2.42862
623,-328,34.345,5.14722,0,0,0,0,0,0,0,-1,1847,1352,34.3449,-5.14718
630,-328,22.0211,5.026,0,0,0,0,0,0,0,-1,1854,1352,22.0212,-5.02603
637,-328,21.15,5.53699,0,0,0,0,0,0,0,-1,1861,1352,21.15,-5.53704
644,-328,16.9579,6.3396,0,0,0,0,0,0,0,-1,1868,1352,16.9579,-6.33959
651,-328,36.2629,14.6906,0,0,0,0,0,0,0,-1,1875,1352,36.263,-14.6905
658,-328,49.6505,19.688,0,0,0,0,0,0,0,-1,1882,1352,49.6505,-19.688
665,-328,49.6285,18.8477,-0.000196937,0.00258696,-0.000747036,0.00277476,-0.000384729,-1.32452,0.00199051,0.014951,1889,1352,49.6285,-18.8476
672,-328,49.573,18.015,0.000589722,0.00103092,-0.000834169,0.00167317,-5.25236e-05,-0.914666,0.00113336,0.0120695,1896,1352,49.573,-18.015
679,-328,49.5195,17.1643,0.00114333,0.000415243,-0.000838222,0.00169315,-0.000134576,-0.580536,0.00117619,0.0154828,1903,1352,49.5195,-17.1643
686,-328,49.4512,16.3102,0.00151217,0.000342103,-0.000713354,0.0018497,4.56447e-06,-0.441955,0.00123162,0.0166408,1910,1352,49.4512,-16.3101
693,-328,49.4249,15.4746,0.00185554,0.000290233,-0.00058831,0.002052,9.37774e-05,-0.32229,0.00133784,0.0109189,1917,1352,49.4249,-15.4746
700,-328,49.4076,14.6058,0.00213945,0.000167252,-0.000431431,0.0022297,7.70031e-05,-0.206211,0.00146148,0.0144991,1924,1352,49.4076,-14.6059
707,-328,49.3662,13.7759,0.00232569,-1.73746e-05,-0.000202939,0.00234313,-3.48217e-05,-0.0857615,0.00157382,0.0168923,1931,1352,49.3662,-13.7759
714,-328,49.3296,12.9452,0.00237777,-0.000294579,9.4195e-05,0.00238109,-0.000297895,0.0351898,0.00169544,0.0180822,1938,1352,49.3296,-12.9451
721,-328,49.3094,12.0132,0,0,0,0,0,0,0,-1,1945,1352,49.3095,-12.0132
728,-328,29.2787,6.74695,0,0,0,0,0,0,0,-1,1952,1352,29.2787,-6.74693
735,-328,20.8927,5.23523,0,0,0,0,0,0,0,-1,1959,1352,20.8927,-5.23528
742,-328,20.3547,4.11316,0,0,0,0,0,0,0,-1,1966,1352,20.3547,-4.11321
749,-328,20.0669,5.66321,0,0,0,0,0,0,0,-1,1973,1352,20.0669,-5.66319
756,-328,19.9543,5.50464,0,0,0,0,0,0,0,-1,1980,1352,19.9543,-5.50463
763,-328,0,0,0,0,0,0,0,0,0,-1,1987,1352,0,0
770,-328,0,0,0,0,0,0,0,0,0,-1,1994,1352,0,0
777,-328,0,0,0,0,0,0,0,0,0,-1,2001,1352,0,0
784,-328,0,0,0,0,0,0,0,0,0,-1,2008,1352,0,0
791,-328,0,0,0,0,0,0,0,0,0,-1,2015,1352,0,0
798,-328,0,0,0,0,0,0,0,0,0,-1,2022,1352,0,0
805,-328,0,0,0,0,0,0,0,0,0,-1,2029,1352,0,0
812,-328,0,0,0,0,0,0,0,0,0,-1,2036,1352,0,0
-700,-335,0,0,0,0,0,0,0,0,0,-1,524,1359,0,0
-693,-335,0,0,0,0,0,0,0,0,0,-1,531,1359,0,0
-686,-335,0,0,0,0,0,0,0,0,0,-1,538,1359,0,0
-679,-335,0,0,0,0,0,0,0,0,0,-1,545,1359,0,0
-672,-335,0,0,0,0,0,0,0,0,0,-1,552,1359,0,0
-665,-335,0,0,0,0,0,0,0,0,0,-1,559,1359,0,0
-658,-335,0,0,0,0,0,0,0,0,0,-1,566,1359,0,0
-651,-335,0,0,0,0,0,0,0,0,0,-1,573,1359,0,0
-644,-335,0,0,0,0,0,0,0,0,0,-1,580,1359,0,0
-637,-335,-62.7114,11.0491,0,0,0,0,0,0,0,-1,587,1359,-62.7114,-11.0491
-630,-335,-64.2532,9.91284,0,0,0,0,0,0,0,-1,594,1359,-64.2532,-9.91285
-623,-335,-8.43304,1.09509,0,0,0,0,0,0,0,-1,601,1359,-8.43301,-1.09507
-616,-335,-7.80927,-0.485352,0,0,0,0,0,0,0,-1,608,1359,-7.80926,0.485291
-609,-335,-7.12256,-2.03601,0,0,0,0,0,0,0,-1,615,1359,-7.12253,2.03601
-602,-335,-9.39935,2.25146,0,0,0,0,0,0,0,-1,622,1359,-9.39935,-2.25145
-595,-335,-9.54767,3.01917,0,0,0,0,0,0,0,-1,629,1359,-9.54768,-3.01911
-588,-335,-31.208,11.4578,0,0,0,0,0,0,0,-1,636,1359,-31.208,-11.4577
-581,-335,-31.2808,12.7606,0,0,0,0,0,0,0,-1,643,1359,-31.2807,-12.7607
-574,-335,-31.3171,13.691,0.00405457,0.00435299,0.00270001,0.00690791,0.00149965,0.813002,0.0041957,0.014446,650,1359,-31.3171,-13.691
-567,-335,-31.3502,14.6094,0.00358024,0.00328293,0.00217077,0.00560745,0.00125573,0.751211,0.00339796,0.0181705,657,1359,-31.3502,-14.6094
-560,-335,-31.3723,15.4485,0.00347907,0.00239017,0.0018966,0.00490782,0.000961418,0.645624,0.00300315,0.0274323,664,1359,-31.3723,-15.4485
-553,-335,-31.4587,16.3196,0.00362878,0.0016246,0.00180193,0.00468852,0.000564861,0.531633,0.00295544,0.0313425,671,1359,-31.4587,-16.3196
-546,-335,-31.4911,17.2388,0.00402208,0.00097191,0.00187331,0.00491261,8.13829e-05,0.443755,0.00324828,0.0270623,678,1359,-31.4911,-17.2388
-539,-335,-31.5309,18.0872,0.0046591,0.00043832,0.00212322,0.00554234,-0.000444917,0.394214,0.00385177,0.0207435,685,1359,-31.5309,-18.0871
-532,-335,-31.6189,18.975,0.00561432,2.66422e-05,0.00256772,0.00661505,-0.000974084,0.371625,0.00476801,0.0154624,692,1359,-31.6189,-18.9749
-525,-335,-31.5988,19.8646,0.00686682,-0.000259515,0.00325083,0.00812694,-0.00151963,0.369796,0.00598912,0.0139695,699,1359,-31.5988,-19.8647
-518,-335,-31.709,20.6844,0,0,0,0,0,0,0,-1,706,1359,-31.709,-20.6845
-511,-335,-17.3098,11.6718,0,0,0,0,0,0,0,-1,713,1359,-17.3097,-11.6717
-504,-335,-9.35767,5.99695,0,0,0,0,0,0,0,-1,720,1359,-9.35767,-5.99694
-497,-335,-8.75024,-0.650513,0,0,0,0,0,0,0,-1,727,1359,-8.75024,0.650521
-490,-335,-9.51971,0.417603,0,0,0,0,0,0,0,-1,734,1359,-9.51974,-0.41765
-483,-335,-10.2883,1.29224,0,0,0,0,0,0,0,-1,741,1359,-10.2883,-1.2922
-476,-335,-11.9938,-0.173462,0,0,0,0,0,0,0,-1,748,1359,-11.9938,0.173429
-469,-335,-12.8704,-0.204102,0,0,0,0,0,0,0,-1,755,1359,-12.8704,0.204117
-462,-335,-13.486,0.0218506,0,0,0,0,0,0,0,-1,762,1359,-13.4859,-0.0217908
-455,-335,-14.1504,0.549561,0,0,0,0,0,0,0,-1,769,1359,-14.1504,-0.549583
-448,-335,0,0,0,0,0,0,0,0,0,-1,776,1359,0,0
-441,-335,0,0,0,0,0,0,0,0,0,-1,783,1359,0,0
-434,-335,0,0,0,0,0,0,0,0,0,-1,790,1359,0,0
-427,-335,0,0,0,0,0,0,0,0,0,-1,797,1359,0,0
-420,-335,0,0,0,0,0,0,0,0,0,-1,804,1359,0,0
-413,-335,0,0,0,0,0,0,0,0,0,-1,811,1359,0,0
-406,-335,0,0,0,0,0,0,0,0,0,-1,818,1359,0,0
-399,-335,0,0,0,0,0,0,0,0,0,-1,825,1359,0,0
-392,-335,0,0,0,0,0,0,0,0,0,-1,832,1359,0,0
-385,-335,0,0,0,0,0,0,0,0,0,-1,839,1359,0,0
-378,-335,0,0,0,0,0,0,0,0,0,-1,846,1359,0,0
-371,-335,0,0,0,0,0,0,0,0,0,-1,853,1359,0,0
-364,-335,0,0,0,0,0,0,0,0,0,-1,860,1359,0,0
-357,-335,0,0,0,0,0,0,0,0,0,-1,867,1359,0,0
-350,-335,0,0,0,0,0,0,0,0,0,-1,874,1359,0,0
-343,-335,0,0,0,0,0,0,0,0,0,-1,881,1359,0,0
-336,-335,0,0,0,0,0,0,0,0,0,-1,888,1359,0,0
-329,-335,0,0,0,0,0,0,0,0,0,-1,895,1359,0,0
-322,-335,0,0,0,0,0,0,0,0,0,-1,902,1359,0,0
-315,-335,0,0,0,0,0,0,0,0,0,-1,909,1359,0,0
-308,-335,0,0,0,0,0,0,0,0,0,-1,916,1359,0,0
-301,-335,0,0,0,0,0,0,0,0,0,-1,923,1359,0,0
-294,-335,0,0,0,0,0,0,0,0,0,-1,930,1359,0,0
-287,-335,0,0,0,0,0,0,0,0,0,-1,937,1359,0,0
-280,-335,0,0,0,0,0,0,0,0,0,-1,944,1359,0,0
-273,-335,0,0,0,0,0,0,0,0,0,-1,951,1359,0,0
-266,-335,0,0,0,0,0,0,0,0,0,-1,958,1359,0,0
-259,-335,0,0,0,0,0,0,0,0,0,-1,965,1359,0,0
-252,-335,0,0,0,0,0,0,0,0,0,-1,972,1359,0,0
-245,-335,0,0,0,0,0,0,0,0,0,-1,979,1359,0,0
-238,-335,0,0,0,0,0,0,0,0,0,-1,986,1359,0,0
-231,-335,0,0,0,0,0,0,0,0,0,-1,993,1359,0,0
-224,-335,0,0,0,0,0,0,0,0,0,-1,1000,1359,0,0
-217,-335,0,0,0,0,0,0,0,0,0,-1,1007,1359,0,0
-210,-335,0,0,0,0,0,0,0,0,0,-1,1014,1359,0,0
-203,-335,0,0,0,0,0,0,0,0,0,-1,1021,1359,0,0
-196,-335,0,0,0,0,0,0,0,0,0,-1,1028,1359,0,0
-189,-335,0,0,0,0,0,0,0,0,0,-1,1035,1359,0,0
-182,-335,0,0,0,0,0,0,0,0,0,-1,1042,1359,0,0
-175,-335,0,0,0,0,0,0,0,0,0,-1,1049,1359,0,0
-168,-335,0,0,0,0,0,0,0,0,0,-1,1056,1359,0,0
-161,-335,0,0,0,0,0,0,0,0,0,-1,1063,1359,0,0
-154,-335,0,0,0,0,0,0,0,0,0,-1,1070,1359,0,0
-147,-335,0,0,0,0,0,0,0,0,0,-1,1077,1359,0,0
-140,-335,0,0,0,0,0,0,0,0,0,-1,1084,1359,0,0
-133,-335,0,0,0,0,0,0,0,0,0,-1,1091,1359,0,0
-126,-335,0,0,0,0,0,0,0,0,0,-1,1098,1359,0,0
-119,-335,0,0,0,0,0,0,0,0,0,-1,1105,1359,0,0
-112,-335,0,0,0,0,0,0,0,0,0,-1,1112,1359,0,0
-105,-335,0,0,0,0,0,0,0,0,0,-1,1119,1359,0,0
-98,-335,0,0,0,0,0,0,0,0,0,-1,1126,1359,0,0
-91,-335,0,0,0,0,0,0,0,0,0,-1,1133,1359,0,0
-84,-335,0,0,0,0,0,0,0,0,0,-1,1140,1359,0,0
-77,-335,0,0,0,0,0,0,0,0,0,-1,1147,1359,0,0
-70,-335,0,0,0,0,0,0,0,0,0,-1,1154,1359,0,0
-63,-335,0,0,0,0,0,0,0,0,0,-1,1161,1359,0,0
-56,-335,0,0,0,0,0,0,0,0,0,-1,1168,1359,0,0
-49,-335,0,0,0,0,0,0,0,0,0,-1,1175,1359,0,0
-42,-335,0,0,0,0,0,0,0,0,0,-1,1182,1359,0,0
-35,-335,0,0,0,0,0,0,0,0,0,-1,1189,1359,0,0
-28,-335,0,0,0,0,0,0,0,0,0,-1,1196,1359,0,0
-21,-335,0,0,0,0,0,0,0,0,0,-1,1203,1359,0,0
-14,-335,0,0,0,0,0,0,0,0,0,-1,1210,1359,0,0
-7,-335,0,0,0,0,0,0,0,0,0,-1,1217,1359,0,0
0,-335,0,0,0,0,0,0,0,0,0,-1,1224,1359,0,0
7,-335,0,0,0,0,0,0,0,0,0,-1,1231,1359,0,0
14,-335,0,0,0,0,0,0,0,0,0,-1,1238,1359,0,0
21,-335,0,0,0,0,0,0,0,0,0,-1,1245,1359,0,0
28,-335,0,0,0,0,0,0,0,0,0,-1,1252,1359,0,0
35,-335,0,0,0,0,0,0,0,0,0,-1,1259,1359,0,0
42,-335,0,0,0,0,0,0,0,0,0,-1,1266,1359,0,0
49,-335,0,0,0,0,0,0,0,0,0,-1,1273,1359,0,0
56,-335,0,0,0,0,0,0,0,0,0,-1,1280,1359,0,0
63,-335,0,0,0,0,0,0,0,0,0,-1,1287,1359,0,0
70,-335,0,0,0,0,0,0,0,0,0,-1,1294,1359,0,0
77,-335,0,0,0,0,0,0,0,0,0,-1,1301,1359,0,0
84,-335,0,0,0,0,0,0,0,0,0,-1,1308,1359,0,0
91,-335,0,0,0,0,0,0,0,0,0,-1,1315,1359,0,0
98,-335,0,0,0,0,0,0,0,0,0,-1,1322,1359,0,0
105,-335,0,0,0,0,0,0,0,0,0,-1,1329,1359,0,0
112,-335,0,0,0,0,0,0,0,0,0,-1,1336,1359,0,0
119,-335,0,0,0,0,0,0,0,0,0,-1,1343,1359,0,0
126,-335,0,0,0,0,0,0,0,0,0,-1,1350,1359,0,0
133,-335,0,0,0,0,0,0,0,0,0,-1,1357,1359,0,0
140,-335,0,0,0,0,0,0,0,0,0,-1,1364,1359,0,0
147,-335,0,0,0,0,0,0,0,0,0,-1,1371,1359,0,0
154,-335,0,0,0,0,0,0,0,0,0,-1,1378,1359,0,0
161,-335,0,0,0,0,0,0,0,0,0,-1,1385,1359,0,0
168,-335,0,0,0,0,0,0,0,0,0,-1,1392,1359,0,0
175,-335,0,0,0,0,0,0,0,0,0,-1,1399,1359,0,0
182,-335,0,0,0,0,0,0,0,0,0,-1,1406,1359,0,0
189,-335,0,0,0,0,0,0,0,0,0,-1,1413,1359,0,0
196,-335,0,0,0,0,0,0,0,0,0,-1,1420,1359,0,0
203,-335,0,0,0,0,0,0,0,0,0,-1,1427,1359,0,0
210,-335,0,0,0,0,0,0,0,0,0,-1,1434,1359,0,0
217,-335,0,0,0,0,0,0,0,0,0,-1,1441,1359,0,0
224,-335,0,0,0,0,0,0,0,0,0,-1,1448,1359,0,0
231,-335,0,0,0,0,0,0,0,0,0,-1,1455,1359,0,0
238,-335,0,0,0,0,0,0,0,0,0,-1,1462,1359,0,0
245,-335,0,0,0,0,0,0,0,0,0,-1,1469,1359,0,0
252,-335,0,0,0,0,0,0,0,0,0,-1,1476,1359,0,0
259,-335,0,0,0,0,0,0,0,0,0,-1,1483,1359,0,0
266,-335,0,0,0,0,0,0,0,0,0,-1,1490,1359,0,0
273,-335,0,0,0,0,0,0,0,0,0,-1,1497,1359,0,0
280,-335,0,0,0,0,0,0,0,0,0,-1,1504,1359,0,0
287,-335,0,0,0,0,0,0,0,0,0,-1,1511,1359,0,0
294,-335,0,0,0,0,0,0,0,0,0,-1,1518,1359,0,0
301,-335,0,0,0,0,0,0,0,0,0,-1,1525,1359,0,0
308,-335,0,0,0,0,0,0,0,0,0,-1,1532,1359,0,0
315,-335,0,0,0,0,0,0,0,0,0,-1,1539,1359,0,0
322,-335,0,0,0,0,0,0,0,0,0,-1,1546,1359,0,0
329,-335,0,0,0,0,0,0,0,0,0,-1,1553,1359,0,0
336,-335,0,0,0,0,0,0,0,0,0,-1,1560,1359,0,0
343,-335,0,0,0,0,0,0,0,0,0,-1,1567,1359,0,0
350,-335,0,0,0,0,0,0,0,0,0,-1,1574,1359,0,0
357,-335,0,0,0,0,0,0,0,0,0,-1,1581,1359,0,0
364,-335,0,0,0,0,0,0,0,0,0,-1,1588,1359,0,0
371,-335,0,0,0,0,0,0,0,0,0,-1,1595,1359,0,0
378,-335,0,0,0,0,0,0,0,0,0,-1,1602,1359,0,0
385,-335,0,0,0,0,0,0,0,0,0,-1,1609,1359,0,0
392,-335,0,0,0,0,0,0,0,0,0,-1,1616,1359,0,0
399,-335,0,0,0,0,0,0,0,0,0,-1,1623,1359,0,0
406,-335,0,0,0,0,0,0,0,0,0,-1,1630,1359,0,0
413,-335,0,0,0,0,0,0,0,0,0,-1,1637,1359,0,0
420,-335,0,0,0,0,0,0,0,0,0,-1,1644,1359,0,0
427,-335,0,0,0,0,0,0,0,0,0,-1,1651,1359,0,0
434,-335,0,0,0,0,0,0,0,0,0,-1,1658,1359,0,0
441,-335,0,0,0,0,0,0,0,0,0,-1,1665,1359,0,0
448,-335,0,0,0,0,0,0,0,0,0,-1,1672,1359,0,0
455,-335,0,0,0,0,0,0,0,0,0,-1,1679,1359,0,0
462,-335,0,0,0,0,0,0,0,0,0,-1,1686,1359,0,0
469,-335,0,0,0,0,0,0,0,0,0,-1,1693,1359,0,0
476,-335,0,0,0,0,0,0,0,0,0,-1,1700,1359,0,0
483,-335,0,0,0,0,0,0,0,0,0,-1,1707,1359,0,0
490,-335,0,0,0,0,0,0,0,0,0,-1,1714,1359,0,0
497,-335,0,0,0,0,0,0,0,0,0,-1,1721,1359,0,0
504,-335,0,0,0,0,0,0,0,0,0,-1,1728,1359,0,0
511,-335,0,0,0,0,0,0,0,0,0,-1,1735,1359,0,0
518,-335,0,0,0,0,0,0,0,0,0,-1,1742,1359,0,0
525,-335,0,0,0,0,0,0,0,0,0,-1,1749,1359,0,0
532,-335,0,0,0,0,0,0,0,0,0,-1,1756,1359,0,0
539,-335,0,0,0,0,0,0,0,0,0,-1,1763,1359,0,0
546,-335,0,0,0,0,0,0,0,0,0,-1,1770,1359,0,0
553,-335,0,0,0,0,0,0,0,0,0,-1,1777,1359,0,0
560,-335,0,0,0,0,0,0,0,0,0,-1,1784,1359,0,0
567,-335,0,0,0,0,0,0,0,0,0,-1,1791,1359,0,0
574,-335,65.0712,2.80188,0,0,0,0,0,0,0,-1,1798,1359,65.0712,-2.80193
581,-335,66.5206,1.60327,0,0,0,0,0,0,0,-1,1805,1359,66.5206,-1.60333
588,-335,67.826,0.334961,0,0,0,0,0,0,0,-1,1812,1359,67.8261,-0.335018
595,-335,49.984,3.76465,0,0,0,0,0,0,0,-1,1819,1359,49.984,-3.76467
602,-335,36.5643,0.0861816,0,0,0,0,0,0,0,-1,1826,1359,36.5643,-0.0862283
609,-335,36.2933,0.993896,0,0,0,0,0,0,0,-1,1833,1359,36.2934,-0.993911
616,-335,34.6969,4.82666,0,0,0,0,0,0,0,-1,1840,1359,34.6969,-4.82667
623,-335,26.6051,6.54333,0,0,0,0,0,0,0,-1,1847,1359,26.6051,-6.54339
630,-335,19.1707,1.00952,0,0,0,0,0,0,0,-1,1854,1359,19.1707,-1.00953
637,-335,18.2009,6.65454,0,0,0,0,0,0,0,-1,1861,1359,18.2009,-6.6546
644,-335,28.1042,12.067,0,0,0,0,0,0,0,-1,1868,1359,28.1042,-12.067
651,-335,48.7272,20.8546,0,0,0,0,0,0,0,-1,1875,1359,48.7272,-20.8547
658,-335,48.8055,19.8423,-0.000188986,0.00109279,-0.00101647,0.00165355,-0.000749745,-1.06667,0.00141987,0.0454769,1882,1359,48.8055,-19.8422
665,-335,48.8076,18.8998,0.000201699,0.000689097,-0.000843956,0.00132384,-0.000433039,-0.925954,0.0010569,0.0146438,1889,1359,48.8077,-18.8998
672,-335,48.7565,18.0424,0.000694148,0.000533864,-0.000811863,0.00142982,-0.000201803,-0.736201,0.00102711,0.0171844,1896,1359,48.7564,-18.0424
679,-335,48.6844,17.2196,0.00121998,0.000506859,-0.000812573,0.00175078,-2.39415e-05,-0.578645,0.00117525,0.0162256,1903,1359,48.6844,-17.2196
686,-335,48.649,16.3577,0.00174499,0.000472286,-0.000804052,0.00213404,8.32387e-05,-0.450651,0.00139577,0.0145408,1910,1359,48.6491,-16.3577
693,-335,48.597,15.51,0.00229518,0.000486315,-0.000820867,0.00261215,0.000169347,-0.3685,0.00168782,0.0114247,1917,1359,48.597,-15.51
700,-335,48.5468,14.6927,0.00282384,0.000494686,-0.000805398,0.00307521,0.000243317,-0.302526,0.00197404,0.0114667,1924,1359,48.5468,-14.6928
707,-335,48.5,13.8661,0.00327472,0.000452395,-0.000718519,0.00344711,0.000280002,-0.235478,0.00221066,0.0148646,1931,1359,48.5,-13.8661
714,-335,48.4941,12.9269,0.00365102,0.000399461,-0.000572855,0.00374899,0.000301489,-0.169387,0.00240514,0.0371591,1938,1359,48.4941,-12.9269
721,-335,48.3872,11.9307,0,0,0,0,0,0,0,-1,1945,1359,48.3873,-11.9307
728,-335,20.8126,5.21167,0,0,0,0,0,0,0,-1,1952,1359,20.8127,-5.21172
735,-335,20.2725,5.34729,0,0,0,0,0,0,0,-1,1959,1359,20.2724,-5.34734
742,-335,19.8624,4.72229,0,0,0,0,0,0,0,-1,1966,1359,19.8624,-4.72225
749,-335,20.5887,6.05322,0,0,0,0,0,0,0,-1,1973,1359,20.5887,-6.05322
756,-335,20.7832,6.00452,0,0,0,0,0,0,0,-1,1980,1359,20.7832,-6.00447
763,-335,0,0,0,0,0,0,0,0,0,-1,1987,1359,0,0
770,-335,0,0,0,0,0,0,0,0,0,-1,1994,1359,0,0
777,-335,0,0,0,0,0,0,0,0,0,-1,2001,1359,0,0
784,-335,0,0,0,0,0,0,0,0,0,-1,2008,1359,0,0
791,-335,0,0,0,0,0,0,0,0,0,-1,2015,1359,0,0
798,-335,0,0,0,0,0,0,0,0,0,-1,2022,1359,0,0
805,-335,0,0,0,0,0,0,0,0,0,-1,2029,1359,0,0
812,-335,0,0,0,0,0,0,0,0,0,-1,2036,1359,0,0
-700,-342,0,0,0,0,0,0,0,0,0,-1,524,1366,0,0
-693,-342,0,0,0,0,0,0,0,0,0,-1,531,1366,0,0
-686,-342,0,0,0,0,0,0,0,0,0,-1,538,1366,0,0
-679,-342,0,0,0,0,0,0,0,0,0,-1,545,1366,0,0
-672,-342,0,0,0,0,0,0,0,0,0,-1,552,1366,0,0
-665,-342,0,0,0,0,0,0,0,0,0,-1,559,1366,0,0
-658,-342,0,0,0,0,0,0,0,0,0,-1,566,1366,0,0
-651,-342,0,0,0,0,0,0,0,0,0,-1,573,1366,0,0
-644,-342,0,0,0,0,0,0,0,0,0,-1,580,1366,0,0
-637,-342,-63.7546,12.2344,0,0,0,0,0,0,0,-1,587,1366,-63.7546,-12.2343
-630,-342,-8.60132,2.71777,0,0,0,0,0,0,0,-1,594,1366,-8.60135,-2.71779
-623,-342,-8.41168,0.662476,0,0,0,0,0,0,0,-1,601,1366,-8.41168,-0.662442
-616,-342,-6.625,-1.28015,0,0,0,0,0,0,0,-1,608,1366,-6.62499,1.28011
-609,-342,-7.83154,0.674561,0,0,0,0,0,0,0,-1,615,1366,-7.83155,-0.674598
-602,-342,-9.65765,2.25195,0,0,0,0,0,0,0,-1,622,1366,-9.65767,-2.25192
-595,-342,-9.47687,3.00671,0,0,0,0,0,0,0,-1,629,1366,-9.47686,-3.00668
-588,-342,-9.78467,3.57727,0,0,0,0,0,0,0,-1,636,1366,-9.78468,-3.57723
-581,-342,-30.5886,12.8827,0,0,0,0,0,0,0,-1,643,1366,-30.5886,-12.8827
-574,-342,-30.4935,13.7494,0.00476061,0.00518385,0.00317628,0.00815556,0.00178891,0.818661,0.00494969,0.0197106,650,1366,-30.4935,-13.7494
-567,-342,-30.444,14.6459,0.0039562,0.00388537,0.00249291,0.00641394,0.00142763,0.778296,0.00388845,0.0182177,657,1366,-30.444,-14.6459
-560,-342,-30.5309,15.4462,0.00361343,0.00282415,0.00209361,0.00534927,0.00108831,0.692242,0.00326445,0.0278124,664,1366,-30.531,-15.4461
-553,-342,-30.6528,16.2844,0.00355692,0.00192472,0.00188623,0.00479603,0.000685617,0.581227,0.00299509,0.0320797,671,1366,-30.6528,-16.2844
-546,-342,-30.6672,17.1836,0.00374381,0.00116881,0.001844,0.00470531,0.000207318,0.480636,0.0030701,0.0302115,678,1366,-30.6672,-17.1836
-539,-342,-30.6645,18.1171,0.00417529,0.000550752,0.00196808,0.0050384,-0.000312363,0.413296,0.00346775,0.0232288,685,1366,-30.6645,-18.117
-532,-342,-30.7376,19.0383,0.00489535,7.93072e-05,0.00227496,0.00580003,-0.000825372,0.378495,0.00416914,0.0174876,692,1366,-30.7376,-19.0384
-525,-342,-30.7291,19.9265,0.00589699,-0.000237457,0.00279151,0.0069771,-0.00131757,0.369187,0.00514711,0.0139777,699,1366,-30.7291,-19.9265
-518,-342,-30.641,20.8446,0.00730312,-0.000230443,0.00355494,0.00871575,-0.00164307,0.378237,0.00642857,0.0484851,706,1366,-30.641,-20.8446
-511,-342,-30.5908,21.7178,0,0,0,0,0,0,0,-1,713,1366,-30.5908,-21.7178
-504,-342,-8.95709,6.5719,0,0,0,0,0,0,0,-1,720,1366,-8.95707,-6.57192
-497,-342,-8.26587,-0.943604,0,0,0,0,0,0,0,-1,727,1366,-8.26586,0.943543
-490,-342,-9.07153,-0.0227051,0,0,0,0,0,0,0,-1,734,1366,-9.07155,0.0227087
-483,-342,-9.87726,0.898071,0,0,0,0,0,0,0,-1,741,1366,-9.87724,-0.898125
-476,-342,-11.6371,-0.736328,0,0,0,0,0,0,0,-1,748,1366,-11.6371,0.736281
-469,-342,-12.6245,-0.987549,0,0,0,0,0,0,0,-1,755,1366,-12.6245,0.987553
-462,-342,-13.0912,-0.533203,0,0,0,0,0,0,0,-1,762,1366,-13.0912,0.533224
-455,-342,-13.7612,0.122925,0,0,0,0,0,0,0,-1,769,1366,-13.7612,-0.122896
-448,-342,-14.5278,0.826904,0,0,0,0,0,0,0,-1,776,1366,-14.5277,-0.826861
-441,-342,0,0,0,0,0,0,0,0,0,-1,783,1366,0,0
-434,-342,0,0,0,0,0,0,0,0,0,-1,790,1366,0,0
-427,-342,0,0,0,0,0,0,0,0,0,-1,797,1366,0,0
-420,-342,0,0,0,0,0,0,0,0,0,-1,804,1366,0,0
-413,-342,0,0,0,0,0,0,0,0,0,-1,811,1366,0,0
-406,-342,0,0,0,0,0,0,0,0,0,-1,818,1366,0,0
-399,-342,0,0,0,0,0,0,0,0,0,-1,825,1366,0,0
-392,-342,0,0,0,0,0,0,0,0,0,-1,832,1366,0,0
-385,-342,0,0,0,0,0,0,0,0,0,-1,839,1366,0,0
-378,-342,0,0,0,0,0,0,0,0,0,-1,846,1366,0,0
-371,-342,0,0,0,0,0,0,0,0,0,-1,853,1366,0,0
-364,-342,0,0,0,0,0,0,0,0,0,-1,860,1366,0,0
-357,-342,0,0,0,0,0,0,0,0,0,-1,867,1366,0,0
-350,-342,0,0,0,0,0,0,0,0,0,-1,874,1366,0,0
-343,-342,0,0,0,0,0,0,0,0,0,-1,881,1366,0,0
-336,-342,0,0,0,0,0,0,0,0,0,-1,888,1366,0,0
-329,-342,0,0,0,0,0,0,0,0,0,-1,895,1366,0,0
-322,-342,0,0,0,0,0,0,0,0,0,-1,902,1366,0,0
-315,-342,0,0,0,0,0,0,0,0,0,-1,909,1366,0,0
-308,-342,0,0,0,0,0,0,0,0,0,-1,916,1366,0,0
-301,-342,0,0,0,0,0,0,0,0,0,-1,923,1366,0,0
-294,-342,0,0,0,0,0,0,0,0,0,-1,930,1366,0,0
-287,-342,0,0,0,0,0,0,0,0,0,-1,937,1366,0,0
-280,-342,0,0,0,0,0,0,0,0,0,-1,944,1366,0,0
-273,-342,0,0,0,0,0,0,0,0,0,-1,951,1366,0,0
-266,-342,0,0,0,0,0,0,0,0,0,-1,958,1366,0,0
-259,-342,0,0,0,0,0,0,0,0,0,-1,965,1366,0,0
-252,-342,0,0,0,0,0,0,0,0,0,-1,972,1366,0,0
-245,-342,0,0,0,0,0,0,0,0,0,-1,979,1366,0,0
-238,-342,0,0,0,0,0,0,0,0,0,-1,986,1366,0,0
-231,-342,0,0,0,0,0,0,0,0,0,-1,993,1366,0,0
-224,-342,0,0,0,0,0,0,0,0,0,-1,1000,1366,0,0
-217,-342,0,0,0,0,0,0,0,0,0,-1,1007,1366,0,0
-210,-342,0,0,0,0,0,0,0,0,0,-1,1014,1366,0,0
-203,-342,0,0,0,0,0,0,0,0,0,-1,1021,1366,0,0
-196,-342,0,0,0,0,0,0,0,0,0,-1,1028,1366,0,0
-189,-342,0,0,0,0,0,0,0,0,0,-1,1035,1366,0,0
-182,-342,0,0,0,0,0,0,0,0,0,-1,1042,1366,0,0
-175,-342,0,0,0,0,0,0,0,0,0,-1,1049,1366,0,0
-168,-342,0,0,0,0,0,0,0,0,0,-1,1056,1366,0,0
-161,-342,0,0,0,0,0,0,0,0,0,-1,1063,1366,0,0
-154,-342,0,0,0,0,0,0,0,0,0,-1,1070,1366,0,0
-147,-342,0,0,0,0,0,0,0,0,0,-1,1077,1366,0,0
-140,-342,0,0,0,0,0,0,0,0,0,-1,1084,1366,0,0
-133,-342,0,0,0,0,0,0,0,0,0,-1,1091,1366,0,0
-126,-342,0,0,0,0,0,0,0,0,0,-1,1098,1366,0,0
-119,-342,0,0,0,0,0,0,0,0,0,-1,1105,1366,0,0
-112,-342,0,0,0,0,0,0,0,0,0,-1,1112,1366,0,0
-105,-342,0,0,0,0,0,0,0,0,0,-1,1119,1366,0,0
-98,-342,0,0,0,0,0,0,0,0,0,-1,1126,1366,0,0
-91,-342,0,0,0,0,0,0,0,0,0,-1,1133,1366,0,0
-84,-342,0,0,0,0,0,0,0,0,0,-1,1140,1366,0,0
-77,-342,0,0,0,0,0,0,0,0,0,-1,1147,1366,0,0
-70,-342,0,0,0,0,0,0,0,0,0,-1,1154,1366,0,0
-63,-342,0,0,0,0,0,0,0,0,0,-1,1161,1366,0,0
-56,-342,0,0,0,0,0,0,0,0,0,-1,1168,1366,0,0
-49,-342,0,0,0,0,0,0,0,0,0,-1,1175,1366,0,0
-42,-342,0,0,0,0,0,0,0,0,0,-1,1182,1366,0,0
-35,-342,0,0,0,0,0,0,0,0,0,-1,1189,1366,0,0
-28,-342,0,0,0,0,0,0,0,0,0,-1,1196,1366,0,0
-21,-342,0,0,0,0,0,0,0,0,0,-1,1203,1366,0,0
-14,-342,0,0,0,0,0,0,0,0,0,-1,1210,1366,0,0
-7,-342,0,0,0,0,0,0,0,0,0,-1,1217,1366,0,0
0,-342,0,0,0,0,0,0,0,0,0,-1,1224,1366,0,0
7,-342,0,0,0,0,0,0,0,0,0,-1,1231,1366,0,0
14,-342,0,0,0,0,0,0,0,0,0,-1,1238,1366,0,0
21,-342,0,0,0,0,0,0,0,0,0,-1,1245,1366,0,0
28,-342,0,0,0,0,0,0,0,0,0,-1,1252,1366,0,0
35,-342,0,0,0,0,0,0,0,0,0,-1,1259,1366,0,0
42,-342,0,0,0,0,0,0,0,0,0,-1,1266,1366,0,0
49,-342,0,0,0,0,0,0,0,0,0,-1,1273,1366,0,0
56,-342,0,0,0,0,0,0,0,0,0,-1,1280,1366,0,0
63,-342,0,0,0,0,0,0,0,0,0,-1,1287,1366,0,0
70,-342,0,0,0,0,0,0,0,0,0,-1,1294,1366,0,0
77,-342,0,0,0,0,0,0,0,0,0,-1,1301,1366,0,0
84,-342,0,0,0,0,0,0,0,0,0,-1,1308,1366,0,0
91,-342,0,0,0,0,0,0,0,0,0,-1,1315,1366,0,0
98,-342,0,0,0,0,0,0,0,0,0,-1,1322,1366,0,0
105,-342,0,0,0,0,0,0,0,0,0,-1,1329,1366,0,0
112,-342,0,0,0,0,0,0,0,0,0,-1,1336,1366,0,0
119,-342,0,0,0,0,0,0,0,0,0,-1,1343,1366,0,0
126,-342,0,0,0,0,0,0,0,0,0,-1,1350,1366,0,0
133,-342,0,0,0,0,0,0,0,0,0,-1,1357,1366,0,0
140,-342,0,0,0,0,0,0,0,0,0,-1,1364,1366,0,0
147,-342,0,0,0,0,0,0,0,0,0,-1,1371,1366,0,0
154,-342,0,0,0,0,0,0,0,0,0,-1,1378,1366,0,0
161,-342,0,0,0,0,0,0,0,0,0,-1,1385,1366,0,0
168,-342,0,0,0,0,0,0,0,0,0,-1,1392,1366,0,0
175,-342,0,0,0,0,0,0,0,0,0,-1,1399,1366,0,0
182,-342,0,0,0,0,0,0,0,0,0,-1,1406,1366,0,0
189,-342,0,0,0,0,0,0,0,0,0,-1,1413,1366,0,0
196,-342,0,0,0,0,0,0,0,0,0,-1,1420,1366,0,0
203,-342,0,0,0,0,0,0,0,0,0,-1,1427,1366,0,0
210,-342,0,0,0,0,0,0,0,0,0,-1,1434,1366,0,0
217,-342,0,0,0,0,0,0,0,0,0,-1,1441,1366,0,0
224,-342,0,0,0,0,0,0,0,0,0,-1,1448,1366,0,0
231,-342,0,0,0,0,0,0,0,0,0,-1,1455,1366,0,0
238,-342,0,0,0,0,0,0,0,0,0,-1,1462,1366,0,0
245,-342,0,0,0,0,0,0,0,0,0,-1,1469,1366,0,0
252,-342,0,0,0,0,0,0,0,0,0,-1,1476,1366,0,0
259,-342,0,0,0,0,0,0,0,0,0,-1,1483,1366,0,0
266,-342,0,0,0,0,0,0,0,0,0,-1,1490,1366,0,0
273,-342,0,0,0,0,0,0,0,0,0,-1,1497,1366,0,0
280,-342,0,0,0,0,0,0,0,0,0,-1,1504,1366,0,0
287,-342,0,0,0,0,0,0,0,0,0,-1,1511,1366,0,0
294,-342,0,0,0,0,0,0,0,0,0,-1,1518,1366,0,0
301,-342,0,0,0,0,0,0,0,0,0,-1,1525,1366,0,0
308,-342,0,0,0,0,0,0,0,0,0,-1,1532,1366,0,0
315,-342,0,0,0,0,0,0,0,0,0,-1,1539,1366,0,0
322,-342,0,0,0,0,0,0,0,0,0,-1,1546,1366,0,0
329,-342,0,0,0,0,0,0,0,0,0,-1,1553,1366,0,0
336,-342,0,0,0,0,0,0,0,0,0,-1,1560,1366,0,0
343,-342,0,0,0,0,0,0,0,0,0,-1,1567,1366,0,0
350,-342,0,0,0,0,0,0,0,0,0,-1,1574,1366,0,0
357,-342,0,0,0,0,0,0,0,0,0,-1,1581,1366,0,0
364,-342,0,0,0,0,0,0,0,0,0,-1,1588,1366,0,0
371,-342,0,0,0,0,0,0,0,0,0,-1,1595,1366,0,0
378,-342,0,0,0,0,0,0,0,0,0,-1,1602,1366,0,0
385,-342,0,0,0,0,0,0,0,0,0,-1,1609,1366,0,0
392,-342,0,0,0,0,0,0,0,0,0,-1,1616,1366,0,0
399,-342,0,0,0,0,0,0,0,0,0,-1,1623,1366,0,0
406,-342,0,0,0,0,0,0,0,0,0,-1,1630,1366,0,0
413,-342,0,0,0,0,0,0,0,0,0,-1,1637,1366,0,0
420,-342,0,0,0,0,0,0,0,0,0,-1,1644,1366,0,0
427,-342,0,0,0,0,0,0,0,0,0,-1,1651,1366,0,0
434,-342,0,0,0,0,0,0,0,0,0,-1,1658,1366,0,0
441,-342,0,0,0,0,0,0,0,0,0,-1,1665,1366,0,0
448,-342,0,0,0,0,0,0,0,0,0,-1,1672,1366,0,0
455,-342,0,0,0,0,0,0,0,0,0,-1,1679,1366,0,0
462,-342,0,0,0,0,0,0,0,0,0,-1,1686,1366,0,0
469,-342,0,0,0,0,0,0,0,0,0,-1,1693,1366,0,0
476,-342,0,0,0,0,0,0,0,0,0,-1,1700,1366,0,0
483,-342,0,0,0,0,0,0,0,0,0,-1,1707,1366,0,0
490,-342,0,0,0,0,0,0,0,0,0,-1,1714,1366,0,0
497,-342,0,0,0,0,0,0,0,0,0,-1,1721,1366,0,0
504,-342,0,0,0,0,0,0,0,0,0,-1,1728,1366,0,0
511,-342,0,0,0,0,0,0,0,0,0,-1,1735,1366,0,0
518,-342,0,0,0,0,0,0,0,0,0,-1,1742,1366,0,0
525,-342,0,0,0,0,0,0,0,0,0,-1,1749,1366,0,0
532,-342,0,0,0,0,0,0,0,0,0,-1,1756,1366,0,0
539,-342,0,0,0,0,0,0,0,0,0,-1,1763,1366,0,0
546,-342,0,0,0,0,0,0,0,0,0,-1,1770,1366,0,0
553,-342,0,0,0,0,0,0,0,0,0,-1,1777,1366,0,0
560,-342,0,0,0,0,0,0,0,0,0,-1,1784,1366,0,0
567,-342,64.6937,3.24878,0,0,0,0,0,0,0,-1,1791,1366,64.6938,-3.24881
574,-342,65.4669,2.18384,0,0,0,0,0,0,0,-1,1798,1366,65.4669,-2.18381
581,-342,66.542,1.36292,0,0,0,0,0,0,0,-1,1805,1366,66.542,-1.36295
588,-342,43.9108,7.22559,0,0,0,0,0,0,0,-1,1812,1366,43.9107,-7.22554
595,-342,35.7993,0.709961,0,0,0,0,0,0,0,-1,1819,1366,35.7993,-0.709913
602,-342,36.3618,3.28723,0,0,0,0,0,0,0,-1,1826,1366,36.3619,-3.28719
609,-342,35.3777,4.14978,0,0,0,0,0,0,0,-1,1833,1366,35.3777,-4.14976
616,-342,34.199,5.8158,0,0,0,0,0,0,0,-1,1840,1366,34.199,-5.81579
623,-342,26.0299,6.86865,0,0,0,0,0,0,0,-1,1847,1366,26.0299,-6.86863
630,-342,17.3431,0.773071,0,0,0,0,0,0,0,-1,1854,1366,17.3432,-0.773095
637,-342,16.196,6.76172,0,0,0,0,0,0,0,-1,1861,1366,16.1961,-6.76174
644,-342,31.8916,14.0614,0,0,0,0,0,0,0,-1,1868,1366,31.8916,-14.0613
651,-342,48.0015,20.7173,0,0,0,0,0,0,0,-1,1875,1366,48.0015,-20.7173
658,-342,47.9784,19.8259,-0.000249367,0.00098458,-0.000784529,0.00136568,-0.000630463,-1.1186,0.00117824,0.0230283,1882,1366,47.9784,-19.8259
665,-342,47.952,18.9255,0.000250656,0.000661157,-0.000711392,0.00119632,-0.000284503,-0.925844,0.000907369,0.0179459,1889,1366,47.9521,-18.9256
672,-342,47.8987,18.1144,0.000842519,0.000554146,-0.000766876,0.00147865,-8.198e-05,-0.692474,0.0010142,0.0141999,1896,1366,47.8987,-18.1144
679,-342,47.8549,17.3016,0.00148591,0.000548541,-0.000879713,0.002014,2.04518e-05,-0.540639,0.0013359,0.0144212,1903,1366,47.8548,-17.3017
686,-342,47.8354,16.4387,0.00215498,0.000566335,-0.0010127,0.00264771,7.36014e-05,-0.452833,0.00174113,0.013171,1910,1366,47.8355,-16.4387
693,-342,47.7421,15.5768,0.00288035,0.000650798,-0.00119315,0.00339847,0.000132685,-0.409671,0.00222274,0.0129752,1917,1366,47.7421,-15.5768
700,-342,47.682,14.7607,0.00361113,0.000754449,-0.00136983,0.00416183,0.000203752,-0.382245,0.00270919,0.0145035,1924,1366,47.682,-14.7608
707,-342,47.6486,13.8777,0.00427934,0.000817545,-0.00148073,0.00482629,0.000270603,-0.35383,0.00313122,0.015121,1931,1366,47.6485,-13.8776
714,-342,47.6469,12.9694,0,0,0,0,0,0,0,-1,1938,1366,47.6469,-12.9694
721,-342,22.4666,6.08679,0,0,0,0,0,0,0,-1,1945,1366,22.4666,-6.08678
728,-342,19.8912,5.26636,0,0,0,0,0,0,0,-1,1952,1366,19.8913,-5.26636
735,-342,19.481,4.41968,0,0,0,0,0,0,0,-1,1959,1366,19.4809,-4.41962
742,-342,19.309,2.66943,0,0,0,0,0,0,0,-1,1966,1366,19.3089,-2.66948
749,-342,21.0934,6.47729,0,0,0,0,0,0,0,-1,1973,1366,21.0934,-6.4773
756,-342,0,0,0,0,0,0,0,0,0,-1,1980,1366,0,0
763,-342,0,0,0,0,0,0,0,0,0,-1,1987,1366,0,0
770,-342,0,0,0,0,0,0,0,0,0,-1,1994,1366,0,0
777,-342,0,0,0,0,0,0,0,0,0,-1,2001,1366,0,0
784,-342,0,0,0,0,0,0,0,0,0,-1,2008,1366,0,0
791,-342,0,0,0,0,0,0,0,0,0,-1,2015,1366,0,0
798,-342,0,0,0,0,0,0,0,0,0,-1,2022,1366,0,0
805,-342,0,0,0,0,0,0,0,0,0,-1,2029,1366,0,0
812,-342,0,0,0,0,0,0,0,0,0,-1,2036,1366,0,0
-700,-349,0,0,0,0,0,0,0,0,0,-1,524,1373,0,0
-693,-349,0,0,0,0,0,0,0,0,0,-1,531,1373,0,0
-686,-349,0,0,0,0,0,0,0,0,0,-1,538,1373,0,0
-679,-349,0,0,0,0,0,0,0,0,0,-1,545,1373,0,0
-672,-349,0,0,0,0,0,0,0,0,0,-1,552,1373,0,0
-665,-349,0,0,0,0,0,0,0,0,0,-1,559,1373,0,0
-658,-349,0,0,0,0,0,0,0,0,0,-1,566,1373,0,0
-651,-349,0,0,0,0,0,0,0,0,0,-1,573,1373,0,0
-644,-349,0,0,0,0,0,0,0,0,0,-1,580,1373,0,0
-637,-349,0,0,0,0,0,0,0,0,0,-1,587,1373,0,0
-630,-349,-7.64117,-5.06177,0,0,0,0,0,0,0,-1,594,1373,-7.64118,5.0618
-623,-349,-8.63507,0.51123,0,0,0,0,0,0,0,-1,601,1373,-8.63505,-0.511275
-616,-349,-5.2066,-0.188232,0,0,0,0,0,0,0,-1,608,1373,-5.20659,0.188211
-609,-349,-7.12073,1.37048,0,0,0,0,0,0,0,-1,615,1373,-7.12072,-1.37044
-602,-349,-9.00623,3.39587,0,0,0,0,0,0,0,-1,622,1373,-9.0062,-3.39591
-595,-349,-9.50568,2.96912,0,0,0,0,0,0,0,-1,629,1373,-9.50569,-2.96906
-588,-349,-8.60046,3.56042,0,0,0,0,0,0,0,-1,636,1373,-8.60046,-3.56047
-581,-349,-29.4403,12.8848,0,0,0,0,0,0,0,-1,643,1373,-29.4403,-12.8848
-574,-349,-29.5527,13.6893,0.00554518,0.00610464,0.00394332,0.00977814,0.00187169,0.820808,0.00599309,0.0475224,650,1373,-29.5527,-13.6893
-567,-349,-29.6252,14.6589,0.004475,0.00455424,0.0030356,0.00755048,0.00147876,0.791923,0.0046203,0.0191667,657,1373,-29.6252,-14.6589
-560,-349,-29.6664,15.5557,0.00393081,0.00332781,0.00245935,0.00610708,0.00115154,0.724406,0.00374699,0.0224309,664,1373,-29.6664,-15.5557
-553,-349,-29.7446,16.386,0.00369919,0.00231159,0.0021055,0.00522226,0.000788531,0.626242,0.0032507,0.028661,671,1373,-29.7446,-16.386
-546,-349,-29.7689,17.2301,0.00369354,0.00146385,0.00191375,0.00479349,0.000363898,0.521655,0.00308153,0.0312706,678,1373,-29.7689,-17.2301
-539,-349,-29.7869,18.1287,0.00391556,0.000772595,0.00188234,0.00479617,-0.000108014,0.43758,0.00323405,0.025026,685,1373,-29.7869,-18.1287
-532,-349,-29.8763,19.0717,0.00438941,0.000237711,0.00201864,0.00520908,-0.000581963,0.385713,0.00368207,0.0189444,692,1373,-29.8763,-19.0717
-525,-349,-29.879,19.9722,0.00511462,-0.000135922,0.00233456,0.0060025,-0.0010238,0.363426,0.00438297,0.0155013,699,1373,-29.879,-19.9721
-518,-349,-29.8829,20.8904,0.0061433,-0.000231124,0.00283997,0.00722501,-0.00131284,0.363924,0.00530868,0.0304567,706,1373,-29.8829,-20.8904
-511,-349,-29.8434,21.8236,0,0,0,0,0,0,0,-1,713,1373,-29.8434,-21.8236
-504,-349,-9.60516,7.88831,0,0,0,0,0,0,0,-1,720,1373,-9.60519,-7.88825
-497,-349,-7.9339,5.58789,0,0,0,0,0,0,0,-1,727,1373,-7.93388,-5.58785
-490,-349,-8.73969,-0.503784,0,0,0,0,0,0,0,-1,734,1373,-8.73966,0.503752
-483,-349,-5.66974,3.7395,0,0,0,0,0,0,0,-1,741,1373,-5.66975,-3.73949
-476,-349,-10.8496,1.15759,0,0,0,0,0,0,0,-1,748,1373,-10.8496,-1.15756
-469,-349,-12.3314,-1.74878,0,0,0,0,0,0,0,-1,755,1373,-12.3314,1.74882
-462,-349,-12.6559,-0.995361,0,0,0,0,0,0,0,-1,762,1373,-12.656,0.995351
-455,-349,-13.2897,-0.234253,0,0,0,0,0,0,0,-1,769,1373,-13.2897,0.234261
-448,-349,-14.045,0.712891,0,0,0,0,0,0,0,-1,776,1373,-14.045,-0.712838
-441,-349,0,0,0,0,0,0,0,0,0,-1,783,1373,0,0
-434,-349,0,0,0,0,0,0,0,0,0,-1,790,1373,0,0
-427,-349,0,0,0,0,0,0,0,0,0,-1,797,1373,0,0
-420,-349,0,0,0,0,0,0,0,0,0,-1,804,1373,0,0
-413,-349,0,0,0,0,0,0,0,0,0,-1,811,1373,0,0
-406,-349,0,0,0,0,0,0,0,0,0,-1,818,1373,0,0
-399,-349,0,0,0,0,0,0,0,0,0,-1,825,1373,0,0
-392,-349,0,0,0,0,0,0,0,0,0,-1,832,1373,0,0
-385,-349,0,0,0,0,0,0,0,0,0,-1,839,1373,0,0
-378,-349,0,0,0,0,0,0,0,0,0,-1,846,1373,0,0
-371,-349,0,0,0,0,0,0,0,0,0,-1,853,1373,0,0
-364,-349,0,0,0,0,0,0,0,0,0,-1,860,1373,0,0
-357,-349,0,0,0,0,0,0,0,0,0,-1,867,1373,0,0
-350,-349,0,0,0,0,0,0,0,0,0,-1,874,1373,0,0
-343,-349,0,0,0,0,0,0,0,0,0,-1,881,1373,0,0
-336,-349,0,0,0,0,0,0,0,0,0,-1,888,1373,0,0
-329,-349,0,0,0,0,0,0,0,0,0,-1,895,1373,0,0
-322,-349,0,0,0,0,0,0,0,0,0,-1,902,1373,0,0
-315,-349,0,0,0,0,0,0,0,0,0,-1,909,1373,0,0
-308,-349,0,0,0,0,0,0,0,0,0,-1,916,1373,0,0
-301,-349,0,0,0,0,0,0,0,0,0,-1,923,1373,0,0
-294,-349,0,0,0,0,0,0,0,0,0,-1,930,1373,0,0
-287,-349,0,0,0,0,0,0,0,0,0,-1,937,1373,0,0
-280,-349,0,0,0,0,0,0,0,0,0,-1,944,1373,0,0
-273,-349,0,0,0,0,0,0,0,0,0,-1,951,1373,0,0
-266,-349,0,0,0,0,0,0,0,0,0,-1,958,1373,0,0
-259,-349,0,0,0,0,0,0,0,0,0,-1,965,1373,0,0
-252,-349,0,0,0,0,0,0,0,0,0,-1,972,1373,0,0
-245,-349,0,0,0,0,0,0,0,0,0,-1,979,1373,0,0
-238,-349,0,0,0,0,0,0,0,0,0,-1,986,1373,0,0
-231,-349,0,0,0,0,0,0,0,0,0,-1,993,1373,0,0
-224,-349,0,0,0,0,0,0,0,0,0,-1,1000,1373,0,0
-217,-349,0,0,0,0,0,0,0,0,0,-1,1007,1373,0,0
-210,-349,0,0,0,0,0,0,0,0,0,-1,1014,1373,0,0
-203,-349,0,0,0,0,0,0,0,0,0,-1,1021,1373,0,0
-196,-349,0,0,0,0,0,0,0,0,0,-1,1028,1373,0,0
-189,-349,0,0,0,0,0,0,0,0,0,-1,1035,1373,0,0
-182,-349,0,0,0,0,0,0,0,0,0,-1,1042,1373,0,0
-175,-349,0,0,0,0,0,0,0,0,0,-1,1049,1373,0,0
-168,-349,0,0,0,0,0,0,0,0,0,-1,1056,1373,0,0
-161,-349,0,0,0,0,0,0,0,0,0,-1,1063,1373,0,0
-154,-349,0,0,0,0,0,0,0,0,0,-1,1070,1373,0,0
-147,-349,0,0,0,0,0,0,0,0,0,-1,1077,1373,0,0
-140,-349,0,0,0,0,0,0,0,0,0,-1,1084,1373,0,0
-133,-349,0,0,0,0,0,0,0,0,0,-1,1091,1373,0,0
-126,-349,0,0,0,0,0,0,0,0,0,-1,1098,1373,0,0
-119,-349,0,0,0,0,0,0,0,0,0,-1,1105,1373,0,0
-112,-349,0,0,0,0,0,0,0,0,0,-1,1112,1373,0,0
-105,-349,0,0,0,0,0,0,0,0,0,-1,1119,1373,0,0
-98,-349,0,0,0,0,0,0,0,0,0,-1,1126,1373,0,0
-91,-349,0,0,0,0,0,0,0,0,0,-1,1133,1373,0,0
-84,-349,0,0,0,0,0,0,0,0,0,-1,1140,1373,0,0
-77,-349,0,0,0,0,0,0,0,0,0,-1,1147,1373,0,0
-70,-349,0,0,0,0,0,0,0,0,0,-1,1154,1373,0,0
-63,-349,0,0,0,0,0,0,0,0,0,-1,1161,1373,0,0
-56,-349,0,0,0,0,0,0,0,0,0,-1,1168,1373,0,0
-49,-349,0,0,0,0,0,0,0,0,0,-1,1175,1373,0,0
-42,-349,0,0,0,0,0,0,0,0,0,-1,1182,1373,0,0
-35,-349,0,0,0,0,0,0,0,0,0,-1,1189,1373,0,0
-28,-349,0,0,0,0,0,0,0,0,0,-1,1196,1373,0,0
-21,-349,0,0,0,0,0,0,0,0,0,-1,1203,1373,0,0
-14,-349,0,0,0,0,0,0,0,0,0,-1,1210,1373,0,0
-7,-349,0,0,0,0,0,0,0,0,0,-1,1217,1373,0,0
0,-349,0,0,0,0,0,0,0,0,0,-1,1224,1373,0,0
7,-349,0,0,0,0,0,0,0,0,0,-1,1231,1373,0,0
14,-349,0,0,0,0,0,0,0,0,0,-1,1238,1373,0,0
21,-349,0,0,0,0,0,0,0,0,0,-1,1245,1373,0,0
28,-349,0,0,0,0,0,0,0,0,0,-1,1252,1373,0,0
35,-349,0,0,0,0,0,0,0,0,0,-1,1259,1373,0,0
42,-349,0,0,0,0,0,0,0,0,0,-1,1266,1373,0,0
49,-349,0,0,0,0,0,0,0,0,0,-1,1273,1373,0,0
56,-349,0,0,0,0,0,0,0,0,0,-1,1280,1373,0,0
63,-349,0,0,0,0,0,0,0,0,0,-1,1287,1373,0,0
70,-349,0,0,0,0,0,0,0,0,0,-1,1294,1373,0,0
77,-349,0,0,0,0,0,0,0,0,0,-1,1301,1373,0,0
84,-349,0,0,0,0,0,0,0,0,0,-1,1308,1373,0,0
91,-349,0,0,0,0,0,0,0,0,0,-1,1315,1373,0,0
98,-349,0,0,0,0,0,0,0,0,0,-1,1322,1373,0,0
105,-349,0,0,0,0,0,0,0,0,0,-1,1329,1373,0,0
112,-349,0,0,0,0,0,0,0,0,0,-1,1336,1373,0,0
119,-349,0,0,0,0,0,0,0,0,0,-1,1343,1373,0,0
126,-349,0,0,0,0,0,0,0,0,0,-1,1350,1373,0,0
133,-349,0,0,0,0,0,0,0,0,0,-1,1357,1373,0,0
140,-349,0,0,0,0,0,0,0,0,0,-1,1364,1373,0,0
147,-349,0,0,0,0,0,0,0,0,0,-1,1371,1373,0,0
154,-349,0,0,0,0,0,0,0,0,0,-1,1378,1373,0,0
161,-349,0,0,0,0,0,0,0,0,0,-1,1385,1373,0,0
168,-349,0,0,0,0,0,0,0,0,0,-1,1392,1373,0,0
175,-349,0,0,0,0,0,0,0,0,0,-1,1399,1373,0,0
182,-349,0,0,0,0,0,0,0,0,0,-1,1406,1373,0,0
189,-349,0,0,0,0,0,0,0,0,0,-1,1413,1373,0,0
196,-349,0,0,0,0,0,0,0,0,0,-1,1420,1373,0,0
203,-349,0,0,0,0,0,0,0,0,0,-1,1427,1373,0,0
210,-349,0,0,0,0,0,0,0,0,0,-1,1434,1373,0,0
217,-349,0,0,0,0,0,0,0,0,0,-1,1441,1373,0,0
224,-349,0,0,0,0,0,0,0,0,0,-1,1448,1373,0,0
231,-349,0,0,0,0,0,0,0,0,0,-1,1455,1373,0,0
238,-349,0,0,0,0,0,0,0,0,0,-1,1462,1373,0,0
245,-349,0,0,0,0,0,0,0,0,0,-1,1469,1373,0,0
252,-349,0,0,0,0,0,0,0,0,0,-1,1476,1373,0,0
259,-349,0,0,0,0,0,0,0,0,0,-1,1483,1373,0,0
266,-349,0,0,0,0,0,0,0,0,0,-1,1490,1373,0,0
273,-349,0,0,0,0,0,0,0,0,0,-1,1497,1373,0,0
280,-349,0,0,0,0,0,0,0,0,0,-1,1504,1373,0,0
287,-349,0,0,0,0,0,0,0,0,0,-1,1511,1373,0,0
294,-349,0,0,0,0,0,0,0,0,0,-1,1518,1373,0,0
301,-349,0,0,0,0,0,0,0,0,0,-1,1525,1373,0,0
308,-349,0,0,0,0,0,0,0,0,0,-1,1532,1373,0,0
315,-349,0,0,0,0,0,0,0,0,0,-1,1539,1373,0,0
322,-349,0,0,0,0,0,0,0,0,0,-1,1546,1373,0,0
329,-349,0,0,0,0,0,0,0,0,0,-1,1553,1373,0,0
336,-349,0,0,0,0,0,0,0,0,0,-1,1560,1373,0,0
343,-349,0,0,0,0,0,0,0,0,0,-1,1567,1373,0,0
350,-349,0,0,0,0,0,0,0,0,0,-1,1574,1373,0,0
357,-349,0,0,0,0,0,0,0,0,0,-1,1581,1373,0,0
364,-349,0,0,0,0,0,0,0,0,0,-1,1588,1373,0,0
371,-349,0,0,0,0,0,0,0,0,0,-1,1595,1373,0,0
378,-349,0,0,0,0,0,0,0,0,0,-1,1602,1373,0,0
385,-349,0,0,0,0,0,0,0,0,0,-1,1609,1373,0,0
392,-349,0,0,0,0,0,0,0,0,0,-1,1616,1373,0,0
399,-349,0,0,0,0,0,0,0,0,0,-1,1623,1373,0,0
406,-349,0,0,0,0,0,0,0,0,0,-1,1630,1373,0,0
413,-349,0,0,0,0,0,0,0,0,0,-1,1637,1373,0,0
420,-349,0,0,0,0,0,0,0,0,0,-1,1644,1373,0,0
427,-349,0,0,0,0,0,0,0,0,0,-1,1651,1373,0,0
434,-349,0,0,0,0,0,0,0,0,0,-1,1658,1373,0,0
441,-349,0,0,0,0,0,0,0,0,0,-1,1665,1373,0,0
448,-349,0,0,0,0,0,0,0,0,0,-1,1672,1373,0,0
455,-349,0,0,0,0,0,0,0,0,0,-1,1679,1373,0,0
462,-349,0,0,0,0,0,0,0,0,0,-1,1686,1373,0,0
469,-349,0,0,0,0,0,0,0,0,0,-1,1693,1373,0,0
476,-349,0,0,0,0,0,0,0,0,0,-1,1700,1373,0,0
483,-349,0,0,0,0,0,0,0,0,0,-1,1707,1373,0,0
490,-349,0,0,0,0,0,0,0,0,0,-1,1714,1373,0,0
497,-349,0,0,0,0,0,0,0,0,0,-1,1721,1373,0,0
504,-349,0,0,0,0,0,0,0,0,0,-1,1728,1373,0,0
511,-349,0,0,0,0,0,0,0,0,0,-1,1735,1373,0,0
518,-349,0,0,0,0,0,0,0,0,0,-1,1742,1373,0,0
525,-349,0,0,0,0,0,0,0,0,0,-1,1749,1373,0,0
532,-349,0,0,0,0,0,0,0,0,0,-1,1756,1373,0,0
539,-349,0,0,0,0,0,0,0,0,0,-1,1763,1373,0,0
546,-349,0,0,0,0,0,0,0,0,0,-1,1770,1373,0,0
553,-349,0,0,0,0,0,0,0,0,0,-1,1777,1373,0,0
560,-349,63.5519,3.94397,0,0,0,0,0,0,0,-1,1784,1373,63.5519,-3.94394
567,-349,64.7863,2.54688,0,0,0,0,0,0,0,-1,1791,1373,64.7863,-2.5469
574,-349,65.8214,1.63818,0,0,0,0,0,0,0,-1,1798,1373,65.8214,-1.63813
581,-349,42.8947,6.78381,0,0,0,0,0,0,0,-1,1805,1373,42.8946,-6.78376
588,-349,44.8121,5.06213,0,0,0,0,0,0,0,-1,1812,1373,44.8121,-5.06215
595,-349,44.4338,6.14099,0,0,0,0,0,0,0,-1,1819,1373,44.4338,-6.14095
602,-349,35.6641,3.26465,0,0,0,0,0,0,0,-1,1826,1373,35.6641,-3.26468
609,-349,34.7175,4.401,0,0,0,0,0,0,0,-1,1833,1373,34.7175,-4.40096
616,-349,27.1451,6.68274,0,0,0,0,0,0,0,-1,1840,1373,27.1451,-6.6828
623,-349,18.8478,2.75769,0,0,0,0,0,0,0,-1,1847,1373,18.8478,-2.75774
630,-349,15.4948,6.47644,0,0,0,0,0,0,0,-1,1854,1373,15.4947,-6.4765
637,-349,16.5161,6.92639,0,0,0,0,0,0,0,-1,1861,1373,16.5161,-6.92636
644,-349,44.2694,19.8312,0,0,0,0,0,0,0,-1,1868,1373,44.2695,-19.8311
651,-349,47.2463,20.6953,0,0,0,0,0,0,0,-1,1875,1373,47.2463,-20.6953
658,-349,47.1509,19.8611,-0.00022053,0.000869719,-0.000581846,0.00112191,-0.000472716,-1.16181,0.000945745,0.0278423,1882,1373,47.1508,-19.861
665,-349,47.0685,19.0148,0.000352601,0.000622483,-0.000625924,0.00112785,-0.000152762,-0.891567,0.000807648,0.0225921,1889,1373,47.0685,-19.0148
672,-349,47.0487,18.1694,0.00102239,0.000556788,-0.000788448,0.00161169,-3.25082e-05,-0.641843,0.00108546,0.0158559,1896,1373,47.0487,-18.1694
679,-349,47.019,17.3203,0.00177172,0.000575982,-0.00102804,0.0023631,-1.53988e-05,-0.522022,0.00158056,0.0169239,1903,1373,47.019,-17.3203
686,-349,47.0349,16.4736,0.00258361,0.000662425,-0.00132008,0.00325561,-9.56748e-06,-0.470866,0.0021736,0.0192119,1910,1373,47.0349,-16.4737
693,-349,46.9105,15.6326,0.00348308,0.000840021,-0.00168277,0.00430121,2.18912e-05,-0.452532,0.00286021,0.0205662,1917,1373,46.9105,-15.6326
700,-349,46.8411,14.8174,0.00443634,0.00108432,-0.00208585,0.00543611,8.45552e-05,-0.446958,0.00359622,0.0181224,1924,1373,46.8411,-14.8174
707,-349,46.9025,13.9166,0.00536325,0.00133029,-0.00244574,0.00651661,0.00017694,-0.440651,0.00428664,0.0408895,1931,1373,46.9025,-13.9166
714,-349,47.006,12.8812,0,0,0,0,0,0,0,-1,1938,1373,47.0059,-12.8813
721,-349,19.6688,5.93604,0,0,0,0,0,0,0,-1,1945,1373,19.6688,-5.93606
728,-349,18.6333,3.73218,0,0,0,0,0,0,0,-1,1952,1373,18.6333,-3.73214
735,-349,18.1918,3.39954,0,0,0,0,0,0,0,-1,1959,1373,18.1918,-3.3995
742,-349,20.7345,2.07483,0,0,0,0,0,0,0,-1,1966,1373,20.7345,-2.07485
749,-349,21.9037,1.45789,0,0,0,0,0,0,0,-1,1973,1373,21.9037,-1.45788
756,-349,0,0,0,0,0,0,0,0,0,-1,1980,1373,0,0
763,-349,0,0,0,0,0,0,0,0,0,-1,1987,1373,0,0
770,-349,0,0,0,0,0,0,0,0,0,-1,1994,1373,0,0
777,-349,0,0,0,0,0,0,0,0,0,-1,2001,1373,0,0
784,-349,0,0,0,0,0,0,0,0,0,-1,2008,1373,0,0
791,-349,0,0,0,0,0,0,0,0,0,-1,2015,1373,0,0
798,-349,0,0,0,0,0,0,0,0,0,-1,2022,1373,0,0
805,-349,0,0,0,0,0,0,0,0,0,-1,2029,1373,0,0
812,-349,0,0,0,0,0,0,0,0,0,-1,2036,1373,0,0
-700,-356,0,0,0,0,0,0,0,0,0,-1,524,1380,0,0
-693,-356,0,0,0,0,0,0,0,0,0,-1,531,1380,0,0
-686,-356,0,0,0,0,0,0,0,0,0,-1,538,1380,0,0
-679,-356,0,0,0,0,0,0,0,0,0,-1,545,1380,0,0
-672,-356,0,0,0,0,0,0,0,0,0,-1,552,1380,0,0
-665,-356,0,0,0,0,0,0,0,0,0,-1,559,1380,0,0
-658,-356,0,0,0,0,0,0,0,0,0,-1,566,1380,0,0
-651,-356,0,0,0,0,0,0,0,0,0,-1,573,1380,0,0
-644,-356,0,0,0,0,0,0,0,0,0,-1,580,1380,0,0
-637,-356,0,0,0,0,0,0,0,0,0,-1,587,1380,0,0
-630,-356,-8.23126,-5.01917,0,0,0,0,0,0,0,-1,594,1380,-8.23124,5.0192
-623,-356,-0.263855,-0.675781,0,0,0,0,0,0,0,-1,601,1380,-0.263835,0.675841
-616,-356,-8.26532,-3.43945,0,0,0,0,0,0,0,-1,608,1380,-8.2653,3.43948
-609,-356,-4.88483,0.734497,0,0,0,0,0,0,0,-1,615,1380,-4.88485,-0.734532
-602,-356,-9.06635,2.4021,0,0,0,0,0,0,0,-1,622,1380,-9.06634,-2.40206
-595,-356,-8.45703,3.61853,0,0,0,0,0,0,0,-1,629,1380,-8.45706,-3.61848
-588,-356,-9.31738,4.14258,0,0,0,0,0,0,0,-1,636,1380,-9.31736,-4.14255
-581,-356,-16.5185,7.32312,0,0,0,0,0,0,0,-1,643,1380,-16.5185,-7.32306
-574,-356,-28.6213,13.9205,0,0,0,0,0,0,0,-1,650,1380,-28.6214,-13.9205
-567,-356,-28.81,14.6288,0.00509114,0.00528297,0.0037119,0.00890019,0.00147392,0.798315,0.00550828,0.0268127,657,1380,-28.81,-14.6288
-560,-356,-28.7547,15.6226,0.00430109,0.00386563,0.00290004,0.00699156,0.00117515,0.747929,0.0043229,0.0197199,664,1380,-28.7547,-15.6225
-553,-356,-28.8124,16.5143,0.00387269,0.00272382,0.00236915,0.00573605,0.000860459,0.666461,0.00357193,0.0221094,671,1380,-28.8124,-16.5143
-546,-356,-28.8833,17.3535,0.00365571,0.00177739,0.00200897,0.0049342,0.000498902,0.566749,0.00313642,0.0238644,678,1380,-28.8833,-17.3535
-539,-356,-28.9314,18.2264,0.00367213,0.00100698,0.00181879,0.00459427,8.48395e-05,0.469239,0.00303496,0.0174275,685,1380,-28.9314,-18.2264
-532,-356,-29.0274,19.1294,0.00394065,0.000435206,0.00181757,0.00471292,-0.000337068,0.40178,0.00326012,0.0171223,692,1380,-29.0274,-19.1294
-525,-356,-29.0411,20.0149,0.00445084,2.74273e-05,0.00198902,0.00521366,-0.000735396,0.366218,0.00374505,0.0138911,699,1380,-29.0411,-20.0149
-518,-356,-29.0654,20.8932,0.0052385,-0.000120287,0.00235187,0.00612428,-0.00100606,0.360196,0.00445622,0.0152072,706,1380,-29.0654,-20.8932
-511,-356,-29.0892,21.7765,0,0,0,0,0,0,0,-1,713,1380,-29.0892,-21.7765
-504,-356,-14.3925,12.3971,0,0,0,0,0,0,0,-1,720,1380,-14.3925,-12.3971
-497,-356,-5.68604,4.96387,0,0,0,0,0,0,0,-1,727,1380,-5.68605,-4.96385
-490,-356,-7.95288,5.5625,0,0,0,0,0,0,0,-1,734,1380,-7.95285,-5.56246
-483,-356,-7.2627,4.07446,0,0,0,0,0,0,0,-1,741,1380,-7.2627,-4.07441
-476,-356,-5.1936,4.16016,0,0,0,0,0,0,0,-1,748,1380,-5.1936,-4.16012
-469,-356,-10.0883,0.536011,0,0,0,0,0,0,0,-1,755,1380,-10.0883,-0.535989
-462,-356,-12.3481,-0.215698,0,0,0,0,0,0,0,-1,762,1380,-12.3481,0.215641
-455,-356,-13.1367,-0.264648,0,0,0,0,0,0,0,-1,769,1380,-13.1367,0.264647
-448,-356,-13.9116,-0.310181,0,0,0,0,0,0,0,-1,776,1380,-13.9115,0.310207
-441,-356,-13.1602,3.05603,0,0,0,0,0,0,0,-1,783,1380,-13.1602,-3.05609
-434,-356,0,0,0,0,0,0,0,0,0,-1,790,1380,0,0
-427,-356,0,0,0,0,0,0,0,0,0,-1,797,1380,0,0
-420,-356,0,0,0,0,0,0,0,0,0,-1,804,1380,0,0
-413,-356,0,0,0,0,0,0,0,0,0,-1,811,1380,0,0
-406,-356,0,0,0,0,0,0,0,0,0,-1,818,1380,0,0
-399,-356,0,0,0,0,0,0,0,0,0,-1,825,1380,0,0
-392,-356,0,0,0,0,0,0,0,0,0,-1,832,1380,0,0
-385,-356,0,0,0,0,0,0,0,0,0,-1,839,1380,0,0
-378,-356,0,0,0,0,0,0,0,0,0,-1,846,1380,0,0
-371,-356,0,0,0,0,0,0,0,0,0,-1,853,1380,0,0
-364,-356,0,0,0,0,0,0,0,0,0,-1,860,1380,0,0
-357,-356,0,0,0,0,0,0,0,0,0,-1,867,1380,0,0
-350,-356,0,0,0,0,0,0,0,0,0,-1,874,1380,0,0
-343,-356,0,0,0,0,0,0,0,0,0,-1,881,1380,0,0
-336,-356,0,0,0,0,0,0,0,0,0,-1,888,1380,0,0
-329,-356,0,0,0,0,0,0,0,0,0,-1,895,1380,0,0
-322,-356,0,0,0,0,0,0,0,0,0,-1,902,1380,0,0
-315,-356,0,0,0,0,0,0,0,0,0,-1,909,1380,0,0
-308,-356,0,0,0,0,0,0,0,0,0,-1,916,1380,0,0
-301,-356,0,0,0,0,0,0,0,0,0,-1,923,1380,0,0
-294,-356,0,0,0,0,0,0,0,0,0,-1,930,1380,0,0
-287,-356,0,0,0,0,0,0,0,0,0,-1,937,1380,0,0
-280,-356,0,0,0,0,0,0,0,0,0,-1,944,1380,0,0
-273,-356,0,0,0,0,0,0,0,0,0,-1,951,1380,0,0
-266,-356,0,0,0,0,0,0,0,0,0,-1,958,1380,0,0
-259,-356,0,0,0,0,0,0,0,0,0,-1,965,1380,0,0
-252,-356,0,0,0,0,0,0,0,0,0,-1,972,1380,0,0
-245,-356,0,0,0,0,0,0,0,0,0,-1,979,1380,0,0
-238,-356,0,0,0,0,0,0,0,0,0,-1,986,1380,0,0
-231,-356,0,0,0,0,0,0,0,0,0,-1,993,1380,0,0
-224,-356,0,0,0,0,0,0,0,0,0,-1,1000,1380,0,0
-217,-356,0,0,0,0,0,0,0,0,0,-1,1007,1380,0,0
-210,-356,0,0,0,0,0,0,0,0,0,-1,1014,1380,0,0
-203,-356,0,0,0,0,0,0,0,0,0,-1,1021,1380,0,0
-196,-356,0,0,0,0,0,0,0,0,0,-1,1028,1380,0,0
-189,-356,0,0,0,0,0,0,0,0,0,-1,1035,1380,0,0
-182,-356,0,0,0,0,0,0,0,0,0,-1,1042,1380,0,0
-175,-356,0,0,0,0,0,0,0,0,0,-1,1049,1380,0,0
-168,-356,0,0,0,0,0,0,0,0,0,-1,1056,1380,0,0
-161,-356,0,0,0,0,0,0,0,0,0,-1,1063,1380,0,0
-154,-356,0,0,0,0,0,0,0,0,0,-1,1070,1380,0,0
-147,-356,0,0,0,0,0,0,0,0,0,-1,1077,1380,0,0
-140,-356,0,0,0,0,0,0,0,0,0,-1,1084,1380,0,0
-133,-356,0,0,0,0,0,0,0,0,0,-1,1091,1380,0,0
-126,-356,0,0,0,0,0,0,0,0,0,-1,1098,1380,0,0
-119,-356,0,0,0,0,0,0,0,0,0,-1,1105,1380,0,0
-112,-356,0,0,0,0,0,0,0,0,0,-1,1112,1380,0,0
-105,-356,0,0,0,0,0,0,0,0,0,-1,1119,1380,0,0
-98,-356,0,0,0,0,0,0,0,0,0,-1,1126,1380,0,0
-91,-356,0,0,0,0,0,0,0,0,0,-1,1133,1380,0,0
-84,-356,0,0,0,0,0,0,0,0,0,-1,1140,1380,0,0
-77,-356,0,0,0,0,0,0,0,0,0,-1,1147,1380,0,0
-70,-356,0,0,0,0,0,0,0,0,0,-1,1154,1380,0,0
-63,-356,0,0,0,0,0,0,0,0,0,-1,1161,1380,0,0
-56,-356,0,0,0,0,0,0,0,0,0,-1,1168,1380,0,0
-49,-356,0,0,0,0,0,0,0,0,0,-1,1175,1380,0,0
-42,-356,0,0,0,0,0,0,0,0,0,-1,1182,1380,0,0
-35,-356,0,0,0,0,0,0,0,0,0,-1,1189,1380,0,0
-28,-356,0,0,0,0,0,0,0,0,0,-1,1196,1380,0,0
-21,-356,0,0,0,0,0,0,0,0,0,-1,1203,1380,0,0
-14,-356,0,0,0,0,0,0,0,0,0,-1,1210,1380,0,0
-7,-356,0,0,0,0,0,0,0,0,0,-1,1217,1380,0,0
0,-356,0,0,0,0,0,0,0,0,0,-1,1224,1380,0,0
7,-356,0,0,0,0,0,0,0,0,0,-1,1231,1380,0,0
14,-356,0,0,0,0,0,0,0,0,0,-1,1238,1380,0,0
21,-356,0,0,0,0,0,0,0,0,0,-1,1245,1380,0,0
28,-356,0,0,0,0,0,0,0,0,0,-1,1252,1380,0,0
35,-356,0,0,0,0,0,0,0,0,0,-1,1259,1380,0,0
42,-356,0,0,0,0,0,0,0,0,0,-1,1266,1380,0,0
49,-356,0,0,0,0,0,0,0,0,0,-1,1273,1380,0,0
56,-356,0,0,0,0,0,0,0,0,0,-1,1280,1380,0,0
63,-356,0,0,0,0,0,0,0,0,0,-1,1287,1380,0,0
70,-356,0,0,0,0,0,0,0,0,0,-1,1294,1380,0,0
77,-356,0,0,0,0,0,0,0,0,0,-1,1301,1380,0,0
84,-356,0,0,0,0,0,0,0,0,0,-1,1308,1380,0,0
91,-356,0,0,0,0,0,0,0,0,0,-1,1315,1380,0,0
98,-356,0,0,0,0,0,0,0,0,0,-1,1322,1380,0,0
105,-356,0,0,0,0,0,0,0,0,0,-1,1329,1380,0,0
112,-356,0,0,0,0,0,0,0,0,0,-1,1336,1380,0,0
119,-356,0,0,0,0,0,0,0,0,0,-1,1343,1380,0,0
126,-356,0,0,0,0,0,0,0,0,0,-1,1350,1380,0,0
133,-356,0,0,0,0,0,0,0,0,0,-1,1357,1380,0,0
140,-356,0,0,0,0,0,0,0,0,0,-1,1364,1380,0,0
147,-356,0,0,0,0,0,0,0,0,0,-1,1371,1380,0,0
154,-356,0,0,0,0,0,0,0,0,0,-1,1378,1380,0,0
161,-356,0,0,0,0,0,0,0,0,0,-1,1385,1380,0,0
168,-356,0,0,0,0,0,0,0,0,0,-1,1392,1380,0,0
175,-356,0,0,0,0,0,0,0,0,0,-1,1399,1380,0,0
182,-356,0,0,0,0,0,0,0,0,0,-1,1406,1380,0,0
189,-356,0,0,0,0,0,0,0,0,0,-1,1413,1380,0,0
196,-356,0,0,0,0,0,0,0,0,0,-1,1420,1380,0,0
203,-356,0,0,0,0,0,0,0,0,0,-1,1427,1380,0,0
210,-356,0,0,0,0,0,0,0,0,0,-1,1434,1380,0,0
217,-356,0,0,0,0,0,0,0,0,0,-1,1441,1380,0,0
224,-356,0,0,0,0,0,0,0,0,0,-1,1448,1380,0,0
231,-356,0,0,0,0,0,0,0,0,0,-1,1455,1380,0,0
238,-356,0,0,0,0,0,0,0,0,0,-1,1462,1380,0,0
245,-356,0,0,0,0,0,0,0,0,0,-1,1469,1380,0,0
252,-356,0,0,0,0,0,0,0,0,0,-1,1476,1380,0,0
259,-356,0,0,0,0,0,0,0,0,0,-1,1483,1380,0,0
266,-356,0,0,0,0,0,0,0,0,0,-1,1490,1380,0,0
273,-356,0,0,0,0,0,0,0,0,0,-1,1497,1380,0,0
280,-356,0,0,0,0,0,0,0,0,0,-1,1504,1380,0,0
287,-356,0,0,0,0,0,0,0,0,0,-1,1511,1380,0,0
294,-356,0,0,0,0,0,0,0,0,0,-1,1518,1380,0,0
301,-356,0,0,0,0,0,0,0,0,0,-1,1525,1380,0,0
308,-356,0,0,0,0,0,0,0,0,0,-1,1532,1380,0,0
315,-356,0,0,0,0,0,0,0,0,0,-1,1539,1380,0,0
322,-356,0,0,0,0,0,0,0,0,0,-1,1546,1380,0,0
329,-356,0,0,0,0,0,0,0,0,0,-1,1553,1380,0,0
336,-356,0,0,0,0,0,0,0,0,0,-1,1560,1380,0,0
343,-356,0,0,0,0,0,0,0,0,0,-1,1567,1380,0,0
350,-356,0,0,0,0,0,0,0,0,0,-1,1574,1380,0,0
357,-356,0,0,0,0,0,0,0,0,0,-1,1581,1380,0,0
364,-356,0,0,0,0,0,0,0,0,0,-1,1588,1380,0,0
371,-356,0,0,0,0,0,0,0,0,0,-1,1595,1380,0,0
378,-356,0,0,0,0,0,0,0,0,0,-1,1602,1380,0,0
385,-356,0,0,0,0,0,0,0,0,0,-1,1609,1380,0,0
392,-356,0,0,0,0,0,0,0,0,0,-1,1616,1380,0,0
399,-356,0,0,0,0,0,0,0,0,0,-1,1623,1380,0,0
406,-356,0,0,0,0,0,0,0,0,0,-1,1630,1380,0,0
413,-356,0,0,0,0,0,0,0,0,0,-1,1637,1380,0,0
420,-356,0,0,0,0,0,0,0,0,0,-1,1644,1380,0,0
427,-356,0,0,0,0,0,0,0,0,0,-1,1651,1380,0,0
434,-356,0,0,0,0,0,0,0,0,0,-1,1658,1380,0,0
441,-356,0,0,0,0,0,0,0,0,0,-1,1665,1380,0,0
448,-356,0,0,0,0,0,0,0,0,0,-1,1672,1380,0,0
455,-356,0,0,0,0,0,0,0,0,0,-1,1679,1380,0,0
462,-356,0,0,0,0,0,0,0,0,0,-1,1686,1380,0,0
469,-356,0,0,0,0,0,0,0,0,0,-1,1693,1380,0,0
476,-356,0,0,0,0,0,0,0,0,0,-1,1700,1380,0,0
483,-356,0,0,0,0,0,0,0,0,0,-1,1707,1380,0,0
490,-356,0,0,0,0,0,0,0,0,0,-1,1714,1380,0,0
497,-356,0,0,0,0,0,0,0,0,0,-1,1721,1380,0,0
504,-356,0,0,0,0,0,0,0,0,0,-1,1728,1380,0,0
511,-356,0,0,0,0,0,0,0,0,0,-1,1735,1380,0,0
518,-356,0,0,0,0,0,0,0,0,0,-1,1742,1380,0,0
525,-356,0,0,0,0,0,0,0,0,0,-1,1749,1380,0,0
532,-356,0,0,0,0,0,0,0,0,0,-1,1756,1380,0,0
539,-356,0,0,0,0,0,0,0,0,0,-1,1763,1380,0,0
546,-356,0,0,0,0,0,0,0,0,0,-1,1770,1380,0,0
553,-356,0,0,0,0,0,0,0,0,0,-1,1777,1380,0,0
560,-356,63.6171,3.12183,0,0,0,0,0,0,0,-1,1784,1380,63.617,-3.12183
567,-356,65.0425,1.89966,0,0,0,0,0,0,0,-1,1791,1380,65.0424,-1.8996
574,-356,45.5742,3.39575,0,0,0,0,0,0,0,-1,1798,1380,45.5742,-3.39574
581,-356,45.6708,3.64172,0,0,0,0,0,0,0,-1,1805,1380,45.6707,-3.64175
588,-356,44.4739,4.87085,0,0,0,0,0,0,0,-1,1812,1380,44.4739,-4.87086
595,-356,32.0834,5.86084,0,0,0,0,0,0,0,-1,1819,1380,32.0834,-5.86079
602,-356,30.1604,6.07104,0,0,0,0,0,0,0,-1,1826,1380,30.1604,-6.07104
609,-356,28.3435,6.48901,0,0,0,0,0,0,0,-1,1833,1380,28.3435,-6.48899
616,-356,26.9358,6.80872,0,0,0,0,0,0,0,-1,1840,1380,26.9358,-6.80877
623,-356,16.1803,1.07532,0,0,0,0,0,0,0,-1,1847,1380,16.1803,-1.07529
630,-356,16.4138,6.91553,0,0,0,0,0,0,0,-1,1854,1380,16.4138,-6.9155
637,-356,24.8021,12.0151,0,0,0,0,0,0,0,-1,1861,1380,24.8022,-12.0151
644,-356,46.4474,21.6677,0,0,0,0,0,0,0,-1,1868,1380,46.4474,-21.6677
651,-356,46.4022,20.7423,-0.00073625,0.0010264,-0.000472023,0.00114484,-0.000854695,-1.32494,0.00115848,0.0214986,1875,1380,46.4022,-20.7423
658,-356,46.3063,19.8726,-0.000182412,0.000751837,-0.000430009,0.000919624,-0.000350199,-1.19877,0.000757305,0.0153871,1882,1380,46.3063,-19.8726
665,-356,46.2532,19.0751,0.000541282,0.000582258,-0.00058242,0.00114455,-2.10098e-05,-0.80298,0.000770132,0.016166,1889,1380,46.2532,-19.075
672,-356,46.1868,18.2554,0.00136881,0.000568325,-0.000863243,0.00192008,1.70517e-05,-0.568324,0.00127441,0.0169611,1896,1380,46.1868,-18.2554
679,-356,46.1572,17.4031,0.00230526,0.000647013,-0.00125676,0.00298176,-2.94864e-05,-0.493806,0.00199774,0.0193003,1903,1380,46.1572,-17.4031
686,-356,46.1227,16.5094,0.00337697,0.000863277,-0.00177932,0.00429857,-5.83264e-05,-0.477906,0.00288535,0.0210133,1910,1380,46.1227,-16.5094
693,-356,46.0693,15.6802,0.00456712,0.00120487,-0.00240653,0.00582157,-4.95738e-05,-0.480516,0.00389767,0.0177695,1917,1380,46.0693,-15.6801
700,-356,46.0677,14.8367,0.00591144,0.00171305,-0.00317744,0.00762049,4.00119e-06,-0.493483,0.00507899,0.0258627,1924,1380,46.0678,-14.8366
707,-356,46.1967,13.8065,0,0,0,0,0,0,0,-1,1931,1380,46.1967,-13.8066
714,-356,19.6907,5.82129,0,0,0,0,0,0,0,-1,1938,1380,19.6907,-5.82132
721,-356,17.2948,4.1958,0,0,0,0,0,0,0,-1,1945,1380,17.2948,-4.19584
728,-356,19.1846,2.31519,0,0,0,0,0,0,0,-1,1952,1380,19.1846,-2.31514
735,-356,20.0731,2.50842,0,0,0,0,0,0,0,-1,1959,1380,20.0731,-2.50844
742,-356,21.0111,2.43762,0,0,0,0,0,0,0,-1,1966,1380,21.0112,-2.43762
749,-356,22.1411,1.83276,0,0,0,0,0,0,0,-1,1973,1380,22.1411,-1.83275
756,-356,0,0,0,0,0,0,0,0,0,-1,1980,1380,0,0
763,-356,0,0,0,0,0,0,0,0,0,-1,1987,1380,0,0
770,-356,0,0,0,0,0,0,0,0,0,-1,1994,1380,0,0
777,-356,0,0,0,0,0,0,0,0,0,-1,2001,1380,0,0
784,-356,0,0,0,0,0,0,0,0,0,-1,2008,1380,0,0
791,-356,0,0,0,0,0,0,0,0,0,-1,2015,1380,0,0
798,-356,0,0,0,0,0,0,0,0,0,-1,2022,1380,0,0
805,-356,0,0,0,0,0,0,0,0,0,-1,2029,1380,0,0
812,-356,0,0,0,0,0,0,0,0,0,-1,2036,1380,0,0
-700,-363,0,0,0,0,0,0,0,0,0,-1,524,1387,0,0
-693,-363,0,0,0,0,0,0,0,0,0,-1,531,1387,0,0
-686,-363,0,0,0,0,0,0,0,0,0,-1,538,1387,0,0
-679,-363,0,0,0,0,0,0,0,0,0,-1,545,1387,0,0
-672,-363,0,0,0,0,0,0,0,0,0,-1,552,1387,0,0
-665,-363,0,0,0,0,0,0,0,0,0,-1,559,1387,0,0
-658,-363,0,0,0,0,0,0,0,0,0,-1,566,1387,0,0
-651,-363,0,0,0,0,0,0,0,0,0,-1,573,1387,0,0
-644,-363,0,0,0,0,0,0,0,0,0,-1,580,1387,0,0
-637,-363,0,0,0,0,0,0,0,0,0,-1,587,1387,0,0
-630,-363,0,0,0,0,0,0,0,0,0,-1,594,1387,0,0
-623,-363,-9.67566,-5.91846,0,0,0,0,0,0,0,-1,601,1387,-9.67563,5.91847
-616,-363,-9.02985,-2.98083,0,0,0,0,0,0,0,-1,608,1387,-9.02987,2.98079
-609,-363,-4.90265,0.195679,0,0,0,0,0,0,0,-1,615,1387,-4.90263,-0.195721
-602,-363,-9.65009,3.5321,0,0,0,0,0,0,0,-1,622,1387,-9.65007,-3.53211
-595,-363,-8.00256,3.48853,0,0,0,0,0,0,0,-1,629,1387,-8.00256,-3.48855
-588,-363,-10.8846,4.49768,0,0,0,0,0,0,0,-1,636,1387,-10.8846,-4.49773
-581,-363,-11.7469,5.15161,0,0,0,0,0,0,0,-1,643,1387,-11.747,-5.15167
-574,-363,-17.8334,8.33801,0,0,0,0,0,0,0,-1,650,1387,-17.8334,-8.33804
-567,-363,-27.9343,14.7135,0,0,0,0,0,0,0,-1,657,1387,-27.9343,-14.7135
-560,-363,-27.9028,15.6349,0.00474728,0.00439984,0.00344815,0.00802609,0.00112104,0.760229,0.00501895,0.0161476,664,1387,-27.9028,-15.6349
-553,-363,-27.9166,16.5405,0.00414228,0.00314446,0.00274843,0.00643672,0.000850023,0.695613,0.00403774,0.0144567,671,1387,-27.9166,-16.5405
-546,-363,-27.9871,17.4117,0.00375159,0.00211083,0.00223542,0.00531241,0.000550005,0.609533,0.00337325,0.0142098,678,1387,-27.9871,-17.4118
-539,-363,-28.0319,18.2922,0.00359222,0.001271,0.00189615,0.00465476,0.000208461,0.510768,0.00303607,0.0166037,685,1387,-28.0318,-18.2923
-532,-363,-28.1298,19.1935,0.00368415,0.000656233,0.00175213,0.0044858,-0.00014541,0.429095,0.00304016,0.0145119,692,1387,-28.1299,-19.1935
-525,-363,-28.1569,20.0524,0.00400366,0.000207565,0.00177176,0.0047021,-0.000490868,0.375499,0.00331051,0.0134427,699,1387,-28.1568,-20.0524
-518,-363,-28.1854,20.9368,0.00456123,-5.23552e-06,0.00196911,0.00529305,-0.000737058,0.355831,0.0037983,0.0116823,706,1387,-28.1854,-20.9367
-511,-363,-28.0806,21.8649,0.00543873,3.06894e-05,0.00242281,0.00636538,-0.000895956,0.365301,0.0045716,0.036337,713,1387,-28.0807,-21.8649
-504,-363,-27.8958,22.847,0,0,0,0,0,0,0,-1,720,1387,-27.8958,-22.8471
-497,-363,-7.18842,7.29944,0,0,0,0,0,0,0,-1,727,1387,-7.18839,-7.29945
-490,-363,-5.42413,4.6958,0,0,0,0,0,0,0,-1,734,1387,-5.42412,-4.69583
-483,-363,-6.28375,4.1394,0,0,0,0,0,0,0,-1,741,1387,-6.28374,-4.13944
-476,-363,-5.83807,4.31018,0,0,0,0,0,0,0,-1,748,1387,-5.8381,-4.31013
-469,-363,-10.7125,0.697754,0,0,0,0,0,0,0,-1,755,1387,-10.7125,-0.697811
-462,-363,-9.55951,-0.0830078,0,0,0,0,0,0,0,-1,762,1387,-9.55949,0.0830163
-455,-363,-13.1008,-0.290894,0,0,0,0,0,0,0,-1,769,1387,-13.1008,0.290921
-448,-363,-11.7324,2.46606,0,0,0,0,0,0,0,-1,776,1387,-11.7324,-2.46605
-441,-363,-12.4464,2.5354,0,0,0,0,0,0,0,-1,783,1387,-12.4463,-2.53537
-434,-363,-13.6918,2.14661,0,0,0,0,0,0,0,-1,790,1387,-13.6918,-2.14662
-427,-363,0,0,0,0,0,0,0,0,0,-1,797,1387,0,0
-420,-363,0,0,0,0,0,0,0,0,0,-1,804,1387,0,0
-413,-363,0,0,0,0,0,0,0,0,0,-1,811,1387,0,0
-406,-363,0,0,0,0,0,0,0,0,0,-1,818,1387,0,0
-399,-363,0,0,0,0,0,0,0,0,0,-1,825,1387,0,0
-392,-363,0,0,0,0,0,0,0,0,0,-1,832,1387,0,0
-385,-363,0,0,0,0,0,0,0,0,0,-1,839,1387,0,0
-378,-363,0,0,0,0,0,0,0,0,0,-1,846,1387,0,0
-371,-363,0,0,0,0,0,0,0,0,0,-1,853,1387,0,0
-364,-363,0,0,0,0,0,0,0,0,0,-1,860,1387,0,0
-357,-363,0,0,0,0,0,0,0,0,0,-1,867,1387,0,0
-350,-363,0,0,0,0,0,0,0,0,0,-1,874,1387,0,0
-343,-363,0,0,0,0,0,0,0,0,0,-1,881,1387,0,0
-336,-363,0,0,0,0,0,0,0,0,0,-1,888,1387,0,0
-329,-363,0,0,0,0,0,0,0,0,0,-1,895,1387,0,0
-322,-363,0,0,0,0,0,0,0,0,0,-1,902,1387,0,0
-315,-363,0,0,0,0,0,0,0,0,0,-1,909,1387,0,0
-308,-363,0,0,0,0,0,0,0,0,0,-1,916,1387,0,0
-301,-363,0,0,0,0,0,0,0,0,0,-1,923,1387,0,0
-294,-363,0,0,0,0,0,0,0,0,0,-1,930,1387,0,0
-287,-363,0,0,0,0,0,0,0,0,0,-1,937,1387,0,0
-280,-363,0,0,0,0,0,0,0,0,0,-1,944,1387,0,0
-273,-363,0,0,0,0,0,0,0,0,0,-1,951,1387,0,0
-266,-363,0,0,0,0,0,0,0,0,0,-1,958,1387,0,0
-259,-363,0,0,0,0,0,0,0,0,0,-1,965,1387,0,0
-252,-363,0,0,0,0,0,0,0,0,0,-1,972,1387,0,0
-245,-363,0,0,0,0,0,0,0,0,0,-1,979,1387,0,0
-238,-363,0,0,0,0,0,0,0,0,0,-1,986,1387,0,0
-231,-363,0,0,0,0,0,0,0,0,0,-1,993,1387,0,0
-224,-363,0,0,0,0,0,0,0,0,0,-1,1000,1387,0,0
-217,-363,0,0,0,0,0,0,0,0,0,-1,1007,1387,0,0
-210,-363,0,0,0,0,0,0,0,0,0,-1,1014,1387,0,0
-203,-363,0,0,0,0,0,0,0,0,0,-1,1021,1387,0,0
-196,-363,0,0,0,0,0,0,0,0,0,-1,1028,1387,0,0
-189,-363,0,0,0,0,0,0,0,0,0,-1,1035,1387,0,0
-182,-363,0,0,0,0,0,0,0,0,0,-1,1042,1387,0,0
-175,-363,0,0,0,0,0,0,0,0,0,-1,1049,1387,0,0
-168,-363,0,0,0,0,0,0,0,0,0,-1,1056,1387,0,0
-161,-363,0,0,0,0,0,0,0,0,0,-1,1063,1387,0,0
-154,-363,0,0,0,0,0,0,0,0,0,-1,1070,1387,0,0
-147,-363,0,0,0,0,0,0,0,0,0,-1,1077,1387,0,0
-140,-363,0,0,0,0,0,0,0,0,0,-1,1084,1387,0,0
-133,-363,0,0,0,0,0,0,0,0,0,-1,1091,1387,0,0
-126,-363,0,0,0,0,0,0,0,0,0,-1,1098,1387,0,0
-119,-363,0,0,0,0,0,0,0,0,0,-1,1105,1387,0,0
-112,-363,0,0,0,0,0,0,0,0,0,-1,1112,1387,0,0
-105,-363,0,0,0,0,0,0,0,0,0,-1,1119,1387,0,0
-98,-363,0,0,0,0,0,0,0,0,0,-1,1126,1387,0,0
-91,-363,0,0,0,0,0,0,0,0,0,-1,1133,1387,0,0
-84,-363,0,0,0,0,0,0,0,0,0,-1,1140,1387,0,0
-77,-363,0,0,0,0,0,0,0,0,0,-1,1147,1387,0,0
-70,-363,0,0,0,0,0,0,0,0,0,-1,1154,1387,0,0
-63,-363,0,0,0,0,0,0,0,0,0,-1,1161,1387,0,0
-56,-363,0,0,0,0,0,0,0,0,0,-1,1168,1387,0,0
-49,-363,0,0,0,0,0,0,0,0,0,-1,1175,1387,0,0
-42,-363,0,0,0,0,0,0,0,0,0,-1,1182,1387,0,0
-35,-363,0,0,0,0,0,0,0,0,0,-1,1189,1387,0,0
-28,-363,0,0,0,0,0,0,0,0,0,-1,1196,1387,0,0
-21,-363,0,0,0,0,0,0,0,0,0,-1,1203,1387,0,0
-14,-363,0,0,0,0,0,0,0,0,0,-1,1210,1387,0,0
-7,-363,0,0,0,0,0,0,0,0,0,-1,1217,1387,0,0
0,-363,0,0,0,0,0,0,0,0,0,-1,1224,1387,0,0
7,-363,0,0,0,0,0,0,0,0,0,-1,1231,1387,0,0
14,-363,0,0,0,0,0,0,0,0,0,-1,1238,1387,0,0
21,-363,0,0,0,0,0,0,0,0,0,-1,1245,1387,0,0
28,-363,0,0,0,0,0,0,0,0,0,-1,1252,1387,0,0
35,-363,0,0,0,0,0,0,0,0,0,-1,1259,1387,0,0
42,-363,0,0,0,0,0,0,0,0,0,-1,1266,1387,0,0
49,-363,0,0,0,0,0,0,0,0,0,-1,1273,1387,0,0
56,-363,0,0,0,0,0,0,0,0,0,-1,1280,1387,0,0
63,-363,0,0,0,0,0,0,0,0,0,-1,1287,1387,0,0
70,-363,0,0,0,0,0,0,0,0,0,-1,1294,1387,0,0
77,-363,0,0,0,0,0,0,0,0,0,-1,1301,1387,0,0
84,-363,0,0,0,0,0,0,0,0,0,-1,1308,1387,0,0
91,-363,0,0,0,0,0,0,0,0,0,-1,1315,1387,0,0
98,-363,0,0,0,0,0,0,0,0,0,-1,1322,1387,0,0
105,-363,0,0,0,0,0,0,0,0,0,-1,1329,1387,0,0
112,-363,0,0,0,0,0,0,0,0,0,-1,1336,1387,0,0
119,-363,0,0,0,0,0,0,0,0,0,-1,1343,1387,0,0
126,-363,0,0,0,0,0,0,0,0,0,-1,1350,1387,0,0
133,-363,0,0,0,0,0,0,0,0,0,-1,1357,1387,0,0
140,-363,0,0,0,0,0,0,0,0,0,-1,1364,1387,0,0
147,-363,0,0,0,0,0,0,0,0,0,-1,1371,1387,0,0
154,-363,0,0,0,0,0,0,0,0,0,-1,1378,1387,0,0
161,-363,0,0,0,0,0,0,0,0,0,-1,1385,1387,0,0
168,-363,0,0,0,0,0,0,0,0,0,-1,1392,1387,0,0
175,-363,0,0,0,0,0,0,0,0,0,-1,1399,1387,0,0
182,-363,0,0,0,0,0,0,0,0,0,-1,1406,1387,0,0
189,-363,0,0,0,0,0,0,0,0,0,-1,1413,1387,0,0
196,-363,0,0,0,0,0,0,0,0,0,-1,1420,1387,0,0
203,-363,0,0,0,0,0,0,0,0,0,-1,1427,1387,0,0
210,-363,0,0,0,0,0,0,0,0,0,-1,1434,1387,0,0
217,-363,0,0,0,0,0,0,0,0,0,-1,1441,1387,0,0
224,-363,0,0,0,0,0,0,0,0,0,-1,1448,1387,0,0
231,-363,0,0,0,0,0,0,0,0,0,-1,1455,1387,0,0
238,-363,0,0,0,0,0,0,0,0,0,-1,1462,1387,0,0
245,-363,0,0,0,0,0,0,0,0,0,-1,1469,1387,0,0
252,-363,0,0,0,0,0,0,0,0,0,-1,1476,1387,0,0
259,-363,0,0,0,0,0,0,0,0,0,-1,1483,1387,0,0
266,-363,0,0,0,0,0,0,0,0,0,-1,1490,1387,0,0
273,-363,0,0,0,0,0,0,0,0,0,-1,1497,1387,0,0
280,-363,0,0,0,0,0,0,0,0,0,-1,1504,1387,0,0
287,-363,0,0,0,0,0,0,0,0,0,-1,1511,1387,0,0
294,-363,0,0,0,0,0,0,0,0,0,-1,1518,1387,0,0
301,-363,0,0,0,0,0,0,0,0,0,-1,1525,1387,0,0
308,-363,0,0,0,0,0,0,0,0,0,-1,1532,1387,0,0
315,-363,0,0,0,0,0,0,0,0,0,-1,1539,1387,0,0
322,-363,0,0,0,0,0,0,0,0,0,-1,1546,1387,0,0
329,-363,0,0,0,0,0,0,0,0,0,-1,1553,1387,0,0
336,-363,0,0,0,0,0,0,0,0,0,-1,1560,1387,0,0
343,-363,0,0,0,0,0,0,0,0,0,-1,1567,1387,0,0
350,-363,0,0,0,0,0,0,0,0,0,-1,1574,1387,0,0
357,-363,0,0,0,0,0,0,0,0,0,-1,1581,1387,0,0
364,-363,0,0,0,0,0,0,0,0,0,-1,1588,1387,0,0
371,-363,0,0,0,0,0,0,0,0,0,-1,1595,1387,0,0
378,-363,0,0,0,0,0,0,0,0,0,-1,1602,1387,0,0
385,-363,0,0,0,0,0,0,0,0,0,-1,1609,1387,0,0
392,-363,0,0,0,0,0,0,0,0,0,-1,1616,1387,0,0
399,-363,0,0,0,0,0,0,0,0,0,-1,1623,1387,0,0
406,-363,0,0,0,0,0,0,0,0,0,-1,1630,1387,0,0
413,-363,0,0,0,0,0,0,0,0,0,-1,1637,1387,0,0
420,-363,0,0,0,0,0,0,0,0,0,-1,1644,1387,0,0
427,-363,0,0,0,0,0,0,0,0,0,-1,1651,1387,0,0
434,-363,0,0,0,0,0,0,0,0,0,-1,1658,1387,0,0
441,-363,0,0,0,0,0,0,0,0,0,-1,1665,1387,0,0
448,-363,0,0,0,0,0,0,0,0,0,-1,1672,1387,0,0
455,-363,0,0,0,0,0,0,0,0,0,-1,1679,1387,0,0
462,-363,0,0,0,0,0,0,0,0,0,-1,1686,1387,0,0
469,-363,0,0,0,0,0,0,0,0,0,-1,1693,1387,0,0
476,-363,0,0,0,0,0,0,0,0,0,-1,1700,1387,0,0
483,-363,0,0,0,0,0,0,0,0,0,-1,1707,1387,0,0
490,-363,0,0,0,0,0,0,0,0,0,-1,1714,1387,0,0
497,-363,0,0,0,0,0,0,0,0,0,-1,1721,1387,0,0
504,-363,0,0,0,0,0,0,0,0,0,-1,1728,1387,0,0
511,-363,0,0,0,0,0,0,0,0,0,-1,1735,1387,0,0
518,-363,0,0,0,0,0,0,0,0,0,-1,1742,1387,0,0
525,-363,0,0,0,0,0,0,0,0,0,-1,1749,1387,0,0
532,-363,0,0,0,0,0,0,0,0,0,-1,1756,1387,0,0
539,-363,0,0,0,0,0,0,0,0,0,-1,1763,1387,0,0
546,-363,0,0,0,0,0,0,0,0,0,-1,1770,1387,0,0
553,-363,62.1395,3.42249,0,0,0,0,0,0,0,-1,1777,1387,62.1395,-3.42245
560,-363,63.2896,2.40808,0,0,0,0,0,0,0,-1,1784,1387,63.2896,-2.40811
567,-363,64.4463,1.38135,0,0,0,0,0,0,0,-1,1791,1387,64.4463,-1.38131
574,-363,45.7261,2.8075,0,0,0,0,0,0,0,-1,1798,1387,45.7261,-2.80754
581,-363,39.2413,1.97632,0,0,0,0,0,0,0,-1,1805,1387,39.2413,-1.97636
588,-363,32.5608,6.72131,0,0,0,0,0,0,0,-1,1812,1387,32.5608,-6.72131
595,-363,31.4688,6.95435,0,0,0,0,0,0,0,-1,1819,1387,31.4688,-6.95431
602,-363,25.7437,5.33667,0,0,0,0,0,0,0,-1,1826,1387,25.7437,-5.33667
609,-363,27.7048,7.06885,0,0,0,0,0,0,0,-1,1833,1387,27.7048,-7.06882
616,-363,16.229,1.08704,0,0,0,0,0,0,0,-1,1840,1387,16.229,-1.08706
623,-363,15.7283,7.16663,0,0,0,0,0,0,0,-1,1847,1387,15.7282,-7.16665
630,-363,18.3192,9.27844,0,0,0,0,0,0,0,-1,1854,1387,18.3192,-9.27843
637,-363,45.5544,22.6229,0,0,0,0,0,0,0,-1,1861,1387,45.5544,-22.6229
644,-363,45.5529,21.6951,-0.000891297,0.0012579,-0.000609534,0.00141873,-0.00105213,-1.31281,0.00143178,0.0196165,1868,1387,45.5529,-21.6951
651,-363,45.5204,20.7981,-0.00062058,0.000813739,-0.000352901,0.000895865,-0.000702706,-1.34215,0.000925179,0.0109195,1875,1387,45.5204,-20.798
658,-363,45.4786,19.9272,4.72379e-05,0.000631429,-0.000416232,0.000847831,-0.000169164,-1.09135,0.000629234,0.0119818,1882,1387,45.4786,-19.9272
665,-363,45.421,19.1016,0.00086269,0.000550964,-0.000658308,0.00138333,3.03193e-05,-0.669157,0.000912285,0.0135308,1889,1387,45.421,-19.1015
672,-363,45.349,18.291,0.00179589,0.000605354,-0.0010446,0.00240293,-1.68371e-06,-0.52642,0.00160251,0.0156987,1896,1387,45.349,-18.291
679,-363,45.3048,17.4506,0.00286686,0.000775659,-0.00158283,0.00371826,-7.57484e-05,-0.493507,0.00250447,0.0157498,1903,1387,45.3049,-17.4506
686,-363,45.256,16.61,0.00409992,0.00109228,-0.00228479,0.00533138,-0.000139174,-0.494343,0.00360154,0.015473,1910,1387,45.256,-16.61
693,-363,45.1958,15.7191,0.0054886,0.00157975,-0.00314282,0.00723513,-0.00016678,-0.507225,0.00487996,0.0148612,1917,1387,45.1958,-15.7191
700,-363,45.3976,14.7648,0.0071318,0.00233103,-0.00426621,0.00962655,-0.000163725,-0.529146,0.00647297,0.0385064,1924,1387,45.3975,-14.7647
707,-363,45.8055,13.8615,0,0,0,0,0,0,0,-1,1931,1387,45.8055,-13.8614
714,-363,16.5782,5.3147,0,0,0,0,0,0,0,-1,1938,1387,16.5783,-5.31472
721,-363,14.4045,4.51685,0,0,0,0,0,0,0,-1,1945,1387,14.4045,-4.51685
728,-363,19.9756,0.853027,0,0,0,0,0,0,0,-1,1952,1387,19.9756,-0.853059
735,-363,21.4297,1.2981,0,0,0,0,0,0,0,-1,1959,1387,21.4297,-1.29811
742,-363,21.3621,2.79663,0,0,0,0,0,0,0,-1,1966,1387,21.362,-2.7966
749,-363,0,0,0,0,0,0,0,0,0,-1,1973,1387,0,0
756,-363,0,0,0,0,0,0,0,0,0,-1,1980,1387,0,0
763,-363,0,0,0,0,0,0,0,0,0,-1,1987,1387,0,0
770,-363,0,0,0,0,0,0,0,0,0,-1,1994,1387,0,0
777,-363,0,0,0,0,0,0,0,0,0,-1,2001,1387,0,0
784,-363,0,0,0,0,0,0,0,0,0,-1,2008,1387,0,0
791,-363,0,0,0,0,0,0,0,0,0,-1,2015,1387,0,0
798,-363,0,0,0,0,0,0,0,0,0,-1,2022,1387,0,0
805,-363,0,0,0,0,0,0,0,0,0,-1,2029,1387,0,0
812,-363,0,0,0,0,0,0,0,0,0,-1,2036,1387,0,0
-700,-370,0,0,0,0,0,0,0,0,0,-1,524,1394,0,0
-693,-370,0,0,0,0,0,0,0,0,0,-1,531,1394,0,0
-686,-370,0,0,0,0,0,0,0,0,0,-1,538,1394,0,0
-679,-370,0,0,0,0,0,0,0,0,0,-1,545,1394,0,0
-672,-370,0,0,0,0,0,0,0,0,0,-1,552,1394,0,0
-665,-370,0,0,0,0,0,0,0,0,0,-1,559,1394,0,0
-658,-370,0,0,0,0,0,0,0,0,0,-1,566,1394,0,0
-651,-370,0,0,0,0,0,0,0,0,0,-1,573,1394,0,0
-644,-370,0,0,0,0,0,0,0,0,0,-1,580,1394,0,0
-637,-370,0,0,0,0,0,0,0,0,0,-1,587,1394,0,0
-630,-370,0,0,0,0,0,0,0,0,0,-1,594,1394,0,0
-623,-370,-10.1758,-7.10486,0,0,0,0,0,0,0,-1,601,1394,-10.1758,7.10483
-616,-370,-8.85925,-1.61475,0,0,0,0,0,0,0,-1,608,1394,-8.85925,1.61476
-609,-370,-5.39325,0.0421143,0,0,0,0,0,0,0,-1,615,1394,-5.39328,-0.0421372
-602,-370,-12.3151,3.44592,0,0,0,0,0,0,0,-1,622,1394,-12.3151,-3.44595
-595,-370,-7.53284,5.44214,0,0,0,0,0,0,0,-1,629,1394,-7.53284,-5.44216
-588,-370,-11.2422,4.50598,0,0,0,0,0,0,0,-1,636,1394,-11.2422,-4.50596
-581,-370,-13.1575,5.84888,0,0,0,0,0,0,0,-1,643,1394,-13.1575,-5.84887
-574,-370,-13.0107,6.69861,0,0,0,0,0,0,0,-1,650,1394,-13.0108,-6.69866
-567,-370,-27.1695,14.5835,0,0,0,0,0,0,0,-1,657,1394,-27.1695,-14.5835
-560,-370,-27.1671,15.5975,0.00525029,0.00498269,0.00394778,0.00906654,0.00116644,0.768458,0.0056955,0.0423304,664,1394,-27.1671,-15.5976
-553,-370,-27.0732,16.5719,0.0044783,0.00362343,0.00311974,0.00719975,0.000901982,0.717317,0.00452921,0.0118018,671,1394,-27.0732,-16.5719
-546,-370,-27.0852,17.4576,0.00391822,0.00250794,0.00249075,0.00580172,0.000624442,0.647456,0.00367738,0.0146605,678,1394,-27.0852,-17.4577
-539,-370,-27.127,18.3881,0.00357887,0.00160066,0.00203426,0.00485174,0.000327795,0.559115,0.00313095,0.0194333,685,1394,-27.127,-18.3881
-532,-370,-27.2496,19.2905,0.00349462,0.00092647,0.00177162,0.00439858,2.25103e-05,0.471809,0.00292491,0.0240065,692,1394,-27.2496,-19.2905
-525,-370,-27.2919,20.126,0.00362552,0.00042398,0.00166367,0.00433349,-0.000283988,0.402332,0.00298815,0.0223214,699,1394,-27.2919,-20.126
-518,-370,-27.3041,20.9612,0.00397324,0.000127148,0.00172014,0.00463031,-0.00052992,0.36488,0.00327782,0.0157476,706,1394,-27.3041,-20.9611
-511,-370,-27.3236,21.8755,0.00459071,6.2764e-05,0.00198122,0.00533519,-0.000681718,0.359445,0.00380445,0.0166825,713,1394,-27.3236,-21.8755
-504,-370,-27.343,22.797,0,0,0,0,0,0,0,-1,720,1394,-27.343,-22.797
-497,-370,-12.3546,11.7982,0,0,0,0,0,0,0,-1,727,1394,-12.3546,-11.7983
-490,-370,-5.30695,4.5271,0,0,0,0,0,0,0,-1,734,1394,-5.30698,-4.52704
-483,-370,-6.02997,4.59253,0,0,0,0,0,0,0,-1,741,1394,-6.02994,-4.5925
-476,-370,-6.75293,4.65796,0,0,0,0,0,0,0,-1,748,1394,-6.7529,-4.65795
-469,-370,-10.584,1.14294,0,0,0,0,0,0,0,-1,755,1394,-10.584,-1.14293
-462,-370,-9.54462,0.387207,0,0,0,0,0,0,0,-1,762,1394,-9.5446,-0.387176
-455,-370,-8.50525,-0.36853,0,0,0,0,0,0,0,-1,769,1394,-8.50523,0.368582
-448,-370,-10.9543,2.28833,0,0,0,0,0,0,0,-1,776,1394,-10.9543,-2.28835
-441,-370,-11.8699,1.8313,0,0,0,0,0,0,0,-1,783,1394,-11.8699,-1.83127
-434,-370,-12.7855,1.37415,0,0,0,0,0,0,0,-1,790,1394,-12.7855,-1.37419
-427,-370,0,0,0,0,0,0,0,0,0,-1,797,1394,0,0
-420,-370,0,0,0,0,0,0,0,0,0,-1,804,1394,0,0
-413,-370,0,0,0,0,0,0,0,0,0,-1,811,1394,0,0
-406,-370,0,0,0,0,0,0,0,0,0,-1,818,1394,0,0
-399,-370,0,0,0,0,0,0,0,0,0,-1,825,1394,0,0
-392,-370,0,0,0,0,0,0,0,0,0,-1,832,1394,0,0
-385,-370,0,0,0,0,0,0,0,0,0,-1,839,1394,0,0
-378,-370,0,0,0,0,0,0,0,0,0,-1,846,1394,0,0
-371,-370,0,0,0,0,0,0,0,0,0,-1,853,1394,0,0
-364,-370,0,0,0,0,0,0,0,0,0,-1,860,1394,0,0
-357,-370,0,0,0,0,0,0,0,0,0,-1,867,1394,0,0
-350,-370,0,0,0,0,0,0,0,0,0,-1,874,1394,0,0
-343,-370,0,0,0,0,0,0,0,0,0,-1,881,1394,0,0
-336,-370,0,0,0,0,0,0,0,0,0,-1,888,1394,0,0
-329,-370,0,0,0,0,0,0,0,0,0,-1,895,1394,0,0
-322,-370,0,0,0,0,0,0,0,0,0,-1,902,1394,0,0
-315,-370,0,0,0,0,0,0,0,0,0,-1,909,1394,0,0
-308,-370,0,0,0,0,0,0,0,0,0,-1,916,1394,0,0
-301,-370,0,0,0,0,0,0,0,0,0,-1,923,1394,0,0
-294,-370,0,0,0,0,0,0,0,0,0,-1,930,1394,0,0
-287,-370,0,0,0,0,0,0,0,0,0,-1,937,1394,0,0
-280,-370,0,0,0,0,0,0,0,0,0,-1,944,1394,0,0
-273,-370,0,0,0,0,0,0,0,0,0,-1,951,1394,0,0
-266,-370,0,0,0,0,0,0,0,0,0,-1,958,1394,0,0
-259,-370,0,0,0,0,0,0,0,0,0,-1,965,1394,0,0
-252,-370,0,0,0,0,0,0,0,0,0,-1,972,1394,0,0
-245,-370,0,0,0,0,0,0,0,0,0,-1,979,1394,0,0
-238,-370,0,0,0,0,0,0,0,0,0,-1,986,1394,0,0
-231,-370,0,0,0,0,0,0,0,0,0,-1,993,1394,0,0
-224,-370,0,0,0,0,0,0,0,0,0,-1,1000,1394,0,0
-217,-370,0,0,0,0,0,0,0,0,0,-1,1007,1394,0,0
-210,-370,0,0,0,0,0,0,0,0,0,-1,1014,1394,0,0
-203,-370,0,0,0,0,0,0,0,0,0,-1,1021,1394,0,0
-196,-370,0,0,0,0,0,0,0,0,0,-1,1028,1394,0,0
-189,-370,0,0,0,0,0,0,0,0,0,-1,1035,1394,0,0
-182,-370,0,0,0,0,0,0,0,0,0,-1,1042,1394,0,0
-175,-370,0,0,0,0,0,0,0,0,0,-1,1049,1394,0,0
-168,-370,0,0,0,0,0,0,0,0,0,-1,1056,1394,0,0
-161,-370,0,0,0,0,0,0,0,0,0,-1,1063,1394,0,0
-154,-370,0,0,0,0,0,0,0,0,0,-1,1070,1394,0,0
-147,-370,0,0,0,0,0,0,0,0,0,-1,1077,1394,0,0
-140,-370,0,0,0,0,0,0,0,0,0,-1,1084,1394,0,0
-133,-370,0,0,0,0,0,0,0,0,0,-1,1091,1394,0,0
-126,-370,0,0,0,0,0,0,0,0,0,-1,1098,1394,0,0
-119,-370,0,0,0,0,0,0,0,0,0,-1,1105,1394,0,0
-112,-370,0,0,0,0,0,0,0,0,0,-1,1112,1394,0,0
-105,-370,0,0,0,0,0,0,0,0,0,-1,1119,1394,0,0
-98,-370,0,0,0,0,0,0,0,0,0,-1,1126,1394,0,0
-91,-370,0,0,0,0,0,0,0,0,0,-1,1133,1394,0,0
-84,-370,0,0,0,0,0,0,0,0,0,-1,1140,1394,0,0
-77,-370,0,0,0,0,0,0,0,0,0,-1,1147,1394,0,0
-70,-370,0,0,0,0,0,0,0,0,0,-1,1154,1394,0,0
-63,-370,0,0,0,0,0,0,0,0,0,-1,1161,1394,0,0
-56,-370,0,0,0,0,0,0,0,0,0,-1,1168,1394,0,0
-49,-370,0,0,0,0,0,0,0,0,0,-1,1175,1394,0,0
-42,-370,0,0,0,0,0,0,0,0,0,-1,1182,1394,0,0
-35,-370,0,0,0,0,0,0,0,0,0,-1,1189,1394,0,0
-28,-370,0,0,0,0,0,0,0,0,0,-1,1196,1394,0,0
-21,-370,0,0,0,0,0,0,0,0,0,-1,1203,1394,0,0
-14,-370,0,0,0,0,0,0,0,0,0,-1,1210,1394,0,0
-7,-370,0,0,0,0,0,0,0,0,0,-1,1217,1394,0,0
0,-370,0,0,0,0,0,0,0,0,0,-1,1224,1394,0,0
7,-370,0,0,0,0,0,0,0,0,0,-1,1231,1394,0,0
14,-370,0,0,0,0,0,0,0,0,0,-1,1238,1394,0,0
21,-370,0,0,0,0,0,0,0,0,0,-1,1245,1394,0,0
28,-370,0,0,0,0,0,0,0,0,0,-1,1252,1394,0,0
35,-370,0,0,0,0,0,0,0,0,0,-1,1259,1394,0,0
42,-370,0,0,0,0,0,0,0,0,0,-1,1266,1394,0,0
49,-370,0,0,0,0,0,0,0,0,0,-1,1273,1394,0,0
56,-370,0,0,0,0,0,0,0,0,0,-1,1280,1394,0,0
63,-370,0,0,0,0,0,0,0,0,0,-1,1287,1394,0,0
70,-370,0,0,0,0,0,0,0,0,0,-1,1294,1394,0,0
77,-370,0,0,0,0,0,0,0,0,0,-1,1301,1394,0,0
84,-370,0,0,0,0,0,0,0,0,0,-1,1308,1394,0,0
91,-370,0,0,0,0,0,0,0,0,0,-1,1315,1394,0,0
98,-370,0,0,0,0,0,0,0,0,0,-1,1322,1394,0,0
105,-370,0,0,0,0,0,0,0,0,0,-1,1329,1394,0,0
112,-370,0,0,0,0,0,0,0,0,0,-1,1336,1394,0,0
119,-370,0,0,0,0,0,0,0,0,0,-1,1343,1394,0,0
126,-370,0,0,0,0,0,0,0,0,0,-1,1350,1394,0,0
133,-370,0,0,0,0,0,0,0,0,0,-1,1357,1394,0,0
140,-370,0,0,0,0,0,0,0,0,0,-1,1364,1394,0,0
147,-370,0,0,0,0,0,0,0,0,0,-1,1371,1394,0,0
154,-370,0,0,0,0,0,0,0,0,0,-1,1378,1394,0,0
161,-370,0,0,0,0,0,0,0,0,0,-1,1385,1394,0,0
168,-370,0,0,0,0,0,0,0,0,0,-1,1392,1394,0,0
175,-370,0,0,0,0,0,0,0,0,0,-1,1399,1394,0,0
182,-370,0,0,0,0,0,0,0,0,0,-1,1406,1394,0,0
189,-370,0,0,0,0,0,0,0,0,0,-1,1413,1394,0,0
196,-370,0,0,0,0,0,0,0,0,0,-1,1420,1394,0,0
203,-370,0,0,0,0,0,0,0,0,0,-1,1427,1394,0,0
210,-370,0,0,0,0,0,0,0,0,0,-1,1434,1394,0,0
217,-370,0,0,0,0,0,0,0,0,0,-1,1441,1394,0,0
224,-370,0,0,0,0,0,0,0,0,0,-1,1448,1394,0,0
231,-370,0,0,0,0,0,0,0,0,0,-1,1455,1394,0,0
238,-370,0,0,0,0,0,0,0,0,0,-1,1462,1394,0,0
245,-370,0,0,0,0,0,0,0,0,0,-1,1469,1394,0,0
252,-370,0,0,0,0,0,0,0,0,0,-1,1476,1394,0,0
259,-370,0,0,0,0,0,0,0,0,0,-1,1483,1394,0,0
266,-370,0,0,0,0,0,0,0,0,0,-1,1490,1394,0,0
273,-370,0,0,0,0,0,0,0,0,0,-1,1497,1394,0,0
280,-370,0,0,0,0,0,0,0,0,0,-1,1504,1394,0,0
287,-370,0,0,0,0,0,0,0,0,0,-1,1511,1394,0,0
294,-370,0,0,0,0,0,0,0,0,0,-1,1518,1394,0,0
301,-370,0,0,0,0,0,0,0,0,0,-1,1525,1394,0,0
308,-370,0,0,0,0,0,0,0,0,0,-1,1532,1394,0,0
315,-370,0,0,0,0,0,0,0,0,0,-1,1539,1394,0,0
322,-370,0,0,0,0,0,0,0,0,0,-1,1546,1394,0,0
329,-370,0,0,0,0,0,0,0,0,0,-1,1553,1394,0,0
336,-370,0,0,0,0,0,0,0,0,0,-1,1560,1394,0,0
343,-370,0,0,0,0,0,0,0,0,0,-1,1567,1394,0,0
350,-370,0,0,0,0,0,0,0,0,0,-1,1574,1394,0,0
357,-370,0,0,0,0,0,0,0,0,0,-1,1581,1394,0,0
364,-370,0,0,0,0,0,0,0,0,0,-1,1588,1394,0,0
371,-370,0,0,0,0,0,0,0,0,0,-1,1595,1394,0,0
378,-370,0,0,0,0,0,0,0,0,0,-1,1602,1394,0,0
385,-370,0,0,0,0,0,0,0,0,0,-1,1609,1394,0,0
392,-370,0,0,0,0,0,0,0,0,0,-1,1616,1394,0,0
399,-370,0,0,0,0,0,0,0,0,0,-1,1623,1394,0,0
406,-370,0,0,0,0,0,0,0,0,0,-1,1630,1394,0,0
413,-370,0,0,0,0,0,0,0,0,0,-1,1637,1394,0,0
420,-370,0,0,0,0,0,0,0,0,0,-1,1644,1394,0,0
427,-370,0,0,0,0,0,0,0,0,0,-1,1651,1394,0,0
434,-370,0,0,0,0,0,0,0,0,0,-1,1658,1394,0,0
441,-370,0,0,0,0,0,0,0,0,0,-1,1665,1394,0,0
448,-370,0,0,0,0,0,0,0,0,0,-1,1672,1394,0,0
455,-370,0,0,0,0,0,0,0,0,0,-1,1679,1394,0,0
462,-370,0,0,0,0,0,0,0,0,0,-1,1686,1394,0,0
469,-370,0,0,0,0,0,0,0,0,0,-1,1693,1394,0,0
476,-370,0,0,0,0,0,0,0,0,0,-1,1700,1394,0,0
483,-370,0,0,0,0,0,0,0,0,0,-1,1707,1394,0,0
490,-370,0,0,0,0,0,0,0,0,0,-1,1714,1394,0,0
497,-370,0,0,0,0,0,0,0,0,0,-1,1721,1394,0,0
504,-370,0,0,0,0,0,0,0,0,0,-1,1728,1394,0,0
511,-370,0,0,0,0,0,0,0,0,0,-1,1735,1394,0,0
518,-370,0,0,0,0,0,0,0,0,0,-1,1742,1394,0,0
525,-370,0,0,0,0,0,0,0,0,0,-1,1749,1394,0,0
532,-370,0,0,0,0,0,0,0,0,0,-1,1756,1394,0,0
539,-370,0,0,0,0,0,0,0,0,0,-1,1763,1394,0,0
546,-370,60.9257,3.80493,0,0,0,0,0,0,0,-1,1770,1394,60.9256,-3.80494
553,-370,61.9966,2.87524,0,0,0,0,0,0,0,-1,1777,1394,61.9966,-2.8753
560,-370,63.1577,1.82617,0,0,0,0,0,0,0,-1,1784,1394,63.1578,-1.82617
567,-370,46.1089,3.11719,0,0,0,0,0,0,0,-1,1791,1394,46.1089,-3.1172
574,-370,38.8953,1.49353,0,0,0,0,0,0,0,-1,1798,1394,38.8952,-1.49348
581,-370,39.178,2.86145,0,0,0,0,0,0,0,-1,1805,1394,39.1779,-2.86145
588,-370,39.2102,4.27661,0,0,0,0,0,0,0,-1,1812,1394,39.2102,-4.27657
595,-370,25.793,4.5271,0,0,0,0,0,0,0,-1,1819,1394,25.793,-4.52711
602,-370,25.1077,5.34937,0,0,0,0,0,0,0,-1,1826,1394,25.1077,-5.34932
609,-370,16.712,0.993286,0,0,0,0,0,0,0,-1,1833,1394,16.7121,-0.99323
616,-370,16.7764,7.23315,0,0,0,0,0,0,0,-1,1840,1394,16.7764,-7.23313
623,-370,17.6625,8.94263,0,0,0,0,0,0,0,-1,1847,1394,17.6624,-8.94258
630,-370,20.9681,11.1785,0,0,0,0,0,0,0,-1,1854,1394,20.9681,-11.1784
637,-370,44.7505,22.5929,0,0,0,0,0,0,0,-1,1861,1394,44.7505,-22.5929
644,-370,44.7339,21.7186,-0.000774834,0.000882816,-0.000365935,0.000960004,-0.000852022,-1.36291,0.00104679,0.0155485,1868,1394,44.7339,-21.7186
651,-370,44.6841,20.8524,-0.00037513,0.000611731,-0.000270868,0.000681189,-0.000444588,-1.31978,0.000654735,0.0127976,1875,1394,44.6841,-20.8524
658,-370,44.6307,20.0083,0.000341871,0.000518478,-0.000429608,0.000868764,-8.41441e-06,-0.886759,0.000582001,0.0127549,1882,1394,44.6307,-20.0083
665,-370,44.5771,19.1643,0.00120747,0.000521688,-0.000759459,0.00169786,3.13012e-05,-0.573351,0.00112162,0.0156764,1889,1394,44.5772,-19.1644
672,-370,44.5052,18.3182,0.00222111,0.00062957,-0.00124626,0.00290399,-5.33148e-05,-0.501265,0.00195401,0.0160406,1896,1394,44.5053,-18.3183
679,-370,44.4933,17.4652,0.00340389,0.000843956,-0.00190669,0.0044204,-0.00017255,-0.489796,0.0030061,0.0140609,1903,1394,44.4933,-17.4652
686,-370,44.4276,16.6544,0.00478783,0.00119734,-0.00276917,0.00629277,-0.000307592,-0.497809,0.00430138,0.0140279,1910,1394,44.4277,-16.6544
693,-370,44.3553,15.7402,0.00636803,0.00173172,-0.00383546,0.00853145,-0.000431711,-0.513573,0.00583686,0.0161205,1917,1394,44.3554,-15.7402
700,-370,44.7628,14.7084,0,0,0,0,0,0,0,-1,1924,1394,44.7628,-14.7084
707,-370,39.2391,11.5549,0,0,0,0,0,0,0,-1,1931,1394,39.2392,-11.555
714,-370,16.9116,5.93018,0,0,0,0,0,0,0,-1,1938,1394,16.9116,-5.93014
721,-370,17.2007,4.69153,0,0,0,0,0,0,0,-1,1945,1394,17.2007,-4.69158
728,-370,20.5315,-0.313354,0,0,0,0,0,0,0,-1,1952,1394,20.5315,0.313332
735,-370,22.3652,0.233398,0,0,0,0,0,0,0,-1,1959,1394,22.3652,-0.233355
742,-370,24.1989,0.780029,0,0,0,0,0,0,0,-1,1966,1394,24.1989,-0.780041
749,-370,0,0,0,0,0,0,0,0,0,-1,1973,1394,0,0
756,-370,0,0,0,0,0,0,0,0,0,-1,1980,1394,0,0
763,-370,0,0,0,0,0,0,0,0,0,-1,1987,1394,0,0
770,-370,0,0,0,0,0,0,0,0,0,-1,1994,1394,0,0
777,-370,0,0,0,0,0,0,0,0,0,-1,2001,1394,0,0
784,-370,0,0,0,0,0,0,0,0,0,-1,2008,1394,0,0
791,-370,0,0,0,0,0,0,0,0,0,-1,2015,1394,0,0
798,-370,0,0,0,0,0,0,0,0,0,-1,2022,1394,0,0
805,-370,0,0,0,0,0,0,0,0,0,-1,2029,1394,0,0
812,-370,0,0,0,0,0,0,0,0,0,-1,2036,1394,0,0
-700,-377,0,0,0,0,0,0,0,0,0,-1,524,1401,0,0
-693,-377,0,0,0,0,0,0,0,0,0,-1,531,1401,0,0
-686,-377,0,0,0,0,0,0,0,0,0,-1,538,1401,0,0
-679,-377,0,0,0,0,0,0,0,0,0,-1,545,1401,0,0
-672,-377,0,0,0,0,0,0,0,0,0,-1,552,1401,0,0
-665,-377,0,0,0,0,0,0,0,0,0,-1,559,1401,0,0
-658,-377,0,0,0,0,0,0,0,0,0,-1,566,1401,0,0
-651,-377,0,0,0,0,0,0,0,0,0,-1,573,1401,0,0
-644,-377,0,0,0,0,0,0,0,0,0,-1,580,1401,0,0
-637,-377,0,0,0,0,0,0,0,0,0,-1,587,1401,0,0
-630,-377,0,0,0,0,0,0,0,0,0,-1,594,1401,0,0
-623,-377,0,0,0,0,0,0,0,0,0,-1,601,1401,0,0
-616,-377,-9.43915,-2.4906,0,0,0,0,0,0,0,-1,608,1401,-9.43915,2.49062
-609,-377,-7.2821,-1.35278,0,0,0,0,0,0,0,-1,615,1401,-7.28208,1.35279
-602,-377,-14.9736,3.98279,0,0,0,0,0,0,0,-1,622,1401,-14.9737,-3.98276
-595,-377,-6.9082,1.18201,0,0,0,0,0,0,0,-1,629,1401,-6.90822,-1.18204
-588,-377,-12.8003,3.44751,0,0,0,0,0,0,0,-1,636,1401,-12.8003,-3.44754
-581,-377,-11.8243,6.21521,0,0,0,0,0,0,0,-1,643,1401,-11.8244,-6.21519
-574,-377,-12.2761,6.60547,0,0,0,0,0,0,0,-1,650,1401,-12.2761,-6.60552
-567,-377,-13.4844,7.41931,0,0,0,0,0,0,0,-1,657,1401,-13.4845,-7.41926
-560,-377,-26.4563,15.5015,0,0,0,0,0,0,0,-1,664,1401,-26.4563,-15.5015
-553,-377,-26.2233,16.5677,0.0050135,0.00419347,0.00361305,0.00823973,0.000967247,0.728899,0.00520081,0.0196691,671,1401,-26.2233,-16.5677
-546,-377,-26.2578,17.5619,0.00422322,0.0029874,0.00285456,0.00652599,0.000684634,0.678811,0.00414135,0.0167957,678,1401,-26.2577,-17.5619
-539,-377,-26.2616,18.4064,0.0036662,0.00200997,0.00227131,0.00525565,0.000420517,0.610588,0.00337235,0.0222,685,1401,-26.2616,-18.4064
-532,-377,-26.3715,19.2606,0.00338235,0.00126143,0.00187571,0.00447662,0.000167154,0.528117,0.00293028,0.0229069,692,1401,-26.3715,-19.2606
-525,-377,-26.3606,20.1747,0.00332756,0.000700575,0.00163763,0.00411338,-8.52367e-05,0.447397,0.0027711,0.0271825,699,1401,-26.3606,-20.1747
-518,-377,-26.4388,21.0377,0.00348451,0.000315045,0.00155222,0.00411806,-0.000318505,0.387518,0.00285746,0.0177956,706,1401,-26.4388,-21.0377
-511,-377,-26.4733,21.9225,0.00387625,0.000140971,0.00163253,0.00448918,-0.000471964,0.359165,0.00316187,0.0129241,713,1401,-26.4734,-21.9225
-504,-377,-26.5233,22.8169,0.00459331,0.000199427,0.0019531,0.00533595,-0.000543216,0.363355,0.00375151,0.0163931,720,1401,-26.5232,-22.8169
-497,-377,-26.5636,23.6953,0,0,0,0,0,0,0,-1,727,1401,-26.5636,-23.6953
-490,-377,-8.88409,10.1245,0,0,0,0,0,0,0,-1,734,1401,-8.8841,-10.1245
-483,-377,-5.6524,5.07324,0,0,0,0,0,0,0,-1,741,1401,-5.6524,-5.07325
-476,-377,-6.11682,5.10535,0,0,0,0,0,0,0,-1,748,1401,-6.11681,-5.10537
-469,-377,-10.3211,1.9281,0,0,0,0,0,0,0,-1,755,1401,-10.3211,-1.92808
-462,-377,-9.2204,1.0022,0,0,0,0,0,0,0,-1,762,1401,-9.22039,-1.00218
-455,-377,-8.11969,0.0762939,0,0,0,0,0,0,0,-1,769,1401,-8.11968,-0.0762759
-448,-377,-9.05334,0.877319,0,0,0,0,0,0,0,-1,776,1401,-9.05332,-0.877324
-441,-377,-11.212,0.763428,0,0,0,0,0,0,0,-1,783,1401,-11.212,-0.763415
-434,-377,-11.0984,0.996216,0,0,0,0,0,0,0,-1,790,1401,-11.0984,-0.996265
-427,-377,-11.1733,1.25732,0,0,0,0,0,0,0,-1,797,1401,-11.1733,-1.25732
-420,-377,0,0,0,0,0,0,0,0,0,-1,804,1401,0,0
-413,-377,0,0,0,0,0,0,0,0,0,-1,811,1401,0,0
-406,-377,0,0,0,0,0,0,0,0,0,-1,818,1401,0,0
-399,-377,0,0,0,0,0,0,0,0,0,-1,825,1401,0,0
-392,-377,0,0,0,0,0,0,0,0,0,-1,832,1401,0,0
-385,-377,0,0,0,0,0,0,0,0,0,-1,839,1401,0,0
-378,-377,0,0,0,0,0,0,0,0,0,-1,846,1401,0,0
-371,-377,0,0,0,0,0,0,0,0,0,-1,853,1401,0,0
-364,-377,0,0,0,0,0,0,0,0,0,-1,860,1401,0,0
-357,-377,0,0,0,0,0,0,0,0,0,-1,867,1401,0,0
-350,-377,0,0,0,0,0,0,0,0,0,-1,874,1401,0,0
-343,-377,0,0,0,0,0,0,0,0,0,-1,881,1401,0,0
-336,-377,0,0,0,0,0,0,0,0,0,-1,888,1401,0,0
-329,-377,0,0,0,0,0,0,0,0,0,-1,895,1401,0,0
-322,-377,0,0,0,0,0,0,0,0,0,-1,902,1401,0,0
-315,-377,0,0,0,0,0,0,0,0,0,-1,909,1401,0,0
-308,-377,0,0,0,0,0,0,0,0,0,-1,916,1401,0,0
-301,-377,0,0,0,0,0,0,0,0,0,-1,923,1401,0,0
-294,-377,0,0,0,0,0,0,0,0,0,-1,930,1401,0,0
-287,-377,0,0,0,0,0,0,0,0,0,-1,937,1401,0,0
-280,-377,0,0,0,0,0,0,0,0,0,-1,944,1401,0,0
-273,-377,0,0,0,0,0,0,0,0,0,-1,951,1401,0,0
-266,-377,0,0,0,0,0,0,0,0,0,-1,958,1401,0,0
-259,-377,0,0,0,0,0,0,0,0,0,-1,965,1401,0,0
-252,-377,0,0,0,0,0,0,0,0,0,-1,972,1401,0,0
-245,-377,0,0,0,0,0,0,0,0,0,-1,979,1401,0,0
-238,-377,0,0,0,0,0,0,0,0,0,-1,986,1401,0,0
-231,-377,0,0,0,0,0,0,0,0,0,-1,993,1401,0,0
-224,-377,0,0,0,0,0,0,0,0,0,-1,1000,1401,0,0
-217,-377,0,0,0,0,0,0,0,0,0,-1,1007,1401,0,0
-210,-377,0,0,0,0,0,0,0,0,0,-1,1014,1401,0,0
-203,-377,0,0,0,0,0,0,0,0,0,-1,1021,1401,0,0
-196,-377,0,0,0,0,0,0,0,0,0,-1,1028,1401,0,0
-189,-377,0,0,0,0,0,0,0,0,0,-1,1035,1401,0,0
-182,-377,0,0,0,0,0,0,0,0,0,-1,1042,1401,0,0
-175,-377,0,0,0,0,0,0,0,0,0,-1,1049,1401,0,0
-168,-377,0,0,0,0,0,0,0,0,0,-1,1056,1401,0,0
-161,-377,0,0,0,0,0,0,0,0,0,-1,1063,1401,0,0
-154,-377,0,0,0,0,0,0,0,0,0,-1,1070,1401,0,0
-147,-377,0,0,0,0,0,0,0,0,0,-1,1077,1401,0,0
-140,-377,0,0,0,0,0,0,0,0,0,-1,1084,1401,0,0
-133,-377,0,0,0,0,0,0,0,0,0,-1,1091,1401,0,0
-126,-377,0,0,0,0,0,0,0,0,0,-1,1098,1401,0,0
-119,-377,0,0,0,0,0,0,0,0,0,-1,1105,1401,0,0
-112,-377,0,0,0,0,0,0,0,0,0,-1,1112,1401,0,0
-105,-377,0,0,0,0,0,0,0,0,0,-1,1119,1401,0,0
-98,-377,0,0,0,0,0,0,0,0,0,-1,1126,1401,0,0
-91,-377,0,0,0,0,0,0,0,0,0,-1,1133,1401,0,0
-84,-377,0,0,0,0,0,0,0,0,0,-1,1140,1401,0,0
-77,-377,0,0,0,0,0,0,0,0,0,-1,1147,1401,0,0
-70,-377,0,0,0,0,0,0,0,0,0,-1,1154,1401,0,0
-63,-377,0,0,0,0,0,0,0,0,0,-1,1161,1401,0,0
-56,-377,0,0,0,0,0,0,0,0,0,-1,1168,1401,0,0
-49,-377,0,0,0,0,0,0,0,0,0,-1,1175,1401,0,0
-42,-377,0,0,0,0,0,0,0,0,0,-1,1182,1401,0,0
-35,-377,0,0,0,0,0,0,0,0,0,-1,1189,1401,0,0
-28,-377,0,0,0,0,0,0,0,0,0,-1,1196,1401,0,0
-21,-377,0,0,0,0,0,0,0,0,0,-1,1203,1401,0,0
-14,-377,0,0,0,0,0,0,0,0,0,-1,1210,1401,0,0
-7,-377,0,0,0,0,0,0,0,0,0,-1,1217,1401,0,0
0,-377,0,0,0,0,0,0,0,0,0,-1,1224,1401,0,0
7,-377,0,0,0,0,0,0,0,0,0,-1,1231,1401,0,0
14,-377,0,0,0,0,0,0,0,0,0,-1,1238,1401,0,0
21,-377,0,0,0,0,0,0,0,0,0,-1,1245,1401,0,0
28,-377,0,0,0,0,0,0,0,0,0,-1,1252,1401,0,0
35,-377,0,0,0,0,0,0,0,0,0,-1,1259,1401,0,0
42,-377,0,0,0,0,0,0,0,0,0,-1,1266,1401,0,0
49,-377,0,0,0,0,0,0,0,0,0,-1,1273,1401,0,0
56,-377,0,0,0,0,0,0,0,0,0,-1,1280,1401,0,0
63,-377,0,0,0,0,0,0,0,0,0,-1,1287,1401,0,0
70,-377,0,0,0,0,0,0,0,0,0,-1,1294,1401,0,0
77,-377,0,0,0,0,0,0,0,0,0,-1,1301,1401,0,0
84,-377,0,0,0,0,0,0,0,0,0,-1,1308,1401,0,0
91,-377,0,0,0,0,0,0,0,0,0,-1,1315,1401,0,0
98,-377,0,0,0,0,0,0,0,0,0,-1,1322,1401,0,0
105,-377,0,0,0,0,0,0,0,0,0,-1,1329,1401,0,0
112,-377,0,0,0,0,0,0,0,0,0,-1,1336,1401,0,0
119,-377,0,0,0,0,0,0,0,0,0,-1,1343,1401,0,0
126,-377,0,0,0,0,0,0,0,0,0,-1,1350,1401,0,0
133,-377,0,0,0,0,0,0,0,0,0,-1,1357,1401,0,0
140,-377,0,0,0,0,0,0,0,0,0,-1,1364,1401,0,0
147,-377,0,0,0,0,0,0,0,0,0,-1,1371,1401,0,0
154,-377,0,0,0,0,0,0,0,0,0,-1,1378,1401,0,0
161,-377,0,0,0,0,0,0,0,0,0,-1,1385,1401,0,0
168,-377,0,0,0,0,0,0,0,0,0,-1,1392,1401,0,0
175,-377,0,0,0,0,0,0,0,0,0,-1,1399,1401,0,0
182,-377,0,0,0,0,0,0,0,0,0,-1,1406,1401,0,0
189,-377,0,0,0,0,0,0,0,0,0,-1,1413,1401,0,0
196,-377,0,0,0,0,0,0,0,0,0,-1,1420,1401,0,0
203,-377,0,0,0,0,0,0,0,0,0,-1,1427,1401,0,0
210,-377,0,0,0,0,0,0,0,0,0,-1,1434,1401,0,0
217,-377,0,0,0,0,0,0,0,0,0,-1,1441,1401,0,0
224,-377,0,0,0,0,0,0,0,0,0,-1,1448,1401,0,0
231,-377,0,0,0,0,0,0,0,0,0,-1,1455,1401,0,0
238,-377,0,0,0,0,0,0,0,0,0,-1,1462,1401,0,0
245,-377,0,0,0,0,0,0,0,0,0,-1,1469,1401,0,0
252,-377,0,0,0,0,0,0,0,0,0,-1,1476,1401,0,0
259,-377,0,0,0,0,0,0,0,0,0,-1,1483,1401,0,0
266,-377,0,0,0,0,0,0,0,0,0,-1,1490,1401,0,0
273,-377,0,0,0,0,0,0,0,0,0,-1,1497,1401,0,0
280,-377,0,0,0,0,0,0,0,0,0,-1,1504,1401,0,0
287,-377,0,0,0,0,0,0,0,0,0,-1,1511,1401,0,0
294,-377,0,0,0,0,0,0,0,0,0,-1,1518,1401,0,0
301,-377,0,0,0,0,0,0,0,0,0,-1,1525,1401,0,0
308,-377,0,0,0,0,0,0,0,0,0,-1,1532,1401,0,0
315,-377,0,0,0,0,0,0,0,0,0,-1,1539,1401,0,0
322,-377,0,0,0,0,0,0,0,0,0,-1,1546,1401,0,0
329,-377,0,0,0,0,0,0,0,0,0,-1,1553,1401,0,0
336,-377,0,0,0,0,0,0,0,0,0,-1,1560,1401,0,0
343,-377,0,0,0,0,0,0,0,0,0,-1,1567,1401,0,0
350,-377,0,0,0,0,0,0,0,0,0,-1,1574,1401,0,0
357,-377,0,0,0,0,0,0,0,0,0,-1,1581,1401,0,0
364,-377,0,0,0,0,0,0,0,0,0,-1,1588,1401,0,0
371,-377,0,0,0,0,0,0,0,0,0,-1,1595,1401,0,0
378,-377,0,0,0,0,0,0,0,0,0,-1,1602,1401,0,0
385,-377,0,0,0,0,0,0,0,0,0,-1,1609,1401,0,0
392,-377,0,0,0,0,0,0,0,0,0,-1,1616,1401,0,0
399,-377,0,0,0,0,0,0,0,0,0,-1,1623,1401,0,0
406,-377,0,0,0,0,0,0,0,0,0,-1,1630,1401,0,0
413,-377,0,0,0,0,0,0,0,0,0,-1,1637,1401,0,0
420,-377,0,0,0,0,0,0,0,0,0,-1,1644,1401,0,0
427,-377,0,0,0,0,0,0,0,0,0,-1,1651,1401,0,0
434,-377,0,0,0,0,0,0,0,0,0,-1,1658,1401,0,0
441,-377,0,0,0,0,0,0,0,0,0,-1,1665,1401,0,0
448,-377,0,0,0,0,0,0,0,0,0,-1,1672,1401,0,0
455,-377,0,0,0,0,0,0,0,0,0,-1,1679,1401,0,0
462,-377,0,0,0,0,0,0,0,0,0,-1,1686,1401,0,0
469,-377,0,0,0,0,0,0,0,0,0,-1,1693,1401,0,0
476,-377,0,0,0,0,0,0,0,0,0,-1,1700,1401,0,0
483,-377,0,0,0,0,0,0,0,0,0,-1,1707,1401,0,0
490,-377,0,0,0,0,0,0,0,0,0,-1,1714,1401,0,0
497,-377,0,0,0,0,0,0,0,0,0,-1,1721,1401,0,0
504,-377,0,0,0,0,0,0,0,0,0,-1,1728,1401,0,0
511,-377,0,0,0,0,0,0,0,0,0,-1,1735,1401,0,0
518,-377,0,0,0,0,0,0,0,0,0,-1,1742,1401,0,0
525,-377,0,0,0,0,0,0,0,0,0,-1,1749,1401,0,0
532,-377,0,0,0,0,0,0,0,0,0,-1,1756,1401,0,0
539,-377,0,0,0,0,0,0,0,0,0,-1,1763,1401,0,0
546,-377,27.8485,2.34094,0,0,0,0,0,0,0,-1,1770,1401,27.8486,-2.34091
553,-377,61.8907,2.39148,0,0,0,0,0,0,0,-1,1777,1401,61.8908,-2.39149
560,-377,38.3577,-2.15015,0,0,0,0,0,0,0,-1,1784,1401,38.3576,2.1501
567,-377,38.4889,-0.285645,0,0,0,0,0,0,0,-1,1791,1401,38.4889,0.2857
574,-377,38.6221,1.61694,0,0,0,0,0,0,0,-1,1798,1401,38.6221,-1.61689
581,-377,39.1818,3.76367,0,0,0,0,0,0,0,-1,1805,1401,39.1818,-3.76366
588,-377,25.882,4.35217,0,0,0,0,0,0,0,-1,1812,1401,25.8819,-4.3522
595,-377,25.5392,5.11804,0,0,0,0,0,0,0,-1,1819,1401,25.5392,-5.11808
602,-377,24.816,5.79126,0,0,0,0,0,0,0,-1,1826,1401,24.816,-5.79124
609,-377,15.0223,4.76135,0,0,0,0,0,0,0,-1,1833,1401,15.0224,-4.76129
616,-377,14.1842,5.78992,0,0,0,0,0,0,0,-1,1840,1401,14.1842,-5.78987
623,-377,15.8248,8.76721,0,0,0,0,0,0,0,-1,1847,1401,15.8248,-8.76725
630,-377,37.4343,20.0704,0,0,0,0,0,0,0,-1,1854,1401,37.4344,-20.0704
637,-377,43.9542,22.6725,0,0,0,0,0,0,0,-1,1861,1401,43.9542,-22.6725
644,-377,43.8848,21.7703,-0.000612355,0.000617223,-0.000225277,0.000657198,-0.000652329,-1.39518,0.000756058,0.0138092,1868,1401,43.8848,-21.7703
651,-377,43.8185,20.8795,-0.000110489,0.00046891,-0.000261818,0.00056969,-0.000211269,-1.20335,0.000466447,0.0139252,1875,1401,43.8185,-20.8795
658,-377,43.7695,20.0468,0.000653694,0.000443315,-0.000504201,0.00106356,3.34469e-05,-0.68256,0.000698159,0.0161624,1882,1401,43.7695,-20.0468
665,-377,43.7423,19.1716,0.00157634,0.00050719,-0.000910841,0.00209789,-1.43602e-05,-0.520031,0.00140341,0.0210378,1889,1401,43.7423,-19.1716
672,-377,43.6808,18.3192,0.00268663,0.000652657,-0.0014877,0.00347173,-0.000132439,-0.485581,0.00235987,0.0194669,1896,1401,43.6808,-18.3193
679,-377,43.6094,17.5114,0.00400343,0.000900818,-0.00226274,0.00519558,-0.000291331,-0.484904,0.0035648,0.0171658,1903,1401,43.6093,-17.5113
686,-377,43.5851,16.7069,0.00557252,0.00127277,-0.00327707,0.00734197,-0.000496685,-0.495095,0.00506833,0.0146039,1910,1401,43.5851,-16.7069
693,-377,43.6573,15.7748,0.00739607,0.00183142,-0.00454678,0.00994427,-0.000716782,-0.510825,0.0068809,0.0294367,1917,1401,43.6573,-15.7748
700,-377,43.9382,14.6429,0,0,0,0,0,0,0,-1,1924,1401,43.9382,-14.643
707,-377,28.6234,9.18152,0,0,0,0,0,0,0,-1,1931,1401,28.6234,-9.18151
714,-377,16.5369,5.45959,0,0,0,0,0,0,0,-1,1938,1401,16.5369,-5.4596
721,-377,17.0913,5.42529,0,0,0,0,0,0,0,-1,1945,1401,17.0914,-5.42529
728,-377,14.5396,2.79724,0,0,0,0,0,0,0,-1,1952,1401,14.5396,-2.7972
735,-377,23.2977,-0.991089,0,0,0,0,0,0,0,-1,1959,1401,23.2978,0.991076
742,-377,0,0,0,0,0,0,0,0,0,-1,1966,1401,0,0
749,-377,0,0,0,0,0,0,0,0,0,-1,1973,1401,0,0
756,-377,0,0,0,0,0,0,0,0,0,-1,1980,1401,0,0
763,-377,0,0,0,0,0,0,0,0,0,-1,1987,1401,0,0
770,-377,0,0,0,0,0,0,0,0,0,-1,1994,1401,0,0
777,-377,0,0,0,0,0,0,0,0,0,-1,2001,1401,0,0
784,-377,0,0,0,0,0,0,0,0,0,-1,2008,1401,0,0
791,-377,0,0,0,0,0,0,0,0,0,-1,2015,1401,0,0
798,-377,0,0,0,0,0,0,0,0,0,-1,2022,1401,0,0
805,-377,0,0,0,0,0,0,0,0,0,-1,2029,1401,0,0
812,-377,0,0,0,0,0,0,0,0,0,-1,2036,1401,0,0
-700,-384,0,0,0,0,0,0,0,0,0,-1,524,1408,0,0
-693,-384,0,0,0,0,0,0,0,0,0,-1,531,1408,0,0
-686,-384,0,0,0,0,0,0,0,0,0,-1,538,1408,0,0
-679,-384,0,0,0,0,0,0,0,0,0,-1,545,1408,0,0
-672,-384,0,0,0,0,0,0,0,0,0,-1,552,1408,0,0
-665,-384,0,0,0,0,0,0,0,0,0,-1,559,1408,0,0
-658,-384,0,0,0,0,0,0,0,0,0,-1,566,1408,0,0
-651,-384,0,0,0,0,0,0,0,0,0,-1,573,1408,0,0
-644,-384,0,0,0,0,0,0,0,0,0,-1,580,1408,0,0
-637,-384,0,0,0,0,0,0,0,0,0,-1,587,1408,0,0
-630,-384,0,0,0,0,0,0,0,0,0,-1,594,1408,0,0
-623,-384,0,0,0,0,0,0,0,0,0,-1,601,1408,0,0
-616,-384,-10.019,-3.36646,0,0,0,0,0,0,0,-1,608,1408,-10.019,3.36648
-609,-384,-7.72357,-2.3418,0,0,0,0,0,0,0,-1,615,1408,-7.72358,2.34182
-602,-384,-11.7632,-2.85156,0,0,0,0,0,0,0,-1,622,1408,-11.7632,2.85157
-595,-384,-10.2217,2.8855,0,0,0,0,0,0,0,-1,629,1408,-10.2218,-2.88548
-588,-384,-12.1653,2.29041,0,0,0,0,0,0,0,-1,636,1408,-12.1654,-2.29038
-581,-384,-11.9297,3.60376,0,0,0,0,0,0,0,-1,643,1408,-11.9298,-3.6038
-574,-384,-11.8677,6.02722,0,0,0,0,0,0,0,-1,650,1408,-11.8677,-6.02722
-567,-384,-12.0743,7.04639,0,0,0,0,0,0,0,-1,657,1408,-12.0743,-7.04641
-560,-384,-19.9478,11.6345,0,0,0,0,0,0,0,-1,664,1408,-19.9478,-11.6345
-553,-384,-25.3625,16.5894,0,0,0,0,0,0,0,-1,671,1408,-25.3626,-16.5894
-546,-384,-25.3903,17.6204,0.00452475,0.00343886,0.00326112,0.00728781,0.000675793,0.702909,0.00464968,0.0158457,678,1408,-25.3903,-17.6203
-539,-384,-25.473,18.4609,0.00376625,0.00240767,0.00252491,0.00570166,0.000472273,0.653992,0.00365387,0.0183042,685,1408,-25.473,-18.4609
-532,-384,-25.4611,19.2645,0.00330332,0.00158998,0.00197973,0.00460377,0.00028952,0.581202,0.00297737,0.024428,692,1408,-25.4611,-19.2645
-525,-384,-25.4494,20.2478,0.00310239,0.000991438,0.00162078,0.00398107,0.000112756,0.496784,0.00261727,0.0243831,699,1408,-25.4494,-20.2478
-518,-384,-25.559,21.1108,0.00311352,0.000549186,0.00141798,0.00374306,-8.03495e-05,0.417826,0.00252258,0.0145865,706,1408,-25.5589,-21.1108
-511,-384,-25.6234,21.9993,0.00334095,0.000302703,0.00136942,0.00386708,-0.000223422,0.366809,0.00265566,0.0116463,713,1408,-25.6234,-21.9993
-504,-384,-25.658,22.8838,0.00384239,0.000260388,0.0015291,0.00440634,-0.000303568,0.353338,0.0030438,0.0130632,720,1408,-25.658,-22.8838
-497,-384,-25.701,23.7749,0,0,0,0,0,0,0,-1,727,1408,-25.7011,-23.7749
-490,-384,-25.3258,24.5962,0,0,0,0,0,0,0,-1,734,1408,-25.3258,-24.5962
-483,-384,-6.26471,7.61194,0,0,0,0,0,0,0,-1,741,1408,-6.26469,-7.61191
-476,-384,-6.02734,5.67761,0,0,0,0,0,0,0,-1,748,1408,-6.02736,-5.6776
-469,-384,-10.206,2.63721,0,0,0,0,0,0,0,-1,755,1408,-10.206,-2.6372
-462,-384,-9.04291,1.43542,0,0,0,0,0,0,0,-1,762,1408,-9.04293,-1.43545
-455,-384,-7.87988,0.233765,0,0,0,0,0,0,0,-1,769,1408,-7.87986,-0.233709
-448,-384,-9.35529,7.19226,0,0,0,0,0,0,0,-1,776,1408,-9.35531,-7.19226
-441,-384,-10.4697,1.79004,0,0,0,0,0,0,0,-1,783,1408,-10.4697,-1.79003
-434,-384,-10.6449,0.552246,0,0,0,0,0,0,0,-1,790,1408,-10.6449,-0.552216
-427,-384,-10.968,1.10583,0,0,0,0,0,0,0,-1,797,1408,-10.968,-1.10588
-420,-384,-12.5607,4.54858,0,0,0,0,0,0,0,-1,804,1408,-12.5607,-4.54859
-413,-384,0,0,0,0,0,0,0,0,0,-1,811,1408,0,0
-406,-384,0,0,0,0,0,0,0,0,0,-1,818,1408,0,0
-399,-384,0,0,0,0,0,0,0,0,0,-1,825,1408,0,0
-392,-384,0,0,0,0,0,0,0,0,0,-1,832,1408,0,0
-385,-384,0,0,0,0,0,0,0,0,0,-1,839,1408,0,0
-378,-384,0,0,0,0,0,0,0,0,0,-1,846,1408,0,0
-371,-384,0,0,0,0,0,0,0,0,0,-1,853,1408,0,0
-364,-384,0,0,0,0,0,0,0,0,0,-1,860,1408,0,0
-357,-384,0,0,0,0,0,0,0,0,0,-1,867,1408,0,0
-350,-384,0,0,0,0,0,0,0,0,0,-1,874,1408,0,0
-343,-384,0,0,0,0,0,0,0,0,0,-1,881,1408,0,0
-336,-384,0,0,0,0,0,0,0,0,0,-1,888,1408,0,0
-329,-384,0,0,0,0,0,0,0,0,0,-1,895,1408,0,0
-322,-384,0,0,0,0,0,0,0,0,0,-1,902,1408,0,0
-315,-384,0,0,0,0,0,0,0,0,0,-1,909,1408,0,0
-308,-384,0,0,0,0,0,0,0,0,0,-1,916,1408,0,0
-301,-384,0,0,0,0,0,0,0,0,0,-1,923,1408,0,0
-294,-384,0,0,0,0,0,0,0,0,0,-1,930,1408,0,0
-287,-384,0,0,0,0,0,0,0,0,0,-1,937,1408,0,0
-280,-384,0,0,0,0,0,0,0,0,0,-1,944,1408,0,0
-273,-384,0,0,0,0,0,0,0,0,0,-1,951,1408,0,0
-266,-384,0,0,0,0,0,0,0,0,0,-1,958,1408,0,0
-259,-384,0,0,0,0,0,0,0,0,0,-1,965,1408,0,0
-252,-384,0,0,0,0,0,0,0,0,0,-1,972,1408,0,0
-245,-384,0,0,0,0,0,0,0,0,0,-1,979,1408,0,0
-238,-384,0,0,0,0,0,0,0,0,0,-1,986,1408,0,0
-231,-384,0,0,0,0,0,0,0,0,0,-1,993,1408,0,0
-224,-384,0,0,0,0,0,0,0,0,0,-1,1000,1408,0,0
-217,-384,0,0,0,0,0,0,0,0,0,-1,1007,1408,0,0
-210,-384,0,0,0,0,0,0,0,0,0,-1,1014,1408,0,0
-203,-384,0,0,0,0,0,0,0,0,0,-1,1021,1408,0,0
-196,-384,0,0,0,0,0,0,0,0,0,-1,1028,1408,0,0
-189,-384,0,0,0,0,0,0,0,0,0,-1,1035,1408,0,0
-182,-384,0,0,0,0,0,0,0,0,0,-1,1042,1408,0,0
-175,-384,0,0,0,0,0,0,0,0,0,-1,1049,1408,0,0
-168,-384,0,0,0,0,0,0,0,0,0,-1,1056,1408,0,0
-161,-384,0,0,0,0,0,0,0,0,0,-1,1063,1408,0,0
-154,-384,0,0,0,0,0,0,0,0,0,-1,1070,1408,0,0
-147,-384,0,0,0,0,0,0,0,0,0,-1,1077,1408,0,0
-140,-384,0,0,0,0,0,0,0,0,0,-1,1084,1408,0,0
-133,-384,0,0,0,0,0,0,0,0,0,-1,1091,1408,0,0
-126,-384,0,0,0,0,0,0,0,0,0,-1,1098,1408,0,0
-119,-384,0,0,0,0,0,0,0,0,0,-1,1105,1408,0,0
-112,-384,0,0,0,0,0,0,0,0,0,-1,1112,1408,0,0
-105,-384,0,0,0,0,0,0,0,0,0,-1,1119,1408,0,0
-98,-384,0,0,0,0,0,0,0,0,0,-1,1126,1408,0,0
-91,-384,0,0,0,0,0,0,0,0,0,-1,1133,1408,0,0
-84,-384,0,0,0,0,0,0,0,0,0,-1,1140,1408,0,0
-77,-384,0,0,0,0,0,0,0,0,0,-1,1147,1408,0,0
-70,-384,0,0,0,0,0,0,0,0,0,-1,1154,1408,0,0
-63,-384,0,0,0,0,0,0,0,0,0,-1,1161,1408,0,0
-56,-384,0,0,0,0,0,0,0,0,0,-1,1168,1408,0,0
-49,-384,0,0,0,0,0,0,0,0,0,-1,1175,1408,0,0
-42,-384,0,0,0,0,0,0,0,0,0,-1,1182,1408,0,0
-35,-384,0,0,0,0,0,0,0,0,0,-1,1189,1408,0,0
-28,-384,0,0,0,0,0,0,0,0,0,-1,1196,1408,0,0
-21,-384,0,0,0,0,0,0,0,0,0,-1,1203,1408,0,0
-14,-384,0,0,0,0,0,0,0,0,0,-1,1210,1408,0,0
-7,-384,0,0,0,0,0,0,0,0,0,-1,1217,1408,0,0
0,-384,0,0,0,0,0,0,0,0,0,-1,1224,1408,0,0
7,-384,0,0,0,0,0,0,0,0,0,-1,1231,1408,0,0
14,-384,0,0,0,0,0,0,0,0,0,-1,1238,1408,0,0
21,-384,0,0,0,0,0,0,0,0,0,-1,1245,1408,0,0
28,-384,0,0,0,0,0,0,0,0,0,-1,1252,1408,0,0
35,-384,0,0,0,0,0,0,0,0,0,-1,1259,1408,0,0
42,-384,0,0,0,0,0,0,0,0,0,-1,1266,1408,0,0
49,-384,0,0,0,0,0,0,0,0,0,-1,1273,1408,0,0
56,-384,0,0,0,0,0,0,0,0,0,-1,1280,1408,0,0
63,-384,0,0,0,0,0,0,0,0,0,-1,1287,1408,0,0
70,-384,0,0,0,0,0,0,0,0,0,-1,1294,1408,0,0
77,-384,0,0,0,0,0,0,0,0,0,-1,1301,1408,0,0
84,-384,0,0,0,0,0,0,0,0,0,-1,1308,1408,0,0
91,-384,0,0,0,0,0,0,0,0,0,-1,1315,1408,0,0
98,-384,0,0,0,0,0,0,0,0,0,-1,1322,1408,0,0
105,-384,0,0,0,0,0,0,0,0,0,-1,1329,1408,0,0
112,-384,0,0,0,0,0,0,0,0,0,-1,1336,1408,0,0
119,-384,0,0,0,0,0,0,0,0,0,-1,1343,1408,0,0
126,-384,0,0,0,0,0,0,0,0,0,-1,1350,1408,0,0
133,-384,0,0,0,0,0,0,0,0,0,-1,1357,1408,0,0
140,-384,0,0,0,0,0,0,0,0,0,-1,1364,1408,0,0
147,-384,0,0,0,0,0,0,0,0,0,-1,1371,1408,0,0
154,-384,0,0,0,0,0,0,0,0,0,-1,1378,1408,0,0
161,-384,0,0,0,0,0,0,0,0,0,-1,1385,1408,0,0
168,-384,0,0,0,0,0,0,0,0,0,-1,1392,1408,0,0
175,-384,0,0,0,0,0,0,0,0,0,-1,1399,1408,0,0
182,-384,0,0,0,0,0,0,0,0,0,-1,1406,1408,0,0
189,-384,0,0,0,0,0,0,0,0,0,-1,1413,1408,0,0
196,-384,0,0,0,0,0,0,0,0,0,-1,1420,1408,0,0
203,-384,0,0,0,0,0,0,0,0,0,-1,1427,1408,0,0
210,-384,0,0,0,0,0,0,0,0,0,-1,1434,1408,0,0
217,-384,0,0,0,0,0,0,0,0,0,-1,1441,1408,0,0
224,-384,0,0,0,0,0,0,0,0,0,-1,1448,1408,0,0
231,-384,0,0,0,0,0,0,0,0,0,-1,1455,1408,0,0
238,-384,0,0,0,0,0,0,0,0,0,-1,1462,1408,0,0
245,-384,0,0,0,0,0,0,0,0,0,-1,1469,1408,0,0
252,-384,0,0,0,0,0,0,0,0,0,-1,1476,1408,0,0
259,-384,0,0,0,0,0,0,0,0,0,-1,1483,1408,0,0
266,-384,0,0,0,0,0,0,0,0,0,-1,1490,1408,0,0
273,-384,0,0,0,0,0,0,0,0,0,-1,1497,1408,0,0
280,-384,0,0,0,0,0,0,0,0,0,-1,1504,1408,0,0
287,-384,0,0,0,0,0,0,0,0,0,-1,1511,1408,0,0
294,-384,0,0,0,0,0,0,0,0,0,-1,1518,1408,0,0
301,-384,0,0,0,0,0,0,0,0,0,-1,1525,1408,0,0
308,-384,0,0,0,0,0,0,0,0,0,-1,1532,1408,0,0
315,-384,0,0,0,0,0,0,0,0,0,-1,1539,1408,0,0
322,-384,0,0,0,0,0,0,0,0,0,-1,1546,1408,0,0
329,-384,0,0,0,0,0,0,0,0,0,-1,1553,1408,0,0
336,-384,0,0,0,0,0,0,0,0,0,-1,1560,1408,0,0
343,-384,0,0,0,0,0,0,0,0,0,-1,1567,1408,0,0
350,-384,0,0,0,0,0,0,0,0,0,-1,1574,1408,0,0
357,-384,0,0,0,0,0,0,0,0,0,-1,1581,1408,0,0
364,-384,0,0,0,0,0,0,0,0,0,-1,1588,1408,0,0
371,-384,0,0,0,0,0,0,0,0,0,-1,1595,1408,0,0
378,-384,0,0,0,0,0,0,0,0,0,-1,1602,1408,0,0
385,-384,0,0,0,0,0,0,0,0,0,-1,1609,1408,0,0
392,-384,0,0,0,0,0,0,0,0,0,-1,1616,1408,0,0
399,-384,0,0,0,0,0,0,0,0,0,-1,1623,1408,0,0
406,-384,0,0,0,0,0,0,0,0,0,-1,1630,1408,0,0
413,-384,0,0,0,0,0,0,0,0,0,-1,1637,1408,0,0
420,-384,0,0,0,0,0,0,0,0,0,-1,1644,1408,0,0
427,-384,0,0,0,0,0,0,0,0,0,-1,1651,1408,0,0
434,-384,0,0,0,0,0,0,0,0,0,-1,1658,1408,0,0
441,-384,0,0,0,0,0,0,0,0,0,-1,1665,1408,0,0
448,-384,0,0,0,0,0,0,0,0,0,-1,1672,1408,0,0
455,-384,0,0,0,0,0,0,0,0,0,-1,1679,1408,0,0
462,-384,0,0,0,0,0,0,0,0,0,-1,1686,1408,0,0
469,-384,0,0,0,0,0,0,0,0,0,-1,1693,1408,0,0
476,-384,0,0,0,0,0,0,0,0,0,-1,1700,1408,0,0
483,-384,0,0,0,0,0,0,0,0,0,-1,1707,1408,0,0
490,-384,0,0,0,0,0,0,0,0,0,-1,1714,1408,0,0
497,-384,0,0,0,0,0,0,0,0,0,-1,1721,1408,0,0
504,-384,0,0,0,0,0,0,0,0,0,-1,1728,1408,0,0
511,-384,0,0,0,0,0,0,0,0,0,-1,1735,1408,0,0
518,-384,0,0,0,0,0,0,0,0,0,-1,1742,1408,0,0
525,-384,0,0,0,0,0,0,0,0,0,-1,1749,1408,0,0
532,-384,0,0,0,0,0,0,0,0,0,-1,1756,1408,0,0
539,-384,27.6886,2.85803,0,0,0,0,0,0,0,-1,1763,1408,27.6886,-2.85807
546,-384,27.5044,2.9425,0,0,0,0,0,0,0,-1,1770,1408,27.5044,-2.94255
553,-384,27.3052,2.78394,0,0,0,0,0,0,0,-1,1777,1408,27.3051,-2.78394
560,-384,26.833,3.19812,0,0,0,0,0,0,0,-1,1784,1408,26.833,-3.19816
567,-384,38.2566,0.109985,0,0,0,0,0,0,0,-1,1791,1408,38.2566,-0.110044
574,-384,38.4003,2.05945,0,0,0,0,0,0,0,-1,1798,1408,38.4003,-2.05949
581,-384,25.819,3.91846,0,0,0,0,0,0,0,-1,1805,1408,25.8189,-3.91848
588,-384,23.3721,4.25439,0,0,0,0,0,0,0,-1,1812,1408,23.3721,-4.25442
595,-384,24.981,5.59595,0,0,0,0,0,0,0,-1,1819,1408,24.981,-5.59598
602,-384,20.6605,4.17261,0,0,0,0,0,0,0,-1,1826,1408,20.6606,-4.17265
609,-384,14.158,5.49475,0,0,0,0,0,0,0,-1,1833,1408,14.158,-5.49474
616,-384,14.7997,7.6908,0,0,0,0,0,0,0,-1,1840,1408,14.7996,-7.69079
623,-384,16.4293,9.58899,0,0,0,0,0,0,0,-1,1847,1408,16.4294,-9.58901
630,-384,43.0311,23.5968,0,0,0,0,0,0,0,-1,1854,1408,43.0311,-23.5968
637,-384,43.0835,22.663,-0.000568317,0.000597283,-0.000263374,0.000654031,-0.000625065,-1.35858,0.000738549,0.0270393,1861,1408,43.0835,-22.6629
644,-384,42.9913,21.8384,-0.000250225,0.000454355,-0.00019486,0.000504655,-0.000300524,-1.31818,0.000469824,0.0170072,1868,1408,42.9913,-21.8384
651,-384,42.9131,20.9404,0.000295852,0.000373696,-0.00033128,0.000668333,1.21535e-06,-0.843875,0.000445151,0.0161902,1875,1408,42.9131,-20.9404
658,-384,42.8893,20.0779,0.00106014,0.000378016,-0.00063405,0.00143904,-8.82545e-07,-0.538642,0.000959652,0.0168096,1882,1408,42.8893,-20.0779
665,-384,42.8856,19.245,0.00201168,0.000483029,-0.00111363,0.00259804,-0.000103334,-0.484649,0.00176748,0.019094,1889,1408,42.8856,-19.245
672,-384,42.825,18.3992,0.00317753,0.000666277,-0.00177155,0.0040933,-0.000249498,-0.477104,0.00281572,0.0168865,1896,1408,42.825,-18.3992
679,-384,42.7466,17.5704,0.0045847,0.000953127,-0.00265272,0.00598357,-0.000445737,-0.485274,0.00414562,0.0153951,1903,1408,42.7466,-17.5704
686,-384,42.7023,16.7363,0.00628063,0.00135258,-0.00380794,0.00835222,-0.00071901,-0.49824,0.00582264,0.0146849,1910,1408,42.7022,-16.7364
693,-384,42.903,15.719,0,0,0,0,0,0,0,-1,1917,1408,42.9029,-15.719
700,-384,41.9762,14.4678,0,0,0,0,0,0,0,-1,1924,1408,41.9762,-14.4678
707,-384,17.0566,6.62842,0,0,0,0,0,0,0,-1,1931,1408,17.0567,-6.62848
714,-384,16.038,5.0282,0,0,0,0,0,0,0,-1,1938,1408,16.038,-5.02819
721,-384,13.8843,2.8717,0,0,0,0,0,0,0,-1,1945,1408,13.8843,-2.87171
728,-384,15.4409,6.25745,0,0,0,0,0,0,0,-1,1952,1408,15.4409,-6.2574
735,-384,16.7598,6.71289,0,0,0,0,0,0,0,-1,1959,1408,16.7598,-6.71287
742,-384,0,0,0,0,0,0,0,0,0,-1,1966,1408,0,0
749,-384,0,0,0,0,0,0,0,0,0,-1,1973,1408,0,0
756,-384,0,0,0,0,0,0,0,0,0,-1,1980,1408,0,0
763,-384,0,0,0,0,0,0,0,0,0,-1,1987,1408,0,0
770,-384,0,0,0,0,0,0,0,0,0,-1,1994,1408,0,0
777,-384,0,0,0,0,0,0,0,0,0,-1,2001,1408,0,0
784,-384,0,0,0,0,0,0,0,0,0,-1,2008,1408,0,0
791,-384,0,0,0,0,0,0,0,0,0,-1,2015,1408,0,0
798,-384,0,0,0,0,0,0,0,0,0,-1,2022,1408,0,0
805,-384,0,0,0,0,0,0,0,0,0,-1,2029,1408,0,0
812,-384,0,0,0,0,0,0,0,0,0,-1,2036,1408,0,0
-700,-391,0,0,0,0,0,0,0,0,0,-1,524,1415,0,0
-693,-391,0,0,0,0,0,0,0,0,0,-1,531,1415,0,0
-686,-391,0,0,0,0,0,0,0,0,0,-1,538,1415,0,0
-679,-391,0,0,0,0,0,0,0,0,0,-1,545,1415,0,0
-672,-391,0,0,0,0,0,0,0,0,0,-1,552,1415,0,0
-665,-391,0,0,0,0,0,0,0,0,0,-1,559,1415,0,0
-658,-391,0,0,0,0,0,0,0,0,0,-1,566,1415,0,0
-651,-391,0,0,0,0,0,0,0,0,0,-1,573,1415,0,0
-644,-391,0,0,0,0,0,0,0,0,0,-1,580,1415,0,0
-637,-391,0,0,0,0,0,0,0,0,0,-1,587,1415,0,0
-630,-391,0,0,0,0,0,0,0,0,0,-1,594,1415,0,0
-623,-391,0,0,0,0,0,0,0,0,0,-1,601,1415,0,0
-616,-391,0,0,0,0,0,0,0,0,0,-1,608,1415,0,0
-609,-391,-7.71753,-3.69763,0,0,0,0,0,0,0,-1,615,1415,-7.71751,3.69759
-602,-391,-13.9493,-4.12805,0,0,0,0,0,0,0,-1,622,1415,-13.9493,4.12803
-595,-391,-10.8315,1.76172,0,0,0,0,0,0,0,-1,629,1415,-10.8315,-1.76171
-588,-391,-10.265,2.16431,0,0,0,0,0,0,0,-1,636,1415,-10.265,-2.16431
-581,-391,-11.3325,2.44836,0,0,0,0,0,0,0,-1,643,1415,-11.3325,-2.44842
-574,-391,-11.1471,6.19983,0,0,0,0,0,0,0,-1,650,1415,-11.1471,-6.19981
-567,-391,-11.5172,6.82458,0,0,0,0,0,0,0,-1,657,1415,-11.5171,-6.82454
-560,-391,-11.2459,7.37195,0,0,0,0,0,0,0,-1,664,1415,-11.2459,-7.37191
-553,-391,-24.6124,16.6749,0,0,0,0,0,0,0,-1,671,1415,-24.6124,-16.675
-546,-391,-24.5412,17.6215,0.00504615,0.0040932,0.0038377,0.00843684,0.000702503,0.723636,0.00540563,0.0222509,678,1415,-24.5412,-17.6215
-539,-391,-24.5232,18.5355,0.00405679,0.00296152,0.00293806,0.00649782,0.000520493,0.693259,0.00416923,0.0158837,685,1415,-24.5232,-18.5355
-532,-391,-24.5385,19.4286,0.00337865,0.00202257,0.00223113,0.00503249,0.000368727,0.637883,0.00323909,0.0265355,692,1415,-24.5385,-19.4286
-525,-391,-24.5903,20.3518,0.00300191,0.00135072,0.00174649,0.00410811,0.000244519,0.564607,0.00266098,0.024704,699,1415,-24.5903,-20.3518
-518,-391,-24.7127,21.1882,0.00283083,0.000833195,0.00142147,0.00356931,9.4711e-05,0.479142,0.00234861,0.0157654,706,1415,-24.7127,-21.1883
-511,-391,-24.7488,22.059,0.00284175,0.000499299,0.00122748,0.00336714,-2.60826e-05,0.404423,0.0022535,0.0155014,713,1415,-24.7489,-22.059
-504,-391,-24.7963,22.9386,0.00307484,0.000349485,0.00120813,0.00353328,-0.000108957,0.362678,0.00239267,0.0144466,720,1415,-24.7963,-22.9386
-497,-391,-24.8358,23.8171,0.0034842,0.000375856,0.00134322,0.00398421,-0.000124158,0.356359,0.00269848,0.0157161,727,1415,-24.8358,-23.8172
-490,-391,-24.817,24.7281,0,0,0,0,0,0,0,-1,734,1415,-24.817,-24.7281
-483,-391,-11.1018,12.9382,0,0,0,0,0,0,0,-1,741,1415,-11.1018,-12.9382
-476,-391,-6.05731,6.85303,0,0,0,0,0,0,0,-1,748,1415,-6.05728,-6.85304
-469,-391,-3.88953,5.0979,0,0,0,0,0,0,0,-1,755,1415,-3.88955,-5.09794
-462,-391,-8.67688,2.03125,0,0,0,0,0,0,0,-1,762,1415,-8.67685,-2.03121
-455,-391,-8.65576,6.46997,0,0,0,0,0,0,0,-1,769,1415,-8.65579,-6.46999
-448,-391,-8.39618,4.38403,0,0,0,0,0,0,0,-1,776,1415,-8.39617,-4.38405
-441,-391,-9.77704,2.5946,0,0,0,0,0,0,0,-1,783,1415,-9.77702,-2.5946
-434,-391,-11.5403,2.12878,0,0,0,0,0,0,0,-1,790,1415,-11.5403,-2.12881
-427,-391,-10.5311,2.50403,0,0,0,0,0,0,0,-1,797,1415,-10.5311,-2.504
-420,-391,-14.7087,1.24365,0,0,0,0,0,0,0,-1,804,1415,-14.7088,-1.24365
-413,-391,0,0,0,0,0,0,0,0,0,-1,811,1415,0,0
-406,-391,0,0,0,0,0,0,0,0,0,-1,818,1415,0,0
-399,-391,0,0,0,0,0,0,0,0,0,-1,825,1415,0,0
-392,-391,0,0,0,0,0,0,0,0,0,-1,832,1415,0,0
-385,-391,0,0,0,0,0,0,0,0,0,-1,839,1415,0,0
-378,-391,0,0,0,0,0,0,0,0,0,-1,846,1415,0,0
-371,-391,0,0,0,0,0,0,0,0,0,-1,853,1415,0,0
-364,-391,0,0,0,0,0,0,0,0,0,-1,860,1415,0,0
-357,-391,0,0,0,0,0,0,0,0,0,-1,867,1415,0,0
-350,-391,0,0,0,0,0,0,0,0,0,-1,874,1415,0,0
-343,-391,0,0,0,0,0,0,0,0,0,-1,881,1415,0,0
-336,-391,0,0,0,0,0,0,0,0,0,-1,888,1415,0,0
-329,-391,0,0,0,0,0,0,0,0,0,-1,895,1415,0,0
-322,-391,0,0,0,0,0,0,0,0,0,-1,902,1415,0,0
-315,-391,0,0,0,0,0,0,0,0,0,-1,909,1415,0,0
-308,-391,0,0,0,0,0,0,0,0,0,-1,916,1415,0,0
-301,-391,0,0,0,0,0,0,0,0,0,-1,923,1415,0,0
-294,-391,0,0,0,0,0,0,0,0,0,-1,930,1415,0,0
-287,-391,0,0,0,0,0,0,0,0,0,-1,937,1415,0,0
-280,-391,0,0,0,0,0,0,0,0,0,-1,944,1415,0,0
-273,-391,0,0,0,0,0,0,0,0,0,-1,951,1415,0,0
-266,-391,0,0,0,0,0,0,0,0,0,-1,958,1415,0,0
-259,-391,0,0,0,0,0,0,0,0,0,-1,965,1415,0,0
-252,-391,0,0,0,0,0,0,0,0,0,-1,972,1415,0,0
-245,-391,0,0,0,0,0,0,0,0,0,-1,979,1415,0,0
-238,-391,0,0,0,0,0,0,0,0,0,-1,986,1415,0,0
-231,-391,0,0,0,0,0,0,0,0,0,-1,993,1415,0,0
-224,-391,0,0,0,0,0,0,0,0,0,-1,1000,1415,0,0
-217,-391,0,0,0,0,0,0,0,0,0,-1,1007,1415,0,0
-210,-391,0,0,0,0,0,0,0,0,0,-1,1014,1415,0,0
-203,-391,0,0,0,0,0,0,0,0,0,-1,1021,1415,0,0
-196,-391,0,0,0,0,0,0,0,0,0,-1,1028,1415,0,0
-189,-391,0,0,0,0,0,0,0,0,0,-1,1035,1415,0,0
-182,-391,0,0,0,0,0,0,0,0,0,-1,1042,1415,0,0
-175,-391,0,0,0,0,0,0,0,0,0,-1,1049,1415,0,0
-168,-391,0,0,0,0,0,0,0,0,0,-1,1056,1415,0,0
-161,-391,0,0,0,0,0,0,0,0,0,-1,1063,1415,0,0
-154,-391,0,0,0,0,0,0,0,0,0,-1,1070,1415,0,0
-147,-391,0,0,0,0,0,0,0,0,0,-1,1077,1415,0,0
-140,-391,0,0,0,0,0,0,0,0,0,-1,1084,1415,0,0
-133,-391,0,0,0,0,0,0,0,0,0,-1,1091,1415,0,0
-126,-391,0,0,0,0,0,0,0,0,0,-1,1098,1415,0,0
-119,-391,0,0,0,0,0,0,0,0,0,-1,1105,1415,0,0
-112,-391,0,0,0,0,0,0,0,0,0,-1,1112,1415,0,0
-105,-391,0,0,0,0,0,0,0,0,0,-1,1119,1415,0,0
-98,-391,0,0,0,0,0,0,0,0,0,-1,1126,1415,0,0
-91,-391,0,0,0,0,0,0,0,0,0,-1,1133,1415,0,0
-84,-391,0,0,0,0,0,0,0,0,0,-1,1140,1415,0,0
-77,-391,0,0,0,0,0,0,0,0,0,-1,1147,1415,0,0
-70,-391,0,0,0,0,0,0,0,0,0,-1,1154,1415,0,0
-63,-391,0,0,0,0,0,0,0,0,0,-1,1161,1415,0,0
-56,-391,0,0,0,0,0,0,0,0,0,-1,1168,1415,0,0
-49,-391,0,0,0,0,0,0,0,0,0,-1,1175,1415,0,0
-42,-391,0,0,0,0,0,0,0,0,0,-1,1182,1415,0,0
-35,-391,0,0,0,0,0,0,0,0,0,-1,1189,1415,0,0
-28,-391,0,0,0,0,0,0,0,0,0,-1,1196,1415,0,0
-21,-391,0,0,0,0,0,0,0,0,0,-1,1203,1415,0,0
-14,-391,0,0,0,0,0,0,0,0,0,-1,1210,1415,0,0
-7,-391,0,0,0,0,0,0,0,0,0,-1,1217,1415,0,0
0,-391,0,0,0,0,0,0,0,0,0,-1,1224,1415,0,0
7,-391,0,0,0,0,0,0,0,0,0,-1,1231,1415,0,0
14,-391,0,0,0,0,0,0,0,0,0,-1,1238,1415,0,0
21,-391,0,0,0,0,0,0,0,0,0,-1,1245,1415,0,0
28,-391,0,0,0,0,0,0,0,0,0,-1,1252,1415,0,0
35,-391,0,0,0,0,0,0,0,0,0,-1,1259,1415,0,0
42,-391,0,0,0,0,0,0,0,0,0,-1,1266,1415,0,0
49,-391,0,0,0,0,0,0,0,0,0,-1,1273,1415,0,0
56,-391,0,0,0,0,0,0,0,0,0,-1,1280,1415,0,0
63,-391,0,0,0,0,0,0,0,0,0,-1,1287,1415,0,0
70,-391,0,0,0,0,0,0,0,0,0,-1,1294,1415,0,0
77,-391,0,0,0,0,0,0,0,0,0,-1,1301,1415,0,0
84,-391,0,0,0,0,0,0,0,0,0,-1,1308,1415,0,0
91,-391,0,0,0,0,0,0,0,0,0,-1,1315,1415,0,0
98,-391,0,0,0,0,0,0,0,0,0,-1,1322,1415,0,0
105,-391,0,0,0,0,0,0,0,0,0,-1,1329,1415,0,0
112,-391,0,0,0,0,0,0,0,0,0,-1,1336,1415,0,0
119,-391,0,0,0,0,0,0,0,0,0,-1,1343,1415,0,0
126,-391,0,0,0,0,0,0,0,0,0,-1,1350,1415,0,0
133,-391,0,0,0,0,0,0,0,0,0,-1,1357,1415,0,0
140,-391,0,0,0,0,0,0,0,0,0,-1,1364,1415,0,0
147,-391,0,0,0,0,0,0,0,0,0,-1,1371,1415,0,0
154,-391,0,0,0,0,0,0,0,0,0,-1,1378,1415,0,0
161,-391,0,0,0,0,0,0,0,0,0,-1,1385,1415,0,0
168,-391,0,0,0,0,0,0,0,0,0,-1,1392,1415,0,0
175,-391,0,0,0,0,0,0,0,0,0,-1,1399,1415,0,0
182,-391,0,0,0,0,0,0,0,0,0,-1,1406,1415,0,0
189,-391,0,0,0,0,0,0,0,0,0,-1,1413,1415,0,0
196,-391,0,0,0,0,0,0,0,0,0,-1,1420,1415,0,0
203,-391,0,0,0,0,0,0,0,0,0,-1,1427,1415,0,0
210,-391,0,0,0,0,0,0,0,0,0,-1,1434,1415,0,0
217,-391,0,0,0,0,0,0,0,0,0,-1,1441,1415,0,0
224,-391,0,0,0,0,0,0,0,0,0,-1,1448,1415,0,0
231,-391,0,0,0,0,0,0,0,0,0,-1,1455,1415,0,0
238,-391,0,0,0,0,0,0,0,0,0,-1,1462,1415,0,0
245,-391,0,0,0,0,0,0,0,0,0,-1,1469,1415,0,0
252,-391,0,0,0,0,0,0,0,0,0,-1,1476,1415,0,0
259,-391,0,0,0,0,0,0,0,0,0,-1,1483,1415,0,0
266,-391,0,0,0,0,0,0,0,0,0,-1,1490,1415,0,0
273,-391,0,0,0,0,0,0,0,0,0,-1,1497,1415,0,0
280,-391,0,0,0,0,0,0,0,0,0,-1,1504,1415,0,0
287,-391,0,0,0,0,0,0,0,0,0,-1,1511,1415,0,0
294,-391,0,0,0,0,0,0,0,0,0,-1,1518,1415,0,0
301,-391,0,0,0,0,0,0,0,0,0,-1,1525,1415,0,0
308,-391,0,0,0,0,0,0,0,0,0,-1,1532,1415,0,0
315,-391,0,0,0,0,0,0,0,0,0,-1,1539,1415,0,0
322,-391,0,0,0,0,0,0,0,0,0,-1,1546,1415,0,0
329,-391,0,0,0,0,0,0,0,0,0,-1,1553,1415,0,0
336,-391,0,0,0,0,0,0,0,0,0,-1,1560,1415,0,0
343,-391,0,0,0,0,0,0,0,0,0,-1,1567,1415,0,0
350,-391,0,0,0,0,0,0,0,0,0,-1,1574,1415,0,0
357,-391,0,0,0,0,0,0,0,0,0,-1,1581,1415,0,0
364,-391,0,0,0,0,0,0,0,0,0,-1,1588,1415,0,0
371,-391,0,0,0,0,0,0,0,0,0,-1,1595,1415,0,0
378,-391,0,0,0,0,0,0,0,0,0,-1,1602,1415,0,0
385,-391,0,0,0,0,0,0,0,0,0,-1,1609,1415,0,0
392,-391,0,0,0,0,0,0,0,0,0,-1,1616,1415,0,0
399,-391,0,0,0,0,0,0,0,0,0,-1,1623,1415,0,0
406,-391,0,0,0,0,0,0,0,0,0,-1,1630,1415,0,0
413,-391,0,0,0,0,0,0,0,0,0,-1,1637,1415,0,0
420,-391,0,0,0,0,0,0,0,0,0,-1,1644,1415,0,0
427,-391,0,0,0,0,0,0,0,0,0,-1,1651,1415,0,0
434,-391,0,0,0,0,0,0,0,0,0,-1,1658,1415,0,0
441,-391,0,0,0,0,0,0,0,0,0,-1,1665,1415,0,0
448,-391,0,0,0,0,0,0,0,0,0,-1,1672,1415,0,0
455,-391,0,0,0,0,0,0,0,0,0,-1,1679,1415,0,0
462,-391,0,0,0,0,0,0,0,0,0,-1,1686,1415,0,0
469,-391,0,0,0,0,0,0,0,0,0,-1,1693,1415,0,0
476,-391,0,0,0,0,0,0,0,0,0,-1,1700,1415,0,0
483,-391,0,0,0,0,0,0,0,0,0,-1,1707,1415,0,0
490,-391,0,0,0,0,0,0,0,0,0,-1,1714,1415,0,0
497,-391,0,0,0,0,0,0,0,0,0,-1,1721,1415,0,0
504,-391,0,0,0,0,0,0,0,0,0,-1,1728,1415,0,0
511,-391,0,0,0,0,0,0,0,0,0,-1,1735,1415,0,0
518,-391,0,0,0,0,0,0,0,0,0,-1,1742,1415,0,0
525,-391,0,0,0,0,0,0,0,0,0,-1,1749,1415,0,0
532,-391,28.5959,3.02356,0,0,0,0,0,0,0,-1,1756,1415,28.596,-3.02358
539,-391,27.5881,3.25012,0,0,0,0,0,0,0,-1,1763,1415,27.5882,-3.25016
546,-391,27.2837,3.28064,0,0,0,0,0,0,0,-1,1770,1415,27.2837,-3.28064
553,-391,32.5952,5.04553,0,0,0,0,0,0,0,-1,1777,1415,32.5952,-5.04551
560,-391,31.2947,5.67017,0,0,0,0,0,0,0,-1,1784,1415,31.2947,-5.67011
567,-391,30.1473,6.17603,0,0,0,0,0,0,0,-1,1791,1415,30.1473,-6.17602
574,-391,27.5656,5.6842,0,0,0,0,0,0,0,-1,1798,1415,27.5655,-5.68422
581,-391,25.8883,5.76123,0,0,0,0,0,0,0,-1,1805,1415,25.8883,-5.76124
588,-391,24.2717,5.47986,0,0,0,0,0,0,0,-1,1812,1415,24.2717,-5.47982
595,-391,22.8827,6.1991,0,0,0,0,0,0,0,-1,1819,1415,22.8827,-6.19909
602,-391,15.1635,5.69849,0,0,0,0,0,0,0,-1,1826,1415,15.1635,-5.69847
609,-391,14.8285,7.50476,0,0,0,0,0,0,0,-1,1833,1415,14.8285,-7.50479
616,-391,20.7952,12.0503,0,0,0,0,0,0,0,-1,1840,1415,20.7952,-12.0503
623,-391,36.6426,20.3677,0,0,0,0,0,0,0,-1,1847,1415,36.6426,-20.3676
630,-391,42.2474,23.5564,0,0,0,0,0,0,0,-1,1854,1415,42.2474,-23.5564
637,-391,42.1982,22.6996,-0.000218677,0.000392358,-0.000146839,0.000425813,-0.000252132,-1.34678,0.00039567,0.019246,1861,1415,42.1983,-22.6996
644,-391,42.136,21.8495,0.000115884,0.000293408,-0.000195915,0.00041973,-1.04385e-05,-0.998098,0.000283364,0.0181668,1868,1415,42.136,-21.8495
651,-391,42.0852,21.0166,0.000681964,0.000272728,-0.000416047,0.000940988,1.37036e-05,-0.556859,0.000622808,0.0183923,1875,1415,42.0852,-21.0166
658,-391,42.0319,20.1635,0.0014854,0.000334215,-0.000811068,0.00190436,-8.47474e-05,-0.476805,0.00129874,0.0187048,1882,1415,42.0319,-20.1634
665,-391,42.0048,19.3215,0.0025035,0.00049392,-0.00138481,0.00320964,-0.000212223,-0.471554,0.0022139,0.0150236,1889,1415,42.0047,-19.3215
672,-391,41.9556,18.4836,0.00375191,0.000726011,-0.00214054,0.00486021,-0.000382286,-0.477758,0.00337479,0.0125902,1896,1415,41.9556,-18.4837
679,-391,41.8898,17.6437,0.00527969,0.00106541,-0.00314657,0.0069595,-0.0006144,-0.490361,0.00485743,0.0124059,1903,1415,41.8898,-17.6436
686,-391,41.8666,16.7546,0.00713185,0.00149387,-0.0044608,0.00958974,-0.000964023,-0.503609,0.00673753,0.0237613,1910,1415,41.8665,-16.7547
693,-391,41.9641,15.774,0,0,0,0,0,0,0,-1,1917,1415,41.9641,-15.774
700,-391,39.8163,14.4929,0,0,0,0,0,0,0,-1,1924,1415,39.8163,-14.4929
707,-391,12.9524,5.96851,0,0,0,0,0,0,0,-1,1931,1415,12.9524,-5.96849
714,-391,15.6875,7.67896,0,0,0,0,0,0,0,-1,1938,1415,15.6875,-7.67893
721,-391,14.1808,8.08435,0,0,0,0,0,0,0,-1,1945,1415,14.1808,-8.08439
728,-391,13.8102,7.28174,0,0,0,0,0,0,0,-1,1952,1415,13.8102,-7.28174
735,-391,0,0,0,0,0,0,0,0,0,-1,1959,1415,0,0
742,-391,0,0,0,0,0,0,0,0,0,-1,1966,1415,0,0
749,-391,0,0,0,0,0,0,0,0,0,-1,1973,1415,0,0
756,-391,0,0,0,0,0,0,0,0,0,-1,1980,1415,0,0
763,-391,0,0,0,0,0,0,0,0,0,-1,1987,1415,0,0
770,-391,0,0,0,0,0,0,0,0,0,-1,1994,1415,0,0
777,-391,0,0,0,0,0,0,0,0,0,-1,2001,1415,0,0
784,-391,0,0,0,0,0,0,0,0,0,-1,2008,1415,0,0
791,-391,0,0,0,0,0,0,0,0,0,-1,2015,1415,0,0
798,-391,0,0,0,0,0,0,0,0,0,-1,2022,1415,0,0
805,-391,0,0,0,0,0,0,0,0,0,-1,2029,1415,0,0
812,-391,0,0,0,0,0,0,0,0,0,-1,2036,1415,0,0
-700,-398,0,0,0,0,0,0,0,0,0,-1,524,1422,0,0
-693,-398,0,0,0,0,0,0,0,0,0,-1,531,1422,0,0
-686,-398,0,0,0,0,0,0,0,0,0,-1,538,1422,0,0
-679,-398,0,0,0,0,0,0,0,0,0,-1,545,1422,0,0
-672,-398,0,0,0,0,0,0,0,0,0,-1,552,1422,0,0
-665,-398,0,0,0,0,0,0,0,0,0,-1,559,1422,0,0
-658,-398,0,0,0,0,0,0,0,0,0,-1,566,1422,0,0
-651,-398,0,0,0,0,0,0,0,0,0,-1,573,1422,0,0
-644,-398,0,0,0,0,0,0,0,0,0,-1,580,1422,0,0
-637,-398,0,0,0,0,0,0,0,0,0,-1,587,1422,0,0
-630,-398,0,0,0,0,0,0,0,0,0,-1,594,1422,0,0
-623,-398,0,0,0,0,0,0,0,0,0,-1,601,1422,0,0
-616,-398,0,0,0,0,0,0,0,0,0,-1,608,1422,0,0
-609,-398,-7.47125,-4.05322,0,0,0,0,0,0,0,-1,615,1422,-7.47128,4.05317
-602,-398,-4.58868,-2.77026,0,0,0,0,0,0,0,-1,622,1422,-4.58869,2.77023
-595,-398,-12.2224,-1.82007,0,0,0,0,0,0,0,-1,629,1422,-12.2224,1.82006
-588,-398,-10.6939,1.32336,0,0,0,0,0,0,0,-1,636,1422,-10.6939,-1.32337
-581,-398,-10.433,3.1123,0,0,0,0,0,0,0,-1,643,1422,-10.433,-3.11233
-574,-398,-10.4475,5.89807,0,0,0,0,0,0,0,-1,650,1422,-10.4475,-5.89802
-567,-398,-10.4904,6.80115,0,0,0,0,0,0,0,-1,657,1422,-10.4904,-6.80115
-560,-398,-10.5333,7.70435,0,0,0,0,0,0,0,-1,664,1422,-10.5333,-7.70429
-553,-398,-23.7029,16.5396,0,0,0,0,0,0,0,-1,671,1422,-23.7029,-16.5396
-546,-398,-23.7089,17.632,0.00571482,0.00501147,0.00467546,0.0100518,0.000674484,0.74786,0.00648808,0.0441777,678,1422,-23.7089,-17.6319
-539,-398,-23.6293,18.6119,0.00442062,0.00372264,0.00355342,0.00764215,0.000501108,0.736449,0.00493621,0.014294,685,1422,-23.6293,-18.612
-532,-398,-23.6585,19.5217,0.00347775,0.00259577,0.00263273,0.00570617,0.000367347,0.702417,0.00368777,0.0221758,692,1422,-23.6585,-19.5217
-525,-398,-23.7576,20.3987,0.0029141,0.00180737,0.00199303,0.00442916,0.000292309,0.649984,0.00286032,0.02062,699,1422,-23.7576,-20.3987
-518,-398,-23.8241,21.2457,0.00257867,0.00118919,0.00152146,0.0035565,0.000211349,0.571223,0.00230379,0.0184376,706,1422,-23.8241,-21.2457
-511,-398,-23.8527,22.1042,0.00241787,0.00074636,0.00117853,0.0030269,0.000137324,0.476978,0.00197375,0.0152648,713,1422,-23.8527,-22.1043
-504,-398,-23.9004,22.9998,0.00245695,0.000471864,0.000994327,0.00286934,5.94774e-05,0.393148,0.00189338,0.0154711,720,1422,-23.9004,-22.9998
-497,-398,-23.9768,23.859,0.00268064,0.000373473,0.00096109,0.00302854,2.55749e-05,0.34731,0.00201056,0.0115713,727,1422,-23.9768,-23.859
-490,-398,-24.0021,24.7281,0.00318485,0.000455264,0.00109435,0.00356941,7.06969e-05,0.337932,0.0023564,0.0238727,734,1422,-24.0021,-24.7282
-483,-398,-23.8202,25.895,0,0,0,0,0,0,0,-1,741,1422,-23.8202,-25.895
-476,-398,-8.64392,11.9448,0,0,0,0,0,0,0,-1,748,1422,-8.6439,-11.9448
-469,-398,-8.91699,10.6276,0,0,0,0,0,0,0,-1,755,1422,-8.91697,-10.6275
-462,-398,-9.59753,9.32532,0,0,0,0,0,0,0,-1,762,1422,-9.59753,-9.32531
-455,-398,-8.08331,6.75024,0,0,0,0,0,0,0,-1,769,1422,-8.08333,-6.75022
-448,-398,-7.4505,5.25293,0,0,0,0,0,0,0,-1,776,1422,-7.4505,-5.25291
-441,-398,-7.61639,3.32141,0,0,0,0,0,0,0,-1,783,1422,-7.61637,-3.32145
-434,-398,-10.7618,3.297,0,0,0,0,0,0,0,-1,790,1422,-10.7618,-3.29704
-427,-398,-11.9061,2.24939,0,0,0,0,0,0,0,-1,797,1422,-11.9061,-2.24941
-420,-398,-13.467,2.32788,0,0,0,0,0,0,0,-1,804,1422,-13.467,-2.32787
-413,-398,-14.7983,2.15515,0,0,0,0,0,0,0,-1,811,1422,-14.7983,-2.15516
-406,-398,0,0,0,0,0,0,0,0,0,-1,818,1422,0,0
-399,-398,0,0,0,0,0,0,0,0,0,-1,825,1422,0,0
-392,-398,0,0,0,0,0,0,0,0,0,-1,832,1422,0,0
-385,-398,0,0,0,0,0,0,0,0,0,-1,839,1422,0,0
-378,-398,0,0,0,0,0,0,0,0,0,-1,846,1422,0,0
-371,-398,0,0,0,0,0,0,0,0,0,-1,853,1422,0,0
-364,-398,0,0,0,0,0,0,0,0,0,-1,860,1422,0,0
-357,-398,0,0,0,0,0,0,0,0,0,-1,867,1422,0,0
-350,-398,0,0,0,0,0,0,0,0,0,-1,874,1422,0,0
-343,-398,0,0,0,0,0,0,0,0,0,-1,881,1422,0,0
-336,-398,0,0,0,0,0,0,0,0,0,-1,888,1422,0,0
-329,-398,0,0,0,0,0,0,0,0,0,-1,895,1422,0,0
-322,-398,0,0,0,0,0,0,0,0,0,-1,902,1422,0,0
-315,-398,0,0,0,0,0,0,0,0,0,-1,909,1422,0,0
-308,-398,0,0,0,0,0,0,0,0,0,-1,916,1422,0,0
-301,-398,0,0,0,0,0,0,0,0,0,-1,923,1422,0,0
-294,-398,0,0,0,0,0,0,0,0,0,-1,930,1422,0,0
-287,-398,0,0,0,0,0,0,0,0,0,-1,937,1422,0,0
-280,-398,0,0,0,0,0,0,0,0,0,-1,944,1422,0,0
-273,-398,0,0,0,0,0,0,0,0,0,-1,951,1422,0,0
-266,-398,0,0,0,0,0,0,0,0,0,-1,958,1422,0,0
-259,-398,0,0,0,0,0,0,0,0,0,-1,965,1422,0,0
-252,-398,0,0,0,0,0,0,0,0,0,-1,972,1422,0,0
-245,-398,0,0,0,0,0,0,0,0,0,-1,979,1422,0,0
-238,-398,0,0,0,0,0,0,0,0,0,-1,986,1422,0,0
-231,-398,0,0,0,0,0,0,0,0,0,-1,993,1422,0,0
-224,-398,0,0,0,0,0,0,0,0,0,-1,1000,1422,0,0
-217,-398,0,0,0,0,0,0,0,0,0,-1,1007,1422,0,0
-210,-398,0,0,0,0,0,0,0,0,0,-1,1014,1422,0,0
-203,-398,0,0,0,0,0,0,0,0,0,-1,1021,1422,0,0
-196,-398,0,0,0,0,0,0,0,0,0,-1,1028,1422,0,0
-189,-398,0,0,0,0,0,0,0,0,0,-1,1035,1422,0,0
-182,-398,0,0,0,0,0,0,0,0,0,-1,1042,1422,0,0
-175,-398,0,0,0,0,0,0,0,0,0,-1,1049,1422,0,0
-168,-398,0,0,0,0,0,0,0,0,0,-1,1056,1422,0,0
-161,-398,0,0,0,0,0,0,0,0,0,-1,1063,1422,0,0
-154,-398,0,0,0,0,0,0,0,0,0,-1,1070,1422,0,0
-147,-398,0,0,0,0,0,0,0,0,0,-1,1077,1422,0,0
-140,-398,0,0,0,0,0,0,0,0,0,-1,1084,1422,0,0
-133,-398,0,0,0,0,0,0,0,0,0,-1,1091,1422,0,0
-126,-398,0,0,0,0,0,0,0,0,0,-1,1098,1422,0,0
-119,-398,0,0,0,0,0,0,0,0,0,-1,1105,1422,0,0
-112,-398,0,0,0,0,0,0,0,0,0,-1,1112,1422,0,0
-105,-398,0,0,0,0,0,0,0,0,0,-1,1119,1422,0,0
-98,-398,0,0,0,0,0,0,0,0,0,-1,1126,1422,0,0
-91,-398,0,0,0,0,0,0,0,0,0,-1,1133,1422,0,0
-84,-398,0,0,0,0,0,0,0,0,0,-1,1140,1422,0,0
-77,-398,0,0,0,0,0,0,0,0,0,-1,1147,1422,0,0
-70,-398,0,0,0,0,0,0,0,0,0,-1,1154,1422,0,0
-63,-398,0,0,0,0,0,0,0,0,0,-1,1161,1422,0,0
-56,-398,0,0,0,0,0,0,0,0,0,-1,1168,1422,0,0
-49,-398,0,0,0,0,0,0,0,0,0,-1,1175,1422,0,0
-42,-398,0,0,0,0,0,0,0,0,0,-1,1182,1422,0,0
-35,-398,0,0,0,0,0,0,0,0,0,-1,1189,1422,0,0
-28,-398,0,0,0,0,0,0,0,0,0,-1,1196,1422,0,0
-21,-398,0,0,0,0,0,0,0,0,0,-1,1203,1422,0,0
-14,-398,0,0,0,0,0,0,0,0,0,-1,1210,1422,0,0
-7,-398,0,0,0,0,0,0,0,0,0,-1,1217,1422,0,0
0,-398,0,0,0,0,0,0,0,0,0,-1,1224,1422,0,0
7,-398,0,0,0,0,0,0,0,0,0,-1,1231,1422,0,0
14,-398,0,0,0,0,0,0,0,0,0,-1,1238,1422,0,0
21,-398,0,0,0,0,0,0,0,0,0,-1,1245,1422,0,0
28,-398,0,0,0,0,0,0,0,0,0,-1,1252,1422,0,0
35,-398,0,0,0,0,0,0,0,0,0,-1,1259,1422,0,0
42,-398,0,0,0,0,0,0,0,0,0,-1,1266,1422,0,0
49,-398,0,0,0,0,0,0,0,0,0,-1,1273,1422,0,0
56,-398,0,0,0,0,0,0,0,0,0,-1,1280,1422,0,0
63,-398,0,0,0,0,0,0,0,0,0,-1,1287,1422,0,0
70,-398,0,0,0,0,0,0,0,0,0,-1,1294,1422,0,0
77,-398,0,0,0,0,0,0,0,0,0,-1,1301,1422,0,0
84,-398,0,0,0,0,0,0,0,0,0,-1,1308,1422,0,0
91,-398,0,0,0,0,0,0,0,0,0,-1,1315,1422,0,0
98,-398,0,0,0,0,0,0,0,0,0,-1,1322,1422,0,0
105,-398,0,0,0,0,0,0,0,0,0,-1,1329,1422,0,0
112,-398,0,0,0,0,0,0,0,0,0,-1,1336,1422,0,0
119,-398,0,0,0,0,0,0,0,0,0,-1,1343,1422,0,0
126,-398,0,0,0,0,0,0,0,0,0,-1,1350,1422,0,0
133,-398,0,0,0,0,0,0,0,0,0,-1,1357,1422,0,0
140,-398,0,0,0,0,0,0,0,0,0,-1,1364,1422,0,0
147,-398,0,0,0,0,0,0,0,0,0,-1,1371,1422,0,0
154,-398,0,0,0,0,0,0,0,0,0,-1,1378,1422,0,0
161,-398,0,0,0,0,0,0,0,0,0,-1,1385,1422,0,0
168,-398,0,0,0,0,0,0,0,0,0,-1,1392,1422,0,0
175,-398,0,0,0,0,0,0,0,0,0,-1,1399,1422,0,0
182,-398,0,0,0,0,0,0,0,0,0,-1,1406,1422,0,0
189,-398,0,0,0,0,0,0,0,0,0,-1,1413,1422,0,0
196,-398,0,0,0,0,0,0,0,0,0,-1,1420,1422,0,0
203,-398,0,0,0,0,0,0,0,0,0,-1,1427,1422,0,0
210,-398,0,0,0,0,0,0,0,0,0,-1,1434,1422,0,0
217,-398,0,0,0,0,0,0,0,0,0,-1,1441,1422,0,0
224,-398,0,0,0,0,0,0,0,0,0,-1,1448,1422,0,0
231,-398,0,0,0,0,0,0,0,0,0,-1,1455,1422,0,0
238,-398,0,0,0,0,0,0,0,0,0,-1,1462,1422,0,0
245,-398,0,0,0,0,0,0,0,0,0,-1,1469,1422,0,0
252,-398,0,0,0,0,0,0,0,0,0,-1,1476,1422,0,0
259,-398,0,0,0,0,0,0,0,0,0,-1,1483,1422,0,0
266,-398,0,0,0,0,0,0,0,0,0,-1,1490,1422,0,0
273,-398,0,0,0,0,0,0,0,0,0,-1,1497,1422,0,0
280,-398,0,0,0,0,0,0,0,0,0,-1,1504,1422,0,0
287,-398,0,0,0,0,0,0,0,0,0,-1,1511,1422,0,0
294,-398,0,0,0,0,0,0,0,0,0,-1,1518,1422,0,0
301,-398,0,0,0,0,0,0,0,0,0,-1,1525,1422,0,0
308,-398,0,0,0,0,0,0,0,0,0,-1,1532,1422,0,0
315,-398,0,0,0,0,0,0,0,0,0,-1,1539,1422,0,0
322,-398,0,0,0,0,0,0,0,0,0,-1,1546,1422,0,0
329,-398,0,0,0,0,0,0,0,0,0,-1,1553,1422,0,0
336,-398,0,0,0,0,0,0,0,0,0,-1,1560,1422,0,0
343,-398,0,0,0,0,0,0,0,0,0,-1,1567,1422,0,0
350,-398,0,0,0,0,0,0,0,0,0,-1,1574,1422,0,0
357,-398,0,0,0,0,0,0,0,0,0,-1,1581,1422,0,0
364,-398,0,0,0,0,0,0,0,0,0,-1,1588,1422,0,0
371,-398,0,0,0,0,0,0,0,0,0,-1,1595,1422,0,0
378,-398,0,0,0,0,0,0,0,0,0,-1,1602,1422,0,0
385,-398,0,0,0,0,0,0,0,0,0,-1,1609,1422,0,0
392,-398,0,0,0,0,0,0,0,0,0,-1,1616,1422,0,0
399,-398,0,0,0,0,0,0,0,0,0,-1,1623,1422,0,0
406,-398,0,0,0,0,0,0,0,0,0,-1,1630,1422,0,0
413,-398,0,0,0,0,0,0,0,0,0,-1,1637,1422,0,0
420,-398,0,0,0,0,0,0,0,0,0,-1,1644,1422,0,0
427,-398,0,0,0,0,0,0,0,0,0,-1,1651,1422,0,0
434,-398,0,0,0,0,0,0,0,0,0,-1,1658,1422,0,0
441,-398,0,0,0,0,0,0,0,0,0,-1,1665,1422,0,0
448,-398,0,0,0,0,0,0,0,0,0,-1,1672,1422,0,0
455,-398,0,0,0,0,0,0,0,0,0,-1,1679,1422,0,0
462,-398,0,0,0,0,0,0,0,0,0,-1,1686,1422,0,0
469,-398,0,0,0,0,0,0,0,0,0,-1,1693,1422,0,0
476,-398,0,0,0,0,0,0,0,0,0,-1,1700,1422,0,0
483,-398,0,0,0,0,0,0,0,0,0,-1,1707,1422,0,0
490,-398,0,0,0,0,0,0,0,0,0,-1,1714,1422,0,0
497,-398,0,0,0,0,0,0,0,0,0,-1,1721,1422,0,0
504,-398,0,0,0,0,0,0,0,0,0,-1,1728,1422,0,0
511,-398,0,0,0,0,0,0,0,0,0,-1,1735,1422,0,0
518,-398,0,0,0,0,0,0,0,0,0,-1,1742,1422,0,0
525,-398,0,0,0,0,0,0,0,0,0,-1,1749,1422,0,0
532,-398,28.4558,3.84094,0,0,0,0,0,0,0,-1,1756,1422,28.4558,-3.8409
539,-398,27.0594,3.33887,0,0,0,0,0,0,0,-1,1763,1422,27.0595,-3.3389
546,-398,31.6873,5.58582,0,0,0,0,0,0,0,-1,1770,1422,31.6872,-5.58585
553,-398,30.4392,5.92383,0,0,0,0,0,0,0,-1,1777,1422,30.4392,-5.92386
560,-398,29.1621,6.30469,0,0,0,0,0,0,0,-1,1784,1422,29.1621,-6.30469
567,-398,27.8411,6.55029,0,0,0,0,0,0,0,-1,1791,1422,27.8411,-6.55033
574,-398,26.411,6.8916,0,0,0,0,0,0,0,-1,1798,1422,26.411,-6.8916
581,-398,24.75,7.11145,0,0,0,0,0,0,0,-1,1805,1422,24.7499,-7.11142
588,-398,23.1649,7.67969,0,0,0,0,0,0,0,-1,1812,1422,23.1649,-7.67975
595,-398,21.4253,7.86023,0,0,0,0,0,0,0,-1,1819,1422,21.4253,-7.86029
602,-398,19.6857,8.04077,0,0,0,0,0,0,0,-1,1826,1422,19.6856,-8.04083
609,-398,21.1835,13.2628,0,0,0,0,0,0,0,-1,1833,1422,21.1835,-13.2628
616,-398,35.7712,21.4,0,0,0,0,0,0,0,-1,1840,1422,35.7713,-21.4
623,-398,41.3972,24.5651,0,0,0,0,0,0,0,-1,1847,1422,41.3972,-24.5651
630,-398,41.4214,23.6058,6.4656e-05,0.000487679,-0.000269909,0.000619079,-6.67435e-05,-1.11774,0.00043667,0.0154138,1854,1422,41.4214,-23.6059
637,-398,41.3508,22.7383,0.000214434,0.000295164,-0.000251695,0.000509709,-1.12253e-07,-0.864908,0.000339844,0.0163615,1861,1422,41.3509,-22.7383
644,-398,41.2732,21.8778,0.000550227,0.000206254,-0.000352515,0.000770473,-1.39915e-05,-0.558444,0.000518375,0.0221488,1868,1422,41.2731,-21.8778
651,-398,41.318,21.0753,0.00113497,0.000233371,-0.000627748,0.00145702,-8.86725e-05,-0.474005,0.00100221,0.0307226,1875,1422,41.318,-21.0753
658,-398,41.2545,20.2661,0.00196451,0.0003463,-0.0010802,0.00250503,-0.000194218,-0.463957,0.00173838,0.0262336,1882,1422,41.2546,-20.2662
665,-398,41.1594,19.3928,0.00303215,0.000556371,-0.00171402,0.00390856,-0.000320035,-0.472659,0.00271867,0.0170224,1889,1422,41.1595,-19.3928
672,-398,41.1133,18.5446,0.00434772,0.000831838,-0.00253241,0.00567255,-0.000492987,-0.481994,0.00395628,0.0144347,1896,1422,41.1133,-18.5446
679,-398,41.0906,17.6874,0.00599526,0.00122977,-0.00363584,0.00795956,-0.000734531,-0.495335,0.00556739,0.017142,1903,1422,41.0906,-17.6874
686,-398,41.0281,16.8065,0.00800893,0.00169292,-0.00507986,0.0108324,-0.00113054,-0.507297,0.00762643,0.0372078,1910,1422,41.0281,-16.8065
693,-398,40.8939,15.7498,0,0,0,0,0,0,0,-1,1917,1422,40.894,-15.7498
700,-398,38.7251,14.4174,0,0,0,0,0,0,0,-1,1924,1422,38.725,-14.4174
707,-398,10.9731,5.479,0,0,0,0,0,0,0,-1,1931,1422,10.9732,-5.47896
714,-398,11.7313,6.17346,0,0,0,0,0,0,0,-1,1938,1422,11.7313,-6.17348
721,-398,13.9371,8.05103,0,0,0,0,0,0,0,-1,1945,1422,13.9372,-8.05102
728,-398,14.786,7.0282,0,0,0,0,0,0,0,-1,1952,1422,14.786,-7.0282
735,-398,0,0,0,0,0,0,0,0,0,-1,1959,1422,0,0
742,-398,0,0,0,0,0,0,0,0,0,-1,1966,1422,0,0
749,-398,0,0,0,0,0,0,0,0,0,-1,1973,1422,0,0
756,-398,0,0,0,0,0,0,0,0,0,-1,1980,1422,0,0
763,-398,0,0,0,0,0,0,0,0,0,-1,1987,1422,0,0
770,-398,0,0,0,0,0,0,0,0,0,-1,1994,1422,0,0
777,-398,0,0,0,0,0,0,0,0,0,-1,2001,1422,0,0
784,-398,0,0,0,0,0,0,0,0,0,-1,2008,1422,0,0
791,-398,0,0,0,0,0,0,0,0,0,-1,2015,1422,0,0
798,-398,0,0,0,0,0,0,0,0,0,-1,2022,1422,0,0
805,-398,0,0,0,0,0,0,0,0,0,-1,2029,1422,0,0
812,-398,0,0,0,0,0,0,0,0,0,-1,2036,1422,0,0
-700,-405,0,0,0,0,0,0,0,0,0,-1,524,1429,0,0
-693,-405,0,0,0,0,0,0,0,0,0,-1,531,1429,0,0
-686,-405,0,0,0,0,0,0,0,0,0,-1,538,1429,0,0
-679,-405,0,0,0,0,0,0,0,0,0,-1,545,1429,0,0
-672,-405,0,0,0,0,0,0,0,0,0,-1,552,1429,0,0
-665,-405,0,0,0,0,0,0,0,0,0,-1,559,1429,0,0
-658,-405,0,0,0,0,0,0,0,0,0,-1,566,1429,0,0
-651,-405,0,0,0,0,0,0,0,0,0,-1,573,1429,0,0
-644,-405,0,0,0,0,0,0,0,0,0,-1,580,1429,0,0
-637,-405,0,0,0,0,0,0,0,0,0,-1,587,1429,0,0
-630,-405,0,0,0,0,0,0,0,0,0,-1,594,1429,0,0
-623,-405,0,0,0,0,0,0,0,0,0,-1,601,1429,0,0
-616,-405,0,0,0,0,0,0,0,0,0,-1,608,1429,0,0
-609,-405,0,0,0,0,0,0,0,0,0,-1,615,1429,0,0
-602,-405,-5.80988,-3.46594,0,0,0,0,0,0,0,-1,622,1429,-5.80987,3.46592
-595,-405,-9.35413,2.01477,0,0,0,0,0,0,0,-1,629,1429,-9.35411,-2.01476
-588,-405,-7.35693,0.507202,0,0,0,0,0,0,0,-1,636,1429,-7.35696,-0.507187
-581,-405,-10.1284,1.62927,0,0,0,0,0,0,0,-1,643,1429,-10.1284,-1.62922
-574,-405,-9.32074,3.05896,0,0,0,0,0,0,0,-1,650,1429,-9.32077,-3.0589
-567,-405,-9.68781,6.92163,0,0,0,0,0,0,0,-1,657,1429,-9.68782,-6.92166
-560,-405,-9.28674,7.20886,0,0,0,0,0,0,0,-1,664,1429,-9.28675,-7.20885
-553,-405,-20.6244,15.8638,0,0,0,0,0,0,0,-1,671,1429,-20.6244,-15.8637
-546,-405,-22.8782,17.4386,0,0,0,0,0,0,0,-1,678,1429,-22.8782,-17.4386
-539,-405,-22.8094,18.6074,0.00483655,0.00468723,0.00427099,0.00903354,0.000490246,0.776659,0.00586578,0.0157058,685,1429,-22.8094,-18.6074
-532,-405,-22.845,19.5034,0.00365327,0.00334439,0.00313407,0.00663671,0.000360956,0.76078,0.0043092,0.0169722,692,1429,-22.845,-19.5034
-525,-405,-22.8976,20.4065,0.0029579,0.00241971,0.00234926,0.00505342,0.000324186,0.728375,0.00326626,0.0149166,699,1429,-22.8976,-20.4064
-518,-405,-22.9295,21.3029,0.00250885,0.00168894,0.00174527,0.00389167,0.00030612,0.670042,0.00249866,0.0154541,706,1429,-22.9295,-21.3029
-511,-405,-22.9396,22.1731,0.00223989,0.00111946,0.0012789,0.00307589,0.000283457,0.578966,0.00196294,0.0166252,713,1429,-22.9396,-22.1731
-504,-405,-22.9941,23.0398,0.00215899,0.000712178,0.000959934,0.00263758,0.000233589,0.462498,0.00168592,0.0177305,720,1429,-22.9942,-23.0398
-497,-405,-23.0711,23.938,0.0022723,0.000489352,0.000800437,0.00257892,0.000182733,0.365822,0.00166172,0.0151306,727,1429,-23.0711,-23.938
-490,-405,-23.1439,24.8003,0.00259157,0.000444411,0.000791853,0.002852,0.000183972,0.317753,0.00184308,0.0145806,734,1429,-23.1439,-24.8003
-483,-405,-23.0696,25.7914,0.00302377,0.000661297,0.000913499,0.00333578,0.000349282,0.329137,0.00211705,0.0420435,741,1429,-23.0697,-25.7914
-476,-405,-22.8353,27.0156,0,0,0,0,0,0,0,-1,748,1429,-22.8353,-27.0157
-469,-405,-9.65692,12.8171,0,0,0,0,0,0,0,-1,755,1429,-9.65691,-12.8172
-462,-405,-9.14862,11.3597,0,0,0,0,0,0,0,-1,762,1429,-9.14865,-11.3597
-455,-405,-9.021,9.51111,0,0,0,0,0,0,0,-1,769,1429,-9.021,-9.51109
-448,-405,-8.4649,6.82813,0,0,0,0,0,0,0,-1,776,1429,-8.46492,-6.82817
-441,-405,-6.6712,4.23767,0,0,0,0,0,0,0,-1,783,1429,-6.67121,-4.23764
-434,-405,-9.62549,3.94189,0,0,0,0,0,0,0,-1,790,1429,-9.62546,-3.94191
-427,-405,-10.9764,3.73926,0,0,0,0,0,0,0,-1,797,1429,-10.9764,-3.73923
-420,-405,-12.1187,3.68506,0,0,0,0,0,0,0,-1,804,1429,-12.1187,-3.68512
-413,-405,-13.5353,3.75659,0,0,0,0,0,0,0,-1,811,1429,-13.5353,-3.75655
-406,-405,-14.7374,3.99817,0,0,0,0,0,0,0,-1,818,1429,-14.7374,-3.99814
-399,-405,0,0,0,0,0,0,0,0,0,-1,825,1429,0,0
-392,-405,0,0,0,0,0,0,0,0,0,-1,832,1429,0,0
-385,-405,0,0,0,0,0,0,0,0,0,-1,839,1429,0,0
-378,-405,0,0,0,0,0,0,0,0,0,-1,846,1429,0,0
-371,-405,0,0,0,0,0,0,0,0,0,-1,853,1429,0,0
-364,-405,0,0,0,0,0,0,0,0,0,-1,860,1429,0,0
-357,-405,0,0,0,0,0,0,0,0,0,-1,867,1429,0,0
-350,-405,0,0,0,0,0,0,0,0,0,-1,874,1429,0,0
-343,-405,0,0,0,0,0,0,0,0,0,-1,881,1429,0,0
-336,-405,0,0,0,0,0,0,0,0,0,-1,888,1429,0,0
-329,-405,0,0,0,0,0,0,0,0,0,-1,895,1429,0,0
-322,-405,0,0,0,0,0,0,0,0,0,-1,902,1429,0,0
-315,-405,0,0,0,0,0,0,0,0,0,-1,909,1429,0,0
-308,-405,0,0,0,0,0,0,0,0,0,-1,916,1429,0,0
-301,-405,0,0,0,0,0,0,0,0,0,-1,923,1429,0,0
-294,-405,0,0,0,0,0,0,0,0,0,-1,930,1429,0,0
-287,-405,0,0,0,0,0,0,0,0,0,-1,937,1429,0,0
-280,-405,0,0,0,0,0,0,0,0,0,-1,944,1429,0,0
-273,-405,0,0,0,0,0,0,0,0,0,-1,951,1429,0,0
-266,-405,0,0,0,0,0,0,0,0,0,-1,958,1429,0,0
-259,-405,0,0,0,0,0,0,0,0,0,-1,965,1429,0,0
-252,-405,0,0,0,0,0,0,0,0,0,-1,972,1429,0,0
-245,-405,0,0,0,0,0,0,0,0,0,-1,979,1429,0,0
-238,-405,0,0,0,0,0,0,0,0,0,-1,986,1429,0,0
-231,-405,0,0,0,0,0,0,0,0,0,-1,993,1429,0,0
-224,-405,0,0,0,0,0,0,0,0,0,-1,1000,1429,0,0
-217,-405,0,0,0,0,0,0,0,0,0,-1,1007,1429,0,0
-210,-405,0,0,0,0,0,0,0,0,0,-1,1014,1429,0,0
-203,-405,0,0,0,0,0,0,0,0,0,-1,1021,1429,0,0
-196,-405,0,0,0,0,0,0,0,0,0,-1,1028,1429,0,0
-189,-405,0,0,0,0,0,0,0,0,0,-1,1035,1429,0,0
-182,-405,0,0,0,0,0,0,0,0,0,-1,1042,1429,0,0
-175,-405,0,0,0,0,0,0,0,0,0,-1,1049,1429,0,0
-168,-405,0,0,0,0,0,0,0,0,0,-1,1056,1429,0,0
-161,-405,0,0,0,0,0,0,0,0,0,-1,1063,1429,0,0
-154,-405,0,0,0,0,0,0,0,0,0,-1,1070,1429,0,0
-147,-405,0,0,0,0,0,0,0,0,0,-1,1077,1429,0,0
-140,-405,0,0,0,0,0,0,0,0,0,-1,1084,1429,0,0
-133,-405,0,0,0,0,0,0,0,0,0,-1,1091,1429,0,0
-126,-405,0,0,0,0,0,0,0,0,0,-1,1098,1429,0,0
-119,-405,0,0,0,0,0,0,0,0,0,-1,1105,1429,0,0
-112,-405,0,0,0,0,0,0,0,0,0,-1,1112,1429,0,0
-105,-405,0,0,0,0,0,0,0,0,0,-1,1119,1429,0,0
-98,-405,0,0,0,0,0,0,0,0,0,-1,1126,1429,0,0
-91,-405,0,0,0,0,0,0,0,0,0,-1,1133,1429,0,0
-84,-405,0,0,0,0,0,0,0,0,0,-1,1140,1429,0,0
-77,-405,0,0,0,0,0,0,0,0,0,-1,1147,1429,0,0
-70,-405,0,0,0,0,0,0,0,0,0,-1,1154,1429,0,0
-63,-405,0,0,0,0,0,0,0,0,0,-1,1161,1429,0,0
-56,-405,0,0,0,0,0,0,0,0,0,-1,1168,1429,0,0
-49,-405,0,0,0,0,0,0,0,0,0,-1,1175,1429,0,0
-42,-405,0,0,0,0,0,0,0,0,0,-1,1182,1429,0,0
-35,-405,0,0,0,0,0,0,0,0,0,-1,1189,1429,0,0
-28,-405,0,0,0,0,0,0,0,0,0,-1,1196,1429,0,0
-21,-405,0,0,0,0,0,0,0,0,0,-1,1203,1429,0,0
-14,-405,0,0,0,0,0,0,0,0,0,-1,1210,1429,0,0
-7,-405,0,0,0,0,0,0,0,0,0,-1,1217,1429,0,0
0,-405,0,0,0,0,0,0,0,0,0,-1,1224,1429,0,0
7,-405,0,0,0,0,0,0,0,0,0,-1,1231,1429,0,0
14,-405,0,0,0,0,0,0,0,0,0,-1,1238,1429,0,0
21,-405,0,0,0,0,0,0,0,0,0,-1,1245,1429,0,0
28,-405,0,0,0,0,0,0,0,0,0,-1,1252,1429,0,0
35,-405,0,0,0,0,0,0,0,0,0,-1,1259,1429,0,0
42,-405,0,0,0,0,0,0,0,0,0,-1,1266,1429,0,0
49,-405,0,0,0,0,0,0,0,0,0,-1,1273,1429,0,0
56,-405,0,0,0,0,0,0,0,0,0,-1,1280,1429,0,0
63,-405,0,0,0,0,0,0,0,0,0,-1,1287,1429,0,0
70,-405,0,0,0,0,0,0,0,0,0,-1,1294,1429,0,0
77,-405,0,0,0,0,0,0,0,0,0,-1,1301,1429,0,0
84,-405,0,0,0,0,0,0,0,0,0,-1,1308,1429,0,0
91,-405,0,0,0,0,0,0,0,0,0,-1,1315,1429,0,0
98,-405,0,0,0,0,0,0,0,0,0,-1,1322,1429,0,0
105,-405,0,0,0,0,0,0,0,0,0,-1,1329,1429,0,0
112,-405,0,0,0,0,0,0,0,0,0,-1,1336,1429,0,0
119,-405,0,0,0,0,0,0,0,0,0,-1,1343,1429,0,0
126,-405,0,0,0,0,0,0,0,0,0,-1,1350,1429,0,0
133,-405,0,0,0,0,0,0,0,0,0,-1,1357,1429,0,0
140,-405,0,0,0,0,0,0,0,0,0,-1,1364,1429,0,0
147,-405,0,0,0,0,0,0,0,0,0,-1,1371,1429,0,0
154,-405,0,0,0,0,0,0,0,0,0,-1,1378,1429,0,0
161,-405,0,0,0,0,0,0,0,0,0,-1,1385,1429,0,0
168,-405,0,0,0,0,0,0,0,0,0,-1,1392,1429,0,0
175,-405,0,0,0,0,0,0,0,0,0,-1,1399,1429,0,0
182,-405,0,0,0,0,0,0,0,0,0,-1,1406,1429,0,0
189,-405,0,0,0,0,0,0,0,0,0,-1,1413,1429,0,0
196,-405,0,0,0,0,0,0,0,0,0,-1,1420,1429,0,0
203,-405,0,0,0,0,0,0,0,0,0,-1,1427,1429,0,0
210,-405,0,0,0,0,0,0,0,0,0,-1,1434,1429,0,0
217,-405,0,0,0,0,0,0,0,0,0,-1,1441,1429,0,0
224,-405,0,0,0,0,0,0,0,0,0,-1,1448,1429,0,0
231,-405,0,0,0,0,0,0,0,0,0,-1,1455,1429,0,0
238,-405,0,0,0,0,0,0,0,0,0,-1,1462,1429,0,0
245,-405,0,0,0,0,0,0,0,0,0,-1,1469,1429,0,0
252,-405,0,0,0,0,0,0,0,0,0,-1,1476,1429,0,0
259,-405,0,0,0,0,0,0,0,0,0,-1,1483,1429,0,0
266,-405,0,0,0,0,0,0,0,0,0,-1,1490,1429,0,0
273,-405,0,0,0,0,0,0,0,0,0,-1,1497,1429,0,0
280,-405,0,0,0,0,0,0,0,0,0,-1,1504,1429,0,0
287,-405,0,0,0,0,0,0,0,0,0,-1,1511,1429,0,0
294,-405,0,0,0,0,0,0,0,0,0,-1,1518,1429,0,0
301,-405,0,0,0,0,0,0,0,0,0,-1,1525,1429,0,0
308,-405,0,0,0,0,0,0,0,0,0,-1,1532,1429,0,0
315,-405,0,0,0,0,0,0,0,0,0,-1,1539,1429,0,0
322,-405,0,0,0,0,0,0,0,0,0,-1,1546,1429,0,0
329,-405,0,0,0,0,0,0,0,0,0,-1,1553,1429,0,0
336,-405,0,0,0,0,0,0,0,0,0,-1,1560,1429,0,0
343,-405,0,0,0,0,0,0,0,0,0,-1,1567,1429,0,0
350,-405,0,0,0,0,0,0,0,0,0,-1,1574,1429,0,0
357,-405,0,0,0,0,0,0,0,0,0,-1,1581,1429,0,0
364,-405,0,0,0,0,0,0,0,0,0,-1,1588,1429,0,0
371,-405,0,0,0,0,0,0,0,0,0,-1,1595,1429,0,0
378,-405,0,0,0,0,0,0,0,0,0,-1,1602,1429,0,0
385,-405,0,0,0,0,0,0,0,0,0,-1,1609,1429,0,0
392,-405,0,0,0,0,0,0,0,0,0,-1,1616,1429,0,0
399,-405,0,0,0,0,0,0,0,0,0,-1,1623,1429,0,0
406,-405,0,0,0,0,0,0,0,0,0,-1,1630,1429,0,0
413,-405,0,0,0,0,0,0,0,0,0,-1,1637,1429,0,0
420,-405,0,0,0,0,0,0,0,0,0,-1,1644,1429,0,0
427,-405,0,0,0,0,0,0,0,0,0,-1,1651,1429,0,0
434,-405,0,0,0,0,0,0,0,0,0,-1,1658,1429,0,0
441,-405,0,0,0,0,0,0,0,0,0,-1,1665,1429,0,0
448,-405,0,0,0,0,0,0,0,0,0,-1,1672,1429,0,0
455,-405,0,0,0,0,0,0,0,0,0,-1,1679,1429,0,0
462,-405,0,0,0,0,0,0,0,0,0,-1,1686,1429,0,0
469,-405,0,0,0,0,0,0,0,0,0,-1,1693,1429,0,0
476,-405,0,0,0,0,0,0,0,0,0,-1,1700,1429,0,0
483,-405,0,0,0,0,0,0,0,0,0,-1,1707,1429,0,0
490,-405,0,0,0,0,0,0,0,0,0,-1,1714,1429,0,0
497,-405,0,0,0,0,0,0,0,0,0,-1,1721,1429,0,0
504,-405,0,0,0,0,0,0,0,0,0,-1,1728,1429,0,0
511,-405,0,0,0,0,0,0,0,0,0,-1,1735,1429,0,0
518,-405,0,0,0,0,0,0,0,0,0,-1,1742,1429,0,0
525,-405,31.1563,-1.40942,0,0,0,0,0,0,0,-1,1749,1429,31.1563,1.40937
532,-405,28.156,4.8783,0,0,0,0,0,0,0,-1,1756,1429,28.1561,-4.87833
539,-405,26.5133,3.02454,0,0,0,0,0,0,0,-1,1763,1429,26.5133,-3.0246
546,-405,29.5735,6.53052,0,0,0,0,0,0,0,-1,1770,1429,29.5735,-6.53049
553,-405,28.2911,6.70654,0,0,0,0,0,0,0,-1,1777,1429,28.2912,-6.70656
560,-405,26.9299,7.08472,0,0,0,0,0,0,0,-1,1784,1429,26.9299,-7.08469
567,-405,25.804,7.14661,0,0,0,0,0,0,0,-1,1791,1429,25.8039,-7.14665
574,-405,25.1151,8.07971,0,0,0,0,0,0,0,-1,1798,1429,25.1151,-8.07965
581,-405,23.5055,8.505,0,0,0,0,0,0,0,-1,1805,1429,23.5054,-8.50501
588,-405,21.7491,8.98254,0,0,0,0,0,0,0,-1,1812,1429,21.7491,-8.98254
595,-405,21.6327,10.7795,0,0,0,0,0,0,0,-1,1819,1429,21.6327,-10.7796
602,-405,21.6461,13.9199,0,0,0,0,0,0,0,-1,1826,1429,21.6461,-13.92
609,-405,37.801,24.062,0,0,0,0,0,0,0,-1,1833,1429,37.8011,-24.062
616,-405,40.6138,25.4675,0,0,0,0,0,0,0,-1,1840,1429,40.6137,-25.4675
623,-405,40.5785,24.5736,0.00077148,0.000829768,-0.000705285,0.00150651,9.47364e-05,-0.806047,0.000974298,0.016712,1847,1429,40.5785,-24.5736
630,-405,40.5581,23.6718,0.00053801,0.00045573,-0.000428102,0.000926944,6.67962e-05,-0.737496,0.000596944,0.0117097,1854,1429,40.5581,-23.6717
637,-405,40.5061,22.7833,0.000670674,0.000223957,-0.000411818,0.000915806,-2.11747e-05,-0.536914,0.000617717,0.0121926,1861,1429,40.5061,-22.7834
644,-405,40.4321,21.9117,0.00105178,0.000129225,-0.000567964,0.00132219,-0.00014118,-0.444342,0.000932089,0.0319934,1868,1429,40.4321,-21.9118
651,-405,40.3773,21.0699,0.0016764,0.000178268,-0.000896271,0.00209541,-0.000240742,-0.437314,0.00148371,0.0381686,1875,1429,40.3774,-21.0699
658,-405,40.3728,20.2775,0.00253068,0.00033103,-0.00139896,0.00321038,-0.000348667,-0.452271,0.00226544,0.0273266,1882,1429,40.3728,-20.2775
665,-405,40.2975,19.4548,0.00363821,0.000582269,-0.00208153,0.00469238,-0.000471907,-0.468788,0.00329684,0.020326,1889,1429,40.2975,-19.4548
672,-405,40.2805,18.6211,0.00499127,0.000900743,-0.00294954,0.00653528,-0.000643265,-0.48225,0.00458634,0.0257358,1896,1429,40.2806,-18.6211
679,-405,40.4315,17.7048,0.00672467,0.00137476,-0.00414647,0.00898414,-0.000884718,-0.498931,0.00630506,0.0454563,1903,1429,40.4315,-17.7048
686,-405,40.3616,16.7673,0,0,0,0,0,0,0,-1,1910,1429,40.3616,-16.7673
693,-405,37.6653,14.9521,0,0,0,0,0,0,0,-1,1917,1429,37.6653,-14.9521
700,-405,9.1958,4.02026,0,0,0,0,0,0,0,-1,1924,1429,9.19579,-4.02025
707,-405,7.40308,3.83191,0,0,0,0,0,0,0,-1,1931,1429,7.40311,-3.83194
714,-405,7.33252,3.47388,0,0,0,0,0,0,0,-1,1938,1429,7.33255,-3.47383
721,-405,9.23523,0.993896,0,0,0,0,0,0,0,-1,1945,1429,9.23523,-0.993884
728,-405,0,0,0,0,0,0,0,0,0,-1,1952,1429,0,0
735,-405,0,0,0,0,0,0,0,0,0,-1,1959,1429,0,0
742,-405,0,0,0,0,0,0,0,0,0,-1,1966,1429,0,0
749,-405,0,0,0,0,0,0,0,0,0,-1,1973,1429,0,0
756,-405,0,0,0,0,0,0,0,0,0,-1,1980,1429,0,0
763,-405,0,0,0,0,0,0,0,0,0,-1,1987,1429,0,0
770,-405,0,0,0,0,0,0,0,0,0,-1,1994,1429,0,0
777,-405,0,0,0,0,0,0,0,0,0,-1,2001,1429,0,0
784,-405,0,0,0,0,0,0,0,0,0,-1,2008,1429,0,0
791,-405,0,0,0,0,0,0,0,0,0,-1,2015,1429,0,0
798,-405,0,0,0,0,0,0,0,0,0,-1,2022,1429,0,0
805,-405,0,0,0,0,0,0,0,0,0,-1,2029,1429,0,0
812,-405,0,0,0,0,0,0,0,0,0,-1,2036,1429,0,0
-700,-412,0,0,0,0,0,0,0,0,0,-1,524,1436,0,0
-693,-412,0,0,0,0,0,0,0,0,0,-1,531,1436,0,0
-686,-412,0,0,0,0,0,0,0,0,0,-1,538,1436,0,0
-679,-412,0,0,0,0,0,0,0,0,0,-1,545,1436,0,0
-672,-412,0,0,0,0,0,0,0,0,0,-1,552,1436,0,0
-665,-412,0,0,0,0,0,0,0,0,0,-1,559,1436,0,0
-658,-412,0,0,0,0,0,0,0,0,0,-1,566,1436,0,0
-651,-412,0,0,0,0,0,0,0,0,0,-1,573,1436,0,0
-644,-412,0,0,0,0,0,0,0,0,0,-1,580,1436,0,0
-637,-412,0,0,0,0,0,0,0,0,0,-1,587,1436,0,0
-630,-412,0,0,0,0,0,0,0,0,0,-1,594,1436,0,0
-623,-412,0,0,0,0,0,0,0,0,0,-1,601,1436,0,0
-616,-412,0,0,0,0,0,0,0,0,0,-1,608,1436,0,0
-609,-412,0,0,0,0,0,0,0,0,0,-1,615,1436,0,0
-602,-412,-3.72766,-3.50012,0,0,0,0,0,0,0,-1,622,1436,-3.72764,3.50017
-595,-412,-10.3706,0.65564,0,0,0,0,0,0,0,-1,629,1436,-10.3706,-0.655672
-588,-412,-8.17957,1.94934,0,0,0,0,0,0,0,-1,636,1436,-8.17956,-1.94939
-581,-412,-6.60065,-0.0554199,0,0,0,0,0,0,0,-1,643,1436,-6.60063,0.0554733
-574,-412,-8.34131,5.25012,0,0,0,0,0,0,0,-1,650,1436,-8.34129,-5.25012
-567,-412,-7.50354,3.65454,0,0,0,0,0,0,0,-1,657,1436,-7.50356,-3.65452
-560,-412,-8.52448,7.39014,0,0,0,0,0,0,0,-1,664,1436,-8.52447,-7.39019
-553,-412,-7.36761,6.54651,0,0,0,0,0,0,0,-1,671,1436,-7.36763,-6.54654
-546,-412,-21.9862,17.5602,0,0,0,0,0,0,0,-1,678,1436,-21.9862,-17.5602
-539,-412,-21.8944,18.5807,0.00503746,0.00585434,0.00495594,0.0104186,0.000473165,0.826513,0.00679353,0.0348445,685,1436,-21.8944,-18.5807
-532,-412,-21.9792,19.5759,0.0037262,0.00424337,0.00365675,0.00765067,0.000318899,0.820697,0.00499754,0.015981,692,1436,-21.9792,-19.5759
-525,-412,-22.0329,20.4762,0.0029776,0.00315984,0.00277209,0.0058423,0.000295138,0.801827,0.00380031,0.0167309,699,1436,-22.0329,-20.4762
-518,-412,-22.0452,21.3572,0.00247543,0.00229182,0.00207154,0.0044572,0.000310051,0.763255,0.00287369,0.0167035,706,1436,-22.0453,-21.3571
-511,-412,-22.0798,22.2235,0.00214519,0.00159738,0.00151365,0.00340951,0.000333052,0.695888,0.00217053,0.019449,713,1436,-22.0798,-22.2235
-504,-412,-22.1503,23.0936,0.00197258,0.00106352,0.00108533,0.00269472,0.00034138,0.587098,0.00169419,0.019101,720,1436,-22.1503,-23.0936
-497,-412,-22.2205,23.9985,0.00198376,0.000717685,0.000812748,0.00238092,0.000320531,0.454531,0.00149196,0.0159153,727,1436,-22.2205,-23.9985
-490,-412,-22.2615,24.8672,0.00214318,0.000540893,0.000672103,0.00238777,0.000296305,0.349015,0.00150285,0.0144726,734,1436,-22.2615,-24.8671
-483,-412,-22.2911,25.7118,0.00241518,0.000585591,0.000661164,0.00262909,0.000371675,0.312915,0.00164291,0.0126742,741,1436,-22.2911,-25.7118
-476,-412,-22.2729,26.7096,0,0,0,0,0,0,0,-1,748,1436,-22.2729,-26.7095
-469,-412,-12.7646,18.4785,0,0,0,0,0,0,0,-1,755,1436,-12.7647,-18.4785
-462,-412,-8.94659,13.3385,0,0,0,0,0,0,0,-1,762,1436,-8.94657,-13.3385
-455,-412,-8.25006,11.2572,0,0,0,0,0,0,0,-1,769,1436,-8.25007,-11.2572
-448,-412,-7.38086,8.78186,0,0,0,0,0,0,0,-1,776,1436,-7.38088,-8.78183
-441,-412,-8.79523,9.05286,0,0,0,0,0,0,0,-1,783,1436,-8.79521,-9.0529
-434,-412,-10.6305,8.03577,0,0,0,0,0,0,0,-1,790,1436,-10.6305,-8.0358
-427,-412,-10.0004,5.15271,0,0,0,0,0,0,0,-1,797,1436,-10.0004,-5.15266
-420,-412,-10.4468,4.9043,0,0,0,0,0,0,0,-1,804,1436,-10.4468,-4.90429
-413,-412,-11.5704,4.97766,0,0,0,0,0,0,0,-1,811,1436,-11.5704,-4.97771
-406,-412,-13.1968,5.70093,0,0,0,0,0,0,0,-1,818,1436,-13.1968,-5.70096
-399,-412,-10.5506,0.771973,0,0,0,0,0,0,0,-1,825,1436,-10.5506,-0.771954
-392,-412,0,0,0,0,0,0,0,0,0,-1,832,1436,0,0
-385,-412,0,0,0,0,0,0,0,0,0,-1,839,1436,0,0
-378,-412,0,0,0,0,0,0,0,0,0,-1,846,1436,0,0
-371,-412,0,0,0,0,0,0,0,0,0,-1,853,1436,0,0
-364,-412,0,0,0,0,0,0,0,0,0,-1,860,1436,0,0
-357,-412,0,0,0,0,0,0,0,0,0,-1,867,1436,0,0
-350,-412,0,0,0,0,0,0,0,0,0,-1,874,1436,0,0
-343,-412,0,0,0,0,0,0,0,0,0,-1,881,1436,0,0
-336,-412,0,0,0,0,0,0,0,0,0,-1,888,1436,0,0
-329,-412,0,0,0,0,0,0,0,0,0,-1,895,1436,0,0
-322,-412,0,0,0,0,0,0,0,0,0,-1,902,1436,0,0
-315,-412,0,0,0,0,0,0,0,0,0,-1,909,1436,0,0
-308,-412,0,0,0,0,0,0,0,0,0,-1,916,1436,0,0
-301,-412,0,0,0,0,0,0,0,0,0,-1,923,1436,0,0
-294,-412,0,0,0,0,0,0,0,0,0,-1,930,1436,0,0
-287,-412,0,0,0,0,0,0,0,0,0,-1,937,1436,0,0
-280,-412,0,0,0,0,0,0,0,0,0,-1,944,1436,0,0
-273,-412,0,0,0,0,0,0,0,0,0,-1,951,1436,0,0
-266,-412,0,0,0,0,0,0,0,0,0,-1,958,1436,0,0
-259,-412,0,0,0,0,0,0,0,0,0,-1,965,1436,0,0
-252,-412,0,0,0,0,0,0,0,0,0,-1,972,1436,0,0
-245,-412,0,0,0,0,0,0,0,0,0,-1,979,1436,0,0
-238,-412,0,0,0,0,0,0,0,0,0,-1,986,1436,0,0
-231,-412,0,0,0,0,0,0,0,0,0,-1,993,1436,0,0
-224,-412,0,0,0,0,0,0,0,0,0,-1,1000,1436,0,0
-217,-412,0,0,0,0,0,0,0,0,0,-1,1007,1436,0,0
-210,-412,0,0,0,0,0,0,0,0,0,-1,1014,1436,0,0
-203,-412,0,0,0,0,0,0,0,0,0,-1,1021,1436,0,0
-196,-412,0,0,0,0,0,0,0,0,0,-1,1028,1436,0,0
-189,-412,0,0,0,0,0,0,0,0,0,-1,1035,1436,0,0
-182,-412,0,0,0,0,0,0,0,0,0,-1,1042,1436,0,0
-175,-412,0,0,0,0,0,0,0,0,0,-1,1049,1436,0,0
-168,-412,0,0,0,0,0,0,0,0,0,-1,1056,1436,0,0
-161,-412,0,0,0,0,0,0,0,0,0,-1,1063,1436,0,0
-154,-412,0,0,0,0,0,0,0,0,0,-1,1070,1436,0,0
-147,-412,0,0,0,0,0,0,0,0,0,-1,1077,1436,0,0
-140,-412,0,0,0,0,0,0,0,0,0,-1,1084,1436,0,0
-133,-412,0,0,0,0,0,0,0,0,0,-1,1091,1436,0,0
-126,-412,0,0,0,0,0,0,0,0,0,-1,1098,1436,0,0
-119,-412,0,0,0,0,0,0,0,0,0,-1,1105,1436,0,0
-112,-412,0,0,0,0,0,0,0,0,0,-1,1112,1436,0,0
-105,-412,0,0,0,0,0,0,0,0,0,-1,1119,1436,0,0
-98,-412,0,0,0,0,0,0,0,0,0,-1,1126,1436,0,0
-91,-412,0,0,0,0,0,0,0,0,0,-1,1133,1436,0,0
-84,-412,0,0,0,0,0,0,0,0,0,-1,1140,1436,0,0
-77,-412,0,0,0,0,0,0,0,0,0,-1,1147,1436,0,0
-70,-412,0,0,0,0,0,0,0,0,0,-1,1154,1436,0,0
-63,-412,0,0,0,0,0,0,0,0,0,-1,1161,1436,0,0
-56,-412,0,0,0,0,0,0,0,0,0,-1,1168,1436,0,0
-49,-412,0,0,0,0,0,0,0,0,0,-1,1175,1436,0,0
-42,-412,0,0,0,0,0,0,0,0,0,-1,1182,1436,0,0
-35,-412,0,0,0,0,0,0,0,0,0,-1,1189,1436,0,0
-28,-412,0,0,0,0,0,0,0,0,0,-1,1196,1436,0,0
-21,-412,0,0,0,0,0,0,0,0,0,-1,1203,1436,0,0
-14,-412,0,0,0,0,0,0,0,0,0,-1,1210,1436,0,0
-7,-412,0,0,0,0,0,0,0,0,0,-1,1217,1436,0,0
0,-412,0,0,0,0,0,0,0,0,0,-1,1224,1436,0,0
7,-412,0,0,0,0,0,0,0,0,0,-1,1231,1436,0,0
14,-412,0,0,0,0,0,0,0,0,0,-1,1238,1436,0,0
21,-412,0,0,0,0,0,0,0,0,0,-1,1245,1436,0,0
28,-412,0,0,0,0,0,0,0,0,0,-1,1252,1436,0,0
35,-412,0,0,0,0,0,0,0,0,0,-1,1259,1436,0,0
42,-412,0,0,0,0,0,0,0,0,0,-1,1266,1436,0,0
49,-412,0,0,0,0,0,0,0,0,0,-1,1273,1436,0,0
56,-412,0,0,0,0,0,0,0,0,0,-1,1280,1436,0,0
63,-412,0,0,0,0,0,0,0,0,0,-1,1287,1436,0,0
70,-412,0,0,0,0,0,0,0,0,0,-1,1294,1436,0,0
77,-412,0,0,0,0,0,0,0,0,0,-1,1301,1436,0,0
84,-412,0,0,0,0,0,0,0,0,0,-1,1308,1436,0,0
91,-412,0,0,0,0,0,0,0,0,0,-1,1315,1436,0,0
98,-412,0,0,0,0,0,0,0,0,0,-1,1322,1436,0,0
105,-412,0,0,0,0,0,0,0,0,0,-1,1329,1436,0,0
112,-412,0,0,0,0,0,0,0,0,0,-1,1336,1436,0,0
119,-412,0,0,0,0,0,0,0,0,0,-1,1343,1436,0,0
126,-412,0,0,0,0,0,0,0,0,0,-1,1350,1436,0,0
133,-412,0,0,0,0,0,0,0,0,0,-1,1357,1436,0,0
140,-412,0,0,0,0,0,0,0,0,0,-1,1364,1436,0,0
147,-412,0,0,0,0,0,0,0,0,0,-1,1371,1436,0,0
154,-412,0,0,0,0,0,0,0,0,0,-1,1378,1436,0,0
161,-412,0,0,0,0,0,0,0,0,0,-1,1385,1436,0,0
168,-412,0,0,0,0,0,0,0,0,0,-1,1392,1436,0,0
175,-412,0,0,0,0,0,0,0,0,0,-1,1399,1436,0,0
182,-412,0,0,0,0,0,0,0,0,0,-1,1406,1436,0,0
189,-412,0,0,0,0,0,0,0,0,0,-1,1413,1436,0,0
196,-412,0,0,0,0,0,0,0,0,0,-1,1420,1436,0,0
203,-412,0,0,0,0,0,0,0,0,0,-1,1427,1436,0,0
210,-412,0,0,0,0,0,0,0,0,0,-1,1434,1436,0,0
217,-412,0,0,0,0,0,0,0,0,0,-1,1441,1436,0,0
224,-412,0,0,0,0,0,0,0,0,0,-1,1448,1436,0,0
231,-412,0,0,0,0,0,0,0,0,0,-1,1455,1436,0,0
238,-412,0,0,0,0,0,0,0,0,0,-1,1462,1436,0,0
245,-412,0,0,0,0,0,0,0,0,0,-1,1469,1436,0,0
252,-412,0,0,0,0,0,0,0,0,0,-1,1476,1436,0,0
259,-412,0,0,0,0,0,0,0,0,0,-1,1483,1436,0,0
266,-412,0,0,0,0,0,0,0,0,0,-1,1490,1436,0,0
273,-412,0,0,0,0,0,0,0,0,0,-1,1497,1436,0,0
280,-412,0,0,0,0,0,0,0,0,0,-1,1504,1436,0,0
287,-412,0,0,0,0,0,0,0,0,0,-1,1511,1436,0,0
294,-412,0,0,0,0,0,0,0,0,0,-1,1518,1436,0,0
301,-412,0,0,0,0,0,0,0,0,0,-1,1525,1436,0,0
308,-412,0,0,0,0,0,0,0,0,0,-1,1532,1436,0,0
315,-412,0,0,0,0,0,0,0,0,0,-1,1539,1436,0,0
322,-412,0,0,0,0,0,0,0,0,0,-1,1546,1436,0,0
329,-412,0,0,0,0,0,0,0,0,0,-1,1553,1436,0,0
336,-412,0,0,0,0,0,0,0,0,0,-1,1560,1436,0,0
343,-412,0,0,0,0,0,0,0,0,0,-1,1567,1436,0,0
350,-412,0,0,0,0,0,0,0,0,0,-1,1574,1436,0,0
357,-412,0,0,0,0,0,0,0,0,0,-1,1581,1436,0,0
364,-412,0,0,0,0,0,0,0,0,0,-1,1588,1436,0,0
371,-412,0,0,0,0,0,0,0,0,0,-1,1595,1436,0,0
378,-412,0,0,0,0,0,0,0,0,0,-1,1602,1436,0,0
385,-412,0,0,0,0,0,0,0,0,0,-1,1609,1436,0,0
392,-412,0,0,0,0,0,0,0,0,0,-1,1616,1436,0,0
399,-412,0,0,0,0,0,0,0,0,0,-1,1623,1436,0,0
406,-412,0,0,0,0,0,0,0,0,0,-1,1630,1436,0,0
413,-412,0,0,0,0,0,0,0,0,0,-1,1637,1436,0,0
420,-412,0,0,0,0,0,0,0,0,0,-1,1644,1436,0,0
427,-412,0,0,0,0,0,0,0,0,0,-1,1651,1436,0,0
434,-412,0,0,0,0,0,0,0,0,0,-1,1658,1436,0,0
441,-412,0,0,0,0,0,0,0,0,0,-1,1665,1436,0,0
448,-412,0,0,0,0,0,0,0,0,0,-1,1672,1436,0,0
455,-412,0,0,0,0,0,0,0,0,0,-1,1679,1436,0,0
462,-412,0,0,0,0,0,0,0,0,0,-1,1686,1436,0,0
469,-412,0,0,0,0,0,0,0,0,0,-1,1693,1436,0,0
476,-412,0,0,0,0,0,0,0,0,0,-1,1700,1436,0,0
483,-412,0,0,0,0,0,0,0,0,0,-1,1707,1436,0,0
490,-412,0,0,0,0,0,0,0,0,0,-1,1714,1436,0,0
497,-412,0,0,0,0,0,0,0,0,0,-1,1721,1436,0,0
504,-412,0,0,0,0,0,0,0,0,0,-1,1728,1436,0,0
511,-412,0,0,0,0,0,0,0,0,0,-1,1735,1436,0,0
518,-412,30.1038,-2.43384,0,0,0,0,0,0,0,-1,1742,1436,30.1038,2.43383
525,-412,29.5283,-1.42493,0,0,0,0,0,0,0,-1,1749,1436,29.5283,1.42495
532,-412,28.8533,-0.386597,0,0,0,0,0,0,0,-1,1756,1436,28.8533,0.386632
539,-412,25.8654,2.74683,0,0,0,0,0,0,0,-1,1763,1436,25.8654,-2.74685
546,-412,25.4265,2.4342,0,0,0,0,0,0,0,-1,1770,1436,25.4265,-2.4342
553,-412,26.3595,7.49255,0,0,0,0,0,0,0,-1,1777,1436,26.3595,-7.4925
560,-412,24.9116,7.94324,0,0,0,0,0,0,0,-1,1784,1436,24.9116,-7.94327
567,-412,23.668,7.94531,0,0,0,0,0,0,0,-1,1791,1436,23.6679,-7.94534
574,-412,23.0142,9.17236,0,0,0,0,0,0,0,-1,1798,1436,23.0141,-9.17235
581,-412,22.2615,10.0349,0,0,0,0,0,0,0,-1,1805,1436,22.2615,-10.0349
588,-412,21.6893,10.8069,0,0,0,0,0,0,0,-1,1812,1436,21.6893,-10.8069
595,-412,21.5137,14.3157,0,0,0,0,0,0,0,-1,1819,1436,21.5137,-14.3157
602,-412,37.0725,24.8387,0,0,0,0,0,0,0,-1,1826,1436,37.0725,-24.8388
609,-412,39.8777,26.2511,0,0,0,0,0,0,0,-1,1833,1436,39.8777,-26.2511
616,-412,39.8204,25.4299,0.00159449,0.00128382,-0.00121864,0.00266766,0.00021065,-0.722006,0.00171255,0.0157762,1840,1436,39.8204,-25.4299
623,-412,39.7334,24.5997,0.0011225,0.000783423,-0.000841936,0.00181179,9.41237e-05,-0.686044,0.00117774,0.0100871,1847,1436,39.7334,-24.5998
630,-412,39.6941,23.7211,0.000991583,0.000400983,-0.000605563,0.00137001,2.2555e-05,-0.558541,0.000905916,0.0119819,1854,1436,39.6941,-23.7211
637,-412,39.6693,22.8103,0.00114996,0.000158623,-0.000569584,0.00140935,-0.000100767,-0.427338,0.000974891,0.0137452,1861,1436,39.6693,-22.8103
644,-412,39.6544,21.9774,0.00156816,6.21225e-05,-0.000736217,0.00186825,-0.000237975,-0.387059,0.00133193,0.0154509,1868,1436,39.6544,-21.9774
651,-412,39.5951,21.1165,0.00222314,0.000117514,-0.00107661,0.00267615,-0.000335495,-0.398286,0.0019058,0.0271636,1875,1436,39.5951,-21.1165
658,-412,39.5167,20.325,0.00311673,0.000300837,-0.00161307,0.00384988,-0.000432318,-0.426597,0.00272216,0.0186387,1882,1436,39.5167,-20.325
665,-412,39.4529,19.5015,0.00427451,0.000580377,-0.00233026,0.00540095,-0.000546066,-0.450278,0.00379577,0.022909,1889,1436,39.4528,-19.5014
672,-412,39.4912,18.6082,0.00567631,0.000931963,-0.00325116,0.00732872,-0.000720444,-0.470227,0.00514281,0.0447107,1896,1436,39.4912,-18.6081
679,-412,39.8624,17.6527,0,0,0,0,0,0,0,-1,1903,1436,39.8625,-17.6527
686,-412,35.3159,15.2073,0,0,0,0,0,0,0,-1,1910,1436,35.3159,-15.2072
693,-412,11.9346,6.02344,0,0,0,0,0,0,0,-1,1917,1436,11.9346,-6.02343
700,-412,8.82764,5.8844,0,0,0,0,0,0,0,-1,1924,1436,8.82761,-5.88444
707,-412,6.59998,1.68994,0,0,0,0,0,0,0,-1,1931,1436,6.60002,-1.68995
714,-412,4.77283,-2.39832,0,0,0,0,0,0,0,-1,1938,1436,4.77288,2.39835
721,-412,0,0,0,0,0,0,0,0,0,-1,1945,1436,0,0
728,-412,0,0,0,0,0,0,0,0,0,-1,1952,1436,0,0
735,-412,0,0,0,0,0,0,0,0,0,-1,1959,1436,0,0
742,-412,0,0,0,0,0,0,0,0,0,-1,1966,1436,0,0
749,-412,0,0,0,0,0,0,0,0,0,-1,1973,1436,0,0
756,-412,0,0,0,0,0,0,0,0,0,-1,1980,1436,0,0
763,-412,0,0,0,0,0,0,0,0,0,-1,1987,1436,0,0
770,-412,0,0,0,0,0,0,0,0,0,-1,1994,1436,0,0
777,-412,0,0,0,0,0,0,0,0,0,-1,2001,1436,0,0
784,-412,0,0,0,0,0,0,0,0,0,-1,2008,1436,0,0
791,-412,0,0,0,0,0,0,0,0,0,-1,2015,1436,0,0
798,-412,0,0,0,0,0,0,0,0,0,-1,2022,1436,0,0
805,-412,0,0,0,0,0,0,0,0,0,-1,2029,1436,0,0
812,-412,0,0,0,0,0,0,0,0,0,-1,2036,1436,0,0
-700,-419,0,0,0,0,0,0,0,0,0,-1,524,1443,0,0
-693,-419,0,0,0,0,0,0,0,0,0,-1,531,1443,0,0
-686,-419,0,0,0,0,0,0,0,0,0,-1,538,1443,0,0
-679,-419,0,0,0,0,0,0,0,0,0,-1,545,1443,0,0
-672,-419,0,0,0,0,0,0,0,0,0,-1,552,1443,0,0
-665,-419,0,0,0,0,0,0,0,0,0,-1,559,1443,0,0
-658,-419,0,0,0,0,0,0,0,0,0,-1,566,1443,0,0
-651,-419,0,0,0,0,0,0,0,0,0,-1,573,1443,0,0
-644,-419,0,0,0,0,0,0,0,0,0,-1,580,1443,0,0
-637,-419,0,0,0,0,0,0,0,0,0,-1,587,1443,0,0
-630,-419,0,0,0,0,0,0,0,0,0,-1,594,1443,0,0
-623,-419,0,0,0,0,0,0,0,0,0,-1,601,1443,0,0
-616,-419,0,0,0,0,0,0,0,0,0,-1,608,1443,0,0
-609,-419,0,0,0,0,0,0,0,0,0,-1,615,1443,0,0
-602,-419,0,0,0,0,0,0,0,0,0,-1,622,1443,0,0
-595,-419,-11.4904,-0.622681,0,0,0,0,0,0,0,-1,629,1443,-11.4903,0.622714
-588,-419,-9.09369,0.742432,0,0,0,0,0,0,0,-1,636,1443,-9.09366,-0.742482
-581,-419,-6.39172,2.14673,0,0,0,0,0,0,0,-1,643,1443,-6.39175,-2.14668
-574,-419,-4.09772,3.54773,0,0,0,0,0,0,0,-1,650,1443,-4.09772,-3.54767
-567,-419,-6.14038,3.22498,0,0,0,0,0,0,0,-1,657,1443,-6.14037,-3.22497
-560,-419,-4.52814,5.22253,0,0,0,0,0,0,0,-1,664,1443,-4.52816,-5.22251
-553,-419,-5.08331,6.11829,0,0,0,0,0,0,0,-1,671,1443,-5.08331,-6.1183
-546,-419,-10.3732,9.23279,0,0,0,0,0,0,0,-1,678,1443,-10.3732,-9.23275
-539,-419,-21.0266,18.4771,0,0,0,0,0,0,0,-1,685,1443,-21.0265,-18.477
-532,-419,-21.0941,19.5774,0.00412499,0.00531928,0.00444252,0.00920461,0.000239658,0.852205,0.0060581,0.035223,692,1443,-21.0941,-19.5774
-525,-419,-21.1291,20.5234,0.00322047,0.00403913,0.00341376,0.00706801,0.000191583,0.845066,0.00464946,0.0145695,699,1443,-21.1291,-20.5235
-518,-419,-21.1748,21.412,0.0025946,0.00300701,0.0025783,0.00538734,0.000214274,0.825302,0.00352231,0.0173669,706,1443,-21.1748,-21.412
-511,-419,-21.2178,22.2981,0.0021432,0.00216152,0.00188809,0.00404047,0.000264246,0.787824,0.00261003,0.0184784,713,1443,-21.2178,-22.2981
-504,-419,-21.3035,23.1593,0.00183648,0.0014867,0.00131814,0.00299128,0.000331898,0.719443,0.00189328,0.0187899,720,1443,-21.3035,-23.1593
-497,-419,-21.3384,24.0145,0.00169988,0.000998992,0.000893202,0.00230893,0.000389946,0.598453,0.00142717,0.0146404,727,1443,-21.3384,-24.0146
-490,-419,-21.3705,24.9012,0.00168743,0.000676732,0.000594689,0.00196248,0.000401675,0.433219,0.00119711,0.0121238,734,1443,-21.3705,-24.9013
-483,-419,-21.4181,25.7662,0.00183526,0.000598818,0.000466892,0.00199175,0.000442323,0.323417,0.0012077,0.0101591,741,1443,-21.4181,-25.7663
-476,-419,-21.4507,26.6528,0.00203539,0.000646171,0.000463015,0.00217557,0.000505996,0.293972,0.00131458,0.0227145,748,1443,-21.4507,-26.6529
-469,-419,-21.4921,27.5468,0,0,0,0,0,0,0,-1,755,1443,-21.4921,-27.5467
-462,-419,-11.5347,18.1563,0,0,0,0,0,0,0,-1,762,1443,-11.5347,-18.1562
-455,-419,-7.35645,11.9451,0,0,0,0,0,0,0,-1,769,1443,-7.35646,-11.9451
-448,-419,-7.49109,9.92444,0,0,0,0,0,0,0,-1,776,1443,-7.49109,-9.92442
-441,-419,-7.65527,8.75574,0,0,0,0,0,0,0,-1,783,1443,-7.65525,-8.75568
-434,-419,-11.3724,12.3643,0,0,0,0,0,0,0,-1,790,1443,-11.3724,-12.3643
-427,-419,-8.23193,7.89404,0,0,0,0,0,0,0,-1,797,1443,-8.23193,-7.89404
-420,-419,-8.74091,6.36597,0,0,0,0,0,0,0,-1,804,1443,-8.74089,-6.366
-413,-419,-9.88391,6.53955,0,0,0,0,0,0,0,-1,811,1443,-9.8839,-6.53955
-406,-419,-10.3372,2.75195,0,0,0,0,0,0,0,-1,818,1443,-10.3372,-2.75201
-399,-419,-11.5999,1.40002,0,0,0,0,0,0,0,-1,825,1443,-11.5999,-1.39998
-392,-419,0,0,0,0,0,0,0,0,0,-1,832,1443,0,0
-385,-419,0,0,0,0,0,0,0,0,0,-1,839,1443,0,0
-378,-419,0,0,0,0,0,0,0,0,0,-1,846,1443,0,0
-371,-419,0,0,0,0,0,0,0,0,0,-1,853,1443,0,0
-364,-419,0,0,0,0,0,0,0,0,0,-1,860,1443,0,0
-357,-419,0,0,0,0,0,0,0,0,0,-1,867,1443,0,0
-350,-419,0,0,0,0,0,0,0,0,0,-1,874,1443,0,0
-343,-419,0,0,0,0,0,0,0,0,0,-1,881,1443,0,0
-336,-419,0,0,0,0,0,0,0,0,0,-1,888,1443,0,0
-329,-419,0,0,0,0,0,0,0,0,0,-1,895,1443,0,0
-322,-419,0,0,0,0,0,0,0,0,0,-1,902,1443,0,0
-315,-419,0,0,0,0,0,0,0,0,0,-1,909,1443,0,0
-308,-419,0,0,0,0,0,0,0,0,0,-1,916,1443,0,0
-301,-419,0,0,0,0,0,0,0,0,0,-1,923,1443,0,0
-294,-419,0,0,0,0,0,0,0,0,0,-1,930,1443,0,0
-287,-419,0,0,0,0,0,0,0,0,0,-1,937,1443,0,0
-280,-419,0,0,0,0,0,0,0,0,0,-1,944,1443,0,0
-273,-419,0,0,0,0,0,0,0,0,0,-1,951,1443,0,0
-266,-419,0,0,0,0,0,0,0,0,0,-1,958,1443,0,0
-259,-419,0,0,0,0,0,0,0,0,0,-1,965,1443,0,0
-252,-419,0,0,0,0,0,0,0,0,0,-1,972,1443,0,0
-245,-419,0,0,0,0,0,0,0,0,0,-1,979,1443,0,0
-238,-419,0,0,0,0,0,0,0,0,0,-1,986,1443,0,0
-231,-419,0,0,0,0,0,0,0,0,0,-1,993,1443,0,0
-224,-419,0,0,0,0,0,0,0,0,0,-1,1000,1443,0,0
-217,-419,0,0,0,0,0,0,0,0,0,-1,1007,1443,0,0
-210,-419,0,0,0,0,0,0,0,0,0,-1,1014,1443,0,0
-203,-419,0,0,0,0,0,0,0,0,0,-1,1021,1443,0,0
-196,-419,0,0,0,0,0,0,0,0,0,-1,1028,1443,0,0
-189,-419,0,0,0,0,0,0,0,0,0,-1,1035,1443,0,0
-182,-419,0,0,0,0,0,0,0,0,0,-1,1042,1443,0,0
-175,-419,0,0,0,0,0,0,0,0,0,-1,1049,1443,0,0
-168,-419,0,0,0,0,0,0,0,0,0,-1,1056,1443,0,0
-161,-419,0,0,0,0,0,0,0,0,0,-1,1063,1443,0,0
-154,-419,0,0,0,0,0,0,0,0,0,-1,1070,1443,0,0
-147,-419,0,0,0,0,0,0,0,0,0,-1,1077,1443,0,0
-140,-419,0,0,0,0,0,0,0,0,0,-1,1084,1443,0,0
-133,-419,0,0,0,0,0,0,0,0,0,-1,1091,1443,0,0
-126,-419,0,0,0,0,0,0,0,0,0,-1,1098,1443,0,0
-119,-419,0,0,0,0,0,0,0,0,0,-1,1105,1443,0,0
-112,-419,0,0,0,0,0,0,0,0,0,-1,1112,1443,0,0
-105,-419,0,0,0,0,0,0,0,0,0,-1,1119,1443,0,0
-98,-419,0,0,0,0,0,0,0,0,0,-1,1126,1443,0,0
-91,-419,0,0,0,0,0,0,0,0,0,-1,1133,1443,0,0
-84,-419,0,0,0,0,0,0,0,0,0,-1,1140,1443,0,0
-77,-419,0,0,0,0,0,0,0,0,0,-1,1147,1443,0,0
-70,-419,0,0,0,0,0,0,0,0,0,-1,1154,1443,0,0
-63,-419,0,0,0,0,0,0,0,0,0,-1,1161,1443,0,0
-56,-419,0,0,0,0,0,0,0,0,0,-1,1168,1443,0,0
-49,-419,0,0,0,0,0,0,0,0,0,-1,1175,1443,0,0
-42,-419,0,0,0,0,0,0,0,0,0,-1,1182,1443,0,0
-35,-419,0,0,0,0,0,0,0,0,0,-1,1189,1443,0,0
-28,-419,0,0,0,0,0,0,0,0,0,-1,1196,1443,0,0
-21,-419,0,0,0,0,0,0,0,0,0,-1,1203,1443,0,0
-14,-419,0,0,0,0,0,0,0,0,0,-1,1210,1443,0,0
-7,-419,0,0,0,0,0,0,0,0,0,-1,1217,1443,0,0
0,-419,0,0,0,0,0,0,0,0,0,-1,1224,1443,0,0
7,-419,0,0,0,0,0,0,0,0,0,-1,1231,1443,0,0
14,-419,0,0,0,0,0,0,0,0,0,-1,1238,1443,0,0
21,-419,0,0,0,0,0,0,0,0,0,-1,1245,1443,0,0
28,-419,0,0,0,0,0,0,0,0,0,-1,1252,1443,0,0
35,-419,0,0,0,0,0,0,0,0,0,-1,1259,1443,0,0
42,-419,0,0,0,0,0,0,0,0,0,-1,1266,1443,0,0
49,-419,0,0,0,0,0,0,0,0,0,-1,1273,1443,0,0
56,-419,0,0,0,0,0,0,0,0,0,-1,1280,1443,0,0
63,-419,0,0,0,0,0,0,0,0,0,-1,1287,1443,0,0
70,-419,0,0,0,0,0,0,0,0,0,-1,1294,1443,0,0
77,-419,0,0,0,0,0,0,0,0,0,-1,1301,1443,0,0
84,-419,0,0,0,0,0,0,0,0,0,-1,1308,1443,0,0
91,-419,0,0,0,0,0,0,0,0,0,-1,1315,1443,0,0
98,-419,0,0,0,0,0,0,0,0,0,-1,1322,1443,0,0
105,-419,0,0,0,0,0,0,0,0,0,-1,1329,1443,0,0
112,-419,0,0,0,0,0,0,0,0,0,-1,1336,1443,0,0
119,-419,0,0,0,0,0,0,0,0,0,-1,1343,1443,0,0
126,-419,0,0,0,0,0,0,0,0,0,-1,1350,1443,0,0
133,-419,0,0,0,0,0,0,0,0,0,-1,1357,1443,0,0
140,-419,0,0,0,0,0,0,0,0,0,-1,1364,1443,0,0
147,-419,0,0,0,0,0,0,0,0,0,-1,1371,1443,0,0
154,-419,0,0,0,0,0,0,0,0,0,-1,1378,1443,0,0
161,-419,0,0,0,0,0,0,0,0,0,-1,1385,1443,0,0
168,-419,0,0,0,0,0,0,0,0,0,-1,1392,1443,0,0
175,-419,0,0,0,0,0,0,0,0,0,-1,1399,1443,0,0
182,-419,0,0,0,0,0,0,0,0,0,-1,1406,1443,0,0
189,-419,0,0,0,0,0,0,0,0,0,-1,1413,1443,0,0
196,-419,0,0,0,0,0,0,0,0,0,-1,1420,1443,0,0
203,-419,0,0,0,0,0,0,0,0,0,-1,1427,1443,0,0
210,-419,0,0,0,0,0,0,0,0,0,-1,1434,1443,0,0
217,-419,0,0,0,0,0,0,0,0,0,-1,1441,1443,0,0
224,-419,0,0,0,0,0,0,0,0,0,-1,1448,1443,0,0
231,-419,0,0,0,0,0,0,0,0,0,-1,1455,1443,0,0
238,-419,0,0,0,0,0,0,0,0,0,-1,1462,1443,0,0
245,-419,0,0,0,0,0,0,0,0,0,-1,1469,1443,0,0
252,-419,0,0,0,0,0,0,0,0,0,-1,1476,1443,0,0
259,-419,0,0,0,0,0,0,0,0,0,-1,1483,1443,0,0
266,-419,0,0,0,0,0,0,0,0,0,-1,1490,1443,0,0
273,-419,0,0,0,0,0,0,0,0,0,-1,1497,1443,0,0
280,-419,0,0,0,0,0,0,0,0,0,-1,1504,1443,0,0
287,-419,0,0,0,0,0,0,0,0,0,-1,1511,1443,0,0
294,-419,0,0,0,0,0,0,0,0,0,-1,1518,1443,0,0
301,-419,0,0,0,0,0,0,0,0,0,-1,1525,1443,0,0
308,-419,0,0,0,0,0,0,0,0,0,-1,1532,1443,0,0
315,-419,0,0,0,0,0,0,0,0,0,-1,1539,1443,0,0
322,-419,0,0,0,0,0,0,0,0,0,-1,1546,1443,0,0
329,-419,0,0,0,0,0,0,0,0,0,-1,1553,1443,0,0
336,-419,0,0,0,0,0,0,0,0,0,-1,1560,1443,0,0
343,-419,0,0,0,0,0,0,0,0,0,-1,1567,1443,0,0
350,-419,0,0,0,0,0,0,0,0,0,-1,1574,1443,0,0
357,-419,0,0,0,0,0,0,0,0,0,-1,1581,1443,0,0
364,-419,0,0,0,0,0,0,0,0,0,-1,1588,1443,0,0
371,-419,0,0,0,0,0,0,0,0,0,-1,1595,1443,0,0
378,-419,0,0,0,0,0,0,0,0,0,-1,1602,1443,0,0
385,-419,0,0,0,0,0,0,0,0,0,-1,1609,1443,0,0
392,-419,0,0,0,0,0,0,0,0,0,-1,1616,1443,0,0
399,-419,0,0,0,0,0,0,0,0,0,-1,1623,1443,0,0
406,-419,0,0,0,0,0,0,0,0,0,-1,1630,1443,0,0
413,-419,0,0,0,0,0,0,0,0,0,-1,1637,1443,0,0
420,-419,0,0,0,0,0,0,0,0,0,-1,1644,1443,0,0
427,-419,0,0,0,0,0,0,0,0,0,-1,1651,1443,0,0
434,-419,0,0,0,0,0,0,0,0,0,-1,1658,1443,0,0
441,-419,0,0,0,0,0,0,0,0,0,-1,1665,1443,0,0
448,-419,0,0,0,0,0,0,0,0,0,-1,1672,1443,0,0
455,-419,0,0,0,0,0,0,0,0,0,-1,1679,1443,0,0
462,-419,0,0,0,0,0,0,0,0,0,-1,1686,1443,0,0
469,-419,0,0,0,0,0,0,0,0,0,-1,1693,1443,0,0
476,-419,0,0,0,0,0,0,0,0,0,-1,1700,1443,0,0
483,-419,0,0,0,0,0,0,0,0,0,-1,1707,1443,0,0
490,-419,0,0,0,0,0,0,0,0,0,-1,1714,1443,0,0
497,-419,0,0,0,0,0,0,0,0,0,-1,1721,1443,0,0
504,-419,0,0,0,0,0,0,0,0,0,-1,1728,1443,0,0
511,-419,20.3005,3.7959,0,0,0,0,0,0,0,-1,1735,1443,20.3005,-3.79584
518,-419,21.3154,2.03027,0,0,0,0,0,0,0,-1,1742,1443,21.3155,-2.03029
525,-419,28.3439,-1.24475,0,0,0,0,0,0,0,-1,1749,1443,28.3438,1.24471
532,-419,27.5902,-0.272583,0,0,0,0,0,0,0,-1,1756,1443,27.5902,0.272526
539,-419,26.5278,1.60583,0,0,0,0,0,0,0,-1,1763,1443,26.5279,-1.60579
546,-419,24.9509,2.77539,0,0,0,0,0,0,0,-1,1770,1443,24.9509,-2.77537
553,-419,24.118,3.75525,0,0,0,0,0,0,0,-1,1777,1443,24.1181,-3.75526
560,-419,11.8199,8.26343,0,0,0,0,0,0,0,-1,1784,1443,11.82,-8.26341
567,-419,21.5143,8.74719,0,0,0,0,0,0,0,-1,1791,1443,21.5143,-8.74722
574,-419,19.5886,6.46155,0,0,0,0,0,0,0,-1,1798,1443,19.5886,-6.46157
581,-419,20.7926,11.4265,0,0,0,0,0,0,0,-1,1805,1443,20.7926,-11.4265
588,-419,19.4242,12.5363,0,0,0,0,0,0,0,-1,1812,1443,19.4242,-12.5362
595,-419,22.9375,16.0151,0,0,0,0,0,0,0,-1,1819,1443,22.9375,-16.0152
602,-419,39.0314,27.1896,0,0,0,0,0,0,0,-1,1826,1443,39.0314,-27.1896
609,-419,38.9943,26.3073,0.00255864,0.00171588,-0.00194493,0.00412731,0.000147202,-0.678719,0.00270381,0.0316254,1833,1443,38.9943,-26.3073
616,-419,38.9426,25.5126,0.00194367,0.0011204,-0.00137505,0.00296738,9.66926e-05,-0.639964,0.00194682,0.0127417,1840,1443,38.9426,-25.5126
623,-419,38.894,24.6616,0.00148961,0.000700961,-0.00095016,0.00212402,6.65518e-05,-0.588709,0.00139436,0.0111789,1847,1443,38.8941,-24.6616
630,-419,38.8619,23.7747,0.0013584,0.000328954,-0.00068984,0.00170438,-1.70317e-05,-0.464883,0.00114197,0.0133234,1854,1443,38.862,-23.7747
637,-419,38.826,22.9222,0.00146616,9.34443e-05,-0.000587208,0.00168307,-0.00012347,-0.353852,0.00116539,0.013793,1861,1443,38.8261,-22.9222
644,-419,38.798,22.0729,0.00182966,-1.62431e-06,-0.000697089,0.00206481,-0.000236779,-0.325351,0.00146188,0.0126061,1868,1443,38.7979,-22.0729
651,-419,38.7451,21.254,0.00241546,5.27864e-05,-0.000987645,0.00277392,-0.000305682,-0.348167,0.00195914,0.0124005,1875,1443,38.7452,-21.254
658,-419,38.6509,20.3882,0.00327659,0.000262302,-0.00150642,0.00390036,-0.000361469,-0.392579,0.00272872,0.014321,1882,1443,38.6509,-20.3881
665,-419,38.6001,19.5255,0.00440908,0.000556465,-0.00219885,0.00540606,-0.000440512,-0.425685,0.00375949,0.0258206,1889,1443,38.6001,-19.5255
672,-419,38.7002,18.5897,0,0,0,0,0,0,0,-1,1896,1443,38.7003,-18.5897
679,-419,35.5436,15.4066,0,0,0,0,0,0,0,-1,1903,1443,35.5436,-15.4067
686,-419,17.4127,8.03076,0,0,0,0,0,0,0,-1,1910,1443,17.4127,-8.03071
693,-419,8.76086,5.60535,0,0,0,0,0,0,0,-1,1917,1443,8.76091,-5.6054
700,-419,11.0498,4.85156,0,0,0,0,0,0,0,-1,1924,1443,11.0498,-4.85153
707,-419,9.5752,1.80042,0,0,0,0,0,0,0,-1,1931,1443,9.57523,-1.80037
714,-419,5.77576,-1.25061,0,0,0,0,0,0,0,-1,1938,1443,5.7757,1.25056
721,-419,0,0,0,0,0,0,0,0,0,-1,1945,1443,0,0
728,-419,0,0,0,0,0,0,0,0,0,-1,1952,1443,0,0
735,-419,0,0,0,0,0,0,0,0,0,-1,1959,1443,0,0
742,-419,0,0,0,0,0,0,0,0,0,-1,1966,1443,0,0
749,-419,0,0,0,0,0,0,0,0,0,-1,1973,1443,0,0
756,-419,0,0,0,0,0,0,0,0,0,-1,1980,1443,0,0
763,-419,0,0,0,0,0,0,0,0,0,-1,1987,1443,0,0
770,-419,0,0,0,0,0,0,0,0,0,-1,1994,1443,0,0
777,-419,0,0,0,0,0,0,0,0,0,-1,2001,1443,0,0
784,-419,0,0,0,0,0,0,0,0,0,-1,2008,1443,0,0
791,-419,0,0,0,0,0,0,0,0,0,-1,2015,1443,0,0
798,-419,0,0,0,0,0,0,0,0,0,-1,2022,1443,0,0
805,-419,0,0,0,0,0,0,0,0,0,-1,2029,1443,0,0
812,-419,0,0,0,0,0,0,0,0,0,-1,2036,1443,0,0
-700,-426,0,0,0,0,0,0,0,0,0,-1,524,1450,0,0
-693,-426,0,0,0,0,0,0,0,0,0,-1,531,1450,0,0
-686,-426,0,0,0,0,0,0,0,0,0,-1,538,1450,0,0
-679,-426,0,0,0,0,0,0,0,0,0,-1,545,1450,0,0
-672,-426,0,0,0,0,0,0,0,0,0,-1,552,1450,0,0
-665,-426,0,0,0,0,0,0,0,0,0,-1,559,1450,0,0
-658,-426,0,0,0,0,0,0,0,0,0,-1,566,1450,0,0
-651,-426,0,0,0,0,0,0,0,0,0,-1,573,1450,0,0
-644,-426,0,0,0,0,0,0,0,0,0,-1,580,1450,0,0
-637,-426,0,0,0,0,0,0,0,0,0,-1,587,1450,0,0
-630,-426,0,0,0,0,0,0,0,0,0,-1,594,1450,0,0
-623,-426,0,0,0,0,0,0,0,0,0,-1,601,1450,0,0
-616,-426,0,0,0,0,0,0,0,0,0,-1,608,1450,0,0
-609,-426,0,0,0,0,0,0,0,0,0,-1,615,1450,0,0
-602,-426,0,0,0,0,0,0,0,0,0,-1,622,1450,0,0
-595,-426,0,0,0,0,0,0,0,0,0,-1,629,1450,0,0
-588,-426,-10.184,-0.554321,0,0,0,0,0,0,0,-1,636,1450,-10.184,0.554321
-581,-426,-7.3349,1.48157,0,0,0,0,0,0,0,-1,643,1450,-7.33491,-1.48152
-574,-426,-5.02856,2.89319,0,0,0,0,0,0,0,-1,650,1450,-5.02858,-2.89319
-567,-426,-3.04797,1.72644,0,0,0,0,0,0,0,-1,657,1450,-3.04797,-1.72639
-560,-426,-5.55682,3.44397,0,0,0,0,0,0,0,-1,664,1450,-5.55684,-3.44399
-553,-426,-4.67017,6.66614,0,0,0,0,0,0,0,-1,671,1450,-4.67015,-6.66619
-546,-426,-7.58752,8.28882,0,0,0,0,0,0,0,-1,678,1450,-7.58752,-8.28878
-539,-426,-10.436,10.7441,0,0,0,0,0,0,0,-1,685,1450,-10.436,-10.7441
-532,-426,-20.2979,19.5323,0,0,0,0,0,0,0,-1,692,1450,-20.2979,-19.5323
-525,-426,-20.2853,20.4841,0.00331121,0.00498648,0.00407425,0.00830831,-1.06199e-05,0.886782,0.00554242,0.0269182,699,1450,-20.2853,-20.4841
-518,-426,-20.3013,21.4591,0.00270189,0.0037779,0.00313622,0.00642193,5.78633e-05,0.870344,0.00426213,0.0166736,706,1450,-20.3013,-21.4591
-511,-426,-20.3496,22.3516,0.00224125,0.00277987,0.00235194,0.00487786,0.000143256,0.842403,0.00320522,0.0151626,713,1450,-20.3496,-22.3516
-504,-426,-20.4174,23.1943,0.00189193,0.00197028,0.00168165,0.00361321,0.000249003,0.797045,0.00233024,0.0149695,720,1450,-20.4174,-23.1943
-497,-426,-20.456,24.0701,0.00166618,0.0013478,0.0011387,0.00265676,0.000357222,0.715948,0.00166493,0.013208,727,1450,-20.456,-24.0701
-490,-426,-20.4949,24.973,0.00152882,0.000890777,0.00071522,0.00199294,0.000426653,0.575618,0.00121171,0.0138074,734,1450,-20.4949,-24.973
-483,-426,-20.5445,25.829,0.00155926,0.000692569,0.000476012,0.00176964,0.000482194,0.416142,0.00105637,0.013134,741,1450,-20.5445,-25.8289
-476,-426,-20.5825,26.6917,0.00162593,0.000636996,0.000342265,0.00173283,0.000530095,0.302733,0.00102527,0.00977581,748,1450,-20.5825,-26.6917
-469,-426,-20.6362,27.5538,0.00181936,0.000844121,0.000393422,0.00195828,0.000705199,0.339444,0.00114527,0.0145846,755,1450,-20.6362,-27.5538
-462,-426,-20.5827,28.4792,0,0,0,0,0,0,0,-1,762,1450,-20.5827,-28.4793
-455,-426,-10.215,17.7007,0,0,0,0,0,0,0,-1,769,1450,-10.215,-17.7007
-448,-426,-6.46545,10.1322,0,0,0,0,0,0,0,-1,776,1450,-6.46543,-10.1322
-441,-426,-10.9547,11.4747,0,0,0,0,0,0,0,-1,783,1450,-10.9546,-11.4748
-434,-426,-10.4998,13.6189,0,0,0,0,0,0,0,-1,790,1450,-10.4997,-13.6189
-427,-426,-9.36627,13.7396,0,0,0,0,0,0,0,-1,797,1450,-9.36628,-13.7396
-420,-426,-5.33765,7.95044,0,0,0,0,0,0,0,-1,804,1450,-5.33766,-7.95041
-413,-426,-10.1148,5.0415,0,0,0,0,0,0,0,-1,811,1450,-10.1148,-5.04152
-406,-426,-11.4199,3.6438,0,0,0,0,0,0,0,-1,818,1450,-11.4198,-3.64382
-399,-426,-12.7595,2.29004,0,0,0,0,0,0,0,-1,825,1450,-12.7595,-2.29003
-392,-426,-12.4147,0.537354,0,0,0,0,0,0,0,-1,832,1450,-12.4147,-0.53731
-385,-426,0,0,0,0,0,0,0,0,0,-1,839,1450,0,0
-378,-426,0,0,0,0,0,0,0,0,0,-1,846,1450,0,0
-371,-426,0,0,0,0,0,0,0,0,0,-1,853,1450,0,0
-364,-426,0,0,0,0,0,0,0,0,0,-1,860,1450,0,0
-357,-426,0,0,0,0,0,0,0,0,0,-1,867,1450,0,0
-350,-426,0,0,0,0,0,0,0,0,0,-1,874,1450,0,0
-343,-426,0,0,0,0,0,0,0,0,0,-1,881,1450,0,0
-336,-426,0,0,0,0,0,0,0,0,0,-1,888,1450,0,0
-329,-426,0,0,0,0,0,0,0,0,0,-1,895,1450,0,0
-322,-426,0,0,0,0,0,0,0,0,0,-1,902,1450,0,0
-315,-426,0,0,0,0,0,0,0,0,0,-1,909,1450,0,0
-308,-426,0,0,0,0,0,0,0,0,0,-1,916,1450,0,0
-301,-426,0,0,0,0,0,0,0,0,0,-1,923,1450,0,0
-294,-426,0,0,0,0,0,0,0,0,0,-1,930,1450,0,0
-287,-426,0,0,0,0,0,0,0,0,0,-1,937,1450,0,0
-280,-426,0,0,0,0,0,0,0,0,0,-1,944,1450,0,0
-273,-426,0,0,0,0,0,0,0,0,0,-1,951,1450,0,0
-266,-426,0,0,0,0,0,0,0,0,0,-1,958,1450,0,0
-259,-426,0,0,0,0,0,0,0,0,0,-1,965,1450,0,0
-252,-426,0,0,0,0,0,0,0,0,0,-1,972,1450,0,0
-245,-426,0,0,0,0,0,0,0,0,0,-1,979,1450,0,0
-238,-426,0,0,0,0,0,0,0,0,0,-1,986,1450,0,0
-231,-426,0,0,0,0,0,0,0,0,0,-1,993,1450,0,0
-224,-426,0,0,0,0,0,0,0,0,0,-1,1000,1450,0,0
-217,-426,0,0,0,0,0,0,0,0,0,-1,1007,1450,0,0
-210,-426,0,0,0,0,0,0,0,0,0,-1,1014,1450,0,0
-203,-426,0,0,0,0,0,0,0,0,0,-1,1021,1450,0,0
-196,-426,0,0,0,0,0,0,0,0,0,-1,1028,1450,0,0
-189,-426,0,0,0,0,0,0,0,0,0,-1,1035,1450,0,0
-182,-426,0,0,0,0,0,0,0,0,0,-1,1042,1450,0,0
-175,-426,0,0,0,0,0,0,0,0,0,-1,1049,1450,0,0
-168,-426,0,0,0,0,0,0,0,0,0,-1,1056,1450,0,0
-161,-426,0,0,0,0,0,0,0,0,0,-1,1063,1450,0,0
-154,-426,0,0,0,0,0,0,0,0,0,-1,1070,1450,0,0
-147,-426,0,0,0,0,0,0,0,0,0,-1,1077,1450,0,0
-140,-426,0,0,0,0,0,0,0,0,0,-1,1084,1450,0,0
-133,-426,0,0,0,0,0,0,0,0,0,-1,1091,1450,0,0
-126,-426,0,0,0,0,0,0,0,0,0,-1,1098,1450,0,0
-119,-426,0,0,0,0,0,0,0,0,0,-1,1105,1450,0,0
-112,-426,0,0,0,0,0,0,0,0,0,-1,1112,1450,0,0
-105,-426,0,0,0,0,0,0,0,0,0,-1,1119,1450,0,0
-98,-426,0,0,0,0,0,0,0,0,0,-1,1126,1450,0,0
-91,-426,0,0,0,0,0,0,0,0,0,-1,1133,1450,0,0
-84,-426,0,0,0,0,0,0,0,0,0,-1,1140,1450,0,0
-77,-426,0,0,0,0,0,0,0,0,0,-1,1147,1450,0,0
-70,-426,0,0,0,0,0,0,0,0,0,-1,1154,1450,0,0
-63,-426,0,0,0,0,0,0,0,0,0,-1,1161,1450,0,0
-56,-426,0,0,0,0,0,0,0,0,0,-1,1168,1450,0,0
-49,-426,0,0,0,0,0,0,0,0,0,-1,1175,1450,0,0
-42,-426,0,0,0,0,0,0,0,0,0,-1,1182,1450,0,0
-35,-426,0,0,0,0,0,0,0,0,0,-1,1189,1450,0,0
-28,-426,0,0,0,0,0,0,0,0,0,-1,1196,1450,0,0
-21,-426,0,0,0,0,0,0,0,0,0,-1,1203,1450,0,0
-14,-426,0,0,0,0,0,0,0,0,0,-1,1210,1450,0,0
-7,-426,0,0,0,0,0,0,0,0,0,-1,1217,1450,0,0
0,-426,0,0,0,0,0,0,0,0,0,-1,1224,1450,0,0
7,-426,0,0,0,0,0,0,0,0,0,-1,1231,1450,0,0
14,-426,0,0,0,0,0,0,0,0,0,-1,1238,1450,0,0
21,-426,0,0,0,0,0,0,0,0,0,-1,1245,1450,0,0
28,-426,0,0,0,0,0,0,0,0,0,-1,1252,1450,0,0
35,-426,0,0,0,0,0,0,0,0,0,-1,1259,1450,0,0
42,-426,0,0,0,0,0,0,0,0,0,-1,1266,1450,0,0
49,-426,0,0,0,0,0,0,0,0,0,-1,1273,1450,0,0
56,-426,0,0,0,0,0,0,0,0,0,-1,1280,1450,0,0
63,-426,0,0,0,0,0,0,0,0,0,-1,1287,1450,0,0
70,-426,0,0,0,0,0,0,0,0,0,-1,1294,1450,0,0
77,-426,0,0,0,0,0,0,0,0,0,-1,1301,1450,0,0
84,-426,0,0,0,0,0,0,0,0,0,-1,1308,1450,0,0
91,-426,0,0,0,0,0,0,0,0,0,-1,1315,1450,0,0
98,-426,0,0,0,0,0,0,0,0,0,-1,1322,1450,0,0
105,-426,0,0,0,0,0,0,0,0,0,-1,1329,1450,0,0
112,-426,0,0,0,0,0,0,0,0,0,-1,1336,1450,0,0
119,-426,0,0,0,0,0,0,0,0,0,-1,1343,1450,0,0
126,-426,0,0,0,0,0,0,0,0,0,-1,1350,1450,0,0
133,-426,0,0,0,0,0,0,0,0,0,-1,1357,1450,0,0
140,-426,0,0,0,0,0,0,0,0,0,-1,1364,1450,0,0
147,-426,0,0,0,0,0,0,0,0,0,-1,1371,1450,0,0
154,-426,0,0,0,0,0,0,0,0,0,-1,1378,1450,0,0
161,-426,0,0,0,0,0,0,0,0,0,-1,1385,1450,0,0
168,-426,0,0,0,0,0,0,0,0,0,-1,1392,1450,0,0
175,-426,0,0,0,0,0,0,0,0,0,-1,1399,1450,0,0
182,-426,0,0,0,0,0,0,0,0,0,-1,1406,1450,0,0
189,-426,0,0,0,0,0,0,0,0,0,-1,1413,1450,0,0
196,-426,0,0,0,0,0,0,0,0,0,-1,1420,1450,0,0
203,-426,0,0,0,0,0,0,0,0,0,-1,1427,1450,0,0
210,-426,0,0,0,0,0,0,0,0,0,-1,1434,1450,0,0
217,-426,0,0,0,0,0,0,0,0,0,-1,1441,1450,0,0
224,-426,0,0,0,0,0,0,0,0,0,-1,1448,1450,0,0
231,-426,0,0,0,0,0,0,0,0,0,-1,1455,1450,0,0
238,-426,0,0,0,0,0,0,0,0,0,-1,1462,1450,0,0
245,-426,0,0,0,0,0,0,0,0,0,-1,1469,1450,0,0
252,-426,0,0,0,0,0,0,0,0,0,-1,1476,1450,0,0
259,-426,0,0,0,0,0,0,0,0,0,-1,1483,1450,0,0
266,-426,0,0,0,0,0,0,0,0,0,-1,1490,1450,0,0
273,-426,0,0,0,0,0,0,0,0,0,-1,1497,1450,0,0
280,-426,0,0,0,0,0,0,0,0,0,-1,1504,1450,0,0
287,-426,0,0,0,0,0,0,0,0,0,-1,1511,1450,0,0
294,-426,0,0,0,0,0,0,0,0,0,-1,1518,1450,0,0
301,-426,0,0,0,0,0,0,0,0,0,-1,1525,1450,0,0
308,-426,0,0,0,0,0,0,0,0,0,-1,1532,1450,0,0
315,-426,0,0,0,0,0,0,0,0,0,-1,1539,1450,0,0
322,-426,0,0,0,0,0,0,0,0,0,-1,1546,1450,0,0
329,-426,0,0,0,0,0,0,0,0,0,-1,1553,1450,0,0
336,-426,0,0,0,0,0,0,0,0,0,-1,1560,1450,0,0
343,-426,0,0,0,0,0,0,0,0,0,-1,1567,1450,0,0
350,-426,0,0,0,0,0,0,0,0,0,-1,1574,1450,0,0
357,-426,0,0,0,0,0,0,0,0,0,-1,1581,1450,0,0
364,-426,0,0,0,0,0,0,0,0,0,-1,1588,1450,0,0
371,-426,0,0,0,0,0,0,0,0,0,-1,1595,1450,0,0
378,-426,0,0,0,0,0,0,0,0,0,-1,1602,1450,0,0
385,-426,0,0,0,0,0,0,0,0,0,-1,1609,1450,0,0
392,-426,0,0,0,0,0,0,0,0,0,-1,1616,1450,0,0
399,-426,0,0,0,0,0,0,0,0,0,-1,1623,1450,0,0
406,-426,0,0,0,0,0,0,0,0,0,-1,1630,1450,0,0
413,-426,0,0,0,0,0,0,0,0,0,-1,1637,1450,0,0
420,-426,0,0,0,0,0,0,0,0,0,-1,1644,1450,0,0
427,-426,0,0,0,0,0,0,0,0,0,-1,1651,1450,0,0
434,-426,0,0,0,0,0,0,0,0,0,-1,1658,1450,0,0
441,-426,0,0,0,0,0,0,0,0,0,-1,1665,1450,0,0
448,-426,0,0,0,0,0,0,0,0,0,-1,1672,1450,0,0
455,-426,0,0,0,0,0,0,0,0,0,-1,1679,1450,0,0
462,-426,0,0,0,0,0,0,0,0,0,-1,1686,1450,0,0
469,-426,0,0,0,0,0,0,0,0,0,-1,1693,1450,0,0
476,-426,0,0,0,0,0,0,0,0,0,-1,1700,1450,0,0
483,-426,0,0,0,0,0,0,0,0,0,-1,1707,1450,0,0
490,-426,0,0,0,0,0,0,0,0,0,-1,1714,1450,0,0
497,-426,0,0,0,0,0,0,0,0,0,-1,1721,1450,0,0
504,-426,20.6873,3.38367,0,0,0,0,0,0,0,-1,1728,1450,20.6873,-3.38361
511,-426,19.6676,3.53748,0,0,0,0,0,0,0,-1,1735,1450,19.6676,-3.53749
518,-426,18.6853,3.32288,0,0,0,0,0,0,0,-1,1742,1450,18.6853,-3.3229
525,-426,18.9552,2.71033,0,0,0,0,0,0,0,-1,1749,1450,18.9552,-2.71034
532,-426,19.4333,2.70764,0,0,0,0,0,0,0,-1,1756,1450,19.4334,-2.70764
539,-426,25.1482,2.56287,0,0,0,0,0,0,0,-1,1763,1450,25.1482,-2.56286
546,-426,24.1136,3.75659,0,0,0,0,0,0,0,-1,1770,1450,24.1136,-3.7566
553,-426,23.0791,4.95032,0,0,0,0,0,0,0,-1,1777,1450,23.0791,-4.95034
560,-426,12.9688,11.8289,0,0,0,0,0,0,0,-1,1784,1450,12.9688,-11.8288
567,-426,13.6388,11.5623,0,0,0,0,0,0,0,-1,1791,1450,13.6388,-11.5623
574,-426,14.3943,11.0286,0,0,0,0,0,0,0,-1,1798,1450,14.3942,-11.0285
581,-426,16.3879,11.4653,0,0,0,0,0,0,0,-1,1805,1450,16.3879,-11.4653
588,-426,18.1212,12.5547,0,0,0,0,0,0,0,-1,1812,1450,18.1212,-12.5547
595,-426,30.0474,21.0964,0,0,0,0,0,0,0,-1,1819,1450,30.0474,-21.0965
602,-426,38.1244,27.3165,0,0,0,0,0,0,0,-1,1826,1450,38.1243,-27.3165
609,-426,38.1334,26.3894,0.00289796,0.00160418,-0.00202012,0.00437224,0.000129903,-0.630446,0.00287251,0.0156189,1833,1450,38.1334,-26.3894
616,-426,38.0955,25.5573,0.00216388,0.0010104,-0.00137591,0.00307903,9.52474e-05,-0.586936,0.00202169,0.0153435,1840,1450,38.0954,-25.5572
623,-426,38.0532,24.7112,0.00172467,0.000619753,-0.000926925,0.00225128,9.31367e-05,-0.516658,0.00147079,0.0130319,1847,1450,38.0532,-24.7112
630,-426,38.0555,23.8572,0.00161799,0.000247036,-0.000654345,0.00188016,-1.51405e-05,-0.381084,0.00125852,0.0141283,1854,1450,38.0556,-23.8572
637,-426,37.9985,23.0087,0.00170869,3.09633e-06,-0.000503345,0.00184615,-0.000134369,-0.266602,0.00127791,0.0145675,1861,1450,37.9985,-23.0086
644,-426,37.9139,22.1415,0.00206112,-9.66085e-05,-0.000555686,0.00219582,-0.000231307,-0.237813,0.00154676,0.014024,1868,1450,37.914,-22.1415
651,-426,37.8477,21.3041,0.00267185,-2.35939e-05,-0.000821965,0.00290273,-0.000254473,-0.273831,0.00202531,0.0129721,1875,1450,37.8476,-21.3041
658,-426,37.8005,20.3915,0.00358852,0.000233854,-0.00132726,0.00405013,-0.000227752,-0.334704,0.00277912,0.0149956,1882,1450,37.8006,-20.3915
665,-426,37.7871,19.4349,0,0,0,0,0,0,0,-1,1889,1450,37.7871,-19.4349
672,-426,36.2397,16.927,0,0,0,0,0,0,0,-1,1896,1450,36.2397,-16.9271
679,-426,17.1522,8.15784,0,0,0,0,0,0,0,-1,1903,1450,17.1522,-8.15784
686,-426,13.5326,8.03711,0,0,0,0,0,0,0,-1,1910,1450,13.5326,-8.03717
693,-426,11.8607,6.45215,0,0,0,0,0,0,0,-1,1917,1450,11.8607,-6.45215
700,-426,9.24304,2.95447,0,0,0,0,0,0,0,-1,1924,1450,9.24305,-2.95442
707,-426,8.44519,-1.21448,0,0,0,0,0,0,0,-1,1931,1450,8.44514,1.21454
714,-426,0,0,0,0,0,0,0,0,0,-1,1938,1450,0,0
721,-426,0,0,0,0,0,0,0,0,0,-1,1945,1450,0,0
728,-426,0,0,0,0,0,0,0,0,0,-1,1952,1450,0,0
735,-426,0,0,0,0,0,0,0,0,0,-1,1959,1450,0,0
742,-426,0,0,0,0,0,0,0,0,0,-1,1966,1450,0,0
749,-426,0,0,0,0,0,0,0,0,0,-1,1973,1450,0,0
756,-426,0,0,0,0,0,0,0,0,0,-1,1980,1450,0,0
763,-426,0,0,0,0,0,0,0,0,0,-1,1987,1450,0,0
770,-426,0,0,0,0,0,0,0,0,0,-1,1994,1450,0,0
777,-426,0,0,0,0,0,0,0,0,0,-1,2001,1450,0,0
784,-426,0,0,0,0,0,0,0,0,0,-1,2008,1450,0,0
791,-426,0,0,0,0,0,0,0,0,0,-1,2015,1450,0,0
798,-426,0,0,0,0,0,0,0,0,0,-1,2022,1450,0,0
805,-426,0,0,0,0,0,0,0,0,0,-1,2029,1450,0,0
812,-426,0,0,0,0,0,0,0,0,0,-1,2036,1450,0,0
-700,-433,0,0,0,0,0,0,0,0,0,-1,524,1457,0,0
-693,-433,0,0,0,0,0,0,0,0,0,-1,531,1457,0,0
-686,-433,0,0,0,0,0,0,0,0,0,-1,538,1457,0,0
-679,-433,0,0,0,0,0,0,0,0,0,-1,545,1457,0,0
-672,-433,0,0,0,0,0,0,0,0,0,-1,552,1457,0,0
-665,-433,0,0,0,0,0,0,0,0,0,-1,559,1457,0,0
-658,-433,0,0,0,0,0,0,0,0,0,-1,566,1457,0,0
-651,-433,0,0,0,0,0,0,0,0,0,-1,573,1457,0,0
-644,-433,0,0,0,0,0,0,0,0,0,-1,580,1457,0,0
-637,-433,0,0,0,0,0,0,0,0,0,-1,587,1457,0,0
-630,-433,0,0,0,0,0,0,0,0,0,-1,594,1457,0,0
-623,-433,0,0,0,0,0,0,0,0,0,-1,601,1457,0,0
-616,-433,0,0,0,0,0,0,0,0,0,-1,608,1457,0,0
-609,-433,0,0,0,0,0,0,0,0,0,-1,615,1457,0,0
-602,-433,0,0,0,0,0,0,0,0,0,-1,622,1457,0,0
-595,-433,0,0,0,0,0,0,0,0,0,-1,629,1457,0,0
-588,-433,-10.3756,-0.467041,0,0,0,0,0,0,0,-1,636,1457,-10.3756,0.467081
-581,-433,-8.12201,0.884033,0,0,0,0,0,0,0,-1,643,1457,-8.12204,-0.884056
-574,-433,-5.86847,2.23523,0,0,0,0,0,0,0,-1,650,1457,-5.86844,-2.23519
-567,-433,-5.42255,1.16833,0,0,0,0,0,0,0,-1,657,1457,-5.42254,-1.1683
-560,-433,-6.84027,1.86414,0,0,0,0,0,0,0,-1,664,1457,-6.84026,-1.86412
-553,-433,-5.74017,1.79163,0,0,0,0,0,0,0,-1,671,1457,-5.74015,-1.79166
-546,-433,-8.12451,7.35095,0,0,0,0,0,0,0,-1,678,1457,-8.12451,-7.35097
-539,-433,-7.3136,8.75659,0,0,0,0,0,0,0,-1,685,1457,-7.31362,-8.75659
-532,-433,-14.5645,14.8475,0,0,0,0,0,0,0,-1,692,1457,-14.5645,-14.8475
-525,-433,-19.4536,20.5538,0,0,0,0,0,0,0,-1,699,1457,-19.4536,-20.5538
-518,-433,-19.4326,21.53,0.00291548,0.00469349,0.00382993,0.00773624,-0.000127267,0.899439,0.00520044,0.0201483,706,1457,-19.4326,-21.53
-511,-433,-19.4886,22.384,0.00243115,0.00353265,0.00293657,0.00596967,-5.87525e-06,0.878096,0.00398174,0.0174767,713,1457,-19.4886,-22.384
-504,-433,-19.5323,23.2534,0.00202152,0.00257653,0.00214869,0.00446556,0.000132494,0.849618,0.00293387,0.0132006,720,1457,-19.5323,-23.2535
-497,-433,-19.5638,24.1356,0.0017196,0.00181639,0.00149672,0.0032655,0.00027049,0.80156,0.00209267,0.0144959,727,1457,-19.5638,-24.1356
-490,-433,-19.6325,24.9927,0.00149562,0.00121874,0.000959848,0.00232696,0.0003874,0.713777,0.00143965,0.0175259,734,1457,-19.6325,-24.9927
-483,-433,-19.6742,25.8809,0.00144166,0.000876499,0.000617665,0.00183832,0.000479845,0.570861,0.00110102,0.0178991,741,1457,-19.6742,-25.8808
-476,-433,-19.7165,26.7646,0.00142617,0.000697528,0.000397472,0.00160103,0.000522671,0.414443,0.000942732,0.0115731,748,1457,-19.7165,-26.7647
-469,-433,-19.7744,27.6298,0.00152159,0.000732222,0.000345607,0.00165152,0.000602291,0.359601,0.000965072,0.0112742,755,1457,-19.7743,-27.6298
-462,-433,-19.8474,28.5216,0,0,0,0,0,0,0,-1,762,1457,-19.8474,-28.5216
-455,-433,-13.8576,22.7446,0,0,0,0,0,0,0,-1,769,1457,-13.8576,-22.7446
-448,-433,-6.94812,14.5563,0,0,0,0,0,0,0,-1,776,1457,-6.94809,-14.5562
-441,-433,-9.97485,14.0258,0,0,0,0,0,0,0,-1,783,1457,-9.97488,-14.0257
-434,-433,-9.41205,14.2297,0,0,0,0,0,0,0,-1,790,1457,-9.41205,-14.2297
-427,-433,-8.67419,13.6827,0,0,0,0,0,0,0,-1,797,1457,-8.67422,-13.6827
-420,-433,-5.74658,9.49121,0,0,0,0,0,0,0,-1,804,1457,-5.7466,-9.49119
-413,-433,-3.63074,5.5813,0,0,0,0,0,0,0,-1,811,1457,-3.63072,-5.58129
-406,-433,-12.3472,4.69373,0,0,0,0,0,0,0,-1,818,1457,-12.3472,-4.69374
-399,-433,-12.055,2.83594,0,0,0,0,0,0,0,-1,825,1457,-12.055,-2.83594
-392,-433,-12.9772,1.6228,0,0,0,0,0,0,0,-1,832,1457,-12.9772,-1.62282
-385,-433,-13.7999,0.514771,0,0,0,0,0,0,0,-1,839,1457,-13.7999,-0.514788
-378,-433,0,0,0,0,0,0,0,0,0,-1,846,1457,0,0
-371,-433,0,0,0,0,0,0,0,0,0,-1,853,1457,0,0
-364,-433,0,0,0,0,0,0,0,0,0,-1,860,1457,0,0
-357,-433,0,0,0,0,0,0,0,0,0,-1,867,1457,0,0
-350,-433,0,0,0,0,0,0,0,0,0,-1,874,1457,0,0
-343,-433,0,0,0,0,0,0,0,0,0,-1,881,1457,0,0
-336,-433,0,0,0,0,0,0,0,0,0,-1,888,1457,0,0
-329,-433,0,0,0,0,0,0,0,0,0,-1,895,1457,0,0
-322,-433,0,0,0,0,0,0,0,0,0,-1,902,1457,0,0
-315,-433,0,0,0,0,0,0,0,0,0,-1,909,1457,0,0
-308,-433,0,0,0,0,0,0,0,0,0,-1,916,1457,0,0
-301,-433,0,0,0,0,0,0,0,0,0,-1,923,1457,0,0
-294,-433,0,0,0,0,0,0,0,0,0,-1,930,1457,0,0
-287,-433,0,0,0,0,0,0,0,0,0,-1,937,1457,0,0
-280,-433,0,0,0,0,0,0,0,0,0,-1,944,1457,0,0
-273,-433,0,0,0,0,0,0,0,0,0,-1,951,1457,0,0
-266,-433,0,0,0,0,0,0,0,0,0,-1,958,1457,0,0
-259,-433,0,0,0,0,0,0,0,0,0,-1,965,1457,0,0
-252,-433,0,0,0,0,0,0,0,0,0,-1,972,1457,0,0
-245,-433,0,0,0,0,0,0,0,0,0,-1,979,1457,0,0
-238,-433,0,0,0,0,0,0,0,0,0,-1,986,1457,0,0
-231,-433,0,0,0,0,0,0,0,0,0,-1,993,1457,0,0
-224,-433,0,0,0,0,0,0,0,0,0,-1,1000,1457,0,0
-217,-433,0,0,0,0,0,0,0,0,0,-1,1007,1457,0,0
-210,-433,0,0,0,0,0,0,0,0,0,-1,1014,1457,0,0
-203,-433,0,0,0,0,0,0,0,0,0,-1,1021,1457,0,0
-196,-433,0,0,0,0,0,0,0,0,0,-1,1028,1457,0,0
-189,-433,0,0,0,0,0,0,0,0,0,-1,1035,1457,0,0
-182,-433,0,0,0,0,0,0,0,0,0,-1,1042,1457,0,0
-175,-433,0,0,0,0,0,0,0,0,0,-1,1049,1457,0,0
-168,-433,0,0,0,0,0,0,0,0,0,-1,1056,1457,0,0
-161,-433,0,0,0,0,0,0,0,0,0,-1,1063,1457,0,0
-154,-433,0,0,0,0,0,0,0,0,0,-1,1070,1457,0,0
-147,-433,0,0,0,0,0,0,0,0,0,-1,1077,1457,0,0
-140,-433,0,0,0,0,0,0,0,0,0,-1,1084,1457,0,0
-133,-433,0,0,0,0,0,0,0,0,0,-1,1091,1457,0,0
-126,-433,0,0,0,0,0,0,0,0,0,-1,1098,1457,0,0
-119,-433,0,0,0,0,0,0,0,0,0,-1,1105,1457,0,0
-112,-433,0,0,0,0,0,0,0,0,0,-1,1112,1457,0,0
-105,-433,0,0,0,0,0,0,0,0,0,-1,1119,1457,0,0
-98,-433,0,0,0,0,0,0,0,0,0,-1,1126,1457,0,0
-91,-433,0,0,0,0,0,0,0,0,0,-1,1133,1457,0,0
-84,-433,0,0,0,0,0,0,0,0,0,-1,1140,1457,0,0
-77,-433,0,0,0,0,0,0,0,0,0,-1,1147,1457,0,0
-70,-433,0,0,0,0,0,0,0,0,0,-1,1154,1457,0,0
-63,-433,0,0,0,0,0,0,0,0,0,-1,1161,1457,0,0
-56,-433,0,0,0,0,0,0,0,0,0,-1,1168,1457,0,0
-49,-433,0,0,0,0,0,0,0,0,0,-1,1175,1457,0,0
-42,-433,0,0,0,0,0,0,0,0,0,-1,1182,1457,0,0
-35,-433,0,0,0,0,0,0,0,0,0,-1,1189,1457,0,0
-28,-433,0,0,0,0,0,0,0,0,0,-1,1196,1457,0,0
-21,-433,0,0,0,0,0,0,0,0,0,-1,1203,1457,0,0
-14,-433,0,0,0,0,0,0,0,0,0,-1,1210,1457,0,0
-7,-433,0,0,0,0,0,0,0,0,0,-1,1217,1457,0,0
0,-433,0,0,0,0,0,0,0,0,0,-1,1224,1457,0,0
7,-433,0,0,0,0,0,0,0,0,0,-1,1231,1457,0,0
14,-433,0,0,0,0,0,0,0,0,0,-1,1238,1457,0,0
21,-433,0,0,0,0,0,0,0,0,0,-1,1245,1457,0,0
28,-433,0,0,0,0,0,0,0,0,0,-1,1252,1457,0,0
35,-433,0,0,0,0,0,0,0,0,0,-1,1259,1457,0,0
42,-433,0,0,0,0,0,0,0,0,0,-1,1266,1457,0,0
49,-433,0,0,0,0,0,0,0,0,0,-1,1273,1457,0,0
56,-433,0,0,0,0,0,0,0,0,0,-1,1280,1457,0,0
63,-433,0,0,0,0,0,0,0,0,0,-1,1287,1457,0,0
70,-433,0,0,0,0,0,0,0,0,0,-1,1294,1457,0,0
77,-433,0,0,0,0,0,0,0,0,0,-1,1301,1457,0,0
84,-433,0,0,0,0,0,0,0,0,0,-1,1308,1457,0,0
91,-433,0,0,0,0,0,0,0,0,0,-1,1315,1457,0,0
98,-433,0,0,0,0,0,0,0,0,0,-1,1322,1457,0,0
105,-433,0,0,0,0,0,0,0,0,0,-1,1329,1457,0,0
112,-433,0,0,0,0,0,0,0,0,0,-1,1336,1457,0,0
119,-433,0,0,0,0,0,0,0,0,0,-1,1343,1457,0,0
126,-433,0,0,0,0,0,0,0,0,0,-1,1350,1457,0,0
133,-433,0,0,0,0,0,0,0,0,0,-1,1357,1457,0,0
140,-433,0,0,0,0,0,0,0,0,0,-1,1364,1457,0,0
147,-433,0,0,0,0,0,0,0,0,0,-1,1371,1457,0,0
154,-433,0,0,0,0,0,0,0,0,0,-1,1378,1457,0,0
161,-433,0,0,0,0,0,0,0,0,0,-1,1385,1457,0,0
168,-433,0,0,0,0,0,0,0,0,0,-1,1392,1457,0,0
175,-433,0,0,0,0,0,0,0,0,0,-1,1399,1457,0,0
182,-433,0,0,0,0,0,0,0,0,0,-1,1406,1457,0,0
189,-433,0,0,0,0,0,0,0,0,0,-1,1413,1457,0,0
196,-433,0,0,0,0,0,0,0,0,0,-1,1420,1457,0,0
203,-433,0,0,0,0,0,0,0,0,0,-1,1427,1457,0,0
210,-433,0,0,0,0,0,0,0,0,0,-1,1434,1457,0,0
217,-433,0,0,0,0,0,0,0,0,0,-1,1441,1457,0,0
224,-433,0,0,0,0,0,0,0,0,0,-1,1448,1457,0,0
231,-433,0,0,0,0,0,0,0,0,0,-1,1455,1457,0,0
238,-433,0,0,0,0,0,0,0,0,0,-1,1462,1457,0,0
245,-433,0,0,0,0,0,0,0,0,0,-1,1469,1457,0,0
252,-433,0,0,0,0,0,0,0,0,0,-1,1476,1457,0,0
259,-433,0,0,0,0,0,0,0,0,0,-1,1483,1457,0,0
266,-433,0,0,0,0,0,0,0,0,0,-1,1490,1457,0,0
273,-433,0,0,0,0,0,0,0,0,0,-1,1497,1457,0,0
280,-433,0,0,0,0,0,0,0,0,0,-1,1504,1457,0,0
287,-433,0,0,0,0,0,0,0,0,0,-1,1511,1457,0,0
294,-433,0,0,0,0,0,0,0,0,0,-1,1518,1457,0,0
301,-433,0,0,0,0,0,0,0,0,0,-1,1525,1457,0,0
308,-433,0,0,0,0,0,0,0,0,0,-1,1532,1457,0,0
315,-433,0,0,0,0,0,0,0,0,0,-1,1539,1457,0,0
322,-433,0,0,0,0,0,0,0,0,0,-1,1546,1457,0,0
329,-433,0,0,0,0,0,0,0,0,0,-1,1553,1457,0,0
336,-433,0,0,0,0,0,0,0,0,0,-1,1560,1457,0,0
343,-433,0,0,0,0,0,0,0,0,0,-1,1567,1457,0,0
350,-433,0,0,0,0,0,0,0,0,0,-1,1574,1457,0,0
357,-433,0,0,0,0,0,0,0,0,0,-1,1581,1457,0,0
364,-433,0,0,0,0,0,0,0,0,0,-1,1588,1457,0,0
371,-433,0,0,0,0,0,0,0,0,0,-1,1595,1457,0,0
378,-433,0,0,0,0,0,0,0,0,0,-1,1602,1457,0,0
385,-433,0,0,0,0,0,0,0,0,0,-1,1609,1457,0,0
392,-433,0,0,0,0,0,0,0,0,0,-1,1616,1457,0,0
399,-433,0,0,0,0,0,0,0,0,0,-1,1623,1457,0,0
406,-433,0,0,0,0,0,0,0,0,0,-1,1630,1457,0,0
413,-433,0,0,0,0,0,0,0,0,0,-1,1637,1457,0,0
420,-433,0,0,0,0,0,0,0,0,0,-1,1644,1457,0,0
427,-433,0,0,0,0,0,0,0,0,0,-1,1651,1457,0,0
434,-433,0,0,0,0,0,0,0,0,0,-1,1658,1457,0,0
441,-433,0,0,0,0,0,0,0,0,0,-1,1665,1457,0,0
448,-433,0,0,0,0,0,0,0,0,0,-1,1672,1457,0,0
455,-433,0,0,0,0,0,0,0,0,0,-1,1679,1457,0,0
462,-433,0,0,0,0,0,0,0,0,0,-1,1686,1457,0,0
469,-433,0,0,0,0,0,0,0,0,0,-1,1693,1457,0,0
476,-433,0,0,0,0,0,0,0,0,0,-1,1700,1457,0,0
483,-433,0,0,0,0,0,0,0,0,0,-1,1707,1457,0,0
490,-433,0,0,0,0,0,0,0,0,0,-1,1714,1457,0,0
497,-433,0,0,0,0,0,0,0,0,0,-1,1721,1457,0,0
504,-433,19.9058,3.03662,0,0,0,0,0,0,0,-1,1728,1457,19.9058,-3.03656
511,-433,19.0145,3.07837,0,0,0,0,0,0,0,-1,1735,1457,19.0146,-3.07834
518,-433,18.071,3.06433,0,0,0,0,0,0,0,-1,1742,1457,18.071,-3.06432
525,-433,17.2048,3.37085,0,0,0,0,0,0,0,-1,1749,1457,17.2049,-3.37083
532,-433,16.5637,3.36646,0,0,0,0,0,0,0,-1,1756,1457,16.5637,-3.36643
539,-433,15.9193,3.30396,0,0,0,0,0,0,0,-1,1763,1457,15.9193,-3.30394
546,-433,23.1903,4.81775,0,0,0,0,0,0,0,-1,1770,1457,23.1903,-4.81775
553,-433,13.9674,11.5781,0,0,0,0,0,0,0,-1,1777,1457,13.9674,-11.5781
560,-433,13.9855,11.7341,0,0,0,0,0,0,0,-1,1784,1457,13.9855,-11.7341
567,-433,13.9264,11.3364,0,0,0,0,0,0,0,-1,1791,1457,13.9263,-11.3364
574,-433,15.5305,12.3673,0,0,0,0,0,0,0,-1,1798,1457,15.5305,-12.3673
581,-433,16.6405,12.1898,0,0,0,0,0,0,0,-1,1805,1457,16.6405,-12.1898
588,-433,26.4386,19.7478,0,0,0,0,0,0,0,-1,1812,1457,26.4386,-19.7478
595,-433,37.3929,28.2466,0,0,0,0,0,0,0,-1,1819,1457,37.3929,-28.2466
602,-433,37.3237,27.3097,0.00396714,0.00205916,-0.00264005,0.00582028,0.000206021,-0.612022,0.00381337,0.0312597,1826,1457,37.3237,-27.3097
609,-433,37.3188,26.4021,0.0030096,0.00144498,-0.00189663,0.00427892,0.00017566,-0.589791,0.0027959,0.0180858,1833,1457,37.3189,-26.4021
616,-433,37.2981,25.6006,0.00223843,0.000866263,-0.00123958,0.00296913,0.000135561,-0.532643,0.00193582,0.0149818,1840,1457,37.2981,-25.6006
623,-433,37.2301,24.7499,0.00182751,0.000495214,-0.000788245,0.00219339,0.000129333,-0.434576,0.00142111,0.0113097,1847,1457,37.2301,-24.7499
630,-433,37.1986,23.9037,0.00174824,0.000117621,-0.000500943,0.00188984,-2.39778e-05,-0.275478,0.00126796,0.0150752,1854,1457,37.1986,-23.9036
637,-433,37.1521,23.0538,0.00183346,-0.000145052,-0.000312733,0.00188171,-0.000193307,-0.153094,0.00132363,0.0172706,1861,1457,37.152,-23.0538
644,-433,37.076,22.2236,0.00215359,-0.000255105,-0.00030733,0.00219218,-0.0002937,-0.124926,0.00156855,0.0177777,1868,1457,37.076,-22.2236
651,-433,37.0203,21.3434,0.00276788,-0.000168291,-0.000551,0.00286788,-0.000268286,-0.179525,0.00200733,0.0133375,1875,1457,37.0203,-21.3434
658,-433,36.9958,20.345,0,0,0,0,0,0,0,-1,1882,1457,36.9958,-20.3449
665,-433,36.4893,18.9447,0,0,0,0,0,0,0,-1,1889,1457,36.4893,-18.9447
672,-433,18.115,8.7207,0,0,0,0,0,0,0,-1,1896,1457,18.115,-8.72074
679,-433,17.2969,9.6355,0,0,0,0,0,0,0,-1,1903,1457,17.2968,-9.63548
686,-433,13.6356,8.61694,0,0,0,0,0,0,0,-1,1910,1457,13.6356,-8.61694
693,-433,13.4081,8.39624,0,0,0,0,0,0,0,-1,1917,1457,13.4081,-8.39624
700,-433,7.16809,-1.5166,0,0,0,0,0,0,0,-1,1924,1457,7.16806,1.51656
707,-433,8.68359,-2.82202,0,0,0,0,0,0,0,-1,1931,1457,8.68359,2.82197
714,-433,0,0,0,0,0,0,0,0,0,-1,1938,1457,0,0
721,-433,0,0,0,0,0,0,0,0,0,-1,1945,1457,0,0
728,-433,0,0,0,0,0,0,0,0,0,-1,1952,1457,0,0
735,-433,0,0,0,0,0,0,0,0,0,-1,1959,1457,0,0
742,-433,0,0,0,0,0,0,0,0,0,-1,1966,1457,0,0
749,-433,0,0,0,0,0,0,0,0,0,-1,1973,1457,0,0
756,-433,0,0,0,0,0,0,0,0,0,-1,1980,1457,0,0
763,-433,0,0,0,0,0,0,0,0,0,-1,1987,1457,0,0
770,-433,0,0,0,0,0,0,0,0,0,-1,1994,1457,0,0
777,-433,0,0,0,0,0,0,0,0,0,-1,2001,1457,0,0
784,-433,0,0,0,0,0,0,0,0,0,-1,2008,1457,0,0
791,-433,0,0,0,0,0,0,0,0,0,-1,2015,1457,0,0
798,-433,0,0,0,0,0,0,0,0,0,-1,2022,1457,0,0
805,-433,0,0,0,0,0,0,0,0,0,-1,2029,1457,0,0
812,-433,0,0,0,0,0,0,0,0,0,-1,2036,1457,0,0
-700,-440,0,0,0,0,0,0,0,0,0,-1,524,1464,0,0
-693,-440,0,0,0,0,0,0,0,0,0,-1,531,1464,0,0
-686,-440,0,0,0,0,0,0,0,0,0,-1,538,1464,0,0
-679,-440,0,0,0,0,0,0,0,0,0,-1,545,1464,0,0
-672,-440,0,0,0,0,0,0,0,0,0,-1,552,1464,0,0
-665,-440,0,0,0,0,0,0,0,0,0,-1,559,1464,0,0
-658,-440,0,0,0,0,0,0,0,0,0,-1,566,1464,0,0
-651,-440,0,0,0,0,0,0,0,0,0,-1,573,1464,0,0
-644,-440,0,0,0,0,0,0,0,0,0,-1,580,1464,0,0
-637,-440,0,0,0,0,0,0,0,0,0,-1,587,1464,0,0
-630,-440,0,0,0,0,0,0,0,0,0,-1,594,1464,0,0
-623,-440,0,0,0,0,0,0,0,0,0,-1,601,1464,0,0
-616,-440,0,0,0,0,0,0,0,0,0,-1,608,1464,0,0
-609,-440,0,0,0,0,0,0,0,0,0,-1,615,1464,0,0
-602,-440,0,0,0,0,0,0,0,0,0,-1,622,1464,0,0
-595,-440,0,0,0,0,0,0,0,0,0,-1,629,1464,0,0
-588,-440,0,0,0,0,0,0,0,0,0,-1,636,1464,0,0
-581,-440,-8.97278,0.254517,0,0,0,0,0,0,0,-1,643,1464,-8.97276,-0.254526
-574,-440,-7.00818,-0.918579,0,0,0,0,0,0,0,-1,650,1464,-7.00817,0.918538
-567,-440,-6.12152,-0.0766602,0,0,0,0,0,0,0,-1,657,1464,-6.12151,0.0767097
-560,-440,-5.46747,0.82251,0,0,0,0,0,0,0,-1,664,1464,-5.46748,-0.822551
-553,-440,-6.84729,0.0831299,0,0,0,0,0,0,0,-1,671,1464,-6.84732,-0.083136
-546,-440,-5.63446,-0.153198,0,0,0,0,0,0,0,-1,678,1464,-5.63447,0.153147
-539,-440,-6.80017,8.58252,0,0,0,0,0,0,0,-1,685,1464,-6.80015,-8.58257
-532,-440,-9.69647,11.3262,0,0,0,0,0,0,0,-1,692,1464,-9.69649,-11.3262
-525,-440,-18.703,20.4746,0,0,0,0,0,0,0,-1,699,1464,-18.703,-20.4746
-518,-440,-18.6046,21.4645,0.0033356,0.00588753,0.00486766,0.00964368,-0.000420552,0.91358,0.00657379,0.0356688,706,1464,-18.6046,-21.4645
-511,-440,-18.5765,22.4501,0.00281706,0.00454925,0.00382853,0.00760843,-0.000242118,0.896637,0.00515489,0.0180168,713,1464,-18.5765,-22.4501
-504,-440,-18.6253,23.3268,0.0023324,0.00341743,0.00288528,0.00581076,-6.09257e-05,0.878328,0.00389431,0.019454,720,1464,-18.6253,-23.3268
-497,-440,-18.7115,24.1847,0.00193835,0.00247732,0.00207989,0.00430511,0.000110555,0.849824,0.00283394,0.0227632,727,1464,-18.7115,-24.1847
-490,-440,-18.7552,25.0035,0.00161311,0.00170792,0.00139516,0.00305648,0.000264549,0.802382,0.00195545,0.0251407,734,1464,-18.7552,-25.0036
-483,-440,-18.7899,25.9207,0.00145112,0.00117935,0.000904103,0.00222949,0.000400975,0.710807,0.00137234,0.0218288,741,1464,-18.7899,-25.9207
-476,-440,-18.8418,26.7865,0.00132497,0.000825701,0.000551838,0.00168101,0.000469661,0.572985,0.00100153,0.0139407,748,1464,-18.8418,-26.7865
-469,-440,-18.9073,27.6659,0.00128015,0.000718491,0.000375081,0.00146788,0.000530758,0.464059,0.000858239,0.0126673,755,1464,-18.9074,-27.6659
-462,-440,-19.0145,28.5074,0.00140051,0.000892262,0.000429377,0.00164533,0.000647444,0.518196,0.000957088,0.0199101,762,1464,-19.0145,-28.5074
-455,-440,-19.0349,29.428,0,0,0,0,0,0,0,-1,769,1464,-19.0349,-29.428
-448,-440,-12.8837,23.5623,0,0,0,0,0,0,0,-1,776,1464,-12.8837,-23.5623
-441,-440,-7.28583,14.7465,0,0,0,0,0,0,0,-1,783,1464,-7.28584,-14.7464
-434,-440,-8.33636,14.5024,0,0,0,0,0,0,0,-1,790,1464,-8.33638,-14.5025
-427,-440,-8.28094,14.2512,0,0,0,0,0,0,0,-1,797,1464,-8.28094,-14.2512
-420,-440,-6.86603,8.09216,0,0,0,0,0,0,0,-1,804,1464,-6.86602,-8.09222
-413,-440,-3.46796,5.72278,0,0,0,0,0,0,0,-1,811,1464,-3.46797,-5.72276
-406,-440,-5.2887,5.20264,0,0,0,0,0,0,0,-1,818,1464,-5.2887,-5.20261
-399,-440,-12.7318,3.94421,0,0,0,0,0,0,0,-1,825,1464,-12.7318,-3.94419
-392,-440,-13.5565,2.51855,0,0,0,0,0,0,0,-1,832,1464,-13.5565,-2.51861
-385,-440,-14.6741,1.39795,0,0,0,0,0,0,0,-1,839,1464,-14.6741,-1.39801
-378,-440,-15.8063,0.293457,0,0,0,0,0,0,0,-1,846,1464,-15.8063,-0.293412
-371,-440,0,0,0,0,0,0,0,0,0,-1,853,1464,0,0
-364,-440,0,0,0,0,0,0,0,0,0,-1,860,1464,0,0
-357,-440,0,0,0,0,0,0,0,0,0,-1,867,1464,0,0
-350,-440,0,0,0,0,0,0,0,0,0,-1,874,1464,0,0
-343,-440,0,0,0,0,0,0,0,0,0,-1,881,1464,0,0
-336,-440,0,0,0,0,0,0,0,0,0,-1,888,1464,0,0
-329,-440,0,0,0,0,0,0,0,0,0,-1,895,1464,0,0
-322,-440,0,0,0,0,0,0,0,0,0,-1,902,1464,0,0
-315,-440,0,0,0,0,0,0,0,0,0,-1,909,1464,0,0
-308,-440,0,0,0,0,0,0,0,0,0,-1,916,1464,0,0
-301,-440,0,0,0,0,0,0,0,0,0,-1,923,1464,0,0
-294,-440,0,0,0,0,0,0,0,0,0,-1,930,1464,0,0
-287,-440,0,0,0,0,0,0,0,0,0,-1,937,1464,0,0
-280,-440,0,0,0,0,0,0,0,0,0,-1,944,1464,0,0
-273,-440,0,0,0,0,0,0,0,0,0,-1,951,1464,0,0
-266,-440,0,0,0,0,0,0,0,0,0,-1,958,1464,0,0
-259,-440,0,0,0,0,0,0,0,0,0,-1,965,1464,0,0
-252,-440,0,0,0,0,0,0,0,0,0,-1,972,1464,0,0
-245,-440,0,0,0,0,0,0,0,0,0,-1,979,1464,0,0
-238,-440,0,0,0,0,0,0,0,0,0,-1,986,1464,0,0
-231,-440,0,0,0,0,0,0,0,0,0,-1,993,1464,0,0
-224,-440,0,0,0,0,0,0,0,0,0,-1,1000,1464,0,0
-217,-440,0,0,0,0,0,0,0,0,0,-1,1007,1464,0,0
-210,-440,0,0,0,0,0,0,0,0,0,-1,1014,1464,0,0
-203,-440,0,0,0,0,0,0,0,0,0,-1,1021,1464,0,0
-196,-440,0,0,0,0,0,0,0,0,0,-1,1028,1464,0,0
-189,-440,0,0,0,0,0,0,0,0,0,-1,1035,1464,0,0
-182,-440,0,0,0,0,0,0,0,0,0,-1,1042,1464,0,0
-175,-440,0,0,0,0,0,0,0,0,0,-1,1049,1464,0,0
-168,-440,0,0,0,0,0,0,0,0,0,-1,1056,1464,0,0
-161,-440,0,0,0,0,0,0,0,0,0,-1,1063,1464,0,0
-154,-440,0,0,0,0,0,0,0,0,0,-1,1070,1464,0,0
-147,-440,0,0,0,0,0,0,0,0,0,-1,1077,1464,0,0
-140,-440,0,0,0,0,0,0,0,0,0,-1,1084,1464,0,0
-133,-440,0,0,0,0,0,0,0,0,0,-1,1091,1464,0,0
-126,-440,0,0,0,0,0,0,0,0,0,-1,1098,1464,0,0
-119,-440,0,0,0,0,0,0,0,0,0,-1,1105,1464,0,0
-112,-440,0,0,0,0,0,0,0,0,0,-1,1112,1464,0,0
-105,-440,0,0,0,0,0,0,0,0,0,-1,1119,1464,0,0
-98,-440,0,0,0,0,0,0,0,0,0,-1,1126,1464,0,0
-91,-440,0,0,0,0,0,0,0,0,0,-1,1133,1464,0,0
-84,-440,0,0,0,0,0,0,0,0,0,-1,1140,1464,0,0
-77,-440,0,0,0,0,0,0,0,0,0,-1,1147,1464,0,0
-70,-440,0,0,0,0,0,0,0,0,0,-1,1154,1464,0,0
-63,-440,0,0,0,0,0,0,0,0,0,-1,1161,1464,0,0
-56,-440,0,0,0,0,0,0,0,0,0,-1,1168,1464,0,0
-49,-440,0,0,0,0,0,0,0,0,0,-1,1175,1464,0,0
-42,-440,0,0,0,0,0,0,0,0,0,-1,1182,1464,0,0
-35,-440,0,0,0,0,0,0,0,0,0,-1,1189,1464,0,0
-28,-440,0,0,0,0,0,0,0,0,0,-1,1196,1464,0,0
-21,-440,0,0,0,0,0,0,0,0,0,-1,1203,1464,0,0
-14,-440,0,0,0,0,0,0,0,0,0,-1,1210,1464,0,0
-7,-440,0,0,0,0,0,0,0,0,0,-1,1217,1464,0,0
0,-440,0,0,0,0,0,0,0,0,0,-1,1224,1464,0,0
7,-440,0,0,0,0,0,0,0,0,0,-1,1231,1464,0,0
14,-440,0,0,0,0,0,0,0,0,0,-1,1238,1464,0,0
21,-440,0,0,0,0,0,0,0,0,0,-1,1245,1464,0,0
28,-440,0,0,0,0,0,0,0,0,0,-1,1252,1464,0,0
35,-440,0,0,0,0,0,0,0,0,0,-1,1259,1464,0,0
42,-440,0,0,0,0,0,0,0,0,0,-1,1266,1464,0,0
49,-440,0,0,0,0,0,0,0,0,0,-1,1273,1464,0,0
56,-440,0,0,0,0,0,0,0,0,0,-1,1280,1464,0,0
63,-440,0,0,0,0,0,0,0,0,0,-1,1287,1464,0,0
70,-440,0,0,0,0,0,0,0,0,0,-1,1294,1464,0,0
77,-440,0,0,0,0,0,0,0,0,0,-1,1301,1464,0,0
84,-440,0,0,0,0,0,0,0,0,0,-1,1308,1464,0,0
91,-440,0,0,0,0,0,0,0,0,0,-1,1315,1464,0,0
98,-440,0,0,0,0,0,0,0,0,0,-1,1322,1464,0,0
105,-440,0,0,0,0,0,0,0,0,0,-1,1329,1464,0,0
112,-440,0,0,0,0,0,0,0,0,0,-1,1336,1464,0,0
119,-440,0,0,0,0,0,0,0,0,0,-1,1343,1464,0,0
126,-440,0,0,0,0,0,0,0,0,0,-1,1350,1464,0,0
133,-440,0,0,0,0,0,0,0,0,0,-1,1357,1464,0,0
140,-440,0,0,0,0,0,0,0,0,0,-1,1364,1464,0,0
147,-440,0,0,0,0,0,0,0,0,0,-1,1371,1464,0,0
154,-440,0,0,0,0,0,0,0,0,0,-1,1378,1464,0,0
161,-440,0,0,0,0,0,0,0,0,0,-1,1385,1464,0,0
168,-440,0,0,0,0,0,0,0,0,0,-1,1392,1464,0,0
175,-440,0,0,0,0,0,0,0,0,0,-1,1399,1464,0,0
182,-440,0,0,0,0,0,0,0,0,0,-1,1406,1464,0,0
189,-440,0,0,0,0,0,0,0,0,0,-1,1413,1464,0,0
196,-440,0,0,0,0,0,0,0,0,0,-1,1420,1464,0,0
203,-440,0,0,0,0,0,0,0,0,0,-1,1427,1464,0,0
210,-440,0,0,0,0,0,0,0,0,0,-1,1434,1464,0,0
217,-440,0,0,0,0,0,0,0,0,0,-1,1441,1464,0,0
224,-440,0,0,0,0,0,0,0,0,0,-1,1448,1464,0,0
231,-440,0,0,0,0,0,0,0,0,0,-1,1455,1464,0,0
238,-440,0,0,0,0,0,0,0,0,0,-1,1462,1464,0,0
245,-440,0,0,0,0,0,0,0,0,0,-1,1469,1464,0,0
252,-440,0,0,0,0,0,0,0,0,0,-1,1476,1464,0,0
259,-440,0,0,0,0,0,0,0,0,0,-1,1483,1464,0,0
266,-440,0,0,0,0,0,0,0,0,0,-1,1490,1464,0,0
273,-440,0,0,0,0,0,0,0,0,0,-1,1497,1464,0,0
280,-440,0,0,0,0,0,0,0,0,0,-1,1504,1464,0,0
287,-440,0,0,0,0,0,0,0,0,0,-1,1511,1464,0,0
294,-440,0,0,0,0,0,0,0,0,0,-1,1518,1464,0,0
301,-440,0,0,0,0,0,0,0,0,0,-1,1525,1464,0,0
308,-440,0,0,0,0,0,0,0,0,0,-1,1532,1464,0,0
315,-440,0,0,0,0,0,0,0,0,0,-1,1539,1464,0,0
322,-440,0,0,0,0,0,0,0,0,0,-1,1546,1464,0,0
329,-440,0,0,0,0,0,0,0,0,0,-1,1553,1464,0,0
336,-440,0,0,0,0,0,0,0,0,0,-1,1560,1464,0,0
343,-440,0,0,0,0,0,0,0,0,0,-1,1567,1464,0,0
350,-440,0,0,0,0,0,0,0,0,0,-1,1574,1464,0,0
357,-440,0,0,0,0,0,0,0,0,0,-1,1581,1464,0,0
364,-440,0,0,0,0,0,0,0,0,0,-1,1588,1464,0,0
371,-440,0,0,0,0,0,0,0,0,0,-1,1595,1464,0,0
378,-440,0,0,0,0,0,0,0,0,0,-1,1602,1464,0,0
385,-440,0,0,0,0,0,0,0,0,0,-1,1609,1464,0,0
392,-440,0,0,0,0,0,0,0,0,0,-1,1616,1464,0,0
399,-440,0,0,0,0,0,0,0,0,0,-1,1623,1464,0,0
406,-440,0,0,0,0,0,0,0,0,0,-1,1630,1464,0,0
413,-440,0,0,0,0,0,0,0,0,0,-1,1637,1464,0,0
420,-440,0,0,0,0,0,0,0,0,0,-1,1644,1464,0,0
427,-440,0,0,0,0,0,0,0,0,0,-1,1651,1464,0,0
434,-440,0,0,0,0,0,0,0,0,0,-1,1658,1464,0,0
441,-440,0,0,0,0,0,0,0,0,0,-1,1665,1464,0,0
448,-440,0,0,0,0,0,0,0,0,0,-1,1672,1464,0,0
455,-440,0,0,0,0,0,0,0,0,0,-1,1679,1464,0,0
462,-440,0,0,0,0,0,0,0,0,0,-1,1686,1464,0,0
469,-440,0,0,0,0,0,0,0,0,0,-1,1693,1464,0,0
476,-440,0,0,0,0,0,0,0,0,0,-1,1700,1464,0,0
483,-440,0,0,0,0,0,0,0,0,0,-1,1707,1464,0,0
490,-440,0,0,0,0,0,0,0,0,0,-1,1714,1464,0,0
497,-440,16.965,-0.528442,0,0,0,0,0,0,0,-1,1721,1464,16.965,0.528492
504,-440,15.8052,0.670166,0,0,0,0,0,0,0,-1,1728,1464,15.8052,-0.670145
511,-440,17.5754,2.77832,0,0,0,0,0,0,0,-1,1735,1464,17.5754,-2.77826
518,-440,16.9017,3.07861,0,0,0,0,0,0,0,-1,1742,1464,16.9018,-3.07859
525,-440,18.4495,12.0867,0,0,0,0,0,0,0,-1,1749,1464,18.4495,-12.0867
532,-440,15.4319,3.64392,0,0,0,0,0,0,0,-1,1756,1464,15.4318,-3.64391
539,-440,14.8214,3.41321,0,0,0,0,0,0,0,-1,1763,1464,14.8214,-3.4132
546,-440,14.8651,10.7683,0,0,0,0,0,0,0,-1,1770,1464,14.8651,-10.7683
553,-440,15.1213,11.4121,0,0,0,0,0,0,0,-1,1777,1464,15.1213,-11.4121
560,-440,17.4325,12.5394,0,0,0,0,0,0,0,-1,1784,1464,17.4325,-12.5394
567,-440,16.9025,12.4249,0,0,0,0,0,0,0,-1,1791,1464,16.9025,-12.425
574,-440,19.2841,14.8679,0,0,0,0,0,0,0,-1,1798,1464,19.2841,-14.868
581,-440,26.4432,21.3477,0,0,0,0,0,0,0,-1,1805,1464,26.4432,-21.3476
588,-440,36.3864,29.2449,0,0,0,0,0,0,0,-1,1812,1464,36.3864,-29.2449
595,-440,36.4341,28.2499,0.00511622,0.00244726,-0.00322956,0.00727614,0.000287335,-0.589478,0.00475788,0.0343418,1819,1464,36.434,-28.2499
602,-440,36.5239,27.2865,0.00387941,0.00177854,-0.00236939,0.00542077,0.000237172,-0.57675,0.00353744,0.0202695,1826,1464,36.5239,-27.2865
609,-440,36.4662,26.4622,0.00295758,0.00121246,-0.0016644,0.00396427,0.000205769,-0.543969,0.002577,0.0177652,1833,1464,36.4662,-26.4622
616,-440,36.4221,25.6674,0.00221093,0.00067458,-0.0010282,0.00272622,0.000159286,-0.464576,0.00176678,0.0191512,1840,1464,36.4221,-25.6673
623,-440,36.3645,24.8005,0.00184428,0.000327605,-0.000581657,0.00204166,0.000130223,-0.327151,0.00131984,0.0150932,1847,1464,36.3646,-24.8005
630,-440,36.3093,23.9214,0.00178832,-4.29544e-05,-0.000261467,0.00182492,-7.95546e-05,-0.139077,0.00124398,0.0131935,1854,1464,36.3093,-23.9213
637,-440,36.2854,23.1094,0.00188313,-0.000313386,-2.15663e-05,0.00188334,-0.000313598,-0.00981716,0.00137209,0.0184203,1861,1464,36.2854,-23.1094
644,-440,36.2595,22.2834,0.0022004,-0.000425015,4.3652e-05,0.00220112,-0.000425741,0.0166206,0.00162799,0.0173433,1868,1464,36.2596,-22.2834
651,-440,36.2507,21.3643,0.00284241,-0.000327755,-0.000165657,0.00285104,-0.000336388,-0.0520659,0.00202217,0.0277152,1875,1464,36.2508,-21.3642
658,-440,36.3055,20.3094,0,0,0,0,0,0,0,-1,1882,1464,36.3055,-20.3095
665,-440,24.2067,12.5813,0,0,0,0,0,0,0,-1,1889,1464,24.2067,-12.5813
672,-440,18.9385,9.6394,0,0,0,0,0,0,0,-1,1896,1464,18.9384,-9.63939
679,-440,16.9508,10.2336,0,0,0,0,0,0,0,-1,1903,1464,16.9508,-10.2337
686,-440,15.2556,8.44177,0,0,0,0,0,0,0,-1,1910,1464,15.2556,-8.44177
693,-440,9.88635,2.89795,0,0,0,0,0,0,0,-1,1917,1464,9.88638,-2.89798
700,-440,7.07825,-2.62061,0,0,0,0,0,0,0,-1,1924,1464,7.07829,2.62057
707,-440,0,0,0,0,0,0,0,0,0,-1,1931,1464,0,0
714,-440,0,0,0,0,0,0,0,0,0,-1,1938,1464,0,0
721,-440,0,0,0,0,0,0,0,0,0,-1,1945,1464,0,0
728,-440,0,0,0,0,0,0,0,0,0,-1,1952,1464,0,0
735,-440,0,0,0,0,0,0,0,0,0,-1,1959,1464,0,0
742,-440,0,0,0,0,0,0,0,0,0,-1,1966,1464,0,0
749,-440,0,0,0,0,0,0,0,0,0,-1,1973,1464,0,0
756,-440,0,0,0,0,0,0,0,0,0,-1,1980,1464,0,0
763,-440,0,0,0,0,0,0,0,0,0,-1,1987,1464,0,0
770,-440,0,0,0,0,0,0,0,0,0,-1,1994,1464,0,0
777,-440,0,0,0,0,0,0,0,0,0,-1,2001,1464,0,0
784,-440,0,0,0,0,0,0,0,0,0,-1,2008,1464,0,0
791,-440,0,0,0,0,0,0,0,0,0,-1,2015,1464,0,0
798,-440,0,0,0,0,0,0,0,0,0,-1,2022,1464,0,0
805,-440,0,0,0,0,0,0,0,0,0,-1,2029,1464,0,0
812,-440,0,0,0,0,0,0,0,0,0,-1,2036,1464,0,0
-700,-447,0,0,0,0,0,0,0,0,0,-1,524,1471,0,0
-693,-447,0,0,0,0,0,0,0,0,0,-1,531,1471,0,0
-686,-447,0,0,0,0,0,0,0,0,0,-1,538,1471,0,0
-679,-447,0,0,0,0,0,0,0,0,0,-1,545,1471,0,0
-672,-447,0,0,0,0,0,0,0,0,0,-1,552,1471,0,0
-665,-447,0,0,0,0,0,0,0,0,0,-1,559,1471,0,0
-658,-447,0,0,0,0,0,0,0,0,0,-1,566,1471,0,0
-651,-447,0,0,0,0,0,0,0,0,0,-1,573,1471,0,0
-644,-447,0,0,0,0,0,0,0,0,0,-1,580,1471,0,0
-637,-447,0,0,0,0,0,0,0,0,0,-1,587,1471,0,0
-630,-447,0,0,0,0,0,0,0,0,0,-1,594,1471,0,0
-623,-447,0,0,0,0,0,0,0,0,0,-1,601,1471,0,0
-616,-447,0,0,0,0,0,0,0,0,0,-1,608,1471,0,0
-609,-447,0,0,0,0,0,0,0,0,0,-1,615,1471,0,0
-602,-447,0,0,0,0,0,0,0,0,0,-1,622,1471,0,0
-595,-447,0,0,0,0,0,0,0,0,0,-1,629,1471,0,0
-588,-447,0,0,0,0,0,0,0,0,0,-1,636,1471,0,0
-581,-447,-7.06482,-1.50476,0,0,0,0,0,0,0,-1,643,1471,-7.0648,1.50474
-574,-447,-6.88092,-0.00585938,0,0,0,0,0,0,0,-1,650,1471,-6.88095,0.00589852
-567,-447,-6.8205,-1.32178,0,0,0,0,0,0,0,-1,657,1471,-6.82047,1.32172
-560,-447,-8.85748,2.80774,0,0,0,0,0,0,0,-1,664,1471,-8.85748,-2.80775
-553,-447,-7.60486,3.26794,0,0,0,0,0,0,0,-1,671,1471,-7.60487,-3.26799
-546,-447,-3.94501,1.8656,0,0,0,0,0,0,0,-1,678,1471,-3.945,-1.86554
-539,-447,-5.35492,4.50024,0,0,0,0,0,0,0,-1,685,1471,-5.35492,-4.50018
-532,-447,-6.12781,8.81091,0,0,0,0,0,0,0,-1,692,1471,-6.12781,-8.81094
-525,-447,-9.44501,12.098,0,0,0,0,0,0,0,-1,699,1471,-9.44502,-12.098
-518,-447,-17.7728,21.4355,0,0,0,0,0,0,0,-1,706,1471,-17.7728,-21.4355
-511,-447,-17.7361,22.4088,0.00322883,0.00563886,0.00479947,0.00938228,-0.000514579,0.908392,0.00643324,0.0320018,713,1471,-17.7361,-22.4088
-504,-447,-17.7684,23.4132,0.00269608,0.00428185,0.00369368,0.00726678,-0.000288852,0.891123,0.00494362,0.0210534,720,1471,-17.7685,-23.4132
-497,-447,-17.9142,24.2843,0.00222982,0.00313533,0.00273198,0.00545182,-8.66647e-05,0.867514,0.00366377,0.0249553,727,1471,-17.9142,-24.2844
-490,-447,-17.9501,25.0389,0.00183512,0.00220501,0.00191516,0.00394413,9.59934e-05,0.833534,0.00259801,0.0257862,734,1471,-17.9501,-25.0389
-483,-447,-17.9436,25.9252,0.00158197,0.00151919,0.00129038,0.00284134,0.000259818,0.773238,0.00181384,0.0236519,741,1471,-17.9436,-25.9251
-476,-447,-17.9764,26.8184,0.00137531,0.00105193,0.000832227,0.00206141,0.000365828,0.68945,0.00127001,0.0152223,748,1471,-17.9764,-26.8183
-469,-447,-18.0319,27.7072,0.00125845,0.000882371,0.000553295,0.00165479,0.000486035,0.621595,0.000982121,0.0134577,755,1471,-18.0319,-27.7071
-462,-447,-18.0994,28.5686,0.00132687,0.00101557,0.000517293,0.00171143,0.00063102,0.639259,0.000999383,0.0142541,762,1471,-18.0994,-28.5687
-455,-447,-18.1492,29.4424,0.00156899,0.0014951,0.000747165,0.00228012,0.00078397,0.760696,0.00133766,0.0279459,769,1471,-18.1492,-29.4424
-448,-447,-18.0654,30.4972,0,0,0,0,0,0,0,-1,776,1471,-18.0654,-30.4972
-441,-447,-8.68506,19.0931,0,0,0,0,0,0,0,-1,783,1471,-8.68504,-19.0932
-434,-447,-7.43402,15.6273,0,0,0,0,0,0,0,-1,790,1471,-7.43404,-15.6274
-427,-447,-7.21832,14.691,0,0,0,0,0,0,0,-1,797,1471,-7.21834,-14.6911
-420,-447,-8.0545,12.8055,0,0,0,0,0,0,0,-1,804,1471,-8.05452,-12.8055
-413,-447,-4.27393,6.59705,0,0,0,0,0,0,0,-1,811,1471,-4.27392,-6.59707
-406,-447,-1.04279,6.18591,0,0,0,0,0,0,0,-1,818,1471,-1.04276,-6.18586
-399,-447,0.0134888,0.687622,0,0,0,0,0,0,0,-1,825,1471,0.0134841,-0.68767
-392,-447,-14.0646,3.76147,0,0,0,0,0,0,0,-1,832,1471,-14.0646,-3.7615
-385,-447,-15.1695,2.61865,0,0,0,0,0,0,0,-1,839,1471,-15.1695,-2.61871
-378,-447,-15.9424,1.49316,0,0,0,0,0,0,0,-1,846,1471,-15.9424,-1.49313
-371,-447,-17.3655,0.73291,0,0,0,0,0,0,0,-1,853,1471,-17.3655,-0.732946
-364,-447,0,0,0,0,0,0,0,0,0,-1,860,1471,0,0
-357,-447,0,0,0,0,0,0,0,0,0,-1,867,1471,0,0
-350,-447,0,0,0,0,0,0,0,0,0,-1,874,1471,0,0
-343,-447,0,0,0,0,0,0,0,0,0,-1,881,1471,0,0
-336,-447,0,0,0,0,0,0,0,0,0,-1,888,1471,0,0
-329,-447,0,0,0,0,0,0,0,0,0,-1,895,1471,0,0
-322,-447,0,0,0,0,0,0,0,0,0,-1,902,1471,0,0
-315,-447,0,0,0,0,0,0,0,0,0,-1,909,1471,0,0
-308,-447,0,0,0,0,0,0,0,0,0,-1,916,1471,0,0
-301,-447,0,0,0,0,0,0,0,0,0,-1,923,1471,0,0
-294,-447,0,0,0,0,0,0,0,0,0,-1,930,1471,0,0
-287,-447,0,0,0,0,0,0,0,0,0,-1,937,1471,0,0
-280,-447,0,0,0,0,0,0,0,0,0,-1,944,1471,0,0
-273,-447,0,0,0,0,0,0,0,0,0,-1,951,1471,0,0
-266,-447,0,0,0,0,0,0,0,0,0,-1,958,1471,0,0
-259,-447,0,0,0,0,0,0,0,0,0,-1,965,1471,0,0
-252,-447,0,0,0,0,0,0,0,0,0,-1,972,1471,0,0
-245,-447,0,0,0,0,0,0,0,0,0,-1,979,1471,0,0
-238,-447,0,0,0,0,0,0,0,0,0,-1,986,1471,0,0
-231,-447,0,0,0,0,0,0,0,0,0,-1,993,1471,0,0
-224,-447,0,0,0,0,0,0,0,0,0,-1,1000,1471,0,0
-217,-447,0,0,0,0,0,0,0,0,0,-1,1007,1471,0,0
-210,-447,0,0,0,0,0,0,0,0,0,-1,1014,1471,0,0
-203,-447,0,0,0,0,0,0,0,0,0,-1,1021,1471,0,0
-196,-447,0,0,0,0,0,0,0,0,0,-1,1028,1471,0,0
-189,-447,0,0,0,0,0,0,0,0,0,-1,1035,1471,0,0
-182,-447,0,0,0,0,0,0,0,0,0,-1,1042,1471,0,0
-175,-447,0,0,0,0,0,0,0,0,0,-1,1049,1471,0,0
-168,-447,0,0,0,0,0,0,0,0,0,-1,1056,1471,0,0
-161,-447,0,0,0,0,0,0,0,0,0,-1,1063,1471,0,0
-154,-447,0,0,0,0,0,0,0,0,0,-1,1070,1471,0,0
-147,-447,0,0,0,0,0,0,0,0,0,-1,1077,1471,0,0
-140,-447,0,0,0,0,0,0,0,0,0,-1,1084,1471,0,0
-133,-447,0,0,0,0,0,0,0,0,0,-1,1091,1471,0,0
-126,-447,0,0,0,0,0,0,0,0,0,-1,1098,1471,0,0
-119,-447,0,0,0,0,0,0,0,0,0,-1,1105,1471,0,0
-112,-447,0,0,0,0,0,0,0,0,0,-1,1112,1471,0,0
-105,-447,0,0,0,0,0,0,0,0,0,-1,1119,1471,0,0
-98,-447,0,0,0,0,0,0,0,0,0,-1,1126,1471,0,0
-91,-447,0,0,0,0,0,0,0,0,0,-1,1133,1471,0,0
-84,-447,0,0,0,0,0,0,0,0,0,-1,1140,1471,0,0
-77,-447,0,0,0,0,0,0,0,0,0,-1,1147,1471,0,0
-70,-447,0,0,0,0,0,0,0,0,0,-1,1154,1471,0,0
-63,-447,0,0,0,0,0,0,0,0,0,-1,1161,1471,0,0
-56,-447,0,0,0,0,0,0,0,0,0,-1,1168,1471,0,0
-49,-447,0,0,0,0,0,0,0,0,0,-1,1175,1471,0,0
-42,-447,0,0,0,0,0,0,0,0,0,-1,1182,1471,0,0
-35,-447,0,0,0,0,0,0,0,0,0,-1,1189,1471,0,0
-28,-447,0,0,0,0,0,0,0,0,0,-1,1196,1471,0,0
-21,-447,0,0,0,0,0,0,0,0,0,-1,1203,1471,0,0
-14,-447,0,0,0,0,0,0,0,0,0,-1,1210,1471,0,0
-7,-447,0,0,0,0,0,0,0,0,0,-1,1217,1471,0,0
0,-447,0,0,0,0,0,0,0,0,0,-1,1224,1471,0,0
7,-447,0,0,0,0,0,0,0,0,0,-1,1231,1471,0,0
14,-447,0,0,0,0,0,0,0,0,0,-1,1238,1471,0,0
21,-447,0,0,0,0,0,0,0,0,0,-1,1245,1471,0,0
28,-447,0,0,0,0,0,0,0,0,0,-1,1252,1471,0,0
35,-447,0,0,0,0,0,0,0,0,0,-1,1259,1471,0,0
42,-447,0,0,0,0,0,0,0,0,0,-1,1266,1471,0,0
49,-447,0,0,0,0,0,0,0,0,0,-1,1273,1471,0,0
56,-447,0,0,0,0,0,0,0,0,0,-1,1280,1471,0,0
63,-447,0,0,0,0,0,0,0,0,0,-1,1287,1471,0,0
70,-447,0,0,0,0,0,0,0,0,0,-1,1294,1471,0,0
77,-447,0,0,0,0,0,0,0,0,0,-1,1301,1471,0,0
84,-447,0,0,0,0,0,0,0,0,0,-1,1308,1471,0,0
91,-447,0,0,0,0,0,0,0,0,0,-1,1315,1471,0,0
98,-447,0,0,0,0,0,0,0,0,0,-1,1322,1471,0,0
105,-447,0,0,0,0,0,0,0,0,0,-1,1329,1471,0,0
112,-447,0,0,0,0,0,0,0,0,0,-1,1336,1471,0,0
119,-447,0,0,0,0,0,0,0,0,0,-1,1343,1471,0,0
126,-447,0,0,0,0,0,0,0,0,0,-1,1350,1471,0,0
133,-447,0,0,0,0,0,0,0,0,0,-1,1357,1471,0,0
140,-447,0,0,0,0,0,0,0,0,0,-1,1364,1471,0,0
147,-447,0,0,0,0,0,0,0,0,0,-1,1371,1471,0,0
154,-447,0,0,0,0,0,0,0,0,0,-1,1378,1471,0,0
161,-447,0,0,0,0,0,0,0,0,0,-1,1385,1471,0,0
168,-447,0,0,0,0,0,0,0,0,0,-1,1392,1471,0,0
175,-447,0,0,0,0,0,0,0,0,0,-1,1399,1471,0,0
182,-447,0,0,0,0,0,0,0,0,0,-1,1406,1471,0,0
189,-447,0,0,0,0,0,0,0,0,0,-1,1413,1471,0,0
196,-447,0,0,0,0,0,0,0,0,0,-1,1420,1471,0,0
203,-447,0,0,0,0,0,0,0,0,0,-1,1427,1471,0,0
210,-447,0,0,0,0,0,0,0,0,0,-1,1434,1471,0,0
217,-447,0,0,0,0,0,0,0,0,0,-1,1441,1471,0,0
224,-447,0,0,0,0,0,0,0,0,0,-1,1448,1471,0,0
231,-447,0,0,0,0,0,0,0,0,0,-1,1455,1471,0,0
238,-447,0,0,0,0,0,0,0,0,0,-1,1462,1471,0,0
245,-447,0,0,0,0,0,0,0,0,0,-1,1469,1471,0,0
252,-447,0,0,0,0,0,0,0,0,0,-1,1476,1471,0,0
259,-447,0,0,0,0,0,0,0,0,0,-1,1483,1471,0,0
266,-447,0,0,0,0,0,0,0,0,0,-1,1490,1471,0,0
273,-447,0,0,0,0,0,0,0,0,0,-1,1497,1471,0,0
280,-447,0,0,0,0,0,0,0,0,0,-1,1504,1471,0,0
287,-447,0,0,0,0,0,0,0,0,0,-1,1511,1471,0,0
294,-447,0,0,0,0,0,0,0,0,0,-1,1518,1471,0,0
301,-447,0,0,0,0,0,0,0,0,0,-1,1525,1471,0,0
308,-447,0,0,0,0,0,0,0,0,0,-1,1532,1471,0,0
315,-447,0,0,0,0,0,0,0,0,0,-1,1539,1471,0,0
322,-447,0,0,0,0,0,0,0,0,0,-1,1546,1471,0,0
329,-447,0,0,0,0,0,0,0,0,0,-1,1553,1471,0,0
336,-447,0,0,0,0,0,0,0,0,0,-1,1560,1471,0,0
343,-447,0,0,0,0,0,0,0,0,0,-1,1567,1471,0,0
350,-447,0,0,0,0,0,0,0,0,0,-1,1574,1471,0,0
357,-447,0,0,0,0,0,0,0,0,0,-1,1581,1471,0,0
364,-447,0,0,0,0,0,0,0,0,0,-1,1588,1471,0,0
371,-447,0,0,0,0,0,0,0,0,0,-1,1595,1471,0,0
378,-447,0,0,0,0,0,0,0,0,0,-1,1602,1471,0,0
385,-447,0,0,0,0,0,0,0,0,0,-1,1609,1471,0,0
392,-447,0,0,0,0,0,0,0,0,0,-1,1616,1471,0,0
399,-447,0,0,0,0,0,0,0,0,0,-1,1623,1471,0,0
406,-447,0,0,0,0,0,0,0,0,0,-1,1630,1471,0,0
413,-447,0,0,0,0,0,0,0,0,0,-1,1637,1471,0,0
420,-447,0,0,0,0,0,0,0,0,0,-1,1644,1471,0,0
427,-447,0,0,0,0,0,0,0,0,0,-1,1651,1471,0,0
434,-447,0,0,0,0,0,0,0,0,0,-1,1658,1471,0,0
441,-447,0,0,0,0,0,0,0,0,0,-1,1665,1471,0,0
448,-447,0,0,0,0,0,0,0,0,0,-1,1672,1471,0,0
455,-447,0,0,0,0,0,0,0,0,0,-1,1679,1471,0,0
462,-447,0,0,0,0,0,0,0,0,0,-1,1686,1471,0,0
469,-447,0,0,0,0,0,0,0,0,0,-1,1693,1471,0,0
476,-447,0,0,0,0,0,0,0,0,0,-1,1700,1471,0,0
483,-447,0,0,0,0,0,0,0,0,0,-1,1707,1471,0,0
490,-447,18.2214,-0.810303,0,0,0,0,0,0,0,-1,1714,1471,18.2215,0.810307
497,-447,17.0237,0.352417,0,0,0,0,0,0,0,-1,1721,1471,17.0237,-0.352442
504,-447,15.8998,1.53479,0,0,0,0,0,0,0,-1,1728,1471,15.8997,-1.53478
511,-447,14.7201,2.76111,0,0,0,0,0,0,0,-1,1735,1471,14.7201,-2.76107
518,-447,17.7618,13.2864,0,0,0,0,0,0,0,-1,1742,1471,17.7619,-13.2863
525,-447,17.1191,11.9014,0,0,0,0,0,0,0,-1,1749,1471,17.1191,-11.9013
532,-447,16.3959,10.0455,0,0,0,0,0,0,0,-1,1756,1471,16.3959,-10.0456
539,-447,14.1699,10.0204,0,0,0,0,0,0,0,-1,1763,1471,14.1699,-10.0204
546,-447,16.3715,11.8046,0,0,0,0,0,0,0,-1,1770,1471,16.3714,-11.8046
553,-447,17.5106,13.4012,0,0,0,0,0,0,0,-1,1777,1471,17.5107,-13.4012
560,-447,17.0187,13.168,0,0,0,0,0,0,0,-1,1784,1471,17.0187,-13.168
567,-447,18.9286,15.1703,0,0,0,0,0,0,0,-1,1791,1471,18.9286,-15.1703
574,-447,32.1848,27.6504,0,0,0,0,0,0,0,-1,1798,1471,32.1848,-27.6503
581,-447,35.4774,30.0437,0,0,0,0,0,0,0,-1,1805,1471,35.4774,-30.0437
588,-447,35.6915,29.1147,0.00643139,0.00267019,-0.0034979,0.00852218,0.000579399,-0.538747,0.0054985,0.0416467,1812,1471,35.6916,-29.1148
595,-447,35.6992,28.2177,0.00477378,0.00211428,-0.00277081,0.0065174,0.000370661,-0.561673,0.0042268,0.0146095,1819,1471,35.6992,-28.2177
602,-447,35.6548,27.3331,0.00359786,0.00147216,-0.00200024,0.00480009,0.000269922,-0.541188,0.00311399,0.0123103,1826,1471,35.6547,-27.3332
609,-447,35.6029,26.4976,0.00273791,0.000969362,-0.00133916,0.00345841,0.000248867,-0.4936,0.00222729,0.0135166,1833,1471,35.6029,-26.4975
616,-447,35.5732,25.6685,0.00205613,0.000479025,-0.000726411,0.00233972,0.000195436,-0.372202,0.00149892,0.0162145,1840,1471,35.5732,-25.6684
623,-447,35.5192,24.8298,0.00175176,0.000142774,-0.000267595,0.0017951,9.94369e-05,-0.160557,0.001165,0.0190164,1847,1471,35.5191,-24.8298
630,-447,35.4628,24.0026,0.00172666,-0.000228855,0.000115426,0.00173345,-0.000235644,0.058754,0.00124166,0.0112275,1854,1471,35.4627,-24.0026
637,-447,35.4431,23.1417,0.00184251,-0.000513381,0.000438699,0.00192155,-0.000592421,0.178256,0.00151756,0.0118903,1861,1471,35.4432,-23.1417
644,-447,35.4193,22.2998,0.00215716,-0.000640872,0.000604795,0.00228229,-0.000766002,0.204019,0.00183107,0.0140123,1868,1471,35.4193,-22.2999
651,-447,35.5402,21.2504,0,0,0,0,0,0,0,-1,1875,1471,35.5402,-21.2504
658,-447,30.2566,16.5862,0,0,0,0,0,0,0,-1,1882,1471,30.2566,-16.5862
665,-447,18.4946,9.79919,0,0,0,0,0,0,0,-1,1889,1471,18.4946,-9.79922
672,-447,18.9784,9.66077,0,0,0,0,0,0,0,-1,1896,1471,18.9784,-9.66081
679,-447,14.844,7.4248,0,0,0,0,0,0,0,-1,1903,1471,14.844,-7.42477
686,-447,9.81079,4.30859,0,0,0,0,0,0,0,-1,1910,1471,9.8108,-4.30864
693,-447,10.48,2.08643,0,0,0,0,0,0,0,-1,1917,1471,10.48,-2.08642
700,-447,0,0,0,0,0,0,0,0,0,-1,1924,1471,0,0
707,-447,0,0,0,0,0,0,0,0,0,-1,1931,1471,0,0
714,-447,0,0,0,0,0,0,0,0,0,-1,1938,1471,0,0
721,-447,0,0,0,0,0,0,0,0,0,-1,1945,1471,0,0
728,-447,0,0,0,0,0,0,0,0,0,-1,1952,1471,0,0
735,-447,0,0,0,0,0,0,0,0,0,-1,1959,1471,0,0
742,-447,0,0,0,0,0,0,0,0,0,-1,1966,1471,0,0
749,-447,0,0,0,0,0,0,0,0,0,-1,1973,1471,0,0
756,-447,0,0,0,0,0,0,0,0,0,-1,1980,1471,0,0
763,-447,0,0,0,0,0,0,0,0,0,-1,1987,1471,0,0
770,-447,0,0,0,0,0,0,0,0,0,-1,1994,1471,0,0
777,-447,0,0,0,0,0,0,0,0,0,-1,2001,1471,0,0
784,-447,0,0,0,0,0,0,0,0,0,-1,2008,1471,0,0
791,-447,0,0,0,0,0,0,0,0,0,-1,2015,1471,0,0
798,-447,0,0,0,0,0,0,0,0,0,-1,2022,1471,0,0
805,-447,0,0,0,0,0,0,0,0,0,-1,2029,1471,0,0
812,-447,0,0,0,0,0,0,0,0,0,-1,2036,1471,0,0
-700,-454,0,0,0,0,0,0,0,0,0,-1,524,1478,0,0
-693,-454,0,0,0,0,0,0,0,0,0,-1,531,1478,0,0
-686,-454,0,0,0,0,0,0,0,0,0,-1,538,1478,0,0
-679,-454,0,0,0,0,0,0,0,0,0,-1,545,1478,0,0
-672,-454,0,0,0,0,0,0,0,0,0,-1,552,1478,0,0
-665,-454,0,0,0,0,0,0,0,0,0,-1,559,1478,0,0
-658,-454,0,0,0,0,0,0,0,0,0,-1,566,1478,0,0
-651,-454,0,0,0,0,0,0,0,0,0,-1,573,1478,0,0
-644,-454,0,0,0,0,0,0,0,0,0,-1,580,1478,0,0
-637,-454,0,0,0,0,0,0,0,0,0,-1,587,1478,0,0
-630,-454,0,0,0,0,0,0,0,0,0,-1,594,1478,0,0
-623,-454,0,0,0,0,0,0,0,0,0,-1,601,1478,0,0
-616,-454,0,0,0,0,0,0,0,0,0,-1,608,1478,0,0
-609,-454,0,0,0,0,0,0,0,0,0,-1,615,1478,0,0
-602,-454,0,0,0,0,0,0,0,0,0,-1,622,1478,0,0
-595,-454,0,0,0,0,0,0,0,0,0,-1,629,1478,0,0
-588,-454,0,0,0,0,0,0,0,0,0,-1,636,1478,0,0
-581,-454,0,0,0,0,0,0,0,0,0,-1,643,1478,0,0
-574,-454,-8.4881,-0.465942,0,0,0,0,0,0,0,-1,650,1478,-8.4881,0.465885
-567,-454,-8.10046,0.922974,0,0,0,0,0,0,0,-1,657,1478,-8.10047,-0.923034
-560,-454,-10.656,3.51172,0,0,0,0,0,0,0,-1,664,1478,-10.656,-3.51176
-553,-454,-9.01129,3.95251,0,0,0,0,0,0,0,-1,671,1478,-9.0113,-3.95256
-546,-454,-9.61896,6.05237,0,0,0,0,0,0,0,-1,678,1478,-9.61897,-6.05239
-539,-454,-7.72589,4.96533,0,0,0,0,0,0,0,-1,685,1478,-7.72592,-4.96532
-532,-454,-7.03931,7.59985,0,0,0,0,0,0,0,-1,692,1478,-7.03929,-7.59981
-525,-454,-5.78723,9.677,0,0,0,0,0,0,0,-1,699,1478,-5.78722,-9.67703
-518,-454,-9.82098,13.8295,0,0,0,0,0,0,0,-1,706,1478,-9.82098,-13.8295
-511,-454,-16.9838,22.3754,0,0,0,0,0,0,0,-1,713,1478,-16.9838,-22.3754
-504,-454,-16.948,23.4039,0.0031723,0.00524135,0.00460272,0.00892438,-0.000510724,0.895943,0.00612693,0.0225287,720,1478,-16.948,-23.404
-497,-454,-17.0151,24.3607,0.00264402,0.00386877,0.00347516,0.00678509,-0.000272303,0.87261,0.00461684,0.0192857,727,1478,-17.0151,-24.3607
-490,-454,-17.0391,25.1764,0.00218845,0.00277637,0.0025259,0.00502536,-6.05388e-05,0.843326,0.0033706,0.0184258,734,1478,-17.0391,-25.1763
-483,-454,-17.0846,26.0255,0.0018254,0.00192818,0.00175769,0.00363523,0.000118352,0.800013,0.00238502,0.0168441,741,1478,-17.0846,-26.0256
-476,-454,-17.1475,26.8973,0.00153038,0.00136087,0.00119364,0.00264227,0.000248979,0.749957,0.00168467,0.0141737,748,1478,-17.1474,-26.8974
-469,-454,-17.1898,27.7627,0.00133178,0.00111993,0.000822258,0.00205491,0.000396801,0.72134,0.00125869,0.0103989,755,1478,-17.1898,-27.7627
-462,-454,-17.259,28.6395,0.00131297,0.00118706,0.000701085,0.00195392,0.000546106,0.740618,0.00116409,0.011542,762,1478,-17.259,-28.6396
-455,-454,-17.3087,29.5104,0.00147729,0.00159402,0.000847766,0.00238543,0.000685884,0.819768,0.00141807,0.0136737,769,1478,-17.3087,-29.5103
-448,-454,-17.2959,30.3966,0.00180148,0.00235607,0.0013098,0.00341761,0.000739941,0.889711,0.00207618,0.0279748,776,1478,-17.2959,-30.3967
-441,-454,-17.1039,31.4249,0,0,0,0,0,0,0,-1,783,1478,-17.104,-31.4249
-434,-454,-7.55743,19.4857,0,0,0,0,0,0,0,-1,790,1478,-7.55746,-19.4858
-427,-454,-6.00183,15.8636,0,0,0,0,0,0,0,-1,797,1478,-6.00184,-15.8637
-420,-454,-6.28088,15.2135,0,0,0,0,0,0,0,-1,804,1478,-6.28087,-15.2135
-413,-454,-5.4408,13.674,0,0,0,0,0,0,0,-1,811,1478,-5.44079,-13.6739
-406,-454,-2.38208,10.0308,0,0,0,0,0,0,0,-1,818,1478,-2.38209,-10.0308
-399,-454,-1.21033,6.95447,0,0,0,0,0,0,0,-1,825,1478,-1.21035,-6.95452
-392,-454,0.0967407,0.985474,0,0,0,0,0,0,0,-1,832,1478,0.0967364,-0.985529
-385,-454,2.38629,3.297,0,0,0,0,0,0,0,-1,839,1478,2.38629,-3.29702
-378,-454,-15.9756,2.83997,0,0,0,0,0,0,0,-1,846,1478,-15.9756,-2.83994
-371,-454,-17.2753,2.01453,0,0,0,0,0,0,0,-1,853,1478,-17.2753,-2.01455
-364,-454,1.08124,0.819458,0,0,0,0,0,0,0,-1,860,1478,1.08124,-0.819513
-357,-454,0,0,0,0,0,0,0,0,0,-1,867,1478,0,0
-350,-454,0,0,0,0,0,0,0,0,0,-1,874,1478,0,0
-343,-454,0,0,0,0,0,0,0,0,0,-1,881,1478,0,0
-336,-454,0,0,0,0,0,0,0,0,0,-1,888,1478,0,0
-329,-454,0,0,0,0,0,0,0,0,0,-1,895,1478,0,0
-322,-454,0,0,0,0,0,0,0,0,0,-1,902,1478,0,0
-315,-454,0,0,0,0,0,0,0,0,0,-1,909,1478,0,0
-308,-454,0,0,0,0,0,0,0,0,0,-1,916,1478,0,0
-301,-454,0,0,0,0,0,0,0,0,0,-1,923,1478,0,0
-294,-454,0,0,0,0,0,0,0,0,0,-1,930,1478,0,0
-287,-454,0,0,0,0,0,0,0,0,0,-1,937,1478,0,0
-280,-454,0,0,0,0,0,0,0,0,0,-1,944,1478,0,0
-273,-454,0,0,0,0,0,0,0,0,0,-1,951,1478,0,0
-266,-454,0,0,0,0,0,0,0,0,0,-1,958,1478,0,0
-259,-454,0,0,0,0,0,0,0,0,0,-1,965,1478,0,0
-252,-454,0,0,0,0,0,0,0,0,0,-1,972,1478,0,0
-245,-454,0,0,0,0,0,0,0,0,0,-1,979,1478,0,0
-238,-454,0,0,0,0,0,0,0,0,0,-1,986,1478,0,0
-231,-454,0,0,0,0,0,0,0,0,0,-1,993,1478,0,0
-224,-454,0,0,0,0,0,0,0,0,0,-1,1000,1478,0,0
-217,-454,0,0,0,0,0,0,0,0,0,-1,1007,1478,0,0
-210,-454,0,0,0,0,0,0,0,0,0,-1,1014,1478,0,0
-203,-454,0,0,0,0,0,0,0,0,0,-1,1021,1478,0,0
-196,-454,0,0,0,0,0,0,0,0,0,-1,1028,1478,0,0
-189,-454,0,0,0,0,0,0,0,0,0,-1,1035,1478,0,0
-182,-454,0,0,0,0,0,0,0,0,0,-1,1042,1478,0,0
-175,-454,0,0,0,0,0,0,0,0,0,-1,1049,1478,0,0
-168,-454,0,0,0,0,0,0,0,0,0,-1,1056,1478,0,0
-161,-454,0,0,0,0,0,0,0,0,0,-1,1063,1478,0,0
-154,-454,0,0,0,0,0,0,0,0,0,-1,1070,1478,0,0
-147,-454,0,0,0,0,0,0,0,0,0,-1,1077,1478,0,0
-140,-454,0,0,0,0,0,0,0,0,0,-1,1084,1478,0,0
-133,-454,0,0,0,0,0,0,0,0,0,-1,1091,1478,0,0
-126,-454,0,0,0,0,0,0,0,0,0,-1,1098,1478,0,0
-119,-454,0,0,0,0,0,0,0,0,0,-1,1105,1478,0,0
-112,-454,0,0,0,0,0,0,0,0,0,-1,1112,1478,0,0
-105,-454,0,0,0,0,0,0,0,0,0,-1,1119,1478,0,0
-98,-454,0,0,0,0,0,0,0,0,0,-1,1126,1478,0,0
-91,-454,0,0,0,0,0,0,0,0,0,-1,1133,1478,0,0
-84,-454,0,0,0,0,0,0,0,0,0,-1,1140,1478,0,0
-77,-454,0,0,0,0,0,0,0,0,0,-1,1147,1478,0,0
-70,-454,0,0,0,0,0,0,0,0,0,-1,1154,1478,0,0
-63,-454,0,0,0,0,0,0,0,0,0,-1,1161,1478,0,0
-56,-454,0,0,0,0,0,0,0,0,0,-1,1168,1478,0,0
-49,-454,0,0,0,0,0,0,0,0,0,-1,1175,1478,0,0
-42,-454,0,0,0,0,0,0,0,0,0,-1,1182,1478,0,0
-35,-454,0,0,0,0,0,0,0,0,0,-1,1189,1478,0,0
-28,-454,0,0,0,0,0,0,0,0,0,-1,1196,1478,0,0
-21,-454,0,0,0,0,0,0,0,0,0,-1,1203,1478,0,0
-14,-454,0,0,0,0,0,0,0,0,0,-1,1210,1478,0,0
-7,-454,0,0,0,0,0,0,0,0,0,-1,1217,1478,0,0
0,-454,0,0,0,0,0,0,0,0,0,-1,1224,1478,0,0
7,-454,0,0,0,0,0,0,0,0,0,-1,1231,1478,0,0
14,-454,0,0,0,0,0,0,0,0,0,-1,1238,1478,0,0
21,-454,0,0,0,0,0,0,0,0,0,-1,1245,1478,0,0
28,-454,0,0,0,0,0,0,0,0,0,-1,1252,1478,0,0
35,-454,0,0,0,0,0,0,0,0,0,-1,1259,1478,0,0
42,-454,0,0,0,0,0,0,0,0,0,-1,1266,1478,0,0
49,-454,0,0,0,0,0,0,0,0,0,-1,1273,1478,0,0
56,-454,0,0,0,0,0,0,0,0,0,-1,1280,1478,0,0
63,-454,0,0,0,0,0,0,0,0,0,-1,1287,1478,0,0
70,-454,0,0,0,0,0,0,0,0,0,-1,1294,1478,0,0
77,-454,0,0,0,0,0,0,0,0,0,-1,1301,1478,0,0
84,-454,0,0,0,0,0,0,0,0,0,-1,1308,1478,0,0
91,-454,0,0,0,0,0,0,0,0,0,-1,1315,1478,0,0
98,-454,0,0,0,0,0,0,0,0,0,-1,1322,1478,0,0
105,-454,0,0,0,0,0,0,0,0,0,-1,1329,1478,0,0
112,-454,0,0,0,0,0,0,0,0,0,-1,1336,1478,0,0
119,-454,0,0,0,0,0,0,0,0,0,-1,1343,1478,0,0
126,-454,0,0,0,0,0,0,0,0,0,-1,1350,1478,0,0
133,-454,0,0,0,0,0,0,0,0,0,-1,1357,1478,0,0
140,-454,0,0,0,0,0,0,0,0,0,-1,1364,1478,0,0
147,-454,0,0,0,0,0,0,0,0,0,-1,1371,1478,0,0
154,-454,0,0,0,0,0,0,0,0,0,-1,1378,1478,0,0
161,-454,0,0,0,0,0,0,0,0,0,-1,1385,1478,0,0
168,-454,0,0,0,0,0,0,0,0,0,-1,1392,1478,0,0
175,-454,0,0,0,0,0,0,0,0,0,-1,1399,1478,0,0
182,-454,0,0,0,0,0,0,0,0,0,-1,1406,1478,0,0
189,-454,0,0,0,0,0,0,0,0,0,-1,1413,1478,0,0
196,-454,0,0,0,0,0,0,0,0,0,-1,1420,1478,0,0
203,-454,0,0,0,0,0,0,0,0,0,-1,1427,1478,0,0
210,-454,0,0,0,0,0,0,0,0,0,-1,1434,1478,0,0
217,-454,0,0,0,0,0,0,0,0,0,-1,1441,1478,0,0
224,-454,0,0,0,0,0,0,0,0,0,-1,1448,1478,0,0
231,-454,0,0,0,0,0,0,0,0,0,-1,1455,1478,0,0
238,-454,0,0,0,0,0,0,0,0,0,-1,1462,1478,0,0
245,-454,0,0,0,0,0,0,0,0,0,-1,1469,1478,0,0
252,-454,0,0,0,0,0,0,0,0,0,-1,1476,1478,0,0
259,-454,0,0,0,0,0,0,0,0,0,-1,1483,1478,0,0
266,-454,0,0,0,0,0,0,0,0,0,-1,1490,1478,0,0
273,-454,0,0,0,0,0,0,0,0,0,-1,1497,1478,0,0
280,-454,0,0,0,0,0,0,0,0,0,-1,1504,1478,0,0
287,-454,0,0,0,0,0,0,0,0,0,-1,1511,1478,0,0
294,-454,0,0,0,0,0,0,0,0,0,-1,1518,1478,0,0
301,-454,0,0,0,0,0,0,0,0,0,-1,1525,1478,0,0
308,-454,0,0,0,0,0,0,0,0,0,-1,1532,1478,0,0
315,-454,0,0,0,0,0,0,0,0,0,-1,1539,1478,0,0
322,-454,0,0,0,0,0,0,0,0,0,-1,1546,1478,0,0
329,-454,0,0,0,0,0,0,0,0,0,-1,1553,1478,0,0
336,-454,0,0,0,0,0,0,0,0,0,-1,1560,1478,0,0
343,-454,0,0,0,0,0,0,0,0,0,-1,1567,1478,0,0
350,-454,0,0,0,0,0,0,0,0,0,-1,1574,1478,0,0
357,-454,0,0,0,0,0,0,0,0,0,-1,1581,1478,0,0
364,-454,0,0,0,0,0,0,0,0,0,-1,1588,1478,0,0
371,-454,0,0,0,0,0,0,0,0,0,-1,1595,1478,0,0
378,-454,0,0,0,0,0,0,0,0,0,-1,1602,1478,0,0
385,-454,0,0,0,0,0,0,0,0,0,-1,1609,1478,0,0
392,-454,0,0,0,0,0,0,0,0,0,-1,1616,1478,0,0
399,-454,0,0,0,0,0,0,0,0,0,-1,1623,1478,0,0
406,-454,0,0,0,0,0,0,0,0,0,-1,1630,1478,0,0
413,-454,0,0,0,0,0,0,0,0,0,-1,1637,1478,0,0
420,-454,0,0,0,0,0,0,0,0,0,-1,1644,1478,0,0
427,-454,0,0,0,0,0,0,0,0,0,-1,1651,1478,0,0
434,-454,0,0,0,0,0,0,0,0,0,-1,1658,1478,0,0
441,-454,0,0,0,0,0,0,0,0,0,-1,1665,1478,0,0
448,-454,0,0,0,0,0,0,0,0,0,-1,1672,1478,0,0
455,-454,0,0,0,0,0,0,0,0,0,-1,1679,1478,0,0
462,-454,0,0,0,0,0,0,0,0,0,-1,1686,1478,0,0
469,-454,0,0,0,0,0,0,0,0,0,-1,1693,1478,0,0
476,-454,0,0,0,0,0,0,0,0,0,-1,1700,1478,0,0
483,-454,14.2399,3.97498,0,0,0,0,0,0,0,-1,1707,1478,14.2399,-3.97502
490,-454,18.1821,-0.175781,0,0,0,0,0,0,0,-1,1714,1478,18.1821,0.175822
497,-454,16.8854,1.01208,0,0,0,0,0,0,0,-1,1721,1478,16.8854,-1.01209
504,-454,15.587,2.05994,0,0,0,0,0,0,0,-1,1728,1478,15.5871,-2.05998
511,-454,17.0273,14.5258,0,0,0,0,0,0,0,-1,1735,1478,17.0273,-14.5258
518,-454,16.4158,13.1039,0,0,0,0,0,0,0,-1,1742,1478,16.4157,-13.1038
525,-454,15.7842,11.6628,0,0,0,0,0,0,0,-1,1749,1478,15.7841,-11.6629
532,-454,15.1094,10.2476,0,0,0,0,0,0,0,-1,1756,1478,15.1094,-10.2475
539,-454,13.7905,10.9373,0,0,0,0,0,0,0,-1,1763,1478,13.7906,-10.9372
546,-454,16.2002,13.2458,0,0,0,0,0,0,0,-1,1770,1478,16.2002,-13.2459
553,-454,15.6747,12.1868,0,0,0,0,0,0,0,-1,1777,1478,15.6747,-12.1868
560,-454,16.3895,14.0527,0,0,0,0,0,0,0,-1,1784,1478,16.3895,-14.0528
567,-454,35.1119,31.5848,0,0,0,0,0,0,0,-1,1791,1478,35.1119,-31.5848
574,-454,34.7531,31.0746,0,0,0,0,0,0,0,-1,1798,1478,34.753,-31.0746
581,-454,34.8938,29.9856,0.00762113,0.00299803,-0.00380983,0.00976582,0.000853348,-0.51272,0.00624556,0.0360686,1805,1478,34.8938,-29.9856
588,-454,34.9562,29.0686,0.00573827,0.00232849,-0.00298747,0.0074731,0.000593661,-0.526107,0.00479644,0.0155719,1812,1478,34.9562,-29.0685
595,-454,34.8633,28.2383,0.00429185,0.00175855,-0.00229504,0.00564657,0.000403828,-0.533245,0.00363725,0.013052,1819,1478,34.8632,-28.2383
602,-454,34.8068,27.3917,0.00322142,0.00117584,-0.00161755,0.00411242,0.000284847,-0.503479,0.00265177,0.00980023,1826,1478,34.8068,-27.3917
609,-454,34.7744,26.5598,0.00245342,0.000742954,-0.00101175,0.00292298,0.000273396,-0.434519,0.00186421,0.0114785,1833,1478,34.7744,-26.5598
616,-454,34.7434,25.7286,0.0018562,0.000305513,-0.000422476,0.00196383,0.000197883,-0.249455,0.0012485,0.0149377,1840,1478,34.7434,-25.7286
623,-454,34.7162,24.9027,0.00161343,-3.41482e-05,6.78135e-05,0.00161621,-3.69346e-05,0.041067,0.00109,0.0165352,1847,1478,34.7162,-24.9027
630,-454,34.6699,24.0602,0.00160795,-0.000423945,0.000555002,0.00174966,-0.000565657,0.249995,0.0013938,0.0162862,1854,1478,34.6699,-24.0602
637,-454,34.5724,23.2024,0.00174799,-0.000746418,0.00101466,0.0021086,-0.00110702,0.341472,0.00188632,0.0137371,1861,1478,34.5724,-23.2024
644,-454,34.662,22.3297,0.00205232,-0.00093355,0.00136548,0.0025826,-0.00146383,0.370419,0.00236578,0.0322817,1868,1478,34.662,-22.3297
651,-454,34.8097,21.4076,0,0,0,0,0,0,0,-1,1875,1478,34.8097,-21.4076
658,-454,17.2583,10.0765,0,0,0,0,0,0,0,-1,1882,1478,17.2583,-10.0765
665,-454,17.683,9.67566,0,0,0,0,0,0,0,-1,1889,1478,17.683,-9.67572
672,-454,16.5476,6.41931,0,0,0,0,0,0,0,-1,1896,1478,16.5476,-6.41929
679,-454,14.2161,5.45007,0,0,0,0,0,0,0,-1,1903,1478,14.2161,-5.45013
686,-454,10.3767,2.12842,0,0,0,0,0,0,0,-1,1910,1478,10.3767,-2.12839
693,-454,11.1857,1.48486,0,0,0,0,0,0,0,-1,1917,1478,11.1857,-1.48487
700,-454,0,0,0,0,0,0,0,0,0,-1,1924,1478,0,0
707,-454,0,0,0,0,0,0,0,0,0,-1,1931,1478,0,0
714,-454,0,0,0,0,0,0,0,0,0,-1,1938,1478,0,0
721,-454,0,0,0,0,0,0,0,0,0,-1,1945,1478,0,0
728,-454,0,0,0,0,0,0,0,0,0,-1,1952,1478,0,0
735,-454,0,0,0,0,0,0,0,0,0,-1,1959,1478,0,0
742,-454,0,0,0,0,0,0,0,0,0,-1,1966,1478,0,0
749,-454,0,0,0,0,0,0,0,0,0,-1,1973,1478,0,0
756,-454,0,0,0,0,0,0,0,0,0,-1,1980,1478,0,0
763,-454,0,0,0,0,0,0,0,0,0,-1,1987,1478,0,0
770,-454,0,0,0,0,0,0,0,0,0,-1,1994,1478,0,0
777,-454,0,0,0,0,0,0,0,0,0,-1,2001,1478,0,0
784,-454,0,0,0,0,0,0,0,0,0,-1,2008,1478,0,0
791,-454,0,0,0,0,0,0,0,0,0,-1,2015,1478,0,0
798,-454,0,0,0,0,0,0,0,0,0,-1,2022,1478,0,0
805,-454,0,0,0,0,0,0,0,0,0,-1,2029,1478,0,0
812,-454,0,0,0,0,0,0,0,0,0,-1,2036,1478,0,0
-700,-461,0,0,0,0,0,0,0,0,0,-1,524,1485,0,0
-693,-461,0,0,0,0,0,0,0,0,0,-1,531,1485,0,0
-686,-461,0,0,0,0,0,0,0,0,0,-1,538,1485,0,0
-679,-461,0,0,0,0,0,0,0,0,0,-1,545,1485,0,0
-672,-461,0,0,0,0,0,0,0,0,0,-1,552,1485,0,0
-665,-461,0,0,0,0,0,0,0,0,0,-1,559,1485,0,0
-658,-461,0,0,0,0,0,0,0,0,0,-1,566,1485,0,0
-651,-461,0,0,0,0,0,0,0,0,0,-1,573,1485,0,0
-644,-461,0,0,0,0,0,0,0,0,0,-1,580,1485,0,0
-637,-461,0,0,0,0,0,0,0,0,0,-1,587,1485,0,0
-630,-461,0,0,0,0,0,0,0,0,0,-1,594,1485,0,0
-623,-461,0,0,0,0,0,0,0,0,0,-1,601,1485,0,0
-616,-461,0,0,0,0,0,0,0,0,0,-1,608,1485,0,0
-609,-461,0,0,0,0,0,0,0,0,0,-1,615,1485,0,0
-602,-461,0,0,0,0,0,0,0,0,0,-1,622,1485,0,0
-595,-461,0,0,0,0,0,0,0,0,0,-1,629,1485,0,0
-588,-461,0,0,0,0,0,0,0,0,0,-1,636,1485,0,0
-581,-461,0,0,0,0,0,0,0,0,0,-1,643,1485,0,0
-574,-461,0,0,0,0,0,0,0,0,0,-1,650,1485,0,0
-567,-461,-9.69031,0.513306,0,0,0,0,0,0,0,-1,657,1485,-9.69032,-0.513305
-560,-461,-7.28815,1.54004,0,0,0,0,0,0,0,-1,664,1485,-7.28817,-1.54005
-553,-461,-11.9607,5.27783,0,0,0,0,0,0,0,-1,671,1485,-11.9607,-5.27778
-546,-461,-11.4215,4.44666,0,0,0,0,0,0,0,-1,678,1485,-11.4215,-4.4467
-539,-461,-9.36493,5.23438,0,0,0,0,0,0,0,-1,685,1485,-9.3649,-5.23432
-532,-461,-7.82898,6.78357,0,0,0,0,0,0,0,-1,692,1485,-7.829,-6.78363
-525,-461,-6.37878,8.75659,0,0,0,0,0,0,0,-1,699,1485,-6.3788,-8.75659
-518,-461,-6.49695,10.886,0,0,0,0,0,0,0,-1,706,1485,-6.49696,-10.8859
-511,-461,-15.8618,21.5214,0,0,0,0,0,0,0,-1,713,1485,-15.8617,-21.5213
-504,-461,-16.1024,23.3427,0,0,0,0,0,0,0,-1,720,1485,-16.1024,-23.3426
-497,-461,-16.1047,24.3525,0.00332695,0.00480664,0.00435659,0.00848576,-0.000352177,0.869507,0.00577814,0.0117337,727,1485,-16.1047,-24.3525
-490,-461,-16.1535,25.2396,0.00269304,0.00348085,0.00318966,0.00630083,-0.000126937,0.846834,0.0042435,0.0133099,734,1485,-16.1535,-25.2396
-483,-461,-16.2205,26.1044,0.00213844,0.00239875,0.00221392,0.00448634,5.08565e-05,0.814759,0.00297408,0.01333,741,1485,-16.2205,-26.1044
-476,-461,-16.293,26.9636,0.0017181,0.00167523,0.00151739,0.00321421,0.000179123,0.778336,0.00208567,0.0119297,748,1485,-16.293,-26.9636
-469,-461,-16.3314,27.8042,0.00141517,0.00130492,0.0010536,0.00241508,0.000305003,0.759261,0.00151863,0.0133835,755,1485,-16.3314,-27.8042
-462,-461,-16.3726,28.6848,0.0012934,0.00125913,0.000858086,0.00213452,0.000418008,0.775418,0.00130617,0.0194358,762,1485,-16.3726,-28.6848
-455,-461,-16.4439,29.5425,0.00135393,0.00154616,0.000930208,0.00238521,0.000514884,0.836879,0.00144932,0.025817,769,1485,-16.4439,-29.5425
-448,-461,-16.4734,30.4231,0.00159872,0.00216777,0.00128404,0.00319843,0.000568055,0.894429,0.00197042,0.0222258,776,1485,-16.4734,-30.4231
-441,-461,-16.4615,31.2278,0,0,0,0,0,0,0,-1,783,1485,-16.4615,-31.2277
-434,-461,-16.2339,32.4131,0,0,0,0,0,0,0,-1,790,1485,-16.2339,-32.4131
-427,-461,-8.26154,21.546,0,0,0,0,0,0,0,-1,797,1485,-8.26153,-21.5461
-420,-461,-5.70355,16.6116,0,0,0,0,0,0,0,-1,804,1485,-5.70353,-16.6115
-413,-461,-5.98798,16.0605,0,0,0,0,0,0,0,-1,811,1485,-5.98796,-16.0605
-406,-461,-5.52667,14.839,0,0,0,0,0,0,0,-1,818,1485,-5.52666,-14.839
-399,-461,-1.93439,9.82849,0,0,0,0,0,0,0,-1,825,1485,-1.9344,-9.82846
-392,-461,-0.357544,5.55225,0,0,0,0,0,0,0,-1,832,1485,-0.357536,-5.55228
-385,-461,1.71509,3.35254,0,0,0,0,0,0,0,-1,839,1485,1.71511,-3.35255
-378,-461,1.95996,3.01111,0,0,0,0,0,0,0,-1,846,1485,1.95993,-3.01111
-371,-461,0.702881,2.33459,0,0,0,0,0,0,0,-1,853,1485,0.702859,-2.33459
-364,-461,-1.93097,2.56458,0,0,0,0,0,0,0,-1,860,1485,-1.93095,-2.56456
-357,-461,-2.41516,3.49487,0,0,0,0,0,0,0,-1,867,1485,-2.41517,-3.49487
-350,-461,0,0,0,0,0,0,0,0,0,-1,874,1485,0,0
-343,-461,0,0,0,0,0,0,0,0,0,-1,881,1485,0,0
-336,-461,0,0,0,0,0,0,0,0,0,-1,888,1485,0,0
-329,-461,0,0,0,0,0,0,0,0,0,-1,895,1485,0,0
-322,-461,0,0,0,0,0,0,0,0,0,-1,902,1485,0,0
-315,-461,0,0,0,0,0,0,0,0,0,-1,909,1485,0,0
-308,-461,0,0,0,0,0,0,0,0,0,-1,916,1485,0,0
-301,-461,0,0,0,0,0,0,0,0,0,-1,923,1485,0,0
-294,-461,0,0,0,0,0,0,0,0,0,-1,930,1485,0,0
-287,-461,0,0,0,0,0,0,0,0,0,-1,937,1485,0,0
-280,-461,0,0,0,0,0,0,0,0,0,-1,944,1485,0,0
-273,-461,0,0,0,0,0,0,0,0,0,-1,951,1485,0,0
-266,-461,0,0,0,0,0,0,0,0,0,-1,958,1485,0,0
-259,-461,0,0,0,0,0,0,0,0,0,-1,965,1485,0,0
-252,-461,0,0,0,0,0,0,0,0,0,-1,972,1485,0,0
-245,-461,0,0,0,0,0,0,0,0,0,-1,979,1485,0,0
-238,-461,0,0,0,0,0,0,0,0,0,-1,986,1485,0,0
-231,-461,0,0,0,0,0,0,0,0,0,-1,993,1485,0,0
-224,-461,0,0,0,0,0,0,0,0,0,-1,1000,1485,0,0
-217,-461,0,0,0,0,0,0,0,0,0,-1,1007,1485,0,0
-210,-461,0,0,0,0,0,0,0,0,0,-1,1014,1485,0,0
-203,-461,0,0,0,0,0,0,0,0,0,-1,1021,1485,0,0
-196,-461,0,0,0,0,0,0,0,0,0,-1,1028,1485,0,0
-189,-461,0,0,0,0,0,0,0,0,0,-1,1035,1485,0,0
-182,-461,0,0,0,0,0,0,0,0,0,-1,1042,1485,0,0
-175,-461,0,0,0,0,0,0,0,0,0,-1,1049,1485,0,0
-168,-461,0,0,0,0,0,0,0,0,0,-1,1056,1485,0,0
-161,-461,0,0,0,0,0,0,0,0,0,-1,1063,1485,0,0
-154,-461,0,0,0,0,0,0,0,0,0,-1,1070,1485,0,0
-147,-461,0,0,0,0,0,0,0,0,0,-1,1077,1485,0,0
-140,-461,0,0,0,0,0,0,0,0,0,-1,1084,1485,0,0
-133,-461,0,0,0,0,0,0,0,0,0,-1,1091,1485,0,0
-126,-461,0,0,0,0,0,0,0,0,0,-1,1098,1485,0,0
-119,-461,0,0,0,0,0,0,0,0,0,-1,1105,1485,0,0
-112,-461,0,0,0,0,0,0,0,0,0,-1,1112,1485,0,0
-105,-461,0,0,0,0,0,0,0,0,0,-1,1119,1485,0,0
-98,-461,0,0,0,0,0,0,0,0,0,-1,1126,1485,0,0
-91,-461,0,0,0,0,0,0,0,0,0,-1,1133,1485,0,0
-84,-461,0,0,0,0,0,0,0,0,0,-1,1140,1485,0,0
-77,-461,0,0,0,0,0,0,0,0,0,-1,1147,1485,0,0
-70,-461,0,0,0,0,0,0,0,0,0,-1,1154,1485,0,0
-63,-461,0,0,0,0,0,0,0,0,0,-1,1161,1485,0,0
-56,-461,0,0,0,0,0,0,0,0,0,-1,1168,1485,0,0
-49,-461,0,0,0,0,0,0,0,0,0,-1,1175,1485,0,0
-42,-461,0,0,0,0,0,0,0,0,0,-1,1182,1485,0,0
-35,-461,0,0,0,0,0,0,0,0,0,-1,1189,1485,0,0
-28,-461,0,0,0,0,0,0,0,0,0,-1,1196,1485,0,0
-21,-461,0,0,0,0,0,0,0,0,0,-1,1203,1485,0,0
-14,-461,0,0,0,0,0,0,0,0,0,-1,1210,1485,0,0
-7,-461,0,0,0,0,0,0,0,0,0,-1,1217,1485,0,0
0,-461,0,0,0,0,0,0,0,0,0,-1,1224,1485,0,0
7,-461,0,0,0,0,0,0,0,0,0,-1,1231,1485,0,0
14,-461,0,0,0,0,0,0,0,0,0,-1,1238,1485,0,0
21,-461,0,0,0,0,0,0,0,0,0,-1,1245,1485,0,0
28,-461,0,0,0,0,0,0,0,0,0,-1,1252,1485,0,0
35,-461,0,0,0,0,0,0,0,0,0,-1,1259,1485,0,0
42,-461,0,0,0,0,0,0,0,0,0,-1,1266,1485,0,0
49,-461,0,0,0,0,0,0,0,0,0,-1,1273,1485,0,0
56,-461,0,0,0,0,0,0,0,0,0,-1,1280,1485,0,0
63,-461,0,0,0,0,0,0,0,0,0,-1,1287,1485,0,0
70,-461,0,0,0,0,0,0,0,0,0,-1,1294,1485,0,0
77,-461,0,0,0,0,0,0,0,0,0,-1,1301,1485,0,0
84,-461,0,0,0,0,0,0,0,0,0,-1,1308,1485,0,0
91,-461,0,0,0,0,0,0,0,0,0,-1,1315,1485,0,0
98,-461,0,0,0,0,0,0,0,0,0,-1,1322,1485,0,0
105,-461,0,0,0,0,0,0,0,0,0,-1,1329,1485,0,0
112,-461,0,0,0,0,0,0,0,0,0,-1,1336,1485,0,0
119,-461,0,0,0,0,0,0,0,0,0,-1,1343,1485,0,0
126,-461,0,0,0,0,0,0,0,0,0,-1,1350,1485,0,0
133,-461,0,0,0,0,0,0,0,0,0,-1,1357,1485,0,0
140,-461,0,0,0,0,0,0,0,0,0,-1,1364,1485,0,0
147,-461,0,0,0,0,0,0,0,0,0,-1,1371,1485,0,0
154,-461,0,0,0,0,0,0,0,0,0,-1,1378,1485,0,0
161,-461,0,0,0,0,0,0,0,0,0,-1,1385,1485,0,0
168,-461,0,0,0,0,0,0,0,0,0,-1,1392,1485,0,0
175,-461,0,0,0,0,0,0,0,0,0,-1,1399,1485,0,0
182,-461,0,0,0,0,0,0,0,0,0,-1,1406,1485,0,0
189,-461,0,0,0,0,0,0,0,0,0,-1,1413,1485,0,0
196,-461,0,0,0,0,0,0,0,0,0,-1,1420,1485,0,0
203,-461,0,0,0,0,0,0,0,0,0,-1,1427,1485,0,0
210,-461,0,0,0,0,0,0,0,0,0,-1,1434,1485,0,0
217,-461,0,0,0,0,0,0,0,0,0,-1,1441,1485,0,0
224,-461,0,0,0,0,0,0,0,0,0,-1,1448,1485,0,0
231,-461,0,0,0,0,0,0,0,0,0,-1,1455,1485,0,0
238,-461,0,0,0,0,0,0,0,0,0,-1,1462,1485,0,0
245,-461,0,0,0,0,0,0,0,0,0,-1,1469,1485,0,0
252,-461,0,0,0,0,0,0,0,0,0,-1,1476,1485,0,0
259,-461,0,0,0,0,0,0,0,0,0,-1,1483,1485,0,0
266,-461,0,0,0,0,0,0,0,0,0,-1,1490,1485,0,0
273,-461,0,0,0,0,0,0,0,0,0,-1,1497,1485,0,0
280,-461,0,0,0,0,0,0,0,0,0,-1,1504,1485,0,0
287,-461,0,0,0,0,0,0,0,0,0,-1,1511,1485,0,0
294,-461,0,0,0,0,0,0,0,0,0,-1,1518,1485,0,0
301,-461,0,0,0,0,0,0,0,0,0,-1,1525,1485,0,0
308,-461,0,0,0,0,0,0,0,0,0,-1,1532,1485,0,0
315,-461,0,0,0,0,0,0,0,0,0,-1,1539,1485,0,0
322,-461,0,0,0,0,0,0,0,0,0,-1,1546,1485,0,0
329,-461,0,0,0,0,0,0,0,0,0,-1,1553,1485,0,0
336,-461,0,0,0,0,0,0,0,0,0,-1,1560,1485,0,0
343,-461,0,0,0,0,0,0,0,0,0,-1,1567,1485,0,0
350,-461,0,0,0,0,0,0,0,0,0,-1,1574,1485,0,0
357,-461,0,0,0,0,0,0,0,0,0,-1,1581,1485,0,0
364,-461,0,0,0,0,0,0,0,0,0,-1,1588,1485,0,0
371,-461,0,0,0,0,0,0,0,0,0,-1,1595,1485,0,0
378,-461,0,0,0,0,0,0,0,0,0,-1,1602,1485,0,0
385,-461,0,0,0,0,0,0,0,0,0,-1,1609,1485,0,0
392,-461,0,0,0,0,0,0,0,0,0,-1,1616,1485,0,0
399,-461,0,0,0,0,0,0,0,0,0,-1,1623,1485,0,0
406,-461,0,0,0,0,0,0,0,0,0,-1,1630,1485,0,0
413,-461,0,0,0,0,0,0,0,0,0,-1,1637,1485,0,0
420,-461,0,0,0,0,0,0,0,0,0,-1,1644,1485,0,0
427,-461,0,0,0,0,0,0,0,0,0,-1,1651,1485,0,0
434,-461,0,0,0,0,0,0,0,0,0,-1,1658,1485,0,0
441,-461,0,0,0,0,0,0,0,0,0,-1,1665,1485,0,0
448,-461,0,0,0,0,0,0,0,0,0,-1,1672,1485,0,0
455,-461,0,0,0,0,0,0,0,0,0,-1,1679,1485,0,0
462,-461,0,0,0,0,0,0,0,0,0,-1,1686,1485,0,0
469,-461,0,0,0,0,0,0,0,0,0,-1,1693,1485,0,0
476,-461,14.1906,0.690552,0,0,0,0,0,0,0,-1,1700,1485,14.1906,-0.690525
483,-461,10.6361,3.09106,0,0,0,0,0,0,0,-1,1707,1485,10.6361,-3.091
490,-461,17.9972,0.665894,0,0,0,0,0,0,0,-1,1714,1485,17.9972,-0.665876
497,-461,16.6829,1.87732,0,0,0,0,0,0,0,-1,1721,1485,16.6828,-1.87736
504,-461,15.3884,3.09216,0,0,0,0,0,0,0,-1,1728,1485,15.3885,-3.09212
511,-461,15.4292,14.3512,0,0,0,0,0,0,0,-1,1735,1485,15.4292,-14.3512
518,-461,14.8081,10.0085,0,0,0,0,0,0,0,-1,1742,1485,14.8081,-10.0086
525,-461,14.0022,10.8033,0,0,0,0,0,0,0,-1,1749,1485,14.0022,-10.8033
532,-461,17.1704,14.077,0,0,0,0,0,0,0,-1,1756,1485,17.1704,-14.077
539,-461,17.0229,14.7386,0,0,0,0,0,0,0,-1,1763,1485,17.0229,-14.7387
546,-461,16.2106,14.1372,0,0,0,0,0,0,0,-1,1770,1485,16.2106,-14.1372
553,-461,25.9354,24.2889,0,0,0,0,0,0,0,-1,1777,1485,25.9354,-24.2889
560,-461,34.103,32.5952,0,0,0,0,0,0,0,-1,1784,1485,34.103,-32.5952
567,-461,34.1603,31.5565,0.0111805,0.0046566,-0.00536958,0.0142013,0.00163583,-0.512444,0.00897211,0.0422414,1791,1485,34.1603,-31.5566
574,-461,34.1813,30.7927,0.0085828,0.00355662,-0.0041843,0.0109507,0.00118873,-0.514968,0.00693825,0.0347358,1798,1485,34.1813,-30.7928
581,-461,34.1599,29.9491,0.0065671,0.0026384,-0.00323207,0.00838494,0.000820555,-0.512343,0.00533751,0.0200859,1805,1485,34.1599,-29.9491
588,-461,34.1083,29.1268,0.0049652,0.00198971,-0.00249866,0.00638549,0.000569421,-0.516876,0.00408045,0.0122985,1812,1485,34.1083,-29.1269
595,-461,34.0236,28.3081,0.00375498,0.00143829,-0.00186145,0.00478907,0.000404196,-0.507077,0.00306687,0.0096096,1819,1485,34.0236,-28.3081
602,-461,33.9825,27.4534,0.00282556,0.000924677,-0.00127895,0.00346855,0.000281681,-0.465849,0.00222443,0.00995286,1826,1485,33.9825,-27.4533
609,-461,33.9358,26.6046,0.00216053,0.000552857,-0.000730344,0.00244277,0.000270621,-0.368765,0.00154622,0.0116354,1833,1485,33.9358,-26.6046
616,-461,33.8961,25.7723,0.00166175,0.00016973,-0.000167801,0.00168039,0.000151091,-0.110625,0.00107345,0.014045,1840,1485,33.8961,-25.7724
623,-461,33.8806,24.9705,0.00146634,-0.000189638,0.000370838,0.00154559,-0.000268891,0.210545,0.00113073,0.018274,1847,1485,33.8806,-24.9705
630,-461,33.828,24.1563,0.00140564,-0.000612074,0.00100119,0.00181812,-0.00102455,0.390792,0.00166239,0.0187447,1854,1485,33.828,-24.1563
637,-461,33.7542,23.2673,0.00146893,-0.000994297,0.00164067,0.00228882,-0.00181419,0.463431,0.00237415,0.0175115,1861,1485,33.7542,-23.2673
644,-461,33.8114,22.4885,0.00158213,-0.00129461,0.00226467,0.00282661,-0.00253908,0.502471,0.00309936,0.0442048,1868,1485,33.8114,-22.4885
651,-461,33.9315,21.5966,0,0,0,0,0,0,0,-1,1875,1485,33.9315,-21.5966
658,-461,16.8987,10.1084,0,0,0,0,0,0,0,-1,1882,1485,16.8986,-10.1084
665,-461,17.2638,9.81384,0,0,0,0,0,0,0,-1,1889,1485,17.2638,-9.81385
672,-461,14.4877,6.89429,0,0,0,0,0,0,0,-1,1896,1485,14.4876,-6.89431
679,-461,10.0535,2.16321,0,0,0,0,0,0,0,-1,1903,1485,10.0535,-2.16317
686,-461,10.8195,1.84192,0,0,0,0,0,0,0,-1,1910,1485,10.8194,-1.84195
693,-461,0,0,0,0,0,0,0,0,0,-1,1917,1485,0,0
700,-461,0,0,0,0,0,0,0,0,0,-1,1924,1485,0,0
707,-461,0,0,0,0,0,0,0,0,0,-1,1931,1485,0,0
714,-461,0,0,0,0,0,0,0,0,0,-1,1938,1485,0,0
721,-461,0,0,0,0,0,0,0,0,0,-1,1945,1485,0,0
728,-461,0,0,0,0,0,0,0,0,0,-1,1952,1485,0,0
735,-461,0,0,0,0,0,0,0,0,0,-1,1959,1485,0,0
742,-461,0,0,0,0,0,0,0,0,0,-1,1966,1485,0,0
749,-461,0,0,0,0,0,0,0,0,0,-1,1973,1485,0,0
756,-461,0,0,0,0,0,0,0,0,0,-1,1980,1485,0,0
763,-461,0,0,0,0,0,0,0,0,0,-1,1987,1485,0,0
770,-461,0,0,0,0,0,0,0,0,0,-1,1994,1485,0,0
777,-461,0,0,0,0,0,0,0,0,0,-1,2001,1485,0,0
784,-461,0,0,0,0,0,0,0,0,0,-1,2008,1485,0,0
791,-461,0,0,0,0,0,0,0,0,0,-1,2015,1485,0,0
798,-461,0,0,0,0,0,0,0,0,0,-1,2022,1485,0,0
805,-461,0,0,0,0,0,0,0,0,0,-1,2029,1485,0,0
812,-461,0,0,0,0,0,0,0,0,0,-1,2036,1485,0,0
-700,-468,0,0,0,0,0,0,0,0,0,-1,524,1492,0,0
-693,-468,0,0,0,0,0,0,0,0,0,-1,531,1492,0,0
-686,-468,0,0,0,0,0,0,0,0,0,-1,538,1492,0,0
-679,-468,0,0,0,0,0,0,0,0,0,-1,545,1492,0,0
-672,-468,0,0,0,0,0,0,0,0,0,-1,552,1492,0,0
-665,-468,0,0,0,0,0,0,0,0,0,-1,559,1492,0,0
-658,-468,0,0,0,0,0,0,0,0,0,-1,566,1492,0,0
-651,-468,0,0,0,0,0,0,0,0,0,-1,573,1492,0,0
-644,-468,0,0,0,0,0,0,0,0,0,-1,580,1492,0,0
-637,-468,0,0,0,0,0,0,0,0,0,-1,587,1492,0,0
-630,-468,0,0,0,0,0,0,0,0,0,-1,594,1492,0,0
-623,-468,0,0,0,0,0,0,0,0,0,-1,601,1492,0,0
-616,-468,0,0,0,0,0,0,0,0,0,-1,608,1492,0,0
-609,-468,0,0,0,0,0,0,0,0,0,-1,615,1492,0,0
-602,-468,0,0,0,0,0,0,0,0,0,-1,622,1492,0,0
-595,-468,0,0,0,0,0,0,0,0,0,-1,629,1492,0,0
-588,-468,0,0,0,0,0,0,0,0,0,-1,636,1492,0,0
-581,-468,0,0,0,0,0,0,0,0,0,-1,643,1492,0,0
-574,-468,0,0,0,0,0,0,0,0,0,-1,650,1492,0,0
-567,-468,-11.2603,1.8042,0,0,0,0,0,0,0,-1,657,1492,-11.2603,-1.80424
-560,-468,-8.77441,2.23694,0,0,0,0,0,0,0,-1,664,1492,-8.77443,-2.23692
-553,-468,-5.94061,9.26318,0,0,0,0,0,0,0,-1,671,1492,-5.94062,-9.26322
-546,-468,-10.47,5.43237,0,0,0,0,0,0,0,-1,678,1492,-10.47,-5.4324
-539,-468,-10.2468,5.45203,0,0,0,0,0,0,0,-1,685,1492,-10.2468,-5.45197
-532,-468,-8.39795,6.02783,0,0,0,0,0,0,0,-1,692,1492,-8.39793,-6.02789
-525,-468,-6.59332,7.15405,0,0,0,0,0,0,0,-1,699,1492,-6.59331,-7.15411
-518,-468,-6.33588,8.65393,0,0,0,0,0,0,0,-1,706,1492,-6.33588,-8.65397
-511,-468,-8.05835,13.8282,0,0,0,0,0,0,0,-1,713,1492,-8.05835,-13.8283
-504,-468,-15.3175,23.1848,0,0,0,0,0,0,0,-1,720,1492,-15.3175,-23.1848
-497,-468,-15.293,24.2874,0.00365721,0.00587612,0.00512805,0.0100134,-0.000480029,0.891931,0.0068412,0.0368649,727,1492,-15.293,-24.2874
-490,-468,-15.2939,25.3015,0.00291302,0.0042928,0.00379976,0.00746479,-0.000258966,0.875201,0.00506506,0.00880683,734,1492,-15.2939,-25.3015
-483,-468,-15.3611,26.157,0.0022429,0.0029487,0.00265982,0.00527893,-8.73366e-05,0.851352,0.00354876,0.0094135,741,1492,-15.3611,-26.157
-476,-468,-15.4122,27.0221,0.0018014,0.00205623,0.00187042,0.00380357,5.40596e-05,0.819406,0.00251789,0.0104127,748,1492,-15.4122,-27.0221
-469,-468,-15.4437,27.8844,0.00150036,0.00153982,0.0013433,0.00286353,0.000176646,0.792741,0.00185295,0.014778,755,1492,-15.4437,-27.8844
-462,-468,-15.4342,28.7457,0.00138798,0.00137852,0.00109304,0.0024763,0.000290201,0.783235,0.00156314,0.0249158,762,1492,-15.4342,-28.7457
-455,-468,-15.4787,29.5769,0.0014594,0.00154377,0.00109608,0.00259847,0.000404688,0.804632,0.00161442,0.0274126,769,1492,-15.4787,-29.5769
-448,-468,-15.5792,30.4503,0.00172562,0.00202648,0.00134162,0.00322608,0.00052602,0.841228,0.00199859,0.0155833,776,1492,-15.5791,-30.4503
-441,-468,-15.6556,31.2986,0.00223817,0.00294729,0.00189309,0.00451874,0.000666719,0.877971,0.00281668,0.0163267,783,1492,-15.6556,-31.2986
-434,-468,-15.5955,32.2933,0.00302793,0.0041603,0.00271316,0.00636572,0.000822511,0.888263,0.00399795,0.0463179,790,1492,-15.5954,-32.2934
-427,-468,-15.5553,33.3511,0,0,0,0,0,0,0,-1,797,1492,-15.5553,-33.3511
-420,-468,-7.57581,22.0538,0,0,0,0,0,0,0,-1,804,1492,-7.57582,-22.0538
-413,-468,-5.30328,17.3519,0,0,0,0,0,0,0,-1,811,1492,-5.30329,-17.352
-406,-468,-2.2356,9.396,0,0,0,0,0,0,0,-1,818,1492,-2.2356,-9.396
-399,-468,-0.940369,8.1936,0,0,0,0,0,0,0,-1,825,1492,-0.940365,-8.19357
-392,-468,-0.35144,8.14673,0,0,0,0,0,0,0,-1,832,1492,-0.351449,-8.14674
-385,-468,0.465759,5.35864,0,0,0,0,0,0,0,-1,839,1492,0.465732,-5.35864
-378,-468,1.99835,3.25391,0,0,0,0,0,0,0,-1,846,1492,1.99837,-3.2539
-371,-468,-0.31842,3.1532,0,0,0,0,0,0,0,-1,853,1492,-0.318441,-3.15324
-364,-468,-0.966736,2.14563,0,0,0,0,0,0,0,-1,860,1492,-0.966735,-2.14557
-357,-468,-3.06787,3.22742,0,0,0,0,0,0,0,-1,867,1492,-3.06784,-3.2274
-350,-468,-3.18658,4.12659,0,0,0,0,0,0,0,-1,874,1492,-3.18659,-4.12658
-343,-468,0,0,0,0,0,0,0,0,0,-1,881,1492,0,0
-336,-468,0,0,0,0,0,0,0,0,0,-1,888,1492,0,0
-329,-468,0,0,0,0,0,0,0,0,0,-1,895,1492,0,0
-322,-468,0,0,0,0,0,0,0,0,0,-1,902,1492,0,0
-315,-468,0,0,0,0,0,0,0,0,0,-1,909,1492,0,0
-308,-468,0,0,0,0,0,0,0,0,0,-1,916,1492,0,0
-301,-468,0,0,0,0,0,0,0,0,0,-1,923,1492,0,0
-294,-468,0,0,0,0,0,0,0,0,0,-1,930,1492,0,0
-287,-468,0,0,0,0,0,0,0,0,0,-1,937,1492,0,0
-280,-468,0,0,0,0,0,0,0,0,0,-1,944,1492,0,0
-273,-468,0,0,0,0,0,0,0,0,0,-1,951,1492,0,0
-266,-468,0,0,0,0,0,0,0,0,0,-1,958,1492,0,0
-259,-468,0,0,0,0,0,0,0,0,0,-1,965,1492,0,0
-252,-468,0,0,0,0,0,0,0,0,0,-1,972,1492,0,0
-245,-468,0,0,0,0,0,0,0,0,0,-1,979,1492,0,0
-238,-468,0,0,0,0,0,0,0,0,0,-1,986,1492,0,0
-231,-468,0,0,0,0,0,0,0,0,0,-1,993,1492,0,0
-224,-468,0,0,0,0,0,0,0,0,0,-1,1000,1492,0,0
-217,-468,0,0,0,0,0,0,0,0,0,-1,1007,1492,0,0
-210,-468,0,0,0,0,0,0,0,0,0,-1,1014,1492,0,0
-203,-468,0,0,0,0,0,0,0,0,0,-1,1021,1492,0,0
-196,-468,0,0,0,0,0,0,0,0,0,-1,1028,1492,0,0
-189,-468,0,0,0,0,0,0,0,0,0,-1,1035,1492,0,0
-182,-468,0,0,0,0,0,0,0,0,0,-1,1042,1492,0,0
-175,-468,0,0,0,0,0,0,0,0,0,-1,1049,1492,0,0
-168,-468,0,0,0,0,0,0,0,0,0,-1,1056,1492,0,0
-161,-468,0,0,0,0,0,0,0,0,0,-1,1063,1492,0,0
-154,-468,0,0,0,0,0,0,0,0,0,-1,1070,1492,0,0
-147,-468,0,0,0,0,0,0,0,0,0,-1,1077,1492,0,0
-140,-468,0,0,0,0,0,0,0,0,0,-1,1084,1492,0,0
-133,-468,0,0,0,0,0,0,0,0,0,-1,1091,1492,0,0
-126,-468,0,0,0,0,0,0,0,0,0,-1,1098,1492,0,0
-119,-468,0,0,0,0,0,0,0,0,0,-1,1105,1492,0,0
-112,-468,0,0,0,0,0,0,0,0,0,-1,1112,1492,0,0
-105,-468,0,0,0,0,0,0,0,0,0,-1,1119,1492,0,0
-98,-468,0,0,0,0,0,0,0,0,0,-1,1126,1492,0,0
-91,-468,0,0,0,0,0,0,0,0,0,-1,1133,1492,0,0
-84,-468,0,0,0,0,0,0,0,0,0,-1,1140,1492,0,0
-77,-468,0,0,0,0,0,0,0,0,0,-1,1147,1492,0,0
-70,-468,0,0,0,0,0,0,0,0,0,-1,1154,1492,0,0
-63,-468,0,0,0,0,0,0,0,0,0,-1,1161,1492,0,0
-56,-468,0,0,0,0,0,0,0,0,0,-1,1168,1492,0,0
-49,-468,0,0,0,0,0,0,0,0,0,-1,1175,1492,0,0
-42,-468,0,0,0,0,0,0,0,0,0,-1,1182,1492,0,0
-35,-468,0,0,0,0,0,0,0,0,0,-1,1189,1492,0,0
-28,-468,0,0,0,0,0,0,0,0,0,-1,1196,1492,0,0
-21,-468,0,0,0,0,0,0,0,0,0,-1,1203,1492,0,0
-14,-468,0,0,0,0,0,0,0,0,0,-1,1210,1492,0,0
-7,-468,0,0,0,0,0,0,0,0,0,-1,1217,1492,0,0
0,-468,0,0,0,0,0,0,0,0,0,-1,1224,1492,0,0
7,-468,0,0,0,0,0,0,0,0,0,-1,1231,1492,0,0
14,-468,0,0,0,0,0,0,0,0,0,-1,1238,1492,0,0
21,-468,0,0,0,0,0,0,0,0,0,-1,1245,1492,0,0
28,-468,0,0,0,0,0,0,0,0,0,-1,1252,1492,0,0
35,-468,0,0,0,0,0,0,0,0,0,-1,1259,1492,0,0
42,-468,0,0,0,0,0,0,0,0,0,-1,1266,1492,0,0
49,-468,0,0,0,0,0,0,0,0,0,-1,1273,1492,0,0
56,-468,0,0,0,0,0,0,0,0,0,-1,1280,1492,0,0
63,-468,0,0,0,0,0,0,0,0,0,-1,1287,1492,0,0
70,-468,0,0,0,0,0,0,0,0,0,-1,1294,1492,0,0
77,-468,0,0,0,0,0,0,0,0,0,-1,1301,1492,0,0
84,-468,0,0,0,0,0,0,0,0,0,-1,1308,1492,0,0
91,-468,0,0,0,0,0,0,0,0,0,-1,1315,1492,0,0
98,-468,0,0,0,0,0,0,0,0,0,-1,1322,1492,0,0
105,-468,0,0,0,0,0,0,0,0,0,-1,1329,1492,0,0
112,-468,0,0,0,0,0,0,0,0,0,-1,1336,1492,0,0
119,-468,0,0,0,0,0,0,0,0,0,-1,1343,1492,0,0
126,-468,0,0,0,0,0,0,0,0,0,-1,1350,1492,0,0
133,-468,0,0,0,0,0,0,0,0,0,-1,1357,1492,0,0
140,-468,0,0,0,0,0,0,0,0,0,-1,1364,1492,0,0
147,-468,0,0,0,0,0,0,0,0,0,-1,1371,1492,0,0
154,-468,0,0,0,0,0,0,0,0,0,-1,1378,1492,0,0
161,-468,0,0,0,0,0,0,0,0,0,-1,1385,1492,0,0
168,-468,0,0,0,0,0,0,0,0,0,-1,1392,1492,0,0
175,-468,0,0,0,0,0,0,0,0,0,-1,1399,1492,0,0
182,-468,0,0,0,0,0,0,0,0,0,-1,1406,1492,0,0
189,-468,0,0,0,0,0,0,0,0,0,-1,1413,1492,0,0
196,-468,0,0,0,0,0,0,0,0,0,-1,1420,1492,0,0
203,-468,0,0,0,0,0,0,0,0,0,-1,1427,1492,0,0
210,-468,0,0,0,0,0,0,0,0,0,-1,1434,1492,0,0
217,-468,0,0,0,0,0,0,0,0,0,-1,1441,1492,0,0
224,-468,0,0,0,0,0,0,0,0,0,-1,1448,1492,0,0
231,-468,0,0,0,0,0,0,0,0,0,-1,1455,1492,0,0
238,-468,0,0,0,0,0,0,0,0,0,-1,1462,1492,0,0
245,-468,0,0,0,0,0,0,0,0,0,-1,1469,1492,0,0
252,-468,0,0,0,0,0,0,0,0,0,-1,1476,1492,0,0
259,-468,0,0,0,0,0,0,0,0,0,-1,1483,1492,0,0
266,-468,0,0,0,0,0,0,0,0,0,-1,1490,1492,0,0
273,-468,0,0,0,0,0,0,0,0,0,-1,1497,1492,0,0
280,-468,0,0,0,0,0,0,0,0,0,-1,1504,1492,0,0
287,-468,0,0,0,0,0,0,0,0,0,-1,1511,1492,0,0
294,-468,0,0,0,0,0,0,0,0,0,-1,1518,1492,0,0
301,-468,0,0,0,0,0,0,0,0,0,-1,1525,1492,0,0
308,-468,0,0,0,0,0,0,0,0,0,-1,1532,1492,0,0
315,-468,0,0,0,0,0,0,0,0,0,-1,1539,1492,0,0
322,-468,0,0,0,0,0,0,0,0,0,-1,1546,1492,0,0
329,-468,0,0,0,0,0,0,0,0,0,-1,1553,1492,0,0
336,-468,0,0,0,0,0,0,0,0,0,-1,1560,1492,0,0
343,-468,0,0,0,0,0,0,0,0,0,-1,1567,1492,0,0
350,-468,0,0,0,0,0,0,0,0,0,-1,1574,1492,0,0
357,-468,0,0,0,0,0,0,0,0,0,-1,1581,1492,0,0
364,-468,0,0,0,0,0,0,0,0,0,-1,1588,1492,0,0
371,-468,0,0,0,0,0,0,0,0,0,-1,1595,1492,0,0
378,-468,0,0,0,0,0,0,0,0,0,-1,1602,1492,0,0
385,-468,0,0,0,0,0,0,0,0,0,-1,1609,1492,0,0
392,-468,0,0,0,0,0,0,0,0,0,-1,1616,1492,0,0
399,-468,0,0,0,0,0,0,0,0,0,-1,1623,1492,0,0
406,-468,0,0,0,0,0,0,0,0,0,-1,1630,1492,0,0
413,-468,0,0,0,0,0,0,0,0,0,-1,1637,1492,0,0
420,-468,0,0,0,0,0,0,0,0,0,-1,1644,1492,0,0
427,-468,0,0,0,0,0,0,0,0,0,-1,1651,1492,0,0
434,-468,0,0,0,0,0,0,0,0,0,-1,1658,1492,0,0
441,-468,0,0,0,0,0,0,0,0,0,-1,1665,1492,0,0
448,-468,0,0,0,0,0,0,0,0,0,-1,1672,1492,0,0
455,-468,0,0,0,0,0,0,0,0,0,-1,1679,1492,0,0
462,-468,0,0,0,0,0,0,0,0,0,-1,1686,1492,0,0
469,-468,15.6879,1.2677,0,0,0,0,0,0,0,-1,1693,1492,15.6879,-1.26772
476,-468,14.9318,1.61865,0,0,0,0,0,0,0,-1,1700,1492,14.9318,-1.61869
483,-468,11.265,4.64795,0,0,0,0,0,0,0,-1,1707,1492,11.265,-4.64798
490,-468,12.1316,3.51624,0,0,0,0,0,0,0,-1,1714,1492,12.1316,-3.51628
497,-468,16.5355,3.14587,0,0,0,0,0,0,0,-1,1721,1492,16.5356,-3.14583
504,-468,15.0642,4.10437,0,0,0,0,0,0,0,-1,1728,1492,15.0643,-4.10431
511,-468,15.6877,9.4801,0,0,0,0,0,0,0,-1,1735,1492,15.6878,-9.48007
518,-468,13.759,11.0887,0,0,0,0,0,0,0,-1,1742,1492,13.759,-11.0887
525,-468,16.6531,14.2238,0,0,0,0,0,0,0,-1,1749,1492,16.653,-14.2237
532,-468,16.9696,15.9641,0,0,0,0,0,0,0,-1,1756,1492,16.9696,-15.9641
539,-468,21.5308,20.7551,0,0,0,0,0,0,0,-1,1763,1492,21.5308,-20.7551
546,-468,25.5796,25.0283,0,0,0,0,0,0,0,-1,1770,1492,25.5796,-25.0284
553,-468,31.8678,31.5677,0,0,0,0,0,0,0,-1,1777,1492,31.8678,-31.5678
560,-468,33.1134,32.7208,0,0,0,0,0,0,0,-1,1784,1492,33.1134,-32.7208
567,-468,33.3452,31.7202,0.00985023,0.00433231,-0.0047722,0.0126036,0.00157894,-0.523306,0.00792866,0.0292335,1791,1492,33.3452,-31.7202
574,-468,33.3665,30.8341,0.00756306,0.0032185,-0.00368078,0.00966476,0.0011168,-0.518819,0.00610505,0.0175044,1798,1492,33.3664,-30.8341
581,-468,33.33,30.0275,0.00573235,0.00234766,-0.00281288,0.00732274,0.00075727,-0.514585,0.00465,0.0175875,1805,1492,33.3299,-30.0275
588,-468,33.257,29.205,0.00430855,0.00172977,-0.00215699,0.00553215,0.000506166,-0.516008,0.00353149,0.0140793,1812,1492,33.2569,-29.2049
595,-468,33.1952,28.359,0.00325781,0.00120247,-0.00156147,0.00409944,0.000360838,-0.49436,0.00262098,0.0112004,1819,1492,33.1951,-28.359
602,-468,33.1519,27.5039,0.0024317,0.000756692,-0.0010437,0.00293238,0.000256015,-0.447286,0.00187541,0.00959115,1826,1492,33.1518,-27.5039
609,-468,33.0798,26.6526,0.00184241,0.000441782,-0.000531582,0.00202131,0.00026288,-0.324639,0.00126902,0.0102554,1833,1492,33.0798,-26.6526
616,-468,33.0328,25.8096,0.00142909,0.000116075,1.99518e-05,0.00142939,0.000115772,0.0151908,0.000916777,0.0106847,1840,1492,33.0329,-25.8095
623,-468,33.0154,25.006,0.00126937,-0.000286092,0.00064297,0.00150074,-0.000517458,0.345413,0.00121043,0.0121404,1847,1492,33.0154,-25.006
630,-468,32.9996,24.1592,0.00117995,-0.000754255,0.00143402,0.0019425,-0.00151681,0.48873,0.00200227,0.0135357,1854,1492,32.9996,-24.1592
637,-468,32.9886,23.2711,0.00118243,-0.00122703,0.00229824,0.00257255,-0.00261716,0.543989,0.00299632,0.0266541,1861,1492,32.9887,-23.2712
644,-468,32.8232,22.618,0.00114541,-0.00170536,0.00327056,0.0032877,-0.00384764,0.579898,0.00412382,0.0449778,1868,1492,32.8232,-22.618
651,-468,32.803,21.7891,0,0,0,0,0,0,0,-1,1875,1492,32.8029,-21.7891
658,-468,16.4969,10.0774,0,0,0,0,0,0,0,-1,1882,1492,16.497,-10.0774
665,-468,15.4673,8.59546,0,0,0,0,0,0,0,-1,1889,1492,15.4672,-8.59548
672,-468,9.96814,3.61133,0,0,0,0,0,0,0,-1,1896,1492,9.96817,-3.61139
679,-468,11.2191,1.91968,0,0,0,0,0,0,0,-1,1903,1492,11.2191,-1.91965
686,-468,11.9252,1.42285,0,0,0,0,0,0,0,-1,1910,1492,11.9252,-1.42291
693,-468,0,0,0,0,0,0,0,0,0,-1,1917,1492,0,0
700,-468,0,0,0,0,0,0,0,0,0,-1,1924,1492,0,0
707,-468,0,0,0,0,0,0,0,0,0,-1,1931,1492,0,0
714,-468,0,0,0,0,0,0,0,0,0,-1,1938,1492,0,0
721,-468,0,0,0,0,0,0,0,0,0,-1,1945,1492,0,0
728,-468,0,0,0,0,0,0,0,0,0,-1,1952,1492,0,0
735,-468,0,0,0,0,0,0,0,0,0,-1,1959,1492,0,0
742,-468,0,0,0,0,0,0,0,0,0,-1,1966,1492,0,0
749,-468,0,0,0,0,0,0,0,0,0,-1,1973,1492,0,0
756,-468,0,0,0,0,0,0,0,0,0,-1,1980,1492,0,0
763,-468,0,0,0,0,0,0,0,0,0,-1,1987,1492,0,0
770,-468,0,0,0,0,0,0,0,0,0,-1,1994,1492,0,0
777,-468,0,0,0,0,0,0,0,0,0,-1,2001,1492,0,0
784,-468,0,0,0,0,0,0,0,0,0,-1,2008,1492,0,0
791,-468,0,0,0,0,0,0,0,0,0,-1,2015,1492,0,0
798,-468,0,0,0,0,0,0,0,0,0,-1,2022,1492,0,0
805,-468,0,0,0,0,0,0,0,0,0,-1,2029,1492,0,0
812,-468,0,0,0,0,0,0,0,0,0,-1,2036,1492,0,0
-700,-475,0,0,0,0,0,0,0,0,0,-1,524,1499,0,0
-693,-475,0,0,0,0,0,0,0,0,0,-1,531,1499,0,0
-686,-475,0,0,0,0,0,0,0,0,0,-1,538,1499,0,0
-679,-475,0,0,0,0,0,0,0,0,0,-1,545,1499,0,0
-672,-475,0,0,0,0,0,0,0,0,0,-1,552,1499,0,0
-665,-475,0,0,0,0,0,0,0,0,0,-1,559,1499,0,0
-658,-475,0,0,0,0,0,0,0,0,0,-1,566,1499,0,0
-651,-475,0,0,0,0,0,0,0,0,0,-1,573,1499,0,0
-644,-475,0,0,0,0,0,0,0,0,0,-1,580,1499,0,0
-637,-475,0,0,0,0,0,0,0,0,0,-1,587,1499,0,0
-630,-475,0,0,0,0,0,0,0,0,0,-1,594,1499,0,0
-623,-475,0,0,0,0,0,0,0,0,0,-1,601,1499,0,0
-616,-475,0,0,0,0,0,0,0,0,0,-1,608,1499,0,0
-609,-475,0,0,0,0,0,0,0,0,0,-1,615,1499,0,0
-602,-475,0,0,0,0,0,0,0,0,0,-1,622,1499,0,0
-595,-475,0,0,0,0,0,0,0,0,0,-1,629,1499,0,0
-588,-475,0,0,0,0,0,0,0,0,0,-1,636,1499,0,0
-581,-475,0,0,0,0,0,0,0,0,0,-1,643,1499,0,0
-574,-475,0,0,0,0,0,0,0,0,0,-1,650,1499,0,0
-567,-475,0,0,0,0,0,0,0,0,0,-1,657,1499,0,0
-560,-475,-9.42731,9.29517,0,0,0,0,0,0,0,-1,664,1499,-9.42731,-9.29519
-553,-475,-8.15131,8.78369,0,0,0,0,0,0,0,-1,671,1499,-8.15131,-8.78367
-546,-475,-8.41254,8.20654,0,0,0,0,0,0,0,-1,678,1499,-8.41251,-8.20655
-539,-475,-4.7345,4.17419,0,0,0,0,0,0,0,-1,685,1499,-4.73449,-4.17418
-532,-475,-7.07379,4.25024,0,0,0,0,0,0,0,-1,692,1499,-7.07378,-4.2503
-525,-475,-6.13147,5.82166,0,0,0,0,0,0,0,-1,699,1499,-6.1315,-5.8216
-518,-475,-7.28784,9.31506,0,0,0,0,0,0,0,-1,706,1499,-7.28782,-9.315
-511,-475,-6.84851,12.4244,0,0,0,0,0,0,0,-1,713,1499,-6.84851,-12.4244
-504,-475,-8.80957,16.0863,0,0,0,0,0,0,0,-1,720,1499,-8.80954,-16.0862
-497,-475,-14.4922,24.219,0,0,0,0,0,0,0,-1,727,1499,-14.4922,-24.219
-490,-475,-14.4667,25.283,0.00339393,0.00513412,0.00452306,0.00887001,-0.00034196,0.880422,0.00603056,0.0226373,734,1499,-14.4667,-25.283
-483,-475,-14.4823,26.235,0.00257004,0.00349606,0.00316681,0.00623353,-0.000167432,0.857987,0.00421261,0.0091868,741,1499,-14.4823,-26.235
-476,-475,-14.5277,27.0841,0.00205584,0.00244321,0.00224571,0.00450357,-4.51738e-06,0.828414,0.00300389,0.0114701,748,1499,-14.5277,-27.0842
-469,-475,-14.5764,27.9564,0.00167645,0.00178219,0.00162684,0.00335702,0.000101622,0.801641,0.00220492,0.0155114,755,1499,-14.5764,-27.9564
-462,-475,-14.5533,28.7943,0.00147973,0.00151009,0.00129359,0.00278859,0.000201236,0.791264,0.00179574,0.0208126,762,1499,-14.5533,-28.7944
-455,-475,-14.5949,29.6588,0.00146239,0.00156807,0.00120944,0.00272582,0.00030464,0.807231,0.00172466,0.0177169,769,1499,-14.5949,-29.6588
-448,-475,-14.7252,30.5015,0.00162615,0.00192939,0.00133814,0.00312447,0.000431064,0.841812,0.0019552,0.0150121,776,1499,-14.7252,-30.5014
-441,-475,-14.8256,31.3258,0.00197942,0.00265121,0.00172315,0.0040709,0.000559735,0.881657,0.00254793,0.0177172,783,1499,-14.8256,-31.3258
-434,-475,-14.822,32.1958,0.00252797,0.00365118,0.00233415,0.00549034,0.000688814,0.903456,0.00345359,0.0132658,790,1499,-14.822,-32.1958
-427,-475,-14.7955,33.0597,0,0,0,0,0,0,0,-1,797,1499,-14.7955,-33.0597
-420,-475,-14.302,33.4558,0,0,0,0,0,0,0,-1,804,1499,-14.302,-33.4559
-413,-475,-6.46777,20.8481,0,0,0,0,0,0,0,-1,811,1499,-6.46776,-20.8481
-406,-475,-2.56116,12.4956,0,0,0,0,0,0,0,-1,818,1499,-2.56116,-12.4956
-399,-475,-1.39667,6.1615,0,0,0,0,0,0,0,-1,825,1499,-1.39664,-6.16155
-392,-475,0.217163,8.61389,0,0,0,0,0,0,0,-1,832,1499,0.217167,-8.6139
-385,-475,1.18372,2.73999,0,0,0,0,0,0,0,-1,839,1499,1.18372,-2.73995
-378,-475,1.31409,2.90149,0,0,0,0,0,0,0,-1,846,1499,1.31411,-2.90151
-371,-475,2.3476,3.31116,0,0,0,0,0,0,0,-1,853,1499,2.34761,-3.31121
-364,-475,1.04462,9.05823,0,0,0,0,0,0,0,-1,860,1499,1.04461,-9.05825
-357,-475,-0.262756,7.97205,0,0,0,0,0,0,0,-1,867,1499,-0.262784,-7.97205
-350,-475,-5.16473,-1.27881,0,0,0,0,0,0,0,-1,874,1499,-5.16474,1.27884
-343,-475,-5.76923,-0.530518,0,0,0,0,0,0,0,-1,881,1499,-5.76923,0.530526
-336,-475,0,0,0,0,0,0,0,0,0,-1,888,1499,0,0
-329,-475,0,0,0,0,0,0,0,0,0,-1,895,1499,0,0
-322,-475,0,0,0,0,0,0,0,0,0,-1,902,1499,0,0
-315,-475,0,0,0,0,0,0,0,0,0,-1,909,1499,0,0
-308,-475,0,0,0,0,0,0,0,0,0,-1,916,1499,0,0
-301,-475,0,0,0,0,0,0,0,0,0,-1,923,1499,0,0
-294,-475,0,0,0,0,0,0,0,0,0,-1,930,1499,0,0
-287,-475,0,0,0,0,0,0,0,0,0,-1,937,1499,0,0
-280,-475,0,0,0,0,0,0,0,0,0,-1,944,1499,0,0
-273,-475,0,0,0,0,0,0,0,0,0,-1,951,1499,0,0
-266,-475,0,0,0,0,0,0,0,0,0,-1,958,1499,0,0
-259,-475,0,0,0,0,0,0,0,0,0,-1,965,1499,0,0
-252,-475,0,0,0,0,0,0,0,0,0,-1,972,1499,0,0
-245,-475,0,0,0,0,0,0,0,0,0,-1,979,1499,0,0
-238,-475,0,0,0,0,0,0,0,0,0,-1,986,1499,0,0
-231,-475,0,0,0,0,0,0,0,0,0,-1,993,1499,0,0
-224,-475,0,0,0,0,0,0,0,0,0,-1,1000,1499,0,0
-217,-475,0,0,0,0,0,0,0,0,0,-1,1007,1499,0,0
-210,-475,0,0,0,0,0,0,0,0,0,-1,1014,1499,0,0
-203,-475,0,0,0,0,0,0,0,0,0,-1,1021,1499,0,0
-196,-475,0,0,0,0,0,0,0,0,0,-1,1028,1499,0,0
-189,-475,0,0,0,0,0,0,0,0,0,-1,1035,1499,0,0
-182,-475,0,0,0,0,0,0,0,0,0,-1,1042,1499,0,0
-175,-475,0,0,0,0,0,0,0,0,0,-1,1049,1499,0,0
-168,-475,0,0,0,0,0,0,0,0,0,-1,1056,1499,0,0
-161,-475,0,0,0,0,0,0,0,0,0,-1,1063,1499,0,0
-154,-475,0,0,0,0,0,0,0,0,0,-1,1070,1499,0,0
-147,-475,0,0,0,0,0,0,0,0,0,-1,1077,1499,0,0
-140,-475,0,0,0,0,0,0,0,0,0,-1,1084,1499,0,0
-133,-475,0,0,0,0,0,0,0,0,0,-1,1091,1499,0,0
-126,-475,0,0,0,0,0,0,0,0,0,-1,1098,1499,0,0
-119,-475,0,0,0,0,0,0,0,0,0,-1,1105,1499,0,0
-112,-475,0,0,0,0,0,0,0,0,0,-1,1112,1499,0,0
-105,-475,0,0,0,0,0,0,0,0,0,-1,1119,1499,0,0
-98,-475,0,0,0,0,0,0,0,0,0,-1,1126,1499,0,0
-91,-475,0,0,0,0,0,0,0,0,0,-1,1133,1499,0,0
-84,-475,0,0,0,0,0,0,0,0,0,-1,1140,1499,0,0
-77,-475,0,0,0,0,0,0,0,0,0,-1,1147,1499,0,0
-70,-475,0,0,0,0,0,0,0,0,0,-1,1154,1499,0,0
-63,-475,0,0,0,0,0,0,0,0,0,-1,1161,1499,0,0
-56,-475,0,0,0,0,0,0,0,0,0,-1,1168,1499,0,0
-49,-475,0,0,0,0,0,0,0,0,0,-1,1175,1499,0,0
-42,-475,0,0,0,0,0,0,0,0,0,-1,1182,1499,0,0
-35,-475,0,0,0,0,0,0,0,0,0,-1,1189,1499,0,0
-28,-475,0,0,0,0,0,0,0,0,0,-1,1196,1499,0,0
-21,-475,0,0,0,0,0,0,0,0,0,-1,1203,1499,0,0
-14,-475,0,0,0,0,0,0,0,0,0,-1,1210,1499,0,0
-7,-475,0,0,0,0,0,0,0,0,0,-1,1217,1499,0,0
0,-475,0,0,0,0,0,0,0,0,0,-1,1224,1499,0,0
7,-475,0,0,0,0,0,0,0,0,0,-1,1231,1499,0,0
14,-475,0,0,0,0,0,0,0,0,0,-1,1238,1499,0,0
21,-475,0,0,0,0,0,0,0,0,0,-1,1245,1499,0,0
28,-475,0,0,0,0,0,0,0,0,0,-1,1252,1499,0,0
35,-475,0,0,0,0,0,0,0,0,0,-1,1259,1499,0,0
42,-475,0,0,0,0,0,0,0,0,0,-1,1266,1499,0,0
49,-475,0,0,0,0,0,0,0,0,0,-1,1273,1499,0,0
56,-475,0,0,0,0,0,0,0,0,0,-1,1280,1499,0,0
63,-475,0,0,0,0,0,0,0,0,0,-1,1287,1499,0,0
70,-475,0,0,0,0,0,0,0,0,0,-1,1294,1499,0,0
77,-475,0,0,0,0,0,0,0,0,0,-1,1301,1499,0,0
84,-475,0,0,0,0,0,0,0,0,0,-1,1308,1499,0,0
91,-475,0,0,0,0,0,0,0,0,0,-1,1315,1499,0,0
98,-475,0,0,0,0,0,0,0,0,0,-1,1322,1499,0,0
105,-475,0,0,0,0,0,0,0,0,0,-1,1329,1499,0,0
112,-475,0,0,0,0,0,0,0,0,0,-1,1336,1499,0,0
119,-475,0,0,0,0,0,0,0,0,0,-1,1343,1499,0,0
126,-475,0,0,0,0,0,0,0,0,0,-1,1350,1499,0,0
133,-475,0,0,0,0,0,0,0,0,0,-1,1357,1499,0,0
140,-475,0,0,0,0,0,0,0,0,0,-1,1364,1499,0,0
147,-475,0,0,0,0,0,0,0,0,0,-1,1371,1499,0,0
154,-475,0,0,0,0,0,0,0,0,0,-1,1378,1499,0,0
161,-475,0,0,0,0,0,0,0,0,0,-1,1385,1499,0,0
168,-475,0,0,0,0,0,0,0,0,0,-1,1392,1499,0,0
175,-475,0,0,0,0,0,0,0,0,0,-1,1399,1499,0,0
182,-475,0,0,0,0,0,0,0,0,0,-1,1406,1499,0,0
189,-475,0,0,0,0,0,0,0,0,0,-1,1413,1499,0,0
196,-475,0,0,0,0,0,0,0,0,0,-1,1420,1499,0,0
203,-475,0,0,0,0,0,0,0,0,0,-1,1427,1499,0,0
210,-475,0,0,0,0,0,0,0,0,0,-1,1434,1499,0,0
217,-475,0,0,0,0,0,0,0,0,0,-1,1441,1499,0,0
224,-475,0,0,0,0,0,0,0,0,0,-1,1448,1499,0,0
231,-475,0,0,0,0,0,0,0,0,0,-1,1455,1499,0,0
238,-475,0,0,0,0,0,0,0,0,0,-1,1462,1499,0,0
245,-475,0,0,0,0,0,0,0,0,0,-1,1469,1499,0,0
252,-475,0,0,0,0,0,0,0,0,0,-1,1476,1499,0,0
259,-475,0,0,0,0,0,0,0,0,0,-1,1483,1499,0,0
266,-475,0,0,0,0,0,0,0,0,0,-1,1490,1499,0,0
273,-475,0,0,0,0,0,0,0,0,0,-1,1497,1499,0,0
280,-475,0,0,0,0,0,0,0,0,0,-1,1504,1499,0,0
287,-475,0,0,0,0,0,0,0,0,0,-1,1511,1499,0,0
294,-475,0,0,0,0,0,0,0,0,0,-1,1518,1499,0,0
301,-475,0,0,0,0,0,0,0,0,0,-1,1525,1499,0,0
308,-475,0,0,0,0,0,0,0,0,0,-1,1532,1499,0,0
315,-475,0,0,0,0,0,0,0,0,0,-1,1539,1499,0,0
322,-475,0,0,0,0,0,0,0,0,0,-1,1546,1499,0,0
329,-475,0,0,0,0,0,0,0,0,0,-1,1553,1499,0,0
336,-475,0,0,0,0,0,0,0,0,0,-1,1560,1499,0,0
343,-475,0,0,0,0,0,0,0,0,0,-1,1567,1499,0,0
350,-475,0,0,0,0,0,0,0,0,0,-1,1574,1499,0,0
357,-475,0,0,0,0,0,0,0,0,0,-1,1581,1499,0,0
364,-475,0,0,0,0,0,0,0,0,0,-1,1588,1499,0,0
371,-475,0,0,0,0,0,0,0,0,0,-1,1595,1499,0,0
378,-475,0,0,0,0,0,0,0,0,0,-1,1602,1499,0,0
385,-475,0,0,0,0,0,0,0,0,0,-1,1609,1499,0,0
392,-475,0,0,0,0,0,0,0,0,0,-1,1616,1499,0,0
399,-475,0,0,0,0,0,0,0,0,0,-1,1623,1499,0,0
406,-475,0,0,0,0,0,0,0,0,0,-1,1630,1499,0,0
413,-475,0,0,0,0,0,0,0,0,0,-1,1637,1499,0,0
420,-475,0,0,0,0,0,0,0,0,0,-1,1644,1499,0,0
427,-475,0,0,0,0,0,0,0,0,0,-1,1651,1499,0,0
434,-475,0,0,0,0,0,0,0,0,0,-1,1658,1499,0,0
441,-475,0,0,0,0,0,0,0,0,0,-1,1665,1499,0,0
448,-475,0,0,0,0,0,0,0,0,0,-1,1672,1499,0,0
455,-475,0,0,0,0,0,0,0,0,0,-1,1679,1499,0,0
462,-475,12.6372,0.275391,0,0,0,0,0,0,0,-1,1686,1499,12.6372,-0.27536
469,-475,15.6437,2.28296,0,0,0,0,0,0,0,-1,1693,1499,15.6437,-2.28293
476,-475,15.3302,2.71436,0,0,0,0,0,0,0,-1,1700,1499,15.3303,-2.7143
483,-475,10.7461,5.91479,0,0,0,0,0,0,0,-1,1707,1499,10.7461,-5.91476
490,-475,11.9305,4.4364,0,0,0,0,0,0,0,-1,1714,1499,11.9305,-4.43644
497,-475,15.3451,4.3479,0,0,0,0,0,0,0,-1,1721,1499,15.3451,-4.34789
504,-475,16.9646,7.71265,0,0,0,0,0,0,0,-1,1728,1499,16.9646,-7.71265
511,-475,18.941,12.7572,0,0,0,0,0,0,0,-1,1735,1499,18.941,-12.7572
518,-475,17.0021,13.8564,0,0,0,0,0,0,0,-1,1742,1499,17.0021,-13.8564
525,-475,17.5637,15.2103,0,0,0,0,0,0,0,-1,1749,1499,17.5637,-15.2103
532,-475,20.8623,20.8413,0,0,0,0,0,0,0,-1,1756,1499,20.8623,-20.8413
539,-475,20.5494,20.8519,0,0,0,0,0,0,0,-1,1763,1499,20.5494,-20.852
546,-475,20.4524,19.8799,0,0,0,0,0,0,0,-1,1770,1499,20.4524,-19.8798
553,-475,32.2288,33.6177,0,0,0,0,0,0,0,-1,1777,1499,32.2288,-33.6177
560,-475,32.3523,32.7103,0.0105755,0.00535093,-0.00546192,0.0140177,0.00190876,-0.562339,0.00877834,0.0391794,1784,1499,32.3523,-32.7103
567,-475,32.5643,31.7034,0.00831061,0.0038866,-0.00414477,0.0107967,0.00140051,-0.540283,0.00677936,0.0172188,1791,1499,32.5643,-31.7034
574,-475,32.4932,30.8668,0.00645296,0.00286336,-0.00322096,0.00834542,0.000970897,-0.531211,0.00526988,0.0151131,1798,1499,32.4931,-30.8668
581,-475,32.4579,30.0795,0.0049099,0.00208271,-0.00248016,0.00635103,0.000641587,-0.526378,0.00403719,0.0123148,1805,1499,32.4579,-30.0795
588,-475,32.415,29.2435,0.00370898,0.00152646,-0.0019209,0.00482695,0.000408485,-0.527083,0.00309082,0.0105771,1812,1499,32.415,-29.2435
595,-475,32.37,28.3969,0.00283303,0.0010445,-0.00138954,0.0035912,0.000286329,-0.499478,0.00230462,0.0114452,1819,1499,32.37,-28.3969
602,-475,32.3087,27.5419,0.00213666,0.000680495,-0.000953093,0.00260795,0.000209206,-0.459225,0.00167326,0.0122512,1826,1499,32.3087,-27.5418
609,-475,32.2397,26.717,0.00163622,0.000423205,-0.000487597,0.00180792,0.000251509,-0.33857,0.00113081,0.0117365,1833,1499,32.2397,-26.7171
616,-475,32.1895,25.9039,0.00134272,0.000157574,4.30229e-05,0.00134428,0.000156014,0.0362381,0.000848974,0.0121975,1840,1499,32.1895,-25.904
623,-475,32.1866,25.0189,0.00124713,-0.000300384,0.000750859,0.00155156,-0.000604815,0.385191,0.00128436,0.0125927,1847,1499,32.1867,-25.0189
630,-475,32.1362,24.1475,0.00111521,-0.000834471,0.00173005,0.00212616,-0.00184543,0.528834,0.00229491,0.0218988,1854,1499,32.1362,-24.1475
637,-475,32.064,23.3789,0.0010296,-0.00142321,0.00287111,0.00292526,-0.00331888,0.583551,0.00360744,0.0406292,1861,1499,32.0639,-23.3789
644,-475,31.9039,22.5073,0,0,0,0,0,0,0,-1,1868,1499,31.9039,-22.5074
651,-475,29.886,19.2421,0,0,0,0,0,0,0,-1,1875,1499,29.886,-19.242
658,-475,14.6708,8.80322,0,0,0,0,0,0,0,-1,1882,1499,14.6708,-8.8032
665,-475,9.33435,5.43335,0,0,0,0,0,0,0,-1,1889,1499,9.33439,-5.43332
672,-475,9.38635,1.10474,0,0,0,0,0,0,0,-1,1896,1499,9.38629,-1.10475
679,-475,12.2594,1.31079,0,0,0,0,0,0,0,-1,1903,1499,12.2594,-1.31077
686,-475,0,0,0,0,0,0,0,0,0,-1,1910,1499,0,0
693,-475,0,0,0,0,0,0,0,0,0,-1,1917,1499,0,0
700,-475,0,0,0,0,0,0,0,0,0,-1,1924,1499,0,0
707,-475,0,0,0,0,0,0,0,0,0,-1,1931,1499,0,0
714,-475,0,0,0,0,0,0,0,0,0,-1,1938,1499,0,0
721,-475,0,0,0,0,0,0,0,0,0,-1,1945,1499,0,0
728,-475,0,0,0,0,0,0,0,0,0,-1,1952,1499,0,0
735,-475,0,0,0,0,0,0,0,0,0,-1,1959,1499,0,0
742,-475,0,0,0,0,0,0,0,0,0,-1,1966,1499,0,0
749,-475,0,0,0,0,0,0,0,0,0,-1,1973,1499,0,0
756,-475,0,0,0,0,0,0,0,0,0,-1,1980,1499,0,0
763,-475,0,0,0,0,0,0,0,0,0,-1,1987,1499,0,0
770,-475,0,0,0,0,0,0,0,0,0,-1,1994,1499,0,0
777,-475,0,0,0,0,0,0,0,0,0,-1,2001,1499,0,0
784,-475,0,0,0,0,0,0,0,0,0,-1,2008,1499,0,0
791,-475,0,0,0,0,0,0,0,0,0,-1,2015,1499,0,0
798,-475,0,0,0,0,0,0,0,0,0,-1,2022,1499,0,0
805,-475,0,0,0,0,0,0,0,0,0,-1,2029,1499,0,0
812,-475,0,0,0,0,0,0,0,0,0,-1,2036,1499,0,0
-700,-482,0,0,0,0,0,0,0,0,0,-1,524,1506,0,0
-693,-482,0,0,0,0,0,0,0,0,0,-1,531,1506,0,0
-686,-482,0,0,0,0,0,0,0,0,0,-1,538,1506,0,0
-679,-482,0,0,0,0,0,0,0,0,0,-1,545,1506,0,0
-672,-482,0,0,0,0,0,0,0,0,0,-1,552,1506,0,0
-665,-482,0,0,0,0,0,0,0,0,0,-1,559,1506,0,0
-658,-482,0,0,0,0,0,0,0,0,0,-1,566,1506,0,0
-651,-482,0,0,0,0,0,0,0,0,0,-1,573,1506,0,0
-644,-482,0,0,0,0,0,0,0,0,0,-1,580,1506,0,0
-637,-482,0,0,0,0,0,0,0,0,0,-1,587,1506,0,0
-630,-482,0,0,0,0,0,0,0,0,0,-1,594,1506,0,0
-623,-482,0,0,0,0,0,0,0,0,0,-1,601,1506,0,0
-616,-482,0,0,0,0,0,0,0,0,0,-1,608,1506,0,0
-609,-482,0,0,0,0,0,0,0,0,0,-1,615,1506,0,0
-602,-482,0,0,0,0,0,0,0,0,0,-1,622,1506,0,0
-595,-482,0,0,0,0,0,0,0,0,0,-1,629,1506,0,0
-588,-482,0,0,0,0,0,0,0,0,0,-1,636,1506,0,0
-581,-482,0,0,0,0,0,0,0,0,0,-1,643,1506,0,0
-574,-482,0,0,0,0,0,0,0,0,0,-1,650,1506,0,0
-567,-482,0,0,0,0,0,0,0,0,0,-1,657,1506,0,0
-560,-482,0,0,0,0,0,0,0,0,0,-1,664,1506,0,0
-553,-482,-9.06055,9.34314,0,0,0,0,0,0,0,-1,671,1506,-9.06056,-9.34312
-546,-482,-4.08624,8.34241,0,0,0,0,0,0,0,-1,678,1506,-4.08624,-8.3424
-539,-482,-4.29877,2.73499,0,0,0,0,0,0,0,-1,685,1506,-4.29879,-2.73494
-532,-482,-3.63611,4.23987,0,0,0,0,0,0,0,-1,692,1506,-3.63609,-4.23983
-525,-482,-6.19116,5.24927,0,0,0,0,0,0,0,-1,699,1506,-6.19117,-5.24927
-518,-482,-5.92957,6.39807,0,0,0,0,0,0,0,-1,706,1506,-5.92958,-6.39806
-511,-482,-7.74634,11.9137,0,0,0,0,0,0,0,-1,713,1506,-7.74633,-11.9137
-504,-482,-6.42358,13.4211,0,0,0,0,0,0,0,-1,720,1506,-6.42356,-13.4212
-497,-482,-8.86163,17.7108,0,0,0,0,0,0,0,-1,727,1506,-8.86163,-17.7109
-490,-482,-13.6741,25.2233,0,0,0,0,0,0,0,-1,734,1506,-13.6741,-25.2233
-483,-482,-13.6505,26.2407,0.00264963,0.00407362,0.00355919,0.00699134,-0.000268085,0.884118,0.00475277,0.0135985,741,1506,-13.6505,-26.2407
-476,-482,-13.6648,27.1295,0.00208075,0.00285262,0.00251491,0.00501103,-7.76639e-05,0.861534,0.00336687,0.0107309,748,1506,-13.6648,-27.1296
-469,-482,-13.7221,28.0239,0.00164936,0.00203472,0.00182552,0.00367771,6.3742e-06,0.837979,0.00244968,0.0137749,755,1506,-13.7221,-28.0239
-462,-482,-13.7628,28.8654,0.00140806,0.00164527,0.00142777,0.00295936,9.39759e-05,0.826839,0.00194234,0.0145687,762,1506,-13.7628,-28.8654
-455,-482,-13.8033,29.6763,0.00136322,0.00159455,0.00128086,0.00276495,0.000192815,0.830429,0.00178251,0.0133346,769,1506,-13.8033,-29.6763
-448,-482,-13.8813,30.5563,0.0015062,0.00182373,0.00132522,0.00299967,0.000330267,0.845015,0.00189928,0.0144769,776,1506,-13.8813,-30.5563
-441,-482,-13.9435,31.3989,0.00181402,0.00234245,0.0015812,0.00368135,0.000475116,0.868182,0.00231219,0.0144513,783,1506,-13.9435,-31.399
-434,-482,-13.9622,32.2474,0.00227794,0.00311741,0.00202089,0.00476169,0.000633662,0.887792,0.00298574,0.0164174,790,1506,-13.9622,-32.2474
-427,-482,-14.0021,33.1569,0.00299815,0.00424614,0.00266282,0.00635709,0.000887191,0.900489,0.00397547,0.0225023,797,1506,-14.0021,-33.1568
-420,-482,-14.1155,34.0858,0,0,0,0,0,0,0,-1,804,1506,-14.1155,-34.0858
-413,-482,-6.56415,22.3163,0,0,0,0,0,0,0,-1,811,1506,-6.56417,-22.3163
-406,-482,-2.51373,12.7556,0,0,0,0,0,0,0,-1,818,1506,-2.51376,-12.7556
-399,-482,-1.3822,9.22595,0,0,0,0,0,0,0,-1,825,1506,-1.38221,-9.22598
-392,-482,-1.06836,9.22729,0,0,0,0,0,0,0,-1,832,1506,-1.06835,-9.2273
-385,-482,0.0647583,8.90649,0,0,0,0,0,0,0,-1,839,1506,0.0647778,-8.90644
-378,-482,0.215698,5.96948,0,0,0,0,0,0,0,-1,846,1506,0.215681,-5.9695
-371,-482,-0.10907,8.10437,0,0,0,0,0,0,0,-1,853,1506,-0.109063,-8.10433
-364,-482,-0.154968,10.5032,0,0,0,0,0,0,0,-1,860,1506,-0.154976,-10.5032
-357,-482,2.14807,4.60144,0,0,0,0,0,0,0,-1,867,1506,2.14807,-4.60144
-350,-482,-7.5813,-1.45935,0,0,0,0,0,0,0,-1,874,1506,-7.58133,1.45937
-343,-482,-5.80902,1.81226,0,0,0,0,0,0,0,-1,881,1506,-5.80903,-1.81221
-336,-482,2.52826,-0.390503,0,0,0,0,0,0,0,-1,888,1506,2.52826,0.390456
-329,-482,0,0,0,0,0,0,0,0,0,-1,895,1506,0,0
-322,-482,0,0,0,0,0,0,0,0,0,-1,902,1506,0,0
-315,-482,0,0,0,0,0,0,0,0,0,-1,909,1506,0,0
-308,-482,0,0,0,0,0,0,0,0,0,-1,916,1506,0,0
-301,-482,0,0,0,0,0,0,0,0,0,-1,923,1506,0,0
-294,-482,0,0,0,0,0,0,0,0,0,-1,930,1506,0,0
-287,-482,0,0,0,0,0,0,0,0,0,-1,937,1506,0,0
-280,-482,0,0,0,0,0,0,0,0,0,-1,944,1506,0,0
-273,-482,0,0,0,0,0,0,0,0,0,-1,951,1506,0,0
-266,-482,0,0,0,0,0,0,0,0,0,-1,958,1506,0,0
-259,-482,0,0,0,0,0,0,0,0,0,-1,965,1506,0,0
-252,-482,0,0,0,0,0,0,0,0,0,-1,972,1506,0,0
-245,-482,0,0,0,0,0,0,0,0,0,-1,979,1506,0,0
-238,-482,0,0,0,0,0,0,0,0,0,-1,986,1506,0,0
-231,-482,0,0,0,0,0,0,0,0,0,-1,993,1506,0,0
-224,-482,0,0,0,0,0,0,0,0,0,-1,1000,1506,0,0
-217,-482,0,0,0,0,0,0,0,0,0,-1,1007,1506,0,0
-210,-482,0,0,0,0,0,0,0,0,0,-1,1014,1506,0,0
-203,-482,0,0,0,0,0,0,0,0,0,-1,1021,1506,0,0
-196,-482,0,0,0,0,0,0,0,0,0,-1,1028,1506,0,0
-189,-482,0,0,0,0,0,0,0,0,0,-1,1035,1506,0,0
-182,-482,0,0,0,0,0,0,0,0,0,-1,1042,1506,0,0
-175,-482,0,0,0,0,0,0,0,0,0,-1,1049,1506,0,0
-168,-482,0,0,0,0,0,0,0,0,0,-1,1056,1506,0,0
-161,-482,0,0,0,0,0,0,0,0,0,-1,1063,1506,0,0
-154,-482,0,0,0,0,0,0,0,0,0,-1,1070,1506,0,0
-147,-482,0,0,0,0,0,0,0,0,0,-1,1077,1506,0,0
-140,-482,0,0,0,0,0,0,0,0,0,-1,1084,1506,0,0
-133,-482,0,0,0,0,0,0,0,0,0,-1,1091,1506,0,0
-126,-482,0,0,0,0,0,0,0,0,0,-1,1098,1506,0,0
-119,-482,0,0,0,0,0,0,0,0,0,-1,1105,1506,0,0
-112,-482,0,0,0,0,0,0,0,0,0,-1,1112,1506,0,0
-105,-482,0,0,0,0,0,0,0,0,0,-1,1119,1506,0,0
-98,-482,0,0,0,0,0,0,0,0,0,-1,1126,1506,0,0
-91,-482,0,0,0,0,0,0,0,0,0,-1,1133,1506,0,0
-84,-482,0,0,0,0,0,0,0,0,0,-1,1140,1506,0,0
-77,-482,0,0,0,0,0,0,0,0,0,-1,1147,1506,0,0
-70,-482,0,0,0,0,0,0,0,0,0,-1,1154,1506,0,0
-63,-482,0,0,0,0,0,0,0,0,0,-1,1161,1506,0,0
-56,-482,0,0,0,0,0,0,0,0,0,-1,1168,1506,0,0
-49,-482,0,0,0,0,0,0,0,0,0,-1,1175,1506,0,0
-42,-482,0,0,0,0,0,0,0,0,0,-1,1182,1506,0,0
-35,-482,0,0,0,0,0,0,0,0,0,-1,1189,1506,0,0
-28,-482,0,0,0,0,0,0,0,0,0,-1,1196,1506,0,0
-21,-482,0,0,0,0,0,0,0,0,0,-1,1203,1506,0,0
-14,-482,0,0,0,0,0,0,0,0,0,-1,1210,1506,0,0
-7,-482,0,0,0,0,0,0,0,0,0,-1,1217,1506,0,0
0,-482,0,0,0,0,0,0,0,0,0,-1,1224,1506,0,0
7,-482,0,0,0,0,0,0,0,0,0,-1,1231,1506,0,0
14,-482,0,0,0,0,0,0,0,0,0,-1,1238,1506,0,0
21,-482,0,0,0,0,0,0,0,0,0,-1,1245,1506,0,0
28,-482,0,0,0,0,0,0,0,0,0,-1,1252,1506,0,0
35,-482,0,0,0,0,0,0,0,0,0,-1,1259,1506,0,0
42,-482,0,0,0,0,0,0,0,0,0,-1,1266,1506,0,0
49,-482,0,0,0,0,0,0,0,0,0,-1,1273,1506,0,0
56,-482,0,0,0,0,0,0,0,0,0,-1,1280,1506,0,0
63,-482,0,0,0,0,0,0,0,0,0,-1,1287,1506,0,0
70,-482,0,0,0,0,0,0,0,0,0,-1,1294,1506,0,0
77,-482,0,0,0,0,0,0,0,0,0,-1,1301,1506,0,0
84,-482,0,0,0,0,0,0,0,0,0,-1,1308,1506,0,0
91,-482,0,0,0,0,0,0,0,0,0,-1,1315,1506,0,0
98,-482,0,0,0,0,0,0,0,0,0,-1,1322,1506,0,0
105,-482,0,0,0,0,0,0,0,0,0,-1,1329,1506,0,0
112,-482,0,0,0,0,0,0,0,0,0,-1,1336,1506,0,0
119,-482,0,0,0,0,0,0,0,0,0,-1,1343,1506,0,0
126,-482,0,0,0,0,0,0,0,0,0,-1,1350,1506,0,0
133,-482,0,0,0,0,0,0,0,0,0,-1,1357,1506,0,0
140,-482,0,0,0,0,0,0,0,0,0,-1,1364,1506,0,0
147,-482,0,0,0,0,0,0,0,0,0,-1,1371,1506,0,0
154,-482,0,0,0,0,0,0,0,0,0,-1,1378,1506,0,0
161,-482,0,0,0,0,0,0,0,0,0,-1,1385,1506,0,0
168,-482,0,0,0,0,0,0,0,0,0,-1,1392,1506,0,0
175,-482,0,0,0,0,0,0,0,0,0,-1,1399,1506,0,0
182,-482,0,0,0,0,0,0,0,0,0,-1,1406,1506,0,0
189,-482,0,0,0,0,0,0,0,0,0,-1,1413,1506,0,0
196,-482,0,0,0,0,0,0,0,0,0,-1,1420,1506,0,0
203,-482,0,0,0,0,0,0,0,0,0,-1,1427,1506,0,0
210,-482,0,0,0,0,0,0,0,0,0,-1,1434,1506,0,0
217,-482,0,0,0,0,0,0,0,0,0,-1,1441,1506,0,0
224,-482,0,0,0,0,0,0,0,0,0,-1,1448,1506,0,0
231,-482,0,0,0,0,0,0,0,0,0,-1,1455,1506,0,0
238,-482,0,0,0,0,0,0,0,0,0,-1,1462,1506,0,0
245,-482,0,0,0,0,0,0,0,0,0,-1,1469,1506,0,0
252,-482,0,0,0,0,0,0,0,0,0,-1,1476,1506,0,0
259,-482,0,0,0,0,0,0,0,0,0,-1,1483,1506,0,0
266,-482,0,0,0,0,0,0,0,0,0,-1,1490,1506,0,0
273,-482,0,0,0,0,0,0,0,0,0,-1,1497,1506,0,0
280,-482,0,0,0,0,0,0,0,0,0,-1,1504,1506,0,0
287,-482,0,0,0,0,0,0,0,0,0,-1,1511,1506,0,0
294,-482,0,0,0,0,0,0,0,0,0,-1,1518,1506,0,0
301,-482,0,0,0,0,0,0,0,0,0,-1,1525,1506,0,0
308,-482,0,0,0,0,0,0,0,0,0,-1,1532,1506,0,0
315,-482,0,0,0,0,0,0,0,0,0,-1,1539,1506,0,0
322,-482,0,0,0,0,0,0,0,0,0,-1,1546,1506,0,0
329,-482,0,0,0,0,0,0,0,0,0,-1,1553,1506,0,0
336,-482,0,0,0,0,0,0,0,0,0,-1,1560,1506,0,0
343,-482,0,0,0,0,0,0,0,0,0,-1,1567,1506,0,0
350,-482,0,0,0,0,0,0,0,0,0,-1,1574,1506,0,0
357,-482,0,0,0,0,0,0,0,0,0,-1,1581,1506,0,0
364,-482,0,0,0,0,0,0,0,0,0,-1,1588,1506,0,0
371,-482,0,0,0,0,0,0,0,0,0,-1,1595,1506,0,0
378,-482,0,0,0,0,0,0,0,0,0,-1,1602,1506,0,0
385,-482,0,0,0,0,0,0,0,0,0,-1,1609,1506,0,0
392,-482,0,0,0,0,0,0,0,0,0,-1,1616,1506,0,0
399,-482,0,0,0,0,0,0,0,0,0,-1,1623,1506,0,0
406,-482,0,0,0,0,0,0,0,0,0,-1,1630,1506,0,0
413,-482,0,0,0,0,0,0,0,0,0,-1,1637,1506,0,0
420,-482,0,0,0,0,0,0,0,0,0,-1,1644,1506,0,0
427,-482,0,0,0,0,0,0,0,0,0,-1,1651,1506,0,0
434,-482,0,0,0,0,0,0,0,0,0,-1,1658,1506,0,0
441,-482,0,0,0,0,0,0,0,0,0,-1,1665,1506,0,0
448,-482,4.24146,1.55383,0,0,0,0,0,0,0,-1,1672,1506,4.24149,-1.55381
455,-482,12.4122,1.09729,0,0,0,0,0,0,0,-1,1679,1506,12.4122,-1.09734
462,-482,15.0673,3.13135,0,0,0,0,0,0,0,-1,1686,1506,15.0672,-3.13134
469,-482,15.3793,3.46301,0,0,0,0,0,0,0,-1,1693,1506,15.3793,-3.46307
476,-482,8.69751,9.18738,0,0,0,0,0,0,0,-1,1700,1506,8.69753,-9.18739
483,-482,10.0902,7.17432,0,0,0,0,0,0,0,-1,1707,1506,10.0902,-7.1743
490,-482,11.6289,5.4928,0,0,0,0,0,0,0,-1,1714,1506,11.6289,-5.49283
497,-482,15.9539,7.40222,0,0,0,0,0,0,0,-1,1721,1506,15.9538,-7.40219
504,-482,20.4233,12.006,0,0,0,0,0,0,0,-1,1728,1506,20.4233,-12.006
511,-482,18.4937,12.9175,0,0,0,0,0,0,0,-1,1735,1506,18.4936,-12.9174
518,-482,16.6002,13.9679,0,0,0,0,0,0,0,-1,1742,1506,16.6003,-13.9679
525,-482,18.495,15.9618,0,0,0,0,0,0,0,-1,1749,1506,18.495,-15.9618
532,-482,19.9375,21.0775,0,0,0,0,0,0,0,-1,1756,1506,19.9375,-21.0775
539,-482,20.2291,20.5577,0,0,0,0,0,0,0,-1,1763,1506,20.2291,-20.5578
546,-482,31.6647,34.627,0,0,0,0,0,0,0,-1,1770,1506,31.6646,-34.6269
553,-482,31.6191,33.5061,0,0,0,0,0,0,0,-1,1777,1506,31.6191,-33.5061
560,-482,31.6388,32.6128,0.00884461,0.00473689,-0.00471816,0.0119366,0.00164493,-0.580113,0.00747001,0.0190984,1784,1506,31.6388,-32.6128
567,-482,31.7422,31.7412,0.00699237,0.00344517,-0.00360188,0.00923364,0.0012039,-0.55662,0.00579629,0.0155953,1791,1506,31.7422,-31.7413
574,-482,31.6854,30.9392,0.00547558,0.00252759,-0.0028205,0.00718401,0.000819152,-0.544616,0.00454098,0.0149187,1798,1506,31.6855,-30.9392
581,-482,31.6305,30.1237,0.00418806,0.00184654,-0.00220382,0.00551279,0.000521801,-0.541235,0.0035142,0.0108784,1805,1506,31.6304,-30.1236
588,-482,31.577,29.2679,0.00319826,0.00135961,-0.00174403,0.00425043,0.000307438,-0.542841,0.0027369,0.0113523,1812,1506,31.577,-29.268
595,-482,31.5406,28.4169,0.00249704,0.000949114,-0.00129635,0.00323289,0.000213263,-0.516281,0.0020878,0.0175338,1819,1506,31.5407,-28.4169
602,-482,31.4933,27.5793,0.00194742,0.000689534,-0.000961685,0.00246757,0.000169388,-0.495807,0.00159159,0.0220485,1826,1506,31.4933,-27.5794
609,-482,31.4315,26.7614,0.00154758,0.000497649,-0.000568652,0.00179654,0.000248694,-0.412661,0.001124,0.016984,1833,1506,31.4315,-26.7613
616,-482,31.3621,25.9464,0.00141735,0.000320839,-0.000103216,0.00142698,0.000311207,-0.0930422,0.000866419,0.0118661,1840,1506,31.3621,-25.9464
623,-482,31.3054,25.1047,0.00141255,-0.000165553,0.000657659,0.00165069,-0.000403691,0.347412,0.00125682,0.0223854,1847,1506,31.3054,-25.1047
630,-482,31.4114,24.0986,0,0,0,0,0,0,0,-1,1854,1506,31.4114,-24.0987
637,-482,31.1512,23.4536,0,0,0,0,0,0,0,-1,1861,1506,31.1512,-23.4536
644,-482,29.0146,20.1443,0,0,0,0,0,0,0,-1,1868,1506,29.0147,-20.1442
651,-482,4.03845,7.05273,0,0,0,0,0,0,0,-1,1875,1506,4.03843,-7.05279
658,-482,10.0278,5.87903,0,0,0,0,0,0,0,-1,1882,1506,10.0279,-5.87902
665,-482,8.15198,3.22229,0,0,0,0,0,0,0,-1,1889,1506,8.15199,-3.22232
672,-482,9.87415,1.3147,0,0,0,0,0,0,0,-1,1896,1506,9.87416,-1.31473
679,-482,0,0,0,0,0,0,0,0,0,-1,1903,1506,0,0
686,-482,0,0,0,0,0,0,0,0,0,-1,1910,1506,0,0
693,-482,0,0,0,0,0,0,0,0,0,-1,1917,1506,0,0
700,-482,0,0,0,0,0,0,0,0,0,-1,1924,1506,0,0
707,-482,0,0,0,0,0,0,0,0,0,-1,1931,1506,0,0
714,-482,0,0,0,0,0,0,0,0,0,-1,1938,1506,0,0
721,-482,0,0,0,0,0,0,0,0,0,-1,1945,1506,0,0
728,-482,0,0,0,0,0,0,0,0,0,-1,1952,1506,0,0
735,-482,0,0,0,0,0,0,0,0,0,-1,1959,1506,0,0
742,-482,0,0,0,0,0,0,0,0,0,-1,1966,1506,0,0
749,-482,0,0,0,0,0,0,0,0,0,-1,1973,1506,0,0
756,-482,0,0,0,0,0,0,0,0,0,-1,1980,1506,0,0
763,-482,0,0,0,0,0,0,0,0,0,-1,1987,1506,0,0
770,-482,0,0,0,0,0,0,0,0,0,-1,1994,1506,0,0
777,-482,0,0,0,0,0,0,0,0,0,-1,2001,1506,0,0
784,-482,0,0,0,0,0,0,0,0,0,-1,2008,1506,0,0
791,-482,0,0,0,0,0,0,0,0,0,-1,2015,1506,0,0
798,-482,0,0,0,0,0,0,0,0,0,-1,2022,1506,0,0
805,-482,0,0,0,0,0,0,0,0,0,-1,2029,1506,0,0
812,-482,0,0,0,0,0,0,0,0,0,-1,2036,1506,0,0
-700,-489,0,0,0,0,0,0,0,0,0,-1,524,1513,0,0
-693,-489,0,0,0,0,0,0,0,0,0,-1,531,1513,0,0
-686,-489,0,0,0,0,0,0,0,0,0,-1,538,1513,0,0
-679,-489,0,0,0,0,0,0,0,0,0,-1,545,1513,0,0
-672,-489,0,0,0,0,0,0,0,0,0,-1,552,1513,0,0
-665,-489,0,0,0,0,0,0,0,0,0,-1,559,1513,0,0
-658,-489,0,0,0,0,0,0,0,0,0,-1,566,1513,0,0
-651,-489,0,0,0,0,0,0,0,0,0,-1,573,1513,0,0
-644,-489,0,0,0,0,0,0,0,0,0,-1,580,1513,0,0
-637,-489,0,0,0,0,0,0,0,0,0,-1,587,1513,0,0
-630,-489,0,0,0,0,0,0,0,0,0,-1,594,1513,0,0
-623,-489,0,0,0,0,0,0,0,0,0,-1,601,1513,0,0
-616,-489,0,0,0,0,0,0,0,0,0,-1,608,1513,0,0
-609,-489,0,0,0,0,0,0,0,0,0,-1,615,1513,0,0
-602,-489,0,0,0,0,0,0,0,0,0,-1,622,1513,0,0
-595,-489,0,0,0,0,0,0,0,0,0,-1,629,1513,0,0
-588,-489,0,0,0,0,0,0,0,0,0,-1,636,1513,0,0
-581,-489,0,0,0,0,0,0,0,0,0,-1,643,1513,0,0
-574,-489,0,0,0,0,0,0,0,0,0,-1,650,1513,0,0
-567,-489,0,0,0,0,0,0,0,0,0,-1,657,1513,0,0
-560,-489,0,0,0,0,0,0,0,0,0,-1,664,1513,0,0
-553,-489,-9.42206,8.5116,0,0,0,0,0,0,0,-1,671,1513,-9.42205,-8.51158
-546,-489,-7.80951,8.18506,0,0,0,0,0,0,0,-1,678,1513,-7.8095,-8.18503
-539,-489,-3.06879,2.82349,0,0,0,0,0,0,0,-1,685,1513,-3.06881,-2.82354
-532,-489,-3.14215,2.5835,0,0,0,0,0,0,0,-1,692,1513,-3.14213,-2.58353
-525,-489,-2.604,4.06274,0,0,0,0,0,0,0,-1,699,1513,-2.60399,-4.06274
-518,-489,-5.43774,7.48059,0,0,0,0,0,0,0,-1,706,1513,-5.43777,-7.48058
-511,-489,-7.52856,10.951,0,0,0,0,0,0,0,-1,713,1513,-7.52857,-10.951
-504,-489,-7.17352,12.8508,0,0,0,0,0,0,0,-1,720,1513,-7.17352,-12.8508
-497,-489,-5.51678,14.9254,0,0,0,0,0,0,0,-1,727,1513,-5.51681,-14.9254
-490,-489,-12.9744,25.098,0,0,0,0,0,0,0,-1,734,1513,-12.9744,-25.0981
-483,-489,-12.8501,26.0984,0.00269738,0.00463187,0.00394261,0.00772415,-0.000394897,0.905688,0.00528598,0.0416954,741,1513,-12.8501,-26.0984
-476,-489,-12.8276,27.1473,0.00208303,0.00320126,0.00275903,0.00545726,-0.000172967,0.885369,0.00369718,0.0115605,748,1513,-12.8276,-27.1474
-469,-489,-12.869,28.0347,0.00159342,0.00217964,0.00198231,0.00389039,-0.000117335,0.858798,0.00263358,0.0110908,755,1513,-12.869,-28.0346
-462,-489,-12.9321,28.8868,0.00129495,0.00167156,0.00151241,0.00300734,-4.08286e-05,0.847333,0.00201864,0.0163841,762,1513,-12.9321,-28.8868
-455,-489,-12.9899,29.7466,0.00121408,0.00151921,0.00130386,0.0026794,5.38856e-05,0.843639,0.00176858,0.0192896,769,1513,-12.9899,-29.7466
-448,-489,-13.0555,30.5885,0.00131557,0.00163756,0.00126915,0.00275589,0.000197249,0.848487,0.00177516,0.0168911,776,1513,-13.0555,-30.5885
-441,-489,-13.0732,31.4584,0.00155096,0.0020096,0.00140595,0.0032048,0.000355754,0.866239,0.00202838,0.0150222,783,1513,-13.0732,-31.4583
-434,-489,-13.1323,32.3057,0.00190594,0.00262822,0.00168907,0.00399433,0.00053984,0.890718,0.00250242,0.0169099,790,1513,-13.1323,-32.3056
-427,-489,-13.2129,33.1669,0.00244015,0.00347165,0.00208413,0.0051029,0.000808903,0.906695,0.00316692,0.0186941,797,1513,-13.2129,-33.1669
-420,-489,-13.2945,34.1705,0.00315341,0.00436314,0.00255936,0.00638815,0.00112841,0.901436,0.0039369,0.0293707,804,1513,-13.2945,-34.1705
-413,-489,-13.2642,35.2781,0,0,0,0,0,0,0,-1,811,1513,-13.2642,-35.278
-406,-489,-3.10559,15.8143,0,0,0,0,0,0,0,-1,818,1513,-3.10556,-15.8143
-399,-489,-1.41241,9.10718,0,0,0,0,0,0,0,-1,825,1513,-1.41244,-9.10722
-392,-489,-1.0368,9.30469,0,0,0,0,0,0,0,-1,832,1513,-1.03682,-9.30466
-385,-489,-1.75165,10.6559,0,0,0,0,0,0,0,-1,839,1513,-1.75165,-10.6559
-378,-489,-0.401428,9.87048,0,0,0,0,0,0,0,-1,846,1513,-0.401415,-9.87047
-371,-489,-1.11633,10.6606,0,0,0,0,0,0,0,-1,853,1513,-1.11633,-10.6606
-364,-489,-0.503113,8.98486,0,0,0,0,0,0,0,-1,860,1513,-0.503097,-8.98482
-357,-489,-0.609924,10.9606,0,0,0,0,0,0,0,-1,867,1513,-0.609947,-10.9605
-350,-489,-7.94659,-0.358887,0,0,0,0,0,0,0,-1,874,1513,-7.94657,0.358912
-343,-489,-7.49323,-0.437866,0,0,0,0,0,0,0,-1,881,1513,-7.49322,0.437823
-336,-489,-7.02332,-0.53125,0,0,0,0,0,0,0,-1,888,1513,-7.0233,0.531295
-329,-489,-13.2786,4.96082,0,0,0,0,0,0,0,-1,895,1513,-13.2785,-4.96077
-322,-489,0,0,0,0,0,0,0,0,0,-1,902,1513,0,0
-315,-489,0,0,0,0,0,0,0,0,0,-1,909,1513,0,0
-308,-489,0,0,0,0,0,0,0,0,0,-1,916,1513,0,0
-301,-489,0,0,0,0,0,0,0,0,0,-1,923,1513,0,0
-294,-489,0,0,0,0,0,0,0,0,0,-1,930,1513,0,0
-287,-489,0,0,0,0,0,0,0,0,0,-1,937,1513,0,0
-280,-489,0,0,0,0,0,0,0,0,0,-1,944,1513,0,0
-273,-489,0,0,0,0,0,0,0,0,0,-1,951,1513,0,0
-266,-489,0,0,0,0,0,0,0,0,0,-1,958,1513,0,0
-259,-489,0,0,0,0,0,0,0,0,0,-1,965,1513,0,0
-252,-489,0,0,0,0,0,0,0,0,0,-1,972,1513,0,0
-245,-489,0,0,0,0,0,0,0,0,0,-1,979,1513,0,0
-238,-489,0,0,0,0,0,0,0,0,0,-1,986,1513,0,0
-231,-489,0,0,0,0,0,0,0,0,0,-1,993,1513,0,0
-224,-489,0,0,0,0,0,0,0,0,0,-1,1000,1513,0,0
-217,-489,0,0,0,0,0,0,0,0,0,-1,1007,1513,0,0
-210,-489,0,0,0,0,0,0,0,0,0,-1,1014,1513,0,0
-203,-489,0,0,0,0,0,0,0,0,0,-1,1021,1513,0,0
-196,-489,0,0,0,0,0,0,0,0,0,-1,1028,1513,0,0
-189,-489,0,0,0,0,0,0,0,0,0,-1,1035,1513,0,0
-182,-489,0,0,0,0,0,0,0,0,0,-1,1042,1513,0,0
-175,-489,0,0,0,0,0,0,0,0,0,-1,1049,1513,0,0
-168,-489,0,0,0,0,0,0,0,0,0,-1,1056,1513,0,0
-161,-489,0,0,0,0,0,0,0,0,0,-1,1063,1513,0,0
-154,-489,0,0,0,0,0,0,0,0,0,-1,1070,1513,0,0
-147,-489,0,0,0,0,0,0,0,0,0,-1,1077,1513,0,0
-140,-489,0,0,0,0,0,0,0,0,0,-1,1084,1513,0,0
-133,-489,0,0,0,0,0,0,0,0,0,-1,1091,1513,0,0
-126,-489,0,0,0,0,0,0,0,0,0,-1,1098,1513,0,0
-119,-489,0,0,0,0,0,0,0,0,0,-1,1105,1513,0,0
-112,-489,0,0,0,0,0,0,0,0,0,-1,1112,1513,0,0
-105,-489,0,0,0,0,0,0,0,0,0,-1,1119,1513,0,0
-98,-489,0,0,0,0,0,0,0,0,0,-1,1126,1513,0,0
-91,-489,0,0,0,0,0,0,0,0,0,-1,1133,1513,0,0
-84,-489,0,0,0,0,0,0,0,0,0,-1,1140,1513,0,0
-77,-489,0,0,0,0,0,0,0,0,0,-1,1147,1513,0,0
-70,-489,0,0,0,0,0,0,0,0,0,-1,1154,1513,0,0
-63,-489,0,0,0,0,0,0,0,0,0,-1,1161,1513,0,0
-56,-489,0,0,0,0,0,0,0,0,0,-1,1168,1513,0,0
-49,-489,0,0,0,0,0,0,0,0,0,-1,1175,1513,0,0
-42,-489,0,0,0,0,0,0,0,0,0,-1,1182,1513,0,0
-35,-489,0,0,0,0,0,0,0,0,0,-1,1189,1513,0,0
-28,-489,0,0,0,0,0,0,0,0,0,-1,1196,1513,0,0
-21,-489,0,0,0,0,0,0,0,0,0,-1,1203,1513,0,0
-14,-489,0,0,0,0,0,0,0,0,0,-1,1210,1513,0,0
-7,-489,0,0,0,0,0,0,0,0,0,-1,1217,1513,0,0
0,-489,0,0,0,0,0,0,0,0,0,-1,1224,1513,0,0
7,-489,0,0,0,0,0,0,0,0,0,-1,1231,1513,0,0
14,-489,0,0,0,0,0,0,0,0,0,-1,1238,1513,0,0
21,-489,0,0,0,0,0,0,0,0,0,-1,1245,1513,0,0
28,-489,0,0,0,0,0,0,0,0,0,-1,1252,1513,0,0
35,-489,0,0,0,0,0,0,0,0,0,-1,1259,1513,0,0
42,-489,0,0,0,0,0,0,0,0,0,-1,1266,1513,0,0
49,-489,0,0,0,0,0,0,0,0,0,-1,1273,1513,0,0
56,-489,0,0,0,0,0,0,0,0,0,-1,1280,1513,0,0
63,-489,0,0,0,0,0,0,0,0,0,-1,1287,1513,0,0
70,-489,0,0,0,0,0,0,0,0,0,-1,1294,1513,0,0
77,-489,0,0,0,0,0,0,0,0,0,-1,1301,1513,0,0
84,-489,0,0,0,0,0,0,0,0,0,-1,1308,1513,0,0
91,-489,0,0,0,0,0,0,0,0,0,-1,1315,1513,0,0
98,-489,0,0,0,0,0,0,0,0,0,-1,1322,1513,0,0
105,-489,0,0,0,0,0,0,0,0,0,-1,1329,1513,0,0
112,-489,0,0,0,0,0,0,0,0,0,-1,1336,1513,0,0
119,-489,0,0,0,0,0,0,0,0,0,-1,1343,1513,0,0
126,-489,0,0,0,0,0,0,0,0,0,-1,1350,1513,0,0
133,-489,0,0,0,0,0,0,0,0,0,-1,1357,1513,0,0
140,-489,0,0,0,0,0,0,0,0,0,-1,1364,1513,0,0
147,-489,0,0,0,0,0,0,0,0,0,-1,1371,1513,0,0
154,-489,0,0,0,0,0,0,0,0,0,-1,1378,1513,0,0
161,-489,0,0,0,0,0,0,0,0,0,-1,1385,1513,0,0
168,-489,0,0,0,0,0,0,0,0,0,-1,1392,1513,0,0
175,-489,0,0,0,0,0,0,0,0,0,-1,1399,1513,0,0
182,-489,0,0,0,0,0,0,0,0,0,-1,1406,1513,0,0
189,-489,0,0,0,0,0,0,0,0,0,-1,1413,1513,0,0
196,-489,0,0,0,0,0,0,0,0,0,-1,1420,1513,0,0
203,-489,0,0,0,0,0,0,0,0,0,-1,1427,1513,0,0
210,-489,0,0,0,0,0,0,0,0,0,-1,1434,1513,0,0
217,-489,0,0,0,0,0,0,0,0,0,-1,1441,1513,0,0
224,-489,0,0,0,0,0,0,0,0,0,-1,1448,1513,0,0
231,-489,0,0,0,0,0,0,0,0,0,-1,1455,1513,0,0
238,-489,0,0,0,0,0,0,0,0,0,-1,1462,1513,0,0
245,-489,0,0,0,0,0,0,0,0,0,-1,1469,1513,0,0
252,-489,0,0,0,0,0,0,0,0,0,-1,1476,1513,0,0
259,-489,0,0,0,0,0,0,0,0,0,-1,1483,1513,0,0
266,-489,0,0,0,0,0,0,0,0,0,-1,1490,1513,0,0
273,-489,0,0,0,0,0,0,0,0,0,-1,1497,1513,0,0
280,-489,0,0,0,0,0,0,0,0,0,-1,1504,1513,0,0
287,-489,0,0,0,0,0,0,0,0,0,-1,1511,1513,0,0
294,-489,0,0,0,0,0,0,0,0,0,-1,1518,1513,0,0
301,-489,0,0,0,0,0,0,0,0,0,-1,1525,1513,0,0
308,-489,0,0,0,0,0,0,0,0,0,-1,1532,1513,0,0
315,-489,0,0,0,0,0,0,0,0,0,-1,1539,1513,0,0
322,-489,0,0,0,0,0,0,0,0,0,-1,1546,1513,0,0
329,-489,0,0,0,0,0,0,0,0,0,-1,1553,1513,0,0
336,-489,0,0,0,0,0,0,0,0,0,-1,1560,1513,0,0
343,-489,0,0,0,0,0,0,0,0,0,-1,1567,1513,0,0
350,-489,0,0,0,0,0,0,0,0,0,-1,1574,1513,0,0
357,-489,0,0,0,0,0,0,0,0,0,-1,1581,1513,0,0
364,-489,0,0,0,0,0,0,0,0,0,-1,1588,1513,0,0
371,-489,0,0,0,0,0,0,0,0,0,-1,1595,1513,0,0
378,-489,0,0,0,0,0,0,0,0,0,-1,1602,1513,0,0
385,-489,0,0,0,0,0,0,0,0,0,-1,1609,1513,0,0
392,-489,0,0,0,0,0,0,0,0,0,-1,1616,1513,0,0
399,-489,0,0,0,0,0,0,0,0,0,-1,1623,1513,0,0
406,-489,0,0,0,0,0,0,0,0,0,-1,1630,1513,0,0
413,-489,0,0,0,0,0,0,0,0,0,-1,1637,1513,0,0
420,-489,0,0,0,0,0,0,0,0,0,-1,1644,1513,0,0
427,-489,0,0,0,0,0,0,0,0,0,-1,1651,1513,0,0
434,-489,0,0,0,0,0,0,0,0,0,-1,1658,1513,0,0
441,-489,11.4602,2.56787,0,0,0,0,0,0,0,-1,1665,1513,11.4602,-2.56786
448,-489,12.4425,1.72351,0,0,0,0,0,0,0,-1,1672,1513,12.4425,-1.72349
455,-489,12.5575,1.37463,0,0,0,0,0,0,0,-1,1679,1513,12.5575,-1.37469
462,-489,14.9784,3.84888,0,0,0,0,0,0,0,-1,1686,1513,14.9784,-3.84892
469,-489,15.1367,4.53101,0,0,0,0,0,0,0,-1,1693,1513,15.1368,-4.531
476,-489,15.5536,5.09338,0,0,0,0,0,0,0,-1,1700,1513,15.5536,-5.09339
483,-489,8.96912,8.37805,0,0,0,0,0,0,0,-1,1707,1513,8.96909,-8.37809
490,-489,10.5366,7.49561,0,0,0,0,0,0,0,-1,1714,1513,10.5367,-7.49558
497,-489,14.6051,11.8397,0,0,0,0,0,0,0,-1,1721,1513,14.6051,-11.8397
504,-489,16.7527,14.1735,0,0,0,0,0,0,0,-1,1728,1513,16.7527,-14.1735
511,-489,17.83,17.7993,0,0,0,0,0,0,0,-1,1735,1513,17.83,-17.7993
518,-489,16.4751,14.3682,0,0,0,0,0,0,0,-1,1742,1513,16.4751,-14.3682
525,-489,17.2606,17.4949,0,0,0,0,0,0,0,-1,1749,1513,17.2606,-17.4949
532,-489,19.397,21.0182,0,0,0,0,0,0,0,-1,1756,1513,19.397,-21.0182
539,-489,30.7797,35.6385,0,0,0,0,0,0,0,-1,1763,1513,30.7797,-35.6385
546,-489,30.9441,34.5487,0.0115471,0.0075637,-0.00709985,0.0169293,0.00218149,-0.648649,0.0106339,0.0443065,1770,1513,30.9441,-34.5487
553,-489,30.9088,33.5179,0.00927695,0.00564621,-0.00536676,0.0131271,0.0017961,-0.622308,0.00821836,0.0247915,1777,1513,30.9089,-33.518
560,-489,30.911,32.63,0.00738973,0.004149,-0.0040277,0.0101108,0.00142794,-0.594152,0.00631856,0.0143305,1784,1513,30.911,-32.63
567,-489,30.9218,31.8132,0.00584016,0.00303387,-0.00310213,0.00784173,0.00103231,-0.573009,0.00491995,0.0162573,1791,1513,30.9218,-31.8133
574,-489,30.8413,31.0365,0.00458136,0.00222895,-0.002459,0.00613098,0.000679329,-0.562319,0.00388075,0.0168581,1798,1513,30.8413,-31.0365
581,-489,30.8206,30.1805,0.00350991,0.00164825,-0.00197435,0.00476186,0.000396302,-0.565119,0.00305106,0.0120581,1805,1513,30.8205,-30.1805
588,-489,30.7611,29.314,0.00271135,0.00124669,-0.00163745,0.00377277,0.000185266,-0.575119,0.00245576,0.0142033,1812,1513,30.7611,-29.314
595,-489,30.7103,28.4974,0.00218251,0.000942024,-0.00131015,0.00301182,0.000112721,-0.564321,0.00197138,0.0210749,1819,1513,30.7104,-28.4975
602,-489,30.671,27.6891,0.00181003,0.000827595,-0.00110885,0.00253159,0.00010603,-0.576891,0.00165352,0.0282422,1826,1513,30.671,-27.6891
609,-489,30.6188,26.8356,0.00155331,0.000735964,-0.000837689,0.0020767,0.000212575,-0.558456,0.00131933,0.0197036,1833,1513,30.6187,-26.8356
616,-489,30.5692,25.9574,0.00166908,0.000701325,-0.0005076,0.00188649,0.000483922,-0.40466,0.00113139,0.0232807,1840,1513,30.5692,-25.9573
623,-489,30.5479,24.9976,0,0,0,0,0,0,0,-1,1847,1513,30.5478,-24.9976
630,-489,30.3123,23.9675,0,0,0,0,0,0,0,-1,1854,1513,30.3123,-23.9676
637,-489,17.2048,11.8091,0,0,0,0,0,0,0,-1,1861,1513,17.2048,-11.8091
644,-489,9.67578,8.45874,0,0,0,0,0,0,0,-1,1868,1513,9.67576,-8.45879
651,-489,6.13818,6.85095,0,0,0,0,0,0,0,-1,1875,1513,6.13823,-6.85097
658,-489,5.43848,7.75513,0,0,0,0,0,0,0,-1,1882,1513,5.43844,-7.75509
665,-489,5.48438,8.59912,0,0,0,0,0,0,0,-1,1889,1513,5.48434,-8.59907
672,-489,0,0,0,0,0,0,0,0,0,-1,1896,1513,0,0
679,-489,0,0,0,0,0,0,0,0,0,-1,1903,1513,0,0
686,-489,0,0,0,0,0,0,0,0,0,-1,1910,1513,0,0
693,-489,0,0,0,0,0,0,0,0,0,-1,1917,1513,0,0
700,-489,0,0,0,0,0,0,0,0,0,-1,1924,1513,0,0
707,-489,0,0,0,0,0,0,0,0,0,-1,1931,1513,0,0
714,-489,0,0,0,0,0,0,0,0,0,-1,1938,1513,0,0
721,-489,0,0,0,0,0,0,0,0,0,-1,1945,1513,0,0
728,-489,0,0,0,0,0,0,0,0,0,-1,1952,1513,0,0
735,-489,0,0,0,0,0,0,0,0,0,-1,1959,1513,0,0
742,-489,0,0,0,0,0,0,0,0,0,-1,1966,1513,0,0
749,-489,0,0,0,0,0,0,0,0,0,-1,1973,1513,0,0
756,-489,0,0,0,0,0,0,0,0,0,-1,1980,1513,0,0
763,-489,0,0,0,0,0,0,0,0,0,-1,1987,1513,0,0
770,-489,0,0,0,0,0,0,0,0,0,-1,1994,1513,0,0
777,-489,0,0,0,0,0,0,0,0,0,-1,2001,1513,0,0
784,-489,0,0,0,0,0,0,0,0,0,-1,2008,1513,0,0
791,-489,0,0,0,0,0,0,0,0,0,-1,2015,1513,0,0
798,-489,0,0,0,0,0,0,0,0,0,-1,2022,1513,0,0
805,-489,0,0,0,0,0,0,0,0,0,-1,2029,1513,0,0
812,-489,0,0,0,0,0,0,0,0,0,-1,2036,1513,0,0
-700,-496,0,0,0,0,0,0,0,0,0,-1,524,1520,0,0
-693,-496,0,0,0,0,0,0,0,0,0,-1,531,1520,0,0
-686,-496,0,0,0,0,0,0,0,0,0,-1,538,1520,0,0
-679,-496,0,0,0,0,0,0,0,0,0,-1,545,1520,0,0
-672,-496,0,0,0,0,0,0,0,0,0,-1,552,1520,0,0
-665,-496,0,0,0,0,0,0,0,0,0,-1,559,1520,0,0
-658,-496,0,0,0,0,0,0,0,0,0,-1,566,1520,0,0
-651,-496,0,0,0,0,0,0,0,0,0,-1,573,1520,0,0
-644,-496,0,0,0,0,0,0,0,0,0,-1,580,1520,0,0
-637,-496,0,0,0,0,0,0,0,0,0,-1,587,1520,0,0
-630,-496,0,0,0,0,0,0,0,0,0,-1,594,1520,0,0
-623,-496,0,0,0,0,0,0,0,0,0,-1,601,1520,0,0
-616,-496,0,0,0,0,0,0,0,0,0,-1,608,1520,0,0
-609,-496,0,0,0,0,0,0,0,0,0,-1,615,1520,0,0
-602,-496,0,0,0,0,0,0,0,0,0,-1,622,1520,0,0
-595,-496,0,0,0,0,0,0,0,0,0,-1,629,1520,0,0
-588,-496,0,0,0,0,0,0,0,0,0,-1,636,1520,0,0
-581,-496,0,0,0,0,0,0,0,0,0,-1,643,1520,0,0
-574,-496,0,0,0,0,0,0,0,0,0,-1,650,1520,0,0
-567,-496,0,0,0,0,0,0,0,0,0,-1,657,1520,0,0
-560,-496,0,0,0,0,0,0,0,0,0,-1,664,1520,0,0
-553,-496,0,0,0,0,0,0,0,0,0,-1,671,1520,0,0
-546,-496,-8.09711,7.94836,0,0,0,0,0,0,0,-1,678,1520,-8.09712,-7.94842
-539,-496,-3.20129,1.16052,0,0,0,0,0,0,0,-1,685,1520,-3.20131,-1.16054
-532,-496,-2.98279,2.62146,0,0,0,0,0,0,0,-1,692,1520,-2.98278,-2.62151
-525,-496,-2.75201,4.08032,0,0,0,0,0,0,0,-1,699,1520,-2.75201,-4.08031
-518,-496,-2.6333,5.36072,0,0,0,0,0,0,0,-1,706,1520,-2.63328,-5.36077
-511,-496,-7.92126,9.68604,0,0,0,0,0,0,0,-1,713,1520,-7.92127,-9.68598
-504,-496,-7.51044,11.6274,0,0,0,0,0,0,0,-1,720,1520,-7.51042,-11.6275
-497,-496,-5.30933,14.4291,0,0,0,0,0,0,0,-1,727,1520,-5.30932,-14.4291
-490,-496,-8.21246,19.5051,0,0,0,0,0,0,0,-1,734,1520,-8.21243,-19.5051
-483,-496,-12.1313,26.264,0,0,0,0,0,0,0,-1,741,1520,-12.1313,-26.264
-476,-496,-12.016,27.1915,0.00188025,0.00346295,0.00276109,0.00554386,-0.000200658,0.924961,0.00376458,0.0312013,748,1520,-12.016,-27.1916
-469,-496,-12.041,28.0889,0.00142284,0.00222346,0.00194473,0.00380866,-0.000162357,0.886901,0.00259492,0.0110098,755,1520,-12.0409,-28.0889
-462,-496,-12.0964,28.9384,0.00113847,0.00160384,0.00144938,0.0028391,-9.67854e-05,0.864989,0.00192581,0.0161015,762,1520,-12.0964,-28.9383
-455,-496,-12.1379,29.8093,0.00106631,0.00136352,0.00121846,0.0024424,-1.25723e-05,0.846078,0.00163247,0.0220157,769,1520,-12.1379,-29.8093
-448,-496,-12.1896,30.6858,0.00114759,0.0013913,0.00114693,0.00242283,0.000116067,0.838321,0.00157795,0.0201944,776,1520,-12.1896,-30.6858
-441,-496,-12.2344,31.5242,0.0013254,0.00165085,0.00121787,0.00271682,0.00025943,0.851811,0.00173122,0.0148697,783,1520,-12.2344,-31.5241
-434,-496,-12.2855,32.3698,0.00158179,0.00214588,0.00141062,0.00330237,0.000425296,0.884068,0.0020744,0.0140388,790,1520,-12.2855,-32.3697
-427,-496,-12.3536,33.2274,0.00193818,0.00277947,0.00166311,0.00407431,0.000643346,0.909263,0.00252918,0.0176538,797,1520,-12.3536,-33.2274
-420,-496,-12.3911,34.0756,0.00242443,0.00348412,0.00197629,0.00500036,0.000908197,0.916368,0.00307586,0.0193973,804,1520,-12.3911,-34.0756
-413,-496,-12.3321,34.9877,0.00294656,0.0043463,0.0022622,0.00601442,0.00127844,0.935416,0.00365869,0.0343139,811,1520,-12.3321,-34.9876
-406,-496,-12.1987,36.1283,0,0,0,0,0,0,0,-1,818,1520,-12.1987,-36.1283
-399,-496,-11.5063,36.5204,0,0,0,0,0,0,0,-1,825,1520,-11.5063,-36.5204
-392,-496,-1.49786,12.387,0,0,0,0,0,0,0,-1,832,1520,-1.49788,-12.387
-385,-496,-1.72437,11.4985,0,0,0,0,0,0,0,-1,839,1520,-1.72436,-11.4985
-378,-496,-1.45532,14.0719,0,0,0,0,0,0,0,-1,846,1520,-1.45533,-14.0719
-371,-496,0.0877075,12.5299,0,0,0,0,0,0,0,-1,853,1520,0.0876896,-12.5299
-364,-496,0.0881348,10.6422,0,0,0,0,0,0,0,-1,860,1520,0.0881368,-10.6423
-357,-496,0.323792,7.56812,0,0,0,0,0,0,0,-1,867,1520,0.323782,-7.56806
-350,-496,2.1535,7.18945,0,0,0,0,0,0,0,-1,874,1520,2.15348,-7.1894
-343,-496,-7.56244,0.335327,0,0,0,0,0,0,0,-1,881,1520,-7.56242,-0.335322
-336,-496,-3.99249,6.02222,0,0,0,0,0,0,0,-1,888,1520,-3.99246,-6.0222
-329,-496,-6.93689,-0.100342,0,0,0,0,0,0,0,-1,895,1520,-6.93686,0.1003
-322,-496,-6.17505,0.494385,0,0,0,0,0,0,0,-1,902,1520,-6.17507,-0.49437
-315,-496,-7.539,5.78638,0,0,0,0,0,0,0,-1,909,1520,-7.53898,-5.78633
-308,-496,0,0,0,0,0,0,0,0,0,-1,916,1520,0,0
-301,-496,0,0,0,0,0,0,0,0,0,-1,923,1520,0,0
-294,-496,0,0,0,0,0,0,0,0,0,-1,930,1520,0,0
-287,-496,0,0,0,0,0,0,0,0,0,-1,937,1520,0,0
-280,-496,0,0,0,0,0,0,0,0,0,-1,944,1520,0,0
-273,-496,0,0,0,0,0,0,0,0,0,-1,951,1520,0,0
-266,-496,0,0,0,0,0,0,0,0,0,-1,958,1520,0,0
-259,-496,0,0,0,0,0,0,0,0,0,-1,965,1520,0,0
-252,-496,0,0,0,0,0,0,0,0,0,-1,972,1520,0,0
-245,-496,0,0,0,0,0,0,0,0,0,-1,979,1520,0,0
-238,-496,0,0,0,0,0,0,0,0,0,-1,986,1520,0,0
-231,-496,0,0,0,0,0,0,0,0,0,-1,993,1520,0,0
-224,-496,0,0,0,0,0,0,0,0,0,-1,1000,1520,0,0
-217,-496,0,0,0,0,0,0,0,0,0,-1,1007,1520,0,0
-210,-496,0,0,0,0,0,0,0,0,0,-1,1014,1520,0,0
-203,-496,0,0,0,0,0,0,0,0,0,-1,1021,1520,0,0
-196,-496,0,0,0,0,0,0,0,0,0,-1,1028,1520,0,0
-189,-496,0,0,0,0,0,0,0,0,0,-1,1035,1520,0,0
-182,-496,0,0,0,0,0,0,0,0,0,-1,1042,1520,0,0
-175,-496,0,0,0,0,0,0,0,0,0,-1,1049,1520,0,0
-168,-496,0,0,0,0,0,0,0,0,0,-1,1056,1520,0,0
-161,-496,0,0,0,0,0,0,0,0,0,-1,1063,1520,0,0
-154,-496,0,0,0,0,0,0,0,0,0,-1,1070,1520,0,0
-147,-496,0,0,0,0,0,0,0,0,0,-1,1077,1520,0,0
-140,-496,0,0,0,0,0,0,0,0,0,-1,1084,1520,0,0
-133,-496,0,0,0,0,0,0,0,0,0,-1,1091,1520,0,0
-126,-496,0,0,0,0,0,0,0,0,0,-1,1098,1520,0,0
-119,-496,0,0,0,0,0,0,0,0,0,-1,1105,1520,0,0
-112,-496,0,0,0,0,0,0,0,0,0,-1,1112,1520,0,0
-105,-496,0,0,0,0,0,0,0,0,0,-1,1119,1520,0,0
-98,-496,0,0,0,0,0,0,0,0,0,-1,1126,1520,0,0
-91,-496,0,0,0,0,0,0,0,0,0,-1,1133,1520,0,0
-84,-496,0,0,0,0,0,0,0,0,0,-1,1140,1520,0,0
-77,-496,0,0,0,0,0,0,0,0,0,-1,1147,1520,0,0
-70,-496,0,0,0,0,0,0,0,0,0,-1,1154,1520,0,0
-63,-496,0,0,0,0,0,0,0,0,0,-1,1161,1520,0,0
-56,-496,0,0,0,0,0,0,0,0,0,-1,1168,1520,0,0
-49,-496,0,0,0,0,0,0,0,0,0,-1,1175,1520,0,0
-42,-496,0,0,0,0,0,0,0,0,0,-1,1182,1520,0,0
-35,-496,0,0,0,0,0,0,0,0,0,-1,1189,1520,0,0
-28,-496,0,0,0,0,0,0,0,0,0,-1,1196,1520,0,0
-21,-496,0,0,0,0,0,0,0,0,0,-1,1203,1520,0,0
-14,-496,0,0,0,0,0,0,0,0,0,-1,1210,1520,0,0
-7,-496,0,0,0,0,0,0,0,0,0,-1,1217,1520,0,0
0,-496,0,0,0,0,0,0,0,0,0,-1,1224,1520,0,0
7,-496,0,0,0,0,0,0,0,0,0,-1,1231,1520,0,0
14,-496,0,0,0,0,0,0,0,0,0,-1,1238,1520,0,0
21,-496,0,0,0,0,0,0,0,0,0,-1,1245,1520,0,0
28,-496,0,0,0,0,0,0,0,0,0,-1,1252,1520,0,0
35,-496,0,0,0,0,0,0,0,0,0,-1,1259,1520,0,0
42,-496,0,0,0,0,0,0,0,0,0,-1,1266,1520,0,0
49,-496,0,0,0,0,0,0,0,0,0,-1,1273,1520,0,0
56,-496,0,0,0,0,0,0,0,0,0,-1,1280,1520,0,0
63,-496,0,0,0,0,0,0,0,0,0,-1,1287,1520,0,0
70,-496,0,0,0,0,0,0,0,0,0,-1,1294,1520,0,0
77,-496,0,0,0,0,0,0,0,0,0,-1,1301,1520,0,0
84,-496,0,0,0,0,0,0,0,0,0,-1,1308,1520,0,0
91,-496,0,0,0,0,0,0,0,0,0,-1,1315,1520,0,0
98,-496,0,0,0,0,0,0,0,0,0,-1,1322,1520,0,0
105,-496,0,0,0,0,0,0,0,0,0,-1,1329,1520,0,0
112,-496,0,0,0,0,0,0,0,0,0,-1,1336,1520,0,0
119,-496,0,0,0,0,0,0,0,0,0,-1,1343,1520,0,0
126,-496,0,0,0,0,0,0,0,0,0,-1,1350,1520,0,0
133,-496,0,0,0,0,0,0,0,0,0,-1,1357,1520,0,0
140,-496,0,0,0,0,0,0,0,0,0,-1,1364,1520,0,0
147,-496,0,0,0,0,0,0,0,0,0,-1,1371,1520,0,0
154,-496,0,0,0,0,0,0,0,0,0,-1,1378,1520,0,0
161,-496,0,0,0,0,0,0,0,0,0,-1,1385,1520,0,0
168,-496,0,0,0,0,0,0,0,0,0,-1,1392,1520,0,0
175,-496,0,0,0,0,0,0,0,0,0,-1,1399,1520,0,0
182,-496,0,0,0,0,0,0,0,0,0,-1,1406,1520,0,0
189,-496,0,0,0,0,0,0,0,0,0,-1,1413,1520,0,0
196,-496,0,0,0,0,0,0,0,0,0,-1,1420,1520,0,0
203,-496,0,0,0,0,0,0,0,0,0,-1,1427,1520,0,0
210,-496,0,0,0,0,0,0,0,0,0,-1,1434,1520,0,0
217,-496,0,0,0,0,0,0,0,0,0,-1,1441,1520,0,0
224,-496,0,0,0,0,0,0,0,0,0,-1,1448,1520,0,0
231,-496,0,0,0,0,0,0,0,0,0,-1,1455,1520,0,0
238,-496,0,0,0,0,0,0,0,0,0,-1,1462,1520,0,0
245,-496,0,0,0,0,0,0,0,0,0,-1,1469,1520,0,0
252,-496,0,0,0,0,0,0,0,0,0,-1,1476,1520,0,0
259,-496,0,0,0,0,0,0,0,0,0,-1,1483,1520,0,0
266,-496,0,0,0,0,0,0,0,0,0,-1,1490,1520,0,0
273,-496,0,0,0,0,0,0,0,0,0,-1,1497,1520,0,0
280,-496,0,0,0,0,0,0,0,0,0,-1,1504,1520,0,0
287,-496,0,0,0,0,0,0,0,0,0,-1,1511,1520,0,0
294,-496,0,0,0,0,0,0,0,0,0,-1,1518,1520,0,0
301,-496,0,0,0,0,0,0,0,0,0,-1,1525,1520,0,0
308,-496,0,0,0,0,0,0,0,0,0,-1,1532,1520,0,0
315,-496,0,0,0,0,0,0,0,0,0,-1,1539,1520,0,0
322,-496,0,0,0,0,0,0,0,0,0,-1,1546,1520,0,0
329,-496,0,0,0,0,0,0,0,0,0,-1,1553,1520,0,0
336,-496,0,0,0,0,0,0,0,0,0,-1,1560,1520,0,0
343,-496,0,0,0,0,0,0,0,0,0,-1,1567,1520,0,0
350,-496,0,0,0,0,0,0,0,0,0,-1,1574,1520,0,0
357,-496,0,0,0,0,0,0,0,0,0,-1,1581,1520,0,0
364,-496,0,0,0,0,0,0,0,0,0,-1,1588,1520,0,0
371,-496,0,0,0,0,0,0,0,0,0,-1,1595,1520,0,0
378,-496,0,0,0,0,0,0,0,0,0,-1,1602,1520,0,0
385,-496,0,0,0,0,0,0,0,0,0,-1,1609,1520,0,0
392,-496,0,0,0,0,0,0,0,0,0,-1,1616,1520,0,0
399,-496,0,0,0,0,0,0,0,0,0,-1,1623,1520,0,0
406,-496,0,0,0,0,0,0,0,0,0,-1,1630,1520,0,0
413,-496,0,0,0,0,0,0,0,0,0,-1,1637,1520,0,0
420,-496,0,0,0,0,0,0,0,0,0,-1,1644,1520,0,0
427,-496,0,0,0,0,0,0,0,0,0,-1,1651,1520,0,0
434,-496,11.0457,3.37732,0,0,0,0,0,0,0,-1,1658,1520,11.0456,-3.37736
441,-496,11.788,2.75488,0,0,0,0,0,0,0,-1,1665,1520,11.7879,-2.75485
448,-496,12.2146,2.18494,0,0,0,0,0,0,0,-1,1672,1520,12.2146,-2.18489
455,-496,12.3489,1.65173,0,0,0,0,0,0,0,-1,1679,1520,12.3489,-1.65178
462,-496,12.1912,1.32361,0,0,0,0,0,0,0,-1,1686,1520,12.1911,-1.32357
469,-496,14.8138,5.77954,0,0,0,0,0,0,0,-1,1693,1520,14.8138,-5.77958
476,-496,15.2449,6.27942,0,0,0,0,0,0,0,-1,1700,1520,15.2449,-6.27936
483,-496,9.19812,6.88367,0,0,0,0,0,0,0,-1,1707,1520,9.19812,-6.88361
490,-496,10.2123,7.97144,0,0,0,0,0,0,0,-1,1714,1520,10.2122,-7.97145
497,-496,13.9297,12.2981,0,0,0,0,0,0,0,-1,1721,1520,13.9297,-12.2982
504,-496,16.3271,16.6501,0,0,0,0,0,0,0,-1,1728,1520,16.3272,-16.6502
511,-496,17.6753,18.0685,0,0,0,0,0,0,0,-1,1735,1520,17.6753,-18.0685
518,-496,17.0537,17.3118,0,0,0,0,0,0,0,-1,1742,1520,17.0538,-17.3118
525,-496,18.2721,19.3259,0,0,0,0,0,0,0,-1,1749,1520,18.2721,-19.3259
532,-496,30.2844,35.4619,0,0,0,0,0,0,0,-1,1756,1520,30.2844,-35.4619
539,-496,29.811,35.5785,0,0,0,0,0,0,0,-1,1763,1520,29.8111,-35.5785
546,-496,30.0221,34.4709,0.00947548,0.00638988,-0.00591122,0.0140419,0.00182344,-0.657748,0.00881654,0.0233951,1770,1520,30.022,-34.4709
553,-496,30.1426,33.4929,0.00756882,0.00480282,-0.00446698,0.010862,0.00150964,-0.635275,0.00679426,0.0149195,1777,1520,30.1426,-33.4929
560,-496,30.1234,32.679,0.00600605,0.00356644,-0.00337213,0.00837222,0.00120027,-0.611854,0.00522752,0.0149104,1784,1520,30.1234,-32.679
567,-496,30.077,31.8555,0.0047564,0.00264904,-0.00264799,0.00655265,0.000852791,-0.596044,0.00411374,0.013342,1791,1520,30.0771,-31.8554
574,-496,30.0221,31.0288,0.00376871,0.00198519,-0.00216504,0.00521845,0.000535448,-0.590041,0.00331493,0.0136978,1798,1520,30.022,-31.0288
581,-496,29.9753,30.2195,0.00295249,0.00153683,-0.00184291,0.00421883,0.00027049,-0.602042,0.00272686,0.0149522,1805,1520,29.9753,-30.2195
588,-496,29.9464,29.3911,0.00238751,0.0012605,-0.00166971,0.00358623,6.17728e-05,-0.622657,0.0023705,0.0176516,1812,1520,29.9464,-29.3911
595,-496,29.8845,28.5757,0.00207237,0.00110831,-0.00151627,0.00318139,-6.99074e-07,-0.631497,0.00212116,0.019065,1819,1520,29.8846,-28.5757
602,-496,29.8398,27.7683,0.00193356,0.00119506,-0.00149352,0.0031028,2.5828e-05,-0.664211,0.00205998,0.0199601,1826,1520,29.8398,-27.7683
609,-496,29.8223,26.8607,0.00188339,0.00124207,-0.00139239,0.00299156,0.000133896,-0.672224,0.00195128,0.0192406,1833,1520,29.8222,-26.8607
616,-496,29.818,25.767,0,0,0,0,0,0,0,-1,1840,1520,29.818,-25.767
623,-496,28.9139,24.1847,0,0,0,0,0,0,0,-1,1847,1520,28.9139,-24.1846
630,-496,18.5656,13.8966,0,0,0,0,0,0,0,-1,1854,1520,18.5655,-13.8967
637,-496,14.6411,10.1016,0,0,0,0,0,0,0,-1,1861,1520,14.6411,-10.1016
644,-496,12.4537,10.087,0,0,0,0,0,0,0,-1,1868,1520,12.4537,-10.0871
651,-496,8.18506,5.47803,0,0,0,0,0,0,0,-1,1875,1520,8.18505,-5.47806
658,-496,7.79993,4.02563,0,0,0,0,0,0,0,-1,1882,1520,7.79997,-4.02568
665,-496,5.47583,7.90625,0,0,0,0,0,0,0,-1,1889,1520,5.47581,-7.90628
672,-496,0,0,0,0,0,0,0,0,0,-1,1896,1520,0,0
679,-496,0,0,0,0,0,0,0,0,0,-1,1903,1520,0,0
686,-496,0,0,0,0,0,0,0,0,0,-1,1910,1520,0,0
693,-496,0,0,0,0,0,0,0,0,0,-1,1917,1520,0,0
700,-496,0,0,0,0,0,0,0,0,0,-1,1924,1520,0,0
707,-496,0,0,0,0,0,0,0,0,0,-1,1931,1520,0,0
714,-496,0,0,0,0,0,0,0,0,0,-1,1938,1520,0,0
721,-496,0,0,0,0,0,0,0,0,0,-1,1945,1520,0,0
728,-496,0,0,0,0,0,0,0,0,0,-1,1952,1520,0,0
735,-496,0,0,0,0,0,0,0,0,0,-1,1959,1520,0,0
742,-496,0,0,0,0,0,0,0,0,0,-1,1966,1520,0,0
749,-496,0,0,0,0,0,0,0,0,0,-1,1973,1520,0,0
756,-496,0,0,0,0,0,0,0,0,0,-1,1980,1520,0,0
763,-496,0,0,0,0,0,0,0,0,0,-1,1987,1520,0,0
770,-496,0,0,0,0,0,0,0,0,0,-1,1994,1520,0,0
777,-496,0,0,0,0,0,0,0,0,0,-1,2001,1520,0,0
784,-496,0,0,0,0,0,0,0,0,0,-1,2008,1520,0,0
791,-496,0,0,0,0,0,0,0,0,0,-1,2015,1520,0,0
798,-496,0,0,0,0,0,0,0,0,0,-1,2022,1520,0,0
805,-496,0,0,0,0,0,0,0,0,0,-1,2029,1520,0,0
812,-496,0,0,0,0,0,0,0,0,0,-1,2036,1520,0,0
-700,-503,0,0,0,0,0,0,0,0,0,-1,524,1527,0,0
-693,-503,0,0,0,0,0,0,0,0,0,-1,531,1527,0,0
-686,-503,0,0,0,0,0,0,0,0,0,-1,538,1527,0,0
-679,-503,0,0,0,0,0,0,0,0,0,-1,545,1527,0,0
-672,-503,0,0,0,0,0,0,0,0,0,-1,552,1527,0,0
-665,-503,0,0,0,0,0,0,0,0,0,-1,559,1527,0,0
-658,-503,0,0,0,0,0,0,0,0,0,-1,566,1527,0,0
-651,-503,0,0,0,0,0,0,0,0,0,-1,573,1527,0,0
-644,-503,0,0,0,0,0,0,0,0,0,-1,580,1527,0,0
-637,-503,0,0,0,0,0,0,0,0,0,-1,587,1527,0,0
-630,-503,0,0,0,0,0,0,0,0,0,-1,594,1527,0,0
-623,-503,0,0,0,0,0,0,0,0,0,-1,601,1527,0,0
-616,-503,0,0,0,0,0,0,0,0,0,-1,608,1527,0,0
-609,-503,0,0,0,0,0,0,0,0,0,-1,615,1527,0,0
-602,-503,0,0,0,0,0,0,0,0,0,-1,622,1527,0,0
-595,-503,0,0,0,0,0,0,0,0,0,-1,629,1527,0,0
-588,-503,0,0,0,0,0,0,0,0,0,-1,636,1527,0,0
-581,-503,0,0,0,0,0,0,0,0,0,-1,643,1527,0,0
-574,-503,0,0,0,0,0,0,0,0,0,-1,650,1527,0,0
-567,-503,0,0,0,0,0,0,0,0,0,-1,657,1527,0,0
-560,-503,0,0,0,0,0,0,0,0,0,-1,664,1527,0,0
-553,-503,0,0,0,0,0,0,0,0,0,-1,671,1527,0,0
-546,-503,0,0,0,0,0,0,0,0,0,-1,678,1527,0,0
-539,-503,3.50177,4.26428,0,0,0,0,0,0,0,-1,685,1527,3.50177,-4.26424
-532,-503,-3.13196,1.05298,0,0,0,0,0,0,0,-1,692,1527,-3.13194,-1.05299
-525,-503,-2.94293,2.59314,0,0,0,0,0,0,0,-1,699,1527,-2.94296,-2.59314
-518,-503,-2.7395,4.05872,0,0,0,0,0,0,0,-1,706,1527,-2.73948,-4.05871
-511,-503,-1.60022,7.23877,0,0,0,0,0,0,0,-1,713,1527,-1.60023,-7.23872
-504,-503,-8.1402,10.1541,0,0,0,0,0,0,0,-1,720,1527,-8.14017,-10.1541
-497,-503,-4.51758,14.0781,0,0,0,0,0,0,0,-1,727,1527,-4.5176,-14.0782
-490,-503,-4.24194,16.1982,0,0,0,0,0,0,0,-1,734,1527,-4.24196,-16.1982
-483,-503,-9.55774,23.7681,0,0,0,0,0,0,0,-1,741,1527,-9.55776,-23.7681
-476,-503,-11.2043,27.2592,0,0,0,0,0,0,0,-1,748,1527,-11.2043,-27.2592
-469,-503,-11.215,28.1447,0.000844743,0.00221429,0.00154671,0.00322103,-0.000161998,0.993794,0.00220334,0.0213418,755,1527,-11.2149,-28.1447
-462,-503,-11.2498,29.0258,0.000536872,0.00148035,0.00102394,0.00213599,-0.000118768,1.00126,0.00146519,0.0120257,762,1527,-11.2497,-29.0257
-455,-503,-11.2607,29.8669,0.000493669,0.00118436,0.000810312,0.00171985,-4.18201e-05,0.986836,0.00116076,0.0191106,769,1527,-11.2607,-29.8669
-448,-503,-11.3044,30.7333,0.000611261,0.00114502,0.000761205,0.00168478,7.15085e-05,0.954005,0.00110012,0.0182762,776,1527,-11.3044,-30.7333
-441,-503,-11.3427,31.5719,0.000828533,0.00130737,0.000839986,0.00194139,0.00019451,0.924229,0.00123454,0.0141475,783,1527,-11.3427,-31.5719
-434,-503,-11.4145,32.4026,0.00112662,0.00168438,0.00103644,0.0024788,0.000332196,0.916825,0.00155369,0.0119789,790,1527,-11.4145,-32.4026
-427,-503,-11.5083,33.2301,0.00149199,0.00214338,0.00127193,0.00313065,0.000504718,0.910738,0.00194086,0.0192522,797,1527,-11.5083,-33.2301
-420,-503,-11.5054,34.063,0.00197751,0.00268988,0.00156702,0.00394068,0.000726702,0.897149,0.00242151,0.020262,804,1527,-11.5054,-34.0629
-413,-503,-11.5568,34.9415,0.00254146,0.00335453,0.00188369,0.00487506,0.00102093,0.891677,0.00296883,0.0173754,811,1527,-11.5568,-34.9415
-406,-503,-11.5654,35.7875,0.00319199,0.00414795,0.00233724,0.00605558,0.00128436,0.886261,0.00368433,0.0286799,818,1527,-11.5654,-35.7874
-399,-503,-11.5454,36.5487,0,0,0,0,0,0,0,-1,825,1527,-11.5454,-36.5487
-392,-503,-10.7637,37.4486,0,0,0,0,0,0,0,-1,832,1527,-10.7637,-37.4486
-385,-503,-2.00403,14.1218,0,0,0,0,0,0,0,-1,839,1527,-2.00403,-14.1218
-378,-503,-2.07043,13.8632,0,0,0,0,0,0,0,-1,846,1527,-2.07043,-13.8631
-371,-503,-1.67285,13.8081,0,0,0,0,0,0,0,-1,853,1527,-1.67285,-13.8081
-364,-503,0.181396,12.3768,0,0,0,0,0,0,0,-1,860,1527,0.18138,-12.3768
-357,-503,0.558533,9.25452,0,0,0,0,0,0,0,-1,867,1527,0.558542,-9.25446
-350,-503,0.219971,6.84827,0,0,0,0,0,0,0,-1,874,1527,0.21996,-6.84831
-343,-503,-3.5802,4.43274,0,0,0,0,0,0,0,-1,881,1527,-3.58018,-4.43276
-336,-503,-3.2384,6.40637,0,0,0,0,0,0,0,-1,888,1527,-3.2384,-6.40643
-329,-503,-1.70691,11.886,0,0,0,0,0,0,0,-1,895,1527,-1.70689,-11.886
-322,-503,-3.31317,8.81519,0,0,0,0,0,0,0,-1,902,1527,-3.31315,-8.81524
-315,-503,-3.90265,7.73853,0,0,0,0,0,0,0,-1,909,1527,-3.90264,-7.73854
-308,-503,-1.70264,7.35413,0,0,0,0,0,0,0,-1,916,1527,-1.70262,-7.35416
-301,-503,0,0,0,0,0,0,0,0,0,-1,923,1527,0,0
-294,-503,0,0,0,0,0,0,0,0,0,-1,930,1527,0,0
-287,-503,0,0,0,0,0,0,0,0,0,-1,937,1527,0,0
-280,-503,0,0,0,0,0,0,0,0,0,-1,944,1527,0,0
-273,-503,0,0,0,0,0,0,0,0,0,-1,951,1527,0,0
-266,-503,0,0,0,0,0,0,0,0,0,-1,958,1527,0,0
-259,-503,0,0,0,0,0,0,0,0,0,-1,965,1527,0,0
-252,-503,0,0,0,0,0,0,0,0,0,-1,972,1527,0,0
-245,-503,0,0,0,0,0,0,0,0,0,-1,979,1527,0,0
-238,-503,0,0,0,0,0,0,0,0,0,-1,986,1527,0,0
-231,-503,0,0,0,0,0,0,0,0,0,-1,993,1527,0,0
-224,-503,0,0,0,0,0,0,0,0,0,-1,1000,1527,0,0
-217,-503,0,0,0,0,0,0,0,0,0,-1,1007,1527,0,0
-210,-503,0,0,0,0,0,0,0,0,0,-1,1014,1527,0,0
-203,-503,0,0,0,0,0,0,0,0,0,-1,1021,1527,0,0
-196,-503,0,0,0,0,0,0,0,0,0,-1,1028,1527,0,0
-189,-503,0,0,0,0,0,0,0,0,0,-1,1035,1527,0,0
-182,-503,0,0,0,0,0,0,0,0,0,-1,1042,1527,0,0
-175,-503,0,0,0,0,0,0,0,0,0,-1,1049,1527,0,0
-168,-503,0,0,0,0,0,0,0,0,0,-1,1056,1527,0,0
-161,-503,0,0,0,0,0,0,0,0,0,-1,1063,1527,0,0
-154,-503,0,0,0,0,0,0,0,0,0,-1,1070,1527,0,0
-147,-503,0,0,0,0,0,0,0,0,0,-1,1077,1527,0,0
-140,-503,0,0,0,0,0,0,0,0,0,-1,1084,1527,0,0
-133,-503,0,0,0,0,0,0,0,0,0,-1,1091,1527,0,0
-126,-503,0,0,0,0,0,0,0,0,0,-1,1098,1527,0,0
-119,-503,0,0,0,0,0,0,0,0,0,-1,1105,1527,0,0
-112,-503,0,0,0,0,0,0,0,0,0,-1,1112,1527,0,0
-105,-503,0,0,0,0,0,0,0,0,0,-1,1119,1527,0,0
-98,-503,0,0,0,0,0,0,0,0,0,-1,1126,1527,0,0
-91,-503,0,0,0,0,0,0,0,0,0,-1,1133,1527,0,0
-84,-503,0,0,0,0,0,0,0,0,0,-1,1140,1527,0,0
-77,-503,0,0,0,0,0,0,0,0,0,-1,1147,1527,0,0
-70,-503,0,0,0,0,0,0,0,0,0,-1,1154,1527,0,0
-63,-503,0,0,0,0,0,0,0,0,0,-1,1161,1527,0,0
-56,-503,0,0,0,0,0,0,0,0,0,-1,1168,1527,0,0
-49,-503,0,0,0,0,0,0,0,0,0,-1,1175,1527,0,0
-42,-503,0,0,0,0,0,0,0,0,0,-1,1182,1527,0,0
-35,-503,0,0,0,0,0,0,0,0,0,-1,1189,1527,0,0
-28,-503,0,0,0,0,0,0,0,0,0,-1,1196,1527,0,0
-21,-503,0,0,0,0,0,0,0,0,0,-1,1203,1527,0,0
-14,-503,0,0,0,0,0,0,0,0,0,-1,1210,1527,0,0
-7,-503,0,0,0,0,0,0,0,0,0,-1,1217,1527,0,0
0,-503,0,0,0,0,0,0,0,0,0,-1,1224,1527,0,0
7,-503,0,0,0,0,0,0,0,0,0,-1,1231,1527,0,0
14,-503,0,0,0,0,0,0,0,0,0,-1,1238,1527,0,0
21,-503,0,0,0,0,0,0,0,0,0,-1,1245,1527,0,0
28,-503,0,0,0,0,0,0,0,0,0,-1,1252,1527,0,0
35,-503,0,0,0,0,0,0,0,0,0,-1,1259,1527,0,0
42,-503,0,0,0,0,0,0,0,0,0,-1,1266,1527,0,0
49,-503,0,0,0,0,0,0,0,0,0,-1,1273,1527,0,0
56,-503,0,0,0,0,0,0,0,0,0,-1,1280,1527,0,0
63,-503,0,0,0,0,0,0,0,0,0,-1,1287,1527,0,0
70,-503,0,0,0,0,0,0,0,0,0,-1,1294,1527,0,0
77,-503,0,0,0,0,0,0,0,0,0,-1,1301,1527,0,0
84,-503,0,0,0,0,0,0,0,0,0,-1,1308,1527,0,0
91,-503,0,0,0,0,0,0,0,0,0,-1,1315,1527,0,0
98,-503,0,0,0,0,0,0,0,0,0,-1,1322,1527,0,0
105,-503,0,0,0,0,0,0,0,0,0,-1,1329,1527,0,0
112,-503,0,0,0,0,0,0,0,0,0,-1,1336,1527,0,0
119,-503,0,0,0,0,0,0,0,0,0,-1,1343,1527,0,0
126,-503,0,0,0,0,0,0,0,0,0,-1,1350,1527,0,0
133,-503,0,0,0,0,0,0,0,0,0,-1,1357,1527,0,0
140,-503,0,0,0,0,0,0,0,0,0,-1,1364,1527,0,0
147,-503,0,0,0,0,0,0,0,0,0,-1,1371,1527,0,0
154,-503,0,0,0,0,0,0,0,0,0,-1,1378,1527,0,0
161,-503,0,0,0,0,0,0,0,0,0,-1,1385,1527,0,0
168,-503,0,0,0,0,0,0,0,0,0,-1,1392,1527,0,0
175,-503,0,0,0,0,0,0,0,0,0,-1,1399,1527,0,0
182,-503,0,0,0,0,0,0,0,0,0,-1,1406,1527,0,0
189,-503,0,0,0,0,0,0,0,0,0,-1,1413,1527,0,0
196,-503,0,0,0,0,0,0,0,0,0,-1,1420,1527,0,0
203,-503,0,0,0,0,0,0,0,0,0,-1,1427,1527,0,0
210,-503,0,0,0,0,0,0,0,0,0,-1,1434,1527,0,0
217,-503,0,0,0,0,0,0,0,0,0,-1,1441,1527,0,0
224,-503,0,0,0,0,0,0,0,0,0,-1,1448,1527,0,0
231,-503,0,0,0,0,0,0,0,0,0,-1,1455,1527,0,0
238,-503,0,0,0,0,0,0,0,0,0,-1,1462,1527,0,0
245,-503,0,0,0,0,0,0,0,0,0,-1,1469,1527,0,0
252,-503,0,0,0,0,0,0,0,0,0,-1,1476,1527,0,0
259,-503,0,0,0,0,0,0,0,0,0,-1,1483,1527,0,0
266,-503,0,0,0,0,0,0,0,0,0,-1,1490,1527,0,0
273,-503,0,0,0,0,0,0,0,0,0,-1,1497,1527,0,0
280,-503,0,0,0,0,0,0,0,0,0,-1,1504,1527,0,0
287,-503,0,0,0,0,0,0,0,0,0,-1,1511,1527,0,0
294,-503,0,0,0,0,0,0,0,0,0,-1,1518,1527,0,0
301,-503,0,0,0,0,0,0,0,0,0,-1,1525,1527,0,0
308,-503,0,0,0,0,0,0,0,0,0,-1,1532,1527,0,0
315,-503,0,0,0,0,0,0,0,0,0,-1,1539,1527,0,0
322,-503,0,0,0,0,0,0,0,0,0,-1,1546,1527,0,0
329,-503,0,0,0,0,0,0,0,0,0,-1,1553,1527,0,0
336,-503,0,0,0,0,0,0,0,0,0,-1,1560,1527,0,0
343,-503,0,0,0,0,0,0,0,0,0,-1,1567,1527,0,0
350,-503,0,0,0,0,0,0,0,0,0,-1,1574,1527,0,0
357,-503,0,0,0,0,0,0,0,0,0,-1,1581,1527,0,0
364,-503,0,0,0,0,0,0,0,0,0,-1,1588,1527,0,0
371,-503,0,0,0,0,0,0,0,0,0,-1,1595,1527,0,0
378,-503,0,0,0,0,0,0,0,0,0,-1,1602,1527,0,0
385,-503,0,0,0,0,0,0,0,0,0,-1,1609,1527,0,0
392,-503,0,0,0,0,0,0,0,0,0,-1,1616,1527,0,0
399,-503,0,0,0,0,0,0,0,0,0,-1,1623,1527,0,0
406,-503,0,0,0,0,0,0,0,0,0,-1,1630,1527,0,0
413,-503,0,0,0,0,0,0,0,0,0,-1,1637,1527,0,0
420,-503,0,0,0,0,0,0,0,0,0,-1,1644,1527,0,0
427,-503,10.5968,4.9856,0,0,0,0,0,0,0,-1,1651,1527,10.5969,-4.98563
434,-503,11.4329,3.97217,0,0,0,0,0,0,0,-1,1658,1527,11.4328,-3.97222
441,-503,12.0957,2.96509,0,0,0,0,0,0,0,-1,1665,1527,12.0957,-2.96512
448,-503,12.3259,2.53894,0,0,0,0,0,0,0,-1,1672,1527,12.326,-2.53895
455,-503,12.1669,2.18762,0,0,0,0,0,0,0,-1,1679,1527,12.1668,-2.18767
462,-503,11.59,2.60791,0,0,0,0,0,0,0,-1,1686,1527,11.5899,-2.60794
469,-503,11.1625,1.61853,0,0,0,0,0,0,0,-1,1693,1527,11.1625,-1.61856
476,-503,9.07703,5.81042,0,0,0,0,0,0,0,-1,1700,1527,9.07699,-5.81047
483,-503,9.74414,6.92432,0,0,0,0,0,0,0,-1,1707,1527,9.74417,-6.9243
490,-503,10.5033,10.1071,0,0,0,0,0,0,0,-1,1714,1527,10.5032,-10.107
497,-503,15.0057,17.9476,0,0,0,0,0,0,0,-1,1721,1527,15.0058,-17.9476
504,-503,16.4764,18.4486,0,0,0,0,0,0,0,-1,1728,1527,16.4764,-18.4486
511,-503,16.8276,18.3271,0,0,0,0,0,0,0,-1,1735,1527,16.8276,-18.3272
518,-503,17.2533,18.2738,0,0,0,0,0,0,0,-1,1742,1527,17.2533,-18.2738
525,-503,21.2887,26.5785,0,0,0,0,0,0,0,-1,1749,1527,21.2887,-26.5785
532,-503,29.262,36.2283,0,0,0,0,0,0,0,-1,1756,1527,29.262,-36.2282
539,-503,29.281,35.3132,0.00953489,0.0069624,-0.00627752,0.0146566,0.00184071,-0.684348,0.00921895,0.0344609,1763,1527,29.281,-35.3132
546,-503,29.3219,34.3571,0.00763439,0.00534302,-0.00481638,0.0114395,0.00153794,-0.668632,0.00716887,0.0144774,1770,1527,29.3219,-34.357
553,-503,29.3218,33.5532,0.00607548,0.00402327,-0.00365948,0.00884999,0.00124876,-0.64871,0.00553093,0.0136732,1777,1527,29.3218,-33.5532
560,-503,29.2797,32.7426,0.0048247,0.00300055,-0.00280071,0.00685811,0.000967138,-0.627985,0.00428622,0.0139835,1784,1527,29.2796,-32.7425
567,-503,29.2413,31.8918,0.00385916,0.00226407,-0.0022736,0.00547104,0.000652186,-0.616711,0.00345057,0.0138039,1791,1527,29.2414,-31.8919
574,-503,29.202,31.0625,0.00313206,0.0017445,-0.00195748,0.00451508,0.000361488,-0.615093,0.00289708,0.01332,1798,1527,29.202,-31.0625
581,-503,29.1437,30.2646,0.00257728,0.00144744,-0.00181479,0.00391305,0.000111672,-0.634508,0.00257228,0.0151868,1805,1527,29.1437,-30.2647
588,-503,29.0978,29.479,0.002253,0.00133564,-0.0018307,0.00368161,-9.2968e-05,-0.66265,0.00248598,0.0193469,1812,1527,29.0978,-29.479
595,-503,29.0471,28.6309,0.00215427,0.00139005,-0.00189308,0.00370341,-0.000159095,-0.685814,0.00252365,0.0147622,1819,1527,29.0471,-28.6309
602,-503,29.0675,27.7302,0.00227281,0.00176233,-0.00211207,0.00414501,-0.000109868,-0.725265,0.00280068,0.0256387,1826,1527,29.0675,-27.7302
609,-503,29.0737,26.8168,0,0,0,0,0,0,0,-1,1833,1527,29.0737,-26.8168
616,-503,27.9205,24.2308,0,0,0,0,0,0,0,-1,1840,1527,27.9206,-24.2309
623,-503,18.7351,15.5999,0,0,0,0,0,0,0,-1,1847,1527,18.7351,-15.5999
630,-503,20.6721,13.9077,0,0,0,0,0,0,0,-1,1854,1527,20.6721,-13.9077
637,-503,14.5564,9.20496,0,0,0,0,0,0,0,-1,1861,1527,14.5564,-9.2049
644,-503,11.4802,7.57214,0,0,0,0,0,0,0,-1,1868,1527,11.4802,-7.57215
651,-503,11.5718,6.5448,0,0,0,0,0,0,0,-1,1875,1527,11.5718,-6.54476
658,-503,8.25635,3.10498,0,0,0,0,0,0,0,-1,1882,1527,8.2563,-3.10493
665,-503,0,0,0,0,0,0,0,0,0,-1,1889,1527,0,0
672,-503,0,0,0,0,0,0,0,0,0,-1,1896,1527,0,0
679,-503,0,0,0,0,0,0,0,0,0,-1,1903,1527,0,0
686,-503,0,0,0,0,0,0,0,0,0,-1,1910,1527,0,0
693,-503,0,0,0,0,0,0,0,0,0,-1,1917,1527,0,0
700,-503,0,0,0,0,0,0,0,0,0,-1,1924,1527,0,0
707,-503,0,0,0,0,0,0,0,0,0,-1,1931,1527,0,0
714,-503,0,0,0,0,0,0,0,0,0,-1,1938,1527,0,0
721,-503,0,0,0,0,0,0,0,0,0,-1,1945,1527,0,0
728,-503,0,0,0,0,0,0,0,0,0,-1,1952,1527,0,0
735,-503,0,0,0,0,0,0,0,0,0,-1,1959,1527,0,0
742,-503,0,0,0,0,0,0,0,0,0,-1,1966,1527,0,0
749,-503,0,0,0,0,0,0,0,0,0,-1,1973,1527,0,0
756,-503,0,0,0,0,0,0,0,0,0,-1,1980,1527,0,0
763,-503,0,0,0,0,0,0,0,0,0,-1,1987,1527,0,0
770,-503,0,0,0,0,0,0,0,0,0,-1,1994,1527,0,0
777,-503,0,0,0,0,0,0,0,0,0,-1,2001,1527,0,0
784,-503,0,0,0,0,0,0,0,0,0,-1,2008,1527,0,0
791,-503,0,0,0,0,0,0,0,0,0,-1,2015,1527,0,0
798,-503,0,0,0,0,0,0,0,0,0,-1,2022,1527,0,0
805,-503,0,0,0,0,0,0,0,0,0,-1,2029,1527,0,0
812,-503,0,0,0,0,0,0,0,0,0,-1,2036,1527,0,0
-700,-510,0,0,0,0,0,0,0,0,0,-1,524,1534,0,0
-693,-510,0,0,0,0,0,0,0,0,0,-1,531,1534,0,0
-686,-510,0,0,0,0,0,0,0,0,0,-1,538,1534,0,0
-679,-510,0,0,0,0,0,0,0,0,0,-1,545,1534,0,0
-672,-510,0,0,0,0,0,0,0,0,0,-1,552,1534,0,0
-665,-510,0,0,0,0,0,0,0,0,0,-1,559,1534,0,0
-658,-510,0,0,0,0,0,0,0,0,0,-1,566,1534,0,0
-651,-510,0,0,0,0,0,0,0,0,0,-1,573,1534,0,0
-644,-510,0,0,0,0,0,0,0,0,0,-1,580,1534,0,0
-637,-510,0,0,0,0,0,0,0,0,0,-1,587,1534,0,0
-630,-510,0,0,0,0,0,0,0,0,0,-1,594,1534,0,0
-623,-510,0,0,0,0,0,0,0,0,0,-1,601,1534,0,0
-616,-510,0,0,0,0,0,0,0,0,0,-1,608,1534,0,0
-609,-510,0,0,0,0,0,0,0,0,0,-1,615,1534,0,0
-602,-510,0,0,0,0,0,0,0,0,0,-1,622,1534,0,0
-595,-510,0,0,0,0,0,0,0,0,0,-1,629,1534,0,0
-588,-510,0,0,0,0,0,0,0,0,0,-1,636,1534,0,0
-581,-510,0,0,0,0,0,0,0,0,0,-1,643,1534,0,0
-574,-510,0,0,0,0,0,0,0,0,0,-1,650,1534,0,0
-567,-510,0,0,0,0,0,0,0,0,0,-1,657,1534,0,0
-560,-510,0,0,0,0,0,0,0,0,0,-1,664,1534,0,0
-553,-510,0,0,0,0,0,0,0,0,0,-1,671,1534,0,0
-546,-510,0,0,0,0,0,0,0,0,0,-1,678,1534,0,0
-539,-510,0,0,0,0,0,0,0,0,0,-1,685,1534,0,0
-532,-510,-3.95129,4.52014,0,0,0,0,0,0,0,-1,692,1534,-3.95131,-4.5202
-525,-510,-2.77411,0.316772,0,0,0,0,0,0,0,-1,699,1534,-2.77409,-0.3168
-518,-510,-2.86847,2.71423,0,0,0,0,0,0,0,-1,706,1534,-2.86849,-2.71424
-511,-510,-2.28571,4.48083,0,0,0,0,0,0,0,-1,713,1534,-2.28571,-4.48086
-504,-510,-4.86731,10.8224,0,0,0,0,0,0,0,-1,720,1534,-4.8673,-10.8224
-497,-510,-3.42352,15.5178,0,0,0,0,0,0,0,-1,727,1534,-3.42352,-15.5178
-490,-510,-5.9472,18.5184,0,0,0,0,0,0,0,-1,734,1534,-5.94718,-18.5185
-483,-510,-6.79639,20.8453,0,0,0,0,0,0,0,-1,741,1534,-6.79638,-20.8454
-476,-510,-10.4707,27.2739,0,0,0,0,0,0,0,-1,748,1534,-10.4707,-27.2739
-469,-510,-10.3558,28.2141,0.000232062,0.00216317,0.00113436,0.00268726,-0.000292037,1.13799,0.00189637,0.0303826,755,1534,-10.3559,-28.2141
-462,-510,-10.3786,29.0636,-6.22648e-05,0.00131261,0.000609401,0.00154383,-0.00029349,1.20815,0.00113972,0.0130084,762,1534,-10.3786,-29.0635
-455,-510,-10.4269,29.9319,-5.92143e-05,0.000953813,0.000417942,0.00110398,-0.000209383,1.22586,0.000814799,0.0155632,769,1534,-10.4269,-29.9319
-448,-510,-10.439,30.7704,9.58131e-05,0.000861044,0.000399976,0.00103194,-7.50831e-05,1.16701,0.000714305,0.0143065,776,1534,-10.439,-30.7703
-441,-510,-10.4764,31.5948,0.000335986,0.000938408,0.000473745,0.00119859,7.58036e-05,1.06857,0.000775029,0.0144913,783,1534,-10.4764,-31.5948
-434,-510,-10.5793,32.4296,0.000636851,0.00121109,0.00064249,0.0016277,0.000220244,0.99553,0.00101968,0.0152963,790,1534,-10.5794,-32.4296
-427,-510,-10.6819,33.2389,0.00096178,0.00153841,0.000825534,0.00212453,0.000375661,0.953399,0.00130922,0.0246354,797,1534,-10.682,-33.2389
-420,-510,-10.6898,34.1113,0.00138671,0.00197199,0.00105654,0.00277567,0.000583036,0.920502,0.00168996,0.0239205,804,1534,-10.6898,-34.1113
-413,-510,-10.7162,35.0052,0.0019165,0.00251174,0.0013377,0.00358453,0.000843712,0.894859,0.00216399,0.0119084,811,1534,-10.7163,-35.0052
-406,-510,-10.7879,35.8199,0.00249129,0.00318011,0.00169679,0.00456709,0.00110432,0.885527,0.00275151,0.0113603,818,1534,-10.7879,-35.82
-399,-510,-10.8253,36.6199,0.0032712,0.00382874,0.00210719,0.00567552,0.00142442,0.851163,0.00340954,0.0173616,825,1534,-10.8253,-36.6198
-392,-510,-10.734,37.4417,0,0,0,0,0,0,0,-1,832,1534,-10.734,-37.4416
-385,-510,-7.23199,31.704,0,0,0,0,0,0,0,-1,839,1534,-7.23198,-31.704
-378,-510,-1.78308,13.8044,0,0,0,0,0,0,0,-1,846,1534,-1.78309,-13.8044
-371,-510,-1.74982,13.8027,0,0,0,0,0,0,0,-1,853,1534,-1.74981,-13.8028
-364,-510,-1.3479,13.7771,0,0,0,0,0,0,0,-1,860,1534,-1.34791,-13.7771
-357,-510,-0.254395,8.89575,0,0,0,0,0,0,0,-1,867,1534,-0.254397,-8.89569
-350,-510,0.471191,6.06458,0,0,0,0,0,0,0,-1,874,1534,0.47118,-6.06453
-343,-510,-6.96869,26.3074,0,0,0,0,0,0,0,-1,881,1534,-6.9687,-26.3074
-336,-510,-5.60437,29.5996,0,0,0,0,0,0,0,-1,888,1534,-5.60435,-29.5996
-329,-510,-4.87781,20.6893,0,0,0,0,0,0,0,-1,895,1534,-4.87782,-20.6894
-322,-510,-0.251526,11.973,0,0,0,0,0,0,0,-1,902,1534,-0.251497,-11.9731
-315,-510,-1.73047,10.9796,0,0,0,0,0,0,0,-1,909,1534,-1.73049,-10.9796
-308,-510,-2.05328,9.72034,0,0,0,0,0,0,0,-1,916,1534,-2.05327,-9.72036
-301,-510,-1.85437,11.5869,0,0,0,0,0,0,0,-1,923,1534,-1.85437,-11.5869
-294,-510,0,0,0,0,0,0,0,0,0,-1,930,1534,0,0
-287,-510,0,0,0,0,0,0,0,0,0,-1,937,1534,0,0
-280,-510,0,0,0,0,0,0,0,0,0,-1,944,1534,0,0
-273,-510,0,0,0,0,0,0,0,0,0,-1,951,1534,0,0
-266,-510,0,0,0,0,0,0,0,0,0,-1,958,1534,0,0
-259,-510,0,0,0,0,0,0,0,0,0,-1,965,1534,0,0
-252,-510,0,0,0,0,0,0,0,0,0,-1,972,1534,0,0
-245,-510,0,0,0,0,0,0,0,0,0,-1,979,1534,0,0
-238,-510,0,0,0,0,0,0,0,0,0,-1,986,1534,0,0
-231,-510,0,0,0,0,0,0,0,0,0,-1,993,1534,0,0
-224,-510,0,0,0,0,0,0,0,0,0,-1,1000,1534,0,0
-217,-510,0,0,0,0,0,0,0,0,0,-1,1007,1534,0,0
-210,-510,0,0,0,0,0,0,0,0,0,-1,1014,1534,0,0
-203,-510,0,0,0,0,0,0,0,0,0,-1,1021,1534,0,0
-196,-510,0,0,0,0,0,0,0,0,0,-1,1028,1534,0,0
-189,-510,0,0,0,0,0,0,0,0,0,-1,1035,1534,0,0
-182,-510,0,0,0,0,0,0,0,0,0,-1,1042,1534,0,0
-175,-510,0,0,0,0,0,0,0,0,0,-1,1049,1534,0,0
-168,-510,0,0,0,0,0,0,0,0,0,-1,1056,1534,0,0
-161,-510,0,0,0,0,0,0,0,0,0,-1,1063,1534,0,0
-154,-510,0,0,0,0,0,0,0,0,0,-1,1070,1534,0,0
-147,-510,0,0,0,0,0,0,0,0,0,-1,1077,1534,0,0
-140,-510,0,0,0,0,0,0,0,0,0,-1,1084,1534,0,0
-133,-510,0,0,0,0,0,0,0,0,0,-1,1091,1534,0,0
-126,-510,0,0,0,0,0,0,0,0,0,-1,1098,1534,0,0
-119,-510,0,0,0,0,0,0,0,0,0,-1,1105,1534,0,0
-112,-510,0,0,0,0,0,0,0,0,0,-1,1112,1534,0,0
-105,-510,0,0,0,0,0,0,0,0,0,-1,1119,1534,0,0
-98,-510,0,0,0,0,0,0,0,0,0,-1,1126,1534,0,0
-91,-510,0,0,0,0,0,0,0,0,0,-1,1133,1534,0,0
-84,-510,0,0,0,0,0,0,0,0,0,-1,1140,1534,0,0
-77,-510,0,0,0,0,0,0,0,0,0,-1,1147,1534,0,0
-70,-510,0,0,0,0,0,0,0,0,0,-1,1154,1534,0,0
-63,-510,0,0,0,0,0,0,0,0,0,-1,1161,1534,0,0
-56,-510,0,0,0,0,0,0,0,0,0,-1,1168,1534,0,0
-49,-510,0,0,0,0,0,0,0,0,0,-1,1175,1534,0,0
-42,-510,0,0,0,0,0,0,0,0,0,-1,1182,1534,0,0
-35,-510,0,0,0,0,0,0,0,0,0,-1,1189,1534,0,0
-28,-510,0,0,0,0,0,0,0,0,0,-1,1196,1534,0,0
-21,-510,0,0,0,0,0,0,0,0,0,-1,1203,1534,0,0
-14,-510,0,0,0,0,0,0,0,0,0,-1,1210,1534,0,0
-7,-510,0,0,0,0,0,0,0,0,0,-1,1217,1534,0,0
0,-510,0,0,0,0,0,0,0,0,0,-1,1224,1534,0,0
7,-510,0,0,0,0,0,0,0,0,0,-1,1231,1534,0,0
14,-510,0,0,0,0,0,0,0,0,0,-1,1238,1534,0,0
21,-510,0,0,0,0,0,0,0,0,0,-1,1245,1534,0,0
28,-510,0,0,0,0,0,0,0,0,0,-1,1252,1534,0,0
35,-510,0,0,0,0,0,0,0,0,0,-1,1259,1534,0,0
42,-510,0,0,0,0,0,0,0,0,0,-1,1266,1534,0,0
49,-510,0,0,0,0,0,0,0,0,0,-1,1273,1534,0,0
56,-510,0,0,0,0,0,0,0,0,0,-1,1280,1534,0,0
63,-510,0,0,0,0,0,0,0,0,0,-1,1287,1534,0,0
70,-510,0,0,0,0,0,0,0,0,0,-1,1294,1534,0,0
77,-510,0,0,0,0,0,0,0,0,0,-1,1301,1534,0,0
84,-510,0,0,0,0,0,0,0,0,0,-1,1308,1534,0,0
91,-510,0,0,0,0,0,0,0,0,0,-1,1315,1534,0,0
98,-510,0,0,0,0,0,0,0,0,0,-1,1322,1534,0,0
105,-510,0,0,0,0,0,0,0,0,0,-1,1329,1534,0,0
112,-510,0,0,0,0,0,0,0,0,0,-1,1336,1534,0,0
119,-510,0,0,0,0,0,0,0,0,0,-1,1343,1534,0,0
126,-510,0,0,0,0,0,0,0,0,0,-1,1350,1534,0,0
133,-510,0,0,0,0,0,0,0,0,0,-1,1357,1534,0,0
140,-510,0,0,0,0,0,0,0,0,0,-1,1364,1534,0,0
147,-510,0,0,0,0,0,0,0,0,0,-1,1371,1534,0,0
154,-510,0,0,0,0,0,0,0,0,0,-1,1378,1534,0,0
161,-510,0,0,0,0,0,0,0,0,0,-1,1385,1534,0,0
168,-510,0,0,0,0,0,0,0,0,0,-1,1392,1534,0,0
175,-510,0,0,0,0,0,0,0,0,0,-1,1399,1534,0,0
182,-510,0,0,0,0,0,0,0,0,0,-1,1406,1534,0,0
189,-510,0,0,0,0,0,0,0,0,0,-1,1413,1534,0,0
196,-510,0,0,0,0,0,0,0,0,0,-1,1420,1534,0,0
203,-510,0,0,0,0,0,0,0,0,0,-1,1427,1534,0,0
210,-510,0,0,0,0,0,0,0,0,0,-1,1434,1534,0,0
217,-510,0,0,0,0,0,0,0,0,0,-1,1441,1534,0,0
224,-510,0,0,0,0,0,0,0,0,0,-1,1448,1534,0,0
231,-510,0,0,0,0,0,0,0,0,0,-1,1455,1534,0,0
238,-510,0,0,0,0,0,0,0,0,0,-1,1462,1534,0,0
245,-510,0,0,0,0,0,0,0,0,0,-1,1469,1534,0,0
252,-510,0,0,0,0,0,0,0,0,0,-1,1476,1534,0,0
259,-510,0,0,0,0,0,0,0,0,0,-1,1483,1534,0,0
266,-510,0,0,0,0,0,0,0,0,0,-1,1490,1534,0,0
273,-510,0,0,0,0,0,0,0,0,0,-1,1497,1534,0,0
280,-510,0,0,0,0,0,0,0,0,0,-1,1504,1534,0,0
287,-510,0,0,0,0,0,0,0,0,0,-1,1511,1534,0,0
294,-510,0,0,0,0,0,0,0,0,0,-1,1518,1534,0,0
301,-510,0,0,0,0,0,0,0,0,0,-1,1525,1534,0,0
308,-510,0,0,0,0,0,0,0,0,0,-1,1532,1534,0,0
315,-510,0,0,0,0,0,0,0,0,0,-1,1539,1534,0,0
322,-510,0,0,0,0,0,0,0,0,0,-1,1546,1534,0,0
329,-510,0,0,0,0,0,0,0,0,0,-1,1553,1534,0,0
336,-510,0,0,0,0,0,0,0,0,0,-1,1560,1534,0,0
343,-510,0,0,0,0,0,0,0,0,0,-1,1567,1534,0,0
350,-510,0,0,0,0,0,0,0,0,0,-1,1574,1534,0,0
357,-510,0,0,0,0,0,0,0,0,0,-1,1581,1534,0,0
364,-510,0,0,0,0,0,0,0,0,0,-1,1588,1534,0,0
371,-510,0,0,0,0,0,0,0,0,0,-1,1595,1534,0,0
378,-510,0,0,0,0,0,0,0,0,0,-1,1602,1534,0,0
385,-510,0,0,0,0,0,0,0,0,0,-1,1609,1534,0,0
392,-510,0,0,0,0,0,0,0,0,0,-1,1616,1534,0,0
399,-510,0,0,0,0,0,0,0,0,0,-1,1623,1534,0,0
406,-510,0,0,0,0,0,0,0,0,0,-1,1630,1534,0,0
413,-510,0,0,0,0,0,0,0,0,0,-1,1637,1534,0,0
420,-510,14.1888,6.71936,0,0,0,0,0,0,0,-1,1644,1534,14.1889,-6.71939
427,-510,10.2134,5.59485,0,0,0,0,0,0,0,-1,1651,1534,10.2134,-5.59485
434,-510,11.8219,4.07898,0,0,0,0,0,0,0,-1,1658,1534,11.8219,-4.07895
441,-510,12.6812,3.02991,0,0,0,0,0,0,0,-1,1665,1534,12.6811,-3.0299
448,-510,13.2379,2.2804,0,0,0,0,0,0,0,-1,1672,1534,13.2379,-2.28037
455,-510,9.76892,2.20642,0,0,0,0,0,0,0,-1,1679,1534,9.76894,-2.20647
462,-510,9.84692,2.49182,0,0,0,0,0,0,0,-1,1686,1534,9.84695,-2.49185
469,-510,16.6072,7.26941,0,0,0,0,0,0,0,-1,1693,1534,16.6072,-7.26945
476,-510,15.9199,7.8645,0,0,0,0,0,0,0,-1,1700,1534,15.9199,-7.86455
483,-510,13.0833,8.10938,0,0,0,0,0,0,0,-1,1707,1534,13.0833,-8.10932
490,-510,13.0841,15.3286,0,0,0,0,0,0,0,-1,1714,1534,13.0841,-15.3286
497,-510,15.5652,18.823,0,0,0,0,0,0,0,-1,1721,1534,15.5652,-18.823
504,-510,15.998,18.7478,0,0,0,0,0,0,0,-1,1728,1534,15.998,-18.7478
511,-510,15.9443,18.0476,0,0,0,0,0,0,0,-1,1735,1534,15.9443,-18.0476
518,-510,21.5343,27.1368,0,0,0,0,0,0,0,-1,1742,1534,21.5342,-27.1368
525,-510,28.2592,37.2271,0,0,0,0,0,0,0,-1,1749,1534,28.2592,-37.2271
532,-510,28.549,36.1226,0.00932952,0.00716304,-0.00632354,0.0146619,0.00183063,-0.70057,0.00922516,0.032593,1756,1534,28.5489,-36.1226
539,-510,28.5892,35.1678,0.00746664,0.00566896,-0.00493111,0.0115802,0.00155544,-0.695248,0.0072574,0.0147854,1763,1534,28.5892,-35.1679
546,-510,28.5251,34.3926,0.00598454,0.0043671,-0.00383731,0.00909742,0.00125421,-0.681542,0.00569312,0.0139563,1770,1534,28.5251,-34.3926
553,-510,28.4805,33.5957,0.00476684,0.00329569,-0.00295932,0.00708064,0.000981894,-0.663586,0.00442955,0.0137758,1777,1534,28.4805,-33.5957
560,-510,28.4379,32.7666,0.00382207,0.00247457,-0.00233363,0.00557727,0.000719371,-0.644863,0.0035031,0.0143158,1784,1534,28.4379,-32.7666
567,-510,28.4061,31.924,0.00313308,0.00191325,-0.00200248,0.00461647,0.000429861,-0.637572,0.00294484,0.0140236,1791,1534,28.4061,-31.924
574,-510,28.3386,31.1212,0.00265948,0.00153958,-0.00185528,0.00403747,0.000161588,-0.638839,0.00263943,0.0148541,1798,1534,28.3386,-31.1212
581,-510,28.3031,30.3477,0.00238947,0.00140291,-0.00191062,0.00386945,-7.708e-05,-0.659068,0.00260571,0.0142352,1805,1534,28.303,-30.3476
588,-510,28.2771,29.5232,0.00233666,0.00148102,-0.00214078,0.00409195,-0.000274275,-0.686776,0.00282384,0.0148467,1812,1534,28.2772,-29.5232
595,-510,28.3451,28.5594,0.00246143,0.00179351,-0.002457,0.00460706,-0.000352124,-0.717851,0.00319522,0.0227827,1819,1534,28.3451,-28.5594
602,-510,28.3502,27.5632,0,0,0,0,0,0,0,-1,1826,1534,28.3502,-27.5633
609,-510,21.259,19.222,0,0,0,0,0,0,0,-1,1833,1534,21.259,-19.222
616,-510,18.7024,16.2474,0,0,0,0,0,0,0,-1,1840,1534,18.7024,-16.2474
623,-510,19.6013,14.6211,0,0,0,0,0,0,0,-1,1847,1534,19.6013,-14.6211
630,-510,13.7461,9.30334,0,0,0,0,0,0,0,-1,1854,1534,13.7461,-9.30335
637,-510,11.0155,7.38464,0,0,0,0,0,0,0,-1,1861,1534,11.0155,-7.38463
644,-510,11.5809,7.17126,0,0,0,0,0,0,0,-1,1868,1534,11.5809,-7.17123
651,-510,8.70471,3.5061,0,0,0,0,0,0,0,-1,1875,1534,8.70475,-3.50611
658,-510,0,0,0,0,0,0,0,0,0,-1,1882,1534,0,0
665,-510,0,0,0,0,0,0,0,0,0,-1,1889,1534,0,0
672,-510,0,0,0,0,0,0,0,0,0,-1,1896,1534,0,0
679,-510,0,0,0,0,0,0,0,0,0,-1,1903,1534,0,0
686,-510,0,0,0,0,0,0,0,0,0,-1,1910,1534,0,0
693,-510,0,0,0,0,0,0,0,0,0,-1,1917,1534,0,0
700,-510,0,0,0,0,0,0,0,0,0,-1,1924,1534,0,0
707,-510,0,0,0,0,0,0,0,0,0,-1,1931,1534,0,0
714,-510,0,0,0,0,0,0,0,0,0,-1,1938,1534,0,0
721,-510,0,0,0,0,0,0,0,0,0,-1,1945,1534,0,0
728,-510,0,0,0,0,0,0,0,0,0,-1,1952,1534,0,0
735,-510,0,0,0,0,0,0,0,0,0,-1,1959,1534,0,0
742,-510,0,0,0,0,0,0,0,0,0,-1,1966,1534,0,0
749,-510,0,0,0,0,0,0,0,0,0,-1,1973,1534,0,0
756,-510,0,0,0,0,0,0,0,0,0,-1,1980,1534,0,0
763,-510,0,0,0,0,0,0,0,0,0,-1,1987,1534,0,0
770,-510,0,0,0,0,0,0,0,0,0,-1,1994,1534,0,0
777,-510,0,0,0,0,0,0,0,0,0,-1,2001,1534,0,0
784,-510,0,0,0,0,0,0,0,0,0,-1,2008,1534,0,0
791,-510,0,0,0,0,0,0,0,0,0,-1,2015,1534,0,0
798,-510,0,0,0,0,0,0,0,0,0,-1,2022,1534,0,0
805,-510,0,0,0,0,0,0,0,0,0,-1,2029,1534,0,0
812,-510,0,0,0,0,0,0,0,0,0,-1,2036,1534,0,0
-700,-517,0,0,0,0,0,0,0,0,0,-1,524,1541,0,0
-693,-517,0,0,0,0,0,0,0,0,0,-1,531,1541,0,0
-686,-517,0,0,0,0,0,0,0,0,0,-1,538,1541,0,0
-679,-517,0,0,0,0,0,0,0,0,0,-1,545,1541,0,0
-672,-517,0,0,0,0,0,0,0,0,0,-1,552,1541,0,0
-665,-517,0,0,0,0,0,0,0,0,0,-1,559,1541,0,0
-658,-517,0,0,0,0,0,0,0,0,0,-1,566,1541,0,0
-651,-517,0,0,0,0,0,0,0,0,0,-1,573,1541,0,0
-644,-517,0,0,0,0,0,0,0,0,0,-1,580,1541,0,0
-637,-517,0,0,0,0,0,0,0,0,0,-1,587,1541,0,0
-630,-517,0,0,0,0,0,0,0,0,0,-1,594,1541,0,0
-623,-517,0,0,0,0,0,0,0,0,0,-1,601,1541,0,0
-616,-517,0,0,0,0,0,0,0,0,0,-1,608,1541,0,0
-609,-517,0,0,0,0,0,0,0,0,0,-1,615,1541,0,0
-602,-517,0,0,0,0,0,0,0,0,0,-1,622,1541,0,0
-595,-517,0,0,0,0,0,0,0,0,0,-1,629,1541,0,0
-588,-517,0,0,0,0,0,0,0,0,0,-1,636,1541,0,0
-581,-517,0,0,0,0,0,0,0,0,0,-1,643,1541,0,0
-574,-517,0,0,0,0,0,0,0,0,0,-1,650,1541,0,0
-567,-517,0,0,0,0,0,0,0,0,0,-1,657,1541,0,0
-560,-517,0,0,0,0,0,0,0,0,0,-1,664,1541,0,0
-553,-517,0,0,0,0,0,0,0,0,0,-1,671,1541,0,0
-546,-517,0,0,0,0,0,0,0,0,0,-1,678,1541,0,0
-539,-517,0,0,0,0,0,0,0,0,0,-1,685,1541,0,0
-532,-517,0,0,0,0,0,0,0,0,0,-1,692,1541,0,0
-525,-517,-3.62903,4.3606,0,0,0,0,0,0,0,-1,699,1541,-3.62904,-4.36056
-518,-517,-1.664,2.27209,0,0,0,0,0,0,0,-1,706,1541,-1.66399,-2.27207
-511,-517,-0.999146,5.52063,0,0,0,0,0,0,0,-1,713,1541,-0.999126,-5.52059
-504,-517,-1.06946,8.67432,0,0,0,0,0,0,0,-1,720,1541,-1.06947,-8.6743
-497,-517,-5.43036,17.4033,0,0,0,0,0,0,0,-1,727,1541,-5.43033,-17.4034
-490,-517,-6.20526,19.4496,0,0,0,0,0,0,0,-1,734,1541,-6.20526,-19.4495
-483,-517,-6.2254,20.368,0,0,0,0,0,0,0,-1,741,1541,-6.22542,-20.368
-476,-517,-9.10809,27.2189,0,0,0,0,0,0,0,-1,748,1541,-9.10809,-27.2189
-469,-517,-9.33636,28.2579,-0.000725792,0.00201173,0.000366708,0.00206,-0.000774064,1.43991,0.00169146,0.0348521,755,1541,-9.33636,-28.258
-462,-517,-9.56482,29.0677,-0.000886907,0.00107336,-5.51218e-05,0.00107491,-0.000888456,-1.54271,0.00113525,0.0358387,762,1541,-9.56484,-29.0678
-455,-517,-9.59448,29.9746,-0.000753039,0.00069771,-0.00014249,0.000711573,-0.000766902,-1.47381,0.000853797,0.0201086,769,1541,-9.59446,-29.9747
-448,-517,-9.60773,30.8441,-0.000495474,0.000580423,-6.47255e-05,0.000584303,-0.000499354,-1.51092,0.00062629,0.0140811,776,1541,-9.60773,-30.8441
-441,-517,-9.67072,31.6669,-0.00017698,0.000603595,6.35652e-05,0.000608737,-0.000182122,1.49007,0.000478235,0.0126413,783,1541,-9.67071,-31.6668
-434,-517,-9.72052,32.4994,0.000176522,0.000798442,0.000254783,0.00088949,8.54738e-05,1.22758,0.000566655,0.0153532,790,1541,-9.72049,-32.4994
-427,-517,-9.79401,33.3456,0.000505015,0.00103456,0.000433489,0.00127774,0.000261835,1.05956,0.000779353,0.015201,797,1541,-9.79403,-33.3456
-420,-517,-9.86963,34.2079,0.000899579,0.00137628,0.000634438,0.00181566,0.000460195,0.965084,0.00108992,0.0294727,804,1541,-9.86965,-34.2079
-413,-517,-9.90686,35.0254,0.00141126,0.00180105,0.000899775,0.00252679,0.000685512,0.892052,0.00150886,0.0162029,811,1541,-9.90687,-35.0253
-406,-517,-9.93726,35.8837,0.00192494,0.0023515,0.00118846,0.00334567,0.000930776,0.874184,0.00199397,0.0117888,818,1541,-9.93724,-35.8837
-399,-517,-9.97284,36.7067,0.00254354,0.00290551,0.00148575,0.00422126,0.0012278,0.846006,0.00250721,0.011454,825,1541,-9.97284,-36.7067
-392,-517,-9.99823,37.5442,0.00314545,0.00366114,0.00176188,0.00518394,0.00162265,0.858056,0.00306192,0.0220159,832,1541,-9.99825,-37.5441
-385,-517,-9.9472,38.4816,0,0,0,0,0,0,0,-1,839,1541,-9.94722,-38.4816
-378,-517,-6.61444,32.6315,0,0,0,0,0,0,0,-1,846,1541,-6.61445,-32.6315
-371,-517,-1.37585,13.2646,0,0,0,0,0,0,0,-1,853,1541,-1.37586,-13.2647
-364,-517,-1.26245,12.6289,0,0,0,0,0,0,0,-1,860,1541,-1.26243,-12.6289
-357,-517,-1.23889,12.979,0,0,0,0,0,0,0,-1,867,1541,-1.23891,-12.979
-350,-517,-5.40198,23.8954,0,0,0,0,0,0,0,-1,874,1541,-5.40196,-23.8954
-343,-517,-5.45844,29.2598,0,0,0,0,0,0,0,-1,881,1541,-5.45842,-29.2598
-336,-517,-4.53223,29.6708,0,0,0,0,0,0,0,-1,888,1541,-4.53221,-29.6708
-329,-517,-3.60602,30.0817,0,0,0,0,0,0,0,-1,895,1541,-3.60601,-30.0817
-322,-517,-4.21246,19.5819,0,0,0,0,0,0,0,-1,902,1541,-4.21244,-19.5819
-315,-517,-0.987976,7.29749,0,0,0,0,0,0,0,-1,909,1541,-0.987993,-7.29743
-308,-517,3.27911,17.621,0,0,0,0,0,0,0,-1,916,1541,3.27913,-17.621
-301,-517,-1.69141,8.87488,0,0,0,0,0,0,0,-1,923,1541,-1.69141,-8.87485
-294,-517,-1.72583,9.92566,0,0,0,0,0,0,0,-1,930,1541,-1.72584,-9.92571
-287,-517,-3.09045,12.1472,0,0,0,0,0,0,0,-1,937,1541,-3.09043,-12.1472
-280,-517,0,0,0,0,0,0,0,0,0,-1,944,1541,0,0
-273,-517,0,0,0,0,0,0,0,0,0,-1,951,1541,0,0
-266,-517,0,0,0,0,0,0,0,0,0,-1,958,1541,0,0
-259,-517,0,0,0,0,0,0,0,0,0,-1,965,1541,0,0
-252,-517,0,0,0,0,0,0,0,0,0,-1,972,1541,0,0
-245,-517,0,0,0,0,0,0,0,0,0,-1,979,1541,0,0
-238,-517,0,0,0,0,0,0,0,0,0,-1,986,1541,0,0
-231,-517,0,0,0,0,0,0,0,0,0,-1,993,1541,0,0
-224,-517,0,0,0,0,0,0,0,0,0,-1,1000,1541,0,0
-217,-517,0,0,0,0,0,0,0,0,0,-1,1007,1541,0,0
-210,-517,0,0,0,0,0,0,0,0,0,-1,1014,1541,0,0
-203,-517,0,0,0,0,0,0,0,0,0,-1,1021,1541,0,0
-196,-517,0,0,0,0,0,0,0,0,0,-1,1028,1541,0,0
-189,-517,0,0,0,0,0,0,0,0,0,-1,1035,1541,0,0
-182,-517,0,0,0,0,0,0,0,0,0,-1,1042,1541,0,0
-175,-517,0,0,0,0,0,0,0,0,0,-1,1049,1541,0,0
-168,-517,0,0,0,0,0,0,0,0,0,-1,1056,1541,0,0
-161,-517,0,0,0,0,0,0,0,0,0,-1,1063,1541,0,0
-154,-517,0,0,0,0,0,0,0,0,0,-1,1070,1541,0,0
-147,-517,0,0,0,0,0,0,0,0,0,-1,1077,1541,0,0
-140,-517,0,0,0,0,0,0,0,0,0,-1,1084,1541,0,0
-133,-517,0,0,0,0,0,0,0,0,0,-1,1091,1541,0,0
-126,-517,0,0,0,0,0,0,0,0,0,-1,1098,1541,0,0
-119,-517,0,0,0,0,0,0,0,0,0,-1,1105,1541,0,0
-112,-517,0,0,0,0,0,0,0,0,0,-1,1112,1541,0,0
-105,-517,0,0,0,0,0,0,0,0,0,-1,1119,1541,0,0
-98,-517,0,0,0,0,0,0,0,0,0,-1,1126,1541,0,0
-91,-517,0,0,0,0,0,0,0,0,0,-1,1133,1541,0,0
-84,-517,0,0,0,0,0,0,0,0,0,-1,1140,1541,0,0
-77,-517,0,0,0,0,0,0,0,0,0,-1,1147,1541,0,0
-70,-517,0,0,0,0,0,0,0,0,0,-1,1154,1541,0,0
-63,-517,0,0,0,0,0,0,0,0,0,-1,1161,1541,0,0
-56,-517,0,0,0,0,0,0,0,0,0,-1,1168,1541,0,0
-49,-517,0,0,0,0,0,0,0,0,0,-1,1175,1541,0,0
-42,-517,0,0,0,0,0,0,0,0,0,-1,1182,1541,0,0
-35,-517,0,0,0,0,0,0,0,0,0,-1,1189,1541,0,0
-28,-517,0,0,0,0,0,0,0,0,0,-1,1196,1541,0,0
-21,-517,0,0,0,0,0,0,0,0,0,-1,1203,1541,0,0
-14,-517,0,0,0,0,0,0,0,0,0,-1,1210,1541,0,0
-7,-517,0,0,0,0,0,0,0,0,0,-1,1217,1541,0,0
0,-517,0,0,0,0,0,0,0,0,0,-1,1224,1541,0,0
7,-517,0,0,0,0,0,0,0,0,0,-1,1231,1541,0,0
14,-517,0,0,0,0,0,0,0,0,0,-1,1238,1541,0,0
21,-517,0,0,0,0,0,0,0,0,0,-1,1245,1541,0,0
28,-517,0,0,0,0,0,0,0,0,0,-1,1252,1541,0,0
35,-517,0,0,0,0,0,0,0,0,0,-1,1259,1541,0,0
42,-517,0,0,0,0,0,0,0,0,0,-1,1266,1541,0,0
49,-517,0,0,0,0,0,0,0,0,0,-1,1273,1541,0,0
56,-517,0,0,0,0,0,0,0,0,0,-1,1280,1541,0,0
63,-517,0,0,0,0,0,0,0,0,0,-1,1287,1541,0,0
70,-517,0,0,0,0,0,0,0,0,0,-1,1294,1541,0,0
77,-517,0,0,0,0,0,0,0,0,0,-1,1301,1541,0,0
84,-517,0,0,0,0,0,0,0,0,0,-1,1308,1541,0,0
91,-517,0,0,0,0,0,0,0,0,0,-1,1315,1541,0,0
98,-517,0,0,0,0,0,0,0,0,0,-1,1322,1541,0,0
105,-517,0,0,0,0,0,0,0,0,0,-1,1329,1541,0,0
112,-517,0,0,0,0,0,0,0,0,0,-1,1336,1541,0,0
119,-517,0,0,0,0,0,0,0,0,0,-1,1343,1541,0,0
126,-517,0,0,0,0,0,0,0,0,0,-1,1350,1541,0,0
133,-517,0,0,0,0,0,0,0,0,0,-1,1357,1541,0,0
140,-517,0,0,0,0,0,0,0,0,0,-1,1364,1541,0,0
147,-517,0,0,0,0,0,0,0,0,0,-1,1371,1541,0,0
154,-517,0,0,0,0,0,0,0,0,0,-1,1378,1541,0,0
161,-517,0,0,0,0,0,0,0,0,0,-1,1385,1541,0,0
168,-517,0,0,0,0,0,0,0,0,0,-1,1392,1541,0,0
175,-517,0,0,0,0,0,0,0,0,0,-1,1399,1541,0,0
182,-517,0,0,0,0,0,0,0,0,0,-1,1406,1541,0,0
189,-517,0,0,0,0,0,0,0,0,0,-1,1413,1541,0,0
196,-517,0,0,0,0,0,0,0,0,0,-1,1420,1541,0,0
203,-517,0,0,0,0,0,0,0,0,0,-1,1427,1541,0,0
210,-517,0,0,0,0,0,0,0,0,0,-1,1434,1541,0,0
217,-517,0,0,0,0,0,0,0,0,0,-1,1441,1541,0,0
224,-517,0,0,0,0,0,0,0,0,0,-1,1448,1541,0,0
231,-517,0,0,0,0,0,0,0,0,0,-1,1455,1541,0,0
238,-517,0,0,0,0,0,0,0,0,0,-1,1462,1541,0,0
245,-517,0,0,0,0,0,0,0,0,0,-1,1469,1541,0,0
252,-517,0,0,0,0,0,0,0,0,0,-1,1476,1541,0,0
259,-517,0,0,0,0,0,0,0,0,0,-1,1483,1541,0,0
266,-517,0,0,0,0,0,0,0,0,0,-1,1490,1541,0,0
273,-517,0,0,0,0,0,0,0,0,0,-1,1497,1541,0,0
280,-517,0,0,0,0,0,0,0,0,0,-1,1504,1541,0,0
287,-517,0,0,0,0,0,0,0,0,0,-1,1511,1541,0,0
294,-517,0,0,0,0,0,0,0,0,0,-1,1518,1541,0,0
301,-517,0,0,0,0,0,0,0,0,0,-1,1525,1541,0,0
308,-517,0,0,0,0,0,0,0,0,0,-1,1532,1541,0,0
315,-517,0,0,0,0,0,0,0,0,0,-1,1539,1541,0,0
322,-517,0,0,0,0,0,0,0,0,0,-1,1546,1541,0,0
329,-517,0,0,0,0,0,0,0,0,0,-1,1553,1541,0,0
336,-517,0,0,0,0,0,0,0,0,0,-1,1560,1541,0,0
343,-517,0,0,0,0,0,0,0,0,0,-1,1567,1541,0,0
350,-517,0,0,0,0,0,0,0,0,0,-1,1574,1541,0,0
357,-517,0,0,0,0,0,0,0,0,0,-1,1581,1541,0,0
364,-517,0,0,0,0,0,0,0,0,0,-1,1588,1541,0,0
371,-517,0,0,0,0,0,0,0,0,0,-1,1595,1541,0,0
378,-517,0,0,0,0,0,0,0,0,0,-1,1602,1541,0,0
385,-517,0,0,0,0,0,0,0,0,0,-1,1609,1541,0,0
392,-517,0,0,0,0,0,0,0,0,0,-1,1616,1541,0,0
399,-517,0,0,0,0,0,0,0,0,0,-1,1623,1541,0,0
406,-517,13.1395,7.01978,0,0,0,0,0,0,0,-1,1630,1541,13.1396,-7.01981
413,-517,12.8859,6.31592,0,0,0,0,0,0,0,-1,1637,1541,12.8858,-6.31588
420,-517,12.4789,6.20337,0,0,0,0,0,0,0,-1,1644,1541,12.4789,-6.20333
427,-517,11.647,4.66516,0,0,0,0,0,0,0,-1,1651,1541,11.647,-4.66519
434,-517,12.3719,3.92773,0,0,0,0,0,0,0,-1,1658,1541,12.3719,-3.92776
441,-517,13.146,3.14124,0,0,0,0,0,0,0,-1,1665,1541,13.146,-3.14121
448,-517,13.8861,2.36682,0,0,0,0,0,0,0,-1,1672,1541,13.8861,-2.36684
455,-517,13.6012,4.06335,0,0,0,0,0,0,0,-1,1679,1541,13.6012,-4.06335
462,-517,14.8956,7.0752,0,0,0,0,0,0,0,-1,1686,1541,14.8956,-7.07525
469,-517,13.6292,6.87744,0,0,0,0,0,0,0,-1,1693,1541,13.6292,-6.87739
476,-517,17.1632,14.1487,0,0,0,0,0,0,0,-1,1700,1541,17.1632,-14.1487
483,-517,16.5157,15.0776,0,0,0,0,0,0,0,-1,1707,1541,16.5157,-15.0777
490,-517,15.5439,18.0258,0,0,0,0,0,0,0,-1,1714,1541,15.5439,-18.0258
497,-517,16.0292,18.7786,0,0,0,0,0,0,0,-1,1721,1541,16.0291,-18.7786
504,-517,27.4606,39.6987,0,0,0,0,0,0,0,-1,1728,1541,27.4606,-39.6987
511,-517,16.9674,21.8491,0,0,0,0,0,0,0,-1,1735,1541,16.9674,-21.8491
518,-517,27.4749,37.8228,0,0,0,0,0,0,0,-1,1742,1541,27.4748,-37.8228
525,-517,27.6646,36.9532,0.00913094,0.00732294,-0.00632484,0.0146161,0.00183782,-0.714414,0.00919288,0.0278796,1749,1541,27.6645,-36.9533
532,-517,27.8103,36.0184,0.00729731,0.00584784,-0.00501701,0.0116417,0.00150349,-0.713667,0.00731165,0.0127369,1756,1541,27.8103,-36.0184
539,-517,27.7803,35.2058,0.00583983,0.00466977,-0.00396399,0.00926173,0.00124788,-0.712134,0.00580342,0.013957,1763,1541,27.7802,-35.2058
546,-517,27.7238,34.4338,0.00465724,0.0036202,-0.00313228,0.00731363,0.000963816,-0.703372,0.00458835,0.0146487,1770,1541,27.7237,-34.4339
553,-517,27.6677,33.6338,0.00369305,0.00273725,-0.00245063,0.00571194,0.000718348,-0.689101,0.00359253,0.018322,1777,1541,27.6677,-33.6338
560,-517,27.641,32.8212,0.00298494,0.00206088,-0.00198996,0.0045658,0.000480021,-0.671329,0.00289715,0.0174245,1784,1541,27.641,-32.8212
567,-517,27.6254,32.0012,0.00250596,0.00160446,-0.00178717,0.00389834,0.000212074,-0.661867,0.00253117,0.0139378,1791,1541,27.6254,-32.0012
574,-517,27.5519,31.1772,0.00222576,0.00130027,-0.00174932,0.00357251,-4.64815e-05,-0.656096,0.00239731,0.0159668,1798,1541,27.5519,-31.1773
581,-517,27.4851,30.3671,0.00221178,0.00125355,-0.00196551,0.00375573,-0.000290402,-0.665849,0.00260602,0.0177823,1805,1541,27.4852,-30.367
588,-517,27.4652,29.5344,0.00242634,0.00145754,-0.00237939,0.00437014,-0.000486264,-0.68498,0.0030883,0.0176438,1812,1541,27.4652,-29.5345
595,-517,27.67,28.4739,0,0,0,0,0,0,0,-1,1819,1541,27.67,-28.4739
602,-517,27.4781,27.4673,0,0,0,0,0,0,0,-1,1826,1541,27.4781,-27.4673
609,-517,12.6417,10.8751,0,0,0,0,0,0,0,-1,1833,1541,12.6417,-10.8751
616,-517,14.205,10.3193,0,0,0,0,0,0,0,-1,1840,1541,14.205,-10.3194
623,-517,12.578,10.0779,0,0,0,0,0,0,0,-1,1847,1541,12.578,-10.0779
630,-517,11.7035,7.47815,0,0,0,0,0,0,0,-1,1854,1541,11.7035,-7.47812
637,-517,11.5172,5.79822,0,0,0,0,0,0,0,-1,1861,1541,11.5173,-5.79825
644,-517,11.4232,3.30579,0,0,0,0,0,0,0,-1,1868,1541,11.4232,-3.30574
651,-517,0,0,0,0,0,0,0,0,0,-1,1875,1541,0,0
658,-517,0,0,0,0,0,0,0,0,0,-1,1882,1541,0,0
665,-517,0,0,0,0,0,0,0,0,0,-1,1889,1541,0,0
672,-517,0,0,0,0,0,0,0,0,0,-1,1896,1541,0,0
679,-517,0,0,0,0,0,0,0,0,0,-1,1903,1541,0,0
686,-517,0,0,0,0,0,0,0,0,0,-1,1910,1541,0,0
693,-517,0,0,0,0,0,0,0,0,0,-1,1917,1541,0,0
700,-517,0,0,0,0,0,0,0,0,0,-1,1924,1541,0,0
707,-517,0,0,0,0,0,0,0,0,0,-1,1931,1541,0,0
714,-517,0,0,0,0,0,0,0,0,0,-1,1938,1541,0,0
721,-517,0,0,0,0,0,0,0,0,0,-1,1945,1541,0,0
728,-517,0,0,0,0,0,0,0,0,0,-1,1952,1541,0,0
735,-517,0,0,0,0,0,0,0,0,0,-1,1959,1541,0,0
742,-517,0,0,0,0,0,0,0,0,0,-1,1966,1541,0,0
749,-517,0,0,0,0,0,0,0,0,0,-1,1973,1541,0,0
756,-517,0,0,0,0,0,0,0,0,0,-1,1980,1541,0,0
763,-517,0,0,0,0,0,0,0,0,0,-1,1987,1541,0,0
770,-517,0,0,0,0,0,0,0,0,0,-1,1994,1541,0,0
777,-517,0,0,0,0,0,0,0,0,0,-1,2001,1541,0,0
784,-517,0,0,0,0,0,0,0,0,0,-1,2008,1541,0,0
791,-517,0,0,0,0,0,0,0,0,0,-1,2015,1541,0,0
798,-517,0,0,0,0,0,0,0,0,0,-1,2022,1541,0,0
805,-517,0,0,0,0,0,0,0,0,0,-1,2029,1541,0,0
812,-517,0,0,0,0,0,0,0,0,0,-1,2036,1541,0,0
-700,-524,0,0,0,0,0,0,0,0,0,-1,524,1548,0,0
-693,-524,0,0,0,0,0,0,0,0,0,-1,531,1548,0,0
-686,-524,0,0,0,0,0,0,0,0,0,-1,538,1548,0,0
-679,-524,0,0,0,0,0,0,0,0,0,-1,545,1548,0,0
-672,-524,0,0,0,0,0,0,0,0,0,-1,552,1548,0,0
-665,-524,0,0,0,0,0,0,0,0,0,-1,559,1548,0,0
-658,-524,0,0,0,0,0,0,0,0,0,-1,566,1548,0,0
-651,-524,0,0,0,0,0,0,0,0,0,-1,573,1548,0,0
-644,-524,0,0,0,0,0,0,0,0,0,-1,580,1548,0,0
-637,-524,0,0,0,0,0,0,0,0,0,-1,587,1548,0,0
-630,-524,0,0,0,0,0,0,0,0,0,-1,594,1548,0,0
-623,-524,0,0,0,0,0,0,0,0,0,-1,601,1548,0,0
-616,-524,0,0,0,0,0,0,0,0,0,-1,608,1548,0,0
-609,-524,0,0,0,0,0,0,0,0,0,-1,615,1548,0,0
-602,-524,0,0,0,0,0,0,0,0,0,-1,622,1548,0,0
-595,-524,0,0,0,0,0,0,0,0,0,-1,629,1548,0,0
-588,-524,0,0,0,0,0,0,0,0,0,-1,636,1548,0,0
-581,-524,0,0,0,0,0,0,0,0,0,-1,643,1548,0,0
-574,-524,0,0,0,0,0,0,0,0,0,-1,650,1548,0,0
-567,-524,0,0,0,0,0,0,0,0,0,-1,657,1548,0,0
-560,-524,0,0,0,0,0,0,0,0,0,-1,664,1548,0,0
-553,-524,0,0,0,0,0,0,0,0,0,-1,671,1548,0,0
-546,-524,0,0,0,0,0,0,0,0,0,-1,678,1548,0,0
-539,-524,0,0,0,0,0,0,0,0,0,-1,685,1548,0,0
-532,-524,0,0,0,0,0,0,0,0,0,-1,692,1548,0,0
-525,-524,-0.215515,3.97131,0,0,0,0,0,0,0,-1,699,1548,-0.215501,-3.97136
-518,-524,-0.806274,4.35632,0,0,0,0,0,0,0,-1,706,1548,-0.806259,-4.35633
-511,-524,-1.08301,4.29004,0,0,0,0,0,0,0,-1,713,1548,-1.08301,-4.29006
-504,-524,-1.28821,3.98145,0,0,0,0,0,0,0,-1,720,1548,-1.28822,-3.98151
-497,-524,-0.328491,8.63416,0,0,0,0,0,0,0,-1,727,1548,-0.328487,-8.63411
-490,-524,-6.65582,19.3033,0,0,0,0,0,0,0,-1,734,1548,-6.65583,-19.3034
-483,-524,-7.57153,22.1989,0,0,0,0,0,0,0,-1,741,1548,-7.57151,-22.1988
-476,-524,-8.51898,26.7598,0,0,0,0,0,0,0,-1,748,1548,-8.51897,-26.7597
-469,-524,-8.68604,28.2528,0,0,0,0,0,0,0,-1,755,1548,-8.68606,-28.2528
-462,-524,-8.78381,29.0039,0,0,0,0,0,0,0,-1,762,1548,-8.78381,-29.0039
-455,-524,-8.84338,30.03,-0.00163696,0.000544316,-0.000871021,0.000849446,-0.00194209,-1.23384,0.00165234,0.0446408,769,1548,-8.84341,-30.03
-448,-524,-8.81116,30.8835,-0.00122714,0.000417635,-0.000610738,0.000619612,-0.00142912,-1.25141,0.00121322,0.0180284,776,1548,-8.81113,-30.8836
-441,-524,-8.85333,31.7288,-0.000781904,0.000389827,-0.000367347,0.000495469,-0.000887546,-1.29077,0.000809109,0.0114488,783,1548,-8.85333,-31.7287
-434,-524,-8.85706,32.5624,-0.00034203,0.00051319,-0.000117915,0.00052915,-0.00035799,-1.43626,0.000515358,0.0143329,790,1548,-8.85704,-32.5624
-427,-524,-8.91669,33.4247,2.57576e-05,0.000674985,8.86201e-05,0.000686864,1.38783e-05,1.43754,0.000453354,0.0171772,797,1548,-8.91672,-33.4247
-420,-524,-8.99237,34.2665,0.000418598,0.000932245,0.000283982,0.00105831,0.000292532,1.15301,0.000631051,0.0407659,804,1548,-8.99235,-34.2665
-413,-524,-9.07367,35.0807,0.000928074,0.00124683,0.000535136,0.00164582,0.000529086,0.93013,0.000970193,0.0379188,811,1548,-9.07367,-35.0807
-406,-524,-9.07611,35.9377,0.00141865,0.00168205,0.000759529,0.00232121,0.000779487,0.871243,0.00136403,0.0141902,818,1548,-9.0761,-35.9378
-399,-524,-9.12219,36.7538,0.00194508,0.00213868,0.000961096,0.00300784,0.00107592,0.835588,0.00175986,0.0098012,825,1548,-9.12218,-36.7537
-392,-524,-9.17456,37.5436,0.00248209,0.00274765,0.00117131,0.00379368,0.00143606,0.841838,0.00221172,0.0111074,832,1548,-9.17455,-37.5435
-385,-524,-9.2381,38.4043,0.00313693,0.00341804,0.00141948,0.00470391,0.00185107,0.834746,0.00273625,0.0197949,839,1548,-9.23807,-38.4043
-378,-524,-9.30206,39.2455,0,0,0,0,0,0,0,-1,846,1548,-9.30206,-39.2454
-371,-524,-4.20789,29.1592,0,0,0,0,0,0,0,-1,853,1548,-4.2079,-29.1592
-364,-524,-0.712097,14.9871,0,0,0,0,0,0,0,-1,860,1548,-0.712116,-14.9871
-357,-524,-1.34052,14.7448,0,0,0,0,0,0,0,-1,867,1548,-1.34054,-14.7447
-350,-524,-4.31909,25.032,0,0,0,0,0,0,0,-1,874,1548,-4.31906,-25.0319
-343,-524,-3.69696,28.6923,0,0,0,0,0,0,0,-1,881,1548,-3.69694,-28.6922
-336,-524,-3.4873,29.655,0,0,0,0,0,0,0,-1,888,1548,-3.48728,-29.6551
-329,-524,-3.21936,30.5509,0,0,0,0,0,0,0,-1,895,1548,-3.21933,-30.5509
-322,-524,-4.31378,25.6389,0,0,0,0,0,0,0,-1,902,1548,-4.31379,-25.639
-315,-524,-1.90839,19.4824,0,0,0,0,0,0,0,-1,909,1548,-1.90838,-19.4824
-308,-524,-2.36938,19.3059,0,0,0,0,0,0,0,-1,916,1548,-2.3694,-19.3058
-301,-524,2.72394,17.7618,0,0,0,0,0,0,0,-1,923,1548,2.72396,-17.7619
-294,-524,-1.52515,9.05408,0,0,0,0,0,0,0,-1,930,1548,-1.52512,-9.05411
-287,-524,-0.962219,10.3199,0,0,0,0,0,0,0,-1,937,1548,-0.962241,-10.32
-280,-524,-1.36255,10.3859,0,0,0,0,0,0,0,-1,944,1548,-1.36253,-10.3859
-273,-524,0,0,0,0,0,0,0,0,0,-1,951,1548,0,0
-266,-524,0,0,0,0,0,0,0,0,0,-1,958,1548,0,0
-259,-524,0,0,0,0,0,0,0,0,0,-1,965,1548,0,0
-252,-524,0,0,0,0,0,0,0,0,0,-1,972,1548,0,0
-245,-524,0,0,0,0,0,0,0,0,0,-1,979,1548,0,0
-238,-524,0,0,0,0,0,0,0,0,0,-1,986,1548,0,0
-231,-524,0,0,0,0,0,0,0,0,0,-1,993,1548,0,0
-224,-524,0,0,0,0,0,0,0,0,0,-1,1000,1548,0,0
-217,-524,0,0,0,0,0,0,0,0,0,-1,1007,1548,0,0
-210,-524,0,0,0,0,0,0,0,0,0,-1,1014,1548,0,0
-203,-524,0,0,0,0,0,0,0,0,0,-1,1021,1548,0,0
-196,-524,0,0,0,0,0,0,0,0,0,-1,1028,1548,0,0
-189,-524,0,0,0,0,0,0,0,0,0,-1,1035,1548,0,0
-182,-524,0,0,0,0,0,0,0,0,0,-1,1042,1548,0,0
-175,-524,0,0,0,0,0,0,0,0,0,-1,1049,1548,0,0
-168,-524,0,0,0,0,0,0,0,0,0,-1,1056,1548,0,0
-161,-524,0,0,0,0,0,0,0,0,0,-1,1063,1548,0,0
-154,-524,0,0,0,0,0,0,0,0,0,-1,1070,1548,0,0
-147,-524,0,0,0,0,0,0,0,0,0,-1,1077,1548,0,0
-140,-524,0,0,0,0,0,0,0,0,0,-1,1084,1548,0,0
-133,-524,0,0,0,0,0,0,0,0,0,-1,1091,1548,0,0
-126,-524,0,0,0,0,0,0,0,0,0,-1,1098,1548,0,0
-119,-524,0,0,0,0,0,0,0,0,0,-1,1105,1548,0,0
-112,-524,0,0,0,0,0,0,0,0,0,-1,1112,1548,0,0
-105,-524,0,0,0,0,0,0,0,0,0,-1,1119,1548,0,0
-98,-524,0,0,0,0,0,0,0,0,0,-1,1126,1548,0,0
-91,-524,0,0,0,0,0,0,0,0,0,-1,1133,1548,0,0
-84,-524,0,0,0,0,0,0,0,0,0,-1,1140,1548,0,0
-77,-524,0,0,0,0,0,0,0,0,0,-1,1147,1548,0,0
-70,-524,0,0,0,0,0,0,0,0,0,-1,1154,1548,0,0
-63,-524,0,0,0,0,0,0,0,0,0,-1,1161,1548,0,0
-56,-524,0,0,0,0,0,0,0,0,0,-1,1168,1548,0,0
-49,-524,0,0,0,0,0,0,0,0,0,-1,1175,1548,0,0
-42,-524,0,0,0,0,0,0,0,0,0,-1,1182,1548,0,0
-35,-524,0,0,0,0,0,0,0,0,0,-1,1189,1548,0,0
-28,-524,0,0,0,0,0,0,0,0,0,-1,1196,1548,0,0
-21,-524,0,0,0,0,0,0,0,0,0,-1,1203,1548,0,0
-14,-524,0,0,0,0,0,0,0,0,0,-1,1210,1548,0,0
-7,-524,0,0,0,0,0,0,0,0,0,-1,1217,1548,0,0
0,-524,0,0,0,0,0,0,0,0,0,-1,1224,1548,0,0
7,-524,0,0,0,0,0,0,0,0,0,-1,1231,1548,0,0
14,-524,0,0,0,0,0,0,0,0,0,-1,1238,1548,0,0
21,-524,0,0,0,0,0,0,0,0,0,-1,1245,1548,0,0
28,-524,0,0,0,0,0,0,0,0,0,-1,1252,1548,0,0
35,-524,0,0,0,0,0,0,0,0,0,-1,1259,1548,0,0
42,-524,0,0,0,0,0,0,0,0,0,-1,1266,1548,0,0
49,-524,0,0,0,0,0,0,0,0,0,-1,1273,1548,0,0
56,-524,0,0,0,0,0,0,0,0,0,-1,1280,1548,0,0
63,-524,0,0,0,0,0,0,0,0,0,-1,1287,1548,0,0
70,-524,0,0,0,0,0,0,0,0,0,-1,1294,1548,0,0
77,-524,0,0,0,0,0,0,0,0,0,-1,1301,1548,0,0
84,-524,0,0,0,0,0,0,0,0,0,-1,1308,1548,0,0
91,-524,0,0,0,0,0,0,0,0,0,-1,1315,1548,0,0
98,-524,0,0,0,0,0,0,0,0,0,-1,1322,1548,0,0
105,-524,0,0,0,0,0,0,0,0,0,-1,1329,1548,0,0
112,-524,0,0,0,0,0,0,0,0,0,-1,1336,1548,0,0
119,-524,0,0,0,0,0,0,0,0,0,-1,1343,1548,0,0
126,-524,0,0,0,0,0,0,0,0,0,-1,1350,1548,0,0
133,-524,0,0,0,0,0,0,0,0,0,-1,1357,1548,0,0
140,-524,0,0,0,0,0,0,0,0,0,-1,1364,1548,0,0
147,-524,0,0,0,0,0,0,0,0,0,-1,1371,1548,0,0
154,-524,0,0,0,0,0,0,0,0,0,-1,1378,1548,0,0
161,-524,0,0,0,0,0,0,0,0,0,-1,1385,1548,0,0
168,-524,0,0,0,0,0,0,0,0,0,-1,1392,1548,0,0
175,-524,0,0,0,0,0,0,0,0,0,-1,1399,1548,0,0
182,-524,0,0,0,0,0,0,0,0,0,-1,1406,1548,0,0
189,-524,0,0,0,0,0,0,0,0,0,-1,1413,1548,0,0
196,-524,0,0,0,0,0,0,0,0,0,-1,1420,1548,0,0
203,-524,0,0,0,0,0,0,0,0,0,-1,1427,1548,0,0
210,-524,0,0,0,0,0,0,0,0,0,-1,1434,1548,0,0
217,-524,0,0,0,0,0,0,0,0,0,-1,1441,1548,0,0
224,-524,0,0,0,0,0,0,0,0,0,-1,1448,1548,0,0
231,-524,0,0,0,0,0,0,0,0,0,-1,1455,1548,0,0
238,-524,0,0,0,0,0,0,0,0,0,-1,1462,1548,0,0
245,-524,0,0,0,0,0,0,0,0,0,-1,1469,1548,0,0
252,-524,0,0,0,0,0,0,0,0,0,-1,1476,1548,0,0
259,-524,0,0,0,0,0,0,0,0,0,-1,1483,1548,0,0
266,-524,0,0,0,0,0,0,0,0,0,-1,1490,1548,0,0
273,-524,0,0,0,0,0,0,0,0,0,-1,1497,1548,0,0
280,-524,0,0,0,0,0,0,0,0,0,-1,1504,1548,0,0
287,-524,0,0,0,0,0,0,0,0,0,-1,1511,1548,0,0
294,-524,0,0,0,0,0,0,0,0,0,-1,1518,1548,0,0
301,-524,0,0,0,0,0,0,0,0,0,-1,1525,1548,0,0
308,-524,0,0,0,0,0,0,0,0,0,-1,1532,1548,0,0
315,-524,0,0,0,0,0,0,0,0,0,-1,1539,1548,0,0
322,-524,0,0,0,0,0,0,0,0,0,-1,1546,1548,0,0
329,-524,0,0,0,0,0,0,0,0,0,-1,1553,1548,0,0
336,-524,0,0,0,0,0,0,0,0,0,-1,1560,1548,0,0
343,-524,0,0,0,0,0,0,0,0,0,-1,1567,1548,0,0
350,-524,0,0,0,0,0,0,0,0,0,-1,1574,1548,0,0
357,-524,0,0,0,0,0,0,0,0,0,-1,1581,1548,0,0
364,-524,0,0,0,0,0,0,0,0,0,-1,1588,1548,0,0
371,-524,0,0,0,0,0,0,0,0,0,-1,1595,1548,0,0
378,-524,0,0,0,0,0,0,0,0,0,-1,1602,1548,0,0
385,-524,0,0,0,0,0,0,0,0,0,-1,1609,1548,0,0
392,-524,0,0,0,0,0,0,0,0,0,-1,1616,1548,0,0
399,-524,8.81848,5.05774,0,0,0,0,0,0,0,-1,1623,1548,8.81843,-5.05769
406,-524,8.64294,6.06799,0,0,0,0,0,0,0,-1,1630,1548,8.6429,-6.06805
413,-524,11.677,6.41858,0,0,0,0,0,0,0,-1,1637,1548,11.677,-6.41864
420,-524,11.4913,6.36401,0,0,0,0,0,0,0,-1,1644,1548,11.4913,-6.36402
427,-524,7.68335,6.17249,0,0,0,0,0,0,0,-1,1651,1548,7.68341,-6.17245
434,-524,10.432,11.6801,0,0,0,0,0,0,0,-1,1658,1548,10.432,-11.68
441,-524,8.78552,4.12305,0,0,0,0,0,0,0,-1,1665,1548,8.78553,-4.12301
448,-524,14.1854,4.78674,0,0,0,0,0,0,0,-1,1672,1548,14.1854,-4.78674
455,-524,12.4784,3.65576,0,0,0,0,0,0,0,-1,1679,1548,12.4784,-3.65572
462,-524,14.7551,9.29395,0,0,0,0,0,0,0,-1,1686,1548,14.7552,-9.29397
469,-524,16.3314,14.3779,0,0,0,0,0,0,0,-1,1693,1548,16.3314,-14.3779
476,-524,15.9106,15.1875,0,0,0,0,0,0,0,-1,1700,1548,15.9107,-15.1876
483,-524,15.2776,16.2268,0,0,0,0,0,0,0,-1,1707,1548,15.2776,-16.2269
490,-524,15.2563,18.5848,0,0,0,0,0,0,0,-1,1714,1548,15.2564,-18.5848
497,-524,27.1233,40.3641,0,0,0,0,0,0,0,-1,1721,1548,27.1233,-40.3641
504,-524,26.9054,39.4037,0,0,0,0,0,0,0,-1,1728,1548,26.9054,-39.4037
511,-524,27.0933,38.5804,0,0,0,0,0,0,0,-1,1735,1548,27.0933,-38.5805
518,-524,27.0876,37.6608,0.0088237,0.00721913,-0.00608473,0.0141588,0.00188402,-0.71985,0.00887808,0.0257956,1742,1548,27.0877,-37.6607
525,-524,27.0404,36.9082,0.00707748,0.0058525,-0.00490245,0.0114056,0.00152443,-0.723252,0.00714993,0.0145503,1749,1548,27.0404,-36.9082
532,-524,27.0037,36.0758,0.00556184,0.00464241,-0.00386891,0.00899825,0.00120599,-0.726264,0.00563998,0.0109037,1756,1548,27.0037,-36.0759
539,-524,26.9639,35.2487,0.00439222,0.0036838,-0.00306937,0.00712775,0.000948274,-0.727952,0.0044694,0.0115227,1763,1548,26.9639,-35.2487
546,-524,26.9067,34.4871,0.00344386,0.00283094,-0.00245213,0.00560861,0.000666193,-0.723233,0.00353798,0.0153224,1770,1548,26.9067,-34.487
553,-524,26.8724,33.7142,0.00270633,0.00211967,-0.00196071,0.00439553,0.000430465,-0.711147,0.00279792,0.0260885,1777,1548,26.8724,-33.7142
560,-524,26.8818,32.9326,0.00222859,0.00159557,-0.00167745,0.00361913,0.00020503,-0.692151,0.0023474,0.0327688,1784,1548,26.8818,-32.9326
567,-524,26.7993,32.0485,0.00196139,0.00126018,-0.00161417,0.0032626,-4.10277e-05,-0.678458,0.00218887,0.018809,1791,1548,26.7994,-32.0485
574,-524,26.7433,31.218,0.00187809,0.00104054,-0.0017005,0.00321062,-0.000291993,-0.664669,0.00224409,0.014486,1798,1548,26.7433,-31.2181
581,-524,26.7031,30.3815,0.00213479,0.00110858,-0.00211333,0.00379642,-0.000553046,-0.666306,0.002734,0.0160915,1805,1548,26.7031,-30.3814
588,-524,26.7664,29.542,0.00269338,0.00148813,-0.0027778,0.00493318,-0.000751667,-0.678581,0.00356585,0.0333227,1812,1548,26.7663,-29.542
595,-524,26.8311,28.4613,0,0,0,0,0,0,0,-1,1819,1548,26.8311,-28.4613
602,-524,13.837,12.0682,0,0,0,0,0,0,0,-1,1826,1548,13.837,-12.0683
609,-524,13.0056,10.5138,0,0,0,0,0,0,0,-1,1833,1548,13.0056,-10.5138
616,-524,11.6941,8.65515,0,0,0,0,0,0,0,-1,1840,1548,11.6941,-8.65514
623,-524,9.38452,5.15356,0,0,0,0,0,0,0,-1,1847,1548,9.38456,-5.15359
630,-524,11.0541,3.57434,0,0,0,0,0,0,0,-1,1854,1548,11.0541,-3.57438
637,-524,11.6067,3.20728,0,0,0,0,0,0,0,-1,1861,1548,11.6067,-3.20724
644,-524,12.2134,0.727173,0,0,0,0,0,0,0,-1,1868,1548,12.2134,-0.727222
651,-524,0,0,0,0,0,0,0,0,0,-1,1875,1548,0,0
658,-524,0,0,0,0,0,0,0,0,0,-1,1882,1548,0,0
665,-524,0,0,0,0,0,0,0,0,0,-1,1889,1548,0,0
672,-524,0,0,0,0,0,0,0,0,0,-1,1896,1548,0,0
679,-524,0,0,0,0,0,0,0,0,0,-1,1903,1548,0,0
686,-524,0,0,0,0,0,0,0,0,0,-1,1910,1548,0,0
693,-524,0,0,0,0,0,0,0,0,0,-1,1917,1548,0,0
700,-524,0,0,0,0,0,0,0,0,0,-1,1924,1548,0,0
707,-524,0,0,0,0,0,0,0,0,0,-1,1931,1548,0,0
714,-524,0,0,0,0,0,0,0,0,0,-1,1938,1548,0,0
721,-524,0,0,0,0,0,0,0,0,0,-1,1945,1548,0,0
728,-524,0,0,0,0,0,0,0,0,0,-1,1952,1548,0,0
735,-524,0,0,0,0,0,0,0,0,0,-1,1959,1548,0,0
742,-524,0,0,0,0,0,0,0,0,0,-1,1966,1548,0,0
749,-524,0,0,0,0,0,0,0,0,0,-1,1973,1548,0,0
756,-524,0,0,0,0,0,0,0,0,0,-1,1980,1548,0,0
763,-524,0,0,0,0,0,0,0,0,0,-1,1987,1548,0,0
770,-524,0,0,0,0,0,0,0,0,0,-1,1994,1548,0,0
777,-524,0,0,0,0,0,0,0,0,0,-1,2001,1548,0,0
784,-524,0,0,0,0,0,0,0,0,0,-1,2008,1548,0,0
791,-524,0,0,0,0,0,0,0,0,0,-1,2015,1548,0,0
798,-524,0,0,0,0,0,0,0,0,0,-1,2022,1548,0,0
805,-524,0,0,0,0,0,0,0,0,0,-1,2029,1548,0,0
812,-524,0,0,0,0,0,0,0,0,0,-1,2036,1548,0,0
-700,-531,0,0,0,0,0,0,0,0,0,-1,524,1555,0,0
-693,-531,0,0,0,0,0,0,0,0,0,-1,531,1555,0,0
-686,-531,0,0,0,0,0,0,0,0,0,-1,538,1555,0,0
-679,-531,0,0,0,0,0,0,0,0,0,-1,545,1555,0,0
-672,-531,0,0,0,0,0,0,0,0,0,-1,552,1555,0,0
-665,-531,0,0,0,0,0,0,0,0,0,-1,559,1555,0,0
-658,-531,0,0,0,0,0,0,0,0,0,-1,566,1555,0,0
-651,-531,0,0,0,0,0,0,0,0,0,-1,573,1555,0,0
-644,-531,0,0,0,0,0,0,0,0,0,-1,580,1555,0,0
-637,-531,0,0,0,0,0,0,0,0,0,-1,587,1555,0,0
-630,-531,0,0,0,0,0,0,0,0,0,-1,594,1555,0,0
-623,-531,0,0,0,0,0,0,0,0,0,-1,601,1555,0,0
-616,-531,0,0,0,0,0,0,0,0,0,-1,608,1555,0,0
-609,-531,0,0,0,0,0,0,0,0,0,-1,615,1555,0,0
-602,-531,0,0,0,0,0,0,0,0,0,-1,622,1555,0,0
-595,-531,0,0,0,0,0,0,0,0,0,-1,629,1555,0,0
-588,-531,0,0,0,0,0,0,0,0,0,-1,636,1555,0,0
-581,-531,0,0,0,0,0,0,0,0,0,-1,643,1555,0,0
-574,-531,0,0,0,0,0,0,0,0,0,-1,650,1555,0,0
-567,-531,0,0,0,0,0,0,0,0,0,-1,657,1555,0,0
-560,-531,0,0,0,0,0,0,0,0,0,-1,664,1555,0,0
-553,-531,0,0,0,0,0,0,0,0,0,-1,671,1555,0,0
-546,-531,0,0,0,0,0,0,0,0,0,-1,678,1555,0,0
-539,-531,0,0,0,0,0,0,0,0,0,-1,685,1555,0,0
-532,-531,0,0,0,0,0,0,0,0,0,-1,692,1555,0,0
-525,-531,0,0,0,0,0,0,0,0,0,-1,699,1555,0,0
-518,-531,-1.63983,4.03821,0,0,0,0,0,0,0,-1,706,1555,-1.63982,-4.03821
-511,-531,-2.9682,8.07483,0,0,0,0,0,0,0,-1,713,1555,-2.9682,-8.07479
-504,-531,-2.95978,0.557861,0,0,0,0,0,0,0,-1,720,1555,-2.95978,-0.557917
-497,-531,-2.46039,8.07422,0,0,0,0,0,0,0,-1,727,1555,-2.46039,-8.07423
-490,-531,-0.423462,7.92065,0,0,0,0,0,0,0,-1,734,1555,-0.42344,-7.92066
-483,-531,-7.50745,20.1915,0,0,0,0,0,0,0,-1,741,1555,-7.50744,-20.1915
-476,-531,-7.69647,23.6229,0,0,0,0,0,0,0,-1,748,1555,-7.6965,-23.6229
-469,-531,-8.2475,27.6931,0,0,0,0,0,0,0,-1,755,1555,-8.2475,-27.6931
-462,-531,-7.27551,28.5044,0,0,0,0,0,0,0,-1,762,1555,-7.27551,-28.5044
-455,-531,-7.99316,29.8535,0,0,0,0,0,0,0,-1,769,1555,-7.99318,-29.8535
-448,-531,-7.86365,30.8977,-0.00220511,0.000208625,-0.00143084,0.000873608,-0.00287009,-1.13574,0.00226156,0.0343319,776,1555,-7.86365,-30.8978
-441,-531,-8.03369,31.7292,-0.00152684,0.000163162,-0.000989841,0.000619626,-0.0019833,-1.13871,0.00157004,0.0147391,783,1555,-8.03372,-31.7292
-434,-531,-8.06909,32.6058,-0.000894683,0.000281606,-0.000583066,0.000521641,-0.00113472,-1.18027,0.00097789,0.0135182,790,1555,-8.06912,-32.6058
-427,-531,-8.11383,33.4708,-0.000405235,0.00042729,-0.000256792,0.000500126,-0.000478071,-1.29442,0.00056481,0.0164872,797,1555,-8.11386,-33.4709
-420,-531,-8.21277,34.2803,3.46846e-05,0.000650396,1.32229e-05,0.00065068,3.44008e-05,1.54933,0.000422786,0.0361839,804,1555,-8.21278,-34.2802
-413,-531,-8.23578,35.1578,0.000559647,0.000896015,0.000303347,0.00107468,0.00038098,1.03852,0.000629163,0.0340356,811,1555,-8.23578,-35.1578
-406,-531,-8.2605,35.9834,0.00104086,0.00125252,0.00052497,0.00168222,0.000611158,0.88486,0.000983254,0.0142341,818,1555,-8.26052,-35.9834
-399,-531,-8.30231,36.7897,0.00150355,0.00165419,0.000704234,0.00228712,0.000870623,0.838673,0.00133295,0.0144284,825,1555,-8.30232,-36.7896
-392,-531,-8.33234,37.5916,0.00199918,0.00217704,0.000898919,0.00299142,0.0011848,0.834705,0.00173949,0.0186309,832,1555,-8.33233,-37.5915
-385,-531,-8.41901,38.4065,0.00259986,0.00276609,0.00106915,0.00375535,0.0016106,0.824191,0.00217545,0.0158828,839,1555,-8.41898,-38.4065
-378,-531,-8.48456,39.2181,0.00331578,0.00322221,0.0010482,0.00431824,0.00221976,0.763096,0.00249346,0.0218011,846,1555,-8.48456,-39.2182
-371,-531,-8.45679,40.0946,0,0,0,0,0,0,0,-1,853,1555,-8.45679,-40.0945
-364,-531,-8.18915,41.2029,0,0,0,0,0,0,0,-1,860,1555,-8.18917,-41.2029
-357,-531,-4.29193,31.5354,0,0,0,0,0,0,0,-1,867,1555,-4.29191,-31.5354
-350,-531,-3.16101,27.5791,0,0,0,0,0,0,0,-1,874,1555,-3.16099,-27.5791
-343,-531,-2.90552,28.561,0,0,0,0,0,0,0,-1,881,1555,-2.90549,-28.5611
-336,-531,-2.6698,29.5398,0,0,0,0,0,0,0,-1,888,1555,-2.66983,-29.5398
-329,-531,-2.45148,30.4781,0,0,0,0,0,0,0,-1,895,1555,-2.45148,-30.4781
-322,-531,-3.25092,28.4921,0,0,0,0,0,0,0,-1,902,1555,-3.25092,-28.4921
-315,-531,-5.51929,31.7814,0,0,0,0,0,0,0,-1,909,1555,-5.51928,-31.7813
-308,-531,-1.66455,19.0624,0,0,0,0,0,0,0,-1,916,1555,-1.66455,-19.0623
-301,-531,-2.02405,18.8912,0,0,0,0,0,0,0,-1,923,1555,-2.02407,-18.8913
-294,-531,-1.3244,8.1825,0,0,0,0,0,0,0,-1,930,1555,-1.3244,-8.18251
-287,-531,-1.78192,10.1661,0,0,0,0,0,0,0,-1,937,1555,-1.78192,-10.1661
-280,-531,-2.14508,10.3945,0,0,0,0,0,0,0,-1,944,1555,-2.14506,-10.3945
-273,-531,-2.50818,10.6229,0,0,0,0,0,0,0,-1,951,1555,-2.5082,-10.6229
-266,-531,-4.97742,17.9215,0,0,0,0,0,0,0,-1,958,1555,-4.97744,-17.9215
-259,-531,0,0,0,0,0,0,0,0,0,-1,965,1555,0,0
-252,-531,0,0,0,0,0,0,0,0,0,-1,972,1555,0,0
-245,-531,0,0,0,0,0,0,0,0,0,-1,979,1555,0,0
-238,-531,0,0,0,0,0,0,0,0,0,-1,986,1555,0,0
-231,-531,0,0,0,0,0,0,0,0,0,-1,993,1555,0,0
-224,-531,0,0,0,0,0,0,0,0,0,-1,1000,1555,0,0
-217,-531,0,0,0,0,0,0,0,0,0,-1,1007,1555,0,0
-210,-531,0,0,0,0,0,0,0,0,0,-1,1014,1555,0,0
-203,-531,0,0,0,0,0,0,0,0,0,-1,1021,1555,0,0
-196,-531,0,0,0,0,0,0,0,0,0,-1,1028,1555,0,0
-189,-531,0,0,0,0,0,0,0,0,0,-1,1035,1555,0,0
-182,-531,0,0,0,0,0,0,0,0,0,-1,1042,1555,0,0
-175,-531,0,0,0,0,0,0,0,0,0,-1,1049,1555,0,0
-168,-531,0,0,0,0,0,0,0,0,0,-1,1056,1555,0,0
-161,-531,0,0,0,0,0,0,0,0,0,-1,1063,1555,0,0
-154,-531,0,0,0,0,0,0,0,0,0,-1,1070,1555,0,0
-147,-531,0,0,0,0,0,0,0,0,0,-1,1077,1555,0,0
-140,-531,0,0,0,0,0,0,0,0,0,-1,1084,1555,0,0
-133,-531,0,0,0,0,0,0,0,0,0,-1,1091,1555,0,0
-126,-531,0,0,0,0,0,0,0,0,0,-1,1098,1555,0,0
-119,-531,0,0,0,0,0,0,0,0,0,-1,1105,1555,0,0
-112,-531,0,0,0,0,0,0,0,0,0,-1,1112,1555,0,0
-105,-531,0,0,0,0,0,0,0,0,0,-1,1119,1555,0,0
-98,-531,0,0,0,0,0,0,0,0,0,-1,1126,1555,0,0
-91,-531,0,0,0,0,0,0,0,0,0,-1,1133,1555,0,0
-84,-531,0,0,0,0,0,0,0,0,0,-1,1140,1555,0,0
-77,-531,0,0,0,0,0,0,0,0,0,-1,1147,1555,0,0
-70,-531,0,0,0,0,0,0,0,0,0,-1,1154,1555,0,0
-63,-531,0,0,0,0,0,0,0,0,0,-1,1161,1555,0,0
-56,-531,0,0,0,0,0,0,0,0,0,-1,1168,1555,0,0
-49,-531,0,0,0,0,0,0,0,0,0,-1,1175,1555,0,0
-42,-531,0,0,0,0,0,0,0,0,0,-1,1182,1555,0,0
-35,-531,0,0,0,0,0,0,0,0,0,-1,1189,1555,0,0
-28,-531,0,0,0,0,0,0,0,0,0,-1,1196,1555,0,0
-21,-531,0,0,0,0,0,0,0,0,0,-1,1203,1555,0,0
-14,-531,0,0,0,0,0,0,0,0,0,-1,1210,1555,0,0
-7,-531,0,0,0,0,0,0,0,0,0,-1,1217,1555,0,0
0,-531,0,0,0,0,0,0,0,0,0,-1,1224,1555,0,0
7,-531,0,0,0,0,0,0,0,0,0,-1,1231,1555,0,0
14,-531,0,0,0,0,0,0,0,0,0,-1,1238,1555,0,0
21,-531,0,0,0,0,0,0,0,0,0,-1,1245,1555,0,0
28,-531,0,0,0,0,0,0,0,0,0,-1,1252,1555,0,0
35,-531,0,0,0,0,0,0,0,0,0,-1,1259,1555,0,0
42,-531,0,0,0,0,0,0,0,0,0,-1,1266,1555,0,0
49,-531,0,0,0,0,0,0,0,0,0,-1,1273,1555,0,0
56,-531,0,0,0,0,0,0,0,0,0,-1,1280,1555,0,0
63,-531,0,0,0,0,0,0,0,0,0,-1,1287,1555,0,0
70,-531,0,0,0,0,0,0,0,0,0,-1,1294,1555,0,0
77,-531,0,0,0,0,0,0,0,0,0,-1,1301,1555,0,0
84,-531,0,0,0,0,0,0,0,0,0,-1,1308,1555,0,0
91,-531,0,0,0,0,0,0,0,0,0,-1,1315,1555,0,0
98,-531,0,0,0,0,0,0,0,0,0,-1,1322,1555,0,0
105,-531,0,0,0,0,0,0,0,0,0,-1,1329,1555,0,0
112,-531,0,0,0,0,0,0,0,0,0,-1,1336,1555,0,0
119,-531,0,0,0,0,0,0,0,0,0,-1,1343,1555,0,0
126,-531,0,0,0,0,0,0,0,0,0,-1,1350,1555,0,0
133,-531,0,0,0,0,0,0,0,0,0,-1,1357,1555,0,0
140,-531,0,0,0,0,0,0,0,0,0,-1,1364,1555,0,0
147,-531,0,0,0,0,0,0,0,0,0,-1,1371,1555,0,0
154,-531,0,0,0,0,0,0,0,0,0,-1,1378,1555,0,0
161,-531,0,0,0,0,0,0,0,0,0,-1,1385,1555,0,0
168,-531,0,0,0,0,0,0,0,0,0,-1,1392,1555,0,0
175,-531,0,0,0,0,0,0,0,0,0,-1,1399,1555,0,0
182,-531,0,0,0,0,0,0,0,0,0,-1,1406,1555,0,0
189,-531,0,0,0,0,0,0,0,0,0,-1,1413,1555,0,0
196,-531,0,0,0,0,0,0,0,0,0,-1,1420,1555,0,0
203,-531,0,0,0,0,0,0,0,0,0,-1,1427,1555,0,0
210,-531,0,0,0,0,0,0,0,0,0,-1,1434,1555,0,0
217,-531,0,0,0,0,0,0,0,0,0,-1,1441,1555,0,0
224,-531,0,0,0,0,0,0,0,0,0,-1,1448,1555,0,0
231,-531,0,0,0,0,0,0,0,0,0,-1,1455,1555,0,0
238,-531,0,0,0,0,0,0,0,0,0,-1,1462,1555,0,0
245,-531,0,0,0,0,0,0,0,0,0,-1,1469,1555,0,0
252,-531,0,0,0,0,0,0,0,0,0,-1,1476,1555,0,0
259,-531,0,0,0,0,0,0,0,0,0,-1,1483,1555,0,0
266,-531,0,0,0,0,0,0,0,0,0,-1,1490,1555,0,0
273,-531,0,0,0,0,0,0,0,0,0,-1,1497,1555,0,0
280,-531,0,0,0,0,0,0,0,0,0,-1,1504,1555,0,0
287,-531,0,0,0,0,0,0,0,0,0,-1,1511,1555,0,0
294,-531,0,0,0,0,0,0,0,0,0,-1,1518,1555,0,0
301,-531,0,0,0,0,0,0,0,0,0,-1,1525,1555,0,0
308,-531,0,0,0,0,0,0,0,0,0,-1,1532,1555,0,0
315,-531,0,0,0,0,0,0,0,0,0,-1,1539,1555,0,0
322,-531,0,0,0,0,0,0,0,0,0,-1,1546,1555,0,0
329,-531,0,0,0,0,0,0,0,0,0,-1,1553,1555,0,0
336,-531,0,0,0,0,0,0,0,0,0,-1,1560,1555,0,0
343,-531,0,0,0,0,0,0,0,0,0,-1,1567,1555,0,0
350,-531,0,0,0,0,0,0,0,0,0,-1,1574,1555,0,0
357,-531,0,0,0,0,0,0,0,0,0,-1,1581,1555,0,0
364,-531,0,0,0,0,0,0,0,0,0,-1,1588,1555,0,0
371,-531,0,0,0,0,0,0,0,0,0,-1,1595,1555,0,0
378,-531,0,0,0,0,0,0,0,0,0,-1,1602,1555,0,0
385,-531,3.48169,1.78625,0,0,0,0,0,0,0,-1,1609,1555,3.48165,-1.78624
392,-531,10.8781,9.09204,0,0,0,0,0,0,0,-1,1616,1555,10.8781,-9.09205
399,-531,8.26306,5.29602,0,0,0,0,0,0,0,-1,1623,1555,8.26302,-5.29607
406,-531,8.26147,5.42712,0,0,0,0,0,0,0,-1,1630,1555,8.26145,-5.42716
413,-531,8.20618,5.75012,0,0,0,0,0,0,0,-1,1637,1555,8.20619,-5.75017
420,-531,7.64868,7.09558,0,0,0,0,0,0,0,-1,1644,1555,7.64867,-7.09564
427,-531,9.93054,11.8412,0,0,0,0,0,0,0,-1,1651,1555,9.93059,-11.8412
434,-531,10.244,11.7072,0,0,0,0,0,0,0,-1,1658,1555,10.244,-11.7071
441,-531,11.4528,12.9397,0,0,0,0,0,0,0,-1,1665,1555,11.4528,-12.9397
448,-531,11.928,18.8029,0,0,0,0,0,0,0,-1,1672,1555,11.928,-18.8028
455,-531,14.4877,9.67065,0,0,0,0,0,0,0,-1,1679,1555,14.4876,-9.67066
462,-531,13.5253,12.2002,0,0,0,0,0,0,0,-1,1686,1555,13.5252,-12.2002
469,-531,15.5087,15.7894,0,0,0,0,0,0,0,-1,1693,1555,15.5086,-15.7895
476,-531,14.6582,16.2264,0,0,0,0,0,0,0,-1,1700,1555,14.6582,-16.2264
483,-531,14.755,18.5994,0,0,0,0,0,0,0,-1,1707,1555,14.7551,-18.5994
490,-531,16.9362,25.4943,0,0,0,0,0,0,0,-1,1714,1555,16.9362,-25.4942
497,-531,26.0182,40.9473,0,0,0,0,0,0,0,-1,1721,1555,26.0182,-40.9472
504,-531,26.2092,39.4584,0.010341,0.00892305,-0.00712236,0.0167896,0.00247446,-0.735791,0.0104662,0.036031,1728,1555,26.2092,-39.4583
511,-531,26.2977,38.5575,0.00839,0.00708109,-0.00572445,0.0134973,0.0019738,-0.728482,0.00841775,0.0171395,1735,1555,26.2978,-38.5575
518,-531,26.2843,37.7407,0.00672593,0.00575922,-0.00463325,0.010901,0.00158418,-0.733425,0.00680103,0.015181,1742,1555,26.2843,-37.7408
525,-531,26.2571,36.9603,0.0052229,0.004556,-0.00368264,0.00858716,0.00119175,-0.740248,0.00537177,0.0150772,1749,1555,26.2571,-36.9604
532,-531,26.2295,36.1312,0.00396472,0.00351276,-0.00287451,0.00662211,0.000855358,-0.746171,0.00415905,0.0128096,1756,1555,26.2295,-36.1312
539,-531,26.175,35.3268,0.00304013,0.00270683,-0.00229125,0.00517078,0.000576174,-0.749095,0.00327209,0.0138135,1763,1555,26.1751,-35.3267
546,-531,26.0686,34.5619,0.00231812,0.00201305,-0.00186681,0.00403861,0.000292559,-0.744635,0.00260038,0.0160681,1770,1555,26.0685,-34.5619
553,-531,26.0748,33.8051,0.00183008,0.00146901,-0.00156749,0.00322739,7.16895e-05,-0.728063,0.0021281,0.033735,1777,1555,26.0748,-33.805
560,-531,26.0634,32.9875,0.00162457,0.00111394,-0.00148012,0.00287123,-0.000132722,-0.69999,0.00195989,0.0363845,1784,1555,26.0633,-32.9875
567,-531,25.9421,32.0876,0.00162444,0.000930273,-0.0015733,0.00288848,-0.000333774,-0.676834,0.00204601,0.0197758,1791,1555,25.9422,-32.0876
574,-531,25.8771,31.2556,0.00181839,0.000841927,-0.00180394,0.003199,-0.000538687,-0.653241,0.00233305,0.0155619,1798,1555,25.8771,-31.2557
581,-531,25.9196,30.3899,0.0025027,0.00110826,-0.00248279,0.00438431,-0.000773355,-0.648513,0.00321185,0.0282481,1805,1555,25.9195,-30.3899
588,-531,26.121,29.3759,0,0,0,0,0,0,0,-1,1812,1555,26.121,-29.3759
595,-531,25.4437,28.0334,0,0,0,0,0,0,0,-1,1819,1555,25.4438,-28.0335
602,-531,13.701,11.8346,0,0,0,0,0,0,0,-1,1826,1555,13.701,-11.8347
609,-531,10.9072,8.50903,0,0,0,0,0,0,0,-1,1833,1555,10.9073,-8.50902
616,-531,10.5723,7.17859,0,0,0,0,0,0,0,-1,1840,1555,10.5723,-7.17855
623,-531,10.0674,5.08984,0,0,0,0,0,0,0,-1,1847,1555,10.0674,-5.08981
630,-531,11.672,3.18909,0,0,0,0,0,0,0,-1,1854,1555,11.672,-3.18904
637,-531,13.2546,1.38965,0,0,0,0,0,0,0,-1,1861,1555,13.2547,-1.3896
644,-531,0,0,0,0,0,0,0,0,0,-1,1868,1555,0,0
651,-531,0,0,0,0,0,0,0,0,0,-1,1875,1555,0,0
658,-531,0,0,0,0,0,0,0,0,0,-1,1882,1555,0,0
665,-531,0,0,0,0,0,0,0,0,0,-1,1889,1555,0,0
672,-531,0,0,0,0,0,0,0,0,0,-1,1896,1555,0,0
679,-531,0,0,0,0,0,0,0,0,0,-1,1903,1555,0,0
686,-531,0,0,0,0,0,0,0,0,0,-1,1910,1555,0,0
693,-531,0,0,0,0,0,0,0,0,0,-1,1917,1555,0,0
700,-531,0,0,0,0,0,0,0,0,0,-1,1924,1555,0,0
707,-531,0,0,0,0,0,0,0,0,0,-1,1931,1555,0,0
714,-531,0,0,0,0,0,0,0,0,0,-1,1938,1555,0,0
721,-531,0,0,0,0,0,0,0,0,0,-1,1945,1555,0,0
728,-531,0,0,0,0,0,0,0,0,0,-1,1952,1555,0,0
735,-531,0,0,0,0,0,0,0,0,0,-1,1959,1555,0,0
742,-531,0,0,0,0,0,0,0,0,0,-1,1966,1555,0,0
749,-531,0,0,0,0,0,0,0,0,0,-1,1973,1555,0,0
756,-531,0,0,0,0,0,0,0,0,0,-1,1980,1555,0,0
763,-531,0,0,0,0,0,0,0,0,0,-1,1987,1555,0,0
770,-531,0,0,0,0,0,0,0,0,0,-1,1994,1555,0,0
777,-531,0,0,0,0,0,0,0,0,0,-1,2001,1555,0,0
784,-531,0,0,0,0,0,0,0,0,0,-1,2008,1555,0,0
791,-531,0,0,0,0,0,0,0,0,0,-1,2015,1555,0,0
798,-531,0,0,0,0,0,0,0,0,0,-1,2022,1555,0,0
805,-531,0,0,0,0,0,0,0,0,0,-1,2029,1555,0,0
812,-531,0,0,0,0,0,0,0,0,0,-1,2036,1555,0,0
-700,-538,0,0,0,0,0,0,0,0,0,-1,524,1562,0,0
-693,-538,0,0,0,0,0,0,0,0,0,-1,531,1562,0,0
-686,-538,0,0,0,0,0,0,0,0,0,-1,538,1562,0,0
-679,-538,0,0,0,0,0,0,0,0,0,-1,545,1562,0,0
-672,-538,0,0,0,0,0,0,0,0,0,-1,552,1562,0,0
-665,-538,0,0,0,0,0,0,0,0,0,-1,559,1562,0,0
-658,-538,0,0,0,0,0,0,0,0,0,-1,566,1562,0,0
-651,-538,0,0,0,0,0,0,0,0,0,-1,573,1562,0,0
-644,-538,0,0,0,0,0,0,0,0,0,-1,580,1562,0,0
-637,-538,0,0,0,0,0,0,0,0,0,-1,587,1562,0,0
-630,-538,0,0,0,0,0,0,0,0,0,-1,594,1562,0,0
-623,-538,0,0,0,0,0,0,0,0,0,-1,601,1562,0,0
-616,-538,0,0,0,0,0,0,0,0,0,-1,608,1562,0,0
-609,-538,0,0,0,0,0,0,0,0,0,-1,615,1562,0,0
-602,-538,0,0,0,0,0,0,0,0,0,-1,622,1562,0,0
-595,-538,0,0,0,0,0,0,0,0,0,-1,629,1562,0,0
-588,-538,0,0,0,0,0,0,0,0,0,-1,636,1562,0,0
-581,-538,0,0,0,0,0,0,0,0,0,-1,643,1562,0,0
-574,-538,0,0,0,0,0,0,0,0,0,-1,650,1562,0,0
-567,-538,0,0,0,0,0,0,0,0,0,-1,657,1562,0,0
-560,-538,0,0,0,0,0,0,0,0,0,-1,664,1562,0,0
-553,-538,0,0,0,0,0,0,0,0,0,-1,671,1562,0,0
-546,-538,0,0,0,0,0,0,0,0,0,-1,678,1562,0,0
-539,-538,0,0,0,0,0,0,0,0,0,-1,685,1562,0,0
-532,-538,0,0,0,0,0,0,0,0,0,-1,692,1562,0,0
-525,-538,0,0,0,0,0,0,0,0,0,-1,699,1562,0,0
-518,-538,0,0,0,0,0,0,0,0,0,-1,706,1562,0,0
-511,-538,-2.6582,-1.54321,0,0,0,0,0,0,0,-1,713,1562,-2.65821,1.54327
-504,-538,-2.66455,-0.71167,0,0,0,0,0,0,0,-1,720,1562,-2.66456,0.711667
-497,-538,-0.763855,6.77747,0,0,0,0,0,0,0,-1,727,1562,-0.76385,-6.77743
-490,-538,-2.70453,8.01465,0,0,0,0,0,0,0,-1,734,1562,-2.70451,-8.0147
-483,-538,-0.933533,7.84644,0,0,0,0,0,0,0,-1,741,1562,-0.933548,-7.84638
-476,-538,-3.29962,15.8307,0,0,0,0,0,0,0,-1,748,1562,-3.29962,-15.8306
-469,-538,-6.44983,24.5707,0,0,0,0,0,0,0,-1,755,1562,-6.4498,-24.5707
-462,-538,-5.75458,25.4069,0,0,0,0,0,0,0,-1,762,1562,-5.7546,-25.4068
-455,-538,-6.5755,28.8893,0,0,0,0,0,0,0,-1,769,1562,-6.57549,-28.8893
-448,-538,-7.17285,30.9675,0,0,0,0,0,0,0,-1,776,1562,-7.17287,-30.9675
-441,-538,-7.23352,31.7406,0,0,0,0,0,0,0,-1,783,1562,-7.2335,-31.7406
-434,-538,-7.27893,32.6334,-0.0014863,0.000103005,-0.00107712,0.000646885,-0.00203018,-1.10321,0.00161292,0.0159369,790,1562,-7.27891,-32.6334
-427,-538,-7.32587,33.53,-0.000805637,0.00029963,-0.000556162,0.000531038,-0.00103704,-1.17651,0.000920911,0.0139249,797,1562,-7.32588,-33.53
-420,-538,-7.36487,34.3652,-0.000283008,0.000526219,-0.000162973,0.000557808,-0.000314597,-1.37934,0.000510166,0.0169823,804,1562,-7.36485,-34.3652
-413,-538,-7.39948,35.1714,0.00026137,0.000718396,0.00017968,0.000780577,0.000199189,1.23763,0.000468328,0.0179863,811,1562,-7.39946,-35.1714
-406,-538,-7.44336,36.0168,0.00073521,0.000989942,0.000408916,0.00129087,0.000434284,0.936372,0.00075846,0.0156032,818,1562,-7.44336,-36.0169
-399,-538,-7.47699,36.842,0.0011503,0.00132063,0.000573884,0.00181564,0.000655297,0.859058,0.00106169,0.0146083,825,1562,-7.47699,-36.8421
-392,-538,-7.49548,37.6553,0.00160015,0.00173927,0.000741955,0.00241492,0.000924502,0.832137,0.00140696,0.0163531,832,1562,-7.49546,-37.6553
-385,-538,-7.58319,38.4675,0.00211137,0.00221407,0.00082782,0.00299213,0.00133331,0.816372,0.00173091,0.013814,839,1562,-7.58319,-38.4676
-378,-538,-7.63568,39.2734,0.00273136,0.00262244,0.000796839,0.0034756,0.0018782,0.751277,0.00200882,0.0105328,846,1562,-7.63569,-39.2734
-371,-538,-7.6908,40.0669,0.00358049,0.00338782,0.000994786,0.00448359,0.00248471,0.737127,0.00259366,0.0157861,853,1562,-7.69077,-40.0669
-364,-538,-7.58923,40.9769,0.00484807,0.00447019,0.00147571,0.00614689,0.00317137,0.721728,0.00354951,0.0279667,860,1562,-7.58921,-40.977
-357,-538,-7.37708,41.9919,0,0,0,0,0,0,0,-1,867,1562,-7.37707,-41.992
-350,-538,-6.37695,40.0256,0,0,0,0,0,0,0,-1,874,1562,-6.37696,-40.0257
-343,-538,-2.47339,28.3082,0,0,0,0,0,0,0,-1,881,1562,-2.47341,-28.3083
-336,-538,-2.40161,28.5409,0,0,0,0,0,0,0,-1,888,1562,-2.40163,-28.541
-329,-538,-2.57159,28.4905,0,0,0,0,0,0,0,-1,895,1562,-2.57161,-28.4905
-322,-538,-2.83783,28.2308,0,0,0,0,0,0,0,-1,902,1562,-2.83783,-28.2308
-315,-538,-2.91827,27.7609,0,0,0,0,0,0,0,-1,909,1562,-2.91829,-27.7608
-308,-538,-4.37433,31.7996,0,0,0,0,0,0,0,-1,916,1562,-4.3743,-31.7995
-301,-538,-0.452393,18.5101,0,0,0,0,0,0,0,-1,923,1562,-0.452367,-18.5102
-294,-538,1.23138,14.0757,0,0,0,0,0,0,0,-1,930,1562,1.23137,-14.0757
-287,-538,-2.60419,10.2361,0,0,0,0,0,0,0,-1,937,1562,-2.6042,-10.2361
-280,-538,-2.93475,10.5106,0,0,0,0,0,0,0,-1,944,1562,-2.93475,-10.5106
-273,-538,-3.26532,10.785,0,0,0,0,0,0,0,-1,951,1562,-3.26531,-10.785
-266,-538,-5.03412,15.9951,0,0,0,0,0,0,0,-1,958,1562,-5.03409,-15.9951
-259,-538,-5.89642,16.5184,0,0,0,0,0,0,0,-1,965,1562,-5.89644,-16.5184
-252,-538,0,0,0,0,0,0,0,0,0,-1,972,1562,0,0
-245,-538,0,0,0,0,0,0,0,0,0,-1,979,1562,0,0
-238,-538,0,0,0,0,0,0,0,0,0,-1,986,1562,0,0
-231,-538,0,0,0,0,0,0,0,0,0,-1,993,1562,0,0
-224,-538,0,0,0,0,0,0,0,0,0,-1,1000,1562,0,0
-217,-538,0,0,0,0,0,0,0,0,0,-1,1007,1562,0,0
-210,-538,0,0,0,0,0,0,0,0,0,-1,1014,1562,0,0
-203,-538,0,0,0,0,0,0,0,0,0,-1,1021,1562,0,0
-196,-538,0,0,0,0,0,0,0,0,0,-1,1028,1562,0,0
-189,-538,0,0,0,0,0,0,0,0,0,-1,1035,1562,0,0
-182,-538,0,0,0,0,0,0,0,0,0,-1,1042,1562,0,0
-175,-538,0,0,0,0,0,0,0,0,0,-1,1049,1562,0,0
-168,-538,0,0,0,0,0,0,0,0,0,-1,1056,1562,0,0
-161,-538,0,0,0,0,0,0,0,0,0,-1,1063,1562,0,0
-154,-538,0,0,0,0,0,0,0,0,0,-1,1070,1562,0,0
-147,-538,0,0,0,0,0,0,0,0,0,-1,1077,1562,0,0
-140,-538,0,0,0,0,0,0,0,0,0,-1,1084,1562,0,0
-133,-538,0,0,0,0,0,0,0,0,0,-1,1091,1562,0,0
-126,-538,0,0,0,0,0,0,0,0,0,-1,1098,1562,0,0
-119,-538,0,0,0,0,0,0,0,0,0,-1,1105,1562,0,0
-112,-538,0,0,0,0,0,0,0,0,0,-1,1112,1562,0,0
-105,-538,0,0,0,0,0,0,0,0,0,-1,1119,1562,0,0
-98,-538,0,0,0,0,0,0,0,0,0,-1,1126,1562,0,0
-91,-538,0,0,0,0,0,0,0,0,0,-1,1133,1562,0,0
-84,-538,0,0,0,0,0,0,0,0,0,-1,1140,1562,0,0
-77,-538,0,0,0,0,0,0,0,0,0,-1,1147,1562,0,0
-70,-538,0,0,0,0,0,0,0,0,0,-1,1154,1562,0,0
-63,-538,0,0,0,0,0,0,0,0,0,-1,1161,1562,0,0
-56,-538,0,0,0,0,0,0,0,0,0,-1,1168,1562,0,0
-49,-538,0,0,0,0,0,0,0,0,0,-1,1175,1562,0,0
-42,-538,0,0,0,0,0,0,0,0,0,-1,1182,1562,0,0
-35,-538,0,0,0,0,0,0,0,0,0,-1,1189,1562,0,0
-28,-538,0,0,0,0,0,0,0,0,0,-1,1196,1562,0,0
-21,-538,0,0,0,0,0,0,0,0,0,-1,1203,1562,0,0
-14,-538,0,0,0,0,0,0,0,0,0,-1,1210,1562,0,0
-7,-538,0,0,0,0,0,0,0,0,0,-1,1217,1562,0,0
0,-538,0,0,0,0,0,0,0,0,0,-1,1224,1562,0,0
7,-538,0,0,0,0,0,0,0,0,0,-1,1231,1562,0,0
14,-538,0,0,0,0,0,0,0,0,0,-1,1238,1562,0,0
21,-538,0,0,0,0,0,0,0,0,0,-1,1245,1562,0,0
28,-538,0,0,0,0,0,0,0,0,0,-1,1252,1562,0,0
35,-538,0,0,0,0,0,0,0,0,0,-1,1259,1562,0,0
42,-538,0,0,0,0,0,0,0,0,0,-1,1266,1562,0,0
49,-538,0,0,0,0,0,0,0,0,0,-1,1273,1562,0,0
56,-538,0,0,0,0,0,0,0,0,0,-1,1280,1562,0,0
63,-538,0,0,0,0,0,0,0,0,0,-1,1287,1562,0,0
70,-538,0,0,0,0,0,0,0,0,0,-1,1294,1562,0,0
77,-538,0,0,0,0,0,0,0,0,0,-1,1301,1562,0,0
84,-538,0,0,0,0,0,0,0,0,0,-1,1308,1562,0,0
91,-538,0,0,0,0,0,0,0,0,0,-1,1315,1562,0,0
98,-538,0,0,0,0,0,0,0,0,0,-1,1322,1562,0,0
105,-538,0,0,0,0,0,0,0,0,0,-1,1329,1562,0,0
112,-538,0,0,0,0,0,0,0,0,0,-1,1336,1562,0,0
119,-538,0,0,0,0,0,0,0,0,0,-1,1343,1562,0,0
126,-538,0,0,0,0,0,0,0,0,0,-1,1350,1562,0,0
133,-538,0,0,0,0,0,0,0,0,0,-1,1357,1562,0,0
140,-538,0,0,0,0,0,0,0,0,0,-1,1364,1562,0,0
147,-538,0,0,0,0,0,0,0,0,0,-1,1371,1562,0,0
154,-538,0,0,0,0,0,0,0,0,0,-1,1378,1562,0,0
161,-538,0,0,0,0,0,0,0,0,0,-1,1385,1562,0,0
168,-538,0,0,0,0,0,0,0,0,0,-1,1392,1562,0,0
175,-538,0,0,0,0,0,0,0,0,0,-1,1399,1562,0,0
182,-538,0,0,0,0,0,0,0,0,0,-1,1406,1562,0,0
189,-538,0,0,0,0,0,0,0,0,0,-1,1413,1562,0,0
196,-538,0,0,0,0,0,0,0,0,0,-1,1420,1562,0,0
203,-538,0,0,0,0,0,0,0,0,0,-1,1427,1562,0,0
210,-538,0,0,0,0,0,0,0,0,0,-1,1434,1562,0,0
217,-538,0,0,0,0,0,0,0,0,0,-1,1441,1562,0,0
224,-538,0,0,0,0,0,0,0,0,0,-1,1448,1562,0,0
231,-538,0,0,0,0,0,0,0,0,0,-1,1455,1562,0,0
238,-538,0,0,0,0,0,0,0,0,0,-1,1462,1562,0,0
245,-538,0,0,0,0,0,0,0,0,0,-1,1469,1562,0,0
252,-538,0,0,0,0,0,0,0,0,0,-1,1476,1562,0,0
259,-538,0,0,0,0,0,0,0,0,0,-1,1483,1562,0,0
266,-538,0,0,0,0,0,0,0,0,0,-1,1490,1562,0,0
273,-538,0,0,0,0,0,0,0,0,0,-1,1497,1562,0,0
280,-538,0,0,0,0,0,0,0,0,0,-1,1504,1562,0,0
287,-538,0,0,0,0,0,0,0,0,0,-1,1511,1562,0,0
294,-538,0,0,0,0,0,0,0,0,0,-1,1518,1562,0,0
301,-538,0,0,0,0,0,0,0,0,0,-1,1525,1562,0,0
308,-538,0,0,0,0,0,0,0,0,0,-1,1532,1562,0,0
315,-538,0,0,0,0,0,0,0,0,0,-1,1539,1562,0,0
322,-538,0,0,0,0,0,0,0,0,0,-1,1546,1562,0,0
329,-538,0,0,0,0,0,0,0,0,0,-1,1553,1562,0,0
336,-538,0,0,0,0,0,0,0,0,0,-1,1560,1562,0,0
343,-538,0,0,0,0,0,0,0,0,0,-1,1567,1562,0,0
350,-538,0,0,0,0,0,0,0,0,0,-1,1574,1562,0,0
357,-538,0,0,0,0,0,0,0,0,0,-1,1581,1562,0,0
364,-538,0,0,0,0,0,0,0,0,0,-1,1588,1562,0,0
371,-538,0,0,0,0,0,0,0,0,0,-1,1595,1562,0,0
378,-538,9.65479,5.82434,0,0,0,0,0,0,0,-1,1602,1562,9.6548,-5.82439
385,-538,10.5449,7.9502,0,0,0,0,0,0,0,-1,1609,1562,10.5449,-7.95014
392,-538,8.20361,7.07214,0,0,0,0,0,0,0,-1,1616,1562,8.20362,-7.07211
399,-538,7.85425,4.70508,0,0,0,0,0,0,0,-1,1623,1562,7.85425,-4.70512
406,-538,7.77734,4.96094,0,0,0,0,0,0,0,-1,1630,1562,7.77729,-4.96097
413,-538,13.0446,13.1765,0,0,0,0,0,0,0,-1,1637,1562,13.0446,-13.1765
420,-538,9.96216,12.7653,0,0,0,0,0,0,0,-1,1644,1562,9.96221,-12.7653
427,-538,10.1732,14.5863,0,0,0,0,0,0,0,-1,1651,1562,10.1732,-14.5863
434,-538,9.64331,14.7745,0,0,0,0,0,0,0,-1,1658,1562,9.64326,-14.7746
441,-538,11.5039,20.5195,0,0,0,0,0,0,0,-1,1665,1562,11.5039,-20.5195
448,-538,12.8766,22.4932,0,0,0,0,0,0,0,-1,1672,1562,12.8766,-22.4932
455,-538,12.5693,17.4128,0,0,0,0,0,0,0,-1,1679,1562,12.5694,-17.4128
462,-538,12.1389,17.017,0,0,0,0,0,0,0,-1,1686,1562,12.1389,-17.017
469,-538,14.3802,16.6945,0,0,0,0,0,0,0,-1,1693,1562,14.3803,-16.6945
476,-538,13.724,19.0608,0,0,0,0,0,0,0,-1,1700,1562,13.724,-19.0608
483,-538,17.088,25.2936,0,0,0,0,0,0,0,-1,1707,1562,17.088,-25.2936
490,-538,25.2462,41.5579,0,0,0,0,0,0,0,-1,1714,1562,25.2462,-41.5578
497,-538,25.4705,40.3322,0.0101622,0.00873713,-0.00688933,0.0163757,0.00252357,-0.73387,0.0101808,0.0398135,1721,1562,25.4705,-40.3321
504,-538,25.5581,39.3517,0.00807209,0.00722519,-0.00550268,0.0131676,0.00212969,-0.746997,0.00816164,0.0170528,1728,1562,25.5581,-39.3516
511,-538,25.5001,38.5723,0.00643477,0.00566041,-0.00437278,0.0104375,0.0016577,-0.741242,0.00647686,0.0111634,1735,1562,25.5001,-38.5722
518,-538,25.478,37.7921,0.0050284,0.00450593,-0.00351635,0.0082932,0.00124113,-0.74832,0.00516504,0.0113478,1742,1562,25.478,-37.7921
525,-538,25.4382,36.9839,0.0037764,0.00345778,-0.00276365,0.00638532,0.000848853,-0.756607,0.00400404,0.013243,1749,1562,25.4383,-36.9839
532,-538,25.4089,36.182,0.00276792,0.00256083,-0.00214564,0.00481251,0.000516235,-0.761288,0.00305086,0.0163355,1756,1562,25.4089,-36.182
539,-538,25.3608,35.4072,0.00206029,0.00187515,-0.00173532,0.00370551,0.000229929,-0.75875,0.00239738,0.0188722,1763,1562,25.3609,-35.4073
546,-538,25.2583,34.6101,0.00153375,0.00130429,-0.00146479,0.00288829,-5.02537e-05,-0.746316,0.0019425,0.0188222,1770,1562,25.2584,-34.6101
553,-538,25.2473,33.7776,0.00125823,0.000894188,-0.00132762,0.00241625,-0.000263827,-0.717271,0.00170559,0.0297823,1777,1562,25.2473,-33.7776
560,-538,25.1842,32.9789,0.00126944,0.000664234,-0.00140394,0.00240302,-0.000469345,-0.679252,0.00177922,0.0320932,1784,1562,25.1842,-32.9789
567,-538,25.0925,32.1809,0.00146537,0.000562636,-0.00160397,0.00268027,-0.000652265,-0.648242,0.00203934,0.0245054,1791,1562,25.0925,-32.181
574,-538,24.9985,31.3188,0.00186438,0.000533539,-0.00194017,0.00325007,-0.000852152,-0.6202,0.00249966,0.0334905,1798,1562,24.9986,-31.3188
581,-538,25.2145,30.3447,0,0,0,0,0,0,0,-1,1805,1562,25.2145,-30.3447
588,-538,24.6564,29.0522,0,0,0,0,0,0,0,-1,1812,1562,24.6563,-29.0522
595,-538,15.9808,16.0894,0,0,0,0,0,0,0,-1,1819,1562,15.9808,-16.0893
602,-538,10.314,8.94238,0,0,0,0,0,0,0,-1,1826,1562,10.314,-8.94238
609,-538,10.1046,7.05713,0,0,0,0,0,0,0,-1,1833,1562,10.1046,-7.05719
616,-538,9.92249,5.43506,0,0,0,0,0,0,0,-1,1840,1562,9.92254,-5.43507
623,-538,11.1711,4.31604,0,0,0,0,0,0,0,-1,1847,1562,11.1711,-4.316
630,-538,12.6112,2.61633,0,0,0,0,0,0,0,-1,1854,1562,12.6112,-2.61637
637,-538,0,0,0,0,0,0,0,0,0,-1,1861,1562,0,0
644,-538,0,0,0,0,0,0,0,0,0,-1,1868,1562,0,0
651,-538,0,0,0,0,0,0,0,0,0,-1,1875,1562,0,0
658,-538,0,0,0,0,0,0,0,0,0,-1,1882,1562,0,0
665,-538,0,0,0,0,0,0,0,0,0,-1,1889,1562,0,0
672,-538,0,0,0,0,0,0,0,0,0,-1,1896,1562,0,0
679,-538,0,0,0,0,0,0,0,0,0,-1,1903,1562,0,0
686,-538,0,0,0,0,0,0,0,0,0,-1,1910,1562,0,0
693,-538,0,0,0,0,0,0,0,0,0,-1,1917,1562,0,0
700,-538,0,0,0,0,0,0,0,0,0,-1,1924,1562,0,0
707,-538,0,0,0,0,0,0,0,0,0,-1,1931,1562,0,0
714,-538,0,0,0,0,0,0,0,0,0,-1,1938,1562,0,0
721,-538,0,0,0,0,0,0,0,0,0,-1,1945,1562,0,0
728,-538,0,0,0,0,0,0,0,0,0,-1,1952,1562,0,0
735,-538,0,0,0,0,0,0,0,0,0,-1,1959,1562,0,0
742,-538,0,0,0,0,0,0,0,0,0,-1,1966,1562,0,0
749,-538,0,0,0,0,0,0,0,0,0,-1,1973,1562,0,0
756,-538,0,0,0,0,0,0,0,0,0,-1,1980,1562,0,0
763,-538,0,0,0,0,0,0,0,0,0,-1,1987,1562,0,0
770,-538,0,0,0,0,0,0,0,0,0,-1,1994,1562,0,0
777,-538,0,0,0,0,0,0,0,0,0,-1,2001,1562,0,0
784,-538,0,0,0,0,0,0,0,0,0,-1,2008,1562,0,0
791,-538,0,0,0,0,0,0,0,0,0,-1,2015,1562,0,0
798,-538,0,0,0,0,0,0,0,0,0,-1,2022,1562,0,0
805,-538,0,0,0,0,0,0,0,0,0,-1,2029,1562,0,0
812,-538,0,0,0,0,0,0,0,0,0,-1,2036,1562,0,0
-700,-545,0,0,0,0,0,0,0,0,0,-1,524,1569,0,0
-693,-545,0,0,0,0,0,0,0,0,0,-1,531,1569,0,0
-686,-545,0,0,0,0,0,0,0,0,0,-1,538,1569,0,0
-679,-545,0,0,0,0,0,0,0,0,0,-1,545,1569,0,0
-672,-545,0,0,0,0,0,0,0,0,0,-1,552,1569,0,0
-665,-545,0,0,0,0,0,0,0,0,0,-1,559,1569,0,0
-658,-545,0,0,0,0,0,0,0,0,0,-1,566,1569,0,0
-651,-545,0,0,0,0,0,0,0,0,0,-1,573,1569,0,0
-644,-545,0,0,0,0,0,0,0,0,0,-1,580,1569,0,0
-637,-545,0,0,0,0,0,0,0,0,0,-1,587,1569,0,0
-630,-545,0,0,0,0,0,0,0,0,0,-1,594,1569,0,0
-623,-545,0,0,0,0,0,0,0,0,0,-1,601,1569,0,0
-616,-545,0,0,0,0,0,0,0,0,0,-1,608,1569,0,0
-609,-545,0,0,0,0,0,0,0,0,0,-1,615,1569,0,0
-602,-545,0,0,0,0,0,0,0,0,0,-1,622,1569,0,0
-595,-545,0,0,0,0,0,0,0,0,0,-1,629,1569,0,0
-588,-545,0,0,0,0,0,0,0,0,0,-1,636,1569,0,0
-581,-545,0,0,0,0,0,0,0,0,0,-1,643,1569,0,0
-574,-545,0,0,0,0,0,0,0,0,0,-1,650,1569,0,0
-567,-545,0,0,0,0,0,0,0,0,0,-1,657,1569,0,0
-560,-545,0,0,0,0,0,0,0,0,0,-1,664,1569,0,0
-553,-545,0,0,0,0,0,0,0,0,0,-1,671,1569,0,0
-546,-545,0,0,0,0,0,0,0,0,0,-1,678,1569,0,0
-539,-545,0,0,0,0,0,0,0,0,0,-1,685,1569,0,0
-532,-545,0,0,0,0,0,0,0,0,0,-1,692,1569,0,0
-525,-545,0,0,0,0,0,0,0,0,0,-1,699,1569,0,0
-518,-545,0,0,0,0,0,0,0,0,0,-1,706,1569,0,0
-511,-545,0,0,0,0,0,0,0,0,0,-1,713,1569,0,0
-504,-545,-3.55237,-2.5354,0,0,0,0,0,0,0,-1,720,1569,-3.55236,2.53545
-497,-545,2.26575,5.69214,0,0,0,0,0,0,0,-1,727,1569,2.26573,-5.6922
-490,-545,-2.17334,7.81396,0,0,0,0,0,0,0,-1,734,1569,-2.17334,-7.81399
-483,-545,-1.88336,5.8446,0,0,0,0,0,0,0,-1,741,1569,-1.88334,-5.84466
-476,-545,-1.13147,6.5741,0,0,0,0,0,0,0,-1,748,1569,-1.13149,-6.57405
-469,-545,-1.03412,15.8353,0,0,0,0,0,0,0,-1,755,1569,-1.03414,-15.8353
-462,-545,-4.09772,21.0458,0,0,0,0,0,0,0,-1,762,1569,-4.0977,-21.0458
-455,-545,-6.19891,29.6049,0,0,0,0,0,0,0,-1,769,1569,-6.19888,-29.6049
-448,-545,-6.14703,30.8776,0,0,0,0,0,0,0,-1,776,1569,-6.14701,-30.8775
-441,-545,-6.24902,31.8781,0,0,0,0,0,0,0,-1,783,1569,-6.24899,-31.8781
-434,-545,-6.54596,32.757,-0.00225076,8.89461e-05,-0.00162414,0.000920693,-0.0030825,-1.0975,0.00242098,0.0326922,790,1569,-6.54593,-32.757
-427,-545,-6.52893,33.5891,-0.00123981,0.000348842,-0.000800884,0.000682509,-0.00157348,-1.17604,0.00133592,0.0216812,797,1569,-6.52891,-33.5891
-420,-545,-6.50995,34.3872,-0.000561761,0.000571466,-0.000238166,0.000619486,-0.000609781,-1.37184,0.000709725,0.0234137,804,1569,-6.50994,-34.3872
-413,-545,-6.55103,35.1851,2.33756e-05,0.000686768,0.000165573,0.000725796,-1.56527e-05,1.3393,0.000489165,0.0231184,811,1569,-6.551,-35.1851
-406,-545,-6.61493,36.0591,0.000507467,0.000843295,0.000411426,0.00111975,0.00023101,0.979145,0.000682655,0.0172607,818,1569,-6.61491,-36.0591
-399,-545,-6.63318,36.8673,0.000902666,0.0010782,0.000574154,0.00157126,0.000409611,0.861243,0.000941164,0.0122398,825,1569,-6.63319,-36.8673
-392,-545,-6.68329,37.6666,0.0013235,0.00137519,0.00072372,0.00207352,0.00062516,0.803247,0.00122819,0.013265,832,1569,-6.68328,-37.6666
-385,-545,-6.74115,38.4928,0.00175685,0.00173204,0.000755483,0.00250003,0.00098886,0.777189,0.00145386,0.0115103,839,1569,-6.74113,-38.4928
-378,-545,-6.80078,39.3202,0.00229842,0.0020808,0.000739816,0.00293739,0.00144184,0.712383,0.00169599,0.0126733,846,1569,-6.80076,-39.3202
-371,-545,-6.84796,40.17,0.00298124,0.00261806,0.000812968,0.00363265,0.00196665,0.67552,0.00209971,0.0155857,853,1569,-6.84799,-40.1701
-364,-545,-6.86774,40.9307,0.00400789,0.0035826,0.00115555,0.0049702,0.0026203,0.694404,0.00287096,0.0117379,860,1569,-6.86773,-40.9307
-357,-545,-6.80341,41.8806,0.00514476,0.00455459,0.00147431,0.00635322,0.00334612,0.686629,0.00366978,0.0294836,867,1569,-6.80341,-41.8806
-350,-545,-6.71246,42.9601,0,0,0,0,0,0,0,-1,874,1569,-6.71244,-42.9601
-343,-545,-6.57898,43.7889,0,0,0,0,0,0,0,-1,881,1569,-6.57897,-43.789
-336,-545,-4.2146,36.9165,0,0,0,0,0,0,0,-1,888,1569,-4.21457,-36.9165
-329,-545,-2.03595,27.8694,0,0,0,0,0,0,0,-1,895,1569,-2.03592,-27.8694
-322,-545,-2.42474,27.9695,0,0,0,0,0,0,0,-1,902,1569,-2.42474,-27.9695
-315,-545,-2.52954,30.1711,0,0,0,0,0,0,0,-1,909,1569,-2.52951,-30.1712
-308,-545,-1.54358,21.4457,0,0,0,0,0,0,0,-1,916,1569,-1.54357,-21.4457
-301,-545,1.52191,17.5009,0,0,0,0,0,0,0,-1,923,1569,1.52192,-17.5008
-294,-545,-2.69287,8.42102,0,0,0,0,0,0,0,-1,930,1569,-2.69287,-8.42097
-287,-545,-3.47784,9.96021,0,0,0,0,0,0,0,-1,937,1569,-3.47785,-9.96021
-280,-545,-3.7879,10.5448,0,0,0,0,0,0,0,-1,944,1569,-3.78793,-10.5448
-273,-545,-5.10333,12.864,0,0,0,0,0,0,0,-1,951,1569,-5.10331,-12.864
-266,-545,-5.78955,13.3704,0,0,0,0,0,0,0,-1,958,1569,-5.78952,-13.3703
-259,-545,-6.32184,13.8101,0,0,0,0,0,0,0,-1,965,1569,-6.32182,-13.81
-252,-545,0.369263,7.54053,0,0,0,0,0,0,0,-1,972,1569,0.369276,-7.54056
-245,-545,-0.236633,6.65564,0,0,0,0,0,0,0,-1,979,1569,-0.236605,-6.65566
-238,-545,0,0,0,0,0,0,0,0,0,-1,986,1569,0,0
-231,-545,0,0,0,0,0,0,0,0,0,-1,993,1569,0,0
-224,-545,0,0,0,0,0,0,0,0,0,-1,1000,1569,0,0
-217,-545,0,0,0,0,0,0,0,0,0,-1,1007,1569,0,0
-210,-545,0,0,0,0,0,0,0,0,0,-1,1014,1569,0,0
-203,-545,0,0,0,0,0,0,0,0,0,-1,1021,1569,0,0
-196,-545,0,0,0,0,0,0,0,0,0,-1,1028,1569,0,0
-189,-545,0,0,0,0,0,0,0,0,0,-1,1035,1569,0,0
-182,-545,0,0,0,0,0,0,0,0,0,-1,1042,1569,0,0
-175,-545,0,0,0,0,0,0,0,0,0,-1,1049,1569,0,0
-168,-545,0,0,0,0,0,0,0,0,0,-1,1056,1569,0,0
-161,-545,0,0,0,0,0,0,0,0,0,-1,1063,1569,0,0
-154,-545,0,0,0,0,0,0,0,0,0,-1,1070,1569,0,0
-147,-545,0,0,0,0,0,0,0,0,0,-1,1077,1569,0,0
-140,-545,0,0,0,0,0,0,0,0,0,-1,1084,1569,0,0
-133,-545,0,0,0,0,0,0,0,0,0,-1,1091,1569,0,0
-126,-545,0,0,0,0,0,0,0,0,0,-1,1098,1569,0,0
-119,-545,0,0,0,0,0,0,0,0,0,-1,1105,1569,0,0
-112,-545,0,0,0,0,0,0,0,0,0,-1,1112,1569,0,0
-105,-545,0,0,0,0,0,0,0,0,0,-1,1119,1569,0,0
-98,-545,0,0,0,0,0,0,0,0,0,-1,1126,1569,0,0
-91,-545,0,0,0,0,0,0,0,0,0,-1,1133,1569,0,0
-84,-545,0,0,0,0,0,0,0,0,0,-1,1140,1569,0,0
-77,-545,0,0,0,0,0,0,0,0,0,-1,1147,1569,0,0
-70,-545,0,0,0,0,0,0,0,0,0,-1,1154,1569,0,0
-63,-545,0,0,0,0,0,0,0,0,0,-1,1161,1569,0,0
-56,-545,0,0,0,0,0,0,0,0,0,-1,1168,1569,0,0
-49,-545,0,0,0,0,0,0,0,0,0,-1,1175,1569,0,0
-42,-545,0,0,0,0,0,0,0,0,0,-1,1182,1569,0,0
-35,-545,0,0,0,0,0,0,0,0,0,-1,1189,1569,0,0
-28,-545,0,0,0,0,0,0,0,0,0,-1,1196,1569,0,0
-21,-545,0,0,0,0,0,0,0,0,0,-1,1203,1569,0,0
-14,-545,0,0,0,0,0,0,0,0,0,-1,1210,1569,0,0
-7,-545,0,0,0,0,0,0,0,0,0,-1,1217,1569,0,0
0,-545,0,0,0,0,0,0,0,0,0,-1,1224,1569,0,0
7,-545,0,0,0,0,0,0,0,0,0,-1,1231,1569,0,0
14,-545,0,0,0,0,0,0,0,0,0,-1,1238,1569,0,0
21,-545,0,0,0,0,0,0,0,0,0,-1,1245,1569,0,0
28,-545,0,0,0,0,0,0,0,0,0,-1,1252,1569,0,0
35,-545,0,0,0,0,0,0,0,0,0,-1,1259,1569,0,0
42,-545,0,0,0,0,0,0,0,0,0,-1,1266,1569,0,0
49,-545,0,0,0,0,0,0,0,0,0,-1,1273,1569,0,0
56,-545,0,0,0,0,0,0,0,0,0,-1,1280,1569,0,0
63,-545,0,0,0,0,0,0,0,0,0,-1,1287,1569,0,0
70,-545,0,0,0,0,0,0,0,0,0,-1,1294,1569,0,0
77,-545,0,0,0,0,0,0,0,0,0,-1,1301,1569,0,0
84,-545,0,0,0,0,0,0,0,0,0,-1,1308,1569,0,0
91,-545,0,0,0,0,0,0,0,0,0,-1,1315,1569,0,0
98,-545,0,0,0,0,0,0,0,0,0,-1,1322,1569,0,0
105,-545,0,0,0,0,0,0,0,0,0,-1,1329,1569,0,0
112,-545,0,0,0,0,0,0,0,0,0,-1,1336,1569,0,0
119,-545,0,0,0,0,0,0,0,0,0,-1,1343,1569,0,0
126,-545,0,0,0,0,0,0,0,0,0,-1,1350,1569,0,0
133,-545,0,0,0,0,0,0,0,0,0,-1,1357,1569,0,0
140,-545,0,0,0,0,0,0,0,0,0,-1,1364,1569,0,0
147,-545,0,0,0,0,0,0,0,0,0,-1,1371,1569,0,0
154,-545,0,0,0,0,0,0,0,0,0,-1,1378,1569,0,0
161,-545,0,0,0,0,0,0,0,0,0,-1,1385,1569,0,0
168,-545,0,0,0,0,0,0,0,0,0,-1,1392,1569,0,0
175,-545,0,0,0,0,0,0,0,0,0,-1,1399,1569,0,0
182,-545,0,0,0,0,0,0,0,0,0,-1,1406,1569,0,0
189,-545,0,0,0,0,0,0,0,0,0,-1,1413,1569,0,0
196,-545,0,0,0,0,0,0,0,0,0,-1,1420,1569,0,0
203,-545,0,0,0,0,0,0,0,0,0,-1,1427,1569,0,0
210,-545,0,0,0,0,0,0,0,0,0,-1,1434,1569,0,0
217,-545,0,0,0,0,0,0,0,0,0,-1,1441,1569,0,0
224,-545,0,0,0,0,0,0,0,0,0,-1,1448,1569,0,0
231,-545,0,0,0,0,0,0,0,0,0,-1,1455,1569,0,0
238,-545,0,0,0,0,0,0,0,0,0,-1,1462,1569,0,0
245,-545,0,0,0,0,0,0,0,0,0,-1,1469,1569,0,0
252,-545,0,0,0,0,0,0,0,0,0,-1,1476,1569,0,0
259,-545,0,0,0,0,0,0,0,0,0,-1,1483,1569,0,0
266,-545,0,0,0,0,0,0,0,0,0,-1,1490,1569,0,0
273,-545,0,0,0,0,0,0,0,0,0,-1,1497,1569,0,0
280,-545,0,0,0,0,0,0,0,0,0,-1,1504,1569,0,0
287,-545,0,0,0,0,0,0,0,0,0,-1,1511,1569,0,0
294,-545,0,0,0,0,0,0,0,0,0,-1,1518,1569,0,0
301,-545,0,0,0,0,0,0,0,0,0,-1,1525,1569,0,0
308,-545,0,0,0,0,0,0,0,0,0,-1,1532,1569,0,0
315,-545,0,0,0,0,0,0,0,0,0,-1,1539,1569,0,0
322,-545,0,0,0,0,0,0,0,0,0,-1,1546,1569,0,0
329,-545,0,0,0,0,0,0,0,0,0,-1,1553,1569,0,0
336,-545,0,0,0,0,0,0,0,0,0,-1,1560,1569,0,0
343,-545,0,0,0,0,0,0,0,0,0,-1,1567,1569,0,0
350,-545,0,0,0,0,0,0,0,0,0,-1,1574,1569,0,0
357,-545,0,0,0,0,0,0,0,0,0,-1,1581,1569,0,0
364,-545,7.19495,4.88098,0,0,0,0,0,0,0,-1,1588,1569,7.19497,-4.88095
371,-545,7.82324,3.84302,0,0,0,0,0,0,0,-1,1595,1569,7.82324,-3.84307
378,-545,7.65674,5.52673,0,0,0,0,0,0,0,-1,1602,1569,7.6567,-5.52667
385,-545,8.58447,1.16125,0,0,0,0,0,0,0,-1,1609,1569,8.5845,-1.1612
392,-545,12.5654,3.89526,0,0,0,0,0,0,0,-1,1616,1569,12.5655,-3.89532
399,-545,11.5869,5.6333,0,0,0,0,0,0,0,-1,1623,1569,11.5869,-5.63326
406,-545,11.234,6.36414,0,0,0,0,0,0,0,-1,1630,1569,11.234,-6.3641
413,-545,12.1521,13.4817,0,0,0,0,0,0,0,-1,1637,1569,12.1521,-13.4817
420,-545,11.1954,13.6047,0,0,0,0,0,0,0,-1,1644,1569,11.1954,-13.6047
427,-545,9.61072,14.9135,0,0,0,0,0,0,0,-1,1651,1569,9.61076,-14.9134
434,-545,13.1598,23.9921,0,0,0,0,0,0,0,-1,1658,1569,13.1598,-23.992
441,-545,12.2833,22.2238,0,0,0,0,0,0,0,-1,1665,1569,12.2833,-22.2237
448,-545,13.0082,21.941,0,0,0,0,0,0,0,-1,1672,1569,13.0082,-21.941
455,-545,13.733,21.6583,0,0,0,0,0,0,0,-1,1679,1569,13.733,-21.6583
462,-545,12.449,20.7413,0,0,0,0,0,0,0,-1,1686,1569,12.4489,-20.7413
469,-545,12.7837,17.7919,0,0,0,0,0,0,0,-1,1693,1569,12.7837,-17.7919
476,-545,15.7562,24.8708,0,0,0,0,0,0,0,-1,1700,1569,15.7563,-24.8709
483,-545,24.6888,41.9612,0,0,0,0,0,0,0,-1,1707,1569,24.6889,-41.9611
490,-545,24.7296,41.0602,0.0100338,0.00865262,-0.00664477,0.0160238,0.00266267,-0.733618,0.00991488,0.0300243,1714,1569,24.7297,-41.0601
497,-545,24.7504,40.2365,0.00803948,0.00682586,-0.00523929,0.012707,0.00215836,-0.727745,0.00785139,0.0243591,1721,1569,24.7504,-40.2365
504,-545,24.7892,39.4003,0.00633968,0.00559981,-0.00418612,0.0101722,0.00176732,-0.741327,0.00627585,0.0171661,1728,1569,24.7892,-39.4003
511,-545,24.7174,38.6001,0.00492474,0.0043291,-0.00328879,0.00792917,0.00132467,-0.740243,0.00490455,0.0125324,1735,1569,24.7174,-38.6001
518,-545,24.7007,37.822,0.00369008,0.00336924,-0.00262579,0.00616034,0.00089898,-0.75489,0.00384245,0.0137018,1742,1569,24.7007,-37.822
525,-545,24.6362,37.0079,0.00259891,0.00249404,-0.00203538,0.00458253,0.00051042,-0.77252,0.00289989,0.014531,1749,1569,24.6362,-37.0079
532,-545,24.571,36.225,0.00175734,0.00176102,-0.00157517,0.00333435,0.000184005,-0.785983,0.00216417,0.0155107,1756,1569,24.571,-36.225
539,-545,24.517,35.4669,0.00119699,0.00120629,-0.00130621,0.00250786,-0.000104577,-0.787178,0.00170784,0.0179382,1763,1569,24.517,-35.467
546,-545,24.4513,34.6259,0.000821339,0.000773618,-0.00117266,0.00197039,-0.000375428,-0.775226,0.00145497,0.0195148,1770,1569,24.4513,-34.6258
553,-545,24.4508,33.7521,0.000723483,0.000518184,-0.00120117,0.00182638,-0.000584714,-0.742773,0.00145227,0.027938,1777,1569,24.4508,-33.7521
560,-545,24.4082,32.9204,0.000908117,0.000425394,-0.00145394,0.0021406,-0.000807086,-0.703146,0.00175894,0.0310352,1784,1569,24.4082,-32.9205
567,-545,24.4122,32.0983,0,0,0,0,0,0,0,-1,1791,1569,24.4122,-32.0983
574,-545,24.3746,31.1494,0,0,0,0,0,0,0,-1,1798,1569,24.3746,-31.1494
581,-545,23.9723,29.941,0,0,0,0,0,0,0,-1,1805,1569,23.9723,-29.941
588,-545,15.4786,16.7035,0,0,0,0,0,0,0,-1,1812,1569,15.4786,-16.7035
595,-545,10.2859,9.11218,0,0,0,0,0,0,0,-1,1819,1569,10.2858,-9.11215
602,-545,8.82117,6.32214,0,0,0,0,0,0,0,-1,1826,1569,8.82121,-6.32217
609,-545,10.2406,5.22351,0,0,0,0,0,0,0,-1,1833,1569,10.2406,-5.22353
616,-545,11.701,3.93188,0,0,0,0,0,0,0,-1,1840,1569,11.701,-3.93191
623,-545,13.2139,2.32043,0,0,0,0,0,0,0,-1,1847,1569,13.2139,-2.32042
630,-545,0,0,0,0,0,0,0,0,0,-1,1854,1569,0,0
637,-545,0,0,0,0,0,0,0,0,0,-1,1861,1569,0,0
644,-545,0,0,0,0,0,0,0,0,0,-1,1868,1569,0,0
651,-545,0,0,0,0,0,0,0,0,0,-1,1875,1569,0,0
658,-545,0,0,0,0,0,0,0,0,0,-1,1882,1569,0,0
665,-545,0,0,0,0,0,0,0,0,0,-1,1889,1569,0,0
672,-545,0,0,0,0,0,0,0,0,0,-1,1896,1569,0,0
679,-545,0,0,0,0,0,0,0,0,0,-1,1903,1569,0,0
686,-545,0,0,0,0,0,0,0,0,0,-1,1910,1569,0,0
693,-545,0,0,0,0,0,0,0,0,0,-1,1917,1569,0,0
700,-545,0,0,0,0,0,0,0,0,0,-1,1924,1569,0,0
707,-545,0,0,0,0,0,0,0,0,0,-1,1931,1569,0,0
714,-545,0,0,0,0,0,0,0,0,0,-1,1938,1569,0,0
721,-545,0,0,0,0,0,0,0,0,0,-1,1945,1569,0,0
728,-545,0,0,0,0,0,0,0,0,0,-1,1952,1569,0,0
735,-545,0,0,0,0,0,0,0,0,0,-1,1959,1569,0,0
742,-545,0,0,0,0,0,0,0,0,0,-1,1966,1569,0,0
749,-545,0,0,0,0,0,0,0,0,0,-1,1973,1569,0,0
756,-545,0,0,0,0,0,0,0,0,0,-1,1980,1569,0,0
763,-545,0,0,0,0,0,0,0,0,0,-1,1987,1569,0,0
770,-545,0,0,0,0,0,0,0,0,0,-1,1994,1569,0,0
777,-545,0,0,0,0,0,0,0,0,0,-1,2001,1569,0,0
784,-545,0,0,0,0,0,0,0,0,0,-1,2008,1569,0,0
791,-545,0,0,0,0,0,0,0,0,0,-1,2015,1569,0,0
798,-545,0,0,0,0,0,0,0,0,0,-1,2022,1569,0,0
805,-545,0,0,0,0,0,0,0,0,0,-1,2029,1569,0,0
812,-545,0,0,0,0,0,0,0,0,0,-1,2036,1569,0,0
-700,-552,0,0,0,0,0,0,0,0,0,-1,524,1576,0,0
-693,-552,0,0,0,0,0,0,0,0,0,-1,531,1576,0,0
-686,-552,0,0,0,0,0,0,0,0,0,-1,538,1576,0,0
-679,-552,0,0,0,0,0,0,0,0,0,-1,545,1576,0,0
-672,-552,0,0,0,0,0,0,0,0,0,-1,552,1576,0,0
-665,-552,0,0,0,0,0,0,0,0,0,-1,559,1576,0,0
-658,-552,0,0,0,0,0,0,0,0,0,-1,566,1576,0,0
-651,-552,0,0,0,0,0,0,0,0,0,-1,573,1576,0,0
-644,-552,0,0,0,0,0,0,0,0,0,-1,580,1576,0,0
-637,-552,0,0,0,0,0,0,0,0,0,-1,587,1576,0,0
-630,-552,0,0,0,0,0,0,0,0,0,-1,594,1576,0,0
-623,-552,0,0,0,0,0,0,0,0,0,-1,601,1576,0,0
-616,-552,0,0,0,0,0,0,0,0,0,-1,608,1576,0,0
-609,-552,0,0,0,0,0,0,0,0,0,-1,615,1576,0,0
-602,-552,0,0,0,0,0,0,0,0,0,-1,622,1576,0,0
-595,-552,0,0,0,0,0,0,0,0,0,-1,629,1576,0,0
-588,-552,0,0,0,0,0,0,0,0,0,-1,636,1576,0,0
-581,-552,0,0,0,0,0,0,0,0,0,-1,643,1576,0,0
-574,-552,0,0,0,0,0,0,0,0,0,-1,650,1576,0,0
-567,-552,0,0,0,0,0,0,0,0,0,-1,657,1576,0,0
-560,-552,0,0,0,0,0,0,0,0,0,-1,664,1576,0,0
-553,-552,0,0,0,0,0,0,0,0,0,-1,671,1576,0,0
-546,-552,0,0,0,0,0,0,0,0,0,-1,678,1576,0,0
-539,-552,0,0,0,0,0,0,0,0,0,-1,685,1576,0,0
-532,-552,0,0,0,0,0,0,0,0,0,-1,692,1576,0,0
-525,-552,0,0,0,0,0,0,0,0,0,-1,699,1576,0,0
-518,-552,0,0,0,0,0,0,0,0,0,-1,706,1576,0,0
-511,-552,0,0,0,0,0,0,0,0,0,-1,713,1576,0,0
-504,-552,0,0,0,0,0,0,0,0,0,-1,720,1576,0,0
-497,-552,1.51282,3.96924,0,0,0,0,0,0,0,-1,727,1576,1.5128,-3.96924
-490,-552,-3.82312,6.32104,0,0,0,0,0,0,0,-1,734,1576,-3.82314,-6.3211
-483,-552,-3.50586,6.47986,0,0,0,0,0,0,0,-1,741,1576,-3.50587,-6.47983
-476,-552,-1.95129,4.43054,0,0,0,0,0,0,0,-1,748,1576,-1.95128,-4.43054
-469,-552,-1.40491,7.9895,0,0,0,0,0,0,0,-1,755,1576,-1.40491,-7.98947
-462,-552,0.0459595,16.3469,0,0,0,0,0,0,0,-1,762,1576,0.0459611,-16.3469
-455,-552,-3.21484,22.3766,0,0,0,0,0,0,0,-1,769,1576,-3.21487,-22.3766
-448,-552,-5.36963,30.4823,0,0,0,0,0,0,0,-1,776,1576,-5.36965,-30.4823
-441,-552,-4.76611,32.5165,0,0,0,0,0,0,0,-1,783,1576,-4.76614,-32.5165
-434,-552,-5.43164,33.0255,-0.00280305,0.000425756,-0.00220078,0.00154077,-0.00391806,-1.10185,0.00324975,0.0451783,790,1576,-5.43161,-33.0256
-427,-552,-5.76154,33.498,-0.00150769,0.000655199,-0.000999972,0.00104667,-0.00189915,-1.19766,0.00172434,0.0385659,797,1576,-5.76153,-33.4981
-420,-552,-5.72406,34.4384,-0.000713052,0.000871628,-0.000188147,0.00089366,-0.000735084,-1.45423,0.00094184,0.0247448,804,1576,-5.72409,-34.4384
-413,-552,-5.73431,35.2445,-0.000145043,0.000894337,0.000305697,0.00097758,-0.000228286,1.30494,0.000739653,0.0173373,811,1576,-5.73434,-35.2445
-406,-552,-5.78461,36.0924,0.000311814,0.000912248,0.000579572,0.00126474,-4.06817e-05,1.02437,0.000857046,0.0130492,818,1576,-5.78462,-36.0924
-399,-552,-5.82178,36.8866,0.000674578,0.00103529,0.000748036,0.00162441,8.54636e-05,0.903694,0.0010556,0.0147645,825,1576,-5.82177,-36.8866
-392,-552,-5.89935,37.6979,0.00105527,0.0011971,0.000872356,0.00200142,0.000250951,0.825953,0.00125899,0.0176797,832,1576,-5.89934,-37.6979
-385,-552,-5.94385,38.5438,0.00141781,0.00142359,0.0008534,0.00227411,0.000567296,0.787093,0.00136679,0.0161185,839,1576,-5.94386,-38.5439
-378,-552,-6.00513,39.3428,0.00190831,0.00168523,0.000847663,0.00265174,0.000941802,0.719982,0.00155225,0.0169287,846,1576,-6.0051,-39.3428
-371,-552,-6.04193,40.1791,0.00247288,0.00198166,0.000796849,0.00306111,0.00139342,0.635905,0.00176969,0.0199493,853,1576,-6.04193,-40.1791
-364,-552,-6.06317,40.9707,0.00333106,0.00272805,0.000991275,0.00406567,0.00199344,0.637764,0.00234746,0.015022,860,1576,-6.06316,-40.9707
-357,-552,-6.08276,41.7504,0.00427679,0.00342037,0.00116328,0.00508817,0.00260899,0.609042,0.00293798,0.0107583,867,1576,-6.08278,-41.7504
-350,-552,-6.08075,42.6315,0.0052507,0.00442572,0.0015296,0.00642246,0.00325396,0.653695,0.00370812,0.018308,874,1576,-6.08077,-42.6315
-343,-552,-6.10358,43.431,0.00613472,0.00504809,0.00185375,0.00752313,0.00365968,0.642845,0.00434401,0.0348838,881,1576,-6.10361,-43.4311
-336,-552,-6.16071,44.1321,0,0,0,0,0,0,0,-1,888,1576,-6.16068,-44.1321
-329,-552,-3.68982,37.6417,0,0,0,0,0,0,0,-1,895,1576,-3.68984,-37.6417
-322,-552,-1.23962,28.5371,0,0,0,0,0,0,0,-1,902,1576,-1.23964,-28.5371
-315,-552,-0.605347,28.994,0,0,0,0,0,0,0,-1,909,1576,-0.605331,-28.9941
-308,-552,-1.01624,30.3169,0,0,0,0,0,0,0,-1,916,1576,-1.01624,-30.3169
-301,-552,1.39453,18.4995,0,0,0,0,0,0,0,-1,923,1576,1.3945,-18.4995
-294,-552,0.842163,13.7863,0,0,0,0,0,0,0,-1,930,1576,0.842149,-13.7863
-287,-552,-0.663757,13.3474,0,0,0,0,0,0,0,-1,937,1576,-0.663744,-13.3474
-280,-552,-5.47241,8.96765,0,0,0,0,0,0,0,-1,944,1576,-5.47239,-8.96766
-273,-552,1.64587,10.6685,0,0,0,0,0,0,0,-1,951,1576,1.6459,-10.6685
-266,-552,-1.32678,8.05688,0,0,0,0,0,0,0,-1,958,1576,-1.32677,-8.05683
-259,-552,-5.54321,8.31213,0,0,0,0,0,0,0,-1,965,1576,-5.54324,-8.31214
-252,-552,-1.93445,7.81543,0,0,0,0,0,0,0,-1,972,1576,-1.93445,-7.81546
-245,-552,-2.53613,6.92212,0,0,0,0,0,0,0,-1,979,1576,-2.53614,-6.92216
-238,-552,-6.5365,2.81885,0,0,0,0,0,0,0,-1,986,1576,-6.53649,-2.8188
-231,-552,-4.32239,4.34583,0,0,0,0,0,0,0,-1,993,1576,-4.32239,-4.34587
-224,-552,0,0,0,0,0,0,0,0,0,-1,1000,1576,0,0
-217,-552,0,0,0,0,0,0,0,0,0,-1,1007,1576,0,0
-210,-552,0,0,0,0,0,0,0,0,0,-1,1014,1576,0,0
-203,-552,0,0,0,0,0,0,0,0,0,-1,1021,1576,0,0
-196,-552,0,0,0,0,0,0,0,0,0,-1,1028,1576,0,0
-189,-552,0,0,0,0,0,0,0,0,0,-1,1035,1576,0,0
-182,-552,0,0,0,0,0,0,0,0,0,-1,1042,1576,0,0
-175,-552,0,0,0,0,0,0,0,0,0,-1,1049,1576,0,0
-168,-552,0,0,0,0,0,0,0,0,0,-1,1056,1576,0,0
-161,-552,0,0,0,0,0,0,0,0,0,-1,1063,1576,0,0
-154,-552,0,0,0,0,0,0,0,0,0,-1,1070,1576,0,0
-147,-552,0,0,0,0,0,0,0,0,0,-1,1077,1576,0,0
-140,-552,0,0,0,0,0,0,0,0,0,-1,1084,1576,0,0
-133,-552,0,0,0,0,0,0,0,0,0,-1,1091,1576,0,0
-126,-552,0,0,0,0,0,0,0,0,0,-1,1098,1576,0,0
-119,-552,0,0,0,0,0,0,0,0,0,-1,1105,1576,0,0
-112,-552,0,0,0,0,0,0,0,0,0,-1,1112,1576,0,0
-105,-552,0,0,0,0,0,0,0,0,0,-1,1119,1576,0,0
-98,-552,0,0,0,0,0,0,0,0,0,-1,1126,1576,0,0
-91,-552,0,0,0,0,0,0,0,0,0,-1,1133,1576,0,0
-84,-552,0,0,0,0,0,0,0,0,0,-1,1140,1576,0,0
-77,-552,0,0,0,0,0,0,0,0,0,-1,1147,1576,0,0
-70,-552,0,0,0,0,0,0,0,0,0,-1,1154,1576,0,0
-63,-552,0,0,0,0,0,0,0,0,0,-1,1161,1576,0,0
-56,-552,0,0,0,0,0,0,0,0,0,-1,1168,1576,0,0
-49,-552,0,0,0,0,0,0,0,0,0,-1,1175,1576,0,0
-42,-552,0,0,0,0,0,0,0,0,0,-1,1182,1576,0,0
-35,-552,0,0,0,0,0,0,0,0,0,-1,1189,1576,0,0
-28,-552,0,0,0,0,0,0,0,0,0,-1,1196,1576,0,0
-21,-552,0,0,0,0,0,0,0,0,0,-1,1203,1576,0,0
-14,-552,0,0,0,0,0,0,0,0,0,-1,1210,1576,0,0
-7,-552,0,0,0,0,0,0,0,0,0,-1,1217,1576,0,0
0,-552,0,0,0,0,0,0,0,0,0,-1,1224,1576,0,0
7,-552,0,0,0,0,0,0,0,0,0,-1,1231,1576,0,0
14,-552,0,0,0,0,0,0,0,0,0,-1,1238,1576,0,0
21,-552,0,0,0,0,0,0,0,0,0,-1,1245,1576,0,0
28,-552,0,0,0,0,0,0,0,0,0,-1,1252,1576,0,0
35,-552,0,0,0,0,0,0,0,0,0,-1,1259,1576,0,0
42,-552,0,0,0,0,0,0,0,0,0,-1,1266,1576,0,0
49,-552,0,0,0,0,0,0,0,0,0,-1,1273,1576,0,0
56,-552,0,0,0,0,0,0,0,0,0,-1,1280,1576,0,0
63,-552,0,0,0,0,0,0,0,0,0,-1,1287,1576,0,0
70,-552,0,0,0,0,0,0,0,0,0,-1,1294,1576,0,0
77,-552,0,0,0,0,0,0,0,0,0,-1,1301,1576,0,0
84,-552,0,0,0,0,0,0,0,0,0,-1,1308,1576,0,0
91,-552,0,0,0,0,0,0,0,0,0,-1,1315,1576,0,0
98,-552,0,0,0,0,0,0,0,0,0,-1,1322,1576,0,0
105,-552,0,0,0,0,0,0,0,0,0,-1,1329,1576,0,0
112,-552,0,0,0,0,0,0,0,0,0,-1,1336,1576,0,0
119,-552,0,0,0,0,0,0,0,0,0,-1,1343,1576,0,0
126,-552,0,0,0,0,0,0,0,0,0,-1,1350,1576,0,0
133,-552,0,0,0,0,0,0,0,0,0,-1,1357,1576,0,0
140,-552,0,0,0,0,0,0,0,0,0,-1,1364,1576,0,0
147,-552,0,0,0,0,0,0,0,0,0,-1,1371,1576,0,0
154,-552,0,0,0,0,0,0,0,0,0,-1,1378,1576,0,0
161,-552,0,0,0,0,0,0,0,0,0,-1,1385,1576,0,0
168,-552,0,0,0,0,0,0,0,0,0,-1,1392,1576,0,0
175,-552,0,0,0,0,0,0,0,0,0,-1,1399,1576,0,0
182,-552,0,0,0,0,0,0,0,0,0,-1,1406,1576,0,0
189,-552,0,0,0,0,0,0,0,0,0,-1,1413,1576,0,0
196,-552,0,0,0,0,0,0,0,0,0,-1,1420,1576,0,0
203,-552,0,0,0,0,0,0,0,0,0,-1,1427,1576,0,0
210,-552,0,0,0,0,0,0,0,0,0,-1,1434,1576,0,0
217,-552,0,0,0,0,0,0,0,0,0,-1,1441,1576,0,0
224,-552,0,0,0,0,0,0,0,0,0,-1,1448,1576,0,0
231,-552,0,0,0,0,0,0,0,0,0,-1,1455,1576,0,0
238,-552,0,0,0,0,0,0,0,0,0,-1,1462,1576,0,0
245,-552,0,0,0,0,0,0,0,0,0,-1,1469,1576,0,0
252,-552,0,0,0,0,0,0,0,0,0,-1,1476,1576,0,0
259,-552,0,0,0,0,0,0,0,0,0,-1,1483,1576,0,0
266,-552,0,0,0,0,0,0,0,0,0,-1,1490,1576,0,0
273,-552,0,0,0,0,0,0,0,0,0,-1,1497,1576,0,0
280,-552,0,0,0,0,0,0,0,0,0,-1,1504,1576,0,0
287,-552,0,0,0,0,0,0,0,0,0,-1,1511,1576,0,0
294,-552,0,0,0,0,0,0,0,0,0,-1,1518,1576,0,0
301,-552,0,0,0,0,0,0,0,0,0,-1,1525,1576,0,0
308,-552,0,0,0,0,0,0,0,0,0,-1,1532,1576,0,0
315,-552,0,0,0,0,0,0,0,0,0,-1,1539,1576,0,0
322,-552,0,0,0,0,0,0,0,0,0,-1,1546,1576,0,0
329,-552,0,0,0,0,0,0,0,0,0,-1,1553,1576,0,0
336,-552,0,0,0,0,0,0,0,0,0,-1,1560,1576,0,0
343,-552,0,0,0,0,0,0,0,0,0,-1,1567,1576,0,0
350,-552,4.97876,4.09888,0,0,0,0,0,0,0,-1,1574,1576,4.97875,-4.09883
357,-552,5.18469,4.10706,0,0,0,0,0,0,0,-1,1581,1576,5.1847,-4.10702
364,-552,5.80872,5.07031,0,0,0,0,0,0,0,-1,1588,1576,5.80874,-5.07037
371,-552,7.10657,5.64783,0,0,0,0,0,0,0,-1,1595,1576,7.10651,-5.64786
378,-552,6.44446,4.91492,0,0,0,0,0,0,0,-1,1602,1576,6.44448,-4.91496
385,-552,12.8276,3.16504,0,0,0,0,0,0,0,-1,1609,1576,12.8276,-3.16503
392,-552,12.1301,4.3363,0,0,0,0,0,0,0,-1,1616,1576,12.1302,-4.33631
399,-552,11.3486,5.6012,0,0,0,0,0,0,0,-1,1623,1576,11.3486,-5.60115
406,-552,10.7863,6.42542,0,0,0,0,0,0,0,-1,1630,1576,10.7863,-6.42536
413,-552,8.39307,10.365,0,0,0,0,0,0,0,-1,1637,1576,8.3931,-10.365
420,-552,10.2306,12.7225,0,0,0,0,0,0,0,-1,1644,1576,10.2305,-12.7226
427,-552,9.73267,14.783,0,0,0,0,0,0,0,-1,1651,1576,9.73269,-14.783
434,-552,12.0377,20.1364,0,0,0,0,0,0,0,-1,1658,1576,12.0377,-20.1364
441,-552,12.4963,21.5277,0,0,0,0,0,0,0,-1,1665,1576,12.4964,-21.5277
448,-552,12.9141,21.5482,0,0,0,0,0,0,0,-1,1672,1576,12.9141,-21.5482
455,-552,13.3318,21.5687,0,0,0,0,0,0,0,-1,1679,1576,13.3317,-21.5687
462,-552,12.745,20.5947,0,0,0,0,0,0,0,-1,1686,1576,12.745,-20.5947
469,-552,17.7067,29.6902,0,0,0,0,0,0,0,-1,1693,1576,17.7067,-29.6902
476,-552,23.8459,42.906,0,0,0,0,0,0,0,-1,1700,1576,23.8459,-42.906
483,-552,24.0399,41.7635,0,0,0,0,0,0,0,-1,1707,1576,24.0399,-41.7635
490,-552,24.0081,40.9805,0.00788455,0.00691624,-0.00503857,0.0124622,0.00233862,-0.7375,0.00764869,0.0148933,1714,1576,24.008,-40.9804
497,-552,24.0909,40.1934,0.00618441,0.00538181,-0.00395425,0.00975767,0.00180855,-0.734828,0.00599391,0.0225307,1721,1576,24.0909,-40.1934
504,-552,24.0297,39.4468,0.00475575,0.00432639,-0.00315892,0.00770728,0.00137486,-0.751471,0.00474674,0.0251844,1728,1576,24.0296,-39.4468
511,-552,23.9529,38.6327,0.00352396,0.00324232,-0.00244835,0.00583553,0.000930743,-0.756672,0.00362021,0.0183059,1735,1576,23.9529,-38.6328
518,-552,23.9182,37.8282,0.00243962,0.00239556,-0.00193733,0.00435504,0.000480138,-0.779713,0.00275728,0.0158086,1742,1576,23.9182,-37.8283
525,-552,23.8447,37.0419,0.0014968,0.00162105,-0.00148497,0.00304519,7.26588e-05,-0.806305,0.00200635,0.0151424,1749,1576,23.8447,-37.0419
532,-552,23.7852,36.2645,0.000820344,0.000991567,-0.00116614,0.00207524,-0.000263327,-0.822039,0.0014791,0.0147634,1756,1576,23.7852,-36.2645
539,-552,23.7173,35.4917,0.000415188,0.000509949,-0.00101694,0.00148061,-0.000555472,-0.808677,0.00121531,0.0175174,1763,1576,23.7172,-35.4917
546,-552,23.6626,34.6704,0.000227905,0.000170569,-0.000999836,0.00119948,-0.00080101,-0.771066,0.0011626,0.021554,1770,1576,23.6626,-34.6704
553,-552,23.672,33.7749,0.000355866,2.45217e-05,-0.00116781,0.00136969,-0.000989308,-0.714936,0.00136786,0.0259621,1777,1576,23.672,-33.7749
560,-552,23.7026,32.705,0,0,0,0,0,0,0,-1,1784,1576,23.7026,-32.705
567,-552,20.6783,26.0908,0,0,0,0,0,0,0,-1,1791,1576,20.6784,-26.0908
574,-552,12.8835,14.8463,0,0,0,0,0,0,0,-1,1798,1576,12.8836,-14.8463
581,-552,9.74841,9.98645,0,0,0,0,0,0,0,-1,1805,1576,9.74847,-9.9864
588,-552,10.5619,9.34924,0,0,0,0,0,0,0,-1,1812,1576,10.5619,-9.34921
595,-552,5.36194,6.62744,0,0,0,0,0,0,0,-1,1819,1576,5.36193,-6.62742
602,-552,10.6863,4.31616,0,0,0,0,0,0,0,-1,1826,1576,10.6862,-4.31619
609,-552,12.146,3.18286,0,0,0,0,0,0,0,-1,1833,1576,12.1459,-3.18281
616,-552,13.8762,2.08167,0,0,0,0,0,0,0,-1,1840,1576,13.8763,-2.08167
623,-552,0,0,0,0,0,0,0,0,0,-1,1847,1576,0,0
630,-552,0,0,0,0,0,0,0,0,0,-1,1854,1576,0,0
637,-552,0,0,0,0,0,0,0,0,0,-1,1861,1576,0,0
644,-552,0,0,0,0,0,0,0,0,0,-1,1868,1576,0,0
651,-552,0,0,0,0,0,0,0,0,0,-1,1875,1576,0,0
658,-552,0,0,0,0,0,0,0,0,0,-1,1882,1576,0,0
665,-552,0,0,0,0,0,0,0,0,0,-1,1889,1576,0,0
672,-552,0,0,0,0,0,0,0,0,0,-1,1896,1576,0,0
679,-552,0,0,0,0,0,0,0,0,0,-1,1903,1576,0,0
686,-552,0,0,0,0,0,0,0,0,0,-1,1910,1576,0,0
693,-552,0,0,0,0,0,0,0,0,0,-1,1917,1576,0,0
700,-552,0,0,0,0,0,0,0,0,0,-1,1924,1576,0,0
707,-552,0,0,0,0,0,0,0,0,0,-1,1931,1576,0,0
714,-552,0,0,0,0,0,0,0,0,0,-1,1938,1576,0,0
721,-552,0,0,0,0,0,0,0,0,0,-1,1945,1576,0,0
728,-552,0,0,0,0,0,0,0,0,0,-1,1952,1576,0,0
735,-552,0,0,0,0,0,0,0,0,0,-1,1959,1576,0,0
742,-552,0,0,0,0,0,0,0,0,0,-1,1966,1576,0,0
749,-552,0,0,0,0,0,0,0,0,0,-1,1973,1576,0,0
756,-552,0,0,0,0,0,0,0,0,0,-1,1980,1576,0,0
763,-552,0,0,0,0,0,0,0,0,0,-1,1987,1576,0,0
770,-552,0,0,0,0,0,0,0,0,0,-1,1994,1576,0,0
777,-552,0,0,0,0,0,0,0,0,0,-1,2001,1576,0,0
784,-552,0,0,0,0,0,0,0,0,0,-1,2008,1576,0,0
791,-552,0,0,0,0,0,0,0,0,0,-1,2015,1576,0,0
798,-552,0,0,0,0,0,0,0,0,0,-1,2022,1576,0,0
805,-552,0,0,0,0,0,0,0,0,0,-1,2029,1576,0,0
812,-552,0,0,0,0,0,0,0,0,0,-1,2036,1576,0,0
-700,-559,0,0,0,0,0,0,0,0,0,-1,524,1583,0,0
-693,-559,0,0,0,0,0,0,0,0,0,-1,531,1583,0,0
-686,-559,0,0,0,0,0,0,0,0,0,-1,538,1583,0,0
-679,-559,0,0,0,0,0,0,0,0,0,-1,545,1583,0,0
-672,-559,0,0,0,0,0,0,0,0,0,-1,552,1583,0,0
-665,-559,0,0,0,0,0,0,0,0,0,-1,559,1583,0,0
-658,-559,0,0,0,0,0,0,0,0,0,-1,566,1583,0,0
-651,-559,0,0,0,0,0,0,0,0,0,-1,573,1583,0,0
-644,-559,0,0,0,0,0,0,0,0,0,-1,580,1583,0,0
-637,-559,0,0,0,0,0,0,0,0,0,-1,587,1583,0,0
-630,-559,0,0,0,0,0,0,0,0,0,-1,594,1583,0,0
-623,-559,0,0,0,0,0,0,0,0,0,-1,601,1583,0,0
-616,-559,0,0,0,0,0,0,0,0,0,-1,608,1583,0,0
-609,-559,0,0,0,0,0,0,0,0,0,-1,615,1583,0,0
-602,-559,0,0,0,0,0,0,0,0,0,-1,622,1583,0,0
-595,-559,0,0,0,0,0,0,0,0,0,-1,629,1583,0,0
-588,-559,0,0,0,0,0,0,0,0,0,-1,636,1583,0,0
-581,-559,0,0,0,0,0,0,0,0,0,-1,643,1583,0,0
-574,-559,0,0,0,0,0,0,0,0,0,-1,650,1583,0,0
-567,-559,0,0,0,0,0,0,0,0,0,-1,657,1583,0,0
-560,-559,0,0,0,0,0,0,0,0,0,-1,664,1583,0,0
-553,-559,0,0,0,0,0,0,0,0,0,-1,671,1583,0,0
-546,-559,0,0,0,0,0,0,0,0,0,-1,678,1583,0,0
-539,-559,0,0,0,0,0,0,0,0,0,-1,685,1583,0,0
-532,-559,0,0,0,0,0,0,0,0,0,-1,692,1583,0,0
-525,-559,0,0,0,0,0,0,0,0,0,-1,699,1583,0,0
-518,-559,0,0,0,0,0,0,0,0,0,-1,706,1583,0,0
-511,-559,0,0,0,0,0,0,0,0,0,-1,713,1583,0,0
-504,-559,0,0,0,0,0,0,0,0,0,-1,720,1583,0,0
-497,-559,0,0,0,0,0,0,0,0,0,-1,727,1583,0,0
-490,-559,-5.49835,4.47424,0,0,0,0,0,0,0,-1,734,1583,-5.49833,-4.4743
-483,-559,-5.24078,4.74561,0,0,0,0,0,0,0,-1,741,1583,-5.24079,-4.74563
-476,-559,-4.98022,4.99316,0,0,0,0,0,0,0,-1,748,1583,-4.98024,-4.99321
-469,-559,-4.6424,5.38062,0,0,0,0,0,0,0,-1,755,1583,-4.64237,-5.38058
-462,-559,-0.161865,6.49438,0,0,0,0,0,0,0,-1,762,1583,-0.161835,-6.49444
-455,-559,1.08826,7.02527,0,0,0,0,0,0,0,-1,769,1583,1.08823,-7.02529
-448,-559,-2.86023,20.0852,0,0,0,0,0,0,0,-1,776,1583,-2.86025,-20.0852
-441,-559,-3.32996,32.7021,0,0,0,0,0,0,0,-1,783,1583,-3.32994,-32.7021
-434,-559,-4.17181,33.2209,0,0,0,0,0,0,0,-1,790,1583,-4.17183,-33.2209
-427,-559,-4.90057,33.3528,0,0,0,0,0,0,0,-1,797,1583,-4.90057,-33.3527
-420,-559,-4.92432,34.3444,0,0,0,0,0,0,0,-1,804,1583,-4.92429,-34.3444
-413,-559,-4.96252,35.3079,-0.000245718,0.00131163,0.00062365,0.00153059,-0.000464677,1.23315,0.00120552,0.0194525,811,1583,-4.96255,-35.3079
-406,-559,-4.98083,36.1559,0.000188517,0.00120501,0.000922528,0.00175003,-0.000356503,1.03718,0.0013019,0.0102265,818,1583,-4.98082,-36.1559
-399,-559,-5.00555,36.9659,0.000528847,0.00121031,0.00109223,0.00201372,-0.000274561,0.936595,0.00144273,0.0145621,825,1583,-5.00553,-36.9659
-392,-559,-5.08691,37.7697,0.000869317,0.00124633,0.00118299,0.00225574,-0.000140095,0.864408,0.00155264,0.0181687,832,1583,-5.08688,-37.7697
-385,-559,-5.12756,38.6042,0.00115938,0.0013548,0.00111593,0.00237729,0.000136885,0.829065,0.00154126,0.0175427,839,1583,-5.12756,-38.6043
-378,-559,-5.18115,39.3906,0.00159248,0.00153508,0.00110687,0.00267103,0.000456534,0.772438,0.0016497,0.015425,846,1583,-5.18114,-39.3906
-371,-559,-5.24969,40.217,0.00205206,0.00162029,0.000936808,0.00279754,0.000874817,0.672151,0.0016525,0.0225716,853,1583,-5.24972,-40.217
-364,-559,-5.26263,41.0066,0.00275768,0.00212139,0.000982711,0.00347246,0.00140661,0.628851,0.00201684,0.0210143,860,1583,-5.26264,-41.0066
-357,-559,-5.27924,41.7994,0.00353877,0.00254181,0.00100576,0.0041628,0.00191778,0.555328,0.00240587,0.0132018,867,1583,-5.27924,-41.7995
-350,-559,-5.30579,42.5852,0.00436917,0.00315975,0.00118792,0.00509744,0.00243148,0.549969,0.00294405,0.0103477,874,1583,-5.30576,-42.5852
-343,-559,-5.34668,43.3673,0.00512624,0.00348003,0.00132209,0.00586051,0.00274576,0.506969,0.0033858,0.011452,881,1583,-5.34669,-43.3673
-336,-559,-5.41675,44.1509,0,0,0,0,0,0,0,-1,888,1583,-5.41674,-44.1509
-329,-559,-5.35284,45.1167,0,0,0,0,0,0,0,-1,895,1583,-5.35281,-45.1167
-322,-559,-4.86597,44.8291,0,0,0,0,0,0,0,-1,902,1583,-4.86594,-44.8291
-315,-559,-0.659607,29.1698,0,0,0,0,0,0,0,-1,909,1583,-0.659577,-29.1698
-308,-559,-0.755493,30.4624,0,0,0,0,0,0,0,-1,916,1583,-0.755509,-30.4625
-301,-559,-1.22174,31.0372,0,0,0,0,0,0,0,-1,923,1583,-1.22176,-31.0372
-294,-559,0.945129,18.5165,0,0,0,0,0,0,0,-1,930,1583,0.945117,-18.5165
-287,-559,-0.11792,15.4912,0,0,0,0,0,0,0,-1,937,1583,-0.117939,-15.4912
-280,-559,0.191467,13.5093,0,0,0,0,0,0,0,-1,944,1583,0.191441,-13.5093
-273,-559,2.12836,10.3059,0,0,0,0,0,0,0,-1,951,1583,2.12839,-10.3059
-266,-559,-0.597046,6.68933,0,0,0,0,0,0,0,-1,958,1583,-0.597031,-6.68937
-259,-559,-7.00311,8.62756,0,0,0,0,0,0,0,-1,965,1583,-7.00312,-8.6275
-252,-559,-9.4483,2.87805,0,0,0,0,0,0,0,-1,972,1583,-9.44829,-2.87805
-245,-559,-4.80804,7.1803,0,0,0,0,0,0,0,-1,979,1583,-4.80804,-7.18027
-238,-559,-8.45764,2.54858,0,0,0,0,0,0,0,-1,986,1583,-8.45763,-2.54862
-231,-559,-5.86914,4.34021,0,0,0,0,0,0,0,-1,993,1583,-5.86914,-4.34019
-224,-559,-3.30505,6.22864,0,0,0,0,0,0,0,-1,1000,1583,-3.30505,-6.22859
-217,-559,0,0,0,0,0,0,0,0,0,-1,1007,1583,0,0
-210,-559,0,0,0,0,0,0,0,0,0,-1,1014,1583,0,0
-203,-559,0,0,0,0,0,0,0,0,0,-1,1021,1583,0,0
-196,-559,0,0,0,0,0,0,0,0,0,-1,1028,1583,0,0
-189,-559,0,0,0,0,0,0,0,0,0,-1,1035,1583,0,0
-182,-559,0,0,0,0,0,0,0,0,0,-1,1042,1583,0,0
-175,-559,0,0,0,0,0,0,0,0,0,-1,1049,1583,0,0
-168,-559,0,0,0,0,0,0,0,0,0,-1,1056,1583,0,0
-161,-559,0,0,0,0,0,0,0,0,0,-1,1063,1583,0,0
-154,-559,0,0,0,0,0,0,0,0,0,-1,1070,1583,0,0
-147,-559,0,0,0,0,0,0,0,0,0,-1,1077,1583,0,0
-140,-559,0,0,0,0,0,0,0,0,0,-1,1084,1583,0,0
-133,-559,0,0,0,0,0,0,0,0,0,-1,1091,1583,0,0
-126,-559,0,0,0,0,0,0,0,0,0,-1,1098,1583,0,0
-119,-559,0,0,0,0,0,0,0,0,0,-1,1105,1583,0,0
-112,-559,0,0,0,0,0,0,0,0,0,-1,1112,1583,0,0
-105,-559,0,0,0,0,0,0,0,0,0,-1,1119,1583,0,0
-98,-559,0,0,0,0,0,0,0,0,0,-1,1126,1583,0,0
-91,-559,0,0,0,0,0,0,0,0,0,-1,1133,1583,0,0
-84,-559,0,0,0,0,0,0,0,0,0,-1,1140,1583,0,0
-77,-559,0,0,0,0,0,0,0,0,0,-1,1147,1583,0,0
-70,-559,0,0,0,0,0,0,0,0,0,-1,1154,1583,0,0
-63,-559,0,0,0,0,0,0,0,0,0,-1,1161,1583,0,0
-56,-559,0,0,0,0,0,0,0,0,0,-1,1168,1583,0,0
-49,-559,0,0,0,0,0,0,0,0,0,-1,1175,1583,0,0
-42,-559,0,0,0,0,0,0,0,0,0,-1,1182,1583,0,0
-35,-559,0,0,0,0,0,0,0,0,0,-1,1189,1583,0,0
-28,-559,0,0,0,0,0,0,0,0,0,-1,1196,1583,0,0
-21,-559,0,0,0,0,0,0,0,0,0,-1,1203,1583,0,0
-14,-559,0,0,0,0,0,0,0,0,0,-1,1210,1583,0,0
-7,-559,0,0,0,0,0,0,0,0,0,-1,1217,1583,0,0
0,-559,0,0,0,0,0,0,0,0,0,-1,1224,1583,0,0
7,-559,0,0,0,0,0,0,0,0,0,-1,1231,1583,0,0
14,-559,0,0,0,0,0,0,0,0,0,-1,1238,1583,0,0
21,-559,0,0,0,0,0,0,0,0,0,-1,1245,1583,0,0
28,-559,0,0,0,0,0,0,0,0,0,-1,1252,1583,0,0
35,-559,0,0,0,0,0,0,0,0,0,-1,1259,1583,0,0
42,-559,0,0,0,0,0,0,0,0,0,-1,1266,1583,0,0
49,-559,0,0,0,0,0,0,0,0,0,-1,1273,1583,0,0
56,-559,0,0,0,0,0,0,0,0,0,-1,1280,1583,0,0
63,-559,0,0,0,0,0,0,0,0,0,-1,1287,1583,0,0
70,-559,0,0,0,0,0,0,0,0,0,-1,1294,1583,0,0
77,-559,0,0,0,0,0,0,0,0,0,-1,1301,1583,0,0
84,-559,0,0,0,0,0,0,0,0,0,-1,1308,1583,0,0
91,-559,0,0,0,0,0,0,0,0,0,-1,1315,1583,0,0
98,-559,0,0,0,0,0,0,0,0,0,-1,1322,1583,0,0
105,-559,0,0,0,0,0,0,0,0,0,-1,1329,1583,0,0
112,-559,0,0,0,0,0,0,0,0,0,-1,1336,1583,0,0
119,-559,0,0,0,0,0,0,0,0,0,-1,1343,1583,0,0
126,-559,0,0,0,0,0,0,0,0,0,-1,1350,1583,0,0
133,-559,0,0,0,0,0,0,0,0,0,-1,1357,1583,0,0
140,-559,0,0,0,0,0,0,0,0,0,-1,1364,1583,0,0
147,-559,0,0,0,0,0,0,0,0,0,-1,1371,1583,0,0
154,-559,0,0,0,0,0,0,0,0,0,-1,1378,1583,0,0
161,-559,0,0,0,0,0,0,0,0,0,-1,1385,1583,0,0
168,-559,0,0,0,0,0,0,0,0,0,-1,1392,1583,0,0
175,-559,0,0,0,0,0,0,0,0,0,-1,1399,1583,0,0
182,-559,0,0,0,0,0,0,0,0,0,-1,1406,1583,0,0
189,-559,0,0,0,0,0,0,0,0,0,-1,1413,1583,0,0
196,-559,0,0,0,0,0,0,0,0,0,-1,1420,1583,0,0
203,-559,0,0,0,0,0,0,0,0,0,-1,1427,1583,0,0
210,-559,0,0,0,0,0,0,0,0,0,-1,1434,1583,0,0
217,-559,0,0,0,0,0,0,0,0,0,-1,1441,1583,0,0
224,-559,0,0,0,0,0,0,0,0,0,-1,1448,1583,0,0
231,-559,0,0,0,0,0,0,0,0,0,-1,1455,1583,0,0
238,-559,0,0,0,0,0,0,0,0,0,-1,1462,1583,0,0
245,-559,0,0,0,0,0,0,0,0,0,-1,1469,1583,0,0
252,-559,0,0,0,0,0,0,0,0,0,-1,1476,1583,0,0
259,-559,0,0,0,0,0,0,0,0,0,-1,1483,1583,0,0
266,-559,0,0,0,0,0,0,0,0,0,-1,1490,1583,0,0
273,-559,0,0,0,0,0,0,0,0,0,-1,1497,1583,0,0
280,-559,0,0,0,0,0,0,0,0,0,-1,1504,1583,0,0
287,-559,0,0,0,0,0,0,0,0,0,-1,1511,1583,0,0
294,-559,0,0,0,0,0,0,0,0,0,-1,1518,1583,0,0
301,-559,0,0,0,0,0,0,0,0,0,-1,1525,1583,0,0
308,-559,0,0,0,0,0,0,0,0,0,-1,1532,1583,0,0
315,-559,0,0,0,0,0,0,0,0,0,-1,1539,1583,0,0
322,-559,0,0,0,0,0,0,0,0,0,-1,1546,1583,0,0
329,-559,0,0,0,0,0,0,0,0,0,-1,1553,1583,0,0
336,-559,5.97668,3.09827,0,0,0,0,0,0,0,-1,1560,1583,5.97667,-3.09824
343,-559,5.44824,2.88696,0,0,0,0,0,0,0,-1,1567,1583,5.44819,-2.88693
350,-559,4.69775,3.27051,0,0,0,0,0,0,0,-1,1574,1583,4.69771,-3.27048
357,-559,3.88025,3.60999,0,0,0,0,0,0,0,-1,1581,1583,3.88027,-3.60998
364,-559,5.00928,5.32605,0,0,0,0,0,0,0,-1,1588,1583,5.00928,-5.32607
371,-559,1.84436,2.52441,0,0,0,0,0,0,0,-1,1595,1583,1.84441,-2.52447
378,-559,6.34753,1.53137,0,0,0,0,0,0,0,-1,1602,1583,6.34752,-1.53139
385,-559,6.95911,1.48181,0,0,0,0,0,0,0,-1,1609,1583,6.95916,-1.48175
392,-559,11.6949,4.77734,0,0,0,0,0,0,0,-1,1616,1583,11.6949,-4.77731
399,-559,11.1104,5.56909,0,0,0,0,0,0,0,-1,1623,1583,11.1103,-5.56905
406,-559,10.3385,6.48657,0,0,0,0,0,0,0,-1,1630,1583,10.3385,-6.48661
413,-559,9.76147,6.97571,0,0,0,0,0,0,0,-1,1637,1583,9.76143,-6.97574
420,-559,7.77124,10.5851,0,0,0,0,0,0,0,-1,1644,1583,7.77128,-10.585
427,-559,10.1022,12.5565,0,0,0,0,0,0,0,-1,1651,1583,10.1021,-12.5565
434,-559,9.62769,14.6309,0,0,0,0,0,0,0,-1,1658,1583,9.62771,-14.6309
441,-559,12.6149,21.3678,0,0,0,0,0,0,0,-1,1665,1583,12.6149,-21.3678
448,-559,13.7046,22.6677,0,0,0,0,0,0,0,-1,1672,1583,13.7046,-22.6677
455,-559,13.9427,23.0509,0,0,0,0,0,0,0,-1,1679,1583,13.9427,-23.0509
462,-559,21.9476,42.0568,0,0,0,0,0,0,0,-1,1686,1583,21.9477,-42.0568
469,-559,22.8367,43.8828,0,0,0,0,0,0,0,-1,1693,1583,22.8367,-43.8829
476,-559,23.222,42.7144,0.00865923,0.00776395,-0.00551154,0.0137413,0.00268191,-0.744878,0.00841064,0.0323152,1700,1583,23.2221,-42.7143
483,-559,23.2921,41.7789,0.00735096,0.00646963,-0.00460939,0.0115407,0.00227989,-0.737742,0.00705767,0.0149538,1707,1583,23.2921,-41.779
490,-559,23.2523,40.9863,0.00599151,0.00529398,-0.00374341,0.00940237,0.00188312,-0.738949,0.00574437,0.014948,1714,1583,23.2523,-40.9863
497,-559,23.2622,40.2423,0.00459771,0.00405801,-0.00293196,0.00727222,0.0013835,-0.739509,0.0044591,0.0179578,1721,1583,23.2622,-40.2423
504,-559,23.2062,39.493,0.00342464,0.00316045,-0.00235089,0.00564714,0.000937947,-0.757334,0.00349433,0.0252358,1728,1583,23.2061,-39.493
511,-559,23.1406,38.6876,0.00237566,0.00225107,-0.0018029,0.00411734,0.00050939,-0.768129,0.00259183,0.0233157,1735,1583,23.1407,-38.6876
518,-559,23.1169,37.8761,0.00144209,0.00151677,-0.00142047,0.0029004,5.8468e-05,-0.798539,0.00191441,0.0152397,1742,1583,23.117,-37.8761
525,-559,23.0579,37.0887,0.000639423,0.000844521,-0.00109374,0.0018405,-0.000356561,-0.832142,0.00136151,0.0138813,1749,1583,23.0578,-37.0887
532,-559,22.9983,36.3081,0.000105514,0.000316936,-0.000906549,0.00112392,-0.000701467,-0.84344,0.00106325,0.0142305,1756,1583,22.9983,-36.3081
539,-559,22.9553,35.5189,-0.000184829,-0.000112992,-0.000862375,0.000714212,-0.00101203,-0.806212,0.00100158,0.0179866,1763,1583,22.9554,-35.5189
546,-559,22.88,34.7312,-0.000231472,-0.000379252,-0.000942515,0.000640045,-0.00125077,-0.74628,0.00111048,0.0167203,1770,1583,22.88,-34.7312
553,-559,22.9454,33.8373,5.03299e-05,-0.000449637,-0.00122355,0.00104917,-0.00144848,-0.68463,0.00144815,0.0232129,1777,1583,22.9454,-33.8372
560,-559,22.8986,32.9507,0,0,0,0,0,0,0,-1,1784,1583,22.8986,-32.9506
567,-559,21.7423,29.5544,0,0,0,0,0,0,0,-1,1791,1583,21.7423,-29.5544
574,-559,10.5109,10.7317,0,0,0,0,0,0,0,-1,1798,1583,10.5108,-10.7317
581,-559,5.97095,5.96179,0,0,0,0,0,0,0,-1,1805,1583,5.97093,-5.96181
588,-559,5.79102,5.89954,0,0,0,0,0,0,0,-1,1812,1583,5.79098,-5.89949
595,-559,5.79089,6.24231,0,0,0,0,0,0,0,-1,1819,1583,5.7909,-6.24227
602,-559,12.478,2.35669,0,0,0,0,0,0,0,-1,1826,1583,12.4781,-2.35675
609,-559,14.0479,1.22681,0,0,0,0,0,0,0,-1,1833,1583,14.0479,-1.22681
616,-559,0,0,0,0,0,0,0,0,0,-1,1840,1583,0,0
623,-559,0,0,0,0,0,0,0,0,0,-1,1847,1583,0,0
630,-559,0,0,0,0,0,0,0,0,0,-1,1854,1583,0,0
637,-559,0,0,0,0,0,0,0,0,0,-1,1861,1583,0,0
644,-559,0,0,0,0,0,0,0,0,0,-1,1868,1583,0,0
651,-559,0,0,0,0,0,0,0,0,0,-1,1875,1583,0,0
658,-559,0,0,0,0,0,0,0,0,0,-1,1882,1583,0,0
665,-559,0,0,0,0,0,0,0,0,0,-1,1889,1583,0,0
672,-559,0,0,0,0,0,0,0,0,0,-1,1896,1583,0,0
679,-559,0,0,0,0,0,0,0,0,0,-1,1903,1583,0,0
686,-559,0,0,0,0,0,0,0,0,0,-1,1910,1583,0,0
693,-559,0,0,0,0,0,0,0,0,0,-1,1917,1583,0,0
700,-559,0,0,0,0,0,0,0,0,0,-1,1924,1583,0,0
707,-559,0,0,0,0,0,0,0,0,0,-1,1931,1583,0,0
714,-559,0,0,0,0,0,0,0,0,0,-1,1938,1583,0,0
721,-559,0,0,0,0,0,0,0,0,0,-1,1945,1583,0,0
728,-559,0,0,0,0,0,0,0,0,0,-1,1952,1583,0,0
735,-559,0,0,0,0,0,0,0,0,0,-1,1959,1583,0,0
742,-559,0,0,0,0,0,0,0,0,0,-1,1966,1583,0,0
749,-559,0,0,0,0,0,0,0,0,0,-1,1973,1583,0,0
756,-559,0,0,0,0,0,0,0,0,0,-1,1980,1583,0,0
763,-559,0,0,0,0,0,0,0,0,0,-1,1987,1583,0,0
770,-559,0,0,0,0,0,0,0,0,0,-1,1994,1583,0,0
777,-559,0,0,0,0,0,0,0,0,0,-1,2001,1583,0,0
784,-559,0,0,0,0,0,0,0,0,0,-1,2008,1583,0,0
791,-559,0,0,0,0,0,0,0,0,0,-1,2015,1583,0,0
798,-559,0,0,0,0,0,0,0,0,0,-1,2022,1583,0,0
805,-559,0,0,0,0,0,0,0,0,0,-1,2029,1583,0,0
812,-559,0,0,0,0,0,0,0,0,0,-1,2036,1583,0,0
-700,-566,0,0,0,0,0,0,0,0,0,-1,524,1590,0,0
-693,-566,0,0,0,0,0,0,0,0,0,-1,531,1590,0,0
-686,-566,0,0,0,0,0,0,0,0,0,-1,538,1590,0,0
-679,-566,0,0,0,0,0,0,0,0,0,-1,545,1590,0,0
-672,-566,0,0,0,0,0,0,0,0,0,-1,552,1590,0,0
-665,-566,0,0,0,0,0,0,0,0,0,-1,559,1590,0,0
-658,-566,0,0,0,0,0,0,0,0,0,-1,566,1590,0,0
-651,-566,0,0,0,0,0,0,0,0,0,-1,573,1590,0,0
-644,-566,0,0,0,0,0,0,0,0,0,-1,580,1590,0,0
-637,-566,0,0,0,0,0,0,0,0,0,-1,587,1590,0,0
-630,-566,0,0,0,0,0,0,0,0,0,-1,594,1590,0,0
-623,-566,0,0,0,0,0,0,0,0,0,-1,601,1590,0,0
-616,-566,0,0,0,0,0,0,0,0,0,-1,608,1590,0,0
-609,-566,0,0,0,0,0,0,0,0,0,-1,615,1590,0,0
-602,-566,0,0,0,0,0,0,0,0,0,-1,622,1590,0,0
-595,-566,0,0,0,0,0,0,0,0,0,-1,629,1590,0,0
-588,-566,0,0,0,0,0,0,0,0,0,-1,636,1590,0,0
-581,-566,0,0,0,0,0,0,0,0,0,-1,643,1590,0,0
-574,-566,0,0,0,0,0,0,0,0,0,-1,650,1590,0,0
-567,-566,0,0,0,0,0,0,0,0,0,-1,657,1590,0,0
-560,-566,0,0,0,0,0,0,0,0,0,-1,664,1590,0,0
-553,-566,0,0,0,0,0,0,0,0,0,-1,671,1590,0,0
-546,-566,0,0,0,0,0,0,0,0,0,-1,678,1590,0,0
-539,-566,0,0,0,0,0,0,0,0,0,-1,685,1590,0,0
-532,-566,0,0,0,0,0,0,0,0,0,-1,692,1590,0,0
-525,-566,0,0,0,0,0,0,0,0,0,-1,699,1590,0,0
-518,-566,0,0,0,0,0,0,0,0,0,-1,706,1590,0,0
-511,-566,0,0,0,0,0,0,0,0,0,-1,713,1590,0,0
-504,-566,0,0,0,0,0,0,0,0,0,-1,720,1590,0,0
-497,-566,0,0,0,0,0,0,0,0,0,-1,727,1590,0,0
-490,-566,0,0,0,0,0,0,0,0,0,-1,734,1590,0,0
-483,-566,-7.17084,2.78613,0,0,0,0,0,0,0,-1,741,1590,-7.17083,-2.78618
-476,-566,-7.13971,2.87183,0,0,0,0,0,0,0,-1,748,1590,-7.13971,-2.87184
-469,-566,-6.43829,3.2998,0,0,0,0,0,0,0,-1,755,1590,-6.43829,-3.2998
-462,-566,-0.459106,3.89343,0,0,0,0,0,0,0,-1,762,1590,-0.459095,-3.89341
-455,-566,0.280212,4.74023,0,0,0,0,0,0,0,-1,769,1590,0.280207,-4.74023
-448,-566,0.436951,5.51306,0,0,0,0,0,0,0,-1,776,1590,0.436971,-5.51301
-441,-566,-0.440735,12.4063,0,0,0,0,0,0,0,-1,783,1590,-0.440753,-12.4062
-434,-566,-3.21851,33.5132,0,0,0,0,0,0,0,-1,790,1590,-3.21853,-33.5132
-427,-566,-3.8623,33.8759,0,0,0,0,0,0,0,-1,797,1590,-3.86232,-33.8758
-420,-566,-4.30438,34.3755,0,0,0,0,0,0,0,-1,804,1590,-4.30438,-34.3755
-413,-566,-4.15588,35.3375,-0.000253206,0.00184868,0.00110666,0.0023239,-0.00072843,1.16519,0.00184076,0.0388038,811,1590,-4.15589,-35.3375
-406,-566,-4.16071,36.1949,0.000172136,0.00163177,0.00143495,0.00251183,-0.000707924,1.02065,0.00195376,0.0167001,818,1590,-4.16073,-36.1949
-399,-566,-4.20477,37.0227,0.000473144,0.00148374,0.00157916,0.00263648,-0.000679592,0.94024,0.00202261,0.0124498,825,1590,-4.20476,-37.0227
-392,-566,-4.26978,37.8314,0.000765541,0.00137563,0.00162113,0.00272017,-0.000578997,0.878395,0.0020341,0.0153001,832,1590,-4.2698,-37.8314
-385,-566,-4.29297,38.6632,0.000976235,0.00137167,0.00150644,0.00269332,-0.000345409,0.850649,0.00192106,0.0164976,839,1590,-4.29297,-38.6633
-378,-566,-4.33734,39.4736,0.0013297,0.00148704,0.0014782,0.00288866,-7.19257e-05,0.811984,0.00195019,0.0155333,846,1590,-4.33733,-39.4736
-371,-566,-4.4386,40.2498,0.00166774,0.00141523,0.0011998,0.00274791,0.00033506,0.732976,0.0017311,0.0229198,853,1590,-4.43858,-40.2497
-364,-566,-4.45435,41.0511,0.00220453,0.00172112,0.00111153,0.00310033,0.000825318,0.678338,0.00185406,0.0243719,860,1590,-4.45435,-41.0512
-357,-566,-4.49579,41.8448,0.00282477,0.0019825,0.00102104,0.00350811,0.00129916,0.589797,0.00204799,0.0196629,867,1590,-4.49582,-41.8449
-350,-566,-4.52161,42.6213,0.00352234,0.00238832,0.00107221,0.00416823,0.00174243,0.542179,0.00241729,0.0214043,874,1590,-4.52163,-42.6213
-343,-566,-4.52667,43.4017,0.00417431,0.00258468,0.00109918,0.00473593,0.00202305,0.472368,0.00274394,0.0267397,881,1590,-4.52664,-43.4017
-336,-566,-4.69073,44.1801,0.00493318,0.00325755,0.00138698,0.00571575,0.00247498,0.5137,0.00330985,0.0322046,888,1590,-4.69073,-44.1801
-329,-566,-4.60681,44.8778,0.00587246,0.00389949,0.00178531,0.0069257,0.00284626,0.532996,0.00401963,0.0322662,895,1590,-4.60684,-44.8778
-322,-566,-4.47089,45.8617,0,0,0,0,0,0,0,-1,902,1590,-4.47089,-45.8616
-315,-566,-4.15967,46.8137,0,0,0,0,0,0,0,-1,909,1590,-4.15967,-46.8138
-308,-566,-0.127258,29.7607,0,0,0,0,0,0,0,-1,916,1590,-0.12725,-29.7608
-301,-566,0.424011,30.6545,0,0,0,0,0,0,0,-1,923,1590,0.424036,-30.6546
-294,-566,-2.54523,43.1459,0,0,0,0,0,0,0,-1,930,1590,-2.54522,-43.1458
-287,-566,1.25391,23.4589,0,0,0,0,0,0,0,-1,937,1590,1.2539,-23.4589
-280,-566,1.59406,17.8762,0,0,0,0,0,0,0,-1,944,1590,1.59405,-17.8762
-273,-566,0.49762,11.2427,0,0,0,0,0,0,0,-1,951,1590,0.497591,-11.2426
-266,-566,0.392151,6.90295,0,0,0,0,0,0,0,-1,958,1590,0.392151,-6.90294
-259,-566,0.343628,6.47437,0,0,0,0,0,0,0,-1,965,1590,0.34363,-6.47438
-252,-566,-7.68311,1.01343,0,0,0,0,0,0,0,-1,972,1590,-7.68308,-1.01348
-245,-566,-11.1835,1.97522,0,0,0,0,0,0,0,-1,979,1590,-11.1835,-1.97527
-238,-566,-10.4883,2.40491,0,0,0,0,0,0,0,-1,986,1590,-10.4883,-2.40487
-231,-566,-7.41827,4.22803,0,0,0,0,0,0,0,-1,993,1590,-7.41827,-4.22803
-224,-566,-4.67188,6.30859,0,0,0,0,0,0,0,-1,1000,1590,-4.67185,-6.30853
-217,-566,-2.82867,7.52527,0,0,0,0,0,0,0,-1,1007,1590,-2.82869,-7.52531
-210,-566,-1.03436,8.67737,0,0,0,0,0,0,0,-1,1014,1590,-1.03439,-8.67733
-203,-566,0,0,0,0,0,0,0,0,0,-1,1021,1590,0,0
-196,-566,0,0,0,0,0,0,0,0,0,-1,1028,1590,0,0
-189,-566,0,0,0,0,0,0,0,0,0,-1,1035,1590,0,0
-182,-566,0,0,0,0,0,0,0,0,0,-1,1042,1590,0,0
-175,-566,0,0,0,0,0,0,0,0,0,-1,1049,1590,0,0
-168,-566,0,0,0,0,0,0,0,0,0,-1,1056,1590,0,0
-161,-566,0,0,0,0,0,0,0,0,0,-1,1063,1590,0,0
-154,-566,0,0,0,0,0,0,0,0,0,-1,1070,1590,0,0
-147,-566,0,0,0,0,0,0,0,0,0,-1,1077,1590,0,0
-140,-566,0,0,0,0,0,0,0,0,0,-1,1084,1590,0,0
-133,-566,0,0,0,0,0,0,0,0,0,-1,1091,1590,0,0
-126,-566,0,0,0,0,0,0,0,0,0,-1,1098,1590,0,0
-119,-566,0,0,0,0,0,0,0,0,0,-1,1105,1590,0,0
-112,-566,0,0,0,0,0,0,0,0,0,-1,1112,1590,0,0
-105,-566,0,0,0,0,0,0,0,0,0,-1,1119,1590,0,0
-98,-566,0,0,0,0,0,0,0,0,0,-1,1126,1590,0,0
-91,-566,0,0,0,0,0,0,0,0,0,-1,1133,1590,0,0
-84,-566,0,0,0,0,0,0,0,0,0,-1,1140,1590,0,0
-77,-566,0,0,0,0,0,0,0,0,0,-1,1147,1590,0,0
-70,-566,0,0,0,0,0,0,0,0,0,-1,1154,1590,0,0
-63,-566,0,0,0,0,0,0,0,0,0,-1,1161,1590,0,0
-56,-566,0,0,0,0,0,0,0,0,0,-1,1168,1590,0,0
-49,-566,0,0,0,0,0,0,0,0,0,-1,1175,1590,0,0
-42,-566,0,0,0,0,0,0,0,0,0,-1,1182,1590,0,0
-35,-566,0,0,0,0,0,0,0,0,0,-1,1189,1590,0,0
-28,-566,0,0,0,0,0,0,0,0,0,-1,1196,1590,0,0
-21,-566,0,0,0,0,0,0,0,0,0,-1,1203,1590,0,0
-14,-566,0,0,0,0,0,0,0,0,0,-1,1210,1590,0,0
-7,-566,0,0,0,0,0,0,0,0,0,-1,1217,1590,0,0
0,-566,0,0,0,0,0,0,0,0,0,-1,1224,1590,0,0
7,-566,0,0,0,0,0,0,0,0,0,-1,1231,1590,0,0
14,-566,0,0,0,0,0,0,0,0,0,-1,1238,1590,0,0
21,-566,0,0,0,0,0,0,0,0,0,-1,1245,1590,0,0
28,-566,0,0,0,0,0,0,0,0,0,-1,1252,1590,0,0
35,-566,0,0,0,0,0,0,0,0,0,-1,1259,1590,0,0
42,-566,0,0,0,0,0,0,0,0,0,-1,1266,1590,0,0
49,-566,0,0,0,0,0,0,0,0,0,-1,1273,1590,0,0
56,-566,0,0,0,0,0,0,0,0,0,-1,1280,1590,0,0
63,-566,0,0,0,0,0,0,0,0,0,-1,1287,1590,0,0
70,-566,0,0,0,0,0,0,0,0,0,-1,1294,1590,0,0
77,-566,0,0,0,0,0,0,0,0,0,-1,1301,1590,0,0
84,-566,0,0,0,0,0,0,0,0,0,-1,1308,1590,0,0
91,-566,0,0,0,0,0,0,0,0,0,-1,1315,1590,0,0
98,-566,0,0,0,0,0,0,0,0,0,-1,1322,1590,0,0
105,-566,0,0,0,0,0,0,0,0,0,-1,1329,1590,0,0
112,-566,0,0,0,0,0,0,0,0,0,-1,1336,1590,0,0
119,-566,0,0,0,0,0,0,0,0,0,-1,1343,1590,0,0
126,-566,0,0,0,0,0,0,0,0,0,-1,1350,1590,0,0
133,-566,0,0,0,0,0,0,0,0,0,-1,1357,1590,0,0
140,-566,0,0,0,0,0,0,0,0,0,-1,1364,1590,0,0
147,-566,0,0,0,0,0,0,0,0,0,-1,1371,1590,0,0
154,-566,0,0,0,0,0,0,0,0,0,-1,1378,1590,0,0
161,-566,0,0,0,0,0,0,0,0,0,-1,1385,1590,0,0
168,-566,0,0,0,0,0,0,0,0,0,-1,1392,1590,0,0
175,-566,0,0,0,0,0,0,0,0,0,-1,1399,1590,0,0
182,-566,0,0,0,0,0,0,0,0,0,-1,1406,1590,0,0
189,-566,0,0,0,0,0,0,0,0,0,-1,1413,1590,0,0
196,-566,0,0,0,0,0,0,0,0,0,-1,1420,1590,0,0
203,-566,0,0,0,0,0,0,0,0,0,-1,1427,1590,0,0
210,-566,0,0,0,0,0,0,0,0,0,-1,1434,1590,0,0
217,-566,0,0,0,0,0,0,0,0,0,-1,1441,1590,0,0
224,-566,0,0,0,0,0,0,0,0,0,-1,1448,1590,0,0
231,-566,0,0,0,0,0,0,0,0,0,-1,1455,1590,0,0
238,-566,0,0,0,0,0,0,0,0,0,-1,1462,1590,0,0
245,-566,0,0,0,0,0,0,0,0,0,-1,1469,1590,0,0
252,-566,0,0,0,0,0,0,0,0,0,-1,1476,1590,0,0
259,-566,0,0,0,0,0,0,0,0,0,-1,1483,1590,0,0
266,-566,0,0,0,0,0,0,0,0,0,-1,1490,1590,0,0
273,-566,0,0,0,0,0,0,0,0,0,-1,1497,1590,0,0
280,-566,0,0,0,0,0,0,0,0,0,-1,1504,1590,0,0
287,-566,0,0,0,0,0,0,0,0,0,-1,1511,1590,0,0
294,-566,0,0,0,0,0,0,0,0,0,-1,1518,1590,0,0
301,-566,0,0,0,0,0,0,0,0,0,-1,1525,1590,0,0
308,-566,0,0,0,0,0,0,0,0,0,-1,1532,1590,0,0
315,-566,0,0,0,0,0,0,0,0,0,-1,1539,1590,0,0
322,-566,6.07983,4.44873,0,0,0,0,0,0,0,-1,1546,1590,6.07983,-4.44873
329,-566,5.77026,3.47534,0,0,0,0,0,0,0,-1,1553,1590,5.77026,-3.47535
336,-566,5.41138,2.62915,0,0,0,0,0,0,0,-1,1560,1590,5.41138,-2.62909
343,-566,4.81873,1.79089,0,0,0,0,0,0,0,-1,1567,1590,4.81878,-1.79095
350,-566,24.2104,52.894,0,0,0,0,0,0,0,-1,1574,1590,24.2105,-52.8941
357,-566,6.34058,5.18579,0,0,0,0,0,0,0,-1,1581,1590,6.34059,-5.1858
364,-566,6.06262,4.20251,0,0,0,0,0,0,0,-1,1588,1590,6.06259,-4.20246
371,-566,5.78455,3.21912,0,0,0,0,0,0,0,-1,1595,1590,5.7846,-3.21912
378,-566,5.7439,0.695557,0,0,0,0,0,0,0,-1,1602,1590,5.74392,-0.695531
385,-566,5.67615,-0.573975,0,0,0,0,0,0,0,-1,1609,1590,5.67612,0.573956
392,-566,5.78638,1.82434,0,0,0,0,0,0,0,-1,1616,1590,5.78637,-1.82439
399,-566,18.6853,38.6455,0,0,0,0,0,0,0,-1,1623,1590,18.6853,-38.6456
406,-566,4.30359,5.26868,0,0,0,0,0,0,0,-1,1630,1590,4.30364,-5.26867
413,-566,4.27124,5.79492,0,0,0,0,0,0,0,-1,1637,1590,4.27123,-5.7949
420,-566,18.0121,32.5314,0,0,0,0,0,0,0,-1,1644,1590,18.0121,-32.5313
427,-566,19.4491,36.9315,0,0,0,0,0,0,0,-1,1651,1590,19.4491,-36.9315
434,-566,19.338,36.7385,0,0,0,0,0,0,0,-1,1658,1590,19.338,-36.7386
441,-566,15.5841,27.5869,0,0,0,0,0,0,0,-1,1665,1590,15.5842,-27.587
448,-566,21.8796,45.052,0,0,0,0,0,0,0,-1,1672,1590,21.8797,-45.052
455,-566,22.3259,45.4293,0,0,0,0,0,0,0,-1,1679,1590,22.3259,-45.4293
462,-566,22.3633,44.297,0,0,0,0,0,0,0,-1,1686,1590,22.3633,-44.2969
469,-566,22.4526,43.4449,0.00769528,0.00712147,-0.00458239,0.0119997,0.00281701,-0.754134,0.00724572,0.0223214,1693,1590,22.4527,-43.4449
476,-566,22.5168,42.6052,0.00665405,0.00592553,-0.00410188,0.0104078,0.00217177,-0.741113,0.00633985,0.011432,1700,1590,22.5169,-42.6052
483,-566,22.5009,41.8204,0.00558309,0.0048599,-0.00345854,0.00869889,0.0017441,-0.733312,0.00531416,0.0111905,1707,1590,22.5008,-41.8204
490,-566,22.4779,41.0372,0.00445143,0.00391931,-0.00281137,0.0070093,0.00136144,-0.73822,0.00429165,0.0130573,1714,1590,22.4779,-41.0372
497,-566,22.4989,40.2767,0.00329111,0.00294052,-0.00221436,0.00533711,0.000894523,-0.7459,0.00330055,0.0159629,1721,1590,22.4989,-40.2768
504,-566,22.4291,39.519,0.00230076,0.00216107,-0.00178504,0.00401732,0.000444504,-0.765843,0.00254303,0.0210459,1728,1590,22.429,-39.519
511,-566,22.3356,38.7372,0.00139129,0.00139785,-0.00136339,0.00275796,3.11784e-05,-0.7866,0.00182834,0.0217797,1735,1590,22.3355,-38.7371
518,-566,22.313,37.9581,0.00057669,0.000756123,-0.00107219,0.00174234,-0.000409532,-0.827139,0.00131943,0.0131706,1742,1590,22.313,-37.9582
525,-566,22.2577,37.1482,-0.000112231,0.000169385,-0.00083936,0.000879666,-0.000822512,-0.868503,0.000982937,0.0125363,1749,1590,22.2577,-37.1482
532,-566,22.2201,36.3219,-0.000538288,-0.000278597,-0.000745895,0.00034867,-0.00116555,-0.871575,0.000915662,0.0142603,1756,1590,22.2201,-36.3219
539,-566,22.1824,35.498,-0.000771827,-0.000712692,-0.000754915,1.32343e-05,-0.00149775,-0.804971,0.00100294,0.0199631,1763,1590,22.1824,-35.498
546,-566,22.2059,34.6351,-0.000733039,-0.000959676,-0.000884601,4.54719e-05,-0.00173819,-0.721694,0.00117424,0.0256679,1770,1590,22.206,-34.6351
553,-566,22.1819,34.0348,-0.000343074,-0.000987299,-0.0012459,0.000621682,-0.00195205,-0.658899,0.00155071,0.0385897,1777,1590,22.1819,-34.0348
560,-566,21.9384,33.4106,0,0,0,0,0,0,0,-1,1784,1590,21.9383,-33.4106
567,-566,21.8226,32.6263,0,0,0,0,0,0,0,-1,1791,1590,21.8226,-32.6264
574,-566,7.99548,3.14514,0,0,0,0,0,0,0,-1,1798,1590,7.99543,-3.14511
581,-566,2.54102,5.1311,0,0,0,0,0,0,0,-1,1805,1590,2.54099,-5.13111
588,-566,-1.91321,8.39197,0,0,0,0,0,0,0,-1,1812,1590,-1.91316,-8.39199
595,-566,9.0271,4.66467,0,0,0,0,0,0,0,-1,1819,1590,9.02705,-4.66468
602,-566,9.953,3.54895,0,0,0,0,0,0,0,-1,1826,1590,9.953,-3.54898
609,-566,0,0,0,0,0,0,0,0,0,-1,1833,1590,0,0
616,-566,0,0,0,0,0,0,0,0,0,-1,1840,1590,0,0
623,-566,0,0,0,0,0,0,0,0,0,-1,1847,1590,0,0
630,-566,0,0,0,0,0,0,0,0,0,-1,1854,1590,0,0
637,-566,0,0,0,0,0,0,0,0,0,-1,1861,1590,0,0
644,-566,0,0,0,0,0,0,0,0,0,-1,1868,1590,0,0
651,-566,0,0,0,0,0,0,0,0,0,-1,1875,1590,0,0
658,-566,0,0,0,0,0,0,0,0,0,-1,1882,1590,0,0
665,-566,0,0,0,0,0,0,0,0,0,-1,1889,1590,0,0
672,-566,0,0,0,0,0,0,0,0,0,-1,1896,1590,0,0
679,-566,0,0,0,0,0,0,0,0,0,-1,1903,1590,0,0
686,-566,0,0,0,0,0,0,0,0,0,-1,1910,1590,0,0
693,-566,0,0,0,0,0,0,0,0,0,-1,1917,1590,0,0
700,-566,0,0,0,0,0,0,0,0,0,-1,1924,1590,0,0
707,-566,0,0,0,0,0,0,0,0,0,-1,1931,1590,0,0
714,-566,0,0,0,0,0,0,0,0,0,-1,1938,1590,0,0
721,-566,0,0,0,0,0,0,0,0,0,-1,1945,1590,0,0
728,-566,0,0,0,0,0,0,0,0,0,-1,1952,1590,0,0
735,-566,0,0,0,0,0,0,0,0,0,-1,1959,1590,0,0
742,-566,0,0,0,0,0,0,0,0,0,-1,1966,1590,0,0
749,-566,0,0,0,0,0,0,0,0,0,-1,1973,1590,0,0
756,-566,0,0,0,0,0,0,0,0,0,-1,1980,1590,0,0
763,-566,0,0,0,0,0,0,0,0,0,-1,1987,1590,0,0
770,-566,0,0,0,0,0,0,0,0,0,-1,1994,1590,0,0
777,-566,0,0,0,0,0,0,0,0,0,-1,2001,1590,0,0
784,-566,0,0,0,0,0,0,0,0,0,-1,2008,1590,0,0
791,-566,0,0,0,0,0,0,0,0,0,-1,2015,1590,0,0
798,-566,0,0,0,0,0,0,0,0,0,-1,2022,1590,0,0
805,-566,0,0,0,0,0,0,0,0,0,-1,2029,1590,0,0
812,-566,0,0,0,0,0,0,0,0,0,-1,2036,1590,0,0
-700,-573,0,0,0,0,0,0,0,0,0,-1,524,1597,0,0
-693,-573,0,0,0,0,0,0,0,0,0,-1,531,1597,0,0
-686,-573,0,0,0,0,0,0,0,0,0,-1,538,1597,0,0
-679,-573,0,0,0,0,0,0,0,0,0,-1,545,1597,0,0
-672,-573,0,0,0,0,0,0,0,0,0,-1,552,1597,0,0
-665,-573,0,0,0,0,0,0,0,0,0,-1,559,1597,0,0
-658,-573,0,0,0,0,0,0,0,0,0,-1,566,1597,0,0
-651,-573,0,0,0,0,0,0,0,0,0,-1,573,1597,0,0
-644,-573,0,0,0,0,0,0,0,0,0,-1,580,1597,0,0
-637,-573,0,0,0,0,0,0,0,0,0,-1,587,1597,0,0
-630,-573,0,0,0,0,0,0,0,0,0,-1,594,1597,0,0
-623,-573,0,0,0,0,0,0,0,0,0,-1,601,1597,0,0
-616,-573,0,0,0,0,0,0,0,0,0,-1,608,1597,0,0
-609,-573,0,0,0,0,0,0,0,0,0,-1,615,1597,0,0
-602,-573,0,0,0,0,0,0,0,0,0,-1,622,1597,0,0
-595,-573,0,0,0,0,0,0,0,0,0,-1,629,1597,0,0
-588,-573,0,0,0,0,0,0,0,0,0,-1,636,1597,0,0
-581,-573,0,0,0,0,0,0,0,0,0,-1,643,1597,0,0
-574,-573,0,0,0,0,0,0,0,0,0,-1,650,1597,0,0
-567,-573,0,0,0,0,0,0,0,0,0,-1,657,1597,0,0
-560,-573,0,0,0,0,0,0,0,0,0,-1,664,1597,0,0
-553,-573,0,0,0,0,0,0,0,0,0,-1,671,1597,0,0
-546,-573,0,0,0,0,0,0,0,0,0,-1,678,1597,0,0
-539,-573,0,0,0,0,0,0,0,0,0,-1,685,1597,0,0
-532,-573,0,0,0,0,0,0,0,0,0,-1,692,1597,0,0
-525,-573,0,0,0,0,0,0,0,0,0,-1,699,1597,0,0
-518,-573,0,0,0,0,0,0,0,0,0,-1,706,1597,0,0
-511,-573,0,0,0,0,0,0,0,0,0,-1,713,1597,0,0
-504,-573,0,0,0,0,0,0,0,0,0,-1,720,1597,0,0
-497,-573,0,0,0,0,0,0,0,0,0,-1,727,1597,0,0
-490,-573,0,0,0,0,0,0,0,0,0,-1,734,1597,0,0
-483,-573,0,0,0,0,0,0,0,0,0,-1,741,1597,0,0
-476,-573,-9.3327,0.972778,0,0,0,0,0,0,0,-1,748,1597,-9.33268,-0.972776
-469,-573,-1.41681,1.13379,0,0,0,0,0,0,0,-1,755,1597,-1.41681,-1.13382
-462,-573,-0.748535,2.02588,0,0,0,0,0,0,0,-1,762,1597,-0.748533,-2.02584
-455,-573,-0.112976,2.70703,0,0,0,0,0,0,0,-1,769,1597,-0.112988,-2.70697
-448,-573,-1.26172,3.33252,0,0,0,0,0,0,0,-1,776,1597,-1.26173,-3.33248
-441,-573,0.108582,5.06726,0,0,0,0,0,0,0,-1,783,1597,0.108584,-5.06721
-434,-573,1.61768,7.05444,0,0,0,0,0,0,0,-1,790,1597,1.61767,-7.05446
-427,-573,-1.37927,24.4124,0,0,0,0,0,0,0,-1,797,1597,-1.37928,-24.4124
-420,-573,-1.15186,28.0936,0,0,0,0,0,0,0,-1,804,1597,-1.15185,-28.0936
-413,-573,-3.43982,34.9781,0,0,0,0,0,0,0,-1,811,1597,-3.43985,-34.9782
-406,-573,-3.35608,36.1079,0.000301278,0.00237013,0.00217582,0.0037449,-0.00107349,1.00729,0.00292094,0.0496199,818,1597,-3.3561,-36.1079
-399,-573,-3.43103,37.053,0.000532502,0.00202033,0.00227611,0.00367101,-0.00111818,0.943344,0.00289302,0.0201063,825,1597,-3.43102,-37.0529
-392,-573,-3.45441,37.9058,0.00078122,0.00170327,0.00222786,0.00351731,-0.00103282,0.887426,0.00275446,0.0150216,832,1597,-3.45442,-37.9058
-385,-573,-3.50531,38.7172,0.000914042,0.00155297,0.00204196,0.00330031,-0.000833296,0.862994,0.00252424,0.0158918,839,1597,-3.50531,-38.7172
-378,-573,-3.54974,39.5043,0.00117029,0.00157616,0.00195697,0.00334069,-0.00059424,0.837063,0.00244935,0.0150773,846,1597,-3.54973,-39.5043
-371,-573,-3.59656,40.3054,0.00137331,0.0013476,0.0015582,0.00291871,-0.000197805,0.781274,0.00201498,0.0177988,853,1597,-3.59653,-40.3055
-364,-573,-3.6806,41.0781,0.00172458,0.00143917,0.00131562,0.00290521,0.000258543,0.731374,0.00185664,0.0211043,860,1597,-3.68062,-41.0781
-357,-573,-3.72461,41.85,0.0021837,0.0015504,0.0011145,0.00302567,0.000708438,0.646987,0.00182733,0.023507,867,1597,-3.7246,-41.85
-350,-573,-3.72296,42.7064,0.00274184,0.00176669,0.0010453,0.00340768,0.00110085,0.567175,0.00200807,0.0181311,874,1597,-3.72294,-42.7064
-343,-573,-3.72656,43.4946,0.00327196,0.00188044,0.000991052,0.0037871,0.00136531,0.479351,0.00221466,0.0229737,881,1597,-3.72655,-43.4946
-336,-573,-3.80743,44.2935,0.00386708,0.00243315,0.00117926,0.00453022,0.00177002,0.512265,0.00263627,0.0188144,888,1597,-3.80742,-44.2935
-329,-573,-3.82458,45.0275,0.00458264,0.00292621,0.00145056,0.00542477,0.00208408,0.526002,0.00315988,0.0193134,895,1597,-3.82461,-45.0275
-322,-573,-3.85529,45.8237,0.00541524,0.00357866,0.0020039,0.00670123,0.00229267,0.570551,0.00393272,0.0190962,902,1597,-3.85529,-45.8237
-315,-573,-3.69525,46.8534,0.00610413,0.00474044,0.00295329,0.00845327,0.0023913,0.671948,0.00503153,0.0479233,909,1597,-3.69523,-46.8535
-308,-573,-3.28571,47.9657,0,0,0,0,0,0,0,-1,916,1597,-3.2857,-47.9657
-301,-573,-3.58124,48.4656,0,0,0,0,0,0,0,-1,923,1597,-3.58127,-48.4656
-294,-573,-3.48077,48.9647,0,0,0,0,0,0,0,-1,930,1597,-3.48078,-48.9648
-287,-573,-2.00739,43.4723,0,0,0,0,0,0,0,-1,937,1597,-2.00739,-43.4723
-280,-573,1.19684,26.4906,0,0,0,0,0,0,0,-1,944,1597,1.19685,-26.4906
-273,-573,2.24805,25.4375,0,0,0,0,0,0,0,-1,951,1597,2.24803,-25.4374
-266,-573,1.31116,7.1814,0,0,0,0,0,0,0,-1,958,1597,1.31118,-7.18142
-259,-573,1.2514,6.70959,0,0,0,0,0,0,0,-1,965,1597,1.25137,-6.70965
-252,-573,2.07874,5.27161,0,0,0,0,0,0,0,-1,972,1597,2.07875,-5.27157
-245,-573,-10.2592,1.09827,0,0,0,0,0,0,0,-1,979,1597,-10.2592,-1.09823
-238,-573,-11.5463,4.44141,0,0,0,0,0,0,0,-1,986,1597,-11.5463,-4.44146
-231,-573,-9.23431,4.14539,0,0,0,0,0,0,0,-1,993,1597,-9.23431,-4.14534
-224,-573,-6.70044,7.40857,0,0,0,0,0,0,0,-1,1000,1597,-6.70045,-7.40851
-217,-573,-4.25824,8.59119,0,0,0,0,0,0,0,-1,1007,1597,-4.25824,-8.59122
-210,-573,-2.39661,9.73914,0,0,0,0,0,0,0,-1,1014,1597,-2.39658,-9.73915
-203,-573,-0.557373,10.9005,0,0,0,0,0,0,0,-1,1021,1597,-0.557387,-10.9006
-196,-573,-1.65344,9.02246,0,0,0,0,0,0,0,-1,1028,1597,-1.65349,-9.02241
-189,-573,-6.12915,6.66882,0,0,0,0,0,0,0,-1,1035,1597,-6.12913,-6.66884
-182,-573,0,0,0,0,0,0,0,0,0,-1,1042,1597,0,0
-175,-573,0,0,0,0,0,0,0,0,0,-1,1049,1597,0,0
-168,-573,0,0,0,0,0,0,0,0,0,-1,1056,1597,0,0
-161,-573,0,0,0,0,0,0,0,0,0,-1,1063,1597,0,0
-154,-573,0,0,0,0,0,0,0,0,0,-1,1070,1597,0,0
-147,-573,0,0,0,0,0,0,0,0,0,-1,1077,1597,0,0
-140,-573,0,0,0,0,0,0,0,0,0,-1,1084,1597,0,0
-133,-573,0,0,0,0,0,0,0,0,0,-1,1091,1597,0,0
-126,-573,0,0,0,0,0,0,0,0,0,-1,1098,1597,0,0
-119,-573,0,0,0,0,0,0,0,0,0,-1,1105,1597,0,0
-112,-573,0,0,0,0,0,0,0,0,0,-1,1112,1597,0,0
-105,-573,0,0,0,0,0,0,0,0,0,-1,1119,1597,0,0
-98,-573,0,0,0,0,0,0,0,0,0,-1,1126,1597,0,0
-91,-573,0,0,0,0,0,0,0,0,0,-1,1133,1597,0,0
-84,-573,0,0,0,0,0,0,0,0,0,-1,1140,1597,0,0
-77,-573,0,0,0,0,0,0,0,0,0,-1,1147,1597,0,0
-70,-573,0,0,0,0,0,0,0,0,0,-1,1154,1597,0,0
-63,-573,0,0,0,0,0,0,0,0,0,-1,1161,1597,0,0
-56,-573,0,0,0,0,0,0,0,0,0,-1,1168,1597,0,0
-49,-573,0,0,0,0,0,0,0,0,0,-1,1175,1597,0,0
-42,-573,0,0,0,0,0,0,0,0,0,-1,1182,1597,0,0
-35,-573,0,0,0,0,0,0,0,0,0,-1,1189,1597,0,0
-28,-573,0,0,0,0,0,0,0,0,0,-1,1196,1597,0,0
-21,-573,0,0,0,0,0,0,0,0,0,-1,1203,1597,0,0
-14,-573,0,0,0,0,0,0,0,0,0,-1,1210,1597,0,0
-7,-573,0,0,0,0,0,0,0,0,0,-1,1217,1597,0,0
0,-573,0,0,0,0,0,0,0,0,0,-1,1224,1597,0,0
7,-573,0,0,0,0,0,0,0,0,0,-1,1231,1597,0,0
14,-573,0,0,0,0,0,0,0,0,0,-1,1238,1597,0,0
21,-573,0,0,0,0,0,0,0,0,0,-1,1245,1597,0,0
28,-573,0,0,0,0,0,0,0,0,0,-1,1252,1597,0,0
35,-573,0,0,0,0,0,0,0,0,0,-1,1259,1597,0,0
42,-573,0,0,0,0,0,0,0,0,0,-1,1266,1597,0,0
49,-573,0,0,0,0,0,0,0,0,0,-1,1273,1597,0,0
56,-573,0,0,0,0,0,0,0,0,0,-1,1280,1597,0,0
63,-573,0,0,0,0,0,0,0,0,0,-1,1287,1597,0,0
70,-573,0,0,0,0,0,0,0,0,0,-1,1294,1597,0,0
77,-573,0,0,0,0,0,0,0,0,0,-1,1301,1597,0,0
84,-573,0,0,0,0,0,0,0,0,0,-1,1308,1597,0,0
91,-573,0,0,0,0,0,0,0,0,0,-1,1315,1597,0,0
98,-573,0,0,0,0,0,0,0,0,0,-1,1322,1597,0,0
105,-573,0,0,0,0,0,0,0,0,0,-1,1329,1597,0,0
112,-573,0,0,0,0,0,0,0,0,0,-1,1336,1597,0,0
119,-573,0,0,0,0,0,0,0,0,0,-1,1343,1597,0,0
126,-573,0,0,0,0,0,0,0,0,0,-1,1350,1597,0,0
133,-573,0,0,0,0,0,0,0,0,0,-1,1357,1597,0,0
140,-573,0,0,0,0,0,0,0,0,0,-1,1364,1597,0,0
147,-573,0,0,0,0,0,0,0,0,0,-1,1371,1597,0,0
154,-573,0,0,0,0,0,0,0,0,0,-1,1378,1597,0,0
161,-573,0,0,0,0,0,0,0,0,0,-1,1385,1597,0,0
168,-573,0,0,0,0,0,0,0,0,0,-1,1392,1597,0,0
175,-573,0,0,0,0,0,0,0,0,0,-1,1399,1597,0,0
182,-573,0,0,0,0,0,0,0,0,0,-1,1406,1597,0,0
189,-573,0,0,0,0,0,0,0,0,0,-1,1413,1597,0,0
196,-573,0,0,0,0,0,0,0,0,0,-1,1420,1597,0,0
203,-573,0,0,0,0,0,0,0,0,0,-1,1427,1597,0,0
210,-573,0,0,0,0,0,0,0,0,0,-1,1434,1597,0,0
217,-573,0,0,0,0,0,0,0,0,0,-1,1441,1597,0,0
224,-573,0,0,0,0,0,0,0,0,0,-1,1448,1597,0,0
231,-573,0,0,0,0,0,0,0,0,0,-1,1455,1597,0,0
238,-573,0,0,0,0,0,0,0,0,0,-1,1462,1597,0,0
245,-573,0,0,0,0,0,0,0,0,0,-1,1469,1597,0,0
252,-573,0,0,0,0,0,0,0,0,0,-1,1476,1597,0,0
259,-573,0,0,0,0,0,0,0,0,0,-1,1483,1597,0,0
266,-573,0,0,0,0,0,0,0,0,0,-1,1490,1597,0,0
273,-573,0,0,0,0,0,0,0,0,0,-1,1497,1597,0,0
280,-573,0,0,0,0,0,0,0,0,0,-1,1504,1597,0,0
287,-573,0,0,0,0,0,0,0,0,0,-1,1511,1597,0,0
294,-573,0,0,0,0,0,0,0,0,0,-1,1518,1597,0,0
301,-573,0,0,0,0,0,0,0,0,0,-1,1525,1597,0,0
308,-573,5.93042,9.71143,0,0,0,0,0,0,0,-1,1532,1597,5.93046,-9.71144
315,-573,4.34204,11.719,0,0,0,0,0,0,0,-1,1539,1597,4.34205,-11.719
322,-573,10.3269,7.77563,0,0,0,0,0,0,0,-1,1546,1597,10.327,-7.77565
329,-573,4.99573,3.80273,0,0,0,0,0,0,0,-1,1553,1597,4.9957,-3.80273
336,-573,4.85693,2.53455,0,0,0,0,0,0,0,-1,1560,1597,4.8569,-2.53459
343,-573,21.4159,52.1832,0,0,0,0,0,0,0,-1,1567,1597,21.4159,-52.1833
350,-573,21.6807,52.4836,0,0,0,0,0,0,0,-1,1574,1597,21.6806,-52.4836
357,-573,21.9453,52.7841,0,0,0,0,0,0,0,-1,1581,1597,21.9453,-52.784
364,-573,7.14551,3.02087,0,0,0,0,0,0,0,-1,1588,1597,7.14556,-3.02084
371,-573,6.88867,2.00549,0,0,0,0,0,0,0,-1,1595,1597,6.88868,-2.00553
378,-573,8.62012,6.09106,0,0,0,0,0,0,0,-1,1602,1597,8.62012,-6.09103
385,-573,6.54346,-0.951904,0,0,0,0,0,0,0,-1,1609,1597,6.54349,0.951901
392,-573,17.5164,38.3645,0,0,0,0,0,0,0,-1,1616,1597,17.5164,-38.3645
399,-573,20.5255,42.9893,0,0,0,0,0,0,0,-1,1623,1597,20.5255,-42.9893
406,-573,20.2545,44.7974,0,0,0,0,0,0,0,-1,1630,1597,20.2545,-44.7974
413,-573,19.0908,43.9061,0,0,0,0,0,0,0,-1,1637,1597,19.0908,-43.9062
420,-573,18.8063,37.0011,0,0,0,0,0,0,0,-1,1644,1597,18.8063,-37.0011
427,-573,20.4286,42.2079,0,0,0,0,0,0,0,-1,1651,1597,20.4285,-42.2079
434,-573,21.7727,47.5009,0,0,0,0,0,0,0,-1,1658,1597,21.7728,-47.5009
441,-573,21.6106,47.1132,0,0,0,0,0,0,0,-1,1665,1597,21.6106,-47.1132
448,-573,21.7147,46.0364,0,0,0,0,0,0,0,-1,1672,1597,21.7148,-46.0364
455,-573,21.767,45.0759,0.00674317,0.00796509,-0.00457406,0.0119688,0.00273945,-0.85179,0.0072409,0.0365058,1679,1597,21.767,-45.076
462,-573,21.8231,44.1294,0.00642089,0.00642409,-0.00396252,0.010385,0.00245997,-0.7856,0.00626642,0.0230096,1686,1597,21.8231,-44.1294
469,-573,21.8035,43.3754,0.0057985,0.00531757,-0.00343448,0.00900093,0.00211515,-0.750448,0.00543455,0.0161213,1693,1597,21.8035,-43.3754
476,-573,21.7948,42.6274,0.00496746,0.00441251,-0.00309382,0.00779622,0.00158375,-0.740675,0.00475824,0.0150404,1700,1597,21.7948,-42.6274
483,-573,21.7825,41.8612,0.00410446,0.00352772,-0.00264242,0.0064742,0.00115798,-0.731048,0.0039866,0.0139684,1707,1597,21.7825,-41.8612
490,-573,21.7379,41.072,0.00317136,0.00277339,-0.00216578,0.00514728,0.000797477,-0.739588,0.003199,0.0157895,1714,1597,21.7379,-41.072
497,-573,21.7312,40.2848,0.0022069,0.00200437,-0.00173481,0.0038434,0.000367869,-0.756246,0.00244887,0.0237498,1721,1597,21.7311,-40.2848
504,-573,21.6659,39.5298,0.00136022,0.00131239,-0.00141498,0.00275149,-7.88803e-05,-0.776948,0.00186118,0.0182773,1728,1597,21.6659,-39.5297
511,-573,21.5947,38.7244,0.000563662,0.000672052,-0.00109655,0.00171575,-0.000480036,-0.810089,0.00133298,0.0178087,1735,1597,21.5948,-38.7244
518,-573,21.528,37.9734,-0.00015579,9.73158e-05,-0.000872045,0.000851942,-0.000910417,-0.857456,0.00101769,0.0142365,1742,1597,21.5279,-37.9734
525,-573,21.4924,37.1986,-0.000748182,-0.000432878,-0.000707677,0.000134495,-0.00131556,-0.894995,0.000925133,0.0171295,1749,1597,21.4924,-37.1985
532,-573,21.4696,36.3722,-0.00108122,-0.00084217,-0.000670696,-0.000280433,-0.00164296,-0.873579,0.00101483,0.0164532,1756,1597,21.4695,-36.3722
539,-573,21.3696,35.5791,-0.00121963,-0.00134498,-0.000707657,-0.000571878,-0.00199273,-0.741232,0.0011848,0.0367651,1763,1597,21.3696,-35.5791
546,-573,21.5176,34.61,0,0,0,0,0,0,0,-1,1770,1597,21.5176,-34.61
553,-573,21.2251,34.2333,0,0,0,0,0,0,0,-1,1777,1597,21.2251,-34.2333
560,-573,20.9153,33.5891,0,0,0,0,0,0,0,-1,1784,1597,20.9153,-33.5891
567,-573,19.8645,28.3368,0,0,0,0,0,0,0,-1,1791,1597,19.8645,-28.3368
574,-573,0.83374,5.7041,0,0,0,0,0,0,0,-1,1798,1597,0.833718,-5.70405
581,-573,-0.224854,7.41602,0,0,0,0,0,0,0,-1,1805,1597,-0.224904,-7.41596
588,-573,-0.134033,7.67065,0,0,0,0,0,0,0,-1,1812,1597,-0.134037,-7.67063
595,-573,-0.0825195,8.35083,0,0,0,0,0,0,0,-1,1819,1597,-0.0824684,-8.35088
602,-573,0,0,0,0,0,0,0,0,0,-1,1826,1597,0,0
609,-573,0,0,0,0,0,0,0,0,0,-1,1833,1597,0,0
616,-573,0,0,0,0,0,0,0,0,0,-1,1840,1597,0,0
623,-573,0,0,0,0,0,0,0,0,0,-1,1847,1597,0,0
630,-573,0,0,0,0,0,0,0,0,0,-1,1854,1597,0,0
637,-573,0,0,0,0,0,0,0,0,0,-1,1861,1597,0,0
644,-573,0,0,0,0,0,0,0,0,0,-1,1868,1597,0,0
651,-573,0,0,0,0,0,0,0,0,0,-1,1875,1597,0,0
658,-573,0,0,0,0,0,0,0,0,0,-1,1882,1597,0,0
665,-573,0,0,0,0,0,0,0,0,0,-1,1889,1597,0,0
672,-573,0,0,0,0,0,0,0,0,0,-1,1896,1597,0,0
679,-573,0,0,0,0,0,0,0,0,0,-1,1903,1597,0,0
686,-573,0,0,0,0,0,0,0,0,0,-1,1910,1597,0,0
693,-573,0,0,0,0,0,0,0,0,0,-1,1917,1597,0,0
700,-573,0,0,0,0,0,0,0,0,0,-1,1924,1597,0,0
707,-573,0,0,0,0,0,0,0,0,0,-1,1931,1597,0,0
714,-573,0,0,0,0,0,0,0,0,0,-1,1938,1597,0,0
721,-573,0,0,0,0,0,0,0,0,0,-1,1945,1597,0,0
728,-573,0,0,0,0,0,0,0,0,0,-1,1952,1597,0,0
735,-573,0,0,0,0,0,0,0,0,0,-1,1959,1597,0,0
742,-573,0,0,0,0,0,0,0,0,0,-1,1966,1597,0,0
749,-573,0,0,0,0,0,0,0,0,0,-1,1973,1597,0,0
756,-573,0,0,0,0,0,0,0,0,0,-1,1980,1597,0,0
763,-573,0,0,0,0,0,0,0,0,0,-1,1987,1597,0,0
770,-573,0,0,0,0,0,0,0,0,0,-1,1994,1597,0,0
777,-573,0,0,0,0,0,0,0,0,0,-1,2001,1597,0,0
784,-573,0,0,0,0,0,0,0,0,0,-1,2008,1597,0,0
791,-573,0,0,0,0,0,0,0,0,0,-1,2015,1597,0,0
798,-573,0,0,0,0,0,0,0,0,0,-1,2022,1597,0,0
805,-573,0,0,0,0,0,0,0,0,0,-1,2029,1597,0,0
812,-573,0,0,0,0,0,0,0,0,0,-1,2036,1597,0,0
-700,-580,0,0,0,0,0,0,0,0,0,-1,524,1604,0,0
-693,-580,0,0,0,0,0,0,0,0,0,-1,531,1604,0,0
-686,-580,0,0,0,0,0,0,0,0,0,-1,538,1604,0,0
-679,-580,0,0,0,0,0,0,0,0,0,-1,545,1604,0,0
-672,-580,0,0,0,0,0,0,0,0,0,-1,552,1604,0,0
-665,-580,0,0,0,0,0,0,0,0,0,-1,559,1604,0,0
-658,-580,0,0,0,0,0,0,0,0,0,-1,566,1604,0,0
-651,-580,0,0,0,0,0,0,0,0,0,-1,573,1604,0,0
-644,-580,0,0,0,0,0,0,0,0,0,-1,580,1604,0,0
-637,-580,0,0,0,0,0,0,0,0,0,-1,587,1604,0,0
-630,-580,0,0,0,0,0,0,0,0,0,-1,594,1604,0,0
-623,-580,0,0,0,0,0,0,0,0,0,-1,601,1604,0,0
-616,-580,0,0,0,0,0,0,0,0,0,-1,608,1604,0,0
-609,-580,0,0,0,0,0,0,0,0,0,-1,615,1604,0,0
-602,-580,0,0,0,0,0,0,0,0,0,-1,622,1604,0,0
-595,-580,0,0,0,0,0,0,0,0,0,-1,629,1604,0,0
-588,-580,0,0,0,0,0,0,0,0,0,-1,636,1604,0,0
-581,-580,0,0,0,0,0,0,0,0,0,-1,643,1604,0,0
-574,-580,0,0,0,0,0,0,0,0,0,-1,650,1604,0,0
-567,-580,0,0,0,0,0,0,0,0,0,-1,657,1604,0,0
-560,-580,0,0,0,0,0,0,0,0,0,-1,664,1604,0,0
-553,-580,0,0,0,0,0,0,0,0,0,-1,671,1604,0,0
-546,-580,0,0,0,0,0,0,0,0,0,-1,678,1604,0,0
-539,-580,0,0,0,0,0,0,0,0,0,-1,685,1604,0,0
-532,-580,0,0,0,0,0,0,0,0,0,-1,692,1604,0,0
-525,-580,0,0,0,0,0,0,0,0,0,-1,699,1604,0,0
-518,-580,0,0,0,0,0,0,0,0,0,-1,706,1604,0,0
-511,-580,0,0,0,0,0,0,0,0,0,-1,713,1604,0,0
-504,-580,0,0,0,0,0,0,0,0,0,-1,720,1604,0,0
-497,-580,0,0,0,0,0,0,0,0,0,-1,727,1604,0,0
-490,-580,0,0,0,0,0,0,0,0,0,-1,734,1604,0,0
-483,-580,0,0,0,0,0,0,0,0,0,-1,741,1604,0,0
-476,-580,0,0,0,0,0,0,0,0,0,-1,748,1604,0,0
-469,-580,-1.69189,-0.38916,0,0,0,0,0,0,0,-1,755,1604,-1.69192,0.389188
-462,-580,-0.859863,0.675293,0,0,0,0,0,0,0,-1,762,1604,-0.859834,-0.675245
-455,-580,-0.730164,0.651978,0,0,0,0,0,0,0,-1,769,1604,-0.730153,-0.651957
-448,-580,-3.31891,2.07544,0,0,0,0,0,0,0,-1,776,1604,-3.3189,-2.07539
-441,-580,-1.63843,3.9469,0,0,0,0,0,0,0,-1,783,1604,-1.63842,-3.94695
-434,-580,0.23291,5.97876,0,0,0,0,0,0,0,-1,790,1604,0.232901,-5.97878
-427,-580,1.62756,8.05493,0,0,0,0,0,0,0,-1,797,1604,1.62758,-8.05488
-420,-580,0.986572,11.2383,0,0,0,0,0,0,0,-1,804,1604,0.986544,-11.2382
-413,-580,0.922913,21.5701,0,0,0,0,0,0,0,-1,811,1604,0.922905,-21.5701
-406,-580,-2.6109,36.0438,0,0,0,0,0,0,0,-1,818,1604,-2.61089,-36.0438
-399,-580,-2.7135,37.0393,0,0,0,0,0,0,0,-1,825,1604,-2.71353,-37.0393
-392,-580,-2.68256,37.951,0.000869953,0.00226604,0.00298383,0.0046324,-0.0014964,0.900303,0.00368964,0.0250426,832,1604,-2.68257,-37.9511
-385,-580,-2.72186,38.7583,0.000966648,0.00194772,0.00269516,0.00419663,-0.00128225,0.875416,0.00330904,0.0123307,839,1604,-2.72183,-38.7583
-378,-580,-2.74756,39.563,0.00112901,0.0018542,0.00250907,0.00402675,-0.00104353,0.857159,0.00309161,0.0136438,846,1604,-2.74756,-39.5629
-371,-580,-2.80145,40.3906,0.00119934,0.00146957,0.00197623,0.00331529,-0.000646385,0.81953,0.0024542,0.0140119,853,1604,-2.80148,-40.3907
-364,-580,-2.87677,41.1426,0.00136794,0.00132337,0.0015667,0.00291251,-0.000221205,0.778287,0.00201945,0.021036,860,1604,-2.87679,-41.1426
-357,-580,-2.9043,41.9033,0.00168484,0.00128115,0.00126268,0.0027617,0.000204284,0.706141,0.00177696,0.0146489,867,1604,-2.90427,-41.9034
-350,-580,-2.9408,42.7369,0.00212359,0.00132038,0.00108568,0.00287956,0.000564404,0.608249,0.00176197,0.0112581,874,1604,-2.94077,-42.7369
-343,-580,-2.9527,43.5304,0.0025508,0.00136449,0.000967445,0.00309245,0.000822838,0.510395,0.00184941,0.0123543,881,1604,-2.95271,-43.5304
-336,-580,-2.95734,44.2449,0.00301181,0.00178297,0.0010653,0.00362718,0.0011676,0.523821,0.00213798,0.0229474,888,1604,-2.95733,-44.2448
-329,-580,-3.02118,45.0624,0.00354588,0.00214608,0.00122945,0.00426069,0.00143127,0.526637,0.00250367,0.0197099,895,1604,-3.02119,-45.0624
-322,-580,-3.09283,45.8864,0.0042063,0.00267287,0.00163835,0.00524847,0.0016307,0.566547,0.00310175,0.019965,902,1604,-3.0928,-45.8863
-315,-580,-3.04224,46.6432,0.00482183,0.00363281,0.0024129,0.00671238,0.00174226,0.664611,0.00402199,0.0251531,909,1604,-3.04221,-46.6432
-308,-580,-3.1264,47.3756,0,0,0,0,0,0,0,-1,916,1604,-3.12642,-47.3756
-301,-580,-2.92041,48.1633,0.00599576,0.00754133,0.00488512,0.0117144,0.00182268,0.863844,0.00727852,0.038958,923,1604,-2.92038,-48.1633
-294,-580,-3.06476,48.7274,0.00694126,0.0100662,0.00677936,0.0154608,0.00154662,0.898656,0.00983228,0.0383398,930,1604,-3.06474,-48.7274
-287,-580,-2.8493,50.1561,0,0,0,0,0,0,0,-1,937,1604,-2.84929,-50.1561
-280,-580,-2.92059,50.8741,0,0,0,0,0,0,0,-1,944,1604,-2.92057,-50.8741
-273,-580,-2.37653,51.6995,0,0,0,0,0,0,0,-1,951,1604,-2.37651,-51.6995
-266,-580,-1.22644,48.4485,0,0,0,0,0,0,0,-1,958,1604,-1.22644,-48.4485
-259,-580,1.31091,9.11536,0,0,0,0,0,0,0,-1,965,1604,1.31092,-9.11539
-252,-580,1.07629,7.74097,0,0,0,0,0,0,0,-1,972,1604,1.07627,-7.74101
-245,-580,3.80304,9.16028,0,0,0,0,0,0,0,-1,979,1604,3.80306,-9.16034
-238,-580,-10.3588,1.57556,0,0,0,0,0,0,0,-1,986,1604,-10.3588,-1.5755
-231,-580,-10.576,6.43787,0,0,0,0,0,0,0,-1,993,1604,-10.576,-6.43783
-224,-580,-8.27435,7.58972,0,0,0,0,0,0,0,-1,1000,1604,-8.27435,-7.5897
-217,-580,-5.85632,9.51221,0,0,0,0,0,0,0,-1,1007,1604,-5.85632,-9.5122
-210,-580,-3.6684,11.1569,0,0,0,0,0,0,0,-1,1014,1604,-3.66839,-11.1569
-203,-580,-1.92474,12.7845,0,0,0,0,0,0,0,-1,1021,1604,-1.92477,-12.7845
-196,-580,-2.28552,10.3289,0,0,0,0,0,0,0,-1,1028,1604,-2.28552,-10.3288
-189,-580,-4.58252,7.59058,0,0,0,0,0,0,0,-1,1035,1604,-4.58256,-7.59057
-182,-580,-5.45874,7.65942,0,0,0,0,0,0,0,-1,1042,1604,-5.45876,-7.65939
-175,-580,-6.38977,7.55005,0,0,0,0,0,0,0,-1,1049,1604,-6.38981,-7.5501
-168,-580,0,0,0,0,0,0,0,0,0,-1,1056,1604,0,0
-161,-580,0,0,0,0,0,0,0,0,0,-1,1063,1604,0,0
-154,-580,0,0,0,0,0,0,0,0,0,-1,1070,1604,0,0
-147,-580,0,0,0,0,0,0,0,0,0,-1,1077,1604,0,0
-140,-580,0,0,0,0,0,0,0,0,0,-1,1084,1604,0,0
-133,-580,0,0,0,0,0,0,0,0,0,-1,1091,1604,0,0
-126,-580,0,0,0,0,0,0,0,0,0,-1,1098,1604,0,0
-119,-580,0,0,0,0,0,0,0,0,0,-1,1105,1604,0,0
-112,-580,0,0,0,0,0,0,0,0,0,-1,1112,1604,0,0
-105,-580,0,0,0,0,0,0,0,0,0,-1,1119,1604,0,0
-98,-580,0,0,0,0,0,0,0,0,0,-1,1126,1604,0,0
-91,-580,0,0,0,0,0,0,0,0,0,-1,1133,1604,0,0
-84,-580,0,0,0,0,0,0,0,0,0,-1,1140,1604,0,0
-77,-580,0,0,0,0,0,0,0,0,0,-1,1147,1604,0,0
-70,-580,0,0,0,0,0,0,0,0,0,-1,1154,1604,0,0
-63,-580,0,0,0,0,0,0,0,0,0,-1,1161,1604,0,0
-56,-580,0,0,0,0,0,0,0,0,0,-1,1168,1604,0,0
-49,-580,0,0,0,0,0,0,0,0,0,-1,1175,1604,0,0
-42,-580,0,0,0,0,0,0,0,0,0,-1,1182,1604,0,0
-35,-580,0,0,0,0,0,0,0,0,0,-1,1189,1604,0,0
-28,-580,0,0,0,0,0,0,0,0,0,-1,1196,1604,0,0
-21,-580,0,0,0,0,0,0,0,0,0,-1,1203,1604,0,0
-14,-580,0,0,0,0,0,0,0,0,0,-1,1210,1604,0,0
-7,-580,0,0,0,0,0,0,0,0,0,-1,1217,1604,0,0
0,-580,0,0,0,0,0,0,0,0,0,-1,1224,1604,0,0
7,-580,0,0,0,0,0,0,0,0,0,-1,1231,1604,0,0
14,-580,0,0,0,0,0,0,0,0,0,-1,1238,1604,0,0
21,-580,0,0,0,0,0,0,0,0,0,-1,1245,1604,0,0
28,-580,0,0,0,0,0,0,0,0,0,-1,1252,1604,0,0
35,-580,0,0,0,0,0,0,0,0,0,-1,1259,1604,0,0
42,-580,0,0,0,0,0,0,0,0,0,-1,1266,1604,0,0
49,-580,0,0,0,0,0,0,0,0,0,-1,1273,1604,0,0
56,-580,0,0,0,0,0,0,0,0,0,-1,1280,1604,0,0
63,-580,0,0,0,0,0,0,0,0,0,-1,1287,1604,0,0
70,-580,0,0,0,0,0,0,0,0,0,-1,1294,1604,0,0
77,-580,0,0,0,0,0,0,0,0,0,-1,1301,1604,0,0
84,-580,0,0,0,0,0,0,0,0,0,-1,1308,1604,0,0
91,-580,0,0,0,0,0,0,0,0,0,-1,1315,1604,0,0
98,-580,0,0,0,0,0,0,0,0,0,-1,1322,1604,0,0
105,-580,0,0,0,0,0,0,0,0,0,-1,1329,1604,0,0
112,-580,0,0,0,0,0,0,0,0,0,-1,1336,1604,0,0
119,-580,0,0,0,0,0,0,0,0,0,-1,1343,1604,0,0
126,-580,0,0,0,0,0,0,0,0,0,-1,1350,1604,0,0
133,-580,0,0,0,0,0,0,0,0,0,-1,1357,1604,0,0
140,-580,0,0,0,0,0,0,0,0,0,-1,1364,1604,0,0
147,-580,0,0,0,0,0,0,0,0,0,-1,1371,1604,0,0
154,-580,0,0,0,0,0,0,0,0,0,-1,1378,1604,0,0
161,-580,0,0,0,0,0,0,0,0,0,-1,1385,1604,0,0
168,-580,0,0,0,0,0,0,0,0,0,-1,1392,1604,0,0
175,-580,0,0,0,0,0,0,0,0,0,-1,1399,1604,0,0
182,-580,0,0,0,0,0,0,0,0,0,-1,1406,1604,0,0
189,-580,0,0,0,0,0,0,0,0,0,-1,1413,1604,0,0
196,-580,0,0,0,0,0,0,0,0,0,-1,1420,1604,0,0
203,-580,0,0,0,0,0,0,0,0,0,-1,1427,1604,0,0
210,-580,0,0,0,0,0,0,0,0,0,-1,1434,1604,0,0
217,-580,0,0,0,0,0,0,0,0,0,-1,1441,1604,0,0
224,-580,0,0,0,0,0,0,0,0,0,-1,1448,1604,0,0
231,-580,0,0,0,0,0,0,0,0,0,-1,1455,1604,0,0
238,-580,0,0,0,0,0,0,0,0,0,-1,1462,1604,0,0
245,-580,0,0,0,0,0,0,0,0,0,-1,1469,1604,0,0
252,-580,0,0,0,0,0,0,0,0,0,-1,1476,1604,0,0
259,-580,0,0,0,0,0,0,0,0,0,-1,1483,1604,0,0
266,-580,0,0,0,0,0,0,0,0,0,-1,1490,1604,0,0
273,-580,0,0,0,0,0,0,0,0,0,-1,1497,1604,0,0
280,-580,0,0,0,0,0,0,0,0,0,-1,1504,1604,0,0
287,-580,0,0,0,0,0,0,0,0,0,-1,1511,1604,0,0
294,-580,4.0437,0.177368,0,0,0,0,0,0,0,-1,1518,1604,4.04369,-0.177371
301,-580,7.55164,8.05798,0,0,0,0,0,0,0,-1,1525,1604,7.55158,-8.05802
308,-580,5.9126,9.99341,0,0,0,0,0,0,0,-1,1532,1604,5.91255,-9.99337
315,-580,4.27356,11.9287,0,0,0,0,0,0,0,-1,1539,1604,4.27352,-11.9287
322,-580,10.2366,7.50281,0,0,0,0,0,0,0,-1,1546,1604,10.2366,-7.50282
329,-580,10.5962,8.69641,0,0,0,0,0,0,0,-1,1553,1604,10.5962,-8.69642
336,-580,3.66431,1.58862,0,0,0,0,0,0,0,-1,1560,1604,3.6643,-1.58864
343,-580,19.0659,51.8346,0,0,0,0,0,0,0,-1,1567,1604,19.0659,-51.8346
350,-580,21.4856,54.0978,0,0,0,0,0,0,0,-1,1574,1604,21.4857,-54.0978
357,-580,21.0597,54.0709,0,0,0,0,0,0,0,-1,1581,1604,21.0597,-54.071
364,-580,21.548,53.6591,0,0,0,0,0,0,0,-1,1588,1604,21.548,-53.6591
371,-580,22.3584,52.7148,0,0,0,0,0,0,0,-1,1595,1604,22.3584,-52.7149
378,-580,23.3003,52.3074,0,0,0,0,0,0,0,-1,1602,1604,23.3003,-52.3074
385,-580,18.6182,47.5352,0,0,0,0,0,0,0,-1,1609,1604,18.6181,-47.5352
392,-580,19.1388,46.7451,0,0,0,0,0,0,0,-1,1616,1604,19.1388,-46.7452
399,-580,19.433,45.329,0,0,0,0,0,0,0,-1,1623,1604,19.433,-45.329
406,-580,21.2902,50.5659,0,0,0,0,0,0,0,-1,1630,1604,21.2902,-50.566
413,-580,21.1439,49.5464,0,0,0,0,0,0,0,-1,1637,1604,21.144,-49.5464
420,-580,21.1609,48.7737,0,0,0,0,0,0,0,-1,1644,1604,21.1608,-48.7737
427,-580,21.1569,48.2042,0,0,0,0,0,0,0,-1,1651,1604,21.1568,-48.2043
434,-580,21.0485,47.5449,0,0,0,0,0,0,0,-1,1658,1604,21.0484,-47.5449
441,-580,20.9811,46.5419,0.00585543,0.00860972,-0.00409733,0.0115551,0.00291,-0.947521,0.00693987,0.0278532,1665,1604,20.981,-46.5419
448,-580,21.0784,45.6666,0.00554287,0.00723259,-0.00368098,0.0101644,0.00261104,-0.898204,0.00609529,0.0191876,1672,1604,21.0784,-45.6667
455,-580,21.1216,44.9307,0.00512104,0.00591669,-0.00340482,0.00894685,0.00209088,-0.843555,0.00540416,0.0205531,1679,1604,21.1216,-44.9307
462,-580,21.036,44.1582,0.00486001,0.00468094,-0.00301196,0.00778377,0.00175718,-0.77054,0.00471391,0.0227184,1686,1604,21.036,-44.1582
469,-580,21.0125,43.3983,0.00439974,0.00386166,-0.00269199,0.0068361,0.0014253,-0.735593,0.00416441,0.0210208,1693,1604,21.0124,-43.3983
476,-580,21.0239,42.63,0.00373145,0.00319037,-0.00247443,0.00595008,0.000971737,-0.730947,0.00368576,0.0158706,1700,1604,21.0239,-42.6301
483,-580,20.9811,41.8759,0.00301917,0.00246005,-0.00217522,0.00493273,0.000546497,-0.721489,0.0031223,0.0143105,1707,1604,20.9811,-41.8759
490,-580,20.946,41.1277,0.00222889,0.0018521,-0.00183348,0.00388363,0.000197362,-0.734202,0.00252587,0.0203074,1714,1604,20.9461,-41.1277
497,-580,20.9028,40.3444,0.00141322,0.00125726,-0.00153346,0.00287068,-0.000200203,-0.759994,0.00198389,0.0159367,1721,1604,20.9029,-40.3444
504,-580,20.825,39.5596,0.000657392,0.000621187,-0.0012807,0.00192012,-0.000641539,-0.778331,0.00153916,0.0172324,1728,1604,20.8249,-39.5595
511,-580,20.7731,38.769,-8.1037e-05,6.85231e-05,-0.00102837,0.00102483,-0.00103734,-0.821693,0.0011906,0.0172325,1735,1604,20.7731,-38.769
518,-580,20.7368,38.0045,-0.000780164,-0.000492388,-0.000817871,0.000194156,-0.00146671,-0.872472,0.00104853,0.0162938,1742,1604,20.7368,-38.0045
525,-580,20.7034,37.2321,-0.00137548,-0.00103388,-0.000650026,-0.000532591,-0.00187677,-0.913872,0.00111682,0.0191411,1749,1604,20.7034,-37.232
532,-580,20.63,36.4546,-0.00174473,-0.00148229,-0.000584486,-0.00101448,-0.00221254,-0.895817,0.00127888,0.0293373,1756,1604,20.63,-36.4546
539,-580,20.7594,35.5544,0,0,0,0,0,0,0,-1,1763,1604,20.7594,-35.5544
546,-580,20.8677,35.089,0,0,0,0,0,0,0,-1,1770,1604,20.8677,-35.089
553,-580,17.1749,26.6359,0,0,0,0,0,0,0,-1,1777,1604,17.1749,-26.6358
560,-580,18.9662,29.0388,0,0,0,0,0,0,0,-1,1784,1604,18.9661,-29.0389
567,-580,3.87708,4.0647,0,0,0,0,0,0,0,-1,1791,1604,3.87711,-4.06471
574,-580,2.31653,5.62952,0,0,0,0,0,0,0,-1,1798,1604,2.31654,-5.62947
581,-580,1.60876,6.67664,0,0,0,0,0,0,0,-1,1805,1604,1.60873,-6.67667
588,-580,1.38684,7.14441,0,0,0,0,0,0,0,-1,1812,1604,1.38689,-7.14443
595,-580,0,0,0,0,0,0,0,0,0,-1,1819,1604,0,0
602,-580,0,0,0,0,0,0,0,0,0,-1,1826,1604,0,0
609,-580,0,0,0,0,0,0,0,0,0,-1,1833,1604,0,0
616,-580,0,0,0,0,0,0,0,0,0,-1,1840,1604,0,0
623,-580,0,0,0,0,0,0,0,0,0,-1,1847,1604,0,0
630,-580,0,0,0,0,0,0,0,0,0,-1,1854,1604,0,0
637,-580,0,0,0,0,0,0,0,0,0,-1,1861,1604,0,0
644,-580,0,0,0,0,0,0,0,0,0,-1,1868,1604,0,0
651,-580,0,0,0,0,0,0,0,0,0,-1,1875,1604,0,0
658,-580,0,0,0,0,0,0,0,0,0,-1,1882,1604,0,0
665,-580,0,0,0,0,0,0,0,0,0,-1,1889,1604,0,0
672,-580,0,0,0,0,0,0,0,0,0,-1,1896,1604,0,0
679,-580,0,0,0,0,0,0,0,0,0,-1,1903,1604,0,0
686,-580,0,0,0,0,0,0,0,0,0,-1,1910,1604,0,0
693,-580,0,0,0,0,0,0,0,0,0,-1,1917,1604,0,0
700,-580,0,0,0,0,0,0,0,0,0,-1,1924,1604,0,0
707,-580,0,0,0,0,0,0,0,0,0,-1,1931,1604,0,0
714,-580,0,0,0,0,0,0,0,0,0,-1,1938,1604,0,0
721,-580,0,0,0,0,0,0,0,0,0,-1,1945,1604,0,0
728,-580,0,0,0,0,0,0,0,0,0,-1,1952,1604,0,0
735,-580,0,0,0,0,0,0,0,0,0,-1,1959,1604,0,0
742,-580,0,0,0,0,0,0,0,0,0,-1,1966,1604,0,0
749,-580,0,0,0,0,0,0,0,0,0,-1,1973,1604,0,0
756,-580,0,0,0,0,0,0,0,0,0,-1,1980,1604,0,0
763,-580,0,0,0,0,0,0,0,0,0,-1,1987,1604,0,0
770,-580,0,0,0,0,0,0,0,0,0,-1,1994,1604,0,0
777,-580,0,0,0,0,0,0,0,0,0,-1,2001,1604,0,0
784,-580,0,0,0,0,0,0,0,0,0,-1,2008,1604,0,0
791,-580,0,0,0,0,0,0,0,0,0,-1,2015,1604,0,0
798,-580,0,0,0,0,0,0,0,0,0,-1,2022,1604,0,0
805,-580,0,0,0,0,0,0,0,0,0,-1,2029,1604,0,0
812,-580,0,0,0,0,0,0,0,0,0,-1,2036,1604,0,0
-700,-587,0,0,0,0,0,0,0,0,0,-1,524,1611,0,0
-693,-587,0,0,0,0,0,0,0,0,0,-1,531,1611,0,0
-686,-587,0,0,0,0,0,0,0,0,0,-1,538,1611,0,0
-679,-587,0,0,0,0,0,0,0,0,0,-1,545,1611,0,0
-672,-587,0,0,0,0,0,0,0,0,0,-1,552,1611,0,0
-665,-587,0,0,0,0,0,0,0,0,0,-1,559,1611,0,0
-658,-587,0,0,0,0,0,0,0,0,0,-1,566,1611,0,0
-651,-587,0,0,0,0,0,0,0,0,0,-1,573,1611,0,0
-644,-587,0,0,0,0,0,0,0,0,0,-1,580,1611,0,0
-637,-587,0,0,0,0,0,0,0,0,0,-1,587,1611,0,0
-630,-587,0,0,0,0,0,0,0,0,0,-1,594,1611,0,0
-623,-587,0,0,0,0,0,0,0,0,0,-1,601,1611,0,0
-616,-587,0,0,0,0,0,0,0,0,0,-1,608,1611,0,0
-609,-587,0,0,0,0,0,0,0,0,0,-1,615,1611,0,0
-602,-587,0,0,0,0,0,0,0,0,0,-1,622,1611,0,0
-595,-587,0,0,0,0,0,0,0,0,0,-1,629,1611,0,0
-588,-587,0,0,0,0,0,0,0,0,0,-1,636,1611,0,0
-581,-587,0,0,0,0,0,0,0,0,0,-1,643,1611,0,0
-574,-587,0,0,0,0,0,0,0,0,0,-1,650,1611,0,0
-567,-587,0,0,0,0,0,0,0,0,0,-1,657,1611,0,0
-560,-587,0,0,0,0,0,0,0,0,0,-1,664,1611,0,0
-553,-587,0,0,0,0,0,0,0,0,0,-1,671,1611,0,0
-546,-587,0,0,0,0,0,0,0,0,0,-1,678,1611,0,0
-539,-587,0,0,0,0,0,0,0,0,0,-1,685,1611,0,0
-532,-587,0,0,0,0,0,0,0,0,0,-1,692,1611,0,0
-525,-587,0,0,0,0,0,0,0,0,0,-1,699,1611,0,0
-518,-587,0,0,0,0,0,0,0,0,0,-1,706,1611,0,0
-511,-587,0,0,0,0,0,0,0,0,0,-1,713,1611,0,0
-504,-587,0,0,0,0,0,0,0,0,0,-1,720,1611,0,0
-497,-587,0,0,0,0,0,0,0,0,0,-1,727,1611,0,0
-490,-587,0,0,0,0,0,0,0,0,0,-1,734,1611,0,0
-483,-587,0,0,0,0,0,0,0,0,0,-1,741,1611,0,0
-476,-587,0,0,0,0,0,0,0,0,0,-1,748,1611,0,0
-469,-587,0,0,0,0,0,0,0,0,0,-1,755,1611,0,0
-462,-587,-0.714355,-0.418457,0,0,0,0,0,0,0,-1,762,1611,-0.714359,0.418483
-455,-587,-0.619812,-0.522461,0,0,0,0,0,0,0,-1,769,1611,-0.619802,0.522515
-448,-587,-0.461731,-0.686523,0,0,0,0,0,0,0,-1,776,1611,-0.461739,0.686559
-441,-587,-3.56555,2.72253,0,0,0,0,0,0,0,-1,783,1611,-3.56555,-2.72259
-434,-587,-1.77319,4.76318,0,0,0,0,0,0,0,-1,790,1611,-1.77318,-4.76323
-427,-587,0.0346069,6.92944,0,0,0,0,0,0,0,-1,797,1611,0.034587,-6.92941
-420,-587,-0.647156,10.1157,0,0,0,0,0,0,0,-1,804,1611,-0.647128,-10.1158
-413,-587,2.13971,10.3901,0,0,0,0,0,0,0,-1,811,1611,2.13971,-10.3902
-406,-587,2.2525,19.7814,0,0,0,0,0,0,0,-1,818,1611,2.25253,-19.7814
-399,-587,-1.7851,36.6587,0,0,0,0,0,0,0,-1,825,1611,-1.78511,-36.6587
-392,-587,-2.05481,37.8647,0,0,0,0,0,0,0,-1,832,1611,-2.0548,-37.8648
-385,-587,-2.03204,38.715,0.00108832,0.00260915,0.00348009,0.00541094,-0.00171347,0.892959,0.00429396,0.0334588,839,1611,-2.03202,-38.7149
-378,-587,-1.98743,39.619,0.00116229,0.00242418,0.00318003,0.00503525,-0.00144878,0.883331,0.00392981,0.0137206,846,1611,-1.98742,-39.6191
-371,-587,-2.05573,40.4456,0.00109841,0.00188657,0.00251505,0.00403823,-0.00105325,0.86311,0.0031034,0.0144038,853,1611,-2.05574,-40.4455
-364,-587,-2.09698,41.2177,0.00109903,0.00147673,0.00193597,0.00323304,-0.000657272,0.834018,0.00240458,0.0184821,860,1611,-2.09701,-41.2176
-357,-587,-2.11566,41.9463,0.00130463,0.00128063,0.00153185,0.00282452,-0.000239262,0.781481,0.00196762,0.0170027,867,1611,-2.11565,-41.9463
-350,-587,-2.16675,42.7806,0.00164702,0.0011442,0.00124204,0.00266284,0.000128387,0.685539,0.00173401,0.0104289,874,1611,-2.16674,-42.7807
-343,-587,-2.20197,43.5392,0.00199987,0.0011061,0.00105096,0.00269501,0.000410951,0.584372,0.00167656,0.0136325,881,1611,-2.20198,-43.5391
-336,-587,-2.24963,44.2914,0.00236497,0.00135862,0.00103866,0.00301592,0.000707673,0.559835,0.00182115,0.0145146,888,1611,-2.24965,-44.2914
-329,-587,-2.28955,45.0876,0.00276634,0.00157521,0.00108072,0.00340473,0.000936814,0.533561,0.0020309,0.0162608,895,1611,-2.28954,-45.0876
-322,-587,-2.31152,45.8729,0.00328349,0.00195506,0.00133653,0.00411176,0.00112679,0.554788,0.0024534,0.0175361,902,1611,-2.31149,-45.8729
-315,-587,-2.33655,46.6133,0.0038295,0.00270139,0.00192919,0.0052754,0.00125548,0.643172,0.0031821,0.0143803,909,1611,-2.33653,-46.6133
-308,-587,-2.37695,47.3856,0.00427139,0.00414891,0.00278217,0.006993,0.0014273,0.774395,0.00426657,0.0160576,916,1611,-2.37695,-47.3856
-301,-587,-2.32349,48.1621,0.00504454,0.00597986,0.00396385,0.00950354,0.00152086,0.844117,0.00589451,0.0175894,923,1611,-2.32351,-48.1621
-294,-587,-2.24432,48.9583,0.0059779,0.00816988,0.00551655,0.0126983,0.00144952,0.883458,0.00802608,0.0256031,930,1611,-2.24433,-48.9583
-287,-587,-2.30634,49.7837,0.00719812,0.0109893,0.00747577,0.016806,0.00138135,0.909563,0.0107731,0.0396467,937,1611,-2.30633,-49.7836
-280,-587,-2.16833,50.847,0,0,0,0,0,0,0,-1,944,1611,-2.16835,-50.8471
-273,-587,-1.93988,51.3978,0,0,0,0,0,0,0,-1,951,1611,-1.93985,-51.3978
-266,-587,-1.78943,52.3776,0,0,0,0,0,0,0,-1,958,1611,-1.78944,-52.3776
-259,-587,-2.11871,53.4867,0,0,0,0,0,0,0,-1,965,1611,-2.1187,-53.4867
-252,-587,1.30188,10.3103,0,0,0,0,0,0,0,-1,972,1611,1.30188,-10.3104
-245,-587,1.52075,27.4791,0,0,0,0,0,0,0,-1,979,1611,1.52076,-27.4791
-238,-587,2.87799,9.53821,0,0,0,0,0,0,0,-1,986,1611,2.87797,-9.53823
-231,-587,2.49548,9.14465,0,0,0,0,0,0,0,-1,993,1611,2.49551,-9.14468
-224,-587,-9.72528,9.21069,0,0,0,0,0,0,0,-1,1000,1611,-9.72529,-9.21072
-217,-587,-7.07495,10.7847,0,0,0,0,0,0,0,-1,1007,1611,-7.07495,-10.7847
-210,-587,-4.72308,12.5889,0,0,0,0,0,0,0,-1,1014,1611,-4.72307,-12.5888
-203,-587,-3.2583,13.7289,0,0,0,0,0,0,0,-1,1021,1611,-3.25828,-13.7289
-196,-587,-1.953,14.8145,0,0,0,0,0,0,0,-1,1028,1611,-1.95302,-14.8144
-189,-587,-3.04138,8.66638,0,0,0,0,0,0,0,-1,1035,1611,-3.04136,-8.66635
-182,-587,-3.97095,9.7146,0,0,0,0,0,0,0,-1,1042,1611,-3.97093,-9.71461
-175,-587,-4.80969,8.37878,0,0,0,0,0,0,0,-1,1049,1611,-4.80964,-8.37883
-168,-587,-5.91394,8.72546,0,0,0,0,0,0,0,-1,1056,1611,-5.91398,-8.72542
-161,-587,-7.06946,8.88501,0,0,0,0,0,0,0,-1,1063,1611,-7.06947,-8.885
-154,-587,-2.24731,6.56519,0,0,0,0,0,0,0,-1,1070,1611,-2.24728,-6.56517
-147,-587,0,0,0,0,0,0,0,0,0,-1,1077,1611,0,0
-140,-587,0,0,0,0,0,0,0,0,0,-1,1084,1611,0,0
-133,-587,0,0,0,0,0,0,0,0,0,-1,1091,1611,0,0
-126,-587,0,0,0,0,0,0,0,0,0,-1,1098,1611,0,0
-119,-587,0,0,0,0,0,0,0,0,0,-1,1105,1611,0,0
-112,-587,0,0,0,0,0,0,0,0,0,-1,1112,1611,0,0
-105,-587,0,0,0,0,0,0,0,0,0,-1,1119,1611,0,0
-98,-587,0,0,0,0,0,0,0,0,0,-1,1126,1611,0,0
-91,-587,0,0,0,0,0,0,0,0,0,-1,1133,1611,0,0
-84,-587,0,0,0,0,0,0,0,0,0,-1,1140,1611,0,0
-77,-587,0,0,0,0,0,0,0,0,0,-1,1147,1611,0,0
-70,-587,0,0,0,0,0,0,0,0,0,-1,1154,1611,0,0
-63,-587,0,0,0,0,0,0,0,0,0,-1,1161,1611,0,0
-56,-587,0,0,0,0,0,0,0,0,0,-1,1168,1611,0,0
-49,-587,0,0,0,0,0,0,0,0,0,-1,1175,1611,0,0
-42,-587,0,0,0,0,0,0,0,0,0,-1,1182,1611,0,0
-35,-587,0,0,0,0,0,0,0,0,0,-1,1189,1611,0,0
-28,-587,0,0,0,0,0,0,0,0,0,-1,1196,1611,0,0
-21,-587,0,0,0,0,0,0,0,0,0,-1,1203,1611,0,0
-14,-587,0,0,0,0,0,0,0,0,0,-1,1210,1611,0,0
-7,-587,0,0,0,0,0,0,0,0,0,-1,1217,1611,0,0
0,-587,0,0,0,0,0,0,0,0,0,-1,1224,1611,0,0
7,-587,0,0,0,0,0,0,0,0,0,-1,1231,1611,0,0
14,-587,0,0,0,0,0,0,0,0,0,-1,1238,1611,0,0
21,-587,0,0,0,0,0,0,0,0,0,-1,1245,1611,0,0
28,-587,0,0,0,0,0,0,0,0,0,-1,1252,1611,0,0
35,-587,0,0,0,0,0,0,0,0,0,-1,1259,1611,0,0
42,-587,0,0,0,0,0,0,0,0,0,-1,1266,1611,0,0
49,-587,0,0,0,0,0,0,0,0,0,-1,1273,1611,0,0
56,-587,0,0,0,0,0,0,0,0,0,-1,1280,1611,0,0
63,-587,0,0,0,0,0,0,0,0,0,-1,1287,1611,0,0
70,-587,0,0,0,0,0,0,0,0,0,-1,1294,1611,0,0
77,-587,0,0,0,0,0,0,0,0,0,-1,1301,1611,0,0
84,-587,0,0,0,0,0,0,0,0,0,-1,1308,1611,0,0
91,-587,0,0,0,0,0,0,0,0,0,-1,1315,1611,0,0
98,-587,0,0,0,0,0,0,0,0,0,-1,1322,1611,0,0
105,-587,0,0,0,0,0,0,0,0,0,-1,1329,1611,0,0
112,-587,0,0,0,0,0,0,0,0,0,-1,1336,1611,0,0
119,-587,0,0,0,0,0,0,0,0,0,-1,1343,1611,0,0
126,-587,0,0,0,0,0,0,0,0,0,-1,1350,1611,0,0
133,-587,0,0,0,0,0,0,0,0,0,-1,1357,1611,0,0
140,-587,0,0,0,0,0,0,0,0,0,-1,1364,1611,0,0
147,-587,0,0,0,0,0,0,0,0,0,-1,1371,1611,0,0
154,-587,0,0,0,0,0,0,0,0,0,-1,1378,1611,0,0
161,-587,0,0,0,0,0,0,0,0,0,-1,1385,1611,0,0
168,-587,0,0,0,0,0,0,0,0,0,-1,1392,1611,0,0
175,-587,0,0,0,0,0,0,0,0,0,-1,1399,1611,0,0
182,-587,0,0,0,0,0,0,0,0,0,-1,1406,1611,0,0
189,-587,0,0,0,0,0,0,0,0,0,-1,1413,1611,0,0
196,-587,0,0,0,0,0,0,0,0,0,-1,1420,1611,0,0
203,-587,0,0,0,0,0,0,0,0,0,-1,1427,1611,0,0
210,-587,0,0,0,0,0,0,0,0,0,-1,1434,1611,0,0
217,-587,0,0,0,0,0,0,0,0,0,-1,1441,1611,0,0
224,-587,0,0,0,0,0,0,0,0,0,-1,1448,1611,0,0
231,-587,0,0,0,0,0,0,0,0,0,-1,1455,1611,0,0
238,-587,0,0,0,0,0,0,0,0,0,-1,1462,1611,0,0
245,-587,0,0,0,0,0,0,0,0,0,-1,1469,1611,0,0
252,-587,0,0,0,0,0,0,0,0,0,-1,1476,1611,0,0
259,-587,0,0,0,0,0,0,0,0,0,-1,1483,1611,0,0
266,-587,0,0,0,0,0,0,0,0,0,-1,1490,1611,0,0
273,-587,10.2936,6.35083,0,0,0,0,0,0,0,-1,1497,1611,10.2936,-6.35087
280,-587,2.09204,1.1217,0,0,0,0,0,0,0,-1,1504,1611,2.092,-1.12176
287,-587,3.2865,0.671509,0,0,0,0,0,0,0,-1,1511,1611,3.28656,-0.671538
294,-587,4.24646,1.58765,0,0,0,0,0,0,0,-1,1518,1611,4.24648,-1.58761
301,-587,7.60474,8.37085,0,0,0,0,0,0,0,-1,1525,1611,7.60478,-8.37084
308,-587,5.99316,10.2291,0,0,0,0,0,0,0,-1,1532,1611,5.99315,-10.2291
315,-587,4.34558,12.3289,0,0,0,0,0,0,0,-1,1539,1611,4.34556,-12.3288
322,-587,10.4526,6.38245,0,0,0,0,0,0,0,-1,1546,1611,10.4526,-6.38245
329,-587,10.7738,8.42444,0,0,0,0,0,0,0,-1,1553,1611,10.7738,-8.42438
336,-587,7.5531,5.96619,0,0,0,0,0,0,0,-1,1560,1611,7.55311,-5.96617
343,-587,20.0991,54.4835,0,0,0,0,0,0,0,-1,1567,1611,20.0991,-54.4835
350,-587,19.8248,54.2876,0,0,0,0,0,0,0,-1,1574,1611,19.8249,-54.2876
357,-587,18.6205,53.876,0,0,0,0,0,0,0,-1,1581,1611,18.6205,-53.876
364,-587,19.7931,53.4395,0,0,0,0,0,0,0,-1,1588,1611,19.7931,-53.4395
371,-587,17.7566,54.684,0,0,0,0,0,0,0,-1,1595,1611,17.7565,-54.6839
378,-587,18.45,53.8905,0,0,0,0,0,0,0,-1,1602,1611,18.45,-53.8905
385,-587,20.0811,52.2972,0,0,0,0,0,0,0,-1,1609,1611,20.081,-52.2973
392,-587,20.2103,51.0754,0,0,0,0,0,0,0,-1,1616,1611,20.2103,-51.0755
399,-587,20.7246,51.1804,0,0,0,0,0,0,0,-1,1623,1611,20.7246,-51.1804
406,-587,20.5511,50.401,0.0184539,0.0176285,-0.0120967,0.0301449,0.00593748,-0.768346,0.0184389,0.0438755,1630,1611,20.5512,-50.401
413,-587,20.421,49.4796,0.0138416,0.0142803,-0.00888597,0.0229496,0.00517228,-0.797739,0.0139002,0.0344034,1637,1611,20.421,-49.4796
420,-587,20.4536,48.6934,0.0106528,0.0118482,-0.00679248,0.0180692,0.00443179,-0.829284,0.0108742,0.0295668,1644,1611,20.4536,-48.6934
427,-587,20.4409,48.0439,0.008164,0.0089269,-0.00475171,0.0133124,0.00377846,-0.825451,0.00792177,0.0248834,1651,1611,20.4409,-48.0439
434,-587,20.3988,47.1796,0.00562039,0.00781399,-0.00333139,0.0102245,0.0032099,-0.944426,0.00603781,0.0205581,1658,1611,20.3988,-47.1796
441,-587,20.3634,46.344,0.00460103,0.00652929,-0.00296738,0.00868524,0.00244508,-0.942473,0.00517154,0.0245919,1665,1611,20.3634,-46.3439
448,-587,20.3689,45.7155,0.00432399,0.0054056,-0.00276099,0.00767825,0.00205134,-0.882111,0.00459046,0.016766,1672,1611,20.3689,-45.7154
455,-587,20.3438,44.9646,0.00393563,0.00432719,-0.00262596,0.00676466,0.00149816,-0.822607,0.0041026,0.0153207,1679,1611,20.3438,-44.9647
462,-587,20.2849,44.1957,0.0036639,0.00331266,-0.00240408,0.00589876,0.0010778,-0.748937,0.00362702,0.0192801,1686,1611,20.2849,-44.1956
469,-587,20.2582,43.4515,0.00327,0.00266943,-0.00223777,0.00522754,0.000711888,-0.718702,0.00327363,0.0177462,1693,1611,20.2582,-43.4515
476,-587,20.2258,42.7118,0.00269505,0.00216233,-0.00211712,0.0045625,0.000294873,-0.722821,0.00294829,0.0112824,1700,1611,20.2259,-42.7118
483,-587,20.158,41.9431,0.00208595,0.00154369,-0.00194649,0.0037801,-0.000150464,-0.716199,0.00257169,0.0136599,1707,1611,20.1579,-41.9432
490,-587,20.1296,41.1771,0.00141362,0.00104712,-0.00172971,0.00296976,-0.000509018,-0.732623,0.00216951,0.0180508,1714,1611,20.1296,-41.1771
497,-587,20.1014,40.405,0.000741331,0.000607373,-0.00155468,0.00223048,-0.000881771,-0.76387,0.00185224,0.0144678,1721,1611,20.1014,-40.405
504,-587,20.0363,39.6477,8.37041e-05,2.20656e-05,-0.00136167,0.0014149,-0.00130913,-0.774083,0.00157312,0.012833,1728,1611,20.0363,-39.6477
511,-587,19.9835,38.8829,-0.000571969,-0.000425236,-0.00118364,0.000687311,-0.00168452,-0.81635,0.00140914,0.0150558,1735,1611,19.9836,-38.8829
518,-587,19.993,38.0819,-0.00121638,-0.000971916,-0.000976662,-0.000109867,-0.00207843,-0.847651,0.00135049,0.015195,1742,1611,19.9931,-38.0819
525,-587,19.9832,37.3328,-0.00180654,-0.00152628,-0.000796006,-0.000858162,-0.00247466,-0.872526,0.00145093,0.0213816,1749,1611,19.9831,-37.3328
532,-587,19.9471,36.6066,-0.00222643,-0.00202261,-0.000664339,-0.00145241,-0.00279663,-0.861505,0.00161504,0.0382015,1756,1611,19.9471,-36.6066
539,-587,19.9655,35.671,0,0,0,0,0,0,0,-1,1763,1611,19.9654,-35.671
546,-587,17.6716,25.2673,0,0,0,0,0,0,0,-1,1770,1611,17.6716,-25.2674
553,-587,7.5813,8.45068,0,0,0,0,0,0,0,-1,1777,1611,7.58125,-8.45068
560,-587,4.21179,5.23547,0,0,0,0,0,0,0,-1,1784,1611,4.21185,-5.23553
567,-587,4.03711,5.46387,0,0,0,0,0,0,0,-1,1791,1611,4.03715,-5.46382
574,-587,3.83142,5.68884,0,0,0,0,0,0,0,-1,1798,1611,3.83141,-5.68881
581,-587,3.47168,6.00977,0,0,0,0,0,0,0,-1,1805,1611,3.47167,-6.00983
588,-587,0,0,0,0,0,0,0,0,0,-1,1812,1611,0,0
595,-587,0,0,0,0,0,0,0,0,0,-1,1819,1611,0,0
602,-587,0,0,0,0,0,0,0,0,0,-1,1826,1611,0,0
609,-587,0,0,0,0,0,0,0,0,0,-1,1833,1611,0,0
616,-587,0,0,0,0,0,0,0,0,0,-1,1840,1611,0,0
623,-587,0,0,0,0,0,0,0,0,0,-1,1847,1611,0,0
630,-587,0,0,0,0,0,0,0,0,0,-1,1854,1611,0,0
637,-587,0,0,0,0,0,0,0,0,0,-1,1861,1611,0,0
644,-587,0,0,0,0,0,0,0,0,0,-1,1868,1611,0,0
651,-587,0,0,0,0,0,0,0,0,0,-1,1875,1611,0,0
658,-587,0,0,0,0,0,0,0,0,0,-1,1882,1611,0,0
665,-587,0,0,0,0,0,0,0,0,0,-1,1889,1611,0,0
672,-587,0,0,0,0,0,0,0,0,0,-1,1896,1611,0,0
679,-587,0,0,0,0,0,0,0,0,0,-1,1903,1611,0,0
686,-587,0,0,0,0,0,0,0,0,0,-1,1910,1611,0,0
693,-587,0,0,0,0,0,0,0,0,0,-1,1917,1611,0,0
700,-587,0,0,0,0,0,0,0,0,0,-1,1924,1611,0,0
707,-587,0,0,0,0,0,0,0,0,0,-1,1931,1611,0,0
714,-587,0,0,0,0,0,0,0,0,0,-1,1938,1611,0,0
721,-587,0,0,0,0,0,0,0,0,0,-1,1945,1611,0,0
728,-587,0,0,0,0,0,0,0,0,0,-1,1952,1611,0,0
735,-587,0,0,0,0,0,0,0,0,0,-1,1959,1611,0,0
742,-587,0,0,0,0,0,0,0,0,0,-1,1966,1611,0,0
749,-587,0,0,0,0,0,0,0,0,0,-1,1973,1611,0,0
756,-587,0,0,0,0,0,0,0,0,0,-1,1980,1611,0,0
763,-587,0,0,0,0,0,0,0,0,0,-1,1987,1611,0,0
770,-587,0,0,0,0,0,0,0,0,0,-1,1994,1611,0,0
777,-587,0,0,0,0,0,0,0,0,0,-1,2001,1611,0,0
784,-587,0,0,0,0,0,0,0,0,0,-1,2008,1611,0,0
791,-587,0,0,0,0,0,0,0,0,0,-1,2015,1611,0,0
798,-587,0,0,0,0,0,0,0,0,0,-1,2022,1611,0,0
805,-587,0,0,0,0,0,0,0,0,0,-1,2029,1611,0,0
812,-587,0,0,0,0,0,0,0,0,0,-1,2036,1611,0,0
-700,-594,0,0,0,0,0,0,0,0,0,-1,524,1618,0,0
-693,-594,0,0,0,0,0,0,0,0,0,-1,531,1618,0,0
-686,-594,0,0,0,0,0,0,0,0,0,-1,538,1618,0,0
-679,-594,0,0,0,0,0,0,0,0,0,-1,545,1618,0,0
-672,-594,0,0,0,0,0,0,0,0,0,-1,552,1618,0,0
-665,-594,0,0,0,0,0,0,0,0,0,-1,559,1618,0,0
-658,-594,0,0,0,0,0,0,0,0,0,-1,566,1618,0,0
-651,-594,0,0,0,0,0,0,0,0,0,-1,573,1618,0,0
-644,-594,0,0,0,0,0,0,0,0,0,-1,580,1618,0,0
-637,-594,0,0,0,0,0,0,0,0,0,-1,587,1618,0,0
-630,-594,0,0,0,0,0,0,0,0,0,-1,594,1618,0,0
-623,-594,0,0,0,0,0,0,0,0,0,-1,601,1618,0,0
-616,-594,0,0,0,0,0,0,0,0,0,-1,608,1618,0,0
-609,-594,0,0,0,0,0,0,0,0,0,-1,615,1618,0,0
-602,-594,0,0,0,0,0,0,0,0,0,-1,622,1618,0,0
-595,-594,0,0,0,0,0,0,0,0,0,-1,629,1618,0,0
-588,-594,0,0,0,0,0,0,0,0,0,-1,636,1618,0,0
-581,-594,0,0,0,0,0,0,0,0,0,-1,643,1618,0,0
-574,-594,0,0,0,0,0,0,0,0,0,-1,650,1618,0,0
-567,-594,0,0,0,0,0,0,0,0,0,-1,657,1618,0,0
-560,-594,0,0,0,0,0,0,0,0,0,-1,664,1618,0,0
-553,-594,0,0,0,0,0,0,0,0,0,-1,671,1618,0,0
-546,-594,0,0,0,0,0,0,0,0,0,-1,678,1618,0,0
-539,-594,0,0,0,0,0,0,0,0,0,-1,685,1618,0,0
-532,-594,0,0,0,0,0,0,0,0,0,-1,692,1618,0,0
-525,-594,0,0,0,0,0,0,0,0,0,-1,699,1618,0,0
-518,-594,0,0,0,0,0,0,0,0,0,-1,706,1618,0,0
-511,-594,0,0,0,0,0,0,0,0,0,-1,713,1618,0,0
-504,-594,0,0,0,0,0,0,0,0,0,-1,720,1618,0,0
-497,-594,0,0,0,0,0,0,0,0,0,-1,727,1618,0,0
-490,-594,0,0,0,0,0,0,0,0,0,-1,734,1618,0,0
-483,-594,0,0,0,0,0,0,0,0,0,-1,741,1618,0,0
-476,-594,0,0,0,0,0,0,0,0,0,-1,748,1618,0,0
-469,-594,0,0,0,0,0,0,0,0,0,-1,755,1618,0,0
-462,-594,0,0,0,0,0,0,0,0,0,-1,762,1618,0,0
-455,-594,-0.509216,-1.58411,0,0,0,0,0,0,0,-1,769,1618,-0.509245,1.58415
-448,-594,-7.71887,-0.0559082,0,0,0,0,0,0,0,-1,776,1618,-7.71885,0.055939
-441,-594,-5.78473,1.18298,0,0,0,0,0,0,0,-1,783,1618,-5.78474,-1.18295
-434,-594,-3.93628,3.06213,0,0,0,0,0,0,0,-1,790,1618,-3.93631,-3.06208
-427,-594,-3.97693,6.77759,0,0,0,0,0,0,0,-1,797,1618,-3.97695,-6.77764
-420,-594,-2.53046,7.71606,0,0,0,0,0,0,0,-1,804,1618,-2.53047,-7.71609
-413,-594,-0.860413,8.00391,0,0,0,0,0,0,0,-1,811,1618,-0.860423,-8.00389
-406,-594,2.45746,13.6218,0,0,0,0,0,0,0,-1,818,1618,2.45747,-13.6218
-399,-594,1.30414,24.9963,0,0,0,0,0,0,0,-1,825,1618,1.30415,-24.9963
-392,-594,-0.504883,35.921,0,0,0,0,0,0,0,-1,832,1618,-0.50491,-35.921
-385,-594,-1.2569,38.6752,0,0,0,0,0,0,0,-1,839,1618,-1.2569,-38.6751
-378,-594,-1.28851,39.6138,0.00144177,0.00332254,0.00401303,0.00650389,-0.00173958,0.900489,0.00501734,0.0228995,846,1618,-1.28849,-39.6138
-371,-594,-1.26477,40.4819,0.00113263,0.00259167,0.00318195,0.00512666,-0.00140236,0.898085,0.00396869,0.0148367,853,1618,-1.26475,-40.4819
-364,-594,-1.29962,41.2622,0.000899282,0.00187904,0.0023998,0.00383845,-0.00106013,0.886082,0.00297596,0.0111575,860,1618,-1.29963,-41.2622
-357,-594,-1.3446,42.0499,0.000970791,0.00152332,0.00188538,0.00315257,-0.000658453,0.858146,0.00235212,0.0105445,867,1618,-1.34459,-42.0499
-350,-594,-1.38391,42.8282,0.00120668,0.00121434,0.00148237,0.00269288,-0.000271865,0.78669,0.00189239,0.0162481,874,1618,-1.38392,-42.8283
-343,-594,-1.44708,43.5895,0.00149554,0.00109519,0.00122063,0.00253229,5.84312e-05,0.704124,0.00166906,0.0191503,881,1618,-1.44706,-43.5895
-336,-594,-1.51428,44.3488,0.00179501,0.00118098,0.00110442,0.00263429,0.000341698,0.649827,0.0016541,0.0165269,888,1618,-1.51429,-44.3487
-329,-594,-1.53125,45.1376,0.00210896,0.00126533,0.00103959,0.00280906,0.000565241,0.592671,0.00171561,0.0161283,895,1618,-1.53125,-45.1376
-322,-594,-1.51849,45.9084,0.0025281,0.00151303,0.00116032,0.00328702,0.0007541,0.57923,0.00198824,0.0168813,902,1618,-1.51851,-45.9084
-315,-594,-1.54248,46.6437,0.00302228,0.00205558,0.00158051,0.0041917,0.000886157,0.637005,0.00255091,0.0168108,909,1618,-1.54248,-46.6437
-308,-594,-1.59814,47.416,0.00349901,0.00318894,0.00224722,0.00559654,0.00109141,0.750958,0.00342568,0.0158517,916,1618,-1.59816,-47.416
-301,-594,-1.64355,48.1401,0.00423284,0.00472018,0.00318267,0.00766849,0.00128453,0.823604,0.0047425,0.0132296,923,1618,-1.64353,-48.1401
-294,-594,-1.60309,48.8721,0.00512104,0.00657962,0.00442239,0.0103324,0.00136821,0.867117,0.00648055,0.0139315,930,1618,-1.60311,-48.8721
-287,-594,-1.66528,49.61,0.00620291,0.00888843,0.00592809,0.0136239,0.00146741,0.896773,0.00863515,0.0204244,937,1618,-1.66526,-49.61
-280,-594,-1.60797,50.3824,0.0075363,0.0118676,0.00789112,0.0178849,0.00151906,0.919323,0.0114505,0.0233526,944,1618,-1.60798,-50.3825
-273,-594,-1.54352,51.17,0.00901726,0.0155063,0.0101802,0.0229465,0.00157706,0.939663,0.0148,0.0290666,951,1618,-1.54352,-51.1701
-266,-594,-1.375,52.0946,0.0105942,0.0194889,0.0126821,0.0284809,0.00160225,0.954039,0.0184763,0.0360684,958,1618,-1.37502,-52.0946
-259,-594,-1.48914,53.0272,0.012314,0.0235454,0.0153452,0.0342702,0.00158929,0.960809,0.0223359,0.0439164,965,1618,-1.48916,-53.0272
-252,-594,-1.42694,53.9099,0,0,0,0,0,0,0,-1,972,1618,-1.42695,-53.9099
-245,-594,2.27759,35.1766,0,0,0,0,0,0,0,-1,979,1618,2.27756,-35.1766
-238,-594,2.09015,28.0121,0,0,0,0,0,0,0,-1,986,1618,2.09012,-28.0121
-231,-594,1.93774,9.35388,0,0,0,0,0,0,0,-1,993,1618,1.93776,-9.35393
-224,-594,1.81824,8.62744,0,0,0,0,0,0,0,-1,1000,1618,1.81822,-8.62745
-217,-594,-8.24066,12.0752,0,0,0,0,0,0,0,-1,1007,1618,-8.24068,-12.0751
-210,-594,-5.61438,14.2119,0,0,0,0,0,0,0,-1,1014,1618,-5.6144,-14.212
-203,-594,-3.94507,15.5768,0,0,0,0,0,0,0,-1,1021,1618,-3.94506,-15.5768
-196,-594,2.78613,10.5815,0,0,0,0,0,0,0,-1,1028,1618,2.78612,-10.5815
-189,-594,2.60913,9.48865,0,0,0,0,0,0,0,-1,1035,1618,2.6091,-9.48871
-182,-594,1.2395,9.38806,0,0,0,0,0,0,0,-1,1042,1618,1.23951,-9.38804
-175,-594,0.234863,8.73792,0,0,0,0,0,0,0,-1,1049,1618,0.234812,-8.73786
-168,-594,-0.495483,8.46289,0,0,0,0,0,0,0,-1,1056,1618,-0.495513,-8.46285
-161,-594,-1.39734,8.28699,0,0,0,0,0,0,0,-1,1063,1618,-1.39729,-8.28699
-154,-594,-0.000854492,7.68445,0,0,0,0,0,0,0,-1,1070,1618,-0.000805755,-7.6845
-147,-594,0.348267,9.3385,0,0,0,0,0,0,0,-1,1077,1618,0.348237,-9.33849
-140,-594,0.675171,11.5884,0,0,0,0,0,0,0,-1,1084,1618,0.675204,-11.5884
-133,-594,0,0,0,0,0,0,0,0,0,-1,1091,1618,0,0
-126,-594,0,0,0,0,0,0,0,0,0,-1,1098,1618,0,0
-119,-594,0,0,0,0,0,0,0,0,0,-1,1105,1618,0,0
-112,-594,0,0,0,0,0,0,0,0,0,-1,1112,1618,0,0
-105,-594,0,0,0,0,0,0,0,0,0,-1,1119,1618,0,0
-98,-594,0,0,0,0,0,0,0,0,0,-1,1126,1618,0,0
-91,-594,0,0,0,0,0,0,0,0,0,-1,1133,1618,0,0
-84,-594,0,0,0,0,0,0,0,0,0,-1,1140,1618,0,0
-77,-594,0,0,0,0,0,0,0,0,0,-1,1147,1618,0,0
-70,-594,0,0,0,0,0,0,0,0,0,-1,1154,1618,0,0
-63,-594,0,0,0,0,0,0,0,0,0,-1,1161,1618,0,0
-56,-594,0,0,0,0,0,0,0,0,0,-1,1168,1618,0,0
-49,-594,0,0,0,0,0,0,0,0,0,-1,1175,1618,0,0
-42,-594,0,0,0,0,0,0,0,0,0,-1,1182,1618,0,0
-35,-594,0,0,0,0,0,0,0,0,0,-1,1189,1618,0,0
-28,-594,0,0,0,0,0,0,0,0,0,-1,1196,1618,0,0
-21,-594,0,0,0,0,0,0,0,0,0,-1,1203,1618,0,0
-14,-594,0,0,0,0,0,0,0,0,0,-1,1210,1618,0,0
-7,-594,0,0,0,0,0,0,0,0,0,-1,1217,1618,0,0
0,-594,0,0,0,0,0,0,0,0,0,-1,1224,1618,0,0
7,-594,0,0,0,0,0,0,0,0,0,-1,1231,1618,0,0
14,-594,0,0,0,0,0,0,0,0,0,-1,1238,1618,0,0
21,-594,0,0,0,0,0,0,0,0,0,-1,1245,1618,0,0
28,-594,0,0,0,0,0,0,0,0,0,-1,1252,1618,0,0
35,-594,0,0,0,0,0,0,0,0,0,-1,1259,1618,0,0
42,-594,0,0,0,0,0,0,0,0,0,-1,1266,1618,0,0
49,-594,0,0,0,0,0,0,0,0,0,-1,1273,1618,0,0
56,-594,0,0,0,0,0,0,0,0,0,-1,1280,1618,0,0
63,-594,0,0,0,0,0,0,0,0,0,-1,1287,1618,0,0
70,-594,0,0,0,0,0,0,0,0,0,-1,1294,1618,0,0
77,-594,0,0,0,0,0,0,0,0,0,-1,1301,1618,0,0
84,-594,0,0,0,0,0,0,0,0,0,-1,1308,1618,0,0
91,-594,0,0,0,0,0,0,0,0,0,-1,1315,1618,0,0
98,-594,0,0,0,0,0,0,0,0,0,-1,1322,1618,0,0
105,-594,0,0,0,0,0,0,0,0,0,-1,1329,1618,0,0
112,-594,0,0,0,0,0,0,0,0,0,-1,1336,1618,0,0
119,-594,0,0,0,0,0,0,0,0,0,-1,1343,1618,0,0
126,-594,0,0,0,0,0,0,0,0,0,-1,1350,1618,0,0
133,-594,0,0,0,0,0,0,0,0,0,-1,1357,1618,0,0
140,-594,0,0,0,0,0,0,0,0,0,-1,1364,1618,0,0
147,-594,0,0,0,0,0,0,0,0,0,-1,1371,1618,0,0
154,-594,0,0,0,0,0,0,0,0,0,-1,1378,1618,0,0
161,-594,0,0,0,0,0,0,0,0,0,-1,1385,1618,0,0
168,-594,0,0,0,0,0,0,0,0,0,-1,1392,1618,0,0
175,-594,0,0,0,0,0,0,0,0,0,-1,1399,1618,0,0
182,-594,0,0,0,0,0,0,0,0,0,-1,1406,1618,0,0
189,-594,0,0,0,0,0,0,0,0,0,-1,1413,1618,0,0
196,-594,0,0,0,0,0,0,0,0,0,-1,1420,1618,0,0
203,-594,0,0,0,0,0,0,0,0,0,-1,1427,1618,0,0
210,-594,0,0,0,0,0,0,0,0,0,-1,1434,1618,0,0
217,-594,0,0,0,0,0,0,0,0,0,-1,1441,1618,0,0
224,-594,0,0,0,0,0,0,0,0,0,-1,1448,1618,0,0
231,-594,0,0,0,0,0,0,0,0,0,-1,1455,1618,0,0
238,-594,0,0,0,0,0,0,0,0,0,-1,1462,1618,0,0
245,-594,0,0,0,0,0,0,0,0,0,-1,1469,1618,0,0
252,-594,3.03674,1.20996,0,0,0,0,0,0,0,-1,1476,1618,3.0368,-1.20999
259,-594,4.79834,1.53113,0,0,0,0,0,0,0,-1,1483,1618,4.79837,-1.53118
266,-594,3.71606,2.68152,0,0,0,0,0,0,0,-1,1490,1618,3.71609,-2.68149
273,-594,9.7655,6.33557,0,0,0,0,0,0,0,-1,1497,1618,9.76555,-6.33554
280,-594,3.13281,0.911255,0,0,0,0,0,0,0,-1,1504,1618,3.13277,-0.911207
287,-594,4.42749,1.51563,0,0,0,0,0,0,0,-1,1511,1618,4.42747,-1.51564
294,-594,5.36475,3.34937,0,0,0,0,0,0,0,-1,1518,1618,5.36475,-3.3494
301,-594,7.97144,9.04333,0,0,0,0,0,0,0,-1,1525,1618,7.9714,-9.04328
308,-594,6.30347,10.4633,0,0,0,0,0,0,0,-1,1532,1618,6.30351,-10.4633
315,-594,4.62012,11.934,0,0,0,0,0,0,0,-1,1539,1618,4.62006,-11.934
322,-594,2.91528,13.3134,0,0,0,0,0,0,0,-1,1546,1618,2.91523,-13.3133
329,-594,4.19861,9.77258,0,0,0,0,0,0,0,-1,1553,1618,4.19865,-9.77264
336,-594,10.1353,4.66528,0,0,0,0,0,0,0,-1,1560,1618,10.1353,-4.66533
343,-594,18.1643,55.3273,0,0,0,0,0,0,0,-1,1567,1618,18.1643,-55.3273
350,-594,18.2991,54.4825,0,0,0,0,0,0,0,-1,1574,1618,18.2991,-54.4826
357,-594,18.2343,53.7335,0,0,0,0,0,0,0,-1,1581,1618,18.2343,-53.7335
364,-594,16.946,55.3911,0,0,0,0,0,0,0,-1,1588,1618,16.9461,-55.3911
371,-594,17.6168,54.5718,0,0,0,0,0,0,0,-1,1595,1618,17.6168,-54.5718
378,-594,18.2858,52.9452,0,0,0,0,0,0,0,-1,1602,1618,18.2857,-52.9452
385,-594,19.4066,52.248,0,0,0,0,0,0,0,-1,1609,1618,19.4066,-52.2481
392,-594,19.6248,51.6128,0,0,0,0,0,0,0,-1,1616,1618,19.6247,-51.6127
399,-594,19.8099,51.0088,0.0208396,0.01803,-0.0136469,0.0331538,0.00571577,-0.734111,0.0204651,0.0450923,1623,1618,19.8099,-51.0088
406,-594,19.7982,50.2194,0.0156808,0.0146429,-0.0100718,0.025247,0.00507674,-0.759657,0.0154202,0.0284896,1630,1618,19.7982,-50.2194
413,-594,19.7003,49.4194,0.0117684,0.0116083,-0.00725205,0.0189408,0.00443587,-0.779877,0.011439,0.0185403,1637,1618,19.7004,-49.4194
420,-594,19.7034,48.7125,0.00897733,0.00945025,-0.00541445,0.0146334,0.00379418,-0.80722,0.00876889,0.0158415,1644,1618,19.7034,-48.7126
427,-594,19.7094,48.0222,0.00668963,0.00677687,-0.00361073,0.0103442,0.00312226,-0.791438,0.0061266,0.0144981,1651,1618,19.7093,-48.0223
434,-594,19.6525,47.2753,0.00444919,0.00588486,-0.00245214,0.00772207,0.00261197,-0.927789,0.00453544,0.0206323,1658,1618,19.6525,-47.2753
441,-594,19.6022,46.5054,0.00354213,0.00483186,-0.00225024,0.00652781,0.00184617,-0.924946,0.00388554,0.0190684,1665,1618,19.6022,-46.5054
448,-594,19.6324,45.746,0.00331434,0.00390496,-0.0021859,0.00581541,0.00140389,-0.852541,0.00350401,0.0180131,1672,1618,19.6324,-45.746
455,-594,19.5728,44.9808,0.00301484,0.00304473,-0.00217876,0.00520859,0.000850974,-0.788828,0.00322636,0.0132301,1679,1618,19.5728,-44.9809
462,-594,19.5354,44.238,0.00278537,0.00222428,-0.00210407,0.00462752,0.000382132,-0.719123,0.00296585,0.0149966,1686,1618,19.5354,-44.238
469,-594,19.5077,43.5183,0.0024876,0.00172442,-0.00207933,0.00422006,-8.04779e-06,-0.694651,0.00281606,0.013462,1693,1618,19.5077,-43.5183
476,-594,19.4629,42.7693,0.00203119,0.00135628,-0.00205274,0.00377402,-0.000386557,-0.70393,0.00265427,0.0127783,1700,1618,19.4629,-42.7693
483,-594,19.4156,42.0034,0.00153558,0.000843507,-0.00201299,0.00323205,-0.00085297,-0.700279,0.00248825,0.0161546,1707,1618,19.4156,-42.0035
490,-594,19.3619,41.2334,0.000976785,0.000442249,-0.0019348,0.00266269,-0.00124366,-0.716764,0.0023044,0.0154003,1714,1618,19.3619,-41.2334
497,-594,19.3351,40.4468,0.000438409,0.000145885,-0.00189518,0.00219296,-0.00160867,-0.746887,0.0022035,0.0116352,1721,1618,19.3351,-40.4468
504,-594,19.312,39.6687,-0.000129301,-0.00038777,-0.0017738,0.00151997,-0.00203704,-0.749034,0.00206086,0.0116215,1728,1618,19.312,-39.6686
511,-594,19.2755,38.8679,-0.000744174,-0.000707821,-0.00170839,0.000982492,-0.00243449,-0.790718,0.0020313,0.0184949,1735,1618,19.2755,-38.8679
518,-594,19.2026,38.0745,-0.00144014,-0.00120132,-0.00145389,0.000138062,-0.00277952,-0.826371,0.00190071,0.026212,1742,1618,19.2026,-38.0744
525,-594,19.064,37.2867,-0.00208221,-0.00176283,-0.00121869,-0.000693413,-0.00315163,-0.850543,0.00191232,0.0391582,1749,1618,19.0639,-37.2867
532,-594,19.3647,36.5981,0,0,0,0,0,0,0,-1,1756,1618,19.3647,-36.5982
539,-594,21.0237,24.9617,0,0,0,0,0,0,0,-1,1763,1618,21.0237,-24.9616
546,-594,7.48645,8.54785,0,0,0,0,0,0,0,-1,1770,1618,7.48639,-8.54789
553,-594,3.69714,5.68762,0,0,0,0,0,0,0,-1,1777,1618,3.69715,-5.68764
560,-594,6.06616,4.44482,0,0,0,0,0,0,0,-1,1784,1618,6.06621,-4.44477
567,-594,5.97266,4.73303,0,0,0,0,0,0,0,-1,1791,1618,5.97271,-4.73309
574,-594,5.9906,4.96326,0,0,0,0,0,0,0,-1,1798,1618,5.99065,-4.96326
581,-594,0,0,0,0,0,0,0,0,0,-1,1805,1618,0,0
588,-594,0,0,0,0,0,0,0,0,0,-1,1812,1618,0,0
595,-594,0,0,0,0,0,0,0,0,0,-1,1819,1618,0,0
602,-594,0,0,0,0,0,0,0,0,0,-1,1826,1618,0,0
609,-594,0,0,0,0,0,0,0,0,0,-1,1833,1618,0,0
616,-594,0,0,0,0,0,0,0,0,0,-1,1840,1618,0,0
623,-594,0,0,0,0,0,0,0,0,0,-1,1847,1618,0,0
630,-594,0,0,0,0,0,0,0,0,0,-1,1854,1618,0,0
637,-594,0,0,0,0,0,0,0,0,0,-1,1861,1618,0,0
644,-594,0,0,0,0,0,0,0,0,0,-1,1868,1618,0,0
651,-594,0,0,0,0,0,0,0,0,0,-1,1875,1618,0,0
658,-594,0,0,0,0,0,0,0,0,0,-1,1882,1618,0,0
665,-594,0,0,0,0,0,0,0,0,0,-1,1889,1618,0,0
672,-594,0,0,0,0,0,0,0,0,0,-1,1896,1618,0,0
679,-594,0,0,0,0,0,0,0,0,0,-1,1903,1618,0,0
686,-594,0,0,0,0,0,0,0,0,0,-1,1910,1618,0,0
693,-594,0,0,0,0,0,0,0,0,0,-1,1917,1618,0,0
700,-594,0,0,0,0,0,0,0,0,0,-1,1924,1618,0,0
707,-594,0,0,0,0,0,0,0,0,0,-1,1931,1618,0,0
714,-594,0,0,0,0,0,0,0,0,0,-1,1938,1618,0,0
721,-594,0,0,0,0,0,0,0,0,0,-1,1945,1618,0,0
728,-594,0,0,0,0,0,0,0,0,0,-1,1952,1618,0,0
735,-594,0,0,0,0,0,0,0,0,0,-1,1959,1618,0,0
742,-594,0,0,0,0,0,0,0,0,0,-1,1966,1618,0,0
749,-594,0,0,0,0,0,0,0,0,0,-1,1973,1618,0,0
756,-594,0,0,0,0,0,0,0,0,0,-1,1980,1618,0,0
763,-594,0,0,0,0,0,0,0,0,0,-1,1987,1618,0,0
770,-594,0,0,0,0,0,0,0,0,0,-1,1994,1618,0,0
777,-594,0,0,0,0,0,0,0,0,0,-1,2001,1618,0,0
784,-594,0,0,0,0,0,0,0,0,0,-1,2008,1618,0,0
791,-594,0,0,0,0,0,0,0,0,0,-1,2015,1618,0,0
798,-594,0,0,0,0,0,0,0,0,0,-1,2022,1618,0,0
805,-594,0,0,0,0,0,0,0,0,0,-1,2029,1618,0,0
812,-594,0,0,0,0,0,0,0,0,0,-1,2036,1618,0,0
-700,-601,0,0,0,0,0,0,0,0,0,-1,524,1625,0,0
-693,-601,0,0,0,0,0,0,0,0,0,-1,531,1625,0,0
-686,-601,0,0,0,0,0,0,0,0,0,-1,538,1625,0,0
-679,-601,0,0,0,0,0,0,0,0,0,-1,545,1625,0,0
-672,-601,0,0,0,0,0,0,0,0,0,-1,552,1625,0,0
-665,-601,0,0,0,0,0,0,0,0,0,-1,559,1625,0,0
-658,-601,0,0,0,0,0,0,0,0,0,-1,566,1625,0,0
-651,-601,0,0,0,0,0,0,0,0,0,-1,573,1625,0,0
-644,-601,0,0,0,0,0,0,0,0,0,-1,580,1625,0,0
-637,-601,0,0,0,0,0,0,0,0,0,-1,587,1625,0,0
-630,-601,0,0,0,0,0,0,0,0,0,-1,594,1625,0,0
-623,-601,0,0,0,0,0,0,0,0,0,-1,601,1625,0,0
-616,-601,0,0,0,0,0,0,0,0,0,-1,608,1625,0,0
-609,-601,0,0,0,0,0,0,0,0,0,-1,615,1625,0,0
-602,-601,0,0,0,0,0,0,0,0,0,-1,622,1625,0,0
-595,-601,0,0,0,0,0,0,0,0,0,-1,629,1625,0,0
-588,-601,0,0,0,0,0,0,0,0,0,-1,636,1625,0,0
-581,-601,0,0,0,0,0,0,0,0,0,-1,643,1625,0,0
-574,-601,0,0,0,0,0,0,0,0,0,-1,650,1625,0,0
-567,-601,0,0,0,0,0,0,0,0,0,-1,657,1625,0,0
-560,-601,0,0,0,0,0,0,0,0,0,-1,664,1625,0,0
-553,-601,0,0,0,0,0,0,0,0,0,-1,671,1625,0,0
-546,-601,0,0,0,0,0,0,0,0,0,-1,678,1625,0,0
-539,-601,0,0,0,0,0,0,0,0,0,-1,685,1625,0,0
-532,-601,0,0,0,0,0,0,0,0,0,-1,692,1625,0,0
-525,-601,0,0,0,0,0,0,0,0,0,-1,699,1625,0,0
-518,-601,0,0,0,0,0,0,0,0,0,-1,706,1625,0,0
-511,-601,0,0,0,0,0,0,0,0,0,-1,713,1625,0,0
-504,-601,0,0,0,0,0,0,0,0,0,-1,720,1625,0,0
-497,-601,0,0,0,0,0,0,0,0,0,-1,727,1625,0,0
-490,-601,0,0,0,0,0,0,0,0,0,-1,734,1625,0,0
-483,-601,0,0,0,0,0,0,0,0,0,-1,741,1625,0,0
-476,-601,0,0,0,0,0,0,0,0,0,-1,748,1625,0,0
-469,-601,0,0,0,0,0,0,0,0,0,-1,755,1625,0,0
-462,-601,0,0,0,0,0,0,0,0,0,-1,762,1625,0,0
-455,-601,0,0,0,0,0,0,0,0,0,-1,769,1625,0,0
-448,-601,-7.07623,2.7616,0,0,0,0,0,0,0,-1,776,1625,-7.07626,-2.76161
-441,-601,-6.06689,3.33447,0,0,0,0,0,0,0,-1,783,1625,-6.06691,-3.33448
-434,-601,-5.02655,3.8468,0,0,0,0,0,0,0,-1,790,1625,-5.02657,-3.84674
-427,-601,-5.78601,4.2406,0,0,0,0,0,0,0,-1,797,1625,-5.786,-4.24058
-420,-601,-5.5191,5.60364,0,0,0,0,0,0,0,-1,804,1625,-5.51907,-5.60368
-413,-601,-4.30756,5.86047,0,0,0,0,0,0,0,-1,811,1625,-4.30757,-5.86046
-406,-601,-1.67493,7.20422,0,0,0,0,0,0,0,-1,818,1625,-1.67493,-7.20428
-399,-601,1.40094,15.3108,0,0,0,0,0,0,0,-1,825,1625,1.40096,-15.3107
-392,-601,0.678833,30.98,0,0,0,0,0,0,0,-1,832,1625,0.678827,-30.98
-385,-601,-0.0147095,37.3687,0,0,0,0,0,0,0,-1,839,1625,-0.0147267,-37.3687
-378,-601,-0.625732,39.7551,0,0,0,0,0,0,0,-1,846,1625,-0.625745,-39.7551
-371,-601,-0.490784,40.4381,0.00116317,0.00377882,0.00413001,0.00680313,-0.00186114,0.938735,0.00526658,0.0273298,853,1625,-0.490793,-40.4382
-364,-601,-0.523438,41.2861,0.000668514,0.0026558,0.00311242,0.00492933,-0.00160502,0.93991,0.00393198,0.0140546,860,1625,-0.523443,-41.2861
-357,-601,-0.590027,42.0953,0.000616286,0.00206319,0.00247405,0.0039174,-0.00123792,0.927641,0.00310754,0.01061,867,1625,-0.590032,-42.0954
-350,-601,-0.587158,42.921,0.000748355,0.0015362,0.00194777,0.00312948,-0.00084493,0.885173,0.00241769,0.0226262,874,1625,-0.587179,-42.921
-343,-601,-0.67804,43.7106,0.000980757,0.00130423,0.00160443,0.00275505,-0.000470062,0.835632,0.00201178,0.0270877,881,1625,-0.678017,-43.7105
-336,-601,-0.779297,44.4453,0.00123347,0.00120548,0.00137801,0.00259755,-0.000158604,0.78032,0.00178692,0.023557,888,1625,-0.779314,-44.4453
-329,-601,-0.778625,45.2192,0.00149223,0.00116061,0.00120542,0.00254319,0.000109652,0.717051,0.00166012,0.0194366,895,1625,-0.778626,-45.2192
-322,-601,-0.771423,45.9592,0.00184462,0.00128118,0.00118909,0.0027849,0.000340893,0.669082,0.00175405,0.0140657,902,1625,-0.771453,-45.9592
-315,-601,-0.787537,46.6697,0.00229316,0.00164467,0.00142758,0.00343286,0.000504975,0.673728,0.0021402,0.0142267,909,1625,-0.787559,-46.6697
-308,-601,-0.844666,47.4211,0.00277455,0.00248403,0.00188257,0.00451746,0.000741125,0.746894,0.00279751,0.0134407,916,1625,-0.844665,-47.4212
-301,-601,-0.871948,48.1873,0.00346945,0.00374246,0.00257412,0.00618369,0.00102822,0.811888,0.00382606,0.0110388,923,1625,-0.871976,-48.1873
-294,-601,-0.885986,48.9263,0.00429726,0.00529283,0.00351105,0.00834121,0.00124888,0.855817,0.0051948,0.0104165,930,1625,-0.885977,-48.9263
-287,-601,-0.941162,49.6842,0.00523847,0.00715893,0.00462015,0.0109176,0.00147982,0.887857,0.00683869,0.0111662,937,1625,-0.941148,-49.6842
-280,-601,-0.949097,50.4093,0.0064066,0.00944445,0.00603749,0.0141512,0.0016999,0.908632,0.00892161,0.0126405,944,1625,-0.949076,-50.4093
-273,-601,-0.94574,51.1377,0.00771528,0.0121625,0.00770013,0.0179537,0.00192412,0.925962,0.0113821,0.0132396,951,1625,-0.945765,-51.1377
-266,-601,-0.895203,51.8977,0.00905705,0.0150928,0.00952594,0.0220674,0.00208235,0.938799,0.014069,0.0162596,958,1625,-0.895226,-51.8977
-259,-601,-0.887512,52.5837,0.0105804,0.0180892,0.0114218,0.0263578,0.00231179,0.944187,0.0168542,0.0274197,965,1625,-0.887497,-52.5838
-252,-601,-0.801147,53.7229,0.0125612,0.0212822,0.0133212,0.0309385,0.00290497,0.94357,0.0197287,0.04929,972,1625,-0.801138,-53.7229
-245,-601,-0.726074,54.8351,0,0,0,0,0,0,0,-1,979,1625,-0.726075,-54.835
-238,-601,-0.0498657,52.927,0,0,0,0,0,0,0,-1,986,1625,-0.0498886,-52.9271
-231,-601,2.66772,13.7051,0,0,0,0,0,0,0,-1,993,1625,2.6677,-13.7051
-224,-601,-0.0305176,9.13684,0,0,0,0,0,0,0,-1,1000,1625,-0.030498,-9.13681
-217,-601,3.39429,10.3898,0,0,0,0,0,0,0,-1,1007,1625,3.39431,-10.3898
-210,-601,-6.53699,15.7931,0,0,0,0,0,0,0,-1,1014,1625,-6.53697,-15.7931
-203,-601,2.69348,15.9099,0,0,0,0,0,0,0,-1,1021,1625,2.69351,-15.91
-196,-601,2.66992,16.1815,0,0,0,0,0,0,0,-1,1028,1625,2.66995,-16.1815
-189,-601,2.849,16.6105,0,0,0,0,0,0,0,-1,1035,1625,2.84902,-16.6104
-182,-601,1.82153,13.9752,0,0,0,0,0,0,0,-1,1042,1625,1.82155,-13.9752
-175,-601,0.544922,9.28687,0,0,0,0,0,0,0,-1,1049,1625,0.544879,-9.28685
-168,-601,-0.247559,8.97461,0,0,0,0,0,0,0,-1,1056,1625,-0.247598,-8.97466
-161,-601,-1.16833,8.80078,0,0,0,0,0,0,0,-1,1063,1625,-1.16837,-8.80081
-154,-601,1.12756,7.94861,0,0,0,0,0,0,0,-1,1070,1625,1.12762,-7.94855
-147,-601,1.35352,9.55432,0,0,0,0,0,0,0,-1,1077,1625,1.35351,-9.55429
-140,-601,1.72437,11.1498,0,0,0,0,0,0,0,-1,1084,1625,1.72432,-11.1498
-133,-601,2.13281,12.8347,0,0,0,0,0,0,0,-1,1091,1625,2.13287,-12.8348
-126,-601,3.09534,15.427,0,0,0,0,0,0,0,-1,1098,1625,3.0953,-15.4271
-119,-601,1.22485,9.43457,0,0,0,0,0,0,0,-1,1105,1625,1.22489,-9.43456
-112,-601,0,0,0,0,0,0,0,0,0,-1,1112,1625,0,0
-105,-601,0,0,0,0,0,0,0,0,0,-1,1119,1625,0,0
-98,-601,0,0,0,0,0,0,0,0,0,-1,1126,1625,0,0
-91,-601,0,0,0,0,0,0,0,0,0,-1,1133,1625,0,0
-84,-601,0,0,0,0,0,0,0,0,0,-1,1140,1625,0,0
-77,-601,0,0,0,0,0,0,0,0,0,-1,1147,1625,0,0
-70,-601,0,0,0,0,0,0,0,0,0,-1,1154,1625,0,0
-63,-601,0,0,0,0,0,0,0,0,0,-1,1161,1625,0,0
-56,-601,0,0,0,0,0,0,0,0,0,-1,1168,1625,0,0
-49,-601,0,0,0,0,0,0,0,0,0,-1,1175,1625,0,0
-42,-601,0,0,0,0,0,0,0,0,0,-1,1182,1625,0,0
-35,-601,0,0,0,0,0,0,0,0,0,-1,1189,1625,0,0
-28,-601,0,0,0,0,0,0,0,0,0,-1,1196,1625,0,0
-21,-601,0,0,0,0,0,0,0,0,0,-1,1203,1625,0,0
-14,-601,0,0,0,0,0,0,0,0,0,-1,1210,1625,0,0
-7,-601,0,0,0,0,0,0,0,0,0,-1,1217,1625,0,0
0,-601,0,0,0,0,0,0,0,0,0,-1,1224,1625,0,0
7,-601,0,0,0,0,0,0,0,0,0,-1,1231,1625,0,0
14,-601,0,0,0,0,0,0,0,0,0,-1,1238,1625,0,0
21,-601,0,0,0,0,0,0,0,0,0,-1,1245,1625,0,0
28,-601,0,0,0,0,0,0,0,0,0,-1,1252,1625,0,0
35,-601,0,0,0,0,0,0,0,0,0,-1,1259,1625,0,0
42,-601,0,0,0,0,0,0,0,0,0,-1,1266,1625,0,0
49,-601,0,0,0,0,0,0,0,0,0,-1,1273,1625,0,0
56,-601,0,0,0,0,0,0,0,0,0,-1,1280,1625,0,0
63,-601,0,0,0,0,0,0,0,0,0,-1,1287,1625,0,0
70,-601,0,0,0,0,0,0,0,0,0,-1,1294,1625,0,0
77,-601,0,0,0,0,0,0,0,0,0,-1,1301,1625,0,0
84,-601,0,0,0,0,0,0,0,0,0,-1,1308,1625,0,0
91,-601,0,0,0,0,0,0,0,0,0,-1,1315,1625,0,0
98,-601,0,0,0,0,0,0,0,0,0,-1,1322,1625,0,0
105,-601,0,0,0,0,0,0,0,0,0,-1,1329,1625,0,0
112,-601,0,0,0,0,0,0,0,0,0,-1,1336,1625,0,0
119,-601,0,0,0,0,0,0,0,0,0,-1,1343,1625,0,0
126,-601,0,0,0,0,0,0,0,0,0,-1,1350,1625,0,0
133,-601,0,0,0,0,0,0,0,0,0,-1,1357,1625,0,0
140,-601,0,0,0,0,0,0,0,0,0,-1,1364,1625,0,0
147,-601,0,0,0,0,0,0,0,0,0,-1,1371,1625,0,0
154,-601,0,0,0,0,0,0,0,0,0,-1,1378,1625,0,0
161,-601,0,0,0,0,0,0,0,0,0,-1,1385,1625,0,0
168,-601,0,0,0,0,0,0,0,0,0,-1,1392,1625,0,0
175,-601,0,0,0,0,0,0,0,0,0,-1,1399,1625,0,0
182,-601,0,0,0,0,0,0,0,0,0,-1,1406,1625,0,0
189,-601,0,0,0,0,0,0,0,0,0,-1,1413,1625,0,0
196,-601,0,0,0,0,0,0,0,0,0,-1,1420,1625,0,0
203,-601,0,0,0,0,0,0,0,0,0,-1,1427,1625,0,0
210,-601,0,0,0,0,0,0,0,0,0,-1,1434,1625,0,0
217,-601,0,0,0,0,0,0,0,0,0,-1,1441,1625,0,0
224,-601,0,0,0,0,0,0,0,0,0,-1,1448,1625,0,0
231,-601,-0.0371094,0.525879,0,0,0,0,0,0,0,-1,1455,1625,-0.0371518,-0.525824
238,-601,2.03369,-1.32861,0,0,0,0,0,0,0,-1,1462,1625,2.03364,1.32858
245,-601,2.71375,2.44983,0,0,0,0,0,0,0,-1,1469,1625,2.71371,-2.44979
252,-601,4.66943,2.28381,0,0,0,0,0,0,0,-1,1476,1625,4.66947,-2.28376
259,-601,6.42712,2.61987,0,0,0,0,0,0,0,-1,1483,1625,6.42711,-2.61985
266,-601,6.75317,1.68701,0,0,0,0,0,0,0,-1,1490,1625,6.75323,-1.687
273,-601,5.4314,2.92053,0,0,0,0,0,0,0,-1,1497,1625,5.43144,-2.92051
280,-601,4.64722,1.17786,0,0,0,0,0,0,0,-1,1504,1625,4.64722,-1.1779
287,-601,5.32532,2.6217,0,0,0,0,0,0,0,-1,1511,1625,5.32535,-2.62171
294,-601,5.97693,4.22693,0,0,0,0,0,0,0,-1,1518,1625,5.97697,-4.22694
301,-601,7.28162,9.50024,0,0,0,0,0,0,0,-1,1525,1625,7.28162,-9.50025
308,-601,6.53528,10.3927,0,0,0,0,0,0,0,-1,1532,1625,6.53529,-10.3927
315,-601,4.88013,11.7184,0,0,0,0,0,0,0,-1,1539,1625,4.88015,-11.7184
322,-601,3.38098,12.7864,0,0,0,0,0,0,0,-1,1546,1625,3.38104,-12.7864
329,-601,1.8772,13.8768,0,0,0,0,0,0,0,-1,1553,1625,1.87716,-13.8768
336,-601,4.67847,9.53308,0,0,0,0,0,0,0,-1,1560,1625,4.67848,-9.53309
343,-601,11.1404,3.14575,0,0,0,0,0,0,0,-1,1567,1625,11.1404,-3.1458
350,-601,16.8986,54.5154,0,0,0,0,0,0,0,-1,1574,1625,16.8985,-54.5154
357,-601,17.2762,53.5797,0,0,0,0,0,0,0,-1,1581,1625,17.2763,-53.5797
364,-601,17.0177,55.3223,0,0,0,0,0,0,0,-1,1588,1625,17.0177,-55.3222
371,-601,17.2689,53.8837,0,0,0,0,0,0,0,-1,1595,1625,17.2689,-53.8837
378,-601,17.9109,53.0504,0.0344568,0.028583,-0.0259446,0.0576302,0.00540962,-0.729038,0.0367499,0.0438763,1602,1625,17.9109,-53.0504
385,-601,18.8263,52.308,0.0280577,0.0231789,-0.0201277,0.0458933,0.0053433,-0.725095,0.0289791,0.0444986,1609,1625,18.8263,-52.3079
392,-601,18.9232,51.6355,0.0221468,0.0186803,-0.0151549,0.0356673,0.00515982,-0.728462,0.0222585,0.0397378,1616,1625,18.9233,-51.6355
399,-601,18.9736,50.9187,0.0171234,0.0148412,-0.0111409,0.0271815,0.00478307,-0.734363,0.0167558,0.021454,1623,1625,18.9737,-50.9186
406,-601,19.0448,50.1461,0.0130512,0.0118849,-0.00822717,0.0207158,0.0042202,-0.750016,0.0126409,0.0141017,1630,1625,19.0448,-50.1461
413,-601,18.9813,49.4224,0.0098804,0.0092444,-0.00589279,0.0154638,0.00366104,-0.758442,0.00933137,0.012861,1637,1625,18.9814,-49.4223
420,-601,18.9705,48.683,0.00750319,0.00739475,-0.00433774,0.0117871,0.00311089,-0.779149,0.00705357,0.0115959,1644,1625,18.9705,-48.6829
427,-601,18.9681,47.976,0.00547711,0.00503834,-0.00280735,0.00807363,0.00244182,-0.746404,0.00478106,0.0164629,1651,1625,18.9681,-47.976
434,-601,18.9188,47.226,0.00356493,0.00433432,-0.00190851,0.00589652,0.00200273,-0.88485,0.00346222,0.0172348,1658,1625,18.9189,-47.2259
441,-601,18.9148,46.4631,0.00279062,0.003484,-0.00184629,0.00501586,0.00125875,-0.878206,0.00301327,0.0188502,1665,1625,18.9148,-46.4632
448,-601,18.9043,45.7625,0.00263051,0.00274763,-0.00192676,0.00461673,0.00076142,-0.80059,0.00285802,0.0151221,1672,1625,18.9043,-45.7625
455,-601,18.853,45.0068,0.00241806,0.002091,-0.00205078,0.00431181,0.000197241,-0.745612,0.0028111,0.0138477,1679,1625,18.853,-45.0068
462,-601,18.8059,44.2705,0.00222444,0.0014559,-0.00211662,0.00399139,-0.000311049,-0.695602,0.00277043,0.013583,1686,1625,18.8059,-44.2705
469,-601,18.7738,43.5579,0.00200755,0.00108657,-0.00223324,0.00382728,-0.000733164,-0.683724,0.00282777,0.0130197,1693,1625,18.7738,-43.5578
476,-601,18.7382,42.8033,0.00166106,0.000842146,-0.0023006,0.00358836,-0.00108515,-0.697331,0.00282432,0.0132957,1700,1625,18.7382,-42.8034
483,-601,18.6681,42.0377,0.0012714,0.000432031,-0.00238833,0.00327664,-0.00157321,-0.698424,0.00285705,0.0172311,1707,1625,18.6681,-42.0377
490,-601,18.6077,41.2795,0.000807647,0.000105629,-0.00244247,0.00292421,-0.00201093,-0.714032,0.00286552,0.0144525,1714,1625,18.6077,-41.2796
497,-601,18.5961,40.4945,0.000381173,-4.8303e-05,-0.00253669,0.0027122,-0.00237932,-0.743172,0.00294168,0.0136327,1721,1625,18.5961,-40.4945
504,-601,18.6499,39.6862,-0.000107498,-0.000505989,-0.00249032,0.00219153,-0.00280502,-0.745479,0.002892,0.0298166,1728,1625,18.6499,-39.6862
511,-601,18.5066,39.0127,-0.000714361,-0.000647816,-0.0025544,0.00187353,-0.0032357,-0.791911,0.00298456,0.0472369,1735,1625,18.5066,-39.0127
518,-601,18.244,38.3273,0,0,0,0,0,0,0,-1,1742,1625,18.244,-38.3273
525,-601,18.0568,37.0974,0,0,0,0,0,0,0,-1,1749,1625,18.0567,-37.0974
532,-601,15.9053,24.3068,0,0,0,0,0,0,0,-1,1756,1625,15.9053,-24.3067
539,-601,7.77112,11.4299,0,0,0,0,0,0,0,-1,1763,1625,7.77116,-11.4299
546,-601,6.56873,3.62354,0,0,0,0,0,0,0,-1,1770,1625,6.56867,-3.62352
553,-601,7.03015,4.25049,0,0,0,0,0,0,0,-1,1777,1625,7.03011,-4.25048
560,-601,7.50745,4.83374,0,0,0,0,0,0,0,-1,1784,1625,7.50744,-4.83376
567,-601,7.82043,3.83301,0,0,0,0,0,0,0,-1,1791,1625,7.82041,-3.83303
574,-601,0,0,0,0,0,0,0,0,0,-1,1798,1625,0,0
581,-601,0,0,0,0,0,0,0,0,0,-1,1805,1625,0,0
588,-601,0,0,0,0,0,0,0,0,0,-1,1812,1625,0,0
595,-601,0,0,0,0,0,0,0,0,0,-1,1819,1625,0,0
602,-601,0,0,0,0,0,0,0,0,0,-1,1826,1625,0,0
609,-601,0,0,0,0,0,0,0,0,0,-1,1833,1625,0,0
616,-601,0,0,0,0,0,0,0,0,0,-1,1840,1625,0,0
623,-601,0,0,0,0,0,0,0,0,0,-1,1847,1625,0,0
630,-601,0,0,0,0,0,0,0,0,0,-1,1854,1625,0,0
637,-601,0,0,0,0,0,0,0,0,0,-1,1861,1625,0,0
644,-601,0,0,0,0,0,0,0,0,0,-1,1868,1625,0,0
651,-601,0,0,0,0,0,0,0,0,0,-1,1875,1625,0,0
658,-601,0,0,0,0,0,0,0,0,0,-1,1882,1625,0,0
665,-601,0,0,0,0,0,0,0,0,0,-1,1889,1625,0,0
672,-601,0,0,0,0,0,0,0,0,0,-1,1896,1625,0,0
679,-601,0,0,0,0,0,0,0,0,0,-1,1903,1625,0,0
686,-601,0,0,0,0,0,0,0,0,0,-1,1910,1625,0,0
693,-601,0,0,0,0,0,0,0,0,0,-1,1917,1625,0,0
700,-601,0,0,0,0,0,0,0,0,0,-1,1924,1625,0,0
707,-601,0,0,0,0,0,0,0,0,0,-1,1931,1625,0,0
714,-601,0,0,0,0,0,0,0,0,0,-1,1938,1625,0,0
721,-601,0,0,0,0,0,0,0,0,0,-1,1945,1625,0,0
728,-601,0,0,0,0,0,0,0,0,0,-1,1952,1625,0,0
735,-601,0,0,0,0,0,0,0,0,0,-1,1959,1625,0,0
742,-601,0,0,0,0,0,0,0,0,0,-1,1966,1625,0,0
749,-601,0,0,0,0,0,0,0,0,0,-1,1973,1625,0,0
756,-601,0,0,0,0,0,0,0,0,0,-1,1980,1625,0,0
763,-601,0,0,0,0,0,0,0,0,0,-1,1987,1625,0,0
770,-601,0,0,0,0,0,0,0,0,0,-1,1994,1625,0,0
777,-601,0,0,0,0,0,0,0,0,0,-1,2001,1625,0,0
784,-601,0,0,0,0,0,0,0,0,0,-1,2008,1625,0,0
791,-601,0,0,0,0,0,0,0,0,0,-1,2015,1625,0,0
798,-601,0,0,0,0,0,0,0,0,0,-1,2022,1625,0,0
805,-601,0,0,0,0,0,0,0,0,0,-1,2029,1625,0,0
812,-601,0,0,0,0,0,0,0,0,0,-1,2036,1625,0,0
-700,-608,0,0,0,0,0,0,0,0,0,-1,524,1632,0,0
-693,-608,0,0,0,0,0,0,0,0,0,-1,531,1632,0,0
-686,-608,0,0,0,0,0,0,0,0,0,-1,538,1632,0,0
-679,-608,0,0,0,0,0,0,0,0,0,-1,545,1632,0,0
-672,-608,0,0,0,0,0,0,0,0,0,-1,552,1632,0,0
-665,-608,0,0,0,0,0,0,0,0,0,-1,559,1632,0,0
-658,-608,0,0,0,0,0,0,0,0,0,-1,566,1632,0,0
-651,-608,0,0,0,0,0,0,0,0,0,-1,573,1632,0,0
-644,-608,0,0,0,0,0,0,0,0,0,-1,580,1632,0,0
-637,-608,0,0,0,0,0,0,0,0,0,-1,587,1632,0,0
-630,-608,0,0,0,0,0,0,0,0,0,-1,594,1632,0,0
-623,-608,0,0,0,0,0,0,0,0,0,-1,601,1632,0,0
-616,-608,0,0,0,0,0,0,0,0,0,-1,608,1632,0,0
-609,-608,0,0,0,0,0,0,0,0,0,-1,615,1632,0,0
-602,-608,0,0,0,0,0,0,0,0,0,-1,622,1632,0,0
-595,-608,0,0,0,0,0,0,0,0,0,-1,629,1632,0,0
-588,-608,0,0,0,0,0,0,0,0,0,-1,636,1632,0,0
-581,-608,0,0,0,0,0,0,0,0,0,-1,643,1632,0,0
-574,-608,0,0,0,0,0,0,0,0,0,-1,650,1632,0,0
-567,-608,0,0,0,0,0,0,0,0,0,-1,657,1632,0,0
-560,-608,0,0,0,0,0,0,0,0,0,-1,664,1632,0,0
-553,-608,0,0,0,0,0,0,0,0,0,-1,671,1632,0,0
-546,-608,0,0,0,0,0,0,0,0,0,-1,678,1632,0,0
-539,-608,0,0,0,0,0,0,0,0,0,-1,685,1632,0,0
-532,-608,0,0,0,0,0,0,0,0,0,-1,692,1632,0,0
-525,-608,0,0,0,0,0,0,0,0,0,-1,699,1632,0,0
-518,-608,0,0,0,0,0,0,0,0,0,-1,706,1632,0,0
-511,-608,0,0,0,0,0,0,0,0,0,-1,713,1632,0,0
-504,-608,0,0,0,0,0,0,0,0,0,-1,720,1632,0,0
-497,-608,0,0,0,0,0,0,0,0,0,-1,727,1632,0,0
-490,-608,0,0,0,0,0,0,0,0,0,-1,734,1632,0,0
-483,-608,0,0,0,0,0,0,0,0,0,-1,741,1632,0,0
-476,-608,0,0,0,0,0,0,0,0,0,-1,748,1632,0,0
-469,-608,0,0,0,0,0,0,0,0,0,-1,755,1632,0,0
-462,-608,0,0,0,0,0,0,0,0,0,-1,762,1632,0,0
-455,-608,0,0,0,0,0,0,0,0,0,-1,769,1632,0,0
-448,-608,0,0,0,0,0,0,0,0,0,-1,776,1632,0,0
-441,-608,-7.34601,2.78052,0,0,0,0,0,0,0,-1,783,1632,-7.346,-2.78056
-434,-608,-6.34558,3.27405,0,0,0,0,0,0,0,-1,790,1632,-6.34555,-3.27406
-427,-608,-7.74335,4.17688,0,0,0,0,0,0,0,-1,797,1632,-7.74334,-4.17693
-420,-608,-6.82794,4.34839,0,0,0,0,0,0,0,-1,804,1632,-6.82794,-4.34838
-413,-608,-5.41919,5.66138,0,0,0,0,0,0,0,-1,811,1632,-5.41917,-5.66133
-406,-608,-4.79681,4.98999,0,0,0,0,0,0,0,-1,818,1632,-4.79684,-4.98997
-399,-608,-2.60645,6.34167,0,0,0,0,0,0,0,-1,825,1632,-2.60643,-6.34169
-392,-608,2.08356,15.437,0,0,0,0,0,0,0,-1,832,1632,2.08354,-15.437
-385,-608,1.51526,31.5153,0,0,0,0,0,0,0,-1,839,1632,1.51527,-31.5153
-378,-608,0.340515,38.2742,0,0,0,0,0,0,0,-1,846,1632,0.340526,-38.2742
-371,-608,0.314331,40.2079,0,0,0,0,0,0,0,-1,853,1632,0.314319,-40.2079
-364,-608,0.314636,41.1949,0.000717879,0.00374811,0.00395427,0.00646759,-0.0020016,0.968351,0.00511128,0.0283541,860,1632,0.314629,-41.195
-357,-608,0.182556,42.0441,0.000597455,0.00280922,0.00320745,0.00509608,-0.00168941,0.951409,0.00407886,0.0207152,867,1632,0.182569,-42.044
-350,-608,0.168884,42.8998,0.000635799,0.00200115,0.00256113,0.00396903,-0.00133208,0.915646,0.00318432,0.0223056,874,1632,0.168895,-42.8998
-343,-608,0.120544,43.7072,0.000802065,0.00162092,0.00213848,0.00338881,-0.000965823,0.879983,0.0026407,0.0281745,881,1632,0.12057,-43.7072
-336,-608,0.0302124,44.5151,0.000984344,0.00132701,0.0018107,0.00297447,-0.000663115,0.832569,0.00223702,0.0202556,888,1632,0.03023,-44.5152
-329,-608,-0.038269,45.2974,0.00115476,0.0011612,0.00154558,0.00270356,-0.0003876,0.786441,0.00194449,0.018994,895,1632,-0.0382567,-45.2973
-322,-608,-0.0637817,46.0133,0.00139618,0.00116769,0.00140995,0.00269651,-0.000132635,0.744971,0.00184347,0.0183654,902,1632,-0.0637895,-46.0133
-315,-608,-0.0570068,46.7197,0.00174101,0.00137844,0.00148843,0.00305915,6.02944e-05,0.724798,0.00201963,0.0173601,909,1632,-0.0569966,-46.7197
-308,-608,-0.106323,47.4902,0.00215098,0.00196092,0.00174927,0.0038078,0.000304098,0.758262,0.00244348,0.0178444,916,1632,-0.106328,-47.4903
-301,-608,-0.13916,48.2313,0.00273019,0.00294852,0.0022083,0.00505035,0.000628361,0.810094,0.00317822,0.0115442,923,1632,-0.139187,-48.2313
-294,-608,-0.145935,48.9647,0.00344913,0.00422192,0.00288755,0.00674881,0.000922242,0.85191,0.00422547,0.0106265,930,1632,-0.145956,-48.9647
-287,-608,-0.190491,49.6952,0.00422724,0.00571006,0.00367666,0.00871932,0.00121798,0.884891,0.00545242,0.0102345,937,1632,-0.190505,-49.6951
-280,-608,-0.202576,50.4032,0.00521334,0.00743144,0.00466622,0.0111186,0.00152618,0.902072,0.00695967,0.00981383,944,1632,-0.2026,-50.4032
-273,-608,-0.240967,51.13,0.00634683,0.00936783,0.0058114,0.0138618,0.00185283,0.912545,0.0086897,0.0112529,951,1632,-0.240974,-51.1299
-266,-608,-0.231628,51.8857,0.00749871,0.0114701,0.00707747,0.0168352,0.00213367,0.922166,0.0105842,0.0115515,958,1632,-0.231629,-51.8857
-259,-608,-0.1875,52.5956,0.00881604,0.0136338,0.00837997,0.0199442,0.00250559,0.925353,0.0125447,0.0149592,965,1632,-0.187494,-52.5956
-252,-608,-0.118896,53.3157,0.0104345,0.0158188,0.00961767,0.023114,0.00313933,0.921864,0.0144768,0.0295917,972,1632,-0.118882,-53.3157
-245,-608,0.0204468,54.3102,0.0121233,0.0176419,0.0107418,0.0259732,0.00379205,0.911116,0.0162001,0.0443501,979,1632,0.0204242,-54.3102
-238,-608,0.211121,55.1996,0,0,0,0,0,0,0,-1,986,1632,0.211127,-55.1995
-231,-608,-0.0169067,55.1617,0,0,0,0,0,0,0,-1,993,1632,-0.0168977,-55.1618
-224,-608,0.697327,54.9709,0,0,0,0,0,0,0,-1,1000,1632,0.697303,-54.9709
-217,-608,1.04419,12.8451,0,0,0,0,0,0,0,-1,1007,1632,1.04418,-12.8451
-210,-608,2.75903,15.9414,0,0,0,0,0,0,0,-1,1014,1632,2.75903,-15.9414
-203,-608,2.76776,16.217,0,0,0,0,0,0,0,-1,1021,1632,2.76773,-16.217
-196,-608,1.53955,18.6058,0,0,0,0,0,0,0,-1,1028,1632,1.53959,-18.6058
-189,-608,1.37634,19.119,0,0,0,0,0,0,0,-1,1035,1632,1.37634,-19.1191
-182,-608,2.89221,16.7092,0,0,0,0,0,0,0,-1,1042,1632,2.89224,-16.7093
-175,-608,0.219116,15.1643,0,0,0,0,0,0,0,-1,1049,1632,0.219173,-15.1644
-168,-608,0.000366211,9.48645,0,0,0,0,0,0,0,-1,1056,1632,0.000317105,-9.48648
-161,-608,2.27832,15.4423,0,0,0,0,0,0,0,-1,1063,1632,2.27826,-15.4423
-154,-608,1.3999,16.4037,0,0,0,0,0,0,0,-1,1070,1632,1.39987,-16.4037
-147,-608,2.4386,9.50317,0,0,0,0,0,0,0,-1,1077,1632,2.43858,-9.50313
-140,-608,2.60132,10.8401,0,0,0,0,0,0,0,-1,1084,1632,2.60134,-10.8401
-133,-608,3.2312,12.4738,0,0,0,0,0,0,0,-1,1091,1632,3.23116,-12.4738
-126,-608,3.76465,13.9644,0,0,0,0,0,0,0,-1,1098,1632,3.76466,-13.9644
-119,-608,4.28906,15.4196,0,0,0,0,0,0,0,-1,1105,1632,4.28911,-15.4195
-112,-608,0.745117,10.5587,0,0,0,0,0,0,0,-1,1112,1632,0.745145,-10.5587
-105,-608,-0.252319,1.42419,0,0,0,0,0,0,0,-1,1119,1632,-0.252331,-1.42418
-98,-608,-2.8595,3.0863,0,0,0,0,0,0,0,-1,1126,1632,-2.85948,-3.08625
-91,-608,-3.71948,1.73608,0,0,0,0,0,0,0,-1,1133,1632,-3.7195,-1.73607
-84,-608,0,0,0,0,0,0,0,0,0,-1,1140,1632,0,0
-77,-608,0,0,0,0,0,0,0,0,0,-1,1147,1632,0,0
-70,-608,0,0,0,0,0,0,0,0,0,-1,1154,1632,0,0
-63,-608,0,0,0,0,0,0,0,0,0,-1,1161,1632,0,0
-56,-608,0,0,0,0,0,0,0,0,0,-1,1168,1632,0,0
-49,-608,0,0,0,0,0,0,0,0,0,-1,1175,1632,0,0
-42,-608,0,0,0,0,0,0,0,0,0,-1,1182,1632,0,0
-35,-608,0,0,0,0,0,0,0,0,0,-1,1189,1632,0,0
-28,-608,0,0,0,0,0,0,0,0,0,-1,1196,1632,0,0
-21,-608,0,0,0,0,0,0,0,0,0,-1,1203,1632,0,0
-14,-608,0,0,0,0,0,0,0,0,0,-1,1210,1632,0,0
-7,-608,0,0,0,0,0,0,0,0,0,-1,1217,1632,0,0
0,-608,0,0,0,0,0,0,0,0,0,-1,1224,1632,0,0
7,-608,0,0,0,0,0,0,0,0,0,-1,1231,1632,0,0
14,-608,0,0,0,0,0,0,0,0,0,-1,1238,1632,0,0
21,-608,0,0,0,0,0,0,0,0,0,-1,1245,1632,0,0
28,-608,0,0,0,0,0,0,0,0,0,-1,1252,1632,0,0
35,-608,0,0,0,0,0,0,0,0,0,-1,1259,1632,0,0
42,-608,0,0,0,0,0,0,0,0,0,-1,1266,1632,0,0
49,-608,0,0,0,0,0,0,0,0,0,-1,1273,1632,0,0
56,-608,0,0,0,0,0,0,0,0,0,-1,1280,1632,0,0
63,-608,0,0,0,0,0,0,0,0,0,-1,1287,1632,0,0
70,-608,0,0,0,0,0,0,0,0,0,-1,1294,1632,0,0
77,-608,0,0,0,0,0,0,0,0,0,-1,1301,1632,0,0
84,-608,0,0,0,0,0,0,0,0,0,-1,1308,1632,0,0
91,-608,0,0,0,0,0,0,0,0,0,-1,1315,1632,0,0
98,-608,0,0,0,0,0,0,0,0,0,-1,1322,1632,0,0
105,-608,0,0,0,0,0,0,0,0,0,-1,1329,1632,0,0
112,-608,0,0,0,0,0,0,0,0,0,-1,1336,1632,0,0
119,-608,0,0,0,0,0,0,0,0,0,-1,1343,1632,0,0
126,-608,0,0,0,0,0,0,0,0,0,-1,1350,1632,0,0
133,-608,0,0,0,0,0,0,0,0,0,-1,1357,1632,0,0
140,-608,0,0,0,0,0,0,0,0,0,-1,1364,1632,0,0
147,-608,0,0,0,0,0,0,0,0,0,-1,1371,1632,0,0
154,-608,0,0,0,0,0,0,0,0,0,-1,1378,1632,0,0
161,-608,0,0,0,0,0,0,0,0,0,-1,1385,1632,0,0
168,-608,0,0,0,0,0,0,0,0,0,-1,1392,1632,0,0
175,-608,0,0,0,0,0,0,0,0,0,-1,1399,1632,0,0
182,-608,0,0,0,0,0,0,0,0,0,-1,1406,1632,0,0
189,-608,0,0,0,0,0,0,0,0,0,-1,1413,1632,0,0
196,-608,0,0,0,0,0,0,0,0,0,-1,1420,1632,0,0
203,-608,0,0,0,0,0,0,0,0,0,-1,1427,1632,0,0
210,-608,5.7157,-0.333008,0,0,0,0,0,0,0,-1,1434,1632,5.71566,0.333004
217,-608,4.49402,-0.831787,0,0,0,0,0,0,0,-1,1441,1632,4.49396,0.831738
224,-608,4.18018,-1.11792,0,0,0,0,0,0,0,-1,1448,1632,4.1802,1.11796
231,-608,0.361816,0.825195,0,0,0,0,0,0,0,-1,1455,1632,0.36185,-0.825226
238,-608,2.85388,-0.28833,0,0,0,0,0,0,0,-1,1462,1632,2.85391,0.288282
245,-608,3.87537,4.02173,0,0,0,0,0,0,0,-1,1469,1632,3.87538,-4.02168
252,-608,5.66956,3.5282,0,0,0,0,0,0,0,-1,1476,1632,5.6696,-3.52815
259,-608,7.47437,3.07178,0,0,0,0,0,0,0,-1,1483,1632,7.4744,-3.07172
266,-608,9.46936,2.34766,0,0,0,0,0,0,0,-1,1490,1632,9.46932,-2.34764
273,-608,6.03003,3.34241,0,0,0,0,0,0,0,-1,1497,1632,6.02997,-3.34245
280,-608,5.72461,2.0769,0,0,0,0,0,0,0,-1,1504,1632,5.72457,-2.07688
287,-608,6.20581,3.59338,0,0,0,0,0,0,0,-1,1511,1632,6.20585,-3.59341
294,-608,6.94922,5.17151,0,0,0,0,0,0,0,-1,1518,1632,6.94925,-5.17151
301,-608,7.60083,6.68018,0,0,0,0,0,0,0,-1,1525,1632,7.60086,-6.68013
308,-608,7.64746,9.93848,0,0,0,0,0,0,0,-1,1532,1632,7.64745,-9.93842
315,-608,5.30688,11.2054,0,0,0,0,0,0,0,-1,1539,1632,5.30694,-11.2054
322,-608,5.32617,13.7581,0,0,0,0,0,0,0,-1,1546,1632,5.32613,-13.758
329,-608,7.12231,13.9607,0,0,0,0,0,0,0,-1,1553,1632,7.12231,-13.9607
336,-608,5.48633,7.82446,0,0,0,0,0,0,0,-1,1560,1632,5.48634,-7.82446
343,-608,5.47192,5.61047,0,0,0,0,0,0,0,-1,1567,1632,5.47192,-5.61045
350,-608,11.6957,1.71387,0,0,0,0,0,0,0,-1,1574,1632,11.6957,-1.71388
357,-608,3.77002,5.10046,0,0,0,0,0,0,0,-1,1581,1632,3.77002,-5.10043
364,-608,17.3002,56.4576,0,0,0,0,0,0,0,-1,1588,1632,17.3002,-56.4576
371,-608,17.6064,55.0142,0.0308132,0.0276309,-0.0244778,0.0537515,0.00469253,-0.752942,0.0343771,0.0451306,1595,1632,17.6064,-55.0142
378,-608,17.8203,53.3267,0.02624,0.0229741,-0.0198678,0.0445418,0.00467222,-0.744395,0.0282662,0.0354784,1602,1632,17.8204,-53.3267
385,-608,18.2372,52.2552,0.0217266,0.0186645,-0.0156076,0.035878,0.00451309,-0.736507,0.0225653,0.0306367,1609,1632,18.2372,-52.2553
392,-608,18.2743,51.5846,0.0174739,0.0150625,-0.0119303,0.0282593,0.00427708,-0.735037,0.0175881,0.0210648,1616,1632,18.2742,-51.5846
399,-608,18.3043,50.8497,0.0137051,0.0119741,-0.0088904,0.021772,0.00390716,-0.736876,0.0134035,0.0108841,1623,1632,18.3044,-50.8498
406,-608,18.317,50.1324,0.0105661,0.0094968,-0.0066126,0.0166656,0.00339725,-0.745061,0.0101689,0.00988778,1630,1632,18.317,-50.1324
413,-608,18.282,49.4314,0.00807435,0.00727722,-0.00476671,0.0124591,0.00289244,-0.743688,0.00752946,0.010969,1637,1632,18.282,-49.4314
420,-608,18.2169,48.7218,0.00613069,0.00575731,-0.00352597,0.00947491,0.00241309,-0.75895,0.00568558,0.0192887,1644,1632,18.2169,-48.7218
427,-608,18.2147,48.0083,0.00443133,0.00378146,-0.00231535,0.00644443,0.00176836,-0.715684,0.00384486,0.0204019,1651,1632,18.2147,-48.0083
434,-608,18.1821,47.2859,0.00289456,0.00324432,-0.00168945,0.00476792,0.00137096,-0.836971,0.00283439,0.0160667,1658,1632,18.1822,-47.2859
441,-608,18.1545,46.5692,0.00228672,0.00258835,-0.00176109,0.00420507,0.000670006,-0.828114,0.00260888,0.0145465,1665,1632,18.1545,-46.5692
448,-608,18.1492,45.8595,0.00220635,0.0020316,-0.00197758,0.00409848,0.000139467,-0.763322,0.00268704,0.0151408,1672,1632,18.1492,-45.8595
455,-608,18.1492,45.0693,0.00209215,0.00154938,-0.00222298,0.00406024,-0.000418717,-0.724659,0.00285665,0.0121009,1679,1632,18.1491,-45.0693
462,-608,18.0923,44.3241,0.00195068,0.00107669,-0.00242104,0.00397385,-0.000946477,-0.69611,0.00301466,0.0127715,1686,1632,18.0922,-44.3242
469,-608,18.0247,43.6052,0.00182252,0.000807547,-0.00267234,0.00403513,-0.00140507,-0.691564,0.00326096,0.00941169,1693,1632,18.0246,-43.6053
476,-608,17.9742,42.8563,0.00159773,0.000645203,-0.00282262,0.00398398,-0.00174105,-0.70182,0.00338885,0.0087483,1700,1632,17.9742,-42.8563
483,-608,17.9404,42.0822,0.00131306,0.000287811,-0.0030206,0.00386423,-0.00226336,-0.701344,0.00357778,0.00909472,1707,1632,17.9405,-42.0822
490,-608,17.9271,41.3059,0.000919709,-4.60842e-05,-0.00317497,0.0036483,-0.00277467,-0.709929,0.00371972,0.0130783,1714,1632,17.9272,-41.3059
497,-608,17.9733,40.4834,0.000628665,-7.07966e-05,-0.00339847,0.00369535,-0.00313749,-0.734125,0.00394932,0.0338686,1721,1632,17.9733,-40.4834
504,-608,18.0884,39.6215,0,0,0,0,0,0,0,-1,1728,1632,18.0884,-39.6215
511,-608,17.7493,39.2028,0,0,0,0,0,0,0,-1,1735,1632,17.7493,-39.2027
518,-608,17.8663,36.3457,0,0,0,0,0,0,0,-1,1742,1632,17.8663,-36.3457
525,-608,11.2109,16.2579,0,0,0,0,0,0,0,-1,1749,1632,11.2109,-16.2579
532,-608,8.27917,11.6693,0,0,0,0,0,0,0,-1,1756,1632,8.27919,-11.6694
539,-608,9.40796,1.43457,0,0,0,0,0,0,0,-1,1763,1632,9.40801,-1.43463
546,-608,9.94031,2.1134,0,0,0,0,0,0,0,-1,1770,1632,9.94031,-2.11346
553,-608,10.363,2.81335,0,0,0,0,0,0,0,-1,1777,1632,10.3631,-2.81333
560,-608,9.23999,4.5636,0,0,0,0,0,0,0,-1,1784,1632,9.24,-4.56354
567,-608,0,0,0,0,0,0,0,0,0,-1,1791,1632,0,0
574,-608,0,0,0,0,0,0,0,0,0,-1,1798,1632,0,0
581,-608,0,0,0,0,0,0,0,0,0,-1,1805,1632,0,0
588,-608,0,0,0,0,0,0,0,0,0,-1,1812,1632,0,0
595,-608,0,0,0,0,0,0,0,0,0,-1,1819,1632,0,0
602,-608,0,0,0,0,0,0,0,0,0,-1,1826,1632,0,0
609,-608,0,0,0,0,0,0,0,0,0,-1,1833,1632,0,0
616,-608,0,0,0,0,0,0,0,0,0,-1,1840,1632,0,0
623,-608,0,0,0,0,0,0,0,0,0,-1,1847,1632,0,0
630,-608,0,0,0,0,0,0,0,0,0,-1,1854,1632,0,0
637,-608,0,0,0,0,0,0,0,0,0,-1,1861,1632,0,0
644,-608,0,0,0,0,0,0,0,0,0,-1,1868,1632,0,0
651,-608,0,0,0,0,0,0,0,0,0,-1,1875,1632,0,0
658,-608,0,0,0,0,0,0,0,0,0,-1,1882,1632,0,0
665,-608,0,0,0,0,0,0,0,0,0,-1,1889,1632,0,0
672,-608,0,0,0,0,0,0,0,0,0,-1,1896,1632,0,0
679,-608,0,0,0,0,0,0,0,0,0,-1,1903,1632,0,0
686,-608,0,0,0,0,0,0,0,0,0,-1,1910,1632,0,0
693,-608,0,0,0,0,0,0,0,0,0,-1,1917,1632,0,0
700,-608,0,0,0,0,0,0,0,0,0,-1,1924,1632,0,0
707,-608,0,0,0,0,0,0,0,0,0,-1,1931,1632,0,0
714,-608,0,0,0,0,0,0,0,0,0,-1,1938,1632,0,0
721,-608,0,0,0,0,0,0,0,0,0,-1,1945,1632,0,0
728,-608,0,0,0,0,0,0,0,0,0,-1,1952,1632,0,0
735,-608,0,0,0,0,0,0,0,0,0,-1,1959,1632,0,0
742,-608,0,0,0,0,0,0,0,0,0,-1,1966,1632,0,0
749,-608,0,0,0,0,0,0,0,0,0,-1,1973,1632,0,0
756,-608,0,0,0,0,0,0,0,0,0,-1,1980,1632,0,0
763,-608,0,0,0,0,0,0,0,0,0,-1,1987,1632,0,0
770,-608,0,0,0,0,0,0,0,0,0,-1,1994,1632,0,0
777,-608,0,0,0,0,0,0,0,0,0,-1,2001,1632,0,0
784,-608,0,0,0,0,0,0,0,0,0,-1,2008,1632,0,0
791,-608,0,0,0,0,0,0,0,0,0,-1,2015,1632,0,0
798,-608,0,0,0,0,0,0,0,0,0,-1,2022,1632,0,0
805,-608,0,0,0,0,0,0,0,0,0,-1,2029,1632,0,0
812,-608,0,0,0,0,0,0,0,0,0,-1,2036,1632,0,0
-700,-615,0,0,0,0,0,0,0,0,0,-1,524,1639,0,0
-693,-615,0,0,0,0,0,0,0,0,0,-1,531,1639,0,0
-686,-615,0,0,0,0,0,0,0,0,0,-1,538,1639,0,0
-679,-615,0,0,0,0,0,0,0,0,0,-1,545,1639,0,0
-672,-615,0,0,0,0,0,0,0,0,0,-1,552,1639,0,0
-665,-615,0,0,0,0,0,0,0,0,0,-1,559,1639,0,0
-658,-615,0,0,0,0,0,0,0,0,0,-1,566,1639,0,0
-651,-615,0,0,0,0,0,0,0,0,0,-1,573,1639,0,0
-644,-615,0,0,0,0,0,0,0,0,0,-1,580,1639,0,0
-637,-615,0,0,0,0,0,0,0,0,0,-1,587,1639,0,0
-630,-615,0,0,0,0,0,0,0,0,0,-1,594,1639,0,0
-623,-615,0,0,0,0,0,0,0,0,0,-1,601,1639,0,0
-616,-615,0,0,0,0,0,0,0,0,0,-1,608,1639,0,0
-609,-615,0,0,0,0,0,0,0,0,0,-1,615,1639,0,0
-602,-615,0,0,0,0,0,0,0,0,0,-1,622,1639,0,0
-595,-615,0,0,0,0,0,0,0,0,0,-1,629,1639,0,0
-588,-615,0,0,0,0,0,0,0,0,0,-1,636,1639,0,0
-581,-615,0,0,0,0,0,0,0,0,0,-1,643,1639,0,0
-574,-615,0,0,0,0,0,0,0,0,0,-1,650,1639,0,0
-567,-615,0,0,0,0,0,0,0,0,0,-1,657,1639,0,0
-560,-615,0,0,0,0,0,0,0,0,0,-1,664,1639,0,0
-553,-615,0,0,0,0,0,0,0,0,0,-1,671,1639,0,0
-546,-615,0,0,0,0,0,0,0,0,0,-1,678,1639,0,0
-539,-615,0,0,0,0,0,0,0,0,0,-1,685,1639,0,0
-532,-615,0,0,0,0,0,0,0,0,0,-1,692,1639,0,0
-525,-615,0,0,0,0,0,0,0,0,0,-1,699,1639,0,0
-518,-615,0,0,0,0,0,0,0,0,0,-1,706,1639,0,0
-511,-615,0,0,0,0,0,0,0,0,0,-1,713,1639,0,0
-504,-615,0,0,0,0,0,0,0,0,0,-1,720,1639,0,0
-497,-615,0,0,0,0,0,0,0,0,0,-1,727,1639,0,0
-490,-615,0,0,0,0,0,0,0,0,0,-1,734,1639,0,0
-483,-615,0,0,0,0,0,0,0,0,0,-1,741,1639,0,0
-476,-615,0,0,0,0,0,0,0,0,0,-1,748,1639,0,0
-469,-615,0,0,0,0,0,0,0,0,0,-1,755,1639,0,0
-462,-615,0,0,0,0,0,0,0,0,0,-1,762,1639,0,0
-455,-615,0,0,0,0,0,0,0,0,0,-1,769,1639,0,0
-448,-615,0,0,0,0,0,0,0,0,0,-1,776,1639,0,0
-441,-615,0,0,0,0,0,0,0,0,0,-1,783,1639,0,0
-434,-615,-7.64508,2.98596,0,0,0,0,0,0,0,-1,790,1639,-7.64505,-2.98594
-427,-615,-9.0011,2.89404,0,0,0,0,0,0,0,-1,797,1639,-9.00107,-2.89399
-420,-615,-8.07568,3.0752,0,0,0,0,0,0,0,-1,804,1639,-8.07569,-3.07514
-413,-615,-7.09149,3.396,0,0,0,0,0,0,0,-1,811,1639,-7.09147,-3.39599
-406,-615,-6.21368,3.7312,0,0,0,0,0,0,0,-1,818,1639,-6.21366,-3.73114
-399,-615,-4.84875,3.91907,0,0,0,0,0,0,0,-1,825,1639,-4.84877,-3.91901
-392,-615,1.7395,13.3127,0,0,0,0,0,0,0,-1,832,1639,1.73953,-13.3128
-385,-615,3.42297,14.9401,0,0,0,0,0,0,0,-1,839,1639,3.42296,-14.94
-378,-615,1.50134,37.1793,0,0,0,0,0,0,0,-1,846,1639,1.50132,-37.1793
-371,-615,0.838196,39.9268,0,0,0,0,0,0,0,-1,853,1639,0.838195,-39.9268
-364,-615,0.94873,41.3646,0,0,0,0,0,0,0,-1,860,1639,0.948732,-41.3646
-357,-615,0.891541,42.0807,0,0,0,0,0,0,0,-1,867,1639,0.891531,-42.0807
-350,-615,0.919983,43.051,0.000523638,0.00271761,0.003248,0.00504888,-0.00180762,0.948255,0.00410339,0.0388087,874,1639,0.919963,-43.051
-343,-615,0.826965,43.7153,0.00062718,0.00219187,0.00273397,0.00425323,-0.00143418,0.924753,0.00341544,0.0222733,881,1639,0.826968,-43.7154
-336,-615,0.810303,44.5035,0.000740476,0.00170235,0.00230549,0.00357653,-0.00113371,0.888226,0.00283875,0.0114963,888,1639,0.810298,-44.5036
-329,-615,0.741089,45.2754,0.000825952,0.00140414,0.00195049,0.00308685,-0.000856759,0.85897,0.00239512,0.0122896,895,1639,0.741066,-45.2754
-322,-615,0.709351,46.0521,0.000966163,0.00127406,0.0016979,0.00282497,-0.000584754,0.830609,0.00210548,0.013789,902,1639,0.709334,-46.0521
-315,-615,0.693848,46.8418,0.00121763,0.00130986,0.00161977,0.00288417,-0.000356679,0.799629,0.00205203,0.0172676,909,1639,0.693851,-46.8418
-308,-615,0.624023,47.583,0.00156179,0.00163316,0.00170301,0.00330085,-0.000105909,0.795873,0.00223671,0.02565,916,1639,0.62405,-47.583
-301,-615,0.612732,48.2665,0.0020338,0.00233386,0.00195485,0.00414443,0.00022323,0.823696,0.00269163,0.0135113,923,1639,0.612734,-48.2665
-294,-615,0.578186,49.0002,0.00265128,0.00332316,0.00241647,0.00542693,0.000547515,0.854466,0.00344996,0.0104056,930,1639,0.578181,-49.0003
-287,-615,0.540771,49.7246,0.00329731,0.00446689,0.00296109,0.00690038,0.000863813,0.882889,0.00434106,0.00814827,937,1639,0.540758,-49.7247
-280,-615,0.525696,50.454,0.0041308,0.00573306,0.00363939,0.00865845,0.0012054,0.893734,0.00541541,0.0116621,944,1639,0.525684,-50.454
-273,-615,0.476074,51.1803,0.00511468,0.00707696,0.00441793,0.0106214,0.00157026,0.894666,0.00661987,0.014181,951,1639,0.476089,-51.1803
-266,-615,0.43512,51.8864,0.00608501,0.00855882,0.00525442,0.01272,0.00192387,0.900995,0.00791699,0.0138272,958,1639,0.435099,-51.8863
-259,-615,0.473145,52.5623,0.00717902,0.0100706,0.00611142,0.0149049,0.0023447,0.901548,0.00925458,0.0145344,965,1639,0.473118,-52.5622
-252,-615,0.483276,53.2998,0.00846918,0.0115381,0.00686689,0.0170399,0.00296741,0.895323,0.0105114,0.0177937,972,1639,0.483273,-53.2998
-245,-615,0.575867,54.1194,0.00980689,0.0126709,0.00750339,0.0188777,0.00360007,0.879687,0.0115733,0.0270729,979,1639,0.575875,-54.1193
-238,-615,0.595154,54.8075,0.0110167,0.0127718,0.00788313,0.019826,0.0039624,0.84083,0.0121145,0.0338651,986,1639,0.595159,-54.8075
-231,-615,0.592957,55.5323,0,0,0,0,0,0,0,-1,993,1639,0.592978,-55.5323
-224,-615,1.08807,55.451,0,0,0,0,0,0,0,-1,1000,1639,1.0881,-55.451
-217,-615,1.3689,56.0371,0,0,0,0,0,0,0,-1,1007,1639,1.36889,-56.0371
-210,-615,2.48901,18.9324,0,0,0,0,0,0,0,-1,1014,1639,2.48902,-18.9323
-203,-615,2.13684,18.6173,0,0,0,0,0,0,0,-1,1021,1639,2.13683,-18.6173
-196,-615,4.27161,21.3264,0,0,0,0,0,0,0,-1,1028,1639,4.27165,-21.3264
-189,-615,0.985352,58.1743,0,0,0,0,0,0,0,-1,1035,1639,0.985309,-58.1744
-182,-615,2.98364,52.7119,0,0,0,0,0,0,0,-1,1042,1639,2.9836,-52.7119
-175,-615,2.25159,49.2682,0,0,0,0,0,0,0,-1,1049,1639,2.25158,-49.2682
-168,-615,3.85754,15.472,0,0,0,0,0,0,0,-1,1056,1639,3.85757,-15.472
-161,-615,2.14307,46.5156,0,0,0,0,0,0,0,-1,1063,1639,2.14303,-46.5156
-154,-615,1.37329,47.9545,0,0,0,0,0,0,0,-1,1070,1639,1.37327,-47.9545
-147,-615,0.0180664,48.1396,0,0,0,0,0,0,0,-1,1077,1639,0.0180157,-48.1397
-140,-615,3.73401,10.2349,0,0,0,0,0,0,0,-1,1084,1639,3.73402,-10.2348
-133,-615,2.6178,17.45,0,0,0,0,0,0,0,-1,1091,1639,2.61776,-17.4499
-126,-615,4.43408,12.5017,0,0,0,0,0,0,0,-1,1098,1639,4.43403,-12.5018
-119,-615,4.82983,13.9279,0,0,0,0,0,0,0,-1,1105,1639,4.82986,-13.9278
-112,-615,3.65698,14.4874,0,0,0,0,0,0,0,-1,1112,1639,3.65695,-14.4875
-105,-615,0.958496,2.45398,0,0,0,0,0,0,0,-1,1119,1639,0.958452,-2.45398
-98,-615,-0.647705,2.12109,0,0,0,0,0,0,0,-1,1126,1639,-0.647756,-2.12105
-91,-615,-3.07983,2.97375,0,0,0,0,0,0,0,-1,1133,1639,-3.07989,-2.97376
-84,-615,-2.46509,0.703247,0,0,0,0,0,0,0,-1,1140,1639,-2.46505,-0.703273
-77,-615,-3.17859,1.23755,0,0,0,0,0,0,0,-1,1147,1639,-3.17865,-1.23752
-70,-615,-4.03943,1.43335,0,0,0,0,0,0,0,-1,1154,1639,-4.03942,-1.43339
-63,-615,-4.8877,1.45544,0,0,0,0,0,0,0,-1,1161,1639,-4.88766,-1.45549
-56,-615,0,0,0,0,0,0,0,0,0,-1,1168,1639,0,0
-49,-615,0,0,0,0,0,0,0,0,0,-1,1175,1639,0,0
-42,-615,0,0,0,0,0,0,0,0,0,-1,1182,1639,0,0
-35,-615,0,0,0,0,0,0,0,0,0,-1,1189,1639,0,0
-28,-615,0,0,0,0,0,0,0,0,0,-1,1196,1639,0,0
-21,-615,0,0,0,0,0,0,0,0,0,-1,1203,1639,0,0
-14,-615,0,0,0,0,0,0,0,0,0,-1,1210,1639,0,0
-7,-615,0,0,0,0,0,0,0,0,0,-1,1217,1639,0,0
0,-615,0,0,0,0,0,0,0,0,0,-1,1224,1639,0,0
7,-615,0,0,0,0,0,0,0,0,0,-1,1231,1639,0,0
14,-615,0,0,0,0,0,0,0,0,0,-1,1238,1639,0,0
21,-615,0,0,0,0,0,0,0,0,0,-1,1245,1639,0,0
28,-615,0,0,0,0,0,0,0,0,0,-1,1252,1639,0,0
35,-615,0,0,0,0,0,0,0,0,0,-1,1259,1639,0,0
42,-615,0,0,0,0,0,0,0,0,0,-1,1266,1639,0,0
49,-615,0,0,0,0,0,0,0,0,0,-1,1273,1639,0,0
56,-615,0,0,0,0,0,0,0,0,0,-1,1280,1639,0,0
63,-615,0,0,0,0,0,0,0,0,0,-1,1287,1639,0,0
70,-615,0,0,0,0,0,0,0,0,0,-1,1294,1639,0,0
77,-615,0,0,0,0,0,0,0,0,0,-1,1301,1639,0,0
84,-615,0,0,0,0,0,0,0,0,0,-1,1308,1639,0,0
91,-615,0,0,0,0,0,0,0,0,0,-1,1315,1639,0,0
98,-615,0,0,0,0,0,0,0,0,0,-1,1322,1639,0,0
105,-615,0,0,0,0,0,0,0,0,0,-1,1329,1639,0,0
112,-615,0,0,0,0,0,0,0,0,0,-1,1336,1639,0,0
119,-615,0,0,0,0,0,0,0,0,0,-1,1343,1639,0,0
126,-615,0,0,0,0,0,0,0,0,0,-1,1350,1639,0,0
133,-615,0,0,0,0,0,0,0,0,0,-1,1357,1639,0,0
140,-615,0,0,0,0,0,0,0,0,0,-1,1364,1639,0,0
147,-615,0,0,0,0,0,0,0,0,0,-1,1371,1639,0,0
154,-615,0,0,0,0,0,0,0,0,0,-1,1378,1639,0,0
161,-615,0,0,0,0,0,0,0,0,0,-1,1385,1639,0,0
168,-615,0,0,0,0,0,0,0,0,0,-1,1392,1639,0,0
175,-615,5.39648,-2.00879,0,0,0,0,0,0,0,-1,1399,1639,5.3965,2.00881
182,-615,5.65393,-1.51025,0,0,0,0,0,0,0,-1,1406,1639,5.65388,1.51028
189,-615,5.58972,-1.35608,0,0,0,0,0,0,0,-1,1413,1639,5.58967,1.35607
196,-615,5.49915,-0.693604,0,0,0,0,0,0,0,-1,1420,1639,5.4991,0.693602
203,-615,5.33411,-0.226685,0,0,0,0,0,0,0,-1,1427,1639,5.33414,0.226689
210,-615,5.60278,0.108276,0,0,0,0,0,0,0,-1,1434,1639,5.60284,-0.10831
217,-615,6.26331,-0.307373,0,0,0,0,0,0,0,-1,1441,1639,6.26331,0.307372
224,-615,5.45422,-0.333984,0,0,0,0,0,0,0,-1,1448,1639,5.45422,0.333992
231,-615,4.92542,1.80298,0,0,0,0,0,0,0,-1,1455,1639,4.92537,-1.80297
238,-615,4.76355,1.96729,0,0,0,0,0,0,0,-1,1462,1639,4.76357,-1.96734
245,-615,4.08643,3.15906,0,0,0,0,0,0,0,-1,1469,1639,4.08638,-3.159
252,-615,6.37805,3.73889,0,0,0,0,0,0,0,-1,1476,1639,6.37806,-3.73891
259,-615,8.35974,3.16443,0,0,0,0,0,0,0,-1,1483,1639,8.35975,-3.16444
266,-615,10.3414,2.58997,0,0,0,0,0,0,0,-1,1490,1639,10.3414,-2.58996
273,-615,6.57043,1.84766,0,0,0,0,0,0,0,-1,1497,1639,6.5704,-1.84771
280,-615,7.10449,3.23438,0,0,0,0,0,0,0,-1,1504,1639,7.10447,-3.23435
287,-615,7.35779,4.68542,0,0,0,0,0,0,0,-1,1511,1639,7.35776,-4.68546
294,-615,7.63733,6.29114,0,0,0,0,0,0,0,-1,1518,1639,7.63735,-6.29109
301,-615,8.47925,11.452,0,0,0,0,0,0,0,-1,1525,1639,8.47922,-11.452
308,-615,6.8114,10.9059,0,0,0,0,0,0,0,-1,1532,1639,6.81137,-10.9058
315,-615,5.1427,14.7251,0,0,0,0,0,0,0,-1,1539,1639,5.14269,-14.7251
322,-615,7.17981,17.6864,0,0,0,0,0,0,0,-1,1546,1639,7.17985,-17.6864
329,-615,7.62134,20.4354,0,0,0,0,0,0,0,-1,1553,1639,7.62139,-20.4354
336,-615,6.45007,14.1138,0,0,0,0,0,0,0,-1,1560,1639,6.45011,-14.1138
343,-615,2.40491,6.50134,0,0,0,0,0,0,0,-1,1567,1639,2.40489,-6.50137
350,-615,16.3262,55.0724,0,0,0,0,0,0,0,-1,1574,1639,16.3261,-55.0724
357,-615,17.467,55.7603,0,0,0,0,0,0,0,-1,1581,1639,17.4671,-55.7602
364,-615,17.2947,54.4803,0,0,0,0,0,0,0,-1,1588,1639,17.2947,-54.4804
371,-615,17.299,53.9515,0.022684,0.0216247,-0.0181076,0.0402697,0.004039,-0.770778,0.0256065,0.0404078,1595,1639,17.2989,-53.9515
378,-615,17.5942,52.9757,0.0196785,0.0181902,-0.014981,0.0339338,0.00393492,-0.760581,0.0214316,0.0199636,1602,1639,17.5942,-52.9757
385,-615,17.603,52.2156,0.0166101,0.0149291,-0.011994,0.027793,0.00374621,-0.750418,0.0174148,0.0119543,1609,1639,17.603,-52.2156
392,-615,17.6252,51.5354,0.0135672,0.0120862,-0.00932173,0.0221778,0.00347562,-0.745762,0.0137736,0.0111418,1616,1639,17.6253,-51.5354
399,-615,17.6104,50.8398,0.0107592,0.00962922,-0.00706736,0.0172841,0.0031043,-0.745511,0.01064,0.0128479,1623,1639,17.6103,-50.8399
406,-615,17.5892,50.1556,0.0083749,0.0075816,-0.00533112,0.0133241,0.00263239,-0.748265,0.00814827,0.0123586,1630,1639,17.5892,-50.1557
413,-615,17.5719,49.4871,0.0064584,0.00573494,-0.0039215,0.0100348,0.00215852,-0.739407,0.00609905,0.0136061,1637,1639,17.5719,-49.487
420,-615,17.5398,48.7732,0.00491582,0.0044964,-0.00297744,0.00769092,0.0017213,-0.75024,0.0046607,0.0150815,1644,1639,17.5397,-48.7732
427,-615,17.5076,48.033,0.00354742,0.00288605,-0.00208161,0.00532445,0.00110903,-0.706626,0.00324378,0.0157105,1651,1639,17.5075,-48.033
434,-615,17.4856,47.3292,0.00238885,0.00245814,-0.00171392,0.00413776,0.000709231,-0.795503,0.00255512,0.0145739,1658,1639,17.4855,-47.3293
441,-615,17.4513,46.6006,0.00196965,0.00194583,-0.00189337,0.00385114,6.43372e-05,-0.782253,0.00254625,0.0149575,1665,1639,17.4513,-46.6006
448,-615,17.4139,45.871,0.00196929,0.001525,-0.0022188,0.00397704,-0.000482741,-0.735504,0.00282605,0.014984,1672,1639,17.4139,-45.8709
455,-615,17.4015,45.1281,0.00195313,0.00118294,-0.00257029,0.00416701,-0.00103094,-0.711039,0.0031779,0.0144567,1679,1639,17.4015,-45.1281
462,-615,17.3542,44.405,0.00188569,0.000856831,-0.00290036,0.00431689,-0.00157437,-0.697627,0.00352203,0.0157712,1686,1639,17.3542,-44.405
469,-615,17.3021,43.6547,0.00186686,0.00069818,-0.00330569,0.00463946,-0.00207442,-0.697918,0.00396943,0.0123884,1693,1639,17.3021,-43.6547
476,-615,17.2609,42.8771,0.00179488,0.000621166,-0.00357257,0.00482847,-0.00241243,-0.703992,0.0042574,0.0119255,1700,1639,17.2609,-42.877
483,-615,17.2694,42.0044,0.00167358,0.00035175,-0.00393477,0.00500256,-0.00297723,-0.702191,0.00465633,0.0317319,1707,1639,17.2695,-42.0044
490,-615,17.2704,41.1451,0,0,0,0,0,0,0,-1,1714,1639,17.2704,-41.1451
497,-615,17.3695,40.3043,0,0,0,0,0,0,0,-1,1721,1639,17.3695,-40.3044
504,-615,16.4989,34.738,0,0,0,0,0,0,0,-1,1728,1639,16.4989,-34.738
511,-615,15.2349,30.2052,0,0,0,0,0,0,0,-1,1735,1639,15.2348,-30.2052
518,-615,13.2416,9.81812,0,0,0,0,0,0,0,-1,1742,1639,13.2416,-9.81813
525,-615,4.37524,3.90491,0,0,0,0,0,0,0,-1,1749,1639,4.37518,-3.90495
532,-615,7.3645,0.848145,0,0,0,0,0,0,0,-1,1756,1639,7.36451,-0.848093
539,-615,12.8112,-0.0476074,0,0,0,0,0,0,0,-1,1763,1639,12.8111,0.0475553
546,-615,8.33813,2.94556,0,0,0,0,0,0,0,-1,1770,1639,8.33813,-2.9455
553,-615,5.82532,-2.04199,0,0,0,0,0,0,0,-1,1777,1639,5.82534,2.04195
560,-615,0,0,0,0,0,0,0,0,0,-1,1784,1639,0,0
567,-615,0,0,0,0,0,0,0,0,0,-1,1791,1639,0,0
574,-615,0,0,0,0,0,0,0,0,0,-1,1798,1639,0,0
581,-615,0,0,0,0,0,0,0,0,0,-1,1805,1639,0,0
588,-615,0,0,0,0,0,0,0,0,0,-1,1812,1639,0,0
595,-615,0,0,0,0,0,0,0,0,0,-1,1819,1639,0,0
602,-615,0,0,0,0,0,0,0,0,0,-1,1826,1639,0,0
609,-615,0,0,0,0,0,0,0,0,0,-1,1833,1639,0,0
616,-615,0,0,0,0,0,0,0,0,0,-1,1840,1639,0,0
623,-615,0,0,0,0,0,0,0,0,0,-1,1847,1639,0,0
630,-615,0,0,0,0,0,0,0,0,0,-1,1854,1639,0,0
637,-615,0,0,0,0,0,0,0,0,0,-1,1861,1639,0,0
644,-615,0,0,0,0,0,0,0,0,0,-1,1868,1639,0,0
651,-615,0,0,0,0,0,0,0,0,0,-1,1875,1639,0,0
658,-615,0,0,0,0,0,0,0,0,0,-1,1882,1639,0,0
665,-615,0,0,0,0,0,0,0,0,0,-1,1889,1639,0,0
672,-615,0,0,0,0,0,0,0,0,0,-1,1896,1639,0,0
679,-615,0,0,0,0,0,0,0,0,0,-1,1903,1639,0,0
686,-615,0,0,0,0,0,0,0,0,0,-1,1910,1639,0,0
693,-615,0,0,0,0,0,0,0,0,0,-1,1917,1639,0,0
700,-615,0,0,0,0,0,0,0,0,0,-1,1924,1639,0,0
707,-615,0,0,0,0,0,0,0,0,0,-1,1931,1639,0,0
714,-615,0,0,0,0,0,0,0,0,0,-1,1938,1639,0,0
721,-615,0,0,0,0,0,0,0,0,0,-1,1945,1639,0,0
728,-615,0,0,0,0,0,0,0,0,0,-1,1952,1639,0,0
735,-615,0,0,0,0,0,0,0,0,0,-1,1959,1639,0,0
742,-615,0,0,0,0,0,0,0,0,0,-1,1966,1639,0,0
749,-615,0,0,0,0,0,0,0,0,0,-1,1973,1639,0,0
756,-615,0,0,0,0,0,0,0,0,0,-1,1980,1639,0,0
763,-615,0,0,0,0,0,0,0,0,0,-1,1987,1639,0,0
770,-615,0,0,0,0,0,0,0,0,0,-1,1994,1639,0,0
777,-615,0,0,0,0,0,0,0,0,0,-1,2001,1639,0,0
784,-615,0,0,0,0,0,0,0,0,0,-1,2008,1639,0,0
791,-615,0,0,0,0,0,0,0,0,0,-1,2015,1639,0,0
798,-615,0,0,0,0,0,0,0,0,0,-1,2022,1639,0,0
805,-615,0,0,0,0,0,0,0,0,0,-1,2029,1639,0,0
812,-615,0,0,0,0,0,0,0,0,0,-1,2036,1639,0,0
-700,-622,0,0,0,0,0,0,0,0,0,-1,524,1646,0,0
-693,-622,0,0,0,0,0,0,0,0,0,-1,531,1646,0,0
-686,-622,0,0,0,0,0,0,0,0,0,-1,538,1646,0,0
-679,-622,0,0,0,0,0,0,0,0,0,-1,545,1646,0,0
-672,-622,0,0,0,0,0,0,0,0,0,-1,552,1646,0,0
-665,-622,0,0,0,0,0,0,0,0,0,-1,559,1646,0,0
-658,-622,0,0,0,0,0,0,0,0,0,-1,566,1646,0,0
-651,-622,0,0,0,0,0,0,0,0,0,-1,573,1646,0,0
-644,-622,0,0,0,0,0,0,0,0,0,-1,580,1646,0,0
-637,-622,0,0,0,0,0,0,0,0,0,-1,587,1646,0,0
-630,-622,0,0,0,0,0,0,0,0,0,-1,594,1646,0,0
-623,-622,0,0,0,0,0,0,0,0,0,-1,601,1646,0,0
-616,-622,0,0,0,0,0,0,0,0,0,-1,608,1646,0,0
-609,-622,0,0,0,0,0,0,0,0,0,-1,615,1646,0,0
-602,-622,0,0,0,0,0,0,0,0,0,-1,622,1646,0,0
-595,-622,0,0,0,0,0,0,0,0,0,-1,629,1646,0,0
-588,-622,0,0,0,0,0,0,0,0,0,-1,636,1646,0,0
-581,-622,0,0,0,0,0,0,0,0,0,-1,643,1646,0,0
-574,-622,0,0,0,0,0,0,0,0,0,-1,650,1646,0,0
-567,-622,0,0,0,0,0,0,0,0,0,-1,657,1646,0,0
-560,-622,0,0,0,0,0,0,0,0,0,-1,664,1646,0,0
-553,-622,0,0,0,0,0,0,0,0,0,-1,671,1646,0,0
-546,-622,0,0,0,0,0,0,0,0,0,-1,678,1646,0,0
-539,-622,0,0,0,0,0,0,0,0,0,-1,685,1646,0,0
-532,-622,0,0,0,0,0,0,0,0,0,-1,692,1646,0,0
-525,-622,0,0,0,0,0,0,0,0,0,-1,699,1646,0,0
-518,-622,0,0,0,0,0,0,0,0,0,-1,706,1646,0,0
-511,-622,0,0,0,0,0,0,0,0,0,-1,713,1646,0,0
-504,-622,0,0,0,0,0,0,0,0,0,-1,720,1646,0,0
-497,-622,0,0,0,0,0,0,0,0,0,-1,727,1646,0,0
-490,-622,0,0,0,0,0,0,0,0,0,-1,734,1646,0,0
-483,-622,0,0,0,0,0,0,0,0,0,-1,741,1646,0,0
-476,-622,0,0,0,0,0,0,0,0,0,-1,748,1646,0,0
-469,-622,0,0,0,0,0,0,0,0,0,-1,755,1646,0,0
-462,-622,0,0,0,0,0,0,0,0,0,-1,762,1646,0,0
-455,-622,0,0,0,0,0,0,0,0,0,-1,769,1646,0,0
-448,-622,0,0,0,0,0,0,0,0,0,-1,776,1646,0,0
-441,-622,0,0,0,0,0,0,0,0,0,-1,783,1646,0,0
-434,-622,0,0,0,0,0,0,0,0,0,-1,790,1646,0,0
-427,-622,-7.62891,3.48096,0,0,0,0,0,0,0,-1,797,1646,-7.62892,-3.48092
-420,-622,-9.35791,1.77185,0,0,0,0,0,0,0,-1,804,1646,-9.35789,-1.77183
-413,-622,-8.46075,1.96777,0,0,0,0,0,0,0,-1,811,1646,-8.46074,-1.96774
-406,-622,-4.44318,2.16858,0,0,0,0,0,0,0,-1,818,1646,-4.44315,-2.16859
-399,-622,-7.06976,1.51001,0,0,0,0,0,0,0,-1,825,1646,-7.06976,-1.51005
-392,-622,3.89551,5.85376,0,0,0,0,0,0,0,-1,832,1646,3.8955,-5.85379
-385,-622,2.00543,14.0448,0,0,0,0,0,0,0,-1,839,1646,2.00544,-14.0448
-378,-622,1.49036,15.3436,0,0,0,0,0,0,0,-1,846,1646,1.49033,-15.3436
-371,-622,1.5274,38.0657,0,0,0,0,0,0,0,-1,853,1646,1.5274,-38.0657
-364,-622,1.17371,40.7305,0,0,0,0,0,0,0,-1,860,1646,1.17371,-40.7304
-357,-622,1.52972,41.8224,0,0,0,0,0,0,0,-1,867,1646,1.52971,-41.8224
-350,-622,1.58887,43.0883,0,0,0,0,0,0,0,-1,874,1646,1.58888,-43.0882
-343,-622,1.48682,43.8267,0.000501479,0.0028466,0.00348711,0.00535301,-0.00200493,0.947587,0.00439226,0.0306306,881,1646,1.48679,-43.8266
-336,-622,1.55334,44.5238,0.000474806,0.00219567,0.00300431,0.00446033,-0.00178985,0.924865,0.00371672,0.00984634,888,1646,1.55334,-44.5238
-329,-622,1.49432,45.291,0.000425111,0.00178362,0.00258075,0.00377301,-0.00156428,0.91408,0.00316822,0.00876657,895,1646,1.49433,-45.291
-322,-622,1.44952,46.0763,0.000438305,0.00152495,0.002222,0.00326909,-0.00130584,0.905305,0.0027212,0.0112815,902,1646,1.4495,-46.0763
-315,-622,1.41345,46.8477,0.000574665,0.00138895,0.00199063,0.00301365,-0.00105003,0.886271,0.00243576,0.0154574,909,1646,1.41345,-46.8477
-308,-622,1.37878,47.5686,0.000829044,0.0014677,0.00189771,0.00307276,-0.000776014,0.868752,0.00235028,0.0156381,916,1646,1.37879,-47.5686
-301,-622,1.34662,48.2852,0.00118937,0.00189145,0.00194354,0.0035154,-0.00043458,0.874743,0.00250108,0.0146495,923,1646,1.3466,-48.2852
-294,-622,1.29712,49.0398,0.00171576,0.00260035,0.00218665,0.00438899,-7.28741e-05,0.885188,0.00295058,0.0110477,930,1646,1.29711,-49.0398
-287,-622,1.27643,49.756,0.00226421,0.00343417,0.00250578,0.00542234,0.000276039,0.900071,0.00352648,0.00868142,937,1646,1.27644,-49.756
-280,-622,1.23938,50.4651,0.00298762,0.00432437,0.00290781,0.00663963,0.000672356,0.898364,0.00422019,0.0111738,944,1646,1.23939,-50.4651
-273,-622,1.2132,51.1758,0.00387812,0.00520823,0.00337675,0.00798479,0.00110156,0.882629,0.00499665,0.0177008,951,1646,1.21319,-51.1758
-266,-622,1.16168,51.8949,0.00473695,0.00624539,0.00386889,0.0094329,0.00154944,0.881664,0.00584102,0.016588,958,1646,1.16171,-51.8949
-259,-622,1.17059,52.6172,0.00568245,0.00728661,0.00438132,0.0109387,0.00203039,0.875929,0.0067187,0.0136503,965,1646,1.17057,-52.6172
-252,-622,1.1593,53.2841,0.00675213,0.00827019,0.00478573,0.0123567,0.00266561,0.864045,0.00750868,0.0139343,972,1646,1.1593,-53.2841
-245,-622,1.18842,53.975,0.00784229,0.00893552,0.00508429,0.0135025,0.00327532,0.838948,0.00813279,0.0116654,979,1646,1.18839,-53.9749
-238,-622,1.17102,54.6378,0.00879015,0.0087458,0.00518244,0.0139505,0.00358548,0.783259,0.00836533,0.0132841,986,1646,1.17105,-54.6378
-231,-622,1.22089,55.3646,0.00968529,0.00833116,0.00511065,0.0141635,0.00385292,0.719541,0.00845589,0.0209309,993,1646,1.22087,-55.3646
-224,-622,1.35669,55.9364,0.010332,0.00740519,0.0048361,0.0139212,0.00381592,0.638479,0.00830636,0.0322836,1000,1646,1.35669,-55.9364
-217,-622,1.47925,56.5443,0,0,0,0,0,0,0,-1,1007,1646,1.47928,-56.5444
-210,-622,1.479,56.8934,0,0,0,0,0,0,0,-1,1014,1646,1.47902,-56.8934
-203,-622,4.21375,20.9574,0,0,0,0,0,0,0,-1,1021,1646,4.21375,-20.9574
-196,-622,1.69104,57.2128,0,0,0,0,0,0,0,-1,1028,1646,1.69104,-57.2128
-189,-622,1.75281,58.5787,0,0,0,0,0,0,0,-1,1035,1646,1.75285,-58.5787
-182,-622,1.69482,58.839,0,0,0,0,0,0,0,-1,1042,1646,1.69487,-58.839
-175,-622,3.61438,53.5428,0,0,0,0,0,0,0,-1,1049,1646,3.61438,-53.5428
-168,-622,3.44849,53.4453,0,0,0,0,0,0,0,-1,1056,1646,3.44848,-53.4453
-161,-622,2.79761,52.5291,0,0,0,0,0,0,0,-1,1063,1646,2.79756,-52.529
-154,-622,2.00879,52.2384,0,0,0,0,0,0,0,-1,1070,1646,2.00874,-52.2384
-147,-622,0.939453,52.2694,0,0,0,0,0,0,0,-1,1077,1646,0.939511,-52.2694
-140,-622,0.546997,48.6783,0,0,0,0,0,0,0,-1,1084,1646,0.547022,-48.6784
-133,-622,3.09644,17.677,0,0,0,0,0,0,0,-1,1091,1646,3.09638,-17.677
-126,-622,3.5061,19.5251,0,0,0,0,0,0,0,-1,1098,1646,3.50616,-19.5252
-119,-622,4.06384,13.1715,0,0,0,0,0,0,0,-1,1105,1646,4.06379,-13.1716
-112,-622,4.33276,14.6605,0,0,0,0,0,0,0,-1,1112,1646,4.33281,-14.6605
-105,-622,0.306519,4.38159,0,0,0,0,0,0,0,-1,1119,1646,0.306536,-4.38159
-98,-622,-0.510376,3.5033,0,0,0,0,0,0,0,-1,1126,1646,-0.510393,-3.50324
-91,-622,-1.146,0.975952,0,0,0,0,0,0,0,-1,1133,1646,-1.14599,-0.97597
-84,-622,-2.04895,1.31787,0,0,0,0,0,0,0,-1,1140,1646,-2.0489,-1.31781
-77,-622,-1.80627,0.332275,0,0,0,0,0,0,0,-1,1147,1646,-1.80622,-0.33223
-70,-622,-3.65588,2.28149,0,0,0,0,0,0,0,-1,1154,1646,-3.65589,-2.28155
-63,-622,-2.49683,1.27087,0,0,0,0,0,0,0,-1,1161,1646,-2.49679,-1.27093
-56,-622,-2.44238,-0.575562,0,0,0,0,0,0,0,-1,1168,1646,-2.44242,0.575508
-49,-622,-2.41089,1.38818,0,0,0,0,0,0,0,-1,1175,1646,-2.41088,-1.38815
-42,-622,-2.71497,2.85242,0,0,0,0,0,0,0,-1,1182,1646,-2.71491,-2.85247
-35,-622,-3.0177,4.25842,0,0,0,0,0,0,0,-1,1189,1646,-3.01773,-4.25838
-28,-622,-0.896606,0.678833,0,0,0,0,0,0,0,-1,1196,1646,-0.89661,-0.678835
-21,-622,16.4141,36.2849,0,0,0,0,0,0,0,-1,1203,1646,16.4141,-36.285
-14,-622,-4.54675,49.5179,0,0,0,0,0,0,0,-1,1210,1646,-4.54671,-49.5179
-7,-622,-3.02295,48.9022,0,0,0,0,0,0,0,-1,1217,1646,-3.0229,-48.9022
0,-622,0,0,0,0,0,0,0,0,0,-1,1224,1646,0,0
7,-622,0,0,0,0,0,0,0,0,0,-1,1231,1646,0,0
14,-622,0,0,0,0,0,0,0,0,0,-1,1238,1646,0,0
21,-622,0,0,0,0,0,0,0,0,0,-1,1245,1646,0,0
28,-622,0,0,0,0,0,0,0,0,0,-1,1252,1646,0,0
35,-622,0,0,0,0,0,0,0,0,0,-1,1259,1646,0,0
42,-622,0,0,0,0,0,0,0,0,0,-1,1266,1646,0,0
49,-622,0,0,0,0,0,0,0,0,0,-1,1273,1646,0,0
56,-622,0,0,0,0,0,0,0,0,0,-1,1280,1646,0,0
63,-622,0,0,0,0,0,0,0,0,0,-1,1287,1646,0,0
70,-622,0,0,0,0,0,0,0,0,0,-1,1294,1646,0,0
77,-622,0,0,0,0,0,0,0,0,0,-1,1301,1646,0,0
84,-622,0,0,0,0,0,0,0,0,0,-1,1308,1646,0,0
91,-622,0,0,0,0,0,0,0,0,0,-1,1315,1646,0,0
98,-622,0,0,0,0,0,0,0,0,0,-1,1322,1646,0,0
105,-622,0,0,0,0,0,0,0,0,0,-1,1329,1646,0,0
112,-622,0,0,0,0,0,0,0,0,0,-1,1336,1646,0,0
119,-622,0,0,0,0,0,0,0,0,0,-1,1343,1646,0,0
126,-622,0.348267,63.5461,0.150047,0.0996255,-0.198897,0.325324,-0.0756519,-0.722358,0.246009,0.043443,1350,1646,0.348276,-63.5462
133,-622,1.15491,61.8385,0.196092,0.111928,-0.220221,0.378216,-0.0701948,-0.690991,0.278506,0.0472737,1357,1646,1.15492,-61.8385
140,-622,2.5354,60.1932,0.239755,0.122269,-0.241016,0.429083,-0.0670594,-0.665864,0.310829,0.0432987,1364,1646,2.53546,-60.1932
147,-622,4.72864,58.6733,0,0,0,0,0,0,0,-1,1371,1646,4.72864,-58.6734
154,-622,7.00928,57.0911,0,0,0,0,0,0,0,-1,1378,1646,7.00934,-57.0911
161,-622,10.6884,6.46448,0,0,0,0,0,0,0,-1,1385,1646,10.6883,-6.46442
168,-622,12.2402,5.18091,0,0,0,0,0,0,0,-1,1392,1646,12.2403,-5.1809
175,-622,5.64355,-1.77075,0,0,0,0,0,0,0,-1,1399,1646,5.64351,1.77077
182,-622,5.88586,-1.32251,0,0,0,0,0,0,0,-1,1406,1646,5.88587,1.32256
189,-622,5.97986,-1.18005,0,0,0,0,0,0,0,-1,1413,1646,5.97986,1.18003
196,-622,5.85022,-0.244507,0,0,0,0,0,0,0,-1,1420,1646,5.85026,0.244478
203,-622,5.25159,0.138794,0,0,0,0,0,0,0,-1,1427,1646,5.25162,-0.138822
210,-622,6.66833,0.0397949,0,0,0,0,0,0,0,-1,1434,1646,6.6684,-0.0398278
217,-622,6.12061,0.0506592,0,0,0,0,0,0,0,-1,1441,1646,6.12058,-0.0507181
224,-622,5.57275,0.0616455,0,0,0,0,0,0,0,-1,1448,1646,5.57276,-0.0616084
231,-622,5.31348,1.3949,0,0,0,0,0,0,0,-1,1455,1646,5.31342,-1.39495
238,-622,3.76477,2.90686,0,0,0,0,0,0,0,-1,1462,1646,3.7648,-2.90686
245,-622,5.13794,2.67993,0,0,0,0,0,0,0,-1,1469,1646,5.13796,-2.67992
252,-622,6.66528,2.53992,0,0,0,0,0,0,0,-1,1476,1646,6.66522,-2.53991
259,-622,8.93787,3.31458,0,0,0,0,0,0,0,-1,1483,1646,8.93791,-3.31454
266,-622,5.72644,3.11926,0,0,0,0,0,0,0,-1,1490,1646,5.72647,-3.1192
273,-622,7.28076,3.61218,0,0,0,0,0,0,0,-1,1497,1646,7.28071,-3.61212
280,-622,8.43127,4.4447,0,0,0,0,0,0,0,-1,1504,1646,8.43123,-4.44467
287,-622,8.60315,5.94617,0,0,0,0,0,0,0,-1,1511,1646,8.60319,-5.94622
294,-622,7.62756,11.5143,0,0,0,0,0,0,0,-1,1518,1646,7.62762,-11.5143
301,-622,7.36548,11.6569,0,0,0,0,0,0,0,-1,1525,1646,7.36549,-11.6569
308,-622,7.10339,11.7994,0,0,0,0,0,0,0,-1,1532,1646,7.10335,-11.7995
315,-622,8.28687,16.5842,0,0,0,0,0,0,0,-1,1539,1646,8.28689,-16.5843
322,-622,7.43689,20.5786,0,0,0,0,0,0,0,-1,1546,1646,7.43685,-20.5786
329,-622,9.76477,26.4202,0,0,0,0,0,0,0,-1,1553,1646,9.7648,-26.4202
336,-622,10.4526,28.8552,0,0,0,0,0,0,0,-1,1560,1646,10.4526,-28.8552
343,-622,16.2339,55.6134,0,0,0,0,0,0,0,-1,1567,1646,16.2339,-55.6134
350,-622,17.1068,55.9102,0,0,0,0,0,0,0,-1,1574,1646,17.1068,-55.9102
357,-622,16.9497,55.364,0.019568,0.0215485,-0.016725,0.0373125,0.00380396,-0.814968,0.023709,0.041424,1581,1646,16.9497,-55.364
364,-622,16.829,54.3666,0.0182724,0.0191538,-0.0151796,0.0338991,0.0035271,-0.79991,0.0215202,0.033204,1588,1646,16.829,-54.3666
371,-622,16.9045,53.6642,0.0165632,0.0165763,-0.0132302,0.0298,0.00333953,-0.785644,0.0188523,0.0209371,1595,1646,16.9045,-53.6642
378,-622,16.928,52.9528,0.014568,0.0140763,-0.0111388,0.0254636,0.00318066,-0.774365,0.0160211,0.0130138,1602,1646,16.928,-52.9528
385,-622,16.9312,52.2496,0.0124783,0.0116488,-0.00908099,0.021154,0.00297309,-0.762579,0.0132235,0.0106265,1609,1646,16.9312,-52.2496
392,-622,16.9097,51.5844,0.0102968,0.00944602,-0.00718167,0.0170657,0.00267713,-0.755817,0.010598,0.0117832,1616,1646,16.9097,-51.5844
399,-622,16.8667,50.8928,0.00820798,0.00753093,-0.00555654,0.0134363,0.00230261,-0.754974,0.00829719,0.0127305,1623,1646,16.8667,-50.8928
406,-622,16.8492,50.1649,0.00641787,0.00588463,-0.00427533,0.0104349,0.00186762,-0.754257,0.00642517,0.0156473,1630,1646,16.8493,-50.1649
413,-622,16.8488,49.4803,0.00497433,0.00439963,-0.00325481,0.00795446,0.00141951,-0.74137,0.00489884,0.0168003,1637,1646,16.8487,-49.4803
420,-622,16.8312,48.8145,0.00378202,0.00342836,-0.00258497,0.0061962,0.00101418,-0.751248,0.00383767,0.0165617,1644,1646,16.8312,-48.8144
427,-622,16.7936,48.0643,0.00275683,0.00222435,-0.00202372,0.00453174,0.000449433,-0.719994,0.00288305,0.0133491,1651,1646,16.7936,-48.0643
434,-622,16.7793,47.342,0.00198625,0.00190413,-0.00191956,0.00386519,2.51937e-05,-0.774705,0.00256843,0.0138954,1658,1646,16.7793,-47.3421
441,-622,16.7355,46.6313,0.00177201,0.00153072,-0.00220617,0.00386083,-0.000558099,-0.758082,0.00277866,0.0148226,1665,1646,16.7354,-46.6314
448,-622,16.678,45.9207,0.00186763,0.00124035,-0.00263342,0.00420603,-0.00109804,-0.726128,0.0032328,0.0147249,1672,1646,16.678,-45.9206
455,-622,16.6284,45.1573,0.00197104,0.00103371,-0.00309158,0.00462927,-0.00162453,-0.710174,0.00374698,0.0171399,1679,1646,16.6285,-45.1574
462,-622,16.6003,44.4158,0.00202363,0.000851112,-0.00356347,0.00504875,-0.00217401,-0.703869,0.00427874,0.0192475,1686,1646,16.6003,-44.4157
469,-622,16.568,43.6765,0.00217167,0.000826355,-0.00416284,0.00571585,-0.00271782,-0.705297,0.00497068,0.0198101,1693,1646,16.5679,-43.6765
476,-622,16.6604,42.8928,0.00230266,0.000835519,-0.00458168,0.00620912,-0.00307094,-0.706017,0.00545901,0.0396073,1700,1646,16.6604,-42.8929
483,-622,16.6025,41.9133,0,0,0,0,0,0,0,-1,1707,1646,16.6026,-41.9133
490,-622,15.8815,36.627,0,0,0,0,0,0,0,-1,1714,1646,15.8814,-36.6269
497,-622,14.9666,32.1024,0,0,0,0,0,0,0,-1,1721,1646,14.9665,-32.1024
504,-622,10.8306,19.8021,0,0,0,0,0,0,0,-1,1728,1646,10.8306,-19.8022
511,-622,5.29004,4.14587,0,0,0,0,0,0,0,-1,1735,1646,5.29008,-4.14589
518,-622,5.6001,1.55359,0,0,0,0,0,0,0,-1,1742,1646,5.60015,-1.5536
525,-622,5.83093,2.01807,0,0,0,0,0,0,0,-1,1749,1646,5.83097,-2.01802
532,-622,5.44202,0.57373,0,0,0,0,0,0,0,-1,1756,1646,5.44196,-0.573705
539,-622,9.32129,1.06116,0,0,0,0,0,0,0,-1,1763,1646,9.32131,-1.0612
546,-622,6.50977,-3.45618,0,0,0,0,0,0,0,-1,1770,1646,6.50981,3.4562
553,-622,0,0,0,0,0,0,0,0,0,-1,1777,1646,0,0
560,-622,0,0,0,0,0,0,0,0,0,-1,1784,1646,0,0
567,-622,0,0,0,0,0,0,0,0,0,-1,1791,1646,0,0
574,-622,0,0,0,0,0,0,0,0,0,-1,1798,1646,0,0
581,-622,0,0,0,0,0,0,0,0,0,-1,1805,1646,0,0
588,-622,0,0,0,0,0,0,0,0,0,-1,1812,1646,0,0
595,-622,0,0,0,0,0,0,0,0,0,-1,1819,1646,0,0
602,-622,0,0,0,0,0,0,0,0,0,-1,1826,1646,0,0
609,-622,0,0,0,0,0,0,0,0,0,-1,1833,1646,0,0
616,-622,0,0,0,0,0,0,0,0,0,-1,1840,1646,0,0
623,-622,0,0,0,0,0,0,0,0,0,-1,1847,1646,0,0
630,-622,0,0,0,0,0,0,0,0,0,-1,1854,1646,0,0
637,-622,0,0,0,0,0,0,0,0,0,-1,1861,1646,0,0
644,-622,0,0,0,0,0,0,0,0,0,-1,1868,1646,0,0
651,-622,0,0,0,0,0,0,0,0,0,-1,1875,1646,0,0
658,-622,0,0,0,0,0,0,0,0,0,-1,1882,1646,0,0
665,-622,0,0,0,0,0,0,0,0,0,-1,1889,1646,0,0
672,-622,0,0,0,0,0,0,0,0,0,-1,1896,1646,0,0
679,-622,0,0,0,0,0,0,0,0,0,-1,1903,1646,0,0
686,-622,0,0,0,0,0,0,0,0,0,-1,1910,1646,0,0
693,-622,0,0,0,0,0,0,0,0,0,-1,1917,1646,0,0
700,-622,0,0,0,0,0,0,0,0,0,-1,1924,1646,0,0
707,-622,0,0,0,0,0,0,0,0,0,-1,1931,1646,0,0
714,-622,0,0,0,0,0,0,0,0,0,-1,1938,1646,0,0
721,-622,0,0,0,0,0,0,0,0,0,-1,1945,1646,0,0
728,-622,0,0,0,0,0,0,0,0,0,-1,1952,1646,0,0
735,-622,0,0,0,0,0,0,0,0,0,-1,1959,1646,0,0
742,-622,0,0,0,0,0,0,0,0,0,-1,1966,1646,0,0
749,-622,0,0,0,0,0,0,0,0,0,-1,1973,1646,0,0
756,-622,0,0,0,0,0,0,0,0,0,-1,1980,1646,0,0
763,-622,0,0,0,0,0,0,0,0,0,-1,1987,1646,0,0
770,-622,0,0,0,0,0,0,0,0,0,-1,1994,1646,0,0
777,-622,0,0,0,0,0,0,0,0,0,-1,2001,1646,0,0
784,-622,0,0,0,0,0,0,0,0,0,-1,2008,1646,0,0
791,-622,0,0,0,0,0,0,0,0,0,-1,2015,1646,0,0
798,-622,0,0,0,0,0,0,0,0,0,-1,2022,1646,0,0
805,-622,0,0,0,0,0,0,0,0,0,-1,2029,1646,0,0
812,-622,0,0,0,0,0,0,0,0,0,-1,2036,1646,0,0
-700,-629,0,0,0,0,0,0,0,0,0,-1,524,1653,0,0
-693,-629,0,0,0,0,0,0,0,0,0,-1,531,1653,0,0
-686,-629,0,0,0,0,0,0,0,0,0,-1,538,1653,0,0
-679,-629,0,0,0,0,0,0,0,0,0,-1,545,1653,0,0
-672,-629,0,0,0,0,0,0,0,0,0,-1,552,1653,0,0
-665,-629,0,0,0,0,0,0,0,0,0,-1,559,1653,0,0
-658,-629,0,0,0,0,0,0,0,0,0,-1,566,1653,0,0
-651,-629,0,0,0,0,0,0,0,0,0,-1,573,1653,0,0
-644,-629,0,0,0,0,0,0,0,0,0,-1,580,1653,0,0
-637,-629,0,0,0,0,0,0,0,0,0,-1,587,1653,0,0
-630,-629,0,0,0,0,0,0,0,0,0,-1,594,1653,0,0
-623,-629,0,0,0,0,0,0,0,0,0,-1,601,1653,0,0
-616,-629,0,0,0,0,0,0,0,0,0,-1,608,1653,0,0
-609,-629,0,0,0,0,0,0,0,0,0,-1,615,1653,0,0
-602,-629,0,0,0,0,0,0,0,0,0,-1,622,1653,0,0
-595,-629,0,0,0,0,0,0,0,0,0,-1,629,1653,0,0
-588,-629,0,0,0,0,0,0,0,0,0,-1,636,1653,0,0
-581,-629,0,0,0,0,0,0,0,0,0,-1,643,1653,0,0
-574,-629,0,0,0,0,0,0,0,0,0,-1,650,1653,0,0
-567,-629,0,0,0,0,0,0,0,0,0,-1,657,1653,0,0
-560,-629,0,0,0,0,0,0,0,0,0,-1,664,1653,0,0
-553,-629,0,0,0,0,0,0,0,0,0,-1,671,1653,0,0
-546,-629,0,0,0,0,0,0,0,0,0,-1,678,1653,0,0
-539,-629,0,0,0,0,0,0,0,0,0,-1,685,1653,0,0
-532,-629,0,0,0,0,0,0,0,0,0,-1,692,1653,0,0
-525,-629,0,0,0,0,0,0,0,0,0,-1,699,1653,0,0
-518,-629,0,0,0,0,0,0,0,0,0,-1,706,1653,0,0
-511,-629,0,0,0,0,0,0,0,0,0,-1,713,1653,0,0
-504,-629,0,0,0,0,0,0,0,0,0,-1,720,1653,0,0
-497,-629,0,0,0,0,0,0,0,0,0,-1,727,1653,0,0
-490,-629,0,0,0,0,0,0,0,0,0,-1,734,1653,0,0
-483,-629,0,0,0,0,0,0,0,0,0,-1,741,1653,0,0
-476,-629,0,0,0,0,0,0,0,0,0,-1,748,1653,0,0
-469,-629,0,0,0,0,0,0,0,0,0,-1,755,1653,0,0
-462,-629,0,0,0,0,0,0,0,0,0,-1,762,1653,0,0
-455,-629,0,0,0,0,0,0,0,0,0,-1,769,1653,0,0
-448,-629,0,0,0,0,0,0,0,0,0,-1,776,1653,0,0
-441,-629,0,0,0,0,0,0,0,0,0,-1,783,1653,0,0
-434,-629,0,0,0,0,0,0,0,0,0,-1,790,1653,0,0
-427,-629,0,0,0,0,0,0,0,0,0,-1,797,1653,0,0
-420,-629,-3.87103,3.37634,0,0,0,0,0,0,0,-1,804,1653,-3.87101,-3.37633
-413,-629,-5.69751,1.33582,0,0,0,0,0,0,0,-1,811,1653,-5.69754,-1.3358
-406,-629,2.85406,6.01501,0,0,0,0,0,0,0,-1,818,1653,2.85405,-6.01507
-399,-629,-0.455627,10.8687,0,0,0,0,0,0,0,-1,825,1653,-0.455625,-10.8687
-392,-629,1.15369,11.1295,0,0,0,0,0,0,0,-1,832,1653,1.1537,-11.1295
-385,-629,1.81976,11.6935,0,0,0,0,0,0,0,-1,839,1653,1.81975,-11.6935
-378,-629,2.19452,14.7941,0,0,0,0,0,0,0,-1,846,1653,2.19451,-14.7941
-371,-629,3.60114,14.7299,0,0,0,0,0,0,0,-1,853,1653,3.60113,-14.7299
-364,-629,3.26898,21.0801,0,0,0,0,0,0,0,-1,860,1653,3.26895,-21.08
-357,-629,4.38782,16.3444,0,0,0,0,0,0,0,-1,867,1653,4.38783,-16.3443
-350,-629,2.02228,43.1716,0,0,0,0,0,0,0,-1,874,1653,2.0223,-43.1717
-343,-629,2.21161,43.9022,0.000541608,0.00387048,0.00473801,0.00722791,-0.00281582,0.954312,0.00598234,0.0428676,881,1653,2.21158,-43.9022
-336,-629,2.28088,44.5923,0.000191351,0.00290009,0.00413014,0.00589225,-0.00280081,0.943835,0.00512364,0.0194288,888,1653,2.28088,-44.5923
-329,-629,2.25891,45.3534,-8.31862e-05,0.00226672,0.00355242,0.00483345,-0.00264992,0.945109,0.00438141,0.0121422,895,1653,2.25892,-45.3534
-322,-629,2.20593,46.1012,-0.000253904,0.00180637,0.00303228,0.00397872,-0.00242625,0.949144,0.00373395,0.0129503,902,1653,2.20595,-46.1012
-315,-629,2.1358,46.8546,-0.000269402,0.00146391,0.00262643,0.00336298,-0.00216847,0.944761,0.00321831,0.0165395,909,1653,2.13581,-46.8546
-308,-629,2.08539,47.6044,-0.000124838,0.00131094,0.00235116,0.00305136,-0.00186527,0.933569,0.00286602,0.0133515,916,1653,2.08538,-47.6043
-301,-629,2.05463,48.37,0.00012892,0.00148293,0.00220375,0.00311132,-0.00149947,0.934425,0.00271572,0.0125123,923,1653,2.05465,-48.37
-294,-629,2.02625,49.0974,0.000582478,0.0019507,0.00224638,0.00361483,-0.00108166,0.933205,0.00283995,0.0130385,930,1653,2.02626,-49.0974
-287,-629,2.00256,49.8083,0.00107668,0.00253731,0.00236948,0.00428647,-0.000672479,0.934888,0.00310616,0.0102406,937,1653,2.00259,-49.8083
-280,-629,1.96313,50.5126,0.00173382,0.00315276,0.00254366,0.00508404,-0.000197457,0.9214,0.00345706,0.0113332,944,1653,1.96311,-50.5125
-273,-629,1.92432,51.203,0.00256436,0.00371553,0.00276466,0.00596388,0.000316003,0.888029,0.00387488,0.0154796,951,1653,1.92429,-51.2031
-266,-629,1.88751,51.9301,0.00336985,0.0044404,0.00298216,0.00693495,0.000875305,0.874199,0.00436091,0.0153094,958,1653,1.88749,-51.9301
-259,-629,1.87537,52.6653,0.00422736,0.00515998,0.00323477,0.00796188,0.00142547,0.856983,0.00490234,0.0153539,965,1653,1.87539,-52.6653
-252,-629,1.8559,53.3256,0.00513522,0.00581649,0.00337708,0.00887007,0.00208164,0.835662,0.00535608,0.0122449,972,1653,1.85589,-53.3256
-245,-629,1.86963,53.9969,0.00604549,0.00618742,0.00344759,0.00956477,0.00266814,0.795689,0.00569927,0.00885923,979,1653,1.8696,-53.9969
-238,-629,1.85034,54.6729,0.00680883,0.00586238,0.00339162,0.00976008,0.00291114,0.716082,0.00578584,0.0112035,986,1653,1.85034,-54.6729
-231,-629,1.7995,55.3405,0.00751481,0.00545383,0.00324627,0.00989022,0.00307842,0.631709,0.00584416,0.0145906,993,1653,1.79952,-55.3405
-224,-629,1.90094,56.0894,0.00807308,0.00468143,0.00291618,0.00975067,0.00300384,0.522037,0.00576615,0.0170849,1000,1653,1.90095,-56.0893
-217,-629,1.84912,56.6465,0.00852592,0.00352145,0.00246096,0.00953331,0.00251405,0.388541,0.00570525,0.0288117,1007,1653,1.84909,-56.6465
-210,-629,1.6673,57.6219,0,0,0,0,0,0,0,-1,1014,1653,1.6673,-57.622
-203,-629,1.82172,58.5364,0,0,0,0,0,0,0,-1,1021,1653,1.82174,-58.5364
-196,-629,2.35889,58.6515,0,0,0,0,0,0,0,-1,1028,1653,2.35893,-58.6515
-189,-629,2.13257,58.8047,0.0124988,-0.00626445,-0.000747125,0.0125285,-0.00629415,-0.0397347,0.0110642,0.0460488,1035,1653,2.13258,-58.8047
-182,-629,2.19031,59.3646,0,0,0,0,0,0,0,-1,1042,1653,2.19037,-59.3646
-175,-629,2.46887,60.1128,0,0,0,0,0,0,0,-1,1049,1653,2.46886,-60.1128
-168,-629,3.94775,55.7037,0,0,0,0,0,0,0,-1,1056,1653,3.94774,-55.7038
-161,-629,3.2146,53.0543,0,0,0,0,0,0,0,-1,1063,1653,3.21462,-53.0543
-154,-629,2.30042,52.7101,0,0,0,0,0,0,0,-1,1070,1653,2.30043,-52.7101
-147,-629,1.22363,52.6086,0,0,0,0,0,0,0,-1,1077,1653,1.22368,-52.6087
-140,-629,3.68201,55.7941,0,0,0,0,0,0,0,-1,1084,1653,3.68206,-55.7941
-133,-629,1.99792,57.769,0,0,0,0,0,0,0,-1,1091,1653,1.99792,-57.769
-126,-629,4.01025,19.5328,0,0,0,0,0,0,0,-1,1098,1653,4.01022,-19.5328
-119,-629,4.94177,13.5525,0,0,0,0,0,0,0,-1,1105,1653,4.94172,-13.5525
-112,-629,5.63123,15.9187,0,0,0,0,0,0,0,-1,1112,1653,5.63118,-15.9187
-105,-629,2.15881,4.38342,0,0,0,0,0,0,0,-1,1119,1653,2.15878,-4.38347
-98,-629,0.825806,4.19385,0,0,0,0,0,0,0,-1,1126,1653,0.825779,-4.1939
-91,-629,-0.452271,3.64465,0,0,0,0,0,0,0,-1,1133,1653,-0.452278,-3.6446
-84,-629,-2.6084,0.466797,0,0,0,0,0,0,0,-1,1140,1653,-2.6084,-0.466786
-77,-629,-3.50903,2.10706,0,0,0,0,0,0,0,-1,1147,1653,-3.509,-2.10707
-70,-629,-1.20886,2.52502,0,0,0,0,0,0,0,-1,1154,1653,-1.20886,-2.525
-63,-629,-0.960693,4.30212,0,0,0,0,0,0,0,-1,1161,1653,-0.960691,-4.30215
-56,-629,-1.31934,5.64343,0,0,0,0,0,0,0,-1,1168,1653,-1.31928,-5.6434
-49,-629,-2.15662,2.57458,0,0,0,0,0,0,0,-1,1175,1653,-2.15656,-2.57459
-42,-629,-2.46326,3.91467,0,0,0,0,0,0,0,-1,1182,1653,-2.4633,-3.91466
-35,-629,-2.67261,5.24292,0,0,0,0,0,0,0,-1,1189,1653,-2.67257,-5.24298
-28,-629,-0.402954,-0.866577,0,0,0,0,0,0,0,-1,1196,1653,-0.402943,0.866612
-21,-629,3.45508,27.0596,0,0,0,0,0,0,0,-1,1203,1653,3.45508,-27.0596
-14,-629,-2.63892,51.2357,0,0,0,0,0,0,0,-1,1210,1653,-2.63893,-51.2357
-7,-629,16.463,91.7904,0,0,0,0,0,0,0,-1,1217,1653,16.463,-91.7904
0,-629,16.3762,90.2874,0,0,0,0,0,0,0,-1,1224,1653,16.3762,-90.2873
7,-629,18.6547,87.9913,-0.00467134,-0.0872607,-0.0540952,0.0220894,-0.114022,-0.459397,0.0843472,0.0425387,1231,1653,18.6547,-87.9913
14,-629,17.8579,86.0962,-0.0147975,-0.0774707,-0.0652501,0.0262507,-0.118519,-0.561535,0.0890618,0.041618,1238,1653,17.8579,-86.0962
21,-629,17.3373,84.5911,-0.0226713,-0.0647707,-0.0795836,0.0385993,-0.126041,-0.65611,0.0994237,0.0425113,1245,1653,17.3373,-84.5911
28,-629,16.7012,84.101,0,0,0,0,0,0,0,-1,1252,1653,16.7012,-84.1009
35,-629,15.8459,82.4927,-0.0394485,-0.0383267,-0.102537,0.0636512,-0.141426,-0.788133,0.121207,0.0444844,1259,1653,15.846,-82.4927
42,-629,15.0061,80.651,-0.0479673,-0.0268011,-0.110256,0.0733782,-0.148147,-0.833245,0.130303,0.0471883,1266,1653,15.006,-80.651
49,-629,14.344,78.7784,-0.0559149,-0.0168916,-0.115708,0.0809382,-0.153745,-0.868927,0.13765,0.0475037,1273,1653,14.3439,-78.7785
56,-629,13.7147,76.9248,-0.0642962,-0.0107457,-0.118171,0.0836459,-0.158688,-0.896807,0.14213,0.0478552,1280,1653,13.7148,-76.9249
63,-629,13.2524,75.1141,-0.0713182,-0.005472,-0.120884,0.0868916,-0.163682,-0.91835,0.146916,0.043581,1287,1653,13.2524,-75.1142
70,-629,12.908,73.4448,-0.0690897,0.00251704,-0.122875,0.094699,-0.161272,-0.927163,0.149441,0.0419438,1294,1653,12.9079,-73.4448
77,-629,12.3048,71.8925,-0.059097,0.0127389,-0.127558,0.10934,-0.155698,-0.922635,0.153798,0.043836,1301,1653,12.3048,-71.8925
84,-629,11.3679,70.6722,-0.0462924,0.0201794,-0.131519,0.122597,-0.14871,-0.909161,0.156881,0.0440366,1308,1653,11.3679,-70.6722
91,-629,10.2664,69.4437,-0.0263689,0.0280006,-0.136305,0.139805,-0.138174,-0.883827,0.160492,0.0436709,1315,1653,10.2664,-69.4437
98,-629,9.21802,68.0247,-0.0060471,0.0353126,-0.140907,0.157049,-0.127784,-0.858259,0.164737,0.044394,1322,1653,9.21797,-68.0247
105,-629,8.91809,66.2443,0,0,0,0,0,0,0,-1,1329,1653,8.91804,-66.2442
112,-629,-0.808716,65.2778,0,0,0,0,0,0,0,-1,1336,1653,-0.808715,-65.2778
119,-629,0.82666,64.1561,0.0818911,0.0610497,-0.171996,0.243782,-0.100841,-0.755142,0.204593,0.0440199,1343,1653,0.82671,-64.1561
126,-629,1.88,62.7925,0.121508,0.0722414,-0.189783,0.288249,-0.0944999,-0.72086,0.230225,0.041972,1350,1653,1.88004,-62.7925
133,-629,2.65771,61.3921,0.165166,0.0840043,-0.210664,0.339123,-0.0899521,-0.690247,0.261279,0.0467477,1357,1653,2.65769,-61.3921
140,-629,3.71277,59.9144,0.207902,0.0951673,-0.23152,0.389818,-0.086748,-0.665988,0.293105,0.0481833,1364,1653,3.71282,-59.9144
147,-629,4.13013,58.2078,0,0,0,0,0,0,0,-1,1371,1653,4.13018,-58.2077
154,-629,6.41516,53.151,0,0,0,0,0,0,0,-1,1378,1653,6.41517,-53.151
161,-629,10.5461,6.83752,0,0,0,0,0,0,0,-1,1385,1653,10.5461,-6.83758
168,-629,12.0059,5.56348,0,0,0,0,0,0,0,-1,1392,1653,12.0059,-5.56352
175,-629,5.84485,-1.78845,0,0,0,0,0,0,0,-1,1399,1653,5.84479,1.7884
182,-629,5.99036,-1.27783,0,0,0,0,0,0,0,-1,1406,1653,5.99041,1.27778
189,-629,5.97668,-0.748535,0,0,0,0,0,0,0,-1,1413,1653,5.97671,0.748544
196,-629,4.52869,9.24695,0,0,0,0,0,0,0,-1,1420,1653,4.52869,-9.2469
203,-629,3.75085,6.88037,0,0,0,0,0,0,0,-1,1427,1653,3.75087,-6.88032
210,-629,3.5907,6.52637,0,0,0,0,0,0,0,-1,1434,1653,3.59067,-6.52642
217,-629,2.4585,4.84448,0,0,0,0,0,0,0,-1,1441,1653,2.45855,-4.84448
224,-629,1.31982,3.68481,0,0,0,0,0,0,0,-1,1448,1653,1.31986,-3.68487
231,-629,3.63025,1.73499,0,0,0,0,0,0,0,-1,1455,1653,3.6303,-1.735
238,-629,4.26428,2.11255,0,0,0,0,0,0,0,-1,1462,1653,4.26429,-2.11253
245,-629,5.61816,1.95361,0,0,0,0,0,0,0,-1,1469,1653,5.61815,-1.95359
252,-629,7.27136,2.18982,0,0,0,0,0,0,0,-1,1476,1653,7.27131,-2.18985
259,-629,8.67334,2.18628,0,0,0,0,0,0,0,-1,1483,1653,8.6733,-2.18633
266,-629,6.86475,3.72058,0,0,0,0,0,0,0,-1,1490,1653,6.86479,-3.72063
273,-629,7.9021,3.8717,0,0,0,0,0,0,0,-1,1497,1653,7.90205,-3.87171
280,-629,9.70837,4.39087,0,0,0,0,0,0,0,-1,1504,1653,9.7084,-4.39082
287,-629,9.82947,7.19348,0,0,0,0,0,0,0,-1,1511,1653,9.8295,-7.19347
294,-629,6.56555,11.6359,0,0,0,0,0,0,0,-1,1518,1653,6.5656,-11.6358
301,-629,13.903,44.4862,0,0,0,0,0,0,0,-1,1525,1653,13.903,-44.4862
308,-629,6.08264,12.1423,0,0,0,0,0,0,0,-1,1532,1653,6.08263,-12.1423
315,-629,6.82043,18.2764,0,0,0,0,0,0,0,-1,1539,1653,6.82049,-18.2764
322,-629,14.1931,43.8071,0,0,0,0,0,0,0,-1,1546,1653,14.1931,-43.8071
329,-629,15.7885,57.3763,0,0,0,0,0,0,0,-1,1553,1653,15.7885,-57.3763
336,-629,15.7509,56.8379,0,0,0,0,0,0,0,-1,1560,1653,15.7509,-56.8379
343,-629,16.1238,56.2701,0,0,0,0,0,0,0,-1,1567,1653,16.1238,-56.2702
350,-629,16.3612,55.7585,0.0139163,0.0174581,-0.0119281,0.027746,0.00362843,-0.859092,0.0174143,0.0345726,1574,1653,16.3611,-55.7586
357,-629,16.3628,54.9639,0.0136977,0.0156941,-0.0114843,0.0262235,0.00316824,-0.828748,0.0165278,0.0175656,1581,1653,16.3628,-54.9638
364,-629,16.3043,54.2947,0.012953,0.0140959,-0.0106502,0.02419,0.00285886,-0.8122,0.0152632,0.0148684,1588,1653,16.3044,-54.2947
371,-629,16.2546,53.6331,0.0118546,0.0123173,-0.00947623,0.021565,0.00260689,-0.797603,0.0135913,0.01275,1595,1653,16.2547,-53.6331
378,-629,16.245,52.9441,0.0105389,0.0105517,-0.00812962,0.0186749,0.00241566,-0.785791,0.0117279,0.0116979,1602,1653,16.245,-52.9441
385,-629,16.2437,52.2834,0.00914417,0.00880531,-0.00677201,0.0157489,0.00220061,-0.772891,0.00984801,0.0136464,1609,1653,16.2437,-52.2834
392,-629,16.2063,51.6143,0.0076106,0.00715613,-0.00548848,0.0128765,0.00189018,-0.764709,0.00802882,0.0119523,1616,1653,16.2063,-51.6143
399,-629,16.1716,50.917,0.00608917,0.00572061,-0.00438628,0.010295,0.00151474,-0.764404,0.00641831,0.012686,1623,1653,16.1717,-50.917
406,-629,16.1525,50.2035,0.00478155,0.00444434,-0.00348984,0.00810685,0.00111903,-0.76126,0.00507287,0.0162671,1630,1653,16.1525,-50.2035
413,-629,16.1337,49.5052,0.00373486,0.00331453,-0.00282249,0.006355,0.000694392,-0.748236,0.00402522,0.0249824,1637,1653,16.1336,-49.5053
420,-629,16.1028,48.8528,0.0028677,0.00260973,-0.00242375,0.00516589,0.000311534,-0.758814,0.00334492,0.0223277,1644,1653,16.1027,-48.8528
427,-629,16.0884,48.1376,0.00218556,0.00183355,-0.00220237,0.00421895,-0.000199836,-0.745524,0.00288155,0.0153805,1651,1653,16.0884,-48.1376
434,-629,16.0857,47.4071,0.00179512,0.001627,-0.00236405,0.00407661,-0.000654485,-0.767626,0.00296012,0.0135142,1658,1653,16.0856,-47.4071
441,-629,16.0236,46.6964,0.00179492,0.001391,-0.00276616,0.00436648,-0.00118056,-0.748957,0.00337407,0.0157218,1665,1653,16.0235,-46.6964
448,-629,15.9519,45.9399,0.00199934,0.00123085,-0.00329975,0.00493714,-0.00170695,-0.727435,0.00398422,0.0153659,1672,1653,15.9519,-45.9399
455,-629,15.903,45.1653,0.00223609,0.00117819,-0.00387928,0.00562232,-0.00220803,-0.71764,0.00466191,0.0151469,1679,1653,15.903,-45.1653
462,-629,15.882,44.4583,0.00243675,0.00116817,-0.00451038,0.00635722,-0.0027523,-0.715542,0.00539491,0.0230176,1686,1653,15.882,-44.4582
469,-629,15.8771,43.677,0.00280545,0.00130354,-0.00534951,0.00745646,-0.00334747,-0.715665,0.00638626,0.0358109,1693,1653,15.8771,-43.677
476,-629,15.9982,42.8663,0,0,0,0,0,0,0,-1,1700,1653,15.9982,-42.8663
483,-629,14.0381,30.967,0,0,0,0,0,0,0,-1,1707,1653,14.0381,-30.9671
490,-629,13.9072,28.8588,0,0,0,0,0,0,0,-1,1714,1653,13.9072,-28.8587
497,-629,10.3662,19.8605,0,0,0,0,0,0,0,-1,1721,1653,10.3662,-19.8605
504,-629,7.89453,15.5316,0,0,0,0,0,0,0,-1,1728,1653,7.89447,-15.5316
511,-629,6.29138,3.40295,0,0,0,0,0,0,0,-1,1735,1653,6.29137,-3.403
518,-629,5.84387,1.41858,0,0,0,0,0,0,0,-1,1742,1653,5.84391,-1.4186
525,-629,6.4729,1.02319,0,0,0,0,0,0,0,-1,1749,1653,6.47284,-1.02316
532,-629,6.86511,0.903687,0,0,0,0,0,0,0,-1,1756,1653,6.86514,-0.903691
539,-629,6.60803,0.746704,0,0,0,0,0,0,0,-1,1763,1653,6.60809,-0.746691
546,-629,0,0,0,0,0,0,0,0,0,-1,1770,1653,0,0
553,-629,0,0,0,0,0,0,0,0,0,-1,1777,1653,0,0
560,-629,0,0,0,0,0,0,0,0,0,-1,1784,1653,0,0
567,-629,0,0,0,0,0,0,0,0,0,-1,1791,1653,0,0
574,-629,0,0,0,0,0,0,0,0,0,-1,1798,1653,0,0
581,-629,0,0,0,0,0,0,0,0,0,-1,1805,1653,0,0
588,-629,0,0,0,0,0,0,0,0,0,-1,1812,1653,0,0
595,-629,0,0,0,0,0,0,0,0,0,-1,1819,1653,0,0
602,-629,0,0,0,0,0,0,0,0,0,-1,1826,1653,0,0
609,-629,0,0,0,0,0,0,0,0,0,-1,1833,1653,0,0
616,-629,0,0,0,0,0,0,0,0,0,-1,1840,1653,0,0
623,-629,0,0,0,0,0,0,0,0,0,-1,1847,1653,0,0
630,-629,0,0,0,0,0,0,0,0,0,-1,1854,1653,0,0
637,-629,0,0,0,0,0,0,0,0,0,-1,1861,1653,0,0
644,-629,0,0,0,0,0,0,0,0,0,-1,1868,1653,0,0
651,-629,0,0,0,0,0,0,0,0,0,-1,1875,1653,0,0
658,-629,0,0,0,0,0,0,0,0,0,-1,1882,1653,0,0
665,-629,0,0,0,0,0,0,0,0,0,-1,1889,1653,0,0
672,-629,0,0,0,0,0,0,0,0,0,-1,1896,1653,0,0
679,-629,0,0,0,0,0,0,0,0,0,-1,1903,1653,0,0
686,-629,0,0,0,0,0,0,0,0,0,-1,1910,1653,0,0
693,-629,0,0,0,0,0,0,0,0,0,-1,1917,1653,0,0
700,-629,0,0,0,0,0,0,0,0,0,-1,1924,1653,0,0
707,-629,0,0,0,0,0,0,0,0,0,-1,1931,1653,0,0
714,-629,0,0,0,0,0,0,0,0,0,-1,1938,1653,0,0
721,-629,0,0,0,0,0,0,0,0,0,-1,1945,1653,0,0
728,-629,0,0,0,0,0,0,0,0,0,-1,1952,1653,0,0
735,-629,0,0,0,0,0,0,0,0,0,-1,1959,1653,0,0
742,-629,0,0,0,0,0,0,0,0,0,-1,1966,1653,0,0
749,-629,0,0,0,0,0,0,0,0,0,-1,1973,1653,0,0
756,-629,0,0,0,0,0,0,0,0,0,-1,1980,1653,0,0
763,-629,0,0,0,0,0,0,0,0,0,-1,1987,1653,0,0
770,-629,0,0,0,0,0,0,0,0,0,-1,1994,1653,0,0
777,-629,0,0,0,0,0,0,0,0,0,-1,2001,1653,0,0
784,-629,0,0,0,0,0,0,0,0,0,-1,2008,1653,0,0
791,-629,0,0,0,0,0,0,0,0,0,-1,2015,1653,0,0
798,-629,0,0,0,0,0,0,0,0,0,-1,2022,1653,0,0
805,-629,0,0,0,0,0,0,0,0,0,-1,2029,1653,0,0
812,-629,0,0,0,0,0,0,0,0,0,-1,2036,1653,0,0
-700,-636,0,0,0,0,0,0,0,0,0,-1,524,1660,0,0
-693,-636,0,0,0,0,0,0,0,0,0,-1,531,1660,0,0
-686,-636,0,0,0,0,0,0,0,0,0,-1,538,1660,0,0
-679,-636,0,0,0,0,0,0,0,0,0,-1,545,1660,0,0
-672,-636,0,0,0,0,0,0,0,0,0,-1,552,1660,0,0
-665,-636,0,0,0,0,0,0,0,0,0,-1,559,1660,0,0
-658,-636,0,0,0,0,0,0,0,0,0,-1,566,1660,0,0
-651,-636,0,0,0,0,0,0,0,0,0,-1,573,1660,0,0
-644,-636,0,0,0,0,0,0,0,0,0,-1,580,1660,0,0
-637,-636,0,0,0,0,0,0,0,0,0,-1,587,1660,0,0
-630,-636,0,0,0,0,0,0,0,0,0,-1,594,1660,0,0
-623,-636,0,0,0,0,0,0,0,0,0,-1,601,1660,0,0
-616,-636,0,0,0,0,0,0,0,0,0,-1,608,1660,0,0
-609,-636,0,0,0,0,0,0,0,0,0,-1,615,1660,0,0
-602,-636,0,0,0,0,0,0,0,0,0,-1,622,1660,0,0
-595,-636,0,0,0,0,0,0,0,0,0,-1,629,1660,0,0
-588,-636,0,0,0,0,0,0,0,0,0,-1,636,1660,0,0
-581,-636,0,0,0,0,0,0,0,0,0,-1,643,1660,0,0
-574,-636,0,0,0,0,0,0,0,0,0,-1,650,1660,0,0
-567,-636,0,0,0,0,0,0,0,0,0,-1,657,1660,0,0
-560,-636,0,0,0,0,0,0,0,0,0,-1,664,1660,0,0
-553,-636,0,0,0,0,0,0,0,0,0,-1,671,1660,0,0
-546,-636,0,0,0,0,0,0,0,0,0,-1,678,1660,0,0
-539,-636,0,0,0,0,0,0,0,0,0,-1,685,1660,0,0
-532,-636,0,0,0,0,0,0,0,0,0,-1,692,1660,0,0
-525,-636,0,0,0,0,0,0,0,0,0,-1,699,1660,0,0
-518,-636,0,0,0,0,0,0,0,0,0,-1,706,1660,0,0
-511,-636,0,0,0,0,0,0,0,0,0,-1,713,1660,0,0
-504,-636,0,0,0,0,0,0,0,0,0,-1,720,1660,0,0
-497,-636,0,0,0,0,0,0,0,0,0,-1,727,1660,0,0
-490,-636,0,0,0,0,0,0,0,0,0,-1,734,1660,0,0
-483,-636,0,0,0,0,0,0,0,0,0,-1,741,1660,0,0
-476,-636,0,0,0,0,0,0,0,0,0,-1,748,1660,0,0
-469,-636,0,0,0,0,0,0,0,0,0,-1,755,1660,0,0
-462,-636,0,0,0,0,0,0,0,0,0,-1,762,1660,0,0
-455,-636,0,0,0,0,0,0,0,0,0,-1,769,1660,0,0
-448,-636,0,0,0,0,0,0,0,0,0,-1,776,1660,0,0
-441,-636,0,0,0,0,0,0,0,0,0,-1,783,1660,0,0
-434,-636,0,0,0,0,0,0,0,0,0,-1,790,1660,0,0
-427,-636,0,0,0,0,0,0,0,0,0,-1,797,1660,0,0
-420,-636,0,0,0,0,0,0,0,0,0,-1,804,1660,0,0
-413,-636,0,0,0,0,0,0,0,0,0,-1,811,1660,0,0
-406,-636,-0.591125,10.6943,0,0,0,0,0,0,0,-1,818,1660,-0.59115,-10.6943
-399,-636,0.0766602,11.2408,0,0,0,0,0,0,0,-1,825,1660,0.076685,-11.2409
-392,-636,0.75946,11.9233,0,0,0,0,0,0,0,-1,832,1660,0.759481,-11.9233
-385,-636,1.68878,12.517,0,0,0,0,0,0,0,-1,839,1660,1.6888,-12.5169
-378,-636,2.22107,13.0013,0,0,0,0,0,0,0,-1,846,1660,2.22107,-13.0014
-371,-636,2.52185,11.9684,0,0,0,0,0,0,0,-1,853,1660,2.52184,-11.9684
-364,-636,4.51947,14.8503,0,0,0,0,0,0,0,-1,860,1660,4.51949,-14.8504
-357,-636,4.55682,15.8809,0,0,0,0,0,0,0,-1,867,1660,4.55681,-15.8808
-350,-636,2.57788,36.7095,0,0,0,0,0,0,0,-1,874,1660,2.57785,-36.7094
-343,-636,2.91577,43.6708,0,0,0,0,0,0,0,-1,881,1660,2.91579,-43.6708
-336,-636,2.96716,44.5482,-0.000262693,0.00378937,0.00539178,0.00752321,-0.00399653,0.965118,0.00675401,0.0371206,888,1660,2.96713,-44.5482
-329,-636,3.01721,45.3859,-0.000671571,0.00288248,0.00466105,0.00609376,-0.00388285,0.967518,0.00580695,0.0187654,895,1660,3.01721,-45.3859
-322,-636,2.95007,46.1223,-0.000941412,0.0021883,0.0039764,0.00489668,-0.00364979,0.972859,0.00495178,0.0128674,902,1660,2.95008,-46.1223
-315,-636,2.86133,46.8821,-0.00104959,0.00163541,0.00339615,0.00394478,-0.00335896,0.973622,0.00422133,0.0149422,909,1660,2.86133,-46.8821
-308,-636,2.82086,47.6516,-0.000981253,0.00126985,0.00294511,0.00329716,-0.00300856,0.967922,0.00364188,0.0127296,916,1660,2.82087,-47.6517
-301,-636,2.77698,48.4042,-0.000815849,0.00121326,0.00261876,0.00300712,-0.00260971,0.970205,0.00324558,0.0120049,923,1660,2.77701,-48.4042
-294,-636,2.72223,49.1471,-0.000428714,0.0014688,0.00247983,0.00317516,-0.00213508,0.968102,0.00308541,0.0151445,930,1660,2.72225,-49.1471
-287,-636,2.71155,49.8483,1.47022e-05,0.0018471,0.00242688,0.00352496,-0.00166316,0.965888,0.00305898,0.0142353,937,1660,2.71155,-49.8482
-280,-636,2.69263,50.552,0.000595479,0.0022381,0.00241289,0.00396563,-0.00113205,0.94944,0.003091,0.0140749,944,1660,2.69265,-50.552
-273,-636,2.6391,51.2466,0.00135215,0.00255711,0.0024413,0.00446917,-0.000559907,0.906375,0.00318254,0.0134477,951,1660,2.63913,-51.2466
-266,-636,2.60284,51.9717,0.00209292,0.00306971,0.00245616,0.00508557,7.70702e-05,0.883541,0.00336498,0.0138571,958,1660,2.60286,-51.9716
-259,-636,2.5957,52.7003,0.00285875,0.0035643,0.00253068,0.00576668,0.000656376,0.854652,0.00364541,0.0164675,965,1660,2.59569,-52.7004
-252,-636,2.55786,53.3522,0.00364826,0.00402652,0.00252598,0.00637044,0.00130434,0.822765,0.00388585,0.0131294,972,1660,2.55788,-53.3521
-245,-636,2.54425,54.0242,0.00443023,0.00424187,0.00248556,0.00682339,0.00184871,0.766462,0.00407496,0.0112099,979,1660,2.54427,-54.0242
-238,-636,2.54163,54.7219,0.00510953,0.00387997,0.0023423,0.00691639,0.00207311,0.657059,0.00409855,0.0119409,986,1660,2.54164,-54.7219
-231,-636,2.53345,55.4003,0.0057554,0.00354717,0.00215986,0.00707699,0.00222557,0.549115,0.0041786,0.0113684,993,1660,2.53346,-55.4003
-224,-636,2.53888,56.0466,0.00627024,0.00294281,0.00185006,0.00709464,0.00211842,0.419191,0.0042054,0.0101903,1000,1660,2.53891,-56.0467
-217,-636,2.51501,56.7461,0.0066919,0.00208071,0.0014471,0.00710842,0.0016642,0.28025,0.00429311,0.0170698,1007,1660,2.51503,-56.7461
-210,-636,2.48926,57.3528,0.00719643,0.000824803,0.000843504,0.0073062,0.000715028,0.129415,0.00465082,0.0271086,1014,1660,2.48929,-57.3527
-203,-636,2.4657,58.0334,0.0081296,-0.00077337,6.11183e-05,0.00813002,-0.00077379,0.00686451,0.00569549,0.0312269,1021,1660,2.46569,-58.0334
-196,-636,2.70618,58.5386,0.00941618,-0.00273629,-0.000302514,0.00942371,-0.00274381,-0.0248727,0.00736935,0.033313,1028,1660,2.70615,-58.5386
-189,-636,2.66064,59.0825,0.0103261,-0.00402607,-0.000784434,0.0103688,-0.00406881,-0.05444,0.00859605,0.0359361,1035,1660,2.66068,-59.0825
-182,-636,2.75732,59.7466,0,0,0,0,0,0,0,-1,1042,1660,2.75733,-59.7466
-175,-636,2.82703,58.9026,0,0,0,0,0,0,0,-1,1049,1660,2.82706,-58.9026
-168,-636,3.87,56.0028,0,0,0,0,0,0,0,-1,1056,1660,3.87004,-56.0028
-161,-636,4.54553,56.2565,0,0,0,0,0,0,0,-1,1063,1660,4.5455,-56.2564
-154,-636,2.71875,59.7118,0,0,0,0,0,0,0,-1,1070,1660,2.71874,-59.7118
-147,-636,4.22656,55.8413,0,0,0,0,0,0,0,-1,1077,1660,4.22662,-55.8413
-140,-636,3.20886,57.1307,0,0,0,0,0,0,0,-1,1084,1660,3.20882,-57.1307
-133,-636,2.82764,57.9807,0,0,0,0,0,0,0,-1,1091,1660,2.82766,-57.9807
-126,-636,2.44653,58.8307,0,0,0,0,0,0,0,-1,1098,1660,2.44649,-58.8307
-119,-636,1.8667,13.8916,0,0,0,0,0,0,0,-1,1105,1660,1.86668,-13.8916
-112,-636,-1.24963,9.7998,0,0,0,0,0,0,0,-1,1112,1660,-1.24968,-9.79978
-105,-636,3.51624,4.72791,0,0,0,0,0,0,0,-1,1119,1660,3.51618,-4.7279
-98,-636,1.54504,5.11914,0,0,0,0,0,0,0,-1,1126,1660,1.54503,-5.11912
-91,-636,-1.87964,-2.25012,0,0,0,0,0,0,0,-1,1133,1660,-1.87966,2.25016
-84,-636,-2.84143,0.133667,0,0,0,0,0,0,0,-1,1140,1660,-2.84144,-0.133701
-77,-636,-3.57349,2.45935,0,0,0,0,0,0,0,-1,1147,1660,-3.57345,-2.45939
-70,-636,-4.23682,4.82312,0,0,0,0,0,0,0,-1,1154,1660,-4.23681,-4.82307
-63,-636,-2.21033,6.97168,0,0,0,0,0,0,0,-1,1161,1660,-2.21034,-6.97165
-56,-636,-2.51917,8.80359,0,0,0,0,0,0,0,-1,1168,1660,-2.51916,-8.80361
-49,-636,-3.13,10.4113,0,0,0,0,0,0,0,-1,1175,1660,-3.12996,-10.4112
-42,-636,-2.27771,4.90173,0,0,0,0,0,0,0,-1,1182,1660,-2.27775,-4.90173
-35,-636,-2.27698,5.89685,0,0,0,0,0,0,0,-1,1189,1660,-2.27695,-5.89686
-28,-636,-1.70654,4.83936,0,0,0,0,0,0,0,-1,1196,1660,-1.70656,-4.8393
-21,-636,4.24683,27.7834,0,0,0,0,0,0,0,-1,1203,1660,4.24687,-27.7835
-14,-636,16.277,93.6764,0,0,0,0,0,0,0,-1,1210,1660,16.2769,-93.6763
-7,-636,16.2463,92.0972,0,0,0,0,0,0,0,-1,1217,1660,16.2464,-92.0972
0,-636,16.2537,90.5472,0.00820786,-0.085049,-0.0550373,0.0337134,-0.110555,-0.433961,0.0871425,0.0482811,1224,1660,16.2537,-90.5472
7,-636,17.0021,88.6494,0.00386603,-0.0795933,-0.0659477,0.0401778,-0.115905,-0.503315,0.0935831,0.0419038,1231,1660,17.0021,-88.6495
14,-636,16.9635,86.9351,-0.00495967,-0.0694016,-0.0763803,0.0457177,-0.120079,-0.585799,0.09888,0.0401053,1238,1660,16.9635,-86.9351
21,-636,16.6831,85.3733,-0.0126509,-0.0565013,-0.0891899,0.0572692,-0.126421,-0.664875,0.10853,0.0409784,1245,1660,16.6831,-85.3733
28,-636,16.3644,83.9183,-0.0212733,-0.0428892,-0.100385,0.068884,-0.133047,-0.731772,0.11853,0.0438536,1252,1660,16.3643,-83.9183
35,-636,15.9249,82.6368,-0.030937,-0.0304579,-0.108645,0.0779482,-0.139343,-0.786501,0.127111,0.0438507,1259,1660,15.9249,-82.6368
42,-636,15.2194,80.5118,-0.040842,-0.0192491,-0.114646,0.0851074,-0.145198,-0.832346,0.134467,0.0493501,1266,1660,15.2194,-80.5119
49,-636,14.0834,78.8502,-0.0504076,-0.0100283,-0.118295,0.0897877,-0.150224,-0.86992,0.140027,0.0476086,1273,1660,14.0834,-78.8503
56,-636,13.7299,77.2915,-0.0603139,-0.0042654,-0.119291,0.0902487,-0.154828,-0.900768,0.143123,0.0445646,1280,1660,13.7298,-77.2915
63,-636,13.8765,74.9506,-0.0686961,-5.06108e-05,-0.120256,0.0906845,-0.159431,-0.92441,0.146211,0.0436697,1287,1660,13.8765,-74.9506
70,-636,13.1857,73.3148,-0.0683862,0.0058306,-0.121164,0.095441,-0.157997,-0.933996,0.147801,0.042084,1294,1660,13.1857,-73.3148
77,-636,12.2949,71.8041,-0.0623036,0.013101,-0.123456,0.104483,-0.153685,-0.933596,0.149953,0.0438294,1301,1660,12.2949,-71.804
84,-636,11.1591,70.5668,-0.052595,0.0176001,-0.126271,0.113561,-0.148556,-0.920953,0.151782,0.0433865,1308,1660,11.159,-70.5668
91,-636,10.042,69.3188,-0.0360229,0.0226187,-0.13071,0.127256,-0.14066,-0.895732,0.154746,0.0419535,1315,1660,10.042,-69.3189
98,-636,9.1178,67.8757,-0.0187046,0.0258914,-0.134526,0.139955,-0.132768,-0.867528,0.157475,0.0459919,1322,1660,9.11774,-67.8757
105,-636,8.49915,66.0554,0.00426766,0.0309599,-0.142471,0.160708,-0.125481,-0.8321,0.165648,0.049789,1329,1660,8.49912,-66.0555
112,-636,7.79114,64.1819,0,0,0,0,0,0,0,-1,1336,1660,7.7911,-64.1819
119,-636,1.56226,63.2532,0.0631262,0.0431617,-0.165646,0.219091,-0.112803,-0.755303,0.194867,0.0476838,1343,1660,1.56224,-63.2532
126,-636,2.73462,61.8265,0.0999698,0.0518699,-0.183142,0.260634,-0.108794,-0.720112,0.219212,0.045283,1350,1660,2.73464,-61.8265
133,-636,4.81409,61.0098,0,0,0,0,0,0,0,-1,1357,1660,4.81415,-61.0097
140,-636,4.92505,59.3203,0.181213,0.0720178,-0.223956,0.35713,-0.103899,-0.665837,0.279239,0.048242,1364,1660,4.92505,-59.3203
147,-636,4.99084,57.8505,0,0,0,0,0,0,0,-1,1371,1660,4.9908,-57.8505
154,-636,5.30432,56.1572,0,0,0,0,0,0,0,-1,1378,1660,5.30427,-56.1572
161,-636,10.2961,7.13025,0,0,0,0,0,0,0,-1,1385,1660,10.2961,-7.13021
168,-636,11.7659,5.83899,0,0,0,0,0,0,0,-1,1392,1660,11.7658,-5.83899
175,-636,5.94592,-1.72888,0,0,0,0,0,0,0,-1,1399,1660,5.94598,1.72886
182,-636,5.93994,-1.11938,0,0,0,0,0,0,0,-1,1406,1660,5.93998,1.11936
189,-636,5.32544,11.9595,0,0,0,0,0,0,0,-1,1413,1660,5.32542,-11.9595
196,-636,5.3623,9.38025,0,0,0,0,0,0,0,-1,1420,1660,5.36225,-9.38027
203,-636,5.18542,9.02429,0,0,0,0,0,0,0,-1,1427,1660,5.18547,-9.0243
210,-636,4.09167,7.17041,0,0,0,0,0,0,0,-1,1434,1660,4.09173,-7.17041
217,-636,2.94897,5.28992,0,0,0,0,0,0,0,-1,1441,1660,2.94899,-5.28991
224,-636,1.49194,3.63916,0,0,0,0,0,0,0,-1,1448,1660,1.49197,-3.63918
231,-636,0.17749,2.24854,0,0,0,0,0,0,0,-1,1455,1660,0.177501,-2.24855
238,-636,-0.764648,1.00598,0,0,0,0,0,0,0,-1,1462,1660,-0.764704,-1.00595
245,-636,6.21204,1.18005,0,0,0,0,0,0,0,-1,1469,1660,6.21206,-1.18001
252,-636,7.70251,0.865723,0,0,0,0,0,0,0,-1,1476,1660,7.7025,-0.865692
259,-636,9.03601,0.787231,0,0,0,0,0,0,0,-1,1483,1660,9.03598,-0.787243
266,-636,10.1071,3.24109,0,0,0,0,0,0,0,-1,1490,1660,10.1071,-3.24103
273,-636,8.48535,5.02466,0,0,0,0,0,0,0,-1,1497,1660,8.48533,-5.02472
280,-636,11.908,32.0698,0,0,0,0,0,0,0,-1,1504,1660,11.9079,-32.0698
287,-636,12.1218,36.4158,0,0,0,0,0,0,0,-1,1511,1660,12.1218,-36.4158
294,-636,13.3706,44.9711,0,0,0,0,0,0,0,-1,1518,1660,13.3706,-44.9711
301,-636,16.1064,60.441,0,0,0,0,0,0,0,-1,1525,1660,16.1064,-60.4411
308,-636,15.7496,59.7279,0,0,0,0,0,0,0,-1,1532,1660,15.7496,-59.7279
315,-636,15.6512,59.0508,0,0,0,0,0,0,0,-1,1539,1660,15.6513,-59.0507
322,-636,15.478,58.3234,0,0,0,0,0,0,0,-1,1546,1660,15.478,-58.3234
329,-636,15.3781,57.5398,0.00738007,0.0142838,-0.00620058,0.0179286,0.00373528,-1.03939,0.0109223,0.0413728,1553,1660,15.3781,-57.5397
336,-636,15.3347,56.9746,0.00888302,0.0135639,-0.00708473,0.0186848,0.00376215,-0.94493,0.0114111,0.0333797,1560,1660,15.3348,-56.9746
343,-636,15.5377,56.2671,0.0093822,0.0128185,-0.0075504,0.0188438,0.00335692,-0.897272,0.0116065,0.0281195,1567,1660,15.5378,-56.2671
350,-636,15.6101,55.619,0.00957037,0.0121401,-0.00790236,0.0188614,0.0028491,-0.865989,0.0117403,0.0126844,1574,1660,15.6101,-55.6191
357,-636,15.618,54.9467,0.0095438,0.0110507,-0.00783999,0.0181734,0.00242116,-0.833304,0.0113946,0.0103198,1581,1660,15.6181,-54.9466
364,-636,15.6128,54.2753,0.009096,0.0100937,-0.00742272,0.0170343,0.00215538,-0.81895,0.0107103,0.0111676,1588,1660,15.6128,-54.2753
371,-636,15.5934,53.6395,0.00836841,0.00897537,-0.00673847,0.0154172,0.00192659,-0.807901,0.00969992,0.0102797,1595,1660,15.5934,-53.6396
378,-636,15.5897,52.9684,0.00748988,0.00782304,-0.00588574,0.0135446,0.00176836,-0.799546,0.00850178,0.0102476,1602,1660,15.5897,-52.9684
385,-636,15.5581,52.2831,0.00656185,0.00664943,-0.0050193,0.0116251,0.00158615,-0.78976,0.0072792,0.0156478,1609,1660,15.5581,-52.2831
392,-636,15.5109,51.6028,0.00548481,0.00546255,-0.00418711,0.0096608,0.00128656,-0.784069,0.0060574,0.0173852,1616,1660,15.5109,-51.6028
399,-636,15.4813,50.9403,0.00438299,0.00443023,-0.00349052,0.00789721,0.000916015,-0.788782,0.00498759,0.0136951,1623,1660,15.4813,-50.9403
406,-636,15.4783,50.2544,0.00345122,0.00348409,-0.00292325,0.00639095,0.000544363,-0.788209,0.00409127,0.0164126,1630,1660,15.4782,-50.2544
413,-636,15.4645,49.5254,0.00272786,0.00266795,-0.00257932,0.0052774,0.00011841,-0.779592,0.00347947,0.0251254,1637,1660,15.4644,-49.5253
420,-636,15.413,48.8503,0.00214221,0.00219305,-0.00244485,0.00461261,-0.000277347,-0.790597,0.00317157,0.0239809,1644,1660,15.4129,-48.8503
427,-636,15.3926,48.1823,0.00178935,0.00182252,-0.00256938,0.00437537,-0.000763496,-0.788626,0.0032019,0.0157214,1651,1660,15.3926,-48.1822
434,-636,15.3707,47.4537,0.00177635,0.00169406,-0.00302981,0.00476529,-0.00129488,-0.778609,0.00368512,0.0155953,1658,1660,15.3707,-47.4537
441,-636,15.3157,46.7234,0.0020138,0.00160288,-0.00356892,0.00538317,-0.00176649,-0.756646,0.0043003,0.0130418,1665,1660,15.3157,-46.7234
448,-636,15.2747,45.9619,0.00235595,0.00157306,-0.00421994,0.00620256,-0.00227356,-0.73915,0.0050659,0.0147163,1672,1660,15.2747,-45.962
455,-636,15.2321,45.1964,0.00278676,0.0017059,-0.00494922,0.00722497,-0.00273231,-0.731017,0.00594069,0.0184969,1679,1660,15.232,-45.1964
462,-636,15.1255,44.468,0.00321906,0.00190362,-0.00576692,0.00836565,-0.00324297,-0.728618,0.00691634,0.0298333,1686,1660,15.1255,-44.468
469,-636,15.1346,43.6096,0,0,0,0,0,0,0,-1,1693,1660,15.1346,-43.6096
476,-636,15.2583,42.1936,0,0,0,0,0,0,0,-1,1700,1660,15.2584,-42.1937
483,-636,11.3833,24.3958,0,0,0,0,0,0,0,-1,1707,1660,11.3833,-24.3957
490,-636,10.8951,23.9569,0,0,0,0,0,0,0,-1,1714,1660,10.8951,-23.9569
497,-636,9.55579,18.0111,0,0,0,0,0,0,0,-1,1721,1660,9.55574,-18.0111
504,-636,6.26428,19.4268,0,0,0,0,0,0,0,-1,1728,1660,6.26433,-19.4268
511,-636,5.65466,9.23218,0,0,0,0,0,0,0,-1,1735,1660,5.65461,-9.23216
518,-636,6.72791,1.07605,0,0,0,0,0,0,0,-1,1742,1660,6.7279,-1.0761
525,-636,7.04309,0.93335,0,0,0,0,0,0,0,-1,1749,1660,7.04308,-0.933298
532,-636,0,0,0,0,0,0,0,0,0,-1,1756,1660,0,0
539,-636,0,0,0,0,0,0,0,0,0,-1,1763,1660,0,0
546,-636,0,0,0,0,0,0,0,0,0,-1,1770,1660,0,0
553,-636,0,0,0,0,0,0,0,0,0,-1,1777,1660,0,0
560,-636,0,0,0,0,0,0,0,0,0,-1,1784,1660,0,0
567,-636,0,0,0,0,0,0,0,0,0,-1,1791,1660,0,0
574,-636,0,0,0,0,0,0,0,0,0,-1,1798,1660,0,0
581,-636,0,0,0,0,0,0,0,0,0,-1,1805,1660,0,0
588,-636,0,0,0,0,0,0,0,0,0,-1,1812,1660,0,0
595,-636,0,0,0,0,0,0,0,0,0,-1,1819,1660,0,0
602,-636,0,0,0,0,0,0,0,0,0,-1,1826,1660,0,0
609,-636,0,0,0,0,0,0,0,0,0,-1,1833,1660,0,0
616,-636,0,0,0,0,0,0,0,0,0,-1,1840,1660,0,0
623,-636,0,0,0,0,0,0,0,0,0,-1,1847,1660,0,0
630,-636,0,0,0,0,0,0,0,0,0,-1,1854,1660,0,0
637,-636,0,0,0,0,0,0,0,0,0,-1,1861,1660,0,0
644,-636,0,0,0,0,0,0,0,0,0,-1,1868,1660,0,0
651,-636,0,0,0,0,0,0,0,0,0,-1,1875,1660,0,0
658,-636,0,0,0,0,0,0,0,0,0,-1,1882,1660,0,0
665,-636,0,0,0,0,0,0,0,0,0,-1,1889,1660,0,0
672,-636,0,0,0,0,0,0,0,0,0,-1,1896,1660,0,0
679,-636,0,0,0,0,0,0,0,0,0,-1,1903,1660,0,0
686,-636,0,0,0,0,0,0,0,0,0,-1,1910,1660,0,0
693,-636,0,0,0,0,0,0,0,0,0,-1,1917,1660,0,0
700,-636,0,0,0,0,0,0,0,0,0,-1,1924,1660,0,0
707,-636,0,0,0,0,0,0,0,0,0,-1,1931,1660,0,0
714,-636,0,0,0,0,0,0,0,0,0,-1,1938,1660,0,0
721,-636,0,0,0,0,0,0,0,0,0,-1,1945,1660,0,0
728,-636,0,0,0,0,0,0,0,0,0,-1,1952,1660,0,0
735,-636,0,0,0,0,0,0,0,0,0,-1,1959,1660,0,0
742,-636,0,0,0,0,0,0,0,0,0,-1,1966,1660,0,0
749,-636,0,0,0,0,0,0,0,0,0,-1,1973,1660,0,0
756,-636,0,0,0,0,0,0,0,0,0,-1,1980,1660,0,0
763,-636,0,0,0,0,0,0,0,0,0,-1,1987,1660,0,0
770,-636,0,0,0,0,0,0,0,0,0,-1,1994,1660,0,0
777,-636,0,0,0,0,0,0,0,0,0,-1,2001,1660,0,0
784,-636,0,0,0,0,0,0,0,0,0,-1,2008,1660,0,0
791,-636,0,0,0,0,0,0,0,0,0,-1,2015,1660,0,0
798,-636,0,0,0,0,0,0,0,0,0,-1,2022,1660,0,0
805,-636,0,0,0,0,0,0,0,0,0,-1,2029,1660,0,0
812,-636,0,0,0,0,0,0,0,0,0,-1,2036,1660,0,0
-700,-643,0,0,0,0,0,0,0,0,0,-1,524,1667,0,0
-693,-643,0,0,0,0,0,0,0,0,0,-1,531,1667,0,0
-686,-643,0,0,0,0,0,0,0,0,0,-1,538,1667,0,0
-679,-643,0,0,0,0,0,0,0,0,0,-1,545,1667,0,0
-672,-643,0,0,0,0,0,0,0,0,0,-1,552,1667,0,0
-665,-643,0,0,0,0,0,0,0,0,0,-1,559,1667,0,0
-658,-643,0,0,0,0,0,0,0,0,0,-1,566,1667,0,0
-651,-643,0,0,0,0,0,0,0,0,0,-1,573,1667,0,0
-644,-643,0,0,0,0,0,0,0,0,0,-1,580,1667,0,0
-637,-643,0,0,0,0,0,0,0,0,0,-1,587,1667,0,0
-630,-643,0,0,0,0,0,0,0,0,0,-1,594,1667,0,0
-623,-643,0,0,0,0,0,0,0,0,0,-1,601,1667,0,0
-616,-643,0,0,0,0,0,0,0,0,0,-1,608,1667,0,0
-609,-643,0,0,0,0,0,0,0,0,0,-1,615,1667,0,0
-602,-643,0,0,0,0,0,0,0,0,0,-1,622,1667,0,0
-595,-643,0,0,0,0,0,0,0,0,0,-1,629,1667,0,0
-588,-643,0,0,0,0,0,0,0,0,0,-1,636,1667,0,0
-581,-643,0,0,0,0,0,0,0,0,0,-1,643,1667,0,0
-574,-643,0,0,0,0,0,0,0,0,0,-1,650,1667,0,0
-567,-643,0,0,0,0,0,0,0,0,0,-1,657,1667,0,0
-560,-643,0,0,0,0,0,0,0,0,0,-1,664,1667,0,0
-553,-643,0,0,0,0,0,0,0,0,0,-1,671,1667,0,0
-546,-643,0,0,0,0,0,0,0,0,0,-1,678,1667,0,0
-539,-643,0,0,0,0,0,0,0,0,0,-1,685,1667,0,0
-532,-643,0,0,0,0,0,0,0,0,0,-1,692,1667,0,0
-525,-643,0,0,0,0,0,0,0,0,0,-1,699,1667,0,0
-518,-643,0,0,0,0,0,0,0,0,0,-1,706,1667,0,0
-511,-643,0,0,0,0,0,0,0,0,0,-1,713,1667,0,0
-504,-643,0,0,0,0,0,0,0,0,0,-1,720,1667,0,0
-497,-643,0,0,0,0,0,0,0,0,0,-1,727,1667,0,0
-490,-643,0,0,0,0,0,0,0,0,0,-1,734,1667,0,0
-483,-643,0,0,0,0,0,0,0,0,0,-1,741,1667,0,0
-476,-643,0,0,0,0,0,0,0,0,0,-1,748,1667,0,0
-469,-643,0,0,0,0,0,0,0,0,0,-1,755,1667,0,0
-462,-643,0,0,0,0,0,0,0,0,0,-1,762,1667,0,0
-455,-643,0,0,0,0,0,0,0,0,0,-1,769,1667,0,0
-448,-643,0,0,0,0,0,0,0,0,0,-1,776,1667,0,0
-441,-643,0,0,0,0,0,0,0,0,0,-1,783,1667,0,0
-434,-643,0,0,0,0,0,0,0,0,0,-1,790,1667,0,0
-427,-643,0,0,0,0,0,0,0,0,0,-1,797,1667,0,0
-420,-643,0,0,0,0,0,0,0,0,0,-1,804,1667,0,0
-413,-643,0,0,0,0,0,0,0,0,0,-1,811,1667,0,0
-406,-643,0,0,0,0,0,0,0,0,0,-1,818,1667,0,0
-399,-643,0.589417,11.6465,0,0,0,0,0,0,0,-1,825,1667,0.58939,-11.6465
-392,-643,0.865295,12.6523,0,0,0,0,0,0,0,-1,832,1667,0.865315,-12.6523
-385,-643,1.72968,13.2692,0,0,0,0,0,0,0,-1,839,1667,1.72967,-13.2692
-378,-643,2.66522,13.8193,0,0,0,0,0,0,0,-1,846,1667,2.66524,-13.8193
-371,-643,0.466125,3.35095,0,0,0,0,0,0,0,-1,853,1667,0.466148,-3.351
-364,-643,1.69513,9.922,0,0,0,0,0,0,0,-1,860,1667,1.69511,-9.92205
-357,-643,1.14227,10.8429,0,0,0,0,0,0,0,-1,867,1667,1.14228,-10.8429
-350,-643,4.48804,36.1799,0,0,0,0,0,0,0,-1,874,1667,4.48801,-36.1799
-343,-643,3.57642,43.6594,0,0,0,0,0,0,0,-1,881,1667,3.57641,-43.6594
-336,-643,3.66089,44.4984,0,0,0,0,0,0,0,-1,888,1667,3.66091,-44.4985
-329,-643,3.74341,45.2423,-0.00129354,0.00377444,0.00628078,0.00801314,-0.00553224,0.977137,0.00786403,0.0384105,895,1667,3.7434,-45.2423
-322,-643,3.68079,46.1622,-0.00174005,0.00277232,0.00532542,0.00629978,-0.00526751,0.985767,0.00668723,0.0285033,902,1667,3.6808,-46.1623
-315,-643,3.56958,46.9374,-0.00200903,0.00194899,0.00447998,0.00486761,-0.00492764,0.993382,0.00565532,0.0203224,909,1667,3.56956,-46.9374
-308,-643,3.55774,47.6687,-0.00206651,0.0013335,0.00378556,0.00378325,-0.00451625,0.996441,0.00479795,0.0141041,916,1667,3.55774,-47.6687
-301,-643,3.51648,48.4144,-0.0020116,0.001022,0.00323909,0.00308184,-0.00407144,1.00437,0.0041431,0.0146113,923,1667,3.51648,-48.4145
-294,-643,3.45032,49.1532,-0.00169244,0.00104898,0.00289096,0.00287772,-0.00352118,1.00677,0.00370063,0.0133294,930,1667,3.45032,-49.1533
-287,-643,3.4339,49.8649,-0.00130256,0.00123143,0.00263696,0.00288998,-0.00296111,1.00935,0.00337822,0.0116332,937,1667,3.4339,-49.8649
-280,-643,3.40601,50.5645,-0.000795454,0.00142072,0.0024318,0.00298499,-0.00235972,0.999176,0.0030928,0.0159516,944,1667,3.40599,-50.5645
-273,-643,3.35565,51.2601,-9.68677e-05,0.00155581,0.00227897,0.00315363,-0.00169469,0.959322,0.00284111,0.0132858,951,1667,3.35564,-51.2602
-266,-643,3.30316,51.9818,0.000608024,0.00193217,0.00212139,0.0034924,-0.000952203,0.936656,0.00270218,0.0122189,958,1667,3.30314,-51.9819
-259,-643,3.27655,52.6957,0.00131777,0.00228022,0.00205498,0.00390957,-0.000311583,0.900413,0.0027162,0.0134463,965,1667,3.27655,-52.6957
-252,-643,3.23834,53.3837,0.00204157,0.002636,0.00194488,0.00430625,0.000371321,0.861221,0.00275541,0.0154148,972,1667,3.23837,-53.3837
-245,-643,3.20923,54.049,0.00278209,0.00279271,0.00184923,0.00463664,0.000938164,0.786834,0.00283068,0.0125589,979,1667,3.20923,-54.049
-238,-643,3.23553,54.7316,0.00348228,0.00250279,0.00168345,0.00474578,0.00123929,0.643846,0.00284229,0.0158832,986,1667,3.23551,-54.7316
-231,-643,3.20923,55.4333,0.00414557,0.00228074,0.00149081,0.00497154,0.00145477,0.505938,0.00295147,0.0123852,993,1667,3.20926,-55.4333
-224,-643,3.21021,56.0688,0.00469623,0.00183339,0.00122349,0.00514786,0.00138176,0.353619,0.00307655,0.0103274,1000,1667,3.21018,-56.0689
-217,-643,3.18903,56.6676,0.00516121,0.00120803,0.000884682,0.00535016,0.00101908,0.21042,0.00328028,0.00903086,1007,1667,3.18904,-56.6676
-210,-643,3.17053,57.3457,0.00568739,0.000327987,0.00041155,0.0057188,0.000296568,0.0761951,0.00371763,0.0127337,1014,1667,3.17053,-57.3457
-203,-643,3.15894,58.0452,0.00654881,-0.000717492,-0.000178942,0.00655322,-0.000721897,-0.0246064,0.00462825,0.0167049,1021,1667,3.15898,-58.0452
-196,-643,3.17407,58.6357,0.00773916,-0.00196741,-0.000384564,0.00775437,-0.00198262,-0.0395364,0.00594175,0.0164833,1028,1667,3.17412,-58.6358
-189,-643,3.28186,59.2211,0.00856282,-0.00263808,-0.000710326,0.00860769,-0.00268295,-0.0630801,0.00681125,0.0210877,1035,1667,3.28191,-59.221
-182,-643,3.30542,59.8529,0.00951564,-0.00242286,-0.000909716,0.00958457,-0.00249178,-0.0756183,0.00736223,0.0377961,1042,1667,3.30547,-59.8529
-175,-643,3.30566,60.5267,0,0,0,0,0,0,0,-1,1049,1667,3.30566,-60.5267
-168,-643,3.39941,61.1166,0,0,0,0,0,0,0,-1,1056,1667,3.39937,-61.1166
-161,-643,3.15503,61.5363,0,0,0,0,0,0,0,-1,1063,1667,3.15507,-61.5362
-154,-643,3.23022,62.0671,0,0,0,0,0,0,0,-1,1070,1667,3.23026,-62.0671
-147,-643,4.17236,62.5203,0,0,0,0,0,0,0,-1,1077,1667,4.17235,-62.5203
-140,-643,2.87488,62.6578,0,0,0,0,0,0,0,-1,1084,1667,2.87492,-62.6579
-133,-643,2.32495,61.5938,0,0,0,0,0,0,0,-1,1091,1667,2.32497,-61.5937
-126,-643,3.28662,58.6659,0,0,0,0,0,0,0,-1,1098,1667,3.28657,-58.6658
-119,-643,3.76282,14.1458,0,0,0,0,0,0,0,-1,1105,1667,3.76283,-14.1458
-112,-643,3.81458,16.2069,0,0,0,0,0,0,0,-1,1112,1667,3.81463,-16.2069
-105,-643,-2.23413,10.0996,0,0,0,0,0,0,0,-1,1119,1667,-2.23415,-10.0996
-98,-643,3.11035,4.68066,0,0,0,0,0,0,0,-1,1126,1667,3.11041,-4.68071
-91,-643,-1.74146,-2.5885,0,0,0,0,0,0,0,-1,1133,1667,-1.74146,2.58856
-84,-643,-3.07446,-0.199341,0,0,0,0,0,0,0,-1,1140,1667,-3.07449,0.199383
-77,-643,-3.63794,2.81165,0,0,0,0,0,0,0,-1,1147,1667,-3.63791,-2.8117
-70,-643,-3.36938,4.45203,0,0,0,0,0,0,0,-1,1154,1667,-3.36941,-4.452
-63,-643,-3.67822,6.26855,0,0,0,0,0,0,0,-1,1161,1667,-3.67823,-6.26856
-56,-643,-3.95142,8.1073,0,0,0,0,0,0,0,-1,1168,1667,-3.95139,-8.10732
-49,-643,-4.23535,9.90552,0,0,0,0,0,0,0,-1,1175,1667,-4.23537,-9.90557
-42,-643,-4.25195,10.7059,0,0,0,0,0,0,0,-1,1182,1667,-4.25192,-10.706
-35,-643,-4.10986,11.6588,0,0,0,0,0,0,0,-1,1189,1667,-4.10982,-11.6589
-28,-643,-1.38513,5.604,0,0,0,0,0,0,0,-1,1196,1667,-1.3851,-5.60403
-21,-643,1.61011,23.1276,0,0,0,0,0,0,0,-1,1203,1667,1.61011,-23.1275
-14,-643,13.2256,68.0854,0,0,0,0,0,0,0,-1,1210,1667,13.2256,-68.0855
-7,-643,16.266,92.4227,0,0,0,0,0,0,0,-1,1217,1667,16.266,-92.4227
0,-643,16.2384,90.7645,0.0124027,-0.0758426,-0.0696924,0.0507654,-0.114205,-0.503195,0.0975651,0.0474557,1224,1667,16.2384,-90.7645
7,-643,16.355,89.1046,0.0104287,-0.0701416,-0.0790436,0.058861,-0.118574,-0.549726,0.104358,0.0415158,1231,1667,16.355,-89.1046
14,-643,16.3171,87.5482,0.00375228,-0.0600176,-0.0886387,0.0660664,-0.122332,-0.612745,0.110377,0.0387423,1238,1667,16.3171,-87.5482
21,-643,16.0518,86.0024,-0.00334745,-0.0474288,-0.0992396,0.0762696,-0.127046,-0.676124,0.118598,0.0426584,1245,1667,16.0518,-86.0025
28,-643,15.793,84.5706,-0.0122408,-0.0344386,-0.108143,0.0853716,-0.132051,-0.734262,0.12649,0.0444764,1252,1667,15.793,-84.5705
35,-643,15.8488,82.9425,-0.0226335,-0.0222999,-0.114532,0.0920655,-0.136999,-0.786126,0.133096,0.0429431,1259,1667,15.8487,-82.9425
42,-643,15.2255,80.4203,-0.0338428,-0.011486,-0.1186,0.0964609,-0.14179,-0.832386,0.138381,0.0489326,1266,1667,15.2254,-80.4202
49,-643,16.5618,77.9287,0,0,0,0,0,0,0,-1,1273,1667,16.5618,-77.9287
56,-643,15.5977,76.2518,-0.0564309,0.00253735,-0.119748,0.0963772,-0.150271,-0.906107,0.143531,0.0488955,1280,1667,15.5977,-76.2518
63,-643,14.5242,74.5974,-0.066213,0.00593219,-0.119023,0.0942286,-0.154509,-0.932535,0.145008,0.0463279,1287,1667,14.5242,-74.5974
70,-643,13.3986,73.1346,-0.06771,0.00980879,-0.118727,0.0959426,-0.153844,-0.943174,0.1455,0.0463526,1294,1667,13.3986,-73.1347
77,-643,11.9403,71.6187,0,0,0,0,0,0,0,-1,1301,1667,11.9403,-71.6186
84,-643,11.0306,70.4917,-0.0575167,0.0161885,-0.120666,0.105504,-0.146832,-0.933605,0.146336,0.0443282,1308,1667,11.0306,-70.4917
91,-643,10.0781,69.3135,-0.0436145,0.0187402,-0.124911,0.116306,-0.14118,-0.907698,0.148891,0.0451569,1315,1667,10.0782,-69.3135
98,-643,8.91626,68.0767,-0.0288465,0.0184421,-0.128098,0.125059,-0.135464,-0.876661,0.150453,0.0467602,1322,1667,8.91627,-68.0766
105,-643,7.85706,66.7896,-0.00809795,0.0205362,-0.135362,0.142336,-0.129898,-0.838087,0.157229,0.049594,1329,1667,7.85705,-66.7895
112,-643,6.75342,65.308,0.0170663,0.0231636,-0.144776,0.164923,-0.124693,-0.795926,0.167747,0.0492969,1336,1667,6.75343,-65.308
119,-643,5.97522,63.8405,0,0,0,0,0,0,0,-1,1343,1667,5.97528,-63.8404
126,-643,3.71802,60.9133,0,0,0,0,0,0,0,-1,1350,1667,3.71796,-60.9134
133,-643,5.63599,60.9567,0,0,0,0,0,0,0,-1,1357,1667,5.63596,-60.9567
140,-643,5.7854,59.2245,0,0,0,0,0,0,0,-1,1364,1667,5.78536,-59.2245
147,-643,5.93481,57.4924,0,0,0,0,0,0,0,-1,1371,1667,5.93476,-57.4924
154,-643,11.8607,71.6486,0,0,0,0,0,0,0,-1,1378,1667,11.8607,-71.6485
161,-643,5.57935,26.2754,0,0,0,0,0,0,0,-1,1385,1667,5.57931,-26.2754
168,-643,10.5563,10.9818,0,0,0,0,0,0,0,-1,1392,1667,10.5562,-10.9819
175,-643,5.88525,-1.1698,0,0,0,0,0,0,0,-1,1399,1667,5.88526,1.16977
182,-643,5.80945,-0.418701,0,0,0,0,0,0,0,-1,1406,1667,5.80949,0.418712
189,-643,5.42297,12.9208,0,0,0,0,0,0,0,-1,1413,1667,5.42298,-12.9208
196,-643,5.51953,11.2415,0,0,0,0,0,0,0,-1,1420,1667,5.51948,-11.2414
203,-643,5.60828,9.82153,0,0,0,0,0,0,0,-1,1427,1667,5.60833,-9.82148
210,-643,4.73218,7.58728,0,0,0,0,0,0,0,-1,1434,1667,4.73222,-7.58728
217,-643,3.8031,5.28955,0,0,0,0,0,0,0,-1,1441,1667,3.80305,-5.28955
224,-643,2.96436,2.97095,0,0,0,0,0,0,0,-1,1448,1667,2.96432,-2.97095
231,-643,2.13403,1.08472,0,0,0,0,0,0,0,-1,1455,1667,2.13403,-1.08467
238,-643,1.18152,-0.261963,0,0,0,0,0,0,0,-1,1462,1667,1.18152,0.26192
245,-643,-0.157471,-1.79016,0,0,0,0,0,0,0,-1,1469,1667,-0.157517,1.7901
252,-643,8.08789,0.0202637,0,0,0,0,0,0,0,-1,1476,1667,8.08791,-0.0203056
259,-643,9.02979,-0.46936,0,0,0,0,0,0,0,-1,1483,1667,9.02974,0.46933
266,-643,4.55066,5.17554,0,0,0,0,0,0,0,-1,1490,1667,4.55063,-5.17556
273,-643,10.74,31.432,0,0,0,0,0,0,0,-1,1497,1667,10.7399,-31.4319
280,-643,12.1675,42.5023,0,0,0,0,0,0,0,-1,1504,1667,12.1675,-42.5023
287,-643,12.9725,46.299,0,0,0,0,0,0,0,-1,1511,1667,12.9725,-46.299
294,-643,15.4264,60.1036,0,0,0,0,0,0,0,-1,1518,1667,15.4264,-60.1036
301,-643,15.167,60.1409,0.00203789,0.0096189,0.00244742,0.0103404,0.00131643,1.28413,0.00649935,0.0424681,1525,1667,15.167,-60.1409
308,-643,14.9858,59.4244,0.00248612,0.00953154,0.00134273,0.00977877,0.0022389,1.38871,0.00591583,0.0353197,1532,1667,14.9858,-59.4245
315,-643,14.9692,58.8303,0.00291566,0.00880686,0.000352386,0.00882787,0.00289465,1.51126,0.00519644,0.0326432,1539,1667,14.9692,-58.8304
322,-643,14.9281,58.1606,0.00412856,0.00998551,-0.0016309,0.010409,0.00370505,-1.31673,0.00609222,0.0208994,1546,1667,14.9281,-58.1606
329,-643,14.9277,57.5118,0.00573495,0.00924625,-0.00333847,0.0112626,0.00371864,-1.02747,0.00662628,0.0137455,1553,1667,14.9277,-57.5118
336,-643,14.8997,56.9221,0.00652782,0.00895674,-0.00411711,0.0120348,0.00344978,-0.92882,0.00715602,0.012959,1560,1667,14.8996,-56.9221
343,-643,14.9292,56.3149,0.00671316,0.00866693,-0.00463336,0.0124253,0.00295483,-0.889295,0.0074953,0.0139371,1567,1667,14.9292,-56.3149
350,-643,14.9507,55.6559,0.00672493,0.00842003,-0.00514585,0.0127877,0.0023573,-0.867018,0.00785809,0.0120813,1574,1667,14.9507,-55.6559
357,-643,14.9384,54.9899,0.00666561,0.0078336,-0.00533657,0.012618,0.00188117,-0.839898,0.00786036,0.0103989,1581,1667,14.9383,-54.9899
364,-643,14.9379,54.3265,0.00626186,0.00735872,-0.00520678,0.0120459,0.00157471,-0.83787,0.00756054,0.00969498,1588,1667,14.9378,-54.3265
371,-643,14.9215,53.6946,0.00565559,0.00674762,-0.00487121,0.0111033,0.00129988,-0.84121,0.00700921,0.00818378,1595,1667,14.9215,-53.6946
378,-643,14.9053,53.0303,0.00498065,0.00606343,-0.00436787,0.00992334,0.00112074,-0.847058,0.00627543,0.00949984,1602,1667,14.9053,-53.0303
385,-643,14.8702,52.3324,0.00432079,0.00532915,-0.00385458,0.00871238,0.000937556,-0.850429,0.00552233,0.015397,1609,1667,14.8702,-52.3324
392,-643,14.8303,51.6499,0.00356082,0.00450619,-0.00336254,0.00742911,0.000637905,-0.855227,0.00475439,0.0176798,1616,1667,14.8303,-51.6499
399,-643,14.8102,51.0178,0.00279353,0.00377474,-0.00297675,0.00630104,0.000267232,-0.86707,0.00411451,0.0155202,1623,1667,14.8102,-51.0178
406,-643,14.8007,50.2877,0.00218365,0.00309197,-0.00267024,0.0053464,-7.07761e-05,-0.869633,0.00358809,0.014455,1630,1667,14.8006,-50.2877
413,-643,14.7831,49.5416,0.00175428,0.00252589,-0.00259993,0.00476849,-0.000488319,-0.859055,0.00335363,0.0208598,1637,1667,14.7831,-49.5417
420,-643,14.7277,48.8801,0.0014498,0.00222795,-0.00270126,0.00456801,-0.000890259,-0.856924,0.00338138,0.0192816,1644,1667,14.7276,-48.8801
427,-643,14.6892,48.2057,0.00147649,0.0022352,-0.0031725,0.00505095,-0.00133926,-0.844904,0.00389131,0.0154976,1651,1667,14.6891,-48.2057
434,-643,14.6628,47.4884,0.00193256,0.00210218,-0.00397437,0.00599264,-0.00195791,-0.796066,0.00478322,0.0174206,1658,1667,14.6628,-47.4884
441,-643,14.6141,46.7463,0.00240843,0.00219285,-0.00469326,0.00699514,-0.00239386,-0.773917,0.00563355,0.0176438,1665,1667,14.6141,-46.7464
448,-643,14.6121,45.9758,0.00288629,0.0023039,-0.0054878,0.00809061,-0.00290042,-0.758892,0.00657729,0.0231727,1672,1667,14.612,-45.9758
455,-643,14.5039,45.3717,0.00350479,0.00260818,-0.00638074,0.00945296,-0.00333999,-0.750327,0.00766193,0.0296787,1679,1667,14.5039,-45.3717
462,-643,14.5728,44.5599,0.00418562,0.00283224,-0.0073029,0.0108431,-0.00382526,-0.7392,0.00878594,0.0447843,1686,1667,14.5728,-44.56
469,-643,14.7775,43.7412,0,0,0,0,0,0,0,-1,1693,1667,14.7775,-43.7412
476,-643,10.5598,24.5066,0,0,0,0,0,0,0,-1,1700,1667,10.5598,-24.5065
483,-643,10.4502,24.3062,0,0,0,0,0,0,0,-1,1707,1667,10.4502,-24.3062
490,-643,10.6885,24.1522,0,0,0,0,0,0,0,-1,1714,1667,10.6884,-24.1522
497,-643,10.9073,23.9465,0,0,0,0,0,0,0,-1,1721,1667,10.9074,-23.9465
504,-643,8.05591,19.0656,0,0,0,0,0,0,0,-1,1728,1667,8.0559,-19.0655
511,-643,7.74719,18.1564,0,0,0,0,0,0,0,-1,1735,1667,7.74724,-18.1563
518,-643,7.40564,0.922607,0,0,0,0,0,0,0,-1,1742,1667,7.4057,-0.922598
525,-643,0,0,0,0,0,0,0,0,0,-1,1749,1667,0,0
532,-643,0,0,0,0,0,0,0,0,0,-1,1756,1667,0,0
539,-643,0,0,0,0,0,0,0,0,0,-1,1763,1667,0,0
546,-643,0,0,0,0,0,0,0,0,0,-1,1770,1667,0,0
553,-643,0,0,0,0,0,0,0,0,0,-1,1777,1667,0,0
560,-643,0,0,0,0,0,0,0,0,0,-1,1784,1667,0,0
567,-643,0,0,0,0,0,0,0,0,0,-1,1791,1667,0,0
574,-643,0,0,0,0,0,0,0,0,0,-1,1798,1667,0,0
581,-643,0,0,0,0,0,0,0,0,0,-1,1805,1667,0,0
588,-643,0,0,0,0,0,0,0,0,0,-1,1812,1667,0,0
595,-643,0,0,0,0,0,0,0,0,0,-1,1819,1667,0,0
602,-643,0,0,0,0,0,0,0,0,0,-1,1826,1667,0,0
609,-643,0,0,0,0,0,0,0,0,0,-1,1833,1667,0,0
616,-643,0,0,0,0,0,0,0,0,0,-1,1840,1667,0,0
623,-643,0,0,0,0,0,0,0,0,0,-1,1847,1667,0,0
630,-643,0,0,0,0,0,0,0,0,0,-1,1854,1667,0,0
637,-643,0,0,0,0,0,0,0,0,0,-1,1861,1667,0,0
644,-643,0,0,0,0,0,0,0,0,0,-1,1868,1667,0,0
651,-643,0,0,0,0,0,0,0,0,0,-1,1875,1667,0,0
658,-643,0,0,0,0,0,0,0,0,0,-1,1882,1667,0,0
665,-643,0,0,0,0,0,0,0,0,0,-1,1889,1667,0,0
672,-643,0,0,0,0,0,0,0,0,0,-1,1896,1667,0,0
679,-643,0,0,0,0,0,0,0,0,0,-1,1903,1667,0,0
686,-643,0,0,0,0,0,0,0,0,0,-1,1910,1667,0,0
693,-643,0,0,0,0,0,0,0,0,0,-1,1917,1667,0,0
700,-643,0,0,0,0,0,0,0,0,0,-1,1924,1667,0,0
707,-643,0,0,0,0,0,0,0,0,0,-1,1931,1667,0,0
714,-643,0,0,0,0,0,0,0,0,0,-1,1938,1667,0,0
721,-643,0,0,0,0,0,0,0,0,0,-1,1945,1667,0,0
728,-643,0,0,0,0,0,0,0,0,0,-1,1952,1667,0,0
735,-643,0,0,0,0,0,0,0,0,0,-1,1959,1667,0,0
742,-643,0,0,0,0,0,0,0,0,0,-1,1966,1667,0,0
749,-643,0,0,0,0,0,0,0,0,0,-1,1973,1667,0,0
756,-643,0,0,0,0,0,0,0,0,0,-1,1980,1667,0,0
763,-643,0,0,0,0,0,0,0,0,0,-1,1987,1667,0,0
770,-643,0,0,0,0,0,0,0,0,0,-1,1994,1667,0,0
777,-643,0,0,0,0,0,0,0,0,0,-1,2001,1667,0,0
784,-643,0,0,0,0,0,0,0,0,0,-1,2008,1667,0,0
791,-643,0,0,0,0,0,0,0,0,0,-1,2015,1667,0,0
798,-643,0,0,0,0,0,0,0,0,0,-1,2022,1667,0,0
805,-643,0,0,0,0,0,0,0,0,0,-1,2029,1667,0,0
812,-643,0,0,0,0,0,0,0,0,0,-1,2036,1667,0,0
-700,-650,0,0,0,0,0,0,0,0,0,-1,524,1674,0,0
-693,-650,0,0,0,0,0,0,0,0,0,-1,531,1674,0,0
-686,-650,0,0,0,0,0,0,0,0,0,-1,538,1674,0,0
-679,-650,0,0,0,0,0,0,0,0,0,-1,545,1674,0,0
-672,-650,0,0,0,0,0,0,0,0,0,-1,552,1674,0,0
-665,-650,0,0,0,0,0,0,0,0,0,-1,559,1674,0,0
-658,-650,0,0,0,0,0,0,0,0,0,-1,566,1674,0,0
-651,-650,0,0,0,0,0,0,0,0,0,-1,573,1674,0,0
-644,-650,0,0,0,0,0,0,0,0,0,-1,580,1674,0,0
-637,-650,0,0,0,0,0,0,0,0,0,-1,587,1674,0,0
-630,-650,0,0,0,0,0,0,0,0,0,-1,594,1674,0,0
-623,-650,0,0,0,0,0,0,0,0,0,-1,601,1674,0,0
-616,-650,0,0,0,0,0,0,0,0,0,-1,608,1674,0,0
-609,-650,0,0,0,0,0,0,0,0,0,-1,615,1674,0,0
-602,-650,0,0,0,0,0,0,0,0,0,-1,622,1674,0,0
-595,-650,0,0,0,0,0,0,0,0,0,-1,629,1674,0,0
-588,-650,0,0,0,0,0,0,0,0,0,-1,636,1674,0,0
-581,-650,0,0,0,0,0,0,0,0,0,-1,643,1674,0,0
-574,-650,0,0,0,0,0,0,0,0,0,-1,650,1674,0,0
-567,-650,0,0,0,0,0,0,0,0,0,-1,657,1674,0,0
-560,-650,0,0,0,0,0,0,0,0,0,-1,664,1674,0,0
-553,-650,0,0,0,0,0,0,0,0,0,-1,671,1674,0,0
-546,-650,0,0,0,0,0,0,0,0,0,-1,678,1674,0,0
-539,-650,0,0,0,0,0,0,0,0,0,-1,685,1674,0,0
-532,-650,0,0,0,0,0,0,0,0,0,-1,692,1674,0,0
-525,-650,0,0,0,0,0,0,0,0,0,-1,699,1674,0,0
-518,-650,0,0,0,0,0,0,0,0,0,-1,706,1674,0,0
-511,-650,0,0,0,0,0,0,0,0,0,-1,713,1674,0,0
-504,-650,0,0,0,0,0,0,0,0,0,-1,720,1674,0,0
-497,-650,0,0,0,0,0,0,0,0,0,-1,727,1674,0,0
-490,-650,0,0,0,0,0,0,0,0,0,-1,734,1674,0,0
-483,-650,0,0,0,0,0,0,0,0,0,-1,741,1674,0,0
-476,-650,0,0,0,0,0,0,0,0,0,-1,748,1674,0,0
-469,-650,0,0,0,0,0,0,0,0,0,-1,755,1674,0,0
-462,-650,0,0,0,0,0,0,0,0,0,-1,762,1674,0,0
-455,-650,0,0,0,0,0,0,0,0,0,-1,769,1674,0,0
-448,-650,0,0,0,0,0,0,0,0,0,-1,776,1674,0,0
-441,-650,0,0,0,0,0,0,0,0,0,-1,783,1674,0,0
-434,-650,0,0,0,0,0,0,0,0,0,-1,790,1674,0,0
-427,-650,0,0,0,0,0,0,0,0,0,-1,797,1674,0,0
-420,-650,0,0,0,0,0,0,0,0,0,-1,804,1674,0,0
-413,-650,0,0,0,0,0,0,0,0,0,-1,811,1674,0,0
-406,-650,0,0,0,0,0,0,0,0,0,-1,818,1674,0,0
-399,-650,0,0,0,0,0,0,0,0,0,-1,825,1674,0,0
-392,-650,5.44415,6.85669,0,0,0,0,0,0,0,-1,832,1674,5.44414,-6.85674
-385,-650,1.74451,14.0183,0,0,0,0,0,0,0,-1,839,1674,1.74453,-14.0183
-378,-650,0.997986,4.11108,0,0,0,0,0,0,0,-1,846,1674,0.998006,-4.11113
-371,-650,-1.80096,3.78625,0,0,0,0,0,0,0,-1,853,1674,-1.80094,-3.78625
-364,-650,-2.95679,2.57507,0,0,0,0,0,0,0,-1,860,1674,-2.95681,-2.57506
-357,-650,5.76074,34.531,0,0,0,0,0,0,0,-1,867,1674,5.76077,-34.531
-350,-650,5.11011,35.4972,0,0,0,0,0,0,0,-1,874,1674,5.1101,-35.4971
-343,-650,5.20538,37.4165,0,0,0,0,0,0,0,-1,881,1674,5.20538,-37.4166
-336,-650,4.70221,44.1765,0,0,0,0,0,0,0,-1,888,1674,4.70219,-44.1765
-329,-650,4.61664,45.1198,-0.00222867,0.0047123,0.00829962,0.0102378,-0.00775419,0.983425,0.0104206,0.0487579,895,1674,4.61666,-45.1197
-322,-650,4.40228,46.1509,-0.00278356,0.00342807,0.00710596,0.0080773,-0.00743279,0.991424,0.00895734,0.0467999,902,1674,4.40229,-46.1509
-315,-650,4.22675,46.9271,-0.00319899,0.00239429,0.00603434,0.00624854,-0.00705324,1.00239,0.00768447,0.0427902,909,1674,4.22673,-46.9271
-308,-650,4.25629,47.7156,-0.00340539,0.00161321,0.00509693,0.00478504,-0.00657722,1.01414,0.00658715,0.0239162,916,1674,4.2563,-47.7156
-301,-650,4.23468,48.4565,-0.00344532,0.00103088,0.00428465,0.00362676,-0.0060412,1.02608,0.00563952,0.0125719,923,1674,4.2347,-48.4566
-294,-650,4.19672,49.1902,-0.00316045,0.000821301,0.00368125,0.00301554,-0.00535469,1.03328,0.00489505,0.0106383,930,1674,4.19669,-49.1901
-287,-650,4.13623,49.9,-0.00276748,0.00080516,0.00318466,0.00267028,-0.0046326,1.04099,0.00426676,0.0142269,937,1674,4.13621,-49.9001
-280,-650,4.09137,50.5867,-0.00233415,0.00078357,0.00271516,0.00235555,-0.00390613,1.04599,0.00365194,0.0158097,944,1674,4.09139,-50.5866
-273,-650,4.04785,51.2939,-0.00168891,0.000759792,0.00232939,0.002167,-0.00309611,1.02736,0.0030544,0.0149617,951,1674,4.04787,-51.2939
-266,-650,3.98071,52.0266,-0.000999398,0.0010243,0.00198017,0.00223616,-0.00221126,1.0216,0.00256773,0.0115969,958,1674,3.98072,-52.0266
-259,-650,3.95032,52.7269,-0.00031915,0.00125403,0.0017622,0.00239722,-0.00146234,0.995313,0.00225001,0.0154445,965,1674,3.95033,-52.7269
-252,-650,3.91785,53.4177,0.000358687,0.00153691,0.00154579,0.00260204,-0.000706442,0.967456,0.00201195,0.0148055,972,1674,3.91782,-53.4177
-245,-650,3.88245,54.0874,0.0010654,0.00167454,0.00139411,0.00279697,-5.70159e-05,0.892943,0.00188394,0.013285,979,1674,3.88245,-54.0874
-238,-650,3.86139,54.7766,0.00180089,0.00149226,0.00121094,0.00286731,0.000425845,0.722021,0.00178659,0.0146225,986,1674,3.86141,-54.7766
-231,-650,3.82361,55.4669,0.00250483,0.00137709,0.00100885,0.0030967,0.000785218,0.530565,0.00185885,0.0196569,993,1674,3.82364,-55.4669
-224,-650,3.82666,56.1196,0.00309371,0.00107818,0.000799941,0.0033726,0.000799281,0.335468,0.00203499,0.015871,1000,1674,3.82669,-56.1196
-217,-650,3.82135,56.7286,0.00360345,0.000651589,0.000537283,0.0036982,0.000556837,0.174559,0.00230241,0.0100147,1007,1674,3.82138,-56.7287
-210,-650,3.8316,57.358,0.00415297,6.62678e-05,0.000194712,0.00416222,5.70116e-05,0.0475019,0.00275601,0.0101387,1014,1674,3.83163,-57.3581
-203,-650,3.86047,57.9907,0.00495088,-0.00057532,-0.000231927,0.0049606,-0.000585037,-0.0418705,0.00351833,0.0155714,1021,1674,3.86051,-57.9908
-196,-650,3.84009,58.5913,0.00605214,-0.00141008,-0.000368834,0.00607033,-0.00142827,-0.0492668,0.00459753,0.0142121,1028,1674,3.84014,-58.5913
-189,-650,3.8269,59.1907,0.00682013,-0.00176866,-0.000621341,0.00686485,-0.00181337,-0.0718447,0.00528574,0.0121201,1035,1674,3.82694,-59.1907
-182,-650,3.89355,59.8544,0.00764521,-0.00141252,-0.000808512,0.00771681,-0.00148412,-0.0883316,0.00570398,0.0152915,1042,1674,3.89352,-59.8543
-175,-650,3.89441,60.3662,0.00874418,-0.000868775,-0.000692916,0.00879387,-0.000918465,-0.0715883,0.00619148,0.0268852,1049,1674,3.89445,-60.3662
-168,-650,3.84521,60.932,0.00992517,0.000165743,-0.000508456,0.00995159,0.000139324,-0.0519116,0.00658844,0.0326672,1056,1674,3.84516,-60.932
-161,-650,3.79138,61.4467,0.0115161,0.00173368,1.486e-05,0.0115161,0.00173366,0.00151904,0.00716975,0.0404841,1063,1674,3.79141,-61.4466
-154,-650,3.86328,62.0046,0.0130882,0.00390784,0.000626703,0.0131308,0.00386526,0.0678459,0.00779187,0.0390185,1070,1674,3.86333,-62.0046
-147,-650,4.39185,62.5192,0.0144743,0.00667412,0.00137627,0.01471,0.00643841,0.16962,0.00851478,0.0449154,1077,1674,4.3918,-62.5191
-140,-650,4.58008,63.0812,0,0,0,0,0,0,0,-1,1084,1674,4.5801,-63.0812
-133,-650,3.52136,64.4004,0,0,0,0,0,0,0,-1,1091,1674,3.5214,-64.4004
-126,-650,3.67334,62.924,0,0,0,0,0,0,0,-1,1098,1674,3.67329,-62.924
-119,-650,5.16663,20.6232,0,0,0,0,0,0,0,-1,1105,1674,5.16665,-20.6232
-112,-650,3.86292,14.4513,0,0,0,0,0,0,0,-1,1112,1674,3.8629,-14.4513
-105,-650,7.92102,38.1313,0,0,0,0,0,0,0,-1,1119,1674,7.92104,-38.1314
-98,-650,3.3761,6.78003,0,0,0,0,0,0,0,-1,1126,1674,3.37611,-6.78009
-91,-650,3.66809,7.04443,0,0,0,0,0,0,0,-1,1133,1674,3.66806,-7.04439
-84,-650,-3.82666,-1.59521,0,0,0,0,0,0,0,-1,1140,1674,-3.82661,1.59517
-77,-650,-4.70557,1.90198,0,0,0,0,0,0,0,-1,1147,1674,-4.7056,-1.90194
-70,-650,-4.88171,3.81653,0,0,0,0,0,0,0,-1,1154,1674,-4.88176,-3.81651
-63,-650,-5.14612,5.56543,0,0,0,0,0,0,0,-1,1161,1674,-5.14612,-5.56547
-56,-650,-5.38367,7.41101,0,0,0,0,0,0,0,-1,1168,1674,-5.38361,-7.41102
-49,-650,-5.11316,8.23706,0,0,0,0,0,0,0,-1,1175,1674,-5.11317,-8.23708
-42,-650,-4.99487,9.6792,0,0,0,0,0,0,0,-1,1182,1674,-4.99484,-9.67921
-35,-650,-4.77771,11.3369,0,0,0,0,0,0,0,-1,1189,1674,-4.77769,-11.3369
-28,-650,-4.1936,13.1501,0,0,0,0,0,0,0,-1,1196,1674,-4.19358,-13.1501
-21,-650,7.52466,48.5822,0,0,0,0,0,0,0,-1,1203,1674,7.52469,-48.5821
-14,-650,16.1287,96.0334,0,0,0,0,0,0,0,-1,1210,1674,16.1286,-96.0334
-7,-650,16.1646,92.678,0,0,0,0,0,0,0,-1,1217,1674,16.1645,-92.678
0,-650,16.2418,91.0715,0.0123214,-0.0640747,-0.0733284,0.0568043,-0.108558,-0.545277,0.0970178,0.0472665,1224,1674,16.2418,-91.0716
7,-650,16.3107,89.4722,0.0125517,-0.0594252,-0.0819772,0.0660922,-0.112966,-0.578562,0.104553,0.0432254,1231,1674,16.3107,-89.4722
14,-650,16.0896,88.0663,0.0082531,-0.0504144,-0.0909242,0.0744582,-0.116619,-0.62936,0.11121,0.0404353,1238,1674,16.0896,-88.0663
21,-650,15.5603,86.4865,0,0,0,0,0,0,0,-1,1245,1674,15.5603,-86.4864
28,-650,15.2843,85.1512,0,0,0,0,0,0,0,-1,1252,1674,15.2843,-85.1513
35,-650,15.7784,83.2211,0,0,0,0,0,0,0,-1,1259,1674,15.7784,-83.2211
42,-650,15.4532,80.1981,0,0,0,0,0,0,0,-1,1266,1674,15.4533,-80.1982
49,-650,16.4186,77.259,0,0,0,0,0,0,0,-1,1273,1674,16.4186,-77.259
56,-650,16.2303,75.7423,0,0,0,0,0,0,0,-1,1280,1674,16.2303,-75.7423
63,-650,15.057,74.0712,0,0,0,0,0,0,0,-1,1287,1674,15.057,-74.0712
70,-650,13.5933,72.929,0,0,0,0,0,0,0,-1,1294,1674,13.5933,-72.9289
77,-650,11.8849,71.7389,0,0,0,0,0,0,0,-1,1301,1674,11.8849,-71.7389
84,-650,10.9639,70.7301,0,0,0,0,0,0,0,-1,1308,1674,10.9639,-70.73
91,-650,10.031,69.744,0,0,0,0,0,0,0,-1,1315,1674,10.031,-69.744
98,-650,8.88806,68.3245,0,0,0,0,0,0,0,-1,1322,1674,8.88803,-68.3245
105,-650,7.84692,67.0358,0,0,0,0,0,0,0,-1,1329,1674,7.84692,-67.0358
112,-650,6.82214,65.5662,0.00878172,0.0139726,-0.13251,0.143913,-0.121159,-0.79519,0.153227,0.0472772,1336,1674,6.82213,-65.5662
119,-650,6.0968,64.0701,0.0360172,0.0170016,-0.144684,0.171506,-0.118487,-0.752588,0.168357,0.0461437,1343,1674,6.09686,-64.0701
126,-650,5.38049,62.6068,0,0,0,0,0,0,0,-1,1350,1674,5.38045,-62.6068
133,-650,6.2522,60.9197,0,0,0,0,0,0,0,-1,1357,1674,6.25223,-60.9197
140,-650,6.45532,59.4655,0.123122,0.0354488,-0.187393,0.271738,-0.113167,-0.6705,0.228424,0.0449208,1364,1674,6.45535,-59.4655
147,-650,7.1842,57.4792,0.138429,0.0445923,-0.192269,0.289421,-0.1064,-0.665724,0.23653,0.0429503,1371,1674,7.18422,-57.4793
154,-650,8.12097,55.3063,0,0,0,0,0,0,0,-1,1378,1674,8.12094,-55.3063
161,-650,4.09106,30.3021,0,0,0,0,0,0,0,-1,1385,1674,4.09104,-30.3021
168,-650,11.2113,7.87231,0,0,0,0,0,0,0,-1,1392,1674,11.2113,-7.87236
175,-650,5.62537,-0.230713,0,0,0,0,0,0,0,-1,1399,1674,5.62538,0.230745
182,-650,5.56006,0.421631,0,0,0,0,0,0,0,-1,1406,1674,5.56,-0.421652
189,-650,4.81543,11.0654,0,0,0,0,0,0,0,-1,1413,1674,4.81542,-11.0654
196,-650,5.39575,11.9077,0,0,0,0,0,0,0,-1,1420,1674,5.39575,-11.9078
203,-650,3.93628,11.8215,0,0,0,0,0,0,0,-1,1427,1674,3.93624,-11.8216
210,-650,5.40955,8.08594,0,0,0,0,0,0,0,-1,1434,1674,5.40958,-8.086
217,-650,5.12451,4.69739,0,0,0,0,0,0,0,-1,1441,1674,5.12451,-4.69738
224,-650,4.79041,1.45813,0,0,0,0,0,0,0,-1,1448,1674,4.79046,-1.45816
231,-650,4.04102,-0.642212,0,0,0,0,0,0,0,-1,1455,1674,4.04101,0.642209
238,-650,3.23022,-1.43396,0,0,0,0,0,0,0,-1,1462,1674,3.23023,1.43394
245,-650,1.65894,-2.55042,0,0,0,0,0,0,0,-1,1469,1674,1.65889,2.55036
252,-650,8.75342,0.355103,0,0,0,0,0,0,0,-1,1476,1674,8.75337,-0.355147
259,-650,5.61255,3.17566,0,0,0,0,0,0,0,-1,1483,1674,5.61257,-3.17572
266,-650,4.00403,6.10229,0,0,0,0,0,0,0,-1,1490,1674,4.00401,-6.10225
273,-650,11.9524,42.7109,0,0,0,0,0,0,0,-1,1497,1674,11.9524,-42.7109
280,-650,12.3011,46.7283,0,0,0,0,0,0,0,-1,1504,1674,12.3011,-46.7283
287,-650,14.4486,60.6356,0,0,0,0,0,0,0,-1,1511,1674,14.4486,-60.6356
294,-650,14.4296,60.402,0.00271506,0.00678132,0.0023051,0.0078218,0.00167458,1.14679,0.00475566,0.0480292,1518,1674,14.4295,-60.402
301,-650,14.3301,59.8861,0.00280342,0.00647484,0.00193483,0.00730622,0.00197204,1.16496,0.00436459,0.0363721,1525,1674,14.3301,-59.8861
308,-650,14.2689,59.3212,0.00278818,0.00633514,0.00132291,0.0067742,0.00234912,1.25035,0.00397183,0.0206472,1532,1674,14.2689,-59.3212
315,-650,14.3169,58.7712,0.00282499,0.00584721,0.000720746,0.00601029,0.00266191,1.34827,0.00347758,0.0143072,1539,1674,14.3169,-58.7712
322,-650,14.3066,58.1787,0.00335289,0.0065166,-0.000543919,0.0066075,0.00326199,-1.4052,0.00381494,0.0127288,1546,1674,14.3066,-58.1787
329,-650,14.323,57.5093,0.00412962,0.00622477,-0.00174481,0.00721233,0.00314207,-1.05575,0.00417552,0.0172089,1553,1674,14.323,-57.5093
336,-650,14.3142,56.9318,0.00451076,0.00621003,-0.00242031,0.0079255,0.00279529,-0.954201,0.00464151,0.0156635,1560,1674,14.3142,-56.9317
343,-650,14.3152,56.3333,0.00454465,0.00621497,-0.00295113,0.00844684,0.00231278,-0.923291,0.00504039,0.0144943,1567,1674,14.3152,-56.3333
350,-650,14.3184,55.6801,0.0045052,0.00622413,-0.00355151,0.00901869,0.00171064,-0.904116,0.00553114,0.0159078,1574,1674,14.3183,-55.68
357,-650,14.2813,55.0107,0.00445378,0.00595173,-0.00389621,0.0091703,0.00123521,-0.880355,0.00574622,0.0133699,1581,1674,14.2813,-55.0107
364,-650,14.2759,54.3649,0.00413296,0.00574293,-0.0039506,0.00896972,0.000906168,-0.885904,0.00570181,0.00917689,1588,1674,14.2759,-54.3649
371,-650,14.2467,53.7168,0.00366569,0.00542399,-0.00384834,0.00849232,0.000597364,-0.897696,0.0054733,0.0109563,1595,1674,14.2467,-53.7167
378,-650,14.2026,53.0413,0.00316866,0.00502888,-0.00358738,0.00780476,0.000392782,-0.912242,0.00507732,0.0126028,1602,1674,14.2026,-53.0413
385,-650,14.183,52.3588,0.00271856,0.00457843,-0.00332885,0.00710479,0.000192195,-0.921605,0.00467378,0.0139767,1609,1674,14.183,-52.3588
392,-650,14.1631,51.6909,0.00219599,0.00402044,-0.00308599,0.00632621,-0.000109777,-0.929107,0.00425454,0.0187003,1616,1674,14.1631,-51.6909
399,-650,14.1396,51.0385,0.00168054,0.00351043,-0.00292827,0.00566336,-0.000472389,-0.936819,0.00394248,0.0177615,1623,1674,14.1396,-51.0385
406,-650,14.0978,50.3445,0.00130496,0.00305346,-0.00279904,0.0051116,-0.000753178,-0.936768,0.00368454,0.015369,1630,1674,14.0977,-50.3445
413,-650,14.0756,49.6348,0.00108265,0.00270781,-0.00292033,0.00492651,-0.00113604,-0.92109,0.00372128,0.0162419,1637,1674,14.0756,-49.6348
420,-650,14.027,48.9526,0.000990008,0.00256414,-0.00318073,0.00505374,-0.00149958,-0.906686,0.00396471,0.0168552,1644,1674,14.027,-48.9527
427,-650,13.981,48.2577,0.00137579,0.00299882,-0.00398888,0.0062579,-0.00188328,-0.885751,0.00492131,0.015643,1651,1674,13.981,-48.2576
434,-650,13.9268,47.5471,0.00229714,0.00291876,-0.00514333,0.00776067,-0.00254476,-0.815576,0.00619867,0.023879,1658,1674,13.9268,-47.5472
441,-650,13.9528,46.7239,0.00304748,0.00324435,-0.00605362,0.00920033,-0.00290851,-0.793528,0.00729885,0.043573,1665,1674,13.9528,-46.7239
448,-650,13.8774,45.8043,0,0,0,0,0,0,0,-1,1672,1674,13.8775,-45.8043
455,-650,13.6095,45.317,0,0,0,0,0,0,0,-1,1679,1674,13.6095,-45.317
462,-650,13.5551,44.5934,0,0,0,0,0,0,0,-1,1686,1674,13.5551,-44.5933
469,-650,11.3628,29.8889,0,0,0,0,0,0,0,-1,1693,1674,11.3628,-29.8889
476,-650,10.9189,27.1289,0,0,0,0,0,0,0,-1,1700,1674,10.919,-27.1289
483,-650,10.2426,24.5127,0,0,0,0,0,0,0,-1,1707,1674,10.2425,-24.5127
490,-650,10.4818,24.3475,0,0,0,0,0,0,0,-1,1714,1674,10.4818,-24.3475
497,-650,10.4985,20.1362,0,0,0,0,0,0,0,-1,1721,1674,10.4986,-20.1362
504,-650,9.69458,18.7721,0,0,0,0,0,0,0,-1,1728,1674,9.6946,-18.772
511,-650,9.37158,17.7506,0,0,0,0,0,0,0,-1,1735,1674,9.37159,-17.7506
518,-650,0,0,0,0,0,0,0,0,0,-1,1742,1674,0,0
525,-650,0,0,0,0,0,0,0,0,0,-1,1749,1674,0,0
532,-650,0,0,0,0,0,0,0,0,0,-1,1756,1674,0,0
539,-650,0,0,0,0,0,0,0,0,0,-1,1763,1674,0,0
546,-650,0,0,0,0,0,0,0,0,0,-1,1770,1674,0,0
553,-650,0,0,0,0,0,0,0,0,0,-1,1777,1674,0,0
560,-650,0,0,0,0,0,0,0,0,0,-1,1784,1674,0,0
567,-650,0,0,0,0,0,0,0,0,0,-1,1791,1674,0,0
574,-650,0,0,0,0,0,0,0,0,0,-1,1798,1674,0,0
581,-650,0,0,0,0,0,0,0,0,0,-1,1805,1674,0,0
588,-650,0,0,0,0,0,0,0,0,0,-1,1812,1674,0,0
595,-650,0,0,0,0,0,0,0,0,0,-1,1819,1674,0,0
602,-650,0,0,0,0,0,0,0,0,0,-1,1826,1674,0,0
609,-650,0,0,0,0,0,0,0,0,0,-1,1833,1674,0,0
616,-650,0,0,0,0,0,0,0,0,0,-1,1840,1674,0,0
623,-650,0,0,0,0,0,0,0,0,0,-1,1847,1674,0,0
630,-650,0,0,0,0,0,0,0,0,0,-1,1854,1674,0,0
637,-650,0,0,0,0,0,0,0,0,0,-1,1861,1674,0,0
644,-650,0,0,0,0,0,0,0,0,0,-1,1868,1674,0,0
651,-650,0,0,0,0,0,0,0,0,0,-1,1875,1674,0,0
658,-650,0,0,0,0,0,0,0,0,0,-1,1882,1674,0,0
665,-650,0,0,0,0,0,0,0,0,0,-1,1889,1674,0,0
672,-650,0,0,0,0,0,0,0,0,0,-1,1896,1674,0,0
679,-650,0,0,0,0,0,0,0,0,0,-1,1903,1674,0,0
686,-650,0,0,0,0,0,0,0,0,0,-1,1910,1674,0,0
693,-650,0,0,0,0,0,0,0,0,0,-1,1917,1674,0,0
700,-650,0,0,0,0,0,0,0,0,0,-1,1924,1674,0,0
707,-650,0,0,0,0,0,0,0,0,0,-1,1931,1674,0,0
714,-650,0,0,0,0,0,0,0,0,0,-1,1938,1674,0,0
721,-650,0,0,0,0,0,0,0,0,0,-1,1945,1674,0,0
728,-650,0,0,0,0,0,0,0,0,0,-1,1952,1674,0,0
735,-650,0,0,0,0,0,0,0,0,0,-1,1959,1674,0,0
742,-650,0,0,0,0,0,0,0,0,0,-1,1966,1674,0,0
749,-650,0,0,0,0,0,0,0,0,0,-1,1973,1674,0,0
756,-650,0,0,0,0,0,0,0,0,0,-1,1980,1674,0,0
763,-650,0,0,0,0,0,0,0,0,0,-1,1987,1674,0,0
770,-650,0,0,0,0,0,0,0,0,0,-1,1994,1674,0,0
777,-650,0,0,0,0,0,0,0,0,0,-1,2001,1674,0,0
784,-650,0,0,0,0,0,0,0,0,0,-1,2008,1674,0,0
791,-650,0,0,0,0,0,0,0,0,0,-1,2015,1674,0,0
798,-650,0,0,0,0,0,0,0,0,0,-1,2022,1674,0,0
805,-650,0,0,0,0,0,0,0,0,0,-1,2029,1674,0,0
812,-650,0,0,0,0,0,0,0,0,0,-1,2036,1674,0,0
-700,-657,0,0,0,0,0,0,0,0,0,-1,524,1681,0,0
-693,-657,0,0,0,0,0,0,0,0,0,-1,531,1681,0,0
-686,-657,0,0,0,0,0,0,0,0,0,-1,538,1681,0,0
-679,-657,0,0,0,0,0,0,0,0,0,-1,545,1681,0,0
-672,-657,0,0,0,0,0,0,0,0,0,-1,552,1681,0,0
-665,-657,0,0,0,0,0,0,0,0,0,-1,559,1681,0,0
-658,-657,0,0,0,0,0,0,0,0,0,-1,566,1681,0,0
-651,-657,0,0,0,0,0,0,0,0,0,-1,573,1681,0,0
-644,-657,0,0,0,0,0,0,0,0,0,-1,580,1681,0,0
-637,-657,0,0,0,0,0,0,0,0,0,-1,587,1681,0,0
-630,-657,0,0,0,0,0,0,0,0,0,-1,594,1681,0,0
-623,-657,0,0,0,0,0,0,0,0,0,-1,601,1681,0,0
-616,-657,0,0,0,0,0,0,0,0,0,-1,608,1681,0,0
-609,-657,0,0,0,0,0,0,0,0,0,-1,615,1681,0,0
-602,-657,0,0,0,0,0,0,0,0,0,-1,622,1681,0,0
-595,-657,0,0,0,0,0,0,0,0,0,-1,629,1681,0,0
-588,-657,0,0,0,0,0,0,0,0,0,-1,636,1681,0,0
-581,-657,0,0,0,0,0,0,0,0,0,-1,643,1681,0,0
-574,-657,0,0,0,0,0,0,0,0,0,-1,650,1681,0,0
-567,-657,0,0,0,0,0,0,0,0,0,-1,657,1681,0,0
-560,-657,0,0,0,0,0,0,0,0,0,-1,664,1681,0,0
-553,-657,0,0,0,0,0,0,0,0,0,-1,671,1681,0,0
-546,-657,0,0,0,0,0,0,0,0,0,-1,678,1681,0,0
-539,-657,0,0,0,0,0,0,0,0,0,-1,685,1681,0,0
-532,-657,0,0,0,0,0,0,0,0,0,-1,692,1681,0,0
-525,-657,0,0,0,0,0,0,0,0,0,-1,699,1681,0,0
-518,-657,0,0,0,0,0,0,0,0,0,-1,706,1681,0,0
-511,-657,0,0,0,0,0,0,0,0,0,-1,713,1681,0,0
-504,-657,0,0,0,0,0,0,0,0,0,-1,720,1681,0,0
-497,-657,0,0,0,0,0,0,0,0,0,-1,727,1681,0,0
-490,-657,0,0,0,0,0,0,0,0,0,-1,734,1681,0,0
-483,-657,0,0,0,0,0,0,0,0,0,-1,741,1681,0,0
-476,-657,0,0,0,0,0,0,0,0,0,-1,748,1681,0,0
-469,-657,0,0,0,0,0,0,0,0,0,-1,755,1681,0,0
-462,-657,0,0,0,0,0,0,0,0,0,-1,762,1681,0,0
-455,-657,0,0,0,0,0,0,0,0,0,-1,769,1681,0,0
-448,-657,0,0,0,0,0,0,0,0,0,-1,776,1681,0,0
-441,-657,0,0,0,0,0,0,0,0,0,-1,783,1681,0,0
-434,-657,0,0,0,0,0,0,0,0,0,-1,790,1681,0,0
-427,-657,0,0,0,0,0,0,0,0,0,-1,797,1681,0,0
-420,-657,0,0,0,0,0,0,0,0,0,-1,804,1681,0,0
-413,-657,0,0,0,0,0,0,0,0,0,-1,811,1681,0,0
-406,-657,0,0,0,0,0,0,0,0,0,-1,818,1681,0,0
-399,-657,0,0,0,0,0,0,0,0,0,-1,825,1681,0,0
-392,-657,0,0,0,0,0,0,0,0,0,-1,832,1681,0,0
-385,-657,1.09814,6.18896,0,0,0,0,0,0,0,-1,839,1681,1.09814,-6.18894
-378,-657,0.31488,4.46753,0,0,0,0,0,0,0,-1,846,1681,0.31487,-4.46755
-371,-657,-0.519043,2.69421,0,0,0,0,0,0,0,-1,853,1681,-0.519064,-2.69422
-364,-657,-3.42017,4.18323,0,0,0,0,0,0,0,-1,860,1681,-3.42019,-4.18319
-357,-657,5.03418,34.7598,0,0,0,0,0,0,0,-1,867,1681,5.03417,-34.7597
-350,-657,4.23431,35.8203,0,0,0,0,0,0,0,-1,874,1681,4.23429,-35.8203
-343,-657,3.60156,36.754,0,0,0,0,0,0,0,-1,881,1681,3.60154,-36.754
-336,-657,3.67853,40.0931,0,0,0,0,0,0,0,-1,888,1681,3.67851,-40.0932
-329,-657,4.82233,45.4785,0,0,0,0,0,0,0,-1,895,1681,4.82232,-45.4785
-322,-657,4.85571,46.2153,-0.00443562,0.00378512,0.00923626,0.00978434,-0.0104348,0.994753,0.0116756,0.0494063,902,1681,4.85574,-46.2153
-315,-657,4.90076,46.9153,-0.00497333,0.00264398,0.00790783,0.00761255,-0.0099419,1.00982,0.0101648,0.0467555,909,1681,4.90075,-46.9153
-308,-657,4.94751,47.7955,-0.00523725,0.00180481,0.00675355,0.00590008,-0.00933253,1.02569,0.00886866,0.0404603,916,1681,4.94754,-47.7955
-301,-657,4.91321,48.5214,-0.00527039,0.00114929,0.00576013,0.00453355,-0.00865465,1.0396,0.00773714,0.0307977,923,1681,4.91322,-48.5213
-294,-657,4.87659,49.2123,-0.00493469,0.000786057,0.00491082,0.0036088,-0.00775743,1.04911,0.00670642,0.0169745,930,1681,4.87661,-49.2123
-287,-657,4.81146,49.9441,-0.00446305,0.00064753,0.00415982,0.00297421,-0.00678973,1.06082,0.0057789,0.0118901,937,1681,4.81146,-49.9441
-280,-657,4.75543,50.6285,-0.00403506,0.000476588,0.0034215,0.00231899,-0.00587746,1.07684,0.00487862,0.014806,944,1681,4.7554,-50.6286
-273,-657,4.72412,51.368,-0.00338649,0.000349572,0.0027979,0.00184574,-0.00488265,1.07974,0.00401437,0.0116751,951,1681,4.7241,-51.368
-266,-657,4.64545,52.0675,-0.00264123,0.000550866,0.00228372,0.00174099,-0.00383135,1.09038,0.00329178,0.0153871,958,1681,4.64545,-52.0675
-259,-657,4.61047,52.7463,-0.00191937,0.000691805,0.00193373,0.00171943,-0.00294699,1.08233,0.00272505,0.0204134,965,1681,4.61049,-52.7463
-252,-657,4.58307,53.4244,-0.00122688,0.000888284,0.00163359,0.00177675,-0.00211534,1.07267,0.00224993,0.0143226,972,1681,4.58307,-53.4245
-245,-657,4.55408,54.11,-0.000530583,0.00100117,0.00142868,0.0018563,-0.00138572,1.03144,0.00187834,0.0165912,979,1681,4.55409,-54.11
-238,-657,4.55316,54.8125,0.000250432,0.000915766,0.00121602,0.0018438,-0.000677601,0.918917,0.00150674,0.0220713,986,1681,4.55314,-54.8125
-231,-657,4.53186,55.4847,0.000985103,0.000883113,0.000979778,0.00191521,-4.69958e-05,0.759398,0.00129276,0.0220099,993,1681,4.53188,-55.4847
-224,-657,4.49438,56.1458,0.00157187,0.000710999,0.000797087,0.00204731,0.000235552,0.537828,0.00129353,0.0166446,1000,1681,4.49436,-56.1458
-217,-657,4.47357,56.8091,0.00206828,0.00044165,0.000557184,0.00224083,0.000269097,0.30032,0.00141276,0.0103564,1007,1681,4.4736,-56.8091
-210,-657,4.474,57.4136,0.00259396,6.01132e-05,0.000259497,0.00262026,3.38105e-05,0.101015,0.00173568,0.011566,1014,1681,4.47398,-57.4136
-203,-657,4.45251,58.0245,0.00332404,-0.000356107,-9.36737e-05,0.00332643,-0.000358489,-0.0254318,0.00234626,0.0144066,1021,1681,4.45257,-58.0245
-196,-657,4.43311,58.6295,0.00430787,-0.00087246,-0.00021325,0.00431663,-0.000881223,-0.0410728,0.00321204,0.0149073,1028,1681,4.43312,-58.6295
-189,-657,4.44287,59.2264,0.00500214,-0.00108036,-0.000472643,0.00503864,-0.00111687,-0.0770888,0.00378669,0.0104407,1035,1681,4.44288,-59.2265
-182,-657,4.45471,59.833,0.0057385,-0.000724306,-0.000683118,0.00580992,-0.000795722,-0.104166,0.00416394,0.00840895,1042,1681,4.45475,-59.833
-175,-657,4.47852,60.4122,0.00674149,-0.000225834,-0.000629908,0.00679798,-0.000282325,-0.0894425,0.00462896,0.0125352,1049,1681,4.4785,-60.4122
-168,-657,4.42639,61.0042,0.00775411,0.000560866,-0.000560429,0.00779752,0.000517464,-0.0772889,0.00503473,0.0174329,1056,1681,4.4264,-61.0042
-161,-657,4.44165,61.5961,0.00902092,0.00176993,-0.000224485,0.00902786,0.00176299,-0.0309198,0.00552547,0.0178696,1063,1681,4.44169,-61.5961
-154,-657,4.54626,62.0875,0.0103214,0.00343164,0.000203004,0.0103273,0.00342566,0.0294307,0.00607402,0.016419,1070,1681,4.54627,-62.0876
-147,-657,4.57251,62.6171,0.0115199,0.00543584,0.000757666,0.0116129,0.0053429,0.122049,0.0067118,0.024063,1077,1681,4.5725,-62.6171
-140,-657,4.51501,63.3365,0.0125195,0.00773545,0.0011834,0.0127962,0.00745873,0.229712,0.00742164,0.035872,1084,1681,4.51496,-63.3365
-133,-657,4.31091,64.0358,0.0135756,0.01082,0.00175782,0.0144312,0.00996435,0.453003,0.00853101,0.0430138,1091,1681,4.31096,-64.0357
-126,-657,4.66345,64.72,0,0,0,0,0,0,0,-1,1098,1681,4.66343,-64.72
-119,-657,5.64758,54.4952,0,0,0,0,0,0,0,-1,1105,1681,5.64753,-54.4952
-112,-657,6.24219,42.9092,0,0,0,0,0,0,0,-1,1112,1681,6.24217,-42.9092
-105,-657,7.37256,41.0361,0,0,0,0,0,0,0,-1,1119,1681,7.37254,-41.0362
-98,-657,8.14404,38.4435,0,0,0,0,0,0,0,-1,1126,1681,8.14405,-38.4435
-91,-657,3.6521,16.6017,0,0,0,0,0,0,0,-1,1133,1681,3.65215,-16.6017
-84,-657,4.08008,10.4579,0,0,0,0,0,0,0,-1,1140,1681,4.08006,-10.4579
-77,-657,-5.29846,0.396606,0,0,0,0,0,0,0,-1,1147,1681,-5.29842,-0.396573
-70,-657,-4.14893,2.14575,0,0,0,0,0,0,0,-1,1154,1681,-4.14893,-2.1458
-63,-657,-4.1239,3.177,0,0,0,0,0,0,0,-1,1161,1681,-4.12391,-3.17698
-56,-657,-6.40576,5.73987,0,0,0,0,0,0,0,-1,1168,1681,-6.40577,-5.7399
-49,-657,-5.98462,7.54053,0,0,0,0,0,0,0,-1,1175,1681,-5.98466,-7.5405
-42,-657,-5.71948,9.28955,0,0,0,0,0,0,0,-1,1182,1681,-5.71951,-9.2895
-35,-657,-5.44556,11.015,0,0,0,0,0,0,0,-1,1189,1681,-5.44555,-11.015
-28,-657,-1.3446,8.92847,0,0,0,0,0,0,0,-1,1196,1681,-1.34459,-8.92848
-21,-657,16.5166,98.6786,0,0,0,0,0,0,0,-1,1203,1681,16.5166,-98.6786
-14,-657,16.3579,96.2825,0,0,0,0,0,0,0,-1,1210,1681,16.358,-96.2824
-7,-657,16.0763,93.3544,0,0,0,0,0,0,0,-1,1217,1681,16.0762,-93.3543
0,-657,16.413,91.7487,0,0,0,0,0,0,0,-1,1224,1681,16.413,-91.7486
7,-657,16.3435,89.9182,0,0,0,0,0,0,0,-1,1231,1681,16.3435,-89.9183
14,-657,15.8987,88.5576,0.0106039,-0.0416801,-0.0875052,0.0757886,-0.106865,-0.640244,0.105963,0.0442715,1238,1681,15.8986,-88.5576
21,-657,15.686,86.9169,0.00581305,-0.0316744,-0.0949699,0.0838712,-0.109733,-0.687968,0.112109,0.0432897,1245,1681,15.6861,-86.9169
28,-657,15.4292,85.2498,-0.00166096,-0.0211499,-0.101002,0.090066,-0.112877,-0.737308,0.117416,0.0447478,1252,1681,15.4292,-85.2497
35,-657,15.7402,83.5283,0,0,0,0,0,0,0,-1,1259,1681,15.7402,-83.5283
42,-657,17.0344,81.0065,-0.0221321,-0.00190423,-0.107153,0.0956113,-0.119648,-0.832453,0.124538,0.0465512,1266,1681,17.0345,-81.0065
49,-657,16.1412,77.1744,-0.033591,0.00481837,-0.106949,0.0942736,-0.123046,-0.874236,0.125836,0.0438262,1273,1681,16.1412,-77.1744
56,-657,15.0883,75.5212,-0.0453856,0.0093668,-0.105023,0.0905234,-0.126542,-0.912895,0.125897,0.0455898,1280,1681,15.0882,-75.5213
63,-657,14.108,73.9949,0,0,0,0,0,0,0,-1,1287,1681,14.1081,-73.9949
70,-657,12.9393,72.8856,0,0,0,0,0,0,0,-1,1294,1681,12.9393,-72.8857
77,-657,11.9911,71.911,-0.0589047,0.0135958,-0.0991228,0.082889,-0.128198,-0.960699,0.122803,0.0484084,1301,1681,11.991,-71.911
84,-657,11.0378,70.8882,0,0,0,0,0,0,0,-1,1308,1681,11.0379,-70.8882
91,-657,10.7252,70.662,0,0,0,0,0,0,0,-1,1315,1681,10.7252,-70.662
98,-657,7.86804,68.9054,0,0,0,0,0,0,0,-1,1322,1681,7.86807,-68.9054
105,-657,7.35291,67.5034,0,0,0,0,0,0,0,-1,1329,1681,7.35286,-67.5035
112,-657,6.87012,66.0785,0.00374227,0.0079024,-0.117788,0.123628,-0.111984,-0.794227,0.136086,0.0461798,1336,1681,6.87013,-66.0785
119,-657,6.62439,64.4337,0.0270901,0.00971511,-0.128154,0.14685,-0.110045,-0.751555,0.148825,0.0462407,1343,1681,6.62435,-64.4337
126,-657,6.96387,62.6036,0,0,0,0,0,0,0,-1,1350,1681,6.96382,-62.6037
133,-657,7.13135,61.0264,0.0749842,0.0175885,-0.151072,0.20006,-0.107488,-0.691536,0.180224,0.0456645,1357,1681,7.13134,-61.0263
140,-657,7.36475,59.354,0.0947004,0.0239506,-0.160474,0.223652,-0.105001,-0.676913,0.193826,0.0469074,1364,1681,7.36472,-59.354
147,-657,7.89612,57.5565,0.104714,0.0308879,-0.163495,0.235411,-0.099809,-0.674372,0.198747,0.0492201,1371,1681,7.89607,-57.5566
154,-657,8.36633,55.7788,0,0,0,0,0,0,0,-1,1378,1681,8.3663,-55.7788
161,-657,4.2926,24.9226,0,0,0,0,0,0,0,-1,1385,1681,4.29264,-24.9226
168,-657,5.21643,0.70105,0,0,0,0,0,0,0,-1,1392,1681,5.21648,-0.7011
175,-657,5.52771,0.649048,0,0,0,0,0,0,0,-1,1399,1681,5.52774,-0.649019
182,-657,5.73999,1.02612,0,0,0,0,0,0,0,-1,1406,1681,5.73995,-1.02611
189,-657,5.92126,1.44116,0,0,0,0,0,0,0,-1,1413,1681,5.92126,-1.44115
196,-657,4.92834,9.59021,0,0,0,0,0,0,0,-1,1420,1681,4.9284,-9.59018
203,-657,6.26343,5.16492,0,0,0,0,0,0,0,-1,1427,1681,6.26345,-5.16488
210,-657,3.9856,5.28088,0,0,0,0,0,0,0,-1,1434,1681,3.98555,-5.28084
217,-657,3.95178,5.2843,0,0,0,0,0,0,0,-1,1441,1681,3.95174,-5.28431
224,-657,6.66736,-0.250244,0,0,0,0,0,0,0,-1,1448,1681,6.66737,0.250229
231,-657,6.85498,-1.70752,0,0,0,0,0,0,0,-1,1455,1681,6.855,1.70758
238,-657,5.34143,-2.89819,0,0,0,0,0,0,0,-1,1462,1681,5.34143,2.89813
245,-657,8.66003,-0.102783,0,0,0,0,0,0,0,-1,1469,1681,8.66,0.102824
252,-657,4.78955,0.623779,0,0,0,0,0,0,0,-1,1476,1681,4.7895,-0.623826
259,-657,2.61523,4.31909,0,0,0,0,0,0,0,-1,1483,1681,2.61523,-4.31908
266,-657,5.35437,11.4742,0,0,0,0,0,0,0,-1,1490,1681,5.35441,-11.4742
273,-657,11.9164,46.0638,0,0,0,0,0,0,0,-1,1497,1681,11.9164,-46.0638
280,-657,13.2169,61.5294,0,0,0,0,0,0,0,-1,1504,1681,13.2169,-61.5294
287,-657,13.1426,60.9371,0,0,0,0,0,0,0,-1,1511,1681,13.1426,-60.9371
294,-657,13.6204,60.444,0.00337576,0.00437861,0.00155674,0.00551269,0.00224168,0.9412,0.00320119,0.0425322,1518,1681,13.6203,-60.444
301,-657,13.6558,59.967,0.00318061,0.00429244,0.00131681,0.00516587,0.00230718,0.985132,0.00298818,0.0285024,1525,1681,13.6557,-59.967
308,-657,13.6544,59.3925,0.00295062,0.00425488,0.00090989,0.0047222,0.0024833,1.09633,0.00272758,0.0175496,1532,1681,13.6544,-59.3924
315,-657,13.6829,58.7698,0.00278284,0.00403855,0.000467811,0.00419367,0.00262772,1.25062,0.00244695,0.0124165,1539,1681,13.6828,-58.7698
322,-657,13.7168,58.1506,0.0028755,0.00448184,-0.000367519,0.00456193,0.00279541,-1.35622,0.00265607,0.0139091,1546,1681,13.7168,-58.1506
329,-657,13.7092,57.4998,0.00294344,0.00455352,-0.00116252,0.00516253,0.00233443,-1.08823,0.00298513,0.0198019,1553,1681,13.7092,-57.4997
336,-657,13.678,56.9064,0.00288385,0.00473231,-0.00169174,0.00573582,0.00188034,-1.0354,0.00337639,0.0185113,1560,1681,13.6779,-56.9064
343,-657,13.6855,56.3445,0.00267282,0.0049462,-0.00214838,0.00624006,0.00137896,-1.02872,0.00378506,0.0147883,1567,1681,13.6856,-56.3445
350,-657,13.6801,55.6964,0.00244542,0.00512511,-0.00269236,0.00679258,0.000777945,-1.01628,0.00429263,0.0158287,1574,1681,13.6801,-55.6964
357,-657,13.6461,55.0211,0.00226864,0.00508036,-0.00305638,0.0070387,0.000310292,-1.00096,0.00459253,0.0149856,1581,1681,13.6461,-55.0212
364,-657,13.6334,54.3884,0.00192946,0.00504765,-0.00317248,0.00702344,-4.63312e-05,-1.01379,0.00469782,0.0106145,1588,1681,13.6334,-54.3884
371,-657,13.6119,53.7506,0.00155654,0.00493304,-0.00320108,0.00686378,-0.000374204,-1.02806,0.00470555,0.0147878,1595,1681,13.612,-53.7506
378,-657,13.5485,53.0743,0.00124797,0.00474888,-0.00311613,0.00657254,-0.000575701,-1.0413,0.00458566,0.0157894,1602,1681,13.5485,-53.0743
385,-657,13.5039,52.3914,0.00106879,0.00451024,-0.00307292,0.0063114,-0.000732376,-1.04063,0.00447176,0.0137603,1609,1681,13.5039,-52.3914
392,-657,13.4868,51.7386,0.00090032,0.0041589,-0.0030599,0.00599624,-0.000937025,-1.03004,0.00434366,0.014549,1616,1681,13.4869,-51.7387
399,-657,13.4679,51.0608,0.000800117,0.00380212,-0.00313556,0.00577743,-0.0011752,-1.00863,0.00429725,0.0148191,1623,1681,13.4679,-51.0608
406,-657,13.4391,50.365,0.000817933,0.00352496,-0.00320179,0.00564758,-0.00130468,-0.985374,0.00426696,0.0153504,1630,1681,13.4391,-50.3649
413,-657,13.4086,49.6583,0.000961225,0.00337284,-0.00354132,0.00590801,-0.00157395,-0.94949,0.00455489,0.0159645,1637,1681,13.4085,-49.6583
420,-657,13.3771,48.9022,0.0012342,0.00335396,-0.00399117,0.00642358,-0.00183542,-0.915181,0.0050076,0.0222581,1644,1681,13.3771,-48.9022
427,-657,13.3109,48.1116,0.00214779,0.00421183,-0.00517866,0.0084603,-0.00210068,-0.883752,0.00645538,0.0322365,1651,1681,13.3109,-48.1116
434,-657,13.4087,47.3503,0.0033827,0.00418836,-0.00665248,0.0104502,-0.00287914,-0.815638,0.00809893,0.0427216,1658,1681,13.4086,-47.3504
441,-657,13.3049,46.682,0,0,0,0,0,0,0,-1,1665,1681,13.305,-46.682
448,-657,13.8298,44.941,0,0,0,0,0,0,0,-1,1672,1681,13.8298,-44.9411
455,-657,12.5636,45.2126,0,0,0,0,0,0,0,-1,1679,1681,12.5636,-45.2127
462,-657,10.2832,30.1719,0,0,0,0,0,0,0,-1,1686,1681,10.2831,-30.1718
469,-657,9.22205,26.4175,0,0,0,0,0,0,0,-1,1693,1681,9.2221,-26.4175
476,-657,8.9519,20.5712,0,0,0,0,0,0,0,-1,1700,1681,8.95194,-20.5712
483,-657,10.0663,21.8628,0,0,0,0,0,0,0,-1,1707,1681,10.0663,-21.8628
490,-657,11.6039,21.2185,0,0,0,0,0,0,0,-1,1714,1681,11.6038,-21.2185
497,-657,9.20862,17.8127,0,0,0,0,0,0,0,-1,1721,1681,9.2086,-17.8127
504,-657,0,0,0,0,0,0,0,0,0,-1,1728,1681,0,0
511,-657,0,0,0,0,0,0,0,0,0,-1,1735,1681,0,0
518,-657,0,0,0,0,0,0,0,0,0,-1,1742,1681,0,0
525,-657,0,0,0,0,0,0,0,0,0,-1,1749,1681,0,0
532,-657,0,0,0,0,0,0,0,0,0,-1,1756,1681,0,0
539,-657,0,0,0,0,0,0,0,0,0,-1,1763,1681,0,0
546,-657,0,0,0,0,0,0,0,0,0,-1,1770,1681,0,0
553,-657,0,0,0,0,0,0,0,0,0,-1,1777,1681,0,0
560,-657,0,0,0,0,0,0,0,0,0,-1,1784,1681,0,0
567,-657,0,0,0,0,0,0,0,0,0,-1,1791,1681,0,0
574,-657,0,0,0,0,0,0,0,0,0,-1,1798,1681,0,0
581,-657,0,0,0,0,0,0,0,0,0,-1,1805,1681,0,0
588,-657,0,0,0,0,0,0,0,0,0,-1,1812,1681,0,0
595,-657,0,0,0,0,0,0,0,0,0,-1,1819,1681,0,0
602,-657,0,0,0,0,0,0,0,0,0,-1,1826,1681,0,0
609,-657,0,0,0,0,0,0,0,0,0,-1,1833,1681,0,0
616,-657,0,0,0,0,0,0,0,0,0,-1,1840,1681,0,0
623,-657,0,0,0,0,0,0,0,0,0,-1,1847,1681,0,0
630,-657,0,0,0,0,0,0,0,0,0,-1,1854,1681,0,0
637,-657,0,0,0,0,0,0,0,0,0,-1,1861,1681,0,0
644,-657,0,0,0,0,0,0,0,0,0,-1,1868,1681,0,0
651,-657,0,0,0,0,0,0,0,0,0,-1,1875,1681,0,0
658,-657,0,0,0,0,0,0,0,0,0,-1,1882,1681,0,0
665,-657,0,0,0,0,0,0,0,0,0,-1,1889,1681,0,0
672,-657,0,0,0,0,0,0,0,0,0,-1,1896,1681,0,0
679,-657,0,0,0,0,0,0,0,0,0,-1,1903,1681,0,0
686,-657,0,0,0,0,0,0,0,0,0,-1,1910,1681,0,0
693,-657,0,0,0,0,0,0,0,0,0,-1,1917,1681,0,0
700,-657,0,0,0,0,0,0,0,0,0,-1,1924,1681,0,0
707,-657,0,0,0,0,0,0,0,0,0,-1,1931,1681,0,0
714,-657,0,0,0,0,0,0,0,0,0,-1,1938,1681,0,0
721,-657,0,0,0,0,0,0,0,0,0,-1,1945,1681,0,0
728,-657,0,0,0,0,0,0,0,0,0,-1,1952,1681,0,0
735,-657,0,0,0,0,0,0,0,0,0,-1,1959,1681,0,0
742,-657,0,0,0,0,0,0,0,0,0,-1,1966,1681,0,0
749,-657,0,0,0,0,0,0,0,0,0,-1,1973,1681,0,0
756,-657,0,0,0,0,0,0,0,0,0,-1,1980,1681,0,0
763,-657,0,0,0,0,0,0,0,0,0,-1,1987,1681,0,0
770,-657,0,0,0,0,0,0,0,0,0,-1,1994,1681,0,0
777,-657,0,0,0,0,0,0,0,0,0,-1,2001,1681,0,0
784,-657,0,0,0,0,0,0,0,0,0,-1,2008,1681,0,0
791,-657,0,0,0,0,0,0,0,0,0,-1,2015,1681,0,0
798,-657,0,0,0,0,0,0,0,0,0,-1,2022,1681,0,0
805,-657,0,0,0,0,0,0,0,0,0,-1,2029,1681,0,0
812,-657,0,0,0,0,0,0,0,0,0,-1,2036,1681,0,0
-700,-664,0,0,0,0,0,0,0,0,0,-1,524,1688,0,0
-693,-664,0,0,0,0,0,0,0,0,0,-1,531,1688,0,0
-686,-664,0,0,0,0,0,0,0,0,0,-1,538,1688,0,0
-679,-664,0,0,0,0,0,0,0,0,0,-1,545,1688,0,0
-672,-664,0,0,0,0,0,0,0,0,0,-1,552,1688,0,0
-665,-664,0,0,0,0,0,0,0,0,0,-1,559,1688,0,0
-658,-664,0,0,0,0,0,0,0,0,0,-1,566,1688,0,0
-651,-664,0,0,0,0,0,0,0,0,0,-1,573,1688,0,0
-644,-664,0,0,0,0,0,0,0,0,0,-1,580,1688,0,0
-637,-664,0,0,0,0,0,0,0,0,0,-1,587,1688,0,0
-630,-664,0,0,0,0,0,0,0,0,0,-1,594,1688,0,0
-623,-664,0,0,0,0,0,0,0,0,0,-1,601,1688,0,0
-616,-664,0,0,0,0,0,0,0,0,0,-1,608,1688,0,0
-609,-664,0,0,0,0,0,0,0,0,0,-1,615,1688,0,0
-602,-664,0,0,0,0,0,0,0,0,0,-1,622,1688,0,0
-595,-664,0,0,0,0,0,0,0,0,0,-1,629,1688,0,0
-588,-664,0,0,0,0,0,0,0,0,0,-1,636,1688,0,0
-581,-664,0,0,0,0,0,0,0,0,0,-1,643,1688,0,0
-574,-664,0,0,0,0,0,0,0,0,0,-1,650,1688,0,0
-567,-664,0,0,0,0,0,0,0,0,0,-1,657,1688,0,0
-560,-664,0,0,0,0,0,0,0,0,0,-1,664,1688,0,0
-553,-664,0,0,0,0,0,0,0,0,0,-1,671,1688,0,0
-546,-664,0,0,0,0,0,0,0,0,0,-1,678,1688,0,0
-539,-664,0,0,0,0,0,0,0,0,0,-1,685,1688,0,0
-532,-664,0,0,0,0,0,0,0,0,0,-1,692,1688,0,0
-525,-664,0,0,0,0,0,0,0,0,0,-1,699,1688,0,0
-518,-664,0,0,0,0,0,0,0,0,0,-1,706,1688,0,0
-511,-664,0,0,0,0,0,0,0,0,0,-1,713,1688,0,0
-504,-664,0,0,0,0,0,0,0,0,0,-1,720,1688,0,0
-497,-664,0,0,0,0,0,0,0,0,0,-1,727,1688,0,0
-490,-664,0,0,0,0,0,0,0,0,0,-1,734,1688,0,0
-483,-664,0,0,0,0,0,0,0,0,0,-1,741,1688,0,0
-476,-664,0,0,0,0,0,0,0,0,0,-1,748,1688,0,0
-469,-664,0,0,0,0,0,0,0,0,0,-1,755,1688,0,0
-462,-664,0,0,0,0,0,0,0,0,0,-1,762,1688,0,0
-455,-664,0,0,0,0,0,0,0,0,0,-1,769,1688,0,0
-448,-664,0,0,0,0,0,0,0,0,0,-1,776,1688,0,0
-441,-664,0,0,0,0,0,0,0,0,0,-1,783,1688,0,0
-434,-664,0,0,0,0,0,0,0,0,0,-1,790,1688,0,0
-427,-664,0,0,0,0,0,0,0,0,0,-1,797,1688,0,0
-420,-664,0,0,0,0,0,0,0,0,0,-1,804,1688,0,0
-413,-664,0,0,0,0,0,0,0,0,0,-1,811,1688,0,0
-406,-664,0,0,0,0,0,0,0,0,0,-1,818,1688,0,0
-399,-664,0,0,0,0,0,0,0,0,0,-1,825,1688,0,0
-392,-664,0,0,0,0,0,0,0,0,0,-1,832,1688,0,0
-385,-664,0,0,0,0,0,0,0,0,0,-1,839,1688,0,0
-378,-664,0,0,0,0,0,0,0,0,0,-1,846,1688,0,0
-371,-664,-1.61676,5.92737,0,0,0,0,0,0,0,-1,853,1688,-1.61675,-5.92735
-364,-664,-3.901,5.87024,0,0,0,0,0,0,0,-1,860,1688,-3.90097,-5.87027
-357,-664,-4.81012,4.53479,0,0,0,0,0,0,0,-1,867,1688,-4.81012,-4.5348
-350,-664,3.26105,36.0225,0,0,0,0,0,0,0,-1,874,1688,3.26104,-36.0224
-343,-664,5.56708,45.6833,0,0,0,0,0,0,0,-1,881,1688,5.56709,-45.6833
-336,-664,5.21466,44.8312,0,0,0,0,0,0,0,-1,888,1688,5.21463,-44.8312
-329,-664,5.05334,43.625,0,0,0,0,0,0,0,-1,895,1688,5.05332,-43.625
-322,-664,5.55164,46.1628,0,0,0,0,0,0,0,-1,902,1688,5.55164,-46.1629
-315,-664,5.60205,46.8496,0,0,0,0,0,0,0,-1,909,1688,5.60208,-46.8496
-308,-664,5.68494,47.8917,0,0,0,0,0,0,0,-1,916,1688,5.68495,-47.8917
-301,-664,5.64777,48.5654,-0.00772065,0.00110965,0.00759794,0.00548212,-0.0120931,1.0486,0.0103836,0.048048,923,1688,5.64778,-48.5654
-294,-664,5.62238,49.1628,-0.00716611,0.000761931,0.00657757,0.00447762,-0.0108818,1.05658,0.00912109,0.0402471,930,1688,5.6224,-49.1629
-287,-664,5.57819,49.9613,-0.00650256,0.000609018,0.00553601,0.00363282,-0.00952636,1.07087,0.00784734,0.0265258,937,1688,5.57818,-49.9613
-280,-664,5.46729,50.7012,-0.00602745,0.000357193,0.00447241,0.00265972,-0.00832998,1.09536,0.00662044,0.0186206,944,1688,5.46728,-50.7011
-273,-664,5.34656,51.4319,-0.00532619,0.00021654,0.00357216,0.00196633,-0.00707597,1.11531,0.00549139,0.0159399,951,1688,5.34657,-51.4319
-266,-664,5.30884,52.0956,-0.00446975,0.000418665,0.00287575,0.00174859,-0.00579968,1.13763,0.00456241,0.0219775,958,1688,5.30883,-52.0955
-259,-664,5.28571,52.7745,-0.00366403,0.00052225,0.00237255,0.001593,-0.00473478,1.14685,0.00380049,0.0208079,965,1688,5.28571,-52.7745
-252,-664,5.27887,53.478,-0.00281486,0.000596848,0.00200077,0.00152026,-0.00373827,1.1384,0.00312474,0.0175821,972,1688,5.27886,-53.478
-245,-664,5.22888,54.173,-0.00204263,0.000670876,0.00172078,0.00150543,-0.00287719,1.11923,0.00257129,0.021267,979,1688,5.22888,-54.173
-238,-664,5.23816,54.8602,-0.00115384,0.000675686,0.00146504,0.0014881,-0.00196625,1.06448,0.00200073,0.0239974,986,1688,5.23813,-54.8602
-231,-664,5.22266,55.5045,-0.00032004,0.000697674,0.00119434,0.00148704,-0.0011094,0.986781,0.00150433,0.0197323,993,1688,5.22266,-55.5045
-224,-664,5.16473,56.1787,0.000323544,0.000604067,0.00104516,0.00151833,-0.000590719,0.8521,0.00125631,0.0138349,1000,1688,5.1647,-56.1787
-217,-664,5.11847,56.8425,0.000852351,0.000436936,0.000843916,0.00151374,-0.000224458,0.664735,0.0010917,0.0107557,1007,1688,5.11844,-56.8425
-210,-664,5.08618,57.4407,0.00138196,0.000199192,0.00061552,0.00164416,-6.30035e-05,0.402696,0.0011177,0.0118399,1014,1688,5.08621,-57.4407
-203,-664,5.05212,58.0466,0.00205106,-7.07616e-05,0.000343435,0.00210527,-0.000124965,0.156535,0.00144697,0.0141187,1021,1688,5.05209,-58.0466
-196,-664,5.03577,58.6483,0.00290336,-0.000397034,0.00022292,0.00291835,-0.000412022,0.067137,0.00209645,0.0148483,1028,1688,5.03582,-58.6483
-189,-664,5.02881,59.2483,0.00351747,-0.00049585,-9.54027e-06,0.00351749,-0.000495873,-0.00237713,0.00252656,0.01007,1035,1688,5.02882,-59.2483
-182,-664,5.05518,59.8545,0.00414896,-0.000184429,-0.00023274,0.00416143,-0.000196894,-0.0535034,0.00284219,0.00937016,1042,1688,5.05516,-59.8545
-175,-664,5.06494,60.4036,0.00502465,0.000254313,-0.000239234,0.00503662,0.000242345,-0.0499832,0.00327995,0.0137261,1049,1688,5.06496,-60.4036
-168,-664,5.05273,60.9512,0.00584373,0.000831861,-0.000279069,0.00585922,0.000816369,-0.0554532,0.00366446,0.0152395,1056,1688,5.05268,-60.9511
-161,-664,5.0293,61.5079,0.00678796,0.0017147,-0.000150404,0.00679241,0.00171025,-0.0296118,0.0040795,0.0122198,1063,1688,5.02929,-61.5079
-154,-664,5.10596,62.0367,0.00779843,0.0029306,5.89727e-05,0.00779914,0.00292989,0.0121124,0.004549,0.0123798,1070,1688,5.10596,-62.0367
-147,-664,5.10608,62.5621,0.00888918,0.00431451,0.000403209,0.00892444,0.00427924,0.0872432,0.00515397,0.0162199,1077,1688,5.10612,-62.5621
-140,-664,5.13989,63.1321,0.00980671,0.00585791,0.000603477,0.00989688,0.00576775,0.148316,0.00574001,0.0183615,1084,1688,5.13986,-63.1321
-133,-664,5.10083,63.6979,0.0106719,0.00793999,0.000928704,0.0109577,0.00765418,0.298554,0.00649052,0.0218705,1091,1688,5.10087,-63.6978
-126,-664,5.28003,64.3903,0.0114087,0.00938385,0.00113256,0.0119154,0.00887715,0.420679,0.00714936,0.0466827,1098,1688,5.28003,-64.3903
-119,-664,5.52051,65.1426,0,0,0,0,0,0,0,-1,1105,1688,5.52055,-65.1425
-112,-664,6.3916,51.1235,0,0,0,0,0,0,0,-1,1112,1688,6.39161,-51.1236
-105,-664,6.87256,43.2527,0,0,0,0,0,0,0,-1,1119,1688,6.87258,-43.2527
-98,-664,7.69324,41.3359,0,0,0,0,0,0,0,-1,1126,1688,7.69321,-41.3359
-91,-664,5.41931,25.6302,0,0,0,0,0,0,0,-1,1133,1688,5.41932,-25.6302
-84,-664,3.48389,16.6913,0,0,0,0,0,0,0,-1,1140,1688,3.4839,-16.6913
-77,-664,4.52014,11.2122,0,0,0,0,0,0,0,-1,1147,1688,4.5202,-11.2122
-70,-664,4.20374,8.24524,0,0,0,0,0,0,0,-1,1154,1688,4.20379,-8.24519
-63,-664,-4.677,2.40503,0,0,0,0,0,0,0,-1,1161,1688,-4.67702,-2.40498
-56,-664,-4.66504,3.32727,0,0,0,0,0,0,0,-1,1168,1688,-4.6651,-3.32724
-49,-664,-2.54297,3.31848,0,0,0,0,0,0,0,-1,1175,1688,-2.54297,-3.31852
-42,-664,-0.359253,4.38684,0,0,0,0,0,0,0,-1,1182,1688,-0.359261,-4.38685
-35,-664,-0.705566,3.55017,0,0,0,0,0,0,0,-1,1189,1688,-0.705567,-3.55023
-28,-664,-1.54236,10.2538,0,0,0,0,0,0,0,-1,1196,1688,-1.54236,-10.2538
-21,-664,16.6357,98.5044,0,0,0,0,0,0,0,-1,1203,1688,16.6358,-98.5044
-14,-664,16.5422,96.474,0,0,0,0,0,0,0,-1,1210,1688,16.5423,-96.474
-7,-664,16.4613,94.3999,0.0109933,-0.0434209,-0.0655535,0.0547615,-0.0871891,-0.588698,0.082665,0.0474225,1217,1688,16.4614,-94.3999
0,-664,16.3668,92.4673,0.0128466,-0.0437668,-0.0693317,0.0594275,-0.0903477,-0.591586,0.0870848,0.0458929,1224,1688,16.3669,-92.4673
7,-664,16.1863,90.6038,0.0134454,-0.0402887,-0.0747723,0.066031,-0.0928743,-0.612922,0.0921794,0.0471051,1231,1688,16.1862,-90.6038
14,-664,15.7831,89.0331,0.0117683,-0.0338655,-0.0808805,0.0729886,-0.0950859,-0.647918,0.097317,0.0450072,1238,1688,15.7831,-89.0331
21,-664,15.891,86.9799,0.00786544,-0.0254104,-0.0867775,0.0795856,-0.0971306,-0.690682,0.102195,0.0460149,1245,1688,15.8909,-86.9798
28,-664,15.2189,85.7628,0.00137634,-0.0164092,-0.0915668,0.0844812,-0.0995141,-0.736991,0.106348,0.0458999,1252,1688,15.2188,-85.7629
35,-664,16.4613,83.229,-0.0070356,-0.00753972,-0.0948272,0.0875399,-0.102115,-0.784069,0.109605,0.0452707,1259,1688,16.4613,-83.229
42,-664,16.5444,81.8726,-0.0171217,0.00036833,-0.0962798,0.0882995,-0.105053,-0.830688,0.111772,0.0461259,1266,1688,16.5444,-81.8726
49,-664,15.9038,76.9736,-0.0278349,0.00619287,-0.095763,0.0864417,-0.108084,-0.873314,0.112541,0.0448367,1273,1688,15.9038,-76.9736
56,-664,14.8285,75.6875,-0.0388864,0.0102255,-0.0937744,0.0826058,-0.111267,-0.913454,0.112339,0.0463082,1280,1688,14.8286,-75.6875
63,-664,14.027,74.142,0,0,0,0,0,0,0,-1,1287,1688,14.027,-74.142
70,-664,13.048,73.1149,-0.0517724,0.0124846,-0.0899166,0.0758403,-0.115128,-0.956986,0.111031,0.0493355,1294,1688,13.048,-73.1148
77,-664,12.0883,72.1163,-0.0529504,0.0125387,-0.087432,0.0731566,-0.113568,-0.964571,0.108644,0.0432229,1301,1688,12.0883,-72.1164
84,-664,11.5801,71.3341,0,0,0,0,0,0,0,-1,1308,1688,11.5801,-71.3341
91,-664,10.6871,70.5675,0,0,0,0,0,0,0,-1,1315,1688,10.6871,-70.5675
98,-664,9.71985,69.7277,0,0,0,0,0,0,0,-1,1322,1688,9.71988,-69.7277
105,-664,8.74329,68.8195,0,0,0,0,0,0,0,-1,1329,1688,8.7433,-68.8195
112,-664,6.96777,66.7007,0,0,0,0,0,0,0,-1,1336,1688,6.96781,-66.7006
119,-664,6.88513,65.0574,0,0,0,0,0,0,0,-1,1343,1688,6.8851,-65.0574
126,-664,7.54358,63.1237,0,0,0,0,0,0,0,-1,1350,1688,7.54356,-63.1237
133,-664,8.17139,60.9946,0.057768,0.00995417,-0.129296,0.165349,-0.0976269,-0.693981,0.153498,0.0482156,1357,1688,8.17135,-60.9947
140,-664,8.49707,58.9603,0.0723209,0.0146082,-0.136404,0.182888,-0.0959587,-0.68116,0.163579,0.0485137,1364,1688,8.49708,-58.9604
147,-664,9.06165,56.8228,0,0,0,0,0,0,0,-1,1371,1688,9.06164,-56.8227
154,-664,20.1138,63.4268,0,0,0,0,0,0,0,-1,1378,1688,20.1137,-63.4268
161,-664,4.60132,1.56238,0,0,0,0,0,0,0,-1,1385,1688,4.60134,-1.56233
168,-664,5.172,1.25488,0,0,0,0,0,0,0,-1,1392,1688,5.17203,-1.25484
175,-664,5.58313,1.16467,0,0,0,0,0,0,0,-1,1399,1688,5.58317,-1.16466
182,-664,5.74268,1.41113,0,0,0,0,0,0,0,-1,1406,1688,5.74263,-1.41115
189,-664,5.87744,1.87061,0,0,0,0,0,0,0,-1,1413,1688,5.87745,-1.87065
196,-664,6.7594,5.97473,0,0,0,0,0,0,0,-1,1420,1688,6.75943,-5.97478
203,-664,5.38452,5.22034,0,0,0,0,0,0,0,-1,1427,1688,5.38453,-5.2203
210,-664,5.25549,6.45715,0,0,0,0,0,0,0,-1,1434,1688,5.25549,-6.45721
217,-664,5.72009,6.73975,0,0,0,0,0,0,0,-1,1441,1688,5.72014,-6.73972
224,-664,5.05725,7.42908,0,0,0,0,0,0,0,-1,1448,1688,5.05723,-7.42912
231,-664,5.13318,7.60864,0,0,0,0,0,0,0,-1,1455,1688,5.13313,-7.60862
238,-664,4.23193,6.45471,0,0,0,0,0,0,0,-1,1462,1688,4.23197,-6.45476
245,-664,4.42004,6.80896,0,0,0,0,0,0,0,-1,1469,1688,4.4201,-6.80901
252,-664,3.67346,6.85461,0,0,0,0,0,0,0,-1,1476,1688,3.6734,-6.85462
259,-664,4.55823,11.7435,0,0,0,0,0,0,0,-1,1483,1688,4.55826,-11.7435
266,-664,12.7206,62.4799,0,0,0,0,0,0,0,-1,1490,1688,12.7206,-62.4798
273,-664,12.9009,62.0881,0,0,0,0,0,0,0,-1,1497,1688,12.9009,-62.0881
280,-664,12.8522,61.603,0.0042323,0.00291072,0.00108448,0.00484144,0.00230157,0.511777,0.00279634,0.0447513,1504,1688,12.8522,-61.603
287,-664,12.8199,61.0188,0.00371252,0.0030138,0.0010295,0.00445033,0.00227599,0.621821,0.00256962,0.0391793,1511,1688,12.8199,-61.0188
294,-664,13.0155,60.526,0.00336558,0.00289555,0.000912124,0.00407248,0.00218865,0.659312,0.00235344,0.0255055,1518,1688,13.0156,-60.526
301,-664,13.085,59.958,0.00299955,0.00292565,0.000736013,0.00369954,0.00222566,0.76032,0.00215058,0.0156365,1525,1688,13.0849,-59.958
308,-664,13.0994,59.3516,0.00265231,0.00295679,0.000428134,0.00325895,0.00235015,0.95622,0.00194193,0.0129561,1532,1688,13.0994,-59.3516
315,-664,13.0979,58.7568,0.00238427,0.00292678,5.44582e-05,0.0029322,0.00237886,1.47173,0.00179895,0.0130017,1539,1688,13.0979,-58.7569
322,-664,13.1188,58.1895,0.00218317,0.00313823,-0.000440319,0.00331025,0.00201115,-1.19836,0.00192586,0.0162288,1546,1688,13.1187,-58.1894
329,-664,13.1,57.5918,0.00193695,0.00340377,-0.000936161,0.00385959,0.00148112,-1.11767,0.00224832,0.0190466,1553,1688,13.1,-57.5917
336,-664,13.0687,56.974,0.00168228,0.0037017,-0.00133269,0.00436399,0.00101999,-1.10959,0.00263596,0.0167719,1560,1688,13.0687,-56.974
343,-664,13.0447,56.3762,0.00136017,0.0040772,-0.00171854,0.00490933,0.000528042,-1.11986,0.00311184,0.0131644,1567,1688,13.0447,-56.3762
350,-664,13.0267,55.7283,0.00105154,0.00442508,-0.00219782,0.0055088,-3.21802e-05,-1.11269,0.0036833,0.0150028,1574,1688,13.0267,-55.7282
357,-664,12.999,55.0643,0.000828054,0.0046289,-0.00258714,0.0059386,-0.000481644,-1.10217,0.00412899,0.0138792,1581,1688,12.999,-55.0643
364,-664,12.995,54.4099,0.000499472,0.00483823,-0.00278911,0.00620231,-0.000864611,-1.11593,0.00445116,0.0109113,1588,1688,12.9951,-54.4099
371,-664,12.9854,53.7754,0.00022066,0.00502071,-0.00298489,0.00645079,-0.00120942,-1.124,0.00475521,0.0135871,1595,1688,12.9853,-53.7754
378,-664,12.9316,53.1169,6.04211e-05,0.00515599,-0.00312846,0.00664286,-0.00142645,-1.12713,0.00497273,0.0136557,1602,1688,12.9317,-53.1169
385,-664,12.8892,52.4397,8.80437e-05,0.00525267,-0.00337414,0.00691926,-0.00157855,-1.11202,0.00521921,0.0144614,1609,1688,12.8892,-52.4396
392,-664,12.8223,51.7867,0.000197007,0.0052345,-0.00367766,0.00717325,-0.00174174,-1.08565,0.00545622,0.0180155,1616,1688,12.8223,-51.7867
399,-664,12.8036,51.0927,0.000435778,0.00513796,-0.0040766,0.00749286,-0.00191912,-1.04696,0.00574285,0.0155101,1623,1688,12.8036,-51.0926
406,-664,12.7827,50.3818,0.000779259,0.00511684,-0.00442423,0.00787526,-0.00197917,-1.01329,0.00601935,0.0153195,1630,1688,12.7827,-50.3818
413,-664,12.766,49.6477,0.00123643,0.00517682,-0.00504346,0.00862125,-0.00220799,-0.971605,0.00660763,0.0187452,1637,1688,12.766,-49.6477
420,-664,12.7964,48.8853,0.00184398,0.00523506,-0.00570961,0.00949557,-0.00241652,-0.929732,0.007271,0.0459932,1644,1688,12.7964,-48.8852
427,-664,12.9016,48.0481,0,0,0,0,0,0,0,-1,1651,1688,12.9016,-48.0481
434,-664,12.7772,46.9146,0,0,0,0,0,0,0,-1,1658,1688,12.7773,-46.9146
441,-664,12.7198,45.0563,0,0,0,0,0,0,0,-1,1665,1688,12.7198,-45.0563
448,-664,12.5538,38.7155,0,0,0,0,0,0,0,-1,1672,1688,12.5539,-38.7154
455,-664,12.1709,39.3733,0,0,0,0,0,0,0,-1,1679,1688,12.1708,-39.3733
462,-664,4.3147,4.25439,0,0,0,0,0,0,0,-1,1686,1688,4.31467,-4.25435
469,-664,6.05469,7.49341,0,0,0,0,0,0,0,-1,1693,1688,6.05474,-7.49339
476,-664,10.2377,22.7128,0,0,0,0,0,0,0,-1,1700,1688,10.2377,-22.7128
483,-664,8.41895,10.9768,0,0,0,0,0,0,0,-1,1707,1688,8.41897,-10.9769
490,-664,3.90771,13.2842,0,0,0,0,0,0,0,-1,1714,1688,3.90776,-13.2841
497,-664,0,0,0,0,0,0,0,0,0,-1,1721,1688,0,0
504,-664,0,0,0,0,0,0,0,0,0,-1,1728,1688,0,0
511,-664,0,0,0,0,0,0,0,0,0,-1,1735,1688,0,0
518,-664,0,0,0,0,0,0,0,0,0,-1,1742,1688,0,0
525,-664,0,0,0,0,0,0,0,0,0,-1,1749,1688,0,0
532,-664,0,0,0,0,0,0,0,0,0,-1,1756,1688,0,0
539,-664,0,0,0,0,0,0,0,0,0,-1,1763,1688,0,0
546,-664,0,0,0,0,0,0,0,0,0,-1,1770,1688,0,0
553,-664,0,0,0,0,0,0,0,0,0,-1,1777,1688,0,0
560,-664,0,0,0,0,0,0,0,0,0,-1,1784,1688,0,0
567,-664,0,0,0,0,0,0,0,0,0,-1,1791,1688,0,0
574,-664,0,0,0,0,0,0,0,0,0,-1,1798,1688,0,0
581,-664,0,0,0,0,0,0,0,0,0,-1,1805,1688,0,0
588,-664,0,0,0,0,0,0,0,0,0,-1,1812,1688,0,0
595,-664,0,0,0,0,0,0,0,0,0,-1,1819,1688,0,0
602,-664,0,0,0,0,0,0,0,0,0,-1,1826,1688,0,0
609,-664,0,0,0,0,0,0,0,0,0,-1,1833,1688,0,0
616,-664,0,0,0,0,0,0,0,0,0,-1,1840,1688,0,0
623,-664,0,0,0,0,0,0,0,0,0,-1,1847,1688,0,0
630,-664,0,0,0,0,0,0,0,0,0,-1,1854,1688,0,0
637,-664,0,0,0,0,0,0,0,0,0,-1,1861,1688,0,0
644,-664,0,0,0,0,0,0,0,0,0,-1,1868,1688,0,0
651,-664,0,0,0,0,0,0,0,0,0,-1,1875,1688,0,0
658,-664,0,0,0,0,0,0,0,0,0,-1,1882,1688,0,0
665,-664,0,0,0,0,0,0,0,0,0,-1,1889,1688,0,0
672,-664,0,0,0,0,0,0,0,0,0,-1,1896,1688,0,0
679,-664,0,0,0,0,0,0,0,0,0,-1,1903,1688,0,0
686,-664,0,0,0,0,0,0,0,0,0,-1,1910,1688,0,0
693,-664,0,0,0,0,0,0,0,0,0,-1,1917,1688,0,0
700,-664,0,0,0,0,0,0,0,0,0,-1,1924,1688,0,0
707,-664,0,0,0,0,0,0,0,0,0,-1,1931,1688,0,0
714,-664,0,0,0,0,0,0,0,0,0,-1,1938,1688,0,0
721,-664,0,0,0,0,0,0,0,0,0,-1,1945,1688,0,0
728,-664,0,0,0,0,0,0,0,0,0,-1,1952,1688,0,0
735,-664,0,0,0,0,0,0,0,0,0,-1,1959,1688,0,0
742,-664,0,0,0,0,0,0,0,0,0,-1,1966,1688,0,0
749,-664,0,0,0,0,0,0,0,0,0,-1,1973,1688,0,0
756,-664,0,0,0,0,0,0,0,0,0,-1,1980,1688,0,0
763,-664,0,0,0,0,0,0,0,0,0,-1,1987,1688,0,0
770,-664,0,0,0,0,0,0,0,0,0,-1,1994,1688,0,0
777,-664,0,0,0,0,0,0,0,0,0,-1,2001,1688,0,0
784,-664,0,0,0,0,0,0,0,0,0,-1,2008,1688,0,0
791,-664,0,0,0,0,0,0,0,0,0,-1,2015,1688,0,0
798,-664,0,0,0,0,0,0,0,0,0,-1,2022,1688,0,0
805,-664,0,0,0,0,0,0,0,0,0,-1,2029,1688,0,0
812,-664,0,0,0,0,0,0,0,0,0,-1,2036,1688,0,0
-700,-671,0,0,0,0,0,0,0,0,0,-1,524,1695,0,0
-693,-671,0,0,0,0,0,0,0,0,0,-1,531,1695,0,0
-686,-671,0,0,0,0,0,0,0,0,0,-1,538,1695,0,0
-679,-671,0,0,0,0,0,0,0,0,0,-1,545,1695,0,0
-672,-671,0,0,0,0,0,0,0,0,0,-1,552,1695,0,0
-665,-671,0,0,0,0,0,0,0,0,0,-1,559,1695,0,0
-658,-671,0,0,0,0,0,0,0,0,0,-1,566,1695,0,0
-651,-671,0,0,0,0,0,0,0,0,0,-1,573,1695,0,0
-644,-671,0,0,0,0,0,0,0,0,0,-1,580,1695,0,0
-637,-671,0,0,0,0,0,0,0,0,0,-1,587,1695,0,0
-630,-671,0,0,0,0,0,0,0,0,0,-1,594,1695,0,0
-623,-671,0,0,0,0,0,0,0,0,0,-1,601,1695,0,0
-616,-671,0,0,0,0,0,0,0,0,0,-1,608,1695,0,0
-609,-671,0,0,0,0,0,0,0,0,0,-1,615,1695,0,0
-602,-671,0,0,0,0,0,0,0,0,0,-1,622,1695,0,0
-595,-671,0,0,0,0,0,0,0,0,0,-1,629,1695,0,0
-588,-671,0,0,0,0,0,0,0,0,0,-1,636,1695,0,0
-581,-671,0,0,0,0,0,0,0,0,0,-1,643,1695,0,0
-574,-671,0,0,0,0,0,0,0,0,0,-1,650,1695,0,0
-567,-671,0,0,0,0,0,0,0,0,0,-1,657,1695,0,0
-560,-671,0,0,0,0,0,0,0,0,0,-1,664,1695,0,0
-553,-671,0,0,0,0,0,0,0,0,0,-1,671,1695,0,0
-546,-671,0,0,0,0,0,0,0,0,0,-1,678,1695,0,0
-539,-671,0,0,0,0,0,0,0,0,0,-1,685,1695,0,0
-532,-671,0,0,0,0,0,0,0,0,0,-1,692,1695,0,0
-525,-671,0,0,0,0,0,0,0,0,0,-1,699,1695,0,0
-518,-671,0,0,0,0,0,0,0,0,0,-1,706,1695,0,0
-511,-671,0,0,0,0,0,0,0,0,0,-1,713,1695,0,0
-504,-671,0,0,0,0,0,0,0,0,0,-1,720,1695,0,0
-497,-671,0,0,0,0,0,0,0,0,0,-1,727,1695,0,0
-490,-671,0,0,0,0,0,0,0,0,0,-1,734,1695,0,0
-483,-671,0,0,0,0,0,0,0,0,0,-1,741,1695,0,0
-476,-671,0,0,0,0,0,0,0,0,0,-1,748,1695,0,0
-469,-671,0,0,0,0,0,0,0,0,0,-1,755,1695,0,0
-462,-671,0,0,0,0,0,0,0,0,0,-1,762,1695,0,0
-455,-671,0,0,0,0,0,0,0,0,0,-1,769,1695,0,0
-448,-671,0,0,0,0,0,0,0,0,0,-1,776,1695,0,0
-441,-671,0,0,0,0,0,0,0,0,0,-1,783,1695,0,0
-434,-671,0,0,0,0,0,0,0,0,0,-1,790,1695,0,0
-427,-671,0,0,0,0,0,0,0,0,0,-1,797,1695,0,0
-420,-671,0,0,0,0,0,0,0,0,0,-1,804,1695,0,0
-413,-671,0,0,0,0,0,0,0,0,0,-1,811,1695,0,0
-406,-671,0,0,0,0,0,0,0,0,0,-1,818,1695,0,0
-399,-671,0,0,0,0,0,0,0,0,0,-1,825,1695,0,0
-392,-671,0,0,0,0,0,0,0,0,0,-1,832,1695,0,0
-385,-671,0,0,0,0,0,0,0,0,0,-1,839,1695,0,0
-378,-671,0,0,0,0,0,0,0,0,0,-1,846,1695,0,0
-371,-671,0,0,0,0,0,0,0,0,0,-1,853,1695,0,0
-364,-671,-4.18738,7.51416,0,0,0,0,0,0,0,-1,860,1695,-4.18739,-7.51419
-357,-671,-5.02393,6.07129,0,0,0,0,0,0,0,-1,867,1695,-5.0239,-6.07135
-350,-671,8.03021,46.2139,0,0,0,0,0,0,0,-1,874,1695,8.03024,-46.2139
-343,-671,7.2002,45.9105,0,0,0,0,0,0,0,-1,881,1695,7.20021,-45.9105
-336,-671,6.3653,45.8201,0,0,0,0,0,0,0,-1,888,1695,6.36532,-45.82
-329,-671,5.6283,45.7198,0,0,0,0,0,0,0,-1,895,1695,5.6283,-45.7199
-322,-671,5.80243,44.7689,0,0,0,0,0,0,0,-1,902,1695,5.80243,-44.7689
-315,-671,5.13806,46.3394,0,0,0,0,0,0,0,-1,909,1695,5.13804,-46.3394
-308,-671,6.29382,48.7574,0,0,0,0,0,0,0,-1,916,1695,6.29382,-48.7574
-301,-671,6.72839,48.6101,0,0,0,0,0,0,0,-1,923,1695,6.72839,-48.6101
-294,-671,6.60223,49.234,-0.0102274,0.000709045,0.00873386,0.00554529,-0.0150636,1.06509,0.0123143,0.0487993,930,1695,6.60223,-49.234
-287,-671,6.3736,49.9897,-0.00920789,0.000696894,0.00734443,0.00460266,-0.0131136,1.08203,0.0106147,0.0446817,937,1695,6.37362,-49.9897
-280,-671,6.13031,50.7404,-0.00860203,0.000382099,0.00582204,0.00324359,-0.0114635,1.11398,0.00892228,0.0374439,944,1695,6.13034,-50.7404
-273,-671,5.99713,51.4329,-0.00775543,0.000287969,0.00455683,0.002344,-0.00981146,1.14695,0.00744632,0.0337709,951,1695,5.99716,-51.4329
-266,-671,6.05139,52.1526,-0.00666054,0.000541992,0.00366243,0.00207712,-0.00819566,1.17389,0.00627186,0.022917,958,1695,6.05137,-52.1526
-259,-671,5.96985,52.8091,-0.00565364,0.000651424,0.00299944,0.00185034,-0.00685256,1.19054,0.00529406,0.0231056,965,1695,5.96986,-52.8091
-252,-671,5.92224,53.5156,-0.00456298,0.000611801,0.00255583,0.00166129,-0.00561247,1.18117,0.00440119,0.0185411,972,1695,5.92225,-53.5156
-245,-671,5.87891,54.199,-0.00366633,0.000648002,0.00219616,0.00156923,-0.00458755,1.17362,0.00369426,0.0204071,979,1695,5.8789,-54.199
-238,-671,5.8891,54.8773,-0.00262931,0.000718195,0.00188557,0.00156572,-0.00347684,1.14838,0.0029802,0.0203828,986,1695,5.8891,-54.8774
-231,-671,5.8609,55.552,-0.00166732,0.000758514,0.00157649,0.00153469,-0.0024435,1.11329,0.0023167,0.0153073,993,1695,5.86089,-55.552
-224,-671,5.79016,56.1804,-0.000934348,0.000683954,0.00145594,0.00154048,-0.00179088,1.03902,0.00192517,0.0118821,1000,1695,5.79017,-56.1805
-217,-671,5.73755,56.8143,-0.000353751,0.000554864,0.00128457,0.00146309,-0.00126198,0.955367,0.00157475,0.0122579,1007,1695,5.73757,-56.8144
-210,-671,5.70288,57.4683,0.000209817,0.000404712,0.00112729,0.00143876,-0.000824228,0.828513,0.00132249,0.0120413,1014,1695,5.70291,-57.4683
-203,-671,5.66858,58.0746,0.000872334,0.000220627,0.000936084,0.00153766,-0.000444698,0.617906,0.0012011,0.0194072,1021,1695,5.66862,-58.0746
-196,-671,5.64819,58.6692,0.00164937,-9.2976e-06,0.00080454,0.0019755,-0.000335419,0.385112,0.00144187,0.0168231,1028,1695,5.64824,-58.6692
-189,-671,5.64392,59.3219,0.00223413,-6.5754e-05,0.000572981,0.00236897,-0.000200598,0.231131,0.00165025,0.0130911,1035,1695,5.64397,-59.3219
-182,-671,5.63586,59.8982,0.00283931,0.000189547,0.000354194,0.00288584,0.000143019,0.130615,0.00187804,0.0104327,1042,1695,5.63583,-59.8982
-175,-671,5.63281,60.4491,0.00365433,0.00055859,0.000300521,0.00368324,0.000529686,0.0958826,0.00229936,0.0133767,1049,1695,5.63279,-60.4491
-168,-671,5.61401,60.976,0.00435114,0.000960261,0.000175241,0.00436017,0.000951229,0.0514973,0.0026473,0.0144831,1056,1695,5.61406,-60.976
-161,-671,5.6051,61.5303,0.00507899,0.00158556,0.000142847,0.00508482,0.00157973,0.0407994,0.00300505,0.0103333,1063,1695,5.60514,-61.5302
-154,-671,5.62744,62.0808,0.00589539,0.00246129,0.000185684,0.00590541,0.00245128,0.0538611,0.00342584,0.00970544,1070,1695,5.62744,-62.0808
-147,-671,5.63684,62.6205,0.00680425,0.00343768,0.000326849,0.00683569,0.00340624,0.0958932,0.0039466,0.0112784,1077,1695,5.63688,-62.6205
-140,-671,5.68103,63.1128,0.00761624,0.00441743,0.000365365,0.00765744,0.00437623,0.112293,0.00443607,0.0140368,1084,1695,5.68103,-63.1128
-133,-671,5.69153,63.5898,0.00836925,0.00569175,0.000476163,0.00845141,0.0056096,0.170862,0.00496588,0.0207694,1091,1695,5.69158,-63.5898
-126,-671,5.76538,64.257,0.0090314,0.00653165,0.000488273,0.00912338,0.00643966,0.186214,0.00541413,0.0418575,1098,1695,5.7654,-64.257
-119,-671,5.87744,65.1034,0,0,0,0,0,0,0,-1,1105,1695,5.8774,-65.1034
-112,-671,6.58704,44.6255,0,0,0,0,0,0,0,-1,1112,1695,6.58701,-44.6255
-105,-671,7.33252,41.3418,0,0,0,0,0,0,0,-1,1119,1695,7.33247,-41.3418
-98,-671,6.34534,45.6299,0,0,0,0,0,0,0,-1,1126,1695,6.34533,-45.6299
-91,-671,6.40063,38.2443,0,0,0,0,0,0,0,-1,1133,1695,6.40059,-38.2442
-84,-671,5.4209,26.2415,0,0,0,0,0,0,0,-1,1140,1695,5.42096,-26.2414
-77,-671,4.31763,16.489,0,0,0,0,0,0,0,-1,1147,1695,4.31757,-16.489
-70,-671,3.06067,10.7737,0,0,0,0,0,0,0,-1,1154,1695,3.0607,-10.7737
-63,-671,2.94592,6.90198,0,0,0,0,0,0,0,-1,1161,1695,2.94594,-6.90198
-56,-671,-3.07678,2.87976,0,0,0,0,0,0,0,-1,1168,1695,-3.07675,-2.87979
-49,-671,-1.05957,4.76917,0,0,0,0,0,0,0,-1,1175,1695,-1.05958,-4.76921
-42,-671,0.539307,3.7865,0,0,0,0,0,0,0,-1,1182,1695,0.539266,-3.78648
-35,-671,-0.272461,0.347534,0,0,0,0,0,0,0,-1,1189,1695,-0.272434,-0.347569
-28,-671,-10.4878,17.2009,0,0,0,0,0,0,0,-1,1196,1695,-10.4878,-17.2009
-21,-671,23.0973,75.3171,0,0,0,0,0,0,0,-1,1203,1695,23.0972,-75.3171
-14,-671,6.94543,68.9253,0,0,0,0,0,0,0,-1,1210,1695,6.94544,-68.9253
-7,-671,16.2905,94.361,0.0119866,-0.0355028,-0.0602586,0.05301,-0.0765263,-0.597716,0.0751975,0.046313,1217,1695,16.2906,-94.361
0,-671,16.1702,92.6973,0.0131914,-0.0352759,-0.0632856,0.0567246,-0.078809,-0.602548,0.0785959,0.0454353,1224,1695,16.1701,-92.6973
7,-671,15.8242,91.3728,0.013302,-0.0322144,-0.0674499,0.0617297,-0.0806421,-0.622691,0.0824398,0.0457053,1231,1695,15.8243,-91.3728
14,-671,15.7639,89.5769,0.0122113,-0.0270058,-0.072203,0.0674211,-0.0822155,-0.652808,0.0865334,0.0440338,1238,1695,15.764,-89.5769
21,-671,15.7762,87.75,0.00897197,-0.0200523,-0.0767316,0.0725517,-0.0836321,-0.691938,0.0902484,0.0469262,1245,1695,15.7762,-87.75
28,-671,15.8949,85.7391,0.00343795,-0.01258,-0.0804403,0.0762671,-0.0854091,-0.73578,0.0933935,0.0464398,1252,1695,15.8949,-85.7391
35,-671,15.9304,83.8425,-0.00381251,-0.00509322,-0.0829921,0.0785417,-0.0874474,-0.78154,0.0958799,0.0472966,1259,1695,15.9304,-83.8425
42,-671,16.5608,77.5271,-0.0127059,0.00164665,-0.0840618,0.0788379,-0.0898972,-0.827979,0.097489,0.0474165,1266,1695,16.5607,-77.5271
49,-671,15.7124,76.6838,-0.0223502,0.00661831,-0.0834702,0.0768517,-0.0925835,-0.871306,0.0979639,0.0436245,1273,1695,15.7124,-76.6838
56,-671,14.8284,75.4749,-0.0323113,0.0101655,-0.0816737,0.073317,-0.0954628,-0.912601,0.0977243,0.0436201,1280,1695,14.8283,-75.4748
63,-671,14.0313,74.29,0,0,0,0,0,0,0,-1,1287,1695,14.0312,-74.2901
70,-671,13.1716,73.162,-0.0445085,0.0118441,-0.078068,0.0666648,-0.0993293,-0.958583,0.0964533,0.0450883,1294,1695,13.1717,-73.162
77,-671,12.3273,72.201,-0.0462635,0.0114025,-0.0756468,0.0635248,-0.0983859,-0.967475,0.0941987,0.0432892,1301,1695,12.3273,-72.201
84,-671,11.4656,71.3065,-0.0434437,0.00944049,-0.0759046,0.0633768,-0.0973801,-0.953005,0.0935026,0.0475704,1308,1695,11.4656,-71.3065
91,-671,10.6237,70.4763,-0.0368685,0.00823355,-0.0780798,0.0669537,-0.0955887,-0.925983,0.094328,0.0482078,1315,1695,10.6236,-70.4764
98,-671,9.6969,69.6052,-0.0289494,0.00388477,-0.0790252,0.0681801,-0.0932448,-0.887814,0.0935725,0.0471775,1322,1695,9.69692,-69.6053
105,-671,8.75256,68.7462,0,0,0,0,0,0,0,-1,1329,1695,8.75261,-68.7462
112,-671,7.84644,67.9087,0,0,0,0,0,0,0,-1,1336,1695,7.8464,-67.9087
119,-671,8.43628,65.2627,0.0138196,0.000841968,-0.09484,0.102393,-0.087731,-0.751242,0.109877,0.0468607,1343,1695,8.43631,-65.2627
126,-671,9.01953,63.4484,0,0,0,0,0,0,0,-1,1350,1695,9.01953,-63.4483
133,-671,9.21191,61.4108,0.0438885,0.0041429,-0.10886,0.134675,-0.0866436,-0.695116,0.128777,0.0472049,1357,1695,9.21188,-61.4108
140,-671,9.38477,59.3905,0.0550015,0.00733569,-0.114412,0.148037,-0.0856994,-0.682713,0.136538,0.0473193,1364,1695,9.38472,-59.3905
147,-671,9.58276,57.3243,0,0,0,0,0,0,0,-1,1371,1695,9.58276,-57.3244
154,-671,8.01001,65.1267,0,0,0,0,0,0,0,-1,1378,1695,8.00997,-65.1268
161,-671,4.49292,4.91272,0,0,0,0,0,0,0,-1,1385,1695,4.49297,-4.91273
168,-671,5.17639,6.1416,0,0,0,0,0,0,0,-1,1392,1695,5.1764,-6.14164
175,-671,5.6731,1.64685,0,0,0,0,0,0,0,-1,1399,1695,5.67313,-1.64691
182,-671,5.56812,1.71692,0,0,0,0,0,0,0,-1,1406,1695,5.56809,-1.71686
189,-671,6.98315,6.36169,0,0,0,0,0,0,0,-1,1413,1695,6.98312,-6.36175
196,-671,5.38123,5.69775,0,0,0,0,0,0,0,-1,1420,1695,5.38125,-5.69769
203,-671,5.95117,8.11658,0,0,0,0,0,0,0,-1,1427,1695,5.9512,-8.11662
210,-671,4.73596,8.39624,0,0,0,0,0,0,0,-1,1434,1695,4.736,-8.39618
217,-671,5.37097,11.863,0,0,0,0,0,0,0,-1,1441,1695,5.37094,-11.863
224,-671,5.08167,13.6694,0,0,0,0,0,0,0,-1,1448,1695,5.08165,-13.6695
231,-671,5.66663,15.3348,0,0,0,0,0,0,0,-1,1455,1695,5.66667,-15.3349
238,-671,6.32959,16.2036,0,0,0,0,0,0,0,-1,1462,1695,6.32961,-16.2037
245,-671,11.9244,57.5367,0,0,0,0,0,0,0,-1,1469,1695,11.9245,-57.5367
252,-671,12.2898,64.1492,0,0,0,0,0,0,0,-1,1476,1695,12.2899,-64.1491
259,-671,12.3419,63.403,0,0,0,0,0,0,0,-1,1483,1695,12.342,-63.4029
266,-671,12.3861,62.689,0.00509663,0.00161191,0.000467353,0.00515822,0.00155032,0.13103,0.00305606,0.0302106,1490,1695,12.3861,-62.6889
273,-671,12.4562,62.1812,0.00452889,0.00179561,0.000471016,0.00460778,0.00171672,0.165951,0.00268895,0.0121439,1497,1695,12.4562,-62.1812
280,-671,12.4791,61.6682,0.00386768,0.00189294,0.000438713,0.00396076,0.00179986,0.209062,0.00228991,0.0124357,1504,1695,12.4791,-61.6682
287,-671,12.4645,61.0441,0.00330567,0.00203245,0.000395947,0.00341876,0.00191936,0.278206,0.00197878,0.014028,1511,1695,12.4645,-61.0441
294,-671,12.4635,60.4705,0.00288354,0.00201202,0.000317684,0.00298705,0.00190851,0.314973,0.00174662,0.0129888,1518,1695,12.4635,-60.4705
301,-671,12.5015,59.9446,0.00245745,0.00209416,0.000159476,0.00251752,0.00203408,0.360249,0.00154266,0.0121124,1525,1695,12.5015,-59.9446
308,-671,12.5167,59.3936,0.0020842,0.00218533,-0.0001225,0.00226729,0.00200224,-0.981143,0.00143138,0.0125112,1532,1695,12.5167,-59.3936
315,-671,12.5132,58.8185,0.00179675,0.00231102,-0.000498918,0.00261517,0.00149261,-1.02334,0.0015149,0.0136276,1539,1695,12.5131,-58.8185
322,-671,12.509,58.2474,0.00146012,0.00253417,-0.000904987,0.00304947,0.000944815,-1.05318,0.00180256,0.0162088,1546,1695,12.509,-58.2474
329,-671,12.4562,57.6691,0.00105453,0.00305601,-0.00130928,0.0037032,0.000407334,-1.11171,0.00234485,0.0160001,1553,1695,12.4562,-57.6691
336,-671,12.4324,57.0205,0.000726217,0.00355644,-0.00170695,0.00435858,-7.59254e-05,-1.13149,0.00293136,0.0131862,1560,1695,12.4324,-57.0205
343,-671,12.4688,56.3368,0.000367507,0.00418129,-0.00212931,0.00513275,-0.000583955,-1.15057,0.00363217,0.0134995,1567,1695,12.4687,-56.3368
350,-671,12.4287,55.7937,3.16275e-05,0.00480189,-0.00262775,0.00596555,-0.00113203,-1.15392,0.00440315,0.0144343,1574,1695,12.4287,-55.7937
357,-671,12.3762,55.1062,-0.000208044,0.00534393,-0.00309144,0.00672283,-0.00158695,-1.15124,0.00509395,0.0125762,1581,1695,12.3762,-55.1062
364,-671,12.3463,54.4403,-0.000525643,0.00586506,-0.00338584,0.00732526,-0.00198585,-1.16363,0.00566274,0.012085,1588,1695,12.3463,-54.4404
371,-671,12.3113,53.8162,-0.000732361,0.00638217,-0.00370496,0.00796113,-0.00231132,-1.16793,0.00622263,0.0140788,1595,1695,12.3113,-53.8162
378,-671,12.277,53.1626,-0.000788041,0.0068405,-0.00399366,0.00854873,-0.00249627,-1.16661,0.00668837,0.0127191,1602,1695,12.277,-53.1626
385,-671,12.2389,52.4697,-0.000616968,0.00725996,-0.00441876,0.00924069,-0.0025977,-1.14939,0.00718465,0.0143559,1609,1695,12.2389,-52.4697
392,-671,12.1731,51.8201,-0.000295241,0.00755315,-0.00490521,0.00991071,-0.00265279,-1.12277,0.00764637,0.0185299,1616,1695,12.1731,-51.82
399,-671,12.1322,51.1301,0.000233664,0.00766353,-0.00549141,0.0105786,-0.00268136,-1.08279,0.00809555,0.0157251,1623,1695,12.1322,-51.1301
406,-671,12.1506,50.3893,0.000851355,0.00784078,-0.00599199,0.0112827,-0.00259057,-1.0494,0.00851767,0.0257173,1630,1695,12.1506,-50.3893
413,-671,12.0692,49.7783,0.00158679,0.00803556,-0.00677519,0.0123145,-0.00269215,-1.00749,0.00923873,0.0417404,1637,1695,12.0693,-49.7783
420,-671,12.1138,49.1705,0,0,0,0,0,0,0,-1,1644,1695,12.1137,-49.1705
427,-671,11.9879,42.9364,0,0,0,0,0,0,0,-1,1651,1695,11.988,-42.9364
434,-671,12.0647,42.6493,0,0,0,0,0,0,0,-1,1658,1695,12.0648,-42.6493
441,-671,11.8904,39.6104,0,0,0,0,0,0,0,-1,1665,1695,11.8904,-39.6103
448,-671,11.6979,39.1995,0,0,0,0,0,0,0,-1,1672,1695,11.6979,-39.1994
455,-671,11.5221,39.0929,0,0,0,0,0,0,0,-1,1679,1695,11.5221,-39.0929
462,-671,5.86255,4.47961,0,0,0,0,0,0,0,-1,1686,1695,5.8625,-4.4796
469,-671,3.71301,3.76978,0,0,0,0,0,0,0,-1,1693,1695,3.71297,-3.76974
476,-671,3.75574,3.18848,0,0,0,0,0,0,0,-1,1700,1695,3.7558,-3.18847
483,-671,7.81824,12.1041,0,0,0,0,0,0,0,-1,1707,1695,7.81826,-12.1041
490,-671,0,0,0,0,0,0,0,0,0,-1,1714,1695,0,0
497,-671,0,0,0,0,0,0,0,0,0,-1,1721,1695,0,0
504,-671,0,0,0,0,0,0,0,0,0,-1,1728,1695,0,0
511,-671,0,0,0,0,0,0,0,0,0,-1,1735,1695,0,0
518,-671,0,0,0,0,0,0,0,0,0,-1,1742,1695,0,0
525,-671,0,0,0,0,0,0,0,0,0,-1,1749,1695,0,0
532,-671,0,0,0,0,0,0,0,0,0,-1,1756,1695,0,0
539,-671,0,0,0,0,0,0,0,0,0,-1,1763,1695,0,0
546,-671,0,0,0,0,0,0,0,0,0,-1,1770,1695,0,0
553,-671,0,0,0,0,0,0,0,0,0,-1,1777,1695,0,0
560,-671,0,0,0,0,0,0,0,0,0,-1,1784,1695,0,0
567,-671,0,0,0,0,0,0,0,0,0,-1,1791,1695,0,0
574,-671,0,0,0,0,0,0,0,0,0,-1,1798,1695,0,0
581,-671,0,0,0,0,0,0,0,0,0,-1,1805,1695,0,0
588,-671,0,0,0,0,0,0,0,0,0,-1,1812,1695,0,0
595,-671,0,0,0,0,0,0,0,0,0,-1,1819,1695,0,0
602,-671,0,0,0,0,0,0,0,0,0,-1,1826,1695,0,0
609,-671,0,0,0,0,0,0,0,0,0,-1,1833,1695,0,0
616,-671,0,0,0,0,0,0,0,0,0,-1,1840,1695,0,0
623,-671,0,0,0,0,0,0,0,0,0,-1,1847,1695,0,0
630,-671,0,0,0,0,0,0,0,0,0,-1,1854,1695,0,0
637,-671,0,0,0,0,0,0,0,0,0,-1,1861,1695,0,0
644,-671,0,0,0,0,0,0,0,0,0,-1,1868,1695,0,0
651,-671,0,0,0,0,0,0,0,0,0,-1,1875,1695,0,0
658,-671,0,0,0,0,0,0,0,0,0,-1,1882,1695,0,0
665,-671,0,0,0,0,0,0,0,0,0,-1,1889,1695,0,0
672,-671,0,0,0,0,0,0,0,0,0,-1,1896,1695,0,0
679,-671,0,0,0,0,0,0,0,0,0,-1,1903,1695,0,0
686,-671,0,0,0,0,0,0,0,0,0,-1,1910,1695,0,0
693,-671,0,0,0,0,0,0,0,0,0,-1,1917,1695,0,0
700,-671,0,0,0,0,0,0,0,0,0,-1,1924,1695,0,0
707,-671,0,0,0,0,0,0,0,0,0,-1,1931,1695,0,0
714,-671,0,0,0,0,0,0,0,0,0,-1,1938,1695,0,0
721,-671,0,0,0,0,0,0,0,0,0,-1,1945,1695,0,0
728,-671,0,0,0,0,0,0,0,0,0,-1,1952,1695,0,0
735,-671,0,0,0,0,0,0,0,0,0,-1,1959,1695,0,0
742,-671,0,0,0,0,0,0,0,0,0,-1,1966,1695,0,0
749,-671,0,0,0,0,0,0,0,0,0,-1,1973,1695,0,0
756,-671,0,0,0,0,0,0,0,0,0,-1,1980,1695,0,0
763,-671,0,0,0,0,0,0,0,0,0,-1,1987,1695,0,0
770,-671,0,0,0,0,0,0,0,0,0,-1,1994,1695,0,0
777,-671,0,0,0,0,0,0,0,0,0,-1,2001,1695,0,0
784,-671,0,0,0,0,0,0,0,0,0,-1,2008,1695,0,0
791,-671,0,0,0,0,0,0,0,0,0,-1,2015,1695,0,0
798,-671,0,0,0,0,0,0,0,0,0,-1,2022,1695,0,0
805,-671,0,0,0,0,0,0,0,0,0,-1,2029,1695,0,0
812,-671,0,0,0,0,0,0,0,0,0,-1,2036,1695,0,0
-700,-678,0,0,0,0,0,0,0,0,0,-1,524,1702,0,0
-693,-678,0,0,0,0,0,0,0,0,0,-1,531,1702,0,0
-686,-678,0,0,0,0,0,0,0,0,0,-1,538,1702,0,0
-679,-678,0,0,0,0,0,0,0,0,0,-1,545,1702,0,0
-672,-678,0,0,0,0,0,0,0,0,0,-1,552,1702,0,0
-665,-678,0,0,0,0,0,0,0,0,0,-1,559,1702,0,0
-658,-678,0,0,0,0,0,0,0,0,0,-1,566,1702,0,0
-651,-678,0,0,0,0,0,0,0,0,0,-1,573,1702,0,0
-644,-678,0,0,0,0,0,0,0,0,0,-1,580,1702,0,0
-637,-678,0,0,0,0,0,0,0,0,0,-1,587,1702,0,0
-630,-678,0,0,0,0,0,0,0,0,0,-1,594,1702,0,0
-623,-678,0,0,0,0,0,0,0,0,0,-1,601,1702,0,0
-616,-678,0,0,0,0,0,0,0,0,0,-1,608,1702,0,0
-609,-678,0,0,0,0,0,0,0,0,0,-1,615,1702,0,0
-602,-678,0,0,0,0,0,0,0,0,0,-1,622,1702,0,0
-595,-678,0,0,0,0,0,0,0,0,0,-1,629,1702,0,0
-588,-678,0,0,0,0,0,0,0,0,0,-1,636,1702,0,0
-581,-678,0,0,0,0,0,0,0,0,0,-1,643,1702,0,0
-574,-678,0,0,0,0,0,0,0,0,0,-1,650,1702,0,0
-567,-678,0,0,0,0,0,0,0,0,0,-1,657,1702,0,0
-560,-678,0,0,0,0,0,0,0,0,0,-1,664,1702,0,0
-553,-678,0,0,0,0,0,0,0,0,0,-1,671,1702,0,0
-546,-678,0,0,0,0,0,0,0,0,0,-1,678,1702,0,0
-539,-678,0,0,0,0,0,0,0,0,0,-1,685,1702,0,0
-532,-678,0,0,0,0,0,0,0,0,0,-1,692,1702,0,0
-525,-678,0,0,0,0,0,0,0,0,0,-1,699,1702,0,0
-518,-678,0,0,0,0,0,0,0,0,0,-1,706,1702,0,0
-511,-678,0,0,0,0,0,0,0,0,0,-1,713,1702,0,0
-504,-678,0,0,0,0,0,0,0,0,0,-1,720,1702,0,0
-497,-678,0,0,0,0,0,0,0,0,0,-1,727,1702,0,0
-490,-678,0,0,0,0,0,0,0,0,0,-1,734,1702,0,0
-483,-678,0,0,0,0,0,0,0,0,0,-1,741,1702,0,0
-476,-678,0,0,0,0,0,0,0,0,0,-1,748,1702,0,0
-469,-678,0,0,0,0,0,0,0,0,0,-1,755,1702,0,0
-462,-678,0,0,0,0,0,0,0,0,0,-1,762,1702,0,0
-455,-678,0,0,0,0,0,0,0,0,0,-1,769,1702,0,0
-448,-678,0,0,0,0,0,0,0,0,0,-1,776,1702,0,0
-441,-678,0,0,0,0,0,0,0,0,0,-1,783,1702,0,0
-434,-678,0,0,0,0,0,0,0,0,0,-1,790,1702,0,0
-427,-678,0,0,0,0,0,0,0,0,0,-1,797,1702,0,0
-420,-678,0,0,0,0,0,0,0,0,0,-1,804,1702,0,0
-413,-678,0,0,0,0,0,0,0,0,0,-1,811,1702,0,0
-406,-678,0,0,0,0,0,0,0,0,0,-1,818,1702,0,0
-399,-678,0,0,0,0,0,0,0,0,0,-1,825,1702,0,0
-392,-678,0,0,0,0,0,0,0,0,0,-1,832,1702,0,0
-385,-678,0,0,0,0,0,0,0,0,0,-1,839,1702,0,0
-378,-678,0,0,0,0,0,0,0,0,0,-1,846,1702,0,0
-371,-678,0,0,0,0,0,0,0,0,0,-1,853,1702,0,0
-364,-678,0,0,0,0,0,0,0,0,0,-1,860,1702,0,0
-357,-678,0,0,0,0,0,0,0,0,0,-1,867,1702,0,0
-350,-678,-5.79944,6.11865,0,0,0,0,0,0,0,-1,874,1702,-5.79942,-6.11864
-343,-678,8.83331,46.1378,0,0,0,0,0,0,0,-1,881,1702,8.83334,-46.1378
-336,-678,7.73517,46.2286,0,0,0,0,0,0,0,-1,888,1702,7.73516,-46.2286
-329,-678,6.11768,46.3923,0,0,0,0,0,0,0,-1,895,1702,6.11768,-46.3923
-322,-678,8.50494,35.5048,0,0,0,0,0,0,0,-1,902,1702,8.50495,-35.5047
-315,-678,6.05182,48.8513,0,0,0,0,0,0,0,-1,909,1702,6.0518,-48.8513
-308,-678,6.3855,49.0698,0,0,0,0,0,0,0,-1,916,1702,6.38547,-49.0698
-301,-678,7.06586,49.1599,0,0,0,0,0,0,0,-1,923,1702,7.06585,-49.16
-294,-678,7.06183,49.2791,-0.0144606,0.000540916,0.0114938,0.00676492,-0.0206846,1.0745,0.0165132,0.0477507,930,1702,7.06183,-49.279
-287,-678,6.70166,50.0656,-0.0128868,0.000800026,0.0096,0.00574611,-0.0178329,1.09505,0.014197,0.0490895,937,1702,6.70165,-50.0656
-280,-678,6.75464,50.7803,0,0,0,0,0,0,0,-1,944,1702,6.75463,-50.7803
-273,-678,6.56488,51.4042,-0.0109327,0.000388734,0.00565291,0.00272796,-0.0132719,1.17844,0.00988358,0.0469663,951,1702,6.56485,-51.4042
-266,-678,6.54694,52.1093,-0.00940763,0.000748351,0.00453157,0.00247632,-0.0111356,1.2065,0.00837215,0.0371547,958,1702,6.54694,-52.1092
-259,-678,6.61078,52.8489,-0.00803482,0.000915622,0.00369965,0.00224687,-0.00936606,1.22539,0.0071123,0.0243643,965,1702,6.61078,-52.8488
-252,-678,6.55548,53.5439,-0.00649264,0.000728911,0.00323123,0.0019636,-0.00772732,1.20581,0.00591573,0.0192591,972,1702,6.55547,-53.5439
-245,-678,6.49915,54.2405,-0.00535935,0.000743565,0.00280336,0.00183581,-0.00645159,1.19927,0.00502603,0.0193577,979,1702,6.49912,-54.2405
-238,-678,6.49023,54.9192,-0.00410374,0.000905279,0.00245315,0.00190655,-0.00510501,1.18328,0.00418617,0.0159002,986,1702,6.49021,-54.9192
-231,-678,6.44434,55.5642,-0.00296081,0.000970783,0.00212664,0.00190101,-0.00389103,1.15846,0.00340919,0.0135151,993,1702,6.44436,-55.5642
-224,-678,6.37469,56.1832,-0.00210094,0.000913964,0.00205554,0.00195557,-0.00314254,1.10178,0.00296987,0.0133577,1000,1702,6.37467,-56.1832
-217,-678,6.34937,56.8304,-0.00143288,0.00081141,0.00192755,0.00191966,-0.00254113,1.049,0.00258376,0.0141231,1007,1702,6.34939,-56.8304
-210,-678,6.31122,57.5345,-0.000812426,0.000724019,0.00184074,0.00195041,-0.00203882,0.983082,0.00230337,0.0155209,1014,1702,6.31125,-57.5345
-203,-678,6.27209,58.114,-0.000141172,0.000597952,0.00171518,0.00198293,-0.00152615,0.891509,0.00203169,0.0210967,1021,1702,6.27212,-58.114
-196,-678,6.24133,58.7108,0.000573424,0.000427691,0.00155283,0.00205509,-0.00105398,0.761953,0.00182578,0.0203625,1028,1702,6.2413,-58.7108
-189,-678,6.22925,59.3376,0.00114003,0.000392614,0.00130506,0.00212383,-0.000591191,0.645953,0.00164867,0.0117687,1035,1702,6.22928,-59.3377
-182,-678,6.224,59.9342,0.00172065,0.000568408,0.00107019,0.00235994,-7.08813e-05,0.538476,0.00159745,0.010593,1042,1702,6.22402,-59.9342
-175,-678,6.20007,60.4993,0.0024646,0.000868067,0.000966914,0.00292019,0.000412478,0.440325,0.0018249,0.0114875,1049,1702,6.20008,-60.4993
-168,-678,6.16968,61.0422,0.00303555,0.0011036,0.000752165,0.00329386,0.000845299,0.330796,0.00197537,0.0110622,1056,1702,6.1697,-61.0422
-161,-678,6.15991,61.5763,0.00355379,0.00150135,0.000566053,0.00369955,0.00135559,0.252032,0.0021612,0.00955661,1063,1702,6.1599,-61.5763
-154,-678,6.17371,62.1334,0.00417959,0.00208604,0.000458778,0.00427571,0.00198992,0.206532,0.00247055,0.00911273,1070,1702,6.17368,-62.1334
-147,-678,6.1554,62.6576,0.00489356,0.00273578,0.00042374,0.00497379,0.00265555,0.187123,0.00287382,0.011153,1077,1702,6.15535,-62.6575
-140,-678,6.19922,63.1572,0.0055942,0.00327702,0.000338355,0.00564259,0.00322862,0.142069,0.00326905,0.0118601,1084,1702,6.19919,-63.1572
-133,-678,6.23389,63.6349,0.00624484,0.00396057,0.000285762,0.00628005,0.00392536,0.122583,0.00366339,0.0124899,1091,1702,6.23385,-63.6349
-126,-678,6.23938,64.1729,0.00682062,0.00436116,0.000152785,0.00683007,0.00435171,0.0618047,0.00399248,0.0195803,1098,1702,6.23939,-64.1728
-119,-678,6.27893,64.9025,0,0,0,0,0,0,0,-1,1105,1702,6.27893,-64.9025
-112,-678,6.31689,65.0531,0,0,0,0,0,0,0,-1,1112,1702,6.31691,-65.053
-105,-678,6.30286,65.6183,0,0,0,0,0,0,0,-1,1119,1702,6.30283,-65.6183
-98,-678,6.36475,66.1462,0,0,0,0,0,0,0,-1,1126,1702,6.3648,-66.1463
-91,-678,6.49963,66.3688,0,0,0,0,0,0,0,-1,1133,1702,6.49961,-66.3688
-84,-678,6.58545,36.5073,0,0,0,0,0,0,0,-1,1140,1702,6.58544,-36.5073
-77,-678,5.95154,29.1879,0,0,0,0,0,0,0,-1,1147,1702,5.95156,-29.1878
-70,-678,4.75891,19.6552,0,0,0,0,0,0,0,-1,1154,1702,4.75895,-19.6551
-63,-678,3.41687,11.0365,0,0,0,0,0,0,0,-1,1161,1702,3.41682,-11.0365
-56,-678,1.72388,6.13159,0,0,0,0,0,0,0,-1,1168,1702,1.72388,-6.13157
-49,-678,-0.241699,5.29895,0,0,0,0,0,0,0,-1,1175,1702,-0.241682,-5.29897
-42,-678,0.297119,3.90649,0,0,0,0,0,0,0,-1,1182,1702,0.297139,-3.90655
-35,-678,0.498413,3.64038,0,0,0,0,0,0,0,-1,1189,1702,0.498471,-3.64038
-28,-678,0.132446,3.55994,0,0,0,0,0,0,0,-1,1196,1702,0.132432,-3.55993
-21,-678,7.17688,68.9423,0,0,0,0,0,0,0,-1,1203,1702,7.17692,-68.9422
-14,-678,7.4325,69.0685,0,0,0,0,0,0,0,-1,1210,1702,7.43245,-69.0685
-7,-678,7.68799,69.1948,0,0,0,0,0,0,0,-1,1217,1702,7.68798,-69.1948
0,-678,16.1195,92.8314,0,0,0,0,0,0,0,-1,1224,1702,16.1195,-92.8314
7,-678,15.6636,91.9124,0,0,0,0,0,0,0,-1,1231,1702,15.6636,-91.9123
14,-678,15.5841,90.1267,0,0,0,0,0,0,0,-1,1238,1702,15.5841,-90.1267
21,-678,15.5692,88.3184,0,0,0,0,0,0,0,-1,1245,1702,15.5692,-88.3183
28,-678,15.5396,86.6021,0,0,0,0,0,0,0,-1,1252,1702,15.5395,-86.6021
35,-678,15.5825,84.6591,0,0,0,0,0,0,0,-1,1259,1702,15.5825,-84.659
42,-678,16.1862,77.5333,-0.00887201,0.00220041,-0.0712518,0.0681307,-0.0748023,-0.82417,0.0825524,0.0499593,1266,1702,16.1861,-77.5333
49,-678,15.9928,76.231,-0.0172526,0.00635949,-0.070729,0.066261,-0.0771542,-0.868095,0.0828804,0.0461889,1273,1702,15.9928,-76.231
56,-678,14.825,75.1649,-0.0258972,0.00942646,-0.0692556,0.0632368,-0.0797076,-0.910249,0.0827114,0.0451113,1280,1702,14.8249,-75.1649
63,-678,13.9875,73.8892,0,0,0,0,0,0,0,-1,1287,1702,13.9875,-73.8891
70,-678,13.3912,72.5544,-0.0370766,0.0107818,-0.0661492,0.0571969,-0.0834918,-0.958948,0.0816982,0.0445396,1294,1702,13.3912,-72.5544
77,-678,12.5872,71.8625,-0.0395119,0.0099369,-0.0638206,0.053655,-0.0832299,-0.970199,0.079643,0.0448397,1301,1702,12.5871,-71.8625
84,-678,11.6124,71.0613,-0.0380692,0.00769915,-0.0636842,0.052486,-0.082856,-0.957883,0.0787928,0.0463995,1308,1702,11.6124,-71.0613
91,-678,10.6475,70.2649,-0.0335493,0.00603231,-0.0652283,0.0544061,-0.081923,-0.932688,0.0792423,0.0458472,1315,1702,10.6474,-70.2649
98,-678,9.69958,69.4352,-0.0274413,0.00150093,-0.0657738,0.0543767,-0.080317,-0.89368,0.0782447,0.0427171,1322,1702,9.69959,-69.4352
105,-678,8.76965,68.6099,0,0,0,0,0,0,0,-1,1329,1702,8.76968,-68.6098
112,-678,9.36353,67.4127,0,0,0,0,0,0,0,-1,1336,1702,9.36354,-67.4127
119,-678,9.74805,65.7697,0,0,0,0,0,0,0,-1,1343,1702,9.74811,-65.7696
126,-678,10.2036,64.0225,0,0,0,0,0,0,0,-1,1350,1702,10.2036,-64.0225
133,-678,10.2765,61.8066,0,0,0,0,0,0,0,-1,1357,1702,10.2765,-61.8067
140,-678,10.4698,59.761,0,0,0,0,0,0,0,-1,1364,1702,10.4699,-59.761
147,-678,7.86768,66.5879,0,0,0,0,0,0,0,-1,1371,1702,7.86766,-66.5879
154,-678,7.64893,65.8849,0,0,0,0,0,0,0,-1,1378,1702,7.6489,-65.8848
161,-678,8.81226,34.8624,0,0,0,0,0,0,0,-1,1385,1702,8.81229,-34.8624
168,-678,4.21863,5.25781,0,0,0,0,0,0,0,-1,1392,1702,4.21865,-5.25781
175,-678,5.21899,5.9635,0,0,0,0,0,0,0,-1,1399,1702,5.21894,-5.96346
182,-678,7.31262,6.75122,0,0,0,0,0,0,0,-1,1406,1702,7.3126,-6.75123
189,-678,5.96021,6.36853,0,0,0,0,0,0,0,-1,1413,1702,5.96018,-6.36851
196,-678,5.01599,8.15771,0,0,0,0,0,0,0,-1,1420,1702,5.01596,-8.15767
203,-678,4.64771,13.0559,0,0,0,0,0,0,0,-1,1427,1702,4.64766,-13.0559
210,-678,5.6532,18.5957,0,0,0,0,0,0,0,-1,1434,1702,5.65318,-18.5958
217,-678,6.88049,23.4835,0,0,0,0,0,0,0,-1,1441,1702,6.88047,-23.4835
224,-678,8.521,32.0977,0,0,0,0,0,0,0,-1,1448,1702,8.52098,-32.0977
231,-678,9.96838,42.3734,0,0,0,0,0,0,0,-1,1455,1702,9.96844,-42.3734
238,-678,11.7385,64.8621,0,0,0,0,0,0,0,-1,1462,1702,11.7385,-64.8621
245,-678,11.8992,64.2657,0,0,0,0,0,0,0,-1,1469,1702,11.8992,-64.2657
252,-678,11.8544,63.7683,0.00603464,0.000226336,0.000335104,0.00605391,0.000207066,0.05744,0.00396872,0.0240443,1476,1702,11.8544,-63.7683
259,-678,11.8671,63.2628,0.00493113,0.000768657,0.000225553,0.00494332,0.00075647,0.0539766,0.00307457,0.0182201,1483,1702,11.867,-63.2628
266,-678,11.9258,62.7192,0.00417503,0.00105228,2.312e-05,0.0041752,0.00105211,0.0074032,0.00250745,0.014123,1490,1702,11.9258,-62.7192
273,-678,11.9456,62.2008,0.00368019,0.00129428,-5.94822e-05,0.00368167,0.00129279,-0.0249099,0.00215679,0.0124056,1497,1702,11.9456,-62.2008
280,-678,11.9492,61.6858,0.00309247,0.00144761,-0.000135161,0.0031035,0.00143658,-0.0814437,0.00179345,0.0130103,1504,1702,11.9492,-61.6858
287,-678,11.9526,61.1254,0.0025594,0.00158258,-0.000194977,0.00259688,0.0015451,-0.189911,0.0015083,0.0133176,1511,1702,11.9527,-61.1254
294,-678,11.9303,60.5441,0.0021147,0.00159989,-0.000250758,0.00221665,0.00149794,-0.386155,0.00130588,0.0135007,1518,1702,11.9303,-60.544
301,-678,11.9232,59.9769,0.00168581,0.00170025,-0.000421532,0.00211463,0.00127144,-0.793961,0.0012292,0.0127589,1525,1702,11.9233,-59.9769
308,-678,11.9336,59.4233,0.0013409,0.00182294,-0.000710389,0.00233208,0.000831761,-0.948943,0.00136475,0.0137645,1532,1702,11.9336,-59.4234
315,-678,11.9135,58.8604,0.0010815,0.00208474,-0.00113346,0.00282261,0.000343622,-0.993721,0.0017783,0.0146329,1539,1702,11.9134,-58.8604
322,-678,11.8802,58.2998,0.000702927,0.00241166,-0.00154939,0.00332663,-0.00021204,-1.03737,0.0022917,0.0180567,1546,1702,11.8803,-58.2998
329,-678,11.8472,57.6791,0.000202114,0.00325335,-0.00194264,0.00419783,-0.000742364,-1.11826,0.00307601,0.0166202,1553,1702,11.8472,-57.6791
336,-678,11.793,57.0281,-0.000155096,0.00402972,-0.00241411,0.00513201,-0.00125739,-1.14246,0.00390848,0.0142405,1560,1702,11.793,-57.0281
343,-678,11.8142,56.4037,-0.000517195,0.0049929,-0.0029445,0.00627026,-0.00179456,-1.16148,0.0048894,0.015668,1567,1702,11.8142,-56.4037
350,-678,11.8053,55.7947,-0.000864478,0.00599905,-0.00352318,0.0074856,-0.00235102,-1.17153,0.00593147,0.0160381,1574,1702,11.8053,-55.7946
357,-678,11.7448,55.1569,-0.00112247,0.00699711,-0.00411726,0.00871951,-0.00284486,-1.17458,0.00695794,0.0112815,1581,1702,11.7447,-55.1568
364,-678,11.7009,54.5083,-0.00146207,0.00796319,-0.00455132,0.00980216,-0.00330104,-1.1868,0.00786939,0.0110544,1588,1702,11.7009,-54.5082
371,-678,11.6418,53.8558,-0.00165242,0.00892971,-0.00502239,0.0109338,-0.00365654,-1.19112,0.00876607,0.012202,1595,1702,11.6418,-53.8558
378,-678,11.6034,53.1844,-0.00167401,0.00979542,-0.0054679,0.0119844,-0.00386299,-1.19,0.00954158,0.0129435,1602,1702,11.6034,-53.1845
385,-678,11.5859,52.505,-0.00144313,0.0105978,-0.00607183,0.013128,-0.00397328,-1.17597,0.0103342,0.0126339,1609,1702,11.5859,-52.5051
392,-678,11.5648,51.8577,-0.000976247,0.0112415,-0.00672259,0.0142162,-0.00395097,-1.1542,0.0110328,0.0216991,1616,1702,11.5648,-51.8577
399,-678,11.5543,51.1724,-0.000185483,0.0115333,-0.00746636,0.0151649,-0.00381709,-1.11809,0.0115937,0.0353431,1623,1702,11.5544,-51.1724
406,-678,11.6193,50.4275,0.000680526,0.0118424,-0.00806048,0.0160655,-0.00354252,-1.0882,0.0120658,0.0486007,1630,1702,11.6192,-50.4275
413,-678,11.4032,49.8265,0,0,0,0,0,0,0,-1,1637,1702,11.4032,-49.8265
420,-678,11.2355,43.032,0,0,0,0,0,0,0,-1,1644,1702,11.2355,-43.032
427,-678,10.0541,38.9548,0,0,0,0,0,0,0,-1,1651,1702,10.0541,-38.9548
434,-678,10.1094,38.722,0,0,0,0,0,0,0,-1,1658,1702,10.1094,-38.7221
441,-678,11.6007,39.4658,0,0,0,0,0,0,0,-1,1665,1702,11.6007,-39.4658
448,-678,11.344,38.9084,0,0,0,0,0,0,0,-1,1672,1702,11.344,-38.9084
455,-678,5.44678,5.54297,0,0,0,0,0,0,0,-1,1679,1702,5.44676,-5.54294
462,-678,3.86792,2.87402,0,0,0,0,0,0,0,-1,1686,1702,3.86796,-2.87406
469,-678,2.26587,1.98755,0,0,0,0,0,0,0,-1,1693,1702,2.26592,-1.98755
476,-678,0,0,0,0,0,0,0,0,0,-1,1700,1702,0,0
483,-678,0,0,0,0,0,0,0,0,0,-1,1707,1702,0,0
490,-678,0,0,0,0,0,0,0,0,0,-1,1714,1702,0,0
497,-678,0,0,0,0,0,0,0,0,0,-1,1721,1702,0,0
504,-678,0,0,0,0,0,0,0,0,0,-1,1728,1702,0,0
511,-678,0,0,0,0,0,0,0,0,0,-1,1735,1702,0,0
518,-678,0,0,0,0,0,0,0,0,0,-1,1742,1702,0,0
525,-678,0,0,0,0,0,0,0,0,0,-1,1749,1702,0,0
532,-678,0,0,0,0,0,0,0,0,0,-1,1756,1702,0,0
539,-678,0,0,0,0,0,0,0,0,0,-1,1763,1702,0,0
546,-678,0,0,0,0,0,0,0,0,0,-1,1770,1702,0,0
553,-678,0,0,0,0,0,0,0,0,0,-1,1777,1702,0,0
560,-678,0,0,0,0,0,0,0,0,0,-1,1784,1702,0,0
567,-678,0,0,0,0,0,0,0,0,0,-1,1791,1702,0,0
574,-678,0,0,0,0,0,0,0,0,0,-1,1798,1702,0,0
581,-678,0,0,0,0,0,0,0,0,0,-1,1805,1702,0,0
588,-678,0,0,0,0,0,0,0,0,0,-1,1812,1702,0,0
595,-678,0,0,0,0,0,0,0,0,0,-1,1819,1702,0,0
602,-678,0,0,0,0,0,0,0,0,0,-1,1826,1702,0,0
609,-678,0,0,0,0,0,0,0,0,0,-1,1833,1702,0,0
616,-678,0,0,0,0,0,0,0,0,0,-1,1840,1702,0,0
623,-678,0,0,0,0,0,0,0,0,0,-1,1847,1702,0,0
630,-678,0,0,0,0,0,0,0,0,0,-1,1854,1702,0,0
637,-678,0,0,0,0,0,0,0,0,0,-1,1861,1702,0,0
644,-678,0,0,0,0,0,0,0,0,0,-1,1868,1702,0,0
651,-678,0,0,0,0,0,0,0,0,0,-1,1875,1702,0,0
658,-678,0,0,0,0,0,0,0,0,0,-1,1882,1702,0,0
665,-678,0,0,0,0,0,0,0,0,0,-1,1889,1702,0,0
672,-678,0,0,0,0,0,0,0,0,0,-1,1896,1702,0,0
679,-678,0,0,0,0,0,0,0,0,0,-1,1903,1702,0,0
686,-678,0,0,0,0,0,0,0,0,0,-1,1910,1702,0,0
693,-678,0,0,0,0,0,0,0,0,0,-1,1917,1702,0,0
700,-678,0,0,0,0,0,0,0,0,0,-1,1924,1702,0,0
707,-678,0,0,0,0,0,0,0,0,0,-1,1931,1702,0,0
714,-678,0,0,0,0,0,0,0,0,0,-1,1938,1702,0,0
721,-678,0,0,0,0,0,0,0,0,0,-1,1945,1702,0,0
728,-678,0,0,0,0,0,0,0,0,0,-1,1952,1702,0,0
735,-678,0,0,0,0,0,0,0,0,0,-1,1959,1702,0,0
742,-678,0,0,0,0,0,0,0,0,0,-1,1966,1702,0,0
749,-678,0,0,0,0,0,0,0,0,0,-1,1973,1702,0,0
756,-678,0,0,0,0,0,0,0,0,0,-1,1980,1702,0,0
763,-678,0,0,0,0,0,0,0,0,0,-1,1987,1702,0,0
770,-678,0,0,0,0,0,0,0,0,0,-1,1994,1702,0,0
777,-678,0,0,0,0,0,0,0,0,0,-1,2001,1702,0,0
784,-678,0,0,0,0,0,0,0,0,0,-1,2008,1702,0,0
791,-678,0,0,0,0,0,0,0,0,0,-1,2015,1702,0,0
798,-678,0,0,0,0,0,0,0,0,0,-1,2022,1702,0,0
805,-678,0,0,0,0,0,0,0,0,0,-1,2029,1702,0,0
812,-678,0,0,0,0,0,0,0,0,0,-1,2036,1702,0,0
-700,-685,0,0,0,0,0,0,0,0,0,-1,524,1709,0,0
-693,-685,0,0,0,0,0,0,0,0,0,-1,531,1709,0,0
-686,-685,0,0,0,0,0,0,0,0,0,-1,538,1709,0,0
-679,-685,0,0,0,0,0,0,0,0,0,-1,545,1709,0,0
-672,-685,0,0,0,0,0,0,0,0,0,-1,552,1709,0,0
-665,-685,0,0,0,0,0,0,0,0,0,-1,559,1709,0,0
-658,-685,0,0,0,0,0,0,0,0,0,-1,566,1709,0,0
-651,-685,0,0,0,0,0,0,0,0,0,-1,573,1709,0,0
-644,-685,0,0,0,0,0,0,0,0,0,-1,580,1709,0,0
-637,-685,0,0,0,0,0,0,0,0,0,-1,587,1709,0,0
-630,-685,0,0,0,0,0,0,0,0,0,-1,594,1709,0,0
-623,-685,0,0,0,0,0,0,0,0,0,-1,601,1709,0,0
-616,-685,0,0,0,0,0,0,0,0,0,-1,608,1709,0,0
-609,-685,0,0,0,0,0,0,0,0,0,-1,615,1709,0,0
-602,-685,0,0,0,0,0,0,0,0,0,-1,622,1709,0,0
-595,-685,0,0,0,0,0,0,0,0,0,-1,629,1709,0,0
-588,-685,0,0,0,0,0,0,0,0,0,-1,636,1709,0,0
-581,-685,0,0,0,0,0,0,0,0,0,-1,643,1709,0,0
-574,-685,0,0,0,0,0,0,0,0,0,-1,650,1709,0,0
-567,-685,0,0,0,0,0,0,0,0,0,-1,657,1709,0,0
-560,-685,0,0,0,0,0,0,0,0,0,-1,664,1709,0,0
-553,-685,0,0,0,0,0,0,0,0,0,-1,671,1709,0,0
-546,-685,0,0,0,0,0,0,0,0,0,-1,678,1709,0,0
-539,-685,0,0,0,0,0,0,0,0,0,-1,685,1709,0,0
-532,-685,0,0,0,0,0,0,0,0,0,-1,692,1709,0,0
-525,-685,0,0,0,0,0,0,0,0,0,-1,699,1709,0,0
-518,-685,0,0,0,0,0,0,0,0,0,-1,706,1709,0,0
-511,-685,0,0,0,0,0,0,0,0,0,-1,713,1709,0,0
-504,-685,0,0,0,0,0,0,0,0,0,-1,720,1709,0,0
-497,-685,0,0,0,0,0,0,0,0,0,-1,727,1709,0,0
-490,-685,0,0,0,0,0,0,0,0,0,-1,734,1709,0,0
-483,-685,0,0,0,0,0,0,0,0,0,-1,741,1709,0,0
-476,-685,0,0,0,0,0,0,0,0,0,-1,748,1709,0,0
-469,-685,0,0,0,0,0,0,0,0,0,-1,755,1709,0,0
-462,-685,0,0,0,0,0,0,0,0,0,-1,762,1709,0,0
-455,-685,0,0,0,0,0,0,0,0,0,-1,769,1709,0,0
-448,-685,0,0,0,0,0,0,0,0,0,-1,776,1709,0,0
-441,-685,0,0,0,0,0,0,0,0,0,-1,783,1709,0,0
-434,-685,0,0,0,0,0,0,0,0,0,-1,790,1709,0,0
-427,-685,0,0,0,0,0,0,0,0,0,-1,797,1709,0,0
-420,-685,0,0,0,0,0,0,0,0,0,-1,804,1709,0,0
-413,-685,0,0,0,0,0,0,0,0,0,-1,811,1709,0,0
-406,-685,0,0,0,0,0,0,0,0,0,-1,818,1709,0,0
-399,-685,0,0,0,0,0,0,0,0,0,-1,825,1709,0,0
-392,-685,0,0,0,0,0,0,0,0,0,-1,832,1709,0,0
-385,-685,0,0,0,0,0,0,0,0,0,-1,839,1709,0,0
-378,-685,0,0,0,0,0,0,0,0,0,-1,846,1709,0,0
-371,-685,0,0,0,0,0,0,0,0,0,-1,853,1709,0,0
-364,-685,0,0,0,0,0,0,0,0,0,-1,860,1709,0,0
-357,-685,0,0,0,0,0,0,0,0,0,-1,867,1709,0,0
-350,-685,0,0,0,0,0,0,0,0,0,-1,874,1709,0,0
-343,-685,-5.98505,6.56335,0,0,0,0,0,0,0,-1,881,1709,-5.98505,-6.56329
-336,-685,-6.51312,5.10571,0,0,0,0,0,0,0,-1,888,1709,-6.51311,-5.10575
-329,-685,9.98907,36.2474,0,0,0,0,0,0,0,-1,895,1709,9.98909,-36.2475
-322,-685,3.83191,16.7219,0,0,0,0,0,0,0,-1,902,1709,3.8319,-16.7219
-315,-685,5.15784,21.4388,0,0,0,0,0,0,0,-1,909,1709,5.15783,-21.4389
-308,-685,6.47711,49.3821,0,0,0,0,0,0,0,-1,916,1709,6.47712,-49.3821
-301,-685,7.32147,49.1406,0,0,0,0,0,0,0,-1,923,1709,7.32146,-49.1406
-294,-685,7.34436,49.2723,0,0,0,0,0,0,0,-1,930,1709,7.34436,-49.2724
-287,-685,7.30371,50.2532,0,0,0,0,0,0,0,-1,937,1709,7.30371,-50.2532
-280,-685,6.98828,50.0225,0,0,0,0,0,0,0,-1,944,1709,6.98826,-50.0225
-273,-685,7.08545,51.3605,0,0,0,0,0,0,0,-1,951,1709,7.08547,-51.3605
-266,-685,7.00745,52.0979,0,0,0,0,0,0,0,-1,958,1709,7.00747,-52.0979
-259,-685,7.31989,52.7665,0,0,0,0,0,0,0,-1,965,1709,7.31987,-52.7665
-252,-685,7.36176,53.4961,0,0,0,0,0,0,0,-1,972,1709,7.36175,-53.496
-245,-685,7.19421,54.1959,-0.00728163,0.00077016,0.00347493,0.00206244,-0.0085739,1.21476,0.00651319,0.0367402,979,1709,7.19424,-54.1959
-238,-685,7.17175,54.9434,-0.00566489,0.00102295,0.00312259,0.00225422,-0.00689616,1.1952,0.0055049,0.028252,986,1709,7.17175,-54.9434
-231,-685,7.07672,55.6157,-0.00421326,0.00113776,0.00281936,0.00234904,-0.00542454,1.16501,0.00460367,0.01807,993,1709,7.07672,-55.6157
-224,-685,7.00281,56.2194,-0.00311982,0.00110985,0.00282788,0.00252622,-0.00453619,1.10646,0.00413216,0.0156928,1000,1709,7.0028,-56.2194
-217,-685,6.97095,56.8766,-0.00229577,0.00104428,0.00276199,0.00260188,-0.00385338,1.05731,0.00375022,0.0113824,1007,1709,6.97096,-56.8766
-210,-685,6.94189,57.5823,-0.00158147,0.00103506,0.00275524,0.00277686,-0.00332327,1.00705,0.00352661,0.0169583,1014,1709,6.94192,-57.5823
-203,-685,6.90356,58.1648,-0.000884253,0.000979196,0.00268246,0.00288714,-0.0027922,0.952549,0.00327912,0.0189623,1021,1709,6.9036,-58.1648
-196,-685,6.86169,58.7511,-0.000232116,0.000865613,0.00247386,0.00285076,-0.00221727,0.894563,0.00293364,0.0154084,1028,1709,6.86167,-58.7511
-189,-685,6.80835,59.3381,0.000292294,0.000844371,0.00218399,0.0027697,-0.00163304,0.848261,0.00257,0.0102179,1035,1709,6.8084,-59.3381
-182,-685,6.77905,59.9264,0.000815076,0.000942527,0.00190275,0.00278262,-0.00102501,0.802138,0.00227506,0.0142487,1042,1709,6.77906,-59.9264
-175,-685,6.7522,60.4913,0.00145669,0.00118007,0.0017283,0.0030522,-0.000415445,0.74547,0.00218648,0.0144974,1049,1709,6.75219,-60.4914
-168,-685,6.72864,61.0564,0.00187553,0.00128847,0.0014171,0.00302918,0.000134812,0.683276,0.00197605,0.01137,1056,1709,6.72865,-61.0564
-161,-685,6.72925,61.6176,0.00218545,0.00149553,0.00108126,0.00297544,0.000705535,0.630983,0.00179527,0.0122938,1063,1709,6.7292,-61.6175
-154,-685,6.73279,62.1731,0.00262925,0.00184897,0.000840854,0.00316606,0.00131215,0.568189,0.00183683,0.0113315,1070,1709,6.73282,-62.1731
-147,-685,6.70105,62.6886,0.0031484,0.00228123,0.00065965,0.00350421,0.00192543,0.494655,0.00202645,0.0103176,1077,1709,6.70102,-62.6886
-140,-685,6.70911,63.1556,0.00376209,0.00253556,0.000507202,0.00394465,0.00235299,0.345509,0.00229154,0.0121952,1084,1709,6.70914,-63.1556
-133,-685,6.73901,63.6635,0.00435721,0.00282384,0.00036959,0.00444164,0.00273941,0.224598,0.00258758,0.0110991,1091,1709,6.73907,-63.6635
-126,-685,6.75208,64.1696,0.00487989,0.00300332,0.000180904,0.00489717,0.00298604,0.0952331,0.00284999,0.00952464,1098,1709,6.75205,-64.1695
-119,-685,6.76428,64.6592,0.00548218,0.00307285,-5.4684e-05,0.00548342,0.00307161,-0.0226812,0.00317349,0.0143044,1105,1709,6.76434,-64.6591
-112,-685,6.76697,65.1149,0.00601879,0.00298091,-0.000352791,0.00605922,0.00294048,-0.114107,0.0034988,0.0157943,1112,1709,6.76693,-65.1148
-105,-685,6.7644,65.5613,0.00630392,0.00278857,-0.000622882,0.00641102,0.00268146,-0.170285,0.00371786,0.0184266,1119,1709,6.76441,-65.5612
-98,-685,6.86243,65.9203,0.00638103,0.00241953,-0.000924199,0.00658604,0.00221453,-0.218282,0.00386983,0.0261082,1126,1709,6.8624,-65.9203
-91,-685,6.875,66.198,0.00635893,0.00221728,-0.00179994,0.00703184,0.00154436,-0.357765,0.0042673,0.0480165,1133,1709,6.87501,-66.198
-84,-685,6.87537,66.6923,0,0,0,0,0,0,0,-1,1140,1709,6.87537,-66.6922
-77,-685,6.92261,67.1743,0,0,0,0,0,0,0,-1,1147,1709,6.92259,-67.1743
-70,-685,6.99756,67.6608,0,0,0,0,0,0,0,-1,1154,1709,6.99751,-67.6608
-63,-685,6.03015,29.7728,0,0,0,0,0,0,0,-1,1161,1709,6.0302,-29.7728
-56,-685,3.93909,15.8704,0,0,0,0,0,0,0,-1,1168,1709,3.93905,-15.8704
-49,-685,3.07471,9.86011,0,0,0,0,0,0,0,-1,1175,1709,3.07467,-9.86009
-42,-685,2.70618,7.54504,0,0,0,0,0,0,0,-1,1182,1709,2.7062,-7.54504
-35,-685,2.95264,7.91516,0,0,0,0,0,0,0,-1,1189,1709,2.95262,-7.91517
-28,-685,8.11353,52.4509,0,0,0,0,0,0,0,-1,1196,1709,8.1135,-52.451
-21,-685,7.83875,69.2317,0,0,0,0,0,0,0,-1,1203,1709,7.83878,-69.2316
-14,-685,7.85693,69.2687,0,0,0,0,0,0,0,-1,1210,1709,7.85694,-69.2687
-7,-685,7.84839,69.5466,0,0,0,0,0,0,0,-1,1217,1709,7.84838,-69.5466
0,-685,7.81409,69.6919,0,0,0,0,0,0,0,-1,1224,1709,7.81408,-69.6918
7,-685,7.89673,69.7495,0,0,0,0,0,0,0,-1,1231,1709,7.89678,-69.7496
14,-685,8.21912,70.3293,0,0,0,0,0,0,0,-1,1238,1709,8.21911,-70.3293
21,-685,8.6792,70.4719,0,0,0,0,0,0,0,-1,1245,1709,8.6792,-70.4719
28,-685,8.68091,70.314,0,0,0,0,0,0,0,-1,1252,1709,8.68086,-70.314
35,-685,8.68042,70.4573,0,0,0,0,0,0,0,-1,1259,1709,8.68047,-70.4572
42,-685,8.91528,70.7328,0,0,0,0,0,0,0,-1,1266,1709,8.91531,-70.7328
49,-685,9.05969,70.7422,0,0,0,0,0,0,0,-1,1273,1709,9.05964,-70.7422
56,-685,14.8079,74.8041,0,0,0,0,0,0,0,-1,1280,1709,14.8079,-74.8041
63,-685,-1.07104,72.1707,0,0,0,0,0,0,0,-1,1287,1709,-1.0711,-72.1706
70,-685,9.25281,70.9077,0,0,0,0,0,0,0,-1,1294,1709,9.25279,-70.9077
77,-685,12.7067,71.5044,0,0,0,0,0,0,0,-1,1301,1709,12.7066,-71.5044
84,-685,11.6536,70.9121,0,0,0,0,0,0,0,-1,1308,1709,11.6536,-70.9121
91,-685,10.2723,70.1394,0,0,0,0,0,0,0,-1,1315,1709,10.2723,-70.1394
98,-685,9.80713,69.5129,0,0,0,0,0,0,0,-1,1322,1709,9.80714,-69.513
105,-685,9.34204,68.8866,0,0,0,0,0,0,0,-1,1329,1709,9.342,-68.8866
112,-685,10.8733,67.8939,0,0,0,0,0,0,0,-1,1336,1709,10.8733,-67.8939
119,-685,10.1353,69.4917,0,0,0,0,0,0,0,-1,1343,1709,10.1352,-69.4917
126,-685,10.3499,69.2488,0,0,0,0,0,0,0,-1,1350,1709,10.3498,-69.2487
133,-685,10.4846,69.1703,0,0,0,0,0,0,0,-1,1357,1709,10.4846,-69.1702
140,-685,10.3273,69.1852,0,0,0,0,0,0,0,-1,1364,1709,10.3273,-69.1852
147,-685,9.50256,67.0211,0,0,0,0,0,0,0,-1,1371,1709,9.50254,-67.0212
154,-685,10.0796,56.0078,0,0,0,0,0,0,0,-1,1378,1709,10.0796,-56.0079
161,-685,10.4932,55.8827,0,0,0,0,0,0,0,-1,1385,1709,10.4932,-55.8827
168,-685,4.37524,10.8778,0,0,0,0,0,0,0,-1,1392,1709,4.37525,-10.8778
175,-685,3.97522,8.94324,0,0,0,0,0,0,0,-1,1399,1709,3.97519,-8.94328
182,-685,3.98218,9.19739,0,0,0,0,0,0,0,-1,1406,1709,3.98221,-9.1974
189,-685,4.53479,15.2343,0,0,0,0,0,0,0,-1,1413,1709,4.53474,-15.2343
196,-685,10.8043,67.3468,0,0,0,0,0,0,0,-1,1420,1709,10.8043,-67.3468
203,-685,10.9139,66.8326,0,0,0,0,0,0,0,-1,1427,1709,10.9139,-66.8326
210,-685,11.3844,66.3922,0,0,0,0,0,0,0,-1,1434,1709,11.3844,-66.3922
217,-685,11.3134,65.8768,0,0,0,0,0,0,0,-1,1441,1709,11.3133,-65.8769
224,-685,11.2178,65.5045,0,0,0,0,0,0,0,-1,1448,1709,11.2177,-65.5045
231,-685,11.2581,65.0947,0,0,0,0,0,0,0,-1,1455,1709,11.2581,-65.0948
238,-685,11.3519,64.6635,0.00618059,-0.000442205,-0.0001483,0.00618391,-0.000445524,-0.0223774,0.00427885,0.042411,1462,1709,11.352,-64.6634
245,-685,11.3661,64.1509,0.00550792,-0.000166247,-0.00011535,0.00551026,-0.000168591,-0.0203178,0.00373098,0.0225135,1469,1709,11.3661,-64.1509
252,-685,11.3939,63.7251,0.004636,0.000465863,-6.79059e-05,0.0046371,0.000464758,-0.0162781,0.00294872,0.0163424,1476,1709,11.3939,-63.7251
259,-685,11.3933,63.2395,0.00374779,0.000871077,-0.000224782,0.00376524,0.000853619,-0.0775115,0.00227954,0.0120133,1483,1709,11.3933,-63.2395
266,-685,11.4061,62.736,0.00308916,0.00108976,-0.000464292,0.00319171,0.0009872,-0.217395,0.00188688,0.0138746,1490,1709,11.4062,-62.736
273,-685,11.4087,62.2085,0.00262428,0.00129713,-0.000586083,0.00284604,0.00107537,-0.361734,0.00165943,0.0157835,1497,1709,11.4087,-62.2085
280,-685,11.3972,61.6768,0.00208476,0.00143762,-0.000684564,0.00251837,0.00100401,-0.564628,0.0014639,0.0169677,1504,1709,11.3973,-61.6767
287,-685,11.3813,61.152,0.00157612,0.00152044,-0.000760783,0.00230957,0.00078699,-0.767108,0.00135579,0.0138998,1511,1709,11.3813,-61.1519
294,-685,11.37,60.599,0.00111633,0.00154439,-0.000801011,0.00215947,0.000501245,-0.915948,0.00130506,0.0120568,1518,1709,11.37,-60.5989
301,-685,11.3552,60.0156,0.000708784,0.00163548,-0.000998645,0.00227303,7.12301e-05,-1.00261,0.00149218,0.0148898,1525,1709,11.3552,-60.0156
308,-685,11.3549,59.4443,0.00041024,0.00184686,-0.00136423,0.00267033,-0.00041323,-1.02772,0.00193275,0.0154884,1532,1709,11.3549,-59.4444
315,-685,11.3489,58.8888,0.000212862,0.00227061,-0.00191188,0.00341288,-0.000929405,-1.03225,0.00264016,0.0130738,1539,1709,11.3489,-58.8888
322,-685,11.3041,58.2899,-0.000172887,0.00274192,-0.00240449,0.00409621,-0.00152718,-1.05785,0.0033577,0.0212192,1546,1709,11.304,-58.29
329,-685,11.2676,57.6797,-0.000744458,0.00394794,-0.00284184,0.00528694,-0.00208346,-1.13047,0.00438724,0.0196569,1553,1709,11.2676,-57.6797
336,-685,11.2321,57.0376,-0.00111268,0.00505737,-0.00344453,0.00659643,-0.00265174,-1.1506,0.00549896,0.0131816,1560,1709,11.2321,-57.0376
343,-685,11.1902,56.4351,-0.00147145,0.00642661,-0.00413466,0.00819512,-0.00323996,-1.16662,0.00680553,0.0130656,1567,1709,11.1902,-56.4351
350,-685,11.1456,55.807,-0.00182927,0.00793016,-0.00483562,0.0099203,-0.0038194,-1.18037,0.00818914,0.0145173,1574,1709,11.1456,-55.807
357,-685,11.1168,55.1858,-0.00211167,0.00951408,-0.00559507,0.0117693,-0.0043669,-1.18764,0.00963747,0.0105894,1581,1709,11.1168,-55.1858
364,-685,11.0743,54.5598,-0.00250089,0.011093,-0.00619055,0.0134896,-0.0048975,-1.20143,0.0109954,0.0104289,1588,1709,11.0743,-54.5599
371,-685,11.0477,53.8837,-0.00271659,0.0126803,-0.00681375,0.0152626,-0.00529887,-1.20854,0.012327,0.0187796,1595,1709,11.0477,-53.8837
378,-685,11.0334,53.1526,-0.00275109,0.0141156,-0.00740445,0.0169049,-0.00554035,-1.21053,0.0135011,0.0225639,1602,1709,11.0334,-53.1526
385,-685,10.9713,52.4292,-0.0025169,0.0154712,-0.00817523,0.0186314,-0.00567717,-1.20192,0.0146838,0.0340863,1609,1709,10.9713,-52.4292
392,-685,11.0292,51.7104,-0.00194,0.0166426,-0.00897295,0.020268,-0.00556544,-1.18681,0.0156995,0.0402035,1616,1709,11.0292,-51.7104
399,-685,11.0369,50.9242,0,0,0,0,0,0,0,-1,1623,1709,11.0368,-50.9242
406,-685,11.0951,50.5203,0,0,0,0,0,0,0,-1,1630,1709,11.0951,-50.5203
413,-685,10.9447,43.5477,0,0,0,0,0,0,0,-1,1637,1709,10.9447,-43.5477
420,-685,10.3047,40.3569,0,0,0,0,0,0,0,-1,1644,1709,10.3047,-40.3569
427,-685,10.7286,38.6702,0,0,0,0,0,0,0,-1,1651,1709,10.7286,-38.6702
434,-685,4.87769,8.91418,0,0,0,0,0,0,0,-1,1658,1709,4.87768,-8.91413
441,-685,5.62,8.75549,0,0,0,0,0,0,0,-1,1665,1709,5.61996,-8.75545
448,-685,6.4043,8.58972,0,0,0,0,0,0,0,-1,1672,1709,6.40435,-8.58971
455,-685,2.31958,4.09802,0,0,0,0,0,0,0,-1,1679,1709,2.31957,-4.09803
462,-685,0,0,0,0,0,0,0,0,0,-1,1686,1709,0,0
469,-685,0,0,0,0,0,0,0,0,0,-1,1693,1709,0,0
476,-685,0,0,0,0,0,0,0,0,0,-1,1700,1709,0,0
483,-685,0,0,0,0,0,0,0,0,0,-1,1707,1709,0,0
490,-685,0,0,0,0,0,0,0,0,0,-1,1714,1709,0,0
497,-685,0,0,0,0,0,0,0,0,0,-1,1721,1709,0,0
504,-685,0,0,0,0,0,0,0,0,0,-1,1728,1709,0,0
511,-685,0,0,0,0,0,0,0,0,0,-1,1735,1709,0,0
518,-685,0,0,0,0,0,0,0,0,0,-1,1742,1709,0,0
525,-685,0,0,0,0,0,0,0,0,0,-1,1749,1709,0,0
532,-685,0,0,0,0,0,0,0,0,0,-1,1756,1709,0,0
539,-685,0,0,0,0,0,0,0,0,0,-1,1763,1709,0,0
546,-685,0,0,0,0,0,0,0,0,0,-1,1770,1709,0,0
553,-685,0,0,0,0,0,0,0,0,0,-1,1777,1709,0,0
560,-685,0,0,0,0,0,0,0,0,0,-1,1784,1709,0,0
567,-685,0,0,0,0,0,0,0,0,0,-1,1791,1709,0,0
574,-685,0,0,0,0,0,0,0,0,0,-1,1798,1709,0,0
581,-685,0,0,0,0,0,0,0,0,0,-1,1805,1709,0,0
588,-685,0,0,0,0,0,0,0,0,0,-1,1812,1709,0,0
595,-685,0,0,0,0,0,0,0,0,0,-1,1819,1709,0,0
602,-685,0,0,0,0,0,0,0,0,0,-1,1826,1709,0,0
609,-685,0,0,0,0,0,0,0,0,0,-1,1833,1709,0,0
616,-685,0,0,0,0,0,0,0,0,0,-1,1840,1709,0,0
623,-685,0,0,0,0,0,0,0,0,0,-1,1847,1709,0,0
630,-685,0,0,0,0,0,0,0,0,0,-1,1854,1709,0,0
637,-685,0,0,0,0,0,0,0,0,0,-1,1861,1709,0,0
644,-685,0,0,0,0,0,0,0,0,0,-1,1868,1709,0,0
651,-685,0,0,0,0,0,0,0,0,0,-1,1875,1709,0,0
658,-685,0,0,0,0,0,0,0,0,0,-1,1882,1709,0,0
665,-685,0,0,0,0,0,0,0,0,0,-1,1889,1709,0,0
672,-685,0,0,0,0,0,0,0,0,0,-1,1896,1709,0,0
679,-685,0,0,0,0,0,0,0,0,0,-1,1903,1709,0,0
686,-685,0,0,0,0,0,0,0,0,0,-1,1910,1709,0,0
693,-685,0,0,0,0,0,0,0,0,0,-1,1917,1709,0,0
700,-685,0,0,0,0,0,0,0,0,0,-1,1924,1709,0,0
707,-685,0,0,0,0,0,0,0,0,0,-1,1931,1709,0,0
714,-685,0,0,0,0,0,0,0,0,0,-1,1938,1709,0,0
721,-685,0,0,0,0,0,0,0,0,0,-1,1945,1709,0,0
728,-685,0,0,0,0,0,0,0,0,0,-1,1952,1709,0,0
735,-685,0,0,0,0,0,0,0,0,0,-1,1959,1709,0,0
742,-685,0,0,0,0,0,0,0,0,0,-1,1966,1709,0,0
749,-685,0,0,0,0,0,0,0,0,0,-1,1973,1709,0,0
756,-685,0,0,0,0,0,0,0,0,0,-1,1980,1709,0,0
763,-685,0,0,0,0,0,0,0,0,0,-1,1987,1709,0,0
770,-685,0,0,0,0,0,0,0,0,0,-1,1994,1709,0,0
777,-685,0,0,0,0,0,0,0,0,0,-1,2001,1709,0,0
784,-685,0,0,0,0,0,0,0,0,0,-1,2008,1709,0,0
791,-685,0,0,0,0,0,0,0,0,0,-1,2015,1709,0,0
798,-685,0,0,0,0,0,0,0,0,0,-1,2022,1709,0,0
805,-685,0,0,0,0,0,0,0,0,0,-1,2029,1709,0,0
812,-685,0,0,0,0,0,0,0,0,0,-1,2036,1709,0,0
-700,-692,0,0,0,0,0,0,0,0,0,-1,524,1716,0,0
-693,-692,0,0,0,0,0,0,0,0,0,-1,531,1716,0,0
-686,-692,0,0,0,0,0,0,0,0,0,-1,538,1716,0,0
-679,-692,0,0,0,0,0,0,0,0,0,-1,545,1716,0,0
-672,-692,0,0,0,0,0,0,0,0,0,-1,552,1716,0,0
-665,-692,0,0,0,0,0,0,0,0,0,-1,559,1716,0,0
-658,-692,0,0,0,0,0,0,0,0,0,-1,566,1716,0,0
-651,-692,0,0,0,0,0,0,0,0,0,-1,573,1716,0,0
-644,-692,0,0,0,0,0,0,0,0,0,-1,580,1716,0,0
-637,-692,0,0,0,0,0,0,0,0,0,-1,587,1716,0,0
-630,-692,0,0,0,0,0,0,0,0,0,-1,594,1716,0,0
-623,-692,0,0,0,0,0,0,0,0,0,-1,601,1716,0,0
-616,-692,0,0,0,0,0,0,0,0,0,-1,608,1716,0,0
-609,-692,0,0,0,0,0,0,0,0,0,-1,615,1716,0,0
-602,-692,0,0,0,0,0,0,0,0,0,-1,622,1716,0,0
-595,-692,0,0,0,0,0,0,0,0,0,-1,629,1716,0,0
-588,-692,0,0,0,0,0,0,0,0,0,-1,636,1716,0,0
-581,-692,0,0,0,0,0,0,0,0,0,-1,643,1716,0,0
-574,-692,0,0,0,0,0,0,0,0,0,-1,650,1716,0,0
-567,-692,0,0,0,0,0,0,0,0,0,-1,657,1716,0,0
-560,-692,0,0,0,0,0,0,0,0,0,-1,664,1716,0,0
-553,-692,0,0,0,0,0,0,0,0,0,-1,671,1716,0,0
-546,-692,0,0,0,0,0,0,0,0,0,-1,678,1716,0,0
-539,-692,0,0,0,0,0,0,0,0,0,-1,685,1716,0,0
-532,-692,0,0,0,0,0,0,0,0,0,-1,692,1716,0,0
-525,-692,0,0,0,0,0,0,0,0,0,-1,699,1716,0,0
-518,-692,0,0,0,0,0,0,0,0,0,-1,706,1716,0,0
-511,-692,0,0,0,0,0,0,0,0,0,-1,713,1716,0,0
-504,-692,0,0,0,0,0,0,0,0,0,-1,720,1716,0,0
-497,-692,0,0,0,0,0,0,0,0,0,-1,727,1716,0,0
-490,-692,0,0,0,0,0,0,0,0,0,-1,734,1716,0,0
-483,-692,0,0,0,0,0,0,0,0,0,-1,741,1716,0,0
-476,-692,0,0,0,0,0,0,0,0,0,-1,748,1716,0,0
-469,-692,0,0,0,0,0,0,0,0,0,-1,755,1716,0,0
-462,-692,0,0,0,0,0,0,0,0,0,-1,762,1716,0,0
-455,-692,0,0,0,0,0,0,0,0,0,-1,769,1716,0,0
-448,-692,0,0,0,0,0,0,0,0,0,-1,776,1716,0,0
-441,-692,0,0,0,0,0,0,0,0,0,-1,783,1716,0,0
-434,-692,0,0,0,0,0,0,0,0,0,-1,790,1716,0,0
-427,-692,0,0,0,0,0,0,0,0,0,-1,797,1716,0,0
-420,-692,0,0,0,0,0,0,0,0,0,-1,804,1716,0,0
-413,-692,0,0,0,0,0,0,0,0,0,-1,811,1716,0,0
-406,-692,0,0,0,0,0,0,0,0,0,-1,818,1716,0,0
-399,-692,0,0,0,0,0,0,0,0,0,-1,825,1716,0,0
-392,-692,0,0,0,0,0,0,0,0,0,-1,832,1716,0,0
-385,-692,0,0,0,0,0,0,0,0,0,-1,839,1716,0,0
-378,-692,0,0,0,0,0,0,0,0,0,-1,846,1716,0,0
-371,-692,0,0,0,0,0,0,0,0,0,-1,853,1716,0,0
-364,-692,0,0,0,0,0,0,0,0,0,-1,860,1716,0,0
-357,-692,0,0,0,0,0,0,0,0,0,-1,867,1716,0,0
-350,-692,0,0,0,0,0,0,0,0,0,-1,874,1716,0,0
-343,-692,0,0,0,0,0,0,0,0,0,-1,881,1716,0,0
-336,-692,0,0,0,0,0,0,0,0,0,-1,888,1716,0,0
-329,-692,3.03107,4.10266,0,0,0,0,0,0,0,-1,895,1716,3.03105,-4.10267
-322,-692,4.43713,18.5242,0,0,0,0,0,0,0,-1,902,1716,4.43711,-18.5241
-315,-692,5.38965,17.975,0,0,0,0,0,0,0,-1,909,1716,5.38963,-17.975
-308,-692,5.86938,17.4392,0,0,0,0,0,0,0,-1,916,1716,5.86937,-17.4392
-301,-692,12.015,41.2892,0,0,0,0,0,0,0,-1,923,1716,12.015,-41.2892
-294,-692,8.41125,35.4742,0,0,0,0,0,0,0,-1,930,1716,8.41125,-35.4742
-287,-692,8.44659,48.7144,0,0,0,0,0,0,0,-1,937,1716,8.44657,-48.7143
-280,-692,7.91217,49.8398,0,0,0,0,0,0,0,-1,944,1716,7.91215,-49.8398
-273,-692,7.83319,50.7446,0,0,0,0,0,0,0,-1,951,1716,7.83317,-50.7447
-266,-692,7.52716,51.7593,0,0,0,0,0,0,0,-1,958,1716,7.52717,-51.7593
-259,-692,8.05981,52.7527,0,0,0,0,0,0,0,-1,965,1716,8.05981,-52.7526
-252,-692,7.87695,52.7908,0,0,0,0,0,0,0,-1,972,1716,7.87697,-52.7908
-245,-692,8.18774,54.1892,0,0,0,0,0,0,0,-1,979,1716,8.18777,-54.1892
-238,-692,8.13556,54.9703,-0.00723287,0.00117439,0.00390643,0.00270928,-0.00876776,1.19641,0.00692718,0.0490118,986,1716,8.13553,-54.9703
-231,-692,7.86212,55.7146,-0.00533214,0.00130995,0.00367249,0.00294033,-0.00696251,1.15299,0.0058725,0.0430678,993,1716,7.86215,-55.7146
-224,-692,7.60602,56.2955,-0.00390497,0.00127021,0.00379708,0.00327756,-0.00591232,1.08449,0.00537798,0.0218819,1000,1716,7.60601,-56.2955
-217,-692,7.56207,56.9161,-0.00287825,0.00121331,0.00381316,0.00349482,-0.00515976,1.03161,0.00502745,0.0143953,1007,1716,7.56205,-56.9161
-210,-692,7.54468,57.5752,-0.00205778,0.00127017,0.00389513,0.00384186,-0.00462947,0.987262,0.00489796,0.014575,1014,1716,7.54468,-57.5752
-203,-692,7.51001,58.1825,-0.00133857,0.00127308,0.00385689,0.0040392,-0.00410469,0.948626,0.00470193,0.0178702,1021,1716,7.51,-58.1824
-196,-692,7.43286,58.7904,-0.000768566,0.00119916,0.00358055,0.00392856,-0.00349797,0.919479,0.00429011,0.0193661,1028,1716,7.43283,-58.7904
-189,-692,7.36145,59.3484,-0.000315028,0.00120881,0.0032271,0.00376272,-0.00286893,0.901325,0.00384036,0.00984398,1035,1716,7.36145,-59.3483
-182,-692,7.31506,59.9413,0.000114653,0.00125293,0.00287144,0.00361109,-0.00224351,0.883233,0.00341076,0.0146509,1042,1716,7.31509,-59.9413
-175,-692,7.27173,60.5341,0.000618998,0.00144404,0.0026067,0.00367066,-0.00160762,0.863874,0.00312405,0.0160257,1049,1716,7.27176,-60.534
-168,-692,7.29431,61.0756,0.000866813,0.00146191,0.00219002,0.0033745,-0.00104578,0.852917,0.00266749,0.0124485,1056,1716,7.29432,-61.0756
-161,-692,7.29614,61.6447,0.000970793,0.00153302,0.00171221,0.00298704,-0.00048323,0.866763,0.00217044,0.0147891,1063,1716,7.29609,-61.6446
-154,-692,7.25269,62.2146,0.00122487,0.00171491,0.0013479,0.00283988,9.98963e-05,0.875305,0.00186085,0.0158495,1070,1716,7.25272,-62.2146
-147,-692,7.21936,62.7333,0.00152978,0.0020101,0.00102893,0.00282652,0.000713353,0.900049,0.00169729,0.0162609,1077,1716,7.21942,-62.7333
-140,-692,7.20764,63.2068,0.00205155,0.00205617,0.000832958,0.00288682,0.0012209,0.786783,0.00167329,0.0120178,1084,1716,7.20765,-63.2068
-133,-692,7.21533,63.6833,0.00259306,0.00207467,0.00062992,0.00301503,0.0016527,0.590219,0.00174341,0.00999828,1091,1716,7.2153,-63.6833
-126,-692,7.23071,64.1819,0.00305612,0.0020929,0.000404787,0.00320364,0.00194538,0.349472,0.00186375,0.00783788,1098,1716,7.23076,-64.1819
-119,-692,7.20154,64.6821,0.00358158,0.00205644,0.000191587,0.00360528,0.00203274,0.123072,0.00208716,0.0121309,1105,1716,7.20152,-64.6822
-112,-692,7.21509,65.1251,0.00410482,0.00193636,-4.83521e-05,0.00410589,0.00193528,-0.0222832,0.00237184,0.0122716,1112,1716,7.21504,-65.1252
-105,-692,7.24512,65.5465,0.00444075,0.00170052,-0.000325587,0.00447891,0.00166236,-0.116654,0.00261436,0.0173995,1119,1716,7.24509,-65.5465
-98,-692,7.32813,65.9238,0.00464882,0.00137094,-0.000615878,0.00476072,0.00125904,-0.179726,0.00284844,0.0207133,1126,1716,7.32814,-65.9239
-91,-692,7.32581,66.3326,0.00483578,0.00118219,-0.00122289,0.00520731,0.000810657,-0.294952,0.00323535,0.0204071,1133,1716,7.32579,-66.3326
-84,-692,7.38293,66.7329,0.00563687,0.00104647,-0.00168742,0.00619041,0.000492924,-0.31698,0.00397284,0.0240659,1140,1716,7.38298,-66.7329
-77,-692,7.35901,67.1476,0.00636767,0.000301711,-0.00213943,0.00704631,-0.000376928,-0.307166,0.00482809,0.0202609,1147,1716,7.35906,-67.1476
-70,-692,7.3999,67.5474,0.00644606,-0.000551418,-0.00271719,0.00737726,-0.00148261,-0.330161,0.00547965,0.0364124,1154,1716,7.39994,-67.5473
-63,-692,7.46277,67.9233,0,0,0,0,0,0,0,-1,1161,1716,7.46275,-67.9233
-56,-692,7.50867,68.1351,0,0,0,0,0,0,0,-1,1168,1716,7.50869,-68.1351
-49,-692,7.50879,68.4818,0,0,0,0,0,0,0,-1,1175,1716,7.50873,-68.4818
-42,-692,7.50623,68.9736,0,0,0,0,0,0,0,-1,1182,1716,7.50626,-68.9736
-35,-692,7.65955,69.379,0,0,0,0,0,0,0,-1,1189,1716,7.65953,-69.3791
-28,-692,7.9541,69.3685,0,0,0,0,0,0,0,-1,1196,1716,7.95411,-69.3686
-21,-692,7.97949,69.3491,0.00894428,-0.0152378,-0.0286963,0.0279927,-0.0342863,-0.586012,0.0360179,0.0368203,1203,1716,7.97953,-69.3491
-14,-692,8.04565,69.5033,0.0108173,-0.0176157,-0.0316361,0.0312844,-0.0380828,-0.574231,0.0401132,0.0189198,1210,1716,8.04564,-69.5033
-7,-692,8.03162,69.7264,0.01237,-0.0164619,-0.0352854,0.0360707,-0.0401626,-0.591469,0.0440345,0.0187376,1217,1716,8.03166,-69.7265
0,-692,8.07434,69.8997,0.0128483,-0.015658,-0.0380016,0.0391818,-0.0419914,-0.605983,0.0468747,0.0260231,1224,1716,8.07435,-69.8996
7,-692,8.23291,69.9487,0.0121938,-0.0138508,-0.0404342,0.0416509,-0.0433079,-0.629612,0.0490541,0.0353038,1231,1716,8.23297,-69.9487
14,-692,8.43152,70.2733,0.0120653,-0.0115072,-0.0428186,0.0446902,-0.0441321,-0.651094,0.0512819,0.0360964,1238,1716,8.43149,-70.2734
21,-692,8.61719,70.4144,0.0102581,-0.00805018,-0.0448456,0.0468743,-0.0446663,-0.684718,0.0528561,0.0327551,1245,1716,8.61721,-70.4144
28,-692,8.66846,70.3942,0.00717016,-0.00431376,-0.0464969,0.0482783,-0.0454219,-0.723964,0.0541062,0.0362339,1252,1716,8.66841,-70.3941
35,-692,8.71814,70.5198,0.00319954,-0.000386143,-0.0477597,0.0492,-0.0463866,-0.766638,0.0551949,0.035781,1259,1716,8.71812,-70.5198
42,-692,8.87061,70.6444,-0.00199951,0.00326602,-0.0482809,0.0489859,-0.0477194,-0.812636,0.0558344,0.033915,1266,1716,8.87057,-70.6445
49,-692,8.95056,70.667,-0.00810796,0.00606903,-0.0479076,0.0474097,-0.0494486,-0.858846,0.0559253,0.0455143,1273,1716,8.9506,-70.6669
56,-692,9.01758,70.7268,0,0,0,0,0,0,0,-1,1280,1716,9.0176,-70.7268
63,-692,9.09924,70.6558,0,0,0,0,0,0,0,-1,1287,1716,9.0992,-70.6558
70,-692,9.17493,70.7441,0,0,0,0,0,0,0,-1,1294,1716,9.17492,-70.7441
77,-692,9.31152,70.8225,0,0,0,0,0,0,0,-1,1301,1716,9.3115,-70.8225
84,-692,9.40601,70.5446,0,0,0,0,0,0,0,-1,1308,1716,9.40603,-70.5445
91,-692,9.54053,70.3961,0,0,0,0,0,0,0,-1,1315,1716,9.54049,-70.3961
98,-692,9.68286,70.0713,0,0,0,0,0,0,0,-1,1322,1716,9.68284,-70.0712
105,-692,9.45313,69.9917,0,0,0,0,0,0,0,-1,1329,1716,9.45317,-69.9917
112,-692,9.9364,70.0068,0,0,0,0,0,0,0,-1,1336,1716,9.93635,-70.0068
119,-692,9.94141,69.7462,-0.000553216,-0.00948185,-0.048767,0.0439534,-0.0539885,-0.739753,0.0566456,0.0425993,1343,1716,9.94138,-69.7462
126,-692,10.0753,69.5284,0.00713976,-0.0106967,-0.0515419,0.0505293,-0.0540862,-0.699732,0.0604114,0.0428144,1350,1716,10.0753,-69.5284
133,-692,10.1849,69.4071,0.0140017,-0.0107664,-0.0538795,0.056902,-0.0536667,-0.672437,0.063846,0.0331722,1357,1716,10.1849,-69.4071
140,-692,10.1163,69.361,0.0190564,-0.0102398,-0.055373,0.0616859,-0.0528694,-0.656092,0.0662038,0.0363659,1364,1716,10.1163,-69.3609
147,-692,10.0416,69.3136,0,0,0,0,0,0,0,-1,1371,1716,10.0417,-69.3136
154,-692,9.92883,56.0276,0,0,0,0,0,0,0,-1,1378,1716,9.92887,-56.0276
161,-692,10.2665,68.6793,0,0,0,0,0,0,0,-1,1385,1716,10.2665,-68.6794
168,-692,10.58,68.5684,0,0,0,0,0,0,0,-1,1392,1716,10.58,-68.5683
175,-692,10.6892,68.2063,0,0,0,0,0,0,0,-1,1399,1716,10.6893,-68.2063
182,-692,10.6704,67.8352,0,0,0,0,0,0,0,-1,1406,1716,10.6704,-67.8352
189,-692,10.635,67.535,0,0,0,0,0,0,0,-1,1413,1716,10.6351,-67.535
196,-692,10.5156,67.1028,0.0129836,-0.000701761,-0.00585073,0.0151439,-0.00286204,-0.353705,0.0111728,0.0393067,1420,1716,10.5156,-67.1028
203,-692,10.5984,66.7181,0.00819711,-0.000513684,0.00128816,0.00838362,-0.000700186,0.143782,0.00583649,0.0285218,1427,1716,10.5984,-66.7181
210,-692,10.8713,66.402,0.007434,-0.000380834,0.000978979,0.00755477,-0.000501605,0.122745,0.00521177,0.0225147,1434,1716,10.8714,-66.402
217,-692,10.8497,65.9718,0.00663094,-0.000380067,0.00076888,0.00671427,-0.000463397,0.107958,0.00463837,0.0181347,1441,1716,10.8497,-65.9718
224,-692,10.8279,65.563,0.00585684,-0.00023527,0.000508209,0.00589895,-0.000277375,0.0826595,0.00402827,0.013904,1448,1716,10.8279,-65.563
231,-692,10.8472,65.1382,0.0050731,-4.98212e-06,3.3198e-05,0.00507332,-5.19911e-06,0.00653713,0.00338395,0.0124426,1455,1716,10.8472,-65.1382
238,-692,10.8607,64.6245,0.00445029,0.000235392,-0.0004184,0.00449143,0.00019426,-0.0979927,0.00293168,0.0183568,1462,1716,10.8607,-64.6245
245,-692,10.8516,64.1514,0.00387103,0.000493337,-0.000499663,0.0039434,0.000420973,-0.143827,0.00250045,0.0214136,1469,1716,10.8515,-64.1514
252,-692,10.8727,63.7087,0.00316868,0.00095423,-0.000532613,0.00329012,0.000832787,-0.22418,0.00197523,0.0199214,1476,1716,10.8727,-63.7087
259,-692,10.8824,63.2672,0.00243902,0.00126404,-0.000708058,0.00277158,0.000931479,-0.439097,0.00162858,0.0104449,1483,1716,10.8825,-63.2672
266,-692,10.8782,62.7689,0.00185452,0.00144559,-0.000963105,0.00263463,0.000665486,-0.680801,0.00158196,0.0111557,1490,1716,10.8782,-62.7689
273,-692,10.8698,62.2291,0.00140558,0.00163054,-0.00111455,0.00263827,0.000397851,-0.835687,0.00164237,0.0156776,1497,1716,10.8698,-62.2291
280,-692,10.8665,61.6724,0.000906431,0.00176296,-0.00122719,0.00263447,3.4923e-05,-0.953281,0.00174479,0.0147995,1504,1716,10.8665,-61.6724
287,-692,10.8401,61.1459,0.000411338,0.00179145,-0.00131542,0.00258683,-0.000384042,-1.02696,0.00186579,0.0124987,1511,1716,10.8401,-61.1459
294,-692,10.8202,60.6146,-7.24071e-05,0.00181504,-0.00133978,0.0025101,-0.000767475,-1.09223,0.00197946,0.0114813,1518,1716,10.8202,-60.6146
301,-692,10.7994,60.0522,-0.000446333,0.00191379,-0.00158489,0.00270968,-0.00124223,-1.10541,0.00233348,0.0155672,1525,1716,10.7995,-60.0522
308,-692,10.7592,59.5148,-0.000679582,0.00224687,-0.0020622,0.00331222,-0.00174493,-1.09395,0.00296612,0.0188309,1532,1716,10.7591,-59.5148
315,-692,10.7667,58.9204,-0.000788022,0.00285192,-0.00278606,0.00435977,-0.00229587,-1.07472,0.00390374,0.0161902,1539,1716,10.7667,-58.9204
322,-692,10.6677,58.2631,-0.00115052,0.00347011,-0.00340496,0.00527457,-0.00295497,-1.08348,0.00481383,0.0207332,1546,1716,10.6677,-58.2631
329,-692,10.6453,57.6741,-0.00175842,0.00505156,-0.00393646,0.00685134,-0.0035582,-1.14196,0.00610938,0.0186522,1553,1716,10.6453,-57.6741
336,-692,10.6328,57.056,-0.00210433,0.00654355,-0.0047377,0.00863383,-0.00419461,-1.15528,0.00755288,0.0124547,1560,1716,10.6328,-57.056
343,-692,10.606,56.4481,-0.00243364,0.00838235,-0.00566111,0.0108034,-0.00485473,-1.16667,0.00925516,0.0138183,1567,1716,10.606,-56.4481
350,-692,10.5573,55.8372,-0.00277449,0.0105119,-0.00655618,0.0132023,-0.00546486,-1.18139,0.0110818,0.0161891,1574,1716,10.5572,-55.8372
357,-692,10.4808,55.13,-0.00305635,0.0128436,-0.00756089,0.0158649,-0.00607767,-1.19064,0.0130819,0.0231883,1581,1716,10.4808,-55.13
364,-692,10.4226,54.4249,-0.00349622,0.0152563,-0.00839412,0.0184648,-0.0067047,-1.2057,0.015051,0.0303405,1588,1716,10.4226,-54.425
371,-692,10.2826,53.7175,-0.00375257,0.0177029,-0.00922829,0.021126,-0.00717565,-1.2156,0.0169888,0.0400848,1595,1716,10.2826,-53.7175
378,-692,9.6842,52.6213,-0.00382331,0.0199436,-0.0100093,0.0235973,-0.00747701,-1.2208,0.0187282,0.0466107,1602,1716,9.68421,-52.6214
385,-692,9.30151,51.6306,0,0,0,0,0,0,0,-1,1609,1716,9.30153,-51.6307
392,-692,10.4926,51.6017,0,0,0,0,0,0,0,-1,1616,1716,10.4925,-51.6017
399,-692,10.6187,48.0621,0,0,0,0,0,0,0,-1,1623,1716,10.6187,-48.0621
406,-692,11.3221,42.7773,0,0,0,0,0,0,0,-1,1630,1716,11.3222,-42.7773
413,-692,11.4845,42.9004,0,0,0,0,0,0,0,-1,1637,1716,11.4845,-42.9004
420,-692,9.65894,40.2512,0,0,0,0,0,0,0,-1,1644,1716,9.65889,-40.2513
427,-692,3.79578,8.60339,0,0,0,0,0,0,0,-1,1651,1716,3.79577,-8.6034
434,-692,4.78516,8.64636,0,0,0,0,0,0,0,-1,1658,1716,4.78512,-8.64634
441,-692,5.8208,8.74036,0,0,0,0,0,0,0,-1,1665,1716,5.82084,-8.7404
448,-692,6.73792,8.51013,0,0,0,0,0,0,0,-1,1672,1716,6.73793,-8.5101
455,-692,0,0,0,0,0,0,0,0,0,-1,1679,1716,0,0
462,-692,0,0,0,0,0,0,0,0,0,-1,1686,1716,0,0
469,-692,0,0,0,0,0,0,0,0,0,-1,1693,1716,0,0
476,-692,0,0,0,0,0,0,0,0,0,-1,1700,1716,0,0
483,-692,0,0,0,0,0,0,0,0,0,-1,1707,1716,0,0
490,-692,0,0,0,0,0,0,0,0,0,-1,1714,1716,0,0
497,-692,0,0,0,0,0,0,0,0,0,-1,1721,1716,0,0
504,-692,0,0,0,0,0,0,0,0,0,-1,1728,1716,0,0
511,-692,0,0,0,0,0,0,0,0,0,-1,1735,1716,0,0
518,-692,0,0,0,0,0,0,0,0,0,-1,1742,1716,0,0
525,-692,0,0,0,0,0,0,0,0,0,-1,1749,1716,0,0
532,-692,0,0,0,0,0,0,0,0,0,-1,1756,1716,0,0
539,-692,0,0,0,0,0,0,0,0,0,-1,1763,1716,0,0
546,-692,0,0,0,0,0,0,0,0,0,-1,1770,1716,0,0
553,-692,0,0,0,0,0,0,0,0,0,-1,1777,1716,0,0
560,-692,0,0,0,0,0,0,0,0,0,-1,1784,1716,0,0
567,-692,0,0,0,0,0,0,0,0,0,-1,1791,1716,0,0
574,-692,0,0,0,0,0,0,0,0,0,-1,1798,1716,0,0
581,-692,0,0,0,0,0,0,0,0,0,-1,1805,1716,0,0
588,-692,0,0,0,0,0,0,0,0,0,-1,1812,1716,0,0
595,-692,0,0,0,0,0,0,0,0,0,-1,1819,1716,0,0
602,-692,0,0,0,0,0,0,0,0,0,-1,1826,1716,0,0
609,-692,0,0,0,0,0,0,0,0,0,-1,1833,1716,0,0
616,-692,0,0,0,0,0,0,0,0,0,-1,1840,1716,0,0
623,-692,0,0,0,0,0,0,0,0,0,-1,1847,1716,0,0
630,-692,0,0,0,0,0,0,0,0,0,-1,1854,1716,0,0
637,-692,0,0,0,0,0,0,0,0,0,-1,1861,1716,0,0
644,-692,0,0,0,0,0,0,0,0,0,-1,1868,1716,0,0
651,-692,0,0,0,0,0,0,0,0,0,-1,1875,1716,0,0
658,-692,0,0,0,0,0,0,0,0,0,-1,1882,1716,0,0
665,-692,0,0,0,0,0,0,0,0,0,-1,1889,1716,0,0
672,-692,0,0,0,0,0,0,0,0,0,-1,1896,1716,0,0
679,-692,0,0,0,0,0,0,0,0,0,-1,1903,1716,0,0
686,-692,0,0,0,0,0,0,0,0,0,-1,1910,1716,0,0
693,-692,0,0,0,0,0,0,0,0,0,-1,1917,1716,0,0
700,-692,0,0,0,0,0,0,0,0,0,-1,1924,1716,0,0
707,-692,0,0,0,0,0,0,0,0,0,-1,1931,1716,0,0
714,-692,0,0,0,0,0,0,0,0,0,-1,1938,1716,0,0
721,-692,0,0,0,0,0,0,0,0,0,-1,1945,1716,0,0
728,-692,0,0,0,0,0,0,0,0,0,-1,1952,1716,0,0
735,-692,0,0,0,0,0,0,0,0,0,-1,1959,1716,0,0
742,-692,0,0,0,0,0,0,0,0,0,-1,1966,1716,0,0
749,-692,0,0,0,0,0,0,0,0,0,-1,1973,1716,0,0
756,-692,0,0,0,0,0,0,0,0,0,-1,1980,1716,0,0
763,-692,0,0,0,0,0,0,0,0,0,-1,1987,1716,0,0
770,-692,0,0,0,0,0,0,0,0,0,-1,1994,1716,0,0
777,-692,0,0,0,0,0,0,0,0,0,-1,2001,1716,0,0
784,-692,0,0,0,0,0,0,0,0,0,-1,2008,1716,0,0
791,-692,0,0,0,0,0,0,0,0,0,-1,2015,1716,0,0
798,-692,0,0,0,0,0,0,0,0,0,-1,2022,1716,0,0
805,-692,0,0,0,0,0,0,0,0,0,-1,2029,1716,0,0
812,-692,0,0,0,0,0,0,0,0,0,-1,2036,1716,0,0
-700,-699,0,0,0,0,0,0,0,0,0,-1,524,1723,0,0
-693,-699,0,0,0,0,0,0,0,0,0,-1,531,1723,0,0
-686,-699,0,0,0,0,0,0,0,0,0,-1,538,1723,0,0
-679,-699,0,0,0,0,0,0,0,0,0,-1,545,1723,0,0
-672,-699,0,0,0,0,0,0,0,0,0,-1,552,1723,0,0
-665,-699,0,0,0,0,0,0,0,0,0,-1,559,1723,0,0
-658,-699,0,0,0,0,0,0,0,0,0,-1,566,1723,0,0
-651,-699,0,0,0,0,0,0,0,0,0,-1,573,1723,0,0
-644,-699,0,0,0,0,0,0,0,0,0,-1,580,1723,0,0
-637,-699,0,0,0,0,0,0,0,0,0,-1,587,1723,0,0
-630,-699,0,0,0,0,0,0,0,0,0,-1,594,1723,0,0
-623,-699,0,0,0,0,0,0,0,0,0,-1,601,1723,0,0
-616,-699,0,0,0,0,0,0,0,0,0,-1,608,1723,0,0
-609,-699,0,0,0,0,0,0,0,0,0,-1,615,1723,0,0
-602,-699,0,0,0,0,0,0,0,0,0,-1,622,1723,0,0
-595,-699,0,0,0,0,0,0,0,0,0,-1,629,1723,0,0
-588,-699,0,0,0,0,0,0,0,0,0,-1,636,1723,0,0
-581,-699,0,0,0,0,0,0,0,0,0,-1,643,1723,0,0
-574,-699,0,0,0,0,0,0,0,0,0,-1,650,1723,0,0
-567,-699,0,0,0,0,0,0,0,0,0,-1,657,1723,0,0
-560,-699,0,0,0,0,0,0,0,0,0,-1,664,1723,0,0
-553,-699,0,0,0,0,0,0,0,0,0,-1,671,1723,0,0
-546,-699,0,0,0,0,0,0,0,0,0,-1,678,1723,0,0
-539,-699,0,0,0,0,0,0,0,0,0,-1,685,1723,0,0
-532,-699,0,0,0,0,0,0,0,0,0,-1,692,1723,0,0
-525,-699,0,0,0,0,0,0,0,0,0,-1,699,1723,0,0
-518,-699,0,0,0,0,0,0,0,0,0,-1,706,1723,0,0
-511,-699,0,0,0,0,0,0,0,0,0,-1,713,1723,0,0
-504,-699,0,0,0,0,0,0,0,0,0,-1,720,1723,0,0
-497,-699,0,0,0,0,0,0,0,0,0,-1,727,1723,0,0
-490,-699,0,0,0,0,0,0,0,0,0,-1,734,1723,0,0
-483,-699,0,0,0,0,0,0,0,0,0,-1,741,1723,0,0
-476,-699,0,0,0,0,0,0,0,0,0,-1,748,1723,0,0
-469,-699,0,0,0,0,0,0,0,0,0,-1,755,1723,0,0
-462,-699,0,0,0,0,0,0,0,0,0,-1,762,1723,0,0
-455,-699,0,0,0,0,0,0,0,0,0,-1,769,1723,0,0
-448,-699,0,0,0,0,0,0,0,0,0,-1,776,1723,0,0
-441,-699,0,0,0,0,0,0,0,0,0,-1,783,1723,0,0
-434,-699,0,0,0,0,0,0,0,0,0,-1,790,1723,0,0
-427,-699,0,0,0,0,0,0,0,0,0,-1,797,1723,0,0
-420,-699,0,0,0,0,0,0,0,0,0,-1,804,1723,0,0
-413,-699,0,0,0,0,0,0,0,0,0,-1,811,1723,0,0
-406,-699,0,0,0,0,0,0,0,0,0,-1,818,1723,0,0
-399,-699,0,0,0,0,0,0,0,0,0,-1,825,1723,0,0
-392,-699,0,0,0,0,0,0,0,0,0,-1,832,1723,0,0
-385,-699,0,0,0,0,0,0,0,0,0,-1,839,1723,0,0
-378,-699,0,0,0,0,0,0,0,0,0,-1,846,1723,0,0
-371,-699,0,0,0,0,0,0,0,0,0,-1,853,1723,0,0
-364,-699,0,0,0,0,0,0,0,0,0,-1,860,1723,0,0
-357,-699,0,0,0,0,0,0,0,0,0,-1,867,1723,0,0
-350,-699,0,0,0,0,0,0,0,0,0,-1,874,1723,0,0
-343,-699,0,0,0,0,0,0,0,0,0,-1,881,1723,0,0
-336,-699,0,0,0,0,0,0,0,0,0,-1,888,1723,0,0
-329,-699,0,0,0,0,0,0,0,0,0,-1,895,1723,0,0
-322,-699,0,0,0,0,0,0,0,0,0,-1,902,1723,0,0
-315,-699,6.20001,19.5193,0,0,0,0,0,0,0,-1,909,1723,6.20001,-19.5193
-308,-699,6.98151,18.9218,0,0,0,0,0,0,0,-1,916,1723,6.98151,-18.9217
-301,-699,4.72729,12.8752,0,0,0,0,0,0,0,-1,923,1723,4.72732,-12.8752
-294,-699,6.90332,19.8601,0,0,0,0,0,0,0,-1,930,1723,6.90332,-19.8601
-287,-699,9.0968,36.3315,0,0,0,0,0,0,0,-1,937,1723,9.09678,-36.3315
-280,-699,9.53729,45.2391,0,0,0,0,0,0,0,-1,944,1723,9.53728,-45.2391
-273,-699,8.216,48.0923,0,0,0,0,0,0,0,-1,951,1723,8.21601,-48.0923
-266,-699,6.81915,20.8951,0,0,0,0,0,0,0,-1,958,1723,6.81914,-20.8952
-259,-699,5.39758,14.5466,0,0,0,0,0,0,0,-1,965,1723,5.39759,-14.5466
-252,-699,8.3866,31.6284,0,0,0,0,0,0,0,-1,972,1723,8.38657,-31.6284
-245,-699,7.94281,50.88,0,0,0,0,0,0,0,-1,979,1723,7.9428,-50.88
-238,-699,8.97211,55.1825,0,0,0,0,0,0,0,-1,986,1723,8.9721,-55.1825
-231,-699,8.63678,55.8887,-0.00613004,0.00158472,0.00487701,0.00394543,-0.00849075,1.11999,0.00733815,0.0485467,993,1723,8.63681,-55.8887
-224,-699,8.24719,56.2635,-0.00424339,0.00151532,0.0051264,0.00451565,-0.00724372,1.04128,0.00684991,0.0412829,1000,1723,8.24719,-56.2635
-217,-699,8.1347,56.8567,-0.00296807,0.00145278,0.00521616,0.00490754,-0.00642283,0.98581,0.00656106,0.0269657,1007,1723,8.13472,-56.8567
-210,-699,8.13702,57.4662,-0.00204505,0.0015687,0.00536846,0.0054262,-0.00590255,0.947729,0.00654258,0.0195544,1014,1723,8.13701,-57.4661
-203,-699,8.11975,58.1527,-0.00133361,0.0016109,0.00531697,0.00565568,-0.00537838,0.920463,0.00637119,0.0246243,1021,1723,8.11979,-58.1527
-196,-699,8.02551,58.8217,-0.000903506,0.00154513,0.00492279,0.00539357,-0.00475194,0.907277,0.00586142,0.0194725,1028,1723,8.02547,-58.8217
-189,-699,7.94324,59.4045,-0.000587548,0.00160099,0.00446243,0.00510136,-0.00408792,0.905635,0.00531617,0.00973522,1035,1723,7.94327,-59.4045
-182,-699,7.88269,59.9934,-0.000328001,0.00160482,0.00398417,0.00473811,-0.00346129,0.904381,0.00475302,0.0135358,1042,1723,7.88272,-59.9934
-175,-699,7.85559,60.5922,-2.89743e-05,0.00175401,0.00360212,0.00457332,-0.00284828,0.906706,0.00432327,0.0164185,1049,1723,7.85561,-60.5921
-168,-699,7.85022,61.1342,7.39973e-06,0.00170355,0.00306645,0.00403703,-0.00232609,0.920309,0.00371776,0.0170194,1056,1723,7.85018,-61.1342
-161,-699,7.82153,61.6583,-0.000111082,0.00168075,0.00244986,0.00339337,-0.0018237,0.960695,0.00305718,0.0140662,1063,1723,7.82157,-61.6584
-154,-699,7.76587,62.2023,-5.59734e-05,0.00174331,0.00197448,0.00301344,-0.00132611,0.999163,0.00256779,0.0138818,1070,1723,7.76585,-62.2023
-147,-699,7.71509,62.7216,4.87042e-06,0.00197105,0.00153207,0.00280832,-0.0008324,1.07065,0.00220275,0.0180871,1077,1723,7.71504,-62.7216
-140,-699,7.69531,63.2137,0.000424324,0.00188487,0.00131111,0.00265536,-0.000346168,1.0395,0.00189619,0.0123506,1084,1723,7.69531,-63.2138
-133,-699,7.69495,63.7164,0.000926006,0.0017168,0.00106358,0.0024561,0.000186701,0.963361,0.00157885,0.00987097,1091,1723,7.695,-63.7165
-126,-699,7.69592,64.2134,0.00132212,0.00161911,0.000819019,0.00230299,0.000638245,0.875079,0.00137295,0.0121752,1098,1723,7.6959,-64.2134
-119,-699,7.68677,64.7017,0.00176063,0.00151561,0.000643628,0.00229331,0.000982937,0.69135,0.00132853,0.0185822,1105,1723,7.68676,-64.7017
-112,-699,7.66895,65.1451,0.00227631,0.00141155,0.00047584,0.00248687,0.00120098,0.416606,0.00143607,0.0126491,1112,1723,7.66889,-65.1451
-105,-699,7.68542,65.576,0.00265444,0.00115697,0.000198575,0.00268032,0.00113108,0.129623,0.00155375,0.0138571,1119,1723,7.68537,-65.576
-98,-699,7.73389,65.9783,0.00293126,0.000889627,-6.38767e-05,0.00293325,0.00088763,-0.0312464,0.00173695,0.0167949,1126,1723,7.73391,-65.9783
-91,-699,7.76587,66.3746,0.0032287,0.000755415,-0.000468855,0.00331459,0.000669518,-0.181196,0.00202381,0.0223656,1133,1723,7.76584,-66.3747
-84,-699,7.79614,66.7844,0.00382563,0.000693981,-0.000828254,0.00403119,0.000488419,-0.243272,0.00254035,0.0275616,1140,1723,7.79612,-66.7844
-77,-699,7.76917,67.127,0.00438301,0.000354312,-0.00117869,0.00470252,3.48005e-05,-0.264713,0.00312348,0.0186525,1147,1723,7.76922,-67.127
-70,-699,7.77747,67.4929,0.00462496,-0.000120287,-0.00158008,0.00510295,-0.000598276,-0.293757,0.00361792,0.0185254,1154,1723,7.77748,-67.493
-63,-699,7.82971,67.871,0.0051073,-0.000453936,-0.00144735,0.00546144,-0.00080807,-0.239962,0.00393805,0.0158718,1161,1723,7.8297,-67.871
-56,-699,7.83447,68.1846,0.00561659,-0.000709342,-0.00391793,0.00748895,-0.0025817,-0.445808,0.00604001,0.0125481,1168,1723,7.83446,-68.1846
-49,-699,7.8468,68.4939,0.00595332,-0.00218532,-0.00700007,0.00998094,-0.00621293,-0.52211,0.00943352,0.028212,1175,1723,7.84684,-68.4939
-42,-699,7.86157,68.8623,0.00612708,-0.0047879,-0.00958786,0.0117019,-0.0103627,-0.526663,0.0127468,0.030316,1182,1723,7.86153,-68.8623
-35,-699,7.9364,69.1689,0.00650938,-0.00681889,-0.01266,0.0141521,-0.0144616,-0.543129,0.0165205,0.0255718,1189,1723,7.93638,-69.1689
-28,-699,8.10278,69.3022,0.00687237,-0.00878147,-0.0155441,0.0164489,-0.018358,-0.552164,0.0201058,0.0212715,1196,1723,8.10278,-69.3023
-21,-699,8.13037,69.4243,0.00758136,-0.0105086,-0.0185108,0.0191388,-0.022066,-0.558142,0.0238096,0.0149224,1203,1723,8.13034,-69.4243
-14,-699,8.16687,69.6505,0.00931552,-0.0125413,-0.0211238,0.0221704,-0.0253962,-0.546683,0.0274837,0.0133442,1210,1723,8.16681,-69.6505
-7,-699,8.22388,69.8793,0.0107985,-0.0115148,-0.0244846,0.0265485,-0.0272648,-0.571623,0.0310701,0.0106821,1217,1723,8.22388,-69.8793
0,-699,8.31702,70.0724,0.0111472,-0.010811,-0.0270648,0.029375,-0.0290388,-0.59271,0.0337254,0.0151933,1224,1723,8.31705,-70.0724
7,-699,8.47937,70.124,0.0106654,-0.00962403,-0.0292089,0.0314412,-0.0303998,-0.618258,0.0357056,0.0253188,1231,1723,8.47941,-70.1241
14,-699,8.58386,70.2659,0.010824,-0.00805348,-0.0311897,0.0339719,-0.0312014,-0.638467,0.0376392,0.0248223,1238,1723,8.58383,-70.2658
21,-699,8.58093,70.3854,0.00958497,-0.00556623,-0.0328285,0.0357006,-0.0316819,-0.672002,0.0389263,0.0188491,1245,1723,8.5809,-70.3854
28,-699,8.66003,70.4767,0.00727388,-0.00287368,-0.0340982,0.0366738,-0.0322736,-0.711541,0.0398338,0.0189952,1252,1723,8.66002,-70.4767
35,-699,8.7511,70.5989,0.0044483,-8.43609e-06,-0.0350637,0.0373544,-0.0329145,-0.753665,0.0405968,0.0173884,1259,1723,8.75104,-70.5988
42,-699,8.84558,70.6472,0.000667439,0.00265504,-0.0354432,0.0371184,-0.0337959,-0.799414,0.0409574,0.0154609,1266,1723,8.8456,-70.6472
49,-699,8.90015,70.6876,-0.00387019,0.0047403,-0.0351249,0.0358228,-0.0349527,-0.846379,0.0408632,0.0187933,1273,1723,8.9002,-70.6876
56,-699,8.99817,70.7405,-0.00838356,0.00656149,-0.0343605,0.0342527,-0.0360747,-0.892468,0.0406081,0.0193385,1280,1723,8.99813,-70.7405
63,-699,9.09155,70.7047,-0.0127795,0.00759221,-0.0332413,0.0321732,-0.0373605,-0.934067,0.0401825,0.0150705,1287,1723,9.09154,-70.7047
70,-699,9.14771,70.6982,-0.0155695,0.00712998,-0.0323411,0.030055,-0.0384945,-0.954154,0.039677,0.0120438,1294,1723,9.14771,-70.6982
77,-699,9.23499,70.6672,-0.0178648,0.00604085,-0.0306124,0.0269513,-0.0387752,-0.971524,0.0381513,0.0133973,1301,1723,9.23498,-70.6672
84,-699,9.33337,70.6014,-0.0178271,0.0039997,-0.0300977,0.0251016,-0.038929,-0.959325,0.0372543,0.0169406,1308,1723,9.33339,-70.6014
91,-699,9.43298,70.5131,-0.0163338,0.00210048,-0.0306053,0.0248464,-0.0390797,-0.931659,0.0372115,0.016112,1315,1723,9.43293,-70.513
98,-699,9.48657,70.4055,-0.0136705,-0.0019959,-0.0303697,0.0230924,-0.0387588,-0.880344,0.0360897,0.013889,1322,1723,9.48656,-70.4055
105,-699,9.55103,70.3153,-0.00874537,-0.00438793,-0.0313409,0.0248499,-0.0379832,-0.820101,0.0365399,0.0189323,1329,1723,9.55101,-70.3153
112,-699,9.65869,70.209,-0.00244399,-0.00620089,-0.0330899,0.0288207,-0.0374656,-0.757045,0.0383788,0.0260186,1336,1723,9.65869,-70.209
119,-699,9.6936,70.0422,0.00272915,-0.00731465,-0.0349711,0.033037,-0.0376225,-0.714085,0.040824,0.0185724,1343,1723,9.6936,-70.0423
126,-699,9.78699,69.8395,0.00821054,-0.0083813,-0.0364838,0.0373297,-0.0375005,-0.673606,0.0432033,0.019512,1350,1723,9.78703,-69.8394
133,-699,9.91028,69.6563,0.0130252,-0.00855101,-0.0375331,0.0412898,-0.0368157,-0.645456,0.0451189,0.0178116,1357,1723,9.9103,-69.6563
140,-699,9.99438,69.4459,0.016029,-0.00818606,-0.0377973,0.0436106,-0.0357677,-0.630398,0.0459036,0.019007,1364,1723,9.99433,-69.4459
147,-699,10.019,69.265,0,0,0,0,0,0,0,-1,1371,1723,10.0191,-69.2651
154,-699,10.1372,69.124,0,0,0,0,0,0,0,-1,1378,1723,10.1372,-69.1241
161,-699,10.0854,68.7769,0.0185486,-0.0050173,-0.0319569,0.0408256,-0.0272943,-0.608774,0.0395868,0.0320393,1385,1723,10.0854,-68.7769
168,-699,10.2042,68.5031,0.0178898,-0.00359673,-0.0281344,0.0372623,-0.0229693,-0.603015,0.0350996,0.014042,1392,1723,10.2043,-68.503
175,-699,10.2507,68.225,0.0163493,-0.00193647,-0.0228968,0.0318612,-0.0174483,-0.595443,0.0288714,0.0194561,1399,1723,10.2508,-68.225
182,-699,10.2924,67.8799,0.0144203,-0.000983186,-0.0187757,0.0270125,-0.0135754,-0.590765,0.0238576,0.0202854,1406,1723,10.2924,-67.8799
189,-699,10.2802,67.5419,0.0117786,4.43327e-05,-0.0113386,0.0186781,-0.00685523,-0.546646,0.0152594,0.0184976,1413,1723,10.2801,-67.5419
196,-699,10.2614,67.1234,0.00843711,3.88827e-05,-0.00267566,0.00921712,-0.00074113,-0.283661,0.0064061,0.0205603,1420,1723,10.2613,-67.1234
203,-699,10.2988,66.7493,0.00591847,0.000166323,0.00056915,0.00597424,0.000110549,0.0976836,0.0039465,0.0169557,1427,1723,10.2988,-66.7493
210,-699,10.3805,66.4215,0.00530524,0.000273746,0.000284392,0.00532126,0.000257723,0.0562835,0.0034648,0.0154119,1434,1723,10.3804,-66.4215
217,-699,10.3969,66.0304,0.00463785,0.000364808,8.27271e-05,0.00463945,0.000363207,0.0193506,0.00297929,0.0154749,1441,1723,10.3969,-66.0304
224,-699,10.3916,65.6016,0.00398883,0.000555238,-0.000184514,0.00399872,0.000545351,-0.0535324,0.0025039,0.0171098,1448,1723,10.3916,-65.6015
231,-699,10.4078,65.1549,0.0033394,0.000790152,-0.000547817,0.00345214,0.000677416,-0.202959,0.00211215,0.0135099,1455,1723,10.4078,-65.155
238,-699,10.3958,64.6605,0.00279712,0.0010561,-0.000874269,0.00316036,0.000692864,-0.393777,0.00191813,0.01115,1462,1723,10.3957,-64.6605
245,-699,10.3993,64.1875,0.00228389,0.00130205,-0.00101035,0.00291628,0.000669664,-0.55925,0.00176386,0.0126712,1469,1723,10.3993,-64.1875
252,-699,10.3898,63.7512,0.00170743,0.00163307,-0.00108853,0.00275942,0.000581079,-0.768327,0.00167976,0.0113286,1476,1723,10.3898,-63.7512
259,-699,10.3751,63.2904,0.00110232,0.00186958,-0.00126262,0.00280556,0.000166335,-0.932885,0.00181747,0.0109875,1483,1723,10.3752,-63.2904
266,-699,10.3612,62.7875,0.00056896,0.00203577,-0.00151046,0.00298146,-0.000376732,-1.01141,0.00212438,0.0131927,1490,1723,10.3612,-62.7875
273,-699,10.3405,62.2526,0.000114193,0.00222139,-0.00167827,0.00314937,-0.000813792,-1.0657,0.00241695,0.0133092,1497,1723,10.3405,-62.2526
280,-699,10.3301,61.7006,-0.000386453,0.00238373,-0.00180678,0.00327524,-0.00127797,-1.11242,0.00271179,0.0145673,1504,1723,10.3301,-61.7006
287,-699,10.3151,61.1487,-0.000903434,0.00240846,-0.00191765,0.00328619,-0.00178117,-1.14155,0.00296834,0.0122365,1511,1723,10.315,-61.1487
294,-699,10.2854,60.6041,-0.00144901,0.00247507,-0.0019302,0.00326535,-0.00223929,-1.18219,0.00319646,0.0112641,1518,1723,10.2855,-60.6042
301,-699,10.2644,60.0771,-0.00182361,0.00264605,-0.00223496,0.00357184,-0.00274939,-1.17808,0.00365985,0.0127272,1525,1723,10.2644,-60.0771
308,-699,10.2328,59.5245,-0.00202143,0.00316618,-0.00284779,0.00442435,-0.0032796,-1.15478,0.00446422,0.0178044,1532,1723,10.2328,-59.5246
315,-699,10.2097,58.9098,-0.00205469,0.00401175,-0.00379565,0.00583727,-0.00388022,-1.1225,0.00564819,0.0200643,1539,1723,10.2097,-58.9098
322,-699,10.1331,58.2855,-0.00240692,0.00480705,-0.00459275,0.0070399,-0.00463977,-1.11827,0.00679055,0.0201192,1546,1723,10.133,-58.2855
329,-699,10.0692,57.6885,-0.0030571,0.00679759,-0.00527306,0.00908717,-0.00534667,-1.16116,0.00842614,0.0164945,1553,1723,10.0692,-57.6884
336,-699,10.0439,57.0969,-0.00337723,0.00874823,-0.0063626,0.0114741,-0.00610309,-1.16603,0.0103049,0.0151567,1560,1723,10.044,-57.0969
343,-699,10.0619,56.4893,-0.00367497,0.0111338,-0.00761943,0.0143539,-0.00689512,-1.17094,0.0125175,0.0219051,1567,1723,10.0619,-56.4893
350,-699,10.0593,55.8191,-0.00398959,0.0140558,-0.00880413,0.0176395,-0.00757332,-1.18423,0.0149383,0.0376823,1574,1723,10.0593,-55.8191
357,-699,10.1693,54.8916,-0.00420926,0.0172102,-0.0101593,0.0212623,-0.0082613,-1.19128,0.0175877,0.0444607,1581,1723,10.1693,-54.8915
364,-699,10.3047,54.142,-0.00469886,0.0206471,-0.0113299,0.0249733,-0.00902502,-1.20605,0.0203361,0.0474888,1588,1723,10.3047,-54.142
371,-699,9.35461,53.7878,0,0,0,0,0,0,0,-1,1595,1723,9.35464,-53.7879
378,-699,8.00952,52.1923,0,0,0,0,0,0,0,-1,1602,1723,8.00949,-52.1922
385,-699,8.04944,42.8464,0,0,0,0,0,0,0,-1,1609,1723,8.04943,-42.8464
392,-699,8.04492,42.0624,0,0,0,0,0,0,0,-1,1616,1723,8.04492,-42.0623
399,-699,8.49963,41.4828,0,0,0,0,0,0,0,-1,1623,1723,8.49961,-41.4828
406,-699,11.7264,44.1525,0,0,0,0,0,0,0,-1,1630,1723,11.7264,-44.1525
413,-699,12.3215,44.3011,0,0,0,0,0,0,0,-1,1637,1723,12.3215,-44.3011
420,-699,8.41907,38.2246,0,0,0,0,0,0,0,-1,1644,1723,8.41902,-38.2247
427,-699,2.98743,11.8593,0,0,0,0,0,0,0,-1,1651,1723,2.98746,-11.8592
434,-699,4.66455,8.90222,0,0,0,0,0,0,0,-1,1658,1723,4.66456,-8.90223
441,-699,0,0,0,0,0,0,0,0,0,-1,1665,1723,0,0
448,-699,0,0,0,0,0,0,0,0,0,-1,1672,1723,0,0
455,-699,0,0,0,0,0,0,0,0,0,-1,1679,1723,0,0
462,-699,0,0,0,0,0,0,0,0,0,-1,1686,1723,0,0
469,-699,0,0,0,0,0,0,0,0,0,-1,1693,1723,0,0
476,-699,0,0,0,0,0,0,0,0,0,-1,1700,1723,0,0
483,-699,0,0,0,0,0,0,0,0,0,-1,1707,1723,0,0
490,-699,0,0,0,0,0,0,0,0,0,-1,1714,1723,0,0
497,-699,0,0,0,0,0,0,0,0,0,-1,1721,1723,0,0
504,-699,0,0,0,0,0,0,0,0,0,-1,1728,1723,0,0
511,-699,0,0,0,0,0,0,0,0,0,-1,1735,1723,0,0
518,-699,0,0,0,0,0,0,0,0,0,-1,1742,1723,0,0
525,-699,0,0,0,0,0,0,0,0,0,-1,1749,1723,0,0
532,-699,0,0,0,0,0,0,0,0,0,-1,1756,1723,0,0
539,-699,0,0,0,0,0,0,0,0,0,-1,1763,1723,0,0
546,-699,0,0,0,0,0,0,0,0,0,-1,1770,1723,0,0
553,-699,0,0,0,0,0,0,0,0,0,-1,1777,1723,0,0
560,-699,0,0,0,0,0,0,0,0,0,-1,1784,1723,0,0
567,-699,0,0,0,0,0,0,0,0,0,-1,1791,1723,0,0
574,-699,0,0,0,0,0,0,0,0,0,-1,1798,1723,0,0
581,-699,0,0,0,0,0,0,0,0,0,-1,1805,1723,0,0
588,-699,0,0,0,0,0,0,0,0,0,-1,1812,1723,0,0
595,-699,0,0,0,0,0,0,0,0,0,-1,1819,1723,0,0
602,-699,0,0,0,0,0,0,0,0,0,-1,1826,1723,0,0
609,-699,0,0,0,0,0,0,0,0,0,-1,1833,1723,0,0
616,-699,0,0,0,0,0,0,0,0,0,-1,1840,1723,0,0
623,-699,0,0,0,0,0,0,0,0,0,-1,1847,1723,0,0
630,-699,0,0,0,0,0,0,0,0,0,-1,1854,1723,0,0
637,-699,0,0,0,0,0,0,0,0,0,-1,1861,1723,0,0
644,-699,0,0,0,0,0,0,0,0,0,-1,1868,1723,0,0
651,-699,0,0,0,0,0,0,0,0,0,-1,1875,1723,0,0
658,-699,0,0,0,0,0,0,0,0,0,-1,1882,1723,0,0
665,-699,0,0,0,0,0,0,0,0,0,-1,1889,1723,0,0
672,-699,0,0,0,0,0,0,0,0,0,-1,1896,1723,0,0
679,-699,0,0,0,0,0,0,0,0,0,-1,1903,1723,0,0
686,-699,0,0,0,0,0,0,0,0,0,-1,1910,1723,0,0
693,-699,0,0,0,0,0,0,0,0,0,-1,1917,1723,0,0
700,-699,0,0,0,0,0,0,0,0,0,-1,1924,1723,0,0
707,-699,0,0,0,0,0,0,0,0,0,-1,1931,1723,0,0
714,-699,0,0,0,0,0,0,0,0,0,-1,1938,1723,0,0
721,-699,0,0,0,0,0,0,0,0,0,-1,1945,1723,0,0
728,-699,0,0,0,0,0,0,0,0,0,-1,1952,1723,0,0
735,-699,0,0,0,0,0,0,0,0,0,-1,1959,1723,0,0
742,-699,0,0,0,0,0,0,0,0,0,-1,1966,1723,0,0
749,-699,0,0,0,0,0,0,0,0,0,-1,1973,1723,0,0
756,-699,0,0,0,0,0,0,0,0,0,-1,1980,1723,0,0
763,-699,0,0,0,0,0,0,0,0,0,-1,1987,1723,0,0
770,-699,0,0,0,0,0,0,0,0,0,-1,1994,1723,0,0
777,-699,0,0,0,0,0,0,0,0,0,-1,2001,1723,0,0
784,-699,0,0,0,0,0,0,0,0,0,-1,2008,1723,0,0
791,-699,0,0,0,0,0,0,0,0,0,-1,2015,1723,0,0
798,-699,0,0,0,0,0,0,0,0,0,-1,2022,1723,0,0
805,-699,0,0,0,0,0,0,0,0,0,-1,2029,1723,0,0
812,-699,0,0,0,0,0,0,0,0,0,-1,2036,1723,0,0
-700,-706,0,0,0,0,0,0,0,0,0,-1,524,1730,0,0
-693,-706,0,0,0,0,0,0,0,0,0,-1,531,1730,0,0
-686,-706,0,0,0,0,0,0,0,0,0,-1,538,1730,0,0
-679,-706,0,0,0,0,0,0,0,0,0,-1,545,1730,0,0
-672,-706,0,0,0,0,0,0,0,0,0,-1,552,1730,0,0
-665,-706,0,0,0,0,0,0,0,0,0,-1,559,1730,0,0
-658,-706,0,0,0,0,0,0,0,0,0,-1,566,1730,0,0
-651,-706,0,0,0,0,0,0,0,0,0,-1,573,1730,0,0
-644,-706,0,0,0,0,0,0,0,0,0,-1,580,1730,0,0
-637,-706,0,0,0,0,0,0,0,0,0,-1,587,1730,0,0
-630,-706,0,0,0,0,0,0,0,0,0,-1,594,1730,0,0
-623,-706,0,0,0,0,0,0,0,0,0,-1,601,1730,0,0
-616,-706,0,0,0,0,0,0,0,0,0,-1,608,1730,0,0
-609,-706,0,0,0,0,0,0,0,0,0,-1,615,1730,0,0
-602,-706,0,0,0,0,0,0,0,0,0,-1,622,1730,0,0
-595,-706,0,0,0,0,0,0,0,0,0,-1,629,1730,0,0
-588,-706,0,0,0,0,0,0,0,0,0,-1,636,1730,0,0
-581,-706,0,0,0,0,0,0,0,0,0,-1,643,1730,0,0
-574,-706,0,0,0,0,0,0,0,0,0,-1,650,1730,0,0
-567,-706,0,0,0,0,0,0,0,0,0,-1,657,1730,0,0
-560,-706,0,0,0,0,0,0,0,0,0,-1,664,1730,0,0
-553,-706,0,0,0,0,0,0,0,0,0,-1,671,1730,0,0
-546,-706,0,0,0,0,0,0,0,0,0,-1,678,1730,0,0
-539,-706,0,0,0,0,0,0,0,0,0,-1,685,1730,0,0
-532,-706,0,0,0,0,0,0,0,0,0,-1,692,1730,0,0
-525,-706,0,0,0,0,0,0,0,0,0,-1,699,1730,0,0
-518,-706,0,0,0,0,0,0,0,0,0,-1,706,1730,0,0
-511,-706,0,0,0,0,0,0,0,0,0,-1,713,1730,0,0
-504,-706,0,0,0,0,0,0,0,0,0,-1,720,1730,0,0
-497,-706,0,0,0,0,0,0,0,0,0,-1,727,1730,0,0
-490,-706,0,0,0,0,0,0,0,0,0,-1,734,1730,0,0
-483,-706,0,0,0,0,0,0,0,0,0,-1,741,1730,0,0
-476,-706,0,0,0,0,0,0,0,0,0,-1,748,1730,0,0
-469,-706,0,0,0,0,0,0,0,0,0,-1,755,1730,0,0
-462,-706,0,0,0,0,0,0,0,0,0,-1,762,1730,0,0
-455,-706,0,0,0,0,0,0,0,0,0,-1,769,1730,0,0
-448,-706,0,0,0,0,0,0,0,0,0,-1,776,1730,0,0
-441,-706,0,0,0,0,0,0,0,0,0,-1,783,1730,0,0
-434,-706,0,0,0,0,0,0,0,0,0,-1,790,1730,0,0
-427,-706,0,0,0,0,0,0,0,0,0,-1,797,1730,0,0
-420,-706,0,0,0,0,0,0,0,0,0,-1,804,1730,0,0
-413,-706,0,0,0,0,0,0,0,0,0,-1,811,1730,0,0
-406,-706,0,0,0,0,0,0,0,0,0,-1,818,1730,0,0
-399,-706,0,0,0,0,0,0,0,0,0,-1,825,1730,0,0
-392,-706,0,0,0,0,0,0,0,0,0,-1,832,1730,0,0
-385,-706,0,0,0,0,0,0,0,0,0,-1,839,1730,0,0
-378,-706,0,0,0,0,0,0,0,0,0,-1,846,1730,0,0
-371,-706,0,0,0,0,0,0,0,0,0,-1,853,1730,0,0
-364,-706,0,0,0,0,0,0,0,0,0,-1,860,1730,0,0
-357,-706,0,0,0,0,0,0,0,0,0,-1,867,1730,0,0
-350,-706,0,0,0,0,0,0,0,0,0,-1,874,1730,0,0
-343,-706,0,0,0,0,0,0,0,0,0,-1,881,1730,0,0
-336,-706,0,0,0,0,0,0,0,0,0,-1,888,1730,0,0
-329,-706,0,0,0,0,0,0,0,0,0,-1,895,1730,0,0
-322,-706,0,0,0,0,0,0,0,0,0,-1,902,1730,0,0
-315,-706,0,0,0,0,0,0,0,0,0,-1,909,1730,0,0
-308,-706,5.08191,14.6245,0,0,0,0,0,0,0,-1,916,1730,5.08188,-14.6245
-301,-706,7.45007,21.1975,0,0,0,0,0,0,0,-1,923,1730,7.45005,-21.1976
-294,-706,11.8603,21.026,0,0,0,0,0,0,0,-1,930,1730,11.8603,-21.026
-287,-706,10.3292,20.8425,0,0,0,0,0,0,0,-1,937,1730,10.3292,-20.8425
-280,-706,7.9162,21.8951,0,0,0,0,0,0,0,-1,944,1730,7.9162,-21.8952
-273,-706,7.38953,20.6355,0,0,0,0,0,0,0,-1,951,1730,7.38955,-20.6355
-266,-706,9.66724,22.8231,0,0,0,0,0,0,0,-1,958,1730,9.66722,-22.8231
-259,-706,3.47852,20.7363,0,0,0,0,0,0,0,-1,965,1730,3.47851,-20.7364
-252,-706,3.84259,20.1979,0,0,0,0,0,0,0,-1,972,1730,3.84256,-20.1979
-245,-706,4.698,19.2992,0,0,0,0,0,0,0,-1,979,1730,4.69799,-19.2991
-238,-706,7.87585,53.6793,0,0,0,0,0,0,0,-1,986,1730,7.87588,-53.6793
-231,-706,9.54016,56.0117,0,0,0,0,0,0,0,-1,993,1730,9.54016,-56.0118
-224,-706,8.9436,56.353,0,0,0,0,0,0,0,-1,1000,1730,8.94358,-56.353
-217,-706,8.44849,56.7866,-0.0023535,0.00157693,0.00703084,0.00691205,-0.00768861,0.921677,0.00843367,0.039179,1007,1730,8.44848,-56.7866
-210,-706,8.47931,57.4336,-0.00137092,0.00176958,0.00722816,0.00759609,-0.00719742,0.892357,0.00854207,0.0391781,1014,1730,8.4793,-57.4335
-203,-706,8.61572,58.0836,-0.000640906,0.00187639,0.00709554,0.00782405,-0.00658857,0.873178,0.00833131,0.0320329,1021,1730,8.61574,-58.0837
-196,-706,8.62122,58.7145,-0.000321061,0.00181345,0.00656779,0.00740013,-0.00590774,0.865943,0.00769939,0.0260521,1028,1730,8.62125,-58.7145
-189,-706,8.47095,59.4005,-0.000238852,0.00198246,0.00595271,0.00692724,-0.00518364,0.877628,0.00701633,0.0214649,1035,1730,8.47089,-59.4005
-182,-706,8.40991,60.0063,-0.000262141,0.00198912,0.00529213,0.00627401,-0.00454703,0.890186,0.00627399,0.0163486,1042,1730,8.40986,-60.0064
-175,-706,8.39001,60.5879,-0.000275584,0.00211685,0.00475492,0.00582371,-0.00398244,0.908628,0.00569476,0.0164129,1049,1730,8.39007,-60.5879
-168,-706,8.37219,61.1356,-0.000524841,0.00203773,0.00408256,0.00503534,-0.00352246,0.937452,0.00496652,0.0171653,1056,1730,8.37214,-61.1357
-161,-706,8.33679,61.6783,-0.000914697,0.00197195,0.00332733,0.00415551,-0.00309826,0.990039,0.00420277,0.0136485,1063,1730,8.33675,-61.6784
-154,-706,8.28577,62.2333,-0.00110231,0.00197299,0.00275032,0.00358631,-0.00271563,1.04029,0.00364999,0.0128504,1070,1730,8.28576,-62.2332
-147,-706,8.22119,62.7433,-0.00133751,0.00219642,0.00219324,0.00324592,-0.00238701,1.12448,0.00326475,0.0132486,1077,1730,8.22115,-62.7432
-140,-706,8.2002,63.2472,-0.00105956,0.00203763,0.00196241,0.00298888,-0.0020108,1.11944,0.00290492,0.0128973,1084,1730,8.20015,-63.2472
-133,-706,8.18542,63.723,-0.000630654,0.00173897,0.00168072,0.00261051,-0.0015022,1.09242,0.00240304,0.00996262,1091,1730,8.18541,-63.7231
-126,-706,8.17578,64.2108,-0.000328804,0.00156733,0.00142363,0.00232969,-0.00109116,1.07915,0.00201772,0.0152053,1098,1730,8.17583,-64.2109
-119,-706,8.14001,64.6964,-2.17047e-06,0.00143059,0.00129369,0.002193,-0.000764584,1.03826,0.00177271,0.0208406,1105,1730,8.14006,-64.6964
-112,-706,8.13281,65.1584,0.000496227,0.00138489,0.00120689,0.00222664,-0.000345525,0.961779,0.00161199,0.0135933,1112,1730,8.13276,-65.1584
-105,-706,8.10583,65.5885,0.000894294,0.00111973,0.000928504,0.00194233,7.16897e-05,0.8458,0.00127166,0.0102675,1119,1730,8.10579,-65.5886
-98,-706,8.12537,65.9899,0.00119614,0.00091404,0.000693576,0.00176286,0.000347317,0.685083,0.00107828,0.0126218,1126,1730,8.12533,-65.9899
-91,-706,8.14734,66.4077,0.00157465,0.000829612,0.00044617,0.00178337,0.000620893,0.437559,0.00104534,0.0166157,1133,1730,8.14738,-66.4078
-84,-706,8.15503,66.8298,0.00201173,0.00071092,0.000148128,0.00202838,0.000694265,0.111964,0.00119035,0.0196332,1140,1730,8.15504,-66.8299
-77,-706,8.13574,67.1461,0.00247109,0.000564217,-0.000129116,0.00247979,0.000555514,-0.0673015,0.00150265,0.0173499,1147,1730,8.13577,-67.1461
-70,-706,8.12598,67.5391,0.00280305,0.000322151,-0.00046662,0.00288791,0.000237289,-0.179898,0.00185125,0.0188796,1154,1730,8.12601,-67.539
-63,-706,8.13867,67.8906,0.00325955,0.000109955,-0.000499492,0.00333686,3.26382e-05,-0.153571,0.00221378,0.0147475,1161,1730,8.13869,-67.8907
-56,-706,8.14856,68.2002,0.00373245,-0.000128906,-0.00168516,0.00436444,-0.000760899,-0.358801,0.00319362,0.0151146,1168,1730,8.14861,-68.2002
-49,-706,8.1438,68.5067,0.00407245,-0.000851824,-0.00309258,0.00556331,-0.00234268,-0.449206,0.00468907,0.0169362,1175,1730,8.14376,-68.5067
-42,-706,8.203,68.7864,0.00441426,-0.00234473,-0.00443281,0.00660888,-0.00453935,-0.459709,0.0064733,0.0205852,1182,1730,8.20304,-68.7864
-35,-706,8.24609,69.0242,0.00491349,-0.00360545,-0.00623442,0.00820458,-0.00689655,-0.485711,0.00872953,0.0185878,1189,1730,8.24604,-69.0242
-28,-706,8.29236,69.2726,0.00530898,-0.00504774,-0.00813362,0.00977278,-0.00951154,-0.501928,0.0111341,0.0128865,1196,1730,8.29238,-69.2726
-21,-706,8.31348,69.4794,0.00589689,-0.00640927,-0.010226,0.0116783,-0.0121907,-0.51456,0.0137818,0.0144956,1203,1730,8.31345,-69.4794
-14,-706,8.36926,69.6993,0.00720318,-0.00799187,-0.012204,0.0139813,-0.01477,-0.506982,0.0166017,0.0134808,1210,1730,8.36922,-69.6994
-7,-706,8.43604,69.922,0.00833202,-0.00742949,-0.0148536,0.017266,-0.0163635,-0.541499,0.0194183,0.0105266,1217,1730,8.43609,-69.922
0,-706,8.50525,70.1173,0.00862242,-0.00702299,-0.0169845,0.0194992,-0.0178997,-0.56959,0.0215988,0.0149613,1224,1730,8.50525,-70.1173
7,-706,8.54419,70.2482,0.00828773,-0.00627528,-0.0188406,0.021205,-0.0191925,-0.601,0.0233331,0.0170434,1231,1730,8.54421,-70.2481
14,-706,8.61902,70.3513,0.0084246,-0.00529469,-0.0204686,0.0231524,-0.0200225,-0.623715,0.0249489,0.0162564,1238,1730,8.619,-70.3513
21,-706,8.68176,70.4707,0.00751507,-0.00363544,-0.0218495,0.0244894,-0.0206098,-0.660481,0.0260701,0.0133022,1245,1730,8.68177,-70.4706
28,-706,8.73706,70.5831,0.00587641,-0.00180028,-0.0229658,0.0253224,-0.0212462,-0.702597,0.0269207,0.0139472,1252,1730,8.73704,-70.5832
35,-706,8.77844,70.6656,0.0038945,0.000172795,-0.0238034,0.0259097,-0.0218424,-0.746389,0.027603,0.0161877,1259,1730,8.77848,-70.6656
42,-706,8.83362,70.7183,0.00123649,0.00199341,-0.0241853,0.0258032,-0.0225733,-0.793222,0.0279509,0.0131453,1266,1730,8.83358,-70.7183
49,-706,8.89832,70.7562,-0.00196527,0.00340818,-0.0240266,0.0248978,-0.0234549,-0.841078,0.0279205,0.0159966,1273,1730,8.89831,-70.7562
56,-706,8.99609,70.7834,-0.00503825,0.00457408,-0.0234907,0.0237452,-0.0242094,-0.886305,0.027687,0.0164134,1280,1730,8.99608,-70.7834
63,-706,9.07581,70.7468,-0.00805097,0.00535611,-0.0226869,0.0223091,-0.025004,-0.929051,0.027331,0.0126388,1287,1730,9.07584,-70.7468
70,-706,9.11462,70.7358,-0.00999301,0.00506396,-0.0219245,0.0207165,-0.0256456,-0.950782,0.0268176,0.0125358,1294,1730,9.11457,-70.7359
77,-706,9.1626,70.7087,-0.0114775,0.00431623,-0.0205693,0.0184524,-0.0256137,-0.96868,0.0255533,0.0128044,1301,1730,9.16263,-70.7088
84,-706,9.25232,70.6615,-0.0114556,0.00287308,-0.0199952,0.0169487,-0.0255313,-0.957424,0.0246921,0.0110494,1308,1730,9.25231,-70.6615
91,-706,9.31934,70.6073,-0.0106899,0.00145409,-0.01996,0.0162452,-0.025481,-0.933055,0.0242866,0.0117309,1315,1730,9.31932,-70.6073
98,-706,9.35486,70.5199,-0.00908344,-0.00153246,-0.0193015,0.0143593,-0.0249752,-0.881982,0.0229839,0.0150088,1322,1730,9.3548,-70.5199
105,-706,9.41223,70.4308,-0.00573002,-0.00334421,-0.019507,0.0150063,-0.0240806,-0.815936,0.0227686,0.0183842,1329,1730,9.41224,-70.4307
112,-706,9.42468,70.3243,-0.0014455,-0.00475898,-0.0202018,0.0171673,-0.0233718,-0.744485,0.0234965,0.0190123,1336,1730,9.42468,-70.3243
119,-706,9.46338,70.1882,0.00187975,-0.00564183,-0.0210671,0.0195191,-0.0232812,-0.697071,0.0247425,0.0159564,1343,1730,9.46341,-70.1882
126,-706,9.55286,69.994,0.00550434,-0.00651645,-0.0215346,0.0218516,-0.0228637,-0.649309,0.0258186,0.0164298,1350,1730,9.55285,-69.994
133,-706,9.64856,69.7451,0.00858084,-0.00669058,-0.0216298,0.0238831,-0.0219928,-0.615717,0.026494,0.0139023,1357,1730,9.64861,-69.7452
140,-706,9.70227,69.4691,0.0103317,-0.00642182,-0.0212863,0.0248302,-0.0209203,-0.59794,0.0264462,0.0142726,1364,1730,9.70226,-69.4691
147,-706,9.78467,69.2368,0.0113657,-0.00580751,-0.0203034,0.0248236,-0.0192653,-0.585346,0.0255221,0.0266872,1371,1730,9.78471,-69.2369
154,-706,9.84961,69.0702,0.0119784,-0.00492091,-0.0186821,0.0240329,-0.0169753,-0.573021,0.0237927,0.0261917,1378,1730,9.8496,-69.0703
161,-706,9.81335,68.7611,0.0111468,-0.00371566,-0.0164401,0.0217572,-0.0143261,-0.573133,0.0209795,0.0128552,1385,1730,9.81335,-68.7611
168,-706,9.84558,68.4766,0.0101556,-0.00258427,-0.0138172,0.0190005,-0.0114292,-0.56941,0.0177489,0.0122555,1392,1730,9.8456,-68.4766
175,-706,9.89893,68.2021,0.00868357,-0.00127869,-0.0105074,0.0153307,-0.00792581,-0.564057,0.0136521,0.0121882,1399,1730,9.89888,-68.2022
182,-706,9.91711,67.8782,0.00752768,-0.000389831,-0.00826533,0.0127334,-0.00559554,-0.562061,0.0108464,0.0124819,1406,1730,9.91709,-67.8781
189,-706,9.92468,67.5203,0.00599057,0.000471188,-0.00428834,0.00833046,-0.00186871,-0.49949,0.00627007,0.0158034,1413,1730,9.92469,-67.5202
196,-706,9.94336,67.1526,0.00460239,0.000702247,-0.000756264,0.0047439,0.000560737,-0.184979,0.00299325,0.013038,1420,1730,9.94331,-67.1526
203,-706,9.95337,66.8003,0.00373968,0.000845519,-0.000204626,0.00375408,0.000831122,-0.0702372,0.00227682,0.0141945,1427,1730,9.95334,-66.8003
210,-706,9.96338,66.4205,0.00326922,0.000995092,-0.000485656,0.0033686,0.000895719,-0.20183,0.00201466,0.0138656,1434,1730,9.96332,-66.4206
217,-706,9.95789,66.0441,0.00274723,0.00121539,-0.000707062,0.0030237,0.00093892,-0.37273,0.00178703,0.014435,1441,1730,9.95789,-66.0441
224,-706,9.95203,65.6273,0.00222532,0.00148446,-0.000984832,0.00290709,0.000802697,-0.605514,0.00173359,0.0201133,1448,1730,9.952,-65.6273
231,-706,9.96704,65.1548,0.00168894,0.00173489,-0.00126941,0.00298153,0.000442297,-0.794447,0.00185789,0.0151396,1455,1730,9.96699,-65.1548
238,-706,9.95398,64.6896,0.00122596,0.00203277,-0.00149993,0.00318259,7.61414e-05,-0.916764,0.00209681,0.00934582,1462,1730,9.95398,-64.6896
245,-706,9.95752,64.2097,0.000770051,0.00227728,-0.00166181,0.00334837,-0.000301039,-0.998274,0.00233906,0.0117977,1469,1730,9.95746,-64.2097
252,-706,9.94934,63.7415,0.000225774,0.00261286,-0.00175666,0.00354308,-0.000704451,-1.08379,0.00262853,0.0122944,1476,1730,9.94938,-63.7415
259,-706,9.9325,63.2792,-0.000326632,0.00284968,-0.00190584,0.00374234,-0.00121929,-1.13276,0.00298551,0.0128025,1483,1730,9.93244,-63.2792
266,-706,9.8938,62.787,-0.000857753,0.00305251,-0.0021151,0.00397769,-0.00178293,-1.15846,0.00340541,0.0128516,1490,1730,9.8938,-62.787
273,-706,9.84082,62.2648,-0.00135601,0.00327069,-0.00227631,0.00420283,-0.00228814,-1.18213,0.00380152,0.013491,1497,1730,9.84086,-62.2648
280,-706,9.81006,61.7264,-0.00189453,0.00348587,-0.00239435,0.00439707,-0.00280573,-1.20716,0.00419223,0.0121254,1504,1730,9.81003,-61.7265
287,-706,9.77161,61.1796,-0.00247255,0.00352307,-0.00249491,0.00442544,-0.00337492,-1.22375,0.00451714,0.0126754,1511,1730,9.77164,-61.1795
294,-706,9.75452,60.6563,-0.00311969,0.00363152,-0.0024521,0.00442814,-0.00391632,-1.25668,0.00482069,0.0112835,1518,1730,9.75455,-60.6563
301,-706,9.73145,60.0974,-0.00351094,0.00388253,-0.00278336,0.00481321,-0.00444162,-1.24811,0.00534471,0.0103869,1525,1730,9.73142,-60.0974
308,-706,9.70325,59.5066,-0.00367679,0.00461001,-0.00351051,0.00589721,-0.00496399,-1.21935,0.00627843,0.0173556,1532,1730,9.70325,-59.5065
315,-706,9.68872,58.8707,-0.00361607,0.00572683,-0.00469862,0.00768105,-0.00557029,-1.17665,0.00768295,0.0428023,1539,1730,9.68878,-58.8708
322,-706,9.64807,58.3051,0,0,0,0,0,0,0,-1,1546,1730,9.64805,-58.3051
329,-706,9.55676,57.6646,-0.00461712,0.00914185,-0.00658074,0.0117825,-0.0072578,-1.18919,0.0110959,0.0402073,1553,1730,9.55672,-57.6646
336,-706,9.45422,57.1625,-0.00488094,0.0116632,-0.00807472,0.0149509,-0.00816864,-1.18413,0.0135382,0.0391878,1560,1730,9.45417,-57.1625
343,-706,9.25146,56.4279,-0.00512951,0.014717,-0.00981276,0.0187494,-0.00916195,-1.1809,0.0164285,0.0450748,1567,1730,9.25146,-56.4278
350,-706,9.50537,55.834,0,0,0,0,0,0,0,-1,1574,1730,9.50539,-55.834
357,-706,9.91125,54.7737,0,0,0,0,0,0,0,-1,1581,1730,9.91131,-54.7737
364,-706,10.0471,54.0328,0,0,0,0,0,0,0,-1,1588,1730,10.0472,-54.0328
371,-706,8.6084,48.7302,0,0,0,0,0,0,0,-1,1595,1730,8.60844,-48.7303
378,-706,7.63867,44.0519,0,0,0,0,0,0,0,-1,1602,1730,7.63863,-44.0519
385,-706,7.3186,43.2451,0,0,0,0,0,0,0,-1,1609,1730,7.31862,-43.2451
392,-706,7.33728,42.4652,0,0,0,0,0,0,0,-1,1616,1730,7.3373,-42.4651
399,-706,7.51855,41.7692,0,0,0,0,0,0,0,-1,1623,1730,7.51855,-41.7691
406,-706,7.46301,40.9797,0,0,0,0,0,0,0,-1,1630,1730,7.46301,-40.9797
413,-706,8.43433,40.3345,0,0,0,0,0,0,0,-1,1637,1730,8.43428,-40.3344
420,-706,8.0636,39.6101,0,0,0,0,0,0,0,-1,1644,1730,8.06362,-39.6101
427,-706,0,0,0,0,0,0,0,0,0,-1,1651,1730,0,0
434,-706,0,0,0,0,0,0,0,0,0,-1,1658,1730,0,0
441,-706,0,0,0,0,0,0,0,0,0,-1,1665,1730,0,0
448,-706,0,0,0,0,0,0,0,0,0,-1,1672,1730,0,0
455,-706,0,0,0,0,0,0,0,0,0,-1,1679,1730,0,0
462,-706,0,0,0,0,0,0,0,0,0,-1,1686,1730,0,0
469,-706,0,0,0,0,0,0,0,0,0,-1,1693,1730,0,0
476,-706,0,0,0,0,0,0,0,0,0,-1,1700,1730,0,0
483,-706,0,0,0,0,0,0,0,0,0,-1,1707,1730,0,0
490,-706,0,0,0,0,0,0,0,0,0,-1,1714,1730,0,0
497,-706,0,0,0,0,0,0,0,0,0,-1,1721,1730,0,0
504,-706,0,0,0,0,0,0,0,0,0,-1,1728,1730,0,0
511,-706,0,0,0,0,0,0,0,0,0,-1,1735,1730,0,0
518,-706,0,0,0,0,0,0,0,0,0,-1,1742,1730,0,0
525,-706,0,0,0,0,0,0,0,0,0,-1,1749,1730,0,0
532,-706,0,0,0,0,0,0,0,0,0,-1,1756,1730,0,0
539,-706,0,0,0,0,0,0,0,0,0,-1,1763,1730,0,0
546,-706,0,0,0,0,0,0,0,0,0,-1,1770,1730,0,0
553,-706,0,0,0,0,0,0,0,0,0,-1,1777,1730,0,0
560,-706,0,0,0,0,0,0,0,0,0,-1,1784,1730,0,0
567,-706,0,0,0,0,0,0,0,0,0,-1,1791,1730,0,0
574,-706,0,0,0,0,0,0,0,0,0,-1,1798,1730,0,0
581,-706,0,0,0,0,0,0,0,0,0,-1,1805,1730,0,0
588,-706,0,0,0,0,0,0,0,0,0,-1,1812,1730,0,0
595,-706,0,0,0,0,0,0,0,0,0,-1,1819,1730,0,0
602,-706,0,0,0,0,0,0,0,0,0,-1,1826,1730,0,0
609,-706,0,0,0,0,0,0,0,0,0,-1,1833,1730,0,0
616,-706,0,0,0,0,0,0,0,0,0,-1,1840,1730,0,0
623,-706,0,0,0,0,0,0,0,0,0,-1,1847,1730,0,0
630,-706,0,0,0,0,0,0,0,0,0,-1,1854,1730,0,0
637,-706,0,0,0,0,0,0,0,0,0,-1,1861,1730,0,0
644,-706,0,0,0,0,0,0,0,0,0,-1,1868,1730,0,0
651,-706,0,0,0,0,0,0,0,0,0,-1,1875,1730,0,0
658,-706,0,0,0,0,0,0,0,0,0,-1,1882,1730,0,0
665,-706,0,0,0,0,0,0,0,0,0,-1,1889,1730,0,0
672,-706,0,0,0,0,0,0,0,0,0,-1,1896,1730,0,0
679,-706,0,0,0,0,0,0,0,0,0,-1,1903,1730,0,0
686,-706,0,0,0,0,0,0,0,0,0,-1,1910,1730,0,0
693,-706,0,0,0,0,0,0,0,0,0,-1,1917,1730,0,0
700,-706,0,0,0,0,0,0,0,0,0,-1,1924,1730,0,0
707,-706,0,0,0,0,0,0,0,0,0,-1,1931,1730,0,0
714,-706,0,0,0,0,0,0,0,0,0,-1,1938,1730,0,0
721,-706,0,0,0,0,0,0,0,0,0,-1,1945,1730,0,0
728,-706,0,0,0,0,0,0,0,0,0,-1,1952,1730,0,0
735,-706,0,0,0,0,0,0,0,0,0,-1,1959,1730,0,0
742,-706,0,0,0,0,0,0,0,0,0,-1,1966,1730,0,0
749,-706,0,0,0,0,0,0,0,0,0,-1,1973,1730,0,0
756,-706,0,0,0,0,0,0,0,0,0,-1,1980,1730,0,0
763,-706,0,0,0,0,0,0,0,0,0,-1,1987,1730,0,0
770,-706,0,0,0,0,0,0,0,0,0,-1,1994,1730,0,0
777,-706,0,0,0,0,0,0,0,0,0,-1,2001,1730,0,0
784,-706,0,0,0,0,0,0,0,0,0,-1,2008,1730,0,0
791,-706,0,0,0,0,0,0,0,0,0,-1,2015,1730,0,0
798,-706,0,0,0,0,0,0,0,0,0,-1,2022,1730,0,0
805,-706,0,0,0,0,0,0,0,0,0,-1,2029,1730,0,0
812,-706,0,0,0,0,0,0,0,0,0,-1,2036,1730,0,0
-700,-713,0,0,0,0,0,0,0,0,0,-1,524,1737,0,0
-693,-713,0,0,0,0,0,0,0,0,0,-1,531,1737,0,0
-686,-713,0,0,0,0,0,0,0,0,0,-1,538,1737,0,0
-679,-713,0,0,0,0,0,0,0,0,0,-1,545,1737,0,0
-672,-713,0,0,0,0,0,0,0,0,0,-1,552,1737,0,0
-665,-713,0,0,0,0,0,0,0,0,0,-1,559,1737,0,0
-658,-713,0,0,0,0,0,0,0,0,0,-1,566,1737,0,0
-651,-713,0,0,0,0,0,0,0,0,0,-1,573,1737,0,0
-644,-713,0,0,0,0,0,0,0,0,0,-1,580,1737,0,0
-637,-713,0,0,0,0,0,0,0,0,0,-1,587,1737,0,0
-630,-713,0,0,0,0,0,0,0,0,0,-1,594,1737,0,0
-623,-713,0,0,0,0,0,0,0,0,0,-1,601,1737,0,0
-616,-713,0,0,0,0,0,0,0,0,0,-1,608,1737,0,0
-609,-713,0,0,0,0,0,0,0,0,0,-1,615,1737,0,0
-602,-713,0,0,0,0,0,0,0,0,0,-1,622,1737,0,0
-595,-713,0,0,0,0,0,0,0,0,0,-1,629,1737,0,0
-588,-713,0,0,0,0,0,0,0,0,0,-1,636,1737,0,0
-581,-713,0,0,0,0,0,0,0,0,0,-1,643,1737,0,0
-574,-713,0,0,0,0,0,0,0,0,0,-1,650,1737,0,0
-567,-713,0,0,0,0,0,0,0,0,0,-1,657,1737,0,0
-560,-713,0,0,0,0,0,0,0,0,0,-1,664,1737,0,0
-553,-713,0,0,0,0,0,0,0,0,0,-1,671,1737,0,0
-546,-713,0,0,0,0,0,0,0,0,0,-1,678,1737,0,0
-539,-713,0,0,0,0,0,0,0,0,0,-1,685,1737,0,0
-532,-713,0,0,0,0,0,0,0,0,0,-1,692,1737,0,0
-525,-713,0,0,0,0,0,0,0,0,0,-1,699,1737,0,0
-518,-713,0,0,0,0,0,0,0,0,0,-1,706,1737,0,0
-511,-713,0,0,0,0,0,0,0,0,0,-1,713,1737,0,0
-504,-713,0,0,0,0,0,0,0,0,0,-1,720,1737,0,0
-497,-713,0,0,0,0,0,0,0,0,0,-1,727,1737,0,0
-490,-713,0,0,0,0,0,0,0,0,0,-1,734,1737,0,0
-483,-713,0,0,0,0,0,0,0,0,0,-1,741,1737,0,0
-476,-713,0,0,0,0,0,0,0,0,0,-1,748,1737,0,0
-469,-713,0,0,0,0,0,0,0,0,0,-1,755,1737,0,0
-462,-713,0,0,0,0,0,0,0,0,0,-1,762,1737,0,0
-455,-713,0,0,0,0,0,0,0,0,0,-1,769,1737,0,0
-448,-713,0,0,0,0,0,0,0,0,0,-1,776,1737,0,0
-441,-713,0,0,0,0,0,0,0,0,0,-1,783,1737,0,0
-434,-713,0,0,0,0,0,0,0,0,0,-1,790,1737,0,0
-427,-713,0,0,0,0,0,0,0,0,0,-1,797,1737,0,0
-420,-713,0,0,0,0,0,0,0,0,0,-1,804,1737,0,0
-413,-713,0,0,0,0,0,0,0,0,0,-1,811,1737,0,0
-406,-713,0,0,0,0,0,0,0,0,0,-1,818,1737,0,0
-399,-713,0,0,0,0,0,0,0,0,0,-1,825,1737,0,0
-392,-713,0,0,0,0,0,0,0,0,0,-1,832,1737,0,0
-385,-713,0,0,0,0,0,0,0,0,0,-1,839,1737,0,0
-378,-713,0,0,0,0,0,0,0,0,0,-1,846,1737,0,0
-371,-713,0,0,0,0,0,0,0,0,0,-1,853,1737,0,0
-364,-713,0,0,0,0,0,0,0,0,0,-1,860,1737,0,0
-357,-713,0,0,0,0,0,0,0,0,0,-1,867,1737,0,0
-350,-713,0,0,0,0,0,0,0,0,0,-1,874,1737,0,0
-343,-713,0,0,0,0,0,0,0,0,0,-1,881,1737,0,0
-336,-713,0,0,0,0,0,0,0,0,0,-1,888,1737,0,0
-329,-713,0,0,0,0,0,0,0,0,0,-1,895,1737,0,0
-322,-713,0,0,0,0,0,0,0,0,0,-1,902,1737,0,0
-315,-713,0,0,0,0,0,0,0,0,0,-1,909,1737,0,0
-308,-713,0,0,0,0,0,0,0,0,0,-1,916,1737,0,0
-301,-713,0,0,0,0,0,0,0,0,0,-1,923,1737,0,0
-294,-713,7.17883,22.0453,0,0,0,0,0,0,0,-1,930,1737,7.17881,-22.0453
-287,-713,11.8916,21.5834,0,0,0,0,0,0,0,-1,937,1737,11.8916,-21.5833
-280,-713,10.2786,21.3551,0,0,0,0,0,0,0,-1,944,1737,10.2787,-21.3551
-273,-713,11.1981,23.8683,0,0,0,0,0,0,0,-1,951,1737,11.198,-23.8683
-266,-713,3.17981,19.8851,0,0,0,0,0,0,0,-1,958,1737,3.17983,-19.8851
-259,-713,3.5921,19.6868,0,0,0,0,0,0,0,-1,965,1737,3.59207,-19.6868
-252,-713,4.55469,20.5758,0,0,0,0,0,0,0,-1,972,1737,4.55466,-20.5758
-245,-713,3.89014,25.9825,0,0,0,0,0,0,0,-1,979,1737,3.89013,-25.9826
-238,-713,6.62506,30.5463,0,0,0,0,0,0,0,-1,986,1737,6.62509,-30.5462
-231,-713,8.52356,54.5547,0,0,0,0,0,0,0,-1,993,1737,8.52359,-54.5547
-224,-713,9.021,54.7601,0,0,0,0,0,0,0,-1,1000,1737,9.02097,-54.7602
-217,-713,8.6886,56.839,0,0,0,0,0,0,0,-1,1007,1737,8.68857,-56.8389
-210,-713,8.8161,57.5128,0,0,0,0,0,0,0,-1,1014,1737,8.81609,-57.5128
-203,-713,8.54419,58.3831,0.000982421,0.00204572,0.00931983,0.0108491,-0.00782092,0.81389,0.0108263,0.0463561,1021,1737,8.54422,-58.383
-196,-713,9.00867,58.7502,0.000927622,0.00204351,0.00860516,0.0101088,-0.00713767,0.817772,0.0100064,0.0469219,1028,1737,9.00868,-58.7502
-189,-713,8.87695,59.1908,0.000569113,0.00254373,0.00780815,0.00942675,-0.0063139,0.848287,0.00914691,0.0427013,1035,1737,8.87691,-59.1908
-182,-713,8.88867,59.9351,4.02007e-05,0.00275466,0.0069029,0.00843249,-0.00563763,0.882469,0.00817663,0.0273784,1042,1737,8.88873,-59.9351
-175,-713,8.96033,60.5151,-0.000439034,0.00290825,0.0061644,0.00762217,-0.00515295,0.917953,0.0074215,0.0214936,1049,1737,8.96038,-60.5151
-168,-713,8.98572,61.083,-0.00105539,0.00285474,0.00533203,0.00657884,-0.00477948,0.96112,0.0065851,0.0244706,1056,1737,8.98573,-61.083
-161,-713,8.87024,61.6985,-0.00175407,0.00280107,0.00443641,0.00551039,-0.00446339,1.02255,0.00576893,0.013005,1063,1737,8.87019,-61.6985
-154,-713,8.77661,62.2357,-0.00219414,0.002781,0.00376972,0.00480993,-0.00422307,1.07704,0.00521887,0.0119349,1070,1737,8.77663,-62.2357
-147,-713,8.71545,62.7726,-0.00273622,0.00303132,0.00310363,0.00438414,-0.00408903,1.15974,0.00489298,0.0202857,1077,1737,8.71551,-62.7725
-140,-713,8.7135,63.296,-0.00257978,0.00280845,0.00287734,0.00405608,-0.00382741,1.16166,0.00455217,0.0204311,1084,1737,8.71347,-63.296
-133,-713,8.65479,63.7383,-0.00219555,0.00237293,0.00256765,0.00352534,-0.00334796,1.14892,0.00396875,0.013307,1091,1737,8.65479,-63.7383
-126,-713,8.64148,64.179,-0.00196198,0.00210424,0.00229876,0.00313998,-0.00299772,1.14747,0.00354392,0.0192792,1098,1737,8.6415,-64.179
-119,-713,8.62268,64.6344,-0.00172199,0.00191029,0.00220894,0.00295383,-0.00276553,1.12946,0.00330267,0.0284079,1105,1737,8.62269,-64.6344
-112,-713,8.54932,65.1505,-0.00118711,0.0019186,0.00220558,0.00306314,-0.00233165,1.09212,0.00312422,0.0146748,1112,1737,8.54933,-65.1505
-105,-713,8.53992,65.5793,-0.000747101,0.00160389,0.00191806,0.00267801,-0.00182121,1.06031,0.00261328,0.0116948,1119,1737,8.53993,-65.5794
-98,-713,8.52673,66.0063,-0.000469438,0.00141279,0.00170084,0.00241553,-0.00147217,1.03809,0.00226649,0.0113015,1126,1737,8.52669,-66.0064
-91,-713,8.50586,66.4106,-0.000111992,0.00134145,0.00151468,0.00229472,-0.00106526,1.00907,0.0019827,0.0113845,1133,1737,8.50587,-66.4106
-84,-713,8.50562,66.8099,0.000211264,0.00101762,0.00123092,0.0019097,-0.000680825,0.943662,0.00155072,0.0104891,1140,1737,8.50557,-66.8099
-77,-713,8.49805,67.172,0.000623711,0.000910373,0.000998759,0.00177603,-0.000241949,0.856666,0.00127236,0.01339,1147,1737,8.49809,-67.172
-70,-713,8.49792,67.5352,0.00100966,0.000805179,0.000652687,0.00156806,0.000246773,0.707707,0.0009736,0.0155043,1154,1737,8.49797,-67.5352
-63,-713,8.49536,67.8948,0.00140958,0.000717535,0.000443954,0.00162643,0.000500683,0.454369,0.000961858,0.014365,1161,1737,8.49539,-67.8948
-56,-713,8.49255,68.2161,0.00181361,0.000554529,-4.04121e-05,0.0018149,0.000553234,-0.0320526,0.00107412,0.0143596,1168,1737,8.49253,-68.216
-49,-713,8.45154,68.519,0.00214967,0.000164978,-0.000721836,0.00238444,-6.9785e-05,-0.31444,0.00161339,0.0170252,1175,1737,8.45148,-68.519
-42,-713,8.47668,68.7802,0.00252349,-0.000601613,-0.00147001,0.00310628,-0.0011844,-0.377445,0.00255872,0.0203606,1182,1737,8.47667,-68.7801
-35,-713,8.53101,69.0336,0.00298525,-0.0013354,-0.00241747,0.00406702,-0.00241717,-0.420756,0.00378383,0.0168654,1189,1737,8.531,-69.0335
-28,-713,8.54871,69.3013,0.00339791,-0.00233898,-0.00346082,0.00502449,-0.00396556,-0.43936,0.0052024,0.0157756,1196,1737,8.54868,-69.3013
-21,-713,8.55151,69.522,0.00391165,-0.00334899,-0.00468187,0.00620579,-0.00564312,-0.455619,0.00684354,0.0116329,1203,1737,8.55154,-69.522
-14,-713,8.58862,69.7256,0.00481543,-0.00452945,-0.00594765,0.00770647,-0.00742049,-0.452451,0.00873408,0.0121786,1210,1737,8.58867,-69.7256
-7,-713,8.63086,69.9454,0.00564765,-0.00441163,-0.00757858,0.00971373,-0.00847771,-0.492438,0.0105109,0.0104073,1217,1737,8.63083,-69.9454
0,-713,8.66431,70.1259,0.0060341,-0.00428266,-0.00892934,0.0111879,-0.0094365,-0.523472,0.0119218,0.01602,1224,1737,8.66433,-70.1258
7,-713,8.68408,70.2551,0.00604105,-0.00383933,-0.0101922,0.0124272,-0.0102255,-0.55973,0.0130991,0.0190372,1231,1737,8.6841,-70.2552
14,-713,8.7251,70.4041,0.00627294,-0.00322362,-0.0112687,0.0137529,-0.0107036,-0.586003,0.0141565,0.0131171,1238,1737,8.72512,-70.4041
21,-713,8.77734,70.5101,0.00574063,-0.0021198,-0.0122447,0.0146704,-0.0110496,-0.630106,0.0148984,0.0120544,1245,1737,8.77733,-70.5102
28,-713,8.79004,70.603,0.00480001,-0.000830433,-0.0131038,0.0153875,-0.011418,-0.679586,0.0155326,0.0130035,1252,1737,8.79006,-70.603
35,-713,8.8252,70.6965,0.00355702,0.000561211,-0.0137666,0.015907,-0.0117887,-0.731208,0.0160489,0.0123389,1259,1737,8.82524,-70.6966
42,-713,8.88342,70.7593,0.001814,0.00182902,-0.0141431,0.0159646,-0.0123216,-0.785664,0.0163761,0.0115556,1266,1737,8.8834,-70.7593
49,-713,8.94153,70.7404,-0.000320265,0.00279334,-0.0141429,0.0154649,-0.0129918,-0.840216,0.0164501,0.0149336,1273,1737,8.94147,-70.7403
56,-713,8.98694,70.7494,-0.00231343,0.00357334,-0.0138575,0.0147966,-0.0135367,-0.890045,0.0163636,0.0188138,1280,1737,8.98689,-70.7494
63,-713,9.03418,70.7643,-0.00431233,0.004178,-0.0133555,0.0139468,-0.0140811,-0.939278,0.016182,0.0170384,1287,1737,9.03413,-70.7643
70,-713,9.08313,70.7714,-0.00566464,0.00395044,-0.0128336,0.0128474,-0.0145616,-0.964611,0.0158349,0.0130821,1294,1737,9.08309,-70.7713
77,-713,9.12854,70.7648,-0.00660642,0.00337059,-0.0119343,0.011317,-0.0145528,-0.983361,0.0149748,0.0138135,1301,1737,9.12857,-70.7648
84,-713,9.18066,70.7263,-0.00677265,0.00226905,-0.0113772,0.00999069,-0.0144943,-0.974513,0.0142159,0.0144739,1308,1737,9.18071,-70.7263
91,-713,9.21545,70.649,-0.0065466,0.00120115,-0.0110551,0.00904142,-0.0143869,-0.953921,0.0136432,0.0140787,1315,1737,9.21543,-70.649
98,-713,9.23792,70.5332,-0.00575834,-0.0009731,-0.0102532,0.00716296,-0.0138944,-0.900024,0.0123628,0.0130804,1322,1737,9.23797,-70.5332
105,-713,9.27002,70.429,-0.00382125,-0.0022612,-0.0099758,0.00696503,-0.0130475,-0.824414,0.0117308,0.0156535,1329,1737,9.26998,-70.4289
112,-713,9.29541,70.3224,-0.00134863,-0.00334061,-0.0099068,0.00761212,-0.0123014,-0.735298,0.0116028,0.0162033,1336,1737,9.29539,-70.3223
119,-713,9.31433,70.1985,0.000525732,-0.00402666,-0.00999536,0.00850079,-0.0120017,-0.673445,0.0118945,0.0167335,1343,1737,9.31429,-70.1984
126,-713,9.36145,70.0227,0.00269575,-0.00471393,-0.00975985,0.00943028,-0.0114485,-0.603999,0.0120731,0.0154124,1350,1737,9.36146,-70.0227
133,-713,9.41711,69.8038,0.0043932,-0.00488333,-0.00935663,0.0101981,-0.0106883,-0.555289,0.0120599,0.0132911,1357,1737,9.41712,-69.8038
140,-713,9.47839,69.5251,0.0053754,-0.0046717,-0.00882331,0.010505,-0.00980132,-0.526609,0.0117262,0.0148759,1364,1737,9.47836,-69.5252
147,-713,9.49719,69.2408,0.00591442,-0.00415739,-0.00807566,0.0103957,-0.00863866,-0.506606,0.0110051,0.0163062,1371,1737,9.49723,-69.2408
154,-713,9.49658,69.0684,0.00617846,-0.00339324,-0.00706698,0.00992763,-0.00714241,-0.487764,0.00989903,0.0155743,1378,1737,9.49653,-69.0684
161,-713,9.51758,68.7646,0.00554579,-0.00239343,-0.00592834,0.00871081,-0.00555845,-0.490383,0.00830511,0.0112831,1385,1737,9.51754,-68.7647
168,-713,9.52942,68.4587,0.00477446,-0.0015287,-0.00473229,0.00730856,-0.0040628,-0.491637,0.00665381,0.0116362,1392,1737,9.52942,-68.4587
175,-713,9.56299,68.1733,0.00385071,-0.000558116,-0.00330562,0.00561953,-0.00232693,-0.491327,0.00471735,0.015198,1399,1737,9.56303,-68.1734
182,-713,9.5697,67.8802,0.00319347,0.000188647,-0.00252906,0.00463272,-0.0012506,-0.517378,0.00357894,0.0131428,1406,1737,9.56966,-67.8803
189,-713,9.56848,67.5392,0.00251603,0.000931818,-0.00139547,0.00332853,0.000119316,-0.527261,0.00218034,0.0123725,1413,1737,9.56853,-67.5392
196,-713,9.58276,67.1641,0.00199648,0.00126478,-0.00070388,0.00242391,0.000837349,-0.54573,0.00142156,0.0130063,1420,1737,9.58271,-67.164
203,-713,9.58057,66.7996,0.00165941,0.00149948,-0.00103173,0.00261427,0.000544621,-0.746723,0.00159266,0.0180666,1427,1737,9.58052,-66.7996
210,-713,9.57593,66.4001,0.00132935,0.00177801,-0.0013375,0.00290986,0.000197495,-0.868487,0.00187754,0.0160072,1434,1737,9.57597,-66.4001
217,-713,9.57251,66.0018,0.000957769,0.00216011,-0.00159707,0.00326541,-0.000147533,-0.965405,0.00222775,0.0127447,1441,1737,9.57248,-66.0018
224,-713,9.55457,65.6014,0.000566211,0.00254312,-0.00189006,0.00368759,-0.000578259,-1.02633,0.00267208,0.0132519,1448,1737,9.55455,-65.6014
231,-713,9.54443,65.1659,0.000127937,0.00283057,-0.00212233,0.00399527,-0.00103676,-1.06889,0.00306806,0.0121569,1455,1737,9.5444,-65.1659
238,-713,9.51526,64.7024,-0.000257179,0.003175,-0.00228297,0.00431494,-0.00139712,-1.10769,0.00343829,0.00873334,1462,1737,9.51527,-64.7024
245,-713,9.50659,64.2251,-0.000681767,0.00344241,-0.00242952,0.00456697,-0.00180633,-1.13729,0.00379295,0.0118007,1469,1737,9.50658,-64.2251
252,-713,9.49695,63.7402,-0.00122073,0.0038264,-0.00251337,0.0048645,-0.00225883,-1.17911,0.00420337,0.0133302,1476,1737,9.49695,-63.7402
259,-713,9.48474,63.2544,-0.00174296,0.00409108,-0.00261701,0.00509296,-0.00274484,-1.20518,0.00459235,0.0130782,1483,1737,9.48471,-63.2544
266,-713,9.42444,62.78,-0.00228277,0.00434952,-0.00276142,0.00534873,-0.00328197,-1.22361,0.00503034,0.0115235,1490,1737,9.42446,-62.7801
273,-713,9.34265,62.2856,-0.00282381,0.00461388,-0.00290333,0.00561299,-0.00382292,-1.23936,0.00548041,0.00977846,1497,1737,9.34262,-62.2856
280,-713,9.29565,61.7504,-0.00339612,0.00488094,-0.00300192,0.00585504,-0.00437021,-1.25702,0.00592426,0.0109874,1504,1737,9.29564,-61.7504
287,-713,9.26624,61.2014,-0.0040332,0.00492801,-0.00308435,0.00588698,-0.00499218,-1.26935,0.00628817,0.0122313,1511,1737,9.26618,-61.2014
294,-713,9.26355,60.6616,-0.00478605,0.00505523,-0.0029757,0.00588503,-0.00561585,-1.29885,0.00664064,0.0196741,1518,1737,9.26355,-60.6616
301,-713,9.1167,60.0073,-0.00518546,0.00538133,-0.00333722,0.00634704,-0.00615117,-1.28912,0.00721614,0.0354774,1525,1737,9.11668,-60.0074
308,-713,8.99475,59.3599,0,0,0,0,0,0,0,-1,1532,1737,8.9947,-59.3599
315,-713,9.11853,58.6593,0,0,0,0,0,0,0,-1,1539,1737,9.11856,-58.6594
322,-713,8.85962,57.7839,0,0,0,0,0,0,0,-1,1546,1737,8.85964,-57.784
329,-713,9.06165,57.672,0,0,0,0,0,0,0,-1,1553,1737,9.0617,-57.672
336,-713,8.98059,57.261,0,0,0,0,0,0,0,-1,1560,1737,8.98063,-57.261
343,-713,8.22498,56.4412,0,0,0,0,0,0,0,-1,1567,1737,8.22493,-56.4412
350,-713,8.63867,47.4143,0,0,0,0,0,0,0,-1,1574,1737,8.6387,-47.4143
357,-713,8.53796,49.5679,0,0,0,0,0,0,0,-1,1581,1737,8.53795,-49.5679
364,-713,7.52661,46.5348,0,0,0,0,0,0,0,-1,1588,1737,7.52664,-46.5347
371,-713,7.3302,45.0861,0,0,0,0,0,0,0,-1,1595,1737,7.33021,-45.0861
378,-713,6.73975,44.3853,0,0,0,0,0,0,0,-1,1602,1737,6.7397,-44.3853
385,-713,6.58777,43.6438,0,0,0,0,0,0,0,-1,1609,1737,6.58781,-43.6438
392,-713,6.62964,42.8679,0,0,0,0,0,0,0,-1,1616,1737,6.62968,-42.868
399,-713,6.53748,42.0555,0,0,0,0,0,0,0,-1,1623,1737,6.53749,-42.0555
406,-713,2.49878,27.8931,0,0,0,0,0,0,0,-1,1630,1737,2.49884,-27.893
413,-713,1.36597,29.459,0,0,0,0,0,0,0,-1,1637,1737,1.36593,-29.459
420,-713,0,0,0,0,0,0,0,0,0,-1,1644,1737,0,0
427,-713,0,0,0,0,0,0,0,0,0,-1,1651,1737,0,0
434,-713,0,0,0,0,0,0,0,0,0,-1,1658,1737,0,0
441,-713,0,0,0,0,0,0,0,0,0,-1,1665,1737,0,0
448,-713,0,0,0,0,0,0,0,0,0,-1,1672,1737,0,0
455,-713,0,0,0,0,0,0,0,0,0,-1,1679,1737,0,0
462,-713,0,0,0,0,0,0,0,0,0,-1,1686,1737,0,0
469,-713,0,0,0,0,0,0,0,0,0,-1,1693,1737,0,0
476,-713,0,0,0,0,0,0,0,0,0,-1,1700,1737,0,0
483,-713,0,0,0,0,0,0,0,0,0,-1,1707,1737,0,0
490,-713,0,0,0,0,0,0,0,0,0,-1,1714,1737,0,0
497,-713,0,0,0,0,0,0,0,0,0,-1,1721,1737,0,0
504,-713,0,0,0,0,0,0,0,0,0,-1,1728,1737,0,0
511,-713,0,0,0,0,0,0,0,0,0,-1,1735,1737,0,0
518,-713,0,0,0,0,0,0,0,0,0,-1,1742,1737,0,0
525,-713,0,0,0,0,0,0,0,0,0,-1,1749,1737,0,0
532,-713,0,0,0,0,0,0,0,0,0,-1,1756,1737,0,0
539,-713,0,0,0,0,0,0,0,0,0,-1,1763,1737,0,0
546,-713,0,0,0,0,0,0,0,0,0,-1,1770,1737,0,0
553,-713,0,0,0,0,0,0,0,0,0,-1,1777,1737,0,0
560,-713,0,0,0,0,0,0,0,0,0,-1,1784,1737,0,0
567,-713,0,0,0,0,0,0,0,0,0,-1,1791,1737,0,0
574,-713,0,0,0,0,0,0,0,0,0,-1,1798,1737,0,0
581,-713,0,0,0,0,0,0,0,0,0,-1,1805,1737,0,0
588,-713,0,0,0,0,0,0,0,0,0,-1,1812,1737,0,0
595,-713,0,0,0,0,0,0,0,0,0,-1,1819,1737,0,0
602,-713,0,0,0,0,0,0,0,0,0,-1,1826,1737,0,0
609,-713,0,0,0,0,0,0,0,0,0,-1,1833,1737,0,0
616,-713,0,0,0,0,0,0,0,0,0,-1,1840,1737,0,0
623,-713,0,0,0,0,0,0,0,0,0,-1,1847,1737,0,0
630,-713,0,0,0,0,0,0,0,0,0,-1,1854,1737,0,0
637,-713,0,0,0,0,0,0,0,0,0,-1,1861,1737,0,0
644,-713,0,0,0,0,0,0,0,0,0,-1,1868,1737,0,0
651,-713,0,0,0,0,0,0,0,0,0,-1,1875,1737,0,0
658,-713,0,0,0,0,0,0,0,0,0,-1,1882,1737,0,0
665,-713,0,0,0,0,0,0,0,0,0,-1,1889,1737,0,0
672,-713,0,0,0,0,0,0,0,0,0,-1,1896,1737,0,0
679,-713,0,0,0,0,0,0,0,0,0,-1,1903,1737,0,0
686,-713,0,0,0,0,0,0,0,0,0,-1,1910,1737,0,0
693,-713,0,0,0,0,0,0,0,0,0,-1,1917,1737,0,0
700,-713,0,0,0,0,0,0,0,0,0,-1,1924,1737,0,0
707,-713,0,0,0,0,0,0,0,0,0,-1,1931,1737,0,0
714,-713,0,0,0,0,0,0,0,0,0,-1,1938,1737,0,0
721,-713,0,0,0,0,0,0,0,0,0,-1,1945,1737,0,0
728,-713,0,0,0,0,0,0,0,0,0,-1,1952,1737,0,0
735,-713,0,0,0,0,0,0,0,0,0,-1,1959,1737,0,0
742,-713,0,0,0,0,0,0,0,0,0,-1,1966,1737,0,0
749,-713,0,0,0,0,0,0,0,0,0,-1,1973,1737,0,0
756,-713,0,0,0,0,0,0,0,0,0,-1,1980,1737,0,0
763,-713,0,0,0,0,0,0,0,0,0,-1,1987,1737,0,0
770,-713,0,0,0,0,0,0,0,0,0,-1,1994,1737,0,0
777,-713,0,0,0,0,0,0,0,0,0,-1,2001,1737,0,0
784,-713,0,0,0,0,0,0,0,0,0,-1,2008,1737,0,0
791,-713,0,0,0,0,0,0,0,0,0,-1,2015,1737,0,0
798,-713,0,0,0,0,0,0,0,0,0,-1,2022,1737,0,0
805,-713,0,0,0,0,0,0,0,0,0,-1,2029,1737,0,0
812,-713,0,0,0,0,0,0,0,0,0,-1,2036,1737,0,0
-700,-720,0,0,0,0,0,0,0,0,0,-1,524,1744,0,0
-693,-720,0,0,0,0,0,0,0,0,0,-1,531,1744,0,0
-686,-720,0,0,0,0,0,0,0,0,0,-1,538,1744,0,0
-679,-720,0,0,0,0,0,0,0,0,0,-1,545,1744,0,0
-672,-720,0,0,0,0,0,0,0,0,0,-1,552,1744,0,0
-665,-720,0,0,0,0,0,0,0,0,0,-1,559,1744,0,0
-658,-720,0,0,0,0,0,0,0,0,0,-1,566,1744,0,0
-651,-720,0,0,0,0,0,0,0,0,0,-1,573,1744,0,0
-644,-720,0,0,0,0,0,0,0,0,0,-1,580,1744,0,0
-637,-720,0,0,0,0,0,0,0,0,0,-1,587,1744,0,0
-630,-720,0,0,0,0,0,0,0,0,0,-1,594,1744,0,0
-623,-720,0,0,0,0,0,0,0,0,0,-1,601,1744,0,0
-616,-720,0,0,0,0,0,0,0,0,0,-1,608,1744,0,0
-609,-720,0,0,0,0,0,0,0,0,0,-1,615,1744,0,0
-602,-720,0,0,0,0,0,0,0,0,0,-1,622,1744,0,0
-595,-720,0,0,0,0,0,0,0,0,0,-1,629,1744,0,0
-588,-720,0,0,0,0,0,0,0,0,0,-1,636,1744,0,0
-581,-720,0,0,0,0,0,0,0,0,0,-1,643,1744,0,0
-574,-720,0,0,0,0,0,0,0,0,0,-1,650,1744,0,0
-567,-720,0,0,0,0,0,0,0,0,0,-1,657,1744,0,0
-560,-720,0,0,0,0,0,0,0,0,0,-1,664,1744,0,0
-553,-720,0,0,0,0,0,0,0,0,0,-1,671,1744,0,0
-546,-720,0,0,0,0,0,0,0,0,0,-1,678,1744,0,0
-539,-720,0,0,0,0,0,0,0,0,0,-1,685,1744,0,0
-532,-720,0,0,0,0,0,0,0,0,0,-1,692,1744,0,0
-525,-720,0,0,0,0,0,0,0,0,0,-1,699,1744,0,0
-518,-720,0,0,0,0,0,0,0,0,0,-1,706,1744,0,0
-511,-720,0,0,0,0,0,0,0,0,0,-1,713,1744,0,0
-504,-720,0,0,0,0,0,0,0,0,0,-1,720,1744,0,0
-497,-720,0,0,0,0,0,0,0,0,0,-1,727,1744,0,0
-490,-720,0,0,0,0,0,0,0,0,0,-1,734,1744,0,0
-483,-720,0,0,0,0,0,0,0,0,0,-1,741,1744,0,0
-476,-720,0,0,0,0,0,0,0,0,0,-1,748,1744,0,0
-469,-720,0,0,0,0,0,0,0,0,0,-1,755,1744,0,0
-462,-720,0,0,0,0,0,0,0,0,0,-1,762,1744,0,0
-455,-720,0,0,0,0,0,0,0,0,0,-1,769,1744,0,0
-448,-720,0,0,0,0,0,0,0,0,0,-1,776,1744,0,0
-441,-720,0,0,0,0,0,0,0,0,0,-1,783,1744,0,0
-434,-720,0,0,0,0,0,0,0,0,0,-1,790,1744,0,0
-427,-720,0,0,0,0,0,0,0,0,0,-1,797,1744,0,0
-420,-720,0,0,0,0,0,0,0,0,0,-1,804,1744,0,0
-413,-720,0,0,0,0,0,0,0,0,0,-1,811,1744,0,0
-406,-720,0,0,0,0,0,0,0,0,0,-1,818,1744,0,0
-399,-720,0,0,0,0,0,0,0,0,0,-1,825,1744,0,0
-392,-720,0,0,0,0,0,0,0,0,0,-1,832,1744,0,0
-385,-720,0,0,0,0,0,0,0,0,0,-1,839,1744,0,0
-378,-720,0,0,0,0,0,0,0,0,0,-1,846,1744,0,0
-371,-720,0,0,0,0,0,0,0,0,0,-1,853,1744,0,0
-364,-720,0,0,0,0,0,0,0,0,0,-1,860,1744,0,0
-357,-720,0,0,0,0,0,0,0,0,0,-1,867,1744,0,0
-350,-720,0,0,0,0,0,0,0,0,0,-1,874,1744,0,0
-343,-720,0,0,0,0,0,0,0,0,0,-1,881,1744,0,0
-336,-720,0,0,0,0,0,0,0,0,0,-1,888,1744,0,0
-329,-720,0,0,0,0,0,0,0,0,0,-1,895,1744,0,0
-322,-720,0,0,0,0,0,0,0,0,0,-1,902,1744,0,0
-315,-720,0,0,0,0,0,0,0,0,0,-1,909,1744,0,0
-308,-720,0,0,0,0,0,0,0,0,0,-1,916,1744,0,0
-301,-720,0,0,0,0,0,0,0,0,0,-1,923,1744,0,0
-294,-720,0,0,0,0,0,0,0,0,0,-1,930,1744,0,0
-287,-720,0,0,0,0,0,0,0,0,0,-1,937,1744,0,0
-280,-720,6.46796,22.6417,0,0,0,0,0,0,0,-1,944,1744,6.46793,-22.6417
-273,-720,8.54633,13.262,0,0,0,0,0,0,0,-1,951,1744,8.54636,-13.2619
-266,-720,7.28027,13.3165,0,0,0,0,0,0,0,-1,958,1744,7.28026,-13.3166
-259,-720,3.70563,18.6372,0,0,0,0,0,0,0,-1,965,1744,3.70564,-18.6372
-252,-720,4.00989,18.5059,0,0,0,0,0,0,0,-1,972,1744,4.00988,-18.5058
-245,-720,7.05634,33.8489,0,0,0,0,0,0,0,-1,979,1744,7.05634,-33.8489
-238,-720,5.02216,24.1455,0,0,0,0,0,0,0,-1,986,1744,5.02217,-24.1455
-231,-720,9.45819,50.8396,0,0,0,0,0,0,0,-1,993,1744,9.45816,-50.8396
-224,-720,10.0804,54.4775,0,0,0,0,0,0,0,-1,1000,1744,10.0805,-54.4775
-217,-720,9.41168,53.88,0,0,0,0,0,0,0,-1,1007,1744,9.41166,-53.88
-210,-720,8.74036,38.6686,0,0,0,0,0,0,0,-1,1014,1744,8.74035,-38.6686
-203,-720,8.61755,58.7504,0,0,0,0,0,0,0,-1,1021,1744,8.6176,-58.7503
-196,-720,9.41479,58.8929,0,0,0,0,0,0,0,-1,1028,1744,9.41476,-58.893
-189,-720,9.30762,59.1173,0,0,0,0,0,0,0,-1,1035,1744,9.30758,-59.1173
-182,-720,9.44043,59.9547,0,0,0,0,0,0,0,-1,1042,1744,9.44039,-59.9547
-175,-720,9.60645,60.6359,-5.1228e-05,0.00426212,0.00777089,0.0101701,-0.00595917,0.920758,0.0094174,0.0408824,1049,1744,9.60639,-60.6358
-168,-720,9.58557,61.1598,-0.00115193,0.00435122,0.00677112,0.00890849,-0.0057092,0.978391,0.00850664,0.0352718,1056,1744,9.58559,-61.1598
-161,-720,9.22034,61.6274,-0.00222835,0.00442306,0.00575889,0.00774755,-0.00555284,1.04725,0.00771375,0.0304184,1063,1744,9.22033,-61.6274
-154,-720,9.28394,62.2612,-0.00297529,0.00448371,0.00504406,0.0070273,-0.00551889,1.10373,0.00726098,0.0269373,1070,1744,9.28397,-62.2612
-147,-720,9.21204,62.8693,-0.00388299,0.0048316,0.00430004,0.0065961,-0.00564749,1.1814,0.00707591,0.0286573,1077,1744,9.21206,-62.8693
-140,-720,9.18164,63.3669,-0.00388299,0.00457786,0.00411048,0.00624596,-0.00555109,1.18529,0.00681497,0.0229738,1084,1744,9.18159,-63.367
-133,-720,9.10974,63.7662,-0.0035756,0.00401595,0.00379183,0.00558542,-0.00514508,1.17836,0.00619699,0.0165362,1091,1744,9.10979,-63.7662
-126,-720,9.08752,64.2362,-0.00343959,0.00361954,0.00351813,0.00507345,-0.00489351,1.17891,0.00575474,0.0159765,1098,1744,9.08757,-64.2361
-119,-720,9.03516,64.6967,-0.00330999,0.0033076,0.00345742,0.0047844,-0.00478679,1.16712,0.00552593,0.0159842,1105,1744,9.03515,-64.6966
-112,-720,8.97217,65.1385,-0.00274628,0.00333758,0.00354229,0.00496482,-0.00437352,1.14017,0.0053951,0.015036,1112,1744,8.97222,-65.1385
-105,-720,8.94714,65.5836,-0.00230352,0.00286714,0.00322343,0.00441393,-0.00385031,1.12339,0.00477506,0.0151348,1119,1744,8.94718,-65.5836
-98,-720,8.92664,66.0082,-0.002099,0.00258556,0.00298589,0.00403826,-0.0035517,1.11799,0.00438506,0.0115801,1126,1744,8.92665,-66.0081
-91,-720,8.89905,66.4169,-0.00177789,0.00241533,0.00279768,0.00381483,-0.0031774,1.10696,0.00404255,0.0101494,1133,1744,8.89901,-66.4169
-84,-720,8.87573,66.8311,-0.00155416,0.00168296,0.00245268,0.003003,-0.0028742,1.07706,0.00339347,0.0110388,1140,1744,8.87572,-66.8311
-77,-720,8.84644,67.2073,-0.00114294,0.00140209,0.00221923,0.00268775,-0.0024286,1.04572,0.00295519,0.014344,1147,1744,8.84642,-67.2073
-70,-720,8.82776,67.558,-0.000745335,0.00134228,0.00179442,0.0023744,-0.00177746,1.04882,0.00240532,0.0130374,1154,1744,8.82779,-67.558
-63,-720,8.81653,67.8939,-0.000427691,0.00137744,0.00140508,0.00214487,-0.00119511,1.07089,0.00195415,0.012477,1161,1744,8.81651,-67.8939
-56,-720,8.81921,68.2084,-0.000110557,0.00132284,0.00120945,0.002012,-0.000799715,1.05287,0.00167288,0.0144508,1168,1744,8.81927,-68.2084
-49,-720,8.76965,68.5071,0.000257049,0.00108651,0.000955266,0.00171319,-0.00036963,0.990197,0.00128321,0.0198966,1175,1744,8.76963,-68.5071
-42,-720,8.76111,68.7694,0.000646957,0.000733869,0.000638204,0.00133009,5.07309e-05,0.819391,0.000870312,0.0219003,1182,1744,8.76106,-68.7694
-35,-720,8.78979,69.0283,0.00105773,0.000251206,0.00024695,0.00112734,0.0001816,0.274737,0.000698932,0.0195733,1189,1744,8.78975,-69.0283
-28,-720,8.79187,69.3112,0.00149019,-0.000395478,-0.000209891,0.00151327,-0.000418558,-0.109523,0.00117352,0.0119534,1196,1744,8.79182,-69.3112
-21,-720,8.79102,69.5458,0.00191394,-0.00113683,-0.00071091,0.00207147,-0.00129436,-0.218061,0.00196045,0.00967746,1203,1744,8.79097,-69.5458
-14,-720,8.79919,69.7375,0.00247429,-0.00194719,-0.00129506,0.00282569,-0.00229859,-0.264959,0.00296371,0.0115394,1210,1744,8.79918,-69.7376
-7,-720,8.8158,69.9574,0.00302448,-0.00236596,-0.00207952,0.00373347,-0.00307495,-0.328579,0.00393696,0.0126975,1217,1744,8.81576,-69.9574
0,-720,8.82605,70.1506,0.00335335,-0.00251164,-0.00274875,0.0044402,-0.00359849,-0.376534,0.00464962,0.01398,1224,1744,8.82601,-70.1506
7,-720,8.83716,70.2976,0.00347113,-0.00240952,-0.00345097,0.00506453,-0.00400293,-0.432563,0.00524705,0.0170113,1231,1744,8.8371,-70.2976
14,-720,8.86511,70.4388,0.00361448,-0.00220184,-0.00405987,0.00570032,-0.00428767,-0.474601,0.00578576,0.0154569,1238,1744,8.86516,-70.4388
21,-720,8.8811,70.5391,0.00332551,-0.00166045,-0.00467384,0.00612968,-0.00446461,-0.540397,0.00614174,0.0121703,1245,1744,8.88107,-70.5391
28,-720,8.87915,70.6139,0.00280608,-0.000927276,-0.00526843,0.00652875,-0.00464995,-0.615142,0.00648434,0.0123252,1252,1744,8.87912,-70.6139
35,-720,8.90295,70.7056,0.00207218,-9.3095e-05,-0.00577979,0.00686986,-0.00489077,-0.692814,0.00682197,0.0116096,1259,1744,8.90296,-70.7056
42,-720,8.93408,70.774,0.000983244,0.000686584,-0.00615503,0.00699173,-0.0053219,-0.773351,0.00713104,0.0115649,1266,1744,8.93405,-70.7741
49,-720,8.97449,70.7748,-0.000347277,0.00129064,-0.00635378,0.00687803,-0.00593466,-0.849491,0.00740409,0.0149532,1273,1744,8.97451,-70.7747
56,-720,8.98828,70.7863,-0.00155108,0.00180785,-0.00633838,0.0066855,-0.00642873,-0.914906,0.00757198,0.0152503,1280,1744,8.98823,-70.7862
63,-720,9.02258,70.7974,-0.00276994,0.00224294,-0.00619585,0.00642012,-0.00694712,-0.977603,0.00771958,0.0155173,1287,1744,9.02258,-70.7974
70,-720,9.07202,70.7996,-0.00360656,0.00219965,-0.00610864,0.00605993,-0.00746684,-1.00722,0.00782376,0.0140728,1294,1744,9.07198,-70.7996
77,-720,9.08484,70.7849,-0.0041645,0.00188369,-0.00575945,0.00536471,-0.00764551,-1.02715,0.00754983,0.0165627,1301,1744,9.08479,-70.7849
84,-720,9.11646,70.6831,-0.00437518,0.0012699,-0.00548877,0.00461934,-0.00772462,-1.02289,0.00720156,0.016519,1308,1744,9.11647,-70.6831
91,-720,9.13171,70.5988,-0.00438576,0.000625062,-0.00521134,0.00390196,-0.00766266,-1.00947,0.0067935,0.0163899,1315,1744,9.13168,-70.5988
98,-720,9.10156,70.5286,-0.00401438,-0.000462603,-0.00473328,0.00281697,-0.00729396,-0.964868,0.00602528,0.0149874,1322,1744,9.10154,-70.5286
105,-720,9.13599,70.4188,-0.00303877,-0.00126137,-0.00443996,0.00237795,-0.00667809,-0.884172,0.00542143,0.0129542,1329,1744,9.13595,-70.4188
112,-720,9.15857,70.2876,-0.00186413,-0.00195951,-0.00416832,0.00225678,-0.00608042,-0.779678,0.00497936,0.0113836,1336,1744,9.15852,-70.2876
119,-720,9.1615,70.1482,-0.0009753,-0.00238997,-0.00396721,0.00234714,-0.00571241,-0.697177,0.00478649,0.0122062,1343,1744,9.16151,-70.1481
126,-720,9.19238,69.9684,8.39282e-05,-0.00278939,-0.00357643,0.00250146,-0.00520693,-0.594411,0.00454089,0.01245,1350,1744,9.19241,-69.9683
133,-720,9.23132,69.7831,0.000889995,-0.00285333,-0.00314034,0.00267413,-0.00463747,-0.51666,0.00427178,0.0132082,1357,1744,9.2313,-69.7831
140,-720,9.2655,69.562,0.00137235,-0.00262314,-0.00270305,0.00273577,-0.00398656,-0.467163,0.00390347,0.0194532,1364,1744,9.26549,-69.5621
147,-720,9.26001,69.2986,0.00159811,-0.00217549,-0.0022992,0.00268559,-0.00326297,-0.441799,0.00343979,0.0201486,1371,1744,9.26003,-69.2986
154,-720,9.23962,69.0541,0.00165194,-0.00154545,-0.0018671,0.00251127,-0.00240478,-0.431344,0.0028385,0.0139323,1378,1744,9.23968,-69.0541
161,-720,9.25989,68.7786,0.00129923,-0.000793546,-0.00148251,0.00206744,-0.00156176,-0.478088,0.00210209,0.0104393,1385,1744,9.25993,-68.7786
168,-720,9.25159,68.4854,0.000875816,-0.00017213,-0.0011391,0.00160567,-0.000901988,-0.569833,0.00146668,0.0110587,1392,1744,9.25158,-68.4853
175,-720,9.22925,68.1776,0.000455079,0.000413666,-0.000821631,0.00125626,-0.000387519,-0.7728,0.000992236,0.0173782,1399,1744,9.22929,-68.1777
182,-720,9.23267,67.8784,0.000142519,0.000897857,-0.000827724,0.00143,-0.000389626,-0.999428,0.00110632,0.0157656,1406,1744,9.23261,-67.8784
189,-720,9.23718,67.5436,4.38932e-05,0.00147689,-0.00104052,0.00202374,-0.00050296,-1.08691,0.00154436,0.0133183,1413,1744,9.2372,-67.5436
196,-720,9.22998,67.1686,-0.000111768,0.00177261,-0.00145298,0.00256214,-0.0009013,-1.07304,0.00207484,0.0147892,1420,1744,9.23002,-67.1686
203,-720,9.1925,66.7789,-0.000324534,0.00213938,-0.0019134,0.00318312,-0.00136828,-1.07142,0.00269649,0.017395,1427,1744,9.19254,-66.7789
210,-720,9.17773,66.4047,-0.000514871,0.00261153,-0.00226807,0.00380291,-0.00170626,-1.08713,0.0032566,0.0159475,1434,1744,9.1777,-66.4047
217,-720,9.17969,65.9916,-0.000730492,0.00318914,-0.00258588,0.00447395,-0.00201531,-1.10966,0.00383517,0.014926,1441,1744,9.17965,-65.9915
224,-720,9.13708,65.567,-0.00098712,0.00372224,-0.00289949,0.00510274,-0.00236761,-1.12644,0.00440832,0.011104,1448,1744,9.13708,-65.567
231,-720,9.11743,65.1532,-0.00134528,0.00407109,-0.00311848,0.00549318,-0.00276737,-1.14295,0.00485501,0.0113085,1455,1744,9.11745,-65.1532
238,-720,9.09766,64.6967,-0.0016489,0.00448225,-0.00325974,0.00589146,-0.0030581,-1.16275,0.00525264,0.00968204,1462,1744,9.09771,-64.6966
245,-720,9.06238,64.2523,-0.00201369,0.00480236,-0.003414,0.00621824,-0.00342957,-1.17766,0.0056472,0.0122643,1469,1744,9.06238,-64.2524
252,-720,9.02673,63.7684,-0.00252738,0.00526808,-0.00352656,0.00662667,-0.00388598,-1.20307,0.00613785,0.0127819,1476,1744,9.02668,-63.7685
259,-720,8.97644,63.2753,-0.0030128,0.00559515,-0.00362605,0.00691901,-0.00433665,-1.22074,0.00655522,0.0114889,1483,1744,8.97649,-63.2753
266,-720,8.9259,62.7754,-0.00355232,0.00593371,-0.00373861,0.00723002,-0.00484863,-1.23703,0.00701864,0.0087077,1490,1744,8.92586,-62.7754
273,-720,8.86267,62.2758,-0.0041193,0.00626936,-0.00390011,0.00757056,-0.0054205,-1.24878,0.00753455,0.0141937,1497,1744,8.86269,-62.2757
280,-720,8.74304,61.7683,-0.0047084,0.00660254,-0.00402728,0.00788993,-0.00599579,-1.26139,0.00804175,0.0222973,1504,1744,8.74299,-61.7683
287,-720,8.69995,61.147,-0.00539668,0.00668046,-0.00414124,0.00796406,-0.00668028,-1.27023,0.00846574,0.0386619,1511,1744,8.69989,-61.1469
294,-720,8.80237,60.6234,0,0,0,0,0,0,0,-1,1518,1744,8.8024,-60.6234
301,-720,8.52917,59.88,0,0,0,0,0,0,0,-1,1525,1744,8.52923,-59.88
308,-720,8.48608,51.5551,0,0,0,0,0,0,0,-1,1532,1744,8.48612,-51.555
315,-720,8.66516,48.6633,0,0,0,0,0,0,0,-1,1539,1744,8.6651,-48.6633
322,-720,8.98181,43.5223,0,0,0,0,0,0,0,-1,1546,1744,8.98176,-43.5223
329,-720,9.15906,34.7668,0,0,0,0,0,0,0,-1,1553,1744,9.1591,-34.7669
336,-720,6.14148,26.5682,0,0,0,0,0,0,0,-1,1560,1744,6.14151,-26.5683
343,-720,6.78552,21.3625,0,0,0,0,0,0,0,-1,1567,1744,6.78551,-21.3625
350,-720,4.0741,11.1836,0,0,0,0,0,0,0,-1,1574,1744,4.07412,-11.1836
357,-720,6.90833,21.4504,0,0,0,0,0,0,0,-1,1581,1744,6.90827,-21.4505
364,-720,6.59497,44.1384,0,0,0,0,0,0,0,-1,1588,1744,6.59492,-44.1385
371,-720,6.67773,45.2386,0,0,0,0,0,0,0,-1,1595,1744,6.67779,-45.2386
378,-720,3.88257,25.5404,0,0,0,0,0,0,0,-1,1602,1744,3.88262,-25.5404
385,-720,4.672,37.3854,0,0,0,0,0,0,0,-1,1609,1744,4.67202,-37.3854
392,-720,4.89319,36.2684,0,0,0,0,0,0,0,-1,1616,1744,4.89323,-36.2684
399,-720,2.37317,24.7166,0,0,0,0,0,0,0,-1,1623,1744,2.37317,-24.7166
406,-720,0,0,0,0,0,0,0,0,0,-1,1630,1744,0,0
413,-720,0,0,0,0,0,0,0,0,0,-1,1637,1744,0,0
420,-720,0,0,0,0,0,0,0,0,0,-1,1644,1744,0,0
427,-720,0,0,0,0,0,0,0,0,0,-1,1651,1744,0,0
434,-720,0,0,0,0,0,0,0,0,0,-1,1658,1744,0,0
441,-720,0,0,0,0,0,0,0,0,0,-1,1665,1744,0,0
448,-720,0,0,0,0,0,0,0,0,0,-1,1672,1744,0,0
455,-720,0,0,0,0,0,0,0,0,0,-1,1679,1744,0,0
462,-720,0,0,0,0,0,0,0,0,0,-1,1686,1744,0,0
469,-720,0,0,0,0,0,0,0,0,0,-1,1693,1744,0,0
476,-720,0,0,0,0,0,0,0,0,0,-1,1700,1744,0,0
483,-720,0,0,0,0,0,0,0,0,0,-1,1707,1744,0,0
490,-720,0,0,0,0,0,0,0,0,0,-1,1714,1744,0,0
497,-720,0,0,0,0,0,0,0,0,0,-1,1721,1744,0,0
504,-720,0,0,0,0,0,0,0,0,0,-1,1728,1744,0,0
511,-720,0,0,0,0,0,0,0,0,0,-1,1735,1744,0,0
518,-720,0,0,0,0,0,0,0,0,0,-1,1742,1744,0,0
525,-720,0,0,0,0,0,0,0,0,0,-1,1749,1744,0,0
532,-720,0,0,0,0,0,0,0,0,0,-1,1756,1744,0,0
539,-720,0,0,0,0,0,0,0,0,0,-1,1763,1744,0,0
546,-720,0,0,0,0,0,0,0,0,0,-1,1770,1744,0,0
553,-720,0,0,0,0,0,0,0,0,0,-1,1777,1744,0,0
560,-720,0,0,0,0,0,0,0,0,0,-1,1784,1744,0,0
567,-720,0,0,0,0,0,0,0,0,0,-1,1791,1744,0,0
574,-720,0,0,0,0,0,0,0,0,0,-1,1798,1744,0,0
581,-720,0,0,0,0,0,0,0,0,0,-1,1805,1744,0,0
588,-720,0,0,0,0,0,0,0,0,0,-1,1812,1744,0,0
595,-720,0,0,0,0,0,0,0,0,0,-1,1819,1744,0,0
602,-720,0,0,0,0,0,0,0,0,0,-1,1826,1744,0,0
609,-720,0,0,0,0,0,0,0,0,0,-1,1833,1744,0,0
616,-720,0,0,0,0,0,0,0,0,0,-1,1840,1744,0,0
623,-720,0,0,0,0,0,0,0,0,0,-1,1847,1744,0,0
630,-720,0,0,0,0,0,0,0,0,0,-1,1854,1744,0,0
637,-720,0,0,0,0,0,0,0,0,0,-1,1861,1744,0,0
644,-720,0,0,0,0,0,0,0,0,0,-1,1868,1744,0,0
651,-720,0,0,0,0,0,0,0,0,0,-1,1875,1744,0,0
658,-720,0,0,0,0,0,0,0,0,0,-1,1882,1744,0,0
665,-720,0,0,0,0,0,0,0,0,0,-1,1889,1744,0,0
672,-720,0,0,0,0,0,0,0,0,0,-1,1896,1744,0,0
679,-720,0,0,0,0,0,0,0,0,0,-1,1903,1744,0,0
686,-720,0,0,0,0,0,0,0,0,0,-1,1910,1744,0,0
693,-720,0,0,0,0,0,0,0,0,0,-1,1917,1744,0,0
700,-720,0,0,0,0,0,0,0,0,0,-1,1924,1744,0,0
707,-720,0,0,0,0,0,0,0,0,0,-1,1931,1744,0,0
714,-720,0,0,0,0,0,0,0,0,0,-1,1938,1744,0,0
721,-720,0,0,0,0,0,0,0,0,0,-1,1945,1744,0,0
728,-720,0,0,0,0,0,0,0,0,0,-1,1952,1744,0,0
735,-720,0,0,0,0,0,0,0,0,0,-1,1959,1744,0,0
742,-720,0,0,0,0,0,0,0,0,0,-1,1966,1744,0,0
749,-720,0,0,0,0,0,0,0,0,0,-1,1973,1744,0,0
756,-720,0,0,0,0,0,0,0,0,0,-1,1980,1744,0,0
763,-720,0,0,0,0,0,0,0,0,0,-1,1987,1744,0,0
770,-720,0,0,0,0,0,0,0,0,0,-1,1994,1744,0,0
777,-720,0,0,0,0,0,0,0,0,0,-1,2001,1744,0,0
784,-720,0,0,0,0,0,0,0,0,0,-1,2008,1744,0,0
791,-720,0,0,0,0,0,0,0,0,0,-1,2015,1744,0,0
798,-720,0,0,0,0,0,0,0,0,0,-1,2022,1744,0,0
805,-720,0,0,0,0,0,0,0,0,0,-1,2029,1744,0,0
812,-720,0,0,0,0,0,0,0,0,0,-1,2036,1744,0,0
-700,-727,0,0,0,0,0,0,0,0,0,-1,524,1751,0,0
-693,-727,0,0,0,0,0,0,0,0,0,-1,531,1751,0,0
-686,-727,0,0,0,0,0,0,0,0,0,-1,538,1751,0,0
-679,-727,0,0,0,0,0,0,0,0,0,-1,545,1751,0,0
-672,-727,0,0,0,0,0,0,0,0,0,-1,552,1751,0,0
-665,-727,0,0,0,0,0,0,0,0,0,-1,559,1751,0,0
-658,-727,0,0,0,0,0,0,0,0,0,-1,566,1751,0,0
-651,-727,0,0,0,0,0,0,0,0,0,-1,573,1751,0,0
-644,-727,0,0,0,0,0,0,0,0,0,-1,580,1751,0,0
-637,-727,0,0,0,0,0,0,0,0,0,-1,587,1751,0,0
-630,-727,0,0,0,0,0,0,0,0,0,-1,594,1751,0,0
-623,-727,0,0,0,0,0,0,0,0,0,-1,601,1751,0,0
-616,-727,0,0,0,0,0,0,0,0,0,-1,608,1751,0,0
-609,-727,0,0,0,0,0,0,0,0,0,-1,615,1751,0,0
-602,-727,0,0,0,0,0,0,0,0,0,-1,622,1751,0,0
-595,-727,0,0,0,0,0,0,0,0,0,-1,629,1751,0,0
-588,-727,0,0,0,0,0,0,0,0,0,-1,636,1751,0,0
-581,-727,0,0,0,0,0,0,0,0,0,-1,643,1751,0,0
-574,-727,0,0,0,0,0,0,0,0,0,-1,650,1751,0,0
-567,-727,0,0,0,0,0,0,0,0,0,-1,657,1751,0,0
-560,-727,0,0,0,0,0,0,0,0,0,-1,664,1751,0,0
-553,-727,0,0,0,0,0,0,0,0,0,-1,671,1751,0,0
-546,-727,0,0,0,0,0,0,0,0,0,-1,678,1751,0,0
-539,-727,0,0,0,0,0,0,0,0,0,-1,685,1751,0,0
-532,-727,0,0,0,0,0,0,0,0,0,-1,692,1751,0,0
-525,-727,0,0,0,0,0,0,0,0,0,-1,699,1751,0,0
-518,-727,0,0,0,0,0,0,0,0,0,-1,706,1751,0,0
-511,-727,0,0,0,0,0,0,0,0,0,-1,713,1751,0,0
-504,-727,0,0,0,0,0,0,0,0,0,-1,720,1751,0,0
-497,-727,0,0,0,0,0,0,0,0,0,-1,727,1751,0,0
-490,-727,0,0,0,0,0,0,0,0,0,-1,734,1751,0,0
-483,-727,0,0,0,0,0,0,0,0,0,-1,741,1751,0,0
-476,-727,0,0,0,0,0,0,0,0,0,-1,748,1751,0,0
-469,-727,0,0,0,0,0,0,0,0,0,-1,755,1751,0,0
-462,-727,0,0,0,0,0,0,0,0,0,-1,762,1751,0,0
-455,-727,0,0,0,0,0,0,0,0,0,-1,769,1751,0,0
-448,-727,0,0,0,0,0,0,0,0,0,-1,776,1751,0,0
-441,-727,0,0,0,0,0,0,0,0,0,-1,783,1751,0,0
-434,-727,0,0,0,0,0,0,0,0,0,-1,790,1751,0,0
-427,-727,0,0,0,0,0,0,0,0,0,-1,797,1751,0,0
-420,-727,0,0,0,0,0,0,0,0,0,-1,804,1751,0,0
-413,-727,0,0,0,0,0,0,0,0,0,-1,811,1751,0,0
-406,-727,0,0,0,0,0,0,0,0,0,-1,818,1751,0,0
-399,-727,0,0,0,0,0,0,0,0,0,-1,825,1751,0,0
-392,-727,0,0,0,0,0,0,0,0,0,-1,832,1751,0,0
-385,-727,0,0,0,0,0,0,0,0,0,-1,839,1751,0,0
-378,-727,0,0,0,0,0,0,0,0,0,-1,846,1751,0,0
-371,-727,0,0,0,0,0,0,0,0,0,-1,853,1751,0,0
-364,-727,0,0,0,0,0,0,0,0,0,-1,860,1751,0,0
-357,-727,0,0,0,0,0,0,0,0,0,-1,867,1751,0,0
-350,-727,0,0,0,0,0,0,0,0,0,-1,874,1751,0,0
-343,-727,0,0,0,0,0,0,0,0,0,-1,881,1751,0,0
-336,-727,0,0,0,0,0,0,0,0,0,-1,888,1751,0,0
-329,-727,0,0,0,0,0,0,0,0,0,-1,895,1751,0,0
-322,-727,0,0,0,0,0,0,0,0,0,-1,902,1751,0,0
-315,-727,0,0,0,0,0,0,0,0,0,-1,909,1751,0,0
-308,-727,0,0,0,0,0,0,0,0,0,-1,916,1751,0,0
-301,-727,0,0,0,0,0,0,0,0,0,-1,923,1751,0,0
-294,-727,0,0,0,0,0,0,0,0,0,-1,930,1751,0,0
-287,-727,0,0,0,0,0,0,0,0,0,-1,937,1751,0,0
-280,-727,0,0,0,0,0,0,0,0,0,-1,944,1751,0,0
-273,-727,0,0,0,0,0,0,0,0,0,-1,951,1751,0,0
-266,-727,4.24805,7.61145,0,0,0,0,0,0,0,-1,958,1751,4.24802,-7.6115
-259,-727,3.65228,5.4082,0,0,0,0,0,0,0,-1,965,1751,3.65229,-5.40818
-252,-727,5.8797,32.9292,0,0,0,0,0,0,0,-1,972,1751,5.87972,-32.9292
-245,-727,6.59198,32.2588,0,0,0,0,0,0,0,-1,979,1751,6.59195,-32.2587
-238,-727,6.6189,30.4597,0,0,0,0,0,0,0,-1,986,1751,6.61889,-30.4598
-231,-727,9.95819,51.5021,0,0,0,0,0,0,0,-1,993,1751,9.95818,-51.5021
-224,-727,10.0845,52.0088,0,0,0,0,0,0,0,-1,1000,1751,10.0845,-52.0088
-217,-727,10.2109,52.5154,0,0,0,0,0,0,0,-1,1007,1751,10.2109,-52.5154
-210,-727,5.0921,32.4524,0,0,0,0,0,0,0,-1,1014,1751,5.09209,-32.4523
-203,-727,14.1763,48.6819,0,0,0,0,0,0,0,-1,1021,1751,14.1763,-48.6819
-196,-727,13.0454,48.5956,0,0,0,0,0,0,0,-1,1028,1751,13.0455,-48.5955
-189,-727,10.3168,48.1697,0,0,0,0,0,0,0,-1,1035,1751,10.3168,-48.1697
-182,-727,9.71899,59.7433,0,0,0,0,0,0,0,-1,1042,1751,9.71902,-59.7433
-175,-727,10.2424,60.8163,0,0,0,0,0,0,0,-1,1049,1751,10.2424,-60.8163
-168,-727,10.1378,61.2891,0,0,0,0,0,0,0,-1,1056,1751,10.1378,-61.289
-161,-727,9.48083,61.6801,0,0,0,0,0,0,0,-1,1063,1751,9.4808,-61.6801
-154,-727,9.78699,62.1781,0,0,0,0,0,0,0,-1,1070,1751,9.78703,-62.1781
-147,-727,9.81836,62.8582,0,0,0,0,0,0,0,-1,1077,1751,9.81837,-62.8581
-140,-727,9.51538,63.061,-0.00506977,0.00675487,0.00574368,0.00908545,-0.00740034,1.18533,0.00953464,0.0364136,1084,1751,9.51542,-63.061
-133,-727,9.60364,63.6398,-0.00486093,0.00610052,0.0054211,0.00832867,-0.00708908,1.18083,0.00891103,0.0259771,1091,1751,9.60365,-63.6398
-126,-727,9.47778,64.2302,-0.00483104,0.0055641,0.00513195,0.00767075,-0.00693769,1.18127,0.00843773,0.0258638,1098,1751,9.47772,-64.2302
-119,-727,9.41931,64.5883,0,0,0,0,0,0,0,-1,1105,1751,9.41931,-64.5882
-112,-727,9.39465,65.2159,0,0,0,0,0,0,0,-1,1112,1751,9.39463,-65.2159
-105,-727,9.35962,65.6295,0,0,0,0,0,0,0,-1,1119,1751,9.35961,-65.6295
-98,-727,9.31897,66.0392,-0.00365408,0.00411872,0.00453047,0.00620134,-0.0057367,1.13991,0.00689417,0.0181886,1126,1751,9.319,-66.0392
-91,-727,9.2572,66.4286,-0.00337235,0.00380118,0.00429669,0.00581141,-0.00538259,1.13319,0.00646444,0.0139036,1133,1751,9.25726,-66.4286
-84,-727,9.22095,66.8197,-0.00325037,0.0025696,0.00382966,0.00446943,-0.0051502,1.11029,0.00555852,0.0132317,1140,1751,9.2209,-66.8196
-77,-727,9.17603,67.1871,-0.00283253,0.00204835,0.00354758,0.00391384,-0.00469802,1.08668,0.00497892,0.0140684,1147,1751,9.17606,-67.1871
-70,-727,9.15649,67.5679,-0.0024527,0.00194607,0.00297375,0.0034454,-0.00395203,1.1038,0.00427425,0.015423,1154,1751,9.15652,-67.5678
-63,-727,9.14612,67.9102,-0.00262161,0.0022295,0.00254816,0.00332197,-0.00371407,1.16577,0.00406436,0.0125759,1161,1751,9.14616,-67.9101
-56,-727,9.10535,68.2118,-0.00266463,0.00246239,0.00215384,0.00324711,-0.00344935,1.22141,0.00386679,0.0126912,1168,1751,9.10539,-68.2118
-49,-727,9.05957,68.5051,-0.00237875,0.00208739,0.00177923,0.00270954,-0.0030009,1.23441,0.00329835,0.0149676,1175,1751,9.05954,-68.5052
-42,-727,9.03406,68.7955,-0.00203637,0.00170698,0.0014841,0.00222397,-0.00255336,1.23559,0.00276037,0.0175196,1182,1751,9.03408,-68.7955
-35,-727,9.00647,69.0598,-0.00160028,0.00116729,0.00118113,0.00160283,-0.00203582,1.21752,0.00210573,0.015445,1189,1751,9.00641,-69.0598
-28,-727,9.01782,69.2994,-0.00106562,0.00059025,0.000929664,0.00100721,-0.00148258,1.14919,0.00144618,0.0097089,1196,1751,9.01786,-69.2995
-21,-727,8.9895,69.5342,-0.000603389,9.65632e-06,0.000794411,0.00055463,-0.00114836,0.969522,0.00100294,0.0114545,1203,1751,8.98952,-69.5342
-14,-727,8.98987,69.7437,-0.000174085,-0.000577906,0.000715115,0.000367077,-0.00111907,0.647806,0.000893891,0.0128002,1210,1751,8.98991,-69.7437
-7,-727,9.00732,69.9592,0.000187713,-0.00120177,0.000582731,0.000399747,-0.0014138,0.34897,0.00110026,0.0159168,1217,1751,9.00728,-69.9592
0,-727,8.99072,70.1564,0.000491828,-0.00149654,0.000499794,0.000610386,-0.0016151,0.23291,0.00132781,0.0156618,1224,1751,8.99078,-70.1564
7,-727,8.98669,70.2899,0.000633987,-0.00159313,0.000424544,0.000712171,-0.00167132,0.182119,0.00141276,0.0154133,1231,1751,8.98664,-70.29
14,-727,8.99658,70.4215,0.000726544,-0.00160653,0.00036382,0.000781961,-0.00166194,0.15116,0.00144116,0.0152626,1238,1751,8.99661,-70.4215
21,-727,8.97534,70.5447,0.000600157,-0.00145054,0.000194669,0.000618473,-0.00146886,0.0938116,0.00123801,0.0128836,1245,1751,8.97531,-70.5447
28,-727,8.98364,70.616,0.000375507,-0.00110277,-4.64509e-05,0.000376965,-0.00110423,-0.031381,0.000888864,0.01189,1252,1751,8.98362,-70.616
35,-727,9.0105,70.7018,5.60261e-05,-0.000817776,-0.000398467,0.000210444,-0.000972194,-0.369711,0.000728481,0.0122684,1259,1751,9.01053,-70.7018
42,-727,9.00891,70.7511,-0.000480163,-0.000535975,-0.000722561,0.00021503,-0.00123117,-0.766097,0.000901049,0.0125205,1266,1751,9.00885,-70.751
49,-727,8.9978,70.7826,-0.00118688,-0.000364001,-0.00101936,0.000323819,-0.0018747,-0.977213,0.00137055,0.011556,1273,1751,8.99781,-70.7826
56,-727,8.97571,70.8273,-0.00188772,-0.000151002,-0.00120599,0.000466728,-0.00250545,-1.09742,0.00184565,0.0103623,1280,1751,8.97575,-70.8273
63,-727,8.99939,70.8285,-0.00261413,3.66843e-05,-0.00136323,0.000612621,-0.00319006,-1.17106,0.0023576,0.0118049,1287,1751,8.9994,-70.8285
70,-727,9.05005,70.7959,-0.00325036,4.73169e-05,-0.0014934,0.000623093,-0.00382614,-1.20281,0.00278182,0.0140167,1294,1751,9.05004,-70.7959
77,-727,9.04651,70.7729,-0.00367612,-0.000167527,-0.00151967,0.000399158,-0.00424281,-1.21387,0.00297055,0.0176999,1301,1751,9.04647,-70.773
84,-727,9.06958,70.6248,-0.00402441,-0.000470451,-0.00148623,6.91488e-05,-0.00456401,-1.22253,0.00306598,0.0193263,1308,1751,9.06959,-70.6248
91,-727,9.06799,70.516,-0.00421989,-0.000758645,-0.00134334,-0.000298464,-0.00468007,-1.24076,0.00302547,0.0207073,1315,1751,9.06803,-70.516
98,-727,9.021,70.4945,-0.00419503,-0.00106032,-0.00107017,-0.000729819,-0.00452554,-1.27126,0.00280557,0.0172461,1322,1751,9.02102,-70.4945
105,-727,9.02393,70.3851,-0.00399696,-0.00136113,-0.000742796,-0.00116622,-0.00419187,-1.31418,0.00249828,0.0140105,1329,1751,9.02392,-70.3851
112,-727,9.03772,70.276,-0.00367925,-0.0016007,-0.000506522,-0.00148384,-0.00379612,-1.34405,0.00220902,0.0113504,1336,1751,9.03767,-70.276
119,-727,9.03796,70.1461,-0.00345222,-0.00165384,-0.000321489,-0.0015981,-0.00350796,-1.39911,0.00202799,0.00971794,1343,1751,9.03795,-70.1462
126,-727,9.05481,69.9435,-0.0030677,-0.0016231,-5.2129e-05,-0.00162122,-0.00306958,-1.53477,0.00177316,0.0110037,1350,1751,9.05478,-69.9435
133,-727,9.04944,69.7627,-0.00274679,-0.00144686,0.000139911,-0.00143197,-0.00276168,1.46478,0.00159482,0.0156522,1357,1751,9.0494,-69.7627
140,-727,9.0564,69.5757,-0.0025386,-0.00100784,0.000256787,-0.000965908,-0.00258053,1.40895,0.00150548,0.0221938,1364,1751,9.05645,-69.5756
147,-727,9.0426,69.3108,-0.00239552,-0.000585478,0.000157037,-0.000571955,-0.00240904,1.48489,0.00145339,0.0186802,1371,1751,9.04266,-69.3108
154,-727,9.01074,69.0364,-0.00230145,-8.49907e-05,-2.93663e-05,-8.46016e-05,-0.00230184,-1.55755,0.00150715,0.0123444,1378,1751,9.01068,-69.0364
161,-727,8.99646,68.7842,-0.00228605,0.000431147,-0.000251241,0.000454182,-0.00230908,-1.47937,0.001711,0.00983195,1385,1751,8.99644,-68.7842
168,-727,8.95471,68.5122,-0.00233598,0.000790487,-0.000490383,0.000865598,-0.00241109,-1.41881,0.00196069,0.0127136,1392,1751,8.95466,-68.5123
175,-727,8.93274,68.2098,-0.00232116,0.00101099,-0.000755896,0.00117445,-0.00248462,-1.35783,0.00215723,0.0184667,1399,1751,8.93272,-68.2098
182,-727,8.93909,67.8994,-0.00238609,0.00126033,-0.00111463,0.00157406,-0.00269982,-1.29643,0.00249589,0.0197624,1406,1751,8.93907,-67.8994
189,-727,8.90063,67.5421,-0.00211591,0.00183548,-0.00158371,0.00239188,-0.00267231,-1.23294,0.00292531,0.0129549,1413,1751,8.90064,-67.5421
196,-727,8.86658,67.1656,-0.00211403,0.00221535,-0.00217224,0.00311734,-0.00301602,-1.17723,0.00354126,0.0152157,1420,1751,8.86662,-67.1656
203,-727,8.81702,66.7656,-0.00221745,0.0027451,-0.00283887,0.00403422,-0.00350658,-1.14454,0.00435724,0.0184591,1427,1751,8.81706,-66.7656
210,-727,8.80591,66.401,-0.00226332,0.00348713,-0.00327465,0.00496969,-0.00374588,-1.14567,0.00504844,0.0184625,1434,1751,8.80593,-66.401
217,-727,8.7793,66.0195,-0.00230956,0.00429376,-0.0036826,0.00593805,-0.00395385,-1.15085,0.00574927,0.013676,1441,1751,8.77927,-66.0195
224,-727,8.72937,65.5779,-0.00241341,0.00501627,-0.00403291,0.00678453,-0.00418167,-1.15758,0.00639051,0.0139427,1448,1751,8.72943,-65.5779
231,-727,8.69458,65.1354,-0.0026805,0.00546662,-0.00427803,0.00730029,-0.00451418,-1.16586,0.00688402,0.0128144,1455,1751,8.69461,-65.1353
238,-727,8.72656,64.5154,-0.00288925,0.00597649,-0.00445441,0.00782789,-0.00474066,-1.17689,0.00732906,0.0315735,1462,1751,8.72659,-64.5154
245,-727,8.82593,63.9081,0,0,0,0,0,0,0,-1,1469,1751,8.82589,-63.9081
252,-727,8.55872,63.8005,0,0,0,0,0,0,0,-1,1476,1751,8.55871,-63.8005
259,-727,8.49207,63.2731,0,0,0,0,0,0,0,-1,1483,1751,8.49206,-63.273
266,-727,8.52551,62.6506,-0.00461969,0.00788604,-0.00505502,0.0096738,-0.00640745,-1.23087,0.00934813,0.0454499,1490,1751,8.52556,-62.6507
273,-727,8.50854,62.1746,-0.00523367,0.00832038,-0.00523847,0.010109,-0.00702225,-1.24177,0.00994409,0.0485143,1497,1751,8.50852,-62.1746
280,-727,8.26379,61.877,0,0,0,0,0,0,0,-1,1504,1751,8.26384,-61.8769
287,-727,8.11292,61.1196,0,0,0,0,0,0,0,-1,1511,1751,8.11295,-61.1196
294,-727,8.48657,53.1189,0,0,0,0,0,0,0,-1,1518,1751,8.48656,-53.1189
301,-727,8.44385,46.1619,0,0,0,0,0,0,0,-1,1525,1751,8.4439,-46.1619
308,-727,8.77002,44.8007,0,0,0,0,0,0,0,-1,1532,1751,8.76996,-44.8006
315,-727,8.10571,41.24,0,0,0,0,0,0,0,-1,1539,1751,8.10567,-41.2399
322,-727,8.24133,40.2081,0,0,0,0,0,0,0,-1,1546,1751,8.24136,-40.2082
329,-727,5.54419,31.0325,0,0,0,0,0,0,0,-1,1553,1751,5.54425,-31.0325
336,-727,5.55823,20.2439,0,0,0,0,0,0,0,-1,1560,1751,5.55829,-20.2438
343,-727,2.41699,8.72095,0,0,0,0,0,0,0,-1,1567,1751,2.41702,-8.72098
350,-727,3.89783,7.50195,0,0,0,0,0,0,0,-1,1574,1751,3.89782,-7.50193
357,-727,4.48462,10.2948,0,0,0,0,0,0,0,-1,1581,1751,4.48464,-10.2948
364,-727,6.96729,17.2365,0,0,0,0,0,0,0,-1,1588,1751,6.96732,-17.2365
371,-727,5.04565,23.2227,0,0,0,0,0,0,0,-1,1595,1751,5.04564,-23.2227
378,-727,4.56726,23.0574,0,0,0,0,0,0,0,-1,1602,1751,4.56727,-23.0574
385,-727,3.52307,22.6431,0,0,0,0,0,0,0,-1,1609,1751,3.52303,-22.643
392,-727,0,0,0,0,0,0,0,0,0,-1,1616,1751,0,0
399,-727,0,0,0,0,0,0,0,0,0,-1,1623,1751,0,0
406,-727,0,0,0,0,0,0,0,0,0,-1,1630,1751,0,0
413,-727,0,0,0,0,0,0,0,0,0,-1,1637,1751,0,0
420,-727,0,0,0,0,0,0,0,0,0,-1,1644,1751,0,0
427,-727,0,0,0,0,0,0,0,0,0,-1,1651,1751,0,0
434,-727,0,0,0,0,0,0,0,0,0,-1,1658,1751,0,0
441,-727,0,0,0,0,0,0,0,0,0,-1,1665,1751,0,0
448,-727,0,0,0,0,0,0,0,0,0,-1,1672,1751,0,0
455,-727,0,0,0,0,0,0,0,0,0,-1,1679,1751,0,0
462,-727,0,0,0,0,0,0,0,0,0,-1,1686,1751,0,0
469,-727,0,0,0,0,0,0,0,0,0,-1,1693,1751,0,0
476,-727,0,0,0,0,0,0,0,0,0,-1,1700,1751,0,0
483,-727,0,0,0,0,0,0,0,0,0,-1,1707,1751,0,0
490,-727,0,0,0,0,0,0,0,0,0,-1,1714,1751,0,0
497,-727,0,0,0,0,0,0,0,0,0,-1,1721,1751,0,0
504,-727,0,0,0,0,0,0,0,0,0,-1,1728,1751,0,0
511,-727,0,0,0,0,0,0,0,0,0,-1,1735,1751,0,0
518,-727,0,0,0,0,0,0,0,0,0,-1,1742,1751,0,0
525,-727,0,0,0,0,0,0,0,0,0,-1,1749,1751,0,0
532,-727,0,0,0,0,0,0,0,0,0,-1,1756,1751,0,0
539,-727,0,0,0,0,0,0,0,0,0,-1,1763,1751,0,0
546,-727,0,0,0,0,0,0,0,0,0,-1,1770,1751,0,0
553,-727,0,0,0,0,0,0,0,0,0,-1,1777,1751,0,0
560,-727,0,0,0,0,0,0,0,0,0,-1,1784,1751,0,0
567,-727,0,0,0,0,0,0,0,0,0,-1,1791,1751,0,0
574,-727,0,0,0,0,0,0,0,0,0,-1,1798,1751,0,0
581,-727,0,0,0,0,0,0,0,0,0,-1,1805,1751,0,0
588,-727,0,0,0,0,0,0,0,0,0,-1,1812,1751,0,0
595,-727,0,0,0,0,0,0,0,0,0,-1,1819,1751,0,0
602,-727,0,0,0,0,0,0,0,0,0,-1,1826,1751,0,0
609,-727,0,0,0,0,0,0,0,0,0,-1,1833,1751,0,0
616,-727,0,0,0,0,0,0,0,0,0,-1,1840,1751,0,0
623,-727,0,0,0,0,0,0,0,0,0,-1,1847,1751,0,0
630,-727,0,0,0,0,0,0,0,0,0,-1,1854,1751,0,0
637,-727,0,0,0,0,0,0,0,0,0,-1,1861,1751,0,0
644,-727,0,0,0,0,0,0,0,0,0,-1,1868,1751,0,0
651,-727,0,0,0,0,0,0,0,0,0,-1,1875,1751,0,0
658,-727,0,0,0,0,0,0,0,0,0,-1,1882,1751,0,0
665,-727,0,0,0,0,0,0,0,0,0,-1,1889,1751,0,0
672,-727,0,0,0,0,0,0,0,0,0,-1,1896,1751,0,0
679,-727,0,0,0,0,0,0,0,0,0,-1,1903,1751,0,0
686,-727,0,0,0,0,0,0,0,0,0,-1,1910,1751,0,0
693,-727,0,0,0,0,0,0,0,0,0,-1,1917,1751,0,0
700,-727,0,0,0,0,0,0,0,0,0,-1,1924,1751,0,0
707,-727,0,0,0,0,0,0,0,0,0,-1,1931,1751,0,0
714,-727,0,0,0,0,0,0,0,0,0,-1,1938,1751,0,0
721,-727,0,0,0,0,0,0,0,0,0,-1,1945,1751,0,0
728,-727,0,0,0,0,0,0,0,0,0,-1,1952,1751,0,0
735,-727,0,0,0,0,0,0,0,0,0,-1,1959,1751,0,0
742,-727,0,0,0,0,0,0,0,0,0,-1,1966,1751,0,0
749,-727,0,0,0,0,0,0,0,0,0,-1,1973,1751,0,0
756,-727,0,0,0,0,0,0,0,0,0,-1,1980,1751,0,0
763,-727,0,0,0,0,0,0,0,0,0,-1,1987,1751,0,0
770,-727,0,0,0,0,0,0,0,0,0,-1,1994,1751,0,0
777,-727,0,0,0,0,0,0,0,0,0,-1,2001,1751,0,0
784,-727,0,0,0,0,0,0,0,0,0,-1,2008,1751,0,0
791,-727,0,0,0,0,0,0,0,0,0,-1,2015,1751,0,0
798,-727,0,0,0,0,0,0,0,0,0,-1,2022,1751,0,0
805,-727,0,0,0,0,0,0,0,0,0,-1,2029,1751,0,0
812,-727,0,0,0,0,0,0,0,0,0,-1,2036,1751,0,0
-700,-734,0,0,0,0,0,0,0,0,0,-1,524,1758,0,0
-693,-734,0,0,0,0,0,0,0,0,0,-1,531,1758,0,0
-686,-734,0,0,0,0,0,0,0,0,0,-1,538,1758,0,0
-679,-734,0,0,0,0,0,0,0,0,0,-1,545,1758,0,0
-672,-734,0,0,0,0,0,0,0,0,0,-1,552,1758,0,0
-665,-734,0,0,0,0,0,0,0,0,0,-1,559,1758,0,0
-658,-734,0,0,0,0,0,0,0,0,0,-1,566,1758,0,0
-651,-734,0,0,0,0,0,0,0,0,0,-1,573,1758,0,0
-644,-734,0,0,0,0,0,0,0,0,0,-1,580,1758,0,0
-637,-734,0,0,0,0,0,0,0,0,0,-1,587,1758,0,0
-630,-734,0,0,0,0,0,0,0,0,0,-1,594,1758,0,0
-623,-734,0,0,0,0,0,0,0,0,0,-1,601,1758,0,0
-616,-734,0,0,0,0,0,0,0,0,0,-1,608,1758,0,0
-609,-734,0,0,0,0,0,0,0,0,0,-1,615,1758,0,0
-602,-734,0,0,0,0,0,0,0,0,0,-1,622,1758,0,0
-595,-734,0,0,0,0,0,0,0,0,0,-1,629,1758,0,0
-588,-734,0,0,0,0,0,0,0,0,0,-1,636,1758,0,0
-581,-734,0,0,0,0,0,0,0,0,0,-1,643,1758,0,0
-574,-734,0,0,0,0,0,0,0,0,0,-1,650,1758,0,0
-567,-734,0,0,0,0,0,0,0,0,0,-1,657,1758,0,0
-560,-734,0,0,0,0,0,0,0,0,0,-1,664,1758,0,0
-553,-734,0,0,0,0,0,0,0,0,0,-1,671,1758,0,0
-546,-734,0,0,0,0,0,0,0,0,0,-1,678,1758,0,0
-539,-734,0,0,0,0,0,0,0,0,0,-1,685,1758,0,0
-532,-734,0,0,0,0,0,0,0,0,0,-1,692,1758,0,0
-525,-734,0,0,0,0,0,0,0,0,0,-1,699,1758,0,0
-518,-734,0,0,0,0,0,0,0,0,0,-1,706,1758,0,0
-511,-734,0,0,0,0,0,0,0,0,0,-1,713,1758,0,0
-504,-734,0,0,0,0,0,0,0,0,0,-1,720,1758,0,0
-497,-734,0,0,0,0,0,0,0,0,0,-1,727,1758,0,0
-490,-734,0,0,0,0,0,0,0,0,0,-1,734,1758,0,0
-483,-734,0,0,0,0,0,0,0,0,0,-1,741,1758,0,0
-476,-734,0,0,0,0,0,0,0,0,0,-1,748,1758,0,0
-469,-734,0,0,0,0,0,0,0,0,0,-1,755,1758,0,0
-462,-734,0,0,0,0,0,0,0,0,0,-1,762,1758,0,0
-455,-734,0,0,0,0,0,0,0,0,0,-1,769,1758,0,0
-448,-734,0,0,0,0,0,0,0,0,0,-1,776,1758,0,0
-441,-734,0,0,0,0,0,0,0,0,0,-1,783,1758,0,0
-434,-734,0,0,0,0,0,0,0,0,0,-1,790,1758,0,0
-427,-734,0,0,0,0,0,0,0,0,0,-1,797,1758,0,0
-420,-734,0,0,0,0,0,0,0,0,0,-1,804,1758,0,0
-413,-734,0,0,0,0,0,0,0,0,0,-1,811,1758,0,0
-406,-734,0,0,0,0,0,0,0,0,0,-1,818,1758,0,0
-399,-734,0,0,0,0,0,0,0,0,0,-1,825,1758,0,0
-392,-734,0,0,0,0,0,0,0,0,0,-1,832,1758,0,0
-385,-734,0,0,0,0,0,0,0,0,0,-1,839,1758,0,0
-378,-734,0,0,0,0,0,0,0,0,0,-1,846,1758,0,0
-371,-734,0,0,0,0,0,0,0,0,0,-1,853,1758,0,0
-364,-734,0,0,0,0,0,0,0,0,0,-1,860,1758,0,0
-357,-734,0,0,0,0,0,0,0,0,0,-1,867,1758,0,0
-350,-734,0,0,0,0,0,0,0,0,0,-1,874,1758,0,0
-343,-734,0,0,0,0,0,0,0,0,0,-1,881,1758,0,0
-336,-734,0,0,0,0,0,0,0,0,0,-1,888,1758,0,0
-329,-734,0,0,0,0,0,0,0,0,0,-1,895,1758,0,0
-322,-734,0,0,0,0,0,0,0,0,0,-1,902,1758,0,0
-315,-734,0,0,0,0,0,0,0,0,0,-1,909,1758,0,0
-308,-734,0,0,0,0,0,0,0,0,0,-1,916,1758,0,0
-301,-734,0,0,0,0,0,0,0,0,0,-1,923,1758,0,0
-294,-734,0,0,0,0,0,0,0,0,0,-1,930,1758,0,0
-287,-734,0,0,0,0,0,0,0,0,0,-1,937,1758,0,0
-280,-734,0,0,0,0,0,0,0,0,0,-1,944,1758,0,0
-273,-734,0,0,0,0,0,0,0,0,0,-1,951,1758,0,0
-266,-734,0,0,0,0,0,0,0,0,0,-1,958,1758,0,0
-259,-734,0,0,0,0,0,0,0,0,0,-1,965,1758,0,0
-252,-734,5.73883,31.5245,0,0,0,0,0,0,0,-1,972,1758,5.73884,-31.5246
-245,-734,6.32513,30.9761,0,0,0,0,0,0,0,-1,979,1758,6.32511,-30.9761
-238,-734,6.82385,30.0449,0,0,0,0,0,0,0,-1,986,1758,6.82387,-30.0449
-231,-734,7.1958,29.1666,0,0,0,0,0,0,0,-1,993,1758,7.19578,-29.1666
-224,-734,10.8631,52.8424,0,0,0,0,0,0,0,-1,1000,1758,10.8631,-52.8424
-217,-734,7.45984,28.4386,0,0,0,0,0,0,0,-1,1007,1758,7.45986,-28.4386
-210,-734,7.45483,28.4388,0,0,0,0,0,0,0,-1,1014,1758,7.45482,-28.4388
-203,-734,14.3309,49.7766,0,0,0,0,0,0,0,-1,1021,1758,14.3309,-49.7766
-196,-734,13.0366,49.6821,0,0,0,0,0,0,0,-1,1028,1758,13.0366,-49.6822
-189,-734,11.8075,49.2727,0,0,0,0,0,0,0,-1,1035,1758,11.8075,-49.2728
-182,-734,10.8073,48.8035,0,0,0,0,0,0,0,-1,1042,1758,10.8072,-48.8035
-175,-734,9.90186,48.634,0,0,0,0,0,0,0,-1,1049,1758,9.90187,-48.6341
-168,-734,10.3246,61.437,0,0,0,0,0,0,0,-1,1056,1758,10.3246,-61.437
-161,-734,8.28674,49.0464,0,0,0,0,0,0,0,-1,1063,1758,8.28671,-49.0464
-154,-734,10.3014,52.4893,0,0,0,0,0,0,0,-1,1070,1758,10.3014,-52.4893
-147,-734,10.325,56.6101,0,0,0,0,0,0,0,-1,1077,1758,10.3249,-56.6101
-140,-734,10.0201,63.0072,0,0,0,0,0,0,0,-1,1084,1758,10.0201,-63.0072
-133,-734,10.0242,63.6495,0,0,0,0,0,0,0,-1,1091,1758,10.0242,-63.6495
-126,-734,9.87585,64.1088,0,0,0,0,0,0,0,-1,1098,1758,9.8758,-64.1088
-119,-734,9.79077,63.3988,0,0,0,0,0,0,0,-1,1105,1758,9.79077,-63.3988
-112,-734,9.52307,61.2794,0,0,0,0,0,0,0,-1,1112,1758,9.52313,-61.2794
-105,-734,9.39783,63.9799,0,0,0,0,0,0,0,-1,1119,1758,9.39786,-63.9798
-98,-734,9.69763,66.0562,0,0,0,0,0,0,0,-1,1126,1758,9.69759,-66.0561
-91,-734,9.61194,66.417,0,0,0,0,0,0,0,-1,1133,1758,9.6119,-66.417
-84,-734,9.55298,66.7893,0,0,0,0,0,0,0,-1,1140,1758,9.55301,-66.7893
-77,-734,9.51147,67.1967,0,0,0,0,0,0,0,-1,1147,1758,9.51145,-67.1967
-70,-734,9.50439,67.5868,0,0,0,0,0,0,0,-1,1154,1758,9.50434,-67.5868
-63,-734,9.35095,67.6914,-0.00488967,0.00337682,0.00396293,0.00496971,-0.00648255,1.18861,0.00663117,0.0361677,1161,1758,9.35096,-67.6914
-56,-734,9.39148,68.2323,-0.0054092,0.00377834,0.00346307,0.00493745,-0.00656831,1.24781,0.00666506,0.0177049,1168,1758,9.39152,-68.2323
-49,-734,9.34082,68.5266,-0.00526455,0.00296702,0.00292828,0.00390242,-0.00619995,1.2616,0.00588267,0.0148444,1175,1758,9.34087,-68.5266
-42,-734,9.29407,68.8182,-0.00498988,0.00229362,0.00253317,0.003088,-0.00578426,1.26692,0.00520065,0.0154149,1182,1758,9.29402,-68.8182
-35,-734,9.27917,69.0789,-0.00451929,0.00143854,0.00211084,0.00211059,-0.00519135,1.26256,0.00433905,0.0145501,1189,1758,9.27917,-69.0788
-28,-734,9.26941,69.3029,-0.00387835,0.000567125,0.00177365,0.00118804,-0.00449927,1.23405,0.00346412,0.0103611,1196,1758,9.26939,-69.3028
-21,-734,9.27454,69.5159,-0.0033619,-0.000111259,0.00154715,0.000507375,-0.00398053,1.19042,0.00283797,0.0168551,1203,1758,9.27457,-69.5158
-14,-734,9.20251,69.7709,-0.00285569,-0.000797404,0.00138903,-9.78078e-05,-0.00355529,1.10423,0.00233827,0.0173504,1210,1758,9.20249,-69.7709
-7,-734,9.18298,69.9636,-0.0023928,-0.00155545,0.00120309,-0.000700268,-0.00324798,0.952845,0.00197375,0.0183885,1217,1758,9.18302,-69.9636
0,-734,9.14221,70.1248,-0.00198057,-0.0019526,0.00113825,-0.000828244,-0.00310492,0.791541,0.00185651,0.0180377,1224,1758,9.14218,-70.1248
7,-734,9.11499,70.2773,-0.00168299,-0.00207764,0.00115578,-0.000707806,-0.00305282,0.700849,0.0018451,0.0136869,1231,1758,9.115,-70.2774
14,-734,9.08997,70.4171,-0.00149437,-0.00201941,0.00123294,-0.000496311,-0.00301748,0.680504,0.00186832,0.0144505,1238,1758,9.08995,-70.4171
21,-734,9.04041,70.5266,-0.00143023,-0.0018649,0.00121414,-0.000414126,-0.00288101,0.696835,0.00179859,0.0124624,1245,1758,9.0404,-70.5266
28,-734,9.03821,70.6312,-0.00145252,-0.00146329,0.00116389,-0.000293995,-0.00262181,0.783085,0.00165858,0.0118077,1252,1758,9.03824,-70.6313
35,-734,9.0459,70.7452,-0.00169746,-0.00139423,0.000878676,-0.000654181,-0.0024375,0.870832,0.00145675,0.014714,1259,1758,9.04591,-70.7452
42,-734,9.05762,70.777,-0.00222104,-0.0014408,0.000603805,-0.00111205,-0.00254979,1.07221,0.00147612,0.0122993,1266,1758,9.05763,-70.777
49,-734,9.02393,70.7954,-0.00296469,-0.00158186,0.000374234,-0.00148708,-0.00305947,1.32274,0.00176662,0.0104687,1273,1758,9.02394,-70.7955
56,-734,8.99402,70.8302,-0.00382734,-0.00164807,0.000163949,-0.0016358,-0.00383961,1.49613,0.00222487,0.00978891,1280,1758,8.99398,-70.8303
63,-734,8.97852,70.8031,-0.00474585,-0.00175541,-6.38076e-05,-0.00175405,-0.00474721,-1.54947,0.00277175,0.0128577,1287,1758,8.97855,-70.8031
70,-734,8.97485,70.7826,-0.00569289,-0.00194674,-0.000311955,-0.00192094,-0.00571869,-1.48828,0.00336043,0.0132277,1294,1758,8.97489,-70.7826
77,-734,8.98767,70.7728,-0.00652835,-0.00234514,-0.000532415,-0.00227844,-0.00659505,-1.44617,0.00386779,0.0174326,1301,1758,8.98765,-70.7728
84,-734,8.98792,70.6664,-0.00724537,-0.00282332,-0.000716128,-0.00271024,-0.00735845,-1.41418,0.00429724,0.0182687,1308,1758,8.98791,-70.6664
91,-734,8.98279,70.6011,-0.00785288,-0.00314202,-0.000792241,-0.00301236,-0.00798254,-1.40857,0.0046547,0.0223163,1315,1758,8.98275,-70.6011
98,-734,8.9425,70.541,-0.00823014,-0.00332215,-0.000755567,-0.00320846,-0.00834382,-1.42146,0.00485994,0.0164478,1322,1758,8.94251,-70.5411
105,-734,8.92712,70.4069,-0.00850567,-0.00338822,-0.000703056,-0.00329339,-0.0086005,-1.43672,0.00501067,0.0152569,1329,1758,8.92714,-70.4068
112,-734,8.93372,70.2629,-0.00868269,-0.00337307,-0.000706137,-0.00328076,-0.00877499,-1.44081,0.00511969,0.0123183,1336,1758,8.93371,-70.263
119,-734,8.91992,70.0935,-0.00872398,-0.00313163,-0.0006808,-0.00304994,-0.00880567,-1.45138,0.00516334,0.0135823,1343,1758,8.91995,-70.0935
126,-734,8.89929,69.9103,-0.00854452,-0.0026662,-0.000480832,-0.00262713,-0.00858359,-1.48972,0.00507848,0.0161082,1350,1758,8.89926,-69.9102
133,-734,8.8501,69.7211,-0.00825544,-0.00216034,-0.000322817,-0.00214329,-0.00827249,-1.51803,0.00495748,0.0145239,1357,1758,8.85014,-69.721
140,-734,8.83105,69.5306,-0.00783918,-0.00127259,-0.000100885,-0.00127104,-0.00784073,-1.55544,0.00485921,0.0194054,1364,1758,8.83102,-69.5306
147,-734,8.79822,69.2678,-0.00736121,-0.000563472,-0.000125211,-0.000561166,-0.00736352,-1.55239,0.00473306,0.0142634,1371,1758,8.79817,-69.2678
154,-734,8.76001,69.0355,-0.00684255,8.60378e-05,-0.000276193,9.70303e-05,-0.00685354,-1.53102,0.00460171,0.0101213,1378,1758,8.76001,-69.0356
161,-734,8.74023,68.7848,-0.0063547,0.000707203,-0.000471576,0.000738554,-0.00638605,-1.50441,0.00452369,0.00915461,1385,1758,8.74027,-68.7848
168,-734,8.69031,68.4878,-0.00593566,0.00108486,-0.00071801,0.00115754,-0.00600834,-1.46991,0.00444197,0.0143668,1392,1758,8.69035,-68.4878
175,-734,8.64429,68.1959,-0.00534934,0.00119835,-0.00104286,0.00136044,-0.00551143,-1.41661,0.00420183,0.0183832,1399,1758,8.64433,-68.196
182,-734,8.65222,67.8641,-0.00493839,0.00141805,-0.00145515,0.00173533,-0.00525568,-1.35611,0.00420338,0.0167056,1406,1758,8.65226,-67.8642
189,-734,8.59143,67.5227,-0.00424588,0.00209776,-0.00200478,0.00267821,-0.00482634,-1.28897,0.00439152,0.0127449,1413,1758,8.59147,-67.5228
196,-734,8.52539,67.1609,-0.00401728,0.00257554,-0.00282301,0.00361914,-0.00506088,-1.2167,0.00503441,0.0157097,1420,1758,8.52536,-67.1609
203,-734,8.50586,66.7506,-0.0040342,0.00330644,-0.00380258,0.00492109,-0.00564885,-1.16925,0.00610738,0.0223218,1427,1758,8.50585,-66.7506
210,-734,8.50806,66.3542,-0.00393069,0.00444188,-0.00438305,0.00631663,-0.00580544,-1.16662,0.00700075,0.0382103,1434,1758,8.50808,-66.3543
217,-734,8.43823,65.9568,0,0,0,0,0,0,0,-1,1441,1758,8.43818,-65.9568
224,-734,8.3468,65.6248,0,0,0,0,0,0,0,-1,1448,1758,8.34683,-65.6247
231,-734,8.24951,65.0884,0,0,0,0,0,0,0,-1,1455,1758,8.24946,-65.0883
238,-734,8.36011,64.146,0,0,0,0,0,0,0,-1,1462,1758,8.36012,-64.146
245,-734,8.29065,60.4988,0,0,0,0,0,0,0,-1,1469,1758,8.29062,-60.4987
252,-734,8.17517,58.5679,0,0,0,0,0,0,0,-1,1476,1758,8.1752,-58.5678
259,-734,8.07666,59.5597,0,0,0,0,0,0,0,-1,1483,1758,8.07667,-59.5597
266,-734,8.15198,62.4321,0,0,0,0,0,0,0,-1,1490,1758,8.15192,-62.4321
273,-734,8.22437,62.0486,0,0,0,0,0,0,0,-1,1497,1758,8.22438,-62.0485
280,-734,7.90149,52.7294,0,0,0,0,0,0,0,-1,1504,1758,7.90153,-52.7294
287,-734,7.56177,50.5933,0,0,0,0,0,0,0,-1,1511,1758,7.56172,-50.5933
294,-734,7.42676,47.7545,0,0,0,0,0,0,0,-1,1518,1758,7.4268,-47.7545
301,-734,7.21814,42.6078,0,0,0,0,0,0,0,-1,1525,1758,7.21809,-42.6078
308,-734,8.0509,41.5156,0,0,0,0,0,0,0,-1,1532,1758,8.05087,-41.5157
315,-734,7.93787,40.8274,0,0,0,0,0,0,0,-1,1539,1758,7.93784,-40.8273
322,-734,7.82483,40.139,0,0,0,0,0,0,0,-1,1546,1758,7.82481,-40.139
329,-734,5.73267,19.656,0,0,0,0,0,0,0,-1,1553,1758,5.73262,-19.656
336,-734,6.71375,23.7469,0,0,0,0,0,0,0,-1,1560,1758,6.71372,-23.7469
343,-734,5.54968,5.14221,0,0,0,0,0,0,0,-1,1567,1758,5.54973,-5.14225
350,-734,5.07397,6.73242,0,0,0,0,0,0,0,-1,1574,1758,5.07402,-6.73243
357,-734,5.05542,7.19189,0,0,0,0,0,0,0,-1,1581,1758,5.05541,-7.19184
364,-734,4.43896,10.4904,0,0,0,0,0,0,0,-1,1588,1758,4.43893,-10.4904
371,-734,7.36975,17.4751,0,0,0,0,0,0,0,-1,1595,1758,7.36972,-17.4752
378,-734,0,0,0,0,0,0,0,0,0,-1,1602,1758,0,0
385,-734,0,0,0,0,0,0,0,0,0,-1,1609,1758,0,0
392,-734,0,0,0,0,0,0,0,0,0,-1,1616,1758,0,0
399,-734,0,0,0,0,0,0,0,0,0,-1,1623,1758,0,0
406,-734,0,0,0,0,0,0,0,0,0,-1,1630,1758,0,0
413,-734,0,0,0,0,0,0,0,0,0,-1,1637,1758,0,0
420,-734,0,0,0,0,0,0,0,0,0,-1,1644,1758,0,0
427,-734,0,0,0,0,0,0,0,0,0,-1,1651,1758,0,0
434,-734,0,0,0,0,0,0,0,0,0,-1,1658,1758,0,0
441,-734,0,0,0,0,0,0,0,0,0,-1,1665,1758,0,0
448,-734,0,0,0,0,0,0,0,0,0,-1,1672,1758,0,0
455,-734,0,0,0,0,0,0,0,0,0,-1,1679,1758,0,0
462,-734,0,0,0,0,0,0,0,0,0,-1,1686,1758,0,0
469,-734,0,0,0,0,0,0,0,0,0,-1,1693,1758,0,0
476,-734,0,0,0,0,0,0,0,0,0,-1,1700,1758,0,0
483,-734,0,0,0,0,0,0,0,0,0,-1,1707,1758,0,0
490,-734,0,0,0,0,0,0,0,0,0,-1,1714,1758,0,0
497,-734,0,0,0,0,0,0,0,0,0,-1,1721,1758,0,0
504,-734,0,0,0,0,0,0,0,0,0,-1,1728,1758,0,0
511,-734,0,0,0,0,0,0,0,0,0,-1,1735,1758,0,0
518,-734,0,0,0,0,0,0,0,0,0,-1,1742,1758,0,0
525,-734,0,0,0,0,0,0,0,0,0,-1,1749,1758,0,0
532,-734,0,0,0,0,0,0,0,0,0,-1,1756,1758,0,0
539,-734,0,0,0,0,0,0,0,0,0,-1,1763,1758,0,0
546,-734,0,0,0,0,0,0,0,0,0,-1,1770,1758,0,0
553,-734,0,0,0,0,0,0,0,0,0,-1,1777,1758,0,0
560,-734,0,0,0,0,0,0,0,0,0,-1,1784,1758,0,0
567,-734,0,0,0,0,0,0,0,0,0,-1,1791,1758,0,0
574,-734,0,0,0,0,0,0,0,0,0,-1,1798,1758,0,0
581,-734,0,0,0,0,0,0,0,0,0,-1,1805,1758,0,0
588,-734,0,0,0,0,0,0,0,0,0,-1,1812,1758,0,0
595,-734,0,0,0,0,0,0,0,0,0,-1,1819,1758,0,0
602,-734,0,0,0,0,0,0,0,0,0,-1,1826,1758,0,0
609,-734,0,0,0,0,0,0,0,0,0,-1,1833,1758,0,0
616,-734,0,0,0,0,0,0,0,0,0,-1,1840,1758,0,0
623,-734,0,0,0,0,0,0,0,0,0,-1,1847,1758,0,0
630,-734,0,0,0,0,0,0,0,0,0,-1,1854,1758,0,0
637,-734,0,0,0,0,0,0,0,0,0,-1,1861,1758,0,0
644,-734,0,0,0,0,0,0,0,0,0,-1,1868,1758,0,0
651,-734,0,0,0,0,0,0,0,0,0,-1,1875,1758,0,0
658,-734,0,0,0,0,0,0,0,0,0,-1,1882,1758,0,0
665,-734,0,0,0,0,0,0,0,0,0,-1,1889,1758,0,0
672,-734,0,0,0,0,0,0,0,0,0,-1,1896,1758,0,0
679,-734,0,0,0,0,0,0,0,0,0,-1,1903,1758,0,0
686,-734,0,0,0,0,0,0,0,0,0,-1,1910,1758,0,0
693,-734,0,0,0,0,0,0,0,0,0,-1,1917,1758,0,0
700,-734,0,0,0,0,0,0,0,0,0,-1,1924,1758,0,0
707,-734,0,0,0,0,0,0,0,0,0,-1,1931,1758,0,0
714,-734,0,0,0,0,0,0,0,0,0,-1,1938,1758,0,0
721,-734,0,0,0,0,0,0,0,0,0,-1,1945,1758,0,0
728,-734,0,0,0,0,0,0,0,0,0,-1,1952,1758,0,0
735,-734,0,0,0,0,0,0,0,0,0,-1,1959,1758,0,0
742,-734,0,0,0,0,0,0,0,0,0,-1,1966,1758,0,0
749,-734,0,0,0,0,0,0,0,0,0,-1,1973,1758,0,0
756,-734,0,0,0,0,0,0,0,0,0,-1,1980,1758,0,0
763,-734,0,0,0,0,0,0,0,0,0,-1,1987,1758,0,0
770,-734,0,0,0,0,0,0,0,0,0,-1,1994,1758,0,0
777,-734,0,0,0,0,0,0,0,0,0,-1,2001,1758,0,0
784,-734,0,0,0,0,0,0,0,0,0,-1,2008,1758,0,0
791,-734,0,0,0,0,0,0,0,0,0,-1,2015,1758,0,0
798,-734,0,0,0,0,0,0,0,0,0,-1,2022,1758,0,0
805,-734,0,0,0,0,0,0,0,0,0,-1,2029,1758,0,0
812,-734,0,0,0,0,0,0,0,0,0,-1,2036,1758,0,0
-700,-741,0,0,0,0,0,0,0,0,0,-1,524,1765,0,0
-693,-741,0,0,0,0,0,0,0,0,0,-1,531,1765,0,0
-686,-741,0,0,0,0,0,0,0,0,0,-1,538,1765,0,0
-679,-741,0,0,0,0,0,0,0,0,0,-1,545,1765,0,0
-672,-741,0,0,0,0,0,0,0,0,0,-1,552,1765,0,0
-665,-741,0,0,0,0,0,0,0,0,0,-1,559,1765,0,0
-658,-741,0,0,0,0,0,0,0,0,0,-1,566,1765,0,0
-651,-741,0,0,0,0,0,0,0,0,0,-1,573,1765,0,0
-644,-741,0,0,0,0,0,0,0,0,0,-1,580,1765,0,0
-637,-741,0,0,0,0,0,0,0,0,0,-1,587,1765,0,0
-630,-741,0,0,0,0,0,0,0,0,0,-1,594,1765,0,0
-623,-741,0,0,0,0,0,0,0,0,0,-1,601,1765,0,0
-616,-741,0,0,0,0,0,0,0,0,0,-1,608,1765,0,0
-609,-741,0,0,0,0,0,0,0,0,0,-1,615,1765,0,0
-602,-741,0,0,0,0,0,0,0,0,0,-1,622,1765,0,0
-595,-741,0,0,0,0,0,0,0,0,0,-1,629,1765,0,0
-588,-741,0,0,0,0,0,0,0,0,0,-1,636,1765,0,0
-581,-741,0,0,0,0,0,0,0,0,0,-1,643,1765,0,0
-574,-741,0,0,0,0,0,0,0,0,0,-1,650,1765,0,0
-567,-741,0,0,0,0,0,0,0,0,0,-1,657,1765,0,0
-560,-741,0,0,0,0,0,0,0,0,0,-1,664,1765,0,0
-553,-741,0,0,0,0,0,0,0,0,0,-1,671,1765,0,0
-546,-741,0,0,0,0,0,0,0,0,0,-1,678,1765,0,0
-539,-741,0,0,0,0,0,0,0,0,0,-1,685,1765,0,0
-532,-741,0,0,0,0,0,0,0,0,0,-1,692,1765,0,0
-525,-741,0,0,0,0,0,0,0,0,0,-1,699,1765,0,0
-518,-741,0,0,0,0,0,0,0,0,0,-1,706,1765,0,0
-511,-741,0,0,0,0,0,0,0,0,0,-1,713,1765,0,0
-504,-741,0,0,0,0,0,0,0,0,0,-1,720,1765,0,0
-497,-741,0,0,0,0,0,0,0,0,0,-1,727,1765,0,0
-490,-741,0,0,0,0,0,0,0,0,0,-1,734,1765,0,0
-483,-741,0,0,0,0,0,0,0,0,0,-1,741,1765,0,0
-476,-741,0,0,0,0,0,0,0,0,0,-1,748,1765,0,0
-469,-741,0,0,0,0,0,0,0,0,0,-1,755,1765,0,0
-462,-741,0,0,0,0,0,0,0,0,0,-1,762,1765,0,0
-455,-741,0,0,0,0,0,0,0,0,0,-1,769,1765,0,0
-448,-741,0,0,0,0,0,0,0,0,0,-1,776,1765,0,0
-441,-741,0,0,0,0,0,0,0,0,0,-1,783,1765,0,0
-434,-741,0,0,0,0,0,0,0,0,0,-1,790,1765,0,0
-427,-741,0,0,0,0,0,0,0,0,0,-1,797,1765,0,0
-420,-741,0,0,0,0,0,0,0,0,0,-1,804,1765,0,0
-413,-741,0,0,0,0,0,0,0,0,0,-1,811,1765,0,0
-406,-741,0,0,0,0,0,0,0,0,0,-1,818,1765,0,0
-399,-741,0,0,0,0,0,0,0,0,0,-1,825,1765,0,0
-392,-741,0,0,0,0,0,0,0,0,0,-1,832,1765,0,0
-385,-741,0,0,0,0,0,0,0,0,0,-1,839,1765,0,0
-378,-741,0,0,0,0,0,0,0,0,0,-1,846,1765,0,0
-371,-741,0,0,0,0,0,0,0,0,0,-1,853,1765,0,0
-364,-741,0,0,0,0,0,0,0,0,0,-1,860,1765,0,0
-357,-741,0,0,0,0,0,0,0,0,0,-1,867,1765,0,0
-350,-741,0,0,0,0,0,0,0,0,0,-1,874,1765,0,0
-343,-741,0,0,0,0,0,0,0,0,0,-1,881,1765,0,0
-336,-741,0,0,0,0,0,0,0,0,0,-1,888,1765,0,0
-329,-741,0,0,0,0,0,0,0,0,0,-1,895,1765,0,0
-322,-741,0,0,0,0,0,0,0,0,0,-1,902,1765,0,0
-315,-741,0,0,0,0,0,0,0,0,0,-1,909,1765,0,0
-308,-741,0,0,0,0,0,0,0,0,0,-1,916,1765,0,0
-301,-741,0,0,0,0,0,0,0,0,0,-1,923,1765,0,0
-294,-741,0,0,0,0,0,0,0,0,0,-1,930,1765,0,0
-287,-741,0,0,0,0,0,0,0,0,0,-1,937,1765,0,0
-280,-741,0,0,0,0,0,0,0,0,0,-1,944,1765,0,0
-273,-741,0,0,0,0,0,0,0,0,0,-1,951,1765,0,0
-266,-741,0,0,0,0,0,0,0,0,0,-1,958,1765,0,0
-259,-741,0,0,0,0,0,0,0,0,0,-1,965,1765,0,0
-252,-741,0,0,0,0,0,0,0,0,0,-1,972,1765,0,0
-245,-741,0,0,0,0,0,0,0,0,0,-1,979,1765,0,0
-238,-741,7.13855,29.8348,0,0,0,0,0,0,0,-1,986,1765,7.13856,-29.8348
-231,-741,7.74182,29.3066,0,0,0,0,0,0,0,-1,993,1765,7.74183,-29.3066
-224,-741,7.80078,29.0964,0,0,0,0,0,0,0,-1,1000,1765,7.80079,-29.0964
-217,-741,8.15863,29.113,0,0,0,0,0,0,0,-1,1007,1765,8.15863,-29.1131
-210,-741,8.37024,29.3896,0,0,0,0,0,0,0,-1,1014,1765,8.37022,-29.3896
-203,-741,7.703,44.0701,0,0,0,0,0,0,0,-1,1021,1765,7.70306,-44.0701
-196,-741,13.1698,50.7012,0,0,0,0,0,0,0,-1,1028,1765,13.1698,-50.7012
-189,-741,12.3024,50.0712,0,0,0,0,0,0,0,-1,1035,1765,12.3023,-50.0712
-182,-741,11.3236,49.675,0,0,0,0,0,0,0,-1,1042,1765,11.3236,-49.675
-175,-741,10.1451,49.7836,0,0,0,0,0,0,0,-1,1049,1765,10.1451,-49.7836
-168,-741,8.38049,49.6892,0,0,0,0,0,0,0,-1,1056,1765,8.38049,-49.6892
-161,-741,8.15625,50.3143,0,0,0,0,0,0,0,-1,1063,1765,8.15622,-50.3143
-154,-741,7.93201,50.9395,0,0,0,0,0,0,0,-1,1070,1765,7.93195,-50.9395
-147,-741,10.9515,48.8568,0,0,0,0,0,0,0,-1,1077,1765,10.9515,-48.8569
-140,-741,10.5068,51.2876,0,0,0,0,0,0,0,-1,1084,1765,10.5068,-51.2876
-133,-741,10.6208,54.5072,0,0,0,0,0,0,0,-1,1091,1765,10.6208,-54.5072
-126,-741,9.89746,52.7167,0,0,0,0,0,0,0,-1,1098,1765,9.8975,-52.7167
-119,-741,9.33801,50.1482,0,0,0,0,0,0,0,-1,1105,1765,9.33802,-50.1482
-112,-741,9.6283,47.2815,0,0,0,0,0,0,0,-1,1112,1765,9.62827,-47.2815
-105,-741,9.61792,45.9158,0,0,0,0,0,0,0,-1,1119,1765,9.61797,-45.9158
-98,-741,9.19971,40.25,0,0,0,0,0,0,0,-1,1126,1765,9.19971,-40.25
-91,-741,8.40002,36.3687,0,0,0,0,0,0,0,-1,1133,1765,8.40002,-36.3687
-84,-741,7.8877,35.0892,0,0,0,0,0,0,0,-1,1140,1765,7.88776,-35.0892
-77,-741,7.73303,34.1174,0,0,0,0,0,0,0,-1,1147,1765,7.73304,-34.1174
-70,-741,7.5437,32.0275,0,0,0,0,0,0,0,-1,1154,1765,7.5437,-32.0275
-63,-741,9.37451,67.3129,0,0,0,0,0,0,0,-1,1161,1765,9.37451,-67.3128
-56,-741,9.68604,68.2582,0,0,0,0,0,0,0,-1,1168,1765,9.68598,-68.2582
-49,-741,9.62903,68.5958,0,0,0,0,0,0,0,-1,1175,1765,9.62901,-68.5958
-42,-741,9.53601,68.8588,0,0,0,0,0,0,0,-1,1182,1765,9.53596,-68.8587
-35,-741,9.52429,69.078,-0.00847831,0.000466754,0.0030487,0.00140699,-0.00941855,1.27164,0.00679675,0.0246761,1189,1765,9.52433,-69.078
-28,-741,9.5188,69.3003,-0.00767744,-0.000645169,0.00261422,0.000220172,-0.00854278,1.25113,0.00576998,0.0148336,1196,1765,9.51874,-69.3003
-21,-741,9.5033,69.5226,-0.00704776,-0.00144135,0.00230049,-0.000618236,-0.00787088,1.22719,0.00505379,0.0197691,1203,1765,9.50325,-69.5226
-14,-741,9.41528,69.7684,-0.00638549,-0.0022293,0.00207319,-0.001372,-0.0072428,1.17869,0.00444239,0.0200062,1210,1765,9.41532,-69.7684
-7,-741,9.35889,69.943,-0.00577533,-0.00307809,0.00183745,-0.00214746,-0.00670597,1.10198,0.00395423,0.0160943,1217,1765,9.35888,-69.9429
0,-741,9.31921,70.0889,-0.0052518,-0.00345553,0.00173866,-0.00239673,-0.0063106,1.0238,0.00367836,0.0162194,1224,1765,9.3192,-70.0889
7,-741,9.26587,70.257,-0.00492284,-0.00343754,0.00176468,-0.00226561,-0.00609478,0.984569,0.00355721,0.0183621,1231,1765,9.26589,-70.2569
14,-741,9.20752,70.4193,-0.00476356,-0.00312876,0.0019221,-0.00185747,-0.00603485,0.986445,0.00356901,0.0174656,1238,1765,9.20753,-70.4193
21,-741,9.15027,70.5249,-0.00479324,-0.00270311,0.00195072,-0.00153515,-0.00596119,1.03131,0.00357405,0.0141243,1245,1765,9.15027,-70.5249
28,-741,9.09729,70.6542,-0.00493723,-0.00197317,0.00195977,-0.000998146,-0.00591226,1.10914,0.00365451,0.0139637,1252,1765,9.09723,-70.6542
35,-741,9.09778,70.7188,-0.00545357,-0.00181045,0.00160646,-0.00120326,-0.00606075,1.20943,0.00370513,0.0155641,1259,1765,9.09779,-70.7187
42,-741,9.07312,70.74,-0.00632798,-0.00185461,0.00125066,-0.00152869,-0.00665389,1.31587,0.00402434,0.0157379,1266,1765,9.07317,-70.74
49,-741,9.04321,70.7843,-0.00754034,-0.00205213,0.000917583,-0.00190278,-0.00768969,1.40945,0.00462458,0.0103028,1273,1765,9.04325,-70.7843
56,-741,9.0155,70.8207,-0.00896066,-0.00222416,0.000534306,-0.00218205,-0.00900278,1.49214,0.00542287,0.00992416,1280,1765,9.01556,-70.8207
63,-741,8.99402,70.7937,-0.0104117,-0.00250995,0.000112927,-0.00250834,-0.0104133,1.55651,0.0062755,0.0155852,1287,1765,8.99404,-70.7938
70,-741,8.96313,70.7703,-0.0119513,-0.00287979,-0.000379345,-0.00286395,-0.0119671,-1.52908,0.00721543,0.0175798,1294,1765,8.96316,-70.7703
77,-741,8.93018,70.7625,-0.0133539,-0.00359882,-0.000851733,-0.00352501,-0.0134277,-1.48436,0.00803868,0.0138864,1301,1765,8.93021,-70.7625
84,-741,8.87891,70.7103,-0.0144535,-0.00444132,-0.00127877,-0.00428057,-0.0146143,-1.44575,0.00867545,0.0161579,1308,1765,8.87896,-70.7103
91,-741,8.84302,70.6476,-0.0153362,-0.00500212,-0.00152981,-0.00478041,-0.015558,-1.42687,0.00920214,0.0143668,1315,1765,8.84297,-70.6476
98,-741,8.81714,70.5145,-0.015878,-0.00530521,-0.00162271,-0.00506176,-0.0161215,-1.42188,0.00952006,0.0110294,1322,1765,8.81712,-70.5145
105,-741,8.80103,70.3647,-0.016251,-0.00544035,-0.0016615,-0.00519075,-0.0165006,-1.42169,0.00974253,0.0108179,1329,1765,8.80107,-70.3647
112,-741,8.82031,70.2144,-0.0164223,-0.00542697,-0.00171814,-0.00516475,-0.0166845,-1.41934,0.00986297,0.0107095,1336,1765,8.82028,-70.2143
119,-741,8.77026,70.0569,-0.0163407,-0.00507402,-0.00170777,-0.00482085,-0.0165939,-1.42362,0.00985677,0.0133264,1343,1765,8.77028,-70.0569
126,-741,8.7262,69.8845,-0.0158979,-0.00436632,-0.00137487,-0.00420467,-0.0160595,-1.45375,0.00961625,0.0186003,1350,1765,8.72624,-69.8845
133,-741,8.67578,69.6949,-0.0152621,-0.00361286,-0.00106116,-0.00351698,-0.015358,-1.48069,0.00929095,0.014929,1357,1765,8.6758,-69.6949
140,-741,8.61133,69.4828,-0.0143894,-0.00234175,-0.000607077,-0.00231123,-0.01442,-1.52058,0.00894301,0.0120186,1364,1765,8.61133,-69.4828
147,-741,8.57458,69.2576,-0.0134201,-0.0013723,-0.000478317,-0.00135334,-0.0134391,-1.53118,0.00854409,0.0109137,1371,1765,8.57454,-69.2576
154,-741,8.53015,69.0359,-0.0122979,-0.000475904,-0.000514721,-0.000453536,-0.0123202,-1.52737,0.00806655,0.00904893,1378,1765,8.5301,-69.0358
161,-741,8.49707,68.7679,-0.0111607,0.000433891,-0.000599754,0.000464832,-0.0111916,-1.51925,0.00762077,0.0114036,1385,1765,8.49713,-68.768
168,-741,8.45935,68.4749,-0.0102115,0.000893169,-0.000848444,0.00095762,-0.0102759,-1.49498,0.00719111,0.0265356,1392,1765,8.45941,-68.4749
175,-741,8.40271,68.2015,0,0,0,0,0,0,0,-1,1399,1765,8.40271,-68.2015
182,-741,8.34363,67.8239,0,0,0,0,0,0,0,-1,1406,1765,8.34359,-67.8239
189,-741,8.2572,67.5173,0,0,0,0,0,0,0,-1,1413,1765,8.25718,-67.5173
196,-741,8.19275,67.1838,0,0,0,0,0,0,0,-1,1420,1765,8.19278,-67.1838
203,-741,8.18286,66.7052,0,0,0,0,0,0,0,-1,1427,1765,8.18281,-66.7052
210,-741,8.11548,66.0751,0,0,0,0,0,0,0,-1,1434,1765,8.11553,-66.0751
217,-741,8.4032,40.1213,0,0,0,0,0,0,0,-1,1441,1765,8.40325,-40.1214
224,-741,8.0719,38.4249,0,0,0,0,0,0,0,-1,1448,1765,8.07187,-38.4249
231,-741,7.95923,39.0671,0,0,0,0,0,0,0,-1,1455,1765,7.9592,-39.0671
238,-741,7.96619,42.4865,0,0,0,0,0,0,0,-1,1462,1765,7.96621,-42.4864
245,-741,8.53577,45.7744,0,0,0,0,0,0,0,-1,1469,1765,8.53581,-45.7744
252,-741,8.59167,47.473,0,0,0,0,0,0,0,-1,1476,1765,8.59162,-47.473
259,-741,8.47412,48.5269,0,0,0,0,0,0,0,-1,1483,1765,8.47412,-48.5269
266,-741,8.50134,48.3838,0,0,0,0,0,0,0,-1,1490,1765,8.50132,-48.3838
273,-741,8.81421,49.1227,0,0,0,0,0,0,0,-1,1497,1765,8.81426,-49.1227
280,-741,7.33093,51.4729,0,0,0,0,0,0,0,-1,1504,1765,7.33092,-51.4729
287,-741,7.52783,49.7068,0,0,0,0,0,0,0,-1,1511,1765,7.52783,-49.7068
294,-741,5.91187,43.7742,0,0,0,0,0,0,0,-1,1518,1765,5.91188,-43.7742
301,-741,6.20667,38.5165,0,0,0,0,0,0,0,-1,1525,1765,6.20667,-38.5165
308,-741,7.99036,42.5969,0,0,0,0,0,0,0,-1,1532,1765,7.99037,-42.5969
315,-741,7.83838,41.6693,0,0,0,0,0,0,0,-1,1539,1765,7.83835,-41.6694
322,-741,7.68628,40.7418,0,0,0,0,0,0,0,-1,1546,1765,7.68633,-40.7418
329,-741,4.74414,17.928,0,0,0,0,0,0,0,-1,1553,1765,4.74414,-17.928
336,-741,5.74304,22.0945,0,0,0,0,0,0,0,-1,1560,1765,5.74306,-22.0945
343,-741,7.09888,26.501,0,0,0,0,0,0,0,-1,1567,1765,7.09885,-26.501
350,-741,4.90369,5.44666,0,0,0,0,0,0,0,-1,1574,1765,4.90368,-5.44664
357,-741,4.02063,5.16626,0,0,0,0,0,0,0,-1,1581,1765,4.02058,-5.1662
364,-741,0,0,0,0,0,0,0,0,0,-1,1588,1765,0,0
371,-741,0,0,0,0,0,0,0,0,0,-1,1595,1765,0,0
378,-741,0,0,0,0,0,0,0,0,0,-1,1602,1765,0,0
385,-741,0,0,0,0,0,0,0,0,0,-1,1609,1765,0,0
392,-741,0,0,0,0,0,0,0,0,0,-1,1616,1765,0,0
399,-741,0,0,0,0,0,0,0,0,0,-1,1623,1765,0,0
406,-741,0,0,0,0,0,0,0,0,0,-1,1630,1765,0,0
413,-741,0,0,0,0,0,0,0,0,0,-1,1637,1765,0,0
420,-741,0,0,0,0,0,0,0,0,0,-1,1644,1765,0,0
427,-741,0,0,0,0,0,0,0,0,0,-1,1651,1765,0,0
434,-741,0,0,0,0,0,0,0,0,0,-1,1658,1765,0,0
441,-741,0,0,0,0,0,0,0,0,0,-1,1665,1765,0,0
448,-741,0,0,0,0,0,0,0,0,0,-1,1672,1765,0,0
455,-741,0,0,0,0,0,0,0,0,0,-1,1679,1765,0,0
462,-741,0,0,0,0,0,0,0,0,0,-1,1686,1765,0,0
469,-741,0,0,0,0,0,0,0,0,0,-1,1693,1765,0,0
476,-741,0,0,0,0,0,0,0,0,0,-1,1700,1765,0,0
483,-741,0,0,0,0,0,0,0,0,0,-1,1707,1765,0,0
490,-741,0,0,0,0,0,0,0,0,0,-1,1714,1765,0,0
497,-741,0,0,0,0,0,0,0,0,0,-1,1721,1765,0,0
504,-741,0,0,0,0,0,0,0,0,0,-1,1728,1765,0,0
511,-741,0,0,0,0,0,0,0,0,0,-1,1735,1765,0,0
518,-741,0,0,0,0,0,0,0,0,0,-1,1742,1765,0,0
525,-741,0,0,0,0,0,0,0,0,0,-1,1749,1765,0,0
532,-741,0,0,0,0,0,0,0,0,0,-1,1756,1765,0,0
539,-741,0,0,0,0,0,0,0,0,0,-1,1763,1765,0,0
546,-741,0,0,0,0,0,0,0,0,0,-1,1770,1765,0,0
553,-741,0,0,0,0,0,0,0,0,0,-1,1777,1765,0,0
560,-741,0,0,0,0,0,0,0,0,0,-1,1784,1765,0,0
567,-741,0,0,0,0,0,0,0,0,0,-1,1791,1765,0,0
574,-741,0,0,0,0,0,0,0,0,0,-1,1798,1765,0,0
581,-741,0,0,0,0,0,0,0,0,0,-1,1805,1765,0,0
588,-741,0,0,0,0,0,0,0,0,0,-1,1812,1765,0,0
595,-741,0,0,0,0,0,0,0,0,0,-1,1819,1765,0,0
602,-741,0,0,0,0,0,0,0,0,0,-1,1826,1765,0,0
609,-741,0,0,0,0,0,0,0,0,0,-1,1833,1765,0,0
616,-741,0,0,0,0,0,0,0,0,0,-1,1840,1765,0,0
623,-741,0,0,0,0,0,0,0,0,0,-1,1847,1765,0,0
630,-741,0,0,0,0,0,0,0,0,0,-1,1854,1765,0,0
637,-741,0,0,0,0,0,0,0,0,0,-1,1861,1765,0,0
644,-741,0,0,0,0,0,0,0,0,0,-1,1868,1765,0,0
651,-741,0,0,0,0,0,0,0,0,0,-1,1875,1765,0,0
658,-741,0,0,0,0,0,0,0,0,0,-1,1882,1765,0,0
665,-741,0,0,0,0,0,0,0,0,0,-1,1889,1765,0,0
672,-741,0,0,0,0,0,0,0,0,0,-1,1896,1765,0,0
679,-741,0,0,0,0,0,0,0,0,0,-1,1903,1765,0,0
686,-741,0,0,0,0,0,0,0,0,0,-1,1910,1765,0,0
693,-741,0,0,0,0,0,0,0,0,0,-1,1917,1765,0,0
700,-741,0,0,0,0,0,0,0,0,0,-1,1924,1765,0,0
707,-741,0,0,0,0,0,0,0,0,0,-1,1931,1765,0,0
714,-741,0,0,0,0,0,0,0,0,0,-1,1938,1765,0,0
721,-741,0,0,0,0,0,0,0,0,0,-1,1945,1765,0,0
728,-741,0,0,0,0,0,0,0,0,0,-1,1952,1765,0,0
735,-741,0,0,0,0,0,0,0,0,0,-1,1959,1765,0,0
742,-741,0,0,0,0,0,0,0,0,0,-1,1966,1765,0,0
749,-741,0,0,0,0,0,0,0,0,0,-1,1973,1765,0,0
756,-741,0,0,0,0,0,0,0,0,0,-1,1980,1765,0,0
763,-741,0,0,0,0,0,0,0,0,0,-1,1987,1765,0,0
770,-741,0,0,0,0,0,0,0,0,0,-1,1994,1765,0,0
777,-741,0,0,0,0,0,0,0,0,0,-1,2001,1765,0,0
784,-741,0,0,0,0,0,0,0,0,0,-1,2008,1765,0,0
791,-741,0,0,0,0,0,0,0,0,0,-1,2015,1765,0,0
798,-741,0,0,0,0,0,0,0,0,0,-1,2022,1765,0,0
805,-741,0,0,0,0,0,0,0,0,0,-1,2029,1765,0,0
812,-741,0,0,0,0,0,0,0,0,0,-1,2036,1765,0,0
-700,-748,0,0,0,0,0,0,0,0,0,-1,524,1772,0,0
-693,-748,0,0,0,0,0,0,0,0,0,-1,531,1772,0,0
-686,-748,0,0,0,0,0,0,0,0,0,-1,538,1772,0,0
-679,-748,0,0,0,0,0,0,0,0,0,-1,545,1772,0,0
-672,-748,0,0,0,0,0,0,0,0,0,-1,552,1772,0,0
-665,-748,0,0,0,0,0,0,0,0,0,-1,559,1772,0,0
-658,-748,0,0,0,0,0,0,0,0,0,-1,566,1772,0,0
-651,-748,0,0,0,0,0,0,0,0,0,-1,573,1772,0,0
-644,-748,0,0,0,0,0,0,0,0,0,-1,580,1772,0,0
-637,-748,0,0,0,0,0,0,0,0,0,-1,587,1772,0,0
-630,-748,0,0,0,0,0,0,0,0,0,-1,594,1772,0,0
-623,-748,0,0,0,0,0,0,0,0,0,-1,601,1772,0,0
-616,-748,0,0,0,0,0,0,0,0,0,-1,608,1772,0,0
-609,-748,0,0,0,0,0,0,0,0,0,-1,615,1772,0,0
-602,-748,0,0,0,0,0,0,0,0,0,-1,622,1772,0,0
-595,-748,0,0,0,0,0,0,0,0,0,-1,629,1772,0,0
-588,-748,0,0,0,0,0,0,0,0,0,-1,636,1772,0,0
-581,-748,0,0,0,0,0,0,0,0,0,-1,643,1772,0,0
-574,-748,0,0,0,0,0,0,0,0,0,-1,650,1772,0,0
-567,-748,0,0,0,0,0,0,0,0,0,-1,657,1772,0,0
-560,-748,0,0,0,0,0,0,0,0,0,-1,664,1772,0,0
-553,-748,0,0,0,0,0,0,0,0,0,-1,671,1772,0,0
-546,-748,0,0,0,0,0,0,0,0,0,-1,678,1772,0,0
-539,-748,0,0,0,0,0,0,0,0,0,-1,685,1772,0,0
-532,-748,0,0,0,0,0,0,0,0,0,-1,692,1772,0,0
-525,-748,0,0,0,0,0,0,0,0,0,-1,699,1772,0,0
-518,-748,0,0,0,0,0,0,0,0,0,-1,706,1772,0,0
-511,-748,0,0,0,0,0,0,0,0,0,-1,713,1772,0,0
-504,-748,0,0,0,0,0,0,0,0,0,-1,720,1772,0,0
-497,-748,0,0,0,0,0,0,0,0,0,-1,727,1772,0,0
-490,-748,0,0,0,0,0,0,0,0,0,-1,734,1772,0,0
-483,-748,0,0,0,0,0,0,0,0,0,-1,741,1772,0,0
-476,-748,0,0,0,0,0,0,0,0,0,-1,748,1772,0,0
-469,-748,0,0,0,0,0,0,0,0,0,-1,755,1772,0,0
-462,-748,0,0,0,0,0,0,0,0,0,-1,762,1772,0,0
-455,-748,0,0,0,0,0,0,0,0,0,-1,769,1772,0,0
-448,-748,0,0,0,0,0,0,0,0,0,-1,776,1772,0,0
-441,-748,0,0,0,0,0,0,0,0,0,-1,783,1772,0,0
-434,-748,0,0,0,0,0,0,0,0,0,-1,790,1772,0,0
-427,-748,0,0,0,0,0,0,0,0,0,-1,797,1772,0,0
-420,-748,0,0,0,0,0,0,0,0,0,-1,804,1772,0,0
-413,-748,0,0,0,0,0,0,0,0,0,-1,811,1772,0,0
-406,-748,0,0,0,0,0,0,0,0,0,-1,818,1772,0,0
-399,-748,0,0,0,0,0,0,0,0,0,-1,825,1772,0,0
-392,-748,0,0,0,0,0,0,0,0,0,-1,832,1772,0,0
-385,-748,0,0,0,0,0,0,0,0,0,-1,839,1772,0,0
-378,-748,0,0,0,0,0,0,0,0,0,-1,846,1772,0,0
-371,-748,0,0,0,0,0,0,0,0,0,-1,853,1772,0,0
-364,-748,0,0,0,0,0,0,0,0,0,-1,860,1772,0,0
-357,-748,0,0,0,0,0,0,0,0,0,-1,867,1772,0,0
-350,-748,0,0,0,0,0,0,0,0,0,-1,874,1772,0,0
-343,-748,0,0,0,0,0,0,0,0,0,-1,881,1772,0,0
-336,-748,0,0,0,0,0,0,0,0,0,-1,888,1772,0,0
-329,-748,0,0,0,0,0,0,0,0,0,-1,895,1772,0,0
-322,-748,0,0,0,0,0,0,0,0,0,-1,902,1772,0,0
-315,-748,0,0,0,0,0,0,0,0,0,-1,909,1772,0,0
-308,-748,0,0,0,0,0,0,0,0,0,-1,916,1772,0,0
-301,-748,0,0,0,0,0,0,0,0,0,-1,923,1772,0,0
-294,-748,0,0,0,0,0,0,0,0,0,-1,930,1772,0,0
-287,-748,0,0,0,0,0,0,0,0,0,-1,937,1772,0,0
-280,-748,0,0,0,0,0,0,0,0,0,-1,944,1772,0,0
-273,-748,0,0,0,0,0,0,0,0,0,-1,951,1772,0,0
-266,-748,0,0,0,0,0,0,0,0,0,-1,958,1772,0,0
-259,-748,0,0,0,0,0,0,0,0,0,-1,965,1772,0,0
-252,-748,0,0,0,0,0,0,0,0,0,-1,972,1772,0,0
-245,-748,0,0,0,0,0,0,0,0,0,-1,979,1772,0,0
-238,-748,0,0,0,0,0,0,0,0,0,-1,986,1772,0,0
-231,-748,0,0,0,0,0,0,0,0,0,-1,993,1772,0,0
-224,-748,0,0,0,0,0,0,0,0,0,-1,1000,1772,0,0
-217,-748,8.97742,29.9884,0,0,0,0,0,0,0,-1,1007,1772,8.97744,-29.9884
-210,-748,8.8941,30.14,0,0,0,0,0,0,0,-1,1014,1772,8.8941,-30.14
-203,-748,7.88,43.3942,0,0,0,0,0,0,0,-1,1021,1772,7.87999,-43.3941
-196,-748,7.95483,43.9952,0,0,0,0,0,0,0,-1,1028,1772,7.95478,-43.9953
-189,-748,8.18359,44.5873,0,0,0,0,0,0,0,-1,1035,1772,8.18358,-44.5873
-182,-748,8.49304,45.5183,0,0,0,0,0,0,0,-1,1042,1772,8.49308,-45.5183
-175,-748,10.4392,50.6167,0,0,0,0,0,0,0,-1,1049,1772,10.4392,-50.6167
-168,-748,9.54541,50.6587,0,0,0,0,0,0,0,-1,1056,1772,9.54547,-50.6586
-161,-748,8.02576,51.5823,0,0,0,0,0,0,0,-1,1063,1772,8.02572,-51.5823
-154,-748,11.4552,48.7113,0,0,0,0,0,0,0,-1,1070,1772,11.4552,-48.7113
-147,-748,11.7789,49.4792,0,0,0,0,0,0,0,-1,1077,1772,11.7789,-49.4793
-140,-748,10.4108,44.9001,0,0,0,0,0,0,0,-1,1084,1772,10.4107,-44.9001
-133,-748,7.44727,22.0308,0,0,0,0,0,0,0,-1,1091,1772,7.44728,-22.0308
-126,-748,5.98035,22.6067,0,0,0,0,0,0,0,-1,1098,1772,5.9803,-22.6067
-119,-748,6.63342,26.309,0,0,0,0,0,0,0,-1,1105,1772,6.6334,-26.3089
-112,-748,6.91333,24.923,0,0,0,0,0,0,0,-1,1112,1772,6.91339,-24.923
-105,-748,6.83313,25.0537,0,0,0,0,0,0,0,-1,1119,1772,6.83311,-25.0537
-98,-748,8.13623,30.8743,0,0,0,0,0,0,0,-1,1126,1772,8.13628,-30.8742
-91,-748,4.85352,15.3033,0,0,0,0,0,0,0,-1,1133,1772,4.85351,-15.3033
-84,-748,-0.192017,7.26196,0,0,0,0,0,0,0,-1,1140,1772,-0.192047,-7.26201
-77,-748,4.42615,13.5537,0,0,0,0,0,0,0,-1,1147,1772,4.4261,-13.5538
-70,-748,4.46191,13.7446,0,0,0,0,0,0,0,-1,1154,1772,4.4619,-13.7446
-63,-748,4.49768,13.9355,0,0,0,0,0,0,0,-1,1161,1772,4.49769,-13.9355
-56,-748,3.05762,7.87817,0,0,0,0,0,0,0,-1,1168,1772,3.05768,-7.87822
-49,-748,3.04102,7.82471,0,0,0,0,0,0,0,-1,1175,1772,3.04096,-7.82468
-42,-748,0.793457,14.9474,0,0,0,0,0,0,0,-1,1182,1772,0.793413,-14.9474
-35,-748,9.80017,69.0289,0,0,0,0,0,0,0,-1,1189,1772,9.80014,-69.029
-28,-748,9.70764,69.3632,0,0,0,0,0,0,0,-1,1196,1772,9.7076,-69.3631
-21,-748,9.66882,69.5432,-0.0117128,-0.00325481,0.00322748,-0.00216394,-0.0128037,1.24485,0.0079137,0.0238547,1203,1772,9.66882,-69.5433
-14,-748,9.56873,69.7034,-0.010828,-0.00412063,0.00291016,-0.00303401,-0.0119146,1.21344,0.00714962,0.0177725,1210,1772,9.56868,-69.7033
-7,-748,9.53259,69.8883,-0.00999018,-0.00504276,0.00259646,-0.00393027,-0.0111027,1.16599,0.00650059,0.0164787,1217,1772,9.5326,-69.8883
0,-748,9.46558,70.0361,-0.00927956,-0.00542124,0.00243628,-0.00424281,-0.010458,1.12027,0.00607361,0.0171231,1224,1772,9.46559,-70.0361
7,-748,9.39673,70.1848,-0.00891047,-0.00527094,0.00248153,-0.00401344,-0.010168,1.10177,0.00591371,0.0168855,1231,1772,9.39674,-70.1848
14,-748,9.32605,70.374,-0.00878553,-0.00474919,0.00274522,-0.00336013,-0.0101746,1.10237,0.00598609,0.0182425,1238,1772,9.32606,-70.374
21,-748,9.26599,70.5024,-0.00891634,-0.00408061,0.00285536,-0.00275693,-0.01024,1.13671,0.00611837,0.0130877,1245,1772,9.26597,-70.5024
28,-748,9.22363,70.6152,-0.00921852,-0.00300591,0.00301207,-0.00178536,-0.0104391,1.1858,0.0064472,0.0126682,1252,1772,9.22362,-70.6152
35,-748,9.16296,70.6615,-0.0100274,-0.00278454,0.00263488,-0.00192743,-0.0108845,1.2563,0.00670681,0.0133402,1259,1772,9.16295,-70.6614
42,-748,9.12585,70.6892,-0.0112709,-0.00286674,0.00223907,-0.00230742,-0.0118303,1.32601,0.00724129,0.0153253,1266,1772,9.12584,-70.6892
49,-748,9.07727,70.7354,-0.0129495,-0.00315152,0.00183911,-0.00281768,-0.0132833,1.39123,0.00808173,0.0113837,1273,1772,9.07733,-70.7354
56,-748,9.02014,70.7892,-0.0148904,-0.00343374,0.00129574,-0.00328902,-0.0150351,1.45957,0.0091268,0.0105984,1280,1772,9.02009,-70.7892
63,-748,8.98621,70.7723,-0.0167963,-0.00387925,0.000699651,-0.00384146,-0.0168341,1.51684,0.0101866,0.0132581,1287,1772,8.9862,-70.7723
70,-748,8.95471,70.7327,-0.0188517,-0.00441095,-7.32138e-05,-0.00441057,-0.0188521,-1.56573,0.0113863,0.0152243,1294,1772,8.95476,-70.7327
77,-748,8.90051,70.7003,-0.0208352,-0.00548537,-0.000857306,-0.00543763,-0.0208829,-1.51518,0.0125098,0.0139786,1301,1772,8.90046,-70.7003
84,-748,8.82007,70.6697,-0.0223259,-0.00675533,-0.00161414,-0.00658976,-0.0224915,-1.46858,0.0133513,0.0152915,1308,1772,8.82009,-70.6697
91,-748,8.76367,70.6208,-0.0234913,-0.00760705,-0.00213473,-0.00732516,-0.0237732,-1.43951,0.0140583,0.0125211,1315,1772,8.76367,-70.6209
98,-748,8.70667,70.5083,-0.0242104,-0.00806622,-0.00242885,-0.00770873,-0.0245679,-1.42466,0.0145085,0.0109791,1322,1772,8.70671,-70.5083
105,-748,8.68506,70.3364,-0.024693,-0.00829606,-0.00261481,-0.00788918,-0.0250999,-1.41643,0.0148208,0.0118274,1329,1772,8.68506,-70.3364
112,-748,8.67554,70.1895,-0.0248823,-0.00832976,-0.00280762,-0.0078665,-0.0253456,-1.40727,0.01498,0.015219,1336,1772,8.67549,-70.1895
119,-748,8.61707,70.0392,-0.0247204,-0.00788737,-0.00285771,-0.00741545,-0.0251923,-1.40714,0.0149493,0.0135136,1343,1772,8.61707,-70.0392
126,-748,8.5614,69.8923,-0.0240647,-0.00697581,-0.00240508,-0.00664377,-0.0243967,-1.43361,0.0145641,0.01505,1350,1772,8.56145,-69.8924
133,-748,8.44983,69.6901,-0.0231326,-0.00605675,-0.00195626,-0.0058355,-0.0233539,-1.45818,0.0140345,0.00959338,1357,1772,8.44984,-69.6901
140,-748,8.38452,69.4933,-0.0218476,-0.00442704,-0.0011925,-0.00434579,-0.0219289,-1.50277,0.0134075,0.0130916,1364,1772,8.38456,-69.4933
147,-748,8.36218,69.2533,-0.0204172,-0.00321941,-0.000822992,-0.00318012,-0.0204565,-1.52309,0.0127109,0.0144588,1371,1772,8.36218,-69.2533
154,-748,8.28491,69.022,-0.0187154,-0.00209016,-0.000652059,-0.00206463,-0.018741,-1.53166,0.0118658,0.0126713,1378,1772,8.2849,-69.022
161,-748,8.22644,68.7789,-0.0168612,-0.000780615,-0.000476536,-0.000766506,-0.0168754,-1.5412,0.0110036,0.0208601,1385,1772,8.22643,-68.779
168,-748,8.22302,68.4933,0,0,0,0,0,0,0,-1,1392,1772,8.22307,-68.4933
175,-748,11.6235,16.8242,0,0,0,0,0,0,0,-1,1399,1772,11.6236,-16.8242
182,-748,7.62476,10.3058,0,0,0,0,0,0,0,-1,1406,1772,7.62476,-10.3058
189,-748,6.15857,6.95898,0,0,0,0,0,0,0,-1,1413,1772,6.15862,-6.95896
196,-748,3.9425,8.46021,0,0,0,0,0,0,0,-1,1420,1772,3.9425,-8.46026
203,-748,3.9668,12.9835,0,0,0,0,0,0,0,-1,1427,1772,3.96678,-12.9836
210,-748,4.71472,16.8318,0,0,0,0,0,0,0,-1,1434,1772,4.71471,-16.8317
217,-748,5.38452,21.5551,0,0,0,0,0,0,0,-1,1441,1772,5.38455,-21.555
224,-748,6.14258,25.2345,0,0,0,0,0,0,0,-1,1448,1772,6.14263,-25.2345
231,-748,6.46045,29.7867,0,0,0,0,0,0,0,-1,1455,1772,6.46049,-29.7867
238,-748,7.41565,32.8574,0,0,0,0,0,0,0,-1,1462,1772,7.41562,-32.8574
245,-748,7.84912,32.0914,0,0,0,0,0,0,0,-1,1469,1772,7.84914,-32.0914
252,-748,7.57336,29.4369,0,0,0,0,0,0,0,-1,1476,1772,7.57337,-29.4369
259,-748,9.47351,46.1896,0,0,0,0,0,0,0,-1,1483,1772,9.4735,-46.1895
266,-748,8.36536,48.6908,0,0,0,0,0,0,0,-1,1490,1772,8.36541,-48.6909
273,-748,7.31421,46.6743,0,0,0,0,0,0,0,-1,1497,1772,7.31415,-46.6743
280,-748,8.76538,40.4501,0,0,0,0,0,0,0,-1,1504,1772,8.76537,-40.45
287,-748,14.161,8.32813,0,0,0,0,0,0,0,-1,1511,1772,14.161,-8.32808
294,-748,6.38525,32.4724,0,0,0,0,0,0,0,-1,1518,1772,6.38521,-32.4725
301,-748,5.40393,38.9807,0,0,0,0,0,0,0,-1,1525,1772,5.40397,-38.9807
308,-748,5.95227,37.1827,0,0,0,0,0,0,0,-1,1532,1772,5.95229,-37.1827
315,-748,7.71741,42.637,0,0,0,0,0,0,0,-1,1539,1772,7.71738,-42.637
322,-748,4.26538,29.0557,0,0,0,0,0,0,0,-1,1546,1772,4.26537,-29.0556
329,-748,3.87256,16.1473,0,0,0,0,0,0,0,-1,1553,1772,3.87259,-16.1474
336,-748,4.81006,19.6141,0,0,0,0,0,0,0,-1,1560,1772,4.81011,-19.6141
343,-748,0,0,0,0,0,0,0,0,0,-1,1567,1772,0,0
350,-748,0,0,0,0,0,0,0,0,0,-1,1574,1772,0,0
357,-748,0,0,0,0,0,0,0,0,0,-1,1581,1772,0,0
364,-748,0,0,0,0,0,0,0,0,0,-1,1588,1772,0,0
371,-748,0,0,0,0,0,0,0,0,0,-1,1595,1772,0,0
378,-748,0,0,0,0,0,0,0,0,0,-1,1602,1772,0,0
385,-748,0,0,0,0,0,0,0,0,0,-1,1609,1772,0,0
392,-748,0,0,0,0,0,0,0,0,0,-1,1616,1772,0,0
399,-748,0,0,0,0,0,0,0,0,0,-1,1623,1772,0,0
406,-748,0,0,0,0,0,0,0,0,0,-1,1630,1772,0,0
413,-748,0,0,0,0,0,0,0,0,0,-1,1637,1772,0,0
420,-748,0,0,0,0,0,0,0,0,0,-1,1644,1772,0,0
427,-748,0,0,0,0,0,0,0,0,0,-1,1651,1772,0,0
434,-748,0,0,0,0,0,0,0,0,0,-1,1658,1772,0,0
441,-748,0,0,0,0,0,0,0,0,0,-1,1665,1772,0,0
448,-748,0,0,0,0,0,0,0,0,0,-1,1672,1772,0,0
455,-748,0,0,0,0,0,0,0,0,0,-1,1679,1772,0,0
462,-748,0,0,0,0,0,0,0,0,0,-1,1686,1772,0,0
469,-748,0,0,0,0,0,0,0,0,0,-1,1693,1772,0,0
476,-748,0,0,0,0,0,0,0,0,0,-1,1700,1772,0,0
483,-748,0,0,0,0,0,0,0,0,0,-1,1707,1772,0,0
490,-748,0,0,0,0,0,0,0,0,0,-1,1714,1772,0,0
497,-748,0,0,0,0,0,0,0,0,0,-1,1721,1772,0,0
504,-748,0,0,0,0,0,0,0,0,0,-1,1728,1772,0,0
511,-748,0,0,0,0,0,0,0,0,0,-1,1735,1772,0,0
518,-748,0,0,0,0,0,0,0,0,0,-1,1742,1772,0,0
525,-748,0,0,0,0,0,0,0,0,0,-1,1749,1772,0,0
532,-748,0,0,0,0,0,0,0,0,0,-1,1756,1772,0,0
539,-748,0,0,0,0,0,0,0,0,0,-1,1763,1772,0,0
546,-748,0,0,0,0,0,0,0,0,0,-1,1770,1772,0,0
553,-748,0,0,0,0,0,0,0,0,0,-1,1777,1772,0,0
560,-748,0,0,0,0,0,0,0,0,0,-1,1784,1772,0,0
567,-748,0,0,0,0,0,0,0,0,0,-1,1791,1772,0,0
574,-748,0,0,0,0,0,0,0,0,0,-1,1798,1772,0,0
581,-748,0,0,0,0,0,0,0,0,0,-1,1805,1772,0,0
588,-748,0,0,0,0,0,0,0,0,0,-1,1812,1772,0,0
595,-748,0,0,0,0,0,0,0,0,0,-1,1819,1772,0,0
602,-748,0,0,0,0,0,0,0,0,0,-1,1826,1772,0,0
609,-748,0,0,0,0,0,0,0,0,0,-1,1833,1772,0,0
616,-748,0,0,0,0,0,0,0,0,0,-1,1840,1772,0,0
623,-748,0,0,0,0,0,0,0,0,0,-1,1847,1772,0,0
630,-748,0,0,0,0,0,0,0,0,0,-1,1854,1772,0,0
637,-748,0,0,0,0,0,0,0,0,0,-1,1861,1772,0,0
644,-748,0,0,0,0,0,0,0,0,0,-1,1868,1772,0,0
651,-748,0,0,0,0,0,0,0,0,0,-1,1875,1772,0,0
658,-748,0,0,0,0,0,0,0,0,0,-1,1882,1772,0,0
665,-748,0,0,0,0,0,0,0,0,0,-1,1889,1772,0,0
672,-748,0,0,0,0,0,0,0,0,0,-1,1896,1772,0,0
679,-748,0,0,0,0,0,0,0,0,0,-1,1903,1772,0,0
686,-748,0,0,0,0,0,0,0,0,0,-1,1910,1772,0,0
693,-748,0,0,0,0,0,0,0,0,0,-1,1917,1772,0,0
700,-748,0,0,0,0,0,0,0,0,0,-1,1924,1772,0,0
707,-748,0,0,0,0,0,0,0,0,0,-1,1931,1772,0,0
714,-748,0,0,0,0,0,0,0,0,0,-1,1938,1772,0,0
721,-748,0,0,0,0,0,0,0,0,0,-1,1945,1772,0,0
728,-748,0,0,0,0,0,0,0,0,0,-1,1952,1772,0,0
735,-748,0,0,0,0,0,0,0,0,0,-1,1959,1772,0,0
742,-748,0,0,0,0,0,0,0,0,0,-1,1966,1772,0,0
749,-748,0,0,0,0,0,0,0,0,0,-1,1973,1772,0,0
756,-748,0,0,0,0,0,0,0,0,0,-1,1980,1772,0,0
763,-748,0,0,0,0,0,0,0,0,0,-1,1987,1772,0,0
770,-748,0,0,0,0,0,0,0,0,0,-1,1994,1772,0,0
777,-748,0,0,0,0,0,0,0,0,0,-1,2001,1772,0,0
784,-748,0,0,0,0,0,0,0,0,0,-1,2008,1772,0,0
791,-748,0,0,0,0,0,0,0,0,0,-1,2015,1772,0,0
798,-748,0,0,0,0,0,0,0,0,0,-1,2022,1772,0,0
805,-748,0,0,0,0,0,0,0,0,0,-1,2029,1772,0,0
812,-748,0,0,0,0,0,0,0,0,0,-1,2036,1772,0,0
-700,-755,0,0,0,0,0,0,0,0,0,-1,524,1779,0,0
-693,-755,0,0,0,0,0,0,0,0,0,-1,531,1779,0,0
-686,-755,0,0,0,0,0,0,0,0,0,-1,538,1779,0,0
-679,-755,0,0,0,0,0,0,0,0,0,-1,545,1779,0,0
-672,-755,0,0,0,0,0,0,0,0,0,-1,552,1779,0,0
-665,-755,0,0,0,0,0,0,0,0,0,-1,559,1779,0,0
-658,-755,0,0,0,0,0,0,0,0,0,-1,566,1779,0,0
-651,-755,0,0,0,0,0,0,0,0,0,-1,573,1779,0,0
-644,-755,0,0,0,0,0,0,0,0,0,-1,580,1779,0,0
-637,-755,0,0,0,0,0,0,0,0,0,-1,587,1779,0,0
-630,-755,0,0,0,0,0,0,0,0,0,-1,594,1779,0,0
-623,-755,0,0,0,0,0,0,0,0,0,-1,601,1779,0,0
-616,-755,0,0,0,0,0,0,0,0,0,-1,608,1779,0,0
-609,-755,0,0,0,0,0,0,0,0,0,-1,615,1779,0,0
-602,-755,0,0,0,0,0,0,0,0,0,-1,622,1779,0,0
-595,-755,0,0,0,0,0,0,0,0,0,-1,629,1779,0,0
-588,-755,0,0,0,0,0,0,0,0,0,-1,636,1779,0,0
-581,-755,0,0,0,0,0,0,0,0,0,-1,643,1779,0,0
-574,-755,0,0,0,0,0,0,0,0,0,-1,650,1779,0,0
-567,-755,0,0,0,0,0,0,0,0,0,-1,657,1779,0,0
-560,-755,0,0,0,0,0,0,0,0,0,-1,664,1779,0,0
-553,-755,0,0,0,0,0,0,0,0,0,-1,671,1779,0,0
-546,-755,0,0,0,0,0,0,0,0,0,-1,678,1779,0,0
-539,-755,0,0,0,0,0,0,0,0,0,-1,685,1779,0,0
-532,-755,0,0,0,0,0,0,0,0,0,-1,692,1779,0,0
-525,-755,0,0,0,0,0,0,0,0,0,-1,699,1779,0,0
-518,-755,0,0,0,0,0,0,0,0,0,-1,706,1779,0,0
-511,-755,0,0,0,0,0,0,0,0,0,-1,713,1779,0,0
-504,-755,0,0,0,0,0,0,0,0,0,-1,720,1779,0,0
-497,-755,0,0,0,0,0,0,0,0,0,-1,727,1779,0,0
-490,-755,0,0,0,0,0,0,0,0,0,-1,734,1779,0,0
-483,-755,0,0,0,0,0,0,0,0,0,-1,741,1779,0,0
-476,-755,0,0,0,0,0,0,0,0,0,-1,748,1779,0,0
-469,-755,0,0,0,0,0,0,0,0,0,-1,755,1779,0,0
-462,-755,0,0,0,0,0,0,0,0,0,-1,762,1779,0,0
-455,-755,0,0,0,0,0,0,0,0,0,-1,769,1779,0,0
-448,-755,0,0,0,0,0,0,0,0,0,-1,776,1779,0,0
-441,-755,0,0,0,0,0,0,0,0,0,-1,783,1779,0,0
-434,-755,0,0,0,0,0,0,0,0,0,-1,790,1779,0,0
-427,-755,0,0,0,0,0,0,0,0,0,-1,797,1779,0,0
-420,-755,0,0,0,0,0,0,0,0,0,-1,804,1779,0,0
-413,-755,0,0,0,0,0,0,0,0,0,-1,811,1779,0,0
-406,-755,0,0,0,0,0,0,0,0,0,-1,818,1779,0,0
-399,-755,0,0,0,0,0,0,0,0,0,-1,825,1779,0,0
-392,-755,0,0,0,0,0,0,0,0,0,-1,832,1779,0,0
-385,-755,0,0,0,0,0,0,0,0,0,-1,839,1779,0,0
-378,-755,0,0,0,0,0,0,0,0,0,-1,846,1779,0,0
-371,-755,0,0,0,0,0,0,0,0,0,-1,853,1779,0,0
-364,-755,0,0,0,0,0,0,0,0,0,-1,860,1779,0,0
-357,-755,0,0,0,0,0,0,0,0,0,-1,867,1779,0,0
-350,-755,0,0,0,0,0,0,0,0,0,-1,874,1779,0,0
-343,-755,0,0,0,0,0,0,0,0,0,-1,881,1779,0,0
-336,-755,0,0,0,0,0,0,0,0,0,-1,888,1779,0,0
-329,-755,0,0,0,0,0,0,0,0,0,-1,895,1779,0,0
-322,-755,0,0,0,0,0,0,0,0,0,-1,902,1779,0,0
-315,-755,0,0,0,0,0,0,0,0,0,-1,909,1779,0,0
-308,-755,0,0,0,0,0,0,0,0,0,-1,916,1779,0,0
-301,-755,0,0,0,0,0,0,0,0,0,-1,923,1779,0,0
-294,-755,0,0,0,0,0,0,0,0,0,-1,930,1779,0,0
-287,-755,0,0,0,0,0,0,0,0,0,-1,937,1779,0,0
-280,-755,0,0,0,0,0,0,0,0,0,-1,944,1779,0,0
-273,-755,0,0,0,0,0,0,0,0,0,-1,951,1779,0,0
-266,-755,0,0,0,0,0,0,0,0,0,-1,958,1779,0,0
-259,-755,0,0,0,0,0,0,0,0,0,-1,965,1779,0,0
-252,-755,0,0,0,0,0,0,0,0,0,-1,972,1779,0,0
-245,-755,0,0,0,0,0,0,0,0,0,-1,979,1779,0,0
-238,-755,0,0,0,0,0,0,0,0,0,-1,986,1779,0,0
-231,-755,0,0,0,0,0,0,0,0,0,-1,993,1779,0,0
-224,-755,0,0,0,0,0,0,0,0,0,-1,1000,1779,0,0
-217,-755,0,0,0,0,0,0,0,0,0,-1,1007,1779,0,0
-210,-755,0,0,0,0,0,0,0,0,0,-1,1014,1779,0,0
-203,-755,8.97363,30.5414,0,0,0,0,0,0,0,-1,1021,1779,8.97362,-30.5414
-196,-755,8.08667,43.2203,0,0,0,0,0,0,0,-1,1028,1779,8.08666,-43.2204
-189,-755,0.725098,39.8892,0,0,0,0,0,0,0,-1,1035,1779,0.725055,-39.8891
-182,-755,1.80835,40.9692,0,0,0,0,0,0,0,-1,1042,1779,1.80838,-40.9692
-175,-755,3.04749,41.9612,0,0,0,0,0,0,0,-1,1049,1779,3.0475,-41.9612
-168,-755,4.8302,42.7631,0,0,0,0,0,0,0,-1,1056,1779,4.8302,-42.7631
-161,-755,6.46777,44.0007,0,0,0,0,0,0,0,-1,1063,1779,6.46773,-44.0007
-154,-755,7.71094,44.9023,0,0,0,0,0,0,0,-1,1070,1779,7.71089,-44.9023
-147,-755,-6.45593,10.2422,0,0,0,0,0,0,0,-1,1077,1779,-6.45594,-10.2422
-140,-755,1.33521,21.3856,0,0,0,0,0,0,0,-1,1084,1779,1.33522,-21.3857
-133,-755,2.89417,21.0964,0,0,0,0,0,0,0,-1,1091,1779,2.89422,-21.0964
-126,-755,3.26404,20.9304,0,0,0,0,0,0,0,-1,1098,1779,3.26399,-20.9305
-119,-755,5.17761,21.9325,0,0,0,0,0,0,0,-1,1105,1779,5.17761,-21.9325
-112,-755,5.40247,24.5646,0,0,0,0,0,0,0,-1,1112,1779,5.40244,-24.5646
-105,-755,7.01294,20.1539,0,0,0,0,0,0,0,-1,1119,1779,7.01295,-20.154
-98,-755,5.50708,16.9628,0,0,0,0,0,0,0,-1,1126,1779,5.5071,-16.9628
-91,-755,5.51025,12.0438,0,0,0,0,0,0,0,-1,1133,1779,5.51022,-12.0439
-84,-755,0.169312,8.66443,0,0,0,0,0,0,0,-1,1140,1779,0.16932,-8.66446
-77,-755,-0.0491943,6.87439,0,0,0,0,0,0,0,-1,1147,1779,-0.0491385,-6.87443
-70,-755,4.5686,13.2169,0,0,0,0,0,0,0,-1,1154,1779,4.56865,-13.2169
-63,-755,-1.36316,7.3147,0,0,0,0,0,0,0,-1,1161,1779,-1.36312,-7.31473
-56,-755,0.0483398,5.06079,0,0,0,0,0,0,0,-1,1168,1779,0.0483138,-5.06084
-49,-755,-1.32263,5.33716,0,0,0,0,0,0,0,-1,1175,1779,-1.32264,-5.33718
-42,-755,-2.03613,4.01672,0,0,0,0,0,0,0,-1,1182,1779,-2.0361,-4.01671
-35,-755,-2.72498,2.37476,0,0,0,0,0,0,0,-1,1189,1779,-2.72502,-2.37473
-28,-755,9.80701,68.8242,0,0,0,0,0,0,0,-1,1196,1779,9.80699,-68.8242
-21,-755,9.78967,69.6073,0,0,0,0,0,0,0,-1,1203,1779,9.78971,-69.6073
-14,-755,9.77197,69.6069,-0.0156413,-0.00668649,0.00386983,-0.00524589,-0.0170819,1.21443,0.0101039,0.0348935,1210,1779,9.77193,-69.6069
-7,-755,9.67029,69.75,-0.0144171,-0.0077812,0.0034677,-0.00629981,-0.0158985,1.16707,0.00924465,0.0257664,1217,1779,9.67033,-69.75
0,-755,9.5697,69.9167,-0.0133915,-0.00823809,0.0032511,-0.00666641,-0.0149631,1.12049,0.00865604,0.0165829,1224,1779,9.56968,-69.9168
7,-755,9.51489,70.0994,-0.0129044,-0.00797048,0.00332211,-0.00629952,-0.0145753,1.10477,0.00844081,0.0152826,1231,1779,9.51494,-70.0994
14,-755,9.47571,70.2676,-0.0128636,-0.00718514,0.00371326,-0.00535003,-0.0146987,1.11179,0.00859035,0.0139046,1238,1779,9.47566,-70.2676
21,-755,9.37622,70.4333,-0.0132109,-0.00618462,0.00391663,-0.00443638,-0.0149591,1.15097,0.00887176,0.0191323,1245,1779,9.37617,-70.4333
28,-755,9.3092,70.498,-0.0138118,-0.00462686,0.00422753,-0.00297731,-0.0154614,1.19877,0.00947242,0.0217605,1252,1779,9.30923,-70.498
35,-755,9.27612,70.6033,-0.0150663,-0.00430847,0.00378678,-0.0031092,-0.0162656,1.26409,0.00997023,0.0218262,1259,1779,9.27613,-70.6033
42,-755,9.19641,70.649,-0.0168157,-0.00442227,0.0032995,-0.00359858,-0.0176393,1.32616,0.0107625,0.0162247,1266,1779,9.19643,-70.649
49,-755,9.12927,70.6605,-0.0190421,-0.00476265,0.00279977,-0.00423332,-0.0195715,1.38394,0.0118904,0.0111398,1273,1779,9.12931,-70.6605
56,-755,9.03918,70.7155,-0.0215545,-0.00510426,0.00208072,-0.00484516,-0.0218136,1.44691,0.0132265,0.0107538,1280,1779,9.03916,-70.7154
63,-755,8.9812,70.756,-0.0239954,-0.00569232,0.0012903,-0.0056018,-0.0240859,1.50076,0.0145539,0.0112687,1287,1779,8.98116,-70.756
70,-755,8.95581,70.6934,-0.0266131,-0.00640541,0.000229414,-0.0064028,-0.0266157,1.55945,0.0160413,0.0156838,1294,1779,8.95585,-70.6933
77,-755,8.86206,70.5955,-0.0291815,-0.00786519,-0.000896106,-0.00782759,-0.0292191,-1.52886,0.0174651,0.0154152,1301,1779,8.86202,-70.5955
84,-755,8.78955,70.5703,-0.031086,-0.00964339,-0.00200686,-0.00945718,-0.0312722,-1.47827,0.018519,0.0160419,1308,1779,8.78958,-70.5703
91,-755,8.70923,70.5173,-0.0326059,-0.0108884,-0.00282191,-0.0105277,-0.0329666,-1.44367,0.019443,0.0157781,1315,1779,8.70924,-70.5174
98,-755,8.61682,70.4579,-0.0336017,-0.011633,-0.00333777,-0.0111371,-0.0340976,-1.4233,0.0200769,0.0160682,1322,1779,8.6168,-70.4578
105,-755,8.578,70.3154,-0.0343098,-0.0120965,-0.00368919,-0.0114999,-0.0349065,-1.41045,0.0205403,0.0189582,1329,1779,8.57799,-70.3155
112,-755,8.51233,70.1543,-0.0346433,-0.0122939,-0.0040093,-0.0115964,-0.0353408,-1.39856,0.020802,0.02515,1336,1779,8.51232,-70.1543
119,-755,8.42908,69.9774,-0.0345109,-0.0118645,-0.00411553,-0.0111397,-0.0352356,-1.39649,0.0207967,0.0261998,1343,1779,8.42908,-69.9774
126,-755,8.41919,69.8978,-0.0336778,-0.0108147,-0.00352786,-0.0102827,-0.0342098,-1.42113,0.0202679,0.0292931,1350,1779,8.41924,-69.8978
133,-755,8.26111,69.7207,-0.0324373,-0.00977925,-0.00292462,-0.00940784,-0.0328087,-1.44448,0.0195079,0.0287394,1357,1779,8.26116,-69.7206
140,-755,8.05322,69.5449,-0.0306713,-0.00775733,-0.00181231,-0.00761488,-0.0308137,-1.49235,0.0185332,0.034873,1364,1779,8.05326,-69.5449
147,-755,8.12915,69.3385,-0.0287354,-0.00624724,-0.00116623,-0.00618693,-0.0287958,-1.51912,0.0175032,0.0368696,1371,1779,8.12916,-69.3385
154,-755,8.04956,69.1641,-0.0264258,-0.00481469,-0.000751262,-0.00478861,-0.0264519,-1.53609,0.0162749,0.0362761,1378,1779,8.04961,-69.164
161,-755,7.85291,68.9745,0,0,0,0,0,0,0,-1,1385,1779,7.85286,-68.9745
168,-755,3.98181,7.35901,0,0,0,0,0,0,0,-1,1392,1779,3.98184,-7.35904
175,-755,8.17065,1.34363,0,0,0,0,0,0,0,-1,1399,1779,8.1706,-1.34368
182,-755,8.09216,2.96924,0,0,0,0,0,0,0,-1,1406,1779,8.09213,-2.9693
189,-755,8.04419,4.68042,0,0,0,0,0,0,0,-1,1413,1779,8.04419,-4.68046
196,-755,7.74841,7.4541,0,0,0,0,0,0,0,-1,1420,1779,7.74842,-7.45405
203,-755,4.80554,6.88696,0,0,0,0,0,0,0,-1,1427,1779,4.80554,-6.88697
210,-755,25.1694,7.35693,0,0,0,0,0,0,0,-1,1434,1779,25.1694,-7.35688
217,-755,5.01648,16.411,0,0,0,0,0,0,0,-1,1441,1779,5.01646,-16.411
224,-755,5.18103,22.6283,0,0,0,0,0,0,0,-1,1448,1779,5.18101,-22.6283
231,-755,5.7489,30.15,0,0,0,0,0,0,0,-1,1455,1779,5.74885,-30.15
238,-755,6.56323,29.2726,0,0,0,0,0,0,0,-1,1462,1779,6.56327,-29.2726
245,-755,8.29639,28.2113,0,0,0,0,0,0,0,-1,1469,1779,8.29639,-28.2113
252,-755,6.8877,28.8699,0,0,0,0,0,0,0,-1,1476,1779,6.88774,-28.8698
259,-755,6.42676,30.8574,0,0,0,0,0,0,0,-1,1483,1779,6.42677,-30.8575
266,-755,17.255,7.86096,0,0,0,0,0,0,0,-1,1490,1779,17.255,-7.86092
273,-755,15.7932,7.59778,0,0,0,0,0,0,0,-1,1497,1779,15.7932,-7.59777
280,-755,14.6255,7.34802,0,0,0,0,0,0,0,-1,1504,1779,14.6254,-7.34806
287,-755,13.8279,7.83105,0,0,0,0,0,0,0,-1,1511,1779,13.8279,-7.83104
294,-755,12.5695,7.96814,0,0,0,0,0,0,0,-1,1518,1779,12.5694,-7.9682
301,-755,11.2659,8.27087,0,0,0,0,0,0,0,-1,1525,1779,11.2658,-8.27087
308,-755,5.17737,37.2896,0,0,0,0,0,0,0,-1,1532,1779,5.17742,-37.2896
315,-755,0.828613,31.032,0,0,0,0,0,0,0,-1,1539,1779,0.828668,-31.032
322,-755,0,0,0,0,0,0,0,0,0,-1,1546,1779,0,0
329,-755,0,0,0,0,0,0,0,0,0,-1,1553,1779,0,0
336,-755,0,0,0,0,0,0,0,0,0,-1,1560,1779,0,0
343,-755,0,0,0,0,0,0,0,0,0,-1,1567,1779,0,0
350,-755,0,0,0,0,0,0,0,0,0,-1,1574,1779,0,0
357,-755,0,0,0,0,0,0,0,0,0,-1,1581,1779,0,0
364,-755,0,0,0,0,0,0,0,0,0,-1,1588,1779,0,0
371,-755,0,0,0,0,0,0,0,0,0,-1,1595,1779,0,0
378,-755,0,0,0,0,0,0,0,0,0,-1,1602,1779,0,0
385,-755,0,0,0,0,0,0,0,0,0,-1,1609,1779,0,0
392,-755,0,0,0,0,0,0,0,0,0,-1,1616,1779,0,0
399,-755,0,0,0,0,0,0,0,0,0,-1,1623,1779,0,0
406,-755,0,0,0,0,0,0,0,0,0,-1,1630,1779,0,0
413,-755,0,0,0,0,0,0,0,0,0,-1,1637,1779,0,0
420,-755,0,0,0,0,0,0,0,0,0,-1,1644,1779,0,0
427,-755,0,0,0,0,0,0,0,0,0,-1,1651,1779,0,0
434,-755,0,0,0,0,0,0,0,0,0,-1,1658,1779,0,0
441,-755,0,0,0,0,0,0,0,0,0,-1,1665,1779,0,0
448,-755,0,0,0,0,0,0,0,0,0,-1,1672,1779,0,0
455,-755,0,0,0,0,0,0,0,0,0,-1,1679,1779,0,0
462,-755,0,0,0,0,0,0,0,0,0,-1,1686,1779,0,0
469,-755,0,0,0,0,0,0,0,0,0,-1,1693,1779,0,0
476,-755,0,0,0,0,0,0,0,0,0,-1,1700,1779,0,0
483,-755,0,0,0,0,0,0,0,0,0,-1,1707,1779,0,0
490,-755,0,0,0,0,0,0,0,0,0,-1,1714,1779,0,0
497,-755,0,0,0,0,0,0,0,0,0,-1,1721,1779,0,0
504,-755,0,0,0,0,0,0,0,0,0,-1,1728,1779,0,0
511,-755,0,0,0,0,0,0,0,0,0,-1,1735,1779,0,0
518,-755,0,0,0,0,0,0,0,0,0,-1,1742,1779,0,0
525,-755,0,0,0,0,0,0,0,0,0,-1,1749,1779,0,0
532,-755,0,0,0,0,0,0,0,0,0,-1,1756,1779,0,0
539,-755,0,0,0,0,0,0,0,0,0,-1,1763,1779,0,0
546,-755,0,0,0,0,0,0,0,0,0,-1,1770,1779,0,0
553,-755,0,0,0,0,0,0,0,0,0,-1,1777,1779,0,0
560,-755,0,0,0,0,0,0,0,0,0,-1,1784,1779,0,0
567,-755,0,0,0,0,0,0,0,0,0,-1,1791,1779,0,0
574,-755,0,0,0,0,0,0,0,0,0,-1,1798,1779,0,0
581,-755,0,0,0,0,0,0,0,0,0,-1,1805,1779,0,0
588,-755,0,0,0,0,0,0,0,0,0,-1,1812,1779,0,0
595,-755,0,0,0,0,0,0,0,0,0,-1,1819,1779,0,0
602,-755,0,0,0,0,0,0,0,0,0,-1,1826,1779,0,0
609,-755,0,0,0,0,0,0,0,0,0,-1,1833,1779,0,0
616,-755,0,0,0,0,0,0,0,0,0,-1,1840,1779,0,0
623,-755,0,0,0,0,0,0,0,0,0,-1,1847,1779,0,0
630,-755,0,0,0,0,0,0,0,0,0,-1,1854,1779,0,0
637,-755,0,0,0,0,0,0,0,0,0,-1,1861,1779,0,0
644,-755,0,0,0,0,0,0,0,0,0,-1,1868,1779,0,0
651,-755,0,0,0,0,0,0,0,0,0,-1,1875,1779,0,0
658,-755,0,0,0,0,0,0,0,0,0,-1,1882,1779,0,0
665,-755,0,0,0,0,0,0,0,0,0,-1,1889,1779,0,0
672,-755,0,0,0,0,0,0,0,0,0,-1,1896,1779,0,0
679,-755,0,0,0,0,0,0,0,0,0,-1,1903,1779,0,0
686,-755,0,0,0,0,0,0,0,0,0,-1,1910,1779,0,0
693,-755,0,0,0,0,0,0,0,0,0,-1,1917,1779,0,0
700,-755,0,0,0,0,0,0,0,0,0,-1,1924,1779,0,0
707,-755,0,0,0,0,0,0,0,0,0,-1,1931,1779,0,0
714,-755,0,0,0,0,0,0,0,0,0,-1,1938,1779,0,0
721,-755,0,0,0,0,0,0,0,0,0,-1,1945,1779,0,0
728,-755,0,0,0,0,0,0,0,0,0,-1,1952,1779,0,0
735,-755,0,0,0,0,0,0,0,0,0,-1,1959,1779,0,0
742,-755,0,0,0,0,0,0,0,0,0,-1,1966,1779,0,0
749,-755,0,0,0,0,0,0,0,0,0,-1,1973,1779,0,0
756,-755,0,0,0,0,0,0,0,0,0,-1,1980,1779,0,0
763,-755,0,0,0,0,0,0,0,0,0,-1,1987,1779,0,0
770,-755,0,0,0,0,0,0,0,0,0,-1,1994,1779,0,0
777,-755,0,0,0,0,0,0,0,0,0,-1,2001,1779,0,0
784,-755,0,0,0,0,0,0,0,0,0,-1,2008,1779,0,0
791,-755,0,0,0,0,0,0,0,0,0,-1,2015,1779,0,0
798,-755,0,0,0,0,0,0,0,0,0,-1,2022,1779,0,0
805,-755,0,0,0,0,0,0,0,0,0,-1,2029,1779,0,0
812,-755,0,0,0,0,0,0,0,0,0,-1,2036,1779,0,0
-700,-762,0,0,0,0,0,0,0,0,0,-1,524,1786,0,0
-693,-762,0,0,0,0,0,0,0,0,0,-1,531,1786,0,0
-686,-762,0,0,0,0,0,0,0,0,0,-1,538,1786,0,0
-679,-762,0,0,0,0,0,0,0,0,0,-1,545,1786,0,0
-672,-762,0,0,0,0,0,0,0,0,0,-1,552,1786,0,0
-665,-762,0,0,0,0,0,0,0,0,0,-1,559,1786,0,0
-658,-762,0,0,0,0,0,0,0,0,0,-1,566,1786,0,0
-651,-762,0,0,0,0,0,0,0,0,0,-1,573,1786,0,0
-644,-762,0,0,0,0,0,0,0,0,0,-1,580,1786,0,0
-637,-762,0,0,0,0,0,0,0,0,0,-1,587,1786,0,0
-630,-762,0,0,0,0,0,0,0,0,0,-1,594,1786,0,0
-623,-762,0,0,0,0,0,0,0,0,0,-1,601,1786,0,0
-616,-762,0,0,0,0,0,0,0,0,0,-1,608,1786,0,0
-609,-762,0,0,0,0,0,0,0,0,0,-1,615,1786,0,0
-602,-762,0,0,0,0,0,0,0,0,0,-1,622,1786,0,0
-595,-762,0,0,0,0,0,0,0,0,0,-1,629,1786,0,0
-588,-762,0,0,0,0,0,0,0,0,0,-1,636,1786,0,0
-581,-762,0,0,0,0,0,0,0,0,0,-1,643,1786,0,0
-574,-762,0,0,0,0,0,0,0,0,0,-1,650,1786,0,0
-567,-762,0,0,0,0,0,0,0,0,0,-1,657,1786,0,0
-560,-762,0,0,0,0,0,0,0,0,0,-1,664,1786,0,0
-553,-762,0,0,0,0,0,0,0,0,0,-1,671,1786,0,0
-546,-762,0,0,0,0,0,0,0,0,0,-1,678,1786,0,0
-539,-762,0,0,0,0,0,0,0,0,0,-1,685,1786,0,0
-532,-762,0,0,0,0,0,0,0,0,0,-1,692,1786,0,0
-525,-762,0,0,0,0,0,0,0,0,0,-1,699,1786,0,0
-518,-762,0,0,0,0,0,0,0,0,0,-1,706,1786,0,0
-511,-762,0,0,0,0,0,0,0,0,0,-1,713,1786,0,0
-504,-762,0,0,0,0,0,0,0,0,0,-1,720,1786,0,0
-497,-762,0,0,0,0,0,0,0,0,0,-1,727,1786,0,0
-490,-762,0,0,0,0,0,0,0,0,0,-1,734,1786,0,0
-483,-762,0,0,0,0,0,0,0,0,0,-1,741,1786,0,0
-476,-762,0,0,0,0,0,0,0,0,0,-1,748,1786,0,0
-469,-762,0,0,0,0,0,0,0,0,0,-1,755,1786,0,0
-462,-762,0,0,0,0,0,0,0,0,0,-1,762,1786,0,0
-455,-762,0,0,0,0,0,0,0,0,0,-1,769,1786,0,0
-448,-762,0,0,0,0,0,0,0,0,0,-1,776,1786,0,0
-441,-762,0,0,0,0,0,0,0,0,0,-1,783,1786,0,0
-434,-762,0,0,0,0,0,0,0,0,0,-1,790,1786,0,0
-427,-762,0,0,0,0,0,0,0,0,0,-1,797,1786,0,0
-420,-762,0,0,0,0,0,0,0,0,0,-1,804,1786,0,0
-413,-762,0,0,0,0,0,0,0,0,0,-1,811,1786,0,0
-406,-762,0,0,0,0,0,0,0,0,0,-1,818,1786,0,0
-399,-762,0,0,0,0,0,0,0,0,0,-1,825,1786,0,0
-392,-762,0,0,0,0,0,0,0,0,0,-1,832,1786,0,0
-385,-762,0,0,0,0,0,0,0,0,0,-1,839,1786,0,0
-378,-762,0,0,0,0,0,0,0,0,0,-1,846,1786,0,0
-371,-762,0,0,0,0,0,0,0,0,0,-1,853,1786,0,0
-364,-762,0,0,0,0,0,0,0,0,0,-1,860,1786,0,0
-357,-762,0,0,0,0,0,0,0,0,0,-1,867,1786,0,0
-350,-762,0,0,0,0,0,0,0,0,0,-1,874,1786,0,0
-343,-762,0,0,0,0,0,0,0,0,0,-1,881,1786,0,0
-336,-762,0,0,0,0,0,0,0,0,0,-1,888,1786,0,0
-329,-762,0,0,0,0,0,0,0,0,0,-1,895,1786,0,0
-322,-762,0,0,0,0,0,0,0,0,0,-1,902,1786,0,0
-315,-762,0,0,0,0,0,0,0,0,0,-1,909,1786,0,0
-308,-762,0,0,0,0,0,0,0,0,0,-1,916,1786,0,0
-301,-762,0,0,0,0,0,0,0,0,0,-1,923,1786,0,0
-294,-762,0,0,0,0,0,0,0,0,0,-1,930,1786,0,0
-287,-762,0,0,0,0,0,0,0,0,0,-1,937,1786,0,0
-280,-762,0,0,0,0,0,0,0,0,0,-1,944,1786,0,0
-273,-762,0,0,0,0,0,0,0,0,0,-1,951,1786,0,0
-266,-762,0,0,0,0,0,0,0,0,0,-1,958,1786,0,0
-259,-762,0,0,0,0,0,0,0,0,0,-1,965,1786,0,0
-252,-762,0,0,0,0,0,0,0,0,0,-1,972,1786,0,0
-245,-762,0,0,0,0,0,0,0,0,0,-1,979,1786,0,0
-238,-762,0,0,0,0,0,0,0,0,0,-1,986,1786,0,0
-231,-762,0,0,0,0,0,0,0,0,0,-1,993,1786,0,0
-224,-762,0,0,0,0,0,0,0,0,0,-1,1000,1786,0,0
-217,-762,0,0,0,0,0,0,0,0,0,-1,1007,1786,0,0
-210,-762,0,0,0,0,0,0,0,0,0,-1,1014,1786,0,0
-203,-762,0,0,0,0,0,0,0,0,0,-1,1021,1786,0,0
-196,-762,0,0,0,0,0,0,0,0,0,-1,1028,1786,0,0
-189,-762,0,0,0,0,0,0,0,0,0,-1,1035,1786,0,0
-182,-762,4.44226,13.2462,0,0,0,0,0,0,0,-1,1042,1786,4.44227,-13.2462
-175,-762,1.14465,40.1932,0,0,0,0,0,0,0,-1,1049,1786,1.1447,-40.1932
-168,-762,3.26794,41.3881,0,0,0,0,0,0,0,-1,1056,1786,3.26794,-41.388
-161,-762,-3.29077,11.9508,0,0,0,0,0,0,0,-1,1063,1786,-3.29076,-11.9508
-154,-762,-4.55823,11.1176,0,0,0,0,0,0,0,-1,1070,1786,-4.55828,-11.1175
-147,-762,-6.52454,9.41418,0,0,0,0,0,0,0,-1,1077,1786,-6.52458,-9.41419
-140,-762,4.99792,5.28589,0,0,0,0,0,0,0,-1,1084,1786,4.99793,-5.28587
-133,-762,0.689819,19.2172,0,0,0,0,0,0,0,-1,1091,1786,0.689867,-19.2171
-126,-762,1.48743,19.9288,0,0,0,0,0,0,0,-1,1098,1786,1.48738,-19.9289
-119,-762,2.65637,20.208,0,0,0,0,0,0,0,-1,1105,1786,2.65632,-20.208
-112,-762,6.84705,25.5554,0,0,0,0,0,0,0,-1,1112,1786,6.84706,-25.5554
-105,-762,5.57947,21.618,0,0,0,0,0,0,0,-1,1119,1786,5.57948,-21.618
-98,-762,5.0636,17.9901,0,0,0,0,0,0,0,-1,1126,1786,5.06361,-17.9901
-91,-762,4.54773,14.3622,0,0,0,0,0,0,0,-1,1133,1786,4.54774,-14.3622
-84,-762,3.96375,10.4547,0,0,0,0,0,0,0,-1,1140,1786,3.96371,-10.4548
-77,-762,0.305054,8.49365,0,0,0,0,0,0,0,-1,1147,1786,0.305008,-8.49362
-70,-762,0.183716,6.74622,0,0,0,0,0,0,0,-1,1154,1786,0.183696,-6.74621
-63,-762,-0.883057,9.08813,0,0,0,0,0,0,0,-1,1161,1786,-0.88311,-9.08808
-56,-762,-0.578979,5.10254,0,0,0,0,0,0,0,-1,1168,1786,-0.578951,-5.10249
-49,-762,-2.04541,3.66321,0,0,0,0,0,0,0,-1,1175,1786,-2.0454,-3.66319
-42,-762,-2.23462,3.474,0,0,0,0,0,0,0,-1,1182,1786,-2.23459,-3.47399
-35,-762,-3.28992,1.68164,0,0,0,0,0,0,0,-1,1189,1786,-3.28998,-1.68164
-28,-762,-3.75378,1.37769,0,0,0,0,0,0,0,-1,1196,1786,-3.75373,-1.37767
-21,-762,10.1432,68.8326,0,0,0,0,0,0,0,-1,1203,1786,10.1432,-68.8327
-14,-762,9.97791,69.5026,0,0,0,0,0,0,0,-1,1210,1786,9.97795,-69.5026
-7,-762,9.62061,69.7111,-0.0198582,-0.0112649,0.00447661,-0.0093566,-0.0217665,1.16784,0.0126081,0.0495361,1217,1786,9.62056,-69.7111
0,-762,9.56372,69.9893,-0.0183613,-0.0119745,0.00420138,-0.00989064,-0.0204451,1.11036,0.0118061,0.0374721,1224,1786,9.56375,-69.9892
7,-762,9.62378,70.0782,-0.0177065,-0.0116532,0.0043359,-0.00939208,-0.0199677,1.0901,0.0115351,0.0238978,1231,1786,9.62382,-70.0782
14,-762,9.58203,70.448,-0.0177327,-0.0105454,0.00494013,-0.00803011,-0.020248,1.09985,0.0117732,0.0401206,1238,1786,9.58199,-70.4479
21,-762,9.448,70.3105,0,0,0,0,0,0,0,-1,1245,1786,9.44801,-70.3106
28,-762,9.37146,70.3514,0,0,0,0,0,0,0,-1,1252,1786,9.37146,-70.3514
35,-762,9.35767,70.5353,0,0,0,0,0,0,0,-1,1259,1786,9.35768,-70.5353
42,-762,9.19348,70.6305,0,0,0,0,0,0,0,-1,1266,1786,9.19349,-70.6305
49,-762,9.22253,70.6846,-0.0258918,-0.00694886,0.00420996,-0.00605536,-0.0267853,1.36167,0.0162197,0.045231,1273,1786,9.22258,-70.6845
56,-762,9.13843,70.7455,-0.02898,-0.00735186,0.00327169,-0.00686778,-0.0294641,1.4239,0.0178007,0.0342512,1280,1786,9.1384,-70.7455
63,-762,9.05432,70.769,-0.031988,-0.00810947,0.00224669,-0.00789992,-0.0321975,1.4778,0.0193762,0.0313777,1287,1786,9.05428,-70.7691
70,-762,8.92725,70.744,-0.0352321,-0.00906452,0.000804082,-0.00903984,-0.0352568,1.54011,0.0211455,0.0326442,1294,1786,8.92728,-70.7441
77,-762,8.8053,70.5492,-0.0384949,-0.0110627,-0.00079706,-0.0110396,-0.038518,-1.54177,0.0229035,0.0431891,1301,1786,8.80532,-70.5491
84,-762,8.7384,70.5172,0,0,0,0,0,0,0,-1,1308,1786,8.73842,-70.5172
91,-762,8.74329,70.3705,0,0,0,0,0,0,0,-1,1315,1786,8.74332,-70.3705
98,-762,8.46753,70.3564,0,0,0,0,0,0,0,-1,1322,1786,8.46756,-70.3564
105,-762,8.44153,70.2238,0,0,0,0,0,0,0,-1,1329,1786,8.44147,-70.2238
112,-762,8.23547,70.1266,0,0,0,0,0,0,0,-1,1336,1786,8.23548,-70.1265
119,-762,8.25378,69.8047,0,0,0,0,0,0,0,-1,1343,1786,8.25379,-69.8047
126,-762,8.26917,69.9453,0,0,0,0,0,0,0,-1,1350,1786,8.26913,-69.9453
133,-762,8.25525,69.7823,-0.0431238,-0.0145868,-0.00413353,-0.0140001,-0.0437105,-1.42981,0.0257739,0.0492373,1357,1786,8.25525,-69.7824
140,-762,7.74451,69.5219,-0.0409562,-0.0121536,-0.00268812,-0.0119048,-0.0412049,-1.47853,0.0244861,0.0420647,1364,1786,7.74451,-69.5219
147,-762,7.6449,69.3176,-0.038679,-0.0103014,-0.00173427,-0.0101958,-0.0387846,-1.50998,0.0232165,0.0422635,1371,1786,7.64494,-69.3176
154,-762,7.75586,69.1235,0,0,0,0,0,0,0,-1,1378,1786,7.75588,-69.1236
161,-762,8.65051,34.8102,0,0,0,0,0,0,0,-1,1385,1786,8.65054,-34.8101
168,-762,8.19287,0.880615,0,0,0,0,0,0,0,-1,1392,1786,8.19291,-0.880603
175,-762,8.33997,1.95947,0,0,0,0,0,0,0,-1,1399,1786,8.33997,-1.95942
182,-762,8.28418,3.56482,0,0,0,0,0,0,0,-1,1406,1786,8.28415,-3.56485
189,-762,8.21179,5.23389,0,0,0,0,0,0,0,-1,1413,1786,8.21183,-5.23383
196,-762,8.05969,6.95483,0,0,0,0,0,0,0,-1,1420,1786,8.05972,-6.9548
203,-762,24.0077,7.10425,0,0,0,0,0,0,0,-1,1427,1786,24.0077,-7.10426
210,-762,23.8073,7.6499,0,0,0,0,0,0,0,-1,1434,1786,23.8073,-7.64987
217,-762,23.3193,8.24426,0,0,0,0,0,0,0,-1,1441,1786,23.3194,-8.2442
224,-762,2.65149,20.6106,0,0,0,0,0,0,0,-1,1448,1786,2.65153,-20.6106
231,-762,5.46655,23.521,0,0,0,0,0,0,0,-1,1455,1786,5.46653,-23.521
238,-762,5.35632,29.7203,0,0,0,0,0,0,0,-1,1462,1786,5.35629,-29.7203
245,-762,6.93054,27.8312,0,0,0,0,0,0,0,-1,1469,1786,6.93058,-27.8312
252,-762,6.20215,28.3027,0,0,0,0,0,0,0,-1,1476,1786,6.20211,-28.3027
259,-762,5.46472,28.8762,0,0,0,0,0,0,0,-1,1483,1786,5.46476,-28.8762
266,-762,16.451,7.67773,0,0,0,0,0,0,0,-1,1490,1786,16.4511,-7.67773
273,-762,15.287,7.5304,0,0,0,0,0,0,0,-1,1497,1786,15.2869,-7.53044
280,-762,14.1501,7.38379,0,0,0,0,0,0,0,-1,1504,1786,14.1502,-7.38376
287,-762,12.6891,7.99133,0,0,0,0,0,0,0,-1,1511,1786,12.6891,-7.99135
294,-762,12.6959,8.30371,0,0,0,0,0,0,0,-1,1518,1786,12.6959,-8.30368
301,-762,11.4222,8.84143,0,0,0,0,0,0,0,-1,1525,1786,11.4223,-8.84149
308,-762,0,0,0,0,0,0,0,0,0,-1,1532,1786,0,0
315,-762,0,0,0,0,0,0,0,0,0,-1,1539,1786,0,0
322,-762,0,0,0,0,0,0,0,0,0,-1,1546,1786,0,0
329,-762,0,0,0,0,0,0,0,0,0,-1,1553,1786,0,0
336,-762,0,0,0,0,0,0,0,0,0,-1,1560,1786,0,0
343,-762,0,0,0,0,0,0,0,0,0,-1,1567,1786,0,0
350,-762,0,0,0,0,0,0,0,0,0,-1,1574,1786,0,0
357,-762,0,0,0,0,0,0,0,0,0,-1,1581,1786,0,0
364,-762,0,0,0,0,0,0,0,0,0,-1,1588,1786,0,0
371,-762,0,0,0,0,0,0,0,0,0,-1,1595,1786,0,0
378,-762,0,0,0,0,0,0,0,0,0,-1,1602,1786,0,0
385,-762,0,0,0,0,0,0,0,0,0,-1,1609,1786,0,0
392,-762,0,0,0,0,0,0,0,0,0,-1,1616,1786,0,0
399,-762,0,0,0,0,0,0,0,0,0,-1,1623,1786,0,0
406,-762,0,0,0,0,0,0,0,0,0,-1,1630,1786,0,0
413,-762,0,0,0,0,0,0,0,0,0,-1,1637,1786,0,0
420,-762,0,0,0,0,0,0,0,0,0,-1,1644,1786,0,0
427,-762,0,0,0,0,0,0,0,0,0,-1,1651,1786,0,0
434,-762,0,0,0,0,0,0,0,0,0,-1,1658,1786,0,0
441,-762,0,0,0,0,0,0,0,0,0,-1,1665,1786,0,0
448,-762,0,0,0,0,0,0,0,0,0,-1,1672,1786,0,0
455,-762,0,0,0,0,0,0,0,0,0,-1,1679,1786,0,0
462,-762,0,0,0,0,0,0,0,0,0,-1,1686,1786,0,0
469,-762,0,0,0,0,0,0,0,0,0,-1,1693,1786,0,0
476,-762,0,0,0,0,0,0,0,0,0,-1,1700,1786,0,0
483,-762,0,0,0,0,0,0,0,0,0,-1,1707,1786,0,0
490,-762,0,0,0,0,0,0,0,0,0,-1,1714,1786,0,0
497,-762,0,0,0,0,0,0,0,0,0,-1,1721,1786,0,0
504,-762,0,0,0,0,0,0,0,0,0,-1,1728,1786,0,0
511,-762,0,0,0,0,0,0,0,0,0,-1,1735,1786,0,0
518,-762,0,0,0,0,0,0,0,0,0,-1,1742,1786,0,0
525,-762,0,0,0,0,0,0,0,0,0,-1,1749,1786,0,0
532,-762,0,0,0,0,0,0,0,0,0,-1,1756,1786,0,0
539,-762,0,0,0,0,0,0,0,0,0,-1,1763,1786,0,0
546,-762,0,0,0,0,0,0,0,0,0,-1,1770,1786,0,0
553,-762,0,0,0,0,0,0,0,0,0,-1,1777,1786,0,0
560,-762,0,0,0,0,0,0,0,0,0,-1,1784,1786,0,0
567,-762,0,0,0,0,0,0,0,0,0,-1,1791,1786,0,0
574,-762,0,0,0,0,0,0,0,0,0,-1,1798,1786,0,0
581,-762,0,0,0,0,0,0,0,0,0,-1,1805,1786,0,0
588,-762,0,0,0,0,0,0,0,0,0,-1,1812,1786,0,0
595,-762,0,0,0,0,0,0,0,0,0,-1,1819,1786,0,0
602,-762,0,0,0,0,0,0,0,0,0,-1,1826,1786,0,0
609,-762,0,0,0,0,0,0,0,0,0,-1,1833,1786,0,0
616,-762,0,0,0,0,0,0,0,0,0,-1,1840,1786,0,0
623,-762,0,0,0,0,0,0,0,0,0,-1,1847,1786,0,0
630,-762,0,0,0,0,0,0,0,0,0,-1,1854,1786,0,0
637,-762,0,0,0,0,0,0,0,0,0,-1,1861,1786,0,0
644,-762,0,0,0,0,0,0,0,0,0,-1,1868,1786,0,0
651,-762,0,0,0,0,0,0,0,0,0,-1,1875,1786,0,0
658,-762,0,0,0,0,0,0,0,0,0,-1,1882,1786,0,0
665,-762,0,0,0,0,0,0,0,0,0,-1,1889,1786,0,0
672,-762,0,0,0,0,0,0,0,0,0,-1,1896,1786,0,0
679,-762,0,0,0,0,0,0,0,0,0,-1,1903,1786,0,0
686,-762,0,0,0,0,0,0,0,0,0,-1,1910,1786,0,0
693,-762,0,0,0,0,0,0,0,0,0,-1,1917,1786,0,0
700,-762,0,0,0,0,0,0,0,0,0,-1,1924,1786,0,0
707,-762,0,0,0,0,0,0,0,0,0,-1,1931,1786,0,0
714,-762,0,0,0,0,0,0,0,0,0,-1,1938,1786,0,0
721,-762,0,0,0,0,0,0,0,0,0,-1,1945,1786,0,0
728,-762,0,0,0,0,0,0,0,0,0,-1,1952,1786,0,0
735,-762,0,0,0,0,0,0,0,0,0,-1,1959,1786,0,0
742,-762,0,0,0,0,0,0,0,0,0,-1,1966,1786,0,0
749,-762,0,0,0,0,0,0,0,0,0,-1,1973,1786,0,0
756,-762,0,0,0,0,0,0,0,0,0,-1,1980,1786,0,0
763,-762,0,0,0,0,0,0,0,0,0,-1,1987,1786,0,0
770,-762,0,0,0,0,0,0,0,0,0,-1,1994,1786,0,0
777,-762,0,0,0,0,0,0,0,0,0,-1,2001,1786,0,0
784,-762,0,0,0,0,0,0,0,0,0,-1,2008,1786,0,0
791,-762,0,0,0,0,0,0,0,0,0,-1,2015,1786,0,0
798,-762,0,0,0,0,0,0,0,0,0,-1,2022,1786,0,0
805,-762,0,0,0,0,0,0,0,0,0,-1,2029,1786,0,0
812,-762,0,0,0,0,0,0,0,0,0,-1,2036,1786,0,0
-700,-769,0,0,0,0,0,0,0,0,0,-1,524,1793,0,0
-693,-769,0,0,0,0,0,0,0,0,0,-1,531,1793,0,0
-686,-769,0,0,0,0,0,0,0,0,0,-1,538,1793,0,0
-679,-769,0,0,0,0,0,0,0,0,0,-1,545,1793,0,0
-672,-769,0,0,0,0,0,0,0,0,0,-1,552,1793,0,0
-665,-769,0,0,0,0,0,0,0,0,0,-1,559,1793,0,0
-658,-769,0,0,0,0,0,0,0,0,0,-1,566,1793,0,0
-651,-769,0,0,0,0,0,0,0,0,0,-1,573,1793,0,0
-644,-769,0,0,0,0,0,0,0,0,0,-1,580,1793,0,0
-637,-769,0,0,0,0,0,0,0,0,0,-1,587,1793,0,0
-630,-769,0,0,0,0,0,0,0,0,0,-1,594,1793,0,0
-623,-769,0,0,0,0,0,0,0,0,0,-1,601,1793,0,0
-616,-769,0,0,0,0,0,0,0,0,0,-1,608,1793,0,0
-609,-769,0,0,0,0,0,0,0,0,0,-1,615,1793,0,0
-602,-769,0,0,0,0,0,0,0,0,0,-1,622,1793,0,0
-595,-769,0,0,0,0,0,0,0,0,0,-1,629,1793,0,0
-588,-769,0,0,0,0,0,0,0,0,0,-1,636,1793,0,0
-581,-769,0,0,0,0,0,0,0,0,0,-1,643,1793,0,0
-574,-769,0,0,0,0,0,0,0,0,0,-1,650,1793,0,0
-567,-769,0,0,0,0,0,0,0,0,0,-1,657,1793,0,0
-560,-769,0,0,0,0,0,0,0,0,0,-1,664,1793,0,0
-553,-769,0,0,0,0,0,0,0,0,0,-1,671,1793,0,0
-546,-769,0,0,0,0,0,0,0,0,0,-1,678,1793,0,0
-539,-769,0,0,0,0,0,0,0,0,0,-1,685,1793,0,0
-532,-769,0,0,0,0,0,0,0,0,0,-1,692,1793,0,0
-525,-769,0,0,0,0,0,0,0,0,0,-1,699,1793,0,0
-518,-769,0,0,0,0,0,0,0,0,0,-1,706,1793,0,0
-511,-769,0,0,0,0,0,0,0,0,0,-1,713,1793,0,0
-504,-769,0,0,0,0,0,0,0,0,0,-1,720,1793,0,0
-497,-769,0,0,0,0,0,0,0,0,0,-1,727,1793,0,0
-490,-769,0,0,0,0,0,0,0,0,0,-1,734,1793,0,0
-483,-769,0,0,0,0,0,0,0,0,0,-1,741,1793,0,0
-476,-769,0,0,0,0,0,0,0,0,0,-1,748,1793,0,0
-469,-769,0,0,0,0,0,0,0,0,0,-1,755,1793,0,0
-462,-769,0,0,0,0,0,0,0,0,0,-1,762,1793,0,0
-455,-769,0,0,0,0,0,0,0,0,0,-1,769,1793,0,0
-448,-769,0,0,0,0,0,0,0,0,0,-1,776,1793,0,0
-441,-769,0,0,0,0,0,0,0,0,0,-1,783,1793,0,0
-434,-769,0,0,0,0,0,0,0,0,0,-1,790,1793,0,0
-427,-769,0,0,0,0,0,0,0,0,0,-1,797,1793,0,0
-420,-769,0,0,0,0,0,0,0,0,0,-1,804,1793,0,0
-413,-769,0,0,0,0,0,0,0,0,0,-1,811,1793,0,0
-406,-769,0,0,0,0,0,0,0,0,0,-1,818,1793,0,0
-399,-769,0,0,0,0,0,0,0,0,0,-1,825,1793,0,0
-392,-769,0,0,0,0,0,0,0,0,0,-1,832,1793,0,0
-385,-769,0,0,0,0,0,0,0,0,0,-1,839,1793,0,0
-378,-769,0,0,0,0,0,0,0,0,0,-1,846,1793,0,0
-371,-769,0,0,0,0,0,0,0,0,0,-1,853,1793,0,0
-364,-769,0,0,0,0,0,0,0,0,0,-1,860,1793,0,0
-357,-769,0,0,0,0,0,0,0,0,0,-1,867,1793,0,0
-350,-769,0,0,0,0,0,0,0,0,0,-1,874,1793,0,0
-343,-769,0,0,0,0,0,0,0,0,0,-1,881,1793,0,0
-336,-769,0,0,0,0,0,0,0,0,0,-1,888,1793,0,0
-329,-769,0,0,0,0,0,0,0,0,0,-1,895,1793,0,0
-322,-769,0,0,0,0,0,0,0,0,0,-1,902,1793,0,0
-315,-769,0,0,0,0,0,0,0,0,0,-1,909,1793,0,0
-308,-769,0,0,0,0,0,0,0,0,0,-1,916,1793,0,0
-301,-769,0,0,0,0,0,0,0,0,0,-1,923,1793,0,0
-294,-769,0,0,0,0,0,0,0,0,0,-1,930,1793,0,0
-287,-769,0,0,0,0,0,0,0,0,0,-1,937,1793,0,0
-280,-769,0,0,0,0,0,0,0,0,0,-1,944,1793,0,0
-273,-769,0,0,0,0,0,0,0,0,0,-1,951,1793,0,0
-266,-769,0,0,0,0,0,0,0,0,0,-1,958,1793,0,0
-259,-769,0,0,0,0,0,0,0,0,0,-1,965,1793,0,0
-252,-769,0,0,0,0,0,0,0,0,0,-1,972,1793,0,0
-245,-769,0,0,0,0,0,0,0,0,0,-1,979,1793,0,0
-238,-769,0,0,0,0,0,0,0,0,0,-1,986,1793,0,0
-231,-769,0,0,0,0,0,0,0,0,0,-1,993,1793,0,0
-224,-769,0,0,0,0,0,0,0,0,0,-1,1000,1793,0,0
-217,-769,0,0,0,0,0,0,0,0,0,-1,1007,1793,0,0
-210,-769,0,0,0,0,0,0,0,0,0,-1,1014,1793,0,0
-203,-769,0,0,0,0,0,0,0,0,0,-1,1021,1793,0,0
-196,-769,0,0,0,0,0,0,0,0,0,-1,1028,1793,0,0
-189,-769,0,0,0,0,0,0,0,0,0,-1,1035,1793,0,0
-182,-769,0,0,0,0,0,0,0,0,0,-1,1042,1793,0,0
-175,-769,0,0,0,0,0,0,0,0,0,-1,1049,1793,0,0
-168,-769,0,0,0,0,0,0,0,0,0,-1,1056,1793,0,0
-161,-769,-3.61145,12.4761,0,0,0,0,0,0,0,-1,1063,1793,-3.6114,-12.476
-154,-769,-0.813232,5.32874,0,0,0,0,0,0,0,-1,1070,1793,-0.813269,-5.32872
-147,-769,4.26587,4.7002,0,0,0,0,0,0,0,-1,1077,1793,4.26593,-4.70022
-140,-769,4.10376,5.28589,0,0,0,0,0,0,0,-1,1084,1793,4.10371,-5.28584
-133,-769,6.422,8.21777,0,0,0,0,0,0,0,-1,1091,1793,6.42198,-8.21773
-126,-769,-0.352295,19.326,0,0,0,0,0,0,0,-1,1098,1793,-0.352235,-19.326
-119,-769,6.01685,16.2577,0,0,0,0,0,0,0,-1,1105,1793,6.01689,-16.2576
-112,-769,5.76416,27.2615,0,0,0,0,0,0,0,-1,1112,1793,5.7642,-27.2615
-105,-769,4.97009,22.8479,0,0,0,0,0,0,0,-1,1119,1793,4.97006,-22.8479
-98,-769,4.69373,18.9142,0,0,0,0,0,0,0,-1,1126,1793,4.69376,-18.9142
-91,-769,4.41748,14.9805,0,0,0,0,0,0,0,-1,1133,1793,4.41746,-14.9805
-84,-769,3.2207,12.4565,0,0,0,0,0,0,0,-1,1140,1793,3.22066,-12.4565
-77,-769,2.48816,8.98486,0,0,0,0,0,0,0,-1,1147,1793,2.48815,-8.98489
-70,-769,1.04944,11.9852,0,0,0,0,0,0,0,-1,1154,1793,1.04947,-11.9852
-63,-769,-2.39709,9.60339,0,0,0,0,0,0,0,-1,1161,1793,-2.39706,-9.6034
-56,-769,-5.84363,7.22156,0,0,0,0,0,0,0,-1,1168,1793,-5.84359,-7.22157
-49,-769,-2.41443,3.95471,0,0,0,0,0,0,0,-1,1175,1793,-2.41446,-3.95471
-42,-769,-3.1991,2.64941,0,0,0,0,0,0,0,-1,1182,1793,-3.19914,-2.64944
-35,-769,-3.50183,1.73389,0,0,0,0,0,0,0,-1,1189,1793,-3.50189,-1.7339
-28,-769,-3.96985,1.14075,0,0,0,0,0,0,0,-1,1196,1793,-3.96985,-1.14078
-21,-769,9.98193,66.4116,0,0,0,0,0,0,0,-1,1203,1793,9.98188,-66.4116
-14,-769,11.1588,70.3473,0,0,0,0,0,0,0,-1,1210,1793,11.1589,-70.3473
-7,-769,9.52539,69.5846,0,0,0,0,0,0,0,-1,1217,1793,9.52544,-69.5845
0,-769,9.5127,70.0771,-0.0244644,-0.0165125,0.00527439,-0.0138833,-0.0270935,1.10837,0.0156441,0.0483908,1224,1793,9.51272,-70.0772
7,-769,9.77881,70.5345,-0.0236081,-0.0162311,0.0055308,-0.0132717,-0.0265675,1.07948,0.0153387,0.045753,1231,1793,9.77879,-70.5345
14,-769,9.73608,70.6942,-0.0237255,-0.014777,0.00641938,-0.0114265,-0.027076,1.08975,0.0156956,0.0439165,1238,1793,9.73604,-70.6942
21,-769,10.0775,70.7175,-0.0244916,-0.0128077,0.00704293,-0.00949914,-0.0278001,1.13163,0.0163163,0.0445238,1245,1793,10.0775,-70.7175
28,-769,10.3649,70.6732,0,0,0,0,0,0,0,-1,1252,1793,10.3649,-70.6733
35,-769,10.3896,70.729,0,0,0,0,0,0,0,-1,1259,1793,10.3897,-70.7289
42,-769,9.42639,70.9342,0,0,0,0,0,0,0,-1,1266,1793,9.42639,-70.9342
49,-769,9.31641,70.8303,-0.0337493,-0.00959095,0.00605102,-0.00816008,-0.0351802,1.33859,0.0212619,0.0465265,1273,1793,9.31635,-70.8303
56,-769,9.04187,70.5959,-0.0373181,-0.00999758,0.00487786,-0.0091528,-0.0381629,1.39931,0.0230061,0.0477199,1280,1793,9.04185,-70.596
63,-769,8.99243,70.6947,0,0,0,0,0,0,0,-1,1287,1793,8.99243,-70.6947
70,-769,9.52368,71.4231,0,0,0,0,0,0,0,-1,1294,1793,9.52372,-71.4231
77,-769,8.73193,70.427,0,0,0,0,0,0,0,-1,1301,1793,8.73199,-70.427
84,-769,10.2236,70.6504,0,0,0,0,0,0,0,-1,1308,1793,10.2237,-70.6503
91,-769,9.59497,70.4344,-0.054164,-0.0207211,-0.00448031,-0.0201313,-0.0547538,-1.4399,0.031979,0.049446,1315,1793,9.59498,-70.4345
98,-769,8.97583,70.2715,-0.0559729,-0.0224267,-0.00575031,-0.0214684,-0.0569312,-1.40566,0.0331986,0.0478432,1322,1793,8.97587,-70.2715
105,-769,8.31946,70.1555,-0.0572786,-0.0235403,-0.00665485,-0.0222751,-0.0585438,-1.38292,0.0341206,0.0459468,1329,1793,8.31945,-70.1555
112,-769,7.7063,69.9677,-0.0579781,-0.0240133,-0.00734328,-0.0224937,-0.0594978,-1.36673,0.0346899,0.044969,1336,1793,7.70628,-69.9676
119,-769,7.04126,69.7992,-0.0579382,-0.023382,-0.00751776,-0.0218173,-0.0595029,-1.3656,0.0347588,0.0412344,1343,1793,7.04121,-69.7993
126,-769,6.42224,69.6549,0,0,0,0,0,0,0,-1,1350,1793,6.42227,-69.6549
133,-769,8.25842,69.7471,0,0,0,0,0,0,0,-1,1357,1793,8.25838,-69.7471
140,-769,7.552,69.4877,0,0,0,0,0,0,0,-1,1364,1793,7.55195,-69.4877
147,-769,7.43823,69.2805,0,0,0,0,0,0,0,-1,1371,1793,7.43826,-69.2805
154,-769,7.29382,55.4241,0,0,0,0,0,0,0,-1,1378,1793,7.29384,-55.4241
161,-769,6.57019,1.53223,0,0,0,0,0,0,0,-1,1385,1793,6.57019,-1.53226
168,-769,8.27637,0.756958,0,0,0,0,0,0,0,-1,1392,1793,8.27639,-0.756944
175,-769,8.47144,2.41174,0,0,0,0,0,0,0,-1,1399,1793,8.47147,-2.4118
182,-769,8.41479,4.05994,0,0,0,0,0,0,0,-1,1406,1793,8.41479,-4.05997
189,-769,8.25049,5.68433,0,0,0,0,0,0,0,-1,1413,1793,8.25054,-5.68428
196,-769,7.97729,7.42847,0,0,0,0,0,0,0,-1,1420,1793,7.9773,-7.42848
203,-769,22.0977,6.73889,0,0,0,0,0,0,0,-1,1427,1793,22.0977,-6.7389
210,-769,22.1115,7.77246,0,0,0,0,0,0,0,-1,1434,1793,22.1115,-7.77248
217,-769,22.4723,8.79102,0,0,0,0,0,0,0,-1,1441,1793,22.4723,-8.79099
224,-769,22.1348,9.35278,0,0,0,0,0,0,0,-1,1448,1793,22.1348,-9.35283
231,-769,3.13318,19.7184,0,0,0,0,0,0,0,-1,1455,1793,3.13323,-19.7184
238,-769,5.74512,18.6597,0,0,0,0,0,0,0,-1,1462,1793,5.74512,-18.6596
245,-769,5.80798,22.87,0,0,0,0,0,0,0,-1,1469,1793,5.80796,-22.87
252,-769,6.20837,28.394,0,0,0,0,0,0,0,-1,1476,1793,6.20833,-28.3941
259,-769,10.974,17.7698,0,0,0,0,0,0,0,-1,1483,1793,10.974,-17.7698
266,-769,15.8488,7.3905,0,0,0,0,0,0,0,-1,1490,1793,15.8488,-7.39046
273,-769,14.8075,7.56152,0,0,0,0,0,0,0,-1,1497,1793,14.8075,-7.56152
280,-769,13.6519,7.43054,0,0,0,0,0,0,0,-1,1504,1793,13.6518,-7.43058
287,-769,0,0,0,0,0,0,0,0,0,-1,1511,1793,0,0
294,-769,0,0,0,0,0,0,0,0,0,-1,1518,1793,0,0
301,-769,0,0,0,0,0,0,0,0,0,-1,1525,1793,0,0
308,-769,0,0,0,0,0,0,0,0,0,-1,1532,1793,0,0
315,-769,0,0,0,0,0,0,0,0,0,-1,1539,1793,0,0
322,-769,0,0,0,0,0,0,0,0,0,-1,1546,1793,0,0
329,-769,0,0,0,0,0,0,0,0,0,-1,1553,1793,0,0
336,-769,0,0,0,0,0,0,0,0,0,-1,1560,1793,0,0
343,-769,0,0,0,0,0,0,0,0,0,-1,1567,1793,0,0
350,-769,0,0,0,0,0,0,0,0,0,-1,1574,1793,0,0
357,-769,0,0,0,0,0,0,0,0,0,-1,1581,1793,0,0
364,-769,0,0,0,0,0,0,0,0,0,-1,1588,1793,0,0
371,-769,0,0,0,0,0,0,0,0,0,-1,1595,1793,0,0
378,-769,0,0,0,0,0,0,0,0,0,-1,1602,1793,0,0
385,-769,0,0,0,0,0,0,0,0,0,-1,1609,1793,0,0
392,-769,0,0,0,0,0,0,0,0,0,-1,1616,1793,0,0
399,-769,0,0,0,0,0,0,0,0,0,-1,1623,1793,0,0
406,-769,0,0,0,0,0,0,0,0,0,-1,1630,1793,0,0
413,-769,0,0,0,0,0,0,0,0,0,-1,1637,1793,0,0
420,-769,0,0,0,0,0,0,0,0,0,-1,1644,1793,0,0
427,-769,0,0,0,0,0,0,0,0,0,-1,1651,1793,0,0
434,-769,0,0,0,0,0,0,0,0,0,-1,1658,1793,0,0
441,-769,0,0,0,0,0,0,0,0,0,-1,1665,1793,0,0
448,-769,0,0,0,0,0,0,0,0,0,-1,1672,1793,0,0
455,-769,0,0,0,0,0,0,0,0,0,-1,1679,1793,0,0
462,-769,0,0,0,0,0,0,0,0,0,-1,1686,1793,0,0
469,-769,0,0,0,0,0,0,0,0,0,-1,1693,1793,0,0
476,-769,0,0,0,0,0,0,0,0,0,-1,1700,1793,0,0
483,-769,0,0,0,0,0,0,0,0,0,-1,1707,1793,0,0
490,-769,0,0,0,0,0,0,0,0,0,-1,1714,1793,0,0
497,-769,0,0,0,0,0,0,0,0,0,-1,1721,1793,0,0
504,-769,0,0,0,0,0,0,0,0,0,-1,1728,1793,0,0
511,-769,0,0,0,0,0,0,0,0,0,-1,1735,1793,0,0
518,-769,0,0,0,0,0,0,0,0,0,-1,1742,1793,0,0
525,-769,0,0,0,0,0,0,0,0,0,-1,1749,1793,0,0
532,-769,0,0,0,0,0,0,0,0,0,-1,1756,1793,0,0
539,-769,0,0,0,0,0,0,0,0,0,-1,1763,1793,0,0
546,-769,0,0,0,0,0,0,0,0,0,-1,1770,1793,0,0
553,-769,0,0,0,0,0,0,0,0,0,-1,1777,1793,0,0
560,-769,0,0,0,0,0,0,0,0,0,-1,1784,1793,0,0
567,-769,0,0,0,0,0,0,0,0,0,-1,1791,1793,0,0
574,-769,0,0,0,0,0,0,0,0,0,-1,1798,1793,0,0
581,-769,0,0,0,0,0,0,0,0,0,-1,1805,1793,0,0
588,-769,0,0,0,0,0,0,0,0,0,-1,1812,1793,0,0
595,-769,0,0,0,0,0,0,0,0,0,-1,1819,1793,0,0
602,-769,0,0,0,0,0,0,0,0,0,-1,1826,1793,0,0
609,-769,0,0,0,0,0,0,0,0,0,-1,1833,1793,0,0
616,-769,0,0,0,0,0,0,0,0,0,-1,1840,1793,0,0
623,-769,0,0,0,0,0,0,0,0,0,-1,1847,1793,0,0
630,-769,0,0,0,0,0,0,0,0,0,-1,1854,1793,0,0
637,-769,0,0,0,0,0,0,0,0,0,-1,1861,1793,0,0
644,-769,0,0,0,0,0,0,0,0,0,-1,1868,1793,0,0
651,-769,0,0,0,0,0,0,0,0,0,-1,1875,1793,0,0
658,-769,0,0,0,0,0,0,0,0,0,-1,1882,1793,0,0
665,-769,0,0,0,0,0,0,0,0,0,-1,1889,1793,0,0
672,-769,0,0,0,0,0,0,0,0,0,-1,1896,1793,0,0
679,-769,0,0,0,0,0,0,0,0,0,-1,1903,1793,0,0
686,-769,0,0,0,0,0,0,0,0,0,-1,1910,1793,0,0
693,-769,0,0,0,0,0,0,0,0,0,-1,1917,1793,0,0
700,-769,0,0,0,0,0,0,0,0,0,-1,1924,1793,0,0
707,-769,0,0,0,0,0,0,0,0,0,-1,1931,1793,0,0
714,-769,0,0,0,0,0,0,0,0,0,-1,1938,1793,0,0
721,-769,0,0,0,0,0,0,0,0,0,-1,1945,1793,0,0
728,-769,0,0,0,0,0,0,0,0,0,-1,1952,1793,0,0
735,-769,0,0,0,0,0,0,0,0,0,-1,1959,1793,0,0
742,-769,0,0,0,0,0,0,0,0,0,-1,1966,1793,0,0
749,-769,0,0,0,0,0,0,0,0,0,-1,1973,1793,0,0
756,-769,0,0,0,0,0,0,0,0,0,-1,1980,1793,0,0
763,-769,0,0,0,0,0,0,0,0,0,-1,1987,1793,0,0
770,-769,0,0,0,0,0,0,0,0,0,-1,1994,1793,0,0
777,-769,0,0,0,0,0,0,0,0,0,-1,2001,1793,0,0
784,-769,0,0,0,0,0,0,0,0,0,-1,2008,1793,0,0
791,-769,0,0,0,0,0,0,0,0,0,-1,2015,1793,0,0
798,-769,0,0,0,0,0,0,0,0,0,-1,2022,1793,0,0
805,-769,0,0,0,0,0,0,0,0,0,-1,2029,1793,0,0
812,-769,0,0,0,0,0,0,0,0,0,-1,2036,1793,0,0
-700,-776,0,0,0,0,0,0,0,0,0,-1,524,1800,0,0
-693,-776,0,0,0,0,0,0,0,0,0,-1,531,1800,0,0
-686,-776,0,0,0,0,0,0,0,0,0,-1,538,1800,0,0
-679,-776,0,0,0,0,0,0,0,0,0,-1,545,1800,0,0
-672,-776,0,0,0,0,0,0,0,0,0,-1,552,1800,0,0
-665,-776,0,0,0,0,0,0,0,0,0,-1,559,1800,0,0
-658,-776,0,0,0,0,0,0,0,0,0,-1,566,1800,0,0
-651,-776,0,0,0,0,0,0,0,0,0,-1,573,1800,0,0
-644,-776,0,0,0,0,0,0,0,0,0,-1,580,1800,0,0
-637,-776,0,0,0,0,0,0,0,0,0,-1,587,1800,0,0
-630,-776,0,0,0,0,0,0,0,0,0,-1,594,1800,0,0
-623,-776,0,0,0,0,0,0,0,0,0,-1,601,1800,0,0
-616,-776,0,0,0,0,0,0,0,0,0,-1,608,1800,0,0
-609,-776,0,0,0,0,0,0,0,0,0,-1,615,1800,0,0
-602,-776,0,0,0,0,0,0,0,0,0,-1,622,1800,0,0
-595,-776,0,0,0,0,0,0,0,0,0,-1,629,1800,0,0
-588,-776,0,0,0,0,0,0,0,0,0,-1,636,1800,0,0
-581,-776,0,0,0,0,0,0,0,0,0,-1,643,1800,0,0
-574,-776,0,0,0,0,0,0,0,0,0,-1,650,1800,0,0
-567,-776,0,0,0,0,0,0,0,0,0,-1,657,1800,0,0
-560,-776,0,0,0,0,0,0,0,0,0,-1,664,1800,0,0
-553,-776,0,0,0,0,0,0,0,0,0,-1,671,1800,0,0
-546,-776,0,0,0,0,0,0,0,0,0,-1,678,1800,0,0
-539,-776,0,0,0,0,0,0,0,0,0,-1,685,1800,0,0
-532,-776,0,0,0,0,0,0,0,0,0,-1,692,1800,0,0
-525,-776,0,0,0,0,0,0,0,0,0,-1,699,1800,0,0
-518,-776,0,0,0,0,0,0,0,0,0,-1,706,1800,0,0
-511,-776,0,0,0,0,0,0,0,0,0,-1,713,1800,0,0
-504,-776,0,0,0,0,0,0,0,0,0,-1,720,1800,0,0
-497,-776,0,0,0,0,0,0,0,0,0,-1,727,1800,0,0
-490,-776,0,0,0,0,0,0,0,0,0,-1,734,1800,0,0
-483,-776,0,0,0,0,0,0,0,0,0,-1,741,1800,0,0
-476,-776,0,0,0,0,0,0,0,0,0,-1,748,1800,0,0
-469,-776,0,0,0,0,0,0,0,0,0,-1,755,1800,0,0
-462,-776,0,0,0,0,0,0,0,0,0,-1,762,1800,0,0
-455,-776,0,0,0,0,0,0,0,0,0,-1,769,1800,0,0
-448,-776,0,0,0,0,0,0,0,0,0,-1,776,1800,0,0
-441,-776,0,0,0,0,0,0,0,0,0,-1,783,1800,0,0
-434,-776,0,0,0,0,0,0,0,0,0,-1,790,1800,0,0
-427,-776,0,0,0,0,0,0,0,0,0,-1,797,1800,0,0
-420,-776,0,0,0,0,0,0,0,0,0,-1,804,1800,0,0
-413,-776,0,0,0,0,0,0,0,0,0,-1,811,1800,0,0
-406,-776,0,0,0,0,0,0,0,0,0,-1,818,1800,0,0
-399,-776,0,0,0,0,0,0,0,0,0,-1,825,1800,0,0
-392,-776,0,0,0,0,0,0,0,0,0,-1,832,1800,0,0
-385,-776,0,0,0,0,0,0,0,0,0,-1,839,1800,0,0
-378,-776,0,0,0,0,0,0,0,0,0,-1,846,1800,0,0
-371,-776,0,0,0,0,0,0,0,0,0,-1,853,1800,0,0
-364,-776,0,0,0,0,0,0,0,0,0,-1,860,1800,0,0
-357,-776,0,0,0,0,0,0,0,0,0,-1,867,1800,0,0
-350,-776,0,0,0,0,0,0,0,0,0,-1,874,1800,0,0
-343,-776,0,0,0,0,0,0,0,0,0,-1,881,1800,0,0
-336,-776,0,0,0,0,0,0,0,0,0,-1,888,1800,0,0
-329,-776,0,0,0,0,0,0,0,0,0,-1,895,1800,0,0
-322,-776,0,0,0,0,0,0,0,0,0,-1,902,1800,0,0
-315,-776,0,0,0,0,0,0,0,0,0,-1,909,1800,0,0
-308,-776,0,0,0,0,0,0,0,0,0,-1,916,1800,0,0
-301,-776,0,0,0,0,0,0,0,0,0,-1,923,1800,0,0
-294,-776,0,0,0,0,0,0,0,0,0,-1,930,1800,0,0
-287,-776,0,0,0,0,0,0,0,0,0,-1,937,1800,0,0
-280,-776,0,0,0,0,0,0,0,0,0,-1,944,1800,0,0
-273,-776,0,0,0,0,0,0,0,0,0,-1,951,1800,0,0
-266,-776,0,0,0,0,0,0,0,0,0,-1,958,1800,0,0
-259,-776,0,0,0,0,0,0,0,0,0,-1,965,1800,0,0
-252,-776,0,0,0,0,0,0,0,0,0,-1,972,1800,0,0
-245,-776,0,0,0,0,0,0,0,0,0,-1,979,1800,0,0
-238,-776,0,0,0,0,0,0,0,0,0,-1,986,1800,0,0
-231,-776,0,0,0,0,0,0,0,0,0,-1,993,1800,0,0
-224,-776,0,0,0,0,0,0,0,0,0,-1,1000,1800,0,0
-217,-776,0,0,0,0,0,0,0,0,0,-1,1007,1800,0,0
-210,-776,0,0,0,0,0,0,0,0,0,-1,1014,1800,0,0
-203,-776,0,0,0,0,0,0,0,0,0,-1,1021,1800,0,0
-196,-776,0,0,0,0,0,0,0,0,0,-1,1028,1800,0,0
-189,-776,0,0,0,0,0,0,0,0,0,-1,1035,1800,0,0
-182,-776,0,0,0,0,0,0,0,0,0,-1,1042,1800,0,0
-175,-776,0,0,0,0,0,0,0,0,0,-1,1049,1800,0,0
-168,-776,0,0,0,0,0,0,0,0,0,-1,1056,1800,0,0
-161,-776,0,0,0,0,0,0,0,0,0,-1,1063,1800,0,0
-154,-776,0,0,0,0,0,0,0,0,0,-1,1070,1800,0,0
-147,-776,0,0,0,0,0,0,0,0,0,-1,1077,1800,0,0
-140,-776,2.98499,5.20911,0,0,0,0,0,0,0,-1,1084,1800,2.98493,-5.2091
-133,-776,6.72363,9.35828,0,0,0,0,0,0,0,-1,1091,1800,6.72358,-9.35824
-126,-776,6.55029,13.7832,0,0,0,0,0,0,0,-1,1098,1800,6.55029,-13.7832
-119,-776,5.72107,13.7787,0,0,0,0,0,0,0,-1,1105,1800,5.72106,-13.7787
-112,-776,6.84998,20.4421,0,0,0,0,0,0,0,-1,1112,1800,6.84993,-20.4421
-105,-776,4.46863,24.6742,0,0,0,0,0,0,0,-1,1119,1800,4.46868,-24.6742
-98,-776,4.31616,19.7659,0,0,0,0,0,0,0,-1,1126,1800,4.31619,-19.7659
-91,-776,3.30225,18.134,0,0,0,0,0,0,0,-1,1133,1800,3.30222,-18.134
-84,-776,2.67932,14.3162,0,0,0,0,0,0,0,-1,1140,1800,2.67926,-14.3161
-77,-776,0.580078,11.1272,0,0,0,0,0,0,0,-1,1147,1800,0.58002,-11.1272
-70,-776,-0.562866,12.3163,0,0,0,0,0,0,0,-1,1154,1800,-0.562897,-12.3163
-63,-776,-3.96106,9.97656,0,0,0,0,0,0,0,-1,1161,1800,-3.961,-9.97654
-56,-776,-7.35913,7.63672,0,0,0,0,0,0,0,-1,1168,1800,-7.3591,-7.63676
-49,-776,-7.62952,3.1908,0,0,0,0,0,0,0,-1,1175,1800,-7.62955,-3.19076
-42,-776,-3.41272,3.0249,0,0,0,0,0,0,0,-1,1182,1800,-3.41269,-3.02488
-35,-776,-3.71753,1.63635,0,0,0,0,0,0,0,-1,1189,1800,-3.71755,-1.63631
-28,-776,-4.03979,0.716064,0,0,0,0,0,0,0,-1,1196,1800,-4.03977,-0.716055
-21,-776,11.0022,69.4255,0,0,0,0,0,0,0,-1,1203,1800,11.0022,-69.4255
-14,-776,11.1306,70.0297,-0.0387096,-0.0162731,0.00770309,-0.013883,-0.0410997,1.26994,0.0241416,0.0488035,1210,1800,11.1306,-70.0296
-7,-776,10.515,70.5726,-0.0349856,-0.0196569,0.00680667,-0.0170707,-0.0375718,1.2077,0.0217222,0.0494083,1217,1800,10.515,-70.5726
0,-776,10.196,70.6245,-0.0320365,-0.0218023,0.00645436,-0.0186827,-0.0351561,1.12057,0.0203108,0.0455793,1224,1800,10.196,-70.6245
7,-776,10.0444,70.7471,-0.0309713,-0.0216402,0.00691445,-0.0179644,-0.034647,1.08219,0.020008,0.0461243,1231,1800,10.0444,-70.747
14,-776,9.93335,70.931,-0.0311987,-0.0198,0.00814484,-0.0155585,-0.0354402,1.09068,0.0205121,0.0452394,1238,1800,9.93338,-70.9311
21,-776,10.1063,70.7704,-0.0321594,-0.0172147,0.00904565,-0.0129542,-0.0364199,1.13062,0.021317,0.0418113,1245,1800,10.1063,-70.7703
28,-776,9.96985,70.6244,0,0,0,0,0,0,0,-1,1252,1800,9.96979,-70.6244
35,-776,10.754,70.5653,0,0,0,0,0,0,0,-1,1259,1800,10.7541,-70.5653
42,-776,9.40967,70.5354,0,0,0,0,0,0,0,-1,1266,1800,9.40961,-70.5354
49,-776,9.61267,70.8423,0,0,0,0,0,0,0,-1,1273,1800,9.61267,-70.8423
56,-776,8.91235,70.3577,-0.0464868,-0.0127787,0.00691254,-0.0114162,-0.0478493,1.37619,0.0288569,0.046967,1280,1800,8.91233,-70.3577
63,-776,8.76563,70.7821,-0.0503798,-0.0137312,0.00541888,-0.0129468,-0.0511642,1.42703,0.0307173,0.0474202,1287,1800,8.76562,-70.7821
70,-776,8.91675,71.498,0,0,0,0,0,0,0,-1,1294,1800,8.91671,-71.498
77,-776,9.00879,71.991,0,0,0,0,0,0,0,-1,1301,1800,9.00873,-71.991
84,-776,9.79504,70.4524,-0.0630388,-0.0230064,-0.00284708,-0.0228049,-0.0632403,-1.50015,0.0369817,0.0484948,1308,1800,9.795,-70.4524
91,-776,9.26746,70.2957,-0.0661377,-0.0264785,-0.00533192,-0.0257741,-0.066842,-1.43946,0.0389265,0.0475572,1315,1800,9.26745,-70.2957
98,-776,8.55249,70.2461,-0.0684628,-0.0288522,-0.00717284,-0.0275933,-0.0697217,-1.39706,0.0405444,0.0445993,1322,1800,8.55247,-70.2461
105,-776,7.77136,70.2085,-0.0701313,-0.0303792,-0.00851226,-0.0286332,-0.0718774,-1.36848,0.0417832,0.0434618,1329,1800,7.77142,-70.2085
112,-776,7.45105,69.9417,-0.0710178,-0.0308962,-0.00945793,-0.0287784,-0.0731356,-1.35052,0.042543,0.0442879,1336,1800,7.45101,-69.9416
119,-776,7.02246,69.6138,-0.0709939,-0.029942,-0.00961309,-0.0278024,-0.0731335,-1.3518,0.042626,0.0410482,1343,1800,7.02247,-69.6138
126,-776,6.37842,69.4803,0,0,0,0,0,0,0,-1,1350,1800,6.37841,-69.4804
133,-776,8.36792,69.306,0,0,0,0,0,0,0,-1,1357,1800,8.36797,-69.306
140,-776,7.35645,69.4623,0,0,0,0,0,0,0,-1,1364,1800,7.35642,-69.4623
147,-776,7.1377,66.0736,0,0,0,0,0,0,0,-1,1371,1800,7.13775,-66.0736
154,-776,38.4338,21.854,0,0,0,0,0,0,0,-1,1378,1800,38.4339,-21.854
161,-776,6.50293,1.1731,0,0,0,0,0,0,0,-1,1385,1800,6.5029,-1.17313
168,-776,8.44971,1.22913,0,0,0,0,0,0,0,-1,1392,1800,8.44974,-1.22915
175,-776,8.61523,2.87061,0,0,0,0,0,0,0,-1,1399,1800,8.6152,-2.87063
182,-776,8.54065,4.60645,0,0,0,0,0,0,0,-1,1406,1800,8.5407,-4.60643
189,-776,8.35303,6.28223,0,0,0,0,0,0,0,-1,1413,1800,8.35297,-6.28225
196,-776,8.0387,8.21704,0,0,0,0,0,0,0,-1,1420,1800,8.03865,-8.217
203,-776,7.91736,9.79919,0,0,0,0,0,0,0,-1,1427,1800,7.91735,-9.79922
210,-776,20.2479,7.85718,0,0,0,0,0,0,0,-1,1434,1800,20.248,-7.85719
217,-776,21.5171,9.3418,0,0,0,0,0,0,0,-1,1441,1800,21.5171,-9.34182
224,-776,3.09253,14.9313,0,0,0,0,0,0,0,-1,1448,1800,3.09254,-14.9313
231,-776,20.8671,9.21057,0,0,0,0,0,0,0,-1,1455,1800,20.867,-9.21054
238,-776,20.7511,9.05847,0,0,0,0,0,0,0,-1,1462,1800,20.7511,-9.05848
245,-776,3.80823,15.4108,0,0,0,0,0,0,0,-1,1469,1800,3.80826,-15.4108
252,-776,8.57837,20.2009,0,0,0,0,0,0,0,-1,1476,1800,8.57841,-20.2009
259,-776,14.1882,7.69055,0,0,0,0,0,0,0,-1,1483,1800,14.1882,-7.69061
266,-776,0,0,0,0,0,0,0,0,0,-1,1490,1800,0,0
273,-776,0,0,0,0,0,0,0,0,0,-1,1497,1800,0,0
280,-776,0,0,0,0,0,0,0,0,0,-1,1504,1800,0,0
287,-776,0,0,0,0,0,0,0,0,0,-1,1511,1800,0,0
294,-776,0,0,0,0,0,0,0,0,0,-1,1518,1800,0,0
301,-776,0,0,0,0,0,0,0,0,0,-1,1525,1800,0,0
308,-776,0,0,0,0,0,0,0,0,0,-1,1532,1800,0,0
315,-776,0,0,0,0,0,0,0,0,0,-1,1539,1800,0,0
322,-776,0,0,0,0,0,0,0,0,0,-1,1546,1800,0,0
329,-776,0,0,0,0,0,0,0,0,0,-1,1553,1800,0,0
336,-776,0,0,0,0,0,0,0,0,0,-1,1560,1800,0,0
343,-776,0,0,0,0,0,0,0,0,0,-1,1567,1800,0,0
350,-776,0,0,0,0,0,0,0,0,0,-1,1574,1800,0,0
357,-776,0,0,0,0,0,0,0,0,0,-1,1581,1800,0,0
364,-776,0,0,0,0,0,0,0,0,0,-1,1588,1800,0,0
371,-776,0,0,0,0,0,0,0,0,0,-1,1595,1800,0,0
378,-776,0,0,0,0,0,0,0,0,0,-1,1602,1800,0,0
385,-776,0,0,0,0,0,0,0,0,0,-1,1609,1800,0,0
392,-776,0,0,0,0,0,0,0,0,0,-1,1616,1800,0,0
399,-776,0,0,0,0,0,0,0,0,0,-1,1623,1800,0,0
406,-776,0,0,0,0,0,0,0,0,0,-1,1630,1800,0,0
413,-776,0,0,0,0,0,0,0,0,0,-1,1637,1800,0,0
420,-776,0,0,0,0,0,0,0,0,0,-1,1644,1800,0,0
427,-776,0,0,0,0,0,0,0,0,0,-1,1651,1800,0,0
434,-776,0,0,0,0,0,0,0,0,0,-1,1658,1800,0,0
441,-776,0,0,0,0,0,0,0,0,0,-1,1665,1800,0,0
448,-776,0,0,0,0,0,0,0,0,0,-1,1672,1800,0,0
455,-776,0,0,0,0,0,0,0,0,0,-1,1679,1800,0,0
462,-776,0,0,0,0,0,0,0,0,0,-1,1686,1800,0,0
469,-776,0,0,0,0,0,0,0,0,0,-1,1693,1800,0,0
476,-776,0,0,0,0,0,0,0,0,0,-1,1700,1800,0,0
483,-776,0,0,0,0,0,0,0,0,0,-1,1707,1800,0,0
490,-776,0,0,0,0,0,0,0,0,0,-1,1714,1800,0,0
497,-776,0,0,0,0,0,0,0,0,0,-1,1721,1800,0,0
504,-776,0,0,0,0,0,0,0,0,0,-1,1728,1800,0,0
511,-776,0,0,0,0,0,0,0,0,0,-1,1735,1800,0,0
518,-776,0,0,0,0,0,0,0,0,0,-1,1742,1800,0,0
525,-776,0,0,0,0,0,0,0,0,0,-1,1749,1800,0,0
532,-776,0,0,0,0,0,0,0,0,0,-1,1756,1800,0,0
539,-776,0,0,0,0,0,0,0,0,0,-1,1763,1800,0,0
546,-776,0,0,0,0,0,0,0,0,0,-1,1770,1800,0,0
553,-776,0,0,0,0,0,0,0,0,0,-1,1777,1800,0,0
560,-776,0,0,0,0,0,0,0,0,0,-1,1784,1800,0,0
567,-776,0,0,0,0,0,0,0,0,0,-1,1791,1800,0,0
574,-776,0,0,0,0,0,0,0,0,0,-1,1798,1800,0,0
581,-776,0,0,0,0,0,0,0,0,0,-1,1805,1800,0,0
588,-776,0,0,0,0,0,0,0,0,0,-1,1812,1800,0,0
595,-776,0,0,0,0,0,0,0,0,0,-1,1819,1800,0,0
602,-776,0,0,0,0,0,0,0,0,0,-1,1826,1800,0,0
609,-776,0,0,0,0,0,0,0,0,0,-1,1833,1800,0,0
616,-776,0,0,0,0,0,0,0,0,0,-1,1840,1800,0,0
623,-776,0,0,0,0,0,0,0,0,0,-1,1847,1800,0,0
630,-776,0,0,0,0,0,0,0,0,0,-1,1854,1800,0,0
637,-776,0,0,0,0,0,0,0,0,0,-1,1861,1800,0,0
644,-776,0,0,0,0,0,0,0,0,0,-1,1868,1800,0,0
651,-776,0,0,0,0,0,0,0,0,0,-1,1875,1800,0,0
658,-776,0,0,0,0,0,0,0,0,0,-1,1882,1800,0,0
665,-776,0,0,0,0,0,0,0,0,0,-1,1889,1800,0,0
672,-776,0,0,0,0,0,0,0,0,0,-1,1896,1800,0,0
679,-776,0,0,0,0,0,0,0,0,0,-1,1903,1800,0,0
686,-776,0,0,0,0,0,0,0,0,0,-1,1910,1800,0,0
693,-776,0,0,0,0,0,0,0,0,0,-1,1917,1800,0,0
700,-776,0,0,0,0,0,0,0,0,0,-1,1924,1800,0,0
707,-776,0,0,0,0,0,0,0,0,0,-1,1931,1800,0,0
714,-776,0,0,0,0,0,0,0,0,0,-1,1938,1800,0,0
721,-776,0,0,0,0,0,0,0,0,0,-1,1945,1800,0,0
728,-776,0,0,0,0,0,0,0,0,0,-1,1952,1800,0,0
735,-776,0,0,0,0,0,0,0,0,0,-1,1959,1800,0,0
742,-776,0,0,0,0,0,0,0,0,0,-1,1966,1800,0,0
749,-776,0,0,0,0,0,0,0,0,0,-1,1973,1800,0,0
756,-776,0,0,0,0,0,0,0,0,0,-1,1980,1800,0,0
763,-776,0,0,0,0,0,0,0,0,0,-1,1987,1800,0,0
770,-776,0,0,0,0,0,0,0,0,0,-1,1994,1800,0,0
777,-776,0,0,0,0,0,0,0,0,0,-1,2001,1800,0,0
784,-776,0,0,0,0,0,0,0,0,0,-1,2008,1800,0,0
791,-776,0,0,0,0,0,0,0,0,0,-1,2015,1800,0,0
798,-776,0,0,0,0,0,0,0,0,0,-1,2022,1800,0,0
805,-776,0,0,0,0,0,0,0,0,0,-1,2029,1800,0,0
812,-776,0,0,0,0,0,0,0,0,0,-1,2036,1800,0,0
-700,-783,0,0,0,0,0,0,0,0,0,-1,524,1807,0,0
-693,-783,0,0,0,0,0,0,0,0,0,-1,531,1807,0,0
-686,-783,0,0,0,0,0,0,0,0,0,-1,538,1807,0,0
-679,-783,0,0,0,0,0,0,0,0,0,-1,545,1807,0,0
-672,-783,0,0,0,0,0,0,0,0,0,-1,552,1807,0,0
-665,-783,0,0,0,0,0,0,0,0,0,-1,559,1807,0,0
-658,-783,0,0,0,0,0,0,0,0,0,-1,566,1807,0,0
-651,-783,0,0,0,0,0,0,0,0,0,-1,573,1807,0,0
-644,-783,0,0,0,0,0,0,0,0,0,-1,580,1807,0,0
-637,-783,0,0,0,0,0,0,0,0,0,-1,587,1807,0,0
-630,-783,0,0,0,0,0,0,0,0,0,-1,594,1807,0,0
-623,-783,0,0,0,0,0,0,0,0,0,-1,601,1807,0,0
-616,-783,0,0,0,0,0,0,0,0,0,-1,608,1807,0,0
-609,-783,0,0,0,0,0,0,0,0,0,-1,615,1807,0,0
-602,-783,0,0,0,0,0,0,0,0,0,-1,622,1807,0,0
-595,-783,0,0,0,0,0,0,0,0,0,-1,629,1807,0,0
-588,-783,0,0,0,0,0,0,0,0,0,-1,636,1807,0,0
-581,-783,0,0,0,0,0,0,0,0,0,-1,643,1807,0,0
-574,-783,0,0,0,0,0,0,0,0,0,-1,650,1807,0,0
-567,-783,0,0,0,0,0,0,0,0,0,-1,657,1807,0,0
-560,-783,0,0,0,0,0,0,0,0,0,-1,664,1807,0,0
-553,-783,0,0,0,0,0,0,0,0,0,-1,671,1807,0,0
-546,-783,0,0,0,0,0,0,0,0,0,-1,678,1807,0,0
-539,-783,0,0,0,0,0,0,0,0,0,-1,685,1807,0,0
-532,-783,0,0,0,0,0,0,0,0,0,-1,692,1807,0,0
-525,-783,0,0,0,0,0,0,0,0,0,-1,699,1807,0,0
-518,-783,0,0,0,0,0,0,0,0,0,-1,706,1807,0,0
-511,-783,0,0,0,0,0,0,0,0,0,-1,713,1807,0,0
-504,-783,0,0,0,0,0,0,0,0,0,-1,720,1807,0,0
-497,-783,0,0,0,0,0,0,0,0,0,-1,727,1807,0,0
-490,-783,0,0,0,0,0,0,0,0,0,-1,734,1807,0,0
-483,-783,0,0,0,0,0,0,0,0,0,-1,741,1807,0,0
-476,-783,0,0,0,0,0,0,0,0,0,-1,748,1807,0,0
-469,-783,0,0,0,0,0,0,0,0,0,-1,755,1807,0,0
-462,-783,0,0,0,0,0,0,0,0,0,-1,762,1807,0,0
-455,-783,0,0,0,0,0,0,0,0,0,-1,769,1807,0,0
-448,-783,0,0,0,0,0,0,0,0,0,-1,776,1807,0,0
-441,-783,0,0,0,0,0,0,0,0,0,-1,783,1807,0,0
-434,-783,0,0,0,0,0,0,0,0,0,-1,790,1807,0,0
-427,-783,0,0,0,0,0,0,0,0,0,-1,797,1807,0,0
-420,-783,0,0,0,0,0,0,0,0,0,-1,804,1807,0,0
-413,-783,0,0,0,0,0,0,0,0,0,-1,811,1807,0,0
-406,-783,0,0,0,0,0,0,0,0,0,-1,818,1807,0,0
-399,-783,0,0,0,0,0,0,0,0,0,-1,825,1807,0,0
-392,-783,0,0,0,0,0,0,0,0,0,-1,832,1807,0,0
-385,-783,0,0,0,0,0,0,0,0,0,-1,839,1807,0,0
-378,-783,0,0,0,0,0,0,0,0,0,-1,846,1807,0,0
-371,-783,0,0,0,0,0,0,0,0,0,-1,853,1807,0,0
-364,-783,0,0,0,0,0,0,0,0,0,-1,860,1807,0,0
-357,-783,0,0,0,0,0,0,0,0,0,-1,867,1807,0,0
-350,-783,0,0,0,0,0,0,0,0,0,-1,874,1807,0,0
-343,-783,0,0,0,0,0,0,0,0,0,-1,881,1807,0,0
-336,-783,0,0,0,0,0,0,0,0,0,-1,888,1807,0,0
-329,-783,0,0,0,0,0,0,0,0,0,-1,895,1807,0,0
-322,-783,0,0,0,0,0,0,0,0,0,-1,902,1807,0,0
-315,-783,0,0,0,0,0,0,0,0,0,-1,909,1807,0,0
-308,-783,0,0,0,0,0,0,0,0,0,-1,916,1807,0,0
-301,-783,0,0,0,0,0,0,0,0,0,-1,923,1807,0,0
-294,-783,0,0,0,0,0,0,0,0,0,-1,930,1807,0,0
-287,-783,0,0,0,0,0,0,0,0,0,-1,937,1807,0,0
-280,-783,0,0,0,0,0,0,0,0,0,-1,944,1807,0,0
-273,-783,0,0,0,0,0,0,0,0,0,-1,951,1807,0,0
-266,-783,0,0,0,0,0,0,0,0,0,-1,958,1807,0,0
-259,-783,0,0,0,0,0,0,0,0,0,-1,965,1807,0,0
-252,-783,0,0,0,0,0,0,0,0,0,-1,972,1807,0,0
-245,-783,0,0,0,0,0,0,0,0,0,-1,979,1807,0,0
-238,-783,0,0,0,0,0,0,0,0,0,-1,986,1807,0,0
-231,-783,0,0,0,0,0,0,0,0,0,-1,993,1807,0,0
-224,-783,0,0,0,0,0,0,0,0,0,-1,1000,1807,0,0
-217,-783,0,0,0,0,0,0,0,0,0,-1,1007,1807,0,0
-210,-783,0,0,0,0,0,0,0,0,0,-1,1014,1807,0,0
-203,-783,0,0,0,0,0,0,0,0,0,-1,1021,1807,0,0
-196,-783,0,0,0,0,0,0,0,0,0,-1,1028,1807,0,0
-189,-783,0,0,0,0,0,0,0,0,0,-1,1035,1807,0,0
-182,-783,0,0,0,0,0,0,0,0,0,-1,1042,1807,0,0
-175,-783,0,0,0,0,0,0,0,0,0,-1,1049,1807,0,0
-168,-783,0,0,0,0,0,0,0,0,0,-1,1056,1807,0,0
-161,-783,0,0,0,0,0,0,0,0,0,-1,1063,1807,0,0
-154,-783,0,0,0,0,0,0,0,0,0,-1,1070,1807,0,0
-147,-783,0,0,0,0,0,0,0,0,0,-1,1077,1807,0,0
-140,-783,0,0,0,0,0,0,0,0,0,-1,1084,1807,0,0
-133,-783,0,0,0,0,0,0,0,0,0,-1,1091,1807,0,0
-126,-783,0,0,0,0,0,0,0,0,0,-1,1098,1807,0,0
-119,-783,0,0,0,0,0,0,0,0,0,-1,1105,1807,0,0
-112,-783,5.33936,14.7699,0,0,0,0,0,0,0,-1,1112,1807,5.33931,-14.7699
-105,-783,6.44263,21.2224,0,0,0,0,0,0,0,-1,1119,1807,6.44263,-21.2224
-98,-783,5.54773,20.5695,0,0,0,0,0,0,0,-1,1126,1807,5.54772,-20.5695
-91,-783,2.6106,20.2491,0,0,0,0,0,0,0,-1,1133,1807,2.61056,-20.2492
-84,-783,-0.0491943,14.5743,0,0,0,0,0,0,0,-1,1140,1807,-0.0491562,-14.5743
-77,-783,0.332764,12.7788,0,0,0,0,0,0,0,-1,1147,1807,0.332743,-12.7788
-70,-783,-1.93176,5.12817,0,0,0,0,0,0,0,-1,1154,1807,-1.93171,-5.12813
-63,-783,-5.31702,10.54,0,0,0,0,0,0,0,-1,1161,1807,-5.31703,-10.54
-56,-783,-6.26135,6.9679,0,0,0,0,0,0,0,-1,1168,1807,-6.26136,-6.96785
-49,-783,-3.17688,4.59705,0,0,0,0,0,0,0,-1,1175,1807,-3.17685,-4.5971
-42,-783,-3.72876,3.1405,0,0,0,0,0,0,0,-1,1182,1807,-3.72874,-3.14055
-35,-783,-3.97046,1.59399,0,0,0,0,0,0,0,-1,1189,1807,-3.97041,-1.59401
-28,-783,-4.12195,0.270386,0,0,0,0,0,0,0,-1,1196,1807,-4.12197,-0.270408
-21,-783,11.2064,69.4287,0,0,0,0,0,0,0,-1,1203,1807,11.2064,-69.4287
-14,-783,11.187,69.8372,-0.0504784,-0.0186794,0.00935579,-0.016131,-0.0530268,1.30486,0.0313877,0.0492754,1210,1807,11.187,-69.8372
-7,-783,11.0302,70.3373,-0.0454504,-0.0242137,0.00816189,-0.0214393,-0.0482248,1.24313,0.0278996,0.0450175,1217,1807,11.0301,-70.3373
0,-783,10.6256,70.7991,-0.0415608,-0.0278174,0.00779896,-0.0242946,-0.0450835,1.14654,0.0260552,0.0439508,1224,1807,10.6256,-70.7991
7,-783,10.2396,70.9918,-0.0403167,-0.0278061,0.00856379,-0.0234564,-0.0446665,1.10083,0.0257991,0.0446881,1231,1807,10.2396,-70.9918
14,-783,10.0894,71.2126,-0.0406379,-0.0255358,0.0101515,-0.020435,-0.0457387,1.10517,0.0264571,0.045608,1238,1807,10.0894,-71.2126
21,-783,9.97412,71.5093,-0.0416873,-0.0222678,0.0113225,-0.0170619,-0.0468932,1.13983,0.0274064,0.04837,1245,1807,9.9741,-71.5093
28,-783,9.89246,71.7836,0,0,0,0,0,0,0,-1,1252,1807,9.89245,-71.7836
35,-783,10.1917,70.3533,0,0,0,0,0,0,0,-1,1259,1807,10.1916,-70.3532
42,-783,9.55627,69.9037,0,0,0,0,0,0,0,-1,1266,1807,9.55622,-69.9037
49,-783,9.11218,70.2476,-0.0524529,-0.0153803,0.0110344,-0.0123446,-0.0554886,1.30232,0.0336412,0.0468981,1273,1807,9.11221,-70.2475
56,-783,8.66003,70.3376,-0.0563921,-0.015444,0.00940013,-0.0133892,-0.0584469,1.35559,0.0353569,0.0472869,1280,1807,8.66002,-70.3377
63,-783,8.08167,70.4752,-0.0604635,-0.0163574,0.00769661,-0.0150529,-0.061768,1.4029,0.0371907,0.0498906,1287,1807,8.08166,-70.4752
70,-783,7.57593,70.614,0,0,0,0,0,0,0,-1,1294,1807,7.57587,-70.6141
77,-783,12.4656,72.7275,0,0,0,0,0,0,0,-1,1301,1807,12.4655,-72.7275
84,-783,11.3513,72.3354,-0.0747411,-0.0278015,-0.00282327,-0.0276323,-0.0749103,-1.51094,0.0437424,0.0482273,1308,1807,11.3513,-72.3354
91,-783,10.1641,72.0137,-0.0784432,-0.032296,-0.00615298,-0.0314897,-0.0792495,-1.44049,0.046075,0.0441205,1315,1807,10.164,-72.0137
98,-783,8.83362,71.5746,-0.081311,-0.0354624,-0.00871282,-0.0338625,-0.0829109,-1.38919,0.0481355,0.041633,1322,1807,8.83357,-71.5746
105,-783,7.81128,70.9199,-0.0833492,-0.0374865,-0.0106288,-0.035143,-0.0856927,-1.35378,0.0497405,0.0448616,1329,1807,7.81127,-70.9199
112,-783,7.11011,70.304,-0.084373,-0.0379725,-0.0118799,-0.0351078,-0.0872377,-1.33417,0.0506853,0.0464629,1336,1807,7.11006,-70.304
119,-783,6.40881,69.957,-0.0842572,-0.0364895,-0.0119104,-0.0336845,-0.0870623,-1.3395,0.0506922,0.0451278,1343,1807,6.40877,-69.9571
126,-783,5.677,69.645,-0.0826748,-0.0336612,-0.0107015,-0.0314265,-0.0849095,-1.36494,0.0495708,0.0484086,1350,1807,5.67696,-69.645
133,-783,5.23511,69.3481,0,0,0,0,0,0,0,-1,1357,1807,5.23515,-69.3482
140,-783,7.30542,66.7736,0,0,0,0,0,0,0,-1,1364,1807,7.30541,-66.7735
147,-783,7.61633,65.818,0,0,0,0,0,0,0,-1,1371,1807,7.61632,-65.818
154,-783,38.2109,17.545,0,0,0,0,0,0,0,-1,1378,1807,38.2109,-17.545
161,-783,39.5087,17.5449,0,0,0,0,0,0,0,-1,1385,1807,39.5087,-17.545
168,-783,8.62561,1.79944,0,0,0,0,0,0,0,-1,1392,1807,8.62561,-1.79946
175,-783,8.78699,3.40857,0,0,0,0,0,0,0,-1,1399,1807,8.78697,-3.40854
182,-783,8.70984,5.14661,0,0,0,0,0,0,0,-1,1406,1807,8.70989,-5.14666
189,-783,8.55762,6.79871,0,0,0,0,0,0,0,-1,1413,1807,8.55766,-6.79872
196,-783,8.25488,8.66626,0,0,0,0,0,0,0,-1,1420,1807,8.25492,-8.66628
203,-783,7.86755,10.5735,0,0,0,0,0,0,0,-1,1427,1807,7.8676,-10.5734
210,-783,5.6969,8.99231,0,0,0,0,0,0,0,-1,1434,1807,5.69693,-8.99234
217,-783,5.28503,3.80872,0,0,0,0,0,0,0,-1,1441,1807,5.285,-3.80868
224,-783,3.22571,6.62903,0,0,0,0,0,0,0,-1,1448,1807,3.2257,-6.62907
231,-783,4.27942,4.56262,0,0,0,0,0,0,0,-1,1455,1807,4.27948,-4.56267
238,-783,0,0,0,0,0,0,0,0,0,-1,1462,1807,0,0
245,-783,0,0,0,0,0,0,0,0,0,-1,1469,1807,0,0
252,-783,0,0,0,0,0,0,0,0,0,-1,1476,1807,0,0
259,-783,0,0,0,0,0,0,0,0,0,-1,1483,1807,0,0
266,-783,0,0,0,0,0,0,0,0,0,-1,1490,1807,0,0
273,-783,0,0,0,0,0,0,0,0,0,-1,1497,1807,0,0
280,-783,0,0,0,0,0,0,0,0,0,-1,1504,1807,0,0
287,-783,0,0,0,0,0,0,0,0,0,-1,1511,1807,0,0
294,-783,0,0,0,0,0,0,0,0,0,-1,1518,1807,0,0
301,-783,0,0,0,0,0,0,0,0,0,-1,1525,1807,0,0
308,-783,0,0,0,0,0,0,0,0,0,-1,1532,1807,0,0
315,-783,0,0,0,0,0,0,0,0,0,-1,1539,1807,0,0
322,-783,0,0,0,0,0,0,0,0,0,-1,1546,1807,0,0
329,-783,0,0,0,0,0,0,0,0,0,-1,1553,1807,0,0
336,-783,0,0,0,0,0,0,0,0,0,-1,1560,1807,0,0
343,-783,0,0,0,0,0,0,0,0,0,-1,1567,1807,0,0
350,-783,0,0,0,0,0,0,0,0,0,-1,1574,1807,0,0
357,-783,0,0,0,0,0,0,0,0,0,-1,1581,1807,0,0
364,-783,0,0,0,0,0,0,0,0,0,-1,1588,1807,0,0
371,-783,0,0,0,0,0,0,0,0,0,-1,1595,1807,0,0
378,-783,0,0,0,0,0,0,0,0,0,-1,1602,1807,0,0
385,-783,0,0,0,0,0,0,0,0,0,-1,1609,1807,0,0
392,-783,0,0,0,0,0,0,0,0,0,-1,1616,1807,0,0
399,-783,0,0,0,0,0,0,0,0,0,-1,1623,1807,0,0
406,-783,0,0,0,0,0,0,0,0,0,-1,1630,1807,0,0
413,-783,0,0,0,0,0,0,0,0,0,-1,1637,1807,0,0
420,-783,0,0,0,0,0,0,0,0,0,-1,1644,1807,0,0
427,-783,0,0,0,0,0,0,0,0,0,-1,1651,1807,0,0
434,-783,0,0,0,0,0,0,0,0,0,-1,1658,1807,0,0
441,-783,0,0,0,0,0,0,0,0,0,-1,1665,1807,0,0
448,-783,0,0,0,0,0,0,0,0,0,-1,1672,1807,0,0
455,-783,0,0,0,0,0,0,0,0,0,-1,1679,1807,0,0
462,-783,0,0,0,0,0,0,0,0,0,-1,1686,1807,0,0
469,-783,0,0,0,0,0,0,0,0,0,-1,1693,1807,0,0
476,-783,0,0,0,0,0,0,0,0,0,-1,1700,1807,0,0
483,-783,0,0,0,0,0,0,0,0,0,-1,1707,1807,0,0
490,-783,0,0,0,0,0,0,0,0,0,-1,1714,1807,0,0
497,-783,0,0,0,0,0,0,0,0,0,-1,1721,1807,0,0
504,-783,0,0,0,0,0,0,0,0,0,-1,1728,1807,0,0
511,-783,0,0,0,0,0,0,0,0,0,-1,1735,1807,0,0
518,-783,0,0,0,0,0,0,0,0,0,-1,1742,1807,0,0
525,-783,0,0,0,0,0,0,0,0,0,-1,1749,1807,0,0
532,-783,0,0,0,0,0,0,0,0,0,-1,1756,1807,0,0
539,-783,0,0,0,0,0,0,0,0,0,-1,1763,1807,0,0
546,-783,0,0,0,0,0,0,0,0,0,-1,1770,1807,0,0
553,-783,0,0,0,0,0,0,0,0,0,-1,1777,1807,0,0
560,-783,0,0,0,0,0,0,0,0,0,-1,1784,1807,0,0
567,-783,0,0,0,0,0,0,0,0,0,-1,1791,1807,0,0
574,-783,0,0,0,0,0,0,0,0,0,-1,1798,1807,0,0
581,-783,0,0,0,0,0,0,0,0,0,-1,1805,1807,0,0
588,-783,0,0,0,0,0,0,0,0,0,-1,1812,1807,0,0
595,-783,0,0,0,0,0,0,0,0,0,-1,1819,1807,0,0
602,-783,0,0,0,0,0,0,0,0,0,-1,1826,1807,0,0
609,-783,0,0,0,0,0,0,0,0,0,-1,1833,1807,0,0
616,-783,0,0,0,0,0,0,0,0,0,-1,1840,1807,0,0
623,-783,0,0,0,0,0,0,0,0,0,-1,1847,1807,0,0
630,-783,0,0,0,0,0,0,0,0,0,-1,1854,1807,0,0
637,-783,0,0,0,0,0,0,0,0,0,-1,1861,1807,0,0
644,-783,0,0,0,0,0,0,0,0,0,-1,1868,1807,0,0
651,-783,0,0,0,0,0,0,0,0,0,-1,1875,1807,0,0
658,-783,0,0,0,0,0,0,0,0,0,-1,1882,1807,0,0
665,-783,0,0,0,0,0,0,0,0,0,-1,1889,1807,0,0
672,-783,0,0,0,0,0,0,0,0,0,-1,1896,1807,0,0
679,-783,0,0,0,0,0,0,0,0,0,-1,1903,1807,0,0
686,-783,0,0,0,0,0,0,0,0,0,-1,1910,1807,0,0
693,-783,0,0,0,0,0,0,0,0,0,-1,1917,1807,0,0
700,-783,0,0,0,0,0,0,0,0,0,-1,1924,1807,0,0
707,-783,0,0,0,0,0,0,0,0,0,-1,1931,1807,0,0
714,-783,0,0,0,0,0,0,0,0,0,-1,1938,1807,0,0
721,-783,0,0,0,0,0,0,0,0,0,-1,1945,1807,0,0
728,-783,0,0,0,0,0,0,0,0,0,-1,1952,1807,0,0
735,-783,0,0,0,0,0,0,0,0,0,-1,1959,1807,0,0
742,-783,0,0,0,0,0,0,0,0,0,-1,1966,1807,0,0
749,-783,0,0,0,0,0,0,0,0,0,-1,1973,1807,0,0
756,-783,0,0,0,0,0,0,0,0,0,-1,1980,1807,0,0
763,-783,0,0,0,0,0,0,0,0,0,-1,1987,1807,0,0
770,-783,0,0,0,0,0,0,0,0,0,-1,1994,1807,0,0
777,-783,0,0,0,0,0,0,0,0,0,-1,2001,1807,0,0
784,-783,0,0,0,0,0,0,0,0,0,-1,2008,1807,0,0
791,-783,0,0,0,0,0,0,0,0,0,-1,2015,1807,0,0
798,-783,0,0,0,0,0,0,0,0,0,-1,2022,1807,0,0
805,-783,0,0,0,0,0,0,0,0,0,-1,2029,1807,0,0
812,-783,0,0,0,0,0,0,0,0,0,-1,2036,1807,0,0
-700,-790,0,0,0,0,0,0,0,0,0,-1,524,1814,0,0
-693,-790,0,0,0,0,0,0,0,0,0,-1,531,1814,0,0
-686,-790,0,0,0,0,0,0,0,0,0,-1,538,1814,0,0
-679,-790,0,0,0,0,0,0,0,0,0,-1,545,1814,0,0
-672,-790,0,0,0,0,0,0,0,0,0,-1,552,1814,0,0
-665,-790,0,0,0,0,0,0,0,0,0,-1,559,1814,0,0
-658,-790,0,0,0,0,0,0,0,0,0,-1,566,1814,0,0
-651,-790,0,0,0,0,0,0,0,0,0,-1,573,1814,0,0
-644,-790,0,0,0,0,0,0,0,0,0,-1,580,1814,0,0
-637,-790,0,0,0,0,0,0,0,0,0,-1,587,1814,0,0
-630,-790,0,0,0,0,0,0,0,0,0,-1,594,1814,0,0
-623,-790,0,0,0,0,0,0,0,0,0,-1,601,1814,0,0
-616,-790,0,0,0,0,0,0,0,0,0,-1,608,1814,0,0
-609,-790,0,0,0,0,0,0,0,0,0,-1,615,1814,0,0
-602,-790,0,0,0,0,0,0,0,0,0,-1,622,1814,0,0
-595,-790,0,0,0,0,0,0,0,0,0,-1,629,1814,0,0
-588,-790,0,0,0,0,0,0,0,0,0,-1,636,1814,0,0
-581,-790,0,0,0,0,0,0,0,0,0,-1,643,1814,0,0
-574,-790,0,0,0,0,0,0,0,0,0,-1,650,1814,0,0
-567,-790,0,0,0,0,0,0,0,0,0,-1,657,1814,0,0
-560,-790,0,0,0,0,0,0,0,0,0,-1,664,1814,0,0
-553,-790,0,0,0,0,0,0,0,0,0,-1,671,1814,0,0
-546,-790,0,0,0,0,0,0,0,0,0,-1,678,1814,0,0
-539,-790,0,0,0,0,0,0,0,0,0,-1,685,1814,0,0
-532,-790,0,0,0,0,0,0,0,0,0,-1,692,1814,0,0
-525,-790,0,0,0,0,0,0,0,0,0,-1,699,1814,0,0
-518,-790,0,0,0,0,0,0,0,0,0,-1,706,1814,0,0
-511,-790,0,0,0,0,0,0,0,0,0,-1,713,1814,0,0
-504,-790,0,0,0,0,0,0,0,0,0,-1,720,1814,0,0
-497,-790,0,0,0,0,0,0,0,0,0,-1,727,1814,0,0
-490,-790,0,0,0,0,0,0,0,0,0,-1,734,1814,0,0
-483,-790,0,0,0,0,0,0,0,0,0,-1,741,1814,0,0
-476,-790,0,0,0,0,0,0,0,0,0,-1,748,1814,0,0
-469,-790,0,0,0,0,0,0,0,0,0,-1,755,1814,0,0
-462,-790,0,0,0,0,0,0,0,0,0,-1,762,1814,0,0
-455,-790,0,0,0,0,0,0,0,0,0,-1,769,1814,0,0
-448,-790,0,0,0,0,0,0,0,0,0,-1,776,1814,0,0
-441,-790,0,0,0,0,0,0,0,0,0,-1,783,1814,0,0
-434,-790,0,0,0,0,0,0,0,0,0,-1,790,1814,0,0
-427,-790,0,0,0,0,0,0,0,0,0,-1,797,1814,0,0
-420,-790,0,0,0,0,0,0,0,0,0,-1,804,1814,0,0
-413,-790,0,0,0,0,0,0,0,0,0,-1,811,1814,0,0
-406,-790,0,0,0,0,0,0,0,0,0,-1,818,1814,0,0
-399,-790,0,0,0,0,0,0,0,0,0,-1,825,1814,0,0
-392,-790,0,0,0,0,0,0,0,0,0,-1,832,1814,0,0
-385,-790,0,0,0,0,0,0,0,0,0,-1,839,1814,0,0
-378,-790,0,0,0,0,0,0,0,0,0,-1,846,1814,0,0
-371,-790,0,0,0,0,0,0,0,0,0,-1,853,1814,0,0
-364,-790,0,0,0,0,0,0,0,0,0,-1,860,1814,0,0
-357,-790,0,0,0,0,0,0,0,0,0,-1,867,1814,0,0
-350,-790,0,0,0,0,0,0,0,0,0,-1,874,1814,0,0
-343,-790,0,0,0,0,0,0,0,0,0,-1,881,1814,0,0
-336,-790,0,0,0,0,0,0,0,0,0,-1,888,1814,0,0
-329,-790,0,0,0,0,0,0,0,0,0,-1,895,1814,0,0
-322,-790,0,0,0,0,0,0,0,0,0,-1,902,1814,0,0
-315,-790,0,0,0,0,0,0,0,0,0,-1,909,1814,0,0
-308,-790,0,0,0,0,0,0,0,0,0,-1,916,1814,0,0
-301,-790,0,0,0,0,0,0,0,0,0,-1,923,1814,0,0
-294,-790,0,0,0,0,0,0,0,0,0,-1,930,1814,0,0
-287,-790,0,0,0,0,0,0,0,0,0,-1,937,1814,0,0
-280,-790,0,0,0,0,0,0,0,0,0,-1,944,1814,0,0
-273,-790,0,0,0,0,0,0,0,0,0,-1,951,1814,0,0
-266,-790,0,0,0,0,0,0,0,0,0,-1,958,1814,0,0
-259,-790,0,0,0,0,0,0,0,0,0,-1,965,1814,0,0
-252,-790,0,0,0,0,0,0,0,0,0,-1,972,1814,0,0
-245,-790,0,0,0,0,0,0,0,0,0,-1,979,1814,0,0
-238,-790,0,0,0,0,0,0,0,0,0,-1,986,1814,0,0
-231,-790,0,0,0,0,0,0,0,0,0,-1,993,1814,0,0
-224,-790,0,0,0,0,0,0,0,0,0,-1,1000,1814,0,0
-217,-790,0,0,0,0,0,0,0,0,0,-1,1007,1814,0,0
-210,-790,0,0,0,0,0,0,0,0,0,-1,1014,1814,0,0
-203,-790,0,0,0,0,0,0,0,0,0,-1,1021,1814,0,0
-196,-790,0,0,0,0,0,0,0,0,0,-1,1028,1814,0,0
-189,-790,0,0,0,0,0,0,0,0,0,-1,1035,1814,0,0
-182,-790,0,0,0,0,0,0,0,0,0,-1,1042,1814,0,0
-175,-790,0,0,0,0,0,0,0,0,0,-1,1049,1814,0,0
-168,-790,0,0,0,0,0,0,0,0,0,-1,1056,1814,0,0
-161,-790,0,0,0,0,0,0,0,0,0,-1,1063,1814,0,0
-154,-790,0,0,0,0,0,0,0,0,0,-1,1070,1814,0,0
-147,-790,0,0,0,0,0,0,0,0,0,-1,1077,1814,0,0
-140,-790,0,0,0,0,0,0,0,0,0,-1,1084,1814,0,0
-133,-790,0,0,0,0,0,0,0,0,0,-1,1091,1814,0,0
-126,-790,0,0,0,0,0,0,0,0,0,-1,1098,1814,0,0
-119,-790,0,0,0,0,0,0,0,0,0,-1,1105,1814,0,0
-112,-790,0,0,0,0,0,0,0,0,0,-1,1112,1814,0,0
-105,-790,0,0,0,0,0,0,0,0,0,-1,1119,1814,0,0
-98,-790,0,0,0,0,0,0,0,0,0,-1,1126,1814,0,0
-91,-790,0,0,0,0,0,0,0,0,0,-1,1133,1814,0,0
-84,-790,0,0,0,0,0,0,0,0,0,-1,1140,1814,0,0
-77,-790,-0.969238,5.30847,0,0,0,0,0,0,0,-1,1147,1814,-0.969277,-5.3085
-70,-790,-1.23169,4.98914,0,0,0,0,0,0,0,-1,1154,1814,-1.23163,-4.98916
-63,-790,-1.69128,4.32263,0,0,0,0,0,0,0,-1,1161,1814,-1.69128,-4.32258
-56,-790,-2.24756,3.75305,0,0,0,0,0,0,0,-1,1168,1814,-2.24758,-3.75302
-49,-790,-3.11011,3.35779,0,0,0,0,0,0,0,-1,1175,1814,-3.11006,-3.35781
-42,-790,0.593262,1.19165,0,0,0,0,0,0,0,-1,1182,1814,0.593225,-1.19165
-35,-790,0.307129,-0.20105,0,0,0,0,0,0,0,-1,1189,1814,0.307178,0.201006
-28,-790,-2.78467,0.785156,0,0,0,0,0,0,0,-1,1196,1814,-2.78471,-0.785183
-21,-790,8.0752,67.6027,0,0,0,0,0,0,0,-1,1203,1814,8.07523,-67.6026
-14,-790,11.1924,69.6633,0,0,0,0,0,0,0,-1,1210,1814,11.1924,-69.6634
-7,-790,11.3605,70.7234,-0.058856,-0.0288403,0.00968345,-0.0259875,-0.0617089,1.28429,0.0357751,0.0479712,1217,1814,11.3605,-70.7234
0,-790,10.8245,71.1289,-0.0539215,-0.0346374,0.00936134,-0.0308405,-0.0577184,1.18548,0.0333499,0.0478116,1224,1814,10.8245,-71.1289
7,-790,10.3246,71.3048,-0.0525541,-0.0346542,0.0105793,-0.0297469,-0.0574614,1.13648,0.0331823,0.0455177,1231,1814,10.3246,-71.3048
14,-790,10.007,71.7963,-0.0528475,-0.0319171,0.012469,-0.0261036,-0.058661,1.13452,0.0339362,0.0423656,1238,1814,10.0069,-71.7963
21,-790,10.0348,71.8831,0,0,0,0,0,0,0,-1,1245,1814,10.0348,-71.883
28,-790,9.61658,70.4474,0,0,0,0,0,0,0,-1,1252,1814,9.61662,-70.4474
35,-790,9.44714,70.2703,0,0,0,0,0,0,0,-1,1259,1814,9.44715,-70.2702
42,-790,9.10828,70.0079,-0.0601113,-0.0187923,0.015137,-0.0138404,-0.0650632,1.25463,0.0395771,0.0449047,1266,1814,9.10833,-70.0079
49,-790,8.74829,70.1078,-0.0632758,-0.0180849,0.0142461,-0.0139689,-0.0673919,1.28953,0.0410712,0.0496721,1273,1814,8.74835,-70.1078
56,-790,8.24902,70.1213,-0.0669068,-0.0176947,0.0124179,-0.0147388,-0.0698628,1.33711,0.0425224,0.0490255,1280,1814,8.249,-70.1213
63,-790,7.63782,70.244,-0.0708511,-0.0184349,0.0105267,-0.0163999,-0.0728861,1.37983,0.0441514,0.0466015,1287,1814,7.63779,-70.244
70,-790,7.10742,70.2605,-0.0756871,-0.0202014,0.00699257,-0.0193338,-0.0765548,1.44734,0.0459678,0.0431384,1294,1814,7.10747,-70.2606
77,-790,6.63306,70.1919,0,0,0,0,0,0,0,-1,1301,1814,6.63304,-70.1919
84,-790,12.0909,73.1945,0,0,0,0,0,0,0,-1,1308,1814,12.0909,-73.1944
91,-790,9.40649,72.5386,0,0,0,0,0,0,0,-1,1315,1814,9.40647,-72.5386
98,-790,8.74573,72.027,-0.0938568,-0.0417381,-0.0102671,-0.0397885,-0.0958064,-1.38314,0.0555778,0.0459283,1322,1814,8.74573,-72.027
105,-790,7.93701,71.5239,-0.0962155,-0.0443274,-0.0129229,-0.041287,-0.0992558,-1.33973,0.0575745,0.0465895,1329,1814,7.93702,-71.524
112,-790,6.76257,70.5912,0,0,0,0,0,0,0,-1,1336,1814,6.76258,-70.5912
119,-790,6.06543,70.1135,-0.0968291,-0.0422875,-0.0142314,-0.0387974,-0.100319,-1.33031,0.0584125,0.047966,1343,1814,6.06548,-70.1135
126,-790,5.48987,69.7898,-0.0947237,-0.0384629,-0.0128159,-0.035681,-0.0975056,-1.35705,0.0569654,0.0499703,1350,1814,5.48992,-69.7898
133,-790,5.11267,69.4785,0,0,0,0,0,0,0,-1,1357,1814,5.11262,-69.4785
140,-790,7.9375,65.4023,0,0,0,0,0,0,0,-1,1364,1814,7.93746,-65.4023
147,-790,7.78027,65.0953,0,0,0,0,0,0,0,-1,1371,1814,7.78025,-65.0954
154,-790,40.215,13.2396,0,0,0,0,0,0,0,-1,1378,1814,40.2149,-13.2396
161,-790,39.3429,13.0336,0,0,0,0,0,0,0,-1,1385,1814,39.3429,-13.0336
168,-790,7.04077,2.23279,0,0,0,0,0,0,0,-1,1392,1814,7.04082,-2.23275
175,-790,9.03918,3.98535,0,0,0,0,0,0,0,-1,1399,1814,9.0392,-3.98535
182,-790,8.96997,5.67896,0,0,0,0,0,0,0,-1,1406,1814,8.97001,-5.6789
189,-790,8.59729,6.86975,0,0,0,0,0,0,0,-1,1413,1814,8.59728,-6.86972
196,-790,8.21924,9.29053,0,0,0,0,0,0,0,-1,1420,1814,8.21924,-9.29048
203,-790,0,0,0,0,0,0,0,0,0,-1,1427,1814,0,0
210,-790,0,0,0,0,0,0,0,0,0,-1,1434,1814,0,0
217,-790,0,0,0,0,0,0,0,0,0,-1,1441,1814,0,0
224,-790,0,0,0,0,0,0,0,0,0,-1,1448,1814,0,0
231,-790,0,0,0,0,0,0,0,0,0,-1,1455,1814,0,0
238,-790,0,0,0,0,0,0,0,0,0,-1,1462,1814,0,0
245,-790,0,0,0,0,0,0,0,0,0,-1,1469,1814,0,0
252,-790,0,0,0,0,0,0,0,0,0,-1,1476,1814,0,0
259,-790,0,0,0,0,0,0,0,0,0,-1,1483,1814,0,0
266,-790,0,0,0,0,0,0,0,0,0,-1,1490,1814,0,0
273,-790,0,0,0,0,0,0,0,0,0,-1,1497,1814,0,0
280,-790,0,0,0,0,0,0,0,0,0,-1,1504,1814,0,0
287,-790,0,0,0,0,0,0,0,0,0,-1,1511,1814,0,0
294,-790,0,0,0,0,0,0,0,0,0,-1,1518,1814,0,0
301,-790,0,0,0,0,0,0,0,0,0,-1,1525,1814,0,0
308,-790,0,0,0,0,0,0,0,0,0,-1,1532,1814,0,0
315,-790,0,0,0,0,0,0,0,0,0,-1,1539,1814,0,0
322,-790,0,0,0,0,0,0,0,0,0,-1,1546,1814,0,0
329,-790,0,0,0,0,0,0,0,0,0,-1,1553,1814,0,0
336,-790,0,0,0,0,0,0,0,0,0,-1,1560,1814,0,0
343,-790,0,0,0,0,0,0,0,0,0,-1,1567,1814,0,0
350,-790,0,0,0,0,0,0,0,0,0,-1,1574,1814,0,0
357,-790,0,0,0,0,0,0,0,0,0,-1,1581,1814,0,0
364,-790,0,0,0,0,0,0,0,0,0,-1,1588,1814,0,0
371,-790,0,0,0,0,0,0,0,0,0,-1,1595,1814,0,0
378,-790,0,0,0,0,0,0,0,0,0,-1,1602,1814,0,0
385,-790,0,0,0,0,0,0,0,0,0,-1,1609,1814,0,0
392,-790,0,0,0,0,0,0,0,0,0,-1,1616,1814,0,0
399,-790,0,0,0,0,0,0,0,0,0,-1,1623,1814,0,0
406,-790,0,0,0,0,0,0,0,0,0,-1,1630,1814,0,0
413,-790,0,0,0,0,0,0,0,0,0,-1,1637,1814,0,0
420,-790,0,0,0,0,0,0,0,0,0,-1,1644,1814,0,0
427,-790,0,0,0,0,0,0,0,0,0,-1,1651,1814,0,0
434,-790,0,0,0,0,0,0,0,0,0,-1,1658,1814,0,0
441,-790,0,0,0,0,0,0,0,0,0,-1,1665,1814,0,0
448,-790,0,0,0,0,0,0,0,0,0,-1,1672,1814,0,0
455,-790,0,0,0,0,0,0,0,0,0,-1,1679,1814,0,0
462,-790,0,0,0,0,0,0,0,0,0,-1,1686,1814,0,0
469,-790,0,0,0,0,0,0,0,0,0,-1,1693,1814,0,0
476,-790,0,0,0,0,0,0,0,0,0,-1,1700,1814,0,0
483,-790,0,0,0,0,0,0,0,0,0,-1,1707,1814,0,0
490,-790,0,0,0,0,0,0,0,0,0,-1,1714,1814,0,0
497,-790,0,0,0,0,0,0,0,0,0,-1,1721,1814,0,0
504,-790,0,0,0,0,0,0,0,0,0,-1,1728,1814,0,0
511,-790,0,0,0,0,0,0,0,0,0,-1,1735,1814,0,0
518,-790,0,0,0,0,0,0,0,0,0,-1,1742,1814,0,0
525,-790,0,0,0,0,0,0,0,0,0,-1,1749,1814,0,0
532,-790,0,0,0,0,0,0,0,0,0,-1,1756,1814,0,0
539,-790,0,0,0,0,0,0,0,0,0,-1,1763,1814,0,0
546,-790,0,0,0,0,0,0,0,0,0,-1,1770,1814,0,0
553,-790,0,0,0,0,0,0,0,0,0,-1,1777,1814,0,0
560,-790,0,0,0,0,0,0,0,0,0,-1,1784,1814,0,0
567,-790,0,0,0,0,0,0,0,0,0,-1,1791,1814,0,0
574,-790,0,0,0,0,0,0,0,0,0,-1,1798,1814,0,0
581,-790,0,0,0,0,0,0,0,0,0,-1,1805,1814,0,0
588,-790,0,0,0,0,0,0,0,0,0,-1,1812,1814,0,0
595,-790,0,0,0,0,0,0,0,0,0,-1,1819,1814,0,0
602,-790,0,0,0,0,0,0,0,0,0,-1,1826,1814,0,0
609,-790,0,0,0,0,0,0,0,0,0,-1,1833,1814,0,0
616,-790,0,0,0,0,0,0,0,0,0,-1,1840,1814,0,0
623,-790,0,0,0,0,0,0,0,0,0,-1,1847,1814,0,0
630,-790,0,0,0,0,0,0,0,0,0,-1,1854,1814,0,0
637,-790,0,0,0,0,0,0,0,0,0,-1,1861,1814,0,0
644,-790,0,0,0,0,0,0,0,0,0,-1,1868,1814,0,0
651,-790,0,0,0,0,0,0,0,0,0,-1,1875,1814,0,0
658,-790,0,0,0,0,0,0,0,0,0,-1,1882,1814,0,0
665,-790,0,0,0,0,0,0,0,0,0,-1,1889,1814,0,0
672,-790,0,0,0,0,0,0,0,0,0,-1,1896,1814,0,0
679,-790,0,0,0,0,0,0,0,0,0,-1,1903,1814,0,0
686,-790,0,0,0,0,0,0,0,0,0,-1,1910,1814,0,0
693,-790,0,0,0,0,0,0,0,0,0,-1,1917,1814,0,0
700,-790,0,0,0,0,0,0,0,0,0,-1,1924,1814,0,0
707,-790,0,0,0,0,0,0,0,0,0,-1,1931,1814,0,0
714,-790,0,0,0,0,0,0,0,0,0,-1,1938,1814,0,0
721,-790,0,0,0,0,0,0,0,0,0,-1,1945,1814,0,0
728,-790,0,0,0,0,0,0,0,0,0,-1,1952,1814,0,0
735,-790,0,0,0,0,0,0,0,0,0,-1,1959,1814,0,0
742,-790,0,0,0,0,0,0,0,0,0,-1,1966,1814,0,0
749,-790,0,0,0,0,0,0,0,0,0,-1,1973,1814,0,0
756,-790,0,0,0,0,0,0,0,0,0,-1,1980,1814,0,0
763,-790,0,0,0,0,0,0,0,0,0,-1,1987,1814,0,0
770,-790,0,0,0,0,0,0,0,0,0,-1,1994,1814,0,0
777,-790,0,0,0,0,0,0,0,0,0,-1,2001,1814,0,0
784,-790,0,0,0,0,0,0,0,0,0,-1,2008,1814,0,0
791,-790,0,0,0,0,0,0,0,0,0,-1,2015,1814,0,0
798,-790,0,0,0,0,0,0,0,0,0,-1,2022,1814,0,0
805,-790,0,0,0,0,0,0,0,0,0,-1,2029,1814,0,0
812,-790,0,0,0,0,0,0,0,0,0,-1,2036,1814,0,0
-700,-797,0,0,0,0,0,0,0,0,0,-1,524,1821,0,0
-693,-797,0,0,0,0,0,0,0,0,0,-1,531,1821,0,0
-686,-797,0,0,0,0,0,0,0,0,0,-1,538,1821,0,0
-679,-797,0,0,0,0,0,0,0,0,0,-1,545,1821,0,0
-672,-797,0,0,0,0,0,0,0,0,0,-1,552,1821,0,0
-665,-797,0,0,0,0,0,0,0,0,0,-1,559,1821,0,0
-658,-797,0,0,0,0,0,0,0,0,0,-1,566,1821,0,0
-651,-797,0,0,0,0,0,0,0,0,0,-1,573,1821,0,0
-644,-797,0,0,0,0,0,0,0,0,0,-1,580,1821,0,0
-637,-797,0,0,0,0,0,0,0,0,0,-1,587,1821,0,0
-630,-797,0,0,0,0,0,0,0,0,0,-1,594,1821,0,0
-623,-797,0,0,0,0,0,0,0,0,0,-1,601,1821,0,0
-616,-797,0,0,0,0,0,0,0,0,0,-1,608,1821,0,0
-609,-797,0,0,0,0,0,0,0,0,0,-1,615,1821,0,0
-602,-797,0,0,0,0,0,0,0,0,0,-1,622,1821,0,0
-595,-797,0,0,0,0,0,0,0,0,0,-1,629,1821,0,0
-588,-797,0,0,0,0,0,0,0,0,0,-1,636,1821,0,0
-581,-797,0,0,0,0,0,0,0,0,0,-1,643,1821,0,0
-574,-797,0,0,0,0,0,0,0,0,0,-1,650,1821,0,0
-567,-797,0,0,0,0,0,0,0,0,0,-1,657,1821,0,0
-560,-797,0,0,0,0,0,0,0,0,0,-1,664,1821,0,0
-553,-797,0,0,0,0,0,0,0,0,0,-1,671,1821,0,0
-546,-797,0,0,0,0,0,0,0,0,0,-1,678,1821,0,0
-539,-797,0,0,0,0,0,0,0,0,0,-1,685,1821,0,0
-532,-797,0,0,0,0,0,0,0,0,0,-1,692,1821,0,0
-525,-797,0,0,0,0,0,0,0,0,0,-1,699,1821,0,0
-518,-797,0,0,0,0,0,0,0,0,0,-1,706,1821,0,0
-511,-797,0,0,0,0,0,0,0,0,0,-1,713,1821,0,0
-504,-797,0,0,0,0,0,0,0,0,0,-1,720,1821,0,0
-497,-797,0,0,0,0,0,0,0,0,0,-1,727,1821,0,0
-490,-797,0,0,0,0,0,0,0,0,0,-1,734,1821,0,0
-483,-797,0,0,0,0,0,0,0,0,0,-1,741,1821,0,0
-476,-797,0,0,0,0,0,0,0,0,0,-1,748,1821,0,0
-469,-797,0,0,0,0,0,0,0,0,0,-1,755,1821,0,0
-462,-797,0,0,0,0,0,0,0,0,0,-1,762,1821,0,0
-455,-797,0,0,0,0,0,0,0,0,0,-1,769,1821,0,0
-448,-797,0,0,0,0,0,0,0,0,0,-1,776,1821,0,0
-441,-797,0,0,0,0,0,0,0,0,0,-1,783,1821,0,0
-434,-797,0,0,0,0,0,0,0,0,0,-1,790,1821,0,0
-427,-797,0,0,0,0,0,0,0,0,0,-1,797,1821,0,0
-420,-797,0,0,0,0,0,0,0,0,0,-1,804,1821,0,0
-413,-797,0,0,0,0,0,0,0,0,0,-1,811,1821,0,0
-406,-797,0,0,0,0,0,0,0,0,0,-1,818,1821,0,0
-399,-797,0,0,0,0,0,0,0,0,0,-1,825,1821,0,0
-392,-797,0,0,0,0,0,0,0,0,0,-1,832,1821,0,0
-385,-797,0,0,0,0,0,0,0,0,0,-1,839,1821,0,0
-378,-797,0,0,0,0,0,0,0,0,0,-1,846,1821,0,0
-371,-797,0,0,0,0,0,0,0,0,0,-1,853,1821,0,0
-364,-797,0,0,0,0,0,0,0,0,0,-1,860,1821,0,0
-357,-797,0,0,0,0,0,0,0,0,0,-1,867,1821,0,0
-350,-797,0,0,0,0,0,0,0,0,0,-1,874,1821,0,0
-343,-797,0,0,0,0,0,0,0,0,0,-1,881,1821,0,0
-336,-797,0,0,0,0,0,0,0,0,0,-1,888,1821,0,0
-329,-797,0,0,0,0,0,0,0,0,0,-1,895,1821,0,0
-322,-797,0,0,0,0,0,0,0,0,0,-1,902,1821,0,0
-315,-797,0,0,0,0,0,0,0,0,0,-1,909,1821,0,0
-308,-797,0,0,0,0,0,0,0,0,0,-1,916,1821,0,0
-301,-797,0,0,0,0,0,0,0,0,0,-1,923,1821,0,0
-294,-797,0,0,0,0,0,0,0,0,0,-1,930,1821,0,0
-287,-797,0,0,0,0,0,0,0,0,0,-1,937,1821,0,0
-280,-797,0,0,0,0,0,0,0,0,0,-1,944,1821,0,0
-273,-797,0,0,0,0,0,0,0,0,0,-1,951,1821,0,0
-266,-797,0,0,0,0,0,0,0,0,0,-1,958,1821,0,0
-259,-797,0,0,0,0,0,0,0,0,0,-1,965,1821,0,0
-252,-797,0,0,0,0,0,0,0,0,0,-1,972,1821,0,0
-245,-797,0,0,0,0,0,0,0,0,0,-1,979,1821,0,0
-238,-797,0,0,0,0,0,0,0,0,0,-1,986,1821,0,0
-231,-797,0,0,0,0,0,0,0,0,0,-1,993,1821,0,0
-224,-797,0,0,0,0,0,0,0,0,0,-1,1000,1821,0,0
-217,-797,0,0,0,0,0,0,0,0,0,-1,1007,1821,0,0
-210,-797,0,0,0,0,0,0,0,0,0,-1,1014,1821,0,0
-203,-797,0,0,0,0,0,0,0,0,0,-1,1021,1821,0,0
-196,-797,0,0,0,0,0,0,0,0,0,-1,1028,1821,0,0
-189,-797,0,0,0,0,0,0,0,0,0,-1,1035,1821,0,0
-182,-797,0,0,0,0,0,0,0,0,0,-1,1042,1821,0,0
-175,-797,0,0,0,0,0,0,0,0,0,-1,1049,1821,0,0
-168,-797,0,0,0,0,0,0,0,0,0,-1,1056,1821,0,0
-161,-797,0,0,0,0,0,0,0,0,0,-1,1063,1821,0,0
-154,-797,0,0,0,0,0,0,0,0,0,-1,1070,1821,0,0
-147,-797,0,0,0,0,0,0,0,0,0,-1,1077,1821,0,0
-140,-797,0,0,0,0,0,0,0,0,0,-1,1084,1821,0,0
-133,-797,0,0,0,0,0,0,0,0,0,-1,1091,1821,0,0
-126,-797,0,0,0,0,0,0,0,0,0,-1,1098,1821,0,0
-119,-797,0,0,0,0,0,0,0,0,0,-1,1105,1821,0,0
-112,-797,0,0,0,0,0,0,0,0,0,-1,1112,1821,0,0
-105,-797,0,0,0,0,0,0,0,0,0,-1,1119,1821,0,0
-98,-797,0,0,0,0,0,0,0,0,0,-1,1126,1821,0,0
-91,-797,0,0,0,0,0,0,0,0,0,-1,1133,1821,0,0
-84,-797,0,0,0,0,0,0,0,0,0,-1,1140,1821,0,0
-77,-797,0,0,0,0,0,0,0,0,0,-1,1147,1821,0,0
-70,-797,0,0,0,0,0,0,0,0,0,-1,1154,1821,0,0
-63,-797,0,0,0,0,0,0,0,0,0,-1,1161,1821,0,0
-56,-797,0,0,0,0,0,0,0,0,0,-1,1168,1821,0,0
-49,-797,0,0,0,0,0,0,0,0,0,-1,1175,1821,0,0
-42,-797,0.579834,0.692871,0,0,0,0,0,0,0,-1,1182,1821,0.579856,-0.692816
-35,-797,-0.185425,5.55396,0,0,0,0,0,0,0,-1,1189,1821,-0.18542,-5.55396
-28,-797,-0.310181,4.71509,0,0,0,0,0,0,0,-1,1196,1821,-0.310228,-4.71503
-21,-797,7.65479,67.3679,0,0,0,0,0,0,0,-1,1203,1821,7.65474,-67.3679
-14,-797,8.11133,67.2397,0,0,0,0,0,0,0,-1,1210,1821,8.11135,-67.2398
-7,-797,11.8818,71.7969,0,0,0,0,0,0,0,-1,1217,1821,11.8818,-71.7969
0,-797,11.9502,70.8483,0,0,0,0,0,0,0,-1,1224,1821,11.9502,-70.8482
7,-797,11.0919,71.4971,-0.0694414,-0.0415744,0.0130596,-0.0364109,-0.0746049,1.19428,0.0430773,0.0476546,1231,1821,11.092,-71.497
14,-797,10.2327,72.149,-0.0693303,-0.0384643,0.0150511,-0.03234,-0.0754545,1.18436,0.0437115,0.0446895,1238,1821,10.2327,-72.149
21,-797,9.30115,72.7153,0,0,0,0,0,0,0,-1,1245,1821,9.3011,-72.7153
28,-797,8.41943,73.2742,0,0,0,0,0,0,0,-1,1252,1821,8.41947,-73.2742
35,-797,9.37585,69.9131,0,0,0,0,0,0,0,-1,1259,1821,9.37583,-69.913
42,-797,8.86841,69.9801,0,0,0,0,0,0,0,-1,1266,1821,8.86846,-69.9801
49,-797,8.55359,69.979,0,0,0,0,0,0,0,-1,1273,1821,8.55354,-69.979
56,-797,7.90808,70.124,-0.0778216,-0.0187725,0.01601,-0.014711,-0.081883,1.32236,0.0504057,0.0491749,1280,1821,7.90812,-70.124
63,-797,7.31055,70.3459,-0.0811477,-0.0191549,0.0139631,-0.0161551,-0.0841476,1.35917,0.0515639,0.0440071,1287,1821,7.31055,-70.346
70,-797,6.87036,70.203,-0.0857291,-0.0211058,0.00970527,-0.0196797,-0.0871551,1.4249,0.052781,0.0423899,1294,1821,6.87033,-70.203
77,-797,6.38232,70.1455,-0.0916073,-0.0270943,0.00409558,-0.0268354,-0.0918662,1.50765,0.0545457,0.0426971,1301,1821,6.3823,-70.1455
84,-797,5.89404,70.1052,0,0,0,0,0,0,0,-1,1308,1821,5.89403,-70.1052
91,-797,8.85364,72.6062,0,0,0,0,0,0,0,-1,1315,1821,8.8537,-72.6062
98,-797,8.58716,72.2085,-0.104833,-0.0463883,-0.0116695,-0.0441444,-0.107076,-1.38083,0.062137,0.0454183,1322,1821,8.5872,-72.2085
105,-797,8.09375,71.8334,-0.107313,-0.0495051,-0.0152648,-0.0457218,-0.111096,-1.32785,0.0644749,0.0456959,1329,1821,8.0937,-71.8334
112,-797,7.46008,71.313,0,0,0,0,0,0,0,-1,1336,1821,7.46004,-71.313
119,-797,5.79834,70.2484,0,0,0,0,0,0,0,-1,1343,1821,5.79832,-70.2484
126,-797,5.11328,69.8787,0,0,0,0,0,0,0,-1,1350,1821,5.11334,-69.8787
133,-797,9.07654,64.5762,0,0,0,0,0,0,0,-1,1357,1821,9.07654,-64.5762
140,-797,8.54834,64.0643,0,0,0,0,0,0,0,-1,1364,1821,8.54838,-64.0644
147,-797,8.328,63.6344,0,0,0,0,0,0,0,-1,1371,1821,8.32803,-63.6344
154,-797,40.2623,8.88733,0,0,0,0,0,0,0,-1,1378,1821,40.2623,-8.88731
161,-797,42.2798,8.17371,0,0,0,0,0,0,0,-1,1385,1821,42.2798,-8.17367
168,-797,0,0,0,0,0,0,0,0,0,-1,1392,1821,0,0
175,-797,0,0,0,0,0,0,0,0,0,-1,1399,1821,0,0
182,-797,0,0,0,0,0,0,0,0,0,-1,1406,1821,0,0
189,-797,0,0,0,0,0,0,0,0,0,-1,1413,1821,0,0
196,-797,0,0,0,0,0,0,0,0,0,-1,1420,1821,0,0
203,-797,0,0,0,0,0,0,0,0,0,-1,1427,1821,0,0
210,-797,0,0,0,0,0,0,0,0,0,-1,1434,1821,0,0
217,-797,0,0,0,0,0,0,0,0,0,-1,1441,1821,0,0
224,-797,0,0,0,0,0,0,0,0,0,-1,1448,1821,0,0
231,-797,0,0,0,0,0,0,0,0,0,-1,1455,1821,0,0
238,-797,0,0,0,0,0,0,0,0,0,-1,1462,1821,0,0
245,-797,0,0,0,0,0,0,0,0,0,-1,1469,1821,0,0
252,-797,0,0,0,0,0,0,0,0,0,-1,1476,1821,0,0
259,-797,0,0,0,0,0,0,0,0,0,-1,1483,1821,0,0
266,-797,0,0,0,0,0,0,0,0,0,-1,1490,1821,0,0
273,-797,0,0,0,0,0,0,0,0,0,-1,1497,1821,0,0
280,-797,0,0,0,0,0,0,0,0,0,-1,1504,1821,0,0
287,-797,0,0,0,0,0,0,0,0,0,-1,1511,1821,0,0
294,-797,0,0,0,0,0,0,0,0,0,-1,1518,1821,0,0
301,-797,0,0,0,0,0,0,0,0,0,-1,1525,1821,0,0
308,-797,0,0,0,0,0,0,0,0,0,-1,1532,1821,0,0
315,-797,0,0,0,0,0,0,0,0,0,-1,1539,1821,0,0
322,-797,0,0,0,0,0,0,0,0,0,-1,1546,1821,0,0
329,-797,0,0,0,0,0,0,0,0,0,-1,1553,1821,0,0
336,-797,0,0,0,0,0,0,0,0,0,-1,1560,1821,0,0
343,-797,0,0,0,0,0,0,0,0,0,-1,1567,1821,0,0
350,-797,0,0,0,0,0,0,0,0,0,-1,1574,1821,0,0
357,-797,0,0,0,0,0,0,0,0,0,-1,1581,1821,0,0
364,-797,0,0,0,0,0,0,0,0,0,-1,1588,1821,0,0
371,-797,0,0,0,0,0,0,0,0,0,-1,1595,1821,0,0
378,-797,0,0,0,0,0,0,0,0,0,-1,1602,1821,0,0
385,-797,0,0,0,0,0,0,0,0,0,-1,1609,1821,0,0
392,-797,0,0,0,0,0,0,0,0,0,-1,1616,1821,0,0
399,-797,0,0,0,0,0,0,0,0,0,-1,1623,1821,0,0
406,-797,0,0,0,0,0,0,0,0,0,-1,1630,1821,0,0
413,-797,0,0,0,0,0,0,0,0,0,-1,1637,1821,0,0
420,-797,0,0,0,0,0,0,0,0,0,-1,1644,1821,0,0
427,-797,0,0,0,0,0,0,0,0,0,-1,1651,1821,0,0
434,-797,0,0,0,0,0,0,0,0,0,-1,1658,1821,0,0
441,-797,0,0,0,0,0,0,0,0,0,-1,1665,1821,0,0
448,-797,0,0,0,0,0,0,0,0,0,-1,1672,1821,0,0
455,-797,0,0,0,0,0,0,0,0,0,-1,1679,1821,0,0
462,-797,0,0,0,0,0,0,0,0,0,-1,1686,1821,0,0
469,-797,0,0,0,0,0,0,0,0,0,-1,1693,1821,0,0
476,-797,0,0,0,0,0,0,0,0,0,-1,1700,1821,0,0
483,-797,0,0,0,0,0,0,0,0,0,-1,1707,1821,0,0
490,-797,0,0,0,0,0,0,0,0,0,-1,1714,1821,0,0
497,-797,0,0,0,0,0,0,0,0,0,-1,1721,1821,0,0
504,-797,0,0,0,0,0,0,0,0,0,-1,1728,1821,0,0
511,-797,0,0,0,0,0,0,0,0,0,-1,1735,1821,0,0
518,-797,0,0,0,0,0,0,0,0,0,-1,1742,1821,0,0
525,-797,0,0,0,0,0,0,0,0,0,-1,1749,1821,0,0
532,-797,0,0,0,0,0,0,0,0,0,-1,1756,1821,0,0
539,-797,0,0,0,0,0,0,0,0,0,-1,1763,1821,0,0
546,-797,0,0,0,0,0,0,0,0,0,-1,1770,1821,0,0
553,-797,0,0,0,0,0,0,0,0,0,-1,1777,1821,0,0
560,-797,0,0,0,0,0,0,0,0,0,-1,1784,1821,0,0
567,-797,0,0,0,0,0,0,0,0,0,-1,1791,1821,0,0
574,-797,0,0,0,0,0,0,0,0,0,-1,1798,1821,0,0
581,-797,0,0,0,0,0,0,0,0,0,-1,1805,1821,0,0
588,-797,0,0,0,0,0,0,0,0,0,-1,1812,1821,0,0
595,-797,0,0,0,0,0,0,0,0,0,-1,1819,1821,0,0
602,-797,0,0,0,0,0,0,0,0,0,-1,1826,1821,0,0
609,-797,0,0,0,0,0,0,0,0,0,-1,1833,1821,0,0
616,-797,0,0,0,0,0,0,0,0,0,-1,1840,1821,0,0
623,-797,0,0,0,0,0,0,0,0,0,-1,1847,1821,0,0
630,-797,0,0,0,0,0,0,0,0,0,-1,1854,1821,0,0
637,-797,0,0,0,0,0,0,0,0,0,-1,1861,1821,0,0
644,-797,0,0,0,0,0,0,0,0,0,-1,1868,1821,0,0
651,-797,0,0,0,0,0,0,0,0,0,-1,1875,1821,0,0
658,-797,0,0,0,0,0,0,0,0,0,-1,1882,1821,0,0
665,-797,0,0,0,0,0,0,0,0,0,-1,1889,1821,0,0
672,-797,0,0,0,0,0,0,0,0,0,-1,1896,1821,0,0
679,-797,0,0,0,0,0,0,0,0,0,-1,1903,1821,0,0
686,-797,0,0,0,0,0,0,0,0,0,-1,1910,1821,0,0
693,-797,0,0,0,0,0,0,0,0,0,-1,1917,1821,0,0
700,-797,0,0,0,0,0,0,0,0,0,-1,1924,1821,0,0
707,-797,0,0,0,0,0,0,0,0,0,-1,1931,1821,0,0
714,-797,0,0,0,0,0,0,0,0,0,-1,1938,1821,0,0
721,-797,0,0,0,0,0,0,0,0,0,-1,1945,1821,0,0
728,-797,0,0,0,0,0,0,0,0,0,-1,1952,1821,0,0
735,-797,0,0,0,0,0,0,0,0,0,-1,1959,1821,0,0
742,-797,0,0,0,0,0,0,0,0,0,-1,1966,1821,0,0
749,-797,0,0,0,0,0,0,0,0,0,-1,1973,1821,0,0
756,-797,0,0,0,0,0,0,0,0,0,-1,1980,1821,0,0
763,-797,0,0,0,0,0,0,0,0,0,-1,1987,1821,0,0
770,-797,0,0,0,0,0,0,0,0,0,-1,1994,1821,0,0
777,-797,0,0,0,0,0,0,0,0,0,-1,2001,1821,0,0
784,-797,0,0,0,0,0,0,0,0,0,-1,2008,1821,0,0
791,-797,0,0,0,0,0,0,0,0,0,-1,2015,1821,0,0
798,-797,0,0,0,0,0,0,0,0,0,-1,2022,1821,0,0
805,-797,0,0,0,0,0,0,0,0,0,-1,2029,1821,0,0
812,-797,0,0,0,0,0,0,0,0,0,-1,2036,1821,0,0
-700,-804,0,0,0,0,0,0,0,0,0,-1,524,1828,0,0
-693,-804,0,0,0,0,0,0,0,0,0,-1,531,1828,0,0
-686,-804,0,0,0,0,0,0,0,0,0,-1,538,1828,0,0
-679,-804,0,0,0,0,0,0,0,0,0,-1,545,1828,0,0
-672,-804,0,0,0,0,0,0,0,0,0,-1,552,1828,0,0
-665,-804,0,0,0,0,0,0,0,0,0,-1,559,1828,0,0
-658,-804,0,0,0,0,0,0,0,0,0,-1,566,1828,0,0
-651,-804,0,0,0,0,0,0,0,0,0,-1,573,1828,0,0
-644,-804,0,0,0,0,0,0,0,0,0,-1,580,1828,0,0
-637,-804,0,0,0,0,0,0,0,0,0,-1,587,1828,0,0
-630,-804,0,0,0,0,0,0,0,0,0,-1,594,1828,0,0
-623,-804,0,0,0,0,0,0,0,0,0,-1,601,1828,0,0
-616,-804,0,0,0,0,0,0,0,0,0,-1,608,1828,0,0
-609,-804,0,0,0,0,0,0,0,0,0,-1,615,1828,0,0
-602,-804,0,0,0,0,0,0,0,0,0,-1,622,1828,0,0
-595,-804,0,0,0,0,0,0,0,0,0,-1,629,1828,0,0
-588,-804,0,0,0,0,0,0,0,0,0,-1,636,1828,0,0
-581,-804,0,0,0,0,0,0,0,0,0,-1,643,1828,0,0
-574,-804,0,0,0,0,0,0,0,0,0,-1,650,1828,0,0
-567,-804,0,0,0,0,0,0,0,0,0,-1,657,1828,0,0
-560,-804,0,0,0,0,0,0,0,0,0,-1,664,1828,0,0
-553,-804,0,0,0,0,0,0,0,0,0,-1,671,1828,0,0
-546,-804,0,0,0,0,0,0,0,0,0,-1,678,1828,0,0
-539,-804,0,0,0,0,0,0,0,0,0,-1,685,1828,0,0
-532,-804,0,0,0,0,0,0,0,0,0,-1,692,1828,0,0
-525,-804,0,0,0,0,0,0,0,0,0,-1,699,1828,0,0
-518,-804,0,0,0,0,0,0,0,0,0,-1,706,1828,0,0
-511,-804,0,0,0,0,0,0,0,0,0,-1,713,1828,0,0
-504,-804,0,0,0,0,0,0,0,0,0,-1,720,1828,0,0
-497,-804,0,0,0,0,0,0,0,0,0,-1,727,1828,0,0
-490,-804,0,0,0,0,0,0,0,0,0,-1,734,1828,0,0
-483,-804,0,0,0,0,0,0,0,0,0,-1,741,1828,0,0
-476,-804,0,0,0,0,0,0,0,0,0,-1,748,1828,0,0
-469,-804,0,0,0,0,0,0,0,0,0,-1,755,1828,0,0
-462,-804,0,0,0,0,0,0,0,0,0,-1,762,1828,0,0
-455,-804,0,0,0,0,0,0,0,0,0,-1,769,1828,0,0
-448,-804,0,0,0,0,0,0,0,0,0,-1,776,1828,0,0
-441,-804,0,0,0,0,0,0,0,0,0,-1,783,1828,0,0
-434,-804,0,0,0,0,0,0,0,0,0,-1,790,1828,0,0
-427,-804,0,0,0,0,0,0,0,0,0,-1,797,1828,0,0
-420,-804,0,0,0,0,0,0,0,0,0,-1,804,1828,0,0
-413,-804,0,0,0,0,0,0,0,0,0,-1,811,1828,0,0
-406,-804,0,0,0,0,0,0,0,0,0,-1,818,1828,0,0
-399,-804,0,0,0,0,0,0,0,0,0,-1,825,1828,0,0
-392,-804,0,0,0,0,0,0,0,0,0,-1,832,1828,0,0
-385,-804,0,0,0,0,0,0,0,0,0,-1,839,1828,0,0
-378,-804,0,0,0,0,0,0,0,0,0,-1,846,1828,0,0
-371,-804,0,0,0,0,0,0,0,0,0,-1,853,1828,0,0
-364,-804,0,0,0,0,0,0,0,0,0,-1,860,1828,0,0
-357,-804,0,0,0,0,0,0,0,0,0,-1,867,1828,0,0
-350,-804,0,0,0,0,0,0,0,0,0,-1,874,1828,0,0
-343,-804,0,0,0,0,0,0,0,0,0,-1,881,1828,0,0
-336,-804,0,0,0,0,0,0,0,0,0,-1,888,1828,0,0
-329,-804,0,0,0,0,0,0,0,0,0,-1,895,1828,0,0
-322,-804,0,0,0,0,0,0,0,0,0,-1,902,1828,0,0
-315,-804,0,0,0,0,0,0,0,0,0,-1,909,1828,0,0
-308,-804,0,0,0,0,0,0,0,0,0,-1,916,1828,0,0
-301,-804,0,0,0,0,0,0,0,0,0,-1,923,1828,0,0
-294,-804,0,0,0,0,0,0,0,0,0,-1,930,1828,0,0
-287,-804,0,0,0,0,0,0,0,0,0,-1,937,1828,0,0
-280,-804,0,0,0,0,0,0,0,0,0,-1,944,1828,0,0
-273,-804,0,0,0,0,0,0,0,0,0,-1,951,1828,0,0
-266,-804,0,0,0,0,0,0,0,0,0,-1,958,1828,0,0
-259,-804,0,0,0,0,0,0,0,0,0,-1,965,1828,0,0
-252,-804,0,0,0,0,0,0,0,0,0,-1,972,1828,0,0
-245,-804,0,0,0,0,0,0,0,0,0,-1,979,1828,0,0
-238,-804,0,0,0,0,0,0,0,0,0,-1,986,1828,0,0
-231,-804,0,0,0,0,0,0,0,0,0,-1,993,1828,0,0
-224,-804,0,0,0,0,0,0,0,0,0,-1,1000,1828,0,0
-217,-804,0,0,0,0,0,0,0,0,0,-1,1007,1828,0,0
-210,-804,0,0,0,0,0,0,0,0,0,-1,1014,1828,0,0
-203,-804,0,0,0,0,0,0,0,0,0,-1,1021,1828,0,0
-196,-804,0,0,0,0,0,0,0,0,0,-1,1028,1828,0,0
-189,-804,0,0,0,0,0,0,0,0,0,-1,1035,1828,0,0
-182,-804,0,0,0,0,0,0,0,0,0,-1,1042,1828,0,0
-175,-804,0,0,0,0,0,0,0,0,0,-1,1049,1828,0,0
-168,-804,0,0,0,0,0,0,0,0,0,-1,1056,1828,0,0
-161,-804,0,0,0,0,0,0,0,0,0,-1,1063,1828,0,0
-154,-804,0,0,0,0,0,0,0,0,0,-1,1070,1828,0,0
-147,-804,0,0,0,0,0,0,0,0,0,-1,1077,1828,0,0
-140,-804,0,0,0,0,0,0,0,0,0,-1,1084,1828,0,0
-133,-804,0,0,0,0,0,0,0,0,0,-1,1091,1828,0,0
-126,-804,0,0,0,0,0,0,0,0,0,-1,1098,1828,0,0
-119,-804,0,0,0,0,0,0,0,0,0,-1,1105,1828,0,0
-112,-804,0,0,0,0,0,0,0,0,0,-1,1112,1828,0,0
-105,-804,0,0,0,0,0,0,0,0,0,-1,1119,1828,0,0
-98,-804,0,0,0,0,0,0,0,0,0,-1,1126,1828,0,0
-91,-804,0,0,0,0,0,0,0,0,0,-1,1133,1828,0,0
-84,-804,0,0,0,0,0,0,0,0,0,-1,1140,1828,0,0
-77,-804,0,0,0,0,0,0,0,0,0,-1,1147,1828,0,0
-70,-804,0,0,0,0,0,0,0,0,0,-1,1154,1828,0,0
-63,-804,0,0,0,0,0,0,0,0,0,-1,1161,1828,0,0
-56,-804,0,0,0,0,0,0,0,0,0,-1,1168,1828,0,0
-49,-804,0,0,0,0,0,0,0,0,0,-1,1175,1828,0,0
-42,-804,0,0,0,0,0,0,0,0,0,-1,1182,1828,0,0
-35,-804,0,0,0,0,0,0,0,0,0,-1,1189,1828,0,0
-28,-804,0,0,0,0,0,0,0,0,0,-1,1196,1828,0,0
-21,-804,0,0,0,0,0,0,0,0,0,-1,1203,1828,0,0
-14,-804,0,0,0,0,0,0,0,0,0,-1,1210,1828,0,0
-7,-804,0,0,0,0,0,0,0,0,0,-1,1217,1828,0,0
0,-804,0,0,0,0,0,0,0,0,0,-1,1224,1828,0,0
7,-804,0,0,0,0,0,0,0,0,0,-1,1231,1828,0,0
14,-804,0,0,0,0,0,0,0,0,0,-1,1238,1828,0,0
21,-804,0,0,0,0,0,0,0,0,0,-1,1245,1828,0,0
28,-804,0,0,0,0,0,0,0,0,0,-1,1252,1828,0,0
35,-804,10.5293,71.3127,0,0,0,0,0,0,0,-1,1259,1828,10.5292,-71.3128
42,-804,8.64539,69.9357,0,0,0,0,0,0,0,-1,1266,1828,8.64544,-69.9356
49,-804,7.71033,71.0027,0,0,0,0,0,0,0,-1,1273,1828,7.71037,-71.0027
56,-804,7.48901,70.0018,0,0,0,0,0,0,0,-1,1280,1828,7.48904,-70.0018
63,-804,7.07117,70.6979,-0.0903468,-0.0165252,0.0180136,-0.0123642,-0.0945079,1.34378,0.059315,0.0452846,1287,1828,7.07119,-70.6978
70,-804,6.44702,70.3512,-0.0939631,-0.018765,0.0128564,-0.0166277,-0.0961004,1.40606,0.0593065,0.0446639,1294,1828,6.44703,-70.3512
77,-804,5.66858,69.9514,-0.0991367,-0.0256364,0.00617022,-0.0251221,-0.0996511,1.48762,0.0598443,0.0453675,1301,1828,5.66856,-69.9514
84,-804,5.2002,69.5833,0,0,0,0,0,0,0,-1,1308,1828,5.20019,-69.5833
91,-804,0,0,0,0,0,0,0,0,0,-1,1315,1828,0,0
98,-804,0,0,0,0,0,0,0,0,0,-1,1322,1828,0,0
105,-804,0,0,0,0,0,0,0,0,0,-1,1329,1828,0,0
112,-804,0,0,0,0,0,0,0,0,0,-1,1336,1828,0,0
119,-804,0,0,0,0,0,0,0,0,0,-1,1343,1828,0,0
126,-804,0,0,0,0,0,0,0,0,0,-1,1350,1828,0,0
133,-804,0,0,0,0,0,0,0,0,0,-1,1357,1828,0,0
140,-804,0,0,0,0,0,0,0,0,0,-1,1364,1828,0,0
147,-804,0,0,0,0,0,0,0,0,0,-1,1371,1828,0,0
154,-804,0,0,0,0,0,0,0,0,0,-1,1378,1828,0,0
161,-804,0,0,0,0,0,0,0,0,0,-1,1385,1828,0,0
168,-804,0,0,0,0,0,0,0,0,0,-1,1392,1828,0,0
175,-804,0,0,0,0,0,0,0,0,0,-1,1399,1828,0,0
182,-804,0,0,0,0,0,0,0,0,0,-1,1406,1828,0,0
189,-804,0,0,0,0,0,0,0,0,0,-1,1413,1828,0,0
196,-804,0,0,0,0,0,0,0,0,0,-1,1420,1828,0,0
203,-804,0,0,0,0,0,0,0,0,0,-1,1427,1828,0,0
210,-804,0,0,0,0,0,0,0,0,0,-1,1434,1828,0,0
217,-804,0,0,0,0,0,0,0,0,0,-1,1441,1828,0,0
224,-804,0,0,0,0,0,0,0,0,0,-1,1448,1828,0,0
231,-804,0,0,0,0,0,0,0,0,0,-1,1455,1828,0,0
238,-804,0,0,0,0,0,0,0,0,0,-1,1462,1828,0,0
245,-804,0,0,0,0,0,0,0,0,0,-1,1469,1828,0,0
252,-804,0,0,0,0,0,0,0,0,0,-1,1476,1828,0,0
259,-804,0,0,0,0,0,0,0,0,0,-1,1483,1828,0,0
266,-804,0,0,0,0,0,0,0,0,0,-1,1490,1828,0,0
273,-804,0,0,0,0,0,0,0,0,0,-1,1497,1828,0,0
280,-804,0,0,0,0,0,0,0,0,0,-1,1504,1828,0,0
287,-804,0,0,0,0,0,0,0,0,0,-1,1511,1828,0,0
294,-804,0,0,0,0,0,0,0,0,0,-1,1518,1828,0,0
301,-804,0,0,0,0,0,0,0,0,0,-1,1525,1828,0,0
308,-804,0,0,0,0,0,0,0,0,0,-1,1532,1828,0,0
315,-804,0,0,0,0,0,0,0,0,0,-1,1539,1828,0,0
322,-804,0,0,0,0,0,0,0,0,0,-1,1546,1828,0,0
329,-804,0,0,0,0,0,0,0,0,0,-1,1553,1828,0,0
336,-804,0,0,0,0,0,0,0,0,0,-1,1560,1828,0,0
343,-804,0,0,0,0,0,0,0,0,0,-1,1567,1828,0,0
350,-804,0,0,0,0,0,0,0,0,0,-1,1574,1828,0,0
357,-804,0,0,0,0,0,0,0,0,0,-1,1581,1828,0,0
364,-804,0,0,0,0,0,0,0,0,0,-1,1588,1828,0,0
371,-804,0,0,0,0,0,0,0,0,0,-1,1595,1828,0,0
378,-804,0,0,0,0,0,0,0,0,0,-1,1602,1828,0,0
385,-804,0,0,0,0,0,0,0,0,0,-1,1609,1828,0,0
392,-804,0,0,0,0,0,0,0,0,0,-1,1616,1828,0,0
399,-804,0,0,0,0,0,0,0,0,0,-1,1623,1828,0,0
406,-804,0,0,0,0,0,0,0,0,0,-1,1630,1828,0,0
413,-804,0,0,0,0,0,0,0,0,0,-1,1637,1828,0,0
420,-804,0,0,0,0,0,0,0,0,0,-1,1644,1828,0,0
427,-804,0,0,0,0,0,0,0,0,0,-1,1651,1828,0,0
434,-804,0,0,0,0,0,0,0,0,0,-1,1658,1828,0,0
441,-804,0,0,0,0,0,0,0,0,0,-1,1665,1828,0,0
448,-804,0,0,0,0,0,0,0,0,0,-1,1672,1828,0,0
455,-804,0,0,0,0,0,0,0,0,0,-1,1679,1828,0,0
462,-804,0,0,0,0,0,0,0,0,0,-1,1686,1828,0,0
469,-804,0,0,0,0,0,0,0,0,0,-1,1693,1828,0,0
476,-804,0,0,0,0,0,0,0,0,0,-1,1700,1828,0,0
483,-804,0,0,0,0,0,0,0,0,0,-1,1707,1828,0,0
490,-804,0,0,0,0,0,0,0,0,0,-1,1714,1828,0,0
497,-804,0,0,0,0,0,0,0,0,0,-1,1721,1828,0,0
504,-804,0,0,0,0,0,0,0,0,0,-1,1728,1828,0,0
511,-804,0,0,0,0,0,0,0,0,0,-1,1735,1828,0,0
518,-804,0,0,0,0,0,0,0,0,0,-1,1742,1828,0,0
525,-804,0,0,0,0,0,0,0,0,0,-1,1749,1828,0,0
532,-804,0,0,0,0,0,0,0,0,0,-1,1756,1828,0,0
539,-804,0,0,0,0,0,0,0,0,0,-1,1763,1828,0,0
546,-804,0,0,0,0,0,0,0,0,0,-1,1770,1828,0,0
553,-804,0,0,0,0,0,0,0,0,0,-1,1777,1828,0,0
560,-804,0,0,0,0,0,0,0,0,0,-1,1784,1828,0,0
567,-804,0,0,0,0,0,0,0,0,0,-1,1791,1828,0,0
574,-804,0,0,0,0,0,0,0,0,0,-1,1798,1828,0,0
581,-804,0,0,0,0,0,0,0,0,0,-1,1805,1828,0,0
588,-804,0,0,0,0,0,0,0,0,0,-1,1812,1828,0,0
595,-804,0,0,0,0,0,0,0,0,0,-1,1819,1828,0,0
602,-804,0,0,0,0,0,0,0,0,0,-1,1826,1828,0,0
609,-804,0,0,0,0,0,0,0,0,0,-1,1833,1828,0,0
616,-804,0,0,0,0,0,0,0,0,0,-1,1840,1828,0,0
623,-804,0,0,0,0,0,0,0,0,0,-1,1847,1828,0,0
630,-804,0,0,0,0,0,0,0,0,0,-1,1854,1828,0,0
637,-804,0,0,0,0,0,0,0,0,0,-1,1861,1828,0,0
644,-804,0,0,0,0,0,0,0,0,0,-1,1868,1828,0,0
651,-804,0,0,0,0,0,0,0,0,0,-1,1875,1828,0,0
658,-804,0,0,0,0,0,0,0,0,0,-1,1882,1828,0,0
665,-804,0,0,0,0,0,0,0,0,0,-1,1889,1828,0,0
672,-804,0,0,0,0,0,0,0,0,0,-1,1896,1828,0,0
679,-804,0,0,0,0,0,0,0,0,0,-1,1903,1828,0,0
686,-804,0,0,0,0,0,0,0,0,0,-1,1910,1828,0,0
693,-804,0,0,0,0,0,0,0,0,0,-1,1917,1828,0,0
700,-804,0,0,0,0,0,0,0,0,0,-1,1924,1828,0,0
707,-804,0,0,0,0,0,0,0,0,0,-1,1931,1828,0,0
714,-804,0,0,0,0,0,0,0,0,0,-1,1938,1828,0,0
721,-804,0,0,0,0,0,0,0,0,0,-1,1945,1828,0,0
728,-804,0,0,0,0,0,0,0,0,0,-1,1952,1828,0,0
735,-804,0,0,0,0,0,0,0,0,0,-1,1959,1828,0,0
742,-804,0,0,0,0,0,0,0,0,0,-1,1966,1828,0,0
749,-804,0,0,0,0,0,0,0,0,0,-1,1973,1828,0,0
756,-804,0,0,0,0,0,0,0,0,0,-1,1980,1828,0,0
763,-804,0,0,0,0,0,0,0,0,0,-1,1987,1828,0,0
770,-804,0,0,0,0,0,0,0,0,0,-1,1994,1828,0,0
777,-804,0,0,0,0,0,0,0,0,0,-1,2001,1828,0,0
784,-804,0,0,0,0,0,0,0,0,0,-1,2008,1828,0,0
791,-804,0,0,0,0,0,0,0,0,0,-1,2015,1828,0,0
798,-804,0,0,0,0,0,0,0,0,0,-1,2022,1828,0,0
805,-804,0,0,0,0,0,0,0,0,0,-1,2029,1828,0,0
812,-804,0,0,0,0,0,0,0,0,0,-1,2036,1828,0,0

