 "x_c",  "y_c",  "u_c",  "v_c",  "exx",  "eyy",  "exy",  "e1",  "e2",  "gamma",  "e_vonmises",  "sigma",  "x",  "y",  "u",  "v"
-700,715,0,0,0,0,0,0,0,0,0,-1,524,309,0,0
-693,715,0,0,0,0,0,0,0,0,0,-1,531,309,0,0
-686,715,0,0,0,0,0,0,0,0,0,-1,538,309,0,0
-679,715,0,0,0,0,0,0,0,0,0,-1,545,309,0,0
-672,715,0,0,0,0,0,0,0,0,0,-1,552,309,0,0
-665,715,0,0,0,0,0,0,0,0,0,-1,559,309,0,0
-658,715,0,0,0,0,0,0,0,0,0,-1,566,309,0,0
-651,715,0,0,0,0,0,0,0,0,0,-1,573,309,0,0
-644,715,0,0,0,0,0,0,0,0,0,-1,580,309,0,0
-637,715,0,0,0,0,0,0,0,0,0,-1,587,309,0,0
-630,715,0,0,0,0,0,0,0,0,0,-1,594,309,0,0
-623,715,0,0,0,0,0,0,0,0,0,-1,601,309,0,0
-616,715,0,0,0,0,0,0,0,0,0,-1,608,309,0,0
-609,715,0,0,0,0,0,0,0,0,0,-1,615,309,0,0
-602,715,0,0,0,0,0,0,0,0,0,-1,622,309,0,0
-595,715,0,0,0,0,0,0,0,0,0,-1,629,309,0,0
-588,715,0,0,0,0,0,0,0,0,0,-1,636,309,0,0
-581,715,0,0,0,0,0,0,0,0,0,-1,643,309,0,0
-574,715,0,0,0,0,0,0,0,0,0,-1,650,309,0,0
-567,715,0,0,0,0,0,0,0,0,0,-1,657,309,0,0
-560,715,0,0,0,0,0,0,0,0,0,-1,664,309,0,0
-553,715,0,0,0,0,0,0,0,0,0,-1,671,309,0,0
-546,715,0,0,0,0,0,0,0,0,0,-1,678,309,0,0
-539,715,0,0,0,0,0,0,0,0,0,-1,685,309,0,0
-532,715,0,0,0,0,0,0,0,0,0,-1,692,309,0,0
-525,715,0,0,0,0,0,0,0,0,0,-1,699,309,0,0
-518,715,0,0,0,0,0,0,0,0,0,-1,706,309,0,0
-511,715,0,0,0,0,0,0,0,0,0,-1,713,309,0,0
-504,715,0,0,0,0,0,0,0,0,0,-1,720,309,0,0
-497,715,0,0,0,0,0,0,0,0,0,-1,727,309,0,0
-490,715,0,0,0,0,0,0,0,0,0,-1,734,309,0,0
-483,715,0,0,0,0,0,0,0,0,0,-1,741,309,0,0
-476,715,0,0,0,0,0,0,0,0,0,-1,748,309,0,0
-469,715,0,0,0,0,0,0,0,0,0,-1,755,309,0,0
-462,715,0,0,0,0,0,0,0,0,0,-1,762,309,0,0
-455,715,0,0,0,0,0,0,0,0,0,-1,769,309,0,0
-448,715,0,0,0,0,0,0,0,0,0,-1,776,309,0,0
-441,715,0,0,0,0,0,0,0,0,0,-1,783,309,0,0
-434,715,0,0,0,0,0,0,0,0,0,-1,790,309,0,0
-427,715,0,0,0,0,0,0,0,0,0,-1,797,309,0,0
-420,715,0,0,0,0,0,0,0,0,0,-1,804,309,0,0
-413,715,0,0,0,0,0,0,0,0,0,-1,811,309,0,0
-406,715,0,0,0,0,0,0,0,0,0,-1,818,309,0,0
-399,715,0,0,0,0,0,0,0,0,0,-1,825,309,0,0
-392,715,0,0,0,0,0,0,0,0,0,-1,832,309,0,0
-385,715,0,0,0,0,0,0,0,0,0,-1,839,309,0,0
-378,715,0,0,0,0,0,0,0,0,0,-1,846,309,0,0
-371,715,0,0,0,0,0,0,0,0,0,-1,853,309,0,0
-364,715,0,0,0,0,0,0,0,0,0,-1,860,309,0,0
-357,715,0,0,0,0,0,0,0,0,0,-1,867,309,0,0
-350,715,0,0,0,0,0,0,0,0,0,-1,874,309,0,0
-343,715,0,0,0,0,0,0,0,0,0,-1,881,309,0,0
-336,715,0,0,0,0,0,0,0,0,0,-1,888,309,0,0
-329,715,0,0,0,0,0,0,0,0,0,-1,895,309,0,0
-322,715,0,0,0,0,0,0,0,0,0,-1,902,309,0,0
-315,715,0,0,0,0,0,0,0,0,0,-1,909,309,0,0
-308,715,0,0,0,0,0,0,0,0,0,-1,916,309,0,0
-301,715,0,0,0,0,0,0,0,0,0,-1,923,309,0,0
-294,715,0,0,0,0,0,0,0,0,0,-1,930,309,0,0
-287,715,0,0,0,0,0,0,0,0,0,-1,937,309,0,0
-280,715,0,0,0,0,0,0,0,0,0,-1,944,309,0,0
-273,715,0,0,0,0,0,0,0,0,0,-1,951,309,0,0
-266,715,0,0,0,0,0,0,0,0,0,-1,958,309,0,0
-259,715,0,0,0,0,0,0,0,0,0,-1,965,309,0,0
-252,715,0,0,0,0,0,0,0,0,0,-1,972,309,0,0
-245,715,0,0,0,0,0,0,0,0,0,-1,979,309,0,0
-238,715,0,0,0,0,0,0,0,0,0,-1,986,309,0,0
-231,715,0,0,0,0,0,0,0,0,0,-1,993,309,0,0
-224,715,0,0,0,0,0,0,0,0,0,-1,1000,309,0,0
-217,715,0,0,0,0,0,0,0,0,0,-1,1007,309,0,0
-210,715,0,0,0,0,0,0,0,0,0,-1,1014,309,0,0
-203,715,0,0,0,0,0,0,0,0,0,-1,1021,309,0,0
-196,715,0,0,0,0,0,0,0,0,0,-1,1028,309,0,0
-189,715,0,0,0,0,0,0,0,0,0,-1,1035,309,0,0
-182,715,0,0,0,0,0,0,0,0,0,-1,1042,309,0,0
-175,715,0,0,0,0,0,0,0,0,0,-1,1049,309,0,0
-168,715,0,0,0,0,0,0,0,0,0,-1,1056,309,0,0
-161,715,0,0,0,0,0,0,0,0,0,-1,1063,309,0,0
-154,715,0,0,0,0,0,0,0,0,0,-1,1070,309,0,0
-147,715,0,0,0,0,0,0,0,0,0,-1,1077,309,0,0
-140,715,0,0,0,0,0,0,0,0,0,-1,1084,309,0,0
-133,715,0,0,0,0,0,0,0,0,0,-1,1091,309,0,0
-126,715,0,0,0,0,0,0,0,0,0,-1,1098,309,0,0
-119,715,0,0,0,0,0,0,0,0,0,-1,1105,309,0,0
-112,715,0,0,0,0,0,0,0,0,0,-1,1112,309,0,0
-105,715,0,0,0,0,0,0,0,0,0,-1,1119,309,0,0
-98,715,0,0,0,0,0,0,0,0,0,-1,1126,309,0,0
-91,715,0,0,0,0,0,0,0,0,0,-1,1133,309,0,0
-84,715,0,0,0,0,0,0,0,0,0,-1,1140,309,0,0
-77,715,0,0,0,0,0,0,0,0,0,-1,1147,309,0,0
-70,715,0,0,0,0,0,0,0,0,0,-1,1154,309,0,0
-63,715,0,0,0,0,0,0,0,0,0,-1,1161,309,0,0
-56,715,0,0,0,0,0,0,0,0,0,-1,1168,309,0,0
-49,715,0,0,0,0,0,0,0,0,0,-1,1175,309,0,0
-42,715,0,0,0,0,0,0,0,0,0,-1,1182,309,0,0
-35,715,0,0,0,0,0,0,0,0,0,-1,1189,309,0,0
-28,715,0,0,0,0,0,0,0,0,0,-1,1196,309,0,0
-21,715,0,0,0,0,0,0,0,0,0,-1,1203,309,0,0
-14,715,0,0,0,0,0,0,0,0,0,-1,1210,309,0,0
-7,715,0,0,0,0,0,0,0,0,0,-1,1217,309,0,0
0,715,0,0,0,0,0,0,0,0,0,-1,1224,309,0,0
7,715,0,0,0,0,0,0,0,0,0,-1,1231,309,0,0
14,715,0,0,0,0,0,0,0,0,0,-1,1238,309,0,0
21,715,0,0,0,0,0,0,0,0,0,-1,1245,309,0,0
28,715,0,0,0,0,0,0,0,0,0,-1,1252,309,0,0
35,715,0,0,0,0,0,0,0,0,0,-1,1259,309,0,0
42,715,0,0,0,0,0,0,0,0,0,-1,1266,309,0,0
49,715,0,0,0,0,0,0,0,0,0,-1,1273,309,0,0
56,715,0,0,0,0,0,0,0,0,0,-1,1280,309,0,0
63,715,2.85571,-25.9788,0,0,0,0,0,0,0,-1,1287,309,2.85571,25.9788
70,715,3.33582,-24.8058,0,0,0,0,0,0,0,-1,1294,309,3.33587,24.8058
77,715,0,0,0,0,0,0,0,0,0,-1,1301,309,0,0
84,715,0,0,0,0,0,0,0,0,0,-1,1308,309,0,0
91,715,0,0,0,0,0,0,0,0,0,-1,1315,309,0,0
98,715,0,0,0,0,0,0,0,0,0,-1,1322,309,0,0
105,715,0,0,0,0,0,0,0,0,0,-1,1329,309,0,0
112,715,0,0,0,0,0,0,0,0,0,-1,1336,309,0,0
119,715,0,0,0,0,0,0,0,0,0,-1,1343,309,0,0
126,715,0,0,0,0,0,0,0,0,0,-1,1350,309,0,0
133,715,0,0,0,0,0,0,0,0,0,-1,1357,309,0,0
140,715,0,0,0,0,0,0,0,0,0,-1,1364,309,0,0
147,715,0,0,0,0,0,0,0,0,0,-1,1371,309,0,0
154,715,0,0,0,0,0,0,0,0,0,-1,1378,309,0,0
161,715,0,0,0,0,0,0,0,0,0,-1,1385,309,0,0
168,715,0,0,0,0,0,0,0,0,0,-1,1392,309,0,0
175,715,0,0,0,0,0,0,0,0,0,-1,1399,309,0,0
182,715,0,0,0,0,0,0,0,0,0,-1,1406,309,0,0
189,715,0,0,0,0,0,0,0,0,0,-1,1413,309,0,0
196,715,0,0,0,0,0,0,0,0,0,-1,1420,309,0,0
203,715,0,0,0,0,0,0,0,0,0,-1,1427,309,0,0
210,715,0,0,0,0,0,0,0,0,0,-1,1434,309,0,0
217,715,0,0,0,0,0,0,0,0,0,-1,1441,309,0,0
224,715,0,0,0,0,0,0,0,0,0,-1,1448,309,0,0
231,715,0,0,0,0,0,0,0,0,0,-1,1455,309,0,0
238,715,0,0,0,0,0,0,0,0,0,-1,1462,309,0,0
245,715,0,0,0,0,0,0,0,0,0,-1,1469,309,0,0
252,715,0,0,0,0,0,0,0,0,0,-1,1476,309,0,0
259,715,0,0,0,0,0,0,0,0,0,-1,1483,309,0,0
266,715,0,0,0,0,0,0,0,0,0,-1,1490,309,0,0
273,715,0,0,0,0,0,0,0,0,0,-1,1497,309,0,0
280,715,0,0,0,0,0,0,0,0,0,-1,1504,309,0,0
287,715,0,0,0,0,0,0,0,0,0,-1,1511,309,0,0
294,715,0,0,0,0,0,0,0,0,0,-1,1518,309,0,0
301,715,0,0,0,0,0,0,0,0,0,-1,1525,309,0,0
308,715,0,0,0,0,0,0,0,0,0,-1,1532,309,0,0
315,715,0,0,0,0,0,0,0,0,0,-1,1539,309,0,0
322,715,0,0,0,0,0,0,0,0,0,-1,1546,309,0,0
329,715,0,0,0,0,0,0,0,0,0,-1,1553,309,0,0
336,715,0,0,0,0,0,0,0,0,0,-1,1560,309,0,0
343,715,0,0,0,0,0,0,0,0,0,-1,1567,309,0,0
350,715,0,0,0,0,0,0,0,0,0,-1,1574,309,0,0
357,715,0,0,0,0,0,0,0,0,0,-1,1581,309,0,0
364,715,0,0,0,0,0,0,0,0,0,-1,1588,309,0,0
371,715,0,0,0,0,0,0,0,0,0,-1,1595,309,0,0
378,715,0,0,0,0,0,0,0,0,0,-1,1602,309,0,0
385,715,0,0,0,0,0,0,0,0,0,-1,1609,309,0,0
392,715,0,0,0,0,0,0,0,0,0,-1,1616,309,0,0
399,715,0,0,0,0,0,0,0,0,0,-1,1623,309,0,0
406,715,0,0,0,0,0,0,0,0,0,-1,1630,309,0,0
413,715,0,0,0,0,0,0,0,0,0,-1,1637,309,0,0
420,715,0,0,0,0,0,0,0,0,0,-1,1644,309,0,0
427,715,0,0,0,0,0,0,0,0,0,-1,1651,309,0,0
434,715,0,0,0,0,0,0,0,0,0,-1,1658,309,0,0
441,715,0,0,0,0,0,0,0,0,0,-1,1665,309,0,0
448,715,0,0,0,0,0,0,0,0,0,-1,1672,309,0,0
455,715,0,0,0,0,0,0,0,0,0,-1,1679,309,0,0
462,715,0,0,0,0,0,0,0,0,0,-1,1686,309,0,0
469,715,0,0,0,0,0,0,0,0,0,-1,1693,309,0,0
476,715,0,0,0,0,0,0,0,0,0,-1,1700,309,0,0
483,715,0,0,0,0,0,0,0,0,0,-1,1707,309,0,0
490,715,0,0,0,0,0,0,0,0,0,-1,1714,309,0,0
497,715,0,0,0,0,0,0,0,0,0,-1,1721,309,0,0
504,715,0,0,0,0,0,0,0,0,0,-1,1728,309,0,0
511,715,0,0,0,0,0,0,0,0,0,-1,1735,309,0,0
518,715,0,0,0,0,0,0,0,0,0,-1,1742,309,0,0
525,715,0,0,0,0,0,0,0,0,0,-1,1749,309,0,0
532,715,0,0,0,0,0,0,0,0,0,-1,1756,309,0,0
539,715,0,0,0,0,0,0,0,0,0,-1,1763,309,0,0
546,715,0,0,0,0,0,0,0,0,0,-1,1770,309,0,0
553,715,0,0,0,0,0,0,0,0,0,-1,1777,309,0,0
560,715,0,0,0,0,0,0,0,0,0,-1,1784,309,0,0
567,715,0,0,0,0,0,0,0,0,0,-1,1791,309,0,0
574,715,0,0,0,0,0,0,0,0,0,-1,1798,309,0,0
581,715,0,0,0,0,0,0,0,0,0,-1,1805,309,0,0
588,715,0,0,0,0,0,0,0,0,0,-1,1812,309,0,0
595,715,0,0,0,0,0,0,0,0,0,-1,1819,309,0,0
602,715,0,0,0,0,0,0,0,0,0,-1,1826,309,0,0
609,715,0,0,0,0,0,0,0,0,0,-1,1833,309,0,0
616,715,0,0,0,0,0,0,0,0,0,-1,1840,309,0,0
623,715,0,0,0,0,0,0,0,0,0,-1,1847,309,0,0
630,715,0,0,0,0,0,0,0,0,0,-1,1854,309,0,0
637,715,0,0,0,0,0,0,0,0,0,-1,1861,309,0,0
644,715,0,0,0,0,0,0,0,0,0,-1,1868,309,0,0
651,715,0,0,0,0,0,0,0,0,0,-1,1875,309,0,0
658,715,0,0,0,0,0,0,0,0,0,-1,1882,309,0,0
665,715,0,0,0,0,0,0,0,0,0,-1,1889,309,0,0
672,715,0,0,0,0,0,0,0,0,0,-1,1896,309,0,0
679,715,0,0,0,0,0,0,0,0,0,-1,1903,309,0,0
686,715,0,0,0,0,0,0,0,0,0,-1,1910,309,0,0
693,715,0,0,0,0,0,0,0,0,0,-1,1917,309,0,0
700,715,0,0,0,0,0,0,0,0,0,-1,1924,309,0,0
707,715,0,0,0,0,0,0,0,0,0,-1,1931,309,0,0
714,715,0,0,0,0,0,0,0,0,0,-1,1938,309,0,0
721,715,0,0,0,0,0,0,0,0,0,-1,1945,309,0,0
728,715,0,0,0,0,0,0,0,0,0,-1,1952,309,0,0
735,715,0,0,0,0,0,0,0,0,0,-1,1959,309,0,0
742,715,0,0,0,0,0,0,0,0,0,-1,1966,309,0,0
749,715,0,0,0,0,0,0,0,0,0,-1,1973,309,0,0
756,715,0,0,0,0,0,0,0,0,0,-1,1980,309,0,0
763,715,0,0,0,0,0,0,0,0,0,-1,1987,309,0,0
770,715,0,0,0,0,0,0,0,0,0,-1,1994,309,0,0
777,715,0,0,0,0,0,0,0,0,0,-1,2001,309,0,0
784,715,0,0,0,0,0,0,0,0,0,-1,2008,309,0,0
791,715,0,0,0,0,0,0,0,0,0,-1,2015,309,0,0
798,715,0,0,0,0,0,0,0,0,0,-1,2022,309,0,0
805,715,0,0,0,0,0,0,0,0,0,-1,2029,309,0,0
812,715,0,0,0,0,0,0,0,0,0,-1,2036,309,0,0
-700,708,0,0,0,0,0,0,0,0,0,-1,524,316,0,0
-693,708,0,0,0,0,0,0,0,0,0,-1,531,316,0,0
-686,708,0,0,0,0,0,0,0,0,0,-1,538,316,0,0
-679,708,0,0,0,0,0,0,0,0,0,-1,545,316,0,0
-672,708,0,0,0,0,0,0,0,0,0,-1,552,316,0,0
-665,708,0,0,0,0,0,0,0,0,0,-1,559,316,0,0
-658,708,0,0,0,0,0,0,0,0,0,-1,566,316,0,0
-651,708,0,0,0,0,0,0,0,0,0,-1,573,316,0,0
-644,708,0,0,0,0,0,0,0,0,0,-1,580,316,0,0
-637,708,0,0,0,0,0,0,0,0,0,-1,587,316,0,0
-630,708,0,0,0,0,0,0,0,0,0,-1,594,316,0,0
-623,708,0,0,0,0,0,0,0,0,0,-1,601,316,0,0
-616,708,0,0,0,0,0,0,0,0,0,-1,608,316,0,0
-609,708,0,0,0,0,0,0,0,0,0,-1,615,316,0,0
-602,708,0,0,0,0,0,0,0,0,0,-1,622,316,0,0
-595,708,0,0,0,0,0,0,0,0,0,-1,629,316,0,0
-588,708,0,0,0,0,0,0,0,0,0,-1,636,316,0,0
-581,708,0,0,0,0,0,0,0,0,0,-1,643,316,0,0
-574,708,0,0,0,0,0,0,0,0,0,-1,650,316,0,0
-567,708,0,0,0,0,0,0,0,0,0,-1,657,316,0,0
-560,708,0,0,0,0,0,0,0,0,0,-1,664,316,0,0
-553,708,0,0,0,0,0,0,0,0,0,-1,671,316,0,0
-546,708,0,0,0,0,0,0,0,0,0,-1,678,316,0,0
-539,708,0,0,0,0,0,0,0,0,0,-1,685,316,0,0
-532,708,0,0,0,0,0,0,0,0,0,-1,692,316,0,0
-525,708,0,0,0,0,0,0,0,0,0,-1,699,316,0,0
-518,708,0,0,0,0,0,0,0,0,0,-1,706,316,0,0
-511,708,0,0,0,0,0,0,0,0,0,-1,713,316,0,0
-504,708,0,0,0,0,0,0,0,0,0,-1,720,316,0,0
-497,708,0,0,0,0,0,0,0,0,0,-1,727,316,0,0
-490,708,0,0,0,0,0,0,0,0,0,-1,734,316,0,0
-483,708,0,0,0,0,0,0,0,0,0,-1,741,316,0,0
-476,708,0,0,0,0,0,0,0,0,0,-1,748,316,0,0
-469,708,0,0,0,0,0,0,0,0,0,-1,755,316,0,0
-462,708,0,0,0,0,0,0,0,0,0,-1,762,316,0,0
-455,708,0,0,0,0,0,0,0,0,0,-1,769,316,0,0
-448,708,0,0,0,0,0,0,0,0,0,-1,776,316,0,0
-441,708,0,0,0,0,0,0,0,0,0,-1,783,316,0,0
-434,708,0,0,0,0,0,0,0,0,0,-1,790,316,0,0
-427,708,0,0,0,0,0,0,0,0,0,-1,797,316,0,0
-420,708,0,0,0,0,0,0,0,0,0,-1,804,316,0,0
-413,708,0,0,0,0,0,0,0,0,0,-1,811,316,0,0
-406,708,0,0,0,0,0,0,0,0,0,-1,818,316,0,0
-399,708,0,0,0,0,0,0,0,0,0,-1,825,316,0,0
-392,708,0,0,0,0,0,0,0,0,0,-1,832,316,0,0
-385,708,0,0,0,0,0,0,0,0,0,-1,839,316,0,0
-378,708,0,0,0,0,0,0,0,0,0,-1,846,316,0,0
-371,708,0,0,0,0,0,0,0,0,0,-1,853,316,0,0
-364,708,0,0,0,0,0,0,0,0,0,-1,860,316,0,0
-357,708,0,0,0,0,0,0,0,0,0,-1,867,316,0,0
-350,708,0,0,0,0,0,0,0,0,0,-1,874,316,0,0
-343,708,0,0,0,0,0,0,0,0,0,-1,881,316,0,0
-336,708,0,0,0,0,0,0,0,0,0,-1,888,316,0,0
-329,708,0,0,0,0,0,0,0,0,0,-1,895,316,0,0
-322,708,0,0,0,0,0,0,0,0,0,-1,902,316,0,0
-315,708,0,0,0,0,0,0,0,0,0,-1,909,316,0,0
-308,708,0,0,0,0,0,0,0,0,0,-1,916,316,0,0
-301,708,0,0,0,0,0,0,0,0,0,-1,923,316,0,0
-294,708,0,0,0,0,0,0,0,0,0,-1,930,316,0,0
-287,708,0,0,0,0,0,0,0,0,0,-1,937,316,0,0
-280,708,0,0,0,0,0,0,0,0,0,-1,944,316,0,0
-273,708,0,0,0,0,0,0,0,0,0,-1,951,316,0,0
-266,708,0,0,0,0,0,0,0,0,0,-1,958,316,0,0
-259,708,0,0,0,0,0,0,0,0,0,-1,965,316,0,0
-252,708,0,0,0,0,0,0,0,0,0,-1,972,316,0,0
-245,708,0,0,0,0,0,0,0,0,0,-1,979,316,0,0
-238,708,0,0,0,0,0,0,0,0,0,-1,986,316,0,0
-231,708,0,0,0,0,0,0,0,0,0,-1,993,316,0,0
-224,708,0,0,0,0,0,0,0,0,0,-1,1000,316,0,0
-217,708,0,0,0,0,0,0,0,0,0,-1,1007,316,0,0
-210,708,0,0,0,0,0,0,0,0,0,-1,1014,316,0,0
-203,708,0,0,0,0,0,0,0,0,0,-1,1021,316,0,0
-196,708,0,0,0,0,0,0,0,0,0,-1,1028,316,0,0
-189,708,0,0,0,0,0,0,0,0,0,-1,1035,316,0,0
-182,708,0,0,0,0,0,0,0,0,0,-1,1042,316,0,0
-175,708,0,0,0,0,0,0,0,0,0,-1,1049,316,0,0
-168,708,0,0,0,0,0,0,0,0,0,-1,1056,316,0,0
-161,708,0,0,0,0,0,0,0,0,0,-1,1063,316,0,0
-154,708,0,0,0,0,0,0,0,0,0,-1,1070,316,0,0
-147,708,0,0,0,0,0,0,0,0,0,-1,1077,316,0,0
-140,708,0,0,0,0,0,0,0,0,0,-1,1084,316,0,0
-133,708,0,0,0,0,0,0,0,0,0,-1,1091,316,0,0
-126,708,0,0,0,0,0,0,0,0,0,-1,1098,316,0,0
-119,708,0,0,0,0,0,0,0,0,0,-1,1105,316,0,0
-112,708,0,0,0,0,0,0,0,0,0,-1,1112,316,0,0
-105,708,0,0,0,0,0,0,0,0,0,-1,1119,316,0,0
-98,708,0,0,0,0,0,0,0,0,0,-1,1126,316,0,0
-91,708,0,0,0,0,0,0,0,0,0,-1,1133,316,0,0
-84,708,0,0,0,0,0,0,0,0,0,-1,1140,316,0,0
-77,708,0,0,0,0,0,0,0,0,0,-1,1147,316,0,0
-70,708,0,0,0,0,0,0,0,0,0,-1,1154,316,0,0
-63,708,0,0,0,0,0,0,0,0,0,-1,1161,316,0,0
-56,708,0,0,0,0,0,0,0,0,0,-1,1168,316,0,0
-49,708,0,0,0,0,0,0,0,0,0,-1,1175,316,0,0
-42,708,0,0,0,0,0,0,0,0,0,-1,1182,316,0,0
-35,708,-2.71204,-6.31558,0,0,0,0,0,0,0,-1,1189,316,-2.712,6.3156
-28,708,-2.92371,-5.53253,0,0,0,0,0,0,0,-1,1196,316,-2.92375,5.53254
-21,708,-19.7781,-6.86209,0,0,0,0,0,0,0,-1,1203,316,-19.7781,6.86209
-14,708,2.84692,-19.5859,0,0,0,0,0,0,0,-1,1210,316,2.84693,19.5859
-7,708,3.72595,-20.0278,0,0,0,0,0,0,0,-1,1217,316,3.72597,20.0278
0,708,4.03809,-19.5551,0,0,0,0,0,0,0,-1,1224,316,4.03813,19.5551
7,708,4.11084,-19.4329,0,0,0,0,0,0,0,-1,1231,316,4.1109,19.4329
14,708,4.05115,-19.3618,0,0,0,0,0,0,0,-1,1238,316,4.05113,19.3618
21,708,1.45239,-20.4375,0,0,0,0,0,0,0,-1,1245,316,1.45238,20.4375
28,708,1.06543,-20.2404,0,0,0,0,0,0,0,-1,1252,316,1.06538,20.2404
35,708,1.42236,-20.8264,0.0387629,0.059577,0.00955509,0.0632981,0.0350417,1.19942,0.0366151,0.0452876,1259,316,1.42236,20.8264
42,708,1.90527,-20.744,0.043018,0.0478443,0.0158182,0.0614323,0.0294299,0.861093,0.0354783,0.0444062,1266,316,1.90524,20.744
49,708,1.55359,-19.4143,0.0495806,0.0318454,0.0231017,0.0654582,0.0159678,0.602145,0.0394097,0.0463216,1273,316,1.55363,19.4143
56,708,1.45984,-18.1656,0.0584771,0.0127574,0.0302484,0.0735321,-0.00229765,0.461816,0.049805,0.0467765,1280,316,1.45985,18.1656
63,708,1.52429,-16.8143,0,0,0,0,0,0,0,-1,1287,316,1.52428,16.8143
70,708,3.09192,-24.9173,0.0791397,-0.0244665,0.0421385,0.0941139,-0.0394407,0.34144,0.0792322,0.0433064,1294,316,3.09198,24.9173
77,708,3.47742,-24.0739,0.0885298,-0.0396102,0.0459748,0.103318,-0.0543986,0.311211,0.0925064,0.0423891,1301,316,3.47736,24.0739
84,708,3.98145,-23.17,0.097362,-0.050412,0.0486962,0.111966,-0.0650158,0.29136,0.103372,0.0421376,1308,316,3.98145,23.17
91,708,4.77576,-22.6242,0.100524,-0.0507856,0.0480138,0.114474,-0.0647353,0.282752,0.104786,0.0415645,1315,316,4.77578,22.6242
98,708,5.68005,-22.1453,0,0,0,0,0,0,0,-1,1322,316,5.68,22.1453
105,708,0.593262,-22.0656,0,0,0,0,0,0,0,-1,1329,316,0.59329,22.0655
112,708,0.870728,-21.2661,0.102782,-0.0341218,0.0310773,0.109506,-0.0408461,0.213089,0.0897724,0.045836,1336,316,0.870675,21.2661
119,708,1.16187,-20.399,0,0,0,0,0,0,0,-1,1343,316,1.1619,20.399
126,708,1.51343,-19.5236,0,0,0,0,0,0,0,-1,1350,316,1.51341,19.5236
133,708,1.8147,-18.7009,0,0,0,0,0,0,0,-1,1357,316,1.81474,18.7009
140,708,1.7157,-19.7441,0,0,0,0,0,0,0,-1,1364,316,1.7157,19.7441
147,708,2.00098,-19.5043,0,0,0,0,0,0,0,-1,1371,316,2.00098,19.5043
154,708,0,0,0,0,0,0,0,0,0,-1,1378,316,0,0
161,708,0,0,0,0,0,0,0,0,0,-1,1385,316,0,0
168,708,0,0,0,0,0,0,0,0,0,-1,1392,316,0,0
175,708,0,0,0,0,0,0,0,0,0,-1,1399,316,0,0
182,708,0,0,0,0,0,0,0,0,0,-1,1406,316,0,0
189,708,0,0,0,0,0,0,0,0,0,-1,1413,316,0,0
196,708,0,0,0,0,0,0,0,0,0,-1,1420,316,0,0
203,708,0,0,0,0,0,0,0,0,0,-1,1427,316,0,0
210,708,0,0,0,0,0,0,0,0,0,-1,1434,316,0,0
217,708,0,0,0,0,0,0,0,0,0,-1,1441,316,0,0
224,708,0,0,0,0,0,0,0,0,0,-1,1448,316,0,0
231,708,0,0,0,0,0,0,0,0,0,-1,1455,316,0,0
238,708,0,0,0,0,0,0,0,0,0,-1,1462,316,0,0
245,708,0,0,0,0,0,0,0,0,0,-1,1469,316,0,0
252,708,0,0,0,0,0,0,0,0,0,-1,1476,316,0,0
259,708,0,0,0,0,0,0,0,0,0,-1,1483,316,0,0
266,708,0,0,0,0,0,0,0,0,0,-1,1490,316,0,0
273,708,0,0,0,0,0,0,0,0,0,-1,1497,316,0,0
280,708,0,0,0,0,0,0,0,0,0,-1,1504,316,0,0
287,708,0,0,0,0,0,0,0,0,0,-1,1511,316,0,0
294,708,0,0,0,0,0,0,0,0,0,-1,1518,316,0,0
301,708,0,0,0,0,0,0,0,0,0,-1,1525,316,0,0
308,708,0,0,0,0,0,0,0,0,0,-1,1532,316,0,0
315,708,0,0,0,0,0,0,0,0,0,-1,1539,316,0,0
322,708,0,0,0,0,0,0,0,0,0,-1,1546,316,0,0
329,708,0,0,0,0,0,0,0,0,0,-1,1553,316,0,0
336,708,0,0,0,0,0,0,0,0,0,-1,1560,316,0,0
343,708,0,0,0,0,0,0,0,0,0,-1,1567,316,0,0
350,708,0,0,0,0,0,0,0,0,0,-1,1574,316,0,0
357,708,0,0,0,0,0,0,0,0,0,-1,1581,316,0,0
364,708,0,0,0,0,0,0,0,0,0,-1,1588,316,0,0
371,708,0,0,0,0,0,0,0,0,0,-1,1595,316,0,0
378,708,0,0,0,0,0,0,0,0,0,-1,1602,316,0,0
385,708,0,0,0,0,0,0,0,0,0,-1,1609,316,0,0
392,708,0,0,0,0,0,0,0,0,0,-1,1616,316,0,0
399,708,0,0,0,0,0,0,0,0,0,-1,1623,316,0,0
406,708,0,0,0,0,0,0,0,0,0,-1,1630,316,0,0
413,708,0,0,0,0,0,0,0,0,0,-1,1637,316,0,0
420,708,0,0,0,0,0,0,0,0,0,-1,1644,316,0,0
427,708,0,0,0,0,0,0,0,0,0,-1,1651,316,0,0
434,708,0,0,0,0,0,0,0,0,0,-1,1658,316,0,0
441,708,0,0,0,0,0,0,0,0,0,-1,1665,316,0,0
448,708,0,0,0,0,0,0,0,0,0,-1,1672,316,0,0
455,708,0,0,0,0,0,0,0,0,0,-1,1679,316,0,0
462,708,0,0,0,0,0,0,0,0,0,-1,1686,316,0,0
469,708,0,0,0,0,0,0,0,0,0,-1,1693,316,0,0
476,708,0,0,0,0,0,0,0,0,0,-1,1700,316,0,0
483,708,0,0,0,0,0,0,0,0,0,-1,1707,316,0,0
490,708,0,0,0,0,0,0,0,0,0,-1,1714,316,0,0
497,708,0,0,0,0,0,0,0,0,0,-1,1721,316,0,0
504,708,0,0,0,0,0,0,0,0,0,-1,1728,316,0,0
511,708,0,0,0,0,0,0,0,0,0,-1,1735,316,0,0
518,708,0,0,0,0,0,0,0,0,0,-1,1742,316,0,0
525,708,0,0,0,0,0,0,0,0,0,-1,1749,316,0,0
532,708,0,0,0,0,0,0,0,0,0,-1,1756,316,0,0
539,708,0,0,0,0,0,0,0,0,0,-1,1763,316,0,0
546,708,0,0,0,0,0,0,0,0,0,-1,1770,316,0,0
553,708,0,0,0,0,0,0,0,0,0,-1,1777,316,0,0
560,708,0,0,0,0,0,0,0,0,0,-1,1784,316,0,0
567,708,0,0,0,0,0,0,0,0,0,-1,1791,316,0,0
574,708,0,0,0,0,0,0,0,0,0,-1,1798,316,0,0
581,708,0,0,0,0,0,0,0,0,0,-1,1805,316,0,0
588,708,0,0,0,0,0,0,0,0,0,-1,1812,316,0,0
595,708,0,0,0,0,0,0,0,0,0,-1,1819,316,0,0
602,708,0,0,0,0,0,0,0,0,0,-1,1826,316,0,0
609,708,0,0,0,0,0,0,0,0,0,-1,1833,316,0,0
616,708,0,0,0,0,0,0,0,0,0,-1,1840,316,0,0
623,708,0,0,0,0,0,0,0,0,0,-1,1847,316,0,0
630,708,0,0,0,0,0,0,0,0,0,-1,1854,316,0,0
637,708,0,0,0,0,0,0,0,0,0,-1,1861,316,0,0
644,708,0,0,0,0,0,0,0,0,0,-1,1868,316,0,0
651,708,0,0,0,0,0,0,0,0,0,-1,1875,316,0,0
658,708,0,0,0,0,0,0,0,0,0,-1,1882,316,0,0
665,708,0,0,0,0,0,0,0,0,0,-1,1889,316,0,0
672,708,0,0,0,0,0,0,0,0,0,-1,1896,316,0,0
679,708,0,0,0,0,0,0,0,0,0,-1,1903,316,0,0
686,708,0,0,0,0,0,0,0,0,0,-1,1910,316,0,0
693,708,0,0,0,0,0,0,0,0,0,-1,1917,316,0,0
700,708,0,0,0,0,0,0,0,0,0,-1,1924,316,0,0
707,708,0,0,0,0,0,0,0,0,0,-1,1931,316,0,0
714,708,0,0,0,0,0,0,0,0,0,-1,1938,316,0,0
721,708,0,0,0,0,0,0,0,0,0,-1,1945,316,0,0
728,708,0,0,0,0,0,0,0,0,0,-1,1952,316,0,0
735,708,0,0,0,0,0,0,0,0,0,-1,1959,316,0,0
742,708,0,0,0,0,0,0,0,0,0,-1,1966,316,0,0
749,708,0,0,0,0,0,0,0,0,0,-1,1973,316,0,0
756,708,0,0,0,0,0,0,0,0,0,-1,1980,316,0,0
763,708,0,0,0,0,0,0,0,0,0,-1,1987,316,0,0
770,708,0,0,0,0,0,0,0,0,0,-1,1994,316,0,0
777,708,0,0,0,0,0,0,0,0,0,-1,2001,316,0,0
784,708,0,0,0,0,0,0,0,0,0,-1,2008,316,0,0
791,708,0,0,0,0,0,0,0,0,0,-1,2015,316,0,0
798,708,0,0,0,0,0,0,0,0,0,-1,2022,316,0,0
805,708,0,0,0,0,0,0,0,0,0,-1,2029,316,0,0
812,708,0,0,0,0,0,0,0,0,0,-1,2036,316,0,0
-700,701,0,0,0,0,0,0,0,0,0,-1,524,323,0,0
-693,701,0,0,0,0,0,0,0,0,0,-1,531,323,0,0
-686,701,0,0,0,0,0,0,0,0,0,-1,538,323,0,0
-679,701,0,0,0,0,0,0,0,0,0,-1,545,323,0,0
-672,701,0,0,0,0,0,0,0,0,0,-1,552,323,0,0
-665,701,0,0,0,0,0,0,0,0,0,-1,559,323,0,0
-658,701,0,0,0,0,0,0,0,0,0,-1,566,323,0,0
-651,701,0,0,0,0,0,0,0,0,0,-1,573,323,0,0
-644,701,0,0,0,0,0,0,0,0,0,-1,580,323,0,0
-637,701,0,0,0,0,0,0,0,0,0,-1,587,323,0,0
-630,701,0,0,0,0,0,0,0,0,0,-1,594,323,0,0
-623,701,0,0,0,0,0,0,0,0,0,-1,601,323,0,0
-616,701,0,0,0,0,0,0,0,0,0,-1,608,323,0,0
-609,701,0,0,0,0,0,0,0,0,0,-1,615,323,0,0
-602,701,0,0,0,0,0,0,0,0,0,-1,622,323,0,0
-595,701,0,0,0,0,0,0,0,0,0,-1,629,323,0,0
-588,701,0,0,0,0,0,0,0,0,0,-1,636,323,0,0
-581,701,0,0,0,0,0,0,0,0,0,-1,643,323,0,0
-574,701,0,0,0,0,0,0,0,0,0,-1,650,323,0,0
-567,701,0,0,0,0,0,0,0,0,0,-1,657,323,0,0
-560,701,0,0,0,0,0,0,0,0,0,-1,664,323,0,0
-553,701,0,0,0,0,0,0,0,0,0,-1,671,323,0,0
-546,701,0,0,0,0,0,0,0,0,0,-1,678,323,0,0
-539,701,0,0,0,0,0,0,0,0,0,-1,685,323,0,0
-532,701,0,0,0,0,0,0,0,0,0,-1,692,323,0,0
-525,701,0,0,0,0,0,0,0,0,0,-1,699,323,0,0
-518,701,0,0,0,0,0,0,0,0,0,-1,706,323,0,0
-511,701,0,0,0,0,0,0,0,0,0,-1,713,323,0,0
-504,701,0,0,0,0,0,0,0,0,0,-1,720,323,0,0
-497,701,0,0,0,0,0,0,0,0,0,-1,727,323,0,0
-490,701,0,0,0,0,0,0,0,0,0,-1,734,323,0,0
-483,701,0,0,0,0,0,0,0,0,0,-1,741,323,0,0
-476,701,0,0,0,0,0,0,0,0,0,-1,748,323,0,0
-469,701,0,0,0,0,0,0,0,0,0,-1,755,323,0,0
-462,701,0,0,0,0,0,0,0,0,0,-1,762,323,0,0
-455,701,0,0,0,0,0,0,0,0,0,-1,769,323,0,0
-448,701,0,0,0,0,0,0,0,0,0,-1,776,323,0,0
-441,701,0,0,0,0,0,0,0,0,0,-1,783,323,0,0
-434,701,0,0,0,0,0,0,0,0,0,-1,790,323,0,0
-427,701,0,0,0,0,0,0,0,0,0,-1,797,323,0,0
-420,701,0,0,0,0,0,0,0,0,0,-1,804,323,0,0
-413,701,0,0,0,0,0,0,0,0,0,-1,811,323,0,0
-406,701,0,0,0,0,0,0,0,0,0,-1,818,323,0,0
-399,701,0,0,0,0,0,0,0,0,0,-1,825,323,0,0
-392,701,0,0,0,0,0,0,0,0,0,-1,832,323,0,0
-385,701,0,0,0,0,0,0,0,0,0,-1,839,323,0,0
-378,701,0,0,0,0,0,0,0,0,0,-1,846,323,0,0
-371,701,0,0,0,0,0,0,0,0,0,-1,853,323,0,0
-364,701,0,0,0,0,0,0,0,0,0,-1,860,323,0,0
-357,701,0,0,0,0,0,0,0,0,0,-1,867,323,0,0
-350,701,0,0,0,0,0,0,0,0,0,-1,874,323,0,0
-343,701,0,0,0,0,0,0,0,0,0,-1,881,323,0,0
-336,701,0,0,0,0,0,0,0,0,0,-1,888,323,0,0
-329,701,0,0,0,0,0,0,0,0,0,-1,895,323,0,0
-322,701,0,0,0,0,0,0,0,0,0,-1,902,323,0,0
-315,701,0,0,0,0,0,0,0,0,0,-1,909,323,0,0
-308,701,0,0,0,0,0,0,0,0,0,-1,916,323,0,0
-301,701,0,0,0,0,0,0,0,0,0,-1,923,323,0,0
-294,701,0,0,0,0,0,0,0,0,0,-1,930,323,0,0
-287,701,0,0,0,0,0,0,0,0,0,-1,937,323,0,0
-280,701,0,0,0,0,0,0,0,0,0,-1,944,323,0,0
-273,701,0,0,0,0,0,0,0,0,0,-1,951,323,0,0
-266,701,0,0,0,0,0,0,0,0,0,-1,958,323,0,0
-259,701,0,0,0,0,0,0,0,0,0,-1,965,323,0,0
-252,701,0,0,0,0,0,0,0,0,0,-1,972,323,0,0
-245,701,0,0,0,0,0,0,0,0,0,-1,979,323,0,0
-238,701,0,0,0,0,0,0,0,0,0,-1,986,323,0,0
-231,701,0,0,0,0,0,0,0,0,0,-1,993,323,0,0
-224,701,0,0,0,0,0,0,0,0,0,-1,1000,323,0,0
-217,701,0,0,0,0,0,0,0,0,0,-1,1007,323,0,0
-210,701,0,0,0,0,0,0,0,0,0,-1,1014,323,0,0
-203,701,0,0,0,0,0,0,0,0,0,-1,1021,323,0,0
-196,701,0,0,0,0,0,0,0,0,0,-1,1028,323,0,0
-189,701,0,0,0,0,0,0,0,0,0,-1,1035,323,0,0
-182,701,0,0,0,0,0,0,0,0,0,-1,1042,323,0,0
-175,701,0,0,0,0,0,0,0,0,0,-1,1049,323,0,0
-168,701,0,0,0,0,0,0,0,0,0,-1,1056,323,0,0
-161,701,0,0,0,0,0,0,0,0,0,-1,1063,323,0,0
-154,701,0,0,0,0,0,0,0,0,0,-1,1070,323,0,0
-147,701,0,0,0,0,0,0,0,0,0,-1,1077,323,0,0
-140,701,0,0,0,0,0,0,0,0,0,-1,1084,323,0,0
-133,701,0,0,0,0,0,0,0,0,0,-1,1091,323,0,0
-126,701,0,0,0,0,0,0,0,0,0,-1,1098,323,0,0
-119,701,0,0,0,0,0,0,0,0,0,-1,1105,323,0,0
-112,701,0,0,0,0,0,0,0,0,0,-1,1112,323,0,0
-105,701,0,0,0,0,0,0,0,0,0,-1,1119,323,0,0
-98,701,0,0,0,0,0,0,0,0,0,-1,1126,323,0,0
-91,701,0,0,0,0,0,0,0,0,0,-1,1133,323,0,0
-84,701,0,0,0,0,0,0,0,0,0,-1,1140,323,0,0
-77,701,0,0,0,0,0,0,0,0,0,-1,1147,323,0,0
-70,701,-2.36731,-1.49271,0,0,0,0,0,0,0,-1,1154,323,-2.36729,1.4927
-63,701,-2.479,-0.295959,0,0,0,0,0,0,0,-1,1161,323,-2.47895,0.295961
-56,701,-0.420166,-0.101776,0,0,0,0,0,0,0,-1,1168,323,-0.420119,0.101777
-49,701,-1.09021,-0.155762,0,0,0,0,0,0,0,-1,1175,323,-1.09024,0.155768
-42,701,-0.210327,-0.299133,0,0,0,0,0,0,0,-1,1182,323,-0.210379,0.29914
-35,701,-2.9635,-7.98676,0,0,0,0,0,0,0,-1,1189,323,-2.9635,7.98676
-28,701,-6.64417,-5.4917,0,0,0,0,0,0,0,-1,1196,323,-6.64411,5.4917
-21,701,2.51074,-19.7484,0,0,0,0,0,0,0,-1,1203,323,2.51074,19.7484
-14,701,2.9541,-19.7494,0,0,0,0,0,0,0,-1,1210,323,2.95415,19.7494
-7,701,4.23364,-20.1966,0,0,0,0,0,0,0,-1,1217,323,4.23366,20.1966
0,701,4.15991,-19.8004,0,0,0,0,0,0,0,-1,1224,323,4.15992,19.8004
7,701,3.96216,-19.4667,0,0,0,0,0,0,0,-1,1231,323,3.96217,19.4667
14,701,1.92456,-20.2084,0,0,0,0,0,0,0,-1,1238,323,1.92458,20.2084
21,701,2.01294,-20.2908,0,0,0,0,0,0,0,-1,1245,323,2.01291,20.2908
28,701,1.57703,-20.41,0,0,0,0,0,0,0,-1,1252,323,1.57701,20.41
35,701,1.80371,-20.9314,0.0314533,0.0483197,0.00615437,0.0503266,0.0294465,1.25558,0.029196,0.0432291,1259,323,1.80365,20.9314
42,701,2.09802,-21.6378,0.0351637,0.0401668,0.0112095,0.0491505,0.02618,0.895181,0.0283972,0.0436433,1266,323,2.09797,21.6378
49,701,2.14917,-20.0949,0.0400645,0.0292391,0.0166233,0.0521341,0.0171694,0.628007,0.0306786,0.0450349,1273,323,2.14917,20.0949
56,701,2.20911,-18.7147,0.0468491,0.0155511,0.0219923,0.0581918,0.00420837,0.476174,0.0374706,0.0433424,1280,323,2.2091,18.7146
63,701,2.28528,-17.3137,0,0,0,0,0,0,0,-1,1287,323,2.2853,17.3137
70,701,2.92786,-24.1452,0.063559,-0.0133738,0.0319464,0.0750949,-0.0249098,0.346532,0.0601123,0.0430433,1294,323,2.92782,24.1452
77,701,3.36938,-23.4112,0.0708925,-0.0251398,0.0353071,0.0824763,-0.0367235,0.317019,0.0704896,0.0445959,1301,323,3.36938,23.4112
84,701,3.99841,-22.5096,0.0777647,-0.0338119,0.0378684,0.089403,-0.0454502,0.298173,0.0792241,0.0427265,1308,323,3.99842,22.5096
91,701,4.77478,-20.476,0.0807277,-0.034855,0.0377822,0.0919823,-0.0461095,0.28951,0.0811804,0.0443531,1315,323,4.7748,20.476
98,701,4.90857,-18.8878,0,0,0,0,0,0,0,-1,1322,323,4.90857,18.8878
105,701,0.468628,-22.4209,0.0837042,-0.0291037,0.0295951,0.090997,-0.0363965,0.241605,0.0757691,0.0486206,1329,323,0.46861,22.4209
112,701,1.3634,-21.7671,0.0839104,-0.0235668,0.0246926,0.089312,-0.0289684,0.215361,0.07119,0.0420751,1336,323,1.36343,21.7671
119,701,2.03503,-20.0695,0,0,0,0,0,0,0,-1,1343,323,2.03501,20.0696
126,701,1.95068,-19.7186,0,0,0,0,0,0,0,-1,1350,323,1.9507,19.7186
133,701,1.86633,-19.3677,0,0,0,0,0,0,0,-1,1357,323,1.86639,19.3677
140,701,1.51099,-19.7961,0.0694841,0.0162932,0.000323587,0.0694861,0.0162912,0.00608319,0.0419614,0.0467221,1364,323,1.51101,19.7961
147,701,1.6145,-19.7647,0.0664496,0.0217179,-0.0056721,0.0671577,0.0210098,-0.124184,0.0396686,0.04732,1371,323,1.6145,19.7647
154,701,2.1604,-19.5565,0,0,0,0,0,0,0,-1,1378,323,2.16036,19.5565
161,701,2.92334,-19.3804,0,0,0,0,0,0,0,-1,1385,323,2.92338,19.3804
168,701,25.6907,1.87299,0,0,0,0,0,0,0,-1,1392,323,25.6906,-1.87299
175,701,6.94556,0.0693054,0,0,0,0,0,0,0,-1,1399,323,6.94555,-0.0692958
182,701,8.80652,5.42807,0,0,0,0,0,0,0,-1,1406,323,8.8065,-5.42808
189,701,8.58081,4.24493,0,0,0,0,0,0,0,-1,1413,323,8.58082,-4.24494
196,701,0,0,0,0,0,0,0,0,0,-1,1420,323,0,0
203,701,0,0,0,0,0,0,0,0,0,-1,1427,323,0,0
210,701,0,0,0,0,0,0,0,0,0,-1,1434,323,0,0
217,701,0,0,0,0,0,0,0,0,0,-1,1441,323,0,0
224,701,0,0,0,0,0,0,0,0,0,-1,1448,323,0,0
231,701,0,0,0,0,0,0,0,0,0,-1,1455,323,0,0
238,701,0,0,0,0,0,0,0,0,0,-1,1462,323,0,0
245,701,0,0,0,0,0,0,0,0,0,-1,1469,323,0,0
252,701,0,0,0,0,0,0,0,0,0,-1,1476,323,0,0
259,701,0,0,0,0,0,0,0,0,0,-1,1483,323,0,0
266,701,0,0,0,0,0,0,0,0,0,-1,1490,323,0,0
273,701,0,0,0,0,0,0,0,0,0,-1,1497,323,0,0
280,701,0,0,0,0,0,0,0,0,0,-1,1504,323,0,0
287,701,0,0,0,0,0,0,0,0,0,-1,1511,323,0,0
294,701,0,0,0,0,0,0,0,0,0,-1,1518,323,0,0
301,701,0,0,0,0,0,0,0,0,0,-1,1525,323,0,0
308,701,0,0,0,0,0,0,0,0,0,-1,1532,323,0,0
315,701,0,0,0,0,0,0,0,0,0,-1,1539,323,0,0
322,701,0,0,0,0,0,0,0,0,0,-1,1546,323,0,0
329,701,0,0,0,0,0,0,0,0,0,-1,1553,323,0,0
336,701,0,0,0,0,0,0,0,0,0,-1,1560,323,0,0
343,701,0,0,0,0,0,0,0,0,0,-1,1567,323,0,0
350,701,0,0,0,0,0,0,0,0,0,-1,1574,323,0,0
357,701,0,0,0,0,0,0,0,0,0,-1,1581,323,0,0
364,701,0,0,0,0,0,0,0,0,0,-1,1588,323,0,0
371,701,0,0,0,0,0,0,0,0,0,-1,1595,323,0,0
378,701,0,0,0,0,0,0,0,0,0,-1,1602,323,0,0
385,701,0,0,0,0,0,0,0,0,0,-1,1609,323,0,0
392,701,0,0,0,0,0,0,0,0,0,-1,1616,323,0,0
399,701,0,0,0,0,0,0,0,0,0,-1,1623,323,0,0
406,701,0,0,0,0,0,0,0,0,0,-1,1630,323,0,0
413,701,0,0,0,0,0,0,0,0,0,-1,1637,323,0,0
420,701,0,0,0,0,0,0,0,0,0,-1,1644,323,0,0
427,701,0,0,0,0,0,0,0,0,0,-1,1651,323,0,0
434,701,0,0,0,0,0,0,0,0,0,-1,1658,323,0,0
441,701,0,0,0,0,0,0,0,0,0,-1,1665,323,0,0
448,701,0,0,0,0,0,0,0,0,0,-1,1672,323,0,0
455,701,0,0,0,0,0,0,0,0,0,-1,1679,323,0,0
462,701,0,0,0,0,0,0,0,0,0,-1,1686,323,0,0
469,701,0,0,0,0,0,0,0,0,0,-1,1693,323,0,0
476,701,0,0,0,0,0,0,0,0,0,-1,1700,323,0,0
483,701,0,0,0,0,0,0,0,0,0,-1,1707,323,0,0
490,701,0,0,0,0,0,0,0,0,0,-1,1714,323,0,0
497,701,0,0,0,0,0,0,0,0,0,-1,1721,323,0,0
504,701,0,0,0,0,0,0,0,0,0,-1,1728,323,0,0
511,701,0,0,0,0,0,0,0,0,0,-1,1735,323,0,0
518,701,0,0,0,0,0,0,0,0,0,-1,1742,323,0,0
525,701,0,0,0,0,0,0,0,0,0,-1,1749,323,0,0
532,701,0,0,0,0,0,0,0,0,0,-1,1756,323,0,0
539,701,0,0,0,0,0,0,0,0,0,-1,1763,323,0,0
546,701,0,0,0,0,0,0,0,0,0,-1,1770,323,0,0
553,701,0,0,0,0,0,0,0,0,0,-1,1777,323,0,0
560,701,0,0,0,0,0,0,0,0,0,-1,1784,323,0,0
567,701,0,0,0,0,0,0,0,0,0,-1,1791,323,0,0
574,701,0,0,0,0,0,0,0,0,0,-1,1798,323,0,0
581,701,0,0,0,0,0,0,0,0,0,-1,1805,323,0,0
588,701,0,0,0,0,0,0,0,0,0,-1,1812,323,0,0
595,701,0,0,0,0,0,0,0,0,0,-1,1819,323,0,0
602,701,0,0,0,0,0,0,0,0,0,-1,1826,323,0,0
609,701,0,0,0,0,0,0,0,0,0,-1,1833,323,0,0
616,701,0,0,0,0,0,0,0,0,0,-1,1840,323,0,0
623,701,0,0,0,0,0,0,0,0,0,-1,1847,323,0,0
630,701,0,0,0,0,0,0,0,0,0,-1,1854,323,0,0
637,701,0,0,0,0,0,0,0,0,0,-1,1861,323,0,0
644,701,0,0,0,0,0,0,0,0,0,-1,1868,323,0,0
651,701,0,0,0,0,0,0,0,0,0,-1,1875,323,0,0
658,701,0,0,0,0,0,0,0,0,0,-1,1882,323,0,0
665,701,0,0,0,0,0,0,0,0,0,-1,1889,323,0,0
672,701,0,0,0,0,0,0,0,0,0,-1,1896,323,0,0
679,701,0,0,0,0,0,0,0,0,0,-1,1903,323,0,0
686,701,0,0,0,0,0,0,0,0,0,-1,1910,323,0,0
693,701,0,0,0,0,0,0,0,0,0,-1,1917,323,0,0
700,701,0,0,0,0,0,0,0,0,0,-1,1924,323,0,0
707,701,0,0,0,0,0,0,0,0,0,-1,1931,323,0,0
714,701,0,0,0,0,0,0,0,0,0,-1,1938,323,0,0
721,701,0,0,0,0,0,0,0,0,0,-1,1945,323,0,0
728,701,0,0,0,0,0,0,0,0,0,-1,1952,323,0,0
735,701,0,0,0,0,0,0,0,0,0,-1,1959,323,0,0
742,701,0,0,0,0,0,0,0,0,0,-1,1966,323,0,0
749,701,0,0,0,0,0,0,0,0,0,-1,1973,323,0,0
756,701,0,0,0,0,0,0,0,0,0,-1,1980,323,0,0
763,701,0,0,0,0,0,0,0,0,0,-1,1987,323,0,0
770,701,0,0,0,0,0,0,0,0,0,-1,1994,323,0,0
777,701,0,0,0,0,0,0,0,0,0,-1,2001,323,0,0
784,701,0,0,0,0,0,0,0,0,0,-1,2008,323,0,0
791,701,0,0,0,0,0,0,0,0,0,-1,2015,323,0,0
798,701,0,0,0,0,0,0,0,0,0,-1,2022,323,0,0
805,701,0,0,0,0,0,0,0,0,0,-1,2029,323,0,0
812,701,0,0,0,0,0,0,0,0,0,-1,2036,323,0,0
-700,694,0,0,0,0,0,0,0,0,0,-1,524,330,0,0
-693,694,0,0,0,0,0,0,0,0,0,-1,531,330,0,0
-686,694,0,0,0,0,0,0,0,0,0,-1,538,330,0,0
-679,694,0,0,0,0,0,0,0,0,0,-1,545,330,0,0
-672,694,0,0,0,0,0,0,0,0,0,-1,552,330,0,0
-665,694,0,0,0,0,0,0,0,0,0,-1,559,330,0,0
-658,694,0,0,0,0,0,0,0,0,0,-1,566,330,0,0
-651,694,0,0,0,0,0,0,0,0,0,-1,573,330,0,0
-644,694,0,0,0,0,0,0,0,0,0,-1,580,330,0,0
-637,694,0,0,0,0,0,0,0,0,0,-1,587,330,0,0
-630,694,0,0,0,0,0,0,0,0,0,-1,594,330,0,0
-623,694,0,0,0,0,0,0,0,0,0,-1,601,330,0,0
-616,694,0,0,0,0,0,0,0,0,0,-1,608,330,0,0
-609,694,0,0,0,0,0,0,0,0,0,-1,615,330,0,0
-602,694,0,0,0,0,0,0,0,0,0,-1,622,330,0,0
-595,694,0,0,0,0,0,0,0,0,0,-1,629,330,0,0
-588,694,0,0,0,0,0,0,0,0,0,-1,636,330,0,0
-581,694,0,0,0,0,0,0,0,0,0,-1,643,330,0,0
-574,694,0,0,0,0,0,0,0,0,0,-1,650,330,0,0
-567,694,0,0,0,0,0,0,0,0,0,-1,657,330,0,0
-560,694,0,0,0,0,0,0,0,0,0,-1,664,330,0,0
-553,694,0,0,0,0,0,0,0,0,0,-1,671,330,0,0
-546,694,0,0,0,0,0,0,0,0,0,-1,678,330,0,0
-539,694,0,0,0,0,0,0,0,0,0,-1,685,330,0,0
-532,694,0,0,0,0,0,0,0,0,0,-1,692,330,0,0
-525,694,0,0,0,0,0,0,0,0,0,-1,699,330,0,0
-518,694,0,0,0,0,0,0,0,0,0,-1,706,330,0,0
-511,694,0,0,0,0,0,0,0,0,0,-1,713,330,0,0
-504,694,0,0,0,0,0,0,0,0,0,-1,720,330,0,0
-497,694,0,0,0,0,0,0,0,0,0,-1,727,330,0,0
-490,694,0,0,0,0,0,0,0,0,0,-1,734,330,0,0
-483,694,0,0,0,0,0,0,0,0,0,-1,741,330,0,0
-476,694,0,0,0,0,0,0,0,0,0,-1,748,330,0,0
-469,694,0,0,0,0,0,0,0,0,0,-1,755,330,0,0
-462,694,0,0,0,0,0,0,0,0,0,-1,762,330,0,0
-455,694,0,0,0,0,0,0,0,0,0,-1,769,330,0,0
-448,694,0,0,0,0,0,0,0,0,0,-1,776,330,0,0
-441,694,0,0,0,0,0,0,0,0,0,-1,783,330,0,0
-434,694,0,0,0,0,0,0,0,0,0,-1,790,330,0,0
-427,694,0,0,0,0,0,0,0,0,0,-1,797,330,0,0
-420,694,0,0,0,0,0,0,0,0,0,-1,804,330,0,0
-413,694,0,0,0,0,0,0,0,0,0,-1,811,330,0,0
-406,694,0,0,0,0,0,0,0,0,0,-1,818,330,0,0
-399,694,0,0,0,0,0,0,0,0,0,-1,825,330,0,0
-392,694,0,0,0,0,0,0,0,0,0,-1,832,330,0,0
-385,694,0,0,0,0,0,0,0,0,0,-1,839,330,0,0
-378,694,0,0,0,0,0,0,0,0,0,-1,846,330,0,0
-371,694,0,0,0,0,0,0,0,0,0,-1,853,330,0,0
-364,694,0,0,0,0,0,0,0,0,0,-1,860,330,0,0
-357,694,0,0,0,0,0,0,0,0,0,-1,867,330,0,0
-350,694,0,0,0,0,0,0,0,0,0,-1,874,330,0,0
-343,694,0,0,0,0,0,0,0,0,0,-1,881,330,0,0
-336,694,0,0,0,0,0,0,0,0,0,-1,888,330,0,0
-329,694,0,0,0,0,0,0,0,0,0,-1,895,330,0,0
-322,694,0,0,0,0,0,0,0,0,0,-1,902,330,0,0
-315,694,0,0,0,0,0,0,0,0,0,-1,909,330,0,0
-308,694,0,0,0,0,0,0,0,0,0,-1,916,330,0,0
-301,694,0,0,0,0,0,0,0,0,0,-1,923,330,0,0
-294,694,0,0,0,0,0,0,0,0,0,-1,930,330,0,0
-287,694,0,0,0,0,0,0,0,0,0,-1,937,330,0,0
-280,694,0,0,0,0,0,0,0,0,0,-1,944,330,0,0
-273,694,0,0,0,0,0,0,0,0,0,-1,951,330,0,0
-266,694,0,0,0,0,0,0,0,0,0,-1,958,330,0,0
-259,694,0,0,0,0,0,0,0,0,0,-1,965,330,0,0
-252,694,0,0,0,0,0,0,0,0,0,-1,972,330,0,0
-245,694,0,0,0,0,0,0,0,0,0,-1,979,330,0,0
-238,694,0,0,0,0,0,0,0,0,0,-1,986,330,0,0
-231,694,0,0,0,0,0,0,0,0,0,-1,993,330,0,0
-224,694,0,0,0,0,0,0,0,0,0,-1,1000,330,0,0
-217,694,0,0,0,0,0,0,0,0,0,-1,1007,330,0,0
-210,694,0,0,0,0,0,0,0,0,0,-1,1014,330,0,0
-203,694,0,0,0,0,0,0,0,0,0,-1,1021,330,0,0
-196,694,0,0,0,0,0,0,0,0,0,-1,1028,330,0,0
-189,694,0,0,0,0,0,0,0,0,0,-1,1035,330,0,0
-182,694,0,0,0,0,0,0,0,0,0,-1,1042,330,0,0
-175,694,0,0,0,0,0,0,0,0,0,-1,1049,330,0,0
-168,694,0,0,0,0,0,0,0,0,0,-1,1056,330,0,0
-161,694,0,0,0,0,0,0,0,0,0,-1,1063,330,0,0
-154,694,0,0,0,0,0,0,0,0,0,-1,1070,330,0,0
-147,694,0,0,0,0,0,0,0,0,0,-1,1077,330,0,0
-140,694,0,0,0,0,0,0,0,0,0,-1,1084,330,0,0
-133,694,0,0,0,0,0,0,0,0,0,-1,1091,330,0,0
-126,694,0,0,0,0,0,0,0,0,0,-1,1098,330,0,0
-119,694,0,0,0,0,0,0,0,0,0,-1,1105,330,0,0
-112,694,0,0,0,0,0,0,0,0,0,-1,1112,330,0,0
-105,694,2.5188,-19.3963,0,0,0,0,0,0,0,-1,1119,330,2.51882,19.3963
-98,694,1.34875,-10.1051,0,0,0,0,0,0,0,-1,1126,330,1.34874,10.1051
-91,694,1.35474,-9.22229,0,0,0,0,0,0,0,-1,1133,330,1.35476,9.22229
-84,694,-4.39136,-4.62332,0,0,0,0,0,0,0,-1,1140,330,-4.3914,4.62331
-77,694,-4.93396,-10.2672,0,0,0,0,0,0,0,-1,1147,330,-4.9339,10.2672
-70,694,-6.49402,-10.0714,0,0,0,0,0,0,0,-1,1154,330,-6.49399,10.0714
-63,694,-5.80835,-4.75275,0,0,0,0,0,0,0,-1,1161,330,-5.80834,4.75274
-56,694,-6.50623,-0.649139,0,0,0,0,0,0,0,-1,1168,330,-6.5062,0.649126
-49,694,-1.11426,0.0341797,0,0,0,0,0,0,0,-1,1175,330,-1.11424,-0.0341846
-42,694,-0.346313,-0.709595,0,0,0,0,0,0,0,-1,1182,330,-0.346298,0.709581
-35,694,-0.459106,-1.24713,0,0,0,0,0,0,0,-1,1189,330,-0.459142,1.24714
-28,694,-6.48413,-3.95972,0,0,0,0,0,0,0,-1,1196,330,-6.48414,3.9597
-21,694,2.89294,-19.8497,0,0,0,0,0,0,0,-1,1203,330,2.8929,19.8497
-14,694,3.1283,-19.7624,0,0,0,0,0,0,0,-1,1210,330,3.12828,19.7624
-7,694,3.41101,-19.5961,0,0,0,0,0,0,0,-1,1217,330,3.41105,19.5961
0,694,3.66736,-19.5285,0,0,0,0,0,0,0,-1,1224,330,3.66738,19.5285
7,694,3.85767,-19.5052,0,0,0,0,0,0,0,-1,1231,330,3.85767,19.5052
14,694,2.20557,-19.8546,0,0,0,0,0,0,0,-1,1238,330,2.20557,19.8546
21,694,2.25916,-20.1864,0,0,0,0,0,0,0,-1,1245,330,2.25911,20.1864
28,694,2.34375,-20.5675,0,0,0,0,0,0,0,-1,1252,330,2.34374,20.5675
35,694,2.46997,-20.9243,0.0245167,0.0387504,0.00378436,0.039694,0.0235731,1.32644,0.0230516,0.0452291,1259,330,2.46998,20.9243
42,694,2.50671,-22.3786,0.0278322,0.0330442,0.00790832,0.0387648,0.0221115,0.944557,0.0224547,0.0451758,1266,330,2.50671,22.3786
49,694,2.8728,-20.6822,0.0315116,0.0257238,0.0119135,0.0408776,0.0163578,0.666252,0.023757,0.0453854,1273,330,2.87274,20.6822
56,694,2.99939,-19.257,0.0366153,0.0161386,0.0158572,0.0452522,0.00750176,0.498739,0.0280045,0.0423266,1280,330,2.99933,19.257
63,694,3.10095,-17.8145,0.042796,0.00585601,0.0198224,0.0514197,-0.00276767,0.41035,0.0352386,0.0449206,1287,330,3.10092,17.8145
70,694,2.37671,-19.453,0.0496116,-0.00547621,0.0238411,0.0584966,-0.0143612,0.356731,0.0445629,0.0457614,1294,330,2.37675,19.453
77,694,3.63,-22.8578,0.0551501,-0.0143552,0.0266607,0.0641986,-0.0234037,0.327196,0.0523733,0.0447624,1301,330,3.63002,22.8579
84,694,3.94617,-21.9096,0.0602834,-0.0210914,0.0289014,0.0695034,-0.0303115,0.308812,0.0590904,0.0424479,1308,330,3.94619,21.9096
91,694,4.38965,-20.4415,0.062904,-0.0225596,0.0292284,0.0719439,-0.0315995,0.299952,0.0612748,0.045729,1315,330,4.3897,20.4415
98,694,4.60669,-18.8916,0,0,0,0,0,0,0,-1,1322,330,4.60674,18.8916
105,694,1.43628,-23.1807,0,0,0,0,0,0,0,-1,1329,330,1.43629,23.1807
112,694,1.92554,-22.1242,0,0,0,0,0,0,0,-1,1336,330,1.92552,22.1242
119,694,2.09521,-19.9702,0,0,0,0,0,0,0,-1,1343,330,2.09517,19.9702
126,694,1.98999,-19.6605,0.0632933,0.000582733,0.0117284,0.065415,-0.00153899,0.178969,0.044132,0.0451277,1350,330,1.99003,19.6605
133,694,1.78491,-19.723,0,0,0,0,0,0,0,-1,1357,330,1.78491,19.723
140,694,1.49402,-19.7568,0.0567543,0.0149193,0.00121375,0.0567895,0.0148841,0.0289802,0.0340021,0.0449951,1364,330,1.494,19.7568
147,694,1.29785,-19.8075,0.0550855,0.0191363,-0.00408543,0.0555439,0.0186779,-0.111746,0.0326364,0.0451403,1371,330,1.2978,19.8075
154,694,1.17761,-19.8134,0,0,0,0,0,0,0,-1,1378,330,1.1776,19.8134
161,694,-4.43298,-20.3649,0,0,0,0,0,0,0,-1,1385,330,-4.43294,20.3649
168,694,6.77161,1.01288,0,0,0,0,0,0,0,-1,1392,330,6.77156,-1.01287
175,694,6.72839,0.473175,0,0,0,0,0,0,0,-1,1399,330,6.72838,-0.473182
182,694,8.29028,5.75238,0,0,0,0,0,0,0,-1,1406,330,8.29034,-5.75237
189,694,7.9801,4.46118,0,0,0,0,0,0,0,-1,1413,330,7.9801,-4.46118
196,694,7.39331,3.32632,0,0,0,0,0,0,0,-1,1420,330,7.39329,-3.32633
203,694,7.04492,2.20529,0,0,0,0,0,0,0,-1,1427,330,7.04496,-2.20529
210,694,6.44714,0.646912,0,0,0,0,0,0,0,-1,1434,330,6.44717,-0.646903
217,694,7.12061,-0.644958,0,0,0,0,0,0,0,-1,1441,330,7.12059,0.644961
224,694,6.74011,-1.70544,0,0,0,0,0,0,0,-1,1448,330,6.74013,1.70546
231,694,0,0,0,0,0,0,0,0,0,-1,1455,330,0,0
238,694,0,0,0,0,0,0,0,0,0,-1,1462,330,0,0
245,694,0,0,0,0,0,0,0,0,0,-1,1469,330,0,0
252,694,0,0,0,0,0,0,0,0,0,-1,1476,330,0,0
259,694,0,0,0,0,0,0,0,0,0,-1,1483,330,0,0
266,694,0,0,0,0,0,0,0,0,0,-1,1490,330,0,0
273,694,0,0,0,0,0,0,0,0,0,-1,1497,330,0,0
280,694,0,0,0,0,0,0,0,0,0,-1,1504,330,0,0
287,694,0,0,0,0,0,0,0,0,0,-1,1511,330,0,0
294,694,0,0,0,0,0,0,0,0,0,-1,1518,330,0,0
301,694,0,0,0,0,0,0,0,0,0,-1,1525,330,0,0
308,694,0,0,0,0,0,0,0,0,0,-1,1532,330,0,0
315,694,0,0,0,0,0,0,0,0,0,-1,1539,330,0,0
322,694,0,0,0,0,0,0,0,0,0,-1,1546,330,0,0
329,694,0,0,0,0,0,0,0,0,0,-1,1553,330,0,0
336,694,0,0,0,0,0,0,0,0,0,-1,1560,330,0,0
343,694,0,0,0,0,0,0,0,0,0,-1,1567,330,0,0
350,694,0,0,0,0,0,0,0,0,0,-1,1574,330,0,0
357,694,0,0,0,0,0,0,0,0,0,-1,1581,330,0,0
364,694,0,0,0,0,0,0,0,0,0,-1,1588,330,0,0
371,694,0,0,0,0,0,0,0,0,0,-1,1595,330,0,0
378,694,0,0,0,0,0,0,0,0,0,-1,1602,330,0,0
385,694,0,0,0,0,0,0,0,0,0,-1,1609,330,0,0
392,694,0,0,0,0,0,0,0,0,0,-1,1616,330,0,0
399,694,0,0,0,0,0,0,0,0,0,-1,1623,330,0,0
406,694,0,0,0,0,0,0,0,0,0,-1,1630,330,0,0
413,694,0,0,0,0,0,0,0,0,0,-1,1637,330,0,0
420,694,0,0,0,0,0,0,0,0,0,-1,1644,330,0,0
427,694,0,0,0,0,0,0,0,0,0,-1,1651,330,0,0
434,694,0,0,0,0,0,0,0,0,0,-1,1658,330,0,0
441,694,0,0,0,0,0,0,0,0,0,-1,1665,330,0,0
448,694,0,0,0,0,0,0,0,0,0,-1,1672,330,0,0
455,694,0,0,0,0,0,0,0,0,0,-1,1679,330,0,0
462,694,0,0,0,0,0,0,0,0,0,-1,1686,330,0,0
469,694,0,0,0,0,0,0,0,0,0,-1,1693,330,0,0
476,694,0,0,0,0,0,0,0,0,0,-1,1700,330,0,0
483,694,0,0,0,0,0,0,0,0,0,-1,1707,330,0,0
490,694,0,0,0,0,0,0,0,0,0,-1,1714,330,0,0
497,694,0,0,0,0,0,0,0,0,0,-1,1721,330,0,0
504,694,0,0,0,0,0,0,0,0,0,-1,1728,330,0,0
511,694,0,0,0,0,0,0,0,0,0,-1,1735,330,0,0
518,694,0,0,0,0,0,0,0,0,0,-1,1742,330,0,0
525,694,0,0,0,0,0,0,0,0,0,-1,1749,330,0,0
532,694,0,0,0,0,0,0,0,0,0,-1,1756,330,0,0
539,694,0,0,0,0,0,0,0,0,0,-1,1763,330,0,0
546,694,0,0,0,0,0,0,0,0,0,-1,1770,330,0,0
553,694,0,0,0,0,0,0,0,0,0,-1,1777,330,0,0
560,694,0,0,0,0,0,0,0,0,0,-1,1784,330,0,0
567,694,0,0,0,0,0,0,0,0,0,-1,1791,330,0,0
574,694,0,0,0,0,0,0,0,0,0,-1,1798,330,0,0
581,694,0,0,0,0,0,0,0,0,0,-1,1805,330,0,0
588,694,0,0,0,0,0,0,0,0,0,-1,1812,330,0,0
595,694,0,0,0,0,0,0,0,0,0,-1,1819,330,0,0
602,694,0,0,0,0,0,0,0,0,0,-1,1826,330,0,0
609,694,0,0,0,0,0,0,0,0,0,-1,1833,330,0,0
616,694,0,0,0,0,0,0,0,0,0,-1,1840,330,0,0
623,694,0,0,0,0,0,0,0,0,0,-1,1847,330,0,0
630,694,0,0,0,0,0,0,0,0,0,-1,1854,330,0,0
637,694,0,0,0,0,0,0,0,0,0,-1,1861,330,0,0
644,694,0,0,0,0,0,0,0,0,0,-1,1868,330,0,0
651,694,0,0,0,0,0,0,0,0,0,-1,1875,330,0,0
658,694,0,0,0,0,0,0,0,0,0,-1,1882,330,0,0
665,694,0,0,0,0,0,0,0,0,0,-1,1889,330,0,0
672,694,0,0,0,0,0,0,0,0,0,-1,1896,330,0,0
679,694,0,0,0,0,0,0,0,0,0,-1,1903,330,0,0
686,694,0,0,0,0,0,0,0,0,0,-1,1910,330,0,0
693,694,0,0,0,0,0,0,0,0,0,-1,1917,330,0,0
700,694,0,0,0,0,0,0,0,0,0,-1,1924,330,0,0
707,694,0,0,0,0,0,0,0,0,0,-1,1931,330,0,0
714,694,0,0,0,0,0,0,0,0,0,-1,1938,330,0,0
721,694,0,0,0,0,0,0,0,0,0,-1,1945,330,0,0
728,694,0,0,0,0,0,0,0,0,0,-1,1952,330,0,0
735,694,0,0,0,0,0,0,0,0,0,-1,1959,330,0,0
742,694,0,0,0,0,0,0,0,0,0,-1,1966,330,0,0
749,694,0,0,0,0,0,0,0,0,0,-1,1973,330,0,0
756,694,0,0,0,0,0,0,0,0,0,-1,1980,330,0,0
763,694,0,0,0,0,0,0,0,0,0,-1,1987,330,0,0
770,694,0,0,0,0,0,0,0,0,0,-1,1994,330,0,0
777,694,0,0,0,0,0,0,0,0,0,-1,2001,330,0,0
784,694,0,0,0,0,0,0,0,0,0,-1,2008,330,0,0
791,694,0,0,0,0,0,0,0,0,0,-1,2015,330,0,0
798,694,0,0,0,0,0,0,0,0,0,-1,2022,330,0,0
805,694,0,0,0,0,0,0,0,0,0,-1,2029,330,0,0
812,694,0,0,0,0,0,0,0,0,0,-1,2036,330,0,0
-700,687,0,0,0,0,0,0,0,0,0,-1,524,337,0,0
-693,687,0,0,0,0,0,0,0,0,0,-1,531,337,0,0
-686,687,0,0,0,0,0,0,0,0,0,-1,538,337,0,0
-679,687,0,0,0,0,0,0,0,0,0,-1,545,337,0,0
-672,687,0,0,0,0,0,0,0,0,0,-1,552,337,0,0
-665,687,0,0,0,0,0,0,0,0,0,-1,559,337,0,0
-658,687,0,0,0,0,0,0,0,0,0,-1,566,337,0,0
-651,687,0,0,0,0,0,0,0,0,0,-1,573,337,0,0
-644,687,0,0,0,0,0,0,0,0,0,-1,580,337,0,0
-637,687,0,0,0,0,0,0,0,0,0,-1,587,337,0,0
-630,687,0,0,0,0,0,0,0,0,0,-1,594,337,0,0
-623,687,0,0,0,0,0,0,0,0,0,-1,601,337,0,0
-616,687,0,0,0,0,0,0,0,0,0,-1,608,337,0,0
-609,687,0,0,0,0,0,0,0,0,0,-1,615,337,0,0
-602,687,0,0,0,0,0,0,0,0,0,-1,622,337,0,0
-595,687,0,0,0,0,0,0,0,0,0,-1,629,337,0,0
-588,687,0,0,0,0,0,0,0,0,0,-1,636,337,0,0
-581,687,0,0,0,0,0,0,0,0,0,-1,643,337,0,0
-574,687,0,0,0,0,0,0,0,0,0,-1,650,337,0,0
-567,687,0,0,0,0,0,0,0,0,0,-1,657,337,0,0
-560,687,0,0,0,0,0,0,0,0,0,-1,664,337,0,0
-553,687,0,0,0,0,0,0,0,0,0,-1,671,337,0,0
-546,687,0,0,0,0,0,0,0,0,0,-1,678,337,0,0
-539,687,0,0,0,0,0,0,0,0,0,-1,685,337,0,0
-532,687,0,0,0,0,0,0,0,0,0,-1,692,337,0,0
-525,687,0,0,0,0,0,0,0,0,0,-1,699,337,0,0
-518,687,0,0,0,0,0,0,0,0,0,-1,706,337,0,0
-511,687,0,0,0,0,0,0,0,0,0,-1,713,337,0,0
-504,687,0,0,0,0,0,0,0,0,0,-1,720,337,0,0
-497,687,0,0,0,0,0,0,0,0,0,-1,727,337,0,0
-490,687,0,0,0,0,0,0,0,0,0,-1,734,337,0,0
-483,687,0,0,0,0,0,0,0,0,0,-1,741,337,0,0
-476,687,0,0,0,0,0,0,0,0,0,-1,748,337,0,0
-469,687,0,0,0,0,0,0,0,0,0,-1,755,337,0,0
-462,687,0,0,0,0,0,0,0,0,0,-1,762,337,0,0
-455,687,0,0,0,0,0,0,0,0,0,-1,769,337,0,0
-448,687,0,0,0,0,0,0,0,0,0,-1,776,337,0,0
-441,687,0,0,0,0,0,0,0,0,0,-1,783,337,0,0
-434,687,0,0,0,0,0,0,0,0,0,-1,790,337,0,0
-427,687,0,0,0,0,0,0,0,0,0,-1,797,337,0,0
-420,687,0,0,0,0,0,0,0,0,0,-1,804,337,0,0
-413,687,0,0,0,0,0,0,0,0,0,-1,811,337,0,0
-406,687,0,0,0,0,0,0,0,0,0,-1,818,337,0,0
-399,687,0,0,0,0,0,0,0,0,0,-1,825,337,0,0
-392,687,0,0,0,0,0,0,0,0,0,-1,832,337,0,0
-385,687,0,0,0,0,0,0,0,0,0,-1,839,337,0,0
-378,687,0,0,0,0,0,0,0,0,0,-1,846,337,0,0
-371,687,0,0,0,0,0,0,0,0,0,-1,853,337,0,0
-364,687,0,0,0,0,0,0,0,0,0,-1,860,337,0,0
-357,687,0,0,0,0,0,0,0,0,0,-1,867,337,0,0
-350,687,0,0,0,0,0,0,0,0,0,-1,874,337,0,0
-343,687,0,0,0,0,0,0,0,0,0,-1,881,337,0,0
-336,687,0,0,0,0,0,0,0,0,0,-1,888,337,0,0
-329,687,0,0,0,0,0,0,0,0,0,-1,895,337,0,0
-322,687,0,0,0,0,0,0,0,0,0,-1,902,337,0,0
-315,687,0,0,0,0,0,0,0,0,0,-1,909,337,0,0
-308,687,0,0,0,0,0,0,0,0,0,-1,916,337,0,0
-301,687,0,0,0,0,0,0,0,0,0,-1,923,337,0,0
-294,687,0,0,0,0,0,0,0,0,0,-1,930,337,0,0
-287,687,0,0,0,0,0,0,0,0,0,-1,937,337,0,0
-280,687,0,0,0,0,0,0,0,0,0,-1,944,337,0,0
-273,687,0,0,0,0,0,0,0,0,0,-1,951,337,0,0
-266,687,0,0,0,0,0,0,0,0,0,-1,958,337,0,0
-259,687,0,0,0,0,0,0,0,0,0,-1,965,337,0,0
-252,687,0,0,0,0,0,0,0,0,0,-1,972,337,0,0
-245,687,0,0,0,0,0,0,0,0,0,-1,979,337,0,0
-238,687,0,0,0,0,0,0,0,0,0,-1,986,337,0,0
-231,687,0,0,0,0,0,0,0,0,0,-1,993,337,0,0
-224,687,0,0,0,0,0,0,0,0,0,-1,1000,337,0,0
-217,687,0,0,0,0,0,0,0,0,0,-1,1007,337,0,0
-210,687,0,0,0,0,0,0,0,0,0,-1,1014,337,0,0
-203,687,0,0,0,0,0,0,0,0,0,-1,1021,337,0,0
-196,687,0,0,0,0,0,0,0,0,0,-1,1028,337,0,0
-189,687,0,0,0,0,0,0,0,0,0,-1,1035,337,0,0
-182,687,0,0,0,0,0,0,0,0,0,-1,1042,337,0,0
-175,687,0,0,0,0,0,0,0,0,0,-1,1049,337,0,0
-168,687,0,0,0,0,0,0,0,0,0,-1,1056,337,0,0
-161,687,0,0,0,0,0,0,0,0,0,-1,1063,337,0,0
-154,687,0,0,0,0,0,0,0,0,0,-1,1070,337,0,0
-147,687,0,0,0,0,0,0,0,0,0,-1,1077,337,0,0
-140,687,0,0,0,0,0,0,0,0,0,-1,1084,337,0,0
-133,687,2.16895,-19.4911,0,0,0,0,0,0,0,-1,1091,337,2.16889,19.4911
-126,687,3.54932,-20.9862,0,0,0,0,0,0,0,-1,1098,337,3.54935,20.9862
-119,687,3.22107,-18.9146,0,0,0,0,0,0,0,-1,1105,337,3.22101,18.9146
-112,687,3.47534,-17.9837,0,0,0,0,0,0,0,-1,1112,337,3.47529,17.9837
-105,687,3.57935,-16.7483,0,0,0,0,0,0,0,-1,1119,337,3.57937,16.7483
-98,687,3.33679,-15.4141,0,0,0,0,0,0,0,-1,1126,337,3.33683,15.4141
-91,687,2.28162,-7.72437,0,0,0,0,0,0,0,-1,1133,337,2.28167,7.72437
-84,687,-0.867676,-5.7392,0,0,0,0,0,0,0,-1,1140,337,-0.867619,5.73919
-77,687,-3.63806,-12.9185,0,0,0,0,0,0,0,-1,1147,337,-3.6381,12.9185
-70,687,-6.24756,-13.2618,0,0,0,0,0,0,0,-1,1154,337,-6.24752,13.2618
-63,687,-8.37585,-12.8959,0,0,0,0,0,0,0,-1,1161,337,-8.3758,12.8959
-56,687,-15.0063,-14.5764,0,0,0,0,0,0,0,-1,1168,337,-15.0063,14.5764
-49,687,-15.6449,-9.94391,0,0,0,0,0,0,0,-1,1175,337,-15.6449,9.94392
-42,687,-4.2019,-0.405609,0,0,0,0,0,0,0,-1,1182,337,-4.20192,0.405614
-35,687,-4.42273,-0.688171,0,0,0,0,0,0,0,-1,1189,337,-4.42276,0.688178
-28,687,-1.14038,-1.39072,0,0,0,0,0,0,0,-1,1196,337,-1.14035,1.3907
-21,687,3.18909,-19.8344,0,0,0,0,0,0,0,-1,1203,337,3.18911,19.8344
-14,687,3.14648,-19.7301,0,0,0,0,0,0,0,-1,1210,337,3.1465,19.7301
-7,687,3.38464,-19.606,0,0,0,0,0,0,0,-1,1217,337,3.38466,19.606
0,687,3.57935,-19.5633,0,0,0,0,0,0,0,-1,1224,337,3.5794,19.5633
7,687,3.09766,-20.9128,0,0,0,0,0,0,0,-1,1231,337,3.09767,20.9128
14,687,3.10645,-20.7556,0,0,0,0,0,0,0,-1,1238,337,3.1065,20.7557
21,687,3.11414,-20.7202,0,0,0,0,0,0,0,-1,1245,337,3.11417,20.7201
28,687,3.17432,-20.6619,0,0,0,0,0,0,0,-1,1252,337,3.17428,20.6619
35,687,3.01697,-20.6633,0,0,0,0,0,0,0,-1,1259,337,3.01698,20.6633
42,687,2.95093,-20.4553,0,0,0,0,0,0,0,-1,1266,337,2.95089,20.4553
49,687,3.24011,-20.2434,0,0,0,0,0,0,0,-1,1273,337,3.24006,20.2434
56,687,3.45679,-19.8948,0.0277928,0.01552,0.0112138,0.0344394,0.00887342,0.535045,0.0206475,0.0449981,1280,337,3.45676,19.8949
63,687,2.65393,-19.5307,0.0324922,0.00815862,0.0142645,0.039074,0.00157687,0.432299,0.0255399,0.0444663,1287,337,2.65391,19.5307
70,687,2.49487,-19.6512,0.0375622,-4.85845e-05,0.0174108,0.0443845,-0.00687088,0.373455,0.0321258,0.0412521,1294,337,2.49491,19.6512
77,687,2.35791,-19.8208,0.041599,-0.00653711,0.0196877,0.0486256,-0.0135637,0.342811,0.0377593,0.0455254,1301,337,2.35786,19.8208
84,687,3.75928,-21.2659,0.045259,-0.011583,0.0215349,0.0524961,-0.0188202,0.324209,0.0426773,0.0439914,1308,337,3.75931,21.2659
91,687,4.09961,-20.6997,0.0474194,-0.0132014,0.0220862,0.0546126,-0.0203946,0.314854,0.0447823,0.0473482,1315,337,4.09962,20.6997
98,687,3.74341,-20.2435,0,0,0,0,0,0,0,-1,1322,337,3.74345,20.2435
105,687,2.53772,-23.9806,0,0,0,0,0,0,0,-1,1329,337,2.53773,23.9806
112,687,3.16223,-23.2419,0,0,0,0,0,0,0,-1,1336,337,3.16224,23.2419
119,687,2.43274,-20.1668,0,0,0,0,0,0,0,-1,1343,337,2.43276,20.1668
126,687,2.30933,-19.8583,0,0,0,0,0,0,0,-1,1350,337,2.30931,19.8583
133,687,2.18591,-19.5499,0,0,0,0,0,0,0,-1,1357,337,2.18586,19.5499
140,687,1.46814,-19.7976,0.0444737,0.0133156,0.00180371,0.0445778,0.0132116,0.0576324,0.0264389,0.048513,1364,337,1.46811,19.7976
147,687,2.89343,-19.9684,0.0437039,0.016376,-0.00257327,0.0439441,0.0161358,-0.0930725,0.0256677,0.0492762,1371,337,2.89341,19.9685
154,687,3.06506,-19.6516,0,0,0,0,0,0,0,-1,1378,337,3.06508,19.6516
161,687,2.44641,-15.2103,0,0,0,0,0,0,0,-1,1385,337,2.44636,15.2103
168,687,6.66968,1.37039,0,0,0,0,0,0,0,-1,1392,337,6.6697,-1.37039
175,687,6.64075,0.771606,0,0,0,0,0,0,0,-1,1399,337,6.64073,-0.771595
182,687,6.67249,0.289917,0,0,0,0,0,0,0,-1,1406,337,6.67247,-0.289916
189,687,7.76062,4.53635,0,0,0,0,0,0,0,-1,1413,337,7.76064,-4.53636
196,687,6.99048,3.2966,0,0,0,0,0,0,0,-1,1420,337,6.99046,-3.2966
203,687,6.36499,2.1445,0,0,0,0,0,0,0,-1,1427,337,6.36499,-2.14451
210,687,6.68066,0.674652,0,0,0,0,0,0,0,-1,1434,337,6.68062,-0.674655
217,687,5.99683,-0.630493,0,0,0,0,0,0,0,-1,1441,337,5.99684,0.630497
224,687,5.52917,0.524902,0,0,0,0,0,0,0,-1,1448,337,5.5292,-0.524915
231,687,5.85583,-1.73651,0,0,0,0,0,0,0,-1,1455,337,5.85577,1.73651
238,687,5.96582,-2.96774,0,0,0,0,0,0,0,-1,1462,337,5.96577,2.96773
245,687,1.28259,2.32211,0,0,0,0,0,0,0,-1,1469,337,1.28258,-2.32211
252,687,1.97278,3.88422,0,0,0,0,0,0,0,-1,1476,337,1.97281,-3.88421
259,687,0,0,0,0,0,0,0,0,0,-1,1483,337,0,0
266,687,0,0,0,0,0,0,0,0,0,-1,1490,337,0,0
273,687,0,0,0,0,0,0,0,0,0,-1,1497,337,0,0
280,687,0,0,0,0,0,0,0,0,0,-1,1504,337,0,0
287,687,0,0,0,0,0,0,0,0,0,-1,1511,337,0,0
294,687,0,0,0,0,0,0,0,0,0,-1,1518,337,0,0
301,687,0,0,0,0,0,0,0,0,0,-1,1525,337,0,0
308,687,0,0,0,0,0,0,0,0,0,-1,1532,337,0,0
315,687,0,0,0,0,0,0,0,0,0,-1,1539,337,0,0
322,687,0,0,0,0,0,0,0,0,0,-1,1546,337,0,0
329,687,0,0,0,0,0,0,0,0,0,-1,1553,337,0,0
336,687,0,0,0,0,0,0,0,0,0,-1,1560,337,0,0
343,687,0,0,0,0,0,0,0,0,0,-1,1567,337,0,0
350,687,0,0,0,0,0,0,0,0,0,-1,1574,337,0,0
357,687,0,0,0,0,0,0,0,0,0,-1,1581,337,0,0
364,687,0,0,0,0,0,0,0,0,0,-1,1588,337,0,0
371,687,0,0,0,0,0,0,0,0,0,-1,1595,337,0,0
378,687,0,0,0,0,0,0,0,0,0,-1,1602,337,0,0
385,687,0,0,0,0,0,0,0,0,0,-1,1609,337,0,0
392,687,0,0,0,0,0,0,0,0,0,-1,1616,337,0,0
399,687,0,0,0,0,0,0,0,0,0,-1,1623,337,0,0
406,687,0,0,0,0,0,0,0,0,0,-1,1630,337,0,0
413,687,0,0,0,0,0,0,0,0,0,-1,1637,337,0,0
420,687,0,0,0,0,0,0,0,0,0,-1,1644,337,0,0
427,687,0,0,0,0,0,0,0,0,0,-1,1651,337,0,0
434,687,0,0,0,0,0,0,0,0,0,-1,1658,337,0,0
441,687,0,0,0,0,0,0,0,0,0,-1,1665,337,0,0
448,687,0,0,0,0,0,0,0,0,0,-1,1672,337,0,0
455,687,0,0,0,0,0,0,0,0,0,-1,1679,337,0,0
462,687,0,0,0,0,0,0,0,0,0,-1,1686,337,0,0
469,687,0,0,0,0,0,0,0,0,0,-1,1693,337,0,0
476,687,0,0,0,0,0,0,0,0,0,-1,1700,337,0,0
483,687,0,0,0,0,0,0,0,0,0,-1,1707,337,0,0
490,687,0,0,0,0,0,0,0,0,0,-1,1714,337,0,0
497,687,0,0,0,0,0,0,0,0,0,-1,1721,337,0,0
504,687,0,0,0,0,0,0,0,0,0,-1,1728,337,0,0
511,687,0,0,0,0,0,0,0,0,0,-1,1735,337,0,0
518,687,0,0,0,0,0,0,0,0,0,-1,1742,337,0,0
525,687,0,0,0,0,0,0,0,0,0,-1,1749,337,0,0
532,687,0,0,0,0,0,0,0,0,0,-1,1756,337,0,0
539,687,0,0,0,0,0,0,0,0,0,-1,1763,337,0,0
546,687,0,0,0,0,0,0,0,0,0,-1,1770,337,0,0
553,687,0,0,0,0,0,0,0,0,0,-1,1777,337,0,0
560,687,0,0,0,0,0,0,0,0,0,-1,1784,337,0,0
567,687,0,0,0,0,0,0,0,0,0,-1,1791,337,0,0
574,687,0,0,0,0,0,0,0,0,0,-1,1798,337,0,0
581,687,0,0,0,0,0,0,0,0,0,-1,1805,337,0,0
588,687,0,0,0,0,0,0,0,0,0,-1,1812,337,0,0
595,687,0,0,0,0,0,0,0,0,0,-1,1819,337,0,0
602,687,0,0,0,0,0,0,0,0,0,-1,1826,337,0,0
609,687,0,0,0,0,0,0,0,0,0,-1,1833,337,0,0
616,687,0,0,0,0,0,0,0,0,0,-1,1840,337,0,0
623,687,0,0,0,0,0,0,0,0,0,-1,1847,337,0,0
630,687,0,0,0,0,0,0,0,0,0,-1,1854,337,0,0
637,687,0,0,0,0,0,0,0,0,0,-1,1861,337,0,0
644,687,0,0,0,0,0,0,0,0,0,-1,1868,337,0,0
651,687,0,0,0,0,0,0,0,0,0,-1,1875,337,0,0
658,687,0,0,0,0,0,0,0,0,0,-1,1882,337,0,0
665,687,0,0,0,0,0,0,0,0,0,-1,1889,337,0,0
672,687,0,0,0,0,0,0,0,0,0,-1,1896,337,0,0
679,687,0,0,0,0,0,0,0,0,0,-1,1903,337,0,0
686,687,0,0,0,0,0,0,0,0,0,-1,1910,337,0,0
693,687,0,0,0,0,0,0,0,0,0,-1,1917,337,0,0
700,687,0,0,0,0,0,0,0,0,0,-1,1924,337,0,0
707,687,0,0,0,0,0,0,0,0,0,-1,1931,337,0,0
714,687,0,0,0,0,0,0,0,0,0,-1,1938,337,0,0
721,687,0,0,0,0,0,0,0,0,0,-1,1945,337,0,0
728,687,0,0,0,0,0,0,0,0,0,-1,1952,337,0,0
735,687,0,0,0,0,0,0,0,0,0,-1,1959,337,0,0
742,687,0,0,0,0,0,0,0,0,0,-1,1966,337,0,0
749,687,0,0,0,0,0,0,0,0,0,-1,1973,337,0,0
756,687,0,0,0,0,0,0,0,0,0,-1,1980,337,0,0
763,687,0,0,0,0,0,0,0,0,0,-1,1987,337,0,0
770,687,0,0,0,0,0,0,0,0,0,-1,1994,337,0,0
777,687,0,0,0,0,0,0,0,0,0,-1,2001,337,0,0
784,687,0,0,0,0,0,0,0,0,0,-1,2008,337,0,0
791,687,0,0,0,0,0,0,0,0,0,-1,2015,337,0,0
798,687,0,0,0,0,0,0,0,0,0,-1,2022,337,0,0
805,687,0,0,0,0,0,0,0,0,0,-1,2029,337,0,0
812,687,0,0,0,0,0,0,0,0,0,-1,2036,337,0,0
-700,680,0,0,0,0,0,0,0,0,0,-1,524,344,0,0
-693,680,0,0,0,0,0,0,0,0,0,-1,531,344,0,0
-686,680,0,0,0,0,0,0,0,0,0,-1,538,344,0,0
-679,680,0,0,0,0,0,0,0,0,0,-1,545,344,0,0
-672,680,0,0,0,0,0,0,0,0,0,-1,552,344,0,0
-665,680,0,0,0,0,0,0,0,0,0,-1,559,344,0,0
-658,680,0,0,0,0,0,0,0,0,0,-1,566,344,0,0
-651,680,0,0,0,0,0,0,0,0,0,-1,573,344,0,0
-644,680,0,0,0,0,0,0,0,0,0,-1,580,344,0,0
-637,680,0,0,0,0,0,0,0,0,0,-1,587,344,0,0
-630,680,0,0,0,0,0,0,0,0,0,-1,594,344,0,0
-623,680,0,0,0,0,0,0,0,0,0,-1,601,344,0,0
-616,680,0,0,0,0,0,0,0,0,0,-1,608,344,0,0
-609,680,0,0,0,0,0,0,0,0,0,-1,615,344,0,0
-602,680,0,0,0,0,0,0,0,0,0,-1,622,344,0,0
-595,680,0,0,0,0,0,0,0,0,0,-1,629,344,0,0
-588,680,0,0,0,0,0,0,0,0,0,-1,636,344,0,0
-581,680,0,0,0,0,0,0,0,0,0,-1,643,344,0,0
-574,680,0,0,0,0,0,0,0,0,0,-1,650,344,0,0
-567,680,0,0,0,0,0,0,0,0,0,-1,657,344,0,0
-560,680,0,0,0,0,0,0,0,0,0,-1,664,344,0,0
-553,680,0,0,0,0,0,0,0,0,0,-1,671,344,0,0
-546,680,0,0,0,0,0,0,0,0,0,-1,678,344,0,0
-539,680,0,0,0,0,0,0,0,0,0,-1,685,344,0,0
-532,680,0,0,0,0,0,0,0,0,0,-1,692,344,0,0
-525,680,0,0,0,0,0,0,0,0,0,-1,699,344,0,0
-518,680,0,0,0,0,0,0,0,0,0,-1,706,344,0,0
-511,680,0,0,0,0,0,0,0,0,0,-1,713,344,0,0
-504,680,0,0,0,0,0,0,0,0,0,-1,720,344,0,0
-497,680,0,0,0,0,0,0,0,0,0,-1,727,344,0,0
-490,680,0,0,0,0,0,0,0,0,0,-1,734,344,0,0
-483,680,0,0,0,0,0,0,0,0,0,-1,741,344,0,0
-476,680,0,0,0,0,0,0,0,0,0,-1,748,344,0,0
-469,680,0,0,0,0,0,0,0,0,0,-1,755,344,0,0
-462,680,0,0,0,0,0,0,0,0,0,-1,762,344,0,0
-455,680,0,0,0,0,0,0,0,0,0,-1,769,344,0,0
-448,680,0,0,0,0,0,0,0,0,0,-1,776,344,0,0
-441,680,0,0,0,0,0,0,0,0,0,-1,783,344,0,0
-434,680,0,0,0,0,0,0,0,0,0,-1,790,344,0,0
-427,680,0,0,0,0,0,0,0,0,0,-1,797,344,0,0
-420,680,0,0,0,0,0,0,0,0,0,-1,804,344,0,0
-413,680,0,0,0,0,0,0,0,0,0,-1,811,344,0,0
-406,680,0,0,0,0,0,0,0,0,0,-1,818,344,0,0
-399,680,0,0,0,0,0,0,0,0,0,-1,825,344,0,0
-392,680,0,0,0,0,0,0,0,0,0,-1,832,344,0,0
-385,680,0,0,0,0,0,0,0,0,0,-1,839,344,0,0
-378,680,0,0,0,0,0,0,0,0,0,-1,846,344,0,0
-371,680,0,0,0,0,0,0,0,0,0,-1,853,344,0,0
-364,680,0,0,0,0,0,0,0,0,0,-1,860,344,0,0
-357,680,0,0,0,0,0,0,0,0,0,-1,867,344,0,0
-350,680,0,0,0,0,0,0,0,0,0,-1,874,344,0,0
-343,680,0,0,0,0,0,0,0,0,0,-1,881,344,0,0
-336,680,0,0,0,0,0,0,0,0,0,-1,888,344,0,0
-329,680,0,0,0,0,0,0,0,0,0,-1,895,344,0,0
-322,680,0,0,0,0,0,0,0,0,0,-1,902,344,0,0
-315,680,0,0,0,0,0,0,0,0,0,-1,909,344,0,0
-308,680,0,0,0,0,0,0,0,0,0,-1,916,344,0,0
-301,680,0,0,0,0,0,0,0,0,0,-1,923,344,0,0
-294,680,0,0,0,0,0,0,0,0,0,-1,930,344,0,0
-287,680,0,0,0,0,0,0,0,0,0,-1,937,344,0,0
-280,680,0,0,0,0,0,0,0,0,0,-1,944,344,0,0
-273,680,0,0,0,0,0,0,0,0,0,-1,951,344,0,0
-266,680,0,0,0,0,0,0,0,0,0,-1,958,344,0,0
-259,680,0,0,0,0,0,0,0,0,0,-1,965,344,0,0
-252,680,0,0,0,0,0,0,0,0,0,-1,972,344,0,0
-245,680,0,0,0,0,0,0,0,0,0,-1,979,344,0,0
-238,680,0,0,0,0,0,0,0,0,0,-1,986,344,0,0
-231,680,0,0,0,0,0,0,0,0,0,-1,993,344,0,0
-224,680,0,0,0,0,0,0,0,0,0,-1,1000,344,0,0
-217,680,0,0,0,0,0,0,0,0,0,-1,1007,344,0,0
-210,680,0,0,0,0,0,0,0,0,0,-1,1014,344,0,0
-203,680,0,0,0,0,0,0,0,0,0,-1,1021,344,0,0
-196,680,0,0,0,0,0,0,0,0,0,-1,1028,344,0,0
-189,680,0,0,0,0,0,0,0,0,0,-1,1035,344,0,0
-182,680,0,0,0,0,0,0,0,0,0,-1,1042,344,0,0
-175,680,0,0,0,0,0,0,0,0,0,-1,1049,344,0,0
-168,680,0,0,0,0,0,0,0,0,0,-1,1056,344,0,0
-161,680,0,0,0,0,0,0,0,0,0,-1,1063,344,0,0
-154,680,3.55957,-21.9337,0,0,0,0,0,0,0,-1,1070,344,3.55954,21.9337
-147,680,4.37744,-22.0085,0,0,0,0,0,0,0,-1,1077,344,4.37745,22.0085
-140,680,5.27588,-21.7303,0,0,0,0,0,0,0,-1,1084,344,5.27585,21.7303
-133,680,2.50281,-20.2481,0,0,0,0,0,0,0,-1,1091,344,2.50278,20.2481
-126,680,5.16162,-19.9043,0,0,0,0,0,0,0,-1,1098,344,5.16163,19.9043
-119,680,4.76501,-19.8354,0,0,0,0,0,0,0,-1,1105,344,4.76498,19.8354
-112,680,4.48657,-19.894,0,0,0,0,0,0,0,-1,1112,344,4.48656,19.894
-105,680,3.67236,-16.5804,0,0,0,0,0,0,0,-1,1119,344,3.6724,16.5803
-98,680,3.63757,-15.6561,0,0,0,0,0,0,0,-1,1126,344,3.63751,15.6561
-91,680,2.73938,-14.278,0,0,0,0,0,0,0,-1,1133,344,2.73941,14.278
-84,680,1.92285,-8.71033,0,0,0,0,0,0,0,-1,1140,344,1.92286,8.71034
-77,680,-2.41516,-7.36899,0,0,0,0,0,0,0,-1,1147,344,-2.41511,7.36899
-70,680,-6.00818,-14.159,0,0,0,0,0,0,0,-1,1154,344,-6.00822,14.159
-63,680,-5.41333,-13.0013,0,0,0,0,0,0,0,-1,1161,344,-5.41332,13.0013
-56,680,-6.96912,-8.83356,0,0,0,0,0,0,0,-1,1168,344,-6.96907,8.83354
-49,680,-6.7677,-2.24063,0,0,0,0,0,0,0,-1,1175,344,-6.76772,2.24063
-42,680,-1.02368,0.618805,0,0,0,0,0,0,0,-1,1182,344,-1.0237,-0.618797
-35,680,-0.947876,-0.942719,0,0,0,0,0,0,0,-1,1189,344,-0.947842,0.942731
-28,680,-1.46118,-1.10574,0,0,0,0,0,0,0,-1,1196,344,-1.4612,1.10575
-21,680,3.30566,-19.6724,0,0,0,0,0,0,0,-1,1203,344,3.30567,19.6724
-14,680,3.62695,-20.36,0,0,0,0,0,0,0,-1,1210,344,3.62697,20.36
-7,680,3.48999,-20.6552,0,0,0,0,0,0,0,-1,1217,344,3.48999,20.6552
0,680,3.33752,-20.6823,0,0,0,0,0,0,0,-1,1224,344,3.33755,20.6822
7,680,3.33594,-20.6932,0,0,0,0,0,0,0,-1,1231,344,3.33596,20.6932
14,680,3.27698,-20.7001,0,0,0,0,0,0,0,-1,1238,344,3.27692,20.7001
21,680,3.27051,-20.6945,0.00856627,0.0267926,-0.00260784,0.0271584,0.00820048,-1.43144,0.0160847,0.0457093,1245,344,3.27055,20.6945
28,680,3.2915,-20.6736,0.0106621,0.0257734,-0.00112368,0.0258565,0.010579,-1.49698,0.0150102,0.0462665,1252,344,3.29155,20.6736
35,680,3.13818,-20.6505,0,0,0,0,0,0,0,-1,1259,344,3.13821,20.6505
42,680,3.12585,-20.5758,0.0155441,0.0215385,0.00355769,0.0231933,0.0138894,1.13545,0.0134776,0.0457588,1266,344,3.1258,20.5758
49,680,3.27075,-20.4817,0.0176213,0.0185449,0.00571894,0.0238207,0.0123456,0.825686,0.0137559,0.043051,1273,344,3.27074,20.4817
56,680,3.35425,-20.3614,0.020388,0.0142165,0.00773327,0.0256284,0.00897604,0.595565,0.0150162,0.0406749,1280,344,3.35429,20.3614
63,680,3.09058,-19.9475,0.0238635,0.00914262,0.0100195,0.0289355,0.00407059,0.468608,0.0180868,0.037201,1287,344,3.09062,19.9475
70,680,2.90247,-20.1437,0.0274979,0.00341895,0.0124057,0.0327457,-0.00182885,0.400189,0.0224649,0.0369373,1294,344,2.90244,20.1437
77,680,2.64929,-20.135,0.0303288,-0.00116287,0.0141828,0.0357745,-0.00660859,0.366609,0.0263305,0.0398344,1301,344,2.64928,20.135
84,680,3.50256,-20.6677,0.0328016,-0.00480642,0.0156322,0.0384507,-0.0104555,0.346774,0.0297381,0.044592,1308,344,3.50262,20.6677
91,680,3.80957,-20.7557,0.0344404,-0.00635869,0.0162512,0.0401223,-0.0120407,0.336347,0.0315375,0.0458157,1315,344,3.80958,20.7557
98,680,3.61426,-20.3342,0.0358472,-0.00646912,0.0147756,0.0404957,-0.0111177,0.304806,0.0313668,0.044932,1322,344,3.6142,20.3342
105,680,3.3833,-20.1671,0,0,0,0,0,0,0,-1,1329,344,3.38326,20.1671
112,680,3.28076,-19.933,0,0,0,0,0,0,0,-1,1336,344,3.28078,19.933
119,680,2.7865,-20.362,0,0,0,0,0,0,0,-1,1343,344,2.78656,20.362
126,680,2.66003,-20.069,0,0,0,0,0,0,0,-1,1350,344,2.65999,20.069
133,680,2.74866,-20.0044,0,0,0,0,0,0,0,-1,1357,344,2.74864,20.0044
140,680,2.69092,-20.3401,0,0,0,0,0,0,0,-1,1364,344,2.69092,20.34
147,680,2.96155,-20.0241,0.0330819,0.013649,-0.00129331,0.0331675,0.0135633,-0.0661636,0.0192549,0.046776,1371,344,2.96157,20.0241
154,680,3.21045,-19.6963,0.0348763,0.0117298,-0.00111092,0.0349295,0.0116766,-0.0478487,0.0205324,0.0491004,1378,344,3.21045,19.6963
161,680,3.42285,-19.4111,0,0,0,0,0,0,0,-1,1385,344,3.42288,19.4111
168,680,6.85046,1.69257,0,0,0,0,0,0,0,-1,1392,344,6.85045,-1.69257
175,680,6.66541,0.942078,0,0,0,0,0,0,0,-1,1399,344,6.66538,-0.942088
182,680,6.52917,0.532379,0,0,0,0,0,0,0,-1,1406,344,6.52922,-0.532385
189,680,7.55884,4.77695,0,0,0,0,0,0,0,-1,1413,344,7.55886,-4.77694
196,680,6.55627,3.35254,0,0,0,0,0,0,0,-1,1420,344,6.55622,-3.35255
203,680,5.7334,1.90753,0,0,0,0,0,0,0,-1,1427,344,5.73341,-1.90754
210,680,5.27515,0.493622,0,0,0,0,0,0,0,-1,1434,344,5.27514,-0.493632
217,680,6.56384,-0.374176,0,0,0,0,0,0,0,-1,1441,344,6.56379,0.374176
224,680,3.9491,-0.640228,0,0,0,0,0,0,0,-1,1448,344,3.94908,0.64024
231,680,4.24866,-1.96881,0,0,0,0,0,0,0,-1,1455,344,4.2486,1.96882
238,680,4.29333,-3.23984,0,0,0,0,0,0,0,-1,1462,344,4.29332,3.23984
245,680,2.44397,0.985382,0,0,0,0,0,0,0,-1,1469,344,2.44402,-0.985394
252,680,3.07349,2.18951,0,0,0,0,0,0,0,-1,1476,344,3.0735,-2.18952
259,680,2.82971,1.30682,0,0,0,0,0,0,0,-1,1483,344,2.82972,-1.30684
266,680,2.67554,1.44067,0,0,0,0,0,0,0,-1,1490,344,2.67551,-1.44066
273,680,2.46411,1.54666,0,0,0,0,0,0,0,-1,1497,344,2.46407,-1.54666
280,680,0,0,0,0,0,0,0,0,0,-1,1504,344,0,0
287,680,0,0,0,0,0,0,0,0,0,-1,1511,344,0,0
294,680,0,0,0,0,0,0,0,0,0,-1,1518,344,0,0
301,680,0,0,0,0,0,0,0,0,0,-1,1525,344,0,0
308,680,0,0,0,0,0,0,0,0,0,-1,1532,344,0,0
315,680,0,0,0,0,0,0,0,0,0,-1,1539,344,0,0
322,680,0,0,0,0,0,0,0,0,0,-1,1546,344,0,0
329,680,0,0,0,0,0,0,0,0,0,-1,1553,344,0,0
336,680,0,0,0,0,0,0,0,0,0,-1,1560,344,0,0
343,680,0,0,0,0,0,0,0,0,0,-1,1567,344,0,0
350,680,0,0,0,0,0,0,0,0,0,-1,1574,344,0,0
357,680,0,0,0,0,0,0,0,0,0,-1,1581,344,0,0
364,680,0,0,0,0,0,0,0,0,0,-1,1588,344,0,0
371,680,0,0,0,0,0,0,0,0,0,-1,1595,344,0,0
378,680,0,0,0,0,0,0,0,0,0,-1,1602,344,0,0
385,680,0,0,0,0,0,0,0,0,0,-1,1609,344,0,0
392,680,0,0,0,0,0,0,0,0,0,-1,1616,344,0,0
399,680,0,0,0,0,0,0,0,0,0,-1,1623,344,0,0
406,680,0,0,0,0,0,0,0,0,0,-1,1630,344,0,0
413,680,0,0,0,0,0,0,0,0,0,-1,1637,344,0,0
420,680,0,0,0,0,0,0,0,0,0,-1,1644,344,0,0
427,680,0,0,0,0,0,0,0,0,0,-1,1651,344,0,0
434,680,0,0,0,0,0,0,0,0,0,-1,1658,344,0,0
441,680,0,0,0,0,0,0,0,0,0,-1,1665,344,0,0
448,680,0,0,0,0,0,0,0,0,0,-1,1672,344,0,0
455,680,0,0,0,0,0,0,0,0,0,-1,1679,344,0,0
462,680,0,0,0,0,0,0,0,0,0,-1,1686,344,0,0
469,680,0,0,0,0,0,0,0,0,0,-1,1693,344,0,0
476,680,0,0,0,0,0,0,0,0,0,-1,1700,344,0,0
483,680,0,0,0,0,0,0,0,0,0,-1,1707,344,0,0
490,680,0,0,0,0,0,0,0,0,0,-1,1714,344,0,0
497,680,0,0,0,0,0,0,0,0,0,-1,1721,344,0,0
504,680,0,0,0,0,0,0,0,0,0,-1,1728,344,0,0
511,680,0,0,0,0,0,0,0,0,0,-1,1735,344,0,0
518,680,0,0,0,0,0,0,0,0,0,-1,1742,344,0,0
525,680,0,0,0,0,0,0,0,0,0,-1,1749,344,0,0
532,680,0,0,0,0,0,0,0,0,0,-1,1756,344,0,0
539,680,0,0,0,0,0,0,0,0,0,-1,1763,344,0,0
546,680,0,0,0,0,0,0,0,0,0,-1,1770,344,0,0
553,680,0,0,0,0,0,0,0,0,0,-1,1777,344,0,0
560,680,0,0,0,0,0,0,0,0,0,-1,1784,344,0,0
567,680,0,0,0,0,0,0,0,0,0,-1,1791,344,0,0
574,680,0,0,0,0,0,0,0,0,0,-1,1798,344,0,0
581,680,0,0,0,0,0,0,0,0,0,-1,1805,344,0,0
588,680,0,0,0,0,0,0,0,0,0,-1,1812,344,0,0
595,680,0,0,0,0,0,0,0,0,0,-1,1819,344,0,0
602,680,0,0,0,0,0,0,0,0,0,-1,1826,344,0,0
609,680,0,0,0,0,0,0,0,0,0,-1,1833,344,0,0
616,680,0,0,0,0,0,0,0,0,0,-1,1840,344,0,0
623,680,0,0,0,0,0,0,0,0,0,-1,1847,344,0,0
630,680,0,0,0,0,0,0,0,0,0,-1,1854,344,0,0
637,680,0,0,0,0,0,0,0,0,0,-1,1861,344,0,0
644,680,0,0,0,0,0,0,0,0,0,-1,1868,344,0,0
651,680,0,0,0,0,0,0,0,0,0,-1,1875,344,0,0
658,680,0,0,0,0,0,0,0,0,0,-1,1882,344,0,0
665,680,0,0,0,0,0,0,0,0,0,-1,1889,344,0,0
672,680,0,0,0,0,0,0,0,0,0,-1,1896,344,0,0
679,680,0,0,0,0,0,0,0,0,0,-1,1903,344,0,0
686,680,0,0,0,0,0,0,0,0,0,-1,1910,344,0,0
693,680,0,0,0,0,0,0,0,0,0,-1,1917,344,0,0
700,680,0,0,0,0,0,0,0,0,0,-1,1924,344,0,0
707,680,0,0,0,0,0,0,0,0,0,-1,1931,344,0,0
714,680,0,0,0,0,0,0,0,0,0,-1,1938,344,0,0
721,680,0,0,0,0,0,0,0,0,0,-1,1945,344,0,0
728,680,0,0,0,0,0,0,0,0,0,-1,1952,344,0,0
735,680,0,0,0,0,0,0,0,0,0,-1,1959,344,0,0
742,680,0,0,0,0,0,0,0,0,0,-1,1966,344,0,0
749,680,0,0,0,0,0,0,0,0,0,-1,1973,344,0,0
756,680,0,0,0,0,0,0,0,0,0,-1,1980,344,0,0
763,680,0,0,0,0,0,0,0,0,0,-1,1987,344,0,0
770,680,0,0,0,0,0,0,0,0,0,-1,1994,344,0,0
777,680,0,0,0,0,0,0,0,0,0,-1,2001,344,0,0
784,680,0,0,0,0,0,0,0,0,0,-1,2008,344,0,0
791,680,0,0,0,0,0,0,0,0,0,-1,2015,344,0,0
798,680,0,0,0,0,0,0,0,0,0,-1,2022,344,0,0
805,680,0,0,0,0,0,0,0,0,0,-1,2029,344,0,0
812,680,0,0,0,0,0,0,0,0,0,-1,2036,344,0,0
-700,673,0,0,0,0,0,0,0,0,0,-1,524,351,0,0
-693,673,0,0,0,0,0,0,0,0,0,-1,531,351,0,0
-686,673,0,0,0,0,0,0,0,0,0,-1,538,351,0,0
-679,673,0,0,0,0,0,0,0,0,0,-1,545,351,0,0
-672,673,0,0,0,0,0,0,0,0,0,-1,552,351,0,0
-665,673,0,0,0,0,0,0,0,0,0,-1,559,351,0,0
-658,673,0,0,0,0,0,0,0,0,0,-1,566,351,0,0
-651,673,0,0,0,0,0,0,0,0,0,-1,573,351,0,0
-644,673,0,0,0,0,0,0,0,0,0,-1,580,351,0,0
-637,673,0,0,0,0,0,0,0,0,0,-1,587,351,0,0
-630,673,0,0,0,0,0,0,0,0,0,-1,594,351,0,0
-623,673,0,0,0,0,0,0,0,0,0,-1,601,351,0,0
-616,673,0,0,0,0,0,0,0,0,0,-1,608,351,0,0
-609,673,0,0,0,0,0,0,0,0,0,-1,615,351,0,0
-602,673,0,0,0,0,0,0,0,0,0,-1,622,351,0,0
-595,673,0,0,0,0,0,0,0,0,0,-1,629,351,0,0
-588,673,0,0,0,0,0,0,0,0,0,-1,636,351,0,0
-581,673,0,0,0,0,0,0,0,0,0,-1,643,351,0,0
-574,673,0,0,0,0,0,0,0,0,0,-1,650,351,0,0
-567,673,0,0,0,0,0,0,0,0,0,-1,657,351,0,0
-560,673,0,0,0,0,0,0,0,0,0,-1,664,351,0,0
-553,673,0,0,0,0,0,0,0,0,0,-1,671,351,0,0
-546,673,0,0,0,0,0,0,0,0,0,-1,678,351,0,0
-539,673,0,0,0,0,0,0,0,0,0,-1,685,351,0,0
-532,673,0,0,0,0,0,0,0,0,0,-1,692,351,0,0
-525,673,0,0,0,0,0,0,0,0,0,-1,699,351,0,0
-518,673,0,0,0,0,0,0,0,0,0,-1,706,351,0,0
-511,673,0,0,0,0,0,0,0,0,0,-1,713,351,0,0
-504,673,0,0,0,0,0,0,0,0,0,-1,720,351,0,0
-497,673,0,0,0,0,0,0,0,0,0,-1,727,351,0,0
-490,673,0,0,0,0,0,0,0,0,0,-1,734,351,0,0
-483,673,0,0,0,0,0,0,0,0,0,-1,741,351,0,0
-476,673,0,0,0,0,0,0,0,0,0,-1,748,351,0,0
-469,673,0,0,0,0,0,0,0,0,0,-1,755,351,0,0
-462,673,0,0,0,0,0,0,0,0,0,-1,762,351,0,0
-455,673,0,0,0,0,0,0,0,0,0,-1,769,351,0,0
-448,673,0,0,0,0,0,0,0,0,0,-1,776,351,0,0
-441,673,0,0,0,0,0,0,0,0,0,-1,783,351,0,0
-434,673,0,0,0,0,0,0,0,0,0,-1,790,351,0,0
-427,673,0,0,0,0,0,0,0,0,0,-1,797,351,0,0
-420,673,0,0,0,0,0,0,0,0,0,-1,804,351,0,0
-413,673,0,0,0,0,0,0,0,0,0,-1,811,351,0,0
-406,673,0,0,0,0,0,0,0,0,0,-1,818,351,0,0
-399,673,0,0,0,0,0,0,0,0,0,-1,825,351,0,0
-392,673,0,0,0,0,0,0,0,0,0,-1,832,351,0,0
-385,673,0,0,0,0,0,0,0,0,0,-1,839,351,0,0
-378,673,0,0,0,0,0,0,0,0,0,-1,846,351,0,0
-371,673,0,0,0,0,0,0,0,0,0,-1,853,351,0,0
-364,673,0,0,0,0,0,0,0,0,0,-1,860,351,0,0
-357,673,0,0,0,0,0,0,0,0,0,-1,867,351,0,0
-350,673,0,0,0,0,0,0,0,0,0,-1,874,351,0,0
-343,673,0,0,0,0,0,0,0,0,0,-1,881,351,0,0
-336,673,0,0,0,0,0,0,0,0,0,-1,888,351,0,0
-329,673,0,0,0,0,0,0,0,0,0,-1,895,351,0,0
-322,673,0,0,0,0,0,0,0,0,0,-1,902,351,0,0
-315,673,0,0,0,0,0,0,0,0,0,-1,909,351,0,0
-308,673,0,0,0,0,0,0,0,0,0,-1,916,351,0,0
-301,673,0,0,0,0,0,0,0,0,0,-1,923,351,0,0
-294,673,0,0,0,0,0,0,0,0,0,-1,930,351,0,0
-287,673,0,0,0,0,0,0,0,0,0,-1,937,351,0,0
-280,673,0,0,0,0,0,0,0,0,0,-1,944,351,0,0
-273,673,0,0,0,0,0,0,0,0,0,-1,951,351,0,0
-266,673,0,0,0,0,0,0,0,0,0,-1,958,351,0,0
-259,673,0,0,0,0,0,0,0,0,0,-1,965,351,0,0
-252,673,0,0,0,0,0,0,0,0,0,-1,972,351,0,0
-245,673,0,0,0,0,0,0,0,0,0,-1,979,351,0,0
-238,673,0,0,0,0,0,0,0,0,0,-1,986,351,0,0
-231,673,0,0,0,0,0,0,0,0,0,-1,993,351,0,0
-224,673,0,0,0,0,0,0,0,0,0,-1,1000,351,0,0
-217,673,0,0,0,0,0,0,0,0,0,-1,1007,351,0,0
-210,673,0,0,0,0,0,0,0,0,0,-1,1014,351,0,0
-203,673,0,0,0,0,0,0,0,0,0,-1,1021,351,0,0
-196,673,0,0,0,0,0,0,0,0,0,-1,1028,351,0,0
-189,673,0,0,0,0,0,0,0,0,0,-1,1035,351,0,0
-182,673,0,0,0,0,0,0,0,0,0,-1,1042,351,0,0
-175,673,2.65991,-15.9225,0,0,0,0,0,0,0,-1,1049,351,2.65986,15.9225
-168,673,0.9375,-13.6093,0,0,0,0,0,0,0,-1,1056,351,0.937509,13.6093
-161,673,2.83765,-20.7893,0,0,0,0,0,0,0,-1,1063,351,2.83767,20.7893
-154,673,5.45435,-21.8177,0,0,0,0,0,0,0,-1,1070,351,5.45433,21.8178
-147,673,5.57129,-21.1596,0,0,0,0,0,0,0,-1,1077,351,5.57125,21.1596
-140,673,2.50708,-20.1245,0,0,0,0,0,0,0,-1,1084,351,2.50714,20.1245
-133,673,2.69727,-19.7922,0.0968382,-0.0500693,0.0389355,0.106519,-0.0597505,0.243706,0.0972536,0.0432798,1091,351,2.69723,19.7922
-126,673,4.96851,-19.8421,0.0916114,-0.0412212,0.0374259,0.10143,-0.0510402,0.256576,0.0896171,0.0429055,1098,351,4.96846,19.8421
-119,673,4.64246,-19.7371,0.0854531,-0.0331,0.0357511,0.0953997,-0.0430466,0.271356,0.0818149,0.043185,1105,351,4.64247,19.7371
-112,673,4.39954,-19.7197,0,0,0,0,0,0,0,-1,1112,351,4.39956,19.7197
-105,673,4.29102,-19.374,0,0,0,0,0,0,0,-1,1119,351,4.29107,19.374
-98,673,2.37549,-17.8168,0,0,0,0,0,0,0,-1,1126,351,2.37554,17.8168
-91,673,2.69482,-15.6822,0,0,0,0,0,0,0,-1,1133,351,2.69488,15.6822
-84,673,2.31641,-13.7224,0,0,0,0,0,0,0,-1,1140,351,2.31642,13.7223
-77,673,1.60266,-8.87473,0,0,0,0,0,0,0,-1,1147,351,1.60268,8.87474
-70,673,1.88684,-4.7381,0,0,0,0,0,0,0,-1,1154,351,1.88682,4.73809
-63,673,1.11719,-2.95016,0,0,0,0,0,0,0,-1,1161,351,1.11724,2.95016
-56,673,-6.18872,-9.52338,0,0,0,0,0,0,0,-1,1168,351,-6.18874,9.52336
-49,673,-0.926758,-0.115448,0,0,0,0,0,0,0,-1,1175,351,-0.926732,0.115444
-42,673,-1.15015,0.289917,0,0,0,0,0,0,0,-1,1182,351,-1.15017,-0.289932
-35,673,-0.919556,-1.00711,0,0,0,0,0,0,0,-1,1189,351,-0.919514,1.00711
-28,673,1.03564,-2.58228,0,0,0,0,0,0,0,-1,1196,351,1.0356,2.58229
-21,673,3.79431,-20.0915,0,0,0,0,0,0,0,-1,1203,351,3.79431,20.0915
-14,673,3.6073,-20.3979,-0.00180948,0.00308379,-0.00680911,0.00787249,-0.00659818,-0.957874,0.00836543,0.0439447,1210,351,3.60725,20.3978
-7,673,3.49194,-20.5999,0.000807926,0.00796616,-0.00693938,0.0121951,-0.00342097,-1.02349,0.00947843,0.0412855,1217,351,3.49191,20.5999
0,673,3.55884,-20.4515,0.00277741,0.0117065,-0.00524246,0.0141278,0.000356055,-1.13811,0.00930214,0.0438559,1224,351,3.55882,20.4515
7,673,3.57422,-20.4735,0,0,0,0,0,0,0,-1,1231,351,3.57425,20.4736
14,673,3.44739,-20.6446,0,0,0,0,0,0,0,-1,1238,351,3.44734,20.6446
21,673,3.48315,-20.6079,0.00463699,0.0203614,-0.00206442,0.0206279,0.00437048,-1.44241,0.0125513,0.0264546,1245,351,3.48316,20.6079
28,673,3.4624,-20.6193,0.00658428,0.0198353,-0.00123458,0.0199494,0.00647024,-1.47868,0.0117523,0.0184687,1252,351,3.46244,20.6192
35,673,3.26648,-20.6689,0,0,0,0,0,0,0,-1,1259,351,3.26648,20.6689
42,673,3.35925,-20.6588,0.010877,0.0170748,0.0022124,0.0177835,0.0101683,1.26079,0.0103025,0.028433,1266,351,3.35926,20.6588
49,673,3.33679,-20.6387,0.0124164,0.0152976,0.00377866,0.017901,0.00981308,0.967514,0.0103511,0.0178505,1273,351,3.33676,20.6387
56,673,3.33459,-20.5971,0.0143944,0.0125348,0.00517544,0.0187229,0.00820629,0.696515,0.0108371,0.014756,1280,351,3.33464,20.5971
63,673,3.34692,-20.4878,0.0168933,0.0091751,0.00684501,0.0208921,0.00517628,0.528717,0.0125633,0.0168236,1287,351,3.34697,20.4878
70,673,3.29578,-20.462,0.0194022,0.00533779,0.00860182,0.0234805,0.0012595,0.442729,0.0152512,0.0266782,1294,351,3.29572,20.462
77,673,3.21118,-20.394,0.0213059,0.00221873,0.00994662,0.0255469,-0.00202229,0.403037,0.0177438,0.0358536,1301,351,3.21112,20.394
84,673,3.43042,-20.6515,0.022874,-0.000314058,0.0110384,0.0272884,-0.0047284,0.380427,0.019956,0.0384344,1308,351,3.43039,20.6514
91,673,3.45593,-20.6794,0.0240024,-0.0016614,0.0116188,0.0284811,-0.00614002,0.367912,0.0213307,0.0418171,1315,351,3.45596,20.6793
98,673,3.39307,-20.4702,0.0251132,-0.00204129,0.0106888,0.0288158,-0.00574387,0.333462,0.0213838,0.0459212,1322,351,3.39311,20.4701
105,673,2.96985,-20.4045,0.0256877,-0.00166493,0.00978829,0.0288296,-0.00480682,0.310596,0.0210061,0.044213,1329,351,2.96987,20.4045
112,673,2.97473,-20.3244,0,0,0,0,0,0,0,-1,1336,351,2.97472,20.3244
119,673,3.07324,-20.2471,0,0,0,0,0,0,0,-1,1343,351,3.07327,20.2471
126,673,2.91736,-20.1287,0.0261989,0.00388318,0.00599142,0.0277058,0.00237633,0.246391,0.0177316,0.0413304,1350,351,2.9174,20.1287
133,673,2.90271,-20.077,0.0247312,0.00741867,0.00445073,0.0258084,0.0063415,0.237457,0.0155295,0.0406692,1357,351,2.90275,20.077
140,673,2.83826,-20.2706,0.0237105,0.00983388,0.00220601,0.0240528,0.00949162,0.153919,0.0139893,0.0398606,1364,351,2.8382,20.2706
147,673,2.91394,-20.0834,0.0237907,0.0111046,-0.000300926,0.0237979,0.0110974,-0.0237031,0.0137501,0.039888,1371,351,2.91393,20.0834
154,673,3.15833,-19.6432,0.0253333,0.00977493,-0.000235735,0.0253369,0.00977136,-0.0151471,0.0147552,0.0391826,1378,351,3.15837,19.6433
161,673,3.19507,-19.5125,0,0,0,0,0,0,0,-1,1385,351,3.19511,19.5125
168,673,6.87061,1.83954,0,0,0,0,0,0,0,-1,1392,351,6.87063,-1.83953
175,673,6.6228,1.1459,0,0,0,0,0,0,0,-1,1399,351,6.62276,-1.14591
182,673,6.37244,0.796112,0,0,0,0,0,0,0,-1,1406,351,6.3724,-0.796102
189,673,6.12097,0.265472,0,0,0,0,0,0,0,-1,1413,351,6.121,-0.265482
196,673,6.02173,3.12717,0,0,0,0,0,0,0,-1,1420,351,6.02176,-3.12717
203,673,5.04456,1.6351,0,0,0,0,0,0,0,-1,1427,351,5.04455,-1.63509
210,673,4.79224,0.447479,0,0,0,0,0,0,0,-1,1434,351,4.79229,-0.447469
217,673,2.01648,0.972687,0,0,0,0,0,0,0,-1,1441,351,2.01644,-0.972691
224,673,2.3689,-1.80539,0,0,0,0,0,0,0,-1,1448,351,2.36896,1.80539
231,673,2.65857,-2.18497,0,0,0,0,0,0,0,-1,1455,351,2.65852,2.18496
238,673,3.77844,-2.06088,0,0,0,0,0,0,0,-1,1462,351,3.77839,2.06088
245,673,3.5376,-0.190399,0,0,0,0,0,0,0,-1,1469,351,3.53759,0.1904
252,673,3.80518,0.55603,0,0,0,0,0,0,0,-1,1476,351,3.80519,-0.556022
259,673,3.88562,1.29617,0,0,0,0,0,0,0,-1,1483,351,3.88562,-1.29618
266,673,4.22424,2.04834,0,0,0,0,0,0,0,-1,1490,351,4.22429,-2.04834
273,673,6.07886,0.385895,0,0,0,0,0,0,0,-1,1497,351,6.0789,-0.385906
280,673,6.97534,-0.0820007,0,0,0,0,0,0,0,-1,1504,351,6.97536,0.0820122
287,673,7.66968,-0.348541,0,0,0,0,0,0,0,-1,1511,351,7.66969,0.348534
294,673,8.20996,0.28537,0,0,0,0,0,0,0,-1,1518,351,8.20993,-0.28536
301,673,0,0,0,0,0,0,0,0,0,-1,1525,351,0,0
308,673,0,0,0,0,0,0,0,0,0,-1,1532,351,0,0
315,673,0,0,0,0,0,0,0,0,0,-1,1539,351,0,0
322,673,0,0,0,0,0,0,0,0,0,-1,1546,351,0,0
329,673,0,0,0,0,0,0,0,0,0,-1,1553,351,0,0
336,673,0,0,0,0,0,0,0,0,0,-1,1560,351,0,0
343,673,0,0,0,0,0,0,0,0,0,-1,1567,351,0,0
350,673,0,0,0,0,0,0,0,0,0,-1,1574,351,0,0
357,673,0,0,0,0,0,0,0,0,0,-1,1581,351,0,0
364,673,0,0,0,0,0,0,0,0,0,-1,1588,351,0,0
371,673,0,0,0,0,0,0,0,0,0,-1,1595,351,0,0
378,673,0,0,0,0,0,0,0,0,0,-1,1602,351,0,0
385,673,0,0,0,0,0,0,0,0,0,-1,1609,351,0,0
392,673,0,0,0,0,0,0,0,0,0,-1,1616,351,0,0
399,673,0,0,0,0,0,0,0,0,0,-1,1623,351,0,0
406,673,0,0,0,0,0,0,0,0,0,-1,1630,351,0,0
413,673,0,0,0,0,0,0,0,0,0,-1,1637,351,0,0
420,673,0,0,0,0,0,0,0,0,0,-1,1644,351,0,0
427,673,0,0,0,0,0,0,0,0,0,-1,1651,351,0,0
434,673,0,0,0,0,0,0,0,0,0,-1,1658,351,0,0
441,673,0,0,0,0,0,0,0,0,0,-1,1665,351,0,0
448,673,0,0,0,0,0,0,0,0,0,-1,1672,351,0,0
455,673,0,0,0,0,0,0,0,0,0,-1,1679,351,0,0
462,673,0,0,0,0,0,0,0,0,0,-1,1686,351,0,0
469,673,0,0,0,0,0,0,0,0,0,-1,1693,351,0,0
476,673,0,0,0,0,0,0,0,0,0,-1,1700,351,0,0
483,673,0,0,0,0,0,0,0,0,0,-1,1707,351,0,0
490,673,0,0,0,0,0,0,0,0,0,-1,1714,351,0,0
497,673,0,0,0,0,0,0,0,0,0,-1,1721,351,0,0
504,673,0,0,0,0,0,0,0,0,0,-1,1728,351,0,0
511,673,0,0,0,0,0,0,0,0,0,-1,1735,351,0,0
518,673,0,0,0,0,0,0,0,0,0,-1,1742,351,0,0
525,673,0,0,0,0,0,0,0,0,0,-1,1749,351,0,0
532,673,0,0,0,0,0,0,0,0,0,-1,1756,351,0,0
539,673,0,0,0,0,0,0,0,0,0,-1,1763,351,0,0
546,673,0,0,0,0,0,0,0,0,0,-1,1770,351,0,0
553,673,0,0,0,0,0,0,0,0,0,-1,1777,351,0,0
560,673,0,0,0,0,0,0,0,0,0,-1,1784,351,0,0
567,673,0,0,0,0,0,0,0,0,0,-1,1791,351,0,0
574,673,0,0,0,0,0,0,0,0,0,-1,1798,351,0,0
581,673,0,0,0,0,0,0,0,0,0,-1,1805,351,0,0
588,673,0,0,0,0,0,0,0,0,0,-1,1812,351,0,0
595,673,0,0,0,0,0,0,0,0,0,-1,1819,351,0,0
602,673,0,0,0,0,0,0,0,0,0,-1,1826,351,0,0
609,673,0,0,0,0,0,0,0,0,0,-1,1833,351,0,0
616,673,0,0,0,0,0,0,0,0,0,-1,1840,351,0,0
623,673,0,0,0,0,0,0,0,0,0,-1,1847,351,0,0
630,673,0,0,0,0,0,0,0,0,0,-1,1854,351,0,0
637,673,0,0,0,0,0,0,0,0,0,-1,1861,351,0,0
644,673,0,0,0,0,0,0,0,0,0,-1,1868,351,0,0
651,673,0,0,0,0,0,0,0,0,0,-1,1875,351,0,0
658,673,0,0,0,0,0,0,0,0,0,-1,1882,351,0,0
665,673,0,0,0,0,0,0,0,0,0,-1,1889,351,0,0
672,673,0,0,0,0,0,0,0,0,0,-1,1896,351,0,0
679,673,0,0,0,0,0,0,0,0,0,-1,1903,351,0,0
686,673,0,0,0,0,0,0,0,0,0,-1,1910,351,0,0
693,673,0,0,0,0,0,0,0,0,0,-1,1917,351,0,0
700,673,0,0,0,0,0,0,0,0,0,-1,1924,351,0,0
707,673,0,0,0,0,0,0,0,0,0,-1,1931,351,0,0
714,673,0,0,0,0,0,0,0,0,0,-1,1938,351,0,0
721,673,0,0,0,0,0,0,0,0,0,-1,1945,351,0,0
728,673,0,0,0,0,0,0,0,0,0,-1,1952,351,0,0
735,673,0,0,0,0,0,0,0,0,0,-1,1959,351,0,0
742,673,0,0,0,0,0,0,0,0,0,-1,1966,351,0,0
749,673,0,0,0,0,0,0,0,0,0,-1,1973,351,0,0
756,673,0,0,0,0,0,0,0,0,0,-1,1980,351,0,0
763,673,0,0,0,0,0,0,0,0,0,-1,1987,351,0,0
770,673,0,0,0,0,0,0,0,0,0,-1,1994,351,0,0
777,673,0,0,0,0,0,0,0,0,0,-1,2001,351,0,0
784,673,0,0,0,0,0,0,0,0,0,-1,2008,351,0,0
791,673,0,0,0,0,0,0,0,0,0,-1,2015,351,0,0
798,673,0,0,0,0,0,0,0,0,0,-1,2022,351,0,0
805,673,0,0,0,0,0,0,0,0,0,-1,2029,351,0,0
812,673,0,0,0,0,0,0,0,0,0,-1,2036,351,0,0
-700,666,0,0,0,0,0,0,0,0,0,-1,524,358,0,0
-693,666,0,0,0,0,0,0,0,0,0,-1,531,358,0,0
-686,666,0,0,0,0,0,0,0,0,0,-1,538,358,0,0
-679,666,0,0,0,0,0,0,0,0,0,-1,545,358,0,0
-672,666,0,0,0,0,0,0,0,0,0,-1,552,358,0,0
-665,666,0,0,0,0,0,0,0,0,0,-1,559,358,0,0
-658,666,0,0,0,0,0,0,0,0,0,-1,566,358,0,0
-651,666,0,0,0,0,0,0,0,0,0,-1,573,358,0,0
-644,666,0,0,0,0,0,0,0,0,0,-1,580,358,0,0
-637,666,0,0,0,0,0,0,0,0,0,-1,587,358,0,0
-630,666,0,0,0,0,0,0,0,0,0,-1,594,358,0,0
-623,666,0,0,0,0,0,0,0,0,0,-1,601,358,0,0
-616,666,0,0,0,0,0,0,0,0,0,-1,608,358,0,0
-609,666,0,0,0,0,0,0,0,0,0,-1,615,358,0,0
-602,666,0,0,0,0,0,0,0,0,0,-1,622,358,0,0
-595,666,0,0,0,0,0,0,0,0,0,-1,629,358,0,0
-588,666,0,0,0,0,0,0,0,0,0,-1,636,358,0,0
-581,666,0,0,0,0,0,0,0,0,0,-1,643,358,0,0
-574,666,0,0,0,0,0,0,0,0,0,-1,650,358,0,0
-567,666,0,0,0,0,0,0,0,0,0,-1,657,358,0,0
-560,666,0,0,0,0,0,0,0,0,0,-1,664,358,0,0
-553,666,0,0,0,0,0,0,0,0,0,-1,671,358,0,0
-546,666,0,0,0,0,0,0,0,0,0,-1,678,358,0,0
-539,666,0,0,0,0,0,0,0,0,0,-1,685,358,0,0
-532,666,0,0,0,0,0,0,0,0,0,-1,692,358,0,0
-525,666,0,0,0,0,0,0,0,0,0,-1,699,358,0,0
-518,666,0,0,0,0,0,0,0,0,0,-1,706,358,0,0
-511,666,0,0,0,0,0,0,0,0,0,-1,713,358,0,0
-504,666,0,0,0,0,0,0,0,0,0,-1,720,358,0,0
-497,666,0,0,0,0,0,0,0,0,0,-1,727,358,0,0
-490,666,0,0,0,0,0,0,0,0,0,-1,734,358,0,0
-483,666,0,0,0,0,0,0,0,0,0,-1,741,358,0,0
-476,666,0,0,0,0,0,0,0,0,0,-1,748,358,0,0
-469,666,0,0,0,0,0,0,0,0,0,-1,755,358,0,0
-462,666,0,0,0,0,0,0,0,0,0,-1,762,358,0,0
-455,666,0,0,0,0,0,0,0,0,0,-1,769,358,0,0
-448,666,0,0,0,0,0,0,0,0,0,-1,776,358,0,0
-441,666,0,0,0,0,0,0,0,0,0,-1,783,358,0,0
-434,666,0,0,0,0,0,0,0,0,0,-1,790,358,0,0
-427,666,0,0,0,0,0,0,0,0,0,-1,797,358,0,0
-420,666,0,0,0,0,0,0,0,0,0,-1,804,358,0,0
-413,666,0,0,0,0,0,0,0,0,0,-1,811,358,0,0
-406,666,0,0,0,0,0,0,0,0,0,-1,818,358,0,0
-399,666,0,0,0,0,0,0,0,0,0,-1,825,358,0,0
-392,666,0,0,0,0,0,0,0,0,0,-1,832,358,0,0
-385,666,0,0,0,0,0,0,0,0,0,-1,839,358,0,0
-378,666,0,0,0,0,0,0,0,0,0,-1,846,358,0,0
-371,666,0,0,0,0,0,0,0,0,0,-1,853,358,0,0
-364,666,0,0,0,0,0,0,0,0,0,-1,860,358,0,0
-357,666,0,0,0,0,0,0,0,0,0,-1,867,358,0,0
-350,666,0,0,0,0,0,0,0,0,0,-1,874,358,0,0
-343,666,0,0,0,0,0,0,0,0,0,-1,881,358,0,0
-336,666,0,0,0,0,0,0,0,0,0,-1,888,358,0,0
-329,666,0,0,0,0,0,0,0,0,0,-1,895,358,0,0
-322,666,0,0,0,0,0,0,0,0,0,-1,902,358,0,0
-315,666,0,0,0,0,0,0,0,0,0,-1,909,358,0,0
-308,666,0,0,0,0,0,0,0,0,0,-1,916,358,0,0
-301,666,0,0,0,0,0,0,0,0,0,-1,923,358,0,0
-294,666,0,0,0,0,0,0,0,0,0,-1,930,358,0,0
-287,666,0,0,0,0,0,0,0,0,0,-1,937,358,0,0
-280,666,0,0,0,0,0,0,0,0,0,-1,944,358,0,0
-273,666,0,0,0,0,0,0,0,0,0,-1,951,358,0,0
-266,666,0,0,0,0,0,0,0,0,0,-1,958,358,0,0
-259,666,0,0,0,0,0,0,0,0,0,-1,965,358,0,0
-252,666,0,0,0,0,0,0,0,0,0,-1,972,358,0,0
-245,666,0,0,0,0,0,0,0,0,0,-1,979,358,0,0
-238,666,0,0,0,0,0,0,0,0,0,-1,986,358,0,0
-231,666,0,0,0,0,0,0,0,0,0,-1,993,358,0,0
-224,666,0,0,0,0,0,0,0,0,0,-1,1000,358,0,0
-217,666,0,0,0,0,0,0,0,0,0,-1,1007,358,0,0
-210,666,0,0,0,0,0,0,0,0,0,-1,1014,358,0,0
-203,666,0,0,0,0,0,0,0,0,0,-1,1021,358,0,0
-196,666,6.60352,-18.3707,0,0,0,0,0,0,0,-1,1028,358,6.60355,18.3707
-189,666,6.39758,-18.0365,0,0,0,0,0,0,0,-1,1035,358,6.39754,18.0365
-182,666,6.09619,-17.953,0,0,0,0,0,0,0,-1,1042,358,6.09622,17.953
-175,666,5.36121,-18.2244,0,0,0,0,0,0,0,-1,1049,358,5.36126,18.2244
-168,666,5.07251,-18.701,0,0,0,0,0,0,0,-1,1056,358,5.07251,18.701
-161,666,4.65039,-20.7753,0,0,0,0,0,0,0,-1,1063,358,4.6504,20.7753
-154,666,5.06567,-20.8779,0.0753946,-0.0631515,0.0327012,0.0827253,-0.0704821,0.220525,0.0885484,0.0498154,1070,358,5.06572,20.8779
-147,666,5.25574,-20.4921,0.0739814,-0.0565254,0.0316098,0.0812345,-0.0637785,0.225552,0.0839252,0.0456521,1077,358,5.25568,20.4921
-140,666,5.23572,-20.1514,0,0,0,0,0,0,0,-1,1084,358,5.2357,20.1514
-133,666,2.90369,-19.7005,0.0684226,-0.0424281,0.0290852,0.0755906,-0.049596,0.241631,0.072794,0.0426875,1091,358,2.90367,19.7005
-126,666,3.20996,-19.8672,0.0642407,-0.0354017,0.0277737,0.0714593,-0.0426203,0.254279,0.0665617,0.0423602,1098,358,3.20998,19.8672
-119,666,4.25195,-19.5441,0.0593336,-0.0288706,0.0262432,0.0665511,-0.0360881,0.268388,0.0601225,0.0434341,1105,358,4.25194,19.5441
-112,666,4.23108,-19.2835,0,0,0,0,0,0,0,-1,1112,358,4.23105,19.2835
-105,666,4.25793,-19.0211,0,0,0,0,0,0,0,-1,1119,358,4.25789,19.0211
-98,666,3.89478,-19.1955,0,0,0,0,0,0,0,-1,1126,358,3.89472,19.1955
-91,666,3.15088,-17.429,0,0,0,0,0,0,0,-1,1133,358,3.15086,17.429
-84,666,2.5249,-14.169,0,0,0,0,0,0,0,-1,1140,358,2.52485,14.169
-77,666,0.964722,-10.3601,0,0,0,0,0,0,0,-1,1147,358,0.964669,10.3601
-70,666,2.05957,-6.51086,0,0,0,0,0,0,0,-1,1154,358,2.05959,6.51088
-63,666,1.47485,-3.79593,0,0,0,0,0,0,0,-1,1161,358,1.47481,3.79593
-56,666,0.424683,-2.04132,0,0,0,0,0,0,0,-1,1168,358,0.424665,2.04132
-49,666,0.754395,-2.23169,0,0,0,0,0,0,0,-1,1175,358,0.754383,2.23169
-42,666,1.34473,-3.53897,0,0,0,0,0,0,0,-1,1182,358,1.34476,3.53896
-35,666,3.34778,-20.5073,0,0,0,0,0,0,0,-1,1189,358,3.34776,20.5073
-28,666,3.61267,-20.3864,0,0,0,0,0,0,0,-1,1196,358,3.61273,20.3864
-21,666,3.66931,-20.2785,-0.00414848,0.00286188,-0.00145652,0.00315245,-0.00443906,-1.37388,0.00440389,0.0348649,1203,358,3.66928,20.2785
-14,666,3.56653,-20.4331,-0.002473,0.00298015,-0.00388132,0.00499687,-0.00448972,-1.09159,0.00547969,0.026238,1210,358,3.56654,20.4331
-7,666,3.51257,-20.4944,-0.00079534,0.00572576,-0.00419524,0.00777852,-0.00284809,-1.11574,0.00635159,0.0169423,1217,358,3.51261,20.4945
0,666,3.5354,-20.5352,0.000645489,0.00809565,-0.0033523,0.00938197,-0.000640832,-1.20441,0.00647883,0.0120991,1224,358,3.53542,20.5352
7,666,3.5188,-20.5922,0.00121806,0.0108715,-0.00228243,0.0113839,0.000705612,-1.34994,0.00736535,0.0166317,1231,358,3.51878,20.5922
14,666,3.49536,-20.613,0.00136195,0.0146664,-0.00179787,0.0149051,0.00112328,-1.43882,0.00958427,0.0167017,1238,358,3.49535,20.613
21,666,3.45227,-20.6435,0.00213074,0.015064,-0.00154722,0.0152465,0.00194822,-1.45337,0.00958121,0.0119874,1245,358,3.45221,20.6435
28,666,3.40845,-20.6741,0.00374533,0.0149444,-0.00114892,0.0150611,0.00362868,-1.46961,0.00907624,0.0121356,1252,358,3.40846,20.6741
35,666,3.4248,-20.6767,0.00559241,0.0142808,-0.000236819,0.0142872,0.00558596,-1.54357,0.00831385,0.0107037,1259,358,3.42484,20.6767
42,666,3.40015,-20.6968,0.0072784,0.0133049,0.0012792,0.0135652,0.00701811,1.37006,0.00783346,0.0118243,1266,358,3.40014,20.6968
49,666,3.34741,-20.7127,0.00839697,0.0123236,0.00239503,0.0134572,0.00726338,1.12873,0.00777768,0.0105017,1273,358,3.34746,20.7127
56,666,3.33081,-20.7128,0.00977244,0.0106286,0.00334066,0.0135685,0.00683253,0.849119,0.00783383,0.0118091,1280,358,3.33077,20.7128
63,666,3.32617,-20.7284,0.0115157,0.00849794,0.00452929,0.0147809,0.00523282,0.624609,0.00865411,0.0133587,1287,358,3.32616,20.7284
70,666,3.3042,-20.7081,0.0131835,0.00603288,0.00578911,0.0164123,0.00280402,0.508771,0.010137,0.0132188,1294,358,3.30414,20.7081
77,666,3.28796,-20.6614,0.0144058,0.00399537,0.00678069,0.0177488,0.000652377,0.458045,0.0116212,0.0162368,1301,358,3.28792,20.6614
84,666,3.30139,-20.6734,0.0153255,0.00230718,0.00757668,0.0188051,-0.00117241,0.43052,0.0129453,0.021286,1308,358,3.30141,20.6734
91,666,3.26904,-20.647,0.0160173,0.00123255,0.00806181,0.0195629,-0.00231308,0.414344,0.0138774,0.0210455,1315,358,3.26898,20.647
98,666,3.14417,-20.5904,0.0168122,0.000769699,0.00751672,0.0197837,-0.00220185,0.37647,0.013981,0.0196736,1322,358,3.14413,20.5904
105,666,3.09558,-20.5144,0.0171888,0.000914974,0.00697946,0.019772,-0.00166829,0.354489,0.0137712,0.021588,1329,358,3.09554,20.5144
112,666,3.18591,-20.3269,0.0176917,0.00125821,0.00603707,0.0196711,-0.000721171,0.316827,0.0133609,0.0391092,1336,358,3.18597,20.3269
119,666,3.22449,-20.2242,0.0179851,0.00150558,0.00521789,0.0194983,-7.60984e-06,0.282258,0.0130014,0.0416533,1343,358,3.22443,20.2242
126,666,3.11389,-20.2323,0.0177163,0.00415635,0.00456175,0.0191081,0.00276457,0.296128,0.0119245,0.0259912,1350,358,3.11383,20.2323
133,666,3.06482,-20.1605,0.0166965,0.00650945,0.00360247,0.0178417,0.00536424,0.307791,0.0105703,0.0221897,1357,358,3.06481,20.1605
140,666,3.01208,-20.1818,0.0160142,0.00812963,0.00211544,0.016546,0.00759792,0.246249,0.00956341,0.0187829,1364,358,3.01212,20.1818
147,666,2.93958,-20.0892,0.0162177,0.00883687,0.000368565,0.0162361,0.00881852,0.0497701,0.00938555,0.0179589,1371,358,2.93956,20.0892
154,666,2.98254,-19.9159,0.0174244,0.0079182,0.00036541,0.0174384,0.00790418,0.0383638,0.0100827,0.0177399,1378,358,2.98258,19.9159
161,666,3.02832,-19.7979,0.0176579,0.00695784,0.000861753,0.0177269,0.00688888,0.0798512,0.0103189,0.0248085,1385,358,3.02836,19.7979
168,666,3.0437,-19.6876,0,0,0,0,0,0,0,-1,1392,358,3.04372,19.6876
175,666,3.16345,-19.8755,0,0,0,0,0,0,0,-1,1399,358,3.16344,19.8755
182,666,2.60876,-5.17068,0,0,0,0,0,0,0,-1,1406,358,2.6088,5.17068
189,666,2.46973,-5.49979,0,0,0,0,0,0,0,-1,1413,358,2.46975,5.49979
196,666,2.32458,-5.23651,0,0,0,0,0,0,0,-1,1420,358,2.32461,5.23653
203,666,2.28064,-3.88004,0,0,0,0,0,0,0,-1,1427,358,2.28059,3.88003
210,666,3.02576,-5.83548,0,0,0,0,0,0,0,-1,1434,358,3.02581,5.83547
217,666,2.30444,-5.36011,0,0,0,0,0,0,0,-1,1441,358,2.30447,5.3601
224,666,1.82324,-6.03101,0,0,0,0,0,0,0,-1,1448,358,1.82322,6.031
231,666,2.29797,-10.1093,0,0,0,0,0,0,0,-1,1455,358,2.29801,10.1093
238,666,2.52429,-6.10568,0,0,0,0,0,0,0,-1,1462,358,2.52423,6.10567
245,666,4.53345,-1.38205,0,0,0,0,0,0,0,-1,1469,358,4.53349,1.38204
252,666,4.77405,-0.246979,0,0,0,0,0,0,0,-1,1476,358,4.77405,0.246993
259,666,4.83655,1.14087,0,0,0,0,0,0,0,-1,1483,358,4.83652,-1.14087
266,666,6.14148,0.749512,0,0,0,0,0,0,0,-1,1490,358,6.14144,-0.749519
273,666,2.61304,-1.53772,0,0,0,0,0,0,0,-1,1497,358,2.613,1.53773
280,666,8.70898,-0.836975,0,0,0,0,0,0,0,-1,1504,358,8.70894,0.836988
287,666,2.27039,-4.09058,0,0,0,0,0,0,0,-1,1511,358,2.27042,4.09059
294,666,5.04211,-6.10623,0,0,0,0,0,0,0,-1,1518,358,5.04208,6.10623
301,666,1.35095,-11.8304,0,0,0,0,0,0,0,-1,1525,358,1.3509,11.8304
308,666,1.08496,-1.87576,0,0,0,0,0,0,0,-1,1532,358,1.08491,1.87575
315,666,1.76294,-0.284027,0,0,0,0,0,0,0,-1,1539,358,1.76291,0.284016
322,666,0,0,0,0,0,0,0,0,0,-1,1546,358,0,0
329,666,0,0,0,0,0,0,0,0,0,-1,1553,358,0,0
336,666,0,0,0,0,0,0,0,0,0,-1,1560,358,0,0
343,666,0,0,0,0,0,0,0,0,0,-1,1567,358,0,0
350,666,0,0,0,0,0,0,0,0,0,-1,1574,358,0,0
357,666,0,0,0,0,0,0,0,0,0,-1,1581,358,0,0
364,666,0,0,0,0,0,0,0,0,0,-1,1588,358,0,0
371,666,0,0,0,0,0,0,0,0,0,-1,1595,358,0,0
378,666,0,0,0,0,0,0,0,0,0,-1,1602,358,0,0
385,666,0,0,0,0,0,0,0,0,0,-1,1609,358,0,0
392,666,0,0,0,0,0,0,0,0,0,-1,1616,358,0,0
399,666,0,0,0,0,0,0,0,0,0,-1,1623,358,0,0
406,666,0,0,0,0,0,0,0,0,0,-1,1630,358,0,0
413,666,0,0,0,0,0,0,0,0,0,-1,1637,358,0,0
420,666,0,0,0,0,0,0,0,0,0,-1,1644,358,0,0
427,666,0,0,0,0,0,0,0,0,0,-1,1651,358,0,0
434,666,0,0,0,0,0,0,0,0,0,-1,1658,358,0,0
441,666,0,0,0,0,0,0,0,0,0,-1,1665,358,0,0
448,666,0,0,0,0,0,0,0,0,0,-1,1672,358,0,0
455,666,0,0,0,0,0,0,0,0,0,-1,1679,358,0,0
462,666,0,0,0,0,0,0,0,0,0,-1,1686,358,0,0
469,666,0,0,0,0,0,0,0,0,0,-1,1693,358,0,0
476,666,0,0,0,0,0,0,0,0,0,-1,1700,358,0,0
483,666,0,0,0,0,0,0,0,0,0,-1,1707,358,0,0
490,666,0,0,0,0,0,0,0,0,0,-1,1714,358,0,0
497,666,0,0,0,0,0,0,0,0,0,-1,1721,358,0,0
504,666,0,0,0,0,0,0,0,0,0,-1,1728,358,0,0
511,666,0,0,0,0,0,0,0,0,0,-1,1735,358,0,0
518,666,0,0,0,0,0,0,0,0,0,-1,1742,358,0,0
525,666,0,0,0,0,0,0,0,0,0,-1,1749,358,0,0
532,666,0,0,0,0,0,0,0,0,0,-1,1756,358,0,0
539,666,0,0,0,0,0,0,0,0,0,-1,1763,358,0,0
546,666,0,0,0,0,0,0,0,0,0,-1,1770,358,0,0
553,666,0,0,0,0,0,0,0,0,0,-1,1777,358,0,0
560,666,0,0,0,0,0,0,0,0,0,-1,1784,358,0,0
567,666,0,0,0,0,0,0,0,0,0,-1,1791,358,0,0
574,666,0,0,0,0,0,0,0,0,0,-1,1798,358,0,0
581,666,0,0,0,0,0,0,0,0,0,-1,1805,358,0,0
588,666,0,0,0,0,0,0,0,0,0,-1,1812,358,0,0
595,666,0,0,0,0,0,0,0,0,0,-1,1819,358,0,0
602,666,0,0,0,0,0,0,0,0,0,-1,1826,358,0,0
609,666,0,0,0,0,0,0,0,0,0,-1,1833,358,0,0
616,666,0,0,0,0,0,0,0,0,0,-1,1840,358,0,0
623,666,0,0,0,0,0,0,0,0,0,-1,1847,358,0,0
630,666,0,0,0,0,0,0,0,0,0,-1,1854,358,0,0
637,666,0,0,0,0,0,0,0,0,0,-1,1861,358,0,0
644,666,0,0,0,0,0,0,0,0,0,-1,1868,358,0,0
651,666,0,0,0,0,0,0,0,0,0,-1,1875,358,0,0
658,666,0,0,0,0,0,0,0,0,0,-1,1882,358,0,0
665,666,0,0,0,0,0,0,0,0,0,-1,1889,358,0,0
672,666,0,0,0,0,0,0,0,0,0,-1,1896,358,0,0
679,666,0,0,0,0,0,0,0,0,0,-1,1903,358,0,0
686,666,0,0,0,0,0,0,0,0,0,-1,1910,358,0,0
693,666,0,0,0,0,0,0,0,0,0,-1,1917,358,0,0
700,666,0,0,0,0,0,0,0,0,0,-1,1924,358,0,0
707,666,0,0,0,0,0,0,0,0,0,-1,1931,358,0,0
714,666,0,0,0,0,0,0,0,0,0,-1,1938,358,0,0
721,666,0,0,0,0,0,0,0,0,0,-1,1945,358,0,0
728,666,0,0,0,0,0,0,0,0,0,-1,1952,358,0,0
735,666,0,0,0,0,0,0,0,0,0,-1,1959,358,0,0
742,666,0,0,0,0,0,0,0,0,0,-1,1966,358,0,0
749,666,0,0,0,0,0,0,0,0,0,-1,1973,358,0,0
756,666,0,0,0,0,0,0,0,0,0,-1,1980,358,0,0
763,666,0,0,0,0,0,0,0,0,0,-1,1987,358,0,0
770,666,0,0,0,0,0,0,0,0,0,-1,1994,358,0,0
777,666,0,0,0,0,0,0,0,0,0,-1,2001,358,0,0
784,666,0,0,0,0,0,0,0,0,0,-1,2008,358,0,0
791,666,0,0,0,0,0,0,0,0,0,-1,2015,358,0,0
798,666,0,0,0,0,0,0,0,0,0,-1,2022,358,0,0
805,666,0,0,0,0,0,0,0,0,0,-1,2029,358,0,0
812,666,0,0,0,0,0,0,0,0,0,-1,2036,358,0,0
-700,659,0,0,0,0,0,0,0,0,0,-1,524,365,0,0
-693,659,0,0,0,0,0,0,0,0,0,-1,531,365,0,0
-686,659,0,0,0,0,0,0,0,0,0,-1,538,365,0,0
-679,659,0,0,0,0,0,0,0,0,0,-1,545,365,0,0
-672,659,0,0,0,0,0,0,0,0,0,-1,552,365,0,0
-665,659,0,0,0,0,0,0,0,0,0,-1,559,365,0,0
-658,659,0,0,0,0,0,0,0,0,0,-1,566,365,0,0
-651,659,0,0,0,0,0,0,0,0,0,-1,573,365,0,0
-644,659,0,0,0,0,0,0,0,0,0,-1,580,365,0,0
-637,659,0,0,0,0,0,0,0,0,0,-1,587,365,0,0
-630,659,0,0,0,0,0,0,0,0,0,-1,594,365,0,0
-623,659,0,0,0,0,0,0,0,0,0,-1,601,365,0,0
-616,659,0,0,0,0,0,0,0,0,0,-1,608,365,0,0
-609,659,0,0,0,0,0,0,0,0,0,-1,615,365,0,0
-602,659,0,0,0,0,0,0,0,0,0,-1,622,365,0,0
-595,659,0,0,0,0,0,0,0,0,0,-1,629,365,0,0
-588,659,0,0,0,0,0,0,0,0,0,-1,636,365,0,0
-581,659,0,0,0,0,0,0,0,0,0,-1,643,365,0,0
-574,659,0,0,0,0,0,0,0,0,0,-1,650,365,0,0
-567,659,0,0,0,0,0,0,0,0,0,-1,657,365,0,0
-560,659,0,0,0,0,0,0,0,0,0,-1,664,365,0,0
-553,659,0,0,0,0,0,0,0,0,0,-1,671,365,0,0
-546,659,0,0,0,0,0,0,0,0,0,-1,678,365,0,0
-539,659,0,0,0,0,0,0,0,0,0,-1,685,365,0,0
-532,659,0,0,0,0,0,0,0,0,0,-1,692,365,0,0
-525,659,0,0,0,0,0,0,0,0,0,-1,699,365,0,0
-518,659,0,0,0,0,0,0,0,0,0,-1,706,365,0,0
-511,659,0,0,0,0,0,0,0,0,0,-1,713,365,0,0
-504,659,0,0,0,0,0,0,0,0,0,-1,720,365,0,0
-497,659,0,0,0,0,0,0,0,0,0,-1,727,365,0,0
-490,659,0,0,0,0,0,0,0,0,0,-1,734,365,0,0
-483,659,0,0,0,0,0,0,0,0,0,-1,741,365,0,0
-476,659,0,0,0,0,0,0,0,0,0,-1,748,365,0,0
-469,659,0,0,0,0,0,0,0,0,0,-1,755,365,0,0
-462,659,0,0,0,0,0,0,0,0,0,-1,762,365,0,0
-455,659,0,0,0,0,0,0,0,0,0,-1,769,365,0,0
-448,659,0,0,0,0,0,0,0,0,0,-1,776,365,0,0
-441,659,0,0,0,0,0,0,0,0,0,-1,783,365,0,0
-434,659,0,0,0,0,0,0,0,0,0,-1,790,365,0,0
-427,659,0,0,0,0,0,0,0,0,0,-1,797,365,0,0
-420,659,0,0,0,0,0,0,0,0,0,-1,804,365,0,0
-413,659,0,0,0,0,0,0,0,0,0,-1,811,365,0,0
-406,659,0,0,0,0,0,0,0,0,0,-1,818,365,0,0
-399,659,0,0,0,0,0,0,0,0,0,-1,825,365,0,0
-392,659,0,0,0,0,0,0,0,0,0,-1,832,365,0,0
-385,659,0,0,0,0,0,0,0,0,0,-1,839,365,0,0
-378,659,0,0,0,0,0,0,0,0,0,-1,846,365,0,0
-371,659,0,0,0,0,0,0,0,0,0,-1,853,365,0,0
-364,659,0,0,0,0,0,0,0,0,0,-1,860,365,0,0
-357,659,0,0,0,0,0,0,0,0,0,-1,867,365,0,0
-350,659,0,0,0,0,0,0,0,0,0,-1,874,365,0,0
-343,659,0,0,0,0,0,0,0,0,0,-1,881,365,0,0
-336,659,0,0,0,0,0,0,0,0,0,-1,888,365,0,0
-329,659,0,0,0,0,0,0,0,0,0,-1,895,365,0,0
-322,659,0,0,0,0,0,0,0,0,0,-1,902,365,0,0
-315,659,0,0,0,0,0,0,0,0,0,-1,909,365,0,0
-308,659,0,0,0,0,0,0,0,0,0,-1,916,365,0,0
-301,659,0,0,0,0,0,0,0,0,0,-1,923,365,0,0
-294,659,0,0,0,0,0,0,0,0,0,-1,930,365,0,0
-287,659,0,0,0,0,0,0,0,0,0,-1,937,365,0,0
-280,659,0,0,0,0,0,0,0,0,0,-1,944,365,0,0
-273,659,0,0,0,0,0,0,0,0,0,-1,951,365,0,0
-266,659,0,0,0,0,0,0,0,0,0,-1,958,365,0,0
-259,659,0,0,0,0,0,0,0,0,0,-1,965,365,0,0
-252,659,0,0,0,0,0,0,0,0,0,-1,972,365,0,0
-245,659,0,0,0,0,0,0,0,0,0,-1,979,365,0,0
-238,659,0,0,0,0,0,0,0,0,0,-1,986,365,0,0
-231,659,0,0,0,0,0,0,0,0,0,-1,993,365,0,0
-224,659,0,0,0,0,0,0,0,0,0,-1,1000,365,0,0
-217,659,3.57001,-16.8541,0,0,0,0,0,0,0,-1,1007,365,3.57003,16.8541
-210,659,3.20129,-17.9641,0,0,0,0,0,0,0,-1,1014,365,3.2013,17.9641
-203,659,2.80524,-18.9521,0,0,0,0,0,0,0,-1,1021,365,2.80526,18.9521
-196,659,3.26184,-18.9162,0,0,0,0,0,0,0,-1,1028,365,3.26185,18.9162
-189,659,3.81763,-18.2742,0,0,0,0,0,0,0,-1,1035,365,3.81767,18.2742
-182,659,4.16882,-17.8811,0,0,0,0,0,0,0,-1,1042,365,4.16886,17.8811
-175,659,4.92114,-17.0037,0,0,0,0,0,0,0,-1,1049,365,4.9212,17.0037
-168,659,4.6908,-17.4607,0,0,0,0,0,0,0,-1,1056,365,4.69076,17.4607
-161,659,4.27698,-19.844,0,0,0,0,0,0,0,-1,1063,365,4.27693,19.844
-154,659,4.65674,-19.9519,0.0531467,-0.0495757,0.0236733,0.0583399,-0.0547689,0.215948,0.0653142,0.0488738,1070,365,4.65669,19.9519
-147,659,4.95557,-19.8638,0.0517527,-0.0448872,0.0230183,0.0569553,-0.0500898,0.222284,0.0618449,0.0436422,1077,365,4.9556,19.8638
-140,659,5.14893,-20.0205,0,0,0,0,0,0,0,-1,1084,365,5.14891,20.0205
-133,659,3.9718,-19.5219,0,0,0,0,0,0,0,-1,1091,365,3.97183,19.5218
-126,659,3.60461,-19.517,0.0440262,-0.0289258,0.0201807,0.0492367,-0.0341362,0.252671,0.0483978,0.0410105,1098,365,3.60463,19.517
-119,659,4.00586,-19.1721,0.0402496,-0.023796,0.0189082,0.0454152,-0.0289616,0.266688,0.0432903,0.0412144,1105,365,4.00585,19.1721
-112,659,3.96997,-19.11,0.0359791,-0.0189841,0.0174439,0.0410479,-0.0240529,0.28279,0.0380105,0.0378982,1112,365,3.97003,19.11
-105,659,4.00623,-18.9597,0.0313196,-0.0147513,0.0158324,0.0362358,-0.0196675,0.301077,0.0327449,0.0437891,1119,365,4.00623,18.9597
-98,659,3.80945,-19.1561,0.0263068,-0.0103956,0.0138447,0.0309435,-0.0150323,0.323166,0.0270688,0.0476155,1126,365,3.80947,19.1561
-91,659,3.77185,-19.1584,0,0,0,0,0,0,0,-1,1133,365,3.77186,19.1585
-84,659,2.8584,-17.8303,0,0,0,0,0,0,0,-1,1140,365,2.85836,17.8303
-77,659,2.80139,-15.3457,0,0,0,0,0,0,0,-1,1147,365,2.80139,15.3457
-70,659,2.9353,-12.7028,0,0,0,0,0,0,0,-1,1154,365,2.93533,12.7028
-63,659,2.11267,-9.7796,0,0,0,0,0,0,0,-1,1161,365,2.11266,9.7796
-56,659,2.11182,-9.91541,0,0,0,0,0,0,0,-1,1168,365,2.11178,9.91541
-49,659,3.58984,-20.0577,0,0,0,0,0,0,0,-1,1175,365,3.58987,20.0577
-42,659,3.59521,-20.2003,0,0,0,0,0,0,0,-1,1182,365,3.59516,20.2003
-35,659,3.51941,-20.3739,-0.00367936,0.00264881,-0.000851415,0.00276136,-0.00379191,-1.43937,0.00379909,0.0448294,1189,365,3.51937,20.3739
-28,659,3.57446,-20.3649,-0.00349479,0.00262087,-0.000936496,0.00276106,-0.00363498,-1.4222,0.00370423,0.0170743,1196,365,3.57446,20.3649
-21,659,3.55273,-20.4159,-0.00334688,0.0027101,-0.000961254,0.00285899,-0.00349577,-1.41712,0.00367506,0.0128381,1203,365,3.55276,20.4159
-14,659,3.51611,-20.5196,-0.00242317,0.00281373,-0.00221683,0.00362611,-0.00323555,-1.21953,0.00396372,0.00934187,1210,365,3.51617,20.5196
-7,659,3.48938,-20.5696,-0.00136134,0.00428879,-0.00247744,0.00522121,-0.00229376,-1.21083,0.00444715,0.00865839,1217,365,3.48938,20.5696
0,659,3.48315,-20.6097,-0.000367673,0.00567721,-0.00206317,0.00631425,-0.00100471,-1.27131,0.00458128,0.00839189,1224,365,3.48317,20.6097
7,659,3.46924,-20.6442,8.66262e-05,0.00751881,-0.0014416,0.00778864,-0.000183202,-1.38577,0.00525456,0.00809218,1231,365,3.46929,20.6442
14,659,3.46448,-20.6636,0.000230983,0.010202,-0.00116612,0.0103365,9.64203e-05,-1.45591,0.0068591,0.010894,1238,365,3.46453,20.6636
21,659,3.43726,-20.6934,0.000752117,0.0107791,-0.00109713,0.0108977,0.000633475,-1.46308,0.00706346,0.0113769,1245,365,3.4372,20.6934
28,659,3.39429,-20.7189,0.00198486,0.0108798,-0.000955532,0.0109813,0.00188337,-1.46498,0.00678081,0.0105406,1252,365,3.39423,20.7189
35,659,3.39563,-20.7485,0.00344465,0.0105012,-0.000397499,0.0105235,0.00342232,-1.5147,0.00619829,0.0109425,1259,365,3.39565,20.7485
42,659,3.38367,-20.7729,0.00472132,0.00996533,0.000672845,0.0100503,0.00463636,1.4452,0.00580832,0.0112545,1266,365,3.38372,20.7729
49,659,3.34558,-20.7666,0.00551109,0.00946235,0.00144529,0.00993457,0.00503886,1.255,0.00573593,0.0110913,1273,365,3.34558,20.7666
56,659,3.31702,-20.7538,0.00643328,0.00845579,0.0020599,0.00973928,0.0051498,1.01358,0.00562608,0.0147383,1280,365,3.31704,20.7538
63,659,3.33838,-20.773,0.0076059,0.00716169,0.00287359,0.010266,0.00450163,0.746829,0.00594198,0.0160352,1287,365,3.33835,20.773
70,659,3.30505,-20.7681,0.00866922,0.00565198,0.00374664,0.0111996,0.00312164,0.593999,0.00667379,0.0156949,1294,365,3.30501,20.7681
77,659,3.24829,-20.7544,0.00941658,0.00438325,0.00445389,0.0120157,0.00178418,0.528237,0.00748691,0.0152867,1301,365,3.24834,20.7544
84,659,3.26868,-20.7059,0.0099048,0.00331441,0.00501278,0.0126085,0.000610756,0.494633,0.00820963,0.0113971,1308,365,3.26864,20.7059
91,659,3.22827,-20.6706,0.0102657,0.0025261,0.00538213,0.0130248,-0.000233019,0.473713,0.00876193,0.0107748,1315,365,3.22827,20.6706
98,659,3.20593,-20.6302,0.0107727,0.00210721,0.0050917,0.0131256,-0.000245712,0.432879,0.00883343,0.00839162,1322,365,3.20591,20.6302
105,659,3.20227,-20.5608,0.0109906,0.00214875,0.00480649,0.0131001,3.92031e-05,0.413581,0.00872036,0.00993017,1329,365,3.20228,20.5608
112,659,3.19873,-20.4903,0.0113161,0.00230546,0.00421607,0.0129811,0.000640429,0.376123,0.00844868,0.0136597,1336,365,3.19868,20.4903
119,659,3.18542,-20.4212,0.0115566,0.00230927,0.00373032,0.0128737,0.000992086,0.339434,0.00827166,0.0150032,1343,365,3.18545,20.4212
126,659,3.1449,-20.3521,0.0114114,0.00395419,0.00336933,0.0127083,0.00265738,0.367411,0.00773996,0.0132026,1350,365,3.1449,20.3521
133,659,3.10999,-20.2831,0.0107297,0.00544774,0.00281357,0.0119476,0.00422984,0.408516,0.00699523,0.0114458,1357,365,3.11003,20.2831
140,659,3.08167,-20.2181,0.0102846,0.00649749,0.0018832,0.0110616,0.00572047,0.391327,0.0063877,0.00846536,1364,365,3.08168,20.2181
147,659,3.05176,-20.1314,0.0105076,0.00687524,0.000734264,0.0106504,0.00673243,0.192101,0.00622017,0.00766077,1371,365,3.05178,20.1314
154,659,3.03003,-20.0173,0.0113778,0.00627978,0.000705135,0.0114736,0.00618405,0.13494,0.00663097,0.00866929,1378,365,3.03008,20.0173
161,659,3.02856,-19.8991,0.0114833,0.00568888,0.00108766,0.0116807,0.00549144,0.179568,0.00674788,0.00985753,1385,365,3.0286,19.8991
168,659,3.04626,-19.7993,0.0109112,0.00519337,0.00130581,0.0111953,0.00490927,0.214226,0.00647989,0.0176253,1392,365,3.04626,19.7993
175,659,3.05347,-19.7304,0.0104078,0.00504896,0.00165649,0.0108785,0.00457826,0.276857,0.00630688,0.0415754,1399,365,3.05345,19.7304
182,659,2.9259,-19.6768,0,0,0,0,0,0,0,-1,1406,365,2.92594,19.6767
189,659,3.05469,-19.3402,0,0,0,0,0,0,0,-1,1413,365,3.05473,19.3402
196,659,2.41248,-13.4371,0,0,0,0,0,0,0,-1,1420,365,2.41243,13.4371
203,659,2.38623,-12.2163,0,0,0,0,0,0,0,-1,1427,365,2.38617,12.2163
210,659,2.20789,-13.9792,0,0,0,0,0,0,0,-1,1434,365,2.20794,13.9792
217,659,2.24121,-13.487,0,0,0,0,0,0,0,-1,1441,365,2.24116,13.487
224,659,2.3479,-15.2926,0,0,0,0,0,0,0,-1,1448,365,2.34793,15.2926
231,659,2.47974,-17.8629,0,0,0,0,0,0,0,-1,1455,365,2.47976,17.8628
238,659,3.43933,-18.2358,0,0,0,0,0,0,0,-1,1462,365,3.43938,18.2358
245,659,3.02844,-18.5432,0,0,0,0,0,0,0,-1,1469,365,3.02848,18.5432
252,659,2.45972,-18.7531,0,0,0,0,0,0,0,-1,1476,365,2.45976,18.7531
259,659,2.33069,-3.36703,0,0,0,0,0,0,0,-1,1483,365,2.33073,3.36702
266,659,1.72681,-17.183,0,0,0,0,0,0,0,-1,1490,365,1.72683,17.183
273,659,2.4375,-14.5841,0,0,0,0,0,0,0,-1,1497,365,2.43748,14.5841
280,659,1.70947,-9.4129,0,0,0,0,0,0,0,-1,1504,365,1.70952,9.4129
287,659,5.63684,-10.0938,0,0,0,0,0,0,0,-1,1511,365,5.63681,10.0938
294,659,5.19153,-7.84253,0,0,0,0,0,0,0,-1,1518,365,5.19151,7.84252
301,659,-3.90845,-21.7885,0,0,0,0,0,0,0,-1,1525,365,-3.90841,21.7885
308,659,-0.0958252,-20.9479,0,0,0,0,0,0,0,-1,1532,365,-0.0958365,20.9479
315,659,2.17102,-2.98474,0,0,0,0,0,0,0,-1,1539,365,2.171,2.98473
322,659,0.382813,-2.2424,0,0,0,0,0,0,0,-1,1546,365,0.382801,2.2424
329,659,0.604004,-1.75998,0,0,0,0,0,0,0,-1,1553,365,0.603966,1.75998
336,659,2.09851,-1.17941,0,0,0,0,0,0,0,-1,1560,365,2.09857,1.17942
343,659,0,0,0,0,0,0,0,0,0,-1,1567,365,0,0
350,659,0,0,0,0,0,0,0,0,0,-1,1574,365,0,0
357,659,0,0,0,0,0,0,0,0,0,-1,1581,365,0,0
364,659,0,0,0,0,0,0,0,0,0,-1,1588,365,0,0
371,659,0,0,0,0,0,0,0,0,0,-1,1595,365,0,0
378,659,0,0,0,0,0,0,0,0,0,-1,1602,365,0,0
385,659,0,0,0,0,0,0,0,0,0,-1,1609,365,0,0
392,659,0,0,0,0,0,0,0,0,0,-1,1616,365,0,0
399,659,0,0,0,0,0,0,0,0,0,-1,1623,365,0,0
406,659,0,0,0,0,0,0,0,0,0,-1,1630,365,0,0
413,659,0,0,0,0,0,0,0,0,0,-1,1637,365,0,0
420,659,0,0,0,0,0,0,0,0,0,-1,1644,365,0,0
427,659,0,0,0,0,0,0,0,0,0,-1,1651,365,0,0
434,659,0,0,0,0,0,0,0,0,0,-1,1658,365,0,0
441,659,0,0,0,0,0,0,0,0,0,-1,1665,365,0,0
448,659,0,0,0,0,0,0,0,0,0,-1,1672,365,0,0
455,659,0,0,0,0,0,0,0,0,0,-1,1679,365,0,0
462,659,0,0,0,0,0,0,0,0,0,-1,1686,365,0,0
469,659,0,0,0,0,0,0,0,0,0,-1,1693,365,0,0
476,659,0,0,0,0,0,0,0,0,0,-1,1700,365,0,0
483,659,0,0,0,0,0,0,0,0,0,-1,1707,365,0,0
490,659,0,0,0,0,0,0,0,0,0,-1,1714,365,0,0
497,659,0,0,0,0,0,0,0,0,0,-1,1721,365,0,0
504,659,0,0,0,0,0,0,0,0,0,-1,1728,365,0,0
511,659,0,0,0,0,0,0,0,0,0,-1,1735,365,0,0
518,659,0,0,0,0,0,0,0,0,0,-1,1742,365,0,0
525,659,0,0,0,0,0,0,0,0,0,-1,1749,365,0,0
532,659,0,0,0,0,0,0,0,0,0,-1,1756,365,0,0
539,659,0,0,0,0,0,0,0,0,0,-1,1763,365,0,0
546,659,0,0,0,0,0,0,0,0,0,-1,1770,365,0,0
553,659,0,0,0,0,0,0,0,0,0,-1,1777,365,0,0
560,659,0,0,0,0,0,0,0,0,0,-1,1784,365,0,0
567,659,0,0,0,0,0,0,0,0,0,-1,1791,365,0,0
574,659,0,0,0,0,0,0,0,0,0,-1,1798,365,0,0
581,659,0,0,0,0,0,0,0,0,0,-1,1805,365,0,0
588,659,0,0,0,0,0,0,0,0,0,-1,1812,365,0,0
595,659,0,0,0,0,0,0,0,0,0,-1,1819,365,0,0
602,659,0,0,0,0,0,0,0,0,0,-1,1826,365,0,0
609,659,0,0,0,0,0,0,0,0,0,-1,1833,365,0,0
616,659,0,0,0,0,0,0,0,0,0,-1,1840,365,0,0
623,659,0,0,0,0,0,0,0,0,0,-1,1847,365,0,0
630,659,0,0,0,0,0,0,0,0,0,-1,1854,365,0,0
637,659,0,0,0,0,0,0,0,0,0,-1,1861,365,0,0
644,659,0,0,0,0,0,0,0,0,0,-1,1868,365,0,0
651,659,0,0,0,0,0,0,0,0,0,-1,1875,365,0,0
658,659,0,0,0,0,0,0,0,0,0,-1,1882,365,0,0
665,659,0,0,0,0,0,0,0,0,0,-1,1889,365,0,0
672,659,0,0,0,0,0,0,0,0,0,-1,1896,365,0,0
679,659,0,0,0,0,0,0,0,0,0,-1,1903,365,0,0
686,659,0,0,0,0,0,0,0,0,0,-1,1910,365,0,0
693,659,0,0,0,0,0,0,0,0,0,-1,1917,365,0,0
700,659,0,0,0,0,0,0,0,0,0,-1,1924,365,0,0
707,659,0,0,0,0,0,0,0,0,0,-1,1931,365,0,0
714,659,0,0,0,0,0,0,0,0,0,-1,1938,365,0,0
721,659,0,0,0,0,0,0,0,0,0,-1,1945,365,0,0
728,659,0,0,0,0,0,0,0,0,0,-1,1952,365,0,0
735,659,0,0,0,0,0,0,0,0,0,-1,1959,365,0,0
742,659,0,0,0,0,0,0,0,0,0,-1,1966,365,0,0
749,659,0,0,0,0,0,0,0,0,0,-1,1973,365,0,0
756,659,0,0,0,0,0,0,0,0,0,-1,1980,365,0,0
763,659,0,0,0,0,0,0,0,0,0,-1,1987,365,0,0
770,659,0,0,0,0,0,0,0,0,0,-1,1994,365,0,0
777,659,0,0,0,0,0,0,0,0,0,-1,2001,365,0,0
784,659,0,0,0,0,0,0,0,0,0,-1,2008,365,0,0
791,659,0,0,0,0,0,0,0,0,0,-1,2015,365,0,0
798,659,0,0,0,0,0,0,0,0,0,-1,2022,365,0,0
805,659,0,0,0,0,0,0,0,0,0,-1,2029,365,0,0
812,659,0,0,0,0,0,0,0,0,0,-1,2036,365,0,0
-700,652,0,0,0,0,0,0,0,0,0,-1,524,372,0,0
-693,652,0,0,0,0,0,0,0,0,0,-1,531,372,0,0
-686,652,0,0,0,0,0,0,0,0,0,-1,538,372,0,0
-679,652,0,0,0,0,0,0,0,0,0,-1,545,372,0,0
-672,652,0,0,0,0,0,0,0,0,0,-1,552,372,0,0
-665,652,0,0,0,0,0,0,0,0,0,-1,559,372,0,0
-658,652,0,0,0,0,0,0,0,0,0,-1,566,372,0,0
-651,652,0,0,0,0,0,0,0,0,0,-1,573,372,0,0
-644,652,0,0,0,0,0,0,0,0,0,-1,580,372,0,0
-637,652,0,0,0,0,0,0,0,0,0,-1,587,372,0,0
-630,652,0,0,0,0,0,0,0,0,0,-1,594,372,0,0
-623,652,0,0,0,0,0,0,0,0,0,-1,601,372,0,0
-616,652,0,0,0,0,0,0,0,0,0,-1,608,372,0,0
-609,652,0,0,0,0,0,0,0,0,0,-1,615,372,0,0
-602,652,0,0,0,0,0,0,0,0,0,-1,622,372,0,0
-595,652,0,0,0,0,0,0,0,0,0,-1,629,372,0,0
-588,652,0,0,0,0,0,0,0,0,0,-1,636,372,0,0
-581,652,0,0,0,0,0,0,0,0,0,-1,643,372,0,0
-574,652,0,0,0,0,0,0,0,0,0,-1,650,372,0,0
-567,652,0,0,0,0,0,0,0,0,0,-1,657,372,0,0
-560,652,0,0,0,0,0,0,0,0,0,-1,664,372,0,0
-553,652,0,0,0,0,0,0,0,0,0,-1,671,372,0,0
-546,652,0,0,0,0,0,0,0,0,0,-1,678,372,0,0
-539,652,0,0,0,0,0,0,0,0,0,-1,685,372,0,0
-532,652,0,0,0,0,0,0,0,0,0,-1,692,372,0,0
-525,652,0,0,0,0,0,0,0,0,0,-1,699,372,0,0
-518,652,0,0,0,0,0,0,0,0,0,-1,706,372,0,0
-511,652,0,0,0,0,0,0,0,0,0,-1,713,372,0,0
-504,652,0,0,0,0,0,0,0,0,0,-1,720,372,0,0
-497,652,0,0,0,0,0,0,0,0,0,-1,727,372,0,0
-490,652,0,0,0,0,0,0,0,0,0,-1,734,372,0,0
-483,652,0,0,0,0,0,0,0,0,0,-1,741,372,0,0
-476,652,0,0,0,0,0,0,0,0,0,-1,748,372,0,0
-469,652,0,0,0,0,0,0,0,0,0,-1,755,372,0,0
-462,652,0,0,0,0,0,0,0,0,0,-1,762,372,0,0
-455,652,0,0,0,0,0,0,0,0,0,-1,769,372,0,0
-448,652,0,0,0,0,0,0,0,0,0,-1,776,372,0,0
-441,652,0,0,0,0,0,0,0,0,0,-1,783,372,0,0
-434,652,0,0,0,0,0,0,0,0,0,-1,790,372,0,0
-427,652,0,0,0,0,0,0,0,0,0,-1,797,372,0,0
-420,652,0,0,0,0,0,0,0,0,0,-1,804,372,0,0
-413,652,0,0,0,0,0,0,0,0,0,-1,811,372,0,0
-406,652,0,0,0,0,0,0,0,0,0,-1,818,372,0,0
-399,652,0,0,0,0,0,0,0,0,0,-1,825,372,0,0
-392,652,0,0,0,0,0,0,0,0,0,-1,832,372,0,0
-385,652,0,0,0,0,0,0,0,0,0,-1,839,372,0,0
-378,652,0,0,0,0,0,0,0,0,0,-1,846,372,0,0
-371,652,0,0,0,0,0,0,0,0,0,-1,853,372,0,0
-364,652,0,0,0,0,0,0,0,0,0,-1,860,372,0,0
-357,652,0,0,0,0,0,0,0,0,0,-1,867,372,0,0
-350,652,0,0,0,0,0,0,0,0,0,-1,874,372,0,0
-343,652,0,0,0,0,0,0,0,0,0,-1,881,372,0,0
-336,652,0,0,0,0,0,0,0,0,0,-1,888,372,0,0
-329,652,0,0,0,0,0,0,0,0,0,-1,895,372,0,0
-322,652,0,0,0,0,0,0,0,0,0,-1,902,372,0,0
-315,652,0,0,0,0,0,0,0,0,0,-1,909,372,0,0
-308,652,0,0,0,0,0,0,0,0,0,-1,916,372,0,0
-301,652,0,0,0,0,0,0,0,0,0,-1,923,372,0,0
-294,652,0,0,0,0,0,0,0,0,0,-1,930,372,0,0
-287,652,0,0,0,0,0,0,0,0,0,-1,937,372,0,0
-280,652,0,0,0,0,0,0,0,0,0,-1,944,372,0,0
-273,652,0,0,0,0,0,0,0,0,0,-1,951,372,0,0
-266,652,0,0,0,0,0,0,0,0,0,-1,958,372,0,0
-259,652,0,0,0,0,0,0,0,0,0,-1,965,372,0,0
-252,652,0,0,0,0,0,0,0,0,0,-1,972,372,0,0
-245,652,0,0,0,0,0,0,0,0,0,-1,979,372,0,0
-238,652,0,0,0,0,0,0,0,0,0,-1,986,372,0,0
-231,652,-0.0509033,-13.1051,0,0,0,0,0,0,0,-1,993,372,-0.0509221,13.1051
-224,652,1.83624,-9.07111,0,0,0,0,0,0,0,-1,1000,372,1.83626,9.0711
-217,652,2.88489,-16.6299,0,0,0,0,0,0,0,-1,1007,372,2.88488,16.6299
-210,652,2.83881,-19.5396,0,0,0,0,0,0,0,-1,1014,372,2.83878,19.5396
-203,652,3.02429,-18.9708,0,0,0,0,0,0,0,-1,1021,372,3.02426,18.9708
-196,652,3.25403,-18.2871,0,0,0,0,0,0,0,-1,1028,372,3.25404,18.2871
-189,652,3.67346,-17.7712,0.0254518,-0.0455281,0.0171558,0.0293809,-0.0494572,0.225139,0.0460065,0.0433125,1035,372,3.67349,17.7712
-182,652,4.02527,-17.1903,0,0,0,0,0,0,0,-1,1042,372,4.02522,17.1903
-175,652,4.67004,-16.7837,0,0,0,0,0,0,0,-1,1049,372,4.67002,16.7837
-168,652,3.80017,-18.4814,0,0,0,0,0,0,0,-1,1056,372,3.80016,18.4815
-161,652,4.22864,-17.9229,0,0,0,0,0,0,0,-1,1063,372,4.22868,17.9229
-154,652,4.37317,-18.5265,0,0,0,0,0,0,0,-1,1070,372,4.37316,18.5265
-147,652,4.59119,-19.0583,0,0,0,0,0,0,0,-1,1077,372,4.5912,19.0583
-140,652,4.78381,-19.2273,0,0,0,0,0,0,0,-1,1084,372,4.78381,19.2273
-133,652,3.82776,-18.9398,0.0317305,-0.0267929,0.0150407,0.0353697,-0.0304321,0.237396,0.0380263,0.0426312,1091,372,3.8278,18.9398
-126,652,3.79431,-18.9656,0.0293329,-0.0227223,0.0143117,0.0330082,-0.0263975,0.25137,0.0343686,0.0397023,1098,372,3.79426,18.9656
-119,652,3.8407,-18.8835,0.0265353,-0.0187858,0.0133275,0.030164,-0.0224144,0.265825,0.0304659,0.0350048,1105,372,3.84069,18.8835
-112,652,3.79968,-18.8761,0.0234329,-0.0149526,0.0121461,0.0269534,-0.018473,0.282112,0.0263788,0.0266597,1112,372,3.79967,18.8761
-105,652,3.74377,-18.9348,0.0200836,-0.0116106,0.0108302,0.0234309,-0.0149579,0.299756,0.022343,0.0229827,1119,372,3.74379,18.9348
-98,652,3.68262,-19.11,0.0164418,-0.00798539,0.00925864,0.0195545,-0.0110981,0.32432,0.0179203,0.0247783,1126,372,3.68266,19.11
-91,652,3.67969,-19.2568,0.0128345,-0.00521256,0.00768382,0.0156627,-0.00804083,0.352692,0.0139191,0.0379322,1133,372,3.67965,19.2568
-84,652,3.69971,-19.3956,0,0,0,0,0,0,0,-1,1140,372,3.69967,19.3956
-77,652,3.61938,-19.5855,0,0,0,0,0,0,0,-1,1147,372,3.61939,19.5855
-70,652,3.60181,-19.7572,0,0,0,0,0,0,0,-1,1154,372,3.60179,19.7572
-63,652,3.62549,-19.8683,0,0,0,0,0,0,0,-1,1161,372,3.62551,19.8683
-56,652,3.52441,-19.9322,0,0,0,0,0,0,0,-1,1168,372,3.52439,19.9322
-49,652,3.58215,-20.1154,-0.00338523,0.00239405,-0.000893129,0.00252893,-0.00352011,-1.42091,0.00350801,0.0373562,1175,372,3.58219,20.1154
-42,652,3.5177,-20.1838,-0.00288455,0.00252875,-0.000732781,0.00262619,-0.00298199,-1.4386,0.00324006,0.0118681,1182,372,3.51773,20.1838
-35,652,3.51062,-20.2719,-0.0028488,0.0024863,-0.00065799,0.00256626,-0.00292875,-1.44988,0.00317484,0.00951468,1189,372,3.51059,20.2719
-28,652,3.50427,-20.3619,-0.00268728,0.00246492,-0.000685692,0.00255462,-0.00277697,-1.44072,0.00307909,0.00803788,1196,372,3.50431,20.3619
-21,652,3.47266,-20.4474,-0.00253299,0.00249146,-0.000677156,0.00258113,-0.00262265,-1.43915,0.00300443,0.00843407,1203,372,3.47263,20.4474
-14,652,3.46484,-20.5175,-0.00210279,0.00247273,-0.00125451,0.00279411,-0.00242418,-1.32001,0.0030153,0.00996325,1210,372,3.46488,20.5175
-7,652,3.45715,-20.5892,-0.00147268,0.00296513,-0.0014666,0.00340601,-0.00191355,-1.27878,0.00311128,0.0124961,1217,372,3.45719,20.5892
0,652,3.42725,-20.636,-0.000809821,0.00349394,-0.00133576,0.00387481,-0.00119069,-1.29303,0.00305837,0.0126366,1224,372,3.42723,20.636
7,652,3.42151,-20.6344,-0.000483907,0.00444976,-0.00104176,0.00466071,-0.00069486,-1.371,0.00336278,0.0129484,1231,372,3.42151,20.6344
14,652,3.43494,-20.6667,-0.000373352,0.00613981,-0.000917603,0.00626662,-0.000500159,-1.43347,0.00435405,0.0110998,1238,372,3.43496,20.6667
21,652,3.40234,-20.7252,-8.71149e-05,0.00669403,-0.00101764,0.00684345,-0.000236538,-1.425,0.00464316,0.0103672,1245,372,3.40233,20.7252
28,652,3.36877,-20.7769,0.000780861,0.00691627,-0.00109675,0.00710643,0.000590702,-1.39912,0.00455351,0.00947725,1252,372,3.36875,20.7769
35,652,3.35425,-20.7925,0.00184609,0.00678531,-0.000833762,0.00692226,0.00170914,-1.408,0.00416374,0.0101583,1259,372,3.35419,20.7925
42,652,3.34106,-20.7906,0.002722,0.00673783,-0.000122522,0.00674156,0.00271826,-1.54032,0.00391648,0.0110084,1266,372,3.34109,20.7906
49,652,3.35559,-20.788,0.0032264,0.00667527,0.000376327,0.00671586,0.00318581,1.46336,0.0038791,0.013104,1273,372,3.35563,20.788
56,652,3.32654,-20.774,0.00377737,0.00627905,0.000729184,0.00647608,0.00358035,1.3069,0.00374592,0.0152468,1280,372,3.32652,20.774
63,652,3.31042,-20.769,0.00447222,0.00570778,0.00123832,0.00647387,0.00370614,1.01678,0.00375075,0.018621,1287,372,3.31044,20.769
70,652,3.30164,-20.7615,0.00505559,0.00502744,0.00179457,0.00683614,0.00324689,0.781477,0.0039485,0.0157844,1294,372,3.30162,20.7615
77,652,3.24402,-20.751,0.00543119,0.00442898,0.00226381,0.00724869,0.00261148,0.676476,0.00423916,0.0149744,1301,372,3.24406,20.751
84,652,3.30261,-20.7256,0.00561448,0.00389293,0.00263547,0.00752619,0.00198123,0.627554,0.0045047,0.0128364,1308,372,3.30258,20.7255
91,652,3.26465,-20.7179,0.00576727,0.00336008,0.00290806,0.00771097,0.00141638,0.58919,0.0047396,0.0163893,1315,372,3.26467,20.7179
98,652,3.24927,-20.6375,0.00606548,0.00300984,0.00281816,0.00774332,0.001332,0.537006,0.00478048,0.0133942,1322,372,3.24932,20.6375
105,652,3.24268,-20.5528,0.00619233,0.00293089,0.00274818,0.00775719,0.00136603,0.517628,0.00478161,0.0106725,1329,372,3.24269,20.5528
112,652,3.23218,-20.5054,0.00644323,0.00289045,0.00244907,0.00769231,0.00164137,0.471635,0.00467807,0.00983172,1336,372,3.23222,20.5054
119,652,3.22131,-20.4291,0.00671132,0.00263457,0.00222922,0.00769361,0.00165228,0.415044,0.00467664,0.0105006,1343,372,3.22137,20.4291
126,652,3.19397,-20.37,0.00674587,0.00344831,0.00213181,0.00779211,0.00240208,0.456238,0.00460771,0.0119974,1350,372,3.19399,20.37
133,652,3.16492,-20.3013,0.00639926,0.00421882,0.00190283,0.00750206,0.00311602,0.525254,0.00435196,0.0124118,1357,372,3.16496,20.3013
140,652,3.14197,-20.2197,0.00621677,0.00478567,0.00139869,0.00707232,0.00393012,0.548961,0.00409164,0.0093768,1364,372,3.14195,20.2197
147,652,3.12683,-20.1337,0.00651037,0.0048181,0.0007161,0.00677273,0.00455575,0.351177,0.00398719,0.00873615,1371,372,3.1268,20.1337
154,652,3.12415,-20.03,0.00711185,0.00457291,0.000707391,0.00729564,0.00438912,0.254189,0.00424103,0.00885266,1378,372,3.12418,20.03
161,652,3.11255,-19.9221,0.00713733,0.00436759,0.00101447,0.00746915,0.00403577,0.316116,0.00431699,0.00961897,1385,372,3.1125,19.9221
168,652,3.09607,-19.8088,0.00660592,0.00427309,0.00124254,0.00714375,0.00373526,0.408493,0.00412588,0.0105898,1392,372,3.09601,19.8088
175,652,3.07837,-19.6811,0.00608757,0.00428839,0.00152798,0.00696111,0.00341485,0.519348,0.00401924,0.0110085,1399,372,3.07835,19.6811
182,652,3.04944,-19.5773,0.0055816,0.00435769,0.00201131,0.00707199,0.00286731,0.637719,0.00410728,0.0164718,1406,372,3.04949,19.5773
189,652,3.08276,-19.4606,0.00432596,0.00479799,0.00257232,0.0071451,0.00197885,0.831146,0.00425985,0.028624,1413,372,3.08282,19.4606
196,652,3.06201,-19.2786,0,0,0,0,0,0,0,-1,1420,372,3.06205,19.2786
203,652,3.00476,-19.1329,0,0,0,0,0,0,0,-1,1427,372,3.00475,19.1329
210,652,3.0553,-18.9382,0,0,0,0,0,0,0,-1,1434,372,3.05526,18.9382
217,652,3.0437,-18.7899,0,0,0,0,0,0,0,-1,1441,372,3.04371,18.7899
224,652,2.91553,-18.6609,0,0,0,0,0,0,0,-1,1448,372,2.91553,18.6609
231,652,3.30432,-18.2883,0,0,0,0,0,0,0,-1,1455,372,3.30427,18.2883
238,652,3.18066,-18.1484,-0.0072071,0.00516271,0.00263672,0.0057013,-0.00774569,1.3693,0.00779347,0.0442756,1462,372,3.18064,18.1484
245,652,2.99316,-18.1884,-0.00683252,0.00585529,0.00294876,0.00650712,-0.00748435,1.35324,0.00808454,0.0434012,1469,372,2.99311,18.1884
252,652,2.68909,-18.1188,-0.00546851,0.00680958,0.00357126,0.00777277,-0.0064317,1.30736,0.00821313,0.0446251,1476,372,2.68912,18.1188
259,652,2.75269,-17.4529,0,0,0,0,0,0,0,-1,1483,372,2.75268,17.4529
266,652,2.61829,-17.2446,0,0,0,0,0,0,0,-1,1490,372,2.61829,17.2446
273,652,2.66345,-17.1983,0,0,0,0,0,0,0,-1,1497,372,2.66345,17.1983
280,652,3.09753,-17.1169,0,0,0,0,0,0,0,-1,1504,372,3.09754,17.1169
287,652,6.36182,-12.2355,0,0,0,0,0,0,0,-1,1511,372,6.3618,12.2355
294,652,-3.00867,-19.6371,0,0,0,0,0,0,0,-1,1518,372,-3.00867,19.6371
301,652,-2.13342,-19.8575,0,0,0,0,0,0,0,-1,1525,372,-2.13338,19.8575
308,652,-1.25806,-20.0779,0,0,0,0,0,0,0,-1,1532,372,-1.25808,20.0779
315,652,2.33008,-15.3782,0,0,0,0,0,0,0,-1,1539,372,2.33012,15.3782
322,652,3.10327,-14.0434,0,0,0,0,0,0,0,-1,1546,372,3.10324,14.0434
329,652,2.7074,-13.3513,0,0,0,0,0,0,0,-1,1553,372,2.70745,13.3513
336,652,1.76904,-14.9183,0,0,0,0,0,0,0,-1,1560,372,1.7691,14.9183
343,652,4.18225,-6.7092,0,0,0,0,0,0,0,-1,1567,372,4.18231,6.70921
350,652,4.64563,-7.2074,0,0,0,0,0,0,0,-1,1574,372,4.6456,7.2074
357,652,0,0,0,0,0,0,0,0,0,-1,1581,372,0,0
364,652,0,0,0,0,0,0,0,0,0,-1,1588,372,0,0
371,652,0,0,0,0,0,0,0,0,0,-1,1595,372,0,0
378,652,0,0,0,0,0,0,0,0,0,-1,1602,372,0,0
385,652,0,0,0,0,0,0,0,0,0,-1,1609,372,0,0
392,652,0,0,0,0,0,0,0,0,0,-1,1616,372,0,0
399,652,0,0,0,0,0,0,0,0,0,-1,1623,372,0,0
406,652,0,0,0,0,0,0,0,0,0,-1,1630,372,0,0
413,652,0,0,0,0,0,0,0,0,0,-1,1637,372,0,0
420,652,0,0,0,0,0,0,0,0,0,-1,1644,372,0,0
427,652,0,0,0,0,0,0,0,0,0,-1,1651,372,0,0
434,652,0,0,0,0,0,0,0,0,0,-1,1658,372,0,0
441,652,0,0,0,0,0,0,0,0,0,-1,1665,372,0,0
448,652,0,0,0,0,0,0,0,0,0,-1,1672,372,0,0
455,652,0,0,0,0,0,0,0,0,0,-1,1679,372,0,0
462,652,0,0,0,0,0,0,0,0,0,-1,1686,372,0,0
469,652,0,0,0,0,0,0,0,0,0,-1,1693,372,0,0
476,652,0,0,0,0,0,0,0,0,0,-1,1700,372,0,0
483,652,0,0,0,0,0,0,0,0,0,-1,1707,372,0,0
490,652,0,0,0,0,0,0,0,0,0,-1,1714,372,0,0
497,652,0,0,0,0,0,0,0,0,0,-1,1721,372,0,0
504,652,0,0,0,0,0,0,0,0,0,-1,1728,372,0,0
511,652,0,0,0,0,0,0,0,0,0,-1,1735,372,0,0
518,652,0,0,0,0,0,0,0,0,0,-1,1742,372,0,0
525,652,0,0,0,0,0,0,0,0,0,-1,1749,372,0,0
532,652,0,0,0,0,0,0,0,0,0,-1,1756,372,0,0
539,652,0,0,0,0,0,0,0,0,0,-1,1763,372,0,0
546,652,0,0,0,0,0,0,0,0,0,-1,1770,372,0,0
553,652,0,0,0,0,0,0,0,0,0,-1,1777,372,0,0
560,652,0,0,0,0,0,0,0,0,0,-1,1784,372,0,0
567,652,0,0,0,0,0,0,0,0,0,-1,1791,372,0,0
574,652,0,0,0,0,0,0,0,0,0,-1,1798,372,0,0
581,652,0,0,0,0,0,0,0,0,0,-1,1805,372,0,0
588,652,0,0,0,0,0,0,0,0,0,-1,1812,372,0,0
595,652,0,0,0,0,0,0,0,0,0,-1,1819,372,0,0
602,652,0,0,0,0,0,0,0,0,0,-1,1826,372,0,0
609,652,0,0,0,0,0,0,0,0,0,-1,1833,372,0,0
616,652,0,0,0,0,0,0,0,0,0,-1,1840,372,0,0
623,652,0,0,0,0,0,0,0,0,0,-1,1847,372,0,0
630,652,0,0,0,0,0,0,0,0,0,-1,1854,372,0,0
637,652,0,0,0,0,0,0,0,0,0,-1,1861,372,0,0
644,652,0,0,0,0,0,0,0,0,0,-1,1868,372,0,0
651,652,0,0,0,0,0,0,0,0,0,-1,1875,372,0,0
658,652,0,0,0,0,0,0,0,0,0,-1,1882,372,0,0
665,652,0,0,0,0,0,0,0,0,0,-1,1889,372,0,0
672,652,0,0,0,0,0,0,0,0,0,-1,1896,372,0,0
679,652,0,0,0,0,0,0,0,0,0,-1,1903,372,0,0
686,652,0,0,0,0,0,0,0,0,0,-1,1910,372,0,0
693,652,0,0,0,0,0,0,0,0,0,-1,1917,372,0,0
700,652,0,0,0,0,0,0,0,0,0,-1,1924,372,0,0
707,652,0,0,0,0,0,0,0,0,0,-1,1931,372,0,0
714,652,0,0,0,0,0,0,0,0,0,-1,1938,372,0,0
721,652,0,0,0,0,0,0,0,0,0,-1,1945,372,0,0
728,652,0,0,0,0,0,0,0,0,0,-1,1952,372,0,0
735,652,0,0,0,0,0,0,0,0,0,-1,1959,372,0,0
742,652,0,0,0,0,0,0,0,0,0,-1,1966,372,0,0
749,652,0,0,0,0,0,0,0,0,0,-1,1973,372,0,0
756,652,0,0,0,0,0,0,0,0,0,-1,1980,372,0,0
763,652,0,0,0,0,0,0,0,0,0,-1,1987,372,0,0
770,652,0,0,0,0,0,0,0,0,0,-1,1994,372,0,0
777,652,0,0,0,0,0,0,0,0,0,-1,2001,372,0,0
784,652,0,0,0,0,0,0,0,0,0,-1,2008,372,0,0
791,652,0,0,0,0,0,0,0,0,0,-1,2015,372,0,0
798,652,0,0,0,0,0,0,0,0,0,-1,2022,372,0,0
805,652,0,0,0,0,0,0,0,0,0,-1,2029,372,0,0
812,652,0,0,0,0,0,0,0,0,0,-1,2036,372,0,0
-700,645,0,0,0,0,0,0,0,0,0,-1,524,379,0,0
-693,645,0,0,0,0,0,0,0,0,0,-1,531,379,0,0
-686,645,0,0,0,0,0,0,0,0,0,-1,538,379,0,0
-679,645,0,0,0,0,0,0,0,0,0,-1,545,379,0,0
-672,645,0,0,0,0,0,0,0,0,0,-1,552,379,0,0
-665,645,0,0,0,0,0,0,0,0,0,-1,559,379,0,0
-658,645,0,0,0,0,0,0,0,0,0,-1,566,379,0,0
-651,645,0,0,0,0,0,0,0,0,0,-1,573,379,0,0
-644,645,0,0,0,0,0,0,0,0,0,-1,580,379,0,0
-637,645,0,0,0,0,0,0,0,0,0,-1,587,379,0,0
-630,645,0,0,0,0,0,0,0,0,0,-1,594,379,0,0
-623,645,0,0,0,0,0,0,0,0,0,-1,601,379,0,0
-616,645,0,0,0,0,0,0,0,0,0,-1,608,379,0,0
-609,645,0,0,0,0,0,0,0,0,0,-1,615,379,0,0
-602,645,0,0,0,0,0,0,0,0,0,-1,622,379,0,0
-595,645,0,0,0,0,0,0,0,0,0,-1,629,379,0,0
-588,645,0,0,0,0,0,0,0,0,0,-1,636,379,0,0
-581,645,0,0,0,0,0,0,0,0,0,-1,643,379,0,0
-574,645,0,0,0,0,0,0,0,0,0,-1,650,379,0,0
-567,645,0,0,0,0,0,0,0,0,0,-1,657,379,0,0
-560,645,0,0,0,0,0,0,0,0,0,-1,664,379,0,0
-553,645,0,0,0,0,0,0,0,0,0,-1,671,379,0,0
-546,645,0,0,0,0,0,0,0,0,0,-1,678,379,0,0
-539,645,0,0,0,0,0,0,0,0,0,-1,685,379,0,0
-532,645,0,0,0,0,0,0,0,0,0,-1,692,379,0,0
-525,645,0,0,0,0,0,0,0,0,0,-1,699,379,0,0
-518,645,0,0,0,0,0,0,0,0,0,-1,706,379,0,0
-511,645,0,0,0,0,0,0,0,0,0,-1,713,379,0,0
-504,645,0,0,0,0,0,0,0,0,0,-1,720,379,0,0
-497,645,0,0,0,0,0,0,0,0,0,-1,727,379,0,0
-490,645,0,0,0,0,0,0,0,0,0,-1,734,379,0,0
-483,645,0,0,0,0,0,0,0,0,0,-1,741,379,0,0
-476,645,0,0,0,0,0,0,0,0,0,-1,748,379,0,0
-469,645,0,0,0,0,0,0,0,0,0,-1,755,379,0,0
-462,645,0,0,0,0,0,0,0,0,0,-1,762,379,0,0
-455,645,0,0,0,0,0,0,0,0,0,-1,769,379,0,0
-448,645,0,0,0,0,0,0,0,0,0,-1,776,379,0,0
-441,645,0,0,0,0,0,0,0,0,0,-1,783,379,0,0
-434,645,0,0,0,0,0,0,0,0,0,-1,790,379,0,0
-427,645,0,0,0,0,0,0,0,0,0,-1,797,379,0,0
-420,645,0,0,0,0,0,0,0,0,0,-1,804,379,0,0
-413,645,0,0,0,0,0,0,0,0,0,-1,811,379,0,0
-406,645,0,0,0,0,0,0,0,0,0,-1,818,379,0,0
-399,645,0,0,0,0,0,0,0,0,0,-1,825,379,0,0
-392,645,0,0,0,0,0,0,0,0,0,-1,832,379,0,0
-385,645,0,0,0,0,0,0,0,0,0,-1,839,379,0,0
-378,645,0,0,0,0,0,0,0,0,0,-1,846,379,0,0
-371,645,0,0,0,0,0,0,0,0,0,-1,853,379,0,0
-364,645,0,0,0,0,0,0,0,0,0,-1,860,379,0,0
-357,645,0,0,0,0,0,0,0,0,0,-1,867,379,0,0
-350,645,0,0,0,0,0,0,0,0,0,-1,874,379,0,0
-343,645,0,0,0,0,0,0,0,0,0,-1,881,379,0,0
-336,645,0,0,0,0,0,0,0,0,0,-1,888,379,0,0
-329,645,0,0,0,0,0,0,0,0,0,-1,895,379,0,0
-322,645,0,0,0,0,0,0,0,0,0,-1,902,379,0,0
-315,645,0,0,0,0,0,0,0,0,0,-1,909,379,0,0
-308,645,0,0,0,0,0,0,0,0,0,-1,916,379,0,0
-301,645,0,0,0,0,0,0,0,0,0,-1,923,379,0,0
-294,645,0,0,0,0,0,0,0,0,0,-1,930,379,0,0
-287,645,0,0,0,0,0,0,0,0,0,-1,937,379,0,0
-280,645,0,0,0,0,0,0,0,0,0,-1,944,379,0,0
-273,645,0,0,0,0,0,0,0,0,0,-1,951,379,0,0
-266,645,0,0,0,0,0,0,0,0,0,-1,958,379,0,0
-259,645,0,0,0,0,0,0,0,0,0,-1,965,379,0,0
-252,645,3.57031,-12.7438,0,0,0,0,0,0,0,-1,972,379,3.57033,12.7438
-245,645,2.27789,-13.5026,0,0,0,0,0,0,0,-1,979,379,2.2779,13.5026
-238,645,0.993347,-14.2849,0,0,0,0,0,0,0,-1,986,379,0.993334,14.2848
-231,645,4.76465,-17.1852,0,0,0,0,0,0,0,-1,993,379,4.76463,17.1852
-224,645,4.32983,-18.4094,0,0,0,0,0,0,0,-1,1000,379,4.32981,18.4094
-217,645,4.55615,-19.2188,0,0,0,0,0,0,0,-1,1007,379,4.55617,19.2187
-210,645,5.05524,-17.6685,0,0,0,0,0,0,0,-1,1014,379,5.05522,17.6685
-203,645,3.03577,-18.7343,0,0,0,0,0,0,0,-1,1021,379,3.03582,18.7343
-196,645,3.26074,-17.9044,0,0,0,0,0,0,0,-1,1028,379,3.26077,17.9045
-189,645,3.55286,-17.3779,0,0,0,0,0,0,0,-1,1035,379,3.55289,17.3779
-182,645,3.84497,-16.8514,0,0,0,0,0,0,0,-1,1042,379,3.84502,16.8514
-175,645,3.41406,-17.339,0,0,0,0,0,0,0,-1,1049,379,3.41404,17.339
-168,645,3.71057,-17.9091,0.0246742,-0.0292165,0.0102958,0.0265742,-0.0311165,0.18249,0.0333421,0.0477259,1056,379,3.71057,17.9091
-161,645,3.94177,-17.7702,0.0245021,-0.0287754,0.0106652,0.0265578,-0.0308311,0.190409,0.0331641,0.047271,1063,379,3.94176,17.7702
-154,645,3.99683,-18.1533,0.0241766,-0.0274206,0.0109523,0.0264052,-0.0296491,0.200737,0.032381,0.0426786,1070,379,3.99685,18.1533
-147,645,4.05664,-18.4735,0.0232227,-0.0254,0.0109471,0.0255737,-0.027751,0.211546,0.0307956,0.0398915,1077,379,4.05662,18.4735
-140,645,3.69128,-18.3873,0.0220731,-0.0228906,0.0107478,0.0245101,-0.0253276,0.222973,0.0287751,0.0370846,1084,379,3.69133,18.3873
-133,645,3.58032,-18.4281,0.0206408,-0.0200945,0.0103537,0.0231213,-0.0225751,0.235149,0.0263835,0.0329615,1091,379,3.58033,18.4281
-126,645,3.70752,-18.5396,0.018954,-0.0171249,0.00987594,0.0214804,-0.0196513,0.250447,0.0237552,0.0260405,1098,379,3.70746,18.5396
-119,645,3.67053,-18.7462,0.0169766,-0.0141435,0.00913673,0.0194608,-0.0166277,0.265474,0.0208571,0.0172096,1105,379,3.67056,18.7461
-112,645,3.63733,-18.936,0.0147995,-0.0111291,0.00820962,0.0171802,-0.0135098,0.282255,0.0177611,0.0120117,1112,379,3.63737,18.936
-105,645,3.62146,-19.0831,0.012489,-0.00852224,0.0071686,0.0147018,-0.010735,0.299393,0.0147453,0.0117097,1119,379,3.62141,19.0831
-98,645,3.58813,-19.2083,0.00994618,-0.00562127,0.00596414,0.0119684,-0.00764353,0.326904,0.0114144,0.0134583,1126,379,3.58812,19.2083
-91,645,3.57458,-19.3485,0.00751273,-0.00337105,0.00479918,0.00932662,-0.00518494,0.361361,0.00849124,0.0153479,1133,379,3.57461,19.3485
-84,645,3.56506,-19.5011,0.00543494,-0.00253462,0.00389958,0.00702557,-0.00412525,0.387297,0.00651012,0.0163007,1140,379,3.56503,19.5011
-77,645,3.51843,-19.6692,0.00159877,-0.00139867,0.00344946,0.00386102,-0.00366093,0.580462,0.00434331,0.0138122,1147,379,3.51839,19.6692
-70,645,3.51404,-19.7865,-0.00154748,5.05454e-05,0.00147679,0.000930623,-0.00242756,1.03337,0.00200202,0.0123221,1154,379,3.51409,19.7865
-63,645,3.51233,-19.8786,-0.00311262,0.00168559,-5.5841e-06,0.0016856,-0.00311262,-1.56963,0.0028108,0.0121698,1161,379,3.51227,19.8786
-56,645,3.49548,-19.9706,-0.00288368,0.00205325,-0.000502704,0.00210391,-0.00293435,-1.47034,0.00292198,0.0126853,1168,379,3.49545,19.9706
-49,645,3.48157,-20.0788,-0.00245287,0.00205368,-0.000683886,0.00215518,-0.00255437,-1.42346,0.00272231,0.0105412,1175,379,3.48163,20.0788
-42,645,3.45227,-20.1831,-0.00191151,0.00212248,-0.000534939,0.00219222,-0.00198125,-1.44117,0.00241058,0.010021,1182,379,3.45228,20.1831
-35,645,3.44238,-20.2814,-0.00177379,0.00202476,-0.000461412,0.00208,-0.00182903,-1.45163,0.00225843,0.0100734,1189,379,3.44239,20.2814
-28,645,3.43079,-20.3783,-0.00165316,0.00187507,-0.00042943,0.00192658,-0.00170468,-1.45141,0.00209781,0.00803984,1196,379,3.43073,20.3783
-21,645,3.41382,-20.4425,-0.00154113,0.00172794,-0.000373857,0.00177015,-0.00158334,-1.45837,0.00193714,0.00978491,1203,379,3.41376,20.4425
-14,645,3.41541,-20.5005,-0.00136363,0.00149494,-0.000491217,0.001577,-0.00144568,-1.40528,0.0017457,0.00991038,1210,379,3.41534,20.5005
-7,645,3.41235,-20.5865,-0.0010574,0.0014225,-0.000562465,0.00154411,-0.00117901,-1.35787,0.0015769,0.0132442,1217,379,3.41234,20.5865
0,645,3.35852,-20.6176,-0.000722405,0.00140176,-0.000528777,0.00152611,-0.000846756,-1.33983,0.00138856,0.0243228,1224,379,3.35852,20.6175
7,645,3.37085,-20.672,-0.000572032,0.00171135,-0.000412345,0.00178353,-0.000644213,-1.3975,0.0014522,0.0158054,1231,379,3.37081,20.672
14,645,3.39612,-20.6959,-0.00053655,0.00258872,-0.00038065,0.00263441,-0.000582244,-1.45133,0.00197911,0.0150199,1238,379,3.39607,20.6959
21,645,3.35413,-20.7363,-0.0004537,0.00309119,-0.000555132,0.00317609,-0.0005386,-1.41903,0.00231788,0.0104072,1245,379,3.35415,20.7363
28,645,3.33716,-20.7806,6.59458e-05,0.00337604,-0.000761916,0.003543,-0.00010101,-1.35508,0.00239638,0.00897047,1252,379,3.33711,20.7806
35,645,3.32605,-20.7897,0.000733769,0.00346243,-0.000772512,0.00366596,0.000530244,-1.31319,0.0022878,0.00858781,1259,379,3.32602,20.7897
42,645,3.32678,-20.8046,0.00123792,0.00375534,-0.000490015,0.00384736,0.0011459,-1.38517,0.00228099,0.00852661,1266,379,3.32675,20.8046
49,645,3.36658,-20.8138,0.0015304,0.00405315,-0.000288039,0.00408562,0.00149793,-1.45854,0.00238664,0.0115367,1273,379,3.36652,20.8138
56,645,3.35706,-20.7983,0.0017474,0.00401719,-0.000195415,0.0040339,0.0017307,-1.48554,0.00233678,0.0116659,1280,379,3.35703,20.7983
63,645,3.33508,-20.7845,0.00205686,0.00391365,-1.67873e-06,0.00391365,0.00205686,-1.56989,0.00226053,0.0111523,1287,379,3.33514,20.7845
70,645,3.31824,-20.7739,0.00225306,0.00372525,0.000238087,0.00376279,0.00221551,1.41438,0.00218384,0.0149364,1294,379,3.31819,20.7739
77,645,3.30261,-20.7763,0.00229485,0.00347886,0.000464725,0.00363948,0.00213423,1.23803,0.00211169,0.018905,1301,379,3.30267,20.7763
84,645,3.33582,-20.7481,0.00221035,0.00317205,0.000650676,0.00350028,0.00188213,1.10361,0.0020228,0.0136,1308,379,3.33587,20.7481
91,645,3.31152,-20.7143,0.00215543,0.00269814,0.00080061,0.00327213,0.00158144,0.948792,0.00188952,0.0148536,1315,379,3.31158,20.7143
98,645,3.29626,-20.6414,0.00224499,0.00231046,0.000816991,0.00309537,0.00146008,0.805421,0.00178807,0.0129115,1322,379,3.29627,20.6415
105,645,3.2876,-20.5654,0.00232451,0.00202911,0.000893521,0.00308246,0.00127116,0.703489,0.00178874,0.00959357,1329,379,3.2876,20.5654
112,645,3.27185,-20.5236,0.00255086,0.00177833,0.000800909,0.00305378,0.00127541,0.560712,0.00177106,0.00852448,1336,379,3.27189,20.5236
119,645,3.26575,-20.4532,0.00284536,0.00138667,0.000770515,0.00317697,0.00105506,0.406421,0.00186838,0.00827496,1343,379,3.26572,20.4532
126,645,3.24609,-20.3892,0.00306449,0.00162099,0.000845386,0.00345432,0.00123116,0.432063,0.00202158,0.0108389,1350,379,3.24606,20.3892
133,645,3.23413,-20.3265,0.00303116,0.00202154,0.000837758,0.00350445,0.00154826,0.514243,0.00202786,0.0127333,1357,379,3.23419,20.3265
140,645,3.2334,-20.2198,0.00311218,0.00240269,0.000663278,0.00350962,0.00200525,0.539835,0.00203315,0.0121546,1364,379,3.23337,20.2198
147,645,3.224,-20.1378,0.00351527,0.00247415,0.000365774,0.00363093,0.00235849,0.306253,0.00212735,0.0119312,1371,379,3.22399,20.1378
154,645,3.22913,-20.0486,0.00399499,0.00254857,0.000370075,0.00408417,0.00245938,0.236487,0.00237435,0.0111095,1378,379,3.22914,20.0486
161,645,3.2179,-19.9479,0.00413279,0.00277473,0.000596712,0.00435772,0.0025498,0.360482,0.00252806,0.0130758,1385,379,3.21788,19.9479
168,645,3.17932,-19.833,0.00381486,0.00301719,0.000793858,0.00430444,0.00252761,0.552616,0.00249774,0.0155895,1392,379,3.17927,19.833
175,645,3.18335,-19.7043,0.00339363,0.00324601,0.00103469,0.00435714,0.0022825,0.749792,0.00251655,0.0139919,1399,379,3.1834,19.7043
182,645,3.18188,-19.5804,0.00297773,0.00350618,0.00142279,0.00468907,0.00179484,0.877207,0.00273192,0.0103146,1406,379,3.18193,19.5803
189,645,3.17883,-19.4422,0.00208381,0.00392918,0.00187185,0.00509339,0.000919591,1.01438,0.00313436,0.0107384,1413,379,3.17882,19.4422
196,645,3.14478,-19.3176,0.000309537,0.00402359,0.00227585,0.00510391,-0.000770789,1.1276,0.0036865,0.0108752,1420,379,3.14478,19.3176
203,645,3.10962,-19.1656,-0.0022105,0.0032946,0.00245938,0.00423327,-0.00314917,1.20619,0.00427755,0.0107997,1427,379,3.10962,19.1656
210,645,3.14246,-18.977,-0.00379365,0.00310407,0.00190733,0.00359634,-0.00428592,1.31821,0.00455663,0.0158364,1434,379,3.1424,18.977
217,645,3.11658,-18.8501,-0.00468758,0.00313222,0.00168786,0.00348098,-0.00503634,1.36703,0.00494473,0.0164159,1441,379,3.11658,18.8501
224,645,3.05835,-18.7173,-0.00516261,0.00346924,0.00160652,0.00375854,-0.00545191,1.39263,0.00534753,0.0139929,1448,379,3.05841,18.7173
231,645,3.05701,-18.4757,-0.00511015,0.00391961,0.00185017,0.004284,-0.00547454,1.37634,0.00564805,0.0159265,1455,379,3.05698,18.4757
238,645,3.04285,-18.295,-0.0048943,0.00460855,0.00235852,0.00516171,-0.00544747,1.34042,0.00612595,0.0127355,1462,379,3.04289,18.295
245,645,3.03186,-18.1159,-0.00451846,0.00527885,0.00270724,0.00597716,-0.00521676,1.31836,0.00646778,0.0126656,1469,379,3.03182,18.1159
252,645,3.04724,-17.8652,-0.00351656,0.00615371,0.00326939,0.00715531,-0.00451816,1.27352,0.00679677,0.0173505,1476,379,3.04727,17.8652
259,645,2.98657,-17.6056,-0.00137292,0.00600646,0.00376608,0.00758907,-0.00295553,1.17297,0.00628079,0.0295129,1483,379,2.98654,17.6056
266,645,2.87244,-17.4249,0.000909521,0.00621765,0.00475282,0.00900724,-0.00188007,1.04004,0.00671976,0.0262698,1490,379,2.87245,17.4249
273,645,2.91553,-17.2681,0.00300481,0.00662573,0.00595245,0.011037,-0.00140642,0.933029,0.00786879,0.0270357,1497,379,2.91556,17.2681
280,645,3.20862,-17.0367,0.00562506,0.00665885,0.00711093,0.0132717,-0.000987741,0.821679,0.00919472,0.0480867,1504,379,3.20865,17.0367
287,645,3.44629,-16.9021,0,0,0,0,0,0,0,-1,1511,379,3.44631,16.9021
294,645,2.81799,-15.901,0,0,0,0,0,0,0,-1,1518,379,2.81801,15.901
301,645,-0.358398,-17.9265,0,0,0,0,0,0,0,-1,1525,379,-0.358343,17.9265
308,645,2.10364,-17.449,0,0,0,0,0,0,0,-1,1532,379,2.10368,17.449
315,645,2.92749,-16.2691,0,0,0,0,0,0,0,-1,1539,379,2.92749,16.2691
322,645,2.93494,-15.3232,0,0,0,0,0,0,0,-1,1546,379,2.9349,15.3232
329,645,2.93628,-15.064,0,0,0,0,0,0,0,-1,1553,379,2.93633,15.064
336,645,2.35303,-12.1996,0,0,0,0,0,0,0,-1,1560,379,2.35297,12.1996
343,645,0.977295,-13.792,0,0,0,0,0,0,0,-1,1567,379,0.977251,13.792
350,645,3.93213,-5.72198,0,0,0,0,0,0,0,-1,1574,379,3.9321,5.72198
357,645,1.63928,-6.465,0,0,0,0,0,0,0,-1,1581,379,1.63926,6.46499
364,645,-0.0794678,-3.22021,0,0,0,0,0,0,0,-1,1588,379,-0.0794987,3.22021
371,645,0,0,0,0,0,0,0,0,0,-1,1595,379,0,0
378,645,0,0,0,0,0,0,0,0,0,-1,1602,379,0,0
385,645,0,0,0,0,0,0,0,0,0,-1,1609,379,0,0
392,645,0,0,0,0,0,0,0,0,0,-1,1616,379,0,0
399,645,0,0,0,0,0,0,0,0,0,-1,1623,379,0,0
406,645,0,0,0,0,0,0,0,0,0,-1,1630,379,0,0
413,645,0,0,0,0,0,0,0,0,0,-1,1637,379,0,0
420,645,0,0,0,0,0,0,0,0,0,-1,1644,379,0,0
427,645,0,0,0,0,0,0,0,0,0,-1,1651,379,0,0
434,645,0,0,0,0,0,0,0,0,0,-1,1658,379,0,0
441,645,0,0,0,0,0,0,0,0,0,-1,1665,379,0,0
448,645,0,0,0,0,0,0,0,0,0,-1,1672,379,0,0
455,645,0,0,0,0,0,0,0,0,0,-1,1679,379,0,0
462,645,0,0,0,0,0,0,0,0,0,-1,1686,379,0,0
469,645,0,0,0,0,0,0,0,0,0,-1,1693,379,0,0
476,645,0,0,0,0,0,0,0,0,0,-1,1700,379,0,0
483,645,0,0,0,0,0,0,0,0,0,-1,1707,379,0,0
490,645,0,0,0,0,0,0,0,0,0,-1,1714,379,0,0
497,645,0,0,0,0,0,0,0,0,0,-1,1721,379,0,0
504,645,0,0,0,0,0,0,0,0,0,-1,1728,379,0,0
511,645,0,0,0,0,0,0,0,0,0,-1,1735,379,0,0
518,645,0,0,0,0,0,0,0,0,0,-1,1742,379,0,0
525,645,0,0,0,0,0,0,0,0,0,-1,1749,379,0,0
532,645,0,0,0,0,0,0,0,0,0,-1,1756,379,0,0
539,645,0,0,0,0,0,0,0,0,0,-1,1763,379,0,0
546,645,0,0,0,0,0,0,0,0,0,-1,1770,379,0,0
553,645,0,0,0,0,0,0,0,0,0,-1,1777,379,0,0
560,645,0,0,0,0,0,0,0,0,0,-1,1784,379,0,0
567,645,0,0,0,0,0,0,0,0,0,-1,1791,379,0,0
574,645,0,0,0,0,0,0,0,0,0,-1,1798,379,0,0
581,645,0,0,0,0,0,0,0,0,0,-1,1805,379,0,0
588,645,0,0,0,0,0,0,0,0,0,-1,1812,379,0,0
595,645,0,0,0,0,0,0,0,0,0,-1,1819,379,0,0
602,645,0,0,0,0,0,0,0,0,0,-1,1826,379,0,0
609,645,0,0,0,0,0,0,0,0,0,-1,1833,379,0,0
616,645,0,0,0,0,0,0,0,0,0,-1,1840,379,0,0
623,645,0,0,0,0,0,0,0,0,0,-1,1847,379,0,0
630,645,0,0,0,0,0,0,0,0,0,-1,1854,379,0,0
637,645,0,0,0,0,0,0,0,0,0,-1,1861,379,0,0
644,645,0,0,0,0,0,0,0,0,0,-1,1868,379,0,0
651,645,0,0,0,0,0,0,0,0,0,-1,1875,379,0,0
658,645,0,0,0,0,0,0,0,0,0,-1,1882,379,0,0
665,645,0,0,0,0,0,0,0,0,0,-1,1889,379,0,0
672,645,0,0,0,0,0,0,0,0,0,-1,1896,379,0,0
679,645,0,0,0,0,0,0,0,0,0,-1,1903,379,0,0
686,645,0,0,0,0,0,0,0,0,0,-1,1910,379,0,0
693,645,0,0,0,0,0,0,0,0,0,-1,1917,379,0,0
700,645,0,0,0,0,0,0,0,0,0,-1,1924,379,0,0
707,645,0,0,0,0,0,0,0,0,0,-1,1931,379,0,0
714,645,0,0,0,0,0,0,0,0,0,-1,1938,379,0,0
721,645,0,0,0,0,0,0,0,0,0,-1,1945,379,0,0
728,645,0,0,0,0,0,0,0,0,0,-1,1952,379,0,0
735,645,0,0,0,0,0,0,0,0,0,-1,1959,379,0,0
742,645,0,0,0,0,0,0,0,0,0,-1,1966,379,0,0
749,645,0,0,0,0,0,0,0,0,0,-1,1973,379,0,0
756,645,0,0,0,0,0,0,0,0,0,-1,1980,379,0,0
763,645,0,0,0,0,0,0,0,0,0,-1,1987,379,0,0
770,645,0,0,0,0,0,0,0,0,0,-1,1994,379,0,0
777,645,0,0,0,0,0,0,0,0,0,-1,2001,379,0,0
784,645,0,0,0,0,0,0,0,0,0,-1,2008,379,0,0
791,645,0,0,0,0,0,0,0,0,0,-1,2015,379,0,0
798,645,0,0,0,0,0,0,0,0,0,-1,2022,379,0,0
805,645,0,0,0,0,0,0,0,0,0,-1,2029,379,0,0
812,645,0,0,0,0,0,0,0,0,0,-1,2036,379,0,0
-700,638,0,0,0,0,0,0,0,0,0,-1,524,386,0,0
-693,638,0,0,0,0,0,0,0,0,0,-1,531,386,0,0
-686,638,0,0,0,0,0,0,0,0,0,-1,538,386,0,0
-679,638,0,0,0,0,0,0,0,0,0,-1,545,386,0,0
-672,638,0,0,0,0,0,0,0,0,0,-1,552,386,0,0
-665,638,0,0,0,0,0,0,0,0,0,-1,559,386,0,0
-658,638,0,0,0,0,0,0,0,0,0,-1,566,386,0,0
-651,638,0,0,0,0,0,0,0,0,0,-1,573,386,0,0
-644,638,0,0,0,0,0,0,0,0,0,-1,580,386,0,0
-637,638,0,0,0,0,0,0,0,0,0,-1,587,386,0,0
-630,638,0,0,0,0,0,0,0,0,0,-1,594,386,0,0
-623,638,0,0,0,0,0,0,0,0,0,-1,601,386,0,0
-616,638,0,0,0,0,0,0,0,0,0,-1,608,386,0,0
-609,638,0,0,0,0,0,0,0,0,0,-1,615,386,0,0
-602,638,0,0,0,0,0,0,0,0,0,-1,622,386,0,0
-595,638,0,0,0,0,0,0,0,0,0,-1,629,386,0,0
-588,638,0,0,0,0,0,0,0,0,0,-1,636,386,0,0
-581,638,0,0,0,0,0,0,0,0,0,-1,643,386,0,0
-574,638,0,0,0,0,0,0,0,0,0,-1,650,386,0,0
-567,638,0,0,0,0,0,0,0,0,0,-1,657,386,0,0
-560,638,0,0,0,0,0,0,0,0,0,-1,664,386,0,0
-553,638,0,0,0,0,0,0,0,0,0,-1,671,386,0,0
-546,638,0,0,0,0,0,0,0,0,0,-1,678,386,0,0
-539,638,0,0,0,0,0,0,0,0,0,-1,685,386,0,0
-532,638,0,0,0,0,0,0,0,0,0,-1,692,386,0,0
-525,638,0,0,0,0,0,0,0,0,0,-1,699,386,0,0
-518,638,0,0,0,0,0,0,0,0,0,-1,706,386,0,0
-511,638,0,0,0,0,0,0,0,0,0,-1,713,386,0,0
-504,638,0,0,0,0,0,0,0,0,0,-1,720,386,0,0
-497,638,0,0,0,0,0,0,0,0,0,-1,727,386,0,0
-490,638,0,0,0,0,0,0,0,0,0,-1,734,386,0,0
-483,638,0,0,0,0,0,0,0,0,0,-1,741,386,0,0
-476,638,0,0,0,0,0,0,0,0,0,-1,748,386,0,0
-469,638,0,0,0,0,0,0,0,0,0,-1,755,386,0,0
-462,638,0,0,0,0,0,0,0,0,0,-1,762,386,0,0
-455,638,0,0,0,0,0,0,0,0,0,-1,769,386,0,0
-448,638,0,0,0,0,0,0,0,0,0,-1,776,386,0,0
-441,638,0,0,0,0,0,0,0,0,0,-1,783,386,0,0
-434,638,0,0,0,0,0,0,0,0,0,-1,790,386,0,0
-427,638,0,0,0,0,0,0,0,0,0,-1,797,386,0,0
-420,638,0,0,0,0,0,0,0,0,0,-1,804,386,0,0
-413,638,0,0,0,0,0,0,0,0,0,-1,811,386,0,0
-406,638,0,0,0,0,0,0,0,0,0,-1,818,386,0,0
-399,638,0,0,0,0,0,0,0,0,0,-1,825,386,0,0
-392,638,0,0,0,0,0,0,0,0,0,-1,832,386,0,0
-385,638,0,0,0,0,0,0,0,0,0,-1,839,386,0,0
-378,638,0,0,0,0,0,0,0,0,0,-1,846,386,0,0
-371,638,0,0,0,0,0,0,0,0,0,-1,853,386,0,0
-364,638,0,0,0,0,0,0,0,0,0,-1,860,386,0,0
-357,638,0,0,0,0,0,0,0,0,0,-1,867,386,0,0
-350,638,0,0,0,0,0,0,0,0,0,-1,874,386,0,0
-343,638,0,0,0,0,0,0,0,0,0,-1,881,386,0,0
-336,638,0,0,0,0,0,0,0,0,0,-1,888,386,0,0
-329,638,0,0,0,0,0,0,0,0,0,-1,895,386,0,0
-322,638,0,0,0,0,0,0,0,0,0,-1,902,386,0,0
-315,638,0,0,0,0,0,0,0,0,0,-1,909,386,0,0
-308,638,0,0,0,0,0,0,0,0,0,-1,916,386,0,0
-301,638,0,0,0,0,0,0,0,0,0,-1,923,386,0,0
-294,638,0,0,0,0,0,0,0,0,0,-1,930,386,0,0
-287,638,0,0,0,0,0,0,0,0,0,-1,937,386,0,0
-280,638,0,0,0,0,0,0,0,0,0,-1,944,386,0,0
-273,638,0,0,0,0,0,0,0,0,0,-1,951,386,0,0
-266,638,5.203,-11.6631,0,0,0,0,0,0,0,-1,958,386,5.203,11.6631
-259,638,4.63385,-11.2466,0,0,0,0,0,0,0,-1,965,386,4.63383,11.2465
-252,638,3.03979,-12.6195,0,0,0,0,0,0,0,-1,972,386,3.03981,12.6195
-245,638,2.12054,-13.6139,0,0,0,0,0,0,0,-1,979,386,2.12052,13.6139
-238,638,3.80823,-17.0571,0,0,0,0,0,0,0,-1,986,386,3.80822,17.0571
-231,638,4.19507,-16.7842,0,0,0,0,0,0,0,-1,993,386,4.19504,16.7843
-224,638,4.03497,-17.5518,0,0,0,0,0,0,0,-1,1000,386,4.03497,17.5519
-217,638,4.16846,-18.2269,0,0,0,0,0,0,0,-1,1007,386,4.16843,18.2269
-210,638,4.29834,-18.8424,0,0,0,0,0,0,0,-1,1014,386,4.29836,18.8424
-203,638,1.64349,-16.5565,0,0,0,0,0,0,0,-1,1021,386,1.64348,16.5566
-196,638,3.14844,-17.422,0,0,0,0,0,0,0,-1,1028,386,3.1485,17.422
-189,638,3.35083,-16.9688,0,0,0,0,0,0,0,-1,1035,386,3.35089,16.9688
-182,638,3.12671,-17.0299,0,0,0,0,0,0,0,-1,1042,386,3.12673,17.0299
-175,638,3.48352,-17.3823,0.0155797,-0.0186864,0.00497909,0.0162885,-0.0193952,0.141411,0.020628,0.0418378,1049,386,3.48354,17.3823
-168,638,3.66711,-17.5005,0.0158286,-0.0195817,0.00587759,0.0167787,-0.0205318,0.160262,0.0215775,0.033538,1056,386,3.66709,17.5005
-161,638,3.66919,-17.7143,0.0157216,-0.0197894,0.00643366,0.0168513,-0.0209191,0.173816,0.0218488,0.0302843,1063,386,3.66916,17.7143
-154,638,3.66028,-17.8711,0.0155179,-0.0191941,0.00688792,0.0168347,-0.0205109,0.188899,0.0215963,0.0244924,1070,386,3.6603,17.8711
-147,638,3.59998,-18.0572,0.0148145,-0.0180301,0.00707198,0.0162725,-0.0194881,0.203316,0.0206742,0.0199829,1077,386,3.60004,18.0571
-140,638,3.57874,-18.2418,0.0140053,-0.016418,0.00705354,0.0155611,-0.0179737,0.217091,0.0193781,0.014875,1084,386,3.57869,18.2418
-133,638,3.55603,-18.4592,0.0130276,-0.0144845,0.00686486,0.0146454,-0.0161023,0.231441,0.0177588,0.0120334,1091,386,3.55601,18.4592
-126,638,3.5343,-18.627,0.0118849,-0.0123572,0.00657294,0.0135524,-0.0140247,0.248447,0.0159224,0.0134945,1098,386,3.53424,18.627
-119,638,3.50635,-18.7911,0.0105395,-0.0101078,0.00602086,0.0121669,-0.0117353,0.263991,0.0138007,0.0154114,1105,386,3.50638,18.7911
-112,638,3.49536,-18.9714,0.00907315,-0.00775272,0.0052949,0.0106007,-0.00928028,0.28087,0.0114867,0.0145179,1112,386,3.49535,18.9714
-105,638,3.48535,-19.129,0.00754958,-0.0057202,0.00446678,0.00891306,-0.00708368,0.296265,0.00925583,0.0161292,1119,386,3.48532,19.129
-98,638,3.45703,-19.2656,0.00584136,-0.0034583,0.00353174,0.00703055,-0.00464749,0.32479,0.00678895,0.0158263,1126,386,3.45707,19.2656
-91,638,3.42505,-19.4149,0.00426239,-0.00168916,0.0026517,0.00527243,-0.0026992,0.363936,0.00468167,0.0124054,1133,386,3.42506,19.4149
-84,638,3.38928,-19.5489,0.00301362,-0.001007,0.00205142,0.00387554,-0.00186891,0.39776,0.00338334,0.0139084,1140,386,3.38933,19.5489
-77,638,3.39514,-19.6781,0.000799542,-0.000175676,0.00173493,0.00211409,-0.00149022,0.648406,0.00209131,0.0114459,1147,386,3.39515,19.6781
-70,638,3.41248,-19.7863,-0.000992494,0.000747197,0.000638342,0.000956292,-0.00120159,1.25425,0.00124853,0.0104318,1154,386,3.4125,19.7864
-63,638,3.40137,-19.8994,-0.00184856,0.00162781,-0.000205123,0.00163987,-0.00186063,-1.51206,0.00202235,0.0109103,1161,386,3.40134,19.8994
-56,638,3.38879,-20.0075,-0.0016702,0.0017543,-0.000470428,0.00181774,-0.00173365,-1.43673,0.00205059,0.0147535,1168,386,3.3888,20.0075
-49,638,3.38135,-20.1081,-0.00135352,0.00161494,-0.000527473,0.00170588,-0.00144447,-1.40006,0.00182094,0.0128326,1175,386,3.38135,20.1081
-42,638,3.36987,-20.1967,-0.00100087,0.00146445,-0.00038661,0.00152366,-0.00106007,-1.41884,0.0014997,0.011431,1182,386,3.36993,20.1967
-35,638,3.36865,-20.2924,-0.000914421,0.00116799,-0.000239314,0.00119514,-0.000941569,-1.45784,0.00123652,0.0105492,1189,386,3.36869,20.2924
-28,638,3.37012,-20.3817,-0.000831189,0.000770883,-0.000108118,0.000778146,-0.000838453,-1.50372,0.00093356,0.00974907,1196,386,3.37013,20.3817
-21,638,3.34692,-20.4385,-0.000719109,0.000378638,1.80894e-05,0.000378936,-0.000719407,1.55432,0.000644204,0.0108991,1203,386,3.34694,20.4385
-14,638,3.34058,-20.5038,-0.000542423,-0.000101517,0.000149793,-5.54408e-05,-0.000588499,1.27239,0.00037522,0.0108179,1210,386,3.34058,20.5037
-7,638,3.32007,-20.6165,-0.000261582,-0.000543152,0.000152144,-0.000195079,-0.000609655,0.412078,0.000359508,0.0159115,1217,386,3.32011,20.6165
0,638,3.31128,-20.5834,1.87023e-05,-0.000890065,0.000159217,4.57901e-05,-0.000917152,0.168517,0.000627256,0.0301182,1224,386,3.31123,20.5834
7,638,3.30286,-20.6547,0.000196289,-0.000949315,0.000181042,0.000224219,-0.000977245,0.153064,0.000737683,0.0222098,1231,386,3.30289,20.6547
14,638,3.32642,-20.704,0.000298698,-0.000733881,0.000159901,0.000322893,-0.000758076,0.150172,0.000640735,0.0118055,1238,386,3.32642,20.704
21,638,3.31116,-20.7284,0.000306215,-0.00042972,8.61759e-05,0.000316171,-0.000439676,0.115024,0.000438326,0.0102389,1245,386,3.31115,20.7284
28,638,3.30908,-20.7741,0.000553129,-0.000110465,-9.21555e-05,0.000565689,-0.000123026,-0.135459,0.000424125,0.00820918,1252,386,3.3091,20.7741
35,638,3.30774,-20.7917,0.000914317,0.000198221,-8.76919e-05,0.000924899,0.000187639,-0.120094,0.000564545,0.00959406,1259,386,3.30775,20.7917
42,638,3.3363,-20.8109,0.0011079,0.000569533,4.41006e-05,0.00111149,0.000565944,0.0811934,0.000641757,0.00927501,1266,386,3.3363,20.8109
49,638,3.35278,-20.8091,0.00113402,0.00110244,0.000161575,0.00128058,0.000955887,0.736695,0.000768695,0.0083355,1273,386,3.35278,20.809
56,638,3.35254,-20.7883,0.00108448,0.00132252,0.000210528,0.00144534,0.000961655,1.04267,0.000849541,0.0111671,1280,386,3.35249,20.7883
63,638,3.35474,-20.7945,0.00113063,0.00153494,0.000320502,0.00171171,0.000953857,1.06675,0.000990416,0.0128981,1287,386,3.35476,20.7945
70,638,3.35413,-20.7908,0.00108574,0.0016769,0.000426259,0.00190004,0.000862606,1.08855,0.00109853,0.017822,1294,386,3.35415,20.7908
77,638,3.34375,-20.7826,0.00093592,0.00173142,0.000497257,0.00197044,0.000696906,1.12274,0.00115376,0.0191161,1301,386,3.34375,20.7826
84,638,3.34814,-20.7396,0.000716884,0.00170307,0.000479091,0.00189749,0.000522468,1.1853,0.00113177,0.0133193,1308,386,3.34814,20.7396
91,638,3.3667,-20.6837,0.000592154,0.00137655,0.000414448,0.00155495,0.00041375,1.16431,0.000929924,0.0129168,1315,386,3.36675,20.6837
98,638,3.35596,-20.6339,0.000622849,0.00110073,0.000383958,0.00131402,0.000409554,1.06373,0.000776382,0.0119872,1322,386,3.35595,20.6338
105,638,3.32971,-20.5866,0.000768535,0.000762582,0.000349117,0.00111469,0.000416429,0.781135,0.000650386,0.00965199,1329,386,3.32969,20.5866
112,638,3.32324,-20.5518,0.00104629,0.000414471,0.00020064,0.00110462,0.000356141,0.282921,0.000651025,0.00913766,1336,386,3.32322,20.5518
119,638,3.32629,-20.4836,0.00136478,0.000118652,0.000110773,0.00137455,0.000108881,0.0879747,0.000882313,0.0107769,1343,386,3.32634,20.4836
126,638,3.32898,-20.3983,0.00169857,5.35729e-05,5.79565e-05,0.00170061,5.15336e-05,0.0351737,0.00111696,0.0150614,1350,386,3.32896,20.3983
133,638,3.32349,-20.3219,0.00185831,0.000120364,9.28625e-05,0.00186326,0.000115417,0.0532303,0.00120554,0.016307,1357,386,3.32351,20.3219
140,638,3.33203,-20.2286,0.00199042,0.000256057,3.28119e-05,0.00199104,0.000255437,0.0189097,0.00125094,0.0163299,1364,386,3.33203,20.2286
147,638,3.34229,-20.1429,0.00232742,0.000382633,1.77138e-05,0.00232758,0.000382472,0.00910734,0.00144125,0.0169664,1371,386,3.34223,20.1429
154,638,3.34949,-20.063,0.0026593,0.000460903,9.08675e-05,0.00266305,0.000457153,0.0412398,0.0016443,0.0155845,1378,386,3.34952,20.063
161,638,3.31799,-19.9592,0.0027557,0.00077831,0.000298283,0.00279972,0.000734295,0.146505,0.00167621,0.0178324,1385,386,3.31796,19.9592
168,638,3.32104,-19.8355,0.00252072,0.00109724,0.000488576,0.00267228,0.000945686,0.300789,0.00156464,0.023459,1392,386,3.32101,19.8355
175,638,3.33667,-19.7234,0.0022224,0.00142569,0.000670899,0.0026043,0.00104379,0.517487,0.00151342,0.0199237,1399,386,3.33665,19.7234
182,638,3.31555,-19.5939,0.00185458,0.00185186,0.000917206,0.00277043,0.000936014,0.784657,0.0016273,0.0132113,1406,386,3.31554,19.5939
189,638,3.29175,-19.4666,0.00119091,0.00240355,0.00124265,0.00317991,0.00041455,1.01237,0.00199616,0.011139,1413,386,3.2918,19.4666
196,638,3.27661,-19.3315,3.57219e-05,0.00265074,0.00152623,0.00335294,-0.000666485,1.13958,0.0024874,0.0131008,1420,386,3.27658,19.3315
203,638,3.25195,-19.2115,-0.00152395,0.00238615,0.00153809,0.00291866,-0.00205645,1.2375,0.00288672,0.0203485,1427,386,3.25198,19.2115
210,638,3.25122,-19.0622,-0.00254767,0.00242348,0.00131683,0.00275076,-0.00287494,1.3272,0.00324826,0.0173913,1434,386,3.25125,19.0622
217,638,3.24072,-18.8893,-0.00318001,0.00258454,0.0012503,0.00284404,-0.00343951,1.36615,0.00363324,0.0134682,1441,386,3.24076,18.8893
224,638,3.21753,-18.7056,-0.00349734,0.00290431,0.00127072,0.00314732,-0.00374035,1.38184,0.00398151,0.0119526,1448,386,3.21754,18.7056
231,638,3.20752,-18.5184,-0.00339698,0.00329446,0.00155579,0.0036385,-0.00374102,1.35316,0.0042607,0.0114457,1455,386,3.20753,18.5184
238,638,3.19983,-18.3509,-0.0031607,0.00392025,0.00205719,0.00447453,-0.00371498,1.30761,0.00473499,0.0124472,1462,386,3.19983,18.3509
245,638,3.17517,-18.1582,-0.00284702,0.00450399,0.00239602,0.00521599,-0.00355902,1.28195,0.00509627,0.0137713,1469,386,3.1752,18.1582
252,638,3.17407,-17.9539,-0.00214121,0.00524446,0.00287722,0.00623301,-0.00312977,1.23985,0.00550369,0.0147814,1476,386,3.17408,17.9538
259,638,3.16577,-17.7723,-0.000613712,0.00513221,0.00329034,0.00662735,-0.00210884,1.14429,0.00526392,0.0145802,1483,386,3.16572,17.7723
266,638,3.11218,-17.558,0.00095997,0.00528831,0.00406934,0.00773316,-0.00148489,1.02979,0.00571507,0.0115856,1490,386,3.11217,17.558
273,638,3.11914,-17.3723,0.00235884,0.00559018,0.00497307,0.00920345,-0.00125443,0.942462,0.00659368,0.010456,1497,386,3.11912,17.3723
280,638,3.19312,-17.0977,0.00411456,0.00563783,0.00584667,0.0107723,-0.00101987,0.850168,0.00754449,0.0202479,1504,386,3.19313,17.0977
287,638,3.43115,-16.654,0.00583551,0.00510728,0.00674627,0.0122275,-0.0012847,0.758438,0.00861189,0.0387818,1511,386,3.4312,16.654
294,638,3.55042,-16.2849,0,0,0,0,0,0,0,-1,1518,386,3.55038,16.2849
301,638,2.26965,-17.1755,0,0,0,0,0,0,0,-1,1525,386,2.26967,17.1755
308,638,2.7583,-16.6888,0.0106658,0.00297401,0.00958166,0.0171446,-0.00350477,0.59455,0.0127595,0.0484289,1532,386,2.75835,16.6888
315,638,3.19263,-16.0469,0.0110726,0.00145939,0.0101973,0.0175394,-0.00500737,0.565161,0.0136712,0.0431296,1539,386,3.1926,16.0469
322,638,3.13562,-15.6684,0.0111121,0.000160923,0.0108801,0.0178168,-0.00654375,0.552269,0.0145579,0.0459399,1546,386,3.13559,15.6684
329,638,3.25403,-14.9793,0,0,0,0,0,0,0,-1,1553,386,3.25407,14.9793
336,638,2.80005,-14.3015,0,0,0,0,0,0,0,-1,1560,386,2.80007,14.3015
343,638,-0.128174,-12.1073,0,0,0,0,0,0,0,-1,1567,386,-0.128176,12.1073
350,638,2.3783,-11.33,0,0,0,0,0,0,0,-1,1574,386,2.37831,11.33
357,638,0.130371,-3.02618,0,0,0,0,0,0,0,-1,1581,386,0.130345,3.0262
364,638,3.78149,-6.45215,0,0,0,0,0,0,0,-1,1588,386,3.78155,6.45216
371,638,4.18604,-6.71164,0,0,0,0,0,0,0,-1,1595,386,4.18598,6.71164
378,638,4.59045,-6.97113,0,0,0,0,0,0,0,-1,1602,386,4.5904,6.97112
385,638,0,0,0,0,0,0,0,0,0,-1,1609,386,0,0
392,638,0,0,0,0,0,0,0,0,0,-1,1616,386,0,0
399,638,0,0,0,0,0,0,0,0,0,-1,1623,386,0,0
406,638,0,0,0,0,0,0,0,0,0,-1,1630,386,0,0
413,638,0,0,0,0,0,0,0,0,0,-1,1637,386,0,0
420,638,0,0,0,0,0,0,0,0,0,-1,1644,386,0,0
427,638,0,0,0,0,0,0,0,0,0,-1,1651,386,0,0
434,638,0,0,0,0,0,0,0,0,0,-1,1658,386,0,0
441,638,0,0,0,0,0,0,0,0,0,-1,1665,386,0,0
448,638,0,0,0,0,0,0,0,0,0,-1,1672,386,0,0
455,638,0,0,0,0,0,0,0,0,0,-1,1679,386,0,0
462,638,0,0,0,0,0,0,0,0,0,-1,1686,386,0,0
469,638,0,0,0,0,0,0,0,0,0,-1,1693,386,0,0
476,638,0,0,0,0,0,0,0,0,0,-1,1700,386,0,0
483,638,0,0,0,0,0,0,0,0,0,-1,1707,386,0,0
490,638,0,0,0,0,0,0,0,0,0,-1,1714,386,0,0
497,638,0,0,0,0,0,0,0,0,0,-1,1721,386,0,0
504,638,0,0,0,0,0,0,0,0,0,-1,1728,386,0,0
511,638,0,0,0,0,0,0,0,0,0,-1,1735,386,0,0
518,638,0,0,0,0,0,0,0,0,0,-1,1742,386,0,0
525,638,0,0,0,0,0,0,0,0,0,-1,1749,386,0,0
532,638,0,0,0,0,0,0,0,0,0,-1,1756,386,0,0
539,638,0,0,0,0,0,0,0,0,0,-1,1763,386,0,0
546,638,0,0,0,0,0,0,0,0,0,-1,1770,386,0,0
553,638,0,0,0,0,0,0,0,0,0,-1,1777,386,0,0
560,638,0,0,0,0,0,0,0,0,0,-1,1784,386,0,0
567,638,0,0,0,0,0,0,0,0,0,-1,1791,386,0,0
574,638,0,0,0,0,0,0,0,0,0,-1,1798,386,0,0
581,638,0,0,0,0,0,0,0,0,0,-1,1805,386,0,0
588,638,0,0,0,0,0,0,0,0,0,-1,1812,386,0,0
595,638,0,0,0,0,0,0,0,0,0,-1,1819,386,0,0
602,638,0,0,0,0,0,0,0,0,0,-1,1826,386,0,0
609,638,0,0,0,0,0,0,0,0,0,-1,1833,386,0,0
616,638,0,0,0,0,0,0,0,0,0,-1,1840,386,0,0
623,638,0,0,0,0,0,0,0,0,0,-1,1847,386,0,0
630,638,0,0,0,0,0,0,0,0,0,-1,1854,386,0,0
637,638,0,0,0,0,0,0,0,0,0,-1,1861,386,0,0
644,638,0,0,0,0,0,0,0,0,0,-1,1868,386,0,0
651,638,0,0,0,0,0,0,0,0,0,-1,1875,386,0,0
658,638,0,0,0,0,0,0,0,0,0,-1,1882,386,0,0
665,638,0,0,0,0,0,0,0,0,0,-1,1889,386,0,0
672,638,0,0,0,0,0,0,0,0,0,-1,1896,386,0,0
679,638,0,0,0,0,0,0,0,0,0,-1,1903,386,0,0
686,638,0,0,0,0,0,0,0,0,0,-1,1910,386,0,0
693,638,0,0,0,0,0,0,0,0,0,-1,1917,386,0,0
700,638,0,0,0,0,0,0,0,0,0,-1,1924,386,0,0
707,638,0,0,0,0,0,0,0,0,0,-1,1931,386,0,0
714,638,0,0,0,0,0,0,0,0,0,-1,1938,386,0,0
721,638,0,0,0,0,0,0,0,0,0,-1,1945,386,0,0
728,638,0,0,0,0,0,0,0,0,0,-1,1952,386,0,0
735,638,0,0,0,0,0,0,0,0,0,-1,1959,386,0,0
742,638,0,0,0,0,0,0,0,0,0,-1,1966,386,0,0
749,638,0,0,0,0,0,0,0,0,0,-1,1973,386,0,0
756,638,0,0,0,0,0,0,0,0,0,-1,1980,386,0,0
763,638,0,0,0,0,0,0,0,0,0,-1,1987,386,0,0
770,638,0,0,0,0,0,0,0,0,0,-1,1994,386,0,0
777,638,0,0,0,0,0,0,0,0,0,-1,2001,386,0,0
784,638,0,0,0,0,0,0,0,0,0,-1,2008,386,0,0
791,638,0,0,0,0,0,0,0,0,0,-1,2015,386,0,0
798,638,0,0,0,0,0,0,0,0,0,-1,2022,386,0,0
805,638,0,0,0,0,0,0,0,0,0,-1,2029,386,0,0
812,638,0,0,0,0,0,0,0,0,0,-1,2036,386,0,0
-700,631,0,0,0,0,0,0,0,0,0,-1,524,393,0,0
-693,631,0,0,0,0,0,0,0,0,0,-1,531,393,0,0
-686,631,0,0,0,0,0,0,0,0,0,-1,538,393,0,0
-679,631,0,0,0,0,0,0,0,0,0,-1,545,393,0,0
-672,631,0,0,0,0,0,0,0,0,0,-1,552,393,0,0
-665,631,0,0,0,0,0,0,0,0,0,-1,559,393,0,0
-658,631,0,0,0,0,0,0,0,0,0,-1,566,393,0,0
-651,631,0,0,0,0,0,0,0,0,0,-1,573,393,0,0
-644,631,0,0,0,0,0,0,0,0,0,-1,580,393,0,0
-637,631,0,0,0,0,0,0,0,0,0,-1,587,393,0,0
-630,631,0,0,0,0,0,0,0,0,0,-1,594,393,0,0
-623,631,0,0,0,0,0,0,0,0,0,-1,601,393,0,0
-616,631,0,0,0,0,0,0,0,0,0,-1,608,393,0,0
-609,631,0,0,0,0,0,0,0,0,0,-1,615,393,0,0
-602,631,0,0,0,0,0,0,0,0,0,-1,622,393,0,0
-595,631,0,0,0,0,0,0,0,0,0,-1,629,393,0,0
-588,631,0,0,0,0,0,0,0,0,0,-1,636,393,0,0
-581,631,0,0,0,0,0,0,0,0,0,-1,643,393,0,0
-574,631,0,0,0,0,0,0,0,0,0,-1,650,393,0,0
-567,631,0,0,0,0,0,0,0,0,0,-1,657,393,0,0
-560,631,0,0,0,0,0,0,0,0,0,-1,664,393,0,0
-553,631,0,0,0,0,0,0,0,0,0,-1,671,393,0,0
-546,631,0,0,0,0,0,0,0,0,0,-1,678,393,0,0
-539,631,0,0,0,0,0,0,0,0,0,-1,685,393,0,0
-532,631,0,0,0,0,0,0,0,0,0,-1,692,393,0,0
-525,631,0,0,0,0,0,0,0,0,0,-1,699,393,0,0
-518,631,0,0,0,0,0,0,0,0,0,-1,706,393,0,0
-511,631,0,0,0,0,0,0,0,0,0,-1,713,393,0,0
-504,631,0,0,0,0,0,0,0,0,0,-1,720,393,0,0
-497,631,0,0,0,0,0,0,0,0,0,-1,727,393,0,0
-490,631,0,0,0,0,0,0,0,0,0,-1,734,393,0,0
-483,631,0,0,0,0,0,0,0,0,0,-1,741,393,0,0
-476,631,0,0,0,0,0,0,0,0,0,-1,748,393,0,0
-469,631,0,0,0,0,0,0,0,0,0,-1,755,393,0,0
-462,631,0,0,0,0,0,0,0,0,0,-1,762,393,0,0
-455,631,0,0,0,0,0,0,0,0,0,-1,769,393,0,0
-448,631,0,0,0,0,0,0,0,0,0,-1,776,393,0,0
-441,631,0,0,0,0,0,0,0,0,0,-1,783,393,0,0
-434,631,0,0,0,0,0,0,0,0,0,-1,790,393,0,0
-427,631,0,0,0,0,0,0,0,0,0,-1,797,393,0,0
-420,631,0,0,0,0,0,0,0,0,0,-1,804,393,0,0
-413,631,0,0,0,0,0,0,0,0,0,-1,811,393,0,0
-406,631,0,0,0,0,0,0,0,0,0,-1,818,393,0,0
-399,631,0,0,0,0,0,0,0,0,0,-1,825,393,0,0
-392,631,0,0,0,0,0,0,0,0,0,-1,832,393,0,0
-385,631,0,0,0,0,0,0,0,0,0,-1,839,393,0,0
-378,631,0,0,0,0,0,0,0,0,0,-1,846,393,0,0
-371,631,0,0,0,0,0,0,0,0,0,-1,853,393,0,0
-364,631,0,0,0,0,0,0,0,0,0,-1,860,393,0,0
-357,631,0,0,0,0,0,0,0,0,0,-1,867,393,0,0
-350,631,0,0,0,0,0,0,0,0,0,-1,874,393,0,0
-343,631,0,0,0,0,0,0,0,0,0,-1,881,393,0,0
-336,631,0,0,0,0,0,0,0,0,0,-1,888,393,0,0
-329,631,0,0,0,0,0,0,0,0,0,-1,895,393,0,0
-322,631,0,0,0,0,0,0,0,0,0,-1,902,393,0,0
-315,631,0,0,0,0,0,0,0,0,0,-1,909,393,0,0
-308,631,0,0,0,0,0,0,0,0,0,-1,916,393,0,0
-301,631,0,0,0,0,0,0,0,0,0,-1,923,393,0,0
-294,631,0,0,0,0,0,0,0,0,0,-1,930,393,0,0
-287,631,0,0,0,0,0,0,0,0,0,-1,937,393,0,0
-280,631,1.38763,-14.3453,0,0,0,0,0,0,0,-1,944,393,1.38762,14.3453
-273,631,2.6192,-11.8094,0,0,0,0,0,0,0,-1,951,393,2.61918,11.8094
-266,631,0.616394,-9.4404,0,0,0,0,0,0,0,-1,958,393,0.616411,9.4404
-259,631,3.48328,-12.1518,0,0,0,0,0,0,0,-1,965,393,3.48325,12.1518
-252,631,3.14685,-12.495,0,0,0,0,0,0,0,-1,972,393,3.14685,12.495
-245,631,2.27789,-13.5737,0,0,0,0,0,0,0,-1,979,393,2.27788,13.5737
-238,631,3.32996,-16.2396,0,0,0,0,0,0,0,-1,986,393,3.32996,16.2396
-231,631,3.59491,-16.3476,0,0,0,0,0,0,0,-1,993,393,3.59489,16.3476
-224,631,3.69025,-16.7146,0,0,0,0,0,0,0,-1,1000,393,3.69024,16.7146
-217,631,3.77283,-17.2244,0,0,0,0,0,0,0,-1,1007,393,3.7728,17.2244
-210,631,3.69513,-16.0886,0,0,0,0,0,0,0,-1,1014,393,3.6951,16.0885
-203,631,3.44275,-16.3253,0,0,0,0,0,0,0,-1,1021,393,3.44281,16.3253
-196,631,3.50598,-16.4712,0,0,0,0,0,0,0,-1,1028,393,3.50598,16.4712
-189,631,3.15515,-16.8021,0.00590921,-0.00806045,0.000203717,0.00591218,-0.00806342,0.0145787,0.00810062,0.0454636,1035,393,3.1552,16.8021
-182,631,3.15833,-17.0754,0.00851182,-0.00949032,0.000817921,0.0085489,-0.00952741,0.0453102,0.0104415,0.0440394,1042,393,3.15836,17.0754
-175,631,3.39795,-17.3261,0.00952698,-0.0112101,0.00197978,0.0097143,-0.0113974,0.0943352,0.0122017,0.0330752,1049,393,3.39791,17.3261
-168,631,3.47717,-17.5374,0.00977068,-0.0123833,0.00289663,0.0101432,-0.0127558,0.127886,0.0132493,0.0181423,1056,393,3.47718,17.5374
-161,631,3.44568,-17.7477,0.00973604,-0.0129661,0.00352192,0.0102699,-0.0134999,0.150427,0.0137656,0.00978477,1063,393,3.44566,17.7477
-154,631,3.42102,-17.9425,0.0096481,-0.0128902,0.00405059,0.010354,-0.013596,0.17253,0.0138697,0.0094457,1070,393,3.42104,17.9425
-147,631,3.42114,-18.1343,0.00917794,-0.0123465,0.00434977,0.0100237,-0.0131923,0.192048,0.0134453,0.0104097,1077,393,3.42119,18.1343
-140,631,3.41663,-18.3232,0.00865926,-0.0114162,0.00443942,0.00959717,-0.0123541,0.208205,0.0127068,0.0096968,1084,393,3.41661,18.3232
-133,631,3.37756,-18.502,0.00801878,-0.01012,0.00437666,0.00901959,-0.0111208,0.224806,0.0116491,0.00823425,1091,393,3.37754,18.502
-126,631,3.3783,-18.6574,0.00726873,-0.00862006,0.00420182,0.00831148,-0.00966281,0.243251,0.0103872,0.0124109,1098,393,3.37825,18.6574
-119,631,3.38062,-18.7958,0.00638989,-0.00690602,0.00377488,0.00738687,-0.007903,0.258213,0.00882929,0.0160495,1105,393,3.38058,18.7958
-112,631,3.36096,-18.9655,0.00545389,-0.00505149,0.00319626,0.00634993,-0.00594753,0.273323,0.00710121,0.0146317,1112,393,3.36098,18.9655
-105,631,3.35803,-19.129,0.00451629,-0.00343301,0.00252763,0.00525192,-0.00416865,0.283213,0.00545094,0.0181887,1119,393,3.35799,19.129
-98,631,3.32935,-19.2712,0.00344753,-0.00168588,0.00179395,0.00401232,-0.00225067,0.305004,0.00366331,0.0156989,1126,393,3.3293,19.2712
-91,631,3.29688,-19.4233,0.00250195,-0.000322216,0.00112131,0.002893,-0.000713273,0.335561,0.00220522,0.0172877,1133,393,3.29687,19.4233
-84,631,3.29285,-19.5752,0.00182533,0.000224822,0.00070873,0.00209405,-4.3898e-05,0.36241,0.00141089,0.0164005,1140,393,3.29287,19.5752
-77,631,3.30017,-19.7033,0.000707891,0.000780519,0.000486983,0.00123254,0.00025587,0.822614,0.000751075,0.0107677,1147,393,3.30015,19.7033
-70,631,3.30457,-19.7773,-0.000143231,0.0012539,-2.56325e-05,0.00125437,-0.000143702,-1.55246,0.000888031,0.0113424,1154,393,3.30451,19.7773
-63,631,3.28918,-19.8937,-0.000499607,0.0015664,-0.000403251,0.00164232,-0.000575525,-1.38471,0.00132893,0.011217,1161,393,3.28918,19.8937
-56,631,3.27344,-20.0383,-0.000325073,0.00144156,-0.000458092,0.00155328,-0.000436792,-1.33159,0.00120774,0.0125346,1168,393,3.27339,20.0383
-49,631,3.28418,-20.1346,-8.76159e-05,0.00113243,-0.000390807,0.00124688,-0.000202064,-1.28591,0.00090615,0.011037,1175,393,3.28417,20.1345
-42,631,3.27393,-20.218,6.96643e-05,0.000681228,-0.000245997,0.000767896,-1.70039e-05,-1.23206,0.000517692,0.00878572,1182,393,3.27396,20.218
-35,631,3.28052,-20.2957,0.000113036,7.81229e-05,3.74698e-05,0.000136916,5.42428e-05,0.567408,7.96145e-05,0.00979264,1189,393,3.28058,20.2957
-28,631,3.28259,-20.3732,0.000216723,-0.000653582,0.000301344,0.000310877,-0.000747736,0.302838,0.000628299,0.0124818,1196,393,3.28258,20.3732
-21,631,3.26318,-20.4557,0.000441847,-0.0013092,0.000528048,0.00058876,-0.00145611,0.271356,0.00121549,0.0113715,1203,393,3.26319,20.4557
-14,631,3.22998,-20.5535,0.000841557,-0.00204693,0.00069288,0.000999163,-0.00220454,0.22366,0.00189279,0.0131072,1210,393,3.22997,20.5535
-7,631,3.22363,-20.6363,0.00129964,-0.00271461,0.000653838,0.00140345,-0.00281842,0.157459,0.00248271,0.0191208,1217,393,3.2236,20.6363
0,631,3.24304,-20.6523,0.00170202,-0.0033167,0.000582422,0.00176872,-0.0033834,0.114031,0.00302288,0.0223359,1224,393,3.24299,20.6523
7,631,3.27185,-20.6696,0.00205465,-0.00357237,0.000500687,0.00209885,-0.00361658,0.0880573,0.00333836,0.0180236,1231,393,3.27182,20.6696
14,631,3.28394,-20.707,0.00233079,-0.00367253,0.000398665,0.00235715,-0.00369889,0.066021,0.00352494,0.0100152,1238,393,3.28388,20.707
21,631,3.30017,-20.7523,0.00239398,-0.00361931,0.00028108,0.00240709,-0.00363242,0.0466078,0.00351075,0.011906,1245,393,3.30017,20.7523
28,631,3.29492,-20.7813,0.0025617,-0.00337721,4.83541e-05,0.0025621,-0.0033776,0.00814119,0.00344004,0.0135956,1252,393,3.29489,20.7813
35,631,3.30029,-20.7957,0.00321623,-0.00288084,0.00049246,0.00325575,-0.00292036,0.0800781,0.00356753,0.0129513,1259,393,3.30024,20.7958
42,631,3.33069,-20.8124,0.00396767,-0.00260866,0.000967732,0.00410712,-0.00274811,0.143113,0.00398371,0.0115686,1266,393,3.33067,20.8124
49,631,3.33545,-20.8054,0.00430855,-0.00198785,0.00138668,0.00460041,-0.00227971,0.207449,0.00404687,0.0108102,1273,393,3.33544,20.8054
56,631,3.33875,-20.8025,0.00459737,-0.00163314,0.00179699,0.0050785,-0.00211427,0.261606,0.00426868,0.0126895,1280,393,3.33876,20.8025
63,631,3.33679,-20.8197,0.00499239,-0.00118077,0.00222055,0.00570815,-0.00189653,0.311821,0.0045707,0.0143671,1287,393,3.33675,20.8197
70,631,3.36218,-20.7892,0.0053358,-0.000803591,0.00264174,0.00631602,-0.00178381,0.355305,0.00491441,0.0150996,1294,393,3.36219,20.7892
77,631,3.37634,-20.7592,0.00536793,-0.000454203,0.00284508,0.00652735,-0.00161361,0.386967,0.0049774,0.0153964,1301,393,3.3763,20.7592
84,631,3.36475,-20.7309,0.00511981,-0.000156174,0.00276382,0.00630251,-0.00133887,0.404344,0.0047118,0.0126943,1308,393,3.36469,20.7309
91,631,3.37378,-20.6893,0.00458214,-0.000199121,0.00249638,0.00564796,-0.00126494,0.403517,0.00425017,0.0147356,1315,393,3.37378,20.6893
98,631,3.39404,-20.6503,0.00402719,-0.000194283,0.00210141,0.0048949,-0.00106199,0.391592,0.00366886,0.0129565,1322,393,3.39402,20.6503
105,631,3.38098,-20.6155,0.00353841,-0.000314241,0.00157835,0.00410245,-0.00087828,0.343217,0.00306989,0.0111779,1329,393,3.38101,20.6155
112,631,3.37732,-20.5696,0.00301311,-0.000614014,0.000845744,0.00320062,-0.000801524,0.218181,0.00244511,0.0107206,1336,393,3.37729,20.5696
119,631,3.39343,-20.5026,0.00244374,-0.000779855,0.000140621,0.00244986,-0.000785977,0.0435123,0.0019488,0.011695,1343,393,3.39341,20.5026
126,631,3.3988,-20.3985,0.00201256,-0.000826241,-0.000475471,0.00209008,-0.000903761,-0.161616,0.00177315,0.0173952,1350,393,3.39881,20.3985
133,631,3.40417,-20.3043,0.00145173,-0.000909306,-0.0008514,0.00172672,-0.0011843,-0.312409,0.00169038,0.0183881,1357,393,3.40421,20.3043
140,631,3.41675,-20.2491,0.000705379,-0.00104533,-0.00149535,0.00156275,-0.00190269,-0.520597,0.00200398,0.0186987,1364,393,3.41672,20.2491
147,631,3.40894,-20.1584,0.000408808,-0.000864551,-0.00154673,0.00144477,-0.00190051,-0.590153,0.00193737,0.022286,1371,393,3.40896,20.1584
154,631,3.4126,-20.0417,0.000701163,-0.000948421,-0.00128895,0.00140663,-0.00165388,-0.500779,0.00176891,0.0211831,1378,393,3.41259,20.0417
161,631,3.45154,-19.9124,0.000881019,-0.00071532,-0.00092816,0.001307,-0.00114131,-0.430278,0.00141461,0.0223672,1385,393,3.45149,19.9124
168,631,3.46326,-19.8065,0.000840392,-0.000474552,-0.000547817,0.00103871,-0.000672868,-0.347335,0.000995675,0.0277787,1392,393,3.4632,19.8065
175,631,3.45813,-19.7182,0.000736316,-0.00014733,-0.000261871,0.000808092,-0.000219106,-0.26752,0.000624705,0.021627,1399,393,3.45818,19.7182
182,631,3.44397,-19.6088,0.000597751,0.000230724,4.89368e-05,0.000604164,0.000224311,0.130301,0.000352646,0.0115236,1406,393,3.44396,19.6088
189,631,3.41443,-19.4675,0.000272134,0.000769324,0.000393844,0.000986468,5.49906e-05,1.06692,0.000640103,0.0110237,1413,393,3.4144,19.4675
196,631,3.40442,-19.3315,-0.000120554,0.00128402,0.000667397,0.00155056,-0.000387093,1.19083,0.00118402,0.0111341,1420,393,3.40437,19.3316
203,631,3.43274,-19.2102,-0.000744756,0.00147195,0.000699197,0.00167406,-0.00094687,1.2894,0.00153249,0.0139637,1427,393,3.43271,19.2102
210,631,3.427,-19.0706,-0.00140249,0.00179252,0.000717468,0.00194624,-0.00155621,1.35974,0.00202632,0.0160375,1434,393,3.42695,19.0706
217,631,3.39429,-18.9142,-0.00187072,0.00211443,0.000804317,0.00227064,-0.00202693,1.37897,0.00248253,0.0172241,1441,393,3.39429,18.9142
224,631,3.37183,-18.7264,-0.00210801,0.002447,0.000916162,0.00262436,-0.00228538,1.37957,0.00283689,0.0140475,1448,393,3.37188,18.7264
231,631,3.36804,-18.5375,-0.0020313,0.00280886,0.00122384,0.00310071,-0.00232315,1.3367,0.00314218,0.0112069,1455,393,3.36808,18.5375
238,631,3.35339,-18.3437,-0.00183272,0.00336208,0.00169229,0.00386474,-0.00233537,1.28207,0.00361575,0.0173368,1462,393,3.35335,18.3437
245,631,3.35974,-18.1731,-0.00159154,0.0038644,0.00201152,0.00452583,-0.00225297,1.25311,0.0039864,0.018447,1469,393,3.35969,18.1731
252,631,3.33643,-18.0009,-0.0011088,0.00447598,0.00242126,0.00537953,-0.00201235,1.21363,0.00441283,0.0170891,1476,393,3.33641,18.001
259,631,3.3158,-17.7987,-4.83992e-05,0.00439175,0.00276866,0.00572051,-0.00137716,1.12333,0.00434608,0.0124501,1483,393,3.31583,17.7987
266,631,3.33459,-17.5904,0.00101769,0.0044834,0.00337853,0.00654755,-0.00104647,1.02236,0.00475242,0.0117622,1490,393,3.33457,17.5904
273,631,3.32507,-17.3767,0.00192753,0.00467459,0.00404993,0.00757757,-0.00097545,0.948886,0.00540628,0.0137605,1497,393,3.32503,17.3767
280,631,3.31433,-17.1748,0.00305575,0.00467391,0.00469081,0.0086249,-0.000895239,0.870799,0.00607039,0.0120972,1504,393,3.31436,17.1748
287,631,3.29602,-16.9392,0.00415345,0.00421914,0.0053347,0.0095211,-0.00114851,0.788476,0.00676282,0.0133719,1511,393,3.29603,16.9392
294,631,3.27539,-16.6676,0.00528456,0.00362865,0.00593709,0.0104512,-0.00153794,0.716118,0.0075326,0.0177486,1518,393,3.27543,16.6676
301,631,3.26868,-16.3904,0.00630825,0.00314118,0.00659331,0.0115055,-0.00205609,0.667544,0.00843961,0.0270692,1525,393,3.26865,16.3904
308,631,3.37073,-16.1656,0.00715276,0.0026726,0.00734762,0.0125942,-0.00276883,0.637438,0.00945518,0.0334739,1532,393,3.37071,16.1656
315,631,3.33691,-16.0316,0.00739888,0.00173193,0.00785336,0.0129143,-0.00378347,0.612267,0.0101095,0.0351791,1539,393,3.33688,16.0316
322,631,3.19019,-15.8188,0.00744466,0.00093844,0.00841334,0.0132119,-0.00482882,0.600921,0.0107842,0.0415667,1546,393,3.19013,15.8188
329,631,3.11609,-15.5124,0,0,0,0,0,0,0,-1,1553,393,3.11608,15.5124
336,631,3.54724,-15.6094,0,0,0,0,0,0,0,-1,1560,393,3.54726,15.6094
343,631,2.45703,-11.5554,0,0,0,0,0,0,0,-1,1567,393,2.45703,11.5554
350,631,2.1344,-9.23401,0,0,0,0,0,0,0,-1,1574,393,2.13439,9.23401
357,631,2.6449,-9.60303,0,0,0,0,0,0,0,-1,1581,393,2.64491,9.60304
364,631,3.39136,-5.7594,0,0,0,0,0,0,0,-1,1588,393,3.39137,5.75939
371,631,3.72839,-6.0574,0,0,0,0,0,0,0,-1,1595,393,3.72845,6.05742
378,631,4.06555,-6.35544,0,0,0,0,0,0,0,-1,1602,393,4.06553,6.35544
385,631,3.90442,-3.58298,0,0,0,0,0,0,0,-1,1609,393,3.90437,3.58299
392,631,0.352295,-2.21301,0,0,0,0,0,0,0,-1,1616,393,0.352345,2.213
399,631,0,0,0,0,0,0,0,0,0,-1,1623,393,0,0
406,631,0,0,0,0,0,0,0,0,0,-1,1630,393,0,0
413,631,0,0,0,0,0,0,0,0,0,-1,1637,393,0,0
420,631,0,0,0,0,0,0,0,0,0,-1,1644,393,0,0
427,631,0,0,0,0,0,0,0,0,0,-1,1651,393,0,0
434,631,0,0,0,0,0,0,0,0,0,-1,1658,393,0,0
441,631,0,0,0,0,0,0,0,0,0,-1,1665,393,0,0
448,631,0,0,0,0,0,0,0,0,0,-1,1672,393,0,0
455,631,0,0,0,0,0,0,0,0,0,-1,1679,393,0,0
462,631,0,0,0,0,0,0,0,0,0,-1,1686,393,0,0
469,631,0,0,0,0,0,0,0,0,0,-1,1693,393,0,0
476,631,0,0,0,0,0,0,0,0,0,-1,1700,393,0,0
483,631,0,0,0,0,0,0,0,0,0,-1,1707,393,0,0
490,631,0,0,0,0,0,0,0,0,0,-1,1714,393,0,0
497,631,0,0,0,0,0,0,0,0,0,-1,1721,393,0,0
504,631,0,0,0,0,0,0,0,0,0,-1,1728,393,0,0
511,631,0,0,0,0,0,0,0,0,0,-1,1735,393,0,0
518,631,0,0,0,0,0,0,0,0,0,-1,1742,393,0,0
525,631,0,0,0,0,0,0,0,0,0,-1,1749,393,0,0
532,631,0,0,0,0,0,0,0,0,0,-1,1756,393,0,0
539,631,0,0,0,0,0,0,0,0,0,-1,1763,393,0,0
546,631,0,0,0,0,0,0,0,0,0,-1,1770,393,0,0
553,631,0,0,0,0,0,0,0,0,0,-1,1777,393,0,0
560,631,0,0,0,0,0,0,0,0,0,-1,1784,393,0,0
567,631,0,0,0,0,0,0,0,0,0,-1,1791,393,0,0
574,631,0,0,0,0,0,0,0,0,0,-1,1798,393,0,0
581,631,0,0,0,0,0,0,0,0,0,-1,1805,393,0,0
588,631,0,0,0,0,0,0,0,0,0,-1,1812,393,0,0
595,631,0,0,0,0,0,0,0,0,0,-1,1819,393,0,0
602,631,0,0,0,0,0,0,0,0,0,-1,1826,393,0,0
609,631,0,0,0,0,0,0,0,0,0,-1,1833,393,0,0
616,631,0,0,0,0,0,0,0,0,0,-1,1840,393,0,0
623,631,0,0,0,0,0,0,0,0,0,-1,1847,393,0,0
630,631,0,0,0,0,0,0,0,0,0,-1,1854,393,0,0
637,631,0,0,0,0,0,0,0,0,0,-1,1861,393,0,0
644,631,0,0,0,0,0,0,0,0,0,-1,1868,393,0,0
651,631,0,0,0,0,0,0,0,0,0,-1,1875,393,0,0
658,631,0,0,0,0,0,0,0,0,0,-1,1882,393,0,0
665,631,0,0,0,0,0,0,0,0,0,-1,1889,393,0,0
672,631,0,0,0,0,0,0,0,0,0,-1,1896,393,0,0
679,631,0,0,0,0,0,0,0,0,0,-1,1903,393,0,0
686,631,0,0,0,0,0,0,0,0,0,-1,1910,393,0,0
693,631,0,0,0,0,0,0,0,0,0,-1,1917,393,0,0
700,631,0,0,0,0,0,0,0,0,0,-1,1924,393,0,0
707,631,0,0,0,0,0,0,0,0,0,-1,1931,393,0,0
714,631,0,0,0,0,0,0,0,0,0,-1,1938,393,0,0
721,631,0,0,0,0,0,0,0,0,0,-1,1945,393,0,0
728,631,0,0,0,0,0,0,0,0,0,-1,1952,393,0,0
735,631,0,0,0,0,0,0,0,0,0,-1,1959,393,0,0
742,631,0,0,0,0,0,0,0,0,0,-1,1966,393,0,0
749,631,0,0,0,0,0,0,0,0,0,-1,1973,393,0,0
756,631,0,0,0,0,0,0,0,0,0,-1,1980,393,0,0
763,631,0,0,0,0,0,0,0,0,0,-1,1987,393,0,0
770,631,0,0,0,0,0,0,0,0,0,-1,1994,393,0,0
777,631,0,0,0,0,0,0,0,0,0,-1,2001,393,0,0
784,631,0,0,0,0,0,0,0,0,0,-1,2008,393,0,0
791,631,0,0,0,0,0,0,0,0,0,-1,2015,393,0,0
798,631,0,0,0,0,0,0,0,0,0,-1,2022,393,0,0
805,631,0,0,0,0,0,0,0,0,0,-1,2029,393,0,0
812,631,0,0,0,0,0,0,0,0,0,-1,2036,393,0,0
-700,624,0,0,0,0,0,0,0,0,0,-1,524,400,0,0
-693,624,0,0,0,0,0,0,0,0,0,-1,531,400,0,0
-686,624,0,0,0,0,0,0,0,0,0,-1,538,400,0,0
-679,624,0,0,0,0,0,0,0,0,0,-1,545,400,0,0
-672,624,0,0,0,0,0,0,0,0,0,-1,552,400,0,0
-665,624,0,0,0,0,0,0,0,0,0,-1,559,400,0,0
-658,624,0,0,0,0,0,0,0,0,0,-1,566,400,0,0
-651,624,0,0,0,0,0,0,0,0,0,-1,573,400,0,0
-644,624,0,0,0,0,0,0,0,0,0,-1,580,400,0,0
-637,624,0,0,0,0,0,0,0,0,0,-1,587,400,0,0
-630,624,0,0,0,0,0,0,0,0,0,-1,594,400,0,0
-623,624,0,0,0,0,0,0,0,0,0,-1,601,400,0,0
-616,624,0,0,0,0,0,0,0,0,0,-1,608,400,0,0
-609,624,0,0,0,0,0,0,0,0,0,-1,615,400,0,0
-602,624,0,0,0,0,0,0,0,0,0,-1,622,400,0,0
-595,624,0,0,0,0,0,0,0,0,0,-1,629,400,0,0
-588,624,0,0,0,0,0,0,0,0,0,-1,636,400,0,0
-581,624,0,0,0,0,0,0,0,0,0,-1,643,400,0,0
-574,624,0,0,0,0,0,0,0,0,0,-1,650,400,0,0
-567,624,0,0,0,0,0,0,0,0,0,-1,657,400,0,0
-560,624,0,0,0,0,0,0,0,0,0,-1,664,400,0,0
-553,624,0,0,0,0,0,0,0,0,0,-1,671,400,0,0
-546,624,0,0,0,0,0,0,0,0,0,-1,678,400,0,0
-539,624,0,0,0,0,0,0,0,0,0,-1,685,400,0,0
-532,624,0,0,0,0,0,0,0,0,0,-1,692,400,0,0
-525,624,0,0,0,0,0,0,0,0,0,-1,699,400,0,0
-518,624,0,0,0,0,0,0,0,0,0,-1,706,400,0,0
-511,624,0,0,0,0,0,0,0,0,0,-1,713,400,0,0
-504,624,0,0,0,0,0,0,0,0,0,-1,720,400,0,0
-497,624,0,0,0,0,0,0,0,0,0,-1,727,400,0,0
-490,624,0,0,0,0,0,0,0,0,0,-1,734,400,0,0
-483,624,0,0,0,0,0,0,0,0,0,-1,741,400,0,0
-476,624,0,0,0,0,0,0,0,0,0,-1,748,400,0,0
-469,624,0,0,0,0,0,0,0,0,0,-1,755,400,0,0
-462,624,0,0,0,0,0,0,0,0,0,-1,762,400,0,0
-455,624,0,0,0,0,0,0,0,0,0,-1,769,400,0,0
-448,624,0,0,0,0,0,0,0,0,0,-1,776,400,0,0
-441,624,0,0,0,0,0,0,0,0,0,-1,783,400,0,0
-434,624,0,0,0,0,0,0,0,0,0,-1,790,400,0,0
-427,624,0,0,0,0,0,0,0,0,0,-1,797,400,0,0
-420,624,0,0,0,0,0,0,0,0,0,-1,804,400,0,0
-413,624,0,0,0,0,0,0,0,0,0,-1,811,400,0,0
-406,624,0,0,0,0,0,0,0,0,0,-1,818,400,0,0
-399,624,0,0,0,0,0,0,0,0,0,-1,825,400,0,0
-392,624,0,0,0,0,0,0,0,0,0,-1,832,400,0,0
-385,624,0,0,0,0,0,0,0,0,0,-1,839,400,0,0
-378,624,0,0,0,0,0,0,0,0,0,-1,846,400,0,0
-371,624,0,0,0,0,0,0,0,0,0,-1,853,400,0,0
-364,624,0,0,0,0,0,0,0,0,0,-1,860,400,0,0
-357,624,0,0,0,0,0,0,0,0,0,-1,867,400,0,0
-350,624,0,0,0,0,0,0,0,0,0,-1,874,400,0,0
-343,624,0,0,0,0,0,0,0,0,0,-1,881,400,0,0
-336,624,0,0,0,0,0,0,0,0,0,-1,888,400,0,0
-329,624,0,0,0,0,0,0,0,0,0,-1,895,400,0,0
-322,624,0,0,0,0,0,0,0,0,0,-1,902,400,0,0
-315,624,0,0,0,0,0,0,0,0,0,-1,909,400,0,0
-308,624,0,0,0,0,0,0,0,0,0,-1,916,400,0,0
-301,624,0,0,0,0,0,0,0,0,0,-1,923,400,0,0
-294,624,-0.912903,-12.9461,0,0,0,0,0,0,0,-1,930,400,-0.912926,12.9461
-287,624,0.12146,-15.0862,0,0,0,0,0,0,0,-1,937,400,0.121451,15.0862
-280,624,1.44836,-13.0475,0,0,0,0,0,0,0,-1,944,400,1.44835,13.0475
-273,624,2.56573,-11.0646,0,0,0,0,0,0,0,-1,951,400,2.56571,11.0646
-266,624,4.63965,-10.4106,0,0,0,0,0,0,0,-1,958,400,4.63965,10.4106
-259,624,3.94147,-11.5439,0,0,0,0,0,0,0,-1,965,400,3.94147,11.5439
-252,624,3.05292,-12.3682,0,0,0,0,0,0,0,-1,972,400,3.0529,12.3682
-245,624,3.66302,-15.8866,0,0,0,0,0,0,0,-1,979,400,3.66305,15.8866
-238,624,3.23596,-16.0231,0,0,0,0,0,0,0,-1,986,400,3.23596,16.0231
-231,624,2.80884,-16.1597,0,0,0,0,0,0,0,-1,993,400,2.80886,16.1597
-224,624,3.49164,-15.4029,0,0,0,0,0,0,0,-1,1000,400,3.49163,15.4029
-217,624,3.69043,-15.6486,0,0,0,0,0,0,0,-1,1007,400,3.69041,15.6486
-210,624,3.47144,-16.1178,-0.00191156,0.00350705,-0.00546784,0.00690001,-0.00530451,-1.01542,0.00706632,0.0466465,1014,400,3.47144,16.1178
-203,624,3.29138,-16.3875,-6.08947e-05,0.000535725,-0.00353401,0.00378399,-0.00330916,-0.827504,0.00409829,0.0387748,1021,400,3.29138,16.3875
-196,624,3.34094,-16.5618,0.00146192,-0.0017214,-0.00222269,0.00260408,-0.00286355,-0.474675,0.00315792,0.0348513,1028,400,3.3409,16.5618
-189,624,3.19617,-16.8062,0.0031479,-0.00318008,-0.00140467,0.00344569,-0.00347788,-0.208908,0.00399734,0.032846,1035,400,3.19612,16.8062
-182,624,3.19763,-17.0526,0.00493236,-0.00452734,-0.000699311,0.00498378,-0.00457876,-0.0733936,0.00552259,0.0282822,1042,400,3.19768,17.0526
-175,624,3.3009,-17.3223,0.00562553,-0.00621797,0.000235971,0.00563023,-0.00622267,0.0199136,0.00684612,0.019082,1049,400,3.30087,17.3223
-168,624,3.30811,-17.5625,0.00582841,-0.00743073,0.00106851,0.00591397,-0.00751629,0.0798994,0.00777234,0.012624,1056,400,3.30813,17.5625
-161,624,3.27234,-17.7871,0.00584604,-0.00819517,0.00167265,0.00604254,-0.00839167,0.116944,0.00837031,0.0103503,1063,400,3.27234,17.7871
-154,624,3.25696,-17.9604,0.00584985,-0.00843752,0.00219118,0.00617834,-0.00876602,0.14881,0.00867114,0.00963744,1070,400,3.25695,17.9604
-147,624,3.25073,-18.1522,0.00557116,-0.00830333,0.00252585,0.00601668,-0.00874885,0.17459,0.00857339,0.0106204,1077,400,3.2507,18.1522
-140,624,3.23584,-18.3443,0.00527096,-0.00785478,0.00264631,0.00578441,-0.00836823,0.191641,0.00821629,0.00964736,1084,400,3.23586,18.3443
-133,624,3.21545,-18.5204,0.00488356,-0.00702384,0.00262835,0.00543792,-0.0075782,0.207867,0.00754865,0.0104866,1091,400,3.2155,18.5204
-126,624,3.20313,-18.6786,0.00442014,-0.00599546,0.00249643,0.00498758,-0.0065629,0.223501,0.00668931,0.0122304,1098,400,3.20309,18.6786
-119,624,3.19299,-18.831,0.00388725,-0.00468027,0.00212856,0.00438693,-0.00517996,0.230578,0.00552977,0.0142785,1105,400,3.19297,18.831
-112,624,3.18225,-18.9664,0.00334097,-0.00321039,0.00163907,0.00372816,-0.00359758,0.231974,0.00422974,0.0160181,1112,400,3.18221,18.9664
-105,624,3.19849,-19.1247,0.00282482,-0.00187938,0.00107564,0.0030591,-0.00211366,0.214459,0.00300308,0.0120715,1119,400,3.19848,19.1247
-98,624,3.18018,-19.2657,0.00222665,-0.000515322,0.00048221,0.00230898,-0.000597653,0.169105,0.00177245,0.0132029,1126,400,3.18015,19.2657
-91,624,3.18811,-19.4093,0.00173309,0.000553907,-4.51376e-05,0.00173481,0.000552182,-0.0382043,0.0010234,0.0188929,1133,400,3.18805,19.4093
-84,624,3.22327,-19.5734,0.00143996,0.00103296,-0.000341639,0.00163411,0.000838804,-0.516789,0.000943567,0.0169765,1140,400,3.22323,19.5734
-77,624,3.21851,-19.7052,0.00104943,0.0013943,-0.000488946,0.00174033,0.000703406,-0.954924,0.00101091,0.0125216,1147,400,3.21845,19.7052
-70,624,3.19751,-19.7679,0.000863071,0.00155161,-0.000613218,0.00191059,0.000504093,-1.04118,0.00114336,0.0126773,1154,400,3.19753,19.7679
-63,624,3.17554,-19.8773,0.000902671,0.00149857,-0.00062698,0.0018948,0.000506447,-1.00721,0.00113277,0.0121999,1161,400,3.17551,19.8773
-56,624,3.18933,-20.0207,0.00115023,0.00112488,-0.000463475,0.0016012,0.000673907,-0.771729,0.000928306,0.0105232,1168,400,3.18929,20.0207
-49,624,3.19165,-20.1429,0.00138171,0.000548863,-0.00030413,0.00148094,0.000449628,-0.3154,0.000876731,0.0100429,1175,400,3.19166,20.143
-42,624,3.18335,-20.2271,0.00139015,-0.000324559,-0.000155057,0.00140406,-0.000338468,-0.0894606,0.00106691,0.00909952,1182,400,3.18335,20.2271
-35,624,3.17419,-20.3092,0.00141044,-0.0013482,0.000288905,0.00144037,-0.00137813,0.103235,0.00162739,0.0141771,1189,400,3.17421,20.3092
-28,624,3.15442,-20.4099,0.00153285,-0.00251088,0.000660917,0.00163813,-0.00261616,0.157968,0.00247776,0.0188315,1196,400,3.15445,20.4099
-21,624,3.17468,-20.4794,0.00196542,-0.00350784,0.000928022,0.0021185,-0.00366091,0.163471,0.00337612,0.0133363,1203,400,3.17463,20.4794
-14,624,3.20459,-20.5505,0.00275725,-0.0044547,0.00110757,0.00292352,-0.00462096,0.149001,0.0043924,0.0141725,1210,400,3.20457,20.5505
-7,624,3.17712,-20.5866,0.00356189,-0.0052647,0.00103214,0.00368097,-0.00538379,0.114871,0.00526423,0.0174021,1217,400,3.17711,20.5866
0,624,3.21082,-20.6317,0.00420901,-0.00600185,0.000859439,0.00428084,-0.00607368,0.0833874,0.00600798,0.0188367,1224,400,3.21087,20.6317
7,624,3.21582,-20.6704,0.00468295,-0.00625793,0.000624487,0.00471848,-0.00629346,0.0568323,0.00637939,0.0153936,1231,400,3.21577,20.6704
14,624,3.26367,-20.7426,0.00502978,-0.00631522,0.000428842,0.00504596,-0.00633141,0.0377283,0.00658269,0.0123551,1238,400,3.26364,20.7426
21,624,3.28162,-20.7646,0.00502674,-0.00618651,0.000232175,0.00503155,-0.00619131,0.0206936,0.00649104,0.0122142,1245,400,3.28164,20.7646
28,624,3.26062,-20.7858,0.00510026,-0.00585231,-6.95142e-05,0.0051007,-0.00585275,-0.0063465,0.00632895,0.0111909,1252,400,3.26056,20.7858
35,624,3.27344,-20.8051,0.0061974,-0.00501762,0.000960423,0.00627905,-0.00509927,0.0848143,0.00658104,0.0147832,1259,400,3.2734,20.8051
42,624,3.3092,-20.8124,0.00746114,-0.00400399,0.00200378,0.00780125,-0.0043441,0.168134,0.00710619,0.0165018,1266,400,3.30921,20.8124
49,624,3.32861,-20.8076,0.00808741,-0.00287904,0.00286074,0.00878881,-0.00358044,0.240438,0.0073494,0.0170781,1273,400,3.3286,20.8075
56,624,3.35315,-20.8148,0.00866493,-0.00193907,0.00375499,0.00985995,-0.00313409,0.308111,0.00782994,0.017381,1280,400,3.35311,20.8148
63,624,3.35852,-20.8096,0.00938627,-0.000815573,0.00457225,0.0111355,-0.00256482,0.365399,0.00841002,0.0138141,1287,400,3.35858,20.8096
70,624,3.37073,-20.8042,0.0101386,0.000326281,0.00534803,0.0124899,-0.0020251,0.414233,0.00907727,0.0120828,1294,400,3.37069,20.8042
77,624,3.37988,-20.7596,0.0104388,0.00135348,0.00572783,0.0132066,-0.00141439,0.450143,0.00931177,0.0129011,1301,400,3.37994,20.7596
84,624,3.39795,-20.7372,0.010222,0.00226296,0.00559195,0.0131059,-0.000620925,0.476145,0.00895145,0.012037,1308,400,3.39799,20.7372
91,624,3.4137,-20.7047,0.00948141,0.00256233,0.00500197,0.0121037,-5.99199e-05,0.482853,0.00808915,0.0126593,1315,400,3.41367,20.7048
98,624,3.43372,-20.6658,0.00858849,0.00280366,0.00396764,0.0106061,0.000786061,0.470435,0.00682381,0.0125618,1322,400,3.43371,20.6658
105,624,3.43274,-20.642,0.00769012,0.00273449,0.00272593,0.00889609,0.00152852,0.416521,0.00549258,0.0134997,1329,400,3.43278,20.642
112,624,3.44495,-20.578,0.00671812,0.00225908,0.00119003,0.00701584,0.00196136,0.245146,0.00417976,0.014009,1336,400,3.4449,20.578
119,624,3.47498,-20.5156,0.00553004,0.00181057,-0.000458978,0.00558584,0.00175477,-0.120981,0.00329842,0.0150349,1343,400,3.47499,20.5156
126,624,3.49292,-20.3984,0.00449269,0.00142198,-0.00192439,0.00541916,0.000495511,-0.448687,0.00345945,0.0187404,1350,400,3.49292,20.3984
133,624,3.49512,-20.282,0.00319536,0.000838579,-0.00297295,0.00521494,-0.001181,-0.596711,0.0039299,0.0191126,1357,400,3.49514,20.282
140,624,3.495,-20.2139,0.0013655,7.85244e-05,-0.00455,0.00531729,-0.00387326,-0.715151,0.00532795,0.0180856,1364,400,3.49502,20.2139
147,624,3.47168,-20.1537,0.000430339,-0.000534274,-0.00486463,0.00483651,-0.00494045,-0.735987,0.00564484,0.0224515,1371,400,3.47171,20.1537
154,624,3.5332,-20.0823,0.000715984,-0.000946863,-0.00434018,0.00430366,-0.00453454,-0.690763,0.00510332,0.0238064,1378,400,3.53324,20.0823
161,624,3.58093,-19.9527,0.000943184,-0.00103505,-0.00367334,0.00375824,-0.00385011,-0.653883,0.00439279,0.0213779,1385,400,3.58088,19.9527
168,624,3.57312,-19.8217,0.00100204,-0.00112481,-0.00289289,0.00302077,-0.00314354,-0.609264,0.0035592,0.02189,1392,400,3.57315,19.8217
175,624,3.56458,-19.7307,0.000938777,-0.00104356,-0.00227247,0.00242683,-0.00253161,-0.579754,0.00286297,0.0172089,1399,400,3.56461,19.7307
182,624,3.56494,-19.6183,0.000885461,-0.000939928,-0.00168454,0.00188867,-0.00194313,-0.537132,0.00221236,0.0106686,1406,400,3.56497,19.6183
189,624,3.54565,-19.4828,0.00068016,-0.000637353,-0.0010754,0.00128253,-0.00123972,-0.510593,0.00145629,0.0109714,1413,400,3.5457,19.4828
196,624,3.53027,-19.3426,0.000397663,3.00966e-05,-0.000560272,0.000803525,-0.000375765,-0.626915,0.000695634,0.0115339,1420,400,3.53031,19.3426
203,624,3.55664,-19.198,-1.42133e-06,0.000490723,-0.000178718,0.000548775,-5.94735e-05,-1.25672,0.0003872,0.0144772,1427,400,3.55667,19.198
210,624,3.56726,-19.0465,-0.00045021,0.00114363,-3.44062e-06,0.00114364,-0.000450217,-1.56864,0.000948796,0.0176166,1434,400,3.56724,19.0465
217,624,3.51514,-18.8769,-0.000864333,0.00167458,0.000212833,0.00169229,-0.000882051,1.48774,0.00151064,0.0200314,1441,400,3.51516,18.8769
224,624,3.48914,-18.7071,-0.00108978,0.00206486,0.000396385,0.00211391,-0.00113882,1.44769,0.00190589,0.0163573,1448,400,3.48908,18.7071
231,624,3.53235,-18.5544,-0.00107863,0.00244802,0.000719893,0.00258931,-0.00121992,1.37699,0.00224613,0.0120136,1455,400,3.53235,18.5544
238,624,3.52942,-18.3836,-0.000937344,0.00295461,0.00115691,0.00327254,-0.00125528,1.30261,0.00269923,0.0174083,1462,400,3.52942,18.3836
245,624,3.53223,-18.2144,-0.000760577,0.00340863,0.00146302,0.00387079,-0.00122274,1.26482,0.00307037,0.0177885,1469,400,3.53218,18.2144
252,624,3.53064,-18.0227,-0.000443164,0.00392708,0.00182161,0.00458678,-0.00110286,1.22334,0.00348415,0.0128066,1476,400,3.53062,18.0227
259,624,3.51563,-17.8101,0.000266142,0.00389775,0.00213446,0.00488427,-0.000720384,1.13785,0.00352096,0.00948418,1483,400,3.51566,17.8101
266,624,3.53186,-17.595,0.0009788,0.00395953,0.00263152,0.00549342,-0.00055509,1.04305,0.00386063,0.0142476,1490,400,3.5319,17.595
273,624,3.50854,-17.396,0.00156741,0.00407786,0.00315348,0.00621674,-0.000571482,0.974808,0.00434753,0.016637,1497,400,3.50849,17.396
280,624,3.47266,-17.2124,0.00228575,0.00404809,0.00365061,0.00692237,-0.000588532,0.903821,0.00482308,0.0147472,1504,400,3.47268,17.2124
287,624,3.45154,-16.9886,0.00300179,0.00369107,0.00415876,0.00751944,-0.000826584,0.826739,0.00530998,0.0109307,1511,400,3.45159,16.9886
294,624,3.44678,-16.7477,0.0037096,0.00324297,0.00461748,0.00809965,-0.00114708,0.760155,0.00581993,0.00865817,1518,400,3.44675,16.7477
301,624,3.42566,-16.5146,0.00431727,0.0028267,0.00509995,0.0087261,-0.00158213,0.712844,0.0064102,0.0102572,1525,400,3.42566,16.5147
308,624,3.43384,-16.2538,0.00480756,0.00245541,0.0056452,0.0093979,-0.00213492,0.682701,0.00708495,0.0148611,1532,400,3.4339,16.2538
315,624,3.42163,-16.0129,0.00493218,0.00185939,0.00604503,0.009633,-0.00284143,0.660954,0.00754954,0.0172039,1539,400,3.42162,16.0129
322,624,3.39111,-15.7838,0.00492527,0.00136179,0.00647747,0.00986158,-0.00357453,0.651184,0.00803544,0.025889,1546,400,3.39117,15.7838
329,624,3.46863,-15.5371,0.0046807,0.00101971,0.00684786,0.0099385,-0.00423808,0.654797,0.00840252,0.039257,1553,400,3.46863,15.5371
336,624,3.57739,-15.4035,0.00416386,0.00100237,0.00701859,0.00977751,-0.00461128,0.674635,0.00848399,0.0445541,1560,400,3.57745,15.4035
343,624,3.64648,-14.8951,0,0,0,0,0,0,0,-1,1567,400,3.64653,14.8951
350,624,1.99194,-7.29742,0,0,0,0,0,0,0,-1,1574,400,1.99198,7.29741
357,624,2.64075,-3.13092,0,0,0,0,0,0,0,-1,1581,400,2.64076,3.13091
364,624,3.16565,-4.9458,0,0,0,0,0,0,0,-1,1588,400,3.16564,4.94579
371,624,3.37561,-5.23529,0,0,0,0,0,0,0,-1,1595,400,3.37563,5.23529
378,624,1.50439,-5.22165,0,0,0,0,0,0,0,-1,1602,400,1.50438,5.22164
385,624,1.2301,-10.5866,0,0,0,0,0,0,0,-1,1609,400,1.2301,10.5866
392,624,4.26819,-5.14236,0,0,0,0,0,0,0,-1,1616,400,4.26818,5.14236
399,624,3.86841,-2.36917,0,0,0,0,0,0,0,-1,1623,400,3.86838,2.36916
406,624,4.35376,-2.6962,0,0,0,0,0,0,0,-1,1630,400,4.35373,2.69619
413,624,0,0,0,0,0,0,0,0,0,-1,1637,400,0,0
420,624,0,0,0,0,0,0,0,0,0,-1,1644,400,0,0
427,624,0,0,0,0,0,0,0,0,0,-1,1651,400,0,0
434,624,0,0,0,0,0,0,0,0,0,-1,1658,400,0,0
441,624,0,0,0,0,0,0,0,0,0,-1,1665,400,0,0
448,624,0,0,0,0,0,0,0,0,0,-1,1672,400,0,0
455,624,0,0,0,0,0,0,0,0,0,-1,1679,400,0,0
462,624,0,0,0,0,0,0,0,0,0,-1,1686,400,0,0
469,624,0,0,0,0,0,0,0,0,0,-1,1693,400,0,0
476,624,0,0,0,0,0,0,0,0,0,-1,1700,400,0,0
483,624,0,0,0,0,0,0,0,0,0,-1,1707,400,0,0
490,624,0,0,0,0,0,0,0,0,0,-1,1714,400,0,0
497,624,0,0,0,0,0,0,0,0,0,-1,1721,400,0,0
504,624,0,0,0,0,0,0,0,0,0,-1,1728,400,0,0
511,624,0,0,0,0,0,0,0,0,0,-1,1735,400,0,0
518,624,0,0,0,0,0,0,0,0,0,-1,1742,400,0,0
525,624,0,0,0,0,0,0,0,0,0,-1,1749,400,0,0
532,624,0,0,0,0,0,0,0,0,0,-1,1756,400,0,0
539,624,0,0,0,0,0,0,0,0,0,-1,1763,400,0,0
546,624,0,0,0,0,0,0,0,0,0,-1,1770,400,0,0
553,624,0,0,0,0,0,0,0,0,0,-1,1777,400,0,0
560,624,0,0,0,0,0,0,0,0,0,-1,1784,400,0,0
567,624,0,0,0,0,0,0,0,0,0,-1,1791,400,0,0
574,624,0,0,0,0,0,0,0,0,0,-1,1798,400,0,0
581,624,0,0,0,0,0,0,0,0,0,-1,1805,400,0,0
588,624,0,0,0,0,0,0,0,0,0,-1,1812,400,0,0
595,624,0,0,0,0,0,0,0,0,0,-1,1819,400,0,0
602,624,0,0,0,0,0,0,0,0,0,-1,1826,400,0,0
609,624,0,0,0,0,0,0,0,0,0,-1,1833,400,0,0
616,624,0,0,0,0,0,0,0,0,0,-1,1840,400,0,0
623,624,0,0,0,0,0,0,0,0,0,-1,1847,400,0,0
630,624,0,0,0,0,0,0,0,0,0,-1,1854,400,0,0
637,624,0,0,0,0,0,0,0,0,0,-1,1861,400,0,0
644,624,0,0,0,0,0,0,0,0,0,-1,1868,400,0,0
651,624,0,0,0,0,0,0,0,0,0,-1,1875,400,0,0
658,624,0,0,0,0,0,0,0,0,0,-1,1882,400,0,0
665,624,0,0,0,0,0,0,0,0,0,-1,1889,400,0,0
672,624,0,0,0,0,0,0,0,0,0,-1,1896,400,0,0
679,624,0,0,0,0,0,0,0,0,0,-1,1903,400,0,0
686,624,0,0,0,0,0,0,0,0,0,-1,1910,400,0,0
693,624,0,0,0,0,0,0,0,0,0,-1,1917,400,0,0
700,624,0,0,0,0,0,0,0,0,0,-1,1924,400,0,0
707,624,0,0,0,0,0,0,0,0,0,-1,1931,400,0,0
714,624,0,0,0,0,0,0,0,0,0,-1,1938,400,0,0
721,624,0,0,0,0,0,0,0,0,0,-1,1945,400,0,0
728,624,0,0,0,0,0,0,0,0,0,-1,1952,400,0,0
735,624,0,0,0,0,0,0,0,0,0,-1,1959,400,0,0
742,624,0,0,0,0,0,0,0,0,0,-1,1966,400,0,0
749,624,0,0,0,0,0,0,0,0,0,-1,1973,400,0,0
756,624,0,0,0,0,0,0,0,0,0,-1,1980,400,0,0
763,624,0,0,0,0,0,0,0,0,0,-1,1987,400,0,0
770,624,0,0,0,0,0,0,0,0,0,-1,1994,400,0,0
777,624,0,0,0,0,0,0,0,0,0,-1,2001,400,0,0
784,624,0,0,0,0,0,0,0,0,0,-1,2008,400,0,0
791,624,0,0,0,0,0,0,0,0,0,-1,2015,400,0,0
798,624,0,0,0,0,0,0,0,0,0,-1,2022,400,0,0
805,624,0,0,0,0,0,0,0,0,0,-1,2029,400,0,0
812,624,0,0,0,0,0,0,0,0,0,-1,2036,400,0,0
-700,617,0,0,0,0,0,0,0,0,0,-1,524,407,0,0
-693,617,0,0,0,0,0,0,0,0,0,-1,531,407,0,0
-686,617,0,0,0,0,0,0,0,0,0,-1,538,407,0,0
-679,617,0,0,0,0,0,0,0,0,0,-1,545,407,0,0
-672,617,0,0,0,0,0,0,0,0,0,-1,552,407,0,0
-665,617,0,0,0,0,0,0,0,0,0,-1,559,407,0,0
-658,617,0,0,0,0,0,0,0,0,0,-1,566,407,0,0
-651,617,0,0,0,0,0,0,0,0,0,-1,573,407,0,0
-644,617,0,0,0,0,0,0,0,0,0,-1,580,407,0,0
-637,617,0,0,0,0,0,0,0,0,0,-1,587,407,0,0
-630,617,0,0,0,0,0,0,0,0,0,-1,594,407,0,0
-623,617,0,0,0,0,0,0,0,0,0,-1,601,407,0,0
-616,617,0,0,0,0,0,0,0,0,0,-1,608,407,0,0
-609,617,0,0,0,0,0,0,0,0,0,-1,615,407,0,0
-602,617,0,0,0,0,0,0,0,0,0,-1,622,407,0,0
-595,617,0,0,0,0,0,0,0,0,0,-1,629,407,0,0
-588,617,0,0,0,0,0,0,0,0,0,-1,636,407,0,0
-581,617,0,0,0,0,0,0,0,0,0,-1,643,407,0,0
-574,617,0,0,0,0,0,0,0,0,0,-1,650,407,0,0
-567,617,0,0,0,0,0,0,0,0,0,-1,657,407,0,0
-560,617,0,0,0,0,0,0,0,0,0,-1,664,407,0,0
-553,617,0,0,0,0,0,0,0,0,0,-1,671,407,0,0
-546,617,0,0,0,0,0,0,0,0,0,-1,678,407,0,0
-539,617,0,0,0,0,0,0,0,0,0,-1,685,407,0,0
-532,617,0,0,0,0,0,0,0,0,0,-1,692,407,0,0
-525,617,0,0,0,0,0,0,0,0,0,-1,699,407,0,0
-518,617,0,0,0,0,0,0,0,0,0,-1,706,407,0,0
-511,617,0,0,0,0,0,0,0,0,0,-1,713,407,0,0
-504,617,0,0,0,0,0,0,0,0,0,-1,720,407,0,0
-497,617,0,0,0,0,0,0,0,0,0,-1,727,407,0,0
-490,617,0,0,0,0,0,0,0,0,0,-1,734,407,0,0
-483,617,0,0,0,0,0,0,0,0,0,-1,741,407,0,0
-476,617,0,0,0,0,0,0,0,0,0,-1,748,407,0,0
-469,617,0,0,0,0,0,0,0,0,0,-1,755,407,0,0
-462,617,0,0,0,0,0,0,0,0,0,-1,762,407,0,0
-455,617,0,0,0,0,0,0,0,0,0,-1,769,407,0,0
-448,617,0,0,0,0,0,0,0,0,0,-1,776,407,0,0
-441,617,0,0,0,0,0,0,0,0,0,-1,783,407,0,0
-434,617,0,0,0,0,0,0,0,0,0,-1,790,407,0,0
-427,617,0,0,0,0,0,0,0,0,0,-1,797,407,0,0
-420,617,0,0,0,0,0,0,0,0,0,-1,804,407,0,0
-413,617,0,0,0,0,0,0,0,0,0,-1,811,407,0,0
-406,617,0,0,0,0,0,0,0,0,0,-1,818,407,0,0
-399,617,0,0,0,0,0,0,0,0,0,-1,825,407,0,0
-392,617,0,0,0,0,0,0,0,0,0,-1,832,407,0,0
-385,617,0,0,0,0,0,0,0,0,0,-1,839,407,0,0
-378,617,0,0,0,0,0,0,0,0,0,-1,846,407,0,0
-371,617,0,0,0,0,0,0,0,0,0,-1,853,407,0,0
-364,617,0,0,0,0,0,0,0,0,0,-1,860,407,0,0
-357,617,0,0,0,0,0,0,0,0,0,-1,867,407,0,0
-350,617,0,0,0,0,0,0,0,0,0,-1,874,407,0,0
-343,617,0,0,0,0,0,0,0,0,0,-1,881,407,0,0
-336,617,0,0,0,0,0,0,0,0,0,-1,888,407,0,0
-329,617,0,0,0,0,0,0,0,0,0,-1,895,407,0,0
-322,617,0,0,0,0,0,0,0,0,0,-1,902,407,0,0
-315,617,0,0,0,0,0,0,0,0,0,-1,909,407,0,0
-308,617,0,0,0,0,0,0,0,0,0,-1,916,407,0,0
-301,617,3.0321,-13.8866,0,0,0,0,0,0,0,-1,923,407,3.03209,13.8866
-294,617,-0.867493,-11.1655,0,0,0,0,0,0,0,-1,930,407,-0.867487,11.1655
-287,617,-0.212524,-10.7744,0,0,0,0,0,0,0,-1,937,407,-0.212541,10.7743
-280,617,2.19739,-11.6377,0,0,0,0,0,0,0,-1,944,407,2.19737,11.6377
-273,617,2.36188,-10.5736,0,0,0,0,0,0,0,-1,951,407,2.36188,10.5736
-266,617,1.75769,-13.3046,0,0,0,0,0,0,0,-1,958,407,1.75769,13.3046
-259,617,4.39972,-10.936,0,0,0,0,0,0,0,-1,965,407,4.39969,10.936
-252,617,3.97388,-14.1621,0,0,0,0,0,0,0,-1,972,407,3.97387,14.1621
-245,617,3.58911,-15.1018,-0.0157082,0.00313665,-0.0114409,0.00853568,-0.0211072,-1.12987,0.0176199,0.042897,979,407,3.58912,15.1018
-238,617,3.11957,-15.61,-0.0117283,0.00435985,-0.00974785,0.00895412,-0.0163226,-1.13036,0.0147988,0.0447324,986,407,3.11958,15.61
-231,617,3.07153,-15.0527,0,0,0,0,0,0,0,-1,993,407,3.07155,15.0527
-224,617,3.25098,-15.5211,-0.00691674,0.00538284,-0.00726666,0.00875273,-0.0102866,-1.13657,0.0110043,0.0447368,1000,407,3.25095,15.5212
-217,617,3.35931,-15.8061,-0.00417644,0.00473675,-0.00618175,0.00790087,-0.00734056,-1.09772,0.00880163,0.0355307,1007,407,3.35933,15.8061
-210,617,3.21942,-16.1955,-0.00226113,0.00421319,-0.00502659,0.00695482,-0.00500275,-1.07147,0.0069343,0.0246898,1014,407,3.21941,16.1955
-203,617,3.16455,-16.4908,-0.00104268,0.00226209,-0.00363757,0.00460499,-0.00338558,-0.998592,0.00463123,0.0187986,1021,407,3.16459,16.4909
-196,617,3.15625,-16.6874,0.000105362,0.000683598,-0.00268637,0.00309637,-0.00230741,-0.839004,0.00313094,0.0148397,1028,407,3.15625,16.6874
-189,617,3.13818,-16.9118,0.00148321,-0.000498065,-0.00202365,0.00274569,-0.00176054,-0.55778,0.00262231,0.0127962,1035,407,3.1382,16.9118
-182,617,3.13123,-17.1319,0.00230372,-0.0016304,-0.00131999,0.00270556,-0.00203224,-0.295514,0.00274456,0.0141733,1042,407,3.13121,17.1319
-175,617,3.13147,-17.3294,0.00256904,-0.0032027,-0.000701739,0.00265314,-0.00328679,-0.119267,0.00343592,0.0129587,1049,407,3.13143,17.3294
-168,617,3.12024,-17.5555,0.00267339,-0.00436645,-5.00723e-05,0.00267375,-0.00436681,-0.00711222,0.00410386,0.0100387,1056,407,3.12022,17.5554
-161,617,3.09509,-17.7971,0.00263975,-0.00516269,0.00042309,0.00266263,-0.00518556,0.0540143,0.00460854,0.0098979,1063,407,3.09512,17.7971
-154,617,3.08142,-17.9809,0.00263355,-0.00552446,0.000833553,0.00271784,-0.00560876,0.100788,0.00490299,0.0101419,1070,407,3.08148,17.9809
-147,617,3.07996,-18.1546,0.00246262,-0.0055733,0.00110166,0.00261092,-0.00572159,0.133804,0.00492125,0.0145697,1077,407,3.07995,18.1546
-140,617,3.06177,-18.3584,0.00233546,-0.00538011,0.00116502,0.00250754,-0.00555218,0.146641,0.00476267,0.0116828,1084,407,3.06172,18.3584
-133,617,3.05103,-18.5269,0.00218174,-0.00481772,0.00111279,0.0023544,-0.00499038,0.153928,0.00433059,0.0138183,1091,407,3.05106,18.5269
-126,617,3.04004,-18.6718,0.00203528,-0.00408622,0.000975675,0.00218702,-0.00423796,0.154293,0.00377194,0.0131957,1098,407,3.03998,18.6718
-119,617,3.01282,-18.8286,0.00190576,-0.00303641,0.000641908,0.00198777,-0.00311842,0.127075,0.00297206,0.0129381,1105,407,3.01281,18.8286
-112,617,3.01758,-18.9694,0.00182496,-0.00185418,0.000236731,0.00184013,-0.00186935,0.0639925,0.00214169,0.0141901,1112,407,3.01758,18.9694
-105,617,3.03235,-19.1216,0.00180142,-0.000732778,-0.00020866,0.00181848,-0.000749843,-0.0816052,0.00152501,0.0152477,1119,407,3.03235,19.1216
-98,617,3.02881,-19.2799,0.00172385,0.000342622,-0.000663229,0.00199074,7.57291e-05,-0.382586,0.00130265,0.0129136,1126,407,3.02883,19.2799
-91,617,3.05969,-19.4138,0.00169492,0.00117111,-0.00104624,0.00251154,0.00035449,-0.662754,0.0015696,0.0173603,1133,407,3.05968,19.4139
-84,617,3.08948,-19.566,0.00172675,0.00160662,-0.00122308,0.00289124,0.000442129,-0.760862,0.00179833,0.0163413,1140,407,3.08943,19.566
-77,617,3.09436,-19.6841,0.00176347,0.00182128,-0.00125773,0.00305044,0.000534309,-0.796886,0.00188099,0.0131029,1147,407,3.09437,19.6841
-70,617,3.08704,-19.7824,0.00202101,0.00173242,-0.00113763,0.00302346,0.000729968,-0.722314,0.00182174,0.0134913,1154,407,3.087,19.7825
-63,617,3.07947,-19.8976,0.00239587,0.00143949,-0.000863385,0.00290464,0.000930718,-0.532501,0.00171267,0.0134571,1161,407,3.07949,19.8976
-56,617,3.09192,-20.0167,0.00278713,0.000809084,-0.000487085,0.00290057,0.000695647,-0.228811,0.00174858,0.010233,1168,407,3.09186,20.0167
-49,617,3.08984,-20.1217,0.00303537,-0.000199343,-0.000327445,0.00306819,-0.000232157,-0.0998782,0.00212707,0.00904515,1175,407,3.08981,20.1217
-42,617,3.0885,-20.2421,0.00290041,-0.00164965,-0.000202551,0.00290941,-0.00165865,-0.044399,0.00267012,0.0115555,1182,407,3.0885,20.2421
-35,617,3.09534,-20.3311,0.00292501,-0.00318478,0.000440515,0.00295661,-0.00321638,0.0716062,0.00356503,0.0169763,1189,407,3.09529,20.3311
-28,617,3.07556,-20.4105,0.00314307,-0.00486997,0.000965818,0.00325784,-0.00498474,0.118274,0.00479354,0.018581,1196,407,3.07556,20.4105
-21,617,3.12585,-20.4745,0.00385016,-0.00627639,0.00122808,0.00399697,-0.00642319,0.118976,0.0060702,0.0123901,1203,407,3.12585,20.4745
-14,617,3.16626,-20.5229,0.0050969,-0.00732506,0.00138256,0.00524891,-0.00747708,0.109514,0.0073848,0.013406,1210,407,3.16623,20.5229
-7,617,3.14673,-20.5557,0.00632259,-0.00814432,0.00125291,0.0064303,-0.00825203,0.0857542,0.00849857,0.0161783,1217,407,3.14678,20.5557
0,617,3.17468,-20.6029,0.00737982,-0.00882979,0.00100577,0.00744198,-0.00889196,0.0617319,0.00944278,0.0150424,1224,407,3.17464,20.6029
7,617,3.20203,-20.68,0.00810983,-0.00886207,0.000709008,0.00813939,-0.00889164,0.0416786,0.00983607,0.0119509,1231,407,3.20205,20.68
14,617,3.23877,-20.7234,0.008558,-0.00861531,0.000452455,0.00856992,-0.00862723,0.026322,0.00992879,0.0133489,1238,407,3.23878,20.7234
21,617,3.2478,-20.749,0.00851526,-0.00812937,0.000162454,0.00851685,-0.00813095,0.00975892,0.00961247,0.0116287,1245,407,3.24776,20.749
28,617,3.24792,-20.7861,0.00857026,-0.0074026,-0.000207311,0.00857295,-0.00740529,-0.012976,0.00923325,0.0100581,1252,407,3.24798,20.7861
35,617,3.26917,-20.8123,0.00998744,-0.00601252,0.00126232,0.0100864,-0.0061115,0.0782503,0.00944527,0.012662,1259,407,3.26921,20.8123
42,617,3.31067,-20.8,0.0116176,-0.00376151,0.00273588,0.0120898,-0.00423371,0.170912,0.00978145,0.0190507,1266,407,3.31061,20.8
49,617,3.32227,-20.807,0.0123999,-0.00180375,0.00396575,0.0134321,-0.002836,0.254641,0.0100346,0.0185672,1273,407,3.32222,20.807
56,617,3.35693,-20.8001,0.0131107,4.02113e-05,0.00518388,0.0149171,-0.00176612,0.335295,0.0105827,0.0137251,1280,407,3.35691,20.8001
63,617,3.37341,-20.8,0.0139208,0.00208147,0.006139,0.0165293,-0.000527033,0.401792,0.0111994,0.0100686,1287,407,3.37343,20.8
70,617,3.34851,-20.7954,0.0147935,0.00426606,0.00697734,0.0182699,0.000789649,0.462241,0.0119255,0.0139593,1294,407,3.34855,20.7954
77,617,3.39172,-20.7553,0.0150386,0.00616849,0.00726338,0.0191139,0.00209318,0.511307,0.0121054,0.0128202,1301,407,3.39173,20.7553
84,617,3.44275,-20.7296,0.0146865,0.00780259,0.00696548,0.019014,0.00347506,0.555922,0.0116911,0.0107042,1308,407,3.44277,20.7296
91,617,3.47107,-20.7045,0.0136384,0.00840658,0.00604249,0.0176069,0.00443805,0.58112,0.0105737,0.0104251,1315,407,3.47109,20.7045
98,617,3.48608,-20.6677,0.0123528,0.00882484,0.00435682,0.0152892,0.00588847,0.593043,0.00890454,0.0107593,1322,407,3.48614,20.6677
105,617,3.49561,-20.6271,0.0109928,0.00880058,0.00238891,0.0125251,0.00726833,0.570307,0.00726238,0.0121047,1329,407,3.49565,20.6271
112,617,3.51501,-20.5748,0.00966358,0.00808857,7.63466e-05,0.00966727,0.00808488,0.0483228,0.00598749,0.0155793,1336,407,3.51498,20.5748
119,617,3.55432,-20.4962,0.00808134,0.00729557,-0.00237814,0.0100988,0.00527809,-0.703534,0.00583256,0.0188018,1343,407,3.55431,20.4962
126,617,3.56958,-20.3991,0.006598,0.00652786,-0.00452915,0.0110922,0.00203365,-0.781527,0.00681877,0.0220864,1350,407,3.56956,20.3992
133,617,3.55029,-20.2873,0.00463764,0.00534257,-0.00613392,0.0111341,-0.00115394,-0.814097,0.00783578,0.0190847,1357,407,3.55029,20.2873
140,617,3.56763,-20.1998,0.00190722,0.00400371,-0.00851497,0.0115347,-0.00562378,-0.846643,0.0101005,0.0159797,1364,407,3.56757,20.1998
147,617,3.56921,-20.1485,0.000419364,0.0022355,-0.0091108,0.0104834,-0.00782851,-0.835069,0.0106093,0.0192195,1371,407,3.56923,20.1485
154,617,3.60144,-20.0952,0.000784322,0.00145236,-0.00837263,0.00949763,-0.00726094,-0.805335,0.00970425,0.0218062,1378,407,3.60138,20.0952
161,617,3.65112,-19.9872,0.00112627,0.000888595,-0.00738783,0.00839622,-0.00638135,-0.777356,0.00855823,0.0221035,1385,407,3.65107,19.9872
168,617,3.6825,-19.8679,0.00134406,0.00022546,-0.00612334,0.00693359,-0.00536407,-0.739855,0.0071193,0.0200985,1392,407,3.68246,19.8679
175,617,3.6748,-19.7511,0.00138027,-0.000340171,-0.0050173,0.00561056,-0.00457046,-0.700498,0.00588823,0.0165479,1399,407,3.67484,19.7511
182,617,3.68542,-19.6367,0.00146902,-0.000911045,-0.00402862,0.0044797,-0.00392173,-0.641785,0.00485413,0.0114314,1406,407,3.68547,19.6367
189,617,3.67554,-19.5024,0.00136113,-0.0011543,-0.00300745,0.00336327,-0.00315644,-0.58735,0.00376478,0.0113831,1413,407,3.67557,19.5025
196,617,3.67834,-19.3594,0.00110752,-0.000587096,-0.00209196,0.00251726,-0.00199683,-0.59298,0.00261198,0.0146782,1420,407,3.67831,19.3595
203,617,3.69641,-19.1972,0.000763877,-0.00027729,-0.00113908,0.0014957,-0.00100911,-0.57106,0.00145522,0.0150519,1427,407,3.69645,19.1972
210,617,3.71167,-19.0379,0.000379187,0.000483695,-0.000802923,0.00123606,-0.000373181,-0.817892,0.0009726,0.0147697,1434,407,3.71168,19.0379
217,617,3.67615,-18.8698,-4.52292e-05,0.00126779,-0.000451696,0.00140817,-0.00018561,-1.26947,0.00100637,0.0194302,1441,407,3.67615,18.8698
224,617,3.6792,-18.7347,-0.000286856,0.00173942,-0.000199851,0.00175895,-0.00030638,-1.47342,0.00128697,0.0197829,1448,407,3.67917,18.7347
231,617,3.72266,-18.5743,-0.00034693,0.00216619,0.000143998,0.00217441,-0.000355154,1.51375,0.00158134,0.014935,1455,407,3.7227,18.5743
238,617,3.71265,-18.4015,-0.000257786,0.0026371,0.000557613,0.0027408,-0.000361479,1.38694,0.00195884,0.0148967,1462,407,3.71261,18.4015
245,617,3.71753,-18.2372,-0.000132888,0.00304681,0.000856123,0.00326267,-0.000348743,1.32381,0.00230019,0.0121653,1469,407,3.71759,18.2372
252,617,3.71606,-18.0303,5.73758e-05,0.00347048,0.00117822,0.00383769,-0.000309844,1.26867,0.00266775,0.0124298,1476,407,3.71609,18.0303
259,617,3.70313,-17.8173,0.000485272,0.00348124,0.00147455,0.00408522,-0.000118708,1.18204,0.0027639,0.0115031,1483,407,3.70311,17.8173
266,617,3.71826,-17.6049,0.000930328,0.00350442,0.00188683,0.00450136,-6.66189e-05,1.08471,0.00302336,0.0149364,1490,407,3.71825,17.6049
273,617,3.69885,-17.4078,0.00129124,0.00355056,0.00229841,0.00498192,-0.000140116,1.01381,0.00336896,0.0155627,1497,407,3.69882,17.4078
280,617,3.66675,-17.2079,0.00172192,0.00348728,0.00269633,0.00544173,-0.000232529,0.943582,0.00370776,0.0135652,1504,407,3.66677,17.208
287,617,3.65833,-16.9765,0.00219001,0.00322373,0.00312152,0.00587089,-0.000457156,0.867443,0.00407487,0.0123208,1511,407,3.65829,16.9765
294,617,3.66577,-16.761,0.00263202,0.00288289,0.00348978,0.00624948,-0.000734575,0.803363,0.00443152,0.00996556,1518,407,3.66575,16.761
301,617,3.64246,-16.5475,0.00298208,0.00252364,0.00386128,0.00662093,-0.00111521,0.755751,0.00482881,0.00772336,1525,407,3.64246,16.5475
308,617,3.62598,-16.3117,0.0032697,0.0022414,0.00427787,0.0070642,-0.00155311,0.725591,0.00530352,0.00752065,1532,407,3.62593,16.3117
315,617,3.62891,-16.0625,0.00333512,0.00188485,0.00460794,0.00727463,-0.00205466,0.707355,0.00566034,0.00858759,1539,407,3.62893,16.0625
322,617,3.61987,-15.8016,0.00330426,0.00159369,0.00495457,0.00747682,-0.00257887,0.699928,0.00603085,0.0119995,1546,407,3.61985,15.8016
329,617,3.61401,-15.5635,0.00310583,0.00140911,0.00525918,0.00758464,-0.0030697,0.705432,0.00633272,0.0123788,1553,407,3.61397,15.5635
336,617,3.64185,-15.3061,0.00268951,0.00147716,0.00541772,0.00753486,-0.00336818,0.729686,0.00644628,0.0240844,1560,407,3.64183,15.3061
343,617,3.72998,-14.9589,0,0,0,0,0,0,0,-1,1567,407,3.72992,14.9589
350,617,2.88098,-10.0063,0,0,0,0,0,0,0,-1,1574,407,2.88098,10.0063
357,617,2.1748,-7.16504,0,0,0,0,0,0,0,-1,1581,407,2.1748,7.16505
364,617,2.30127,-7.60257,0,0,0,0,0,0,0,-1,1588,407,2.30125,7.60258
371,617,2.60266,-6.20667,0,0,0,0,0,0,0,-1,1595,407,2.60261,6.20668
378,617,1.56921,-10.3601,0,0,0,0,0,0,0,-1,1602,407,1.56918,10.3601
385,617,1.74146,-10.3561,0,0,0,0,0,0,0,-1,1609,407,1.7414,10.3561
392,617,1.91357,-10.3521,0,0,0,0,0,0,0,-1,1616,407,1.91362,10.3521
399,617,3.25,-2.14835,0,0,0,0,0,0,0,-1,1623,407,3.25006,2.14836
406,617,3.02429,-3.19577,0,0,0,0,0,0,0,-1,1630,407,3.02431,3.19577
413,617,2.92786,-3.80649,0,0,0,0,0,0,0,-1,1637,407,2.92788,3.8065
420,617,3.42737,-4.47391,0,0,0,0,0,0,0,-1,1644,407,3.42737,4.47391
427,617,0,0,0,0,0,0,0,0,0,-1,1651,407,0,0
434,617,0,0,0,0,0,0,0,0,0,-1,1658,407,0,0
441,617,0,0,0,0,0,0,0,0,0,-1,1665,407,0,0
448,617,0,0,0,0,0,0,0,0,0,-1,1672,407,0,0
455,617,0,0,0,0,0,0,0,0,0,-1,1679,407,0,0
462,617,0,0,0,0,0,0,0,0,0,-1,1686,407,0,0
469,617,0,0,0,0,0,0,0,0,0,-1,1693,407,0,0
476,617,0,0,0,0,0,0,0,0,0,-1,1700,407,0,0
483,617,0,0,0,0,0,0,0,0,0,-1,1707,407,0,0
490,617,0,0,0,0,0,0,0,0,0,-1,1714,407,0,0
497,617,0,0,0,0,0,0,0,0,0,-1,1721,407,0,0
504,617,0,0,0,0,0,0,0,0,0,-1,1728,407,0,0
511,617,0,0,0,0,0,0,0,0,0,-1,1735,407,0,0
518,617,0,0,0,0,0,0,0,0,0,-1,1742,407,0,0
525,617,0,0,0,0,0,0,0,0,0,-1,1749,407,0,0
532,617,0,0,0,0,0,0,0,0,0,-1,1756,407,0,0
539,617,0,0,0,0,0,0,0,0,0,-1,1763,407,0,0
546,617,0,0,0,0,0,0,0,0,0,-1,1770,407,0,0
553,617,0,0,0,0,0,0,0,0,0,-1,1777,407,0,0
560,617,0,0,0,0,0,0,0,0,0,-1,1784,407,0,0
567,617,0,0,0,0,0,0,0,0,0,-1,1791,407,0,0
574,617,0,0,0,0,0,0,0,0,0,-1,1798,407,0,0
581,617,0,0,0,0,0,0,0,0,0,-1,1805,407,0,0
588,617,0,0,0,0,0,0,0,0,0,-1,1812,407,0,0
595,617,0,0,0,0,0,0,0,0,0,-1,1819,407,0,0
602,617,0,0,0,0,0,0,0,0,0,-1,1826,407,0,0
609,617,0,0,0,0,0,0,0,0,0,-1,1833,407,0,0
616,617,0,0,0,0,0,0,0,0,0,-1,1840,407,0,0
623,617,0,0,0,0,0,0,0,0,0,-1,1847,407,0,0
630,617,0,0,0,0,0,0,0,0,0,-1,1854,407,0,0
637,617,0,0,0,0,0,0,0,0,0,-1,1861,407,0,0
644,617,0,0,0,0,0,0,0,0,0,-1,1868,407,0,0
651,617,0,0,0,0,0,0,0,0,0,-1,1875,407,0,0
658,617,0,0,0,0,0,0,0,0,0,-1,1882,407,0,0
665,617,0,0,0,0,0,0,0,0,0,-1,1889,407,0,0
672,617,0,0,0,0,0,0,0,0,0,-1,1896,407,0,0
679,617,0,0,0,0,0,0,0,0,0,-1,1903,407,0,0
686,617,0,0,0,0,0,0,0,0,0,-1,1910,407,0,0
693,617,0,0,0,0,0,0,0,0,0,-1,1917,407,0,0
700,617,0,0,0,0,0,0,0,0,0,-1,1924,407,0,0
707,617,0,0,0,0,0,0,0,0,0,-1,1931,407,0,0
714,617,0,0,0,0,0,0,0,0,0,-1,1938,407,0,0
721,617,0,0,0,0,0,0,0,0,0,-1,1945,407,0,0
728,617,0,0,0,0,0,0,0,0,0,-1,1952,407,0,0
735,617,0,0,0,0,0,0,0,0,0,-1,1959,407,0,0
742,617,0,0,0,0,0,0,0,0,0,-1,1966,407,0,0
749,617,0,0,0,0,0,0,0,0,0,-1,1973,407,0,0
756,617,0,0,0,0,0,0,0,0,0,-1,1980,407,0,0
763,617,0,0,0,0,0,0,0,0,0,-1,1987,407,0,0
770,617,0,0,0,0,0,0,0,0,0,-1,1994,407,0,0
777,617,0,0,0,0,0,0,0,0,0,-1,2001,407,0,0
784,617,0,0,0,0,0,0,0,0,0,-1,2008,407,0,0
791,617,0,0,0,0,0,0,0,0,0,-1,2015,407,0,0
798,617,0,0,0,0,0,0,0,0,0,-1,2022,407,0,0
805,617,0,0,0,0,0,0,0,0,0,-1,2029,407,0,0
812,617,0,0,0,0,0,0,0,0,0,-1,2036,407,0,0
-700,610,0,0,0,0,0,0,0,0,0,-1,524,414,0,0
-693,610,0,0,0,0,0,0,0,0,0,-1,531,414,0,0
-686,610,0,0,0,0,0,0,0,0,0,-1,538,414,0,0
-679,610,0,0,0,0,0,0,0,0,0,-1,545,414,0,0
-672,610,0,0,0,0,0,0,0,0,0,-1,552,414,0,0
-665,610,0,0,0,0,0,0,0,0,0,-1,559,414,0,0
-658,610,0,0,0,0,0,0,0,0,0,-1,566,414,0,0
-651,610,0,0,0,0,0,0,0,0,0,-1,573,414,0,0
-644,610,0,0,0,0,0,0,0,0,0,-1,580,414,0,0
-637,610,0,0,0,0,0,0,0,0,0,-1,587,414,0,0
-630,610,0,0,0,0,0,0,0,0,0,-1,594,414,0,0
-623,610,0,0,0,0,0,0,0,0,0,-1,601,414,0,0
-616,610,0,0,0,0,0,0,0,0,0,-1,608,414,0,0
-609,610,0,0,0,0,0,0,0,0,0,-1,615,414,0,0
-602,610,0,0,0,0,0,0,0,0,0,-1,622,414,0,0
-595,610,0,0,0,0,0,0,0,0,0,-1,629,414,0,0
-588,610,0,0,0,0,0,0,0,0,0,-1,636,414,0,0
-581,610,0,0,0,0,0,0,0,0,0,-1,643,414,0,0
-574,610,0,0,0,0,0,0,0,0,0,-1,650,414,0,0
-567,610,0,0,0,0,0,0,0,0,0,-1,657,414,0,0
-560,610,0,0,0,0,0,0,0,0,0,-1,664,414,0,0
-553,610,0,0,0,0,0,0,0,0,0,-1,671,414,0,0
-546,610,0,0,0,0,0,0,0,0,0,-1,678,414,0,0
-539,610,0,0,0,0,0,0,0,0,0,-1,685,414,0,0
-532,610,0,0,0,0,0,0,0,0,0,-1,692,414,0,0
-525,610,0,0,0,0,0,0,0,0,0,-1,699,414,0,0
-518,610,0,0,0,0,0,0,0,0,0,-1,706,414,0,0
-511,610,0,0,0,0,0,0,0,0,0,-1,713,414,0,0
-504,610,0,0,0,0,0,0,0,0,0,-1,720,414,0,0
-497,610,0,0,0,0,0,0,0,0,0,-1,727,414,0,0
-490,610,0,0,0,0,0,0,0,0,0,-1,734,414,0,0
-483,610,0,0,0,0,0,0,0,0,0,-1,741,414,0,0
-476,610,0,0,0,0,0,0,0,0,0,-1,748,414,0,0
-469,610,0,0,0,0,0,0,0,0,0,-1,755,414,0,0
-462,610,0,0,0,0,0,0,0,0,0,-1,762,414,0,0
-455,610,0,0,0,0,0,0,0,0,0,-1,769,414,0,0
-448,610,0,0,0,0,0,0,0,0,0,-1,776,414,0,0
-441,610,0,0,0,0,0,0,0,0,0,-1,783,414,0,0
-434,610,0,0,0,0,0,0,0,0,0,-1,790,414,0,0
-427,610,0,0,0,0,0,0,0,0,0,-1,797,414,0,0
-420,610,0,0,0,0,0,0,0,0,0,-1,804,414,0,0
-413,610,0,0,0,0,0,0,0,0,0,-1,811,414,0,0
-406,610,0,0,0,0,0,0,0,0,0,-1,818,414,0,0
-399,610,0,0,0,0,0,0,0,0,0,-1,825,414,0,0
-392,610,0,0,0,0,0,0,0,0,0,-1,832,414,0,0
-385,610,0,0,0,0,0,0,0,0,0,-1,839,414,0,0
-378,610,0,0,0,0,0,0,0,0,0,-1,846,414,0,0
-371,610,0,0,0,0,0,0,0,0,0,-1,853,414,0,0
-364,610,0,0,0,0,0,0,0,0,0,-1,860,414,0,0
-357,610,0,0,0,0,0,0,0,0,0,-1,867,414,0,0
-350,610,0,0,0,0,0,0,0,0,0,-1,874,414,0,0
-343,610,0,0,0,0,0,0,0,0,0,-1,881,414,0,0
-336,610,0,0,0,0,0,0,0,0,0,-1,888,414,0,0
-329,610,0,0,0,0,0,0,0,0,0,-1,895,414,0,0
-322,610,0,0,0,0,0,0,0,0,0,-1,902,414,0,0
-315,610,6.6438,-13.537,-0.058249,-0.0572896,0.0653689,0.00760138,-0.12314,0.789067,0.0847408,0.0458568,909,414,6.64383,13.537
-308,610,6.20703,-13.9936,-0.0549941,-0.0521057,0.0585287,0.00499661,-0.112096,0.797733,0.0764509,0.0473432,916,414,6.20702,13.9936
-301,610,5.73285,-14.3911,0,0,0,0,0,0,0,-1,923,414,5.73285,14.3911
-294,610,2.37964,-12.4347,0,0,0,0,0,0,0,-1,930,414,2.37964,12.4347
-287,610,2.08557,-11.9136,0,0,0,0,0,0,0,-1,937,414,2.08555,11.9136
-280,610,2.25854,-11.0924,0,0,0,0,0,0,0,-1,944,414,2.25856,11.0924
-273,610,3.74542,-14.4477,0,0,0,0,0,0,0,-1,951,414,3.74543,14.4477
-266,610,2.46454,-14.0587,0,0,0,0,0,0,0,-1,958,414,2.46456,14.0587
-259,610,2.61639,-14.1181,0,0,0,0,0,0,0,-1,965,414,2.61637,14.1181
-252,610,3.65448,-14.59,0,0,0,0,0,0,0,-1,972,414,3.65448,14.59
-245,610,3.44452,-15.039,-0.010648,0.00277594,-0.00894205,0.00724479,-0.0151169,-1.10734,0.0131745,0.0438979,979,414,3.4445,15.039
-238,610,3.07324,-15.4206,-0.00817871,0.0040204,-0.00785225,0.0078638,-0.0120221,-1.11561,0.0115645,0.0427633,986,414,3.07326,15.4206
-231,610,2.93182,-15.2771,-0.00685242,0.00471385,-0.0068268,0.00787777,-0.0100163,-1.13681,0.0103557,0.0363256,993,414,2.93181,15.2771
-224,610,3.04138,-15.6693,-0.00519704,0.00492049,-0.00592653,0.0076537,-0.00793025,-1.13868,0.00899787,0.0232815,1000,414,3.04135,15.6693
-217,610,3.03845,-15.9778,-0.00333364,0.00455319,-0.00514268,0.00709034,-0.00587079,-1.11248,0.00749414,0.0148805,1007,414,3.03845,15.9778
-210,610,3.00818,-16.2597,-0.00200568,0.00410837,-0.00425238,0.00628853,-0.00418584,-1.09705,0.00608786,0.0104383,1014,414,3.00819,16.2597
-203,610,2.98669,-16.5049,-0.00129655,0.00297788,-0.00331951,0.00478868,-0.00310735,-1.07141,0.00459309,0.0127312,1021,414,2.98671,16.5049
-196,610,2.96887,-16.7504,-0.000535682,0.00202945,-0.00269736,0.00373365,-0.00223988,-1.00732,0.00348458,0.0135094,1028,414,2.96893,16.7504
-189,610,2.9707,-16.9484,0.000545995,0.00115256,-0.00220912,0.00307912,-0.00138056,-0.853616,0.00263631,0.0111918,1035,414,2.97066,16.9484
-182,610,2.96118,-17.1595,0.00124568,0.000316203,-0.0016338,0.00247956,-0.000917676,-0.646833,0.00202931,0.011403,1042,414,2.96114,17.1596
-175,610,2.92883,-17.347,0.00146904,-0.000961892,-0.00115825,0.00193254,-0.00142538,-0.380649,0.00194605,0.0113998,1049,414,2.92881,17.347
-168,610,2.91223,-17.5487,0.00151446,-0.00195672,-0.000664412,0.00163728,-0.00207955,-0.182803,0.00215097,0.0107602,1056,414,2.91225,17.5487
-161,610,2.9021,-17.8104,0.00157017,-0.00268017,-0.000298745,0.00159107,-0.00270106,-0.0698296,0.00250553,0.0100093,1063,414,2.90205,17.8104
-154,610,2.89014,-18.0086,0.00166474,-0.003067,3.46194e-05,0.001665,-0.00306725,0.0073159,0.00277186,0.0119374,1070,414,2.89009,18.0086
-147,610,2.91284,-18.1369,0.00165676,-0.00322265,0.00026552,0.00167117,-0.00323706,0.0542031,0.00288143,0.0150302,1077,414,2.9128,18.1369
-140,610,2.89709,-18.3305,0.00171011,-0.00323292,0.000299413,0.00172818,-0.00325099,0.0602791,0.00291919,0.0120882,1084,414,2.89715,18.3305
-133,610,2.88281,-18.5039,0.0017513,-0.00290997,0.000227895,0.00176242,-0.00292109,0.0487362,0.00273147,0.0138884,1091,414,2.88281,18.5039
-126,610,2.87024,-18.6601,0.00181303,-0.00246869,8.66623e-05,0.00181479,-0.00247044,0.020229,0.00248371,0.0129361,1098,414,2.87019,18.6601
-119,610,2.88501,-18.8133,0.00193709,-0.0017098,-0.000237903,0.00195255,-0.00172525,-0.064868,0.00212473,0.0105408,1105,414,2.88497,18.8133
-112,610,2.8855,-18.9485,0.00213254,-0.000847621,-0.000604457,0.00225047,-0.000965554,-0.192686,0.00190553,0.0171282,1112,414,2.8855,18.9485
-105,610,2.88306,-19.1119,0.00240748,4.17973e-05,-0.000997443,0.0027719,-0.000322619,-0.350284,0.00196432,0.0171426,1119,414,2.88307,19.1119
-98,610,2.89563,-19.2771,0.00262872,0.00088731,-0.00141672,0.00342092,9.51171e-05,-0.509858,0.00224957,0.0119565,1126,414,2.8956,19.2771
-91,610,2.91028,-19.4075,0.00278643,0.00150234,-0.00174887,0.00400739,0.000281381,-0.609475,0.00258291,0.0130764,1133,414,2.91025,19.4075
-84,610,2.94043,-19.5459,0.00287729,0.00188778,-0.00186016,0.00430736,0.000457706,-0.65542,0.00273182,0.0142054,1140,414,2.94046,19.5459
-77,610,2.93994,-19.6834,0.00302223,0.00200633,-0.0018003,0.00438487,0.000643694,-0.647897,0.00273406,0.011187,1147,414,2.93997,19.6834
-70,610,2.95972,-19.8204,0.00346418,0.0017514,-0.00159653,0.00441951,0.00079607,-0.539225,0.00272009,0.0132445,1154,414,2.95977,19.8204
-63,610,2.97913,-19.9362,0.00432017,0.00129468,-0.00120352,0.00474052,0.000874331,-0.336021,0.00291297,0.0120068,1161,414,2.97911,19.9362
-56,610,2.98218,-20.0205,0.00538187,0.000348273,-0.000651418,0.00546481,0.000265337,-0.126635,0.00355806,0.00889262,1168,414,2.98218,20.0205
-49,610,2.98938,-20.1055,0.00594906,-0.00116456,-0.000576798,0.00599553,-0.00121102,-0.0803838,0.00445589,0.00898081,1175,414,2.98937,20.1055
-42,610,2.9928,-20.2162,0.00592508,-0.00328302,-0.000480027,0.00595004,-0.00330798,-0.0519433,0.00541718,0.0143867,1182,414,2.99281,20.2163
-35,610,3.01416,-20.3135,0.006033,-0.00530199,0.000383913,0.00604599,-0.00531498,0.0338181,0.00656378,0.0151982,1189,414,3.01415,20.3135
-28,610,3.03394,-20.3952,0.00625882,-0.00744529,0.00113234,0.00635175,-0.00753822,0.0818875,0.00802912,0.0121677,1196,414,3.03394,20.3952
-21,610,3.06299,-20.4569,0.00719432,-0.00912244,0.00136751,0.00730814,-0.00923626,0.0830383,0.00957351,0.00973368,1203,414,3.06294,20.4569
-14,610,3.09106,-20.51,0.00889369,-0.0101161,0.0014743,0.00900736,-0.0102297,0.0769419,0.011114,0.011088,1210,414,3.09105,20.51
-7,610,3.10889,-20.5541,0.0104503,-0.0107549,0.00133658,0.0105342,-0.0108388,0.0626999,0.0123402,0.0132968,1217,414,3.10888,20.5541
0,610,3.13086,-20.6292,0.0117432,-0.0112999,0.00101917,0.0117881,-0.0113449,0.0441139,0.0133567,0.0104935,1224,414,3.13091,20.6292
7,610,3.16614,-20.6715,0.0126229,-0.0110419,0.000679803,0.0126424,-0.0110614,0.0286948,0.0136955,0.0110955,1231,414,3.16611,20.6715
14,610,3.2168,-20.6972,0.0131542,-0.0103574,0.00036251,0.0131598,-0.010363,0.0154134,0.0136129,0.013288,1238,414,3.21677,20.6972
21,610,3.24133,-20.7214,0.0130426,-0.00942065,-2.30479e-05,0.0130426,-0.00942067,-0.00102603,0.0130253,0.0119726,1245,414,3.24138,20.7214
28,610,3.23596,-20.7691,0.0129948,-0.00821813,-0.000508752,0.013007,-0.00823032,-0.0239647,0.0123643,0.0118801,1252,414,3.23597,20.7691
35,610,3.29053,-20.7736,0.0146371,-0.00623157,0.00135671,0.0147249,-0.0063194,0.0646492,0.0124688,0.0150669,1259,414,3.29052,20.7736
42,610,3.31934,-20.7534,0.0165154,-0.00307727,0.00327719,0.017049,-0.0036109,0.161415,0.0127414,0.0147549,1266,414,3.31935,20.7534
49,610,3.32422,-20.8109,0.0172948,-0.000523067,0.00489086,0.018549,-0.00177728,0.251032,0.012999,0.0149836,1273,414,3.32425,20.8109
56,610,3.38391,-20.7903,0.018014,0.00192055,0.00650279,0.0203131,-0.00037854,0.339838,0.01367,0.0135346,1280,414,3.38389,20.7903
63,610,3.36279,-20.7499,0.0188233,0.00451869,0.00772296,0.0221971,0.00114485,0.411871,0.0144316,0.0164452,1287,414,3.36278,20.7499
70,610,3.36462,-20.7463,0.0195731,0.00741209,0.00873225,0.0241333,0.00285188,0.48127,0.0152275,0.0231592,1294,414,3.36463,20.7463
77,610,3.43298,-20.7662,0.019498,0.00985002,0.0090209,0.0249038,0.00444428,0.539865,0.0153372,0.0302959,1301,414,3.43297,20.7662
84,610,3.46667,-20.6985,0.0187684,0.0119749,0.0086652,0.0246788,0.00606445,0.598602,0.0148497,0.0327758,1308,414,3.46668,20.6985
91,610,3.53845,-20.6703,0.0171431,0.0128291,0.00752033,0.0228096,0.00716254,0.645738,0.0134694,0.0270712,1315,414,3.53849,20.6703
98,610,3.5752,-20.6713,0.0153244,0.0134804,0.00529089,0.019773,0.00903175,0.699134,0.0114302,0.0231184,1322,414,3.57523,20.6713
105,610,3.57458,-20.6089,0.0134845,0.013745,0.00269579,0.0163137,0.0109158,0.809544,0.00959662,0.0184689,1329,414,3.57463,20.6089
112,610,3.57471,-20.559,0.0117048,0.0131288,-0.00042211,0.0132445,0.011589,-1.30322,0.00833284,0.0122284,1336,414,3.57475,20.559
119,610,3.57825,-20.508,0.00962106,0.0123474,-0.0037695,0.0149927,0.00697583,-0.9589,0.00866297,0.0175936,1343,414,3.57826,20.508
126,610,3.59692,-20.4174,0.00768546,0.0116299,-0.0067338,0.0166743,0.00264101,-0.927856,0.0103488,0.0267403,1350,414,3.59694,20.4175
133,610,3.65613,-20.2982,0.00515888,0.010331,-0.00907944,0.0171855,-0.0016956,-0.924138,0.012062,0.0209265,1357,414,3.6561,20.2982
140,610,3.67761,-20.2218,0.00154524,0.00876444,-0.0125175,0.0181824,-0.00787269,-0.925772,0.0154305,0.0159362,1364,414,3.67755,20.2218
147,610,3.66589,-20.1251,-0.000448157,0.00622963,-0.0136399,0.0169334,-0.0111519,-0.905432,0.0163292,0.0166523,1371,414,3.66595,20.1251
154,610,3.65515,-20.0435,0.000175901,0.00520883,-0.0128485,0.015785,-0.0104003,-0.882102,0.0152242,0.0216772,1378,414,3.65514,20.0435
161,610,3.70801,-19.938,0.000777626,0.00413968,-0.0116359,0.0142153,-0.00929804,-0.857136,0.0136741,0.0255092,1385,414,3.70796,19.938
168,610,3.79883,-19.8298,0.00127399,0.00283186,-0.00992705,0.0120105,-0.00790464,-0.824551,0.0115792,0.0247801,1392,414,3.79878,19.8298
175,610,3.82837,-19.7191,0.00169353,0.00122451,-0.00833039,0.00979271,-0.00687467,-0.771326,0.00967195,0.0202381,1399,414,3.82831,19.7191
182,610,3.83008,-19.6293,0.00219427,-0.000339607,-0.00694603,0.00798796,-0.0061333,-0.695191,0.00817632,0.0146864,1406,414,3.83012,19.6293
189,610,3.82153,-19.4986,0.00218686,-0.00133197,-0.00534808,0.0060575,-0.00520262,-0.626484,0.00650727,0.0134748,1413,414,3.8215,19.4986
196,610,3.82813,-19.3586,0.00190393,-0.000961601,-0.00386839,0.00459637,-0.00365403,-0.608042,0.00477372,0.0129075,1420,414,3.82812,19.3586
203,610,3.85059,-19.2041,0.00149467,-0.00101127,-0.00217608,0.00275273,-0.00226933,-0.524183,0.00290396,0.0130815,1427,414,3.85053,19.2041
210,610,3.87,-19.0736,0.00107471,-0.000179344,-0.00170548,0.00226477,-0.00136941,-0.60924,0.00211932,0.0103763,1434,414,3.86995,19.0736
217,610,3.86047,-18.9075,0.000583276,0.000913667,-0.00120858,0.00196829,-0.000471344,-0.85332,0.00149429,0.0164975,1441,414,3.86048,18.9075
224,610,3.88452,-18.7498,0.000307127,0.00149451,-0.000889493,0.00197024,-0.000168605,-1.07967,0.00137315,0.0209233,1448,414,3.88456,18.7498
231,610,3.89758,-18.5824,0.000181612,0.00199089,-0.00051597,0.00212769,4.48114e-05,-1.31163,0.00140376,0.0167096,1455,414,3.89759,18.5824
238,610,3.8728,-18.3991,0.000234181,0.00244528,-0.000111012,0.00245084,0.000228622,-1.52076,0.00156327,0.0114831,1462,414,3.87276,18.3991
245,610,3.88171,-18.2204,0.000331318,0.00282298,0.000192756,0.0028378,0.000316494,1.49404,0.00179569,0.0116731,1469,414,3.88171,18.2204
252,610,3.89526,-18.0323,0.000437174,0.00314014,0.000496221,0.00322836,0.000348955,1.39485,0.00204587,0.0124011,1476,414,3.89524,18.0322
259,610,3.89844,-17.8247,0.000653796,0.00316276,0.000791915,0.0033918,0.00042475,1.28925,0.00213376,0.0112648,1483,414,3.89849,17.8247
266,610,3.89917,-17.6248,0.00090715,0.00312998,0.00114189,0.00361204,0.000425091,1.17133,0.00227958,0.0126687,1490,414,3.89922,17.6248
273,610,3.88623,-17.4178,0.00111339,0.00309621,0.00147387,0.00388109,0.000328515,1.08147,0.00248514,0.0107,1497,414,3.8862,17.4177
280,610,3.8728,-17.192,0.00134607,0.00297287,0.00180673,0.00414086,0.000178083,0.99691,0.00270317,0.0101898,1504,414,3.8728,17.192
287,610,3.86401,-16.9716,0.00165535,0.00278215,0.00218795,0.00447807,-4.05679e-05,0.911411,0.002999,0.01283,1511,414,3.86404,16.9716
294,610,3.8783,-16.7675,0.00192519,0.00250389,0.00250195,0.00473316,-0.000304083,0.842968,0.00326153,0.0111991,1518,414,3.87831,16.7675
301,610,3.87048,-16.5654,0.00210319,0.00216943,0.00280316,0.00493967,-0.000667045,0.791306,0.00353649,0.0101936,1525,414,3.87054,16.5654
308,610,3.87402,-16.3336,0.00226154,0.00194821,0.00314051,0.00524929,-0.00103954,0.760476,0.00389259,0.0110785,1532,414,3.87405,16.3336
315,610,3.8645,-16.0901,0.00228637,0.00174746,0.00342478,0.00545228,-0.00141845,0.74614,0.00418851,0.0115554,1539,414,3.86449,16.0901
322,610,3.84753,-15.8159,0.00222887,0.00160028,0.00371587,0.00564371,-0.00181456,0.743208,0.00449122,0.0116249,1546,414,3.84757,15.8159
329,610,3.82214,-15.5689,0.0020486,0.00153536,0.00397959,0.00577983,-0.00219587,0.7532,0.00475722,0.0110097,1553,414,3.82211,15.5689
336,610,3.81824,-15.3064,0.00169918,0.00167223,0.00413477,0.0058205,-0.00244909,0.783769,0.00490493,0.0104246,1560,414,3.81827,15.3064
343,610,3.82129,-15.0286,0.0013318,0.00188668,0.00422551,0.00584384,-0.00262536,0.818181,0.00500601,0.0216755,1567,414,3.82127,15.0286
350,610,3.78699,-14.7452,0,0,0,0,0,0,0,-1,1574,414,3.787,14.7452
357,610,3.86719,-14.2613,0,0,0,0,0,0,0,-1,1581,414,3.86715,14.2613
364,610,3.97827,-14.0237,0,0,0,0,0,0,0,-1,1588,414,3.97823,14.0237
371,610,3.54138,-13.3788,0,0,0,0,0,0,0,-1,1595,414,3.54137,13.3788
378,610,3.5752,-12.1958,0,0,0,0,0,0,0,-1,1602,414,3.57517,12.1958
385,610,2.57104,-10.3878,0,0,0,0,0,0,0,-1,1609,414,2.57109,10.3878
392,610,2.35229,-10.3207,0,0,0,0,0,0,0,-1,1616,414,2.35227,10.3207
399,610,3.03833,-2.82547,0,0,0,0,0,0,0,-1,1623,414,3.03827,2.82546
406,610,2.91687,-2.9166,0,0,0,0,0,0,0,-1,1630,414,2.91688,2.91659
413,610,3.01929,-3.20306,0,0,0,0,0,0,0,-1,1637,414,3.01929,3.20306
420,610,4.78149,-3.64041,0,0,0,0,0,0,0,-1,1644,414,4.78152,3.64042
427,610,5.20764,-4.67545,0,0,0,0,0,0,0,-1,1651,414,5.20759,4.67545
434,610,5.39233,-5.45441,0,0,0,0,0,0,0,-1,1658,414,5.39228,5.4544
441,610,0,0,0,0,0,0,0,0,0,-1,1665,414,0,0
448,610,0,0,0,0,0,0,0,0,0,-1,1672,414,0,0
455,610,0,0,0,0,0,0,0,0,0,-1,1679,414,0,0
462,610,0,0,0,0,0,0,0,0,0,-1,1686,414,0,0
469,610,0,0,0,0,0,0,0,0,0,-1,1693,414,0,0
476,610,0,0,0,0,0,0,0,0,0,-1,1700,414,0,0
483,610,0,0,0,0,0,0,0,0,0,-1,1707,414,0,0
490,610,0,0,0,0,0,0,0,0,0,-1,1714,414,0,0
497,610,0,0,0,0,0,0,0,0,0,-1,1721,414,0,0
504,610,0,0,0,0,0,0,0,0,0,-1,1728,414,0,0
511,610,0,0,0,0,0,0,0,0,0,-1,1735,414,0,0
518,610,0,0,0,0,0,0,0,0,0,-1,1742,414,0,0
525,610,0,0,0,0,0,0,0,0,0,-1,1749,414,0,0
532,610,0,0,0,0,0,0,0,0,0,-1,1756,414,0,0
539,610,0,0,0,0,0,0,0,0,0,-1,1763,414,0,0
546,610,0,0,0,0,0,0,0,0,0,-1,1770,414,0,0
553,610,0,0,0,0,0,0,0,0,0,-1,1777,414,0,0
560,610,0,0,0,0,0,0,0,0,0,-1,1784,414,0,0
567,610,0,0,0,0,0,0,0,0,0,-1,1791,414,0,0
574,610,0,0,0,0,0,0,0,0,0,-1,1798,414,0,0
581,610,0,0,0,0,0,0,0,0,0,-1,1805,414,0,0
588,610,0,0,0,0,0,0,0,0,0,-1,1812,414,0,0
595,610,0,0,0,0,0,0,0,0,0,-1,1819,414,0,0
602,610,0,0,0,0,0,0,0,0,0,-1,1826,414,0,0
609,610,0,0,0,0,0,0,0,0,0,-1,1833,414,0,0
616,610,0,0,0,0,0,0,0,0,0,-1,1840,414,0,0
623,610,0,0,0,0,0,0,0,0,0,-1,1847,414,0,0
630,610,0,0,0,0,0,0,0,0,0,-1,1854,414,0,0
637,610,0,0,0,0,0,0,0,0,0,-1,1861,414,0,0
644,610,0,0,0,0,0,0,0,0,0,-1,1868,414,0,0
651,610,0,0,0,0,0,0,0,0,0,-1,1875,414,0,0
658,610,0,0,0,0,0,0,0,0,0,-1,1882,414,0,0
665,610,0,0,0,0,0,0,0,0,0,-1,1889,414,0,0
672,610,0,0,0,0,0,0,0,0,0,-1,1896,414,0,0
679,610,0,0,0,0,0,0,0,0,0,-1,1903,414,0,0
686,610,0,0,0,0,0,0,0,0,0,-1,1910,414,0,0
693,610,0,0,0,0,0,0,0,0,0,-1,1917,414,0,0
700,610,0,0,0,0,0,0,0,0,0,-1,1924,414,0,0
707,610,0,0,0,0,0,0,0,0,0,-1,1931,414,0,0
714,610,0,0,0,0,0,0,0,0,0,-1,1938,414,0,0
721,610,0,0,0,0,0,0,0,0,0,-1,1945,414,0,0
728,610,0,0,0,0,0,0,0,0,0,-1,1952,414,0,0
735,610,0,0,0,0,0,0,0,0,0,-1,1959,414,0,0
742,610,0,0,0,0,0,0,0,0,0,-1,1966,414,0,0
749,610,0,0,0,0,0,0,0,0,0,-1,1973,414,0,0
756,610,0,0,0,0,0,0,0,0,0,-1,1980,414,0,0
763,610,0,0,0,0,0,0,0,0,0,-1,1987,414,0,0
770,610,0,0,0,0,0,0,0,0,0,-1,1994,414,0,0
777,610,0,0,0,0,0,0,0,0,0,-1,2001,414,0,0
784,610,0,0,0,0,0,0,0,0,0,-1,2008,414,0,0
791,610,0,0,0,0,0,0,0,0,0,-1,2015,414,0,0
798,610,0,0,0,0,0,0,0,0,0,-1,2022,414,0,0
805,610,0,0,0,0,0,0,0,0,0,-1,2029,414,0,0
812,610,0,0,0,0,0,0,0,0,0,-1,2036,414,0,0
-700,603,0,0,0,0,0,0,0,0,0,-1,524,421,0,0
-693,603,0,0,0,0,0,0,0,0,0,-1,531,421,0,0
-686,603,0,0,0,0,0,0,0,0,0,-1,538,421,0,0
-679,603,0,0,0,0,0,0,0,0,0,-1,545,421,0,0
-672,603,0,0,0,0,0,0,0,0,0,-1,552,421,0,0
-665,603,0,0,0,0,0,0,0,0,0,-1,559,421,0,0
-658,603,0,0,0,0,0,0,0,0,0,-1,566,421,0,0
-651,603,0,0,0,0,0,0,0,0,0,-1,573,421,0,0
-644,603,0,0,0,0,0,0,0,0,0,-1,580,421,0,0
-637,603,0,0,0,0,0,0,0,0,0,-1,587,421,0,0
-630,603,0,0,0,0,0,0,0,0,0,-1,594,421,0,0
-623,603,0,0,0,0,0,0,0,0,0,-1,601,421,0,0
-616,603,0,0,0,0,0,0,0,0,0,-1,608,421,0,0
-609,603,0,0,0,0,0,0,0,0,0,-1,615,421,0,0
-602,603,0,0,0,0,0,0,0,0,0,-1,622,421,0,0
-595,603,0,0,0,0,0,0,0,0,0,-1,629,421,0,0
-588,603,0,0,0,0,0,0,0,0,0,-1,636,421,0,0
-581,603,0,0,0,0,0,0,0,0,0,-1,643,421,0,0
-574,603,0,0,0,0,0,0,0,0,0,-1,650,421,0,0
-567,603,0,0,0,0,0,0,0,0,0,-1,657,421,0,0
-560,603,0,0,0,0,0,0,0,0,0,-1,664,421,0,0
-553,603,0,0,0,0,0,0,0,0,0,-1,671,421,0,0
-546,603,0,0,0,0,0,0,0,0,0,-1,678,421,0,0
-539,603,0,0,0,0,0,0,0,0,0,-1,685,421,0,0
-532,603,0,0,0,0,0,0,0,0,0,-1,692,421,0,0
-525,603,0,0,0,0,0,0,0,0,0,-1,699,421,0,0
-518,603,0,0,0,0,0,0,0,0,0,-1,706,421,0,0
-511,603,0,0,0,0,0,0,0,0,0,-1,713,421,0,0
-504,603,0,0,0,0,0,0,0,0,0,-1,720,421,0,0
-497,603,0,0,0,0,0,0,0,0,0,-1,727,421,0,0
-490,603,0,0,0,0,0,0,0,0,0,-1,734,421,0,0
-483,603,0,0,0,0,0,0,0,0,0,-1,741,421,0,0
-476,603,0,0,0,0,0,0,0,0,0,-1,748,421,0,0
-469,603,0,0,0,0,0,0,0,0,0,-1,755,421,0,0
-462,603,0,0,0,0,0,0,0,0,0,-1,762,421,0,0
-455,603,0,0,0,0,0,0,0,0,0,-1,769,421,0,0
-448,603,0,0,0,0,0,0,0,0,0,-1,776,421,0,0
-441,603,0,0,0,0,0,0,0,0,0,-1,783,421,0,0
-434,603,0,0,0,0,0,0,0,0,0,-1,790,421,0,0
-427,603,0,0,0,0,0,0,0,0,0,-1,797,421,0,0
-420,603,0,0,0,0,0,0,0,0,0,-1,804,421,0,0
-413,603,0,0,0,0,0,0,0,0,0,-1,811,421,0,0
-406,603,0,0,0,0,0,0,0,0,0,-1,818,421,0,0
-399,603,0,0,0,0,0,0,0,0,0,-1,825,421,0,0
-392,603,0,0,0,0,0,0,0,0,0,-1,832,421,0,0
-385,603,0,0,0,0,0,0,0,0,0,-1,839,421,0,0
-378,603,0,0,0,0,0,0,0,0,0,-1,846,421,0,0
-371,603,0,0,0,0,0,0,0,0,0,-1,853,421,0,0
-364,603,0,0,0,0,0,0,0,0,0,-1,860,421,0,0
-357,603,0,0,0,0,0,0,0,0,0,-1,867,421,0,0
-350,603,0,0,0,0,0,0,0,0,0,-1,874,421,0,0
-343,603,0,0,0,0,0,0,0,0,0,-1,881,421,0,0
-336,603,0,0,0,0,0,0,0,0,0,-1,888,421,0,0
-329,603,4.0014,-10.7005,0,0,0,0,0,0,0,-1,895,421,4.00139,10.7005
-322,603,5.97797,-13.3102,0,0,0,0,0,0,0,-1,902,421,5.97797,13.3102
-315,603,5.52008,-13.3285,-0.0421472,-0.0491,0.0466315,0.0011373,-0.0923844,0.748192,0.0619722,0.0415086,909,421,5.52009,13.3285
-308,603,5.12329,-13.4637,-0.0400163,-0.0442258,0.0416109,-0.000456937,-0.0837852,0.760129,0.0557051,0.0428608,916,421,5.1233,13.4637
-301,603,4.70502,-13.6409,-0.0358817,-0.0393247,0.0354437,-0.00211766,-0.0730887,0.761132,0.0480355,0.0487273,923,421,4.70499,13.6409
-294,603,3.95184,-13.8366,0,0,0,0,0,0,0,-1,930,421,3.95182,13.8366
-287,603,3.80811,-9.60947,0,0,0,0,0,0,0,-1,937,421,3.80809,9.60946
-280,603,3.49683,-14.7984,0,0,0,0,0,0,0,-1,944,421,3.49682,14.7984
-273,603,3.22681,-14.3176,0,0,0,0,0,0,0,-1,951,421,3.22678,14.3176
-266,603,2.28198,-13.7844,0,0,0,0,0,0,0,-1,958,421,2.28196,13.7844
-259,603,2.46759,-14.23,-0.0122361,-0.00597367,-0.00270826,-0.00496493,-0.0132448,-1.21425,0.00772631,0.046976,965,421,2.46761,14.23
-252,603,2.87256,-14.9634,-0.00913791,-0.000963367,-0.00619905,0.00237459,-0.0124759,-1.07685,0.00921137,0.0432339,972,421,2.87258,14.9634
-245,603,2.86969,-15.0863,-0.00714938,0.0024696,-0.0070049,0.00615716,-0.0108369,-1.08623,0.00993478,0.0324075,979,421,2.86969,15.0863
-238,603,2.84296,-15.2363,-0.00556314,0.00354144,-0.006262,0.00673099,-0.00875268,-1.0997,0.00896487,0.0220695,986,421,2.84298,15.2363
-231,603,2.81763,-15.526,-0.00477274,0.00407716,-0.00543492,0.00666067,-0.00735625,-1.12706,0.00809599,0.0133106,993,421,2.81761,15.526
-224,603,2.79968,-15.7899,-0.00374181,0.00418934,-0.00471948,0.00638812,-0.00594059,-1.1348,0.00711955,0.0128981,1000,421,2.79968,15.7899
-217,603,2.79089,-16.0212,-0.00247112,0.00392048,-0.00410718,0.00592872,-0.00447936,-1.11602,0.0060285,0.012139,1007,421,2.79087,16.0212
-210,603,2.79706,-16.2685,-0.0015777,0.0034899,-0.00337707,0.00517803,-0.00326583,-1.10724,0.00491656,0.010035,1014,421,2.79708,16.2685
-203,603,2.78418,-16.527,-0.00118019,0.00270883,-0.00263323,0.0040377,-0.00250906,-1.10343,0.00381397,0.016069,1021,421,2.78419,16.5271
-196,603,2.79602,-16.7888,-0.000611012,0.00212938,-0.00214822,0.00330718,-0.00178882,-1.06928,0.00298539,0.0172452,1028,421,2.79605,16.7888
-189,603,2.79675,-16.9654,0.000370135,0.00148211,-0.00177013,0.00278152,-0.000929273,-0.937567,0.00222962,0.0142103,1035,421,2.79675,16.9654
-182,603,2.76892,-17.1728,0.00114368,0.000894716,-0.00133102,0.00235603,-0.00031763,-0.738772,0.00168656,0.0104085,1042,421,2.76895,17.1728
-175,603,2.7356,-17.3665,0.00158689,-3.77638e-05,-0.000939534,0.00201658,-0.00046745,-0.428941,0.00152429,0.010809,1049,421,2.73556,17.3665
-168,603,2.71179,-17.5624,0.00193905,-0.000799066,-0.000583676,0.00205828,-0.000918294,-0.2015,0.00176004,0.0138939,1056,421,2.71176,17.5624
-161,603,2.69641,-17.8008,0.00233158,-0.00133894,-0.000363166,0.00236717,-0.00137453,-0.0976792,0.00218546,0.013234,1063,421,2.6964,17.8008
-154,603,2.69495,-18.0082,0.00276841,-0.00163842,-0.000155475,0.00277389,-0.0016439,-0.0352222,0.00257828,0.0121437,1070,421,2.69492,18.0082
-147,603,2.71423,-18.1531,0.00312916,-0.00177487,-1.8202e-05,0.00312923,-0.00177493,-0.00371157,0.00286718,0.0137846,1077,421,2.71427,18.1531
-140,603,2.74109,-18.3082,0.00350127,-0.00188042,-7.66844e-05,0.00350236,-0.00188152,-0.0142453,0.00315499,0.011562,1084,421,2.7411,18.3082
-133,603,2.71411,-18.487,0.00379405,-0.00171504,-0.000229005,0.00380355,-0.00172455,-0.0414732,0.00326602,0.0122865,1091,421,2.71407,18.487
-126,603,2.71436,-18.6476,0.00403004,-0.00148524,-0.000434296,0.00406403,-0.00151922,-0.0781027,0.00333324,0.0116178,1098,421,2.7144,18.6476
-119,603,2.74512,-18.8027,0.00427788,-0.00100014,-0.000804,0.00439764,-0.00111989,-0.147863,0.00336771,0.0111115,1105,421,2.74513,18.8027
-112,603,2.7323,-18.9597,0.0045301,-0.000447152,-0.00119121,0.0048005,-0.000717556,-0.223216,0.00346438,0.014892,1112,421,2.73228,18.9597
-105,603,2.72546,-19.1482,0.00480967,0.000217826,-0.0015906,0.00530683,-0.000279329,-0.302937,0.00363458,0.014769,1119,421,2.72542,19.1482
-98,603,2.73853,-19.271,0.00497572,0.000920064,-0.00204825,0.00583015,6.5631e-05,-0.395204,0.00386508,0.0116119,1126,421,2.7385,19.271
-91,603,2.75232,-19.3902,0.00472586,0.00136338,-0.00242711,0.00599715,9.20848e-05,-0.482496,0.00396776,0.00911698,1133,421,2.75229,19.3902
-84,603,2.8053,-19.5535,0.00430391,0.00164203,-0.00243712,0.00574983,0.000196111,-0.535472,0.00376955,0.00989987,1140,421,2.80533,19.5535
-77,603,2.83093,-19.7201,0.00441891,0.0016957,-0.00228314,0.00571564,0.000398978,-0.516524,0.00368464,0.0136751,1147,421,2.83099,19.7201
-70,603,2.91565,-20.0288,0.00494303,0.00143516,-0.00198455,0.00583763,0.000540565,-0.423503,0.00372466,0.0428758,1154,421,2.91566,20.0288
-63,603,2.86316,-19.922,0,0,0,0,0,0,0,-1,1161,421,2.86313,19.922
-56,603,2.87244,-20.0139,0,0,0,0,0,0,0,-1,1168,421,2.87241,20.014
-49,603,2.90588,-20.0983,0,0,0,0,0,0,0,-1,1175,421,2.90592,20.0983
-42,603,2.88745,-20.2323,0,0,0,0,0,0,0,-1,1182,421,2.88747,20.2323
-35,603,2.85925,-20.2608,0.00989331,-0.00757794,1.12296e-05,0.00989332,-0.00757795,0.000642744,0.0101165,0.041982,1189,421,2.85926,20.2608
-28,603,2.87842,-20.3241,0.00986291,-0.0100062,0.00101055,0.00991417,-0.0100575,0.0506859,0.0115307,0.0238829,1196,421,2.87843,20.3241
-21,603,2.93542,-20.3935,0.0106375,-0.0118035,0.00130231,0.0107128,-0.0118788,0.0577744,0.0130491,0.0191852,1203,421,2.9354,20.3935
-14,603,3.0127,-20.4541,0.0123596,-0.0127659,0.00148467,0.012447,-0.0128533,0.0588173,0.0146078,0.0199663,1210,421,3.01265,20.4541
-7,603,3.05481,-20.532,0.0139568,-0.0133061,0.00146915,0.0140358,-0.013385,0.0536809,0.0158329,0.0230946,1217,421,3.05485,20.532
0,603,3.07141,-20.6077,0.0153776,-0.0136879,0.00119023,0.0154263,-0.0137365,0.0408586,0.0168466,0.027058,1224,421,3.07145,20.6077
7,603,3.07947,-20.5658,0.0163842,-0.0131873,0.000842547,0.0164082,-0.0132113,0.028461,0.017134,0.0326121,1231,421,3.07949,20.5658
14,603,3.17834,-20.5238,0.0170435,-0.0120482,0.000522998,0.0170529,-0.0120576,0.0179698,0.0168892,0.0313086,1238,421,3.17831,20.5238
21,603,3.21985,-20.5869,0.0169751,-0.0106209,8.4502e-05,0.0169754,-0.0106212,0.00306207,0.016073,0.0240381,1245,421,3.21985,20.587
28,603,3.27185,-20.5967,0.0168285,-0.00887438,-0.0005,0.0168383,-0.0088841,-0.0194432,0.0150856,0.0255224,1252,421,3.27185,20.5967
35,603,3.28955,-20.5505,0.0187081,-0.00626271,0.0017632,0.018832,-0.00638659,0.0701465,0.0151394,0.0332144,1259,421,3.2895,20.5505
42,603,3.26489,-20.6631,0.0208728,-0.00210623,0.00414168,0.0215965,-0.00282993,0.172988,0.0154277,0.0311836,1266,421,3.26485,20.6631
49,603,3.33289,-20.7632,0.0216483,0.00104899,0.00615602,0.0233478,-0.000650507,0.269361,0.0157865,0.0172161,1273,421,3.33292,20.7632
56,603,3.34888,-20.6988,0.0224159,0.00414429,0.00815279,0.0255247,0.00103546,0.3643,0.016682,0.0313287,1280,421,3.34886,20.6988
63,603,3.37463,-20.5205,0.0230633,0.0074359,0.00950218,0.0275518,0.00294735,0.441301,0.0174685,0.0423225,1287,421,3.37458,20.5205
70,603,3.38806,-20.5043,0.0235384,0.0111205,0.0105695,0.0295877,0.00507119,0.51983,0.0182709,0.0481953,1294,421,3.38802,20.5043
77,603,3.36621,-20.5073,0,0,0,0,0,0,0,-1,1301,421,3.36625,20.5073
84,603,3.71497,-20.4846,0,0,0,0,0,0,0,-1,1308,421,3.71501,20.4846
91,603,4.11621,-20.389,0,0,0,0,0,0,0,-1,1315,421,4.11618,20.389
98,603,3.67517,-20.569,0.0170994,0.0191684,0.00583524,0.0240601,0.0122077,0.873127,0.0138916,0.0460413,1322,421,3.67523,20.569
105,603,3.75208,-20.4186,0.0146528,0.0199302,0.00258878,0.020988,0.0135949,1.18287,0.0122925,0.0413321,1329,421,3.75212,20.4186
112,603,3.69885,-20.3423,0.0123431,0.0197,-0.00130587,0.0199249,0.0121181,-1.40023,0.0115931,0.0327378,1336,421,3.69885,20.3423
119,603,3.70264,-20.3568,0.0096713,0.0191868,-0.00559826,0.0217759,0.00708217,-1.1376,0.0128258,0.0352125,1343,421,3.70267,20.3568
126,603,3.78333,-20.2737,0.00720894,0.0187761,-0.00940582,0.0240342,0.00195082,-1.06105,0.0154138,0.0434971,1350,421,3.7833,20.2738
133,603,3.83435,-20.1839,0.00430367,0.0176591,-0.0125021,0.0251551,-0.0031923,-1.03069,0.0179291,0.036586,1357,421,3.83437,20.1839
140,603,3.85388,-20.1115,0.000256583,0.0161853,-0.0167256,0.0267459,-0.0103041,-1.0076,0.0220818,0.023879,1364,421,3.85382,20.1115
147,603,3.79895,-20.0569,-0.00185731,0.0131745,-0.0183089,0.0254501,-0.0141329,-0.980164,0.0231625,0.0186832,1371,421,3.79893,20.0569
154,603,3.75684,-19.9952,-0.00084304,0.0121617,-0.0176393,0.0244589,-0.0131403,-0.961985,0.0220333,0.0256004,1378,421,3.75685,19.9952
161,603,3.79248,-19.8897,7.46791e-05,0.0106226,-0.0163284,0.0225077,-0.0118104,-0.941606,0.0201318,0.028652,1385,421,3.79243,19.8897
168,603,3.92883,-19.7707,0.00105894,0.00843612,-0.0143031,0.0195186,-0.0100235,-0.911592,0.0173473,0.0293118,1392,421,3.92882,19.7707
175,603,4.08105,-19.6758,0.00210199,0.00549074,-0.0123493,0.0162614,-0.00866863,-0.853575,0.0146142,0.0321664,1399,421,4.08109,19.6758
182,603,4.16565,-19.579,0.00311239,0.00256825,-0.0107279,0.0135717,-0.00789102,-0.77272,0.0125353,0.0386841,1406,421,4.16563,19.579
189,603,4.09534,-19.4207,0.0031236,0.000224036,-0.00845978,0.0102569,-0.00690929,-0.700536,0.00997354,0.0343023,1413,421,4.09539,19.4207
196,603,3.99878,-19.2459,0.00275365,-4.51138e-05,-0.00621456,0.00772443,-0.0050159,-0.674656,0.00741083,0.0259961,1420,421,3.9988,19.2459
203,603,3.99475,-19.1677,0.00217488,-0.00105907,-0.00346706,0.00438349,-0.00326768,-0.567202,0.00443304,0.0150173,1427,421,3.99473,19.1677
210,603,4.00781,-19.1033,0.00162637,-0.000842858,-0.00273986,0.00339693,-0.00261342,-0.573717,0.00347989,0.0111445,1434,421,4.0078,19.1033
217,603,4.01831,-18.9179,0.00101173,0.000622879,-0.00208377,0.00291013,-0.00127552,-0.73888,0.00247725,0.0128283,1441,421,4.01826,18.9179
224,603,4.04175,-18.7365,0.000689174,0.00134665,-0.00169621,0.00274568,-0.000709859,-0.881115,0.00210731,0.0169808,1448,421,4.04179,18.7365
231,603,4.05078,-18.5663,0.000512732,0.00194334,-0.001279,0.00269348,-0.000237402,-1.04036,0.00187979,0.0150233,1455,421,4.05081,18.5663
238,603,4.03906,-18.3925,0.000554063,0.0024076,-0.000860181,0.00274527,0.00021639,-1.19672,0.00176248,0.0112423,1462,421,4.03901,18.3925
245,603,4.06445,-18.2167,0.000650575,0.00276548,-0.000533068,0.00289225,0.000523812,-1.33733,0.00177945,0.0115584,1469,421,4.06451,18.2167
252,603,4.08606,-18.0176,0.000715318,0.00297869,-0.000222664,0.00300038,0.000693621,-1.47366,0.00181381,0.00989842,1476,421,4.08601,18.0176
259,603,4.08301,-17.8285,0.000787986,0.00299108,9.51801e-05,0.00299519,0.000783882,1.5277,0.00179354,0.00983131,1483,421,4.08299,17.8284
266,603,4.06543,-17.6378,0.000915034,0.00288613,0.00041137,0.00296854,0.000832626,1.37309,0.00176809,0.0119255,1490,421,4.06539,17.6379
273,603,4.07703,-17.4305,0.00102377,0.00275892,0.000693734,0.00300218,0.000780514,1.23354,0.00179864,0.0108076,1497,421,4.077,17.4305
280,603,4.0885,-17.21,0.00112588,0.00252497,0.000977773,0.00302768,0.000623178,1.09591,0.00184613,0.0119148,1504,421,4.08855,17.21
287,603,4.09265,-16.9841,0.00134169,0.00237565,0.00133031,0.0032859,0.00043144,0.970725,0.00206189,0.011708,1511,421,4.09267,16.9841
294,603,4.08618,-16.7719,0.00150536,0.00211486,0.00160261,0.00344144,0.000178781,0.879355,0.00223708,0.00966898,1518,421,4.08623,16.7719
301,603,4.08508,-16.5617,0.00157081,0.00176347,0.00184785,0.0035175,-0.000183218,0.81144,0.0024084,0.0108458,1525,421,4.08514,16.5617
308,603,4.08521,-16.3321,0.00165331,0.00156501,0.00212608,0.0037357,-0.000517381,0.775016,0.00267963,0.016372,1532,421,4.08521,16.3321
315,603,4.07288,-16.0897,0.00166406,0.00144899,0.00237514,0.0039341,-0.000821048,0.762777,0.00293495,0.0149295,1539,421,4.07286,16.0897
322,603,4.07397,-15.8172,0.00159926,0.00139236,0.00263762,0.00413546,-0.00114384,0.765798,0.00320698,0.0135607,1546,421,4.07403,15.8172
329,603,4.04529,-15.568,0.00144422,0.00141313,0.00289796,0.00432668,-0.00146933,0.782717,0.00347923,0.0101368,1553,421,4.04535,15.5679
336,603,4.02307,-15.3253,0.0011581,0.00160076,0.00308992,0.00447727,-0.00171841,0.821152,0.0036934,0.00916408,1560,421,4.0231,15.3253
343,603,4.03064,-15.0715,0.000824898,0.0018589,0.00322966,0.00461268,-0.00192888,0.864765,0.00388128,0.01121,1567,421,4.03058,15.0715
350,603,4.01343,-14.8181,0.000533478,0.00248153,0.00355875,0.00519714,-0.00218213,0.918976,0.00437735,0.0235548,1574,421,4.01341,14.8181
357,603,4.03271,-14.4576,0.000131943,0.00308048,0.00386168,0.00573974,-0.00252731,0.967744,0.00489163,0.033625,1581,421,4.03269,14.4576
364,603,4.01611,-14.1189,-0.000738545,0.0044257,0.00416934,0.00674774,-0.00306058,1.06265,0.00579468,0.0412303,1588,421,4.01608,14.1189
371,603,3.96277,-13.8438,0,0,0,0,0,0,0,-1,1595,421,3.96273,13.8438
378,603,3.8894,-13.7237,0,0,0,0,0,0,0,-1,1602,421,3.88944,13.7237
385,603,3.73486,-13.2669,0,0,0,0,0,0,0,-1,1609,421,3.73485,13.2669
392,603,3.74646,-12.9537,0,0,0,0,0,0,0,-1,1616,421,3.74652,12.9537
399,603,2.38013,-5.37076,0,0,0,0,0,0,0,-1,1623,421,2.38016,5.37075
406,603,3.01917,-2.37219,0,0,0,0,0,0,0,-1,1630,421,3.01915,2.37219
413,603,2.38928,-2.41275,0,0,0,0,0,0,0,-1,1637,421,2.38926,2.41274
420,603,2.74866,-2.30066,0,0,0,0,0,0,0,-1,1644,421,2.74867,2.30065
427,603,7.11548,-3.35352,0,0,0,0,0,0,0,-1,1651,421,7.11549,3.35351
434,603,7.32153,-4.50525,0,0,0,0,0,0,0,-1,1658,421,7.32149,4.50525
441,603,3.18213,-0.250946,0,0,0,0,0,0,0,-1,1665,421,3.18212,0.250944
448,603,2.95667,-0.066925,0,0,0,0,0,0,0,-1,1672,421,2.95662,0.0669226
455,603,0,0,0,0,0,0,0,0,0,-1,1679,421,0,0
462,603,0,0,0,0,0,0,0,0,0,-1,1686,421,0,0
469,603,0,0,0,0,0,0,0,0,0,-1,1693,421,0,0
476,603,0,0,0,0,0,0,0,0,0,-1,1700,421,0,0
483,603,0,0,0,0,0,0,0,0,0,-1,1707,421,0,0
490,603,0,0,0,0,0,0,0,0,0,-1,1714,421,0,0
497,603,0,0,0,0,0,0,0,0,0,-1,1721,421,0,0
504,603,0,0,0,0,0,0,0,0,0,-1,1728,421,0,0
511,603,0,0,0,0,0,0,0,0,0,-1,1735,421,0,0
518,603,0,0,0,0,0,0,0,0,0,-1,1742,421,0,0
525,603,0,0,0,0,0,0,0,0,0,-1,1749,421,0,0
532,603,0,0,0,0,0,0,0,0,0,-1,1756,421,0,0
539,603,0,0,0,0,0,0,0,0,0,-1,1763,421,0,0
546,603,0,0,0,0,0,0,0,0,0,-1,1770,421,0,0
553,603,0,0,0,0,0,0,0,0,0,-1,1777,421,0,0
560,603,0,0,0,0,0,0,0,0,0,-1,1784,421,0,0
567,603,0,0,0,0,0,0,0,0,0,-1,1791,421,0,0
574,603,0,0,0,0,0,0,0,0,0,-1,1798,421,0,0
581,603,0,0,0,0,0,0,0,0,0,-1,1805,421,0,0
588,603,0,0,0,0,0,0,0,0,0,-1,1812,421,0,0
595,603,0,0,0,0,0,0,0,0,0,-1,1819,421,0,0
602,603,0,0,0,0,0,0,0,0,0,-1,1826,421,0,0
609,603,0,0,0,0,0,0,0,0,0,-1,1833,421,0,0
616,603,0,0,0,0,0,0,0,0,0,-1,1840,421,0,0
623,603,0,0,0,0,0,0,0,0,0,-1,1847,421,0,0
630,603,0,0,0,0,0,0,0,0,0,-1,1854,421,0,0
637,603,0,0,0,0,0,0,0,0,0,-1,1861,421,0,0
644,603,0,0,0,0,0,0,0,0,0,-1,1868,421,0,0
651,603,0,0,0,0,0,0,0,0,0,-1,1875,421,0,0
658,603,0,0,0,0,0,0,0,0,0,-1,1882,421,0,0
665,603,0,0,0,0,0,0,0,0,0,-1,1889,421,0,0
672,603,0,0,0,0,0,0,0,0,0,-1,1896,421,0,0
679,603,0,0,0,0,0,0,0,0,0,-1,1903,421,0,0
686,603,0,0,0,0,0,0,0,0,0,-1,1910,421,0,0
693,603,0,0,0,0,0,0,0,0,0,-1,1917,421,0,0
700,603,0,0,0,0,0,0,0,0,0,-1,1924,421,0,0
707,603,0,0,0,0,0,0,0,0,0,-1,1931,421,0,0
714,603,0,0,0,0,0,0,0,0,0,-1,1938,421,0,0
721,603,0,0,0,0,0,0,0,0,0,-1,1945,421,0,0
728,603,0,0,0,0,0,0,0,0,0,-1,1952,421,0,0
735,603,0,0,0,0,0,0,0,0,0,-1,1959,421,0,0
742,603,0,0,0,0,0,0,0,0,0,-1,1966,421,0,0
749,603,0,0,0,0,0,0,0,0,0,-1,1973,421,0,0
756,603,0,0,0,0,0,0,0,0,0,-1,1980,421,0,0
763,603,0,0,0,0,0,0,0,0,0,-1,1987,421,0,0
770,603,0,0,0,0,0,0,0,0,0,-1,1994,421,0,0
777,603,0,0,0,0,0,0,0,0,0,-1,2001,421,0,0
784,603,0,0,0,0,0,0,0,0,0,-1,2008,421,0,0
791,603,0,0,0,0,0,0,0,0,0,-1,2015,421,0,0
798,603,0,0,0,0,0,0,0,0,0,-1,2022,421,0,0
805,603,0,0,0,0,0,0,0,0,0,-1,2029,421,0,0
812,603,0,0,0,0,0,0,0,0,0,-1,2036,421,0,0
-700,596,0,0,0,0,0,0,0,0,0,-1,524,428,0,0
-693,596,0,0,0,0,0,0,0,0,0,-1,531,428,0,0
-686,596,0,0,0,0,0,0,0,0,0,-1,538,428,0,0
-679,596,0,0,0,0,0,0,0,0,0,-1,545,428,0,0
-672,596,0,0,0,0,0,0,0,0,0,-1,552,428,0,0
-665,596,0,0,0,0,0,0,0,0,0,-1,559,428,0,0
-658,596,0,0,0,0,0,0,0,0,0,-1,566,428,0,0
-651,596,0,0,0,0,0,0,0,0,0,-1,573,428,0,0
-644,596,0,0,0,0,0,0,0,0,0,-1,580,428,0,0
-637,596,0,0,0,0,0,0,0,0,0,-1,587,428,0,0
-630,596,0,0,0,0,0,0,0,0,0,-1,594,428,0,0
-623,596,0,0,0,0,0,0,0,0,0,-1,601,428,0,0
-616,596,0,0,0,0,0,0,0,0,0,-1,608,428,0,0
-609,596,0,0,0,0,0,0,0,0,0,-1,615,428,0,0
-602,596,0,0,0,0,0,0,0,0,0,-1,622,428,0,0
-595,596,0,0,0,0,0,0,0,0,0,-1,629,428,0,0
-588,596,0,0,0,0,0,0,0,0,0,-1,636,428,0,0
-581,596,0,0,0,0,0,0,0,0,0,-1,643,428,0,0
-574,596,0,0,0,0,0,0,0,0,0,-1,650,428,0,0
-567,596,0,0,0,0,0,0,0,0,0,-1,657,428,0,0
-560,596,0,0,0,0,0,0,0,0,0,-1,664,428,0,0
-553,596,0,0,0,0,0,0,0,0,0,-1,671,428,0,0
-546,596,0,0,0,0,0,0,0,0,0,-1,678,428,0,0
-539,596,0,0,0,0,0,0,0,0,0,-1,685,428,0,0
-532,596,0,0,0,0,0,0,0,0,0,-1,692,428,0,0
-525,596,0,0,0,0,0,0,0,0,0,-1,699,428,0,0
-518,596,0,0,0,0,0,0,0,0,0,-1,706,428,0,0
-511,596,0,0,0,0,0,0,0,0,0,-1,713,428,0,0
-504,596,0,0,0,0,0,0,0,0,0,-1,720,428,0,0
-497,596,0,0,0,0,0,0,0,0,0,-1,727,428,0,0
-490,596,0,0,0,0,0,0,0,0,0,-1,734,428,0,0
-483,596,0,0,0,0,0,0,0,0,0,-1,741,428,0,0
-476,596,0,0,0,0,0,0,0,0,0,-1,748,428,0,0
-469,596,0,0,0,0,0,0,0,0,0,-1,755,428,0,0
-462,596,0,0,0,0,0,0,0,0,0,-1,762,428,0,0
-455,596,0,0,0,0,0,0,0,0,0,-1,769,428,0,0
-448,596,0,0,0,0,0,0,0,0,0,-1,776,428,0,0
-441,596,0,0,0,0,0,0,0,0,0,-1,783,428,0,0
-434,596,0,0,0,0,0,0,0,0,0,-1,790,428,0,0
-427,596,0,0,0,0,0,0,0,0,0,-1,797,428,0,0
-420,596,0,0,0,0,0,0,0,0,0,-1,804,428,0,0
-413,596,0,0,0,0,0,0,0,0,0,-1,811,428,0,0
-406,596,0,0,0,0,0,0,0,0,0,-1,818,428,0,0
-399,596,0,0,0,0,0,0,0,0,0,-1,825,428,0,0
-392,596,0,0,0,0,0,0,0,0,0,-1,832,428,0,0
-385,596,0,0,0,0,0,0,0,0,0,-1,839,428,0,0
-378,596,0,0,0,0,0,0,0,0,0,-1,846,428,0,0
-371,596,0,0,0,0,0,0,0,0,0,-1,853,428,0,0
-364,596,0,0,0,0,0,0,0,0,0,-1,860,428,0,0
-357,596,0,0,0,0,0,0,0,0,0,-1,867,428,0,0
-350,596,0,0,0,0,0,0,0,0,0,-1,874,428,0,0
-343,596,0,0,0,0,0,0,0,0,0,-1,881,428,0,0
-336,596,-2.27789,-15.8111,0,0,0,0,0,0,0,-1,888,428,-2.27789,15.8111
-329,596,2.21649,-11.3338,0,0,0,0,0,0,0,-1,895,428,2.21646,11.3338
-322,596,4.72357,-12.8769,0,0,0,0,0,0,0,-1,902,428,4.72354,12.8769
-315,596,4.24371,-12.9269,-0.0298793,-0.0407485,0.0317207,-0.00313105,-0.0674967,0.700559,0.0439913,0.0475301,909,428,4.2437,12.9269
-308,596,3.92523,-12.9246,-0.0283557,-0.0362102,0.0281026,-0.00390727,-0.0606587,0.715975,0.0392016,0.0467599,916,428,3.9252,12.9246
-301,596,3.75153,-12.8993,-0.025438,-0.03162,0.0236856,-0.00464254,-0.0524155,0.720515,0.0335035,0.0431038,923,428,3.75153,12.8993
-294,596,3.08466,-13.3378,-0.022717,-0.026478,0.0183628,-0.00613865,-0.0430563,0.734372,0.0268925,0.0423728,930,428,3.08465,13.3378
-287,596,2.4552,-13.9368,0,0,0,0,0,0,0,-1,937,428,2.4552,13.9368
-280,596,2.76556,-13.7773,0,0,0,0,0,0,0,-1,944,428,2.76559,13.7773
-273,596,2.73224,-14.0653,-0.0133749,-0.0120346,0.00384079,-0.00880594,-0.0166036,0.871767,0.00959196,0.044511,951,428,2.73226,14.0653
-266,596,2.28009,-14.2277,-0.0109226,-0.0076545,0.000989725,-0.00737814,-0.011199,1.2985,0.00657356,0.0379074,958,428,2.28008,14.2277
-259,596,2.40717,-14.4354,-0.00823647,-0.00406593,-0.00259721,-0.00282046,-0.00948194,-1.12365,0.00562213,0.0309069,965,428,2.40716,14.4354
-252,596,2.5979,-14.7745,-0.00604584,-0.000403847,-0.00494694,0.00246991,-0.00891959,-1.04453,0.00691826,0.0160495,972,428,2.59791,14.7745
-245,596,2.61353,-15.0489,-0.00467897,0.00203722,-0.0054665,0.00509469,-0.00773644,-1.06083,0.00746021,0.0125976,979,428,2.61351,15.0489
-238,596,2.60992,-15.3085,-0.00372349,0.00292868,-0.00497481,0.00558688,-0.00638169,-1.08006,0.00691513,0.0122141,986,428,2.60995,15.3085
-231,596,2.58325,-15.5673,-0.00324727,0.00322112,-0.00428477,0.00535529,-0.00538143,-1.10868,0.00619885,0.0133795,993,428,2.58326,15.5673
-224,596,2.56018,-15.817,-0.00260801,0.00321359,-0.00367772,0.00499303,-0.00438745,-1.12016,0.00541958,0.0141633,1000,428,2.56015,15.8169
-217,596,2.55695,-16.0473,-0.00173207,0.00294453,-0.0031514,0.00453037,-0.00331792,-1.10458,0.0045492,0.014604,1007,428,2.55696,16.0473
-210,596,2.58124,-16.2982,-0.00113317,0.00249389,-0.00251288,0.0037793,-0.00241859,-1.09797,0.00360699,0.0120454,1014,428,2.58121,16.2981
-203,596,2.56586,-16.526,-0.000864801,0.00176403,-0.00182491,0.00269861,-0.00179938,-1.0975,0.00261416,0.0149802,1021,428,2.56583,16.526
-196,596,2.57239,-16.7595,-0.00024873,0.00130731,-0.00135621,0.00209281,-0.00103423,-1.04582,0.00183956,0.0148639,1028,428,2.5724,16.7595
-189,596,2.56384,-16.9669,0.000802704,0.000805167,-0.00104209,0.00184602,-0.00023815,-0.785989,0.00131726,0.0117716,1035,428,2.56387,16.9669
-182,596,2.54895,-17.1693,0.00170643,0.000410205,-0.000702931,0.00201443,0.000102199,-0.412976,0.00131022,0.011201,1042,428,2.54891,17.1693
-175,596,2.53979,-17.3637,0.00242842,-0.000260498,-0.000368596,0.00247803,-0.00031011,-0.133792,0.0017645,0.0133542,1049,428,2.53975,17.3637
-168,596,2.52893,-17.5713,0.00310657,-0.000843179,-0.000119422,0.00311018,-0.000846786,-0.0301987,0.00240591,0.0163947,1056,428,2.5289,17.5713
-161,596,2.51697,-17.7986,0.00381555,-0.00121385,-3.9657e-05,0.00381586,-0.00121417,-0.00788439,0.00303081,0.0153165,1063,428,2.51701,17.7987
-154,596,2.51624,-18.0107,0.00456527,-0.0013958,2.59073e-05,0.00456538,-0.00139591,0.00434597,0.00360026,0.0126795,1070,428,2.51629,18.0107
-147,596,2.55237,-18.1549,0.00523219,-0.00144801,3.07831e-05,0.00523233,-0.00144815,0.00460798,0.004058,0.0130563,1077,428,2.55243,18.1549
-140,596,2.56702,-18.3032,0.0058437,-0.00156973,-0.00015822,0.00584707,-0.00157311,-0.0213294,0.00451472,0.012969,1084,428,2.56702,18.3032
-133,596,2.53516,-18.4932,0.00630282,-0.0014859,-0.000434645,0.006327,-0.00151008,-0.0555744,0.00480118,0.0143709,1091,428,2.53521,18.4932
-126,596,2.55359,-18.6503,0.00664483,-0.00140637,-0.000751065,0.0067143,-0.00147583,-0.0922258,0.00504068,0.0115685,1098,428,2.55358,18.6503
-119,596,2.57227,-18.8283,0.00695323,-0.0011328,-0.00121893,0.00713298,-0.00131256,-0.146412,0.00524784,0.0138464,1105,428,2.5723,18.8283
-112,596,2.54895,-18.9941,0.00719924,-0.000817837,-0.00168882,0.00754048,-0.00115907,-0.199369,0.00545455,0.0155558,1112,428,2.54895,18.9941
-105,596,2.55896,-19.1613,0.00743623,-0.000303283,-0.00215975,0.00799813,-0.000865176,-0.254524,0.00564263,0.016071,1119,428,2.55897,19.1613
-98,596,2.59644,-19.2709,0.00751027,0.000351883,-0.00272565,0.00842994,-0.00056779,-0.325419,0.00581847,0.0103226,1126,428,2.59649,19.2709
-91,596,2.64087,-19.4238,0.00683213,0.000676413,-0.00320263,0.00819613,-0.000687581,-0.402631,0.0057071,0.0127808,1133,428,2.64092,19.4238
-84,596,2.75488,-19.7413,0.00581728,0.000912516,-0.00312926,0.00734062,-0.000610833,-0.453039,0.00510955,0.035333,1140,428,2.75486,19.7413
-77,596,2.854,-20.092,0,0,0,0,0,0,0,-1,1147,428,2.85406,20.092
-70,596,2.82104,-20.3803,0,0,0,0,0,0,0,-1,1154,428,2.82105,20.3804
-63,596,1.95569,-12.2758,0,0,0,0,0,0,0,-1,1161,428,1.95563,12.2759
-56,596,1.60107,-10.5827,0,0,0,0,0,0,0,-1,1168,428,1.60108,10.5827
-49,596,1.59473,-10.0393,0,0,0,0,0,0,0,-1,1175,428,1.59472,10.0393
-42,596,1.99585,-6.6246,0,0,0,0,0,0,0,-1,1182,428,1.99586,6.62459
-35,596,2.55176,-20.1201,0,0,0,0,0,0,0,-1,1189,428,2.55176,20.1201
-28,596,2.70508,-20.2249,0,0,0,0,0,0,0,-1,1196,428,2.70508,20.2249
-21,596,2.73584,-20.2437,0.014963,-0.0146542,0.00100439,0.014997,-0.0146882,0.0338605,0.0171391,0.0453842,1203,428,2.73585,20.2437
-14,596,2.86938,-20.3221,0.0166042,-0.0155539,0.00128953,0.0166558,-0.0156055,0.0400141,0.0186294,0.0459134,1210,428,2.86944,20.3221
-7,596,2.94763,-20.377,0,0,0,0,0,0,0,-1,1217,428,2.94763,20.377
0,596,3.00159,-20.5688,0,0,0,0,0,0,0,-1,1224,428,3.00157,20.5688
7,596,3.49231,-20.2071,0.0211999,-0.0153146,0.000883229,0.0212213,-0.0153359,0.0241696,0.0211973,0.0441971,1231,428,3.49229,20.2071
14,596,2.69775,-20.0433,0.0221068,-0.0135979,0.000520298,0.0221144,-0.0136055,0.0145681,0.020817,0.0462992,1238,428,2.69778,20.0433
21,596,2.896,-20.0851,0.0220965,-0.011482,-1.94465e-05,0.0220966,-0.011482,-0.000579133,0.0197068,0.0457104,1245,428,2.89596,20.0851
28,596,2.87854,-20.0927,0.0218351,-0.00899604,-0.000730245,0.0218523,-0.00901332,-0.0236677,0.018327,0.0451544,1252,428,2.87849,20.0928
35,596,2.95874,-20.0655,0.0239993,-0.00561248,0.00203,0.0241378,-0.00575099,0.0681291,0.0183124,0.047649,1259,428,2.95872,20.0655
42,596,3.32129,-20.6208,0.026504,-9.97516e-05,0.00501262,0.0274172,-0.00101288,0.180189,0.0186249,0.0466505,1266,428,3.32126,20.6208
49,596,3.41187,-20.7834,0.027304,0.00390568,0.0075838,0.029547,0.00166266,0.287566,0.0191679,0.0444244,1273,428,3.41188,20.7834
56,596,3.51379,-20.6835,0.0281317,0.00793986,0.0101149,0.032327,0.00374457,0.393169,0.0204179,0.0430176,1280,428,3.51379,20.6835
63,596,3.49292,-20.5518,0.0284715,0.012264,0.0116342,0.0345461,0.00618943,0.481198,0.0212699,0.0452752,1287,428,3.49296,20.5518
70,596,3.38147,-20.2684,0.028405,0.0170793,0.0127944,0.0367337,0.00875053,0.577054,0.022156,0.0465357,1294,428,3.38144,20.2684
77,596,3.38379,-20.3138,0,0,0,0,0,0,0,-1,1301,428,3.38373,20.3139
84,596,4.08069,-20.2718,0,0,0,0,0,0,0,-1,1308,428,4.08068,20.2718
91,596,4.17114,-20.4843,0.0219562,0.0260676,0.0102196,0.0344362,0.0135876,0.884649,0.0200285,0.0398561,1315,428,4.17116,20.4844
98,596,4.14575,-20.4381,0.0186327,0.0275873,0.00668913,0.0311593,0.0150608,1.08032,0.0179931,0.0456989,1322,428,4.14572,20.4381
105,596,4.20605,-19.6653,0.0153091,0.0288408,0.00269944,0.0293594,0.0147905,1.38098,0.0169508,0.0444281,1329,428,4.20602,19.6653
112,596,4.16089,-19.8768,0.0121566,0.0289109,-0.00210658,0.0291717,0.0118958,-1.44762,0.0169375,0.0418891,1336,428,4.16087,19.8768
119,596,4.16882,-20.0677,0,0,0,0,0,0,0,-1,1343,428,4.16877,20.0678
126,596,4.00488,-20.0298,0,0,0,0,0,0,0,-1,1350,428,4.00489,20.0298
133,596,3.84106,-19.9918,0,0,0,0,0,0,0,-1,1357,428,3.84101,19.9918
140,596,3.95459,-19.7126,-0.00247163,0.0255918,-0.020858,0.0366986,-0.0135785,-1.08149,0.0300331,0.0454044,1364,428,3.95458,19.7126
147,596,3.90564,-19.673,-0.00433942,0.0221935,-0.0226835,0.0352052,-0.0173511,-1.05,0.0309215,0.0425408,1371,428,3.90558,19.673
154,596,3.82031,-19.5571,-0.00288748,0.021252,-0.0221923,0.0344445,-0.0160799,-1.03446,0.0298057,0.0438125,1378,428,3.82032,19.5571
161,596,3.96143,-19.5826,-0.00162018,0.0193935,-0.0209812,0.0323516,-0.0145783,-1.01753,0.0277351,0.0456878,1385,428,3.96147,19.5826
168,596,4.10071,-19.6119,0,0,0,0,0,0,0,-1,1392,428,4.10071,19.6119
175,596,4.33606,-19.4716,0,0,0,0,0,0,0,-1,1399,428,4.33603,19.4716
182,596,4.43408,-19.4738,0,0,0,0,0,0,0,-1,1406,428,4.43405,19.4738
189,596,4.30713,-19.3489,0,0,0,0,0,0,0,-1,1413,428,4.30719,19.3489
196,596,4.20398,-19.0639,0,0,0,0,0,0,0,-1,1420,428,4.20394,19.0639
203,596,4.11084,-19.1597,0,0,0,0,0,0,0,-1,1427,428,4.11086,19.1597
210,596,4.10986,-19.1302,0,0,0,0,0,0,0,-1,1434,428,4.10981,19.1302
217,596,4.13696,-18.9832,0.000846451,0.000277943,-0.00322753,0.00380222,-0.00267783,-0.741476,0.00375999,0.0351776,1441,428,4.13697,18.9833
224,596,4.17004,-18.7873,0.000488408,0.00118947,-0.00275647,0.00361761,-0.00193973,-0.848642,0.00325691,0.014895,1448,428,4.17008,18.7873
231,596,4.21484,-18.5684,0.000323731,0.00193813,-0.00226408,0.0035346,-0.00127274,-0.956636,0.0028761,0.0120617,1455,428,4.21482,18.5684
238,596,4.21851,-18.3744,0.000446098,0.00245783,-0.00178639,0.00350207,-0.000598152,-1.04181,0.00255752,0.0142101,1462,428,4.21852,18.3744
245,596,4.24451,-18.1869,0.000636663,0.00282372,-0.00139388,0.00350183,-4.14449e-05,-1.11801,0.00234849,0.0131345,1469,428,4.24453,18.1869
252,596,4.28467,-18.0079,0.000768035,0.0029366,-0.0010275,0.00334611,0.000358523,-1.19154,0.00212135,0.0103104,1476,428,4.28469,18.0079
259,596,4.2876,-17.817,0.000818876,0.00292558,-0.000645446,0.0031076,0.000636854,-1.29592,0.00189546,0.00882922,1483,428,4.28763,17.817
266,596,4.26099,-17.624,0.000927784,0.00274583,-0.000321218,0.00280091,0.000872699,-1.40096,0.00165494,0.0102952,1490,428,4.26095,17.624
273,596,4.27197,-17.4267,0.00102649,0.00252751,-4.85527e-05,0.00252908,0.00102493,-1.53849,0.00146888,0.0121257,1497,428,4.27196,17.4267
280,596,4.30078,-17.2269,0.00107898,0.00217109,0.00021986,0.00221369,0.00103639,1.37941,0.00127894,0.0127521,1504,428,4.30079,17.2269
287,596,4.30432,-17.0117,0.00125648,0.00204621,0.000547166,0.00232611,0.000976575,1.09795,0.00134872,0.0117767,1511,428,4.30438,17.0117
294,596,4.29053,-16.7825,0.00134006,0.00178427,0.000775456,0.0023688,0.000755529,0.924874,0.0013972,0.00851613,1518,428,4.29048,16.7825
301,596,4.29932,-16.5515,0.00129829,0.0013833,0.000963517,0.00230525,0.000376338,0.807441,0.00142801,0.00946599,1525,428,4.29932,16.5514
308,596,4.31189,-16.3204,0.00129988,0.00115353,0.0011708,0.00239979,5.36249e-05,0.754189,0.00158229,0.0165579,1532,428,4.31194,16.3204
315,596,4.28284,-16.056,0.00129366,0.00106635,0.00137846,0.00256314,-0.000203133,0.744266,0.00178034,0.0169384,1539,428,4.28286,16.056
322,596,4.29688,-15.7988,0.00121788,0.00105451,0.0016149,0.00275316,-0.000480765,0.760129,0.0020149,0.0130034,1546,428,4.29683,15.7988
329,596,4.27258,-15.5635,0.00108678,0.00112218,0.00187721,0.00298177,-0.000772813,0.790113,0.00228935,0.00952712,1553,428,4.27261,15.5635
336,596,4.24255,-15.3352,0.000868182,0.00132263,0.00210807,0.00321568,-0.00102488,0.839084,0.00255488,0.00861503,1560,428,4.24258,15.3352
343,596,4.25745,-15.0802,0.000594848,0.00158542,0.00230212,0.00344493,-0.00126466,0.891355,0.00281453,0.010914,1567,428,4.25741,15.0802
350,596,4.25732,-14.8018,0.000353903,0.00213063,0.00264515,0.00403261,-0.00154808,0.947403,0.00332675,0.0112754,1574,428,4.25738,14.8018
357,596,4.24854,-14.5335,3.65374e-05,0.00266946,0.00296774,0.00459962,-0.00189362,0.994154,0.00385586,0.00937234,1581,428,4.24856,14.5335
364,596,4.245,-14.2411,-0.000571079,0.0036557,0.00324143,0.00541184,-0.00232722,1.07429,0.00458493,0.0115257,1588,428,4.24496,14.2411
371,596,4.2428,-13.9774,-0.00104698,0.00443821,0.00330602,0.00599115,-0.00259991,1.13166,0.00508723,0.0150575,1595,428,4.24279,13.9774
378,596,4.20007,-13.7416,-0.00148749,0.0051691,0.00328616,0.00651803,-0.00283642,1.18128,0.00553846,0.0197143,1602,428,4.20013,13.7416
385,596,4.14307,-13.3665,-0.00237295,0.00569491,0.00303667,0.00671013,-0.00338818,1.24816,0.00593448,0.0287762,1609,428,4.14311,13.3665
392,596,4.10303,-13.0077,-0.00321822,0.00664176,0.00262044,0.00729492,-0.00387138,1.32652,0.00654709,0.0378518,1616,428,4.10297,13.0076
399,596,4.0144,-12.7921,0,0,0,0,0,0,0,-1,1623,428,4.01441,12.7921
406,596,3.60034,-10.1525,0,0,0,0,0,0,0,-1,1630,428,3.60028,10.1525
413,596,3.39124,-2.63528,0,0,0,0,0,0,0,-1,1637,428,3.39122,2.6353
420,596,2.6344,-3.06308,0,0,0,0,0,0,0,-1,1644,428,2.63439,3.06308
427,596,2.99329,-1.90512,0,0,0,0,0,0,0,-1,1651,428,2.99327,1.90512
434,596,3.80896,-0.253998,0,0,0,0,0,0,0,-1,1658,428,3.80902,0.254004
441,596,3.86401,-0.131622,0,0,0,0,0,0,0,-1,1665,428,3.86406,0.131613
448,596,1.0769,0.0083313,0,0,0,0,0,0,0,-1,1672,428,1.07684,-0.00832231
455,596,2.00769,-1.43329,0,0,0,0,0,0,0,-1,1679,428,2.00765,1.4333
462,596,0,0,0,0,0,0,0,0,0,-1,1686,428,0,0
469,596,0,0,0,0,0,0,0,0,0,-1,1693,428,0,0
476,596,0,0,0,0,0,0,0,0,0,-1,1700,428,0,0
483,596,0,0,0,0,0,0,0,0,0,-1,1707,428,0,0
490,596,0,0,0,0,0,0,0,0,0,-1,1714,428,0,0
497,596,0,0,0,0,0,0,0,0,0,-1,1721,428,0,0
504,596,0,0,0,0,0,0,0,0,0,-1,1728,428,0,0
511,596,0,0,0,0,0,0,0,0,0,-1,1735,428,0,0
518,596,0,0,0,0,0,0,0,0,0,-1,1742,428,0,0
525,596,0,0,0,0,0,0,0,0,0,-1,1749,428,0,0
532,596,0,0,0,0,0,0,0,0,0,-1,1756,428,0,0
539,596,0,0,0,0,0,0,0,0,0,-1,1763,428,0,0
546,596,0,0,0,0,0,0,0,0,0,-1,1770,428,0,0
553,596,0,0,0,0,0,0,0,0,0,-1,1777,428,0,0
560,596,0,0,0,0,0,0,0,0,0,-1,1784,428,0,0
567,596,0,0,0,0,0,0,0,0,0,-1,1791,428,0,0
574,596,0,0,0,0,0,0,0,0,0,-1,1798,428,0,0
581,596,0,0,0,0,0,0,0,0,0,-1,1805,428,0,0
588,596,0,0,0,0,0,0,0,0,0,-1,1812,428,0,0
595,596,0,0,0,0,0,0,0,0,0,-1,1819,428,0,0
602,596,0,0,0,0,0,0,0,0,0,-1,1826,428,0,0
609,596,0,0,0,0,0,0,0,0,0,-1,1833,428,0,0
616,596,0,0,0,0,0,0,0,0,0,-1,1840,428,0,0
623,596,0,0,0,0,0,0,0,0,0,-1,1847,428,0,0
630,596,0,0,0,0,0,0,0,0,0,-1,1854,428,0,0
637,596,0,0,0,0,0,0,0,0,0,-1,1861,428,0,0
644,596,0,0,0,0,0,0,0,0,0,-1,1868,428,0,0
651,596,0,0,0,0,0,0,0,0,0,-1,1875,428,0,0
658,596,0,0,0,0,0,0,0,0,0,-1,1882,428,0,0
665,596,0,0,0,0,0,0,0,0,0,-1,1889,428,0,0
672,596,0,0,0,0,0,0,0,0,0,-1,1896,428,0,0
679,596,0,0,0,0,0,0,0,0,0,-1,1903,428,0,0
686,596,0,0,0,0,0,0,0,0,0,-1,1910,428,0,0
693,596,0,0,0,0,0,0,0,0,0,-1,1917,428,0,0
700,596,0,0,0,0,0,0,0,0,0,-1,1924,428,0,0
707,596,0,0,0,0,0,0,0,0,0,-1,1931,428,0,0
714,596,0,0,0,0,0,0,0,0,0,-1,1938,428,0,0
721,596,0,0,0,0,0,0,0,0,0,-1,1945,428,0,0
728,596,0,0,0,0,0,0,0,0,0,-1,1952,428,0,0
735,596,0,0,0,0,0,0,0,0,0,-1,1959,428,0,0
742,596,0,0,0,0,0,0,0,0,0,-1,1966,428,0,0
749,596,0,0,0,0,0,0,0,0,0,-1,1973,428,0,0
756,596,0,0,0,0,0,0,0,0,0,-1,1980,428,0,0
763,596,0,0,0,0,0,0,0,0,0,-1,1987,428,0,0
770,596,0,0,0,0,0,0,0,0,0,-1,1994,428,0,0
777,596,0,0,0,0,0,0,0,0,0,-1,2001,428,0,0
784,596,0,0,0,0,0,0,0,0,0,-1,2008,428,0,0
791,596,0,0,0,0,0,0,0,0,0,-1,2015,428,0,0
798,596,0,0,0,0,0,0,0,0,0,-1,2022,428,0,0
805,596,0,0,0,0,0,0,0,0,0,-1,2029,428,0,0
812,596,0,0,0,0,0,0,0,0,0,-1,2036,428,0,0
-700,589,0,0,0,0,0,0,0,0,0,-1,524,435,0,0
-693,589,0,0,0,0,0,0,0,0,0,-1,531,435,0,0
-686,589,0,0,0,0,0,0,0,0,0,-1,538,435,0,0
-679,589,0,0,0,0,0,0,0,0,0,-1,545,435,0,0
-672,589,0,0,0,0,0,0,0,0,0,-1,552,435,0,0
-665,589,0,0,0,0,0,0,0,0,0,-1,559,435,0,0
-658,589,0,0,0,0,0,0,0,0,0,-1,566,435,0,0
-651,589,0,0,0,0,0,0,0,0,0,-1,573,435,0,0
-644,589,0,0,0,0,0,0,0,0,0,-1,580,435,0,0
-637,589,0,0,0,0,0,0,0,0,0,-1,587,435,0,0
-630,589,0,0,0,0,0,0,0,0,0,-1,594,435,0,0
-623,589,0,0,0,0,0,0,0,0,0,-1,601,435,0,0
-616,589,0,0,0,0,0,0,0,0,0,-1,608,435,0,0
-609,589,0,0,0,0,0,0,0,0,0,-1,615,435,0,0
-602,589,0,0,0,0,0,0,0,0,0,-1,622,435,0,0
-595,589,0,0,0,0,0,0,0,0,0,-1,629,435,0,0
-588,589,0,0,0,0,0,0,0,0,0,-1,636,435,0,0
-581,589,0,0,0,0,0,0,0,0,0,-1,643,435,0,0
-574,589,0,0,0,0,0,0,0,0,0,-1,650,435,0,0
-567,589,0,0,0,0,0,0,0,0,0,-1,657,435,0,0
-560,589,0,0,0,0,0,0,0,0,0,-1,664,435,0,0
-553,589,0,0,0,0,0,0,0,0,0,-1,671,435,0,0
-546,589,0,0,0,0,0,0,0,0,0,-1,678,435,0,0
-539,589,0,0,0,0,0,0,0,0,0,-1,685,435,0,0
-532,589,0,0,0,0,0,0,0,0,0,-1,692,435,0,0
-525,589,0,0,0,0,0,0,0,0,0,-1,699,435,0,0
-518,589,0,0,0,0,0,0,0,0,0,-1,706,435,0,0
-511,589,0,0,0,0,0,0,0,0,0,-1,713,435,0,0
-504,589,0,0,0,0,0,0,0,0,0,-1,720,435,0,0
-497,589,0,0,0,0,0,0,0,0,0,-1,727,435,0,0
-490,589,0,0,0,0,0,0,0,0,0,-1,734,435,0,0
-483,589,0,0,0,0,0,0,0,0,0,-1,741,435,0,0
-476,589,0,0,0,0,0,0,0,0,0,-1,748,435,0,0
-469,589,0,0,0,0,0,0,0,0,0,-1,755,435,0,0
-462,589,0,0,0,0,0,0,0,0,0,-1,762,435,0,0
-455,589,0,0,0,0,0,0,0,0,0,-1,769,435,0,0
-448,589,0,0,0,0,0,0,0,0,0,-1,776,435,0,0
-441,589,0,0,0,0,0,0,0,0,0,-1,783,435,0,0
-434,589,0,0,0,0,0,0,0,0,0,-1,790,435,0,0
-427,589,0,0,0,0,0,0,0,0,0,-1,797,435,0,0
-420,589,0,0,0,0,0,0,0,0,0,-1,804,435,0,0
-413,589,0,0,0,0,0,0,0,0,0,-1,811,435,0,0
-406,589,0,0,0,0,0,0,0,0,0,-1,818,435,0,0
-399,589,0,0,0,0,0,0,0,0,0,-1,825,435,0,0
-392,589,0,0,0,0,0,0,0,0,0,-1,832,435,0,0
-385,589,0,0,0,0,0,0,0,0,0,-1,839,435,0,0
-378,589,0,0,0,0,0,0,0,0,0,-1,846,435,0,0
-371,589,0,0,0,0,0,0,0,0,0,-1,853,435,0,0
-364,589,0,0,0,0,0,0,0,0,0,-1,860,435,0,0
-357,589,0,0,0,0,0,0,0,0,0,-1,867,435,0,0
-350,589,-5.74323,-18.0391,0,0,0,0,0,0,0,-1,874,435,-5.74325,18.0391
-343,589,-4.7887,-16.4395,0,0,0,0,0,0,0,-1,881,435,-4.78868,16.4395
-336,589,-3.74249,-14.758,0,0,0,0,0,0,0,-1,888,435,-3.74249,14.758
-329,589,-3.14648,-14.0188,0,0,0,0,0,0,0,-1,895,435,-3.14648,14.0188
-322,589,2.21777,-12.7306,0,0,0,0,0,0,0,-1,902,435,2.21778,12.7306
-315,589,1.90826,-12.5872,0,0,0,0,0,0,0,-1,909,435,1.90824,12.5872
-308,589,2.53833,-12.4453,0,0,0,0,0,0,0,-1,916,435,2.53834,12.4453
-301,589,2.49658,-12.4535,0,0,0,0,0,0,0,-1,923,435,2.4966,12.4535
-294,589,2.39984,-12.9405,-0.0154811,-0.0203532,0.0110508,-0.00660097,-0.0292333,0.676913,0.0177036,0.0461315,930,435,2.39982,12.9405
-287,589,2.36108,-13.442,-0.0135506,-0.0165175,0.00753449,-0.00735495,-0.0227132,0.688197,0.0133821,0.040158,937,435,2.36109,13.442
-280,589,2.44348,-13.7204,-0.0112829,-0.012445,0.00436385,-0.00746159,-0.0162663,0.719209,0.00940204,0.0306448,944,435,2.44347,13.7204
-273,589,2.45782,-14.0022,-0.00896794,-0.00873896,0.00162225,-0.00722717,-0.0104797,0.820627,0.00619383,0.0190666,951,435,2.45783,14.0022
-266,589,2.42169,-14.2456,-0.00729938,-0.00534106,-4.26132e-06,-0.00534105,-0.00729939,-1.56862,0.00436254,0.0164666,958,435,2.42171,14.2456
-259,589,2.36902,-14.5019,-0.00538799,-0.00267093,-0.00237032,-0.00129743,-0.0067615,-1.04562,0.00414346,0.0130324,965,435,2.36902,14.5019
-252,589,2.38672,-14.8076,-0.00388125,-0.000120801,-0.00385528,0.00228831,-0.00629036,-1.01228,0.0051294,0.0088281,972,435,2.38675,14.8077
-245,589,2.40057,-15.0739,-0.0029428,0.00146777,-0.00410846,0.00392539,-0.00540042,-1.03171,0.00540666,0.00986256,979,435,2.4006,15.0739
-238,589,2.38129,-15.3285,-0.00223235,0.00195354,-0.0036231,0.00404476,-0.00432357,-1.04732,0.00483235,0.0141607,986,435,2.38128,15.3285
-231,589,2.36572,-15.5608,-0.00191449,0.0019436,-0.00296195,0.00354928,-0.00352018,-1.07403,0.00408157,0.015286,993,435,2.36575,15.5608
-224,589,2.34015,-15.8156,-0.0015003,0.00174223,-0.00235859,0.00298303,-0.00274111,-1.0865,0.00330582,0.0142437,1000,435,2.34017,15.8157
-217,589,2.33807,-16.0704,-0.000909129,0.0014193,-0.00183704,0.00242997,-0.0019198,-1.06783,0.00251709,0.0148068,1007,435,2.33808,16.0704
-210,589,2.3443,-16.3168,-0.000538616,0.000929604,-0.0012411,0.00163745,-0.00124646,-1.05247,0.00167012,0.0143894,1014,435,2.34428,16.3168
-203,589,2.3374,-16.5244,-0.000357063,0.000263508,-0.000587331,0.000617478,-0.000711033,-1.02841,0.00076765,0.0107065,1021,435,2.33741,16.5244
-196,589,2.33142,-16.7349,0.000384764,-1.34424e-05,-0.000144646,0.000431759,-6.04376e-05,-0.314141,0.000309956,0.0128835,1028,435,2.33147,16.7349
-189,589,2.32043,-16.9822,0.00161517,-0.000280982,6.54436e-05,0.00161742,-0.000283238,0.0344593,0.00118404,0.0167069,1035,435,2.32047,16.9822
-182,589,2.33997,-17.1594,0.0027054,-0.000448293,0.000268914,0.00272817,-0.000471059,0.0844571,0.00199443,0.0122567,1042,435,2.33998,17.1594
-175,589,2.33691,-17.3453,0.00376101,-0.000837694,0.000492844,0.00381323,-0.000889919,0.105573,0.00288492,0.0154496,1049,435,2.33697,17.3453
-168,589,2.3396,-17.5622,0.0048511,-0.00123119,0.000588286,0.00490747,-0.00128756,0.0955413,0.00377476,0.0134249,1056,435,2.33955,17.5622
-161,589,2.33337,-17.7829,0.00598052,-0.00143472,0.000482035,0.00601172,-0.00146593,0.0646434,0.00457542,0.0122665,1063,435,2.33336,17.7829
-154,589,2.33472,-17.9719,0.00716486,-0.00150738,0.000362722,0.00718001,-0.00152253,0.0417285,0.00536666,0.0121165,1070,435,2.33469,17.9719
-147,589,2.36755,-18.1498,0.00826224,-0.0015023,0.000192849,0.00826604,-0.00150611,0.0197397,0.00607528,0.0126713,1077,435,2.3676,18.1499
-140,589,2.3811,-18.3124,0.00921513,-0.00167841,-0.000141159,0.00921696,-0.00168024,-0.0129551,0.00677453,0.0136881,1084,435,2.3811,18.3125
-133,589,2.3739,-18.4759,0.0099139,-0.00171299,-0.000570993,0.00994187,-0.00174096,-0.0489527,0.00727798,0.0135585,1091,435,2.3739,18.4759
-126,589,2.39392,-18.6516,0.010421,-0.00181403,-0.00102383,0.0105061,-0.00189911,-0.0829116,0.00771541,0.0110013,1098,435,2.39397,18.6516
-119,589,2.39526,-18.8282,0.0107993,-0.00178544,-0.00163465,0.0110082,-0.0019943,-0.127082,0.00808596,0.0165745,1105,435,2.39521,18.8282
-112,589,2.38403,-18.9849,0.0109671,-0.00164328,-0.0022625,0.0113607,-0.00203692,-0.172261,0.00833615,0.0176502,1112,435,2.38409,18.9849
-105,589,2.38611,-19.1464,0.0110702,-0.0012037,-0.00289418,0.0117184,-0.00185191,-0.220334,0.00849714,0.0180792,1119,435,2.3861,19.1464
-98,589,2.46533,-19.279,0.0109519,-0.000400586,-0.00365373,0.0120262,-0.00147486,-0.285963,0.00855156,0.0186582,1126,435,2.46533,19.279
-91,589,2.63794,-19.3954,0.00958189,-4.77378e-07,-0.00438895,0.0112883,-0.00170686,-0.370806,0.00815423,0.0375013,1133,435,2.63798,19.3954
-84,589,2.82251,-19.7636,0,0,0,0,0,0,0,-1,1140,435,2.82254,19.7636
-77,589,2.18152,-14.8023,0,0,0,0,0,0,0,-1,1147,435,2.18155,14.8023
-70,589,1.48267,-9.90961,0,0,0,0,0,0,0,-1,1154,435,1.48264,9.9096
-63,589,0.880127,-5.50586,0,0,0,0,0,0,0,-1,1161,435,0.880186,5.50587
-56,589,-2.78052,-7.28082,0,0,0,0,0,0,0,-1,1168,435,-2.78053,7.28082
-49,589,-0.525757,-2.76703,0,0,0,0,0,0,0,-1,1175,435,-0.525771,2.76702
-42,589,-2.7738,-2.87921,0,0,0,0,0,0,0,-1,1182,435,-2.77383,2.87922
-35,589,-2.55225,-3.27551,0,0,0,0,0,0,0,-1,1189,435,-2.55223,3.27552
-28,589,-0.0632324,-3.42938,0,0,0,0,0,0,0,-1,1196,435,-0.063241,3.42938
-21,589,2.54578,-20.08,0,0,0,0,0,0,0,-1,1203,435,2.54573,20.08
-14,589,2.71838,-20.2016,0,0,0,0,0,0,0,-1,1210,435,2.71842,20.2016
-7,589,2.61682,-19.7269,0.0226867,-0.0184534,0.00123563,0.0227237,-0.0184904,0.0299986,0.0238368,0.0490713,1217,435,2.61684,19.7269
0,589,2.84119,-19.8519,0,0,0,0,0,0,0,-1,1224,435,2.8412,19.8519
7,589,2.23694,-19.6959,0,0,0,0,0,0,0,-1,1231,435,2.23691,19.6959
14,589,2.33325,-19.6908,0.0276116,-0.014691,0.00049108,0.0276173,-0.0146967,0.0116067,0.0248067,0.0451954,1238,435,2.3332,19.6908
21,589,2.47693,-19.68,0.027761,-0.0116576,-0.000127005,0.0277614,-0.011658,-0.00322191,0.0233832,0.0437345,1245,435,2.47697,19.68
28,589,2.94922,-19.7791,0.0273819,-0.00824756,-0.000943116,0.0274069,-0.00827251,-0.0264454,0.0215643,0.0455079,1252,435,2.94917,19.779
35,589,3.62866,-19.8328,0.0297132,-0.00402693,0.00222715,0.0298596,-0.0041733,0.0656293,0.0214334,0.0467623,1259,435,3.62861,19.8328
42,589,4.22009,-19.8571,0.0324001,0.0029785,0.00575326,0.0334851,0.00189349,0.186402,0.0217198,0.0483585,1266,435,4.22012,19.8571
49,589,4.59692,-19.8553,0,0,0,0,0,0,0,-1,1273,435,4.59696,19.8553
56,589,3.60193,-20.9043,0.0338498,0.0128532,0.0118825,0.0392073,0.00749568,0.423584,0.0240325,0.0454284,1280,435,3.60188,20.9043
63,589,3.46106,-20.8326,0.0337906,0.0181773,0.0135421,0.0416151,0.0103528,0.523928,0.025017,0.0463556,1287,435,3.46104,20.8326
70,589,3.28748,-20.1347,0.0331086,0.0240915,0.0147396,0.0440138,0.0131863,0.636977,0.0260829,0.0466453,1294,435,3.28751,20.1347
77,589,3.27917,-20.1606,0,0,0,0,0,0,0,-1,1301,435,3.27919,20.1605
84,589,4.63379,-20.7242,0.0284675,0.032833,0.0137072,0.0445301,0.0167704,0.864357,0.0259691,0.0396154,1308,435,4.63373,20.7242
91,589,4.71985,-20.8045,0.0242325,0.0350674,0.0114385,0.0423065,0.0169934,1.00656,0.0245826,0.0417722,1315,435,4.7198,20.8045
98,589,4.71838,-20.6544,0.0200106,0.0370865,0.00712015,0.0396658,0.0174313,1.22325,0.022957,0.04579,1322,435,4.71836,20.6544
105,589,4.48511,-19.338,0,0,0,0,0,0,0,-1,1329,435,4.48509,19.338
112,589,4.6344,-19.7068,0,0,0,0,0,0,0,-1,1336,435,4.63434,19.7068
119,589,4.05847,-19.6355,0,0,0,0,0,0,0,-1,1343,435,4.0585,19.6355
126,589,3.60938,-20.3456,0.00308713,0.0391213,-0.0159517,0.0451681,-0.00295969,-1.20846,0.0311456,0.047179,1350,435,3.60937,20.3456
133,589,3.16394,-21.1179,-0.001115,0.0380724,-0.0208917,0.0471209,-0.0101635,-1.16207,0.035293,0.0462112,1357,435,3.16389,21.1178
140,589,3.86548,-19.3542,0,0,0,0,0,0,0,-1,1364,435,3.86553,19.3542
147,589,4.17065,-19.404,0,0,0,0,0,0,0,-1,1371,435,4.17071,19.404
154,589,2.97144,-24.5163,0,0,0,0,0,0,0,-1,1378,435,2.97146,24.5163
161,589,4.63953,-19.2197,0,0,0,0,0,0,0,-1,1385,435,4.63958,19.2197
168,589,5.3949,-19.3768,0,0,0,0,0,0,0,-1,1392,435,5.39493,19.3768
175,589,8.66992,-7.65527,0,0,0,0,0,0,0,-1,1399,435,8.66994,7.65528
182,589,3.8136,-2.45389,0,0,0,0,0,0,0,-1,1406,435,3.81363,2.4539
189,589,3.69983,-3.68149,0,0,0,0,0,0,0,-1,1413,435,3.69987,3.68147
196,589,3.31055,-5.31677,0,0,0,0,0,0,0,-1,1420,435,3.31059,5.31678
203,589,2.72559,-8.84338,0,0,0,0,0,0,0,-1,1427,435,2.72558,8.84338
210,589,3.62378,-14.4032,0,0,0,0,0,0,0,-1,1434,435,3.62378,14.4032
217,589,4.29919,-19.095,0,0,0,0,0,0,0,-1,1441,435,4.29925,19.095
224,589,4.40234,-18.8736,0.000185405,0.0015269,-0.00399522,0.00490729,-0.00319498,-0.868566,0.00471254,0.0375057,1448,435,4.40237,18.8736
231,589,4.42908,-18.629,0.000129039,0.00246013,-0.0033802,0.00487009,-0.00228092,-0.951422,0.00421788,0.0210687,1455,435,4.42903,18.629
238,589,4.40332,-18.4121,0.000351259,0.00302588,-0.00281755,0.00480738,-0.00143024,-1.00697,0.00377313,0.0230219,1462,435,4.40328,18.4121
245,589,4.41943,-18.1465,0.000643198,0.00335162,-0.00233749,0.00469885,-0.000704029,-1.04794,0.00339169,0.0201643,1469,435,4.41946,18.1465
252,589,4.47754,-17.9887,0.000851854,0.00325712,-0.00188799,0.00429298,-0.000183999,-1.06899,0.00292525,0.0133068,1476,435,4.4775,17.9887
259,589,4.49316,-17.822,0.000898106,0.00312057,-0.00142091,0.00381317,0.000205505,-1.11725,0.00247646,0.0097687,1483,435,4.49312,17.822
266,589,4.49268,-17.6143,0.00100515,0.00278115,-0.00107119,0.00328455,0.000501746,-1.13148,0.00204309,0.00957039,1490,435,4.49266,17.6143
273,589,4.49902,-17.4309,0.00110536,0.00240844,-0.000786371,0.00277811,0.000735685,-1.13135,0.00166204,0.0116807,1497,435,4.49901,17.4309
280,589,4.52197,-17.2415,0.00112476,0.001848,-0.000518866,0.00211882,0.000853927,-1.08973,0.00123095,0.0125194,1504,435,4.52201,17.2416
287,589,4.52246,-17.0298,0.00128055,0.00170152,-0.000196345,0.00177888,0.00120319,-1.19547,0.00104812,0.0109583,1511,435,4.52248,17.0298
294,589,4.51025,-16.7786,0.00131181,0.00138861,3.90572e-06,0.00138881,0.00131161,1.52012,0.000901243,0.0093393,1518,435,4.51026,16.7786
301,589,4.52515,-16.5376,0.00119383,0.000910417,0.000149222,0.00125791,0.000846338,0.405609,0.000740575,0.0103758,1525,435,4.52514,16.5376
308,589,4.53394,-16.3073,0.0011194,0.000619994,0.000287863,0.00125077,0.000488624,0.428135,0.000727864,0.0109169,1532,435,4.53399,16.3073
315,589,4.52527,-16.0642,0.00106595,0.00052341,0.000438481,0.00131029,0.000279072,0.508384,0.000796962,0.0106088,1539,435,4.52532,16.0642
322,589,4.54126,-15.8307,0.000961625,0.00054018,0.000635784,0.0014207,8.1108e-05,0.625377,0.000921287,0.0109699,1546,435,4.54121,15.8307
329,589,4.53003,-15.5889,0.000846634,0.00065394,0.000885194,0.00164071,-0.000140135,0.73119,0.00114338,0.00961986,1553,435,4.53009,15.5889
336,589,4.51978,-15.3444,0.000689673,0.000874698,0.0011402,0.00192613,-0.00036176,0.825878,0.00142012,0.00893719,1560,435,4.5198,15.3444
343,589,4.51526,-15.0805,0.000457137,0.00115295,0.00136658,0.00221521,-0.000605122,0.910042,0.00171449,0.0104435,1567,435,4.51528,15.0805
350,589,4.49927,-14.8016,0.000260809,0.0016583,0.00171762,0.00281387,-0.000894758,0.97858,0.0022347,0.0164312,1574,435,4.49927,14.8016
357,589,4.49719,-14.5439,2.34728e-05,0.00218417,0.002063,0.00343259,-0.00122494,1.0266,0.0027879,0.0135339,1581,435,4.49725,14.5439
364,589,4.51001,-14.2636,-0.00038949,0.00297261,0.00234765,0.00417901,-0.00159589,1.09611,0.00344353,0.0108327,1588,435,4.51005,14.2636
371,589,4.51062,-13.9785,-0.000740505,0.00363265,0.00250035,0.00476765,-0.0018755,1.14467,0.00395473,0.0108563,1595,435,4.51057,13.9785
378,589,4.49768,-13.698,-0.00112624,0.00424345,0.00256253,0.00527007,-0.00215286,1.18975,0.00440979,0.0128376,1602,435,4.49769,13.698
385,589,4.48755,-13.4082,-0.00179837,0.00463544,0.00238149,0.00542103,-0.00258396,1.25216,0.00471745,0.0155477,1609,435,4.48758,13.4082
392,589,4.44714,-13.0645,-0.00235187,0.00518741,0.00210121,0.00573347,-0.00289793,1.31654,0.00507219,0.017706,1616,435,4.44718,13.0646
399,589,4.42859,-12.6692,-0.00233941,0.00555709,0.00217683,0.00611741,-0.00289974,1.31886,0.00531539,0.0287827,1623,435,4.42865,12.6692
406,589,4.42834,-12.3619,0,0,0,0,0,0,0,-1,1630,435,4.42829,12.3619
413,589,4.17334,-12.163,0,0,0,0,0,0,0,-1,1637,435,4.17335,12.163
420,589,2.79724,-5.79956,0,0,0,0,0,0,0,-1,1644,435,2.7973,5.79955
427,589,2.87976,-5.28177,0,0,0,0,0,0,0,-1,1651,435,2.87972,5.28177
434,589,2.52734,-2.73029,0,0,0,0,0,0,0,-1,1658,435,2.52736,2.73029
441,589,3.17639,-2.02435,0,0,0,0,0,0,0,-1,1665,435,3.17643,2.02435
448,589,0.453735,-3.2868,0,0,0,0,0,0,0,-1,1672,435,0.453701,3.28681
455,589,0.664307,-3.46848,0,0,0,0,0,0,0,-1,1679,435,0.66425,3.46846
462,589,3.46716,-4.41891,0,0,0,0,0,0,0,-1,1686,435,3.4672,4.41891
469,589,0.0238037,-3.81497,0,0,0,0,0,0,0,-1,1693,435,0.0237965,3.81498
476,589,0,0,0,0,0,0,0,0,0,-1,1700,435,0,0
483,589,0,0,0,0,0,0,0,0,0,-1,1707,435,0,0
490,589,0,0,0,0,0,0,0,0,0,-1,1714,435,0,0
497,589,0,0,0,0,0,0,0,0,0,-1,1721,435,0,0
504,589,0,0,0,0,0,0,0,0,0,-1,1728,435,0,0
511,589,0,0,0,0,0,0,0,0,0,-1,1735,435,0,0
518,589,0,0,0,0,0,0,0,0,0,-1,1742,435,0,0
525,589,0,0,0,0,0,0,0,0,0,-1,1749,435,0,0
532,589,0,0,0,0,0,0,0,0,0,-1,1756,435,0,0
539,589,0,0,0,0,0,0,0,0,0,-1,1763,435,0,0
546,589,0,0,0,0,0,0,0,0,0,-1,1770,435,0,0
553,589,0,0,0,0,0,0,0,0,0,-1,1777,435,0,0
560,589,0,0,0,0,0,0,0,0,0,-1,1784,435,0,0
567,589,0,0,0,0,0,0,0,0,0,-1,1791,435,0,0
574,589,0,0,0,0,0,0,0,0,0,-1,1798,435,0,0
581,589,0,0,0,0,0,0,0,0,0,-1,1805,435,0,0
588,589,0,0,0,0,0,0,0,0,0,-1,1812,435,0,0
595,589,0,0,0,0,0,0,0,0,0,-1,1819,435,0,0
602,589,0,0,0,0,0,0,0,0,0,-1,1826,435,0,0
609,589,0,0,0,0,0,0,0,0,0,-1,1833,435,0,0
616,589,0,0,0,0,0,0,0,0,0,-1,1840,435,0,0
623,589,0,0,0,0,0,0,0,0,0,-1,1847,435,0,0
630,589,0,0,0,0,0,0,0,0,0,-1,1854,435,0,0
637,589,0,0,0,0,0,0,0,0,0,-1,1861,435,0,0
644,589,0,0,0,0,0,0,0,0,0,-1,1868,435,0,0
651,589,0,0,0,0,0,0,0,0,0,-1,1875,435,0,0
658,589,0,0,0,0,0,0,0,0,0,-1,1882,435,0,0
665,589,0,0,0,0,0,0,0,0,0,-1,1889,435,0,0
672,589,0,0,0,0,0,0,0,0,0,-1,1896,435,0,0
679,589,0,0,0,0,0,0,0,0,0,-1,1903,435,0,0
686,589,0,0,0,0,0,0,0,0,0,-1,1910,435,0,0
693,589,0,0,0,0,0,0,0,0,0,-1,1917,435,0,0
700,589,0,0,0,0,0,0,0,0,0,-1,1924,435,0,0
707,589,0,0,0,0,0,0,0,0,0,-1,1931,435,0,0
714,589,0,0,0,0,0,0,0,0,0,-1,1938,435,0,0
721,589,0,0,0,0,0,0,0,0,0,-1,1945,435,0,0
728,589,0,0,0,0,0,0,0,0,0,-1,1952,435,0,0
735,589,0,0,0,0,0,0,0,0,0,-1,1959,435,0,0
742,589,0,0,0,0,0,0,0,0,0,-1,1966,435,0,0
749,589,0,0,0,0,0,0,0,0,0,-1,1973,435,0,0
756,589,0,0,0,0,0,0,0,0,0,-1,1980,435,0,0
763,589,0,0,0,0,0,0,0,0,0,-1,1987,435,0,0
770,589,0,0,0,0,0,0,0,0,0,-1,1994,435,0,0
777,589,0,0,0,0,0,0,0,0,0,-1,2001,435,0,0
784,589,0,0,0,0,0,0,0,0,0,-1,2008,435,0,0
791,589,0,0,0,0,0,0,0,0,0,-1,2015,435,0,0
798,589,0,0,0,0,0,0,0,0,0,-1,2022,435,0,0
805,589,0,0,0,0,0,0,0,0,0,-1,2029,435,0,0
812,589,0,0,0,0,0,0,0,0,0,-1,2036,435,0,0
-700,582,0,0,0,0,0,0,0,0,0,-1,524,442,0,0
-693,582,0,0,0,0,0,0,0,0,0,-1,531,442,0,0
-686,582,0,0,0,0,0,0,0,0,0,-1,538,442,0,0
-679,582,0,0,0,0,0,0,0,0,0,-1,545,442,0,0
-672,582,0,0,0,0,0,0,0,0,0,-1,552,442,0,0
-665,582,0,0,0,0,0,0,0,0,0,-1,559,442,0,0
-658,582,0,0,0,0,0,0,0,0,0,-1,566,442,0,0
-651,582,0,0,0,0,0,0,0,0,0,-1,573,442,0,0
-644,582,0,0,0,0,0,0,0,0,0,-1,580,442,0,0
-637,582,0,0,0,0,0,0,0,0,0,-1,587,442,0,0
-630,582,0,0,0,0,0,0,0,0,0,-1,594,442,0,0
-623,582,0,0,0,0,0,0,0,0,0,-1,601,442,0,0
-616,582,0,0,0,0,0,0,0,0,0,-1,608,442,0,0
-609,582,0,0,0,0,0,0,0,0,0,-1,615,442,0,0
-602,582,0,0,0,0,0,0,0,0,0,-1,622,442,0,0
-595,582,0,0,0,0,0,0,0,0,0,-1,629,442,0,0
-588,582,0,0,0,0,0,0,0,0,0,-1,636,442,0,0
-581,582,0,0,0,0,0,0,0,0,0,-1,643,442,0,0
-574,582,0,0,0,0,0,0,0,0,0,-1,650,442,0,0
-567,582,0,0,0,0,0,0,0,0,0,-1,657,442,0,0
-560,582,0,0,0,0,0,0,0,0,0,-1,664,442,0,0
-553,582,0,0,0,0,0,0,0,0,0,-1,671,442,0,0
-546,582,0,0,0,0,0,0,0,0,0,-1,678,442,0,0
-539,582,0,0,0,0,0,0,0,0,0,-1,685,442,0,0
-532,582,0,0,0,0,0,0,0,0,0,-1,692,442,0,0
-525,582,0,0,0,0,0,0,0,0,0,-1,699,442,0,0
-518,582,0,0,0,0,0,0,0,0,0,-1,706,442,0,0
-511,582,0,0,0,0,0,0,0,0,0,-1,713,442,0,0
-504,582,0,0,0,0,0,0,0,0,0,-1,720,442,0,0
-497,582,0,0,0,0,0,0,0,0,0,-1,727,442,0,0
-490,582,0,0,0,0,0,0,0,0,0,-1,734,442,0,0
-483,582,0,0,0,0,0,0,0,0,0,-1,741,442,0,0
-476,582,0,0,0,0,0,0,0,0,0,-1,748,442,0,0
-469,582,0,0,0,0,0,0,0,0,0,-1,755,442,0,0
-462,582,0,0,0,0,0,0,0,0,0,-1,762,442,0,0
-455,582,0,0,0,0,0,0,0,0,0,-1,769,442,0,0
-448,582,0,0,0,0,0,0,0,0,0,-1,776,442,0,0
-441,582,0,0,0,0,0,0,0,0,0,-1,783,442,0,0
-434,582,0,0,0,0,0,0,0,0,0,-1,790,442,0,0
-427,582,0,0,0,0,0,0,0,0,0,-1,797,442,0,0
-420,582,0,0,0,0,0,0,0,0,0,-1,804,442,0,0
-413,582,0,0,0,0,0,0,0,0,0,-1,811,442,0,0
-406,582,0,0,0,0,0,0,0,0,0,-1,818,442,0,0
-399,582,0,0,0,0,0,0,0,0,0,-1,825,442,0,0
-392,582,0,0,0,0,0,0,0,0,0,-1,832,442,0,0
-385,582,0,0,0,0,0,0,0,0,0,-1,839,442,0,0
-378,582,0,0,0,0,0,0,0,0,0,-1,846,442,0,0
-371,582,0,0,0,0,0,0,0,0,0,-1,853,442,0,0
-364,582,0,0,0,0,0,0,0,0,0,-1,860,442,0,0
-357,582,6.4043,-4.18127,0,0,0,0,0,0,0,-1,867,442,6.40427,4.18126
-350,582,-1.12933,-15.713,0,0,0,0,0,0,0,-1,874,442,-1.12935,15.713
-343,582,-6.46735,-15.7183,0,0,0,0,0,0,0,-1,881,442,-6.46737,15.7183
-336,582,-6.42596,-13.6619,0,0,0,0,0,0,0,-1,888,442,-6.42598,13.6619
-329,582,1.31854,-12.2396,0,0,0,0,0,0,0,-1,895,442,1.31853,12.2396
-322,582,1.44263,-12.4627,-0.0136391,-0.0283869,0.0118,-0.00709848,-0.0349275,0.506133,0.0213165,0.048324,902,442,1.44261,12.4627
-315,582,1.51141,-12.6701,-0.0135684,-0.025524,0.0108685,-0.00714226,-0.0319501,0.533972,0.0193635,0.0470816,909,442,1.5114,12.6701
-308,582,1.9212,-12.2772,0,0,0,0,0,0,0,-1,916,442,1.92122,12.2772
-301,582,2.16321,-12.7085,-0.0113884,-0.0186916,0.00764377,-0.00656877,-0.0235112,0.562564,0.0140077,0.0478848,923,442,2.16323,12.7085
-294,582,2.20801,-13.0812,-0.0101319,-0.0151849,0.00565994,-0.00646012,-0.0188566,0.575477,0.0110652,0.0455402,930,442,2.20801,13.0812
-287,582,2.16223,-13.3918,-0.0089018,-0.012109,0.00364784,-0.00652065,-0.0144902,0.57831,0.00837983,0.0341943,937,442,2.16225,13.3918
-280,582,2.21924,-13.6697,-0.00738549,-0.00898651,0.00176766,-0.00624553,-0.0101265,0.572781,0.00589941,0.0157743,944,442,2.21923,13.6697
-273,582,2.18878,-13.9358,-0.00582301,-0.00623354,0.000148455,-0.00577496,-0.0062816,0.313079,0.00402948,0.0102674,951,442,2.18877,13.9358
-266,582,2.16895,-14.2459,-0.00473737,-0.0036981,-0.000578255,-0.0034403,-0.00499517,-1.15143,0.00295165,0.00963133,958,442,2.16893,14.2459
-259,582,2.15021,-14.5327,-0.00343326,-0.00184693,-0.00200216,-0.000486547,-0.00479364,-0.973992,0.00304656,0.00793412,965,442,2.15023,14.5327
-252,582,2.14594,-14.8062,-0.00244627,-0.000221755,-0.00282239,0.00169963,-0.00436765,-0.973096,0.00361408,0.0075565,972,442,2.14591,14.8062
-245,582,2.1593,-15.0631,-0.00182175,0.000652508,-0.00284993,0.00252224,-0.00369148,-0.990171,0.0036086,0.0110553,979,442,2.15932,15.0632
-238,582,2.14606,-15.2863,-0.0012863,0.000740756,-0.00234817,0.00228479,-0.00283034,-0.989133,0.00295881,0.0152588,986,442,2.14606,15.2863
-231,582,2.13916,-15.5342,-0.00106036,0.000418622,-0.00170038,0.00153335,-0.0021751,-0.990511,0.00215173,0.0123136,993,442,2.13915,15.5343
-224,582,2.12628,-15.8056,-0.000795807,1.26558e-05,-0.00108696,0.00076812,-0.00155127,-0.963419,0.00136431,0.00929164,1000,442,2.12627,15.8056
-217,582,2.10309,-16.0656,-0.000369632,-0.000456335,-0.000531494,0.000120276,-0.000946242,-0.744705,0.000674504,0.010901,1007,442,2.10309,16.0656
-210,582,2.09991,-16.2953,-0.000116526,-0.00102812,5.51561e-05,-0.000113201,-0.00103145,0.060212,0.000653177,0.0120952,1014,442,2.09994,16.2953
-203,582,2.11646,-16.52,8.35599e-05,-0.00170485,0.000701872,0.000326117,-0.00194741,0.332736,0.00141952,0.0100659,1021,442,2.11648,16.52
-196,582,2.1084,-16.7618,0.00109178,-0.00187482,0.00116969,0.00149749,-0.00228053,0.333868,0.0021968,0.0147405,1028,442,2.10839,16.7618
-189,582,2.10388,-16.9826,0.00267171,-0.00193249,0.00131009,0.00301838,-0.00227916,0.258689,0.00306845,0.0215254,1035,442,2.10387,16.9826
-182,582,2.13306,-17.181,0.00410565,-0.00189841,0.001422,0.00442541,-0.00221816,0.221185,0.0039056,0.0146266,1042,442,2.13309,17.181
-175,582,2.13574,-17.3477,0.00567529,-0.00203198,0.0015613,0.00597956,-0.00233625,0.192469,0.00495235,0.0127956,1049,442,2.13571,17.3477
-168,582,2.13696,-17.5591,0.00738254,-0.00222652,0.00150455,0.00761261,-0.00245658,0.15174,0.00606218,0.0108428,1056,442,2.13698,17.5591
-161,582,2.14197,-17.7666,0.00914429,-0.00221957,0.00119991,0.0092696,-0.00234488,0.104061,0.00709178,0.0119586,1063,442,2.14199,17.7666
-154,582,2.14575,-17.9455,0.0109684,-0.00211112,0.000871765,0.0110262,-0.00216897,0.0662607,0.00817033,0.0122718,1070,442,2.14575,17.9455
-147,582,2.16772,-18.1287,0.0127005,-0.00194102,0.000477591,0.0127161,-0.00195658,0.0325728,0.00919919,0.0126845,1077,442,2.16774,18.1287
-140,582,2.18335,-18.2936,0.014174,-0.00203863,-7.46085e-05,0.0141744,-0.00203897,-0.00460174,0.0101974,0.0136303,1084,442,2.18332,18.2936
-133,582,2.20947,-18.463,0.0152594,-0.00206351,-0.000735374,0.0152905,-0.00209467,-0.0423495,0.0109589,0.015303,1091,442,2.20946,18.463
-126,582,2.23547,-18.5995,0.0160332,-0.00222414,-0.00141211,0.0161417,-0.00233271,-0.0767367,0.0116171,0.0133769,1098,442,2.23552,18.5995
-119,582,2.24585,-18.7297,0.0164647,-0.00236137,-0.0022535,0.0167307,-0.00262736,-0.11749,0.0121248,0.0162679,1105,442,2.24586,18.7297
-112,582,2.21289,-18.9165,0.0165094,-0.00230885,-0.00312615,0.0170151,-0.00281459,-0.160386,0.0123886,0.0229891,1112,442,2.21288,18.9165
-105,582,2.16882,-19.1868,0.0164282,-0.00189806,-0.0040123,0.0172682,-0.002738,-0.206362,0.0125249,0.033321,1119,442,2.16881,19.1868
-98,582,2.19409,-19.4071,0.0160337,-0.000886638,-0.0050855,0.0174445,-0.00229748,-0.270618,0.0124663,0.0374628,1126,442,2.19407,19.4071
-91,582,2.27173,-19.5714,0,0,0,0,0,0,0,-1,1133,442,2.27174,19.5714
-84,582,2.10278,-16.7533,0,0,0,0,0,0,0,-1,1140,442,2.10279,16.7533
-77,582,2.30212,-11.4907,0,0,0,0,0,0,0,-1,1147,442,2.30207,11.4907
-70,582,1.49255,-6.36548,0,0,0,0,0,0,0,-1,1154,442,1.49251,6.36549
-63,582,-4.62915,-4.0347,0,0,0,0,0,0,0,-1,1161,442,-4.6292,4.03471
-56,582,-5.81714,-5.24149,0,0,0,0,0,0,0,-1,1168,442,-5.81718,5.24149
-49,582,-3.88672,-10.1064,0,0,0,0,0,0,0,-1,1175,442,-3.88678,10.1064
-42,582,-0.948975,1.13968,0,0,0,0,0,0,0,-1,1182,442,-0.949003,-1.13969
-35,582,-2.58435,-3.86911,0,0,0,0,0,0,0,-1,1189,442,-2.58437,3.86912
-28,582,-0.825317,-3.45941,0,0,0,0,0,0,0,-1,1196,442,-0.825377,3.45942
-21,582,2.047,-19.1308,0,0,0,0,0,0,0,-1,1203,442,2.04698,19.1308
-14,582,2.21655,-19.3659,0.0260284,-0.0206063,-6.73076e-05,0.0260285,-0.0206064,-0.00144329,0.0269853,0.0460278,1210,442,2.2165,19.3659
-7,582,2.36719,-19.5894,0.0270534,-0.0208578,0.000766963,0.0270657,-0.0208701,0.0160025,0.0277527,0.0489272,1217,442,2.36715,19.5895
0,582,1.58398,-19.406,0,0,0,0,0,0,0,-1,1224,442,1.58396,19.406
7,582,1.74646,-19.453,0.0315392,-0.0187065,0.000777375,0.0315512,-0.0187185,0.0154666,0.0293368,0.0455563,1231,442,1.74645,19.453
14,582,2.02893,-19.4833,0.0333192,-0.0152231,0.000442716,0.0333232,-0.0152272,0.0091192,0.0286723,0.0434107,1238,442,2.02887,19.4833
21,582,2.20752,-19.5101,0.033759,-0.0110109,-0.000207618,0.0337599,-0.0110119,-0.00463731,0.0269382,0.0430306,1245,442,2.20748,19.5101
28,582,2.19189,-19.7007,0.0332789,-0.00649916,-0.00108835,0.0333086,-0.00652892,-0.0273334,0.0246717,0.0468059,1252,442,2.19188,19.7008
35,582,3.44434,-19.8296,0.0355893,-0.00141366,0.00231285,0.0357333,-0.00155766,0.0621818,0.024358,0.0471427,1259,442,3.44438,19.8296
42,582,4.08838,-19.8185,0,0,0,0,0,0,0,-1,1266,442,4.08836,19.8185
49,582,3.69031,-21.8892,0.0385565,0.0127403,0.00970394,0.0417972,0.00949954,0.322317,0.0252999,0.0451827,1273,442,3.69026,21.8892
56,582,3.37573,-21.6568,0.0390856,0.0187157,0.0131373,0.0455236,0.0122777,0.455659,0.0271965,0.0478268,1280,442,3.37572,21.6568
63,582,3.98425,-20.362,0,0,0,0,0,0,0,-1,1287,442,3.98426,20.362
70,582,3.21875,-20.3319,0.0366641,0.0320022,0.0158957,0.0503988,0.0182675,0.712598,0.0294625,0.0440694,1294,442,3.21879,20.3319
77,582,2.44482,-20.452,0,0,0,0,0,0,0,-1,1301,442,2.44479,20.452
84,582,1.80005,-21.0562,0.0301749,0.0421352,0.0145241,0.0518621,0.020448,0.980692,0.0301649,0.0455943,1308,442,1.80009,21.0562
91,582,3.32324,-13.7862,0.0247812,0.0449259,0.0118903,0.0504366,0.0192704,1.1368,0.0293883,0.0459177,1315,442,3.3233,13.7862
98,582,5.2655,-20.8754,0,0,0,0,0,0,0,-1,1322,442,5.26549,20.8754
105,582,3.56274,-16.3524,0.0144124,0.0500471,0.00126756,0.0500922,0.0143674,1.53529,0.0297841,0.0402543,1329,442,3.56277,16.3524
112,582,3.11511,-17.4779,0.00944475,0.0511208,-0.00557663,0.0518541,0.00871146,-1.44005,0.0320625,0.041843,1336,442,3.11516,17.4779
119,582,3.73059,-19.804,0,0,0,0,0,0,0,-1,1343,442,3.73053,19.804
126,582,3.1864,-20.7656,-0.00125632,0.0513921,-0.0202374,0.0582721,-0.00813629,-1.24309,0.0418248,0.0448922,1350,442,3.18643,20.7656
133,582,2.78992,-21.7391,-0.00601778,0.0504958,-0.0261087,0.0607112,-0.0162332,-1.19784,0.0468326,0.0445456,1357,442,2.78993,21.7391
140,582,2.75085,-22.6281,-0.00950626,0.0491683,-0.0308471,0.0624012,-0.0227392,-1.16556,0.0509027,0.0436409,1364,442,2.75084,22.6281
147,582,2.75867,-23.5927,-0.00921184,0.0456597,-0.0322169,0.06054,-0.0240921,-1.13811,0.0503501,0.0468683,1371,442,2.75869,23.5927
154,582,3.00146,-24.8699,0,0,0,0,0,0,0,-1,1378,442,3.00148,24.8699
161,582,3.00623,-25.8754,0,0,0,0,0,0,0,-1,1385,442,3.00623,25.8754
168,582,4.672,-20.2961,0,0,0,0,0,0,0,-1,1392,442,4.67199,20.2961
175,582,6.50549,-2.00424,0,0,0,0,0,0,0,-1,1399,442,6.50546,2.00425
182,582,5.18958,-2.18652,0,0,0,0,0,0,0,-1,1406,442,5.1896,2.18652
189,582,6.19751,-0.880951,0,0,0,0,0,0,0,-1,1413,442,6.19754,0.88096
196,582,4.87354,-2.22327,0,0,0,0,0,0,0,-1,1420,442,4.87348,2.22325
203,582,3.11401,-4.48257,0,0,0,0,0,0,0,-1,1427,442,3.11404,4.48259
210,582,2.93115,-11.0731,0,0,0,0,0,0,0,-1,1434,442,2.93113,11.0731
217,582,4.94092,-16.5476,0,0,0,0,0,0,0,-1,1441,442,4.94087,16.5476
224,582,4.73926,-19.0401,0,0,0,0,0,0,0,-1,1448,442,4.73928,19.0401
231,582,4.84094,-18.4,-0.000476827,0.00355268,-0.00488018,0.00681764,-0.00374179,-0.981163,0.0061821,0.0426524,1455,442,4.841,18.4
238,582,4.67554,-18.3677,9.35349e-05,0.00434235,-0.00398043,0.00672981,-0.00229392,-1.03052,0.00541562,0.0435287,1462,442,4.67557,18.3677
245,582,4.64502,-18.3866,0.000604576,0.00461014,-0.00329151,0.0064603,-0.00124559,-1.05871,0.00477651,0.045745,1469,442,4.64504,18.3866
252,582,4.72412,-18.1357,0.00100142,0.00418637,-0.00264965,0.00568528,-0.000497483,-1.05598,0.00396643,0.0333027,1476,442,4.7241,18.1357
259,582,4.63965,-17.9479,0.00128197,0.00367025,-0.00204962,0.00484822,0.000104005,-1.04917,0.00319805,0.0272794,1483,442,4.63967,17.9479
266,582,4.66101,-17.7286,0.0015286,0.00305194,-0.00161328,0.00407431,0.000506226,-1.00595,0.00256418,0.0195627,1490,442,4.66106,17.7286
273,582,4.72437,-17.4631,0.0016806,0.00245975,-0.00127883,0.00340703,0.000733321,-0.93325,0.00207066,0.0152234,1497,442,4.72432,17.4631
280,582,4.72925,-17.2481,0.00169324,0.00157379,-0.00102634,0.0026616,0.000605435,-0.756336,0.00161097,0.0114137,1504,442,4.72925,17.2481
287,582,4.74951,-17.0116,0.00180542,0.00134513,-0.000756133,0.00236566,0.000784892,-0.637668,0.00139134,0.0101572,1511,442,4.74957,17.0116
294,582,4.75317,-16.7739,0.0017217,0.000941311,-0.000640946,0.00208188,0.000581128,-0.511975,0.00124045,0.00875753,1518,442,4.75311,16.7739
301,582,4.77612,-16.5366,0.00144258,0.000367885,-0.00059014,0.00170336,0.000107105,-0.416094,0.00110161,0.00978634,1525,442,4.77612,16.5366
308,582,4.79102,-16.3019,0.00120251,2.27718e-05,-0.000563848,0.00142865,-0.000203367,-0.381423,0.00102696,0.0123113,1532,442,4.79098,16.3019
315,582,4.78149,-16.0661,0.00102275,-8.48821e-05,-0.000504167,0.00121786,-0.000279996,-0.369252,0.000919561,0.0122734,1539,442,4.78147,16.0661
322,582,4.77148,-15.8289,0.000820477,-3.11672e-05,-0.000363611,0.000954599,-0.000165289,-0.353378,0.00069805,0.0098194,1546,442,4.77147,15.8289
329,582,4.77026,-15.5855,0.000652976,0.000136424,-0.000138929,0.00068797,0.000101429,-0.246757,0.000428854,0.00968592,1553,442,4.77024,15.5855
336,582,4.77283,-15.3259,0.000495653,0.000378792,0.000126482,0.000576549,0.000297896,0.569017,0.000332932,0.0101651,1560,442,4.77284,15.3259
343,582,4.77576,-15.0525,0.000295621,0.000675153,0.000389648,0.000918788,5.19857e-05,1.012,0.000595953,0.0128255,1567,442,4.77576,15.0525
350,582,4.75781,-14.7976,0.000129302,0.00112007,0.000750843,0.00152423,-0.000274853,1.07701,0.00111908,0.0166491,1574,442,4.75787,14.7976
357,582,4.76819,-14.5367,-4.89733e-05,0.00159847,0.00112201,0.00216666,-0.000617167,1.10204,0.0016882,0.0141146,1581,442,4.76822,14.5367
364,582,4.77344,-14.2525,-0.000285492,0.00216647,0.00143556,0.00282832,-0.000947334,1.13881,0.00226825,0.0102974,1588,442,4.77339,14.2525
371,582,4.76392,-13.9719,-0.000533062,0.00270519,0.00169015,0.00342661,-0.00125448,1.16737,0.00279794,0.0138151,1595,442,4.76395,13.9719
378,582,4.75549,-13.7068,-0.000876628,0.0032205,0.00185051,0.00393255,-0.00158868,1.20347,0.00328203,0.0157861,1602,442,4.75547,13.7068
385,582,4.74487,-13.4236,-0.00140112,0.00353255,0.00175594,0.00409368,-0.00196225,1.26149,0.00356785,0.0118275,1609,442,4.74487,13.4237
392,582,4.71704,-13.1256,-0.00177204,0.0038553,0.00160425,0.00428051,-0.00219726,1.3117,0.00380386,0.0102592,1616,442,4.71701,13.1256
399,582,4.68384,-12.8306,-0.00167091,0.004073,0.00175752,0.00456809,-0.002166,1.29621,0.00396952,0.0158086,1623,442,4.68389,12.8306
406,582,4.67859,-12.4397,-0.00181601,0.00404226,0.00177903,0.00454019,-0.00231394,1.29789,0.00402622,0.026802,1630,442,4.67864,12.4397
413,582,4.59509,-12.1099,-0.00200957,0.00350984,0.00161941,0.00394989,-0.00244962,1.30547,0.00372845,0.0425443,1637,442,4.59505,12.1099
420,582,4.53772,-11.7577,0,0,0,0,0,0,0,-1,1644,442,4.53771,11.7577
427,582,4.55103,-11.6059,0,0,0,0,0,0,0,-1,1651,442,4.55097,11.6059
434,582,4.19482,-11.3724,0,0,0,0,0,0,0,-1,1658,442,4.19477,11.3724
441,582,3.68677,-8.97913,0,0,0,0,0,0,0,-1,1665,442,3.68682,8.97912
448,582,1.52722,-2.85928,0,0,0,0,0,0,0,-1,1672,442,1.52724,2.85927
455,582,3.6698,-4.4032,0,0,0,0,0,0,0,-1,1679,442,3.66983,4.40319
462,582,1.38074,-3.94418,0,0,0,0,0,0,0,-1,1686,442,1.38074,3.94419
469,582,4.77759,-10.3864,0,0,0,0,0,0,0,-1,1693,442,4.77756,10.3864
476,582,1.93579,-8.53891,0,0,0,0,0,0,0,-1,1700,442,1.93579,8.53892
483,582,0,0,0,0,0,0,0,0,0,-1,1707,442,0,0
490,582,0,0,0,0,0,0,0,0,0,-1,1714,442,0,0
497,582,0,0,0,0,0,0,0,0,0,-1,1721,442,0,0
504,582,0,0,0,0,0,0,0,0,0,-1,1728,442,0,0
511,582,0,0,0,0,0,0,0,0,0,-1,1735,442,0,0
518,582,0,0,0,0,0,0,0,0,0,-1,1742,442,0,0
525,582,0,0,0,0,0,0,0,0,0,-1,1749,442,0,0
532,582,0,0,0,0,0,0,0,0,0,-1,1756,442,0,0
539,582,0,0,0,0,0,0,0,0,0,-1,1763,442,0,0
546,582,0,0,0,0,0,0,0,0,0,-1,1770,442,0,0
553,582,0,0,0,0,0,0,0,0,0,-1,1777,442,0,0
560,582,0,0,0,0,0,0,0,0,0,-1,1784,442,0,0
567,582,0,0,0,0,0,0,0,0,0,-1,1791,442,0,0
574,582,0,0,0,0,0,0,0,0,0,-1,1798,442,0,0
581,582,0,0,0,0,0,0,0,0,0,-1,1805,442,0,0
588,582,0,0,0,0,0,0,0,0,0,-1,1812,442,0,0
595,582,0,0,0,0,0,0,0,0,0,-1,1819,442,0,0
602,582,0,0,0,0,0,0,0,0,0,-1,1826,442,0,0
609,582,0,0,0,0,0,0,0,0,0,-1,1833,442,0,0
616,582,0,0,0,0,0,0,0,0,0,-1,1840,442,0,0
623,582,0,0,0,0,0,0,0,0,0,-1,1847,442,0,0
630,582,0,0,0,0,0,0,0,0,0,-1,1854,442,0,0
637,582,0,0,0,0,0,0,0,0,0,-1,1861,442,0,0
644,582,0,0,0,0,0,0,0,0,0,-1,1868,442,0,0
651,582,0,0,0,0,0,0,0,0,0,-1,1875,442,0,0
658,582,0,0,0,0,0,0,0,0,0,-1,1882,442,0,0
665,582,0,0,0,0,0,0,0,0,0,-1,1889,442,0,0
672,582,0,0,0,0,0,0,0,0,0,-1,1896,442,0,0
679,582,0,0,0,0,0,0,0,0,0,-1,1903,442,0,0
686,582,0,0,0,0,0,0,0,0,0,-1,1910,442,0,0
693,582,0,0,0,0,0,0,0,0,0,-1,1917,442,0,0
700,582,0,0,0,0,0,0,0,0,0,-1,1924,442,0,0
707,582,0,0,0,0,0,0,0,0,0,-1,1931,442,0,0
714,582,0,0,0,0,0,0,0,0,0,-1,1938,442,0,0
721,582,0,0,0,0,0,0,0,0,0,-1,1945,442,0,0
728,582,0,0,0,0,0,0,0,0,0,-1,1952,442,0,0
735,582,0,0,0,0,0,0,0,0,0,-1,1959,442,0,0
742,582,0,0,0,0,0,0,0,0,0,-1,1966,442,0,0
749,582,0,0,0,0,0,0,0,0,0,-1,1973,442,0,0
756,582,0,0,0,0,0,0,0,0,0,-1,1980,442,0,0
763,582,0,0,0,0,0,0,0,0,0,-1,1987,442,0,0
770,582,0,0,0,0,0,0,0,0,0,-1,1994,442,0,0
777,582,0,0,0,0,0,0,0,0,0,-1,2001,442,0,0
784,582,0,0,0,0,0,0,0,0,0,-1,2008,442,0,0
791,582,0,0,0,0,0,0,0,0,0,-1,2015,442,0,0
798,582,0,0,0,0,0,0,0,0,0,-1,2022,442,0,0
805,582,0,0,0,0,0,0,0,0,0,-1,2029,442,0,0
812,582,0,0,0,0,0,0,0,0,0,-1,2036,442,0,0
-700,575,0,0,0,0,0,0,0,0,0,-1,524,449,0,0
-693,575,0,0,0,0,0,0,0,0,0,-1,531,449,0,0
-686,575,0,0,0,0,0,0,0,0,0,-1,538,449,0,0
-679,575,0,0,0,0,0,0,0,0,0,-1,545,449,0,0
-672,575,0,0,0,0,0,0,0,0,0,-1,552,449,0,0
-665,575,0,0,0,0,0,0,0,0,0,-1,559,449,0,0
-658,575,0,0,0,0,0,0,0,0,0,-1,566,449,0,0
-651,575,0,0,0,0,0,0,0,0,0,-1,573,449,0,0
-644,575,0,0,0,0,0,0,0,0,0,-1,580,449,0,0
-637,575,0,0,0,0,0,0,0,0,0,-1,587,449,0,0
-630,575,0,0,0,0,0,0,0,0,0,-1,594,449,0,0
-623,575,0,0,0,0,0,0,0,0,0,-1,601,449,0,0
-616,575,0,0,0,0,0,0,0,0,0,-1,608,449,0,0
-609,575,0,0,0,0,0,0,0,0,0,-1,615,449,0,0
-602,575,0,0,0,0,0,0,0,0,0,-1,622,449,0,0
-595,575,0,0,0,0,0,0,0,0,0,-1,629,449,0,0
-588,575,0,0,0,0,0,0,0,0,0,-1,636,449,0,0
-581,575,0,0,0,0,0,0,0,0,0,-1,643,449,0,0
-574,575,0,0,0,0,0,0,0,0,0,-1,650,449,0,0
-567,575,0,0,0,0,0,0,0,0,0,-1,657,449,0,0
-560,575,0,0,0,0,0,0,0,0,0,-1,664,449,0,0
-553,575,0,0,0,0,0,0,0,0,0,-1,671,449,0,0
-546,575,0,0,0,0,0,0,0,0,0,-1,678,449,0,0
-539,575,0,0,0,0,0,0,0,0,0,-1,685,449,0,0
-532,575,0,0,0,0,0,0,0,0,0,-1,692,449,0,0
-525,575,0,0,0,0,0,0,0,0,0,-1,699,449,0,0
-518,575,0,0,0,0,0,0,0,0,0,-1,706,449,0,0
-511,575,0,0,0,0,0,0,0,0,0,-1,713,449,0,0
-504,575,0,0,0,0,0,0,0,0,0,-1,720,449,0,0
-497,575,0,0,0,0,0,0,0,0,0,-1,727,449,0,0
-490,575,0,0,0,0,0,0,0,0,0,-1,734,449,0,0
-483,575,0,0,0,0,0,0,0,0,0,-1,741,449,0,0
-476,575,0,0,0,0,0,0,0,0,0,-1,748,449,0,0
-469,575,0,0,0,0,0,0,0,0,0,-1,755,449,0,0
-462,575,0,0,0,0,0,0,0,0,0,-1,762,449,0,0
-455,575,0,0,0,0,0,0,0,0,0,-1,769,449,0,0
-448,575,0,0,0,0,0,0,0,0,0,-1,776,449,0,0
-441,575,0,0,0,0,0,0,0,0,0,-1,783,449,0,0
-434,575,0,0,0,0,0,0,0,0,0,-1,790,449,0,0
-427,575,0,0,0,0,0,0,0,0,0,-1,797,449,0,0
-420,575,0,0,0,0,0,0,0,0,0,-1,804,449,0,0
-413,575,0,0,0,0,0,0,0,0,0,-1,811,449,0,0
-406,575,0,0,0,0,0,0,0,0,0,-1,818,449,0,0
-399,575,0,0,0,0,0,0,0,0,0,-1,825,449,0,0
-392,575,0,0,0,0,0,0,0,0,0,-1,832,449,0,0
-385,575,0,0,0,0,0,0,0,0,0,-1,839,449,0,0
-378,575,0,0,0,0,0,0,0,0,0,-1,846,449,0,0
-371,575,0.56897,-3.52304,0,0,0,0,0,0,0,-1,853,449,0.568955,3.52306
-364,575,1.49805,-4.67191,0,0,0,0,0,0,0,-1,860,449,1.49803,4.6719
-357,575,3.15521,-8.29892,0,0,0,0,0,0,0,-1,867,449,3.15521,8.29891
-350,575,2.76715,-7.23752,0,0,0,0,0,0,0,-1,874,449,2.76717,7.2375
-343,575,0.6922,-9.68082,0,0,0,0,0,0,0,-1,881,449,0.692185,9.68081
-336,575,2.28522,-11.753,0,0,0,0,0,0,0,-1,888,449,2.28521,11.753
-329,575,0.356201,-11.8476,0,0,0,0,0,0,0,-1,895,449,0.3562,11.8476
-322,575,0.682678,-12.3837,-0.0083966,-0.0217013,0.00476826,-0.0068642,-0.0232337,0.310949,0.0137831,0.0479515,902,449,0.682651,12.3837
-315,575,1.15521,-12.6836,-0.00840446,-0.0192472,0.00435562,-0.00687149,-0.0207801,0.338411,0.0122246,0.0467375,909,449,1.1552,12.6836
-308,575,1.54602,-12.7234,-0.00785811,-0.0164187,0.00364399,-0.00651705,-0.0177597,0.352637,0.0103739,0.0436551,916,449,1.54602,12.7234
-301,575,1.97675,-12.8268,-0.00706574,-0.013717,0.00287149,-0.00599759,-0.0147851,0.356124,0.0085867,0.0326074,923,449,1.97673,12.8268
-294,575,2.00348,-13.1303,-0.00631886,-0.0110096,0.00196455,-0.00560479,-0.0117237,0.348632,0.00677085,0.0250459,930,449,2.00347,13.1303
-287,575,1.99091,-13.431,-0.0056081,-0.00870052,0.00104184,-0.00528985,-0.00901876,0.296463,0.00523292,0.0179133,937,449,1.99093,13.431
-280,575,1.96442,-13.6985,-0.00463186,-0.00646027,9.39615e-05,-0.00462705,-0.00646508,0.0512101,0.00384665,0.0129102,944,449,1.96442,13.6985
-273,575,1.93799,-13.9695,-0.00359592,-0.00455599,-0.000713381,-0.0032161,-0.00493581,-0.489243,0.00289301,0.010956,951,449,1.93799,13.9696
-266,575,1.9184,-14.2666,-0.00289246,-0.00278171,-0.000817738,-0.00201748,-0.0036567,-0.819206,0.00211496,0.0118472,958,449,1.91842,14.2666
-259,575,1.92212,-14.5376,-0.00200233,-0.00163579,-0.0015537,-0.00025459,-0.00338353,-0.844106,0.00217579,0.011938,965,449,1.92211,14.5376
-252,575,1.90057,-14.7913,-0.00134741,-0.000768059,-0.00187346,0.000837992,-0.00295346,-0.862101,0.00229977,0.0108256,972,449,1.90057,14.7913
-245,575,1.8866,-15.0533,-0.000898793,-0.000490117,-0.00169388,0.00101171,-0.00240062,-0.845425,0.00202377,0.0132764,979,449,1.8866,15.0534
-238,575,1.89246,-15.2888,-0.000442347,-0.000765699,-0.00113267,0.000540128,-0.00174817,-0.714508,0.00138116,0.0135023,986,449,1.89248,15.2888
-231,575,1.89362,-15.5265,-0.000241495,-0.00138286,-0.000455796,-8.18152e-05,-0.00154254,-0.33697,0.0010022,0.011678,993,449,1.89364,15.5265
-224,575,1.88165,-15.7868,-4.43106e-05,-0.00200071,0.000212235,-2.15516e-05,-0.00202347,0.106827,0.00134185,0.0111919,1000,449,1.88167,15.7868
-217,575,1.87958,-16.0412,0.000273376,-0.00265207,0.000841229,0.000498025,-0.00287672,0.260959,0.00210357,0.00980069,1007,449,1.8796,16.0412
-210,575,1.88629,-16.2999,0.000441761,-0.00333138,0.00145634,0.000938484,-0.0038281,0.328702,0.00291568,0.00894063,1014,449,1.88631,16.2999
-203,575,1.89392,-16.5152,0.00068018,-0.00406502,0.00213779,0.00150123,-0.00488607,0.366693,0.00385645,0.0119546,1021,449,1.89389,16.5152
-196,575,1.89795,-16.7564,0.00204346,-0.00416224,0.00266397,0.00303016,-0.00514894,0.354721,0.00477473,0.0146446,1028,449,1.89792,16.7564
-189,575,1.91248,-16.9785,0.004113,-0.00399923,0.00273652,0.0049498,-0.00483603,0.29676,0.00564998,0.0151636,1035,449,1.91249,16.9785
-182,575,1.92102,-17.1557,0.00601079,-0.00372523,0.00277646,0.0067469,-0.00446135,0.259165,0.00651578,0.0134583,1042,449,1.92099,17.1557
-175,575,1.93188,-17.3483,0.00829038,-0.00358861,0.0028166,0.00892438,-0.0042226,0.221404,0.00775053,0.0111555,1049,449,1.93183,17.3483
-168,575,1.92505,-17.549,0.010872,-0.00352296,0.00258048,0.0113206,-0.00397157,0.172125,0.00916245,0.00963947,1056,449,1.92503,17.549
-161,575,1.93298,-17.7481,0.0135872,-0.00319924,0.00203122,0.0138295,-0.00344152,0.118721,0.0105556,0.0139423,1063,449,1.93294,17.7481
-154,575,1.92981,-17.9364,0.0164291,-0.00275888,0.00141653,0.0165331,-0.00286289,0.073294,0.0120899,0.0174421,1070,449,1.92983,17.9364
-147,575,1.9751,-18.082,0.0191847,-0.00224609,0.00070426,0.0192078,-0.00226921,0.0328149,0.0136247,0.0182935,1077,449,1.97512,18.082
-140,575,1.9342,-18.2033,0.0215041,-0.0020959,-0.000150019,0.0215051,-0.00209685,-0.00635637,0.0150843,0.0284717,1084,449,1.93424,18.2033
-133,575,2.00415,-18.3731,0.0232226,-0.00197336,-0.0010936,0.02327,-0.00202074,-0.0432954,0.0162289,0.0362208,1091,449,2.00419,18.3731
-126,575,2.0885,-18.3031,0.0244095,-0.00209904,-0.00203505,0.0245648,-0.00225436,-0.0761748,0.0171774,0.040686,1098,449,2.08854,18.3031
-119,575,2.12122,-18.3404,0.0249385,-0.00241702,-0.00316338,0.0252995,-0.00277806,-0.113642,0.0178645,0.0363252,1105,449,2.12126,18.3404
-112,575,2.11658,-18.8,0.0248583,-0.00254278,-0.00435959,0.0255352,-0.00321969,-0.154037,0.0181919,0.0464123,1112,449,2.11657,18.8001
-105,575,2.00903,-19.0612,0,0,0,0,0,0,0,-1,1119,449,2.00905,19.0612
-98,575,1.94751,-19.4767,0,0,0,0,0,0,0,-1,1126,449,1.94751,19.4766
-91,575,1.60803,-16.4247,0,0,0,0,0,0,0,-1,1133,449,1.60802,16.4247
-84,575,1.16553,-11.9056,0,0,0,0,0,0,0,-1,1140,449,1.16558,11.9056
-77,575,0.205078,-11.2584,0,0,0,0,0,0,0,-1,1147,449,0.205117,11.2584
-70,575,-4.2467,-1.78738,0,0,0,0,0,0,0,-1,1154,449,-4.24674,1.78739
-63,575,-4.52209,-3.48798,0,0,0,0,0,0,0,-1,1161,449,-4.5221,3.48796
-56,575,-5.5968,-5.4928,0,0,0,0,0,0,0,-1,1168,449,-5.59683,5.49281
-49,575,-5.96863,-7.17612,0,0,0,0,0,0,0,-1,1175,449,-5.96868,7.1761
-42,575,-0.830322,0.773499,0,0,0,0,0,0,0,-1,1182,449,-0.83038,-0.77351
-35,575,-0.62085,0.205139,0,0,0,0,0,0,0,-1,1189,449,-0.620855,-0.205126
-28,575,0.49292,-3.87988,0,0,0,0,0,0,0,-1,1196,449,0.492941,3.87989
-21,575,1.56982,-19.1006,0,0,0,0,0,0,0,-1,1203,449,1.56979,19.1006
-14,575,1.90137,-19.3191,0,0,0,0,0,0,0,-1,1210,449,1.90132,19.3191
-7,575,1.1543,-19.1086,0,0,0,0,0,0,0,-1,1217,449,1.15429,19.1086
0,575,1.38855,-19.164,0.0334731,-0.0221465,0.000621141,0.03348,-0.0221534,0.0111658,0.0323411,0.046515,1224,449,1.3886,19.164
7,575,1.62354,-19.2447,0.0365163,-0.0197452,0.000618836,0.0365231,-0.019752,0.0109975,0.0329679,0.0441629,1231,449,1.62356,19.2447
14,575,1.96863,-19.2158,0.0389108,-0.0149775,0.000402805,0.0389138,-0.0149805,0.00747427,0.0321223,0.0450639,1238,449,1.96868,19.2157
21,575,2.01587,-19.504,0.0397808,-0.00930428,-0.000201569,0.0397816,-0.0093051,-0.00410643,0.030106,0.0422808,1245,449,2.01587,19.504
28,575,1.8208,-19.9843,0.0392311,-0.00356675,-0.00108067,0.0392584,-0.00359402,-0.0252291,0.0274488,0.0416633,1252,449,1.82084,19.9843
35,575,3.07288,-20.3097,0.0412455,0.00233665,0.00226236,0.0413766,0.00220554,0.0578852,0.0268794,0.0446786,1259,449,3.07282,20.3097
42,575,4.21509,-20.1758,0.0434018,0.0123051,0.00624904,0.0446106,0.0110963,0.191076,0.0268181,0.0450822,1266,449,4.21511,20.1758
49,575,5.31555,-19.9925,0.0431538,0.0184519,0.00988285,0.0466211,0.0149846,0.337422,0.027483,0.045012,1273,449,5.3156,19.9925
56,575,4.92932,-20.5079,0.0431955,0.0252327,0.0135159,0.050442,0.0179861,0.492147,0.0295194,0.0439772,1280,449,4.92927,20.5079
63,575,4.22778,-20.503,0.0413117,0.0324124,0.0149368,0.0524476,0.0212765,0.640635,0.0304597,0.0441615,1287,449,4.22778,20.503
70,575,3.45142,-20.5675,0.0382355,0.0403383,0.0157754,0.0550973,0.0234765,0.818674,0.0319261,0.0442223,1294,449,3.45136,20.5675
77,575,2.6781,-20.6083,0,0,0,0,0,0,0,-1,1301,449,2.67812,20.6083
84,575,3.39185,-21.4118,0.0294325,0.0516622,0.014091,0.0584943,0.0226003,1.11933,0.0340612,0.0464961,1308,449,3.39184,21.4118
91,575,3.56726,-14.3743,0.0226873,0.0550569,0.0112006,0.0585546,0.0191895,1.26811,0.034469,0.045071,1315,449,3.56723,14.3743
98,575,3.40979,-15.8982,0,0,0,0,0,0,0,-1,1322,449,3.40985,15.8982
105,575,3.09497,-16.8513,0.0102739,0.0616264,-0.000577116,0.0616329,0.0102674,-1.55956,0.0381297,0.0398408,1329,449,3.09502,16.8513
112,575,2.94592,-18.1148,0.00436186,0.0634643,-0.00823809,0.0645911,0.00323506,-1.43486,0.0420239,0.0410276,1336,449,2.9459,18.1148
119,575,2.77588,-19.5206,-0.00208276,0.0641797,-0.0169516,0.0682645,-0.00616758,-1.33433,0.0476986,0.0417211,1343,449,2.7759,19.5206
126,575,2.75745,-21.042,-0.00824224,0.0645252,-0.0248302,0.0721904,-0.0159075,-1.27137,0.0542131,0.0468382,1350,449,2.75749,21.042
133,575,2.72046,-22.0233,-0.0132842,0.063771,-0.0314552,0.0749808,-0.0244939,-1.22846,0.0598466,0.0451662,1357,449,2.72045,22.0233
140,575,2.72351,-22.9568,-0.0150637,0.0623133,-0.0351535,0.0758988,-0.0286492,-1.20202,0.0623818,0.0454481,1364,449,2.72345,22.9568
147,575,2.82288,-24.0022,-0.0120738,0.0594308,-0.035338,0.0739478,-0.0265907,-1.18101,0.0601542,0.0474091,1371,449,2.82288,24.0022
154,575,3.03149,-25.2235,0,0,0,0,0,0,0,-1,1378,449,3.03151,25.2235
161,575,5.66675,-21.2715,0,0,0,0,0,0,0,-1,1385,449,5.66676,21.2715
168,575,0.931152,-15.5912,0,0,0,0,0,0,0,-1,1392,449,0.931185,15.5912
175,575,4.32617,1.93634,0,0,0,0,0,0,0,-1,1399,449,4.32612,-1.93634
182,575,6.3147,-2.88345,0,0,0,0,0,0,0,-1,1406,449,6.31466,2.88346
189,575,6.10449,-1.30817,0,0,0,0,0,0,0,-1,1413,449,6.10455,1.30817
196,575,5.79895,0.818359,0,0,0,0,0,0,0,-1,1420,449,5.79895,-0.81837
203,575,3.29724,-1.46378,0,0,0,0,0,0,0,-1,1427,449,3.29722,1.46377
210,575,2.32739,-7.74503,0,0,0,0,0,0,0,-1,1434,449,2.32741,7.74502
217,575,3.33618,-11.5521,0,0,0,0,0,0,0,-1,1441,449,3.3362,11.5521
224,575,5.51709,-16.3903,0,0,0,0,0,0,0,-1,1448,449,5.51713,16.3903
231,575,5.3208,-18.3386,0,0,0,0,0,0,0,-1,1455,449,5.32077,18.3386
238,575,5.20251,-18.4471,0,0,0,0,0,0,0,-1,1462,449,5.20251,18.4471
245,575,5.00806,-18.7787,0,0,0,0,0,0,0,-1,1469,449,5.00808,18.7786
252,575,4.9502,-18.4648,0,0,0,0,0,0,0,-1,1476,449,4.95019,18.4648
259,575,4.7998,-18.2863,0,0,0,0,0,0,0,-1,1483,449,4.79983,18.2863
266,575,4.82153,-17.97,0,0,0,0,0,0,0,-1,1490,449,4.82152,17.97
273,575,4.89893,-17.5341,0,0,0,0,0,0,0,-1,1497,449,4.89887,17.5341
280,575,4.91187,-17.2532,0,0,0,0,0,0,0,-1,1504,449,4.91186,17.2532
287,575,4.92908,-17.0317,0.00219597,0.00103276,-0.00137952,0.00311148,0.000117251,-0.585905,0.00203636,0.0214525,1511,449,4.92906,17.0317
294,575,4.99829,-16.7838,0.00209812,0.000489632,-0.00132868,0.002847,-0.000259246,-0.513245,0.00199005,0.0106164,1518,449,4.99835,16.7838
301,575,5.00964,-16.5498,0.00176493,-0.000239089,-0.00134248,0.00243811,-0.000912271,-0.464805,0.0020001,0.00912947,1525,449,5.00965,16.5498
308,575,5.02869,-16.3125,0.00144349,-0.000711529,-0.00141111,0.00214144,-0.00140948,-0.459326,0.00206459,0.00979815,1532,449,5.02864,16.3125
315,575,5.01953,-16.0847,0.00120777,-0.000875843,-0.00141573,0.00192371,-0.00159178,-0.468197,0.00203268,0.0102374,1539,449,5.01957,16.0847
322,575,5.02295,-15.8284,0.000957554,-0.000803768,-0.00130334,0.00164987,-0.00149609,-0.488285,0.00181705,0.00957969,1546,449,5.02289,15.8284
329,575,5.026,-15.5909,0.000755486,-0.000581417,-0.0010847,0.00136116,-0.00118709,-0.509254,0.00147238,0.0104248,1553,449,5.02605,15.5909
336,575,5.02881,-15.3236,0.000581651,-0.000306047,-0.000807135,0.00105893,-0.000783322,-0.534012,0.00106758,0.012227,1560,449,5.02881,15.3236
343,575,5.04419,-15.0519,0.00035923,1.83464e-05,-0.000519454,0.00073549,-0.000357913,-0.626874,0.000643701,0.0117933,1567,449,5.04413,15.0519
350,575,5.02527,-14.808,0.000195246,0.000443813,-0.000129181,0.000498789,0.000140269,-1.16844,0.000297023,0.0107835,1574,449,5.02529,14.808
357,575,5.02686,-14.5363,4.77302e-05,0.000917616,0.000278449,0.000999112,-3.37658e-05,1.28607,0.000677611,0.0104449,1581,449,5.0268,14.5363
364,575,5.03125,-14.2558,-0.00013677,0.00139648,0.000635507,0.00162564,-0.000365928,1.22472,0.0012241,0.00991798,1588,449,5.03126,14.2558
371,575,5.00525,-13.9963,-0.00034221,0.00185177,0.000955982,0.00220987,-0.000700311,1.21239,0.00175392,0.0179297,1595,449,5.00519,13.9963
378,575,5.02832,-13.7003,-0.000624293,0.00228069,0.00118447,0.00270242,-0.00104602,1.22874,0.00223348,0.0178119,1602,449,5.02831,13.7003
385,575,5.02527,-13.4007,-0.00101059,0.00257331,0.0011927,0.00293394,-0.00137122,1.27717,0.00253958,0.0113323,1609,449,5.02531,13.4007
392,575,5.00049,-13.1159,-0.0012371,0.00277591,0.00116729,0.00309074,-0.00155194,1.30735,0.00272909,0.00944078,1616,449,5.00047,13.1159
399,575,4.98096,-12.8434,-0.00108254,0.00290119,0.00137521,0.00332981,-0.00151115,1.26866,0.00285992,0.0100429,1623,449,4.98091,12.8433
406,575,4.96362,-12.5276,-0.00116239,0.00281341,0.00145714,0.00329026,-0.00163924,1.25453,0.00289877,0.0107418,1630,449,4.96362,12.5276
413,575,4.95117,-12.1977,-0.00128534,0.00236627,0.00140226,0.00284262,-0.00176169,1.24333,0.0026826,0.0124119,1637,449,4.95121,12.1977
420,575,4.92883,-11.8932,-0.00118084,0.00178912,0.00148982,0.00240765,-0.00179937,1.17728,0.00243737,0.0134779,1644,449,4.92879,11.8932
427,575,4.87598,-11.607,-0.000896933,0.000957995,0.00171339,0.00197884,-0.00191778,1.03347,0.00224981,0.0188778,1651,449,4.87598,11.607
434,575,4.73792,-11.4031,-0.000408673,9.27358e-05,0.00201983,0.00187736,-0.0021933,0.847143,0.00235255,0.0294186,1658,449,4.73788,11.4031
441,575,4.63354,-11.2235,0,0,0,0,0,0,0,-1,1665,449,4.63355,11.2235
448,575,5.53796,-10.4967,0,0,0,0,0,0,0,-1,1672,449,5.53791,10.4967
455,575,4.84131,-9.07938,0,0,0,0,0,0,0,-1,1679,449,4.84128,9.07938
462,575,4.34033,-10.9056,0,0,0,0,0,0,0,-1,1686,449,4.34028,10.9056
469,575,4.57227,-9.6369,0,0,0,0,0,0,0,-1,1693,449,4.57228,9.63689
476,575,4.61572,-8.97125,0,0,0,0,0,0,0,-1,1700,449,4.61572,8.97124
483,575,5.05042,-9.55603,0,0,0,0,0,0,0,-1,1707,449,5.05045,9.55603
490,575,5.44751,-9.8313,0,0,0,0,0,0,0,-1,1714,449,5.44751,9.83131
497,575,0,0,0,0,0,0,0,0,0,-1,1721,449,0,0
504,575,0,0,0,0,0,0,0,0,0,-1,1728,449,0,0
511,575,0,0,0,0,0,0,0,0,0,-1,1735,449,0,0
518,575,0,0,0,0,0,0,0,0,0,-1,1742,449,0,0
525,575,0,0,0,0,0,0,0,0,0,-1,1749,449,0,0
532,575,0,0,0,0,0,0,0,0,0,-1,1756,449,0,0
539,575,0,0,0,0,0,0,0,0,0,-1,1763,449,0,0
546,575,0,0,0,0,0,0,0,0,0,-1,1770,449,0,0
553,575,0,0,0,0,0,0,0,0,0,-1,1777,449,0,0
560,575,0,0,0,0,0,0,0,0,0,-1,1784,449,0,0
567,575,0,0,0,0,0,0,0,0,0,-1,1791,449,0,0
574,575,0,0,0,0,0,0,0,0,0,-1,1798,449,0,0
581,575,0,0,0,0,0,0,0,0,0,-1,1805,449,0,0
588,575,0,0,0,0,0,0,0,0,0,-1,1812,449,0,0
595,575,0,0,0,0,0,0,0,0,0,-1,1819,449,0,0
602,575,0,0,0,0,0,0,0,0,0,-1,1826,449,0,0
609,575,0,0,0,0,0,0,0,0,0,-1,1833,449,0,0
616,575,0,0,0,0,0,0,0,0,0,-1,1840,449,0,0
623,575,0,0,0,0,0,0,0,0,0,-1,1847,449,0,0
630,575,0,0,0,0,0,0,0,0,0,-1,1854,449,0,0
637,575,0,0,0,0,0,0,0,0,0,-1,1861,449,0,0
644,575,0,0,0,0,0,0,0,0,0,-1,1868,449,0,0
651,575,0,0,0,0,0,0,0,0,0,-1,1875,449,0,0
658,575,0,0,0,0,0,0,0,0,0,-1,1882,449,0,0
665,575,0,0,0,0,0,0,0,0,0,-1,1889,449,0,0
672,575,0,0,0,0,0,0,0,0,0,-1,1896,449,0,0
679,575,0,0,0,0,0,0,0,0,0,-1,1903,449,0,0
686,575,0,0,0,0,0,0,0,0,0,-1,1910,449,0,0
693,575,0,0,0,0,0,0,0,0,0,-1,1917,449,0,0
700,575,0,0,0,0,0,0,0,0,0,-1,1924,449,0,0
707,575,0,0,0,0,0,0,0,0,0,-1,1931,449,0,0
714,575,0,0,0,0,0,0,0,0,0,-1,1938,449,0,0
721,575,0,0,0,0,0,0,0,0,0,-1,1945,449,0,0
728,575,0,0,0,0,0,0,0,0,0,-1,1952,449,0,0
735,575,0,0,0,0,0,0,0,0,0,-1,1959,449,0,0
742,575,0,0,0,0,0,0,0,0,0,-1,1966,449,0,0
749,575,0,0,0,0,0,0,0,0,0,-1,1973,449,0,0
756,575,0,0,0,0,0,0,0,0,0,-1,1980,449,0,0
763,575,0,0,0,0,0,0,0,0,0,-1,1987,449,0,0
770,575,0,0,0,0,0,0,0,0,0,-1,1994,449,0,0
777,575,0,0,0,0,0,0,0,0,0,-1,2001,449,0,0
784,575,0,0,0,0,0,0,0,0,0,-1,2008,449,0,0
791,575,0,0,0,0,0,0,0,0,0,-1,2015,449,0,0
798,575,0,0,0,0,0,0,0,0,0,-1,2022,449,0,0
805,575,0,0,0,0,0,0,0,0,0,-1,2029,449,0,0
812,575,0,0,0,0,0,0,0,0,0,-1,2036,449,0,0
-700,568,0,0,0,0,0,0,0,0,0,-1,524,456,0,0
-693,568,0,0,0,0,0,0,0,0,0,-1,531,456,0,0
-686,568,0,0,0,0,0,0,0,0,0,-1,538,456,0,0
-679,568,0,0,0,0,0,0,0,0,0,-1,545,456,0,0
-672,568,0,0,0,0,0,0,0,0,0,-1,552,456,0,0
-665,568,0,0,0,0,0,0,0,0,0,-1,559,456,0,0
-658,568,0,0,0,0,0,0,0,0,0,-1,566,456,0,0
-651,568,0,0,0,0,0,0,0,0,0,-1,573,456,0,0
-644,568,0,0,0,0,0,0,0,0,0,-1,580,456,0,0
-637,568,0,0,0,0,0,0,0,0,0,-1,587,456,0,0
-630,568,0,0,0,0,0,0,0,0,0,-1,594,456,0,0
-623,568,0,0,0,0,0,0,0,0,0,-1,601,456,0,0
-616,568,0,0,0,0,0,0,0,0,0,-1,608,456,0,0
-609,568,0,0,0,0,0,0,0,0,0,-1,615,456,0,0
-602,568,0,0,0,0,0,0,0,0,0,-1,622,456,0,0
-595,568,0,0,0,0,0,0,0,0,0,-1,629,456,0,0
-588,568,0,0,0,0,0,0,0,0,0,-1,636,456,0,0
-581,568,0,0,0,0,0,0,0,0,0,-1,643,456,0,0
-574,568,0,0,0,0,0,0,0,0,0,-1,650,456,0,0
-567,568,0,0,0,0,0,0,0,0,0,-1,657,456,0,0
-560,568,0,0,0,0,0,0,0,0,0,-1,664,456,0,0
-553,568,0,0,0,0,0,0,0,0,0,-1,671,456,0,0
-546,568,0,0,0,0,0,0,0,0,0,-1,678,456,0,0
-539,568,0,0,0,0,0,0,0,0,0,-1,685,456,0,0
-532,568,0,0,0,0,0,0,0,0,0,-1,692,456,0,0
-525,568,0,0,0,0,0,0,0,0,0,-1,699,456,0,0
-518,568,0,0,0,0,0,0,0,0,0,-1,706,456,0,0
-511,568,0,0,0,0,0,0,0,0,0,-1,713,456,0,0
-504,568,0,0,0,0,0,0,0,0,0,-1,720,456,0,0
-497,568,0,0,0,0,0,0,0,0,0,-1,727,456,0,0
-490,568,0,0,0,0,0,0,0,0,0,-1,734,456,0,0
-483,568,0,0,0,0,0,0,0,0,0,-1,741,456,0,0
-476,568,0,0,0,0,0,0,0,0,0,-1,748,456,0,0
-469,568,0,0,0,0,0,0,0,0,0,-1,755,456,0,0
-462,568,0,0,0,0,0,0,0,0,0,-1,762,456,0,0
-455,568,0,0,0,0,0,0,0,0,0,-1,769,456,0,0
-448,568,0,0,0,0,0,0,0,0,0,-1,776,456,0,0
-441,568,0,0,0,0,0,0,0,0,0,-1,783,456,0,0
-434,568,0,0,0,0,0,0,0,0,0,-1,790,456,0,0
-427,568,0,0,0,0,0,0,0,0,0,-1,797,456,0,0
-420,568,0,0,0,0,0,0,0,0,0,-1,804,456,0,0
-413,568,0,0,0,0,0,0,0,0,0,-1,811,456,0,0
-406,568,0,0,0,0,0,0,0,0,0,-1,818,456,0,0
-399,568,0,0,0,0,0,0,0,0,0,-1,825,456,0,0
-392,568,0,0,0,0,0,0,0,0,0,-1,832,456,0,0
-385,568,0,0,0,0,0,0,0,0,0,-1,839,456,0,0
-378,568,0.321777,-7.29929,0,0,0,0,0,0,0,-1,846,456,0.321806,7.29927
-371,568,1.09595,-7.46707,0,0,0,0,0,0,0,-1,853,456,1.09597,7.46707
-364,568,1.87787,-7.61115,0,0,0,0,0,0,0,-1,860,456,1.87784,7.61116
-357,568,2.14166,-7.67645,0,0,0,0,0,0,0,-1,867,456,2.14167,7.67646
-350,568,2.40472,-8.64417,0,0,0,0,0,0,0,-1,874,456,2.4047,8.64415
-343,568,2.67731,-8.79678,0,0,0,0,0,0,0,-1,881,456,2.67729,8.79678
-336,568,2.7489,-10.4651,0,0,0,0,0,0,0,-1,888,456,2.74891,10.4651
-329,568,2.55408,-11.0006,0,0,0,0,0,0,0,-1,895,456,2.55409,11.0006
-322,568,2.4704,-11.4677,-0.00465524,-0.0158649,1.36181e-05,-0.00465523,-0.0158649,0.00121485,0.00941659,0.0442634,902,456,2.47043,11.4677
-315,568,2.12494,-12.0108,-0.00478164,-0.0139356,8.62817e-05,-0.00478082,-0.0139364,0.00942446,0.00817729,0.0385885,909,456,2.12493,12.0108
-308,568,1.73901,-12.5724,-0.00450331,-0.011768,-6.59779e-06,-0.0045033,-0.011768,-0.000908202,0.00685631,0.0270211,916,456,1.73901,12.5724
-301,568,1.73187,-12.8736,-0.00408433,-0.00973181,-0.00010723,-0.00408229,-0.00973385,-0.0189781,0.00564413,0.0146355,923,456,1.73185,12.8736
-294,568,1.73126,-13.1191,-0.00366094,-0.00776085,-0.000290314,-0.00364049,-0.00778131,-0.0703421,0.00449564,0.0117487,930,456,1.73123,13.1191
-287,568,1.72467,-13.4191,-0.00326608,-0.00615342,-0.000509047,-0.00317896,-0.00624054,-0.169497,0.00360319,0.0111623,937,456,1.72464,13.4191
-280,568,1.71478,-13.7148,-0.00263904,-0.00462987,-0.000853529,-0.00232321,-0.0049457,-0.354405,0.00285714,0.0114071,944,456,1.71481,13.7147
-273,568,1.70313,-13.9796,-0.00195211,-0.00340867,-0.00112685,-0.00133869,-0.0040221,-0.498514,0.00236502,0.0118074,951,456,1.7031,13.9796
-266,568,1.67328,-14.2582,-0.00149883,-0.0022763,-0.000842651,-0.000959571,-0.00281556,-0.569284,0.0016528,0.0110171,958,456,1.67328,14.2582
-259,568,1.66266,-14.5266,-0.000903438,-0.00173271,-0.00107653,-0.000164458,-0.00247169,-0.601573,0.0015958,0.0123788,965,456,1.66263,14.5266
-252,568,1.63788,-14.7794,-0.000506892,-0.00149647,-0.00100518,0.000118679,-0.00212204,-0.556688,0.00145587,0.0121146,972,456,1.63785,14.7794
-245,568,1.63232,-15.0408,-0.000208401,-0.00173108,-0.000628004,1.71872e-05,-0.00195667,-0.34486,0.00131021,0.0136342,979,456,1.63234,15.0408
-238,568,1.65161,-15.298,0.000179771,-0.00236131,1.69645e-05,0.000179884,-0.00236142,0.00667571,0.00163754,0.0124907,986,456,1.65163,15.298
-231,568,1.6449,-15.5481,0.000367611,-0.00329162,0.000751951,0.000516106,-0.00344012,0.194972,0.00248339,0.0105045,993,456,1.64489,15.5481
-224,568,1.62909,-15.7987,0.000527922,-0.004161,0.00151337,0.000973945,-0.00460702,0.286606,0.00344224,0.0120577,1000,456,1.62908,15.7987
-217,568,1.64447,-16.0332,0.00077461,-0.00504381,0.00225656,0.00154719,-0.00581639,0.329861,0.00448321,0.010949,1007,456,1.64448,16.0332
-210,568,1.66016,-16.2788,0.000896528,-0.00589046,0.00294082,0.00199349,-0.00698743,0.357028,0.00544579,0.0106299,1014,456,1.66017,16.2788
-203,568,1.66248,-16.5123,0.00120456,-0.00672891,0.00369417,0.00265834,-0.00818268,0.374917,0.00652433,0.00983665,1021,456,1.66251,16.5123
-196,568,1.69543,-16.7125,0.00305347,-0.0067783,0.00430973,0.00467514,-0.00839998,0.359895,0.00765035,0.0128871,1028,456,1.69548,16.7125
-189,568,1.70215,-16.9135,0.00583451,-0.00639267,0.00431901,0.00720623,-0.00776439,0.307524,0.00864529,0.0126305,1035,456,1.70216,16.9135
-182,568,1.71045,-17.1238,0.00841609,-0.005858,0.00430023,0.00961147,-0.00705339,0.271136,0.00965917,0.0137646,1042,456,1.71046,17.1238
-175,568,1.73279,-17.3415,0.0117021,-0.00538271,0.00423915,0.0126961,-0.00637672,0.230321,0.0112113,0.0128322,1049,456,1.73277,17.3415
-168,568,1.70874,-17.5004,0.0155658,-0.00494883,0.00379037,0.0162438,-0.00562675,0.176982,0.0131135,0.0163756,1056,456,1.70871,17.5004
-161,568,1.69092,-17.6694,0.0197385,-0.00417185,0.00294058,0.0200948,-0.00452818,0.12059,0.0151335,0.0275582,1063,456,1.6909,17.6694
-154,568,1.7323,-18.0706,0.024147,-0.00323711,0.00195449,0.0242858,-0.00337591,0.0708944,0.0174252,0.0367735,1070,456,1.73224,18.0706
-147,568,1.80383,-18.2337,0.0284921,-0.0022029,0.000827696,0.0285145,-0.0022252,0.026939,0.0197931,0.0439367,1077,456,1.8038,18.2337
-140,568,1.92542,-18.2777,0.0321279,-0.00165619,-0.000409923,0.0321328,-0.00166116,-0.0121312,0.0219965,0.0476267,1084,456,1.92543,18.2777
-133,568,2.25183,-18.4099,0.0349138,-0.00128073,-0.00169484,0.034993,-0.00135992,-0.0466897,0.0237949,0.0490167,1091,456,2.25186,18.4099
-126,568,2.36072,-18.6331,0,0,0,0,0,0,0,-1,1098,456,2.36077,18.6331
-119,568,1.96204,-17.7666,0,0,0,0,0,0,0,-1,1105,456,1.96203,17.7666
-112,568,2.03381,-18.5945,0,0,0,0,0,0,0,-1,1112,456,2.03384,18.5945
-105,568,0.272095,-16.297,0,0,0,0,0,0,0,-1,1119,456,0.272141,16.297
-98,568,1.58618,-14.7874,0,0,0,0,0,0,0,-1,1126,456,1.58617,14.7874
-91,568,1.11621,-11.1853,0,0,0,0,0,0,0,-1,1133,456,1.11626,11.1853
-84,568,0.461792,-9.7959,0,0,0,0,0,0,0,-1,1140,456,0.461793,9.7959
-77,568,-1.13806,-8.57822,0,0,0,0,0,0,0,-1,1147,456,-1.13807,8.57821
-70,568,-4.09766,-1.42911,0,0,0,0,0,0,0,-1,1154,456,-4.09767,1.4291
-63,568,-5.92273,-3.70752,0,0,0,0,0,0,0,-1,1161,456,-5.92272,3.70751
-56,568,-5.24158,-6.01385,0,0,0,0,0,0,0,-1,1168,456,-5.24161,6.01386
-49,568,-5.24365,-8.33557,0,0,0,0,0,0,0,-1,1175,456,-5.24371,8.33557
-42,568,-0.664795,0.521973,0,0,0,0,0,0,0,-1,1182,456,-0.664829,-0.521984
-35,568,-0.153076,-1.67731,0,0,0,0,0,0,0,-1,1189,456,-0.153068,1.67731
-28,568,1.25439,-4.48798,0,0,0,0,0,0,0,-1,1196,456,1.2544,4.48797
-21,568,0.76416,-18.6969,0,0,0,0,0,0,0,-1,1203,456,0.764167,18.6969
-14,568,1.19751,-19.4225,0,0,0,0,0,0,0,-1,1210,456,1.19756,19.4225
-7,568,1.48083,-18.8064,0,0,0,0,0,0,0,-1,1217,456,1.48087,18.8064
0,568,1.57239,-18.7903,0.0371258,-0.0234762,0.000101623,0.037126,-0.0234764,0.00167689,0.0352834,0.0493904,1224,456,1.57238,18.7903
7,568,1.5791,-19.0034,0.0409193,-0.0200287,0.000389399,0.0409218,-0.0200312,0.00638869,0.0358736,0.0458072,1231,456,1.57905,19.0034
14,568,1.82947,-19.011,0.0439539,-0.0136299,0.000408437,0.0439567,-0.0136328,0.00709244,0.0347518,0.0462573,1238,456,1.82942,19.011
21,568,2.15063,-18.9454,0.0453732,-0.00622633,-2.63001e-05,0.0453732,-0.00622634,-0.000509697,0.0325235,0.0442963,1245,456,2.15058,18.9454
28,568,2.65918,-18.5336,0.0447836,0.000753757,-0.000801828,0.0447982,0.000739159,-0.018203,0.0296222,0.0422092,1252,456,2.65918,18.5336
35,568,2.48865,-20.8412,0.0460964,0.00732508,0.00205028,0.0462045,0.00721696,0.0526854,0.0287014,0.0438261,1259,456,2.48867,20.8412
42,568,3.59998,-20.6736,0.0472536,0.0183993,0.00566009,0.0483241,0.0173287,0.186935,0.0282694,0.0440782,1266,456,3.59998,20.6735
49,568,4.20544,-21.4857,0.0460413,0.0246836,0.00903643,0.0493516,0.0213734,0.351142,0.0285781,0.0437323,1273,456,4.20546,21.4857
56,568,5.93188,-21.2189,0.0452692,0.0319505,0.0125452,0.052813,0.0244066,0.541396,0.0305207,0.0454604,1280,456,5.93187,21.2189
63,568,4.60901,-20.7727,0.0417234,0.0397678,0.0133942,0.0541754,0.0273157,0.748961,0.0312786,0.0416091,1287,456,4.60902,20.7727
70,568,4.06152,-21.0215,0.0366456,0.0483838,0.0137184,0.0574358,0.0275936,0.987529,0.033169,0.0456229,1294,456,4.0615,21.0215
77,568,3.84546,-20.8966,0,0,0,0,0,0,0,-1,1301,456,3.84542,20.8966
84,568,3.6488,-21.132,0.0249573,0.0605289,0.0117901,0.0640818,0.0214044,1.2781,0.037671,0.0454877,1308,456,3.6488,21.132
91,568,3.68347,-21.1817,0.0166578,0.0645712,0.00886277,0.0661581,0.015071,1.39363,0.0400386,0.0408136,1315,456,3.68345,21.1817
98,568,3.26379,-16.7012,0,0,0,0,0,0,0,-1,1322,456,3.26383,16.7012
105,568,2.72754,-17.4792,0.00224745,0.0728235,-0.00338131,0.0729852,0.00208582,-1.52303,0.0479766,0.0443283,1329,456,2.72755,17.4792
112,568,2.69922,-18.7997,-0.0044646,0.0756879,-0.0114795,0.0772996,-0.0060763,-1.43131,0.0536733,0.0456756,1336,456,2.69924,18.7997
119,568,2.52844,-20.4006,-0.0115923,0.0771327,-0.0207455,0.0817437,-0.0162033,-1.35208,0.0606231,0.0433321,1343,456,2.52847,20.4006
126,568,2.28308,-21.6259,-0.0185057,0.0778711,-0.0293087,0.0860841,-0.0267187,-1.29758,0.0680667,0.0476543,1350,456,2.28306,21.626
133,568,2.00989,-22.8754,0,0,0,0,0,0,0,-1,1357,456,2.00984,22.8754
140,568,2.61719,-23.2866,0,0,0,0,0,0,0,-1,1364,456,2.61717,23.2866
147,568,2.96558,-24.6395,-0.0149792,0.0735755,-0.0364226,0.0866313,-0.028035,-1.22661,0.0690239,0.0488101,1371,456,2.96559,24.6395
154,568,2.94617,-25.6181,-0.00990365,0.0728768,-0.035488,0.0860077,-0.0230345,-1.21641,0.0663628,0.0450268,1378,456,2.94613,25.6181
161,568,3.08923,-26.3688,0,0,0,0,0,0,0,-1,1385,456,3.08921,26.3688
168,568,-0.458252,-13.0519,0,0,0,0,0,0,0,-1,1392,456,-0.458298,13.0519
175,568,10.5151,0.747498,0,0,0,0,0,0,0,-1,1399,456,10.5152,-0.747501
182,568,6.35095,-3.63361,0,0,0,0,0,0,0,-1,1406,456,6.35093,3.63359
189,568,6.17493,-1.70911,0,0,0,0,0,0,0,-1,1413,456,6.17497,1.70911
196,568,6.04724,0.200836,0,0,0,0,0,0,0,-1,1420,456,6.04724,-0.200835
203,568,5.9281,2.08649,0,0,0,0,0,0,0,-1,1427,456,5.92812,-2.08648
210,568,1.46216,-2.50446,0,0,0,0,0,0,0,-1,1434,456,1.46219,2.50446
217,568,2.62366,-7.86703,0,0,0,0,0,0,0,-1,1441,456,2.62365,7.86704
224,568,3.43494,-12.1555,0,0,0,0,0,0,0,-1,1448,456,3.43492,12.1555
231,568,4.38245,-9.3205,0,0,0,0,0,0,0,-1,1455,456,4.38244,9.32048
238,568,3.88123,-9.43616,0,0,0,0,0,0,0,-1,1462,456,3.88117,9.43617
245,568,3.34387,-10.6774,0,0,0,0,0,0,0,-1,1469,456,3.34389,10.6774
252,568,3.56946,-9.28928,0,0,0,0,0,0,0,-1,1476,456,3.56948,9.28928
259,568,3.38843,-8.73068,0,0,0,0,0,0,0,-1,1483,456,3.38842,8.73068
266,568,3.104,-9.16876,0,0,0,0,0,0,0,-1,1490,456,3.10397,9.16876
273,568,3.77869,-13.1147,0,0,0,0,0,0,0,-1,1497,456,3.77869,13.1147
280,568,4.40002,-14.9322,0,0,0,0,0,0,0,-1,1504,456,4.4,14.9322
287,568,5.18738,-17.0979,0,0,0,0,0,0,0,-1,1511,456,5.18737,17.0979
294,568,5.27942,-16.7413,0.00264427,-5.85862e-05,-0.00209488,0.00378581,-0.00120012,-0.498933,0.00300489,0.0291573,1518,456,5.27947,16.7413
301,568,5.23975,-16.5191,0.00225613,-0.000963661,-0.00218186,0.00335774,-0.00206527,-0.467557,0.00316048,0.0195236,1525,456,5.23977,16.5191
308,568,5.24438,-16.2938,0.00179778,-0.0016082,-0.0023792,0.00302067,-0.00283109,-0.474778,0.0033791,0.0129872,1532,456,5.24441,16.2938
315,568,5.25452,-16.0674,0.00144385,-0.00183937,-0.00246144,0.00276088,-0.00315641,-0.491305,0.00341889,0.00803699,1539,456,5.25451,16.0674
322,568,5.27039,-15.8402,0.00108992,-0.00173666,-0.00237641,0.00244153,-0.00308828,-0.517135,0.00319991,0.00933047,1546,456,5.27039,15.8402
329,568,5.29858,-15.5963,0.000805775,-0.00144036,-0.00215676,0.00211436,-0.00274894,-0.545356,0.00281578,0.0107326,1553,456,5.29855,15.5963
336,568,5.31702,-15.3197,0.000579547,-0.00111497,-0.00185143,0.00176838,-0.0023038,-0.57081,0.00235784,0.0115376,1560,456,5.31701,15.3197
343,568,5.323,-15.0548,0.0003142,-0.000747744,-0.00152253,0.00139569,-0.00182923,-0.617621,0.00186751,0.0108814,1567,456,5.32298,15.0548
350,568,5.30444,-14.8163,0.00014177,-0.000317869,-0.00108112,0.00101723,-0.00119333,-0.68067,0.00127762,0.00986119,1574,456,5.30445,14.8163
357,568,5.30823,-14.5407,3.01014e-05,0.00018086,-0.000607906,0.000718043,-0.000507081,-0.847083,0.000710812,0.00918244,1581,456,5.30822,14.5407
364,568,5.31934,-14.2625,-9.49646e-05,0.000650745,-0.000159117,0.000683278,-0.000127497,-1.36912,0.000503429,0.0114937,1588,456,5.31931,14.2625
371,568,5.28442,-13.9826,-0.000233547,0.00107492,0.000247413,0.00112014,-0.000278767,1.39002,0.000854966,0.0207745,1595,456,5.28443,13.9827
378,568,5.32056,-13.6715,-0.000418968,0.00146407,0.000560574,0.00161831,-0.000573214,1.30228,0.00131236,0.0192258,1602,456,5.32053,13.6715
385,568,5.29822,-13.3994,-0.000675755,0.00179898,0.000692446,0.00197955,-0.00085633,1.3157,0.00167956,0.00922277,1609,456,5.29822,13.3994
392,568,5.26831,-13.1208,-0.000793492,0.0019603,0.000800792,0.00217624,-0.00100943,1.30741,0.00187992,0.0100979,1616,456,5.26836,13.1208
399,568,5.22986,-12.8673,-0.000639254,0.00205324,0.00104969,0.0024141,-0.00100012,1.23967,0.00202677,0.0172379,1623,456,5.22983,12.8673
406,568,5.25354,-12.5549,-0.000695014,0.00197127,0.00117471,0.00241498,-0.00113872,1.20964,0.00209537,0.0153665,1630,456,5.25357,12.5549
413,568,5.25537,-12.2179,-0.000786138,0.00164088,0.00119771,0.00213239,-0.00127765,1.18137,0.0019893,0.012013,1637,456,5.25538,12.2179
420,568,5.23987,-11.897,-0.000697927,0.00118796,0.00132051,0.00186764,-0.0013776,1.09545,0.00188075,0.0106819,1644,456,5.23985,11.897
427,568,5.21619,-11.5693,-0.000480992,0.000528128,0.00155022,0.00165383,-0.00160669,0.94273,0.00188253,0.0126361,1651,456,5.21625,11.5693
434,568,5.21436,-11.282,-0.000117947,-0.000187354,0.0018533,0.00170097,-0.00200628,0.776037,0.0021428,0.016952,1658,456,5.21439,11.282
441,568,5.18201,-11.0536,0.000289229,-0.00110546,0.00224795,0.00194552,-0.00276174,0.634998,0.00273132,0.024551,1665,456,5.18201,11.0536
448,568,5.54163,-10.5835,0.0006344,-0.00219403,0.0026997,0.00226787,-0.0038275,0.544129,0.00355736,0.041632,1672,456,5.54159,10.5835
455,568,5.76563,-10.17,0,0,0,0,0,0,0,-1,1679,456,5.76564,10.17
462,568,4.85608,-10.0762,0,0,0,0,0,0,0,-1,1686,456,4.85611,10.0762
469,568,4.95435,-9.62149,0,0,0,0,0,0,0,-1,1693,456,4.95432,9.6215
476,568,5.05249,-9.16684,0,0,0,0,0,0,0,-1,1700,456,5.05254,9.16683
483,568,4.69666,-7.96259,0,0,0,0,0,0,0,-1,1707,456,4.69671,7.96259
490,568,6.15515,-8.79865,0,0,0,0,0,0,0,-1,1714,456,6.1552,8.79865
497,568,6.58289,-3.47745,0,0,0,0,0,0,0,-1,1721,456,6.58294,3.47744
504,568,0,0,0,0,0,0,0,0,0,-1,1728,456,0,0
511,568,0,0,0,0,0,0,0,0,0,-1,1735,456,0,0
518,568,0,0,0,0,0,0,0,0,0,-1,1742,456,0,0
525,568,0,0,0,0,0,0,0,0,0,-1,1749,456,0,0
532,568,0,0,0,0,0,0,0,0,0,-1,1756,456,0,0
539,568,0,0,0,0,0,0,0,0,0,-1,1763,456,0,0
546,568,0,0,0,0,0,0,0,0,0,-1,1770,456,0,0
553,568,0,0,0,0,0,0,0,0,0,-1,1777,456,0,0
560,568,0,0,0,0,0,0,0,0,0,-1,1784,456,0,0
567,568,0,0,0,0,0,0,0,0,0,-1,1791,456,0,0
574,568,0,0,0,0,0,0,0,0,0,-1,1798,456,0,0
581,568,0,0,0,0,0,0,0,0,0,-1,1805,456,0,0
588,568,0,0,0,0,0,0,0,0,0,-1,1812,456,0,0
595,568,0,0,0,0,0,0,0,0,0,-1,1819,456,0,0
602,568,0,0,0,0,0,0,0,0,0,-1,1826,456,0,0
609,568,0,0,0,0,0,0,0,0,0,-1,1833,456,0,0
616,568,0,0,0,0,0,0,0,0,0,-1,1840,456,0,0
623,568,0,0,0,0,0,0,0,0,0,-1,1847,456,0,0
630,568,0,0,0,0,0,0,0,0,0,-1,1854,456,0,0
637,568,0,0,0,0,0,0,0,0,0,-1,1861,456,0,0
644,568,0,0,0,0,0,0,0,0,0,-1,1868,456,0,0
651,568,0,0,0,0,0,0,0,0,0,-1,1875,456,0,0
658,568,0,0,0,0,0,0,0,0,0,-1,1882,456,0,0
665,568,0,0,0,0,0,0,0,0,0,-1,1889,456,0,0
672,568,0,0,0,0,0,0,0,0,0,-1,1896,456,0,0
679,568,0,0,0,0,0,0,0,0,0,-1,1903,456,0,0
686,568,0,0,0,0,0,0,0,0,0,-1,1910,456,0,0
693,568,0,0,0,0,0,0,0,0,0,-1,1917,456,0,0
700,568,0,0,0,0,0,0,0,0,0,-1,1924,456,0,0
707,568,0,0,0,0,0,0,0,0,0,-1,1931,456,0,0
714,568,0,0,0,0,0,0,0,0,0,-1,1938,456,0,0
721,568,0,0,0,0,0,0,0,0,0,-1,1945,456,0,0
728,568,0,0,0,0,0,0,0,0,0,-1,1952,456,0,0
735,568,0,0,0,0,0,0,0,0,0,-1,1959,456,0,0
742,568,0,0,0,0,0,0,0,0,0,-1,1966,456,0,0
749,568,0,0,0,0,0,0,0,0,0,-1,1973,456,0,0
756,568,0,0,0,0,0,0,0,0,0,-1,1980,456,0,0
763,568,0,0,0,0,0,0,0,0,0,-1,1987,456,0,0
770,568,0,0,0,0,0,0,0,0,0,-1,1994,456,0,0
777,568,0,0,0,0,0,0,0,0,0,-1,2001,456,0,0
784,568,0,0,0,0,0,0,0,0,0,-1,2008,456,0,0
791,568,0,0,0,0,0,0,0,0,0,-1,2015,456,0,0
798,568,0,0,0,0,0,0,0,0,0,-1,2022,456,0,0
805,568,0,0,0,0,0,0,0,0,0,-1,2029,456,0,0
812,568,0,0,0,0,0,0,0,0,0,-1,2036,456,0,0
-700,561,0,0,0,0,0,0,0,0,0,-1,524,463,0,0
-693,561,0,0,0,0,0,0,0,0,0,-1,531,463,0,0
-686,561,0,0,0,0,0,0,0,0,0,-1,538,463,0,0
-679,561,0,0,0,0,0,0,0,0,0,-1,545,463,0,0
-672,561,0,0,0,0,0,0,0,0,0,-1,552,463,0,0
-665,561,0,0,0,0,0,0,0,0,0,-1,559,463,0,0
-658,561,0,0,0,0,0,0,0,0,0,-1,566,463,0,0
-651,561,0,0,0,0,0,0,0,0,0,-1,573,463,0,0
-644,561,0,0,0,0,0,0,0,0,0,-1,580,463,0,0
-637,561,0,0,0,0,0,0,0,0,0,-1,587,463,0,0
-630,561,0,0,0,0,0,0,0,0,0,-1,594,463,0,0
-623,561,0,0,0,0,0,0,0,0,0,-1,601,463,0,0
-616,561,0,0,0,0,0,0,0,0,0,-1,608,463,0,0
-609,561,0,0,0,0,0,0,0,0,0,-1,615,463,0,0
-602,561,0,0,0,0,0,0,0,0,0,-1,622,463,0,0
-595,561,0,0,0,0,0,0,0,0,0,-1,629,463,0,0
-588,561,0,0,0,0,0,0,0,0,0,-1,636,463,0,0
-581,561,0,0,0,0,0,0,0,0,0,-1,643,463,0,0
-574,561,0,0,0,0,0,0,0,0,0,-1,650,463,0,0
-567,561,0,0,0,0,0,0,0,0,0,-1,657,463,0,0
-560,561,0,0,0,0,0,0,0,0,0,-1,664,463,0,0
-553,561,0,0,0,0,0,0,0,0,0,-1,671,463,0,0
-546,561,0,0,0,0,0,0,0,0,0,-1,678,463,0,0
-539,561,0,0,0,0,0,0,0,0,0,-1,685,463,0,0
-532,561,0,0,0,0,0,0,0,0,0,-1,692,463,0,0
-525,561,0,0,0,0,0,0,0,0,0,-1,699,463,0,0
-518,561,0,0,0,0,0,0,0,0,0,-1,706,463,0,0
-511,561,0,0,0,0,0,0,0,0,0,-1,713,463,0,0
-504,561,0,0,0,0,0,0,0,0,0,-1,720,463,0,0
-497,561,0,0,0,0,0,0,0,0,0,-1,727,463,0,0
-490,561,0,0,0,0,0,0,0,0,0,-1,734,463,0,0
-483,561,0,0,0,0,0,0,0,0,0,-1,741,463,0,0
-476,561,0,0,0,0,0,0,0,0,0,-1,748,463,0,0
-469,561,0,0,0,0,0,0,0,0,0,-1,755,463,0,0
-462,561,0,0,0,0,0,0,0,0,0,-1,762,463,0,0
-455,561,0,0,0,0,0,0,0,0,0,-1,769,463,0,0
-448,561,0,0,0,0,0,0,0,0,0,-1,776,463,0,0
-441,561,0,0,0,0,0,0,0,0,0,-1,783,463,0,0
-434,561,0,0,0,0,0,0,0,0,0,-1,790,463,0,0
-427,561,0,0,0,0,0,0,0,0,0,-1,797,463,0,0
-420,561,0,0,0,0,0,0,0,0,0,-1,804,463,0,0
-413,561,0,0,0,0,0,0,0,0,0,-1,811,463,0,0
-406,561,0,0,0,0,0,0,0,0,0,-1,818,463,0,0
-399,561,0,0,0,0,0,0,0,0,0,-1,825,463,0,0
-392,561,4.92407,-2.54578,0,0,0,0,0,0,0,-1,832,463,4.92408,2.54576
-385,561,5.55634,-1.02338,0,0,0,0,0,0,0,-1,839,463,5.55634,1.02338
-378,561,0.160522,-4.51785,0,0,0,0,0,0,0,-1,846,463,0.160542,4.51785
-371,561,1.06299,-7.56818,0,0,0,0,0,0,0,-1,853,463,1.06297,7.56817
-364,561,1.45264,-7.57684,0,0,0,0,0,0,0,-1,860,463,1.45264,7.57684
-357,561,1.29395,-8.94031,0,0,0,0,0,0,0,-1,867,463,1.29393,8.94031
-350,561,1.61902,-9.08127,0,0,0,0,0,0,0,-1,874,463,1.61905,9.08126
-343,561,1.409,-10.5563,0,0,0,0,0,0,0,-1,881,463,1.40902,10.5563
-336,561,1.57874,-11.2803,0,0,0,0,0,0,0,-1,888,463,1.57872,11.2803
-329,561,1.39484,-11.7505,0,0,0,0,0,0,0,-1,895,463,1.39485,11.7505
-322,561,1.78381,-11.6402,0,0,0,0,0,0,0,-1,902,463,1.78381,11.6402
-315,561,1.55127,-12.1078,-0.00246563,-0.00966117,-0.00229409,-0.00179645,-0.0103303,-0.283819,0.00637304,0.020697,909,463,1.55127,12.1078
-308,561,1.50653,-12.4848,-0.00233781,-0.00807791,-0.00201169,-0.00170299,-0.00871272,-0.305674,0.00533225,0.0157673,916,463,1.50654,12.4848
-301,561,1.46844,-12.8522,-0.00211995,-0.00660637,-0.00171601,-0.00153886,-0.00718746,-0.32651,0.00436996,0.0113752,923,463,1.46842,12.8522
-294,561,1.44934,-13.131,-0.00181927,-0.00525382,-0.00145401,-0.00128639,-0.0057867,-0.351286,0.00350851,0.0103673,930,463,1.44933,13.131
-287,561,1.43439,-13.4102,-0.00151915,-0.00423658,-0.00124033,-0.00103816,-0.00471757,-0.369939,0.00286245,0.00965485,937,463,1.43441,13.4103
-280,561,1.41028,-13.6904,-0.00105573,-0.00330437,-0.00121311,-0.000526047,-0.00383405,-0.411684,0.00239998,0.0128432,944,463,1.41029,13.6904
-273,561,1.40302,-13.9654,-0.000563341,-0.00267044,-0.00113903,-6.53234e-05,-0.00316846,-0.412183,0.00209087,0.01516,951,463,1.40302,13.9654
-266,561,1.40912,-14.2503,-0.000240584,-0.00213388,-0.000628438,-5.09764e-05,-0.00232348,-0.293028,0.00153228,0.00992768,958,463,1.4091,14.2503
-259,561,1.40094,-14.5215,0.000150665,-0.00212951,-0.00049004,0.00025152,-0.00223036,-0.202976,0.00157745,0.0106275,965,463,1.40091,14.5215
-252,561,1.38342,-14.7795,0.000346394,-0.00244939,-0.000112641,0.000350925,-0.00245392,-0.0402026,0.00176459,0.0144194,972,463,1.3834,14.7795
-245,561,1.38605,-15.0662,0.000501337,-0.00315617,0.000448138,0.000555445,-0.00321028,0.120158,0.00234734,0.0176215,979,463,1.38608,15.0662
-238,561,1.41034,-15.3259,0.000788472,-0.00416039,0.00118801,0.00105889,-0.0044308,0.223806,0.00336287,0.0138198,986,463,1.41035,15.3259
-231,561,1.39526,-15.565,0.000903532,-0.00543624,0.00199698,0.00148012,-0.00601283,0.281088,0.00458231,0.0103682,993,463,1.39526,15.565
-224,561,1.39948,-15.8189,0.000963068,-0.00661135,0.00288315,0.00193564,-0.00758392,0.325343,0.00580966,0.0104091,1000,463,1.39945,15.8189
-217,561,1.42352,-16.044,0.00109923,-0.0077723,0.00376753,0.00248329,-0.00915635,0.352059,0.00707871,0.0108565,1007,463,1.42354,16.044
-210,561,1.42712,-16.2632,0.00114755,-0.00883669,0.00455764,0.00291512,-0.0106043,0.369967,0.00821545,0.0111764,1014,463,1.4271,16.2633
-203,561,1.44135,-16.4991,0.00152307,-0.00983756,0.00542826,0.00369972,-0.0120142,0.381356,0.00948633,0.012446,1021,463,1.44137,16.4991
-196,561,1.4613,-16.7099,0.00401277,-0.00985207,0.0061808,0.00636802,-0.0122073,0.364072,0.0108997,0.0139611,1028,463,1.46132,16.7099
-189,561,1.45667,-16.8954,0.00782192,-0.00918219,0.00615012,0.00981315,-0.0111734,0.313119,0.0121251,0.0177382,1035,463,1.45664,16.8954
-182,561,1.47144,-17.1234,0.0114119,-0.00828527,0.00613462,0.0131663,-0.0100396,0.278541,0.0134384,0.0200285,1042,463,1.47142,17.1234
-175,561,1.44922,-17.3141,0.0161552,-0.00740056,0.00597657,0.0175849,-0.00883017,0.234791,0.0155274,0.029942,1049,463,1.44926,17.3141
-168,561,1.38855,-17.5169,0.0218472,-0.0065075,0.00527974,0.0227984,-0.0074587,0.178247,0.0182019,0.0434582,1056,463,1.38854,17.5169
-161,561,1.42004,-17.7585,0.0281788,-0.00516017,0.00406374,0.028667,-0.00564836,0.11956,0.0212459,0.0474586,1063,463,1.42006,17.7585
-154,561,0.992432,-17.8562,0.0349479,-0.00352697,0.00260505,0.0351235,-0.00370255,0.0672986,0.0247424,0.0450755,1070,463,0.992416,17.8562
-147,561,1.56873,-18.4672,0.0417682,-0.00170631,0.000923602,0.0417878,-0.00172592,0.0212319,0.0284513,0.044635,1077,463,1.56876,18.4672
-140,561,2.12659,-18.3629,0.047474,-0.000515378,-0.000814188,0.0474878,-0.000529189,-0.0169595,0.0318364,0.0472998,1084,463,2.12664,18.3629
-133,561,2.19604,-18.6378,0,0,0,0,0,0,0,-1,1091,463,2.19599,18.6378
-126,561,1.18896,-16.8632,0,0,0,0,0,0,0,-1,1098,463,1.18901,16.8632
-119,561,1.6178,-17.1851,0,0,0,0,0,0,0,-1,1105,463,1.61785,17.1851
-112,561,2.04675,-17.5069,0,0,0,0,0,0,0,-1,1112,463,2.0467,17.5069
-105,561,0.530518,-13.5379,0,0,0,0,0,0,0,-1,1119,463,0.530477,13.5379
-98,561,1.5387,-7.54352,0,0,0,0,0,0,0,-1,1126,463,1.53871,7.54351
-91,561,1.29553,-6.57968,0,0,0,0,0,0,0,-1,1133,463,1.29549,6.5797
-84,561,1.23364,-5.84555,0,0,0,0,0,0,0,-1,1140,463,1.23363,5.84556
-77,561,-2.36023,1.00204,0,0,0,0,0,0,0,-1,1147,463,-2.3602,-1.00205
-70,561,-3.90015,-1.41541,0,0,0,0,0,0,0,-1,1154,463,-3.90009,1.4154
-63,561,-6.95691,-4.02756,0,0,0,0,0,0,0,-1,1161,463,-6.95696,4.02756
-56,561,-5.37988,-6.66855,0,0,0,0,0,0,0,-1,1168,463,-5.37988,6.66854
-49,561,-5.7439,-9.11029,0,0,0,0,0,0,0,-1,1175,463,-5.74387,9.1103
-42,561,-1.72644,-5.63065,0,0,0,0,0,0,0,-1,1182,463,-1.72648,5.63064
-35,561,-1.65674,-4.87994,0,0,0,0,0,0,0,-1,1189,463,-1.6567,4.87993
-28,561,-1.91418,-3.86896,0,0,0,0,0,0,0,-1,1196,463,-1.91414,3.86895
-21,561,0.00463867,-18.686,0,0,0,0,0,0,0,-1,1203,463,0.0046326,18.686
-14,561,0.477051,-19.6028,0.0401556,-0.0259983,-0.00474921,0.0404949,-0.0263375,-0.0713029,0.0388732,0.0448801,1210,463,0.477018,19.6028
-7,561,1.04956,-20.5483,0.0373988,-0.0269601,-0.00230257,0.0374811,-0.0270424,-0.0357161,0.0374148,0.0462167,1217,463,1.04953,20.5483
0,561,1.65588,-18.4325,0,0,0,0,0,0,0,-1,1224,463,1.65584,18.4325
7,561,1.49072,-18.7251,0.0441998,-0.0189955,8.27607e-05,0.0441999,-0.0189956,0.0013096,0.0374407,0.0478966,1231,463,1.49069,18.7251
14,561,1.68628,-18.7255,0.0477377,-0.0106198,0.000524793,0.0477424,-0.0106245,0.00899174,0.0358978,0.0457138,1238,463,1.68626,18.7255
21,561,1.66138,-18.6409,0.0497915,-0.00133951,0.000450423,0.0497954,-0.00134347,0.00880829,0.0336537,0.0462481,1245,463,1.66143,18.6409
28,561,1.42603,-18.3512,0.0491742,0.00668405,-7.5865e-05,0.0491743,0.00668392,-0.00178546,0.0307976,0.0461561,1252,463,1.42601,18.3512
35,561,1.95752,-21.2569,0.0491778,0.0135929,0.00163473,0.0492528,0.0135179,0.0458102,0.0293846,0.0415003,1259,463,1.95758,21.2569
42,561,3.51147,-21.4272,0.0485507,0.0250882,0.00415967,0.0492664,0.0243725,0.170375,0.0284445,0.0437799,1266,463,3.51143,21.4272
49,561,3.92834,-21.6623,0.045908,0.030843,0.00664689,0.0484214,0.0283296,0.361511,0.0280906,0.0460909,1273,463,3.92835,21.6623
56,561,4.27478,-21.7859,0.043897,0.0380056,0.00952248,0.050919,0.0309836,0.635395,0.0296279,0.0436386,1280,463,4.2748,21.7859
63,561,4.55151,-21.7531,0.0379446,0.046019,0.00928037,0.0521023,0.0318613,0.990565,0.0303296,0.0439745,1287,463,4.5515,21.753
70,561,4.65259,-21.4663,0.030059,0.0548421,0.00871222,0.0575983,0.0273028,1.2644,0.0332693,0.0490645,1294,463,4.65263,21.4663
77,561,4.42188,-20.9272,0.0220935,0.0610141,0.00786934,0.062545,0.0205626,1.37866,0.0368095,0.0462278,1301,463,4.42194,20.9272
84,561,3.95898,-20.8688,0.0147343,0.0671592,0.00666679,0.0679937,0.0138998,1.44627,0.0414796,0.0466103,1308,463,3.95898,20.8688
91,561,3.86938,-20.9682,0.00468717,0.071911,0.0041137,0.0721618,0.00443638,1.5099,0.0466993,0.0439173,1315,463,3.86933,20.9682
98,561,3.73291,-20.8455,-0.00413571,0.0768692,-0.00159938,0.0769008,-0.00416727,-1.55106,0.0527112,0.0470201,1322,463,3.73293,20.8455
105,561,2.396,-18.0159,0,0,0,0,0,0,0,-1,1329,463,2.39599,18.0159
112,561,2.91028,-20.4592,0,0,0,0,0,0,0,-1,1336,463,2.91023,20.4592
119,561,2.09473,-21.675,-0.0258419,0.0890606,-0.0242597,0.0939726,-0.030754,-1.37102,0.0750309,0.0451416,1343,463,2.09471,21.675
126,561,1.34241,-22.2433,-0.0330004,0.0904664,-0.0329639,0.0987161,-0.0412501,-1.32557,0.0830488,0.0452497,1350,463,1.34245,22.2433
133,561,1.37695,-23.4245,0,0,0,0,0,0,0,-1,1357,463,1.37694,23.4245
140,561,2.98511,-12.0449,0,0,0,0,0,0,0,-1,1364,463,2.98513,12.0448
147,561,2.84863,-25.052,0,0,0,0,0,0,0,-1,1371,463,2.84866,25.052
154,561,2.43567,-26.5446,0,0,0,0,0,0,0,-1,1378,463,2.43561,26.5446
161,561,2.57678,-27.1433,0,0,0,0,0,0,0,-1,1385,463,2.57675,27.1433
168,561,0.764893,-12.8633,0,0,0,0,0,0,0,-1,1392,463,0.764939,12.8633
175,561,10.4185,0.276398,0,0,0,0,0,0,0,-1,1399,463,10.4185,-0.276394
182,561,6.45703,-4.02127,0,0,0,0,0,0,0,-1,1406,463,6.45704,4.02127
189,561,6.50854,-2.08685,0,0,0,0,0,0,0,-1,1413,463,6.50851,2.08686
196,561,6.44775,-0.27182,0,0,0,0,0,0,0,-1,1420,463,6.44773,0.271814
203,561,6.18591,1.1301,0,0,0,0,0,0,0,-1,1427,463,6.18592,-1.13009
210,561,5.68713,2.68427,0,0,0,0,0,0,0,-1,1434,463,5.6871,-2.68425
217,561,3.61743,-7.33582,0,0,0,0,0,0,0,-1,1441,463,3.61738,7.33581
224,561,4.27466,-8.59171,0,0,0,0,0,0,0,-1,1448,463,4.27466,8.59171
231,561,4.93188,-9.8476,0,0,0,0,0,0,0,-1,1455,463,4.93193,9.84761
238,561,2.18018,-5.18359,0,0,0,0,0,0,0,-1,1462,463,2.18023,5.18359
245,561,3.07568,-3.50238,0,0,0,0,0,0,0,-1,1469,463,3.0757,3.50238
252,561,3.47412,-3.71109,0,0,0,0,0,0,0,-1,1476,463,3.47413,3.71109
259,561,3.42212,-3.2334,0,0,0,0,0,0,0,-1,1483,463,3.42214,3.2334
266,561,4.44373,-5.90027,0,0,0,0,0,0,0,-1,1490,463,4.44372,5.90026
273,561,2.59485,-3.65268,0,0,0,0,0,0,0,-1,1497,463,2.5948,3.65268
280,561,3.10767,-6.38235,0,0,0,0,0,0,0,-1,1504,463,3.10766,6.38235
287,561,4.91809,-14.429,0,0,0,0,0,0,0,-1,1511,463,4.9181,14.429
294,561,5.56653,-16.6809,0,0,0,0,0,0,0,-1,1518,463,5.56653,16.6809
301,561,5.45715,-16.4122,0.00263878,-0.0019432,-0.0032924,0.00435884,-0.00366326,-0.481434,0.00463736,0.0384967,1525,463,5.4572,16.4122
308,561,5.47876,-16.2432,0.00201215,-0.00275005,-0.00360798,0.00395391,-0.00469181,-0.493728,0.00499767,0.0320346,1532,463,5.47871,16.2432
315,561,5.51233,-16.0697,0.00153643,-0.00301246,-0.00373322,0.00363349,-0.00510951,-0.511804,0.00507169,0.0204214,1539,463,5.51236,16.0697
322,561,5.53455,-15.8779,0.001098,-0.00284238,-0.00364011,0.00326689,-0.00501127,-0.53735,0.00481464,0.0215119,1546,463,5.53451,15.8779
329,561,5.54431,-15.5985,0.000757755,-0.00244888,-0.00338991,0.00290438,-0.00459551,-0.564504,0.0043666,0.0154771,1553,463,5.54429,15.5985
336,561,5.58252,-15.3103,0.000507016,-0.00205974,-0.00302442,0.00250908,-0.0040618,-0.584743,0.00382885,0.0110018,1560,463,5.58249,15.3103
343,561,5.57214,-15.0625,0.000219215,-0.0016245,-0.00262134,0.00207608,-0.00348136,-0.616316,0.0032426,0.00984582,1567,463,5.57216,15.0625
350,561,5.56323,-14.8037,5.77784e-05,-0.00117282,-0.00209931,0.0016301,-0.00274515,-0.642843,0.00255325,0.00983572,1574,463,5.56317,14.8037
357,561,5.58606,-14.5271,-3.62155e-06,-0.000632518,-0.0015389,0.00125262,-0.00188876,-0.684619,0.00182603,0.00992125,1581,463,5.586,14.5271
364,561,5.59509,-14.2659,-4.15882e-05,-0.000124294,-0.000959742,0.000877691,-0.00104357,-0.763868,0.00111062,0.00920857,1588,463,5.5951,14.2659
371,561,5.5874,-13.9747,-9.62341e-05,0.00032709,-0.000442646,0.000606077,-0.000375221,-1.00842,0.000571755,0.0154478,1595,463,5.58746,13.9747
378,561,5.57263,-13.6874,-0.000185097,0.000742205,-1.90748e-05,0.000742597,-0.000185489,-1.55024,0.000567098,0.0117868,1602,463,5.57267,13.6874
385,561,5.5686,-13.3983,-0.000329826,0.00117605,0.000258753,0.00121927,-0.000373047,1.40529,0.000961626,0.010752,1609,463,5.56864,13.3982
392,561,5.56616,-13.0976,-0.000375846,0.00138012,0.000510342,0.00151767,-0.000513394,1.30753,0.00121948,0.013982,1616,463,5.56615,13.0976
399,561,5.5343,-12.8315,-0.000243778,0.00148106,0.000790997,0.00178888,-0.000551591,1.19968,0.00141281,0.020284,1623,463,5.53427,12.8315
406,561,5.53149,-12.5074,-0.000288498,0.00144366,0.000946137,0.00186026,-0.0007051,1.15602,0.00153034,0.0191649,1630,463,5.53149,12.5074
413,561,5.55603,-12.1737,-0.000361109,0.00124683,0.00102891,0.00174862,-0.000862904,1.11704,0.0015364,0.0169728,1637,463,5.55598,12.1737
420,561,5.52075,-11.8989,-0.000311004,0.00091033,0.0011628,0.00161306,-0.00101374,1.02719,0.00152969,0.0135576,1644,463,5.52075,11.8989
427,561,5.52295,-11.5726,-0.000171453,0.000405328,0.00138119,0.00152791,-0.00129403,0.888319,0.00163111,0.00992434,1651,463,5.52295,11.5726
434,561,5.53333,-11.2506,7.81815e-05,-0.000176913,0.00166414,0.00161966,-0.00171839,0.747151,0.0019275,0.0114509,1658,463,5.53335,11.2506
441,561,5.52734,-10.9548,0.000351952,-0.000848191,0.00202866,0.00186743,-0.00236367,0.6416,0.00244842,0.0142756,1665,463,5.52739,10.9548
448,561,5.53125,-10.6287,0.000584601,-0.00165469,0.00242869,0.0021393,-0.00320939,0.569413,0.0031086,0.0196454,1672,463,5.5312,10.6287
455,561,5.61401,-10.3228,0.000760925,-0.00259869,0.00285322,0.0023921,-0.00422986,0.519348,0.00387196,0.0360834,1679,463,5.61398,10.3228
462,561,5.3689,-10.0087,0.000711488,-0.00350089,0.00318265,0.00242175,-0.00521116,0.493095,0.00450388,0.0372026,1686,463,5.36892,10.0087
469,561,5.34192,-9.61484,-6.5059e-05,-0.00508446,0.00278094,0.0011712,-0.00632072,0.418311,0.0046536,0.0258599,1693,463,5.34189,9.61484
476,561,5.2793,-9.28754,-0.00127151,-0.00673916,0.00205903,-0.000582848,-0.00742782,0.322762,0.00476948,0.0451128,1700,463,5.27935,9.28754
483,561,5.20142,-8.97656,0,0,0,0,0,0,0,-1,1707,463,5.20144,8.97658
490,561,4.849,-7.7308,0,0,0,0,0,0,0,-1,1714,463,4.84904,7.73081
497,561,7.30652,-2.46649,0,0,0,0,0,0,0,-1,1721,463,7.30649,2.4665
504,561,6.45044,-2.35263,0,0,0,0,0,0,0,-1,1728,463,6.4504,2.35263
511,561,0,0,0,0,0,0,0,0,0,-1,1735,463,0,0
518,561,0,0,0,0,0,0,0,0,0,-1,1742,463,0,0
525,561,0,0,0,0,0,0,0,0,0,-1,1749,463,0,0
532,561,0,0,0,0,0,0,0,0,0,-1,1756,463,0,0
539,561,0,0,0,0,0,0,0,0,0,-1,1763,463,0,0
546,561,0,0,0,0,0,0,0,0,0,-1,1770,463,0,0
553,561,0,0,0,0,0,0,0,0,0,-1,1777,463,0,0
560,561,0,0,0,0,0,0,0,0,0,-1,1784,463,0,0
567,561,0,0,0,0,0,0,0,0,0,-1,1791,463,0,0
574,561,0,0,0,0,0,0,0,0,0,-1,1798,463,0,0
581,561,0,0,0,0,0,0,0,0,0,-1,1805,463,0,0
588,561,0,0,0,0,0,0,0,0,0,-1,1812,463,0,0
595,561,0,0,0,0,0,0,0,0,0,-1,1819,463,0,0
602,561,0,0,0,0,0,0,0,0,0,-1,1826,463,0,0
609,561,0,0,0,0,0,0,0,0,0,-1,1833,463,0,0
616,561,0,0,0,0,0,0,0,0,0,-1,1840,463,0,0
623,561,0,0,0,0,0,0,0,0,0,-1,1847,463,0,0
630,561,0,0,0,0,0,0,0,0,0,-1,1854,463,0,0
637,561,0,0,0,0,0,0,0,0,0,-1,1861,463,0,0
644,561,0,0,0,0,0,0,0,0,0,-1,1868,463,0,0
651,561,0,0,0,0,0,0,0,0,0,-1,1875,463,0,0
658,561,0,0,0,0,0,0,0,0,0,-1,1882,463,0,0
665,561,0,0,0,0,0,0,0,0,0,-1,1889,463,0,0
672,561,0,0,0,0,0,0,0,0,0,-1,1896,463,0,0
679,561,0,0,0,0,0,0,0,0,0,-1,1903,463,0,0
686,561,0,0,0,0,0,0,0,0,0,-1,1910,463,0,0
693,561,0,0,0,0,0,0,0,0,0,-1,1917,463,0,0
700,561,0,0,0,0,0,0,0,0,0,-1,1924,463,0,0
707,561,0,0,0,0,0,0,0,0,0,-1,1931,463,0,0
714,561,0,0,0,0,0,0,0,0,0,-1,1938,463,0,0
721,561,0,0,0,0,0,0,0,0,0,-1,1945,463,0,0
728,561,0,0,0,0,0,0,0,0,0,-1,1952,463,0,0
735,561,0,0,0,0,0,0,0,0,0,-1,1959,463,0,0
742,561,0,0,0,0,0,0,0,0,0,-1,1966,463,0,0
749,561,0,0,0,0,0,0,0,0,0,-1,1973,463,0,0
756,561,0,0,0,0,0,0,0,0,0,-1,1980,463,0,0
763,561,0,0,0,0,0,0,0,0,0,-1,1987,463,0,0
770,561,0,0,0,0,0,0,0,0,0,-1,1994,463,0,0
777,561,0,0,0,0,0,0,0,0,0,-1,2001,463,0,0
784,561,0,0,0,0,0,0,0,0,0,-1,2008,463,0,0
791,561,0,0,0,0,0,0,0,0,0,-1,2015,463,0,0
798,561,0,0,0,0,0,0,0,0,0,-1,2022,463,0,0
805,561,0,0,0,0,0,0,0,0,0,-1,2029,463,0,0
812,561,0,0,0,0,0,0,0,0,0,-1,2036,463,0,0
-700,554,0,0,0,0,0,0,0,0,0,-1,524,470,0,0
-693,554,0,0,0,0,0,0,0,0,0,-1,531,470,0,0
-686,554,0,0,0,0,0,0,0,0,0,-1,538,470,0,0
-679,554,0,0,0,0,0,0,0,0,0,-1,545,470,0,0
-672,554,0,0,0,0,0,0,0,0,0,-1,552,470,0,0
-665,554,0,0,0,0,0,0,0,0,0,-1,559,470,0,0
-658,554,0,0,0,0,0,0,0,0,0,-1,566,470,0,0
-651,554,0,0,0,0,0,0,0,0,0,-1,573,470,0,0
-644,554,0,0,0,0,0,0,0,0,0,-1,580,470,0,0
-637,554,0,0,0,0,0,0,0,0,0,-1,587,470,0,0
-630,554,0,0,0,0,0,0,0,0,0,-1,594,470,0,0
-623,554,0,0,0,0,0,0,0,0,0,-1,601,470,0,0
-616,554,0,0,0,0,0,0,0,0,0,-1,608,470,0,0
-609,554,0,0,0,0,0,0,0,0,0,-1,615,470,0,0
-602,554,0,0,0,0,0,0,0,0,0,-1,622,470,0,0
-595,554,0,0,0,0,0,0,0,0,0,-1,629,470,0,0
-588,554,0,0,0,0,0,0,0,0,0,-1,636,470,0,0
-581,554,0,0,0,0,0,0,0,0,0,-1,643,470,0,0
-574,554,0,0,0,0,0,0,0,0,0,-1,650,470,0,0
-567,554,0,0,0,0,0,0,0,0,0,-1,657,470,0,0
-560,554,0,0,0,0,0,0,0,0,0,-1,664,470,0,0
-553,554,0,0,0,0,0,0,0,0,0,-1,671,470,0,0
-546,554,0,0,0,0,0,0,0,0,0,-1,678,470,0,0
-539,554,0,0,0,0,0,0,0,0,0,-1,685,470,0,0
-532,554,0,0,0,0,0,0,0,0,0,-1,692,470,0,0
-525,554,0,0,0,0,0,0,0,0,0,-1,699,470,0,0
-518,554,0,0,0,0,0,0,0,0,0,-1,706,470,0,0
-511,554,0,0,0,0,0,0,0,0,0,-1,713,470,0,0
-504,554,0,0,0,0,0,0,0,0,0,-1,720,470,0,0
-497,554,0,0,0,0,0,0,0,0,0,-1,727,470,0,0
-490,554,0,0,0,0,0,0,0,0,0,-1,734,470,0,0
-483,554,0,0,0,0,0,0,0,0,0,-1,741,470,0,0
-476,554,0,0,0,0,0,0,0,0,0,-1,748,470,0,0
-469,554,0,0,0,0,0,0,0,0,0,-1,755,470,0,0
-462,554,0,0,0,0,0,0,0,0,0,-1,762,470,0,0
-455,554,0,0,0,0,0,0,0,0,0,-1,769,470,0,0
-448,554,0,0,0,0,0,0,0,0,0,-1,776,470,0,0
-441,554,0,0,0,0,0,0,0,0,0,-1,783,470,0,0
-434,554,0,0,0,0,0,0,0,0,0,-1,790,470,0,0
-427,554,0,0,0,0,0,0,0,0,0,-1,797,470,0,0
-420,554,0,0,0,0,0,0,0,0,0,-1,804,470,0,0
-413,554,0,0,0,0,0,0,0,0,0,-1,811,470,0,0
-406,554,0,0,0,0,0,0,0,0,0,-1,818,470,0,0
-399,554,-1.32275,-3.95142,0,0,0,0,0,0,0,-1,825,470,-1.32275,3.95141
-392,554,-1.35632,-3.7406,0,0,0,0,0,0,0,-1,832,470,-1.35632,3.7406
-385,554,-0.849243,-4.14447,0,0,0,0,0,0,0,-1,839,470,-0.849262,4.14446
-378,554,-0.982666,-4.55084,0,0,0,0,0,0,0,-1,846,470,-0.982671,4.55084
-371,554,-1.74542,-4.63467,0,0,0,0,0,0,0,-1,853,470,-1.74541,4.63468
-364,554,1.04883,-7.68756,0,0,0,0,0,0,0,-1,860,470,1.0488,7.68757
-357,554,-0.0963745,-9.06607,0,0,0,0,0,0,0,-1,867,470,-0.0963828,9.06609
-350,554,0.740173,-10.706,0,0,0,0,0,0,0,-1,874,470,0.740173,10.706
-343,554,1.02075,-10.884,0.00148447,-0.00927616,-0.00608173,0.00422421,-0.0120159,-0.423258,0.0097293,0.0461982,881,470,1.02076,10.884
-336,554,1.27344,-11.3127,0.000645611,-0.00864585,-0.00567047,0.00333043,-0.0113307,-0.442203,0.00887473,0.0375413,888,470,1.27341,11.3127
-329,554,1.21887,-11.6568,0.000168879,-0.00801073,-0.00506973,0.0025928,-0.0104347,-0.445988,0.00796268,0.0167865,895,470,1.21885,11.6568
-322,554,1.19885,-11.9472,-0.000269298,-0.00726068,-0.00436553,0.00182766,-0.00935764,-0.4478,0.00692847,0.0104942,902,470,1.19884,11.9472
-315,554,1.19672,-12.2425,-0.000547934,-0.00625379,-0.0037401,0.00130313,-0.00810485,-0.459578,0.0058859,0.0109677,909,470,1.19673,12.2424
-308,554,1.16772,-12.548,-0.00058081,-0.00510707,-0.00319811,0.00107393,-0.00676181,-0.477479,0.00490519,0.0127368,916,470,1.16774,12.548
-301,554,1.18097,-12.8368,-0.000542303,-0.00407648,-0.00263126,0.000860173,-0.00547895,-0.489702,0.00397054,0.0126773,923,470,1.18095,12.8368
-294,554,1.16278,-13.1174,-0.00036465,-0.00323139,-0.00209294,0.0007387,-0.00433473,-0.485152,0.00316492,0.0111541,930,470,1.16279,13.1174
-287,554,1.14453,-13.4071,-0.000154542,-0.00273903,-0.00163712,0.000638889,-0.00353246,-0.451294,0.00259429,0.0111787,937,470,1.14453,13.4071
-280,554,1.14197,-13.6833,0.000164195,-0.00235884,-0.00137675,0.000769994,-0.00296464,-0.414524,0.00227691,0.0112452,944,470,1.14199,13.6833
-273,554,1.12598,-13.9788,0.000492766,-0.00227306,-0.0010726,0.00085997,-0.00264027,-0.329844,0.00210619,0.0144219,951,470,1.12598,13.9788
-266,554,1.12061,-14.2592,0.000701495,-0.00232451,-0.000439681,0.000764086,-0.0023871,-0.141406,0.00189807,0.0119793,958,470,1.12062,14.2592
-259,554,1.12115,-14.4846,0.000905359,-0.00285904,-1.64507e-05,0.00090543,-0.00285911,-0.00436995,0.00226892,0.0120935,965,470,1.12118,14.4847
-252,554,1.11951,-14.7465,0.000923685,-0.00372753,0.000618872,0.00100462,-0.00380847,0.130042,0.0029318,0.0142091,972,470,1.11951,14.7465
-245,554,1.12628,-15.021,0.000953856,-0.00490439,0.00137097,0.00125882,-0.00520935,0.218881,0.00395978,0.0163517,979,470,1.12629,15.021
-238,554,1.14441,-15.2949,0.00114606,-0.00629999,0.00225009,0.00177319,-0.00692712,0.271813,0.00530879,0.0122998,986,470,1.14439,15.2949
-231,554,1.1413,-15.5534,0.00118786,-0.00794447,0.0031996,0.00219729,-0.0089539,0.305604,0.00682071,0.0101094,993,470,1.14129,15.5534
-224,554,1.15833,-15.8001,0.00115303,-0.00946179,0.00429597,0.00267379,-0.0109825,0.340232,0.00835678,0.010085,1000,470,1.15834,15.8002
-217,554,1.18262,-16.0253,0.00118537,-0.0109513,0.00542327,0.00325563,-0.0130215,0.364663,0.00994545,0.0108425,1007,470,1.1826,16.0253
-210,554,1.1947,-16.2625,0.00117285,-0.0122964,0.00642703,0.00374746,-0.014871,0.381015,0.0113709,0.0145237,1014,470,1.1947,16.2626
-203,554,1.19818,-16.5265,0.0016361,-0.0135217,0.0075213,0.00473474,-0.0166204,0.390792,0.0129503,0.0240218,1021,470,1.19819,16.5265
-196,554,1.15833,-16.6379,0.00496897,-0.0135228,0.00849905,0.00828175,-0.0168356,0.371667,0.0147792,0.0317943,1028,470,1.15835,16.6379
-189,554,1.28772,-16.6782,0.0101976,-0.0125077,0.00843793,0.01299,-0.0153001,0.319585,0.0163514,0.0364505,1035,470,1.28775,16.6782
-182,554,1.41077,-16.6811,0.0151638,-0.0111309,0.00847908,0.0176608,-0.013628,0.2864,0.0181146,0.0434917,1042,470,1.41078,16.6811
-175,554,1.40906,-16.6876,0,0,0,0,0,0,0,-1,1049,470,1.40905,16.6876
-168,554,1.07581,-17.5238,0,0,0,0,0,0,0,-1,1056,470,1.07579,17.5238
-161,554,1.10596,-17.7606,0,0,0,0,0,0,0,-1,1063,470,1.10602,17.7606
-154,554,0.494507,-17.5997,0,0,0,0,0,0,0,-1,1070,470,0.494537,17.5997
-147,554,1.27405,-18.6261,0.0607517,-0.000630479,0.00103609,0.0607692,-0.000647962,0.0168729,0.0407305,0.0474001,1077,470,1.27409,18.6261
-140,554,2.5564,-18.5463,0.0697195,0.00164229,-0.00136023,0.0697466,0.00161513,-0.0199701,0.0459688,0.0482141,1084,470,2.55645,18.5463
-133,554,2.63806,-18.9402,0,0,0,0,0,0,0,-1,1091,470,2.63811,18.9402
-126,554,0.532715,-15.1913,0,0,0,0,0,0,0,-1,1098,470,0.532762,15.1913
-119,554,1.23621,-16.6479,0,0,0,0,0,0,0,-1,1105,470,1.23622,16.6479
-112,554,0.53186,-16.7545,0,0,0,0,0,0,0,-1,1112,470,0.531912,16.7545
-105,554,2.82129,-9.46112,0,0,0,0,0,0,0,-1,1119,470,2.82127,9.46112
-98,554,1.51929,-7.3624,0,0,0,0,0,0,0,-1,1126,470,1.51928,7.36241
-91,554,1.41089,-6.5864,0,0,0,0,0,0,0,-1,1133,470,1.41093,6.58638
-84,554,1.62305,-5.87186,0,0,0,0,0,0,0,-1,1140,470,1.62299,5.87186
-77,554,-2.56958,1.33258,0,0,0,0,0,0,0,-1,1147,470,-2.56959,-1.33257
-70,554,-3.68164,-1.18332,0,0,0,0,0,0,0,-1,1154,470,-3.68158,1.18331
-63,554,-4.86853,-3.88708,0,0,0,0,0,0,0,-1,1161,470,-4.86853,3.88708
-56,554,-5.69958,-6.45422,0,0,0,0,0,0,0,-1,1168,470,-5.69955,6.45422
-49,554,-6.23645,-8.8569,0,0,0,0,0,0,0,-1,1175,470,-6.23643,8.85689
-42,554,-6.62524,-11.5382,0,0,0,0,0,0,0,-1,1182,470,-6.62522,11.5382
-35,554,-2.40173,-4.59482,0,0,0,0,0,0,0,-1,1189,470,-2.40169,4.59481
-28,554,-0.760132,-1.65555,0,0,0,0,0,0,0,-1,1196,470,-0.760095,1.65556
-21,554,-0.582275,-18.7491,0,0,0,0,0,0,0,-1,1203,470,-0.58231,18.7491
-14,554,-0.127441,-19.3906,0.0443628,-0.0274695,-0.0070104,0.0450406,-0.0281473,-0.0963822,0.0426286,0.0497092,1210,470,-0.127428,19.3906
-7,554,0.188843,-20.3428,0.0390292,-0.0279495,-0.003931,0.0392591,-0.0281794,-0.0584229,0.0391104,0.046143,1217,470,0.188815,20.3428
0,554,0.763672,-21.7347,0,0,0,0,0,0,0,-1,1224,470,0.763664,21.7348
7,554,1.38342,-18.4861,0,0,0,0,0,0,0,-1,1231,470,1.38339,18.4861
14,554,1.62585,-18.5491,0.0488885,-0.00526254,0.00102612,0.048908,-0.00528198,0.0189402,0.034501,0.0497492,1238,470,1.6259,18.5491
21,554,1.43945,-18.4803,0.0516587,0.00563534,0.00157874,0.0517128,0.00558125,0.0342493,0.0327736,0.0476405,1245,470,1.43945,18.4803
28,554,1.18665,-18.2191,0.0509906,0.0140286,0.0014873,0.0510504,0.0139688,0.040152,0.0304642,0.0458921,1252,470,1.18662,18.2191
35,554,1.32263,-21.6824,0,0,0,0,0,0,0,-1,1259,470,1.32265,21.6824
42,554,3.59802,-22.0307,0,0,0,0,0,0,0,-1,1266,470,3.59799,22.0307
49,554,3.99805,-22.1316,0.0403915,0.0351412,0.00182876,0.0409657,0.034567,0.304227,0.0254472,0.0473963,1273,470,3.99803,22.1316
56,554,4.35913,-22.0438,0.0365542,0.0411145,0.00321453,0.0427755,0.0348932,1.09388,0.0262865,0.0441708,1280,470,4.35918,22.0438
63,554,4.27087,-22.2642,0.0270906,0.0485112,0.00100636,0.0485584,0.0270434,1.52395,0.0280957,0.0421629,1287,470,4.27093,22.2642
70,554,5.0885,-21.2904,0.0151134,0.0565805,-0.00113469,0.0566115,0.0150823,-1.54346,0.0338527,0.045719,1294,470,5.08845,21.2904
77,554,5.15588,-20.3121,0.00416939,0.0619853,-0.00239326,0.0620842,0.00407049,-1.5295,0.0401015,0.046149,1301,470,5.15589,20.3121
84,554,4.25317,-20.6255,-0.00488933,0.0678904,-0.00312659,0.0680245,-0.0050234,-1.52794,0.0471135,0.0473164,1308,470,4.25313,20.6255
91,554,4.22937,-20.7916,-0.0167995,0.0735105,-0.00454235,0.0737384,-0.0170274,-1.52067,0.055709,0.0462094,1315,470,4.22932,20.7916
98,554,3.95288,-20.2614,-0.0266617,0.0797442,-0.00887872,0.08048,-0.0273974,-1.48812,0.0647477,0.0479804,1322,470,3.95291,20.2613
105,554,3.39722,-20.0597,0,0,0,0,0,0,0,-1,1329,470,3.39719,20.0597
112,554,2.33557,-21.6138,-0.040583,0.0929871,-0.0192558,0.0957077,-0.0433035,-1.43044,0.0821371,0.0469455,1336,470,2.33563,21.6138
119,554,1.44141,-22.7386,-0.0470615,0.0972796,-0.0268845,0.102124,-0.0519063,-1.3925,0.0904914,0.044705,1343,470,1.4414,22.7386
126,554,0.468506,-22.5563,-0.0535293,0.0998845,-0.0347295,0.10738,-0.0610251,-1.35822,0.098449,0.0453136,1350,470,0.46847,22.5563
133,554,0.529541,-23.7229,-0.0544798,0.0999063,-0.0408319,0.11004,-0.0646138,-1.32752,0.101967,0.0482352,1357,470,0.529563,23.7229
140,554,0.573975,-24.9056,0,0,0,0,0,0,0,-1,1364,470,0.574029,24.9056
147,554,1.94727,-26.614,0,0,0,0,0,0,0,-1,1371,470,1.94721,26.6141
154,554,2.01318,-27.3178,-0.00861146,0.0922907,-0.0256084,0.0984179,-0.0147387,-1.33595,0.0710363,0.0470702,1378,470,2.01315,27.3178
161,554,2.09924,-28.0127,0,0,0,0,0,0,0,-1,1385,470,2.09929,28.0127
168,554,2.22742,-28.6964,0,0,0,0,0,0,0,-1,1392,470,2.22741,28.6964
175,554,10.663,0.286957,0,0,0,0,0,0,0,-1,1399,470,10.663,-0.286966
182,554,6.71106,-4.50217,0,0,0,0,0,0,0,-1,1406,470,6.71107,4.50215
189,554,6.90479,-2.50348,0,0,0,0,0,0,0,-1,1413,470,6.90477,2.50348
196,554,6.96216,-0.740906,0,0,0,0,0,0,0,-1,1420,470,6.96214,0.740912
203,554,6.43518,0.414154,0,0,0,0,0,0,0,-1,1427,470,6.43523,-0.414141
210,554,6.21167,1.96707,0,0,0,0,0,0,0,-1,1434,470,6.21165,-1.96706
217,554,5.64551,3.4989,0,0,0,0,0,0,0,-1,1441,470,5.64555,-3.49891
224,554,4.85144,-8.85172,0,0,0,0,0,0,0,-1,1448,470,4.85146,8.85173
231,554,3.25073,-5.29642,0,0,0,0,0,0,0,-1,1455,470,3.25078,5.29642
238,554,4.28625,-3.25253,0,0,0,0,0,0,0,-1,1462,470,4.28622,3.25252
245,554,4.0752,-2.90033,0,0,0,0,0,0,0,-1,1469,470,4.07515,2.90032
252,554,3.52112,-0.934998,0,0,0,0,0,0,0,-1,1476,470,3.52113,0.934996
259,554,3.96448,-2.16425,0,0,0,0,0,0,0,-1,1483,470,3.96446,2.16424
266,554,3.0592,-2.71716,0,0,0,0,0,0,0,-1,1490,470,3.05923,2.71718
273,554,2.58521,-3.06876,0,0,0,0,0,0,0,-1,1497,470,2.58524,3.06874
280,554,2.83301,-0.991699,0,0,0,0,0,0,0,-1,1504,470,2.83303,0.991704
287,554,3.54126,-4.12277,0,0,0,0,0,0,0,-1,1511,470,3.54123,4.12277
294,554,3.62036,-8.50146,0,0,0,0,0,0,0,-1,1518,470,3.62031,8.50145
301,554,5.60535,-16.0982,0,0,0,0,0,0,0,-1,1525,470,5.6053,16.0982
308,554,5.73901,-16.2557,0,0,0,0,0,0,0,-1,1532,470,5.739,16.2557
315,554,5.78979,-16.1019,0,0,0,0,0,0,0,-1,1539,470,5.78985,16.1019
322,554,5.79163,-15.9547,0,0,0,0,0,0,0,-1,1546,470,5.79161,15.9547
329,554,5.79163,-15.3963,0.000480383,-0.00361997,-0.00487711,0.00372072,-0.0068603,-0.586429,0.00619794,0.0350957,1553,470,5.79166,15.3963
336,554,5.81543,-15.2928,0.000233327,-0.00313533,-0.00439148,0.00325241,-0.00615441,-0.602278,0.0055165,0.0177739,1560,470,5.81541,15.2928
343,554,5.81836,-15.0701,-5.12503e-05,-0.00258814,-0.00385637,0.00273993,-0.00537932,-0.626511,0.0047695,0.010759,1567,470,5.81833,15.0701
350,554,5.84119,-14.7972,-0.00017123,-0.00208563,-0.00320449,0.00221596,-0.00447283,-0.640263,0.00393437,0.00957149,1574,470,5.84117,14.7972
357,554,5.85217,-14.5282,-0.000144831,-0.00147549,-0.00251802,0.00179428,-0.0034146,-0.656236,0.00305546,0.0109718,1581,470,5.85223,14.5282
364,554,5.84729,-14.2725,-7.29779e-05,-0.000895364,-0.00178073,0.00134342,-0.00231176,-0.671931,0.00213486,0.00914202,1588,470,5.8473,14.2725
371,554,5.84607,-13.9867,-3.05455e-05,-0.000381403,-0.0011338,0.000941314,-0.00135326,-0.708643,0.00133187,0.00838004,1595,470,5.84609,13.9867
378,554,5.84338,-13.689,-1.51224e-05,9.49447e-05,-0.000596266,0.000638712,-0.00055889,-0.831416,0.000691947,0.00960346,1602,470,5.84338,13.689
385,554,5.85608,-13.4041,-4.51564e-05,0.000661482,-0.000160951,0.000696415,-8.00892e-05,-1.35707,0.000493146,0.00982168,1609,470,5.85605,13.4041
392,554,5.87781,-13.1023,-2.75157e-05,0.000955501,0.00023479,0.0010087,-8.07155e-05,1.34797,0.000700923,0.0133965,1616,470,5.87779,13.1023
399,554,5.85144,-12.8046,7.92306e-05,0.00109402,0.00054457,0.00133094,-0.00015769,1.16044,0.000944258,0.0180291,1623,470,5.85138,12.8046
406,554,5.83167,-12.5001,5.25295e-05,0.00113017,0.000727062,0.00149631,-0.000313606,1.10429,0.00111685,0.0171184,1630,470,5.83166,12.5001
413,554,5.83569,-12.1749,1.2906e-05,0.00108208,0.000868426,0.00156727,-0.000472284,1.0613,0.00123281,0.0160057,1637,470,5.8357,12.1749
420,554,5.82764,-11.872,3.88039e-05,0.000858292,0.00101095,0.00153938,-0.000642285,0.977934,0.00129459,0.0164253,1644,470,5.82766,11.872
427,554,5.83411,-11.5716,0.000121903,0.000491177,0.00121962,0.00154005,-0.000926975,0.860522,0.00143893,0.0116322,1651,470,5.83416,11.5716
434,554,5.82043,-11.2701,0.000295691,2.76424e-05,0.00148887,0.00165655,-0.00133322,0.74051,0.00172951,0.0101915,1658,470,5.82046,11.2701
441,554,5.81738,-10.9488,0.000485023,-0.000455707,0.00182904,0.00190321,-0.00187389,0.659543,0.00218073,0.0105266,1665,470,5.81734,10.9488
448,554,5.78906,-10.6033,0.000652766,-0.00106954,0.00218711,0.00214215,-0.00255893,0.597849,0.00271772,0.0133246,1672,470,5.78909,10.6033
455,554,5.76831,-10.2824,0.000796556,-0.00176895,0.00256407,0.00238084,-0.00335324,0.553462,0.00332641,0.0149719,1679,470,5.76829,10.2824
462,554,5.72827,-9.97791,0.000692387,-0.00246098,0.00278729,0.00231803,-0.00408663,0.528001,0.00374443,0.0172349,1686,470,5.72829,9.9779
469,554,5.70471,-9.60196,-0.000138515,-0.00388196,0.00221656,0.000890878,-0.00491135,0.434773,0.00360804,0.0235191,1693,470,5.70467,9.60195
476,554,5.6792,-9.05945,-0.00127077,-0.00530164,0.00148359,-0.000783606,-0.0057888,0.317277,0.00362633,0.0481615,1700,470,5.67926,9.05946
483,554,5.66479,-8.53531,0,0,0,0,0,0,0,-1,1707,470,5.66477,8.53531
490,554,7.31543,-3.51794,0,0,0,0,0,0,0,-1,1714,470,7.3154,3.51794
497,554,7.9751,-2.43454,0,0,0,0,0,0,0,-1,1721,470,7.97505,2.43453
504,554,2.13257,-3.81628,0,0,0,0,0,0,0,-1,1728,470,2.1326,3.8163
511,554,1.31396,-4.02713,0,0,0,0,0,0,0,-1,1735,470,1.31398,4.02712
518,554,5.04236,-5.9472,0,0,0,0,0,0,0,-1,1742,470,5.04231,5.94721
525,554,0,0,0,0,0,0,0,0,0,-1,1749,470,0,0
532,554,0,0,0,0,0,0,0,0,0,-1,1756,470,0,0
539,554,0,0,0,0,0,0,0,0,0,-1,1763,470,0,0
546,554,0,0,0,0,0,0,0,0,0,-1,1770,470,0,0
553,554,0,0,0,0,0,0,0,0,0,-1,1777,470,0,0
560,554,0,0,0,0,0,0,0,0,0,-1,1784,470,0,0
567,554,0,0,0,0,0,0,0,0,0,-1,1791,470,0,0
574,554,0,0,0,0,0,0,0,0,0,-1,1798,470,0,0
581,554,0,0,0,0,0,0,0,0,0,-1,1805,470,0,0
588,554,0,0,0,0,0,0,0,0,0,-1,1812,470,0,0
595,554,0,0,0,0,0,0,0,0,0,-1,1819,470,0,0
602,554,0,0,0,0,0,0,0,0,0,-1,1826,470,0,0
609,554,0,0,0,0,0,0,0,0,0,-1,1833,470,0,0
616,554,0,0,0,0,0,0,0,0,0,-1,1840,470,0,0
623,554,0,0,0,0,0,0,0,0,0,-1,1847,470,0,0
630,554,0,0,0,0,0,0,0,0,0,-1,1854,470,0,0
637,554,0,0,0,0,0,0,0,0,0,-1,1861,470,0,0
644,554,0,0,0,0,0,0,0,0,0,-1,1868,470,0,0
651,554,0,0,0,0,0,0,0,0,0,-1,1875,470,0,0
658,554,0,0,0,0,0,0,0,0,0,-1,1882,470,0,0
665,554,0,0,0,0,0,0,0,0,0,-1,1889,470,0,0
672,554,0,0,0,0,0,0,0,0,0,-1,1896,470,0,0
679,554,0,0,0,0,0,0,0,0,0,-1,1903,470,0,0
686,554,0,0,0,0,0,0,0,0,0,-1,1910,470,0,0
693,554,0,0,0,0,0,0,0,0,0,-1,1917,470,0,0
700,554,0,0,0,0,0,0,0,0,0,-1,1924,470,0,0
707,554,0,0,0,0,0,0,0,0,0,-1,1931,470,0,0
714,554,0,0,0,0,0,0,0,0,0,-1,1938,470,0,0
721,554,0,0,0,0,0,0,0,0,0,-1,1945,470,0,0
728,554,0,0,0,0,0,0,0,0,0,-1,1952,470,0,0
735,554,0,0,0,0,0,0,0,0,0,-1,1959,470,0,0
742,554,0,0,0,0,0,0,0,0,0,-1,1966,470,0,0
749,554,0,0,0,0,0,0,0,0,0,-1,1973,470,0,0
756,554,0,0,0,0,0,0,0,0,0,-1,1980,470,0,0
763,554,0,0,0,0,0,0,0,0,0,-1,1987,470,0,0
770,554,0,0,0,0,0,0,0,0,0,-1,1994,470,0,0
777,554,0,0,0,0,0,0,0,0,0,-1,2001,470,0,0
784,554,0,0,0,0,0,0,0,0,0,-1,2008,470,0,0
791,554,0,0,0,0,0,0,0,0,0,-1,2015,470,0,0
798,554,0,0,0,0,0,0,0,0,0,-1,2022,470,0,0
805,554,0,0,0,0,0,0,0,0,0,-1,2029,470,0,0
812,554,0,0,0,0,0,0,0,0,0,-1,2036,470,0,0
-700,547,0,0,0,0,0,0,0,0,0,-1,524,477,0,0
-693,547,0,0,0,0,0,0,0,0,0,-1,531,477,0,0
-686,547,0,0,0,0,0,0,0,0,0,-1,538,477,0,0
-679,547,0,0,0,0,0,0,0,0,0,-1,545,477,0,0
-672,547,0,0,0,0,0,0,0,0,0,-1,552,477,0,0
-665,547,0,0,0,0,0,0,0,0,0,-1,559,477,0,0
-658,547,0,0,0,0,0,0,0,0,0,-1,566,477,0,0
-651,547,0,0,0,0,0,0,0,0,0,-1,573,477,0,0
-644,547,0,0,0,0,0,0,0,0,0,-1,580,477,0,0
-637,547,0,0,0,0,0,0,0,0,0,-1,587,477,0,0
-630,547,0,0,0,0,0,0,0,0,0,-1,594,477,0,0
-623,547,0,0,0,0,0,0,0,0,0,-1,601,477,0,0
-616,547,0,0,0,0,0,0,0,0,0,-1,608,477,0,0
-609,547,0,0,0,0,0,0,0,0,0,-1,615,477,0,0
-602,547,0,0,0,0,0,0,0,0,0,-1,622,477,0,0
-595,547,0,0,0,0,0,0,0,0,0,-1,629,477,0,0
-588,547,0,0,0,0,0,0,0,0,0,-1,636,477,0,0
-581,547,0,0,0,0,0,0,0,0,0,-1,643,477,0,0
-574,547,0,0,0,0,0,0,0,0,0,-1,650,477,0,0
-567,547,0,0,0,0,0,0,0,0,0,-1,657,477,0,0
-560,547,0,0,0,0,0,0,0,0,0,-1,664,477,0,0
-553,547,0,0,0,0,0,0,0,0,0,-1,671,477,0,0
-546,547,0,0,0,0,0,0,0,0,0,-1,678,477,0,0
-539,547,0,0,0,0,0,0,0,0,0,-1,685,477,0,0
-532,547,0,0,0,0,0,0,0,0,0,-1,692,477,0,0
-525,547,0,0,0,0,0,0,0,0,0,-1,699,477,0,0
-518,547,0,0,0,0,0,0,0,0,0,-1,706,477,0,0
-511,547,0,0,0,0,0,0,0,0,0,-1,713,477,0,0
-504,547,0,0,0,0,0,0,0,0,0,-1,720,477,0,0
-497,547,0,0,0,0,0,0,0,0,0,-1,727,477,0,0
-490,547,0,0,0,0,0,0,0,0,0,-1,734,477,0,0
-483,547,0,0,0,0,0,0,0,0,0,-1,741,477,0,0
-476,547,0,0,0,0,0,0,0,0,0,-1,748,477,0,0
-469,547,0,0,0,0,0,0,0,0,0,-1,755,477,0,0
-462,547,0,0,0,0,0,0,0,0,0,-1,762,477,0,0
-455,547,0,0,0,0,0,0,0,0,0,-1,769,477,0,0
-448,547,0,0,0,0,0,0,0,0,0,-1,776,477,0,0
-441,547,0,0,0,0,0,0,0,0,0,-1,783,477,0,0
-434,547,0,0,0,0,0,0,0,0,0,-1,790,477,0,0
-427,547,0,0,0,0,0,0,0,0,0,-1,797,477,0,0
-420,547,0,0,0,0,0,0,0,0,0,-1,804,477,0,0
-413,547,0,0,0,0,0,0,0,0,0,-1,811,477,0,0
-406,547,0.8573,-6.14468,0,0,0,0,0,0,0,-1,818,477,0.85729,6.14469
-399,547,1.271,-4.19394,0,0,0,0,0,0,0,-1,825,477,1.27098,4.19393
-392,547,-1.52271,-4.41675,0,0,0,0,0,0,0,-1,832,477,-1.52273,4.41674
-385,547,-1.73743,-4.6431,0,0,0,0,0,0,0,-1,839,477,-1.73743,4.64308
-378,547,-2.41339,-4.60071,0,0,0,0,0,0,0,-1,846,477,-2.41337,4.60071
-371,547,-3.15997,-4.6044,0,0,0,0,0,0,0,-1,853,477,-3.15997,4.60439
-364,547,0.271729,-4.58582,0,0,0,0,0,0,0,-1,860,477,0.271753,4.5858
-357,547,1.18646,-9.45621,0,0,0,0,0,0,0,-1,867,477,1.18649,9.45621
-350,547,0.992004,-10.5617,0,0,0,0,0,0,0,-1,874,477,0.991983,10.5617
-343,547,0.85907,-10.9105,0.0023291,-0.00526765,-0.00706505,0.00655211,-0.00949067,-0.53875,0.00931395,0.0382716,881,477,0.859049,10.9105
-336,547,0.941284,-11.3129,0.00163284,-0.00488128,-0.00658006,0.00571782,-0.00896627,-0.555583,0.00854673,0.0170401,888,477,0.941284,11.3129
-329,547,0.926147,-11.6291,0.00125687,-0.00450927,-0.00592139,0.00495976,-0.00821217,-0.558845,0.00768171,0.00905868,895,477,0.926162,11.6291
-322,547,0.920349,-11.9365,0.000877616,-0.00405637,-0.00513593,0.00410833,-0.00728709,-0.5615,0.00666393,0.0100805,902,477,0.920357,11.9365
-315,547,0.908325,-12.2545,0.000605144,-0.0033796,-0.00438841,0.00343229,-0.00620674,-0.572308,0.00564142,0.0102414,909,477,0.908319,12.2545
-308,547,0.881531,-12.5524,0.000466052,-0.00264203,-0.00365488,0.00288356,-0.00505953,-0.58438,0.00464295,0.0115673,916,477,0.881544,12.5524
-301,547,0.899719,-12.846,0.000391607,-0.00200703,-0.00289563,0.00232646,-0.00394188,-0.589062,0.00365887,0.0106002,923,477,0.899736,12.846
-294,547,0.894592,-13.1297,0.000487041,-0.00162697,-0.00218033,0.00185307,-0.002993,-0.559694,0.00282356,0.00955945,930,477,0.894616,13.1297
-287,547,0.876282,-13.4023,0.000667598,-0.00164817,-0.00158764,0.00147473,-0.0024553,-0.470333,0.00229243,0.0112784,937,477,0.876296,13.4023
-280,547,0.884888,-13.6896,0.000906061,-0.00177157,-0.00118224,0.00135334,-0.00221885,-0.361685,0.00208248,0.0129165,944,477,0.884904,13.6896
-273,547,0.869263,-13.9704,0.00114257,-0.0021955,-0.000737838,0.00129838,-0.00235132,-0.208122,0.00213619,0.0130027,951,477,0.869248,13.9704
-266,547,0.847473,-14.2289,0.0013059,-0.0028173,-7.24164e-05,0.00130717,-0.00281857,-0.0175559,0.00243469,0.0122956,958,477,0.847494,14.2289
-259,547,0.844482,-14.4933,0.0014356,-0.00386571,0.000530551,0.00148817,-0.00391828,0.098774,0.00322481,0.0111514,965,477,0.84451,14.4934
-252,547,0.855591,-14.7637,0.00138992,-0.00525504,0.00134727,0.00165269,-0.0055178,0.19262,0.00433573,0.0108811,972,477,0.855601,14.7637
-245,547,0.869751,-15.0228,0.00138072,-0.00691529,0.00227184,0.00196211,-0.00749669,0.250536,0.00576424,0.0119056,979,477,0.869744,15.0228
-238,547,0.886108,-15.2856,0.00153741,-0.00877449,0.0033179,0.00251271,-0.00974979,0.285899,0.00747947,0.00862294,986,477,0.886095,15.2855
-231,547,0.888489,-15.5401,0.00153937,-0.0108752,0.00446021,0.00297563,-0.0123114,0.311532,0.00935855,0.00802787,993,477,0.888473,15.5401
-224,547,0.899902,-15.7784,0.00142577,-0.0128532,0.00585128,0.00351719,-0.0149447,0.343278,0.0113191,0.0101173,1000,477,0.899874,15.7784
-217,547,0.93103,-16.0142,0.00136567,-0.0147948,0.00732369,0.00419078,-0.0176199,0.368162,0.0133644,0.0154405,1007,477,0.93103,16.0142
-210,547,0.912292,-16.1916,0.00129224,-0.0165582,0.00866131,0.00480397,-0.0200699,0.385197,0.0152359,0.0311617,1014,477,0.912274,16.1916
-203,547,0.782043,-16.1439,0.00174296,-0.0181352,0.010156,0.00601411,-0.0224063,0.398098,0.0172944,0.0423682,1021,477,0.78205,16.1439
-196,547,0.74939,-16.3489,0.00605414,-0.01809,0.0114575,0.0106256,-0.0226615,0.379642,0.0196326,0.045725,1028,477,0.74939,16.3489
-189,547,1.07495,-16.4459,0.0130561,-0.0166561,0.0113298,0.0168833,-0.0204834,0.325769,0.021607,0.0484016,1035,477,1.07492,16.4459
-182,547,1.41162,-16.5164,0,0,0,0,0,0,0,-1,1042,477,1.41167,16.5164
-175,547,-0.350098,-12.3584,0,0,0,0,0,0,0,-1,1049,477,-0.350098,12.3584
-168,547,1.12463,-8.66785,0,0,0,0,0,0,0,-1,1056,477,1.12461,8.66786
-161,547,0.499512,-19.532,0,0,0,0,0,0,0,-1,1063,477,0.499471,19.532
-154,547,0.786499,-19.1144,0,0,0,0,0,0,0,-1,1070,477,0.786528,19.1144
-147,547,1.10278,-18.6983,0,0,0,0,0,0,0,-1,1077,477,1.10284,18.6983
-140,547,3.0498,-18.886,0,0,0,0,0,0,0,-1,1084,477,3.04984,18.886
-133,547,2.31665,-17.9421,0,0,0,0,0,0,0,-1,1091,477,2.31667,17.9421
-126,547,0.784302,-9.76431,0,0,0,0,0,0,0,-1,1098,477,0.78428,9.76432
-119,547,0.190308,-15.7633,0,0,0,0,0,0,0,-1,1105,477,0.190348,15.7633
-112,547,4.36194,-9.23029,0,0,0,0,0,0,0,-1,1112,477,4.36195,9.23029
-105,547,4.448,-9.17819,0,0,0,0,0,0,0,-1,1119,477,4.44799,9.1782
-98,547,1.50391,-7.20621,0,0,0,0,0,0,0,-1,1126,477,1.50395,7.20621
-91,547,1.37805,-7.12024,0,0,0,0,0,0,0,-1,1133,477,1.37804,7.12025
-84,547,1.94202,-6.66241,0,0,0,0,0,0,0,-1,1140,477,1.94201,6.66241
-77,547,-2.28357,1.8588,0,0,0,0,0,0,0,-1,1147,477,-2.28356,-1.85879
-70,547,-3.70178,-0.874908,0,0,0,0,0,0,0,-1,1154,477,-3.70182,0.874918
-63,547,-5.12012,-3.60861,0,0,0,0,0,0,0,-1,1161,477,-5.12009,3.60862
-56,547,-6.01917,-6.2399,0,0,0,0,0,0,0,-1,1168,477,-6.01921,6.23991
-49,547,-6.729,-8.60349,0,0,0,0,0,0,0,-1,1175,477,-6.72899,8.60348
-42,547,-2.41736,-5.53012,0,0,0,0,0,0,0,-1,1182,477,-2.41734,5.53011
-35,547,-2.96838,-4.45734,0,0,0,0,0,0,0,-1,1189,477,-2.96839,4.45734
-28,547,-0.869141,-1.29901,0,0,0,0,0,0,0,-1,1196,477,-0.869135,1.29901
-21,547,-1.24194,-18.5273,0,0,0,0,0,0,0,-1,1203,477,-1.24192,18.5273
-14,547,-0.818604,-19.1721,0,0,0,0,0,0,0,-1,1210,477,-0.818635,19.1721
-7,547,-0.395386,-19.8168,0,0,0,0,0,0,0,-1,1217,477,-0.395354,19.8168
0,547,-0.518677,-14.9079,0,0,0,0,0,0,0,-1,1224,477,-0.518733,14.9079
7,547,-0.45105,-15.1747,0,0,0,0,0,0,0,-1,1231,477,-0.451051,15.1747
14,547,0,0,0,0,0,0,0,0,0,-1,1238,477,0,0
21,547,0,0,0,0,0,0,0,0,0,-1,1245,477,0,0
28,547,0,0,0,0,0,0,0,0,0,-1,1252,477,0,0
35,547,0,0,0,0,0,0,0,0,0,-1,1259,477,0,0
42,547,0,0,0,0,0,0,0,0,0,-1,1266,477,0,0
49,547,0,0,0,0,0,0,0,0,0,-1,1273,477,0,0
56,547,0,0,0,0,0,0,0,0,0,-1,1280,477,0,0
63,547,0,0,0,0,0,0,0,0,0,-1,1287,477,0,0
70,547,0,0,0,0,0,0,0,0,0,-1,1294,477,0,0
77,547,0,0,0,0,0,0,0,0,0,-1,1301,477,0,0
84,547,0,0,0,0,0,0,0,0,0,-1,1308,477,0,0
91,547,0,0,0,0,0,0,0,0,0,-1,1315,477,0,0
98,547,0,0,0,0,0,0,0,0,0,-1,1322,477,0,0
105,547,2.10852,-21.8939,0,0,0,0,0,0,0,-1,1329,477,2.10856,21.8939
112,547,1.86499,-22.7499,-0.0717541,0.0881617,-0.0224349,0.0912495,-0.0748419,-1.43402,0.0960487,0.0469925,1336,477,1.86495,22.7499
119,547,0.916748,-23.5695,-0.0762502,0.0948204,-0.0266229,0.0988678,-0.0802977,-1.41992,0.103626,0.0463406,1343,477,0.916774,23.5695
126,547,-0.332764,-22.8638,-0.0806887,0.0995609,-0.0317969,0.105006,-0.0861334,-1.40121,0.110533,0.0485575,1350,477,-0.332767,22.8638
133,547,-0.342773,-24.0414,-0.077724,0.101113,-0.03593,0.108061,-0.0846726,-1.37976,0.111548,0.0476351,1357,477,-0.342803,24.0414
140,547,-0.342285,-25.2508,0,0,0,0,0,0,0,-1,1364,477,-0.342323,25.2508
147,547,1.9425,-27.1238,0,0,0,0,0,0,0,-1,1371,477,1.94252,27.1238
154,547,1.63794,-27.8166,0,0,0,0,0,0,0,-1,1378,477,1.63795,27.8166
161,547,1.5946,-28.4539,0,0,0,0,0,0,0,-1,1385,477,1.59461,28.4539
168,547,-1.32007,-12.7464,0,0,0,0,0,0,0,-1,1392,477,-1.32002,12.7464
175,547,3.35034,-0.26532,0,0,0,0,0,0,0,-1,1399,477,3.3503,0.265306
182,547,4.26038,3.72672,0,0,0,0,0,0,0,-1,1406,477,4.26039,-3.7267
189,547,3.40454,1.28671,0,0,0,0,0,0,0,-1,1413,477,3.40457,-1.28673
196,547,3.53931,1.87793,0,0,0,0,0,0,0,-1,1420,477,3.53928,-1.87794
203,547,6.49414,-0.425842,0,0,0,0,0,0,0,-1,1427,477,6.4941,0.425844
210,547,4.82092,0.53595,0,0,0,0,0,0,0,-1,1434,477,4.82096,-0.535942
217,547,4.68579,0.480072,0,0,0,0,0,0,0,-1,1441,477,4.68577,-0.480069
224,547,4.55615,0.739807,0,0,0,0,0,0,0,-1,1448,477,4.55613,-0.73981
231,547,5.90869,-3.57721,0,0,0,0,0,0,0,-1,1455,477,5.90871,3.57722
238,547,5.50049,-3.15356,0,0,0,0,0,0,0,-1,1462,477,5.50045,3.15356
245,547,5.13708,-2.65213,0,0,0,0,0,0,0,-1,1469,477,5.13708,2.65212
252,547,3.73511,-0.645233,0,0,0,0,0,0,0,-1,1476,477,3.73515,0.645237
259,547,5.86816,-3.20816,0,0,0,0,0,0,0,-1,1483,477,5.86815,3.20816
266,547,5.40222,-2.45731,0,0,0,0,0,0,0,-1,1490,477,5.40221,2.45732
273,547,3.05737,0.495789,0,0,0,0,0,0,0,-1,1497,477,3.05742,-0.49578
280,547,2.0885,1.47797,0,0,0,0,0,0,0,-1,1504,477,2.08848,-1.47795
287,547,2.31177,-2.21716,0,0,0,0,0,0,0,-1,1511,477,2.31174,2.21717
294,547,2.4823,-3.03659,0,0,0,0,0,0,0,-1,1518,477,2.48229,3.0366
301,547,4.72119,-3.93454,0,0,0,0,0,0,0,-1,1525,477,4.72119,3.93453
308,547,4.07471,-5.42175,0,0,0,0,0,0,0,-1,1532,477,4.07468,5.42174
315,547,3.58496,-6.62112,0,0,0,0,0,0,0,-1,1539,477,3.58497,6.62113
322,547,5.73926,-14.1878,0,0,0,0,0,0,0,-1,1546,477,5.73926,14.1878
329,547,6.29382,-15.4153,0,0,0,0,0,0,0,-1,1553,477,6.29388,15.4153
336,547,6.25281,-15.2382,-0.000361987,-0.00434299,-0.00598071,0.00395077,-0.00865574,-0.624754,0.00744542,0.0465914,1560,477,6.25278,15.2382
343,547,6.21887,-15.1358,-0.000595974,-0.00359702,-0.00523216,0.00334658,-0.00753957,-0.645752,0.00643865,0.032755,1567,477,6.21888,15.1358
350,547,6.15454,-14.8378,-0.000619846,-0.00299505,-0.00438479,0.00273533,-0.00635022,-0.653148,0.00538216,0.0225066,1574,477,6.15453,14.8378
357,547,6.13647,-14.542,-0.000440625,-0.00227684,-0.00352551,0.00228437,-0.00500183,-0.658019,0.00430311,0.0156217,1581,477,6.13651,14.542
364,547,6.12,-14.264,-0.000203083,-0.00157771,-0.00258711,0.00178646,-0.00356725,-0.655563,0.00314744,0.0109449,1588,477,6.11997,14.264
371,547,6.11426,-13.9722,-3.2273e-05,-0.000970473,-0.00179464,0.00135356,-0.00235631,-0.657564,0.00216782,0.00905592,1595,477,6.11429,13.9722
378,547,6.1145,-13.6935,-8.63323e-06,-0.000447449,-0.00120012,0.000991968,-0.00144805,-0.694986,0.00141692,0.00955299,1602,477,6.11455,13.6936
385,547,6.14819,-13.4134,9.2167e-06,0.000199011,-0.00063782,0.000748955,-0.000540727,-0.859248,0.000747826,0.0103222,1609,477,6.14823,13.4134
392,547,6.15967,-13.1144,5.04395e-05,0.000572215,-0.000124044,0.000600203,2.24513e-05,-1.34888,0.000392866,0.0116567,1616,477,6.15973,13.1144
399,547,6.12939,-12.8139,0.000104376,0.000738538,0.000189825,0.000791016,5.18984e-05,1.30108,0.000510924,0.0134249,1623,477,6.12945,12.8139
406,547,6.14038,-12.514,9.28201e-05,0.000841983,0.000383151,0.00100323,-6.84305e-05,1.17244,0.00069276,0.0133735,1630,477,6.14036,12.514
413,547,6.1499,-12.1657,0.000100744,0.000933575,0.000575267,0.00122732,-0.000193005,1.09868,0.000889558,0.0139813,1637,477,6.14991,12.1657
420,547,6.14868,-11.8764,0.000130585,0.000811544,0.000726212,0.00127313,-0.000331002,1.0046,0.000977942,0.0157483,1644,477,6.14864,11.8764
427,547,6.15576,-11.5796,0.000202365,0.000560362,0.000930609,0.00132903,-0.000566304,0.880411,0.00112342,0.0147705,1651,477,6.1558,11.5796
434,547,6.11279,-11.2793,0.000368699,0.000210697,0.00120115,0.00149345,-0.000914052,0.75256,0.00140332,0.0100041,1658,477,6.11284,11.2793
441,547,6.10828,-10.9614,0.000558985,-0.000110667,0.0015368,0.00179701,-0.0013487,0.678138,0.00182231,0.0102507,1665,477,6.1083,10.9614
448,547,6.09106,-10.6094,0.000751112,-0.000562632,0.00188153,0.00208713,-0.00189865,0.617455,0.00230205,0.0114153,1672,477,6.09111,10.6094
455,547,6.08044,-10.2799,0.000939437,-0.00106613,0.00224097,0.00239176,-0.00251845,0.575021,0.00283522,0.0110407,1679,477,6.08041,10.2799
462,547,6.0625,-9.97391,0.000870746,-0.00157931,0.00242173,0.00235965,-0.00306822,0.55124,0.00314267,0.0105384,1686,477,6.06253,9.9739
469,547,6.04773,-9.6254,0.000100654,-0.00283781,0.00180726,0.000960545,-0.0036977,0.444101,0.00283999,0.0192003,1693,477,6.04774,9.62539
476,547,6.10693,-9.13651,-0.000883134,-0.00403437,0.00113725,-0.000515579,-0.00440192,0.312598,0.00277875,0.0423531,1700,477,6.10693,9.13652
483,547,6.21021,-8.59528,0,0,0,0,0,0,0,-1,1707,477,6.21019,8.59527
490,547,3.65271,-3.71707,0,0,0,0,0,0,0,-1,1714,477,3.65277,3.71708
497,547,2.55481,-3.81421,0,0,0,0,0,0,0,-1,1721,477,2.55476,3.8142
504,547,4.01953,-2.22714,0,0,0,0,0,0,0,-1,1728,477,4.0195,2.22713
511,547,5.2146,-6.9552,0,0,0,0,0,0,0,-1,1735,477,5.21464,6.95521
518,547,5.48401,-6.14368,0,0,0,0,0,0,0,-1,1742,477,5.48397,6.14368
525,547,5.7533,-5.33215,0,0,0,0,0,0,0,-1,1749,477,5.75329,5.33215
532,547,0,0,0,0,0,0,0,0,0,-1,1756,477,0,0
539,547,0,0,0,0,0,0,0,0,0,-1,1763,477,0,0
546,547,0,0,0,0,0,0,0,0,0,-1,1770,477,0,0
553,547,0,0,0,0,0,0,0,0,0,-1,1777,477,0,0
560,547,0,0,0,0,0,0,0,0,0,-1,1784,477,0,0
567,547,0,0,0,0,0,0,0,0,0,-1,1791,477,0,0
574,547,0,0,0,0,0,0,0,0,0,-1,1798,477,0,0
581,547,0,0,0,0,0,0,0,0,0,-1,1805,477,0,0
588,547,0,0,0,0,0,0,0,0,0,-1,1812,477,0,0
595,547,0,0,0,0,0,0,0,0,0,-1,1819,477,0,0
602,547,0,0,0,0,0,0,0,0,0,-1,1826,477,0,0
609,547,0,0,0,0,0,0,0,0,0,-1,1833,477,0,0
616,547,0,0,0,0,0,0,0,0,0,-1,1840,477,0,0
623,547,0,0,0,0,0,0,0,0,0,-1,1847,477,0,0
630,547,0,0,0,0,0,0,0,0,0,-1,1854,477,0,0
637,547,0,0,0,0,0,0,0,0,0,-1,1861,477,0,0
644,547,0,0,0,0,0,0,0,0,0,-1,1868,477,0,0
651,547,0,0,0,0,0,0,0,0,0,-1,1875,477,0,0
658,547,0,0,0,0,0,0,0,0,0,-1,1882,477,0,0
665,547,0,0,0,0,0,0,0,0,0,-1,1889,477,0,0
672,547,0,0,0,0,0,0,0,0,0,-1,1896,477,0,0
679,547,0,0,0,0,0,0,0,0,0,-1,1903,477,0,0
686,547,0,0,0,0,0,0,0,0,0,-1,1910,477,0,0
693,547,0,0,0,0,0,0,0,0,0,-1,1917,477,0,0
700,547,0,0,0,0,0,0,0,0,0,-1,1924,477,0,0
707,547,0,0,0,0,0,0,0,0,0,-1,1931,477,0,0
714,547,0,0,0,0,0,0,0,0,0,-1,1938,477,0,0
721,547,0,0,0,0,0,0,0,0,0,-1,1945,477,0,0
728,547,0,0,0,0,0,0,0,0,0,-1,1952,477,0,0
735,547,0,0,0,0,0,0,0,0,0,-1,1959,477,0,0
742,547,0,0,0,0,0,0,0,0,0,-1,1966,477,0,0
749,547,0,0,0,0,0,0,0,0,0,-1,1973,477,0,0
756,547,0,0,0,0,0,0,0,0,0,-1,1980,477,0,0
763,547,0,0,0,0,0,0,0,0,0,-1,1987,477,0,0
770,547,0,0,0,0,0,0,0,0,0,-1,1994,477,0,0
777,547,0,0,0,0,0,0,0,0,0,-1,2001,477,0,0
784,547,0,0,0,0,0,0,0,0,0,-1,2008,477,0,0
791,547,0,0,0,0,0,0,0,0,0,-1,2015,477,0,0
798,547,0,0,0,0,0,0,0,0,0,-1,2022,477,0,0
805,547,0,0,0,0,0,0,0,0,0,-1,2029,477,0,0
812,547,0,0,0,0,0,0,0,0,0,-1,2036,477,0,0
-700,540,0,0,0,0,0,0,0,0,0,-1,524,484,0,0
-693,540,0,0,0,0,0,0,0,0,0,-1,531,484,0,0
-686,540,0,0,0,0,0,0,0,0,0,-1,538,484,0,0
-679,540,0,0,0,0,0,0,0,0,0,-1,545,484,0,0
-672,540,0,0,0,0,0,0,0,0,0,-1,552,484,0,0
-665,540,0,0,0,0,0,0,0,0,0,-1,559,484,0,0
-658,540,0,0,0,0,0,0,0,0,0,-1,566,484,0,0
-651,540,0,0,0,0,0,0,0,0,0,-1,573,484,0,0
-644,540,0,0,0,0,0,0,0,0,0,-1,580,484,0,0
-637,540,0,0,0,0,0,0,0,0,0,-1,587,484,0,0
-630,540,0,0,0,0,0,0,0,0,0,-1,594,484,0,0
-623,540,0,0,0,0,0,0,0,0,0,-1,601,484,0,0
-616,540,0,0,0,0,0,0,0,0,0,-1,608,484,0,0
-609,540,0,0,0,0,0,0,0,0,0,-1,615,484,0,0
-602,540,0,0,0,0,0,0,0,0,0,-1,622,484,0,0
-595,540,0,0,0,0,0,0,0,0,0,-1,629,484,0,0
-588,540,0,0,0,0,0,0,0,0,0,-1,636,484,0,0
-581,540,0,0,0,0,0,0,0,0,0,-1,643,484,0,0
-574,540,0,0,0,0,0,0,0,0,0,-1,650,484,0,0
-567,540,0,0,0,0,0,0,0,0,0,-1,657,484,0,0
-560,540,0,0,0,0,0,0,0,0,0,-1,664,484,0,0
-553,540,0,0,0,0,0,0,0,0,0,-1,671,484,0,0
-546,540,0,0,0,0,0,0,0,0,0,-1,678,484,0,0
-539,540,0,0,0,0,0,0,0,0,0,-1,685,484,0,0
-532,540,0,0,0,0,0,0,0,0,0,-1,692,484,0,0
-525,540,0,0,0,0,0,0,0,0,0,-1,699,484,0,0
-518,540,0,0,0,0,0,0,0,0,0,-1,706,484,0,0
-511,540,0,0,0,0,0,0,0,0,0,-1,713,484,0,0
-504,540,0,0,0,0,0,0,0,0,0,-1,720,484,0,0
-497,540,0,0,0,0,0,0,0,0,0,-1,727,484,0,0
-490,540,0,0,0,0,0,0,0,0,0,-1,734,484,0,0
-483,540,0,0,0,0,0,0,0,0,0,-1,741,484,0,0
-476,540,0,0,0,0,0,0,0,0,0,-1,748,484,0,0
-469,540,0,0,0,0,0,0,0,0,0,-1,755,484,0,0
-462,540,0,0,0,0,0,0,0,0,0,-1,762,484,0,0
-455,540,0,0,0,0,0,0,0,0,0,-1,769,484,0,0
-448,540,0,0,0,0,0,0,0,0,0,-1,776,484,0,0
-441,540,0,0,0,0,0,0,0,0,0,-1,783,484,0,0
-434,540,0,0,0,0,0,0,0,0,0,-1,790,484,0,0
-427,540,0,0,0,0,0,0,0,0,0,-1,797,484,0,0
-420,540,0.319397,-9.34122,0,0,0,0,0,0,0,-1,804,484,0.319412,9.34122
-413,540,0.569153,-8.03989,0,0,0,0,0,0,0,-1,811,484,0.56913,8.03988
-406,540,0.992554,-6.1304,0,0,0,0,0,0,0,-1,818,484,0.992553,6.13041
-399,540,1.35217,-4.24222,0,0,0,0,0,0,0,-1,825,484,1.35215,4.24222
-392,540,1.74487,-2.36649,0,0,0,0,0,0,0,-1,832,484,1.74486,2.36648
-385,540,-2.29407,-5.03418,0,0,0,0,0,0,0,-1,839,484,-2.29408,5.03418
-378,540,-3.78162,-4.68256,0,0,0,0,0,0,0,-1,846,484,-3.78161,4.68257
-371,540,0.246338,-6.47092,0,0,0,0,0,0,0,-1,853,484,0.246322,6.47091
-364,540,0.82196,-10.2116,0,0,0,0,0,0,0,-1,860,484,0.821958,10.2116
-357,540,0.70636,-10.2146,0,0,0,0,0,0,0,-1,867,484,0.706387,10.2146
-350,540,0.689026,-10.602,0.00349713,-0.00313231,-0.00690325,0.00784023,-0.00747541,-0.56157,0.00884333,0.0328376,874,484,0.689043,10.602
-343,540,0.657959,-10.9861,0.00227536,-0.00250707,-0.00661982,0.00692261,-0.00715431,-0.61208,0.00812768,0.0149857,881,484,0.657963,10.9861
-336,540,0.636719,-11.3388,0.0017788,-0.00226236,-0.00622029,0.00629846,-0.00678202,-0.628356,0.00755374,0.0119298,888,484,0.636742,11.3388
-329,540,0.611694,-11.6316,0.0015803,-0.00205633,-0.00565089,0.00569822,-0.00617425,-0.629742,0.00685641,0.00975175,895,484,0.611678,11.6316
-322,540,0.627747,-11.9453,0.00139042,-0.00180483,-0.00492394,0.00496943,-0.00538384,-0.628527,0.00597906,0.0133816,902,484,0.627774,11.9453
-315,540,0.614624,-12.2449,0.00122484,-0.00137108,-0.004155,0.00427989,-0.00442614,-0.634008,0.00502667,0.0124696,909,484,0.614605,12.2449
-308,540,0.599121,-12.5286,0.00111155,-0.000930584,-0.00336058,0.00360276,-0.00342179,-0.637911,0.00405607,0.0116451,916,484,0.599092,12.5286
-301,540,0.585754,-12.805,0.00104286,-0.000608911,-0.00251714,0.00286614,-0.00243219,-0.626879,0.00306241,0.0119045,923,484,0.585748,12.805
-294,540,0.610596,-13.1133,0.00115126,-0.000608073,-0.00171313,0.00219737,-0.00165419,-0.548209,0.00223106,0.0116075,930,484,0.610619,13.1132
-287,540,0.626404,-13.419,0.00139662,-0.00109171,-0.00109012,0.00180663,-0.00150172,-0.359751,0.00191278,0.00869526,937,484,0.626428,13.419
-280,540,0.610962,-13.6956,0.00161881,-0.00165317,-0.000635996,0.00173809,-0.00177245,-0.185386,0.00202684,0.0096962,944,484,0.61099,13.6956
-273,540,0.601196,-13.9787,0.00180435,-0.00253991,-0.000138346,0.00180875,-0.00254431,-0.0318027,0.00252517,0.0123949,951,484,0.601216,13.9787
-266,540,0.600159,-14.2404,0.00194702,-0.00372657,0.00046953,0.00198562,-0.00376516,0.0820136,0.00337279,0.0134235,958,484,0.600149,14.2404
-259,540,0.5979,-14.5076,0.0020497,-0.00527624,0.00113806,0.00222242,-0.00544896,0.150618,0.00455779,0.0124039,965,484,0.597899,14.5076
-252,540,0.603027,-14.7675,0.00196338,-0.00719093,0.00205405,0.00240314,-0.00763069,0.210911,0.00604943,0.0119018,972,484,0.602997,14.7675
-245,540,0.617798,-15.0206,0.00192886,-0.00936326,0.00312932,0.00273809,-0.0101725,0.25305,0.00785506,0.0131458,979,484,0.617792,15.0206
-238,540,0.622986,-15.2644,0.00206621,-0.0117701,0.00437548,0.00333375,-0.0130376,0.281974,0.00999018,0.0100029,986,484,0.622999,15.2644
-231,540,0.628845,-15.515,0.0019518,-0.0144677,0.00578732,0.0037866,-0.0163025,0.307014,0.012326,0.0113619,993,484,0.62883,15.5149
-224,540,0.634705,-15.7516,0.00166026,-0.0170799,0.00759016,0.00434874,-0.0197684,0.340417,0.0148424,0.016289,1000,484,0.634703,15.7517
-217,540,0.498962,-15.896,0.00151646,-0.0195882,0.00950967,0.00516925,-0.023241,0.366736,0.0174738,0.0284751,1007,484,0.498985,15.896
-210,540,0.379883,-16.0314,0.00135195,-0.0219148,0.0113578,0.00597695,-0.0265398,0.386706,0.0199857,0.0453998,1014,484,0.379875,16.0314
-203,540,0.327148,-16.0097,0.00173225,-0.023974,0.0133908,0.00744031,-0.0296821,0.402942,0.0226787,0.0465039,1021,484,0.327141,16.0097
-196,540,0.337036,-16.3389,0,0,0,0,0,0,0,-1,1028,484,0.337009,16.3389
-189,540,0.790771,-16.3375,0,0,0,0,0,0,0,-1,1035,484,0.790718,16.3375
-182,540,0.109375,-15.2948,0,0,0,0,0,0,0,-1,1042,484,0.109331,15.2948
-175,540,1.73413,-10.728,0,0,0,0,0,0,0,-1,1049,484,1.73414,10.728
-168,540,1.18164,-7.65347,0,0,0,0,0,0,0,-1,1056,484,1.18163,7.65347
-161,540,-0.405884,-9.86481,0,0,0,0,0,0,0,-1,1063,484,-0.405886,9.8648
-154,540,0.65625,-19.0429,0,0,0,0,0,0,0,-1,1070,484,0.656211,19.0429
-147,540,0.969727,-18.6567,0,0,0,0,0,0,0,-1,1077,484,0.969702,18.6567
-140,540,1.40735,-15.6289,0,0,0,0,0,0,0,-1,1084,484,1.4073,15.6289
-133,540,2.28345,-17.6413,0,0,0,0,0,0,0,-1,1091,484,2.2835,17.6413
-126,540,1.46765,-17.5085,0,0,0,0,0,0,0,-1,1098,484,1.46764,17.5085
-119,540,6.18579,-10.4846,0,0,0,0,0,0,0,-1,1105,484,6.18582,10.4846
-112,540,5.8468,-9.65106,0,0,0,0,0,0,0,-1,1112,484,5.84681,9.65106
-105,540,5.50781,-8.81754,0,0,0,0,0,0,0,-1,1119,484,5.5078,8.81753
-98,540,0.73877,-3.08093,0,0,0,0,0,0,0,-1,1126,484,0.738754,3.08092
-91,540,1.56519,-7.48666,0,0,0,0,0,0,0,-1,1133,484,1.56514,7.48667
-84,540,-0.945923,4.43073,0,0,0,0,0,0,0,-1,1140,484,-0.945891,-4.43074
-77,540,-2.28894,2.14368,0,0,0,0,0,0,0,-1,1147,484,-2.28894,-2.14368
-70,540,-3.75244,-0.452576,0,0,0,0,0,0,0,-1,1154,484,-3.75244,0.452576
-63,540,-5.26257,-3.04767,0,0,0,0,0,0,0,-1,1161,484,-5.26262,3.04766
-56,540,-5.19055,-6.12595,0,0,0,0,0,0,0,-1,1168,484,-5.19057,6.12595
-49,540,-5.63867,-8.52298,0,0,0,0,0,0,0,-1,1175,484,-5.63871,8.52298
-42,540,0,0,0,0,0,0,0,0,0,-1,1182,484,0,0
-35,540,0,0,0,0,0,0,0,0,0,-1,1189,484,0,0
-28,540,0,0,0,0,0,0,0,0,0,-1,1196,484,0,0
-21,540,0,0,0,0,0,0,0,0,0,-1,1203,484,0,0
-14,540,0,0,0,0,0,0,0,0,0,-1,1210,484,0,0
-7,540,0,0,0,0,0,0,0,0,0,-1,1217,484,0,0
0,540,0,0,0,0,0,0,0,0,0,-1,1224,484,0,0
7,540,0,0,0,0,0,0,0,0,0,-1,1231,484,0,0
14,540,0,0,0,0,0,0,0,0,0,-1,1238,484,0,0
21,540,0,0,0,0,0,0,0,0,0,-1,1245,484,0,0
28,540,0,0,0,0,0,0,0,0,0,-1,1252,484,0,0
35,540,0,0,0,0,0,0,0,0,0,-1,1259,484,0,0
42,540,0,0,0,0,0,0,0,0,0,-1,1266,484,0,0
49,540,0,0,0,0,0,0,0,0,0,-1,1273,484,0,0
56,540,0,0,0,0,0,0,0,0,0,-1,1280,484,0,0
63,540,0,0,0,0,0,0,0,0,0,-1,1287,484,0,0
70,540,0,0,0,0,0,0,0,0,0,-1,1294,484,0,0
77,540,0,0,0,0,0,0,0,0,0,-1,1301,484,0,0
84,540,0,0,0,0,0,0,0,0,0,-1,1308,484,0,0
91,540,0,0,0,0,0,0,0,0,0,-1,1315,484,0,0
98,540,0,0,0,0,0,0,0,0,0,-1,1322,484,0,0
105,540,0,0,0,0,0,0,0,0,0,-1,1329,484,0,0
112,540,0,0,0,0,0,0,0,0,0,-1,1336,484,0,0
119,540,0,0,0,0,0,0,0,0,0,-1,1343,484,0,0
126,540,0,0,0,0,0,0,0,0,0,-1,1350,484,0,0
133,540,0,0,0,0,0,0,0,0,0,-1,1357,484,0,0
140,540,0,0,0,0,0,0,0,0,0,-1,1364,484,0,0
147,540,0,0,0,0,0,0,0,0,0,-1,1371,484,0,0
154,540,0,0,0,0,0,0,0,0,0,-1,1378,484,0,0
161,540,0,0,0,0,0,0,0,0,0,-1,1385,484,0,0
168,540,3.05078,-0.0010376,0,0,0,0,0,0,0,-1,1392,484,3.05084,0.00102554
175,540,3.37708,0.617035,0,0,0,0,0,0,0,-1,1399,484,3.37707,-0.617046
182,540,3.32678,1.23267,0,0,0,0,0,0,0,-1,1406,484,3.32678,-1.23266
189,540,3.5813,2.15619,0,0,0,0,0,0,0,-1,1413,484,3.58129,-2.1562
196,540,1.84448,-0.801483,0,0,0,0,0,0,0,-1,1420,484,1.84446,0.80148
203,540,4.14648,0.702087,0,0,0,0,0,0,0,-1,1427,484,4.14645,-0.702089
210,540,4.50671,-0.56076,0,0,0,0,0,0,0,-1,1434,484,4.50667,0.560771
217,540,5.00452,-0.278717,0,0,0,0,0,0,0,-1,1441,484,5.00452,0.278709
224,540,6.44458,-2.83527,0,0,0,0,0,0,0,-1,1448,484,6.44457,2.83525
231,540,6.9231,-3.10504,0,0,0,0,0,0,0,-1,1455,484,6.92307,3.10505
238,540,6.4823,-2.58365,0,0,0,0,0,0,0,-1,1462,484,6.48225,2.58363
245,540,6.02087,-1.97916,0,0,0,0,0,0,0,-1,1469,484,6.02088,1.97915
252,540,6.50647,-3.56006,0,0,0,0,0,0,0,-1,1476,484,6.50649,3.56006
259,540,6.01941,-2.798,0,0,0,0,0,0,0,-1,1483,484,6.01941,2.79801
266,540,5.5332,-2.02853,0,0,0,0,0,0,0,-1,1490,484,5.53323,2.02855
273,540,5.06787,-1.28137,0,0,0,0,0,0,0,-1,1497,484,5.06786,1.28136
280,540,1.62903,-2.14609,0,0,0,0,0,0,0,-1,1504,484,1.62906,2.1461
287,540,1.97156,-2.45053,0,0,0,0,0,0,0,-1,1511,484,1.97159,2.45053
294,540,2.44165,-2.6185,0,0,0,0,0,0,0,-1,1518,484,2.44167,2.6185
301,540,4.36169,-2.54272,0,0,0,0,0,0,0,-1,1525,484,4.36165,2.54272
308,540,4.2019,-4.30469,0,0,0,0,0,0,0,-1,1532,484,4.20193,4.3047
315,540,4.45923,-5.32101,0,0,0,0,0,0,0,-1,1539,484,4.45923,5.32103
322,540,4.71655,-6.33737,0,0,0,0,0,0,0,-1,1546,484,4.71653,6.33736
329,540,5.8949,-12.9383,0,0,0,0,0,0,0,-1,1553,484,5.89492,12.9383
336,540,6.73767,-15.3666,0,0,0,0,0,0,0,-1,1560,484,6.73772,15.3666
343,540,6.65369,-15.285,0,0,0,0,0,0,0,-1,1567,484,6.65365,15.285
350,540,6.43225,-14.9462,0,0,0,0,0,0,0,-1,1574,484,6.43224,14.9462
357,540,6.53552,-14.3446,-0.00109535,-0.00317793,-0.00482395,0.00279842,-0.0070717,-0.6791,0.00587385,0.0452366,1581,484,6.53556,14.3446
364,540,6.38452,-14.1914,-0.000569856,-0.0022384,-0.00353599,0.00222894,-0.0050372,-0.669548,0.00429828,0.0269151,1588,484,6.38452,14.1914
371,540,6.36743,-13.9652,-0.000189564,-0.0014509,-0.00250641,0.0017643,-0.00340477,-0.662146,0.00303405,0.0169193,1595,484,6.36745,13.9652
378,540,6.40625,-13.682,-9.89525e-05,-0.000830221,-0.00180397,0.00137607,-0.00230524,-0.685411,0.00214785,0.0121787,1602,484,6.4063,13.682
385,540,6.43494,-13.396,-4.14681e-05,-0.000233168,-0.00117599,0.00104257,-0.00131721,-0.744735,0.00136549,0.0133075,1609,484,6.43497,13.396
392,540,6.43591,-13.1022,8.85553e-06,0.000186891,-0.000590501,0.000695046,-0.0004993,-0.86021,0.000692636,0.0126195,1616,484,6.4359,13.1022
399,540,6.41125,-12.8221,1.14189e-05,0.00033431,-0.000309375,0.000521831,-0.000176102,-1.02588,0.000419108,0.0164979,1623,484,6.4112,12.8221
406,540,6.41528,-12.5254,1.27871e-05,0.000469952,-0.000136131,0.000507417,-2.46786e-05,-1.30223,0.000346797,0.0169719,1630,484,6.41527,12.5254
413,540,6.44067,-12.1762,5.39933e-05,0.000651106,7.53645e-05,0.000660472,4.46281e-05,1.44716,0.000426218,0.0141233,1637,484,6.4407,12.1762
420,540,6.45361,-11.8625,6.52003e-05,0.000580159,0.000212025,0.000656222,-1.08624e-05,1.22635,0.000441147,0.0125151,1644,484,6.45362,11.8626
427,540,6.43188,-11.5763,9.99799e-05,0.000405295,0.000403012,0.000683594,-0.000178319,0.966443,0.000525355,0.012881,1651,484,6.43186,11.5763
434,540,6.40149,-11.2724,0.000235075,0.000152537,0.000677666,0.000872728,-0.000485116,0.754986,0.000794527,0.0157232,1658,484,6.40152,11.2724
441,540,6.4259,-10.9362,0.000414544,-2.79149e-05,0.00102376,0.00124071,-0.000854077,0.678987,0.00121627,0.019317,1665,484,6.42584,10.9362
448,540,6.41492,-10.6127,0.000622938,-0.000327021,0.00138557,0.00161268,-0.00131676,0.620273,0.00169418,0.0122359,1672,484,6.41486,10.6127
455,540,6.39575,-10.2859,0.000847202,-0.000649836,0.00176693,0.00201762,-0.00182025,0.585044,0.00221677,0.0106451,1679,484,6.39577,10.2859
462,540,6.37158,-9.95782,0.000821087,-0.000986174,0.00196806,0.00208305,-0.00224814,0.57018,0.00250122,0.0105586,1686,484,6.37158,9.95782
469,540,6.36804,-9.64484,0.000143483,-0.00205466,0.00140979,0.000832,-0.00274318,0.45431,0.0021602,0.0136039,1693,484,6.36807,9.64485
476,540,6.37292,-9.35437,-0.000680891,-0.00301532,0.000865986,-0.000394723,-0.00330149,0.319157,0.00208193,0.020028,1700,484,6.37288,9.35437
483,540,6.42505,-9.02768,-0.00220544,-0.00453032,-0.000389527,-0.00214191,-0.00459385,-0.161667,0.00265427,0.041725,1707,484,6.42503,9.02767
490,540,6.63477,-8.59811,0,0,0,0,0,0,0,-1,1714,484,6.63474,8.59811
497,540,4.27393,-2.67752,0,0,0,0,0,0,0,-1,1721,484,4.27395,2.67751
504,540,5.52747,-4.4433,0,0,0,0,0,0,0,-1,1728,484,5.5275,4.44329
511,540,5.9585,-7.16177,0,0,0,0,0,0,0,-1,1735,484,5.95856,7.16176
518,540,6.05859,-6.52338,0,0,0,0,0,0,0,-1,1742,484,6.05861,6.52337
525,540,6.15869,-5.88498,0,0,0,0,0,0,0,-1,1749,484,6.15866,5.88497
532,540,2.84265,-1.07925,0,0,0,0,0,0,0,-1,1756,484,2.84269,1.07927
539,540,0,0,0,0,0,0,0,0,0,-1,1763,484,0,0
546,540,0,0,0,0,0,0,0,0,0,-1,1770,484,0,0
553,540,0,0,0,0,0,0,0,0,0,-1,1777,484,0,0
560,540,0,0,0,0,0,0,0,0,0,-1,1784,484,0,0
567,540,0,0,0,0,0,0,0,0,0,-1,1791,484,0,0
574,540,0,0,0,0,0,0,0,0,0,-1,1798,484,0,0
581,540,0,0,0,0,0,0,0,0,0,-1,1805,484,0,0
588,540,0,0,0,0,0,0,0,0,0,-1,1812,484,0,0
595,540,0,0,0,0,0,0,0,0,0,-1,1819,484,0,0
602,540,0,0,0,0,0,0,0,0,0,-1,1826,484,0,0
609,540,0,0,0,0,0,0,0,0,0,-1,1833,484,0,0
616,540,0,0,0,0,0,0,0,0,0,-1,1840,484,0,0
623,540,0,0,0,0,0,0,0,0,0,-1,1847,484,0,0
630,540,0,0,0,0,0,0,0,0,0,-1,1854,484,0,0
637,540,0,0,0,0,0,0,0,0,0,-1,1861,484,0,0
644,540,0,0,0,0,0,0,0,0,0,-1,1868,484,0,0
651,540,0,0,0,0,0,0,0,0,0,-1,1875,484,0,0
658,540,0,0,0,0,0,0,0,0,0,-1,1882,484,0,0
665,540,0,0,0,0,0,0,0,0,0,-1,1889,484,0,0
672,540,0,0,0,0,0,0,0,0,0,-1,1896,484,0,0
679,540,0,0,0,0,0,0,0,0,0,-1,1903,484,0,0
686,540,0,0,0,0,0,0,0,0,0,-1,1910,484,0,0
693,540,0,0,0,0,0,0,0,0,0,-1,1917,484,0,0
700,540,0,0,0,0,0,0,0,0,0,-1,1924,484,0,0
707,540,0,0,0,0,0,0,0,0,0,-1,1931,484,0,0
714,540,0,0,0,0,0,0,0,0,0,-1,1938,484,0,0
721,540,0,0,0,0,0,0,0,0,0,-1,1945,484,0,0
728,540,0,0,0,0,0,0,0,0,0,-1,1952,484,0,0
735,540,0,0,0,0,0,0,0,0,0,-1,1959,484,0,0
742,540,0,0,0,0,0,0,0,0,0,-1,1966,484,0,0
749,540,0,0,0,0,0,0,0,0,0,-1,1973,484,0,0
756,540,0,0,0,0,0,0,0,0,0,-1,1980,484,0,0
763,540,0,0,0,0,0,0,0,0,0,-1,1987,484,0,0
770,540,0,0,0,0,0,0,0,0,0,-1,1994,484,0,0
777,540,0,0,0,0,0,0,0,0,0,-1,2001,484,0,0
784,540,0,0,0,0,0,0,0,0,0,-1,2008,484,0,0
791,540,0,0,0,0,0,0,0,0,0,-1,2015,484,0,0
798,540,0,0,0,0,0,0,0,0,0,-1,2022,484,0,0
805,540,0,0,0,0,0,0,0,0,0,-1,2029,484,0,0
812,540,0,0,0,0,0,0,0,0,0,-1,2036,484,0,0
-700,533,0,0,0,0,0,0,0,0,0,-1,524,491,0,0
-693,533,0,0,0,0,0,0,0,0,0,-1,531,491,0,0
-686,533,0,0,0,0,0,0,0,0,0,-1,538,491,0,0
-679,533,0,0,0,0,0,0,0,0,0,-1,545,491,0,0
-672,533,0,0,0,0,0,0,0,0,0,-1,552,491,0,0
-665,533,0,0,0,0,0,0,0,0,0,-1,559,491,0,0
-658,533,0,0,0,0,0,0,0,0,0,-1,566,491,0,0
-651,533,0,0,0,0,0,0,0,0,0,-1,573,491,0,0
-644,533,0,0,0,0,0,0,0,0,0,-1,580,491,0,0
-637,533,0,0,0,0,0,0,0,0,0,-1,587,491,0,0
-630,533,0,0,0,0,0,0,0,0,0,-1,594,491,0,0
-623,533,0,0,0,0,0,0,0,0,0,-1,601,491,0,0
-616,533,0,0,0,0,0,0,0,0,0,-1,608,491,0,0
-609,533,0,0,0,0,0,0,0,0,0,-1,615,491,0,0
-602,533,0,0,0,0,0,0,0,0,0,-1,622,491,0,0
-595,533,0,0,0,0,0,0,0,0,0,-1,629,491,0,0
-588,533,0,0,0,0,0,0,0,0,0,-1,636,491,0,0
-581,533,0,0,0,0,0,0,0,0,0,-1,643,491,0,0
-574,533,0,0,0,0,0,0,0,0,0,-1,650,491,0,0
-567,533,0,0,0,0,0,0,0,0,0,-1,657,491,0,0
-560,533,0,0,0,0,0,0,0,0,0,-1,664,491,0,0
-553,533,0,0,0,0,0,0,0,0,0,-1,671,491,0,0
-546,533,0,0,0,0,0,0,0,0,0,-1,678,491,0,0
-539,533,0,0,0,0,0,0,0,0,0,-1,685,491,0,0
-532,533,0,0,0,0,0,0,0,0,0,-1,692,491,0,0
-525,533,0,0,0,0,0,0,0,0,0,-1,699,491,0,0
-518,533,0,0,0,0,0,0,0,0,0,-1,706,491,0,0
-511,533,0,0,0,0,0,0,0,0,0,-1,713,491,0,0
-504,533,0,0,0,0,0,0,0,0,0,-1,720,491,0,0
-497,533,0,0,0,0,0,0,0,0,0,-1,727,491,0,0
-490,533,0,0,0,0,0,0,0,0,0,-1,734,491,0,0
-483,533,0,0,0,0,0,0,0,0,0,-1,741,491,0,0
-476,533,0,0,0,0,0,0,0,0,0,-1,748,491,0,0
-469,533,0,0,0,0,0,0,0,0,0,-1,755,491,0,0
-462,533,0,0,0,0,0,0,0,0,0,-1,762,491,0,0
-455,533,0,0,0,0,0,0,0,0,0,-1,769,491,0,0
-448,533,0,0,0,0,0,0,0,0,0,-1,776,491,0,0
-441,533,0,0,0,0,0,0,0,0,0,-1,783,491,0,0
-434,533,0,0,0,0,0,0,0,0,0,-1,790,491,0,0
-427,533,-0.122925,-6.00681,0,0,0,0,0,0,0,-1,797,491,-0.12292,6.0068
-420,533,0.47583,-9.66522,0,0,0,0,0,0,0,-1,804,491,0.475807,9.66523
-413,533,0.69989,-7.88477,0,0,0,0,0,0,0,-1,811,491,0.699895,7.88475
-406,533,1.03619,-6.12021,0,0,0,0,0,0,0,-1,818,491,1.0362,6.1202
-399,533,1.49341,-4.32501,0,0,0,0,0,0,0,-1,825,491,1.49343,4.32502
-392,533,1.98297,-2.53873,0,0,0,0,0,0,0,-1,832,491,1.98299,2.53873
-385,533,-1.69116,-6.64645,0,0,0,0,0,0,0,-1,839,491,-1.69115,6.64645
-378,533,-0.761414,-5.15549,0,0,0,0,0,0,0,-1,846,491,-0.761387,5.15549
-371,533,0.507202,-9.80283,0,0,0,0,0,0,0,-1,853,491,0.50722,9.80283
-364,533,0.513123,-10.1536,0.00499976,-0.0021602,-0.00501696,0.00758306,-0.00474351,-0.475508,0.00717942,0.0429335,860,491,0.513141,10.1536
-357,533,0.43158,-10.3773,0.00344985,-0.00196968,-0.00501144,0.00643722,-0.00495706,-0.537555,0.00659697,0.0249147,867,491,0.431574,10.3773
-350,533,0.397095,-10.6524,0.00241265,-0.00192542,-0.00469595,0.00541629,-0.00492907,-0.569047,0.00597511,0.0108511,874,491,0.397118,10.6524
-343,533,0.392029,-11.0271,0.00133304,-0.00139891,-0.00447043,0.00464154,-0.0047074,-0.637124,0.00539766,0.0102278,881,491,0.39205,11.0271
-336,533,0.352173,-11.3526,0.000953273,-0.00124144,-0.00416168,0.00415985,-0.00444801,-0.656492,0.00497068,0.0149317,888,491,0.352186,11.3526
-329,533,0.331848,-11.6295,0.000894167,-0.0011173,-0.00375133,0.00377224,-0.00399538,-0.654427,0.00448525,0.0136731,895,491,0.331848,11.6296
-322,533,0.331604,-11.932,0.000835132,-0.000951421,-0.00319459,0.00325898,-0.00337527,-0.649069,0.00383048,0.0111763,902,491,0.331604,11.932
-315,533,0.314819,-12.2328,0.000795494,-0.000614682,-0.00258652,0.00277131,-0.00259049,-0.652331,0.00309622,0.0123645,909,491,0.314844,12.2328
-308,533,0.299683,-12.5063,0.000800121,-0.000291871,-0.00195019,0.0022793,-0.00177105,-0.648907,0.0023446,0.0118074,916,491,0.299709,12.5062
-301,533,0.285828,-12.781,0.000872761,-0.000100094,-0.0012642,0.00174089,-0.00096822,-0.601744,0.00158517,0.0132371,923,491,0.285837,12.7811
-294,533,0.307129,-13.0915,0.00115698,-0.000293127,-0.000609681,0.00137925,-0.000515392,-0.349586,0.00113114,0.0121715,930,491,0.307126,13.0914
-287,533,0.330872,-13.4023,0.00165008,-0.0010843,-0.000174987,0.00166123,-0.00109545,-0.0636492,0.00160271,0.00900317,937,491,0.330888,13.4023
-280,533,0.329407,-13.697,0.00203811,-0.00194685,0.000142562,0.0020432,-0.00195194,0.0357141,0.0023068,0.00810872,944,491,0.329379,13.697
-273,533,0.32074,-13.9741,0.00234881,-0.00320254,0.000548367,0.00240246,-0.00325619,0.0975249,0.0032794,0.0116559,951,491,0.320724,13.9741
-266,533,0.33905,-14.2316,0.00260841,-0.0049389,0.000986976,0.00273535,-0.00506583,0.127907,0.00457051,0.0115652,958,491,0.339027,14.2316
-259,533,0.349182,-14.4991,0.00280749,-0.00702701,0.00165054,0.00307711,-0.00729663,0.161923,0.00615222,0.0121562,965,491,0.349159,14.4991
-252,533,0.340454,-14.759,0.00276604,-0.00957877,0.00265406,0.00331246,-0.0101252,0.203044,0.00808376,0.0139125,972,491,0.340454,14.759
-245,533,0.403992,-14.9926,0.00274726,-0.0124488,0.0039143,0.00369627,-0.0133978,0.237856,0.0103856,0.0192868,979,491,0.404014,14.9926
-238,533,0.406433,-15.1181,0.00284351,-0.0155659,0.0054139,0.00431762,-0.01704,0.265836,0.0130397,0.02114,986,491,0.406429,15.1181
-231,533,0.470642,-15.2985,0.00255241,-0.0190062,0.00718133,0.00472551,-0.0211793,0.293845,0.0159301,0.0299911,993,491,0.470665,15.2985
-224,533,0.149475,-15.5359,0.00195868,-0.0224276,0.00951208,0.00523009,-0.025699,0.33125,0.019116,0.0414799,1000,491,0.149505,15.536
-217,533,0.0348511,-15.7494,0.00156477,-0.025659,0.0120171,0.00611034,-0.0302046,0.361625,0.0224521,0.048359,1007,491,0.0348765,15.7494
-210,533,-0.0736084,-15.9169,0,0,0,0,0,0,0,-1,1014,491,-0.0736224,15.9169
-203,533,-0.0894775,-15.8647,0,0,0,0,0,0,0,-1,1021,491,-0.0894528,15.8647
-196,533,0.0670166,-15.6631,0,0,0,0,0,0,0,-1,1028,491,0.0669789,15.6631
-189,533,-0.169189,-15.0303,0,0,0,0,0,0,0,-1,1035,491,-0.169241,15.0303
-182,533,1.26123,-11.4969,0,0,0,0,0,0,0,-1,1042,491,1.26128,11.4969
-175,533,0.937744,-7.36966,0,0,0,0,0,0,0,-1,1049,491,0.937769,7.36965
-168,533,2.64807,-2.7543,0,0,0,0,0,0,0,-1,1056,491,2.64812,2.7543
-161,533,1.91833,-1.76553,0,0,0,0,0,0,0,-1,1063,491,1.91836,1.76554
-154,533,0.376709,-11.0633,0,0,0,0,0,0,0,-1,1070,491,0.376715,11.0632
-147,533,0.383789,-12.1586,0,0,0,0,0,0,0,-1,1077,491,0.383829,12.1586
-140,533,1.14001,-15.4608,0,0,0,0,0,0,0,-1,1084,491,1.14005,15.4608
-133,533,0.189941,-16.0795,0,0,0,0,0,0,0,-1,1091,491,0.18994,16.0795
-126,533,2.89612,-2.59003,0,0,0,0,0,0,0,-1,1098,491,2.89608,2.59003
-119,533,3.00842,-12.8239,0,0,0,0,0,0,0,-1,1105,491,3.00841,12.8239
-112,533,7.05884,-10.21,0,0,0,0,0,0,0,-1,1112,491,7.0588,10.21
-105,533,3.84839,1.12769,0,0,0,0,0,0,0,-1,1119,491,3.84843,-1.12769
-98,533,-1.39392,-5.16367,0,0,0,0,0,0,0,-1,1126,491,-1.39394,5.16367
-91,533,0.367432,4.49753,0,0,0,0,0,0,0,-1,1133,491,0.367468,-4.49754
-84,533,-0.88623,3.03604,0,0,0,0,0,0,0,-1,1140,491,-0.886288,-3.03605
-77,533,0,0,0,0,0,0,0,0,0,-1,1147,491,0,0
-70,533,0,0,0,0,0,0,0,0,0,-1,1154,491,0,0
-63,533,0,0,0,0,0,0,0,0,0,-1,1161,491,0,0
-56,533,0,0,0,0,0,0,0,0,0,-1,1168,491,0,0
-49,533,0,0,0,0,0,0,0,0,0,-1,1175,491,0,0
-42,533,0,0,0,0,0,0,0,0,0,-1,1182,491,0,0
-35,533,0,0,0,0,0,0,0,0,0,-1,1189,491,0,0
-28,533,0,0,0,0,0,0,0,0,0,-1,1196,491,0,0
-21,533,0,0,0,0,0,0,0,0,0,-1,1203,491,0,0
-14,533,0,0,0,0,0,0,0,0,0,-1,1210,491,0,0
-7,533,0,0,0,0,0,0,0,0,0,-1,1217,491,0,0
0,533,0,0,0,0,0,0,0,0,0,-1,1224,491,0,0
7,533,0,0,0,0,0,0,0,0,0,-1,1231,491,0,0
14,533,0,0,0,0,0,0,0,0,0,-1,1238,491,0,0
21,533,0,0,0,0,0,0,0,0,0,-1,1245,491,0,0
28,533,0,0,0,0,0,0,0,0,0,-1,1252,491,0,0
35,533,0,0,0,0,0,0,0,0,0,-1,1259,491,0,0
42,533,0,0,0,0,0,0,0,0,0,-1,1266,491,0,0
49,533,0,0,0,0,0,0,0,0,0,-1,1273,491,0,0
56,533,0,0,0,0,0,0,0,0,0,-1,1280,491,0,0
63,533,0,0,0,0,0,0,0,0,0,-1,1287,491,0,0
70,533,0,0,0,0,0,0,0,0,0,-1,1294,491,0,0
77,533,0,0,0,0,0,0,0,0,0,-1,1301,491,0,0
84,533,0,0,0,0,0,0,0,0,0,-1,1308,491,0,0
91,533,0,0,0,0,0,0,0,0,0,-1,1315,491,0,0
98,533,0,0,0,0,0,0,0,0,0,-1,1322,491,0,0
105,533,0,0,0,0,0,0,0,0,0,-1,1329,491,0,0
112,533,0,0,0,0,0,0,0,0,0,-1,1336,491,0,0
119,533,0,0,0,0,0,0,0,0,0,-1,1343,491,0,0
126,533,0,0,0,0,0,0,0,0,0,-1,1350,491,0,0
133,533,0,0,0,0,0,0,0,0,0,-1,1357,491,0,0
140,533,0,0,0,0,0,0,0,0,0,-1,1364,491,0,0
147,533,0,0,0,0,0,0,0,0,0,-1,1371,491,0,0
154,533,0,0,0,0,0,0,0,0,0,-1,1378,491,0,0
161,533,0,0,0,0,0,0,0,0,0,-1,1385,491,0,0
168,533,0,0,0,0,0,0,0,0,0,-1,1392,491,0,0
175,533,0,0,0,0,0,0,0,0,0,-1,1399,491,0,0
182,533,0,0,0,0,0,0,0,0,0,-1,1406,491,0,0
189,533,0,0,0,0,0,0,0,0,0,-1,1413,491,0,0
196,533,0,0,0,0,0,0,0,0,0,-1,1420,491,0,0
203,533,3.7887,1.16193,0,0,0,0,0,0,0,-1,1427,491,3.78872,-1.16193
210,533,5.09558,-0.216034,0,0,0,0,0,0,0,-1,1434,491,5.09559,0.216028
217,533,6.91614,-2.46814,0,0,0,0,0,0,0,-1,1441,491,6.91618,2.46814
224,533,7.23621,-2.1857,0,0,0,0,0,0,0,-1,1448,491,7.23621,2.1857
231,533,7.23474,-1.92282,0,0,0,0,0,0,0,-1,1455,491,7.2347,1.92282
238,533,7.23535,-1.67258,0,0,0,0,0,0,0,-1,1462,491,7.23539,1.67258
245,533,6.86682,-1.2301,0,0,0,0,0,0,0,-1,1469,491,6.86686,1.23011
252,533,6.63354,-3.07825,0,0,0,0,0,0,0,-1,1476,491,6.6335,3.07824
259,533,6.16431,-2.35037,0,0,0,0,0,0,0,-1,1483,491,6.1643,2.35037
266,533,5.68884,-1.6214,0,0,0,0,0,0,0,-1,1490,491,5.68885,1.6214
273,533,5.21399,-0.864227,0,0,0,0,0,0,0,-1,1497,491,5.21403,0.864227
280,533,1.41089,-1.97946,0,0,0,0,0,0,0,-1,1504,491,1.41087,1.97946
287,533,1.6814,-2.44443,0,0,0,0,0,0,0,-1,1511,491,1.6814,2.44444
294,533,2.2384,-2.57626,0,0,0,0,0,0,0,-1,1518,491,2.23839,2.57625
301,533,3.39941,-4.0817,0,0,0,0,0,0,0,-1,1525,491,3.3994,4.08171
308,533,4.13733,-4.14752,0,0,0,0,0,0,0,-1,1532,491,4.13727,4.14752
315,533,4.80762,-5.29349,0,0,0,0,0,0,0,-1,1539,491,4.80762,5.29347
322,533,5.47803,-6.43942,0,0,0,0,0,0,0,-1,1546,491,5.47798,6.43943
329,533,3.88477,-3.86301,0,0,0,0,0,0,0,-1,1553,491,3.88475,3.86299
336,533,6.70923,-13.2003,0,0,0,0,0,0,0,-1,1560,491,6.70926,13.2004
343,533,7.07703,-14.2068,0,0,0,0,0,0,0,-1,1567,491,7.07707,14.2068
350,533,5.62915,-8.02426,0,0,0,0,0,0,0,-1,1574,491,5.6291,8.02426
357,533,6.82996,-14.2324,0,0,0,0,0,0,0,-1,1581,491,6.82992,14.2324
364,533,6.5835,-14.2428,0,0,0,0,0,0,0,-1,1588,491,6.58344,14.2428
371,533,6.62134,-13.9769,0,0,0,0,0,0,0,-1,1595,491,6.62138,13.9769
378,533,6.70288,-13.6531,0,0,0,0,0,0,0,-1,1602,491,6.70286,13.6531
385,533,6.72156,-13.3705,-0.000249784,-0.000462349,-0.00170364,0.00135088,-0.00206302,-0.754246,0.00198526,0.0240836,1609,491,6.72151,13.3705
392,533,6.71326,-13.1058,-0.000191724,-1.8426e-05,-0.00105793,0.000956393,-0.00116654,-0.826259,0.00122768,0.0136933,1616,491,6.71324,13.1058
399,533,6.73608,-12.8292,-0.000274106,3.30304e-05,-0.000867623,0.000760571,-0.00100165,-0.87299,0.00102059,0.0120369,1623,491,6.73613,12.8292
406,533,6.73242,-12.5288,-0.000268304,0.000160107,-0.000740863,0.00071711,-0.000825306,-0.926126,0.000891244,0.0150847,1630,491,6.73245,12.5289
413,533,6.75073,-12.1827,-0.000188882,0.000384818,-0.000530245,0.00070083,-0.000504894,-1.03334,0.000699182,0.0136949,1637,491,6.75077,12.1827
420,533,6.75586,-11.8745,-0.000192606,0.000312877,-0.000423726,0.000553514,-0.000433242,-1.05431,0.000571112,0.0120822,1644,491,6.75588,11.8745
427,533,6.72412,-11.5572,-0.000188537,0.000165991,-0.000259363,0.000302879,-0.000325426,-1.08517,0.00036283,0.0129408,1651,491,6.7241,11.5572
434,533,6.71851,-11.2477,-7.46252e-05,-2.31281e-05,4.29081e-06,-2.2773e-05,-7.49803e-05,1.48823,4.43878e-05,0.0129525,1658,491,6.7185,11.2477
441,533,6.74146,-10.933,0.000110353,-0.000119305,0.000349105,0.000363029,-0.000371981,0.62651,0.000424369,0.0145498,1665,491,6.74141,10.933
448,533,6.72852,-10.6248,0.000350785,-0.000317834,0.000724804,0.000814664,-0.000781712,0.569317,0.000921733,0.0158402,1672,491,6.72852,10.6248
455,533,6.70093,-10.2844,0.000617374,-0.00050585,0.00112665,0.00131463,-0.00120311,0.554183,0.00145409,0.0155487,1679,491,6.70092,10.2844
462,533,6.68396,-9.93402,0.000655588,-0.00072167,0.00135834,0.00148989,-0.00155597,0.550797,0.00175866,0.014501,1686,491,6.6839,9.93401
469,533,6.69348,-9.62646,0.000104107,-0.00163125,0.000894356,0.000482518,-0.00200966,0.400269,0.00152625,0.00984349,1693,491,6.69342,9.62646
476,533,6.70422,-9.28131,-0.000564412,-0.00240703,0.000480778,-0.000446511,-0.00252493,0.240485,0.00155595,0.010682,1700,491,6.70425,9.2813
483,533,6.75012,-8.91791,-0.00178885,-0.00363414,-0.000520278,-0.00165227,-0.00377072,-0.256726,0.00218257,0.021434,1707,491,6.75015,8.91792
490,533,6.86853,-8.43903,0,0,0,0,0,0,0,-1,1714,491,6.86848,8.43904
497,533,6.82349,-8.31073,0,0,0,0,0,0,0,-1,1721,491,6.82344,8.31073
504,533,6.77515,-7.84433,0,0,0,0,0,0,0,-1,1728,491,6.77509,7.84434
511,533,6.78076,-7.47104,0,0,0,0,0,0,0,-1,1735,491,6.78077,7.47103
518,533,5.77161,-8.09894,0,0,0,0,0,0,0,-1,1742,491,5.77166,8.09894
525,533,6.34204,-6.62457,0,0,0,0,0,0,0,-1,1749,491,6.34202,6.62456
532,533,3.24243,0.0737,0,0,0,0,0,0,0,-1,1756,491,3.24239,-0.0737072
539,533,3.61609,1.62427,0,0,0,0,0,0,0,-1,1763,491,3.61606,-1.62426
546,533,3.59607,1.65799,0,0,0,0,0,0,0,-1,1770,491,3.59605,-1.658
553,533,0,0,0,0,0,0,0,0,0,-1,1777,491,0,0
560,533,0,0,0,0,0,0,0,0,0,-1,1784,491,0,0
567,533,0,0,0,0,0,0,0,0,0,-1,1791,491,0,0
574,533,0,0,0,0,0,0,0,0,0,-1,1798,491,0,0
581,533,0,0,0,0,0,0,0,0,0,-1,1805,491,0,0
588,533,0,0,0,0,0,0,0,0,0,-1,1812,491,0,0
595,533,0,0,0,0,0,0,0,0,0,-1,1819,491,0,0
602,533,0,0,0,0,0,0,0,0,0,-1,1826,491,0,0
609,533,0,0,0,0,0,0,0,0,0,-1,1833,491,0,0
616,533,0,0,0,0,0,0,0,0,0,-1,1840,491,0,0
623,533,0,0,0,0,0,0,0,0,0,-1,1847,491,0,0
630,533,0,0,0,0,0,0,0,0,0,-1,1854,491,0,0
637,533,0,0,0,0,0,0,0,0,0,-1,1861,491,0,0
644,533,0,0,0,0,0,0,0,0,0,-1,1868,491,0,0
651,533,0,0,0,0,0,0,0,0,0,-1,1875,491,0,0
658,533,0,0,0,0,0,0,0,0,0,-1,1882,491,0,0
665,533,0,0,0,0,0,0,0,0,0,-1,1889,491,0,0
672,533,0,0,0,0,0,0,0,0,0,-1,1896,491,0,0
679,533,0,0,0,0,0,0,0,0,0,-1,1903,491,0,0
686,533,0,0,0,0,0,0,0,0,0,-1,1910,491,0,0
693,533,0,0,0,0,0,0,0,0,0,-1,1917,491,0,0
700,533,0,0,0,0,0,0,0,0,0,-1,1924,491,0,0
707,533,0,0,0,0,0,0,0,0,0,-1,1931,491,0,0
714,533,0,0,0,0,0,0,0,0,0,-1,1938,491,0,0
721,533,0,0,0,0,0,0,0,0,0,-1,1945,491,0,0
728,533,0,0,0,0,0,0,0,0,0,-1,1952,491,0,0
735,533,0,0,0,0,0,0,0,0,0,-1,1959,491,0,0
742,533,0,0,0,0,0,0,0,0,0,-1,1966,491,0,0
749,533,0,0,0,0,0,0,0,0,0,-1,1973,491,0,0
756,533,0,0,0,0,0,0,0,0,0,-1,1980,491,0,0
763,533,0,0,0,0,0,0,0,0,0,-1,1987,491,0,0
770,533,0,0,0,0,0,0,0,0,0,-1,1994,491,0,0
777,533,0,0,0,0,0,0,0,0,0,-1,2001,491,0,0
784,533,0,0,0,0,0,0,0,0,0,-1,2008,491,0,0
791,533,0,0,0,0,0,0,0,0,0,-1,2015,491,0,0
798,533,0,0,0,0,0,0,0,0,0,-1,2022,491,0,0
805,533,0,0,0,0,0,0,0,0,0,-1,2029,491,0,0
812,533,0,0,0,0,0,0,0,0,0,-1,2036,491,0,0
-700,526,0,0,0,0,0,0,0,0,0,-1,524,498,0,0
-693,526,0,0,0,0,0,0,0,0,0,-1,531,498,0,0
-686,526,0,0,0,0,0,0,0,0,0,-1,538,498,0,0
-679,526,0,0,0,0,0,0,0,0,0,-1,545,498,0,0
-672,526,0,0,0,0,0,0,0,0,0,-1,552,498,0,0
-665,526,0,0,0,0,0,0,0,0,0,-1,559,498,0,0
-658,526,0,0,0,0,0,0,0,0,0,-1,566,498,0,0
-651,526,0,0,0,0,0,0,0,0,0,-1,573,498,0,0
-644,526,0,0,0,0,0,0,0,0,0,-1,580,498,0,0
-637,526,0,0,0,0,0,0,0,0,0,-1,587,498,0,0
-630,526,0,0,0,0,0,0,0,0,0,-1,594,498,0,0
-623,526,0,0,0,0,0,0,0,0,0,-1,601,498,0,0
-616,526,0,0,0,0,0,0,0,0,0,-1,608,498,0,0
-609,526,0,0,0,0,0,0,0,0,0,-1,615,498,0,0
-602,526,0,0,0,0,0,0,0,0,0,-1,622,498,0,0
-595,526,0,0,0,0,0,0,0,0,0,-1,629,498,0,0
-588,526,0,0,0,0,0,0,0,0,0,-1,636,498,0,0
-581,526,0,0,0,0,0,0,0,0,0,-1,643,498,0,0
-574,526,0,0,0,0,0,0,0,0,0,-1,650,498,0,0
-567,526,0,0,0,0,0,0,0,0,0,-1,657,498,0,0
-560,526,0,0,0,0,0,0,0,0,0,-1,664,498,0,0
-553,526,0,0,0,0,0,0,0,0,0,-1,671,498,0,0
-546,526,0,0,0,0,0,0,0,0,0,-1,678,498,0,0
-539,526,0,0,0,0,0,0,0,0,0,-1,685,498,0,0
-532,526,0,0,0,0,0,0,0,0,0,-1,692,498,0,0
-525,526,0,0,0,0,0,0,0,0,0,-1,699,498,0,0
-518,526,0,0,0,0,0,0,0,0,0,-1,706,498,0,0
-511,526,0,0,0,0,0,0,0,0,0,-1,713,498,0,0
-504,526,0,0,0,0,0,0,0,0,0,-1,720,498,0,0
-497,526,0,0,0,0,0,0,0,0,0,-1,727,498,0,0
-490,526,0,0,0,0,0,0,0,0,0,-1,734,498,0,0
-483,526,0,0,0,0,0,0,0,0,0,-1,741,498,0,0
-476,526,0,0,0,0,0,0,0,0,0,-1,748,498,0,0
-469,526,0,0,0,0,0,0,0,0,0,-1,755,498,0,0
-462,526,0,0,0,0,0,0,0,0,0,-1,762,498,0,0
-455,526,0,0,0,0,0,0,0,0,0,-1,769,498,0,0
-448,526,0,0,0,0,0,0,0,0,0,-1,776,498,0,0
-441,526,0,0,0,0,0,0,0,0,0,-1,783,498,0,0
-434,526,-0.153564,-5.96649,0,0,0,0,0,0,0,-1,790,498,-0.153589,5.9665
-427,526,0.0078125,-5.84042,0,0,0,0,0,0,0,-1,797,498,0.00779806,5.84041
-420,526,0.137146,-5.72488,0,0,0,0,0,0,0,-1,804,498,0.137154,5.7249
-413,526,0.536926,-6.68375,0,0,0,0,0,0,0,-1,811,498,0.536925,6.68374
-406,526,0.739624,-6.38733,0,0,0,0,0,0,0,-1,818,498,0.739614,6.38734
-399,526,0.806152,-5.63318,0,0,0,0,0,0,0,-1,825,498,0.806178,5.63318
-392,526,-1.10022,-6.7597,0,0,0,0,0,0,0,-1,832,498,-1.10022,6.75971
-385,526,-0.381348,-8.19635,0,0,0,0,0,0,0,-1,839,498,-0.381317,8.19635
-378,526,0.243591,-9.4108,0,0,0,0,0,0,0,-1,846,498,0.243584,9.41078
-371,526,0.209656,-9.7475,0.00600562,-0.00140359,-0.00393108,0.00770264,-0.0031006,-0.407525,0.00642312,0.0405183,853,498,0.209643,9.7475
-364,526,0.177856,-10.0728,0.003919,-0.00117328,-0.00382851,0.00597072,-0.003225,-0.491958,0.00538746,0.0219369,860,498,0.17786,10.0728
-357,526,0.0758057,-10.3395,0.00255816,-0.00109166,-0.0037049,0.00486321,-0.00339671,-0.556557,0.00479386,0.0138908,867,498,0.075802,10.3395
-350,526,0.09198,-10.6656,0.00164763,-0.00119781,-0.00336522,0.00387852,-0.0034287,-0.585407,0.00422149,0.0114781,874,498,0.0919551,10.6656
-343,526,0.0708618,-11.0204,0.000707223,-0.000793819,-0.00312864,0.00317411,-0.0032607,-0.667679,0.00371525,0.0148575,881,498,0.0708706,11.0205
-336,526,0.0476685,-11.3377,0.000439366,-0.000712892,-0.0028389,0.00276001,-0.00303354,-0.685287,0.00334615,0.0157965,888,498,0.0476428,11.3377
-329,526,0.0480347,-11.6284,0.000500814,-0.000647817,-0.00248484,0.00247684,-0.00262385,-0.671829,0.00294529,0.0158304,895,498,0.0480197,11.6284
-322,526,0.0362549,-11.9099,0.000549945,-0.000534732,-0.00198379,0.00206419,-0.00204898,-0.651966,0.00237474,0.0102134,902,498,0.0362614,11.9098
-315,526,0.024231,-12.2287,0.00061016,-0.000249872,-0.00142802,0.0016715,-0.00131121,-0.639153,0.00172625,0.00886242,909,498,0.0242269,12.2287
-308,526,0.026062,-12.5312,0.000709386,1.63434e-05,-0.00084289,0.00127421,-0.000548476,-0.590374,0.00107977,0.00875084,916,498,0.0260599,12.5312
-301,526,0.0220947,-12.7997,0.000906693,0.000155284,-0.00021776,0.000965238,9.67379e-05,-0.262644,0.000613793,0.0103735,923,498,0.0220877,12.7997
-294,526,0.0197144,-13.0901,0.00135583,-0.000151108,0.000362309,0.00143841,-0.000233692,0.224107,0.00104558,0.00964783,930,498,0.0197208,13.0901
-287,526,0.00506592,-13.3867,0.00210375,-0.00119155,0.000656887,0.00222987,-0.00131766,0.189685,0.00207062,0.00926299,937,498,0.00507149,13.3867
-280,526,0.00396729,-13.6693,0.0026636,-0.00230434,0.000867838,0.00281084,-0.00245158,0.168059,0.00304062,0.0115116,944,498,0.00396873,13.6693
-273,526,0.0231934,-13.9598,0.00312043,-0.00394464,0.00120073,0.00331892,-0.00414314,0.163828,0.00431697,0.0102544,951,498,0.0231829,13.9598
-266,526,0.055481,-14.2311,0.00350693,-0.00628344,0.00141848,0.0037083,-0.00648482,0.141023,0.00595733,0.00977996,958,498,0.0554652,14.2311
-259,526,0.0787964,-14.4801,0.00382749,-0.00901083,0.00206863,0.00415257,-0.00933591,0.155875,0.00797694,0.0162527,965,498,0.0787991,14.4801
-252,526,0.102356,-14.6608,0.00387327,-0.0123982,0.00319341,0.00447756,-0.0130025,0.187019,0.0104846,0.0293754,972,498,0.102344,14.6608
-245,526,0.288391,-14.6546,0.00388235,-0.0162159,0.00469918,0.00492679,-0.0172603,0.218705,0.0134533,0.0378351,979,498,0.28838,14.6546
-238,526,0.600769,-14.5828,0.00393807,-0.0203285,0.00651832,0.00557813,-0.0219686,0.246492,0.0168163,0.0416148,986,498,0.600796,14.5828
-231,526,0.350525,-14.947,0,0,0,0,0,0,0,-1,993,498,0.35052,14.947
-224,526,-0.352539,-15.2988,0,0,0,0,0,0,0,-1,1000,498,-0.352509,15.2988
-217,526,-0.48584,-15.7311,0,0,0,0,0,0,0,-1,1007,498,-0.485862,15.7311
-210,526,1.31683,-13.776,0,0,0,0,0,0,0,-1,1014,498,1.31682,13.776
-203,526,0.282837,-15.2681,0,0,0,0,0,0,0,-1,1021,498,0.282848,15.2681
-196,526,-0.328247,-12.179,0,0,0,0,0,0,0,-1,1028,498,-0.328238,12.179
-189,526,0.401245,-5.96826,0,0,0,0,0,0,0,-1,1035,498,0.401197,5.96826
-182,526,1.7323,-2.99405,0,0,0,0,0,0,0,-1,1042,498,1.73226,2.99404
-175,526,2.27637,-2.07983,0,0,0,0,0,0,0,-1,1049,498,2.27639,2.07984
-168,526,2.12036,-1.66049,0,0,0,0,0,0,0,-1,1056,498,2.12035,1.66048
-161,526,2.09082,-1.20572,0,0,0,0,0,0,0,-1,1063,498,2.09086,1.2057
-154,526,-1.3446,-5.37799,0,0,0,0,0,0,0,-1,1070,498,-1.34457,5.37799
-147,526,-0.472656,-6.64996,0,0,0,0,0,0,0,-1,1077,498,-0.472659,6.64997
-140,526,0.422852,-8.03339,0,0,0,0,0,0,0,-1,1084,498,0.422844,8.0334
-133,526,1.09583,-9.2215,0,0,0,0,0,0,0,-1,1091,498,1.09581,9.2215
-126,526,3.42529,-2.36053,0,0,0,0,0,0,0,-1,1098,498,3.42523,2.36052
-119,526,2.7771,-0.764099,0,0,0,0,0,0,0,-1,1105,498,2.7771,0.764107
-112,526,2.57715,-1.1893,0,0,0,0,0,0,0,-1,1112,498,2.57718,1.1893
-105,526,0,0,0,0,0,0,0,0,0,-1,1119,498,0,0
-98,526,0,0,0,0,0,0,0,0,0,-1,1126,498,0,0
-91,526,0,0,0,0,0,0,0,0,0,-1,1133,498,0,0
-84,526,0,0,0,0,0,0,0,0,0,-1,1140,498,0,0
-77,526,0,0,0,0,0,0,0,0,0,-1,1147,498,0,0
-70,526,0,0,0,0,0,0,0,0,0,-1,1154,498,0,0
-63,526,0,0,0,0,0,0,0,0,0,-1,1161,498,0,0
-56,526,0,0,0,0,0,0,0,0,0,-1,1168,498,0,0
-49,526,0,0,0,0,0,0,0,0,0,-1,1175,498,0,0
-42,526,0,0,0,0,0,0,0,0,0,-1,1182,498,0,0
-35,526,0,0,0,0,0,0,0,0,0,-1,1189,498,0,0
-28,526,0,0,0,0,0,0,0,0,0,-1,1196,498,0,0
-21,526,0,0,0,0,0,0,0,0,0,-1,1203,498,0,0
-14,526,0,0,0,0,0,0,0,0,0,-1,1210,498,0,0
-7,526,0,0,0,0,0,0,0,0,0,-1,1217,498,0,0
0,526,0,0,0,0,0,0,0,0,0,-1,1224,498,0,0
7,526,0,0,0,0,0,0,0,0,0,-1,1231,498,0,0
14,526,0,0,0,0,0,0,0,0,0,-1,1238,498,0,0
21,526,0,0,0,0,0,0,0,0,0,-1,1245,498,0,0
28,526,0,0,0,0,0,0,0,0,0,-1,1252,498,0,0
35,526,0,0,0,0,0,0,0,0,0,-1,1259,498,0,0
42,526,0,0,0,0,0,0,0,0,0,-1,1266,498,0,0
49,526,0,0,0,0,0,0,0,0,0,-1,1273,498,0,0
56,526,0,0,0,0,0,0,0,0,0,-1,1280,498,0,0
63,526,0,0,0,0,0,0,0,0,0,-1,1287,498,0,0
70,526,0,0,0,0,0,0,0,0,0,-1,1294,498,0,0
77,526,0,0,0,0,0,0,0,0,0,-1,1301,498,0,0
84,526,0,0,0,0,0,0,0,0,0,-1,1308,498,0,0
91,526,0,0,0,0,0,0,0,0,0,-1,1315,498,0,0
98,526,0,0,0,0,0,0,0,0,0,-1,1322,498,0,0
105,526,0,0,0,0,0,0,0,0,0,-1,1329,498,0,0
112,526,0,0,0,0,0,0,0,0,0,-1,1336,498,0,0
119,526,0,0,0,0,0,0,0,0,0,-1,1343,498,0,0
126,526,0,0,0,0,0,0,0,0,0,-1,1350,498,0,0
133,526,0,0,0,0,0,0,0,0,0,-1,1357,498,0,0
140,526,0,0,0,0,0,0,0,0,0,-1,1364,498,0,0
147,526,0,0,0,0,0,0,0,0,0,-1,1371,498,0,0
154,526,0,0,0,0,0,0,0,0,0,-1,1378,498,0,0
161,526,0,0,0,0,0,0,0,0,0,-1,1385,498,0,0
168,526,0,0,0,0,0,0,0,0,0,-1,1392,498,0,0
175,526,0,0,0,0,0,0,0,0,0,-1,1399,498,0,0
182,526,0,0,0,0,0,0,0,0,0,-1,1406,498,0,0
189,526,0,0,0,0,0,0,0,0,0,-1,1413,498,0,0
196,526,0,0,0,0,0,0,0,0,0,-1,1420,498,0,0
203,526,0,0,0,0,0,0,0,0,0,-1,1427,498,0,0
210,526,0,0,0,0,0,0,0,0,0,-1,1434,498,0,0
217,526,0,0,0,0,0,0,0,0,0,-1,1441,498,0,0
224,526,0,0,0,0,0,0,0,0,0,-1,1448,498,0,0
231,526,7.93237,-1.30618,0,0,0,0,0,0,0,-1,1455,498,7.93238,1.30618
238,526,7.97717,-1.08197,0,0,0,0,0,0,0,-1,1462,498,7.97723,1.08196
245,526,7.2793,-0.792938,0,0,0,0,0,0,0,-1,1469,498,7.27931,0.792926
252,526,6.73523,-2.23608,0,0,0,0,0,0,0,-1,1476,498,6.73525,2.23608
259,526,6.22949,-1.84967,0,0,0,0,0,0,0,-1,1483,498,6.22953,1.84968
266,526,5.72375,-1.46329,0,0,0,0,0,0,0,-1,1490,498,5.72381,1.46328
273,526,4.33984,0.49173,0,0,0,0,0,0,0,-1,1497,498,4.33979,-0.491727
280,526,1.4585,-1.59897,0,0,0,0,0,0,0,-1,1504,498,1.45846,1.59895
287,526,1.46411,-2.40134,0,0,0,0,0,0,0,-1,1511,498,1.46406,2.40133
294,526,5.57471,-4.59085,0,0,0,0,0,0,0,-1,1518,498,5.57466,4.59084
301,526,4.42786,-3.99677,0,0,0,0,0,0,0,-1,1525,498,4.42788,3.99676
308,526,5.79529,-4.19366,0,0,0,0,0,0,0,-1,1532,498,5.79528,4.19368
315,526,5.09851,-5.20068,0,0,0,0,0,0,0,-1,1539,498,5.09851,5.20068
322,526,5.50708,-4.72348,0,0,0,0,0,0,0,-1,1546,498,5.50713,4.72347
329,526,3.88672,-4.345,0,0,0,0,0,0,0,-1,1553,498,3.88674,4.34501
336,526,4.97876,-2.23828,0,0,0,0,0,0,0,-1,1560,498,4.97877,2.23828
343,526,3.31665,-2.69696,0,0,0,0,0,0,0,-1,1567,498,3.31667,2.69696
350,526,6.06287,-6.12015,0,0,0,0,0,0,0,-1,1574,498,6.06286,6.12014
357,526,5.79736,-7.7854,0,0,0,0,0,0,0,-1,1581,498,5.79734,7.78539
364,526,6.46191,-13.365,0,0,0,0,0,0,0,-1,1588,498,6.46194,13.365
371,526,6.08374,-12.2745,0,0,0,0,0,0,0,-1,1595,498,6.08372,12.2745
378,526,5.96716,-11.8669,0,0,0,0,0,0,0,-1,1602,498,5.96712,11.8669
385,526,6.90747,-13.5048,0,0,0,0,0,0,0,-1,1609,498,6.90746,13.5048
392,526,7.08252,-13.1422,-0.000791917,-0.00020035,-0.00172718,0.00125619,-0.00224846,-0.870202,0.00205026,0.0397077,1616,498,7.08254,13.1423
399,526,7.00867,-12.8361,-0.000890324,-0.000287063,-0.00162225,0.00106136,-0.00223875,-0.877315,0.00194532,0.0212978,1623,498,7.00865,12.8361
406,526,7.07239,-12.4967,-0.000815858,-0.000206674,-0.00153022,0.00104897,-0.00207151,-0.88364,0.00183357,0.0130397,1630,498,7.07235,12.4967
413,526,7.07214,-12.1851,-0.000650634,4.61165e-05,-0.00129667,0.00104039,-0.00164491,-0.916634,0.0015634,0.0131988,1637,498,7.07218,12.185
420,526,7.05164,-11.9008,-0.000632054,-4.64309e-05,-0.00119502,0.000891131,-0.00156962,-0.905544,0.0014386,0.0125518,1644,498,7.05166,11.9008
427,526,7.04797,-11.5796,-0.00062575,-0.000177327,-0.00103336,0.000655864,-0.00145894,-0.892229,0.00124998,0.013106,1651,498,7.04794,11.5796
434,526,7.03882,-11.233,-0.000509543,-0.000299328,-0.000760776,0.000363567,-0.00117244,-0.854043,0.000926894,0.0124408,1658,498,7.0388,11.233
441,526,7.03735,-10.9112,-0.000298302,-0.00032083,-0.000397528,8.81211e-05,-0.000707253,-0.771234,0.000503453,0.0109165,1665,498,7.03739,10.9112
448,526,7.03406,-10.6096,-1.18345e-05,-0.000419959,9.97065e-06,-1.15911e-05,-0.000420202,0.024411,0.000276352,0.0100486,1672,498,7.03407,10.6096
455,526,7.01843,-10.2794,0.000301913,-0.000489781,0.000439755,0.000497741,-0.000685609,0.418949,0.000686071,0.0129717,1679,498,7.01848,10.2795
462,526,7.01807,-9.93652,0.000415367,-0.000589564,0.000719912,0.000790822,-0.000965019,0.480723,0.0010154,0.010075,1686,498,7.01802,9.93653
469,526,7.01965,-9.61749,5.22558e-06,-0.00132709,0.00038011,0.000106042,-0.0014279,0.259261,0.000989179,0.00765006,1693,498,7.01961,9.61749
476,526,7.02112,-9.28171,-0.000517589,-0.00194811,8.68166e-05,-0.000512339,-0.00195336,0.0603934,0.00116949,0.00921669,1700,498,7.02115,9.28172
483,526,7.04395,-8.89587,-0.00147713,-0.0029435,-0.000691397,-0.00120255,-0.00321808,-0.378037,0.00187762,0.0118627,1707,498,7.04391,8.89589
490,526,7.12024,-8.49377,-0.00309692,-0.00454378,-0.00194424,-0.00174588,-0.00589482,-0.607291,0.00349637,0.0263425,1714,498,7.12024,8.49377
497,526,7.02148,-8.34781,-0.00543152,-0.00652611,-0.00389763,-0.00204295,-0.00991469,-0.715646,0.006045,0.0313486,1721,498,7.02146,8.34782
504,526,6.98035,-7.96619,-0.00876419,-0.00923926,-0.00678202,-0.00221555,-0.0157879,-0.767893,0.00986999,0.0323983,1728,498,6.98038,7.9662
511,526,7.03223,-7.56949,-0.0128016,-0.0123078,-0.0103106,-0.00224116,-0.0228682,-0.797369,0.0145561,0.0404624,1735,498,7.0322,7.56947
518,526,6.4646,-7.88364,-0.0180185,-0.0160839,-0.0148147,-0.00220501,-0.0318974,-0.817998,0.0205694,0.0432146,1742,498,6.46458,7.88364
525,526,6.30933,-8.0173,0,0,0,0,0,0,0,-1,1749,498,6.30927,8.0173
532,526,3.54285,-2.81274,0,0,0,0,0,0,0,-1,1756,498,3.54284,2.81273
539,526,3.29407,0.932312,0,0,0,0,0,0,0,-1,1763,498,3.2941,-0.93232
546,526,3.36731,1.07721,0,0,0,0,0,0,0,-1,1770,498,3.36735,-1.07719
553,526,3.40796,1.37137,0,0,0,0,0,0,0,-1,1777,498,3.40792,-1.37138
560,526,0,0,0,0,0,0,0,0,0,-1,1784,498,0,0
567,526,0,0,0,0,0,0,0,0,0,-1,1791,498,0,0
574,526,0,0,0,0,0,0,0,0,0,-1,1798,498,0,0
581,526,0,0,0,0,0,0,0,0,0,-1,1805,498,0,0
588,526,0,0,0,0,0,0,0,0,0,-1,1812,498,0,0
595,526,0,0,0,0,0,0,0,0,0,-1,1819,498,0,0
602,526,0,0,0,0,0,0,0,0,0,-1,1826,498,0,0
609,526,0,0,0,0,0,0,0,0,0,-1,1833,498,0,0
616,526,0,0,0,0,0,0,0,0,0,-1,1840,498,0,0
623,526,0,0,0,0,0,0,0,0,0,-1,1847,498,0,0
630,526,0,0,0,0,0,0,0,0,0,-1,1854,498,0,0
637,526,0,0,0,0,0,0,0,0,0,-1,1861,498,0,0
644,526,0,0,0,0,0,0,0,0,0,-1,1868,498,0,0
651,526,0,0,0,0,0,0,0,0,0,-1,1875,498,0,0
658,526,0,0,0,0,0,0,0,0,0,-1,1882,498,0,0
665,526,0,0,0,0,0,0,0,0,0,-1,1889,498,0,0
672,526,0,0,0,0,0,0,0,0,0,-1,1896,498,0,0
679,526,0,0,0,0,0,0,0,0,0,-1,1903,498,0,0
686,526,0,0,0,0,0,0,0,0,0,-1,1910,498,0,0
693,526,0,0,0,0,0,0,0,0,0,-1,1917,498,0,0
700,526,0,0,0,0,0,0,0,0,0,-1,1924,498,0,0
707,526,0,0,0,0,0,0,0,0,0,-1,1931,498,0,0
714,526,0,0,0,0,0,0,0,0,0,-1,1938,498,0,0
721,526,0,0,0,0,0,0,0,0,0,-1,1945,498,0,0
728,526,0,0,0,0,0,0,0,0,0,-1,1952,498,0,0
735,526,0,0,0,0,0,0,0,0,0,-1,1959,498,0,0
742,526,0,0,0,0,0,0,0,0,0,-1,1966,498,0,0
749,526,0,0,0,0,0,0,0,0,0,-1,1973,498,0,0
756,526,0,0,0,0,0,0,0,0,0,-1,1980,498,0,0
763,526,0,0,0,0,0,0,0,0,0,-1,1987,498,0,0
770,526,0,0,0,0,0,0,0,0,0,-1,1994,498,0,0
777,526,0,0,0,0,0,0,0,0,0,-1,2001,498,0,0
784,526,0,0,0,0,0,0,0,0,0,-1,2008,498,0,0
791,526,0,0,0,0,0,0,0,0,0,-1,2015,498,0,0
798,526,0,0,0,0,0,0,0,0,0,-1,2022,498,0,0
805,526,0,0,0,0,0,0,0,0,0,-1,2029,498,0,0
812,526,0,0,0,0,0,0,0,0,0,-1,2036,498,0,0
-700,519,0,0,0,0,0,0,0,0,0,-1,524,505,0,0
-693,519,0,0,0,0,0,0,0,0,0,-1,531,505,0,0
-686,519,0,0,0,0,0,0,0,0,0,-1,538,505,0,0
-679,519,0,0,0,0,0,0,0,0,0,-1,545,505,0,0
-672,519,0,0,0,0,0,0,0,0,0,-1,552,505,0,0
-665,519,0,0,0,0,0,0,0,0,0,-1,559,505,0,0
-658,519,0,0,0,0,0,0,0,0,0,-1,566,505,0,0
-651,519,0,0,0,0,0,0,0,0,0,-1,573,505,0,0
-644,519,0,0,0,0,0,0,0,0,0,-1,580,505,0,0
-637,519,0,0,0,0,0,0,0,0,0,-1,587,505,0,0
-630,519,0,0,0,0,0,0,0,0,0,-1,594,505,0,0
-623,519,0,0,0,0,0,0,0,0,0,-1,601,505,0,0
-616,519,0,0,0,0,0,0,0,0,0,-1,608,505,0,0
-609,519,0,0,0,0,0,0,0,0,0,-1,615,505,0,0
-602,519,0,0,0,0,0,0,0,0,0,-1,622,505,0,0
-595,519,0,0,0,0,0,0,0,0,0,-1,629,505,0,0
-588,519,0,0,0,0,0,0,0,0,0,-1,636,505,0,0
-581,519,0,0,0,0,0,0,0,0,0,-1,643,505,0,0
-574,519,0,0,0,0,0,0,0,0,0,-1,650,505,0,0
-567,519,0,0,0,0,0,0,0,0,0,-1,657,505,0,0
-560,519,0,0,0,0,0,0,0,0,0,-1,664,505,0,0
-553,519,0,0,0,0,0,0,0,0,0,-1,671,505,0,0
-546,519,0,0,0,0,0,0,0,0,0,-1,678,505,0,0
-539,519,0,0,0,0,0,0,0,0,0,-1,685,505,0,0
-532,519,0,0,0,0,0,0,0,0,0,-1,692,505,0,0
-525,519,0,0,0,0,0,0,0,0,0,-1,699,505,0,0
-518,519,0,0,0,0,0,0,0,0,0,-1,706,505,0,0
-511,519,0,0,0,0,0,0,0,0,0,-1,713,505,0,0
-504,519,0,0,0,0,0,0,0,0,0,-1,720,505,0,0
-497,519,0,0,0,0,0,0,0,0,0,-1,727,505,0,0
-490,519,0,0,0,0,0,0,0,0,0,-1,734,505,0,0
-483,519,0,0,0,0,0,0,0,0,0,-1,741,505,0,0
-476,519,0,0,0,0,0,0,0,0,0,-1,748,505,0,0
-469,519,0,0,0,0,0,0,0,0,0,-1,755,505,0,0
-462,519,0,0,0,0,0,0,0,0,0,-1,762,505,0,0
-455,519,0,0,0,0,0,0,0,0,0,-1,769,505,0,0
-448,519,0,0,0,0,0,0,0,0,0,-1,776,505,0,0
-441,519,1.34839,-5.29346,0,0,0,0,0,0,0,-1,783,505,1.3484,5.29347
-434,519,0.949585,-5.77313,0,0,0,0,0,0,0,-1,790,505,0.949598,5.77315
-427,519,0.138489,-5.67401,0,0,0,0,0,0,0,-1,797,505,0.138516,5.67402
-420,519,0.323425,-6.76398,0,0,0,0,0,0,0,-1,804,505,0.323439,6.76396
-413,519,0.166199,-7.0437,0,0,0,0,0,0,0,-1,811,505,0.166196,7.04367
-406,519,0.183838,-6.90329,0,0,0,0,0,0,0,-1,818,505,0.18386,6.9033
-399,519,-0.617737,-8.51959,0,0,0,0,0,0,0,-1,825,505,-0.617735,8.51956
-392,519,-0.245178,-8.703,0,0,0,0,0,0,0,-1,832,505,-0.245156,8.703
-385,519,-0.212097,-8.94067,0,0,0,0,0,0,0,-1,839,505,-0.212105,8.94069
-378,519,-0.18103,-9.24829,0.00755087,-0.000398309,-0.00319608,0.00867651,-0.00152394,-0.338626,0.00635354,0.0341575,846,505,-0.181016,9.24829
-371,519,-0.160522,-9.63519,0.00500587,-0.000457702,-0.00296927,0.00630884,-0.00176067,-0.413515,0.00489939,0.0195511,853,505,-0.1605,9.6352
-364,519,-0.221802,-9.97662,0.00308256,-0.000342683,-0.00260284,0.00448568,-0.00174581,-0.494416,0.00371186,0.0123304,860,505,-0.221773,9.97665
-357,519,-0.205139,-10.3459,0.0017673,-0.000329417,-0.0023235,0.00326801,-0.00183012,-0.573473,0.00298217,0.0102488,867,505,-0.205149,10.3459
-350,519,-0.203003,-10.6798,0.000876865,-0.000527838,-0.00194139,0.00223905,-0.00189002,-0.611834,0.00238676,0.0118563,874,505,-0.202997,10.6798
-343,519,-0.233582,-10.9916,1.2885e-05,-0.000237661,-0.00168705,0.00157931,-0.00180409,-0.748338,0.00195484,0.0146444,881,505,-0.233608,10.9917
-336,519,-0.266357,-11.3079,-0.000186235,-0.000248504,-0.00143471,0.00121768,-0.00165242,-0.774549,0.00166338,0.0155118,888,505,-0.266355,11.3079
-329,519,-0.260681,-11.6013,-1.18833e-05,-0.000274934,-0.00117773,0.00104164,-0.00132846,-0.72979,0.00137171,0.0136623,895,505,-0.260703,11.6013
-322,519,-0.263428,-11.9029,0.000189331,-0.000260595,-0.000804355,0.000799589,-0.000870853,-0.649042,0.000964723,0.0109062,902,505,-0.263447,11.9029
-315,519,-0.266296,-12.2264,0.000443082,-9.03634e-05,-0.000386717,0.000646137,-0.000293419,-0.483505,0.000555048,0.00891783,909,505,-0.266299,12.2264
-308,519,-0.265747,-12.5514,0.000774724,5.20049e-05,5.65885e-05,0.000779128,4.76009e-05,0.0776686,0.000504301,0.00787482,916,505,-0.26576,12.5514
-301,519,-0.246826,-12.8406,0.00126023,8.58221e-05,0.000541768,0.00147197,-0.000125924,0.372588,0.00102587,0.0126086,923,505,-0.246806,12.8406
-294,519,-0.254578,-13.1046,0.00202989,-0.000370065,0.000995621,0.00238915,-0.00072932,0.346295,0.00188354,0.0153117,930,505,-0.254553,13.1046
-287,519,-0.2995,-13.3924,0.00320716,-0.00169553,0.00111191,0.00344755,-0.00193592,0.212919,0.00314872,0.0104067,937,505,-0.299479,13.3924
-280,519,-0.289978,-13.6814,0.00409161,-0.00300599,0.00123626,0.00430077,-0.00321515,0.167606,0.00435439,0.0159173,944,505,-0.289991,13.6814
-273,519,-0.248596,-13.9833,0.00475194,-0.00508044,0.00152411,0.00498277,-0.00531127,0.150311,0.00594428,0.0265591,951,505,-0.24859,13.9833
-266,519,-0.27124,-14.2934,0.00512973,-0.0079893,0.0016862,0.005343,-0.00820256,0.125807,0.00787841,0.0355666,958,505,-0.271235,14.2934
-259,519,-0.184448,-14.5285,0,0,0,0,0,0,0,-1,965,505,-0.184457,14.5285
-252,519,-0.14856,-14.598,0,0,0,0,0,0,0,-1,972,505,-0.148547,14.5979
-245,519,0.248596,-14.222,0,0,0,0,0,0,0,-1,979,505,0.248615,14.222
-238,519,0.748901,-13.9984,0,0,0,0,0,0,0,-1,986,505,0.748929,13.9984
-231,519,0.337585,-11.2798,0,0,0,0,0,0,0,-1,993,505,0.337568,11.2798
-224,519,-0.0494995,-7.97394,0,0,0,0,0,0,0,-1,1000,505,-0.0495123,7.97392
-217,519,-2.97125,-4.84393,0,0,0,0,0,0,0,-1,1007,505,-2.97128,4.84393
-210,519,-2.14398,-4.74774,0,0,0,0,0,0,0,-1,1014,505,-2.14397,4.74775
-203,519,-0.513611,-5.39017,0,0,0,0,0,0,0,-1,1021,505,-0.513585,5.39017
-196,519,-0.374023,-5.41635,0,0,0,0,0,0,0,-1,1028,505,-0.374047,5.41635
-189,519,-0.234497,-5.44254,0,0,0,0,0,0,0,-1,1035,505,-0.234508,5.44253
-182,519,2.76697,-1.19659,0,0,0,0,0,0,0,-1,1042,505,2.76696,1.19661
-175,519,2.31323,-0.960938,0,0,0,0,0,0,0,-1,1049,505,2.31319,0.960941
-168,519,2.01074,-0.721405,0,0,0,0,0,0,0,-1,1056,505,2.01072,0.721407
-161,519,2.32056,-0.522339,0,0,0,0,0,0,0,-1,1063,505,2.32057,0.522328
-154,519,2.55566,0.116669,0,0,0,0,0,0,0,-1,1070,505,2.55563,-0.116661
-147,519,-0.55127,-6.14001,0,0,0,0,0,0,0,-1,1077,505,-0.551252,6.14001
-140,519,0.240601,-7.53503,0,0,0,0,0,0,0,-1,1084,505,0.240653,7.53501
-133,519,2.70911,-4.4516,0,0,0,0,0,0,0,-1,1091,505,2.70915,4.45161
-126,519,0,0,0,0,0,0,0,0,0,-1,1098,505,0,0
-119,519,0,0,0,0,0,0,0,0,0,-1,1105,505,0,0
-112,519,0,0,0,0,0,0,0,0,0,-1,1112,505,0,0
-105,519,0,0,0,0,0,0,0,0,0,-1,1119,505,0,0
-98,519,0,0,0,0,0,0,0,0,0,-1,1126,505,0,0
-91,519,0,0,0,0,0,0,0,0,0,-1,1133,505,0,0
-84,519,0,0,0,0,0,0,0,0,0,-1,1140,505,0,0
-77,519,0,0,0,0,0,0,0,0,0,-1,1147,505,0,0
-70,519,0,0,0,0,0,0,0,0,0,-1,1154,505,0,0
-63,519,0,0,0,0,0,0,0,0,0,-1,1161,505,0,0
-56,519,0,0,0,0,0,0,0,0,0,-1,1168,505,0,0
-49,519,0,0,0,0,0,0,0,0,0,-1,1175,505,0,0
-42,519,0,0,0,0,0,0,0,0,0,-1,1182,505,0,0
-35,519,0,0,0,0,0,0,0,0,0,-1,1189,505,0,0
-28,519,0,0,0,0,0,0,0,0,0,-1,1196,505,0,0
-21,519,0,0,0,0,0,0,0,0,0,-1,1203,505,0,0
-14,519,0,0,0,0,0,0,0,0,0,-1,1210,505,0,0
-7,519,0,0,0,0,0,0,0,0,0,-1,1217,505,0,0
0,519,0,0,0,0,0,0,0,0,0,-1,1224,505,0,0
7,519,0,0,0,0,0,0,0,0,0,-1,1231,505,0,0
14,519,0,0,0,0,0,0,0,0,0,-1,1238,505,0,0
21,519,0,0,0,0,0,0,0,0,0,-1,1245,505,0,0
28,519,0,0,0,0,0,0,0,0,0,-1,1252,505,0,0
35,519,0,0,0,0,0,0,0,0,0,-1,1259,505,0,0
42,519,0,0,0,0,0,0,0,0,0,-1,1266,505,0,0
49,519,0,0,0,0,0,0,0,0,0,-1,1273,505,0,0
56,519,0,0,0,0,0,0,0,0,0,-1,1280,505,0,0
63,519,0,0,0,0,0,0,0,0,0,-1,1287,505,0,0
70,519,0,0,0,0,0,0,0,0,0,-1,1294,505,0,0
77,519,0,0,0,0,0,0,0,0,0,-1,1301,505,0,0
84,519,0,0,0,0,0,0,0,0,0,-1,1308,505,0,0
91,519,0,0,0,0,0,0,0,0,0,-1,1315,505,0,0
98,519,0,0,0,0,0,0,0,0,0,-1,1322,505,0,0
105,519,0,0,0,0,0,0,0,0,0,-1,1329,505,0,0
112,519,0,0,0,0,0,0,0,0,0,-1,1336,505,0,0
119,519,0,0,0,0,0,0,0,0,0,-1,1343,505,0,0
126,519,0,0,0,0,0,0,0,0,0,-1,1350,505,0,0
133,519,0,0,0,0,0,0,0,0,0,-1,1357,505,0,0
140,519,0,0,0,0,0,0,0,0,0,-1,1364,505,0,0
147,519,0,0,0,0,0,0,0,0,0,-1,1371,505,0,0
154,519,0,0,0,0,0,0,0,0,0,-1,1378,505,0,0
161,519,0,0,0,0,0,0,0,0,0,-1,1385,505,0,0
168,519,0,0,0,0,0,0,0,0,0,-1,1392,505,0,0
175,519,0,0,0,0,0,0,0,0,0,-1,1399,505,0,0
182,519,0,0,0,0,0,0,0,0,0,-1,1406,505,0,0
189,519,0,0,0,0,0,0,0,0,0,-1,1413,505,0,0
196,519,0,0,0,0,0,0,0,0,0,-1,1420,505,0,0
203,519,0,0,0,0,0,0,0,0,0,-1,1427,505,0,0
210,519,0,0,0,0,0,0,0,0,0,-1,1434,505,0,0
217,519,0,0,0,0,0,0,0,0,0,-1,1441,505,0,0
224,519,0,0,0,0,0,0,0,0,0,-1,1448,505,0,0
231,519,0,0,0,0,0,0,0,0,0,-1,1455,505,0,0
238,519,0,0,0,0,0,0,0,0,0,-1,1462,505,0,0
245,519,0,0,0,0,0,0,0,0,0,-1,1469,505,0,0
252,519,5.26208,0.0938416,0,0,0,0,0,0,0,-1,1476,505,5.26207,-0.0938493
259,519,6.14246,-1.36441,0,0,0,0,0,0,0,-1,1483,505,6.14241,1.36441
266,519,5.31909,-0.400787,0,0,0,0,0,0,0,-1,1490,505,5.31912,0.400773
273,519,4.02393,0.325531,0,0,0,0,0,0,0,-1,1497,505,4.0239,-0.325522
280,519,4.68848,0.53006,0,0,0,0,0,0,0,-1,1504,505,4.68842,-0.530073
287,519,7.9519,-3.80801,0,0,0,0,0,0,0,-1,1511,505,7.95193,3.808
294,519,6.92273,-3.38889,0,0,0,0,0,0,0,-1,1518,505,6.92268,3.38888
301,519,5.35669,-2.92661,0,0,0,0,0,0,0,-1,1525,505,5.35675,2.9266
308,519,7.37549,-5.64529,0,0,0,0,0,0,0,-1,1532,505,7.3755,5.64529
315,519,6.30029,-4.53754,0,0,0,0,0,0,0,-1,1539,505,6.30024,4.53753
322,519,5.84302,-5.45117,0,0,0,0,0,0,0,-1,1546,505,5.84303,5.45116
329,519,4.92407,0.62384,0,0,0,0,0,0,0,-1,1553,505,4.92403,-0.623832
336,519,3.10095,-0.329285,0,0,0,0,0,0,0,-1,1560,505,3.1009,0.329283
343,519,2.49146,-2.31119,0,0,0,0,0,0,0,-1,1567,505,2.49145,2.31119
350,519,3.47729,-2.22516,0,0,0,0,0,0,0,-1,1574,505,3.47726,2.22515
357,519,4.51917,-4.51691,0,0,0,0,0,0,0,-1,1581,505,4.51914,4.51691
364,519,3.54626,-7.20673,0,0,0,0,0,0,0,-1,1588,505,3.54622,7.20675
371,519,5.349,-8.20068,0,0,0,0,0,0,0,-1,1595,505,5.34898,8.20068
378,519,6.36597,-10.0967,0,0,0,0,0,0,0,-1,1602,505,6.36597,10.0967
385,519,6.24756,-9.72186,0,0,0,0,0,0,0,-1,1609,505,6.24752,9.72183
392,519,7.22107,-13.3894,0,0,0,0,0,0,0,-1,1616,505,7.22109,13.3894
399,519,7.21985,-12.8643,0,0,0,0,0,0,0,-1,1623,505,7.2199,12.8642
406,519,7.34631,-12.5242,-0.00192432,-0.000982614,-0.00283699,0.00142233,-0.00432926,-0.867633,0.00345917,0.030474,1630,505,7.34635,12.5242
413,519,7.40784,-12.2128,-0.00158319,-0.000640579,-0.00248957,0.0014219,-0.00364568,-0.878947,0.00301821,0.0141245,1637,505,7.40783,12.2127
420,519,7.35168,-11.8948,-0.0014566,-0.00069949,-0.00230526,0.00125809,-0.00341418,-0.866778,0.00279164,0.0145489,1644,505,7.35163,11.8948
427,519,7.3512,-11.597,-0.00134033,-0.000758267,-0.00204989,0.00102115,-0.00311975,-0.855914,0.00249099,0.0138902,1651,505,7.35124,11.597
434,519,7.3573,-11.2579,-0.0011377,-0.000746299,-0.00168817,0.000757477,-0.00264148,-0.843103,0.00206042,0.0129044,1658,505,7.35727,11.2579
441,519,7.34912,-10.9162,-0.000831343,-0.000653229,-0.0012448,0.000505698,-0.00199027,-0.821109,0.00152365,0.0120769,1665,505,7.34911,10.9162
448,519,7.35364,-10.5934,-0.000442086,-0.000613198,-0.000753177,0.000230379,-0.00128566,-0.728844,0.000943326,0.00912864,1672,505,7.35364,10.5934
455,519,7.3479,-10.2848,-4.08935e-05,-0.000537654,-0.00025663,6.78698e-05,-0.000646417,-0.400866,0.000455258,0.0101182,1679,505,7.34788,10.2848
462,519,7.35095,-9.95563,0.000185852,-0.000502082,0.000111324,0.000203419,-0.000519648,0.156505,0.000430565,0.00976445,1686,505,7.35095,9.95562
469,519,7.35571,-9.60938,-4.58247e-05,-0.00103117,-4.85928e-05,-4.34341e-05,-0.00103356,-0.0491567,0.000675026,0.00997894,1693,505,7.35566,9.60937
476,519,7.35193,-9.25293,-0.000428182,-0.00148471,-0.000202629,-0.000390654,-0.00152224,-0.183133,0.000912911,0.0122453,1700,505,7.35188,9.25291
483,519,7.35559,-8.90643,-0.00116015,-0.00226198,-0.000763599,-0.000769475,-0.00265266,-0.472901,0.00157586,0.0128863,1707,505,7.35556,8.90644
490,519,7.36365,-8.51825,-0.00249318,-0.00353455,-0.00172758,-0.00120952,-0.00481821,-0.63903,0.00289447,0.0111385,1714,505,7.36367,8.51826
497,519,7.36792,-8.21918,-0.00439035,-0.00515002,-0.00323851,-0.00150947,-0.0080309,-0.727021,0.00492844,0.0145899,1721,505,7.36788,8.21916
504,519,7.33008,-7.88062,-0.00703372,-0.00728577,-0.00541241,-0.00174587,-0.0125736,-0.773758,0.00786531,0.0143443,1728,505,7.33011,7.88059
511,519,7.33911,-7.52197,-0.01023,-0.00960094,-0.00802864,-0.00188066,-0.0179503,-0.804975,0.0113918,0.0193611,1735,505,7.33916,7.52198
518,519,7.20593,-7.48682,-0.0142291,-0.0123132,-0.0112196,-0.00201071,-0.0245316,-0.827984,0.0157271,0.0399841,1742,505,7.2059,7.4868
525,519,7.15173,-7.41785,0,0,0,0,0,0,0,-1,1749,505,7.15177,7.41786
532,519,3.5155,-2.86511,0,0,0,0,0,0,0,-1,1756,505,3.51554,2.8651
539,519,3.30005,0.0229797,0,0,0,0,0,0,0,-1,1763,505,3.30008,-0.0229869
546,519,4.62024,-2.89774,0,0,0,0,0,0,0,-1,1770,505,4.62023,2.89775
553,519,4.14136,0.0667419,0,0,0,0,0,0,0,-1,1777,505,4.14141,-0.0667503
560,519,3.77856,0.279724,0,0,0,0,0,0,0,-1,1784,505,3.77861,-0.279731
567,519,0,0,0,0,0,0,0,0,0,-1,1791,505,0,0
574,519,0,0,0,0,0,0,0,0,0,-1,1798,505,0,0
581,519,0,0,0,0,0,0,0,0,0,-1,1805,505,0,0
588,519,0,0,0,0,0,0,0,0,0,-1,1812,505,0,0
595,519,0,0,0,0,0,0,0,0,0,-1,1819,505,0,0
602,519,0,0,0,0,0,0,0,0,0,-1,1826,505,0,0
609,519,0,0,0,0,0,0,0,0,0,-1,1833,505,0,0
616,519,0,0,0,0,0,0,0,0,0,-1,1840,505,0,0
623,519,0,0,0,0,0,0,0,0,0,-1,1847,505,0,0
630,519,0,0,0,0,0,0,0,0,0,-1,1854,505,0,0
637,519,0,0,0,0,0,0,0,0,0,-1,1861,505,0,0
644,519,0,0,0,0,0,0,0,0,0,-1,1868,505,0,0
651,519,0,0,0,0,0,0,0,0,0,-1,1875,505,0,0
658,519,0,0,0,0,0,0,0,0,0,-1,1882,505,0,0
665,519,0,0,0,0,0,0,0,0,0,-1,1889,505,0,0
672,519,0,0,0,0,0,0,0,0,0,-1,1896,505,0,0
679,519,0,0,0,0,0,0,0,0,0,-1,1903,505,0,0
686,519,0,0,0,0,0,0,0,0,0,-1,1910,505,0,0
693,519,0,0,0,0,0,0,0,0,0,-1,1917,505,0,0
700,519,0,0,0,0,0,0,0,0,0,-1,1924,505,0,0
707,519,0,0,0,0,0,0,0,0,0,-1,1931,505,0,0
714,519,0,0,0,0,0,0,0,0,0,-1,1938,505,0,0
721,519,0,0,0,0,0,0,0,0,0,-1,1945,505,0,0
728,519,0,0,0,0,0,0,0,0,0,-1,1952,505,0,0
735,519,0,0,0,0,0,0,0,0,0,-1,1959,505,0,0
742,519,0,0,0,0,0,0,0,0,0,-1,1966,505,0,0
749,519,0,0,0,0,0,0,0,0,0,-1,1973,505,0,0
756,519,0,0,0,0,0,0,0,0,0,-1,1980,505,0,0
763,519,0,0,0,0,0,0,0,0,0,-1,1987,505,0,0
770,519,0,0,0,0,0,0,0,0,0,-1,1994,505,0,0
777,519,0,0,0,0,0,0,0,0,0,-1,2001,505,0,0
784,519,0,0,0,0,0,0,0,0,0,-1,2008,505,0,0
791,519,0,0,0,0,0,0,0,0,0,-1,2015,505,0,0
798,519,0,0,0,0,0,0,0,0,0,-1,2022,505,0,0
805,519,0,0,0,0,0,0,0,0,0,-1,2029,505,0,0
812,519,0,0,0,0,0,0,0,0,0,-1,2036,505,0,0
-700,512,0,0,0,0,0,0,0,0,0,-1,524,512,0,0
-693,512,0,0,0,0,0,0,0,0,0,-1,531,512,0,0
-686,512,0,0,0,0,0,0,0,0,0,-1,538,512,0,0
-679,512,0,0,0,0,0,0,0,0,0,-1,545,512,0,0
-672,512,0,0,0,0,0,0,0,0,0,-1,552,512,0,0
-665,512,0,0,0,0,0,0,0,0,0,-1,559,512,0,0
-658,512,0,0,0,0,0,0,0,0,0,-1,566,512,0,0
-651,512,0,0,0,0,0,0,0,0,0,-1,573,512,0,0
-644,512,0,0,0,0,0,0,0,0,0,-1,580,512,0,0
-637,512,0,0,0,0,0,0,0,0,0,-1,587,512,0,0
-630,512,0,0,0,0,0,0,0,0,0,-1,594,512,0,0
-623,512,0,0,0,0,0,0,0,0,0,-1,601,512,0,0
-616,512,0,0,0,0,0,0,0,0,0,-1,608,512,0,0
-609,512,0,0,0,0,0,0,0,0,0,-1,615,512,0,0
-602,512,0,0,0,0,0,0,0,0,0,-1,622,512,0,0
-595,512,0,0,0,0,0,0,0,0,0,-1,629,512,0,0
-588,512,0,0,0,0,0,0,0,0,0,-1,636,512,0,0
-581,512,0,0,0,0,0,0,0,0,0,-1,643,512,0,0
-574,512,0,0,0,0,0,0,0,0,0,-1,650,512,0,0
-567,512,0,0,0,0,0,0,0,0,0,-1,657,512,0,0
-560,512,0,0,0,0,0,0,0,0,0,-1,664,512,0,0
-553,512,0,0,0,0,0,0,0,0,0,-1,671,512,0,0
-546,512,0,0,0,0,0,0,0,0,0,-1,678,512,0,0
-539,512,0,0,0,0,0,0,0,0,0,-1,685,512,0,0
-532,512,0,0,0,0,0,0,0,0,0,-1,692,512,0,0
-525,512,0,0,0,0,0,0,0,0,0,-1,699,512,0,0
-518,512,0,0,0,0,0,0,0,0,0,-1,706,512,0,0
-511,512,0,0,0,0,0,0,0,0,0,-1,713,512,0,0
-504,512,0,0,0,0,0,0,0,0,0,-1,720,512,0,0
-497,512,0,0,0,0,0,0,0,0,0,-1,727,512,0,0
-490,512,0,0,0,0,0,0,0,0,0,-1,734,512,0,0
-483,512,0,0,0,0,0,0,0,0,0,-1,741,512,0,0
-476,512,0,0,0,0,0,0,0,0,0,-1,748,512,0,0
-469,512,0,0,0,0,0,0,0,0,0,-1,755,512,0,0
-462,512,0,0,0,0,0,0,0,0,0,-1,762,512,0,0
-455,512,0,0,0,0,0,0,0,0,0,-1,769,512,0,0
-448,512,1.96283,-4.15674,0,0,0,0,0,0,0,-1,776,512,1.96285,4.15677
-441,512,1.78198,-4.88824,0,0,0,0,0,0,0,-1,783,512,1.78201,4.88826
-434,512,1.32996,-7.28003,0,0,0,0,0,0,0,-1,790,512,1.32993,7.28003
-427,512,0.427734,-6.66571,0,0,0,0,0,0,0,-1,797,512,0.427713,6.6657
-420,512,0.118835,-6.97083,0,0,0,0,0,0,0,-1,804,512,0.118822,6.97082
-413,512,-0.190491,-7.46906,0,0,0,0,0,0,0,-1,811,512,-0.190476,7.46904
-406,512,-1.00409,-8.25946,0,0,0,0,0,0,0,-1,818,512,-1.00409,8.25947
-399,512,-0.828064,-8.47668,0.0160133,3.6421e-05,-0.00601034,0.0180218,-0.0019721,-0.322511,0.012723,0.0458819,825,512,-0.828044,8.47671
-392,512,-0.560791,-8.6972,0.0120918,4.92858e-06,-0.00484786,0.013796,-0.0016992,-0.33803,0.00981288,0.0369052,832,512,-0.560803,8.69718
-385,512,-0.455627,-8.97467,0.00883226,0.000124637,-0.0037481,0.0102234,-0.00126646,-0.355388,0.00727456,0.0202379,839,512,-0.455616,8.9747
-378,512,-0.485718,-9.31812,0.00633371,7.09918e-05,-0.00292948,0.00749039,-0.00108569,-0.376051,0.00539204,0.015238,846,512,-0.485721,9.31813
-371,512,-0.526733,-9.66412,0.00437355,2.3457e-05,-0.00227923,0.00534902,-0.000952008,-0.404392,0.00392205,0.0123525,853,512,-0.526747,9.66412
-364,512,-0.538086,-10.0273,0.00286594,3.57105e-05,-0.00172939,0.00368541,-0.00078375,-0.442505,0.00275559,0.00976235,860,512,-0.538108,10.0273
-357,512,-0.521057,-10.3455,0.00182464,2.11647e-06,-0.00131434,0.00251272,-0.000685965,-0.482284,0.00194456,0.0113974,867,512,-0.521038,10.3455
-350,512,-0.520447,-10.6718,0.00110255,-0.000220391,-0.000877907,0.00154029,-0.000658132,-0.462542,0.00130287,0.0118141,874,512,-0.520424,10.6718
-343,512,-0.550476,-10.9874,0.000405591,-1.97742e-05,-0.00060011,0.000829592,-0.000443775,-0.615101,0.000746343,0.0121193,881,512,-0.550449,10.9873
-336,512,-0.569641,-11.2953,0.000276797,-9.78969e-05,-0.000388129,0.000520429,-0.000341529,-0.560545,0.000501212,0.0130879,888,512,-0.569654,11.2953
-329,512,-0.560242,-11.5991,0.000459171,-0.000203275,-0.000248409,0.000541971,-0.000286075,-0.321742,0.000485623,0.0138348,895,512,-0.560236,11.5991
-322,512,-0.570068,-11.9142,0.000618684,-0.000292964,-6.21308e-05,0.000622899,-0.000297179,-0.0677348,0.000542189,0.0111729,902,512,-0.570062,11.9143
-315,512,-0.571899,-12.2252,0.000789967,-0.000275754,0.00012668,0.000804818,-0.000290606,0.116702,0.000655259,0.0103015,909,512,-0.571871,12.2252
-308,512,-0.580505,-12.5361,0.00101251,-0.000317773,0.000311506,0.00108184,-0.000387104,0.218997,0.000879142,0.0107441,916,512,-0.5805,12.5361
-301,512,-0.563904,-12.829,0.0014204,-0.000455374,0.000548053,0.00156879,-0.000603762,0.264416,0.00129491,0.0152257,923,512,-0.563882,12.829
-294,512,-0.560059,-13.1119,0.00216928,-0.00112302,0.000797533,0.0023523,-0.00130604,0.225579,0.00214074,0.0157433,930,512,-0.560048,13.112
-287,512,-0.631653,-13.3271,0.00352985,-0.00280515,0.000668597,0.00359964,-0.00287494,0.104013,0.0037459,0.0218344,937,512,-0.631653,13.3271
-280,512,-0.516602,-13.6783,0.0045989,-0.00435699,0.000696606,0.00465276,-0.00441085,0.0771634,0.0052335,0.0332999,944,512,-0.516585,13.6783
-273,512,-0.414307,-14.0405,0,0,0,0,0,0,0,-1,951,512,-0.414286,14.0405
-266,512,-0.563904,-14.4271,0,0,0,0,0,0,0,-1,958,512,-0.563904,14.4271
-259,512,-0.525452,-14.0815,0,0,0,0,0,0,0,-1,965,512,-0.525475,14.0815
-252,512,1.45941,-3.43475,0,0,0,0,0,0,0,-1,972,512,1.45938,3.43475
-245,512,4.12927,-11.272,0,0,0,0,0,0,0,-1,979,512,4.1293,11.272
-238,512,0.227051,-8.92969,0,0,0,0,0,0,0,-1,986,512,0.227073,8.92968
-231,512,-2.54437,-10.169,0,0,0,0,0,0,0,-1,993,512,-2.54439,10.169
-224,512,-4.84601,-7.52783,0,0,0,0,0,0,0,-1,1000,512,-4.84602,7.52786
-217,512,-7.37274,-3.89563,0,0,0,0,0,0,0,-1,1007,512,-7.37274,3.89561
-210,512,-3.76642,-1.94702,0,0,0,0,0,0,0,-1,1014,512,-3.76641,1.94702
-203,512,-2.48328,-5.19061,0,0,0,0,0,0,0,-1,1021,512,-2.48328,5.19059
-196,512,-1.14929,-4.63202,0,0,0,0,0,0,0,-1,1028,512,-1.14934,4.632
-189,512,0.197998,4.55505,0,0,0,0,0,0,0,-1,1035,512,0.197996,-4.55506
-182,512,2.73938,0.0778503,0,0,0,0,0,0,0,-1,1042,512,2.73944,-0.077852
-175,512,2.29565,0.209808,0,0,0,0,0,0,0,-1,1049,512,2.29565,-0.209813
-168,512,2.09399,-0.302856,0,0,0,0,0,0,0,-1,1056,512,2.09403,0.302826
-161,512,2.76636,0.0921021,0,0,0,0,0,0,0,-1,1063,512,2.76633,-0.0921104
-154,512,3.41382,0.466187,0,0,0,0,0,0,0,-1,1070,512,3.41382,-0.466178
-147,512,0,0,0,0,0,0,0,0,0,-1,1077,512,0,0
-140,512,0,0,0,0,0,0,0,0,0,-1,1084,512,0,0
-133,512,0,0,0,0,0,0,0,0,0,-1,1091,512,0,0
-126,512,0,0,0,0,0,0,0,0,0,-1,1098,512,0,0
-119,512,0,0,0,0,0,0,0,0,0,-1,1105,512,0,0
-112,512,0,0,0,0,0,0,0,0,0,-1,1112,512,0,0
-105,512,0,0,0,0,0,0,0,0,0,-1,1119,512,0,0
-98,512,0,0,0,0,0,0,0,0,0,-1,1126,512,0,0
-91,512,0,0,0,0,0,0,0,0,0,-1,1133,512,0,0
-84,512,0,0,0,0,0,0,0,0,0,-1,1140,512,0,0
-77,512,0,0,0,0,0,0,0,0,0,-1,1147,512,0,0
-70,512,0,0,0,0,0,0,0,0,0,-1,1154,512,0,0
-63,512,0,0,0,0,0,0,0,0,0,-1,1161,512,0,0
-56,512,0,0,0,0,0,0,0,0,0,-1,1168,512,0,0
-49,512,0,0,0,0,0,0,0,0,0,-1,1175,512,0,0
-42,512,0,0,0,0,0,0,0,0,0,-1,1182,512,0,0
-35,512,0,0,0,0,0,0,0,0,0,-1,1189,512,0,0
-28,512,0,0,0,0,0,0,0,0,0,-1,1196,512,0,0
-21,512,0,0,0,0,0,0,0,0,0,-1,1203,512,0,0
-14,512,0,0,0,0,0,0,0,0,0,-1,1210,512,0,0
-7,512,0,0,0,0,0,0,0,0,0,-1,1217,512,0,0
0,512,0,0,0,0,0,0,0,0,0,-1,1224,512,0,0
7,512,0,0,0,0,0,0,0,0,0,-1,1231,512,0,0
14,512,0,0,0,0,0,0,0,0,0,-1,1238,512,0,0
21,512,0,0,0,0,0,0,0,0,0,-1,1245,512,0,0
28,512,0,0,0,0,0,0,0,0,0,-1,1252,512,0,0
35,512,0,0,0,0,0,0,0,0,0,-1,1259,512,0,0
42,512,0,0,0,0,0,0,0,0,0,-1,1266,512,0,0
49,512,0,0,0,0,0,0,0,0,0,-1,1273,512,0,0
56,512,0,0,0,0,0,0,0,0,0,-1,1280,512,0,0
63,512,0,0,0,0,0,0,0,0,0,-1,1287,512,0,0
70,512,0,0,0,0,0,0,0,0,0,-1,1294,512,0,0
77,512,0,0,0,0,0,0,0,0,0,-1,1301,512,0,0
84,512,0,0,0,0,0,0,0,0,0,-1,1308,512,0,0
91,512,0,0,0,0,0,0,0,0,0,-1,1315,512,0,0
98,512,0,0,0,0,0,0,0,0,0,-1,1322,512,0,0
105,512,0,0,0,0,0,0,0,0,0,-1,1329,512,0,0
112,512,0,0,0,0,0,0,0,0,0,-1,1336,512,0,0
119,512,0,0,0,0,0,0,0,0,0,-1,1343,512,0,0
126,512,0,0,0,0,0,0,0,0,0,-1,1350,512,0,0
133,512,0,0,0,0,0,0,0,0,0,-1,1357,512,0,0
140,512,0,0,0,0,0,0,0,0,0,-1,1364,512,0,0
147,512,0,0,0,0,0,0,0,0,0,-1,1371,512,0,0
154,512,0,0,0,0,0,0,0,0,0,-1,1378,512,0,0
161,512,0,0,0,0,0,0,0,0,0,-1,1385,512,0,0
168,512,0,0,0,0,0,0,0,0,0,-1,1392,512,0,0
175,512,0,0,0,0,0,0,0,0,0,-1,1399,512,0,0
182,512,0,0,0,0,0,0,0,0,0,-1,1406,512,0,0
189,512,0,0,0,0,0,0,0,0,0,-1,1413,512,0,0
196,512,0,0,0,0,0,0,0,0,0,-1,1420,512,0,0
203,512,0,0,0,0,0,0,0,0,0,-1,1427,512,0,0
210,512,0,0,0,0,0,0,0,0,0,-1,1434,512,0,0
217,512,0,0,0,0,0,0,0,0,0,-1,1441,512,0,0
224,512,0,0,0,0,0,0,0,0,0,-1,1448,512,0,0
231,512,0,0,0,0,0,0,0,0,0,-1,1455,512,0,0
238,512,0,0,0,0,0,0,0,0,0,-1,1462,512,0,0
245,512,0,0,0,0,0,0,0,0,0,-1,1469,512,0,0
252,512,0,0,0,0,0,0,0,0,0,-1,1476,512,0,0
259,512,0,0,0,0,0,0,0,0,0,-1,1483,512,0,0
266,512,0,0,0,0,0,0,0,0,0,-1,1490,512,0,0
273,512,4.00745,0.618622,0,0,0,0,0,0,0,-1,1497,512,4.00747,-0.618611
280,512,4.49609,0.649841,0,0,0,0,0,0,0,-1,1504,512,4.49612,-0.649834
287,512,4.77234,0.458069,0,0,0,0,0,0,0,-1,1511,512,4.77233,-0.458083
294,512,8.54956,-2.36273,0,0,0,0,0,0,0,-1,1518,512,8.54952,2.36274
301,512,6.302,-1.69092,0,0,0,0,0,0,0,-1,1525,512,6.30196,1.69093
308,512,8.2439,-6.22754,0,0,0,0,0,0,0,-1,1532,512,8.24394,6.22757
315,512,7.53687,-6.04211,0,0,0,0,0,0,0,-1,1539,512,7.53691,6.04211
322,512,6.82983,-5.85663,0,0,0,0,0,0,0,-1,1546,512,6.82988,5.85666
329,512,4.38147,-0.329651,0,0,0,0,0,0,0,-1,1553,512,4.38144,0.329662
336,512,4.41467,-0.741455,0,0,0,0,0,0,0,-1,1560,512,4.41467,0.741442
343,512,4.44727,-1.21667,0,0,0,0,0,0,0,-1,1567,512,4.44732,1.21666
350,512,4.55469,-1.65082,0,0,0,0,0,0,0,-1,1574,512,4.5547,1.65083
357,512,5.79993,-2.67456,0,0,0,0,0,0,0,-1,1581,512,5.79991,2.67454
364,512,5.18298,-6.80133,0,0,0,0,0,0,0,-1,1588,512,5.18296,6.80132
371,512,5.28467,-7.69269,0,0,0,0,0,0,0,-1,1595,512,5.28464,7.69269
378,512,6.29407,-9.88055,0,0,0,0,0,0,0,-1,1602,512,6.29412,9.88057
385,512,6.45569,-9.32233,0,0,0,0,0,0,0,-1,1609,512,6.45565,9.3223
392,512,6.35522,-8.98425,0,0,0,0,0,0,0,-1,1616,512,6.35526,8.98422
399,512,7.5304,-12.1449,0,0,0,0,0,0,0,-1,1623,512,7.53042,12.1449
406,512,7.64844,-12.6605,0,0,0,0,0,0,0,-1,1630,512,7.64844,12.6605
413,512,7.60693,-12.2869,-0.00254009,-0.00191821,-0.00400662,0.00178952,-0.00624782,-0.824124,0.00487252,0.0461053,1637,512,7.6069,12.2869
420,512,7.68945,-11.9302,-0.0023795,-0.00183293,-0.00371571,0.00161953,-0.00583196,-0.822106,0.00452547,0.0211969,1644,512,7.6894,11.9302
427,512,7.68848,-11.5948,-0.00223071,-0.0017286,-0.00335141,0.00138115,-0.00534046,-0.822784,0.004099,0.0149996,1651,512,7.68847,11.5948
434,512,7.68762,-11.2619,-0.00195571,-0.00144865,-0.00283824,0.00114737,-0.00455172,-0.829943,0.00348056,0.0112842,1658,512,7.68763,11.2619
441,512,7.67639,-10.9257,-0.00156284,-0.0011635,-0.00227239,0.000917975,-0.00364432,-0.829219,0.0027864,0.0124348,1665,512,7.67645,10.9257
448,512,7.67529,-10.6012,-0.00107357,-0.000908275,-0.00165539,0.000666523,-0.00264837,-0.810341,0.00202466,0.00915692,1672,512,7.67529,10.6012
455,512,7.67578,-10.2712,-0.000572906,-0.000634651,-0.00104938,0.000446053,-0.00165361,-0.770693,0.00127732,0.00864819,1679,512,7.67582,10.2712
462,512,7.68018,-9.93646,-0.000202452,-0.000431436,-0.000545568,0.000240509,-0.000874396,-0.68197,0.000677483,0.00921628,1686,512,7.68017,9.93646
469,512,7.67688,-9.60291,-0.000214029,-0.000712677,-0.000469903,6.85977e-05,-0.000995303,-0.54149,0.000687543,0.0106936,1693,512,7.67688,9.60292
476,512,7.66333,-9.26263,-0.000418919,-0.000986406,-0.000454801,-0.000166608,-0.00123872,-0.5065,0.000776259,0.0134067,1700,512,7.66332,9.26266
483,512,7.67529,-8.89978,-0.000895289,-0.00154839,-0.000781034,-0.000375289,-0.00206839,-0.587392,0.00127242,0.0123078,1707,512,7.67534,8.89979
490,512,7.6897,-8.53186,-0.00192934,-0.00251404,-0.00145785,-0.00073482,-0.00370856,-0.686444,0.00226748,0.0103743,1714,512,7.68974,8.53189
497,512,7.6936,-8.18463,-0.00344058,-0.00384777,-0.0026016,-0.00103462,-0.00625373,-0.74635,0.00387065,0.0117588,1721,512,7.69356,8.18465
504,512,7.66797,-7.82855,-0.00550114,-0.00554398,-0.00419615,-0.00132635,-0.00971877,-0.782846,0.00608544,0.0119232,1728,512,7.66797,7.82853
511,512,7.67224,-7.46533,-0.00807139,-0.00733823,-0.00614504,-0.00154885,-0.0138608,-0.81519,0.00876994,0.0130144,1735,512,7.67218,7.46533
518,512,7.69568,-7.15247,-0.0112209,-0.00935697,-0.00844718,-0.00179048,-0.0187874,-0.84034,0.0119728,0.0200597,1742,512,7.69563,7.15247
525,512,7.76013,-6.82117,0,0,0,0,0,0,0,-1,1749,512,7.76012,6.82118
532,512,5.73535,-4.92993,0,0,0,0,0,0,0,-1,1756,512,5.73534,4.92994
539,512,4.39929,-3.11737,0,0,0,0,0,0,0,-1,1763,512,4.3993,3.11735
546,512,2.77551,-0.66449,0,0,0,0,0,0,0,-1,1770,512,2.77548,0.664503
553,512,3.927,-0.448853,0,0,0,0,0,0,0,-1,1777,512,3.92704,0.448843
560,512,3.55762,-0.201233,0,0,0,0,0,0,0,-1,1784,512,3.55768,0.201259
567,512,3.09045,0.191193,0,0,0,0,0,0,0,-1,1791,512,3.09045,-0.191203
574,512,0,0,0,0,0,0,0,0,0,-1,1798,512,0,0
581,512,0,0,0,0,0,0,0,0,0,-1,1805,512,0,0
588,512,0,0,0,0,0,0,0,0,0,-1,1812,512,0,0
595,512,0,0,0,0,0,0,0,0,0,-1,1819,512,0,0
602,512,0,0,0,0,0,0,0,0,0,-1,1826,512,0,0
609,512,0,0,0,0,0,0,0,0,0,-1,1833,512,0,0
616,512,0,0,0,0,0,0,0,0,0,-1,1840,512,0,0
623,512,0,0,0,0,0,0,0,0,0,-1,1847,512,0,0
630,512,0,0,0,0,0,0,0,0,0,-1,1854,512,0,0
637,512,0,0,0,0,0,0,0,0,0,-1,1861,512,0,0
644,512,0,0,0,0,0,0,0,0,0,-1,1868,512,0,0
651,512,0,0,0,0,0,0,0,0,0,-1,1875,512,0,0
658,512,0,0,0,0,0,0,0,0,0,-1,1882,512,0,0
665,512,0,0,0,0,0,0,0,0,0,-1,1889,512,0,0
672,512,0,0,0,0,0,0,0,0,0,-1,1896,512,0,0
679,512,0,0,0,0,0,0,0,0,0,-1,1903,512,0,0
686,512,0,0,0,0,0,0,0,0,0,-1,1910,512,0,0
693,512,0,0,0,0,0,0,0,0,0,-1,1917,512,0,0
700,512,0,0,0,0,0,0,0,0,0,-1,1924,512,0,0
707,512,0,0,0,0,0,0,0,0,0,-1,1931,512,0,0
714,512,0,0,0,0,0,0,0,0,0,-1,1938,512,0,0
721,512,0,0,0,0,0,0,0,0,0,-1,1945,512,0,0
728,512,0,0,0,0,0,0,0,0,0,-1,1952,512,0,0
735,512,0,0,0,0,0,0,0,0,0,-1,1959,512,0,0
742,512,0,0,0,0,0,0,0,0,0,-1,1966,512,0,0
749,512,0,0,0,0,0,0,0,0,0,-1,1973,512,0,0
756,512,0,0,0,0,0,0,0,0,0,-1,1980,512,0,0
763,512,0,0,0,0,0,0,0,0,0,-1,1987,512,0,0
770,512,0,0,0,0,0,0,0,0,0,-1,1994,512,0,0
777,512,0,0,0,0,0,0,0,0,0,-1,2001,512,0,0
784,512,0,0,0,0,0,0,0,0,0,-1,2008,512,0,0
791,512,0,0,0,0,0,0,0,0,0,-1,2015,512,0,0
798,512,0,0,0,0,0,0,0,0,0,-1,2022,512,0,0
805,512,0,0,0,0,0,0,0,0,0,-1,2029,512,0,0
812,512,0,0,0,0,0,0,0,0,0,-1,2036,512,0,0
-700,505,0,0,0,0,0,0,0,0,0,-1,524,519,0,0
-693,505,0,0,0,0,0,0,0,0,0,-1,531,519,0,0
-686,505,0,0,0,0,0,0,0,0,0,-1,538,519,0,0
-679,505,0,0,0,0,0,0,0,0,0,-1,545,519,0,0
-672,505,0,0,0,0,0,0,0,0,0,-1,552,519,0,0
-665,505,0,0,0,0,0,0,0,0,0,-1,559,519,0,0
-658,505,0,0,0,0,0,0,0,0,0,-1,566,519,0,0
-651,505,0,0,0,0,0,0,0,0,0,-1,573,519,0,0
-644,505,0,0,0,0,0,0,0,0,0,-1,580,519,0,0
-637,505,0,0,0,0,0,0,0,0,0,-1,587,519,0,0
-630,505,0,0,0,0,0,0,0,0,0,-1,594,519,0,0
-623,505,0,0,0,0,0,0,0,0,0,-1,601,519,0,0
-616,505,0,0,0,0,0,0,0,0,0,-1,608,519,0,0
-609,505,0,0,0,0,0,0,0,0,0,-1,615,519,0,0
-602,505,0,0,0,0,0,0,0,0,0,-1,622,519,0,0
-595,505,0,0,0,0,0,0,0,0,0,-1,629,519,0,0
-588,505,0,0,0,0,0,0,0,0,0,-1,636,519,0,0
-581,505,0,0,0,0,0,0,0,0,0,-1,643,519,0,0
-574,505,0,0,0,0,0,0,0,0,0,-1,650,519,0,0
-567,505,0,0,0,0,0,0,0,0,0,-1,657,519,0,0
-560,505,0,0,0,0,0,0,0,0,0,-1,664,519,0,0
-553,505,0,0,0,0,0,0,0,0,0,-1,671,519,0,0
-546,505,0,0,0,0,0,0,0,0,0,-1,678,519,0,0
-539,505,0,0,0,0,0,0,0,0,0,-1,685,519,0,0
-532,505,0,0,0,0,0,0,0,0,0,-1,692,519,0,0
-525,505,0,0,0,0,0,0,0,0,0,-1,699,519,0,0
-518,505,0,0,0,0,0,0,0,0,0,-1,706,519,0,0
-511,505,0,0,0,0,0,0,0,0,0,-1,713,519,0,0
-504,505,0,0,0,0,0,0,0,0,0,-1,720,519,0,0
-497,505,0,0,0,0,0,0,0,0,0,-1,727,519,0,0
-490,505,0,0,0,0,0,0,0,0,0,-1,734,519,0,0
-483,505,0,0,0,0,0,0,0,0,0,-1,741,519,0,0
-476,505,0,0,0,0,0,0,0,0,0,-1,748,519,0,0
-469,505,0,0,0,0,0,0,0,0,0,-1,755,519,0,0
-462,505,0,0,0,0,0,0,0,0,0,-1,762,519,0,0
-455,505,2.72137,-3.26379,0,0,0,0,0,0,0,-1,769,519,2.72135,3.26377
-448,505,2.51111,-3.94989,0,0,0,0,0,0,0,-1,776,519,2.51112,3.94986
-441,505,2.80212,-6.8902,0,0,0,0,0,0,0,-1,783,519,2.80209,6.89019
-434,505,0.304626,-6.2099,0,0,0,0,0,0,0,-1,790,519,0.304615,6.20987
-427,505,0.0349731,-6.49762,0,0,0,0,0,0,0,-1,797,519,0.0349682,6.49761
-420,505,-0.270813,-6.81567,0,0,0,0,0,0,0,-1,804,519,-0.270824,6.81568
-413,505,-0.442444,-7.89441,0,0,0,0,0,0,0,-1,811,519,-0.442434,7.89442
-406,505,-1.91156,-7.50397,0,0,0,0,0,0,0,-1,818,519,-1.91153,7.50394
-399,505,-1.35529,-8.03394,0.0120779,0.00139174,-0.00542043,0.014346,-0.000876325,-0.396292,0.00986908,0.0411569,825,519,-1.35528,8.03394
-392,505,-0.762878,-8.61432,0.0094007,0.000879028,-0.00434642,0.0112264,-0.000946684,-0.39767,0.00781896,0.0213862,832,519,-0.762861,8.6143
-385,505,-0.806458,-8.98859,0.00708677,0.000648769,-0.00337031,0.00852835,-0.000792808,-0.404179,0.00596741,0.00958723,839,519,-0.806457,8.9886
-378,505,-0.856567,-9.34125,0.00522996,0.000388002,-0.00262471,0.00637973,-0.000761769,-0.412877,0.00452849,0.0115049,846,519,-0.856566,9.34123
-371,505,-0.863708,-9.70905,0.00369518,0.000173188,-0.00201075,0.00460706,-0.000738684,-0.425759,0.0033449,0.0148896,853,519,-0.863735,9.70906
-364,505,-0.864929,-10.0314,0.00248096,4.6796e-06,-0.00147892,0.0031716,-0.000685964,-0.436893,0.00237629,0.0159562,860,519,-0.864926,10.0314
-357,505,-0.837769,-10.331,0.00164066,-0.000140732,-0.00106678,0.0021397,-0.000639772,-0.437557,0.00168081,0.0131227,867,519,-0.837759,10.331
-350,505,-0.846375,-10.6486,0.00105914,-0.00041152,-0.000653907,0.00130784,-0.000660215,-0.363428,0.00115658,0.0121709,874,519,-0.846345,10.6486
-343,505,-0.857239,-10.9741,0.000537357,-0.000335803,-0.000385365,0.000683107,-0.000481553,-0.361584,0.000675765,0.00938384,881,519,-0.85726,10.9741
-336,505,-0.869263,-11.2768,0.000488394,-0.000472988,-0.000178849,0.000520588,-0.000505182,-0.178098,0.000592251,0.0112613,888,519,-0.869264,11.2768
-329,505,-0.858826,-11.5814,0.000695951,-0.000599292,-4.07765e-05,0.000697234,-0.000600575,-0.0314402,0.000749982,0.0145413,895,519,-0.858809,11.5814
-322,505,-0.869995,-11.9232,0.000862575,-0.000686112,0.000138866,0.000874928,-0.000698465,0.0887241,0.000910301,0.0164918,902,519,-0.869989,11.9232
-315,505,-0.876709,-12.233,0.00102631,-0.000685906,0.000333202,0.00108887,-0.000748462,0.185583,0.00106683,0.0132592,909,519,-0.876724,12.233
-308,505,-0.887085,-12.5076,0.00122946,-0.00075565,0.000534144,0.00136406,-0.000890248,0.24685,0.00131107,0.0122185,916,519,-0.887101,12.5076
-301,505,-0.867188,-12.832,0.0016447,-0.000916058,0.000805806,0.00187717,-0.00114852,0.28086,0.00176369,0.0186583,923,519,-0.867199,12.832
-294,505,-0.868408,-13.1058,0,0,0,0,0,0,0,-1,930,519,-0.868378,13.1058
-287,505,-0.874573,-13.4305,0,0,0,0,0,0,0,-1,937,519,-0.874564,13.4305
-280,505,-0.703125,-13.895,0,0,0,0,0,0,0,-1,944,519,-0.70314,13.8949
-273,505,-0.0680542,-9.44867,0,0,0,0,0,0,0,-1,951,519,-0.0680462,9.44866
-266,505,-0.036377,-9.07922,0,0,0,0,0,0,0,-1,958,519,-0.0364055,9.0792
-259,505,0.10321,-6.69824,0,0,0,0,0,0,0,-1,965,519,0.103235,6.69826
-252,505,6.82312,-15.6972,0,0,0,0,0,0,0,-1,972,519,6.82314,15.6972
-245,505,4.26727,-12.9861,0,0,0,0,0,0,0,-1,979,519,4.2673,12.9861
-238,505,1.67432,-11.2307,0,0,0,0,0,0,0,-1,986,519,1.67429,11.2307
-231,505,-0.958435,-8.3075,0,0,0,0,0,0,0,-1,993,519,-0.958421,8.30751
-224,505,-3.69653,-5.12732,0,0,0,0,0,0,0,-1,1000,519,-3.69653,5.12733
-217,505,-6.34302,-1.65533,0,0,0,0,0,0,0,-1,1007,519,-6.34299,1.65535
-210,505,-3.06128,-0.396301,0,0,0,0,0,0,0,-1,1014,519,-3.06129,0.396294
-203,505,-4.26465,2.03607,0,0,0,0,0,0,0,-1,1021,519,-4.26462,-2.03606
-196,505,-5.47595,4.27295,0,0,0,0,0,0,0,-1,1028,519,-5.47597,-4.27292
-189,505,1.51526,5.56207,0,0,0,0,0,0,0,-1,1035,519,1.51523,-5.56209
-182,505,2.97815,7.5097,0,0,0,0,0,0,0,-1,1042,519,2.97812,-7.5097
-175,505,-2.38416,-2.17548,0,0,0,0,0,0,0,-1,1049,519,-2.38411,2.1755
-168,505,0,0,0,0,0,0,0,0,0,-1,1056,519,0,0
-161,505,0,0,0,0,0,0,0,0,0,-1,1063,519,0,0
-154,505,0,0,0,0,0,0,0,0,0,-1,1070,519,0,0
-147,505,0,0,0,0,0,0,0,0,0,-1,1077,519,0,0
-140,505,0,0,0,0,0,0,0,0,0,-1,1084,519,0,0
-133,505,0,0,0,0,0,0,0,0,0,-1,1091,519,0,0
-126,505,0,0,0,0,0,0,0,0,0,-1,1098,519,0,0
-119,505,0,0,0,0,0,0,0,0,0,-1,1105,519,0,0
-112,505,0,0,0,0,0,0,0,0,0,-1,1112,519,0,0
-105,505,0,0,0,0,0,0,0,0,0,-1,1119,519,0,0
-98,505,0,0,0,0,0,0,0,0,0,-1,1126,519,0,0
-91,505,0,0,0,0,0,0,0,0,0,-1,1133,519,0,0
-84,505,0,0,0,0,0,0,0,0,0,-1,1140,519,0,0
-77,505,0,0,0,0,0,0,0,0,0,-1,1147,519,0,0
-70,505,0,0,0,0,0,0,0,0,0,-1,1154,519,0,0
-63,505,0,0,0,0,0,0,0,0,0,-1,1161,519,0,0
-56,505,0,0,0,0,0,0,0,0,0,-1,1168,519,0,0
-49,505,0,0,0,0,0,0,0,0,0,-1,1175,519,0,0
-42,505,0,0,0,0,0,0,0,0,0,-1,1182,519,0,0
-35,505,0,0,0,0,0,0,0,0,0,-1,1189,519,0,0
-28,505,0,0,0,0,0,0,0,0,0,-1,1196,519,0,0
-21,505,0,0,0,0,0,0,0,0,0,-1,1203,519,0,0
-14,505,0,0,0,0,0,0,0,0,0,-1,1210,519,0,0
-7,505,0,0,0,0,0,0,0,0,0,-1,1217,519,0,0
0,505,0,0,0,0,0,0,0,0,0,-1,1224,519,0,0
7,505,0,0,0,0,0,0,0,0,0,-1,1231,519,0,0
14,505,0,0,0,0,0,0,0,0,0,-1,1238,519,0,0
21,505,0,0,0,0,0,0,0,0,0,-1,1245,519,0,0
28,505,0,0,0,0,0,0,0,0,0,-1,1252,519,0,0
35,505,0,0,0,0,0,0,0,0,0,-1,1259,519,0,0
42,505,0,0,0,0,0,0,0,0,0,-1,1266,519,0,0
49,505,0,0,0,0,0,0,0,0,0,-1,1273,519,0,0
56,505,0,0,0,0,0,0,0,0,0,-1,1280,519,0,0
63,505,0,0,0,0,0,0,0,0,0,-1,1287,519,0,0
70,505,0,0,0,0,0,0,0,0,0,-1,1294,519,0,0
77,505,0,0,0,0,0,0,0,0,0,-1,1301,519,0,0
84,505,0,0,0,0,0,0,0,0,0,-1,1308,519,0,0
91,505,0,0,0,0,0,0,0,0,0,-1,1315,519,0,0
98,505,0,0,0,0,0,0,0,0,0,-1,1322,519,0,0
105,505,0,0,0,0,0,0,0,0,0,-1,1329,519,0,0
112,505,0,0,0,0,0,0,0,0,0,-1,1336,519,0,0
119,505,0,0,0,0,0,0,0,0,0,-1,1343,519,0,0
126,505,0,0,0,0,0,0,0,0,0,-1,1350,519,0,0
133,505,0,0,0,0,0,0,0,0,0,-1,1357,519,0,0
140,505,0,0,0,0,0,0,0,0,0,-1,1364,519,0,0
147,505,0,0,0,0,0,0,0,0,0,-1,1371,519,0,0
154,505,0,0,0,0,0,0,0,0,0,-1,1378,519,0,0
161,505,0,0,0,0,0,0,0,0,0,-1,1385,519,0,0
168,505,0,0,0,0,0,0,0,0,0,-1,1392,519,0,0
175,505,0,0,0,0,0,0,0,0,0,-1,1399,519,0,0
182,505,0,0,0,0,0,0,0,0,0,-1,1406,519,0,0
189,505,0,0,0,0,0,0,0,0,0,-1,1413,519,0,0
196,505,0,0,0,0,0,0,0,0,0,-1,1420,519,0,0
203,505,0,0,0,0,0,0,0,0,0,-1,1427,519,0,0
210,505,0,0,0,0,0,0,0,0,0,-1,1434,519,0,0
217,505,0,0,0,0,0,0,0,0,0,-1,1441,519,0,0
224,505,0,0,0,0,0,0,0,0,0,-1,1448,519,0,0
231,505,0,0,0,0,0,0,0,0,0,-1,1455,519,0,0
238,505,0,0,0,0,0,0,0,0,0,-1,1462,519,0,0
245,505,0,0,0,0,0,0,0,0,0,-1,1469,519,0,0
252,505,0,0,0,0,0,0,0,0,0,-1,1476,519,0,0
259,505,0,0,0,0,0,0,0,0,0,-1,1483,519,0,0
266,505,0,0,0,0,0,0,0,0,0,-1,1490,519,0,0
273,505,0,0,0,0,0,0,0,0,0,-1,1497,519,0,0
280,505,0,0,0,0,0,0,0,0,0,-1,1504,519,0,0
287,505,4.39478,0.499512,0,0,0,0,0,0,0,-1,1511,519,4.39476,-0.499506
294,505,4.88867,0.0822754,0,0,0,0,0,0,0,-1,1518,519,4.88871,-0.0822748
301,505,4.82153,-0.0704346,0,0,0,0,0,0,0,-1,1525,519,4.82156,0.0704312
308,505,4.67761,-0.29187,0,0,0,0,0,0,0,-1,1532,519,4.67762,0.291845
315,505,8.44055,-6.54352,0,0,0,0,0,0,0,-1,1539,519,8.44059,6.54349
322,505,4.78955,-0.594116,0,0,0,0,0,0,0,-1,1546,519,4.78957,0.594096
329,505,5.16321,0.434631,0,0,0,0,0,0,0,-1,1553,519,5.16316,-0.434614
336,505,4.94495,-0.920471,0,0,0,0,0,0,0,-1,1560,519,4.945,0.920495
343,505,5.01855,-1.4823,0,0,0,0,0,0,0,-1,1567,519,5.01851,1.48227
350,505,5.33154,-1.77838,0,0,0,0,0,0,0,-1,1574,519,5.33152,1.77838
357,505,5.56567,-1.9425,0,0,0,0,0,0,0,-1,1581,519,5.56562,1.94248
364,505,5.85205,-2.6579,0,0,0,0,0,0,0,-1,1588,519,5.85211,2.65788
371,505,5.88477,-7.00922,0,0,0,0,0,0,0,-1,1595,519,5.88473,7.00924
378,505,5.44104,-7.10162,0,0,0,0,0,0,0,-1,1602,519,5.44099,7.10162
385,505,6.64661,-8.65015,0,0,0,0,0,0,0,-1,1609,519,6.64662,8.65014
392,505,6.34558,-8.3429,0,0,0,0,0,0,0,-1,1616,519,6.34554,8.34288
399,505,7.45898,-9.70386,0,0,0,0,0,0,0,-1,1623,519,7.45899,9.70388
406,505,7.08679,-9.4928,0,0,0,0,0,0,0,-1,1630,519,7.08678,9.49278
413,505,7.81812,-12.4005,0,0,0,0,0,0,0,-1,1637,519,7.81812,12.4005
420,505,8.08337,-12.0502,0,0,0,0,0,0,0,-1,1644,519,8.08343,12.0502
427,505,8.04565,-11.648,-0.00380885,-0.00333757,-0.00509556,0.00152779,-0.00867421,-0.808504,0.0063536,0.0175954,1651,519,8.0457,11.648
434,505,8.02356,-11.2631,-0.00325657,-0.00264353,-0.00432671,0.00138751,-0.00728761,-0.820761,0.00538087,0.0098138,1658,519,8.02358,11.2631
441,505,8.02856,-10.9025,-0.00258656,-0.00205833,-0.00354535,0.00123273,-0.00587762,-0.822578,0.00438743,0.00997584,1665,519,8.0286,10.9025
448,505,8.02856,-10.5728,-0.00183443,-0.00144913,-0.00270282,0.0010679,-0.00435146,-0.820976,0.00331479,0.0102609,1672,519,8.0286,10.5728
455,505,8.0188,-10.2434,-0.00110675,-0.00087349,-0.00190022,0.000913675,-0.00289391,-0.816048,0.00229527,0.0106763,1679,519,8.01877,10.2434
462,505,7.99902,-9.9129,-0.000497567,-0.000423629,-0.00119211,0.00073208,-0.00165328,-0.800899,0.001411,0.0109023,1686,519,7.99903,9.91288
469,505,8.0072,-9.58569,-0.000230813,-0.000384918,-0.000830508,0.000526209,-0.00114194,-0.739142,0.000984733,0.0102802,1693,519,8.00716,9.5857
476,505,8.00256,-9.26221,-0.000225319,-0.000441202,-0.000618984,0.000295064,-0.000961586,-0.699074,0.000758783,0.0103451,1700,519,8.00262,9.26219
483,505,8.01416,-8.92297,-0.000441497,-0.000767819,-0.000695702,0.000109921,-0.00131924,-0.670216,0.000918327,0.0121849,1707,519,8.01412,8.923
490,505,8.01685,-8.55194,-0.00118736,-0.00141924,-0.00108557,-0.000211558,-0.00239505,-0.732199,0.00153106,0.0126867,1714,519,8.01683,8.55192
497,505,8.00525,-8.19098,-0.00238055,-0.00249814,-0.00190349,-0.000534943,-0.00434375,-0.769959,0.00273501,0.0128635,1721,519,8.00529,8.19096
504,505,8.00671,-7.83002,-0.00400152,-0.00384401,-0.00305502,-0.000866733,-0.00697879,-0.798285,0.00439222,0.0128592,1728,519,8.00674,7.83001
511,505,8.02124,-7.47235,-0.00604445,-0.00524597,-0.00448228,-0.00114519,-0.0101452,-0.829817,0.00641592,0.0146874,1735,519,8.02123,7.47234
518,505,8.06079,-7.13092,-0.00851204,-0.00677268,-0.00614856,-0.0014326,-0.0138521,-0.855654,0.00879619,0.0232643,1742,519,8.06075,7.1309
525,505,7.79504,-6.78375,-0.0113214,-0.00846377,-0.00802786,-0.00173857,-0.0180466,-0.873467,0.0114955,0.0362918,1749,519,7.79499,6.78377
532,505,7.66907,-6.15289,0,0,0,0,0,0,0,-1,1756,519,7.6691,6.15288
539,505,6.57825,-5.91382,0,0,0,0,0,0,0,-1,1763,519,6.57825,5.91381
546,505,4.69727,-1.47705,0,0,0,0,0,0,0,-1,1770,519,4.69723,1.47703
553,505,2.82837,0.162659,0,0,0,0,0,0,0,-1,1777,519,2.82841,-0.162672
560,505,3.66223,-0.479797,0,0,0,0,0,0,0,-1,1784,519,3.66219,0.47982
567,505,4.65271,-0.950256,0,0,0,0,0,0,0,-1,1791,519,4.65274,0.95028
574,505,5.54443,-1.19977,0,0,0,0,0,0,0,-1,1798,519,5.54443,1.19974
581,505,0,0,0,0,0,0,0,0,0,-1,1805,519,0,0
588,505,0,0,0,0,0,0,0,0,0,-1,1812,519,0,0
595,505,0,0,0,0,0,0,0,0,0,-1,1819,519,0,0
602,505,0,0,0,0,0,0,0,0,0,-1,1826,519,0,0
609,505,0,0,0,0,0,0,0,0,0,-1,1833,519,0,0
616,505,0,0,0,0,0,0,0,0,0,-1,1840,519,0,0
623,505,0,0,0,0,0,0,0,0,0,-1,1847,519,0,0
630,505,0,0,0,0,0,0,0,0,0,-1,1854,519,0,0
637,505,0,0,0,0,0,0,0,0,0,-1,1861,519,0,0
644,505,0,0,0,0,0,0,0,0,0,-1,1868,519,0,0
651,505,0,0,0,0,0,0,0,0,0,-1,1875,519,0,0
658,505,0,0,0,0,0,0,0,0,0,-1,1882,519,0,0
665,505,0,0,0,0,0,0,0,0,0,-1,1889,519,0,0
672,505,0,0,0,0,0,0,0,0,0,-1,1896,519,0,0
679,505,0,0,0,0,0,0,0,0,0,-1,1903,519,0,0
686,505,0,0,0,0,0,0,0,0,0,-1,1910,519,0,0
693,505,0,0,0,0,0,0,0,0,0,-1,1917,519,0,0
700,505,0,0,0,0,0,0,0,0,0,-1,1924,519,0,0
707,505,0,0,0,0,0,0,0,0,0,-1,1931,519,0,0
714,505,0,0,0,0,0,0,0,0,0,-1,1938,519,0,0
721,505,0,0,0,0,0,0,0,0,0,-1,1945,519,0,0
728,505,0,0,0,0,0,0,0,0,0,-1,1952,519,0,0
735,505,0,0,0,0,0,0,0,0,0,-1,1959,519,0,0
742,505,0,0,0,0,0,0,0,0,0,-1,1966,519,0,0
749,505,0,0,0,0,0,0,0,0,0,-1,1973,519,0,0
756,505,0,0,0,0,0,0,0,0,0,-1,1980,519,0,0
763,505,0,0,0,0,0,0,0,0,0,-1,1987,519,0,0
770,505,0,0,0,0,0,0,0,0,0,-1,1994,519,0,0
777,505,0,0,0,0,0,0,0,0,0,-1,2001,519,0,0
784,505,0,0,0,0,0,0,0,0,0,-1,2008,519,0,0
791,505,0,0,0,0,0,0,0,0,0,-1,2015,519,0,0
798,505,0,0,0,0,0,0,0,0,0,-1,2022,519,0,0
805,505,0,0,0,0,0,0,0,0,0,-1,2029,519,0,0
812,505,0,0,0,0,0,0,0,0,0,-1,2036,519,0,0
-700,498,0,0,0,0,0,0,0,0,0,-1,524,526,0,0
-693,498,0,0,0,0,0,0,0,0,0,-1,531,526,0,0
-686,498,0,0,0,0,0,0,0,0,0,-1,538,526,0,0
-679,498,0,0,0,0,0,0,0,0,0,-1,545,526,0,0
-672,498,0,0,0,0,0,0,0,0,0,-1,552,526,0,0
-665,498,0,0,0,0,0,0,0,0,0,-1,559,526,0,0
-658,498,0,0,0,0,0,0,0,0,0,-1,566,526,0,0
-651,498,0,0,0,0,0,0,0,0,0,-1,573,526,0,0
-644,498,0,0,0,0,0,0,0,0,0,-1,580,526,0,0
-637,498,0,0,0,0,0,0,0,0,0,-1,587,526,0,0
-630,498,0,0,0,0,0,0,0,0,0,-1,594,526,0,0
-623,498,0,0,0,0,0,0,0,0,0,-1,601,526,0,0
-616,498,0,0,0,0,0,0,0,0,0,-1,608,526,0,0
-609,498,0,0,0,0,0,0,0,0,0,-1,615,526,0,0
-602,498,0,0,0,0,0,0,0,0,0,-1,622,526,0,0
-595,498,0,0,0,0,0,0,0,0,0,-1,629,526,0,0
-588,498,0,0,0,0,0,0,0,0,0,-1,636,526,0,0
-581,498,0,0,0,0,0,0,0,0,0,-1,643,526,0,0
-574,498,0,0,0,0,0,0,0,0,0,-1,650,526,0,0
-567,498,0,0,0,0,0,0,0,0,0,-1,657,526,0,0
-560,498,0,0,0,0,0,0,0,0,0,-1,664,526,0,0
-553,498,0,0,0,0,0,0,0,0,0,-1,671,526,0,0
-546,498,0,0,0,0,0,0,0,0,0,-1,678,526,0,0
-539,498,0,0,0,0,0,0,0,0,0,-1,685,526,0,0
-532,498,0,0,0,0,0,0,0,0,0,-1,692,526,0,0
-525,498,0,0,0,0,0,0,0,0,0,-1,699,526,0,0
-518,498,0,0,0,0,0,0,0,0,0,-1,706,526,0,0
-511,498,0,0,0,0,0,0,0,0,0,-1,713,526,0,0
-504,498,0,0,0,0,0,0,0,0,0,-1,720,526,0,0
-497,498,0,0,0,0,0,0,0,0,0,-1,727,526,0,0
-490,498,0,0,0,0,0,0,0,0,0,-1,734,526,0,0
-483,498,0,0,0,0,0,0,0,0,0,-1,741,526,0,0
-476,498,0,0,0,0,0,0,0,0,0,-1,748,526,0,0
-469,498,0,0,0,0,0,0,0,0,0,-1,755,526,0,0
-462,498,6.81024,1.15515,0,0,0,0,0,0,0,-1,762,526,6.81026,-1.15514
-455,498,3.25757,-3.0592,0,0,0,0,0,0,0,-1,769,526,3.25754,3.05921
-448,498,3.05939,-3.74298,0,0,0,0,0,0,0,-1,776,526,3.05939,3.74296
-441,498,2.77191,-6.08209,0,0,0,0,0,0,0,-1,783,526,2.77189,6.08207
-434,498,2.10681,-6.95929,0,0,0,0,0,0,0,-1,790,526,2.10682,6.9593
-427,498,-0.342224,-6.47314,0,0,0,0,0,0,0,-1,797,526,-0.342207,6.47314
-420,498,-0.675293,-6.72467,0,0,0,0,0,0,0,-1,804,526,-0.675275,6.72468
-413,498,-1.46234,-6.92535,0,0,0,0,0,0,0,-1,811,526,-1.46236,6.92534
-406,498,-1.30243,-7.56793,0.0107836,0.00292671,-0.00570716,0.0137836,-7.33756e-05,-0.483972,0.00921365,0.0487073,818,526,-1.30243,7.56796
-399,498,-1.10626,-8.25879,0.00888744,0.00204698,-0.00465177,0.011241,-0.000306605,-0.4684,0.00759828,0.0253703,825,526,-1.10624,8.25876
-392,498,-1.11359,-8.64032,0.00708843,0.00132237,-0.00371445,0.00890742,-0.000496617,-0.455379,0.00611055,0.012113,832,526,-1.11359,8.64033
-385,498,-1.14111,-8.98578,0.00549407,0.000904831,-0.00288453,0.00688534,-0.000486436,-0.449405,0.00476066,0.00848562,839,526,-1.14114,8.98576
-378,498,-1.16278,-9.32214,0.00415665,0.000535627,-0.00222866,0.00521752,-0.000525251,-0.444277,0.003666,0.0101946,846,526,-1.16281,9.32217
-371,498,-1.14941,-9.67181,0.00298154,0.000217459,-0.00166649,0.0037645,-0.000565505,-0.439219,0.00271785,0.0175679,853,526,-1.14941,9.6718
-364,498,-1.14575,-10.0054,0.00202688,-6.59135e-05,-0.00116436,0.00254595,-0.000584984,-0.419354,0.0019222,0.0176685,860,526,-1.14577,10.0054
-357,498,-1.16309,-10.3254,0.00138024,-0.000300589,-0.000779297,0.00168595,-0.000606299,-0.373842,0.00137149,0.0114571,867,526,-1.16306,10.3254
-350,498,-1.177,-10.6412,0.000958316,-0.000599847,-0.000421182,0.00106488,-0.000706408,-0.247804,0.00102961,0.0118273,874,526,-1.17698,10.6412
-343,498,-1.16412,-10.9575,0.000664425,-0.000662288,-0.00019272,0.000691853,-0.000689715,-0.14137,0.000797649,0.0114235,881,526,-1.16414,10.9574
-336,498,-1.16919,-11.2803,0.000750167,-0.000879313,-1.52044e-05,0.000750309,-0.000879455,-0.00932974,0.000941929,0.0137894,888,526,-1.16916,11.2803
-329,498,-1.16864,-11.5754,0.00103272,-0.00105428,0.000106102,0.0010381,-0.00105967,0.0506653,0.00121117,0.019395,895,526,-1.16866,11.5754
-322,498,-1.1803,-11.9141,0.00126892,-0.00116644,0.000262513,0.00129689,-0.00119441,0.106168,0.00143876,0.0210803,902,526,-1.18027,11.9141
-315,498,-1.1886,-12.2311,0.00148692,-0.00122834,0.000450248,0.00155963,-0.00130105,0.160115,0.00165386,0.0166912,909,526,-1.1886,12.2311
-308,498,-1.17493,-12.5156,0.00172274,-0.00136801,0.000649669,0.00185375,-0.00149901,0.198982,0.00193932,0.0215578,916,526,-1.17493,12.5155
-301,498,-1.12958,-12.8932,0,0,0,0,0,0,0,-1,923,526,-1.12957,12.8932
-294,498,-1.00745,-12.4502,0,0,0,0,0,0,0,-1,930,526,-1.00747,12.4502
-287,498,-1.09918,-13.2644,0,0,0,0,0,0,0,-1,937,526,-1.09918,13.2644
-280,498,-0.341614,-8.66608,0,0,0,0,0,0,0,-1,944,526,-0.341589,8.66606
-273,498,-0.988892,-8.62921,0,0,0,0,0,0,0,-1,951,526,-0.988906,8.62922
-266,498,0.362488,-6.33545,0,0,0,0,0,0,0,-1,958,526,0.362478,6.33547
-259,498,10.9454,-17.3615,0,0,0,0,0,0,0,-1,965,526,10.9454,17.3614
-252,498,8.56586,-14.6886,0,0,0,0,0,0,0,-1,972,526,8.56584,14.6886
-245,498,5.97382,-11.928,0,0,0,0,0,0,0,-1,979,526,5.97381,11.928
-238,498,2.24841,-13.8145,0,0,0,0,0,0,0,-1,986,526,2.24838,13.8145
-231,498,0.665894,-10.4898,0,0,0,0,0,0,0,-1,993,526,0.665863,10.4898
-224,498,-2.11243,-4.76312,0,0,0,0,0,0,0,-1,1000,526,-2.11245,4.76314
-217,498,-3.82239,-1.42841,0,0,0,0,0,0,0,-1,1007,526,-3.82241,1.42843
-210,498,-1.80591,-0.358215,0,0,0,0,0,0,0,-1,1014,526,-1.8059,0.3582
-203,498,-3.17316,1.06641,0,0,0,0,0,0,0,-1,1021,526,-3.17313,-1.0664
-196,498,-0.103271,5.40527,0,0,0,0,0,0,0,-1,1028,526,-0.103285,-5.40528
-189,498,3.00256,6.47137,0,0,0,0,0,0,0,-1,1035,526,3.00256,-6.47139
-182,498,0,0,0,0,0,0,0,0,0,-1,1042,526,0,0
-175,498,0,0,0,0,0,0,0,0,0,-1,1049,526,0,0
-168,498,0,0,0,0,0,0,0,0,0,-1,1056,526,0,0
-161,498,0,0,0,0,0,0,0,0,0,-1,1063,526,0,0
-154,498,0,0,0,0,0,0,0,0,0,-1,1070,526,0,0
-147,498,0,0,0,0,0,0,0,0,0,-1,1077,526,0,0
-140,498,0,0,0,0,0,0,0,0,0,-1,1084,526,0,0
-133,498,0,0,0,0,0,0,0,0,0,-1,1091,526,0,0
-126,498,0,0,0,0,0,0,0,0,0,-1,1098,526,0,0
-119,498,0,0,0,0,0,0,0,0,0,-1,1105,526,0,0
-112,498,0,0,0,0,0,0,0,0,0,-1,1112,526,0,0
-105,498,0,0,0,0,0,0,0,0,0,-1,1119,526,0,0
-98,498,0,0,0,0,0,0,0,0,0,-1,1126,526,0,0
-91,498,0,0,0,0,0,0,0,0,0,-1,1133,526,0,0
-84,498,0,0,0,0,0,0,0,0,0,-1,1140,526,0,0
-77,498,0,0,0,0,0,0,0,0,0,-1,1147,526,0,0
-70,498,0,0,0,0,0,0,0,0,0,-1,1154,526,0,0
-63,498,0,0,0,0,0,0,0,0,0,-1,1161,526,0,0
-56,498,0,0,0,0,0,0,0,0,0,-1,1168,526,0,0
-49,498,0,0,0,0,0,0,0,0,0,-1,1175,526,0,0
-42,498,0,0,0,0,0,0,0,0,0,-1,1182,526,0,0
-35,498,0,0,0,0,0,0,0,0,0,-1,1189,526,0,0
-28,498,0,0,0,0,0,0,0,0,0,-1,1196,526,0,0
-21,498,0,0,0,0,0,0,0,0,0,-1,1203,526,0,0
-14,498,0,0,0,0,0,0,0,0,0,-1,1210,526,0,0
-7,498,0,0,0,0,0,0,0,0,0,-1,1217,526,0,0
0,498,0,0,0,0,0,0,0,0,0,-1,1224,526,0,0
7,498,0,0,0,0,0,0,0,0,0,-1,1231,526,0,0
14,498,0,0,0,0,0,0,0,0,0,-1,1238,526,0,0
21,498,0,0,0,0,0,0,0,0,0,-1,1245,526,0,0
28,498,0,0,0,0,0,0,0,0,0,-1,1252,526,0,0
35,498,0,0,0,0,0,0,0,0,0,-1,1259,526,0,0
42,498,0,0,0,0,0,0,0,0,0,-1,1266,526,0,0
49,498,0,0,0,0,0,0,0,0,0,-1,1273,526,0,0
56,498,0,0,0,0,0,0,0,0,0,-1,1280,526,0,0
63,498,0,0,0,0,0,0,0,0,0,-1,1287,526,0,0
70,498,0,0,0,0,0,0,0,0,0,-1,1294,526,0,0
77,498,0,0,0,0,0,0,0,0,0,-1,1301,526,0,0
84,498,0,0,0,0,0,0,0,0,0,-1,1308,526,0,0
91,498,0,0,0,0,0,0,0,0,0,-1,1315,526,0,0
98,498,0,0,0,0,0,0,0,0,0,-1,1322,526,0,0
105,498,0,0,0,0,0,0,0,0,0,-1,1329,526,0,0
112,498,0,0,0,0,0,0,0,0,0,-1,1336,526,0,0
119,498,0,0,0,0,0,0,0,0,0,-1,1343,526,0,0
126,498,0,0,0,0,0,0,0,0,0,-1,1350,526,0,0
133,498,0,0,0,0,0,0,0,0,0,-1,1357,526,0,0
140,498,0,0,0,0,0,0,0,0,0,-1,1364,526,0,0
147,498,0,0,0,0,0,0,0,0,0,-1,1371,526,0,0
154,498,0,0,0,0,0,0,0,0,0,-1,1378,526,0,0
161,498,0,0,0,0,0,0,0,0,0,-1,1385,526,0,0
168,498,0,0,0,0,0,0,0,0,0,-1,1392,526,0,0
175,498,0,0,0,0,0,0,0,0,0,-1,1399,526,0,0
182,498,0,0,0,0,0,0,0,0,0,-1,1406,526,0,0
189,498,0,0,0,0,0,0,0,0,0,-1,1413,526,0,0
196,498,0,0,0,0,0,0,0,0,0,-1,1420,526,0,0
203,498,0,0,0,0,0,0,0,0,0,-1,1427,526,0,0
210,498,0,0,0,0,0,0,0,0,0,-1,1434,526,0,0
217,498,0,0,0,0,0,0,0,0,0,-1,1441,526,0,0
224,498,0,0,0,0,0,0,0,0,0,-1,1448,526,0,0
231,498,0,0,0,0,0,0,0,0,0,-1,1455,526,0,0
238,498,0,0,0,0,0,0,0,0,0,-1,1462,526,0,0
245,498,0,0,0,0,0,0,0,0,0,-1,1469,526,0,0
252,498,0,0,0,0,0,0,0,0,0,-1,1476,526,0,0
259,498,0,0,0,0,0,0,0,0,0,-1,1483,526,0,0
266,498,0,0,0,0,0,0,0,0,0,-1,1490,526,0,0
273,498,0,0,0,0,0,0,0,0,0,-1,1497,526,0,0
280,498,0,0,0,0,0,0,0,0,0,-1,1504,526,0,0
287,498,0,0,0,0,0,0,0,0,0,-1,1511,526,0,0
294,498,0,0,0,0,0,0,0,0,0,-1,1518,526,0,0
301,498,0,0,0,0,0,0,0,0,0,-1,1525,526,0,0
308,498,4.77942,-0.293884,0,0,0,0,0,0,0,-1,1532,526,4.77939,0.293899
315,498,4.56091,-0.564148,0,0,0,0,0,0,0,-1,1539,526,4.56097,0.564142
322,498,4.52344,-0.447266,0,0,0,0,0,0,0,-1,1546,526,4.52341,0.447295
329,498,4.63232,-0.156982,0,0,0,0,0,0,0,-1,1553,526,4.63238,0.156991
336,498,5.22644,0.0925903,0,0,0,0,0,0,0,-1,1560,526,5.22648,-0.0926188
343,498,6.22607,-1.67615,0,0,0,0,0,0,0,-1,1567,526,6.22605,1.67617
350,498,6.19373,-1.59906,0,0,0,0,0,0,0,-1,1574,526,6.19367,1.59906
357,498,6.21472,-1.58929,0,0,0,0,0,0,0,-1,1581,526,6.21476,1.58927
364,498,5.73547,-1.2019,0,0,0,0,0,0,0,-1,1588,526,5.73547,1.20192
371,498,3.27087,-4.55334,0,0,0,0,0,0,0,-1,1595,526,3.27089,4.55332
378,498,8.42944,-4.70624,0,0,0,0,0,0,0,-1,1602,526,8.42942,4.70624
385,498,4.7793,-5.15314,0,0,0,0,0,0,0,-1,1609,526,4.77935,5.15311
392,498,9.12439,-8.57953,0,0,0,0,0,0,0,-1,1616,526,9.12443,8.57955
399,498,7.98938,-9.46021,0,0,0,0,0,0,0,-1,1623,526,7.98936,9.4602
406,498,7.58081,-9.26819,0,0,0,0,0,0,0,-1,1630,526,7.58085,9.26817
413,498,7.17236,-9.07611,0,0,0,0,0,0,0,-1,1637,526,7.17234,9.07614
420,498,9.08044,-11.8349,0,0,0,0,0,0,0,-1,1644,526,9.08046,11.8349
427,498,8.74719,-11.4999,-0.00601167,-0.00552458,-0.00734306,0.00157898,-0.0131152,-0.801976,0.00931452,0.0443765,1651,526,8.74723,11.5
434,498,8.39465,-11.2377,-0.00499065,-0.00420805,-0.00612704,0.00154018,-0.0107389,-0.817287,0.007724,0.0166789,1658,526,8.3947,11.2377
441,498,8.37329,-10.9048,-0.00391594,-0.00320492,-0.00500393,0.00145611,-0.00857697,-0.820862,0.00626006,0.00857466,1665,526,8.37333,10.9049
448,498,8.37366,-10.5651,-0.00280878,-0.00214277,-0.00384211,0.00138074,-0.00633229,-0.828626,0.00474916,0.00952535,1672,526,8.37363,10.5652
455,498,8.36902,-10.2342,-0.00177268,-0.00119542,-0.0027651,0.00129607,-0.00426417,-0.837402,0.00335921,0.0135943,1679,526,8.36903,10.2342
462,498,8.36682,-9.92316,-0.000867783,-0.000465569,-0.00180001,0.00114454,-0.00247789,-0.84103,0.00213811,0.0155699,1686,526,8.36688,9.92316
469,498,8.36987,-9.59113,-0.00028172,-7.97185e-05,-0.00111767,0.000941501,-0.00130294,-0.830459,0.00130142,0.0129125,1693,526,8.36989,9.59112
476,498,8.35889,-9.24457,-4.74307e-05,6.61895e-05,-0.000706004,0.000717666,-0.000698907,-0.825545,0.000817883,0.00896513,1700,526,8.35887,9.24457
483,498,8.34766,-8.88995,-1.22756e-05,-5.28544e-05,-0.000545869,0.000513681,-0.000578811,-0.766822,0.000631124,0.00811325,1707,526,8.3476,8.88996
490,498,8.33789,-8.55542,-0.000492065,-0.000424861,-0.00068143,0.000223795,-0.00114072,-0.810034,0.000845015,0.0111572,1714,526,8.33792,8.55542
497,498,8.34253,-8.19684,-0.00141592,-0.00129455,-0.00122894,-0.000124793,-0.00258568,-0.810067,0.00168373,0.0130218,1721,526,8.34257,8.19684
504,498,8.34204,-7.83856,-0.00268773,-0.00235786,-0.0020366,-0.000479521,-0.00456607,-0.825803,0.00289746,0.0142626,1728,526,8.342,7.83853
511,498,8.34973,-7.48273,-0.00432228,-0.00346128,-0.00307901,-0.000782817,-0.00700075,-0.854856,0.00442934,0.0155614,1735,526,8.34968,7.48275
518,498,8.3822,-7.10986,-0.00627659,-0.0046291,-0.0042799,-0.00109439,-0.00981129,-0.88047,0.0062083,0.0168895,1742,526,8.38215,7.10984
525,498,8.27502,-6.75983,-0.00842531,-0.00588774,-0.00559651,-0.001418,-0.0128951,-0.896869,0.00816519,0.0274426,1749,526,8.27498,6.7598
532,498,8.10889,-6.51038,-0.0107398,-0.00701124,-0.00691949,-0.00170928,-0.0160417,-0.916985,0.0101727,0.0454401,1756,526,8.10883,6.5104
539,498,7.98242,-6.09357,0,0,0,0,0,0,0,-1,1763,526,7.98241,6.09357
546,498,7.70813,-5.33966,0,0,0,0,0,0,0,-1,1770,526,7.70814,5.33966
553,498,5.93958,-1.71448,0,0,0,0,0,0,0,-1,1777,526,5.93956,1.71447
560,498,3.69385,-0.615112,0,0,0,0,0,0,0,-1,1784,526,3.69381,0.615118
567,498,5.12695,-0.581604,0,0,0,0,0,0,0,-1,1791,526,5.12699,0.58159
574,498,3.88,0.0286255,0,0,0,0,0,0,0,-1,1798,526,3.87999,-0.0286535
581,498,10.8722,2.58551,0,0,0,0,0,0,0,-1,1805,526,10.8723,-2.58551
588,498,0,0,0,0,0,0,0,0,0,-1,1812,526,0,0
595,498,0,0,0,0,0,0,0,0,0,-1,1819,526,0,0
602,498,0,0,0,0,0,0,0,0,0,-1,1826,526,0,0
609,498,0,0,0,0,0,0,0,0,0,-1,1833,526,0,0
616,498,0,0,0,0,0,0,0,0,0,-1,1840,526,0,0
623,498,0,0,0,0,0,0,0,0,0,-1,1847,526,0,0
630,498,0,0,0,0,0,0,0,0,0,-1,1854,526,0,0
637,498,0,0,0,0,0,0,0,0,0,-1,1861,526,0,0
644,498,0,0,0,0,0,0,0,0,0,-1,1868,526,0,0
651,498,0,0,0,0,0,0,0,0,0,-1,1875,526,0,0
658,498,0,0,0,0,0,0,0,0,0,-1,1882,526,0,0
665,498,0,0,0,0,0,0,0,0,0,-1,1889,526,0,0
672,498,0,0,0,0,0,0,0,0,0,-1,1896,526,0,0
679,498,0,0,0,0,0,0,0,0,0,-1,1903,526,0,0
686,498,0,0,0,0,0,0,0,0,0,-1,1910,526,0,0
693,498,0,0,0,0,0,0,0,0,0,-1,1917,526,0,0
700,498,0,0,0,0,0,0,0,0,0,-1,1924,526,0,0
707,498,0,0,0,0,0,0,0,0,0,-1,1931,526,0,0
714,498,0,0,0,0,0,0,0,0,0,-1,1938,526,0,0
721,498,0,0,0,0,0,0,0,0,0,-1,1945,526,0,0
728,498,0,0,0,0,0,0,0,0,0,-1,1952,526,0,0
735,498,0,0,0,0,0,0,0,0,0,-1,1959,526,0,0
742,498,0,0,0,0,0,0,0,0,0,-1,1966,526,0,0
749,498,0,0,0,0,0,0,0,0,0,-1,1973,526,0,0
756,498,0,0,0,0,0,0,0,0,0,-1,1980,526,0,0
763,498,0,0,0,0,0,0,0,0,0,-1,1987,526,0,0
770,498,0,0,0,0,0,0,0,0,0,-1,1994,526,0,0
777,498,0,0,0,0,0,0,0,0,0,-1,2001,526,0,0
784,498,0,0,0,0,0,0,0,0,0,-1,2008,526,0,0
791,498,0,0,0,0,0,0,0,0,0,-1,2015,526,0,0
798,498,0,0,0,0,0,0,0,0,0,-1,2022,526,0,0
805,498,0,0,0,0,0,0,0,0,0,-1,2029,526,0,0
812,498,0,0,0,0,0,0,0,0,0,-1,2036,526,0,0
-700,491,0,0,0,0,0,0,0,0,0,-1,524,533,0,0
-693,491,0,0,0,0,0,0,0,0,0,-1,531,533,0,0
-686,491,0,0,0,0,0,0,0,0,0,-1,538,533,0,0
-679,491,0,0,0,0,0,0,0,0,0,-1,545,533,0,0
-672,491,0,0,0,0,0,0,0,0,0,-1,552,533,0,0
-665,491,0,0,0,0,0,0,0,0,0,-1,559,533,0,0
-658,491,0,0,0,0,0,0,0,0,0,-1,566,533,0,0
-651,491,0,0,0,0,0,0,0,0,0,-1,573,533,0,0
-644,491,0,0,0,0,0,0,0,0,0,-1,580,533,0,0
-637,491,0,0,0,0,0,0,0,0,0,-1,587,533,0,0
-630,491,0,0,0,0,0,0,0,0,0,-1,594,533,0,0
-623,491,0,0,0,0,0,0,0,0,0,-1,601,533,0,0
-616,491,0,0,0,0,0,0,0,0,0,-1,608,533,0,0
-609,491,0,0,0,0,0,0,0,0,0,-1,615,533,0,0
-602,491,0,0,0,0,0,0,0,0,0,-1,622,533,0,0
-595,491,0,0,0,0,0,0,0,0,0,-1,629,533,0,0
-588,491,0,0,0,0,0,0,0,0,0,-1,636,533,0,0
-581,491,0,0,0,0,0,0,0,0,0,-1,643,533,0,0
-574,491,0,0,0,0,0,0,0,0,0,-1,650,533,0,0
-567,491,0,0,0,0,0,0,0,0,0,-1,657,533,0,0
-560,491,0,0,0,0,0,0,0,0,0,-1,664,533,0,0
-553,491,0,0,0,0,0,0,0,0,0,-1,671,533,0,0
-546,491,0,0,0,0,0,0,0,0,0,-1,678,533,0,0
-539,491,0,0,0,0,0,0,0,0,0,-1,685,533,0,0
-532,491,0,0,0,0,0,0,0,0,0,-1,692,533,0,0
-525,491,0,0,0,0,0,0,0,0,0,-1,699,533,0,0
-518,491,0,0,0,0,0,0,0,0,0,-1,706,533,0,0
-511,491,0,0,0,0,0,0,0,0,0,-1,713,533,0,0
-504,491,0,0,0,0,0,0,0,0,0,-1,720,533,0,0
-497,491,0,0,0,0,0,0,0,0,0,-1,727,533,0,0
-490,491,0,0,0,0,0,0,0,0,0,-1,734,533,0,0
-483,491,0,0,0,0,0,0,0,0,0,-1,741,533,0,0
-476,491,0,0,0,0,0,0,0,0,0,-1,748,533,0,0
-469,491,-5.85913,4.55011,0,0,0,0,0,0,0,-1,755,533,-5.8591,-4.55009
-462,491,-9.93713,4.90381,0,0,0,0,0,0,0,-1,762,533,-9.93716,-4.9038
-455,491,1.9494,-0.27887,0,0,0,0,0,0,0,-1,769,533,1.94941,0.27885
-448,491,2.68909,-1.8999,0,0,0,0,0,0,0,-1,776,533,2.6891,1.89988
-441,491,3.46069,-3.51855,0,0,0,0,0,0,0,-1,783,533,3.46071,3.51854
-434,491,2.67145,-7.44061,0,0,0,0,0,0,0,-1,790,533,2.67146,7.44061
-427,491,2.27136,-8.34546,0,0,0,0,0,0,0,-1,797,533,2.27136,8.34546
-420,491,-1.47614,-7.1734,0,0,0,0,0,0,0,-1,804,533,-1.47611,7.17338
-413,491,-1.52295,-7.47797,0,0,0,0,0,0,0,-1,811,533,-1.52296,7.47798
-406,491,-1.44769,-7.95685,0.00750298,0.00320866,-0.00471626,0.0105378,0.000173798,-0.571785,0.00696802,0.0268307,818,533,-1.44766,7.95683
-399,491,-1.43304,-8.31073,0.00641243,0.00233272,-0.00387913,0.00875534,-1.01933e-05,-0.54334,0.00584029,0.0112125,825,533,-1.43307,8.31072
-392,491,-1.47003,-8.66461,0.0052659,0.00151443,-0.00307932,0.00699579,-0.000215469,-0.511842,0.00473732,0.00965758,832,533,-1.47003,8.6646
-385,491,-1.47797,-8.99475,0.00421204,0.000968459,-0.00236739,0.00545987,-0.000279373,-0.485086,0.00373652,0.0083378,839,533,-1.47795,8.99477
-378,491,-1.48413,-9.31378,0.0032614,0.000513459,-0.00177842,0.00413477,-0.000359916,-0.4565,0.00288398,0.0123931,846,533,-1.48413,9.31378
-371,491,-1.47723,-9.65778,0.00236285,9.95037e-05,-0.00124782,0.00291574,-0.000453386,-0.417087,0.00211124,0.015567,853,533,-1.47723,9.65776
-364,491,-1.45978,-9.99384,0.00160938,-0.000284583,-0.000761033,0.00187728,-0.000552487,-0.338479,0.00147069,0.0140534,860,533,-1.45979,9.99386
-357,491,-1.49481,-10.303,0.00111023,-0.000604415,-0.000391902,0.00119555,-0.000689743,-0.214381,0.00110146,0.0109897,867,533,-1.49483,10.303
-350,491,-1.50732,-10.6266,0.000815408,-0.000920677,-9.22115e-05,0.000820292,-0.000925561,-0.0529162,0.00100858,0.0149301,874,533,-1.50729,10.6266
-343,491,-1.50342,-10.981,0.000736653,-0.00113155,8.39324e-05,0.000740416,-0.00113531,0.0448065,0.00109092,0.0238537,881,533,-1.50339,10.981
-336,491,-1.48517,-11.3064,0.000935322,-0.00144363,0.000224835,0.000956385,-0.0014647,0.0934079,0.00140804,0.0233677,888,533,-1.48517,11.3064
-329,491,-1.52734,-11.6008,0.00125889,-0.00168875,0.000322669,0.0012938,-0.00172366,0.107766,0.00174802,0.0244327,895,533,-1.52737,11.6008
-322,491,-1.52246,-11.8917,0.00154276,-0.0018534,0.000439573,0.00159873,-0.00190937,0.126653,0.00202805,0.0241692,902,533,-1.52249,11.8917
-315,491,-1.53406,-12.1741,0.00184445,-0.00201894,0.00056138,0.00192437,-0.00209886,0.141412,0.00232354,0.0221683,909,533,-1.53408,12.1741
-308,491,-1.44177,-12.6284,0,0,0,0,0,0,0,-1,916,533,-1.4418,12.6284
-301,491,-1.41064,-12.5186,0,0,0,0,0,0,0,-1,923,533,-1.41066,12.5185
-294,491,-0.777283,-8.60913,0,0,0,0,0,0,0,-1,930,533,-0.777288,8.6091
-287,491,-0.26123,-8.69055,0,0,0,0,0,0,0,-1,937,533,-0.261204,8.69053
-280,491,0.2948,-5.99219,0,0,0,0,0,0,0,-1,944,533,0.294811,5.99221
-273,491,0.369995,-5.33691,0,0,0,0,0,0,0,-1,951,533,0.369985,5.33693
-266,491,1.1167,-5.0321,0,0,0,0,0,0,0,-1,958,533,1.11668,5.0321
-259,491,12.0862,-16.9615,0,0,0,0,0,0,0,-1,965,533,12.0862,16.9615
-252,491,9.72443,-13.8417,0,0,0,0,0,0,0,-1,972,533,9.72444,13.8418
-245,491,5.27258,-14.3619,0,0,0,0,0,0,0,-1,979,533,5.27255,14.3619
-238,491,3.65381,-11.1472,0,0,0,0,0,0,0,-1,986,533,3.6538,11.1472
-231,491,2.17719,-7.86835,0,0,0,0,0,0,0,-1,993,533,2.17719,7.86832
-224,491,0.554626,-4.61725,0,0,0,0,0,0,0,-1,1000,533,0.554608,4.61727
-217,491,-2.92743,-1.0766,0,0,0,0,0,0,0,-1,1007,533,-2.92743,1.07659
-210,491,-0.92395,0.374512,0,0,0,0,0,0,0,-1,1014,533,-0.923959,-0.374531
-203,491,0.417419,4.77161,0,0,0,0,0,0,0,-1,1021,533,0.417446,-4.77162
-196,491,0,0,0,0,0,0,0,0,0,-1,1028,533,0,0
-189,491,0,0,0,0,0,0,0,0,0,-1,1035,533,0,0
-182,491,0,0,0,0,0,0,0,0,0,-1,1042,533,0,0
-175,491,0,0,0,0,0,0,0,0,0,-1,1049,533,0,0
-168,491,0,0,0,0,0,0,0,0,0,-1,1056,533,0,0
-161,491,0,0,0,0,0,0,0,0,0,-1,1063,533,0,0
-154,491,0,0,0,0,0,0,0,0,0,-1,1070,533,0,0
-147,491,0,0,0,0,0,0,0,0,0,-1,1077,533,0,0
-140,491,0,0,0,0,0,0,0,0,0,-1,1084,533,0,0
-133,491,0,0,0,0,0,0,0,0,0,-1,1091,533,0,0
-126,491,0,0,0,0,0,0,0,0,0,-1,1098,533,0,0
-119,491,0,0,0,0,0,0,0,0,0,-1,1105,533,0,0
-112,491,0,0,0,0,0,0,0,0,0,-1,1112,533,0,0
-105,491,0,0,0,0,0,0,0,0,0,-1,1119,533,0,0
-98,491,0,0,0,0,0,0,0,0,0,-1,1126,533,0,0
-91,491,0,0,0,0,0,0,0,0,0,-1,1133,533,0,0
-84,491,0,0,0,0,0,0,0,0,0,-1,1140,533,0,0
-77,491,0,0,0,0,0,0,0,0,0,-1,1147,533,0,0
-70,491,0,0,0,0,0,0,0,0,0,-1,1154,533,0,0
-63,491,0,0,0,0,0,0,0,0,0,-1,1161,533,0,0
-56,491,0,0,0,0,0,0,0,0,0,-1,1168,533,0,0
-49,491,0,0,0,0,0,0,0,0,0,-1,1175,533,0,0
-42,491,0,0,0,0,0,0,0,0,0,-1,1182,533,0,0
-35,491,0,0,0,0,0,0,0,0,0,-1,1189,533,0,0
-28,491,0,0,0,0,0,0,0,0,0,-1,1196,533,0,0
-21,491,0,0,0,0,0,0,0,0,0,-1,1203,533,0,0
-14,491,0,0,0,0,0,0,0,0,0,-1,1210,533,0,0
-7,491,0,0,0,0,0,0,0,0,0,-1,1217,533,0,0
0,491,0,0,0,0,0,0,0,0,0,-1,1224,533,0,0
7,491,0,0,0,0,0,0,0,0,0,-1,1231,533,0,0
14,491,0,0,0,0,0,0,0,0,0,-1,1238,533,0,0
21,491,0,0,0,0,0,0,0,0,0,-1,1245,533,0,0
28,491,0,0,0,0,0,0,0,0,0,-1,1252,533,0,0
35,491,0,0,0,0,0,0,0,0,0,-1,1259,533,0,0
42,491,0,0,0,0,0,0,0,0,0,-1,1266,533,0,0
49,491,0,0,0,0,0,0,0,0,0,-1,1273,533,0,0
56,491,0,0,0,0,0,0,0,0,0,-1,1280,533,0,0
63,491,0,0,0,0,0,0,0,0,0,-1,1287,533,0,0
70,491,0,0,0,0,0,0,0,0,0,-1,1294,533,0,0
77,491,0,0,0,0,0,0,0,0,0,-1,1301,533,0,0
84,491,0,0,0,0,0,0,0,0,0,-1,1308,533,0,0
91,491,0,0,0,0,0,0,0,0,0,-1,1315,533,0,0
98,491,0,0,0,0,0,0,0,0,0,-1,1322,533,0,0
105,491,0,0,0,0,0,0,0,0,0,-1,1329,533,0,0
112,491,0,0,0,0,0,0,0,0,0,-1,1336,533,0,0
119,491,0,0,0,0,0,0,0,0,0,-1,1343,533,0,0
126,491,0,0,0,0,0,0,0,0,0,-1,1350,533,0,0
133,491,0,0,0,0,0,0,0,0,0,-1,1357,533,0,0
140,491,0,0,0,0,0,0,0,0,0,-1,1364,533,0,0
147,491,0,0,0,0,0,0,0,0,0,-1,1371,533,0,0
154,491,0,0,0,0,0,0,0,0,0,-1,1378,533,0,0
161,491,0,0,0,0,0,0,0,0,0,-1,1385,533,0,0
168,491,0,0,0,0,0,0,0,0,0,-1,1392,533,0,0
175,491,0,0,0,0,0,0,0,0,0,-1,1399,533,0,0
182,491,0,0,0,0,0,0,0,0,0,-1,1406,533,0,0
189,491,0,0,0,0,0,0,0,0,0,-1,1413,533,0,0
196,491,0,0,0,0,0,0,0,0,0,-1,1420,533,0,0
203,491,0,0,0,0,0,0,0,0,0,-1,1427,533,0,0
210,491,0,0,0,0,0,0,0,0,0,-1,1434,533,0,0
217,491,0,0,0,0,0,0,0,0,0,-1,1441,533,0,0
224,491,0,0,0,0,0,0,0,0,0,-1,1448,533,0,0
231,491,0,0,0,0,0,0,0,0,0,-1,1455,533,0,0
238,491,0,0,0,0,0,0,0,0,0,-1,1462,533,0,0
245,491,0,0,0,0,0,0,0,0,0,-1,1469,533,0,0
252,491,0,0,0,0,0,0,0,0,0,-1,1476,533,0,0
259,491,0,0,0,0,0,0,0,0,0,-1,1483,533,0,0
266,491,0,0,0,0,0,0,0,0,0,-1,1490,533,0,0
273,491,0,0,0,0,0,0,0,0,0,-1,1497,533,0,0
280,491,0,0,0,0,0,0,0,0,0,-1,1504,533,0,0
287,491,0,0,0,0,0,0,0,0,0,-1,1511,533,0,0
294,491,0,0,0,0,0,0,0,0,0,-1,1518,533,0,0
301,491,0,0,0,0,0,0,0,0,0,-1,1525,533,0,0
308,491,0,0,0,0,0,0,0,0,0,-1,1532,533,0,0
315,491,0,0,0,0,0,0,0,0,0,-1,1539,533,0,0
322,491,4.26331,-0.734314,0,0,0,0,0,0,0,-1,1546,533,4.26326,0.734324
329,491,4.25354,-0.783752,0,0,0,0,0,0,0,-1,1553,533,4.25359,0.783734
336,491,4.81604,-0.722107,0,0,0,0,0,0,0,-1,1560,533,4.81605,0.722115
343,491,6.14478,-1.44281,0,0,0,0,0,0,0,-1,1567,533,6.14474,1.44281
350,491,6.36353,-1.30792,0,0,0,0,0,0,0,-1,1574,533,6.36352,1.3079
357,491,6.69482,-1.06018,0,0,0,0,0,0,0,-1,1581,533,6.69489,1.06018
364,491,8.01086,-1.69604,0,0,0,0,0,0,0,-1,1588,533,8.01087,1.69607
371,491,8.2135,-0.539307,0,0,0,0,0,0,0,-1,1595,533,8.21348,0.53929
378,491,13.3589,2.17267,0,0,0,0,0,0,0,-1,1602,533,13.3589,-2.17264
385,491,8.08228,-4.95471,0,0,0,0,0,0,0,-1,1609,533,8.08227,4.95474
392,491,2.88721,-4.30988,0,0,0,0,0,0,0,-1,1616,533,2.88716,4.30986
399,491,8.95862,-8.55518,0,0,0,0,0,0,0,-1,1623,533,8.95864,8.55516
406,491,8.16541,-9.00806,0,0,0,0,0,0,0,-1,1630,533,8.16535,9.00807
413,491,5.31848,-3.7124,0,0,0,0,0,0,0,-1,1637,533,5.31849,3.7124
420,491,4.86389,-3.95892,0,0,0,0,0,0,0,-1,1644,533,4.86387,3.95893
427,491,9.3645,-11.2057,0,0,0,0,0,0,0,-1,1651,533,9.3645,11.2057
434,491,8.91223,-10.8112,-0.00710948,-0.00597419,-0.00831934,0.00179684,-0.0148805,-0.819461,0.0105703,0.0466685,1658,533,8.91226,10.8112
441,491,8.77344,-10.8358,-0.00544863,-0.00437748,-0.00666524,0.00177367,-0.0115998,-0.825489,0.00838716,0.0211937,1665,533,8.77339,10.8358
448,491,8.72046,-10.5763,-0.00387333,-0.00272624,-0.00504229,0.00177502,-0.00837459,-0.842028,0.0062592,0.0118516,1672,533,8.72047,10.5763
455,491,8.71985,-10.2372,-0.00245974,-0.00135397,-0.00359642,0.00173181,-0.00554552,-0.861667,0.00438967,0.0120526,1679,533,8.7199,10.2372
462,491,8.72278,-9.92249,-0.00119239,-0.000339387,-0.00229298,0.00156642,-0.0030982,-0.877349,0.00274109,0.0148752,1686,533,8.72284,9.9225
469,491,8.72278,-9.59131,-0.00025797,0.000377996,-0.0012539,0.0013536,-0.00123357,-0.909578,0.00149424,0.0136867,1693,533,8.72274,9.59132
476,491,8.70972,-9.23077,0.000214404,0.000676193,-0.000633822,0.00111987,-0.000229269,-0.960072,0.000833578,0.0094425,1700,533,8.70967,9.23075
483,491,8.70557,-8.87384,0.000485026,0.000702802,-0.00025029,0.000866863,0.000320964,-0.990574,0.000506069,0.0112679,1707,533,8.70556,8.87385
490,491,8.69397,-8.56244,0.000245999,0.000543016,-0.00017495,0.00062399,0.000165024,-1.13731,0.000373347,0.010682,1714,533,8.694,8.56246
497,491,8.69385,-8.20703,-0.000453945,-0.000193023,-0.000516586,0.000209321,-0.000856289,-0.909084,0.000651932,0.011803,1721,533,8.69381,8.20704
504,491,8.69788,-7.84473,-0.00144434,-0.00106016,-0.00107157,-0.000163602,-0.0023409,-0.874085,0.00150903,0.0133027,1728,533,8.69782,7.84476
511,491,8.6886,-7.48663,-0.00276869,-0.00196999,-0.00185047,-0.000476272,-0.00426241,-0.891675,0.0026969,0.0122577,1735,533,8.68858,7.48666
518,491,8.67627,-7.12512,-0.00434978,-0.00290526,-0.00274056,-0.000793392,-0.00646166,-0.914241,0.00406917,0.00953939,1742,533,8.67621,7.12512
525,491,8.6731,-6.75873,-0.00603461,-0.00386972,-0.00369651,-0.00110043,-0.0088039,-0.927831,0.00553901,0.00929308,1749,533,8.67304,6.75874
532,491,8.67944,-6.42407,-0.00780226,-0.00460982,-0.00460307,-0.00133406,-0.011078,-0.952296,0.00698326,0.0217722,1756,533,8.67947,6.42404
539,491,8.56824,-6.18475,-0.009554,-0.00492309,-0.00537714,-0.00138406,-0.013093,-0.988705,0.00830586,0.0352519,1763,533,8.56828,6.18473
546,491,8.18237,-5.51709,0,0,0,0,0,0,0,-1,1770,533,8.18232,5.5171
553,491,7.83826,-4.703,0,0,0,0,0,0,0,-1,1777,533,7.83824,4.703
560,491,6.28455,-1.43585,0,0,0,0,0,0,0,-1,1784,533,6.28458,1.43586
567,491,5.67651,-1.3562,0,0,0,0,0,0,0,-1,1791,533,5.67649,1.3562
574,491,8.0719,1.58325,0,0,0,0,0,0,0,-1,1798,533,8.07195,-1.58326
581,491,9.44812,1.60931,0,0,0,0,0,0,0,-1,1805,533,9.44808,-1.60933
588,491,11.0497,1.54962,0,0,0,0,0,0,0,-1,1812,533,11.0496,-1.54963
595,491,0,0,0,0,0,0,0,0,0,-1,1819,533,0,0
602,491,0,0,0,0,0,0,0,0,0,-1,1826,533,0,0
609,491,0,0,0,0,0,0,0,0,0,-1,1833,533,0,0
616,491,0,0,0,0,0,0,0,0,0,-1,1840,533,0,0
623,491,0,0,0,0,0,0,0,0,0,-1,1847,533,0,0
630,491,0,0,0,0,0,0,0,0,0,-1,1854,533,0,0
637,491,0,0,0,0,0,0,0,0,0,-1,1861,533,0,0
644,491,0,0,0,0,0,0,0,0,0,-1,1868,533,0,0
651,491,0,0,0,0,0,0,0,0,0,-1,1875,533,0,0
658,491,0,0,0,0,0,0,0,0,0,-1,1882,533,0,0
665,491,0,0,0,0,0,0,0,0,0,-1,1889,533,0,0
672,491,0,0,0,0,0,0,0,0,0,-1,1896,533,0,0
679,491,0,0,0,0,0,0,0,0,0,-1,1903,533,0,0
686,491,0,0,0,0,0,0,0,0,0,-1,1910,533,0,0
693,491,0,0,0,0,0,0,0,0,0,-1,1917,533,0,0
700,491,0,0,0,0,0,0,0,0,0,-1,1924,533,0,0
707,491,0,0,0,0,0,0,0,0,0,-1,1931,533,0,0
714,491,0,0,0,0,0,0,0,0,0,-1,1938,533,0,0
721,491,0,0,0,0,0,0,0,0,0,-1,1945,533,0,0
728,491,0,0,0,0,0,0,0,0,0,-1,1952,533,0,0
735,491,0,0,0,0,0,0,0,0,0,-1,1959,533,0,0
742,491,0,0,0,0,0,0,0,0,0,-1,1966,533,0,0
749,491,0,0,0,0,0,0,0,0,0,-1,1973,533,0,0
756,491,0,0,0,0,0,0,0,0,0,-1,1980,533,0,0
763,491,0,0,0,0,0,0,0,0,0,-1,1987,533,0,0
770,491,0,0,0,0,0,0,0,0,0,-1,1994,533,0,0
777,491,0,0,0,0,0,0,0,0,0,-1,2001,533,0,0
784,491,0,0,0,0,0,0,0,0,0,-1,2008,533,0,0
791,491,0,0,0,0,0,0,0,0,0,-1,2015,533,0,0
798,491,0,0,0,0,0,0,0,0,0,-1,2022,533,0,0
805,491,0,0,0,0,0,0,0,0,0,-1,2029,533,0,0
812,491,0,0,0,0,0,0,0,0,0,-1,2036,533,0,0
-700,484,0,0,0,0,0,0,0,0,0,-1,524,540,0,0
-693,484,0,0,0,0,0,0,0,0,0,-1,531,540,0,0
-686,484,0,0,0,0,0,0,0,0,0,-1,538,540,0,0
-679,484,0,0,0,0,0,0,0,0,0,-1,545,540,0,0
-672,484,0,0,0,0,0,0,0,0,0,-1,552,540,0,0
-665,484,0,0,0,0,0,0,0,0,0,-1,559,540,0,0
-658,484,0,0,0,0,0,0,0,0,0,-1,566,540,0,0
-651,484,0,0,0,0,0,0,0,0,0,-1,573,540,0,0
-644,484,0,0,0,0,0,0,0,0,0,-1,580,540,0,0
-637,484,0,0,0,0,0,0,0,0,0,-1,587,540,0,0
-630,484,0,0,0,0,0,0,0,0,0,-1,594,540,0,0
-623,484,0,0,0,0,0,0,0,0,0,-1,601,540,0,0
-616,484,0,0,0,0,0,0,0,0,0,-1,608,540,0,0
-609,484,0,0,0,0,0,0,0,0,0,-1,615,540,0,0
-602,484,0,0,0,0,0,0,0,0,0,-1,622,540,0,0
-595,484,0,0,0,0,0,0,0,0,0,-1,629,540,0,0
-588,484,0,0,0,0,0,0,0,0,0,-1,636,540,0,0
-581,484,0,0,0,0,0,0,0,0,0,-1,643,540,0,0
-574,484,0,0,0,0,0,0,0,0,0,-1,650,540,0,0
-567,484,0,0,0,0,0,0,0,0,0,-1,657,540,0,0
-560,484,0,0,0,0,0,0,0,0,0,-1,664,540,0,0
-553,484,0,0,0,0,0,0,0,0,0,-1,671,540,0,0
-546,484,0,0,0,0,0,0,0,0,0,-1,678,540,0,0
-539,484,0,0,0,0,0,0,0,0,0,-1,685,540,0,0
-532,484,0,0,0,0,0,0,0,0,0,-1,692,540,0,0
-525,484,0,0,0,0,0,0,0,0,0,-1,699,540,0,0
-518,484,0,0,0,0,0,0,0,0,0,-1,706,540,0,0
-511,484,0,0,0,0,0,0,0,0,0,-1,713,540,0,0
-504,484,0,0,0,0,0,0,0,0,0,-1,720,540,0,0
-497,484,0,0,0,0,0,0,0,0,0,-1,727,540,0,0
-490,484,0,0,0,0,0,0,0,0,0,-1,734,540,0,0
-483,484,0,0,0,0,0,0,0,0,0,-1,741,540,0,0
-476,484,-8.46552,1.44702,0,0,0,0,0,0,0,-1,748,540,-8.46554,-1.44702
-469,484,-7.82343,1.70355,0,0,0,0,0,0,0,-1,755,540,-7.82345,-1.70355
-462,484,-8.36987,3.08612,0,0,0,0,0,0,0,-1,762,540,-8.36988,-3.0861
-455,484,-6.77197,2.07092,0,0,0,0,0,0,0,-1,769,540,-6.77197,-2.07094
-448,484,3.54895,-1.40106,0,0,0,0,0,0,0,-1,776,540,3.54897,1.40106
-441,484,4.28906,-3.05884,0,0,0,0,0,0,0,-1,783,540,4.28905,3.05883
-434,484,-2.17548,-5.07245,0,0,0,0,0,0,0,-1,790,540,-2.17546,5.07243
-427,484,-1.73413,-6.70526,0,0,0,0,0,0,0,-1,797,540,-1.73412,6.70529
-420,484,-1.75568,-7.11188,0.00546473,0.00537139,-0.00500089,0.0104192,0.000416945,-0.780732,0.00681139,0.04709,804,540,-1.75565,7.11188
-413,484,-1.71008,-7.51758,0.00543851,0.00420043,-0.00452413,0.00938575,0.000253186,-0.717405,0.0061745,0.028504,811,540,-1.71008,7.5176
-406,484,-1.72174,-7.9577,0.00509951,0.0031605,-0.00381368,0.00806499,0.000195023,-0.660926,0.00531284,0.0164321,818,540,-1.72173,7.95773
-399,484,-1.77374,-8.31152,0.00449678,0.002298,-0.00309635,0.00668312,0.00011166,-0.614811,0.00441866,0.0154416,825,540,-1.77373,8.31149
-392,484,-1.7998,-8.64172,0.00375448,0.0014223,-0.00236855,0.00522843,-5.16428e-05,-0.556655,0.00350296,0.0168894,832,540,-1.79979,8.64173
-385,484,-1.80322,-8.99042,0.00303927,0.000762763,-0.00170703,0.00395274,-0.000150707,-0.49135,0.0026868,0.0118628,839,540,-1.80323,8.99042
-378,484,-1.80688,-9.3291,0.00232774,0.000213567,-0.00112443,0.00281396,-0.000272649,-0.40813,0.00197315,0.0135703,846,540,-1.80686,9.32907
-371,484,-1.81543,-9.65558,0.00160065,-0.000309802,-0.000574481,0.00176009,-0.000469245,-0.270727,0.00135712,0.0155241,853,540,-1.81545,9.65561
-364,484,-1.81628,-9.97144,0.000973573,-0.000805429,-6.72787e-05,0.000976113,-0.00080797,-0.0377464,0.00103156,0.011198,860,540,-1.81629,9.97144
-357,484,-1.83142,-10.2807,0.000562888,-0.00122327,0.00031343,0.000616291,-0.00127668,0.168762,0.00111485,0.0117486,867,540,-1.83143,10.2807
-350,484,-1.83862,-10.6049,0.000351884,-0.0015609,0.00056705,0.000507351,-0.00171637,0.267593,0.00134563,0.0146134,874,540,-1.83861,10.6049
-343,484,-1.85199,-10.9857,0.000450374,-0.00192696,0.000690912,0.000636585,-0.00211317,0.263259,0.00166212,0.0225432,881,540,-1.852,10.9856
-336,484,-1.7937,-11.2941,0.000726232,-0.00235247,0.000794393,0.000919123,-0.00254536,0.238205,0.00207237,0.0252122,888,540,-1.79368,11.2941
-329,484,-1.8429,-11.5676,0.00105327,-0.00269298,0.000859281,0.00124096,-0.00288067,0.21505,0.00244159,0.0340974,895,540,-1.84289,11.5676
-322,484,-1.79523,-11.9041,0,0,0,0,0,0,0,-1,902,540,-1.79525,11.9041
-315,484,-1.61511,-12.2991,0,0,0,0,0,0,0,-1,909,540,-1.6151,12.2991
-308,484,-1.32623,-8.9317,0,0,0,0,0,0,0,-1,916,540,-1.32626,8.93173
-301,484,-1.33453,-6.52667,0,0,0,0,0,0,0,-1,923,540,-1.33454,6.5267
-294,484,-1.61224,-8.17059,0,0,0,0,0,0,0,-1,930,540,-1.61227,8.17058
-287,484,-0.715759,-5.62103,0,0,0,0,0,0,0,-1,937,540,-0.715772,5.62105
-280,484,2.66742,-1.6795,0,0,0,0,0,0,0,-1,944,540,2.6674,1.67949
-273,484,2.53125,-2.22296,0,0,0,0,0,0,0,-1,951,540,2.53128,2.22295
-266,484,2.6778,-2.72058,0,0,0,0,0,0,0,-1,958,540,2.6778,2.72061
-259,484,2.41718,-2.59894,0,0,0,0,0,0,0,-1,965,540,2.41717,2.59892
-252,484,10.6069,-11.696,0,0,0,0,0,0,0,-1,972,540,10.6069,11.696
-245,484,6.34106,-11.6107,0,0,0,0,0,0,0,-1,979,540,6.34104,11.6107
-238,484,4.89319,-8.54059,0,0,0,0,0,0,0,-1,986,540,4.89321,8.5406
-231,484,3.47675,-5.22064,0,0,0,0,0,0,0,-1,993,540,3.47676,5.22067
-224,484,1.71344,-2.03473,0,0,0,0,0,0,0,-1,1000,540,1.71342,2.03472
-217,484,-0.745056,1.17358,0,0,0,0,0,0,0,-1,1007,540,-0.745043,-1.17359
-210,484,0,0,0,0,0,0,0,0,0,-1,1014,540,0,0
-203,484,0,0,0,0,0,0,0,0,0,-1,1021,540,0,0
-196,484,0,0,0,0,0,0,0,0,0,-1,1028,540,0,0
-189,484,0,0,0,0,0,0,0,0,0,-1,1035,540,0,0
-182,484,0,0,0,0,0,0,0,0,0,-1,1042,540,0,0
-175,484,0,0,0,0,0,0,0,0,0,-1,1049,540,0,0
-168,484,0,0,0,0,0,0,0,0,0,-1,1056,540,0,0
-161,484,0,0,0,0,0,0,0,0,0,-1,1063,540,0,0
-154,484,0,0,0,0,0,0,0,0,0,-1,1070,540,0,0
-147,484,0,0,0,0,0,0,0,0,0,-1,1077,540,0,0
-140,484,0,0,0,0,0,0,0,0,0,-1,1084,540,0,0
-133,484,0,0,0,0,0,0,0,0,0,-1,1091,540,0,0
-126,484,0,0,0,0,0,0,0,0,0,-1,1098,540,0,0
-119,484,0,0,0,0,0,0,0,0,0,-1,1105,540,0,0
-112,484,0,0,0,0,0,0,0,0,0,-1,1112,540,0,0
-105,484,0,0,0,0,0,0,0,0,0,-1,1119,540,0,0
-98,484,0,0,0,0,0,0,0,0,0,-1,1126,540,0,0
-91,484,0,0,0,0,0,0,0,0,0,-1,1133,540,0,0
-84,484,0,0,0,0,0,0,0,0,0,-1,1140,540,0,0
-77,484,0,0,0,0,0,0,0,0,0,-1,1147,540,0,0
-70,484,0,0,0,0,0,0,0,0,0,-1,1154,540,0,0
-63,484,0,0,0,0,0,0,0,0,0,-1,1161,540,0,0
-56,484,0,0,0,0,0,0,0,0,0,-1,1168,540,0,0
-49,484,0,0,0,0,0,0,0,0,0,-1,1175,540,0,0
-42,484,0,0,0,0,0,0,0,0,0,-1,1182,540,0,0
-35,484,0,0,0,0,0,0,0,0,0,-1,1189,540,0,0
-28,484,0,0,0,0,0,0,0,0,0,-1,1196,540,0,0
-21,484,0,0,0,0,0,0,0,0,0,-1,1203,540,0,0
-14,484,0,0,0,0,0,0,0,0,0,-1,1210,540,0,0
-7,484,0,0,0,0,0,0,0,0,0,-1,1217,540,0,0
0,484,0,0,0,0,0,0,0,0,0,-1,1224,540,0,0
7,484,0,0,0,0,0,0,0,0,0,-1,1231,540,0,0
14,484,0,0,0,0,0,0,0,0,0,-1,1238,540,0,0
21,484,0,0,0,0,0,0,0,0,0,-1,1245,540,0,0
28,484,0,0,0,0,0,0,0,0,0,-1,1252,540,0,0
35,484,0,0,0,0,0,0,0,0,0,-1,1259,540,0,0
42,484,0,0,0,0,0,0,0,0,0,-1,1266,540,0,0
49,484,0,0,0,0,0,0,0,0,0,-1,1273,540,0,0
56,484,0,0,0,0,0,0,0,0,0,-1,1280,540,0,0
63,484,0,0,0,0,0,0,0,0,0,-1,1287,540,0,0
70,484,0,0,0,0,0,0,0,0,0,-1,1294,540,0,0
77,484,0,0,0,0,0,0,0,0,0,-1,1301,540,0,0
84,484,0,0,0,0,0,0,0,0,0,-1,1308,540,0,0
91,484,0,0,0,0,0,0,0,0,0,-1,1315,540,0,0
98,484,0,0,0,0,0,0,0,0,0,-1,1322,540,0,0
105,484,0,0,0,0,0,0,0,0,0,-1,1329,540,0,0
112,484,0,0,0,0,0,0,0,0,0,-1,1336,540,0,0
119,484,0,0,0,0,0,0,0,0,0,-1,1343,540,0,0
126,484,0,0,0,0,0,0,0,0,0,-1,1350,540,0,0
133,484,0,0,0,0,0,0,0,0,0,-1,1357,540,0,0
140,484,0,0,0,0,0,0,0,0,0,-1,1364,540,0,0
147,484,0,0,0,0,0,0,0,0,0,-1,1371,540,0,0
154,484,0,0,0,0,0,0,0,0,0,-1,1378,540,0,0
161,484,0,0,0,0,0,0,0,0,0,-1,1385,540,0,0
168,484,0,0,0,0,0,0,0,0,0,-1,1392,540,0,0
175,484,0,0,0,0,0,0,0,0,0,-1,1399,540,0,0
182,484,0,0,0,0,0,0,0,0,0,-1,1406,540,0,0
189,484,0,0,0,0,0,0,0,0,0,-1,1413,540,0,0
196,484,0,0,0,0,0,0,0,0,0,-1,1420,540,0,0
203,484,0,0,0,0,0,0,0,0,0,-1,1427,540,0,0
210,484,0,0,0,0,0,0,0,0,0,-1,1434,540,0,0
217,484,0,0,0,0,0,0,0,0,0,-1,1441,540,0,0
224,484,0,0,0,0,0,0,0,0,0,-1,1448,540,0,0
231,484,0,0,0,0,0,0,0,0,0,-1,1455,540,0,0
238,484,0,0,0,0,0,0,0,0,0,-1,1462,540,0,0
245,484,0,0,0,0,0,0,0,0,0,-1,1469,540,0,0
252,484,0,0,0,0,0,0,0,0,0,-1,1476,540,0,0
259,484,0,0,0,0,0,0,0,0,0,-1,1483,540,0,0
266,484,0,0,0,0,0,0,0,0,0,-1,1490,540,0,0
273,484,0,0,0,0,0,0,0,0,0,-1,1497,540,0,0
280,484,0,0,0,0,0,0,0,0,0,-1,1504,540,0,0
287,484,0,0,0,0,0,0,0,0,0,-1,1511,540,0,0
294,484,0,0,0,0,0,0,0,0,0,-1,1518,540,0,0
301,484,0,0,0,0,0,0,0,0,0,-1,1525,540,0,0
308,484,0,0,0,0,0,0,0,0,0,-1,1532,540,0,0
315,484,0,0,0,0,0,0,0,0,0,-1,1539,540,0,0
322,484,0,0,0,0,0,0,0,0,0,-1,1546,540,0,0
329,484,0,0,0,0,0,0,0,0,0,-1,1553,540,0,0
336,484,4.38708,-1.64136,0,0,0,0,0,0,0,-1,1560,540,4.38704,1.64138
343,484,7.57996,-1.05457,0,0,0,0,0,0,0,-1,1567,540,7.57995,1.05454
350,484,8.10425,-1.18878,0,0,0,0,0,0,0,-1,1574,540,8.1043,1.18877
357,484,7.74902,-3.80286,0,0,0,0,0,0,0,-1,1581,540,7.74901,3.80287
364,484,6.31262,-3.87213,0,0,0,0,0,0,0,-1,1588,540,6.31263,3.87215
371,484,7.21008,0.973511,0,0,0,0,0,0,0,-1,1595,540,7.21014,-0.973541
378,484,11.0563,1.5014,0,0,0,0,0,0,0,-1,1602,540,11.0563,-1.5014
385,484,14.3469,2.5545,0,0,0,0,0,0,0,-1,1609,540,14.3469,-2.55453
392,484,7.39453,-4.95026,0,0,0,0,0,0,0,-1,1616,540,7.39448,4.95023
399,484,7.14417,-2.5639,0,0,0,0,0,0,0,-1,1623,540,7.14417,2.56391
406,484,7.88953,-2.47321,0,0,0,0,0,0,0,-1,1630,540,7.88954,2.47323
413,484,4.4895,-1.08673,0,0,0,0,0,0,0,-1,1637,540,4.48952,1.08674
420,484,4.50012,-2.11255,0,0,0,0,0,0,0,-1,1644,540,4.50012,2.11256
427,484,5.28601,-3.54053,0,0,0,0,0,0,0,-1,1651,540,5.28599,3.54051
434,484,9.51306,-10.4186,0,0,0,0,0,0,0,-1,1658,540,9.5131,10.4186
441,484,9.21301,-10.7262,0,0,0,0,0,0,0,-1,1665,540,9.21298,10.7262
448,484,9.18591,-10.4241,-0.00502125,-0.00334774,-0.00637107,0.00224129,-0.0106103,-0.850693,0.00792695,0.040883,1672,540,9.18589,10.4241
455,484,9.05261,-10.2482,-0.00310686,-0.00140808,-0.00441447,0.00223797,-0.00675291,-0.880442,0.00540465,0.0209639,1679,540,9.05256,10.2482
462,484,9.05627,-9.90082,-0.00141642,-4.35249e-05,-0.00269041,0.00204662,-0.00350657,-0.910307,0.00324286,0.0142354,1686,540,9.05623,9.90084
469,484,9.0658,-9.56396,-0.00012055,0.00103286,-0.0012592,0.00184114,-0.000928823,-1.00014,0.00162789,0.0153054,1693,540,9.06581,9.56396
476,484,9.06799,-9.21454,0.000590566,0.00146359,-0.00042356,0.00163531,0.000418847,-1.18563,0.000980869,0.0145197,1700,540,9.06797,9.21453
483,484,9.07092,-8.87738,0.00106667,0.00160006,0.000166387,0.00164771,0.00101902,1.2919,0.000960161,0.0117416,1707,540,9.07092,8.87739
490,484,9.05798,-8.55255,0.00102836,0.00160393,0.000407165,0.00181475,0.00081754,1.09304,0.00104945,0.012173,1714,540,9.058,8.55253
497,484,9.04895,-8.20282,0.000494495,0.000939087,0.000210289,0.00102279,0.000410789,1.19197,0.000594306,0.0132721,1721,540,9.04896,8.2028
504,484,9.04285,-7.85663,-0.000285549,0.000183842,-0.000173651,0.0002411,-0.000342807,-1.25229,0.000338819,0.0153429,1728,540,9.04284,7.85663
511,484,9.04834,-7.49133,-0.0013795,-0.000640209,-0.000782525,-0.000144415,-0.00187529,-1.00605,0.00120494,0.0168461,1735,540,9.04828,7.49131
518,484,9.04089,-7.11755,-0.0026817,-0.00146133,-0.0014757,-0.000474642,-0.00366839,-0.981439,0.00230374,0.0137988,1742,540,9.04088,7.11756
525,484,9.02686,-6.76624,-0.00403409,-0.00227021,-0.00221305,-0.000769837,-0.00553447,-0.975013,0.00346168,0.0121857,1749,540,9.02692,6.76624
532,484,9.03308,-6.41144,-0.00542259,-0.00282904,-0.00287986,-0.000967458,-0.00728417,-0.996946,0.00456791,0.0143641,1756,540,9.03309,6.41144
539,484,9.00146,-6.01392,-0.00675628,-0.00309884,-0.0034312,-0.00103946,-0.00881566,-1.03023,0.00556309,0.0280227,1763,540,9.00145,6.01393
546,484,8.96863,-5.55457,0,0,0,0,0,0,0,-1,1770,540,8.96868,5.55453
553,484,8.9115,-5.06763,0,0,0,0,0,0,0,-1,1777,540,8.91155,5.0676
560,484,9.09863,-4.41479,0,0,0,0,0,0,0,-1,1784,540,9.09869,4.41481
567,484,7.78223,-1.38312,0,0,0,0,0,0,0,-1,1791,540,7.78224,1.38311
574,484,5.74463,1.50922,0,0,0,0,0,0,0,-1,1798,540,5.74463,-1.50924
581,484,10.34,2.9491,0,0,0,0,0,0,0,-1,1805,540,10.34,-2.94912
588,484,10.6669,2.88568,0,0,0,0,0,0,0,-1,1812,540,10.6669,-2.88567
595,484,10.7233,1.04767,0,0,0,0,0,0,0,-1,1819,540,10.7233,-1.04766
602,484,0,0,0,0,0,0,0,0,0,-1,1826,540,0,0
609,484,0,0,0,0,0,0,0,0,0,-1,1833,540,0,0
616,484,0,0,0,0,0,0,0,0,0,-1,1840,540,0,0
623,484,0,0,0,0,0,0,0,0,0,-1,1847,540,0,0
630,484,0,0,0,0,0,0,0,0,0,-1,1854,540,0,0
637,484,0,0,0,0,0,0,0,0,0,-1,1861,540,0,0
644,484,0,0,0,0,0,0,0,0,0,-1,1868,540,0,0
651,484,0,0,0,0,0,0,0,0,0,-1,1875,540,0,0
658,484,0,0,0,0,0,0,0,0,0,-1,1882,540,0,0
665,484,0,0,0,0,0,0,0,0,0,-1,1889,540,0,0
672,484,0,0,0,0,0,0,0,0,0,-1,1896,540,0,0
679,484,0,0,0,0,0,0,0,0,0,-1,1903,540,0,0
686,484,0,0,0,0,0,0,0,0,0,-1,1910,540,0,0
693,484,0,0,0,0,0,0,0,0,0,-1,1917,540,0,0
700,484,0,0,0,0,0,0,0,0,0,-1,1924,540,0,0
707,484,0,0,0,0,0,0,0,0,0,-1,1931,540,0,0
714,484,0,0,0,0,0,0,0,0,0,-1,1938,540,0,0
721,484,0,0,0,0,0,0,0,0,0,-1,1945,540,0,0
728,484,0,0,0,0,0,0,0,0,0,-1,1952,540,0,0
735,484,0,0,0,0,0,0,0,0,0,-1,1959,540,0,0
742,484,0,0,0,0,0,0,0,0,0,-1,1966,540,0,0
749,484,0,0,0,0,0,0,0,0,0,-1,1973,540,0,0
756,484,0,0,0,0,0,0,0,0,0,-1,1980,540,0,0
763,484,0,0,0,0,0,0,0,0,0,-1,1987,540,0,0
770,484,0,0,0,0,0,0,0,0,0,-1,1994,540,0,0
777,484,0,0,0,0,0,0,0,0,0,-1,2001,540,0,0
784,484,0,0,0,0,0,0,0,0,0,-1,2008,540,0,0
791,484,0,0,0,0,0,0,0,0,0,-1,2015,540,0,0
798,484,0,0,0,0,0,0,0,0,0,-1,2022,540,0,0
805,484,0,0,0,0,0,0,0,0,0,-1,2029,540,0,0
812,484,0,0,0,0,0,0,0,0,0,-1,2036,540,0,0
-700,477,0,0,0,0,0,0,0,0,0,-1,524,547,0,0
-693,477,0,0,0,0,0,0,0,0,0,-1,531,547,0,0
-686,477,0,0,0,0,0,0,0,0,0,-1,538,547,0,0
-679,477,0,0,0,0,0,0,0,0,0,-1,545,547,0,0
-672,477,0,0,0,0,0,0,0,0,0,-1,552,547,0,0
-665,477,0,0,0,0,0,0,0,0,0,-1,559,547,0,0
-658,477,0,0,0,0,0,0,0,0,0,-1,566,547,0,0
-651,477,0,0,0,0,0,0,0,0,0,-1,573,547,0,0
-644,477,0,0,0,0,0,0,0,0,0,-1,580,547,0,0
-637,477,0,0,0,0,0,0,0,0,0,-1,587,547,0,0
-630,477,0,0,0,0,0,0,0,0,0,-1,594,547,0,0
-623,477,0,0,0,0,0,0,0,0,0,-1,601,547,0,0
-616,477,0,0,0,0,0,0,0,0,0,-1,608,547,0,0
-609,477,0,0,0,0,0,0,0,0,0,-1,615,547,0,0
-602,477,0,0,0,0,0,0,0,0,0,-1,622,547,0,0
-595,477,0,0,0,0,0,0,0,0,0,-1,629,547,0,0
-588,477,0,0,0,0,0,0,0,0,0,-1,636,547,0,0
-581,477,0,0,0,0,0,0,0,0,0,-1,643,547,0,0
-574,477,0,0,0,0,0,0,0,0,0,-1,650,547,0,0
-567,477,0,0,0,0,0,0,0,0,0,-1,657,547,0,0
-560,477,0,0,0,0,0,0,0,0,0,-1,664,547,0,0
-553,477,0,0,0,0,0,0,0,0,0,-1,671,547,0,0
-546,477,0,0,0,0,0,0,0,0,0,-1,678,547,0,0
-539,477,0,0,0,0,0,0,0,0,0,-1,685,547,0,0
-532,477,0,0,0,0,0,0,0,0,0,-1,692,547,0,0
-525,477,0,0,0,0,0,0,0,0,0,-1,699,547,0,0
-518,477,0,0,0,0,0,0,0,0,0,-1,706,547,0,0
-511,477,0,0,0,0,0,0,0,0,0,-1,713,547,0,0
-504,477,0,0,0,0,0,0,0,0,0,-1,720,547,0,0
-497,477,0,0,0,0,0,0,0,0,0,-1,727,547,0,0
-490,477,0,0,0,0,0,0,0,0,0,-1,734,547,0,0
-483,477,-7.73151,-0.224182,0,0,0,0,0,0,0,-1,741,547,-7.73152,0.224176
-476,477,-6.25806,-0.310547,0,0,0,0,0,0,0,-1,748,547,-6.25804,0.310549
-469,477,-7.26617,0.525085,0,0,0,0,0,0,0,-1,755,547,-7.2662,-0.525111
-462,477,-6.65143,1.06042,0,0,0,0,0,0,0,-1,762,547,-6.65143,-1.06043
-455,477,-5.31757,0.429016,0,0,0,0,0,0,0,-1,769,547,-5.31756,-0.42902
-448,477,-4.0697,0.273376,0,0,0,0,0,0,0,-1,776,547,-4.06971,-0.273363
-441,477,-2.47504,-4.76971,0,0,0,0,0,0,0,-1,783,547,-2.47505,4.76973
-434,477,-1.90021,-6.67731,0,0,0,0,0,0,0,-1,790,547,-1.90021,6.67732
-427,477,-2.05865,-6.82886,0.00299139,0.00608378,-0.00444311,0.00924204,-0.000166875,-0.952843,0.00621773,0.0312197,797,547,-2.05868,6.82885
-420,477,-2.10962,-7.08154,0.00318976,0.00469895,-0.00386491,0.00788225,6.46804e-06,-0.881807,0.00525268,0.0265399,804,547,-2.10962,7.08151
-413,477,-2.09534,-7.55585,0.00329522,0.00366176,-0.0034231,0.0069065,5.04861e-05,-0.812142,0.0045876,0.0190317,811,547,-2.09534,7.55586
-406,477,-2.11023,-7.948,0.00325641,0.0027648,-0.0028413,0.00586252,0.000158685,-0.74225,0.00385654,0.011808,818,547,-2.11023,7.94801
-399,477,-2.08984,-8.29187,0.00296475,0.00199223,-0.00224205,0.00477267,0.000184316,-0.678611,0.00312215,0.0181823,825,547,-2.08986,8.29185
-392,477,-2.12518,-8.63623,0.00249757,0.00115438,-0.00160689,0.00356757,8.4387e-05,-0.587457,0.00235076,0.0165606,832,547,-2.12517,8.63623
-385,477,-2.13995,-8.94666,0.00202342,0.000465729,-0.00101967,0.00252767,-3.85194e-05,-0.459255,0.0016981,0.0148614,839,547,-2.13997,8.94668
-378,477,-2.12634,-9.30896,0.00149162,-0.000116829,-0.00046957,0.00161867,-0.00024388,-0.264241,0.00116892,0.013624,846,547,-2.12632,9.30894
-371,477,-2.14514,-9.63721,0.000904788,-0.000701194,7.40165e-05,0.000908192,-0.000704598,0.0459582,0.000933614,0.0134633,853,547,-2.14513,9.63719
-364,477,-2.1601,-9.94574,0.000384517,-0.00128187,0.000583736,0.000568652,-0.00146601,0.305564,0.0012122,0.0131836,860,547,-2.16008,9.94573
-357,477,-2.15564,-10.2805,3.78539e-05,-0.00180244,0.000977085,0.000459857,-0.00222444,0.4077,0.00165765,0.0112571,867,547,-2.15565,10.2805
-350,477,-2.15503,-10.6077,-0.000120468,-0.00219496,0.00120261,0.000430414,-0.00274584,0.429546,0.00198961,0.0103721,874,547,-2.15503,10.6077
-343,477,-2.11615,-10.9548,0.000110627,-0.00279168,0.00131209,0.000615855,-0.00329691,0.367557,0.00242938,0.0177814,881,547,-2.11614,10.9549
-336,477,-2.03943,-11.2939,0.000408703,-0.00343738,0.00143514,0.000885185,-0.00391387,0.32056,0.00294893,0.0309193,888,547,-2.03941,11.2939
-329,477,-1.89758,-11.6171,0,0,0,0,0,0,0,-1,895,547,-1.8976,11.6171
-322,477,-2.04822,-12.0026,0,0,0,0,0,0,0,-1,902,547,-2.04819,12.0026
-315,477,-1.67358,-9.15253,0,0,0,0,0,0,0,-1,909,547,-1.67356,9.15253
-308,477,-1.30127,-6.55188,0,0,0,0,0,0,0,-1,916,547,-1.30128,6.55185
-301,477,-1.21185,-6.28351,0,0,0,0,0,0,0,-1,923,547,-1.21184,6.28352
-294,477,-0.352905,3.27142,0,0,0,0,0,0,0,-1,930,547,-0.35292,-3.27144
-287,477,3.54364,2.15399,0,0,0,0,0,0,0,-1,937,547,3.54362,-2.15396
-280,477,1.97308,-0.954163,0,0,0,0,0,0,0,-1,944,547,1.9731,0.954178
-273,477,2.11621,-3.76709,0,0,0,0,0,0,0,-1,951,547,2.11619,3.76706
-266,477,2.04669,-3.42389,0,0,0,0,0,0,0,-1,958,547,2.04671,3.42391
-259,477,-1.33478,-3.41205,0,0,0,0,0,0,0,-1,965,547,-1.3348,3.41206
-252,477,0.597168,-5.32922,0,0,0,0,0,0,0,-1,972,547,0.597144,5.32924
-245,477,8.2309,-8.48492,0,0,0,0,0,0,0,-1,979,547,8.23091,8.48494
-238,477,6.60938,-5.64063,0,0,0,0,0,0,0,-1,986,547,6.60938,5.64063
-231,477,4.71716,-2.52484,0,0,0,0,0,0,0,-1,993,547,4.71716,2.52483
-224,477,0,0,0,0,0,0,0,0,0,-1,1000,547,0,0
-217,477,0,0,0,0,0,0,0,0,0,-1,1007,547,0,0
-210,477,0,0,0,0,0,0,0,0,0,-1,1014,547,0,0
-203,477,0,0,0,0,0,0,0,0,0,-1,1021,547,0,0
-196,477,0,0,0,0,0,0,0,0,0,-1,1028,547,0,0
-189,477,0,0,0,0,0,0,0,0,0,-1,1035,547,0,0
-182,477,0,0,0,0,0,0,0,0,0,-1,1042,547,0,0
-175,477,0,0,0,0,0,0,0,0,0,-1,1049,547,0,0
-168,477,0,0,0,0,0,0,0,0,0,-1,1056,547,0,0
-161,477,0,0,0,0,0,0,0,0,0,-1,1063,547,0,0
-154,477,0,0,0,0,0,0,0,0,0,-1,1070,547,0,0
-147,477,0,0,0,0,0,0,0,0,0,-1,1077,547,0,0
-140,477,0,0,0,0,0,0,0,0,0,-1,1084,547,0,0
-133,477,0,0,0,0,0,0,0,0,0,-1,1091,547,0,0
-126,477,0,0,0,0,0,0,0,0,0,-1,1098,547,0,0
-119,477,0,0,0,0,0,0,0,0,0,-1,1105,547,0,0
-112,477,0,0,0,0,0,0,0,0,0,-1,1112,547,0,0
-105,477,0,0,0,0,0,0,0,0,0,-1,1119,547,0,0
-98,477,0,0,0,0,0,0,0,0,0,-1,1126,547,0,0
-91,477,0,0,0,0,0,0,0,0,0,-1,1133,547,0,0
-84,477,0,0,0,0,0,0,0,0,0,-1,1140,547,0,0
-77,477,0,0,0,0,0,0,0,0,0,-1,1147,547,0,0
-70,477,0,0,0,0,0,0,0,0,0,-1,1154,547,0,0
-63,477,0,0,0,0,0,0,0,0,0,-1,1161,547,0,0
-56,477,0,0,0,0,0,0,0,0,0,-1,1168,547,0,0
-49,477,0,0,0,0,0,0,0,0,0,-1,1175,547,0,0
-42,477,0,0,0,0,0,0,0,0,0,-1,1182,547,0,0
-35,477,0,0,0,0,0,0,0,0,0,-1,1189,547,0,0
-28,477,0,0,0,0,0,0,0,0,0,-1,1196,547,0,0
-21,477,0,0,0,0,0,0,0,0,0,-1,1203,547,0,0
-14,477,0,0,0,0,0,0,0,0,0,-1,1210,547,0,0
-7,477,0,0,0,0,0,0,0,0,0,-1,1217,547,0,0
0,477,0,0,0,0,0,0,0,0,0,-1,1224,547,0,0
7,477,0,0,0,0,0,0,0,0,0,-1,1231,547,0,0
14,477,0,0,0,0,0,0,0,0,0,-1,1238,547,0,0
21,477,0,0,0,0,0,0,0,0,0,-1,1245,547,0,0
28,477,0,0,0,0,0,0,0,0,0,-1,1252,547,0,0
35,477,0,0,0,0,0,0,0,0,0,-1,1259,547,0,0
42,477,0,0,0,0,0,0,0,0,0,-1,1266,547,0,0
49,477,0,0,0,0,0,0,0,0,0,-1,1273,547,0,0
56,477,0,0,0,0,0,0,0,0,0,-1,1280,547,0,0
63,477,0,0,0,0,0,0,0,0,0,-1,1287,547,0,0
70,477,0,0,0,0,0,0,0,0,0,-1,1294,547,0,0
77,477,0,0,0,0,0,0,0,0,0,-1,1301,547,0,0
84,477,0,0,0,0,0,0,0,0,0,-1,1308,547,0,0
91,477,0,0,0,0,0,0,0,0,0,-1,1315,547,0,0
98,477,0,0,0,0,0,0,0,0,0,-1,1322,547,0,0
105,477,0,0,0,0,0,0,0,0,0,-1,1329,547,0,0
112,477,0,0,0,0,0,0,0,0,0,-1,1336,547,0,0
119,477,0,0,0,0,0,0,0,0,0,-1,1343,547,0,0
126,477,0,0,0,0,0,0,0,0,0,-1,1350,547,0,0
133,477,0,0,0,0,0,0,0,0,0,-1,1357,547,0,0
140,477,0,0,0,0,0,0,0,0,0,-1,1364,547,0,0
147,477,0,0,0,0,0,0,0,0,0,-1,1371,547,0,0
154,477,0,0,0,0,0,0,0,0,0,-1,1378,547,0,0
161,477,0,0,0,0,0,0,0,0,0,-1,1385,547,0,0
168,477,0,0,0,0,0,0,0,0,0,-1,1392,547,0,0
175,477,0,0,0,0,0,0,0,0,0,-1,1399,547,0,0
182,477,0,0,0,0,0,0,0,0,0,-1,1406,547,0,0
189,477,0,0,0,0,0,0,0,0,0,-1,1413,547,0,0
196,477,0,0,0,0,0,0,0,0,0,-1,1420,547,0,0
203,477,0,0,0,0,0,0,0,0,0,-1,1427,547,0,0
210,477,0,0,0,0,0,0,0,0,0,-1,1434,547,0,0
217,477,0,0,0,0,0,0,0,0,0,-1,1441,547,0,0
224,477,0,0,0,0,0,0,0,0,0,-1,1448,547,0,0
231,477,0,0,0,0,0,0,0,0,0,-1,1455,547,0,0
238,477,0,0,0,0,0,0,0,0,0,-1,1462,547,0,0
245,477,0,0,0,0,0,0,0,0,0,-1,1469,547,0,0
252,477,0,0,0,0,0,0,0,0,0,-1,1476,547,0,0
259,477,0,0,0,0,0,0,0,0,0,-1,1483,547,0,0
266,477,0,0,0,0,0,0,0,0,0,-1,1490,547,0,0
273,477,0,0,0,0,0,0,0,0,0,-1,1497,547,0,0
280,477,0,0,0,0,0,0,0,0,0,-1,1504,547,0,0
287,477,0,0,0,0,0,0,0,0,0,-1,1511,547,0,0
294,477,0,0,0,0,0,0,0,0,0,-1,1518,547,0,0
301,477,0,0,0,0,0,0,0,0,0,-1,1525,547,0,0
308,477,0,0,0,0,0,0,0,0,0,-1,1532,547,0,0
315,477,0,0,0,0,0,0,0,0,0,-1,1539,547,0,0
322,477,0,0,0,0,0,0,0,0,0,-1,1546,547,0,0
329,477,0,0,0,0,0,0,0,0,0,-1,1553,547,0,0
336,477,0,0,0,0,0,0,0,0,0,-1,1560,547,0,0
343,477,0,0,0,0,0,0,0,0,0,-1,1567,547,0,0
350,477,1.7699,-3.32275,0,0,0,0,0,0,0,-1,1574,547,1.7699,3.32272
357,477,3.073,-4.83313,0,0,0,0,0,0,0,-1,1581,547,3.07303,4.83316
364,477,4.30127,-4.22864,0,0,0,0,0,0,0,-1,1588,547,4.30125,4.22865
371,477,4.57703,0.283264,0,0,0,0,0,0,0,-1,1595,547,4.57706,-0.283262
378,477,8.57947,1.05969,0,0,0,0,0,0,0,-1,1602,547,8.5795,-1.05972
385,477,12.3726,2.02356,0,0,0,0,0,0,0,-1,1609,547,12.3725,-2.02355
392,477,16.4678,2.76843,0,0,0,0,0,0,0,-1,1616,547,16.4678,-2.76845
399,477,8.00037,-2.29523,0,0,0,0,0,0,0,-1,1623,547,8.00031,2.2952
406,477,4.82495,2.7475,0,0,0,0,0,0,0,-1,1630,547,4.825,-2.74752
413,477,4.88171,-0.336426,0,0,0,0,0,0,0,-1,1637,547,4.88169,0.336398
420,477,3.34875,0.102722,0,0,0,0,0,0,0,-1,1644,547,3.34871,-0.1027
427,477,1.66772,-0.373108,0,0,0,0,0,0,0,-1,1651,547,1.66768,0.373104
434,477,3.76978,-2.30798,0,0,0,0,0,0,0,-1,1658,547,3.76974,2.30801
441,477,4.05444,-2.80402,0,0,0,0,0,0,0,-1,1665,547,4.05444,2.804
448,477,9.69116,-10.3275,0,0,0,0,0,0,0,-1,1672,547,9.69122,10.3275
455,477,9.42383,-10.2855,0,0,0,0,0,0,0,-1,1679,547,9.42381,10.2854
462,477,9.45947,-9.97833,-0.00142212,0.00043956,-0.00282612,0.00248419,-0.00346675,-0.944488,0.00345135,0.0432672,1686,547,9.4595,9.97832
469,477,9.43091,-9.56757,0.000209814,0.0018483,-0.00105398,0.00236399,-0.000305871,-1.11577,0.00168722,0.025821,1693,547,9.43088,9.56757
476,477,9.40955,-9.24207,0.00114036,0.00237868,-4.2254e-05,0.00238012,0.00113892,-1.53673,0.00137459,0.0170932,1700,547,9.40954,9.24206
483,477,9.4248,-8.888,0.00178168,0.0025832,0.000704998,0.00299338,0.0013715,1.04385,0.00173024,0.0110647,1707,547,9.42477,8.88802
490,477,9.401,-8.53833,0.00190311,0.00269929,0.00104573,0.00342014,0.00118226,0.967271,0.00200572,0.0113137,1714,547,9.40102,8.53831
497,477,9.39209,-8.16919,0.001481,0.00205417,0.000930186,0.00274092,0.000794249,0.934832,0.00162842,0.0126862,1721,547,9.39213,8.16918
504,477,9.38257,-7.83417,0.000846162,0.00134244,0.000646916,0.00178718,0.000401428,0.968531,0.00108274,0.0169526,1728,547,9.38255,7.83414
511,477,9.43555,-7.48395,-9.05971e-05,0.000519005,0.000132897,0.000546717,-0.00011831,1.36522,0.00040965,0.0205817,1735,547,9.43554,7.48393
518,477,9.44324,-7.08636,-0.00120207,-0.000273173,-0.00044915,-9.15189e-05,-0.00138372,-1.18647,0.000893539,0.0178498,1742,547,9.44326,7.08634
525,477,9.3938,-6.74121,-0.00233799,-0.00101996,-0.00106132,-0.000429696,-0.00292825,-1.06324,0.00182587,0.0158053,1749,547,9.39375,6.74119
532,477,9.37,-6.4411,-0.00349542,-0.00152924,-0.00160123,-0.000633393,-0.00439127,-1.06071,0.00274089,0.018668,1756,547,9.36998,6.4411
539,477,9.35022,-5.98798,-0.0045933,-0.00184232,-0.00205347,-0.00074623,-0.00568939,-1.0805,0.00357027,0.0173196,1763,547,9.3502,5.98798
546,477,9.32251,-5.66101,-0.00562022,-0.00199778,-0.00243374,-0.000775254,-0.00684275,-1.10529,0.00432663,0.0252322,1770,547,9.32254,5.66098
553,477,9.29211,-5.2171,-0.00665181,-0.00181819,-0.00276098,-0.000565676,-0.00790433,-1.14491,0.00509148,0.030598,1777,547,9.29217,5.21713
560,477,9.22754,-4.71124,-0.00757767,-0.0015864,-0.00303956,-0.000314389,-0.00884968,-1.17446,0.00579783,0.0486423,1784,547,9.22757,4.71126
567,477,9.21985,-4.21704,0,0,0,0,0,0,0,-1,1791,547,9.21989,4.21702
574,477,6.82593,-0.916992,0,0,0,0,0,0,0,-1,1798,547,6.82598,0.916977
581,477,9.29321,-0.557007,0,0,0,0,0,0,0,-1,1805,547,9.29324,0.55703
588,477,9.75195,0.422729,0,0,0,0,0,0,0,-1,1812,547,9.75198,-0.42273
595,477,9.89172,1.21326,0,0,0,0,0,0,0,-1,1819,547,9.89174,-1.21328
602,477,6.5271,-0.964417,0,0,0,0,0,0,0,-1,1826,547,6.52706,0.964427
609,477,0,0,0,0,0,0,0,0,0,-1,1833,547,0,0
616,477,0,0,0,0,0,0,0,0,0,-1,1840,547,0,0
623,477,0,0,0,0,0,0,0,0,0,-1,1847,547,0,0
630,477,0,0,0,0,0,0,0,0,0,-1,1854,547,0,0
637,477,0,0,0,0,0,0,0,0,0,-1,1861,547,0,0
644,477,0,0,0,0,0,0,0,0,0,-1,1868,547,0,0
651,477,0,0,0,0,0,0,0,0,0,-1,1875,547,0,0
658,477,0,0,0,0,0,0,0,0,0,-1,1882,547,0,0
665,477,0,0,0,0,0,0,0,0,0,-1,1889,547,0,0
672,477,0,0,0,0,0,0,0,0,0,-1,1896,547,0,0
679,477,0,0,0,0,0,0,0,0,0,-1,1903,547,0,0
686,477,0,0,0,0,0,0,0,0,0,-1,1910,547,0,0
693,477,0,0,0,0,0,0,0,0,0,-1,1917,547,0,0
700,477,0,0,0,0,0,0,0,0,0,-1,1924,547,0,0
707,477,0,0,0,0,0,0,0,0,0,-1,1931,547,0,0
714,477,0,0,0,0,0,0,0,0,0,-1,1938,547,0,0
721,477,0,0,0,0,0,0,0,0,0,-1,1945,547,0,0
728,477,0,0,0,0,0,0,0,0,0,-1,1952,547,0,0
735,477,0,0,0,0,0,0,0,0,0,-1,1959,547,0,0
742,477,0,0,0,0,0,0,0,0,0,-1,1966,547,0,0
749,477,0,0,0,0,0,0,0,0,0,-1,1973,547,0,0
756,477,0,0,0,0,0,0,0,0,0,-1,1980,547,0,0
763,477,0,0,0,0,0,0,0,0,0,-1,1987,547,0,0
770,477,0,0,0,0,0,0,0,0,0,-1,1994,547,0,0
777,477,0,0,0,0,0,0,0,0,0,-1,2001,547,0,0
784,477,0,0,0,0,0,0,0,0,0,-1,2008,547,0,0
791,477,0,0,0,0,0,0,0,0,0,-1,2015,547,0,0
798,477,0,0,0,0,0,0,0,0,0,-1,2022,547,0,0
805,477,0,0,0,0,0,0,0,0,0,-1,2029,547,0,0
812,477,0,0,0,0,0,0,0,0,0,-1,2036,547,0,0
-700,470,0,0,0,0,0,0,0,0,0,-1,524,554,0,0
-693,470,0,0,0,0,0,0,0,0,0,-1,531,554,0,0
-686,470,0,0,0,0,0,0,0,0,0,-1,538,554,0,0
-679,470,0,0,0,0,0,0,0,0,0,-1,545,554,0,0
-672,470,0,0,0,0,0,0,0,0,0,-1,552,554,0,0
-665,470,0,0,0,0,0,0,0,0,0,-1,559,554,0,0
-658,470,0,0,0,0,0,0,0,0,0,-1,566,554,0,0
-651,470,0,0,0,0,0,0,0,0,0,-1,573,554,0,0
-644,470,0,0,0,0,0,0,0,0,0,-1,580,554,0,0
-637,470,0,0,0,0,0,0,0,0,0,-1,587,554,0,0
-630,470,0,0,0,0,0,0,0,0,0,-1,594,554,0,0
-623,470,0,0,0,0,0,0,0,0,0,-1,601,554,0,0
-616,470,0,0,0,0,0,0,0,0,0,-1,608,554,0,0
-609,470,0,0,0,0,0,0,0,0,0,-1,615,554,0,0
-602,470,0,0,0,0,0,0,0,0,0,-1,622,554,0,0
-595,470,0,0,0,0,0,0,0,0,0,-1,629,554,0,0
-588,470,0,0,0,0,0,0,0,0,0,-1,636,554,0,0
-581,470,0,0,0,0,0,0,0,0,0,-1,643,554,0,0
-574,470,0,0,0,0,0,0,0,0,0,-1,650,554,0,0
-567,470,0,0,0,0,0,0,0,0,0,-1,657,554,0,0
-560,470,0,0,0,0,0,0,0,0,0,-1,664,554,0,0
-553,470,0,0,0,0,0,0,0,0,0,-1,671,554,0,0
-546,470,0,0,0,0,0,0,0,0,0,-1,678,554,0,0
-539,470,0,0,0,0,0,0,0,0,0,-1,685,554,0,0
-532,470,0,0,0,0,0,0,0,0,0,-1,692,554,0,0
-525,470,0,0,0,0,0,0,0,0,0,-1,699,554,0,0
-518,470,0,0,0,0,0,0,0,0,0,-1,706,554,0,0
-511,470,0,0,0,0,0,0,0,0,0,-1,713,554,0,0
-504,470,0,0,0,0,0,0,0,0,0,-1,720,554,0,0
-497,470,0,0,0,0,0,0,0,0,0,-1,727,554,0,0
-490,470,-9.13263,-1.03125,0,0,0,0,0,0,0,-1,734,554,-9.1326,1.03127
-483,470,-7.68677,-1.03955,0,0,0,0,0,0,0,-1,741,554,-7.68678,1.03958
-476,470,-6.17969,-1.03394,0,0,0,0,0,0,0,-1,748,554,-6.17971,1.03395
-469,470,-6.23016,-0.651855,0,0,0,0,0,0,0,-1,755,554,-6.23014,0.651829
-462,470,-4.87915,-1.03705,0,0,0,0,0,0,0,-1,762,554,-4.87914,1.03702
-455,470,-4.362,-1.12903,0,0,0,0,0,0,0,-1,769,554,-4.36198,1.12901
-448,470,-2.73346,-4.77124,0,0,0,0,0,0,0,-1,776,554,-2.73345,4.77124
-441,470,-2.1286,-5.98389,0,0,0,0,0,0,0,-1,783,554,-2.1286,5.98386
-434,470,-2.2594,-6.53711,0.00125974,0.00666999,-0.00447394,0.00919304,-0.00126332,-1.05731,0.00659029,0.0339551,790,554,-2.25941,6.53713
-427,470,-2.44836,-6.83789,0.00159349,0.00523863,-0.0036088,0.00745898,-0.000626857,-1.01923,0.00519423,0.0168572,797,554,-2.44837,6.83786
-420,470,-2.42719,-7.21881,0.00170443,0.00401749,-0.00294321,0.00602324,-0.000301319,-0.972605,0.00411961,0.0139283,804,554,-2.42718,7.21882
-413,470,-2.44781,-7.60278,0.00182479,0.00309276,-0.0024751,0.00501378,-9.62331e-05,-0.910775,0.00337506,0.0136957,811,554,-2.44779,7.60276
-406,470,-2.45807,-7.93951,0.00190453,0.00230504,-0.00194091,0.004056,0.000153567,-0.836805,0.00265429,0.0110077,818,554,-2.45808,7.9395
-399,470,-2.42365,-8.27905,0.00176302,0.00160207,-0.00139144,0.00307632,0.000288781,-0.756513,0.00196172,0.0141634,825,554,-2.42367,8.27903
-392,470,-2.43182,-8.5976,0.00143285,0.000793024,-0.000789613,0.0019649,0.000260978,-0.592928,0.00123218,0.0138831,832,554,-2.43183,8.59761
-385,470,-2.45984,-8.92749,0.00107426,6.35909e-05,-0.000219179,0.00111975,1.81057e-05,-0.20462,0.000740539,0.0111498,839,554,-2.45983,8.9275
-378,470,-2.46552,-9.29388,0.000620126,-0.000576804,0.000349945,0.00071493,-0.000671608,0.264561,0.000800648,0.0157988,846,554,-2.46551,9.29391
-371,470,-2.47327,-9.63336,9.28906e-05,-0.00125118,0.000931881,0.000569783,-0.00172807,0.473005,0.00138171,0.0136377,853,554,-2.47328,9.63335
-364,470,-2.46948,-9.93494,-0.000384462,-0.00195477,0.00148288,0.000508302,-0.00284753,0.541923,0.00208851,0.0137202,860,554,-2.46948,9.93496
-357,470,-2.47852,-10.2515,-0.000725263,-0.00263568,0.00192625,0.000469612,-0.00383056,0.555221,0.00272377,0.0140244,867,554,-2.47853,10.2515
-350,470,-2.45801,-10.6146,-0.000886871,-0.00316834,0.00216305,0.000417815,-0.00447303,0.542746,0.0031306,0.0107221,874,554,-2.45801,10.6146
-343,470,-2.37378,-10.9416,-0.000577812,-0.00409771,0.00229065,0.000550924,-0.00522645,0.457837,0.0036817,0.0285084,881,554,-2.37376,10.9416
-336,470,-2.53772,-11.0913,-0.000291388,-0.00510149,0.00245251,0.000738537,-0.00613141,0.397584,0.00435471,0.0425203,888,554,-2.53771,11.0913
-329,470,-2.50696,-11.2267,0,0,0,0,0,0,0,-1,895,554,-2.50693,11.2267
-322,470,-2.30829,-11.4527,0,0,0,0,0,0,0,-1,902,554,-2.30827,11.4527
-315,470,-1.04797,-8.29529,0,0,0,0,0,0,0,-1,909,554,-1.04797,8.29526
-308,470,-1.39368,-6.68152,0,0,0,0,0,0,0,-1,916,554,-1.39369,6.68149
-301,470,-0.0340576,3.34888,0,0,0,0,0,0,0,-1,923,554,-0.0340496,-3.3489
-294,470,-1.18378,3.22266,0,0,0,0,0,0,0,-1,930,554,-1.18376,-3.22268
-287,470,-2.15454,3.2204,0,0,0,0,0,0,0,-1,937,554,-2.15452,-3.22037
-280,470,-3.00537,3.099,0,0,0,0,0,0,0,-1,944,554,-3.00536,-3.09898
-273,470,-12.3932,3.65009,0,0,0,0,0,0,0,-1,951,554,-12.3932,-3.65011
-266,470,-11.5706,1.16028,0,0,0,0,0,0,0,-1,958,554,-11.5706,-1.16031
-259,470,-7.50415,-2.77167,0,0,0,0,0,0,0,-1,965,554,-7.50413,2.7717
-252,470,-0.371155,-5.87823,0,0,0,0,0,0,0,-1,972,554,-0.37114,5.87821
-245,470,1.33221,-6.81122,0,0,0,0,0,0,0,-1,979,554,1.33223,6.8112
-238,470,0,0,0,0,0,0,0,0,0,-1,986,554,0,0
-231,470,0,0,0,0,0,0,0,0,0,-1,993,554,0,0
-224,470,0,0,0,0,0,0,0,0,0,-1,1000,554,0,0
-217,470,0,0,0,0,0,0,0,0,0,-1,1007,554,0,0
-210,470,0,0,0,0,0,0,0,0,0,-1,1014,554,0,0
-203,470,0,0,0,0,0,0,0,0,0,-1,1021,554,0,0
-196,470,0,0,0,0,0,0,0,0,0,-1,1028,554,0,0
-189,470,0,0,0,0,0,0,0,0,0,-1,1035,554,0,0
-182,470,0,0,0,0,0,0,0,0,0,-1,1042,554,0,0
-175,470,0,0,0,0,0,0,0,0,0,-1,1049,554,0,0
-168,470,0,0,0,0,0,0,0,0,0,-1,1056,554,0,0
-161,470,0,0,0,0,0,0,0,0,0,-1,1063,554,0,0
-154,470,0,0,0,0,0,0,0,0,0,-1,1070,554,0,0
-147,470,0,0,0,0,0,0,0,0,0,-1,1077,554,0,0
-140,470,0,0,0,0,0,0,0,0,0,-1,1084,554,0,0
-133,470,0,0,0,0,0,0,0,0,0,-1,1091,554,0,0
-126,470,0,0,0,0,0,0,0,0,0,-1,1098,554,0,0
-119,470,0,0,0,0,0,0,0,0,0,-1,1105,554,0,0
-112,470,0,0,0,0,0,0,0,0,0,-1,1112,554,0,0
-105,470,0,0,0,0,0,0,0,0,0,-1,1119,554,0,0
-98,470,0,0,0,0,0,0,0,0,0,-1,1126,554,0,0
-91,470,0,0,0,0,0,0,0,0,0,-1,1133,554,0,0
-84,470,0,0,0,0,0,0,0,0,0,-1,1140,554,0,0
-77,470,0,0,0,0,0,0,0,0,0,-1,1147,554,0,0
-70,470,0,0,0,0,0,0,0,0,0,-1,1154,554,0,0
-63,470,0,0,0,0,0,0,0,0,0,-1,1161,554,0,0
-56,470,0,0,0,0,0,0,0,0,0,-1,1168,554,0,0
-49,470,0,0,0,0,0,0,0,0,0,-1,1175,554,0,0
-42,470,0,0,0,0,0,0,0,0,0,-1,1182,554,0,0
-35,470,0,0,0,0,0,0,0,0,0,-1,1189,554,0,0
-28,470,0,0,0,0,0,0,0,0,0,-1,1196,554,0,0
-21,470,0,0,0,0,0,0,0,0,0,-1,1203,554,0,0
-14,470,0,0,0,0,0,0,0,0,0,-1,1210,554,0,0
-7,470,0,0,0,0,0,0,0,0,0,-1,1217,554,0,0
0,470,0,0,0,0,0,0,0,0,0,-1,1224,554,0,0
7,470,0,0,0,0,0,0,0,0,0,-1,1231,554,0,0
14,470,0,0,0,0,0,0,0,0,0,-1,1238,554,0,0
21,470,0,0,0,0,0,0,0,0,0,-1,1245,554,0,0
28,470,0,0,0,0,0,0,0,0,0,-1,1252,554,0,0
35,470,0,0,0,0,0,0,0,0,0,-1,1259,554,0,0
42,470,0,0,0,0,0,0,0,0,0,-1,1266,554,0,0
49,470,0,0,0,0,0,0,0,0,0,-1,1273,554,0,0
56,470,0,0,0,0,0,0,0,0,0,-1,1280,554,0,0
63,470,0,0,0,0,0,0,0,0,0,-1,1287,554,0,0
70,470,0,0,0,0,0,0,0,0,0,-1,1294,554,0,0
77,470,0,0,0,0,0,0,0,0,0,-1,1301,554,0,0
84,470,0,0,0,0,0,0,0,0,0,-1,1308,554,0,0
91,470,0,0,0,0,0,0,0,0,0,-1,1315,554,0,0
98,470,0,0,0,0,0,0,0,0,0,-1,1322,554,0,0
105,470,0,0,0,0,0,0,0,0,0,-1,1329,554,0,0
112,470,0,0,0,0,0,0,0,0,0,-1,1336,554,0,0
119,470,0,0,0,0,0,0,0,0,0,-1,1343,554,0,0
126,470,0,0,0,0,0,0,0,0,0,-1,1350,554,0,0
133,470,0,0,0,0,0,0,0,0,0,-1,1357,554,0,0
140,470,0,0,0,0,0,0,0,0,0,-1,1364,554,0,0
147,470,0,0,0,0,0,0,0,0,0,-1,1371,554,0,0
154,470,0,0,0,0,0,0,0,0,0,-1,1378,554,0,0
161,470,0,0,0,0,0,0,0,0,0,-1,1385,554,0,0
168,470,0,0,0,0,0,0,0,0,0,-1,1392,554,0,0
175,470,0,0,0,0,0,0,0,0,0,-1,1399,554,0,0
182,470,0,0,0,0,0,0,0,0,0,-1,1406,554,0,0
189,470,0,0,0,0,0,0,0,0,0,-1,1413,554,0,0
196,470,0,0,0,0,0,0,0,0,0,-1,1420,554,0,0
203,470,0,0,0,0,0,0,0,0,0,-1,1427,554,0,0
210,470,0,0,0,0,0,0,0,0,0,-1,1434,554,0,0
217,470,0,0,0,0,0,0,0,0,0,-1,1441,554,0,0
224,470,0,0,0,0,0,0,0,0,0,-1,1448,554,0,0
231,470,0,0,0,0,0,0,0,0,0,-1,1455,554,0,0
238,470,0,0,0,0,0,0,0,0,0,-1,1462,554,0,0
245,470,0,0,0,0,0,0,0,0,0,-1,1469,554,0,0
252,470,0,0,0,0,0,0,0,0,0,-1,1476,554,0,0
259,470,0,0,0,0,0,0,0,0,0,-1,1483,554,0,0
266,470,0,0,0,0,0,0,0,0,0,-1,1490,554,0,0
273,470,0,0,0,0,0,0,0,0,0,-1,1497,554,0,0
280,470,0,0,0,0,0,0,0,0,0,-1,1504,554,0,0
287,470,0,0,0,0,0,0,0,0,0,-1,1511,554,0,0
294,470,0,0,0,0,0,0,0,0,0,-1,1518,554,0,0
301,470,0,0,0,0,0,0,0,0,0,-1,1525,554,0,0
308,470,0,0,0,0,0,0,0,0,0,-1,1532,554,0,0
315,470,0,0,0,0,0,0,0,0,0,-1,1539,554,0,0
322,470,0,0,0,0,0,0,0,0,0,-1,1546,554,0,0
329,470,0,0,0,0,0,0,0,0,0,-1,1553,554,0,0
336,470,0,0,0,0,0,0,0,0,0,-1,1560,554,0,0
343,470,0,0,0,0,0,0,0,0,0,-1,1567,554,0,0
350,470,0,0,0,0,0,0,0,0,0,-1,1574,554,0,0
357,470,0,0,0,0,0,0,0,0,0,-1,1581,554,0,0
364,470,1.33423,0.293335,0,0,0,0,0,0,0,-1,1588,554,1.33422,-0.293348
371,470,2.22498,-0.0305176,0,0,0,0,0,0,0,-1,1595,554,2.22494,0.0305046
378,470,6.27051,0.710083,0,0,0,0,0,0,0,-1,1602,554,6.27054,-0.710093
385,470,10.3657,1.47296,0,0,0,0,0,0,0,-1,1609,554,10.3657,-1.47299
392,470,15.3881,3.01935,0,0,0,0,0,0,0,-1,1616,554,15.388,-3.01937
399,470,18.4479,2.93793,0,0,0,0,0,0,0,-1,1623,554,18.4479,-2.93792
406,470,15.1896,1.36676,0,0,0,0,0,0,0,-1,1630,554,15.1896,-1.36679
413,470,6.55383,1.99207,0,0,0,0,0,0,0,-1,1637,554,6.5538,-1.99208
420,470,4.47095,0.845703,0,0,0,0,0,0,0,-1,1644,554,4.47098,-0.845718
427,470,3.51038,1.19684,0,0,0,0,0,0,0,-1,1651,554,3.51039,-1.19684
434,470,3.31775,-1.37427,0,0,0,0,0,0,0,-1,1658,554,3.31781,1.37426
441,470,2.55457,-2.05902,0,0,0,0,0,0,0,-1,1665,554,2.55461,2.05904
448,470,3.27258,-2.64032,0,0,0,0,0,0,0,-1,1672,554,3.27257,2.64029
455,470,10.3658,-9.82233,0,0,0,0,0,0,0,-1,1679,554,10.3659,9.82233
462,470,9.9281,-9.98358,0,0,0,0,0,0,0,-1,1686,554,9.92815,9.98359
469,470,9.61218,-9.76996,0,0,0,0,0,0,0,-1,1693,554,9.61218,9.76996
476,470,9.70581,-9.27271,0.00147769,0.00324556,0.000267367,0.00328511,0.00143814,1.42393,0.00190155,0.0352665,1700,554,9.7058,9.27268
483,470,9.77136,-8.89874,0.00235387,0.00348533,0.00118514,0.00423284,0.00160636,1.00808,0.00246738,0.0146501,1707,554,9.77139,8.89872
490,470,9.745,-8.53564,0.00268647,0.00369965,0.00161158,0.00488239,0.00150373,0.93768,0.0028873,0.0112262,1714,554,9.74494,8.53567
497,470,9.74207,-8.17041,0.0024071,0.00305651,0.00157318,0.00433814,0.00112547,0.88717,0.00259946,0.0119203,1721,554,9.74207,8.17039
504,470,9.75623,-7.83527,0.00194628,0.00237634,0.00139015,0.003568,0.000754624,0.862132,0.00217128,0.0182338,1728,554,9.75628,7.83528
511,470,9.82336,-7.47931,0.00119593,0.00154556,0.000980609,0.00236681,0.000374672,0.873607,0.001469,0.0249708,1735,554,9.82339,7.47932
518,470,9.84937,-7.08099,0.00028717,0.00078203,0.000516492,0.0011073,-3.81008e-05,1.00878,0.000751223,0.0252138,1742,554,9.84938,7.08098
525,470,9.77454,-6.70135,-0.000649667,9.69126e-05,3.06823e-05,9.81714e-05,-0.000650926,1.52979,0.000470104,0.0160983,1749,554,9.77449,6.70135
532,470,9.73193,-6.34534,-0.00162339,-0.000380785,-0.000402863,-0.000261605,-0.00174257,-1.28317,0.00108508,0.0139646,1756,554,9.73198,6.34536
539,470,9.72205,-6.01044,-0.00256714,-0.000753424,-0.000798872,-0.000451734,-0.00286883,-1.20971,0.00178117,0.0159796,1763,554,9.72206,6.01041
546,470,9.71643,-5.63947,-0.00344788,-0.000955849,-0.00112769,-0.000521316,-0.00388241,-1.203,0.00243319,0.013834,1770,554,9.71638,5.63949
553,470,9.73706,-5.2392,-0.00434842,-0.00093448,-0.00144011,-0.000408144,-0.00487475,-1.22039,0.00312269,0.0131679,1777,554,9.73701,5.23918
560,470,9.72449,-4.82501,-0.0051699,-0.000895311,-0.00172099,-0.00028855,-0.00577666,-1.23184,0.00375862,0.0199875,1784,554,9.72443,4.82498
567,470,9.64648,-4.45471,-0.00586236,-0.0008736,-0.00192959,-0.000214369,-0.00652159,-1.24159,0.00427806,0.0217201,1791,554,9.64648,4.45473
574,470,9.72913,-3.88831,0,0,0,0,0,0,0,-1,1798,554,9.7291,3.8883
581,470,8.24646,-4.06317,0,0,0,0,0,0,0,-1,1805,554,8.24648,4.06318
588,470,11.1803,1.74927,0,0,0,0,0,0,0,-1,1812,554,11.1803,-1.74926
595,470,4.72192,3.44116,0,0,0,0,0,0,0,-1,1819,554,4.72191,-3.44116
602,470,14.4307,2.76141,0,0,0,0,0,0,0,-1,1826,554,14.4306,-2.76139
609,470,20.9181,4.41058,0,0,0,0,0,0,0,-1,1833,554,20.9181,-4.4106
616,470,0,0,0,0,0,0,0,0,0,-1,1840,554,0,0
623,470,0,0,0,0,0,0,0,0,0,-1,1847,554,0,0
630,470,0,0,0,0,0,0,0,0,0,-1,1854,554,0,0
637,470,0,0,0,0,0,0,0,0,0,-1,1861,554,0,0
644,470,0,0,0,0,0,0,0,0,0,-1,1868,554,0,0
651,470,0,0,0,0,0,0,0,0,0,-1,1875,554,0,0
658,470,0,0,0,0,0,0,0,0,0,-1,1882,554,0,0
665,470,0,0,0,0,0,0,0,0,0,-1,1889,554,0,0
672,470,0,0,0,0,0,0,0,0,0,-1,1896,554,0,0
679,470,0,0,0,0,0,0,0,0,0,-1,1903,554,0,0
686,470,0,0,0,0,0,0,0,0,0,-1,1910,554,0,0
693,470,0,0,0,0,0,0,0,0,0,-1,1917,554,0,0
700,470,0,0,0,0,0,0,0,0,0,-1,1924,554,0,0
707,470,0,0,0,0,0,0,0,0,0,-1,1931,554,0,0
714,470,0,0,0,0,0,0,0,0,0,-1,1938,554,0,0
721,470,0,0,0,0,0,0,0,0,0,-1,1945,554,0,0
728,470,0,0,0,0,0,0,0,0,0,-1,1952,554,0,0
735,470,0,0,0,0,0,0,0,0,0,-1,1959,554,0,0
742,470,0,0,0,0,0,0,0,0,0,-1,1966,554,0,0
749,470,0,0,0,0,0,0,0,0,0,-1,1973,554,0,0
756,470,0,0,0,0,0,0,0,0,0,-1,1980,554,0,0
763,470,0,0,0,0,0,0,0,0,0,-1,1987,554,0,0
770,470,0,0,0,0,0,0,0,0,0,-1,1994,554,0,0
777,470,0,0,0,0,0,0,0,0,0,-1,2001,554,0,0
784,470,0,0,0,0,0,0,0,0,0,-1,2008,554,0,0
791,470,0,0,0,0,0,0,0,0,0,-1,2015,554,0,0
798,470,0,0,0,0,0,0,0,0,0,-1,2022,554,0,0
805,470,0,0,0,0,0,0,0,0,0,-1,2029,554,0,0
812,470,0,0,0,0,0,0,0,0,0,-1,2036,554,0,0
-700,463,0,0,0,0,0,0,0,0,0,-1,524,561,0,0
-693,463,0,0,0,0,0,0,0,0,0,-1,531,561,0,0
-686,463,0,0,0,0,0,0,0,0,0,-1,538,561,0,0
-679,463,0,0,0,0,0,0,0,0,0,-1,545,561,0,0
-672,463,0,0,0,0,0,0,0,0,0,-1,552,561,0,0
-665,463,0,0,0,0,0,0,0,0,0,-1,559,561,0,0
-658,463,0,0,0,0,0,0,0,0,0,-1,566,561,0,0
-651,463,0,0,0,0,0,0,0,0,0,-1,573,561,0,0
-644,463,0,0,0,0,0,0,0,0,0,-1,580,561,0,0
-637,463,0,0,0,0,0,0,0,0,0,-1,587,561,0,0
-630,463,0,0,0,0,0,0,0,0,0,-1,594,561,0,0
-623,463,0,0,0,0,0,0,0,0,0,-1,601,561,0,0
-616,463,0,0,0,0,0,0,0,0,0,-1,608,561,0,0
-609,463,0,0,0,0,0,0,0,0,0,-1,615,561,0,0
-602,463,0,0,0,0,0,0,0,0,0,-1,622,561,0,0
-595,463,0,0,0,0,0,0,0,0,0,-1,629,561,0,0
-588,463,0,0,0,0,0,0,0,0,0,-1,636,561,0,0
-581,463,0,0,0,0,0,0,0,0,0,-1,643,561,0,0
-574,463,0,0,0,0,0,0,0,0,0,-1,650,561,0,0
-567,463,0,0,0,0,0,0,0,0,0,-1,657,561,0,0
-560,463,0,0,0,0,0,0,0,0,0,-1,664,561,0,0
-553,463,0,0,0,0,0,0,0,0,0,-1,671,561,0,0
-546,463,0,0,0,0,0,0,0,0,0,-1,678,561,0,0
-539,463,0,0,0,0,0,0,0,0,0,-1,685,561,0,0
-532,463,0,0,0,0,0,0,0,0,0,-1,692,561,0,0
-525,463,0,0,0,0,0,0,0,0,0,-1,699,561,0,0
-518,463,0,0,0,0,0,0,0,0,0,-1,706,561,0,0
-511,463,0,0,0,0,0,0,0,0,0,-1,713,561,0,0
-504,463,0,0,0,0,0,0,0,0,0,-1,720,561,0,0
-497,463,-9.81451,-1.67126,0,0,0,0,0,0,0,-1,727,561,-9.81452,1.67127
-490,463,-8.57043,-1.58942,0,0,0,0,0,0,0,-1,734,561,-8.57045,1.58944
-483,463,-7.29224,-1.7226,0,0,0,0,0,0,0,-1,741,561,-7.29226,1.72261
-476,463,-5.77704,-1.7312,0,0,0,0,0,0,0,-1,748,561,-5.77703,1.73121
-469,463,-5.14545,-2.138,0,0,0,0,0,0,0,-1,755,561,-5.14546,2.13799
-462,463,-3.13672,-3.07977,0,0,0,0,0,0,0,-1,762,561,-3.13672,3.07974
-455,463,-2.64545,-4.51404,0,0,0,0,0,0,0,-1,769,561,-2.64547,4.51404
-448,463,-2.52277,-5.6413,0,0,0,0,0,0,0,-1,776,561,-2.52278,5.64127
-441,463,-2.60449,-6.09314,0.00126579,0.00783446,-0.00539758,0.0108684,-0.00176815,-1.05872,0.00790122,0.0385041,783,561,-2.60447,6.09314
-434,463,-2.74274,-6.51465,0.000964598,0.00583707,-0.00391863,0.00801504,-0.00121338,-1.06351,0.00579035,0.0172399,790,561,-2.74275,6.51464
-427,463,-2.76617,-6.86743,0.000992531,0.0045034,-0.00297507,0.00620233,-0.000706394,-1.05193,0.00438934,0.0095939,797,561,-2.76616,6.86746
-420,463,-2.75104,-7.22278,0.000869022,0.00333412,-0.00219421,0.00461826,-0.000415121,-1.0413,0.00322613,0.00982431,804,561,-2.75104,7.22275
-413,463,-2.77338,-7.58057,0.000829964,0.00239398,-0.00162444,0.00341484,-0.000190902,-1.00973,0.00234279,0.00905266,811,561,-2.77341,7.58056
-406,463,-2.79333,-7.92816,0.00086053,0.00162591,-0.00106667,0.00237646,0.000109983,-0.957633,0.00154895,0.00902425,818,561,-2.79332,7.92814
-399,463,-2.77716,-8.26849,0.000709147,0.000919256,-0.000497406,0.00132258,0.000305822,-0.889471,0.00079952,0.0102664,825,561,-2.77713,8.26847
-392,463,-2.79553,-8.59955,0.000372657,9.53173e-05,0.000132888,0.000426051,4.19235e-05,0.382054,0.000271142,0.00990866,832,561,-2.79552,8.59953
-385,463,-2.8158,-8.9483,3.11363e-07,-0.000698336,0.000745945,0.000474675,-0.0011727,0.566415,0.000979159,0.0107389,839,561,-2.81582,8.9483
-378,463,-2.82391,-9.3053,-0.000484064,-0.00141557,0.00139206,0.00051809,-0.00241772,0.623963,0.00180941,0.0115017,846,561,-2.82394,9.30527
-371,463,-2.81323,-9.6637,-0.00103436,-0.00218662,0.00206409,0.000532496,-0.00375348,0.649301,0.00269739,0.0113922,853,561,-2.8132,9.66368
-364,463,-2.77893,-9.948,-0.00152953,-0.00300969,0.00270165,0.000531581,-0.0050708,0.65171,0.00357094,0.0137575,860,561,-2.77894,9.948
-357,463,-2.79553,-10.2297,-0.00191877,-0.00384624,0.0032389,0.00049674,-0.00626174,0.640795,0.00434954,0.0174285,867,561,-2.79551,10.2297
-350,463,-2.75244,-10.6157,-0.0021324,-0.00451386,0.00352444,0.000397026,-0.00704328,0.622494,0.0048333,0.0239589,874,561,-2.75246,10.6157
-343,463,-2.56171,-10.8896,0,0,0,0,0,0,0,-1,881,561,-2.56171,10.8897
-336,463,-2.16809,-10.7591,0,0,0,0,0,0,0,-1,888,561,-2.1681,10.7591
-329,463,-2.27185,-10.5566,0,0,0,0,0,0,0,-1,895,561,-2.27183,10.5566
-322,463,-1.82898,-9.11957,0,0,0,0,0,0,0,-1,902,561,-1.829,9.11957
-315,463,-0.944763,-5.96234,0,0,0,0,0,0,0,-1,909,561,-0.94479,5.96237
-308,463,-1.1535,-3.17889,0,0,0,0,0,0,0,-1,916,561,-1.15352,3.17889
-301,463,-1.50366,-3.15338,0,0,0,0,0,0,0,-1,923,561,-1.50364,3.15341
-294,463,-2.35889,-3.93463,0,0,0,0,0,0,0,-1,930,561,-2.35886,3.93465
-287,463,-2.80322,2.73999,0,0,0,0,0,0,0,-1,937,561,-2.80322,-2.74
-280,463,-12.864,5.25146,0,0,0,0,0,0,0,-1,944,561,-12.864,-5.25149
-273,463,-12.4598,3.39178,0,0,0,0,0,0,0,-1,951,561,-12.4598,-3.3918
-266,463,-8.80402,-0.883667,0,0,0,0,0,0,0,-1,958,561,-8.804,0.883639
-259,463,-6.14874,-5.37366,0,0,0,0,0,0,0,-1,965,561,-6.14877,5.37367
-252,463,0,0,0,0,0,0,0,0,0,-1,972,561,0,0
-245,463,0,0,0,0,0,0,0,0,0,-1,979,561,0,0
-238,463,0,0,0,0,0,0,0,0,0,-1,986,561,0,0
-231,463,0,0,0,0,0,0,0,0,0,-1,993,561,0,0
-224,463,0,0,0,0,0,0,0,0,0,-1,1000,561,0,0
-217,463,0,0,0,0,0,0,0,0,0,-1,1007,561,0,0
-210,463,0,0,0,0,0,0,0,0,0,-1,1014,561,0,0
-203,463,0,0,0,0,0,0,0,0,0,-1,1021,561,0,0
-196,463,0,0,0,0,0,0,0,0,0,-1,1028,561,0,0
-189,463,0,0,0,0,0,0,0,0,0,-1,1035,561,0,0
-182,463,0,0,0,0,0,0,0,0,0,-1,1042,561,0,0
-175,463,0,0,0,0,0,0,0,0,0,-1,1049,561,0,0
-168,463,0,0,0,0,0,0,0,0,0,-1,1056,561,0,0
-161,463,0,0,0,0,0,0,0,0,0,-1,1063,561,0,0
-154,463,0,0,0,0,0,0,0,0,0,-1,1070,561,0,0
-147,463,0,0,0,0,0,0,0,0,0,-1,1077,561,0,0
-140,463,0,0,0,0,0,0,0,0,0,-1,1084,561,0,0
-133,463,0,0,0,0,0,0,0,0,0,-1,1091,561,0,0
-126,463,0,0,0,0,0,0,0,0,0,-1,1098,561,0,0
-119,463,0,0,0,0,0,0,0,0,0,-1,1105,561,0,0
-112,463,0,0,0,0,0,0,0,0,0,-1,1112,561,0,0
-105,463,0,0,0,0,0,0,0,0,0,-1,1119,561,0,0
-98,463,0,0,0,0,0,0,0,0,0,-1,1126,561,0,0
-91,463,0,0,0,0,0,0,0,0,0,-1,1133,561,0,0
-84,463,0,0,0,0,0,0,0,0,0,-1,1140,561,0,0
-77,463,0,0,0,0,0,0,0,0,0,-1,1147,561,0,0
-70,463,0,0,0,0,0,0,0,0,0,-1,1154,561,0,0
-63,463,0,0,0,0,0,0,0,0,0,-1,1161,561,0,0
-56,463,0,0,0,0,0,0,0,0,0,-1,1168,561,0,0
-49,463,0,0,0,0,0,0,0,0,0,-1,1175,561,0,0
-42,463,0,0,0,0,0,0,0,0,0,-1,1182,561,0,0
-35,463,0,0,0,0,0,0,0,0,0,-1,1189,561,0,0
-28,463,0,0,0,0,0,0,0,0,0,-1,1196,561,0,0
-21,463,0,0,0,0,0,0,0,0,0,-1,1203,561,0,0
-14,463,0,0,0,0,0,0,0,0,0,-1,1210,561,0,0
-7,463,0,0,0,0,0,0,0,0,0,-1,1217,561,0,0
0,463,0,0,0,0,0,0,0,0,0,-1,1224,561,0,0
7,463,0,0,0,0,0,0,0,0,0,-1,1231,561,0,0
14,463,0,0,0,0,0,0,0,0,0,-1,1238,561,0,0
21,463,0,0,0,0,0,0,0,0,0,-1,1245,561,0,0
28,463,0,0,0,0,0,0,0,0,0,-1,1252,561,0,0
35,463,0,0,0,0,0,0,0,0,0,-1,1259,561,0,0
42,463,0,0,0,0,0,0,0,0,0,-1,1266,561,0,0
49,463,0,0,0,0,0,0,0,0,0,-1,1273,561,0,0
56,463,0,0,0,0,0,0,0,0,0,-1,1280,561,0,0
63,463,0,0,0,0,0,0,0,0,0,-1,1287,561,0,0
70,463,0,0,0,0,0,0,0,0,0,-1,1294,561,0,0
77,463,0,0,0,0,0,0,0,0,0,-1,1301,561,0,0
84,463,0,0,0,0,0,0,0,0,0,-1,1308,561,0,0
91,463,0,0,0,0,0,0,0,0,0,-1,1315,561,0,0
98,463,0,0,0,0,0,0,0,0,0,-1,1322,561,0,0
105,463,0,0,0,0,0,0,0,0,0,-1,1329,561,0,0
112,463,0,0,0,0,0,0,0,0,0,-1,1336,561,0,0
119,463,0,0,0,0,0,0,0,0,0,-1,1343,561,0,0
126,463,0,0,0,0,0,0,0,0,0,-1,1350,561,0,0
133,463,0,0,0,0,0,0,0,0,0,-1,1357,561,0,0
140,463,0,0,0,0,0,0,0,0,0,-1,1364,561,0,0
147,463,0,0,0,0,0,0,0,0,0,-1,1371,561,0,0
154,463,0,0,0,0,0,0,0,0,0,-1,1378,561,0,0
161,463,0,0,0,0,0,0,0,0,0,-1,1385,561,0,0
168,463,0,0,0,0,0,0,0,0,0,-1,1392,561,0,0
175,463,0,0,0,0,0,0,0,0,0,-1,1399,561,0,0
182,463,0,0,0,0,0,0,0,0,0,-1,1406,561,0,0
189,463,0,0,0,0,0,0,0,0,0,-1,1413,561,0,0
196,463,0,0,0,0,0,0,0,0,0,-1,1420,561,0,0
203,463,0,0,0,0,0,0,0,0,0,-1,1427,561,0,0
210,463,0,0,0,0,0,0,0,0,0,-1,1434,561,0,0
217,463,0,0,0,0,0,0,0,0,0,-1,1441,561,0,0
224,463,0,0,0,0,0,0,0,0,0,-1,1448,561,0,0
231,463,0,0,0,0,0,0,0,0,0,-1,1455,561,0,0
238,463,0,0,0,0,0,0,0,0,0,-1,1462,561,0,0
245,463,0,0,0,0,0,0,0,0,0,-1,1469,561,0,0
252,463,0,0,0,0,0,0,0,0,0,-1,1476,561,0,0
259,463,0,0,0,0,0,0,0,0,0,-1,1483,561,0,0
266,463,0,0,0,0,0,0,0,0,0,-1,1490,561,0,0
273,463,0,0,0,0,0,0,0,0,0,-1,1497,561,0,0
280,463,0,0,0,0,0,0,0,0,0,-1,1504,561,0,0
287,463,0,0,0,0,0,0,0,0,0,-1,1511,561,0,0
294,463,0,0,0,0,0,0,0,0,0,-1,1518,561,0,0
301,463,0,0,0,0,0,0,0,0,0,-1,1525,561,0,0
308,463,0,0,0,0,0,0,0,0,0,-1,1532,561,0,0
315,463,0,0,0,0,0,0,0,0,0,-1,1539,561,0,0
322,463,0,0,0,0,0,0,0,0,0,-1,1546,561,0,0
329,463,0,0,0,0,0,0,0,0,0,-1,1553,561,0,0
336,463,0,0,0,0,0,0,0,0,0,-1,1560,561,0,0
343,463,0,0,0,0,0,0,0,0,0,-1,1567,561,0,0
350,463,0,0,0,0,0,0,0,0,0,-1,1574,561,0,0
357,463,0,0,0,0,0,0,0,0,0,-1,1581,561,0,0
364,463,0,0,0,0,0,0,0,0,0,-1,1588,561,0,0
371,463,1.75842,0.152588,0,0,0,0,0,0,0,-1,1595,561,1.75844,-0.152558
378,463,4.58813,-0.0444336,0,0,0,0,0,0,0,-1,1602,561,4.58809,0.0444505
385,463,8.88574,1.65057,0,0,0,0,0,0,0,-1,1609,561,8.88575,-1.65055
392,463,14.0912,2.50513,0,0,0,0,0,0,0,-1,1616,561,14.0912,-2.5051
399,463,21.4769,2.7002,0,0,0,0,0,0,0,-1,1623,561,21.477,-2.70017
406,463,26.2987,4.32318,0,0,0,0,0,0,0,-1,1630,561,26.2987,-4.3232
413,463,26.5011,2.65222,0,0,0,0,0,0,0,-1,1637,561,26.5011,-2.65224
420,463,8.849,2.26611,0,0,0,0,0,0,0,-1,1644,561,8.84899,-2.26613
427,463,5.12207,1.69183,0,0,0,0,0,0,0,-1,1651,561,5.12206,-1.69184
434,463,4.59814,1.81995,0,0,0,0,0,0,0,-1,1658,561,4.59812,-1.81994
441,463,1.76392,-5.99225,0,0,0,0,0,0,0,-1,1665,561,1.7639,5.99225
448,463,2.49939,-4.30536,0,0,0,0,0,0,0,-1,1672,561,2.49941,4.30536
455,463,4.40295,-3.02557,0,0,0,0,0,0,0,-1,1679,561,4.40299,3.02558
462,463,5.38293,-4.06445,0,0,0,0,0,0,0,-1,1686,561,5.38289,4.06444
469,463,5.94373,-4.50647,0,0,0,0,0,0,0,-1,1693,561,5.94368,4.50646
476,463,9.94714,-9.53833,0,0,0,0,0,0,0,-1,1700,561,9.94709,9.53832
483,463,9.98596,-9.10773,0.00324892,0.00436882,0.0018627,0.00575391,0.00186383,0.931407,0.00338999,0.0448942,1707,561,9.98594,9.10773
490,463,10.1307,-8.58276,0.00367995,0.00464474,0.00228326,0.006496,0.00182869,0.889505,0.00386799,0.0217846,1714,561,10.1307,8.58274
497,463,10.125,-8.16302,0.0033973,0.00394482,0.00221904,0.00590692,0.00143519,0.846772,0.0035574,0.0126786,1721,561,10.1249,8.16302
504,463,10.1262,-7.82611,0.00294726,0.00323854,0.00202531,0.00512344,0.00106236,0.821292,0.00312234,0.0157568,1728,561,10.1263,7.8261
511,463,10.1354,-7.4682,0.00222671,0.00233955,0.00162021,0.00390432,0.000661941,0.802803,0.00241269,0.021902,1735,561,10.1354,7.4682
518,463,10.1641,-7.06165,0.00137532,0.00155861,0.00118276,0.00265327,0.000280654,0.824064,0.00168312,0.0234515,1742,561,10.164,7.06167
525,463,10.1213,-6.70398,0.000498826,0.000901725,0.000734964,0.00146235,-6.17969e-05,0.91916,0.000996137,0.0187866,1749,561,10.1214,6.704
532,463,10.126,-6.35547,-0.000402567,0.0004156,0.00032308,0.000527793,-0.00051476,1.23656,0.000601934,0.0157525,1756,561,10.1259,6.3555
539,463,10.1124,-5.99982,-0.00128069,-3.94741e-05,-8.75169e-05,-3.33337e-05,-0.00128683,-1.50075,0.000846992,0.0157602,1763,561,10.1125,5.9998
546,463,10.0941,-5.64148,-0.00206982,-0.000310084,-0.000416882,-0.00021632,-0.00216358,-1.34956,0.00137596,0.0120469,1770,561,10.0941,5.64145
553,463,10.0959,-5.22504,-0.00285375,-0.000434719,-0.000744144,-0.000224136,-0.00306433,-1.29502,0.00197242,0.0100436,1777,561,10.096,5.22503
560,463,10.1057,-4.79181,-0.00359197,-0.000565806,-0.0010655,-0.00022829,-0.00392949,-1.26403,0.00254697,0.0135358,1784,561,10.1057,4.79184
567,463,10.0023,-4.45978,-0.00423973,-0.000743633,-0.00136686,-0.000272679,-0.00471069,-1.23898,0.00305363,0.0208596,1791,561,10.0024,4.45981
574,463,10.0647,-4.07813,0,0,0,0,0,0,0,-1,1798,561,10.0647,4.07811
581,463,7.77832,-2.18085,0,0,0,0,0,0,0,-1,1805,561,7.77828,2.18082
588,463,1.97424,2.16016,0,0,0,0,0,0,0,-1,1812,561,1.97422,-2.16013
595,463,9.98657,2.99854,0,0,0,0,0,0,0,-1,1819,561,9.98662,-2.99856
602,463,17.2202,4.91302,0,0,0,0,0,0,0,-1,1826,561,17.2202,-4.91305
609,463,17.96,4.03131,0,0,0,0,0,0,0,-1,1833,561,17.96,-4.03132
616,463,20.8352,3.15131,0,0,0,0,0,0,0,-1,1840,561,20.8352,-3.1513
623,463,0,0,0,0,0,0,0,0,0,-1,1847,561,0,0
630,463,0,0,0,0,0,0,0,0,0,-1,1854,561,0,0
637,463,0,0,0,0,0,0,0,0,0,-1,1861,561,0,0
644,463,0,0,0,0,0,0,0,0,0,-1,1868,561,0,0
651,463,0,0,0,0,0,0,0,0,0,-1,1875,561,0,0
658,463,0,0,0,0,0,0,0,0,0,-1,1882,561,0,0
665,463,0,0,0,0,0,0,0,0,0,-1,1889,561,0,0
672,463,0,0,0,0,0,0,0,0,0,-1,1896,561,0,0
679,463,0,0,0,0,0,0,0,0,0,-1,1903,561,0,0
686,463,0,0,0,0,0,0,0,0,0,-1,1910,561,0,0
693,463,0,0,0,0,0,0,0,0,0,-1,1917,561,0,0
700,463,0,0,0,0,0,0,0,0,0,-1,1924,561,0,0
707,463,0,0,0,0,0,0,0,0,0,-1,1931,561,0,0
714,463,0,0,0,0,0,0,0,0,0,-1,1938,561,0,0
721,463,0,0,0,0,0,0,0,0,0,-1,1945,561,0,0
728,463,0,0,0,0,0,0,0,0,0,-1,1952,561,0,0
735,463,0,0,0,0,0,0,0,0,0,-1,1959,561,0,0
742,463,0,0,0,0,0,0,0,0,0,-1,1966,561,0,0
749,463,0,0,0,0,0,0,0,0,0,-1,1973,561,0,0
756,463,0,0,0,0,0,0,0,0,0,-1,1980,561,0,0
763,463,0,0,0,0,0,0,0,0,0,-1,1987,561,0,0
770,463,0,0,0,0,0,0,0,0,0,-1,1994,561,0,0
777,463,0,0,0,0,0,0,0,0,0,-1,2001,561,0,0
784,463,0,0,0,0,0,0,0,0,0,-1,2008,561,0,0
791,463,0,0,0,0,0,0,0,0,0,-1,2015,561,0,0
798,463,0,0,0,0,0,0,0,0,0,-1,2022,561,0,0
805,463,0,0,0,0,0,0,0,0,0,-1,2029,561,0,0
812,463,0,0,0,0,0,0,0,0,0,-1,2036,561,0,0
-700,456,0,0,0,0,0,0,0,0,0,-1,524,568,0,0
-693,456,0,0,0,0,0,0,0,0,0,-1,531,568,0,0
-686,456,0,0,0,0,0,0,0,0,0,-1,538,568,0,0
-679,456,0,0,0,0,0,0,0,0,0,-1,545,568,0,0
-672,456,0,0,0,0,0,0,0,0,0,-1,552,568,0,0
-665,456,0,0,0,0,0,0,0,0,0,-1,559,568,0,0
-658,456,0,0,0,0,0,0,0,0,0,-1,566,568,0,0
-651,456,0,0,0,0,0,0,0,0,0,-1,573,568,0,0
-644,456,0,0,0,0,0,0,0,0,0,-1,580,568,0,0
-637,456,0,0,0,0,0,0,0,0,0,-1,587,568,0,0
-630,456,0,0,0,0,0,0,0,0,0,-1,594,568,0,0
-623,456,0,0,0,0,0,0,0,0,0,-1,601,568,0,0
-616,456,0,0,0,0,0,0,0,0,0,-1,608,568,0,0
-609,456,0,0,0,0,0,0,0,0,0,-1,615,568,0,0
-602,456,0,0,0,0,0,0,0,0,0,-1,622,568,0,0
-595,456,0,0,0,0,0,0,0,0,0,-1,629,568,0,0
-588,456,0,0,0,0,0,0,0,0,0,-1,636,568,0,0
-581,456,0,0,0,0,0,0,0,0,0,-1,643,568,0,0
-574,456,0,0,0,0,0,0,0,0,0,-1,650,568,0,0
-567,456,0,0,0,0,0,0,0,0,0,-1,657,568,0,0
-560,456,0,0,0,0,0,0,0,0,0,-1,664,568,0,0
-553,456,0,0,0,0,0,0,0,0,0,-1,671,568,0,0
-546,456,0,0,0,0,0,0,0,0,0,-1,678,568,0,0
-539,456,0,0,0,0,0,0,0,0,0,-1,685,568,0,0
-532,456,0,0,0,0,0,0,0,0,0,-1,692,568,0,0
-525,456,0,0,0,0,0,0,0,0,0,-1,699,568,0,0
-518,456,0,0,0,0,0,0,0,0,0,-1,706,568,0,0
-511,456,0,0,0,0,0,0,0,0,0,-1,713,568,0,0
-504,456,-10.3994,-2.34839,0,0,0,0,0,0,0,-1,720,568,-10.3994,2.3484
-497,456,-9.21375,-2.38068,0,0,0,0,0,0,0,-1,727,568,-9.21372,2.38069
-490,456,-8.09058,-2.31824,0,0,0,0,0,0,0,-1,734,568,-8.09057,2.31821
-483,456,-6.66119,-2.24329,0,0,0,0,0,0,0,-1,741,568,-6.66121,2.24331
-476,456,-5.1499,-2.21185,0,0,0,0,0,0,0,-1,748,568,-5.14992,2.21184
-469,456,-2.81238,-3.51501,0,0,0,0,0,0,0,-1,755,568,-2.81237,3.51501
-462,456,-2.91895,-4.18488,0,0,0,0,0,0,0,-1,762,568,-2.91892,4.18488
-455,456,-3.05261,-4.79449,0,0,0,0,0,0,0,-1,769,568,-3.05258,4.79448
-448,456,-2.99274,-5.49719,0.0019054,0.00929706,-0.00685773,0.0133915,-0.002189,-1.03255,0.00973965,0.041779,776,568,-2.99272,5.49718
-441,456,-3.03302,-6.14539,0.00121046,0.0071309,-0.00504663,0.0100214,-0.00168008,-1.05064,0.00730567,0.0194924,783,568,-3.03302,6.14541
-434,456,-3.10657,-6.52625,0.000664858,0.00519873,-0.00355769,0.00715035,-0.00128675,-1.06906,0.00524866,0.0107263,790,568,-3.10657,6.52623
-427,456,-3.1048,-6.87592,0.000472275,0.00393579,-0.00255445,0.00529017,-0.000882099,-1.08328,0.0038546,0.00799674,797,568,-3.10478,6.87592
-420,456,-3.09369,-7.21777,0.000153552,0.00276721,-0.00162635,0.00354672,-0.000625964,-1.12384,0.00259839,0.00887361,804,568,-3.09371,7.21775
-413,456,-3.11163,-7.5564,-3.12025e-05,0.00176326,-0.000902454,0.00213861,-0.000406546,-1.17665,0.0015788,0.00891313,811,568,-3.11163,7.55638
-406,456,-3.13916,-7.89941,-5.58519e-05,0.00095142,-0.00025495,0.00101227,-0.000116706,-1.33649,0.000716924,0.0092696,818,568,-3.13917,7.89943
-399,456,-3.14111,-8.24542,-0.000233539,0.00016766,0.000409703,0.000423236,-0.000489116,1.01305,0.000527204,0.0106814,825,568,-3.14112,8.24544
-392,456,-3.13989,-8.57971,-0.00059206,-0.000741898,0.00114429,0.000479758,-0.00181372,0.752709,0.0013968,0.00978113,832,568,-3.13988,8.5797
-385,456,-3.15045,-8.92175,-0.0010056,-0.00168055,0.00188505,0.000571941,-0.00325809,0.696823,0.00238567,0.00995305,839,568,-3.15042,8.92177
-378,456,-3.16852,-9.29132,-0.00155886,-0.00257556,0.00270769,0.000687791,-0.00482221,0.692607,0.00346689,0.0108274,846,568,-3.16855,9.29132
-371,456,-3.15161,-9.6369,-0.00217565,-0.00355143,0.00358229,0.000784199,-0.00651128,0.69054,0.00462447,0.0112328,853,568,-3.15163,9.63691
-364,456,-3.13245,-9.93469,-0.00273841,-0.00460855,0.0044309,0.000855013,-0.00820198,0.681407,0.00577413,0.0154536,860,568,-3.13242,9.93472
-357,456,-3.09747,-10.2579,-0.00323923,-0.00571219,0.00518555,0.000855217,-0.00980665,0.66836,0.00684068,0.0230498,867,568,-3.09745,10.2579
-350,456,-2.99573,-10.7471,0,0,0,0,0,0,0,-1,874,568,-2.99571,10.7471
-343,456,-2.25323,-9.72168,0,0,0,0,0,0,0,-1,881,568,-2.25322,9.72169
-336,456,-1.65753,-10.22,0,0,0,0,0,0,0,-1,888,568,-1.65753,10.22
-329,456,-1.06183,-10.7184,0,0,0,0,0,0,0,-1,895,568,-1.06184,10.7184
-322,456,-0.662537,-7.66632,0,0,0,0,0,0,0,-1,902,568,-0.662564,7.66633
-315,456,-0.675476,-3.38397,0,0,0,0,0,0,0,-1,909,568,-0.675473,3.38399
-308,456,-1.1618,-3.15314,0,0,0,0,0,0,0,-1,916,568,-1.16178,3.15314
-301,456,-1.83551,-3.26447,0,0,0,0,0,0,0,-1,923,568,-1.8355,3.26449
-294,456,-2.93414,-3.35449,0,0,0,0,0,0,0,-1,930,568,-2.93413,3.35451
-287,456,-3.7569,-3.53101,0,0,0,0,0,0,0,-1,937,568,-3.75692,3.53101
-280,456,-13.072,4.52856,0,0,0,0,0,0,0,-1,944,568,-13.072,-4.52855
-273,456,-9.20386,0.0843506,0,0,0,0,0,0,0,-1,951,568,-9.20388,-0.0843452
-266,456,-5.58484,-2.96448,0,0,0,0,0,0,0,-1,958,568,-5.58485,2.96451
-259,456,0,0,0,0,0,0,0,0,0,-1,965,568,0,0
-252,456,0,0,0,0,0,0,0,0,0,-1,972,568,0,0
-245,456,0,0,0,0,0,0,0,0,0,-1,979,568,0,0
-238,456,0,0,0,0,0,0,0,0,0,-1,986,568,0,0
-231,456,0,0,0,0,0,0,0,0,0,-1,993,568,0,0
-224,456,0,0,0,0,0,0,0,0,0,-1,1000,568,0,0
-217,456,0,0,0,0,0,0,0,0,0,-1,1007,568,0,0
-210,456,0,0,0,0,0,0,0,0,0,-1,1014,568,0,0
-203,456,0,0,0,0,0,0,0,0,0,-1,1021,568,0,0
-196,456,0,0,0,0,0,0,0,0,0,-1,1028,568,0,0
-189,456,0,0,0,0,0,0,0,0,0,-1,1035,568,0,0
-182,456,0,0,0,0,0,0,0,0,0,-1,1042,568,0,0
-175,456,0,0,0,0,0,0,0,0,0,-1,1049,568,0,0
-168,456,0,0,0,0,0,0,0,0,0,-1,1056,568,0,0
-161,456,0,0,0,0,0,0,0,0,0,-1,1063,568,0,0
-154,456,0,0,0,0,0,0,0,0,0,-1,1070,568,0,0
-147,456,0,0,0,0,0,0,0,0,0,-1,1077,568,0,0
-140,456,0,0,0,0,0,0,0,0,0,-1,1084,568,0,0
-133,456,0,0,0,0,0,0,0,0,0,-1,1091,568,0,0
-126,456,0,0,0,0,0,0,0,0,0,-1,1098,568,0,0
-119,456,0,0,0,0,0,0,0,0,0,-1,1105,568,0,0
-112,456,0,0,0,0,0,0,0,0,0,-1,1112,568,0,0
-105,456,0,0,0,0,0,0,0,0,0,-1,1119,568,0,0
-98,456,0,0,0,0,0,0,0,0,0,-1,1126,568,0,0
-91,456,0,0,0,0,0,0,0,0,0,-1,1133,568,0,0
-84,456,0,0,0,0,0,0,0,0,0,-1,1140,568,0,0
-77,456,0,0,0,0,0,0,0,0,0,-1,1147,568,0,0
-70,456,0,0,0,0,0,0,0,0,0,-1,1154,568,0,0
-63,456,0,0,0,0,0,0,0,0,0,-1,1161,568,0,0
-56,456,0,0,0,0,0,0,0,0,0,-1,1168,568,0,0
-49,456,0,0,0,0,0,0,0,0,0,-1,1175,568,0,0
-42,456,0,0,0,0,0,0,0,0,0,-1,1182,568,0,0
-35,456,0,0,0,0,0,0,0,0,0,-1,1189,568,0,0
-28,456,0,0,0,0,0,0,0,0,0,-1,1196,568,0,0
-21,456,0,0,0,0,0,0,0,0,0,-1,1203,568,0,0
-14,456,0,0,0,0,0,0,0,0,0,-1,1210,568,0,0
-7,456,0,0,0,0,0,0,0,0,0,-1,1217,568,0,0
0,456,0,0,0,0,0,0,0,0,0,-1,1224,568,0,0
7,456,0,0,0,0,0,0,0,0,0,-1,1231,568,0,0
14,456,0,0,0,0,0,0,0,0,0,-1,1238,568,0,0
21,456,0,0,0,0,0,0,0,0,0,-1,1245,568,0,0
28,456,0,0,0,0,0,0,0,0,0,-1,1252,568,0,0
35,456,0,0,0,0,0,0,0,0,0,-1,1259,568,0,0
42,456,0,0,0,0,0,0,0,0,0,-1,1266,568,0,0
49,456,0,0,0,0,0,0,0,0,0,-1,1273,568,0,0
56,456,0,0,0,0,0,0,0,0,0,-1,1280,568,0,0
63,456,0,0,0,0,0,0,0,0,0,-1,1287,568,0,0
70,456,0,0,0,0,0,0,0,0,0,-1,1294,568,0,0
77,456,0,0,0,0,0,0,0,0,0,-1,1301,568,0,0
84,456,0,0,0,0,0,0,0,0,0,-1,1308,568,0,0
91,456,0,0,0,0,0,0,0,0,0,-1,1315,568,0,0
98,456,0,0,0,0,0,0,0,0,0,-1,1322,568,0,0
105,456,0,0,0,0,0,0,0,0,0,-1,1329,568,0,0
112,456,0,0,0,0,0,0,0,0,0,-1,1336,568,0,0
119,456,0,0,0,0,0,0,0,0,0,-1,1343,568,0,0
126,456,0,0,0,0,0,0,0,0,0,-1,1350,568,0,0
133,456,0,0,0,0,0,0,0,0,0,-1,1357,568,0,0
140,456,0,0,0,0,0,0,0,0,0,-1,1364,568,0,0
147,456,0,0,0,0,0,0,0,0,0,-1,1371,568,0,0
154,456,0,0,0,0,0,0,0,0,0,-1,1378,568,0,0
161,456,0,0,0,0,0,0,0,0,0,-1,1385,568,0,0
168,456,0,0,0,0,0,0,0,0,0,-1,1392,568,0,0
175,456,0,0,0,0,0,0,0,0,0,-1,1399,568,0,0
182,456,0,0,0,0,0,0,0,0,0,-1,1406,568,0,0
189,456,0,0,0,0,0,0,0,0,0,-1,1413,568,0,0
196,456,0,0,0,0,0,0,0,0,0,-1,1420,568,0,0
203,456,0,0,0,0,0,0,0,0,0,-1,1427,568,0,0
210,456,0,0,0,0,0,0,0,0,0,-1,1434,568,0,0
217,456,0,0,0,0,0,0,0,0,0,-1,1441,568,0,0
224,456,0,0,0,0,0,0,0,0,0,-1,1448,568,0,0
231,456,0,0,0,0,0,0,0,0,0,-1,1455,568,0,0
238,456,0,0,0,0,0,0,0,0,0,-1,1462,568,0,0
245,456,0,0,0,0,0,0,0,0,0,-1,1469,568,0,0
252,456,0,0,0,0,0,0,0,0,0,-1,1476,568,0,0
259,456,0,0,0,0,0,0,0,0,0,-1,1483,568,0,0
266,456,0,0,0,0,0,0,0,0,0,-1,1490,568,0,0
273,456,0,0,0,0,0,0,0,0,0,-1,1497,568,0,0
280,456,0,0,0,0,0,0,0,0,0,-1,1504,568,0,0
287,456,0,0,0,0,0,0,0,0,0,-1,1511,568,0,0
294,456,0,0,0,0,0,0,0,0,0,-1,1518,568,0,0
301,456,0,0,0,0,0,0,0,0,0,-1,1525,568,0,0
308,456,0,0,0,0,0,0,0,0,0,-1,1532,568,0,0
315,456,0,0,0,0,0,0,0,0,0,-1,1539,568,0,0
322,456,0,0,0,0,0,0,0,0,0,-1,1546,568,0,0
329,456,0,0,0,0,0,0,0,0,0,-1,1553,568,0,0
336,456,0,0,0,0,0,0,0,0,0,-1,1560,568,0,0
343,456,0,0,0,0,0,0,0,0,0,-1,1567,568,0,0
350,456,0,0,0,0,0,0,0,0,0,-1,1574,568,0,0
357,456,0,0,0,0,0,0,0,0,0,-1,1581,568,0,0
364,456,0,0,0,0,0,0,0,0,0,-1,1588,568,0,0
371,456,0,0,0,0,0,0,0,0,0,-1,1595,568,0,0
378,456,0,0,0,0,0,0,0,0,0,-1,1602,568,0,0
385,456,5.66284,0.660645,0,0,0,0,0,0,0,-1,1609,568,5.66285,-0.660615
392,456,16.7321,4.45581,0,0,0,0,0,0,0,-1,1616,568,16.732,-4.45581
399,456,24.1917,5.99652,0,0,0,0,0,0,0,-1,1623,568,24.1916,-5.99651
406,456,24.446,4.53003,0,0,0,0,0,0,0,-1,1630,568,24.446,-4.53005
413,456,24.9418,2.90521,0,0,0,0,0,0,0,-1,1637,568,24.9418,-2.90524
420,456,25.3048,1.04712,0,0,0,0,0,0,0,-1,1644,568,25.3048,-1.04713
427,456,6.21375,2.02905,0,0,0,0,0,0,0,-1,1651,568,6.21372,-2.02904
434,456,3.0719,-4.86285,0,0,0,0,0,0,0,-1,1658,568,3.07184,4.86287
441,456,2.90344,-4.70459,0,0,0,0,0,0,0,-1,1665,568,2.90346,4.7046
448,456,3.06995,-4.93689,0,0,0,0,0,0,0,-1,1672,568,3.06991,4.93687
455,456,3.46582,-3.43701,0,0,0,0,0,0,0,-1,1679,568,3.46585,3.43698
462,456,4.68445,-4.45831,0,0,0,0,0,0,0,-1,1686,568,4.68439,4.45833
469,456,4.93201,-2.289,0,0,0,0,0,0,0,-1,1693,568,4.93197,2.28903
476,456,4.8363,-2.79364,0,0,0,0,0,0,0,-1,1700,568,4.83636,2.79363
483,456,10.0388,-9.55206,0,0,0,0,0,0,0,-1,1707,568,10.0388,9.55205
490,456,10.5886,-8.78442,0,0,0,0,0,0,0,-1,1714,568,10.5887,8.7844
497,456,10.5271,-8.2475,0.00460804,0.00491324,0.00302083,0.00778533,0.00173596,0.810635,0.00471922,0.0408069,1721,568,10.5271,8.24749
504,456,10.4702,-7.81952,0.00403839,0.00406257,0.00268392,0.00673443,0.00136653,0.78765,0.00411054,0.0120514,1728,568,10.4702,7.81949
511,456,10.4814,-7.44489,0.00324186,0.00298928,0.00217556,0.00529479,0.000936352,0.756405,0.00326284,0.0136188,1735,568,10.4814,7.44486
518,456,10.4749,-7.07056,0.00236408,0.00211965,0.00167927,0.00392558,0.000558152,0.749073,0.00245227,0.0160368,1742,568,10.4749,7.07058
525,456,10.465,-6.72888,0.00147519,0.00144881,0.00120341,0.00266549,0.000258515,0.779917,0.00169739,0.015,1749,568,10.465,6.72889
532,456,10.465,-6.35199,0.000592259,0.000920485,0.000767933,0.00154164,-2.89009e-05,0.890668,0.00103753,0.0144536,1756,568,10.465,6.35198
539,456,10.4641,-5.98981,-0.000256922,0.00038753,0.000326831,0.000524268,-0.00039366,1.17455,0.000531752,0.0173707,1763,568,10.4641,5.98978
546,456,10.4534,-5.60046,-0.000984387,6.32677e-05,-3.71882e-06,6.32809e-05,-0.0009844,-1.56725,0.000678345,0.0190399,1770,568,10.4534,5.60046
553,456,10.4452,-5.17621,-0.0016809,-0.000149456,-0.000317641,-8.61872e-05,-0.00174417,-1.37419,0.00113514,0.0133427,1777,568,10.4452,5.1762
560,456,10.4492,-4.82776,-0.00234888,-0.000367775,-0.000621022,-0.000189198,-0.00252745,-1.2908,0.00162558,0.0107686,1784,568,10.4492,4.82775
567,456,10.4443,-4.45667,-0.00292173,-0.000594002,-0.000874516,-0.000302064,-0.00321367,-1.2486,0.00204919,0.0152832,1791,568,10.4443,4.45669
574,456,10.4125,-4.22571,-0.00353436,-0.00087939,-0.00119582,-0.000420204,-0.00399355,-1.20416,0.00253394,0.0449137,1798,568,10.4125,4.22573
581,456,10.4579,-3.94788,0,0,0,0,0,0,0,-1,1805,568,10.4578,3.94787
588,456,5.23901,-0.0901489,0,0,0,0,0,0,0,-1,1812,568,5.23906,0.0901656
595,456,6.90063,3.14886,0,0,0,0,0,0,0,-1,1819,568,6.90066,-3.14887
602,456,16.894,4.10938,0,0,0,0,0,0,0,-1,1826,568,16.8941,-4.1094
609,456,14.9966,3.5708,0,0,0,0,0,0,0,-1,1833,568,14.9966,-3.57083
616,456,17.7407,2.6579,0,0,0,0,0,0,0,-1,1840,568,17.7408,-2.6579
623,456,20.6838,1.7121,0,0,0,0,0,0,0,-1,1847,568,20.6838,-1.71208
630,456,0,0,0,0,0,0,0,0,0,-1,1854,568,0,0
637,456,0,0,0,0,0,0,0,0,0,-1,1861,568,0,0
644,456,0,0,0,0,0,0,0,0,0,-1,1868,568,0,0
651,456,0,0,0,0,0,0,0,0,0,-1,1875,568,0,0
658,456,0,0,0,0,0,0,0,0,0,-1,1882,568,0,0
665,456,0,0,0,0,0,0,0,0,0,-1,1889,568,0,0
672,456,0,0,0,0,0,0,0,0,0,-1,1896,568,0,0
679,456,0,0,0,0,0,0,0,0,0,-1,1903,568,0,0
686,456,0,0,0,0,0,0,0,0,0,-1,1910,568,0,0
693,456,0,0,0,0,0,0,0,0,0,-1,1917,568,0,0
700,456,0,0,0,0,0,0,0,0,0,-1,1924,568,0,0
707,456,0,0,0,0,0,0,0,0,0,-1,1931,568,0,0
714,456,0,0,0,0,0,0,0,0,0,-1,1938,568,0,0
721,456,0,0,0,0,0,0,0,0,0,-1,1945,568,0,0
728,456,0,0,0,0,0,0,0,0,0,-1,1952,568,0,0
735,456,0,0,0,0,0,0,0,0,0,-1,1959,568,0,0
742,456,0,0,0,0,0,0,0,0,0,-1,1966,568,0,0
749,456,0,0,0,0,0,0,0,0,0,-1,1973,568,0,0
756,456,0,0,0,0,0,0,0,0,0,-1,1980,568,0,0
763,456,0,0,0,0,0,0,0,0,0,-1,1987,568,0,0
770,456,0,0,0,0,0,0,0,0,0,-1,1994,568,0,0
777,456,0,0,0,0,0,0,0,0,0,-1,2001,568,0,0
784,456,0,0,0,0,0,0,0,0,0,-1,2008,568,0,0
791,456,0,0,0,0,0,0,0,0,0,-1,2015,568,0,0
798,456,0,0,0,0,0,0,0,0,0,-1,2022,568,0,0
805,456,0,0,0,0,0,0,0,0,0,-1,2029,568,0,0
812,456,0,0,0,0,0,0,0,0,0,-1,2036,568,0,0
-700,449,0,0,0,0,0,0,0,0,0,-1,524,575,0,0
-693,449,0,0,0,0,0,0,0,0,0,-1,531,575,0,0
-686,449,0,0,0,0,0,0,0,0,0,-1,538,575,0,0
-679,449,0,0,0,0,0,0,0,0,0,-1,545,575,0,0
-672,449,0,0,0,0,0,0,0,0,0,-1,552,575,0,0
-665,449,0,0,0,0,0,0,0,0,0,-1,559,575,0,0
-658,449,0,0,0,0,0,0,0,0,0,-1,566,575,0,0
-651,449,0,0,0,0,0,0,0,0,0,-1,573,575,0,0
-644,449,0,0,0,0,0,0,0,0,0,-1,580,575,0,0
-637,449,0,0,0,0,0,0,0,0,0,-1,587,575,0,0
-630,449,0,0,0,0,0,0,0,0,0,-1,594,575,0,0
-623,449,0,0,0,0,0,0,0,0,0,-1,601,575,0,0
-616,449,0,0,0,0,0,0,0,0,0,-1,608,575,0,0
-609,449,0,0,0,0,0,0,0,0,0,-1,615,575,0,0
-602,449,0,0,0,0,0,0,0,0,0,-1,622,575,0,0
-595,449,0,0,0,0,0,0,0,0,0,-1,629,575,0,0
-588,449,0,0,0,0,0,0,0,0,0,-1,636,575,0,0
-581,449,0,0,0,0,0,0,0,0,0,-1,643,575,0,0
-574,449,0,0,0,0,0,0,0,0,0,-1,650,575,0,0
-567,449,0,0,0,0,0,0,0,0,0,-1,657,575,0,0
-560,449,0,0,0,0,0,0,0,0,0,-1,664,575,0,0
-553,449,0,0,0,0,0,0,0,0,0,-1,671,575,0,0
-546,449,0,0,0,0,0,0,0,0,0,-1,678,575,0,0
-539,449,0,0,0,0,0,0,0,0,0,-1,685,575,0,0
-532,449,0,0,0,0,0,0,0,0,0,-1,692,575,0,0
-525,449,0,0,0,0,0,0,0,0,0,-1,699,575,0,0
-518,449,0,0,0,0,0,0,0,0,0,-1,706,575,0,0
-511,449,-0.941345,-4.4519,0,0,0,0,0,0,0,-1,713,575,-0.941356,4.45191
-504,449,-14.1078,0.318237,0,0,0,0,0,0,0,-1,720,575,-14.1078,-0.318231
-497,449,-8.61292,-3.09009,0,0,0,0,0,0,0,-1,727,575,-8.61291,3.09011
-490,449,-7.50995,-2.96252,0,0,0,0,0,0,0,-1,734,575,-7.50995,2.96251
-483,449,-5.77789,-2.50061,0,0,0,0,0,0,0,-1,741,575,-5.77792,2.50059
-476,449,-4.1723,-2.07739,0,0,0,0,0,0,0,-1,748,575,-4.17228,2.0774
-469,449,-4.13055,-3.68597,0,0,0,0,0,0,0,-1,755,575,-4.13058,3.686
-462,449,-3.47217,-5.01715,0,0,0,0,0,0,0,-1,762,575,-3.47217,5.01718
-455,449,-3.61725,-5.47351,0,0,0,0,0,0,0,-1,769,575,-3.61723,5.47353
-448,449,-3.4397,-5.73517,0.00254317,0.0077109,-0.00607595,0.0117296,-0.00147551,-0.986444,0.0083551,0.0289736,776,575,-3.4397,5.73519
-441,449,-3.41772,-6.20453,0.0014903,0.00586708,-0.00436405,0.00856069,-0.00120332,-1.0178,0.00614762,0.0148263,783,575,-3.41775,6.20456
-434,449,-3.47052,-6.52808,0.000646999,0.00410812,-0.00288269,0.00573981,-0.00098469,-1.05573,0.00419348,0.0121249,790,575,-3.47051,6.52805
-427,449,-3.47107,-6.86292,0.000126838,0.0029743,-0.00183403,0.00387235,-0.000771213,-1.11545,0.00287335,0.0128462,797,575,-3.47107,6.86293
-420,449,-3.4613,-7.21246,-0.000501954,0.00187459,-0.000789001,0.00211268,-0.000740045,-1.27772,0.0017094,0.0135596,804,575,-3.46132,7.21245
-413,449,-3.45935,-7.55115,-0.000947668,0.000877668,6.72978e-05,0.000880146,-0.000950146,1.53399,0.00105698,0.0108837,811,575,-3.45937,7.55115
-406,449,-3.48096,-7.90076,-0.00114877,7.7599e-05,0.000795877,0.00046911,-0.00154029,1.11363,0.00121383,0.00995245,818,575,-3.48096,7.90075
-399,449,-3.50018,-8.25293,-0.00145059,-0.000733544,0.001546,0.000494964,-0.0026791,0.899336,0.00197187,0.00963508,825,575,-3.50016,8.25293
-392,449,-3.48615,-8.58679,-0.00189608,-0.00167068,0.00237128,0.00059058,-0.00415734,0.809143,0.00298794,0.00995312,832,575,-3.48612,8.58682
-385,449,-3.48138,-8.9129,-0.00239377,-0.00271854,0.00323007,0.000677995,-0.0057903,0.760283,0.0041049,0.0105996,839,575,-3.48137,8.91287
-378,449,-3.49908,-9.26025,-0.00303838,-0.00378763,0.00422865,0.000832212,-0.00765822,0.741218,0.00540429,0.010157,846,575,-3.49908,9.26024
-371,449,-3.48999,-9.5885,-0.00372546,-0.0049949,0.00531986,0.000997416,-0.00971778,0.726023,0.00683529,0.0111248,853,575,-3.48996,9.5885
-364,449,-3.47382,-9.92828,-0.00434902,-0.00635547,0.00641249,0.00113825,-0.0118427,0.707803,0.00830063,0.0250108,860,575,-3.47382,9.92828
-357,449,-3.22919,-10.3906,0,0,0,0,0,0,0,-1,867,575,-3.22919,10.3906
-350,449,-2.888,-9.73901,0,0,0,0,0,0,0,-1,874,575,-2.88801,9.73904
-343,449,-3.41138,-9.5224,0,0,0,0,0,0,0,-1,881,575,-3.4114,9.52243
-336,449,-1.29523,-9.54626,0,0,0,0,0,0,0,-1,888,575,-1.29525,9.54626
-329,449,-0.733398,-7.78937,0,0,0,0,0,0,0,-1,895,575,-0.733398,7.78937
-322,449,-0.628845,-3.16669,0,0,0,0,0,0,0,-1,902,575,-0.628861,3.16667
-315,449,-0.540344,-3.21918,0,0,0,0,0,0,0,-1,909,575,-0.540336,3.21917
-308,449,-1.04413,-2.99341,0,0,0,0,0,0,0,-1,916,575,-1.04415,2.99338
-301,449,-1.58691,-2.80725,0,0,0,0,0,0,0,-1,923,575,-1.58692,2.80728
-294,449,-3.71118,-2.76086,0,0,0,0,0,0,0,-1,930,575,-3.71119,2.76087
-287,449,-4.4082,-2.69525,0,0,0,0,0,0,0,-1,937,575,-4.40822,2.69526
-280,449,-5.09955,-2.96295,0,0,0,0,0,0,0,-1,944,575,-5.09953,2.96297
-273,449,0,0,0,0,0,0,0,0,0,-1,951,575,0,0
-266,449,0,0,0,0,0,0,0,0,0,-1,958,575,0,0
-259,449,0,0,0,0,0,0,0,0,0,-1,965,575,0,0
-252,449,0,0,0,0,0,0,0,0,0,-1,972,575,0,0
-245,449,0,0,0,0,0,0,0,0,0,-1,979,575,0,0
-238,449,0,0,0,0,0,0,0,0,0,-1,986,575,0,0
-231,449,0,0,0,0,0,0,0,0,0,-1,993,575,0,0
-224,449,0,0,0,0,0,0,0,0,0,-1,1000,575,0,0
-217,449,0,0,0,0,0,0,0,0,0,-1,1007,575,0,0
-210,449,0,0,0,0,0,0,0,0,0,-1,1014,575,0,0
-203,449,0,0,0,0,0,0,0,0,0,-1,1021,575,0,0
-196,449,0,0,0,0,0,0,0,0,0,-1,1028,575,0,0
-189,449,0,0,0,0,0,0,0,0,0,-1,1035,575,0,0
-182,449,0,0,0,0,0,0,0,0,0,-1,1042,575,0,0
-175,449,0,0,0,0,0,0,0,0,0,-1,1049,575,0,0
-168,449,0,0,0,0,0,0,0,0,0,-1,1056,575,0,0
-161,449,0,0,0,0,0,0,0,0,0,-1,1063,575,0,0
-154,449,0,0,0,0,0,0,0,0,0,-1,1070,575,0,0
-147,449,0,0,0,0,0,0,0,0,0,-1,1077,575,0,0
-140,449,0,0,0,0,0,0,0,0,0,-1,1084,575,0,0
-133,449,0,0,0,0,0,0,0,0,0,-1,1091,575,0,0
-126,449,0,0,0,0,0,0,0,0,0,-1,1098,575,0,0
-119,449,0,0,0,0,0,0,0,0,0,-1,1105,575,0,0
-112,449,0,0,0,0,0,0,0,0,0,-1,1112,575,0,0
-105,449,0,0,0,0,0,0,0,0,0,-1,1119,575,0,0
-98,449,0,0,0,0,0,0,0,0,0,-1,1126,575,0,0
-91,449,0,0,0,0,0,0,0,0,0,-1,1133,575,0,0
-84,449,0,0,0,0,0,0,0,0,0,-1,1140,575,0,0
-77,449,0,0,0,0,0,0,0,0,0,-1,1147,575,0,0
-70,449,0,0,0,0,0,0,0,0,0,-1,1154,575,0,0
-63,449,0,0,0,0,0,0,0,0,0,-1,1161,575,0,0
-56,449,0,0,0,0,0,0,0,0,0,-1,1168,575,0,0
-49,449,0,0,0,0,0,0,0,0,0,-1,1175,575,0,0
-42,449,0,0,0,0,0,0,0,0,0,-1,1182,575,0,0
-35,449,0,0,0,0,0,0,0,0,0,-1,1189,575,0,0
-28,449,0,0,0,0,0,0,0,0,0,-1,1196,575,0,0
-21,449,0,0,0,0,0,0,0,0,0,-1,1203,575,0,0
-14,449,0,0,0,0,0,0,0,0,0,-1,1210,575,0,0
-7,449,0,0,0,0,0,0,0,0,0,-1,1217,575,0,0
0,449,0,0,0,0,0,0,0,0,0,-1,1224,575,0,0
7,449,0,0,0,0,0,0,0,0,0,-1,1231,575,0,0
14,449,0,0,0,0,0,0,0,0,0,-1,1238,575,0,0
21,449,0,0,0,0,0,0,0,0,0,-1,1245,575,0,0
28,449,0,0,0,0,0,0,0,0,0,-1,1252,575,0,0
35,449,0,0,0,0,0,0,0,0,0,-1,1259,575,0,0
42,449,0,0,0,0,0,0,0,0,0,-1,1266,575,0,0
49,449,0,0,0,0,0,0,0,0,0,-1,1273,575,0,0
56,449,0,0,0,0,0,0,0,0,0,-1,1280,575,0,0
63,449,0,0,0,0,0,0,0,0,0,-1,1287,575,0,0
70,449,0,0,0,0,0,0,0,0,0,-1,1294,575,0,0
77,449,0,0,0,0,0,0,0,0,0,-1,1301,575,0,0
84,449,0,0,0,0,0,0,0,0,0,-1,1308,575,0,0
91,449,0,0,0,0,0,0,0,0,0,-1,1315,575,0,0
98,449,0,0,0,0,0,0,0,0,0,-1,1322,575,0,0
105,449,0,0,0,0,0,0,0,0,0,-1,1329,575,0,0
112,449,0,0,0,0,0,0,0,0,0,-1,1336,575,0,0
119,449,0,0,0,0,0,0,0,0,0,-1,1343,575,0,0
126,449,0,0,0,0,0,0,0,0,0,-1,1350,575,0,0
133,449,0,0,0,0,0,0,0,0,0,-1,1357,575,0,0
140,449,0,0,0,0,0,0,0,0,0,-1,1364,575,0,0
147,449,0,0,0,0,0,0,0,0,0,-1,1371,575,0,0
154,449,0,0,0,0,0,0,0,0,0,-1,1378,575,0,0
161,449,0,0,0,0,0,0,0,0,0,-1,1385,575,0,0
168,449,0,0,0,0,0,0,0,0,0,-1,1392,575,0,0
175,449,0,0,0,0,0,0,0,0,0,-1,1399,575,0,0
182,449,0,0,0,0,0,0,0,0,0,-1,1406,575,0,0
189,449,0,0,0,0,0,0,0,0,0,-1,1413,575,0,0
196,449,0,0,0,0,0,0,0,0,0,-1,1420,575,0,0
203,449,0,0,0,0,0,0,0,0,0,-1,1427,575,0,0
210,449,0,0,0,0,0,0,0,0,0,-1,1434,575,0,0
217,449,0,0,0,0,0,0,0,0,0,-1,1441,575,0,0
224,449,0,0,0,0,0,0,0,0,0,-1,1448,575,0,0
231,449,0,0,0,0,0,0,0,0,0,-1,1455,575,0,0
238,449,0,0,0,0,0,0,0,0,0,-1,1462,575,0,0
245,449,0,0,0,0,0,0,0,0,0,-1,1469,575,0,0
252,449,0,0,0,0,0,0,0,0,0,-1,1476,575,0,0
259,449,0,0,0,0,0,0,0,0,0,-1,1483,575,0,0
266,449,0,0,0,0,0,0,0,0,0,-1,1490,575,0,0
273,449,0,0,0,0,0,0,0,0,0,-1,1497,575,0,0
280,449,0,0,0,0,0,0,0,0,0,-1,1504,575,0,0
287,449,0,0,0,0,0,0,0,0,0,-1,1511,575,0,0
294,449,0,0,0,0,0,0,0,0,0,-1,1518,575,0,0
301,449,0,0,0,0,0,0,0,0,0,-1,1525,575,0,0
308,449,0,0,0,0,0,0,0,0,0,-1,1532,575,0,0
315,449,0,0,0,0,0,0,0,0,0,-1,1539,575,0,0
322,449,0,0,0,0,0,0,0,0,0,-1,1546,575,0,0
329,449,0,0,0,0,0,0,0,0,0,-1,1553,575,0,0
336,449,0,0,0,0,0,0,0,0,0,-1,1560,575,0,0
343,449,0,0,0,0,0,0,0,0,0,-1,1567,575,0,0
350,449,0,0,0,0,0,0,0,0,0,-1,1574,575,0,0
357,449,0,0,0,0,0,0,0,0,0,-1,1581,575,0,0
364,449,0,0,0,0,0,0,0,0,0,-1,1588,575,0,0
371,449,0,0,0,0,0,0,0,0,0,-1,1595,575,0,0
378,449,0,0,0,0,0,0,0,0,0,-1,1602,575,0,0
385,449,0,0,0,0,0,0,0,0,0,-1,1609,575,0,0
392,449,7.95471,3.66217,0,0,0,0,0,0,0,-1,1616,575,7.95471,-3.66218
399,449,19.9791,5.565,0,0,0,0,0,0,0,-1,1623,575,19.9791,-5.56499
406,449,22.5933,4.73688,0,0,0,0,0,0,0,-1,1630,575,22.5933,-4.7369
413,449,23.5795,3.19586,0,0,0,0,0,0,0,-1,1637,575,23.5795,-3.19584
420,449,23.9675,1.29718,0,0,0,0,0,0,0,-1,1644,575,23.9675,-1.29721
427,449,24.4276,-0.596558,0,0,0,0,0,0,0,-1,1651,575,24.4277,0.596569
434,449,25.61,-2.96594,0,0,0,0,0,0,0,-1,1658,575,25.61,2.96595
441,449,3.89856,-6.06458,0,0,0,0,0,0,0,-1,1665,575,3.89855,6.06459
448,449,4.03198,-5.18207,0,0,0,0,0,0,0,-1,1672,575,4.03197,5.18207
455,449,4.21948,-4.09467,0,0,0,0,0,0,0,-1,1679,575,4.21952,4.09465
462,449,4.23181,-2.96924,0,0,0,0,0,0,0,-1,1686,575,4.23185,2.96926
469,449,4.51672,-2.95135,0,0,0,0,0,0,0,-1,1693,575,4.51672,2.95135
476,449,4.71838,-1.86688,0,0,0,0,0,0,0,-1,1700,575,4.71842,1.86689
483,449,4.87878,-1.73126,0,0,0,0,0,0,0,-1,1707,575,4.87875,1.73128
490,449,5.73279,-2.74573,0,0,0,0,0,0,0,-1,1714,575,5.73282,2.74575
497,449,10.8314,-8.4375,0,0,0,0,0,0,0,-1,1721,575,10.8314,8.43749
504,449,10.7833,-7.84955,0.00481037,0.00505407,0.00339989,0.00833429,0.00153014,0.80331,0.0051229,0.0433833,1728,575,10.7833,7.84957
511,449,10.8424,-7.45026,0.00398339,0.00369524,0.00273771,0.00658081,0.00109782,0.75911,0.00407091,0.0117634,1735,575,10.8424,7.45024
518,449,10.8588,-7.0802,0.00312949,0.00266259,0.00215126,0.00505993,0.000732149,0.73135,0.00315766,0.013296,1742,575,10.8587,7.08021
525,449,10.8301,-6.72955,0.00226158,0.00193586,0.00162591,0.00373277,0.000464673,0.735482,0.002349,0.0119958,1749,575,10.83,6.72954
532,449,10.8054,-6.36273,0.00142784,0.00132724,0.00115001,0.00252865,0.000226426,0.763543,0.00161559,0.00991472,1756,575,10.8054,6.36274
539,449,10.7898,-5.97064,0.00063341,0.000717973,0.000675228,0.00135224,-8.59378e-07,0.816666,0.000901782,0.0119296,1763,575,10.7897,5.97067
546,449,10.7987,-5.58936,-2.37624e-05,0.000339933,0.000332881,0.000537398,-0.000221228,1.03539,0.000450494,0.0201971,1770,575,10.7987,5.58939
553,449,10.7908,-5.22119,-0.000637214,5.54977e-05,2.064e-05,5.61121e-05,-0.000637828,1.54104,0.000445103,0.0154424,1777,575,10.7907,5.22121
560,449,10.7997,-4.8465,-0.00124586,-0.00021432,-0.000279203,-0.000143598,-0.00131658,-1.32271,0.000833985,0.0133763,1784,575,10.7997,4.84648
567,449,10.7931,-4.47449,-0.00177567,-0.000448214,-0.000515113,-0.000271777,-0.0019521,-1.2408,0.00122093,0.0101822,1791,575,10.793,4.4745
574,449,10.8141,-4.05914,-0.00231457,-0.000731739,-0.000779344,-0.000412428,-0.00263389,-1.18194,0.00163587,0.0217424,1798,575,10.8141,4.05916
581,449,10.8501,-3.59265,0,0,0,0,0,0,0,-1,1805,575,10.8502,3.59265
588,449,10.8149,-2.99463,0,0,0,0,0,0,0,-1,1812,575,10.8149,2.99465
595,449,10.962,-2.29926,0,0,0,0,0,0,0,-1,1819,575,10.9621,2.29926
602,449,9.46167,4.17444,0,0,0,0,0,0,0,-1,1826,575,9.46164,-4.17442
609,449,12.2028,3.18652,0,0,0,0,0,0,0,-1,1833,575,12.2027,-3.18655
616,449,14.9438,2.19867,0,0,0,0,0,0,0,-1,1840,575,14.9438,-2.19867
623,449,9.83789,-0.0820313,0,0,0,0,0,0,0,-1,1847,575,9.83794,0.0820443
630,449,8.90686,4.99329,0,0,0,0,0,0,0,-1,1854,575,8.90685,-4.99327
637,449,0,0,0,0,0,0,0,0,0,-1,1861,575,0,0
644,449,0,0,0,0,0,0,0,0,0,-1,1868,575,0,0
651,449,0,0,0,0,0,0,0,0,0,-1,1875,575,0,0
658,449,0,0,0,0,0,0,0,0,0,-1,1882,575,0,0
665,449,0,0,0,0,0,0,0,0,0,-1,1889,575,0,0
672,449,0,0,0,0,0,0,0,0,0,-1,1896,575,0,0
679,449,0,0,0,0,0,0,0,0,0,-1,1903,575,0,0
686,449,0,0,0,0,0,0,0,0,0,-1,1910,575,0,0
693,449,0,0,0,0,0,0,0,0,0,-1,1917,575,0,0
700,449,0,0,0,0,0,0,0,0,0,-1,1924,575,0,0
707,449,0,0,0,0,0,0,0,0,0,-1,1931,575,0,0
714,449,0,0,0,0,0,0,0,0,0,-1,1938,575,0,0
721,449,0,0,0,0,0,0,0,0,0,-1,1945,575,0,0
728,449,0,0,0,0,0,0,0,0,0,-1,1952,575,0,0
735,449,0,0,0,0,0,0,0,0,0,-1,1959,575,0,0
742,449,0,0,0,0,0,0,0,0,0,-1,1966,575,0,0
749,449,0,0,0,0,0,0,0,0,0,-1,1973,575,0,0
756,449,0,0,0,0,0,0,0,0,0,-1,1980,575,0,0
763,449,0,0,0,0,0,0,0,0,0,-1,1987,575,0,0
770,449,0,0,0,0,0,0,0,0,0,-1,1994,575,0,0
777,449,0,0,0,0,0,0,0,0,0,-1,2001,575,0,0
784,449,0,0,0,0,0,0,0,0,0,-1,2008,575,0,0
791,449,0,0,0,0,0,0,0,0,0,-1,2015,575,0,0
798,449,0,0,0,0,0,0,0,0,0,-1,2022,575,0,0
805,449,0,0,0,0,0,0,0,0,0,-1,2029,575,0,0
812,449,0,0,0,0,0,0,0,0,0,-1,2036,575,0,0
-700,442,0,0,0,0,0,0,0,0,0,-1,524,582,0,0
-693,442,0,0,0,0,0,0,0,0,0,-1,531,582,0,0
-686,442,0,0,0,0,0,0,0,0,0,-1,538,582,0,0
-679,442,0,0,0,0,0,0,0,0,0,-1,545,582,0,0
-672,442,0,0,0,0,0,0,0,0,0,-1,552,582,0,0
-665,442,0,0,0,0,0,0,0,0,0,-1,559,582,0,0
-658,442,0,0,0,0,0,0,0,0,0,-1,566,582,0,0
-651,442,0,0,0,0,0,0,0,0,0,-1,573,582,0,0
-644,442,0,0,0,0,0,0,0,0,0,-1,580,582,0,0
-637,442,0,0,0,0,0,0,0,0,0,-1,587,582,0,0
-630,442,0,0,0,0,0,0,0,0,0,-1,594,582,0,0
-623,442,0,0,0,0,0,0,0,0,0,-1,601,582,0,0
-616,442,0,0,0,0,0,0,0,0,0,-1,608,582,0,0
-609,442,0,0,0,0,0,0,0,0,0,-1,615,582,0,0
-602,442,0,0,0,0,0,0,0,0,0,-1,622,582,0,0
-595,442,0,0,0,0,0,0,0,0,0,-1,629,582,0,0
-588,442,0,0,0,0,0,0,0,0,0,-1,636,582,0,0
-581,442,0,0,0,0,0,0,0,0,0,-1,643,582,0,0
-574,442,0,0,0,0,0,0,0,0,0,-1,650,582,0,0
-567,442,0,0,0,0,0,0,0,0,0,-1,657,582,0,0
-560,442,0,0,0,0,0,0,0,0,0,-1,664,582,0,0
-553,442,0,0,0,0,0,0,0,0,0,-1,671,582,0,0
-546,442,0,0,0,0,0,0,0,0,0,-1,678,582,0,0
-539,442,0,0,0,0,0,0,0,0,0,-1,685,582,0,0
-532,442,0,0,0,0,0,0,0,0,0,-1,692,582,0,0
-525,442,0,0,0,0,0,0,0,0,0,-1,699,582,0,0
-518,442,-0.493774,-5.72943,0,0,0,0,0,0,0,-1,706,582,-0.493791,5.72946
-511,442,-1.33008,-6.18512,0,0,0,0,0,0,0,-1,713,582,-1.33006,6.18511
-504,442,-3.20807,-6.34082,0,0,0,0,0,0,0,-1,720,582,-3.2081,6.34083
-497,442,-13.6886,-0.250122,0,0,0,0,0,0,0,-1,727,582,-13.6886,0.250143
-490,442,-9.09039,-3.64862,0,0,0,0,0,0,0,-1,734,582,-9.09037,3.64861
-483,442,-7.36499,-1.01892,0,0,0,0,0,0,0,-1,741,582,-7.365,1.01895
-476,442,-4.62225,-3.47467,0,0,0,0,0,0,0,-1,748,582,-4.62225,3.47465
-469,442,-3.58197,-4.37445,0,0,0,0,0,0,0,-1,755,582,-3.58197,4.37447
-462,442,-3.72205,-5.03284,0.00661665,0.0111539,-0.00980684,0.0189511,-0.00118054,-0.899064,0.0130454,0.0387161,762,582,-3.72205,5.03284
-455,442,-3.85065,-5.487,0.00442078,0.0082271,-0.00728281,0.0138513,-0.00120343,-0.913201,0.00966037,0.0310686,769,582,-3.85063,5.48702
-448,442,-3.7702,-5.8067,0.00268648,0.00623097,-0.00516713,0.00992133,-0.00100388,-0.950604,0.00697298,0.0146775,776,582,-3.77019,5.80672
-441,442,-3.79041,-6.16992,0.0015772,0.00458797,-0.00356549,0.00695284,-0.000787669,-0.985151,0.00491885,0.0135812,783,582,-3.79038,6.16992
-434,442,-3.80994,-6.51001,0.000643873,0.0029415,-0.00212345,0.00420698,-0.000621607,-1.03336,0.00303316,0.0135116,790,582,-3.80993,6.51
-427,442,-3.81982,-6.84351,-2.18507e-05,0.00188557,-0.00106711,0.00236305,-0.000499325,-1.15007,0.0017655,0.0134385,797,582,-3.81983,6.84348
-420,442,-3.81573,-7.19843,-0.000809581,0.00082912,4.22373e-05,0.000830208,-0.000810669,1.54504,0.000947383,0.0138718,804,582,-3.81571,7.19842
-413,442,-3.80103,-7.55603,-0.00142713,-0.000176279,0.000999595,0.000377425,-0.00198083,1.06494,0.00146269,0.0113715,811,582,-3.80105,7.55602
-406,442,-3.81622,-7.91095,-0.00179929,-0.000979845,0.00180446,0.000460828,-0.00323996,0.897035,0.00232883,0.00930788,818,582,-3.81619,7.91097
-399,442,-3.82965,-8.2713,-0.00228375,-0.00182238,0.00264703,0.000603996,-0.00471013,0.828862,0.00335956,0.00857195,825,582,-3.82966,8.27127
-392,442,-3.82318,-8.58813,-0.00292723,-0.0027639,0.00358237,0.000737734,-0.00642886,0.796794,0.00455179,0.0105035,832,582,-3.8232,8.58816
-385,442,-3.82281,-8.91022,-0.00367979,-0.00389408,0.00459669,0.000811001,-0.00838487,0.773746,0.00587892,0.0118496,839,582,-3.8228,8.91022
-378,442,-3.82672,-9.27191,-0.00464388,-0.00512981,0.00583575,0.000953955,-0.0107276,0.764593,0.00749003,0.0127854,846,582,-3.82674,9.27189
-371,442,-3.8205,-9.6488,-0.00567322,-0.00657101,0.00724219,0.00113397,-0.0133782,0.754446,0.00931981,0.0261542,853,582,-3.8205,9.64881
-364,442,-4.00146,-9.86804,-0.00667452,-0.0082654,0.00871609,0.00128235,-0.0162223,0.739894,0.0112666,0.047104,860,582,-4.00147,9.86802
-357,442,-4.12799,-10.1332,0,0,0,0,0,0,0,-1,867,582,-4.12798,10.1332
-350,442,-1.75372,-6.27618,0,0,0,0,0,0,0,-1,874,582,-1.75371,6.27618
-343,442,-1.4599,-4.63605,0,0,0,0,0,0,0,-1,881,582,-1.4599,4.63607
-336,442,-1.4054,-2.64313,0,0,0,0,0,0,0,-1,888,582,-1.40539,2.64315
-329,442,-0.952576,-2.76923,0,0,0,0,0,0,0,-1,895,582,-0.952571,2.7692
-322,442,-0.972534,-2.63208,0,0,0,0,0,0,0,-1,902,582,-0.972512,2.6321
-315,442,-0.445557,-2.89764,0,0,0,0,0,0,0,-1,909,582,-0.445582,2.89765
-308,442,-0.654175,-3.07831,0,0,0,0,0,0,0,-1,916,582,-0.654145,3.07832
-301,442,-1.37427,-2.41455,0,0,0,0,0,0,0,-1,923,582,-1.37425,2.41453
-294,442,-2.99963,-2.07855,0,0,0,0,0,0,0,-1,930,582,-2.99964,2.07857
-287,442,-5.62799,-2.76422,0,0,0,0,0,0,0,-1,937,582,-5.628,2.76424
-280,442,0,0,0,0,0,0,0,0,0,-1,944,582,0,0
-273,442,0,0,0,0,0,0,0,0,0,-1,951,582,0,0
-266,442,0,0,0,0,0,0,0,0,0,-1,958,582,0,0
-259,442,0,0,0,0,0,0,0,0,0,-1,965,582,0,0
-252,442,0,0,0,0,0,0,0,0,0,-1,972,582,0,0
-245,442,0,0,0,0,0,0,0,0,0,-1,979,582,0,0
-238,442,0,0,0,0,0,0,0,0,0,-1,986,582,0,0
-231,442,0,0,0,0,0,0,0,0,0,-1,993,582,0,0
-224,442,0,0,0,0,0,0,0,0,0,-1,1000,582,0,0
-217,442,0,0,0,0,0,0,0,0,0,-1,1007,582,0,0
-210,442,0,0,0,0,0,0,0,0,0,-1,1014,582,0,0
-203,442,0,0,0,0,0,0,0,0,0,-1,1021,582,0,0
-196,442,0,0,0,0,0,0,0,0,0,-1,1028,582,0,0
-189,442,0,0,0,0,0,0,0,0,0,-1,1035,582,0,0
-182,442,0,0,0,0,0,0,0,0,0,-1,1042,582,0,0
-175,442,0,0,0,0,0,0,0,0,0,-1,1049,582,0,0
-168,442,0,0,0,0,0,0,0,0,0,-1,1056,582,0,0
-161,442,0,0,0,0,0,0,0,0,0,-1,1063,582,0,0
-154,442,0,0,0,0,0,0,0,0,0,-1,1070,582,0,0
-147,442,0,0,0,0,0,0,0,0,0,-1,1077,582,0,0
-140,442,0,0,0,0,0,0,0,0,0,-1,1084,582,0,0
-133,442,0,0,0,0,0,0,0,0,0,-1,1091,582,0,0
-126,442,0,0,0,0,0,0,0,0,0,-1,1098,582,0,0
-119,442,0,0,0,0,0,0,0,0,0,-1,1105,582,0,0
-112,442,0,0,0,0,0,0,0,0,0,-1,1112,582,0,0
-105,442,0,0,0,0,0,0,0,0,0,-1,1119,582,0,0
-98,442,0,0,0,0,0,0,0,0,0,-1,1126,582,0,0
-91,442,0,0,0,0,0,0,0,0,0,-1,1133,582,0,0
-84,442,0,0,0,0,0,0,0,0,0,-1,1140,582,0,0
-77,442,0,0,0,0,0,0,0,0,0,-1,1147,582,0,0
-70,442,0,0,0,0,0,0,0,0,0,-1,1154,582,0,0
-63,442,0,0,0,0,0,0,0,0,0,-1,1161,582,0,0
-56,442,0,0,0,0,0,0,0,0,0,-1,1168,582,0,0
-49,442,0,0,0,0,0,0,0,0,0,-1,1175,582,0,0
-42,442,0,0,0,0,0,0,0,0,0,-1,1182,582,0,0
-35,442,0,0,0,0,0,0,0,0,0,-1,1189,582,0,0
-28,442,0,0,0,0,0,0,0,0,0,-1,1196,582,0,0
-21,442,0,0,0,0,0,0,0,0,0,-1,1203,582,0,0
-14,442,0,0,0,0,0,0,0,0,0,-1,1210,582,0,0
-7,442,0,0,0,0,0,0,0,0,0,-1,1217,582,0,0
0,442,0,0,0,0,0,0,0,0,0,-1,1224,582,0,0
7,442,0,0,0,0,0,0,0,0,0,-1,1231,582,0,0
14,442,0,0,0,0,0,0,0,0,0,-1,1238,582,0,0
21,442,0,0,0,0,0,0,0,0,0,-1,1245,582,0,0
28,442,0,0,0,0,0,0,0,0,0,-1,1252,582,0,0
35,442,0,0,0,0,0,0,0,0,0,-1,1259,582,0,0
42,442,0,0,0,0,0,0,0,0,0,-1,1266,582,0,0
49,442,0,0,0,0,0,0,0,0,0,-1,1273,582,0,0
56,442,0,0,0,0,0,0,0,0,0,-1,1280,582,0,0
63,442,0,0,0,0,0,0,0,0,0,-1,1287,582,0,0
70,442,0,0,0,0,0,0,0,0,0,-1,1294,582,0,0
77,442,0,0,0,0,0,0,0,0,0,-1,1301,582,0,0
84,442,0,0,0,0,0,0,0,0,0,-1,1308,582,0,0
91,442,0,0,0,0,0,0,0,0,0,-1,1315,582,0,0
98,442,0,0,0,0,0,0,0,0,0,-1,1322,582,0,0
105,442,0,0,0,0,0,0,0,0,0,-1,1329,582,0,0
112,442,0,0,0,0,0,0,0,0,0,-1,1336,582,0,0
119,442,0,0,0,0,0,0,0,0,0,-1,1343,582,0,0
126,442,0,0,0,0,0,0,0,0,0,-1,1350,582,0,0
133,442,0,0,0,0,0,0,0,0,0,-1,1357,582,0,0
140,442,0,0,0,0,0,0,0,0,0,-1,1364,582,0,0
147,442,0,0,0,0,0,0,0,0,0,-1,1371,582,0,0
154,442,0,0,0,0,0,0,0,0,0,-1,1378,582,0,0
161,442,0,0,0,0,0,0,0,0,0,-1,1385,582,0,0
168,442,0,0,0,0,0,0,0,0,0,-1,1392,582,0,0
175,442,0,0,0,0,0,0,0,0,0,-1,1399,582,0,0
182,442,0,0,0,0,0,0,0,0,0,-1,1406,582,0,0
189,442,0,0,0,0,0,0,0,0,0,-1,1413,582,0,0
196,442,0,0,0,0,0,0,0,0,0,-1,1420,582,0,0
203,442,0,0,0,0,0,0,0,0,0,-1,1427,582,0,0
210,442,0,0,0,0,0,0,0,0,0,-1,1434,582,0,0
217,442,0,0,0,0,0,0,0,0,0,-1,1441,582,0,0
224,442,0,0,0,0,0,0,0,0,0,-1,1448,582,0,0
231,442,0,0,0,0,0,0,0,0,0,-1,1455,582,0,0
238,442,0,0,0,0,0,0,0,0,0,-1,1462,582,0,0
245,442,0,0,0,0,0,0,0,0,0,-1,1469,582,0,0
252,442,0,0,0,0,0,0,0,0,0,-1,1476,582,0,0
259,442,0,0,0,0,0,0,0,0,0,-1,1483,582,0,0
266,442,0,0,0,0,0,0,0,0,0,-1,1490,582,0,0
273,442,0,0,0,0,0,0,0,0,0,-1,1497,582,0,0
280,442,0,0,0,0,0,0,0,0,0,-1,1504,582,0,0
287,442,0,0,0,0,0,0,0,0,0,-1,1511,582,0,0
294,442,0,0,0,0,0,0,0,0,0,-1,1518,582,0,0
301,442,0,0,0,0,0,0,0,0,0,-1,1525,582,0,0
308,442,0,0,0,0,0,0,0,0,0,-1,1532,582,0,0
315,442,0,0,0,0,0,0,0,0,0,-1,1539,582,0,0
322,442,0,0,0,0,0,0,0,0,0,-1,1546,582,0,0
329,442,0,0,0,0,0,0,0,0,0,-1,1553,582,0,0
336,442,0,0,0,0,0,0,0,0,0,-1,1560,582,0,0
343,442,0,0,0,0,0,0,0,0,0,-1,1567,582,0,0
350,442,0,0,0,0,0,0,0,0,0,-1,1574,582,0,0
357,442,0,0,0,0,0,0,0,0,0,-1,1581,582,0,0
364,442,0,0,0,0,0,0,0,0,0,-1,1588,582,0,0
371,442,0,0,0,0,0,0,0,0,0,-1,1595,582,0,0
378,442,0,0,0,0,0,0,0,0,0,-1,1602,582,0,0
385,442,0,0,0,0,0,0,0,0,0,-1,1609,582,0,0
392,442,0,0,0,0,0,0,0,0,0,-1,1616,582,0,0
399,442,0,0,0,0,0,0,0,0,0,-1,1623,582,0,0
406,442,17.6321,4.08295,0,0,0,0,0,0,0,-1,1630,582,17.6321,-4.08293
413,442,22.1273,3.56525,0,0,0,0,0,0,0,-1,1637,582,22.1273,-3.56525
420,442,22.7478,1.55011,0,0,0,0,0,0,0,-1,1644,582,22.7478,-1.55009
427,442,23.2969,-0.456787,0,0,0,0,0,0,0,-1,1651,582,23.2968,0.456769
434,442,23.9512,-2.49365,0,0,0,0,0,0,0,-1,1658,582,23.9512,2.49366
441,442,24.8251,-4.43958,0,0,0,0,0,0,0,-1,1665,582,24.8251,4.43956
448,442,4.7749,-5.88562,0,0,0,0,0,0,0,-1,1672,582,4.7749,5.8856
455,442,4.87024,-4.60687,0,0,0,0,0,0,0,-1,1679,582,4.87019,4.60686
462,442,5.02307,-3.72821,0,0,0,0,0,0,0,-1,1686,582,5.02311,3.7282
469,442,5.12976,-2.98834,0,0,0,0,0,0,0,-1,1693,582,5.12971,2.98834
476,442,5.4624,1.76947,0,0,0,0,0,0,0,-1,1700,582,5.46234,-1.76944
483,442,5.98486,1.87042,0,0,0,0,0,0,0,-1,1707,582,5.98492,-1.87045
490,442,5.04407,-2.35834,0,0,0,0,0,0,0,-1,1714,582,5.04411,2.35837
497,442,6.20984,-3.07831,0,0,0,0,0,0,0,-1,1721,582,6.2098,3.07833
504,442,11.0613,-7.87323,0,0,0,0,0,0,0,-1,1728,582,11.0612,7.87325
511,442,11.1215,-7.46912,0.00471332,0.00431183,0.00314791,0.00766688,0.00135827,0.753555,0.00472404,0.0290342,1735,582,11.1215,7.46912
518,442,11.2148,-7.05261,0.00385309,0.00308642,0.00249852,0.00599751,0.000941999,0.709279,0.00372427,0.0115447,1742,582,11.2148,7.05262
525,442,11.1909,-6.7016,0.00296557,0.00230312,0.00194812,0.00461043,0.00065827,0.701192,0.00287939,0.010273,1749,582,11.1909,6.70159
532,442,11.1851,-6.33008,0.00214574,0.0016121,0.00145257,0.00335579,0.000402052,0.694565,0.00211595,0.0102796,1756,582,11.1851,6.3301
539,442,11.1781,-5.94348,0.00137493,0.00095972,0.000969393,0.0021587,0.000175952,0.679911,0.00138422,0.01078,1763,582,11.1781,5.94347
546,442,11.1766,-5.61169,0.000745981,0.000557562,0.000628206,0.001287,1.65405e-05,0.71097,0.000852542,0.0140465,1770,582,11.1766,5.61168
553,442,11.1578,-5.24219,0.000164752,0.000240265,0.000325421,0.000530113,-0.000125096,0.843151,0.000401654,0.015881,1777,582,11.1578,5.24221
560,442,11.173,-4.84198,-0.000432889,-2.87913e-05,3.49814e-05,-2.57855e-05,-0.000435895,1.48508,0.000282394,0.0145288,1784,582,11.1729,4.84199
567,442,11.1531,-4.4563,-0.000962107,-0.000218216,-0.000178786,-0.000177478,-0.00100285,-1.34676,0.000617959,0.0107013,1791,582,11.1531,4.4563
574,442,11.1825,-4.07983,-0.0014552,-0.000404058,-0.000370986,-0.000286313,-0.00157294,-1.26347,0.000967417,0.0135963,1798,582,11.1825,4.07983
581,442,11.2247,-3.65509,-0.00198706,-0.000589765,-0.000534859,-0.000408535,-0.00216829,-1.2441,0.00133042,0.0233854,1805,582,11.2247,3.65511
588,442,11.1598,-3.45367,-0.00241964,-0.00063071,-0.00056184,-0.000468892,-0.00258146,-1.29037,0.00158792,0.0393534,1812,582,11.1598,3.45369
595,442,11.34,-3.03113,0,0,0,0,0,0,0,-1,1819,582,11.34,3.03113
602,442,11.1647,-1.88696,0,0,0,0,0,0,0,-1,1826,582,11.1647,1.88695
609,442,12.761,2.97223,0,0,0,0,0,0,0,-1,1833,582,12.761,-2.97221
616,442,9.78345,-0.103394,0,0,0,0,0,0,0,-1,1840,582,9.78341,0.103424
623,442,9.23828,0.326721,0,0,0,0,0,0,0,-1,1847,582,9.23829,-0.326727
630,442,7.74304,2.3924,0,0,0,0,0,0,0,-1,1854,582,7.7431,-2.39238
637,442,5.87805,1.84027,0,0,0,0,0,0,0,-1,1861,582,5.87807,-1.84025
644,442,0,0,0,0,0,0,0,0,0,-1,1868,582,0,0
651,442,0,0,0,0,0,0,0,0,0,-1,1875,582,0,0
658,442,0,0,0,0,0,0,0,0,0,-1,1882,582,0,0
665,442,0,0,0,0,0,0,0,0,0,-1,1889,582,0,0
672,442,0,0,0,0,0,0,0,0,0,-1,1896,582,0,0
679,442,0,0,0,0,0,0,0,0,0,-1,1903,582,0,0
686,442,0,0,0,0,0,0,0,0,0,-1,1910,582,0,0
693,442,0,0,0,0,0,0,0,0,0,-1,1917,582,0,0
700,442,0,0,0,0,0,0,0,0,0,-1,1924,582,0,0
707,442,0,0,0,0,0,0,0,0,0,-1,1931,582,0,0
714,442,0,0,0,0,0,0,0,0,0,-1,1938,582,0,0
721,442,0,0,0,0,0,0,0,0,0,-1,1945,582,0,0
728,442,0,0,0,0,0,0,0,0,0,-1,1952,582,0,0
735,442,0,0,0,0,0,0,0,0,0,-1,1959,582,0,0
742,442,0,0,0,0,0,0,0,0,0,-1,1966,582,0,0
749,442,0,0,0,0,0,0,0,0,0,-1,1973,582,0,0
756,442,0,0,0,0,0,0,0,0,0,-1,1980,582,0,0
763,442,0,0,0,0,0,0,0,0,0,-1,1987,582,0,0
770,442,0,0,0,0,0,0,0,0,0,-1,1994,582,0,0
777,442,0,0,0,0,0,0,0,0,0,-1,2001,582,0,0
784,442,0,0,0,0,0,0,0,0,0,-1,2008,582,0,0
791,442,0,0,0,0,0,0,0,0,0,-1,2015,582,0,0
798,442,0,0,0,0,0,0,0,0,0,-1,2022,582,0,0
805,442,0,0,0,0,0,0,0,0,0,-1,2029,582,0,0
812,442,0,0,0,0,0,0,0,0,0,-1,2036,582,0,0
-700,435,0,0,0,0,0,0,0,0,0,-1,524,589,0,0
-693,435,0,0,0,0,0,0,0,0,0,-1,531,589,0,0
-686,435,0,0,0,0,0,0,0,0,0,-1,538,589,0,0
-679,435,0,0,0,0,0,0,0,0,0,-1,545,589,0,0
-672,435,0,0,0,0,0,0,0,0,0,-1,552,589,0,0
-665,435,0,0,0,0,0,0,0,0,0,-1,559,589,0,0
-658,435,0,0,0,0,0,0,0,0,0,-1,566,589,0,0
-651,435,0,0,0,0,0,0,0,0,0,-1,573,589,0,0
-644,435,0,0,0,0,0,0,0,0,0,-1,580,589,0,0
-637,435,0,0,0,0,0,0,0,0,0,-1,587,589,0,0
-630,435,0,0,0,0,0,0,0,0,0,-1,594,589,0,0
-623,435,0,0,0,0,0,0,0,0,0,-1,601,589,0,0
-616,435,0,0,0,0,0,0,0,0,0,-1,608,589,0,0
-609,435,0,0,0,0,0,0,0,0,0,-1,615,589,0,0
-602,435,0,0,0,0,0,0,0,0,0,-1,622,589,0,0
-595,435,0,0,0,0,0,0,0,0,0,-1,629,589,0,0
-588,435,0,0,0,0,0,0,0,0,0,-1,636,589,0,0
-581,435,0,0,0,0,0,0,0,0,0,-1,643,589,0,0
-574,435,0,0,0,0,0,0,0,0,0,-1,650,589,0,0
-567,435,0,0,0,0,0,0,0,0,0,-1,657,589,0,0
-560,435,0,0,0,0,0,0,0,0,0,-1,664,589,0,0
-553,435,0,0,0,0,0,0,0,0,0,-1,671,589,0,0
-546,435,0,0,0,0,0,0,0,0,0,-1,678,589,0,0
-539,435,0,0,0,0,0,0,0,0,0,-1,685,589,0,0
-532,435,0,0,0,0,0,0,0,0,0,-1,692,589,0,0
-525,435,-10.0776,10.0547,0,0,0,0,0,0,0,-1,699,589,-10.0776,-10.0547
-518,435,-1.83093,-5.82367,0,0,0,0,0,0,0,-1,706,589,-1.83093,5.8237
-511,435,-2.45154,-5.33118,0,0,0,0,0,0,0,-1,713,589,-2.45151,5.33115
-504,435,-3.07208,-4.83862,0,0,0,0,0,0,0,-1,720,589,-3.0721,4.8386
-497,435,-6.31012,-5.84698,0,0,0,0,0,0,0,-1,727,589,-6.31012,5.84697
-490,435,-5.81903,-0.458679,0,0,0,0,0,0,0,-1,734,589,-5.81902,0.458684
-483,435,-6.2019,-1.34552,0,0,0,0,0,0,0,-1,741,589,-6.20193,1.34554
-476,435,-4.4859,-3.90613,0,0,0,0,0,0,0,-1,748,589,-4.48587,3.90615
-469,435,-4.22131,-4.42444,0.00840617,0.0129816,-0.0110344,0.021963,-0.000575199,-0.887613,0.0148374,0.0313309,755,589,-4.22132,4.42444
-462,435,-4.02728,-5.04016,0.00597867,0.00950985,-0.00833213,0.0162614,-0.000772883,-0.889805,0.0111075,0.0175897,762,589,-4.02728,5.04013
-455,435,-4.12048,-5.39618,0.00418382,0.00689946,-0.00623039,0.0119183,-0.000834994,-0.892688,0.00823797,0.0163347,769,589,-4.12051,5.39619
-448,435,-4.12524,-5.7998,0.00269085,0.00507069,-0.00437232,0.00841211,-0.000650575,-0.918255,0.00583703,0.0128925,776,589,-4.12524,5.79982
-441,435,-4.12708,-6.14667,0.0015995,0.00357955,-0.00290766,0.00566111,-0.000482054,-0.949487,0.00394459,0.0112029,783,589,-4.12709,6.14665
-434,435,-4.14294,-6.47577,0.000625022,0.00203885,-0.00153418,0.00302114,-0.000357273,-1.00129,0.00214313,0.0126868,790,589,-4.14297,6.47574
-427,435,-4.15234,-6.82813,-0.000159238,0.00103968,-0.000481916,0.00120937,-0.000328931,-1.23223,0.000935374,0.00989251,797,589,-4.15237,6.8281
-420,435,-4.1593,-7.17944,-0.00108619,7.06981e-06,0.000678664,0.00033187,-0.00141099,1.12443,0.0010686,0.00970244,804,589,-4.15928,7.17942
-413,435,-4.15405,-7.53986,-0.0018924,-0.00104028,0.00175797,0.000342529,-0.0032752,0.904285,0.00230614,0.0107521,811,589,-4.15403,7.53983
-406,435,-4.15186,-7.8913,-0.0025116,-0.00191759,0.00270617,0.000507822,-0.00493701,0.840055,0.00347301,0.0109451,818,589,-4.15187,7.89128
-399,435,-4.16418,-8.2478,-0.00327937,-0.00288288,0.00373862,0.000662746,-0.006825,0.811886,0.00478623,0.00904024,825,589,-4.16416,8.24781
-392,435,-4.17004,-8.58191,-0.00423946,-0.00392499,0.00491075,0.000831035,-0.00899549,0.801402,0.00629232,0.0100314,832,589,-4.17002,8.58193
-385,435,-4.16302,-8.91461,-0.0054004,-0.00525938,0.00624614,0.000916645,-0.0115764,0.791042,0.0080406,0.0135522,839,589,-4.16302,8.91461
-378,435,-4.17889,-9.2403,-0.00687583,-0.00682643,0.0079378,0.0010867,-0.014789,0.786954,0.0102408,0.0259509,846,589,-4.17886,9.24031
-371,435,-4.46777,-9.46661,-0.00844687,-0.00866787,0.00989092,0.00133417,-0.0184489,0.779812,0.0127673,0.0436784,853,589,-4.46776,9.46664
-364,435,-4.64429,-9.56287,-0.0100745,-0.0109043,0.012051,0.00156874,-0.0225475,0.76819,0.015581,0.046644,860,589,-4.6443,9.56285
-357,435,-4.68292,-9.67798,0,0,0,0,0,0,0,-1,867,589,-4.68294,9.67795
-350,435,-0.86676,-3.69836,0,0,0,0,0,0,0,-1,874,589,-0.866784,3.69834
-343,435,-1.60706,-2.36835,0,0,0,0,0,0,0,-1,881,589,-1.60706,2.36838
-336,435,-2.07263,-1.94012,0,0,0,0,0,0,0,-1,888,589,-2.07265,1.94014
-329,435,-2.55963,-1.5517,0,0,0,0,0,0,0,-1,895,589,-2.5596,1.55168
-322,435,-3.08545,-1.55255,0,0,0,0,0,0,0,-1,902,589,-3.08544,1.55254
-315,435,-0.404297,-2.63763,0,0,0,0,0,0,0,-1,909,589,-0.404276,2.63761
-308,435,-1.70056,-1.90369,0,0,0,0,0,0,0,-1,916,589,-1.70056,1.90367
-301,435,-1.25232,-2.05511,0,0,0,0,0,0,0,-1,923,589,-1.25234,2.05514
-294,435,-1.79974,-1.97321,0,0,0,0,0,0,0,-1,930,589,-1.79973,1.97322
-287,435,0,0,0,0,0,0,0,0,0,-1,937,589,0,0
-280,435,0,0,0,0,0,0,0,0,0,-1,944,589,0,0
-273,435,0,0,0,0,0,0,0,0,0,-1,951,589,0,0
-266,435,0,0,0,0,0,0,0,0,0,-1,958,589,0,0
-259,435,0,0,0,0,0,0,0,0,0,-1,965,589,0,0
-252,435,0,0,0,0,0,0,0,0,0,-1,972,589,0,0
-245,435,0,0,0,0,0,0,0,0,0,-1,979,589,0,0
-238,435,0,0,0,0,0,0,0,0,0,-1,986,589,0,0
-231,435,0,0,0,0,0,0,0,0,0,-1,993,589,0,0
-224,435,0,0,0,0,0,0,0,0,0,-1,1000,589,0,0
-217,435,0,0,0,0,0,0,0,0,0,-1,1007,589,0,0
-210,435,0,0,0,0,0,0,0,0,0,-1,1014,589,0,0
-203,435,0,0,0,0,0,0,0,0,0,-1,1021,589,0,0
-196,435,0,0,0,0,0,0,0,0,0,-1,1028,589,0,0
-189,435,0,0,0,0,0,0,0,0,0,-1,1035,589,0,0
-182,435,0,0,0,0,0,0,0,0,0,-1,1042,589,0,0
-175,435,0,0,0,0,0,0,0,0,0,-1,1049,589,0,0
-168,435,0,0,0,0,0,0,0,0,0,-1,1056,589,0,0
-161,435,0,0,0,0,0,0,0,0,0,-1,1063,589,0,0
-154,435,0,0,0,0,0,0,0,0,0,-1,1070,589,0,0
-147,435,0,0,0,0,0,0,0,0,0,-1,1077,589,0,0
-140,435,0,0,0,0,0,0,0,0,0,-1,1084,589,0,0
-133,435,0,0,0,0,0,0,0,0,0,-1,1091,589,0,0
-126,435,0,0,0,0,0,0,0,0,0,-1,1098,589,0,0
-119,435,0,0,0,0,0,0,0,0,0,-1,1105,589,0,0
-112,435,0,0,0,0,0,0,0,0,0,-1,1112,589,0,0
-105,435,0,0,0,0,0,0,0,0,0,-1,1119,589,0,0
-98,435,0,0,0,0,0,0,0,0,0,-1,1126,589,0,0
-91,435,0,0,0,0,0,0,0,0,0,-1,1133,589,0,0
-84,435,0,0,0,0,0,0,0,0,0,-1,1140,589,0,0
-77,435,0,0,0,0,0,0,0,0,0,-1,1147,589,0,0
-70,435,0,0,0,0,0,0,0,0,0,-1,1154,589,0,0
-63,435,0,0,0,0,0,0,0,0,0,-1,1161,589,0,0
-56,435,0,0,0,0,0,0,0,0,0,-1,1168,589,0,0
-49,435,0,0,0,0,0,0,0,0,0,-1,1175,589,0,0
-42,435,0,0,0,0,0,0,0,0,0,-1,1182,589,0,0
-35,435,0,0,0,0,0,0,0,0,0,-1,1189,589,0,0
-28,435,0,0,0,0,0,0,0,0,0,-1,1196,589,0,0
-21,435,0,0,0,0,0,0,0,0,0,-1,1203,589,0,0
-14,435,0,0,0,0,0,0,0,0,0,-1,1210,589,0,0
-7,435,0,0,0,0,0,0,0,0,0,-1,1217,589,0,0
0,435,0,0,0,0,0,0,0,0,0,-1,1224,589,0,0
7,435,0,0,0,0,0,0,0,0,0,-1,1231,589,0,0
14,435,0,0,0,0,0,0,0,0,0,-1,1238,589,0,0
21,435,0,0,0,0,0,0,0,0,0,-1,1245,589,0,0
28,435,0,0,0,0,0,0,0,0,0,-1,1252,589,0,0
35,435,0,0,0,0,0,0,0,0,0,-1,1259,589,0,0
42,435,0,0,0,0,0,0,0,0,0,-1,1266,589,0,0
49,435,0,0,0,0,0,0,0,0,0,-1,1273,589,0,0
56,435,0,0,0,0,0,0,0,0,0,-1,1280,589,0,0
63,435,0,0,0,0,0,0,0,0,0,-1,1287,589,0,0
70,435,0,0,0,0,0,0,0,0,0,-1,1294,589,0,0
77,435,0,0,0,0,0,0,0,0,0,-1,1301,589,0,0
84,435,0,0,0,0,0,0,0,0,0,-1,1308,589,0,0
91,435,0,0,0,0,0,0,0,0,0,-1,1315,589,0,0
98,435,0,0,0,0,0,0,0,0,0,-1,1322,589,0,0
105,435,0,0,0,0,0,0,0,0,0,-1,1329,589,0,0
112,435,0,0,0,0,0,0,0,0,0,-1,1336,589,0,0
119,435,0,0,0,0,0,0,0,0,0,-1,1343,589,0,0
126,435,0,0,0,0,0,0,0,0,0,-1,1350,589,0,0
133,435,0,0,0,0,0,0,0,0,0,-1,1357,589,0,0
140,435,0,0,0,0,0,0,0,0,0,-1,1364,589,0,0
147,435,0,0,0,0,0,0,0,0,0,-1,1371,589,0,0
154,435,0,0,0,0,0,0,0,0,0,-1,1378,589,0,0
161,435,0,0,0,0,0,0,0,0,0,-1,1385,589,0,0
168,435,0,0,0,0,0,0,0,0,0,-1,1392,589,0,0
175,435,0,0,0,0,0,0,0,0,0,-1,1399,589,0,0
182,435,0,0,0,0,0,0,0,0,0,-1,1406,589,0,0
189,435,0,0,0,0,0,0,0,0,0,-1,1413,589,0,0
196,435,0,0,0,0,0,0,0,0,0,-1,1420,589,0,0
203,435,0,0,0,0,0,0,0,0,0,-1,1427,589,0,0
210,435,0,0,0,0,0,0,0,0,0,-1,1434,589,0,0
217,435,0,0,0,0,0,0,0,0,0,-1,1441,589,0,0
224,435,0,0,0,0,0,0,0,0,0,-1,1448,589,0,0
231,435,0,0,0,0,0,0,0,0,0,-1,1455,589,0,0
238,435,0,0,0,0,0,0,0,0,0,-1,1462,589,0,0
245,435,0,0,0,0,0,0,0,0,0,-1,1469,589,0,0
252,435,0,0,0,0,0,0,0,0,0,-1,1476,589,0,0
259,435,0,0,0,0,0,0,0,0,0,-1,1483,589,0,0
266,435,0,0,0,0,0,0,0,0,0,-1,1490,589,0,0
273,435,0,0,0,0,0,0,0,0,0,-1,1497,589,0,0
280,435,0,0,0,0,0,0,0,0,0,-1,1504,589,0,0
287,435,0,0,0,0,0,0,0,0,0,-1,1511,589,0,0
294,435,0,0,0,0,0,0,0,0,0,-1,1518,589,0,0
301,435,0,0,0,0,0,0,0,0,0,-1,1525,589,0,0
308,435,0,0,0,0,0,0,0,0,0,-1,1532,589,0,0
315,435,0,0,0,0,0,0,0,0,0,-1,1539,589,0,0
322,435,0,0,0,0,0,0,0,0,0,-1,1546,589,0,0
329,435,0,0,0,0,0,0,0,0,0,-1,1553,589,0,0
336,435,0,0,0,0,0,0,0,0,0,-1,1560,589,0,0
343,435,0,0,0,0,0,0,0,0,0,-1,1567,589,0,0
350,435,0,0,0,0,0,0,0,0,0,-1,1574,589,0,0
357,435,0,0,0,0,0,0,0,0,0,-1,1581,589,0,0
364,435,0,0,0,0,0,0,0,0,0,-1,1588,589,0,0
371,435,0,0,0,0,0,0,0,0,0,-1,1595,589,0,0
378,435,0,0,0,0,0,0,0,0,0,-1,1602,589,0,0
385,435,0,0,0,0,0,0,0,0,0,-1,1609,589,0,0
392,435,0,0,0,0,0,0,0,0,0,-1,1616,589,0,0
399,435,0,0,0,0,0,0,0,0,0,-1,1623,589,0,0
406,435,0,0,0,0,0,0,0,0,0,-1,1630,589,0,0
413,435,20.4565,3.49835,0,0,0,0,0,0,0,-1,1637,589,20.4565,-3.49836
420,435,21.4015,1.49609,0,0,0,0,0,0,0,-1,1644,589,21.4015,-1.49609
427,435,22.0464,-0.373962,0,0,0,0,0,0,0,-1,1651,589,22.0464,0.373972
434,435,22.1863,-1.54407,0,0,0,0,0,0,0,-1,1658,589,22.1862,1.54405
441,435,22.3992,-2.38287,0,0,0,0,0,0,0,-1,1665,589,22.3992,2.38289
448,435,7.4585,-0.00292969,0,0,0,0,0,0,0,-1,1672,589,7.45848,0.00294131
455,435,5.49915,-5.047,0,0,0,0,0,0,0,-1,1679,589,5.49914,5.04703
462,435,5.60669,-4.71466,0,0,0,0,0,0,0,-1,1686,589,5.60675,4.71469
469,435,5.87708,1.22351,0,0,0,0,0,0,0,-1,1693,589,5.87703,-1.22351
476,435,6.14136,1.37714,0,0,0,0,0,0,0,-1,1700,589,6.14138,-1.37712
483,435,6.49243,1.36169,0,0,0,0,0,0,0,-1,1707,589,6.49242,-1.36171
490,435,4.38391,-1.36218,0,0,0,0,0,0,0,-1,1714,589,4.38389,1.3622
497,435,7.23499,-3.64551,0,0,0,0,0,0,0,-1,1721,589,7.23495,3.64551
504,435,7.31189,-3.75909,0,0,0,0,0,0,0,-1,1728,589,7.31184,3.75911
511,435,11.4135,-7.57904,0,0,0,0,0,0,0,-1,1735,589,11.4135,7.57905
518,435,11.569,-7.07941,0.00432857,0.00344914,0.00280347,0.0067266,0.00105112,0.707609,0.00417833,0.0250776,1742,589,11.5689,7.07938
525,435,11.5603,-6.68134,0.0033899,0.00262838,0.00217762,0.00521979,0.000798484,0.698847,0.0032466,0.0126077,1749,589,11.5603,6.68132
532,435,11.5721,-6.29877,0.00257284,0.00187139,0.00161853,0.00387821,0.000566029,0.678701,0.00241897,0.0137518,1756,589,11.5722,6.29879
539,435,11.5692,-5.92206,0.00183176,0.00121417,0.00110483,0.00267013,0.000375796,0.649129,0.00166899,0.0148846,1763,589,11.5692,5.92207
546,435,11.545,-5.5639,0.00124036,0.000800871,0.000748349,0.00180056,0.000240672,0.642592,0.00112874,0.0147954,1770,589,11.5451,5.56393
553,435,11.5408,-5.22382,0.00071178,0.000453324,0.000449526,0.00105028,0.000114819,0.645434,0.000665228,0.0111255,1777,589,11.5408,5.22384
560,435,11.5413,-4.84424,0.000162221,0.000181426,0.000178893,0.000350974,-7.32718e-06,0.812211,0.000236463,0.0096335,1784,589,11.5413,4.84421
567,435,11.5363,-4.44446,-0.000325497,1.83802e-05,6.60772e-06,1.85071e-05,-0.000325624,1.55159,0.000223507,0.00928689,1791,589,11.5363,4.44446
574,435,11.5183,-4.07483,-0.000733833,-0.000105646,-0.0001026,-8.93133e-05,-0.000750165,-1.41293,0.000473157,0.0105191,1798,589,11.5183,4.07481
581,435,11.5017,-3.71625,-0.00112116,-0.000178488,-0.000142093,-0.000157535,-0.00114212,-1.4244,0.00071471,0.0172849,1805,589,11.5018,3.71623
588,435,11.4993,-3.36688,-0.00143584,-9.56086e-05,-4.95186e-05,-9.37814e-05,-0.00143766,-1.53392,0.000928762,0.0291521,1812,589,11.4993,3.36686
595,435,11.4384,-2.99774,-0.00167109,0.000279624,0.000217029,0.000303479,-0.00169494,1.46132,0.00124353,0.0312626,1819,589,11.4383,2.99774
602,435,11.4614,-2.61139,0,0,0,0,0,0,0,-1,1826,589,11.4614,2.6114
609,435,10.941,-1.83826,0,0,0,0,0,0,0,-1,1833,589,10.9411,1.83828
616,435,5.05151,-2.75269,0,0,0,0,0,0,0,-1,1840,589,5.05157,2.7527
623,435,11.7588,3.9704,0,0,0,0,0,0,0,-1,1847,589,11.7587,-3.97043
630,435,4.72742,-0.87561,0,0,0,0,0,0,0,-1,1854,589,4.7274,0.875636
637,435,5.05286,1.48792,0,0,0,0,0,0,0,-1,1861,589,5.05291,-1.48792
644,435,0,0,0,0,0,0,0,0,0,-1,1868,589,0,0
651,435,0,0,0,0,0,0,0,0,0,-1,1875,589,0,0
658,435,0,0,0,0,0,0,0,0,0,-1,1882,589,0,0
665,435,0,0,0,0,0,0,0,0,0,-1,1889,589,0,0
672,435,0,0,0,0,0,0,0,0,0,-1,1896,589,0,0
679,435,0,0,0,0,0,0,0,0,0,-1,1903,589,0,0
686,435,0,0,0,0,0,0,0,0,0,-1,1910,589,0,0
693,435,0,0,0,0,0,0,0,0,0,-1,1917,589,0,0
700,435,0,0,0,0,0,0,0,0,0,-1,1924,589,0,0
707,435,0,0,0,0,0,0,0,0,0,-1,1931,589,0,0
714,435,0,0,0,0,0,0,0,0,0,-1,1938,589,0,0
721,435,0,0,0,0,0,0,0,0,0,-1,1945,589,0,0
728,435,0,0,0,0,0,0,0,0,0,-1,1952,589,0,0
735,435,0,0,0,0,0,0,0,0,0,-1,1959,589,0,0
742,435,0,0,0,0,0,0,0,0,0,-1,1966,589,0,0
749,435,0,0,0,0,0,0,0,0,0,-1,1973,589,0,0
756,435,0,0,0,0,0,0,0,0,0,-1,1980,589,0,0
763,435,0,0,0,0,0,0,0,0,0,-1,1987,589,0,0
770,435,0,0,0,0,0,0,0,0,0,-1,1994,589,0,0
777,435,0,0,0,0,0,0,0,0,0,-1,2001,589,0,0
784,435,0,0,0,0,0,0,0,0,0,-1,2008,589,0,0
791,435,0,0,0,0,0,0,0,0,0,-1,2015,589,0,0
798,435,0,0,0,0,0,0,0,0,0,-1,2022,589,0,0
805,435,0,0,0,0,0,0,0,0,0,-1,2029,589,0,0
812,435,0,0,0,0,0,0,0,0,0,-1,2036,589,0,0
-700,428,0,0,0,0,0,0,0,0,0,-1,524,596,0,0
-693,428,0,0,0,0,0,0,0,0,0,-1,531,596,0,0
-686,428,0,0,0,0,0,0,0,0,0,-1,538,596,0,0
-679,428,0,0,0,0,0,0,0,0,0,-1,545,596,0,0
-672,428,0,0,0,0,0,0,0,0,0,-1,552,596,0,0
-665,428,0,0,0,0,0,0,0,0,0,-1,559,596,0,0
-658,428,0,0,0,0,0,0,0,0,0,-1,566,596,0,0
-651,428,0,0,0,0,0,0,0,0,0,-1,573,596,0,0
-644,428,0,0,0,0,0,0,0,0,0,-1,580,596,0,0
-637,428,0,0,0,0,0,0,0,0,0,-1,587,596,0,0
-630,428,0,0,0,0,0,0,0,0,0,-1,594,596,0,0
-623,428,0,0,0,0,0,0,0,0,0,-1,601,596,0,0
-616,428,0,0,0,0,0,0,0,0,0,-1,608,596,0,0
-609,428,0,0,0,0,0,0,0,0,0,-1,615,596,0,0
-602,428,0,0,0,0,0,0,0,0,0,-1,622,596,0,0
-595,428,0,0,0,0,0,0,0,0,0,-1,629,596,0,0
-588,428,0,0,0,0,0,0,0,0,0,-1,636,596,0,0
-581,428,0,0,0,0,0,0,0,0,0,-1,643,596,0,0
-574,428,0,0,0,0,0,0,0,0,0,-1,650,596,0,0
-567,428,0,0,0,0,0,0,0,0,0,-1,657,596,0,0
-560,428,0,0,0,0,0,0,0,0,0,-1,664,596,0,0
-553,428,0,0,0,0,0,0,0,0,0,-1,671,596,0,0
-546,428,0,0,0,0,0,0,0,0,0,-1,678,596,0,0
-539,428,0,0,0,0,0,0,0,0,0,-1,685,596,0,0
-532,428,0,0,0,0,0,0,0,0,0,-1,692,596,0,0
-525,428,-9.59918,7.58618,0,0,0,0,0,0,0,-1,699,596,-9.59918,-7.5862
-518,428,-2.92285,-4.81854,0,0,0,0,0,0,0,-1,706,596,-2.92285,4.81856
-511,428,-3.68811,-4.79474,0,0,0,0,0,0,0,-1,713,596,-3.68811,4.79474
-504,428,-4.45337,-4.77094,0,0,0,0,0,0,0,-1,720,596,-4.45337,4.77092
-497,428,-2.85516,-3.52179,0,0,0,0,0,0,0,-1,727,596,-2.85517,3.52181
-490,428,-4.45392,-1.88556,0,0,0,0,0,0,0,-1,734,596,-4.45389,1.88555
-483,428,-5.81934,-3.43439,0,0,0,0,0,0,0,-1,741,596,-5.81934,3.43441
-476,428,-5.10266,-4.02161,0.00972062,0.0147752,-0.0113725,0.0238978,0.000597984,-0.894735,0.0157363,0.0475127,748,596,-5.10263,4.02164
-469,428,-4.3822,-4.64856,0.00716941,0.0110334,-0.00888827,0.0181972,5.58794e-06,-0.892415,0.0121296,0.0209014,755,596,-4.3822,4.64858
-462,428,-4.41736,-4.97089,0.0051784,0.00794446,-0.00686351,0.0135629,-0.000440038,-0.884819,0.00919212,0.0193347,762,596,-4.41739,4.97089
-455,428,-4.47113,-5.37848,0.00369598,0.00569244,-0.00514602,0.00993615,-0.000547729,-0.881199,0.00681402,0.0125131,769,596,-4.47111,5.37849
-448,428,-4.4975,-5.75836,0.00243712,0.00403382,-0.00353649,0.00686095,-0.000390013,-0.896411,0.00470936,0.0110523,776,596,-4.49749,5.75838
-441,428,-4.49921,-6.10449,0.001382,0.00269023,-0.00220239,0.0043336,-0.00026136,-0.92975,0.00298001,0.013039,783,596,-4.49918,6.10451
-434,428,-4.49335,-6.47449,0.000389677,0.00126505,-0.000899775,0.00182794,-0.000173219,-1.01177,0.00128028,0.0102137,790,596,-4.49334,6.47448
-427,428,-4.48755,-6.84204,-0.000497983,0.000307533,0.000154534,0.000336162,-0.000526612,1.38761,0.000502152,0.0104728,797,596,-4.48757,6.84204
-420,428,-4.49384,-7.16547,-0.00154115,-0.000716371,0.00135752,0.000290014,-0.00254754,0.93286,0.00180282,0.0103045,804,596,-4.49383,7.16548
-413,428,-4.50073,-7.49951,-0.00253517,-0.00183522,0.00257133,0.00040984,-0.00478023,0.853036,0.00333184,0.0134121,811,596,-4.50072,7.49951
-406,428,-4.50763,-7.86664,-0.00345624,-0.00285921,0.00370875,0.000563025,-0.00687847,0.825556,0.00478438,0.0165751,818,596,-4.50762,7.86662
-399,428,-4.50323,-8.21423,-0.00458597,-0.00404914,0.004992,0.000681662,-0.00931677,0.812257,0.00645042,0.0141406,825,596,-4.50322,8.2142
-392,428,-4.50452,-8.57764,-0.00596803,-0.00531017,0.006495,0.000864223,-0.0121424,0.810698,0.00839786,0.0153844,832,596,-4.50452,8.57765
-385,428,-4.55176,-8.92505,-0.00769458,-0.00703599,0.00829759,0.000938839,-0.0156694,0.805231,0.0107729,0.0306531,839,596,-4.55174,8.92503
-378,428,-4.58765,-9.22382,0,0,0,0,0,0,0,-1,846,596,-4.58762,9.2238
-371,428,-4.89526,-9.23395,0,0,0,0,0,0,0,-1,853,596,-4.89524,9.23396
-364,428,-5.43597,-9.46405,0,0,0,0,0,0,0,-1,860,596,-5.43599,9.46406
-357,428,-3.20996,-4.70966,0,0,0,0,0,0,0,-1,867,596,-3.20997,4.70965
-350,428,-1.62793,-3.94055,0,0,0,0,0,0,0,-1,874,596,-1.62794,3.94055
-343,428,-0.0567017,-4.80994,0,0,0,0,0,0,0,-1,881,596,-0.0567096,4.80996
-336,428,-3.29175,-1.39569,0,0,0,0,0,0,0,-1,888,596,-3.29172,1.39568
-329,428,-3.71564,-0.791321,0,0,0,0,0,0,0,-1,895,596,-3.71564,0.791299
-322,428,-5.52863,-3.59827,0,0,0,0,0,0,0,-1,902,596,-5.52865,3.59829
-315,428,-4.57172,-1.22052,0,0,0,0,0,0,0,-1,909,596,-4.57171,1.22052
-308,428,-5.94324,-0.810791,0,0,0,0,0,0,0,-1,916,596,-5.94321,0.810803
-301,428,0,0,0,0,0,0,0,0,0,-1,923,596,0,0
-294,428,0,0,0,0,0,0,0,0,0,-1,930,596,0,0
-287,428,0,0,0,0,0,0,0,0,0,-1,937,596,0,0
-280,428,0,0,0,0,0,0,0,0,0,-1,944,596,0,0
-273,428,0,0,0,0,0,0,0,0,0,-1,951,596,0,0
-266,428,0,0,0,0,0,0,0,0,0,-1,958,596,0,0
-259,428,0,0,0,0,0,0,0,0,0,-1,965,596,0,0
-252,428,0,0,0,0,0,0,0,0,0,-1,972,596,0,0
-245,428,0,0,0,0,0,0,0,0,0,-1,979,596,0,0
-238,428,0,0,0,0,0,0,0,0,0,-1,986,596,0,0
-231,428,0,0,0,0,0,0,0,0,0,-1,993,596,0,0
-224,428,0,0,0,0,0,0,0,0,0,-1,1000,596,0,0
-217,428,0,0,0,0,0,0,0,0,0,-1,1007,596,0,0
-210,428,0,0,0,0,0,0,0,0,0,-1,1014,596,0,0
-203,428,0,0,0,0,0,0,0,0,0,-1,1021,596,0,0
-196,428,0,0,0,0,0,0,0,0,0,-1,1028,596,0,0
-189,428,0,0,0,0,0,0,0,0,0,-1,1035,596,0,0
-182,428,0,0,0,0,0,0,0,0,0,-1,1042,596,0,0
-175,428,0,0,0,0,0,0,0,0,0,-1,1049,596,0,0
-168,428,0,0,0,0,0,0,0,0,0,-1,1056,596,0,0
-161,428,0,0,0,0,0,0,0,0,0,-1,1063,596,0,0
-154,428,0,0,0,0,0,0,0,0,0,-1,1070,596,0,0
-147,428,0,0,0,0,0,0,0,0,0,-1,1077,596,0,0
-140,428,0,0,0,0,0,0,0,0,0,-1,1084,596,0,0
-133,428,0,0,0,0,0,0,0,0,0,-1,1091,596,0,0
-126,428,0,0,0,0,0,0,0,0,0,-1,1098,596,0,0
-119,428,0,0,0,0,0,0,0,0,0,-1,1105,596,0,0
-112,428,0,0,0,0,0,0,0,0,0,-1,1112,596,0,0
-105,428,0,0,0,0,0,0,0,0,0,-1,1119,596,0,0
-98,428,0,0,0,0,0,0,0,0,0,-1,1126,596,0,0
-91,428,0,0,0,0,0,0,0,0,0,-1,1133,596,0,0
-84,428,0,0,0,0,0,0,0,0,0,-1,1140,596,0,0
-77,428,0,0,0,0,0,0,0,0,0,-1,1147,596,0,0
-70,428,0,0,0,0,0,0,0,0,0,-1,1154,596,0,0
-63,428,0,0,0,0,0,0,0,0,0,-1,1161,596,0,0
-56,428,0,0,0,0,0,0,0,0,0,-1,1168,596,0,0
-49,428,0,0,0,0,0,0,0,0,0,-1,1175,596,0,0
-42,428,0,0,0,0,0,0,0,0,0,-1,1182,596,0,0
-35,428,0,0,0,0,0,0,0,0,0,-1,1189,596,0,0
-28,428,0,0,0,0,0,0,0,0,0,-1,1196,596,0,0
-21,428,0,0,0,0,0,0,0,0,0,-1,1203,596,0,0
-14,428,0,0,0,0,0,0,0,0,0,-1,1210,596,0,0
-7,428,0,0,0,0,0,0,0,0,0,-1,1217,596,0,0
0,428,0,0,0,0,0,0,0,0,0,-1,1224,596,0,0
7,428,0,0,0,0,0,0,0,0,0,-1,1231,596,0,0
14,428,0,0,0,0,0,0,0,0,0,-1,1238,596,0,0
21,428,0,0,0,0,0,0,0,0,0,-1,1245,596,0,0
28,428,0,0,0,0,0,0,0,0,0,-1,1252,596,0,0
35,428,0,0,0,0,0,0,0,0,0,-1,1259,596,0,0
42,428,0,0,0,0,0,0,0,0,0,-1,1266,596,0,0
49,428,0,0,0,0,0,0,0,0,0,-1,1273,596,0,0
56,428,0,0,0,0,0,0,0,0,0,-1,1280,596,0,0
63,428,0,0,0,0,0,0,0,0,0,-1,1287,596,0,0
70,428,0,0,0,0,0,0,0,0,0,-1,1294,596,0,0
77,428,0,0,0,0,0,0,0,0,0,-1,1301,596,0,0
84,428,0,0,0,0,0,0,0,0,0,-1,1308,596,0,0
91,428,0,0,0,0,0,0,0,0,0,-1,1315,596,0,0
98,428,0,0,0,0,0,0,0,0,0,-1,1322,596,0,0
105,428,0,0,0,0,0,0,0,0,0,-1,1329,596,0,0
112,428,0,0,0,0,0,0,0,0,0,-1,1336,596,0,0
119,428,0,0,0,0,0,0,0,0,0,-1,1343,596,0,0
126,428,0,0,0,0,0,0,0,0,0,-1,1350,596,0,0
133,428,0,0,0,0,0,0,0,0,0,-1,1357,596,0,0
140,428,0,0,0,0,0,0,0,0,0,-1,1364,596,0,0
147,428,0,0,0,0,0,0,0,0,0,-1,1371,596,0,0
154,428,0,0,0,0,0,0,0,0,0,-1,1378,596,0,0
161,428,0,0,0,0,0,0,0,0,0,-1,1385,596,0,0
168,428,0,0,0,0,0,0,0,0,0,-1,1392,596,0,0
175,428,0,0,0,0,0,0,0,0,0,-1,1399,596,0,0
182,428,0,0,0,0,0,0,0,0,0,-1,1406,596,0,0
189,428,0,0,0,0,0,0,0,0,0,-1,1413,596,0,0
196,428,0,0,0,0,0,0,0,0,0,-1,1420,596,0,0
203,428,0,0,0,0,0,0,0,0,0,-1,1427,596,0,0
210,428,0,0,0,0,0,0,0,0,0,-1,1434,596,0,0
217,428,0,0,0,0,0,0,0,0,0,-1,1441,596,0,0
224,428,0,0,0,0,0,0,0,0,0,-1,1448,596,0,0
231,428,0,0,0,0,0,0,0,0,0,-1,1455,596,0,0
238,428,0,0,0,0,0,0,0,0,0,-1,1462,596,0,0
245,428,0,0,0,0,0,0,0,0,0,-1,1469,596,0,0
252,428,0,0,0,0,0,0,0,0,0,-1,1476,596,0,0
259,428,0,0,0,0,0,0,0,0,0,-1,1483,596,0,0
266,428,0,0,0,0,0,0,0,0,0,-1,1490,596,0,0
273,428,0,0,0,0,0,0,0,0,0,-1,1497,596,0,0
280,428,0,0,0,0,0,0,0,0,0,-1,1504,596,0,0
287,428,0,0,0,0,0,0,0,0,0,-1,1511,596,0,0
294,428,0,0,0,0,0,0,0,0,0,-1,1518,596,0,0
301,428,0,0,0,0,0,0,0,0,0,-1,1525,596,0,0
308,428,0,0,0,0,0,0,0,0,0,-1,1532,596,0,0
315,428,0,0,0,0,0,0,0,0,0,-1,1539,596,0,0
322,428,0,0,0,0,0,0,0,0,0,-1,1546,596,0,0
329,428,0,0,0,0,0,0,0,0,0,-1,1553,596,0,0
336,428,0,0,0,0,0,0,0,0,0,-1,1560,596,0,0
343,428,0,0,0,0,0,0,0,0,0,-1,1567,596,0,0
350,428,0,0,0,0,0,0,0,0,0,-1,1574,596,0,0
357,428,0,0,0,0,0,0,0,0,0,-1,1581,596,0,0
364,428,0,0,0,0,0,0,0,0,0,-1,1588,596,0,0
371,428,0,0,0,0,0,0,0,0,0,-1,1595,596,0,0
378,428,0,0,0,0,0,0,0,0,0,-1,1602,596,0,0
385,428,0,0,0,0,0,0,0,0,0,-1,1609,596,0,0
392,428,0,0,0,0,0,0,0,0,0,-1,1616,596,0,0
399,428,0,0,0,0,0,0,0,0,0,-1,1623,596,0,0
406,428,0,0,0,0,0,0,0,0,0,-1,1630,596,0,0
413,428,0,0,0,0,0,0,0,0,0,-1,1637,596,0,0
420,428,19.8469,1.3399,0,0,0,0,0,0,0,-1,1644,596,19.8469,-1.33992
427,428,20.7299,-0.225281,0,0,0,0,0,0,0,-1,1651,596,20.7299,0.225262
434,428,19.8915,-0.583069,0,0,0,0,0,0,0,-1,1658,596,19.8915,0.583075
441,428,8.17993,0.607483,0,0,0,0,0,0,0,-1,1665,596,8.17997,-0.607513
448,428,7.84338,-0.385986,0,0,0,0,0,0,0,-1,1672,596,7.84336,0.385978
455,428,6.64038,2.1123,0,0,0,0,0,0,0,-1,1679,596,6.64037,-2.11229
462,428,4.84106,4.12341,0,0,0,0,0,0,0,-1,1686,596,4.84107,-4.12339
469,428,7.83789,3.10083,0,0,0,0,0,0,0,-1,1693,596,7.83785,-3.10086
476,428,7.61255,1.73956,0,0,0,0,0,0,0,-1,1700,596,7.61252,-1.73958
483,428,7.22766,1.05121,0,0,0,0,0,0,0,-1,1707,596,7.2277,-1.05121
490,428,5.4071,-3.2793,0,0,0,0,0,0,0,-1,1714,596,5.40707,3.27929
497,428,7.84106,-3.65491,0,0,0,0,0,0,0,-1,1721,596,7.84107,3.65491
504,428,6.92139,-2.83356,0,0,0,0,0,0,0,-1,1728,596,6.92137,2.83353
511,428,7.88501,-3.78723,0,0,0,0,0,0,0,-1,1735,596,7.88502,3.78722
518,428,11.8854,-7.16559,0,0,0,0,0,0,0,-1,1742,596,11.8854,7.16561
525,428,11.9017,-6.6701,0,0,0,0,0,0,0,-1,1749,596,11.9017,6.67009
532,428,11.9142,-6.2887,0.002557,0.00224157,0.00165239,0.00405919,0.000739386,0.737819,0.00249643,0.0206766,1756,596,11.9142,6.2887
539,428,11.9344,-5.93201,0.00180737,0.00156123,0.00109878,0.00278995,0.000578644,0.729628,0.00170023,0.0208764,1763,596,11.9345,5.93201
546,428,11.9232,-5.57257,0.00123872,0.00110325,0.000719801,0.00189397,0.000448007,0.738485,0.00114296,0.0167382,1770,596,11.9233,5.57255
553,428,11.9208,-5.19623,0.000776422,0.000691647,0.000420631,0.0011568,0.000311273,0.735182,0.000691211,0.0112866,1777,596,11.9207,5.1962
560,428,11.9257,-4.81097,0.00031728,0.000387191,0.000175315,0.000531001,0.00017347,0.883801,0.000312653,0.0117148,1784,596,11.9256,4.81099
567,428,11.9242,-4.43646,-6.07264e-05,0.0002144,5.27292e-05,0.00022416,-7.0486e-05,1.38778,0.000177659,0.0112565,1791,596,11.9242,4.43645
574,428,11.9099,-4.07452,-0.00031815,0.000109469,2.8436e-05,0.000111352,-0.000320032,1.50469,0.000258591,0.0133444,1798,596,11.9099,4.07455
581,428,11.8801,-3.6955,-0.000516363,9.17255e-05,0.000110207,0.000111083,-0.000535721,1.39693,0.000399358,0.0106545,1805,596,11.8801,3.69547
588,428,11.861,-3.3089,-0.000648712,0.000253892,0.000333001,0.000363449,-0.000758269,1.25295,0.000660861,0.0143755,1812,596,11.8609,3.30893
595,428,11.8566,-2.90997,-0.00067953,0.000668745,0.000741569,0.000996798,-0.00100758,1.1543,0.00115724,0.011755,1819,596,11.8566,2.91
602,428,11.8146,-2.51007,-0.000780388,0.0013856,0.00127514,0.00197558,-0.00137037,1.13745,0.00194229,0.0216584,1826,596,11.8146,2.51007
609,428,11.7654,-2.02393,0,0,0,0,0,0,0,-1,1833,596,11.7654,2.02395
616,428,5.88977,-0.239319,0,0,0,0,0,0,0,-1,1840,596,5.88983,0.239293
623,428,9.02405,1.30554,0,0,0,0,0,0,0,-1,1847,596,9.02407,-1.30554
630,428,7.07996,6.88562,0,0,0,0,0,0,0,-1,1854,596,7.0799,-6.88565
637,428,3.95435,1.90857,0,0,0,0,0,0,0,-1,1861,596,3.95439,-1.90858
644,428,5.75476,0.888977,0,0,0,0,0,0,0,-1,1868,596,5.75472,-0.888955
651,428,0,0,0,0,0,0,0,0,0,-1,1875,596,0,0
658,428,0,0,0,0,0,0,0,0,0,-1,1882,596,0,0
665,428,0,0,0,0,0,0,0,0,0,-1,1889,596,0,0
672,428,0,0,0,0,0,0,0,0,0,-1,1896,596,0,0
679,428,0,0,0,0,0,0,0,0,0,-1,1903,596,0,0
686,428,0,0,0,0,0,0,0,0,0,-1,1910,596,0,0
693,428,0,0,0,0,0,0,0,0,0,-1,1917,596,0,0
700,428,0,0,0,0,0,0,0,0,0,-1,1924,596,0,0
707,428,0,0,0,0,0,0,0,0,0,-1,1931,596,0,0
714,428,0,0,0,0,0,0,0,0,0,-1,1938,596,0,0
721,428,0,0,0,0,0,0,0,0,0,-1,1945,596,0,0
728,428,0,0,0,0,0,0,0,0,0,-1,1952,596,0,0
735,428,0,0,0,0,0,0,0,0,0,-1,1959,596,0,0
742,428,0,0,0,0,0,0,0,0,0,-1,1966,596,0,0
749,428,0,0,0,0,0,0,0,0,0,-1,1973,596,0,0
756,428,0,0,0,0,0,0,0,0,0,-1,1980,596,0,0
763,428,0,0,0,0,0,0,0,0,0,-1,1987,596,0,0
770,428,0,0,0,0,0,0,0,0,0,-1,1994,596,0,0
777,428,0,0,0,0,0,0,0,0,0,-1,2001,596,0,0
784,428,0,0,0,0,0,0,0,0,0,-1,2008,596,0,0
791,428,0,0,0,0,0,0,0,0,0,-1,2015,596,0,0
798,428,0,0,0,0,0,0,0,0,0,-1,2022,596,0,0
805,428,0,0,0,0,0,0,0,0,0,-1,2029,596,0,0
812,428,0,0,0,0,0,0,0,0,0,-1,2036,596,0,0
-700,421,0,0,0,0,0,0,0,0,0,-1,524,603,0,0
-693,421,0,0,0,0,0,0,0,0,0,-1,531,603,0,0
-686,421,0,0,0,0,0,0,0,0,0,-1,538,603,0,0
-679,421,0,0,0,0,0,0,0,0,0,-1,545,603,0,0
-672,421,0,0,0,0,0,0,0,0,0,-1,552,603,0,0
-665,421,0,0,0,0,0,0,0,0,0,-1,559,603,0,0
-658,421,0,0,0,0,0,0,0,0,0,-1,566,603,0,0
-651,421,0,0,0,0,0,0,0,0,0,-1,573,603,0,0
-644,421,0,0,0,0,0,0,0,0,0,-1,580,603,0,0
-637,421,0,0,0,0,0,0,0,0,0,-1,587,603,0,0
-630,421,0,0,0,0,0,0,0,0,0,-1,594,603,0,0
-623,421,0,0,0,0,0,0,0,0,0,-1,601,603,0,0
-616,421,0,0,0,0,0,0,0,0,0,-1,608,603,0,0
-609,421,0,0,0,0,0,0,0,0,0,-1,615,603,0,0
-602,421,0,0,0,0,0,0,0,0,0,-1,622,603,0,0
-595,421,0,0,0,0,0,0,0,0,0,-1,629,603,0,0
-588,421,0,0,0,0,0,0,0,0,0,-1,636,603,0,0
-581,421,0,0,0,0,0,0,0,0,0,-1,643,603,0,0
-574,421,0,0,0,0,0,0,0,0,0,-1,650,603,0,0
-567,421,0,0,0,0,0,0,0,0,0,-1,657,603,0,0
-560,421,0,0,0,0,0,0,0,0,0,-1,664,603,0,0
-553,421,0,0,0,0,0,0,0,0,0,-1,671,603,0,0
-546,421,0,0,0,0,0,0,0,0,0,-1,678,603,0,0
-539,421,0,0,0,0,0,0,0,0,0,-1,685,603,0,0
-532,421,-8.97382,6.95636,0,0,0,0,0,0,0,-1,692,603,-8.97384,-6.95634
-525,421,-2.11481,-8.04272,0,0,0,0,0,0,0,-1,699,603,-2.11483,8.0427
-518,421,-3.05908,-5.07233,0,0,0,0,0,0,0,-1,706,603,-3.0591,5.07235
-511,421,-4.63525,-4.08447,0,0,0,0,0,0,0,-1,713,603,-4.63524,4.08449
-504,421,-4.97272,-4.38385,0,0,0,0,0,0,0,-1,720,603,-4.9727,4.38383
-497,421,-4.67682,-1.86725,0,0,0,0,0,0,0,-1,727,603,-4.6768,1.86727
-490,421,-4.96039,-2.42841,0,0,0,0,0,0,0,-1,734,603,-4.96036,2.42841
-483,421,-4.79218,-3.69287,0,0,0,0,0,0,0,-1,741,603,-4.79216,3.69289
-476,421,-4.78705,-4.35278,0.0075485,0.012132,-0.00867539,0.0188133,0.000867277,-0.914533,0.0122633,0.0268254,748,603,-4.78707,4.35281
-469,421,-4.82263,-4.64368,0.00577172,0.00903623,-0.0069391,0.0145325,0.000275481,-0.900911,0.0095978,0.019894,755,603,-4.82266,4.64369
-462,421,-4.82867,-5.04126,0.00426242,0.00640354,-0.00547734,0.010914,-0.000248,-0.881908,0.00736004,0.0168529,762,603,-4.82869,5.04125
-455,421,-4.85217,-5.40094,0.00311202,0.00454691,-0.00413121,0.00802251,-0.000363581,-0.871373,0.00547356,0.0173757,769,603,-4.85215,5.40096
-448,421,-4.86786,-5.74603,0.00210775,0.00307931,-0.00277935,0.00541501,-0.000227954,-0.871915,0.00368834,0.0174758,776,603,-4.86786,5.74605
-441,421,-4.84937,-6.12347,0.00112169,0.00188982,-0.00158551,0.00313711,-0.000125607,-0.904227,0.00213451,0.0138154,783,603,-4.84934,6.12349
-434,421,-4.86279,-6.48907,0.000138068,0.000603394,-0.000367035,0.000805296,-6.38342e-05,-1.06788,0.000559357,0.0105258,790,603,-4.86282,6.48907
-427,421,-4.8493,-6.8363,-0.000847921,-0.000317764,0.000697454,0.000163287,-0.00132897,0.967,0.000945124,0.0099899,797,603,-4.84927,6.83628
-420,421,-4.85309,-7.16174,-0.00200688,-0.00133609,0.00194492,0.000302146,-0.00364511,0.870782,0.0025368,0.0111576,804,603,-4.85306,7.16175
-413,421,-4.86829,-7.50555,-0.00322175,-0.002541,0.00332902,0.000464997,-0.00622775,0.836343,0.00431519,0.013867,811,603,-4.86831,7.50558
-406,421,-4.89404,-7.89166,-0.00454561,-0.00376162,0.00473424,0.000596826,-0.00890406,0.826704,0.00614465,0.0192475,818,603,-4.89404,7.89164
-399,421,-4.83643,-8.28973,-0.00617518,-0.00525574,0.00636826,0.000669374,-0.0121003,0.82143,0.00829899,0.0208623,825,603,-4.8364,8.28973
-392,421,-4.9024,-8.55725,-0.00817896,-0.00685235,0.00836312,0.000873726,-0.015905,0.824972,0.0109063,0.0278719,832,603,-4.90241,8.55724
-385,421,-4.88214,-8.92499,0,0,0,0,0,0,0,-1,839,603,-4.88216,8.92496
-378,421,-5.13782,-8.74323,0,0,0,0,0,0,0,-1,846,603,-5.13784,8.74325
-371,421,-5.65082,-7.01849,0,0,0,0,0,0,0,-1,853,603,-5.65082,7.0185
-364,421,-5.94189,-7.09875,0,0,0,0,0,0,0,-1,860,603,-5.94192,7.09878
-357,421,-7.62531,-8.26337,0,0,0,0,0,0,0,-1,867,603,-7.62532,8.26337
-350,421,-5.38019,-3.75024,0,0,0,0,0,0,0,-1,874,603,-5.38017,3.75026
-343,421,-6.22797,-2.57123,0,0,0,0,0,0,0,-1,881,603,-6.22798,2.57121
-336,421,-6.22882,-2.59369,0,0,0,0,0,0,0,-1,888,603,-6.22883,2.5937
-329,421,-4.50134,-1.49469,0,0,0,0,0,0,0,-1,895,603,-4.50137,1.49468
-322,421,-6.30377,-0.285339,0,0,0,0,0,0,0,-1,902,603,-6.30379,0.285355
-315,421,-4.47821,-1.26733,0,0,0,0,0,0,0,-1,909,603,-4.47824,1.26732
-308,421,0,0,0,0,0,0,0,0,0,-1,916,603,0,0
-301,421,0,0,0,0,0,0,0,0,0,-1,923,603,0,0
-294,421,0,0,0,0,0,0,0,0,0,-1,930,603,0,0
-287,421,0,0,0,0,0,0,0,0,0,-1,937,603,0,0
-280,421,0,0,0,0,0,0,0,0,0,-1,944,603,0,0
-273,421,0,0,0,0,0,0,0,0,0,-1,951,603,0,0
-266,421,0,0,0,0,0,0,0,0,0,-1,958,603,0,0
-259,421,0,0,0,0,0,0,0,0,0,-1,965,603,0,0
-252,421,0,0,0,0,0,0,0,0,0,-1,972,603,0,0
-245,421,0,0,0,0,0,0,0,0,0,-1,979,603,0,0
-238,421,0,0,0,0,0,0,0,0,0,-1,986,603,0,0
-231,421,0,0,0,0,0,0,0,0,0,-1,993,603,0,0
-224,421,0,0,0,0,0,0,0,0,0,-1,1000,603,0,0
-217,421,0,0,0,0,0,0,0,0,0,-1,1007,603,0,0
-210,421,0,0,0,0,0,0,0,0,0,-1,1014,603,0,0
-203,421,0,0,0,0,0,0,0,0,0,-1,1021,603,0,0
-196,421,0,0,0,0,0,0,0,0,0,-1,1028,603,0,0
-189,421,0,0,0,0,0,0,0,0,0,-1,1035,603,0,0
-182,421,0,0,0,0,0,0,0,0,0,-1,1042,603,0,0
-175,421,0,0,0,0,0,0,0,0,0,-1,1049,603,0,0
-168,421,0,0,0,0,0,0,0,0,0,-1,1056,603,0,0
-161,421,0,0,0,0,0,0,0,0,0,-1,1063,603,0,0
-154,421,0,0,0,0,0,0,0,0,0,-1,1070,603,0,0
-147,421,0,0,0,0,0,0,0,0,0,-1,1077,603,0,0
-140,421,0,0,0,0,0,0,0,0,0,-1,1084,603,0,0
-133,421,0,0,0,0,0,0,0,0,0,-1,1091,603,0,0
-126,421,0,0,0,0,0,0,0,0,0,-1,1098,603,0,0
-119,421,0,0,0,0,0,0,0,0,0,-1,1105,603,0,0
-112,421,0,0,0,0,0,0,0,0,0,-1,1112,603,0,0
-105,421,0,0,0,0,0,0,0,0,0,-1,1119,603,0,0
-98,421,0,0,0,0,0,0,0,0,0,-1,1126,603,0,0
-91,421,0,0,0,0,0,0,0,0,0,-1,1133,603,0,0
-84,421,0,0,0,0,0,0,0,0,0,-1,1140,603,0,0
-77,421,0,0,0,0,0,0,0,0,0,-1,1147,603,0,0
-70,421,0,0,0,0,0,0,0,0,0,-1,1154,603,0,0
-63,421,0,0,0,0,0,0,0,0,0,-1,1161,603,0,0
-56,421,0,0,0,0,0,0,0,0,0,-1,1168,603,0,0
-49,421,0,0,0,0,0,0,0,0,0,-1,1175,603,0,0
-42,421,0,0,0,0,0,0,0,0,0,-1,1182,603,0,0
-35,421,0,0,0,0,0,0,0,0,0,-1,1189,603,0,0
-28,421,0,0,0,0,0,0,0,0,0,-1,1196,603,0,0
-21,421,0,0,0,0,0,0,0,0,0,-1,1203,603,0,0
-14,421,0,0,0,0,0,0,0,0,0,-1,1210,603,0,0
-7,421,0,0,0,0,0,0,0,0,0,-1,1217,603,0,0
0,421,0,0,0,0,0,0,0,0,0,-1,1224,603,0,0
7,421,0,0,0,0,0,0,0,0,0,-1,1231,603,0,0
14,421,0,0,0,0,0,0,0,0,0,-1,1238,603,0,0
21,421,0,0,0,0,0,0,0,0,0,-1,1245,603,0,0
28,421,0,0,0,0,0,0,0,0,0,-1,1252,603,0,0
35,421,0,0,0,0,0,0,0,0,0,-1,1259,603,0,0
42,421,0,0,0,0,0,0,0,0,0,-1,1266,603,0,0
49,421,0,0,0,0,0,0,0,0,0,-1,1273,603,0,0
56,421,0,0,0,0,0,0,0,0,0,-1,1280,603,0,0
63,421,0,0,0,0,0,0,0,0,0,-1,1287,603,0,0
70,421,0,0,0,0,0,0,0,0,0,-1,1294,603,0,0
77,421,0,0,0,0,0,0,0,0,0,-1,1301,603,0,0
84,421,0,0,0,0,0,0,0,0,0,-1,1308,603,0,0
91,421,0,0,0,0,0,0,0,0,0,-1,1315,603,0,0
98,421,0,0,0,0,0,0,0,0,0,-1,1322,603,0,0
105,421,0,0,0,0,0,0,0,0,0,-1,1329,603,0,0
112,421,0,0,0,0,0,0,0,0,0,-1,1336,603,0,0
119,421,0,0,0,0,0,0,0,0,0,-1,1343,603,0,0
126,421,0,0,0,0,0,0,0,0,0,-1,1350,603,0,0
133,421,0,0,0,0,0,0,0,0,0,-1,1357,603,0,0
140,421,0,0,0,0,0,0,0,0,0,-1,1364,603,0,0
147,421,0,0,0,0,0,0,0,0,0,-1,1371,603,0,0
154,421,0,0,0,0,0,0,0,0,0,-1,1378,603,0,0
161,421,0,0,0,0,0,0,0,0,0,-1,1385,603,0,0
168,421,0,0,0,0,0,0,0,0,0,-1,1392,603,0,0
175,421,0,0,0,0,0,0,0,0,0,-1,1399,603,0,0
182,421,0,0,0,0,0,0,0,0,0,-1,1406,603,0,0
189,421,0,0,0,0,0,0,0,0,0,-1,1413,603,0,0
196,421,0,0,0,0,0,0,0,0,0,-1,1420,603,0,0
203,421,0,0,0,0,0,0,0,0,0,-1,1427,603,0,0
210,421,0,0,0,0,0,0,0,0,0,-1,1434,603,0,0
217,421,0,0,0,0,0,0,0,0,0,-1,1441,603,0,0
224,421,0,0,0,0,0,0,0,0,0,-1,1448,603,0,0
231,421,0,0,0,0,0,0,0,0,0,-1,1455,603,0,0
238,421,0,0,0,0,0,0,0,0,0,-1,1462,603,0,0
245,421,0,0,0,0,0,0,0,0,0,-1,1469,603,0,0
252,421,0,0,0,0,0,0,0,0,0,-1,1476,603,0,0
259,421,0,0,0,0,0,0,0,0,0,-1,1483,603,0,0
266,421,0,0,0,0,0,0,0,0,0,-1,1490,603,0,0
273,421,0,0,0,0,0,0,0,0,0,-1,1497,603,0,0
280,421,0,0,0,0,0,0,0,0,0,-1,1504,603,0,0
287,421,0,0,0,0,0,0,0,0,0,-1,1511,603,0,0
294,421,0,0,0,0,0,0,0,0,0,-1,1518,603,0,0
301,421,0,0,0,0,0,0,0,0,0,-1,1525,603,0,0
308,421,0,0,0,0,0,0,0,0,0,-1,1532,603,0,0
315,421,0,0,0,0,0,0,0,0,0,-1,1539,603,0,0
322,421,0,0,0,0,0,0,0,0,0,-1,1546,603,0,0
329,421,0,0,0,0,0,0,0,0,0,-1,1553,603,0,0
336,421,0,0,0,0,0,0,0,0,0,-1,1560,603,0,0
343,421,0,0,0,0,0,0,0,0,0,-1,1567,603,0,0
350,421,0,0,0,0,0,0,0,0,0,-1,1574,603,0,0
357,421,0,0,0,0,0,0,0,0,0,-1,1581,603,0,0
364,421,0,0,0,0,0,0,0,0,0,-1,1588,603,0,0
371,421,0,0,0,0,0,0,0,0,0,-1,1595,603,0,0
378,421,0,0,0,0,0,0,0,0,0,-1,1602,603,0,0
385,421,0,0,0,0,0,0,0,0,0,-1,1609,603,0,0
392,421,0,0,0,0,0,0,0,0,0,-1,1616,603,0,0
399,421,0,0,0,0,0,0,0,0,0,-1,1623,603,0,0
406,421,0,0,0,0,0,0,0,0,0,-1,1630,603,0,0
413,421,0,0,0,0,0,0,0,0,0,-1,1637,603,0,0
420,421,0,0,0,0,0,0,0,0,0,-1,1644,603,0,0
427,421,0,0,0,0,0,0,0,0,0,-1,1651,603,0,0
434,421,3.68176,-0.0327759,0,0,0,0,0,0,0,-1,1658,603,3.6818,0.0328037
441,421,8.06689,0.527832,0,0,0,0,0,0,0,-1,1665,603,8.06693,-0.527851
448,421,6.93921,0.802246,0,0,0,0,0,0,0,-1,1672,603,6.93923,-0.802251
455,421,7.29456,2.14825,0,0,0,0,0,0,0,-1,1679,603,7.29461,-2.14827
462,421,7.86902,3.53174,0,0,0,0,0,0,0,-1,1686,603,7.869,-3.53173
469,421,8.06604,2.81213,0,0,0,0,0,0,0,-1,1693,603,8.06606,-2.81212
476,421,8.26306,2.09253,0,0,0,0,0,0,0,-1,1700,603,8.26312,-2.09251
483,421,8.05322,0.798096,0,0,0,0,0,0,0,-1,1707,603,8.05323,-0.7981
490,421,7.51233,0.213074,0,0,0,0,0,0,0,-1,1714,603,7.51235,-0.213043
497,421,7.49634,-2.86688,0,0,0,0,0,0,0,-1,1721,603,7.4963,2.86688
504,421,6.90491,-2.18671,0,0,0,0,0,0,0,-1,1728,603,6.90491,2.18669
511,421,6.31348,-1.50653,0,0,0,0,0,0,0,-1,1735,603,6.31353,1.5065
518,421,6.27588,-2.49878,0,0,0,0,0,0,0,-1,1742,603,6.2759,2.4988
525,421,12.0974,-6.96997,0,0,0,0,0,0,0,-1,1749,603,12.0974,6.97
532,421,12.2012,-6.34979,0.00257716,0.00276683,0.00165747,0.00433217,0.00101181,0.813976,0.00261688,0.039071,1756,603,12.2012,6.34979
539,421,12.3102,-5.93341,0.00183922,0.00200193,0.00106165,0.00298533,0.000855812,0.823639,0.00177511,0.021803,1763,603,12.3102,5.9334
546,421,12.3123,-5.55994,0.00129622,0.00144022,0.000648659,0.00202086,0.000715574,0.84067,0.00118319,0.0133007,1770,603,12.3122,5.55997
553,421,12.3036,-5.17334,0.000884388,0.000918711,0.000334347,0.00123634,0.000566763,0.81104,0.000714621,0.0120277,1777,603,12.3036,5.17333
560,421,12.2996,-4.78107,0.000477961,0.000549273,9.91653e-05,0.000618998,0.000408236,0.957981,0.00036339,0.0141684,1784,603,12.2995,4.78107
567,421,12.2955,-4.41479,0.000149122,0.000336209,4.75498e-06,0.00033633,0.000149001,1.5454,0.0001946,0.0168162,1791,603,12.2956,4.41481
574,421,12.2784,-4.05609,-5.02847e-05,0.000231764,3.79344e-05,0.000236777,-5.52976e-05,1.43941,0.000179152,0.0192877,1798,603,12.2784,4.0561
581,421,12.2714,-3.66125,-0.000179871,0.000244812,0.00019483,0.000320651,-0.000255709,1.19959,0.000333465,0.0158919,1805,603,12.2713,3.66127
588,421,12.2441,-3.31873,-0.000246648,0.0004461,0.000490127,0.000699893,-0.00050044,1.093,0.000696194,0.0107455,1812,603,12.2441,3.31871
595,421,12.2753,-2.91663,-0.000160305,0.00091225,0.000996712,0.0015078,-0.000755853,1.03221,0.00133074,0.0144733,1819,603,12.2753,2.91665
602,421,12.2435,-2.56891,-7.80729e-05,0.0016704,0.00164286,0.00265715,-0.00106482,1.02991,0.00221346,0.0158821,1826,603,12.2435,2.56889
609,421,12.1591,-2.14642,0,0,0,0,0,0,0,-1,1833,603,12.159,2.14644
616,421,12.3517,-1.61853,0,0,0,0,0,0,0,-1,1840,603,12.3517,1.61853
623,421,6.19885,0.376648,0,0,0,0,0,0,0,-1,1847,603,6.19881,-0.376624
630,421,6.54993,0.778748,0,0,0,0,0,0,0,-1,1854,603,6.54991,-0.778744
637,421,3.74512,1.65405,0,0,0,0,0,0,0,-1,1861,603,3.74517,-1.65407
644,421,3.58081,0.354675,0,0,0,0,0,0,0,-1,1868,603,3.58082,-0.354704
651,421,3.28687,3.66351,0,0,0,0,0,0,0,-1,1875,603,3.28688,-3.66353
658,421,0,0,0,0,0,0,0,0,0,-1,1882,603,0,0
665,421,0,0,0,0,0,0,0,0,0,-1,1889,603,0,0
672,421,0,0,0,0,0,0,0,0,0,-1,1896,603,0,0
679,421,0,0,0,0,0,0,0,0,0,-1,1903,603,0,0
686,421,0,0,0,0,0,0,0,0,0,-1,1910,603,0,0
693,421,0,0,0,0,0,0,0,0,0,-1,1917,603,0,0
700,421,0,0,0,0,0,0,0,0,0,-1,1924,603,0,0
707,421,0,0,0,0,0,0,0,0,0,-1,1931,603,0,0
714,421,0,0,0,0,0,0,0,0,0,-1,1938,603,0,0
721,421,0,0,0,0,0,0,0,0,0,-1,1945,603,0,0
728,421,0,0,0,0,0,0,0,0,0,-1,1952,603,0,0
735,421,0,0,0,0,0,0,0,0,0,-1,1959,603,0,0
742,421,0,0,0,0,0,0,0,0,0,-1,1966,603,0,0
749,421,0,0,0,0,0,0,0,0,0,-1,1973,603,0,0
756,421,0,0,0,0,0,0,0,0,0,-1,1980,603,0,0
763,421,0,0,0,0,0,0,0,0,0,-1,1987,603,0,0
770,421,0,0,0,0,0,0,0,0,0,-1,1994,603,0,0
777,421,0,0,0,0,0,0,0,0,0,-1,2001,603,0,0
784,421,0,0,0,0,0,0,0,0,0,-1,2008,603,0,0
791,421,0,0,0,0,0,0,0,0,0,-1,2015,603,0,0
798,421,0,0,0,0,0,0,0,0,0,-1,2022,603,0,0
805,421,0,0,0,0,0,0,0,0,0,-1,2029,603,0,0
812,421,0,0,0,0,0,0,0,0,0,-1,2036,603,0,0
-700,414,0,0,0,0,0,0,0,0,0,-1,524,610,0,0
-693,414,0,0,0,0,0,0,0,0,0,-1,531,610,0,0
-686,414,0,0,0,0,0,0,0,0,0,-1,538,610,0,0
-679,414,0,0,0,0,0,0,0,0,0,-1,545,610,0,0
-672,414,0,0,0,0,0,0,0,0,0,-1,552,610,0,0
-665,414,0,0,0,0,0,0,0,0,0,-1,559,610,0,0
-658,414,0,0,0,0,0,0,0,0,0,-1,566,610,0,0
-651,414,0,0,0,0,0,0,0,0,0,-1,573,610,0,0
-644,414,0,0,0,0,0,0,0,0,0,-1,580,610,0,0
-637,414,0,0,0,0,0,0,0,0,0,-1,587,610,0,0
-630,414,0,0,0,0,0,0,0,0,0,-1,594,610,0,0
-623,414,0,0,0,0,0,0,0,0,0,-1,601,610,0,0
-616,414,0,0,0,0,0,0,0,0,0,-1,608,610,0,0
-609,414,0,0,0,0,0,0,0,0,0,-1,615,610,0,0
-602,414,0,0,0,0,0,0,0,0,0,-1,622,610,0,0
-595,414,0,0,0,0,0,0,0,0,0,-1,629,610,0,0
-588,414,0,0,0,0,0,0,0,0,0,-1,636,610,0,0
-581,414,0,0,0,0,0,0,0,0,0,-1,643,610,0,0
-574,414,0,0,0,0,0,0,0,0,0,-1,650,610,0,0
-567,414,0,0,0,0,0,0,0,0,0,-1,657,610,0,0
-560,414,0,0,0,0,0,0,0,0,0,-1,664,610,0,0
-553,414,0,0,0,0,0,0,0,0,0,-1,671,610,0,0
-546,414,0,0,0,0,0,0,0,0,0,-1,678,610,0,0
-539,414,-7.50146,5.65619,0,0,0,0,0,0,0,-1,685,610,-7.50149,-5.65617
-532,414,-8.15204,4.01605,0,0,0,0,0,0,0,-1,692,610,-8.15206,-4.01606
-525,414,-3.47137,-3.27924,0,0,0,0,0,0,0,-1,699,610,-3.47136,3.27922
-518,414,-3.41998,-4.42413,0,0,0,0,0,0,0,-1,706,610,-3.42001,4.4241
-511,414,-3.92542,-4.97021,0,0,0,0,0,0,0,-1,713,610,-3.92542,4.97023
-504,414,-1.62408,-3.64496,0,0,0,0,0,0,0,-1,720,610,-1.62406,3.64499
-497,414,-5.15021,-3.23401,0,0,0,0,0,0,0,-1,727,610,-5.1502,3.23404
-490,414,-5.23407,-3.03082,0.00905303,0.0172013,-0.00890986,0.0229243,0.00333001,-0.999836,0.0143027,0.0450599,734,610,-5.2341,3.03081
-483,414,-5.11859,-3.85553,0.00729679,0.0131251,-0.00775492,0.0184953,0.00192656,-0.965126,0.0117408,0.0245095,741,610,-5.11857,3.85555
-476,414,-5.17053,-4.33112,0.0058554,0.00991768,-0.00656003,0.0147538,0.00101926,-0.935529,0.00951434,0.0151442,748,610,-5.17054,4.33112
-469,414,-5.20471,-4.66943,0.00464699,0.00734222,-0.00536973,0.0115309,0.00045835,-0.908342,0.0075391,0.0123719,755,610,-5.20472,4.66942
-462,414,-5.22797,-5.04907,0.00350045,0.00509468,-0.00433395,0.0087042,-0.000109076,-0.876343,0.0058395,0.0207761,762,610,-5.22795,5.04908
-455,414,-5.24774,-5.42395,0.00258275,0.00357312,-0.00325339,0.00636879,-0.000212925,-0.860921,0.00431859,0.023124,769,610,-5.24771,5.42398
-448,414,-5.24377,-5.76813,0.001769,0.00226293,-0.00209923,0.00412967,-9.77449e-05,-0.843952,0.00278627,0.0235093,776,610,-5.24375,5.76814
-441,414,-5.20355,-6.13794,0.000809438,0.00119713,-0.00100467,0.00202648,-1.99182e-05,-0.880699,0.00135768,0.0170695,783,610,-5.20358,6.13792
-434,414,-5.20868,-6.50549,-0.000200798,5.00064e-05,0.000150569,0.000120555,-0.000271346,1.13263,0.00023178,0.0100958,790,610,-5.20867,6.50551
-427,414,-5.21692,-6.83997,-0.00132662,-0.000858737,0.00125047,0.000179486,-0.00236485,0.877871,0.00163967,0.0106075,797,610,-5.2169,6.83998
-420,414,-5.21729,-7.1792,-0.00264356,-0.00188913,0.00255305,0.000314425,-0.00484711,0.858743,0.00334115,0.0104569,804,610,-5.21729,7.17917
-413,414,-5.23096,-7.54205,-0.00414409,-0.00320619,0.00414166,0.000492986,-0.00784327,0.841772,0.00540068,0.0109662,811,610,-5.23095,7.54203
-406,414,-5.22327,-7.96509,-0.00600008,-0.00468346,0.0058878,0.000582718,-0.0112663,0.841072,0.00771242,0.0191928,818,610,-5.22328,7.96507
-399,414,-5.24725,-8.19049,-0.00831835,-0.00657805,0.00798974,0.000588787,-0.0154852,0.839639,0.0105252,0.0339707,825,610,-5.24725,8.1905
-392,414,-5.37238,-8.4032,-0.01119,-0.0086763,0.0106671,0.000807786,-0.0206741,0.844039,0.0140597,0.0380276,832,610,-5.37235,8.40319
-385,414,-5.87744,-8.51044,0,0,0,0,0,0,0,-1,839,610,-5.87747,8.51042
-378,414,-6.43768,-8.69086,0,0,0,0,0,0,0,-1,846,610,-6.43767,8.69085
-371,414,-6.52948,-6.48608,0,0,0,0,0,0,0,-1,853,610,-6.52945,6.48606
-364,414,-6.76282,-6.58759,0,0,0,0,0,0,0,-1,860,610,-6.7628,6.58756
-357,414,-9.08685,-8.86188,0,0,0,0,0,0,0,-1,867,610,-9.08688,8.86187
-350,414,-6.4502,-2.41821,0,0,0,0,0,0,0,-1,874,610,-6.45021,2.41822
-343,414,-6.80249,-2.32117,0,0,0,0,0,0,0,-1,881,610,-6.80252,2.32116
-336,414,-7.11017,-2.52026,0,0,0,0,0,0,0,-1,888,610,-7.11016,2.52026
-329,414,-7.59747,-2.70313,0,0,0,0,0,0,0,-1,895,610,-7.59747,2.70315
-322,414,-4.42236,-1.29163,0,0,0,0,0,0,0,-1,902,610,-4.42238,1.2916
-315,414,0,0,0,0,0,0,0,0,0,-1,909,610,0,0
-308,414,0,0,0,0,0,0,0,0,0,-1,916,610,0,0
-301,414,0,0,0,0,0,0,0,0,0,-1,923,610,0,0
-294,414,0,0,0,0,0,0,0,0,0,-1,930,610,0,0
-287,414,0,0,0,0,0,0,0,0,0,-1,937,610,0,0
-280,414,0,0,0,0,0,0,0,0,0,-1,944,610,0,0
-273,414,0,0,0,0,0,0,0,0,0,-1,951,610,0,0
-266,414,0,0,0,0,0,0,0,0,0,-1,958,610,0,0
-259,414,0,0,0,0,0,0,0,0,0,-1,965,610,0,0
-252,414,0,0,0,0,0,0,0,0,0,-1,972,610,0,0
-245,414,0,0,0,0,0,0,0,0,0,-1,979,610,0,0
-238,414,0,0,0,0,0,0,0,0,0,-1,986,610,0,0
-231,414,0,0,0,0,0,0,0,0,0,-1,993,610,0,0
-224,414,0,0,0,0,0,0,0,0,0,-1,1000,610,0,0
-217,414,0,0,0,0,0,0,0,0,0,-1,1007,610,0,0
-210,414,0,0,0,0,0,0,0,0,0,-1,1014,610,0,0
-203,414,0,0,0,0,0,0,0,0,0,-1,1021,610,0,0
-196,414,0,0,0,0,0,0,0,0,0,-1,1028,610,0,0
-189,414,0,0,0,0,0,0,0,0,0,-1,1035,610,0,0
-182,414,0,0,0,0,0,0,0,0,0,-1,1042,610,0,0
-175,414,0,0,0,0,0,0,0,0,0,-1,1049,610,0,0
-168,414,0,0,0,0,0,0,0,0,0,-1,1056,610,0,0
-161,414,0,0,0,0,0,0,0,0,0,-1,1063,610,0,0
-154,414,0,0,0,0,0,0,0,0,0,-1,1070,610,0,0
-147,414,0,0,0,0,0,0,0,0,0,-1,1077,610,0,0
-140,414,0,0,0,0,0,0,0,0,0,-1,1084,610,0,0
-133,414,0,0,0,0,0,0,0,0,0,-1,1091,610,0,0
-126,414,0,0,0,0,0,0,0,0,0,-1,1098,610,0,0
-119,414,0,0,0,0,0,0,0,0,0,-1,1105,610,0,0
-112,414,0,0,0,0,0,0,0,0,0,-1,1112,610,0,0
-105,414,0,0,0,0,0,0,0,0,0,-1,1119,610,0,0
-98,414,0,0,0,0,0,0,0,0,0,-1,1126,610,0,0
-91,414,0,0,0,0,0,0,0,0,0,-1,1133,610,0,0
-84,414,0,0,0,0,0,0,0,0,0,-1,1140,610,0,0
-77,414,0,0,0,0,0,0,0,0,0,-1,1147,610,0,0
-70,414,0,0,0,0,0,0,0,0,0,-1,1154,610,0,0
-63,414,0,0,0,0,0,0,0,0,0,-1,1161,610,0,0
-56,414,0,0,0,0,0,0,0,0,0,-1,1168,610,0,0
-49,414,0,0,0,0,0,0,0,0,0,-1,1175,610,0,0
-42,414,0,0,0,0,0,0,0,0,0,-1,1182,610,0,0
-35,414,0,0,0,0,0,0,0,0,0,-1,1189,610,0,0
-28,414,0,0,0,0,0,0,0,0,0,-1,1196,610,0,0
-21,414,0,0,0,0,0,0,0,0,0,-1,1203,610,0,0
-14,414,0,0,0,0,0,0,0,0,0,-1,1210,610,0,0
-7,414,0,0,0,0,0,0,0,0,0,-1,1217,610,0,0
0,414,0,0,0,0,0,0,0,0,0,-1,1224,610,0,0
7,414,0,0,0,0,0,0,0,0,0,-1,1231,610,0,0
14,414,0,0,0,0,0,0,0,0,0,-1,1238,610,0,0
21,414,0,0,0,0,0,0,0,0,0,-1,1245,610,0,0
28,414,0,0,0,0,0,0,0,0,0,-1,1252,610,0,0
35,414,0,0,0,0,0,0,0,0,0,-1,1259,610,0,0
42,414,0,0,0,0,0,0,0,0,0,-1,1266,610,0,0
49,414,0,0,0,0,0,0,0,0,0,-1,1273,610,0,0
56,414,0,0,0,0,0,0,0,0,0,-1,1280,610,0,0
63,414,0,0,0,0,0,0,0,0,0,-1,1287,610,0,0
70,414,0,0,0,0,0,0,0,0,0,-1,1294,610,0,0
77,414,0,0,0,0,0,0,0,0,0,-1,1301,610,0,0
84,414,0,0,0,0,0,0,0,0,0,-1,1308,610,0,0
91,414,0,0,0,0,0,0,0,0,0,-1,1315,610,0,0
98,414,0,0,0,0,0,0,0,0,0,-1,1322,610,0,0
105,414,0,0,0,0,0,0,0,0,0,-1,1329,610,0,0
112,414,0,0,0,0,0,0,0,0,0,-1,1336,610,0,0
119,414,0,0,0,0,0,0,0,0,0,-1,1343,610,0,0
126,414,0,0,0,0,0,0,0,0,0,-1,1350,610,0,0
133,414,0,0,0,0,0,0,0,0,0,-1,1357,610,0,0
140,414,0,0,0,0,0,0,0,0,0,-1,1364,610,0,0
147,414,0,0,0,0,0,0,0,0,0,-1,1371,610,0,0
154,414,0,0,0,0,0,0,0,0,0,-1,1378,610,0,0
161,414,0,0,0,0,0,0,0,0,0,-1,1385,610,0,0
168,414,0,0,0,0,0,0,0,0,0,-1,1392,610,0,0
175,414,0,0,0,0,0,0,0,0,0,-1,1399,610,0,0
182,414,0,0,0,0,0,0,0,0,0,-1,1406,610,0,0
189,414,0,0,0,0,0,0,0,0,0,-1,1413,610,0,0
196,414,0,0,0,0,0,0,0,0,0,-1,1420,610,0,0
203,414,0,0,0,0,0,0,0,0,0,-1,1427,610,0,0
210,414,0,0,0,0,0,0,0,0,0,-1,1434,610,0,0
217,414,0,0,0,0,0,0,0,0,0,-1,1441,610,0,0
224,414,0,0,0,0,0,0,0,0,0,-1,1448,610,0,0
231,414,0,0,0,0,0,0,0,0,0,-1,1455,610,0,0
238,414,0,0,0,0,0,0,0,0,0,-1,1462,610,0,0
245,414,0,0,0,0,0,0,0,0,0,-1,1469,610,0,0
252,414,0,0,0,0,0,0,0,0,0,-1,1476,610,0,0
259,414,0,0,0,0,0,0,0,0,0,-1,1483,610,0,0
266,414,0,0,0,0,0,0,0,0,0,-1,1490,610,0,0
273,414,0,0,0,0,0,0,0,0,0,-1,1497,610,0,0
280,414,0,0,0,0,0,0,0,0,0,-1,1504,610,0,0
287,414,0,0,0,0,0,0,0,0,0,-1,1511,610,0,0
294,414,0,0,0,0,0,0,0,0,0,-1,1518,610,0,0
301,414,0,0,0,0,0,0,0,0,0,-1,1525,610,0,0
308,414,0,0,0,0,0,0,0,0,0,-1,1532,610,0,0
315,414,0,0,0,0,0,0,0,0,0,-1,1539,610,0,0
322,414,0,0,0,0,0,0,0,0,0,-1,1546,610,0,0
329,414,0,0,0,0,0,0,0,0,0,-1,1553,610,0,0
336,414,0,0,0,0,0,0,0,0,0,-1,1560,610,0,0
343,414,0,0,0,0,0,0,0,0,0,-1,1567,610,0,0
350,414,0,0,0,0,0,0,0,0,0,-1,1574,610,0,0
357,414,0,0,0,0,0,0,0,0,0,-1,1581,610,0,0
364,414,0,0,0,0,0,0,0,0,0,-1,1588,610,0,0
371,414,0,0,0,0,0,0,0,0,0,-1,1595,610,0,0
378,414,0,0,0,0,0,0,0,0,0,-1,1602,610,0,0
385,414,0,0,0,0,0,0,0,0,0,-1,1609,610,0,0
392,414,0,0,0,0,0,0,0,0,0,-1,1616,610,0,0
399,414,0,0,0,0,0,0,0,0,0,-1,1623,610,0,0
406,414,0,0,0,0,0,0,0,0,0,-1,1630,610,0,0
413,414,0,0,0,0,0,0,0,0,0,-1,1637,610,0,0
420,414,0,0,0,0,0,0,0,0,0,-1,1644,610,0,0
427,414,0,0,0,0,0,0,0,0,0,-1,1651,610,0,0
434,414,0,0,0,0,0,0,0,0,0,-1,1658,610,0,0
441,414,7.84375,0.584412,0,0,0,0,0,0,0,-1,1665,610,7.84379,-0.584394
448,414,7.40808,1.25446,0,0,0,0,0,0,0,-1,1672,610,7.40807,-1.25446
455,414,6.3512,1.73846,0,0,0,0,0,0,0,-1,1679,610,6.3512,-1.73847
462,414,8.18103,3.22113,0,0,0,0,0,0,0,-1,1686,610,8.18108,-3.22112
469,414,8.38513,2.49579,0,0,0,0,0,0,0,-1,1693,610,8.38516,-2.49576
476,414,8.64099,1.71161,0,0,0,0,0,0,0,-1,1700,610,8.64097,-1.71164
483,414,8.62744,0.687622,0,0,0,0,0,0,0,-1,1707,610,8.62749,-0.687615
490,414,8.38831,-0.0302734,0,0,0,0,0,0,0,-1,1714,610,8.38835,0.0302913
497,414,4.71094,-0.110046,0,0,0,0,0,0,0,-1,1721,610,4.71089,0.110024
504,414,7.19568,-1.43835,0,0,0,0,0,0,0,-1,1728,610,7.19563,1.43836
511,414,5.94153,-1.28772,0,0,0,0,0,0,0,-1,1735,610,5.94151,1.28769
518,414,4.53381,-0.0996704,0,0,0,0,0,0,0,-1,1742,610,4.53378,0.0996819
525,414,6.18811,-1.64056,0,0,0,0,0,0,0,-1,1749,610,6.18814,1.64055
532,414,12.5986,-6.54572,0,0,0,0,0,0,0,-1,1756,610,12.5986,6.54572
539,414,12.6427,-6.02338,0.00153739,0.0024835,0.00093768,0.00306069,0.000960192,1.01902,0.00180751,0.0479078,1763,610,12.6427,6.02339
546,414,12.6802,-5.54291,0.00104662,0.00182934,0.000517932,0.00208714,0.00078881,1.10894,0.00121692,0.0136454,1770,610,12.6802,5.5429
553,414,12.6923,-5.18378,0.000717374,0.00120595,0.00021302,0.00128579,0.000637542,1.21223,0.000742358,0.012515,1777,610,12.6923,5.18377
560,414,12.6935,-4.79327,0.000397838,0.000781512,4.96181e-06,0.000781576,0.000397773,1.55787,0.000451267,0.0150822,1784,610,12.6935,4.79328
567,414,12.6888,-4.39282,0.000154979,0.0005256,-5.7655e-05,0.000534362,0.000146218,-1.41998,0.00031888,0.0248535,1791,610,12.6889,4.39281
574,414,12.6376,-4.03906,4.3445e-05,0.000417049,2.38544e-05,0.000418566,4.19281e-05,1.50729,0.000266171,0.021896,1798,610,12.6376,4.03907
581,414,12.6538,-3.64636,3.81812e-06,0.000445957,0.000227397,0.000542033,-9.22574e-05,1.17104,0.000395709,0.0157544,1805,610,12.6539,3.64639
588,414,12.6387,-3.30188,1.8251e-05,0.000651954,0.000542473,0.000963332,-0.000293126,1.04972,0.000759037,0.0148603,1812,610,12.6387,3.30187
595,414,12.642,-2.89038,0.000218801,0.00111623,0.00105856,0.00181725,-0.000482221,0.985864,0.0014002,0.0209005,1819,610,12.6419,2.89036
602,414,12.641,-2.49536,0.00033393,0.00184773,0.00169359,0.00294586,-0.000764207,0.995543,0.00226209,0.0246837,1826,610,12.641,2.49536
609,414,12.6305,-2.14709,0,0,0,0,0,0,0,-1,1833,610,12.6305,2.14708
616,414,12.9039,-1.53778,0,0,0,0,0,0,0,-1,1840,610,12.9039,1.53777
623,414,9.6969,0.0378418,0,0,0,0,0,0,0,-1,1847,610,9.69685,-0.0378644
630,414,5.47144,0.499329,0,0,0,0,0,0,0,-1,1854,610,5.47142,-0.499303
637,414,8.0824,4.20221,0,0,0,0,0,0,0,-1,1861,610,8.08239,-4.20223
644,414,5.87073,1.51422,0,0,0,0,0,0,0,-1,1868,610,5.87076,-1.51424
651,414,3.6377,0.820557,0,0,0,0,0,0,0,-1,1875,610,3.6377,-0.820543
658,414,2.29761,3.87323,0,0,0,0,0,0,0,-1,1882,610,2.29758,-3.87325
665,414,0,0,0,0,0,0,0,0,0,-1,1889,610,0,0
672,414,0,0,0,0,0,0,0,0,0,-1,1896,610,0,0
679,414,0,0,0,0,0,0,0,0,0,-1,1903,610,0,0
686,414,0,0,0,0,0,0,0,0,0,-1,1910,610,0,0
693,414,0,0,0,0,0,0,0,0,0,-1,1917,610,0,0
700,414,0,0,0,0,0,0,0,0,0,-1,1924,610,0,0
707,414,0,0,0,0,0,0,0,0,0,-1,1931,610,0,0
714,414,0,0,0,0,0,0,0,0,0,-1,1938,610,0,0
721,414,0,0,0,0,0,0,0,0,0,-1,1945,610,0,0
728,414,0,0,0,0,0,0,0,0,0,-1,1952,610,0,0
735,414,0,0,0,0,0,0,0,0,0,-1,1959,610,0,0
742,414,0,0,0,0,0,0,0,0,0,-1,1966,610,0,0
749,414,0,0,0,0,0,0,0,0,0,-1,1973,610,0,0
756,414,0,0,0,0,0,0,0,0,0,-1,1980,610,0,0
763,414,0,0,0,0,0,0,0,0,0,-1,1987,610,0,0
770,414,0,0,0,0,0,0,0,0,0,-1,1994,610,0,0
777,414,0,0,0,0,0,0,0,0,0,-1,2001,610,0,0
784,414,0,0,0,0,0,0,0,0,0,-1,2008,610,0,0
791,414,0,0,0,0,0,0,0,0,0,-1,2015,610,0,0
798,414,0,0,0,0,0,0,0,0,0,-1,2022,610,0,0
805,414,0,0,0,0,0,0,0,0,0,-1,2029,610,0,0
812,414,0,0,0,0,0,0,0,0,0,-1,2036,610,0,0
-700,407,0,0,0,0,0,0,0,0,0,-1,524,617,0,0
-693,407,0,0,0,0,0,0,0,0,0,-1,531,617,0,0
-686,407,0,0,0,0,0,0,0,0,0,-1,538,617,0,0
-679,407,0,0,0,0,0,0,0,0,0,-1,545,617,0,0
-672,407,0,0,0,0,0,0,0,0,0,-1,552,617,0,0
-665,407,0,0,0,0,0,0,0,0,0,-1,559,617,0,0
-658,407,0,0,0,0,0,0,0,0,0,-1,566,617,0,0
-651,407,0,0,0,0,0,0,0,0,0,-1,573,617,0,0
-644,407,0,0,0,0,0,0,0,0,0,-1,580,617,0,0
-637,407,0,0,0,0,0,0,0,0,0,-1,587,617,0,0
-630,407,0,0,0,0,0,0,0,0,0,-1,594,617,0,0
-623,407,0,0,0,0,0,0,0,0,0,-1,601,617,0,0
-616,407,0,0,0,0,0,0,0,0,0,-1,608,617,0,0
-609,407,0,0,0,0,0,0,0,0,0,-1,615,617,0,0
-602,407,0,0,0,0,0,0,0,0,0,-1,622,617,0,0
-595,407,0,0,0,0,0,0,0,0,0,-1,629,617,0,0
-588,407,0,0,0,0,0,0,0,0,0,-1,636,617,0,0
-581,407,0,0,0,0,0,0,0,0,0,-1,643,617,0,0
-574,407,0,0,0,0,0,0,0,0,0,-1,650,617,0,0
-567,407,0,0,0,0,0,0,0,0,0,-1,657,617,0,0
-560,407,0,0,0,0,0,0,0,0,0,-1,664,617,0,0
-553,407,0,0,0,0,0,0,0,0,0,-1,671,617,0,0
-546,407,-8.54517,-0.658142,0,0,0,0,0,0,0,-1,678,617,-8.54515,0.658112
-539,407,-6.09442,-1.01154,0,0,0,0,0,0,0,-1,685,617,-6.09441,1.01155
-532,407,-7.75665,1.62152,0,0,0,0,0,0,0,-1,692,617,-7.75667,-1.62154
-525,407,-3.78247,-2.67639,0,0,0,0,0,0,0,-1,699,617,-3.78246,2.67638
-518,407,-5.013,-5.87323,0,0,0,0,0,0,0,-1,706,617,-5.013,5.87324
-511,407,-4.26392,-4.37659,0,0,0,0,0,0,0,-1,713,617,-4.26393,4.37658
-504,407,-5.41168,-2.89539,0,0,0,0,0,0,0,-1,720,617,-5.4117,2.8954
-497,407,-5.42657,-3.24976,0.00810952,0.0185527,-0.00676816,0.0218794,0.00478284,-1.11396,0.0132822,0.0400869,727,617,-5.42655,3.24973
-490,407,-5.48779,-3.55994,0.00655461,0.0140821,-0.00618188,0.0175559,0.00308086,-1.05884,0.0108241,0.0279114,734,617,-5.48778,3.55992
-483,407,-5.47906,-3.92078,0.00540252,0.0106907,-0.00557334,0.0142153,0.00187786,-1.00688,0.00891708,0.0178595,741,617,-5.47904,3.92078
-476,407,-5.51068,-4.28467,0.00446008,0.00800529,-0.00484753,0.0113942,0.00107122,-0.960682,0.0072654,0.0116435,748,617,-5.51066,4.28466
-469,407,-5.54254,-4.64423,0.00367165,0.00586227,-0.00406583,0.00897774,0.000556175,-0.916972,0.00580865,0.0125289,755,617,-5.54252,4.64422
-462,407,-5.56866,-5.00867,0.00280487,0.0039538,-0.00335684,0.00678497,-2.63075e-05,-0.870144,0.00453211,0.0196553,762,617,-5.56867,5.00864
-455,407,-5.57721,-5.39734,0.00205629,0.00272701,-0.00247832,0.00489255,-0.000109256,-0.852648,0.00329873,0.021414,769,617,-5.57722,5.39733
-448,407,-5.5592,-5.75018,0.00138854,0.00156655,-0.0014902,0.0029704,-1.53076e-05,-0.815225,0.00198539,0.0191169,776,617,-5.55922,5.75016
-441,407,-5.57355,-6.10822,0.000434688,0.000613896,-0.000476477,0.00100912,3.94629e-05,-0.87834,0.000659986,0.0143044,783,617,-5.57353,6.10819
-434,407,-5.5788,-6.45624,-0.000614303,-0.000365759,0.000612281,0.000134734,-0.0011148,0.885521,0.000791939,0.0103795,790,617,-5.5788,6.45623
-427,407,-5.57489,-6.81262,-0.00189505,-0.00126396,0.00175119,0.000199889,-0.0033589,0.874535,0.00230878,0.0107425,797,617,-5.57492,6.81263
-420,407,-5.5636,-7.16779,-0.00339212,-0.00230767,0.00310125,0.000298394,-0.00599818,0.871943,0.00410187,0.0112089,804,617,-5.56359,7.16778
-413,407,-5.5578,-7.51727,-0.00522685,-0.00375444,0.00491329,0.000477494,-0.00945879,0.859765,0.0064709,0.0132343,811,617,-5.55779,7.51727
-406,407,-5.6076,-7.7384,-0.007752,-0.005565,0.00707044,0.000495999,-0.013813,0.862119,0.00937837,0.030292,818,617,-5.60762,7.7384
-399,407,-5.63623,-7.80927,-0.0109947,-0.00800392,0.00978585,0.000400121,-0.0193988,0.861218,0.0130679,0.0486184,825,617,-5.63624,7.80929
-392,407,-5.74615,-8.43817,0,0,0,0,0,0,0,-1,832,617,-5.74618,8.4382
-385,407,-6.2757,-8.21411,0,0,0,0,0,0,0,-1,839,617,-6.27572,8.21411
-378,407,-7.28882,-5.95453,0,0,0,0,0,0,0,-1,846,617,-7.28881,5.95453
-371,407,-7.4007,-5.79449,0,0,0,0,0,0,0,-1,853,617,-7.40072,5.79447
-364,407,-10.0638,-6.6228,0,0,0,0,0,0,0,-1,860,617,-10.0639,6.62279
-357,407,-6.64447,-1.83337,0,0,0,0,0,0,0,-1,867,617,-6.64446,1.8334
-350,407,-7.03351,-1.77551,0,0,0,0,0,0,0,-1,874,617,-7.03349,1.77551
-343,407,-7.40967,-1.95026,0,0,0,0,0,0,0,-1,881,617,-7.40969,1.95026
-336,407,-8.10229,-2.40662,0,0,0,0,0,0,0,-1,888,617,-8.10229,2.40664
-329,407,-8.81232,-2.76331,0,0,0,0,0,0,0,-1,895,617,-8.81235,2.76331
-322,407,0,0,0,0,0,0,0,0,0,-1,902,617,0,0
-315,407,0,0,0,0,0,0,0,0,0,-1,909,617,0,0
-308,407,0,0,0,0,0,0,0,0,0,-1,916,617,0,0
-301,407,0,0,0,0,0,0,0,0,0,-1,923,617,0,0
-294,407,0,0,0,0,0,0,0,0,0,-1,930,617,0,0
-287,407,0,0,0,0,0,0,0,0,0,-1,937,617,0,0
-280,407,0,0,0,0,0,0,0,0,0,-1,944,617,0,0
-273,407,0,0,0,0,0,0,0,0,0,-1,951,617,0,0
-266,407,0,0,0,0,0,0,0,0,0,-1,958,617,0,0
-259,407,0,0,0,0,0,0,0,0,0,-1,965,617,0,0
-252,407,0,0,0,0,0,0,0,0,0,-1,972,617,0,0
-245,407,0,0,0,0,0,0,0,0,0,-1,979,617,0,0
-238,407,0,0,0,0,0,0,0,0,0,-1,986,617,0,0
-231,407,0,0,0,0,0,0,0,0,0,-1,993,617,0,0
-224,407,0,0,0,0,0,0,0,0,0,-1,1000,617,0,0
-217,407,0,0,0,0,0,0,0,0,0,-1,1007,617,0,0
-210,407,0,0,0,0,0,0,0,0,0,-1,1014,617,0,0
-203,407,0,0,0,0,0,0,0,0,0,-1,1021,617,0,0
-196,407,0,0,0,0,0,0,0,0,0,-1,1028,617,0,0
-189,407,0,0,0,0,0,0,0,0,0,-1,1035,617,0,0
-182,407,0,0,0,0,0,0,0,0,0,-1,1042,617,0,0
-175,407,0,0,0,0,0,0,0,0,0,-1,1049,617,0,0
-168,407,0,0,0,0,0,0,0,0,0,-1,1056,617,0,0
-161,407,0,0,0,0,0,0,0,0,0,-1,1063,617,0,0
-154,407,0,0,0,0,0,0,0,0,0,-1,1070,617,0,0
-147,407,0,0,0,0,0,0,0,0,0,-1,1077,617,0,0
-140,407,0,0,0,0,0,0,0,0,0,-1,1084,617,0,0
-133,407,0,0,0,0,0,0,0,0,0,-1,1091,617,0,0
-126,407,0,0,0,0,0,0,0,0,0,-1,1098,617,0,0
-119,407,0,0,0,0,0,0,0,0,0,-1,1105,617,0,0
-112,407,0,0,0,0,0,0,0,0,0,-1,1112,617,0,0
-105,407,0,0,0,0,0,0,0,0,0,-1,1119,617,0,0
-98,407,0,0,0,0,0,0,0,0,0,-1,1126,617,0,0
-91,407,0,0,0,0,0,0,0,0,0,-1,1133,617,0,0
-84,407,0,0,0,0,0,0,0,0,0,-1,1140,617,0,0
-77,407,0,0,0,0,0,0,0,0,0,-1,1147,617,0,0
-70,407,0,0,0,0,0,0,0,0,0,-1,1154,617,0,0
-63,407,0,0,0,0,0,0,0,0,0,-1,1161,617,0,0
-56,407,0,0,0,0,0,0,0,0,0,-1,1168,617,0,0
-49,407,0,0,0,0,0,0,0,0,0,-1,1175,617,0,0
-42,407,0,0,0,0,0,0,0,0,0,-1,1182,617,0,0
-35,407,0,0,0,0,0,0,0,0,0,-1,1189,617,0,0
-28,407,0,0,0,0,0,0,0,0,0,-1,1196,617,0,0
-21,407,0,0,0,0,0,0,0,0,0,-1,1203,617,0,0
-14,407,0,0,0,0,0,0,0,0,0,-1,1210,617,0,0
-7,407,0,0,0,0,0,0,0,0,0,-1,1217,617,0,0
0,407,0,0,0,0,0,0,0,0,0,-1,1224,617,0,0
7,407,0,0,0,0,0,0,0,0,0,-1,1231,617,0,0
14,407,0,0,0,0,0,0,0,0,0,-1,1238,617,0,0
21,407,0,0,0,0,0,0,0,0,0,-1,1245,617,0,0
28,407,0,0,0,0,0,0,0,0,0,-1,1252,617,0,0
35,407,0,0,0,0,0,0,0,0,0,-1,1259,617,0,0
42,407,0,0,0,0,0,0,0,0,0,-1,1266,617,0,0
49,407,0,0,0,0,0,0,0,0,0,-1,1273,617,0,0
56,407,0,0,0,0,0,0,0,0,0,-1,1280,617,0,0
63,407,0,0,0,0,0,0,0,0,0,-1,1287,617,0,0
70,407,0,0,0,0,0,0,0,0,0,-1,1294,617,0,0
77,407,0,0,0,0,0,0,0,0,0,-1,1301,617,0,0
84,407,0,0,0,0,0,0,0,0,0,-1,1308,617,0,0
91,407,0,0,0,0,0,0,0,0,0,-1,1315,617,0,0
98,407,0,0,0,0,0,0,0,0,0,-1,1322,617,0,0
105,407,0,0,0,0,0,0,0,0,0,-1,1329,617,0,0
112,407,0,0,0,0,0,0,0,0,0,-1,1336,617,0,0
119,407,0,0,0,0,0,0,0,0,0,-1,1343,617,0,0
126,407,0,0,0,0,0,0,0,0,0,-1,1350,617,0,0
133,407,0,0,0,0,0,0,0,0,0,-1,1357,617,0,0
140,407,0,0,0,0,0,0,0,0,0,-1,1364,617,0,0
147,407,0,0,0,0,0,0,0,0,0,-1,1371,617,0,0
154,407,0,0,0,0,0,0,0,0,0,-1,1378,617,0,0
161,407,0,0,0,0,0,0,0,0,0,-1,1385,617,0,0
168,407,0,0,0,0,0,0,0,0,0,-1,1392,617,0,0
175,407,0,0,0,0,0,0,0,0,0,-1,1399,617,0,0
182,407,0,0,0,0,0,0,0,0,0,-1,1406,617,0,0
189,407,0,0,0,0,0,0,0,0,0,-1,1413,617,0,0
196,407,0,0,0,0,0,0,0,0,0,-1,1420,617,0,0
203,407,0,0,0,0,0,0,0,0,0,-1,1427,617,0,0
210,407,0,0,0,0,0,0,0,0,0,-1,1434,617,0,0
217,407,0,0,0,0,0,0,0,0,0,-1,1441,617,0,0
224,407,0,0,0,0,0,0,0,0,0,-1,1448,617,0,0
231,407,0,0,0,0,0,0,0,0,0,-1,1455,617,0,0
238,407,0,0,0,0,0,0,0,0,0,-1,1462,617,0,0
245,407,0,0,0,0,0,0,0,0,0,-1,1469,617,0,0
252,407,0,0,0,0,0,0,0,0,0,-1,1476,617,0,0
259,407,0,0,0,0,0,0,0,0,0,-1,1483,617,0,0
266,407,0,0,0,0,0,0,0,0,0,-1,1490,617,0,0
273,407,0,0,0,0,0,0,0,0,0,-1,1497,617,0,0
280,407,0,0,0,0,0,0,0,0,0,-1,1504,617,0,0
287,407,0,0,0,0,0,0,0,0,0,-1,1511,617,0,0
294,407,0,0,0,0,0,0,0,0,0,-1,1518,617,0,0
301,407,0,0,0,0,0,0,0,0,0,-1,1525,617,0,0
308,407,0,0,0,0,0,0,0,0,0,-1,1532,617,0,0
315,407,0,0,0,0,0,0,0,0,0,-1,1539,617,0,0
322,407,0,0,0,0,0,0,0,0,0,-1,1546,617,0,0
329,407,0,0,0,0,0,0,0,0,0,-1,1553,617,0,0
336,407,0,0,0,0,0,0,0,0,0,-1,1560,617,0,0
343,407,0,0,0,0,0,0,0,0,0,-1,1567,617,0,0
350,407,0,0,0,0,0,0,0,0,0,-1,1574,617,0,0
357,407,0,0,0,0,0,0,0,0,0,-1,1581,617,0,0
364,407,0,0,0,0,0,0,0,0,0,-1,1588,617,0,0
371,407,0,0,0,0,0,0,0,0,0,-1,1595,617,0,0
378,407,0,0,0,0,0,0,0,0,0,-1,1602,617,0,0
385,407,0,0,0,0,0,0,0,0,0,-1,1609,617,0,0
392,407,0,0,0,0,0,0,0,0,0,-1,1616,617,0,0
399,407,0,0,0,0,0,0,0,0,0,-1,1623,617,0,0
406,407,0,0,0,0,0,0,0,0,0,-1,1630,617,0,0
413,407,0,0,0,0,0,0,0,0,0,-1,1637,617,0,0
420,407,0,0,0,0,0,0,0,0,0,-1,1644,617,0,0
427,407,0,0,0,0,0,0,0,0,0,-1,1651,617,0,0
434,407,0,0,0,0,0,0,0,0,0,-1,1658,617,0,0
441,407,0,0,0,0,0,0,0,0,0,-1,1665,617,0,0
448,407,7.02893,2.13843,0,0,0,0,0,0,0,-1,1672,617,7.02899,-2.13844
455,407,7.55237,2.29242,0,0,0,0,0,0,0,-1,1679,617,7.55236,-2.29244
462,407,8.2926,2.46173,0,0,0,0,0,0,0,-1,1686,617,8.29261,-2.46174
469,407,8.71509,2.22681,0,0,0,0,0,0,0,-1,1693,617,8.71511,-2.22681
476,407,8.89917,1.47766,0,0,0,0,0,0,0,-1,1700,617,8.89914,-1.47768
483,407,9.02612,0.682983,0,0,0,0,0,0,0,-1,1707,617,9.02608,-0.683004
490,407,9.12659,0.000671387,0,0,0,0,0,0,0,-1,1714,617,9.12653,-0.000675931
497,407,7.76819,0.855835,0,0,0,0,0,0,0,-1,1721,617,7.7682,-0.855865
504,407,4.69336,0.160706,0,0,0,0,0,0,0,-1,1728,617,4.69337,-0.1607
511,407,4.07104,-0.00140381,0,0,0,0,0,0,0,-1,1735,617,4.07109,0.00141425
518,407,6.09534,1.9411,0,0,0,0,0,0,0,-1,1742,617,6.09532,-1.94113
525,407,5.72534,-1.35986,0,0,0,0,0,0,0,-1,1749,617,5.72529,1.35988
532,407,12.9747,-6.03418,0,0,0,0,0,0,0,-1,1756,617,12.9747,6.03416
539,407,12.9183,-6.11102,0,0,0,0,0,0,0,-1,1763,617,12.9183,6.11099
546,407,13.0524,-5.52948,0.000578222,0.00216272,0.000248052,0.00220064,0.000540297,1.41908,0.00132426,0.0178952,1770,617,13.0524,5.5295
553,407,13.0416,-5.18506,0.000384451,0.00146942,-2.95859e-05,0.00147022,0.000383645,-1.54355,0.000880579,0.0148368,1777,617,13.0416,5.18506
560,407,13.0579,-4.79742,0.000189482,0.0010108,-0.000195695,0.00105504,0.000145237,-1.34844,0.000660296,0.016231,1784,617,13.0579,4.79745
567,407,13.0271,-4.42188,6.03913e-05,0.000719923,-0.000215509,0.000784098,-3.78373e-06,-1.28137,0.000523998,0.0293929,1791,617,13.0271,4.4219
574,407,13.0271,-4.06512,5.04902e-05,0.000614254,-7.63423e-05,0.000624409,4.03352e-05,-1.43855,0.0004035,0.0242641,1798,617,13.027,4.06515
581,407,13.0442,-3.64001,9.63155e-05,0.000659707,0.00017358,0.000708892,4.713e-05,1.29467,0.000457695,0.0156199,1805,617,13.0442,3.64004
588,407,13.0232,-3.28619,0.000173453,0.000863893,0.000505457,0.00113077,-9.34247e-05,1.08501,0.00078684,0.0112842,1812,617,13.0232,3.28618
595,407,13.0221,-2.91736,0.000437216,0.00129726,0.00101709,0.0019715,-0.00023702,0.985401,0.00140004,0.0221181,1819,617,13.0221,2.91733
602,407,13.0322,-2.50842,0.000562867,0.00196299,0.0016339,0.00304049,-0.000514633,0.987797,0.00221852,0.0187312,1826,617,13.0323,2.50845
609,407,12.9836,-2.08417,0.000234731,0.00259467,0.00212312,0.00384369,-0.00101429,1.03903,0.00295908,0.0162321,1833,617,12.9836,2.08417
616,407,13.0319,-1.58417,-0.000307413,0.00352699,0.00262363,0.00485927,-0.00163969,1.10093,0.00390264,0.029465,1840,617,13.0318,1.58414
623,407,13.2986,-0.990417,0,0,0,0,0,0,0,-1,1847,617,13.2986,0.990419
630,407,7.06177,0.814575,0,0,0,0,0,0,0,-1,1854,617,7.06178,-0.814579
637,407,7.7749,1.28949,0,0,0,0,0,0,0,-1,1861,617,7.77485,-1.28948
644,407,5.09766,2.27747,0,0,0,0,0,0,0,-1,1868,617,5.09764,-2.27746
651,407,7.37524,0.0513916,0,0,0,0,0,0,0,-1,1875,617,7.3752,-0.0513923
658,407,3.76685,0.594177,0,0,0,0,0,0,0,-1,1882,617,3.76683,-0.594184
665,407,5.76123,0.375061,0,0,0,0,0,0,0,-1,1889,617,5.76118,-0.37509
672,407,0,0,0,0,0,0,0,0,0,-1,1896,617,0,0
679,407,0,0,0,0,0,0,0,0,0,-1,1903,617,0,0
686,407,0,0,0,0,0,0,0,0,0,-1,1910,617,0,0
693,407,0,0,0,0,0,0,0,0,0,-1,1917,617,0,0
700,407,0,0,0,0,0,0,0,0,0,-1,1924,617,0,0
707,407,0,0,0,0,0,0,0,0,0,-1,1931,617,0,0
714,407,0,0,0,0,0,0,0,0,0,-1,1938,617,0,0
721,407,0,0,0,0,0,0,0,0,0,-1,1945,617,0,0
728,407,0,0,0,0,0,0,0,0,0,-1,1952,617,0,0
735,407,0,0,0,0,0,0,0,0,0,-1,1959,617,0,0
742,407,0,0,0,0,0,0,0,0,0,-1,1966,617,0,0
749,407,0,0,0,0,0,0,0,0,0,-1,1973,617,0,0
756,407,0,0,0,0,0,0,0,0,0,-1,1980,617,0,0
763,407,0,0,0,0,0,0,0,0,0,-1,1987,617,0,0
770,407,0,0,0,0,0,0,0,0,0,-1,1994,617,0,0
777,407,0,0,0,0,0,0,0,0,0,-1,2001,617,0,0
784,407,0,0,0,0,0,0,0,0,0,-1,2008,617,0,0
791,407,0,0,0,0,0,0,0,0,0,-1,2015,617,0,0
798,407,0,0,0,0,0,0,0,0,0,-1,2022,617,0,0
805,407,0,0,0,0,0,0,0,0,0,-1,2029,617,0,0
812,407,0,0,0,0,0,0,0,0,0,-1,2036,617,0,0
-700,400,0,0,0,0,0,0,0,0,0,-1,524,624,0,0
-693,400,0,0,0,0,0,0,0,0,0,-1,531,624,0,0
-686,400,0,0,0,0,0,0,0,0,0,-1,538,624,0,0
-679,400,0,0,0,0,0,0,0,0,0,-1,545,624,0,0
-672,400,0,0,0,0,0,0,0,0,0,-1,552,624,0,0
-665,400,0,0,0,0,0,0,0,0,0,-1,559,624,0,0
-658,400,0,0,0,0,0,0,0,0,0,-1,566,624,0,0
-651,400,0,0,0,0,0,0,0,0,0,-1,573,624,0,0
-644,400,0,0,0,0,0,0,0,0,0,-1,580,624,0,0
-637,400,0,0,0,0,0,0,0,0,0,-1,587,624,0,0
-630,400,0,0,0,0,0,0,0,0,0,-1,594,624,0,0
-623,400,0,0,0,0,0,0,0,0,0,-1,601,624,0,0
-616,400,0,0,0,0,0,0,0,0,0,-1,608,624,0,0
-609,400,0,0,0,0,0,0,0,0,0,-1,615,624,0,0
-602,400,0,0,0,0,0,0,0,0,0,-1,622,624,0,0
-595,400,0,0,0,0,0,0,0,0,0,-1,629,624,0,0
-588,400,0,0,0,0,0,0,0,0,0,-1,636,624,0,0
-581,400,0,0,0,0,0,0,0,0,0,-1,643,624,0,0
-574,400,0,0,0,0,0,0,0,0,0,-1,650,624,0,0
-567,400,0,0,0,0,0,0,0,0,0,-1,657,624,0,0
-560,400,0,0,0,0,0,0,0,0,0,-1,664,624,0,0
-553,400,0,0,0,0,0,0,0,0,0,-1,671,624,0,0
-546,400,-8.41174,-1.4599,0,0,0,0,0,0,0,-1,678,624,-8.41173,1.45989
-539,400,-5.69104,-1.7337,0,0,0,0,0,0,0,-1,685,624,-5.69103,1.7337
-532,400,-3.03632,-2.03912,0,0,0,0,0,0,0,-1,692,624,-3.03632,2.03909
-525,400,-6.20813,-7.04071,0,0,0,0,0,0,0,-1,699,624,-6.20814,7.04071
-518,400,-5.26544,-1.58661,0,0,0,0,0,0,0,-1,706,624,-5.26544,1.58658
-511,400,-5.10602,-2.14307,0,0,0,0,0,0,0,-1,713,624,-5.10603,2.14307
-504,400,-6.02234,-3.06567,0,0,0,0,0,0,0,-1,720,624,-6.02233,3.0657
-497,400,-5.82471,-3.23383,0.00640051,0.0151766,-0.00486017,0.0173366,0.00424057,-1.1526,0.0104355,0.0354716,727,624,-5.82473,3.2338
-490,400,-5.8548,-3.5238,0.00503838,0.0113985,-0.0043974,0.0136452,0.00279166,-1.09845,0.00832379,0.0185295,734,624,-5.85477,3.52381
-483,400,-5.88196,-3.90955,0.00401569,0.00845905,-0.0038901,0.0107172,0.00175756,-1.04485,0.00663696,0.0150415,741,624,-5.88195,3.90953
-476,400,-5.87286,-4.26947,0.00334328,0.00624943,-0.0034437,0.00853407,0.00105863,-0.985041,0.00537139,0.0131626,748,624,-5.87288,4.26946
-469,400,-5.90253,-4.63574,0.00286047,0.00452041,-0.00298489,0.00678857,0.000592309,-0.921001,0.00434177,0.0142019,755,624,-5.90254,4.63573
-462,400,-5.89307,-5.02881,0.00221803,0.00294196,-0.00254628,0.00515188,8.11485e-06,-0.856003,0.00343188,0.0193862,762,624,-5.89304,5.02881
-455,400,-5.89612,-5.36926,0.00159214,0.00200279,-0.00184298,0.00365184,-5.69164e-05,-0.840875,0.00245375,0.020663,769,624,-5.89615,5.36923
-448,400,-5.91583,-5.72656,0.00103499,0.00101733,-0.0010193,0.0020455,6.82171e-06,-0.781067,0.0013614,0.0159221,776,624,-5.91583,5.72658
-441,400,-5.92395,-6.07343,8.03537e-05,0.000202934,-9.59579e-05,0.000255505,2.77824e-05,-1.0696,0.000161872,0.0143816,783,624,-5.92394,6.0734
-434,400,-5.93481,-6.41589,-0.00100587,-0.00053902,0.000898219,0.00015561,-0.0017005,0.912523,0.00118893,0.0112654,790,624,-5.9348,6.41592
-427,400,-5.92969,-6.77307,-0.00244091,-0.0013786,0.00205767,0.00021536,-0.00403487,0.911709,0.0027645,0.0100438,797,624,-5.92971,6.77308
-420,400,-5.88129,-7.15643,-0.00413124,-0.00238101,0.00343037,0.000284111,-0.00679636,0.910288,0.00462851,0.015395,804,624,-5.88126,7.15646
-413,400,-5.9389,-7.46722,-0.00635642,-0.00392012,0.00547787,0.000473409,-0.01075,0.894806,0.00732954,0.0344606,811,624,-5.93892,7.46723
-406,400,-6.44922,-7.7655,-0.00970655,-0.00609052,0.00812971,0.000429798,-0.0162269,0.894816,0.010964,0.0463345,818,624,-6.44921,7.76549
-399,400,-6.64606,-8.21729,0,0,0,0,0,0,0,-1,825,624,-6.64608,8.21729
-392,400,-4.92285,-6.63354,0,0,0,0,0,0,0,-1,832,624,-4.92285,6.63354
-385,400,-3.68738,-5.04205,0,0,0,0,0,0,0,-1,839,624,-3.68736,5.04207
-378,400,-6.84064,-1.28662,0,0,0,0,0,0,0,-1,846,624,-6.84062,1.28662
-371,400,-6.98865,-1.2572,0,0,0,0,0,0,0,-1,853,624,-6.98865,1.25721
-364,400,-6.97247,-1.24133,0,0,0,0,0,0,0,-1,860,624,-6.97249,1.24135
-357,400,-7.18329,-1.23218,0,0,0,0,0,0,0,-1,867,624,-7.18327,1.2322
-350,400,-7.40186,-1.19409,0,0,0,0,0,0,0,-1,874,624,-7.40187,1.19407
-343,400,-8.09357,-1.51147,0,0,0,0,0,0,0,-1,881,624,-8.09355,1.51148
-336,400,0,0,0,0,0,0,0,0,0,-1,888,624,0,0
-329,400,0,0,0,0,0,0,0,0,0,-1,895,624,0,0
-322,400,0,0,0,0,0,0,0,0,0,-1,902,624,0,0
-315,400,0,0,0,0,0,0,0,0,0,-1,909,624,0,0
-308,400,0,0,0,0,0,0,0,0,0,-1,916,624,0,0
-301,400,0,0,0,0,0,0,0,0,0,-1,923,624,0,0
-294,400,0,0,0,0,0,0,0,0,0,-1,930,624,0,0
-287,400,0,0,0,0,0,0,0,0,0,-1,937,624,0,0
-280,400,0,0,0,0,0,0,0,0,0,-1,944,624,0,0
-273,400,0,0,0,0,0,0,0,0,0,-1,951,624,0,0
-266,400,0,0,0,0,0,0,0,0,0,-1,958,624,0,0
-259,400,0,0,0,0,0,0,0,0,0,-1,965,624,0,0
-252,400,0,0,0,0,0,0,0,0,0,-1,972,624,0,0
-245,400,0,0,0,0,0,0,0,0,0,-1,979,624,0,0
-238,400,0,0,0,0,0,0,0,0,0,-1,986,624,0,0
-231,400,0,0,0,0,0,0,0,0,0,-1,993,624,0,0
-224,400,0,0,0,0,0,0,0,0,0,-1,1000,624,0,0
-217,400,0,0,0,0,0,0,0,0,0,-1,1007,624,0,0
-210,400,0,0,0,0,0,0,0,0,0,-1,1014,624,0,0
-203,400,0,0,0,0,0,0,0,0,0,-1,1021,624,0,0
-196,400,0,0,0,0,0,0,0,0,0,-1,1028,624,0,0
-189,400,0,0,0,0,0,0,0,0,0,-1,1035,624,0,0
-182,400,0,0,0,0,0,0,0,0,0,-1,1042,624,0,0
-175,400,0,0,0,0,0,0,0,0,0,-1,1049,624,0,0
-168,400,0,0,0,0,0,0,0,0,0,-1,1056,624,0,0
-161,400,0,0,0,0,0,0,0,0,0,-1,1063,624,0,0
-154,400,0,0,0,0,0,0,0,0,0,-1,1070,624,0,0
-147,400,0,0,0,0,0,0,0,0,0,-1,1077,624,0,0
-140,400,0,0,0,0,0,0,0,0,0,-1,1084,624,0,0
-133,400,0,0,0,0,0,0,0,0,0,-1,1091,624,0,0
-126,400,0,0,0,0,0,0,0,0,0,-1,1098,624,0,0
-119,400,0,0,0,0,0,0,0,0,0,-1,1105,624,0,0
-112,400,0,0,0,0,0,0,0,0,0,-1,1112,624,0,0
-105,400,0,0,0,0,0,0,0,0,0,-1,1119,624,0,0
-98,400,0,0,0,0,0,0,0,0,0,-1,1126,624,0,0
-91,400,0,0,0,0,0,0,0,0,0,-1,1133,624,0,0
-84,400,0,0,0,0,0,0,0,0,0,-1,1140,624,0,0
-77,400,0,0,0,0,0,0,0,0,0,-1,1147,624,0,0
-70,400,0,0,0,0,0,0,0,0,0,-1,1154,624,0,0
-63,400,0,0,0,0,0,0,0,0,0,-1,1161,624,0,0
-56,400,0,0,0,0,0,0,0,0,0,-1,1168,624,0,0
-49,400,0,0,0,0,0,0,0,0,0,-1,1175,624,0,0
-42,400,0,0,0,0,0,0,0,0,0,-1,1182,624,0,0
-35,400,0,0,0,0,0,0,0,0,0,-1,1189,624,0,0
-28,400,0,0,0,0,0,0,0,0,0,-1,1196,624,0,0
-21,400,0,0,0,0,0,0,0,0,0,-1,1203,624,0,0
-14,400,0,0,0,0,0,0,0,0,0,-1,1210,624,0,0
-7,400,0,0,0,0,0,0,0,0,0,-1,1217,624,0,0
0,400,0,0,0,0,0,0,0,0,0,-1,1224,624,0,0
7,400,0,0,0,0,0,0,0,0,0,-1,1231,624,0,0
14,400,0,0,0,0,0,0,0,0,0,-1,1238,624,0,0
21,400,0,0,0,0,0,0,0,0,0,-1,1245,624,0,0
28,400,0,0,0,0,0,0,0,0,0,-1,1252,624,0,0
35,400,0,0,0,0,0,0,0,0,0,-1,1259,624,0,0
42,400,0,0,0,0,0,0,0,0,0,-1,1266,624,0,0
49,400,0,0,0,0,0,0,0,0,0,-1,1273,624,0,0
56,400,0,0,0,0,0,0,0,0,0,-1,1280,624,0,0
63,400,0,0,0,0,0,0,0,0,0,-1,1287,624,0,0
70,400,0,0,0,0,0,0,0,0,0,-1,1294,624,0,0
77,400,0,0,0,0,0,0,0,0,0,-1,1301,624,0,0
84,400,0,0,0,0,0,0,0,0,0,-1,1308,624,0,0
91,400,0,0,0,0,0,0,0,0,0,-1,1315,624,0,0
98,400,0,0,0,0,0,0,0,0,0,-1,1322,624,0,0
105,400,0,0,0,0,0,0,0,0,0,-1,1329,624,0,0
112,400,0,0,0,0,0,0,0,0,0,-1,1336,624,0,0
119,400,0,0,0,0,0,0,0,0,0,-1,1343,624,0,0
126,400,0,0,0,0,0,0,0,0,0,-1,1350,624,0,0
133,400,0,0,0,0,0,0,0,0,0,-1,1357,624,0,0
140,400,0,0,0,0,0,0,0,0,0,-1,1364,624,0,0
147,400,0,0,0,0,0,0,0,0,0,-1,1371,624,0,0
154,400,0,0,0,0,0,0,0,0,0,-1,1378,624,0,0
161,400,0,0,0,0,0,0,0,0,0,-1,1385,624,0,0
168,400,0,0,0,0,0,0,0,0,0,-1,1392,624,0,0
175,400,0,0,0,0,0,0,0,0,0,-1,1399,624,0,0
182,400,0,0,0,0,0,0,0,0,0,-1,1406,624,0,0
189,400,0,0,0,0,0,0,0,0,0,-1,1413,624,0,0
196,400,0,0,0,0,0,0,0,0,0,-1,1420,624,0,0
203,400,0,0,0,0,0,0,0,0,0,-1,1427,624,0,0
210,400,0,0,0,0,0,0,0,0,0,-1,1434,624,0,0
217,400,0,0,0,0,0,0,0,0,0,-1,1441,624,0,0
224,400,0,0,0,0,0,0,0,0,0,-1,1448,624,0,0
231,400,0,0,0,0,0,0,0,0,0,-1,1455,624,0,0
238,400,0,0,0,0,0,0,0,0,0,-1,1462,624,0,0
245,400,0,0,0,0,0,0,0,0,0,-1,1469,624,0,0
252,400,0,0,0,0,0,0,0,0,0,-1,1476,624,0,0
259,400,0,0,0,0,0,0,0,0,0,-1,1483,624,0,0
266,400,0,0,0,0,0,0,0,0,0,-1,1490,624,0,0
273,400,0,0,0,0,0,0,0,0,0,-1,1497,624,0,0
280,400,0,0,0,0,0,0,0,0,0,-1,1504,624,0,0
287,400,0,0,0,0,0,0,0,0,0,-1,1511,624,0,0
294,400,0,0,0,0,0,0,0,0,0,-1,1518,624,0,0
301,400,0,0,0,0,0,0,0,0,0,-1,1525,624,0,0
308,400,0,0,0,0,0,0,0,0,0,-1,1532,624,0,0
315,400,0,0,0,0,0,0,0,0,0,-1,1539,624,0,0
322,400,0,0,0,0,0,0,0,0,0,-1,1546,624,0,0
329,400,0,0,0,0,0,0,0,0,0,-1,1553,624,0,0
336,400,0,0,0,0,0,0,0,0,0,-1,1560,624,0,0
343,400,0,0,0,0,0,0,0,0,0,-1,1567,624,0,0
350,400,0,0,0,0,0,0,0,0,0,-1,1574,624,0,0
357,400,0,0,0,0,0,0,0,0,0,-1,1581,624,0,0
364,400,0,0,0,0,0,0,0,0,0,-1,1588,624,0,0
371,400,0,0,0,0,0,0,0,0,0,-1,1595,624,0,0
378,400,0,0,0,0,0,0,0,0,0,-1,1602,624,0,0
385,400,0,0,0,0,0,0,0,0,0,-1,1609,624,0,0
392,400,0,0,0,0,0,0,0,0,0,-1,1616,624,0,0
399,400,0,0,0,0,0,0,0,0,0,-1,1623,624,0,0
406,400,0,0,0,0,0,0,0,0,0,-1,1630,624,0,0
413,400,0,0,0,0,0,0,0,0,0,-1,1637,624,0,0
420,400,0,0,0,0,0,0,0,0,0,-1,1644,624,0,0
427,400,0,0,0,0,0,0,0,0,0,-1,1651,624,0,0
434,400,0,0,0,0,0,0,0,0,0,-1,1658,624,0,0
441,400,0,0,0,0,0,0,0,0,0,-1,1665,624,0,0
448,400,0,0,0,0,0,0,0,0,0,-1,1672,624,0,0
455,400,8.91309,2.75885,0,0,0,0,0,0,0,-1,1679,624,8.91312,-2.75885
462,400,8.90356,2.37878,0,0,0,0,0,0,0,-1,1686,624,8.90353,-2.37878
469,400,9.14429,1.76849,0,0,0,0,0,0,0,-1,1693,624,9.14432,-1.76847
476,400,9.23254,1.25995,0,0,0,0,0,0,0,-1,1700,624,9.23252,-1.25994
483,400,9.59766,0.562439,0,0,0,0,0,0,0,-1,1707,624,9.59771,-0.56242
490,400,9.92578,-0.213745,0,0,0,0,0,0,0,-1,1714,624,9.92579,0.21376
497,400,9.19141,0.175232,0,0,0,0,0,0,0,-1,1721,624,9.19138,-0.175209
504,400,9.23438,0.00823975,0,0,0,0,0,0,0,-1,1728,624,9.23436,-0.00823766
511,400,6.16687,3.3501,0,0,0,0,0,0,0,-1,1735,624,6.16682,-3.35007
518,400,6.55237,1.74994,0,0,0,0,0,0,0,-1,1742,624,6.55236,-1.74993
525,400,6.99731,1.08783,0,0,0,0,0,0,0,-1,1749,624,6.99736,-1.08785
532,400,6.96582,-1.74982,0,0,0,0,0,0,0,-1,1756,624,6.96585,1.74983
539,400,13.5292,-5.94214,0,0,0,0,0,0,0,-1,1763,624,13.5292,5.94215
546,400,13.4982,-5.60352,-0.000122454,0.00239542,-0.000283832,0.00242702,-0.000154053,-1.45992,0.00167173,0.039977,1770,624,13.4982,5.60354
553,400,13.3828,-5.17767,-0.000161407,0.00168172,-0.00046362,0.00179177,-0.000271455,-1.33774,0.00129452,0.0208456,1777,624,13.3829,5.17766
560,400,13.4192,-4.77252,-0.000205249,0.00121511,-0.000533438,0.00139314,-0.000383276,-1.24868,0.00107944,0.0134661,1784,624,13.4192,4.77251
567,400,13.4279,-4.40436,-0.000199321,0.000898928,-0.000477647,0.0010776,-0.000377991,-1.21285,0.00087214,0.0171289,1791,624,13.4279,4.40435
574,400,13.4307,-4.03821,-9.05771e-05,0.00080109,-0.000257134,0.000869927,-0.000159414,-1.30922,0.000639745,0.0189557,1798,624,13.4307,4.03823
581,400,13.4064,-3.64514,5.50848e-05,0.000858254,5.52082e-05,0.000862032,5.13076e-05,1.50249,0.000558371,0.0177852,1805,624,13.4064,3.64515
588,400,13.3988,-3.26276,0.000204383,0.00104932,0.000417622,0.00122089,3.28078e-05,1.18098,0.000803217,0.0142431,1812,624,13.3988,3.26275
595,400,13.3971,-2.91083,0.000524616,0.00143519,0.000928653,0.00201416,-5.435e-05,1.01331,0.00136125,0.0134546,1819,624,13.3971,2.91085
602,400,13.3981,-2.5191,0.000681265,0.00201293,0.00152634,0.00301234,-0.000318149,0.991069,0.00212224,0.0130739,1826,624,13.3981,2.5191
609,400,13.3346,-2.0932,0.000214283,0.00253711,0.00188975,0.00359382,-0.000842422,1.06094,0.00272052,0.0135732,1833,624,13.3347,2.09317
616,400,13.3085,-1.68646,-0.000523735,0.00322941,0.00219259,0.00423883,-0.00153316,1.13934,0.00345235,0.0175854,1840,624,13.3085,1.68644
623,400,13.359,-1.26599,0,0,0,0,0,0,0,-1,1847,624,13.359,1.26597
630,400,11.9432,0.09021,0,0,0,0,0,0,0,-1,1854,624,11.9432,-0.0902007
637,400,6.92896,1.01917,0,0,0,0,0,0,0,-1,1861,624,6.92899,-1.01918
644,400,8.65381,1.4599,0,0,0,0,0,0,0,-1,1868,624,8.65379,-1.45991
651,400,7.90601,0.424072,0,0,0,0,0,0,0,-1,1875,624,7.90598,-0.424097
658,400,8.69031,1.0484,0,0,0,0,0,0,0,-1,1882,624,8.6903,-1.0484
665,400,5.98438,0.522522,0,0,0,0,0,0,0,-1,1889,624,5.98442,-0.522552
672,400,0,0,0,0,0,0,0,0,0,-1,1896,624,0,0
679,400,0,0,0,0,0,0,0,0,0,-1,1903,624,0,0
686,400,0,0,0,0,0,0,0,0,0,-1,1910,624,0,0
693,400,0,0,0,0,0,0,0,0,0,-1,1917,624,0,0
700,400,0,0,0,0,0,0,0,0,0,-1,1924,624,0,0
707,400,0,0,0,0,0,0,0,0,0,-1,1931,624,0,0
714,400,0,0,0,0,0,0,0,0,0,-1,1938,624,0,0
721,400,0,0,0,0,0,0,0,0,0,-1,1945,624,0,0
728,400,0,0,0,0,0,0,0,0,0,-1,1952,624,0,0
735,400,0,0,0,0,0,0,0,0,0,-1,1959,624,0,0
742,400,0,0,0,0,0,0,0,0,0,-1,1966,624,0,0
749,400,0,0,0,0,0,0,0,0,0,-1,1973,624,0,0
756,400,0,0,0,0,0,0,0,0,0,-1,1980,624,0,0
763,400,0,0,0,0,0,0,0,0,0,-1,1987,624,0,0
770,400,0,0,0,0,0,0,0,0,0,-1,1994,624,0,0
777,400,0,0,0,0,0,0,0,0,0,-1,2001,624,0,0
784,400,0,0,0,0,0,0,0,0,0,-1,2008,624,0,0
791,400,0,0,0,0,0,0,0,0,0,-1,2015,624,0,0
798,400,0,0,0,0,0,0,0,0,0,-1,2022,624,0,0
805,400,0,0,0,0,0,0,0,0,0,-1,2029,624,0,0
812,400,0,0,0,0,0,0,0,0,0,-1,2036,624,0,0
-700,393,0,0,0,0,0,0,0,0,0,-1,524,631,0,0
-693,393,0,0,0,0,0,0,0,0,0,-1,531,631,0,0
-686,393,0,0,0,0,0,0,0,0,0,-1,538,631,0,0
-679,393,0,0,0,0,0,0,0,0,0,-1,545,631,0,0
-672,393,0,0,0,0,0,0,0,0,0,-1,552,631,0,0
-665,393,0,0,0,0,0,0,0,0,0,-1,559,631,0,0
-658,393,0,0,0,0,0,0,0,0,0,-1,566,631,0,0
-651,393,0,0,0,0,0,0,0,0,0,-1,573,631,0,0
-644,393,0,0,0,0,0,0,0,0,0,-1,580,631,0,0
-637,393,0,0,0,0,0,0,0,0,0,-1,587,631,0,0
-630,393,0,0,0,0,0,0,0,0,0,-1,594,631,0,0
-623,393,0,0,0,0,0,0,0,0,0,-1,601,631,0,0
-616,393,0,0,0,0,0,0,0,0,0,-1,608,631,0,0
-609,393,0,0,0,0,0,0,0,0,0,-1,615,631,0,0
-602,393,0,0,0,0,0,0,0,0,0,-1,622,631,0,0
-595,393,0,0,0,0,0,0,0,0,0,-1,629,631,0,0
-588,393,0,0,0,0,0,0,0,0,0,-1,636,631,0,0
-581,393,0,0,0,0,0,0,0,0,0,-1,643,631,0,0
-574,393,0,0,0,0,0,0,0,0,0,-1,650,631,0,0
-567,393,0,0,0,0,0,0,0,0,0,-1,657,631,0,0
-560,393,0,0,0,0,0,0,0,0,0,-1,664,631,0,0
-553,393,-2.35107,3.92633,0,0,0,0,0,0,0,-1,671,631,-2.35108,-3.92634
-546,393,-1.78778,2.4856,0,0,0,0,0,0,0,-1,678,631,-1.78778,-2.48557
-539,393,-5.2113,-2.20245,0,0,0,0,0,0,0,-1,685,631,-5.21128,2.20247
-532,393,-2.83643,-2.01624,0,0,0,0,0,0,0,-1,692,631,-2.83642,2.01626
-525,393,-5.9505,-0.952698,0,0,0,0,0,0,0,-1,699,631,-5.95053,0.95268
-518,393,-5.80219,-1.57739,0.0146077,0.0278062,-0.00880196,0.0322081,0.0102059,-1.10707,0.0190065,0.0473295,706,631,-5.80219,1.57738
-511,393,-5.68774,-2.18201,0.010161,0.0212266,-0.00604496,0.0238885,0.00749906,-1.15599,0.0141068,0.0466455,713,631,-5.68776,2.18199
-504,393,-6.46082,-2.54187,0,0,0,0,0,0,0,-1,720,631,-6.4608,2.54189
-497,393,-6.25677,-3.03851,0.0050131,0.0122944,-0.00339246,0.01363,0.0036775,-1.19573,0.00814255,0.0289854,727,631,-6.25675,3.0385
-490,393,-6.22778,-3.54193,0.00384516,0.00914627,-0.00305371,0.0105393,0.00245213,-1.14282,0.00636818,0.0155015,734,631,-6.22778,3.54194
-483,393,-6.23676,-3.89337,0.00296031,0.00663205,-0.00265362,0.00802296,0.0015694,-1.08801,0.00490984,0.0201317,741,631,-6.23678,3.89339
-476,393,-6.22656,-4.24542,0.00251855,0.00486212,-0.00245068,0.00640675,0.000973923,-1.0084,0.00398638,0.0169498,748,631,-6.22653,4.2454
-469,393,-6.22968,-4.62152,0.00228616,0.00351179,-0.00226041,0.00524098,0.000556964,-0.91777,0.00332393,0.0125361,755,631,-6.22968,4.62154
-462,393,-6.23376,-5.02466,0.00185425,0.00226912,-0.0020498,0.00412195,1.41468e-06,-0.835824,0.0027475,0.014474,762,631,-6.23375,5.02467
-455,393,-6.2691,-5.38708,0.00134408,0.00160507,-0.00150333,0.00298355,-3.4407e-05,-0.828691,0.0020006,0.0142512,769,631,-6.26908,5.38707
-448,393,-6.28052,-5.75439,0.000877986,0.000795773,-0.000829961,0.00166786,5.90127e-06,-0.760654,0.00110994,0.0151255,776,631,-6.28055,5.75438
-441,393,-6.27338,-6.08972,-6.67816e-05,0.000105227,1.60327e-05,0.000106709,-6.82632e-05,1.47865,0.00010183,0.0139023,783,631,-6.27338,6.08973
-434,393,-6.28522,-6.40344,-0.00117604,-0.000386651,0.000922315,0.000221875,-0.00178456,0.987576,0.00127014,0.0116982,790,631,-6.28519,6.40346
-427,393,-6.23743,-6.78107,-0.00275298,-0.00117217,0.00211673,0.000296909,-0.00422206,0.964086,0.00291872,0.0198503,797,631,-6.23742,6.7811
-420,393,-6.24829,-7.12115,-0.00464541,-0.00214087,0.00353234,0.000354602,-0.00714089,0.955744,0.00488309,0.0443758,804,631,-6.24829,7.12117
-413,393,-6.31274,-7.53656,0,0,0,0,0,0,0,-1,811,631,-6.31277,7.53659
-406,393,-7.27686,-8.0249,0,0,0,0,0,0,0,-1,818,631,-7.27687,8.0249
-399,393,-5.07343,-5.92365,0,0,0,0,0,0,0,-1,825,631,-5.07344,5.92364
-392,393,-2.08063,-3.02386,0,0,0,0,0,0,0,-1,832,631,-2.08063,3.02384
-385,393,-3.16931,-0.624756,0,0,0,0,0,0,0,-1,839,631,-3.16928,0.624764
-378,393,-7.33081,-0.872314,0,0,0,0,0,0,0,-1,846,631,-7.33081,0.872325
-371,393,-7.47858,-0.811096,0,0,0,0,0,0,0,-1,853,631,-7.47859,0.811075
-364,393,-7.64917,-0.662415,0,0,0,0,0,0,0,-1,860,631,-7.64917,0.662406
-357,393,-8.09686,-0.726013,0,0,0,0,0,0,0,-1,867,631,-8.09689,0.726029
-350,393,-8.38788,-0.511841,0,0,0,0,0,0,0,-1,874,631,-8.38785,0.511811
-343,393,0,0,0,0,0,0,0,0,0,-1,881,631,0,0
-336,393,0,0,0,0,0,0,0,0,0,-1,888,631,0,0
-329,393,0,0,0,0,0,0,0,0,0,-1,895,631,0,0
-322,393,0,0,0,0,0,0,0,0,0,-1,902,631,0,0
-315,393,0,0,0,0,0,0,0,0,0,-1,909,631,0,0
-308,393,0,0,0,0,0,0,0,0,0,-1,916,631,0,0
-301,393,0,0,0,0,0,0,0,0,0,-1,923,631,0,0
-294,393,0,0,0,0,0,0,0,0,0,-1,930,631,0,0
-287,393,0,0,0,0,0,0,0,0,0,-1,937,631,0,0
-280,393,0,0,0,0,0,0,0,0,0,-1,944,631,0,0
-273,393,0,0,0,0,0,0,0,0,0,-1,951,631,0,0
-266,393,0,0,0,0,0,0,0,0,0,-1,958,631,0,0
-259,393,0,0,0,0,0,0,0,0,0,-1,965,631,0,0
-252,393,0,0,0,0,0,0,0,0,0,-1,972,631,0,0
-245,393,0,0,0,0,0,0,0,0,0,-1,979,631,0,0
-238,393,0,0,0,0,0,0,0,0,0,-1,986,631,0,0
-231,393,0,0,0,0,0,0,0,0,0,-1,993,631,0,0
-224,393,0,0,0,0,0,0,0,0,0,-1,1000,631,0,0
-217,393,0,0,0,0,0,0,0,0,0,-1,1007,631,0,0
-210,393,0,0,0,0,0,0,0,0,0,-1,1014,631,0,0
-203,393,0,0,0,0,0,0,0,0,0,-1,1021,631,0,0
-196,393,0,0,0,0,0,0,0,0,0,-1,1028,631,0,0
-189,393,0,0,0,0,0,0,0,0,0,-1,1035,631,0,0
-182,393,0,0,0,0,0,0,0,0,0,-1,1042,631,0,0
-175,393,0,0,0,0,0,0,0,0,0,-1,1049,631,0,0
-168,393,0,0,0,0,0,0,0,0,0,-1,1056,631,0,0
-161,393,0,0,0,0,0,0,0,0,0,-1,1063,631,0,0
-154,393,0,0,0,0,0,0,0,0,0,-1,1070,631,0,0
-147,393,0,0,0,0,0,0,0,0,0,-1,1077,631,0,0
-140,393,0,0,0,0,0,0,0,0,0,-1,1084,631,0,0
-133,393,0,0,0,0,0,0,0,0,0,-1,1091,631,0,0
-126,393,0,0,0,0,0,0,0,0,0,-1,1098,631,0,0
-119,393,0,0,0,0,0,0,0,0,0,-1,1105,631,0,0
-112,393,0,0,0,0,0,0,0,0,0,-1,1112,631,0,0
-105,393,0,0,0,0,0,0,0,0,0,-1,1119,631,0,0
-98,393,0,0,0,0,0,0,0,0,0,-1,1126,631,0,0
-91,393,0,0,0,0,0,0,0,0,0,-1,1133,631,0,0
-84,393,0,0,0,0,0,0,0,0,0,-1,1140,631,0,0
-77,393,0,0,0,0,0,0,0,0,0,-1,1147,631,0,0
-70,393,0,0,0,0,0,0,0,0,0,-1,1154,631,0,0
-63,393,0,0,0,0,0,0,0,0,0,-1,1161,631,0,0
-56,393,0,0,0,0,0,0,0,0,0,-1,1168,631,0,0
-49,393,0,0,0,0,0,0,0,0,0,-1,1175,631,0,0
-42,393,0,0,0,0,0,0,0,0,0,-1,1182,631,0,0
-35,393,0,0,0,0,0,0,0,0,0,-1,1189,631,0,0
-28,393,0,0,0,0,0,0,0,0,0,-1,1196,631,0,0
-21,393,0,0,0,0,0,0,0,0,0,-1,1203,631,0,0
-14,393,0,0,0,0,0,0,0,0,0,-1,1210,631,0,0
-7,393,0,0,0,0,0,0,0,0,0,-1,1217,631,0,0
0,393,0,0,0,0,0,0,0,0,0,-1,1224,631,0,0
7,393,0,0,0,0,0,0,0,0,0,-1,1231,631,0,0
14,393,0,0,0,0,0,0,0,0,0,-1,1238,631,0,0
21,393,0,0,0,0,0,0,0,0,0,-1,1245,631,0,0
28,393,0,0,0,0,0,0,0,0,0,-1,1252,631,0,0
35,393,0,0,0,0,0,0,0,0,0,-1,1259,631,0,0
42,393,0,0,0,0,0,0,0,0,0,-1,1266,631,0,0
49,393,0,0,0,0,0,0,0,0,0,-1,1273,631,0,0
56,393,0,0,0,0,0,0,0,0,0,-1,1280,631,0,0
63,393,0,0,0,0,0,0,0,0,0,-1,1287,631,0,0
70,393,0,0,0,0,0,0,0,0,0,-1,1294,631,0,0
77,393,0,0,0,0,0,0,0,0,0,-1,1301,631,0,0
84,393,0,0,0,0,0,0,0,0,0,-1,1308,631,0,0
91,393,0,0,0,0,0,0,0,0,0,-1,1315,631,0,0
98,393,0,0,0,0,0,0,0,0,0,-1,1322,631,0,0
105,393,0,0,0,0,0,0,0,0,0,-1,1329,631,0,0
112,393,0,0,0,0,0,0,0,0,0,-1,1336,631,0,0
119,393,0,0,0,0,0,0,0,0,0,-1,1343,631,0,0
126,393,0,0,0,0,0,0,0,0,0,-1,1350,631,0,0
133,393,0,0,0,0,0,0,0,0,0,-1,1357,631,0,0
140,393,0,0,0,0,0,0,0,0,0,-1,1364,631,0,0
147,393,0,0,0,0,0,0,0,0,0,-1,1371,631,0,0
154,393,0,0,0,0,0,0,0,0,0,-1,1378,631,0,0
161,393,0,0,0,0,0,0,0,0,0,-1,1385,631,0,0
168,393,0,0,0,0,0,0,0,0,0,-1,1392,631,0,0
175,393,0,0,0,0,0,0,0,0,0,-1,1399,631,0,0
182,393,0,0,0,0,0,0,0,0,0,-1,1406,631,0,0
189,393,0,0,0,0,0,0,0,0,0,-1,1413,631,0,0
196,393,0,0,0,0,0,0,0,0,0,-1,1420,631,0,0
203,393,0,0,0,0,0,0,0,0,0,-1,1427,631,0,0
210,393,0,0,0,0,0,0,0,0,0,-1,1434,631,0,0
217,393,0,0,0,0,0,0,0,0,0,-1,1441,631,0,0
224,393,0,0,0,0,0,0,0,0,0,-1,1448,631,0,0
231,393,0,0,0,0,0,0,0,0,0,-1,1455,631,0,0
238,393,0,0,0,0,0,0,0,0,0,-1,1462,631,0,0
245,393,0,0,0,0,0,0,0,0,0,-1,1469,631,0,0
252,393,0,0,0,0,0,0,0,0,0,-1,1476,631,0,0
259,393,0,0,0,0,0,0,0,0,0,-1,1483,631,0,0
266,393,0,0,0,0,0,0,0,0,0,-1,1490,631,0,0
273,393,0,0,0,0,0,0,0,0,0,-1,1497,631,0,0
280,393,0,0,0,0,0,0,0,0,0,-1,1504,631,0,0
287,393,0,0,0,0,0,0,0,0,0,-1,1511,631,0,0
294,393,0,0,0,0,0,0,0,0,0,-1,1518,631,0,0
301,393,0,0,0,0,0,0,0,0,0,-1,1525,631,0,0
308,393,0,0,0,0,0,0,0,0,0,-1,1532,631,0,0
315,393,0,0,0,0,0,0,0,0,0,-1,1539,631,0,0
322,393,0,0,0,0,0,0,0,0,0,-1,1546,631,0,0
329,393,0,0,0,0,0,0,0,0,0,-1,1553,631,0,0
336,393,0,0,0,0,0,0,0,0,0,-1,1560,631,0,0
343,393,0,0,0,0,0,0,0,0,0,-1,1567,631,0,0
350,393,0,0,0,0,0,0,0,0,0,-1,1574,631,0,0
357,393,0,0,0,0,0,0,0,0,0,-1,1581,631,0,0
364,393,0,0,0,0,0,0,0,0,0,-1,1588,631,0,0
371,393,0,0,0,0,0,0,0,0,0,-1,1595,631,0,0
378,393,0,0,0,0,0,0,0,0,0,-1,1602,631,0,0
385,393,0,0,0,0,0,0,0,0,0,-1,1609,631,0,0
392,393,0,0,0,0,0,0,0,0,0,-1,1616,631,0,0
399,393,0,0,0,0,0,0,0,0,0,-1,1623,631,0,0
406,393,0,0,0,0,0,0,0,0,0,-1,1630,631,0,0
413,393,0,0,0,0,0,0,0,0,0,-1,1637,631,0,0
420,393,0,0,0,0,0,0,0,0,0,-1,1644,631,0,0
427,393,0,0,0,0,0,0,0,0,0,-1,1651,631,0,0
434,393,0,0,0,0,0,0,0,0,0,-1,1658,631,0,0
441,393,0,0,0,0,0,0,0,0,0,-1,1665,631,0,0
448,393,0,0,0,0,0,0,0,0,0,-1,1672,631,0,0
455,393,0,0,0,0,0,0,0,0,0,-1,1679,631,0,0
462,393,8.51099,1.89502,0,0,0,0,0,0,0,-1,1686,631,8.51103,-1.89504
469,393,9.39465,1.51703,0,0,0,0,0,0,0,-1,1693,631,9.39465,-1.51703
476,393,9.95569,1.185,0,0,0,0,0,0,0,-1,1700,631,9.95575,-1.18497
483,393,10.5267,0.887329,0,0,0,0,0,0,0,-1,1707,631,10.5267,-0.887321
490,393,10.9303,0.761414,0,0,0,0,0,0,0,-1,1714,631,10.9303,-0.761386
497,393,8.32153,1.88104,0,0,0,0,0,0,0,-1,1721,631,8.32148,-1.88103
504,393,9.46985,1.78711,0,0,0,0,0,0,0,-1,1728,631,9.46986,-1.78713
511,393,9.66565,-0.375977,0,0,0,0,0,0,0,-1,1735,631,9.66571,0.375949
518,393,7.01599,1.62482,0,0,0,0,0,0,0,-1,1742,631,7.01597,-1.62483
525,393,7.88245,-1.13422,0,0,0,0,0,0,0,-1,1749,631,7.88246,1.13423
532,393,7.06335,-1.18103,0,0,0,0,0,0,0,-1,1756,631,7.06332,1.18101
539,393,9.91626,-2.46301,0,0,0,0,0,0,0,-1,1763,631,9.91625,2.46302
546,393,13.8704,-5.67902,0,0,0,0,0,0,0,-1,1770,631,13.8703,5.67901
553,393,13.754,-5.10681,-0.000928461,0.00192975,-0.000980767,0.00223392,-0.00123263,-1.27007,0.00202905,0.0407474,1777,631,13.754,5.10681
560,393,13.8073,-4.77527,-0.000771099,0.00140481,-0.000965714,0.00177159,-0.00113788,-1.20782,0.00169301,0.0182731,1784,631,13.8073,4.7753
567,393,13.8048,-4.37091,-0.000614657,0.00101091,-0.000854405,0.00137737,-0.000981121,-1.16562,0.00136807,0.014359,1791,631,13.8049,4.37088
574,393,13.8115,-4.02002,-0.000388737,0.000871739,-0.000578911,0.00109727,-0.000614267,-1.19931,0.00100119,0.0157759,1798,631,13.8115,4.02001
581,393,13.7758,-3.63983,-0.000148828,0.000901587,-0.000224785,0.000947668,-0.00019491,-1.36859,0.000705778,0.0151055,1805,631,13.7758,3.63983
588,393,13.7679,-3.25073,7.60348e-05,0.0010535,0.000159635,0.00107891,5.06247e-05,1.41294,0.000703007,0.0162414,1812,631,13.768,3.25073
595,393,13.7726,-2.89618,0.000457313,0.00138183,0.000667624,0.00173161,0.000107533,1.0882,0.00112028,0.0135143,1819,631,13.7726,2.89621
602,393,13.7664,-2.50781,0.000666675,0.00188129,0.00125336,0.00266673,-0.000118762,1.011,0.0018187,0.0151833,1826,631,13.7664,2.50782
609,393,13.7397,-2.12201,0.000166064,0.00234328,0.00155718,0.00315464,-0.000645298,1.09046,0.00234794,0.0158433,1833,631,13.7397,2.12198
616,393,13.7092,-1.72125,-0.00051582,0.00290693,0.0017797,0.00366459,-0.00127348,1.16831,0.00296031,0.0155358,1840,631,13.7093,1.72124
623,393,13.7449,-1.24182,-0.00147921,0.00355805,0.00196264,0.00423245,-0.00215362,1.23982,0.00375155,0.0271292,1847,631,13.7449,1.24185
630,393,13.933,-0.826721,0,0,0,0,0,0,0,-1,1854,631,13.9329,0.826696
637,393,11.4626,0.608887,0,0,0,0,0,0,0,-1,1861,631,11.4627,-0.608904
644,393,8.97583,1.30585,0,0,0,0,0,0,0,-1,1868,631,8.97586,-1.30584
651,393,11.348,0.53302,0,0,0,0,0,0,0,-1,1875,631,11.348,-0.53305
658,393,9.21338,1.50836,0,0,0,0,0,0,0,-1,1882,631,9.21338,-1.50834
665,393,6.1001,2.32129,0,0,0,0,0,0,0,-1,1889,631,6.10012,-2.3213
672,393,7.14575,2.43225,0,0,0,0,0,0,0,-1,1896,631,7.14572,-2.43222
679,393,0,0,0,0,0,0,0,0,0,-1,1903,631,0,0
686,393,0,0,0,0,0,0,0,0,0,-1,1910,631,0,0
693,393,0,0,0,0,0,0,0,0,0,-1,1917,631,0,0
700,393,0,0,0,0,0,0,0,0,0,-1,1924,631,0,0
707,393,0,0,0,0,0,0,0,0,0,-1,1931,631,0,0
714,393,0,0,0,0,0,0,0,0,0,-1,1938,631,0,0
721,393,0,0,0,0,0,0,0,0,0,-1,1945,631,0,0
728,393,0,0,0,0,0,0,0,0,0,-1,1952,631,0,0
735,393,0,0,0,0,0,0,0,0,0,-1,1959,631,0,0
742,393,0,0,0,0,0,0,0,0,0,-1,1966,631,0,0
749,393,0,0,0,0,0,0,0,0,0,-1,1973,631,0,0
756,393,0,0,0,0,0,0,0,0,0,-1,1980,631,0,0
763,393,0,0,0,0,0,0,0,0,0,-1,1987,631,0,0
770,393,0,0,0,0,0,0,0,0,0,-1,1994,631,0,0
777,393,0,0,0,0,0,0,0,0,0,-1,2001,631,0,0
784,393,0,0,0,0,0,0,0,0,0,-1,2008,631,0,0
791,393,0,0,0,0,0,0,0,0,0,-1,2015,631,0,0
798,393,0,0,0,0,0,0,0,0,0,-1,2022,631,0,0
805,393,0,0,0,0,0,0,0,0,0,-1,2029,631,0,0
812,393,0,0,0,0,0,0,0,0,0,-1,2036,631,0,0
-700,386,0,0,0,0,0,0,0,0,0,-1,524,638,0,0
-693,386,0,0,0,0,0,0,0,0,0,-1,531,638,0,0
-686,386,0,0,0,0,0,0,0,0,0,-1,538,638,0,0
-679,386,0,0,0,0,0,0,0,0,0,-1,545,638,0,0
-672,386,0,0,0,0,0,0,0,0,0,-1,552,638,0,0
-665,386,0,0,0,0,0,0,0,0,0,-1,559,638,0,0
-658,386,0,0,0,0,0,0,0,0,0,-1,566,638,0,0
-651,386,0,0,0,0,0,0,0,0,0,-1,573,638,0,0
-644,386,0,0,0,0,0,0,0,0,0,-1,580,638,0,0
-637,386,0,0,0,0,0,0,0,0,0,-1,587,638,0,0
-630,386,0,0,0,0,0,0,0,0,0,-1,594,638,0,0
-623,386,0,0,0,0,0,0,0,0,0,-1,601,638,0,0
-616,386,0,0,0,0,0,0,0,0,0,-1,608,638,0,0
-609,386,0,0,0,0,0,0,0,0,0,-1,615,638,0,0
-602,386,0,0,0,0,0,0,0,0,0,-1,622,638,0,0
-595,386,0,0,0,0,0,0,0,0,0,-1,629,638,0,0
-588,386,0,0,0,0,0,0,0,0,0,-1,636,638,0,0
-581,386,0,0,0,0,0,0,0,0,0,-1,643,638,0,0
-574,386,0,0,0,0,0,0,0,0,0,-1,650,638,0,0
-567,386,0,0,0,0,0,0,0,0,0,-1,657,638,0,0
-560,386,-3.97229,-5.13898,0,0,0,0,0,0,0,-1,664,638,-3.97232,5.13897
-553,386,-4.94244,-5.54309,0,0,0,0,0,0,0,-1,671,638,-4.94242,5.5431
-546,386,-1.78668,1.72827,0,0,0,0,0,0,0,-1,678,638,-1.78668,-1.72829
-539,386,-0.879456,-2.90009,0,0,0,0,0,0,0,-1,685,638,-0.879442,2.90008
-532,386,-4.83362,1.61053,0,0,0,0,0,0,0,-1,692,638,-4.83361,-1.61051
-525,386,-6.64148,-1.50604,0,0,0,0,0,0,0,-1,699,638,-6.64149,1.50603
-518,386,-6.3042,-1.85675,0.0134604,0.0238697,-0.0104534,0.0303425,0.00698757,-1.01638,0.0183481,0.0485205,706,638,-6.30419,1.85676
-511,386,-6.19757,-2.32874,0.00922204,0.0179887,-0.00659681,0.0215257,0.00568506,-1.07864,0.0128807,0.0455199,713,638,-6.19758,2.32876
-504,386,-6.52087,-2.76593,0.00613427,0.0132888,-0.00384374,0.0149623,0.00446071,-1.16015,0.0088701,0.031372,720,638,-6.5209,2.76592
-497,386,-6.61066,-3.18732,0.0041613,0.0100843,-0.00257692,0.0110485,0.00319712,-1.21276,0.0065648,0.0144365,727,638,-6.61063,3.18733
-490,386,-6.59467,-3.57709,0.00311021,0.00733008,-0.00216824,0.00824556,0.00219474,-1.17128,0.00493105,0.0127289,734,638,-6.59465,3.57707
-483,386,-6.58649,-3.94061,0.0023396,0.00520584,-0.00181036,0.00608167,0.00146377,-1.1202,0.00366528,0.0171642,741,638,-6.58648,3.9406
-476,386,-6.58307,-4.27106,0.00207953,0.00382393,-0.00179061,0.00494347,0.000959985,-1.01203,0.00302683,0.0157043,748,638,-6.58306,4.27106
-469,386,-6.59088,-4.62885,0.00203542,0.00279972,-0.00181132,0.00426876,0.00056638,-0.889364,0.00267709,0.0109434,755,638,-6.59089,4.62882
-462,386,-6.59521,-5.02209,0.00179102,0.0018862,-0.00179314,0.00363238,4.48441e-05,-0.798665,0.00240678,0.0103069,762,638,-6.59519,5.0221
-455,386,-6.62268,-5.3808,0.00137178,0.00147168,-0.00139763,0.00282026,2.32056e-05,-0.80326,0.00187248,0.0118542,769,638,-6.6227,5.38079
-448,386,-6.62866,-5.74414,0.00094955,0.000825096,-0.000884419,0.00177393,7.17642e-07,-0.750276,0.00118238,0.0132019,776,638,-6.62867,5.74414
-441,386,-6.64362,-6.07074,-5.75782e-06,0.000230662,-0.000141825,0.000297081,-7.21769e-05,-1.13281,0.000225988,0.0138383,783,638,-6.64362,6.07077
-434,386,-6.60223,-6.47278,-0.00116267,-2.35106e-05,0.000644955,0.000267367,-0.00145355,1.14711,0.00106936,0.0284313,790,638,-6.60224,6.47278
-427,386,-6.51715,-6.8457,0,0,0,0,0,0,0,-1,797,638,-6.51717,6.8457
-420,386,-6.61169,-7.15692,0,0,0,0,0,0,0,-1,804,638,-6.6117,7.15694
-413,386,-5.45691,-5.35785,0,0,0,0,0,0,0,-1,811,638,-5.45691,5.35783
-406,386,-4.51135,-4.10999,0,0,0,0,0,0,0,-1,818,638,-4.51135,4.10996
-399,386,-3.57117,-3.42126,0,0,0,0,0,0,0,-1,825,638,-3.57116,3.42129
-392,386,-4.00977,0.403625,0,0,0,0,0,0,0,-1,832,638,-4.0098,-0.403616
-385,386,-3.2406,-0.118469,0,0,0,0,0,0,0,-1,839,638,-3.24058,0.118485
-378,386,-2.55243,-1.22748,0,0,0,0,0,0,0,-1,846,638,-2.55243,1.22748
-371,386,-7.95807,-0.330261,0,0,0,0,0,0,0,-1,853,638,-7.95806,0.330284
-364,386,-8.90637,-0.665955,0,0,0,0,0,0,0,-1,860,638,-8.90635,0.665951
-357,386,-9.10364,-0.388733,0,0,0,0,0,0,0,-1,867,638,-9.10364,0.388744
-350,386,0,0,0,0,0,0,0,0,0,-1,874,638,0,0
-343,386,0,0,0,0,0,0,0,0,0,-1,881,638,0,0
-336,386,0,0,0,0,0,0,0,0,0,-1,888,638,0,0
-329,386,0,0,0,0,0,0,0,0,0,-1,895,638,0,0
-322,386,0,0,0,0,0,0,0,0,0,-1,902,638,0,0
-315,386,0,0,0,0,0,0,0,0,0,-1,909,638,0,0
-308,386,0,0,0,0,0,0,0,0,0,-1,916,638,0,0
-301,386,0,0,0,0,0,0,0,0,0,-1,923,638,0,0
-294,386,0,0,0,0,0,0,0,0,0,-1,930,638,0,0
-287,386,0,0,0,0,0,0,0,0,0,-1,937,638,0,0
-280,386,0,0,0,0,0,0,0,0,0,-1,944,638,0,0
-273,386,0,0,0,0,0,0,0,0,0,-1,951,638,0,0
-266,386,0,0,0,0,0,0,0,0,0,-1,958,638,0,0
-259,386,0,0,0,0,0,0,0,0,0,-1,965,638,0,0
-252,386,0,0,0,0,0,0,0,0,0,-1,972,638,0,0
-245,386,0,0,0,0,0,0,0,0,0,-1,979,638,0,0
-238,386,0,0,0,0,0,0,0,0,0,-1,986,638,0,0
-231,386,0,0,0,0,0,0,0,0,0,-1,993,638,0,0
-224,386,0,0,0,0,0,0,0,0,0,-1,1000,638,0,0
-217,386,0,0,0,0,0,0,0,0,0,-1,1007,638,0,0
-210,386,0,0,0,0,0,0,0,0,0,-1,1014,638,0,0
-203,386,0,0,0,0,0,0,0,0,0,-1,1021,638,0,0
-196,386,0,0,0,0,0,0,0,0,0,-1,1028,638,0,0
-189,386,0,0,0,0,0,0,0,0,0,-1,1035,638,0,0
-182,386,0,0,0,0,0,0,0,0,0,-1,1042,638,0,0
-175,386,0,0,0,0,0,0,0,0,0,-1,1049,638,0,0
-168,386,0,0,0,0,0,0,0,0,0,-1,1056,638,0,0
-161,386,0,0,0,0,0,0,0,0,0,-1,1063,638,0,0
-154,386,0,0,0,0,0,0,0,0,0,-1,1070,638,0,0
-147,386,0,0,0,0,0,0,0,0,0,-1,1077,638,0,0
-140,386,0,0,0,0,0,0,0,0,0,-1,1084,638,0,0
-133,386,0,0,0,0,0,0,0,0,0,-1,1091,638,0,0
-126,386,0,0,0,0,0,0,0,0,0,-1,1098,638,0,0
-119,386,0,0,0,0,0,0,0,0,0,-1,1105,638,0,0
-112,386,0,0,0,0,0,0,0,0,0,-1,1112,638,0,0
-105,386,0,0,0,0,0,0,0,0,0,-1,1119,638,0,0
-98,386,0,0,0,0,0,0,0,0,0,-1,1126,638,0,0
-91,386,0,0,0,0,0,0,0,0,0,-1,1133,638,0,0
-84,386,0,0,0,0,0,0,0,0,0,-1,1140,638,0,0
-77,386,0,0,0,0,0,0,0,0,0,-1,1147,638,0,0
-70,386,0,0,0,0,0,0,0,0,0,-1,1154,638,0,0
-63,386,0,0,0,0,0,0,0,0,0,-1,1161,638,0,0
-56,386,0,0,0,0,0,0,0,0,0,-1,1168,638,0,0
-49,386,0,0,0,0,0,0,0,0,0,-1,1175,638,0,0
-42,386,0,0,0,0,0,0,0,0,0,-1,1182,638,0,0
-35,386,0,0,0,0,0,0,0,0,0,-1,1189,638,0,0
-28,386,0,0,0,0,0,0,0,0,0,-1,1196,638,0,0
-21,386,0,0,0,0,0,0,0,0,0,-1,1203,638,0,0
-14,386,0,0,0,0,0,0,0,0,0,-1,1210,638,0,0
-7,386,0,0,0,0,0,0,0,0,0,-1,1217,638,0,0
0,386,0,0,0,0,0,0,0,0,0,-1,1224,638,0,0
7,386,0,0,0,0,0,0,0,0,0,-1,1231,638,0,0
14,386,0,0,0,0,0,0,0,0,0,-1,1238,638,0,0
21,386,0,0,0,0,0,0,0,0,0,-1,1245,638,0,0
28,386,0,0,0,0,0,0,0,0,0,-1,1252,638,0,0
35,386,0,0,0,0,0,0,0,0,0,-1,1259,638,0,0
42,386,0,0,0,0,0,0,0,0,0,-1,1266,638,0,0
49,386,0,0,0,0,0,0,0,0,0,-1,1273,638,0,0
56,386,0,0,0,0,0,0,0,0,0,-1,1280,638,0,0
63,386,0,0,0,0,0,0,0,0,0,-1,1287,638,0,0
70,386,0,0,0,0,0,0,0,0,0,-1,1294,638,0,0
77,386,0,0,0,0,0,0,0,0,0,-1,1301,638,0,0
84,386,0,0,0,0,0,0,0,0,0,-1,1308,638,0,0
91,386,0,0,0,0,0,0,0,0,0,-1,1315,638,0,0
98,386,0,0,0,0,0,0,0,0,0,-1,1322,638,0,0
105,386,0,0,0,0,0,0,0,0,0,-1,1329,638,0,0
112,386,0,0,0,0,0,0,0,0,0,-1,1336,638,0,0
119,386,0,0,0,0,0,0,0,0,0,-1,1343,638,0,0
126,386,0,0,0,0,0,0,0,0,0,-1,1350,638,0,0
133,386,0,0,0,0,0,0,0,0,0,-1,1357,638,0,0
140,386,0,0,0,0,0,0,0,0,0,-1,1364,638,0,0
147,386,0,0,0,0,0,0,0,0,0,-1,1371,638,0,0
154,386,0,0,0,0,0,0,0,0,0,-1,1378,638,0,0
161,386,0,0,0,0,0,0,0,0,0,-1,1385,638,0,0
168,386,0,0,0,0,0,0,0,0,0,-1,1392,638,0,0
175,386,0,0,0,0,0,0,0,0,0,-1,1399,638,0,0
182,386,0,0,0,0,0,0,0,0,0,-1,1406,638,0,0
189,386,0,0,0,0,0,0,0,0,0,-1,1413,638,0,0
196,386,0,0,0,0,0,0,0,0,0,-1,1420,638,0,0
203,386,0,0,0,0,0,0,0,0,0,-1,1427,638,0,0
210,386,0,0,0,0,0,0,0,0,0,-1,1434,638,0,0
217,386,0,0,0,0,0,0,0,0,0,-1,1441,638,0,0
224,386,0,0,0,0,0,0,0,0,0,-1,1448,638,0,0
231,386,0,0,0,0,0,0,0,0,0,-1,1455,638,0,0
238,386,0,0,0,0,0,0,0,0,0,-1,1462,638,0,0
245,386,0,0,0,0,0,0,0,0,0,-1,1469,638,0,0
252,386,0,0,0,0,0,0,0,0,0,-1,1476,638,0,0
259,386,0,0,0,0,0,0,0,0,0,-1,1483,638,0,0
266,386,0,0,0,0,0,0,0,0,0,-1,1490,638,0,0
273,386,0,0,0,0,0,0,0,0,0,-1,1497,638,0,0
280,386,0,0,0,0,0,0,0,0,0,-1,1504,638,0,0
287,386,0,0,0,0,0,0,0,0,0,-1,1511,638,0,0
294,386,0,0,0,0,0,0,0,0,0,-1,1518,638,0,0
301,386,0,0,0,0,0,0,0,0,0,-1,1525,638,0,0
308,386,0,0,0,0,0,0,0,0,0,-1,1532,638,0,0
315,386,0,0,0,0,0,0,0,0,0,-1,1539,638,0,0
322,386,0,0,0,0,0,0,0,0,0,-1,1546,638,0,0
329,386,0,0,0,0,0,0,0,0,0,-1,1553,638,0,0
336,386,0,0,0,0,0,0,0,0,0,-1,1560,638,0,0
343,386,0,0,0,0,0,0,0,0,0,-1,1567,638,0,0
350,386,0,0,0,0,0,0,0,0,0,-1,1574,638,0,0
357,386,0,0,0,0,0,0,0,0,0,-1,1581,638,0,0
364,386,0,0,0,0,0,0,0,0,0,-1,1588,638,0,0
371,386,0,0,0,0,0,0,0,0,0,-1,1595,638,0,0
378,386,0,0,0,0,0,0,0,0,0,-1,1602,638,0,0
385,386,0,0,0,0,0,0,0,0,0,-1,1609,638,0,0
392,386,0,0,0,0,0,0,0,0,0,-1,1616,638,0,0
399,386,0,0,0,0,0,0,0,0,0,-1,1623,638,0,0
406,386,0,0,0,0,0,0,0,0,0,-1,1630,638,0,0
413,386,0,0,0,0,0,0,0,0,0,-1,1637,638,0,0
420,386,0,0,0,0,0,0,0,0,0,-1,1644,638,0,0
427,386,0,0,0,0,0,0,0,0,0,-1,1651,638,0,0
434,386,0,0,0,0,0,0,0,0,0,-1,1658,638,0,0
441,386,0,0,0,0,0,0,0,0,0,-1,1665,638,0,0
448,386,0,0,0,0,0,0,0,0,0,-1,1672,638,0,0
455,386,0,0,0,0,0,0,0,0,0,-1,1679,638,0,0
462,386,0,0,0,0,0,0,0,0,0,-1,1686,638,0,0
469,386,9.84692,1.55804,0,0,0,0,0,0,0,-1,1693,638,9.84691,-1.55807
476,386,10.6145,0.986511,0,0,0,0,0,0,0,-1,1700,638,10.6145,-0.986529
483,386,11.4113,0.732971,0,0,0,0,0,0,0,-1,1707,638,11.4112,-0.732958
490,386,7.79785,1.79572,0,0,0,0,0,0,0,-1,1714,638,7.79788,-1.7957
497,386,8.96362,1.77081,0,0,0,0,0,0,0,-1,1721,638,8.96357,-1.77081
504,386,10.0555,1.69427,0,0,0,0,0,0,0,-1,1728,638,10.0555,-1.69426
511,386,11.2172,1.534,0,0,0,0,0,0,0,-1,1735,638,11.2172,-1.53398
518,386,7.41553,1.75238,0,0,0,0,0,0,0,-1,1742,638,7.41547,-1.75238
525,386,8.82422,-1.1449,0,0,0,0,0,0,0,-1,1749,638,8.82426,1.14492
532,386,10.6432,0.617371,0,0,0,0,0,0,0,-1,1756,638,10.6432,-0.617359
539,386,9.62061,-0.393616,0,0,0,0,0,0,0,-1,1763,638,9.62059,0.393634
546,386,10.7963,-2.854,0,0,0,0,0,0,0,-1,1770,638,10.7962,2.854
553,386,14.1949,-5.0838,0,0,0,0,0,0,0,-1,1777,638,14.1949,5.08378
560,386,14.2175,-4.61017,0.00143166,0.00570345,0.000334646,0.00572951,0.00140561,1.49309,0.003448,0.0378185,1784,638,14.2176,4.61019
567,386,14.1232,-4.32196,0.000619346,0.00358693,-0.000172442,0.00359692,0.000609359,-1.51295,0.00222285,0.0200144,1791,638,14.1232,4.32198
574,386,14.1593,-3.97363,0.000249723,0.00233422,-0.000284202,0.00237227,0.000211669,-1.43769,0.00151589,0.0142345,1798,638,14.1593,3.97361
581,386,14.1456,-3.63904,0.000137321,0.00165337,-0.000169286,0.00167205,0.000118648,-1.46094,0.00107733,0.0140589,1805,638,14.1456,3.63905
588,386,14.153,-3.26392,8.51756e-05,0.00119148,6.2575e-06,0.00119151,8.51402e-05,1.56514,0.000767539,0.0122989,1812,638,14.1529,3.2639
595,386,14.1383,-2.89563,0.000375941,0.00127948,0.000422864,0.00144651,0.000208914,1.19462,0.000902796,0.0128083,1819,638,14.1383,2.89563
602,386,14.1273,-2.51337,0.000626825,0.00167977,0.000979009,0.00226489,4.17094e-05,1.0321,0.00149622,0.0146803,1826,638,14.1273,2.51338
609,386,14.1454,-2.14001,0.000123975,0.00206444,0.00122359,0.00265579,-0.000467372,1.12061,0.00194512,0.0147751,1833,638,14.1454,2.14
616,386,14.1276,-1.73615,-0.000503739,0.002503,0.00137999,0.00304034,-0.00104108,1.19948,0.00244883,0.0118509,1840,638,14.1276,1.73612
623,386,14.0919,-1.32758,-0.0014816,0.00297742,0.00141799,0.00339015,-0.00189433,1.28756,0.00309147,0.0106703,1847,638,14.0919,1.3276
630,386,14.1763,-0.927917,-0.00310075,0.00328803,0.00118283,0.00349999,-0.00331271,1.39348,0.00393381,0.0274228,1854,638,14.1762,0.927936
637,386,14.3201,-0.516907,0,0,0,0,0,0,0,-1,1861,638,14.3201,0.516932
644,386,11.6521,0.723328,0,0,0,0,0,0,0,-1,1868,638,11.6521,-0.723355
651,386,9.3866,1.31097,0,0,0,0,0,0,0,-1,1875,638,9.3866,-1.31095
658,386,12.0731,-0.00415039,0,0,0,0,0,0,0,-1,1882,638,12.0731,0.00412803
665,386,6.33167,1.78601,0,0,0,0,0,0,0,-1,1889,638,6.33171,-1.78601
672,386,7.23352,2.14435,0,0,0,0,0,0,0,-1,1896,638,7.23353,-2.14433
679,386,8.07764,2.57104,0,0,0,0,0,0,0,-1,1903,638,8.07758,-2.57103
686,386,0,0,0,0,0,0,0,0,0,-1,1910,638,0,0
693,386,0,0,0,0,0,0,0,0,0,-1,1917,638,0,0
700,386,0,0,0,0,0,0,0,0,0,-1,1924,638,0,0
707,386,0,0,0,0,0,0,0,0,0,-1,1931,638,0,0
714,386,0,0,0,0,0,0,0,0,0,-1,1938,638,0,0
721,386,0,0,0,0,0,0,0,0,0,-1,1945,638,0,0
728,386,0,0,0,0,0,0,0,0,0,-1,1952,638,0,0
735,386,0,0,0,0,0,0,0,0,0,-1,1959,638,0,0
742,386,0,0,0,0,0,0,0,0,0,-1,1966,638,0,0
749,386,0,0,0,0,0,0,0,0,0,-1,1973,638,0,0
756,386,0,0,0,0,0,0,0,0,0,-1,1980,638,0,0
763,386,0,0,0,0,0,0,0,0,0,-1,1987,638,0,0
770,386,0,0,0,0,0,0,0,0,0,-1,1994,638,0,0
777,386,0,0,0,0,0,0,0,0,0,-1,2001,638,0,0
784,386,0,0,0,0,0,0,0,0,0,-1,2008,638,0,0
791,386,0,0,0,0,0,0,0,0,0,-1,2015,638,0,0
798,386,0,0,0,0,0,0,0,0,0,-1,2022,638,0,0
805,386,0,0,0,0,0,0,0,0,0,-1,2029,638,0,0
812,386,0,0,0,0,0,0,0,0,0,-1,2036,638,0,0
-700,379,0,0,0,0,0,0,0,0,0,-1,524,645,0,0
-693,379,0,0,0,0,0,0,0,0,0,-1,531,645,0,0
-686,379,0,0,0,0,0,0,0,0,0,-1,538,645,0,0
-679,379,0,0,0,0,0,0,0,0,0,-1,545,645,0,0
-672,379,0,0,0,0,0,0,0,0,0,-1,552,645,0,0
-665,379,0,0,0,0,0,0,0,0,0,-1,559,645,0,0
-658,379,0,0,0,0,0,0,0,0,0,-1,566,645,0,0
-651,379,0,0,0,0,0,0,0,0,0,-1,573,645,0,0
-644,379,0,0,0,0,0,0,0,0,0,-1,580,645,0,0
-637,379,0,0,0,0,0,0,0,0,0,-1,587,645,0,0
-630,379,0,0,0,0,0,0,0,0,0,-1,594,645,0,0
-623,379,0,0,0,0,0,0,0,0,0,-1,601,645,0,0
-616,379,0,0,0,0,0,0,0,0,0,-1,608,645,0,0
-609,379,0,0,0,0,0,0,0,0,0,-1,615,645,0,0
-602,379,0,0,0,0,0,0,0,0,0,-1,622,645,0,0
-595,379,0,0,0,0,0,0,0,0,0,-1,629,645,0,0
-588,379,0,0,0,0,0,0,0,0,0,-1,636,645,0,0
-581,379,0,0,0,0,0,0,0,0,0,-1,643,645,0,0
-574,379,0,0,0,0,0,0,0,0,0,-1,650,645,0,0
-567,379,-8.78058,0.59668,0,0,0,0,0,0,0,-1,657,645,-8.7806,-0.596692
-560,379,-9.53485,-0.211304,0,0,0,0,0,0,0,-1,664,645,-9.53487,0.211282
-553,379,-5.17108,-4.53119,0,0,0,0,0,0,0,-1,671,645,-5.17106,4.53117
-546,379,-6.23053,-4.92102,0,0,0,0,0,0,0,-1,678,645,-6.23054,4.92105
-539,379,-0.71698,-2.19427,0,0,0,0,0,0,0,-1,685,645,-0.716959,2.19427
-532,379,-7.69611,0.217224,0,0,0,0,0,0,0,-1,692,645,-7.69614,-0.217204
-525,379,-7.34137,-1.57568,0,0,0,0,0,0,0,-1,699,645,-7.34137,1.57565
-518,379,-6.97504,-2.10504,0.012225,0.0203976,-0.0106804,0.0277467,0.00487588,-0.968105,0.0171058,0.0472371,706,645,-6.97505,2.10503
-511,379,-6.73499,-2.52545,0.00823842,0.0151299,-0.00651124,0.0190509,0.00431738,-1.02876,0.0115341,0.0364441,713,645,-6.73499,2.52548
-504,379,-6.86041,-2.88293,0.00529326,0.0108492,-0.00341915,0.0124767,0.00366581,-1.12655,0.00740475,0.020092,720,645,-6.86039,2.88293
-497,379,-6.93866,-3.19904,0.00342992,0.00809906,-0.00196676,0.00881709,0.00271189,-1.22075,0.0052147,0.0107032,727,645,-6.93864,3.19904
-490,379,-6.94513,-3.56769,0.00250598,0.00568476,-0.00153205,0.00630293,0.0018878,-1.18728,0.00373524,0.0113135,734,645,-6.94513,3.5677
-483,379,-6.95465,-3.92249,0.00183887,0.0038977,-0.0012092,0.00445632,0.00128025,-1.13803,0.00264933,0.0131204,741,645,-6.95463,3.92247
-476,379,-6.94653,-4.24054,0.00173558,0.00286108,-0.00133342,0.00374564,0.000851017,-0.985075,0.0022673,0.0127784,748,645,-6.94656,4.24052
-469,379,-6.94977,-4.59363,0.00187071,0.00214553,-0.00154132,0.00355555,0.000460685,-0.829856,0.0022327,0.0110264,755,645,-6.94978,4.59361
-462,379,-6.97418,-4.9953,0.0018655,0.0015982,-0.00171524,0.00345229,1.14128e-05,-0.746517,0.00229773,0.00889408,762,645,-6.97416,4.9953
-455,379,-6.97705,-5.34338,0.00161429,0.00147332,-0.00150602,0.00305147,3.61351e-05,-0.762014,0.00202238,0.00911732,769,645,-6.97706,5.34337
-448,379,-6.96497,-5.67706,0.0012985,0.00105818,-0.00120482,0.00238913,-3.24497e-05,-0.735697,0.00160368,0.011335,776,645,-6.96499,5.67709
-441,379,-6.96283,-6.06848,0.00042787,0.000630759,-0.000640768,0.00117806,-0.000119434,-0.863905,0.000828063,0.0187546,783,645,-6.96282,6.06848
-434,379,-6.83319,-6.56702,0,0,0,0,0,0,0,-1,790,645,-6.83321,6.56704
-427,379,-4.16113,-4.13452,0,0,0,0,0,0,0,-1,797,645,-4.16116,4.1345
-420,379,-4.63953,-3.46869,0,0,0,0,0,0,0,-1,804,645,-4.63953,3.46872
-413,379,-4.62543,-3.7912,0,0,0,0,0,0,0,-1,811,645,-4.62541,3.79123
-406,379,-4.64063,-4.38489,0,0,0,0,0,0,0,-1,818,645,-4.64065,4.3849
-399,379,-2.93536,-1.40118,0,0,0,0,0,0,0,-1,825,645,-2.93534,1.40119
-392,379,-4.16711,-0.466003,0,0,0,0,0,0,0,-1,832,645,-4.16714,0.465992
-385,379,-3.51862,0.441101,0,0,0,0,0,0,0,-1,839,645,-3.51859,-0.441072
-378,379,-5.3504,0.212219,0,0,0,0,0,0,0,-1,846,645,-5.35038,-0.212241
-371,379,-4.32092,-0.186707,0,0,0,0,0,0,0,-1,853,645,-4.3209,0.186707
-364,379,-3.40887,-0.549805,0,0,0,0,0,0,0,-1,860,645,-3.4089,0.549802
-357,379,0,0,0,0,0,0,0,0,0,-1,867,645,0,0
-350,379,0,0,0,0,0,0,0,0,0,-1,874,645,0,0
-343,379,0,0,0,0,0,0,0,0,0,-1,881,645,0,0
-336,379,0,0,0,0,0,0,0,0,0,-1,888,645,0,0
-329,379,0,0,0,0,0,0,0,0,0,-1,895,645,0,0
-322,379,0,0,0,0,0,0,0,0,0,-1,902,645,0,0
-315,379,0,0,0,0,0,0,0,0,0,-1,909,645,0,0
-308,379,0,0,0,0,0,0,0,0,0,-1,916,645,0,0
-301,379,0,0,0,0,0,0,0,0,0,-1,923,645,0,0
-294,379,0,0,0,0,0,0,0,0,0,-1,930,645,0,0
-287,379,0,0,0,0,0,0,0,0,0,-1,937,645,0,0
-280,379,0,0,0,0,0,0,0,0,0,-1,944,645,0,0
-273,379,0,0,0,0,0,0,0,0,0,-1,951,645,0,0
-266,379,0,0,0,0,0,0,0,0,0,-1,958,645,0,0
-259,379,0,0,0,0,0,0,0,0,0,-1,965,645,0,0
-252,379,0,0,0,0,0,0,0,0,0,-1,972,645,0,0
-245,379,0,0,0,0,0,0,0,0,0,-1,979,645,0,0
-238,379,0,0,0,0,0,0,0,0,0,-1,986,645,0,0
-231,379,0,0,0,0,0,0,0,0,0,-1,993,645,0,0
-224,379,0,0,0,0,0,0,0,0,0,-1,1000,645,0,0
-217,379,0,0,0,0,0,0,0,0,0,-1,1007,645,0,0
-210,379,0,0,0,0,0,0,0,0,0,-1,1014,645,0,0
-203,379,0,0,0,0,0,0,0,0,0,-1,1021,645,0,0
-196,379,0,0,0,0,0,0,0,0,0,-1,1028,645,0,0
-189,379,0,0,0,0,0,0,0,0,0,-1,1035,645,0,0
-182,379,0,0,0,0,0,0,0,0,0,-1,1042,645,0,0
-175,379,0,0,0,0,0,0,0,0,0,-1,1049,645,0,0
-168,379,0,0,0,0,0,0,0,0,0,-1,1056,645,0,0
-161,379,0,0,0,0,0,0,0,0,0,-1,1063,645,0,0
-154,379,0,0,0,0,0,0,0,0,0,-1,1070,645,0,0
-147,379,0,0,0,0,0,0,0,0,0,-1,1077,645,0,0
-140,379,0,0,0,0,0,0,0,0,0,-1,1084,645,0,0
-133,379,0,0,0,0,0,0,0,0,0,-1,1091,645,0,0
-126,379,0,0,0,0,0,0,0,0,0,-1,1098,645,0,0
-119,379,0,0,0,0,0,0,0,0,0,-1,1105,645,0,0
-112,379,0,0,0,0,0,0,0,0,0,-1,1112,645,0,0
-105,379,0,0,0,0,0,0,0,0,0,-1,1119,645,0,0
-98,379,0,0,0,0,0,0,0,0,0,-1,1126,645,0,0
-91,379,0,0,0,0,0,0,0,0,0,-1,1133,645,0,0
-84,379,0,0,0,0,0,0,0,0,0,-1,1140,645,0,0
-77,379,0,0,0,0,0,0,0,0,0,-1,1147,645,0,0
-70,379,0,0,0,0,0,0,0,0,0,-1,1154,645,0,0
-63,379,0,0,0,0,0,0,0,0,0,-1,1161,645,0,0
-56,379,0,0,0,0,0,0,0,0,0,-1,1168,645,0,0
-49,379,0,0,0,0,0,0,0,0,0,-1,1175,645,0,0
-42,379,0,0,0,0,0,0,0,0,0,-1,1182,645,0,0
-35,379,0,0,0,0,0,0,0,0,0,-1,1189,645,0,0
-28,379,0,0,0,0,0,0,0,0,0,-1,1196,645,0,0
-21,379,0,0,0,0,0,0,0,0,0,-1,1203,645,0,0
-14,379,0,0,0,0,0,0,0,0,0,-1,1210,645,0,0
-7,379,0,0,0,0,0,0,0,0,0,-1,1217,645,0,0
0,379,0,0,0,0,0,0,0,0,0,-1,1224,645,0,0
7,379,0,0,0,0,0,0,0,0,0,-1,1231,645,0,0
14,379,0,0,0,0,0,0,0,0,0,-1,1238,645,0,0
21,379,0,0,0,0,0,0,0,0,0,-1,1245,645,0,0
28,379,0,0,0,0,0,0,0,0,0,-1,1252,645,0,0
35,379,0,0,0,0,0,0,0,0,0,-1,1259,645,0,0
42,379,0,0,0,0,0,0,0,0,0,-1,1266,645,0,0
49,379,0,0,0,0,0,0,0,0,0,-1,1273,645,0,0
56,379,0,0,0,0,0,0,0,0,0,-1,1280,645,0,0
63,379,0,0,0,0,0,0,0,0,0,-1,1287,645,0,0
70,379,0,0,0,0,0,0,0,0,0,-1,1294,645,0,0
77,379,0,0,0,0,0,0,0,0,0,-1,1301,645,0,0
84,379,0,0,0,0,0,0,0,0,0,-1,1308,645,0,0
91,379,0,0,0,0,0,0,0,0,0,-1,1315,645,0,0
98,379,0,0,0,0,0,0,0,0,0,-1,1322,645,0,0
105,379,0,0,0,0,0,0,0,0,0,-1,1329,645,0,0
112,379,0,0,0,0,0,0,0,0,0,-1,1336,645,0,0
119,379,0,0,0,0,0,0,0,0,0,-1,1343,645,0,0
126,379,0,0,0,0,0,0,0,0,0,-1,1350,645,0,0
133,379,0,0,0,0,0,0,0,0,0,-1,1357,645,0,0
140,379,0,0,0,0,0,0,0,0,0,-1,1364,645,0,0
147,379,0,0,0,0,0,0,0,0,0,-1,1371,645,0,0
154,379,0,0,0,0,0,0,0,0,0,-1,1378,645,0,0
161,379,0,0,0,0,0,0,0,0,0,-1,1385,645,0,0
168,379,0,0,0,0,0,0,0,0,0,-1,1392,645,0,0
175,379,0,0,0,0,0,0,0,0,0,-1,1399,645,0,0
182,379,0,0,0,0,0,0,0,0,0,-1,1406,645,0,0
189,379,0,0,0,0,0,0,0,0,0,-1,1413,645,0,0
196,379,0,0,0,0,0,0,0,0,0,-1,1420,645,0,0
203,379,0,0,0,0,0,0,0,0,0,-1,1427,645,0,0
210,379,0,0,0,0,0,0,0,0,0,-1,1434,645,0,0
217,379,0,0,0,0,0,0,0,0,0,-1,1441,645,0,0
224,379,0,0,0,0,0,0,0,0,0,-1,1448,645,0,0
231,379,0,0,0,0,0,0,0,0,0,-1,1455,645,0,0
238,379,0,0,0,0,0,0,0,0,0,-1,1462,645,0,0
245,379,0,0,0,0,0,0,0,0,0,-1,1469,645,0,0
252,379,0,0,0,0,0,0,0,0,0,-1,1476,645,0,0
259,379,0,0,0,0,0,0,0,0,0,-1,1483,645,0,0
266,379,0,0,0,0,0,0,0,0,0,-1,1490,645,0,0
273,379,0,0,0,0,0,0,0,0,0,-1,1497,645,0,0
280,379,0,0,0,0,0,0,0,0,0,-1,1504,645,0,0
287,379,0,0,0,0,0,0,0,0,0,-1,1511,645,0,0
294,379,0,0,0,0,0,0,0,0,0,-1,1518,645,0,0
301,379,0,0,0,0,0,0,0,0,0,-1,1525,645,0,0
308,379,0,0,0,0,0,0,0,0,0,-1,1532,645,0,0
315,379,0,0,0,0,0,0,0,0,0,-1,1539,645,0,0
322,379,0,0,0,0,0,0,0,0,0,-1,1546,645,0,0
329,379,0,0,0,0,0,0,0,0,0,-1,1553,645,0,0
336,379,0,0,0,0,0,0,0,0,0,-1,1560,645,0,0
343,379,0,0,0,0,0,0,0,0,0,-1,1567,645,0,0
350,379,0,0,0,0,0,0,0,0,0,-1,1574,645,0,0
357,379,0,0,0,0,0,0,0,0,0,-1,1581,645,0,0
364,379,0,0,0,0,0,0,0,0,0,-1,1588,645,0,0
371,379,0,0,0,0,0,0,0,0,0,-1,1595,645,0,0
378,379,0,0,0,0,0,0,0,0,0,-1,1602,645,0,0
385,379,0,0,0,0,0,0,0,0,0,-1,1609,645,0,0
392,379,0,0,0,0,0,0,0,0,0,-1,1616,645,0,0
399,379,0,0,0,0,0,0,0,0,0,-1,1623,645,0,0
406,379,0,0,0,0,0,0,0,0,0,-1,1630,645,0,0
413,379,0,0,0,0,0,0,0,0,0,-1,1637,645,0,0
420,379,0,0,0,0,0,0,0,0,0,-1,1644,645,0,0
427,379,0,0,0,0,0,0,0,0,0,-1,1651,645,0,0
434,379,0,0,0,0,0,0,0,0,0,-1,1658,645,0,0
441,379,0,0,0,0,0,0,0,0,0,-1,1665,645,0,0
448,379,0,0,0,0,0,0,0,0,0,-1,1672,645,0,0
455,379,0,0,0,0,0,0,0,0,0,-1,1679,645,0,0
462,379,0,0,0,0,0,0,0,0,0,-1,1686,645,0,0
469,379,0,0,0,0,0,0,0,0,0,-1,1693,645,0,0
476,379,11.1787,0.830383,0,0,0,0,0,0,0,-1,1700,645,11.1787,-0.830365
483,379,7.4231,1.54321,0,0,0,0,0,0,0,-1,1707,645,7.42314,-1.54324
490,379,8.52881,1.56677,0,0,0,0,0,0,0,-1,1714,645,8.52878,-1.56677
497,379,9.63599,1.49573,0,0,0,0,0,0,0,-1,1721,645,9.63604,-1.4957
504,379,10.0833,1.35229,0,0,0,0,0,0,0,-1,1728,645,10.0832,-1.35227
511,379,8.14343,1.59912,0,0,0,0,0,0,0,-1,1735,645,8.14347,-1.59912
518,379,12.7955,-0.324097,0,0,0,0,0,0,0,-1,1742,645,12.7955,0.324101
525,379,6.03711,1.10352,0,0,0,0,0,0,0,-1,1749,645,6.03711,-1.10351
532,379,8.70947,0.887817,0,0,0,0,0,0,0,-1,1756,645,8.70953,-0.887808
539,379,9.87097,0.111389,0,0,0,0,0,0,0,-1,1763,645,9.87095,-0.111395
546,379,8.42383,-0.730652,0,0,0,0,0,0,0,-1,1770,645,8.42378,0.730638
553,379,15.0529,-5.1203,0,0,0,0,0,0,0,-1,1777,645,15.0528,5.1203
560,379,14.7921,-4.66766,0.00672675,0.0111948,0.00361955,0.0132142,0.0047073,1.06189,0.00773366,0.0388719,1784,645,14.7921,4.66765
567,379,14.4597,-4.31689,0.00429722,0.00731049,0.00203456,0.00833553,0.00327218,1.1041,0.00484942,0.0220443,1791,645,14.4597,4.31689
574,379,14.5544,-3.97064,0.00266334,0.00468206,0.00108784,0.00515669,0.00218872,1.15939,0.00298852,0.0125563,1798,645,14.5545,3.97067
581,379,14.5714,-3.65369,0.00162238,0.00300389,0.000587507,0.00321995,0.00140632,1.2184,0.00186399,0.0146283,1805,645,14.5715,3.65369
588,379,14.55,-3.27338,0.000712844,0.00146386,0.000176335,0.0015032,0.000673502,1.35128,0.000869436,0.0167707,1812,645,14.5501,3.2734
595,379,14.5074,-2.88422,0.000577795,0.00112773,0.000275563,0.00124205,0.000463478,1.17756,0.000724746,0.0141961,1819,645,14.5074,2.88423
602,379,14.5101,-2.51117,0.000701631,0.00145841,0.000729702,0.001902,0.000258047,1.02459,0.00119134,0.0141052,1826,645,14.5101,2.51117
609,379,14.506,-2.14777,0.000157855,0.00179276,0.000907733,0.00219687,-0.000246252,1.15196,0.00155318,0.0139898,1833,645,14.506,2.14776
616,379,14.4893,-1.75946,-0.000441667,0.00209403,0.00099451,0.00243755,-0.000785181,1.23822,0.00194045,0.011409,1840,645,14.4892,1.75943
623,379,14.4983,-1.3316,-0.00147397,0.0023896,0.000905335,0.00259122,-0.00167559,1.35167,0.00248228,0.0113258,1847,645,14.4982,1.33159
630,379,14.4891,-0.947937,-0.00316407,0.00247712,0.000562861,0.00253274,-0.00321969,1.47231,0.00332905,0.0133874,1854,645,14.4891,0.947937
637,379,14.4941,-0.514282,-0.00569126,0.00266904,-5.6956e-05,0.00266943,-0.00569164,-1.56398,0.00493127,0.0267548,1861,645,14.4942,0.51427
644,379,14.6143,-0.0269775,0,0,0,0,0,0,0,-1,1868,645,14.6143,0.0269618
651,379,12.9515,0.220825,0,0,0,0,0,0,0,-1,1875,645,12.9515,-0.220814
658,379,13.7498,0.37439,0,0,0,0,0,0,0,-1,1882,645,13.7498,-0.374371
665,379,11.9719,0.353333,0,0,0,0,0,0,0,-1,1889,645,11.9719,-0.353321
672,379,7.57605,2.15326,0,0,0,0,0,0,0,-1,1896,645,7.57599,-2.15326
679,379,8.55078,2.50409,0,0,0,0,0,0,0,-1,1903,645,8.55073,-2.50406
686,379,0,0,0,0,0,0,0,0,0,-1,1910,645,0,0
693,379,0,0,0,0,0,0,0,0,0,-1,1917,645,0,0
700,379,0,0,0,0,0,0,0,0,0,-1,1924,645,0,0
707,379,0,0,0,0,0,0,0,0,0,-1,1931,645,0,0
714,379,0,0,0,0,0,0,0,0,0,-1,1938,645,0,0
721,379,0,0,0,0,0,0,0,0,0,-1,1945,645,0,0
728,379,0,0,0,0,0,0,0,0,0,-1,1952,645,0,0
735,379,0,0,0,0,0,0,0,0,0,-1,1959,645,0,0
742,379,0,0,0,0,0,0,0,0,0,-1,1966,645,0,0
749,379,0,0,0,0,0,0,0,0,0,-1,1973,645,0,0
756,379,0,0,0,0,0,0,0,0,0,-1,1980,645,0,0
763,379,0,0,0,0,0,0,0,0,0,-1,1987,645,0,0
770,379,0,0,0,0,0,0,0,0,0,-1,1994,645,0,0
777,379,0,0,0,0,0,0,0,0,0,-1,2001,645,0,0
784,379,0,0,0,0,0,0,0,0,0,-1,2008,645,0,0
791,379,0,0,0,0,0,0,0,0,0,-1,2015,645,0,0
798,379,0,0,0,0,0,0,0,0,0,-1,2022,645,0,0
805,379,0,0,0,0,0,0,0,0,0,-1,2029,645,0,0
812,379,0,0,0,0,0,0,0,0,0,-1,2036,645,0,0
-700,372,0,0,0,0,0,0,0,0,0,-1,524,652,0,0
-693,372,0,0,0,0,0,0,0,0,0,-1,531,652,0,0
-686,372,0,0,0,0,0,0,0,0,0,-1,538,652,0,0
-679,372,0,0,0,0,0,0,0,0,0,-1,545,652,0,0
-672,372,0,0,0,0,0,0,0,0,0,-1,552,652,0,0
-665,372,0,0,0,0,0,0,0,0,0,-1,559,652,0,0
-658,372,0,0,0,0,0,0,0,0,0,-1,566,652,0,0
-651,372,0,0,0,0,0,0,0,0,0,-1,573,652,0,0
-644,372,0,0,0,0,0,0,0,0,0,-1,580,652,0,0
-637,372,0,0,0,0,0,0,0,0,0,-1,587,652,0,0
-630,372,0,0,0,0,0,0,0,0,0,-1,594,652,0,0
-623,372,0,0,0,0,0,0,0,0,0,-1,601,652,0,0
-616,372,0,0,0,0,0,0,0,0,0,-1,608,652,0,0
-609,372,0,0,0,0,0,0,0,0,0,-1,615,652,0,0
-602,372,0,0,0,0,0,0,0,0,0,-1,622,652,0,0
-595,372,0,0,0,0,0,0,0,0,0,-1,629,652,0,0
-588,372,0,0,0,0,0,0,0,0,0,-1,636,652,0,0
-581,372,0,0,0,0,0,0,0,0,0,-1,643,652,0,0
-574,372,0,0,0,0,0,0,0,0,0,-1,650,652,0,0
-567,372,-7.93744,0.73407,0,0,0,0,0,0,0,-1,657,652,-7.93741,-0.734076
-560,372,-8.78552,-0.158203,0,0,0,0,0,0,0,-1,664,652,-8.78552,0.158216
-553,372,-7.95551,1.61694,0,0,0,0,0,0,0,-1,671,652,-7.95552,-1.61697
-546,372,-4.2403,-3.75372,0,0,0,0,0,0,0,-1,678,652,-4.24028,3.75369
-539,372,-7.92285,-0.0650024,0,0,0,0,0,0,0,-1,685,652,-7.92287,0.0649772
-532,372,-8.59589,-0.419556,0,0,0,0,0,0,0,-1,692,652,-8.59591,0.419539
-525,372,-8.03674,-1.36804,0,0,0,0,0,0,0,-1,699,652,-8.03676,1.36806
-518,372,-7.29059,-2.04913,0,0,0,0,0,0,0,-1,706,652,-7.29057,2.04911
-511,372,-7.271,-2.49176,0.00718017,0.0124443,-0.00629071,0.0166314,0.00299307,-0.983533,0.0102368,0.0238367,713,652,-7.27097,2.49177
-504,372,-7.29248,-2.82129,0.00438628,0.0085956,-0.00303641,0.0101854,0.00279643,-1.08845,0.00607656,0.0126937,720,652,-7.29246,2.82127
-497,372,-7.27802,-3.20428,0.00263969,0.00628211,-0.00147722,0.00680589,0.00211591,-1.23005,0.00402197,0.0112555,727,652,-7.278,3.20425
-490,372,-7.29596,-3.54761,0.00184563,0.00420441,-0.00105499,0.00460741,0.00144263,-1.20591,0.00272133,0.01248,734,652,-7.29595,3.54762
-483,372,-7.30634,-3.90155,0.00132208,0.00273428,-0.000792874,0.00308989,0.000966471,-1.14919,0.00182516,0.0125038,741,652,-7.30633,3.90158
-476,372,-7.3067,-4.22595,0.00143051,0.00202345,-0.00107105,0.00283831,0.000615655,-0.92042,0.00172403,0.0129234,748,652,-7.3067,4.22594
-469,372,-7.30725,-4.56903,0.00182675,0.00161778,-0.00148426,0.0032102,0.000234329,-0.750257,0.00206646,0.0107662,755,652,-7.30725,4.56904
-462,372,-7.3244,-4.96222,0.0022105,0.00149245,-0.00188759,0.00377291,-6.99565e-05,-0.691419,0.00253891,0.00988552,762,652,-7.32439,4.9622
-455,372,-7.34216,-5.31097,0.00232341,0.00172919,-0.00193463,0.00398361,6.899e-05,-0.709205,0.00263304,0.00990798,769,652,-7.34217,5.31096
-448,372,-7.32642,-5.66644,0.00229278,0.0016445,-0.00191938,0.00391519,2.20846e-05,-0.701749,0.0026028,0.0111575,776,652,-7.3264,5.66642
-441,372,-7.1684,-6.23718,0.00175159,0.00152349,-0.00163479,0.00327631,-1.22539e-06,-0.750571,0.00218461,0.0428508,783,652,-7.1684,6.23716
-434,372,-7.07526,-6.92767,0,0,0,0,0,0,0,-1,790,652,-7.07527,6.92766
-427,372,-4.54248,-3.56268,0,0,0,0,0,0,0,-1,797,652,-4.54247,3.56266
-420,372,-4.66168,-2.93597,0,0,0,0,0,0,0,-1,804,652,-4.66166,2.93599
-413,372,-4.74762,-3.29541,0,0,0,0,0,0,0,-1,811,652,-4.74763,3.29542
-406,372,-0.885437,-0.583923,0,0,0,0,0,0,0,-1,818,652,-0.885437,0.5839
-399,372,-3.97357,-0.825012,0,0,0,0,0,0,0,-1,825,652,-3.97359,0.825037
-392,372,-7.64337,0.173035,0,0,0,0,0,0,0,-1,832,652,-7.64337,-0.173019
-385,372,-6.48871,-0.0271606,0,0,0,0,0,0,0,-1,839,652,-6.48874,0.0271353
-378,372,-5.33044,-0.242432,0,0,0,0,0,0,0,-1,846,652,-5.33042,0.242457
-371,372,-4.40802,-0.495667,0,0,0,0,0,0,0,-1,853,652,-4.40802,0.495661
-364,372,0,0,0,0,0,0,0,0,0,-1,860,652,0,0
-357,372,0,0,0,0,0,0,0,0,0,-1,867,652,0,0
-350,372,0,0,0,0,0,0,0,0,0,-1,874,652,0,0
-343,372,0,0,0,0,0,0,0,0,0,-1,881,652,0,0
-336,372,0,0,0,0,0,0,0,0,0,-1,888,652,0,0
-329,372,0,0,0,0,0,0,0,0,0,-1,895,652,0,0
-322,372,0,0,0,0,0,0,0,0,0,-1,902,652,0,0
-315,372,0,0,0,0,0,0,0,0,0,-1,909,652,0,0
-308,372,0,0,0,0,0,0,0,0,0,-1,916,652,0,0
-301,372,0,0,0,0,0,0,0,0,0,-1,923,652,0,0
-294,372,0,0,0,0,0,0,0,0,0,-1,930,652,0,0
-287,372,0,0,0,0,0,0,0,0,0,-1,937,652,0,0
-280,372,0,0,0,0,0,0,0,0,0,-1,944,652,0,0
-273,372,0,0,0,0,0,0,0,0,0,-1,951,652,0,0
-266,372,0,0,0,0,0,0,0,0,0,-1,958,652,0,0
-259,372,0,0,0,0,0,0,0,0,0,-1,965,652,0,0
-252,372,0,0,0,0,0,0,0,0,0,-1,972,652,0,0
-245,372,0,0,0,0,0,0,0,0,0,-1,979,652,0,0
-238,372,0,0,0,0,0,0,0,0,0,-1,986,652,0,0
-231,372,0,0,0,0,0,0,0,0,0,-1,993,652,0,0
-224,372,0,0,0,0,0,0,0,0,0,-1,1000,652,0,0
-217,372,0,0,0,0,0,0,0,0,0,-1,1007,652,0,0
-210,372,0,0,0,0,0,0,0,0,0,-1,1014,652,0,0
-203,372,0,0,0,0,0,0,0,0,0,-1,1021,652,0,0
-196,372,0,0,0,0,0,0,0,0,0,-1,1028,652,0,0
-189,372,0,0,0,0,0,0,0,0,0,-1,1035,652,0,0
-182,372,0,0,0,0,0,0,0,0,0,-1,1042,652,0,0
-175,372,0,0,0,0,0,0,0,0,0,-1,1049,652,0,0
-168,372,0,0,0,0,0,0,0,0,0,-1,1056,652,0,0
-161,372,0,0,0,0,0,0,0,0,0,-1,1063,652,0,0
-154,372,0,0,0,0,0,0,0,0,0,-1,1070,652,0,0
-147,372,0,0,0,0,0,0,0,0,0,-1,1077,652,0,0
-140,372,0,0,0,0,0,0,0,0,0,-1,1084,652,0,0
-133,372,0,0,0,0,0,0,0,0,0,-1,1091,652,0,0
-126,372,0,0,0,0,0,0,0,0,0,-1,1098,652,0,0
-119,372,0,0,0,0,0,0,0,0,0,-1,1105,652,0,0
-112,372,0,0,0,0,0,0,0,0,0,-1,1112,652,0,0
-105,372,0,0,0,0,0,0,0,0,0,-1,1119,652,0,0
-98,372,0,0,0,0,0,0,0,0,0,-1,1126,652,0,0
-91,372,0,0,0,0,0,0,0,0,0,-1,1133,652,0,0
-84,372,0,0,0,0,0,0,0,0,0,-1,1140,652,0,0
-77,372,0,0,0,0,0,0,0,0,0,-1,1147,652,0,0
-70,372,0,0,0,0,0,0,0,0,0,-1,1154,652,0,0
-63,372,0,0,0,0,0,0,0,0,0,-1,1161,652,0,0
-56,372,0,0,0,0,0,0,0,0,0,-1,1168,652,0,0
-49,372,0,0,0,0,0,0,0,0,0,-1,1175,652,0,0
-42,372,0,0,0,0,0,0,0,0,0,-1,1182,652,0,0
-35,372,0,0,0,0,0,0,0,0,0,-1,1189,652,0,0
-28,372,0,0,0,0,0,0,0,0,0,-1,1196,652,0,0
-21,372,0,0,0,0,0,0,0,0,0,-1,1203,652,0,0
-14,372,0,0,0,0,0,0,0,0,0,-1,1210,652,0,0
-7,372,0,0,0,0,0,0,0,0,0,-1,1217,652,0,0
0,372,0,0,0,0,0,0,0,0,0,-1,1224,652,0,0
7,372,0,0,0,0,0,0,0,0,0,-1,1231,652,0,0
14,372,0,0,0,0,0,0,0,0,0,-1,1238,652,0,0
21,372,0,0,0,0,0,0,0,0,0,-1,1245,652,0,0
28,372,0,0,0,0,0,0,0,0,0,-1,1252,652,0,0
35,372,0,0,0,0,0,0,0,0,0,-1,1259,652,0,0
42,372,0,0,0,0,0,0,0,0,0,-1,1266,652,0,0
49,372,0,0,0,0,0,0,0,0,0,-1,1273,652,0,0
56,372,0,0,0,0,0,0,0,0,0,-1,1280,652,0,0
63,372,0,0,0,0,0,0,0,0,0,-1,1287,652,0,0
70,372,0,0,0,0,0,0,0,0,0,-1,1294,652,0,0
77,372,0,0,0,0,0,0,0,0,0,-1,1301,652,0,0
84,372,0,0,0,0,0,0,0,0,0,-1,1308,652,0,0
91,372,0,0,0,0,0,0,0,0,0,-1,1315,652,0,0
98,372,0,0,0,0,0,0,0,0,0,-1,1322,652,0,0
105,372,0,0,0,0,0,0,0,0,0,-1,1329,652,0,0
112,372,0,0,0,0,0,0,0,0,0,-1,1336,652,0,0
119,372,0,0,0,0,0,0,0,0,0,-1,1343,652,0,0
126,372,0,0,0,0,0,0,0,0,0,-1,1350,652,0,0
133,372,0,0,0,0,0,0,0,0,0,-1,1357,652,0,0
140,372,0,0,0,0,0,0,0,0,0,-1,1364,652,0,0
147,372,0,0,0,0,0,0,0,0,0,-1,1371,652,0,0
154,372,0,0,0,0,0,0,0,0,0,-1,1378,652,0,0
161,372,0,0,0,0,0,0,0,0,0,-1,1385,652,0,0
168,372,0,0,0,0,0,0,0,0,0,-1,1392,652,0,0
175,372,0,0,0,0,0,0,0,0,0,-1,1399,652,0,0
182,372,0,0,0,0,0,0,0,0,0,-1,1406,652,0,0
189,372,0,0,0,0,0,0,0,0,0,-1,1413,652,0,0
196,372,0,0,0,0,0,0,0,0,0,-1,1420,652,0,0
203,372,0,0,0,0,0,0,0,0,0,-1,1427,652,0,0
210,372,0,0,0,0,0,0,0,0,0,-1,1434,652,0,0
217,372,0,0,0,0,0,0,0,0,0,-1,1441,652,0,0
224,372,0,0,0,0,0,0,0,0,0,-1,1448,652,0,0
231,372,0,0,0,0,0,0,0,0,0,-1,1455,652,0,0
238,372,0,0,0,0,0,0,0,0,0,-1,1462,652,0,0
245,372,0,0,0,0,0,0,0,0,0,-1,1469,652,0,0
252,372,0,0,0,0,0,0,0,0,0,-1,1476,652,0,0
259,372,0,0,0,0,0,0,0,0,0,-1,1483,652,0,0
266,372,0,0,0,0,0,0,0,0,0,-1,1490,652,0,0
273,372,0,0,0,0,0,0,0,0,0,-1,1497,652,0,0
280,372,0,0,0,0,0,0,0,0,0,-1,1504,652,0,0
287,372,0,0,0,0,0,0,0,0,0,-1,1511,652,0,0
294,372,0,0,0,0,0,0,0,0,0,-1,1518,652,0,0
301,372,0,0,0,0,0,0,0,0,0,-1,1525,652,0,0
308,372,0,0,0,0,0,0,0,0,0,-1,1532,652,0,0
315,372,0,0,0,0,0,0,0,0,0,-1,1539,652,0,0
322,372,0,0,0,0,0,0,0,0,0,-1,1546,652,0,0
329,372,0,0,0,0,0,0,0,0,0,-1,1553,652,0,0
336,372,0,0,0,0,0,0,0,0,0,-1,1560,652,0,0
343,372,0,0,0,0,0,0,0,0,0,-1,1567,652,0,0
350,372,0,0,0,0,0,0,0,0,0,-1,1574,652,0,0
357,372,0,0,0,0,0,0,0,0,0,-1,1581,652,0,0
364,372,0,0,0,0,0,0,0,0,0,-1,1588,652,0,0
371,372,0,0,0,0,0,0,0,0,0,-1,1595,652,0,0
378,372,0,0,0,0,0,0,0,0,0,-1,1602,652,0,0
385,372,0,0,0,0,0,0,0,0,0,-1,1609,652,0,0
392,372,0,0,0,0,0,0,0,0,0,-1,1616,652,0,0
399,372,0,0,0,0,0,0,0,0,0,-1,1623,652,0,0
406,372,0,0,0,0,0,0,0,0,0,-1,1630,652,0,0
413,372,0,0,0,0,0,0,0,0,0,-1,1637,652,0,0
420,372,0,0,0,0,0,0,0,0,0,-1,1644,652,0,0
427,372,0,0,0,0,0,0,0,0,0,-1,1651,652,0,0
434,372,0,0,0,0,0,0,0,0,0,-1,1658,652,0,0
441,372,0,0,0,0,0,0,0,0,0,-1,1665,652,0,0
448,372,0,0,0,0,0,0,0,0,0,-1,1672,652,0,0
455,372,0,0,0,0,0,0,0,0,0,-1,1679,652,0,0
462,372,0,0,0,0,0,0,0,0,0,-1,1686,652,0,0
469,372,0,0,0,0,0,0,0,0,0,-1,1693,652,0,0
476,372,0,0,0,0,0,0,0,0,0,-1,1700,652,0,0
483,372,8.74182,1.53125,0,0,0,0,0,0,0,-1,1707,652,8.74186,-1.53126
490,372,9.78455,1.67096,0,0,0,0,0,0,0,-1,1714,652,9.7846,-1.67093
497,372,9.97644,1.46069,0,0,0,0,0,0,0,-1,1721,652,9.97647,-1.46071
504,372,10.1216,1.28375,0,0,0,0,0,0,0,-1,1728,652,10.1216,-1.28376
511,372,11.7367,-0.0272217,0,0,0,0,0,0,0,-1,1735,652,11.7367,0.0272326
518,372,12.0657,-0.0995483,0,0,0,0,0,0,0,-1,1742,652,12.0657,0.0995285
525,372,12.3947,-0.171814,0,0,0,0,0,0,0,-1,1749,652,12.3946,0.171824
532,372,9.36597,1.72034,0,0,0,0,0,0,0,-1,1756,652,9.36597,-1.72036
539,372,7.82886,-0.0865479,0,0,0,0,0,0,0,-1,1763,652,7.82882,0.0865771
546,372,10.953,-0.187195,0,0,0,0,0,0,0,-1,1770,652,10.953,0.187181
553,372,14.1201,-4.83234,0,0,0,0,0,0,0,-1,1777,652,14.1201,4.83235
560,372,15.2017,-4.78784,0,0,0,0,0,0,0,-1,1784,652,15.2016,4.78786
567,372,14.9005,-4.34229,0.00936539,0.0123998,0.00757767,0.0186107,0.00315453,0.884201,0.0115007,0.0306119,1791,652,14.9005,4.34231
574,372,14.972,-3.95361,0.00652107,0.00840059,0.00516611,0.0127117,0.00220994,0.875369,0.00784232,0.0198462,1798,652,14.9721,3.95359
581,372,14.9694,-3.64136,0.00432021,0.0054676,0.0033282,0.00827118,0.00151662,0.870747,0.00508454,0.0156756,1805,652,14.9693,3.64138
588,372,14.9244,-3.26019,0.00212202,0.0022384,0.00157915,0.00376043,0.00059999,0.803814,0.00233282,0.0166345,1812,652,14.9245,3.26019
595,372,14.8796,-2.8609,0.00114222,0.00104571,0.000668516,0.00176422,0.00042371,0.749369,0.00106343,0.0148177,1819,652,14.8797,2.86091
602,372,14.9069,-2.50885,0.000912277,0.00115618,0.000672163,0.00171737,0.000351093,0.875139,0.00104768,0.0134316,1826,652,14.9069,2.50884
609,372,14.8741,-2.14978,0.000257709,0.00145117,0.000675721,0.00175593,-4.7052e-05,1.1471,0.00118662,0.0130647,1833,652,14.8741,2.1498
616,372,14.8705,-1.74542,-0.000290107,0.00161546,0.000690506,0.00183937,-0.000514011,1.25723,0.00142874,0.0127891,1840,652,14.8705,1.74542
623,372,14.8988,-1.31854,-0.0013006,0.00177227,0.00053195,0.00186175,-0.00139008,1.40414,0.00188402,0.0128867,1847,652,14.8988,1.31856
630,372,14.8606,-0.924744,-0.00295581,0.00171438,0.000122492,0.00171759,-0.00295902,1.54459,0.00273157,0.0192704,1854,652,14.8606,0.924765
637,372,14.8538,-0.583496,-0.00526221,0.00173049,-0.000572379,0.00177703,-0.00530875,-1.48966,0.00425699,0.023685,1861,652,14.8538,0.583517
644,372,14.9753,-0.0861816,-0.00842171,0.00144232,-0.00159099,0.00169258,-0.00867197,-1.41477,0.00642031,0.0299849,1868,652,14.9753,0.0861563
651,372,15.2668,0.480164,0,0,0,0,0,0,0,-1,1875,652,15.2668,-0.480177
658,372,14.157,0.280273,0,0,0,0,0,0,0,-1,1882,652,14.157,-0.280264
665,372,13.421,0.714966,0,0,0,0,0,0,0,-1,1889,652,13.4211,-0.714941
672,372,9.34106,1.48444,0,0,0,0,0,0,0,-1,1896,652,9.34109,-1.48444
679,372,10.7308,2.32391,0,0,0,0,0,0,0,-1,1903,652,10.7309,-2.3239
686,372,11.6295,2.52997,0,0,0,0,0,0,0,-1,1910,652,11.6296,-2.52996
693,372,0,0,0,0,0,0,0,0,0,-1,1917,652,0,0
700,372,0,0,0,0,0,0,0,0,0,-1,1924,652,0,0
707,372,0,0,0,0,0,0,0,0,0,-1,1931,652,0,0
714,372,0,0,0,0,0,0,0,0,0,-1,1938,652,0,0
721,372,0,0,0,0,0,0,0,0,0,-1,1945,652,0,0
728,372,0,0,0,0,0,0,0,0,0,-1,1952,652,0,0
735,372,0,0,0,0,0,0,0,0,0,-1,1959,652,0,0
742,372,0,0,0,0,0,0,0,0,0,-1,1966,652,0,0
749,372,0,0,0,0,0,0,0,0,0,-1,1973,652,0,0
756,372,0,0,0,0,0,0,0,0,0,-1,1980,652,0,0
763,372,0,0,0,0,0,0,0,0,0,-1,1987,652,0,0
770,372,0,0,0,0,0,0,0,0,0,-1,1994,652,0,0
777,372,0,0,0,0,0,0,0,0,0,-1,2001,652,0,0
784,372,0,0,0,0,0,0,0,0,0,-1,2008,652,0,0
791,372,0,0,0,0,0,0,0,0,0,-1,2015,652,0,0
798,372,0,0,0,0,0,0,0,0,0,-1,2022,652,0,0
805,372,0,0,0,0,0,0,0,0,0,-1,2029,652,0,0
812,372,0,0,0,0,0,0,0,0,0,-1,2036,652,0,0
-700,365,0,0,0,0,0,0,0,0,0,-1,524,659,0,0
-693,365,0,0,0,0,0,0,0,0,0,-1,531,659,0,0
-686,365,0,0,0,0,0,0,0,0,0,-1,538,659,0,0
-679,365,0,0,0,0,0,0,0,0,0,-1,545,659,0,0
-672,365,0,0,0,0,0,0,0,0,0,-1,552,659,0,0
-665,365,0,0,0,0,0,0,0,0,0,-1,559,659,0,0
-658,365,0,0,0,0,0,0,0,0,0,-1,566,659,0,0
-651,365,0,0,0,0,0,0,0,0,0,-1,573,659,0,0
-644,365,0,0,0,0,0,0,0,0,0,-1,580,659,0,0
-637,365,0,0,0,0,0,0,0,0,0,-1,587,659,0,0
-630,365,0,0,0,0,0,0,0,0,0,-1,594,659,0,0
-623,365,0,0,0,0,0,0,0,0,0,-1,601,659,0,0
-616,365,0,0,0,0,0,0,0,0,0,-1,608,659,0,0
-609,365,0,0,0,0,0,0,0,0,0,-1,615,659,0,0
-602,365,0,0,0,0,0,0,0,0,0,-1,622,659,0,0
-595,365,0,0,0,0,0,0,0,0,0,-1,629,659,0,0
-588,365,0,0,0,0,0,0,0,0,0,-1,636,659,0,0
-581,365,0,0,0,0,0,0,0,0,0,-1,643,659,0,0
-574,365,-7.69281,1.59015,0,0,0,0,0,0,0,-1,650,659,-7.69282,-1.59018
-567,365,-8.2583,1.72638,0,0,0,0,0,0,0,-1,657,659,-8.25827,-1.72637
-560,365,-7.17767,0.275757,0,0,0,0,0,0,0,-1,664,659,-7.17768,-0.27577
-553,365,-8.78296,0.353882,0,0,0,0,0,0,0,-1,671,659,-8.78295,-0.353859
-546,365,-8.5188,0.96405,0,0,0,0,0,0,0,-1,678,659,-8.51877,-0.964027
-539,365,-8.38599,1.52936,0,0,0,0,0,0,0,-1,685,659,-8.38598,-1.52935
-532,365,-8.11365,0.214172,0,0,0,0,0,0,0,-1,692,659,-8.11362,-0.214179
-525,365,-7.52374,-1.75867,0,0,0,0,0,0,0,-1,699,659,-7.52371,1.75865
-518,365,-7.65521,-2.02612,0,0,0,0,0,0,0,-1,706,659,-7.65518,2.02613
-511,365,-7.659,-2.44,0.00658471,0.0102234,-0.00621136,0.0148764,0.00193172,-0.927866,0.0093405,0.0247943,713,659,-7.659,2.44001
-504,365,-7.63525,-2.80817,0.00405034,0.00678624,-0.00294818,0.00866838,0.00216821,-1.00262,0.00520884,0.012255,720,659,-7.63524,2.80815
-497,365,-7.63647,-3.1814,0.00251553,0.0048583,-0.00138011,0.00549712,0.00187671,-1.13729,0.00322655,0.0127703,727,659,-7.63645,3.18138
-490,365,-7.65045,-3.52954,0.00185189,0.00309103,-0.000975779,0.00362732,0.0013156,-1.06826,0.00212039,0.0135953,734,659,-7.65044,3.52955
-483,365,-7.67108,-3.88153,0.00143211,0.00192441,-0.000774548,0.00249098,0.000865541,-0.939248,0.0014603,0.0128049,741,659,-7.67106,3.88154
-476,365,-7.65887,-4.23224,0.00163909,0.00149473,-0.00115805,0.00272722,0.000406612,-0.754274,0.0016989,0.0141031,748,659,-7.65886,4.23227
-469,365,-7.64996,-4.59247,0.00211453,0.00134252,-0.00169414,0.00346609,-9.03569e-06,-0.673386,0.00231374,0.0140509,755,659,-7.64996,4.59247
-462,365,-7.66791,-4.94434,0.00268911,0.00161224,-0.00223515,0.00444977,-0.000148419,-0.667202,0.0030172,0.0141568,762,659,-7.66792,4.94434
-455,365,-7.69031,-5.29889,0.00295845,0.0021865,-0.00245667,0.00505928,8.56733e-05,-0.707478,0.00334466,0.0156467,769,659,-7.69031,5.29889
-448,365,-7.61652,-5.75385,0.00299216,0.00245696,-0.00266391,0.00540188,4.7249e-05,-0.735339,0.00358561,0.0273289,776,659,-7.61651,5.75386
-441,365,-7.47601,-6.32037,0,0,0,0,0,0,0,-1,783,659,-7.476,6.32038
-434,365,-5.45056,-3.98041,0,0,0,0,0,0,0,-1,790,659,-5.45055,3.98042
-427,365,-5.05377,-4.74689,0,0,0,0,0,0,0,-1,797,659,-5.05376,4.7469
-420,365,-4.58813,-3.16376,0,0,0,0,0,0,0,-1,804,659,-4.58816,3.16374
-413,365,0.141357,0.672729,0,0,0,0,0,0,0,-1,811,659,0.141365,-0.672714
-406,365,-1.75067,-0.934448,0,0,0,0,0,0,0,-1,818,659,-1.7507,0.934424
-399,365,-4.10242,-1.25439,0,0,0,0,0,0,0,-1,825,659,-4.10244,1.25438
-392,365,-7.46545,-0.779724,0,0,0,0,0,0,0,-1,832,659,-7.46543,0.779744
-385,365,-6.27875,-0.887573,0,0,0,0,0,0,0,-1,839,659,-6.27874,0.887545
-378,365,-5.34503,-0.263306,0,0,0,0,0,0,0,-1,846,659,-5.34504,0.263275
-371,365,0,0,0,0,0,0,0,0,0,-1,853,659,0,0
-364,365,0,0,0,0,0,0,0,0,0,-1,860,659,0,0
-357,365,0,0,0,0,0,0,0,0,0,-1,867,659,0,0
-350,365,0,0,0,0,0,0,0,0,0,-1,874,659,0,0
-343,365,0,0,0,0,0,0,0,0,0,-1,881,659,0,0
-336,365,0,0,0,0,0,0,0,0,0,-1,888,659,0,0
-329,365,0,0,0,0,0,0,0,0,0,-1,895,659,0,0
-322,365,0,0,0,0,0,0,0,0,0,-1,902,659,0,0
-315,365,0,0,0,0,0,0,0,0,0,-1,909,659,0,0
-308,365,0,0,0,0,0,0,0,0,0,-1,916,659,0,0
-301,365,0,0,0,0,0,0,0,0,0,-1,923,659,0,0
-294,365,0,0,0,0,0,0,0,0,0,-1,930,659,0,0
-287,365,0,0,0,0,0,0,0,0,0,-1,937,659,0,0
-280,365,0,0,0,0,0,0,0,0,0,-1,944,659,0,0
-273,365,0,0,0,0,0,0,0,0,0,-1,951,659,0,0
-266,365,0,0,0,0,0,0,0,0,0,-1,958,659,0,0
-259,365,0,0,0,0,0,0,0,0,0,-1,965,659,0,0
-252,365,0,0,0,0,0,0,0,0,0,-1,972,659,0,0
-245,365,0,0,0,0,0,0,0,0,0,-1,979,659,0,0
-238,365,0,0,0,0,0,0,0,0,0,-1,986,659,0,0
-231,365,0,0,0,0,0,0,0,0,0,-1,993,659,0,0
-224,365,0,0,0,0,0,0,0,0,0,-1,1000,659,0,0
-217,365,0,0,0,0,0,0,0,0,0,-1,1007,659,0,0
-210,365,0,0,0,0,0,0,0,0,0,-1,1014,659,0,0
-203,365,0,0,0,0,0,0,0,0,0,-1,1021,659,0,0
-196,365,0,0,0,0,0,0,0,0,0,-1,1028,659,0,0
-189,365,0,0,0,0,0,0,0,0,0,-1,1035,659,0,0
-182,365,0,0,0,0,0,0,0,0,0,-1,1042,659,0,0
-175,365,0,0,0,0,0,0,0,0,0,-1,1049,659,0,0
-168,365,0,0,0,0,0,0,0,0,0,-1,1056,659,0,0
-161,365,0,0,0,0,0,0,0,0,0,-1,1063,659,0,0
-154,365,0,0,0,0,0,0,0,0,0,-1,1070,659,0,0
-147,365,0,0,0,0,0,0,0,0,0,-1,1077,659,0,0
-140,365,0,0,0,0,0,0,0,0,0,-1,1084,659,0,0
-133,365,0,0,0,0,0,0,0,0,0,-1,1091,659,0,0
-126,365,0,0,0,0,0,0,0,0,0,-1,1098,659,0,0
-119,365,0,0,0,0,0,0,0,0,0,-1,1105,659,0,0
-112,365,0,0,0,0,0,0,0,0,0,-1,1112,659,0,0
-105,365,0,0,0,0,0,0,0,0,0,-1,1119,659,0,0
-98,365,0,0,0,0,0,0,0,0,0,-1,1126,659,0,0
-91,365,0,0,0,0,0,0,0,0,0,-1,1133,659,0,0
-84,365,0,0,0,0,0,0,0,0,0,-1,1140,659,0,0
-77,365,0,0,0,0,0,0,0,0,0,-1,1147,659,0,0
-70,365,0,0,0,0,0,0,0,0,0,-1,1154,659,0,0
-63,365,0,0,0,0,0,0,0,0,0,-1,1161,659,0,0
-56,365,0,0,0,0,0,0,0,0,0,-1,1168,659,0,0
-49,365,0,0,0,0,0,0,0,0,0,-1,1175,659,0,0
-42,365,0,0,0,0,0,0,0,0,0,-1,1182,659,0,0
-35,365,0,0,0,0,0,0,0,0,0,-1,1189,659,0,0
-28,365,0,0,0,0,0,0,0,0,0,-1,1196,659,0,0
-21,365,0,0,0,0,0,0,0,0,0,-1,1203,659,0,0
-14,365,0,0,0,0,0,0,0,0,0,-1,1210,659,0,0
-7,365,0,0,0,0,0,0,0,0,0,-1,1217,659,0,0
0,365,0,0,0,0,0,0,0,0,0,-1,1224,659,0,0
7,365,0,0,0,0,0,0,0,0,0,-1,1231,659,0,0
14,365,0,0,0,0,0,0,0,0,0,-1,1238,659,0,0
21,365,0,0,0,0,0,0,0,0,0,-1,1245,659,0,0
28,365,0,0,0,0,0,0,0,0,0,-1,1252,659,0,0
35,365,0,0,0,0,0,0,0,0,0,-1,1259,659,0,0
42,365,0,0,0,0,0,0,0,0,0,-1,1266,659,0,0
49,365,0,0,0,0,0,0,0,0,0,-1,1273,659,0,0
56,365,0,0,0,0,0,0,0,0,0,-1,1280,659,0,0
63,365,0,0,0,0,0,0,0,0,0,-1,1287,659,0,0
70,365,0,0,0,0,0,0,0,0,0,-1,1294,659,0,0
77,365,0,0,0,0,0,0,0,0,0,-1,1301,659,0,0
84,365,0,0,0,0,0,0,0,0,0,-1,1308,659,0,0
91,365,0,0,0,0,0,0,0,0,0,-1,1315,659,0,0
98,365,0,0,0,0,0,0,0,0,0,-1,1322,659,0,0
105,365,0,0,0,0,0,0,0,0,0,-1,1329,659,0,0
112,365,0,0,0,0,0,0,0,0,0,-1,1336,659,0,0
119,365,0,0,0,0,0,0,0,0,0,-1,1343,659,0,0
126,365,0,0,0,0,0,0,0,0,0,-1,1350,659,0,0
133,365,0,0,0,0,0,0,0,0,0,-1,1357,659,0,0
140,365,0,0,0,0,0,0,0,0,0,-1,1364,659,0,0
147,365,0,0,0,0,0,0,0,0,0,-1,1371,659,0,0
154,365,0,0,0,0,0,0,0,0,0,-1,1378,659,0,0
161,365,0,0,0,0,0,0,0,0,0,-1,1385,659,0,0
168,365,0,0,0,0,0,0,0,0,0,-1,1392,659,0,0
175,365,0,0,0,0,0,0,0,0,0,-1,1399,659,0,0
182,365,0,0,0,0,0,0,0,0,0,-1,1406,659,0,0
189,365,0,0,0,0,0,0,0,0,0,-1,1413,659,0,0
196,365,0,0,0,0,0,0,0,0,0,-1,1420,659,0,0
203,365,0,0,0,0,0,0,0,0,0,-1,1427,659,0,0
210,365,0,0,0,0,0,0,0,0,0,-1,1434,659,0,0
217,365,0,0,0,0,0,0,0,0,0,-1,1441,659,0,0
224,365,0,0,0,0,0,0,0,0,0,-1,1448,659,0,0
231,365,0,0,0,0,0,0,0,0,0,-1,1455,659,0,0
238,365,0,0,0,0,0,0,0,0,0,-1,1462,659,0,0
245,365,0,0,0,0,0,0,0,0,0,-1,1469,659,0,0
252,365,0,0,0,0,0,0,0,0,0,-1,1476,659,0,0
259,365,0,0,0,0,0,0,0,0,0,-1,1483,659,0,0
266,365,0,0,0,0,0,0,0,0,0,-1,1490,659,0,0
273,365,0,0,0,0,0,0,0,0,0,-1,1497,659,0,0
280,365,0,0,0,0,0,0,0,0,0,-1,1504,659,0,0
287,365,0,0,0,0,0,0,0,0,0,-1,1511,659,0,0
294,365,0,0,0,0,0,0,0,0,0,-1,1518,659,0,0
301,365,0,0,0,0,0,0,0,0,0,-1,1525,659,0,0
308,365,0,0,0,0,0,0,0,0,0,-1,1532,659,0,0
315,365,0,0,0,0,0,0,0,0,0,-1,1539,659,0,0
322,365,0,0,0,0,0,0,0,0,0,-1,1546,659,0,0
329,365,0,0,0,0,0,0,0,0,0,-1,1553,659,0,0
336,365,0,0,0,0,0,0,0,0,0,-1,1560,659,0,0
343,365,0,0,0,0,0,0,0,0,0,-1,1567,659,0,0
350,365,0,0,0,0,0,0,0,0,0,-1,1574,659,0,0
357,365,0,0,0,0,0,0,0,0,0,-1,1581,659,0,0
364,365,0,0,0,0,0,0,0,0,0,-1,1588,659,0,0
371,365,0,0,0,0,0,0,0,0,0,-1,1595,659,0,0
378,365,0,0,0,0,0,0,0,0,0,-1,1602,659,0,0
385,365,0,0,0,0,0,0,0,0,0,-1,1609,659,0,0
392,365,0,0,0,0,0,0,0,0,0,-1,1616,659,0,0
399,365,0,0,0,0,0,0,0,0,0,-1,1623,659,0,0
406,365,0,0,0,0,0,0,0,0,0,-1,1630,659,0,0
413,365,0,0,0,0,0,0,0,0,0,-1,1637,659,0,0
420,365,0,0,0,0,0,0,0,0,0,-1,1644,659,0,0
427,365,0,0,0,0,0,0,0,0,0,-1,1651,659,0,0
434,365,0,0,0,0,0,0,0,0,0,-1,1658,659,0,0
441,365,0,0,0,0,0,0,0,0,0,-1,1665,659,0,0
448,365,0,0,0,0,0,0,0,0,0,-1,1672,659,0,0
455,365,0,0,0,0,0,0,0,0,0,-1,1679,659,0,0
462,365,0,0,0,0,0,0,0,0,0,-1,1686,659,0,0
469,365,0,0,0,0,0,0,0,0,0,-1,1693,659,0,0
476,365,0,0,0,0,0,0,0,0,0,-1,1700,659,0,0
483,365,0,0,0,0,0,0,0,0,0,-1,1707,659,0,0
490,365,8.39551,0.471252,0,0,0,0,0,0,0,-1,1714,659,8.39551,-0.471241
497,365,9.89233,1.35394,0,0,0,0,0,0,0,-1,1721,659,9.89237,-1.35396
504,365,10.1414,1.18005,0,0,0,0,0,0,0,-1,1728,659,10.1413,-1.18004
511,365,10.5151,0.993896,0,0,0,0,0,0,0,-1,1735,659,10.5152,-0.993894
518,365,11.2029,0.398132,0,0,0,0,0,0,0,-1,1742,659,11.2029,-0.398136
525,365,15.5748,3.85303,0,0,0,0,0,0,0,-1,1749,659,15.5748,-3.85303
532,365,11.2446,1.00629,0,0,0,0,0,0,0,-1,1756,659,11.2446,-1.00631
539,365,12.6301,1.03204,0,0,0,0,0,0,0,-1,1763,659,12.6302,-1.03204
546,365,11.647,0.84198,0,0,0,0,0,0,0,-1,1770,659,11.6469,-0.841955
553,365,12.028,-0.558899,0,0,0,0,0,0,0,-1,1777,659,12.028,0.558873
560,365,14.5372,-4.55548,0,0,0,0,0,0,0,-1,1784,659,14.5373,4.55547
567,365,15.4343,-4.47296,0,0,0,0,0,0,0,-1,1791,659,15.4343,4.47294
574,365,15.4756,-3.94324,0,0,0,0,0,0,0,-1,1798,659,15.4755,3.94324
581,365,15.3171,-3.72205,0.00797403,0.00803846,0.00745622,0.0154625,0.000549959,0.787559,0.01013,0.0341225,1805,659,15.3171,3.72207
588,365,15.2701,-3.2879,0.00467933,0.00362162,0.00447575,0.00865736,-0.000356404,0.726591,0.00589397,0.0146203,1812,659,15.2702,3.2879
595,365,15.2836,-2.84161,0.00244077,0.00132975,0.00201171,0.00397226,-0.000201748,0.650686,0.00271792,0.0132116,1819,659,15.2835,2.84163
602,365,15.2875,-2.45758,0.00147802,0.000956821,0.00108848,0.00233666,9.81812e-05,0.667901,0.0015261,0.0140662,1826,659,15.2875,2.45757
609,365,15.2277,-2.08722,0.000547114,0.00120249,0.000682981,0.00163233,0.000117279,1.00907,0.00105131,0.0143476,1833,659,15.2276,2.08724
616,365,15.2528,-1.70441,-1.17035e-05,0.00122286,0.000508939,0.00140561,-0.000194457,1.22605,0.00100816,0.0154976,1840,659,15.2527,1.7044
623,365,15.3007,-1.3172,-0.000985823,0.00126297,0.00027766,0.00129675,-0.0010196,1.44975,0.00134053,0.0118753,1847,659,15.3007,1.31722
630,365,15.2446,-0.931396,-0.00256416,0.00109117,-0.000173232,0.00109936,-0.00257235,-1.52355,0.00217599,0.0175536,1854,659,15.2446,0.931401
637,365,15.2166,-0.580322,-0.00464846,0.000951313,-0.00090175,0.00109294,-0.00479009,-1.41501,0.00361323,0.0226138,1861,659,15.2165,0.58033
644,365,15.2611,-0.195679,-0.00742445,0.000543113,-0.00194365,0.000991973,-0.00787331,-1.34384,0.00560885,0.0165034,1868,659,15.2611,0.195676
651,365,15.4233,0.270264,-0.0109464,-0.000115505,-0.00338545,0.000855625,-0.0119175,-1.29144,0.00824503,0.036765,1875,659,15.4233,-0.270267
658,365,14.6749,0.390015,-0.0154458,-0.00125745,-0.00553998,0.00064941,-0.0173527,-1.2393,0.0117909,0.0497252,1882,659,14.6749,-0.390036
665,365,14.0961,0.769043,0,0,0,0,0,0,0,-1,1889,659,14.0961,-0.769063
672,365,10.0579,2.15088,0,0,0,0,0,0,0,-1,1896,659,10.0579,-2.15088
679,365,10.9718,2.19208,0,0,0,0,0,0,0,-1,1903,659,10.9718,-2.19211
686,365,12.2134,2.17108,0,0,0,0,0,0,0,-1,1910,659,12.2134,-2.17109
693,365,13.7141,1.98279,0,0,0,0,0,0,0,-1,1917,659,13.7141,-1.98278
700,365,0,0,0,0,0,0,0,0,0,-1,1924,659,0,0
707,365,0,0,0,0,0,0,0,0,0,-1,1931,659,0,0
714,365,0,0,0,0,0,0,0,0,0,-1,1938,659,0,0
721,365,0,0,0,0,0,0,0,0,0,-1,1945,659,0,0
728,365,0,0,0,0,0,0,0,0,0,-1,1952,659,0,0
735,365,0,0,0,0,0,0,0,0,0,-1,1959,659,0,0
742,365,0,0,0,0,0,0,0,0,0,-1,1966,659,0,0
749,365,0,0,0,0,0,0,0,0,0,-1,1973,659,0,0
756,365,0,0,0,0,0,0,0,0,0,-1,1980,659,0,0
763,365,0,0,0,0,0,0,0,0,0,-1,1987,659,0,0
770,365,0,0,0,0,0,0,0,0,0,-1,1994,659,0,0
777,365,0,0,0,0,0,0,0,0,0,-1,2001,659,0,0
784,365,0,0,0,0,0,0,0,0,0,-1,2008,659,0,0
791,365,0,0,0,0,0,0,0,0,0,-1,2015,659,0,0
798,365,0,0,0,0,0,0,0,0,0,-1,2022,659,0,0
805,365,0,0,0,0,0,0,0,0,0,-1,2029,659,0,0
812,365,0,0,0,0,0,0,0,0,0,-1,2036,659,0,0
-700,358,0,0,0,0,0,0,0,0,0,-1,524,666,0,0
-693,358,0,0,0,0,0,0,0,0,0,-1,531,666,0,0
-686,358,0,0,0,0,0,0,0,0,0,-1,538,666,0,0
-679,358,0,0,0,0,0,0,0,0,0,-1,545,666,0,0
-672,358,0,0,0,0,0,0,0,0,0,-1,552,666,0,0
-665,358,0,0,0,0,0,0,0,0,0,-1,559,666,0,0
-658,358,0,0,0,0,0,0,0,0,0,-1,566,666,0,0
-651,358,0,0,0,0,0,0,0,0,0,-1,573,666,0,0
-644,358,0,0,0,0,0,0,0,0,0,-1,580,666,0,0
-637,358,0,0,0,0,0,0,0,0,0,-1,587,666,0,0
-630,358,0,0,0,0,0,0,0,0,0,-1,594,666,0,0
-623,358,0,0,0,0,0,0,0,0,0,-1,601,666,0,0
-616,358,0,0,0,0,0,0,0,0,0,-1,608,666,0,0
-609,358,0,0,0,0,0,0,0,0,0,-1,615,666,0,0
-602,358,0,0,0,0,0,0,0,0,0,-1,622,666,0,0
-595,358,0,0,0,0,0,0,0,0,0,-1,629,666,0,0
-588,358,0,0,0,0,0,0,0,0,0,-1,636,666,0,0
-581,358,-8.31616,1.61993,0,0,0,0,0,0,0,-1,643,666,-8.31614,-1.61993
-574,358,-8.22406,1.75385,0,0,0,0,0,0,0,-1,650,666,-8.22408,-1.75383
-567,358,-8.14215,1.91577,0,0,0,0,0,0,0,-1,657,666,-8.14214,-1.91579
-560,358,-9.2569,0.796021,0,0,0,0,0,0,0,-1,664,666,-9.25687,-0.796051
-553,358,-8.81726,0.137451,0,0,0,0,0,0,0,-1,671,666,-8.81727,-0.137456
-546,358,-9.13104,0.338623,0,0,0,0,0,0,0,-1,678,666,-9.13103,-0.338624
-539,358,-8.67389,-0.13385,0,0,0,0,0,0,0,-1,685,666,-8.67387,0.133826
-532,358,-8.19598,-1.203,0,0,0,0,0,0,0,-1,692,666,-8.19596,1.20302
-525,358,-7.93323,-1.89465,0,0,0,0,0,0,0,-1,699,666,-7.93325,1.89466
-518,358,-8.00702,-2.05627,0,0,0,0,0,0,0,-1,706,666,-8.00701,2.05626
-511,358,-8.00092,-2.42297,0.00582936,0.00810537,-0.00574741,0.0128263,0.00110837,-0.883136,0.00820643,0.0157137,713,666,-8.00093,2.42298
-504,358,-7.9989,-2.79218,0.00358721,0.005088,-0.0026206,0.00706353,0.00161169,-0.924839,0.0042743,0.0119235,720,666,-7.99889,2.79219
-497,358,-7.99805,-3.16235,0.00228917,0.00353094,-0.00115565,0.00422193,0.00159818,-1.0319,0.00246139,0.0114201,727,666,-7.99806,3.16234
-490,358,-8.00262,-3.50549,0.00178059,0.00210338,-0.000830261,0.00278779,0.00109618,-0.881394,0.00162172,0.0104375,734,666,-8.00265,3.50552
-483,358,-8.03351,-3.84967,0.00153193,0.00131325,-0.000785854,0.00221601,0.000629162,-0.716275,0.00131864,0.00973423,741,666,-8.03353,3.84965
-476,358,-8.0094,-4.20398,0.00188392,0.00120908,-0.0013424,0.00293065,0.000162345,-0.662269,0.00190196,0.011472,748,666,-8.00939,4.20396
-469,358,-8.01422,-4.57275,0.0024662,0.00134947,-0.0020608,0.00404294,-0.000227264,-0.653102,0.00277415,0.0147604,755,666,-8.0142,4.57278
-462,358,-8.04596,-4.92975,0.00328235,0.00209413,-0.00282074,0.00557087,-0.000194381,-0.681604,0.00378037,0.0183277,762,666,-8.04594,4.92976
-455,358,-7.99823,-5.31982,0.00381706,0.00314092,-0.00335571,0.00685168,0.000106299,-0.735196,0.00453277,0.0294793,769,666,-7.99825,5.31983
-448,358,-7.83594,-5.93268,0,0,0,0,0,0,0,-1,776,666,-7.83594,5.93265
-441,358,-5.56293,-3.98041,0,0,0,0,0,0,0,-1,783,666,-5.56291,3.98043
-434,358,-5.21558,-4.43127,0,0,0,0,0,0,0,-1,790,666,-5.21559,4.43125
-427,358,-3.56189,-3.15729,0,0,0,0,0,0,0,-1,797,666,-3.56192,3.15729
-420,358,0.200195,1.08234,0,0,0,0,0,0,0,-1,804,666,0.200174,-1.08231
-413,358,0.0325317,0.161072,0,0,0,0,0,0,0,-1,811,666,0.0325501,-0.161098
-406,358,-3.85846,0.753113,0,0,0,0,0,0,0,-1,818,666,-3.85846,-0.753129
-399,358,-1.31213,0.190735,0,0,0,0,0,0,0,-1,825,666,-1.31215,-0.190763
-392,358,-3.73914,-0.832214,0,0,0,0,0,0,0,-1,832,666,-3.73915,0.832202
-385,358,-5.95178,-1.69141,0,0,0,0,0,0,0,-1,839,666,-5.9518,1.69143
-378,358,0,0,0,0,0,0,0,0,0,-1,846,666,0,0
-371,358,0,0,0,0,0,0,0,0,0,-1,853,666,0,0
-364,358,0,0,0,0,0,0,0,0,0,-1,860,666,0,0
-357,358,0,0,0,0,0,0,0,0,0,-1,867,666,0,0
-350,358,0,0,0,0,0,0,0,0,0,-1,874,666,0,0
-343,358,0,0,0,0,0,0,0,0,0,-1,881,666,0,0
-336,358,0,0,0,0,0,0,0,0,0,-1,888,666,0,0
-329,358,0,0,0,0,0,0,0,0,0,-1,895,666,0,0
-322,358,0,0,0,0,0,0,0,0,0,-1,902,666,0,0
-315,358,0,0,0,0,0,0,0,0,0,-1,909,666,0,0
-308,358,0,0,0,0,0,0,0,0,0,-1,916,666,0,0
-301,358,0,0,0,0,0,0,0,0,0,-1,923,666,0,0
-294,358,0,0,0,0,0,0,0,0,0,-1,930,666,0,0
-287,358,0,0,0,0,0,0,0,0,0,-1,937,666,0,0
-280,358,0,0,0,0,0,0,0,0,0,-1,944,666,0,0
-273,358,0,0,0,0,0,0,0,0,0,-1,951,666,0,0
-266,358,0,0,0,0,0,0,0,0,0,-1,958,666,0,0
-259,358,0,0,0,0,0,0,0,0,0,-1,965,666,0,0
-252,358,0,0,0,0,0,0,0,0,0,-1,972,666,0,0
-245,358,0,0,0,0,0,0,0,0,0,-1,979,666,0,0
-238,358,0,0,0,0,0,0,0,0,0,-1,986,666,0,0
-231,358,0,0,0,0,0,0,0,0,0,-1,993,666,0,0
-224,358,0,0,0,0,0,0,0,0,0,-1,1000,666,0,0
-217,358,0,0,0,0,0,0,0,0,0,-1,1007,666,0,0
-210,358,0,0,0,0,0,0,0,0,0,-1,1014,666,0,0
-203,358,0,0,0,0,0,0,0,0,0,-1,1021,666,0,0
-196,358,0,0,0,0,0,0,0,0,0,-1,1028,666,0,0
-189,358,0,0,0,0,0,0,0,0,0,-1,1035,666,0,0
-182,358,0,0,0,0,0,0,0,0,0,-1,1042,666,0,0
-175,358,0,0,0,0,0,0,0,0,0,-1,1049,666,0,0
-168,358,0,0,0,0,0,0,0,0,0,-1,1056,666,0,0
-161,358,0,0,0,0,0,0,0,0,0,-1,1063,666,0,0
-154,358,0,0,0,0,0,0,0,0,0,-1,1070,666,0,0
-147,358,0,0,0,0,0,0,0,0,0,-1,1077,666,0,0
-140,358,0,0,0,0,0,0,0,0,0,-1,1084,666,0,0
-133,358,0,0,0,0,0,0,0,0,0,-1,1091,666,0,0
-126,358,0,0,0,0,0,0,0,0,0,-1,1098,666,0,0
-119,358,0,0,0,0,0,0,0,0,0,-1,1105,666,0,0
-112,358,0,0,0,0,0,0,0,0,0,-1,1112,666,0,0
-105,358,0,0,0,0,0,0,0,0,0,-1,1119,666,0,0
-98,358,0,0,0,0,0,0,0,0,0,-1,1126,666,0,0
-91,358,0,0,0,0,0,0,0,0,0,-1,1133,666,0,0
-84,358,0,0,0,0,0,0,0,0,0,-1,1140,666,0,0
-77,358,0,0,0,0,0,0,0,0,0,-1,1147,666,0,0
-70,358,0,0,0,0,0,0,0,0,0,-1,1154,666,0,0
-63,358,0,0,0,0,0,0,0,0,0,-1,1161,666,0,0
-56,358,0,0,0,0,0,0,0,0,0,-1,1168,666,0,0
-49,358,0,0,0,0,0,0,0,0,0,-1,1175,666,0,0
-42,358,0,0,0,0,0,0,0,0,0,-1,1182,666,0,0
-35,358,0,0,0,0,0,0,0,0,0,-1,1189,666,0,0
-28,358,0,0,0,0,0,0,0,0,0,-1,1196,666,0,0
-21,358,0,0,0,0,0,0,0,0,0,-1,1203,666,0,0
-14,358,0,0,0,0,0,0,0,0,0,-1,1210,666,0,0
-7,358,0,0,0,0,0,0,0,0,0,-1,1217,666,0,0
0,358,0,0,0,0,0,0,0,0,0,-1,1224,666,0,0
7,358,0,0,0,0,0,0,0,0,0,-1,1231,666,0,0
14,358,0,0,0,0,0,0,0,0,0,-1,1238,666,0,0
21,358,0,0,0,0,0,0,0,0,0,-1,1245,666,0,0
28,358,0,0,0,0,0,0,0,0,0,-1,1252,666,0,0
35,358,0,0,0,0,0,0,0,0,0,-1,1259,666,0,0
42,358,0,0,0,0,0,0,0,0,0,-1,1266,666,0,0
49,358,0,0,0,0,0,0,0,0,0,-1,1273,666,0,0
56,358,0,0,0,0,0,0,0,0,0,-1,1280,666,0,0
63,358,0,0,0,0,0,0,0,0,0,-1,1287,666,0,0
70,358,0,0,0,0,0,0,0,0,0,-1,1294,666,0,0
77,358,0,0,0,0,0,0,0,0,0,-1,1301,666,0,0
84,358,0,0,0,0,0,0,0,0,0,-1,1308,666,0,0
91,358,0,0,0,0,0,0,0,0,0,-1,1315,666,0,0
98,358,0,0,0,0,0,0,0,0,0,-1,1322,666,0,0
105,358,0,0,0,0,0,0,0,0,0,-1,1329,666,0,0
112,358,0,0,0,0,0,0,0,0,0,-1,1336,666,0,0
119,358,0,0,0,0,0,0,0,0,0,-1,1343,666,0,0
126,358,0,0,0,0,0,0,0,0,0,-1,1350,666,0,0
133,358,0,0,0,0,0,0,0,0,0,-1,1357,666,0,0
140,358,0,0,0,0,0,0,0,0,0,-1,1364,666,0,0
147,358,0,0,0,0,0,0,0,0,0,-1,1371,666,0,0
154,358,0,0,0,0,0,0,0,0,0,-1,1378,666,0,0
161,358,0,0,0,0,0,0,0,0,0,-1,1385,666,0,0
168,358,0,0,0,0,0,0,0,0,0,-1,1392,666,0,0
175,358,0,0,0,0,0,0,0,0,0,-1,1399,666,0,0
182,358,0,0,0,0,0,0,0,0,0,-1,1406,666,0,0
189,358,0,0,0,0,0,0,0,0,0,-1,1413,666,0,0
196,358,0,0,0,0,0,0,0,0,0,-1,1420,666,0,0
203,358,0,0,0,0,0,0,0,0,0,-1,1427,666,0,0
210,358,0,0,0,0,0,0,0,0,0,-1,1434,666,0,0
217,358,0,0,0,0,0,0,0,0,0,-1,1441,666,0,0
224,358,0,0,0,0,0,0,0,0,0,-1,1448,666,0,0
231,358,0,0,0,0,0,0,0,0,0,-1,1455,666,0,0
238,358,0,0,0,0,0,0,0,0,0,-1,1462,666,0,0
245,358,0,0,0,0,0,0,0,0,0,-1,1469,666,0,0
252,358,0,0,0,0,0,0,0,0,0,-1,1476,666,0,0
259,358,0,0,0,0,0,0,0,0,0,-1,1483,666,0,0
266,358,0,0,0,0,0,0,0,0,0,-1,1490,666,0,0
273,358,0,0,0,0,0,0,0,0,0,-1,1497,666,0,0
280,358,0,0,0,0,0,0,0,0,0,-1,1504,666,0,0
287,358,0,0,0,0,0,0,0,0,0,-1,1511,666,0,0
294,358,0,0,0,0,0,0,0,0,0,-1,1518,666,0,0
301,358,0,0,0,0,0,0,0,0,0,-1,1525,666,0,0
308,358,0,0,0,0,0,0,0,0,0,-1,1532,666,0,0
315,358,0,0,0,0,0,0,0,0,0,-1,1539,666,0,0
322,358,0,0,0,0,0,0,0,0,0,-1,1546,666,0,0
329,358,0,0,0,0,0,0,0,0,0,-1,1553,666,0,0
336,358,0,0,0,0,0,0,0,0,0,-1,1560,666,0,0
343,358,0,0,0,0,0,0,0,0,0,-1,1567,666,0,0
350,358,0,0,0,0,0,0,0,0,0,-1,1574,666,0,0
357,358,0,0,0,0,0,0,0,0,0,-1,1581,666,0,0
364,358,0,0,0,0,0,0,0,0,0,-1,1588,666,0,0
371,358,0,0,0,0,0,0,0,0,0,-1,1595,666,0,0
378,358,0,0,0,0,0,0,0,0,0,-1,1602,666,0,0
385,358,0,0,0,0,0,0,0,0,0,-1,1609,666,0,0
392,358,0,0,0,0,0,0,0,0,0,-1,1616,666,0,0
399,358,0,0,0,0,0,0,0,0,0,-1,1623,666,0,0
406,358,0,0,0,0,0,0,0,0,0,-1,1630,666,0,0
413,358,0,0,0,0,0,0,0,0,0,-1,1637,666,0,0
420,358,0,0,0,0,0,0,0,0,0,-1,1644,666,0,0
427,358,0,0,0,0,0,0,0,0,0,-1,1651,666,0,0
434,358,0,0,0,0,0,0,0,0,0,-1,1658,666,0,0
441,358,0,0,0,0,0,0,0,0,0,-1,1665,666,0,0
448,358,0,0,0,0,0,0,0,0,0,-1,1672,666,0,0
455,358,0,0,0,0,0,0,0,0,0,-1,1679,666,0,0
462,358,0,0,0,0,0,0,0,0,0,-1,1686,666,0,0
469,358,0,0,0,0,0,0,0,0,0,-1,1693,666,0,0
476,358,0,0,0,0,0,0,0,0,0,-1,1700,666,0,0
483,358,0,0,0,0,0,0,0,0,0,-1,1707,666,0,0
490,358,0,0,0,0,0,0,0,0,0,-1,1714,666,0,0
497,358,8.57239,1.1322,0,0,0,0,0,0,0,-1,1721,666,8.57234,-1.13219
504,358,10.5972,0.832947,0,0,0,0,0,0,0,-1,1728,666,10.5972,-0.832968
511,358,10.6873,0.868469,0,0,0,0,0,0,0,-1,1735,666,10.6872,-0.868484
518,358,16.5884,2.34894,0,0,0,0,0,0,0,-1,1742,666,16.5884,-2.34894
525,358,15.7626,3.65344,0,0,0,0,0,0,0,-1,1749,666,15.7626,-3.65342
532,358,14.9368,4.95789,0,0,0,0,0,0,0,-1,1756,666,14.9367,-4.9579
539,358,15.1597,3.42694,0,0,0,0,0,0,0,-1,1763,666,15.1597,-3.42692
546,358,12.3792,1.53558,0,0,0,0,0,0,0,-1,1770,666,12.3792,-1.5356
553,358,11.6584,1.26172,0,0,0,0,0,0,0,-1,1777,666,11.6585,-1.26175
560,358,10.8234,1.43042,0,0,0,0,0,0,0,-1,1784,666,10.8233,-1.43041
567,358,10.1333,-0.955139,0,0,0,0,0,0,0,-1,1791,666,10.1333,0.955132
574,358,14.7886,-2.69293,0,0,0,0,0,0,0,-1,1798,666,14.7885,2.6929
581,358,15.5381,-3.73676,0,0,0,0,0,0,0,-1,1805,666,15.5381,3.73674
588,358,15.5964,-3.30249,0.00708142,0.00452906,0.00726299,0.0131795,-0.00156902,0.698431,0.00935331,0.0268834,1812,666,15.5965,3.30252
595,358,15.6829,-2.82855,0.00405578,0.00153204,0.003815,0.00681218,-0.00122436,0.625679,0.0049998,0.0122355,1819,666,15.6828,2.82853
602,358,15.6489,-2.41901,0.00247726,0.000839418,0.00207234,0.00388662,-0.000569943,0.597232,0.00280046,0.0123419,1826,666,15.649,2.41903
609,358,15.5903,-2.06311,0.0011986,0.00107545,0.00114124,0.00227993,-5.87828e-06,0.758448,0.00152191,0.0159764,1833,666,15.5904,2.06314
616,358,15.6053,-1.68964,0.000502954,0.000972988,0.000588125,0.00137131,0.000104628,0.97548,0.000881406,0.0153915,1840,666,15.6053,1.68963
623,358,15.6578,-1.31183,-0.000487922,0.000898108,0.000191513,0.000924083,-0.000513897,1.43599,0.000841402,0.013053,1847,666,15.6579,1.31181
630,358,15.6351,-0.946472,-0.001988,0.000643713,-0.000307215,0.0006791,-0.00202339,-1.45612,0.00162335,0.0169229,1854,666,15.6352,0.946455
637,358,15.5997,-0.583008,-0.00389164,0.000412777,-0.00102995,0.000646526,-0.00412539,-1.34762,0.00298916,0.0241254,1861,666,15.5997,0.58301
644,358,15.6161,-0.217041,-0.00640721,2.39909e-05,-0.00202528,0.000608632,-0.00699185,-1.28976,0.00487679,0.0194726,1868,666,15.6161,0.217031
651,358,15.7058,0.233398,-0.00944525,-0.000588747,-0.00332564,0.000520986,-0.010555,-1.24872,0.00721659,0.0245264,1875,666,15.7058,-0.233393
658,358,15.358,0.558228,-0.0131552,-0.00152705,-0.00511992,0.000405935,-0.0150882,-1.2098,0.0101968,0.0420443,1882,666,15.3581,-0.558241
665,358,14.7965,0.868225,0,0,0,0,0,0,0,-1,1889,666,14.7965,-0.868251
672,358,12.4299,1.47272,0,0,0,0,0,0,0,-1,1896,666,12.4299,-1.4727
679,358,12.1294,2.19702,0,0,0,0,0,0,0,-1,1903,666,12.1294,-2.19703
686,358,11.9557,2.2002,0,0,0,0,0,0,0,-1,1910,666,11.9557,-2.20021
693,358,13.188,2.52203,0,0,0,0,0,0,0,-1,1917,666,13.188,-2.52202
700,358,0,0,0,0,0,0,0,0,0,-1,1924,666,0,0
707,358,0,0,0,0,0,0,0,0,0,-1,1931,666,0,0
714,358,0,0,0,0,0,0,0,0,0,-1,1938,666,0,0
721,358,0,0,0,0,0,0,0,0,0,-1,1945,666,0,0
728,358,0,0,0,0,0,0,0,0,0,-1,1952,666,0,0
735,358,0,0,0,0,0,0,0,0,0,-1,1959,666,0,0
742,358,0,0,0,0,0,0,0,0,0,-1,1966,666,0,0
749,358,0,0,0,0,0,0,0,0,0,-1,1973,666,0,0
756,358,0,0,0,0,0,0,0,0,0,-1,1980,666,0,0
763,358,0,0,0,0,0,0,0,0,0,-1,1987,666,0,0
770,358,0,0,0,0,0,0,0,0,0,-1,1994,666,0,0
777,358,0,0,0,0,0,0,0,0,0,-1,2001,666,0,0
784,358,0,0,0,0,0,0,0,0,0,-1,2008,666,0,0
791,358,0,0,0,0,0,0,0,0,0,-1,2015,666,0,0
798,358,0,0,0,0,0,0,0,0,0,-1,2022,666,0,0
805,358,0,0,0,0,0,0,0,0,0,-1,2029,666,0,0
812,358,0,0,0,0,0,0,0,0,0,-1,2036,666,0,0
-700,351,0,0,0,0,0,0,0,0,0,-1,524,673,0,0
-693,351,0,0,0,0,0,0,0,0,0,-1,531,673,0,0
-686,351,0,0,0,0,0,0,0,0,0,-1,538,673,0,0
-679,351,0,0,0,0,0,0,0,0,0,-1,545,673,0,0
-672,351,0,0,0,0,0,0,0,0,0,-1,552,673,0,0
-665,351,0,0,0,0,0,0,0,0,0,-1,559,673,0,0
-658,351,0,0,0,0,0,0,0,0,0,-1,566,673,0,0
-651,351,0,0,0,0,0,0,0,0,0,-1,573,673,0,0
-644,351,0,0,0,0,0,0,0,0,0,-1,580,673,0,0
-637,351,0,0,0,0,0,0,0,0,0,-1,587,673,0,0
-630,351,0,0,0,0,0,0,0,0,0,-1,594,673,0,0
-623,351,0,0,0,0,0,0,0,0,0,-1,601,673,0,0
-616,351,0,0,0,0,0,0,0,0,0,-1,608,673,0,0
-609,351,0,0,0,0,0,0,0,0,0,-1,615,673,0,0
-602,351,0,0,0,0,0,0,0,0,0,-1,622,673,0,0
-595,351,0,0,0,0,0,0,0,0,0,-1,629,673,0,0
-588,351,0,0,0,0,0,0,0,0,0,-1,636,673,0,0
-581,351,-9.0647,1.71906,0,0,0,0,0,0,0,-1,643,673,-9.06472,-1.71908
-574,351,-8.23584,2.64764,0,0,0,0,0,0,0,-1,650,673,-8.23584,-2.64764
-567,351,-6.17303,1.88818,0,0,0,0,0,0,0,-1,657,673,-6.17304,-1.88818
-560,351,-9.77661,2.70789,0,0,0,0,0,0,0,-1,664,673,-9.77664,-2.70791
-553,351,-10.2434,1.31799,0,0,0,0,0,0,0,-1,671,673,-10.2434,-1.31796
-546,351,-9.37744,0.686401,0,0,0,0,0,0,0,-1,678,673,-9.37743,-0.68643
-539,351,-8.80908,-0.182617,0.0210197,0.0239117,-0.0307195,0.0532192,-0.00828784,-0.808916,0.0385403,0.048028,685,673,-8.80909,0.18262
-532,351,-8.31476,-1.30646,0.0153459,0.0181209,-0.0211423,0.0379212,-0.00445438,-0.818164,0.0268889,0.0372794,692,673,-8.31479,1.30646
-525,351,-8.29968,-1.82092,0.0109177,0.0133118,-0.0139973,0.0261631,-0.0019336,-0.828055,0.018121,0.0289537,699,673,-8.29967,1.82091
-518,351,-8.38019,-2.04175,0.00755728,0.00943189,-0.008839,0.0173831,-0.000393979,-0.838222,0.0117223,0.0144487,706,673,-8.38019,2.04176
-511,351,-8.36377,-2.42865,0.0050956,0.00643132,-0.00528935,0.0110948,0.000432113,-0.848198,0.00725679,0.0116847,713,673,-8.36378,2.42864
-504,351,-8.36926,-2.80023,0.00321166,0.00384085,-0.00245296,0.00599931,0.0010532,-0.849176,0.0036988,0.0105736,720,673,-8.36925,2.80023
-497,351,-8.37225,-3.13885,0.00214076,0.0025503,-0.00112024,0.00348433,0.00120672,-0.875794,0.00204311,0.0103711,727,673,-8.37225,3.13887
-490,351,-8.37494,-3.49048,0.00174393,0.00140637,-0.000839544,0.00243149,0.00071881,-0.686201,0.00144238,0.00963431,734,673,-8.37491,3.49049
-483,351,-8.3811,-3.84473,0.00166081,0.000960792,-0.000936661,0.00231072,0.00031088,-0.606594,0.00144802,0.0109158,741,673,-8.38113,3.84474
-476,351,-8.38782,-4.20337,0.00211113,0.00110644,-0.00159102,0.00327723,-5.96619e-05,-0.632483,0.00220497,0.0103167,748,673,-8.38782,4.20336
-469,351,-8.37958,-4.5553,0.00272257,0.00146065,-0.00238931,0.00456283,-0.000379613,-0.656307,0.003176,0.013643,755,673,-8.37955,4.5553
-462,351,-8.3938,-4.94849,0.00372179,0.00264352,-0.00328964,0.00651618,-0.000150874,-0.704176,0.00439527,0.0226312,762,673,-8.3938,4.9485
-455,351,-8.38574,-5.34686,0,0,0,0,0,0,0,-1,769,673,-8.38575,5.34688
-448,351,-6.61456,-4.38654,0,0,0,0,0,0,0,-1,776,673,-6.61456,4.38654
-441,351,-4.31567,-2.3009,0,0,0,0,0,0,0,-1,783,673,-4.31565,2.30089
-434,351,-3.81708,-2.28003,0,0,0,0,0,0,0,-1,790,673,-3.81706,2.28006
-427,351,-2.05157,-2.7785,0,0,0,0,0,0,0,-1,797,673,-2.05157,2.77848
-420,351,-1.06989,-2.43665,0,0,0,0,0,0,0,-1,804,673,-1.06991,2.43663
-413,351,-0.392334,-2.06671,0,0,0,0,0,0,0,-1,811,673,-0.392363,2.06672
-406,351,-1.86316,-2.58105,0,0,0,0,0,0,0,-1,818,673,-1.86313,2.58106
-399,351,1.00952,-1.53455,0,0,0,0,0,0,0,-1,825,673,1.00954,1.53457
-392,351,-1.02197,0.877136,0,0,0,0,0,0,0,-1,832,673,-1.02195,-0.877143
-385,351,-1.47205,1.04437,0,0,0,0,0,0,0,-1,839,673,-1.47207,-1.04435
-378,351,0,0,0,0,0,0,0,0,0,-1,846,673,0,0
-371,351,0,0,0,0,0,0,0,0,0,-1,853,673,0,0
-364,351,0,0,0,0,0,0,0,0,0,-1,860,673,0,0
-357,351,0,0,0,0,0,0,0,0,0,-1,867,673,0,0
-350,351,0,0,0,0,0,0,0,0,0,-1,874,673,0,0
-343,351,0,0,0,0,0,0,0,0,0,-1,881,673,0,0
-336,351,0,0,0,0,0,0,0,0,0,-1,888,673,0,0
-329,351,0,0,0,0,0,0,0,0,0,-1,895,673,0,0
-322,351,0,0,0,0,0,0,0,0,0,-1,902,673,0,0
-315,351,0,0,0,0,0,0,0,0,0,-1,909,673,0,0
-308,351,0,0,0,0,0,0,0,0,0,-1,916,673,0,0
-301,351,0,0,0,0,0,0,0,0,0,-1,923,673,0,0
-294,351,0,0,0,0,0,0,0,0,0,-1,930,673,0,0
-287,351,0,0,0,0,0,0,0,0,0,-1,937,673,0,0
-280,351,0,0,0,0,0,0,0,0,0,-1,944,673,0,0
-273,351,0,0,0,0,0,0,0,0,0,-1,951,673,0,0
-266,351,0,0,0,0,0,0,0,0,0,-1,958,673,0,0
-259,351,0,0,0,0,0,0,0,0,0,-1,965,673,0,0
-252,351,0,0,0,0,0,0,0,0,0,-1,972,673,0,0
-245,351,0,0,0,0,0,0,0,0,0,-1,979,673,0,0
-238,351,0,0,0,0,0,0,0,0,0,-1,986,673,0,0
-231,351,0,0,0,0,0,0,0,0,0,-1,993,673,0,0
-224,351,0,0,0,0,0,0,0,0,0,-1,1000,673,0,0
-217,351,0,0,0,0,0,0,0,0,0,-1,1007,673,0,0
-210,351,0,0,0,0,0,0,0,0,0,-1,1014,673,0,0
-203,351,0,0,0,0,0,0,0,0,0,-1,1021,673,0,0
-196,351,0,0,0,0,0,0,0,0,0,-1,1028,673,0,0
-189,351,0,0,0,0,0,0,0,0,0,-1,1035,673,0,0
-182,351,0,0,0,0,0,0,0,0,0,-1,1042,673,0,0
-175,351,0,0,0,0,0,0,0,0,0,-1,1049,673,0,0
-168,351,0,0,0,0,0,0,0,0,0,-1,1056,673,0,0
-161,351,0,0,0,0,0,0,0,0,0,-1,1063,673,0,0
-154,351,0,0,0,0,0,0,0,0,0,-1,1070,673,0,0
-147,351,0,0,0,0,0,0,0,0,0,-1,1077,673,0,0
-140,351,0,0,0,0,0,0,0,0,0,-1,1084,673,0,0
-133,351,0,0,0,0,0,0,0,0,0,-1,1091,673,0,0
-126,351,0,0,0,0,0,0,0,0,0,-1,1098,673,0,0
-119,351,0,0,0,0,0,0,0,0,0,-1,1105,673,0,0
-112,351,0,0,0,0,0,0,0,0,0,-1,1112,673,0,0
-105,351,0,0,0,0,0,0,0,0,0,-1,1119,673,0,0
-98,351,0,0,0,0,0,0,0,0,0,-1,1126,673,0,0
-91,351,0,0,0,0,0,0,0,0,0,-1,1133,673,0,0
-84,351,0,0,0,0,0,0,0,0,0,-1,1140,673,0,0
-77,351,0,0,0,0,0,0,0,0,0,-1,1147,673,0,0
-70,351,0,0,0,0,0,0,0,0,0,-1,1154,673,0,0
-63,351,0,0,0,0,0,0,0,0,0,-1,1161,673,0,0
-56,351,0,0,0,0,0,0,0,0,0,-1,1168,673,0,0
-49,351,0,0,0,0,0,0,0,0,0,-1,1175,673,0,0
-42,351,0,0,0,0,0,0,0,0,0,-1,1182,673,0,0
-35,351,0,0,0,0,0,0,0,0,0,-1,1189,673,0,0
-28,351,0,0,0,0,0,0,0,0,0,-1,1196,673,0,0
-21,351,0,0,0,0,0,0,0,0,0,-1,1203,673,0,0
-14,351,0,0,0,0,0,0,0,0,0,-1,1210,673,0,0
-7,351,0,0,0,0,0,0,0,0,0,-1,1217,673,0,0
0,351,0,0,0,0,0,0,0,0,0,-1,1224,673,0,0
7,351,0,0,0,0,0,0,0,0,0,-1,1231,673,0,0
14,351,0,0,0,0,0,0,0,0,0,-1,1238,673,0,0
21,351,0,0,0,0,0,0,0,0,0,-1,1245,673,0,0
28,351,0,0,0,0,0,0,0,0,0,-1,1252,673,0,0
35,351,0,0,0,0,0,0,0,0,0,-1,1259,673,0,0
42,351,0,0,0,0,0,0,0,0,0,-1,1266,673,0,0
49,351,0,0,0,0,0,0,0,0,0,-1,1273,673,0,0
56,351,0,0,0,0,0,0,0,0,0,-1,1280,673,0,0
63,351,0,0,0,0,0,0,0,0,0,-1,1287,673,0,0
70,351,0,0,0,0,0,0,0,0,0,-1,1294,673,0,0
77,351,0,0,0,0,0,0,0,0,0,-1,1301,673,0,0
84,351,0,0,0,0,0,0,0,0,0,-1,1308,673,0,0
91,351,0,0,0,0,0,0,0,0,0,-1,1315,673,0,0
98,351,0,0,0,0,0,0,0,0,0,-1,1322,673,0,0
105,351,0,0,0,0,0,0,0,0,0,-1,1329,673,0,0
112,351,0,0,0,0,0,0,0,0,0,-1,1336,673,0,0
119,351,0,0,0,0,0,0,0,0,0,-1,1343,673,0,0
126,351,0,0,0,0,0,0,0,0,0,-1,1350,673,0,0
133,351,0,0,0,0,0,0,0,0,0,-1,1357,673,0,0
140,351,0,0,0,0,0,0,0,0,0,-1,1364,673,0,0
147,351,0,0,0,0,0,0,0,0,0,-1,1371,673,0,0
154,351,0,0,0,0,0,0,0,0,0,-1,1378,673,0,0
161,351,0,0,0,0,0,0,0,0,0,-1,1385,673,0,0
168,351,0,0,0,0,0,0,0,0,0,-1,1392,673,0,0
175,351,0,0,0,0,0,0,0,0,0,-1,1399,673,0,0
182,351,0,0,0,0,0,0,0,0,0,-1,1406,673,0,0
189,351,0,0,0,0,0,0,0,0,0,-1,1413,673,0,0
196,351,0,0,0,0,0,0,0,0,0,-1,1420,673,0,0
203,351,0,0,0,0,0,0,0,0,0,-1,1427,673,0,0
210,351,0,0,0,0,0,0,0,0,0,-1,1434,673,0,0
217,351,0,0,0,0,0,0,0,0,0,-1,1441,673,0,0
224,351,0,0,0,0,0,0,0,0,0,-1,1448,673,0,0
231,351,0,0,0,0,0,0,0,0,0,-1,1455,673,0,0
238,351,0,0,0,0,0,0,0,0,0,-1,1462,673,0,0
245,351,0,0,0,0,0,0,0,0,0,-1,1469,673,0,0
252,351,0,0,0,0,0,0,0,0,0,-1,1476,673,0,0
259,351,0,0,0,0,0,0,0,0,0,-1,1483,673,0,0
266,351,0,0,0,0,0,0,0,0,0,-1,1490,673,0,0
273,351,0,0,0,0,0,0,0,0,0,-1,1497,673,0,0
280,351,0,0,0,0,0,0,0,0,0,-1,1504,673,0,0
287,351,0,0,0,0,0,0,0,0,0,-1,1511,673,0,0
294,351,0,0,0,0,0,0,0,0,0,-1,1518,673,0,0
301,351,0,0,0,0,0,0,0,0,0,-1,1525,673,0,0
308,351,0,0,0,0,0,0,0,0,0,-1,1532,673,0,0
315,351,0,0,0,0,0,0,0,0,0,-1,1539,673,0,0
322,351,0,0,0,0,0,0,0,0,0,-1,1546,673,0,0
329,351,0,0,0,0,0,0,0,0,0,-1,1553,673,0,0
336,351,0,0,0,0,0,0,0,0,0,-1,1560,673,0,0
343,351,0,0,0,0,0,0,0,0,0,-1,1567,673,0,0
350,351,0,0,0,0,0,0,0,0,0,-1,1574,673,0,0
357,351,0,0,0,0,0,0,0,0,0,-1,1581,673,0,0
364,351,0,0,0,0,0,0,0,0,0,-1,1588,673,0,0
371,351,0,0,0,0,0,0,0,0,0,-1,1595,673,0,0
378,351,0,0,0,0,0,0,0,0,0,-1,1602,673,0,0
385,351,0,0,0,0,0,0,0,0,0,-1,1609,673,0,0
392,351,0,0,0,0,0,0,0,0,0,-1,1616,673,0,0
399,351,0,0,0,0,0,0,0,0,0,-1,1623,673,0,0
406,351,0,0,0,0,0,0,0,0,0,-1,1630,673,0,0
413,351,0,0,0,0,0,0,0,0,0,-1,1637,673,0,0
420,351,0,0,0,0,0,0,0,0,0,-1,1644,673,0,0
427,351,0,0,0,0,0,0,0,0,0,-1,1651,673,0,0
434,351,0,0,0,0,0,0,0,0,0,-1,1658,673,0,0
441,351,0,0,0,0,0,0,0,0,0,-1,1665,673,0,0
448,351,0,0,0,0,0,0,0,0,0,-1,1672,673,0,0
455,351,0,0,0,0,0,0,0,0,0,-1,1679,673,0,0
462,351,0,0,0,0,0,0,0,0,0,-1,1686,673,0,0
469,351,0,0,0,0,0,0,0,0,0,-1,1693,673,0,0
476,351,0,0,0,0,0,0,0,0,0,-1,1700,673,0,0
483,351,0,0,0,0,0,0,0,0,0,-1,1707,673,0,0
490,351,0,0,0,0,0,0,0,0,0,-1,1714,673,0,0
497,351,0,0,0,0,0,0,0,0,0,-1,1721,673,0,0
504,351,10.8842,1.61615,0,0,0,0,0,0,0,-1,1728,673,10.8842,-1.61618
511,351,15.4548,0.0236816,0,0,0,0,0,0,0,-1,1735,673,15.4549,-0.0236664
518,351,16.7448,2.49268,0,0,0,0,0,0,0,-1,1742,673,16.7448,-2.49269
525,351,16.0701,3.43225,0,0,0,0,0,0,0,-1,1749,673,16.07,-3.43227
532,351,32.3822,3.03021,0,0,0,0,0,0,0,-1,1756,673,32.3822,-3.03019
539,351,15.3387,3.54486,0,0,0,0,0,0,0,-1,1763,673,15.3387,-3.54485
546,351,13.9387,4.59357,0,0,0,0,0,0,0,-1,1770,673,13.9388,-4.59359
553,351,12.0682,2.02832,0,0,0,0,0,0,0,-1,1777,673,12.0683,-2.02831
560,351,12.0173,0.55304,0,0,0,0,0,0,0,-1,1784,673,12.0174,-0.553028
567,351,10.7827,0.130188,0,0,0,0,0,0,0,-1,1791,673,10.7827,-0.130183
574,351,13.405,-1.09204,0,0,0,0,0,0,0,-1,1798,673,13.405,1.09207
581,351,15.2351,-3.06049,0,0,0,0,0,0,0,-1,1805,673,15.2351,3.06046
588,351,15.9088,-3.35529,0,0,0,0,0,0,0,-1,1812,673,15.9088,3.3553
595,351,16.0018,-2.89185,0.00575162,0.00125876,0.00645153,0.0103366,-0.00332625,0.617863,0.00822712,0.0254025,1819,673,16.0018,2.89183
602,351,16.0228,-2.4502,0.00364327,0.000400792,0.00392163,0.00626557,-0.0022215,0.589392,0.00508205,0.0178194,1826,673,16.0229,2.45022
609,351,16.0392,-2.09424,0.00197679,0.000737853,0.0023072,0.00374623,-0.00103159,0.654244,0.0029031,0.016602,1833,673,16.0392,2.09426
616,351,16.0129,-1.6908,0.00108916,0.000651076,0.00116956,0.00206001,-0.000319779,0.692829,0.00149141,0.0139077,1840,673,16.0129,1.69077
623,351,16.0347,-1.30591,6.8683e-05,0.000556116,0.000395735,0.000777162,-0.000152363,1.0614,0.000575656,0.0147178,1847,673,16.0347,1.30592
630,351,16.0559,-0.950317,-0.0013244,0.000291682,-0.000296126,0.000344235,-0.00137695,-1.39516,0.00105166,0.0244517,1854,673,16.0559,0.950307
637,351,16.0319,-0.561462,-0.00302668,3.70202e-05,-0.00103177,0.000352091,-0.00334176,-1.27442,0.00235399,0.0284457,1861,673,16.0318,0.561434
644,351,15.962,-0.202332,-0.00526223,-0.000301478,-0.00197513,0.000388854,-0.00595256,-1.23456,0.00410414,0.0207413,1868,673,15.962,0.202332
651,351,15.9946,0.20459,-0.00785253,-0.000826428,-0.00313847,0.000371309,-0.00905026,-1.20622,0.00616101,0.0159409,1875,673,15.9947,-0.204611
658,351,15.9629,0.603394,-0.0109096,-0.00153957,-0.00463371,0.000364851,-0.012814,-1.18085,0.00866684,0.0289552,1882,673,15.9629,-0.603405
665,351,15.6196,0.822327,-0.0144095,-0.00237567,-0.00637936,0.000376651,-0.0171618,-1.16348,0.0115688,0.0392975,1889,673,15.6197,-0.822347
672,351,15.408,1.1922,0,0,0,0,0,0,0,-1,1896,673,15.4079,-1.19223
679,351,14.1252,1.85681,0,0,0,0,0,0,0,-1,1903,673,14.1253,-1.85682
686,351,13.0294,2.1189,0,0,0,0,0,0,0,-1,1910,673,13.0294,-2.11892
693,351,13.5187,2.34595,0,0,0,0,0,0,0,-1,1917,673,13.5187,-2.34596
700,351,14.5629,-2.40173,0,0,0,0,0,0,0,-1,1924,673,14.5629,2.40172
707,351,0,0,0,0,0,0,0,0,0,-1,1931,673,0,0
714,351,0,0,0,0,0,0,0,0,0,-1,1938,673,0,0
721,351,0,0,0,0,0,0,0,0,0,-1,1945,673,0,0
728,351,0,0,0,0,0,0,0,0,0,-1,1952,673,0,0
735,351,0,0,0,0,0,0,0,0,0,-1,1959,673,0,0
742,351,0,0,0,0,0,0,0,0,0,-1,1966,673,0,0
749,351,0,0,0,0,0,0,0,0,0,-1,1973,673,0,0
756,351,0,0,0,0,0,0,0,0,0,-1,1980,673,0,0
763,351,0,0,0,0,0,0,0,0,0,-1,1987,673,0,0
770,351,0,0,0,0,0,0,0,0,0,-1,1994,673,0,0
777,351,0,0,0,0,0,0,0,0,0,-1,2001,673,0,0
784,351,0,0,0,0,0,0,0,0,0,-1,2008,673,0,0
791,351,0,0,0,0,0,0,0,0,0,-1,2015,673,0,0
798,351,0,0,0,0,0,0,0,0,0,-1,2022,673,0,0
805,351,0,0,0,0,0,0,0,0,0,-1,2029,673,0,0
812,351,0,0,0,0,0,0,0,0,0,-1,2036,673,0,0
-700,344,0,0,0,0,0,0,0,0,0,-1,524,680,0,0
-693,344,0,0,0,0,0,0,0,0,0,-1,531,680,0,0
-686,344,0,0,0,0,0,0,0,0,0,-1,538,680,0,0
-679,344,0,0,0,0,0,0,0,0,0,-1,545,680,0,0
-672,344,0,0,0,0,0,0,0,0,0,-1,552,680,0,0
-665,344,0,0,0,0,0,0,0,0,0,-1,559,680,0,0
-658,344,0,0,0,0,0,0,0,0,0,-1,566,680,0,0
-651,344,0,0,0,0,0,0,0,0,0,-1,573,680,0,0
-644,344,0,0,0,0,0,0,0,0,0,-1,580,680,0,0
-637,344,0,0,0,0,0,0,0,0,0,-1,587,680,0,0
-630,344,0,0,0,0,0,0,0,0,0,-1,594,680,0,0
-623,344,0,0,0,0,0,0,0,0,0,-1,601,680,0,0
-616,344,0,0,0,0,0,0,0,0,0,-1,608,680,0,0
-609,344,0,0,0,0,0,0,0,0,0,-1,615,680,0,0
-602,344,0,0,0,0,0,0,0,0,0,-1,622,680,0,0
-595,344,0,0,0,0,0,0,0,0,0,-1,629,680,0,0
-588,344,-9.27826,1.47302,0,0,0,0,0,0,0,-1,636,680,-9.27829,-1.473
-581,344,-10.0098,1.71753,0,0,0,0,0,0,0,-1,643,680,-10.0098,-1.7175
-574,344,-6.25641,2.37372,0,0,0,0,0,0,0,-1,650,680,-6.25642,-2.37369
-567,344,-9.74524,3.93298,0,0,0,0,0,0,0,-1,657,680,-9.74527,-3.93298
-560,344,-9.5575,2.28833,0.0381315,0.0407768,-0.0679645,0.107431,-0.0285232,-0.795128,0.0827832,0.0481254,664,680,-9.55746,-2.28832
-553,344,-9.25635,0.812866,0.0299187,0.0327696,-0.0507677,0.0821319,-0.0194436,-0.799433,0.0622562,0.0432607,671,680,-9.25632,-0.812896
-546,344,-9.0871,-0.0686035,0,0,0,0,0,0,0,-1,678,680,-9.08712,0.0686148
-539,344,-8.8288,-0.727783,0.017119,0.0198118,-0.0263287,0.0448285,-0.00789779,-0.810945,0.0328364,0.0416746,685,680,-8.82877,0.727784
-532,344,-8.59027,-1.36157,0.0126176,0.0149614,-0.018296,0.032123,-0.004544,-0.817381,0.0230796,0.025835,692,680,-8.59025,1.36158
-525,344,-8.7323,-1.65497,0.00904726,0.010896,-0.012191,0.0221977,-0.0022544,-0.823238,0.0156043,0.0238194,699,680,-8.73232,1.65497
-518,344,-8.75775,-2.06866,0.00629463,0.00760179,-0.00771143,0.0146873,-0.000790866,-0.827674,0.0100655,0.0210286,706,680,-8.75775,2.06869
-511,344,-8.76648,-2.43549,0.0042496,0.00503286,-0.00457591,0.00923387,4.85908e-05,-0.828087,0.00613978,0.0172606,713,680,-8.76647,2.43546
-504,344,-8.74707,-2.79755,0.00269796,0.00283325,-0.00210558,0.00487227,0.000658945,-0.801455,0.00305233,0.0167166,720,680,-8.74708,2.79757
-497,344,-8.73511,-3.14081,0.00185995,0.00171824,-0.00096524,0.00275693,0.000821256,-0.748759,0.00163449,0.0151438,727,680,-8.7351,3.14078
-490,344,-8.75104,-3.49951,0.0015822,0.000815449,-0.000754337,0.00204499,0.000352655,-0.550295,0.0012623,0.0137005,734,680,-8.75103,3.49949
-483,344,-8.7403,-3.85504,0.00170794,0.00066845,-0.00104689,0.002357,1.93897e-05,-0.554989,0.00156491,0.0125756,741,680,-8.74029,3.85504
-476,344,-8.74976,-4.2002,0.00226765,0.000957586,-0.00180581,0.00353356,-0.000308325,-0.61141,0.00246492,0.0128423,748,680,-8.74977,4.20018
-469,344,-8.74133,-4.58112,0.00289947,0.00141534,-0.00267653,0.0049349,-0.000620081,-0.65017,0.00351491,0.0140797,755,680,-8.74131,4.58112
-462,344,-8.72058,-5.00244,0.00418724,0.00293924,-0.00372243,0.00733761,-0.000211133,-0.702354,0.00496361,0.0360731,762,680,-8.72061,5.00242
-455,344,-8.62195,-5.34943,0,0,0,0,0,0,0,-1,769,680,-8.62197,5.34944
-448,344,-5.67657,-2.72864,0,0,0,0,0,0,0,-1,776,680,-5.6766,2.72863
-441,344,-5.09229,-2.34167,0,0,0,0,0,0,0,-1,783,680,-5.09229,2.34168
-434,344,-4.28778,-2.08807,0,0,0,0,0,0,0,-1,790,680,-4.28778,2.08809
-427,344,-3.06506,-1.45404,0,0,0,0,0,0,0,-1,797,680,-3.06505,1.45402
-420,344,-1.96582,-1.57574,0,0,0,0,0,0,0,-1,804,680,-1.96579,1.57574
-413,344,-0.817993,-1.4751,0,0,0,0,0,0,0,-1,811,680,-0.818017,1.47511
-406,344,-0.00714111,-1.25189,0,0,0,0,0,0,0,-1,818,680,-0.00714956,1.25191
-399,344,0.240051,-1.75769,0,0,0,0,0,0,0,-1,825,680,0.240079,1.75767
-392,344,1.11353,-2.05615,0,0,0,0,0,0,0,-1,832,680,1.11351,2.05616
-385,344,0,0,0,0,0,0,0,0,0,-1,839,680,0,0
-378,344,0,0,0,0,0,0,0,0,0,-1,846,680,0,0
-371,344,0,0,0,0,0,0,0,0,0,-1,853,680,0,0
-364,344,0,0,0,0,0,0,0,0,0,-1,860,680,0,0
-357,344,0,0,0,0,0,0,0,0,0,-1,867,680,0,0
-350,344,0,0,0,0,0,0,0,0,0,-1,874,680,0,0
-343,344,0,0,0,0,0,0,0,0,0,-1,881,680,0,0
-336,344,0,0,0,0,0,0,0,0,0,-1,888,680,0,0
-329,344,0,0,0,0,0,0,0,0,0,-1,895,680,0,0
-322,344,0,0,0,0,0,0,0,0,0,-1,902,680,0,0
-315,344,0,0,0,0,0,0,0,0,0,-1,909,680,0,0
-308,344,0,0,0,0,0,0,0,0,0,-1,916,680,0,0
-301,344,0,0,0,0,0,0,0,0,0,-1,923,680,0,0
-294,344,0,0,0,0,0,0,0,0,0,-1,930,680,0,0
-287,344,0,0,0,0,0,0,0,0,0,-1,937,680,0,0
-280,344,0,0,0,0,0,0,0,0,0,-1,944,680,0,0
-273,344,0,0,0,0,0,0,0,0,0,-1,951,680,0,0
-266,344,0,0,0,0,0,0,0,0,0,-1,958,680,0,0
-259,344,0,0,0,0,0,0,0,0,0,-1,965,680,0,0
-252,344,0,0,0,0,0,0,0,0,0,-1,972,680,0,0
-245,344,0,0,0,0,0,0,0,0,0,-1,979,680,0,0
-238,344,0,0,0,0,0,0,0,0,0,-1,986,680,0,0
-231,344,0,0,0,0,0,0,0,0,0,-1,993,680,0,0
-224,344,0,0,0,0,0,0,0,0,0,-1,1000,680,0,0
-217,344,0,0,0,0,0,0,0,0,0,-1,1007,680,0,0
-210,344,0,0,0,0,0,0,0,0,0,-1,1014,680,0,0
-203,344,0,0,0,0,0,0,0,0,0,-1,1021,680,0,0
-196,344,0,0,0,0,0,0,0,0,0,-1,1028,680,0,0
-189,344,0,0,0,0,0,0,0,0,0,-1,1035,680,0,0
-182,344,0,0,0,0,0,0,0,0,0,-1,1042,680,0,0
-175,344,0,0,0,0,0,0,0,0,0,-1,1049,680,0,0
-168,344,0,0,0,0,0,0,0,0,0,-1,1056,680,0,0
-161,344,0,0,0,0,0,0,0,0,0,-1,1063,680,0,0
-154,344,0,0,0,0,0,0,0,0,0,-1,1070,680,0,0
-147,344,0,0,0,0,0,0,0,0,0,-1,1077,680,0,0
-140,344,0,0,0,0,0,0,0,0,0,-1,1084,680,0,0
-133,344,0,0,0,0,0,0,0,0,0,-1,1091,680,0,0
-126,344,0,0,0,0,0,0,0,0,0,-1,1098,680,0,0
-119,344,0,0,0,0,0,0,0,0,0,-1,1105,680,0,0
-112,344,0,0,0,0,0,0,0,0,0,-1,1112,680,0,0
-105,344,0,0,0,0,0,0,0,0,0,-1,1119,680,0,0
-98,344,0,0,0,0,0,0,0,0,0,-1,1126,680,0,0
-91,344,0,0,0,0,0,0,0,0,0,-1,1133,680,0,0
-84,344,0,0,0,0,0,0,0,0,0,-1,1140,680,0,0
-77,344,0,0,0,0,0,0,0,0,0,-1,1147,680,0,0
-70,344,0,0,0,0,0,0,0,0,0,-1,1154,680,0,0
-63,344,0,0,0,0,0,0,0,0,0,-1,1161,680,0,0
-56,344,0,0,0,0,0,0,0,0,0,-1,1168,680,0,0
-49,344,0,0,0,0,0,0,0,0,0,-1,1175,680,0,0
-42,344,0,0,0,0,0,0,0,0,0,-1,1182,680,0,0
-35,344,0,0,0,0,0,0,0,0,0,-1,1189,680,0,0
-28,344,0,0,0,0,0,0,0,0,0,-1,1196,680,0,0
-21,344,0,0,0,0,0,0,0,0,0,-1,1203,680,0,0
-14,344,0,0,0,0,0,0,0,0,0,-1,1210,680,0,0
-7,344,0,0,0,0,0,0,0,0,0,-1,1217,680,0,0
0,344,0,0,0,0,0,0,0,0,0,-1,1224,680,0,0
7,344,0,0,0,0,0,0,0,0,0,-1,1231,680,0,0
14,344,0,0,0,0,0,0,0,0,0,-1,1238,680,0,0
21,344,0,0,0,0,0,0,0,0,0,-1,1245,680,0,0
28,344,0,0,0,0,0,0,0,0,0,-1,1252,680,0,0
35,344,0,0,0,0,0,0,0,0,0,-1,1259,680,0,0
42,344,0,0,0,0,0,0,0,0,0,-1,1266,680,0,0
49,344,0,0,0,0,0,0,0,0,0,-1,1273,680,0,0
56,344,0,0,0,0,0,0,0,0,0,-1,1280,680,0,0
63,344,0,0,0,0,0,0,0,0,0,-1,1287,680,0,0
70,344,0,0,0,0,0,0,0,0,0,-1,1294,680,0,0
77,344,0,0,0,0,0,0,0,0,0,-1,1301,680,0,0
84,344,0,0,0,0,0,0,0,0,0,-1,1308,680,0,0
91,344,0,0,0,0,0,0,0,0,0,-1,1315,680,0,0
98,344,0,0,0,0,0,0,0,0,0,-1,1322,680,0,0
105,344,0,0,0,0,0,0,0,0,0,-1,1329,680,0,0
112,344,0,0,0,0,0,0,0,0,0,-1,1336,680,0,0
119,344,0,0,0,0,0,0,0,0,0,-1,1343,680,0,0
126,344,0,0,0,0,0,0,0,0,0,-1,1350,680,0,0
133,344,0,0,0,0,0,0,0,0,0,-1,1357,680,0,0
140,344,0,0,0,0,0,0,0,0,0,-1,1364,680,0,0
147,344,0,0,0,0,0,0,0,0,0,-1,1371,680,0,0
154,344,0,0,0,0,0,0,0,0,0,-1,1378,680,0,0
161,344,0,0,0,0,0,0,0,0,0,-1,1385,680,0,0
168,344,0,0,0,0,0,0,0,0,0,-1,1392,680,0,0
175,344,0,0,0,0,0,0,0,0,0,-1,1399,680,0,0
182,344,0,0,0,0,0,0,0,0,0,-1,1406,680,0,0
189,344,0,0,0,0,0,0,0,0,0,-1,1413,680,0,0
196,344,0,0,0,0,0,0,0,0,0,-1,1420,680,0,0
203,344,0,0,0,0,0,0,0,0,0,-1,1427,680,0,0
210,344,0,0,0,0,0,0,0,0,0,-1,1434,680,0,0
217,344,0,0,0,0,0,0,0,0,0,-1,1441,680,0,0
224,344,0,0,0,0,0,0,0,0,0,-1,1448,680,0,0
231,344,0,0,0,0,0,0,0,0,0,-1,1455,680,0,0
238,344,0,0,0,0,0,0,0,0,0,-1,1462,680,0,0
245,344,0,0,0,0,0,0,0,0,0,-1,1469,680,0,0
252,344,0,0,0,0,0,0,0,0,0,-1,1476,680,0,0
259,344,0,0,0,0,0,0,0,0,0,-1,1483,680,0,0
266,344,0,0,0,0,0,0,0,0,0,-1,1490,680,0,0
273,344,0,0,0,0,0,0,0,0,0,-1,1497,680,0,0
280,344,0,0,0,0,0,0,0,0,0,-1,1504,680,0,0
287,344,0,0,0,0,0,0,0,0,0,-1,1511,680,0,0
294,344,0,0,0,0,0,0,0,0,0,-1,1518,680,0,0
301,344,0,0,0,0,0,0,0,0,0,-1,1525,680,0,0
308,344,0,0,0,0,0,0,0,0,0,-1,1532,680,0,0
315,344,0,0,0,0,0,0,0,0,0,-1,1539,680,0,0
322,344,0,0,0,0,0,0,0,0,0,-1,1546,680,0,0
329,344,0,0,0,0,0,0,0,0,0,-1,1553,680,0,0
336,344,0,0,0,0,0,0,0,0,0,-1,1560,680,0,0
343,344,0,0,0,0,0,0,0,0,0,-1,1567,680,0,0
350,344,0,0,0,0,0,0,0,0,0,-1,1574,680,0,0
357,344,0,0,0,0,0,0,0,0,0,-1,1581,680,0,0
364,344,0,0,0,0,0,0,0,0,0,-1,1588,680,0,0
371,344,0,0,0,0,0,0,0,0,0,-1,1595,680,0,0
378,344,0,0,0,0,0,0,0,0,0,-1,1602,680,0,0
385,344,0,0,0,0,0,0,0,0,0,-1,1609,680,0,0
392,344,0,0,0,0,0,0,0,0,0,-1,1616,680,0,0
399,344,0,0,0,0,0,0,0,0,0,-1,1623,680,0,0
406,344,0,0,0,0,0,0,0,0,0,-1,1630,680,0,0
413,344,0,0,0,0,0,0,0,0,0,-1,1637,680,0,0
420,344,0,0,0,0,0,0,0,0,0,-1,1644,680,0,0
427,344,0,0,0,0,0,0,0,0,0,-1,1651,680,0,0
434,344,0,0,0,0,0,0,0,0,0,-1,1658,680,0,0
441,344,0,0,0,0,0,0,0,0,0,-1,1665,680,0,0
448,344,0,0,0,0,0,0,0,0,0,-1,1672,680,0,0
455,344,0,0,0,0,0,0,0,0,0,-1,1679,680,0,0
462,344,0,0,0,0,0,0,0,0,0,-1,1686,680,0,0
469,344,0,0,0,0,0,0,0,0,0,-1,1693,680,0,0
476,344,0,0,0,0,0,0,0,0,0,-1,1700,680,0,0
483,344,0,0,0,0,0,0,0,0,0,-1,1707,680,0,0
490,344,0,0,0,0,0,0,0,0,0,-1,1714,680,0,0
497,344,0,0,0,0,0,0,0,0,0,-1,1721,680,0,0
504,344,0,0,0,0,0,0,0,0,0,-1,1728,680,0,0
511,344,15.4819,0.452637,0,0,0,0,0,0,0,-1,1735,680,15.4819,-0.452656
518,344,17.1357,2.31207,0,0,0,0,0,0,0,-1,1742,680,17.1358,-2.31207
525,344,31.5201,2.6217,0,0,0,0,0,0,0,-1,1749,680,31.5201,-2.62168
532,344,31.9766,2.61047,0,0,0,0,0,0,0,-1,1756,680,31.9765,-2.6105
539,344,32.4379,2.65314,0,0,0,0,0,0,0,-1,1763,680,32.4378,-2.65316
546,344,14.6722,4.30243,0,0,0,0,0,0,0,-1,1770,680,14.6722,-4.30241
553,344,14.8136,4.35681,0,0,0,0,0,0,0,-1,1777,680,14.8136,-4.35679
560,344,11.9363,2.14185,0,0,0,0,0,0,0,-1,1784,680,11.9362,-2.14182
567,344,11.397,0.925842,0,0,0,0,0,0,0,-1,1791,680,11.397,-0.92583
574,344,10.0004,0.504639,0,0,0,0,0,0,0,-1,1798,680,10.0004,-0.504645
581,344,13.6709,-0.969604,0,0,0,0,0,0,0,-1,1805,680,13.6709,0.969629
588,344,16.1447,-3.15948,0,0,0,0,0,0,0,-1,1812,680,16.1447,3.15946
595,344,16.2472,-2.91388,0,0,0,0,0,0,0,-1,1819,680,16.2471,2.91385
602,344,16.5283,-2.39319,0.0044869,-0.000270404,0.00645197,0.00898472,-0.00476822,0.608793,0.0080637,0.0406004,1826,680,16.5283,2.39318
609,344,16.4409,-2.06061,0.00258433,0.000205462,0.00416614,0.0057275,-0.00293771,0.646347,0.00508855,0.0157877,1833,680,16.441,2.06062
616,344,16.411,-1.65002,0.00163099,0.000227481,0.0023564,0.00338792,-0.00152944,0.640676,0.00290584,0.0207736,1840,680,16.411,1.65004
623,344,16.4263,-1.28455,0.000665875,0.000229491,0.00105206,0.00152213,-0.000626763,0.68315,0.00127606,0.0186091,1847,680,16.4263,1.28454
630,344,16.4567,-0.941101,-0.000581109,4.19854e-05,1.61289e-05,4.24026e-05,-0.000581526,1.54493,0.000402563,0.0242287,1854,680,16.4566,0.941091
637,344,16.4329,-0.558472,-0.00208697,-0.000150374,-0.000826078,0.000154122,-0.00239147,-1.21764,0.00164809,0.0241095,1861,680,16.4329,0.558451
644,344,16.3838,-0.174927,-0.00402994,-0.000426112,-0.0016941,0.000245202,-0.00470126,-1.19351,0.00321902,0.0167088,1868,680,16.3838,0.174923
651,344,16.3708,0.212402,-0.00617344,-0.000858571,-0.00269484,0.000268718,-0.00730073,-1.1746,0.00495915,0.0114665,1875,680,16.3709,-0.212427
658,344,16.3691,0.656616,-0.00865005,-0.0013708,-0.0039136,0.000334022,-0.0103549,-1.15997,0.00701724,0.0206263,1882,680,16.3691,-0.656645
665,344,16.2742,1.00403,-0.0114307,-0.00192992,-0.00531478,0.000448027,-0.0138086,-1.15009,0.00935867,0.0328851,1889,680,16.2742,-1.00401
672,344,16.3467,1.2381,-0.014544,-0.00256347,-0.00702862,0.000681237,-0.0177887,-1.1383,0.0120926,0.0297128,1896,680,16.3467,-1.23812
679,344,16.7446,1.36047,0,0,0,0,0,0,0,-1,1903,680,16.7446,-1.36048
686,344,15.024,1.82709,0,0,0,0,0,0,0,-1,1910,680,15.024,-1.82706
693,344,12.4362,-1.42346,0,0,0,0,0,0,0,-1,1917,680,12.4361,1.42348
700,344,17.5396,2.61206,0,0,0,0,0,0,0,-1,1924,680,17.5396,-2.61204
707,344,18.5829,3.29352,0,0,0,0,0,0,0,-1,1931,680,18.5828,-3.2935
714,344,0,0,0,0,0,0,0,0,0,-1,1938,680,0,0
721,344,0,0,0,0,0,0,0,0,0,-1,1945,680,0,0
728,344,0,0,0,0,0,0,0,0,0,-1,1952,680,0,0
735,344,0,0,0,0,0,0,0,0,0,-1,1959,680,0,0
742,344,0,0,0,0,0,0,0,0,0,-1,1966,680,0,0
749,344,0,0,0,0,0,0,0,0,0,-1,1973,680,0,0
756,344,0,0,0,0,0,0,0,0,0,-1,1980,680,0,0
763,344,0,0,0,0,0,0,0,0,0,-1,1987,680,0,0
770,344,0,0,0,0,0,0,0,0,0,-1,1994,680,0,0
777,344,0,0,0,0,0,0,0,0,0,-1,2001,680,0,0
784,344,0,0,0,0,0,0,0,0,0,-1,2008,680,0,0
791,344,0,0,0,0,0,0,0,0,0,-1,2015,680,0,0
798,344,0,0,0,0,0,0,0,0,0,-1,2022,680,0,0
805,344,0,0,0,0,0,0,0,0,0,-1,2029,680,0,0
812,344,0,0,0,0,0,0,0,0,0,-1,2036,680,0,0
-700,337,0,0,0,0,0,0,0,0,0,-1,524,687,0,0
-693,337,0,0,0,0,0,0,0,0,0,-1,531,687,0,0
-686,337,0,0,0,0,0,0,0,0,0,-1,538,687,0,0
-679,337,0,0,0,0,0,0,0,0,0,-1,545,687,0,0
-672,337,0,0,0,0,0,0,0,0,0,-1,552,687,0,0
-665,337,0,0,0,0,0,0,0,0,0,-1,559,687,0,0
-658,337,0,0,0,0,0,0,0,0,0,-1,566,687,0,0
-651,337,0,0,0,0,0,0,0,0,0,-1,573,687,0,0
-644,337,0,0,0,0,0,0,0,0,0,-1,580,687,0,0
-637,337,0,0,0,0,0,0,0,0,0,-1,587,687,0,0
-630,337,0,0,0,0,0,0,0,0,0,-1,594,687,0,0
-623,337,0,0,0,0,0,0,0,0,0,-1,601,687,0,0
-616,337,0,0,0,0,0,0,0,0,0,-1,608,687,0,0
-609,337,0,0,0,0,0,0,0,0,0,-1,615,687,0,0
-602,337,0,0,0,0,0,0,0,0,0,-1,622,687,0,0
-595,337,0,0,0,0,0,0,0,0,0,-1,629,687,0,0
-588,337,-10.8413,1.27863,0,0,0,0,0,0,0,-1,636,687,-10.8413,-1.27861
-581,337,-11.2157,1.31567,0,0,0,0,0,0,0,-1,643,687,-11.2157,-1.3157
-574,337,-6.03339,2.0321,0,0,0,0,0,0,0,-1,650,687,-6.03337,-2.03213
-567,337,-9.55035,2.76935,0,0,0,0,0,0,0,-1,657,687,-9.55034,-2.76933
-560,337,-9.41168,1.8064,0.0280594,0.0327029,-0.0538591,0.0842903,-0.023528,-0.806939,0.0654611,0.0487556,664,687,-9.4117,-1.80639
-553,337,-9.31348,0.906677,0.0222898,0.0262025,-0.0406502,0.0649434,-0.0164511,-0.809443,0.0496954,0.0486165,671,687,-9.3135,-0.906699
-546,337,-9.1557,0.0601196,0.0171883,0.0205261,-0.0298848,0.0487886,-0.0110742,-0.813291,0.0367771,0.0409055,678,687,-9.15569,-0.0601272
-539,337,-8.99451,-0.887146,0.0130497,0.015771,-0.0215597,0.036013,-0.00719226,-0.816912,0.0267306,0.0285811,685,687,-8.99453,0.887172
-532,337,-9.02185,-1.34967,0.00968372,0.0117907,-0.0150845,0.0258585,-0.00438407,-0.820261,0.0188709,0.0177692,692,687,-9.02182,1.34965
-525,337,-9.09406,-1.71136,0.00695541,0.0084247,-0.010042,0.0177589,-0.00237878,-0.821912,0.0127066,0.0154191,699,687,-9.09408,1.71136
-518,337,-9.14563,-2.09277,0.00483484,0.00569515,-0.00627849,0.0115582,-0.00102821,-0.819601,0.00807007,0.0243996,706,687,-9.14562,2.09279
-511,337,-9.1319,-2.42712,0.00323953,0.00356877,-0.00358905,0.00699697,-0.000188672,-0.808316,0.00472879,0.0240778,713,687,-9.13192,2.42712
-504,337,-9.11523,-2.78693,0.00205662,0.00179526,-0.00152418,0.00345571,0.000396171,-0.742633,0.00218376,0.0228472,720,687,-9.11521,2.78692
-497,337,-9.09674,-3.12909,0.0014867,0.000888524,-0.000629546,0.00188459,0.000490632,-0.563639,0.00112897,0.0167472,727,687,-9.09675,3.12907
-490,337,-9.10095,-3.492,0.00137725,0.000326412,-0.000537521,0.00160349,0.00010017,-0.398391,0.00103722,0.0142693,734,687,-9.10098,3.49199
-483,337,-9.10571,-3.86145,0.0018025,0.000585566,-0.00111654,0.0024656,-7.75382e-05,-0.535917,0.00167018,0.0135871,741,687,-9.10572,3.86144
-476,337,-9.09253,-4.2276,0.00255372,0.00109467,-0.00206179,0.00401125,-0.000362855,-0.615356,0.00280296,0.0128114,748,687,-9.09255,4.22758
-469,337,-9.06866,-4.6568,0.00327119,0.00172975,-0.00309717,0.0056921,-0.000691156,-0.663452,0.00404485,0.0300711,755,687,-9.06867,4.65678
-462,337,-8.95062,-4.974,0,0,0,0,0,0,0,-1,762,687,-8.95065,4.97401
-455,337,-6.00574,-3.12933,0,0,0,0,0,0,0,-1,769,687,-6.00576,3.12934
-448,337,-5.30627,-2.07202,0,0,0,0,0,0,0,-1,776,687,-5.30628,2.07205
-441,337,-4.24762,-1.49597,0,0,0,0,0,0,0,-1,783,687,-4.24762,1.49598
-434,337,-6.86908,1.37531,0,0,0,0,0,0,0,-1,790,687,-6.86908,-1.3753
-427,337,-9.92004,2.487,0,0,0,0,0,0,0,-1,797,687,-9.92002,-2.48701
-420,337,-2.95996,-1.76697,0,0,0,0,0,0,0,-1,804,687,-2.95998,1.76696
-413,337,-1.29169,-1.99487,0,0,0,0,0,0,0,-1,811,687,-1.29171,1.9949
-406,337,-1.02356,-1.89563,0,0,0,0,0,0,0,-1,818,687,-1.02357,1.89564
-399,337,-0.472839,-2.21338,0,0,0,0,0,0,0,-1,825,687,-0.472837,2.2134
-392,337,0,0,0,0,0,0,0,0,0,-1,832,687,0,0
-385,337,0,0,0,0,0,0,0,0,0,-1,839,687,0,0
-378,337,0,0,0,0,0,0,0,0,0,-1,846,687,0,0
-371,337,0,0,0,0,0,0,0,0,0,-1,853,687,0,0
-364,337,0,0,0,0,0,0,0,0,0,-1,860,687,0,0
-357,337,0,0,0,0,0,0,0,0,0,-1,867,687,0,0
-350,337,0,0,0,0,0,0,0,0,0,-1,874,687,0,0
-343,337,0,0,0,0,0,0,0,0,0,-1,881,687,0,0
-336,337,0,0,0,0,0,0,0,0,0,-1,888,687,0,0
-329,337,0,0,0,0,0,0,0,0,0,-1,895,687,0,0
-322,337,0,0,0,0,0,0,0,0,0,-1,902,687,0,0
-315,337,0,0,0,0,0,0,0,0,0,-1,909,687,0,0
-308,337,0,0,0,0,0,0,0,0,0,-1,916,687,0,0
-301,337,0,0,0,0,0,0,0,0,0,-1,923,687,0,0
-294,337,0,0,0,0,0,0,0,0,0,-1,930,687,0,0
-287,337,0,0,0,0,0,0,0,0,0,-1,937,687,0,0
-280,337,0,0,0,0,0,0,0,0,0,-1,944,687,0,0
-273,337,0,0,0,0,0,0,0,0,0,-1,951,687,0,0
-266,337,0,0,0,0,0,0,0,0,0,-1,958,687,0,0
-259,337,0,0,0,0,0,0,0,0,0,-1,965,687,0,0
-252,337,0,0,0,0,0,0,0,0,0,-1,972,687,0,0
-245,337,0,0,0,0,0,0,0,0,0,-1,979,687,0,0
-238,337,0,0,0,0,0,0,0,0,0,-1,986,687,0,0
-231,337,0,0,0,0,0,0,0,0,0,-1,993,687,0,0
-224,337,0,0,0,0,0,0,0,0,0,-1,1000,687,0,0
-217,337,0,0,0,0,0,0,0,0,0,-1,1007,687,0,0
-210,337,0,0,0,0,0,0,0,0,0,-1,1014,687,0,0
-203,337,0,0,0,0,0,0,0,0,0,-1,1021,687,0,0
-196,337,0,0,0,0,0,0,0,0,0,-1,1028,687,0,0
-189,337,0,0,0,0,0,0,0,0,0,-1,1035,687,0,0
-182,337,0,0,0,0,0,0,0,0,0,-1,1042,687,0,0
-175,337,0,0,0,0,0,0,0,0,0,-1,1049,687,0,0
-168,337,0,0,0,0,0,0,0,0,0,-1,1056,687,0,0
-161,337,0,0,0,0,0,0,0,0,0,-1,1063,687,0,0
-154,337,0,0,0,0,0,0,0,0,0,-1,1070,687,0,0
-147,337,0,0,0,0,0,0,0,0,0,-1,1077,687,0,0
-140,337,0,0,0,0,0,0,0,0,0,-1,1084,687,0,0
-133,337,0,0,0,0,0,0,0,0,0,-1,1091,687,0,0
-126,337,0,0,0,0,0,0,0,0,0,-1,1098,687,0,0
-119,337,0,0,0,0,0,0,0,0,0,-1,1105,687,0,0
-112,337,0,0,0,0,0,0,0,0,0,-1,1112,687,0,0
-105,337,0,0,0,0,0,0,0,0,0,-1,1119,687,0,0
-98,337,0,0,0,0,0,0,0,0,0,-1,1126,687,0,0
-91,337,0,0,0,0,0,0,0,0,0,-1,1133,687,0,0
-84,337,0,0,0,0,0,0,0,0,0,-1,1140,687,0,0
-77,337,0,0,0,0,0,0,0,0,0,-1,1147,687,0,0
-70,337,0,0,0,0,0,0,0,0,0,-1,1154,687,0,0
-63,337,0,0,0,0,0,0,0,0,0,-1,1161,687,0,0
-56,337,0,0,0,0,0,0,0,0,0,-1,1168,687,0,0
-49,337,0,0,0,0,0,0,0,0,0,-1,1175,687,0,0
-42,337,0,0,0,0,0,0,0,0,0,-1,1182,687,0,0
-35,337,0,0,0,0,0,0,0,0,0,-1,1189,687,0,0
-28,337,0,0,0,0,0,0,0,0,0,-1,1196,687,0,0
-21,337,0,0,0,0,0,0,0,0,0,-1,1203,687,0,0
-14,337,0,0,0,0,0,0,0,0,0,-1,1210,687,0,0
-7,337,0,0,0,0,0,0,0,0,0,-1,1217,687,0,0
0,337,0,0,0,0,0,0,0,0,0,-1,1224,687,0,0
7,337,0,0,0,0,0,0,0,0,0,-1,1231,687,0,0
14,337,0,0,0,0,0,0,0,0,0,-1,1238,687,0,0
21,337,0,0,0,0,0,0,0,0,0,-1,1245,687,0,0
28,337,0,0,0,0,0,0,0,0,0,-1,1252,687,0,0
35,337,0,0,0,0,0,0,0,0,0,-1,1259,687,0,0
42,337,0,0,0,0,0,0,0,0,0,-1,1266,687,0,0
49,337,0,0,0,0,0,0,0,0,0,-1,1273,687,0,0
56,337,0,0,0,0,0,0,0,0,0,-1,1280,687,0,0
63,337,0,0,0,0,0,0,0,0,0,-1,1287,687,0,0
70,337,0,0,0,0,0,0,0,0,0,-1,1294,687,0,0
77,337,0,0,0,0,0,0,0,0,0,-1,1301,687,0,0
84,337,0,0,0,0,0,0,0,0,0,-1,1308,687,0,0
91,337,0,0,0,0,0,0,0,0,0,-1,1315,687,0,0
98,337,0,0,0,0,0,0,0,0,0,-1,1322,687,0,0
105,337,0,0,0,0,0,0,0,0,0,-1,1329,687,0,0
112,337,0,0,0,0,0,0,0,0,0,-1,1336,687,0,0
119,337,0,0,0,0,0,0,0,0,0,-1,1343,687,0,0
126,337,0,0,0,0,0,0,0,0,0,-1,1350,687,0,0
133,337,0,0,0,0,0,0,0,0,0,-1,1357,687,0,0
140,337,0,0,0,0,0,0,0,0,0,-1,1364,687,0,0
147,337,0,0,0,0,0,0,0,0,0,-1,1371,687,0,0
154,337,0,0,0,0,0,0,0,0,0,-1,1378,687,0,0
161,337,0,0,0,0,0,0,0,0,0,-1,1385,687,0,0
168,337,0,0,0,0,0,0,0,0,0,-1,1392,687,0,0
175,337,0,0,0,0,0,0,0,0,0,-1,1399,687,0,0
182,337,0,0,0,0,0,0,0,0,0,-1,1406,687,0,0
189,337,0,0,0,0,0,0,0,0,0,-1,1413,687,0,0
196,337,0,0,0,0,0,0,0,0,0,-1,1420,687,0,0
203,337,0,0,0,0,0,0,0,0,0,-1,1427,687,0,0
210,337,0,0,0,0,0,0,0,0,0,-1,1434,687,0,0
217,337,0,0,0,0,0,0,0,0,0,-1,1441,687,0,0
224,337,0,0,0,0,0,0,0,0,0,-1,1448,687,0,0
231,337,0,0,0,0,0,0,0,0,0,-1,1455,687,0,0
238,337,0,0,0,0,0,0,0,0,0,-1,1462,687,0,0
245,337,0,0,0,0,0,0,0,0,0,-1,1469,687,0,0
252,337,0,0,0,0,0,0,0,0,0,-1,1476,687,0,0
259,337,0,0,0,0,0,0,0,0,0,-1,1483,687,0,0
266,337,0,0,0,0,0,0,0,0,0,-1,1490,687,0,0
273,337,0,0,0,0,0,0,0,0,0,-1,1497,687,0,0
280,337,0,0,0,0,0,0,0,0,0,-1,1504,687,0,0
287,337,0,0,0,0,0,0,0,0,0,-1,1511,687,0,0
294,337,0,0,0,0,0,0,0,0,0,-1,1518,687,0,0
301,337,0,0,0,0,0,0,0,0,0,-1,1525,687,0,0
308,337,0,0,0,0,0,0,0,0,0,-1,1532,687,0,0
315,337,0,0,0,0,0,0,0,0,0,-1,1539,687,0,0
322,337,0,0,0,0,0,0,0,0,0,-1,1546,687,0,0
329,337,0,0,0,0,0,0,0,0,0,-1,1553,687,0,0
336,337,0,0,0,0,0,0,0,0,0,-1,1560,687,0,0
343,337,0,0,0,0,0,0,0,0,0,-1,1567,687,0,0
350,337,0,0,0,0,0,0,0,0,0,-1,1574,687,0,0
357,337,0,0,0,0,0,0,0,0,0,-1,1581,687,0,0
364,337,0,0,0,0,0,0,0,0,0,-1,1588,687,0,0
371,337,0,0,0,0,0,0,0,0,0,-1,1595,687,0,0
378,337,0,0,0,0,0,0,0,0,0,-1,1602,687,0,0
385,337,0,0,0,0,0,0,0,0,0,-1,1609,687,0,0
392,337,0,0,0,0,0,0,0,0,0,-1,1616,687,0,0
399,337,0,0,0,0,0,0,0,0,0,-1,1623,687,0,0
406,337,0,0,0,0,0,0,0,0,0,-1,1630,687,0,0
413,337,0,0,0,0,0,0,0,0,0,-1,1637,687,0,0
420,337,0,0,0,0,0,0,0,0,0,-1,1644,687,0,0
427,337,0,0,0,0,0,0,0,0,0,-1,1651,687,0,0
434,337,0,0,0,0,0,0,0,0,0,-1,1658,687,0,0
441,337,0,0,0,0,0,0,0,0,0,-1,1665,687,0,0
448,337,0,0,0,0,0,0,0,0,0,-1,1672,687,0,0
455,337,0,0,0,0,0,0,0,0,0,-1,1679,687,0,0
462,337,0,0,0,0,0,0,0,0,0,-1,1686,687,0,0
469,337,0,0,0,0,0,0,0,0,0,-1,1693,687,0,0
476,337,0,0,0,0,0,0,0,0,0,-1,1700,687,0,0
483,337,0,0,0,0,0,0,0,0,0,-1,1707,687,0,0
490,337,0,0,0,0,0,0,0,0,0,-1,1714,687,0,0
497,337,0,0,0,0,0,0,0,0,0,-1,1721,687,0,0
504,337,0,0,0,0,0,0,0,0,0,-1,1728,687,0,0
511,337,0,0,0,0,0,0,0,0,0,-1,1735,687,0,0
518,337,18.0369,1.64581,0,0,0,0,0,0,0,-1,1742,687,18.0368,-1.64581
525,337,31.0717,2.13745,0,0,0,0,0,0,0,-1,1749,687,31.0717,-2.13747
532,337,31.5126,2.13904,0.0752368,0.114307,0.0640425,0.161727,0.0278162,0.933431,0.0998462,0.0452042,1756,687,31.5125,-2.13905
539,337,31.9684,2.15594,0.0620137,0.086776,0.0545877,0.130369,0.0184206,0.896917,0.0814697,0.0491939,1763,687,31.9684,-2.15596
546,337,32.3584,1.43719,0,0,0,0,0,0,0,-1,1770,687,32.3585,-1.43722
553,337,32.1809,1.36395,0,0,0,0,0,0,0,-1,1777,687,32.181,-1.36396
560,337,18.4053,3.62793,0,0,0,0,0,0,0,-1,1784,687,18.4052,-3.6279
567,337,11.9288,1.38776,0,0,0,0,0,0,0,-1,1791,687,11.9288,-1.38777
574,337,10.704,1.19476,0,0,0,0,0,0,0,-1,1798,687,10.704,-1.19478
581,337,8.50427,0.561768,0,0,0,0,0,0,0,-1,1805,687,8.5043,-0.561754
588,337,8.5885,-0.0536499,0,0,0,0,0,0,0,-1,1812,687,8.58844,0.0536788
595,337,13.8816,-1.70703,0,0,0,0,0,0,0,-1,1819,687,13.8816,1.70702
602,337,16.7898,-2.47272,0,0,0,0,0,0,0,-1,1826,687,16.7898,2.47271
609,337,16.8109,-1.99054,0.00328855,-0.000276923,0.00593767,0.00770533,-0.00469371,0.639559,0.00722863,0.0270974,1833,687,16.8109,1.99054
616,337,16.7899,-1.62219,0.00224541,-0.000142903,0.00356902,0.00481476,-0.00271225,0.623958,0.00440187,0.0168219,1840,687,16.7899,1.62218
623,337,16.8086,-1.28107,0.00130107,-1.37604e-05,0.0017871,0.00254784,-0.00126053,0.609147,0.00224025,0.0142491,1847,687,16.8085,1.28108
630,337,16.8057,-0.924072,0.000147697,-0.000117372,0.000418852,0.000454482,-0.000424158,0.63217,0.000507384,0.0180159,1854,687,16.8057,0.924052
637,337,16.8018,-0.544067,-0.00121965,-0.000218602,-0.000561515,3.30875e-05,-0.00147133,-1.14941,0.000992103,0.0169837,1861,687,16.8018,0.544037
644,337,16.7729,-0.137329,-0.00294377,-0.00042608,-0.00134392,0.000156488,-0.00352633,-1.16176,0.00240475,0.0116773,1868,687,16.7729,0.137331
651,337,16.7612,0.241516,-0.00475085,-0.000749947,-0.00218592,0.000212719,-0.00571351,-1.15596,0.00388186,0.0106165,1875,687,16.7612,-0.241541
658,337,16.7655,0.620117,-0.00672787,-0.000990423,-0.0031168,0.00037689,-0.00809519,-1.15739,0.00552671,0.0124973,1882,687,16.7655,-0.620146
665,337,16.7745,0.98114,-0.00894895,-0.00123723,-0.00418875,0.000600176,-0.0107864,-1.15742,0.00739908,0.0145132,1889,687,16.7745,-0.981142
672,337,16.7476,1.3056,-0.01135,-0.00139628,-0.00539638,0.000967841,-0.0137141,-1.15789,0.00948185,0.0236184,1896,687,16.7476,-1.30558
679,337,16.6221,1.51263,-0.0141545,-0.00139052,-0.00679727,0.00155126,-0.0170963,-1.16235,0.0119482,0.0457562,1903,687,16.6221,-1.51262
686,337,16.5983,1.78857,0,0,0,0,0,0,0,-1,1910,687,16.5983,-1.78857
693,337,16.5415,2.21411,0,0,0,0,0,0,0,-1,1917,687,16.5415,-2.2141
700,337,17.2661,2.44379,0,0,0,0,0,0,0,-1,1924,687,17.2661,-2.44378
707,337,17.3544,5.61853,0,0,0,0,0,0,0,-1,1931,687,17.3543,-5.61851
714,337,0,0,0,0,0,0,0,0,0,-1,1938,687,0,0
721,337,0,0,0,0,0,0,0,0,0,-1,1945,687,0,0
728,337,0,0,0,0,0,0,0,0,0,-1,1952,687,0,0
735,337,0,0,0,0,0,0,0,0,0,-1,1959,687,0,0
742,337,0,0,0,0,0,0,0,0,0,-1,1966,687,0,0
749,337,0,0,0,0,0,0,0,0,0,-1,1973,687,0,0
756,337,0,0,0,0,0,0,0,0,0,-1,1980,687,0,0
763,337,0,0,0,0,0,0,0,0,0,-1,1987,687,0,0
770,337,0,0,0,0,0,0,0,0,0,-1,1994,687,0,0
777,337,0,0,0,0,0,0,0,0,0,-1,2001,687,0,0
784,337,0,0,0,0,0,0,0,0,0,-1,2008,687,0,0
791,337,0,0,0,0,0,0,0,0,0,-1,2015,687,0,0
798,337,0,0,0,0,0,0,0,0,0,-1,2022,687,0,0
805,337,0,0,0,0,0,0,0,0,0,-1,2029,687,0,0
812,337,0,0,0,0,0,0,0,0,0,-1,2036,687,0,0
-700,330,0,0,0,0,0,0,0,0,0,-1,524,694,0,0
-693,330,0,0,0,0,0,0,0,0,0,-1,531,694,0,0
-686,330,0,0,0,0,0,0,0,0,0,-1,538,694,0,0
-679,330,0,0,0,0,0,0,0,0,0,-1,545,694,0,0
-672,330,0,0,0,0,0,0,0,0,0,-1,552,694,0,0
-665,330,0,0,0,0,0,0,0,0,0,-1,559,694,0,0
-658,330,0,0,0,0,0,0,0,0,0,-1,566,694,0,0
-651,330,0,0,0,0,0,0,0,0,0,-1,573,694,0,0
-644,330,0,0,0,0,0,0,0,0,0,-1,580,694,0,0
-637,330,0,0,0,0,0,0,0,0,0,-1,587,694,0,0
-630,330,0,0,0,0,0,0,0,0,0,-1,594,694,0,0
-623,330,0,0,0,0,0,0,0,0,0,-1,601,694,0,0
-616,330,0,0,0,0,0,0,0,0,0,-1,608,694,0,0
-609,330,0,0,0,0,0,0,0,0,0,-1,615,694,0,0
-602,330,0,0,0,0,0,0,0,0,0,-1,622,694,0,0
-595,330,-4.67883,1.65515,0,0,0,0,0,0,0,-1,629,694,-4.67881,-1.65515
-588,330,-8.5047,2.67346,0,0,0,0,0,0,0,-1,636,694,-8.50469,-2.67348
-581,330,-12.4227,0.947083,0,0,0,0,0,0,0,-1,643,694,-12.4227,-0.947109
-574,330,-9.02118,1.87952,0,0,0,0,0,0,0,-1,650,694,-9.02115,-1.87953
-567,330,-8.35577,0.909973,0,0,0,0,0,0,0,-1,657,694,-8.35575,-0.909945
-560,330,-9.32373,1.27563,0,0,0,0,0,0,0,-1,664,694,-9.32373,-1.27562
-553,330,-9.46942,0.428894,0,0,0,0,0,0,0,-1,671,694,-9.46944,-0.428914
-546,330,-9.34271,-0.526367,0.0121708,0.0158386,-0.0230276,0.0371052,-0.00909586,-0.825134,0.028261,0.03117,678,694,-9.3427,0.526369
-539,330,-9.34406,-0.989624,0.00946883,0.0121151,-0.0168153,0.0276592,-0.00607531,-0.82466,0.020763,0.0147274,685,694,-9.34406,0.989622
-532,330,-9.45313,-1.32751,0.00718414,0.00892809,-0.0118327,0.0199209,-0.00380864,-0.822178,0.0147153,0.0109181,692,694,-9.45311,1.3275
-525,330,-9.44733,-1.72375,0.00527782,0.00620796,-0.00784581,0.0136025,-0.0021167,-0.815002,0.00984999,0.0108031,699,694,-9.4473,1.72379
-518,330,-9.45483,-2.04193,0.00378186,0.00400303,-0.00480683,0.00870055,-0.000915655,-0.796899,0.00612843,0.0151511,706,694,-9.45485,2.04196
-511,330,-9.45532,-2.3866,0.00262258,0.00229677,-0.00257273,0.00503755,-0.000118211,-0.753781,0.00339846,0.0202506,713,694,-9.45534,2.38657
-504,330,-9.4621,-2.75629,0.0017866,0.000957403,-0.000916885,0.00237826,0.000365735,-0.573065,0.00147875,0.018378,720,694,-9.46209,2.75632
-497,330,-9.47101,-3.09943,0.00143946,0.000258758,-0.00024201,0.00148714,0.000211078,-0.194525,0.000929093,0.0135908,727,694,-9.47102,3.09943
-490,330,-9.45081,-3.47058,0.00143563,9.57071e-05,-0.000223582,0.00147195,5.93843e-05,-0.161051,0.000962118,0.0127787,734,694,-9.45078,3.47058
-483,330,-9.45544,-3.85803,0.00208784,0.000823946,-0.00103699,0.00267027,0.000241513,-0.511747,0.00170538,0.0125297,741,694,-9.45542,3.85803
-476,330,-9.45831,-4.21918,0.00294279,0.00163068,-0.00211724,0.00450329,7.01745e-05,-0.635158,0.00297908,0.0284945,748,694,-9.4583,4.21915
-469,330,-9.25879,-4.71509,0,0,0,0,0,0,0,-1,755,694,-9.25882,4.71508
-462,330,-7.26733,-3.84833,0,0,0,0,0,0,0,-1,762,694,-7.26731,3.84832
-455,330,-5.04254,-1.79303,0,0,0,0,0,0,0,-1,769,694,-5.04252,1.79305
-448,330,-4.89886,-1.66156,0,0,0,0,0,0,0,-1,776,694,-4.89886,1.66157
-441,330,-5.30676,-2.34045,0,0,0,0,0,0,0,-1,783,694,-5.30679,2.34048
-434,330,-7.20428,1.00024,0,0,0,0,0,0,0,-1,790,694,-7.20431,-1.00027
-427,330,-16.0428,2.89258,0,0,0,0,0,0,0,-1,797,694,-16.0428,-2.89259
-420,330,-15.2923,3.32672,0,0,0,0,0,0,0,-1,804,694,-15.2923,-3.32675
-413,330,-10.4567,2.56183,0,0,0,0,0,0,0,-1,811,694,-10.4567,-2.56182
-406,330,-1.65375,-1.74371,0,0,0,0,0,0,0,-1,818,694,-1.65375,1.74371
-399,330,0,0,0,0,0,0,0,0,0,-1,825,694,0,0
-392,330,0,0,0,0,0,0,0,0,0,-1,832,694,0,0
-385,330,0,0,0,0,0,0,0,0,0,-1,839,694,0,0
-378,330,0,0,0,0,0,0,0,0,0,-1,846,694,0,0
-371,330,0,0,0,0,0,0,0,0,0,-1,853,694,0,0
-364,330,0,0,0,0,0,0,0,0,0,-1,860,694,0,0
-357,330,0,0,0,0,0,0,0,0,0,-1,867,694,0,0
-350,330,0,0,0,0,0,0,0,0,0,-1,874,694,0,0
-343,330,0,0,0,0,0,0,0,0,0,-1,881,694,0,0
-336,330,0,0,0,0,0,0,0,0,0,-1,888,694,0,0
-329,330,0,0,0,0,0,0,0,0,0,-1,895,694,0,0
-322,330,0,0,0,0,0,0,0,0,0,-1,902,694,0,0
-315,330,0,0,0,0,0,0,0,0,0,-1,909,694,0,0
-308,330,0,0,0,0,0,0,0,0,0,-1,916,694,0,0
-301,330,0,0,0,0,0,0,0,0,0,-1,923,694,0,0
-294,330,0,0,0,0,0,0,0,0,0,-1,930,694,0,0
-287,330,0,0,0,0,0,0,0,0,0,-1,937,694,0,0
-280,330,0,0,0,0,0,0,0,0,0,-1,944,694,0,0
-273,330,0,0,0,0,0,0,0,0,0,-1,951,694,0,0
-266,330,0,0,0,0,0,0,0,0,0,-1,958,694,0,0
-259,330,0,0,0,0,0,0,0,0,0,-1,965,694,0,0
-252,330,0,0,0,0,0,0,0,0,0,-1,972,694,0,0
-245,330,0,0,0,0,0,0,0,0,0,-1,979,694,0,0
-238,330,0,0,0,0,0,0,0,0,0,-1,986,694,0,0
-231,330,0,0,0,0,0,0,0,0,0,-1,993,694,0,0
-224,330,0,0,0,0,0,0,0,0,0,-1,1000,694,0,0
-217,330,0,0,0,0,0,0,0,0,0,-1,1007,694,0,0
-210,330,0,0,0,0,0,0,0,0,0,-1,1014,694,0,0
-203,330,0,0,0,0,0,0,0,0,0,-1,1021,694,0,0
-196,330,0,0,0,0,0,0,0,0,0,-1,1028,694,0,0
-189,330,0,0,0,0,0,0,0,0,0,-1,1035,694,0,0
-182,330,0,0,0,0,0,0,0,0,0,-1,1042,694,0,0
-175,330,0,0,0,0,0,0,0,0,0,-1,1049,694,0,0
-168,330,0,0,0,0,0,0,0,0,0,-1,1056,694,0,0
-161,330,0,0,0,0,0,0,0,0,0,-1,1063,694,0,0
-154,330,0,0,0,0,0,0,0,0,0,-1,1070,694,0,0
-147,330,0,0,0,0,0,0,0,0,0,-1,1077,694,0,0
-140,330,0,0,0,0,0,0,0,0,0,-1,1084,694,0,0
-133,330,0,0,0,0,0,0,0,0,0,-1,1091,694,0,0
-126,330,0,0,0,0,0,0,0,0,0,-1,1098,694,0,0
-119,330,0,0,0,0,0,0,0,0,0,-1,1105,694,0,0
-112,330,0,0,0,0,0,0,0,0,0,-1,1112,694,0,0
-105,330,0,0,0,0,0,0,0,0,0,-1,1119,694,0,0
-98,330,0,0,0,0,0,0,0,0,0,-1,1126,694,0,0
-91,330,0,0,0,0,0,0,0,0,0,-1,1133,694,0,0
-84,330,0,0,0,0,0,0,0,0,0,-1,1140,694,0,0
-77,330,0,0,0,0,0,0,0,0,0,-1,1147,694,0,0
-70,330,0,0,0,0,0,0,0,0,0,-1,1154,694,0,0
-63,330,0,0,0,0,0,0,0,0,0,-1,1161,694,0,0
-56,330,0,0,0,0,0,0,0,0,0,-1,1168,694,0,0
-49,330,0,0,0,0,0,0,0,0,0,-1,1175,694,0,0
-42,330,0,0,0,0,0,0,0,0,0,-1,1182,694,0,0
-35,330,0,0,0,0,0,0,0,0,0,-1,1189,694,0,0
-28,330,0,0,0,0,0,0,0,0,0,-1,1196,694,0,0
-21,330,0,0,0,0,0,0,0,0,0,-1,1203,694,0,0
-14,330,0,0,0,0,0,0,0,0,0,-1,1210,694,0,0
-7,330,0,0,0,0,0,0,0,0,0,-1,1217,694,0,0
0,330,0,0,0,0,0,0,0,0,0,-1,1224,694,0,0
7,330,0,0,0,0,0,0,0,0,0,-1,1231,694,0,0
14,330,0,0,0,0,0,0,0,0,0,-1,1238,694,0,0
21,330,0,0,0,0,0,0,0,0,0,-1,1245,694,0,0
28,330,0,0,0,0,0,0,0,0,0,-1,1252,694,0,0
35,330,0,0,0,0,0,0,0,0,0,-1,1259,694,0,0
42,330,0,0,0,0,0,0,0,0,0,-1,1266,694,0,0
49,330,0,0,0,0,0,0,0,0,0,-1,1273,694,0,0
56,330,0,0,0,0,0,0,0,0,0,-1,1280,694,0,0
63,330,0,0,0,0,0,0,0,0,0,-1,1287,694,0,0
70,330,0,0,0,0,0,0,0,0,0,-1,1294,694,0,0
77,330,0,0,0,0,0,0,0,0,0,-1,1301,694,0,0
84,330,0,0,0,0,0,0,0,0,0,-1,1308,694,0,0
91,330,0,0,0,0,0,0,0,0,0,-1,1315,694,0,0
98,330,0,0,0,0,0,0,0,0,0,-1,1322,694,0,0
105,330,0,0,0,0,0,0,0,0,0,-1,1329,694,0,0
112,330,0,0,0,0,0,0,0,0,0,-1,1336,694,0,0
119,330,0,0,0,0,0,0,0,0,0,-1,1343,694,0,0
126,330,0,0,0,0,0,0,0,0,0,-1,1350,694,0,0
133,330,0,0,0,0,0,0,0,0,0,-1,1357,694,0,0
140,330,0,0,0,0,0,0,0,0,0,-1,1364,694,0,0
147,330,0,0,0,0,0,0,0,0,0,-1,1371,694,0,0
154,330,0,0,0,0,0,0,0,0,0,-1,1378,694,0,0
161,330,0,0,0,0,0,0,0,0,0,-1,1385,694,0,0
168,330,0,0,0,0,0,0,0,0,0,-1,1392,694,0,0
175,330,0,0,0,0,0,0,0,0,0,-1,1399,694,0,0
182,330,0,0,0,0,0,0,0,0,0,-1,1406,694,0,0
189,330,0,0,0,0,0,0,0,0,0,-1,1413,694,0,0
196,330,0,0,0,0,0,0,0,0,0,-1,1420,694,0,0
203,330,0,0,0,0,0,0,0,0,0,-1,1427,694,0,0
210,330,0,0,0,0,0,0,0,0,0,-1,1434,694,0,0
217,330,0,0,0,0,0,0,0,0,0,-1,1441,694,0,0
224,330,0,0,0,0,0,0,0,0,0,-1,1448,694,0,0
231,330,0,0,0,0,0,0,0,0,0,-1,1455,694,0,0
238,330,0,0,0,0,0,0,0,0,0,-1,1462,694,0,0
245,330,0,0,0,0,0,0,0,0,0,-1,1469,694,0,0
252,330,0,0,0,0,0,0,0,0,0,-1,1476,694,0,0
259,330,0,0,0,0,0,0,0,0,0,-1,1483,694,0,0
266,330,0,0,0,0,0,0,0,0,0,-1,1490,694,0,0
273,330,0,0,0,0,0,0,0,0,0,-1,1497,694,0,0
280,330,0,0,0,0,0,0,0,0,0,-1,1504,694,0,0
287,330,0,0,0,0,0,0,0,0,0,-1,1511,694,0,0
294,330,0,0,0,0,0,0,0,0,0,-1,1518,694,0,0
301,330,0,0,0,0,0,0,0,0,0,-1,1525,694,0,0
308,330,0,0,0,0,0,0,0,0,0,-1,1532,694,0,0
315,330,0,0,0,0,0,0,0,0,0,-1,1539,694,0,0
322,330,0,0,0,0,0,0,0,0,0,-1,1546,694,0,0
329,330,0,0,0,0,0,0,0,0,0,-1,1553,694,0,0
336,330,0,0,0,0,0,0,0,0,0,-1,1560,694,0,0
343,330,0,0,0,0,0,0,0,0,0,-1,1567,694,0,0
350,330,0,0,0,0,0,0,0,0,0,-1,1574,694,0,0
357,330,0,0,0,0,0,0,0,0,0,-1,1581,694,0,0
364,330,0,0,0,0,0,0,0,0,0,-1,1588,694,0,0
371,330,0,0,0,0,0,0,0,0,0,-1,1595,694,0,0
378,330,0,0,0,0,0,0,0,0,0,-1,1602,694,0,0
385,330,0,0,0,0,0,0,0,0,0,-1,1609,694,0,0
392,330,0,0,0,0,0,0,0,0,0,-1,1616,694,0,0
399,330,0,0,0,0,0,0,0,0,0,-1,1623,694,0,0
406,330,0,0,0,0,0,0,0,0,0,-1,1630,694,0,0
413,330,0,0,0,0,0,0,0,0,0,-1,1637,694,0,0
420,330,0,0,0,0,0,0,0,0,0,-1,1644,694,0,0
427,330,0,0,0,0,0,0,0,0,0,-1,1651,694,0,0
434,330,0,0,0,0,0,0,0,0,0,-1,1658,694,0,0
441,330,0,0,0,0,0,0,0,0,0,-1,1665,694,0,0
448,330,0,0,0,0,0,0,0,0,0,-1,1672,694,0,0
455,330,0,0,0,0,0,0,0,0,0,-1,1679,694,0,0
462,330,0,0,0,0,0,0,0,0,0,-1,1686,694,0,0
469,330,0,0,0,0,0,0,0,0,0,-1,1693,694,0,0
476,330,0,0,0,0,0,0,0,0,0,-1,1700,694,0,0
483,330,0,0,0,0,0,0,0,0,0,-1,1707,694,0,0
490,330,0,0,0,0,0,0,0,0,0,-1,1714,694,0,0
497,330,0,0,0,0,0,0,0,0,0,-1,1721,694,0,0
504,330,0,0,0,0,0,0,0,0,0,-1,1728,694,0,0
511,330,0,0,0,0,0,0,0,0,0,-1,1735,694,0,0
518,330,0,0,0,0,0,0,0,0,0,-1,1742,694,0,0
525,330,30.6694,0.69519,0,0,0,0,0,0,0,-1,1749,694,30.6694,-0.695206
532,330,30.9469,1.32501,0.0789034,0.112337,0.0716514,0.169196,0.0220445,0.900002,0.106214,0.0446059,1756,694,30.9469,-1.32501
539,330,31.5155,1.62506,0.0652683,0.0841772,0.0607947,0.136248,0.0131973,0.862537,0.0867682,0.0477688,1763,694,31.5155,-1.62507
546,330,31.4187,1.85651,0.0531207,0.0616129,0.0518443,0.109385,0.00534887,0.826257,0.0712071,0.045652,1770,694,31.4187,-1.85651
553,330,31.8452,1.81476,0.0425281,0.0435386,0.0443752,0.0874115,-0.00134474,0.791091,0.0587277,0.0452213,1777,694,31.8452,-1.81475
560,330,32.2401,2.43225,0,0,0,0,0,0,0,-1,1784,694,32.2401,-2.43227
567,330,18.0321,3.98578,0,0,0,0,0,0,0,-1,1791,694,18.0321,-3.98576
574,330,12.0454,2.1662,0,0,0,0,0,0,0,-1,1798,694,12.0455,-2.16618
581,330,11.4215,4.50836,0,0,0,0,0,0,0,-1,1805,694,11.4215,-4.50837
588,330,6.45667,-0.0630493,0,0,0,0,0,0,0,-1,1812,694,6.45661,0.0630695
595,330,8.23193,-0.258484,0,0,0,0,0,0,0,-1,1819,694,8.23188,0.258459
602,330,16.9095,-2.63318,0,0,0,0,0,0,0,-1,1826,694,16.9095,2.6332
609,330,17.0625,-2.06586,0.00332667,-0.000847021,0.00754538,0.00906847,-0.00658882,0.650484,0.00907745,0.0411875,1833,694,17.0625,2.06586
616,330,17.1705,-1.63586,0.00225589,-0.000561443,0.00478665,0.00583685,-0.0041424,0.642293,0.00578914,0.0109371,1840,694,17.1705,1.63589
623,330,17.178,-1.27338,0.00143051,-0.00016124,0.00257114,0.00332613,-0.00205686,0.635304,0.00313654,0.0123141,1847,694,17.178,1.2734
630,330,17.1755,-0.893555,0.000539394,-0.000170571,0.00083771,0.00109423,-0.000725407,0.584991,0.00105774,0.0127374,1854,694,17.1756,0.893575
637,330,17.1671,-0.512085,-0.000531619,-0.000162769,-0.000314336,1.72499e-05,-0.000711638,-1.05069,0.000480279,0.012423,1861,694,17.1671,0.512113
644,330,17.1372,-0.121826,-0.00199215,-0.000315934,-0.000994268,0.00014634,-0.00245443,-1.13559,0.00168718,0.00830321,1868,694,17.1372,0.121808
651,330,17.1475,0.260437,-0.00353437,-0.000538851,-0.00169241,0.000223377,-0.0042966,-1.14763,0.00294169,0.0116634,1875,694,17.1474,-0.260413
658,330,17.1387,0.633606,-0.00514857,-0.000576774,-0.00240482,0.000455234,-0.00618058,-1.16542,0.00428021,0.0118847,1882,694,17.1387,-0.633603
665,330,17.1259,0.996399,-0.00697285,-0.000596285,-0.00323283,0.000755956,-0.00832509,-1.17463,0.00581844,0.00994671,1889,694,17.1259,-0.996379
672,330,17.1544,1.37659,-0.00890376,-0.000436884,-0.0040998,0.00122293,-0.0105636,-1.18612,0.0074834,0.0166522,1896,694,17.1545,-1.37656
679,330,16.9504,1.73657,-0.0110856,-1.78845e-05,-0.00504084,0.00193382,-0.0130373,-1.20139,0.00940266,0.0302151,1903,694,16.9505,-1.7366
686,330,16.9678,2.18414,-0.013551,0.000884004,-0.00597314,0.0030351,-0.0157021,-1.22513,0.0116128,0.0484123,1910,694,16.9678,-2.18417
693,330,17.0414,2.414,0,0,0,0,0,0,0,-1,1917,694,17.0414,-2.414
700,330,17.1072,4.13,0,0,0,0,0,0,0,-1,1924,694,17.1071,-4.13002
707,330,16.663,4.88672,0,0,0,0,0,0,0,-1,1931,694,16.6629,-4.88673
714,330,16.5454,5.80896,0,0,0,0,0,0,0,-1,1938,694,16.5454,-5.80899
721,330,0,0,0,0,0,0,0,0,0,-1,1945,694,0,0
728,330,0,0,0,0,0,0,0,0,0,-1,1952,694,0,0
735,330,0,0,0,0,0,0,0,0,0,-1,1959,694,0,0
742,330,0,0,0,0,0,0,0,0,0,-1,1966,694,0,0
749,330,0,0,0,0,0,0,0,0,0,-1,1973,694,0,0
756,330,0,0,0,0,0,0,0,0,0,-1,1980,694,0,0
763,330,0,0,0,0,0,0,0,0,0,-1,1987,694,0,0
770,330,0,0,0,0,0,0,0,0,0,-1,1994,694,0,0
777,330,0,0,0,0,0,0,0,0,0,-1,2001,694,0,0
784,330,0,0,0,0,0,0,0,0,0,-1,2008,694,0,0
791,330,0,0,0,0,0,0,0,0,0,-1,2015,694,0,0
798,330,0,0,0,0,0,0,0,0,0,-1,2022,694,0,0
805,330,0,0,0,0,0,0,0,0,0,-1,2029,694,0,0
812,330,0,0,0,0,0,0,0,0,0,-1,2036,694,0,0
-700,323,0,0,0,0,0,0,0,0,0,-1,524,701,0,0
-693,323,0,0,0,0,0,0,0,0,0,-1,531,701,0,0
-686,323,0,0,0,0,0,0,0,0,0,-1,538,701,0,0
-679,323,0,0,0,0,0,0,0,0,0,-1,545,701,0,0
-672,323,0,0,0,0,0,0,0,0,0,-1,552,701,0,0
-665,323,0,0,0,0,0,0,0,0,0,-1,559,701,0,0
-658,323,0,0,0,0,0,0,0,0,0,-1,566,701,0,0
-651,323,0,0,0,0,0,0,0,0,0,-1,573,701,0,0
-644,323,0,0,0,0,0,0,0,0,0,-1,580,701,0,0
-637,323,0,0,0,0,0,0,0,0,0,-1,587,701,0,0
-630,323,0,0,0,0,0,0,0,0,0,-1,594,701,0,0
-623,323,0,0,0,0,0,0,0,0,0,-1,601,701,0,0
-616,323,0,0,0,0,0,0,0,0,0,-1,608,701,0,0
-609,323,0,0,0,0,0,0,0,0,0,-1,615,701,0,0
-602,323,-4.15833,2.12256,0,0,0,0,0,0,0,-1,622,701,-4.1583,-2.12257
-595,323,-4.052,1.79156,0,0,0,0,0,0,0,-1,629,701,-4.05198,-1.79158
-588,323,-4.07019,1.94543,0,0,0,0,0,0,0,-1,636,701,-4.07019,-1.94542
-581,323,-6.63727,0.562805,0,0,0,0,0,0,0,-1,643,701,-6.63728,-0.56279
-574,323,-6.15887,0.426697,0,0,0,0,0,0,0,-1,650,701,-6.15887,-0.426727
-567,323,-8.20746,0.122803,0,0,0,0,0,0,0,-1,657,701,-8.20745,-0.122813
-560,323,-9.99188,0.0356445,0,0,0,0,0,0,0,-1,664,701,-9.99189,-0.0356519
-553,323,-9.82251,-0.348267,0.0110854,0.0136933,-0.0213866,0.0338157,-0.009037,-0.815844,0.0260833,0.0369544,671,701,-9.82251,0.348283
-546,323,-9.77655,-0.644043,0.00779712,0.0118094,-0.0168255,0.0267479,-0.00714139,-0.844734,0.0206286,0.0146856,678,701,-9.77657,0.644059
-539,323,-9.77777,-0.967163,0.00619761,0.00900757,-0.0124009,0.0200828,-0.00487762,-0.841806,0.0152762,0.0134557,685,701,-9.77775,0.967136
-532,323,-9.7948,-1.328,0.0047957,0.00654934,-0.00874412,0.0144605,-0.00311545,-0.835369,0.0108292,0.00992032,692,701,-9.79482,1.328
-525,323,-9.80066,-1.68958,0.00359595,0.00442425,-0.00573314,0.00975818,-0.00173798,-0.821454,0.00715549,0.00768387,699,701,-9.80069,1.68956
-518,323,-9.80023,-2.02521,0.00266279,0.00268453,-0.00336438,0.00603806,-0.000690736,-0.787014,0.00427426,0.00977573,706,701,-9.80023,2.02521
-511,323,-9.81018,-2.3714,0.00188792,0.00135686,-0.00154404,0.00318909,5.5691e-05,-0.700245,0.00210774,0.0133697,713,701,-9.81018,2.37141
-504,323,-9.82349,-2.72723,0.00121507,0.000431483,-0.000206094,0.00126597,0.000380584,-0.242125,0.000750028,0.0147574,720,701,-9.82346,2.72722
-497,323,-9.82965,-3.07959,0.000823465,-6.34627e-05,0.000453025,0.00101395,-0.000253948,0.398031,0.000774618,0.012136,727,701,-9.82968,3.07959
-490,323,-9.83887,-3.43793,0.000478084,8.42121e-05,0.000709312,0.00101729,-0.000454995,0.649987,0.000870445,0.0120564,734,701,-9.83887,3.43795
-483,323,-9.83295,-3.79358,0.000432093,0.00108157,0.000299412,0.00119854,0.000315128,1.19838,0.000717436,0.0203547,741,701,-9.83295,3.79358
-476,323,-9.68768,-4.28827,0,0,0,0,0,0,0,-1,748,701,-9.68768,4.2883
-469,323,-8.33301,-3.64001,0,0,0,0,0,0,0,-1,755,701,-8.33298,3.64
-462,323,-5.29431,-1.45697,0,0,0,0,0,0,0,-1,762,701,-5.29431,1.45699
-455,323,-5.0658,-1.36639,0,0,0,0,0,0,0,-1,769,701,-5.06578,1.3664
-448,323,-4.91608,-1.59601,0,0,0,0,0,0,0,-1,776,701,-4.91606,1.59604
-441,323,-14.4006,0.535217,0,0,0,0,0,0,0,-1,783,701,-14.4006,-0.535203
-434,323,-15.3158,2.479,0,0,0,0,0,0,0,-1,790,701,-15.3158,-2.47898
-427,323,-15.4075,2.98248,0,0,0,0,0,0,0,-1,797,701,-15.4075,-2.98248
-420,323,-14.8839,3.49579,0,0,0,0,0,0,0,-1,804,701,-14.8839,-3.49579
-413,323,-14.0645,4.22607,0,0,0,0,0,0,0,-1,811,701,-14.0645,-4.22605
-406,323,0,0,0,0,0,0,0,0,0,-1,818,701,0,0
-399,323,0,0,0,0,0,0,0,0,0,-1,825,701,0,0
-392,323,0,0,0,0,0,0,0,0,0,-1,832,701,0,0
-385,323,0,0,0,0,0,0,0,0,0,-1,839,701,0,0
-378,323,0,0,0,0,0,0,0,0,0,-1,846,701,0,0
-371,323,0,0,0,0,0,0,0,0,0,-1,853,701,0,0
-364,323,0,0,0,0,0,0,0,0,0,-1,860,701,0,0
-357,323,0,0,0,0,0,0,0,0,0,-1,867,701,0,0
-350,323,0,0,0,0,0,0,0,0,0,-1,874,701,0,0
-343,323,0,0,0,0,0,0,0,0,0,-1,881,701,0,0
-336,323,0,0,0,0,0,0,0,0,0,-1,888,701,0,0
-329,323,0,0,0,0,0,0,0,0,0,-1,895,701,0,0
-322,323,0,0,0,0,0,0,0,0,0,-1,902,701,0,0
-315,323,0,0,0,0,0,0,0,0,0,-1,909,701,0,0
-308,323,0,0,0,0,0,0,0,0,0,-1,916,701,0,0
-301,323,0,0,0,0,0,0,0,0,0,-1,923,701,0,0
-294,323,0,0,0,0,0,0,0,0,0,-1,930,701,0,0
-287,323,0,0,0,0,0,0,0,0,0,-1,937,701,0,0
-280,323,0,0,0,0,0,0,0,0,0,-1,944,701,0,0
-273,323,0,0,0,0,0,0,0,0,0,-1,951,701,0,0
-266,323,0,0,0,0,0,0,0,0,0,-1,958,701,0,0
-259,323,0,0,0,0,0,0,0,0,0,-1,965,701,0,0
-252,323,0,0,0,0,0,0,0,0,0,-1,972,701,0,0
-245,323,0,0,0,0,0,0,0,0,0,-1,979,701,0,0
-238,323,0,0,0,0,0,0,0,0,0,-1,986,701,0,0
-231,323,0,0,0,0,0,0,0,0,0,-1,993,701,0,0
-224,323,0,0,0,0,0,0,0,0,0,-1,1000,701,0,0
-217,323,0,0,0,0,0,0,0,0,0,-1,1007,701,0,0
-210,323,0,0,0,0,0,0,0,0,0,-1,1014,701,0,0
-203,323,0,0,0,0,0,0,0,0,0,-1,1021,701,0,0
-196,323,0,0,0,0,0,0,0,0,0,-1,1028,701,0,0
-189,323,0,0,0,0,0,0,0,0,0,-1,1035,701,0,0
-182,323,0,0,0,0,0,0,0,0,0,-1,1042,701,0,0
-175,323,0,0,0,0,0,0,0,0,0,-1,1049,701,0,0
-168,323,0,0,0,0,0,0,0,0,0,-1,1056,701,0,0
-161,323,0,0,0,0,0,0,0,0,0,-1,1063,701,0,0
-154,323,0,0,0,0,0,0,0,0,0,-1,1070,701,0,0
-147,323,0,0,0,0,0,0,0,0,0,-1,1077,701,0,0
-140,323,0,0,0,0,0,0,0,0,0,-1,1084,701,0,0
-133,323,0,0,0,0,0,0,0,0,0,-1,1091,701,0,0
-126,323,0,0,0,0,0,0,0,0,0,-1,1098,701,0,0
-119,323,0,0,0,0,0,0,0,0,0,-1,1105,701,0,0
-112,323,0,0,0,0,0,0,0,0,0,-1,1112,701,0,0
-105,323,0,0,0,0,0,0,0,0,0,-1,1119,701,0,0
-98,323,0,0,0,0,0,0,0,0,0,-1,1126,701,0,0
-91,323,0,0,0,0,0,0,0,0,0,-1,1133,701,0,0
-84,323,0,0,0,0,0,0,0,0,0,-1,1140,701,0,0
-77,323,0,0,0,0,0,0,0,0,0,-1,1147,701,0,0
-70,323,0,0,0,0,0,0,0,0,0,-1,1154,701,0,0
-63,323,0,0,0,0,0,0,0,0,0,-1,1161,701,0,0
-56,323,0,0,0,0,0,0,0,0,0,-1,1168,701,0,0
-49,323,0,0,0,0,0,0,0,0,0,-1,1175,701,0,0
-42,323,0,0,0,0,0,0,0,0,0,-1,1182,701,0,0
-35,323,0,0,0,0,0,0,0,0,0,-1,1189,701,0,0
-28,323,0,0,0,0,0,0,0,0,0,-1,1196,701,0,0
-21,323,0,0,0,0,0,0,0,0,0,-1,1203,701,0,0
-14,323,0,0,0,0,0,0,0,0,0,-1,1210,701,0,0
-7,323,0,0,0,0,0,0,0,0,0,-1,1217,701,0,0
0,323,0,0,0,0,0,0,0,0,0,-1,1224,701,0,0
7,323,0,0,0,0,0,0,0,0,0,-1,1231,701,0,0
14,323,0,0,0,0,0,0,0,0,0,-1,1238,701,0,0
21,323,0,0,0,0,0,0,0,0,0,-1,1245,701,0,0
28,323,0,0,0,0,0,0,0,0,0,-1,1252,701,0,0
35,323,0,0,0,0,0,0,0,0,0,-1,1259,701,0,0
42,323,0,0,0,0,0,0,0,0,0,-1,1266,701,0,0
49,323,0,0,0,0,0,0,0,0,0,-1,1273,701,0,0
56,323,0,0,0,0,0,0,0,0,0,-1,1280,701,0,0
63,323,0,0,0,0,0,0,0,0,0,-1,1287,701,0,0
70,323,0,0,0,0,0,0,0,0,0,-1,1294,701,0,0
77,323,0,0,0,0,0,0,0,0,0,-1,1301,701,0,0
84,323,0,0,0,0,0,0,0,0,0,-1,1308,701,0,0
91,323,0,0,0,0,0,0,0,0,0,-1,1315,701,0,0
98,323,0,0,0,0,0,0,0,0,0,-1,1322,701,0,0
105,323,0,0,0,0,0,0,0,0,0,-1,1329,701,0,0
112,323,0,0,0,0,0,0,0,0,0,-1,1336,701,0,0
119,323,0,0,0,0,0,0,0,0,0,-1,1343,701,0,0
126,323,0,0,0,0,0,0,0,0,0,-1,1350,701,0,0
133,323,0,0,0,0,0,0,0,0,0,-1,1357,701,0,0
140,323,0,0,0,0,0,0,0,0,0,-1,1364,701,0,0
147,323,0,0,0,0,0,0,0,0,0,-1,1371,701,0,0
154,323,0,0,0,0,0,0,0,0,0,-1,1378,701,0,0
161,323,0,0,0,0,0,0,0,0,0,-1,1385,701,0,0
168,323,0,0,0,0,0,0,0,0,0,-1,1392,701,0,0
175,323,0,0,0,0,0,0,0,0,0,-1,1399,701,0,0
182,323,0,0,0,0,0,0,0,0,0,-1,1406,701,0,0
189,323,0,0,0,0,0,0,0,0,0,-1,1413,701,0,0
196,323,0,0,0,0,0,0,0,0,0,-1,1420,701,0,0
203,323,0,0,0,0,0,0,0,0,0,-1,1427,701,0,0
210,323,0,0,0,0,0,0,0,0,0,-1,1434,701,0,0
217,323,0,0,0,0,0,0,0,0,0,-1,1441,701,0,0
224,323,0,0,0,0,0,0,0,0,0,-1,1448,701,0,0
231,323,0,0,0,0,0,0,0,0,0,-1,1455,701,0,0
238,323,0,0,0,0,0,0,0,0,0,-1,1462,701,0,0
245,323,0,0,0,0,0,0,0,0,0,-1,1469,701,0,0
252,323,0,0,0,0,0,0,0,0,0,-1,1476,701,0,0
259,323,0,0,0,0,0,0,0,0,0,-1,1483,701,0,0
266,323,0,0,0,0,0,0,0,0,0,-1,1490,701,0,0
273,323,0,0,0,0,0,0,0,0,0,-1,1497,701,0,0
280,323,0,0,0,0,0,0,0,0,0,-1,1504,701,0,0
287,323,0,0,0,0,0,0,0,0,0,-1,1511,701,0,0
294,323,0,0,0,0,0,0,0,0,0,-1,1518,701,0,0
301,323,0,0,0,0,0,0,0,0,0,-1,1525,701,0,0
308,323,0,0,0,0,0,0,0,0,0,-1,1532,701,0,0
315,323,0,0,0,0,0,0,0,0,0,-1,1539,701,0,0
322,323,0,0,0,0,0,0,0,0,0,-1,1546,701,0,0
329,323,0,0,0,0,0,0,0,0,0,-1,1553,701,0,0
336,323,0,0,0,0,0,0,0,0,0,-1,1560,701,0,0
343,323,0,0,0,0,0,0,0,0,0,-1,1567,701,0,0
350,323,0,0,0,0,0,0,0,0,0,-1,1574,701,0,0
357,323,0,0,0,0,0,0,0,0,0,-1,1581,701,0,0
364,323,0,0,0,0,0,0,0,0,0,-1,1588,701,0,0
371,323,0,0,0,0,0,0,0,0,0,-1,1595,701,0,0
378,323,0,0,0,0,0,0,0,0,0,-1,1602,701,0,0
385,323,0,0,0,0,0,0,0,0,0,-1,1609,701,0,0
392,323,0,0,0,0,0,0,0,0,0,-1,1616,701,0,0
399,323,0,0,0,0,0,0,0,0,0,-1,1623,701,0,0
406,323,0,0,0,0,0,0,0,0,0,-1,1630,701,0,0
413,323,0,0,0,0,0,0,0,0,0,-1,1637,701,0,0
420,323,0,0,0,0,0,0,0,0,0,-1,1644,701,0,0
427,323,0,0,0,0,0,0,0,0,0,-1,1651,701,0,0
434,323,0,0,0,0,0,0,0,0,0,-1,1658,701,0,0
441,323,0,0,0,0,0,0,0,0,0,-1,1665,701,0,0
448,323,0,0,0,0,0,0,0,0,0,-1,1672,701,0,0
455,323,0,0,0,0,0,0,0,0,0,-1,1679,701,0,0
462,323,0,0,0,0,0,0,0,0,0,-1,1686,701,0,0
469,323,0,0,0,0,0,0,0,0,0,-1,1693,701,0,0
476,323,0,0,0,0,0,0,0,0,0,-1,1700,701,0,0
483,323,0,0,0,0,0,0,0,0,0,-1,1707,701,0,0
490,323,0,0,0,0,0,0,0,0,0,-1,1714,701,0,0
497,323,0,0,0,0,0,0,0,0,0,-1,1721,701,0,0
504,323,0,0,0,0,0,0,0,0,0,-1,1728,701,0,0
511,323,0,0,0,0,0,0,0,0,0,-1,1735,701,0,0
518,323,0,0,0,0,0,0,0,0,0,-1,1742,701,0,0
525,323,0,0,0,0,0,0,0,0,0,-1,1749,701,0,0
532,323,30.5917,0.274719,0.0803068,0.111918,0.0799807,0.17764,0.0145847,0.882949,0.113877,0.0479919,1756,701,30.5917,-0.274721
539,323,31.155,0.930237,0.0666419,0.0811629,0.0665287,0.140826,0.00697874,0.83975,0.0916465,0.0486802,1763,701,31.155,-0.930224
546,323,31.3462,1.7619,0.0544341,0.0580848,0.0563262,0.112615,-9.63286e-05,0.801596,0.075109,0.0483162,1770,701,31.3462,-1.76189
553,323,31.7092,2.09894,0.0436047,0.0403428,0.0481646,0.090166,-0.00621846,0.768474,0.0622871,0.0489878,1777,701,31.7092,-2.09895
560,323,31.9149,2.33624,0.0342771,0.027111,0.0413906,0.0722394,-0.0108513,0.742222,0.0521544,0.0482103,1784,701,31.9149,-2.33626
567,323,32.0164,2.60754,0,0,0,0,0,0,0,-1,1791,701,32.0163,-2.60753
574,323,12.514,5.89685,0,0,0,0,0,0,0,-1,1798,701,12.5141,-5.89683
581,323,11.821,5.3476,0,0,0,0,0,0,0,-1,1805,701,11.821,-5.34762
588,323,11.7933,7.00818,0,0,0,0,0,0,0,-1,1812,701,11.7933,-7.00819
595,323,6.67847,0.06604,0,0,0,0,0,0,0,-1,1819,701,6.67841,-0.0660418
602,323,11.2856,-0.595459,0,0,0,0,0,0,0,-1,1826,701,11.2856,0.595433
609,323,17.2994,-2.17682,0,0,0,0,0,0,0,-1,1833,701,17.2994,2.17682
616,323,17.5365,-1.62646,0.0017658,-0.000839819,0.0059856,0.00658874,-0.00566275,0.678241,0.00708013,0.0151685,1840,701,17.5366,1.62648
623,323,17.5498,-1.24805,0.00102408,-0.00023475,0.00336605,0.00381906,-0.00302973,0.692971,0.00396289,0.0124486,1847,701,17.5498,1.24803
630,323,17.5341,-0.855103,0.000444331,-0.00015001,0.00123741,0.00141975,-0.00112543,0.667552,0.00147273,0.0129873,1854,701,17.5341,0.855083
637,323,17.5294,-0.482056,-0.000219258,-3.04993e-05,-0.000128066,3.42073e-05,-0.000283964,-1.10295,0.000201681,0.0104357,1861,701,17.5294,0.482049
644,323,17.5349,-0.129517,-0.00130631,-0.000162609,-0.000699468,0.000169017,-0.00163793,-1.12807,0.00115243,0.00785068,1868,701,17.5349,0.129536
651,323,17.5288,0.260864,-0.00256069,-0.000314008,-0.00126171,0.000251974,-0.00312667,-1.14912,0.00217332,0.00988859,1875,701,17.5288,-0.260883
658,323,17.4889,0.653809,-0.0038075,-0.000221265,-0.00179657,0.00052391,-0.00455268,-1.17762,0.00322398,0.013804,1882,701,17.4888,-0.653786
665,323,17.4757,1.02289,-0.00518977,-0.000121616,-0.00241326,0.000843643,-0.00615503,-1.19031,0.00441154,0.0117439,1889,701,17.4757,-1.0229
672,323,17.5005,1.41608,-0.0066385,0.000200036,-0.003019,0.0013421,-0.00778056,-1.20914,0.00568744,0.0104314,1896,701,17.5005,-1.41605
679,323,17.4465,1.80261,-0.00817425,0.000789069,-0.00362379,0.00207084,-0.00945602,-1.23082,0.00709574,0.0223254,1903,701,17.4465,-1.80263
686,323,17.3772,1.98328,-0.00990375,0.00185657,-0.00422911,0.00321945,-0.0112666,-1.25904,0.00878317,0.0431743,1910,701,17.3772,-1.98326
693,323,17.3861,2.17664,0,0,0,0,0,0,0,-1,1917,701,17.3861,-2.17661
700,323,10.7705,0.828613,0,0,0,0,0,0,0,-1,1924,701,10.7705,-0.828591
707,323,16.9005,4.79193,0,0,0,0,0,0,0,-1,1931,701,16.9005,-4.7919
714,323,16.2346,6.25958,0,0,0,0,0,0,0,-1,1938,701,16.2346,-6.25956
721,323,0,0,0,0,0,0,0,0,0,-1,1945,701,0,0
728,323,0,0,0,0,0,0,0,0,0,-1,1952,701,0,0
735,323,0,0,0,0,0,0,0,0,0,-1,1959,701,0,0
742,323,0,0,0,0,0,0,0,0,0,-1,1966,701,0,0
749,323,0,0,0,0,0,0,0,0,0,-1,1973,701,0,0
756,323,0,0,0,0,0,0,0,0,0,-1,1980,701,0,0
763,323,0,0,0,0,0,0,0,0,0,-1,1987,701,0,0
770,323,0,0,0,0,0,0,0,0,0,-1,1994,701,0,0
777,323,0,0,0,0,0,0,0,0,0,-1,2001,701,0,0
784,323,0,0,0,0,0,0,0,0,0,-1,2008,701,0,0
791,323,0,0,0,0,0,0,0,0,0,-1,2015,701,0,0
798,323,0,0,0,0,0,0,0,0,0,-1,2022,701,0,0
805,323,0,0,0,0,0,0,0,0,0,-1,2029,701,0,0
812,323,0,0,0,0,0,0,0,0,0,-1,2036,701,0,0
-700,316,0,0,0,0,0,0,0,0,0,-1,524,708,0,0
-693,316,0,0,0,0,0,0,0,0,0,-1,531,708,0,0
-686,316,0,0,0,0,0,0,0,0,0,-1,538,708,0,0
-679,316,0,0,0,0,0,0,0,0,0,-1,545,708,0,0
-672,316,0,0,0,0,0,0,0,0,0,-1,552,708,0,0
-665,316,0,0,0,0,0,0,0,0,0,-1,559,708,0,0
-658,316,0,0,0,0,0,0,0,0,0,-1,566,708,0,0
-651,316,0,0,0,0,0,0,0,0,0,-1,573,708,0,0
-644,316,0,0,0,0,0,0,0,0,0,-1,580,708,0,0
-637,316,0,0,0,0,0,0,0,0,0,-1,587,708,0,0
-630,316,0,0,0,0,0,0,0,0,0,-1,594,708,0,0
-623,316,0,0,0,0,0,0,0,0,0,-1,601,708,0,0
-616,316,0,0,0,0,0,0,0,0,0,-1,608,708,0,0
-609,316,0,0,0,0,0,0,0,0,0,-1,615,708,0,0
-602,316,-0.451782,-0.0494995,0,0,0,0,0,0,0,-1,622,708,-0.451768,0.0495022
-595,316,-3.3761,2.17188,0,0,0,0,0,0,0,-1,629,708,-3.37609,-2.17189
-588,316,-5.00177,2.60675,0,0,0,0,0,0,0,-1,636,708,-5.00175,-2.60676
-581,316,-3.94653,0.393433,0,0,0,0,0,0,0,-1,643,708,-3.94655,-0.39342
-574,316,-7.51819,2.09735,0,0,0,0,0,0,0,-1,650,708,-7.51818,-2.09732
-567,316,-8.97015,-0.511475,0,0,0,0,0,0,0,-1,657,708,-8.97014,0.51147
-560,316,-9.84576,-0.111938,0,0,0,0,0,0,0,-1,664,708,-9.84579,0.111959
-553,316,-10.0119,-0.357727,0.00718725,0.00856652,-0.0135155,0.0214099,-0.00565616,-0.810889,0.0164854,0.0349227,671,708,-10.0119,0.357732
-546,316,-10.1843,-0.587952,0.00448811,0.00876244,-0.0115835,0.0184043,-0.00515375,-0.876623,0.0143004,0.0205346,678,708,-10.1843,0.58795
-539,316,-10.1411,-0.98938,0.00366612,0.00657555,-0.00847462,0.0137194,-0.00347773,-0.870398,0.0104993,0.0136636,685,708,-10.1411,0.989372
-532,316,-10.1562,-1.33282,0.00295261,0.00465807,-0.00587667,0.00974356,-0.00213288,-0.857447,0.00731111,0.0108661,692,708,-10.1562,1.33282
-525,316,-10.1593,-1.67047,0.00232088,0.0030204,-0.00370197,0.0063891,-0.00104781,-0.832498,0.0046482,0.0088538,699,708,-10.1593,1.67046
-518,316,-10.15,-2.02112,0.00185168,0.00167288,-0.00195782,0.00372214,-0.000197578,-0.762582,0.00254984,0.00924564,706,708,-10.1499,2.02115
-511,316,-10.1512,-2.37018,0.00136481,0.000944268,-0.000526544,0.00172152,0.000587562,-0.595429,0.00101047,0.0109408,713,708,-10.1512,2.3702
-504,316,-10.1705,-2.72339,0.000709351,0.000911789,0.00054315,0.00136307,0.000258069,0.877519,0.000836074,0.0145651,720,708,-10.1705,2.72338
-497,316,-10.1858,-3.06519,0.000160527,0.00133266,0.00124934,0.00212657,-0.000633379,1.00471,0.00166938,0.0123833,727,708,-10.1858,3.06516
-490,316,-10.1844,-3.42822,-0.000636356,0.00291126,0.00184388,0.00369602,-0.00142112,1.16841,0.00305015,0.0141867,734,708,-10.1844,3.42825
-483,316,-10.1406,-3.77063,0,0,0,0,0,0,0,-1,741,708,-10.1405,3.77061
-476,316,-8.90894,-3.31207,0,0,0,0,0,0,0,-1,748,708,-8.90896,3.31206
-469,316,-6.24194,-1.42725,0,0,0,0,0,0,0,-1,755,708,-6.24192,1.42725
-462,316,-5.74237,-1.40039,0,0,0,0,0,0,0,-1,762,708,-5.74238,1.40039
-455,316,-5.44745,-1.21899,0,0,0,0,0,0,0,-1,769,708,-5.44746,1.21898
-448,316,-14.8945,0.655396,0,0,0,0,0,0,0,-1,776,708,-14.8946,-0.655396
-441,316,-14.9626,0.576111,0,0,0,0,0,0,0,-1,783,708,-14.9626,-0.576115
-434,316,-15.272,0.942993,0,0,0,0,0,0,0,-1,790,708,-15.272,-0.942979
-427,316,-14.6848,3.17792,0,0,0,0,0,0,0,-1,797,708,-14.6848,-3.1779
-420,316,-13.5587,2.737,0,0,0,0,0,0,0,-1,804,708,-13.5587,-2.73703
-413,316,0,0,0,0,0,0,0,0,0,-1,811,708,0,0
-406,316,0,0,0,0,0,0,0,0,0,-1,818,708,0,0
-399,316,0,0,0,0,0,0,0,0,0,-1,825,708,0,0
-392,316,0,0,0,0,0,0,0,0,0,-1,832,708,0,0
-385,316,0,0,0,0,0,0,0,0,0,-1,839,708,0,0
-378,316,0,0,0,0,0,0,0,0,0,-1,846,708,0,0
-371,316,0,0,0,0,0,0,0,0,0,-1,853,708,0,0
-364,316,0,0,0,0,0,0,0,0,0,-1,860,708,0,0
-357,316,0,0,0,0,0,0,0,0,0,-1,867,708,0,0
-350,316,0,0,0,0,0,0,0,0,0,-1,874,708,0,0
-343,316,0,0,0,0,0,0,0,0,0,-1,881,708,0,0
-336,316,0,0,0,0,0,0,0,0,0,-1,888,708,0,0
-329,316,0,0,0,0,0,0,0,0,0,-1,895,708,0,0
-322,316,0,0,0,0,0,0,0,0,0,-1,902,708,0,0
-315,316,0,0,0,0,0,0,0,0,0,-1,909,708,0,0
-308,316,0,0,0,0,0,0,0,0,0,-1,916,708,0,0
-301,316,0,0,0,0,0,0,0,0,0,-1,923,708,0,0
-294,316,0,0,0,0,0,0,0,0,0,-1,930,708,0,0
-287,316,0,0,0,0,0,0,0,0,0,-1,937,708,0,0
-280,316,0,0,0,0,0,0,0,0,0,-1,944,708,0,0
-273,316,0,0,0,0,0,0,0,0,0,-1,951,708,0,0
-266,316,0,0,0,0,0,0,0,0,0,-1,958,708,0,0
-259,316,0,0,0,0,0,0,0,0,0,-1,965,708,0,0
-252,316,0,0,0,0,0,0,0,0,0,-1,972,708,0,0
-245,316,0,0,0,0,0,0,0,0,0,-1,979,708,0,0
-238,316,0,0,0,0,0,0,0,0,0,-1,986,708,0,0
-231,316,0,0,0,0,0,0,0,0,0,-1,993,708,0,0
-224,316,0,0,0,0,0,0,0,0,0,-1,1000,708,0,0
-217,316,0,0,0,0,0,0,0,0,0,-1,1007,708,0,0
-210,316,0,0,0,0,0,0,0,0,0,-1,1014,708,0,0
-203,316,0,0,0,0,0,0,0,0,0,-1,1021,708,0,0
-196,316,0,0,0,0,0,0,0,0,0,-1,1028,708,0,0
-189,316,0,0,0,0,0,0,0,0,0,-1,1035,708,0,0
-182,316,0,0,0,0,0,0,0,0,0,-1,1042,708,0,0
-175,316,0,0,0,0,0,0,0,0,0,-1,1049,708,0,0
-168,316,0,0,0,0,0,0,0,0,0,-1,1056,708,0,0
-161,316,0,0,0,0,0,0,0,0,0,-1,1063,708,0,0
-154,316,0,0,0,0,0,0,0,0,0,-1,1070,708,0,0
-147,316,0,0,0,0,0,0,0,0,0,-1,1077,708,0,0
-140,316,0,0,0,0,0,0,0,0,0,-1,1084,708,0,0
-133,316,0,0,0,0,0,0,0,0,0,-1,1091,708,0,0
-126,316,0,0,0,0,0,0,0,0,0,-1,1098,708,0,0
-119,316,0,0,0,0,0,0,0,0,0,-1,1105,708,0,0
-112,316,0,0,0,0,0,0,0,0,0,-1,1112,708,0,0
-105,316,0,0,0,0,0,0,0,0,0,-1,1119,708,0,0
-98,316,0,0,0,0,0,0,0,0,0,-1,1126,708,0,0
-91,316,0,0,0,0,0,0,0,0,0,-1,1133,708,0,0
-84,316,0,0,0,0,0,0,0,0,0,-1,1140,708,0,0
-77,316,0,0,0,0,0,0,0,0,0,-1,1147,708,0,0
-70,316,0,0,0,0,0,0,0,0,0,-1,1154,708,0,0
-63,316,0,0,0,0,0,0,0,0,0,-1,1161,708,0,0
-56,316,0,0,0,0,0,0,0,0,0,-1,1168,708,0,0
-49,316,0,0,0,0,0,0,0,0,0,-1,1175,708,0,0
-42,316,0,0,0,0,0,0,0,0,0,-1,1182,708,0,0
-35,316,0,0,0,0,0,0,0,0,0,-1,1189,708,0,0
-28,316,0,0,0,0,0,0,0,0,0,-1,1196,708,0,0
-21,316,0,0,0,0,0,0,0,0,0,-1,1203,708,0,0
-14,316,0,0,0,0,0,0,0,0,0,-1,1210,708,0,0
-7,316,0,0,0,0,0,0,0,0,0,-1,1217,708,0,0
0,316,0,0,0,0,0,0,0,0,0,-1,1224,708,0,0
7,316,0,0,0,0,0,0,0,0,0,-1,1231,708,0,0
14,316,0,0,0,0,0,0,0,0,0,-1,1238,708,0,0
21,316,0,0,0,0,0,0,0,0,0,-1,1245,708,0,0
28,316,0,0,0,0,0,0,0,0,0,-1,1252,708,0,0
35,316,0,0,0,0,0,0,0,0,0,-1,1259,708,0,0
42,316,0,0,0,0,0,0,0,0,0,-1,1266,708,0,0
49,316,0,0,0,0,0,0,0,0,0,-1,1273,708,0,0
56,316,0,0,0,0,0,0,0,0,0,-1,1280,708,0,0
63,316,0,0,0,0,0,0,0,0,0,-1,1287,708,0,0
70,316,0,0,0,0,0,0,0,0,0,-1,1294,708,0,0
77,316,0,0,0,0,0,0,0,0,0,-1,1301,708,0,0
84,316,0,0,0,0,0,0,0,0,0,-1,1308,708,0,0
91,316,0,0,0,0,0,0,0,0,0,-1,1315,708,0,0
98,316,0,0,0,0,0,0,0,0,0,-1,1322,708,0,0
105,316,0,0,0,0,0,0,0,0,0,-1,1329,708,0,0
112,316,0,0,0,0,0,0,0,0,0,-1,1336,708,0,0
119,316,0,0,0,0,0,0,0,0,0,-1,1343,708,0,0
126,316,0,0,0,0,0,0,0,0,0,-1,1350,708,0,0
133,316,0,0,0,0,0,0,0,0,0,-1,1357,708,0,0
140,316,0,0,0,0,0,0,0,0,0,-1,1364,708,0,0
147,316,0,0,0,0,0,0,0,0,0,-1,1371,708,0,0
154,316,0,0,0,0,0,0,0,0,0,-1,1378,708,0,0
161,316,0,0,0,0,0,0,0,0,0,-1,1385,708,0,0
168,316,0,0,0,0,0,0,0,0,0,-1,1392,708,0,0
175,316,0,0,0,0,0,0,0,0,0,-1,1399,708,0,0
182,316,0,0,0,0,0,0,0,0,0,-1,1406,708,0,0
189,316,0,0,0,0,0,0,0,0,0,-1,1413,708,0,0
196,316,0,0,0,0,0,0,0,0,0,-1,1420,708,0,0
203,316,0,0,0,0,0,0,0,0,0,-1,1427,708,0,0
210,316,0,0,0,0,0,0,0,0,0,-1,1434,708,0,0
217,316,0,0,0,0,0,0,0,0,0,-1,1441,708,0,0
224,316,0,0,0,0,0,0,0,0,0,-1,1448,708,0,0
231,316,0,0,0,0,0,0,0,0,0,-1,1455,708,0,0
238,316,0,0,0,0,0,0,0,0,0,-1,1462,708,0,0
245,316,0,0,0,0,0,0,0,0,0,-1,1469,708,0,0
252,316,0,0,0,0,0,0,0,0,0,-1,1476,708,0,0
259,316,0,0,0,0,0,0,0,0,0,-1,1483,708,0,0
266,316,0,0,0,0,0,0,0,0,0,-1,1490,708,0,0
273,316,0,0,0,0,0,0,0,0,0,-1,1497,708,0,0
280,316,0,0,0,0,0,0,0,0,0,-1,1504,708,0,0
287,316,0,0,0,0,0,0,0,0,0,-1,1511,708,0,0
294,316,0,0,0,0,0,0,0,0,0,-1,1518,708,0,0
301,316,0,0,0,0,0,0,0,0,0,-1,1525,708,0,0
308,316,0,0,0,0,0,0,0,0,0,-1,1532,708,0,0
315,316,0,0,0,0,0,0,0,0,0,-1,1539,708,0,0
322,316,0,0,0,0,0,0,0,0,0,-1,1546,708,0,0
329,316,0,0,0,0,0,0,0,0,0,-1,1553,708,0,0
336,316,0,0,0,0,0,0,0,0,0,-1,1560,708,0,0
343,316,0,0,0,0,0,0,0,0,0,-1,1567,708,0,0
350,316,0,0,0,0,0,0,0,0,0,-1,1574,708,0,0
357,316,0,0,0,0,0,0,0,0,0,-1,1581,708,0,0
364,316,0,0,0,0,0,0,0,0,0,-1,1588,708,0,0
371,316,0,0,0,0,0,0,0,0,0,-1,1595,708,0,0
378,316,0,0,0,0,0,0,0,0,0,-1,1602,708,0,0
385,316,0,0,0,0,0,0,0,0,0,-1,1609,708,0,0
392,316,0,0,0,0,0,0,0,0,0,-1,1616,708,0,0
399,316,0,0,0,0,0,0,0,0,0,-1,1623,708,0,0
406,316,0,0,0,0,0,0,0,0,0,-1,1630,708,0,0
413,316,0,0,0,0,0,0,0,0,0,-1,1637,708,0,0
420,316,0,0,0,0,0,0,0,0,0,-1,1644,708,0,0
427,316,0,0,0,0,0,0,0,0,0,-1,1651,708,0,0
434,316,0,0,0,0,0,0,0,0,0,-1,1658,708,0,0
441,316,0,0,0,0,0,0,0,0,0,-1,1665,708,0,0
448,316,0,0,0,0,0,0,0,0,0,-1,1672,708,0,0
455,316,0,0,0,0,0,0,0,0,0,-1,1679,708,0,0
462,316,0,0,0,0,0,0,0,0,0,-1,1686,708,0,0
469,316,0,0,0,0,0,0,0,0,0,-1,1693,708,0,0
476,316,0,0,0,0,0,0,0,0,0,-1,1700,708,0,0
483,316,0,0,0,0,0,0,0,0,0,-1,1707,708,0,0
490,316,0,0,0,0,0,0,0,0,0,-1,1714,708,0,0
497,316,0,0,0,0,0,0,0,0,0,-1,1721,708,0,0
504,316,0,0,0,0,0,0,0,0,0,-1,1728,708,0,0
511,316,0,0,0,0,0,0,0,0,0,-1,1735,708,0,0
518,316,0,0,0,0,0,0,0,0,0,-1,1742,708,0,0
525,316,0,0,0,0,0,0,0,0,0,-1,1749,708,0,0
532,316,29.7827,-0.348755,0,0,0,0,0,0,0,-1,1756,708,29.7827,0.348765
539,316,30.244,0.411011,0.0652441,0.0819936,0.0716306,0.145737,0.00150036,0.843592,0.096662,0.0470153,1763,708,30.244,-0.410995
546,316,30.9169,1.3739,0.0526315,0.0551453,0.0594103,0.113312,-0.0055352,0.795975,0.0774524,0.0443779,1770,708,30.9169,-1.3739
553,316,31.3058,2.02203,0.0418083,0.0364224,0.0505668,0.0897538,-0.0115231,0.758796,0.0640235,0.0487259,1777,708,31.3057,-2.02206
560,316,31.5681,2.23743,0.0326914,0.0235462,0.0435193,0.0718777,-0.0156401,0.733055,0.0538937,0.0476499,1784,708,31.5681,-2.23745
567,316,31.678,2.43597,0.025797,0.0152417,0.0376265,0.0585142,-0.0174755,0.715721,0.0459559,0.0454822,1791,708,31.678,-2.43595
574,316,31.6531,2.58612,0,0,0,0,0,0,0,-1,1798,708,31.6531,-2.5861
581,316,23.7242,2.23938,0,0,0,0,0,0,0,-1,1805,708,23.7243,-2.23941
588,316,19.7659,2.90198,0,0,0,0,0,0,0,-1,1812,708,19.7659,-2.902
595,316,12.5363,1.50702,0,0,0,0,0,0,0,-1,1819,708,12.5363,-1.50701
602,316,7.79919,0.0422363,0,0,0,0,0,0,0,-1,1826,708,7.79923,-0.0422066
609,316,17.8226,-1.99811,0,0,0,0,0,0,0,-1,1833,708,17.8226,1.99809
616,316,17.9093,-1.60846,0.00203258,-0.00167688,0.00789049,0.00828339,-0.0079277,0.669964,0.00936023,0.0211834,1840,708,17.9093,1.60845
623,316,17.9294,-1.24957,0.00132327,-0.000871577,0.00496364,0.00530936,-0.00485766,0.676602,0.00587186,0.0107757,1847,708,17.9295,1.24956
630,316,17.896,-0.877136,0.000842588,-0.000634593,0.00233284,0.00255097,-0.00234297,0.632088,0.00282637,0.0120146,1854,708,17.896,0.877126
637,316,17.9073,-0.487915,0.000343148,-0.000236314,0.000518941,0.00064776,-0.000540926,0.530797,0.000687212,0.0117301,1861,708,17.9074,0.487914
644,316,17.9272,-0.110779,-0.000600318,-0.000199024,-0.000194267,-0.000120388,-0.000678954,-1.18617,0.000418322,0.0117487,1868,708,17.9272,0.110785
651,316,17.8954,0.269043,-0.00173602,-0.000154937,-0.000825169,0.000197264,-0.00208822,-1.16738,0.00146234,0.0131796,1875,708,17.8953,-0.269025
658,316,17.8523,0.676941,-0.00278891,7.51176e-05,-0.00129808,0.000575896,-0.00328969,-1.20261,0.00240816,0.0230574,1882,708,17.8523,-0.676922
665,316,17.8242,1.05267,-0.00381248,0.000277226,-0.00173679,0.000915255,-0.00445051,-1.21874,0.00331448,0.0175707,1889,708,17.8242,-1.0527
672,316,17.863,1.41101,-0.004668,0.000740337,-0.00205106,0.00143019,-0.00535784,-1.24634,0.00413197,0.0124337,1896,708,17.8631,-1.41103
679,316,17.8651,1.81854,-0.00549492,0.00146249,-0.00230802,0.00215851,-0.00619094,-1.2779,0.00500445,0.019659,1903,708,17.8651,-1.81855
686,316,17.7119,2.10291,-0.00616811,0.00263263,-0.00244648,0.00326699,-0.00680247,-1.31709,0.00593185,0.0331644,1910,708,17.712,-2.10291
693,316,17.5305,2.4184,0,0,0,0,0,0,0,-1,1917,708,17.5305,-2.41838
700,316,12.8749,2.89136,0,0,0,0,0,0,0,-1,1924,708,12.8748,-2.89137
707,316,15.7089,5.41486,0,0,0,0,0,0,0,-1,1931,708,15.7088,-5.41487
714,316,16.1727,5.52045,0,0,0,0,0,0,0,-1,1938,708,16.1728,-5.52042
721,316,16.7094,6.53351,0,0,0,0,0,0,0,-1,1945,708,16.7094,-6.5335
728,316,0,0,0,0,0,0,0,0,0,-1,1952,708,0,0
735,316,0,0,0,0,0,0,0,0,0,-1,1959,708,0,0
742,316,0,0,0,0,0,0,0,0,0,-1,1966,708,0,0
749,316,0,0,0,0,0,0,0,0,0,-1,1973,708,0,0
756,316,0,0,0,0,0,0,0,0,0,-1,1980,708,0,0
763,316,0,0,0,0,0,0,0,0,0,-1,1987,708,0,0
770,316,0,0,0,0,0,0,0,0,0,-1,1994,708,0,0
777,316,0,0,0,0,0,0,0,0,0,-1,2001,708,0,0
784,316,0,0,0,0,0,0,0,0,0,-1,2008,708,0,0
791,316,0,0,0,0,0,0,0,0,0,-1,2015,708,0,0
798,316,0,0,0,0,0,0,0,0,0,-1,2022,708,0,0
805,316,0,0,0,0,0,0,0,0,0,-1,2029,708,0,0
812,316,0,0,0,0,0,0,0,0,0,-1,2036,708,0,0
-700,309,0,0,0,0,0,0,0,0,0,-1,524,715,0,0
-693,309,0,0,0,0,0,0,0,0,0,-1,531,715,0,0
-686,309,0,0,0,0,0,0,0,0,0,-1,538,715,0,0
-679,309,0,0,0,0,0,0,0,0,0,-1,545,715,0,0
-672,309,0,0,0,0,0,0,0,0,0,-1,552,715,0,0
-665,309,0,0,0,0,0,0,0,0,0,-1,559,715,0,0
-658,309,0,0,0,0,0,0,0,0,0,-1,566,715,0,0
-651,309,0,0,0,0,0,0,0,0,0,-1,573,715,0,0
-644,309,0,0,0,0,0,0,0,0,0,-1,580,715,0,0
-637,309,0,0,0,0,0,0,0,0,0,-1,587,715,0,0
-630,309,0,0,0,0,0,0,0,0,0,-1,594,715,0,0
-623,309,0,0,0,0,0,0,0,0,0,-1,601,715,0,0
-616,309,0,0,0,0,0,0,0,0,0,-1,608,715,0,0
-609,309,-5.95392,-3.93689,0,0,0,0,0,0,0,-1,615,715,-5.95392,3.93686
-602,309,-4.99786,-3.31287,0,0,0,0,0,0,0,-1,622,715,-4.99786,3.31284
-595,309,-6.80847,2.4046,0,0,0,0,0,0,0,-1,629,715,-6.80845,-2.40458
-588,309,-6.08795,2.19324,0,0,0,0,0,0,0,-1,636,715,-6.08793,-2.19325
-581,309,-5.97552,1.3277,0,0,0,0,0,0,0,-1,643,715,-5.97552,-1.32769
-574,309,-8.49042,-0.105652,0,0,0,0,0,0,0,-1,650,715,-8.49044,0.105668
-567,309,-8.76874,-0.567627,0,0,0,0,0,0,0,-1,657,715,-8.76876,0.567635
-560,309,-10.3608,-0.307922,0,0,0,0,0,0,0,-1,664,715,-10.3608,0.307903
-553,309,-10.4423,-0.338013,0.00427777,0.00524834,-0.00793876,0.0127166,-0.00319052,-0.815924,0.00971746,0.0348749,671,715,-10.4423,0.338041
-546,309,-10.5204,-0.600586,0.00205562,0.00635816,-0.00750545,0.0120146,-0.00360078,-0.92497,0.00944168,0.0174759,678,715,-10.5204,0.600559
-539,309,-10.4899,-0.975647,0.00178075,0.00460007,-0.00534751,0.0087206,-0.00233978,-0.914272,0.00673062,0.0152981,685,715,-10.4899,0.975667
-532,309,-10.5009,-1.32312,0.00155593,0.00309512,-0.00354674,0.0059548,-0.00130375,-0.892235,0.00446831,0.0125908,692,715,-10.5009,1.32312
-525,309,-10.5205,-1.685,0.00128104,0.00193673,-0.00198591,0.00362167,-0.000403904,-0.867204,0.00255972,0.0150128,699,715,-10.5205,1.685
-518,309,-10.5143,-2.02869,0.00103427,0.00110344,-0.00073822,0.00180789,0.000329828,-0.808805,0.00111175,0.0151313,706,715,-10.5144,2.02866
-511,309,-10.5208,-2.37366,0.000480899,0.00130427,0.000360734,0.00143996,0.000345215,1.21103,0.000868091,0.0128634,713,715,-10.5208,2.37365
-504,309,-10.5276,-2.71765,-0.000515943,0.00255258,0.00137681,0.00307977,-0.00104313,1.20511,0.00247527,0.0109235,720,715,-10.5276,2.71767
-497,309,-10.5291,-3.05743,-0.00164246,0.00437256,0.00221204,0.00509845,-0.00236834,1.25372,0.00440596,0.0145174,727,715,-10.529,3.05746
-490,309,-10.484,-3.4364,-0.00324093,0.00776071,0.00304563,0.00854757,-0.00402778,1.31797,0.00741505,0.0353795,734,715,-10.484,3.43639
-483,309,-10.392,-3.8916,0,0,0,0,0,0,0,-1,741,715,-10.392,3.89158
-476,309,-5.29486,-1.2262,0,0,0,0,0,0,0,-1,748,715,-5.29484,1.22622
-469,309,-4.22717,-0.592896,0,0,0,0,0,0,0,-1,755,715,-4.2272,0.592905
-462,309,-10.428,2.46948,0,0,0,0,0,0,0,-1,762,715,-10.428,-2.46947
-455,309,-15.8216,0.00915527,0,0,0,0,0,0,0,-1,769,715,-15.8216,-0.00913359
-448,309,-19.2673,1.19257,0,0,0,0,0,0,0,-1,776,715,-19.2673,-1.19254
-441,309,-19.8181,1.4425,0,0,0,0,0,0,0,-1,783,715,-19.8181,-1.44249
-434,309,-15.3519,1.06873,0,0,0,0,0,0,0,-1,790,715,-15.3519,-1.06874
-427,309,-15.1996,1.32141,0,0,0,0,0,0,0,-1,797,715,-15.1996,-1.3214
-420,309,-13.3781,3.26843,0,0,0,0,0,0,0,-1,804,715,-13.3781,-3.26842
-413,309,0,0,0,0,0,0,0,0,0,-1,811,715,0,0
-406,309,0,0,0,0,0,0,0,0,0,-1,818,715,0,0
-399,309,0,0,0,0,0,0,0,0,0,-1,825,715,0,0
-392,309,0,0,0,0,0,0,0,0,0,-1,832,715,0,0
-385,309,0,0,0,0,0,0,0,0,0,-1,839,715,0,0
-378,309,0,0,0,0,0,0,0,0,0,-1,846,715,0,0
-371,309,0,0,0,0,0,0,0,0,0,-1,853,715,0,0
-364,309,0,0,0,0,0,0,0,0,0,-1,860,715,0,0
-357,309,0,0,0,0,0,0,0,0,0,-1,867,715,0,0
-350,309,0,0,0,0,0,0,0,0,0,-1,874,715,0,0
-343,309,0,0,0,0,0,0,0,0,0,-1,881,715,0,0
-336,309,0,0,0,0,0,0,0,0,0,-1,888,715,0,0
-329,309,0,0,0,0,0,0,0,0,0,-1,895,715,0,0
-322,309,0,0,0,0,0,0,0,0,0,-1,902,715,0,0
-315,309,0,0,0,0,0,0,0,0,0,-1,909,715,0,0
-308,309,0,0,0,0,0,0,0,0,0,-1,916,715,0,0
-301,309,0,0,0,0,0,0,0,0,0,-1,923,715,0,0
-294,309,0,0,0,0,0,0,0,0,0,-1,930,715,0,0
-287,309,0,0,0,0,0,0,0,0,0,-1,937,715,0,0
-280,309,0,0,0,0,0,0,0,0,0,-1,944,715,0,0
-273,309,0,0,0,0,0,0,0,0,0,-1,951,715,0,0
-266,309,0,0,0,0,0,0,0,0,0,-1,958,715,0,0
-259,309,0,0,0,0,0,0,0,0,0,-1,965,715,0,0
-252,309,0,0,0,0,0,0,0,0,0,-1,972,715,0,0
-245,309,0,0,0,0,0,0,0,0,0,-1,979,715,0,0
-238,309,0,0,0,0,0,0,0,0,0,-1,986,715,0,0
-231,309,0,0,0,0,0,0,0,0,0,-1,993,715,0,0
-224,309,0,0,0,0,0,0,0,0,0,-1,1000,715,0,0
-217,309,0,0,0,0,0,0,0,0,0,-1,1007,715,0,0
-210,309,0,0,0,0,0,0,0,0,0,-1,1014,715,0,0
-203,309,0,0,0,0,0,0,0,0,0,-1,1021,715,0,0
-196,309,0,0,0,0,0,0,0,0,0,-1,1028,715,0,0
-189,309,0,0,0,0,0,0,0,0,0,-1,1035,715,0,0
-182,309,0,0,0,0,0,0,0,0,0,-1,1042,715,0,0
-175,309,0,0,0,0,0,0,0,0,0,-1,1049,715,0,0
-168,309,0,0,0,0,0,0,0,0,0,-1,1056,715,0,0
-161,309,0,0,0,0,0,0,0,0,0,-1,1063,715,0,0
-154,309,0,0,0,0,0,0,0,0,0,-1,1070,715,0,0
-147,309,0,0,0,0,0,0,0,0,0,-1,1077,715,0,0
-140,309,0,0,0,0,0,0,0,0,0,-1,1084,715,0,0
-133,309,0,0,0,0,0,0,0,0,0,-1,1091,715,0,0
-126,309,0,0,0,0,0,0,0,0,0,-1,1098,715,0,0
-119,309,0,0,0,0,0,0,0,0,0,-1,1105,715,0,0
-112,309,0,0,0,0,0,0,0,0,0,-1,1112,715,0,0
-105,309,0,0,0,0,0,0,0,0,0,-1,1119,715,0,0
-98,309,0,0,0,0,0,0,0,0,0,-1,1126,715,0,0
-91,309,0,0,0,0,0,0,0,0,0,-1,1133,715,0,0
-84,309,0,0,0,0,0,0,0,0,0,-1,1140,715,0,0
-77,309,0,0,0,0,0,0,0,0,0,-1,1147,715,0,0
-70,309,0,0,0,0,0,0,0,0,0,-1,1154,715,0,0
-63,309,0,0,0,0,0,0,0,0,0,-1,1161,715,0,0
-56,309,0,0,0,0,0,0,0,0,0,-1,1168,715,0,0
-49,309,0,0,0,0,0,0,0,0,0,-1,1175,715,0,0
-42,309,0,0,0,0,0,0,0,0,0,-1,1182,715,0,0
-35,309,0,0,0,0,0,0,0,0,0,-1,1189,715,0,0
-28,309,0,0,0,0,0,0,0,0,0,-1,1196,715,0,0
-21,309,0,0,0,0,0,0,0,0,0,-1,1203,715,0,0
-14,309,0,0,0,0,0,0,0,0,0,-1,1210,715,0,0
-7,309,0,0,0,0,0,0,0,0,0,-1,1217,715,0,0
0,309,0,0,0,0,0,0,0,0,0,-1,1224,715,0,0
7,309,0,0,0,0,0,0,0,0,0,-1,1231,715,0,0
14,309,0,0,0,0,0,0,0,0,0,-1,1238,715,0,0
21,309,0,0,0,0,0,0,0,0,0,-1,1245,715,0,0
28,309,0,0,0,0,0,0,0,0,0,-1,1252,715,0,0
35,309,0,0,0,0,0,0,0,0,0,-1,1259,715,0,0
42,309,0,0,0,0,0,0,0,0,0,-1,1266,715,0,0
49,309,0,0,0,0,0,0,0,0,0,-1,1273,715,0,0
56,309,0,0,0,0,0,0,0,0,0,-1,1280,715,0,0
63,309,0,0,0,0,0,0,0,0,0,-1,1287,715,0,0
70,309,0,0,0,0,0,0,0,0,0,-1,1294,715,0,0
77,309,0,0,0,0,0,0,0,0,0,-1,1301,715,0,0
84,309,0,0,0,0,0,0,0,0,0,-1,1308,715,0,0
91,309,0,0,0,0,0,0,0,0,0,-1,1315,715,0,0
98,309,0,0,0,0,0,0,0,0,0,-1,1322,715,0,0
105,309,0,0,0,0,0,0,0,0,0,-1,1329,715,0,0
112,309,0,0,0,0,0,0,0,0,0,-1,1336,715,0,0
119,309,0,0,0,0,0,0,0,0,0,-1,1343,715,0,0
126,309,0,0,0,0,0,0,0,0,0,-1,1350,715,0,0
133,309,0,0,0,0,0,0,0,0,0,-1,1357,715,0,0
140,309,0,0,0,0,0,0,0,0,0,-1,1364,715,0,0
147,309,0,0,0,0,0,0,0,0,0,-1,1371,715,0,0
154,309,0,0,0,0,0,0,0,0,0,-1,1378,715,0,0
161,309,0,0,0,0,0,0,0,0,0,-1,1385,715,0,0
168,309,0,0,0,0,0,0,0,0,0,-1,1392,715,0,0
175,309,0,0,0,0,0,0,0,0,0,-1,1399,715,0,0
182,309,0,0,0,0,0,0,0,0,0,-1,1406,715,0,0
189,309,0,0,0,0,0,0,0,0,0,-1,1413,715,0,0
196,309,0,0,0,0,0,0,0,0,0,-1,1420,715,0,0
203,309,0,0,0,0,0,0,0,0,0,-1,1427,715,0,0
210,309,0,0,0,0,0,0,0,0,0,-1,1434,715,0,0
217,309,0,0,0,0,0,0,0,0,0,-1,1441,715,0,0
224,309,0,0,0,0,0,0,0,0,0,-1,1448,715,0,0
231,309,0,0,0,0,0,0,0,0,0,-1,1455,715,0,0
238,309,0,0,0,0,0,0,0,0,0,-1,1462,715,0,0
245,309,0,0,0,0,0,0,0,0,0,-1,1469,715,0,0
252,309,0,0,0,0,0,0,0,0,0,-1,1476,715,0,0
259,309,0,0,0,0,0,0,0,0,0,-1,1483,715,0,0
266,309,0,0,0,0,0,0,0,0,0,-1,1490,715,0,0
273,309,0,0,0,0,0,0,0,0,0,-1,1497,715,0,0
280,309,0,0,0,0,0,0,0,0,0,-1,1504,715,0,0
287,309,0,0,0,0,0,0,0,0,0,-1,1511,715,0,0
294,309,0,0,0,0,0,0,0,0,0,-1,1518,715,0,0
301,309,0,0,0,0,0,0,0,0,0,-1,1525,715,0,0
308,309,0,0,0,0,0,0,0,0,0,-1,1532,715,0,0
315,309,0,0,0,0,0,0,0,0,0,-1,1539,715,0,0
322,309,0,0,0,0,0,0,0,0,0,-1,1546,715,0,0
329,309,0,0,0,0,0,0,0,0,0,-1,1553,715,0,0
336,309,0,0,0,0,0,0,0,0,0,-1,1560,715,0,0
343,309,0,0,0,0,0,0,0,0,0,-1,1567,715,0,0
350,309,0,0,0,0,0,0,0,0,0,-1,1574,715,0,0
357,309,0,0,0,0,0,0,0,0,0,-1,1581,715,0,0
364,309,0,0,0,0,0,0,0,0,0,-1,1588,715,0,0
371,309,0,0,0,0,0,0,0,0,0,-1,1595,715,0,0
378,309,0,0,0,0,0,0,0,0,0,-1,1602,715,0,0
385,309,0,0,0,0,0,0,0,0,0,-1,1609,715,0,0
392,309,0,0,0,0,0,0,0,0,0,-1,1616,715,0,0
399,309,0,0,0,0,0,0,0,0,0,-1,1623,715,0,0
406,309,0,0,0,0,0,0,0,0,0,-1,1630,715,0,0
413,309,0,0,0,0,0,0,0,0,0,-1,1637,715,0,0
420,309,0,0,0,0,0,0,0,0,0,-1,1644,715,0,0
427,309,0,0,0,0,0,0,0,0,0,-1,1651,715,0,0
434,309,0,0,0,0,0,0,0,0,0,-1,1658,715,0,0
441,309,0,0,0,0,0,0,0,0,0,-1,1665,715,0,0
448,309,0,0,0,0,0,0,0,0,0,-1,1672,715,0,0
455,309,0,0,0,0,0,0,0,0,0,-1,1679,715,0,0
462,309,0,0,0,0,0,0,0,0,0,-1,1686,715,0,0
469,309,0,0,0,0,0,0,0,0,0,-1,1693,715,0,0
476,309,0,0,0,0,0,0,0,0,0,-1,1700,715,0,0
483,309,0,0,0,0,0,0,0,0,0,-1,1707,715,0,0
490,309,0,0,0,0,0,0,0,0,0,-1,1714,715,0,0
497,309,0,0,0,0,0,0,0,0,0,-1,1721,715,0,0
504,309,0,0,0,0,0,0,0,0,0,-1,1728,715,0,0
511,309,0,0,0,0,0,0,0,0,0,-1,1735,715,0,0
518,309,0,0,0,0,0,0,0,0,0,-1,1742,715,0,0
525,309,0,0,0,0,0,0,0,0,0,-1,1749,715,0,0
532,309,0,0,0,0,0,0,0,0,0,-1,1756,715,0,0
539,309,29.558,-0.372131,0,0,0,0,0,0,0,-1,1763,715,29.5579,0.37212
546,309,30.2388,0.724365,0,0,0,0,0,0,0,-1,1770,715,30.2388,-0.724367
553,309,31.1014,1.98254,0,0,0,0,0,0,0,-1,1777,715,31.1014,-1.98252
560,309,31.3149,2.21631,0.0298468,0.0199686,0.0443071,0.0694893,-0.0196739,0.72989,0.0540902,0.0478684,1784,715,31.315,-2.21631
567,309,31.507,2.43134,0.0232341,0.011795,0.0384387,0.0563764,-0.0213473,0.711541,0.0463681,0.0451265,1791,715,31.507,-2.43134
574,309,31.6196,2.57861,0.0181869,0.00686732,0.033246,0.0462515,-0.0211973,0.701087,0.039827,0.0438896,1798,715,31.6196,-2.5786
581,309,31.8365,2.90393,0,0,0,0,0,0,0,-1,1805,715,31.8365,-2.90396
588,309,24.2113,3.86719,0,0,0,0,0,0,0,-1,1812,715,24.2113,-3.86717
595,309,19.585,3.71558,0,0,0,0,0,0,0,-1,1819,715,19.5849,-3.71555
602,309,11.0811,3.47772,0,0,0,0,0,0,0,-1,1826,715,11.0811,-3.47772
609,309,18.0275,-2.01184,0,0,0,0,0,0,0,-1,1833,715,18.0274,2.01181
616,309,18.2111,-1.61652,0.00180266,-0.00252033,0.00938591,0.00927275,-0.00999042,0.672226,0.0111242,0.0312966,1840,715,18.211,1.61649
623,309,18.3136,-1.24274,0.00116667,-0.00159665,0.00640452,0.00633687,-0.00676685,0.67916,0.00756679,0.0110185,1847,715,18.3136,1.24271
630,309,18.2832,-0.863708,0.000922613,-0.00124655,0.0034915,0.00349411,-0.00381805,0.634806,0.00422306,0.00996419,1854,715,18.2832,0.863727
637,309,18.269,-0.47821,0.000755376,-0.000581836,0.00131836,0.00156498,-0.00139144,0.550722,0.00170787,0.0129812,1861,715,18.2691,0.478211
644,309,18.2511,-0.098877,0.000121918,-0.00032302,0.000458447,0.000409023,-0.000610125,0.559502,0.000592212,0.0141312,1868,715,18.251,0.0988774
651,309,18.2498,0.280579,-0.000781045,-2.61819e-05,-0.000267972,5.92725e-05,-0.0008665,-1.2621,0.000598403,0.0129737,1875,715,18.2497,-0.280556
658,309,18.2587,0.671692,-0.00160061,0.000336339,-0.00073576,0.000584123,-0.0018484,-1.24595,0.00146628,0.0193279,1882,715,18.2587,-0.671688
665,309,18.2618,1.03497,-0.00227725,0.000634396,-0.00106708,0.000983587,-0.00262644,-1.25454,0.00215499,0.0170754,1889,715,18.2618,-1.035
672,309,18.2501,1.40369,-0.00257663,0.00118825,-0.00115277,0.00151317,-0.00290156,-1.29606,0.00259052,0.0151168,1896,715,18.2501,-1.4037
679,309,18.2665,1.80029,-0.00279861,0.00197648,-0.00116538,0.00224571,-0.00306784,-1.34375,0.00308,0.0161571,1903,715,18.2665,-1.80032
686,309,18.1853,2.20032,-0.00263115,0.00317148,-0.000998411,0.00333847,-0.00279813,-1.40508,0.00354754,0.022958,1910,715,18.1853,-2.20029
693,309,17.7458,2.7439,-0.00161021,0.00486179,-0.000360419,0.0048818,-0.00163022,-1.51534,0.00391283,0.0422472,1917,715,17.7459,-2.7439
700,309,17.3839,3.48291,0,0,0,0,0,0,0,-1,1924,715,17.3839,-3.48291
707,309,15.6318,4.58655,0,0,0,0,0,0,0,-1,1931,715,15.6318,-4.58657
714,309,16.7573,6.68286,0,0,0,0,0,0,0,-1,1938,715,16.7574,-6.68284
721,309,16.8337,5.4458,0,0,0,0,0,0,0,-1,1945,715,16.8338,-5.44582
728,309,0,0,0,0,0,0,0,0,0,-1,1952,715,0,0
735,309,0,0,0,0,0,0,0,0,0,-1,1959,715,0,0
742,309,0,0,0,0,0,0,0,0,0,-1,1966,715,0,0
749,309,0,0,0,0,0,0,0,0,0,-1,1973,715,0,0
756,309,0,0,0,0,0,0,0,0,0,-1,1980,715,0,0
763,309,0,0,0,0,0,0,0,0,0,-1,1987,715,0,0
770,309,0,0,0,0,0,0,0,0,0,-1,1994,715,0,0
777,309,0,0,0,0,0,0,0,0,0,-1,2001,715,0,0
784,309,0,0,0,0,0,0,0,0,0,-1,2008,715,0,0
791,309,0,0,0,0,0,0,0,0,0,-1,2015,715,0,0
798,309,0,0,0,0,0,0,0,0,0,-1,2022,715,0,0
805,309,0,0,0,0,0,0,0,0,0,-1,2029,715,0,0
812,309,0,0,0,0,0,0,0,0,0,-1,2036,715,0,0
-700,302,0,0,0,0,0,0,0,0,0,-1,524,722,0,0
-693,302,0,0,0,0,0,0,0,0,0,-1,531,722,0,0
-686,302,0,0,0,0,0,0,0,0,0,-1,538,722,0,0
-679,302,0,0,0,0,0,0,0,0,0,-1,545,722,0,0
-672,302,0,0,0,0,0,0,0,0,0,-1,552,722,0,0
-665,302,0,0,0,0,0,0,0,0,0,-1,559,722,0,0
-658,302,0,0,0,0,0,0,0,0,0,-1,566,722,0,0
-651,302,0,0,0,0,0,0,0,0,0,-1,573,722,0,0
-644,302,0,0,0,0,0,0,0,0,0,-1,580,722,0,0
-637,302,0,0,0,0,0,0,0,0,0,-1,587,722,0,0
-630,302,0,0,0,0,0,0,0,0,0,-1,594,722,0,0
-623,302,0,0,0,0,0,0,0,0,0,-1,601,722,0,0
-616,302,0,0,0,0,0,0,0,0,0,-1,608,722,0,0
-609,302,-7.79266,-3.71649,0,0,0,0,0,0,0,-1,615,722,-7.79267,3.7165
-602,302,0.92865,-1.99158,0,0,0,0,0,0,0,-1,622,722,0.928637,1.99157
-595,302,-7.89941,2.13641,0,0,0,0,0,0,0,-1,629,722,-7.89939,-2.13639
-588,302,-7.10895,1.79163,0,0,0,0,0,0,0,-1,636,722,-7.10896,-1.79163
-581,302,-8.59845,0.402344,0,0,0,0,0,0,0,-1,643,722,-8.59848,-0.402343
-574,302,-10.226,1.27588,0,0,0,0,0,0,0,-1,650,722,-10.2259,-1.27587
-567,302,-10.1584,-0.215515,0,0,0,0,0,0,0,-1,657,722,-10.1584,0.215504
-560,302,-10.5515,-0.208435,0.00730538,-0.00101034,-0.00253233,0.00801583,-0.00172079,-0.273522,0.00600031,0.049162,664,722,-10.5515,0.208412
-553,302,-10.868,-0.237427,0.00243252,0.00272031,-0.00399949,0.00657849,-0.00142567,-0.80338,0.00493008,0.0201399,671,722,-10.868,0.23743
-546,302,-10.847,-0.626038,0.000482273,0.00448639,-0.00456464,0.00746873,-0.00250006,-0.992066,0.00598904,0.0146947,678,722,-10.847,0.626037
-539,302,-10.8627,-0.936035,0.000512009,0.00303212,-0.00304237,0.00506505,-0.00152093,-0.981728,0.00398171,0.0149281,685,722,-10.8627,0.936063
-532,302,-10.8785,-1.28656,0.000552023,0.00187755,-0.00176812,0.00310303,-0.000673466,-0.964714,0.00232591,0.0143488,692,722,-10.8786,1.28659
-525,302,-10.8444,-1.6853,0.00051202,0.00116165,-0.000606075,0.00152446,0.000149208,-1.03139,0.000970404,0.0190387,699,722,-10.8444,1.68528
-518,302,-10.8622,-2.0246,0.000378395,0.000905135,0.00032957,0.00106364,0.000219888,1.1225,0.000648349,0.0196587,706,722,-10.8622,2.02459
-511,302,-10.8762,-2.35291,-0.000351464,0.00193622,0.00121419,0.0024605,-0.000875743,1.16319,0.00199731,0.0109181,713,722,-10.8762,2.35288
-504,302,-10.8746,-2.71265,-0.00168405,0.00415701,0.00220243,0.00489438,-0.00242141,1.24773,0.00430346,0.0103409,720,722,-10.8746,2.71267
-497,302,-10.8849,-3.04242,-0.00323497,0.00693285,0.00309777,0.00780229,-0.0041044,1.29717,0.00698397,0.0148642,727,722,-10.885,3.04243
-490,302,-10.776,-3.42316,0,0,0,0,0,0,0,-1,734,722,-10.776,3.42316
-483,302,-9.53412,-3.1673,0,0,0,0,0,0,0,-1,741,722,-9.53411,3.1673
-476,302,-4.29749,-0.203491,0,0,0,0,0,0,0,-1,748,722,-4.29751,0.203464
-469,302,-12.369,1.42859,0,0,0,0,0,0,0,-1,755,722,-12.3689,-1.42857
-462,302,-17.4766,0.310791,0,0,0,0,0,0,0,-1,762,722,-17.4766,-0.310788
-455,302,-17.8736,1.4895,0,0,0,0,0,0,0,-1,769,722,-17.8736,-1.48952
-448,302,-18.4984,1.81525,0,0,0,0,0,0,0,-1,776,722,-18.4984,-1.81528
-441,302,-19.3027,1.54785,0,0,0,0,0,0,0,-1,783,722,-19.3027,-1.54786
-434,302,-19.7321,1.78467,0,0,0,0,0,0,0,-1,790,722,-19.732,-1.78469
-427,302,-15.3611,1.80798,0,0,0,0,0,0,0,-1,797,722,-15.3611,-1.80801
-420,302,0,0,0,0,0,0,0,0,0,-1,804,722,0,0
-413,302,0,0,0,0,0,0,0,0,0,-1,811,722,0,0
-406,302,0,0,0,0,0,0,0,0,0,-1,818,722,0,0
-399,302,0,0,0,0,0,0,0,0,0,-1,825,722,0,0
-392,302,0,0,0,0,0,0,0,0,0,-1,832,722,0,0
-385,302,0,0,0,0,0,0,0,0,0,-1,839,722,0,0
-378,302,0,0,0,0,0,0,0,0,0,-1,846,722,0,0
-371,302,0,0,0,0,0,0,0,0,0,-1,853,722,0,0
-364,302,0,0,0,0,0,0,0,0,0,-1,860,722,0,0
-357,302,0,0,0,0,0,0,0,0,0,-1,867,722,0,0
-350,302,0,0,0,0,0,0,0,0,0,-1,874,722,0,0
-343,302,0,0,0,0,0,0,0,0,0,-1,881,722,0,0
-336,302,0,0,0,0,0,0,0,0,0,-1,888,722,0,0
-329,302,0,0,0,0,0,0,0,0,0,-1,895,722,0,0
-322,302,0,0,0,0,0,0,0,0,0,-1,902,722,0,0
-315,302,0,0,0,0,0,0,0,0,0,-1,909,722,0,0
-308,302,0,0,0,0,0,0,0,0,0,-1,916,722,0,0
-301,302,0,0,0,0,0,0,0,0,0,-1,923,722,0,0
-294,302,0,0,0,0,0,0,0,0,0,-1,930,722,0,0
-287,302,0,0,0,0,0,0,0,0,0,-1,937,722,0,0
-280,302,0,0,0,0,0,0,0,0,0,-1,944,722,0,0
-273,302,0,0,0,0,0,0,0,0,0,-1,951,722,0,0
-266,302,0,0,0,0,0,0,0,0,0,-1,958,722,0,0
-259,302,0,0,0,0,0,0,0,0,0,-1,965,722,0,0
-252,302,0,0,0,0,0,0,0,0,0,-1,972,722,0,0
-245,302,0,0,0,0,0,0,0,0,0,-1,979,722,0,0
-238,302,0,0,0,0,0,0,0,0,0,-1,986,722,0,0
-231,302,0,0,0,0,0,0,0,0,0,-1,993,722,0,0
-224,302,0,0,0,0,0,0,0,0,0,-1,1000,722,0,0
-217,302,0,0,0,0,0,0,0,0,0,-1,1007,722,0,0
-210,302,0,0,0,0,0,0,0,0,0,-1,1014,722,0,0
-203,302,0,0,0,0,0,0,0,0,0,-1,1021,722,0,0
-196,302,0,0,0,0,0,0,0,0,0,-1,1028,722,0,0
-189,302,0,0,0,0,0,0,0,0,0,-1,1035,722,0,0
-182,302,0,0,0,0,0,0,0,0,0,-1,1042,722,0,0
-175,302,0,0,0,0,0,0,0,0,0,-1,1049,722,0,0
-168,302,0,0,0,0,0,0,0,0,0,-1,1056,722,0,0
-161,302,0,0,0,0,0,0,0,0,0,-1,1063,722,0,0
-154,302,0,0,0,0,0,0,0,0,0,-1,1070,722,0,0
-147,302,0,0,0,0,0,0,0,0,0,-1,1077,722,0,0
-140,302,0,0,0,0,0,0,0,0,0,-1,1084,722,0,0
-133,302,0,0,0,0,0,0,0,0,0,-1,1091,722,0,0
-126,302,0,0,0,0,0,0,0,0,0,-1,1098,722,0,0
-119,302,0,0,0,0,0,0,0,0,0,-1,1105,722,0,0
-112,302,0,0,0,0,0,0,0,0,0,-1,1112,722,0,0
-105,302,0,0,0,0,0,0,0,0,0,-1,1119,722,0,0
-98,302,0,0,0,0,0,0,0,0,0,-1,1126,722,0,0
-91,302,0,0,0,0,0,0,0,0,0,-1,1133,722,0,0
-84,302,0,0,0,0,0,0,0,0,0,-1,1140,722,0,0
-77,302,0,0,0,0,0,0,0,0,0,-1,1147,722,0,0
-70,302,0,0,0,0,0,0,0,0,0,-1,1154,722,0,0
-63,302,0,0,0,0,0,0,0,0,0,-1,1161,722,0,0
-56,302,0,0,0,0,0,0,0,0,0,-1,1168,722,0,0
-49,302,0,0,0,0,0,0,0,0,0,-1,1175,722,0,0
-42,302,0,0,0,0,0,0,0,0,0,-1,1182,722,0,0
-35,302,0,0,0,0,0,0,0,0,0,-1,1189,722,0,0
-28,302,0,0,0,0,0,0,0,0,0,-1,1196,722,0,0
-21,302,0,0,0,0,0,0,0,0,0,-1,1203,722,0,0
-14,302,0,0,0,0,0,0,0,0,0,-1,1210,722,0,0
-7,302,0,0,0,0,0,0,0,0,0,-1,1217,722,0,0
0,302,0,0,0,0,0,0,0,0,0,-1,1224,722,0,0
7,302,0,0,0,0,0,0,0,0,0,-1,1231,722,0,0
14,302,0,0,0,0,0,0,0,0,0,-1,1238,722,0,0
21,302,0,0,0,0,0,0,0,0,0,-1,1245,722,0,0
28,302,0,0,0,0,0,0,0,0,0,-1,1252,722,0,0
35,302,0,0,0,0,0,0,0,0,0,-1,1259,722,0,0
42,302,0,0,0,0,0,0,0,0,0,-1,1266,722,0,0
49,302,0,0,0,0,0,0,0,0,0,-1,1273,722,0,0
56,302,0,0,0,0,0,0,0,0,0,-1,1280,722,0,0
63,302,0,0,0,0,0,0,0,0,0,-1,1287,722,0,0
70,302,0,0,0,0,0,0,0,0,0,-1,1294,722,0,0
77,302,0,0,0,0,0,0,0,0,0,-1,1301,722,0,0
84,302,0,0,0,0,0,0,0,0,0,-1,1308,722,0,0
91,302,0,0,0,0,0,0,0,0,0,-1,1315,722,0,0
98,302,0,0,0,0,0,0,0,0,0,-1,1322,722,0,0
105,302,0,0,0,0,0,0,0,0,0,-1,1329,722,0,0
112,302,0,0,0,0,0,0,0,0,0,-1,1336,722,0,0
119,302,0,0,0,0,0,0,0,0,0,-1,1343,722,0,0
126,302,0,0,0,0,0,0,0,0,0,-1,1350,722,0,0
133,302,0,0,0,0,0,0,0,0,0,-1,1357,722,0,0
140,302,0,0,0,0,0,0,0,0,0,-1,1364,722,0,0
147,302,0,0,0,0,0,0,0,0,0,-1,1371,722,0,0
154,302,0,0,0,0,0,0,0,0,0,-1,1378,722,0,0
161,302,0,0,0,0,0,0,0,0,0,-1,1385,722,0,0
168,302,0,0,0,0,0,0,0,0,0,-1,1392,722,0,0
175,302,0,0,0,0,0,0,0,0,0,-1,1399,722,0,0
182,302,0,0,0,0,0,0,0,0,0,-1,1406,722,0,0
189,302,0,0,0,0,0,0,0,0,0,-1,1413,722,0,0
196,302,0,0,0,0,0,0,0,0,0,-1,1420,722,0,0
203,302,0,0,0,0,0,0,0,0,0,-1,1427,722,0,0
210,302,0,0,0,0,0,0,0,0,0,-1,1434,722,0,0
217,302,0,0,0,0,0,0,0,0,0,-1,1441,722,0,0
224,302,0,0,0,0,0,0,0,0,0,-1,1448,722,0,0
231,302,0,0,0,0,0,0,0,0,0,-1,1455,722,0,0
238,302,0,0,0,0,0,0,0,0,0,-1,1462,722,0,0
245,302,0,0,0,0,0,0,0,0,0,-1,1469,722,0,0
252,302,0,0,0,0,0,0,0,0,0,-1,1476,722,0,0
259,302,0,0,0,0,0,0,0,0,0,-1,1483,722,0,0
266,302,0,0,0,0,0,0,0,0,0,-1,1490,722,0,0
273,302,0,0,0,0,0,0,0,0,0,-1,1497,722,0,0
280,302,0,0,0,0,0,0,0,0,0,-1,1504,722,0,0
287,302,0,0,0,0,0,0,0,0,0,-1,1511,722,0,0
294,302,0,0,0,0,0,0,0,0,0,-1,1518,722,0,0
301,302,0,0,0,0,0,0,0,0,0,-1,1525,722,0,0
308,302,0,0,0,0,0,0,0,0,0,-1,1532,722,0,0
315,302,0,0,0,0,0,0,0,0,0,-1,1539,722,0,0
322,302,0,0,0,0,0,0,0,0,0,-1,1546,722,0,0
329,302,0,0,0,0,0,0,0,0,0,-1,1553,722,0,0
336,302,0,0,0,0,0,0,0,0,0,-1,1560,722,0,0
343,302,0,0,0,0,0,0,0,0,0,-1,1567,722,0,0
350,302,0,0,0,0,0,0,0,0,0,-1,1574,722,0,0
357,302,0,0,0,0,0,0,0,0,0,-1,1581,722,0,0
364,302,0,0,0,0,0,0,0,0,0,-1,1588,722,0,0
371,302,0,0,0,0,0,0,0,0,0,-1,1595,722,0,0
378,302,0,0,0,0,0,0,0,0,0,-1,1602,722,0,0
385,302,0,0,0,0,0,0,0,0,0,-1,1609,722,0,0
392,302,0,0,0,0,0,0,0,0,0,-1,1616,722,0,0
399,302,0,0,0,0,0,0,0,0,0,-1,1623,722,0,0
406,302,0,0,0,0,0,0,0,0,0,-1,1630,722,0,0
413,302,0,0,0,0,0,0,0,0,0,-1,1637,722,0,0
420,302,0,0,0,0,0,0,0,0,0,-1,1644,722,0,0
427,302,0,0,0,0,0,0,0,0,0,-1,1651,722,0,0
434,302,0,0,0,0,0,0,0,0,0,-1,1658,722,0,0
441,302,0,0,0,0,0,0,0,0,0,-1,1665,722,0,0
448,302,0,0,0,0,0,0,0,0,0,-1,1672,722,0,0
455,302,0,0,0,0,0,0,0,0,0,-1,1679,722,0,0
462,302,0,0,0,0,0,0,0,0,0,-1,1686,722,0,0
469,302,0,0,0,0,0,0,0,0,0,-1,1693,722,0,0
476,302,0,0,0,0,0,0,0,0,0,-1,1700,722,0,0
483,302,0,0,0,0,0,0,0,0,0,-1,1707,722,0,0
490,302,0,0,0,0,0,0,0,0,0,-1,1714,722,0,0
497,302,0,0,0,0,0,0,0,0,0,-1,1721,722,0,0
504,302,0,0,0,0,0,0,0,0,0,-1,1728,722,0,0
511,302,0,0,0,0,0,0,0,0,0,-1,1735,722,0,0
518,302,0,0,0,0,0,0,0,0,0,-1,1742,722,0,0
525,302,0,0,0,0,0,0,0,0,0,-1,1749,722,0,0
532,302,0,0,0,0,0,0,0,0,0,-1,1756,722,0,0
539,302,0,0,0,0,0,0,0,0,0,-1,1763,722,0,0
546,302,30.7535,2.22107,0,0,0,0,0,0,0,-1,1770,722,30.7535,-2.22108
553,302,30.8698,2.26953,0,0,0,0,0,0,0,-1,1777,722,30.8697,-2.26954
560,302,31.0348,2.45898,0.0270964,0.0183755,0.0434817,0.0664358,-0.0209639,0.735424,0.0526875,0.0456177,1784,722,31.0348,-2.45898
567,302,31.1563,2.36676,0.0206228,0.00928605,0.0381173,0.0534909,-0.023582,0.711585,0.0456012,0.0451133,1791,722,31.1562,-2.36675
574,302,31.2598,2.50085,0.015963,0.00452559,0.0331534,0.0438873,-0.0233987,0.699992,0.0394433,0.0428785,1798,722,31.2598,-2.50088
581,302,31.384,2.91766,0.0124194,0.00190698,0.0285743,0.0362169,-0.0218905,0.694441,0.0338865,0.0476721,1805,722,31.384,-2.91766
588,302,31.5247,3.32068,0,0,0,0,0,0,0,-1,1812,722,31.5246,-3.32069
595,302,26.5759,7.33228,0,0,0,0,0,0,0,-1,1819,722,26.5759,-7.3323
602,302,14.7349,5.21246,0,0,0,0,0,0,0,-1,1826,722,14.7349,-5.21247
609,302,11.1578,-0.125854,0,0,0,0,0,0,0,-1,1833,722,11.1579,0.125839
616,302,18.502,-1.60077,0,0,0,0,0,0,0,-1,1840,722,18.502,1.60074
623,302,18.7139,-1.23682,0.000953253,-0.00205526,0.00731708,0.0069191,-0.00802111,0.68402,0.00863355,0.0150656,1847,722,18.7138,1.23683
630,302,18.6704,-0.852356,0.000821684,-0.00169499,0.0044393,0.00417754,-0.00505085,0.647294,0.00533596,0.0103828,1854,722,18.6704,0.852345
637,302,18.6169,-0.46283,0.000853345,-0.000918579,0.00212068,0.00226569,-0.00233092,0.587531,0.00265394,0.0132368,1861,722,18.6169,0.462814
644,302,18.6113,-0.09729,0.000453101,-0.000502093,0.00112811,0.00120055,-0.00124954,0.585157,0.00141465,0.0145723,1868,722,18.6113,0.0972738
651,302,18.624,0.288635,-0.000258936,2.87488e-05,0.000260303,0.000182309,-0.000412496,1.03782,0.000351878,0.0138127,1875,722,18.624,-0.28864
658,302,18.657,0.655273,-0.000897798,0.000496563,-0.000279264,0.000550414,-0.00095165,-1.3803,0.00087747,0.0143564,1882,722,18.657,-0.655285
665,302,18.6422,1.02124,-0.00134865,0.000857554,-0.000606692,0.00101338,-0.00150448,-1.31938,0.00146288,0.0140213,1889,722,18.6422,-1.02125
672,302,18.6184,1.39368,-0.00128334,0.00143055,-0.000561384,0.00154209,-0.00139488,-1.37466,0.00169637,0.0116309,1896,722,18.6184,-1.39369
679,302,18.6217,1.78925,-0.0010093,0.00214739,-0.000430953,0.00220517,-0.00106708,-1.43752,0.00192694,0.00948772,1903,722,18.6217,-1.78924
686,302,18.6276,2.17456,-0.000134876,0.00309204,-0.000108534,0.00309569,-0.000138523,-1.53721,0.00211148,0.0145032,1910,722,18.6275,-2.17455
693,302,18.3533,2.49255,0.0016964,0.00439796,0.000659956,0.00455056,0.0015438,1.34356,0.00267214,0.0381562,1917,722,18.3533,-2.49252
700,302,18.3027,2.71564,0,0,0,0,0,0,0,-1,1924,722,18.3027,-2.71562
707,302,16.7321,4.76685,0,0,0,0,0,0,0,-1,1931,722,16.7321,-4.76687
714,302,17.2,5.77594,0,0,0,0,0,0,0,-1,1938,722,17.2,-5.77595
721,302,17.7914,6.60394,0,0,0,0,0,0,0,-1,1945,722,17.7914,-6.60395
728,302,17.2798,4.81702,0,0,0,0,0,0,0,-1,1952,722,17.2798,-4.81703
735,302,0,0,0,0,0,0,0,0,0,-1,1959,722,0,0
742,302,0,0,0,0,0,0,0,0,0,-1,1966,722,0,0
749,302,0,0,0,0,0,0,0,0,0,-1,1973,722,0,0
756,302,0,0,0,0,0,0,0,0,0,-1,1980,722,0,0
763,302,0,0,0,0,0,0,0,0,0,-1,1987,722,0,0
770,302,0,0,0,0,0,0,0,0,0,-1,1994,722,0,0
777,302,0,0,0,0,0,0,0,0,0,-1,2001,722,0,0
784,302,0,0,0,0,0,0,0,0,0,-1,2008,722,0,0
791,302,0,0,0,0,0,0,0,0,0,-1,2015,722,0,0
798,302,0,0,0,0,0,0,0,0,0,-1,2022,722,0,0
805,302,0,0,0,0,0,0,0,0,0,-1,2029,722,0,0
812,302,0,0,0,0,0,0,0,0,0,-1,2036,722,0,0
-700,295,0,0,0,0,0,0,0,0,0,-1,524,729,0,0
-693,295,0,0,0,0,0,0,0,0,0,-1,531,729,0,0
-686,295,0,0,0,0,0,0,0,0,0,-1,538,729,0,0
-679,295,0,0,0,0,0,0,0,0,0,-1,545,729,0,0
-672,295,0,0,0,0,0,0,0,0,0,-1,552,729,0,0
-665,295,0,0,0,0,0,0,0,0,0,-1,559,729,0,0
-658,295,0,0,0,0,0,0,0,0,0,-1,566,729,0,0
-651,295,0,0,0,0,0,0,0,0,0,-1,573,729,0,0
-644,295,0,0,0,0,0,0,0,0,0,-1,580,729,0,0
-637,295,0,0,0,0,0,0,0,0,0,-1,587,729,0,0
-630,295,0,0,0,0,0,0,0,0,0,-1,594,729,0,0
-623,295,0,0,0,0,0,0,0,0,0,-1,601,729,0,0
-616,295,-13.4911,1.31738,0,0,0,0,0,0,0,-1,608,729,-13.4911,-1.3174
-609,295,-10.2864,0.832031,0,0,0,0,0,0,0,-1,615,729,-10.2863,-0.832034
-602,295,-8.19006,3.01587,0,0,0,0,0,0,0,-1,622,729,-8.19005,-3.01588
-595,295,-0.615479,-1.95447,0,0,0,0,0,0,0,-1,629,729,-0.615481,1.95445
-588,295,-7.98999,1.56903,0,0,0,0,0,0,0,-1,636,729,-7.98997,-1.56905
-581,295,-10.6429,1.66199,0,0,0,0,0,0,0,-1,643,729,-10.6429,-1.66196
-574,295,-10.7398,1.15045,0,0,0,0,0,0,0,-1,650,729,-10.7398,-1.15047
-567,295,-11.0726,0.496643,0,0,0,0,0,0,0,-1,657,729,-11.0726,-0.496661
-560,295,-11.1859,0.0655518,0.00549925,-0.00328756,0.000902712,0.00559103,-0.00337934,0.101325,0.00523125,0.029385,664,729,-11.1858,-0.0655532
-553,295,-11.1537,-0.28363,0.000867584,0.000755816,-0.00110885,0.00192196,-0.000298561,-0.76022,0.00139154,0.0170295,671,729,-11.1538,0.283624
-546,295,-11.2272,-0.622437,-0.000839844,0.00290786,-0.00228616,0.00399,-0.00192198,-1.1287,0.00348219,0.0196642,678,729,-11.2272,0.622444
-539,295,-11.2485,-0.923096,-0.000594164,0.00166892,-0.00120881,0.00219316,-0.00111841,-1.16159,0.00194521,0.0185055,685,729,-11.2485,0.923105
-532,295,-11.2543,-1.26062,-0.000364728,0.000824211,-0.000275356,0.000884887,-0.000425403,-1.35391,0.000771845,0.0155491,692,729,-11.2543,1.26063
-525,295,-11.2191,-1.63678,-0.00020378,0.000539753,0.000625386,0.000895529,-0.000559556,1.05357,0.000847525,0.0146254,699,729,-11.2191,1.63677
-518,295,-11.2031,-1.9884,-0.000272342,0.000900185,0.00134932,0.0017851,-0.00115726,0.990338,0.00171161,0.0110495,706,729,-11.2031,1.98838
-511,295,-11.2067,-2.33228,-0.00121438,0.00281148,0.0020677,0.00368425,-0.00208715,1.17139,0.00337438,0.00940183,713,729,-11.2067,2.33229
-504,295,-11.2267,-2.6947,-0.00283206,0.00598808,0.00307618,0.00695496,-0.00379895,1.26626,0.00629727,0.0108596,720,729,-11.2267,2.69469
-497,295,-11.264,-2.99847,-0.00468982,0.00972102,0.00399703,0.0107554,-0.0057242,1.31756,0.00966117,0.0187553,727,729,-11.2641,2.99849
-490,295,-11.2969,-3.27197,0,0,0,0,0,0,0,-1,734,729,-11.2969,3.27199
-483,295,-6.84503,-0.454651,0,0,0,0,0,0,0,-1,741,729,-6.84505,0.454639
-476,295,-13.1738,-0.836243,0,0,0,0,0,0,0,-1,748,729,-13.1738,0.836223
-469,295,-18.0319,2.11017,0,0,0,0,0,0,0,-1,755,729,-18.0319,-2.11014
-462,295,-17.9293,-0.330566,0,0,0,0,0,0,0,-1,762,729,-17.9293,0.330568
-455,295,-18.821,1.64069,0,0,0,0,0,0,0,-1,769,729,-18.821,-1.64066
-448,295,-19.0543,1.41168,0,0,0,0,0,0,0,-1,776,729,-19.0543,-1.4117
-441,295,-19.2372,1.28839,0,0,0,0,0,0,0,-1,783,729,-19.2372,-1.28838
-434,295,-15.7352,0.180969,0,0,0,0,0,0,0,-1,790,729,-15.7352,-0.180951
-427,295,0,0,0,0,0,0,0,0,0,-1,797,729,0,0
-420,295,0,0,0,0,0,0,0,0,0,-1,804,729,0,0
-413,295,0,0,0,0,0,0,0,0,0,-1,811,729,0,0
-406,295,0,0,0,0,0,0,0,0,0,-1,818,729,0,0
-399,295,0,0,0,0,0,0,0,0,0,-1,825,729,0,0
-392,295,0,0,0,0,0,0,0,0,0,-1,832,729,0,0
-385,295,0,0,0,0,0,0,0,0,0,-1,839,729,0,0
-378,295,0,0,0,0,0,0,0,0,0,-1,846,729,0,0
-371,295,0,0,0,0,0,0,0,0,0,-1,853,729,0,0
-364,295,0,0,0,0,0,0,0,0,0,-1,860,729,0,0
-357,295,0,0,0,0,0,0,0,0,0,-1,867,729,0,0
-350,295,0,0,0,0,0,0,0,0,0,-1,874,729,0,0
-343,295,0,0,0,0,0,0,0,0,0,-1,881,729,0,0
-336,295,0,0,0,0,0,0,0,0,0,-1,888,729,0,0
-329,295,0,0,0,0,0,0,0,0,0,-1,895,729,0,0
-322,295,0,0,0,0,0,0,0,0,0,-1,902,729,0,0
-315,295,0,0,0,0,0,0,0,0,0,-1,909,729,0,0
-308,295,0,0,0,0,0,0,0,0,0,-1,916,729,0,0
-301,295,0,0,0,0,0,0,0,0,0,-1,923,729,0,0
-294,295,0,0,0,0,0,0,0,0,0,-1,930,729,0,0
-287,295,0,0,0,0,0,0,0,0,0,-1,937,729,0,0
-280,295,0,0,0,0,0,0,0,0,0,-1,944,729,0,0
-273,295,0,0,0,0,0,0,0,0,0,-1,951,729,0,0
-266,295,0,0,0,0,0,0,0,0,0,-1,958,729,0,0
-259,295,0,0,0,0,0,0,0,0,0,-1,965,729,0,0
-252,295,0,0,0,0,0,0,0,0,0,-1,972,729,0,0
-245,295,0,0,0,0,0,0,0,0,0,-1,979,729,0,0
-238,295,0,0,0,0,0,0,0,0,0,-1,986,729,0,0
-231,295,0,0,0,0,0,0,0,0,0,-1,993,729,0,0
-224,295,0,0,0,0,0,0,0,0,0,-1,1000,729,0,0
-217,295,0,0,0,0,0,0,0,0,0,-1,1007,729,0,0
-210,295,0,0,0,0,0,0,0,0,0,-1,1014,729,0,0
-203,295,0,0,0,0,0,0,0,0,0,-1,1021,729,0,0
-196,295,0,0,0,0,0,0,0,0,0,-1,1028,729,0,0
-189,295,0,0,0,0,0,0,0,0,0,-1,1035,729,0,0
-182,295,0,0,0,0,0,0,0,0,0,-1,1042,729,0,0
-175,295,0,0,0,0,0,0,0,0,0,-1,1049,729,0,0
-168,295,0,0,0,0,0,0,0,0,0,-1,1056,729,0,0
-161,295,0,0,0,0,0,0,0,0,0,-1,1063,729,0,0
-154,295,0,0,0,0,0,0,0,0,0,-1,1070,729,0,0
-147,295,0,0,0,0,0,0,0,0,0,-1,1077,729,0,0
-140,295,0,0,0,0,0,0,0,0,0,-1,1084,729,0,0
-133,295,0,0,0,0,0,0,0,0,0,-1,1091,729,0,0
-126,295,0,0,0,0,0,0,0,0,0,-1,1098,729,0,0
-119,295,0,0,0,0,0,0,0,0,0,-1,1105,729,0,0
-112,295,0,0,0,0,0,0,0,0,0,-1,1112,729,0,0
-105,295,0,0,0,0,0,0,0,0,0,-1,1119,729,0,0
-98,295,0,0,0,0,0,0,0,0,0,-1,1126,729,0,0
-91,295,0,0,0,0,0,0,0,0,0,-1,1133,729,0,0
-84,295,0,0,0,0,0,0,0,0,0,-1,1140,729,0,0
-77,295,0,0,0,0,0,0,0,0,0,-1,1147,729,0,0
-70,295,0,0,0,0,0,0,0,0,0,-1,1154,729,0,0
-63,295,0,0,0,0,0,0,0,0,0,-1,1161,729,0,0
-56,295,0,0,0,0,0,0,0,0,0,-1,1168,729,0,0
-49,295,0,0,0,0,0,0,0,0,0,-1,1175,729,0,0
-42,295,0,0,0,0,0,0,0,0,0,-1,1182,729,0,0
-35,295,0,0,0,0,0,0,0,0,0,-1,1189,729,0,0
-28,295,0,0,0,0,0,0,0,0,0,-1,1196,729,0,0
-21,295,0,0,0,0,0,0,0,0,0,-1,1203,729,0,0
-14,295,0,0,0,0,0,0,0,0,0,-1,1210,729,0,0
-7,295,0,0,0,0,0,0,0,0,0,-1,1217,729,0,0
0,295,0,0,0,0,0,0,0,0,0,-1,1224,729,0,0
7,295,0,0,0,0,0,0,0,0,0,-1,1231,729,0,0
14,295,0,0,0,0,0,0,0,0,0,-1,1238,729,0,0
21,295,0,0,0,0,0,0,0,0,0,-1,1245,729,0,0
28,295,0,0,0,0,0,0,0,0,0,-1,1252,729,0,0
35,295,0,0,0,0,0,0,0,0,0,-1,1259,729,0,0
42,295,0,0,0,0,0,0,0,0,0,-1,1266,729,0,0
49,295,0,0,0,0,0,0,0,0,0,-1,1273,729,0,0
56,295,0,0,0,0,0,0,0,0,0,-1,1280,729,0,0
63,295,0,0,0,0,0,0,0,0,0,-1,1287,729,0,0
70,295,0,0,0,0,0,0,0,0,0,-1,1294,729,0,0
77,295,0,0,0,0,0,0,0,0,0,-1,1301,729,0,0
84,295,0,0,0,0,0,0,0,0,0,-1,1308,729,0,0
91,295,0,0,0,0,0,0,0,0,0,-1,1315,729,0,0
98,295,0,0,0,0,0,0,0,0,0,-1,1322,729,0,0
105,295,0,0,0,0,0,0,0,0,0,-1,1329,729,0,0
112,295,0,0,0,0,0,0,0,0,0,-1,1336,729,0,0
119,295,0,0,0,0,0,0,0,0,0,-1,1343,729,0,0
126,295,0,0,0,0,0,0,0,0,0,-1,1350,729,0,0
133,295,0,0,0,0,0,0,0,0,0,-1,1357,729,0,0
140,295,0,0,0,0,0,0,0,0,0,-1,1364,729,0,0
147,295,0,0,0,0,0,0,0,0,0,-1,1371,729,0,0
154,295,0,0,0,0,0,0,0,0,0,-1,1378,729,0,0
161,295,0,0,0,0,0,0,0,0,0,-1,1385,729,0,0
168,295,0,0,0,0,0,0,0,0,0,-1,1392,729,0,0
175,295,0,0,0,0,0,0,0,0,0,-1,1399,729,0,0
182,295,0,0,0,0,0,0,0,0,0,-1,1406,729,0,0
189,295,0,0,0,0,0,0,0,0,0,-1,1413,729,0,0
196,295,0,0,0,0,0,0,0,0,0,-1,1420,729,0,0
203,295,0,0,0,0,0,0,0,0,0,-1,1427,729,0,0
210,295,0,0,0,0,0,0,0,0,0,-1,1434,729,0,0
217,295,0,0,0,0,0,0,0,0,0,-1,1441,729,0,0
224,295,0,0,0,0,0,0,0,0,0,-1,1448,729,0,0
231,295,0,0,0,0,0,0,0,0,0,-1,1455,729,0,0
238,295,0,0,0,0,0,0,0,0,0,-1,1462,729,0,0
245,295,0,0,0,0,0,0,0,0,0,-1,1469,729,0,0
252,295,0,0,0,0,0,0,0,0,0,-1,1476,729,0,0
259,295,0,0,0,0,0,0,0,0,0,-1,1483,729,0,0
266,295,0,0,0,0,0,0,0,0,0,-1,1490,729,0,0
273,295,0,0,0,0,0,0,0,0,0,-1,1497,729,0,0
280,295,0,0,0,0,0,0,0,0,0,-1,1504,729,0,0
287,295,0,0,0,0,0,0,0,0,0,-1,1511,729,0,0
294,295,0,0,0,0,0,0,0,0,0,-1,1518,729,0,0
301,295,0,0,0,0,0,0,0,0,0,-1,1525,729,0,0
308,295,0,0,0,0,0,0,0,0,0,-1,1532,729,0,0
315,295,0,0,0,0,0,0,0,0,0,-1,1539,729,0,0
322,295,0,0,0,0,0,0,0,0,0,-1,1546,729,0,0
329,295,0,0,0,0,0,0,0,0,0,-1,1553,729,0,0
336,295,0,0,0,0,0,0,0,0,0,-1,1560,729,0,0
343,295,0,0,0,0,0,0,0,0,0,-1,1567,729,0,0
350,295,0,0,0,0,0,0,0,0,0,-1,1574,729,0,0
357,295,0,0,0,0,0,0,0,0,0,-1,1581,729,0,0
364,295,0,0,0,0,0,0,0,0,0,-1,1588,729,0,0
371,295,0,0,0,0,0,0,0,0,0,-1,1595,729,0,0
378,295,0,0,0,0,0,0,0,0,0,-1,1602,729,0,0
385,295,0,0,0,0,0,0,0,0,0,-1,1609,729,0,0
392,295,0,0,0,0,0,0,0,0,0,-1,1616,729,0,0
399,295,0,0,0,0,0,0,0,0,0,-1,1623,729,0,0
406,295,0,0,0,0,0,0,0,0,0,-1,1630,729,0,0
413,295,0,0,0,0,0,0,0,0,0,-1,1637,729,0,0
420,295,0,0,0,0,0,0,0,0,0,-1,1644,729,0,0
427,295,0,0,0,0,0,0,0,0,0,-1,1651,729,0,0
434,295,0,0,0,0,0,0,0,0,0,-1,1658,729,0,0
441,295,0,0,0,0,0,0,0,0,0,-1,1665,729,0,0
448,295,0,0,0,0,0,0,0,0,0,-1,1672,729,0,0
455,295,0,0,0,0,0,0,0,0,0,-1,1679,729,0,0
462,295,0,0,0,0,0,0,0,0,0,-1,1686,729,0,0
469,295,0,0,0,0,0,0,0,0,0,-1,1693,729,0,0
476,295,0,0,0,0,0,0,0,0,0,-1,1700,729,0,0
483,295,0,0,0,0,0,0,0,0,0,-1,1707,729,0,0
490,295,0,0,0,0,0,0,0,0,0,-1,1714,729,0,0
497,295,0,0,0,0,0,0,0,0,0,-1,1721,729,0,0
504,295,0,0,0,0,0,0,0,0,0,-1,1728,729,0,0
511,295,0,0,0,0,0,0,0,0,0,-1,1735,729,0,0
518,295,0,0,0,0,0,0,0,0,0,-1,1742,729,0,0
525,295,0,0,0,0,0,0,0,0,0,-1,1749,729,0,0
532,295,0,0,0,0,0,0,0,0,0,-1,1756,729,0,0
539,295,0,0,0,0,0,0,0,0,0,-1,1763,729,0,0
546,295,30.6902,2.49103,0,0,0,0,0,0,0,-1,1770,729,30.6902,-2.49102
553,295,30.95,2.43524,0,0,0,0,0,0,0,-1,1777,729,30.95,-2.43524
560,295,30.8992,2.45941,0.0246439,0.018821,0.0403701,0.0622074,-0.0187425,0.749401,0.0489306,0.0425326,1784,729,30.8992,-2.45941
567,295,30.8726,2.45789,0.0180872,0.00764042,0.0365713,0.0498062,-0.0240786,0.714464,0.0435109,0.0462122,1791,729,30.8726,-2.45791
574,295,30.7931,2.61072,0.0138681,0.00254673,0.0323276,0.0410268,-0.024612,0.698725,0.0382896,0.0499562,1798,729,30.7931,-2.6107
581,295,30.825,3.17786,0.0107499,0.000123962,0.0280441,0.0339799,-0.023106,0.691782,0.0331573,0.0482686,1805,729,30.825,-3.17786
588,295,30.9282,3.86823,0,0,0,0,0,0,0,-1,1812,729,30.9282,-3.86823
595,295,31.0873,4.52997,0,0,0,0,0,0,0,-1,1819,729,31.0873,-4.52999
602,295,26.5505,5.9444,0,0,0,0,0,0,0,-1,1826,729,26.5505,-5.94438
609,295,11.7737,2.19989,0,0,0,0,0,0,0,-1,1833,729,11.7736,-2.19988
616,295,19.1555,-1.52344,0,0,0,0,0,0,0,-1,1840,729,19.1555,1.52347
623,295,19.0726,-1.19476,0.0013998,-0.00228892,0.00780574,0.00757611,-0.00846524,0.669385,0.00926622,0.0336658,1847,729,19.0726,1.19475
630,295,19.0122,-0.841675,0.00134441,-0.00194447,0.00507563,0.00503534,-0.0056354,0.62874,0.006164,0.0123327,1854,729,19.0123,0.841655
637,295,18.9984,-0.449585,0.00143253,-0.0011515,0.00280481,0.0032286,-0.00294757,0.569563,0.00356704,0.0133526,1861,729,18.9984,0.449606
644,295,19.004,-0.0735474,0.00106465,-0.000639173,0.00173796,0.00214826,-0.00172278,0.557518,0.00223944,0.0123658,1868,729,19.004,0.0735308
651,295,19.0088,0.307739,0.000403985,7.54341e-05,0.000748227,0.00100576,-0.000526339,0.677336,0.000898876,0.0124432,1875,729,19.0088,-0.307711
658,295,19.0072,0.677673,-0.000160884,0.000594103,0.000136303,0.000617958,-0.000184739,1.39754,0.000485414,0.011591,1882,729,19.0072,-0.677653
665,295,19.0084,1.02625,-0.000522932,0.000994758,-0.000204253,0.00102177,-0.00054994,-1.43933,0.000920954,0.0111676,1889,729,19.0084,-1.02624
672,295,18.9904,1.39209,-0.000182842,0.00153837,-4.54195e-05,0.00153957,-0.00018404,-1.54443,0.0010929,0.0129437,1896,729,18.9903,-1.39209
679,295,18.9786,1.78918,0.00050889,0.00218396,0.000194582,0.00220627,0.000486583,1.45666,0.00133846,0.00976827,1903,729,18.9786,-1.78918
686,295,18.9899,2.15125,0.00198154,0.00285512,0.000541947,0.00311438,0.00172227,1.12458,0.00180146,0.00948576,1910,729,18.9898,-2.15122
693,295,18.9468,2.50146,0.00459746,0.00356534,0.00105796,0.00525852,0.00290428,0.558484,0.00304154,0.0314184,1917,729,18.9467,-2.50147
700,295,19.0818,2.87921,0.00886546,0.00438865,0.002081,0.00968337,0.00357074,0.374487,0.00565453,0.0462277,1924,729,19.0818,-2.87921
707,295,19.4498,3.42712,0,0,0,0,0,0,0,-1,1931,729,19.4498,-3.42715
714,295,17.4906,4.63068,0,0,0,0,0,0,0,-1,1938,729,17.4906,-4.63066
721,295,18.3792,5.32281,0,0,0,0,0,0,0,-1,1945,729,18.3791,-5.32283
728,295,17.379,3.74866,0,0,0,0,0,0,0,-1,1952,729,17.379,-3.74863
735,295,0,0,0,0,0,0,0,0,0,-1,1959,729,0,0
742,295,0,0,0,0,0,0,0,0,0,-1,1966,729,0,0
749,295,0,0,0,0,0,0,0,0,0,-1,1973,729,0,0
756,295,0,0,0,0,0,0,0,0,0,-1,1980,729,0,0
763,295,0,0,0,0,0,0,0,0,0,-1,1987,729,0,0
770,295,0,0,0,0,0,0,0,0,0,-1,1994,729,0,0
777,295,0,0,0,0,0,0,0,0,0,-1,2001,729,0,0
784,295,0,0,0,0,0,0,0,0,0,-1,2008,729,0,0
791,295,0,0,0,0,0,0,0,0,0,-1,2015,729,0,0
798,295,0,0,0,0,0,0,0,0,0,-1,2022,729,0,0
805,295,0,0,0,0,0,0,0,0,0,-1,2029,729,0,0
812,295,0,0,0,0,0,0,0,0,0,-1,2036,729,0,0
-700,288,0,0,0,0,0,0,0,0,0,-1,524,736,0,0
-693,288,0,0,0,0,0,0,0,0,0,-1,531,736,0,0
-686,288,0,0,0,0,0,0,0,0,0,-1,538,736,0,0
-679,288,0,0,0,0,0,0,0,0,0,-1,545,736,0,0
-672,288,0,0,0,0,0,0,0,0,0,-1,552,736,0,0
-665,288,0,0,0,0,0,0,0,0,0,-1,559,736,0,0
-658,288,0,0,0,0,0,0,0,0,0,-1,566,736,0,0
-651,288,0,0,0,0,0,0,0,0,0,-1,573,736,0,0
-644,288,0,0,0,0,0,0,0,0,0,-1,580,736,0,0
-637,288,0,0,0,0,0,0,0,0,0,-1,587,736,0,0
-630,288,0,0,0,0,0,0,0,0,0,-1,594,736,0,0
-623,288,0,0,0,0,0,0,0,0,0,-1,601,736,0,0
-616,288,-11.7584,2.4425,0,0,0,0,0,0,0,-1,608,736,-11.7584,-2.44251
-609,288,-10.3007,2.32178,0,0,0,0,0,0,0,-1,615,736,-10.3007,-2.32178
-602,288,-10.1458,-1.85559,0,0,0,0,0,0,0,-1,622,736,-10.1458,1.85556
-595,288,-7.63208,1.81769,0,0,0,0,0,0,0,-1,629,736,-7.63205,-1.81766
-588,288,-8.19269,1.50598,0,0,0,0,0,0,0,-1,636,736,-8.19268,-1.50601
-581,288,-11.3334,1.26306,0,0,0,0,0,0,0,-1,643,736,-11.3334,-1.26306
-574,288,-11.2418,0.87915,0.0231209,-0.0216604,0.00944428,0.0250312,-0.0235707,0.199577,0.0280645,0.0482777,650,736,-11.2417,-0.879174
-567,288,-11.3613,0.415466,0.00919058,-0.0102979,0.00691506,0.0113949,-0.0125022,0.308588,0.013802,0.0312592,657,736,-11.3613,-0.415446
-560,288,-11.5359,0.0343018,0.00377057,-0.00477075,0.00397977,0.00533747,-0.00633765,0.375077,0.00674887,0.0146957,664,736,-11.5359,-0.0342724
-553,288,-11.4977,-0.277466,-0.000391878,-0.00064719,0.00146279,0.000948818,-0.00198789,0.741874,0.00173052,0.0164769,671,736,-11.4977,0.277471
-546,288,-11.5342,-0.605835,-0.00178535,0.00169911,-0.000240118,0.00171558,-0.00180182,-1.50232,0.00203097,0.018737,678,736,-11.5342,0.605855
-539,288,-11.564,-0.942383,-0.00130808,0.000595056,0.000403064,0.000676901,-0.00138992,1.37046,0.00121672,0.0165563,685,736,-11.5641,0.942398
-532,288,-11.5428,-1.29419,-0.000918777,1.18281e-05,0.00107833,0.000720967,-0.00162792,0.98908,0.00138942,0.0128809,692,736,-11.5429,1.29422
-525,288,-11.5448,-1.63953,-0.000600994,0.000154218,0.00182616,0.0016414,-0.00208818,0.887349,0.00215842,0.0123042,699,736,-11.5448,1.63953
-518,288,-11.5657,-1.96381,-0.000675666,0.00111759,0.00244162,0.00282202,-0.00238009,0.961367,0.00300705,0.012066,706,736,-11.5657,1.96382
-511,288,-11.5676,-2.31372,-0.00185206,0.00381621,0.00308179,0.00516893,-0.00320478,1.15718,0.0048787,0.00909467,713,736,-11.5675,2.31374
-504,288,-11.5851,-2.68201,-0.00369137,0.00778004,0.00414197,0.00911923,-0.00503056,1.25808,0.00828229,0.010539,720,736,-11.5851,2.68202
-497,288,-11.5912,-2.89703,-0.00576971,0.0122541,0.00509445,0.0135944,-0.00710999,1.31354,0.0121475,0.0253811,727,736,-11.5913,2.89706
-490,288,-11.5003,-3.05664,0,0,0,0,0,0,0,-1,734,736,-11.5003,3.05665
-483,288,-17.6428,-1.5116,0,0,0,0,0,0,0,-1,741,736,-17.6428,1.51158
-476,288,-18.7221,1.72919,0,0,0,0,0,0,0,-1,748,736,-18.7221,-1.7292
-469,288,-18.8441,2.72736,0,0,0,0,0,0,0,-1,755,736,-18.844,-2.72736
-462,288,-18.966,3.72552,0,0,0,0,0,0,0,-1,762,736,-18.966,-3.72552
-455,288,-19.3578,1.27887,0,0,0,0,0,0,0,-1,769,736,-19.3578,-1.27885
-448,288,-19.605,1.09058,0,0,0,0,0,0,0,-1,776,736,-19.605,-1.09059
-441,288,-19.9909,0.918213,0,0,0,0,0,0,0,-1,783,736,-19.9909,-0.918201
-434,288,-20.4501,1.06042,0,0,0,0,0,0,0,-1,790,736,-20.4501,-1.06045
-427,288,0,0,0,0,0,0,0,0,0,-1,797,736,0,0
-420,288,0,0,0,0,0,0,0,0,0,-1,804,736,0,0
-413,288,0,0,0,0,0,0,0,0,0,-1,811,736,0,0
-406,288,0,0,0,0,0,0,0,0,0,-1,818,736,0,0
-399,288,0,0,0,0,0,0,0,0,0,-1,825,736,0,0
-392,288,0,0,0,0,0,0,0,0,0,-1,832,736,0,0
-385,288,0,0,0,0,0,0,0,0,0,-1,839,736,0,0
-378,288,0,0,0,0,0,0,0,0,0,-1,846,736,0,0
-371,288,0,0,0,0,0,0,0,0,0,-1,853,736,0,0
-364,288,0,0,0,0,0,0,0,0,0,-1,860,736,0,0
-357,288,0,0,0,0,0,0,0,0,0,-1,867,736,0,0
-350,288,0,0,0,0,0,0,0,0,0,-1,874,736,0,0
-343,288,0,0,0,0,0,0,0,0,0,-1,881,736,0,0
-336,288,0,0,0,0,0,0,0,0,0,-1,888,736,0,0
-329,288,0,0,0,0,0,0,0,0,0,-1,895,736,0,0
-322,288,0,0,0,0,0,0,0,0,0,-1,902,736,0,0
-315,288,0,0,0,0,0,0,0,0,0,-1,909,736,0,0
-308,288,0,0,0,0,0,0,0,0,0,-1,916,736,0,0
-301,288,0,0,0,0,0,0,0,0,0,-1,923,736,0,0
-294,288,0,0,0,0,0,0,0,0,0,-1,930,736,0,0
-287,288,0,0,0,0,0,0,0,0,0,-1,937,736,0,0
-280,288,0,0,0,0,0,0,0,0,0,-1,944,736,0,0
-273,288,0,0,0,0,0,0,0,0,0,-1,951,736,0,0
-266,288,0,0,0,0,0,0,0,0,0,-1,958,736,0,0
-259,288,0,0,0,0,0,0,0,0,0,-1,965,736,0,0
-252,288,0,0,0,0,0,0,0,0,0,-1,972,736,0,0
-245,288,0,0,0,0,0,0,0,0,0,-1,979,736,0,0
-238,288,0,0,0,0,0,0,0,0,0,-1,986,736,0,0
-231,288,0,0,0,0,0,0,0,0,0,-1,993,736,0,0
-224,288,0,0,0,0,0,0,0,0,0,-1,1000,736,0,0
-217,288,0,0,0,0,0,0,0,0,0,-1,1007,736,0,0
-210,288,0,0,0,0,0,0,0,0,0,-1,1014,736,0,0
-203,288,0,0,0,0,0,0,0,0,0,-1,1021,736,0,0
-196,288,0,0,0,0,0,0,0,0,0,-1,1028,736,0,0
-189,288,0,0,0,0,0,0,0,0,0,-1,1035,736,0,0
-182,288,0,0,0,0,0,0,0,0,0,-1,1042,736,0,0
-175,288,0,0,0,0,0,0,0,0,0,-1,1049,736,0,0
-168,288,0,0,0,0,0,0,0,0,0,-1,1056,736,0,0
-161,288,0,0,0,0,0,0,0,0,0,-1,1063,736,0,0
-154,288,0,0,0,0,0,0,0,0,0,-1,1070,736,0,0
-147,288,0,0,0,0,0,0,0,0,0,-1,1077,736,0,0
-140,288,0,0,0,0,0,0,0,0,0,-1,1084,736,0,0
-133,288,0,0,0,0,0,0,0,0,0,-1,1091,736,0,0
-126,288,0,0,0,0,0,0,0,0,0,-1,1098,736,0,0
-119,288,0,0,0,0,0,0,0,0,0,-1,1105,736,0,0
-112,288,0,0,0,0,0,0,0,0,0,-1,1112,736,0,0
-105,288,0,0,0,0,0,0,0,0,0,-1,1119,736,0,0
-98,288,0,0,0,0,0,0,0,0,0,-1,1126,736,0,0
-91,288,0,0,0,0,0,0,0,0,0,-1,1133,736,0,0
-84,288,0,0,0,0,0,0,0,0,0,-1,1140,736,0,0
-77,288,0,0,0,0,0,0,0,0,0,-1,1147,736,0,0
-70,288,0,0,0,0,0,0,0,0,0,-1,1154,736,0,0
-63,288,0,0,0,0,0,0,0,0,0,-1,1161,736,0,0
-56,288,0,0,0,0,0,0,0,0,0,-1,1168,736,0,0
-49,288,0,0,0,0,0,0,0,0,0,-1,1175,736,0,0
-42,288,0,0,0,0,0,0,0,0,0,-1,1182,736,0,0
-35,288,0,0,0,0,0,0,0,0,0,-1,1189,736,0,0
-28,288,0,0,0,0,0,0,0,0,0,-1,1196,736,0,0
-21,288,0,0,0,0,0,0,0,0,0,-1,1203,736,0,0
-14,288,0,0,0,0,0,0,0,0,0,-1,1210,736,0,0
-7,288,0,0,0,0,0,0,0,0,0,-1,1217,736,0,0
0,288,0,0,0,0,0,0,0,0,0,-1,1224,736,0,0
7,288,0,0,0,0,0,0,0,0,0,-1,1231,736,0,0
14,288,0,0,0,0,0,0,0,0,0,-1,1238,736,0,0
21,288,0,0,0,0,0,0,0,0,0,-1,1245,736,0,0
28,288,0,0,0,0,0,0,0,0,0,-1,1252,736,0,0
35,288,0,0,0,0,0,0,0,0,0,-1,1259,736,0,0
42,288,0,0,0,0,0,0,0,0,0,-1,1266,736,0,0
49,288,0,0,0,0,0,0,0,0,0,-1,1273,736,0,0
56,288,0,0,0,0,0,0,0,0,0,-1,1280,736,0,0
63,288,0,0,0,0,0,0,0,0,0,-1,1287,736,0,0
70,288,0,0,0,0,0,0,0,0,0,-1,1294,736,0,0
77,288,0,0,0,0,0,0,0,0,0,-1,1301,736,0,0
84,288,0,0,0,0,0,0,0,0,0,-1,1308,736,0,0
91,288,0,0,0,0,0,0,0,0,0,-1,1315,736,0,0
98,288,0,0,0,0,0,0,0,0,0,-1,1322,736,0,0
105,288,0,0,0,0,0,0,0,0,0,-1,1329,736,0,0
112,288,0,0,0,0,0,0,0,0,0,-1,1336,736,0,0
119,288,0,0,0,0,0,0,0,0,0,-1,1343,736,0,0
126,288,0,0,0,0,0,0,0,0,0,-1,1350,736,0,0
133,288,0,0,0,0,0,0,0,0,0,-1,1357,736,0,0
140,288,0,0,0,0,0,0,0,0,0,-1,1364,736,0,0
147,288,0,0,0,0,0,0,0,0,0,-1,1371,736,0,0
154,288,0,0,0,0,0,0,0,0,0,-1,1378,736,0,0
161,288,0,0,0,0,0,0,0,0,0,-1,1385,736,0,0
168,288,0,0,0,0,0,0,0,0,0,-1,1392,736,0,0
175,288,0,0,0,0,0,0,0,0,0,-1,1399,736,0,0
182,288,0,0,0,0,0,0,0,0,0,-1,1406,736,0,0
189,288,0,0,0,0,0,0,0,0,0,-1,1413,736,0,0
196,288,0,0,0,0,0,0,0,0,0,-1,1420,736,0,0
203,288,0,0,0,0,0,0,0,0,0,-1,1427,736,0,0
210,288,0,0,0,0,0,0,0,0,0,-1,1434,736,0,0
217,288,0,0,0,0,0,0,0,0,0,-1,1441,736,0,0
224,288,0,0,0,0,0,0,0,0,0,-1,1448,736,0,0
231,288,0,0,0,0,0,0,0,0,0,-1,1455,736,0,0
238,288,0,0,0,0,0,0,0,0,0,-1,1462,736,0,0
245,288,0,0,0,0,0,0,0,0,0,-1,1469,736,0,0
252,288,0,0,0,0,0,0,0,0,0,-1,1476,736,0,0
259,288,0,0,0,0,0,0,0,0,0,-1,1483,736,0,0
266,288,0,0,0,0,0,0,0,0,0,-1,1490,736,0,0
273,288,0,0,0,0,0,0,0,0,0,-1,1497,736,0,0
280,288,0,0,0,0,0,0,0,0,0,-1,1504,736,0,0
287,288,0,0,0,0,0,0,0,0,0,-1,1511,736,0,0
294,288,0,0,0,0,0,0,0,0,0,-1,1518,736,0,0
301,288,0,0,0,0,0,0,0,0,0,-1,1525,736,0,0
308,288,0,0,0,0,0,0,0,0,0,-1,1532,736,0,0
315,288,0,0,0,0,0,0,0,0,0,-1,1539,736,0,0
322,288,0,0,0,0,0,0,0,0,0,-1,1546,736,0,0
329,288,0,0,0,0,0,0,0,0,0,-1,1553,736,0,0
336,288,0,0,0,0,0,0,0,0,0,-1,1560,736,0,0
343,288,0,0,0,0,0,0,0,0,0,-1,1567,736,0,0
350,288,0,0,0,0,0,0,0,0,0,-1,1574,736,0,0
357,288,0,0,0,0,0,0,0,0,0,-1,1581,736,0,0
364,288,0,0,0,0,0,0,0,0,0,-1,1588,736,0,0
371,288,0,0,0,0,0,0,0,0,0,-1,1595,736,0,0
378,288,0,0,0,0,0,0,0,0,0,-1,1602,736,0,0
385,288,0,0,0,0,0,0,0,0,0,-1,1609,736,0,0
392,288,0,0,0,0,0,0,0,0,0,-1,1616,736,0,0
399,288,0,0,0,0,0,0,0,0,0,-1,1623,736,0,0
406,288,0,0,0,0,0,0,0,0,0,-1,1630,736,0,0
413,288,0,0,0,0,0,0,0,0,0,-1,1637,736,0,0
420,288,0,0,0,0,0,0,0,0,0,-1,1644,736,0,0
427,288,0,0,0,0,0,0,0,0,0,-1,1651,736,0,0
434,288,0,0,0,0,0,0,0,0,0,-1,1658,736,0,0
441,288,0,0,0,0,0,0,0,0,0,-1,1665,736,0,0
448,288,0,0,0,0,0,0,0,0,0,-1,1672,736,0,0
455,288,0,0,0,0,0,0,0,0,0,-1,1679,736,0,0
462,288,0,0,0,0,0,0,0,0,0,-1,1686,736,0,0
469,288,0,0,0,0,0,0,0,0,0,-1,1693,736,0,0
476,288,0,0,0,0,0,0,0,0,0,-1,1700,736,0,0
483,288,0,0,0,0,0,0,0,0,0,-1,1707,736,0,0
490,288,0,0,0,0,0,0,0,0,0,-1,1714,736,0,0
497,288,0,0,0,0,0,0,0,0,0,-1,1721,736,0,0
504,288,0,0,0,0,0,0,0,0,0,-1,1728,736,0,0
511,288,0,0,0,0,0,0,0,0,0,-1,1735,736,0,0
518,288,0,0,0,0,0,0,0,0,0,-1,1742,736,0,0
525,288,0,0,0,0,0,0,0,0,0,-1,1749,736,0,0
532,288,0,0,0,0,0,0,0,0,0,-1,1756,736,0,0
539,288,0,0,0,0,0,0,0,0,0,-1,1763,736,0,0
546,288,0,0,0,0,0,0,0,0,0,-1,1770,736,0,0
553,288,30.2385,2.492,0,0,0,0,0,0,0,-1,1777,736,30.2386,-2.49198
560,288,30.4169,2.55713,0.0222787,0.0200616,0.0344057,0.0555937,-0.0132533,0.769294,0.0421801,0.0415766,1784,736,30.4169,-2.55711
567,288,30.4261,2.61169,0.0154469,0.0069641,0.0332385,0.0447135,-0.0223025,0.721938,0.0394063,0.0427381,1791,736,30.4262,-2.6117
574,288,30.3468,2.79987,0,0,0,0,0,0,0,-1,1798,736,30.3468,-2.79984
581,288,30.4407,3.35956,0,0,0,0,0,0,0,-1,1805,736,30.4407,-3.35956
588,288,30.2439,3.72998,0,0,0,0,0,0,0,-1,1812,736,30.2438,-3.72996
595,288,29.0732,3.90515,0,0,0,0,0,0,0,-1,1819,736,29.0733,-3.90513
602,288,25.66,5.46246,0,0,0,0,0,0,0,-1,1826,736,25.66,-5.46245
609,288,17.5223,4.86414,0,0,0,0,0,0,0,-1,1833,736,17.5223,-4.86412
616,288,13.4886,0.801331,0,0,0,0,0,0,0,-1,1840,736,13.4886,-0.80132
623,288,19.3356,-1.16266,0,0,0,0,0,0,0,-1,1847,736,19.3356,1.16268
630,288,19.3496,-0.803772,0.00170635,-0.00199584,0.00553494,0.00569153,-0.00598102,0.624026,0.00673984,0.0228449,1854,736,19.3497,0.803783
637,288,19.3813,-0.443298,0.00183589,-0.00128303,0.00341262,0.00402848,-0.00347562,0.571081,0.00433641,0.0109063,1861,736,19.3814,0.443271
644,288,19.3999,-0.0726318,0.0014734,-0.000771639,0.00229531,0.00290598,-0.00220421,0.557973,0.00295963,0.0104915,1868,736,19.4,0.0726316
651,288,19.3756,0.302856,0.000841569,4.68069e-05,0.00116176,0.00167203,-0.000783659,0.620611,0.00144839,0.0115456,1875,736,19.3756,-0.302827
658,288,19.3627,0.704041,0.000297677,0.000546363,0.000429446,0.000869106,-2.50651e-05,0.926316,0.000587937,0.0159438,1882,736,19.3627,-0.704042
665,288,19.3828,1.04504,-5.22796e-05,0.00094896,3.63467e-05,0.000950278,-5.35973e-05,1.53456,0.000652119,0.0162864,1889,736,19.3828,-1.04507
672,288,19.3759,1.39532,0.000452725,0.00142881,0.000277382,0.00150213,0.000379406,1.31238,0.000901954,0.0149956,1896,736,19.3758,-1.39531
679,288,19.3699,1.80029,0.00154512,0.00202024,0.000623458,0.00244986,0.00111549,0.967424,0.00141631,0.0125192,1903,736,19.3698,-1.80029
686,288,19.3639,2.12048,0.00363476,0.00242514,0.000965993,0.00416966,0.00189024,0.505703,0.00241085,0.00932284,1910,736,19.3639,-2.12047
693,288,19.3611,2.51221,0.00699134,0.00264517,0.00122494,0.0073128,0.00232371,0.256645,0.00431452,0.0147871,1917,736,19.3611,-2.51218
700,288,19.2921,2.95587,0.0121905,0.0026844,0.00164686,0.0124677,0.00240718,0.16677,0.00763695,0.031504,1924,736,19.2922,-2.95587
707,288,19.5643,3.50757,0.0199113,0.00221225,0.00224786,0.0201923,0.00193123,0.124374,0.0128662,0.046269,1931,736,19.5643,-3.50758
714,288,19.825,4.0791,0,0,0,0,0,0,0,-1,1938,736,19.8249,-4.07907
721,288,18.0732,3.69385,0,0,0,0,0,0,0,-1,1945,736,18.0732,-3.69387
728,288,19.3208,3.91455,0,0,0,0,0,0,0,-1,1952,736,19.3209,-3.91455
735,288,18.7712,3.51312,0,0,0,0,0,0,0,-1,1959,736,18.7713,-3.51309
742,288,0,0,0,0,0,0,0,0,0,-1,1966,736,0,0
749,288,0,0,0,0,0,0,0,0,0,-1,1973,736,0,0
756,288,0,0,0,0,0,0,0,0,0,-1,1980,736,0,0
763,288,0,0,0,0,0,0,0,0,0,-1,1987,736,0,0
770,288,0,0,0,0,0,0,0,0,0,-1,1994,736,0,0
777,288,0,0,0,0,0,0,0,0,0,-1,2001,736,0,0
784,288,0,0,0,0,0,0,0,0,0,-1,2008,736,0,0
791,288,0,0,0,0,0,0,0,0,0,-1,2015,736,0,0
798,288,0,0,0,0,0,0,0,0,0,-1,2022,736,0,0
805,288,0,0,0,0,0,0,0,0,0,-1,2029,736,0,0
812,288,0,0,0,0,0,0,0,0,0,-1,2036,736,0,0
-700,281,0,0,0,0,0,0,0,0,0,-1,524,743,0,0
-693,281,0,0,0,0,0,0,0,0,0,-1,531,743,0,0
-686,281,0,0,0,0,0,0,0,0,0,-1,538,743,0,0
-679,281,0,0,0,0,0,0,0,0,0,-1,545,743,0,0
-672,281,0,0,0,0,0,0,0,0,0,-1,552,743,0,0
-665,281,0,0,0,0,0,0,0,0,0,-1,559,743,0,0
-658,281,0,0,0,0,0,0,0,0,0,-1,566,743,0,0
-651,281,0,0,0,0,0,0,0,0,0,-1,573,743,0,0
-644,281,0,0,0,0,0,0,0,0,0,-1,580,743,0,0
-637,281,0,0,0,0,0,0,0,0,0,-1,587,743,0,0
-630,281,0,0,0,0,0,0,0,0,0,-1,594,743,0,0
-623,281,-13.984,-1.39282,0,0,0,0,0,0,0,-1,601,743,-13.984,1.39285
-616,281,-11.5906,2.6853,0,0,0,0,0,0,0,-1,608,743,-11.5906,-2.68529
-609,281,-11.3053,-0.648315,0,0,0,0,0,0,0,-1,615,743,-11.3053,0.648336
-602,281,-9.65039,-0.391418,0,0,0,0,0,0,0,-1,622,743,-9.65039,0.391399
-595,281,-10.4797,-1.07404,0,0,0,0,0,0,0,-1,629,743,-10.4798,1.07402
-588,281,-10.5586,1.50061,0,0,0,0,0,0,0,-1,636,743,-10.5586,-1.50062
-581,281,-11.6857,1.22919,0,0,0,0,0,0,0,-1,643,743,-11.6858,-1.22918
-574,281,-11.7083,0.809937,0.0209937,-0.0212282,0.00993533,0.0232147,-0.0234493,0.219936,0.0269416,0.0338671,650,743,-11.7083,-0.809942
-567,281,-11.8475,0.427612,0.00830357,-0.010866,0.00777818,0.0110625,-0.013625,0.34086,0.0142789,0.0156569,657,743,-11.8475,-0.427584
-560,281,-11.8939,0.0713501,0.0032534,-0.00560372,0.00506503,0.0055529,-0.00790321,0.42617,0.00780829,0.00785007,664,743,-11.8939,-0.0713407
-553,281,-11.8752,-0.279358,-0.000628707,-0.00165613,0.00257246,0.00148084,-0.00376567,0.686847,0.00312336,0.012569,671,743,-11.8752,0.279367
-546,281,-11.8826,-0.59668,-0.00189666,0.000681342,0.000790232,0.00090429,-0.00211961,1.29581,0.00179223,0.0149573,678,743,-11.8827,0.596678
-539,281,-11.8926,-0.947937,-0.00140088,-0.000312519,0.00129425,0.000547302,-0.0022607,0.984407,0.00171886,0.0132372,685,743,-11.8927,0.94791
-532,281,-11.8846,-1.27203,-0.00106129,-0.000627789,0.00198725,0.00115449,-0.00284357,0.839719,0.00237596,0.0117874,692,743,-11.8846,1.27205
-525,281,-11.9055,-1.61969,-0.000751301,-7.58916e-05,0.00277416,0.00238104,-0.00320824,0.845966,0.00323873,0.0136366,699,743,-11.9055,1.61968
-518,281,-11.9122,-1.98578,-0.000951048,0.00139187,0.00336772,0.00378606,-0.00334523,0.952777,0.00411987,0.0122841,706,743,-11.9122,1.98577
-511,281,-11.925,-2.33063,-0.002364,0.00466276,0.00396585,0.00644766,-0.0041489,1.14789,0.00616573,0.0102231,713,743,-11.925,2.33063
-504,281,-11.9504,-2.69366,-0.00436274,0.00916428,0.00504054,0.0108359,-0.0060344,1.25057,0.00987071,0.0128539,720,743,-11.9505,2.69369
-497,281,-11.772,-2.96082,-0.00660311,0.0141137,0.00595973,0.0157058,-0.00819522,1.30975,0.0140245,0.0388873,727,743,-11.772,2.96081
-490,281,-11.5266,-3.13776,0,0,0,0,0,0,0,-1,734,743,-11.5266,3.13774
-483,281,-18.2288,-0.877625,0,0,0,0,0,0,0,-1,741,743,-18.2288,0.877606
-476,281,-19.2667,2.39606,0,0,0,0,0,0,0,-1,748,743,-19.2667,-2.39606
-469,281,-19.5717,3.00812,0,0,0,0,0,0,0,-1,755,743,-19.5717,-3.00813
-462,281,-19.7943,2.84253,0,0,0,0,0,0,0,-1,762,743,-19.7943,-2.84253
-455,281,-20.4299,2.51099,0,0,0,0,0,0,0,-1,769,743,-20.4299,-2.51096
-448,281,-20.0477,0.597717,0,0,0,0,0,0,0,-1,776,743,-20.0477,-0.597737
-441,281,-20.2383,0.425842,0,0,0,0,0,0,0,-1,783,743,-20.2383,-0.42583
-434,281,0,0,0,0,0,0,0,0,0,-1,790,743,0,0
-427,281,0,0,0,0,0,0,0,0,0,-1,797,743,0,0
-420,281,0,0,0,0,0,0,0,0,0,-1,804,743,0,0
-413,281,0,0,0,0,0,0,0,0,0,-1,811,743,0,0
-406,281,0,0,0,0,0,0,0,0,0,-1,818,743,0,0
-399,281,0,0,0,0,0,0,0,0,0,-1,825,743,0,0
-392,281,0,0,0,0,0,0,0,0,0,-1,832,743,0,0
-385,281,0,0,0,0,0,0,0,0,0,-1,839,743,0,0
-378,281,0,0,0,0,0,0,0,0,0,-1,846,743,0,0
-371,281,0,0,0,0,0,0,0,0,0,-1,853,743,0,0
-364,281,0,0,0,0,0,0,0,0,0,-1,860,743,0,0
-357,281,0,0,0,0,0,0,0,0,0,-1,867,743,0,0
-350,281,0,0,0,0,0,0,0,0,0,-1,874,743,0,0
-343,281,0,0,0,0,0,0,0,0,0,-1,881,743,0,0
-336,281,0,0,0,0,0,0,0,0,0,-1,888,743,0,0
-329,281,0,0,0,0,0,0,0,0,0,-1,895,743,0,0
-322,281,0,0,0,0,0,0,0,0,0,-1,902,743,0,0
-315,281,0,0,0,0,0,0,0,0,0,-1,909,743,0,0
-308,281,0,0,0,0,0,0,0,0,0,-1,916,743,0,0
-301,281,0,0,0,0,0,0,0,0,0,-1,923,743,0,0
-294,281,0,0,0,0,0,0,0,0,0,-1,930,743,0,0
-287,281,0,0,0,0,0,0,0,0,0,-1,937,743,0,0
-280,281,0,0,0,0,0,0,0,0,0,-1,944,743,0,0
-273,281,0,0,0,0,0,0,0,0,0,-1,951,743,0,0
-266,281,0,0,0,0,0,0,0,0,0,-1,958,743,0,0
-259,281,0,0,0,0,0,0,0,0,0,-1,965,743,0,0
-252,281,0,0,0,0,0,0,0,0,0,-1,972,743,0,0
-245,281,0,0,0,0,0,0,0,0,0,-1,979,743,0,0
-238,281,0,0,0,0,0,0,0,0,0,-1,986,743,0,0
-231,281,0,0,0,0,0,0,0,0,0,-1,993,743,0,0
-224,281,0,0,0,0,0,0,0,0,0,-1,1000,743,0,0
-217,281,0,0,0,0,0,0,0,0,0,-1,1007,743,0,0
-210,281,0,0,0,0,0,0,0,0,0,-1,1014,743,0,0
-203,281,0,0,0,0,0,0,0,0,0,-1,1021,743,0,0
-196,281,0,0,0,0,0,0,0,0,0,-1,1028,743,0,0
-189,281,0,0,0,0,0,0,0,0,0,-1,1035,743,0,0
-182,281,0,0,0,0,0,0,0,0,0,-1,1042,743,0,0
-175,281,0,0,0,0,0,0,0,0,0,-1,1049,743,0,0
-168,281,0,0,0,0,0,0,0,0,0,-1,1056,743,0,0
-161,281,0,0,0,0,0,0,0,0,0,-1,1063,743,0,0
-154,281,0,0,0,0,0,0,0,0,0,-1,1070,743,0,0
-147,281,0,0,0,0,0,0,0,0,0,-1,1077,743,0,0
-140,281,0,0,0,0,0,0,0,0,0,-1,1084,743,0,0
-133,281,0,0,0,0,0,0,0,0,0,-1,1091,743,0,0
-126,281,0,0,0,0,0,0,0,0,0,-1,1098,743,0,0
-119,281,0,0,0,0,0,0,0,0,0,-1,1105,743,0,0
-112,281,0,0,0,0,0,0,0,0,0,-1,1112,743,0,0
-105,281,0,0,0,0,0,0,0,0,0,-1,1119,743,0,0
-98,281,0,0,0,0,0,0,0,0,0,-1,1126,743,0,0
-91,281,0,0,0,0,0,0,0,0,0,-1,1133,743,0,0
-84,281,0,0,0,0,0,0,0,0,0,-1,1140,743,0,0
-77,281,0,0,0,0,0,0,0,0,0,-1,1147,743,0,0
-70,281,0,0,0,0,0,0,0,0,0,-1,1154,743,0,0
-63,281,0,0,0,0,0,0,0,0,0,-1,1161,743,0,0
-56,281,0,0,0,0,0,0,0,0,0,-1,1168,743,0,0
-49,281,0,0,0,0,0,0,0,0,0,-1,1175,743,0,0
-42,281,0,0,0,0,0,0,0,0,0,-1,1182,743,0,0
-35,281,0,0,0,0,0,0,0,0,0,-1,1189,743,0,0
-28,281,0,0,0,0,0,0,0,0,0,-1,1196,743,0,0
-21,281,0,0,0,0,0,0,0,0,0,-1,1203,743,0,0
-14,281,0,0,0,0,0,0,0,0,0,-1,1210,743,0,0
-7,281,0,0,0,0,0,0,0,0,0,-1,1217,743,0,0
0,281,0,0,0,0,0,0,0,0,0,-1,1224,743,0,0
7,281,0,0,0,0,0,0,0,0,0,-1,1231,743,0,0
14,281,0,0,0,0,0,0,0,0,0,-1,1238,743,0,0
21,281,0,0,0,0,0,0,0,0,0,-1,1245,743,0,0
28,281,0,0,0,0,0,0,0,0,0,-1,1252,743,0,0
35,281,0,0,0,0,0,0,0,0,0,-1,1259,743,0,0
42,281,0,0,0,0,0,0,0,0,0,-1,1266,743,0,0
49,281,0,0,0,0,0,0,0,0,0,-1,1273,743,0,0
56,281,0,0,0,0,0,0,0,0,0,-1,1280,743,0,0
63,281,0,0,0,0,0,0,0,0,0,-1,1287,743,0,0
70,281,0,0,0,0,0,0,0,0,0,-1,1294,743,0,0
77,281,0,0,0,0,0,0,0,0,0,-1,1301,743,0,0
84,281,0,0,0,0,0,0,0,0,0,-1,1308,743,0,0
91,281,0,0,0,0,0,0,0,0,0,-1,1315,743,0,0
98,281,0,0,0,0,0,0,0,0,0,-1,1322,743,0,0
105,281,0,0,0,0,0,0,0,0,0,-1,1329,743,0,0
112,281,0,0,0,0,0,0,0,0,0,-1,1336,743,0,0
119,281,0,0,0,0,0,0,0,0,0,-1,1343,743,0,0
126,281,0,0,0,0,0,0,0,0,0,-1,1350,743,0,0
133,281,0,0,0,0,0,0,0,0,0,-1,1357,743,0,0
140,281,0,0,0,0,0,0,0,0,0,-1,1364,743,0,0
147,281,0,0,0,0,0,0,0,0,0,-1,1371,743,0,0
154,281,0,0,0,0,0,0,0,0,0,-1,1378,743,0,0
161,281,0,0,0,0,0,0,0,0,0,-1,1385,743,0,0
168,281,0,0,0,0,0,0,0,0,0,-1,1392,743,0,0
175,281,0,0,0,0,0,0,0,0,0,-1,1399,743,0,0
182,281,0,0,0,0,0,0,0,0,0,-1,1406,743,0,0
189,281,0,0,0,0,0,0,0,0,0,-1,1413,743,0,0
196,281,0,0,0,0,0,0,0,0,0,-1,1420,743,0,0
203,281,0,0,0,0,0,0,0,0,0,-1,1427,743,0,0
210,281,0,0,0,0,0,0,0,0,0,-1,1434,743,0,0
217,281,0,0,0,0,0,0,0,0,0,-1,1441,743,0,0
224,281,0,0,0,0,0,0,0,0,0,-1,1448,743,0,0
231,281,0,0,0,0,0,0,0,0,0,-1,1455,743,0,0
238,281,0,0,0,0,0,0,0,0,0,-1,1462,743,0,0
245,281,0,0,0,0,0,0,0,0,0,-1,1469,743,0,0
252,281,0,0,0,0,0,0,0,0,0,-1,1476,743,0,0
259,281,0,0,0,0,0,0,0,0,0,-1,1483,743,0,0
266,281,0,0,0,0,0,0,0,0,0,-1,1490,743,0,0
273,281,0,0,0,0,0,0,0,0,0,-1,1497,743,0,0
280,281,0,0,0,0,0,0,0,0,0,-1,1504,743,0,0
287,281,0,0,0,0,0,0,0,0,0,-1,1511,743,0,0
294,281,0,0,0,0,0,0,0,0,0,-1,1518,743,0,0
301,281,0,0,0,0,0,0,0,0,0,-1,1525,743,0,0
308,281,0,0,0,0,0,0,0,0,0,-1,1532,743,0,0
315,281,0,0,0,0,0,0,0,0,0,-1,1539,743,0,0
322,281,0,0,0,0,0,0,0,0,0,-1,1546,743,0,0
329,281,0,0,0,0,0,0,0,0,0,-1,1553,743,0,0
336,281,0,0,0,0,0,0,0,0,0,-1,1560,743,0,0
343,281,0,0,0,0,0,0,0,0,0,-1,1567,743,0,0
350,281,0,0,0,0,0,0,0,0,0,-1,1574,743,0,0
357,281,0,0,0,0,0,0,0,0,0,-1,1581,743,0,0
364,281,0,0,0,0,0,0,0,0,0,-1,1588,743,0,0
371,281,0,0,0,0,0,0,0,0,0,-1,1595,743,0,0
378,281,0,0,0,0,0,0,0,0,0,-1,1602,743,0,0
385,281,0,0,0,0,0,0,0,0,0,-1,1609,743,0,0
392,281,0,0,0,0,0,0,0,0,0,-1,1616,743,0,0
399,281,0,0,0,0,0,0,0,0,0,-1,1623,743,0,0
406,281,0,0,0,0,0,0,0,0,0,-1,1630,743,0,0
413,281,0,0,0,0,0,0,0,0,0,-1,1637,743,0,0
420,281,0,0,0,0,0,0,0,0,0,-1,1644,743,0,0
427,281,0,0,0,0,0,0,0,0,0,-1,1651,743,0,0
434,281,0,0,0,0,0,0,0,0,0,-1,1658,743,0,0
441,281,0,0,0,0,0,0,0,0,0,-1,1665,743,0,0
448,281,0,0,0,0,0,0,0,0,0,-1,1672,743,0,0
455,281,0,0,0,0,0,0,0,0,0,-1,1679,743,0,0
462,281,0,0,0,0,0,0,0,0,0,-1,1686,743,0,0
469,281,0,0,0,0,0,0,0,0,0,-1,1693,743,0,0
476,281,0,0,0,0,0,0,0,0,0,-1,1700,743,0,0
483,281,0,0,0,0,0,0,0,0,0,-1,1707,743,0,0
490,281,0,0,0,0,0,0,0,0,0,-1,1714,743,0,0
497,281,0,0,0,0,0,0,0,0,0,-1,1721,743,0,0
504,281,0,0,0,0,0,0,0,0,0,-1,1728,743,0,0
511,281,0,0,0,0,0,0,0,0,0,-1,1735,743,0,0
518,281,0,0,0,0,0,0,0,0,0,-1,1742,743,0,0
525,281,0,0,0,0,0,0,0,0,0,-1,1749,743,0,0
532,281,0,0,0,0,0,0,0,0,0,-1,1756,743,0,0
539,281,0,0,0,0,0,0,0,0,0,-1,1763,743,0,0
546,281,0,0,0,0,0,0,0,0,0,-1,1770,743,0,0
553,281,0,0,0,0,0,0,0,0,0,-1,1777,743,0,0
560,281,30.1169,2.91803,0,0,0,0,0,0,0,-1,1784,743,30.1169,-2.91803
567,281,30.2129,2.77991,0.0125174,0.00640713,0.02844,0.0380659,-0.0191413,0.731891,0.0336256,0.0403183,1791,743,30.2129,-2.77991
574,281,30.4159,2.9209,0,0,0,0,0,0,0,-1,1798,743,30.4159,-2.92087
581,281,30.4601,3.27606,0.00718531,-0.00219735,0.0250319,0.0279617,-0.0229738,0.692766,0.0294546,0.0461691,1805,743,30.4601,-3.27604
588,281,30.1727,3.43805,0.00538827,-0.00372427,0.0218366,0.0231388,-0.0214748,0.682547,0.0257637,0.0434041,1812,743,30.1728,-3.43806
595,281,29.9948,3.82367,0,0,0,0,0,0,0,-1,1819,743,29.9947,-3.82369
602,281,28.928,4.23987,0,0,0,0,0,0,0,-1,1826,743,28.928,-4.23988
609,281,29.5114,2.23206,0,0,0,0,0,0,0,-1,1833,743,29.5113,-2.23207
616,281,19.7532,0.0239868,0,0,0,0,0,0,0,-1,1840,743,19.7532,-0.0239913
623,281,19.6716,-1.10071,0,0,0,0,0,0,0,-1,1847,743,19.6716,1.10073
630,281,19.7183,-0.79071,0.00179939,-0.00164091,0.00572765,0.00605962,-0.00590114,0.639521,0.00690575,0.0413095,1854,743,19.7182,0.790711
637,281,19.7501,-0.44928,0.00191267,-0.00106116,0.00381219,0.00451766,-0.00366616,0.599452,0.00473345,0.0138454,1861,743,19.7502,0.449264
644,281,19.7612,-0.0529175,0.00155989,-0.000687383,0.00271248,0.00337225,-0.00249975,0.589034,0.00340265,0.0107989,1868,743,19.7612,0.0529048
651,281,19.7649,0.310425,0.00102567,9.96787e-05,0.00146855,0.00210248,-0.000977131,0.632693,0.00181715,0.0120124,1875,743,19.7649,-0.310401
658,281,19.7366,0.695313,0.000574758,0.000489952,0.000602783,0.00113663,-7.19178e-05,0.750284,0.000782826,0.0197035,1882,743,19.7365,-0.695326
665,281,19.76,1.04468,0.000259864,0.000847398,0.000112352,0.00086815,0.000239112,1.38815,0.000517804,0.019848,1889,743,19.76,-1.04466
672,281,19.7303,1.40887,0.000925742,0.00120064,0.000403675,0.00148963,0.000636759,0.94949,0.000863048,0.0123461,1896,743,19.7303,-1.40885
679,281,19.7317,1.77124,0.00232502,0.00174572,0.000807137,0.00289291,0.00117784,0.613126,0.00167979,0.0187094,1903,743,19.7317,-1.77122
686,281,19.7126,2.10107,0.00476736,0.002016,0.00116666,0.00519545,0.00158791,0.351684,0.00307422,0.013726,1910,743,19.7127,-2.10107
693,281,19.704,2.46838,0.00845625,0.00200818,0.00132828,0.00871916,0.00174528,0.195402,0.00532718,0.0102475,1917,743,19.7039,-2.4684
700,281,19.686,2.84686,0.0138916,0.00173747,0.00156996,0.0140911,0.00153795,0.126408,0.00892567,0.0213494,1924,743,19.6861,-2.84687
707,281,19.7457,3.13599,0.0216685,0.000867514,0.00189028,0.0218389,0.000697131,0.0898933,0.0143325,0.0438715,1931,743,19.7458,-3.136
714,281,19.8583,3.3681,0,0,0,0,0,0,0,-1,1938,743,19.8583,-3.36809
721,281,16.9656,3.22174,0,0,0,0,0,0,0,-1,1945,743,16.9656,-3.22172
728,281,19.0251,3.63934,0,0,0,0,0,0,0,-1,1952,743,19.0252,-3.63932
735,281,19.0869,2.50311,0,0,0,0,0,0,0,-1,1959,743,19.0869,-2.5031
742,281,0,0,0,0,0,0,0,0,0,-1,1966,743,0,0
749,281,0,0,0,0,0,0,0,0,0,-1,1973,743,0,0
756,281,0,0,0,0,0,0,0,0,0,-1,1980,743,0,0
763,281,0,0,0,0,0,0,0,0,0,-1,1987,743,0,0
770,281,0,0,0,0,0,0,0,0,0,-1,1994,743,0,0
777,281,0,0,0,0,0,0,0,0,0,-1,2001,743,0,0
784,281,0,0,0,0,0,0,0,0,0,-1,2008,743,0,0
791,281,0,0,0,0,0,0,0,0,0,-1,2015,743,0,0
798,281,0,0,0,0,0,0,0,0,0,-1,2022,743,0,0
805,281,0,0,0,0,0,0,0,0,0,-1,2029,743,0,0
812,281,0,0,0,0,0,0,0,0,0,-1,2036,743,0,0
-700,274,0,0,0,0,0,0,0,0,0,-1,524,750,0,0
-693,274,0,0,0,0,0,0,0,0,0,-1,531,750,0,0
-686,274,0,0,0,0,0,0,0,0,0,-1,538,750,0,0
-679,274,0,0,0,0,0,0,0,0,0,-1,545,750,0,0
-672,274,0,0,0,0,0,0,0,0,0,-1,552,750,0,0
-665,274,0,0,0,0,0,0,0,0,0,-1,559,750,0,0
-658,274,0,0,0,0,0,0,0,0,0,-1,566,750,0,0
-651,274,0,0,0,0,0,0,0,0,0,-1,573,750,0,0
-644,274,0,0,0,0,0,0,0,0,0,-1,580,750,0,0
-637,274,0,0,0,0,0,0,0,0,0,-1,587,750,0,0
-630,274,0,0,0,0,0,0,0,0,0,-1,594,750,0,0
-623,274,-15.3624,1.72058,0,0,0,0,0,0,0,-1,601,750,-15.3624,-1.72056
-616,274,-13.6027,1.02539,0,0,0,0,0,0,0,-1,608,750,-13.6027,-1.02538
-609,274,-11.8582,0.624451,0.141745,-0.124977,0.0360089,0.146521,-0.129753,0.131861,0.159605,0.0480438,615,750,-11.8582,-0.624439
-602,274,-10.2803,0.339844,0.107453,-0.0952467,0.0281755,0.111296,-0.0990903,0.135578,0.121535,0.0480251,622,750,-10.2803,-0.339867
-595,274,-12.2135,2.8869,0,0,0,0,0,0,0,-1,629,750,-12.2135,-2.88691
-588,274,-12.0887,1.60175,0,0,0,0,0,0,0,-1,636,750,-12.0887,-1.60177
-581,274,-12.1016,1.19,0.035675,-0.0327269,0.0115845,0.0375837,-0.0346356,0.163295,0.0417074,0.0423126,643,750,-12.1015,-1.19001
-574,274,-12.1025,0.763062,0.0194212,-0.0184197,0.00760675,0.020893,-0.0198915,0.191131,0.0235494,0.0217224,650,750,-12.1025,-0.76305
-567,274,-12.2161,0.389587,0.00804917,-0.00954649,0.00623648,0.0100354,-0.0115327,0.308326,0.0124623,0.0187489,657,750,-12.2161,-0.389565
-560,274,-12.2398,0.097229,0.00335643,-0.00503722,0.00418759,0.00508829,-0.00676907,0.392148,0.00686874,0.0138718,664,750,-12.2398,-0.0972286
-553,274,-12.2413,-0.257202,-0.00022686,-0.00166654,0.00216129,0.00133132,-0.00322471,0.624646,0.00270508,0.0094939,671,750,-12.2413,0.257196
-546,274,-12.256,-0.604431,-0.00140065,0.000303144,0.000750587,0.000586636,-0.00168415,1.20967,0.00136112,0.0110322,678,750,-12.256,0.604406
-539,274,-12.2504,-0.934265,-0.00096811,-0.000725878,0.00140664,0.000564853,-0.00225884,0.828344,0.00172528,0.0112623,685,750,-12.2504,0.93427
-532,274,-12.2474,-1.24792,-0.000721698,-0.000886586,0.0023958,0.00159307,-0.00320136,0.768199,0.0028195,0.0119172,692,750,-12.2474,1.24792
-525,274,-12.2511,-1.60071,-0.000405731,-9.7563e-05,0.00340536,0.00315719,-0.00366049,0.808006,0.00393976,0.0123983,699,750,-12.2511,1.60074
-518,274,-12.2528,-1.97839,-0.000677362,0.0016338,0.00404026,0.00468049,-0.00372405,0.924688,0.00486282,0.0124532,706,750,-12.2528,1.97836
-511,274,-12.2659,-2.33954,-0.00222537,0.00515504,0.00462319,0.0073802,-0.00445053,1.12222,0.00689993,0.011795,713,750,-12.2658,2.33953
-504,274,-12.2892,-2.70911,-0.00427622,0.00986847,0.00569956,0.0118792,-0.00628699,1.23163,0.0106526,0.0215275,720,750,-12.2892,2.70909
-497,274,-12.2891,-2.93292,-0.00662627,0.015032,0.00657083,0.0168696,-0.00846387,1.2981,0.0148922,0.0488254,727,750,-12.2891,2.93293
-490,274,-12.2821,-3.15472,0,0,0,0,0,0,0,-1,734,750,-12.2821,3.15475
-483,274,-19.5836,3.09399,0,0,0,0,0,0,0,-1,741,750,-19.5835,-3.09399
-476,274,-19.7634,2.34442,0,0,0,0,0,0,0,-1,748,750,-19.7634,-2.34441
-469,274,-19.9828,2.87415,-0.0256248,0.0489599,0.00821459,0.0498539,-0.0265188,1.46239,0.0447746,0.0482301,755,750,-19.9828,-2.87413
-462,274,-20.0386,2.87738,-0.0336536,0.0608152,0.00815215,0.0615136,-0.0343519,1.48534,0.0560836,0.0479471,762,750,-20.0386,-2.87736
-455,274,-20.5405,2.76892,-0.0435969,0.0735975,0.00812296,0.0741578,-0.0441572,1.50192,0.0690374,0.0455989,769,750,-20.5405,-2.76889
-448,274,-21.0087,2.55084,0,0,0,0,0,0,0,-1,776,750,-21.0087,-2.55083
-441,274,0,0,0,0,0,0,0,0,0,-1,783,750,0,0
-434,274,0,0,0,0,0,0,0,0,0,-1,790,750,0,0
-427,274,0,0,0,0,0,0,0,0,0,-1,797,750,0,0
-420,274,0,0,0,0,0,0,0,0,0,-1,804,750,0,0
-413,274,0,0,0,0,0,0,0,0,0,-1,811,750,0,0
-406,274,0,0,0,0,0,0,0,0,0,-1,818,750,0,0
-399,274,0,0,0,0,0,0,0,0,0,-1,825,750,0,0
-392,274,0,0,0,0,0,0,0,0,0,-1,832,750,0,0
-385,274,0,0,0,0,0,0,0,0,0,-1,839,750,0,0
-378,274,0,0,0,0,0,0,0,0,0,-1,846,750,0,0
-371,274,0,0,0,0,0,0,0,0,0,-1,853,750,0,0
-364,274,0,0,0,0,0,0,0,0,0,-1,860,750,0,0
-357,274,0,0,0,0,0,0,0,0,0,-1,867,750,0,0
-350,274,0,0,0,0,0,0,0,0,0,-1,874,750,0,0
-343,274,0,0,0,0,0,0,0,0,0,-1,881,750,0,0
-336,274,0,0,0,0,0,0,0,0,0,-1,888,750,0,0
-329,274,0,0,0,0,0,0,0,0,0,-1,895,750,0,0
-322,274,0,0,0,0,0,0,0,0,0,-1,902,750,0,0
-315,274,0,0,0,0,0,0,0,0,0,-1,909,750,0,0
-308,274,0,0,0,0,0,0,0,0,0,-1,916,750,0,0
-301,274,0,0,0,0,0,0,0,0,0,-1,923,750,0,0
-294,274,0,0,0,0,0,0,0,0,0,-1,930,750,0,0
-287,274,0,0,0,0,0,0,0,0,0,-1,937,750,0,0
-280,274,0,0,0,0,0,0,0,0,0,-1,944,750,0,0
-273,274,0,0,0,0,0,0,0,0,0,-1,951,750,0,0
-266,274,0,0,0,0,0,0,0,0,0,-1,958,750,0,0
-259,274,0,0,0,0,0,0,0,0,0,-1,965,750,0,0
-252,274,0,0,0,0,0,0,0,0,0,-1,972,750,0,0
-245,274,0,0,0,0,0,0,0,0,0,-1,979,750,0,0
-238,274,0,0,0,0,0,0,0,0,0,-1,986,750,0,0
-231,274,0,0,0,0,0,0,0,0,0,-1,993,750,0,0
-224,274,0,0,0,0,0,0,0,0,0,-1,1000,750,0,0
-217,274,0,0,0,0,0,0,0,0,0,-1,1007,750,0,0
-210,274,0,0,0,0,0,0,0,0,0,-1,1014,750,0,0
-203,274,0,0,0,0,0,0,0,0,0,-1,1021,750,0,0
-196,274,0,0,0,0,0,0,0,0,0,-1,1028,750,0,0
-189,274,0,0,0,0,0,0,0,0,0,-1,1035,750,0,0
-182,274,0,0,0,0,0,0,0,0,0,-1,1042,750,0,0
-175,274,0,0,0,0,0,0,0,0,0,-1,1049,750,0,0
-168,274,0,0,0,0,0,0,0,0,0,-1,1056,750,0,0
-161,274,0,0,0,0,0,0,0,0,0,-1,1063,750,0,0
-154,274,0,0,0,0,0,0,0,0,0,-1,1070,750,0,0
-147,274,0,0,0,0,0,0,0,0,0,-1,1077,750,0,0
-140,274,0,0,0,0,0,0,0,0,0,-1,1084,750,0,0
-133,274,0,0,0,0,0,0,0,0,0,-1,1091,750,0,0
-126,274,0,0,0,0,0,0,0,0,0,-1,1098,750,0,0
-119,274,0,0,0,0,0,0,0,0,0,-1,1105,750,0,0
-112,274,0,0,0,0,0,0,0,0,0,-1,1112,750,0,0
-105,274,0,0,0,0,0,0,0,0,0,-1,1119,750,0,0
-98,274,0,0,0,0,0,0,0,0,0,-1,1126,750,0,0
-91,274,0,0,0,0,0,0,0,0,0,-1,1133,750,0,0
-84,274,0,0,0,0,0,0,0,0,0,-1,1140,750,0,0
-77,274,0,0,0,0,0,0,0,0,0,-1,1147,750,0,0
-70,274,0,0,0,0,0,0,0,0,0,-1,1154,750,0,0
-63,274,0,0,0,0,0,0,0,0,0,-1,1161,750,0,0
-56,274,0,0,0,0,0,0,0,0,0,-1,1168,750,0,0
-49,274,0,0,0,0,0,0,0,0,0,-1,1175,750,0,0
-42,274,0,0,0,0,0,0,0,0,0,-1,1182,750,0,0
-35,274,0,0,0,0,0,0,0,0,0,-1,1189,750,0,0
-28,274,0,0,0,0,0,0,0,0,0,-1,1196,750,0,0
-21,274,0,0,0,0,0,0,0,0,0,-1,1203,750,0,0
-14,274,0,0,0,0,0,0,0,0,0,-1,1210,750,0,0
-7,274,0,0,0,0,0,0,0,0,0,-1,1217,750,0,0
0,274,0,0,0,0,0,0,0,0,0,-1,1224,750,0,0
7,274,0,0,0,0,0,0,0,0,0,-1,1231,750,0,0
14,274,0,0,0,0,0,0,0,0,0,-1,1238,750,0,0
21,274,0,0,0,0,0,0,0,0,0,-1,1245,750,0,0
28,274,0,0,0,0,0,0,0,0,0,-1,1252,750,0,0
35,274,0,0,0,0,0,0,0,0,0,-1,1259,750,0,0
42,274,0,0,0,0,0,0,0,0,0,-1,1266,750,0,0
49,274,0,0,0,0,0,0,0,0,0,-1,1273,750,0,0
56,274,0,0,0,0,0,0,0,0,0,-1,1280,750,0,0
63,274,0,0,0,0,0,0,0,0,0,-1,1287,750,0,0
70,274,0,0,0,0,0,0,0,0,0,-1,1294,750,0,0
77,274,0,0,0,0,0,0,0,0,0,-1,1301,750,0,0
84,274,0,0,0,0,0,0,0,0,0,-1,1308,750,0,0
91,274,0,0,0,0,0,0,0,0,0,-1,1315,750,0,0
98,274,0,0,0,0,0,0,0,0,0,-1,1322,750,0,0
105,274,0,0,0,0,0,0,0,0,0,-1,1329,750,0,0
112,274,0,0,0,0,0,0,0,0,0,-1,1336,750,0,0
119,274,0,0,0,0,0,0,0,0,0,-1,1343,750,0,0
126,274,0,0,0,0,0,0,0,0,0,-1,1350,750,0,0
133,274,0,0,0,0,0,0,0,0,0,-1,1357,750,0,0
140,274,0,0,0,0,0,0,0,0,0,-1,1364,750,0,0
147,274,0,0,0,0,0,0,0,0,0,-1,1371,750,0,0
154,274,0,0,0,0,0,0,0,0,0,-1,1378,750,0,0
161,274,0,0,0,0,0,0,0,0,0,-1,1385,750,0,0
168,274,0,0,0,0,0,0,0,0,0,-1,1392,750,0,0
175,274,0,0,0,0,0,0,0,0,0,-1,1399,750,0,0
182,274,0,0,0,0,0,0,0,0,0,-1,1406,750,0,0
189,274,0,0,0,0,0,0,0,0,0,-1,1413,750,0,0
196,274,0,0,0,0,0,0,0,0,0,-1,1420,750,0,0
203,274,0,0,0,0,0,0,0,0,0,-1,1427,750,0,0
210,274,0,0,0,0,0,0,0,0,0,-1,1434,750,0,0
217,274,0,0,0,0,0,0,0,0,0,-1,1441,750,0,0
224,274,0,0,0,0,0,0,0,0,0,-1,1448,750,0,0
231,274,0,0,0,0,0,0,0,0,0,-1,1455,750,0,0
238,274,0,0,0,0,0,0,0,0,0,-1,1462,750,0,0
245,274,0,0,0,0,0,0,0,0,0,-1,1469,750,0,0
252,274,0,0,0,0,0,0,0,0,0,-1,1476,750,0,0
259,274,0,0,0,0,0,0,0,0,0,-1,1483,750,0,0
266,274,0,0,0,0,0,0,0,0,0,-1,1490,750,0,0
273,274,0,0,0,0,0,0,0,0,0,-1,1497,750,0,0
280,274,0,0,0,0,0,0,0,0,0,-1,1504,750,0,0
287,274,0,0,0,0,0,0,0,0,0,-1,1511,750,0,0
294,274,0,0,0,0,0,0,0,0,0,-1,1518,750,0,0
301,274,0,0,0,0,0,0,0,0,0,-1,1525,750,0,0
308,274,0,0,0,0,0,0,0,0,0,-1,1532,750,0,0
315,274,0,0,0,0,0,0,0,0,0,-1,1539,750,0,0
322,274,0,0,0,0,0,0,0,0,0,-1,1546,750,0,0
329,274,0,0,0,0,0,0,0,0,0,-1,1553,750,0,0
336,274,0,0,0,0,0,0,0,0,0,-1,1560,750,0,0
343,274,0,0,0,0,0,0,0,0,0,-1,1567,750,0,0
350,274,0,0,0,0,0,0,0,0,0,-1,1574,750,0,0
357,274,0,0,0,0,0,0,0,0,0,-1,1581,750,0,0
364,274,0,0,0,0,0,0,0,0,0,-1,1588,750,0,0
371,274,0,0,0,0,0,0,0,0,0,-1,1595,750,0,0
378,274,0,0,0,0,0,0,0,0,0,-1,1602,750,0,0
385,274,0,0,0,0,0,0,0,0,0,-1,1609,750,0,0
392,274,0,0,0,0,0,0,0,0,0,-1,1616,750,0,0
399,274,0,0,0,0,0,0,0,0,0,-1,1623,750,0,0
406,274,0,0,0,0,0,0,0,0,0,-1,1630,750,0,0
413,274,0,0,0,0,0,0,0,0,0,-1,1637,750,0,0
420,274,0,0,0,0,0,0,0,0,0,-1,1644,750,0,0
427,274,0,0,0,0,0,0,0,0,0,-1,1651,750,0,0
434,274,0,0,0,0,0,0,0,0,0,-1,1658,750,0,0
441,274,0,0,0,0,0,0,0,0,0,-1,1665,750,0,0
448,274,0,0,0,0,0,0,0,0,0,-1,1672,750,0,0
455,274,0,0,0,0,0,0,0,0,0,-1,1679,750,0,0
462,274,0,0,0,0,0,0,0,0,0,-1,1686,750,0,0
469,274,0,0,0,0,0,0,0,0,0,-1,1693,750,0,0
476,274,0,0,0,0,0,0,0,0,0,-1,1700,750,0,0
483,274,0,0,0,0,0,0,0,0,0,-1,1707,750,0,0
490,274,0,0,0,0,0,0,0,0,0,-1,1714,750,0,0
497,274,0,0,0,0,0,0,0,0,0,-1,1721,750,0,0
504,274,0,0,0,0,0,0,0,0,0,-1,1728,750,0,0
511,274,0,0,0,0,0,0,0,0,0,-1,1735,750,0,0
518,274,0,0,0,0,0,0,0,0,0,-1,1742,750,0,0
525,274,0,0,0,0,0,0,0,0,0,-1,1749,750,0,0
532,274,0,0,0,0,0,0,0,0,0,-1,1756,750,0,0
539,274,0,0,0,0,0,0,0,0,0,-1,1763,750,0,0
546,274,0,0,0,0,0,0,0,0,0,-1,1770,750,0,0
553,274,0,0,0,0,0,0,0,0,0,-1,1777,750,0,0
560,274,30.4453,3.14996,0,0,0,0,0,0,0,-1,1784,750,30.4454,-3.14999
567,274,30.0562,3.41095,0,0,0,0,0,0,0,-1,1791,750,30.0562,-3.41093
574,274,30.6735,2.99738,0,0,0,0,0,0,0,-1,1798,750,30.6735,-2.99738
581,274,30.4878,3.2323,0.005251,-0.002638,0.0227723,0.0244179,-0.0218049,0.699642,0.026701,0.04251,1805,750,30.4878,-3.23233
588,274,30.2786,3.4082,0.0040643,-0.00375995,0.020265,0.0207913,-0.020487,0.690047,0.0238322,0.0424827,1812,750,30.2785,-3.40818
595,274,31.8861,1.99097,0,0,0,0,0,0,0,-1,1819,750,31.8862,-1.99096
602,274,31.9672,2.67145,0,0,0,0,0,0,0,-1,1826,750,31.9671,-2.67146
609,274,32.7244,2.5528,0,0,0,0,0,0,0,-1,1833,750,32.7244,-2.55278
616,274,28.4136,1.82983,0,0,0,0,0,0,0,-1,1840,750,28.4136,-1.82982
623,274,20.5646,-1.20447,0,0,0,0,0,0,0,-1,1847,750,20.5645,1.20447
630,274,20.3364,-0.838135,0.00168943,-0.0013444,0.00561238,0.00598628,-0.00564124,0.653412,0.00671414,0.0475995,1854,750,20.3364,0.838107
637,274,20.1107,-0.439331,0.0017232,-0.000917412,0.00390273,0.00452291,-0.00371712,0.62229,0.00476496,0.0136232,1861,750,20.1107,0.439308
644,274,20.1149,-0.0441284,0.00133138,-0.000714725,0.00283651,0.00332369,-0.00270704,0.612323,0.0034879,0.011326,1868,750,20.1149,0.0441436
651,274,20.124,0.31073,0.000869829,-1.12653e-05,0.00150326,0.00199576,-0.0011372,0.642859,0.00183132,0.0127438,1875,750,20.124,-0.310746
658,274,20.1343,0.671936,0.000495411,0.00024144,0.000495822,0.000880251,-0.000143399,0.660037,0.000640011,0.0153003,1882,750,20.1342,-0.671938
665,274,20.1049,1.05603,0.000187474,0.000538011,-0.000113756,0.000571691,0.000153794,-1.28295,0.000341604,0.0154795,1889,750,20.1049,-1.05603
672,274,20.0858,1.43213,0.000949559,0.000719368,0.000212208,0.00107587,0.000593053,0.536914,0.000622242,0.0132021,1896,750,20.0859,-1.43214
679,274,20.0844,1.79272,0.00262017,0.0011816,0.000679204,0.00289017,0.000911599,0.378373,0.00170612,0.0144,1903,750,20.0844,-1.7927
686,274,20.0707,2.13904,0.00535501,0.00132386,0.00107343,0.00562303,0.00105585,0.24468,0.00345101,0.0143509,1910,750,20.0706,-2.13903
693,274,20.0649,2.50641,0.00929318,0.00109331,0.0011628,0.00945489,0.000931602,0.138178,0.00601681,0.0114938,1917,750,20.0649,-2.50639
700,274,20.0698,2.87164,0.0148596,0.00052319,0.00124882,0.0149676,0.00041522,0.0862427,0.00984289,0.0138687,1924,750,20.0699,-2.87165
707,274,20.0568,3.20581,0.0225526,-0.000716687,0.0013193,0.0226271,-0.000791248,0.0564561,0.0153553,0.0222419,1931,750,20.0567,-3.20581
714,274,20.3085,3.42328,0.0331318,-0.00342042,0.000735584,0.0331466,-0.00343521,0.0201133,0.0233273,0.0445595,1938,750,20.3085,-3.4233
721,274,20.5204,3.51166,0,0,0,0,0,0,0,-1,1945,750,20.5203,-3.51166
728,274,19.2209,3.95154,0,0,0,0,0,0,0,-1,1952,750,19.221,-3.95151
735,274,20.6608,4.10931,0,0,0,0,0,0,0,-1,1959,750,20.6607,-4.10932
742,274,11.7815,-0.740234,0,0,0,0,0,0,0,-1,1966,750,11.7815,0.740253
749,274,0,0,0,0,0,0,0,0,0,-1,1973,750,0,0
756,274,0,0,0,0,0,0,0,0,0,-1,1980,750,0,0
763,274,0,0,0,0,0,0,0,0,0,-1,1987,750,0,0
770,274,0,0,0,0,0,0,0,0,0,-1,1994,750,0,0
777,274,0,0,0,0,0,0,0,0,0,-1,2001,750,0,0
784,274,0,0,0,0,0,0,0,0,0,-1,2008,750,0,0
791,274,0,0,0,0,0,0,0,0,0,-1,2015,750,0,0
798,274,0,0,0,0,0,0,0,0,0,-1,2022,750,0,0
805,274,0,0,0,0,0,0,0,0,0,-1,2029,750,0,0
812,274,0,0,0,0,0,0,0,0,0,-1,2036,750,0,0
-700,267,0,0,0,0,0,0,0,0,0,-1,524,757,0,0
-693,267,0,0,0,0,0,0,0,0,0,-1,531,757,0,0
-686,267,0,0,0,0,0,0,0,0,0,-1,538,757,0,0
-679,267,0,0,0,0,0,0,0,0,0,-1,545,757,0,0
-672,267,0,0,0,0,0,0,0,0,0,-1,552,757,0,0
-665,267,0,0,0,0,0,0,0,0,0,-1,559,757,0,0
-658,267,0,0,0,0,0,0,0,0,0,-1,566,757,0,0
-651,267,0,0,0,0,0,0,0,0,0,-1,573,757,0,0
-644,267,0,0,0,0,0,0,0,0,0,-1,580,757,0,0
-637,267,0,0,0,0,0,0,0,0,0,-1,587,757,0,0
-630,267,-17.6785,4.03638,0.239832,-0.191757,0.0252612,0.241305,-0.193231,0.0582655,0.251391,0.0482761,594,757,-17.6785,-4.03637
-623,267,-16.174,3.3913,0.197781,-0.160966,0.0273565,0.199855,-0.16304,0.0756725,0.209877,0.0484486,601,757,-16.174,-3.39132
-616,267,-14.3332,2.50665,0,0,0,0,0,0,0,-1,608,757,-14.3332,-2.50666
-609,267,-12.7726,1.87433,0.1251,-0.104399,0.0229265,0.127368,-0.106666,0.0986003,0.135296,0.0433401,615,757,-12.7726,-1.87431
-602,267,-12.5526,3.24188,0.0950963,-0.0799761,0.0189556,0.0971252,-0.082005,0.106626,0.103544,0.0491934,622,757,-12.5525,-3.24185
-595,267,-12.41,2.53375,0.0695262,-0.0588765,0.0150365,0.0712635,-0.0606138,0.115031,0.0762221,0.0487338,629,757,-12.41,-2.53375
-588,267,-12.3903,1.82501,0.0484385,-0.0413399,0.0114205,0.0498685,-0.0427699,0.124565,0.0535371,0.0433266,636,757,-12.3903,-1.82499
-581,267,-12.4257,1.1792,0.0318759,-0.0274583,0.00826753,0.0330064,-0.0285887,0.135891,0.0355924,0.0302665,643,757,-12.4256,-1.17921
-574,267,-12.492,0.767456,0.0176066,-0.0153833,0.00539085,0.0184652,-0.0162419,0.157937,0.0200519,0.016895,650,757,-12.492,-0.767453
-567,267,-12.5441,0.419739,0.00747533,-0.00792189,0.00469575,0.00879441,-0.00924096,0.273851,0.0104138,0.0213384,657,757,-12.5441,-0.419717
-560,267,-12.5873,0.120728,0.00315905,-0.0041796,0.00328369,0.0044138,-0.00543435,0.364996,0.005696,0.0205857,664,757,-12.5873,-0.120746
-553,267,-12.6232,-0.180237,-1.40899e-05,-0.00146635,0.00177008,0.00117301,-0.00265345,0.590754,0.00226366,0.0169359,671,757,-12.6233,0.180221
-546,267,-12.5997,-0.577393,-0.000949247,1.21165e-05,0.000810095,0.000473405,-0.00141054,1.05316,0.00113166,0.0110745,678,757,-12.5997,0.577412
-539,267,-12.587,-0.926086,-0.000480776,-0.00106947,0.00164109,0.000892156,-0.00244241,0.696661,0.00199336,0.0105337,685,757,-12.587,0.926076
-532,267,-12.583,-1.25671,-0.000228722,-0.0011056,0.00292255,0.00228809,-0.00362241,0.710944,0.0034413,0.0117963,692,757,-12.583,1.25669
-525,267,-12.5912,-1.59503,0.000178588,-0.000151029,0.00412663,0.0041437,-0.00411614,0.76544,0.00476883,0.0114991,699,757,-12.5912,1.59506
-518,267,-12.6071,-1.94678,-9.48691e-05,0.00178045,0.00479973,0.00573325,-0.00404768,0.881861,0.00567491,0.0108108,706,757,-12.6071,1.94676
-511,267,-12.6119,-2.30377,-0.00167313,0.00538327,0.00535929,0.00827147,-0.00456133,1.0765,0.00751152,0.0158557,713,757,-12.6118,2.30376
-504,267,-12.6655,-2.57465,-0.00367837,0.0101304,0.00642357,0.0126564,-0.00620441,1.19613,0.0110996,0.031905,720,757,-12.6655,2.57465
-497,267,-12.7424,-2.81226,0,0,0,0,0,0,0,-1,727,757,-12.7424,2.81223
-490,267,-18.6624,1.48059,0,0,0,0,0,0,0,-1,734,757,-18.6624,-1.48059
-483,267,-19.6895,2.77264,0,0,0,0,0,0,0,-1,741,757,-19.6895,-2.77263
-476,267,-20.6811,2.86664,0,0,0,0,0,0,0,-1,748,757,-20.6811,-2.86666
-469,267,-20.4035,2.94299,-0.0262625,0.050204,0.00849734,0.0511369,-0.0271954,1.46145,0.0459239,0.0482203,755,757,-20.4035,-2.94302
-462,267,-20.3115,2.83734,-0.0343896,0.0621199,0.00813653,0.062801,-0.0350707,1.48727,0.0572573,0.0478359,762,757,-20.3115,-2.83737
-455,267,-20.7291,2.63068,-0.0441232,0.0746183,0.00739725,0.0750774,-0.0445823,1.50882,0.0698294,0.0492509,769,757,-20.7291,-2.63067
-448,267,-20.9478,2.26495,0,0,0,0,0,0,0,-1,776,757,-20.9478,-2.26496
-441,267,0,0,0,0,0,0,0,0,0,-1,783,757,0,0
-434,267,0,0,0,0,0,0,0,0,0,-1,790,757,0,0
-427,267,0,0,0,0,0,0,0,0,0,-1,797,757,0,0
-420,267,0,0,0,0,0,0,0,0,0,-1,804,757,0,0
-413,267,0,0,0,0,0,0,0,0,0,-1,811,757,0,0
-406,267,0,0,0,0,0,0,0,0,0,-1,818,757,0,0
-399,267,0,0,0,0,0,0,0,0,0,-1,825,757,0,0
-392,267,0,0,0,0,0,0,0,0,0,-1,832,757,0,0
-385,267,0,0,0,0,0,0,0,0,0,-1,839,757,0,0
-378,267,0,0,0,0,0,0,0,0,0,-1,846,757,0,0
-371,267,0,0,0,0,0,0,0,0,0,-1,853,757,0,0
-364,267,0,0,0,0,0,0,0,0,0,-1,860,757,0,0
-357,267,0,0,0,0,0,0,0,0,0,-1,867,757,0,0
-350,267,0,0,0,0,0,0,0,0,0,-1,874,757,0,0
-343,267,0,0,0,0,0,0,0,0,0,-1,881,757,0,0
-336,267,0,0,0,0,0,0,0,0,0,-1,888,757,0,0
-329,267,0,0,0,0,0,0,0,0,0,-1,895,757,0,0
-322,267,0,0,0,0,0,0,0,0,0,-1,902,757,0,0
-315,267,0,0,0,0,0,0,0,0,0,-1,909,757,0,0
-308,267,0,0,0,0,0,0,0,0,0,-1,916,757,0,0
-301,267,0,0,0,0,0,0,0,0,0,-1,923,757,0,0
-294,267,0,0,0,0,0,0,0,0,0,-1,930,757,0,0
-287,267,0,0,0,0,0,0,0,0,0,-1,937,757,0,0
-280,267,0,0,0,0,0,0,0,0,0,-1,944,757,0,0
-273,267,0,0,0,0,0,0,0,0,0,-1,951,757,0,0
-266,267,0,0,0,0,0,0,0,0,0,-1,958,757,0,0
-259,267,0,0,0,0,0,0,0,0,0,-1,965,757,0,0
-252,267,0,0,0,0,0,0,0,0,0,-1,972,757,0,0
-245,267,0,0,0,0,0,0,0,0,0,-1,979,757,0,0
-238,267,0,0,0,0,0,0,0,0,0,-1,986,757,0,0
-231,267,0,0,0,0,0,0,0,0,0,-1,993,757,0,0
-224,267,0,0,0,0,0,0,0,0,0,-1,1000,757,0,0
-217,267,0,0,0,0,0,0,0,0,0,-1,1007,757,0,0
-210,267,0,0,0,0,0,0,0,0,0,-1,1014,757,0,0
-203,267,0,0,0,0,0,0,0,0,0,-1,1021,757,0,0
-196,267,0,0,0,0,0,0,0,0,0,-1,1028,757,0,0
-189,267,0,0,0,0,0,0,0,0,0,-1,1035,757,0,0
-182,267,0,0,0,0,0,0,0,0,0,-1,1042,757,0,0
-175,267,0,0,0,0,0,0,0,0,0,-1,1049,757,0,0
-168,267,0,0,0,0,0,0,0,0,0,-1,1056,757,0,0
-161,267,0,0,0,0,0,0,0,0,0,-1,1063,757,0,0
-154,267,0,0,0,0,0,0,0,0,0,-1,1070,757,0,0
-147,267,0,0,0,0,0,0,0,0,0,-1,1077,757,0,0
-140,267,0,0,0,0,0,0,0,0,0,-1,1084,757,0,0
-133,267,0,0,0,0,0,0,0,0,0,-1,1091,757,0,0
-126,267,0,0,0,0,0,0,0,0,0,-1,1098,757,0,0
-119,267,0,0,0,0,0,0,0,0,0,-1,1105,757,0,0
-112,267,0,0,0,0,0,0,0,0,0,-1,1112,757,0,0
-105,267,0,0,0,0,0,0,0,0,0,-1,1119,757,0,0
-98,267,0,0,0,0,0,0,0,0,0,-1,1126,757,0,0
-91,267,0,0,0,0,0,0,0,0,0,-1,1133,757,0,0
-84,267,0,0,0,0,0,0,0,0,0,-1,1140,757,0,0
-77,267,0,0,0,0,0,0,0,0,0,-1,1147,757,0,0
-70,267,0,0,0,0,0,0,0,0,0,-1,1154,757,0,0
-63,267,0,0,0,0,0,0,0,0,0,-1,1161,757,0,0
-56,267,0,0,0,0,0,0,0,0,0,-1,1168,757,0,0
-49,267,0,0,0,0,0,0,0,0,0,-1,1175,757,0,0
-42,267,0,0,0,0,0,0,0,0,0,-1,1182,757,0,0
-35,267,0,0,0,0,0,0,0,0,0,-1,1189,757,0,0
-28,267,0,0,0,0,0,0,0,0,0,-1,1196,757,0,0
-21,267,0,0,0,0,0,0,0,0,0,-1,1203,757,0,0
-14,267,0,0,0,0,0,0,0,0,0,-1,1210,757,0,0
-7,267,0,0,0,0,0,0,0,0,0,-1,1217,757,0,0
0,267,0,0,0,0,0,0,0,0,0,-1,1224,757,0,0
7,267,0,0,0,0,0,0,0,0,0,-1,1231,757,0,0
14,267,0,0,0,0,0,0,0,0,0,-1,1238,757,0,0
21,267,0,0,0,0,0,0,0,0,0,-1,1245,757,0,0
28,267,0,0,0,0,0,0,0,0,0,-1,1252,757,0,0
35,267,0,0,0,0,0,0,0,0,0,-1,1259,757,0,0
42,267,0,0,0,0,0,0,0,0,0,-1,1266,757,0,0
49,267,0,0,0,0,0,0,0,0,0,-1,1273,757,0,0
56,267,0,0,0,0,0,0,0,0,0,-1,1280,757,0,0
63,267,0,0,0,0,0,0,0,0,0,-1,1287,757,0,0
70,267,0,0,0,0,0,0,0,0,0,-1,1294,757,0,0
77,267,0,0,0,0,0,0,0,0,0,-1,1301,757,0,0
84,267,0,0,0,0,0,0,0,0,0,-1,1308,757,0,0
91,267,0,0,0,0,0,0,0,0,0,-1,1315,757,0,0
98,267,0,0,0,0,0,0,0,0,0,-1,1322,757,0,0
105,267,0,0,0,0,0,0,0,0,0,-1,1329,757,0,0
112,267,0,0,0,0,0,0,0,0,0,-1,1336,757,0,0
119,267,0,0,0,0,0,0,0,0,0,-1,1343,757,0,0
126,267,0,0,0,0,0,0,0,0,0,-1,1350,757,0,0
133,267,0,0,0,0,0,0,0,0,0,-1,1357,757,0,0
140,267,0,0,0,0,0,0,0,0,0,-1,1364,757,0,0
147,267,0,0,0,0,0,0,0,0,0,-1,1371,757,0,0
154,267,0,0,0,0,0,0,0,0,0,-1,1378,757,0,0
161,267,0,0,0,0,0,0,0,0,0,-1,1385,757,0,0
168,267,0,0,0,0,0,0,0,0,0,-1,1392,757,0,0
175,267,0,0,0,0,0,0,0,0,0,-1,1399,757,0,0
182,267,0,0,0,0,0,0,0,0,0,-1,1406,757,0,0
189,267,0,0,0,0,0,0,0,0,0,-1,1413,757,0,0
196,267,0,0,0,0,0,0,0,0,0,-1,1420,757,0,0
203,267,0,0,0,0,0,0,0,0,0,-1,1427,757,0,0
210,267,0,0,0,0,0,0,0,0,0,-1,1434,757,0,0
217,267,0,0,0,0,0,0,0,0,0,-1,1441,757,0,0
224,267,0,0,0,0,0,0,0,0,0,-1,1448,757,0,0
231,267,0,0,0,0,0,0,0,0,0,-1,1455,757,0,0
238,267,0,0,0,0,0,0,0,0,0,-1,1462,757,0,0
245,267,0,0,0,0,0,0,0,0,0,-1,1469,757,0,0
252,267,0,0,0,0,0,0,0,0,0,-1,1476,757,0,0
259,267,0,0,0,0,0,0,0,0,0,-1,1483,757,0,0
266,267,0,0,0,0,0,0,0,0,0,-1,1490,757,0,0
273,267,0,0,0,0,0,0,0,0,0,-1,1497,757,0,0
280,267,0,0,0,0,0,0,0,0,0,-1,1504,757,0,0
287,267,0,0,0,0,0,0,0,0,0,-1,1511,757,0,0
294,267,0,0,0,0,0,0,0,0,0,-1,1518,757,0,0
301,267,0,0,0,0,0,0,0,0,0,-1,1525,757,0,0
308,267,0,0,0,0,0,0,0,0,0,-1,1532,757,0,0
315,267,0,0,0,0,0,0,0,0,0,-1,1539,757,0,0
322,267,0,0,0,0,0,0,0,0,0,-1,1546,757,0,0
329,267,0,0,0,0,0,0,0,0,0,-1,1553,757,0,0
336,267,0,0,0,0,0,0,0,0,0,-1,1560,757,0,0
343,267,0,0,0,0,0,0,0,0,0,-1,1567,757,0,0
350,267,0,0,0,0,0,0,0,0,0,-1,1574,757,0,0
357,267,0,0,0,0,0,0,0,0,0,-1,1581,757,0,0
364,267,0,0,0,0,0,0,0,0,0,-1,1588,757,0,0
371,267,0,0,0,0,0,0,0,0,0,-1,1595,757,0,0
378,267,0,0,0,0,0,0,0,0,0,-1,1602,757,0,0
385,267,0,0,0,0,0,0,0,0,0,-1,1609,757,0,0
392,267,0,0,0,0,0,0,0,0,0,-1,1616,757,0,0
399,267,0,0,0,0,0,0,0,0,0,-1,1623,757,0,0
406,267,0,0,0,0,0,0,0,0,0,-1,1630,757,0,0
413,267,0,0,0,0,0,0,0,0,0,-1,1637,757,0,0
420,267,0,0,0,0,0,0,0,0,0,-1,1644,757,0,0
427,267,0,0,0,0,0,0,0,0,0,-1,1651,757,0,0
434,267,0,0,0,0,0,0,0,0,0,-1,1658,757,0,0
441,267,0,0,0,0,0,0,0,0,0,-1,1665,757,0,0
448,267,0,0,0,0,0,0,0,0,0,-1,1672,757,0,0
455,267,0,0,0,0,0,0,0,0,0,-1,1679,757,0,0
462,267,0,0,0,0,0,0,0,0,0,-1,1686,757,0,0
469,267,0,0,0,0,0,0,0,0,0,-1,1693,757,0,0
476,267,0,0,0,0,0,0,0,0,0,-1,1700,757,0,0
483,267,0,0,0,0,0,0,0,0,0,-1,1707,757,0,0
490,267,0,0,0,0,0,0,0,0,0,-1,1714,757,0,0
497,267,0,0,0,0,0,0,0,0,0,-1,1721,757,0,0
504,267,0,0,0,0,0,0,0,0,0,-1,1728,757,0,0
511,267,0,0,0,0,0,0,0,0,0,-1,1735,757,0,0
518,267,0,0,0,0,0,0,0,0,0,-1,1742,757,0,0
525,267,0,0,0,0,0,0,0,0,0,-1,1749,757,0,0
532,267,0,0,0,0,0,0,0,0,0,-1,1756,757,0,0
539,267,0,0,0,0,0,0,0,0,0,-1,1763,757,0,0
546,267,0,0,0,0,0,0,0,0,0,-1,1770,757,0,0
553,267,0,0,0,0,0,0,0,0,0,-1,1777,757,0,0
560,267,0,0,0,0,0,0,0,0,0,-1,1784,757,0,0
567,267,30.4823,3.19397,0,0,0,0,0,0,0,-1,1791,757,30.4823,-3.19395
574,267,30.542,3.12933,0.00371976,-0.000938905,0.0179411,0.0194821,-0.0167012,0.720843,0.020911,0.0414765,1798,757,30.542,-3.12932
581,267,30.4308,3.20862,0.00333216,-0.00321703,0.0191296,0.0194654,-0.0193503,0.70063,0.0224103,0.0402033,1805,757,30.4307,-3.20861
588,267,31.6055,2.20544,0,0,0,0,0,0,0,-1,1812,757,31.6054,-2.20547
595,267,31.4701,2.2981,0.00276323,-0.00373277,0.0156408,0.0154897,-0.0164593,0.683022,0.0184486,0.0451578,1819,757,31.4701,-2.29807
602,267,31.4424,2.61523,0.00269947,-0.00326069,0.0133276,0.0133761,-0.0139373,0.675407,0.0157705,0.0431712,1826,757,31.4424,-2.61523
609,267,31.9396,2.53009,0.00260764,-0.00266944,0.0110704,0.0113496,-0.0114114,0.66841,0.0131411,0.0413123,1833,757,31.9396,-2.53008
616,267,32.297,2.49475,0,0,0,0,0,0,0,-1,1840,757,32.297,-2.49476
623,267,21.6516,-0.855469,0,0,0,0,0,0,0,-1,1847,757,21.6516,0.855466
630,267,20.7999,-0.600281,0,0,0,0,0,0,0,-1,1854,757,20.7999,0.600259
637,267,20.501,-0.437805,0.00201344,-0.000837186,0.00385498,0.00469816,-0.00352191,0.608325,0.00476203,0.0273538,1861,757,20.501,0.437803
644,267,20.4692,-0.0488892,0.00154421,-0.000755346,0.00282895,0.00344811,-0.00265925,0.592379,0.00353588,0.0116578,1868,757,20.4692,0.0489177
651,267,20.4606,0.32666,0.00108854,-0.000159635,0.00149775,0.00208702,-0.00115812,0.587996,0.001899,0.0129552,1875,757,20.4605,-0.326669
658,267,20.4684,0.697266,0.000696245,-1.3399e-05,0.000411388,0.000884689,-0.000201844,0.429545,0.000667328,0.0144052,1882,757,20.4684,-0.697236
665,267,20.4568,1.07861,0.000244601,0.000214271,-0.000311432,0.000541237,-8.23655e-05,-0.76107,0.000391181,0.0149948,1889,757,20.4568,-1.07861
672,267,20.4559,1.45313,0.000876271,0.000221562,9.46277e-06,0.000876408,0.000221425,0.0144494,0.000526228,0.0131648,1896,757,20.4559,-1.45315
679,267,20.4357,1.81189,0.00262013,0.000592527,0.000509625,0.00274102,0.000471643,0.232897,0.00169218,0.0125819,1903,757,20.4357,-1.81188
686,267,20.4379,2.17657,0.00545285,0.000656929,0.000910143,0.00561976,0.000490016,0.181376,0.00359432,0.0132835,1910,757,20.4378,-2.1766
693,267,20.4377,2.50269,0.00948231,0.000270067,0.000915433,0.00957239,0.000179981,0.0980932,0.00632246,0.013358,1917,757,20.4378,-2.50268
700,267,20.4385,2.85187,0.0150218,-0.000515329,0.000831731,0.0150662,-0.000559726,0.0533285,0.0102358,0.0143718,1924,757,20.4384,-2.85185
707,267,20.4238,3.18512,0.0224414,-0.00199746,0.000641811,0.0224583,-0.00201431,0.0262378,0.0156868,0.0137963,1931,757,20.4238,-3.18514
714,267,20.4072,3.54211,0.0324704,-0.00494734,-0.000293679,0.0324727,-0.00494965,-0.00784801,0.0234729,0.0300714,1938,757,20.4072,-3.54212
721,267,21.1094,4.45898,0.0456811,-0.00969575,-0.00233032,0.045779,-0.00979364,-0.0419823,0.0342538,0.0480253,1945,757,21.1094,-4.459
728,267,21.6282,5.15161,0,0,0,0,0,0,0,-1,1952,757,21.6282,-5.15161
735,267,22.7133,4.1806,0,0,0,0,0,0,0,-1,1959,757,22.7133,-4.18059
742,267,18.1177,3.56561,0,0,0,0,0,0,0,-1,1966,757,18.1176,-3.56564
749,267,0,0,0,0,0,0,0,0,0,-1,1973,757,0,0
756,267,0,0,0,0,0,0,0,0,0,-1,1980,757,0,0
763,267,0,0,0,0,0,0,0,0,0,-1,1987,757,0,0
770,267,0,0,0,0,0,0,0,0,0,-1,1994,757,0,0
777,267,0,0,0,0,0,0,0,0,0,-1,2001,757,0,0
784,267,0,0,0,0,0,0,0,0,0,-1,2008,757,0,0
791,267,0,0,0,0,0,0,0,0,0,-1,2015,757,0,0
798,267,0,0,0,0,0,0,0,0,0,-1,2022,757,0,0
805,267,0,0,0,0,0,0,0,0,0,-1,2029,757,0,0
812,267,0,0,0,0,0,0,0,0,0,-1,2036,757,0,0
-700,260,0,0,0,0,0,0,0,0,0,-1,524,764,0,0
-693,260,0,0,0,0,0,0,0,0,0,-1,531,764,0,0
-686,260,0,0,0,0,0,0,0,0,0,-1,538,764,0,0
-679,260,0,0,0,0,0,0,0,0,0,-1,545,764,0,0
-672,260,0,0,0,0,0,0,0,0,0,-1,552,764,0,0
-665,260,0,0,0,0,0,0,0,0,0,-1,559,764,0,0
-658,260,0,0,0,0,0,0,0,0,0,-1,566,764,0,0
-651,260,0,0,0,0,0,0,0,0,0,-1,573,764,0,0
-644,260,0,0,0,0,0,0,0,0,0,-1,580,764,0,0
-637,260,0,0,0,0,0,0,0,0,0,-1,587,764,0,0
-630,260,-18.6965,6.00116,0.212742,-0.161806,0.00674046,0.212863,-0.161927,0.0179885,0.21705,0.0497076,594,764,-18.6965,-6.00115
-623,260,-16.9575,5.07886,0.175558,-0.136173,0.0120912,0.176026,-0.136641,0.0387097,0.180995,0.0448052,601,764,-16.9575,-5.07887
-616,260,-14.1456,4.46301,0,0,0,0,0,0,0,-1,608,764,-14.1456,-4.46299
-609,260,-13.741,3.12592,0,0,0,0,0,0,0,-1,615,764,-13.7411,-3.12589
-602,260,-13.218,3.03363,0,0,0,0,0,0,0,-1,622,764,-13.218,-3.03363
-595,260,-12.8175,2.31305,0.0612458,-0.0490443,0.00949055,0.0620565,-0.049855,0.085216,0.06474,0.0495658,629,764,-12.8175,-2.31304
-588,260,-12.8248,1.52673,0.0426292,-0.0342005,0.007381,0.0433319,-0.0349032,0.0949128,0.0452563,0.0424167,636,764,-12.8248,-1.52673
-581,260,-12.8615,1.08838,0.028155,-0.0226025,0.0054337,0.0287302,-0.0231776,0.10546,0.0300261,0.0250044,643,764,-12.8615,-1.08837
-574,260,-12.8805,0.778625,0.0157052,-0.012504,0.00348992,0.0161305,-0.0129293,0.12128,0.0168116,0.0159122,650,764,-12.8805,-0.778617
-567,260,-12.8923,0.454102,0.00679781,-0.00634169,0.00332607,0.00759178,-0.00713566,0.234326,0.00850425,0.0152763,657,764,-12.8923,-0.454076
-560,260,-12.9039,0.136414,0.00288915,-0.00333469,0.00247042,0.00375052,-0.00419606,0.335492,0.00459036,0.0169075,664,764,-12.9039,-0.136427
-553,260,-12.9176,-0.202454,0.00023056,-0.00131755,0.00146748,0.00111562,-0.00220261,0.542707,0.00194974,0.0158224,671,764,-12.9176,0.202481
-546,260,-12.9256,-0.571472,-0.000412505,-0.000402061,0.000963973,0.000556704,-0.00137127,0.788107,0.00114575,0.0111758,678,764,-12.9256,0.571477
-539,260,-12.9209,-0.909058,0.000100284,-0.00149612,0.00191833,0.00137985,-0.00277568,0.588248,0.00244389,0.0114509,685,764,-12.9209,0.909034
-532,260,-12.9324,-1.22449,0.000352267,-0.00138339,0.00341961,0.00301245,-0.00404358,0.661132,0.00408827,0.0148124,692,764,-12.9324,1.22446
-525,260,-12.9335,-1.5791,0.000815455,-0.000291292,0.00473425,0.00502856,-0.0045044,0.727219,0.00550663,0.0135286,699,764,-12.9335,1.57911
-518,260,-12.9567,-1.91315,0.000540716,0.0017494,0.00540986,0.00658857,-0.00429845,0.841023,0.00633181,0.0133573,706,764,-12.9567,1.91316
-511,260,-12.9617,-2.23248,-0.000971237,0.00523886,0.00594386,0.00883983,-0.00457221,1.0261,0.00787303,0.0239311,713,764,-12.9616,2.2325
-504,260,-12.9798,-2.48413,-0.00278365,0.00977948,0.0069936,0.0128984,-0.00590254,1.1513,0.0111024,0.0489283,720,764,-12.9798,2.48411
-497,260,-13.0161,-2.75549,0,0,0,0,0,0,0,-1,727,764,-13.0161,2.75549
-490,260,-19.342,1.32251,0,0,0,0,0,0,0,-1,734,764,-19.342,-1.32249
-483,260,-20.0737,2.2345,-0.0125848,0.0290069,0.00879135,0.0307888,-0.0143667,1.37082,0.026639,0.0450203,741,764,-20.0737,-2.23452
-476,260,-20.8177,2.54828,-0.0180881,0.0382622,0.00884787,0.0396188,-0.0194447,1.41866,0.0347571,0.0473304,748,764,-20.8177,-2.54831
-469,260,-20.3621,2.71356,-0.0247588,0.0487919,0.00850725,0.0497631,-0.02573,1.45713,0.044316,0.0493752,755,764,-20.3621,-2.71355
-462,260,-21.5245,0.631287,-0.032648,0.0601506,0.00755841,0.0607622,-0.0332596,1.49006,0.0550522,0.0413043,762,764,-21.5245,-0.63131
-455,260,-21.6279,1.12408,-0.0421494,0.0715039,0.00559291,0.0717785,-0.0424239,1.52174,0.0666569,0.0454717,769,764,-21.6279,-1.12408
-448,260,0,0,0,0,0,0,0,0,0,-1,776,764,0,0
-441,260,0,0,0,0,0,0,0,0,0,-1,783,764,0,0
-434,260,0,0,0,0,0,0,0,0,0,-1,790,764,0,0
-427,260,0,0,0,0,0,0,0,0,0,-1,797,764,0,0
-420,260,0,0,0,0,0,0,0,0,0,-1,804,764,0,0
-413,260,0,0,0,0,0,0,0,0,0,-1,811,764,0,0
-406,260,0,0,0,0,0,0,0,0,0,-1,818,764,0,0
-399,260,0,0,0,0,0,0,0,0,0,-1,825,764,0,0
-392,260,0,0,0,0,0,0,0,0,0,-1,832,764,0,0
-385,260,0,0,0,0,0,0,0,0,0,-1,839,764,0,0
-378,260,0,0,0,0,0,0,0,0,0,-1,846,764,0,0
-371,260,0,0,0,0,0,0,0,0,0,-1,853,764,0,0
-364,260,0,0,0,0,0,0,0,0,0,-1,860,764,0,0
-357,260,0,0,0,0,0,0,0,0,0,-1,867,764,0,0
-350,260,0,0,0,0,0,0,0,0,0,-1,874,764,0,0
-343,260,0,0,0,0,0,0,0,0,0,-1,881,764,0,0
-336,260,0,0,0,0,0,0,0,0,0,-1,888,764,0,0
-329,260,0,0,0,0,0,0,0,0,0,-1,895,764,0,0
-322,260,0,0,0,0,0,0,0,0,0,-1,902,764,0,0
-315,260,0,0,0,0,0,0,0,0,0,-1,909,764,0,0
-308,260,0,0,0,0,0,0,0,0,0,-1,916,764,0,0
-301,260,0,0,0,0,0,0,0,0,0,-1,923,764,0,0
-294,260,0,0,0,0,0,0,0,0,0,-1,930,764,0,0
-287,260,0,0,0,0,0,0,0,0,0,-1,937,764,0,0
-280,260,0,0,0,0,0,0,0,0,0,-1,944,764,0,0
-273,260,0,0,0,0,0,0,0,0,0,-1,951,764,0,0
-266,260,0,0,0,0,0,0,0,0,0,-1,958,764,0,0
-259,260,0,0,0,0,0,0,0,0,0,-1,965,764,0,0
-252,260,0,0,0,0,0,0,0,0,0,-1,972,764,0,0
-245,260,0,0,0,0,0,0,0,0,0,-1,979,764,0,0
-238,260,0,0,0,0,0,0,0,0,0,-1,986,764,0,0
-231,260,0,0,0,0,0,0,0,0,0,-1,993,764,0,0
-224,260,0,0,0,0,0,0,0,0,0,-1,1000,764,0,0
-217,260,0,0,0,0,0,0,0,0,0,-1,1007,764,0,0
-210,260,0,0,0,0,0,0,0,0,0,-1,1014,764,0,0
-203,260,0,0,0,0,0,0,0,0,0,-1,1021,764,0,0
-196,260,0,0,0,0,0,0,0,0,0,-1,1028,764,0,0
-189,260,0,0,0,0,0,0,0,0,0,-1,1035,764,0,0
-182,260,0,0,0,0,0,0,0,0,0,-1,1042,764,0,0
-175,260,0,0,0,0,0,0,0,0,0,-1,1049,764,0,0
-168,260,0,0,0,0,0,0,0,0,0,-1,1056,764,0,0
-161,260,0,0,0,0,0,0,0,0,0,-1,1063,764,0,0
-154,260,0,0,0,0,0,0,0,0,0,-1,1070,764,0,0
-147,260,0,0,0,0,0,0,0,0,0,-1,1077,764,0,0
-140,260,0,0,0,0,0,0,0,0,0,-1,1084,764,0,0
-133,260,0,0,0,0,0,0,0,0,0,-1,1091,764,0,0
-126,260,0,0,0,0,0,0,0,0,0,-1,1098,764,0,0
-119,260,0,0,0,0,0,0,0,0,0,-1,1105,764,0,0
-112,260,0,0,0,0,0,0,0,0,0,-1,1112,764,0,0
-105,260,0,0,0,0,0,0,0,0,0,-1,1119,764,0,0
-98,260,0,0,0,0,0,0,0,0,0,-1,1126,764,0,0
-91,260,0,0,0,0,0,0,0,0,0,-1,1133,764,0,0
-84,260,0,0,0,0,0,0,0,0,0,-1,1140,764,0,0
-77,260,0,0,0,0,0,0,0,0,0,-1,1147,764,0,0
-70,260,0,0,0,0,0,0,0,0,0,-1,1154,764,0,0
-63,260,0,0,0,0,0,0,0,0,0,-1,1161,764,0,0
-56,260,0,0,0,0,0,0,0,0,0,-1,1168,764,0,0
-49,260,0,0,0,0,0,0,0,0,0,-1,1175,764,0,0
-42,260,0,0,0,0,0,0,0,0,0,-1,1182,764,0,0
-35,260,0,0,0,0,0,0,0,0,0,-1,1189,764,0,0
-28,260,0,0,0,0,0,0,0,0,0,-1,1196,764,0,0
-21,260,0,0,0,0,0,0,0,0,0,-1,1203,764,0,0
-14,260,0,0,0,0,0,0,0,0,0,-1,1210,764,0,0
-7,260,0,0,0,0,0,0,0,0,0,-1,1217,764,0,0
0,260,0,0,0,0,0,0,0,0,0,-1,1224,764,0,0
7,260,0,0,0,0,0,0,0,0,0,-1,1231,764,0,0
14,260,0,0,0,0,0,0,0,0,0,-1,1238,764,0,0
21,260,0,0,0,0,0,0,0,0,0,-1,1245,764,0,0
28,260,0,0,0,0,0,0,0,0,0,-1,1252,764,0,0
35,260,0,0,0,0,0,0,0,0,0,-1,1259,764,0,0
42,260,0,0,0,0,0,0,0,0,0,-1,1266,764,0,0
49,260,0,0,0,0,0,0,0,0,0,-1,1273,764,0,0
56,260,0,0,0,0,0,0,0,0,0,-1,1280,764,0,0
63,260,0,0,0,0,0,0,0,0,0,-1,1287,764,0,0
70,260,0,0,0,0,0,0,0,0,0,-1,1294,764,0,0
77,260,0,0,0,0,0,0,0,0,0,-1,1301,764,0,0
84,260,0,0,0,0,0,0,0,0,0,-1,1308,764,0,0
91,260,0,0,0,0,0,0,0,0,0,-1,1315,764,0,0
98,260,0,0,0,0,0,0,0,0,0,-1,1322,764,0,0
105,260,0,0,0,0,0,0,0,0,0,-1,1329,764,0,0
112,260,0,0,0,0,0,0,0,0,0,-1,1336,764,0,0
119,260,0,0,0,0,0,0,0,0,0,-1,1343,764,0,0
126,260,0,0,0,0,0,0,0,0,0,-1,1350,764,0,0
133,260,0,0,0,0,0,0,0,0,0,-1,1357,764,0,0
140,260,0,0,0,0,0,0,0,0,0,-1,1364,764,0,0
147,260,0,0,0,0,0,0,0,0,0,-1,1371,764,0,0
154,260,0,0,0,0,0,0,0,0,0,-1,1378,764,0,0
161,260,0,0,0,0,0,0,0,0,0,-1,1385,764,0,0
168,260,0,0,0,0,0,0,0,0,0,-1,1392,764,0,0
175,260,0,0,0,0,0,0,0,0,0,-1,1399,764,0,0
182,260,0,0,0,0,0,0,0,0,0,-1,1406,764,0,0
189,260,0,0,0,0,0,0,0,0,0,-1,1413,764,0,0
196,260,0,0,0,0,0,0,0,0,0,-1,1420,764,0,0
203,260,0,0,0,0,0,0,0,0,0,-1,1427,764,0,0
210,260,0,0,0,0,0,0,0,0,0,-1,1434,764,0,0
217,260,0,0,0,0,0,0,0,0,0,-1,1441,764,0,0
224,260,0,0,0,0,0,0,0,0,0,-1,1448,764,0,0
231,260,0,0,0,0,0,0,0,0,0,-1,1455,764,0,0
238,260,0,0,0,0,0,0,0,0,0,-1,1462,764,0,0
245,260,0,0,0,0,0,0,0,0,0,-1,1469,764,0,0
252,260,0,0,0,0,0,0,0,0,0,-1,1476,764,0,0
259,260,0,0,0,0,0,0,0,0,0,-1,1483,764,0,0
266,260,0,0,0,0,0,0,0,0,0,-1,1490,764,0,0
273,260,0,0,0,0,0,0,0,0,0,-1,1497,764,0,0
280,260,0,0,0,0,0,0,0,0,0,-1,1504,764,0,0
287,260,0,0,0,0,0,0,0,0,0,-1,1511,764,0,0
294,260,0,0,0,0,0,0,0,0,0,-1,1518,764,0,0
301,260,0,0,0,0,0,0,0,0,0,-1,1525,764,0,0
308,260,0,0,0,0,0,0,0,0,0,-1,1532,764,0,0
315,260,0,0,0,0,0,0,0,0,0,-1,1539,764,0,0
322,260,0,0,0,0,0,0,0,0,0,-1,1546,764,0,0
329,260,0,0,0,0,0,0,0,0,0,-1,1553,764,0,0
336,260,0,0,0,0,0,0,0,0,0,-1,1560,764,0,0
343,260,0,0,0,0,0,0,0,0,0,-1,1567,764,0,0
350,260,0,0,0,0,0,0,0,0,0,-1,1574,764,0,0
357,260,0,0,0,0,0,0,0,0,0,-1,1581,764,0,0
364,260,0,0,0,0,0,0,0,0,0,-1,1588,764,0,0
371,260,0,0,0,0,0,0,0,0,0,-1,1595,764,0,0
378,260,0,0,0,0,0,0,0,0,0,-1,1602,764,0,0
385,260,0,0,0,0,0,0,0,0,0,-1,1609,764,0,0
392,260,0,0,0,0,0,0,0,0,0,-1,1616,764,0,0
399,260,0,0,0,0,0,0,0,0,0,-1,1623,764,0,0
406,260,0,0,0,0,0,0,0,0,0,-1,1630,764,0,0
413,260,0,0,0,0,0,0,0,0,0,-1,1637,764,0,0
420,260,0,0,0,0,0,0,0,0,0,-1,1644,764,0,0
427,260,0,0,0,0,0,0,0,0,0,-1,1651,764,0,0
434,260,0,0,0,0,0,0,0,0,0,-1,1658,764,0,0
441,260,0,0,0,0,0,0,0,0,0,-1,1665,764,0,0
448,260,0,0,0,0,0,0,0,0,0,-1,1672,764,0,0
455,260,0,0,0,0,0,0,0,0,0,-1,1679,764,0,0
462,260,0,0,0,0,0,0,0,0,0,-1,1686,764,0,0
469,260,0,0,0,0,0,0,0,0,0,-1,1693,764,0,0
476,260,0,0,0,0,0,0,0,0,0,-1,1700,764,0,0
483,260,0,0,0,0,0,0,0,0,0,-1,1707,764,0,0
490,260,0,0,0,0,0,0,0,0,0,-1,1714,764,0,0
497,260,0,0,0,0,0,0,0,0,0,-1,1721,764,0,0
504,260,0,0,0,0,0,0,0,0,0,-1,1728,764,0,0
511,260,0,0,0,0,0,0,0,0,0,-1,1735,764,0,0
518,260,0,0,0,0,0,0,0,0,0,-1,1742,764,0,0
525,260,0,0,0,0,0,0,0,0,0,-1,1749,764,0,0
532,260,0,0,0,0,0,0,0,0,0,-1,1756,764,0,0
539,260,0,0,0,0,0,0,0,0,0,-1,1763,764,0,0
546,260,0,0,0,0,0,0,0,0,0,-1,1770,764,0,0
553,260,0,0,0,0,0,0,0,0,0,-1,1777,764,0,0
560,260,0,0,0,0,0,0,0,0,0,-1,1784,764,0,0
567,260,0,0,0,0,0,0,0,0,0,-1,1791,764,0,0
574,260,30.568,2.927,0.000172827,-0.00133159,0.0106527,0.0100998,-0.0112586,0.750151,0.0123374,0.0370664,1798,764,30.568,-2.92698
581,260,30.4872,3.11218,0.00123987,-0.00322732,0.0144825,0.01366,-0.0156474,0.708887,0.0169336,0.03938,1805,764,30.4872,-3.11218
588,260,31.0118,2.9162,0,0,0,0,0,0,0,-1,1812,764,31.0118,-2.91618
595,260,31.0376,2.74542,0.00239717,-0.00324224,0.0137962,0.0136589,-0.0145039,0.684595,0.0162622,0.0459214,1819,764,31.0377,-2.74545
602,260,30.9449,2.67407,0.00274664,-0.00255362,0.0120816,0.0124653,-0.0122723,0.677431,0.0142824,0.0431557,1826,764,30.945,-2.67406
609,260,31.1083,2.80377,0.00278616,-0.00198129,0.0101307,0.0108098,-0.0100049,0.669852,0.0120204,0.0381174,1833,764,31.1083,-2.80377
616,260,31.2961,3.08527,0,0,0,0,0,0,0,-1,1840,764,31.2961,-3.08527
623,260,28.7789,4.1424,0,0,0,0,0,0,0,-1,1847,764,28.7789,-4.14241
630,260,21.4249,-0.500671,0,0,0,0,0,0,0,-1,1854,764,21.425,0.50065
637,260,20.9053,-0.468445,0,0,0,0,0,0,0,-1,1861,764,20.9052,0.46844
644,260,20.854,-0.0621338,0.00144383,-0.000555961,0.00278157,0.00339976,-0.0025119,0.612854,0.0034259,0.0251383,1868,764,20.854,0.0621257
651,260,20.8611,0.356262,0.000998194,-0.000102061,0.00150693,0.00205228,-0.00115614,0.610382,0.00187631,0.013448,1875,764,20.8611,-0.356256
658,260,20.8502,0.72229,0.000646368,-6.01359e-05,0.000398657,0.000825764,-0.000239532,0.422856,0.000645346,0.0162916,1882,764,20.8503,-0.722274
665,260,20.828,1.08612,0.000132529,4.34828e-05,-0.000422114,0.000512462,-0.00033645,-0.732854,0.000493618,0.0164062,1889,764,20.828,-1.08612
672,260,20.8142,1.45782,0.00060801,-0.000179034,-0.000188003,0.000650613,-0.000221637,-0.222843,0.000523501,0.0137537,1896,764,20.8142,-1.45785
679,260,20.7854,1.81738,0.00233459,6.12362e-05,0.000255084,0.00236287,3.29658e-05,0.110377,0.00156437,0.0122653,1903,764,20.7855,-1.81739
686,260,20.7914,2.17749,0.0051491,7.2393e-05,0.000596687,0.00521829,3.20491e-06,0.115438,0.00347779,0.0154797,1910,764,20.7914,-2.17752
693,260,20.783,2.48566,0.00913535,-0.000413477,0.000504291,0.00916191,-0.000440035,0.0526167,0.00625978,0.0157636,1917,764,20.783,-2.48563
700,260,20.7633,2.84314,0.014521,-0.00132894,0.000263294,0.0145254,-0.00133331,0.0166056,0.0101572,0.0134814,1924,764,20.7633,-2.84314
707,260,20.765,3.18524,0.0215342,-0.00293236,-0.000150547,0.0215351,-0.00293329,-0.00615286,0.0154277,0.0132521,1931,764,20.765,-3.18524
714,260,20.7883,3.54431,0.0308565,-0.00593424,-0.001347,0.0309057,-0.00598349,-0.0365472,0.0228608,0.0246511,1938,764,20.7884,-3.54433
721,260,21.4023,4.32202,0.0429819,-0.0106637,-0.00369796,0.0432356,-0.0109174,-0.0685014,0.0330691,0.0453259,1945,764,21.4023,-4.32201
728,260,21.959,5.01367,0,0,0,0,0,0,0,-1,1952,764,21.959,-5.01368
735,260,21.0491,4.51563,0,0,0,0,0,0,0,-1,1959,764,21.049,-4.51562
742,260,23.8765,5.12695,0,0,0,0,0,0,0,-1,1966,764,23.8764,-5.12696
749,260,18.9454,4.52777,0,0,0,0,0,0,0,-1,1973,764,18.9455,-4.5278
756,260,0,0,0,0,0,0,0,0,0,-1,1980,764,0,0
763,260,0,0,0,0,0,0,0,0,0,-1,1987,764,0,0
770,260,0,0,0,0,0,0,0,0,0,-1,1994,764,0,0
777,260,0,0,0,0,0,0,0,0,0,-1,2001,764,0,0
784,260,0,0,0,0,0,0,0,0,0,-1,2008,764,0,0
791,260,0,0,0,0,0,0,0,0,0,-1,2015,764,0,0
798,260,0,0,0,0,0,0,0,0,0,-1,2022,764,0,0
805,260,0,0,0,0,0,0,0,0,0,-1,2029,764,0,0
812,260,0,0,0,0,0,0,0,0,0,-1,2036,764,0,0
-700,253,0,0,0,0,0,0,0,0,0,-1,524,771,0,0
-693,253,0,0,0,0,0,0,0,0,0,-1,531,771,0,0
-686,253,0,0,0,0,0,0,0,0,0,-1,538,771,0,0
-679,253,0,0,0,0,0,0,0,0,0,-1,545,771,0,0
-672,253,0,0,0,0,0,0,0,0,0,-1,552,771,0,0
-665,253,0,0,0,0,0,0,0,0,0,-1,559,771,0,0
-658,253,0,0,0,0,0,0,0,0,0,-1,566,771,0,0
-651,253,0,0,0,0,0,0,0,0,0,-1,573,771,0,0
-644,253,0,0,0,0,0,0,0,0,0,-1,580,771,0,0
-637,253,-19.311,-1.52161,0,0,0,0,0,0,0,-1,587,771,-19.311,1.52158
-630,253,-15.4828,6.40442,0,0,0,0,0,0,0,-1,594,771,-15.4829,-6.40442
-623,253,-15.0107,5.56714,0.155894,-0.116452,0.00252276,0.155918,-0.116475,0.009262,0.157815,0.0486639,601,771,-15.0108,-5.56711
-616,253,-14.6594,4.698,0.124793,-0.0941532,0.00528801,0.124921,-0.0942809,0.0241334,0.126967,0.0470293,608,771,-14.6593,-4.69797
-609,253,-14.2023,3.87775,0.0971919,-0.073776,0.00621618,0.0974176,-0.0740017,0.0362949,0.0992763,0.044421,615,771,-14.2023,-3.87774
-602,253,-13.7653,3.01044,0,0,0,0,0,0,0,-1,622,771,-13.7653,-3.01042
-595,253,-13.3102,2.18231,0.0531264,-0.0403584,0.00527443,0.053423,-0.0406551,0.0561826,0.0544825,0.0475643,629,771,-13.3102,-2.18232
-588,253,-13.2084,1.37872,0.0368211,-0.0278249,0.00424118,0.0370982,-0.0281019,0.0652335,0.0377626,0.0387953,636,771,-13.2084,-1.37873
-581,253,-13.2057,1.05029,0.0242749,-0.0181925,0.00319497,0.0245139,-0.0184315,0.0746733,0.0248773,0.024138,643,771,-13.2058,-1.05027
-574,253,-13.2536,0.752014,0.0135562,-0.00987234,0.00200048,0.0137258,-0.0100419,0.0845706,0.0137771,0.0189268,650,771,-13.2536,-0.752003
-567,253,-13.2449,0.416748,0.00586515,-0.00490258,0.00222696,0.00630755,-0.00534497,0.196103,0.00673523,0.0148967,657,771,-13.2449,-0.416753
-560,253,-13.2285,0.117432,0.00238414,-0.00259425,0.00186175,0.00300335,-0.00321346,0.321088,0.00358996,0.0113756,664,771,-13.2285,-0.11744
-553,253,-13.2374,-0.210388,0.000241527,-0.00124484,0.00135654,0.00104512,-0.00204844,0.534801,0.00181711,0.0113949,671,771,-13.2374,0.210361
-546,253,-13.2593,-0.540161,-0.000143402,-0.00086293,0.00128377,0.000830061,-0.00183639,0.648782,0.0015756,0.0107389,678,771,-13.2593,0.540133
-539,253,-13.2808,-0.892212,0.000379509,-0.00193327,0.00233106,0.00182525,-0.00337901,0.555145,0.00304899,0.011157,685,771,-13.2807,0.892231
-532,253,-13.2832,-1.2287,0.00063574,-0.00171806,0.00393264,0.00356381,-0.00464613,0.640007,0.00475372,0.0150087,692,771,-13.2832,1.22871
-525,253,-13.2877,-1.58655,0.00114343,-0.000592624,0.00526844,0.00561487,-0.00506407,0.703752,0.00616822,0.0128017,699,771,-13.2877,1.58656
-518,253,-13.3123,-1.90125,0.000920297,0.00142063,0.00591897,0.00709471,-0.00475379,0.806518,0.0068851,0.0164196,706,771,-13.3123,1.90122
-511,253,-13.3593,-2.17218,-0.000404526,0.00465711,0.00641945,0.00902661,-0.00477403,0.973165,0.00809291,0.0407223,713,771,-13.3593,2.17217
-504,253,-13.2828,-2.37384,0,0,0,0,0,0,0,-1,720,771,-13.2828,2.37385
-497,253,-11.7769,-3.08105,0,0,0,0,0,0,0,-1,727,771,-11.7769,3.08106
-490,253,-20.4094,1.48279,0,0,0,0,0,0,0,-1,734,771,-20.4094,-1.48281
-483,253,-20.7469,1.8974,-0.0106391,0.0270618,0.00897776,0.0290905,-0.0126678,1.34856,0.0247229,0.0465465,741,771,-20.7469,-1.89738
-476,253,-21.0105,2.17657,-0.0156868,0.0357796,0.00879123,0.0372398,-0.017147,1.4062,0.0321066,0.0472909,748,771,-21.0105,-2.17656
-469,253,-20.641,2.27826,-0.0218931,0.0455776,0.00799198,0.0465113,-0.0228268,1.45449,0.0408034,0.045331,755,771,-20.641,-2.27826
-462,253,-21.6156,1.1236,-0.0295241,0.0558612,0.00624801,0.056316,-0.0299789,1.49814,0.0505899,0.0446784,762,771,-21.6156,-1.12359
-455,253,-21.6375,1.0946,-0.039049,0.0653084,0.00269065,0.0653777,-0.0391183,1.54504,0.0609625,0.0347404,769,771,-21.6375,-1.09461
-448,253,0,0,0,0,0,0,0,0,0,-1,776,771,0,0
-441,253,0,0,0,0,0,0,0,0,0,-1,783,771,0,0
-434,253,0,0,0,0,0,0,0,0,0,-1,790,771,0,0
-427,253,0,0,0,0,0,0,0,0,0,-1,797,771,0,0
-420,253,0,0,0,0,0,0,0,0,0,-1,804,771,0,0
-413,253,0,0,0,0,0,0,0,0,0,-1,811,771,0,0
-406,253,0,0,0,0,0,0,0,0,0,-1,818,771,0,0
-399,253,0,0,0,0,0,0,0,0,0,-1,825,771,0,0
-392,253,0,0,0,0,0,0,0,0,0,-1,832,771,0,0
-385,253,0,0,0,0,0,0,0,0,0,-1,839,771,0,0
-378,253,0,0,0,0,0,0,0,0,0,-1,846,771,0,0
-371,253,0,0,0,0,0,0,0,0,0,-1,853,771,0,0
-364,253,0,0,0,0,0,0,0,0,0,-1,860,771,0,0
-357,253,0,0,0,0,0,0,0,0,0,-1,867,771,0,0
-350,253,0,0,0,0,0,0,0,0,0,-1,874,771,0,0
-343,253,0,0,0,0,0,0,0,0,0,-1,881,771,0,0
-336,253,0,0,0,0,0,0,0,0,0,-1,888,771,0,0
-329,253,0,0,0,0,0,0,0,0,0,-1,895,771,0,0
-322,253,0,0,0,0,0,0,0,0,0,-1,902,771,0,0
-315,253,0,0,0,0,0,0,0,0,0,-1,909,771,0,0
-308,253,0,0,0,0,0,0,0,0,0,-1,916,771,0,0
-301,253,0,0,0,0,0,0,0,0,0,-1,923,771,0,0
-294,253,0,0,0,0,0,0,0,0,0,-1,930,771,0,0
-287,253,0,0,0,0,0,0,0,0,0,-1,937,771,0,0
-280,253,0,0,0,0,0,0,0,0,0,-1,944,771,0,0
-273,253,0,0,0,0,0,0,0,0,0,-1,951,771,0,0
-266,253,0,0,0,0,0,0,0,0,0,-1,958,771,0,0
-259,253,0,0,0,0,0,0,0,0,0,-1,965,771,0,0
-252,253,0,0,0,0,0,0,0,0,0,-1,972,771,0,0
-245,253,0,0,0,0,0,0,0,0,0,-1,979,771,0,0
-238,253,0,0,0,0,0,0,0,0,0,-1,986,771,0,0
-231,253,0,0,0,0,0,0,0,0,0,-1,993,771,0,0
-224,253,0,0,0,0,0,0,0,0,0,-1,1000,771,0,0
-217,253,0,0,0,0,0,0,0,0,0,-1,1007,771,0,0
-210,253,0,0,0,0,0,0,0,0,0,-1,1014,771,0,0
-203,253,0,0,0,0,0,0,0,0,0,-1,1021,771,0,0
-196,253,0,0,0,0,0,0,0,0,0,-1,1028,771,0,0
-189,253,0,0,0,0,0,0,0,0,0,-1,1035,771,0,0
-182,253,0,0,0,0,0,0,0,0,0,-1,1042,771,0,0
-175,253,0,0,0,0,0,0,0,0,0,-1,1049,771,0,0
-168,253,0,0,0,0,0,0,0,0,0,-1,1056,771,0,0
-161,253,0,0,0,0,0,0,0,0,0,-1,1063,771,0,0
-154,253,0,0,0,0,0,0,0,0,0,-1,1070,771,0,0
-147,253,0,0,0,0,0,0,0,0,0,-1,1077,771,0,0
-140,253,0,0,0,0,0,0,0,0,0,-1,1084,771,0,0
-133,253,0,0,0,0,0,0,0,0,0,-1,1091,771,0,0
-126,253,0,0,0,0,0,0,0,0,0,-1,1098,771,0,0
-119,253,0,0,0,0,0,0,0,0,0,-1,1105,771,0,0
-112,253,0,0,0,0,0,0,0,0,0,-1,1112,771,0,0
-105,253,0,0,0,0,0,0,0,0,0,-1,1119,771,0,0
-98,253,0,0,0,0,0,0,0,0,0,-1,1126,771,0,0
-91,253,0,0,0,0,0,0,0,0,0,-1,1133,771,0,0
-84,253,0,0,0,0,0,0,0,0,0,-1,1140,771,0,0
-77,253,0,0,0,0,0,0,0,0,0,-1,1147,771,0,0
-70,253,0,0,0,0,0,0,0,0,0,-1,1154,771,0,0
-63,253,0,0,0,0,0,0,0,0,0,-1,1161,771,0,0
-56,253,0,0,0,0,0,0,0,0,0,-1,1168,771,0,0
-49,253,0,0,0,0,0,0,0,0,0,-1,1175,771,0,0
-42,253,0,0,0,0,0,0,0,0,0,-1,1182,771,0,0
-35,253,0,0,0,0,0,0,0,0,0,-1,1189,771,0,0
-28,253,0,0,0,0,0,0,0,0,0,-1,1196,771,0,0
-21,253,0,0,0,0,0,0,0,0,0,-1,1203,771,0,0
-14,253,0,0,0,0,0,0,0,0,0,-1,1210,771,0,0
-7,253,0,0,0,0,0,0,0,0,0,-1,1217,771,0,0
0,253,0,0,0,0,0,0,0,0,0,-1,1224,771,0,0
7,253,0,0,0,0,0,0,0,0,0,-1,1231,771,0,0
14,253,0,0,0,0,0,0,0,0,0,-1,1238,771,0,0
21,253,0,0,0,0,0,0,0,0,0,-1,1245,771,0,0
28,253,0,0,0,0,0,0,0,0,0,-1,1252,771,0,0
35,253,0,0,0,0,0,0,0,0,0,-1,1259,771,0,0
42,253,0,0,0,0,0,0,0,0,0,-1,1266,771,0,0
49,253,0,0,0,0,0,0,0,0,0,-1,1273,771,0,0
56,253,0,0,0,0,0,0,0,0,0,-1,1280,771,0,0
63,253,0,0,0,0,0,0,0,0,0,-1,1287,771,0,0
70,253,0,0,0,0,0,0,0,0,0,-1,1294,771,0,0
77,253,0,0,0,0,0,0,0,0,0,-1,1301,771,0,0
84,253,0,0,0,0,0,0,0,0,0,-1,1308,771,0,0
91,253,0,0,0,0,0,0,0,0,0,-1,1315,771,0,0
98,253,0,0,0,0,0,0,0,0,0,-1,1322,771,0,0
105,253,0,0,0,0,0,0,0,0,0,-1,1329,771,0,0
112,253,0,0,0,0,0,0,0,0,0,-1,1336,771,0,0
119,253,0,0,0,0,0,0,0,0,0,-1,1343,771,0,0
126,253,0,0,0,0,0,0,0,0,0,-1,1350,771,0,0
133,253,0,0,0,0,0,0,0,0,0,-1,1357,771,0,0
140,253,0,0,0,0,0,0,0,0,0,-1,1364,771,0,0
147,253,0,0,0,0,0,0,0,0,0,-1,1371,771,0,0
154,253,0,0,0,0,0,0,0,0,0,-1,1378,771,0,0
161,253,0,0,0,0,0,0,0,0,0,-1,1385,771,0,0
168,253,0,0,0,0,0,0,0,0,0,-1,1392,771,0,0
175,253,0,0,0,0,0,0,0,0,0,-1,1399,771,0,0
182,253,0,0,0,0,0,0,0,0,0,-1,1406,771,0,0
189,253,0,0,0,0,0,0,0,0,0,-1,1413,771,0,0
196,253,0,0,0,0,0,0,0,0,0,-1,1420,771,0,0
203,253,0,0,0,0,0,0,0,0,0,-1,1427,771,0,0
210,253,0,0,0,0,0,0,0,0,0,-1,1434,771,0,0
217,253,0,0,0,0,0,0,0,0,0,-1,1441,771,0,0
224,253,0,0,0,0,0,0,0,0,0,-1,1448,771,0,0
231,253,0,0,0,0,0,0,0,0,0,-1,1455,771,0,0
238,253,0,0,0,0,0,0,0,0,0,-1,1462,771,0,0
245,253,0,0,0,0,0,0,0,0,0,-1,1469,771,0,0
252,253,0,0,0,0,0,0,0,0,0,-1,1476,771,0,0
259,253,0,0,0,0,0,0,0,0,0,-1,1483,771,0,0
266,253,0,0,0,0,0,0,0,0,0,-1,1490,771,0,0
273,253,0,0,0,0,0,0,0,0,0,-1,1497,771,0,0
280,253,0,0,0,0,0,0,0,0,0,-1,1504,771,0,0
287,253,0,0,0,0,0,0,0,0,0,-1,1511,771,0,0
294,253,0,0,0,0,0,0,0,0,0,-1,1518,771,0,0
301,253,0,0,0,0,0,0,0,0,0,-1,1525,771,0,0
308,253,0,0,0,0,0,0,0,0,0,-1,1532,771,0,0
315,253,0,0,0,0,0,0,0,0,0,-1,1539,771,0,0
322,253,0,0,0,0,0,0,0,0,0,-1,1546,771,0,0
329,253,0,0,0,0,0,0,0,0,0,-1,1553,771,0,0
336,253,0,0,0,0,0,0,0,0,0,-1,1560,771,0,0
343,253,0,0,0,0,0,0,0,0,0,-1,1567,771,0,0
350,253,0,0,0,0,0,0,0,0,0,-1,1574,771,0,0
357,253,0,0,0,0,0,0,0,0,0,-1,1581,771,0,0
364,253,0,0,0,0,0,0,0,0,0,-1,1588,771,0,0
371,253,0,0,0,0,0,0,0,0,0,-1,1595,771,0,0
378,253,0,0,0,0,0,0,0,0,0,-1,1602,771,0,0
385,253,0,0,0,0,0,0,0,0,0,-1,1609,771,0,0
392,253,0,0,0,0,0,0,0,0,0,-1,1616,771,0,0
399,253,0,0,0,0,0,0,0,0,0,-1,1623,771,0,0
406,253,0,0,0,0,0,0,0,0,0,-1,1630,771,0,0
413,253,0,0,0,0,0,0,0,0,0,-1,1637,771,0,0
420,253,0,0,0,0,0,0,0,0,0,-1,1644,771,0,0
427,253,0,0,0,0,0,0,0,0,0,-1,1651,771,0,0
434,253,0,0,0,0,0,0,0,0,0,-1,1658,771,0,0
441,253,0,0,0,0,0,0,0,0,0,-1,1665,771,0,0
448,253,0,0,0,0,0,0,0,0,0,-1,1672,771,0,0
455,253,0,0,0,0,0,0,0,0,0,-1,1679,771,0,0
462,253,0,0,0,0,0,0,0,0,0,-1,1686,771,0,0
469,253,0,0,0,0,0,0,0,0,0,-1,1693,771,0,0
476,253,0,0,0,0,0,0,0,0,0,-1,1700,771,0,0
483,253,0,0,0,0,0,0,0,0,0,-1,1707,771,0,0
490,253,0,0,0,0,0,0,0,0,0,-1,1714,771,0,0
497,253,0,0,0,0,0,0,0,0,0,-1,1721,771,0,0
504,253,0,0,0,0,0,0,0,0,0,-1,1728,771,0,0
511,253,0,0,0,0,0,0,0,0,0,-1,1735,771,0,0
518,253,0,0,0,0,0,0,0,0,0,-1,1742,771,0,0
525,253,0,0,0,0,0,0,0,0,0,-1,1749,771,0,0
532,253,0,0,0,0,0,0,0,0,0,-1,1756,771,0,0
539,253,0,0,0,0,0,0,0,0,0,-1,1763,771,0,0
546,253,0,0,0,0,0,0,0,0,0,-1,1770,771,0,0
553,253,0,0,0,0,0,0,0,0,0,-1,1777,771,0,0
560,253,0,0,0,0,0,0,0,0,0,-1,1784,771,0,0
567,253,0,0,0,0,0,0,0,0,0,-1,1791,771,0,0
574,253,30.4606,2.94727,-0.00033272,0.000996604,0.00525013,0.00562397,-0.00496009,0.848363,0.00611472,0.0372421,1798,771,30.4605,-2.94728
581,253,30.4901,3.01086,0.000722417,-0.00145443,0.0102895,0.00998088,-0.0107129,0.732704,0.0119501,0.0376995,1805,771,30.4901,-3.01085
588,253,30.7219,2.96674,0.00157809,-0.00224719,0.0119185,0.0117364,-0.0124055,0.705838,0.0139401,0.0405117,1812,771,30.7219,-2.96674
595,253,30.9437,2.85638,0.00223664,-0.00210666,0.0117205,0.0119849,-0.011855,0.693793,0.013764,0.0451475,1819,771,30.9437,-2.85639
602,253,30.6925,2.8963,0.00266725,-0.0014917,0.0105731,0.0113635,-0.0101879,0.6883,0.0124489,0.0450338,1826,771,30.6925,-2.89627
609,253,30.5317,2.97797,0.0026938,-0.00101661,0.00895128,0.00998011,-0.00830292,0.683217,0.0105705,0.0392341,1833,771,30.5317,-2.97794
616,253,30.5813,3.20654,0.00242301,-0.000574099,0.00732247,0.00839869,-0.00654978,0.684466,0.00865248,0.0385853,1840,771,30.5814,-3.20654
623,253,30.3834,3.50531,0,0,0,0,0,0,0,-1,1847,771,30.3834,-3.5053
630,253,29.1379,3.88159,0,0,0,0,0,0,0,-1,1854,771,29.1379,-3.88162
637,253,20.6448,-0.0429688,0,0,0,0,0,0,0,-1,1861,771,20.6448,0.0429791
644,253,21.1754,-0.0219727,0,0,0,0,0,0,0,-1,1868,771,21.1755,0.0219605
651,253,21.2048,0.365967,0.000679951,0.000137586,0.00126425,0.00170178,-0.00088424,0.679749,0.0015177,0.0255723,1875,771,21.2048,-0.36599
658,253,21.224,0.732422,0.000414013,5.04157e-05,0.000216613,0.000515007,-5.05784e-05,0.436279,0.000361379,0.0194458,1882,771,21.224,-0.732409
665,253,21.1436,1.08362,-7.9909e-05,-2.28443e-05,-0.000610501,0.000559791,-0.000662544,-0.808749,0.000706546,0.0204932,1889,771,21.1436,-1.08364
672,253,21.1393,1.44952,0.000272022,-0.000516646,-0.000458905,0.000482745,-0.000727368,-0.430466,0.000703401,0.0162628,1896,771,21.1393,-1.4495
679,253,21.1406,1.83154,0.00192768,-0.000480586,-9.16608e-05,0.00193117,-0.00048407,-0.0379876,0.00147551,0.0129737,1903,771,21.1406,-1.83156
686,253,21.1306,2.20624,0.00461985,-0.00052886,0.000197147,0.00462739,-0.000536397,0.0382159,0.00327839,0.0184536,1910,771,21.1306,-2.20623
693,253,21.1135,2.53387,0.00843504,-0.00107726,3.9837e-05,0.00843521,-0.00107743,0.00418784,0.00601487,0.0181716,1917,771,21.1136,-2.53387
700,253,21.1146,2.85065,0.0135247,-0.00209727,-0.000319475,0.0135312,-0.0021038,-0.020439,0.00979765,0.01492,1924,771,21.1147,-2.85065
707,253,21.1208,3.18011,0.0199961,-0.00373802,-0.000896333,0.0200299,-0.00377182,-0.0376941,0.0147719,0.0143763,1931,771,21.1208,-3.1801
714,253,21.1465,3.5141,0.0284155,-0.00665429,-0.00224068,0.0285581,-0.00679688,-0.0635474,0.0216628,0.0198633,1938,771,21.1464,-3.51412
721,253,21.6581,4.1676,0,0,0,0,0,0,0,-1,1945,771,21.658,-4.16762
728,253,21.3325,4.03247,0.0530114,-0.0178653,-0.00881152,0.0540904,-0.0189443,-0.121851,0.0437638,0.0456562,1952,771,21.3325,-4.0325
735,253,21.7112,4.49115,0.0705844,-0.0272767,-0.0153053,0.0729222,-0.0296145,-0.151577,0.0609343,0.0486812,1959,771,21.7111,-4.49114
742,253,22.2302,4.67938,0,0,0,0,0,0,0,-1,1966,771,22.2303,-4.67939
749,253,26.1455,5.17609,0,0,0,0,0,0,0,-1,1973,771,26.1455,-5.17608
756,253,0,0,0,0,0,0,0,0,0,-1,1980,771,0,0
763,253,0,0,0,0,0,0,0,0,0,-1,1987,771,0,0
770,253,0,0,0,0,0,0,0,0,0,-1,1994,771,0,0
777,253,0,0,0,0,0,0,0,0,0,-1,2001,771,0,0
784,253,0,0,0,0,0,0,0,0,0,-1,2008,771,0,0
791,253,0,0,0,0,0,0,0,0,0,-1,2015,771,0,0
798,253,0,0,0,0,0,0,0,0,0,-1,2022,771,0,0
805,253,0,0,0,0,0,0,0,0,0,-1,2029,771,0,0
812,253,0,0,0,0,0,0,0,0,0,-1,2036,771,0,0
-700,246,0,0,0,0,0,0,0,0,0,-1,524,778,0,0
-693,246,0,0,0,0,0,0,0,0,0,-1,531,778,0,0
-686,246,0,0,0,0,0,0,0,0,0,-1,538,778,0,0
-679,246,0,0,0,0,0,0,0,0,0,-1,545,778,0,0
-672,246,0,0,0,0,0,0,0,0,0,-1,552,778,0,0
-665,246,0,0,0,0,0,0,0,0,0,-1,559,778,0,0
-658,246,0,0,0,0,0,0,0,0,0,-1,566,778,0,0
-651,246,0,0,0,0,0,0,0,0,0,-1,573,778,0,0
-644,246,0,0,0,0,0,0,0,0,0,-1,580,778,0,0
-637,246,-17.0051,-2.2157,0,0,0,0,0,0,0,-1,587,778,-17.0051,2.21571
-630,246,-16.3612,6.79205,0,0,0,0,0,0,0,-1,594,778,-16.3612,-6.79203
-623,246,-15.8269,5.93158,0.136895,-0.100065,-0.00205421,0.136913,-0.100083,-0.00866814,0.137379,0.0495298,601,778,-15.8269,-5.93157
-616,246,-15.2198,4.99048,0.108653,-0.0797766,0.00068653,0.108656,-0.0797791,0.00364336,0.109218,0.0459222,608,778,-15.2198,-4.99049
-609,246,-14.6985,4.1543,0.0839193,-0.0616288,0.0020301,0.0839476,-0.0616571,0.0139444,0.0843926,0.0459339,615,778,-14.6985,-4.15427
-602,246,-13.6821,2.47369,0,0,0,0,0,0,0,-1,622,778,-13.6821,-2.47372
-595,246,-13.6048,2.05157,0.0452018,-0.0327356,0.00239953,0.0452756,-0.0328094,0.0307491,0.0452735,0.045774,629,778,-13.6048,-2.05158
-588,246,-13.4898,1.46497,0.0312142,-0.0222436,0.00202767,0.031291,-0.0223204,0.0378578,0.0310966,0.0295974,636,778,-13.4898,-1.46498
-581,246,-13.5856,1.08704,0.0205235,-0.014302,0.00157139,0.0205942,-0.0143727,0.045,0.0202944,0.0166789,643,778,-13.5856,-1.08701
-574,246,-13.5646,0.723389,0.0114703,-0.00754695,0.000919226,0.0115146,-0.00759128,0.0481867,0.0111081,0.0176767,650,778,-13.5646,-0.723392
-567,246,-13.5468,0.396179,0.00497207,-0.00363743,0.00139233,0.00519164,-0.003857,0.15641,0.00524315,0.0177759,657,778,-13.5468,-0.396207
-560,246,-13.55,0.0911255,0.00192518,-0.00194421,0.00140995,0.00238444,-0.00240346,0.314888,0.00276431,0.0138253,664,778,-13.55,-0.0911406
-553,246,-13.5683,-0.188782,0.000299725,-0.00118368,0.00134581,0.00109468,-0.00197864,0.533548,0.00179868,0.0120888,671,778,-13.5683,0.18876
-546,246,-13.5959,-0.51416,0.000181925,-0.00125637,0.00163248,0.00124664,-0.00232108,0.577926,0.00209073,0.010091,678,778,-13.5959,0.514187
-539,246,-13.6051,-0.875061,0.000777673,-0.00228331,0.00270117,0.00235181,-0.00385745,0.527647,0.00361988,0.00999609,685,778,-13.6051,0.875033
-532,246,-13.5974,-1.23151,0.0011429,-0.00202038,0.00427821,0.00412247,-0.00499996,0.608342,0.00527495,0.0116069,692,778,-13.5973,1.23152
-525,246,-13.6004,-1.5575,0.00174374,-0.000968276,0.0055521,0.00610302,-0.00532756,0.665626,0.00660451,0.0130919,699,778,-13.6004,1.5575
-518,246,-13.639,-1.84674,0.0016522,0.000869323,0.00615942,0.0074326,-0.00491108,0.753665,0.00717602,0.0209943,706,778,-13.639,1.84672
-511,246,-13.6846,-2.03217,0.000637519,0.00368734,0.00662545,0.00896111,-0.00463625,0.898508,0.0079817,0.0457933,713,778,-13.6846,2.03216
-504,246,-13.7134,-2.20868,0,0,0,0,0,0,0,-1,720,778,-13.7134,2.20866
-497,246,-14.1214,-2.44934,0,0,0,0,0,0,0,-1,727,778,-14.1214,2.44935
-490,246,-21.6213,1.2569,0,0,0,0,0,0,0,-1,734,778,-21.6213,-1.25689
-483,246,-21.2498,1.63043,-0.00781831,0.0239538,0.00870098,0.0261806,-0.0100451,1.32025,0.0215954,0.0471931,741,778,-21.2498,-1.63041
-476,246,-21.1608,1.87848,-0.0124168,0.0319634,0.00814803,0.0334121,-0.0138655,1.39484,0.0280626,0.0463859,748,778,-21.1609,-1.87849
-469,246,-21.2244,1.57306,-0.0183002,0.0408461,0.00671918,0.0415998,-0.0190539,1.45909,0.0358158,0.0415299,755,778,-21.2244,-1.57304
-462,246,-21.6483,1.12,-0.0259044,0.0497336,0.00393751,0.049938,-0.0261089,1.51893,0.0446184,0.0458136,762,778,-21.6483,-1.11997
-455,246,0,0,0,0,0,0,0,0,0,-1,769,778,0,0
-448,246,0,0,0,0,0,0,0,0,0,-1,776,778,0,0
-441,246,0,0,0,0,0,0,0,0,0,-1,783,778,0,0
-434,246,0,0,0,0,0,0,0,0,0,-1,790,778,0,0
-427,246,0,0,0,0,0,0,0,0,0,-1,797,778,0,0
-420,246,0,0,0,0,0,0,0,0,0,-1,804,778,0,0
-413,246,0,0,0,0,0,0,0,0,0,-1,811,778,0,0
-406,246,0,0,0,0,0,0,0,0,0,-1,818,778,0,0
-399,246,0,0,0,0,0,0,0,0,0,-1,825,778,0,0
-392,246,0,0,0,0,0,0,0,0,0,-1,832,778,0,0
-385,246,0,0,0,0,0,0,0,0,0,-1,839,778,0,0
-378,246,0,0,0,0,0,0,0,0,0,-1,846,778,0,0
-371,246,0,0,0,0,0,0,0,0,0,-1,853,778,0,0
-364,246,0,0,0,0,0,0,0,0,0,-1,860,778,0,0
-357,246,0,0,0,0,0,0,0,0,0,-1,867,778,0,0
-350,246,0,0,0,0,0,0,0,0,0,-1,874,778,0,0
-343,246,0,0,0,0,0,0,0,0,0,-1,881,778,0,0
-336,246,0,0,0,0,0,0,0,0,0,-1,888,778,0,0
-329,246,0,0,0,0,0,0,0,0,0,-1,895,778,0,0
-322,246,0,0,0,0,0,0,0,0,0,-1,902,778,0,0
-315,246,0,0,0,0,0,0,0,0,0,-1,909,778,0,0
-308,246,0,0,0,0,0,0,0,0,0,-1,916,778,0,0
-301,246,0,0,0,0,0,0,0,0,0,-1,923,778,0,0
-294,246,0,0,0,0,0,0,0,0,0,-1,930,778,0,0
-287,246,0,0,0,0,0,0,0,0,0,-1,937,778,0,0
-280,246,0,0,0,0,0,0,0,0,0,-1,944,778,0,0
-273,246,0,0,0,0,0,0,0,0,0,-1,951,778,0,0
-266,246,0,0,0,0,0,0,0,0,0,-1,958,778,0,0
-259,246,0,0,0,0,0,0,0,0,0,-1,965,778,0,0
-252,246,0,0,0,0,0,0,0,0,0,-1,972,778,0,0
-245,246,0,0,0,0,0,0,0,0,0,-1,979,778,0,0
-238,246,0,0,0,0,0,0,0,0,0,-1,986,778,0,0
-231,246,0,0,0,0,0,0,0,0,0,-1,993,778,0,0
-224,246,0,0,0,0,0,0,0,0,0,-1,1000,778,0,0
-217,246,0,0,0,0,0,0,0,0,0,-1,1007,778,0,0
-210,246,0,0,0,0,0,0,0,0,0,-1,1014,778,0,0
-203,246,0,0,0,0,0,0,0,0,0,-1,1021,778,0,0
-196,246,0,0,0,0,0,0,0,0,0,-1,1028,778,0,0
-189,246,0,0,0,0,0,0,0,0,0,-1,1035,778,0,0
-182,246,0,0,0,0,0,0,0,0,0,-1,1042,778,0,0
-175,246,0,0,0,0,0,0,0,0,0,-1,1049,778,0,0
-168,246,0,0,0,0,0,0,0,0,0,-1,1056,778,0,0
-161,246,0,0,0,0,0,0,0,0,0,-1,1063,778,0,0
-154,246,0,0,0,0,0,0,0,0,0,-1,1070,778,0,0
-147,246,0,0,0,0,0,0,0,0,0,-1,1077,778,0,0
-140,246,0,0,0,0,0,0,0,0,0,-1,1084,778,0,0
-133,246,0,0,0,0,0,0,0,0,0,-1,1091,778,0,0
-126,246,0,0,0,0,0,0,0,0,0,-1,1098,778,0,0
-119,246,0,0,0,0,0,0,0,0,0,-1,1105,778,0,0
-112,246,0,0,0,0,0,0,0,0,0,-1,1112,778,0,0
-105,246,0,0,0,0,0,0,0,0,0,-1,1119,778,0,0
-98,246,0,0,0,0,0,0,0,0,0,-1,1126,778,0,0
-91,246,0,0,0,0,0,0,0,0,0,-1,1133,778,0,0
-84,246,0,0,0,0,0,0,0,0,0,-1,1140,778,0,0
-77,246,0,0,0,0,0,0,0,0,0,-1,1147,778,0,0
-70,246,0,0,0,0,0,0,0,0,0,-1,1154,778,0,0
-63,246,0,0,0,0,0,0,0,0,0,-1,1161,778,0,0
-56,246,0,0,0,0,0,0,0,0,0,-1,1168,778,0,0
-49,246,0,0,0,0,0,0,0,0,0,-1,1175,778,0,0
-42,246,0,0,0,0,0,0,0,0,0,-1,1182,778,0,0
-35,246,0,0,0,0,0,0,0,0,0,-1,1189,778,0,0
-28,246,0,0,0,0,0,0,0,0,0,-1,1196,778,0,0
-21,246,0,0,0,0,0,0,0,0,0,-1,1203,778,0,0
-14,246,0,0,0,0,0,0,0,0,0,-1,1210,778,0,0
-7,246,0,0,0,0,0,0,0,0,0,-1,1217,778,0,0
0,246,0,0,0,0,0,0,0,0,0,-1,1224,778,0,0
7,246,0,0,0,0,0,0,0,0,0,-1,1231,778,0,0
14,246,0,0,0,0,0,0,0,0,0,-1,1238,778,0,0
21,246,0,0,0,0,0,0,0,0,0,-1,1245,778,0,0
28,246,0,0,0,0,0,0,0,0,0,-1,1252,778,0,0
35,246,0,0,0,0,0,0,0,0,0,-1,1259,778,0,0
42,246,0,0,0,0,0,0,0,0,0,-1,1266,778,0,0
49,246,0,0,0,0,0,0,0,0,0,-1,1273,778,0,0
56,246,0,0,0,0,0,0,0,0,0,-1,1280,778,0,0
63,246,0,0,0,0,0,0,0,0,0,-1,1287,778,0,0
70,246,0,0,0,0,0,0,0,0,0,-1,1294,778,0,0
77,246,0,0,0,0,0,0,0,0,0,-1,1301,778,0,0
84,246,0,0,0,0,0,0,0,0,0,-1,1308,778,0,0
91,246,0,0,0,0,0,0,0,0,0,-1,1315,778,0,0
98,246,0,0,0,0,0,0,0,0,0,-1,1322,778,0,0
105,246,0,0,0,0,0,0,0,0,0,-1,1329,778,0,0
112,246,0,0,0,0,0,0,0,0,0,-1,1336,778,0,0
119,246,0,0,0,0,0,0,0,0,0,-1,1343,778,0,0
126,246,0,0,0,0,0,0,0,0,0,-1,1350,778,0,0
133,246,0,0,0,0,0,0,0,0,0,-1,1357,778,0,0
140,246,0,0,0,0,0,0,0,0,0,-1,1364,778,0,0
147,246,0,0,0,0,0,0,0,0,0,-1,1371,778,0,0
154,246,0,0,0,0,0,0,0,0,0,-1,1378,778,0,0
161,246,0,0,0,0,0,0,0,0,0,-1,1385,778,0,0
168,246,0,0,0,0,0,0,0,0,0,-1,1392,778,0,0
175,246,0,0,0,0,0,0,0,0,0,-1,1399,778,0,0
182,246,0,0,0,0,0,0,0,0,0,-1,1406,778,0,0
189,246,0,0,0,0,0,0,0,0,0,-1,1413,778,0,0
196,246,0,0,0,0,0,0,0,0,0,-1,1420,778,0,0
203,246,0,0,0,0,0,0,0,0,0,-1,1427,778,0,0
210,246,0,0,0,0,0,0,0,0,0,-1,1434,778,0,0
217,246,0,0,0,0,0,0,0,0,0,-1,1441,778,0,0
224,246,0,0,0,0,0,0,0,0,0,-1,1448,778,0,0
231,246,0,0,0,0,0,0,0,0,0,-1,1455,778,0,0
238,246,0,0,0,0,0,0,0,0,0,-1,1462,778,0,0
245,246,0,0,0,0,0,0,0,0,0,-1,1469,778,0,0
252,246,0,0,0,0,0,0,0,0,0,-1,1476,778,0,0
259,246,0,0,0,0,0,0,0,0,0,-1,1483,778,0,0
266,246,0,0,0,0,0,0,0,0,0,-1,1490,778,0,0
273,246,0,0,0,0,0,0,0,0,0,-1,1497,778,0,0
280,246,0,0,0,0,0,0,0,0,0,-1,1504,778,0,0
287,246,0,0,0,0,0,0,0,0,0,-1,1511,778,0,0
294,246,0,0,0,0,0,0,0,0,0,-1,1518,778,0,0
301,246,0,0,0,0,0,0,0,0,0,-1,1525,778,0,0
308,246,0,0,0,0,0,0,0,0,0,-1,1532,778,0,0
315,246,0,0,0,0,0,0,0,0,0,-1,1539,778,0,0
322,246,0,0,0,0,0,0,0,0,0,-1,1546,778,0,0
329,246,0,0,0,0,0,0,0,0,0,-1,1553,778,0,0
336,246,0,0,0,0,0,0,0,0,0,-1,1560,778,0,0
343,246,0,0,0,0,0,0,0,0,0,-1,1567,778,0,0
350,246,0,0,0,0,0,0,0,0,0,-1,1574,778,0,0
357,246,0,0,0,0,0,0,0,0,0,-1,1581,778,0,0
364,246,0,0,0,0,0,0,0,0,0,-1,1588,778,0,0
371,246,0,0,0,0,0,0,0,0,0,-1,1595,778,0,0
378,246,0,0,0,0,0,0,0,0,0,-1,1602,778,0,0
385,246,0,0,0,0,0,0,0,0,0,-1,1609,778,0,0
392,246,0,0,0,0,0,0,0,0,0,-1,1616,778,0,0
399,246,0,0,0,0,0,0,0,0,0,-1,1623,778,0,0
406,246,0,0,0,0,0,0,0,0,0,-1,1630,778,0,0
413,246,0,0,0,0,0,0,0,0,0,-1,1637,778,0,0
420,246,0,0,0,0,0,0,0,0,0,-1,1644,778,0,0
427,246,0,0,0,0,0,0,0,0,0,-1,1651,778,0,0
434,246,0,0,0,0,0,0,0,0,0,-1,1658,778,0,0
441,246,0,0,0,0,0,0,0,0,0,-1,1665,778,0,0
448,246,0,0,0,0,0,0,0,0,0,-1,1672,778,0,0
455,246,0,0,0,0,0,0,0,0,0,-1,1679,778,0,0
462,246,0,0,0,0,0,0,0,0,0,-1,1686,778,0,0
469,246,0,0,0,0,0,0,0,0,0,-1,1693,778,0,0
476,246,0,0,0,0,0,0,0,0,0,-1,1700,778,0,0
483,246,0,0,0,0,0,0,0,0,0,-1,1707,778,0,0
490,246,0,0,0,0,0,0,0,0,0,-1,1714,778,0,0
497,246,0,0,0,0,0,0,0,0,0,-1,1721,778,0,0
504,246,0,0,0,0,0,0,0,0,0,-1,1728,778,0,0
511,246,0,0,0,0,0,0,0,0,0,-1,1735,778,0,0
518,246,0,0,0,0,0,0,0,0,0,-1,1742,778,0,0
525,246,0,0,0,0,0,0,0,0,0,-1,1749,778,0,0
532,246,0,0,0,0,0,0,0,0,0,-1,1756,778,0,0
539,246,0,0,0,0,0,0,0,0,0,-1,1763,778,0,0
546,246,0,0,0,0,0,0,0,0,0,-1,1770,778,0,0
553,246,0,0,0,0,0,0,0,0,0,-1,1777,778,0,0
560,246,0,0,0,0,0,0,0,0,0,-1,1784,778,0,0
567,246,0,0,0,0,0,0,0,0,0,-1,1791,778,0,0
574,246,0,0,0,0,0,0,0,0,0,-1,1798,778,0,0
581,246,30.4896,3.00195,4.11817e-05,0.000505865,0.00622368,0.00650154,-0.00595449,0.804055,0.0071938,0.0372236,1805,778,30.4896,-3.00197
588,246,30.6266,2.88983,0.00106431,-0.00046544,0.00859163,0.00892504,-0.00832617,0.741002,0.00996199,0.0407368,1812,778,30.6266,-2.8898
595,246,30.8209,2.87183,0.00195955,-0.000610679,0.00926049,0.0100237,-0.0086748,0.716452,0.0108049,0.0419813,1819,778,30.8209,-2.87182
602,246,30.6368,3.0412,0.00252422,-0.000191815,0.00880659,0.0100769,-0.00774448,0.708898,0.0103185,0.0446061,1826,778,30.6368,-3.04122
609,246,30.2975,3.14154,0.00258802,8.3157e-05,0.00762777,0.0090655,-0.00639432,0.704027,0.00897003,0.0452315,1833,778,30.2975,-3.14156
616,246,30.7971,3.02979,0.00228958,0.000315202,0.00626272,0.00764244,-0.00503766,0.707227,0.00737217,0.0449999,1840,778,30.7971,-3.02978
623,246,31.5493,3.25922,0,0,0,0,0,0,0,-1,1847,778,31.5493,-3.25923
630,246,32.0083,3.48962,0,0,0,0,0,0,0,-1,1854,778,32.0083,-3.48962
637,246,28.2345,2.4433,0,0,0,0,0,0,0,-1,1861,778,28.2345,-2.4433
644,246,21.4369,0.0275879,0,0,0,0,0,0,0,-1,1868,778,21.4369,-0.0276019
651,246,21.4895,0.37561,0.00045624,0.000163408,0.00103152,0.00135169,-0.00073204,0.714898,0.00122064,0.0387156,1875,778,21.4895,-0.37562
658,246,21.5237,0.737366,0.000261822,-2.42823e-05,6.74827e-05,0.00027694,-3.94004e-05,0.220391,0.000199064,0.0223917,1882,778,21.5236,-0.737383
665,246,21.4705,1.10229,-0.000206944,-0.000225681,-0.000727758,0.000511506,-0.000944131,-0.778962,0.000852695,0.0200926,1889,778,21.4705,-1.10228
672,246,21.4637,1.45746,-4.89419e-05,-0.000861775,-0.000687391,0.000343191,-0.00125391,-0.51842,0.000970772,0.0198508,1896,778,21.4637,-1.45743
679,246,21.5042,1.81287,0.00133864,-0.000963387,-0.000427846,0.00141559,-0.00104033,-0.177942,0.00142343,0.0200947,1903,778,21.5041,-1.81286
686,246,21.5258,2.19556,0.00368107,-0.000987147,-0.000188749,0.00368869,-0.000994766,-0.0403451,0.0028492,0.0214832,1910,778,21.5258,-2.19557
693,246,21.5219,2.53296,0.00713025,-0.00148193,-0.000358704,0.00714516,-0.00149685,-0.0415549,0.00533288,0.0170377,1917,778,21.5218,-2.53295
700,246,21.5099,2.85449,0.0117917,-0.00249858,-0.000753235,0.0118313,-0.00253817,-0.0525156,0.00885569,0.0134,1924,778,21.5099,-2.85448
707,246,21.4908,3.19714,0.0176439,-0.00405365,-0.00138812,0.0177323,-0.00414209,-0.0636299,0.0134171,0.0127415,1931,778,21.4908,-3.19717
714,246,21.4863,3.55396,0.0251211,-0.00673302,-0.00273914,0.0253549,-0.00696684,-0.0851572,0.0196418,0.0127181,1938,778,21.4864,-3.55398
721,246,21.4637,3.84827,0.0345335,-0.0108986,-0.00516627,0.0351135,-0.0114786,-0.111812,0.0280299,0.0186719,1945,778,21.4637,-3.84824
728,246,21.6331,4.2738,0.0464206,-0.0169574,-0.00903479,0.0476834,-0.0182202,-0.13887,0.0392965,0.0367574,1952,778,21.633,-4.27383
735,246,22.0834,4.79364,0.0615447,-0.0255039,-0.0150554,0.064075,-0.0280342,-0.166512,0.0545194,0.044633,1959,778,22.0834,-4.79362
742,246,22.7257,4.80139,0.0798717,-0.0372426,-0.0241225,0.0846457,-0.0420166,-0.195382,0.0744963,0.0456674,1966,778,22.7257,-4.80136
749,246,23.4045,4.7713,0,0,0,0,0,0,0,-1,1973,778,23.4045,-4.77133
756,246,24.1831,4.71265,0,0,0,0,0,0,0,-1,1980,778,24.183,-4.71265
763,246,0,0,0,0,0,0,0,0,0,-1,1987,778,0,0
770,246,0,0,0,0,0,0,0,0,0,-1,1994,778,0,0
777,246,0,0,0,0,0,0,0,0,0,-1,2001,778,0,0
784,246,0,0,0,0,0,0,0,0,0,-1,2008,778,0,0
791,246,0,0,0,0,0,0,0,0,0,-1,2015,778,0,0
798,246,0,0,0,0,0,0,0,0,0,-1,2022,778,0,0
805,246,0,0,0,0,0,0,0,0,0,-1,2029,778,0,0
812,246,0,0,0,0,0,0,0,0,0,-1,2036,778,0,0
-700,239,0,0,0,0,0,0,0,0,0,-1,524,785,0,0
-693,239,0,0,0,0,0,0,0,0,0,-1,531,785,0,0
-686,239,0,0,0,0,0,0,0,0,0,-1,538,785,0,0
-679,239,0,0,0,0,0,0,0,0,0,-1,545,785,0,0
-672,239,0,0,0,0,0,0,0,0,0,-1,552,785,0,0
-665,239,0,0,0,0,0,0,0,0,0,-1,559,785,0,0
-658,239,0,0,0,0,0,0,0,0,0,-1,566,785,0,0
-651,239,0,0,0,0,0,0,0,0,0,-1,573,785,0,0
-644,239,0,0,0,0,0,0,0,0,0,-1,580,785,0,0
-637,239,-17.164,7.85699,0,0,0,0,0,0,0,-1,587,785,-17.164,-7.85703
-630,239,-16.7726,7.08698,0,0,0,0,0,0,0,-1,594,785,-16.7726,-7.087
-623,239,-16.4079,6.22156,0.118222,-0.0853852,-0.00456962,0.118324,-0.0854877,-0.0224283,0.118179,0.0434968,601,785,-16.4079,-6.22154
-616,239,-15.853,5.35858,0.0928167,-0.0669101,-0.00207071,0.0928436,-0.0669369,-0.0129612,0.0926526,0.0428217,608,785,-15.853,-5.35859
-609,239,-15.2375,4.42261,0,0,0,0,0,0,0,-1,615,785,-15.2375,-4.4226
-602,239,-13.8547,2.31989,0,0,0,0,0,0,0,-1,622,785,-13.8547,-2.31986
-595,239,-13.8283,1.91803,0.0374255,-0.0260692,0.00052724,0.0374299,-0.0260736,0.00830292,0.0368587,0.0424069,629,785,-13.8283,-1.91804
-588,239,-13.8148,1.47394,0.0256278,-0.0174177,0.000605039,0.0256363,-0.0174262,0.0140521,0.0250123,0.0185871,636,785,-13.8148,-1.47395
-581,239,-13.8947,1.09576,0.01667,-0.0109889,0.000572393,0.0166818,-0.0110008,0.0206829,0.0160943,0.0111673,643,785,-13.8947,-1.09575
-574,239,-13.8928,0.735474,0.00917242,-0.00564505,0.000340691,0.00918025,-0.00565288,0.0229763,0.00864425,0.0120737,650,785,-13.8928,-0.735495
-567,239,-13.8715,0.396667,0.00380564,-0.00268961,0.000975647,0.00394903,-0.00283299,0.145921,0.00393323,0.0135332,657,785,-13.8715,-0.396678
-560,239,-13.8839,0.101196,0.00120891,-0.00152485,0.00127444,0.00171087,-0.00202681,0.375209,0.00216052,0.0137585,664,785,-13.8838,-0.101213
-553,239,-13.9132,-0.19281,0.000102539,-0.00124299,0.00155709,0.00112599,-0.00226644,0.581479,0.00199517,0.0140002,671,785,-13.9132,0.192818
-546,239,-13.961,-0.519409,0.000300822,-0.00168059,0.00209889,0.00163107,-0.00301084,0.564893,0.00271919,0.0150116,678,785,-13.961,0.519431
-539,239,-13.9492,-0.874634,0.00106456,-0.00266084,0.00312889,0.00284323,-0.00443952,0.516911,0.00423823,0.0159397,685,785,-13.9492,0.874605
-532,239,-13.9114,-1.20581,0.001599,-0.0024055,0.0046131,0.00462564,-0.00543213,0.580649,0.00581308,0.0134664,692,785,-13.9115,1.20581
-525,239,-13.9138,-1.49207,0.00233625,-0.00151124,0.00578795,0.00651178,-0.00568676,0.624956,0.0070482,0.0170711,699,785,-13.9138,1.49207
-518,239,-13.9887,-1.68866,0.00244133,4.44568e-05,0.0063529,0.00770785,-0.00522206,0.692172,0.00751093,0.0410642,706,785,-13.9887,1.68867
-511,239,-14.0711,-1.89282,0.00182188,0.00235054,0.00679155,0.0088829,-0.00471048,0.804849,0.00797042,0.0447886,713,785,-14.0711,1.89282
-504,239,-13.8813,-1.75012,0,0,0,0,0,0,0,-1,720,785,-13.8813,1.75013
-497,239,-13.9413,-1.6557,0,0,0,0,0,0,0,-1,727,785,-13.9413,1.65569
-490,239,-21.6928,1.0929,-0.00171471,0.0139831,0.00842071,0.0176457,-0.00537726,1.16053,0.0139071,0.0462458,734,785,-21.6928,-1.09288
-483,239,-21.554,1.37616,-0.00467345,0.020057,0.00818511,0.0225206,-0.00713707,1.27843,0.0178742,0.0444949,741,785,-21.554,-1.37617
-476,239,-21.3752,1.43817,-0.00889997,0.0272705,0.00713936,0.0286287,-0.0102581,1.38281,0.0232714,0.0419696,748,785,-21.3752,-1.43818
-469,239,-21.5402,1.22882,-0.014591,0.0350315,0.00491188,0.035513,-0.0150725,1.47307,0.0299898,0.0417088,755,785,-21.5403,-1.22883
-462,239,-21.7736,1.02112,-0.022315,0.0420533,0.000913691,0.0420662,-0.022328,1.55661,0.0377557,0.0439645,762,785,-21.7736,-1.0211
-455,239,0,0,0,0,0,0,0,0,0,-1,769,785,0,0
-448,239,0,0,0,0,0,0,0,0,0,-1,776,785,0,0
-441,239,0,0,0,0,0,0,0,0,0,-1,783,785,0,0
-434,239,0,0,0,0,0,0,0,0,0,-1,790,785,0,0
-427,239,0,0,0,0,0,0,0,0,0,-1,797,785,0,0
-420,239,0,0,0,0,0,0,0,0,0,-1,804,785,0,0
-413,239,0,0,0,0,0,0,0,0,0,-1,811,785,0,0
-406,239,0,0,0,0,0,0,0,0,0,-1,818,785,0,0
-399,239,0,0,0,0,0,0,0,0,0,-1,825,785,0,0
-392,239,0,0,0,0,0,0,0,0,0,-1,832,785,0,0
-385,239,0,0,0,0,0,0,0,0,0,-1,839,785,0,0
-378,239,0,0,0,0,0,0,0,0,0,-1,846,785,0,0
-371,239,0,0,0,0,0,0,0,0,0,-1,853,785,0,0
-364,239,0,0,0,0,0,0,0,0,0,-1,860,785,0,0
-357,239,0,0,0,0,0,0,0,0,0,-1,867,785,0,0
-350,239,0,0,0,0,0,0,0,0,0,-1,874,785,0,0
-343,239,0,0,0,0,0,0,0,0,0,-1,881,785,0,0
-336,239,0,0,0,0,0,0,0,0,0,-1,888,785,0,0
-329,239,0,0,0,0,0,0,0,0,0,-1,895,785,0,0
-322,239,0,0,0,0,0,0,0,0,0,-1,902,785,0,0
-315,239,0,0,0,0,0,0,0,0,0,-1,909,785,0,0
-308,239,0,0,0,0,0,0,0,0,0,-1,916,785,0,0
-301,239,0,0,0,0,0,0,0,0,0,-1,923,785,0,0
-294,239,0,0,0,0,0,0,0,0,0,-1,930,785,0,0
-287,239,0,0,0,0,0,0,0,0,0,-1,937,785,0,0
-280,239,0,0,0,0,0,0,0,0,0,-1,944,785,0,0
-273,239,0,0,0,0,0,0,0,0,0,-1,951,785,0,0
-266,239,0,0,0,0,0,0,0,0,0,-1,958,785,0,0
-259,239,0,0,0,0,0,0,0,0,0,-1,965,785,0,0
-252,239,0,0,0,0,0,0,0,0,0,-1,972,785,0,0
-245,239,0,0,0,0,0,0,0,0,0,-1,979,785,0,0
-238,239,0,0,0,0,0,0,0,0,0,-1,986,785,0,0
-231,239,0,0,0,0,0,0,0,0,0,-1,993,785,0,0
-224,239,0,0,0,0,0,0,0,0,0,-1,1000,785,0,0
-217,239,0,0,0,0,0,0,0,0,0,-1,1007,785,0,0
-210,239,0,0,0,0,0,0,0,0,0,-1,1014,785,0,0
-203,239,0,0,0,0,0,0,0,0,0,-1,1021,785,0,0
-196,239,0,0,0,0,0,0,0,0,0,-1,1028,785,0,0
-189,239,0,0,0,0,0,0,0,0,0,-1,1035,785,0,0
-182,239,0,0,0,0,0,0,0,0,0,-1,1042,785,0,0
-175,239,0,0,0,0,0,0,0,0,0,-1,1049,785,0,0
-168,239,0,0,0,0,0,0,0,0,0,-1,1056,785,0,0
-161,239,0,0,0,0,0,0,0,0,0,-1,1063,785,0,0
-154,239,0,0,0,0,0,0,0,0,0,-1,1070,785,0,0
-147,239,0,0,0,0,0,0,0,0,0,-1,1077,785,0,0
-140,239,0,0,0,0,0,0,0,0,0,-1,1084,785,0,0
-133,239,0,0,0,0,0,0,0,0,0,-1,1091,785,0,0
-126,239,0,0,0,0,0,0,0,0,0,-1,1098,785,0,0
-119,239,0,0,0,0,0,0,0,0,0,-1,1105,785,0,0
-112,239,0,0,0,0,0,0,0,0,0,-1,1112,785,0,0
-105,239,0,0,0,0,0,0,0,0,0,-1,1119,785,0,0
-98,239,0,0,0,0,0,0,0,0,0,-1,1126,785,0,0
-91,239,0,0,0,0,0,0,0,0,0,-1,1133,785,0,0
-84,239,0,0,0,0,0,0,0,0,0,-1,1140,785,0,0
-77,239,0,0,0,0,0,0,0,0,0,-1,1147,785,0,0
-70,239,0,0,0,0,0,0,0,0,0,-1,1154,785,0,0
-63,239,0,0,0,0,0,0,0,0,0,-1,1161,785,0,0
-56,239,0,0,0,0,0,0,0,0,0,-1,1168,785,0,0
-49,239,0,0,0,0,0,0,0,0,0,-1,1175,785,0,0
-42,239,0,0,0,0,0,0,0,0,0,-1,1182,785,0,0
-35,239,0,0,0,0,0,0,0,0,0,-1,1189,785,0,0
-28,239,0,0,0,0,0,0,0,0,0,-1,1196,785,0,0
-21,239,0,0,0,0,0,0,0,0,0,-1,1203,785,0,0
-14,239,0,0,0,0,0,0,0,0,0,-1,1210,785,0,0
-7,239,0,0,0,0,0,0,0,0,0,-1,1217,785,0,0
0,239,0,0,0,0,0,0,0,0,0,-1,1224,785,0,0
7,239,0,0,0,0,0,0,0,0,0,-1,1231,785,0,0
14,239,0,0,0,0,0,0,0,0,0,-1,1238,785,0,0
21,239,0,0,0,0,0,0,0,0,0,-1,1245,785,0,0
28,239,0,0,0,0,0,0,0,0,0,-1,1252,785,0,0
35,239,0,0,0,0,0,0,0,0,0,-1,1259,785,0,0
42,239,0,0,0,0,0,0,0,0,0,-1,1266,785,0,0
49,239,0,0,0,0,0,0,0,0,0,-1,1273,785,0,0
56,239,0,0,0,0,0,0,0,0,0,-1,1280,785,0,0
63,239,0,0,0,0,0,0,0,0,0,-1,1287,785,0,0
70,239,0,0,0,0,0,0,0,0,0,-1,1294,785,0,0
77,239,0,0,0,0,0,0,0,0,0,-1,1301,785,0,0
84,239,0,0,0,0,0,0,0,0,0,-1,1308,785,0,0
91,239,0,0,0,0,0,0,0,0,0,-1,1315,785,0,0
98,239,0,0,0,0,0,0,0,0,0,-1,1322,785,0,0
105,239,0,0,0,0,0,0,0,0,0,-1,1329,785,0,0
112,239,0,0,0,0,0,0,0,0,0,-1,1336,785,0,0
119,239,0,0,0,0,0,0,0,0,0,-1,1343,785,0,0
126,239,0,0,0,0,0,0,0,0,0,-1,1350,785,0,0
133,239,0,0,0,0,0,0,0,0,0,-1,1357,785,0,0
140,239,0,0,0,0,0,0,0,0,0,-1,1364,785,0,0
147,239,0,0,0,0,0,0,0,0,0,-1,1371,785,0,0
154,239,0,0,0,0,0,0,0,0,0,-1,1378,785,0,0
161,239,0,0,0,0,0,0,0,0,0,-1,1385,785,0,0
168,239,0,0,0,0,0,0,0,0,0,-1,1392,785,0,0
175,239,0,0,0,0,0,0,0,0,0,-1,1399,785,0,0
182,239,0,0,0,0,0,0,0,0,0,-1,1406,785,0,0
189,239,0,0,0,0,0,0,0,0,0,-1,1413,785,0,0
196,239,0,0,0,0,0,0,0,0,0,-1,1420,785,0,0
203,239,0,0,0,0,0,0,0,0,0,-1,1427,785,0,0
210,239,0,0,0,0,0,0,0,0,0,-1,1434,785,0,0
217,239,0,0,0,0,0,0,0,0,0,-1,1441,785,0,0
224,239,0,0,0,0,0,0,0,0,0,-1,1448,785,0,0
231,239,0,0,0,0,0,0,0,0,0,-1,1455,785,0,0
238,239,0,0,0,0,0,0,0,0,0,-1,1462,785,0,0
245,239,0,0,0,0,0,0,0,0,0,-1,1469,785,0,0
252,239,0,0,0,0,0,0,0,0,0,-1,1476,785,0,0
259,239,0,0,0,0,0,0,0,0,0,-1,1483,785,0,0
266,239,0,0,0,0,0,0,0,0,0,-1,1490,785,0,0
273,239,0,0,0,0,0,0,0,0,0,-1,1497,785,0,0
280,239,0,0,0,0,0,0,0,0,0,-1,1504,785,0,0
287,239,0,0,0,0,0,0,0,0,0,-1,1511,785,0,0
294,239,0,0,0,0,0,0,0,0,0,-1,1518,785,0,0
301,239,0,0,0,0,0,0,0,0,0,-1,1525,785,0,0
308,239,0,0,0,0,0,0,0,0,0,-1,1532,785,0,0
315,239,0,0,0,0,0,0,0,0,0,-1,1539,785,0,0
322,239,0,0,0,0,0,0,0,0,0,-1,1546,785,0,0
329,239,0,0,0,0,0,0,0,0,0,-1,1553,785,0,0
336,239,0,0,0,0,0,0,0,0,0,-1,1560,785,0,0
343,239,0,0,0,0,0,0,0,0,0,-1,1567,785,0,0
350,239,0,0,0,0,0,0,0,0,0,-1,1574,785,0,0
357,239,0,0,0,0,0,0,0,0,0,-1,1581,785,0,0
364,239,0,0,0,0,0,0,0,0,0,-1,1588,785,0,0
371,239,0,0,0,0,0,0,0,0,0,-1,1595,785,0,0
378,239,0,0,0,0,0,0,0,0,0,-1,1602,785,0,0
385,239,0,0,0,0,0,0,0,0,0,-1,1609,785,0,0
392,239,0,0,0,0,0,0,0,0,0,-1,1616,785,0,0
399,239,0,0,0,0,0,0,0,0,0,-1,1623,785,0,0
406,239,0,0,0,0,0,0,0,0,0,-1,1630,785,0,0
413,239,0,0,0,0,0,0,0,0,0,-1,1637,785,0,0
420,239,0,0,0,0,0,0,0,0,0,-1,1644,785,0,0
427,239,0,0,0,0,0,0,0,0,0,-1,1651,785,0,0
434,239,0,0,0,0,0,0,0,0,0,-1,1658,785,0,0
441,239,0,0,0,0,0,0,0,0,0,-1,1665,785,0,0
448,239,0,0,0,0,0,0,0,0,0,-1,1672,785,0,0
455,239,0,0,0,0,0,0,0,0,0,-1,1679,785,0,0
462,239,0,0,0,0,0,0,0,0,0,-1,1686,785,0,0
469,239,0,0,0,0,0,0,0,0,0,-1,1693,785,0,0
476,239,0,0,0,0,0,0,0,0,0,-1,1700,785,0,0
483,239,0,0,0,0,0,0,0,0,0,-1,1707,785,0,0
490,239,0,0,0,0,0,0,0,0,0,-1,1714,785,0,0
497,239,0,0,0,0,0,0,0,0,0,-1,1721,785,0,0
504,239,0,0,0,0,0,0,0,0,0,-1,1728,785,0,0
511,239,0,0,0,0,0,0,0,0,0,-1,1735,785,0,0
518,239,0,0,0,0,0,0,0,0,0,-1,1742,785,0,0
525,239,0,0,0,0,0,0,0,0,0,-1,1749,785,0,0
532,239,0,0,0,0,0,0,0,0,0,-1,1756,785,0,0
539,239,0,0,0,0,0,0,0,0,0,-1,1763,785,0,0
546,239,0,0,0,0,0,0,0,0,0,-1,1770,785,0,0
553,239,0,0,0,0,0,0,0,0,0,-1,1777,785,0,0
560,239,0,0,0,0,0,0,0,0,0,-1,1784,785,0,0
567,239,0,0,0,0,0,0,0,0,0,-1,1791,785,0,0
574,239,0,0,0,0,0,0,0,0,0,-1,1798,785,0,0
581,239,30.4568,3.09064,-0.000639237,0.00174152,0.0023241,0.00316235,-0.00206007,1.02207,0.00303747,0.0365414,1805,785,30.4568,-3.09065
588,239,30.4705,3.05444,0.000417228,0.000845528,0.00516203,0.00579785,-0.00453509,0.806129,0.00598056,0.0388747,1812,785,30.4705,-3.05447
595,239,30.6075,2.92767,0.00153541,0.00046998,0.00663726,0.0076613,-0.00565591,0.745353,0.0077177,0.0366035,1819,785,30.6075,-2.92764
602,239,30.6516,2.97015,0.00224639,0.000675258,0.00695582,0.00846086,-0.00553922,0.729168,0.00814141,0.0394071,1826,785,30.6516,-2.97013
609,239,30.681,3.02655,0.00239063,0.000734142,0.00631099,0.0079275,-0.00480273,0.720152,0.00742324,0.0480877,1833,785,30.681,-3.02657
616,239,30.2787,3.37903,0,0,0,0,0,0,0,-1,1840,785,30.2786,-3.37906
623,239,30.1099,3.61157,0,0,0,0,0,0,0,-1,1847,785,30.1098,-3.6116
630,239,29.6362,3.83771,0,0,0,0,0,0,0,-1,1854,785,29.6362,-3.83771
637,239,29.1333,3.94116,0,0,0,0,0,0,0,-1,1861,785,29.1333,-3.94114
644,239,18.3466,0.735413,0,0,0,0,0,0,0,-1,1868,785,18.3465,-0.735414
651,239,21.7677,0.391235,0,0,0,0,0,0,0,-1,1875,785,21.7677,-0.391243
658,239,21.8407,0.775208,0.000152794,-0.000357916,-7.1485e-05,0.000162612,-0.000367733,-0.136478,0.000313736,0.0243323,1882,785,21.8407,-0.775224
665,239,21.8527,1.14929,-0.000216118,-0.000552785,-0.000823081,0.000455667,-0.00122457,-0.684531,0.00100337,0.0140515,1889,785,21.8527,-1.14931
672,239,21.795,1.49634,-0.000193969,-0.00115762,-0.000906365,0.00035068,-0.00170227,-0.541093,0.00126801,0.0192773,1896,785,21.795,-1.49637
679,239,21.8267,1.86133,0.000826031,-0.00130528,-0.000769655,0.00107491,-0.00155416,-0.312747,0.00152627,0.0202167,1903,785,21.8266,-1.8613
686,239,21.8641,2.21814,0.00264059,-0.00124736,-0.000599122,0.00273082,-0.00133759,-0.149479,0.00239437,0.0229368,1910,785,21.8642,-2.21815
693,239,21.895,2.53796,0.00554649,-0.00161554,-0.000764446,0.00562717,-0.00169622,-0.105158,0.00442654,0.0156153,1917,785,21.8951,-2.53799
700,239,21.8667,2.86328,0.00965869,-0.00254023,-0.00115213,0.00976655,-0.00264809,-0.0933457,0.00755014,0.010997,1924,785,21.8667,-2.86328
707,239,21.8448,3.20746,0.014825,-0.00392491,-0.00177379,0.0149914,-0.00409124,-0.0934971,0.011601,0.0103235,1931,785,21.8448,-3.20744
714,239,21.8428,3.54065,0.0213817,-0.00628574,-0.00304041,0.0217118,-0.00661592,-0.108172,0.0171116,0.0103734,1938,785,21.8427,-3.54063
721,239,21.7921,3.86615,0.0295102,-0.00999813,-0.00529232,0.0302068,-0.0106948,-0.130881,0.0244939,0.0217815,1945,785,21.7921,-3.86613
728,239,21.8956,4.22424,0.0396263,-0.0153563,-0.00880445,0.0410018,-0.0167318,-0.154971,0.0343002,0.0369561,1952,785,21.8956,-4.22423
735,239,23.1803,5.40973,0.052375,-0.0228491,-0.0141423,0.0549459,-0.0254201,-0.179826,0.0474316,0.0493354,1959,785,23.1804,-5.40975
742,239,23.7013,5.44263,0.068009,-0.0332085,-0.0220976,0.0726229,-0.0378225,-0.205843,0.0648122,0.0480486,1966,785,23.7013,-5.4426
749,239,24.4656,5.17188,0.0862393,-0.0470951,-0.0337389,0.0942904,-0.0551462,-0.23425,0.0872583,0.0480511,1973,785,24.4656,-5.17185
756,239,25.1377,5.07397,0,0,0,0,0,0,0,-1,1980,785,25.1377,-5.074
763,239,0,0,0,0,0,0,0,0,0,-1,1987,785,0,0
770,239,0,0,0,0,0,0,0,0,0,-1,1994,785,0,0
777,239,0,0,0,0,0,0,0,0,0,-1,2001,785,0,0
784,239,0,0,0,0,0,0,0,0,0,-1,2008,785,0,0
791,239,0,0,0,0,0,0,0,0,0,-1,2015,785,0,0
798,239,0,0,0,0,0,0,0,0,0,-1,2022,785,0,0
805,239,0,0,0,0,0,0,0,0,0,-1,2029,785,0,0
812,239,0,0,0,0,0,0,0,0,0,-1,2036,785,0,0
-700,232,0,0,0,0,0,0,0,0,0,-1,524,792,0,0
-693,232,0,0,0,0,0,0,0,0,0,-1,531,792,0,0
-686,232,0,0,0,0,0,0,0,0,0,-1,538,792,0,0
-679,232,0,0,0,0,0,0,0,0,0,-1,545,792,0,0
-672,232,0,0,0,0,0,0,0,0,0,-1,552,792,0,0
-665,232,0,0,0,0,0,0,0,0,0,-1,559,792,0,0
-658,232,0,0,0,0,0,0,0,0,0,-1,566,792,0,0
-651,232,0,0,0,0,0,0,0,0,0,-1,573,792,0,0
-644,232,-17.887,-2.42126,0,0,0,0,0,0,0,-1,580,792,-17.887,2.42124
-637,232,-17.3502,-1.97833,0,0,0,0,0,0,0,-1,587,792,-17.3501,1.97836
-630,232,-17.4505,7.02948,0,0,0,0,0,0,0,-1,594,792,-17.4505,-7.02948
-623,232,-16.9069,6.33887,0,0,0,0,0,0,0,-1,601,792,-16.9069,-6.33889
-616,232,-16.107,5.98376,0.0719851,-0.0536312,-0.0051584,0.0721966,-0.0538427,-0.0409728,0.0730255,0.0428077,608,792,-16.107,-5.98376
-609,232,-15.7467,5.32959,0,0,0,0,0,0,0,-1,615,792,-15.7467,-5.32957
-602,232,-14.6361,1.55646,0,0,0,0,0,0,0,-1,622,792,-14.6361,-1.55645
-595,232,-14.1857,1.89264,0.0291861,-0.020182,-0.000948493,0.0292043,-0.0202002,-0.0192032,0.0286812,0.036132,629,792,-14.1857,-1.89262
-588,232,-14.1916,1.44135,0.0199953,-0.0133039,-0.000390193,0.0199999,-0.0133084,-0.0117157,0.0193595,0.0127904,636,792,-14.1916,-1.44136
-581,232,-14.2073,1.0863,0.012936,-0.00828181,-4.56286e-05,0.0129361,-0.00828191,-0.00215047,0.0123481,0.00865923,643,792,-14.2073,-1.08632
-574,232,-14.2101,0.766479,0.00702011,-0.00418899,8.92841e-05,0.00702083,-0.0041897,0.00796465,0.00654084,0.00848724,650,792,-14.2101,-0.766508
-567,232,-14.2208,0.444702,0.00276406,-0.00209088,0.000814237,0.00289698,-0.0022238,0.161816,0.00296499,0.00972417,657,792,-14.2208,-0.444715
-560,232,-14.2363,0.125916,0.000573499,-0.00138088,0.00130904,0.00122986,-0.00203723,0.464771,0.00190536,0.012706,664,792,-14.2363,-0.125942
-553,232,-14.2828,-0.197266,-9.84208e-05,-0.00145771,0.00185819,0.00120052,-0.00275665,0.610077,0.00234282,0.0143282,671,792,-14.2828,0.197244
-546,232,-14.323,-0.519226,0.000355404,-0.00213997,0.00255057,0.00194711,-0.00373167,0.557922,0.00333217,0.0226745,678,792,-14.323,0.519238
-539,232,-14.2791,-0.859253,0.00127052,-0.00305721,0.00348717,0.00321064,-0.00499733,0.507712,0.00477615,0.0260187,685,792,-14.2791,0.859279
-532,232,-14.252,-1.18176,0.00196513,-0.0028553,0.00480599,0.00493141,-0.00582158,0.552974,0.00621533,0.0194475,692,792,-14.252,1.18177
-525,232,-14.3309,-1.43597,0.00281781,-0.00217706,0.00584801,0.00667933,-0.00603859,0.583592,0.0073458,0.0345434,699,792,-14.3309,1.43596
-518,232,-14.3739,-1.47754,0,0,0,0,0,0,0,-1,706,792,-14.3739,1.47756
-511,232,-14.5217,-1.60962,0,0,0,0,0,0,0,-1,713,792,-14.5217,1.60962
-504,232,-14.5508,-1.81775,0,0,0,0,0,0,0,-1,720,792,-14.5508,1.81772
-497,232,-21.956,0.664917,0.00225251,0.00641828,0.00786545,0.012472,-0.00380117,0.914835,0.00982981,0.0455536,727,792,-21.956,-0.664926
-490,232,-21.7333,0.957703,0.000862425,0.0105701,0.0079202,0.0150055,-0.00357295,1.0603,0.0113831,0.0452897,734,792,-21.7333,-0.957722
-483,232,-21.7444,1.09967,-0.00162016,0.0159104,0.00732605,0.0185688,-0.00427859,1.2227,0.0140247,0.0437337,741,792,-21.7444,-1.0997
-476,232,-21.6987,1.02728,-0.00548552,0.0221905,0.00567545,0.0233092,-0.00660415,1.37619,0.0181459,0.0374967,748,792,-21.6987,-1.02727
-469,232,-21.8496,0.899841,-0.0109715,0.0285465,0.00251494,0.0287059,-0.0111309,1.5075,0.0237342,0.0364568,755,792,-21.8496,-0.899816
-462,232,0,0,0,0,0,0,0,0,0,-1,762,792,0,0
-455,232,0,0,0,0,0,0,0,0,0,-1,769,792,0,0
-448,232,0,0,0,0,0,0,0,0,0,-1,776,792,0,0
-441,232,0,0,0,0,0,0,0,0,0,-1,783,792,0,0
-434,232,0,0,0,0,0,0,0,0,0,-1,790,792,0,0
-427,232,0,0,0,0,0,0,0,0,0,-1,797,792,0,0
-420,232,0,0,0,0,0,0,0,0,0,-1,804,792,0,0
-413,232,0,0,0,0,0,0,0,0,0,-1,811,792,0,0
-406,232,0,0,0,0,0,0,0,0,0,-1,818,792,0,0
-399,232,0,0,0,0,0,0,0,0,0,-1,825,792,0,0
-392,232,0,0,0,0,0,0,0,0,0,-1,832,792,0,0
-385,232,0,0,0,0,0,0,0,0,0,-1,839,792,0,0
-378,232,0,0,0,0,0,0,0,0,0,-1,846,792,0,0
-371,232,0,0,0,0,0,0,0,0,0,-1,853,792,0,0
-364,232,0,0,0,0,0,0,0,0,0,-1,860,792,0,0
-357,232,0,0,0,0,0,0,0,0,0,-1,867,792,0,0
-350,232,0,0,0,0,0,0,0,0,0,-1,874,792,0,0
-343,232,0,0,0,0,0,0,0,0,0,-1,881,792,0,0
-336,232,0,0,0,0,0,0,0,0,0,-1,888,792,0,0
-329,232,0,0,0,0,0,0,0,0,0,-1,895,792,0,0
-322,232,0,0,0,0,0,0,0,0,0,-1,902,792,0,0
-315,232,0,0,0,0,0,0,0,0,0,-1,909,792,0,0
-308,232,0,0,0,0,0,0,0,0,0,-1,916,792,0,0
-301,232,0,0,0,0,0,0,0,0,0,-1,923,792,0,0
-294,232,0,0,0,0,0,0,0,0,0,-1,930,792,0,0
-287,232,0,0,0,0,0,0,0,0,0,-1,937,792,0,0
-280,232,0,0,0,0,0,0,0,0,0,-1,944,792,0,0
-273,232,0,0,0,0,0,0,0,0,0,-1,951,792,0,0
-266,232,0,0,0,0,0,0,0,0,0,-1,958,792,0,0
-259,232,0,0,0,0,0,0,0,0,0,-1,965,792,0,0
-252,232,0,0,0,0,0,0,0,0,0,-1,972,792,0,0
-245,232,0,0,0,0,0,0,0,0,0,-1,979,792,0,0
-238,232,0,0,0,0,0,0,0,0,0,-1,986,792,0,0
-231,232,0,0,0,0,0,0,0,0,0,-1,993,792,0,0
-224,232,0,0,0,0,0,0,0,0,0,-1,1000,792,0,0
-217,232,0,0,0,0,0,0,0,0,0,-1,1007,792,0,0
-210,232,0,0,0,0,0,0,0,0,0,-1,1014,792,0,0
-203,232,0,0,0,0,0,0,0,0,0,-1,1021,792,0,0
-196,232,0,0,0,0,0,0,0,0,0,-1,1028,792,0,0
-189,232,0,0,0,0,0,0,0,0,0,-1,1035,792,0,0
-182,232,0,0,0,0,0,0,0,0,0,-1,1042,792,0,0
-175,232,0,0,0,0,0,0,0,0,0,-1,1049,792,0,0
-168,232,0,0,0,0,0,0,0,0,0,-1,1056,792,0,0
-161,232,0,0,0,0,0,0,0,0,0,-1,1063,792,0,0
-154,232,0,0,0,0,0,0,0,0,0,-1,1070,792,0,0
-147,232,0,0,0,0,0,0,0,0,0,-1,1077,792,0,0
-140,232,0,0,0,0,0,0,0,0,0,-1,1084,792,0,0
-133,232,0,0,0,0,0,0,0,0,0,-1,1091,792,0,0
-126,232,0,0,0,0,0,0,0,0,0,-1,1098,792,0,0
-119,232,0,0,0,0,0,0,0,0,0,-1,1105,792,0,0
-112,232,0,0,0,0,0,0,0,0,0,-1,1112,792,0,0
-105,232,0,0,0,0,0,0,0,0,0,-1,1119,792,0,0
-98,232,0,0,0,0,0,0,0,0,0,-1,1126,792,0,0
-91,232,0,0,0,0,0,0,0,0,0,-1,1133,792,0,0
-84,232,0,0,0,0,0,0,0,0,0,-1,1140,792,0,0
-77,232,0,0,0,0,0,0,0,0,0,-1,1147,792,0,0
-70,232,0,0,0,0,0,0,0,0,0,-1,1154,792,0,0
-63,232,0,0,0,0,0,0,0,0,0,-1,1161,792,0,0
-56,232,0,0,0,0,0,0,0,0,0,-1,1168,792,0,0
-49,232,0,0,0,0,0,0,0,0,0,-1,1175,792,0,0
-42,232,0,0,0,0,0,0,0,0,0,-1,1182,792,0,0
-35,232,0,0,0,0,0,0,0,0,0,-1,1189,792,0,0
-28,232,0,0,0,0,0,0,0,0,0,-1,1196,792,0,0
-21,232,0,0,0,0,0,0,0,0,0,-1,1203,792,0,0
-14,232,0,0,0,0,0,0,0,0,0,-1,1210,792,0,0
-7,232,0,0,0,0,0,0,0,0,0,-1,1217,792,0,0
0,232,0,0,0,0,0,0,0,0,0,-1,1224,792,0,0
7,232,0,0,0,0,0,0,0,0,0,-1,1231,792,0,0
14,232,0,0,0,0,0,0,0,0,0,-1,1238,792,0,0
21,232,0,0,0,0,0,0,0,0,0,-1,1245,792,0,0
28,232,0,0,0,0,0,0,0,0,0,-1,1252,792,0,0
35,232,0,0,0,0,0,0,0,0,0,-1,1259,792,0,0
42,232,0,0,0,0,0,0,0,0,0,-1,1266,792,0,0
49,232,0,0,0,0,0,0,0,0,0,-1,1273,792,0,0
56,232,0,0,0,0,0,0,0,0,0,-1,1280,792,0,0
63,232,0,0,0,0,0,0,0,0,0,-1,1287,792,0,0
70,232,0,0,0,0,0,0,0,0,0,-1,1294,792,0,0
77,232,0,0,0,0,0,0,0,0,0,-1,1301,792,0,0
84,232,0,0,0,0,0,0,0,0,0,-1,1308,792,0,0
91,232,0,0,0,0,0,0,0,0,0,-1,1315,792,0,0
98,232,0,0,0,0,0,0,0,0,0,-1,1322,792,0,0
105,232,0,0,0,0,0,0,0,0,0,-1,1329,792,0,0
112,232,0,0,0,0,0,0,0,0,0,-1,1336,792,0,0
119,232,0,0,0,0,0,0,0,0,0,-1,1343,792,0,0
126,232,0,0,0,0,0,0,0,0,0,-1,1350,792,0,0
133,232,0,0,0,0,0,0,0,0,0,-1,1357,792,0,0
140,232,0,0,0,0,0,0,0,0,0,-1,1364,792,0,0
147,232,0,0,0,0,0,0,0,0,0,-1,1371,792,0,0
154,232,0,0,0,0,0,0,0,0,0,-1,1378,792,0,0
161,232,0,0,0,0,0,0,0,0,0,-1,1385,792,0,0
168,232,0,0,0,0,0,0,0,0,0,-1,1392,792,0,0
175,232,0,0,0,0,0,0,0,0,0,-1,1399,792,0,0
182,232,0,0,0,0,0,0,0,0,0,-1,1406,792,0,0
189,232,0,0,0,0,0,0,0,0,0,-1,1413,792,0,0
196,232,0,0,0,0,0,0,0,0,0,-1,1420,792,0,0
203,232,0,0,0,0,0,0,0,0,0,-1,1427,792,0,0
210,232,0,0,0,0,0,0,0,0,0,-1,1434,792,0,0
217,232,0,0,0,0,0,0,0,0,0,-1,1441,792,0,0
224,232,0,0,0,0,0,0,0,0,0,-1,1448,792,0,0
231,232,0,0,0,0,0,0,0,0,0,-1,1455,792,0,0
238,232,0,0,0,0,0,0,0,0,0,-1,1462,792,0,0
245,232,0,0,0,0,0,0,0,0,0,-1,1469,792,0,0
252,232,0,0,0,0,0,0,0,0,0,-1,1476,792,0,0
259,232,0,0,0,0,0,0,0,0,0,-1,1483,792,0,0
266,232,0,0,0,0,0,0,0,0,0,-1,1490,792,0,0
273,232,0,0,0,0,0,0,0,0,0,-1,1497,792,0,0
280,232,0,0,0,0,0,0,0,0,0,-1,1504,792,0,0
287,232,0,0,0,0,0,0,0,0,0,-1,1511,792,0,0
294,232,0,0,0,0,0,0,0,0,0,-1,1518,792,0,0
301,232,0,0,0,0,0,0,0,0,0,-1,1525,792,0,0
308,232,0,0,0,0,0,0,0,0,0,-1,1532,792,0,0
315,232,0,0,0,0,0,0,0,0,0,-1,1539,792,0,0
322,232,0,0,0,0,0,0,0,0,0,-1,1546,792,0,0
329,232,0,0,0,0,0,0,0,0,0,-1,1553,792,0,0
336,232,0,0,0,0,0,0,0,0,0,-1,1560,792,0,0
343,232,0,0,0,0,0,0,0,0,0,-1,1567,792,0,0
350,232,0,0,0,0,0,0,0,0,0,-1,1574,792,0,0
357,232,0,0,0,0,0,0,0,0,0,-1,1581,792,0,0
364,232,0,0,0,0,0,0,0,0,0,-1,1588,792,0,0
371,232,0,0,0,0,0,0,0,0,0,-1,1595,792,0,0
378,232,0,0,0,0,0,0,0,0,0,-1,1602,792,0,0
385,232,0,0,0,0,0,0,0,0,0,-1,1609,792,0,0
392,232,0,0,0,0,0,0,0,0,0,-1,1616,792,0,0
399,232,0,0,0,0,0,0,0,0,0,-1,1623,792,0,0
406,232,0,0,0,0,0,0,0,0,0,-1,1630,792,0,0
413,232,0,0,0,0,0,0,0,0,0,-1,1637,792,0,0
420,232,0,0,0,0,0,0,0,0,0,-1,1644,792,0,0
427,232,0,0,0,0,0,0,0,0,0,-1,1651,792,0,0
434,232,0,0,0,0,0,0,0,0,0,-1,1658,792,0,0
441,232,0,0,0,0,0,0,0,0,0,-1,1665,792,0,0
448,232,0,0,0,0,0,0,0,0,0,-1,1672,792,0,0
455,232,0,0,0,0,0,0,0,0,0,-1,1679,792,0,0
462,232,0,0,0,0,0,0,0,0,0,-1,1686,792,0,0
469,232,0,0,0,0,0,0,0,0,0,-1,1693,792,0,0
476,232,0,0,0,0,0,0,0,0,0,-1,1700,792,0,0
483,232,0,0,0,0,0,0,0,0,0,-1,1707,792,0,0
490,232,0,0,0,0,0,0,0,0,0,-1,1714,792,0,0
497,232,0,0,0,0,0,0,0,0,0,-1,1721,792,0,0
504,232,0,0,0,0,0,0,0,0,0,-1,1728,792,0,0
511,232,0,0,0,0,0,0,0,0,0,-1,1735,792,0,0
518,232,0,0,0,0,0,0,0,0,0,-1,1742,792,0,0
525,232,0,0,0,0,0,0,0,0,0,-1,1749,792,0,0
532,232,0,0,0,0,0,0,0,0,0,-1,1756,792,0,0
539,232,0,0,0,0,0,0,0,0,0,-1,1763,792,0,0
546,232,0,0,0,0,0,0,0,0,0,-1,1770,792,0,0
553,232,0,0,0,0,0,0,0,0,0,-1,1777,792,0,0
560,232,0,0,0,0,0,0,0,0,0,-1,1784,792,0,0
567,232,0,0,0,0,0,0,0,0,0,-1,1791,792,0,0
574,232,0,0,0,0,0,0,0,0,0,-1,1798,792,0,0
581,232,0,0,0,0,0,0,0,0,0,-1,1805,792,0,0
588,232,30.4349,2.9516,-0.000678614,0.00177176,0.002643,0.00345974,-0.0023666,1.00243,0.00338351,0.0374181,1812,792,30.4349,-2.95161
595,232,30.4912,2.86786,0.000658951,0.00123621,0.0045837,0.00554036,-0.0036452,0.816841,0.00534078,0.0355586,1819,792,30.4913,-2.86784
602,232,30.5631,2.90424,0.00158929,0.00133959,0.00545095,0.00691682,-0.00398794,0.773948,0.00637112,0.0345522,1826,792,30.5631,-2.90421
609,232,30.7222,2.93896,0,0,0,0,0,0,0,-1,1833,792,30.7222,-2.93897
616,232,30.4211,3.17676,0.00177,0.00110746,0.00442872,0.00587982,-0.00300236,0.748067,0.00521706,0.0452393,1840,792,30.4212,-3.17673
623,232,30.2874,3.40399,0.00142299,0.000862403,0.00350247,0.00465637,-0.00237097,0.745469,0.00412813,0.0440028,1847,792,30.2874,-3.404
630,232,30.0763,3.56177,0,0,0,0,0,0,0,-1,1854,792,30.0763,-3.56178
637,232,29.6559,3.93292,0,0,0,0,0,0,0,-1,1861,792,29.6558,-3.93294
644,232,29.3163,4.33893,0,0,0,0,0,0,0,-1,1868,792,29.3163,-4.33891
651,232,22.3494,0.511169,0,0,0,0,0,0,0,-1,1875,792,22.3494,-0.511158
658,232,22.2865,0.818481,0.000123601,-0.000654058,-0.000359715,0.000264473,-0.000794929,-0.373261,0.000636691,0.030568,1882,792,22.2866,-0.818459
665,232,22.2222,1.16284,-0.000111097,-0.000868628,-0.0010375,0.000614612,-0.00159434,-0.610377,0.00131649,0.0130844,1889,792,22.2221,-1.16287
672,232,22.1539,1.53516,-0.000143496,-0.0014488,-0.00118787,0.000559211,-0.0021515,-0.534196,0.00165258,0.0180971,1896,792,22.1539,-1.53513
679,232,22.1727,1.8941,0.00054502,-0.00164726,-0.00112576,0.00102014,-0.00212238,-0.399363,0.00185116,0.0187001,1903,792,22.1728,-1.89409
686,232,22.2195,2.24792,0.00179195,-0.00155012,-0.00100825,0.00207256,-0.00183073,-0.271445,0.00225501,0.017903,1910,792,22.2194,-2.24794
693,232,22.2205,2.55511,0.00405932,-0.00180546,-0.00115331,0.00427797,-0.00202411,-0.187359,0.00371526,0.0106536,1917,792,22.2205,-2.55509
700,232,22.2114,2.88123,0.00748872,-0.00258256,-0.00149377,0.00770561,-0.00279945,-0.144185,0.00628171,0.012796,1924,792,22.2115,-2.8812
707,232,22.197,3.22321,0.0118667,-0.00373304,-0.00203825,0.0121286,-0.00399495,-0.127802,0.00969572,0.0130213,1931,792,22.197,-3.22319
714,232,22.1924,3.55127,0.0174733,-0.0056914,-0.00312956,0.0178886,-0.00610676,-0.13195,0.0143996,0.013625,1938,792,22.1924,-3.55125
721,232,22.1847,3.85004,0.0243106,-0.00881229,-0.00506471,0.0250677,-0.00956941,-0.148391,0.0206543,0.0202349,1945,792,22.1847,-3.85002
728,232,22.251,4.12347,0.0326571,-0.0132609,-0.00801937,0.0340174,-0.0146212,-0.168021,0.0288162,0.036017,1952,792,22.251,-4.12349
735,232,22.5081,4.49915,0,0,0,0,0,0,0,-1,1959,792,22.5081,-4.49914
742,232,24.5074,5.96606,0,0,0,0,0,0,0,-1,1966,792,24.5075,-5.96605
749,232,25.3063,5.63422,0,0,0,0,0,0,0,-1,1973,792,25.3062,-5.63421
756,232,25.9614,5.53223,0,0,0,0,0,0,0,-1,1980,792,25.9614,-5.53225
763,232,22.3608,4.4809,0,0,0,0,0,0,0,-1,1987,792,22.3608,-4.48088
770,232,0,0,0,0,0,0,0,0,0,-1,1994,792,0,0
777,232,0,0,0,0,0,0,0,0,0,-1,2001,792,0,0
784,232,0,0,0,0,0,0,0,0,0,-1,2008,792,0,0
791,232,0,0,0,0,0,0,0,0,0,-1,2015,792,0,0
798,232,0,0,0,0,0,0,0,0,0,-1,2022,792,0,0
805,232,0,0,0,0,0,0,0,0,0,-1,2029,792,0,0
812,232,0,0,0,0,0,0,0,0,0,-1,2036,792,0,0
-700,225,0,0,0,0,0,0,0,0,0,-1,524,799,0,0
-693,225,0,0,0,0,0,0,0,0,0,-1,531,799,0,0
-686,225,0,0,0,0,0,0,0,0,0,-1,538,799,0,0
-679,225,0,0,0,0,0,0,0,0,0,-1,545,799,0,0
-672,225,0,0,0,0,0,0,0,0,0,-1,552,799,0,0
-665,225,0,0,0,0,0,0,0,0,0,-1,559,799,0,0
-658,225,0,0,0,0,0,0,0,0,0,-1,566,799,0,0
-651,225,0,0,0,0,0,0,0,0,0,-1,573,799,0,0
-644,225,-19.4615,-2.42773,0,0,0,0,0,0,0,-1,580,799,-19.4615,2.42771
-637,225,-18.5285,-2.05341,0,0,0,0,0,0,0,-1,587,799,-18.5285,2.05338
-630,225,-17.3168,-1.50812,0,0,0,0,0,0,0,-1,594,799,-17.3168,1.50815
-623,225,-16.9177,-1.06622,0,0,0,0,0,0,0,-1,601,799,-16.9176,1.06624
-616,225,-16.4175,6.60626,0,0,0,0,0,0,0,-1,608,799,-16.4175,-6.60627
-609,225,-15.095,1.94897,0,0,0,0,0,0,0,-1,615,799,-15.095,-1.94897
-602,225,-14.8808,1.72461,0.0301775,-0.0215352,-0.00250147,0.0302983,-0.0216559,-0.0482223,0.0301338,0.0493578,622,799,-14.8808,-1.7246
-595,225,-14.5898,1.73175,0.0215566,-0.0147915,-0.00149017,0.0216175,-0.0148525,-0.0409058,0.0211764,0.0303564,629,799,-14.5898,-1.73174
-588,225,-14.5446,1.39612,0.014855,-0.00971281,-0.000750113,0.0148779,-0.00973569,-0.0304944,0.0143137,0.0128027,636,799,-14.5446,-1.39612
-581,225,-14.5338,1.08636,0.00957073,-0.00596653,-0.000213635,0.00957367,-0.00596947,-0.0137464,0.0090539,0.0106134,643,799,-14.5338,-1.08635
-574,225,-14.5339,0.772705,0.00509178,-0.00298526,5.54626e-05,0.00509216,-0.00298564,0.00686627,0.00471629,0.00842131,650,799,-14.5339,-0.772732
-567,225,-14.5506,0.449524,0.00177539,-0.0015449,0.000767863,0.00194437,-0.00171388,0.216612,0.00211349,0.0107132,657,799,-14.5506,-0.449545
-560,225,-14.5724,0.132813,-4.05819e-05,-0.00109495,0.00133073,0.000863585,-0.00199912,0.596802,0.00169557,0.0116258,664,799,-14.5725,-0.132797
-553,225,-14.6042,-0.195496,-0.000427197,-0.00122436,0.00200063,0.00121417,-0.00286573,0.687072,0.00241901,0.011963,671,799,-14.6043,0.195477
-546,225,-14.6017,-0.507385,0.000121221,-0.00179384,0.00271963,0.00204696,-0.00371958,0.616134,0.00337567,0.020907,678,799,-14.6017,0.507392
-539,225,-14.5405,-0.848389,0.00107421,-0.00254396,0.00357054,0.00326782,-0.00473757,0.550914,0.00464781,0.0284704,685,799,-14.5405,0.848389
-532,225,-14.6003,-1.13763,0.00184981,-0.00235512,0.00472354,0.00491766,-0.00542298,0.576011,0.00597254,0.0252402,692,799,-14.6003,1.13763
-525,225,-14.7501,-1.35431,0,0,0,0,0,0,0,-1,699,799,-14.7501,1.35431
-518,225,-14.3308,-0.966858,0,0,0,0,0,0,0,-1,706,799,-14.3308,0.966833
-511,225,-14.9486,-1.44885,0,0,0,0,0,0,0,-1,713,799,-14.9486,1.44882
-504,225,-22.3187,0.445435,0.00370859,0.00234472,0.00719967,0.0102585,-0.00420524,0.73818,0.00859099,0.0429429,720,799,-22.3187,-0.445428
-497,225,-21.9038,0.807983,0.00360899,0.00481891,0.00749558,0.0117339,-0.00330601,0.825665,0.00912643,0.0432677,727,799,-21.9038,-0.807962
-490,225,-21.6855,0.989014,0.00275438,0.00822066,0.0073363,0.0133164,-0.00234136,0.963709,0.0097522,0.0404082,734,799,-21.6855,-0.988985
-483,225,-21.6556,1.04089,0.000840513,0.0126609,0.00634607,0.0154226,-0.00192127,1.16032,0.0109784,0.0344902,741,799,-21.6556,-1.0409
-476,225,-21.5977,1.08423,-0.00253528,0.0177524,0.00404236,0.0185281,-0.00331106,1.38119,0.0135909,0.0332605,748,799,-21.5977,-1.08423
-469,225,-21.5934,1.15997,-0.00770159,0.0225281,-6.00805e-05,0.0225282,-0.00770171,-1.56881,0.0181395,0.0371811,755,799,-21.5934,-1.15996
-462,225,0,0,0,0,0,0,0,0,0,-1,762,799,0,0
-455,225,0,0,0,0,0,0,0,0,0,-1,769,799,0,0
-448,225,0,0,0,0,0,0,0,0,0,-1,776,799,0,0
-441,225,0,0,0,0,0,0,0,0,0,-1,783,799,0,0
-434,225,0,0,0,0,0,0,0,0,0,-1,790,799,0,0
-427,225,0,0,0,0,0,0,0,0,0,-1,797,799,0,0
-420,225,0,0,0,0,0,0,0,0,0,-1,804,799,0,0
-413,225,0,0,0,0,0,0,0,0,0,-1,811,799,0,0
-406,225,0,0,0,0,0,0,0,0,0,-1,818,799,0,0
-399,225,0,0,0,0,0,0,0,0,0,-1,825,799,0,0
-392,225,0,0,0,0,0,0,0,0,0,-1,832,799,0,0
-385,225,0,0,0,0,0,0,0,0,0,-1,839,799,0,0
-378,225,0,0,0,0,0,0,0,0,0,-1,846,799,0,0
-371,225,0,0,0,0,0,0,0,0,0,-1,853,799,0,0
-364,225,0,0,0,0,0,0,0,0,0,-1,860,799,0,0
-357,225,0,0,0,0,0,0,0,0,0,-1,867,799,0,0
-350,225,0,0,0,0,0,0,0,0,0,-1,874,799,0,0
-343,225,0,0,0,0,0,0,0,0,0,-1,881,799,0,0
-336,225,0,0,0,0,0,0,0,0,0,-1,888,799,0,0
-329,225,0,0,0,0,0,0,0,0,0,-1,895,799,0,0
-322,225,0,0,0,0,0,0,0,0,0,-1,902,799,0,0
-315,225,0,0,0,0,0,0,0,0,0,-1,909,799,0,0
-308,225,0,0,0,0,0,0,0,0,0,-1,916,799,0,0
-301,225,0,0,0,0,0,0,0,0,0,-1,923,799,0,0
-294,225,0,0,0,0,0,0,0,0,0,-1,930,799,0,0
-287,225,0,0,0,0,0,0,0,0,0,-1,937,799,0,0
-280,225,0,0,0,0,0,0,0,0,0,-1,944,799,0,0
-273,225,0,0,0,0,0,0,0,0,0,-1,951,799,0,0
-266,225,0,0,0,0,0,0,0,0,0,-1,958,799,0,0
-259,225,0,0,0,0,0,0,0,0,0,-1,965,799,0,0
-252,225,0,0,0,0,0,0,0,0,0,-1,972,799,0,0
-245,225,0,0,0,0,0,0,0,0,0,-1,979,799,0,0
-238,225,0,0,0,0,0,0,0,0,0,-1,986,799,0,0
-231,225,0,0,0,0,0,0,0,0,0,-1,993,799,0,0
-224,225,0,0,0,0,0,0,0,0,0,-1,1000,799,0,0
-217,225,0,0,0,0,0,0,0,0,0,-1,1007,799,0,0
-210,225,0,0,0,0,0,0,0,0,0,-1,1014,799,0,0
-203,225,0,0,0,0,0,0,0,0,0,-1,1021,799,0,0
-196,225,0,0,0,0,0,0,0,0,0,-1,1028,799,0,0
-189,225,0,0,0,0,0,0,0,0,0,-1,1035,799,0,0
-182,225,0,0,0,0,0,0,0,0,0,-1,1042,799,0,0
-175,225,0,0,0,0,0,0,0,0,0,-1,1049,799,0,0
-168,225,0,0,0,0,0,0,0,0,0,-1,1056,799,0,0
-161,225,0,0,0,0,0,0,0,0,0,-1,1063,799,0,0
-154,225,0,0,0,0,0,0,0,0,0,-1,1070,799,0,0
-147,225,0,0,0,0,0,0,0,0,0,-1,1077,799,0,0
-140,225,0,0,0,0,0,0,0,0,0,-1,1084,799,0,0
-133,225,0,0,0,0,0,0,0,0,0,-1,1091,799,0,0
-126,225,0,0,0,0,0,0,0,0,0,-1,1098,799,0,0
-119,225,0,0,0,0,0,0,0,0,0,-1,1105,799,0,0
-112,225,0,0,0,0,0,0,0,0,0,-1,1112,799,0,0
-105,225,0,0,0,0,0,0,0,0,0,-1,1119,799,0,0
-98,225,0,0,0,0,0,0,0,0,0,-1,1126,799,0,0
-91,225,0,0,0,0,0,0,0,0,0,-1,1133,799,0,0
-84,225,0,0,0,0,0,0,0,0,0,-1,1140,799,0,0
-77,225,0,0,0,0,0,0,0,0,0,-1,1147,799,0,0
-70,225,0,0,0,0,0,0,0,0,0,-1,1154,799,0,0
-63,225,0,0,0,0,0,0,0,0,0,-1,1161,799,0,0
-56,225,0,0,0,0,0,0,0,0,0,-1,1168,799,0,0
-49,225,0,0,0,0,0,0,0,0,0,-1,1175,799,0,0
-42,225,0,0,0,0,0,0,0,0,0,-1,1182,799,0,0
-35,225,0,0,0,0,0,0,0,0,0,-1,1189,799,0,0
-28,225,0,0,0,0,0,0,0,0,0,-1,1196,799,0,0
-21,225,0,0,0,0,0,0,0,0,0,-1,1203,799,0,0
-14,225,0,0,0,0,0,0,0,0,0,-1,1210,799,0,0
-7,225,0,0,0,0,0,0,0,0,0,-1,1217,799,0,0
0,225,0,0,0,0,0,0,0,0,0,-1,1224,799,0,0
7,225,0,0,0,0,0,0,0,0,0,-1,1231,799,0,0
14,225,0,0,0,0,0,0,0,0,0,-1,1238,799,0,0
21,225,0,0,0,0,0,0,0,0,0,-1,1245,799,0,0
28,225,0,0,0,0,0,0,0,0,0,-1,1252,799,0,0
35,225,0,0,0,0,0,0,0,0,0,-1,1259,799,0,0
42,225,0,0,0,0,0,0,0,0,0,-1,1266,799,0,0
49,225,0,0,0,0,0,0,0,0,0,-1,1273,799,0,0
56,225,0,0,0,0,0,0,0,0,0,-1,1280,799,0,0
63,225,0,0,0,0,0,0,0,0,0,-1,1287,799,0,0
70,225,0,0,0,0,0,0,0,0,0,-1,1294,799,0,0
77,225,0,0,0,0,0,0,0,0,0,-1,1301,799,0,0
84,225,0,0,0,0,0,0,0,0,0,-1,1308,799,0,0
91,225,0,0,0,0,0,0,0,0,0,-1,1315,799,0,0
98,225,0,0,0,0,0,0,0,0,0,-1,1322,799,0,0
105,225,0,0,0,0,0,0,0,0,0,-1,1329,799,0,0
112,225,0,0,0,0,0,0,0,0,0,-1,1336,799,0,0
119,225,0,0,0,0,0,0,0,0,0,-1,1343,799,0,0
126,225,0,0,0,0,0,0,0,0,0,-1,1350,799,0,0
133,225,0,0,0,0,0,0,0,0,0,-1,1357,799,0,0
140,225,0,0,0,0,0,0,0,0,0,-1,1364,799,0,0
147,225,0,0,0,0,0,0,0,0,0,-1,1371,799,0,0
154,225,0,0,0,0,0,0,0,0,0,-1,1378,799,0,0
161,225,0,0,0,0,0,0,0,0,0,-1,1385,799,0,0
168,225,0,0,0,0,0,0,0,0,0,-1,1392,799,0,0
175,225,0,0,0,0,0,0,0,0,0,-1,1399,799,0,0
182,225,0,0,0,0,0,0,0,0,0,-1,1406,799,0,0
189,225,0,0,0,0,0,0,0,0,0,-1,1413,799,0,0
196,225,0,0,0,0,0,0,0,0,0,-1,1420,799,0,0
203,225,0,0,0,0,0,0,0,0,0,-1,1427,799,0,0
210,225,0,0,0,0,0,0,0,0,0,-1,1434,799,0,0
217,225,0,0,0,0,0,0,0,0,0,-1,1441,799,0,0
224,225,0,0,0,0,0,0,0,0,0,-1,1448,799,0,0
231,225,0,0,0,0,0,0,0,0,0,-1,1455,799,0,0
238,225,0,0,0,0,0,0,0,0,0,-1,1462,799,0,0
245,225,0,0,0,0,0,0,0,0,0,-1,1469,799,0,0
252,225,0,0,0,0,0,0,0,0,0,-1,1476,799,0,0
259,225,0,0,0,0,0,0,0,0,0,-1,1483,799,0,0
266,225,0,0,0,0,0,0,0,0,0,-1,1490,799,0,0
273,225,0,0,0,0,0,0,0,0,0,-1,1497,799,0,0
280,225,0,0,0,0,0,0,0,0,0,-1,1504,799,0,0
287,225,0,0,0,0,0,0,0,0,0,-1,1511,799,0,0
294,225,0,0,0,0,0,0,0,0,0,-1,1518,799,0,0
301,225,0,0,0,0,0,0,0,0,0,-1,1525,799,0,0
308,225,0,0,0,0,0,0,0,0,0,-1,1532,799,0,0
315,225,0,0,0,0,0,0,0,0,0,-1,1539,799,0,0
322,225,0,0,0,0,0,0,0,0,0,-1,1546,799,0,0
329,225,0,0,0,0,0,0,0,0,0,-1,1553,799,0,0
336,225,0,0,0,0,0,0,0,0,0,-1,1560,799,0,0
343,225,0,0,0,0,0,0,0,0,0,-1,1567,799,0,0
350,225,0,0,0,0,0,0,0,0,0,-1,1574,799,0,0
357,225,0,0,0,0,0,0,0,0,0,-1,1581,799,0,0
364,225,0,0,0,0,0,0,0,0,0,-1,1588,799,0,0
371,225,0,0,0,0,0,0,0,0,0,-1,1595,799,0,0
378,225,0,0,0,0,0,0,0,0,0,-1,1602,799,0,0
385,225,0,0,0,0,0,0,0,0,0,-1,1609,799,0,0
392,225,0,0,0,0,0,0,0,0,0,-1,1616,799,0,0
399,225,0,0,0,0,0,0,0,0,0,-1,1623,799,0,0
406,225,0,0,0,0,0,0,0,0,0,-1,1630,799,0,0
413,225,0,0,0,0,0,0,0,0,0,-1,1637,799,0,0
420,225,0,0,0,0,0,0,0,0,0,-1,1644,799,0,0
427,225,0,0,0,0,0,0,0,0,0,-1,1651,799,0,0
434,225,0,0,0,0,0,0,0,0,0,-1,1658,799,0,0
441,225,0,0,0,0,0,0,0,0,0,-1,1665,799,0,0
448,225,0,0,0,0,0,0,0,0,0,-1,1672,799,0,0
455,225,0,0,0,0,0,0,0,0,0,-1,1679,799,0,0
462,225,0,0,0,0,0,0,0,0,0,-1,1686,799,0,0
469,225,0,0,0,0,0,0,0,0,0,-1,1693,799,0,0
476,225,0,0,0,0,0,0,0,0,0,-1,1700,799,0,0
483,225,0,0,0,0,0,0,0,0,0,-1,1707,799,0,0
490,225,0,0,0,0,0,0,0,0,0,-1,1714,799,0,0
497,225,0,0,0,0,0,0,0,0,0,-1,1721,799,0,0
504,225,0,0,0,0,0,0,0,0,0,-1,1728,799,0,0
511,225,0,0,0,0,0,0,0,0,0,-1,1735,799,0,0
518,225,0,0,0,0,0,0,0,0,0,-1,1742,799,0,0
525,225,0,0,0,0,0,0,0,0,0,-1,1749,799,0,0
532,225,0,0,0,0,0,0,0,0,0,-1,1756,799,0,0
539,225,0,0,0,0,0,0,0,0,0,-1,1763,799,0,0
546,225,0,0,0,0,0,0,0,0,0,-1,1770,799,0,0
553,225,0,0,0,0,0,0,0,0,0,-1,1777,799,0,0
560,225,0,0,0,0,0,0,0,0,0,-1,1784,799,0,0
567,225,0,0,0,0,0,0,0,0,0,-1,1791,799,0,0
574,225,0,0,0,0,0,0,0,0,0,-1,1798,799,0,0
581,225,0,0,0,0,0,0,0,0,0,-1,1805,799,0,0
588,225,30.5852,2.8197,-0.00236896,0.00332302,0.000825226,0.00344025,-0.00248619,1.42969,0.00343638,0.0342338,1812,799,30.5853,-2.81971
595,225,30.5583,2.80365,-0.00056347,0.0024522,0.00289959,0.00421258,-0.00232385,1.02516,0.00382596,0.0325795,1819,799,30.5584,-2.80368
602,225,30.5537,2.85364,0.000742743,0.00234931,0.0041245,0.00574803,-0.00265597,0.881574,0.00496031,0.0332277,1826,799,30.5537,-2.85364
609,225,30.6321,2.909,0.00151894,0.00221261,0.00429466,0.00617441,-0.00244286,0.825691,0.00512832,0.0336454,1833,799,30.6321,-2.909
616,225,30.5986,2.95148,0.0015304,0.00183547,0.00369736,0.00538344,-0.00201757,0.806014,0.00441782,0.0387744,1840,799,30.5986,-2.95146
623,225,30.4906,3.15082,0.0012899,0.00136633,0.00288057,0.00420894,-0.00155271,0.792032,0.00344231,0.0391443,1847,799,30.4906,-3.15081
630,225,30.6714,2.93073,0,0,0,0,0,0,0,-1,1854,799,30.6714,-2.93075
637,225,30.1909,3.97931,0,0,0,0,0,0,0,-1,1861,799,30.1909,-3.97929
644,225,23.5511,0.759399,0,0,0,0,0,0,0,-1,1868,799,23.5511,-0.75941
651,225,23.2217,0.948425,0,0,0,0,0,0,0,-1,1875,799,23.2217,-0.948398
658,225,22.8762,1.19031,8.94694e-05,-0.000664196,-0.000588923,0.000411803,-0.00098653,-0.500789,0.000829747,0.0414493,1882,799,22.8762,-1.1903
665,225,22.6052,1.19318,-9.72196e-06,-0.000962663,-0.00117491,0.000781654,-0.00175404,-0.592762,0.00149943,0.0164403,1889,799,22.6052,-1.19316
672,225,22.5403,1.55957,-5.0256e-05,-0.0015473,-0.00137087,0.000763129,-0.00236069,-0.535506,0.00188051,0.0174391,1896,799,22.5403,-1.55959
679,225,22.5458,1.93439,0.000358905,-0.00180803,-0.00135674,0.00101171,-0.00246084,-0.44846,0.00206225,0.0179007,1903,799,22.5458,-1.93438
686,225,22.573,2.24323,0.00109904,-0.00169792,-0.00124749,0.00157459,-0.00217347,-0.364198,0.00217313,0.0104766,1910,799,22.5729,-2.2432
693,225,22.5592,2.55341,0.00276566,-0.00182446,-0.00133246,0.00312441,-0.00218322,-0.263008,0.00308038,0.00992908,1917,799,22.5592,-2.55338
700,225,22.5576,2.88477,0.00554574,-0.00239213,-0.00157716,0.00584762,-0.00269401,-0.189121,0.0050423,0.0118261,1924,799,22.5576,-2.88479
707,225,22.5383,3.23883,0.00922333,-0.00315741,-0.00193585,0.00951896,-0.00345304,-0.151542,0.00775753,0.012513,1931,799,22.5383,-3.23881
714,225,22.5305,3.5733,0.0140047,-0.00459387,-0.00275832,0.0144052,-0.00499433,-0.144175,0.0116313,0.0135711,1938,799,22.5306,-3.57328
721,225,22.5624,3.88641,0.0197881,-0.00698388,-0.00426163,0.0204501,-0.00764589,-0.154109,0.0167733,0.0151585,1945,799,22.5623,-3.88642
728,225,22.5453,4.14966,0.0267309,-0.0103474,-0.00651924,0.0278437,-0.0114602,-0.169071,0.0233401,0.0269128,1952,799,22.5453,-4.14966
735,225,22.6736,4.51611,0,0,0,0,0,0,0,-1,1959,799,22.6736,-4.51612
742,225,21.4457,4.89777,0,0,0,0,0,0,0,-1,1966,799,21.4457,-4.89777
749,225,26.1858,6.125,0,0,0,0,0,0,0,-1,1973,799,26.1858,-6.12503
756,225,21.9564,4.57703,0,0,0,0,0,0,0,-1,1980,799,21.9564,-4.57704
763,225,23.3566,4.89728,0,0,0,0,0,0,0,-1,1987,799,23.3566,-4.89728
770,225,0,0,0,0,0,0,0,0,0,-1,1994,799,0,0
777,225,0,0,0,0,0,0,0,0,0,-1,2001,799,0,0
784,225,0,0,0,0,0,0,0,0,0,-1,2008,799,0,0
791,225,0,0,0,0,0,0,0,0,0,-1,2015,799,0,0
798,225,0,0,0,0,0,0,0,0,0,-1,2022,799,0,0
805,225,0,0,0,0,0,0,0,0,0,-1,2029,799,0,0
812,225,0,0,0,0,0,0,0,0,0,-1,2036,799,0,0
-700,218,0,0,0,0,0,0,0,0,0,-1,524,806,0,0
-693,218,0,0,0,0,0,0,0,0,0,-1,531,806,0,0
-686,218,0,0,0,0,0,0,0,0,0,-1,538,806,0,0
-679,218,0,0,0,0,0,0,0,0,0,-1,545,806,0,0
-672,218,0,0,0,0,0,0,0,0,0,-1,552,806,0,0
-665,218,0,0,0,0,0,0,0,0,0,-1,559,806,0,0
-658,218,0,0,0,0,0,0,0,0,0,-1,566,806,0,0
-651,218,-15.5488,8.12677,0,0,0,0,0,0,0,-1,573,806,-15.5488,-8.12677
-644,218,-16.1719,6.97638,0,0,0,0,0,0,0,-1,580,806,-16.1719,-6.97635
-637,218,-19.693,-2.09882,0,0,0,0,0,0,0,-1,587,806,-19.693,2.09881
-630,218,-18.9628,-1.20441,0,0,0,0,0,0,0,-1,594,806,-18.9629,1.20438
-623,218,-18.2076,-0.374268,0,0,0,0,0,0,0,-1,601,806,-18.2076,0.374279
-616,218,-18.1784,-0.0706177,0,0,0,0,0,0,0,-1,608,806,-18.1784,0.0706215
-609,218,-14.9085,2.21899,0,0,0,0,0,0,0,-1,615,806,-14.9085,-2.21902
-602,218,-14.909,1.93707,0.0198947,-0.0137252,-0.00347702,0.0202506,-0.0140811,-0.101983,0.0199278,0.0398932,622,806,-14.909,-1.93708
-595,218,-14.9025,1.68799,0.0140025,-0.00909335,-0.00227425,0.0142244,-0.00931517,-0.0972258,0.0136887,0.0173113,629,806,-14.9025,-1.688
-588,218,-14.8774,1.39459,0.00953294,-0.00573577,-0.00128632,0.00964055,-0.00584338,-0.0834617,0.00902881,0.0112717,636,806,-14.8774,-1.39459
-581,218,-14.873,1.10004,0.00600649,-0.00331255,-0.000501546,0.0060334,-0.00333946,-0.0536131,0.00548543,0.0107442,643,806,-14.873,-1.10006
-574,218,-14.8815,0.7901,0.00300847,-0.00148644,-5.12358e-05,0.00300906,-0.00148703,-0.0113966,0.00264493,0.0100907,650,806,-14.8815,-0.790104
-567,218,-14.8813,0.458679,0.000733837,-0.000688455,0.000744055,0.00105194,-0.00100655,0.404005,0.00118857,0.0165378,657,806,-14.8813,-0.458675
-560,218,-14.8984,0.143677,-0.000546255,-0.000482127,0.0014065,0.000892672,-0.00192105,0.796795,0.00166028,0.0173114,664,806,-14.8984,-0.143667
-553,218,-14.8904,-0.211914,-0.000585201,-0.000609058,0.00217015,0.00157306,-0.00276731,0.78265,0.00253734,0.0180154,671,806,-14.8904,0.211897
-546,218,-14.8942,-0.559387,8.34423e-05,-0.00102572,0.00286665,0.00244867,-0.00339094,0.689849,0.0033861,0.0161157,678,806,-14.8942,0.559358
-539,218,-14.9019,-0.905457,0.00106109,-0.00164532,0.00361479,0.00356767,-0.00415189,0.606297,0.00446114,0.0252515,685,806,-14.9019,0.905444
-532,218,-14.98,-1.05261,0.00188938,-0.00147714,0.00458372,0.00508914,-0.0046769,0.609429,0.0056401,0.0304902,692,806,-14.98,1.0526
-525,218,-15.1514,-1.12585,0,0,0,0,0,0,0,-1,699,806,-15.1514,1.12588
-518,218,-19.8492,1.62396,0,0,0,0,0,0,0,-1,706,806,-19.8493,-1.62399
-511,218,-21.1584,1.37592,0,0,0,0,0,0,0,-1,713,806,-21.1584,-1.37589
-504,218,-22.2957,0.424133,0.00464245,0.00202068,0.00671699,0.0101753,-0.00351214,0.68903,0.00820862,0.0433279,720,806,-22.2957,-0.42414
-497,218,-21.7074,0.962952,0.00495915,0.00394685,0.00684573,0.0113174,-0.00241141,0.748497,0.00846403,0.0468057,727,806,-21.7074,-0.962961
-490,218,-21.6539,1.021,0.00462028,0.0067081,0.00637999,0.012129,-0.000800632,0.866491,0.00836567,0.0383658,734,806,-21.6539,-1.02101
-483,218,-21.6193,1.05719,0.00326309,0.0103154,0.0048685,0.0128006,0.00077792,1.09882,0.0082866,0.0350585,741,806,-21.6193,-1.05717
-476,218,-21.553,1.25293,0.000292644,0.0142768,0.00182421,0.0145108,5.8597e-05,1.44319,0.00965442,0.0357527,748,806,-21.553,-1.25291
-469,218,0,0,0,0,0,0,0,0,0,-1,755,806,0,0
-462,218,0,0,0,0,0,0,0,0,0,-1,762,806,0,0
-455,218,0,0,0,0,0,0,0,0,0,-1,769,806,0,0
-448,218,0,0,0,0,0,0,0,0,0,-1,776,806,0,0
-441,218,0,0,0,0,0,0,0,0,0,-1,783,806,0,0
-434,218,0,0,0,0,0,0,0,0,0,-1,790,806,0,0
-427,218,0,0,0,0,0,0,0,0,0,-1,797,806,0,0
-420,218,0,0,0,0,0,0,0,0,0,-1,804,806,0,0
-413,218,0,0,0,0,0,0,0,0,0,-1,811,806,0,0
-406,218,0,0,0,0,0,0,0,0,0,-1,818,806,0,0
-399,218,0,0,0,0,0,0,0,0,0,-1,825,806,0,0
-392,218,0,0,0,0,0,0,0,0,0,-1,832,806,0,0
-385,218,0,0,0,0,0,0,0,0,0,-1,839,806,0,0
-378,218,0,0,0,0,0,0,0,0,0,-1,846,806,0,0
-371,218,0,0,0,0,0,0,0,0,0,-1,853,806,0,0
-364,218,0,0,0,0,0,0,0,0,0,-1,860,806,0,0
-357,218,0,0,0,0,0,0,0,0,0,-1,867,806,0,0
-350,218,0,0,0,0,0,0,0,0,0,-1,874,806,0,0
-343,218,0,0,0,0,0,0,0,0,0,-1,881,806,0,0
-336,218,0,0,0,0,0,0,0,0,0,-1,888,806,0,0
-329,218,0,0,0,0,0,0,0,0,0,-1,895,806,0,0
-322,218,0,0,0,0,0,0,0,0,0,-1,902,806,0,0
-315,218,0,0,0,0,0,0,0,0,0,-1,909,806,0,0
-308,218,0,0,0,0,0,0,0,0,0,-1,916,806,0,0
-301,218,0,0,0,0,0,0,0,0,0,-1,923,806,0,0
-294,218,0,0,0,0,0,0,0,0,0,-1,930,806,0,0
-287,218,0,0,0,0,0,0,0,0,0,-1,937,806,0,0
-280,218,0,0,0,0,0,0,0,0,0,-1,944,806,0,0
-273,218,0,0,0,0,0,0,0,0,0,-1,951,806,0,0
-266,218,0,0,0,0,0,0,0,0,0,-1,958,806,0,0
-259,218,0,0,0,0,0,0,0,0,0,-1,965,806,0,0
-252,218,0,0,0,0,0,0,0,0,0,-1,972,806,0,0
-245,218,0,0,0,0,0,0,0,0,0,-1,979,806,0,0
-238,218,0,0,0,0,0,0,0,0,0,-1,986,806,0,0
-231,218,0,0,0,0,0,0,0,0,0,-1,993,806,0,0
-224,218,0,0,0,0,0,0,0,0,0,-1,1000,806,0,0
-217,218,0,0,0,0,0,0,0,0,0,-1,1007,806,0,0
-210,218,0,0,0,0,0,0,0,0,0,-1,1014,806,0,0
-203,218,0,0,0,0,0,0,0,0,0,-1,1021,806,0,0
-196,218,0,0,0,0,0,0,0,0,0,-1,1028,806,0,0
-189,218,0,0,0,0,0,0,0,0,0,-1,1035,806,0,0
-182,218,0,0,0,0,0,0,0,0,0,-1,1042,806,0,0
-175,218,0,0,0,0,0,0,0,0,0,-1,1049,806,0,0
-168,218,0,0,0,0,0,0,0,0,0,-1,1056,806,0,0
-161,218,0,0,0,0,0,0,0,0,0,-1,1063,806,0,0
-154,218,0,0,0,0,0,0,0,0,0,-1,1070,806,0,0
-147,218,0,0,0,0,0,0,0,0,0,-1,1077,806,0,0
-140,218,0,0,0,0,0,0,0,0,0,-1,1084,806,0,0
-133,218,0,0,0,0,0,0,0,0,0,-1,1091,806,0,0
-126,218,0,0,0,0,0,0,0,0,0,-1,1098,806,0,0
-119,218,0,0,0,0,0,0,0,0,0,-1,1105,806,0,0
-112,218,0,0,0,0,0,0,0,0,0,-1,1112,806,0,0
-105,218,0,0,0,0,0,0,0,0,0,-1,1119,806,0,0
-98,218,0,0,0,0,0,0,0,0,0,-1,1126,806,0,0
-91,218,0,0,0,0,0,0,0,0,0,-1,1133,806,0,0
-84,218,0,0,0,0,0,0,0,0,0,-1,1140,806,0,0
-77,218,0,0,0,0,0,0,0,0,0,-1,1147,806,0,0
-70,218,0,0,0,0,0,0,0,0,0,-1,1154,806,0,0
-63,218,0,0,0,0,0,0,0,0,0,-1,1161,806,0,0
-56,218,0,0,0,0,0,0,0,0,0,-1,1168,806,0,0
-49,218,0,0,0,0,0,0,0,0,0,-1,1175,806,0,0
-42,218,0,0,0,0,0,0,0,0,0,-1,1182,806,0,0
-35,218,0,0,0,0,0,0,0,0,0,-1,1189,806,0,0
-28,218,0,0,0,0,0,0,0,0,0,-1,1196,806,0,0
-21,218,0,0,0,0,0,0,0,0,0,-1,1203,806,0,0
-14,218,0,0,0,0,0,0,0,0,0,-1,1210,806,0,0
-7,218,0,0,0,0,0,0,0,0,0,-1,1217,806,0,0
0,218,0,0,0,0,0,0,0,0,0,-1,1224,806,0,0
7,218,0,0,0,0,0,0,0,0,0,-1,1231,806,0,0
14,218,0,0,0,0,0,0,0,0,0,-1,1238,806,0,0
21,218,0,0,0,0,0,0,0,0,0,-1,1245,806,0,0
28,218,0,0,0,0,0,0,0,0,0,-1,1252,806,0,0
35,218,0,0,0,0,0,0,0,0,0,-1,1259,806,0,0
42,218,0,0,0,0,0,0,0,0,0,-1,1266,806,0,0
49,218,0,0,0,0,0,0,0,0,0,-1,1273,806,0,0
56,218,0,0,0,0,0,0,0,0,0,-1,1280,806,0,0
63,218,0,0,0,0,0,0,0,0,0,-1,1287,806,0,0
70,218,0,0,0,0,0,0,0,0,0,-1,1294,806,0,0
77,218,0,0,0,0,0,0,0,0,0,-1,1301,806,0,0
84,218,0,0,0,0,0,0,0,0,0,-1,1308,806,0,0
91,218,0,0,0,0,0,0,0,0,0,-1,1315,806,0,0
98,218,0,0,0,0,0,0,0,0,0,-1,1322,806,0,0
105,218,0,0,0,0,0,0,0,0,0,-1,1329,806,0,0
112,218,0,0,0,0,0,0,0,0,0,-1,1336,806,0,0
119,218,0,0,0,0,0,0,0,0,0,-1,1343,806,0,0
126,218,0,0,0,0,0,0,0,0,0,-1,1350,806,0,0
133,218,0,0,0,0,0,0,0,0,0,-1,1357,806,0,0
140,218,0,0,0,0,0,0,0,0,0,-1,1364,806,0,0
147,218,0,0,0,0,0,0,0,0,0,-1,1371,806,0,0
154,218,0,0,0,0,0,0,0,0,0,-1,1378,806,0,0
161,218,0,0,0,0,0,0,0,0,0,-1,1385,806,0,0
168,218,0,0,0,0,0,0,0,0,0,-1,1392,806,0,0
175,218,0,0,0,0,0,0,0,0,0,-1,1399,806,0,0
182,218,0,0,0,0,0,0,0,0,0,-1,1406,806,0,0
189,218,0,0,0,0,0,0,0,0,0,-1,1413,806,0,0
196,218,0,0,0,0,0,0,0,0,0,-1,1420,806,0,0
203,218,0,0,0,0,0,0,0,0,0,-1,1427,806,0,0
210,218,0,0,0,0,0,0,0,0,0,-1,1434,806,0,0
217,218,0,0,0,0,0,0,0,0,0,-1,1441,806,0,0
224,218,0,0,0,0,0,0,0,0,0,-1,1448,806,0,0
231,218,0,0,0,0,0,0,0,0,0,-1,1455,806,0,0
238,218,0,0,0,0,0,0,0,0,0,-1,1462,806,0,0
245,218,0,0,0,0,0,0,0,0,0,-1,1469,806,0,0
252,218,0,0,0,0,0,0,0,0,0,-1,1476,806,0,0
259,218,0,0,0,0,0,0,0,0,0,-1,1483,806,0,0
266,218,0,0,0,0,0,0,0,0,0,-1,1490,806,0,0
273,218,0,0,0,0,0,0,0,0,0,-1,1497,806,0,0
280,218,0,0,0,0,0,0,0,0,0,-1,1504,806,0,0
287,218,0,0,0,0,0,0,0,0,0,-1,1511,806,0,0
294,218,0,0,0,0,0,0,0,0,0,-1,1518,806,0,0
301,218,0,0,0,0,0,0,0,0,0,-1,1525,806,0,0
308,218,0,0,0,0,0,0,0,0,0,-1,1532,806,0,0
315,218,0,0,0,0,0,0,0,0,0,-1,1539,806,0,0
322,218,0,0,0,0,0,0,0,0,0,-1,1546,806,0,0
329,218,0,0,0,0,0,0,0,0,0,-1,1553,806,0,0
336,218,0,0,0,0,0,0,0,0,0,-1,1560,806,0,0
343,218,0,0,0,0,0,0,0,0,0,-1,1567,806,0,0
350,218,0,0,0,0,0,0,0,0,0,-1,1574,806,0,0
357,218,0,0,0,0,0,0,0,0,0,-1,1581,806,0,0
364,218,0,0,0,0,0,0,0,0,0,-1,1588,806,0,0
371,218,0,0,0,0,0,0,0,0,0,-1,1595,806,0,0
378,218,0,0,0,0,0,0,0,0,0,-1,1602,806,0,0
385,218,0,0,0,0,0,0,0,0,0,-1,1609,806,0,0
392,218,0,0,0,0,0,0,0,0,0,-1,1616,806,0,0
399,218,0,0,0,0,0,0,0,0,0,-1,1623,806,0,0
406,218,0,0,0,0,0,0,0,0,0,-1,1630,806,0,0
413,218,0,0,0,0,0,0,0,0,0,-1,1637,806,0,0
420,218,0,0,0,0,0,0,0,0,0,-1,1644,806,0,0
427,218,0,0,0,0,0,0,0,0,0,-1,1651,806,0,0
434,218,0,0,0,0,0,0,0,0,0,-1,1658,806,0,0
441,218,0,0,0,0,0,0,0,0,0,-1,1665,806,0,0
448,218,0,0,0,0,0,0,0,0,0,-1,1672,806,0,0
455,218,0,0,0,0,0,0,0,0,0,-1,1679,806,0,0
462,218,0,0,0,0,0,0,0,0,0,-1,1686,806,0,0
469,218,0,0,0,0,0,0,0,0,0,-1,1693,806,0,0
476,218,0,0,0,0,0,0,0,0,0,-1,1700,806,0,0
483,218,0,0,0,0,0,0,0,0,0,-1,1707,806,0,0
490,218,0,0,0,0,0,0,0,0,0,-1,1714,806,0,0
497,218,0,0,0,0,0,0,0,0,0,-1,1721,806,0,0
504,218,0,0,0,0,0,0,0,0,0,-1,1728,806,0,0
511,218,0,0,0,0,0,0,0,0,0,-1,1735,806,0,0
518,218,0,0,0,0,0,0,0,0,0,-1,1742,806,0,0
525,218,0,0,0,0,0,0,0,0,0,-1,1749,806,0,0
532,218,0,0,0,0,0,0,0,0,0,-1,1756,806,0,0
539,218,0,0,0,0,0,0,0,0,0,-1,1763,806,0,0
546,218,0,0,0,0,0,0,0,0,0,-1,1770,806,0,0
553,218,0,0,0,0,0,0,0,0,0,-1,1777,806,0,0
560,218,0,0,0,0,0,0,0,0,0,-1,1784,806,0,0
567,218,0,0,0,0,0,0,0,0,0,-1,1791,806,0,0
574,218,0,0,0,0,0,0,0,0,0,-1,1798,806,0,0
581,218,0,0,0,0,0,0,0,0,0,-1,1805,806,0,0
588,218,0,0,0,0,0,0,0,0,0,-1,1812,806,0,0
595,218,30.5115,2.83057,-0.00252086,0.00296225,0.00145879,0.0033262,-0.00288481,1.3263,0.00358895,0.0358904,1819,806,30.5114,-2.83054
602,218,30.514,2.82751,-0.000659461,0.00280996,0.0028914,0.00444711,-0.00229661,1.05559,0.00395892,0.0334078,1826,806,30.514,-2.82749
609,218,30.5447,2.95636,0.000785652,0.0027293,0.00341114,0.00530436,-0.0017894,0.92417,0.00425988,0.0302075,1833,806,30.5446,-2.95638
616,218,30.5085,3.02332,0.00127738,0.00224525,0.00302635,0.00482611,-0.00130349,0.864681,0.00372864,0.0309622,1840,806,30.5086,-3.02329
623,218,30.5021,2.98712,0.00128403,0.00164886,0.00231627,0.00378989,-0.000857001,0.824695,0.00285546,0.035644,1847,806,30.502,-2.98712
630,218,30.6334,2.91394,0.00116293,0.00106633,0.00154484,0.00266022,-0.000430961,0.769769,0.00193321,0.0399287,1854,806,30.6334,-2.91394
637,218,30.8881,2.82959,0.000897077,0.000542875,0.000901316,0.00163853,-0.000198575,0.688388,0.0011642,0.043442,1861,806,30.8881,-2.82962
644,218,30.6616,3.25989,0,0,0,0,0,0,0,-1,1868,806,30.6617,-3.2599
651,218,23.6459,1.1615,0,0,0,0,0,0,0,-1,1875,806,23.6459,-1.16148
658,218,23.3514,1.5459,0,0,0,0,0,0,0,-1,1882,806,23.3514,-1.54589
665,218,23.0614,1.32794,0.000278341,-0.0010096,-0.00128453,0.00107128,-0.00180254,-0.553043,0.00167701,0.0389351,1889,806,23.0614,-1.32794
672,218,22.9432,1.56055,0.000255516,-0.00153761,-0.00149981,0.00110631,-0.0023884,-0.516003,0.00206243,0.0135522,1896,806,22.9432,-1.56052
679,218,22.929,1.896,0.000440098,-0.00180545,-0.0015112,0.00119996,-0.00256532,-0.465905,0.00222102,0.0116899,1903,806,22.9289,-1.89598
686,218,22.924,2.2063,0.000721786,-0.00169825,-0.00141068,0.0013703,-0.00234676,-0.430908,0.00217059,0.0112423,1910,806,22.9239,-2.20631
693,218,22.9089,2.54761,0.00182452,-0.00172051,-0.00144559,0.00233926,-0.00223526,-0.342078,0.00264133,0.0112886,1917,806,22.9089,-2.54763
700,218,22.902,2.88641,0.00392497,-0.00209365,-0.00159713,0.00432253,-0.00249121,-0.243963,0.003981,0.0093209,1924,806,22.9019,-2.88642
707,218,22.8684,3.22168,0.00681392,-0.0024995,-0.00178008,0.00714255,-0.00282814,-0.182561,0.0059335,0.00771836,1931,806,22.8684,-3.22167
714,218,22.8702,3.56366,0.0107116,-0.00343882,-0.00234763,0.0110909,-0.00381813,-0.16019,0.00894263,0.0101062,1938,806,22.8702,-3.56363
721,218,22.8969,3.89069,0.0154675,-0.00517407,-0.00346373,0.0160332,-0.00573979,-0.161898,0.0130305,0.0130279,1945,806,22.8969,-3.89069
728,218,22.9017,4.21368,0.0210901,-0.00761755,-0.00512452,0.0219774,-0.00850489,-0.171455,0.0181629,0.0199403,1952,806,22.9017,-4.21369
735,218,22.9303,4.50891,0.0279129,-0.010852,-0.00744328,0.0292929,-0.0122321,-0.183328,0.0246397,0.0365101,1959,806,22.9302,-4.50891
742,218,22.9829,4.80273,0,0,0,0,0,0,0,-1,1966,806,22.9829,-4.80274
749,218,22.7003,4.69598,0,0,0,0,0,0,0,-1,1973,806,22.7004,-4.69601
756,218,22.9272,4.71753,0,0,0,0,0,0,0,-1,1980,806,22.9272,-4.71754
763,218,23.1135,4.65381,0,0,0,0,0,0,0,-1,1987,806,23.1135,-4.65383
770,218,0,0,0,0,0,0,0,0,0,-1,1994,806,0,0
777,218,0,0,0,0,0,0,0,0,0,-1,2001,806,0,0
784,218,0,0,0,0,0,0,0,0,0,-1,2008,806,0,0
791,218,0,0,0,0,0,0,0,0,0,-1,2015,806,0,0
798,218,0,0,0,0,0,0,0,0,0,-1,2022,806,0,0
805,218,0,0,0,0,0,0,0,0,0,-1,2029,806,0,0
812,218,0,0,0,0,0,0,0,0,0,-1,2036,806,0,0
-700,211,0,0,0,0,0,0,0,0,0,-1,524,813,0,0
-693,211,0,0,0,0,0,0,0,0,0,-1,531,813,0,0
-686,211,0,0,0,0,0,0,0,0,0,-1,538,813,0,0
-679,211,0,0,0,0,0,0,0,0,0,-1,545,813,0,0
-672,211,0,0,0,0,0,0,0,0,0,-1,552,813,0,0
-665,211,0,0,0,0,0,0,0,0,0,-1,559,813,0,0
-658,211,0,0,0,0,0,0,0,0,0,-1,566,813,0,0
-651,211,-15.5564,7.76959,0,0,0,0,0,0,0,-1,573,813,-15.5564,-7.76958
-644,211,-16.2256,6.48682,0,0,0,0,0,0,0,-1,580,813,-16.2256,-6.48681
-637,211,-16.9779,5.13495,0,0,0,0,0,0,0,-1,587,813,-16.9779,-5.13494
-630,211,-15.544,2.87244,0,0,0,0,0,0,0,-1,594,813,-15.544,-2.87244
-623,211,-19.2022,-0.749756,0,0,0,0,0,0,0,-1,601,813,-19.2022,0.74973
-616,211,-15.0567,2.58032,0,0,0,0,0,0,0,-1,608,813,-15.0567,-2.58031
-609,211,-15.1014,2.28076,0.0146073,-0.0098578,-0.006047,0.0160203,-0.0112708,-0.229553,0.0158359,0.0396143,615,813,-15.1014,-2.28079
-602,211,-15.145,1.98218,0.0107596,-0.00650695,-0.00424835,0.0117483,-0.00749563,-0.22865,0.0112005,0.0197241,622,813,-15.145,-1.98219
-595,211,-15.1907,1.70496,0.00773703,-0.00412767,-0.00280301,0.0083659,-0.00475654,-0.220702,0.00767118,0.00976419,629,813,-15.1907,-1.70498
-588,211,-15.1976,1.40601,0.005502,-0.00251732,-0.00163412,0.0058222,-0.00283753,-0.193498,0.00509772,0.0100513,636,813,-15.1976,-1.40603
-581,211,-15.2083,1.10065,0.00356525,-0.00128851,-0.000644164,0.00364929,-0.00137254,-0.129723,0.00299703,0.0112793,643,813,-15.2083,-1.10067
-574,211,-15.2274,0.786194,0.00183926,-0.0004598,-3.15719e-05,0.0018397,-0.000460234,-0.013729,0.00140523,0.013077,650,813,-15.2274,-0.786223
-567,211,-15.2291,0.456055,0.000337039,-0.000124975,0.000766834,0.000906906,-0.000694841,0.639097,0.000927467,0.0193736,657,813,-15.2291,-0.456046
-560,211,-15.2631,0.167419,-0.000660332,3.70428e-05,0.00142553,0.00115591,-0.0017792,0.905344,0.00170728,0.0217717,664,813,-15.2632,-0.167443
-553,211,-15.207,-0.141541,-0.000589059,2.0686e-05,0.00219604,0.00193292,-0.00250129,0.854371,0.00256709,0.0215451,671,813,-15.2071,0.141545
-546,211,-15.29,-0.365112,8.50858e-05,-0.000254381,0.00283795,0.00275837,-0.00292767,0.75553,0.00328332,0.029776,678,813,-15.29,0.365126
-539,211,-15.2689,-0.757446,0.00103586,-0.00078208,0.00349507,0.00373823,-0.00348445,0.65818,0.00417087,0.0221549,685,813,-15.2689,0.757429
-532,211,-15.3204,-0.916565,0,0,0,0,0,0,0,-1,692,813,-15.3205,0.916591
-525,211,-14.3009,2.3233,0,0,0,0,0,0,0,-1,699,813,-14.3009,-2.3233
-518,211,-21.2797,1.16077,0,0,0,0,0,0,0,-1,706,813,-21.2797,-1.16076
-511,211,-21.2631,1.28003,0,0,0,0,0,0,0,-1,713,813,-21.2631,-1.28005
-504,211,-21.2466,1.39935,0,0,0,0,0,0,0,-1,720,813,-21.2466,-1.39935
-497,211,-21.7537,0.914917,0.00593198,0.00263603,0.00612293,0.0106248,-0.00205682,0.653939,0.00785907,0.0447911,727,813,-21.7537,-0.914929
-490,211,-21.6085,1.078,0.00611196,0.00442287,0.00531139,0.0106455,-0.000110702,0.706555,0.00713421,0.0345857,734,813,-21.6085,-1.078
-483,211,-21.5497,1.18048,0.00534068,0.00665275,0.00319509,0.00925845,0.00273497,0.886654,0.00549252,0.0324308,741,813,-21.5497,-1.18049
-476,211,-21.4984,1.3269,0.00274851,0.00896229,-0.000636986,0.00902692,0.00268389,-1.46969,0.00535252,0.0353251,748,813,-21.4984,-1.3269
-469,211,0,0,0,0,0,0,0,0,0,-1,755,813,0,0
-462,211,0,0,0,0,0,0,0,0,0,-1,762,813,0,0
-455,211,0,0,0,0,0,0,0,0,0,-1,769,813,0,0
-448,211,0,0,0,0,0,0,0,0,0,-1,776,813,0,0
-441,211,0,0,0,0,0,0,0,0,0,-1,783,813,0,0
-434,211,0,0,0,0,0,0,0,0,0,-1,790,813,0,0
-427,211,0,0,0,0,0,0,0,0,0,-1,797,813,0,0
-420,211,0,0,0,0,0,0,0,0,0,-1,804,813,0,0
-413,211,0,0,0,0,0,0,0,0,0,-1,811,813,0,0
-406,211,0,0,0,0,0,0,0,0,0,-1,818,813,0,0
-399,211,0,0,0,0,0,0,0,0,0,-1,825,813,0,0
-392,211,0,0,0,0,0,0,0,0,0,-1,832,813,0,0
-385,211,0,0,0,0,0,0,0,0,0,-1,839,813,0,0
-378,211,0,0,0,0,0,0,0,0,0,-1,846,813,0,0
-371,211,0,0,0,0,0,0,0,0,0,-1,853,813,0,0
-364,211,0,0,0,0,0,0,0,0,0,-1,860,813,0,0
-357,211,0,0,0,0,0,0,0,0,0,-1,867,813,0,0
-350,211,0,0,0,0,0,0,0,0,0,-1,874,813,0,0
-343,211,0,0,0,0,0,0,0,0,0,-1,881,813,0,0
-336,211,0,0,0,0,0,0,0,0,0,-1,888,813,0,0
-329,211,0,0,0,0,0,0,0,0,0,-1,895,813,0,0
-322,211,0,0,0,0,0,0,0,0,0,-1,902,813,0,0
-315,211,0,0,0,0,0,0,0,0,0,-1,909,813,0,0
-308,211,0,0,0,0,0,0,0,0,0,-1,916,813,0,0
-301,211,0,0,0,0,0,0,0,0,0,-1,923,813,0,0
-294,211,0,0,0,0,0,0,0,0,0,-1,930,813,0,0
-287,211,0,0,0,0,0,0,0,0,0,-1,937,813,0,0
-280,211,0,0,0,0,0,0,0,0,0,-1,944,813,0,0
-273,211,0,0,0,0,0,0,0,0,0,-1,951,813,0,0
-266,211,0,0,0,0,0,0,0,0,0,-1,958,813,0,0
-259,211,0,0,0,0,0,0,0,0,0,-1,965,813,0,0
-252,211,0,0,0,0,0,0,0,0,0,-1,972,813,0,0
-245,211,0,0,0,0,0,0,0,0,0,-1,979,813,0,0
-238,211,0,0,0,0,0,0,0,0,0,-1,986,813,0,0
-231,211,0,0,0,0,0,0,0,0,0,-1,993,813,0,0
-224,211,0,0,0,0,0,0,0,0,0,-1,1000,813,0,0
-217,211,0,0,0,0,0,0,0,0,0,-1,1007,813,0,0
-210,211,0,0,0,0,0,0,0,0,0,-1,1014,813,0,0
-203,211,0,0,0,0,0,0,0,0,0,-1,1021,813,0,0
-196,211,0,0,0,0,0,0,0,0,0,-1,1028,813,0,0
-189,211,0,0,0,0,0,0,0,0,0,-1,1035,813,0,0
-182,211,0,0,0,0,0,0,0,0,0,-1,1042,813,0,0
-175,211,0,0,0,0,0,0,0,0,0,-1,1049,813,0,0
-168,211,0,0,0,0,0,0,0,0,0,-1,1056,813,0,0
-161,211,0,0,0,0,0,0,0,0,0,-1,1063,813,0,0
-154,211,0,0,0,0,0,0,0,0,0,-1,1070,813,0,0
-147,211,0,0,0,0,0,0,0,0,0,-1,1077,813,0,0
-140,211,0,0,0,0,0,0,0,0,0,-1,1084,813,0,0
-133,211,0,0,0,0,0,0,0,0,0,-1,1091,813,0,0
-126,211,0,0,0,0,0,0,0,0,0,-1,1098,813,0,0
-119,211,0,0,0,0,0,0,0,0,0,-1,1105,813,0,0
-112,211,0,0,0,0,0,0,0,0,0,-1,1112,813,0,0
-105,211,0,0,0,0,0,0,0,0,0,-1,1119,813,0,0
-98,211,0,0,0,0,0,0,0,0,0,-1,1126,813,0,0
-91,211,0,0,0,0,0,0,0,0,0,-1,1133,813,0,0
-84,211,0,0,0,0,0,0,0,0,0,-1,1140,813,0,0
-77,211,0,0,0,0,0,0,0,0,0,-1,1147,813,0,0
-70,211,0,0,0,0,0,0,0,0,0,-1,1154,813,0,0
-63,211,0,0,0,0,0,0,0,0,0,-1,1161,813,0,0
-56,211,0,0,0,0,0,0,0,0,0,-1,1168,813,0,0
-49,211,0,0,0,0,0,0,0,0,0,-1,1175,813,0,0
-42,211,0,0,0,0,0,0,0,0,0,-1,1182,813,0,0
-35,211,0,0,0,0,0,0,0,0,0,-1,1189,813,0,0
-28,211,0,0,0,0,0,0,0,0,0,-1,1196,813,0,0
-21,211,0,0,0,0,0,0,0,0,0,-1,1203,813,0,0
-14,211,0,0,0,0,0,0,0,0,0,-1,1210,813,0,0
-7,211,0,0,0,0,0,0,0,0,0,-1,1217,813,0,0
0,211,0,0,0,0,0,0,0,0,0,-1,1224,813,0,0
7,211,0,0,0,0,0,0,0,0,0,-1,1231,813,0,0
14,211,0,0,0,0,0,0,0,0,0,-1,1238,813,0,0
21,211,0,0,0,0,0,0,0,0,0,-1,1245,813,0,0
28,211,0,0,0,0,0,0,0,0,0,-1,1252,813,0,0
35,211,0,0,0,0,0,0,0,0,0,-1,1259,813,0,0
42,211,0,0,0,0,0,0,0,0,0,-1,1266,813,0,0
49,211,0,0,0,0,0,0,0,0,0,-1,1273,813,0,0
56,211,0,0,0,0,0,0,0,0,0,-1,1280,813,0,0
63,211,0,0,0,0,0,0,0,0,0,-1,1287,813,0,0
70,211,0,0,0,0,0,0,0,0,0,-1,1294,813,0,0
77,211,0,0,0,0,0,0,0,0,0,-1,1301,813,0,0
84,211,0,0,0,0,0,0,0,0,0,-1,1308,813,0,0
91,211,0,0,0,0,0,0,0,0,0,-1,1315,813,0,0
98,211,0,0,0,0,0,0,0,0,0,-1,1322,813,0,0
105,211,0,0,0,0,0,0,0,0,0,-1,1329,813,0,0
112,211,0,0,0,0,0,0,0,0,0,-1,1336,813,0,0
119,211,0,0,0,0,0,0,0,0,0,-1,1343,813,0,0
126,211,0,0,0,0,0,0,0,0,0,-1,1350,813,0,0
133,211,0,0,0,0,0,0,0,0,0,-1,1357,813,0,0
140,211,0,0,0,0,0,0,0,0,0,-1,1364,813,0,0
147,211,0,0,0,0,0,0,0,0,0,-1,1371,813,0,0
154,211,0,0,0,0,0,0,0,0,0,-1,1378,813,0,0
161,211,0,0,0,0,0,0,0,0,0,-1,1385,813,0,0
168,211,0,0,0,0,0,0,0,0,0,-1,1392,813,0,0
175,211,0,0,0,0,0,0,0,0,0,-1,1399,813,0,0
182,211,0,0,0,0,0,0,0,0,0,-1,1406,813,0,0
189,211,0,0,0,0,0,0,0,0,0,-1,1413,813,0,0
196,211,0,0,0,0,0,0,0,0,0,-1,1420,813,0,0
203,211,0,0,0,0,0,0,0,0,0,-1,1427,813,0,0
210,211,0,0,0,0,0,0,0,0,0,-1,1434,813,0,0
217,211,0,0,0,0,0,0,0,0,0,-1,1441,813,0,0
224,211,0,0,0,0,0,0,0,0,0,-1,1448,813,0,0
231,211,0,0,0,0,0,0,0,0,0,-1,1455,813,0,0
238,211,0,0,0,0,0,0,0,0,0,-1,1462,813,0,0
245,211,0,0,0,0,0,0,0,0,0,-1,1469,813,0,0
252,211,0,0,0,0,0,0,0,0,0,-1,1476,813,0,0
259,211,0,0,0,0,0,0,0,0,0,-1,1483,813,0,0
266,211,0,0,0,0,0,0,0,0,0,-1,1490,813,0,0
273,211,0,0,0,0,0,0,0,0,0,-1,1497,813,0,0
280,211,0,0,0,0,0,0,0,0,0,-1,1504,813,0,0
287,211,0,0,0,0,0,0,0,0,0,-1,1511,813,0,0
294,211,0,0,0,0,0,0,0,0,0,-1,1518,813,0,0
301,211,0,0,0,0,0,0,0,0,0,-1,1525,813,0,0
308,211,0,0,0,0,0,0,0,0,0,-1,1532,813,0,0
315,211,0,0,0,0,0,0,0,0,0,-1,1539,813,0,0
322,211,0,0,0,0,0,0,0,0,0,-1,1546,813,0,0
329,211,0,0,0,0,0,0,0,0,0,-1,1553,813,0,0
336,211,0,0,0,0,0,0,0,0,0,-1,1560,813,0,0
343,211,0,0,0,0,0,0,0,0,0,-1,1567,813,0,0
350,211,0,0,0,0,0,0,0,0,0,-1,1574,813,0,0
357,211,0,0,0,0,0,0,0,0,0,-1,1581,813,0,0
364,211,0,0,0,0,0,0,0,0,0,-1,1588,813,0,0
371,211,0,0,0,0,0,0,0,0,0,-1,1595,813,0,0
378,211,0,0,0,0,0,0,0,0,0,-1,1602,813,0,0
385,211,0,0,0,0,0,0,0,0,0,-1,1609,813,0,0
392,211,0,0,0,0,0,0,0,0,0,-1,1616,813,0,0
399,211,0,0,0,0,0,0,0,0,0,-1,1623,813,0,0
406,211,0,0,0,0,0,0,0,0,0,-1,1630,813,0,0
413,211,0,0,0,0,0,0,0,0,0,-1,1637,813,0,0
420,211,0,0,0,0,0,0,0,0,0,-1,1644,813,0,0
427,211,0,0,0,0,0,0,0,0,0,-1,1651,813,0,0
434,211,0,0,0,0,0,0,0,0,0,-1,1658,813,0,0
441,211,0,0,0,0,0,0,0,0,0,-1,1665,813,0,0
448,211,0,0,0,0,0,0,0,0,0,-1,1672,813,0,0
455,211,0,0,0,0,0,0,0,0,0,-1,1679,813,0,0
462,211,0,0,0,0,0,0,0,0,0,-1,1686,813,0,0
469,211,0,0,0,0,0,0,0,0,0,-1,1693,813,0,0
476,211,0,0,0,0,0,0,0,0,0,-1,1700,813,0,0
483,211,0,0,0,0,0,0,0,0,0,-1,1707,813,0,0
490,211,0,0,0,0,0,0,0,0,0,-1,1714,813,0,0
497,211,0,0,0,0,0,0,0,0,0,-1,1721,813,0,0
504,211,0,0,0,0,0,0,0,0,0,-1,1728,813,0,0
511,211,0,0,0,0,0,0,0,0,0,-1,1735,813,0,0
518,211,0,0,0,0,0,0,0,0,0,-1,1742,813,0,0
525,211,0,0,0,0,0,0,0,0,0,-1,1749,813,0,0
532,211,0,0,0,0,0,0,0,0,0,-1,1756,813,0,0
539,211,0,0,0,0,0,0,0,0,0,-1,1763,813,0,0
546,211,0,0,0,0,0,0,0,0,0,-1,1770,813,0,0
553,211,0,0,0,0,0,0,0,0,0,-1,1777,813,0,0
560,211,0,0,0,0,0,0,0,0,0,-1,1784,813,0,0
567,211,0,0,0,0,0,0,0,0,0,-1,1791,813,0,0
574,211,0,0,0,0,0,0,0,0,0,-1,1798,813,0,0
581,211,0,0,0,0,0,0,0,0,0,-1,1805,813,0,0
588,211,0,0,0,0,0,0,0,0,0,-1,1812,813,0,0
595,211,30.5286,2.75696,-0.00475907,0.00240296,0.00116517,0.00258775,-0.00494386,1.41351,0.00441873,0.0390256,1819,813,30.5286,-2.75694
602,211,30.5627,2.90466,-0.00278536,0.00261194,0.00211201,0.00334014,-0.00351356,1.23877,0.00395741,0.0375256,1826,813,30.5627,-2.90463
609,211,30.485,2.95398,-0.000861387,0.00291636,0.00252191,0.00417834,-0.00212337,1.10682,0.00370221,0.0363961,1833,813,30.4849,-2.95399
616,211,30.4751,3.03394,0.000170974,0.00251424,0.0021734,0.0038117,-0.00112648,1.03261,0.00298826,0.031119,1840,813,30.4751,-3.03392
623,211,30.5177,3.00574,0.000579696,0.00186134,0.00154443,0.00289261,-0.00045158,0.982051,0.00209522,0.0325004,1847,813,30.5177,-3.00573
630,211,30.6152,2.92212,0.00070637,0.00119434,0.000862966,0.00184715,5.35627e-05,0.923168,0.00121397,0.0377567,1854,813,30.6152,-2.92214
637,211,30.7418,2.9375,0.000610034,0.00056113,0.000306356,0.000892912,0.000278252,0.745574,0.000527578,0.0406759,1861,813,30.7418,-2.93752
644,211,30.5581,3.08191,0.000371248,-7.68598e-05,-0.000147837,0.000415626,-0.000121238,-0.291626,0.000325121,0.0411249,1868,813,30.5581,-3.08192
651,211,30.3699,3.06989,0,0,0,0,0,0,0,-1,1875,813,30.3699,-3.06991
658,211,27.7909,1.52234,0,0,0,0,0,0,0,-1,1882,813,27.7909,-1.52234
665,211,23.3514,1.44592,0,0,0,0,0,0,0,-1,1889,813,23.3514,-1.44592
672,211,23.2527,1.63147,0.000420578,-0.00163312,-0.00165205,0.0013389,-0.00255144,-0.507337,0.00228217,0.0246133,1896,813,23.2527,-1.63144
679,211,23.265,1.88818,0.000470275,-0.00186146,-0.00168587,0.00135414,-0.00274533,-0.482881,0.00241183,0.0144022,1903,813,23.265,-1.88817
686,211,23.2512,2.22314,0.000425799,-0.00177726,-0.00159658,0.00126397,-0.00261543,-0.483431,0.00228462,0.0114736,1910,813,23.2512,-2.22314
693,211,23.235,2.55066,0.00104061,-0.00174996,-0.00161637,0.00178061,-0.00248996,-0.429338,0.00247693,0.0114324,1917,813,23.235,-2.55067
700,211,23.1704,2.87262,0.00250131,-0.00199648,-0.00171377,0.00307987,-0.00257505,-0.325584,0.0032692,0.0134576,1924,813,23.1704,-2.87262
707,211,23.1803,3.22699,0.00466244,-0.00213163,-0.00174562,0.0050847,-0.0025539,-0.237339,0.0044901,0.0197261,1931,813,23.1803,-3.227
714,211,23.2257,3.59009,0.00777044,-0.00256829,-0.00202396,0.00815254,-0.00295039,-0.186592,0.00664068,0.0218421,1938,813,23.2257,-3.59009
721,211,23.2576,3.88153,0.0116558,-0.00358749,-0.00271362,0.0121245,-0.00405616,-0.171023,0.00972132,0.0167536,1945,813,23.2576,-3.88151
728,211,23.2421,4.18414,0.0162779,-0.00507264,-0.00371975,0.0169074,-0.00570214,-0.167645,0.0135775,0.015637,1952,813,23.242,-4.18413
735,211,23.2506,4.46851,0.0218947,-0.00693595,-0.00502504,0.0227455,-0.00778668,-0.167709,0.0183194,0.0253665,1959,813,23.2507,-4.46848
742,211,23.4958,4.69415,0.0292153,-0.00951178,-0.00683739,0.030387,-0.0106835,-0.16972,0.0246048,0.0468258,1966,813,23.4959,-4.69415
749,211,23.2288,4.89368,0,0,0,0,0,0,0,-1,1973,813,23.2287,-4.89369
756,211,22.9148,4.47479,0,0,0,0,0,0,0,-1,1980,813,22.9147,-4.47478
763,211,23.1356,4.32349,0,0,0,0,0,0,0,-1,1987,813,23.1357,-4.32348
770,211,24.3923,4.11359,0,0,0,0,0,0,0,-1,1994,813,24.3923,-4.11359
777,211,0,0,0,0,0,0,0,0,0,-1,2001,813,0,0
784,211,0,0,0,0,0,0,0,0,0,-1,2008,813,0,0
791,211,0,0,0,0,0,0,0,0,0,-1,2015,813,0,0
798,211,0,0,0,0,0,0,0,0,0,-1,2022,813,0,0
805,211,0,0,0,0,0,0,0,0,0,-1,2029,813,0,0
812,211,0,0,0,0,0,0,0,0,0,-1,2036,813,0,0
-700,204,0,0,0,0,0,0,0,0,0,-1,524,820,0,0
-693,204,0,0,0,0,0,0,0,0,0,-1,531,820,0,0
-686,204,0,0,0,0,0,0,0,0,0,-1,538,820,0,0
-679,204,0,0,0,0,0,0,0,0,0,-1,545,820,0,0
-672,204,0,0,0,0,0,0,0,0,0,-1,552,820,0,0
-665,204,0,0,0,0,0,0,0,0,0,-1,559,820,0,0
-658,204,0,0,0,0,0,0,0,0,0,-1,566,820,0,0
-651,204,-15.5725,7.35236,0,0,0,0,0,0,0,-1,573,820,-15.5725,-7.35234
-644,204,-16.3191,5.99512,0,0,0,0,0,0,0,-1,580,820,-16.3191,-5.9951
-637,204,-15.4191,3.12262,0,0,0,0,0,0,0,-1,587,820,-15.4191,-3.1226
-630,204,-15.6613,2.84613,0,0,0,0,0,0,0,-1,594,820,-15.6613,-2.84614
-623,204,-15.5487,2.77399,0,0,0,0,0,0,0,-1,601,820,-15.5487,-2.77398
-616,204,-15.4399,2.58917,0.00602872,-0.00728288,-0.00327958,0.00679285,-0.00804701,-0.228911,0.00857799,0.046826,608,820,-15.4399,-2.58915
-609,204,-15.3973,2.30328,0.00468098,-0.00502539,-0.0022519,0.00517798,-0.00552238,-0.217219,0.00617892,0.0354114,615,820,-15.3973,-2.30326
-602,204,-15.467,1.98956,0.00358075,-0.0032803,-0.0015331,0.00390773,-0.00360729,-0.210136,0.00433995,0.015316,622,820,-15.467,-1.98956
-595,204,-15.5078,1.6947,0.00283634,-0.00218113,-0.000950658,0.00301042,-0.00235521,-0.18111,0.00310554,0.0138987,629,820,-15.5077,-1.6947
-588,204,-15.5276,1.38245,0.00237276,-0.00148698,-0.000427214,0.00241948,-0.0015337,-0.108928,0.00230139,0.0117478,636,820,-15.5276,-1.38242
-581,204,-15.5281,1.07471,0.00171259,-0.000760634,0.000100371,0.00171665,-0.000764701,0.0404942,0.00146733,0.0115933,643,820,-15.5281,-1.07471
-574,204,-15.5325,0.784729,0.000995088,-0.000291813,0.000386217,0.0011021,-0.000398824,0.270294,0.000897707,0.0132287,650,820,-15.5324,-0.784743
-567,204,-15.5108,0.484863,7.17571e-05,-6.84938e-05,0.000890514,0.000894902,-0.000891639,0.746106,0.00103146,0.0132824,657,820,-15.5108,-0.484879
-560,204,-15.5233,0.152222,-0.000720754,0.000180206,0.00138233,0.0011836,-0.00172415,0.942914,0.00168844,0.0127941,664,820,-15.5232,-0.152221
-553,204,-15.5421,-0.112976,-0.000653725,0.000324702,0.00203556,0.00192901,-0.00225804,0.903328,0.00241988,0.0128692,671,820,-15.5421,0.112977
-546,204,-15.5768,-0.340759,-6.07507e-05,0.000223609,0.00258101,0.00266635,-0.00250349,0.812914,0.00298531,0.0204304,678,820,-15.5768,0.340739
-539,204,-15.5821,-0.708862,0.000810479,-0.000224309,0.00315065,0.00348593,-0.00289976,0.704015,0.00369196,0.0371276,685,820,-15.5821,0.708857
-532,204,-15.5282,-1.23389,0,0,0,0,0,0,0,-1,692,820,-15.5282,1.23391
-525,204,-21.0093,0.724609,0,0,0,0,0,0,0,-1,699,820,-21.0094,-0.724609
-518,204,-21.1749,0.914429,0.00340272,0.000229083,0.00481922,0.00688964,-0.00325785,0.626354,0.00598243,0.0489375,706,820,-21.1749,-0.914416
-511,204,-21.3965,1.19781,0.00439279,0.000416482,0.00516466,0.00793875,-0.00312948,0.601664,0.00658826,0.0475365,713,820,-21.3966,-1.1978
-504,204,-21.5124,1.15204,0.00569435,0.000723036,0.00538559,0.00914023,-0.00272284,0.569194,0.00717542,0.0444066,720,820,-21.5124,-1.15201
-497,204,-21.7076,0.960022,0.00682543,0.00123005,0.0051697,0.00990591,-0.00185043,0.537379,0.00729935,0.0373911,727,820,-21.7076,-0.960044
-490,204,-21.5526,1.0481,0.00763025,0.00204,0.00405625,0.00976117,-9.09138e-05,0.483715,0.00653796,0.0325286,734,820,-21.5526,-1.04811
-483,204,-21.4891,1.09021,0.00750373,0.00289444,0.00144151,0.00791742,0.00248075,0.279473,0.00467611,0.0381836,741,820,-21.4891,-1.09019
-476,204,0,0,0,0,0,0,0,0,0,-1,748,820,0,0
-469,204,0,0,0,0,0,0,0,0,0,-1,755,820,0,0
-462,204,0,0,0,0,0,0,0,0,0,-1,762,820,0,0
-455,204,0,0,0,0,0,0,0,0,0,-1,769,820,0,0
-448,204,0,0,0,0,0,0,0,0,0,-1,776,820,0,0
-441,204,0,0,0,0,0,0,0,0,0,-1,783,820,0,0
-434,204,0,0,0,0,0,0,0,0,0,-1,790,820,0,0
-427,204,0,0,0,0,0,0,0,0,0,-1,797,820,0,0
-420,204,0,0,0,0,0,0,0,0,0,-1,804,820,0,0
-413,204,0,0,0,0,0,0,0,0,0,-1,811,820,0,0
-406,204,0,0,0,0,0,0,0,0,0,-1,818,820,0,0
-399,204,0,0,0,0,0,0,0,0,0,-1,825,820,0,0
-392,204,0,0,0,0,0,0,0,0,0,-1,832,820,0,0
-385,204,0,0,0,0,0,0,0,0,0,-1,839,820,0,0
-378,204,0,0,0,0,0,0,0,0,0,-1,846,820,0,0
-371,204,0,0,0,0,0,0,0,0,0,-1,853,820,0,0
-364,204,0,0,0,0,0,0,0,0,0,-1,860,820,0,0
-357,204,0,0,0,0,0,0,0,0,0,-1,867,820,0,0
-350,204,0,0,0,0,0,0,0,0,0,-1,874,820,0,0
-343,204,0,0,0,0,0,0,0,0,0,-1,881,820,0,0
-336,204,0,0,0,0,0,0,0,0,0,-1,888,820,0,0
-329,204,0,0,0,0,0,0,0,0,0,-1,895,820,0,0
-322,204,0,0,0,0,0,0,0,0,0,-1,902,820,0,0
-315,204,0,0,0,0,0,0,0,0,0,-1,909,820,0,0
-308,204,0,0,0,0,0,0,0,0,0,-1,916,820,0,0
-301,204,0,0,0,0,0,0,0,0,0,-1,923,820,0,0
-294,204,0,0,0,0,0,0,0,0,0,-1,930,820,0,0
-287,204,0,0,0,0,0,0,0,0,0,-1,937,820,0,0
-280,204,0,0,0,0,0,0,0,0,0,-1,944,820,0,0
-273,204,0,0,0,0,0,0,0,0,0,-1,951,820,0,0
-266,204,0,0,0,0,0,0,0,0,0,-1,958,820,0,0
-259,204,0,0,0,0,0,0,0,0,0,-1,965,820,0,0
-252,204,0,0,0,0,0,0,0,0,0,-1,972,820,0,0
-245,204,0,0,0,0,0,0,0,0,0,-1,979,820,0,0
-238,204,0,0,0,0,0,0,0,0,0,-1,986,820,0,0
-231,204,0,0,0,0,0,0,0,0,0,-1,993,820,0,0
-224,204,0,0,0,0,0,0,0,0,0,-1,1000,820,0,0
-217,204,0,0,0,0,0,0,0,0,0,-1,1007,820,0,0
-210,204,0,0,0,0,0,0,0,0,0,-1,1014,820,0,0
-203,204,0,0,0,0,0,0,0,0,0,-1,1021,820,0,0
-196,204,0,0,0,0,0,0,0,0,0,-1,1028,820,0,0
-189,204,0,0,0,0,0,0,0,0,0,-1,1035,820,0,0
-182,204,0,0,0,0,0,0,0,0,0,-1,1042,820,0,0
-175,204,0,0,0,0,0,0,0,0,0,-1,1049,820,0,0
-168,204,0,0,0,0,0,0,0,0,0,-1,1056,820,0,0
-161,204,0,0,0,0,0,0,0,0,0,-1,1063,820,0,0
-154,204,0,0,0,0,0,0,0,0,0,-1,1070,820,0,0
-147,204,0,0,0,0,0,0,0,0,0,-1,1077,820,0,0
-140,204,0,0,0,0,0,0,0,0,0,-1,1084,820,0,0
-133,204,0,0,0,0,0,0,0,0,0,-1,1091,820,0,0
-126,204,0,0,0,0,0,0,0,0,0,-1,1098,820,0,0
-119,204,0,0,0,0,0,0,0,0,0,-1,1105,820,0,0
-112,204,0,0,0,0,0,0,0,0,0,-1,1112,820,0,0
-105,204,0,0,0,0,0,0,0,0,0,-1,1119,820,0,0
-98,204,0,0,0,0,0,0,0,0,0,-1,1126,820,0,0
-91,204,0,0,0,0,0,0,0,0,0,-1,1133,820,0,0
-84,204,0,0,0,0,0,0,0,0,0,-1,1140,820,0,0
-77,204,0,0,0,0,0,0,0,0,0,-1,1147,820,0,0
-70,204,0,0,0,0,0,0,0,0,0,-1,1154,820,0,0
-63,204,0,0,0,0,0,0,0,0,0,-1,1161,820,0,0
-56,204,0,0,0,0,0,0,0,0,0,-1,1168,820,0,0
-49,204,0,0,0,0,0,0,0,0,0,-1,1175,820,0,0
-42,204,0,0,0,0,0,0,0,0,0,-1,1182,820,0,0
-35,204,0,0,0,0,0,0,0,0,0,-1,1189,820,0,0
-28,204,0,0,0,0,0,0,0,0,0,-1,1196,820,0,0
-21,204,0,0,0,0,0,0,0,0,0,-1,1203,820,0,0
-14,204,0,0,0,0,0,0,0,0,0,-1,1210,820,0,0
-7,204,0,0,0,0,0,0,0,0,0,-1,1217,820,0,0
0,204,0,0,0,0,0,0,0,0,0,-1,1224,820,0,0
7,204,0,0,0,0,0,0,0,0,0,-1,1231,820,0,0
14,204,0,0,0,0,0,0,0,0,0,-1,1238,820,0,0
21,204,0,0,0,0,0,0,0,0,0,-1,1245,820,0,0
28,204,0,0,0,0,0,0,0,0,0,-1,1252,820,0,0
35,204,0,0,0,0,0,0,0,0,0,-1,1259,820,0,0
42,204,0,0,0,0,0,0,0,0,0,-1,1266,820,0,0
49,204,0,0,0,0,0,0,0,0,0,-1,1273,820,0,0
56,204,0,0,0,0,0,0,0,0,0,-1,1280,820,0,0
63,204,0,0,0,0,0,0,0,0,0,-1,1287,820,0,0
70,204,0,0,0,0,0,0,0,0,0,-1,1294,820,0,0
77,204,0,0,0,0,0,0,0,0,0,-1,1301,820,0,0
84,204,0,0,0,0,0,0,0,0,0,-1,1308,820,0,0
91,204,0,0,0,0,0,0,0,0,0,-1,1315,820,0,0
98,204,0,0,0,0,0,0,0,0,0,-1,1322,820,0,0
105,204,0,0,0,0,0,0,0,0,0,-1,1329,820,0,0
112,204,0,0,0,0,0,0,0,0,0,-1,1336,820,0,0
119,204,0,0,0,0,0,0,0,0,0,-1,1343,820,0,0
126,204,0,0,0,0,0,0,0,0,0,-1,1350,820,0,0
133,204,0,0,0,0,0,0,0,0,0,-1,1357,820,0,0
140,204,0,0,0,0,0,0,0,0,0,-1,1364,820,0,0
147,204,0,0,0,0,0,0,0,0,0,-1,1371,820,0,0
154,204,0,0,0,0,0,0,0,0,0,-1,1378,820,0,0
161,204,0,0,0,0,0,0,0,0,0,-1,1385,820,0,0
168,204,0,0,0,0,0,0,0,0,0,-1,1392,820,0,0
175,204,0,0,0,0,0,0,0,0,0,-1,1399,820,0,0
182,204,0,0,0,0,0,0,0,0,0,-1,1406,820,0,0
189,204,0,0,0,0,0,0,0,0,0,-1,1413,820,0,0
196,204,0,0,0,0,0,0,0,0,0,-1,1420,820,0,0
203,204,0,0,0,0,0,0,0,0,0,-1,1427,820,0,0
210,204,0,0,0,0,0,0,0,0,0,-1,1434,820,0,0
217,204,0,0,0,0,0,0,0,0,0,-1,1441,820,0,0
224,204,0,0,0,0,0,0,0,0,0,-1,1448,820,0,0
231,204,0,0,0,0,0,0,0,0,0,-1,1455,820,0,0
238,204,0,0,0,0,0,0,0,0,0,-1,1462,820,0,0
245,204,0,0,0,0,0,0,0,0,0,-1,1469,820,0,0
252,204,0,0,0,0,0,0,0,0,0,-1,1476,820,0,0
259,204,0,0,0,0,0,0,0,0,0,-1,1483,820,0,0
266,204,0,0,0,0,0,0,0,0,0,-1,1490,820,0,0
273,204,0,0,0,0,0,0,0,0,0,-1,1497,820,0,0
280,204,0,0,0,0,0,0,0,0,0,-1,1504,820,0,0
287,204,0,0,0,0,0,0,0,0,0,-1,1511,820,0,0
294,204,0,0,0,0,0,0,0,0,0,-1,1518,820,0,0
301,204,0,0,0,0,0,0,0,0,0,-1,1525,820,0,0
308,204,0,0,0,0,0,0,0,0,0,-1,1532,820,0,0
315,204,0,0,0,0,0,0,0,0,0,-1,1539,820,0,0
322,204,0,0,0,0,0,0,0,0,0,-1,1546,820,0,0
329,204,0,0,0,0,0,0,0,0,0,-1,1553,820,0,0
336,204,0,0,0,0,0,0,0,0,0,-1,1560,820,0,0
343,204,0,0,0,0,0,0,0,0,0,-1,1567,820,0,0
350,204,0,0,0,0,0,0,0,0,0,-1,1574,820,0,0
357,204,0,0,0,0,0,0,0,0,0,-1,1581,820,0,0
364,204,0,0,0,0,0,0,0,0,0,-1,1588,820,0,0
371,204,0,0,0,0,0,0,0,0,0,-1,1595,820,0,0
378,204,0,0,0,0,0,0,0,0,0,-1,1602,820,0,0
385,204,0,0,0,0,0,0,0,0,0,-1,1609,820,0,0
392,204,0,0,0,0,0,0,0,0,0,-1,1616,820,0,0
399,204,0,0,0,0,0,0,0,0,0,-1,1623,820,0,0
406,204,0,0,0,0,0,0,0,0,0,-1,1630,820,0,0
413,204,0,0,0,0,0,0,0,0,0,-1,1637,820,0,0
420,204,0,0,0,0,0,0,0,0,0,-1,1644,820,0,0
427,204,0,0,0,0,0,0,0,0,0,-1,1651,820,0,0
434,204,0,0,0,0,0,0,0,0,0,-1,1658,820,0,0
441,204,0,0,0,0,0,0,0,0,0,-1,1665,820,0,0
448,204,0,0,0,0,0,0,0,0,0,-1,1672,820,0,0
455,204,0,0,0,0,0,0,0,0,0,-1,1679,820,0,0
462,204,0,0,0,0,0,0,0,0,0,-1,1686,820,0,0
469,204,0,0,0,0,0,0,0,0,0,-1,1693,820,0,0
476,204,0,0,0,0,0,0,0,0,0,-1,1700,820,0,0
483,204,0,0,0,0,0,0,0,0,0,-1,1707,820,0,0
490,204,0,0,0,0,0,0,0,0,0,-1,1714,820,0,0
497,204,0,0,0,0,0,0,0,0,0,-1,1721,820,0,0
504,204,0,0,0,0,0,0,0,0,0,-1,1728,820,0,0
511,204,0,0,0,0,0,0,0,0,0,-1,1735,820,0,0
518,204,0,0,0,0,0,0,0,0,0,-1,1742,820,0,0
525,204,0,0,0,0,0,0,0,0,0,-1,1749,820,0,0
532,204,0,0,0,0,0,0,0,0,0,-1,1756,820,0,0
539,204,0,0,0,0,0,0,0,0,0,-1,1763,820,0,0
546,204,0,0,0,0,0,0,0,0,0,-1,1770,820,0,0
553,204,0,0,0,0,0,0,0,0,0,-1,1777,820,0,0
560,204,0,0,0,0,0,0,0,0,0,-1,1784,820,0,0
567,204,0,0,0,0,0,0,0,0,0,-1,1791,820,0,0
574,204,0,0,0,0,0,0,0,0,0,-1,1798,820,0,0
581,204,0,0,0,0,0,0,0,0,0,-1,1805,820,0,0
588,204,0,0,0,0,0,0,0,0,0,-1,1812,820,0,0
595,204,0,0,0,0,0,0,0,0,0,-1,1819,820,0,0
602,204,30.6605,2.96246,-0.00495841,0.00177652,0.00187259,0.00226215,-0.00544404,1.31705,0.00457385,0.0380136,1826,820,30.6605,-2.96244
609,204,30.5295,2.91522,-0.00246803,0.00248808,0.00209873,0.00325739,-0.00323735,1.21944,0.00374975,0.0411965,1833,820,30.5295,-2.91522
616,204,30.558,2.86273,-0.000778914,0.00230049,0.00170498,0.0030581,-0.00153653,1.15265,0.00270076,0.0393387,1840,820,30.558,-2.86276
623,204,30.552,2.93744,0.00013354,0.00171788,0.00107618,0.00226201,-0.000410591,1.10267,0.00166186,0.0289388,1847,820,30.552,-2.93743
630,204,30.5226,2.98901,0.000572961,0.00103024,0.000429649,0.0012883,0.000314902,1.02992,0.000775509,0.027609,1854,820,30.5226,-2.989
637,204,30.6134,2.91553,0.000655109,0.000350962,-8.50432e-05,0.000677273,0.000328798,-0.254949,0.000391079,0.0350165,1861,820,30.6134,-2.91551
644,204,30.5179,2.90649,0.000546468,-0.000296473,-0.000479355,0.000763291,-0.000513296,-0.424783,0.000741734,0.0408155,1868,820,30.5179,-2.90652
651,204,30.4047,2.92645,0.000436661,-0.00079783,-0.000875185,0.000890369,-0.00125154,-0.47827,0.00124248,0.0482487,1875,820,30.4047,-2.92642
658,204,30.2231,2.97046,0,0,0,0,0,0,0,-1,1882,820,30.2231,-2.97046
665,204,21.8292,1.51099,0,0,0,0,0,0,0,-1,1889,820,21.8292,-1.51099
672,204,23.4884,1.61908,0,0,0,0,0,0,0,-1,1896,820,23.4884,-1.61908
679,204,23.567,1.79523,0.000652435,-0.00195809,-0.0017456,0.00152681,-0.00283247,-0.46437,0.00255418,0.0293592,1903,820,23.5671,-1.79521
686,204,23.5773,2.22345,0.00041475,-0.00189881,-0.00164246,0.0012669,-0.00275096,-0.478596,0.00237188,0.0130214,1910,820,23.5773,-2.22345
693,204,23.5248,2.55176,0.000671892,-0.00185382,-0.0016429,0.00148122,-0.00266314,-0.457725,0.00242496,0.0157529,1917,820,23.5247,-2.55177
700,204,23.5364,2.87878,0.00160031,-0.00199565,-0.00170553,0.00228055,-0.00267589,-0.379509,0.00286463,0.017401,1924,820,23.5364,-2.8788
707,204,23.5455,3.24011,0.00310673,-0.00189279,-0.00161706,0.00358416,-0.00237023,-0.287091,0.0034615,0.0149353,1931,820,23.5456,-3.2401
714,204,23.5708,3.62494,0.00549321,-0.00186016,-0.00165164,0.00584715,-0.00221409,-0.211102,0.00480913,0.0237646,1938,820,23.5708,-3.62492
721,204,23.5734,3.8858,0.00866842,-0.00219058,-0.00196114,0.00901175,-0.00253391,-0.173309,0.00700689,0.022557,1945,820,23.5734,-3.88582
728,204,23.564,4.17725,0.0125225,-0.00281807,-0.00243498,0.0128997,-0.00319529,-0.153697,0.00983941,0.0141794,1952,820,23.564,-4.17727
735,204,23.5262,4.49957,0.0172583,-0.00352255,-0.00298375,0.0176782,-0.00394248,-0.13982,0.0132959,0.0154675,1959,820,23.5263,-4.49955
742,204,23.5503,4.75323,0.0234869,-0.00442908,-0.00367629,0.0239629,-0.0049051,-0.128767,0.0178366,0.0296523,1966,820,23.5503,-4.75324
749,204,23.5276,4.99219,0.0316,-0.00533891,-0.00452805,0.032147,-0.00588587,-0.120211,0.0236388,0.04594,1973,820,23.5275,-4.99222
756,204,23.4996,5.23932,0,0,0,0,0,0,0,-1,1980,820,23.4997,-5.23933
763,204,22.2361,5.36444,0,0,0,0,0,0,0,-1,1987,820,22.2361,-5.36445
770,204,20.3103,6.27338,0,0,0,0,0,0,0,-1,1994,820,20.3103,-6.27338
777,204,0,0,0,0,0,0,0,0,0,-1,2001,820,0,0
784,204,0,0,0,0,0,0,0,0,0,-1,2008,820,0,0
791,204,0,0,0,0,0,0,0,0,0,-1,2015,820,0,0
798,204,0,0,0,0,0,0,0,0,0,-1,2022,820,0,0
805,204,0,0,0,0,0,0,0,0,0,-1,2029,820,0,0
812,204,0,0,0,0,0,0,0,0,0,-1,2036,820,0,0
-700,197,0,0,0,0,0,0,0,0,0,-1,524,827,0,0
-693,197,0,0,0,0,0,0,0,0,0,-1,531,827,0,0
-686,197,0,0,0,0,0,0,0,0,0,-1,538,827,0,0
-679,197,0,0,0,0,0,0,0,0,0,-1,545,827,0,0
-672,197,0,0,0,0,0,0,0,0,0,-1,552,827,0,0
-665,197,0,0,0,0,0,0,0,0,0,-1,559,827,0,0
-658,197,-22.4616,-2.66467,0,0,0,0,0,0,0,-1,566,827,-22.4616,2.66467
-651,197,-15.9948,6.2395,0,0,0,0,0,0,0,-1,573,827,-15.9948,-6.23949
-644,197,-16.3782,5.45715,0,0,0,0,0,0,0,-1,580,827,-16.3782,-5.45713
-637,197,-16.2579,3.33087,0,0,0,0,0,0,0,-1,587,827,-16.2579,-3.33084
-630,197,-16.0664,2.95251,0,0,0,0,0,0,0,-1,594,827,-16.0664,-2.95249
-623,197,-15.8159,2.60791,-0.00152672,-0.0052998,0.00230815,-0.000432222,-0.0063943,0.442786,0.00412634,0.0454282,601,827,-15.8159,-2.60792
-616,197,-15.675,2.48749,-0.00101161,-0.00412181,0.00173599,-0.000236049,-0.00489737,0.420153,0.00318915,0.0426729,608,827,-15.675,-2.48751
-609,197,-15.7098,2.28583,-0.000786296,-0.00260131,0.00148456,4.61644e-05,-0.00343377,0.511056,0.00230472,0.0308344,615,827,-15.7098,-2.2858
-602,197,-15.7971,1.97064,-0.000595388,-0.00151731,0.00109394,0.000130743,-0.00224344,0.585999,0.00154106,0.0172655,622,827,-15.7971,-1.97067
-595,197,-15.8318,1.70117,-0.000190123,-0.0010345,0.000788832,0.000282394,-0.00150702,0.53969,0.00111084,0.0183492,629,827,-15.8318,-1.70118
-588,197,-15.8624,1.37158,0.000314081,-0.000843737,0.00064075,0.000598709,-0.00112836,0.418029,0.00101264,0.0184974,636,827,-15.8624,-1.37159
-581,197,-15.8396,1.08124,0.000364801,-0.000400304,0.00069176,0.000772741,-0.000808244,0.532821,0.000912859,0.0108831,643,827,-15.8396,-1.08124
-574,197,-15.8242,0.786743,0.000124649,-8.14725e-05,0.000689325,0.000718575,-0.000675399,0.711193,0.00080494,0.0118819,650,827,-15.8242,-0.786758
-567,197,-15.825,0.473328,-0.000452768,4.28374e-05,0.000979403,0.000805301,-0.00121523,0.909305,0.00117453,0.0131863,657,827,-15.825,-0.473319
-560,197,-15.8435,0.194763,-0.00104701,0.000298996,0.00131876,0.00110655,-0.00185456,1.02134,0.00172769,0.0147388,664,827,-15.8435,-0.194789
-553,197,-15.9547,-0.0795288,-0.000958964,0.000537994,0.00183562,0.00177186,-0.00219283,0.978984,0.00229332,0.0174787,671,827,-15.9547,0.0795115
-546,197,-15.8641,-0.365356,-0.00042385,0.00059144,0.00227829,0.00241796,-0.00225037,0.895017,0.00269584,0.0313233,678,827,-15.8641,0.365346
-539,197,-15.8498,-0.608826,0,0,0,0,0,0,0,-1,685,827,-15.8498,0.60885
-532,197,-16.0519,0.0410156,0,0,0,0,0,0,0,-1,692,827,-16.0519,-0.0410415
-525,197,-21.3556,1.1947,0,0,0,0,0,0,0,-1,699,827,-21.3556,-1.1947
-518,197,-21.4464,1.15656,0.0029827,0.000389249,0.00404486,0.0059336,-0.00256166,0.630281,0.00503188,0.0474399,706,827,-21.4463,-1.15656
-511,197,-21.5351,1.10602,0.00416547,0.000446272,0.00433948,0.00702701,-0.00241527,0.582969,0.0056641,0.0444417,713,827,-21.5351,-1.10603
-504,197,-21.539,1.2262,0.00575825,0.000479929,0.0044445,0.00828811,-0.00204993,0.517473,0.00632052,0.0394484,720,827,-21.539,-1.22617
-497,197,-21.6719,1.14789,0.0072927,0.000574265,0.00404863,0.00919426,-0.00132729,0.439098,0.00661647,0.0394705,727,827,-21.6719,-1.1479
-490,197,-21.5894,1.07068,0.0087584,0.000869951,0.00268663,0.00958648,4.18709e-05,0.298983,0.00637708,0.0371673,734,827,-21.5894,-1.0707
-483,197,-21.3253,1.10864,0.00947902,0.001114,-0.000199876,0.00948379,0.00110923,-0.0238761,0.00598713,0.039856,741,827,-21.3253,-1.10867
-476,197,0,0,0,0,0,0,0,0,0,-1,748,827,0,0
-469,197,0,0,0,0,0,0,0,0,0,-1,755,827,0,0
-462,197,0,0,0,0,0,0,0,0,0,-1,762,827,0,0
-455,197,0,0,0,0,0,0,0,0,0,-1,769,827,0,0
-448,197,0,0,0,0,0,0,0,0,0,-1,776,827,0,0
-441,197,0,0,0,0,0,0,0,0,0,-1,783,827,0,0
-434,197,0,0,0,0,0,0,0,0,0,-1,790,827,0,0
-427,197,0,0,0,0,0,0,0,0,0,-1,797,827,0,0
-420,197,0,0,0,0,0,0,0,0,0,-1,804,827,0,0
-413,197,0,0,0,0,0,0,0,0,0,-1,811,827,0,0
-406,197,0,0,0,0,0,0,0,0,0,-1,818,827,0,0
-399,197,0,0,0,0,0,0,0,0,0,-1,825,827,0,0
-392,197,0,0,0,0,0,0,0,0,0,-1,832,827,0,0
-385,197,0,0,0,0,0,0,0,0,0,-1,839,827,0,0
-378,197,0,0,0,0,0,0,0,0,0,-1,846,827,0,0
-371,197,0,0,0,0,0,0,0,0,0,-1,853,827,0,0
-364,197,0,0,0,0,0,0,0,0,0,-1,860,827,0,0
-357,197,0,0,0,0,0,0,0,0,0,-1,867,827,0,0
-350,197,0,0,0,0,0,0,0,0,0,-1,874,827,0,0
-343,197,0,0,0,0,0,0,0,0,0,-1,881,827,0,0
-336,197,0,0,0,0,0,0,0,0,0,-1,888,827,0,0
-329,197,0,0,0,0,0,0,0,0,0,-1,895,827,0,0
-322,197,0,0,0,0,0,0,0,0,0,-1,902,827,0,0
-315,197,0,0,0,0,0,0,0,0,0,-1,909,827,0,0
-308,197,0,0,0,0,0,0,0,0,0,-1,916,827,0,0
-301,197,0,0,0,0,0,0,0,0,0,-1,923,827,0,0
-294,197,0,0,0,0,0,0,0,0,0,-1,930,827,0,0
-287,197,0,0,0,0,0,0,0,0,0,-1,937,827,0,0
-280,197,0,0,0,0,0,0,0,0,0,-1,944,827,0,0
-273,197,0,0,0,0,0,0,0,0,0,-1,951,827,0,0
-266,197,0,0,0,0,0,0,0,0,0,-1,958,827,0,0
-259,197,0,0,0,0,0,0,0,0,0,-1,965,827,0,0
-252,197,0,0,0,0,0,0,0,0,0,-1,972,827,0,0
-245,197,0,0,0,0,0,0,0,0,0,-1,979,827,0,0
-238,197,0,0,0,0,0,0,0,0,0,-1,986,827,0,0
-231,197,0,0,0,0,0,0,0,0,0,-1,993,827,0,0
-224,197,0,0,0,0,0,0,0,0,0,-1,1000,827,0,0
-217,197,0,0,0,0,0,0,0,0,0,-1,1007,827,0,0
-210,197,0,0,0,0,0,0,0,0,0,-1,1014,827,0,0
-203,197,0,0,0,0,0,0,0,0,0,-1,1021,827,0,0
-196,197,0,0,0,0,0,0,0,0,0,-1,1028,827,0,0
-189,197,0,0,0,0,0,0,0,0,0,-1,1035,827,0,0
-182,197,0,0,0,0,0,0,0,0,0,-1,1042,827,0,0
-175,197,0,0,0,0,0,0,0,0,0,-1,1049,827,0,0
-168,197,0,0,0,0,0,0,0,0,0,-1,1056,827,0,0
-161,197,0,0,0,0,0,0,0,0,0,-1,1063,827,0,0
-154,197,0,0,0,0,0,0,0,0,0,-1,1070,827,0,0
-147,197,0,0,0,0,0,0,0,0,0,-1,1077,827,0,0
-140,197,0,0,0,0,0,0,0,0,0,-1,1084,827,0,0
-133,197,0,0,0,0,0,0,0,0,0,-1,1091,827,0,0
-126,197,0,0,0,0,0,0,0,0,0,-1,1098,827,0,0
-119,197,0,0,0,0,0,0,0,0,0,-1,1105,827,0,0
-112,197,0,0,0,0,0,0,0,0,0,-1,1112,827,0,0
-105,197,0,0,0,0,0,0,0,0,0,-1,1119,827,0,0
-98,197,0,0,0,0,0,0,0,0,0,-1,1126,827,0,0
-91,197,0,0,0,0,0,0,0,0,0,-1,1133,827,0,0
-84,197,0,0,0,0,0,0,0,0,0,-1,1140,827,0,0
-77,197,0,0,0,0,0,0,0,0,0,-1,1147,827,0,0
-70,197,0,0,0,0,0,0,0,0,0,-1,1154,827,0,0
-63,197,0,0,0,0,0,0,0,0,0,-1,1161,827,0,0
-56,197,0,0,0,0,0,0,0,0,0,-1,1168,827,0,0
-49,197,0,0,0,0,0,0,0,0,0,-1,1175,827,0,0
-42,197,0,0,0,0,0,0,0,0,0,-1,1182,827,0,0
-35,197,0,0,0,0,0,0,0,0,0,-1,1189,827,0,0
-28,197,0,0,0,0,0,0,0,0,0,-1,1196,827,0,0
-21,197,0,0,0,0,0,0,0,0,0,-1,1203,827,0,0
-14,197,0,0,0,0,0,0,0,0,0,-1,1210,827,0,0
-7,197,0,0,0,0,0,0,0,0,0,-1,1217,827,0,0
0,197,0,0,0,0,0,0,0,0,0,-1,1224,827,0,0
7,197,0,0,0,0,0,0,0,0,0,-1,1231,827,0,0
14,197,0,0,0,0,0,0,0,0,0,-1,1238,827,0,0
21,197,0,0,0,0,0,0,0,0,0,-1,1245,827,0,0
28,197,0,0,0,0,0,0,0,0,0,-1,1252,827,0,0
35,197,0,0,0,0,0,0,0,0,0,-1,1259,827,0,0
42,197,0,0,0,0,0,0,0,0,0,-1,1266,827,0,0
49,197,0,0,0,0,0,0,0,0,0,-1,1273,827,0,0
56,197,0,0,0,0,0,0,0,0,0,-1,1280,827,0,0
63,197,0,0,0,0,0,0,0,0,0,-1,1287,827,0,0
70,197,0,0,0,0,0,0,0,0,0,-1,1294,827,0,0
77,197,0,0,0,0,0,0,0,0,0,-1,1301,827,0,0
84,197,0,0,0,0,0,0,0,0,0,-1,1308,827,0,0
91,197,0,0,0,0,0,0,0,0,0,-1,1315,827,0,0
98,197,0,0,0,0,0,0,0,0,0,-1,1322,827,0,0
105,197,0,0,0,0,0,0,0,0,0,-1,1329,827,0,0
112,197,0,0,0,0,0,0,0,0,0,-1,1336,827,0,0
119,197,0,0,0,0,0,0,0,0,0,-1,1343,827,0,0
126,197,0,0,0,0,0,0,0,0,0,-1,1350,827,0,0
133,197,0,0,0,0,0,0,0,0,0,-1,1357,827,0,0
140,197,0,0,0,0,0,0,0,0,0,-1,1364,827,0,0
147,197,0,0,0,0,0,0,0,0,0,-1,1371,827,0,0
154,197,0,0,0,0,0,0,0,0,0,-1,1378,827,0,0
161,197,0,0,0,0,0,0,0,0,0,-1,1385,827,0,0
168,197,0,0,0,0,0,0,0,0,0,-1,1392,827,0,0
175,197,0,0,0,0,0,0,0,0,0,-1,1399,827,0,0
182,197,0,0,0,0,0,0,0,0,0,-1,1406,827,0,0
189,197,0,0,0,0,0,0,0,0,0,-1,1413,827,0,0
196,197,0,0,0,0,0,0,0,0,0,-1,1420,827,0,0
203,197,0,0,0,0,0,0,0,0,0,-1,1427,827,0,0
210,197,0,0,0,0,0,0,0,0,0,-1,1434,827,0,0
217,197,0,0,0,0,0,0,0,0,0,-1,1441,827,0,0
224,197,0,0,0,0,0,0,0,0,0,-1,1448,827,0,0
231,197,0,0,0,0,0,0,0,0,0,-1,1455,827,0,0
238,197,0,0,0,0,0,0,0,0,0,-1,1462,827,0,0
245,197,0,0,0,0,0,0,0,0,0,-1,1469,827,0,0
252,197,0,0,0,0,0,0,0,0,0,-1,1476,827,0,0
259,197,0,0,0,0,0,0,0,0,0,-1,1483,827,0,0
266,197,0,0,0,0,0,0,0,0,0,-1,1490,827,0,0
273,197,0,0,0,0,0,0,0,0,0,-1,1497,827,0,0
280,197,0,0,0,0,0,0,0,0,0,-1,1504,827,0,0
287,197,0,0,0,0,0,0,0,0,0,-1,1511,827,0,0
294,197,0,0,0,0,0,0,0,0,0,-1,1518,827,0,0
301,197,0,0,0,0,0,0,0,0,0,-1,1525,827,0,0
308,197,0,0,0,0,0,0,0,0,0,-1,1532,827,0,0
315,197,0,0,0,0,0,0,0,0,0,-1,1539,827,0,0
322,197,0,0,0,0,0,0,0,0,0,-1,1546,827,0,0
329,197,0,0,0,0,0,0,0,0,0,-1,1553,827,0,0
336,197,0,0,0,0,0,0,0,0,0,-1,1560,827,0,0
343,197,0,0,0,0,0,0,0,0,0,-1,1567,827,0,0
350,197,0,0,0,0,0,0,0,0,0,-1,1574,827,0,0
357,197,0,0,0,0,0,0,0,0,0,-1,1581,827,0,0
364,197,0,0,0,0,0,0,0,0,0,-1,1588,827,0,0
371,197,0,0,0,0,0,0,0,0,0,-1,1595,827,0,0
378,197,0,0,0,0,0,0,0,0,0,-1,1602,827,0,0
385,197,0,0,0,0,0,0,0,0,0,-1,1609,827,0,0
392,197,0,0,0,0,0,0,0,0,0,-1,1616,827,0,0
399,197,0,0,0,0,0,0,0,0,0,-1,1623,827,0,0
406,197,0,0,0,0,0,0,0,0,0,-1,1630,827,0,0
413,197,0,0,0,0,0,0,0,0,0,-1,1637,827,0,0
420,197,0,0,0,0,0,0,0,0,0,-1,1644,827,0,0
427,197,0,0,0,0,0,0,0,0,0,-1,1651,827,0,0
434,197,0,0,0,0,0,0,0,0,0,-1,1658,827,0,0
441,197,0,0,0,0,0,0,0,0,0,-1,1665,827,0,0
448,197,0,0,0,0,0,0,0,0,0,-1,1672,827,0,0
455,197,0,0,0,0,0,0,0,0,0,-1,1679,827,0,0
462,197,0,0,0,0,0,0,0,0,0,-1,1686,827,0,0
469,197,0,0,0,0,0,0,0,0,0,-1,1693,827,0,0
476,197,0,0,0,0,0,0,0,0,0,-1,1700,827,0,0
483,197,0,0,0,0,0,0,0,0,0,-1,1707,827,0,0
490,197,0,0,0,0,0,0,0,0,0,-1,1714,827,0,0
497,197,0,0,0,0,0,0,0,0,0,-1,1721,827,0,0
504,197,0,0,0,0,0,0,0,0,0,-1,1728,827,0,0
511,197,0,0,0,0,0,0,0,0,0,-1,1735,827,0,0
518,197,0,0,0,0,0,0,0,0,0,-1,1742,827,0,0
525,197,0,0,0,0,0,0,0,0,0,-1,1749,827,0,0
532,197,0,0,0,0,0,0,0,0,0,-1,1756,827,0,0
539,197,0,0,0,0,0,0,0,0,0,-1,1763,827,0,0
546,197,0,0,0,0,0,0,0,0,0,-1,1770,827,0,0
553,197,0,0,0,0,0,0,0,0,0,-1,1777,827,0,0
560,197,0,0,0,0,0,0,0,0,0,-1,1784,827,0,0
567,197,0,0,0,0,0,0,0,0,0,-1,1791,827,0,0
574,197,0,0,0,0,0,0,0,0,0,-1,1798,827,0,0
581,197,0,0,0,0,0,0,0,0,0,-1,1805,827,0,0
588,197,0,0,0,0,0,0,0,0,0,-1,1812,827,0,0
595,197,0,0,0,0,0,0,0,0,0,-1,1819,827,0,0
602,197,30.7433,2.83545,-0.00774324,0.00145478,0.00191972,0.00183937,-0.00812783,1.37308,0.00612445,0.0407557,1826,827,30.7433,-2.83545
609,197,30.5972,2.80743,-0.00452534,0.00217241,0.00200417,0.00272631,-0.00507924,1.30115,0.00457428,0.0419836,1833,827,30.5971,-2.80742
616,197,30.5015,2.72595,-0.00203302,0.0020368,0.00155717,0.00256424,-0.00256046,1.24421,0.00295875,0.0413718,1840,827,30.5014,-2.72597
623,197,30.3986,2.7771,-0.000448879,0.00150753,0.000889863,0.00185172,-0.000793075,1.20172,0.00156722,0.0342235,1847,827,30.3985,-2.77712
630,197,30.4946,2.91321,0.000460589,0.000824706,0.000221774,0.000929578,0.000355717,1.12908,0.000541596,0.0293421,1854,827,30.4947,-2.91322
637,197,30.5726,2.91943,0.000809287,0.000134264,-0.000301342,0.000924236,1.93148e-05,-0.364421,0.000609821,0.0284852,1861,827,30.5726,-2.91941
644,197,30.6141,2.84729,0.000852706,-0.000494839,-0.000674728,0.00113247,-0.0007746,-0.393053,0.00110749,0.0344365,1868,827,30.6141,-2.84729
651,197,30.655,2.89288,0.000799519,-0.000988689,-0.00100624,0.0012515,-0.00144067,-0.422169,0.0015556,0.0435605,1875,827,30.655,-2.89288
658,197,30.7347,3.0097,0,0,0,0,0,0,0,-1,1882,827,30.7347,-3.00972
665,197,14.0618,1.80304,0,0,0,0,0,0,0,-1,1889,827,14.0617,-1.80303
672,197,24.126,1.34967,0,0,0,0,0,0,0,-1,1896,827,24.126,-1.34968
679,197,24.0117,1.89178,0.000913189,-0.00195943,-0.00170532,0.00170648,-0.00275272,-0.435409,0.00259803,0.0371155,1903,827,24.0117,-1.89179
686,197,23.8975,2.25769,0.000543053,-0.00190952,-0.00157058,0.00130938,-0.00267584,-0.453942,0.00234552,0.0206663,1910,827,23.8974,-2.25768
693,197,23.8671,2.59802,0.000551127,-0.00184831,-0.00153439,0.00129915,-0.00259633,-0.453599,0.00229025,0.0144321,1917,827,23.8671,-2.59802
700,197,23.8727,2.93756,0.00108067,-0.00188342,-0.0015726,0.00175954,-0.00256228,-0.407517,0.00250951,0.0205652,1924,827,23.8727,-2.93754
707,197,23.8995,3.245,0.00209741,-0.00157104,-0.00138961,0.00256436,-0.00203799,-0.324175,0.00266295,0.0088864,1931,827,23.8995,-3.24503
714,197,23.8829,3.55426,0.0039397,-0.00112055,-0.00122778,0.00422187,-0.00140271,-0.225894,0.00338059,0.0113401,1938,827,23.883,-3.55424
721,197,23.879,3.85706,0.00655796,-0.000843188,-0.0012418,0.00676076,-0.00104599,-0.161881,0.00489324,0.0121796,1945,827,23.879,-3.85707
728,197,23.8745,4.18195,0.00985753,-0.00074273,-0.00132242,0.01002,-0.000905215,-0.122257,0.00700128,0.0114949,1952,827,23.8745,-4.18195
735,197,23.8536,4.50879,0.0139803,-0.000567165,-0.00135918,0.0141062,-0.000693066,-0.0923658,0.00964345,0.0115641,1959,827,23.8536,-4.50879
742,197,23.8303,4.85486,0.0194298,-0.000298196,-0.00133101,0.0195192,-0.000387592,-0.0670631,0.0131439,0.0190347,1966,827,23.8304,-4.85487
749,197,23.8633,5.23828,0.0266175,0.000328642,-0.00117554,0.0266699,0.00027618,-0.0445976,0.0176886,0.042663,1973,827,23.8632,-5.23826
756,197,23.8773,5.62219,0,0,0,0,0,0,0,-1,1980,827,23.8773,-5.6222
763,197,21.1113,6.08087,0,0,0,0,0,0,0,-1,1987,827,21.1113,-6.08085
770,197,21.9504,6.33398,0,0,0,0,0,0,0,-1,1994,827,21.9504,-6.33398
777,197,0,0,0,0,0,0,0,0,0,-1,2001,827,0,0
784,197,0,0,0,0,0,0,0,0,0,-1,2008,827,0,0
791,197,0,0,0,0,0,0,0,0,0,-1,2015,827,0,0
798,197,0,0,0,0,0,0,0,0,0,-1,2022,827,0,0
805,197,0,0,0,0,0,0,0,0,0,-1,2029,827,0,0
812,197,0,0,0,0,0,0,0,0,0,-1,2036,827,0,0
-700,190,0,0,0,0,0,0,0,0,0,-1,524,834,0,0
-693,190,0,0,0,0,0,0,0,0,0,-1,531,834,0,0
-686,190,0,0,0,0,0,0,0,0,0,-1,538,834,0,0
-679,190,0,0,0,0,0,0,0,0,0,-1,545,834,0,0
-672,190,0,0,0,0,0,0,0,0,0,-1,552,834,0,0
-665,190,0,0,0,0,0,0,0,0,0,-1,559,834,0,0
-658,190,-15.8209,5.67096,0,0,0,0,0,0,0,-1,566,834,-15.8209,-5.67096
-651,190,-16.1575,2.37836,0,0,0,0,0,0,0,-1,573,834,-16.1575,-2.37837
-644,190,-15.647,2.90149,0,0,0,0,0,0,0,-1,580,834,-15.647,-2.90149
-637,190,-15.3273,3.48969,0,0,0,0,0,0,0,-1,587,834,-15.3272,-3.48969
-630,190,-16.3246,3.13763,0,0,0,0,0,0,0,-1,594,834,-16.3246,-3.13762
-623,190,-16.0619,2.83929,-0.00814052,-0.000804871,0.00695028,0.00338602,-0.0123314,1.02819,0.00955181,0.0476289,601,834,-16.0619,-2.83929
-616,190,-15.9985,2.51917,-0.0063387,-0.00100999,0.00489396,0.00189787,-0.00924657,1.03467,0.00688476,0.0399007,608,834,-15.9985,-2.51914
-609,190,-16.0594,2.23224,-0.00496536,-0.000341957,0.0037154,0.0017222,-0.00702951,1.06369,0.00535356,0.0221954,615,834,-16.0594,-2.23223
-602,190,-16.1034,1.96356,-0.00370442,0.000133611,0.00263662,0.00147563,-0.00504644,1.09998,0.00394917,0.0161931,622,834,-16.1034,-1.96359
-595,190,-16.1422,1.69843,-0.00235067,9.9598e-05,0.00177371,0.00103015,-0.00328123,1.08763,0.00259982,0.0186539,629,834,-16.1421,-1.69842
-588,190,-16.1539,1.38715,-0.00104742,-0.000138559,0.00119057,0.000681362,-0.00186734,0.967709,0.00152367,0.0157141,636,834,-16.1539,-1.38712
-581,190,-16.1304,1.08771,-0.000447084,8.82242e-05,0.0010013,0.000857027,-0.00121589,0.915998,0.00120276,0.010934,643,834,-16.1304,-1.0877
-574,190,-16.1143,0.783936,-0.000325685,0.000213934,0.000864996,0.000850224,-0.000961975,0.936576,0.00104694,0.0104346,650,834,-16.1143,-0.783923
-567,190,-16.11,0.453796,-0.000613815,0.000280158,0.00102897,0.000955032,-0.00128869,0.990302,0.00130018,0.0141573,657,834,-16.11,-0.453784
-560,190,-16.1829,0.180298,-0.00103993,0.000531937,0.00120421,0.00118399,-0.00169198,1.07452,0.00166906,0.0277384,664,834,-16.1828,-0.180294
-553,190,-16.2516,-0.103333,-0.000963686,0.000845561,0.00153672,0.00172415,-0.00184228,1.05142,0.00205945,0.0245881,671,834,-16.2516,0.103313
-546,190,-16.2186,-0.415466,-0.000525103,0.00103446,0.00185843,0.00227008,-0.00176072,0.984038,0.00233337,0.0475684,678,834,-16.2186,0.415481
-539,190,-16.3264,-0.500183,0,0,0,0,0,0,0,-1,685,834,-16.3264,0.500196
-532,190,-16.6888,-0.489929,0,0,0,0,0,0,0,-1,692,834,-16.6888,0.489912
-525,190,-21.0924,1.12866,0,0,0,0,0,0,0,-1,699,834,-21.0924,-1.12867
-518,190,-21.5715,1.03351,0,0,0,0,0,0,0,-1,706,834,-21.5715,-1.03351
-511,190,-21.5881,1.05615,0.00383499,0.00062935,0.00331103,0.00591075,-0.00144641,0.559981,0.00450079,0.0457245,713,834,-21.5882,-1.05617
-504,190,-21.6145,1.10144,0.00557452,0.000370196,0.00326066,0.00714407,-0.00119935,0.448624,0.00520873,0.04413,720,834,-21.6145,-1.10142
-497,190,-21.6144,1.14758,0.00751496,-8.65715e-06,0.00260954,0.00833146,-0.000825155,0.30324,0.00584879,0.0450711,727,834,-21.6144,-1.14757
-490,190,-21.3726,1.33411,0.00970193,-0.000365893,0.000919555,0.00978523,-0.000449192,0.09034,0.00667825,0.0422123,734,834,-21.3726,-1.33413
-483,190,0,0,0,0,0,0,0,0,0,-1,741,834,0,0
-476,190,0,0,0,0,0,0,0,0,0,-1,748,834,0,0
-469,190,0,0,0,0,0,0,0,0,0,-1,755,834,0,0
-462,190,0,0,0,0,0,0,0,0,0,-1,762,834,0,0
-455,190,0,0,0,0,0,0,0,0,0,-1,769,834,0,0
-448,190,0,0,0,0,0,0,0,0,0,-1,776,834,0,0
-441,190,0,0,0,0,0,0,0,0,0,-1,783,834,0,0
-434,190,0,0,0,0,0,0,0,0,0,-1,790,834,0,0
-427,190,0,0,0,0,0,0,0,0,0,-1,797,834,0,0
-420,190,0,0,0,0,0,0,0,0,0,-1,804,834,0,0
-413,190,0,0,0,0,0,0,0,0,0,-1,811,834,0,0
-406,190,0,0,0,0,0,0,0,0,0,-1,818,834,0,0
-399,190,0,0,0,0,0,0,0,0,0,-1,825,834,0,0
-392,190,0,0,0,0,0,0,0,0,0,-1,832,834,0,0
-385,190,0,0,0,0,0,0,0,0,0,-1,839,834,0,0
-378,190,0,0,0,0,0,0,0,0,0,-1,846,834,0,0
-371,190,0,0,0,0,0,0,0,0,0,-1,853,834,0,0
-364,190,0,0,0,0,0,0,0,0,0,-1,860,834,0,0
-357,190,0,0,0,0,0,0,0,0,0,-1,867,834,0,0
-350,190,0,0,0,0,0,0,0,0,0,-1,874,834,0,0
-343,190,0,0,0,0,0,0,0,0,0,-1,881,834,0,0
-336,190,0,0,0,0,0,0,0,0,0,-1,888,834,0,0
-329,190,0,0,0,0,0,0,0,0,0,-1,895,834,0,0
-322,190,0,0,0,0,0,0,0,0,0,-1,902,834,0,0
-315,190,0,0,0,0,0,0,0,0,0,-1,909,834,0,0
-308,190,0,0,0,0,0,0,0,0,0,-1,916,834,0,0
-301,190,0,0,0,0,0,0,0,0,0,-1,923,834,0,0
-294,190,0,0,0,0,0,0,0,0,0,-1,930,834,0,0
-287,190,0,0,0,0,0,0,0,0,0,-1,937,834,0,0
-280,190,0,0,0,0,0,0,0,0,0,-1,944,834,0,0
-273,190,0,0,0,0,0,0,0,0,0,-1,951,834,0,0
-266,190,0,0,0,0,0,0,0,0,0,-1,958,834,0,0
-259,190,0,0,0,0,0,0,0,0,0,-1,965,834,0,0
-252,190,0,0,0,0,0,0,0,0,0,-1,972,834,0,0
-245,190,0,0,0,0,0,0,0,0,0,-1,979,834,0,0
-238,190,0,0,0,0,0,0,0,0,0,-1,986,834,0,0
-231,190,0,0,0,0,0,0,0,0,0,-1,993,834,0,0
-224,190,0,0,0,0,0,0,0,0,0,-1,1000,834,0,0
-217,190,0,0,0,0,0,0,0,0,0,-1,1007,834,0,0
-210,190,0,0,0,0,0,0,0,0,0,-1,1014,834,0,0
-203,190,0,0,0,0,0,0,0,0,0,-1,1021,834,0,0
-196,190,0,0,0,0,0,0,0,0,0,-1,1028,834,0,0
-189,190,0,0,0,0,0,0,0,0,0,-1,1035,834,0,0
-182,190,0,0,0,0,0,0,0,0,0,-1,1042,834,0,0
-175,190,0,0,0,0,0,0,0,0,0,-1,1049,834,0,0
-168,190,0,0,0,0,0,0,0,0,0,-1,1056,834,0,0
-161,190,0,0,0,0,0,0,0,0,0,-1,1063,834,0,0
-154,190,0,0,0,0,0,0,0,0,0,-1,1070,834,0,0
-147,190,0,0,0,0,0,0,0,0,0,-1,1077,834,0,0
-140,190,0,0,0,0,0,0,0,0,0,-1,1084,834,0,0
-133,190,0,0,0,0,0,0,0,0,0,-1,1091,834,0,0
-126,190,0,0,0,0,0,0,0,0,0,-1,1098,834,0,0
-119,190,0,0,0,0,0,0,0,0,0,-1,1105,834,0,0
-112,190,0,0,0,0,0,0,0,0,0,-1,1112,834,0,0
-105,190,0,0,0,0,0,0,0,0,0,-1,1119,834,0,0
-98,190,0,0,0,0,0,0,0,0,0,-1,1126,834,0,0
-91,190,0,0,0,0,0,0,0,0,0,-1,1133,834,0,0
-84,190,0,0,0,0,0,0,0,0,0,-1,1140,834,0,0
-77,190,0,0,0,0,0,0,0,0,0,-1,1147,834,0,0
-70,190,0,0,0,0,0,0,0,0,0,-1,1154,834,0,0
-63,190,0,0,0,0,0,0,0,0,0,-1,1161,834,0,0
-56,190,0,0,0,0,0,0,0,0,0,-1,1168,834,0,0
-49,190,0,0,0,0,0,0,0,0,0,-1,1175,834,0,0
-42,190,0,0,0,0,0,0,0,0,0,-1,1182,834,0,0
-35,190,0,0,0,0,0,0,0,0,0,-1,1189,834,0,0
-28,190,0,0,0,0,0,0,0,0,0,-1,1196,834,0,0
-21,190,0,0,0,0,0,0,0,0,0,-1,1203,834,0,0
-14,190,0,0,0,0,0,0,0,0,0,-1,1210,834,0,0
-7,190,0,0,0,0,0,0,0,0,0,-1,1217,834,0,0
0,190,0,0,0,0,0,0,0,0,0,-1,1224,834,0,0
7,190,0,0,0,0,0,0,0,0,0,-1,1231,834,0,0
14,190,0,0,0,0,0,0,0,0,0,-1,1238,834,0,0
21,190,0,0,0,0,0,0,0,0,0,-1,1245,834,0,0
28,190,0,0,0,0,0,0,0,0,0,-1,1252,834,0,0
35,190,0,0,0,0,0,0,0,0,0,-1,1259,834,0,0
42,190,0,0,0,0,0,0,0,0,0,-1,1266,834,0,0
49,190,0,0,0,0,0,0,0,0,0,-1,1273,834,0,0
56,190,0,0,0,0,0,0,0,0,0,-1,1280,834,0,0
63,190,0,0,0,0,0,0,0,0,0,-1,1287,834,0,0
70,190,0,0,0,0,0,0,0,0,0,-1,1294,834,0,0
77,190,0,0,0,0,0,0,0,0,0,-1,1301,834,0,0
84,190,0,0,0,0,0,0,0,0,0,-1,1308,834,0,0
91,190,0,0,0,0,0,0,0,0,0,-1,1315,834,0,0
98,190,0,0,0,0,0,0,0,0,0,-1,1322,834,0,0
105,190,0,0,0,0,0,0,0,0,0,-1,1329,834,0,0
112,190,0,0,0,0,0,0,0,0,0,-1,1336,834,0,0
119,190,0,0,0,0,0,0,0,0,0,-1,1343,834,0,0
126,190,0,0,0,0,0,0,0,0,0,-1,1350,834,0,0
133,190,0,0,0,0,0,0,0,0,0,-1,1357,834,0,0
140,190,0,0,0,0,0,0,0,0,0,-1,1364,834,0,0
147,190,0,0,0,0,0,0,0,0,0,-1,1371,834,0,0
154,190,0,0,0,0,0,0,0,0,0,-1,1378,834,0,0
161,190,0,0,0,0,0,0,0,0,0,-1,1385,834,0,0
168,190,0,0,0,0,0,0,0,0,0,-1,1392,834,0,0
175,190,0,0,0,0,0,0,0,0,0,-1,1399,834,0,0
182,190,0,0,0,0,0,0,0,0,0,-1,1406,834,0,0
189,190,0,0,0,0,0,0,0,0,0,-1,1413,834,0,0
196,190,0,0,0,0,0,0,0,0,0,-1,1420,834,0,0
203,190,0,0,0,0,0,0,0,0,0,-1,1427,834,0,0
210,190,0,0,0,0,0,0,0,0,0,-1,1434,834,0,0
217,190,0,0,0,0,0,0,0,0,0,-1,1441,834,0,0
224,190,0,0,0,0,0,0,0,0,0,-1,1448,834,0,0
231,190,0,0,0,0,0,0,0,0,0,-1,1455,834,0,0
238,190,0,0,0,0,0,0,0,0,0,-1,1462,834,0,0
245,190,0,0,0,0,0,0,0,0,0,-1,1469,834,0,0
252,190,0,0,0,0,0,0,0,0,0,-1,1476,834,0,0
259,190,0,0,0,0,0,0,0,0,0,-1,1483,834,0,0
266,190,0,0,0,0,0,0,0,0,0,-1,1490,834,0,0
273,190,0,0,0,0,0,0,0,0,0,-1,1497,834,0,0
280,190,0,0,0,0,0,0,0,0,0,-1,1504,834,0,0
287,190,0,0,0,0,0,0,0,0,0,-1,1511,834,0,0
294,190,0,0,0,0,0,0,0,0,0,-1,1518,834,0,0
301,190,0,0,0,0,0,0,0,0,0,-1,1525,834,0,0
308,190,0,0,0,0,0,0,0,0,0,-1,1532,834,0,0
315,190,0,0,0,0,0,0,0,0,0,-1,1539,834,0,0
322,190,0,0,0,0,0,0,0,0,0,-1,1546,834,0,0
329,190,0,0,0,0,0,0,0,0,0,-1,1553,834,0,0
336,190,0,0,0,0,0,0,0,0,0,-1,1560,834,0,0
343,190,0,0,0,0,0,0,0,0,0,-1,1567,834,0,0
350,190,0,0,0,0,0,0,0,0,0,-1,1574,834,0,0
357,190,0,0,0,0,0,0,0,0,0,-1,1581,834,0,0
364,190,0,0,0,0,0,0,0,0,0,-1,1588,834,0,0
371,190,0,0,0,0,0,0,0,0,0,-1,1595,834,0,0
378,190,0,0,0,0,0,0,0,0,0,-1,1602,834,0,0
385,190,0,0,0,0,0,0,0,0,0,-1,1609,834,0,0
392,190,0,0,0,0,0,0,0,0,0,-1,1616,834,0,0
399,190,0,0,0,0,0,0,0,0,0,-1,1623,834,0,0
406,190,0,0,0,0,0,0,0,0,0,-1,1630,834,0,0
413,190,0,0,0,0,0,0,0,0,0,-1,1637,834,0,0
420,190,0,0,0,0,0,0,0,0,0,-1,1644,834,0,0
427,190,0,0,0,0,0,0,0,0,0,-1,1651,834,0,0
434,190,0,0,0,0,0,0,0,0,0,-1,1658,834,0,0
441,190,0,0,0,0,0,0,0,0,0,-1,1665,834,0,0
448,190,0,0,0,0,0,0,0,0,0,-1,1672,834,0,0
455,190,0,0,0,0,0,0,0,0,0,-1,1679,834,0,0
462,190,0,0,0,0,0,0,0,0,0,-1,1686,834,0,0
469,190,0,0,0,0,0,0,0,0,0,-1,1693,834,0,0
476,190,0,0,0,0,0,0,0,0,0,-1,1700,834,0,0
483,190,0,0,0,0,0,0,0,0,0,-1,1707,834,0,0
490,190,0,0,0,0,0,0,0,0,0,-1,1714,834,0,0
497,190,0,0,0,0,0,0,0,0,0,-1,1721,834,0,0
504,190,0,0,0,0,0,0,0,0,0,-1,1728,834,0,0
511,190,0,0,0,0,0,0,0,0,0,-1,1735,834,0,0
518,190,0,0,0,0,0,0,0,0,0,-1,1742,834,0,0
525,190,0,0,0,0,0,0,0,0,0,-1,1749,834,0,0
532,190,0,0,0,0,0,0,0,0,0,-1,1756,834,0,0
539,190,0,0,0,0,0,0,0,0,0,-1,1763,834,0,0
546,190,0,0,0,0,0,0,0,0,0,-1,1770,834,0,0
553,190,0,0,0,0,0,0,0,0,0,-1,1777,834,0,0
560,190,0,0,0,0,0,0,0,0,0,-1,1784,834,0,0
567,190,0,0,0,0,0,0,0,0,0,-1,1791,834,0,0
574,190,0,0,0,0,0,0,0,0,0,-1,1798,834,0,0
581,190,0,0,0,0,0,0,0,0,0,-1,1805,834,0,0
588,190,0,0,0,0,0,0,0,0,0,-1,1812,834,0,0
595,190,0,0,0,0,0,0,0,0,0,-1,1819,834,0,0
602,190,30.7415,2.81238,-0.0100116,0.00139734,0.00197689,0.00173017,-0.0103444,1.404,0.00753946,0.0445001,1826,834,30.7415,-2.8124
609,190,30.6362,2.71161,-0.00651449,0.00185093,0.00198947,0.00229996,-0.00696352,1.34881,0.00556961,0.0421833,1833,834,30.6363,-2.7116
616,190,30.3206,2.95361,-0.00352411,0.0016455,0.00153017,0.00206446,-0.00394308,1.30354,0.00352453,0.040479,1840,834,30.3205,-2.95362
623,190,30.2267,3.02258,-0.00138044,0.00115546,0.000857307,0.00141809,-0.00164307,1.27353,0.00176895,0.0379447,1847,834,30.2267,-3.02258
630,190,30.4006,3.01154,3.11816e-05,0.000536038,0.000165436,0.00058542,-1.81998e-05,1.28072,0.000396486,0.0383931,1854,834,30.4006,-3.01154
637,190,30.5339,2.92493,0.000720532,-0.000121388,-0.000384017,0.000869376,-0.000270232,-0.369769,0.000687596,0.0334535,1861,834,30.534,-2.92495
644,190,30.5939,2.90802,0.00096229,-0.000705499,-0.000750993,0.00125061,-0.000993822,-0.366569,0.00129865,0.0278787,1868,834,30.5939,-2.90803
651,190,30.6816,2.91156,0.00100175,-0.00115205,-0.00103306,0.00141714,-0.00156744,-0.382312,0.00172387,0.0383396,1875,834,30.6816,-2.91155
658,190,30.8751,2.6897,0,0,0,0,0,0,0,-1,1882,834,30.8752,-2.68971
665,190,25.9916,3.05157,0,0,0,0,0,0,0,-1,1889,834,25.9916,-3.05156
672,190,24.1152,1.86639,0,0,0,0,0,0,0,-1,1896,834,24.1153,-1.86641
679,190,24.1427,2.2948,0,0,0,0,0,0,0,-1,1903,834,24.1427,-2.29481
686,190,24.187,2.34344,0.000586424,-0.00178215,-0.00140224,0.00123757,-0.0024333,-0.434733,0.00215653,0.0185095,1910,834,24.187,-2.34343
693,190,24.2162,2.61505,0.000422296,-0.00167361,-0.00130438,0.00104755,-0.00229886,-0.44699,0.00197656,0.0127574,1917,834,24.2162,-2.61507
700,190,24.1893,2.94061,0.000662766,-0.00160608,-0.00131119,0.00126217,-0.00220548,-0.428777,0.00202659,0.0113508,1924,834,24.1893,-2.94061
707,190,24.2026,3.25,0.00128953,-0.00115621,-0.00104043,0.00167225,-0.00153892,-0.352482,0.0018545,0.0130606,1931,834,24.2027,-3.25002
714,190,24.2046,3.55029,0.00265115,-0.000413553,-0.000680931,0.00279564,-0.000558033,-0.209081,0.00207493,0.0115647,1938,834,24.2046,-3.55028
721,190,24.1841,3.87366,0.00474381,0.000358831,-0.000382108,0.00477686,0.000325784,-0.0862737,0.00308172,0.0107866,1945,834,24.1841,-3.87363
728,190,24.1752,4.17987,0.00735646,0.000970941,-7.42296e-05,0.00735732,0.000970078,-0.0116226,0.00461563,0.0129238,1952,834,24.1752,-4.17988
735,190,24.1853,4.48358,0.010564,0.00155354,0.000347437,0.0105774,0.00154016,0.0384832,0.00659838,0.0120919,1959,834,24.1852,-4.48361
742,190,24.1393,4.85852,0.0145015,0.00200382,0.000977582,0.0145775,0.00192782,0.0775924,0.0091437,0.015339,1966,834,24.1393,-4.85852
749,190,24.2074,5.31909,0,0,0,0,0,0,0,-1,1973,834,24.2074,-5.31911
756,190,23.4907,5.34198,0,0,0,0,0,0,0,-1,1980,834,23.4908,-5.342
763,190,24.7756,6.38629,0,0,0,0,0,0,0,-1,1987,834,24.7757,-6.38632
770,190,23.4988,6.09418,0,0,0,0,0,0,0,-1,1994,834,23.4987,-6.09419
777,190,25.7788,6.98248,0,0,0,0,0,0,0,-1,2001,834,25.7788,-6.98246
784,190,0,0,0,0,0,0,0,0,0,-1,2008,834,0,0
791,190,0,0,0,0,0,0,0,0,0,-1,2015,834,0,0
798,190,0,0,0,0,0,0,0,0,0,-1,2022,834,0,0
805,190,0,0,0,0,0,0,0,0,0,-1,2029,834,0,0
812,190,0,0,0,0,0,0,0,0,0,-1,2036,834,0,0
-700,183,0,0,0,0,0,0,0,0,0,-1,524,841,0,0
-693,183,0,0,0,0,0,0,0,0,0,-1,531,841,0,0
-686,183,0,0,0,0,0,0,0,0,0,-1,538,841,0,0
-679,183,0,0,0,0,0,0,0,0,0,-1,545,841,0,0
-672,183,0,0,0,0,0,0,0,0,0,-1,552,841,0,0
-665,183,0,0,0,0,0,0,0,0,0,-1,559,841,0,0
-658,183,-14.6896,2.48175,0,0,0,0,0,0,0,-1,566,841,-14.6896,-2.48174
-651,183,-14.8865,2.82581,0,0,0,0,0,0,0,-1,573,841,-14.8866,-2.82582
-644,183,-14.7916,3.24792,-0.0172028,0.00329889,0.0189773,0.014617,-0.0285208,1.03303,0.0253332,0.0487573,580,841,-14.7916,-3.24794
-637,183,-14.8513,3.45575,-0.0156822,0.00320118,0.017222,0.0133999,-0.0258808,1.03614,0.0230572,0.0492027,587,841,-14.8513,-3.45576
-630,183,-15.3858,3.09369,-0.0135631,0.00286415,0.0144304,0.0112547,-0.0219537,1.04413,0.0195017,0.0428147,594,841,-15.3858,-3.09368
-623,183,-16.0934,2.81104,-0.0111965,0.00244118,0.0114032,0.00890878,-0.0176641,1.05486,0.015617,0.0437474,601,841,-16.0934,-2.81106
-616,183,-16.6286,2.42792,0,0,0,0,0,0,0,-1,608,841,-16.6286,-2.42794
-609,183,-16.3973,2.25494,-0.00688104,0.00109037,0.00602056,0.00432499,-0.0101157,1.07779,0.00855783,0.0169101,615,841,-16.3973,-2.25496
-602,183,-16.4106,1.97443,-0.00509602,0.00116707,0.00414123,0.00322748,-0.00715643,1.10912,0.00613653,0.0119606,622,841,-16.4106,-1.97443
-595,183,-16.4188,1.67664,-0.00326475,0.000878841,0.00265387,0.00217385,-0.00455976,1.11682,0.00396816,0.0111013,629,841,-16.4187,-1.67662
-588,183,-16.416,1.3653,-0.00156493,0.000406329,0.00161951,0.00131656,-0.00247515,1.05876,0.00222295,0.0111719,636,841,-16.416,-1.36532
-581,183,-16.4332,1.07373,-0.000693737,0.000552079,0.00120255,0.00128348,-0.00142513,1.02437,0.00156453,0.0115558,643,841,-16.4332,-1.07371
-574,183,-16.4229,0.795959,-0.000400326,0.000576131,0.000952631,0.00115836,-0.000982552,1.0222,0.00123744,0.0116328,650,841,-16.4229,-0.795934
-567,183,-16.3514,0.49646,-0.00051698,0.000615547,0.00101061,0.00120773,-0.00110916,1.04076,0.00133806,0.0259691,657,841,-16.3514,-0.49645
-560,183,-16.5244,0.27533,-0.000846498,0.000850156,0.00102192,0.00132998,-0.00132632,1.13182,0.00153362,0.0308927,664,841,-16.5244,-0.275327
-553,183,-16.7614,-0.167175,0,0,0,0,0,0,0,-1,671,841,-16.7613,0.167204
-546,183,-16.7112,-0.406738,0,0,0,0,0,0,0,-1,678,841,-16.7112,0.406755
-539,183,-16.8032,-0.417297,0,0,0,0,0,0,0,-1,685,841,-16.8032,0.41732
-532,183,-20.7349,2.21777,0,0,0,0,0,0,0,-1,692,841,-20.7349,-2.21775
-525,183,-21.3795,1.27972,0,0,0,0,0,0,0,-1,699,841,-21.3795,-1.27973
-518,183,-21.5256,1.07666,0.00207103,0.00115706,0.00215771,0.00381962,-0.000591524,0.681044,0.00276476,0.0477646,706,841,-21.5256,-1.07667
-511,183,-21.5403,1.02075,0.00334362,0.000872264,0.00224056,0.00466665,-0.000450766,0.533399,0.00327172,0.0419532,713,841,-21.5403,-1.02075
-504,183,-21.5275,1.31488,0.0051795,0.000304823,0.00202294,0.00590963,-0.000425312,0.346377,0.00408891,0.0411836,720,841,-21.5275,-1.3149
-497,183,-21.5348,1.65814,0.00756832,-0.000571004,0.00109026,0.00771183,-0.000714512,0.130876,0.00539519,0.0432884,727,841,-21.5348,-1.65816
-490,183,-21.3395,1.54639,0.0105392,-0.00159938,-0.000872206,0.0106016,-0.00166174,-0.0713652,0.00768178,0.0430221,734,841,-21.3395,-1.5464
-483,183,0,0,0,0,0,0,0,0,0,-1,741,841,0,0
-476,183,0,0,0,0,0,0,0,0,0,-1,748,841,0,0
-469,183,0,0,0,0,0,0,0,0,0,-1,755,841,0,0
-462,183,0,0,0,0,0,0,0,0,0,-1,762,841,0,0
-455,183,0,0,0,0,0,0,0,0,0,-1,769,841,0,0
-448,183,0,0,0,0,0,0,0,0,0,-1,776,841,0,0
-441,183,0,0,0,0,0,0,0,0,0,-1,783,841,0,0
-434,183,0,0,0,0,0,0,0,0,0,-1,790,841,0,0
-427,183,0,0,0,0,0,0,0,0,0,-1,797,841,0,0
-420,183,0,0,0,0,0,0,0,0,0,-1,804,841,0,0
-413,183,0,0,0,0,0,0,0,0,0,-1,811,841,0,0
-406,183,0,0,0,0,0,0,0,0,0,-1,818,841,0,0
-399,183,0,0,0,0,0,0,0,0,0,-1,825,841,0,0
-392,183,0,0,0,0,0,0,0,0,0,-1,832,841,0,0
-385,183,0,0,0,0,0,0,0,0,0,-1,839,841,0,0
-378,183,0,0,0,0,0,0,0,0,0,-1,846,841,0,0
-371,183,0,0,0,0,0,0,0,0,0,-1,853,841,0,0
-364,183,0,0,0,0,0,0,0,0,0,-1,860,841,0,0
-357,183,0,0,0,0,0,0,0,0,0,-1,867,841,0,0
-350,183,0,0,0,0,0,0,0,0,0,-1,874,841,0,0
-343,183,0,0,0,0,0,0,0,0,0,-1,881,841,0,0
-336,183,0,0,0,0,0,0,0,0,0,-1,888,841,0,0
-329,183,0,0,0,0,0,0,0,0,0,-1,895,841,0,0
-322,183,0,0,0,0,0,0,0,0,0,-1,902,841,0,0
-315,183,0,0,0,0,0,0,0,0,0,-1,909,841,0,0
-308,183,0,0,0,0,0,0,0,0,0,-1,916,841,0,0
-301,183,0,0,0,0,0,0,0,0,0,-1,923,841,0,0
-294,183,0,0,0,0,0,0,0,0,0,-1,930,841,0,0
-287,183,0,0,0,0,0,0,0,0,0,-1,937,841,0,0
-280,183,0,0,0,0,0,0,0,0,0,-1,944,841,0,0
-273,183,0,0,0,0,0,0,0,0,0,-1,951,841,0,0
-266,183,0,0,0,0,0,0,0,0,0,-1,958,841,0,0
-259,183,0,0,0,0,0,0,0,0,0,-1,965,841,0,0
-252,183,0,0,0,0,0,0,0,0,0,-1,972,841,0,0
-245,183,0,0,0,0,0,0,0,0,0,-1,979,841,0,0
-238,183,0,0,0,0,0,0,0,0,0,-1,986,841,0,0
-231,183,0,0,0,0,0,0,0,0,0,-1,993,841,0,0
-224,183,0,0,0,0,0,0,0,0,0,-1,1000,841,0,0
-217,183,0,0,0,0,0,0,0,0,0,-1,1007,841,0,0
-210,183,0,0,0,0,0,0,0,0,0,-1,1014,841,0,0
-203,183,0,0,0,0,0,0,0,0,0,-1,1021,841,0,0
-196,183,0,0,0,0,0,0,0,0,0,-1,1028,841,0,0
-189,183,0,0,0,0,0,0,0,0,0,-1,1035,841,0,0
-182,183,0,0,0,0,0,0,0,0,0,-1,1042,841,0,0
-175,183,0,0,0,0,0,0,0,0,0,-1,1049,841,0,0
-168,183,0,0,0,0,0,0,0,0,0,-1,1056,841,0,0
-161,183,0,0,0,0,0,0,0,0,0,-1,1063,841,0,0
-154,183,0,0,0,0,0,0,0,0,0,-1,1070,841,0,0
-147,183,0,0,0,0,0,0,0,0,0,-1,1077,841,0,0
-140,183,0,0,0,0,0,0,0,0,0,-1,1084,841,0,0
-133,183,0,0,0,0,0,0,0,0,0,-1,1091,841,0,0
-126,183,0,0,0,0,0,0,0,0,0,-1,1098,841,0,0
-119,183,0,0,0,0,0,0,0,0,0,-1,1105,841,0,0
-112,183,0,0,0,0,0,0,0,0,0,-1,1112,841,0,0
-105,183,0,0,0,0,0,0,0,0,0,-1,1119,841,0,0
-98,183,0,0,0,0,0,0,0,0,0,-1,1126,841,0,0
-91,183,0,0,0,0,0,0,0,0,0,-1,1133,841,0,0
-84,183,0,0,0,0,0,0,0,0,0,-1,1140,841,0,0
-77,183,0,0,0,0,0,0,0,0,0,-1,1147,841,0,0
-70,183,0,0,0,0,0,0,0,0,0,-1,1154,841,0,0
-63,183,0,0,0,0,0,0,0,0,0,-1,1161,841,0,0
-56,183,0,0,0,0,0,0,0,0,0,-1,1168,841,0,0
-49,183,0,0,0,0,0,0,0,0,0,-1,1175,841,0,0
-42,183,0,0,0,0,0,0,0,0,0,-1,1182,841,0,0
-35,183,0,0,0,0,0,0,0,0,0,-1,1189,841,0,0
-28,183,0,0,0,0,0,0,0,0,0,-1,1196,841,0,0
-21,183,0,0,0,0,0,0,0,0,0,-1,1203,841,0,0
-14,183,0,0,0,0,0,0,0,0,0,-1,1210,841,0,0
-7,183,0,0,0,0,0,0,0,0,0,-1,1217,841,0,0
0,183,0,0,0,0,0,0,0,0,0,-1,1224,841,0,0
7,183,0,0,0,0,0,0,0,0,0,-1,1231,841,0,0
14,183,0,0,0,0,0,0,0,0,0,-1,1238,841,0,0
21,183,0,0,0,0,0,0,0,0,0,-1,1245,841,0,0
28,183,0,0,0,0,0,0,0,0,0,-1,1252,841,0,0
35,183,0,0,0,0,0,0,0,0,0,-1,1259,841,0,0
42,183,0,0,0,0,0,0,0,0,0,-1,1266,841,0,0
49,183,0,0,0,0,0,0,0,0,0,-1,1273,841,0,0
56,183,0,0,0,0,0,0,0,0,0,-1,1280,841,0,0
63,183,0,0,0,0,0,0,0,0,0,-1,1287,841,0,0
70,183,0,0,0,0,0,0,0,0,0,-1,1294,841,0,0
77,183,0,0,0,0,0,0,0,0,0,-1,1301,841,0,0
84,183,0,0,0,0,0,0,0,0,0,-1,1308,841,0,0
91,183,0,0,0,0,0,0,0,0,0,-1,1315,841,0,0
98,183,0,0,0,0,0,0,0,0,0,-1,1322,841,0,0
105,183,0,0,0,0,0,0,0,0,0,-1,1329,841,0,0
112,183,0,0,0,0,0,0,0,0,0,-1,1336,841,0,0
119,183,0,0,0,0,0,0,0,0,0,-1,1343,841,0,0
126,183,0,0,0,0,0,0,0,0,0,-1,1350,841,0,0
133,183,0,0,0,0,0,0,0,0,0,-1,1357,841,0,0
140,183,0,0,0,0,0,0,0,0,0,-1,1364,841,0,0
147,183,0,0,0,0,0,0,0,0,0,-1,1371,841,0,0
154,183,0,0,0,0,0,0,0,0,0,-1,1378,841,0,0
161,183,0,0,0,0,0,0,0,0,0,-1,1385,841,0,0
168,183,0,0,0,0,0,0,0,0,0,-1,1392,841,0,0
175,183,0,0,0,0,0,0,0,0,0,-1,1399,841,0,0
182,183,0,0,0,0,0,0,0,0,0,-1,1406,841,0,0
189,183,0,0,0,0,0,0,0,0,0,-1,1413,841,0,0
196,183,0,0,0,0,0,0,0,0,0,-1,1420,841,0,0
203,183,0,0,0,0,0,0,0,0,0,-1,1427,841,0,0
210,183,0,0,0,0,0,0,0,0,0,-1,1434,841,0,0
217,183,0,0,0,0,0,0,0,0,0,-1,1441,841,0,0
224,183,0,0,0,0,0,0,0,0,0,-1,1448,841,0,0
231,183,0,0,0,0,0,0,0,0,0,-1,1455,841,0,0
238,183,0,0,0,0,0,0,0,0,0,-1,1462,841,0,0
245,183,0,0,0,0,0,0,0,0,0,-1,1469,841,0,0
252,183,0,0,0,0,0,0,0,0,0,-1,1476,841,0,0
259,183,0,0,0,0,0,0,0,0,0,-1,1483,841,0,0
266,183,0,0,0,0,0,0,0,0,0,-1,1490,841,0,0
273,183,0,0,0,0,0,0,0,0,0,-1,1497,841,0,0
280,183,0,0,0,0,0,0,0,0,0,-1,1504,841,0,0
287,183,0,0,0,0,0,0,0,0,0,-1,1511,841,0,0
294,183,0,0,0,0,0,0,0,0,0,-1,1518,841,0,0
301,183,0,0,0,0,0,0,0,0,0,-1,1525,841,0,0
308,183,0,0,0,0,0,0,0,0,0,-1,1532,841,0,0
315,183,0,0,0,0,0,0,0,0,0,-1,1539,841,0,0
322,183,0,0,0,0,0,0,0,0,0,-1,1546,841,0,0
329,183,0,0,0,0,0,0,0,0,0,-1,1553,841,0,0
336,183,0,0,0,0,0,0,0,0,0,-1,1560,841,0,0
343,183,0,0,0,0,0,0,0,0,0,-1,1567,841,0,0
350,183,0,0,0,0,0,0,0,0,0,-1,1574,841,0,0
357,183,0,0,0,0,0,0,0,0,0,-1,1581,841,0,0
364,183,0,0,0,0,0,0,0,0,0,-1,1588,841,0,0
371,183,0,0,0,0,0,0,0,0,0,-1,1595,841,0,0
378,183,0,0,0,0,0,0,0,0,0,-1,1602,841,0,0
385,183,0,0,0,0,0,0,0,0,0,-1,1609,841,0,0
392,183,0,0,0,0,0,0,0,0,0,-1,1616,841,0,0
399,183,0,0,0,0,0,0,0,0,0,-1,1623,841,0,0
406,183,0,0,0,0,0,0,0,0,0,-1,1630,841,0,0
413,183,0,0,0,0,0,0,0,0,0,-1,1637,841,0,0
420,183,0,0,0,0,0,0,0,0,0,-1,1644,841,0,0
427,183,0,0,0,0,0,0,0,0,0,-1,1651,841,0,0
434,183,0,0,0,0,0,0,0,0,0,-1,1658,841,0,0
441,183,0,0,0,0,0,0,0,0,0,-1,1665,841,0,0
448,183,0,0,0,0,0,0,0,0,0,-1,1672,841,0,0
455,183,0,0,0,0,0,0,0,0,0,-1,1679,841,0,0
462,183,0,0,0,0,0,0,0,0,0,-1,1686,841,0,0
469,183,0,0,0,0,0,0,0,0,0,-1,1693,841,0,0
476,183,0,0,0,0,0,0,0,0,0,-1,1700,841,0,0
483,183,0,0,0,0,0,0,0,0,0,-1,1707,841,0,0
490,183,0,0,0,0,0,0,0,0,0,-1,1714,841,0,0
497,183,0,0,0,0,0,0,0,0,0,-1,1721,841,0,0
504,183,0,0,0,0,0,0,0,0,0,-1,1728,841,0,0
511,183,0,0,0,0,0,0,0,0,0,-1,1735,841,0,0
518,183,0,0,0,0,0,0,0,0,0,-1,1742,841,0,0
525,183,0,0,0,0,0,0,0,0,0,-1,1749,841,0,0
532,183,0,0,0,0,0,0,0,0,0,-1,1756,841,0,0
539,183,0,0,0,0,0,0,0,0,0,-1,1763,841,0,0
546,183,0,0,0,0,0,0,0,0,0,-1,1770,841,0,0
553,183,0,0,0,0,0,0,0,0,0,-1,1777,841,0,0
560,183,0,0,0,0,0,0,0,0,0,-1,1784,841,0,0
567,183,0,0,0,0,0,0,0,0,0,-1,1791,841,0,0
574,183,0,0,0,0,0,0,0,0,0,-1,1798,841,0,0
581,183,0,0,0,0,0,0,0,0,0,-1,1805,841,0,0
588,183,0,0,0,0,0,0,0,0,0,-1,1812,841,0,0
595,183,0,0,0,0,0,0,0,0,0,-1,1819,841,0,0
602,183,0,0,0,0,0,0,0,0,0,-1,1826,841,0,0
609,183,30.431,3.146,-0.00861943,0.00139378,0.00194792,0.00175937,-0.00898502,1.38527,0.00665445,0.0410626,1833,841,30.4311,-3.14601
616,183,30.3551,3.35059,-0.00505876,0.0010957,0.00143511,0.00141389,-0.00537696,1.35261,0.00413727,0.0388836,1840,841,30.3551,-3.35057
623,183,30.3514,3.28418,-0.00232183,0.000657212,0.000777141,0.000847758,-0.00251237,1.33035,0.00201776,0.0415609,1847,841,30.3514,-3.28419
630,183,30.4069,3.17737,-0.000355379,0.000139599,0.000109228,0.000162631,-0.000378411,1.36298,0.000320544,0.0409454,1854,841,30.4068,-3.1774
637,183,30.52,2.93481,0.000716396,-0.000436778,-0.000431045,0.000859707,-0.000580089,-0.320975,0.000836476,0.0353696,1861,841,30.52,-2.93481
644,183,30.5044,2.88489,0.00116662,-0.000944658,-0.000777631,0.00142212,-0.00120016,-0.317449,0.00151578,0.0274638,1868,841,30.5044,-2.88491
651,183,30.5861,2.90698,0.00127471,-0.00132265,-0.00102208,0.00162867,-0.00167661,-0.333387,0.00190837,0.0244515,1875,841,30.5861,-2.90698
658,183,30.7539,2.76105,0.00133814,-0.00156441,-0.00113574,0.00172971,-0.00195599,-0.332015,0.00212928,0.0432904,1882,841,30.7539,-2.76102
665,183,30.9092,2.60956,0,0,0,0,0,0,0,-1,1889,841,30.9092,-2.60955
672,183,24.6503,1.98303,0,0,0,0,0,0,0,-1,1896,841,24.6503,-1.98305
679,183,24.6296,2.15265,0,0,0,0,0,0,0,-1,1903,841,24.6296,-2.15264
686,183,24.5978,2.34259,0.000561212,-0.00166938,-0.00123383,0.00110911,-0.00221728,-0.417907,0.00195569,0.0212759,1910,841,24.5978,-2.34261
693,183,24.5901,2.6438,0.000273743,-0.00151193,-0.00110057,0.00079809,-0.00203627,-0.444617,0.00168767,0.016734,1917,841,24.5901,-2.64379
700,183,24.5366,2.96545,0.000263403,-0.00135667,-0.0010705,0.000795798,-0.00188907,-0.461513,0.00159237,0.0155083,1924,841,24.5366,-2.96545
707,183,24.5177,3.26904,0.000563977,-0.000827648,-0.000754899,0.000894823,-0.00115849,-0.413053,0.00118874,0.0119898,1931,841,24.5178,-3.26902
714,183,24.5192,3.56476,0.00147479,0.000109593,-0.000267026,0.00152516,5.92222e-05,-0.186444,0.000997618,0.0156616,1938,841,24.5191,-3.56474
721,183,24.4971,3.88092,0.00302593,0.00125826,0.000281677,0.00306973,0.00121446,0.154261,0.00178513,0.0141527,1945,841,24.497,-3.88093
728,183,24.4902,4.18292,0.00485008,0.00225534,0.000935836,0.00515239,0.00195304,0.31245,0.0030036,0.0119356,1952,841,24.4903,-4.1829
735,183,24.4999,4.47113,0.00697832,0.00311273,0.0017847,0.00767628,0.00241477,0.372792,0.00453235,0.0117912,1959,841,24.4999,-4.47111
742,183,24.4899,4.79163,0.00923296,0.00362069,0.0029513,0.0104992,0.00235441,0.405303,0.00636161,0.0112319,1966,841,24.4899,-4.79162
749,183,24.3978,5.32367,0.0120208,0.00421874,0.00445356,0.0140403,0.00219928,0.425717,0.00872004,0.0324516,1973,841,24.3978,-5.32367
756,183,24.3125,5.88593,0,0,0,0,0,0,0,-1,1980,841,24.3125,-5.8859
763,183,25.4613,6.25555,0,0,0,0,0,0,0,-1,1987,841,25.4612,-6.25558
770,183,26.5038,6.23242,0,0,0,0,0,0,0,-1,1994,841,26.5038,-6.23241
777,183,26.3062,6.93634,0,0,0,0,0,0,0,-1,2001,841,26.3061,-6.93631
784,183,0,0,0,0,0,0,0,0,0,-1,2008,841,0,0
791,183,0,0,0,0,0,0,0,0,0,-1,2015,841,0,0
798,183,0,0,0,0,0,0,0,0,0,-1,2022,841,0,0
805,183,0,0,0,0,0,0,0,0,0,-1,2029,841,0,0
812,183,0,0,0,0,0,0,0,0,0,-1,2036,841,0,0
-700,176,0,0,0,0,0,0,0,0,0,-1,524,848,0,0
-693,176,0,0,0,0,0,0,0,0,0,-1,531,848,0,0
-686,176,0,0,0,0,0,0,0,0,0,-1,538,848,0,0
-679,176,0,0,0,0,0,0,0,0,0,-1,545,848,0,0
-672,176,0,0,0,0,0,0,0,0,0,-1,552,848,0,0
-665,176,-15.9865,2.21814,0,0,0,0,0,0,0,-1,559,848,-15.9865,-2.21811
-658,176,-18.0312,3.37195,0,0,0,0,0,0,0,-1,566,848,-18.0312,-3.37194
-651,176,-13.6311,3.26465,0,0,0,0,0,0,0,-1,573,848,-13.6311,-3.26468
-644,176,-13.9028,3.53003,-0.0174192,0.00838696,0.0282652,0.026555,-0.0355872,0.999521,0.0360039,0.0466443,580,848,-13.9028,-3.53001
-637,176,-14.3864,3.4278,-0.0157399,0.00693957,0.0245034,0.0225999,-0.0314002,1.00211,0.0313147,0.0486611,587,848,-14.3864,-3.42781
-630,176,-14.8219,3.14948,-0.0136294,0.00560627,0.0200665,0.0182408,-0.0262639,1.00887,0.0258336,0.0432903,594,848,-14.8219,-3.14947
-623,176,-15.8558,2.59033,0,0,0,0,0,0,0,-1,601,848,-15.8558,-2.59033
-616,176,-16.6906,2.47876,-0.00892298,0.00232571,0.0111413,0.00918179,-0.0157791,1.01915,0.014578,0.0281185,608,848,-16.6905,-2.47873
-609,176,-16.7052,2.26038,-0.00715259,0.00181676,0.00804686,0.00654426,-0.0118801,1.03962,0.010785,0.0125612,615,848,-16.7052,-2.26038
-602,176,-16.7303,1.95544,-0.00534524,0.00165715,0.0053519,0.00455136,-0.00823945,1.07506,0.0074864,0.0131579,622,848,-16.7304,-1.95545
-595,176,-16.72,1.6626,-0.00347209,0.00127724,0.00323299,0.00291397,-0.00510882,1.10215,0.00468938,0.0117717,629,848,-16.72,-1.66262
-588,176,-16.7106,1.36676,-0.00171446,0.00066322,0.00182897,0.00165577,-0.00270702,1.07359,0.00254312,0.0122764,636,848,-16.7106,-1.36674
-581,176,-16.7329,1.10724,-0.000810623,0.00078168,0.00122752,0.00144863,-0.00147757,1.07309,0.00168947,0.0113582,643,848,-16.7329,-1.10726
-574,176,-16.7405,0.825195,-0.000474762,0.000746692,0.000927317,0.00124633,-0.000974398,1.0766,0.00128534,0.0137921,650,848,-16.7405,-0.825193
-567,176,-16.6507,0.625061,-0.000476127,0.000761561,0.000927799,0.00125797,-0.000972531,1.07952,0.00129129,0.0343576,657,848,-16.6507,-0.625067
-560,176,-16.8297,0.296814,-0.000652826,0.000943128,0.000826874,0.00129428,-0.00100397,1.16921,0.00133042,0.026652,664,848,-16.8297,-0.296821
-553,176,-16.7109,-0.119385,-0.000652654,0.00133455,0.000890996,0.00167553,-0.000993638,1.20529,0.00155772,0.0486095,671,848,-16.7109,0.119371
-546,176,-16.3846,-0.60321,0,0,0,0,0,0,0,-1,678,848,-16.3846,0.603207
-539,176,-20.9083,1.88831,0,0,0,0,0,0,0,-1,685,848,-20.9083,-1.8883
-532,176,-21.1632,1.57043,0.000526866,0.00178566,0.00120198,0.00251306,-0.000200531,1.02659,0.00174606,0.0438966,692,848,-21.1632,-1.57044
-525,176,-21.468,1.11847,0.00106043,0.00178143,0.0013142,0.00278368,5.81868e-05,0.919261,0.0018367,0.0469049,699,848,-21.468,-1.11844
-518,176,-21.5012,1.08899,0.00177506,0.00164197,0.00135824,0.00306839,0.000348646,0.76092,0.00193985,0.0415516,706,848,-21.5011,-1.089
-511,176,-21.545,0.972839,0.00303022,0.00133238,0.00131242,0.00374435,0.000618263,0.498324,0.00231779,0.038603,713,848,-21.5451,-0.97284
-504,176,-21.4711,1.19037,0.004943,0.000657408,0.000893398,0.00512178,0.000478624,0.197508,0.00326669,0.0397857,720,848,-21.4711,-1.19039
-497,176,-21.4505,1.42981,0.00783486,-0.000352922,-0.000393592,0.00785374,-0.000371798,-0.0479234,0.00536405,0.041733,727,848,-21.4505,-1.42982
-490,176,-21.4241,1.60187,0.0115214,-0.00148592,-0.00261469,0.0120273,-0.00199184,-0.19113,0.00875797,0.0421421,734,848,-21.4241,-1.60184
-483,176,0,0,0,0,0,0,0,0,0,-1,741,848,0,0
-476,176,0,0,0,0,0,0,0,0,0,-1,748,848,0,0
-469,176,0,0,0,0,0,0,0,0,0,-1,755,848,0,0
-462,176,0,0,0,0,0,0,0,0,0,-1,762,848,0,0
-455,176,0,0,0,0,0,0,0,0,0,-1,769,848,0,0
-448,176,0,0,0,0,0,0,0,0,0,-1,776,848,0,0
-441,176,0,0,0,0,0,0,0,0,0,-1,783,848,0,0
-434,176,0,0,0,0,0,0,0,0,0,-1,790,848,0,0
-427,176,0,0,0,0,0,0,0,0,0,-1,797,848,0,0
-420,176,0,0,0,0,0,0,0,0,0,-1,804,848,0,0
-413,176,0,0,0,0,0,0,0,0,0,-1,811,848,0,0
-406,176,0,0,0,0,0,0,0,0,0,-1,818,848,0,0
-399,176,0,0,0,0,0,0,0,0,0,-1,825,848,0,0
-392,176,0,0,0,0,0,0,0,0,0,-1,832,848,0,0
-385,176,0,0,0,0,0,0,0,0,0,-1,839,848,0,0
-378,176,0,0,0,0,0,0,0,0,0,-1,846,848,0,0
-371,176,0,0,0,0,0,0,0,0,0,-1,853,848,0,0
-364,176,0,0,0,0,0,0,0,0,0,-1,860,848,0,0
-357,176,0,0,0,0,0,0,0,0,0,-1,867,848,0,0
-350,176,0,0,0,0,0,0,0,0,0,-1,874,848,0,0
-343,176,0,0,0,0,0,0,0,0,0,-1,881,848,0,0
-336,176,0,0,0,0,0,0,0,0,0,-1,888,848,0,0
-329,176,0,0,0,0,0,0,0,0,0,-1,895,848,0,0
-322,176,0,0,0,0,0,0,0,0,0,-1,902,848,0,0
-315,176,0,0,0,0,0,0,0,0,0,-1,909,848,0,0
-308,176,0,0,0,0,0,0,0,0,0,-1,916,848,0,0
-301,176,0,0,0,0,0,0,0,0,0,-1,923,848,0,0
-294,176,0,0,0,0,0,0,0,0,0,-1,930,848,0,0
-287,176,0,0,0,0,0,0,0,0,0,-1,937,848,0,0
-280,176,0,0,0,0,0,0,0,0,0,-1,944,848,0,0
-273,176,0,0,0,0,0,0,0,0,0,-1,951,848,0,0
-266,176,0,0,0,0,0,0,0,0,0,-1,958,848,0,0
-259,176,0,0,0,0,0,0,0,0,0,-1,965,848,0,0
-252,176,0,0,0,0,0,0,0,0,0,-1,972,848,0,0
-245,176,0,0,0,0,0,0,0,0,0,-1,979,848,0,0
-238,176,0,0,0,0,0,0,0,0,0,-1,986,848,0,0
-231,176,0,0,0,0,0,0,0,0,0,-1,993,848,0,0
-224,176,0,0,0,0,0,0,0,0,0,-1,1000,848,0,0
-217,176,0,0,0,0,0,0,0,0,0,-1,1007,848,0,0
-210,176,0,0,0,0,0,0,0,0,0,-1,1014,848,0,0
-203,176,0,0,0,0,0,0,0,0,0,-1,1021,848,0,0
-196,176,0,0,0,0,0,0,0,0,0,-1,1028,848,0,0
-189,176,0,0,0,0,0,0,0,0,0,-1,1035,848,0,0
-182,176,0,0,0,0,0,0,0,0,0,-1,1042,848,0,0
-175,176,0,0,0,0,0,0,0,0,0,-1,1049,848,0,0
-168,176,0,0,0,0,0,0,0,0,0,-1,1056,848,0,0
-161,176,0,0,0,0,0,0,0,0,0,-1,1063,848,0,0
-154,176,0,0,0,0,0,0,0,0,0,-1,1070,848,0,0
-147,176,0,0,0,0,0,0,0,0,0,-1,1077,848,0,0
-140,176,0,0,0,0,0,0,0,0,0,-1,1084,848,0,0
-133,176,0,0,0,0,0,0,0,0,0,-1,1091,848,0,0
-126,176,0,0,0,0,0,0,0,0,0,-1,1098,848,0,0
-119,176,0,0,0,0,0,0,0,0,0,-1,1105,848,0,0
-112,176,0,0,0,0,0,0,0,0,0,-1,1112,848,0,0
-105,176,0,0,0,0,0,0,0,0,0,-1,1119,848,0,0
-98,176,0,0,0,0,0,0,0,0,0,-1,1126,848,0,0
-91,176,0,0,0,0,0,0,0,0,0,-1,1133,848,0,0
-84,176,0,0,0,0,0,0,0,0,0,-1,1140,848,0,0
-77,176,0,0,0,0,0,0,0,0,0,-1,1147,848,0,0
-70,176,0,0,0,0,0,0,0,0,0,-1,1154,848,0,0
-63,176,0,0,0,0,0,0,0,0,0,-1,1161,848,0,0
-56,176,0,0,0,0,0,0,0,0,0,-1,1168,848,0,0
-49,176,0,0,0,0,0,0,0,0,0,-1,1175,848,0,0
-42,176,0,0,0,0,0,0,0,0,0,-1,1182,848,0,0
-35,176,0,0,0,0,0,0,0,0,0,-1,1189,848,0,0
-28,176,0,0,0,0,0,0,0,0,0,-1,1196,848,0,0
-21,176,0,0,0,0,0,0,0,0,0,-1,1203,848,0,0
-14,176,0,0,0,0,0,0,0,0,0,-1,1210,848,0,0
-7,176,0,0,0,0,0,0,0,0,0,-1,1217,848,0,0
0,176,0,0,0,0,0,0,0,0,0,-1,1224,848,0,0
7,176,0,0,0,0,0,0,0,0,0,-1,1231,848,0,0
14,176,0,0,0,0,0,0,0,0,0,-1,1238,848,0,0
21,176,0,0,0,0,0,0,0,0,0,-1,1245,848,0,0
28,176,0,0,0,0,0,0,0,0,0,-1,1252,848,0,0
35,176,0,0,0,0,0,0,0,0,0,-1,1259,848,0,0
42,176,0,0,0,0,0,0,0,0,0,-1,1266,848,0,0
49,176,0,0,0,0,0,0,0,0,0,-1,1273,848,0,0
56,176,0,0,0,0,0,0,0,0,0,-1,1280,848,0,0
63,176,0,0,0,0,0,0,0,0,0,-1,1287,848,0,0
70,176,0,0,0,0,0,0,0,0,0,-1,1294,848,0,0
77,176,0,0,0,0,0,0,0,0,0,-1,1301,848,0,0
84,176,0,0,0,0,0,0,0,0,0,-1,1308,848,0,0
91,176,0,0,0,0,0,0,0,0,0,-1,1315,848,0,0
98,176,0,0,0,0,0,0,0,0,0,-1,1322,848,0,0
105,176,0,0,0,0,0,0,0,0,0,-1,1329,848,0,0
112,176,0,0,0,0,0,0,0,0,0,-1,1336,848,0,0
119,176,0,0,0,0,0,0,0,0,0,-1,1343,848,0,0
126,176,0,0,0,0,0,0,0,0,0,-1,1350,848,0,0
133,176,0,0,0,0,0,0,0,0,0,-1,1357,848,0,0
140,176,0,0,0,0,0,0,0,0,0,-1,1364,848,0,0
147,176,0,0,0,0,0,0,0,0,0,-1,1371,848,0,0
154,176,0,0,0,0,0,0,0,0,0,-1,1378,848,0,0
161,176,0,0,0,0,0,0,0,0,0,-1,1385,848,0,0
168,176,0,0,0,0,0,0,0,0,0,-1,1392,848,0,0
175,176,0,0,0,0,0,0,0,0,0,-1,1399,848,0,0
182,176,0,0,0,0,0,0,0,0,0,-1,1406,848,0,0
189,176,0,0,0,0,0,0,0,0,0,-1,1413,848,0,0
196,176,0,0,0,0,0,0,0,0,0,-1,1420,848,0,0
203,176,0,0,0,0,0,0,0,0,0,-1,1427,848,0,0
210,176,0,0,0,0,0,0,0,0,0,-1,1434,848,0,0
217,176,0,0,0,0,0,0,0,0,0,-1,1441,848,0,0
224,176,0,0,0,0,0,0,0,0,0,-1,1448,848,0,0
231,176,0,0,0,0,0,0,0,0,0,-1,1455,848,0,0
238,176,0,0,0,0,0,0,0,0,0,-1,1462,848,0,0
245,176,0,0,0,0,0,0,0,0,0,-1,1469,848,0,0
252,176,0,0,0,0,0,0,0,0,0,-1,1476,848,0,0
259,176,0,0,0,0,0,0,0,0,0,-1,1483,848,0,0
266,176,0,0,0,0,0,0,0,0,0,-1,1490,848,0,0
273,176,0,0,0,0,0,0,0,0,0,-1,1497,848,0,0
280,176,0,0,0,0,0,0,0,0,0,-1,1504,848,0,0
287,176,0,0,0,0,0,0,0,0,0,-1,1511,848,0,0
294,176,0,0,0,0,0,0,0,0,0,-1,1518,848,0,0
301,176,0,0,0,0,0,0,0,0,0,-1,1525,848,0,0
308,176,0,0,0,0,0,0,0,0,0,-1,1532,848,0,0
315,176,0,0,0,0,0,0,0,0,0,-1,1539,848,0,0
322,176,0,0,0,0,0,0,0,0,0,-1,1546,848,0,0
329,176,0,0,0,0,0,0,0,0,0,-1,1553,848,0,0
336,176,0,0,0,0,0,0,0,0,0,-1,1560,848,0,0
343,176,0,0,0,0,0,0,0,0,0,-1,1567,848,0,0
350,176,0,0,0,0,0,0,0,0,0,-1,1574,848,0,0
357,176,0,0,0,0,0,0,0,0,0,-1,1581,848,0,0
364,176,0,0,0,0,0,0,0,0,0,-1,1588,848,0,0
371,176,0,0,0,0,0,0,0,0,0,-1,1595,848,0,0
378,176,0,0,0,0,0,0,0,0,0,-1,1602,848,0,0
385,176,0,0,0,0,0,0,0,0,0,-1,1609,848,0,0
392,176,0,0,0,0,0,0,0,0,0,-1,1616,848,0,0
399,176,0,0,0,0,0,0,0,0,0,-1,1623,848,0,0
406,176,0,0,0,0,0,0,0,0,0,-1,1630,848,0,0
413,176,0,0,0,0,0,0,0,0,0,-1,1637,848,0,0
420,176,0,0,0,0,0,0,0,0,0,-1,1644,848,0,0
427,176,0,0,0,0,0,0,0,0,0,-1,1651,848,0,0
434,176,0,0,0,0,0,0,0,0,0,-1,1658,848,0,0
441,176,0,0,0,0,0,0,0,0,0,-1,1665,848,0,0
448,176,0,0,0,0,0,0,0,0,0,-1,1672,848,0,0
455,176,0,0,0,0,0,0,0,0,0,-1,1679,848,0,0
462,176,0,0,0,0,0,0,0,0,0,-1,1686,848,0,0
469,176,0,0,0,0,0,0,0,0,0,-1,1693,848,0,0
476,176,0,0,0,0,0,0,0,0,0,-1,1700,848,0,0
483,176,0,0,0,0,0,0,0,0,0,-1,1707,848,0,0
490,176,0,0,0,0,0,0,0,0,0,-1,1714,848,0,0
497,176,0,0,0,0,0,0,0,0,0,-1,1721,848,0,0
504,176,0,0,0,0,0,0,0,0,0,-1,1728,848,0,0
511,176,0,0,0,0,0,0,0,0,0,-1,1735,848,0,0
518,176,0,0,0,0,0,0,0,0,0,-1,1742,848,0,0
525,176,0,0,0,0,0,0,0,0,0,-1,1749,848,0,0
532,176,0,0,0,0,0,0,0,0,0,-1,1756,848,0,0
539,176,0,0,0,0,0,0,0,0,0,-1,1763,848,0,0
546,176,0,0,0,0,0,0,0,0,0,-1,1770,848,0,0
553,176,0,0,0,0,0,0,0,0,0,-1,1777,848,0,0
560,176,0,0,0,0,0,0,0,0,0,-1,1784,848,0,0
567,176,0,0,0,0,0,0,0,0,0,-1,1791,848,0,0
574,176,0,0,0,0,0,0,0,0,0,-1,1798,848,0,0
581,176,0,0,0,0,0,0,0,0,0,-1,1805,848,0,0
588,176,0,0,0,0,0,0,0,0,0,-1,1812,848,0,0
595,176,0,0,0,0,0,0,0,0,0,-1,1819,848,0,0
602,176,0,0,0,0,0,0,0,0,0,-1,1826,848,0,0
609,176,30.4252,2.87488,-0.0105747,0.000352656,0.00176293,0.000630031,-0.0108521,1.41474,0.00745359,0.0387868,1833,848,30.4252,-2.87486
616,176,30.3267,2.97168,-0.00647866,8.91087e-05,0.00110145,0.000268907,-0.00665846,1.40899,0.00453127,0.0372917,1840,848,30.3267,-2.97171
623,176,30.423,3.20996,-0.00323144,-0.00021144,0.000448652,-0.000146197,-0.00329668,1.42639,0.00215071,0.0413459,1847,848,30.4229,-3.20998
630,176,30.5819,3.07745,-0.000747254,-0.000542878,-0.000139566,-0.000472089,-0.000818043,-1.1014,0.000474165,0.0414596,1854,848,30.582,-3.07743
637,176,30.5566,2.81256,0.000727048,-0.000930411,-0.000601294,0.000922206,-0.00112557,-0.313838,0.00118423,0.0332415,1861,848,30.5567,-2.81256
644,176,30.4135,2.88422,0.00141639,-0.00129521,-0.000883392,0.00167879,-0.00155762,-0.288737,0.00186898,0.0315762,1868,848,30.4134,-2.8842
651,176,30.5269,2.97449,0.00158456,-0.00156785,-0.00106772,0.00191216,-0.00189545,-0.297699,0.00219833,0.0321872,1875,848,30.5269,-2.97448
658,176,30.6307,2.85919,0.00161827,-0.00174431,-0.00113724,0.00196677,-0.00209281,-0.297358,0.00234418,0.037548,1882,848,30.6308,-2.85919
665,176,30.7289,2.74512,0,0,0,0,0,0,0,-1,1889,848,30.7289,-2.74511
672,176,16.9304,2.80719,0,0,0,0,0,0,0,-1,1896,848,16.9305,-2.80719
679,176,25.1367,2.05084,0,0,0,0,0,0,0,-1,1903,848,25.1367,-2.05086
686,176,25.0209,2.3924,0.000687453,-0.00168941,-0.00110356,0.00112082,-0.00212277,-0.374194,0.00190224,0.0295888,1910,848,25.0209,-2.3924
693,176,24.9296,2.72034,0.000362343,-0.00152472,-0.00097084,0.000772615,-0.00193499,-0.399832,0.00161054,0.0155045,1917,848,24.9296,-2.72034
700,176,24.8336,3.00531,0.00026989,-0.00136546,-0.000958415,0.000712037,-0.0018076,-0.432238,0.00149985,0.0163249,1924,848,24.8336,-3.00531
707,176,24.8395,3.29327,0.000502608,-0.000874273,-0.000682208,0.000783372,-0.00115504,-0.390425,0.00112598,0.013554,1931,848,24.8394,-3.29329
714,176,24.8501,3.58569,0.00135605,3.95452e-05,-0.000255792,0.001404,-8.4074e-06,-0.185316,0.000938818,0.0120894,1938,848,24.8501,-3.58568
721,176,24.8346,3.8808,0.00293665,0.0012041,0.000275203,0.00297932,0.00116144,0.153801,0.00173397,0.0110858,1945,848,24.8346,-3.88077
728,176,24.8187,4.17926,0.00478294,0.00221593,0.000910387,0.00507302,0.00192584,0.30847,0.00295707,0.0129588,1952,848,24.8187,-4.17924
735,176,24.8104,4.4707,0.00692147,0.00300171,0.00173548,0.00757942,0.00234377,0.362374,0.00448089,0.0129446,1959,848,24.8104,-4.47071
742,176,24.823,4.76953,0.00903189,0.00332201,0.00285188,0.0102123,0.00214162,0.392431,0.00621848,0.0165642,1966,848,24.8231,-4.76954
749,176,24.8143,5.06592,0.0115753,0.00363054,0.00423771,0.0134114,0.00179449,0.408851,0.00840685,0.0282067,1973,848,24.8144,-5.06589
756,176,25.3038,5.67896,0.0137465,0.00311344,0.00592039,0.0163871,0.000472807,0.419542,0.0107706,0.0446188,1980,848,25.3038,-5.67898
763,176,25.9,6.12976,0,0,0,0,0,0,0,-1,1987,848,25.9,-6.12978
770,176,26.3579,6.53101,0,0,0,0,0,0,0,-1,1994,848,26.3579,-6.53099
777,176,26.741,6.92786,0,0,0,0,0,0,0,-1,2001,848,26.7409,-6.92785
784,176,0,0,0,0,0,0,0,0,0,-1,2008,848,0,0
791,176,0,0,0,0,0,0,0,0,0,-1,2015,848,0,0
798,176,0,0,0,0,0,0,0,0,0,-1,2022,848,0,0
805,176,0,0,0,0,0,0,0,0,0,-1,2029,848,0,0
812,176,0,0,0,0,0,0,0,0,0,-1,2036,848,0,0
-700,169,0,0,0,0,0,0,0,0,0,-1,524,855,0,0
-693,169,0,0,0,0,0,0,0,0,0,-1,531,855,0,0
-686,169,0,0,0,0,0,0,0,0,0,-1,538,855,0,0
-679,169,0,0,0,0,0,0,0,0,0,-1,545,855,0,0
-672,169,0,0,0,0,0,0,0,0,0,-1,552,855,0,0
-665,169,-16.6694,2.54279,0,0,0,0,0,0,0,-1,559,855,-16.6695,-2.54276
-658,169,-16.2105,1.76874,0,0,0,0,0,0,0,-1,566,855,-16.2105,-1.76872
-651,169,-15.8058,2.80981,0,0,0,0,0,0,0,-1,573,855,-15.8058,-2.80979
-644,169,-14.8858,2.71521,0,0,0,0,0,0,0,-1,580,855,-14.8858,-2.71518
-637,169,-13.8807,3.36987,0,0,0,0,0,0,0,-1,587,855,-13.8807,-3.36989
-630,169,-17.2714,2.80927,-0.0105471,0.0074592,0.0244896,0.0245482,-0.0276361,0.961546,0.0301462,0.0459803,594,855,-17.2715,-2.80929
-623,169,-17.0386,2.65546,-0.00877144,0.00552415,0.0187971,0.0184866,-0.0217339,0.967085,0.0232465,0.0384706,601,855,-17.0386,-2.65546
-616,169,-17.0255,2.47601,-0.00694758,0.00289539,0.0132464,0.012105,-0.0161572,0.963262,0.016373,0.0214334,608,855,-17.0255,-2.47603
-609,169,-17.0197,2.2417,-0.00574407,0.00204172,0.00935084,0.00827764,-0.01198,0.982644,0.0117607,0.0135961,615,855,-17.0197,-2.24173
-602,169,-17.0239,1.95465,-0.00439394,0.00178637,0.00605876,0.00549751,-0.00810508,1.02122,0.00790141,0.0133808,622,855,-17.0238,-1.95465
-595,169,-17.0336,1.67255,-0.00330682,0.00142775,0.00348777,0.00327575,-0.00515482,1.08356,0.00490753,0.0118198,629,855,-17.0336,-1.67252
-588,169,-17.0174,1.39465,-0.00165802,0.000759234,0.00179186,0.00171198,-0.00261077,1.0821,0.00251366,0.0100602,636,855,-17.0174,-1.39467
-581,169,-17.0401,1.13788,-0.000846562,0.000856394,0.00106082,0.00136519,-0.00135536,1.12358,0.00157071,0.0111066,643,855,-17.0401,-1.13789
-574,169,-17.1365,0.853821,-0.000547468,0.000770615,0.000765655,0.0011218,-0.000898656,1.14075,0.00116888,0.015795,650,855,-17.1364,-0.853803
-567,169,-17.0178,0.660217,-0.000470875,0.000782346,0.000735871,0.00112225,-0.000810777,1.13809,0.00112085,0.0303119,657,855,-17.0178,-0.660187
-560,169,-17.0925,0.413696,-0.000534142,0.000928956,0.000564552,0.00112146,-0.000726651,1.24217,0.0010751,0.0320219,664,855,-17.0925,-0.413676
-553,169,-16.9667,-0.0441284,-0.000578645,0.00132242,0.000512991,0.00145202,-0.000708238,1.32335,0.00127163,0.0449879,671,855,-16.9667,0.0441561
-546,169,-16.5231,-0.586853,0,0,0,0,0,0,0,-1,678,855,-16.5231,0.586841
-539,169,-21.5294,1.03699,0,0,0,0,0,0,0,-1,685,855,-21.5294,-1.03697
-532,169,-21.5679,0.97644,0.000275855,0.00202159,0.00059581,0.00220555,9.18937e-05,1.27132,0.00144071,0.0356949,692,855,-21.5678,-0.976425
-525,169,-21.5709,0.937195,0.000654473,0.00212562,0.000612391,0.00234717,0.00043292,1.22366,0.0014423,0.0449182,699,855,-21.5709,-0.937195
-518,169,-21.5639,0.961609,0.00123365,0.00211221,0.000566017,0.00238941,0.000956454,1.11539,0.00138864,0.0426039,706,855,-21.5639,-0.961616
-511,169,-21.4625,0.959167,0.00246059,0.00189608,0.000377808,0.00264994,0.00170674,0.46458,0.00155097,0.0424984,713,855,-21.4625,-0.95918
-504,169,-21.4446,0.904114,0.00442453,0.00132996,-0.000269136,0.00444776,0.00130673,-0.086109,0.00263971,0.0427675,720,855,-21.4446,-0.904133
-497,169,-21.4869,0.783447,0.00792444,0.000591349,-0.00190273,0.00838874,0.000127045,-0.239343,0.00555063,0.041622,727,855,-21.4869,-0.783447
-490,169,0,0,0,0,0,0,0,0,0,-1,734,855,0,0
-483,169,0,0,0,0,0,0,0,0,0,-1,741,855,0,0
-476,169,0,0,0,0,0,0,0,0,0,-1,748,855,0,0
-469,169,0,0,0,0,0,0,0,0,0,-1,755,855,0,0
-462,169,0,0,0,0,0,0,0,0,0,-1,762,855,0,0
-455,169,0,0,0,0,0,0,0,0,0,-1,769,855,0,0
-448,169,0,0,0,0,0,0,0,0,0,-1,776,855,0,0
-441,169,0,0,0,0,0,0,0,0,0,-1,783,855,0,0
-434,169,0,0,0,0,0,0,0,0,0,-1,790,855,0,0
-427,169,0,0,0,0,0,0,0,0,0,-1,797,855,0,0
-420,169,0,0,0,0,0,0,0,0,0,-1,804,855,0,0
-413,169,0,0,0,0,0,0,0,0,0,-1,811,855,0,0
-406,169,0,0,0,0,0,0,0,0,0,-1,818,855,0,0
-399,169,0,0,0,0,0,0,0,0,0,-1,825,855,0,0
-392,169,0,0,0,0,0,0,0,0,0,-1,832,855,0,0
-385,169,0,0,0,0,0,0,0,0,0,-1,839,855,0,0
-378,169,0,0,0,0,0,0,0,0,0,-1,846,855,0,0
-371,169,0,0,0,0,0,0,0,0,0,-1,853,855,0,0
-364,169,0,0,0,0,0,0,0,0,0,-1,860,855,0,0
-357,169,0,0,0,0,0,0,0,0,0,-1,867,855,0,0
-350,169,0,0,0,0,0,0,0,0,0,-1,874,855,0,0
-343,169,0,0,0,0,0,0,0,0,0,-1,881,855,0,0
-336,169,0,0,0,0,0,0,0,0,0,-1,888,855,0,0
-329,169,0,0,0,0,0,0,0,0,0,-1,895,855,0,0
-322,169,0,0,0,0,0,0,0,0,0,-1,902,855,0,0
-315,169,0,0,0,0,0,0,0,0,0,-1,909,855,0,0
-308,169,0,0,0,0,0,0,0,0,0,-1,916,855,0,0
-301,169,0,0,0,0,0,0,0,0,0,-1,923,855,0,0
-294,169,0,0,0,0,0,0,0,0,0,-1,930,855,0,0
-287,169,0,0,0,0,0,0,0,0,0,-1,937,855,0,0
-280,169,0,0,0,0,0,0,0,0,0,-1,944,855,0,0
-273,169,0,0,0,0,0,0,0,0,0,-1,951,855,0,0
-266,169,0,0,0,0,0,0,0,0,0,-1,958,855,0,0
-259,169,0,0,0,0,0,0,0,0,0,-1,965,855,0,0
-252,169,0,0,0,0,0,0,0,0,0,-1,972,855,0,0
-245,169,0,0,0,0,0,0,0,0,0,-1,979,855,0,0
-238,169,0,0,0,0,0,0,0,0,0,-1,986,855,0,0
-231,169,0,0,0,0,0,0,0,0,0,-1,993,855,0,0
-224,169,0,0,0,0,0,0,0,0,0,-1,1000,855,0,0
-217,169,0,0,0,0,0,0,0,0,0,-1,1007,855,0,0
-210,169,0,0,0,0,0,0,0,0,0,-1,1014,855,0,0
-203,169,0,0,0,0,0,0,0,0,0,-1,1021,855,0,0
-196,169,0,0,0,0,0,0,0,0,0,-1,1028,855,0,0
-189,169,0,0,0,0,0,0,0,0,0,-1,1035,855,0,0
-182,169,0,0,0,0,0,0,0,0,0,-1,1042,855,0,0
-175,169,0,0,0,0,0,0,0,0,0,-1,1049,855,0,0
-168,169,0,0,0,0,0,0,0,0,0,-1,1056,855,0,0
-161,169,0,0,0,0,0,0,0,0,0,-1,1063,855,0,0
-154,169,0,0,0,0,0,0,0,0,0,-1,1070,855,0,0
-147,169,0,0,0,0,0,0,0,0,0,-1,1077,855,0,0
-140,169,0,0,0,0,0,0,0,0,0,-1,1084,855,0,0
-133,169,0,0,0,0,0,0,0,0,0,-1,1091,855,0,0
-126,169,0,0,0,0,0,0,0,0,0,-1,1098,855,0,0
-119,169,0,0,0,0,0,0,0,0,0,-1,1105,855,0,0
-112,169,0,0,0,0,0,0,0,0,0,-1,1112,855,0,0
-105,169,0,0,0,0,0,0,0,0,0,-1,1119,855,0,0
-98,169,0,0,0,0,0,0,0,0,0,-1,1126,855,0,0
-91,169,0,0,0,0,0,0,0,0,0,-1,1133,855,0,0
-84,169,0,0,0,0,0,0,0,0,0,-1,1140,855,0,0
-77,169,0,0,0,0,0,0,0,0,0,-1,1147,855,0,0
-70,169,0,0,0,0,0,0,0,0,0,-1,1154,855,0,0
-63,169,0,0,0,0,0,0,0,0,0,-1,1161,855,0,0
-56,169,0,0,0,0,0,0,0,0,0,-1,1168,855,0,0
-49,169,0,0,0,0,0,0,0,0,0,-1,1175,855,0,0
-42,169,0,0,0,0,0,0,0,0,0,-1,1182,855,0,0
-35,169,0,0,0,0,0,0,0,0,0,-1,1189,855,0,0
-28,169,0,0,0,0,0,0,0,0,0,-1,1196,855,0,0
-21,169,0,0,0,0,0,0,0,0,0,-1,1203,855,0,0
-14,169,0,0,0,0,0,0,0,0,0,-1,1210,855,0,0
-7,169,0,0,0,0,0,0,0,0,0,-1,1217,855,0,0
0,169,0,0,0,0,0,0,0,0,0,-1,1224,855,0,0
7,169,0,0,0,0,0,0,0,0,0,-1,1231,855,0,0
14,169,0,0,0,0,0,0,0,0,0,-1,1238,855,0,0
21,169,0,0,0,0,0,0,0,0,0,-1,1245,855,0,0
28,169,0,0,0,0,0,0,0,0,0,-1,1252,855,0,0
35,169,0,0,0,0,0,0,0,0,0,-1,1259,855,0,0
42,169,0,0,0,0,0,0,0,0,0,-1,1266,855,0,0
49,169,0,0,0,0,0,0,0,0,0,-1,1273,855,0,0
56,169,0,0,0,0,0,0,0,0,0,-1,1280,855,0,0
63,169,0,0,0,0,0,0,0,0,0,-1,1287,855,0,0
70,169,0,0,0,0,0,0,0,0,0,-1,1294,855,0,0
77,169,0,0,0,0,0,0,0,0,0,-1,1301,855,0,0
84,169,0,0,0,0,0,0,0,0,0,-1,1308,855,0,0
91,169,0,0,0,0,0,0,0,0,0,-1,1315,855,0,0
98,169,0,0,0,0,0,0,0,0,0,-1,1322,855,0,0
105,169,0,0,0,0,0,0,0,0,0,-1,1329,855,0,0
112,169,0,0,0,0,0,0,0,0,0,-1,1336,855,0,0
119,169,0,0,0,0,0,0,0,0,0,-1,1343,855,0,0
126,169,0,0,0,0,0,0,0,0,0,-1,1350,855,0,0
133,169,0,0,0,0,0,0,0,0,0,-1,1357,855,0,0
140,169,0,0,0,0,0,0,0,0,0,-1,1364,855,0,0
147,169,0,0,0,0,0,0,0,0,0,-1,1371,855,0,0
154,169,0,0,0,0,0,0,0,0,0,-1,1378,855,0,0
161,169,0,0,0,0,0,0,0,0,0,-1,1385,855,0,0
168,169,0,0,0,0,0,0,0,0,0,-1,1392,855,0,0
175,169,0,0,0,0,0,0,0,0,0,-1,1399,855,0,0
182,169,0,0,0,0,0,0,0,0,0,-1,1406,855,0,0
189,169,0,0,0,0,0,0,0,0,0,-1,1413,855,0,0
196,169,0,0,0,0,0,0,0,0,0,-1,1420,855,0,0
203,169,0,0,0,0,0,0,0,0,0,-1,1427,855,0,0
210,169,0,0,0,0,0,0,0,0,0,-1,1434,855,0,0
217,169,0,0,0,0,0,0,0,0,0,-1,1441,855,0,0
224,169,0,0,0,0,0,0,0,0,0,-1,1448,855,0,0
231,169,0,0,0,0,0,0,0,0,0,-1,1455,855,0,0
238,169,0,0,0,0,0,0,0,0,0,-1,1462,855,0,0
245,169,0,0,0,0,0,0,0,0,0,-1,1469,855,0,0
252,169,0,0,0,0,0,0,0,0,0,-1,1476,855,0,0
259,169,0,0,0,0,0,0,0,0,0,-1,1483,855,0,0
266,169,0,0,0,0,0,0,0,0,0,-1,1490,855,0,0
273,169,0,0,0,0,0,0,0,0,0,-1,1497,855,0,0
280,169,0,0,0,0,0,0,0,0,0,-1,1504,855,0,0
287,169,0,0,0,0,0,0,0,0,0,-1,1511,855,0,0
294,169,0,0,0,0,0,0,0,0,0,-1,1518,855,0,0
301,169,0,0,0,0,0,0,0,0,0,-1,1525,855,0,0
308,169,0,0,0,0,0,0,0,0,0,-1,1532,855,0,0
315,169,0,0,0,0,0,0,0,0,0,-1,1539,855,0,0
322,169,0,0,0,0,0,0,0,0,0,-1,1546,855,0,0
329,169,0,0,0,0,0,0,0,0,0,-1,1553,855,0,0
336,169,0,0,0,0,0,0,0,0,0,-1,1560,855,0,0
343,169,0,0,0,0,0,0,0,0,0,-1,1567,855,0,0
350,169,0,0,0,0,0,0,0,0,0,-1,1574,855,0,0
357,169,0,0,0,0,0,0,0,0,0,-1,1581,855,0,0
364,169,0,0,0,0,0,0,0,0,0,-1,1588,855,0,0
371,169,0,0,0,0,0,0,0,0,0,-1,1595,855,0,0
378,169,0,0,0,0,0,0,0,0,0,-1,1602,855,0,0
385,169,0,0,0,0,0,0,0,0,0,-1,1609,855,0,0
392,169,0,0,0,0,0,0,0,0,0,-1,1616,855,0,0
399,169,0,0,0,0,0,0,0,0,0,-1,1623,855,0,0
406,169,0,0,0,0,0,0,0,0,0,-1,1630,855,0,0
413,169,0,0,0,0,0,0,0,0,0,-1,1637,855,0,0
420,169,0,0,0,0,0,0,0,0,0,-1,1644,855,0,0
427,169,0,0,0,0,0,0,0,0,0,-1,1651,855,0,0
434,169,0,0,0,0,0,0,0,0,0,-1,1658,855,0,0
441,169,0,0,0,0,0,0,0,0,0,-1,1665,855,0,0
448,169,0,0,0,0,0,0,0,0,0,-1,1672,855,0,0
455,169,0,0,0,0,0,0,0,0,0,-1,1679,855,0,0
462,169,0,0,0,0,0,0,0,0,0,-1,1686,855,0,0
469,169,0,0,0,0,0,0,0,0,0,-1,1693,855,0,0
476,169,0,0,0,0,0,0,0,0,0,-1,1700,855,0,0
483,169,0,0,0,0,0,0,0,0,0,-1,1707,855,0,0
490,169,0,0,0,0,0,0,0,0,0,-1,1714,855,0,0
497,169,0,0,0,0,0,0,0,0,0,-1,1721,855,0,0
504,169,0,0,0,0,0,0,0,0,0,-1,1728,855,0,0
511,169,0,0,0,0,0,0,0,0,0,-1,1735,855,0,0
518,169,0,0,0,0,0,0,0,0,0,-1,1742,855,0,0
525,169,0,0,0,0,0,0,0,0,0,-1,1749,855,0,0
532,169,0,0,0,0,0,0,0,0,0,-1,1756,855,0,0
539,169,0,0,0,0,0,0,0,0,0,-1,1763,855,0,0
546,169,0,0,0,0,0,0,0,0,0,-1,1770,855,0,0
553,169,0,0,0,0,0,0,0,0,0,-1,1777,855,0,0
560,169,0,0,0,0,0,0,0,0,0,-1,1784,855,0,0
567,169,0,0,0,0,0,0,0,0,0,-1,1791,855,0,0
574,169,0,0,0,0,0,0,0,0,0,-1,1798,855,0,0
581,169,0,0,0,0,0,0,0,0,0,-1,1805,855,0,0
588,169,0,0,0,0,0,0,0,0,0,-1,1812,855,0,0
595,169,0,0,0,0,0,0,0,0,0,-1,1819,855,0,0
602,169,0,0,0,0,0,0,0,0,0,-1,1826,855,0,0
609,169,0,0,0,0,0,0,0,0,0,-1,1833,855,0,0
616,169,30.4725,2.82312,-0.00799473,-0.000531083,0.000406884,-0.000508967,-0.00801685,1.5165,0.00518325,0.039532,1840,855,30.4725,-2.82314
623,169,30.4219,2.98981,-0.00436509,-0.000693419,-0.000235967,-0.000678316,-0.00438019,-1.50688,0.00272234,0.044133,1847,855,30.4219,-2.98981
630,169,30.6831,2.82928,-0.00142872,-0.000873921,-0.000679495,-0.000417385,-0.00188526,-0.979196,0.00114339,0.0433255,1854,855,30.6831,-2.82929
637,169,30.6514,2.71667,0.00049907,-0.00108416,-0.000972355,0.0009613,-0.00154639,-0.443752,0.00146089,0.037319,1861,855,30.6513,-2.71666
644,169,30.5222,2.9209,0.00150028,-0.00132976,-0.00111597,0.00188739,-0.00171687,-0.333894,0.0020817,0.0370942,1868,855,30.5222,-2.92089
651,169,30.5455,3.00397,0.00181594,-0.00153383,-0.0011845,0.00219247,-0.00191035,-0.307774,0.00237063,0.0368392,1875,855,30.5456,-3.00396
658,169,30.6045,2.86743,0.00189607,-0.0016906,-0.00117603,0.00224729,-0.00204182,-0.290214,0.00247726,0.0346424,1882,855,30.6045,-2.86743
665,169,30.7006,2.74091,0.00181214,-0.00180354,-0.0012291,0.00219038,-0.00218179,-0.298544,0.00252427,0.0468478,1889,855,30.7005,-2.74093
672,169,30.7941,2.63702,0,0,0,0,0,0,0,-1,1896,855,30.794,-2.63705
679,169,25.1508,2.07513,0,0,0,0,0,0,0,-1,1903,855,25.1508,-2.0751
686,169,25.2013,2.40753,0.000957821,-0.00162913,-0.000982591,0.00128871,-0.00196002,-0.324825,0.00188896,0.0288443,1910,855,25.2013,-2.40754
693,169,25.2323,2.73114,0.000621521,-0.00147138,-0.000842085,0.000918263,-0.00176812,-0.338802,0.00157664,0.0148213,1917,855,25.2323,-2.73116
700,169,25.2151,3.0246,0.000457557,-0.00130503,-0.000827716,0.000785309,-0.00163278,-0.377029,0.00142438,0.0135912,1924,855,25.2151,-3.02457
707,169,25.1664,3.2865,0.000634873,-0.000877806,-0.000590801,0.000838271,-0.0010812,-0.331565,0.00111116,0.0143578,1931,855,25.1664,-3.2865
714,169,25.1487,3.56909,0.00138503,-6.12791e-05,-0.000243731,0.001425,-0.000101248,-0.162541,0.000985484,0.0134626,1938,855,25.1487,-3.56908
721,169,25.1219,3.8728,0.00284315,0.00105135,0.000242924,0.0028755,0.001019,0.132392,0.00168348,0.0140049,1945,855,25.1219,-3.87281
728,169,25.1246,4.1803,0.00454239,0.00201377,0.000826226,0.00478842,0.00176774,0.289416,0.00279597,0.0116062,1952,855,25.1247,-4.18028
735,169,25.1283,4.48132,0.00650719,0.00265802,0.00160142,0.00708631,0.0020789,0.347,0.00420613,0.0178642,1959,855,25.1283,-4.4813
742,169,25.1412,4.77899,0.00829724,0.00272911,0.00265459,0.00935997,0.00166637,0.380798,0.00576536,0.0142302,1966,855,25.1413,-4.779
749,169,25.1564,5.01971,0.0103994,0.00266548,0.00391863,0.0120378,0.00102707,0.396019,0.00770567,0.0230351,1973,855,25.1564,-5.0197
756,169,25.3182,5.18005,0.0119084,0.00159518,0.00541602,0.01423,-0.00072644,0.404966,0.00973784,0.0475527,1980,855,25.3183,-5.18006
763,169,25.5382,5.35529,0,0,0,0,0,0,0,-1,1987,855,25.5382,-5.35532
770,169,26.8319,6.44745,0,0,0,0,0,0,0,-1,1994,855,26.8319,-6.44746
777,169,27.1642,6.86273,0,0,0,0,0,0,0,-1,2001,855,27.1642,-6.86272
784,169,27.5266,7.48889,0,0,0,0,0,0,0,-1,2008,855,27.5266,-7.48889
791,169,0,0,0,0,0,0,0,0,0,-1,2015,855,0,0
798,169,0,0,0,0,0,0,0,0,0,-1,2022,855,0,0
805,169,0,0,0,0,0,0,0,0,0,-1,2029,855,0,0
812,169,0,0,0,0,0,0,0,0,0,-1,2036,855,0,0
-700,162,0,0,0,0,0,0,0,0,0,-1,524,862,0,0
-693,162,0,0,0,0,0,0,0,0,0,-1,531,862,0,0
-686,162,0,0,0,0,0,0,0,0,0,-1,538,862,0,0
-679,162,0,0,0,0,0,0,0,0,0,-1,545,862,0,0
-672,162,0,0,0,0,0,0,0,0,0,-1,552,862,0,0
-665,162,-17.3804,2.83777,-0.0161812,0.0360037,0.0644094,0.0794051,-0.0595825,0.977847,0.0805161,0.0435307,559,862,-17.3803,-2.83776
-658,162,-16.952,2.11084,-0.0137835,0.0275022,0.059121,0.0694806,-0.0557619,0.953362,0.0724532,0.0475824,566,862,-16.952,-2.11083
-651,162,-16.1016,2.42163,0,0,0,0,0,0,0,-1,573,862,-16.1016,-2.42161
-644,162,-16.1651,2.62714,-0.010181,0.0161738,0.0439754,0.0489037,-0.042911,0.930968,0.0530468,0.0458545,580,862,-16.1651,-2.62711
-637,162,-16.904,2.53052,-0.00868126,0.0122876,0.0359637,0.039264,-0.0356576,0.927231,0.0432727,0.0445253,587,862,-16.904,-2.53053
-630,162,-17.1331,2.58044,-0.00747586,0.00921837,0.0283888,0.0304617,-0.0287192,0.928383,0.0341731,0.045402,594,862,-17.1331,-2.58044
-623,162,-17.2502,2.70691,-0.00640686,0.00654035,0.0215639,0.0225814,-0.0224479,0.931221,0.0259977,0.0328174,601,862,-17.2502,-2.7069
-616,162,-17.2902,2.48364,-0.00513785,0.00336301,0.0150729,0.0147733,-0.0165482,0.922825,0.0180932,0.0180347,608,862,-17.2902,-2.48365
-609,162,-17.3089,2.22192,-0.00436248,0.00222481,0.0104609,0.00989829,-0.012036,0.937912,0.0126838,0.0127924,615,862,-17.3089,-2.22189
-602,162,-17.3159,1.94977,-0.00335558,0.00187557,0.00662838,0.00638577,-0.00786578,0.973321,0.00824291,0.0109716,622,862,-17.3159,-1.94974
-595,162,-17.3239,1.69562,-0.00272984,0.00156517,0.00366923,0.00366914,-0.00483381,1.05016,0.00492451,0.0106091,629,862,-17.3239,-1.69562
-588,162,-17.3208,1.42365,-0.00127078,0.000901322,0.00175351,0.00187787,-0.00224732,1.06266,0.00238486,0.0109531,636,862,-17.3208,-1.42365
-581,162,-17.4026,1.14087,-0.000595336,0.000986377,0.000913655,0.00140392,-0.00101287,1.14214,0.00140141,0.0147525,643,862,-17.4026,-1.14084
-574,162,-17.541,0.859558,-0.000374039,0.000856513,0.000610344,0.00110789,-0.000625415,1.18011,0.00101356,0.0219124,650,862,-17.541,-0.859588
-567,162,-17.4805,0.595703,-0.000278778,0.000880748,0.000529304,0.00108603,-0.000484055,1.20083,0.000928429,0.034791,657,862,-17.4805,-0.595675
-560,162,-17.3778,0.164856,-0.000294627,0.000986161,0.000287967,0.00104793,-0.000356393,1.35951,0.000842916,0.0312859,664,862,-17.3778,-0.16488
-553,162,-17.2107,-0.190674,-0.00040114,0.00136424,0.000115186,0.00137172,-0.000408624,1.50592,0.00107685,0.0374415,671,862,-17.2107,0.190644
-546,162,-17.0425,-0.557129,0,0,0,0,0,0,0,-1,678,862,-17.0425,0.557137
-539,162,-21.5983,0.826843,0,0,0,0,0,0,0,-1,685,862,-21.5984,-0.826821
-532,162,-21.5899,0.888184,4.98656e-05,0.0021942,-7.92259e-05,0.00219712,4.69424e-05,-1.53392,0.00144935,0.0367414,692,862,-21.5899,-0.888173
-525,162,-21.5995,0.855408,0.00021956,0.00236304,-0.000174808,0.00237721,0.000205398,-1.48995,0.00152097,0.0381093,699,862,-21.5995,-0.855435
-518,162,-21.6327,0.802063,0.000600272,0.00239489,-0.000358838,0.00246398,0.000531181,-1.38058,0.00149734,0.039717,706,862,-21.6327,-0.802085
-511,162,-21.62,0.831299,0.00170675,0.00222338,-0.000730308,0.00273971,0.00119042,-0.955384,0.00158629,0.0453266,713,862,-21.62,-0.831319
-504,162,-21.6667,0.814941,0.00348541,0.00173013,-0.00165496,0.00448104,0.000734504,-0.541598,0.00277512,0.046353,720,862,-21.6667,-0.814945
-497,162,-21.5623,0.721008,0.00723216,0.00129045,-0.00362498,0.00894814,-0.000425537,-0.442124,0.00611221,0.0429076,727,862,-21.5622,-0.721009
-490,162,0,0,0,0,0,0,0,0,0,-1,734,862,0,0
-483,162,0,0,0,0,0,0,0,0,0,-1,741,862,0,0
-476,162,0,0,0,0,0,0,0,0,0,-1,748,862,0,0
-469,162,0,0,0,0,0,0,0,0,0,-1,755,862,0,0
-462,162,0,0,0,0,0,0,0,0,0,-1,762,862,0,0
-455,162,0,0,0,0,0,0,0,0,0,-1,769,862,0,0
-448,162,0,0,0,0,0,0,0,0,0,-1,776,862,0,0
-441,162,0,0,0,0,0,0,0,0,0,-1,783,862,0,0
-434,162,0,0,0,0,0,0,0,0,0,-1,790,862,0,0
-427,162,0,0,0,0,0,0,0,0,0,-1,797,862,0,0
-420,162,0,0,0,0,0,0,0,0,0,-1,804,862,0,0
-413,162,0,0,0,0,0,0,0,0,0,-1,811,862,0,0
-406,162,0,0,0,0,0,0,0,0,0,-1,818,862,0,0
-399,162,0,0,0,0,0,0,0,0,0,-1,825,862,0,0
-392,162,0,0,0,0,0,0,0,0,0,-1,832,862,0,0
-385,162,0,0,0,0,0,0,0,0,0,-1,839,862,0,0
-378,162,0,0,0,0,0,0,0,0,0,-1,846,862,0,0
-371,162,0,0,0,0,0,0,0,0,0,-1,853,862,0,0
-364,162,0,0,0,0,0,0,0,0,0,-1,860,862,0,0
-357,162,0,0,0,0,0,0,0,0,0,-1,867,862,0,0
-350,162,0,0,0,0,0,0,0,0,0,-1,874,862,0,0
-343,162,0,0,0,0,0,0,0,0,0,-1,881,862,0,0
-336,162,0,0,0,0,0,0,0,0,0,-1,888,862,0,0
-329,162,0,0,0,0,0,0,0,0,0,-1,895,862,0,0
-322,162,0,0,0,0,0,0,0,0,0,-1,902,862,0,0
-315,162,0,0,0,0,0,0,0,0,0,-1,909,862,0,0
-308,162,0,0,0,0,0,0,0,0,0,-1,916,862,0,0
-301,162,0,0,0,0,0,0,0,0,0,-1,923,862,0,0
-294,162,0,0,0,0,0,0,0,0,0,-1,930,862,0,0
-287,162,0,0,0,0,0,0,0,0,0,-1,937,862,0,0
-280,162,0,0,0,0,0,0,0,0,0,-1,944,862,0,0
-273,162,0,0,0,0,0,0,0,0,0,-1,951,862,0,0
-266,162,0,0,0,0,0,0,0,0,0,-1,958,862,0,0
-259,162,0,0,0,0,0,0,0,0,0,-1,965,862,0,0
-252,162,0,0,0,0,0,0,0,0,0,-1,972,862,0,0
-245,162,0,0,0,0,0,0,0,0,0,-1,979,862,0,0
-238,162,0,0,0,0,0,0,0,0,0,-1,986,862,0,0
-231,162,0,0,0,0,0,0,0,0,0,-1,993,862,0,0
-224,162,0,0,0,0,0,0,0,0,0,-1,1000,862,0,0
-217,162,0,0,0,0,0,0,0,0,0,-1,1007,862,0,0
-210,162,0,0,0,0,0,0,0,0,0,-1,1014,862,0,0
-203,162,0,0,0,0,0,0,0,0,0,-1,1021,862,0,0
-196,162,0,0,0,0,0,0,0,0,0,-1,1028,862,0,0
-189,162,0,0,0,0,0,0,0,0,0,-1,1035,862,0,0
-182,162,0,0,0,0,0,0,0,0,0,-1,1042,862,0,0
-175,162,0,0,0,0,0,0,0,0,0,-1,1049,862,0,0
-168,162,0,0,0,0,0,0,0,0,0,-1,1056,862,0,0
-161,162,0,0,0,0,0,0,0,0,0,-1,1063,862,0,0
-154,162,0,0,0,0,0,0,0,0,0,-1,1070,862,0,0
-147,162,0,0,0,0,0,0,0,0,0,-1,1077,862,0,0
-140,162,0,0,0,0,0,0,0,0,0,-1,1084,862,0,0
-133,162,0,0,0,0,0,0,0,0,0,-1,1091,862,0,0
-126,162,0,0,0,0,0,0,0,0,0,-1,1098,862,0,0
-119,162,0,0,0,0,0,0,0,0,0,-1,1105,862,0,0
-112,162,0,0,0,0,0,0,0,0,0,-1,1112,862,0,0
-105,162,0,0,0,0,0,0,0,0,0,-1,1119,862,0,0
-98,162,0,0,0,0,0,0,0,0,0,-1,1126,862,0,0
-91,162,0,0,0,0,0,0,0,0,0,-1,1133,862,0,0
-84,162,0,0,0,0,0,0,0,0,0,-1,1140,862,0,0
-77,162,0,0,0,0,0,0,0,0,0,-1,1147,862,0,0
-70,162,0,0,0,0,0,0,0,0,0,-1,1154,862,0,0
-63,162,0,0,0,0,0,0,0,0,0,-1,1161,862,0,0
-56,162,0,0,0,0,0,0,0,0,0,-1,1168,862,0,0
-49,162,0,0,0,0,0,0,0,0,0,-1,1175,862,0,0
-42,162,0,0,0,0,0,0,0,0,0,-1,1182,862,0,0
-35,162,0,0,0,0,0,0,0,0,0,-1,1189,862,0,0
-28,162,0,0,0,0,0,0,0,0,0,-1,1196,862,0,0
-21,162,0,0,0,0,0,0,0,0,0,-1,1203,862,0,0
-14,162,0,0,0,0,0,0,0,0,0,-1,1210,862,0,0
-7,162,0,0,0,0,0,0,0,0,0,-1,1217,862,0,0
0,162,0,0,0,0,0,0,0,0,0,-1,1224,862,0,0
7,162,0,0,0,0,0,0,0,0,0,-1,1231,862,0,0
14,162,0,0,0,0,0,0,0,0,0,-1,1238,862,0,0
21,162,0,0,0,0,0,0,0,0,0,-1,1245,862,0,0
28,162,0,0,0,0,0,0,0,0,0,-1,1252,862,0,0
35,162,0,0,0,0,0,0,0,0,0,-1,1259,862,0,0
42,162,0,0,0,0,0,0,0,0,0,-1,1266,862,0,0
49,162,0,0,0,0,0,0,0,0,0,-1,1273,862,0,0
56,162,0,0,0,0,0,0,0,0,0,-1,1280,862,0,0
63,162,0,0,0,0,0,0,0,0,0,-1,1287,862,0,0
70,162,0,0,0,0,0,0,0,0,0,-1,1294,862,0,0
77,162,0,0,0,0,0,0,0,0,0,-1,1301,862,0,0
84,162,0,0,0,0,0,0,0,0,0,-1,1308,862,0,0
91,162,0,0,0,0,0,0,0,0,0,-1,1315,862,0,0
98,162,0,0,0,0,0,0,0,0,0,-1,1322,862,0,0
105,162,0,0,0,0,0,0,0,0,0,-1,1329,862,0,0
112,162,0,0,0,0,0,0,0,0,0,-1,1336,862,0,0
119,162,0,0,0,0,0,0,0,0,0,-1,1343,862,0,0
126,162,0,0,0,0,0,0,0,0,0,-1,1350,862,0,0
133,162,0,0,0,0,0,0,0,0,0,-1,1357,862,0,0
140,162,0,0,0,0,0,0,0,0,0,-1,1364,862,0,0
147,162,0,0,0,0,0,0,0,0,0,-1,1371,862,0,0
154,162,0,0,0,0,0,0,0,0,0,-1,1378,862,0,0
161,162,0,0,0,0,0,0,0,0,0,-1,1385,862,0,0
168,162,0,0,0,0,0,0,0,0,0,-1,1392,862,0,0
175,162,0,0,0,0,0,0,0,0,0,-1,1399,862,0,0
182,162,0,0,0,0,0,0,0,0,0,-1,1406,862,0,0
189,162,0,0,0,0,0,0,0,0,0,-1,1413,862,0,0
196,162,0,0,0,0,0,0,0,0,0,-1,1420,862,0,0
203,162,0,0,0,0,0,0,0,0,0,-1,1427,862,0,0
210,162,0,0,0,0,0,0,0,0,0,-1,1434,862,0,0
217,162,0,0,0,0,0,0,0,0,0,-1,1441,862,0,0
224,162,0,0,0,0,0,0,0,0,0,-1,1448,862,0,0
231,162,0,0,0,0,0,0,0,0,0,-1,1455,862,0,0
238,162,0,0,0,0,0,0,0,0,0,-1,1462,862,0,0
245,162,0,0,0,0,0,0,0,0,0,-1,1469,862,0,0
252,162,0,0,0,0,0,0,0,0,0,-1,1476,862,0,0
259,162,0,0,0,0,0,0,0,0,0,-1,1483,862,0,0
266,162,0,0,0,0,0,0,0,0,0,-1,1490,862,0,0
273,162,0,0,0,0,0,0,0,0,0,-1,1497,862,0,0
280,162,0,0,0,0,0,0,0,0,0,-1,1504,862,0,0
287,162,0,0,0,0,0,0,0,0,0,-1,1511,862,0,0
294,162,0,0,0,0,0,0,0,0,0,-1,1518,862,0,0
301,162,0,0,0,0,0,0,0,0,0,-1,1525,862,0,0
308,162,0,0,0,0,0,0,0,0,0,-1,1532,862,0,0
315,162,0,0,0,0,0,0,0,0,0,-1,1539,862,0,0
322,162,0,0,0,0,0,0,0,0,0,-1,1546,862,0,0
329,162,0,0,0,0,0,0,0,0,0,-1,1553,862,0,0
336,162,0,0,0,0,0,0,0,0,0,-1,1560,862,0,0
343,162,0,0,0,0,0,0,0,0,0,-1,1567,862,0,0
350,162,0,0,0,0,0,0,0,0,0,-1,1574,862,0,0
357,162,0,0,0,0,0,0,0,0,0,-1,1581,862,0,0
364,162,0,0,0,0,0,0,0,0,0,-1,1588,862,0,0
371,162,0,0,0,0,0,0,0,0,0,-1,1595,862,0,0
378,162,0,0,0,0,0,0,0,0,0,-1,1602,862,0,0
385,162,0,0,0,0,0,0,0,0,0,-1,1609,862,0,0
392,162,0,0,0,0,0,0,0,0,0,-1,1616,862,0,0
399,162,0,0,0,0,0,0,0,0,0,-1,1623,862,0,0
406,162,0,0,0,0,0,0,0,0,0,-1,1630,862,0,0
413,162,0,0,0,0,0,0,0,0,0,-1,1637,862,0,0
420,162,0,0,0,0,0,0,0,0,0,-1,1644,862,0,0
427,162,0,0,0,0,0,0,0,0,0,-1,1651,862,0,0
434,162,0,0,0,0,0,0,0,0,0,-1,1658,862,0,0
441,162,0,0,0,0,0,0,0,0,0,-1,1665,862,0,0
448,162,0,0,0,0,0,0,0,0,0,-1,1672,862,0,0
455,162,0,0,0,0,0,0,0,0,0,-1,1679,862,0,0
462,162,0,0,0,0,0,0,0,0,0,-1,1686,862,0,0
469,162,0,0,0,0,0,0,0,0,0,-1,1693,862,0,0
476,162,0,0,0,0,0,0,0,0,0,-1,1700,862,0,0
483,162,0,0,0,0,0,0,0,0,0,-1,1707,862,0,0
490,162,0,0,0,0,0,0,0,0,0,-1,1714,862,0,0
497,162,0,0,0,0,0,0,0,0,0,-1,1721,862,0,0
504,162,0,0,0,0,0,0,0,0,0,-1,1728,862,0,0
511,162,0,0,0,0,0,0,0,0,0,-1,1735,862,0,0
518,162,0,0,0,0,0,0,0,0,0,-1,1742,862,0,0
525,162,0,0,0,0,0,0,0,0,0,-1,1749,862,0,0
532,162,0,0,0,0,0,0,0,0,0,-1,1756,862,0,0
539,162,0,0,0,0,0,0,0,0,0,-1,1763,862,0,0
546,162,0,0,0,0,0,0,0,0,0,-1,1770,862,0,0
553,162,0,0,0,0,0,0,0,0,0,-1,1777,862,0,0
560,162,0,0,0,0,0,0,0,0,0,-1,1784,862,0,0
567,162,0,0,0,0,0,0,0,0,0,-1,1791,862,0,0
574,162,0,0,0,0,0,0,0,0,0,-1,1798,862,0,0
581,162,0,0,0,0,0,0,0,0,0,-1,1805,862,0,0
588,162,0,0,0,0,0,0,0,0,0,-1,1812,862,0,0
595,162,0,0,0,0,0,0,0,0,0,-1,1819,862,0,0
602,162,0,0,0,0,0,0,0,0,0,-1,1826,862,0,0
609,162,0,0,0,0,0,0,0,0,0,-1,1833,862,0,0
616,162,30.705,2.76135,-0.00872365,-0.000549505,-0.000397603,-0.00053021,-0.00874295,-1.52231,0.00566018,0.0435047,1840,862,30.7049,-2.76136
623,162,30.4362,3.1214,-0.00515692,-0.000627606,-0.00105068,-0.000395746,-0.00538878,-1.3536,0.00346814,0.0458048,1847,862,30.4362,-3.12137
630,162,30.4358,2.91534,-0.00220825,-0.000760429,-0.00138369,7.72757e-05,-0.00304596,-1.02641,0.00205688,0.0434567,1854,862,30.4359,-2.91534
637,162,30.5317,2.8512,-0.000118601,-0.000884737,-0.00153105,0.00107658,-0.00207992,-0.662815,0.00185284,0.039344,1861,862,30.5318,-2.8512
644,162,30.6332,2.81433,0.00106206,-0.00107194,-0.00153092,0.00186113,-0.00187101,-0.481055,0.00215475,0.0365972,1868,862,30.6332,-2.81436
651,162,30.6151,2.90106,0.00150853,-0.00124638,-0.00148387,0.00215573,-0.00189359,-0.411286,0.00233951,0.0343689,1875,862,30.6152,-2.90105
658,162,30.6149,2.87109,0.00164925,-0.00140314,-0.00138286,0.00218257,-0.00193645,-0.368083,0.00237953,0.0356794,1882,862,30.6149,-2.87111
665,162,30.6152,2.77313,0.00158822,-0.00151279,-0.00133676,0.00208491,-0.00200947,-0.35575,0.00236403,0.0414741,1889,862,30.6153,-2.7731
672,162,30.6208,2.68005,0,0,0,0,0,0,0,-1,1896,862,30.6209,-2.68006
679,162,25.5111,2.38318,0,0,0,0,0,0,0,-1,1903,862,25.5111,-2.38315
686,162,25.5116,2.53729,0.000868574,-0.00135989,-0.000956062,0.00122253,-0.00171385,-0.354573,0.00170321,0.0472855,1910,862,25.5116,-2.53729
693,162,25.5085,2.74988,0.000567449,-0.00120606,-0.000785921,0.000865601,-0.00150422,-0.362594,0.00138468,0.0188885,1917,862,25.5085,-2.74989
700,162,25.5361,3.04016,0.00039251,-0.00102836,-0.000728514,0.000699646,-0.0013355,-0.398981,0.00119395,0.0163034,1924,862,25.5362,-3.04019
707,162,25.5029,3.28552,0.000585964,-0.000669795,-0.000494003,0.000757003,-0.000840834,-0.333314,0.000922935,0.0119646,1931,862,25.503,-3.28551
714,162,25.4738,3.57037,0.00131007,1.89633e-05,-0.000189141,0.00133721,-8.17451e-06,-0.142507,0.000894211,0.0156834,1938,862,25.4737,-3.57036
721,162,25.3893,3.9353,0.00265501,0.000977888,0.000214388,0.00268198,0.000950916,0.12515,0.00157012,0.025759,1945,862,25.3893,-3.93528
728,162,25.3788,4.18665,0.00417052,0.00178371,0.000696427,0.00435886,0.00159537,0.264123,0.00254653,0.0208161,1952,862,25.3787,-4.18664
735,162,25.4408,4.48956,0.00591445,0.00217502,0.00136832,0.00636166,0.00172781,0.315887,0.0037985,0.0110334,1959,862,25.4408,-4.48956
742,162,25.4398,4.7807,0.00736816,0.0019085,0.00230432,0.00821071,0.00106595,0.350537,0.00515535,0.0122123,1966,862,25.4399,-4.7807
749,162,25.4265,5.0589,0.00901527,0.00140545,0.00341051,0.01032,0.000100674,0.365396,0.00684672,0.0167806,1973,862,25.4265,-5.05888
756,162,25.5441,5.35522,0.00988529,-0.000290636,0.00468708,0.0117151,-0.00212048,0.372205,0.00860446,0.03913,1980,862,25.5441,-5.3552
763,162,26.2939,6.08313,0.00925737,-0.00398149,0.0061279,0.0116584,-0.00638249,0.373429,0.0105633,0.0498613,1987,862,26.2939,-6.08315
770,162,26.3428,6.25989,0.00598465,-0.0105588,0.00769063,0.00900749,-0.0135817,0.374505,0.0131307,0.0451262,1994,862,26.3428,-6.2599
777,162,26.4905,6.39374,0,0,0,0,0,0,0,-1,2001,862,26.4905,-6.39377
784,162,26.8928,6.70618,0,0,0,0,0,0,0,-1,2008,862,26.8929,-6.70621
791,162,0,0,0,0,0,0,0,0,0,-1,2015,862,0,0
798,162,0,0,0,0,0,0,0,0,0,-1,2022,862,0,0
805,162,0,0,0,0,0,0,0,0,0,-1,2029,862,0,0
812,162,0,0,0,0,0,0,0,0,0,-1,2036,862,0,0
-700,155,0,0,0,0,0,0,0,0,0,-1,524,869,0,0
-693,155,0,0,0,0,0,0,0,0,0,-1,531,869,0,0
-686,155,0,0,0,0,0,0,0,0,0,-1,538,869,0,0
-679,155,0,0,0,0,0,0,0,0,0,-1,545,869,0,0
-672,155,0,0,0,0,0,0,0,0,0,-1,552,869,0,0
-665,155,-18.0253,3.14386,-0.00819203,0.0455572,0.0793921,0.1025,-0.0651348,0.948597,0.0975821,0.0449565,559,869,-18.0253,-3.14388
-658,155,-17.8421,2.68805,-0.00699479,0.034065,0.0693469,0.0858571,-0.0587869,0.929311,0.0839963,0.0430903,566,869,-17.8421,-2.68807
-651,155,-17.4834,2.33911,-0.00618999,0.0255899,0.0589109,0.0707162,-0.0513164,0.917127,0.0707517,0.0467521,573,869,-17.4834,-2.33911
-644,155,-17.5673,2.51306,-0.00551197,0.0191854,0.0487104,0.057088,-0.0434146,0.909539,0.0582039,0.0460089,580,869,-17.5673,-2.51307
-637,155,-17.6967,2.75989,-0.00499999,0.0142752,0.0391652,0.0449712,-0.035696,0.906039,0.0466757,0.0464026,587,869,-17.6967,-2.75991
-630,155,-17.5037,3.09045,-0.0045996,0.0105029,0.0305462,0.0344174,-0.0285141,0.906573,0.0363867,0.0466826,594,869,-17.5037,-3.09046
-623,155,-17.4917,2.81866,-0.00419726,0.00728231,0.0229917,0.0252398,-0.0221548,0.907721,0.0273826,0.0252543,601,869,-17.4917,-2.81864
-616,155,-17.5504,2.49487,-0.00343744,0.00373441,0.0159317,0.0164788,-0.0161818,0.896094,0.0188569,0.0138587,608,869,-17.5504,-2.49486
-609,155,-17.5947,2.21875,-0.00306801,0.00233494,0.0108723,0.0108363,-0.0115694,0.907169,0.0129383,0.0129761,615,869,-17.5947,-2.21872
-602,155,-17.6201,1.94965,-0.00240055,0.0019221,0.00679614,0.00689231,-0.00737077,0.939352,0.00823634,0.0117812,622,869,-17.62,-1.94967
-595,155,-17.6254,1.68341,-0.00223645,0.00163607,0.00367843,0.00385672,-0.0044571,1.02766,0.00480416,0.0113099,629,869,-17.6254,-1.68341
-588,155,-17.6166,1.42767,-0.000965088,0.0010186,0.00169349,0.00198932,-0.00193581,1.05031,0.00226624,0.0125373,636,869,-17.6166,-1.42769
-581,155,-17.7452,1.20459,-0.000399459,0.0010882,0.000818305,0.00145022,-0.00076148,1.15428,0.0012974,0.019858,643,869,-17.7452,-1.20456
-574,155,-17.8069,0.994629,-0.000252302,0.000911682,0.000522834,0.00111204,-0.000452659,1.20484,0.000929733,0.0265119,650,869,-17.8069,-0.994603
-567,155,-17.7377,0.583496,-0.000155359,0.00093938,0.000390887,0.00106462,-0.000280601,1.26073,0.000819455,0.0280804,657,869,-17.7377,-0.583474
-560,155,-17.6532,0.205933,-0.000112693,0.00100056,8.55078e-05,0.00100709,-0.000119222,1.49458,0.000714459,0.0242279,664,869,-17.6532,-0.205919
-553,155,-19.011,-0.0552979,0,0,0,0,0,0,0,-1,671,869,-19.011,0.055284
-546,155,-21.529,1.00354,0,0,0,0,0,0,0,-1,678,869,-21.529,-1.00356
-539,155,-21.5833,0.843018,-2.35431e-05,0.00190382,-0.00043399,0.00199703,-0.000116758,-1.35923,0.00137193,0.0489566,685,869,-21.5833,-0.843031
-532,155,-21.5661,0.861328,9.67569e-05,0.00214422,-0.000608934,0.00231163,-7.06566e-05,-1.3025,0.00156517,0.0359793,692,869,-21.5661,-0.861304
-525,155,-21.5158,1.00476,0.000148536,0.00231292,-0.000834392,0.00259724,-0.000135782,-1.24239,0.00177848,0.0350573,699,869,-21.5158,-1.00474
-518,155,-21.6008,0.868103,0.000435084,0.00234712,-0.00121296,0.00293553,-0.000153323,-1.11914,0.00201008,0.0376773,706,869,-21.6008,-0.868121
-511,155,-21.6868,0.782959,0.0014628,0.00221984,-0.00188448,0.00376345,-8.08029e-05,-0.884511,0.00253633,0.0416659,713,869,-21.6868,-0.782962
-504,155,-21.7819,0.777893,0.00286378,0.00187346,-0.00330014,0.0057057,-0.000968454,-0.710933,0.00416433,0.0433778,720,869,-21.7819,-0.777921
-497,155,0,0,0,0,0,0,0,0,0,-1,727,869,0,0
-490,155,0,0,0,0,0,0,0,0,0,-1,734,869,0,0
-483,155,0,0,0,0,0,0,0,0,0,-1,741,869,0,0
-476,155,0,0,0,0,0,0,0,0,0,-1,748,869,0,0
-469,155,0,0,0,0,0,0,0,0,0,-1,755,869,0,0
-462,155,0,0,0,0,0,0,0,0,0,-1,762,869,0,0
-455,155,0,0,0,0,0,0,0,0,0,-1,769,869,0,0
-448,155,0,0,0,0,0,0,0,0,0,-1,776,869,0,0
-441,155,0,0,0,0,0,0,0,0,0,-1,783,869,0,0
-434,155,0,0,0,0,0,0,0,0,0,-1,790,869,0,0
-427,155,0,0,0,0,0,0,0,0,0,-1,797,869,0,0
-420,155,0,0,0,0,0,0,0,0,0,-1,804,869,0,0
-413,155,0,0,0,0,0,0,0,0,0,-1,811,869,0,0
-406,155,0,0,0,0,0,0,0,0,0,-1,818,869,0,0
-399,155,0,0,0,0,0,0,0,0,0,-1,825,869,0,0
-392,155,0,0,0,0,0,0,0,0,0,-1,832,869,0,0
-385,155,0,0,0,0,0,0,0,0,0,-1,839,869,0,0
-378,155,0,0,0,0,0,0,0,0,0,-1,846,869,0,0
-371,155,0,0,0,0,0,0,0,0,0,-1,853,869,0,0
-364,155,0,0,0,0,0,0,0,0,0,-1,860,869,0,0
-357,155,0,0,0,0,0,0,0,0,0,-1,867,869,0,0
-350,155,0,0,0,0,0,0,0,0,0,-1,874,869,0,0
-343,155,0,0,0,0,0,0,0,0,0,-1,881,869,0,0
-336,155,0,0,0,0,0,0,0,0,0,-1,888,869,0,0
-329,155,0,0,0,0,0,0,0,0,0,-1,895,869,0,0
-322,155,0,0,0,0,0,0,0,0,0,-1,902,869,0,0
-315,155,0,0,0,0,0,0,0,0,0,-1,909,869,0,0
-308,155,0,0,0,0,0,0,0,0,0,-1,916,869,0,0
-301,155,0,0,0,0,0,0,0,0,0,-1,923,869,0,0
-294,155,0,0,0,0,0,0,0,0,0,-1,930,869,0,0
-287,155,0,0,0,0,0,0,0,0,0,-1,937,869,0,0
-280,155,0,0,0,0,0,0,0,0,0,-1,944,869,0,0
-273,155,0,0,0,0,0,0,0,0,0,-1,951,869,0,0
-266,155,0,0,0,0,0,0,0,0,0,-1,958,869,0,0
-259,155,0,0,0,0,0,0,0,0,0,-1,965,869,0,0
-252,155,0,0,0,0,0,0,0,0,0,-1,972,869,0,0
-245,155,0,0,0,0,0,0,0,0,0,-1,979,869,0,0
-238,155,0,0,0,0,0,0,0,0,0,-1,986,869,0,0
-231,155,0,0,0,0,0,0,0,0,0,-1,993,869,0,0
-224,155,0,0,0,0,0,0,0,0,0,-1,1000,869,0,0
-217,155,0,0,0,0,0,0,0,0,0,-1,1007,869,0,0
-210,155,0,0,0,0,0,0,0,0,0,-1,1014,869,0,0
-203,155,0,0,0,0,0,0,0,0,0,-1,1021,869,0,0
-196,155,0,0,0,0,0,0,0,0,0,-1,1028,869,0,0
-189,155,0,0,0,0,0,0,0,0,0,-1,1035,869,0,0
-182,155,0,0,0,0,0,0,0,0,0,-1,1042,869,0,0
-175,155,0,0,0,0,0,0,0,0,0,-1,1049,869,0,0
-168,155,0,0,0,0,0,0,0,0,0,-1,1056,869,0,0
-161,155,0,0,0,0,0,0,0,0,0,-1,1063,869,0,0
-154,155,0,0,0,0,0,0,0,0,0,-1,1070,869,0,0
-147,155,0,0,0,0,0,0,0,0,0,-1,1077,869,0,0
-140,155,0,0,0,0,0,0,0,0,0,-1,1084,869,0,0
-133,155,0,0,0,0,0,0,0,0,0,-1,1091,869,0,0
-126,155,0,0,0,0,0,0,0,0,0,-1,1098,869,0,0
-119,155,0,0,0,0,0,0,0,0,0,-1,1105,869,0,0
-112,155,0,0,0,0,0,0,0,0,0,-1,1112,869,0,0
-105,155,0,0,0,0,0,0,0,0,0,-1,1119,869,0,0
-98,155,0,0,0,0,0,0,0,0,0,-1,1126,869,0,0
-91,155,0,0,0,0,0,0,0,0,0,-1,1133,869,0,0
-84,155,0,0,0,0,0,0,0,0,0,-1,1140,869,0,0
-77,155,0,0,0,0,0,0,0,0,0,-1,1147,869,0,0
-70,155,0,0,0,0,0,0,0,0,0,-1,1154,869,0,0
-63,155,0,0,0,0,0,0,0,0,0,-1,1161,869,0,0
-56,155,0,0,0,0,0,0,0,0,0,-1,1168,869,0,0
-49,155,0,0,0,0,0,0,0,0,0,-1,1175,869,0,0
-42,155,0,0,0,0,0,0,0,0,0,-1,1182,869,0,0
-35,155,0,0,0,0,0,0,0,0,0,-1,1189,869,0,0
-28,155,0,0,0,0,0,0,0,0,0,-1,1196,869,0,0
-21,155,0,0,0,0,0,0,0,0,0,-1,1203,869,0,0
-14,155,0,0,0,0,0,0,0,0,0,-1,1210,869,0,0
-7,155,0,0,0,0,0,0,0,0,0,-1,1217,869,0,0
0,155,0,0,0,0,0,0,0,0,0,-1,1224,869,0,0
7,155,0,0,0,0,0,0,0,0,0,-1,1231,869,0,0
14,155,0,0,0,0,0,0,0,0,0,-1,1238,869,0,0
21,155,0,0,0,0,0,0,0,0,0,-1,1245,869,0,0
28,155,0,0,0,0,0,0,0,0,0,-1,1252,869,0,0
35,155,0,0,0,0,0,0,0,0,0,-1,1259,869,0,0
42,155,0,0,0,0,0,0,0,0,0,-1,1266,869,0,0
49,155,0,0,0,0,0,0,0,0,0,-1,1273,869,0,0
56,155,0,0,0,0,0,0,0,0,0,-1,1280,869,0,0
63,155,0,0,0,0,0,0,0,0,0,-1,1287,869,0,0
70,155,0,0,0,0,0,0,0,0,0,-1,1294,869,0,0
77,155,0,0,0,0,0,0,0,0,0,-1,1301,869,0,0
84,155,0,0,0,0,0,0,0,0,0,-1,1308,869,0,0
91,155,0,0,0,0,0,0,0,0,0,-1,1315,869,0,0
98,155,0,0,0,0,0,0,0,0,0,-1,1322,869,0,0
105,155,0,0,0,0,0,0,0,0,0,-1,1329,869,0,0
112,155,0,0,0,0,0,0,0,0,0,-1,1336,869,0,0
119,155,0,0,0,0,0,0,0,0,0,-1,1343,869,0,0
126,155,0,0,0,0,0,0,0,0,0,-1,1350,869,0,0
133,155,0,0,0,0,0,0,0,0,0,-1,1357,869,0,0
140,155,0,0,0,0,0,0,0,0,0,-1,1364,869,0,0
147,155,0,0,0,0,0,0,0,0,0,-1,1371,869,0,0
154,155,0,0,0,0,0,0,0,0,0,-1,1378,869,0,0
161,155,0,0,0,0,0,0,0,0,0,-1,1385,869,0,0
168,155,0,0,0,0,0,0,0,0,0,-1,1392,869,0,0
175,155,0,0,0,0,0,0,0,0,0,-1,1399,869,0,0
182,155,0,0,0,0,0,0,0,0,0,-1,1406,869,0,0
189,155,0,0,0,0,0,0,0,0,0,-1,1413,869,0,0
196,155,0,0,0,0,0,0,0,0,0,-1,1420,869,0,0
203,155,0,0,0,0,0,0,0,0,0,-1,1427,869,0,0
210,155,0,0,0,0,0,0,0,0,0,-1,1434,869,0,0
217,155,0,0,0,0,0,0,0,0,0,-1,1441,869,0,0
224,155,0,0,0,0,0,0,0,0,0,-1,1448,869,0,0
231,155,0,0,0,0,0,0,0,0,0,-1,1455,869,0,0
238,155,0,0,0,0,0,0,0,0,0,-1,1462,869,0,0
245,155,0,0,0,0,0,0,0,0,0,-1,1469,869,0,0
252,155,0,0,0,0,0,0,0,0,0,-1,1476,869,0,0
259,155,0,0,0,0,0,0,0,0,0,-1,1483,869,0,0
266,155,0,0,0,0,0,0,0,0,0,-1,1490,869,0,0
273,155,0,0,0,0,0,0,0,0,0,-1,1497,869,0,0
280,155,0,0,0,0,0,0,0,0,0,-1,1504,869,0,0
287,155,0,0,0,0,0,0,0,0,0,-1,1511,869,0,0
294,155,0,0,0,0,0,0,0,0,0,-1,1518,869,0,0
301,155,0,0,0,0,0,0,0,0,0,-1,1525,869,0,0
308,155,0,0,0,0,0,0,0,0,0,-1,1532,869,0,0
315,155,0,0,0,0,0,0,0,0,0,-1,1539,869,0,0
322,155,0,0,0,0,0,0,0,0,0,-1,1546,869,0,0
329,155,0,0,0,0,0,0,0,0,0,-1,1553,869,0,0
336,155,0,0,0,0,0,0,0,0,0,-1,1560,869,0,0
343,155,0,0,0,0,0,0,0,0,0,-1,1567,869,0,0
350,155,0,0,0,0,0,0,0,0,0,-1,1574,869,0,0
357,155,0,0,0,0,0,0,0,0,0,-1,1581,869,0,0
364,155,0,0,0,0,0,0,0,0,0,-1,1588,869,0,0
371,155,0,0,0,0,0,0,0,0,0,-1,1595,869,0,0
378,155,0,0,0,0,0,0,0,0,0,-1,1602,869,0,0
385,155,0,0,0,0,0,0,0,0,0,-1,1609,869,0,0
392,155,0,0,0,0,0,0,0,0,0,-1,1616,869,0,0
399,155,0,0,0,0,0,0,0,0,0,-1,1623,869,0,0
406,155,0,0,0,0,0,0,0,0,0,-1,1630,869,0,0
413,155,0,0,0,0,0,0,0,0,0,-1,1637,869,0,0
420,155,0,0,0,0,0,0,0,0,0,-1,1644,869,0,0
427,155,0,0,0,0,0,0,0,0,0,-1,1651,869,0,0
434,155,0,0,0,0,0,0,0,0,0,-1,1658,869,0,0
441,155,0,0,0,0,0,0,0,0,0,-1,1665,869,0,0
448,155,0,0,0,0,0,0,0,0,0,-1,1672,869,0,0
455,155,0,0,0,0,0,0,0,0,0,-1,1679,869,0,0
462,155,0,0,0,0,0,0,0,0,0,-1,1686,869,0,0
469,155,0,0,0,0,0,0,0,0,0,-1,1693,869,0,0
476,155,0,0,0,0,0,0,0,0,0,-1,1700,869,0,0
483,155,0,0,0,0,0,0,0,0,0,-1,1707,869,0,0
490,155,0,0,0,0,0,0,0,0,0,-1,1714,869,0,0
497,155,0,0,0,0,0,0,0,0,0,-1,1721,869,0,0
504,155,0,0,0,0,0,0,0,0,0,-1,1728,869,0,0
511,155,0,0,0,0,0,0,0,0,0,-1,1735,869,0,0
518,155,0,0,0,0,0,0,0,0,0,-1,1742,869,0,0
525,155,0,0,0,0,0,0,0,0,0,-1,1749,869,0,0
532,155,0,0,0,0,0,0,0,0,0,-1,1756,869,0,0
539,155,0,0,0,0,0,0,0,0,0,-1,1763,869,0,0
546,155,0,0,0,0,0,0,0,0,0,-1,1770,869,0,0
553,155,0,0,0,0,0,0,0,0,0,-1,1777,869,0,0
560,155,0,0,0,0,0,0,0,0,0,-1,1784,869,0,0
567,155,0,0,0,0,0,0,0,0,0,-1,1791,869,0,0
574,155,0,0,0,0,0,0,0,0,0,-1,1798,869,0,0
581,155,0,0,0,0,0,0,0,0,0,-1,1805,869,0,0
588,155,0,0,0,0,0,0,0,0,0,-1,1812,869,0,0
595,155,0,0,0,0,0,0,0,0,0,-1,1819,869,0,0
602,155,0,0,0,0,0,0,0,0,0,-1,1826,869,0,0
609,155,0,0,0,0,0,0,0,0,0,-1,1833,869,0,0
616,155,30.7021,3.09155,-0.00917467,-0.000434392,-0.000930534,-0.000336421,-0.00927264,-1.4659,0.00607273,0.0456088,1840,869,30.7022,-3.09155
623,155,30.5978,3.27588,-0.00558067,-0.000462778,-0.00167173,3.48901e-05,-0.00607834,-1.28145,0.00406391,0.0452671,1847,869,30.5978,-3.27589
630,155,30.4237,3.10022,-0.00266501,-0.000597691,-0.00197521,0.000597976,-0.00386068,-1.02646,0.00279452,0.0444619,1854,869,30.4237,-3.1002
637,155,30.4727,2.97351,-0.000526772,-0.00068896,-0.00205501,0.00144875,-0.00266448,-0.765678,0.0024091,0.0395789,1861,869,30.4727,-2.97354
644,155,30.5754,2.78076,0.000737052,-0.000847907,-0.00195802,0.00205688,-0.00216774,-0.593107,0.00243937,0.0335399,1868,869,30.5754,-2.78078
651,155,30.6155,2.81964,0.00125493,-0.000988169,-0.00180922,0.00226203,-0.00199527,-0.507935,0.00245956,0.0333297,1875,869,30.6155,-2.81967
658,155,30.6002,2.87207,0.00140939,-0.00113509,-0.00162099,0.00219779,-0.00192349,-0.45268,0.00238117,0.029195,1882,869,30.6002,-2.87208
665,155,30.5813,2.81232,0.00135649,-0.00123077,-0.00147814,0.00202714,-0.00190141,-0.425933,0.00226854,0.0336919,1889,869,30.5813,-2.81235
672,155,30.6211,2.75775,0.00128791,-0.00116559,-0.00141468,0.00193365,-0.00181133,-0.428212,0.00216255,0.0444069,1896,869,30.6211,-2.75775
679,155,30.626,2.68707,0,0,0,0,0,0,0,-1,1903,869,30.626,-2.6871
686,155,25.6759,2.49017,0,0,0,0,0,0,0,-1,1910,869,25.6759,-2.49015
693,155,25.7374,2.74628,0.000424126,-0.000912792,-0.000762305,0.000769544,-0.00125821,-0.425448,0.001182,0.0258945,1917,869,25.7375,-2.7463
700,155,25.8386,3.06403,0.000246568,-0.00071817,-0.00065612,0.000578554,-0.00105016,-0.468423,0.000953386,0.0197428,1924,869,25.8386,-3.06401
707,155,25.9214,3.40259,0.000476292,-0.00042036,-0.000420557,0.000642673,-0.00058674,-0.376725,0.000710047,0.0150307,1931,869,25.9214,-3.4026
714,155,25.8701,3.62256,0.00118518,0.000150144,-0.000154083,0.00120763,0.000127693,-0.144689,0.000766079,0.0261533,1938,869,25.8701,-3.62253
721,155,25.7158,3.93903,0.00239751,0.000953276,0.000159338,0.00241488,0.000935905,0.108587,0.00140593,0.0254853,1945,869,25.7158,-3.939
728,155,25.7004,4.21417,0.00366536,0.00159083,0.000534712,0.00379507,0.00146112,0.237986,0.00221032,0.0194132,1952,869,25.7004,-4.2142
735,155,25.7268,4.48633,0.00502469,0.00171072,0.00111247,0.0053635,0.00137191,0.295631,0.00321738,0.0150241,1959,869,25.7268,-4.48631
742,155,25.7374,4.77118,0.00593946,0.00111666,0.00190378,0.00660039,0.000455726,0.334149,0.00425649,0.0157926,1966,869,25.7375,-4.77117
749,155,25.7235,5.06274,0.00678565,0.000440095,0.0027571,0.00781622,-0.000590476,0.357707,0.00541837,0.0134339,1973,869,25.7235,-5.06277
756,155,25.7662,5.36847,0.00670656,-0.00154157,0.00374212,0.00815128,-0.00298629,0.36844,0.00665677,0.0239391,1980,869,25.7663,-5.36848
763,155,26.0818,5.67267,0.00494754,-0.00536686,0.00478744,0.00682713,-0.00724644,0.374117,0.00812658,0.0424742,1987,869,26.0817,-5.67264
770,155,26.4597,5.94257,0.000589667,-0.0117129,0.0058389,0.0029196,-0.0140428,0.379675,0.0104717,0.0467809,1994,869,26.4597,-5.94254
777,155,26.7811,6.19995,0,0,0,0,0,0,0,-1,2001,869,26.7811,-6.19993
784,155,26.2592,5.92352,0,0,0,0,0,0,0,-1,2008,869,26.2591,-5.92353
791,155,0,0,0,0,0,0,0,0,0,-1,2015,869,0,0
798,155,0,0,0,0,0,0,0,0,0,-1,2022,869,0,0
805,155,0,0,0,0,0,0,0,0,0,-1,2029,869,0,0
812,155,0,0,0,0,0,0,0,0,0,-1,2036,869,0,0
-700,148,0,0,0,0,0,0,0,0,0,-1,524,876,0,0
-693,148,0,0,0,0,0,0,0,0,0,-1,531,876,0,0
-686,148,0,0,0,0,0,0,0,0,0,-1,538,876,0,0
-679,148,0,0,0,0,0,0,0,0,0,-1,545,876,0,0
-672,148,-17.772,3.56775,-0.00104803,0.0722403,0.0994025,0.141538,-0.0703456,0.961992,0.124611,0.043569,552,876,-17.772,-3.56777
-665,148,-18.363,3.12555,-0.000224929,0.0525148,0.0866648,0.116733,-0.0644429,0.933085,0.106044,0.0439763,559,876,-18.363,-3.12556
-658,148,-18.7286,2.90527,-0.000253253,0.0385108,0.0738964,0.0955248,-0.0572672,0.913652,0.0891315,0.0434948,566,876,-18.7286,-2.90528
-651,148,-18.7614,2.47351,-0.000581601,0.0283325,0.0617122,0.0772584,-0.0495076,0.900456,0.0737706,0.0416191,573,876,-18.7614,-2.47352
-644,148,-19.021,2.56763,-0.000990274,0.0207993,0.0504158,0.061484,-0.041675,0.891811,0.0599238,0.0423191,580,876,-19.021,-2.56764
-637,148,-19.3649,2.64893,-0.00147,0.015168,0.040193,0.0478939,-0.0341958,0.887446,0.047614,0.0448147,587,876,-19.3649,-2.64892
-630,148,-17.8733,2.95581,0,0,0,0,0,0,0,-1,594,876,-17.8733,-2.95584
-623,148,-17.7414,2.82935,-0.00216735,0.00739034,0.0233387,0.0264345,-0.0212115,0.886382,0.0275634,0.022639,601,876,-17.7414,-2.82936
-616,148,-17.816,2.49042,-0.00193469,0.003669,0.0160368,0.0171469,-0.0154126,0.871882,0.0188071,0.0122517,608,876,-17.816,-2.49044
-609,148,-17.8726,2.21313,-0.00204585,0.00218982,0.0108175,0.0110948,-0.0109508,0.882065,0.0127282,0.0112163,615,876,-17.8726,-2.21314
-602,148,-17.9071,1.93671,-0.00175133,0.00180285,0.00669767,0.00695518,-0.00690365,0.915075,0.00800142,0.0121147,622,876,-17.9071,-1.93672
-595,148,-17.9108,1.67322,-0.00200095,0.00161776,0.00358432,0.00382351,-0.0042067,1.01914,0.00463801,0.0108681,629,876,-17.9108,-1.67322
-588,148,-17.9326,1.38837,-0.00087383,0.00105273,0.00160552,0.00196177,-0.00178287,1.0556,0.00216279,0.0155183,636,876,-17.9326,-1.38839
-581,148,-18.0204,1.15527,-0.00038658,0.00107716,0.000738464,0.00138498,-0.000694404,1.17585,0.00122241,0.0263232,643,876,-18.0204,-1.15528
-574,148,-17.8193,0.926331,-0.000296797,0.00084242,0.000476896,0.0010157,-0.000470077,1.22228,0.000876882,0.0307054,650,876,-17.8193,-0.926325
-567,148,-17.9012,0.671936,-0.000165816,0.000873201,0.00028939,0.000948366,-0.00024098,1.31668,0.000726026,0.0388839,657,876,-17.9012,-0.671953
-560,148,-17.8381,0.306824,-2.83447e-05,0.000895852,-6.9566e-05,0.000901059,-3.35517e-05,-1.49609,0.000612197,0.0468823,664,876,-17.8381,-0.306818
-553,148,-19.4144,0.545166,0,0,0,0,0,0,0,-1,671,876,-19.4144,-0.545179
-546,148,-21.2519,0.822388,0,0,0,0,0,0,0,-1,678,876,-21.2519,-0.822417
-539,148,-21.5789,0.877197,0.000186341,0.00172645,-0.000758991,0.00203762,-0.000124832,-1.18171,0.00140188,0.0371503,685,876,-21.5788,-0.877186
-532,148,-21.5867,0.874146,0.000296858,0.00194436,-0.00100851,0.00242279,-0.000181566,-1.12785,0.00167899,0.0360821,692,876,-21.5867,-0.874122
-525,148,-21.5238,1.04022,0.000314036,0.00209267,-0.0013527,0.00282221,-0.000415503,-1.07619,0.00203417,0.0369733,699,876,-21.5238,-1.04023
-518,148,-21.4679,1.18585,0.000556092,0.00212704,-0.00190997,0.00340674,-0.000723608,-0.980481,0.00254686,0.042314,706,876,-21.4679,-1.18584
-511,148,-21.5459,0.980652,0.00143764,0.00204987,-0.00284457,0.00460476,-0.00111724,-0.838999,0.00350217,0.041334,713,876,-21.5459,-0.98066
-504,148,-21.5701,0.800354,0.00212976,0.00184064,-0.00463018,0.00661764,-0.00264724,-0.769793,0.00551037,0.042644,720,876,-21.5701,-0.80033
-497,148,0,0,0,0,0,0,0,0,0,-1,727,876,0,0
-490,148,0,0,0,0,0,0,0,0,0,-1,734,876,0,0
-483,148,0,0,0,0,0,0,0,0,0,-1,741,876,0,0
-476,148,0,0,0,0,0,0,0,0,0,-1,748,876,0,0
-469,148,0,0,0,0,0,0,0,0,0,-1,755,876,0,0
-462,148,0,0,0,0,0,0,0,0,0,-1,762,876,0,0
-455,148,0,0,0,0,0,0,0,0,0,-1,769,876,0,0
-448,148,0,0,0,0,0,0,0,0,0,-1,776,876,0,0
-441,148,0,0,0,0,0,0,0,0,0,-1,783,876,0,0
-434,148,0,0,0,0,0,0,0,0,0,-1,790,876,0,0
-427,148,0,0,0,0,0,0,0,0,0,-1,797,876,0,0
-420,148,0,0,0,0,0,0,0,0,0,-1,804,876,0,0
-413,148,0,0,0,0,0,0,0,0,0,-1,811,876,0,0
-406,148,0,0,0,0,0,0,0,0,0,-1,818,876,0,0
-399,148,0,0,0,0,0,0,0,0,0,-1,825,876,0,0
-392,148,0,0,0,0,0,0,0,0,0,-1,832,876,0,0
-385,148,0,0,0,0,0,0,0,0,0,-1,839,876,0,0
-378,148,0,0,0,0,0,0,0,0,0,-1,846,876,0,0
-371,148,0,0,0,0,0,0,0,0,0,-1,853,876,0,0
-364,148,0,0,0,0,0,0,0,0,0,-1,860,876,0,0
-357,148,0,0,0,0,0,0,0,0,0,-1,867,876,0,0
-350,148,0,0,0,0,0,0,0,0,0,-1,874,876,0,0
-343,148,0,0,0,0,0,0,0,0,0,-1,881,876,0,0
-336,148,0,0,0,0,0,0,0,0,0,-1,888,876,0,0
-329,148,0,0,0,0,0,0,0,0,0,-1,895,876,0,0
-322,148,0,0,0,0,0,0,0,0,0,-1,902,876,0,0
-315,148,0,0,0,0,0,0,0,0,0,-1,909,876,0,0
-308,148,0,0,0,0,0,0,0,0,0,-1,916,876,0,0
-301,148,0,0,0,0,0,0,0,0,0,-1,923,876,0,0
-294,148,0,0,0,0,0,0,0,0,0,-1,930,876,0,0
-287,148,0,0,0,0,0,0,0,0,0,-1,937,876,0,0
-280,148,0,0,0,0,0,0,0,0,0,-1,944,876,0,0
-273,148,0,0,0,0,0,0,0,0,0,-1,951,876,0,0
-266,148,0,0,0,0,0,0,0,0,0,-1,958,876,0,0
-259,148,0,0,0,0,0,0,0,0,0,-1,965,876,0,0
-252,148,0,0,0,0,0,0,0,0,0,-1,972,876,0,0
-245,148,0,0,0,0,0,0,0,0,0,-1,979,876,0,0
-238,148,0,0,0,0,0,0,0,0,0,-1,986,876,0,0
-231,148,0,0,0,0,0,0,0,0,0,-1,993,876,0,0
-224,148,0,0,0,0,0,0,0,0,0,-1,1000,876,0,0
-217,148,0,0,0,0,0,0,0,0,0,-1,1007,876,0,0
-210,148,0,0,0,0,0,0,0,0,0,-1,1014,876,0,0
-203,148,0,0,0,0,0,0,0,0,0,-1,1021,876,0,0
-196,148,0,0,0,0,0,0,0,0,0,-1,1028,876,0,0
-189,148,0,0,0,0,0,0,0,0,0,-1,1035,876,0,0
-182,148,0,0,0,0,0,0,0,0,0,-1,1042,876,0,0
-175,148,0,0,0,0,0,0,0,0,0,-1,1049,876,0,0
-168,148,0,0,0,0,0,0,0,0,0,-1,1056,876,0,0
-161,148,0,0,0,0,0,0,0,0,0,-1,1063,876,0,0
-154,148,0,0,0,0,0,0,0,0,0,-1,1070,876,0,0
-147,148,0,0,0,0,0,0,0,0,0,-1,1077,876,0,0
-140,148,0,0,0,0,0,0,0,0,0,-1,1084,876,0,0
-133,148,0,0,0,0,0,0,0,0,0,-1,1091,876,0,0
-126,148,0,0,0,0,0,0,0,0,0,-1,1098,876,0,0
-119,148,0,0,0,0,0,0,0,0,0,-1,1105,876,0,0
-112,148,0,0,0,0,0,0,0,0,0,-1,1112,876,0,0
-105,148,0,0,0,0,0,0,0,0,0,-1,1119,876,0,0
-98,148,0,0,0,0,0,0,0,0,0,-1,1126,876,0,0
-91,148,0,0,0,0,0,0,0,0,0,-1,1133,876,0,0
-84,148,0,0,0,0,0,0,0,0,0,-1,1140,876,0,0
-77,148,0,0,0,0,0,0,0,0,0,-1,1147,876,0,0
-70,148,0,0,0,0,0,0,0,0,0,-1,1154,876,0,0
-63,148,0,0,0,0,0,0,0,0,0,-1,1161,876,0,0
-56,148,0,0,0,0,0,0,0,0,0,-1,1168,876,0,0
-49,148,0,0,0,0,0,0,0,0,0,-1,1175,876,0,0
-42,148,0,0,0,0,0,0,0,0,0,-1,1182,876,0,0
-35,148,0,0,0,0,0,0,0,0,0,-1,1189,876,0,0
-28,148,0,0,0,0,0,0,0,0,0,-1,1196,876,0,0
-21,148,0,0,0,0,0,0,0,0,0,-1,1203,876,0,0
-14,148,0,0,0,0,0,0,0,0,0,-1,1210,876,0,0
-7,148,0,0,0,0,0,0,0,0,0,-1,1217,876,0,0
0,148,0,0,0,0,0,0,0,0,0,-1,1224,876,0,0
7,148,0,0,0,0,0,0,0,0,0,-1,1231,876,0,0
14,148,0,0,0,0,0,0,0,0,0,-1,1238,876,0,0
21,148,0,0,0,0,0,0,0,0,0,-1,1245,876,0,0
28,148,0,0,0,0,0,0,0,0,0,-1,1252,876,0,0
35,148,0,0,0,0,0,0,0,0,0,-1,1259,876,0,0
42,148,0,0,0,0,0,0,0,0,0,-1,1266,876,0,0
49,148,0,0,0,0,0,0,0,0,0,-1,1273,876,0,0
56,148,0,0,0,0,0,0,0,0,0,-1,1280,876,0,0
63,148,0,0,0,0,0,0,0,0,0,-1,1287,876,0,0
70,148,0,0,0,0,0,0,0,0,0,-1,1294,876,0,0
77,148,0,0,0,0,0,0,0,0,0,-1,1301,876,0,0
84,148,0,0,0,0,0,0,0,0,0,-1,1308,876,0,0
91,148,0,0,0,0,0,0,0,0,0,-1,1315,876,0,0
98,148,0,0,0,0,0,0,0,0,0,-1,1322,876,0,0
105,148,0,0,0,0,0,0,0,0,0,-1,1329,876,0,0
112,148,0,0,0,0,0,0,0,0,0,-1,1336,876,0,0
119,148,0,0,0,0,0,0,0,0,0,-1,1343,876,0,0
126,148,0,0,0,0,0,0,0,0,0,-1,1350,876,0,0
133,148,0,0,0,0,0,0,0,0,0,-1,1357,876,0,0
140,148,0,0,0,0,0,0,0,0,0,-1,1364,876,0,0
147,148,0,0,0,0,0,0,0,0,0,-1,1371,876,0,0
154,148,0,0,0,0,0,0,0,0,0,-1,1378,876,0,0
161,148,0,0,0,0,0,0,0,0,0,-1,1385,876,0,0
168,148,0,0,0,0,0,0,0,0,0,-1,1392,876,0,0
175,148,0,0,0,0,0,0,0,0,0,-1,1399,876,0,0
182,148,0,0,0,0,0,0,0,0,0,-1,1406,876,0,0
189,148,0,0,0,0,0,0,0,0,0,-1,1413,876,0,0
196,148,0,0,0,0,0,0,0,0,0,-1,1420,876,0,0
203,148,0,0,0,0,0,0,0,0,0,-1,1427,876,0,0
210,148,0,0,0,0,0,0,0,0,0,-1,1434,876,0,0
217,148,0,0,0,0,0,0,0,0,0,-1,1441,876,0,0
224,148,0,0,0,0,0,0,0,0,0,-1,1448,876,0,0
231,148,0,0,0,0,0,0,0,0,0,-1,1455,876,0,0
238,148,0,0,0,0,0,0,0,0,0,-1,1462,876,0,0
245,148,0,0,0,0,0,0,0,0,0,-1,1469,876,0,0
252,148,0,0,0,0,0,0,0,0,0,-1,1476,876,0,0
259,148,0,0,0,0,0,0,0,0,0,-1,1483,876,0,0
266,148,0,0,0,0,0,0,0,0,0,-1,1490,876,0,0
273,148,0,0,0,0,0,0,0,0,0,-1,1497,876,0,0
280,148,0,0,0,0,0,0,0,0,0,-1,1504,876,0,0
287,148,0,0,0,0,0,0,0,0,0,-1,1511,876,0,0
294,148,0,0,0,0,0,0,0,0,0,-1,1518,876,0,0
301,148,0,0,0,0,0,0,0,0,0,-1,1525,876,0,0
308,148,0,0,0,0,0,0,0,0,0,-1,1532,876,0,0
315,148,0,0,0,0,0,0,0,0,0,-1,1539,876,0,0
322,148,0,0,0,0,0,0,0,0,0,-1,1546,876,0,0
329,148,0,0,0,0,0,0,0,0,0,-1,1553,876,0,0
336,148,0,0,0,0,0,0,0,0,0,-1,1560,876,0,0
343,148,0,0,0,0,0,0,0,0,0,-1,1567,876,0,0
350,148,0,0,0,0,0,0,0,0,0,-1,1574,876,0,0
357,148,0,0,0,0,0,0,0,0,0,-1,1581,876,0,0
364,148,0,0,0,0,0,0,0,0,0,-1,1588,876,0,0
371,148,0,0,0,0,0,0,0,0,0,-1,1595,876,0,0
378,148,0,0,0,0,0,0,0,0,0,-1,1602,876,0,0
385,148,0,0,0,0,0,0,0,0,0,-1,1609,876,0,0
392,148,0,0,0,0,0,0,0,0,0,-1,1616,876,0,0
399,148,0,0,0,0,0,0,0,0,0,-1,1623,876,0,0
406,148,0,0,0,0,0,0,0,0,0,-1,1630,876,0,0
413,148,0,0,0,0,0,0,0,0,0,-1,1637,876,0,0
420,148,0,0,0,0,0,0,0,0,0,-1,1644,876,0,0
427,148,0,0,0,0,0,0,0,0,0,-1,1651,876,0,0
434,148,0,0,0,0,0,0,0,0,0,-1,1658,876,0,0
441,148,0,0,0,0,0,0,0,0,0,-1,1665,876,0,0
448,148,0,0,0,0,0,0,0,0,0,-1,1672,876,0,0
455,148,0,0,0,0,0,0,0,0,0,-1,1679,876,0,0
462,148,0,0,0,0,0,0,0,0,0,-1,1686,876,0,0
469,148,0,0,0,0,0,0,0,0,0,-1,1693,876,0,0
476,148,0,0,0,0,0,0,0,0,0,-1,1700,876,0,0
483,148,0,0,0,0,0,0,0,0,0,-1,1707,876,0,0
490,148,0,0,0,0,0,0,0,0,0,-1,1714,876,0,0
497,148,0,0,0,0,0,0,0,0,0,-1,1721,876,0,0
504,148,0,0,0,0,0,0,0,0,0,-1,1728,876,0,0
511,148,0,0,0,0,0,0,0,0,0,-1,1735,876,0,0
518,148,0,0,0,0,0,0,0,0,0,-1,1742,876,0,0
525,148,0,0,0,0,0,0,0,0,0,-1,1749,876,0,0
532,148,0,0,0,0,0,0,0,0,0,-1,1756,876,0,0
539,148,0,0,0,0,0,0,0,0,0,-1,1763,876,0,0
546,148,0,0,0,0,0,0,0,0,0,-1,1770,876,0,0
553,148,0,0,0,0,0,0,0,0,0,-1,1777,876,0,0
560,148,0,0,0,0,0,0,0,0,0,-1,1784,876,0,0
567,148,0,0,0,0,0,0,0,0,0,-1,1791,876,0,0
574,148,0,0,0,0,0,0,0,0,0,-1,1798,876,0,0
581,148,0,0,0,0,0,0,0,0,0,-1,1805,876,0,0
588,148,0,0,0,0,0,0,0,0,0,-1,1812,876,0,0
595,148,0,0,0,0,0,0,0,0,0,-1,1819,876,0,0
602,148,0,0,0,0,0,0,0,0,0,-1,1826,876,0,0
609,148,0,0,0,0,0,0,0,0,0,-1,1833,876,0,0
616,148,0,0,0,0,0,0,0,0,0,-1,1840,876,0,0
623,148,30.5576,3.21851,-0.00540474,-5.48813e-05,-0.00240215,0.000865401,-0.00632503,-1.20494,0.00453277,0.0427336,1847,876,30.5576,-3.2185
630,148,30.3777,3.10651,-0.00268291,-0.000213075,-0.00260961,0.00143906,-0.00433505,-1.0064,0.00347063,0.0436255,1854,876,30.3777,-3.1065
637,148,30.4719,3.01038,-0.000672952,-0.000305197,-0.00257684,0.00209432,-0.00307246,-0.821017,0.00300081,0.0387851,1861,876,30.4719,-3.01039
644,148,30.5598,2.81305,0.000534704,-0.000462899,-0.00235286,0.00244105,-0.00236925,-0.680946,0.00277733,0.0354118,1868,876,30.5598,-2.81307
651,148,30.5667,2.776,0.00103925,-0.000578692,-0.00208618,0.00246782,-0.00200726,-0.600436,0.00258824,0.0378486,1875,876,30.5667,-2.77601
658,148,30.5271,2.84613,0.00116069,-0.000704451,-0.00180257,0.00225764,-0.0018014,-0.546681,0.00234842,0.0332548,1882,876,30.5271,-2.84614
665,148,30.4828,2.9563,0.00109921,-0.000800855,-0.00157214,0.00198608,-0.00168772,-0.513614,0.0021234,0.0251575,1889,876,30.4828,-2.9563
672,148,30.5406,2.84338,0.00103292,-0.000746062,-0.0014294,0.00182699,-0.00154013,-0.507077,0.00194636,0.0308131,1896,876,30.5407,-2.84341
679,148,30.3785,2.9621,0,0,0,0,0,0,0,-1,1903,876,30.3785,-2.96211
686,148,21.6195,2.40845,0,0,0,0,0,0,0,-1,1910,876,21.6196,-2.40846
693,148,25.9384,2.77863,0,0,0,0,0,0,0,-1,1917,876,25.9384,-2.77863
700,148,26.1466,3.1153,0.000101106,-0.00039025,-0.000586231,0.000491057,-0.000780201,-0.586975,0.000740262,0.0206212,1924,876,26.1466,-3.11532
707,148,26.2732,3.49707,0.000354754,-0.000154035,-0.000352186,0.000534815,-0.000334096,-0.47262,0.000506108,0.0178404,1931,876,26.2733,-3.49705
714,148,26.1976,3.68524,0.00108022,0.000301111,-0.000122289,0.00109897,0.000282367,-0.152089,0.000659006,0.01744,1938,876,26.1976,-3.68522
721,148,26.0378,3.91321,0.00221581,0.000934162,0.000116494,0.00222631,0.000923659,0.0899118,0.00129156,0.0174545,1945,876,26.0379,-3.91323
728,148,26.0242,4.21729,0.00332442,0.00143001,0.000452856,0.00342711,0.00132732,0.222987,0.00199532,0.0200752,1952,876,26.0242,-4.21728
735,148,26.0475,4.49896,0.00450628,0.00136187,0.001027,0.00481199,0.00105616,0.289319,0.00292031,0.0186876,1959,876,26.0475,-4.49898
742,148,26.0289,4.79614,0.00521458,0.000571244,0.00176654,0.00581024,-2.44158e-05,0.325218,0.00388166,0.0188666,1966,876,26.0289,-4.79613
749,148,26.0219,5.08014,0.00579159,-0.000184772,0.00248599,0.00669048,-0.00108367,0.346958,0.00486197,0.0148334,1973,876,26.0218,-5.08014
756,148,26.0159,5.33563,0.00546639,-0.00226705,0.00336186,0.0067235,-0.00352416,0.357835,0.00601183,0.0202854,1980,876,26.0159,-5.33563
763,148,26.4883,5.5481,0.003554,-0.00601218,0.00423196,0.00515742,-0.0076156,0.36217,0.00741989,0.0409588,1987,876,26.4883,-5.54807
770,148,26.6945,5.74829,0,0,0,0,0,0,0,-1,1994,876,26.6945,-5.74831
777,148,28.4258,4.0368,0,0,0,0,0,0,0,-1,2001,876,28.4258,-4.03678
784,148,28.5155,4.10406,0,0,0,0,0,0,0,-1,2008,876,28.5155,-4.10404
791,148,27.9893,4.39136,0,0,0,0,0,0,0,-1,2015,876,27.9893,-4.39135
798,148,0,0,0,0,0,0,0,0,0,-1,2022,876,0,0
805,148,0,0,0,0,0,0,0,0,0,-1,2029,876,0,0
812,148,0,0,0,0,0,0,0,0,0,-1,2036,876,0,0
-700,141,0,0,0,0,0,0,0,0,0,-1,524,883,0,0
-693,141,0,0,0,0,0,0,0,0,0,-1,531,883,0,0
-686,141,0,0,0,0,0,0,0,0,0,-1,538,883,0,0
-679,141,0,0,0,0,0,0,0,0,0,-1,545,883,0,0
-672,141,-19.9379,2.53802,0.00889664,0.0751551,0.100541,0.147884,-0.0638323,0.944551,0.125404,0.0464782,552,883,-19.9378,-2.53804
-665,141,-19.6714,3.52948,0.00787814,0.0541031,0.0863699,0.1204,-0.0584183,0.916134,0.105287,0.0462794,559,883,-19.6714,-3.52946
-658,141,-19.9368,3.16083,0.00629262,0.0392249,0.072919,0.0975138,-0.0519963,0.896443,0.087643,0.0465937,566,883,-19.9368,-3.16085
-651,141,-20.0887,2.72791,0.00463069,0.0285123,0.0604798,0.0782189,-0.0450758,0.882862,0.0720364,0.041973,573,883,-20.0887,-2.72788
-644,141,-20.3534,2.85565,0.00306631,0.020693,0.0491854,0.0618485,-0.0380891,0.87405,0.05824,0.0417292,580,883,-20.3534,-2.85567
-637,141,-18.6593,3.93927,0,0,0,0,0,0,0,-1,587,883,-18.6593,-3.93926
-630,141,-18.3627,3.39087,0.000430323,0.010705,0.0302575,0.0362582,-0.0251228,0.86949,0.0356322,0.0408079,594,883,-18.3627,-3.39085
-623,141,-17.9991,2.73718,-0.00051724,0.00707787,0.0225952,0.0261924,-0.0196318,0.868655,0.0265468,0.0247322,601,883,-17.9991,-2.73715
-616,141,-18.1017,2.4613,-0.000867085,0.00347224,0.0154475,0.0169017,-0.0142966,0.855169,0.0180333,0.0126128,608,883,-18.1017,-2.46131
-609,141,-18.1415,2.21136,-0.00142173,0.00203689,0.0102984,0.0107501,-0.010135,0.868582,0.0120598,0.0126152,615,883,-18.1415,-2.21139
-602,141,-18.1639,1.95264,-0.00147315,0.00171775,0.00632135,0.00664188,-0.00639728,0.909012,0.0075286,0.0126181,622,883,-18.164,-1.95266
-595,141,-18.1753,1.69287,-0.00205596,0.00159497,0.00335712,0.00359084,-0.00405183,1.03442,0.00441517,0.0115455,629,883,-18.1753,-1.69286
-588,141,-18.3412,1.44611,-0.00103531,0.00108558,0.00149306,0.00185647,-0.0018062,1.09418,0.00211471,0.0191069,636,883,-18.3412,-1.44613
-581,141,-18.3018,1.17236,-0.000634301,0.0010496,0.000666691,0.0012816,-0.000866295,1.23592,0.00124779,0.0261825,643,883,-18.3018,-1.17234
-574,141,-18.0429,0.983582,-0.000591948,0.000771772,0.000441087,0.000902002,-0.000722179,1.2837,0.000939635,0.0331745,650,883,-18.0429,-0.983566
-567,141,-18.0622,0.827454,-0.000417304,0.000794248,0.000243203,0.000841245,-0.000464301,1.37991,0.000764158,0.0361802,657,883,-18.0622,-0.827447
-560,141,-17.95,0.502319,0,0,0,0,0,0,0,-1,664,883,-17.9499,-0.502302
-553,141,-19.8177,1.14563,0,0,0,0,0,0,0,-1,671,883,-19.8177,-1.14564
-546,141,-21.528,1.08203,-1.53897e-05,0.00139234,-0.000640853,0.00164038,-0.000263427,-1.20151,0.00119115,0.0381188,678,883,-21.528,-1.082
-539,141,-21.5495,0.916504,0.000150115,0.00155295,-0.000862869,0.00196353,-0.000260461,-1.12667,0.00140392,0.0299538,685,883,-21.5495,-0.916515
-532,141,-21.6413,0.877197,0.000264014,0.00176578,-0.00115392,0.00239161,-0.000361821,-1.07384,0.00172769,0.029927,692,883,-21.6413,-0.877169
-525,141,-21.5853,1.10559,0.000290772,0.00193333,-0.00159563,0.00290664,-0.000682536,-1.02307,0.00220084,0.0393705,699,883,-21.5853,-1.10556
-518,141,-21.4825,1.40729,0.00053335,0.00205549,-0.00232094,0.00373696,-0.00114812,-0.943831,0.00294946,0.0439657,706,883,-21.4825,-1.4073
-511,141,-21.5012,1.24988,0.00131379,0.00220288,-0.00351938,0.00530568,-0.00178901,-0.848223,0.00426056,0.0405643,713,883,-21.5012,-1.24986
-504,141,-21.5248,0.706604,0.00137806,0.00243221,-0.00564863,0.0075783,-0.00376803,-0.831918,0.00667279,0.0413831,720,883,-21.5249,-0.706581
-497,141,0,0,0,0,0,0,0,0,0,-1,727,883,0,0
-490,141,0,0,0,0,0,0,0,0,0,-1,734,883,0,0
-483,141,0,0,0,0,0,0,0,0,0,-1,741,883,0,0
-476,141,0,0,0,0,0,0,0,0,0,-1,748,883,0,0
-469,141,0,0,0,0,0,0,0,0,0,-1,755,883,0,0
-462,141,0,0,0,0,0,0,0,0,0,-1,762,883,0,0
-455,141,0,0,0,0,0,0,0,0,0,-1,769,883,0,0
-448,141,0,0,0,0,0,0,0,0,0,-1,776,883,0,0
-441,141,0,0,0,0,0,0,0,0,0,-1,783,883,0,0
-434,141,0,0,0,0,0,0,0,0,0,-1,790,883,0,0
-427,141,0,0,0,0,0,0,0,0,0,-1,797,883,0,0
-420,141,0,0,0,0,0,0,0,0,0,-1,804,883,0,0
-413,141,0,0,0,0,0,0,0,0,0,-1,811,883,0,0
-406,141,0,0,0,0,0,0,0,0,0,-1,818,883,0,0
-399,141,0,0,0,0,0,0,0,0,0,-1,825,883,0,0
-392,141,0,0,0,0,0,0,0,0,0,-1,832,883,0,0
-385,141,0,0,0,0,0,0,0,0,0,-1,839,883,0,0
-378,141,0,0,0,0,0,0,0,0,0,-1,846,883,0,0
-371,141,0,0,0,0,0,0,0,0,0,-1,853,883,0,0
-364,141,0,0,0,0,0,0,0,0,0,-1,860,883,0,0
-357,141,0,0,0,0,0,0,0,0,0,-1,867,883,0,0
-350,141,0,0,0,0,0,0,0,0,0,-1,874,883,0,0
-343,141,0,0,0,0,0,0,0,0,0,-1,881,883,0,0
-336,141,0,0,0,0,0,0,0,0,0,-1,888,883,0,0
-329,141,0,0,0,0,0,0,0,0,0,-1,895,883,0,0
-322,141,0,0,0,0,0,0,0,0,0,-1,902,883,0,0
-315,141,0,0,0,0,0,0,0,0,0,-1,909,883,0,0
-308,141,0,0,0,0,0,0,0,0,0,-1,916,883,0,0
-301,141,0,0,0,0,0,0,0,0,0,-1,923,883,0,0
-294,141,0,0,0,0,0,0,0,0,0,-1,930,883,0,0
-287,141,0,0,0,0,0,0,0,0,0,-1,937,883,0,0
-280,141,0,0,0,0,0,0,0,0,0,-1,944,883,0,0
-273,141,0,0,0,0,0,0,0,0,0,-1,951,883,0,0
-266,141,0,0,0,0,0,0,0,0,0,-1,958,883,0,0
-259,141,0,0,0,0,0,0,0,0,0,-1,965,883,0,0
-252,141,0,0,0,0,0,0,0,0,0,-1,972,883,0,0
-245,141,0,0,0,0,0,0,0,0,0,-1,979,883,0,0
-238,141,0,0,0,0,0,0,0,0,0,-1,986,883,0,0
-231,141,0,0,0,0,0,0,0,0,0,-1,993,883,0,0
-224,141,0,0,0,0,0,0,0,0,0,-1,1000,883,0,0
-217,141,0,0,0,0,0,0,0,0,0,-1,1007,883,0,0
-210,141,0,0,0,0,0,0,0,0,0,-1,1014,883,0,0
-203,141,0,0,0,0,0,0,0,0,0,-1,1021,883,0,0
-196,141,0,0,0,0,0,0,0,0,0,-1,1028,883,0,0
-189,141,0,0,0,0,0,0,0,0,0,-1,1035,883,0,0
-182,141,0,0,0,0,0,0,0,0,0,-1,1042,883,0,0
-175,141,0,0,0,0,0,0,0,0,0,-1,1049,883,0,0
-168,141,0,0,0,0,0,0,0,0,0,-1,1056,883,0,0
-161,141,0,0,0,0,0,0,0,0,0,-1,1063,883,0,0
-154,141,0,0,0,0,0,0,0,0,0,-1,1070,883,0,0
-147,141,0,0,0,0,0,0,0,0,0,-1,1077,883,0,0
-140,141,0,0,0,0,0,0,0,0,0,-1,1084,883,0,0
-133,141,0,0,0,0,0,0,0,0,0,-1,1091,883,0,0
-126,141,0,0,0,0,0,0,0,0,0,-1,1098,883,0,0
-119,141,0,0,0,0,0,0,0,0,0,-1,1105,883,0,0
-112,141,0,0,0,0,0,0,0,0,0,-1,1112,883,0,0
-105,141,0,0,0,0,0,0,0,0,0,-1,1119,883,0,0
-98,141,0,0,0,0,0,0,0,0,0,-1,1126,883,0,0
-91,141,0,0,0,0,0,0,0,0,0,-1,1133,883,0,0
-84,141,0,0,0,0,0,0,0,0,0,-1,1140,883,0,0
-77,141,0,0,0,0,0,0,0,0,0,-1,1147,883,0,0
-70,141,0,0,0,0,0,0,0,0,0,-1,1154,883,0,0
-63,141,0,0,0,0,0,0,0,0,0,-1,1161,883,0,0
-56,141,0,0,0,0,0,0,0,0,0,-1,1168,883,0,0
-49,141,0,0,0,0,0,0,0,0,0,-1,1175,883,0,0
-42,141,0,0,0,0,0,0,0,0,0,-1,1182,883,0,0
-35,141,0,0,0,0,0,0,0,0,0,-1,1189,883,0,0
-28,141,0,0,0,0,0,0,0,0,0,-1,1196,883,0,0
-21,141,0,0,0,0,0,0,0,0,0,-1,1203,883,0,0
-14,141,0,0,0,0,0,0,0,0,0,-1,1210,883,0,0
-7,141,0,0,0,0,0,0,0,0,0,-1,1217,883,0,0
0,141,0,0,0,0,0,0,0,0,0,-1,1224,883,0,0
7,141,0,0,0,0,0,0,0,0,0,-1,1231,883,0,0
14,141,0,0,0,0,0,0,0,0,0,-1,1238,883,0,0
21,141,0,0,0,0,0,0,0,0,0,-1,1245,883,0,0
28,141,0,0,0,0,0,0,0,0,0,-1,1252,883,0,0
35,141,0,0,0,0,0,0,0,0,0,-1,1259,883,0,0
42,141,0,0,0,0,0,0,0,0,0,-1,1266,883,0,0
49,141,0,0,0,0,0,0,0,0,0,-1,1273,883,0,0
56,141,0,0,0,0,0,0,0,0,0,-1,1280,883,0,0
63,141,0,0,0,0,0,0,0,0,0,-1,1287,883,0,0
70,141,0,0,0,0,0,0,0,0,0,-1,1294,883,0,0
77,141,0,0,0,0,0,0,0,0,0,-1,1301,883,0,0
84,141,0,0,0,0,0,0,0,0,0,-1,1308,883,0,0
91,141,0,0,0,0,0,0,0,0,0,-1,1315,883,0,0
98,141,0,0,0,0,0,0,0,0,0,-1,1322,883,0,0
105,141,0,0,0,0,0,0,0,0,0,-1,1329,883,0,0
112,141,0,0,0,0,0,0,0,0,0,-1,1336,883,0,0
119,141,0,0,0,0,0,0,0,0,0,-1,1343,883,0,0
126,141,0,0,0,0,0,0,0,0,0,-1,1350,883,0,0
133,141,0,0,0,0,0,0,0,0,0,-1,1357,883,0,0
140,141,0,0,0,0,0,0,0,0,0,-1,1364,883,0,0
147,141,0,0,0,0,0,0,0,0,0,-1,1371,883,0,0
154,141,0,0,0,0,0,0,0,0,0,-1,1378,883,0,0
161,141,0,0,0,0,0,0,0,0,0,-1,1385,883,0,0
168,141,0,0,0,0,0,0,0,0,0,-1,1392,883,0,0
175,141,0,0,0,0,0,0,0,0,0,-1,1399,883,0,0
182,141,0,0,0,0,0,0,0,0,0,-1,1406,883,0,0
189,141,0,0,0,0,0,0,0,0,0,-1,1413,883,0,0
196,141,0,0,0,0,0,0,0,0,0,-1,1420,883,0,0
203,141,0,0,0,0,0,0,0,0,0,-1,1427,883,0,0
210,141,0,0,0,0,0,0,0,0,0,-1,1434,883,0,0
217,141,0,0,0,0,0,0,0,0,0,-1,1441,883,0,0
224,141,0,0,0,0,0,0,0,0,0,-1,1448,883,0,0
231,141,0,0,0,0,0,0,0,0,0,-1,1455,883,0,0
238,141,0,0,0,0,0,0,0,0,0,-1,1462,883,0,0
245,141,0,0,0,0,0,0,0,0,0,-1,1469,883,0,0
252,141,0,0,0,0,0,0,0,0,0,-1,1476,883,0,0
259,141,0,0,0,0,0,0,0,0,0,-1,1483,883,0,0
266,141,0,0,0,0,0,0,0,0,0,-1,1490,883,0,0
273,141,0,0,0,0,0,0,0,0,0,-1,1497,883,0,0
280,141,0,0,0,0,0,0,0,0,0,-1,1504,883,0,0
287,141,0,0,0,0,0,0,0,0,0,-1,1511,883,0,0
294,141,0,0,0,0,0,0,0,0,0,-1,1518,883,0,0
301,141,0,0,0,0,0,0,0,0,0,-1,1525,883,0,0
308,141,0,0,0,0,0,0,0,0,0,-1,1532,883,0,0
315,141,0,0,0,0,0,0,0,0,0,-1,1539,883,0,0
322,141,0,0,0,0,0,0,0,0,0,-1,1546,883,0,0
329,141,0,0,0,0,0,0,0,0,0,-1,1553,883,0,0
336,141,0,0,0,0,0,0,0,0,0,-1,1560,883,0,0
343,141,0,0,0,0,0,0,0,0,0,-1,1567,883,0,0
350,141,0,0,0,0,0,0,0,0,0,-1,1574,883,0,0
357,141,0,0,0,0,0,0,0,0,0,-1,1581,883,0,0
364,141,0,0,0,0,0,0,0,0,0,-1,1588,883,0,0
371,141,0,0,0,0,0,0,0,0,0,-1,1595,883,0,0
378,141,0,0,0,0,0,0,0,0,0,-1,1602,883,0,0
385,141,0,0,0,0,0,0,0,0,0,-1,1609,883,0,0
392,141,0,0,0,0,0,0,0,0,0,-1,1616,883,0,0
399,141,0,0,0,0,0,0,0,0,0,-1,1623,883,0,0
406,141,0,0,0,0,0,0,0,0,0,-1,1630,883,0,0
413,141,0,0,0,0,0,0,0,0,0,-1,1637,883,0,0
420,141,0,0,0,0,0,0,0,0,0,-1,1644,883,0,0
427,141,0,0,0,0,0,0,0,0,0,-1,1651,883,0,0
434,141,0,0,0,0,0,0,0,0,0,-1,1658,883,0,0
441,141,0,0,0,0,0,0,0,0,0,-1,1665,883,0,0
448,141,0,0,0,0,0,0,0,0,0,-1,1672,883,0,0
455,141,0,0,0,0,0,0,0,0,0,-1,1679,883,0,0
462,141,0,0,0,0,0,0,0,0,0,-1,1686,883,0,0
469,141,0,0,0,0,0,0,0,0,0,-1,1693,883,0,0
476,141,0,0,0,0,0,0,0,0,0,-1,1700,883,0,0
483,141,0,0,0,0,0,0,0,0,0,-1,1707,883,0,0
490,141,0,0,0,0,0,0,0,0,0,-1,1714,883,0,0
497,141,0,0,0,0,0,0,0,0,0,-1,1721,883,0,0
504,141,0,0,0,0,0,0,0,0,0,-1,1728,883,0,0
511,141,0,0,0,0,0,0,0,0,0,-1,1735,883,0,0
518,141,0,0,0,0,0,0,0,0,0,-1,1742,883,0,0
525,141,0,0,0,0,0,0,0,0,0,-1,1749,883,0,0
532,141,0,0,0,0,0,0,0,0,0,-1,1756,883,0,0
539,141,0,0,0,0,0,0,0,0,0,-1,1763,883,0,0
546,141,0,0,0,0,0,0,0,0,0,-1,1770,883,0,0
553,141,0,0,0,0,0,0,0,0,0,-1,1777,883,0,0
560,141,0,0,0,0,0,0,0,0,0,-1,1784,883,0,0
567,141,0,0,0,0,0,0,0,0,0,-1,1791,883,0,0
574,141,0,0,0,0,0,0,0,0,0,-1,1798,883,0,0
581,141,0,0,0,0,0,0,0,0,0,-1,1805,883,0,0
588,141,0,0,0,0,0,0,0,0,0,-1,1812,883,0,0
595,141,0,0,0,0,0,0,0,0,0,-1,1819,883,0,0
602,141,0,0,0,0,0,0,0,0,0,-1,1826,883,0,0
609,141,0,0,0,0,0,0,0,0,0,-1,1833,883,0,0
616,141,0,0,0,0,0,0,0,0,0,-1,1840,883,0,0
623,141,30.4353,3.13879,-0.00447467,0.000547584,-0.00316316,0.00207519,-0.00600227,-1.12089,0.00484376,0.0462444,1847,883,30.4353,-3.13877
630,141,30.4138,3.05542,-0.00222012,0.00035571,-0.00328313,0.00259451,-0.00445892,-0.972316,0.00411944,0.0479607,1854,883,30.4138,-3.05543
637,141,30.4686,3.01215,-0.000576613,0.000274201,-0.00315877,0.00303608,-0.00333849,-0.852333,0.00368174,0.0454324,1861,883,30.4686,-3.01212
644,141,30.3636,2.97064,0.000396984,0.00012227,-0.00281118,0.00307416,-0.0025549,-0.760987,0.00325454,0.0399986,1868,883,30.3637,-2.97062
651,141,30.5692,2.74695,0.000792056,2.75609e-05,-0.00240429,0.0028443,-0.00202468,-0.706565,0.00282435,0.0407361,1875,883,30.5693,-2.74697
658,141,30.5967,2.73083,0.000841493,-7.71556e-05,-0.00199519,0.00242955,-0.00166521,-0.672262,0.0023778,0.0366759,1882,883,30.5967,-2.73082
665,141,30.5011,2.88324,0.00076859,-0.000176236,-0.00165295,0.00201531,-0.00142296,-0.646209,0.00199488,0.0276639,1889,883,30.5012,-2.88327
672,141,30.4797,2.9292,0.000705568,-0.000165066,-0.00141012,0.00174603,-0.00120553,-0.635684,0.00171358,0.0244565,1896,883,30.4797,-2.9292
679,141,30.4661,2.87958,0.000590222,-0.000248523,-0.0011206,0.00136735,-0.00102565,-0.606346,0.00138628,0.035773,1903,883,30.466,-2.87957
686,141,30.5021,2.77637,0,0,0,0,0,0,0,-1,1910,883,30.5021,-2.77637
693,141,26.1735,2.71735,0,0,0,0,0,0,0,-1,1917,883,26.1735,-2.71734
700,141,26.4186,3.08459,-7.03104e-05,-2.67713e-05,-0.000482505,0.000434455,-0.000531536,-0.807942,0.000558653,0.0206628,1924,883,26.4186,-3.08458
707,141,26.4275,3.4021,0.000190866,0.00013227,-0.000246256,0.000409561,-8.64248e-05,-0.726189,0.000305945,0.0180932,1931,883,26.4275,-3.40212
714,141,26.303,3.64368,0.000900562,0.000488168,-6.09133e-05,0.000909371,0.000479359,-0.143622,0.000525283,0.0182696,1938,883,26.303,-3.64368
721,141,26.3201,3.92908,0.00193181,0.000915117,9.99645e-05,0.00194155,0.000905381,0.0970841,0.0011218,0.0129138,1945,883,26.3201,-3.92911
728,141,26.351,4.17505,0.00284308,0.00123407,0.000393065,0.00293396,0.00114318,0.227236,0.00170762,0.0152836,1952,883,26.351,-4.17505
735,141,26.3285,4.5014,0.00380769,0.00104335,0.000985591,0.0041231,0.000727939,0.309723,0.00254109,0.0164975,1959,883,26.3284,-4.50143
742,141,26.3146,4.79156,0.00432932,0.000212242,0.00171649,0.00495107,-0.000409502,0.347518,0.00344533,0.0162603,1966,883,26.3146,-4.79158
749,141,26.3248,5.06152,0.00468957,-0.000517736,0.00243351,0.00564976,-0.00147793,0.375816,0.00434378,0.0125125,1973,883,26.3249,-5.06155
756,141,26.3064,5.34094,0.00421515,-0.00248397,0.00337128,0.00561797,-0.00388678,0.394314,0.00551783,0.020276,1980,883,26.3064,-5.34093
763,141,26.3591,5.6496,0.00230406,-0.00587412,0.00432192,0.00416473,-0.00773479,0.406536,0.00697249,0.0436907,1987,883,26.3591,-5.64963
770,141,26.5377,5.99438,0,0,0,0,0,0,0,-1,1994,883,26.5378,-5.99441
777,141,28.9111,4.59705,-0.008539,-0.0187098,0.00567498,-0.00600425,-0.0212445,0.420068,0.012646,0.0427438,2001,883,28.9111,-4.59703
784,141,28.4094,4.67004,-0.019446,-0.0290224,0.0054494,-0.01698,-0.0314883,0.424947,0.0181984,0.0460956,2008,883,28.4094,-4.67006
791,141,28.0096,4.99066,-0.0355501,-0.0422872,0.00409064,-0.0336196,-0.0442177,0.440953,0.0266575,0.0469505,2015,883,28.0097,-4.99067
798,141,0,0,0,0,0,0,0,0,0,-1,2022,883,0,0
805,141,0,0,0,0,0,0,0,0,0,-1,2029,883,0,0
812,141,0,0,0,0,0,0,0,0,0,-1,2036,883,0,0
-700,134,0,0,0,0,0,0,0,0,0,-1,524,890,0,0
-693,134,0,0,0,0,0,0,0,0,0,-1,531,890,0,0
-686,134,0,0,0,0,0,0,0,0,0,-1,538,890,0,0
-679,134,0,0,0,0,0,0,0,0,0,-1,545,890,0,0
-672,134,-21.0405,1.94244,0.0248652,0.0674728,0.0939907,0.142544,-0.0502058,0.896844,0.115462,0.0473898,552,890,-21.0405,-1.94244
-665,134,-21.1724,2.17853,0.0191066,0.0486725,0.0802846,0.115524,-0.0477448,0.876444,0.0969329,0.0446841,559,890,-21.1724,-2.17851
-658,134,-21.3548,2.61066,0.0142973,0.0352821,0.0675824,0.0931817,-0.0436023,0.86241,0.080683,0.0407136,566,890,-21.3548,-2.61064
-651,134,-21.6136,3.02637,0.0103634,0.0256081,0.0559792,0.0744815,-0.0385101,0.853064,0.0663285,0.0421844,573,890,-21.6136,-3.02638
-644,134,-21.5449,3.11658,0.00715537,0.0185583,0.045525,0.0587374,-0.0330238,0.847693,0.0536673,0.0432093,580,890,-21.5449,-3.1166
-637,134,-21.4386,2.95599,0,0,0,0,0,0,0,-1,587,890,-21.4386,-2.95599
-630,134,-18.4777,2.39868,0.00222883,0.00966396,0.0281102,0.0343013,-0.0224085,0.851142,0.0329806,0.0440583,594,890,-18.4777,-2.39871
-623,134,-18.2958,2.68274,0.000553121,0.00632384,0.0209587,0.0245949,-0.0177179,0.853802,0.0245367,0.0237429,601,890,-18.2959,-2.68275
-616,134,-18.3929,2.46271,-0.000275104,0.00303349,0.0142919,0.0157665,-0.0130081,0.843017,0.0166385,0.0123458,608,890,-18.3929,-2.46273
-609,134,-18.4235,2.21106,-0.00118365,0.00180011,0.00947497,0.00989993,-0.00928347,0.863485,0.0110775,0.0114383,615,890,-18.4235,-2.21105
-602,134,-18.4317,1.94885,-0.00147316,0.00158598,0.005869,0.00612145,-0.00600863,0.912872,0.00700341,0.0125868,622,890,-18.4317,-1.94885
-595,134,-18.4213,1.7243,-0.00228237,0.0014864,0.00315065,0.00327319,-0.00406915,1.05491,0.0042474,0.0144173,629,890,-18.4213,-1.72433
-588,134,-18.6703,1.53223,-0.00137886,0.00104477,0.00142475,0.00170336,-0.00203744,1.1378,0.00216262,0.024369,636,890,-18.6703,-1.53222
-581,134,-18.617,1.11566,-0.00104247,0.000957416,0.000634913,0.00114196,-0.00122701,1.28794,0.00136802,0.0324438,643,890,-18.617,-1.11568
-574,134,-18.5526,0.84375,-0.00102511,0.000659946,0.000415842,0.00075698,-0.00112214,1.34155,0.00109172,0.034552,650,890,-18.5525,-0.843756
-567,134,-18.3289,0.650696,-0.000831,0.000668892,0.000203367,0.000695977,-0.000858085,1.43839,0.000898864,0.0293373,657,890,-18.3289,-0.650686
-560,134,-18.2852,0.546692,0,0,0,0,0,0,0,-1,664,890,-18.2852,-0.546703
-553,134,-21.5029,0.968018,0,0,0,0,0,0,0,-1,671,890,-21.5029,-0.968014
-546,134,-21.4994,0.983276,-0.000243819,0.00120059,-0.00066857,0.00146255,-0.000505771,-1.19737,0.00118031,0.0272817,678,890,-21.4994,-0.983252
-539,134,-21.5195,0.963989,-4.05704e-05,0.00139894,-0.000913853,0.00184245,-0.000484076,-1.11897,0.00141748,0.0187738,685,890,-21.5195,-0.96401
-532,134,-21.5489,1.01062,0.000121249,0.00163211,-0.00124105,0.00232956,-0.000576204,-1.0588,0.00177653,0.0236764,692,890,-21.5489,-1.01059
-525,134,-21.5266,1.17438,0.000185361,0.00186712,-0.00178182,0.00299651,-0.000944029,-1.00587,0.00237572,0.0370055,699,890,-21.5265,-1.17435
-518,134,-21.5029,1.57477,0.000404912,0.00216047,-0.00268371,0.0041063,-0.00154092,-0.943453,0.0033707,0.0444092,706,890,-21.5029,-1.57476
-511,134,-21.5147,1.3418,0.00103795,0.00270345,-0.00415695,0.00611023,-0.00236884,-0.884253,0.00505176,0.0436055,713,890,-21.5147,-1.3418
-504,134,0,0,0,0,0,0,0,0,0,-1,720,890,0,0
-497,134,0,0,0,0,0,0,0,0,0,-1,727,890,0,0
-490,134,0,0,0,0,0,0,0,0,0,-1,734,890,0,0
-483,134,0,0,0,0,0,0,0,0,0,-1,741,890,0,0
-476,134,0,0,0,0,0,0,0,0,0,-1,748,890,0,0
-469,134,0,0,0,0,0,0,0,0,0,-1,755,890,0,0
-462,134,0,0,0,0,0,0,0,0,0,-1,762,890,0,0
-455,134,0,0,0,0,0,0,0,0,0,-1,769,890,0,0
-448,134,0,0,0,0,0,0,0,0,0,-1,776,890,0,0
-441,134,0,0,0,0,0,0,0,0,0,-1,783,890,0,0
-434,134,0,0,0,0,0,0,0,0,0,-1,790,890,0,0
-427,134,0,0,0,0,0,0,0,0,0,-1,797,890,0,0
-420,134,0,0,0,0,0,0,0,0,0,-1,804,890,0,0
-413,134,0,0,0,0,0,0,0,0,0,-1,811,890,0,0
-406,134,0,0,0,0,0,0,0,0,0,-1,818,890,0,0
-399,134,0,0,0,0,0,0,0,0,0,-1,825,890,0,0
-392,134,0,0,0,0,0,0,0,0,0,-1,832,890,0,0
-385,134,0,0,0,0,0,0,0,0,0,-1,839,890,0,0
-378,134,0,0,0,0,0,0,0,0,0,-1,846,890,0,0
-371,134,0,0,0,0,0,0,0,0,0,-1,853,890,0,0
-364,134,0,0,0,0,0,0,0,0,0,-1,860,890,0,0
-357,134,0,0,0,0,0,0,0,0,0,-1,867,890,0,0
-350,134,0,0,0,0,0,0,0,0,0,-1,874,890,0,0
-343,134,0,0,0,0,0,0,0,0,0,-1,881,890,0,0
-336,134,0,0,0,0,0,0,0,0,0,-1,888,890,0,0
-329,134,0,0,0,0,0,0,0,0,0,-1,895,890,0,0
-322,134,0,0,0,0,0,0,0,0,0,-1,902,890,0,0
-315,134,0,0,0,0,0,0,0,0,0,-1,909,890,0,0
-308,134,0,0,0,0,0,0,0,0,0,-1,916,890,0,0
-301,134,0,0,0,0,0,0,0,0,0,-1,923,890,0,0
-294,134,0,0,0,0,0,0,0,0,0,-1,930,890,0,0
-287,134,0,0,0,0,0,0,0,0,0,-1,937,890,0,0
-280,134,0,0,0,0,0,0,0,0,0,-1,944,890,0,0
-273,134,0,0,0,0,0,0,0,0,0,-1,951,890,0,0
-266,134,0,0,0,0,0,0,0,0,0,-1,958,890,0,0
-259,134,0,0,0,0,0,0,0,0,0,-1,965,890,0,0
-252,134,0,0,0,0,0,0,0,0,0,-1,972,890,0,0
-245,134,0,0,0,0,0,0,0,0,0,-1,979,890,0,0
-238,134,0,0,0,0,0,0,0,0,0,-1,986,890,0,0
-231,134,0,0,0,0,0,0,0,0,0,-1,993,890,0,0
-224,134,0,0,0,0,0,0,0,0,0,-1,1000,890,0,0
-217,134,0,0,0,0,0,0,0,0,0,-1,1007,890,0,0
-210,134,0,0,0,0,0,0,0,0,0,-1,1014,890,0,0
-203,134,0,0,0,0,0,0,0,0,0,-1,1021,890,0,0
-196,134,0,0,0,0,0,0,0,0,0,-1,1028,890,0,0
-189,134,0,0,0,0,0,0,0,0,0,-1,1035,890,0,0
-182,134,0,0,0,0,0,0,0,0,0,-1,1042,890,0,0
-175,134,0,0,0,0,0,0,0,0,0,-1,1049,890,0,0
-168,134,0,0,0,0,0,0,0,0,0,-1,1056,890,0,0
-161,134,0,0,0,0,0,0,0,0,0,-1,1063,890,0,0
-154,134,0,0,0,0,0,0,0,0,0,-1,1070,890,0,0
-147,134,0,0,0,0,0,0,0,0,0,-1,1077,890,0,0
-140,134,0,0,0,0,0,0,0,0,0,-1,1084,890,0,0
-133,134,0,0,0,0,0,0,0,0,0,-1,1091,890,0,0
-126,134,0,0,0,0,0,0,0,0,0,-1,1098,890,0,0
-119,134,0,0,0,0,0,0,0,0,0,-1,1105,890,0,0
-112,134,0,0,0,0,0,0,0,0,0,-1,1112,890,0,0
-105,134,0,0,0,0,0,0,0,0,0,-1,1119,890,0,0
-98,134,0,0,0,0,0,0,0,0,0,-1,1126,890,0,0
-91,134,0,0,0,0,0,0,0,0,0,-1,1133,890,0,0
-84,134,0,0,0,0,0,0,0,0,0,-1,1140,890,0,0
-77,134,0,0,0,0,0,0,0,0,0,-1,1147,890,0,0
-70,134,0,0,0,0,0,0,0,0,0,-1,1154,890,0,0
-63,134,0,0,0,0,0,0,0,0,0,-1,1161,890,0,0
-56,134,0,0,0,0,0,0,0,0,0,-1,1168,890,0,0
-49,134,0,0,0,0,0,0,0,0,0,-1,1175,890,0,0
-42,134,0,0,0,0,0,0,0,0,0,-1,1182,890,0,0
-35,134,0,0,0,0,0,0,0,0,0,-1,1189,890,0,0
-28,134,0,0,0,0,0,0,0,0,0,-1,1196,890,0,0
-21,134,0,0,0,0,0,0,0,0,0,-1,1203,890,0,0
-14,134,0,0,0,0,0,0,0,0,0,-1,1210,890,0,0
-7,134,0,0,0,0,0,0,0,0,0,-1,1217,890,0,0
0,134,0,0,0,0,0,0,0,0,0,-1,1224,890,0,0
7,134,0,0,0,0,0,0,0,0,0,-1,1231,890,0,0
14,134,0,0,0,0,0,0,0,0,0,-1,1238,890,0,0
21,134,0,0,0,0,0,0,0,0,0,-1,1245,890,0,0
28,134,0,0,0,0,0,0,0,0,0,-1,1252,890,0,0
35,134,0,0,0,0,0,0,0,0,0,-1,1259,890,0,0
42,134,0,0,0,0,0,0,0,0,0,-1,1266,890,0,0
49,134,0,0,0,0,0,0,0,0,0,-1,1273,890,0,0
56,134,0,0,0,0,0,0,0,0,0,-1,1280,890,0,0
63,134,0,0,0,0,0,0,0,0,0,-1,1287,890,0,0
70,134,0,0,0,0,0,0,0,0,0,-1,1294,890,0,0
77,134,0,0,0,0,0,0,0,0,0,-1,1301,890,0,0
84,134,0,0,0,0,0,0,0,0,0,-1,1308,890,0,0
91,134,0,0,0,0,0,0,0,0,0,-1,1315,890,0,0
98,134,0,0,0,0,0,0,0,0,0,-1,1322,890,0,0
105,134,0,0,0,0,0,0,0,0,0,-1,1329,890,0,0
112,134,0,0,0,0,0,0,0,0,0,-1,1336,890,0,0
119,134,0,0,0,0,0,0,0,0,0,-1,1343,890,0,0
126,134,0,0,0,0,0,0,0,0,0,-1,1350,890,0,0
133,134,0,0,0,0,0,0,0,0,0,-1,1357,890,0,0
140,134,0,0,0,0,0,0,0,0,0,-1,1364,890,0,0
147,134,0,0,0,0,0,0,0,0,0,-1,1371,890,0,0
154,134,0,0,0,0,0,0,0,0,0,-1,1378,890,0,0
161,134,0,0,0,0,0,0,0,0,0,-1,1385,890,0,0
168,134,0,0,0,0,0,0,0,0,0,-1,1392,890,0,0
175,134,0,0,0,0,0,0,0,0,0,-1,1399,890,0,0
182,134,0,0,0,0,0,0,0,0,0,-1,1406,890,0,0
189,134,0,0,0,0,0,0,0,0,0,-1,1413,890,0,0
196,134,0,0,0,0,0,0,0,0,0,-1,1420,890,0,0
203,134,0,0,0,0,0,0,0,0,0,-1,1427,890,0,0
210,134,0,0,0,0,0,0,0,0,0,-1,1434,890,0,0
217,134,0,0,0,0,0,0,0,0,0,-1,1441,890,0,0
224,134,0,0,0,0,0,0,0,0,0,-1,1448,890,0,0
231,134,0,0,0,0,0,0,0,0,0,-1,1455,890,0,0
238,134,0,0,0,0,0,0,0,0,0,-1,1462,890,0,0
245,134,0,0,0,0,0,0,0,0,0,-1,1469,890,0,0
252,134,0,0,0,0,0,0,0,0,0,-1,1476,890,0,0
259,134,0,0,0,0,0,0,0,0,0,-1,1483,890,0,0
266,134,0,0,0,0,0,0,0,0,0,-1,1490,890,0,0
273,134,0,0,0,0,0,0,0,0,0,-1,1497,890,0,0
280,134,0,0,0,0,0,0,0,0,0,-1,1504,890,0,0
287,134,0,0,0,0,0,0,0,0,0,-1,1511,890,0,0
294,134,0,0,0,0,0,0,0,0,0,-1,1518,890,0,0
301,134,0,0,0,0,0,0,0,0,0,-1,1525,890,0,0
308,134,0,0,0,0,0,0,0,0,0,-1,1532,890,0,0
315,134,0,0,0,0,0,0,0,0,0,-1,1539,890,0,0
322,134,0,0,0,0,0,0,0,0,0,-1,1546,890,0,0
329,134,0,0,0,0,0,0,0,0,0,-1,1553,890,0,0
336,134,0,0,0,0,0,0,0,0,0,-1,1560,890,0,0
343,134,0,0,0,0,0,0,0,0,0,-1,1567,890,0,0
350,134,0,0,0,0,0,0,0,0,0,-1,1574,890,0,0
357,134,0,0,0,0,0,0,0,0,0,-1,1581,890,0,0
364,134,0,0,0,0,0,0,0,0,0,-1,1588,890,0,0
371,134,0,0,0,0,0,0,0,0,0,-1,1595,890,0,0
378,134,0,0,0,0,0,0,0,0,0,-1,1602,890,0,0
385,134,0,0,0,0,0,0,0,0,0,-1,1609,890,0,0
392,134,0,0,0,0,0,0,0,0,0,-1,1616,890,0,0
399,134,0,0,0,0,0,0,0,0,0,-1,1623,890,0,0
406,134,0,0,0,0,0,0,0,0,0,-1,1630,890,0,0
413,134,0,0,0,0,0,0,0,0,0,-1,1637,890,0,0
420,134,0,0,0,0,0,0,0,0,0,-1,1644,890,0,0
427,134,0,0,0,0,0,0,0,0,0,-1,1651,890,0,0
434,134,0,0,0,0,0,0,0,0,0,-1,1658,890,0,0
441,134,0,0,0,0,0,0,0,0,0,-1,1665,890,0,0
448,134,0,0,0,0,0,0,0,0,0,-1,1672,890,0,0
455,134,0,0,0,0,0,0,0,0,0,-1,1679,890,0,0
462,134,0,0,0,0,0,0,0,0,0,-1,1686,890,0,0
469,134,0,0,0,0,0,0,0,0,0,-1,1693,890,0,0
476,134,0,0,0,0,0,0,0,0,0,-1,1700,890,0,0
483,134,0,0,0,0,0,0,0,0,0,-1,1707,890,0,0
490,134,0,0,0,0,0,0,0,0,0,-1,1714,890,0,0
497,134,0,0,0,0,0,0,0,0,0,-1,1721,890,0,0
504,134,0,0,0,0,0,0,0,0,0,-1,1728,890,0,0
511,134,0,0,0,0,0,0,0,0,0,-1,1735,890,0,0
518,134,0,0,0,0,0,0,0,0,0,-1,1742,890,0,0
525,134,0,0,0,0,0,0,0,0,0,-1,1749,890,0,0
532,134,0,0,0,0,0,0,0,0,0,-1,1756,890,0,0
539,134,0,0,0,0,0,0,0,0,0,-1,1763,890,0,0
546,134,0,0,0,0,0,0,0,0,0,-1,1770,890,0,0
553,134,0,0,0,0,0,0,0,0,0,-1,1777,890,0,0
560,134,0,0,0,0,0,0,0,0,0,-1,1784,890,0,0
567,134,0,0,0,0,0,0,0,0,0,-1,1791,890,0,0
574,134,0,0,0,0,0,0,0,0,0,-1,1798,890,0,0
581,134,0,0,0,0,0,0,0,0,0,-1,1805,890,0,0
588,134,0,0,0,0,0,0,0,0,0,-1,1812,890,0,0
595,134,0,0,0,0,0,0,0,0,0,-1,1819,890,0,0
602,134,0,0,0,0,0,0,0,0,0,-1,1826,890,0,0
609,134,0,0,0,0,0,0,0,0,0,-1,1833,890,0,0
616,134,0,0,0,0,0,0,0,0,0,-1,1840,890,0,0
623,134,30.59,3.05048,-0.00306917,0.00177232,-0.00403536,0.00405733,-0.00535418,-1.05556,0.00545091,0.0477304,1847,890,30.5899,-3.0505
630,134,30.5698,2.98389,-0.00133942,0.00137348,-0.00399075,0.00423201,-0.00419795,-0.949222,0.00486705,0.0480061,1854,890,30.5699,-2.98387
637,134,30.4698,2.99701,-0.000158492,0.00118418,-0.00377634,0.00434839,-0.00332271,-0.873366,0.00444209,0.0447528,1861,890,30.4699,-2.99701
644,134,30.3434,3.15674,0.000449117,0.000943824,-0.00330781,0.00401351,-0.00262057,-0.822718,0.00385823,0.0401033,1868,890,30.3433,-3.15671
651,134,30.4335,2.96838,0.000622191,0.000796291,-0.00273681,0.00344744,-0.00202895,-0.801296,0.00319695,0.042524,1875,890,30.4335,-2.96841
658,134,30.4854,2.79718,0.000524164,0.000654678,-0.00217724,0.00276764,-0.0015888,-0.80038,0.0025457,0.0391586,1882,890,30.4853,-2.79718
665,134,30.5197,2.79327,0.000387238,0.000511428,-0.00169531,0.00214577,-0.00124711,-0.803704,0.00198165,0.0322239,1889,890,30.5197,-2.79326
672,134,30.5485,2.87946,0.000297502,0.000450791,-0.00132806,0.00170442,-0.000956126,-0.814222,0.00155619,0.0243133,1896,890,30.5485,-2.87947
679,134,30.5201,2.84436,0.000201483,0.000296766,-0.000975537,0.00122582,-0.000727575,-0.809797,0.00113996,0.0212157,1903,890,30.5201,-2.84434
686,134,30.5289,2.84454,0,0,0,0,0,0,0,-1,1910,890,30.529,-2.84456
693,134,26.5991,2.89221,0,0,0,0,0,0,0,-1,1917,890,26.5991,-2.8922
700,134,26.5763,3.03656,-0.000332759,0.000322245,-0.000280178,0.000425738,-0.000436253,-1.21696,0.000497683,0.0294531,1924,890,26.5763,-3.03657
707,134,26.3821,3.1676,-7.1027e-05,0.000401339,-5.65986e-05,0.000408026,-7.7714e-05,-1.45319,0.000301282,0.0198727,1931,890,26.3821,-3.16763
714,134,26.4507,3.5517,0.000611678,0.000667275,7.6098e-05,0.000720493,0.00055846,0.960517,0.000436461,0.0194296,1938,890,26.4507,-3.55171
721,134,26.6122,3.92542,0.00153515,0.000917505,0.000176861,0.00158221,0.000870446,0.26005,0.000915018,0.0161822,1945,890,26.6122,-3.92541
728,134,26.6532,4.19202,0.00227573,0.00108232,0.000423104,0.00241051,0.000947537,0.308392,0.00140228,0.0162648,1952,890,26.6532,-4.19199
735,134,26.6388,4.47809,0.0030735,0.000870817,0.00101244,0.00346815,0.000476172,0.371681,0.00217085,0.0224292,1959,890,26.6388,-4.47809
742,134,26.6204,4.76807,0.00347412,0.000163893,0.00173987,0.00422037,-0.000582357,0.405179,0.00302644,0.0137896,1966,890,26.6203,-4.76809
749,134,26.6356,5.02563,0.00365556,-0.000361182,0.00245425,0.00481845,-0.00152407,0.442491,0.00382296,0.0111823,1973,890,26.6356,-5.02566
756,134,26.609,5.29053,0.00310256,-0.0019388,0.00349652,0.00489228,-0.00372851,0.473087,0.00499231,0.0166729,1980,890,26.6091,-5.29051
763,134,26.619,5.53857,0.0012676,-0.0046178,0.00459049,0.00377762,-0.00712781,0.500372,0.00639452,0.0373232,1987,890,26.619,-5.53857
770,134,26.6497,5.78607,0,0,0,0,0,0,0,-1,1994,890,26.6497,-5.78606
777,134,29.3785,5.17126,-0.00842221,-0.0146797,0.006391,-0.00443521,-0.0186667,0.557769,0.0112611,0.0456811,2001,890,29.3785,-5.17125
784,134,28.7278,5.40509,-0.0179572,-0.0227317,0.0064666,-0.0134513,-0.0272376,0.608576,0.015726,0.0488394,2008,890,28.7277,-5.40509
791,134,28.1061,5.66272,-0.031891,-0.0330053,0.00535377,-0.0270655,-0.0378308,0.733555,0.0225073,0.0470483,2015,890,28.1061,-5.66272
798,134,0,0,0,0,0,0,0,0,0,-1,2022,890,0,0
805,134,0,0,0,0,0,0,0,0,0,-1,2029,890,0,0
812,134,0,0,0,0,0,0,0,0,0,-1,2036,890,0,0
-700,127,0,0,0,0,0,0,0,0,0,-1,524,897,0,0
-693,127,0,0,0,0,0,0,0,0,0,-1,531,897,0,0
-686,127,0,0,0,0,0,0,0,0,0,-1,538,897,0,0
-679,127,-21.974,0.817688,0,0,0,0,0,0,0,-1,545,897,-21.974,-0.817678
-672,127,-22.0809,1.10254,0.0419566,0.0546009,0.0864002,0.13491,-0.0383525,0.82192,0.105084,0.0455145,552,897,-22.0809,-1.10256
-665,127,-22.3245,1.62231,0.0312039,0.0395965,0.0737349,0.109254,-0.038454,0.813823,0.0884848,0.0416043,559,897,-22.3245,-1.62231
-658,127,-22.4694,2.27887,0.0229498,0.0288419,0.0620984,0.0880641,-0.0362724,0.809101,0.0738324,0.0430066,566,897,-22.4694,-2.27885
-651,127,-22.5577,3.4906,0.0165756,0.0210308,0.0515156,0.0703669,-0.0327605,0.807005,0.0608459,0.0424598,573,897,-22.5578,-3.49062
-644,127,-22.8078,3.34869,0,0,0,0,0,0,0,-1,580,897,-22.8078,-3.34869
-637,127,-22.5536,3.15118,0,0,0,0,0,0,0,-1,587,897,-22.5536,-3.15117
-630,127,-18.6038,2.51581,0.00430971,0.00814217,0.0260512,0.0323475,-0.0198956,0.82211,0.0304468,0.0348587,594,897,-18.6038,-2.51583
-623,127,-18.5983,2.6366,0.00172436,0.00528236,0.0193965,0.0229813,-0.0159746,0.831129,0.0226121,0.0140474,601,897,-18.5983,-2.6366
-616,127,-18.6589,2.44159,0.000293491,0.00245782,0.0131802,0.0146002,-0.0118489,0.826359,0.0152979,0.0102285,608,897,-18.6589,-2.4416
-609,127,-18.6902,2.19312,-0.000919171,0.00152944,0.00870131,0.00909216,-0.00848189,0.855291,0.0101484,0.0135858,615,897,-18.6902,-2.19314
-602,127,-18.7119,1.94183,-0.00148398,0.0014152,0.00545781,0.00561264,-0.00568142,0.915201,0.00652067,0.015129,622,897,-18.7118,-1.94185
-595,127,-18.6921,1.73492,-0.00250706,0.00136761,0.00300791,0.0030081,-0.00414754,1.0715,0.00414873,0.0180685,629,897,-18.6921,-1.73492
-588,127,-18.8041,1.48846,-0.00174241,0.000989052,0.00140798,0.00158486,-0.00233822,1.17048,0.00227887,0.0229585,636,897,-18.8041,-1.48844
-581,127,-18.8826,1.13757,-0.00151673,0.000896113,0.000642291,0.00105644,-0.00167706,1.32618,0.00159168,0.0369616,643,897,-18.8826,-1.1376
-574,127,-18.9286,0.587341,0,0,0,0,0,0,0,-1,650,897,-18.9286,-0.587363
-567,127,-18.4764,0.8396,0,0,0,0,0,0,0,-1,657,897,-18.4764,-0.839578
-560,127,-18.9678,1.21667,0,0,0,0,0,0,0,-1,664,897,-18.9677,-1.2167
-553,127,-21.4724,1.02948,0,0,0,0,0,0,0,-1,671,897,-21.4723,-1.02945
-546,127,-21.5176,0.978394,-0.000566612,0.00117755,-0.000634429,0.00138391,-0.000772968,-1.25633,0.00126181,0.0221948,678,897,-21.5176,-0.978364
-539,127,-21.4919,1.00812,-0.000267463,0.0014005,-0.00087671,0.00177653,-0.000643501,-1.16561,0.00144735,0.021005,685,897,-21.4919,-1.00812
-532,127,-21.4517,1.02161,2.83818e-07,0.001645,-0.0012205,0.00229434,-0.000649052,-1.08186,0.00178567,0.0175978,692,897,-21.4517,-1.02162
-525,127,-21.4647,1.21179,0.000175588,0.0019042,-0.00184036,0.00307311,-0.000993316,-1.00493,0.00244797,0.0327044,699,897,-21.4647,-1.2118
-518,127,-21.4389,1.48724,0.000354373,0.00228217,-0.00287401,0.00434962,-0.00171307,-0.947196,0.00360894,0.0426924,706,897,-21.4389,-1.48722
-511,127,-21.2734,1.26227,0.000840271,0.00309969,-0.00452535,0.0066342,-0.00269425,-0.907718,0.0055436,0.0443253,713,897,-21.2734,-1.26225
-504,127,0,0,0,0,0,0,0,0,0,-1,720,897,0,0
-497,127,0,0,0,0,0,0,0,0,0,-1,727,897,0,0
-490,127,0,0,0,0,0,0,0,0,0,-1,734,897,0,0
-483,127,0,0,0,0,0,0,0,0,0,-1,741,897,0,0
-476,127,0,0,0,0,0,0,0,0,0,-1,748,897,0,0
-469,127,0,0,0,0,0,0,0,0,0,-1,755,897,0,0
-462,127,0,0,0,0,0,0,0,0,0,-1,762,897,0,0
-455,127,0,0,0,0,0,0,0,0,0,-1,769,897,0,0
-448,127,0,0,0,0,0,0,0,0,0,-1,776,897,0,0
-441,127,0,0,0,0,0,0,0,0,0,-1,783,897,0,0
-434,127,0,0,0,0,0,0,0,0,0,-1,790,897,0,0
-427,127,0,0,0,0,0,0,0,0,0,-1,797,897,0,0
-420,127,0,0,0,0,0,0,0,0,0,-1,804,897,0,0
-413,127,0,0,0,0,0,0,0,0,0,-1,811,897,0,0
-406,127,0,0,0,0,0,0,0,0,0,-1,818,897,0,0
-399,127,0,0,0,0,0,0,0,0,0,-1,825,897,0,0
-392,127,0,0,0,0,0,0,0,0,0,-1,832,897,0,0
-385,127,0,0,0,0,0,0,0,0,0,-1,839,897,0,0
-378,127,0,0,0,0,0,0,0,0,0,-1,846,897,0,0
-371,127,0,0,0,0,0,0,0,0,0,-1,853,897,0,0
-364,127,0,0,0,0,0,0,0,0,0,-1,860,897,0,0
-357,127,0,0,0,0,0,0,0,0,0,-1,867,897,0,0
-350,127,0,0,0,0,0,0,0,0,0,-1,874,897,0,0
-343,127,0,0,0,0,0,0,0,0,0,-1,881,897,0,0
-336,127,0,0,0,0,0,0,0,0,0,-1,888,897,0,0
-329,127,0,0,0,0,0,0,0,0,0,-1,895,897,0,0
-322,127,0,0,0,0,0,0,0,0,0,-1,902,897,0,0
-315,127,0,0,0,0,0,0,0,0,0,-1,909,897,0,0
-308,127,0,0,0,0,0,0,0,0,0,-1,916,897,0,0
-301,127,0,0,0,0,0,0,0,0,0,-1,923,897,0,0
-294,127,0,0,0,0,0,0,0,0,0,-1,930,897,0,0
-287,127,0,0,0,0,0,0,0,0,0,-1,937,897,0,0
-280,127,0,0,0,0,0,0,0,0,0,-1,944,897,0,0
-273,127,0,0,0,0,0,0,0,0,0,-1,951,897,0,0
-266,127,0,0,0,0,0,0,0,0,0,-1,958,897,0,0
-259,127,0,0,0,0,0,0,0,0,0,-1,965,897,0,0
-252,127,0,0,0,0,0,0,0,0,0,-1,972,897,0,0
-245,127,0,0,0,0,0,0,0,0,0,-1,979,897,0,0
-238,127,0,0,0,0,0,0,0,0,0,-1,986,897,0,0
-231,127,0,0,0,0,0,0,0,0,0,-1,993,897,0,0
-224,127,0,0,0,0,0,0,0,0,0,-1,1000,897,0,0
-217,127,0,0,0,0,0,0,0,0,0,-1,1007,897,0,0
-210,127,0,0,0,0,0,0,0,0,0,-1,1014,897,0,0
-203,127,0,0,0,0,0,0,0,0,0,-1,1021,897,0,0
-196,127,0,0,0,0,0,0,0,0,0,-1,1028,897,0,0
-189,127,0,0,0,0,0,0,0,0,0,-1,1035,897,0,0
-182,127,0,0,0,0,0,0,0,0,0,-1,1042,897,0,0
-175,127,0,0,0,0,0,0,0,0,0,-1,1049,897,0,0
-168,127,0,0,0,0,0,0,0,0,0,-1,1056,897,0,0
-161,127,0,0,0,0,0,0,0,0,0,-1,1063,897,0,0
-154,127,0,0,0,0,0,0,0,0,0,-1,1070,897,0,0
-147,127,0,0,0,0,0,0,0,0,0,-1,1077,897,0,0
-140,127,0,0,0,0,0,0,0,0,0,-1,1084,897,0,0
-133,127,0,0,0,0,0,0,0,0,0,-1,1091,897,0,0
-126,127,0,0,0,0,0,0,0,0,0,-1,1098,897,0,0
-119,127,0,0,0,0,0,0,0,0,0,-1,1105,897,0,0
-112,127,0,0,0,0,0,0,0,0,0,-1,1112,897,0,0
-105,127,0,0,0,0,0,0,0,0,0,-1,1119,897,0,0
-98,127,0,0,0,0,0,0,0,0,0,-1,1126,897,0,0
-91,127,0,0,0,0,0,0,0,0,0,-1,1133,897,0,0
-84,127,0,0,0,0,0,0,0,0,0,-1,1140,897,0,0
-77,127,0,0,0,0,0,0,0,0,0,-1,1147,897,0,0
-70,127,0,0,0,0,0,0,0,0,0,-1,1154,897,0,0
-63,127,0,0,0,0,0,0,0,0,0,-1,1161,897,0,0
-56,127,0,0,0,0,0,0,0,0,0,-1,1168,897,0,0
-49,127,0,0,0,0,0,0,0,0,0,-1,1175,897,0,0
-42,127,0,0,0,0,0,0,0,0,0,-1,1182,897,0,0
-35,127,0,0,0,0,0,0,0,0,0,-1,1189,897,0,0
-28,127,0,0,0,0,0,0,0,0,0,-1,1196,897,0,0
-21,127,0,0,0,0,0,0,0,0,0,-1,1203,897,0,0
-14,127,0,0,0,0,0,0,0,0,0,-1,1210,897,0,0
-7,127,0,0,0,0,0,0,0,0,0,-1,1217,897,0,0
0,127,0,0,0,0,0,0,0,0,0,-1,1224,897,0,0
7,127,0,0,0,0,0,0,0,0,0,-1,1231,897,0,0
14,127,0,0,0,0,0,0,0,0,0,-1,1238,897,0,0
21,127,0,0,0,0,0,0,0,0,0,-1,1245,897,0,0
28,127,0,0,0,0,0,0,0,0,0,-1,1252,897,0,0
35,127,0,0,0,0,0,0,0,0,0,-1,1259,897,0,0
42,127,0,0,0,0,0,0,0,0,0,-1,1266,897,0,0
49,127,0,0,0,0,0,0,0,0,0,-1,1273,897,0,0
56,127,0,0,0,0,0,0,0,0,0,-1,1280,897,0,0
63,127,0,0,0,0,0,0,0,0,0,-1,1287,897,0,0
70,127,0,0,0,0,0,0,0,0,0,-1,1294,897,0,0
77,127,0,0,0,0,0,0,0,0,0,-1,1301,897,0,0
84,127,0,0,0,0,0,0,0,0,0,-1,1308,897,0,0
91,127,0,0,0,0,0,0,0,0,0,-1,1315,897,0,0
98,127,0,0,0,0,0,0,0,0,0,-1,1322,897,0,0
105,127,0,0,0,0,0,0,0,0,0,-1,1329,897,0,0
112,127,0,0,0,0,0,0,0,0,0,-1,1336,897,0,0
119,127,0,0,0,0,0,0,0,0,0,-1,1343,897,0,0
126,127,0,0,0,0,0,0,0,0,0,-1,1350,897,0,0
133,127,0,0,0,0,0,0,0,0,0,-1,1357,897,0,0
140,127,0,0,0,0,0,0,0,0,0,-1,1364,897,0,0
147,127,0,0,0,0,0,0,0,0,0,-1,1371,897,0,0
154,127,0,0,0,0,0,0,0,0,0,-1,1378,897,0,0
161,127,0,0,0,0,0,0,0,0,0,-1,1385,897,0,0
168,127,0,0,0,0,0,0,0,0,0,-1,1392,897,0,0
175,127,0,0,0,0,0,0,0,0,0,-1,1399,897,0,0
182,127,0,0,0,0,0,0,0,0,0,-1,1406,897,0,0
189,127,0,0,0,0,0,0,0,0,0,-1,1413,897,0,0
196,127,0,0,0,0,0,0,0,0,0,-1,1420,897,0,0
203,127,0,0,0,0,0,0,0,0,0,-1,1427,897,0,0
210,127,0,0,0,0,0,0,0,0,0,-1,1434,897,0,0
217,127,0,0,0,0,0,0,0,0,0,-1,1441,897,0,0
224,127,0,0,0,0,0,0,0,0,0,-1,1448,897,0,0
231,127,0,0,0,0,0,0,0,0,0,-1,1455,897,0,0
238,127,0,0,0,0,0,0,0,0,0,-1,1462,897,0,0
245,127,0,0,0,0,0,0,0,0,0,-1,1469,897,0,0
252,127,0,0,0,0,0,0,0,0,0,-1,1476,897,0,0
259,127,0,0,0,0,0,0,0,0,0,-1,1483,897,0,0
266,127,0,0,0,0,0,0,0,0,0,-1,1490,897,0,0
273,127,0,0,0,0,0,0,0,0,0,-1,1497,897,0,0
280,127,0,0,0,0,0,0,0,0,0,-1,1504,897,0,0
287,127,0,0,0,0,0,0,0,0,0,-1,1511,897,0,0
294,127,0,0,0,0,0,0,0,0,0,-1,1518,897,0,0
301,127,0,0,0,0,0,0,0,0,0,-1,1525,897,0,0
308,127,0,0,0,0,0,0,0,0,0,-1,1532,897,0,0
315,127,0,0,0,0,0,0,0,0,0,-1,1539,897,0,0
322,127,0,0,0,0,0,0,0,0,0,-1,1546,897,0,0
329,127,0,0,0,0,0,0,0,0,0,-1,1553,897,0,0
336,127,0,0,0,0,0,0,0,0,0,-1,1560,897,0,0
343,127,0,0,0,0,0,0,0,0,0,-1,1567,897,0,0
350,127,0,0,0,0,0,0,0,0,0,-1,1574,897,0,0
357,127,0,0,0,0,0,0,0,0,0,-1,1581,897,0,0
364,127,0,0,0,0,0,0,0,0,0,-1,1588,897,0,0
371,127,0,0,0,0,0,0,0,0,0,-1,1595,897,0,0
378,127,0,0,0,0,0,0,0,0,0,-1,1602,897,0,0
385,127,0,0,0,0,0,0,0,0,0,-1,1609,897,0,0
392,127,0,0,0,0,0,0,0,0,0,-1,1616,897,0,0
399,127,0,0,0,0,0,0,0,0,0,-1,1623,897,0,0
406,127,0,0,0,0,0,0,0,0,0,-1,1630,897,0,0
413,127,0,0,0,0,0,0,0,0,0,-1,1637,897,0,0
420,127,0,0,0,0,0,0,0,0,0,-1,1644,897,0,0
427,127,0,0,0,0,0,0,0,0,0,-1,1651,897,0,0
434,127,0,0,0,0,0,0,0,0,0,-1,1658,897,0,0
441,127,0,0,0,0,0,0,0,0,0,-1,1665,897,0,0
448,127,0,0,0,0,0,0,0,0,0,-1,1672,897,0,0
455,127,0,0,0,0,0,0,0,0,0,-1,1679,897,0,0
462,127,0,0,0,0,0,0,0,0,0,-1,1686,897,0,0
469,127,0,0,0,0,0,0,0,0,0,-1,1693,897,0,0
476,127,0,0,0,0,0,0,0,0,0,-1,1700,897,0,0
483,127,0,0,0,0,0,0,0,0,0,-1,1707,897,0,0
490,127,0,0,0,0,0,0,0,0,0,-1,1714,897,0,0
497,127,0,0,0,0,0,0,0,0,0,-1,1721,897,0,0
504,127,0,0,0,0,0,0,0,0,0,-1,1728,897,0,0
511,127,0,0,0,0,0,0,0,0,0,-1,1735,897,0,0
518,127,0,0,0,0,0,0,0,0,0,-1,1742,897,0,0
525,127,0,0,0,0,0,0,0,0,0,-1,1749,897,0,0
532,127,0,0,0,0,0,0,0,0,0,-1,1756,897,0,0
539,127,0,0,0,0,0,0,0,0,0,-1,1763,897,0,0
546,127,0,0,0,0,0,0,0,0,0,-1,1770,897,0,0
553,127,0,0,0,0,0,0,0,0,0,-1,1777,897,0,0
560,127,0,0,0,0,0,0,0,0,0,-1,1784,897,0,0
567,127,0,0,0,0,0,0,0,0,0,-1,1791,897,0,0
574,127,0,0,0,0,0,0,0,0,0,-1,1798,897,0,0
581,127,0,0,0,0,0,0,0,0,0,-1,1805,897,0,0
588,127,0,0,0,0,0,0,0,0,0,-1,1812,897,0,0
595,127,0,0,0,0,0,0,0,0,0,-1,1819,897,0,0
602,127,0,0,0,0,0,0,0,0,0,-1,1826,897,0,0
609,127,0,0,0,0,0,0,0,0,0,-1,1833,897,0,0
616,127,0,0,0,0,0,0,0,0,0,-1,1840,897,0,0
623,127,0,0,0,0,0,0,0,0,0,-1,1847,897,0,0
630,127,30.3928,3.27832,-0.00054038,0.00220077,-0.00484196,0.00586239,-0.00420201,-0.923321,0.00583698,0.0425948,1854,897,30.3928,-3.27832
637,127,30.4038,3.04437,0.000249464,0.00198681,-0.00444375,0.005646,-0.00340972,-0.881922,0.0052812,0.0392723,1861,897,30.4039,-3.0444
644,127,30.4802,3.02307,0.000520914,0.00170198,-0.00379925,0.00495631,-0.00273342,-0.862498,0.00450108,0.0395354,1868,897,30.4802,-3.02308
651,127,30.4097,2.94641,0.000464351,0.00152425,-0.00302752,0.00406785,-0.00207925,-0.872042,0.0036104,0.0448846,1875,897,30.4096,-2.94641
658,127,30.3663,2.88666,0.000215671,0.00135527,-0.00229355,0.00314874,-0.0015778,-0.907151,0.00277865,0.0429645,1882,897,30.3663,-2.88664
665,127,30.4303,2.87555,9.94693e-06,0.00117745,-0.00166148,0.00235474,-0.00116734,-0.954335,0.00207164,0.0367225,1889,897,30.4303,-2.87554
672,127,30.5043,2.8493,-9.27335e-05,0.00105291,-0.00118174,0.00179334,-0.000833163,-1.01108,0.00154982,0.0313052,1896,897,30.5043,-2.84932
679,127,30.5679,2.82849,-0.000169816,0.000830255,-0.000774753,0.00125232,-0.000591885,-1.07197,0.00108728,0.0248464,1903,897,30.5679,-2.8285
686,127,30.5455,2.80103,-0.000321803,0.000694763,-0.000478777,0.000884749,-0.000511789,-1.19304,0.000815819,0.0345643,1910,897,30.5455,-2.80101
693,127,27.3572,2.96069,0,0,0,0,0,0,0,-1,1917,897,27.3571,-2.96071
700,127,26.9363,3.04645,-0.000576514,0.000599247,-4.64454e-05,0.000601079,-0.000578346,-1.53138,0.000680983,0.042339,1924,897,26.9363,-3.04643
707,127,26.6611,3.23724,-0.000313743,0.000586485,0.000141413,0.000608177,-0.000335435,1.41859,0.000552328,0.0243134,1931,897,26.6612,-3.23723
714,127,26.7587,3.55383,0.000346567,0.000738145,0.000211777,0.000830771,0.000253941,1.15849,0.000491573,0.0203966,1938,897,26.7587,-3.55383
721,127,26.9543,3.97308,0.00117599,0.000856829,0.000249447,0.00131254,0.000720286,0.500833,0.000758994,0.0147823,1945,897,26.9543,-3.97308
728,127,26.9327,4.20862,0.00177095,0.000956364,0.000436718,0.00196083,0.00076649,0.410122,0.00114103,0.0133827,1952,897,26.9328,-4.20862
735,127,26.9167,4.46466,0.00243259,0.000816843,0.00098141,0.00289586,0.000353565,0.441042,0.00182418,0.0181403,1959,897,26.9168,-4.46465
742,127,26.9131,4.73914,0.00277979,0.000278447,0.00166101,0.00360833,-0.000550095,0.462702,0.00260833,0.0150729,1966,897,26.9131,-4.73916
749,127,26.9094,5.00342,0.00287115,-1.38391e-06,0.00223513,0.00409169,-0.00122193,0.499825,0.0032135,0.0109827,1973,897,26.9095,-5.00343
756,127,26.8781,5.24017,0.00234607,-0.00116461,0.00310492,0.00415749,-0.00297603,0.528125,0.00413732,0.0140757,1980,897,26.878,-5.24015
763,127,26.8754,5.44739,0.000736741,-0.00310181,0.00404112,0.00329119,-0.00565627,0.5637,0.00522563,0.0235887,1987,897,26.8754,-5.44741
770,127,27.4636,5.3819,-0.00228074,-0.00607633,0.00482093,0.00100249,-0.00935956,0.597885,0.0065993,0.043903,1994,897,27.4637,-5.38189
777,127,28.2378,5.38965,0,0,0,0,0,0,0,-1,2001,897,28.2378,-5.38964
784,127,29.0981,6.11487,0,0,0,0,0,0,0,-1,2008,897,29.0981,-6.11488
791,127,28.1664,6.30579,0,0,0,0,0,0,0,-1,2015,897,28.1663,-6.30576
798,127,0,0,0,0,0,0,0,0,0,-1,2022,897,0,0
805,127,0,0,0,0,0,0,0,0,0,-1,2029,897,0,0
812,127,0,0,0,0,0,0,0,0,0,-1,2036,897,0,0
-700,120,0,0,0,0,0,0,0,0,0,-1,524,904,0,0
-693,120,0,0,0,0,0,0,0,0,0,-1,531,904,0,0
-686,120,0,0,0,0,0,0,0,0,0,-1,538,904,0,0
-679,120,-23.9167,0.408203,0.0817221,0.0532523,0.0922167,0.160796,-0.0258217,0.708821,0.11676,0.0423447,545,904,-23.9167,-0.408179
-672,120,-23.6042,0.829529,0.0605929,0.0378552,0.0785067,0.12855,-0.0301016,0.713491,0.0972984,0.0434206,552,904,-23.6042,-0.82952
-665,120,-23.5755,1.08124,0.0448432,0.0272314,0.0663271,0.102946,-0.0308718,0.719401,0.0809092,0.0448536,559,904,-23.5755,-1.08123
-658,120,-23.5873,2.86072,0,0,0,0,0,0,0,-1,566,904,-23.5873,-2.86073
-651,120,-23.4494,3.79266,0.0235347,0.0143483,0.0457354,0.0649069,-0.027024,0.735351,0.0545578,0.047462,573,904,-23.4494,-3.79264
-644,120,-19.7347,2.3844,0,0,0,0,0,0,0,-1,580,904,-19.7348,-2.3844
-637,120,-19.268,2.71454,0.0110248,0.00761665,0.0294772,0.0388472,-0.0202058,0.756526,0.0346558,0.0412255,587,904,-19.268,-2.71455
-630,120,-18.8635,2.81757,0.00616366,0.00573235,0.0228464,0.0287954,-0.0168994,0.780679,0.0266783,0.022802,594,904,-18.8634,-2.81756
-623,120,-18.9033,2.62445,0.0025519,0.00362454,0.0168756,0.0199723,-0.0137959,0.801283,0.0196045,0.0101327,601,904,-18.9033,-2.62446
-616,120,-18.9189,2.41675,0.000407403,0.00155973,0.0113143,0.0123125,-0.0103454,0.810838,0.0130979,0.00947741,608,904,-18.9189,-2.41672
-609,120,-18.9384,2.17444,-0.00122858,0.00107636,0.00743921,0.00745184,-0.00760406,0.862246,0.00869267,0.0130764,615,904,-18.9384,-2.17444
-602,120,-18.9703,1.94861,-0.00198142,0.00113116,0.00473395,0.00455808,-0.00540834,0.944208,0.00576109,0.0137147,622,904,-18.9703,-1.94859
-595,120,-18.9432,1.74603,-0.00311959,0.0011536,0.00264921,0.00242044,-0.00438643,1.12475,0.00398421,0.0199354,629,904,-18.9432,-1.74603
-588,120,-18.9634,1.47968,-0.00248817,0.000933733,0.00125596,0.00134523,-0.00289967,1.25418,0.00250497,0.0276178,636,904,-18.9634,-1.47966
-581,120,-19.1285,1.22644,-0.00231673,0.000859924,0.000561995,0.000956418,-0.00241323,1.40076,0.00200515,0.0370264,643,904,-19.1286,-1.22647
-574,120,-19.0165,0.9198,-0.00234097,0.000666681,0.000378421,0.000713563,-0.00238785,1.44754,0.00187556,0.0280601,650,904,-19.0165,-0.919814
-567,120,-18.7695,0.364563,0,0,0,0,0,0,0,-1,657,904,-18.7695,-0.364588
-560,120,-21.4076,1.10748,0,0,0,0,0,0,0,-1,664,904,-21.4076,-1.1075
-553,120,-21.4517,1.04187,-0.00139772,0.000990399,-0.000330583,0.00103532,-0.00144263,-1.43575,0.00143707,0.0375727,671,904,-21.4516,-1.04187
-546,120,-21.4949,1.01501,-0.000979406,0.00123172,-0.000497542,0.00133852,-0.0010862,-1.35935,0.00140244,0.0302257,678,904,-21.4949,-1.01503
-539,120,-21.4579,1.05048,-0.000481708,0.00144001,-0.000720957,0.00168041,-0.00072211,-1.24894,0.0014234,0.0252343,685,904,-21.4579,-1.05048
-532,120,-21.3991,1.09668,8.76345e-06,0.00164692,-0.00106453,0.00217102,-0.000515334,-1.11331,0.00164623,0.0280287,692,904,-21.3991,-1.09669
-525,120,-21.4941,1.19684,0.000413565,0.00184314,-0.00176738,0.00303481,-0.000778102,-0.977559,0.00232636,0.0353999,699,904,-21.4942,-1.19684
-518,120,-21.5757,1.30548,0.000566497,0.00215207,-0.00297894,0.0044419,-0.00172334,-0.915449,0.00367304,0.0400915,706,904,-21.5757,-1.3055
-511,120,-21.4626,1.07056,0.000940829,0.00308538,-0.00494135,0.00706946,-0.00304325,-0.892242,0.00599084,0.0422446,713,904,-21.4626,-1.07058
-504,120,0,0,0,0,0,0,0,0,0,-1,720,904,0,0
-497,120,0,0,0,0,0,0,0,0,0,-1,727,904,0,0
-490,120,0,0,0,0,0,0,0,0,0,-1,734,904,0,0
-483,120,0,0,0,0,0,0,0,0,0,-1,741,904,0,0
-476,120,0,0,0,0,0,0,0,0,0,-1,748,904,0,0
-469,120,0,0,0,0,0,0,0,0,0,-1,755,904,0,0
-462,120,0,0,0,0,0,0,0,0,0,-1,762,904,0,0
-455,120,0,0,0,0,0,0,0,0,0,-1,769,904,0,0
-448,120,0,0,0,0,0,0,0,0,0,-1,776,904,0,0
-441,120,0,0,0,0,0,0,0,0,0,-1,783,904,0,0
-434,120,0,0,0,0,0,0,0,0,0,-1,790,904,0,0
-427,120,0,0,0,0,0,0,0,0,0,-1,797,904,0,0
-420,120,0,0,0,0,0,0,0,0,0,-1,804,904,0,0
-413,120,0,0,0,0,0,0,0,0,0,-1,811,904,0,0
-406,120,0,0,0,0,0,0,0,0,0,-1,818,904,0,0
-399,120,0,0,0,0,0,0,0,0,0,-1,825,904,0,0
-392,120,0,0,0,0,0,0,0,0,0,-1,832,904,0,0
-385,120,0,0,0,0,0,0,0,0,0,-1,839,904,0,0
-378,120,0,0,0,0,0,0,0,0,0,-1,846,904,0,0
-371,120,0,0,0,0,0,0,0,0,0,-1,853,904,0,0
-364,120,0,0,0,0,0,0,0,0,0,-1,860,904,0,0
-357,120,0,0,0,0,0,0,0,0,0,-1,867,904,0,0
-350,120,0,0,0,0,0,0,0,0,0,-1,874,904,0,0
-343,120,0,0,0,0,0,0,0,0,0,-1,881,904,0,0
-336,120,0,0,0,0,0,0,0,0,0,-1,888,904,0,0
-329,120,0,0,0,0,0,0,0,0,0,-1,895,904,0,0
-322,120,0,0,0,0,0,0,0,0,0,-1,902,904,0,0
-315,120,0,0,0,0,0,0,0,0,0,-1,909,904,0,0
-308,120,0,0,0,0,0,0,0,0,0,-1,916,904,0,0
-301,120,0,0,0,0,0,0,0,0,0,-1,923,904,0,0
-294,120,0,0,0,0,0,0,0,0,0,-1,930,904,0,0
-287,120,0,0,0,0,0,0,0,0,0,-1,937,904,0,0
-280,120,0,0,0,0,0,0,0,0,0,-1,944,904,0,0
-273,120,0,0,0,0,0,0,0,0,0,-1,951,904,0,0
-266,120,0,0,0,0,0,0,0,0,0,-1,958,904,0,0
-259,120,0,0,0,0,0,0,0,0,0,-1,965,904,0,0
-252,120,0,0,0,0,0,0,0,0,0,-1,972,904,0,0
-245,120,0,0,0,0,0,0,0,0,0,-1,979,904,0,0
-238,120,0,0,0,0,0,0,0,0,0,-1,986,904,0,0
-231,120,0,0,0,0,0,0,0,0,0,-1,993,904,0,0
-224,120,0,0,0,0,0,0,0,0,0,-1,1000,904,0,0
-217,120,0,0,0,0,0,0,0,0,0,-1,1007,904,0,0
-210,120,0,0,0,0,0,0,0,0,0,-1,1014,904,0,0
-203,120,0,0,0,0,0,0,0,0,0,-1,1021,904,0,0
-196,120,0,0,0,0,0,0,0,0,0,-1,1028,904,0,0
-189,120,0,0,0,0,0,0,0,0,0,-1,1035,904,0,0
-182,120,0,0,0,0,0,0,0,0,0,-1,1042,904,0,0
-175,120,0,0,0,0,0,0,0,0,0,-1,1049,904,0,0
-168,120,0,0,0,0,0,0,0,0,0,-1,1056,904,0,0
-161,120,0,0,0,0,0,0,0,0,0,-1,1063,904,0,0
-154,120,0,0,0,0,0,0,0,0,0,-1,1070,904,0,0
-147,120,0,0,0,0,0,0,0,0,0,-1,1077,904,0,0
-140,120,0,0,0,0,0,0,0,0,0,-1,1084,904,0,0
-133,120,0,0,0,0,0,0,0,0,0,-1,1091,904,0,0
-126,120,0,0,0,0,0,0,0,0,0,-1,1098,904,0,0
-119,120,0,0,0,0,0,0,0,0,0,-1,1105,904,0,0
-112,120,0,0,0,0,0,0,0,0,0,-1,1112,904,0,0
-105,120,0,0,0,0,0,0,0,0,0,-1,1119,904,0,0
-98,120,0,0,0,0,0,0,0,0,0,-1,1126,904,0,0
-91,120,0,0,0,0,0,0,0,0,0,-1,1133,904,0,0
-84,120,0,0,0,0,0,0,0,0,0,-1,1140,904,0,0
-77,120,0,0,0,0,0,0,0,0,0,-1,1147,904,0,0
-70,120,0,0,0,0,0,0,0,0,0,-1,1154,904,0,0
-63,120,0,0,0,0,0,0,0,0,0,-1,1161,904,0,0
-56,120,0,0,0,0,0,0,0,0,0,-1,1168,904,0,0
-49,120,0,0,0,0,0,0,0,0,0,-1,1175,904,0,0
-42,120,0,0,0,0,0,0,0,0,0,-1,1182,904,0,0
-35,120,0,0,0,0,0,0,0,0,0,-1,1189,904,0,0
-28,120,0,0,0,0,0,0,0,0,0,-1,1196,904,0,0
-21,120,0,0,0,0,0,0,0,0,0,-1,1203,904,0,0
-14,120,0,0,0,0,0,0,0,0,0,-1,1210,904,0,0
-7,120,0,0,0,0,0,0,0,0,0,-1,1217,904,0,0
0,120,0,0,0,0,0,0,0,0,0,-1,1224,904,0,0
7,120,0,0,0,0,0,0,0,0,0,-1,1231,904,0,0
14,120,0,0,0,0,0,0,0,0,0,-1,1238,904,0,0
21,120,0,0,0,0,0,0,0,0,0,-1,1245,904,0,0
28,120,0,0,0,0,0,0,0,0,0,-1,1252,904,0,0
35,120,0,0,0,0,0,0,0,0,0,-1,1259,904,0,0
42,120,0,0,0,0,0,0,0,0,0,-1,1266,904,0,0
49,120,0,0,0,0,0,0,0,0,0,-1,1273,904,0,0
56,120,0,0,0,0,0,0,0,0,0,-1,1280,904,0,0
63,120,0,0,0,0,0,0,0,0,0,-1,1287,904,0,0
70,120,0,0,0,0,0,0,0,0,0,-1,1294,904,0,0
77,120,0,0,0,0,0,0,0,0,0,-1,1301,904,0,0
84,120,0,0,0,0,0,0,0,0,0,-1,1308,904,0,0
91,120,0,0,0,0,0,0,0,0,0,-1,1315,904,0,0
98,120,0,0,0,0,0,0,0,0,0,-1,1322,904,0,0
105,120,0,0,0,0,0,0,0,0,0,-1,1329,904,0,0
112,120,0,0,0,0,0,0,0,0,0,-1,1336,904,0,0
119,120,0,0,0,0,0,0,0,0,0,-1,1343,904,0,0
126,120,0,0,0,0,0,0,0,0,0,-1,1350,904,0,0
133,120,0,0,0,0,0,0,0,0,0,-1,1357,904,0,0
140,120,0,0,0,0,0,0,0,0,0,-1,1364,904,0,0
147,120,0,0,0,0,0,0,0,0,0,-1,1371,904,0,0
154,120,0,0,0,0,0,0,0,0,0,-1,1378,904,0,0
161,120,0,0,0,0,0,0,0,0,0,-1,1385,904,0,0
168,120,0,0,0,0,0,0,0,0,0,-1,1392,904,0,0
175,120,0,0,0,0,0,0,0,0,0,-1,1399,904,0,0
182,120,0,0,0,0,0,0,0,0,0,-1,1406,904,0,0
189,120,0,0,0,0,0,0,0,0,0,-1,1413,904,0,0
196,120,0,0,0,0,0,0,0,0,0,-1,1420,904,0,0
203,120,0,0,0,0,0,0,0,0,0,-1,1427,904,0,0
210,120,0,0,0,0,0,0,0,0,0,-1,1434,904,0,0
217,120,0,0,0,0,0,0,0,0,0,-1,1441,904,0,0
224,120,0,0,0,0,0,0,0,0,0,-1,1448,904,0,0
231,120,0,0,0,0,0,0,0,0,0,-1,1455,904,0,0
238,120,0,0,0,0,0,0,0,0,0,-1,1462,904,0,0
245,120,0,0,0,0,0,0,0,0,0,-1,1469,904,0,0
252,120,0,0,0,0,0,0,0,0,0,-1,1476,904,0,0
259,120,0,0,0,0,0,0,0,0,0,-1,1483,904,0,0
266,120,0,0,0,0,0,0,0,0,0,-1,1490,904,0,0
273,120,0,0,0,0,0,0,0,0,0,-1,1497,904,0,0
280,120,0,0,0,0,0,0,0,0,0,-1,1504,904,0,0
287,120,0,0,0,0,0,0,0,0,0,-1,1511,904,0,0
294,120,0,0,0,0,0,0,0,0,0,-1,1518,904,0,0
301,120,0,0,0,0,0,0,0,0,0,-1,1525,904,0,0
308,120,0,0,0,0,0,0,0,0,0,-1,1532,904,0,0
315,120,0,0,0,0,0,0,0,0,0,-1,1539,904,0,0
322,120,0,0,0,0,0,0,0,0,0,-1,1546,904,0,0
329,120,0,0,0,0,0,0,0,0,0,-1,1553,904,0,0
336,120,0,0,0,0,0,0,0,0,0,-1,1560,904,0,0
343,120,0,0,0,0,0,0,0,0,0,-1,1567,904,0,0
350,120,0,0,0,0,0,0,0,0,0,-1,1574,904,0,0
357,120,0,0,0,0,0,0,0,0,0,-1,1581,904,0,0
364,120,0,0,0,0,0,0,0,0,0,-1,1588,904,0,0
371,120,0,0,0,0,0,0,0,0,0,-1,1595,904,0,0
378,120,0,0,0,0,0,0,0,0,0,-1,1602,904,0,0
385,120,0,0,0,0,0,0,0,0,0,-1,1609,904,0,0
392,120,0,0,0,0,0,0,0,0,0,-1,1616,904,0,0
399,120,0,0,0,0,0,0,0,0,0,-1,1623,904,0,0
406,120,0,0,0,0,0,0,0,0,0,-1,1630,904,0,0
413,120,0,0,0,0,0,0,0,0,0,-1,1637,904,0,0
420,120,0,0,0,0,0,0,0,0,0,-1,1644,904,0,0
427,120,0,0,0,0,0,0,0,0,0,-1,1651,904,0,0
434,120,0,0,0,0,0,0,0,0,0,-1,1658,904,0,0
441,120,0,0,0,0,0,0,0,0,0,-1,1665,904,0,0
448,120,0,0,0,0,0,0,0,0,0,-1,1672,904,0,0
455,120,0,0,0,0,0,0,0,0,0,-1,1679,904,0,0
462,120,0,0,0,0,0,0,0,0,0,-1,1686,904,0,0
469,120,0,0,0,0,0,0,0,0,0,-1,1693,904,0,0
476,120,0,0,0,0,0,0,0,0,0,-1,1700,904,0,0
483,120,0,0,0,0,0,0,0,0,0,-1,1707,904,0,0
490,120,0,0,0,0,0,0,0,0,0,-1,1714,904,0,0
497,120,0,0,0,0,0,0,0,0,0,-1,1721,904,0,0
504,120,0,0,0,0,0,0,0,0,0,-1,1728,904,0,0
511,120,0,0,0,0,0,0,0,0,0,-1,1735,904,0,0
518,120,0,0,0,0,0,0,0,0,0,-1,1742,904,0,0
525,120,0,0,0,0,0,0,0,0,0,-1,1749,904,0,0
532,120,0,0,0,0,0,0,0,0,0,-1,1756,904,0,0
539,120,0,0,0,0,0,0,0,0,0,-1,1763,904,0,0
546,120,0,0,0,0,0,0,0,0,0,-1,1770,904,0,0
553,120,0,0,0,0,0,0,0,0,0,-1,1777,904,0,0
560,120,0,0,0,0,0,0,0,0,0,-1,1784,904,0,0
567,120,0,0,0,0,0,0,0,0,0,-1,1791,904,0,0
574,120,0,0,0,0,0,0,0,0,0,-1,1798,904,0,0
581,120,0,0,0,0,0,0,0,0,0,-1,1805,904,0,0
588,120,0,0,0,0,0,0,0,0,0,-1,1812,904,0,0
595,120,0,0,0,0,0,0,0,0,0,-1,1819,904,0,0
602,120,0,0,0,0,0,0,0,0,0,-1,1826,904,0,0
609,120,0,0,0,0,0,0,0,0,0,-1,1833,904,0,0
616,120,0,0,0,0,0,0,0,0,0,-1,1840,904,0,0
623,120,0,0,0,0,0,0,0,0,0,-1,1847,904,0,0
630,120,30.4697,3.17554,0.000525081,0.00210225,-0.00559451,0.00696348,-0.00433615,-0.855415,0.00658237,0.0375793,1854,904,30.4697,-3.17556
637,120,30.4025,3.25708,0.000931385,0.00212151,-0.00502958,0.00659111,-0.00353821,-0.844281,0.00593604,0.0401375,1861,904,30.4025,-3.25711
644,120,30.3955,3.03485,0.000872295,0.001958,-0.0042442,0.00569392,-0.00286363,-0.849005,0.00502997,0.0410673,1868,904,30.3955,-3.03484
651,120,30.5675,3.01178,0.000566615,0.00185149,-0.00330161,0.00457258,-0.00215448,-0.881489,0.00396663,0.0440492,1875,904,30.5676,-3.01178
658,120,30.3961,3.00787,0.000131682,0.00172751,-0.0024092,0.00346749,-0.00160829,-0.945311,0.00299532,0.0435515,1882,904,30.3961,-3.00788
665,120,30.4308,2.91772,-0.00018658,0.00157431,-0.0016436,0.00255844,-0.0011707,-1.03129,0.00220215,0.0372053,1889,904,30.4308,-2.91773
672,120,30.5117,2.83881,-0.000346276,0.00141554,-0.00106336,0.00191548,-0.000846215,-1.13131,0.00163382,0.0345445,1896,904,30.5118,-2.83882
679,120,30.5444,2.78613,-0.000437612,0.00114688,-0.000600409,0.00134868,-0.000639421,-1.24654,0.00117193,0.0315152,1903,904,30.5444,-2.78614
686,120,30.5128,2.83044,-0.000568805,0.000951202,-0.00030685,0.00101081,-0.000628412,-1.37893,0.00095495,0.0217286,1910,904,30.5128,-2.83044
693,120,30.4707,2.88318,0,0,0,0,0,0,0,-1,1917,904,30.4707,-2.8832
700,120,27.1755,3.16296,0,0,0,0,0,0,0,-1,1924,904,27.1755,-3.16296
707,120,27.0652,3.43713,-0.000653815,0.000605987,0.000282639,0.000666492,-0.00071432,1.35991,0.000797372,0.0248752,1931,904,27.0652,-3.43714
714,120,27.2026,3.75208,-7.67332e-05,0.000681991,0.00028977,0.000779999,-0.000174741,1.24465,0.000586981,0.0182367,1938,904,27.2026,-3.75205
721,120,27.2188,3.99011,0.000643232,0.000711213,0.000274053,0.000953375,0.00040107,0.847097,0.000552735,0.0137401,1945,904,27.2187,-3.99014
728,120,27.2076,4.25824,0.00111087,0.00079153,0.000426189,0.00140631,0.000496082,0.60617,0.000823588,0.0101806,1952,904,27.2076,-4.25823
735,120,27.1841,4.48254,0.00166796,0.000729098,0.000924566,0.00223544,0.000161616,0.550492,0.00143945,0.012341,1959,904,27.1841,-4.48256
742,120,27.1777,4.74158,0.00200746,0.00039163,0.00154835,0.002946,-0.000546911,0.544934,0.00216941,0.0129189,1966,904,27.1777,-4.74155
749,120,27.165,4.9859,0.00210175,0.000342344,0.00195257,0.00336363,-0.000919545,0.573749,0.00260364,0.00998567,1973,904,27.165,-4.98587
756,120,27.1177,5.23169,0.00171389,-0.000441393,0.00259342,0.00344466,-0.00217216,0.588487,0.00327049,0.0132083,1980,904,27.1177,-5.23169
763,120,27.0737,5.45648,0.000467879,-0.00170709,0.003329,0.00288251,-0.00412173,0.627527,0.00406494,0.0277303,1987,904,27.0738,-5.45645
770,120,27.1189,5.76099,-0.00184911,-0.00367446,0.00381663,0.00116245,-0.00668602,0.668037,0.0048911,0.0489129,1994,904,27.1188,-5.761
777,120,27.3438,5.99756,0,0,0,0,0,0,0,-1,2001,904,27.3438,-5.99759
784,120,29.2712,6.80573,0,0,0,0,0,0,0,-1,2008,904,29.2713,-6.80575
791,120,28.3237,6.85736,0,0,0,0,0,0,0,-1,2015,904,28.3237,-6.85738
798,120,27.3401,7.02106,0,0,0,0,0,0,0,-1,2022,904,27.3402,-7.02108
805,120,0,0,0,0,0,0,0,0,0,-1,2029,904,0,0
812,120,0,0,0,0,0,0,0,0,0,-1,2036,904,0,0
-700,113,0,0,0,0,0,0,0,0,0,-1,524,911,0,0
-693,113,0,0,0,0,0,0,0,0,0,-1,531,911,0,0
-686,113,0,0,0,0,0,0,0,0,0,-1,538,911,0,0
-679,113,-24.7963,-0.575378,0.103731,0.0309318,0.0811223,0.156246,-0.0215829,0.574512,0.112053,0.045805,545,911,-24.7963,0.575349
-672,113,-24.4297,0.0205688,0.0764343,0.0211736,0.0678827,0.122094,-0.0244865,0.592122,0.0906674,0.0498931,552,911,-24.4297,-0.020563
-665,113,-24.7637,0.590759,0,0,0,0,0,0,0,-1,559,911,-24.7637,-0.590737
-658,113,-19.296,2.62201,0,0,0,0,0,0,0,-1,566,911,-19.296,-2.62201
-651,113,-24.462,3.98407,0,0,0,0,0,0,0,-1,573,911,-24.462,-3.9841
-644,113,-19.256,2.79004,0,0,0,0,0,0,0,-1,580,911,-19.256,-2.79003
-637,113,-19.3931,2.60046,0.0122926,0.00434575,0.0244362,0.0330763,-0.016438,0.704801,0.0291201,0.0343193,587,911,-19.3931,-2.60046
-630,113,-19.1471,2.77765,0.00637931,0.0035257,0.0188585,0.0238649,-0.0139599,0.747641,0.0220863,0.0161273,594,911,-19.1471,-2.77767
-623,113,-19.1771,2.59131,0.00209231,0.0021819,0.0137868,0.015924,-0.0116498,0.787023,0.0159834,0.0101361,601,911,-19.1771,-2.59129
-616,113,-19.1816,2.38428,-0.000438335,0.000856161,0.00914969,0.00938147,-0.00896364,0.820709,0.0105925,0.00934638,608,911,-19.1816,-2.38429
-609,113,-19.1895,2.18158,-0.00219618,0.000770302,0.00599678,0.00546455,-0.00689042,0.906635,0.00714897,0.0111788,615,911,-19.1895,-2.18159
-602,113,-19.2073,1.94891,-0.00295887,0.000947652,0.00386866,0.00332818,-0.0053394,1.01918,0.00504894,0.0151768,622,911,-19.2073,-1.94894
-595,113,-19.2147,1.77759,-0.00404957,0.000985871,0.0021497,0.00177876,-0.00484246,1.21744,0.00395682,0.0194609,629,911,-19.2147,-1.77759
-588,113,-19.1871,1.54327,-0.00346096,0.0008755,0.000965929,0.00108093,-0.00366638,1.36125,0.00287316,0.0230216,636,911,-19.1871,-1.54328
-581,113,-19.1871,1.31531,-0.00331938,0.000860258,0.000350451,0.000889439,-0.00334856,1.48772,0.00258046,0.0248726,643,911,-19.187,-1.3153
-574,113,-19.0728,0.968994,-0.00329831,0.000767766,0.000211686,0.000778757,-0.0033093,1.51892,0.00250644,0.0254564,650,911,-19.0728,-0.968982
-567,113,-19.3248,0.603638,0,0,0,0,0,0,0,-1,657,911,-19.3248,-0.603667
-560,113,-21.4427,0.867737,0,0,0,0,0,0,0,-1,664,911,-21.4427,-0.867721
-553,113,-21.4585,0.990845,-0.00220999,0.00124049,-0.000363699,0.00127841,-0.00224791,-1.46691,0.00206141,0.0353275,671,911,-21.4585,-0.990826
-546,113,-21.4419,0.97168,-0.00161919,0.00149418,-0.000450716,0.00155812,-0.00168312,-1.42988,0.0018718,0.0338469,678,911,-21.4419,-0.971673
-539,113,-21.3847,1.05566,-0.000887625,0.00173245,-0.000568297,0.0018504,-0.00100558,-1.36614,0.00167277,0.0348221,685,911,-21.3847,-1.05565
-532,113,-21.3398,1.11145,-8.12259e-05,0.00193721,-0.000782986,0.00220532,-0.000349345,-1.24088,0.00159943,0.0374408,692,911,-21.3398,-1.11144
-525,113,-21.3937,1.11151,0.000688179,0.00205125,-0.00134167,0.00287456,-0.000135132,-1.0204,0.00196297,0.03904,699,911,-21.3937,-1.1115
-518,113,-21.5203,1.1048,0.000945988,0.00215067,-0.00235044,0.00397472,-0.000878063,-0.910833,0.00298585,0.0409107,706,911,-21.5203,-1.10478
-511,113,-21.6525,1.06067,0.00146668,0.00287146,-0.00412349,0.00635196,-0.00201382,-0.869758,0.0050418,0.0426873,713,911,-21.6525,-1.06068
-504,113,0,0,0,0,0,0,0,0,0,-1,720,911,0,0
-497,113,0,0,0,0,0,0,0,0,0,-1,727,911,0,0
-490,113,0,0,0,0,0,0,0,0,0,-1,734,911,0,0
-483,113,0,0,0,0,0,0,0,0,0,-1,741,911,0,0
-476,113,0,0,0,0,0,0,0,0,0,-1,748,911,0,0
-469,113,0,0,0,0,0,0,0,0,0,-1,755,911,0,0
-462,113,0,0,0,0,0,0,0,0,0,-1,762,911,0,0
-455,113,0,0,0,0,0,0,0,0,0,-1,769,911,0,0
-448,113,0,0,0,0,0,0,0,0,0,-1,776,911,0,0
-441,113,0,0,0,0,0,0,0,0,0,-1,783,911,0,0
-434,113,0,0,0,0,0,0,0,0,0,-1,790,911,0,0
-427,113,0,0,0,0,0,0,0,0,0,-1,797,911,0,0
-420,113,0,0,0,0,0,0,0,0,0,-1,804,911,0,0
-413,113,0,0,0,0,0,0,0,0,0,-1,811,911,0,0
-406,113,0,0,0,0,0,0,0,0,0,-1,818,911,0,0
-399,113,0,0,0,0,0,0,0,0,0,-1,825,911,0,0
-392,113,0,0,0,0,0,0,0,0,0,-1,832,911,0,0
-385,113,0,0,0,0,0,0,0,0,0,-1,839,911,0,0
-378,113,0,0,0,0,0,0,0,0,0,-1,846,911,0,0
-371,113,0,0,0,0,0,0,0,0,0,-1,853,911,0,0
-364,113,0,0,0,0,0,0,0,0,0,-1,860,911,0,0
-357,113,0,0,0,0,0,0,0,0,0,-1,867,911,0,0
-350,113,0,0,0,0,0,0,0,0,0,-1,874,911,0,0
-343,113,0,0,0,0,0,0,0,0,0,-1,881,911,0,0
-336,113,0,0,0,0,0,0,0,0,0,-1,888,911,0,0
-329,113,0,0,0,0,0,0,0,0,0,-1,895,911,0,0
-322,113,0,0,0,0,0,0,0,0,0,-1,902,911,0,0
-315,113,0,0,0,0,0,0,0,0,0,-1,909,911,0,0
-308,113,0,0,0,0,0,0,0,0,0,-1,916,911,0,0
-301,113,0,0,0,0,0,0,0,0,0,-1,923,911,0,0
-294,113,0,0,0,0,0,0,0,0,0,-1,930,911,0,0
-287,113,0,0,0,0,0,0,0,0,0,-1,937,911,0,0
-280,113,0,0,0,0,0,0,0,0,0,-1,944,911,0,0
-273,113,0,0,0,0,0,0,0,0,0,-1,951,911,0,0
-266,113,0,0,0,0,0,0,0,0,0,-1,958,911,0,0
-259,113,0,0,0,0,0,0,0,0,0,-1,965,911,0,0
-252,113,0,0,0,0,0,0,0,0,0,-1,972,911,0,0
-245,113,0,0,0,0,0,0,0,0,0,-1,979,911,0,0
-238,113,0,0,0,0,0,0,0,0,0,-1,986,911,0,0
-231,113,0,0,0,0,0,0,0,0,0,-1,993,911,0,0
-224,113,0,0,0,0,0,0,0,0,0,-1,1000,911,0,0
-217,113,0,0,0,0,0,0,0,0,0,-1,1007,911,0,0
-210,113,0,0,0,0,0,0,0,0,0,-1,1014,911,0,0
-203,113,0,0,0,0,0,0,0,0,0,-1,1021,911,0,0
-196,113,0,0,0,0,0,0,0,0,0,-1,1028,911,0,0
-189,113,0,0,0,0,0,0,0,0,0,-1,1035,911,0,0
-182,113,0,0,0,0,0,0,0,0,0,-1,1042,911,0,0
-175,113,0,0,0,0,0,0,0,0,0,-1,1049,911,0,0
-168,113,0,0,0,0,0,0,0,0,0,-1,1056,911,0,0
-161,113,0,0,0,0,0,0,0,0,0,-1,1063,911,0,0
-154,113,0,0,0,0,0,0,0,0,0,-1,1070,911,0,0
-147,113,0,0,0,0,0,0,0,0,0,-1,1077,911,0,0
-140,113,0,0,0,0,0,0,0,0,0,-1,1084,911,0,0
-133,113,0,0,0,0,0,0,0,0,0,-1,1091,911,0,0
-126,113,0,0,0,0,0,0,0,0,0,-1,1098,911,0,0
-119,113,0,0,0,0,0,0,0,0,0,-1,1105,911,0,0
-112,113,0,0,0,0,0,0,0,0,0,-1,1112,911,0,0
-105,113,0,0,0,0,0,0,0,0,0,-1,1119,911,0,0
-98,113,0,0,0,0,0,0,0,0,0,-1,1126,911,0,0
-91,113,0,0,0,0,0,0,0,0,0,-1,1133,911,0,0
-84,113,0,0,0,0,0,0,0,0,0,-1,1140,911,0,0
-77,113,0,0,0,0,0,0,0,0,0,-1,1147,911,0,0
-70,113,0,0,0,0,0,0,0,0,0,-1,1154,911,0,0
-63,113,0,0,0,0,0,0,0,0,0,-1,1161,911,0,0
-56,113,0,0,0,0,0,0,0,0,0,-1,1168,911,0,0
-49,113,0,0,0,0,0,0,0,0,0,-1,1175,911,0,0
-42,113,0,0,0,0,0,0,0,0,0,-1,1182,911,0,0
-35,113,0,0,0,0,0,0,0,0,0,-1,1189,911,0,0
-28,113,0,0,0,0,0,0,0,0,0,-1,1196,911,0,0
-21,113,0,0,0,0,0,0,0,0,0,-1,1203,911,0,0
-14,113,0,0,0,0,0,0,0,0,0,-1,1210,911,0,0
-7,113,0,0,0,0,0,0,0,0,0,-1,1217,911,0,0
0,113,0,0,0,0,0,0,0,0,0,-1,1224,911,0,0
7,113,0,0,0,0,0,0,0,0,0,-1,1231,911,0,0
14,113,0,0,0,0,0,0,0,0,0,-1,1238,911,0,0
21,113,0,0,0,0,0,0,0,0,0,-1,1245,911,0,0
28,113,0,0,0,0,0,0,0,0,0,-1,1252,911,0,0
35,113,0,0,0,0,0,0,0,0,0,-1,1259,911,0,0
42,113,0,0,0,0,0,0,0,0,0,-1,1266,911,0,0
49,113,0,0,0,0,0,0,0,0,0,-1,1273,911,0,0
56,113,0,0,0,0,0,0,0,0,0,-1,1280,911,0,0
63,113,0,0,0,0,0,0,0,0,0,-1,1287,911,0,0
70,113,0,0,0,0,0,0,0,0,0,-1,1294,911,0,0
77,113,0,0,0,0,0,0,0,0,0,-1,1301,911,0,0
84,113,0,0,0,0,0,0,0,0,0,-1,1308,911,0,0
91,113,0,0,0,0,0,0,0,0,0,-1,1315,911,0,0
98,113,0,0,0,0,0,0,0,0,0,-1,1322,911,0,0
105,113,0,0,0,0,0,0,0,0,0,-1,1329,911,0,0
112,113,0,0,0,0,0,0,0,0,0,-1,1336,911,0,0
119,113,0,0,0,0,0,0,0,0,0,-1,1343,911,0,0
126,113,0,0,0,0,0,0,0,0,0,-1,1350,911,0,0
133,113,0,0,0,0,0,0,0,0,0,-1,1357,911,0,0
140,113,0,0,0,0,0,0,0,0,0,-1,1364,911,0,0
147,113,0,0,0,0,0,0,0,0,0,-1,1371,911,0,0
154,113,0,0,0,0,0,0,0,0,0,-1,1378,911,0,0
161,113,0,0,0,0,0,0,0,0,0,-1,1385,911,0,0
168,113,0,0,0,0,0,0,0,0,0,-1,1392,911,0,0
175,113,0,0,0,0,0,0,0,0,0,-1,1399,911,0,0
182,113,0,0,0,0,0,0,0,0,0,-1,1406,911,0,0
189,113,0,0,0,0,0,0,0,0,0,-1,1413,911,0,0
196,113,0,0,0,0,0,0,0,0,0,-1,1420,911,0,0
203,113,0,0,0,0,0,0,0,0,0,-1,1427,911,0,0
210,113,0,0,0,0,0,0,0,0,0,-1,1434,911,0,0
217,113,0,0,0,0,0,0,0,0,0,-1,1441,911,0,0
224,113,0,0,0,0,0,0,0,0,0,-1,1448,911,0,0
231,113,0,0,0,0,0,0,0,0,0,-1,1455,911,0,0
238,113,0,0,0,0,0,0,0,0,0,-1,1462,911,0,0
245,113,0,0,0,0,0,0,0,0,0,-1,1469,911,0,0
252,113,0,0,0,0,0,0,0,0,0,-1,1476,911,0,0
259,113,0,0,0,0,0,0,0,0,0,-1,1483,911,0,0
266,113,0,0,0,0,0,0,0,0,0,-1,1490,911,0,0
273,113,0,0,0,0,0,0,0,0,0,-1,1497,911,0,0
280,113,0,0,0,0,0,0,0,0,0,-1,1504,911,0,0
287,113,0,0,0,0,0,0,0,0,0,-1,1511,911,0,0
294,113,0,0,0,0,0,0,0,0,0,-1,1518,911,0,0
301,113,0,0,0,0,0,0,0,0,0,-1,1525,911,0,0
308,113,0,0,0,0,0,0,0,0,0,-1,1532,911,0,0
315,113,0,0,0,0,0,0,0,0,0,-1,1539,911,0,0
322,113,0,0,0,0,0,0,0,0,0,-1,1546,911,0,0
329,113,0,0,0,0,0,0,0,0,0,-1,1553,911,0,0
336,113,0,0,0,0,0,0,0,0,0,-1,1560,911,0,0
343,113,0,0,0,0,0,0,0,0,0,-1,1567,911,0,0
350,113,0,0,0,0,0,0,0,0,0,-1,1574,911,0,0
357,113,0,0,0,0,0,0,0,0,0,-1,1581,911,0,0
364,113,0,0,0,0,0,0,0,0,0,-1,1588,911,0,0
371,113,0,0,0,0,0,0,0,0,0,-1,1595,911,0,0
378,113,0,0,0,0,0,0,0,0,0,-1,1602,911,0,0
385,113,0,0,0,0,0,0,0,0,0,-1,1609,911,0,0
392,113,0,0,0,0,0,0,0,0,0,-1,1616,911,0,0
399,113,0,0,0,0,0,0,0,0,0,-1,1623,911,0,0
406,113,0,0,0,0,0,0,0,0,0,-1,1630,911,0,0
413,113,0,0,0,0,0,0,0,0,0,-1,1637,911,0,0
420,113,0,0,0,0,0,0,0,0,0,-1,1644,911,0,0
427,113,0,0,0,0,0,0,0,0,0,-1,1651,911,0,0
434,113,0,0,0,0,0,0,0,0,0,-1,1658,911,0,0
441,113,0,0,0,0,0,0,0,0,0,-1,1665,911,0,0
448,113,0,0,0,0,0,0,0,0,0,-1,1672,911,0,0
455,113,0,0,0,0,0,0,0,0,0,-1,1679,911,0,0
462,113,0,0,0,0,0,0,0,0,0,-1,1686,911,0,0
469,113,0,0,0,0,0,0,0,0,0,-1,1693,911,0,0
476,113,0,0,0,0,0,0,0,0,0,-1,1700,911,0,0
483,113,0,0,0,0,0,0,0,0,0,-1,1707,911,0,0
490,113,0,0,0,0,0,0,0,0,0,-1,1714,911,0,0
497,113,0,0,0,0,0,0,0,0,0,-1,1721,911,0,0
504,113,0,0,0,0,0,0,0,0,0,-1,1728,911,0,0
511,113,0,0,0,0,0,0,0,0,0,-1,1735,911,0,0
518,113,0,0,0,0,0,0,0,0,0,-1,1742,911,0,0
525,113,0,0,0,0,0,0,0,0,0,-1,1749,911,0,0
532,113,0,0,0,0,0,0,0,0,0,-1,1756,911,0,0
539,113,0,0,0,0,0,0,0,0,0,-1,1763,911,0,0
546,113,0,0,0,0,0,0,0,0,0,-1,1770,911,0,0
553,113,0,0,0,0,0,0,0,0,0,-1,1777,911,0,0
560,113,0,0,0,0,0,0,0,0,0,-1,1784,911,0,0
567,113,0,0,0,0,0,0,0,0,0,-1,1791,911,0,0
574,113,0,0,0,0,0,0,0,0,0,-1,1798,911,0,0
581,113,0,0,0,0,0,0,0,0,0,-1,1805,911,0,0
588,113,0,0,0,0,0,0,0,0,0,-1,1812,911,0,0
595,113,0,0,0,0,0,0,0,0,0,-1,1819,911,0,0
602,113,0,0,0,0,0,0,0,0,0,-1,1826,911,0,0
609,113,0,0,0,0,0,0,0,0,0,-1,1833,911,0,0
616,113,0,0,0,0,0,0,0,0,0,-1,1840,911,0,0
623,113,0,0,0,0,0,0,0,0,0,-1,1847,911,0,0
630,113,30.6171,2.97632,0.00168547,0.00265655,-0.0061501,0.00834025,-0.00399822,-0.82479,0.00726917,0.0378457,1854,911,30.6171,-2.97635
637,113,30.724,3.08643,0.00172831,0.00262912,-0.00545769,0.00765496,-0.00329753,-0.826568,0.00648809,0.0387658,1861,911,30.724,-3.08641
644,113,30.7362,3.13092,0.00133214,0.00241346,-0.00456397,0.00646868,-0.00272308,-0.844355,0.00545176,0.0395049,1868,911,30.7363,-3.13091
651,113,30.674,2.89917,0.000739724,0.00226317,-0.0034759,0.00505983,-0.00205694,-0.893265,0.00422904,0.0431265,1875,911,30.6739,-2.89915
658,113,30.6285,2.7088,6.19942e-05,0.0021083,-0.00241798,0.00371069,-0.00154039,-0.985547,0.00311683,0.0442551,1882,911,30.6286,-2.7088
665,113,30.6117,2.81982,-0.00042279,0.0019149,-0.00150694,0.00265316,-0.00116105,-1.11525,0.0022576,0.037653,1889,911,30.6117,-2.81984
672,113,30.521,2.88867,-0.000686875,0.0017052,-0.00081037,0.00195388,-0.000935554,-1.27305,0.0017024,0.034995,1896,911,30.5211,-2.88867
679,113,30.4933,2.83539,-0.000817137,0.00138292,-0.000279555,0.00141789,-0.000852104,-1.44636,0.00132408,0.0303562,1903,911,30.4933,-2.83541
686,113,30.4995,2.77899,-0.000931439,0.00112199,3.07257e-05,0.00112245,-0.000931898,1.55584,0.00118778,0.0283203,1910,911,30.4995,-2.77899
693,113,30.4055,2.94458,-0.00109388,0.000949068,0.000279695,0.000986668,-0.00113148,1.43716,0.00122387,0.0460634,1917,911,30.4055,-2.94459
700,113,30.3087,2.99561,0,0,0,0,0,0,0,-1,1924,911,30.3087,-2.99558
707,113,27.4636,3.5083,0,0,0,0,0,0,0,-1,1931,911,27.4636,-3.50828
714,113,27.4086,3.68622,-0.000506965,0.000676817,0.000550485,0.000893238,-0.000723386,1.19621,0.000935074,0.0193082,1938,911,27.4086,-3.68621
721,113,27.4264,3.95557,0.00015823,0.000648588,0.000488556,0.000950035,-0.000143217,1.01796,0.000686096,0.0176414,1945,911,27.4264,-3.95555
728,113,27.4872,4.26147,0.000586838,0.000751226,0.000630708,0.00130507,3.29908e-05,0.850193,0.000859263,0.0177394,1952,911,27.4871,-4.26145
735,113,27.4634,4.5188,0.00113187,0.000818225,0.00111004,0.00209611,-0.000146012,0.715225,0.00144853,0.0158546,1959,911,27.4634,-4.5188
742,113,27.4526,4.75317,0.00156773,0.000770148,0.00169419,0.00290943,-0.000571552,0.669808,0.00215555,0.0121532,1966,911,27.4527,-4.75318
749,113,27.4351,4.9931,0.00178368,0.00105364,0.00202856,0.0034798,-0.000642476,0.69638,0.00256103,0.00941645,1973,911,27.4351,-4.99308
756,113,27.3817,5.2403,0.00163024,0.000780249,0.00261386,0.00385343,-0.00144294,0.704807,0.00316166,0.0137122,1980,911,27.3817,-5.24029
763,113,27.3309,5.52258,0.0008043,0.0002671,0.00335036,0.00389681,-0.00282541,0.745398,0.00389747,0.0293629,1987,911,27.3309,-5.5226
770,113,27.3569,5.79822,-0.000818802,-0.000680414,0.00380347,0.00305449,-0.00455371,0.794493,0.00442093,0.0484943,1994,911,27.3569,-5.79823
777,113,27.5092,6.00891,0,0,0,0,0,0,0,-1,2001,911,27.5092,-6.00889
784,113,28.5659,6.71753,0,0,0,0,0,0,0,-1,2008,911,28.5659,-6.71756
791,113,27.979,6.98077,0,0,0,0,0,0,0,-1,2015,911,27.979,-6.9808
798,113,27.4363,7.66766,0,0,0,0,0,0,0,-1,2022,911,27.4362,-7.66768
805,113,0,0,0,0,0,0,0,0,0,-1,2029,911,0,0
812,113,0,0,0,0,0,0,0,0,0,-1,2036,911,0,0
-700,106,0,0,0,0,0,0,0,0,0,-1,524,918,0,0
-693,106,0,0,0,0,0,0,0,0,0,-1,531,918,0,0
-686,106,0,0,0,0,0,0,0,0,0,-1,538,918,0,0
-679,106,-25.6901,-1.40271,0,0,0,0,0,0,0,-1,545,918,-25.6901,1.40272
-672,106,-25.256,-0.792236,0,0,0,0,0,0,0,-1,552,918,-25.2561,0.792208
-665,106,-18.7543,3.18481,0,0,0,0,0,0,0,-1,559,918,-18.7542,-3.18481
-658,106,-18.6993,3.01147,0.0468808,0.00197461,0.0392602,0.069655,-0.0207996,0.525646,0.0547042,0.0454472,566,918,-18.6993,-3.01149
-651,106,-18.8224,2.91699,0.0323633,0.00167668,0.0317802,0.0523102,-0.0182702,0.560504,0.0422998,0.0479104,573,918,-18.8224,-2.91699
-644,106,-19.0927,2.83386,0.0216088,0.00159431,0.0253961,0.0388982,-0.015695,0.597716,0.0324545,0.0413362,580,918,-19.0927,-2.83385
-637,106,-19.2267,2.85919,0.0137822,0.00154268,0.0199262,0.0285072,-0.0131824,0.63641,0.0246056,0.0273943,587,918,-19.2268,-2.85921
-630,106,-19.361,2.81555,0.00683537,0.00175015,0.0152388,0.0197422,-0.0111567,0.702734,0.0180676,0.0126505,594,918,-19.361,-2.81556
-623,106,-19.4185,2.58209,0.00188295,0.00116405,0.0109421,0.0124715,-0.00942449,0.768979,0.0126824,0.0110859,601,918,-19.4185,-2.58209
-616,106,-19.4295,2.36395,-0.00102516,0.000548298,0.00716008,0.00696474,-0.00744161,0.840117,0.00831903,0.0114256,608,918,-19.4295,-2.36394
-609,106,-19.4303,2.17609,-0.00289787,0.000821226,0.00464613,0.00396612,-0.00604276,0.975753,0.00581994,0.0108721,615,918,-19.4303,-2.17606
-602,106,-19.4471,1.96265,-0.00369548,0.00106438,0.00302219,0.00253123,-0.00516234,1.11893,0.00452764,0.0142819,622,918,-19.4472,-1.96264
-595,106,-19.5242,1.74713,-0.00477684,0.0010673,0.00162417,0.00148835,-0.00519788,1.31714,0.0040535,0.0178482,629,918,-19.5242,-1.74714
-588,106,-19.4836,1.50311,-0.00433831,0.000997531,0.000640594,0.00107336,-0.00441413,1.45297,0.00335822,0.0209447,636,918,-19.4836,-1.50311
-581,106,-19.3491,1.26642,-0.00429127,0.0010003,0.000108508,0.00100253,-0.00429349,1.5503,0.00324849,0.0155067,643,918,-19.3491,-1.26644
-574,106,-19.4152,1.04889,-0.00426854,0.000957257,-1.09626e-05,0.00095728,-0.00426856,-1.5687,0.0032127,0.0287409,650,918,-19.4151,-1.04892
-567,106,-19.8318,0.941833,0,0,0,0,0,0,0,-1,657,918,-19.8318,-0.941842
-560,106,-21.3942,1.02393,-0.00359585,0.00127134,-0.000328836,0.00129345,-0.00361796,-1.50364,0.00293956,0.0457421,664,918,-21.3941,-1.0239
-553,106,-21.4782,1.01996,-0.00303569,0.00155877,-0.000419732,0.0015968,-0.00307372,-1.48044,0.0027411,0.0366653,671,918,-21.4782,-1.01995
-546,106,-21.4223,0.848145,-0.0022473,0.00184224,-0.000403928,0.00188176,-0.00228682,-1.47328,0.00241051,0.0370692,678,918,-21.4223,-0.848121
-539,106,-21.3488,0.980103,-0.00122787,0.00209258,-0.000379941,0.0021355,-0.00127079,-1.45831,0.00198763,0.0375877,685,918,-21.3488,-0.980108
-532,106,-21.209,1.06604,-3.01292e-05,0.00225621,-0.00041496,0.00232919,-0.000103113,-1.3967,0.00158828,0.0387901,692,918,-21.209,-1.06603
-525,106,-21.2592,1.05585,0.00113864,0.00223329,-0.000759439,0.00262208,0.000749848,-1.09764,0.0015594,0.038189,699,918,-21.2591,-1.05582
-518,106,-21.4077,0.92627,0.0014059,0.00207953,-0.00148146,0.00326199,0.000223447,-0.897174,0.00210413,0.0390013,706,918,-21.4076,-0.926258
-511,106,0,0,0,0,0,0,0,0,0,-1,713,918,0,0
-504,106,0,0,0,0,0,0,0,0,0,-1,720,918,0,0
-497,106,0,0,0,0,0,0,0,0,0,-1,727,918,0,0
-490,106,0,0,0,0,0,0,0,0,0,-1,734,918,0,0
-483,106,0,0,0,0,0,0,0,0,0,-1,741,918,0,0
-476,106,0,0,0,0,0,0,0,0,0,-1,748,918,0,0
-469,106,0,0,0,0,0,0,0,0,0,-1,755,918,0,0
-462,106,0,0,0,0,0,0,0,0,0,-1,762,918,0,0
-455,106,0,0,0,0,0,0,0,0,0,-1,769,918,0,0
-448,106,0,0,0,0,0,0,0,0,0,-1,776,918,0,0
-441,106,0,0,0,0,0,0,0,0,0,-1,783,918,0,0
-434,106,0,0,0,0,0,0,0,0,0,-1,790,918,0,0
-427,106,0,0,0,0,0,0,0,0,0,-1,797,918,0,0
-420,106,0,0,0,0,0,0,0,0,0,-1,804,918,0,0
-413,106,0,0,0,0,0,0,0,0,0,-1,811,918,0,0
-406,106,0,0,0,0,0,0,0,0,0,-1,818,918,0,0
-399,106,0,0,0,0,0,0,0,0,0,-1,825,918,0,0
-392,106,0,0,0,0,0,0,0,0,0,-1,832,918,0,0
-385,106,0,0,0,0,0,0,0,0,0,-1,839,918,0,0
-378,106,0,0,0,0,0,0,0,0,0,-1,846,918,0,0
-371,106,0,0,0,0,0,0,0,0,0,-1,853,918,0,0
-364,106,0,0,0,0,0,0,0,0,0,-1,860,918,0,0
-357,106,0,0,0,0,0,0,0,0,0,-1,867,918,0,0
-350,106,0,0,0,0,0,0,0,0,0,-1,874,918,0,0
-343,106,0,0,0,0,0,0,0,0,0,-1,881,918,0,0
-336,106,0,0,0,0,0,0,0,0,0,-1,888,918,0,0
-329,106,0,0,0,0,0,0,0,0,0,-1,895,918,0,0
-322,106,0,0,0,0,0,0,0,0,0,-1,902,918,0,0
-315,106,0,0,0,0,0,0,0,0,0,-1,909,918,0,0
-308,106,0,0,0,0,0,0,0,0,0,-1,916,918,0,0
-301,106,0,0,0,0,0,0,0,0,0,-1,923,918,0,0
-294,106,0,0,0,0,0,0,0,0,0,-1,930,918,0,0
-287,106,0,0,0,0,0,0,0,0,0,-1,937,918,0,0
-280,106,0,0,0,0,0,0,0,0,0,-1,944,918,0,0
-273,106,0,0,0,0,0,0,0,0,0,-1,951,918,0,0
-266,106,0,0,0,0,0,0,0,0,0,-1,958,918,0,0
-259,106,0,0,0,0,0,0,0,0,0,-1,965,918,0,0
-252,106,0,0,0,0,0,0,0,0,0,-1,972,918,0,0
-245,106,0,0,0,0,0,0,0,0,0,-1,979,918,0,0
-238,106,0,0,0,0,0,0,0,0,0,-1,986,918,0,0
-231,106,0,0,0,0,0,0,0,0,0,-1,993,918,0,0
-224,106,0,0,0,0,0,0,0,0,0,-1,1000,918,0,0
-217,106,0,0,0,0,0,0,0,0,0,-1,1007,918,0,0
-210,106,0,0,0,0,0,0,0,0,0,-1,1014,918,0,0
-203,106,0,0,0,0,0,0,0,0,0,-1,1021,918,0,0
-196,106,0,0,0,0,0,0,0,0,0,-1,1028,918,0,0
-189,106,0,0,0,0,0,0,0,0,0,-1,1035,918,0,0
-182,106,0,0,0,0,0,0,0,0,0,-1,1042,918,0,0
-175,106,0,0,0,0,0,0,0,0,0,-1,1049,918,0,0
-168,106,0,0,0,0,0,0,0,0,0,-1,1056,918,0,0
-161,106,0,0,0,0,0,0,0,0,0,-1,1063,918,0,0
-154,106,0,0,0,0,0,0,0,0,0,-1,1070,918,0,0
-147,106,0,0,0,0,0,0,0,0,0,-1,1077,918,0,0
-140,106,0,0,0,0,0,0,0,0,0,-1,1084,918,0,0
-133,106,0,0,0,0,0,0,0,0,0,-1,1091,918,0,0
-126,106,0,0,0,0,0,0,0,0,0,-1,1098,918,0,0
-119,106,0,0,0,0,0,0,0,0,0,-1,1105,918,0,0
-112,106,0,0,0,0,0,0,0,0,0,-1,1112,918,0,0
-105,106,0,0,0,0,0,0,0,0,0,-1,1119,918,0,0
-98,106,0,0,0,0,0,0,0,0,0,-1,1126,918,0,0
-91,106,0,0,0,0,0,0,0,0,0,-1,1133,918,0,0
-84,106,0,0,0,0,0,0,0,0,0,-1,1140,918,0,0
-77,106,0,0,0,0,0,0,0,0,0,-1,1147,918,0,0
-70,106,0,0,0,0,0,0,0,0,0,-1,1154,918,0,0
-63,106,0,0,0,0,0,0,0,0,0,-1,1161,918,0,0
-56,106,0,0,0,0,0,0,0,0,0,-1,1168,918,0,0
-49,106,0,0,0,0,0,0,0,0,0,-1,1175,918,0,0
-42,106,0,0,0,0,0,0,0,0,0,-1,1182,918,0,0
-35,106,0,0,0,0,0,0,0,0,0,-1,1189,918,0,0
-28,106,0,0,0,0,0,0,0,0,0,-1,1196,918,0,0
-21,106,0,0,0,0,0,0,0,0,0,-1,1203,918,0,0
-14,106,0,0,0,0,0,0,0,0,0,-1,1210,918,0,0
-7,106,0,0,0,0,0,0,0,0,0,-1,1217,918,0,0
0,106,0,0,0,0,0,0,0,0,0,-1,1224,918,0,0
7,106,0,0,0,0,0,0,0,0,0,-1,1231,918,0,0
14,106,0,0,0,0,0,0,0,0,0,-1,1238,918,0,0
21,106,0,0,0,0,0,0,0,0,0,-1,1245,918,0,0
28,106,0,0,0,0,0,0,0,0,0,-1,1252,918,0,0
35,106,0,0,0,0,0,0,0,0,0,-1,1259,918,0,0
42,106,0,0,0,0,0,0,0,0,0,-1,1266,918,0,0
49,106,0,0,0,0,0,0,0,0,0,-1,1273,918,0,0
56,106,0,0,0,0,0,0,0,0,0,-1,1280,918,0,0
63,106,0,0,0,0,0,0,0,0,0,-1,1287,918,0,0
70,106,0,0,0,0,0,0,0,0,0,-1,1294,918,0,0
77,106,0,0,0,0,0,0,0,0,0,-1,1301,918,0,0
84,106,0,0,0,0,0,0,0,0,0,-1,1308,918,0,0
91,106,0,0,0,0,0,0,0,0,0,-1,1315,918,0,0
98,106,0,0,0,0,0,0,0,0,0,-1,1322,918,0,0
105,106,0,0,0,0,0,0,0,0,0,-1,1329,918,0,0
112,106,0,0,0,0,0,0,0,0,0,-1,1336,918,0,0
119,106,0,0,0,0,0,0,0,0,0,-1,1343,918,0,0
126,106,0,0,0,0,0,0,0,0,0,-1,1350,918,0,0
133,106,0,0,0,0,0,0,0,0,0,-1,1357,918,0,0
140,106,0,0,0,0,0,0,0,0,0,-1,1364,918,0,0
147,106,0,0,0,0,0,0,0,0,0,-1,1371,918,0,0
154,106,0,0,0,0,0,0,0,0,0,-1,1378,918,0,0
161,106,0,0,0,0,0,0,0,0,0,-1,1385,918,0,0
168,106,0,0,0,0,0,0,0,0,0,-1,1392,918,0,0
175,106,0,0,0,0,0,0,0,0,0,-1,1399,918,0,0
182,106,0,0,0,0,0,0,0,0,0,-1,1406,918,0,0
189,106,0,0,0,0,0,0,0,0,0,-1,1413,918,0,0
196,106,0,0,0,0,0,0,0,0,0,-1,1420,918,0,0
203,106,0,0,0,0,0,0,0,0,0,-1,1427,918,0,0
210,106,0,0,0,0,0,0,0,0,0,-1,1434,918,0,0
217,106,0,0,0,0,0,0,0,0,0,-1,1441,918,0,0
224,106,0,0,0,0,0,0,0,0,0,-1,1448,918,0,0
231,106,0,0,0,0,0,0,0,0,0,-1,1455,918,0,0
238,106,0,0,0,0,0,0,0,0,0,-1,1462,918,0,0
245,106,0,0,0,0,0,0,0,0,0,-1,1469,918,0,0
252,106,0,0,0,0,0,0,0,0,0,-1,1476,918,0,0
259,106,0,0,0,0,0,0,0,0,0,-1,1483,918,0,0
266,106,0,0,0,0,0,0,0,0,0,-1,1490,918,0,0
273,106,0,0,0,0,0,0,0,0,0,-1,1497,918,0,0
280,106,0,0,0,0,0,0,0,0,0,-1,1504,918,0,0
287,106,0,0,0,0,0,0,0,0,0,-1,1511,918,0,0
294,106,0,0,0,0,0,0,0,0,0,-1,1518,918,0,0
301,106,0,0,0,0,0,0,0,0,0,-1,1525,918,0,0
308,106,0,0,0,0,0,0,0,0,0,-1,1532,918,0,0
315,106,0,0,0,0,0,0,0,0,0,-1,1539,918,0,0
322,106,0,0,0,0,0,0,0,0,0,-1,1546,918,0,0
329,106,0,0,0,0,0,0,0,0,0,-1,1553,918,0,0
336,106,0,0,0,0,0,0,0,0,0,-1,1560,918,0,0
343,106,0,0,0,0,0,0,0,0,0,-1,1567,918,0,0
350,106,0,0,0,0,0,0,0,0,0,-1,1574,918,0,0
357,106,0,0,0,0,0,0,0,0,0,-1,1581,918,0,0
364,106,0,0,0,0,0,0,0,0,0,-1,1588,918,0,0
371,106,0,0,0,0,0,0,0,0,0,-1,1595,918,0,0
378,106,0,0,0,0,0,0,0,0,0,-1,1602,918,0,0
385,106,0,0,0,0,0,0,0,0,0,-1,1609,918,0,0
392,106,0,0,0,0,0,0,0,0,0,-1,1616,918,0,0
399,106,0,0,0,0,0,0,0,0,0,-1,1623,918,0,0
406,106,0,0,0,0,0,0,0,0,0,-1,1630,918,0,0
413,106,0,0,0,0,0,0,0,0,0,-1,1637,918,0,0
420,106,0,0,0,0,0,0,0,0,0,-1,1644,918,0,0
427,106,0,0,0,0,0,0,0,0,0,-1,1651,918,0,0
434,106,0,0,0,0,0,0,0,0,0,-1,1658,918,0,0
441,106,0,0,0,0,0,0,0,0,0,-1,1665,918,0,0
448,106,0,0,0,0,0,0,0,0,0,-1,1672,918,0,0
455,106,0,0,0,0,0,0,0,0,0,-1,1679,918,0,0
462,106,0,0,0,0,0,0,0,0,0,-1,1686,918,0,0
469,106,0,0,0,0,0,0,0,0,0,-1,1693,918,0,0
476,106,0,0,0,0,0,0,0,0,0,-1,1700,918,0,0
483,106,0,0,0,0,0,0,0,0,0,-1,1707,918,0,0
490,106,0,0,0,0,0,0,0,0,0,-1,1714,918,0,0
497,106,0,0,0,0,0,0,0,0,0,-1,1721,918,0,0
504,106,0,0,0,0,0,0,0,0,0,-1,1728,918,0,0
511,106,0,0,0,0,0,0,0,0,0,-1,1735,918,0,0
518,106,0,0,0,0,0,0,0,0,0,-1,1742,918,0,0
525,106,0,0,0,0,0,0,0,0,0,-1,1749,918,0,0
532,106,0,0,0,0,0,0,0,0,0,-1,1756,918,0,0
539,106,0,0,0,0,0,0,0,0,0,-1,1763,918,0,0
546,106,0,0,0,0,0,0,0,0,0,-1,1770,918,0,0
553,106,0,0,0,0,0,0,0,0,0,-1,1777,918,0,0
560,106,0,0,0,0,0,0,0,0,0,-1,1784,918,0,0
567,106,0,0,0,0,0,0,0,0,0,-1,1791,918,0,0
574,106,0,0,0,0,0,0,0,0,0,-1,1798,918,0,0
581,106,0,0,0,0,0,0,0,0,0,-1,1805,918,0,0
588,106,0,0,0,0,0,0,0,0,0,-1,1812,918,0,0
595,106,0,0,0,0,0,0,0,0,0,-1,1819,918,0,0
602,106,0,0,0,0,0,0,0,0,0,-1,1826,918,0,0
609,106,0,0,0,0,0,0,0,0,0,-1,1833,918,0,0
616,106,0,0,0,0,0,0,0,0,0,-1,1840,918,0,0
623,106,0,0,0,0,0,0,0,0,0,-1,1847,918,0,0
630,106,30.6395,2.96802,0.00322888,0.00381192,-0.00663549,0.0101623,-0.00312149,-0.807351,0.00802046,0.0393245,1854,918,30.6395,-2.96802
637,106,30.7205,3.10583,0.00274178,0.00351548,-0.00575001,0.00889164,-0.00263437,-0.818987,0.00697376,0.0401641,1861,918,30.7205,-3.10584
644,106,30.7963,2.95172,0.00193361,0.00310421,-0.00470827,0.00726341,-0.0022256,-0.847238,0.00573007,0.0392769,1868,918,30.7963,-2.95171
651,106,30.6357,2.79797,0.00103589,0.00281807,-0.00347555,0.00551495,-0.00166099,-0.910889,0.00433763,0.0413143,1875,918,30.6357,-2.79795
658,106,30.6696,2.50616,0.000110633,0.00259004,-0.00225375,0.00392255,-0.00122188,-1.03684,0.00310356,0.0432874,1882,918,30.6696,-2.50618
665,106,30.6074,2.61786,-0.000563029,0.00233967,-0.00118208,0.00276014,-0.000983503,-1.22905,0.00224106,0.0403171,1889,918,30.6074,-2.61783
672,106,30.4607,3.00586,-0.000956303,0.00206691,-0.000353521,0.0021077,-0.000997092,-1.45593,0.00183038,0.0394856,1896,918,30.4606,-3.00586
679,106,30.5208,2.82056,-0.0011366,0.00169874,0.000244001,0.00171958,-0.00115744,1.48557,0.00167159,0.0355551,1903,918,30.5207,-2.82058
686,106,30.519,2.7298,-0.00123397,0.00138176,0.000564133,0.00149824,-0.00135045,1.36718,0.00164543,0.0329933,1910,918,30.519,-2.72978
693,106,30.4789,2.82007,-0.00136821,0.001155,0.000808266,0.0013917,-0.00160492,1.2859,0.00173156,0.0317241,1917,918,30.4789,-2.82006
700,106,30.5638,2.64471,0,0,0,0,0,0,0,-1,1924,918,30.5639,-2.64472
707,106,27.5856,3.40973,0,0,0,0,0,0,0,-1,1931,918,27.5856,-3.40975
714,106,27.6787,3.6684,-0.000911693,0.000820005,0.000879499,0.00118834,-0.00128003,1.17419,0.00142544,0.0229373,1938,918,27.6787,-3.66837
721,106,27.7415,3.95612,-0.000336201,0.000740367,0.000749954,0.00112522,-0.000721054,1.09667,0.00107443,0.0194431,1945,918,27.7414,-3.95612
728,106,27.7822,4.26093,6.56771e-05,0.000859218,0.00084247,0.00139367,-0.000468779,1.00547,0.00111861,0.0181946,1952,918,27.7823,-4.26091
735,106,27.7423,4.50934,0.000619284,0.00107204,0.00125726,0.00212314,-0.000431817,0.874472,0.00157917,0.0162647,1959,918,27.7423,-4.50934
742,106,27.713,4.73163,0.00112293,0.00128264,0.00175229,0.00295689,-0.00055132,0.808168,0.00217841,0.0114389,1966,918,27.713,-4.73164
749,106,27.7003,4.97766,0.00141258,0.00182982,0.00195,0.00358233,-0.000339929,0.838688,0.00250922,0.00926208,1973,918,27.7004,-4.97765
756,106,27.6553,5.20642,0.00142116,0.00193223,0.00234205,0.00403264,-0.000679249,0.839737,0.00294111,0.0115235,1980,918,27.6553,-5.20643
763,106,27.6191,5.50116,0.000941021,0.00200177,0.00296347,0.00448195,-0.00153917,0.873946,0.00361204,0.0228456,1987,918,27.6191,-5.50116
770,106,27.6558,5.80719,-0.000119758,0.0017744,0.00325772,0.00421992,-0.00256527,0.926858,0.00395607,0.0416344,1994,918,27.6558,-5.80721
777,106,27.7721,6.08527,0,0,0,0,0,0,0,-1,2001,918,27.7721,-6.08526
784,106,28.7045,7.00751,-0.00512748,7.50946e-06,0.00144945,0.000388392,-0.00550836,1.31383,0.00380831,0.0471462,2008,918,28.7045,-7.00749
791,106,28.2096,7.40875,-0.00985535,-0.00174523,-0.00192709,-0.00131061,-0.01029,-1.34898,0.00646752,0.044174,2015,918,28.2096,-7.40875
798,106,27.5815,8.18939,-0.0168002,-0.00408898,-0.00822528,-4.99431e-05,-0.0208393,-1.11433,0.0138762,0.0439239,2022,918,27.5815,-8.18942
805,106,0,0,0,0,0,0,0,0,0,-1,2029,918,0,0
812,106,0,0,0,0,0,0,0,0,0,-1,2036,918,0,0
-700,99,0,0,0,0,0,0,0,0,0,-1,524,925,0,0
-693,99,0,0,0,0,0,0,0,0,0,-1,531,925,0,0
-686,99,0,0,0,0,0,0,0,0,0,-1,538,925,0,0
-679,99,-25.5958,0.972778,0,0,0,0,0,0,0,-1,545,925,-25.5958,-0.972757
-672,99,-19.6298,3.6214,0,0,0,0,0,0,0,-1,552,925,-19.6298,-3.62139
-665,99,-18.9385,3.51288,0.0754876,-0.00970777,0.0414888,0.0923532,-0.0265734,0.386106,0.0720784,0.0475718,559,925,-18.9385,-3.51287
-658,99,-18.2321,3.35455,0.0531705,-0.00723647,0.0329901,0.067695,-0.021761,0.414733,0.0538693,0.0447638,566,925,-18.2321,-3.35455
-651,99,-18.4167,2.44507,0.0362378,-0.00492112,0.0260344,0.0488443,-0.0175276,0.450946,0.0397162,0.0483481,573,925,-18.4167,-2.44506
-644,99,-18.9277,2.6217,0.0237126,-0.00298796,0.0203378,0.0346904,-0.0139658,0.494958,0.0289286,0.0427776,580,925,-18.9277,-2.62169
-637,99,-19.4519,2.86652,0.0146948,-0.00153498,0.0156454,0.0242046,-0.0110448,0.54616,0.0208186,0.0293616,587,925,-19.4519,-2.8665
-630,99,-19.5818,2.8161,0.00668681,-0.000158977,0.0116359,0.0153929,-0.00886503,0.64235,0.0141733,0.0139175,594,925,-19.5818,-2.81611
-623,99,-19.6669,2.60022,0.00107095,0.000113156,0.00801694,0.00862328,-0.00743918,0.755566,0.00928206,0.008412,601,925,-19.6669,-2.60023
-616,99,-19.6722,2.37805,-0.0020846,0.000252727,0.00509799,0.00431429,-0.00614616,0.898071,0.00607014,0.00973304,608,925,-19.6723,-2.37803
-609,99,-19.6692,2.17743,-0.00394492,0.000907107,0.00321288,0.00250703,-0.00554484,1.10877,0.00475776,0.00986758,615,925,-19.6692,-2.1774
-602,99,-19.6736,1.99603,-0.00465357,0.00123715,0.0020586,0.00188525,-0.00530168,1.26579,0.00430281,0.0116578,622,925,-19.6737,-1.99603
-595,99,-19.7339,1.79541,-0.00557015,0.00120192,0.000997841,0.00134589,-0.00571412,1.42751,0.00432836,0.0157587,629,925,-19.7339,-1.7954
-588,99,-19.7085,1.55878,-0.00517611,0.00119937,0.000214016,0.00120654,-0.00518329,1.53728,0.0039201,0.0166393,636,925,-19.7085,-1.55877
-581,99,-19.6056,1.29602,-0.00515131,0.00124953,-0.000236632,0.00125827,-0.00516005,-1.53389,0.00392723,0.0123809,643,925,-19.6056,-1.29599
-574,99,-19.8145,1.06958,-0.00509297,0.00126421,-0.000354183,0.00128388,-0.00511264,-1.51531,0.00390734,0.0245911,650,925,-19.8144,-1.06961
-567,99,-20.3921,0.871704,0,0,0,0,0,0,0,-1,657,925,-20.3921,-0.871706
-560,99,-21.3128,0.948425,-0.00435483,0.00174768,-0.000598569,0.00180584,-0.00441299,-1.47394,0.00369412,0.0375669,664,925,-21.3128,-0.948431
-553,99,-21.5276,0.946716,-0.00363811,0.00210068,-0.000600182,0.00216278,-0.00370021,-1.4677,0.00342357,0.0406555,671,925,-21.5277,-0.946745
-546,99,-21.4411,0.867981,-0.00262034,0.00243136,-0.000474635,0.00247557,-0.00266455,-1.47792,0.00296832,0.0401002,678,925,-21.4411,-0.867969
-539,99,-21.3117,0.919434,-0.00128911,0.00268228,-0.000294436,0.00270399,-0.00131082,-1.49719,0.00236401,0.0366273,685,925,-21.3117,-0.919457
-532,99,-21.1836,1.08051,0.00031538,0.00276012,-0.000123398,0.00276633,0.000309167,-1.52049,0.00175029,0.0421604,692,925,-21.1836,-1.08048
-525,99,-21.2014,1.12006,0.00183935,0.00253448,-0.000211904,0.00259398,0.00177985,-1.29704,0.00153184,0.0423918,699,925,-21.2014,-1.12004
-518,99,-21.2925,0.989014,0.00202476,0.00203173,-0.000552618,0.00258088,0.00147562,-0.788552,0.00149518,0.0407885,706,925,-21.2925,-0.989003
-511,99,0,0,0,0,0,0,0,0,0,-1,713,925,0,0
-504,99,0,0,0,0,0,0,0,0,0,-1,720,925,0,0
-497,99,0,0,0,0,0,0,0,0,0,-1,727,925,0,0
-490,99,0,0,0,0,0,0,0,0,0,-1,734,925,0,0
-483,99,0,0,0,0,0,0,0,0,0,-1,741,925,0,0
-476,99,0,0,0,0,0,0,0,0,0,-1,748,925,0,0
-469,99,0,0,0,0,0,0,0,0,0,-1,755,925,0,0
-462,99,0,0,0,0,0,0,0,0,0,-1,762,925,0,0
-455,99,0,0,0,0,0,0,0,0,0,-1,769,925,0,0
-448,99,0,0,0,0,0,0,0,0,0,-1,776,925,0,0
-441,99,0,0,0,0,0,0,0,0,0,-1,783,925,0,0
-434,99,0,0,0,0,0,0,0,0,0,-1,790,925,0,0
-427,99,0,0,0,0,0,0,0,0,0,-1,797,925,0,0
-420,99,0,0,0,0,0,0,0,0,0,-1,804,925,0,0
-413,99,0,0,0,0,0,0,0,0,0,-1,811,925,0,0
-406,99,0,0,0,0,0,0,0,0,0,-1,818,925,0,0
-399,99,0,0,0,0,0,0,0,0,0,-1,825,925,0,0
-392,99,0,0,0,0,0,0,0,0,0,-1,832,925,0,0
-385,99,0,0,0,0,0,0,0,0,0,-1,839,925,0,0
-378,99,0,0,0,0,0,0,0,0,0,-1,846,925,0,0
-371,99,0,0,0,0,0,0,0,0,0,-1,853,925,0,0
-364,99,0,0,0,0,0,0,0,0,0,-1,860,925,0,0
-357,99,0,0,0,0,0,0,0,0,0,-1,867,925,0,0
-350,99,0,0,0,0,0,0,0,0,0,-1,874,925,0,0
-343,99,0,0,0,0,0,0,0,0,0,-1,881,925,0,0
-336,99,0,0,0,0,0,0,0,0,0,-1,888,925,0,0
-329,99,0,0,0,0,0,0,0,0,0,-1,895,925,0,0
-322,99,0,0,0,0,0,0,0,0,0,-1,902,925,0,0
-315,99,0,0,0,0,0,0,0,0,0,-1,909,925,0,0
-308,99,0,0,0,0,0,0,0,0,0,-1,916,925,0,0
-301,99,0,0,0,0,0,0,0,0,0,-1,923,925,0,0
-294,99,0,0,0,0,0,0,0,0,0,-1,930,925,0,0
-287,99,0,0,0,0,0,0,0,0,0,-1,937,925,0,0
-280,99,0,0,0,0,0,0,0,0,0,-1,944,925,0,0
-273,99,0,0,0,0,0,0,0,0,0,-1,951,925,0,0
-266,99,0,0,0,0,0,0,0,0,0,-1,958,925,0,0
-259,99,0,0,0,0,0,0,0,0,0,-1,965,925,0,0
-252,99,0,0,0,0,0,0,0,0,0,-1,972,925,0,0
-245,99,0,0,0,0,0,0,0,0,0,-1,979,925,0,0
-238,99,0,0,0,0,0,0,0,0,0,-1,986,925,0,0
-231,99,0,0,0,0,0,0,0,0,0,-1,993,925,0,0
-224,99,0,0,0,0,0,0,0,0,0,-1,1000,925,0,0
-217,99,0,0,0,0,0,0,0,0,0,-1,1007,925,0,0
-210,99,0,0,0,0,0,0,0,0,0,-1,1014,925,0,0
-203,99,0,0,0,0,0,0,0,0,0,-1,1021,925,0,0
-196,99,0,0,0,0,0,0,0,0,0,-1,1028,925,0,0
-189,99,0,0,0,0,0,0,0,0,0,-1,1035,925,0,0
-182,99,0,0,0,0,0,0,0,0,0,-1,1042,925,0,0
-175,99,0,0,0,0,0,0,0,0,0,-1,1049,925,0,0
-168,99,0,0,0,0,0,0,0,0,0,-1,1056,925,0,0
-161,99,0,0,0,0,0,0,0,0,0,-1,1063,925,0,0
-154,99,0,0,0,0,0,0,0,0,0,-1,1070,925,0,0
-147,99,0,0,0,0,0,0,0,0,0,-1,1077,925,0,0
-140,99,0,0,0,0,0,0,0,0,0,-1,1084,925,0,0
-133,99,0,0,0,0,0,0,0,0,0,-1,1091,925,0,0
-126,99,0,0,0,0,0,0,0,0,0,-1,1098,925,0,0
-119,99,0,0,0,0,0,0,0,0,0,-1,1105,925,0,0
-112,99,0,0,0,0,0,0,0,0,0,-1,1112,925,0,0
-105,99,0,0,0,0,0,0,0,0,0,-1,1119,925,0,0
-98,99,0,0,0,0,0,0,0,0,0,-1,1126,925,0,0
-91,99,0,0,0,0,0,0,0,0,0,-1,1133,925,0,0
-84,99,0,0,0,0,0,0,0,0,0,-1,1140,925,0,0
-77,99,0,0,0,0,0,0,0,0,0,-1,1147,925,0,0
-70,99,0,0,0,0,0,0,0,0,0,-1,1154,925,0,0
-63,99,0,0,0,0,0,0,0,0,0,-1,1161,925,0,0
-56,99,0,0,0,0,0,0,0,0,0,-1,1168,925,0,0
-49,99,0,0,0,0,0,0,0,0,0,-1,1175,925,0,0
-42,99,0,0,0,0,0,0,0,0,0,-1,1182,925,0,0
-35,99,0,0,0,0,0,0,0,0,0,-1,1189,925,0,0
-28,99,0,0,0,0,0,0,0,0,0,-1,1196,925,0,0
-21,99,0,0,0,0,0,0,0,0,0,-1,1203,925,0,0
-14,99,0,0,0,0,0,0,0,0,0,-1,1210,925,0,0
-7,99,0,0,0,0,0,0,0,0,0,-1,1217,925,0,0
0,99,0,0,0,0,0,0,0,0,0,-1,1224,925,0,0
7,99,0,0,0,0,0,0,0,0,0,-1,1231,925,0,0
14,99,0,0,0,0,0,0,0,0,0,-1,1238,925,0,0
21,99,0,0,0,0,0,0,0,0,0,-1,1245,925,0,0
28,99,0,0,0,0,0,0,0,0,0,-1,1252,925,0,0
35,99,0,0,0,0,0,0,0,0,0,-1,1259,925,0,0
42,99,0,0,0,0,0,0,0,0,0,-1,1266,925,0,0
49,99,0,0,0,0,0,0,0,0,0,-1,1273,925,0,0
56,99,0,0,0,0,0,0,0,0,0,-1,1280,925,0,0
63,99,0,0,0,0,0,0,0,0,0,-1,1287,925,0,0
70,99,0,0,0,0,0,0,0,0,0,-1,1294,925,0,0
77,99,0,0,0,0,0,0,0,0,0,-1,1301,925,0,0
84,99,0,0,0,0,0,0,0,0,0,-1,1308,925,0,0
91,99,0,0,0,0,0,0,0,0,0,-1,1315,925,0,0
98,99,0,0,0,0,0,0,0,0,0,-1,1322,925,0,0
105,99,0,0,0,0,0,0,0,0,0,-1,1329,925,0,0
112,99,0,0,0,0,0,0,0,0,0,-1,1336,925,0,0
119,99,0,0,0,0,0,0,0,0,0,-1,1343,925,0,0
126,99,0,0,0,0,0,0,0,0,0,-1,1350,925,0,0
133,99,0,0,0,0,0,0,0,0,0,-1,1357,925,0,0
140,99,0,0,0,0,0,0,0,0,0,-1,1364,925,0,0
147,99,0,0,0,0,0,0,0,0,0,-1,1371,925,0,0
154,99,0,0,0,0,0,0,0,0,0,-1,1378,925,0,0
161,99,0,0,0,0,0,0,0,0,0,-1,1385,925,0,0
168,99,0,0,0,0,0,0,0,0,0,-1,1392,925,0,0
175,99,0,0,0,0,0,0,0,0,0,-1,1399,925,0,0
182,99,0,0,0,0,0,0,0,0,0,-1,1406,925,0,0
189,99,0,0,0,0,0,0,0,0,0,-1,1413,925,0,0
196,99,0,0,0,0,0,0,0,0,0,-1,1420,925,0,0
203,99,0,0,0,0,0,0,0,0,0,-1,1427,925,0,0
210,99,0,0,0,0,0,0,0,0,0,-1,1434,925,0,0
217,99,0,0,0,0,0,0,0,0,0,-1,1441,925,0,0
224,99,0,0,0,0,0,0,0,0,0,-1,1448,925,0,0
231,99,0,0,0,0,0,0,0,0,0,-1,1455,925,0,0
238,99,0,0,0,0,0,0,0,0,0,-1,1462,925,0,0
245,99,0,0,0,0,0,0,0,0,0,-1,1469,925,0,0
252,99,0,0,0,0,0,0,0,0,0,-1,1476,925,0,0
259,99,0,0,0,0,0,0,0,0,0,-1,1483,925,0,0
266,99,0,0,0,0,0,0,0,0,0,-1,1490,925,0,0
273,99,0,0,0,0,0,0,0,0,0,-1,1497,925,0,0
280,99,0,0,0,0,0,0,0,0,0,-1,1504,925,0,0
287,99,0,0,0,0,0,0,0,0,0,-1,1511,925,0,0
294,99,0,0,0,0,0,0,0,0,0,-1,1518,925,0,0
301,99,0,0,0,0,0,0,0,0,0,-1,1525,925,0,0
308,99,0,0,0,0,0,0,0,0,0,-1,1532,925,0,0
315,99,0,0,0,0,0,0,0,0,0,-1,1539,925,0,0
322,99,0,0,0,0,0,0,0,0,0,-1,1546,925,0,0
329,99,0,0,0,0,0,0,0,0,0,-1,1553,925,0,0
336,99,0,0,0,0,0,0,0,0,0,-1,1560,925,0,0
343,99,0,0,0,0,0,0,0,0,0,-1,1567,925,0,0
350,99,0,0,0,0,0,0,0,0,0,-1,1574,925,0,0
357,99,0,0,0,0,0,0,0,0,0,-1,1581,925,0,0
364,99,0,0,0,0,0,0,0,0,0,-1,1588,925,0,0
371,99,0,0,0,0,0,0,0,0,0,-1,1595,925,0,0
378,99,0,0,0,0,0,0,0,0,0,-1,1602,925,0,0
385,99,0,0,0,0,0,0,0,0,0,-1,1609,925,0,0
392,99,0,0,0,0,0,0,0,0,0,-1,1616,925,0,0
399,99,0,0,0,0,0,0,0,0,0,-1,1623,925,0,0
406,99,0,0,0,0,0,0,0,0,0,-1,1630,925,0,0
413,99,0,0,0,0,0,0,0,0,0,-1,1637,925,0,0
420,99,0,0,0,0,0,0,0,0,0,-1,1644,925,0,0
427,99,0,0,0,0,0,0,0,0,0,-1,1651,925,0,0
434,99,0,0,0,0,0,0,0,0,0,-1,1658,925,0,0
441,99,0,0,0,0,0,0,0,0,0,-1,1665,925,0,0
448,99,0,0,0,0,0,0,0,0,0,-1,1672,925,0,0
455,99,0,0,0,0,0,0,0,0,0,-1,1679,925,0,0
462,99,0,0,0,0,0,0,0,0,0,-1,1686,925,0,0
469,99,0,0,0,0,0,0,0,0,0,-1,1693,925,0,0
476,99,0,0,0,0,0,0,0,0,0,-1,1700,925,0,0
483,99,0,0,0,0,0,0,0,0,0,-1,1707,925,0,0
490,99,0,0,0,0,0,0,0,0,0,-1,1714,925,0,0
497,99,0,0,0,0,0,0,0,0,0,-1,1721,925,0,0
504,99,0,0,0,0,0,0,0,0,0,-1,1728,925,0,0
511,99,0,0,0,0,0,0,0,0,0,-1,1735,925,0,0
518,99,0,0,0,0,0,0,0,0,0,-1,1742,925,0,0
525,99,0,0,0,0,0,0,0,0,0,-1,1749,925,0,0
532,99,0,0,0,0,0,0,0,0,0,-1,1756,925,0,0
539,99,0,0,0,0,0,0,0,0,0,-1,1763,925,0,0
546,99,0,0,0,0,0,0,0,0,0,-1,1770,925,0,0
553,99,0,0,0,0,0,0,0,0,0,-1,1777,925,0,0
560,99,0,0,0,0,0,0,0,0,0,-1,1784,925,0,0
567,99,0,0,0,0,0,0,0,0,0,-1,1791,925,0,0
574,99,0,0,0,0,0,0,0,0,0,-1,1798,925,0,0
581,99,0,0,0,0,0,0,0,0,0,-1,1805,925,0,0
588,99,0,0,0,0,0,0,0,0,0,-1,1812,925,0,0
595,99,0,0,0,0,0,0,0,0,0,-1,1819,925,0,0
602,99,0,0,0,0,0,0,0,0,0,-1,1826,925,0,0
609,99,0,0,0,0,0,0,0,0,0,-1,1833,925,0,0
616,99,0,0,0,0,0,0,0,0,0,-1,1840,925,0,0
623,99,0,0,0,0,0,0,0,0,0,-1,1847,925,0,0
630,99,0,0,0,0,0,0,0,0,0,-1,1854,925,0,0
637,99,30.5182,3.02087,0.00345599,0.00389381,-0.00563987,0.00931902,-0.00196921,-0.804796,0.00696254,0.0425302,1861,925,30.5182,-3.02089
644,99,30.6583,2.89429,0.00234036,0.00333433,-0.00452682,0.00739137,-0.00171668,-0.840072,0.0055884,0.0401603,1868,925,30.6583,-2.89428
651,99,30.6094,2.71124,0.00122552,0.00297415,-0.0032597,0.00547475,-0.00127508,-0.916424,0.00414083,0.0408152,1875,925,30.6094,-2.71127
658,99,30.6852,2.38959,0.000123411,0.00275632,-0.00199006,0.00382594,-0.000946214,-1.07761,0.00291763,0.0411887,1882,925,30.6852,-2.38959
665,99,30.4424,2.69489,-0.000712974,0.00253067,-0.000836295,0.0027336,-0.000915897,-1.33275,0.00219242,0.0397082,1889,925,30.4424,-2.69488
672,99,30.4832,2.91614,-0.0012208,0.00225462,7.6582e-05,0.0022563,-0.00122249,1.54878,0.00203783,0.0410585,1896,925,30.4832,-2.91614
679,99,30.5618,2.77997,-0.00144543,0.00190966,0.000708959,0.00205332,-0.00158908,1.37087,0.00210863,0.0389181,1903,925,30.5618,-2.77995
686,99,30.5435,2.73932,-0.00152448,0.00158882,0.00102622,0.00189664,-0.00183231,1.27937,0.00215302,0.0319982,1910,925,30.5435,-2.73934
693,99,30.4747,2.9007,-0.00162392,0.00134838,0.00125169,0.00180526,-0.0020808,1.22081,0.0022455,0.0311033,1917,925,30.4747,-2.90068
700,99,30.489,2.89301,0,0,0,0,0,0,0,-1,1924,925,30.489,-2.89301
707,99,28.0022,3.44427,0,0,0,0,0,0,0,-1,1931,925,28.0022,-3.44425
714,99,28.0258,3.72003,-0.00121396,0.00103254,0.00115556,0.00152081,-0.00170224,1.17101,0.00186181,0.0242383,1938,925,28.0258,-3.72005
721,99,27.9828,3.94855,-0.000737383,0.000946551,0.000981904,0.00139805,-0.00118888,1.13981,0.00149519,0.0220433,1945,925,27.9828,-3.94855
728,99,28.0249,4.2265,-0.000328569,0.00109904,0.00103379,0.00164152,-0.000871047,1.08755,0.00147319,0.0165695,1952,925,28.025,-4.2265
735,99,27.9972,4.47382,0.000254145,0.00146054,0.00137967,0.00236311,-0.000648427,0.991478,0.00183024,0.0146684,1959,925,27.9972,-4.47382
742,99,27.9625,4.71375,0.000822862,0.00189472,0.00178379,0.00322135,-0.000503763,0.931331,0.00233368,0.013116,1966,925,27.9625,-4.71377
749,99,27.9368,4.95972,0.00121748,0.00265469,0.00186417,0.00393397,-6.17984e-05,0.969362,0.00264349,0.0110586,1973,925,27.9368,-4.95971
756,99,27.9185,5.16589,0.00145174,0.00309345,0.00208744,0.00451563,2.95588e-05,0.972728,0.00300061,0.011943,1980,925,27.9185,-5.16588
763,99,27.9083,5.37842,0.00136373,0.00368526,0.00259508,0.00536735,-0.00031836,0.995699,0.00368893,0.0146878,1987,925,27.9084,-5.37839
770,99,27.9321,5.72424,0.000884894,0.0040663,0.00276167,0.00566263,-0.000711433,1.04669,0.0040332,0.027217,1994,925,27.9322,-5.72422
777,99,28.4166,6.38922,-0.00011381,0.00416991,0.00223192,0.00512143,-0.00106533,1.1678,0.00381925,0.0399844,2001,925,28.4166,-6.38925
784,99,28.8651,7.16858,-0.00193683,0.00378499,0.000542118,0.0038359,-0.00198774,1.47716,0.00341825,0.0444149,2008,925,28.8652,-7.1686
791,99,29.0084,7.51025,-0.00489789,0.00277939,-0.00308994,0.00386852,-0.00598701,-1.23192,0.00573374,0.0463515,2015,925,29.0084,-7.51025
798,99,29.1287,7.51709,-0.00953363,0.0010059,-0.00966498,0.00674441,-0.0152721,-1.03499,0.0130252,0.0477157,2022,925,29.1288,-7.51712
805,99,0,0,0,0,0,0,0,0,0,-1,2029,925,0,0
812,99,0,0,0,0,0,0,0,0,0,-1,2036,925,0,0
-700,92,0,0,0,0,0,0,0,0,0,-1,524,932,0,0
-693,92,0,0,0,0,0,0,0,0,0,-1,531,932,0,0
-686,92,-21.6749,4.12952,0,0,0,0,0,0,0,-1,538,932,-21.6749,-4.12953
-679,92,-20.5429,4.15704,0,0,0,0,0,0,0,-1,545,932,-20.5429,-4.15706
-672,92,-19.4969,4.1145,0.117312,-0.02759,0.0466157,0.131013,-0.0412911,0.285864,0.103878,0.0460575,552,932,-19.4969,-4.11448
-665,92,-18.5948,4.05994,0.0855932,-0.0219915,0.0361636,0.0966192,-0.0330175,0.29594,0.0777905,0.0469804,559,932,-18.5948,-4.05992
-658,92,-18.024,3.89911,0.0605046,-0.0165743,0.0278448,0.0695112,-0.0255808,0.312835,0.0568207,0.0448571,566,932,-18.024,-3.89908
-651,92,-17.7357,3.74951,0.0411672,-0.0117946,0.021263,0.0486473,-0.0192748,0.338271,0.0404186,0.0479386,573,932,-17.7356,-3.74951
-644,92,-19.21,2.55206,0.026746,-0.00787378,0.0161023,0.0330775,-0.0142053,0.374636,0.0280142,0.042492,580,932,-19.21,-2.55209
-637,92,-19.7722,2.97314,0.0163617,-0.00487971,0.0120465,0.0218008,-0.0103188,0.424108,0.0189351,0.0264397,587,932,-19.7722,-2.97315
-630,92,-19.8333,2.78717,0.00712187,-0.00229225,0.00856267,0.012186,-0.00735636,0.534084,0.011397,0.0125852,594,932,-19.8333,-2.78718
-623,92,-19.896,2.58453,0.000709967,-0.00110328,0.00550045,0.00537801,-0.00577132,0.703719,0.00643841,0.00873662,601,932,-19.896,-2.58454
-616,92,-19.8928,2.37665,-0.00277865,-0.000127699,0.00335386,0.0021531,-0.00505945,0.973583,0.00427538,0.00812726,608,932,-19.8928,-2.37667
-609,92,-19.9066,2.17401,-0.00466005,0.000843519,0.00197981,0.00148171,-0.00529825,1.25896,0.00411595,0.00800227,615,932,-19.9065,-2.17401
-602,92,-19.8885,1.9809,-0.00533631,0.00125317,0.00116861,0.00145428,-0.00553742,1.40037,0.00425994,0.00883733,622,932,-19.8885,-1.98092
-595,92,-19.8193,1.74902,-0.00607941,0.00120258,0.000345386,0.00121893,-0.00609575,1.52351,0.0045252,0.0166517,629,932,-19.8193,-1.74905
-588,92,-19.817,1.5553,-0.00573786,0.00130336,-0.000287499,0.00131508,-0.00574958,-1.53006,0.00433837,0.0181689,636,932,-19.817,-1.5553
-581,92,-19.8223,1.32898,-0.00571668,0.00143929,-0.000669398,0.00150137,-0.00577876,-1.47832,0.00443843,0.0166996,643,932,-19.8223,-1.32899
-574,92,-20.2283,1.15521,-0.00560117,0.00155402,-0.000813545,0.00164535,-0.0056925,-1.459,0.00444612,0.0313091,650,932,-20.2283,-1.15519
-567,92,-20.915,0.982483,0,0,0,0,0,0,0,-1,657,932,-20.915,-0.982478
-560,92,-21.3034,0.875,-0.00474788,0.00223351,-0.000977373,0.00236775,-0.00488213,-1.43429,0.00426881,0.036744,664,932,-21.3034,-0.874976
-553,92,-21.434,0.7854,-0.00386641,0.00266262,-0.000863514,0.0027749,-0.00397869,-1.4415,0.00391978,0.0398607,671,932,-21.434,-0.78543
-546,92,-21.4971,0.866638,-0.00262825,0.00305037,-0.000598239,0.00311271,-0.00269059,-1.46697,0.00335349,0.0392243,678,932,-21.4971,-0.866614
-539,92,-21.4046,1.03229,-0.0010279,0.00331122,-0.000218864,0.00332223,-0.00103891,-1.52053,0.00263043,0.0378876,685,932,-21.4046,-1.03229
-532,92,-21.4421,1.18463,0.000891049,0.00331452,0.000209473,0.00333249,0.000873077,1.48521,0.00199536,0.0455165,692,932,-21.4421,-1.1846
-525,92,-21.4039,1.15302,0.00254527,0.00291452,0.000439221,0.00320634,0.00225345,0.98436,0.00190127,0.0433198,699,932,-21.404,-1.15301
-518,92,-21.2614,1.11206,0.00233468,0.00207755,0.000528742,0.00275026,0.00166197,0.66614,0.00159934,0.0417888,706,932,-21.2614,-1.11207
-511,92,0,0,0,0,0,0,0,0,0,-1,713,932,0,0
-504,92,0,0,0,0,0,0,0,0,0,-1,720,932,0,0
-497,92,0,0,0,0,0,0,0,0,0,-1,727,932,0,0
-490,92,0,0,0,0,0,0,0,0,0,-1,734,932,0,0
-483,92,0,0,0,0,0,0,0,0,0,-1,741,932,0,0
-476,92,0,0,0,0,0,0,0,0,0,-1,748,932,0,0
-469,92,0,0,0,0,0,0,0,0,0,-1,755,932,0,0
-462,92,0,0,0,0,0,0,0,0,0,-1,762,932,0,0
-455,92,0,0,0,0,0,0,0,0,0,-1,769,932,0,0
-448,92,0,0,0,0,0,0,0,0,0,-1,776,932,0,0
-441,92,0,0,0,0,0,0,0,0,0,-1,783,932,0,0
-434,92,0,0,0,0,0,0,0,0,0,-1,790,932,0,0
-427,92,0,0,0,0,0,0,0,0,0,-1,797,932,0,0
-420,92,0,0,0,0,0,0,0,0,0,-1,804,932,0,0
-413,92,0,0,0,0,0,0,0,0,0,-1,811,932,0,0
-406,92,0,0,0,0,0,0,0,0,0,-1,818,932,0,0
-399,92,0,0,0,0,0,0,0,0,0,-1,825,932,0,0
-392,92,0,0,0,0,0,0,0,0,0,-1,832,932,0,0
-385,92,0,0,0,0,0,0,0,0,0,-1,839,932,0,0
-378,92,0,0,0,0,0,0,0,0,0,-1,846,932,0,0
-371,92,0,0,0,0,0,0,0,0,0,-1,853,932,0,0
-364,92,0,0,0,0,0,0,0,0,0,-1,860,932,0,0
-357,92,0,0,0,0,0,0,0,0,0,-1,867,932,0,0
-350,92,0,0,0,0,0,0,0,0,0,-1,874,932,0,0
-343,92,0,0,0,0,0,0,0,0,0,-1,881,932,0,0
-336,92,0,0,0,0,0,0,0,0,0,-1,888,932,0,0
-329,92,0,0,0,0,0,0,0,0,0,-1,895,932,0,0
-322,92,0,0,0,0,0,0,0,0,0,-1,902,932,0,0
-315,92,0,0,0,0,0,0,0,0,0,-1,909,932,0,0
-308,92,0,0,0,0,0,0,0,0,0,-1,916,932,0,0
-301,92,0,0,0,0,0,0,0,0,0,-1,923,932,0,0
-294,92,0,0,0,0,0,0,0,0,0,-1,930,932,0,0
-287,92,0,0,0,0,0,0,0,0,0,-1,937,932,0,0
-280,92,0,0,0,0,0,0,0,0,0,-1,944,932,0,0
-273,92,0,0,0,0,0,0,0,0,0,-1,951,932,0,0
-266,92,0,0,0,0,0,0,0,0,0,-1,958,932,0,0
-259,92,0,0,0,0,0,0,0,0,0,-1,965,932,0,0
-252,92,0,0,0,0,0,0,0,0,0,-1,972,932,0,0
-245,92,0,0,0,0,0,0,0,0,0,-1,979,932,0,0
-238,92,0,0,0,0,0,0,0,0,0,-1,986,932,0,0
-231,92,0,0,0,0,0,0,0,0,0,-1,993,932,0,0
-224,92,0,0,0,0,0,0,0,0,0,-1,1000,932,0,0
-217,92,0,0,0,0,0,0,0,0,0,-1,1007,932,0,0
-210,92,0,0,0,0,0,0,0,0,0,-1,1014,932,0,0
-203,92,0,0,0,0,0,0,0,0,0,-1,1021,932,0,0
-196,92,0,0,0,0,0,0,0,0,0,-1,1028,932,0,0
-189,92,0,0,0,0,0,0,0,0,0,-1,1035,932,0,0
-182,92,0,0,0,0,0,0,0,0,0,-1,1042,932,0,0
-175,92,0,0,0,0,0,0,0,0,0,-1,1049,932,0,0
-168,92,0,0,0,0,0,0,0,0,0,-1,1056,932,0,0
-161,92,0,0,0,0,0,0,0,0,0,-1,1063,932,0,0
-154,92,0,0,0,0,0,0,0,0,0,-1,1070,932,0,0
-147,92,0,0,0,0,0,0,0,0,0,-1,1077,932,0,0
-140,92,0,0,0,0,0,0,0,0,0,-1,1084,932,0,0
-133,92,0,0,0,0,0,0,0,0,0,-1,1091,932,0,0
-126,92,0,0,0,0,0,0,0,0,0,-1,1098,932,0,0
-119,92,0,0,0,0,0,0,0,0,0,-1,1105,932,0,0
-112,92,0,0,0,0,0,0,0,0,0,-1,1112,932,0,0
-105,92,0,0,0,0,0,0,0,0,0,-1,1119,932,0,0
-98,92,0,0,0,0,0,0,0,0,0,-1,1126,932,0,0
-91,92,0,0,0,0,0,0,0,0,0,-1,1133,932,0,0
-84,92,0,0,0,0,0,0,0,0,0,-1,1140,932,0,0
-77,92,0,0,0,0,0,0,0,0,0,-1,1147,932,0,0
-70,92,0,0,0,0,0,0,0,0,0,-1,1154,932,0,0
-63,92,0,0,0,0,0,0,0,0,0,-1,1161,932,0,0
-56,92,0,0,0,0,0,0,0,0,0,-1,1168,932,0,0
-49,92,0,0,0,0,0,0,0,0,0,-1,1175,932,0,0
-42,92,0,0,0,0,0,0,0,0,0,-1,1182,932,0,0
-35,92,0,0,0,0,0,0,0,0,0,-1,1189,932,0,0
-28,92,0,0,0,0,0,0,0,0,0,-1,1196,932,0,0
-21,92,0,0,0,0,0,0,0,0,0,-1,1203,932,0,0
-14,92,0,0,0,0,0,0,0,0,0,-1,1210,932,0,0
-7,92,0,0,0,0,0,0,0,0,0,-1,1217,932,0,0
0,92,0,0,0,0,0,0,0,0,0,-1,1224,932,0,0
7,92,0,0,0,0,0,0,0,0,0,-1,1231,932,0,0
14,92,0,0,0,0,0,0,0,0,0,-1,1238,932,0,0
21,92,0,0,0,0,0,0,0,0,0,-1,1245,932,0,0
28,92,0,0,0,0,0,0,0,0,0,-1,1252,932,0,0
35,92,0,0,0,0,0,0,0,0,0,-1,1259,932,0,0
42,92,0,0,0,0,0,0,0,0,0,-1,1266,932,0,0
49,92,0,0,0,0,0,0,0,0,0,-1,1273,932,0,0
56,92,0,0,0,0,0,0,0,0,0,-1,1280,932,0,0
63,92,0,0,0,0,0,0,0,0,0,-1,1287,932,0,0
70,92,0,0,0,0,0,0,0,0,0,-1,1294,932,0,0
77,92,0,0,0,0,0,0,0,0,0,-1,1301,932,0,0
84,92,0,0,0,0,0,0,0,0,0,-1,1308,932,0,0
91,92,0,0,0,0,0,0,0,0,0,-1,1315,932,0,0
98,92,0,0,0,0,0,0,0,0,0,-1,1322,932,0,0
105,92,0,0,0,0,0,0,0,0,0,-1,1329,932,0,0
112,92,0,0,0,0,0,0,0,0,0,-1,1336,932,0,0
119,92,0,0,0,0,0,0,0,0,0,-1,1343,932,0,0
126,92,0,0,0,0,0,0,0,0,0,-1,1350,932,0,0
133,92,0,0,0,0,0,0,0,0,0,-1,1357,932,0,0
140,92,0,0,0,0,0,0,0,0,0,-1,1364,932,0,0
147,92,0,0,0,0,0,0,0,0,0,-1,1371,932,0,0
154,92,0,0,0,0,0,0,0,0,0,-1,1378,932,0,0
161,92,0,0,0,0,0,0,0,0,0,-1,1385,932,0,0
168,92,0,0,0,0,0,0,0,0,0,-1,1392,932,0,0
175,92,0,0,0,0,0,0,0,0,0,-1,1399,932,0,0
182,92,0,0,0,0,0,0,0,0,0,-1,1406,932,0,0
189,92,0,0,0,0,0,0,0,0,0,-1,1413,932,0,0
196,92,0,0,0,0,0,0,0,0,0,-1,1420,932,0,0
203,92,0,0,0,0,0,0,0,0,0,-1,1427,932,0,0
210,92,0,0,0,0,0,0,0,0,0,-1,1434,932,0,0
217,92,0,0,0,0,0,0,0,0,0,-1,1441,932,0,0
224,92,0,0,0,0,0,0,0,0,0,-1,1448,932,0,0
231,92,0,0,0,0,0,0,0,0,0,-1,1455,932,0,0
238,92,0,0,0,0,0,0,0,0,0,-1,1462,932,0,0
245,92,0,0,0,0,0,0,0,0,0,-1,1469,932,0,0
252,92,0,0,0,0,0,0,0,0,0,-1,1476,932,0,0
259,92,0,0,0,0,0,0,0,0,0,-1,1483,932,0,0
266,92,0,0,0,0,0,0,0,0,0,-1,1490,932,0,0
273,92,0,0,0,0,0,0,0,0,0,-1,1497,932,0,0
280,92,0,0,0,0,0,0,0,0,0,-1,1504,932,0,0
287,92,0,0,0,0,0,0,0,0,0,-1,1511,932,0,0
294,92,0,0,0,0,0,0,0,0,0,-1,1518,932,0,0
301,92,0,0,0,0,0,0,0,0,0,-1,1525,932,0,0
308,92,0,0,0,0,0,0,0,0,0,-1,1532,932,0,0
315,92,0,0,0,0,0,0,0,0,0,-1,1539,932,0,0
322,92,0,0,0,0,0,0,0,0,0,-1,1546,932,0,0
329,92,0,0,0,0,0,0,0,0,0,-1,1553,932,0,0
336,92,0,0,0,0,0,0,0,0,0,-1,1560,932,0,0
343,92,0,0,0,0,0,0,0,0,0,-1,1567,932,0,0
350,92,0,0,0,0,0,0,0,0,0,-1,1574,932,0,0
357,92,0,0,0,0,0,0,0,0,0,-1,1581,932,0,0
364,92,0,0,0,0,0,0,0,0,0,-1,1588,932,0,0
371,92,0,0,0,0,0,0,0,0,0,-1,1595,932,0,0
378,92,0,0,0,0,0,0,0,0,0,-1,1602,932,0,0
385,92,0,0,0,0,0,0,0,0,0,-1,1609,932,0,0
392,92,0,0,0,0,0,0,0,0,0,-1,1616,932,0,0
399,92,0,0,0,0,0,0,0,0,0,-1,1623,932,0,0
406,92,0,0,0,0,0,0,0,0,0,-1,1630,932,0,0
413,92,0,0,0,0,0,0,0,0,0,-1,1637,932,0,0
420,92,0,0,0,0,0,0,0,0,0,-1,1644,932,0,0
427,92,0,0,0,0,0,0,0,0,0,-1,1651,932,0,0
434,92,0,0,0,0,0,0,0,0,0,-1,1658,932,0,0
441,92,0,0,0,0,0,0,0,0,0,-1,1665,932,0,0
448,92,0,0,0,0,0,0,0,0,0,-1,1672,932,0,0
455,92,0,0,0,0,0,0,0,0,0,-1,1679,932,0,0
462,92,0,0,0,0,0,0,0,0,0,-1,1686,932,0,0
469,92,0,0,0,0,0,0,0,0,0,-1,1693,932,0,0
476,92,0,0,0,0,0,0,0,0,0,-1,1700,932,0,0
483,92,0,0,0,0,0,0,0,0,0,-1,1707,932,0,0
490,92,0,0,0,0,0,0,0,0,0,-1,1714,932,0,0
497,92,0,0,0,0,0,0,0,0,0,-1,1721,932,0,0
504,92,0,0,0,0,0,0,0,0,0,-1,1728,932,0,0
511,92,0,0,0,0,0,0,0,0,0,-1,1735,932,0,0
518,92,0,0,0,0,0,0,0,0,0,-1,1742,932,0,0
525,92,0,0,0,0,0,0,0,0,0,-1,1749,932,0,0
532,92,0,0,0,0,0,0,0,0,0,-1,1756,932,0,0
539,92,0,0,0,0,0,0,0,0,0,-1,1763,932,0,0
546,92,0,0,0,0,0,0,0,0,0,-1,1770,932,0,0
553,92,0,0,0,0,0,0,0,0,0,-1,1777,932,0,0
560,92,0,0,0,0,0,0,0,0,0,-1,1784,932,0,0
567,92,0,0,0,0,0,0,0,0,0,-1,1791,932,0,0
574,92,0,0,0,0,0,0,0,0,0,-1,1798,932,0,0
581,92,0,0,0,0,0,0,0,0,0,-1,1805,932,0,0
588,92,0,0,0,0,0,0,0,0,0,-1,1812,932,0,0
595,92,0,0,0,0,0,0,0,0,0,-1,1819,932,0,0
602,92,0,0,0,0,0,0,0,0,0,-1,1826,932,0,0
609,92,0,0,0,0,0,0,0,0,0,-1,1833,932,0,0
616,92,0,0,0,0,0,0,0,0,0,-1,1840,932,0,0
623,92,0,0,0,0,0,0,0,0,0,-1,1847,932,0,0
630,92,0,0,0,0,0,0,0,0,0,-1,1854,932,0,0
637,92,30.4476,2.77014,0.00410972,0.00293276,-0.00548541,0.00903813,-0.00199565,-0.731962,0.00678912,0.0434007,1861,932,30.4477,-2.77011
644,92,30.5608,2.75397,0.00272254,0.00253596,-0.00433844,0.00696869,-0.00171019,-0.774648,0.00530849,0.0409029,1868,932,30.5607,-2.75398
651,92,30.5924,2.69446,0.00145229,0.00230846,-0.0030626,0.00497275,-0.00121201,-0.854837,0.00378443,0.0412509,1875,932,30.5924,-2.69445
658,92,30.6768,2.51215,0.000236448,0.00225105,-0.00177322,0.0032831,-0.000795602,-1.0437,0.00249655,0.0435824,1882,932,30.6767,-2.51217
665,92,30.5825,2.52734,-0.000730373,0.00217502,-0.000550963,0.00227599,-0.000831345,-1.38954,0.00185753,0.0433878,1889,932,30.5826,-2.52736
672,92,30.5441,2.7276,-0.00134811,0.00201211,0.000438843,0.00206848,-0.00140448,1.44305,0.00201729,0.0434686,1896,932,30.544,-2.72763
679,92,30.6858,2.78668,-0.00164567,0.00175327,0.00111894,0.00208855,-0.00198095,1.27967,0.0023498,0.0403896,1903,932,30.6857,-2.78671
686,92,30.5626,2.71722,-0.00173432,0.00148183,0.00145307,0.00204109,-0.00229357,1.20339,0.00250403,0.0314833,1910,932,30.5626,-2.71725
693,92,30.4789,2.91882,-0.00182141,0.00126704,0.0016696,0.00199706,-0.00255143,1.1586,0.00263257,0.0286847,1917,932,30.4789,-2.91882
700,92,30.4696,3.07758,0,0,0,0,0,0,0,-1,1924,932,30.4697,-3.07755
707,92,29.6825,3.09662,0,0,0,0,0,0,0,-1,1931,932,29.6825,-3.09659
714,92,28.3246,3.69281,0,0,0,0,0,0,0,-1,1938,932,28.3245,-3.69281
721,92,28.2813,4.02197,-0.00113631,0.00106343,0.00125682,0.00163368,-0.00170656,1.14485,0.00192864,0.0252701,1945,932,28.2813,-4.022
728,92,28.2297,4.30103,-0.0007139,0.0012869,0.00126698,0.00190082,-0.00132782,1.11958,0.00187382,0.0176758,1952,932,28.2298,-4.30104
735,92,28.2207,4.5069,-0.00010133,0.00179414,0.00153607,0.00265132,-0.000958509,1.06181,0.00215917,0.0158096,1959,932,28.2207,-4.50692
742,92,28.2391,4.69244,0.000513253,0.00242912,0.00183506,0.00354123,-0.000598857,1.02595,0.00258368,0.0183425,1966,932,28.2392,-4.69246
749,92,28.2009,4.92865,0.000983154,0.00337812,0.00175908,0.00430863,5.26486e-05,1.08424,0.00285503,0.0157998,1973,932,28.2009,-4.92867
756,92,28.1686,5.15308,0.00140094,0.00412892,0.00179086,0.00501607,0.000513791,1.11085,0.00318662,0.014161,1980,932,28.1686,-5.15306
763,92,28.1744,5.38055,0.0016601,0.00519094,0.00212611,0.00618904,0.000661999,1.13189,0.00392402,0.0153494,1987,932,28.1744,-5.38054
770,92,28.1714,5.68048,0.00164793,0.0060938,0.00214115,0.00695728,0.00078445,1.18747,0.00440007,0.0242479,1994,932,28.1714,-5.68048
777,92,28.2656,6.15057,0.00130829,0.00674183,0.00142276,0.00709183,0.00095829,1.32959,0.00444304,0.0434604,2001,932,28.2656,-6.15058
784,92,28.5557,7.17609,0.000390512,0.00690547,-0.000472952,0.00693963,0.000356358,-1.49871,0.00451233,0.0447138,2008,932,28.5557,-7.17607
791,92,28.5977,7.63727,-0.00137191,0.00635461,-0.00428159,0.00825822,-0.00327552,-1.15244,0.00686302,0.0438135,2015,932,28.5976,-7.63729
798,92,28.8328,7.65454,-0.00446825,0.00482114,-0.0109632,0.012083,-0.0117301,-0.985767,0.013749,0.0430038,2022,932,28.8327,-7.65457
805,92,0,0,0,0,0,0,0,0,0,-1,2029,932,0,0
812,92,0,0,0,0,0,0,0,0,0,-1,2036,932,0,0
-700,85,0,0,0,0,0,0,0,0,0,-1,524,939,0,0
-693,85,0,0,0,0,0,0,0,0,0,-1,531,939,0,0
-686,85,-21.709,4.89703,0.210421,-0.0352309,0.060058,0.224318,-0.0491279,0.227391,0.168328,0.0457087,538,939,-21.709,-4.89706
-679,85,-19.4362,4.81433,0.163495,-0.0356231,0.0475814,0.174281,-0.0464089,0.222915,0.134356,0.0444989,545,939,-19.4361,-4.81435
-672,85,-18.6873,4.94812,0.12421,-0.03216,0.0374038,0.132697,-0.0406465,0.223109,0.104678,0.0465966,552,939,-18.6873,-4.94809
-665,85,-18.1802,4.99304,0.0915758,-0.0269713,0.0289896,0.0982852,-0.0336807,0.227437,0.0791754,0.0453557,559,939,-18.1802,-4.99306
-658,85,-17.6881,4.58307,0.0650719,-0.021264,0.0221298,0.0704137,-0.0266059,0.236856,0.0578864,0.0471611,566,939,-17.6881,-4.58304
-651,85,-19.2962,2.88788,0.0442183,-0.0157969,0.0166697,0.0485375,-0.0201161,0.253534,0.0407537,0.0423738,573,939,-19.2962,-2.88789
-644,85,-19.7692,2.97235,0.0284786,-0.011039,0.0124327,0.0320646,-0.0146251,0.280815,0.027576,0.0342435,580,939,-19.7693,-2.97233
-637,85,-20.0148,2.92664,0.0170865,-0.00775508,0.00950364,0.0203053,-0.0109738,0.32656,0.0183249,0.0176255,587,939,-20.0148,-2.92663
-630,85,-20.0706,2.7276,0.00694037,-0.00415311,0.00633652,0.0098149,-0.00702764,0.425881,0.00976833,0.0107701,594,939,-20.0706,-2.72759
-623,85,-20.1125,2.52924,-6.73558e-05,-0.00216399,0.00364709,0.00267909,-0.00491044,0.645451,0.0044445,0.00967098,601,939,-20.1125,-2.52922
-616,85,-20.1036,2.35059,-0.00362794,-0.000547333,0.00210157,0.000517959,-0.00469324,1.10164,0.00331499,0.00921215,608,939,-20.1036,-2.35057
-609,85,-20.1118,2.14825,-0.00547206,0.000712544,0.00109353,0.0009002,-0.00565972,1.40084,0.00410624,0.0107828,615,939,-20.1118,-2.14823
-602,85,-20.1145,1.95825,-0.00611062,0.0012046,0.00044898,0.00123205,-0.00613808,1.50973,0.00455858,0.0147845,622,939,-20.1145,-1.95825
-595,85,-20.0597,1.77649,-0.00668598,0.00113616,-0.000250995,0.00114421,-0.00669403,-1.53875,0.00488893,0.01708,629,939,-20.0597,-1.77651
-588,85,-20.0269,1.56934,-0.0064184,0.00129631,-0.00082888,0.00138436,-0.00650645,-1.46496,0.00486519,0.0161577,636,939,-20.0269,-1.56935
-581,85,-20.0389,1.38477,-0.00640933,0.00147917,-0.00123062,0.00166669,-0.00659685,-1.41958,0.00504606,0.0201136,643,939,-20.0389,-1.38477
-574,85,-20.482,1.26172,-0.00624306,0.00173775,-0.00140277,0.00197713,-0.00648245,-1.40178,0.00510981,0.0356235,650,939,-20.482,-1.26174
-567,85,-21.2425,1.16412,0,0,0,0,0,0,0,-1,657,939,-21.2425,-1.16413
-560,85,-21.3304,0.942383,-0.00525504,0.00251659,-0.00144771,0.00277751,-0.00551596,-1.39248,0.00487447,0.035168,664,939,-21.3305,-0.942405
-553,85,-21.3907,0.747437,-0.00418671,0.00296817,-0.00117815,0.00315718,-0.00437571,-1.41173,0.00436804,0.040602,671,939,-21.3907,-0.747452
-546,85,-21.494,0.814331,-0.00268249,0.00335656,-0.000728953,0.0034433,-0.00276923,-1.45236,0.00359384,0.039082,678,939,-21.494,-0.814351
-539,85,-21.4788,0.984924,-0.000740877,0.00357165,-0.000100423,0.00357398,-0.000743214,-1.54753,0.00266516,0.0390572,685,939,-21.4788,-0.984924
-532,85,-21.428,1.01666,0.00158104,0.0034612,0.000630638,0.00365313,0.00138911,1.27536,0.00212921,0.0435643,692,939,-21.428,-1.01668
-525,85,-21.2792,1.01202,0.00343519,0.00289045,0.00122379,0.00441655,0.00190909,0.675902,0.00255769,0.0406911,699,939,-21.2792,-1.01202
-518,85,-21.2932,1.10999,0.00296107,0.00177785,0.0017451,0.00421212,0.000526805,0.621971,0.00264999,0.0383104,706,939,-21.2932,-1.10997
-511,85,0,0,0,0,0,0,0,0,0,-1,713,939,0,0
-504,85,0,0,0,0,0,0,0,0,0,-1,720,939,0,0
-497,85,0,0,0,0,0,0,0,0,0,-1,727,939,0,0
-490,85,0,0,0,0,0,0,0,0,0,-1,734,939,0,0
-483,85,0,0,0,0,0,0,0,0,0,-1,741,939,0,0
-476,85,0,0,0,0,0,0,0,0,0,-1,748,939,0,0
-469,85,0,0,0,0,0,0,0,0,0,-1,755,939,0,0
-462,85,0,0,0,0,0,0,0,0,0,-1,762,939,0,0
-455,85,0,0,0,0,0,0,0,0,0,-1,769,939,0,0
-448,85,0,0,0,0,0,0,0,0,0,-1,776,939,0,0
-441,85,0,0,0,0,0,0,0,0,0,-1,783,939,0,0
-434,85,0,0,0,0,0,0,0,0,0,-1,790,939,0,0
-427,85,0,0,0,0,0,0,0,0,0,-1,797,939,0,0
-420,85,0,0,0,0,0,0,0,0,0,-1,804,939,0,0
-413,85,0,0,0,0,0,0,0,0,0,-1,811,939,0,0
-406,85,0,0,0,0,0,0,0,0,0,-1,818,939,0,0
-399,85,0,0,0,0,0,0,0,0,0,-1,825,939,0,0
-392,85,0,0,0,0,0,0,0,0,0,-1,832,939,0,0
-385,85,0,0,0,0,0,0,0,0,0,-1,839,939,0,0
-378,85,0,0,0,0,0,0,0,0,0,-1,846,939,0,0
-371,85,0,0,0,0,0,0,0,0,0,-1,853,939,0,0
-364,85,0,0,0,0,0,0,0,0,0,-1,860,939,0,0
-357,85,0,0,0,0,0,0,0,0,0,-1,867,939,0,0
-350,85,0,0,0,0,0,0,0,0,0,-1,874,939,0,0
-343,85,0,0,0,0,0,0,0,0,0,-1,881,939,0,0
-336,85,0,0,0,0,0,0,0,0,0,-1,888,939,0,0
-329,85,0,0,0,0,0,0,0,0,0,-1,895,939,0,0
-322,85,0,0,0,0,0,0,0,0,0,-1,902,939,0,0
-315,85,0,0,0,0,0,0,0,0,0,-1,909,939,0,0
-308,85,0,0,0,0,0,0,0,0,0,-1,916,939,0,0
-301,85,0,0,0,0,0,0,0,0,0,-1,923,939,0,0
-294,85,0,0,0,0,0,0,0,0,0,-1,930,939,0,0
-287,85,0,0,0,0,0,0,0,0,0,-1,937,939,0,0
-280,85,0,0,0,0,0,0,0,0,0,-1,944,939,0,0
-273,85,0,0,0,0,0,0,0,0,0,-1,951,939,0,0
-266,85,0,0,0,0,0,0,0,0,0,-1,958,939,0,0
-259,85,0,0,0,0,0,0,0,0,0,-1,965,939,0,0
-252,85,0,0,0,0,0,0,0,0,0,-1,972,939,0,0
-245,85,0,0,0,0,0,0,0,0,0,-1,979,939,0,0
-238,85,0,0,0,0,0,0,0,0,0,-1,986,939,0,0
-231,85,0,0,0,0,0,0,0,0,0,-1,993,939,0,0
-224,85,0,0,0,0,0,0,0,0,0,-1,1000,939,0,0
-217,85,0,0,0,0,0,0,0,0,0,-1,1007,939,0,0
-210,85,0,0,0,0,0,0,0,0,0,-1,1014,939,0,0
-203,85,0,0,0,0,0,0,0,0,0,-1,1021,939,0,0
-196,85,0,0,0,0,0,0,0,0,0,-1,1028,939,0,0
-189,85,0,0,0,0,0,0,0,0,0,-1,1035,939,0,0
-182,85,0,0,0,0,0,0,0,0,0,-1,1042,939,0,0
-175,85,0,0,0,0,0,0,0,0,0,-1,1049,939,0,0
-168,85,0,0,0,0,0,0,0,0,0,-1,1056,939,0,0
-161,85,0,0,0,0,0,0,0,0,0,-1,1063,939,0,0
-154,85,0,0,0,0,0,0,0,0,0,-1,1070,939,0,0
-147,85,0,0,0,0,0,0,0,0,0,-1,1077,939,0,0
-140,85,0,0,0,0,0,0,0,0,0,-1,1084,939,0,0
-133,85,0,0,0,0,0,0,0,0,0,-1,1091,939,0,0
-126,85,0,0,0,0,0,0,0,0,0,-1,1098,939,0,0
-119,85,0,0,0,0,0,0,0,0,0,-1,1105,939,0,0
-112,85,0,0,0,0,0,0,0,0,0,-1,1112,939,0,0
-105,85,0,0,0,0,0,0,0,0,0,-1,1119,939,0,0
-98,85,0,0,0,0,0,0,0,0,0,-1,1126,939,0,0
-91,85,0,0,0,0,0,0,0,0,0,-1,1133,939,0,0
-84,85,0,0,0,0,0,0,0,0,0,-1,1140,939,0,0
-77,85,0,0,0,0,0,0,0,0,0,-1,1147,939,0,0
-70,85,0,0,0,0,0,0,0,0,0,-1,1154,939,0,0
-63,85,0,0,0,0,0,0,0,0,0,-1,1161,939,0,0
-56,85,0,0,0,0,0,0,0,0,0,-1,1168,939,0,0
-49,85,0,0,0,0,0,0,0,0,0,-1,1175,939,0,0
-42,85,0,0,0,0,0,0,0,0,0,-1,1182,939,0,0
-35,85,0,0,0,0,0,0,0,0,0,-1,1189,939,0,0
-28,85,0,0,0,0,0,0,0,0,0,-1,1196,939,0,0
-21,85,0,0,0,0,0,0,0,0,0,-1,1203,939,0,0
-14,85,0,0,0,0,0,0,0,0,0,-1,1210,939,0,0
-7,85,0,0,0,0,0,0,0,0,0,-1,1217,939,0,0
0,85,0,0,0,0,0,0,0,0,0,-1,1224,939,0,0
7,85,0,0,0,0,0,0,0,0,0,-1,1231,939,0,0
14,85,0,0,0,0,0,0,0,0,0,-1,1238,939,0,0
21,85,0,0,0,0,0,0,0,0,0,-1,1245,939,0,0
28,85,0,0,0,0,0,0,0,0,0,-1,1252,939,0,0
35,85,0,0,0,0,0,0,0,0,0,-1,1259,939,0,0
42,85,0,0,0,0,0,0,0,0,0,-1,1266,939,0,0
49,85,0,0,0,0,0,0,0,0,0,-1,1273,939,0,0
56,85,0,0,0,0,0,0,0,0,0,-1,1280,939,0,0
63,85,0,0,0,0,0,0,0,0,0,-1,1287,939,0,0
70,85,0,0,0,0,0,0,0,0,0,-1,1294,939,0,0
77,85,0,0,0,0,0,0,0,0,0,-1,1301,939,0,0
84,85,0,0,0,0,0,0,0,0,0,-1,1308,939,0,0
91,85,0,0,0,0,0,0,0,0,0,-1,1315,939,0,0
98,85,0,0,0,0,0,0,0,0,0,-1,1322,939,0,0
105,85,0,0,0,0,0,0,0,0,0,-1,1329,939,0,0
112,85,0,0,0,0,0,0,0,0,0,-1,1336,939,0,0
119,85,0,0,0,0,0,0,0,0,0,-1,1343,939,0,0
126,85,0,0,0,0,0,0,0,0,0,-1,1350,939,0,0
133,85,0,0,0,0,0,0,0,0,0,-1,1357,939,0,0
140,85,0,0,0,0,0,0,0,0,0,-1,1364,939,0,0
147,85,0,0,0,0,0,0,0,0,0,-1,1371,939,0,0
154,85,0,0,0,0,0,0,0,0,0,-1,1378,939,0,0
161,85,0,0,0,0,0,0,0,0,0,-1,1385,939,0,0
168,85,0,0,0,0,0,0,0,0,0,-1,1392,939,0,0
175,85,0,0,0,0,0,0,0,0,0,-1,1399,939,0,0
182,85,0,0,0,0,0,0,0,0,0,-1,1406,939,0,0
189,85,0,0,0,0,0,0,0,0,0,-1,1413,939,0,0
196,85,0,0,0,0,0,0,0,0,0,-1,1420,939,0,0
203,85,0,0,0,0,0,0,0,0,0,-1,1427,939,0,0
210,85,0,0,0,0,0,0,0,0,0,-1,1434,939,0,0
217,85,0,0,0,0,0,0,0,0,0,-1,1441,939,0,0
224,85,0,0,0,0,0,0,0,0,0,-1,1448,939,0,0
231,85,0,0,0,0,0,0,0,0,0,-1,1455,939,0,0
238,85,0,0,0,0,0,0,0,0,0,-1,1462,939,0,0
245,85,0,0,0,0,0,0,0,0,0,-1,1469,939,0,0
252,85,0,0,0,0,0,0,0,0,0,-1,1476,939,0,0
259,85,0,0,0,0,0,0,0,0,0,-1,1483,939,0,0
266,85,0,0,0,0,0,0,0,0,0,-1,1490,939,0,0
273,85,0,0,0,0,0,0,0,0,0,-1,1497,939,0,0
280,85,0,0,0,0,0,0,0,0,0,-1,1504,939,0,0
287,85,0,0,0,0,0,0,0,0,0,-1,1511,939,0,0
294,85,0,0,0,0,0,0,0,0,0,-1,1518,939,0,0
301,85,0,0,0,0,0,0,0,0,0,-1,1525,939,0,0
308,85,0,0,0,0,0,0,0,0,0,-1,1532,939,0,0
315,85,0,0,0,0,0,0,0,0,0,-1,1539,939,0,0
322,85,0,0,0,0,0,0,0,0,0,-1,1546,939,0,0
329,85,0,0,0,0,0,0,0,0,0,-1,1553,939,0,0
336,85,0,0,0,0,0,0,0,0,0,-1,1560,939,0,0
343,85,0,0,0,0,0,0,0,0,0,-1,1567,939,0,0
350,85,0,0,0,0,0,0,0,0,0,-1,1574,939,0,0
357,85,0,0,0,0,0,0,0,0,0,-1,1581,939,0,0
364,85,0,0,0,0,0,0,0,0,0,-1,1588,939,0,0
371,85,0,0,0,0,0,0,0,0,0,-1,1595,939,0,0
378,85,0,0,0,0,0,0,0,0,0,-1,1602,939,0,0
385,85,0,0,0,0,0,0,0,0,0,-1,1609,939,0,0
392,85,0,0,0,0,0,0,0,0,0,-1,1616,939,0,0
399,85,0,0,0,0,0,0,0,0,0,-1,1623,939,0,0
406,85,0,0,0,0,0,0,0,0,0,-1,1630,939,0,0
413,85,0,0,0,0,0,0,0,0,0,-1,1637,939,0,0
420,85,0,0,0,0,0,0,0,0,0,-1,1644,939,0,0
427,85,0,0,0,0,0,0,0,0,0,-1,1651,939,0,0
434,85,0,0,0,0,0,0,0,0,0,-1,1658,939,0,0
441,85,0,0,0,0,0,0,0,0,0,-1,1665,939,0,0
448,85,0,0,0,0,0,0,0,0,0,-1,1672,939,0,0
455,85,0,0,0,0,0,0,0,0,0,-1,1679,939,0,0
462,85,0,0,0,0,0,0,0,0,0,-1,1686,939,0,0
469,85,0,0,0,0,0,0,0,0,0,-1,1693,939,0,0
476,85,0,0,0,0,0,0,0,0,0,-1,1700,939,0,0
483,85,0,0,0,0,0,0,0,0,0,-1,1707,939,0,0
490,85,0,0,0,0,0,0,0,0,0,-1,1714,939,0,0
497,85,0,0,0,0,0,0,0,0,0,-1,1721,939,0,0
504,85,0,0,0,0,0,0,0,0,0,-1,1728,939,0,0
511,85,0,0,0,0,0,0,0,0,0,-1,1735,939,0,0
518,85,0,0,0,0,0,0,0,0,0,-1,1742,939,0,0
525,85,0,0,0,0,0,0,0,0,0,-1,1749,939,0,0
532,85,0,0,0,0,0,0,0,0,0,-1,1756,939,0,0
539,85,0,0,0,0,0,0,0,0,0,-1,1763,939,0,0
546,85,0,0,0,0,0,0,0,0,0,-1,1770,939,0,0
553,85,0,0,0,0,0,0,0,0,0,-1,1777,939,0,0
560,85,0,0,0,0,0,0,0,0,0,-1,1784,939,0,0
567,85,0,0,0,0,0,0,0,0,0,-1,1791,939,0,0
574,85,0,0,0,0,0,0,0,0,0,-1,1798,939,0,0
581,85,0,0,0,0,0,0,0,0,0,-1,1805,939,0,0
588,85,0,0,0,0,0,0,0,0,0,-1,1812,939,0,0
595,85,0,0,0,0,0,0,0,0,0,-1,1819,939,0,0
602,85,0,0,0,0,0,0,0,0,0,-1,1826,939,0,0
609,85,0,0,0,0,0,0,0,0,0,-1,1833,939,0,0
616,85,0,0,0,0,0,0,0,0,0,-1,1840,939,0,0
623,85,0,0,0,0,0,0,0,0,0,-1,1847,939,0,0
630,85,0,0,0,0,0,0,0,0,0,-1,1854,939,0,0
637,85,30.4662,2.8335,0.00441051,0.00184875,-0.00543836,0.00871679,-0.00245754,-0.669742,0.00678049,0.0459202,1861,939,30.4662,-2.83352
644,85,30.5242,2.72827,0.00287822,0.00161189,-0.00421417,0.00650653,-0.00201641,-0.710832,0.00514331,0.0425177,1868,939,30.5242,-2.7283
651,85,30.5983,2.69122,0.0015391,0.00148751,-0.00291255,0.00442597,-0.00139936,-0.78097,0.00351131,0.0423189,1875,939,30.5983,-2.69124
658,85,30.4525,3.16278,0.00030877,0.00154872,-0.00159572,0.00264067,-0.000783181,-0.970686,0.00207146,0.0427866,1882,939,30.4525,-3.16278
665,85,30.5601,2.87122,-0.000697295,0.00158859,-0.000310504,0.00163002,-0.000738722,-1.43816,0.00139949,0.042407,1889,939,30.5601,-2.87122
672,85,30.7262,2.46564,-0.00138213,0.00152042,0.000755157,0.00170513,-0.00156684,1.3309,0.00188964,0.0447651,1896,939,30.7262,-2.46562
679,85,30.8638,2.474,-0.00173657,0.00133861,0.00148369,0.00193773,-0.00233569,1.18702,0.00247082,0.0431424,1903,939,30.8637,-2.474
686,85,30.5645,2.72028,-0.00184381,0.00111707,0.00183986,0.00199815,-0.00272489,1.12418,0.00273759,0.0357026,1910,939,30.5644,-2.72029
693,85,30.4531,2.89642,-0.00193623,0.000931583,0.00205416,0.00200281,-0.00300745,1.09011,0.00291199,0.0317126,1917,939,30.4531,-2.8964
700,85,30.4547,3.01672,-0.00196623,0.000794308,0.00211554,0.00194003,-0.00311196,1.07444,0.00294281,0.0388968,1924,939,30.4547,-3.01674
707,85,30.4434,3.15747,0,0,0,0,0,0,0,-1,1931,939,30.4433,-3.15746
714,85,28.5132,3.75427,0,0,0,0,0,0,0,-1,1938,939,28.5132,-3.75428
721,85,28.4899,4.0387,-0.00143209,0.000947154,0.00150844,0.00167862,-0.00216356,1.11929,0.00222416,0.0248603,1945,939,28.4898,-4.03871
728,85,28.4323,4.34253,-0.000966336,0.00128942,0.00147872,0.0020213,-0.00169822,1.1112,0.00215017,0.0199561,1952,939,28.4322,-4.34254
735,85,28.4474,4.52191,-0.000278214,0.00198942,0.00166205,0.00286755,-0.00115635,1.08473,0.0023922,0.0183097,1959,939,28.4474,-4.52189
742,85,28.491,4.70508,0.000461008,0.00287295,0.00183711,0.00386455,-0.000530594,1.07585,0.00277022,0.0146346,1966,939,28.491,-4.70506
749,85,28.4479,4.92426,0.00112203,0.00407501,0.00156043,0.00474677,0.000450277,1.16428,0.00302561,0.0129415,1973,939,28.4478,-4.92426
756,85,28.3989,5.1319,0.0018676,0.00521326,0.00132969,0.00567736,0.0014035,1.23499,0.00341461,0.0123266,1980,939,28.399,-5.13189
763,85,28.3868,5.34363,0.00266732,0.00684916,0.0013893,0.00726864,0.00224784,1.27757,0.00429714,0.013055,1987,939,28.3868,-5.34364
770,85,28.3883,5.54993,0.00333675,0.0084046,0.00113306,0.00864639,0.00309495,1.36055,0.00505871,0.0194303,1994,939,28.3883,-5.5499
777,85,28.3778,5.79193,0.00381324,0.00971528,9.22943e-05,0.00971673,0.0038118,1.55516,0.00565318,0.0421268,2001,939,28.3778,-5.79196
784,85,28.5554,6.47534,0.0038861,0.0105553,-0.00217229,0.0112004,0.00324095,-1.2821,0.00665509,0.0476164,2008,939,28.5554,-6.47533
791,85,28.5337,7.14624,0.00332051,0.0106119,-0.00635555,0.0142932,-0.000360729,-1.0458,0.00965128,0.0493672,2015,939,28.5337,-7.14624
798,85,28.3193,7.55933,0,0,0,0,0,0,0,-1,2022,939,28.3193,-7.55931
805,85,29.429,3.64368,0,0,0,0,0,0,0,-1,2029,939,29.429,-3.64365
812,85,0,0,0,0,0,0,0,0,0,-1,2036,939,0,0
-700,78,0,0,0,0,0,0,0,0,0,-1,524,946,0,0
-693,78,0,0,0,0,0,0,0,0,0,-1,531,946,0,0
-686,78,-21.9442,5.33905,0.216092,-0.0430724,0.053382,0.226656,-0.0536372,0.195385,0.171797,0.0425843,538,946,-21.9441,-5.33905
-679,78,-20.5159,5.55377,0.169561,-0.042314,0.0426737,0.177833,-0.0505859,0.191467,0.138531,0.0461544,545,946,-20.5158,-5.55379
-672,78,-17.8093,5.15491,0.129801,-0.0379316,0.033492,0.136241,-0.0443719,0.189973,0.10868,0.0489871,552,946,-17.8093,-5.15493
-665,78,-18.038,6.08075,0.0961616,-0.0318275,0.0256324,0.101104,-0.03677,0.190486,0.0824397,0.0468314,559,946,-18.038,-6.08074
-658,78,-16.8713,6.20721,0,0,0,0,0,0,0,-1,566,946,-16.8713,-6.20721
-651,78,-19.6384,3.48944,0.046306,-0.0187475,0.0139252,0.0491615,-0.021603,0.202253,0.0418759,0.0443714,573,946,-19.6384,-3.48944
-644,78,-20.1371,3.01654,0.0295398,-0.0131195,0.0099649,0.0317527,-0.0153324,0.218527,0.0277301,0.027338,580,946,-20.1371,-3.01653
-637,78,-20.2237,2.85663,0.0174153,-0.00938219,0.00752273,0.0193827,-0.0113496,0.255796,0.0179442,0.0135158,587,946,-20.2237,-2.8566
-630,78,-20.2758,2.65411,0.00667151,-0.00503793,0.00441054,0.00814691,-0.00651333,0.322815,0.00848159,0.0124283,594,946,-20.2757,-2.65412
-623,78,-20.2964,2.47223,-0.000657722,-0.00248353,0.0019272,0.000561857,-0.00370311,0.564207,0.00267576,0.0124512,601,946,-20.2964,-2.47224
-616,78,-20.3021,2.30359,-0.0042108,-0.00050542,0.000745439,-0.000361077,-0.00435515,1.37953,0.00279087,0.0107615,608,946,-20.3021,-2.30359
-609,78,-20.2742,2.13654,-0.00598139,0.000913586,2.37881e-05,0.000913668,-0.00598147,1.56735,0.0043245,0.0106238,615,946,-20.2742,-2.13652
-602,78,-20.2874,1.94775,-0.00657397,0.00140304,-0.00046646,0.00143022,-0.00660115,-1.51259,0.00494691,0.0153138,622,946,-20.2874,-1.94777
-595,78,-20.2643,1.75513,-0.00699902,0.00126876,-0.00104652,0.00139917,-0.00712943,-1.44682,0.00528148,0.0153179,629,946,-20.2643,-1.75513
-588,78,-20.2507,1.62695,-0.00681686,0.00142204,-0.00155622,0.00170619,-0.00710101,-1.3902,0.00539345,0.0129598,636,946,-20.2507,-1.62696
-581,78,-20.3448,1.48883,-0.0068341,0.00155406,-0.00191646,0.00197118,-0.00725121,-1.35649,0.00560789,0.0238696,643,946,-20.3449,-1.48882
-574,78,-20.8326,1.27356,-0.0066487,0.00183367,-0.00204782,0.00230218,-0.00711721,-1.34588,0.00567019,0.0299786,650,946,-20.8326,-1.27358
-567,78,-21.3916,1.12146,0,0,0,0,0,0,0,-1,657,946,-21.3916,-1.12143
-560,78,-21.3361,0.972473,-0.0055123,0.00254478,-0.00189467,0.00296809,-0.0059356,-1.35099,0.00523485,0.0315122,664,946,-21.3361,-0.972446
-553,78,-21.3279,0.806152,-0.00425821,0.00290825,-0.00146965,0.00319793,-0.00454789,-1.37618,0.00449463,0.0396254,671,946,-21.3279,-0.806162
-546,78,-21.3517,0.816101,-0.00248826,0.00314675,-0.000806104,0.00325979,-0.00260131,-1.43147,0.00339102,0.0410359,678,946,-21.3518,-0.816093
-539,78,-21.3411,0.987854,-0.000197752,0.00312705,9.52616e-05,0.00312977,-0.000200479,1.54218,0.00215645,0.0412032,685,946,-21.3411,-0.987826
-532,78,-21.3553,1.09229,0.00252946,0.00267901,0.00112732,0.00373403,0.00147443,0.818515,0.00217167,0.0428084,692,946,-21.3553,-1.0923
-525,78,-21.3147,1.12366,0.0046176,0.00169997,0.00202344,0.00565327,0.000664304,0.473071,0.00356809,0.0408448,699,946,-21.3147,-1.12364
-518,78,-21.267,1.15662,0.00407194,4.61379e-05,0.00276375,0.00547812,-0.00136004,0.470657,0.00417985,0.0406611,706,946,-21.267,-1.1566
-511,78,0,0,0,0,0,0,0,0,0,-1,713,946,0,0
-504,78,0,0,0,0,0,0,0,0,0,-1,720,946,0,0
-497,78,0,0,0,0,0,0,0,0,0,-1,727,946,0,0
-490,78,0,0,0,0,0,0,0,0,0,-1,734,946,0,0
-483,78,0,0,0,0,0,0,0,0,0,-1,741,946,0,0
-476,78,0,0,0,0,0,0,0,0,0,-1,748,946,0,0
-469,78,0,0,0,0,0,0,0,0,0,-1,755,946,0,0
-462,78,0,0,0,0,0,0,0,0,0,-1,762,946,0,0
-455,78,0,0,0,0,0,0,0,0,0,-1,769,946,0,0
-448,78,0,0,0,0,0,0,0,0,0,-1,776,946,0,0
-441,78,0,0,0,0,0,0,0,0,0,-1,783,946,0,0
-434,78,0,0,0,0,0,0,0,0,0,-1,790,946,0,0
-427,78,0,0,0,0,0,0,0,0,0,-1,797,946,0,0
-420,78,0,0,0,0,0,0,0,0,0,-1,804,946,0,0
-413,78,0,0,0,0,0,0,0,0,0,-1,811,946,0,0
-406,78,0,0,0,0,0,0,0,0,0,-1,818,946,0,0
-399,78,0,0,0,0,0,0,0,0,0,-1,825,946,0,0
-392,78,0,0,0,0,0,0,0,0,0,-1,832,946,0,0
-385,78,0,0,0,0,0,0,0,0,0,-1,839,946,0,0
-378,78,0,0,0,0,0,0,0,0,0,-1,846,946,0,0
-371,78,0,0,0,0,0,0,0,0,0,-1,853,946,0,0
-364,78,0,0,0,0,0,0,0,0,0,-1,860,946,0,0
-357,78,0,0,0,0,0,0,0,0,0,-1,867,946,0,0
-350,78,0,0,0,0,0,0,0,0,0,-1,874,946,0,0
-343,78,0,0,0,0,0,0,0,0,0,-1,881,946,0,0
-336,78,0,0,0,0,0,0,0,0,0,-1,888,946,0,0
-329,78,0,0,0,0,0,0,0,0,0,-1,895,946,0,0
-322,78,0,0,0,0,0,0,0,0,0,-1,902,946,0,0
-315,78,0,0,0,0,0,0,0,0,0,-1,909,946,0,0
-308,78,0,0,0,0,0,0,0,0,0,-1,916,946,0,0
-301,78,0,0,0,0,0,0,0,0,0,-1,923,946,0,0
-294,78,0,0,0,0,0,0,0,0,0,-1,930,946,0,0
-287,78,0,0,0,0,0,0,0,0,0,-1,937,946,0,0
-280,78,0,0,0,0,0,0,0,0,0,-1,944,946,0,0
-273,78,0,0,0,0,0,0,0,0,0,-1,951,946,0,0
-266,78,0,0,0,0,0,0,0,0,0,-1,958,946,0,0
-259,78,0,0,0,0,0,0,0,0,0,-1,965,946,0,0
-252,78,0,0,0,0,0,0,0,0,0,-1,972,946,0,0
-245,78,0,0,0,0,0,0,0,0,0,-1,979,946,0,0
-238,78,0,0,0,0,0,0,0,0,0,-1,986,946,0,0
-231,78,0,0,0,0,0,0,0,0,0,-1,993,946,0,0
-224,78,0,0,0,0,0,0,0,0,0,-1,1000,946,0,0
-217,78,0,0,0,0,0,0,0,0,0,-1,1007,946,0,0
-210,78,0,0,0,0,0,0,0,0,0,-1,1014,946,0,0
-203,78,0,0,0,0,0,0,0,0,0,-1,1021,946,0,0
-196,78,0,0,0,0,0,0,0,0,0,-1,1028,946,0,0
-189,78,0,0,0,0,0,0,0,0,0,-1,1035,946,0,0
-182,78,0,0,0,0,0,0,0,0,0,-1,1042,946,0,0
-175,78,0,0,0,0,0,0,0,0,0,-1,1049,946,0,0
-168,78,0,0,0,0,0,0,0,0,0,-1,1056,946,0,0
-161,78,0,0,0,0,0,0,0,0,0,-1,1063,946,0,0
-154,78,0,0,0,0,0,0,0,0,0,-1,1070,946,0,0
-147,78,0,0,0,0,0,0,0,0,0,-1,1077,946,0,0
-140,78,0,0,0,0,0,0,0,0,0,-1,1084,946,0,0
-133,78,0,0,0,0,0,0,0,0,0,-1,1091,946,0,0
-126,78,0,0,0,0,0,0,0,0,0,-1,1098,946,0,0
-119,78,0,0,0,0,0,0,0,0,0,-1,1105,946,0,0
-112,78,0,0,0,0,0,0,0,0,0,-1,1112,946,0,0
-105,78,0,0,0,0,0,0,0,0,0,-1,1119,946,0,0
-98,78,0,0,0,0,0,0,0,0,0,-1,1126,946,0,0
-91,78,0,0,0,0,0,0,0,0,0,-1,1133,946,0,0
-84,78,0,0,0,0,0,0,0,0,0,-1,1140,946,0,0
-77,78,0,0,0,0,0,0,0,0,0,-1,1147,946,0,0
-70,78,0,0,0,0,0,0,0,0,0,-1,1154,946,0,0
-63,78,0,0,0,0,0,0,0,0,0,-1,1161,946,0,0
-56,78,0,0,0,0,0,0,0,0,0,-1,1168,946,0,0
-49,78,0,0,0,0,0,0,0,0,0,-1,1175,946,0,0
-42,78,0,0,0,0,0,0,0,0,0,-1,1182,946,0,0
-35,78,0,0,0,0,0,0,0,0,0,-1,1189,946,0,0
-28,78,0,0,0,0,0,0,0,0,0,-1,1196,946,0,0
-21,78,0,0,0,0,0,0,0,0,0,-1,1203,946,0,0
-14,78,0,0,0,0,0,0,0,0,0,-1,1210,946,0,0
-7,78,0,0,0,0,0,0,0,0,0,-1,1217,946,0,0
0,78,0,0,0,0,0,0,0,0,0,-1,1224,946,0,0
7,78,0,0,0,0,0,0,0,0,0,-1,1231,946,0,0
14,78,0,0,0,0,0,0,0,0,0,-1,1238,946,0,0
21,78,0,0,0,0,0,0,0,0,0,-1,1245,946,0,0
28,78,0,0,0,0,0,0,0,0,0,-1,1252,946,0,0
35,78,0,0,0,0,0,0,0,0,0,-1,1259,946,0,0
42,78,0,0,0,0,0,0,0,0,0,-1,1266,946,0,0
49,78,0,0,0,0,0,0,0,0,0,-1,1273,946,0,0
56,78,0,0,0,0,0,0,0,0,0,-1,1280,946,0,0
63,78,0,0,0,0,0,0,0,0,0,-1,1287,946,0,0
70,78,0,0,0,0,0,0,0,0,0,-1,1294,946,0,0
77,78,0,0,0,0,0,0,0,0,0,-1,1301,946,0,0
84,78,0,0,0,0,0,0,0,0,0,-1,1308,946,0,0
91,78,0,0,0,0,0,0,0,0,0,-1,1315,946,0,0
98,78,0,0,0,0,0,0,0,0,0,-1,1322,946,0,0
105,78,0,0,0,0,0,0,0,0,0,-1,1329,946,0,0
112,78,0,0,0,0,0,0,0,0,0,-1,1336,946,0,0
119,78,0,0,0,0,0,0,0,0,0,-1,1343,946,0,0
126,78,0,0,0,0,0,0,0,0,0,-1,1350,946,0,0
133,78,0,0,0,0,0,0,0,0,0,-1,1357,946,0,0
140,78,0,0,0,0,0,0,0,0,0,-1,1364,946,0,0
147,78,0,0,0,0,0,0,0,0,0,-1,1371,946,0,0
154,78,0,0,0,0,0,0,0,0,0,-1,1378,946,0,0
161,78,0,0,0,0,0,0,0,0,0,-1,1385,946,0,0
168,78,0,0,0,0,0,0,0,0,0,-1,1392,946,0,0
175,78,0,0,0,0,0,0,0,0,0,-1,1399,946,0,0
182,78,0,0,0,0,0,0,0,0,0,-1,1406,946,0,0
189,78,0,0,0,0,0,0,0,0,0,-1,1413,946,0,0
196,78,0,0,0,0,0,0,0,0,0,-1,1420,946,0,0
203,78,0,0,0,0,0,0,0,0,0,-1,1427,946,0,0
210,78,0,0,0,0,0,0,0,0,0,-1,1434,946,0,0
217,78,0,0,0,0,0,0,0,0,0,-1,1441,946,0,0
224,78,0,0,0,0,0,0,0,0,0,-1,1448,946,0,0
231,78,0,0,0,0,0,0,0,0,0,-1,1455,946,0,0
238,78,0,0,0,0,0,0,0,0,0,-1,1462,946,0,0
245,78,0,0,0,0,0,0,0,0,0,-1,1469,946,0,0
252,78,0,0,0,0,0,0,0,0,0,-1,1476,946,0,0
259,78,0,0,0,0,0,0,0,0,0,-1,1483,946,0,0
266,78,0,0,0,0,0,0,0,0,0,-1,1490,946,0,0
273,78,0,0,0,0,0,0,0,0,0,-1,1497,946,0,0
280,78,0,0,0,0,0,0,0,0,0,-1,1504,946,0,0
287,78,0,0,0,0,0,0,0,0,0,-1,1511,946,0,0
294,78,0,0,0,0,0,0,0,0,0,-1,1518,946,0,0
301,78,0,0,0,0,0,0,0,0,0,-1,1525,946,0,0
308,78,0,0,0,0,0,0,0,0,0,-1,1532,946,0,0
315,78,0,0,0,0,0,0,0,0,0,-1,1539,946,0,0
322,78,0,0,0,0,0,0,0,0,0,-1,1546,946,0,0
329,78,0,0,0,0,0,0,0,0,0,-1,1553,946,0,0
336,78,0,0,0,0,0,0,0,0,0,-1,1560,946,0,0
343,78,0,0,0,0,0,0,0,0,0,-1,1567,946,0,0
350,78,0,0,0,0,0,0,0,0,0,-1,1574,946,0,0
357,78,0,0,0,0,0,0,0,0,0,-1,1581,946,0,0
364,78,0,0,0,0,0,0,0,0,0,-1,1588,946,0,0
371,78,0,0,0,0,0,0,0,0,0,-1,1595,946,0,0
378,78,0,0,0,0,0,0,0,0,0,-1,1602,946,0,0
385,78,0,0,0,0,0,0,0,0,0,-1,1609,946,0,0
392,78,0,0,0,0,0,0,0,0,0,-1,1616,946,0,0
399,78,0,0,0,0,0,0,0,0,0,-1,1623,946,0,0
406,78,0,0,0,0,0,0,0,0,0,-1,1630,946,0,0
413,78,0,0,0,0,0,0,0,0,0,-1,1637,946,0,0
420,78,0,0,0,0,0,0,0,0,0,-1,1644,946,0,0
427,78,0,0,0,0,0,0,0,0,0,-1,1651,946,0,0
434,78,0,0,0,0,0,0,0,0,0,-1,1658,946,0,0
441,78,0,0,0,0,0,0,0,0,0,-1,1665,946,0,0
448,78,0,0,0,0,0,0,0,0,0,-1,1672,946,0,0
455,78,0,0,0,0,0,0,0,0,0,-1,1679,946,0,0
462,78,0,0,0,0,0,0,0,0,0,-1,1686,946,0,0
469,78,0,0,0,0,0,0,0,0,0,-1,1693,946,0,0
476,78,0,0,0,0,0,0,0,0,0,-1,1700,946,0,0
483,78,0,0,0,0,0,0,0,0,0,-1,1707,946,0,0
490,78,0,0,0,0,0,0,0,0,0,-1,1714,946,0,0
497,78,0,0,0,0,0,0,0,0,0,-1,1721,946,0,0
504,78,0,0,0,0,0,0,0,0,0,-1,1728,946,0,0
511,78,0,0,0,0,0,0,0,0,0,-1,1735,946,0,0
518,78,0,0,0,0,0,0,0,0,0,-1,1742,946,0,0
525,78,0,0,0,0,0,0,0,0,0,-1,1749,946,0,0
532,78,0,0,0,0,0,0,0,0,0,-1,1756,946,0,0
539,78,0,0,0,0,0,0,0,0,0,-1,1763,946,0,0
546,78,0,0,0,0,0,0,0,0,0,-1,1770,946,0,0
553,78,0,0,0,0,0,0,0,0,0,-1,1777,946,0,0
560,78,0,0,0,0,0,0,0,0,0,-1,1784,946,0,0
567,78,0,0,0,0,0,0,0,0,0,-1,1791,946,0,0
574,78,0,0,0,0,0,0,0,0,0,-1,1798,946,0,0
581,78,0,0,0,0,0,0,0,0,0,-1,1805,946,0,0
588,78,0,0,0,0,0,0,0,0,0,-1,1812,946,0,0
595,78,0,0,0,0,0,0,0,0,0,-1,1819,946,0,0
602,78,0,0,0,0,0,0,0,0,0,-1,1826,946,0,0
609,78,0,0,0,0,0,0,0,0,0,-1,1833,946,0,0
616,78,0,0,0,0,0,0,0,0,0,-1,1840,946,0,0
623,78,0,0,0,0,0,0,0,0,0,-1,1847,946,0,0
630,78,0,0,0,0,0,0,0,0,0,-1,1854,946,0,0
637,78,30.6321,3.03473,0.00473461,0.00173917,-0.00572851,0.00915795,-0.00268417,-0.657535,0.00716951,0.0452376,1861,946,30.632,-3.03472
644,78,30.6589,2.63983,0.00300991,0.00142935,-0.00431204,0.00660349,-0.00216423,-0.694767,0.00527389,0.0427035,1868,946,30.659,-2.63985
651,78,30.6425,2.59052,0.00156484,0.0012149,-0.00293182,0.00432691,-0.00154716,-0.755594,0.0035157,0.0416857,1875,946,30.6424,-2.59054
658,78,30.5089,2.89447,0.000334286,0.0012232,-0.0015421,0.00238362,-0.000826132,-0.925704,0.0019245,0.0408412,1882,946,30.5089,-2.89449
665,78,30.4828,2.81506,-0.000677148,0.00126734,-0.000147751,0.0012785,-0.00068831,-1.49539,0.00115246,0.0419125,1889,946,30.4828,-2.81505
672,78,30.5333,2.52448,-0.00140609,0.00123303,0.00103765,0.00159215,-0.00176521,1.23761,0.00193923,0.0423064,1896,946,30.5334,-2.52447
679,78,30.6656,2.63361,-0.00180575,0.00109731,0.00185301,0.00199963,-0.00270806,1.11765,0.00272822,0.0410054,1903,946,30.6656,-2.63363
686,78,30.5662,2.78204,-0.00193397,0.000900657,0.00227154,0.00216078,-0.00319409,1.06432,0.00311076,0.0383329,1910,946,30.5661,-2.78207
693,78,30.4702,2.77173,-0.00203174,0.000735236,0.00250638,0.00221461,-0.00351112,1.03758,0.00333388,0.0322741,1917,946,30.4702,-2.77172
700,78,30.4368,2.87128,-0.00206258,0.000619616,0.00255162,0.0021611,-0.00360407,1.02735,0.00336309,0.0299998,1924,946,30.4367,-2.87126
707,78,30.454,3.0351,0,0,0,0,0,0,0,-1,1931,946,30.4539,-3.03509
714,78,28.5997,3.89813,0,0,0,0,0,0,0,-1,1938,946,28.5997,-3.89815
721,78,28.6593,4.08289,-0.00168371,0.000872997,0.00186252,0.00185366,-0.00266437,1.08615,0.00262245,0.0241273,1945,946,28.6592,-4.08292
728,78,28.6931,4.31836,-0.00117372,0.00131113,0.00178893,0.00224675,-0.00210935,1.08891,0.00251541,0.0236545,1952,946,28.6931,-4.31834
735,78,28.7173,4.54474,-0.000432123,0.00213271,0.00187678,0.00312337,-0.00142279,1.08511,0.00268524,0.016767,1959,946,28.7173,-4.54474
742,78,28.7269,4.73047,0.000363326,0.00315074,0.00192632,0.00413466,-0.000620593,1.09856,0.00298489,0.0133229,1966,946,28.7269,-4.73049
749,78,28.6708,4.92139,0.00111733,0.00445936,0.00147485,0.00501713,0.000559562,1.20924,0.00317471,0.0131694,1973,946,28.6708,-4.92137
756,78,28.6592,5.0882,0.00204394,0.00575389,0.000978555,0.00599618,0.00180165,1.32808,0.00355259,0.0143819,1980,946,28.6592,-5.08819
763,78,28.605,5.25317,0.00321175,0.00763864,0.000738259,0.00775852,0.00309188,1.40983,0.00451003,0.0135503,1987,946,28.6049,-5.25319
770,78,28.5691,5.42395,0.00438475,0.00949904,0.00019405,0.00950639,0.00437739,1.53293,0.00549423,0.0182848,1994,946,28.5691,-5.42394
777,78,28.5277,5.58331,0.00544839,0.0110715,-0.00115095,0.011298,0.00522194,-1.37652,0.00652911,0.0386524,2001,946,28.5277,-5.58331
784,78,28.5789,5.78198,0.00622668,0.0121124,-0.00374715,0.0139342,0.00440492,-1.11827,0.00822422,0.0490523,2008,946,28.5788,-5.78201
791,78,28.496,5.94806,0,0,0,0,0,0,0,-1,2015,946,28.496,-5.94809
798,78,29.4351,4.84198,0.00591442,0.0110177,-0.0154735,0.0241485,-0.00721646,-0.867114,0.0189678,0.0457089,2022,946,29.435,-4.84197
805,78,29.2786,3.61005,0.00350654,0.00770798,-0.0265826,0.0322727,-0.0210582,-0.824829,0.0310167,0.0481924,2029,946,29.2786,-3.61005
812,78,0,0,0,0,0,0,0,0,0,-1,2036,946,0,0
-700,71,0,0,0,0,0,0,0,0,0,-1,524,953,0,0
-693,71,0,0,0,0,0,0,0,0,0,-1,531,953,0,0
-686,71,-22.3944,5.9776,0.207602,-0.0377487,0.0465013,0.216119,-0.0462664,0.181163,0.161723,0.0433272,538,953,-22.3944,-5.9776
-679,71,-20.9189,6.49493,0.163328,-0.0379969,0.037429,0.170062,-0.0447303,0.177993,0.130858,0.0475853,545,953,-20.919,-6.49495
-672,71,-19.5778,6.66919,0.125459,-0.0346433,0.0293495,0.13067,-0.039854,0.175708,0.103001,0.0466508,552,953,-19.5778,-6.66919
-665,71,-18.1381,6.91541,0.0932771,-0.02947,0.0222693,0.0971924,-0.0333853,0.174038,0.0783319,0.0491263,559,953,-18.1381,-6.91542
-658,71,-16.6693,7.19135,0,0,0,0,0,0,0,-1,566,953,-16.6693,-7.19136
-651,71,-20.3876,3.22284,0.0450214,-0.0176071,0.0115805,0.0470941,-0.0196798,0.177108,0.0396202,0.0470887,573,953,-20.3876,-3.22283
-644,71,-20.3547,3.04254,0.0286092,-0.0122684,0.00798355,0.030113,-0.0137722,0.186192,0.0259161,0.0324169,580,953,-20.3547,-3.04254
-637,71,-20.421,2.83063,0.0166817,-0.00896724,0.00603268,0.0180297,-0.0103153,0.219846,0.0165658,0.0138213,587,953,-20.421,-2.83063
-630,71,-20.46,2.63525,0.00607724,-0.00461985,0.00290332,0.00681443,-0.00535704,0.248659,0.00704398,0.0134021,594,953,-20.46,-2.63525
-623,71,-20.4819,2.45081,-0.00113005,-0.00192158,0.000583963,-0.000820377,-0.00223125,0.487589,0.00130316,0.0132077,601,953,-20.4819,-2.45078
-616,71,-20.5023,2.27753,-0.00441437,0.000112035,-0.000340866,0.00013756,-0.0044399,-1.49605,0.00300683,0.012685,608,953,-20.5023,-2.27756
-609,71,-20.4728,2.15173,-0.00599109,0.00149753,-0.000905372,0.00160543,-0.00609899,-1.45217,0.00469357,0.0130278,615,953,-20.4729,-2.15173
-602,71,-20.4363,1.98303,-0.00645939,0.00188917,-0.00133975,0.0020989,-0.00666912,-1.41551,0.00528648,0.0155567,622,953,-20.4364,-1.98301
-595,71,-20.458,1.81604,-0.0067281,0.00166458,-0.00186671,0.00206105,-0.00712457,-1.36152,0.00556543,0.0164434,629,953,-20.458,-1.81606
-588,71,-20.4599,1.69568,-0.00662549,0.00177205,-0.00236916,0.00239434,-0.00724778,-1.31394,0.00579719,0.017234,636,953,-20.4599,-1.69566
-581,71,-20.6381,1.47186,-0.00667085,0.00180421,-0.00268748,0.00258457,-0.00745121,-1.2882,0.00601696,0.0286649,643,953,-20.6381,-1.47185
-574,71,-21.1342,1.20715,-0.00648432,0.00199791,-0.00278812,0.0028323,-0.0073187,-1.28002,0.00604847,0.0330905,650,953,-21.1342,-1.20717
-567,71,-21.356,0.974426,-0.00609464,0.00220262,-0.00274276,0.0030273,-0.00691932,-1.27872,0.00588741,0.01923,657,953,-21.3559,-0.974432
-560,71,-21.3354,0.899231,-0.00530472,0.00244518,-0.0024035,0.00313006,-0.0059896,-1.2932,0.00535082,0.0272807,664,953,-21.3354,-0.899214
-553,71,-21.275,0.818237,-0.00399018,0.00258983,-0.00178575,0.00304322,-0.00444357,-1.32215,0.00434763,0.039416,671,953,-21.275,-0.818264
-546,71,-21.2658,0.848511,-0.00215216,0.00253025,-0.000869115,0.00268636,-0.00230827,-1.39307,0.00288641,0.0413225,678,953,-21.2658,-0.848523
-539,71,-21.3004,1.02863,0.00021371,0.00212233,0.000339829,0.00218103,0.000155009,1.39975,0.0014052,0.0436792,685,953,-21.3004,-1.0286
-532,71,-21.4615,0.780029,0.00297414,0.00121491,0.00168926,0.00399908,0.000189972,0.545359,0.00260504,0.0468192,692,953,-21.4616,-0.780017
-525,71,-21.3842,0.916504,0.0048933,-0.000222324,0.00287388,0.00618277,-0.00151179,0.421761,0.00470741,0.0431266,699,953,-21.3842,-0.916516
-518,71,0,0,0,0,0,0,0,0,0,-1,706,953,0,0
-511,71,0,0,0,0,0,0,0,0,0,-1,713,953,0,0
-504,71,0,0,0,0,0,0,0,0,0,-1,720,953,0,0
-497,71,0,0,0,0,0,0,0,0,0,-1,727,953,0,0
-490,71,0,0,0,0,0,0,0,0,0,-1,734,953,0,0
-483,71,0,0,0,0,0,0,0,0,0,-1,741,953,0,0
-476,71,0,0,0,0,0,0,0,0,0,-1,748,953,0,0
-469,71,0,0,0,0,0,0,0,0,0,-1,755,953,0,0
-462,71,0,0,0,0,0,0,0,0,0,-1,762,953,0,0
-455,71,0,0,0,0,0,0,0,0,0,-1,769,953,0,0
-448,71,0,0,0,0,0,0,0,0,0,-1,776,953,0,0
-441,71,0,0,0,0,0,0,0,0,0,-1,783,953,0,0
-434,71,0,0,0,0,0,0,0,0,0,-1,790,953,0,0
-427,71,0,0,0,0,0,0,0,0,0,-1,797,953,0,0
-420,71,0,0,0,0,0,0,0,0,0,-1,804,953,0,0
-413,71,0,0,0,0,0,0,0,0,0,-1,811,953,0,0
-406,71,0,0,0,0,0,0,0,0,0,-1,818,953,0,0
-399,71,0,0,0,0,0,0,0,0,0,-1,825,953,0,0
-392,71,0,0,0,0,0,0,0,0,0,-1,832,953,0,0
-385,71,0,0,0,0,0,0,0,0,0,-1,839,953,0,0
-378,71,0,0,0,0,0,0,0,0,0,-1,846,953,0,0
-371,71,0,0,0,0,0,0,0,0,0,-1,853,953,0,0
-364,71,0,0,0,0,0,0,0,0,0,-1,860,953,0,0
-357,71,0,0,0,0,0,0,0,0,0,-1,867,953,0,0
-350,71,0,0,0,0,0,0,0,0,0,-1,874,953,0,0
-343,71,0,0,0,0,0,0,0,0,0,-1,881,953,0,0
-336,71,0,0,0,0,0,0,0,0,0,-1,888,953,0,0
-329,71,0,0,0,0,0,0,0,0,0,-1,895,953,0,0
-322,71,0,0,0,0,0,0,0,0,0,-1,902,953,0,0
-315,71,0,0,0,0,0,0,0,0,0,-1,909,953,0,0
-308,71,0,0,0,0,0,0,0,0,0,-1,916,953,0,0
-301,71,0,0,0,0,0,0,0,0,0,-1,923,953,0,0
-294,71,0,0,0,0,0,0,0,0,0,-1,930,953,0,0
-287,71,0,0,0,0,0,0,0,0,0,-1,937,953,0,0
-280,71,0,0,0,0,0,0,0,0,0,-1,944,953,0,0
-273,71,0,0,0,0,0,0,0,0,0,-1,951,953,0,0
-266,71,0,0,0,0,0,0,0,0,0,-1,958,953,0,0
-259,71,0,0,0,0,0,0,0,0,0,-1,965,953,0,0
-252,71,0,0,0,0,0,0,0,0,0,-1,972,953,0,0
-245,71,0,0,0,0,0,0,0,0,0,-1,979,953,0,0
-238,71,0,0,0,0,0,0,0,0,0,-1,986,953,0,0
-231,71,0,0,0,0,0,0,0,0,0,-1,993,953,0,0
-224,71,0,0,0,0,0,0,0,0,0,-1,1000,953,0,0
-217,71,0,0,0,0,0,0,0,0,0,-1,1007,953,0,0
-210,71,0,0,0,0,0,0,0,0,0,-1,1014,953,0,0
-203,71,0,0,0,0,0,0,0,0,0,-1,1021,953,0,0
-196,71,0,0,0,0,0,0,0,0,0,-1,1028,953,0,0
-189,71,0,0,0,0,0,0,0,0,0,-1,1035,953,0,0
-182,71,0,0,0,0,0,0,0,0,0,-1,1042,953,0,0
-175,71,0,0,0,0,0,0,0,0,0,-1,1049,953,0,0
-168,71,0,0,0,0,0,0,0,0,0,-1,1056,953,0,0
-161,71,0,0,0,0,0,0,0,0,0,-1,1063,953,0,0
-154,71,0,0,0,0,0,0,0,0,0,-1,1070,953,0,0
-147,71,0,0,0,0,0,0,0,0,0,-1,1077,953,0,0
-140,71,0,0,0,0,0,0,0,0,0,-1,1084,953,0,0
-133,71,0,0,0,0,0,0,0,0,0,-1,1091,953,0,0
-126,71,0,0,0,0,0,0,0,0,0,-1,1098,953,0,0
-119,71,0,0,0,0,0,0,0,0,0,-1,1105,953,0,0
-112,71,0,0,0,0,0,0,0,0,0,-1,1112,953,0,0
-105,71,0,0,0,0,0,0,0,0,0,-1,1119,953,0,0
-98,71,0,0,0,0,0,0,0,0,0,-1,1126,953,0,0
-91,71,0,0,0,0,0,0,0,0,0,-1,1133,953,0,0
-84,71,0,0,0,0,0,0,0,0,0,-1,1140,953,0,0
-77,71,0,0,0,0,0,0,0,0,0,-1,1147,953,0,0
-70,71,0,0,0,0,0,0,0,0,0,-1,1154,953,0,0
-63,71,0,0,0,0,0,0,0,0,0,-1,1161,953,0,0
-56,71,0,0,0,0,0,0,0,0,0,-1,1168,953,0,0
-49,71,0,0,0,0,0,0,0,0,0,-1,1175,953,0,0
-42,71,0,0,0,0,0,0,0,0,0,-1,1182,953,0,0
-35,71,0,0,0,0,0,0,0,0,0,-1,1189,953,0,0
-28,71,0,0,0,0,0,0,0,0,0,-1,1196,953,0,0
-21,71,0,0,0,0,0,0,0,0,0,-1,1203,953,0,0
-14,71,0,0,0,0,0,0,0,0,0,-1,1210,953,0,0
-7,71,0,0,0,0,0,0,0,0,0,-1,1217,953,0,0
0,71,0,0,0,0,0,0,0,0,0,-1,1224,953,0,0
7,71,0,0,0,0,0,0,0,0,0,-1,1231,953,0,0
14,71,0,0,0,0,0,0,0,0,0,-1,1238,953,0,0
21,71,0,0,0,0,0,0,0,0,0,-1,1245,953,0,0
28,71,0,0,0,0,0,0,0,0,0,-1,1252,953,0,0
35,71,0,0,0,0,0,0,0,0,0,-1,1259,953,0,0
42,71,0,0,0,0,0,0,0,0,0,-1,1266,953,0,0
49,71,0,0,0,0,0,0,0,0,0,-1,1273,953,0,0
56,71,0,0,0,0,0,0,0,0,0,-1,1280,953,0,0
63,71,0,0,0,0,0,0,0,0,0,-1,1287,953,0,0
70,71,0,0,0,0,0,0,0,0,0,-1,1294,953,0,0
77,71,0,0,0,0,0,0,0,0,0,-1,1301,953,0,0
84,71,0,0,0,0,0,0,0,0,0,-1,1308,953,0,0
91,71,0,0,0,0,0,0,0,0,0,-1,1315,953,0,0
98,71,0,0,0,0,0,0,0,0,0,-1,1322,953,0,0
105,71,0,0,0,0,0,0,0,0,0,-1,1329,953,0,0
112,71,0,0,0,0,0,0,0,0,0,-1,1336,953,0,0
119,71,0,0,0,0,0,0,0,0,0,-1,1343,953,0,0
126,71,0,0,0,0,0,0,0,0,0,-1,1350,953,0,0
133,71,0,0,0,0,0,0,0,0,0,-1,1357,953,0,0
140,71,0,0,0,0,0,0,0,0,0,-1,1364,953,0,0
147,71,0,0,0,0,0,0,0,0,0,-1,1371,953,0,0
154,71,0,0,0,0,0,0,0,0,0,-1,1378,953,0,0
161,71,0,0,0,0,0,0,0,0,0,-1,1385,953,0,0
168,71,0,0,0,0,0,0,0,0,0,-1,1392,953,0,0
175,71,0,0,0,0,0,0,0,0,0,-1,1399,953,0,0
182,71,0,0,0,0,0,0,0,0,0,-1,1406,953,0,0
189,71,0,0,0,0,0,0,0,0,0,-1,1413,953,0,0
196,71,0,0,0,0,0,0,0,0,0,-1,1420,953,0,0
203,71,0,0,0,0,0,0,0,0,0,-1,1427,953,0,0
210,71,0,0,0,0,0,0,0,0,0,-1,1434,953,0,0
217,71,0,0,0,0,0,0,0,0,0,-1,1441,953,0,0
224,71,0,0,0,0,0,0,0,0,0,-1,1448,953,0,0
231,71,0,0,0,0,0,0,0,0,0,-1,1455,953,0,0
238,71,0,0,0,0,0,0,0,0,0,-1,1462,953,0,0
245,71,0,0,0,0,0,0,0,0,0,-1,1469,953,0,0
252,71,0,0,0,0,0,0,0,0,0,-1,1476,953,0,0
259,71,0,0,0,0,0,0,0,0,0,-1,1483,953,0,0
266,71,0,0,0,0,0,0,0,0,0,-1,1490,953,0,0
273,71,0,0,0,0,0,0,0,0,0,-1,1497,953,0,0
280,71,0,0,0,0,0,0,0,0,0,-1,1504,953,0,0
287,71,0,0,0,0,0,0,0,0,0,-1,1511,953,0,0
294,71,0,0,0,0,0,0,0,0,0,-1,1518,953,0,0
301,71,0,0,0,0,0,0,0,0,0,-1,1525,953,0,0
308,71,0,0,0,0,0,0,0,0,0,-1,1532,953,0,0
315,71,0,0,0,0,0,0,0,0,0,-1,1539,953,0,0
322,71,0,0,0,0,0,0,0,0,0,-1,1546,953,0,0
329,71,0,0,0,0,0,0,0,0,0,-1,1553,953,0,0
336,71,0,0,0,0,0,0,0,0,0,-1,1560,953,0,0
343,71,0,0,0,0,0,0,0,0,0,-1,1567,953,0,0
350,71,0,0,0,0,0,0,0,0,0,-1,1574,953,0,0
357,71,0,0,0,0,0,0,0,0,0,-1,1581,953,0,0
364,71,0,0,0,0,0,0,0,0,0,-1,1588,953,0,0
371,71,0,0,0,0,0,0,0,0,0,-1,1595,953,0,0
378,71,0,0,0,0,0,0,0,0,0,-1,1602,953,0,0
385,71,0,0,0,0,0,0,0,0,0,-1,1609,953,0,0
392,71,0,0,0,0,0,0,0,0,0,-1,1616,953,0,0
399,71,0,0,0,0,0,0,0,0,0,-1,1623,953,0,0
406,71,0,0,0,0,0,0,0,0,0,-1,1630,953,0,0
413,71,0,0,0,0,0,0,0,0,0,-1,1637,953,0,0
420,71,0,0,0,0,0,0,0,0,0,-1,1644,953,0,0
427,71,0,0,0,0,0,0,0,0,0,-1,1651,953,0,0
434,71,0,0,0,0,0,0,0,0,0,-1,1658,953,0,0
441,71,0,0,0,0,0,0,0,0,0,-1,1665,953,0,0
448,71,0,0,0,0,0,0,0,0,0,-1,1672,953,0,0
455,71,0,0,0,0,0,0,0,0,0,-1,1679,953,0,0
462,71,0,0,0,0,0,0,0,0,0,-1,1686,953,0,0
469,71,0,0,0,0,0,0,0,0,0,-1,1693,953,0,0
476,71,0,0,0,0,0,0,0,0,0,-1,1700,953,0,0
483,71,0,0,0,0,0,0,0,0,0,-1,1707,953,0,0
490,71,0,0,0,0,0,0,0,0,0,-1,1714,953,0,0
497,71,0,0,0,0,0,0,0,0,0,-1,1721,953,0,0
504,71,0,0,0,0,0,0,0,0,0,-1,1728,953,0,0
511,71,0,0,0,0,0,0,0,0,0,-1,1735,953,0,0
518,71,0,0,0,0,0,0,0,0,0,-1,1742,953,0,0
525,71,0,0,0,0,0,0,0,0,0,-1,1749,953,0,0
532,71,0,0,0,0,0,0,0,0,0,-1,1756,953,0,0
539,71,0,0,0,0,0,0,0,0,0,-1,1763,953,0,0
546,71,0,0,0,0,0,0,0,0,0,-1,1770,953,0,0
553,71,0,0,0,0,0,0,0,0,0,-1,1777,953,0,0
560,71,0,0,0,0,0,0,0,0,0,-1,1784,953,0,0
567,71,0,0,0,0,0,0,0,0,0,-1,1791,953,0,0
574,71,0,0,0,0,0,0,0,0,0,-1,1798,953,0,0
581,71,0,0,0,0,0,0,0,0,0,-1,1805,953,0,0
588,71,0,0,0,0,0,0,0,0,0,-1,1812,953,0,0
595,71,0,0,0,0,0,0,0,0,0,-1,1819,953,0,0
602,71,0,0,0,0,0,0,0,0,0,-1,1826,953,0,0
609,71,0,0,0,0,0,0,0,0,0,-1,1833,953,0,0
616,71,0,0,0,0,0,0,0,0,0,-1,1840,953,0,0
623,71,0,0,0,0,0,0,0,0,0,-1,1847,953,0,0
630,71,0,0,0,0,0,0,0,0,0,-1,1854,953,0,0
637,71,30.5544,2.95496,0.00502948,0.00145723,-0.00496476,0.00851963,-0.00203292,-0.612726,0.00646483,0.0417224,1861,953,30.5545,-2.95493
644,71,30.6354,2.63971,0.00316675,0.0011188,-0.00359096,0.00587688,-0.00159133,-0.646508,0.00454225,0.0419234,1868,953,30.6354,-2.63971
651,71,30.6183,2.47009,0.00164101,0.000876288,-0.00233493,0.00362468,-0.00110738,-0.70424,0.00285801,0.0395561,1875,953,30.6182,-2.47012
658,71,30.6304,2.62769,0.000409764,0.00087372,-0.00106722,0.00173388,-0.000450399,-0.892417,0.00133169,0.0401505,1882,953,30.6303,-2.6277
665,71,30.5464,2.80475,-0.000611193,0.0009882,0.000273098,0.00103355,-0.000656539,1.40625,0.00098383,0.0405684,1889,953,30.5464,-2.80476
672,71,30.3237,2.90417,-0.00138358,0.00106039,0.00146568,0.00174667,-0.00206986,1.13289,0.00220611,0.0398992,1896,953,30.3238,-2.90418
679,71,30.489,2.80402,-0.00183058,0.00102228,0.00230687,0.0023081,-0.00311641,1.0623,0.00314341,0.0403724,1903,953,30.4891,-2.80402
686,71,30.5449,2.78986,-0.00198277,0.000896347,0.00274543,0.00255675,-0.00364317,1.02687,0.00359779,0.0372942,1910,953,30.545,-2.78986
693,71,30.5026,2.74115,-0.0020792,0.000771829,0.00297439,0.00264466,-0.00395204,1.00886,0.00383346,0.0328113,1917,953,30.5026,-2.74115
700,71,30.4615,2.78125,-0.00211899,0.000697547,0.00297674,0.00258233,-0.00400378,1.00634,0.0038319,0.0368577,1924,953,30.4616,-2.78123
707,71,30.4314,2.98663,0,0,0,0,0,0,0,-1,1931,953,30.4314,-2.98661
714,71,29.1089,3.93591,0,0,0,0,0,0,0,-1,1938,953,29.1088,-3.93591
721,71,28.9808,4.09912,-0.00199507,0.00106696,0.00216524,0.00218779,-0.00311589,1.09313,0.00307767,0.0345302,1945,953,28.9809,-4.09913
728,71,28.8959,4.34723,-0.00153433,0.00152615,0.002032,0.00253965,-0.00254784,1.10813,0.00293727,0.0198433,1952,953,28.8958,-4.3472
735,71,28.907,4.55878,-0.00086547,0.00235363,0.00201086,0.00331978,-0.00183162,1.1229,0.00301524,0.0140808,1959,953,28.907,-4.55878
742,71,28.9235,4.73553,-0.000210872,0.00333517,0.00190587,0.00416521,-0.00104092,1.16005,0.00318107,0.0140036,1966,953,28.9235,-4.73556
749,71,28.9109,4.90466,0.000410396,0.00455425,0.00125824,0.00490638,5.82668e-05,1.29792,0.00325167,0.0165401,1973,953,28.9108,-4.90467
756,71,28.8961,5.07867,0.00120547,0.00569532,0.000496097,0.00574948,0.00115131,1.46205,0.00351268,0.0169159,1980,953,28.8962,-5.07869
763,71,28.8552,5.24854,0.00230365,0.00738679,-8.41154e-05,0.00738818,0.00230225,-1.55425,0.00436532,0.0144411,1987,953,28.8552,-5.24854
770,71,28.7506,5.36676,0.00347976,0.00904464,-0.000954443,0.00920379,0.00332062,-1.40557,0.00538202,0.0175651,1994,953,28.7507,-5.36679
777,71,28.7073,5.54449,0.00462026,0.0103242,-0.0025898,0.0113246,0.00361985,-1.20217,0.00667853,0.0370094,2001,953,28.7072,-5.5445
784,71,29.2449,5.46399,0.0055839,0.0109422,-0.00543801,0.0143252,0.00220088,-1.01428,0.0089076,0.0458913,2008,953,29.2449,-5.46397
791,71,29.4934,5.40082,0,0,0,0,0,0,0,-1,2015,953,29.4934,-5.40083
798,71,29.447,4.97791,0.00627082,0.00854804,-0.0171871,0.0246342,-0.0098153,-0.818474,0.0204936,0.0446531,2022,953,29.447,-4.97788
805,71,29.3237,3.78064,0.00488695,0.00435774,-0.0277656,0.0323892,-0.0231445,-0.780633,0.0322102,0.046204,2029,953,29.3238,-3.78063
812,71,0,0,0,0,0,0,0,0,0,-1,2036,953,0,0
-700,64,0,0,0,0,0,0,0,0,0,-1,524,960,0,0
-693,64,0,0,0,0,0,0,0,0,0,-1,531,960,0,0
-686,64,-22.4788,6.52655,0,0,0,0,0,0,0,-1,538,960,-22.4788,-6.52655
-679,64,-21.2615,6.6936,0,0,0,0,0,0,0,-1,545,960,-21.2615,-6.6936
-672,64,-19.7795,7.41888,0,0,0,0,0,0,0,-1,552,960,-19.7795,-7.41891
-665,64,-18.1766,7.55786,0,0,0,0,0,0,0,-1,559,960,-18.1766,-7.55788
-658,64,-20.5831,2.70764,0,0,0,0,0,0,0,-1,566,960,-20.5831,-2.70765
-651,64,-20.7864,2.94263,0.0402156,-0.0150165,0.0101867,0.0420345,-0.0168354,0.176692,0.0350111,0.0434241,573,960,-20.7865,-2.94266
-644,64,-20.6466,2.92639,0.0247757,-0.0102808,0.00688591,0.0260797,-0.0115848,0.187162,0.0222759,0.0309908,580,960,-20.6466,-2.92639
-637,64,-20.6072,2.73212,0.0136839,-0.00771583,0.00529745,0.0149234,-0.0089554,0.229858,0.0139292,0.0154458,587,960,-20.6072,-2.73213
-630,64,-20.6433,2.61389,0.00377754,-0.0036671,0.00198142,0.00427205,-0.00416162,0.244579,0.00486932,0.0132264,594,960,-20.6433,-2.61392
-623,64,-20.6586,2.46417,-0.00275592,-0.000936656,-0.00027264,-0.000896676,-0.0027959,-1.42519,0.00164844,0.0129475,601,960,-20.6586,-2.46415
-616,64,-20.6725,2.27014,-0.00530279,0.000965911,-0.00110239,0.00115412,-0.005491,-1.4017,0.00409989,0.0155612,608,960,-20.6725,-2.27015
-609,64,-20.6516,2.15198,-0.00638336,0.00218233,-0.0016542,0.00249069,-0.00669171,-1.3865,0.00548329,0.0154918,615,960,-20.6516,-2.15195
-602,64,-20.6241,2.02002,-0.00650225,0.00241038,-0.00217378,0.0029123,-0.00700417,-1.34388,0.0058855,0.0163757,622,960,-20.6242,-2.02
-595,64,-20.6412,1.87665,-0.00631842,0.00212102,-0.00272515,0.00292449,-0.00712189,-1.28408,0.00596665,0.0171706,629,960,-20.6412,-1.87667
-588,64,-20.6522,1.79236,-0.00624867,0.00215388,-0.00319644,0.00323161,-0.0073264,-1.2456,0.00624662,0.0244131,636,960,-20.6522,-1.79235
-581,64,-20.852,1.53125,-0.00625665,0.00207192,-0.00345241,0.00331692,-0.00750166,-1.22469,0.00639997,0.0325123,643,960,-20.852,-1.53127
-574,64,-21.218,1.23755,-0.00602509,0.00214377,-0.00349888,0.00343751,-0.00731883,-1.21663,0.00634351,0.0349142,650,960,-21.2179,-1.23756
-567,64,-21.324,0.970398,-0.00558773,0.00218539,-0.00333658,0.00342115,-0.00682348,-1.21609,0.00602249,0.0244822,657,960,-21.324,-0.970394
-560,64,-21.3735,0.795288,-0.00474363,0.00219975,-0.0028341,0.00320967,-0.00575355,-1.22848,0.00524393,0.0327546,664,960,-21.3735,-0.79527
-553,64,-21.3824,0.631958,-0.0033676,0.00205164,-0.00201322,0.00271769,-0.00403364,-1.2513,0.00392249,0.0392668,671,960,-21.3825,-0.631976
-546,64,-21.3564,0.605103,-0.00147234,0.00162956,-0.000858809,0.00185146,-0.00169424,-1.31795,0.00204779,0.0408054,678,960,-21.3564,-0.605078
-539,64,-21.374,0.645203,0.000950403,0.00078622,0.000594488,0.00146844,0.000268183,0.716788,0.000902941,0.0436714,685,960,-21.3739,-0.645179
-532,64,-21.5012,0.637451,0.00371648,-0.000562946,0.00211663,0.0045865,-0.00143297,0.389988,0.00363084,0.0437374,692,960,-21.5011,-0.637464
-525,64,-21.4007,0.881897,0.00544918,-0.00238175,0.003359,0.00669257,-0.00362514,0.354525,0.00604405,0.0391331,699,960,-21.4007,-0.881907
-518,64,0,0,0,0,0,0,0,0,0,-1,706,960,0,0
-511,64,0,0,0,0,0,0,0,0,0,-1,713,960,0,0
-504,64,0,0,0,0,0,0,0,0,0,-1,720,960,0,0
-497,64,0,0,0,0,0,0,0,0,0,-1,727,960,0,0
-490,64,0,0,0,0,0,0,0,0,0,-1,734,960,0,0
-483,64,0,0,0,0,0,0,0,0,0,-1,741,960,0,0
-476,64,0,0,0,0,0,0,0,0,0,-1,748,960,0,0
-469,64,0,0,0,0,0,0,0,0,0,-1,755,960,0,0
-462,64,0,0,0,0,0,0,0,0,0,-1,762,960,0,0
-455,64,0,0,0,0,0,0,0,0,0,-1,769,960,0,0
-448,64,0,0,0,0,0,0,0,0,0,-1,776,960,0,0
-441,64,0,0,0,0,0,0,0,0,0,-1,783,960,0,0
-434,64,0,0,0,0,0,0,0,0,0,-1,790,960,0,0
-427,64,0,0,0,0,0,0,0,0,0,-1,797,960,0,0
-420,64,0,0,0,0,0,0,0,0,0,-1,804,960,0,0
-413,64,0,0,0,0,0,0,0,0,0,-1,811,960,0,0
-406,64,0,0,0,0,0,0,0,0,0,-1,818,960,0,0
-399,64,0,0,0,0,0,0,0,0,0,-1,825,960,0,0
-392,64,0,0,0,0,0,0,0,0,0,-1,832,960,0,0
-385,64,0,0,0,0,0,0,0,0,0,-1,839,960,0,0
-378,64,0,0,0,0,0,0,0,0,0,-1,846,960,0,0
-371,64,0,0,0,0,0,0,0,0,0,-1,853,960,0,0
-364,64,0,0,0,0,0,0,0,0,0,-1,860,960,0,0
-357,64,0,0,0,0,0,0,0,0,0,-1,867,960,0,0
-350,64,0,0,0,0,0,0,0,0,0,-1,874,960,0,0
-343,64,0,0,0,0,0,0,0,0,0,-1,881,960,0,0
-336,64,0,0,0,0,0,0,0,0,0,-1,888,960,0,0
-329,64,0,0,0,0,0,0,0,0,0,-1,895,960,0,0
-322,64,0,0,0,0,0,0,0,0,0,-1,902,960,0,0
-315,64,0,0,0,0,0,0,0,0,0,-1,909,960,0,0
-308,64,0,0,0,0,0,0,0,0,0,-1,916,960,0,0
-301,64,0,0,0,0,0,0,0,0,0,-1,923,960,0,0
-294,64,0,0,0,0,0,0,0,0,0,-1,930,960,0,0
-287,64,0,0,0,0,0,0,0,0,0,-1,937,960,0,0
-280,64,0,0,0,0,0,0,0,0,0,-1,944,960,0,0
-273,64,0,0,0,0,0,0,0,0,0,-1,951,960,0,0
-266,64,0,0,0,0,0,0,0,0,0,-1,958,960,0,0
-259,64,0,0,0,0,0,0,0,0,0,-1,965,960,0,0
-252,64,0,0,0,0,0,0,0,0,0,-1,972,960,0,0
-245,64,0,0,0,0,0,0,0,0,0,-1,979,960,0,0
-238,64,0,0,0,0,0,0,0,0,0,-1,986,960,0,0
-231,64,0,0,0,0,0,0,0,0,0,-1,993,960,0,0
-224,64,0,0,0,0,0,0,0,0,0,-1,1000,960,0,0
-217,64,0,0,0,0,0,0,0,0,0,-1,1007,960,0,0
-210,64,0,0,0,0,0,0,0,0,0,-1,1014,960,0,0
-203,64,0,0,0,0,0,0,0,0,0,-1,1021,960,0,0
-196,64,0,0,0,0,0,0,0,0,0,-1,1028,960,0,0
-189,64,0,0,0,0,0,0,0,0,0,-1,1035,960,0,0
-182,64,0,0,0,0,0,0,0,0,0,-1,1042,960,0,0
-175,64,0,0,0,0,0,0,0,0,0,-1,1049,960,0,0
-168,64,0,0,0,0,0,0,0,0,0,-1,1056,960,0,0
-161,64,0,0,0,0,0,0,0,0,0,-1,1063,960,0,0
-154,64,0,0,0,0,0,0,0,0,0,-1,1070,960,0,0
-147,64,0,0,0,0,0,0,0,0,0,-1,1077,960,0,0
-140,64,0,0,0,0,0,0,0,0,0,-1,1084,960,0,0
-133,64,0,0,0,0,0,0,0,0,0,-1,1091,960,0,0
-126,64,0,0,0,0,0,0,0,0,0,-1,1098,960,0,0
-119,64,0,0,0,0,0,0,0,0,0,-1,1105,960,0,0
-112,64,0,0,0,0,0,0,0,0,0,-1,1112,960,0,0
-105,64,0,0,0,0,0,0,0,0,0,-1,1119,960,0,0
-98,64,0,0,0,0,0,0,0,0,0,-1,1126,960,0,0
-91,64,0,0,0,0,0,0,0,0,0,-1,1133,960,0,0
-84,64,0,0,0,0,0,0,0,0,0,-1,1140,960,0,0
-77,64,0,0,0,0,0,0,0,0,0,-1,1147,960,0,0
-70,64,0,0,0,0,0,0,0,0,0,-1,1154,960,0,0
-63,64,0,0,0,0,0,0,0,0,0,-1,1161,960,0,0
-56,64,0,0,0,0,0,0,0,0,0,-1,1168,960,0,0
-49,64,0,0,0,0,0,0,0,0,0,-1,1175,960,0,0
-42,64,0,0,0,0,0,0,0,0,0,-1,1182,960,0,0
-35,64,0,0,0,0,0,0,0,0,0,-1,1189,960,0,0
-28,64,0,0,0,0,0,0,0,0,0,-1,1196,960,0,0
-21,64,0,0,0,0,0,0,0,0,0,-1,1203,960,0,0
-14,64,0,0,0,0,0,0,0,0,0,-1,1210,960,0,0
-7,64,0,0,0,0,0,0,0,0,0,-1,1217,960,0,0
0,64,0,0,0,0,0,0,0,0,0,-1,1224,960,0,0
7,64,0,0,0,0,0,0,0,0,0,-1,1231,960,0,0
14,64,0,0,0,0,0,0,0,0,0,-1,1238,960,0,0
21,64,0,0,0,0,0,0,0,0,0,-1,1245,960,0,0
28,64,0,0,0,0,0,0,0,0,0,-1,1252,960,0,0
35,64,0,0,0,0,0,0,0,0,0,-1,1259,960,0,0
42,64,0,0,0,0,0,0,0,0,0,-1,1266,960,0,0
49,64,0,0,0,0,0,0,0,0,0,-1,1273,960,0,0
56,64,0,0,0,0,0,0,0,0,0,-1,1280,960,0,0
63,64,0,0,0,0,0,0,0,0,0,-1,1287,960,0,0
70,64,0,0,0,0,0,0,0,0,0,-1,1294,960,0,0
77,64,0,0,0,0,0,0,0,0,0,-1,1301,960,0,0
84,64,0,0,0,0,0,0,0,0,0,-1,1308,960,0,0
91,64,0,0,0,0,0,0,0,0,0,-1,1315,960,0,0
98,64,0,0,0,0,0,0,0,0,0,-1,1322,960,0,0
105,64,0,0,0,0,0,0,0,0,0,-1,1329,960,0,0
112,64,0,0,0,0,0,0,0,0,0,-1,1336,960,0,0
119,64,0,0,0,0,0,0,0,0,0,-1,1343,960,0,0
126,64,0,0,0,0,0,0,0,0,0,-1,1350,960,0,0
133,64,0,0,0,0,0,0,0,0,0,-1,1357,960,0,0
140,64,0,0,0,0,0,0,0,0,0,-1,1364,960,0,0
147,64,0,0,0,0,0,0,0,0,0,-1,1371,960,0,0
154,64,0,0,0,0,0,0,0,0,0,-1,1378,960,0,0
161,64,0,0,0,0,0,0,0,0,0,-1,1385,960,0,0
168,64,0,0,0,0,0,0,0,0,0,-1,1392,960,0,0
175,64,0,0,0,0,0,0,0,0,0,-1,1399,960,0,0
182,64,0,0,0,0,0,0,0,0,0,-1,1406,960,0,0
189,64,0,0,0,0,0,0,0,0,0,-1,1413,960,0,0
196,64,0,0,0,0,0,0,0,0,0,-1,1420,960,0,0
203,64,0,0,0,0,0,0,0,0,0,-1,1427,960,0,0
210,64,0,0,0,0,0,0,0,0,0,-1,1434,960,0,0
217,64,0,0,0,0,0,0,0,0,0,-1,1441,960,0,0
224,64,0,0,0,0,0,0,0,0,0,-1,1448,960,0,0
231,64,0,0,0,0,0,0,0,0,0,-1,1455,960,0,0
238,64,0,0,0,0,0,0,0,0,0,-1,1462,960,0,0
245,64,0,0,0,0,0,0,0,0,0,-1,1469,960,0,0
252,64,0,0,0,0,0,0,0,0,0,-1,1476,960,0,0
259,64,0,0,0,0,0,0,0,0,0,-1,1483,960,0,0
266,64,0,0,0,0,0,0,0,0,0,-1,1490,960,0,0
273,64,0,0,0,0,0,0,0,0,0,-1,1497,960,0,0
280,64,0,0,0,0,0,0,0,0,0,-1,1504,960,0,0
287,64,0,0,0,0,0,0,0,0,0,-1,1511,960,0,0
294,64,0,0,0,0,0,0,0,0,0,-1,1518,960,0,0
301,64,0,0,0,0,0,0,0,0,0,-1,1525,960,0,0
308,64,0,0,0,0,0,0,0,0,0,-1,1532,960,0,0
315,64,0,0,0,0,0,0,0,0,0,-1,1539,960,0,0
322,64,0,0,0,0,0,0,0,0,0,-1,1546,960,0,0
329,64,0,0,0,0,0,0,0,0,0,-1,1553,960,0,0
336,64,0,0,0,0,0,0,0,0,0,-1,1560,960,0,0
343,64,0,0,0,0,0,0,0,0,0,-1,1567,960,0,0
350,64,0,0,0,0,0,0,0,0,0,-1,1574,960,0,0
357,64,0,0,0,0,0,0,0,0,0,-1,1581,960,0,0
364,64,0,0,0,0,0,0,0,0,0,-1,1588,960,0,0
371,64,0,0,0,0,0,0,0,0,0,-1,1595,960,0,0
378,64,0,0,0,0,0,0,0,0,0,-1,1602,960,0,0
385,64,0,0,0,0,0,0,0,0,0,-1,1609,960,0,0
392,64,0,0,0,0,0,0,0,0,0,-1,1616,960,0,0
399,64,0,0,0,0,0,0,0,0,0,-1,1623,960,0,0
406,64,0,0,0,0,0,0,0,0,0,-1,1630,960,0,0
413,64,0,0,0,0,0,0,0,0,0,-1,1637,960,0,0
420,64,0,0,0,0,0,0,0,0,0,-1,1644,960,0,0
427,64,0,0,0,0,0,0,0,0,0,-1,1651,960,0,0
434,64,0,0,0,0,0,0,0,0,0,-1,1658,960,0,0
441,64,0,0,0,0,0,0,0,0,0,-1,1665,960,0,0
448,64,0,0,0,0,0,0,0,0,0,-1,1672,960,0,0
455,64,0,0,0,0,0,0,0,0,0,-1,1679,960,0,0
462,64,0,0,0,0,0,0,0,0,0,-1,1686,960,0,0
469,64,0,0,0,0,0,0,0,0,0,-1,1693,960,0,0
476,64,0,0,0,0,0,0,0,0,0,-1,1700,960,0,0
483,64,0,0,0,0,0,0,0,0,0,-1,1707,960,0,0
490,64,0,0,0,0,0,0,0,0,0,-1,1714,960,0,0
497,64,0,0,0,0,0,0,0,0,0,-1,1721,960,0,0
504,64,0,0,0,0,0,0,0,0,0,-1,1728,960,0,0
511,64,0,0,0,0,0,0,0,0,0,-1,1735,960,0,0
518,64,0,0,0,0,0,0,0,0,0,-1,1742,960,0,0
525,64,0,0,0,0,0,0,0,0,0,-1,1749,960,0,0
532,64,0,0,0,0,0,0,0,0,0,-1,1756,960,0,0
539,64,0,0,0,0,0,0,0,0,0,-1,1763,960,0,0
546,64,0,0,0,0,0,0,0,0,0,-1,1770,960,0,0
553,64,0,0,0,0,0,0,0,0,0,-1,1777,960,0,0
560,64,0,0,0,0,0,0,0,0,0,-1,1784,960,0,0
567,64,0,0,0,0,0,0,0,0,0,-1,1791,960,0,0
574,64,0,0,0,0,0,0,0,0,0,-1,1798,960,0,0
581,64,0,0,0,0,0,0,0,0,0,-1,1805,960,0,0
588,64,0,0,0,0,0,0,0,0,0,-1,1812,960,0,0
595,64,0,0,0,0,0,0,0,0,0,-1,1819,960,0,0
602,64,0,0,0,0,0,0,0,0,0,-1,1826,960,0,0
609,64,0,0,0,0,0,0,0,0,0,-1,1833,960,0,0
616,64,0,0,0,0,0,0,0,0,0,-1,1840,960,0,0
623,64,0,0,0,0,0,0,0,0,0,-1,1847,960,0,0
630,64,0,0,0,0,0,0,0,0,0,-1,1854,960,0,0
637,64,0,0,0,0,0,0,0,0,0,-1,1861,960,0,0
644,64,30.6222,2.69727,0.00370556,4.38342e-05,-0.00291155,0.00531406,-0.00156466,-0.504725,0.00416344,0.0408255,1868,960,30.6222,-2.69726
651,64,30.6584,2.63452,0.00205751,2.20053e-07,-0.00176864,0.00307488,-0.00101716,-0.522007,0.0024601,0.0390651,1875,960,30.6584,-2.63455
658,64,30.6526,2.67609,0.000757465,0.000130195,-0.00063873,0.00115541,-0.000267748,-0.557176,0.000873312,0.0382889,1882,960,30.6526,-2.6761
665,64,30.6149,2.76099,-0.000348054,0.00041204,0.000617815,0.000757342,-0.000693355,1.06114,0.000837832,0.0417394,1889,960,30.6148,-2.761
672,64,30.5255,2.94751,-0.00121937,0.00066427,0.00178955,0.0017447,-0.0022998,1.02763,0.00234241,0.0431709,1896,960,30.5255,-2.94749
679,64,30.4896,2.91583,-0.00176927,0.000776895,0.00264532,0.00243953,-0.00343191,1.00967,0.00340598,0.0404876,1903,960,30.4896,-2.91584
686,64,30.4595,2.82819,-0.00199678,0.000773521,0.00311465,0.00279714,-0.00402039,0.994626,0.00395717,0.0352829,1910,960,30.4595,-2.82819
693,64,30.4648,2.76202,-0.00212439,0.000728199,0.00334448,0.00293782,-0.00433401,0.986952,0.00422411,0.0332154,1917,960,30.4649,-2.762
700,64,30.5065,2.81903,-0.00218848,0.00072502,0.0033141,0.0028884,-0.00435186,0.992468,0.00420854,0.0332334,1924,960,30.5064,-2.81905
707,64,30.379,3.20453,-0.002218,0.000822322,0.00306477,0.00272323,-0.00411891,1.01562,0.00397761,0.0433534,1931,960,30.379,-3.20451
714,64,30.2063,3.89795,0,0,0,0,0,0,0,-1,1938,960,30.2063,-3.89795
721,64,29.0793,4.17352,0,0,0,0,0,0,0,-1,1945,960,29.0794,-4.17351
728,64,29.0347,4.39685,-0.00181128,0.00171282,0.00221362,0.00278007,-0.00287854,1.12155,0.00326716,0.0152348,1952,960,29.0347,-4.39686
735,64,29.0488,4.59393,-0.00119655,0.00253662,0.00209335,0.00347472,-0.00213465,1.1495,0.00326923,0.0195248,1959,960,29.0488,-4.5939
742,64,29.1107,4.7406,-0.000641259,0.00345368,0.00182813,0.00415106,-0.00133864,1.20637,0.00330521,0.0176315,1966,960,29.1108,-4.74063
749,64,29.0922,4.90863,-0.000105201,0.00455605,0.00100129,0.00476203,-0.000311186,1.36791,0.00328334,0.0144619,1973,960,29.0921,-4.90865
756,64,29.0754,5.08301,0.000598211,0.00547257,3.33166e-05,0.00547279,0.000597984,1.56396,0.00346644,0.0148579,1980,960,29.0754,-5.08301
763,64,29.0621,5.25696,0.00162478,0.00687998,-0.000847799,0.00701336,0.00149139,-1.41474,0.00426624,0.0142104,1987,960,29.0621,-5.25696
770,64,28.9645,5.37555,0.0027601,0.00824094,-0.00199698,0.00889137,0.00210967,-1.25593,0.00536446,0.0148397,1994,960,28.9645,-5.37552
777,64,28.9126,5.57849,0.00389917,0.0091444,-0.00383387,0.0111669,0.00187672,-1.08537,0.00690455,0.0315028,2001,960,28.9126,-5.5785
784,64,29.0437,6.05292,0.00490793,0.00928588,-0.00678156,0.014223,-2.91876e-05,-0.941511,0.00949174,0.0449796,2008,960,29.0437,-6.05293
791,64,29.1224,6.53546,0,0,0,0,0,0,0,-1,2015,960,29.1224,-6.53547
798,64,29.4165,5.34387,0,0,0,0,0,0,0,-1,2022,960,29.4166,-5.34388
805,64,29.1948,4.70667,0,0,0,0,0,0,0,-1,2029,960,29.1948,-4.70667
812,64,0,0,0,0,0,0,0,0,0,-1,2036,960,0,0
-700,57,0,0,0,0,0,0,0,0,0,-1,524,967,0,0
-693,57,0,0,0,0,0,0,0,0,0,-1,531,967,0,0
-686,57,-22.6902,6.03009,0,0,0,0,0,0,0,-1,538,967,-22.6902,-6.03007
-679,57,-21.8752,6.61066,0,0,0,0,0,0,0,-1,545,967,-21.8752,-6.61067
-672,57,-21.0601,7.19128,0,0,0,0,0,0,0,-1,552,967,-21.0601,-7.19127
-665,57,-21.3436,2.69263,0,0,0,0,0,0,0,-1,559,967,-21.3436,-2.69265
-658,57,-20.9365,2.80768,0,0,0,0,0,0,0,-1,566,967,-20.9365,-2.80766
-651,57,-20.9138,2.7392,0.0365347,-0.0108835,0.00833969,0.0379586,-0.0123075,0.169117,0.0302545,0.0464584,573,967,-20.9138,-2.73917
-644,57,-20.8447,2.6795,0.0222935,-0.00714327,0.00549642,0.0232863,-0.00813607,0.178701,0.0188315,0.0301976,580,967,-20.8446,-2.67951
-637,57,-20.7607,2.6449,0.0120623,-0.0056455,0.00438179,0.0130873,-0.00667044,0.229779,0.0116059,0.0169903,587,967,-20.7607,-2.64487
-630,57,-20.8235,2.55579,0.00292998,-0.00216139,0.00104325,0.00313545,-0.00236687,0.194468,0.00318708,0.0133333,594,967,-20.8235,-2.5558
-623,57,-20.8224,2.448,-0.00311079,0.000285896,-0.00109034,0.000605774,-0.00343067,-1.28543,0.00251349,0.011732,601,967,-20.8224,-2.44802
-616,57,-20.8091,2.29028,-0.00511763,0.00182124,-0.00179192,0.00225667,-0.00555306,-1.33242,0.0046409,0.0137465,608,967,-20.8091,-2.29027
-609,57,-20.809,2.12933,-0.0058924,0.00267527,-0.00235606,0.00328043,-0.00649756,-1.31938,0.00574627,0.0143536,615,967,-20.809,-2.12935
-602,57,-20.7975,2.01599,-0.00591737,0.00269505,-0.00295011,0.00360866,-0.00683099,-1.27047,0.00612229,0.0116174,622,967,-20.7975,-2.01598
-595,57,-20.7968,1.90417,-0.00576994,0.00238775,-0.00351441,0.00369296,-0.00707515,-1.2152,0.00631837,0.0125417,629,967,-20.7967,-1.90417
-588,57,-20.8325,1.83777,-0.00571294,0.00231763,-0.00395624,0.00393922,-0.00733453,-1.1818,0.00660656,0.0181277,636,967,-20.8325,-1.83774
-581,57,-21.0331,1.49939,-0.00567301,0.00209484,-0.00415835,0.00390097,-0.00747914,-1.16104,0.00667769,0.0274006,643,967,-21.0331,-1.49938
-574,57,-21.2695,1.1228,-0.00540449,0.00204182,-0.00415042,0.00389431,-0.00725698,-1.15099,0.00653505,0.0296122,650,967,-21.2695,-1.1228
-567,57,-21.3143,0.8125,-0.00491429,0.00191763,-0.00385917,0.0036555,-0.00665216,-1.14767,0.00603438,0.0311859,657,967,-21.3144,-0.812509
-560,57,-21.2927,0.529175,-0.00399756,0.00171777,-0.00319599,0.00314736,-0.00542716,-1.15018,0.00500849,0.0389394,664,967,-21.2927,-0.529198
-553,57,-21.2487,0.507996,-0.0025485,0.00130403,-0.00217834,0.00228563,-0.0035301,-1.14743,0.00338324,0.0409918,671,967,-21.2487,-0.508019
-546,57,-21.3579,0.645691,-0.000560113,0.000567773,-0.000807517,0.000988774,-0.000981114,-1.09021,0.00113732,0.0406188,678,967,-21.3579,-0.645678
-539,57,-21.436,0.6828,0.0019963,-0.000630682,0.00084605,0.0022452,-0.000879581,0.286117,0.00186063,0.041974,685,967,-21.436,-0.682813
-532,57,-21.4853,0.712585,0.00487424,-0.00230856,0.00244695,0.00562861,-0.00306293,0.299045,0.00509042,0.0408001,692,967,-21.4853,-0.71258
-525,57,-21.4212,0.947327,0.00666867,-0.00438246,0.00362027,0.00774903,-0.00546282,0.290006,0.00766584,0.0384778,699,967,-21.4212,-0.947315
-518,57,0,0,0,0,0,0,0,0,0,-1,706,967,0,0
-511,57,0,0,0,0,0,0,0,0,0,-1,713,967,0,0
-504,57,0,0,0,0,0,0,0,0,0,-1,720,967,0,0
-497,57,0,0,0,0,0,0,0,0,0,-1,727,967,0,0
-490,57,0,0,0,0,0,0,0,0,0,-1,734,967,0,0
-483,57,0,0,0,0,0,0,0,0,0,-1,741,967,0,0
-476,57,0,0,0,0,0,0,0,0,0,-1,748,967,0,0
-469,57,0,0,0,0,0,0,0,0,0,-1,755,967,0,0
-462,57,0,0,0,0,0,0,0,0,0,-1,762,967,0,0
-455,57,0,0,0,0,0,0,0,0,0,-1,769,967,0,0
-448,57,0,0,0,0,0,0,0,0,0,-1,776,967,0,0
-441,57,0,0,0,0,0,0,0,0,0,-1,783,967,0,0
-434,57,0,0,0,0,0,0,0,0,0,-1,790,967,0,0
-427,57,0,0,0,0,0,0,0,0,0,-1,797,967,0,0
-420,57,0,0,0,0,0,0,0,0,0,-1,804,967,0,0
-413,57,0,0,0,0,0,0,0,0,0,-1,811,967,0,0
-406,57,0,0,0,0,0,0,0,0,0,-1,818,967,0,0
-399,57,0,0,0,0,0,0,0,0,0,-1,825,967,0,0
-392,57,0,0,0,0,0,0,0,0,0,-1,832,967,0,0
-385,57,0,0,0,0,0,0,0,0,0,-1,839,967,0,0
-378,57,0,0,0,0,0,0,0,0,0,-1,846,967,0,0
-371,57,0,0,0,0,0,0,0,0,0,-1,853,967,0,0
-364,57,0,0,0,0,0,0,0,0,0,-1,860,967,0,0
-357,57,0,0,0,0,0,0,0,0,0,-1,867,967,0,0
-350,57,0,0,0,0,0,0,0,0,0,-1,874,967,0,0
-343,57,0,0,0,0,0,0,0,0,0,-1,881,967,0,0
-336,57,0,0,0,0,0,0,0,0,0,-1,888,967,0,0
-329,57,0,0,0,0,0,0,0,0,0,-1,895,967,0,0
-322,57,0,0,0,0,0,0,0,0,0,-1,902,967,0,0
-315,57,0,0,0,0,0,0,0,0,0,-1,909,967,0,0
-308,57,0,0,0,0,0,0,0,0,0,-1,916,967,0,0
-301,57,0,0,0,0,0,0,0,0,0,-1,923,967,0,0
-294,57,0,0,0,0,0,0,0,0,0,-1,930,967,0,0
-287,57,0,0,0,0,0,0,0,0,0,-1,937,967,0,0
-280,57,0,0,0,0,0,0,0,0,0,-1,944,967,0,0
-273,57,0,0,0,0,0,0,0,0,0,-1,951,967,0,0
-266,57,0,0,0,0,0,0,0,0,0,-1,958,967,0,0
-259,57,0,0,0,0,0,0,0,0,0,-1,965,967,0,0
-252,57,0,0,0,0,0,0,0,0,0,-1,972,967,0,0
-245,57,0,0,0,0,0,0,0,0,0,-1,979,967,0,0
-238,57,0,0,0,0,0,0,0,0,0,-1,986,967,0,0
-231,57,0,0,0,0,0,0,0,0,0,-1,993,967,0,0
-224,57,0,0,0,0,0,0,0,0,0,-1,1000,967,0,0
-217,57,0,0,0,0,0,0,0,0,0,-1,1007,967,0,0
-210,57,0,0,0,0,0,0,0,0,0,-1,1014,967,0,0
-203,57,0,0,0,0,0,0,0,0,0,-1,1021,967,0,0
-196,57,0,0,0,0,0,0,0,0,0,-1,1028,967,0,0
-189,57,0,0,0,0,0,0,0,0,0,-1,1035,967,0,0
-182,57,0,0,0,0,0,0,0,0,0,-1,1042,967,0,0
-175,57,0,0,0,0,0,0,0,0,0,-1,1049,967,0,0
-168,57,0,0,0,0,0,0,0,0,0,-1,1056,967,0,0
-161,57,0,0,0,0,0,0,0,0,0,-1,1063,967,0,0
-154,57,0,0,0,0,0,0,0,0,0,-1,1070,967,0,0
-147,57,0,0,0,0,0,0,0,0,0,-1,1077,967,0,0
-140,57,0,0,0,0,0,0,0,0,0,-1,1084,967,0,0
-133,57,0,0,0,0,0,0,0,0,0,-1,1091,967,0,0
-126,57,0,0,0,0,0,0,0,0,0,-1,1098,967,0,0
-119,57,0,0,0,0,0,0,0,0,0,-1,1105,967,0,0
-112,57,0,0,0,0,0,0,0,0,0,-1,1112,967,0,0
-105,57,0,0,0,0,0,0,0,0,0,-1,1119,967,0,0
-98,57,0,0,0,0,0,0,0,0,0,-1,1126,967,0,0
-91,57,0,0,0,0,0,0,0,0,0,-1,1133,967,0,0
-84,57,0,0,0,0,0,0,0,0,0,-1,1140,967,0,0
-77,57,0,0,0,0,0,0,0,0,0,-1,1147,967,0,0
-70,57,0,0,0,0,0,0,0,0,0,-1,1154,967,0,0
-63,57,0,0,0,0,0,0,0,0,0,-1,1161,967,0,0
-56,57,0,0,0,0,0,0,0,0,0,-1,1168,967,0,0
-49,57,0,0,0,0,0,0,0,0,0,-1,1175,967,0,0
-42,57,0,0,0,0,0,0,0,0,0,-1,1182,967,0,0
-35,57,0,0,0,0,0,0,0,0,0,-1,1189,967,0,0
-28,57,0,0,0,0,0,0,0,0,0,-1,1196,967,0,0
-21,57,0,0,0,0,0,0,0,0,0,-1,1203,967,0,0
-14,57,0,0,0,0,0,0,0,0,0,-1,1210,967,0,0
-7,57,0,0,0,0,0,0,0,0,0,-1,1217,967,0,0
0,57,0,0,0,0,0,0,0,0,0,-1,1224,967,0,0
7,57,0,0,0,0,0,0,0,0,0,-1,1231,967,0,0
14,57,0,0,0,0,0,0,0,0,0,-1,1238,967,0,0
21,57,0,0,0,0,0,0,0,0,0,-1,1245,967,0,0
28,57,0,0,0,0,0,0,0,0,0,-1,1252,967,0,0
35,57,0,0,0,0,0,0,0,0,0,-1,1259,967,0,0
42,57,0,0,0,0,0,0,0,0,0,-1,1266,967,0,0
49,57,0,0,0,0,0,0,0,0,0,-1,1273,967,0,0
56,57,0,0,0,0,0,0,0,0,0,-1,1280,967,0,0
63,57,0,0,0,0,0,0,0,0,0,-1,1287,967,0,0
70,57,0,0,0,0,0,0,0,0,0,-1,1294,967,0,0
77,57,0,0,0,0,0,0,0,0,0,-1,1301,967,0,0
84,57,0,0,0,0,0,0,0,0,0,-1,1308,967,0,0
91,57,0,0,0,0,0,0,0,0,0,-1,1315,967,0,0
98,57,0,0,0,0,0,0,0,0,0,-1,1322,967,0,0
105,57,0,0,0,0,0,0,0,0,0,-1,1329,967,0,0
112,57,0,0,0,0,0,0,0,0,0,-1,1336,967,0,0
119,57,0,0,0,0,0,0,0,0,0,-1,1343,967,0,0
126,57,0,0,0,0,0,0,0,0,0,-1,1350,967,0,0
133,57,0,0,0,0,0,0,0,0,0,-1,1357,967,0,0
140,57,0,0,0,0,0,0,0,0,0,-1,1364,967,0,0
147,57,0,0,0,0,0,0,0,0,0,-1,1371,967,0,0
154,57,0,0,0,0,0,0,0,0,0,-1,1378,967,0,0
161,57,0,0,0,0,0,0,0,0,0,-1,1385,967,0,0
168,57,0,0,0,0,0,0,0,0,0,-1,1392,967,0,0
175,57,0,0,0,0,0,0,0,0,0,-1,1399,967,0,0
182,57,0,0,0,0,0,0,0,0,0,-1,1406,967,0,0
189,57,0,0,0,0,0,0,0,0,0,-1,1413,967,0,0
196,57,0,0,0,0,0,0,0,0,0,-1,1420,967,0,0
203,57,0,0,0,0,0,0,0,0,0,-1,1427,967,0,0
210,57,0,0,0,0,0,0,0,0,0,-1,1434,967,0,0
217,57,0,0,0,0,0,0,0,0,0,-1,1441,967,0,0
224,57,0,0,0,0,0,0,0,0,0,-1,1448,967,0,0
231,57,0,0,0,0,0,0,0,0,0,-1,1455,967,0,0
238,57,0,0,0,0,0,0,0,0,0,-1,1462,967,0,0
245,57,0,0,0,0,0,0,0,0,0,-1,1469,967,0,0
252,57,0,0,0,0,0,0,0,0,0,-1,1476,967,0,0
259,57,0,0,0,0,0,0,0,0,0,-1,1483,967,0,0
266,57,0,0,0,0,0,0,0,0,0,-1,1490,967,0,0
273,57,0,0,0,0,0,0,0,0,0,-1,1497,967,0,0
280,57,0,0,0,0,0,0,0,0,0,-1,1504,967,0,0
287,57,0,0,0,0,0,0,0,0,0,-1,1511,967,0,0
294,57,0,0,0,0,0,0,0,0,0,-1,1518,967,0,0
301,57,0,0,0,0,0,0,0,0,0,-1,1525,967,0,0
308,57,0,0,0,0,0,0,0,0,0,-1,1532,967,0,0
315,57,0,0,0,0,0,0,0,0,0,-1,1539,967,0,0
322,57,0,0,0,0,0,0,0,0,0,-1,1546,967,0,0
329,57,0,0,0,0,0,0,0,0,0,-1,1553,967,0,0
336,57,0,0,0,0,0,0,0,0,0,-1,1560,967,0,0
343,57,0,0,0,0,0,0,0,0,0,-1,1567,967,0,0
350,57,0,0,0,0,0,0,0,0,0,-1,1574,967,0,0
357,57,0,0,0,0,0,0,0,0,0,-1,1581,967,0,0
364,57,0,0,0,0,0,0,0,0,0,-1,1588,967,0,0
371,57,0,0,0,0,0,0,0,0,0,-1,1595,967,0,0
378,57,0,0,0,0,0,0,0,0,0,-1,1602,967,0,0
385,57,0,0,0,0,0,0,0,0,0,-1,1609,967,0,0
392,57,0,0,0,0,0,0,0,0,0,-1,1616,967,0,0
399,57,0,0,0,0,0,0,0,0,0,-1,1623,967,0,0
406,57,0,0,0,0,0,0,0,0,0,-1,1630,967,0,0
413,57,0,0,0,0,0,0,0,0,0,-1,1637,967,0,0
420,57,0,0,0,0,0,0,0,0,0,-1,1644,967,0,0
427,57,0,0,0,0,0,0,0,0,0,-1,1651,967,0,0
434,57,0,0,0,0,0,0,0,0,0,-1,1658,967,0,0
441,57,0,0,0,0,0,0,0,0,0,-1,1665,967,0,0
448,57,0,0,0,0,0,0,0,0,0,-1,1672,967,0,0
455,57,0,0,0,0,0,0,0,0,0,-1,1679,967,0,0
462,57,0,0,0,0,0,0,0,0,0,-1,1686,967,0,0
469,57,0,0,0,0,0,0,0,0,0,-1,1693,967,0,0
476,57,0,0,0,0,0,0,0,0,0,-1,1700,967,0,0
483,57,0,0,0,0,0,0,0,0,0,-1,1707,967,0,0
490,57,0,0,0,0,0,0,0,0,0,-1,1714,967,0,0
497,57,0,0,0,0,0,0,0,0,0,-1,1721,967,0,0
504,57,0,0,0,0,0,0,0,0,0,-1,1728,967,0,0
511,57,0,0,0,0,0,0,0,0,0,-1,1735,967,0,0
518,57,0,0,0,0,0,0,0,0,0,-1,1742,967,0,0
525,57,0,0,0,0,0,0,0,0,0,-1,1749,967,0,0
532,57,0,0,0,0,0,0,0,0,0,-1,1756,967,0,0
539,57,0,0,0,0,0,0,0,0,0,-1,1763,967,0,0
546,57,0,0,0,0,0,0,0,0,0,-1,1770,967,0,0
553,57,0,0,0,0,0,0,0,0,0,-1,1777,967,0,0
560,57,0,0,0,0,0,0,0,0,0,-1,1784,967,0,0
567,57,0,0,0,0,0,0,0,0,0,-1,1791,967,0,0
574,57,0,0,0,0,0,0,0,0,0,-1,1798,967,0,0
581,57,0,0,0,0,0,0,0,0,0,-1,1805,967,0,0
588,57,0,0,0,0,0,0,0,0,0,-1,1812,967,0,0
595,57,0,0,0,0,0,0,0,0,0,-1,1819,967,0,0
602,57,0,0,0,0,0,0,0,0,0,-1,1826,967,0,0
609,57,0,0,0,0,0,0,0,0,0,-1,1833,967,0,0
616,57,0,0,0,0,0,0,0,0,0,-1,1840,967,0,0
623,57,0,0,0,0,0,0,0,0,0,-1,1847,967,0,0
630,57,0,0,0,0,0,0,0,0,0,-1,1854,967,0,0
637,57,0,0,0,0,0,0,0,0,0,-1,1861,967,0,0
644,57,30.6459,2.65027,0.00409225,-0.000816075,-0.0027254,0.00530561,-0.00202943,-0.418858,0.00437343,0.0412282,1868,967,30.6458,-2.65028
651,57,30.6267,2.75085,0.00244821,-0.000781615,-0.00164831,0.00314086,-0.00147427,-0.397816,0.00272184,0.0355691,1875,967,30.6267,-2.75085
658,57,30.5426,2.78284,0.00114899,-0.000621917,-0.000607263,0.00133722,-0.000810147,-0.300573,0.00125217,0.0353026,1882,967,30.5425,-2.78286
665,57,30.5981,2.53833,3.77647e-05,-0.000299109,0.0005922,0.000485016,-0.00074636,0.646844,0.000716253,0.0430715,1889,967,30.5982,-2.53835
672,57,30.6456,2.74243,-0.000867922,2.06137e-05,0.00176044,0.00139198,-0.00223929,0.908999,0.00211545,0.043092,1896,967,30.6456,-2.74246
679,57,30.4663,2.86359,-0.00148925,0.000215208,0.00265036,0.00214698,-0.00342102,0.940953,0.00324262,0.041418,1903,967,30.4663,-2.8636
686,57,30.309,2.90759,-0.00177072,0.000290977,0.00317169,0.00259514,-0.00407488,0.942521,0.0038824,0.0384971,1910,967,30.309,-2.90757
693,57,30.3635,2.75092,-0.00192555,0.000319523,0.00343374,0.00280956,-0.00441559,0.943379,0.00420565,0.0351708,1917,967,30.3635,-2.75092
700,57,30.4604,2.83356,-0.00203143,0.000392354,0.00341034,0.00279973,-0.00443881,0.956118,0.00421473,0.0282035,1924,967,30.4605,-2.83354
707,57,30.3853,3.24213,-0.00211954,0.000548424,0.00317323,0.00265666,-0.00422778,0.984377,0.00400908,0.0460776,1931,967,30.3853,-3.2421
714,57,30.2587,3.83221,0,0,0,0,0,0,0,-1,1938,967,30.2586,-3.8322
721,57,29.286,4.24115,0,0,0,0,0,0,0,-1,1945,967,29.286,-4.24116
728,57,29.2102,4.44989,-0.00195861,0.00159547,0.00231139,0.00273397,-0.00309712,1.11312,0.00336876,0.0199373,1952,967,29.2102,-4.44989
735,57,29.2621,4.63763,-0.00143375,0.00243778,0.00210386,0.00336094,-0.00235691,1.1573,0.00331812,0.0230484,1959,967,29.262,-4.63765
742,57,29.3009,4.73456,-0.0010164,0.0033127,0.00169217,0.00389564,-0.00159934,1.23904,0.00326356,0.0177714,1966,967,29.301,-4.73455
749,57,29.2689,4.91132,-0.000614354,0.00435585,0.000732542,0.00446157,-0.000720072,1.42747,0.00324118,0.014348,1973,967,29.2689,-4.91129
756,57,29.2288,5.05328,-4.8294e-05,0.00512344,-0.000368141,0.00514952,-7.43682e-05,-1.50009,0.00345807,0.0119267,1980,967,29.2288,-5.0533
763,57,29.2034,5.18799,0.000829385,0.00631293,-0.00148694,0.00669018,0.000452133,-1.32233,0.00431731,0.0123412,1987,967,29.2034,-5.18796
770,57,29.1868,5.31873,0.00185284,0.0074515,-0.00286837,0.00866013,0.000644199,-1.17201,0.00557112,0.0113592,1994,967,29.1868,-5.31872
777,57,29.1433,5.50977,0.00291921,0.00809938,-0.00484735,0.0110052,1.33533e-05,-1.03076,0.00733238,0.026603,2001,967,29.1434,-5.50977
784,57,29.3817,6.25452,0.00388982,0.00796681,-0.00780553,0.0139956,-0.00213901,-0.913126,0.0101191,0.044054,2008,967,29.3817,-6.25453
791,57,29.2052,5.6073,0,0,0,0,0,0,0,-1,2015,967,29.2052,-5.6073
798,57,29.4707,5.4455,0.00527733,0.00383125,-0.018314,0.0228826,-0.013774,-0.765668,0.0213803,0.0489262,2022,967,29.4707,-5.44549
805,57,29.3071,5.03107,0.00492173,-0.0012147,-0.0269584,0.028986,-0.025279,-0.728736,0.0313543,0.0468519,2029,967,29.3071,-5.03107
812,57,0,0,0,0,0,0,0,0,0,-1,2036,967,0,0
-700,50,0,0,0,0,0,0,0,0,0,-1,524,974,0,0
-693,50,-23.798,4.74896,0,0,0,0,0,0,0,-1,531,974,-23.798,-4.74898
-686,50,-23.1488,5.74756,0.157021,-0.00503478,0.0282355,0.161799,-0.00981344,0.167654,0.111282,0.0440454,538,974,-23.1488,-5.74755
-679,50,-22.4568,6.83167,0.122812,-0.0105697,0.0235524,0.126848,-0.0146064,0.169743,0.0898311,0.0469949,545,974,-22.4568,-6.83169
-672,50,-21.6059,7.46564,0,0,0,0,0,0,0,-1,552,974,-21.6059,-7.46562
-665,50,-22.1888,2.229,0,0,0,0,0,0,0,-1,559,974,-22.1889,-2.22902
-658,50,-20.9805,2.82275,0,0,0,0,0,0,0,-1,566,974,-20.9805,-2.82274
-651,50,-20.9462,2.73206,0.0316776,-0.00599004,0.00717478,0.0329979,-0.00731039,0.18199,0.0247972,0.0459186,573,974,-20.9462,-2.73207
-644,50,-20.8781,2.63531,0.01934,-0.0035221,0.00466977,0.0202571,-0.00443915,0.193913,0.015202,0.027367,580,974,-20.8781,-2.63531
-637,50,-20.9179,2.58459,0.0104928,-0.00320172,0.00386017,0.0115059,-0.00421486,0.256671,0.00939613,0.0155828,587,974,-20.9179,-2.58462
-630,50,-20.9535,2.50189,0.00240942,-0.000449548,0.000469907,0.00248467,-0.000524802,0.158799,0.00185628,0.0109494,594,974,-20.9535,-2.50186
-623,50,-20.9492,2.41467,-0.00308566,0.00150169,-0.00170713,0.00206725,-0.00365122,-1.25088,0.00334351,0.0110238,601,974,-20.9491,-2.41467
-616,50,-20.9395,2.31281,-0.0046131,0.00256571,-0.00248262,0.00334062,-0.00538801,-1.26825,0.00508548,0.0116266,608,974,-20.9395,-2.31282
-609,50,-20.9388,2.17065,-0.00502508,0.00301081,-0.00306791,0.00404815,-0.00606242,-1.24474,0.00587583,0.0106741,615,974,-20.9388,-2.17064
-602,50,-20.9623,2.03381,-0.00496653,0.00282289,-0.003799,0.00436888,-0.00651252,-1.18432,0.00632288,0.0118822,622,974,-20.9623,-2.03382
-595,50,-20.9431,1.93372,-0.00483935,0.00249121,-0.00443218,0.00457732,-0.00692546,-1.13088,0.0066871,0.012215,629,974,-20.943,-1.93369
-588,50,-20.9735,1.78516,-0.00479062,0.00231614,-0.00487683,0.00479683,-0.00727131,-1.10024,0.00701619,0.0136188,636,974,-20.9735,-1.78514
-581,50,-21.1808,1.30652,-0.00473502,0.00194628,-0.00503027,0.00464414,-0.00743288,-1.07851,0.00703436,0.021782,643,974,-21.1809,-1.30655
-574,50,-21.2875,0.908386,-0.00445975,0.00174936,-0.00496459,0.00450018,-0.00721057,-1.06482,0.0068213,0.0271861,650,974,-21.2875,-0.908412
-567,50,-21.2468,0.62146,-0.00396206,0.00144986,-0.00452563,0.00401681,-0.00652901,-1.05484,0.00614595,0.0357277,657,974,-21.2468,-0.621476
-560,50,-21.0842,0.342712,-0.00305862,0.00102831,-0.00367155,0.00318675,-0.00521707,-1.03933,0.00489892,0.0429186,664,974,-21.0842,-0.342695
-553,50,-20.9244,0.0784302,0,0,0,0,0,0,0,-1,671,974,-20.9244,-0.078413
-546,50,-21.2512,0.945679,0.000270567,-0.000671222,-0.000788225,0.000717845,-0.0011185,-0.516141,0.00106859,0.0397197,678,974,-21.2511,-0.945695
-539,50,-21.3143,1.13416,0.002762,-0.00217801,0.00111451,0.0030018,-0.00241781,0.211932,0.00313506,0.0408262,685,974,-21.3142,-1.13413
-532,50,-21.3407,1.10242,0.00549755,-0.00410335,0.00282603,0.00626762,-0.00487342,0.266035,0.00644905,0.0406063,692,974,-21.3407,-1.1024
-525,50,-21.3655,0.922791,0.00708778,-0.00633903,0.00395185,0.00816455,-0.00741581,0.266016,0.00899879,0.0404415,699,974,-21.3655,-0.922804
-518,50,0,0,0,0,0,0,0,0,0,-1,706,974,0,0
-511,50,0,0,0,0,0,0,0,0,0,-1,713,974,0,0
-504,50,0,0,0,0,0,0,0,0,0,-1,720,974,0,0
-497,50,0,0,0,0,0,0,0,0,0,-1,727,974,0,0
-490,50,0,0,0,0,0,0,0,0,0,-1,734,974,0,0
-483,50,0,0,0,0,0,0,0,0,0,-1,741,974,0,0
-476,50,0,0,0,0,0,0,0,0,0,-1,748,974,0,0
-469,50,0,0,0,0,0,0,0,0,0,-1,755,974,0,0
-462,50,0,0,0,0,0,0,0,0,0,-1,762,974,0,0
-455,50,0,0,0,0,0,0,0,0,0,-1,769,974,0,0
-448,50,0,0,0,0,0,0,0,0,0,-1,776,974,0,0
-441,50,0,0,0,0,0,0,0,0,0,-1,783,974,0,0
-434,50,0,0,0,0,0,0,0,0,0,-1,790,974,0,0
-427,50,0,0,0,0,0,0,0,0,0,-1,797,974,0,0
-420,50,0,0,0,0,0,0,0,0,0,-1,804,974,0,0
-413,50,0,0,0,0,0,0,0,0,0,-1,811,974,0,0
-406,50,0,0,0,0,0,0,0,0,0,-1,818,974,0,0
-399,50,0,0,0,0,0,0,0,0,0,-1,825,974,0,0
-392,50,0,0,0,0,0,0,0,0,0,-1,832,974,0,0
-385,50,0,0,0,0,0,0,0,0,0,-1,839,974,0,0
-378,50,0,0,0,0,0,0,0,0,0,-1,846,974,0,0
-371,50,0,0,0,0,0,0,0,0,0,-1,853,974,0,0
-364,50,0,0,0,0,0,0,0,0,0,-1,860,974,0,0
-357,50,0,0,0,0,0,0,0,0,0,-1,867,974,0,0
-350,50,0,0,0,0,0,0,0,0,0,-1,874,974,0,0
-343,50,0,0,0,0,0,0,0,0,0,-1,881,974,0,0
-336,50,0,0,0,0,0,0,0,0,0,-1,888,974,0,0
-329,50,0,0,0,0,0,0,0,0,0,-1,895,974,0,0
-322,50,0,0,0,0,0,0,0,0,0,-1,902,974,0,0
-315,50,0,0,0,0,0,0,0,0,0,-1,909,974,0,0
-308,50,0,0,0,0,0,0,0,0,0,-1,916,974,0,0
-301,50,0,0,0,0,0,0,0,0,0,-1,923,974,0,0
-294,50,0,0,0,0,0,0,0,0,0,-1,930,974,0,0
-287,50,0,0,0,0,0,0,0,0,0,-1,937,974,0,0
-280,50,0,0,0,0,0,0,0,0,0,-1,944,974,0,0
-273,50,0,0,0,0,0,0,0,0,0,-1,951,974,0,0
-266,50,0,0,0,0,0,0,0,0,0,-1,958,974,0,0
-259,50,0,0,0,0,0,0,0,0,0,-1,965,974,0,0
-252,50,0,0,0,0,0,0,0,0,0,-1,972,974,0,0
-245,50,0,0,0,0,0,0,0,0,0,-1,979,974,0,0
-238,50,0,0,0,0,0,0,0,0,0,-1,986,974,0,0
-231,50,0,0,0,0,0,0,0,0,0,-1,993,974,0,0
-224,50,0,0,0,0,0,0,0,0,0,-1,1000,974,0,0
-217,50,0,0,0,0,0,0,0,0,0,-1,1007,974,0,0
-210,50,0,0,0,0,0,0,0,0,0,-1,1014,974,0,0
-203,50,0,0,0,0,0,0,0,0,0,-1,1021,974,0,0
-196,50,0,0,0,0,0,0,0,0,0,-1,1028,974,0,0
-189,50,0,0,0,0,0,0,0,0,0,-1,1035,974,0,0
-182,50,0,0,0,0,0,0,0,0,0,-1,1042,974,0,0
-175,50,0,0,0,0,0,0,0,0,0,-1,1049,974,0,0
-168,50,0,0,0,0,0,0,0,0,0,-1,1056,974,0,0
-161,50,0,0,0,0,0,0,0,0,0,-1,1063,974,0,0
-154,50,0,0,0,0,0,0,0,0,0,-1,1070,974,0,0
-147,50,0,0,0,0,0,0,0,0,0,-1,1077,974,0,0
-140,50,0,0,0,0,0,0,0,0,0,-1,1084,974,0,0
-133,50,0,0,0,0,0,0,0,0,0,-1,1091,974,0,0
-126,50,0,0,0,0,0,0,0,0,0,-1,1098,974,0,0
-119,50,0,0,0,0,0,0,0,0,0,-1,1105,974,0,0
-112,50,0,0,0,0,0,0,0,0,0,-1,1112,974,0,0
-105,50,0,0,0,0,0,0,0,0,0,-1,1119,974,0,0
-98,50,0,0,0,0,0,0,0,0,0,-1,1126,974,0,0
-91,50,0,0,0,0,0,0,0,0,0,-1,1133,974,0,0
-84,50,0,0,0,0,0,0,0,0,0,-1,1140,974,0,0
-77,50,0,0,0,0,0,0,0,0,0,-1,1147,974,0,0
-70,50,0,0,0,0,0,0,0,0,0,-1,1154,974,0,0
-63,50,0,0,0,0,0,0,0,0,0,-1,1161,974,0,0
-56,50,0,0,0,0,0,0,0,0,0,-1,1168,974,0,0
-49,50,0,0,0,0,0,0,0,0,0,-1,1175,974,0,0
-42,50,0,0,0,0,0,0,0,0,0,-1,1182,974,0,0
-35,50,0,0,0,0,0,0,0,0,0,-1,1189,974,0,0
-28,50,0,0,0,0,0,0,0,0,0,-1,1196,974,0,0
-21,50,0,0,0,0,0,0,0,0,0,-1,1203,974,0,0
-14,50,0,0,0,0,0,0,0,0,0,-1,1210,974,0,0
-7,50,0,0,0,0,0,0,0,0,0,-1,1217,974,0,0
0,50,0,0,0,0,0,0,0,0,0,-1,1224,974,0,0
7,50,0,0,0,0,0,0,0,0,0,-1,1231,974,0,0
14,50,0,0,0,0,0,0,0,0,0,-1,1238,974,0,0
21,50,0,0,0,0,0,0,0,0,0,-1,1245,974,0,0
28,50,0,0,0,0,0,0,0,0,0,-1,1252,974,0,0
35,50,0,0,0,0,0,0,0,0,0,-1,1259,974,0,0
42,50,0,0,0,0,0,0,0,0,0,-1,1266,974,0,0
49,50,0,0,0,0,0,0,0,0,0,-1,1273,974,0,0
56,50,0,0,0,0,0,0,0,0,0,-1,1280,974,0,0
63,50,0,0,0,0,0,0,0,0,0,-1,1287,974,0,0
70,50,0,0,0,0,0,0,0,0,0,-1,1294,974,0,0
77,50,0,0,0,0,0,0,0,0,0,-1,1301,974,0,0
84,50,0,0,0,0,0,0,0,0,0,-1,1308,974,0,0
91,50,0,0,0,0,0,0,0,0,0,-1,1315,974,0,0
98,50,0,0,0,0,0,0,0,0,0,-1,1322,974,0,0
105,50,0,0,0,0,0,0,0,0,0,-1,1329,974,0,0
112,50,0,0,0,0,0,0,0,0,0,-1,1336,974,0,0
119,50,0,0,0,0,0,0,0,0,0,-1,1343,974,0,0
126,50,0,0,0,0,0,0,0,0,0,-1,1350,974,0,0
133,50,0,0,0,0,0,0,0,0,0,-1,1357,974,0,0
140,50,0,0,0,0,0,0,0,0,0,-1,1364,974,0,0
147,50,0,0,0,0,0,0,0,0,0,-1,1371,974,0,0
154,50,0,0,0,0,0,0,0,0,0,-1,1378,974,0,0
161,50,0,0,0,0,0,0,0,0,0,-1,1385,974,0,0
168,50,0,0,0,0,0,0,0,0,0,-1,1392,974,0,0
175,50,0,0,0,0,0,0,0,0,0,-1,1399,974,0,0
182,50,0,0,0,0,0,0,0,0,0,-1,1406,974,0,0
189,50,0,0,0,0,0,0,0,0,0,-1,1413,974,0,0
196,50,0,0,0,0,0,0,0,0,0,-1,1420,974,0,0
203,50,0,0,0,0,0,0,0,0,0,-1,1427,974,0,0
210,50,0,0,0,0,0,0,0,0,0,-1,1434,974,0,0
217,50,0,0,0,0,0,0,0,0,0,-1,1441,974,0,0
224,50,0,0,0,0,0,0,0,0,0,-1,1448,974,0,0
231,50,0,0,0,0,0,0,0,0,0,-1,1455,974,0,0
238,50,0,0,0,0,0,0,0,0,0,-1,1462,974,0,0
245,50,0,0,0,0,0,0,0,0,0,-1,1469,974,0,0
252,50,0,0,0,0,0,0,0,0,0,-1,1476,974,0,0
259,50,0,0,0,0,0,0,0,0,0,-1,1483,974,0,0
266,50,0,0,0,0,0,0,0,0,0,-1,1490,974,0,0
273,50,0,0,0,0,0,0,0,0,0,-1,1497,974,0,0
280,50,0,0,0,0,0,0,0,0,0,-1,1504,974,0,0
287,50,0,0,0,0,0,0,0,0,0,-1,1511,974,0,0
294,50,0,0,0,0,0,0,0,0,0,-1,1518,974,0,0
301,50,0,0,0,0,0,0,0,0,0,-1,1525,974,0,0
308,50,0,0,0,0,0,0,0,0,0,-1,1532,974,0,0
315,50,0,0,0,0,0,0,0,0,0,-1,1539,974,0,0
322,50,0,0,0,0,0,0,0,0,0,-1,1546,974,0,0
329,50,0,0,0,0,0,0,0,0,0,-1,1553,974,0,0
336,50,0,0,0,0,0,0,0,0,0,-1,1560,974,0,0
343,50,0,0,0,0,0,0,0,0,0,-1,1567,974,0,0
350,50,0,0,0,0,0,0,0,0,0,-1,1574,974,0,0
357,50,0,0,0,0,0,0,0,0,0,-1,1581,974,0,0
364,50,0,0,0,0,0,0,0,0,0,-1,1588,974,0,0
371,50,0,0,0,0,0,0,0,0,0,-1,1595,974,0,0
378,50,0,0,0,0,0,0,0,0,0,-1,1602,974,0,0
385,50,0,0,0,0,0,0,0,0,0,-1,1609,974,0,0
392,50,0,0,0,0,0,0,0,0,0,-1,1616,974,0,0
399,50,0,0,0,0,0,0,0,0,0,-1,1623,974,0,0
406,50,0,0,0,0,0,0,0,0,0,-1,1630,974,0,0
413,50,0,0,0,0,0,0,0,0,0,-1,1637,974,0,0
420,50,0,0,0,0,0,0,0,0,0,-1,1644,974,0,0
427,50,0,0,0,0,0,0,0,0,0,-1,1651,974,0,0
434,50,0,0,0,0,0,0,0,0,0,-1,1658,974,0,0
441,50,0,0,0,0,0,0,0,0,0,-1,1665,974,0,0
448,50,0,0,0,0,0,0,0,0,0,-1,1672,974,0,0
455,50,0,0,0,0,0,0,0,0,0,-1,1679,974,0,0
462,50,0,0,0,0,0,0,0,0,0,-1,1686,974,0,0
469,50,0,0,0,0,0,0,0,0,0,-1,1693,974,0,0
476,50,0,0,0,0,0,0,0,0,0,-1,1700,974,0,0
483,50,0,0,0,0,0,0,0,0,0,-1,1707,974,0,0
490,50,0,0,0,0,0,0,0,0,0,-1,1714,974,0,0
497,50,0,0,0,0,0,0,0,0,0,-1,1721,974,0,0
504,50,0,0,0,0,0,0,0,0,0,-1,1728,974,0,0
511,50,0,0,0,0,0,0,0,0,0,-1,1735,974,0,0
518,50,0,0,0,0,0,0,0,0,0,-1,1742,974,0,0
525,50,0,0,0,0,0,0,0,0,0,-1,1749,974,0,0
532,50,0,0,0,0,0,0,0,0,0,-1,1756,974,0,0
539,50,0,0,0,0,0,0,0,0,0,-1,1763,974,0,0
546,50,0,0,0,0,0,0,0,0,0,-1,1770,974,0,0
553,50,0,0,0,0,0,0,0,0,0,-1,1777,974,0,0
560,50,0,0,0,0,0,0,0,0,0,-1,1784,974,0,0
567,50,0,0,0,0,0,0,0,0,0,-1,1791,974,0,0
574,50,0,0,0,0,0,0,0,0,0,-1,1798,974,0,0
581,50,0,0,0,0,0,0,0,0,0,-1,1805,974,0,0
588,50,0,0,0,0,0,0,0,0,0,-1,1812,974,0,0
595,50,0,0,0,0,0,0,0,0,0,-1,1819,974,0,0
602,50,0,0,0,0,0,0,0,0,0,-1,1826,974,0,0
609,50,0,0,0,0,0,0,0,0,0,-1,1833,974,0,0
616,50,0,0,0,0,0,0,0,0,0,-1,1840,974,0,0
623,50,0,0,0,0,0,0,0,0,0,-1,1847,974,0,0
630,50,0,0,0,0,0,0,0,0,0,-1,1854,974,0,0
637,50,0,0,0,0,0,0,0,0,0,-1,1861,974,0,0
644,50,30.5551,2.64362,0.00463601,-0.00128967,-0.00277554,0.00573298,-0.00238663,-0.376385,0.00481874,0.0384848,1868,974,30.5551,-2.64363
651,50,30.4075,2.84265,0.00292757,-0.00123383,-0.001725,0.00354964,-0.0018559,-0.346102,0.00317155,0.0323216,1875,974,30.4075,-2.84267
658,50,30.3492,2.74963,0.00156795,-0.00109526,-0.000745692,0.00176253,-0.00128984,-0.255242,0.00176932,0.0370639,1882,974,30.3492,-2.74962
665,50,30.5524,2.57166,0.000400894,-0.000777586,0.000405468,0.000526922,-0.000903614,0.301354,0.000835411,0.0393276,1889,974,30.5524,-2.57167
672,50,30.6394,2.63129,-0.000576103,-0.000437497,0.00157786,0.00107258,-0.00208618,0.807345,0.00185475,0.0401676,1896,974,30.6394,-2.63126
679,50,30.4252,2.74408,-0.0012905,-0.000197406,0.00251114,0.00182598,-0.00331388,0.892552,0.00300866,0.0411579,1903,974,30.4252,-2.74407
686,50,30.2838,2.8465,-0.00163824,-7.99527e-05,0.0030894,0.00232704,-0.00404523,0.908922,0.00372334,0.0415782,1910,974,30.2838,-2.84649
693,50,30.3362,2.76355,-0.00182074,-6.84273e-06,0.00339135,0.00259673,-0.00442432,0.916056,0.00409913,0.0411458,1917,974,30.3362,-2.76356
700,50,30.4237,2.83228,-0.00195973,0.000114244,0.00339064,0.00262293,-0.00446841,0.9338,0.00414014,0.0249071,1924,974,30.4237,-2.83231
707,50,30.4443,3.04089,-0.00209431,0.000302826,0.00318842,0.00251051,-0.004302,0.965184,0.00397828,0.037986,1931,974,30.4444,-3.04091
714,50,30.3776,3.34387,0,0,0,0,0,0,0,-1,1938,974,30.3775,-3.34386
721,50,29.4806,4.20239,0,0,0,0,0,0,0,-1,1945,974,29.4805,-4.20241
728,50,29.4011,4.44,-0.00214694,0.00143748,0.00234615,0.00259763,-0.00330709,1.11156,0.00341729,0.021155,1952,974,29.4011,-4.44001
735,50,29.4399,4.58417,-0.00166923,0.00228464,0.00205386,0.00315842,-0.00254302,1.16856,0.00329811,0.0207268,1959,974,29.44,-4.58417
742,50,29.4628,4.72803,-0.00130421,0.00310116,0.00150216,0.00356462,-0.00176767,1.27154,0.00313632,0.0155031,1966,974,29.4628,-4.72804
749,50,29.4391,4.85809,-0.000908649,0.00405893,0.000427555,0.00409546,-0.00094518,1.48556,0.00309387,0.0157844,1973,974,29.4391,-4.85809
756,50,29.3949,5.00104,-0.000310232,0.00476572,-0.000823471,0.00489597,-0.000440481,-1.41392,0.00342027,0.0130052,1980,974,29.3949,-5.00106
763,50,29.3617,5.13812,0.000651684,0.00581329,-0.0021985,0.00662276,-0.000157789,-1.21801,0.0044687,0.0131253,1987,974,29.3616,-5.13813
770,50,29.3436,5.25201,0.00188262,0.00682094,-0.00388215,0.00895263,-0.000249076,-1.06864,0.00605316,0.0119596,1994,974,29.3436,-5.25202
777,50,29.3413,5.3277,0.00326694,0.00734503,-0.00610789,0.0117452,-0.00113327,-0.946501,0.00823396,0.022515,2001,974,29.3413,-5.32771
784,50,29.3462,5.41278,0.00466445,0.00713043,-0.00922361,0.0152031,-0.00340822,-0.851843,0.0114419,0.0418971,2008,974,29.3462,-5.41281
791,50,29.3597,5.53351,0.00611442,0.00582932,-0.0135619,0.0195345,-0.00759079,-0.780143,0.0161589,0.0474189,2015,974,29.3597,-5.53351
798,50,29.4167,5.50916,0.0074697,0.00305102,-0.0194973,0.0248824,-0.0143617,-0.728981,0.0229274,0.045151,2022,974,29.4166,-5.50915
805,50,29.6748,5.37659,0.00822676,-0.00175078,-0.0274977,0.0311846,-0.0247086,-0.695662,0.0323421,0.0423696,2029,974,29.6748,-5.37659
812,50,0,0,0,0,0,0,0,0,0,-1,2036,974,0,0
-700,43,0,0,0,0,0,0,0,0,0,-1,524,981,0,0
-693,43,-24.9286,5.78217,0,0,0,0,0,0,0,-1,531,981,-24.9286,-5.7822
-686,43,-24.0047,6.42157,0.130364,0.00511237,0.02336,0.134579,0.00089746,0.178512,0.0894215,0.0474972,538,981,-24.0047,-6.42158
-679,43,-23.0525,7.04132,0.102479,-0.00126964,0.0199285,0.106175,-0.00496592,0.183393,0.0724954,0.0475187,545,981,-23.0525,-7.04132
-672,43,-22.139,7.62408,0,0,0,0,0,0,0,-1,552,981,-22.139,-7.62406
-665,43,-21.8017,2.242,0,0,0,0,0,0,0,-1,559,981,-21.8017,-2.24199
-658,43,-21.0103,2.75458,0,0,0,0,0,0,0,-1,566,981,-21.0103,-2.75457
-651,43,-21.0122,2.69434,0.0262048,-0.000922408,0.00598079,0.0274649,-0.00218247,0.207649,0.0190791,0.0401221,573,981,-21.0122,-2.69435
-644,43,-21.0477,2.64069,0.0158723,0.000459514,0.00373047,0.0167278,-0.000395918,0.225413,0.0112861,0.0201087,580,981,-21.0477,-2.6407
-637,43,-21.0568,2.56476,0.00855342,-0.00022384,0.00311598,0.00954711,-0.00121754,0.308707,0.00680698,0.0142125,587,981,-21.0569,-2.56476
-630,43,-21.0635,2.46991,0.00173438,0.00172287,-0.000250377,0.00197907,0.00147818,-0.773907,0.00118815,0.0128025,594,981,-21.0635,-2.4699
-623,43,-21.0627,2.38678,-0.00294764,0.00311681,-0.00242316,0.00396609,-0.00379692,-1.23369,0.00448233,0.0116168,601,981,-21.0627,-2.38678
-616,43,-21.0455,2.28687,-0.0040745,0.00363278,-0.00328286,0.00484152,-0.00528324,-1.218,0.00584738,0.0105239,608,981,-21.0455,-2.28689
-609,43,-21.0529,2.17114,-0.004116,0.00348632,-0.00378925,0.00505239,-0.00568208,-1.17888,0.0062011,0.0124436,615,981,-21.0529,-2.17113
-602,43,-21.0856,2.04614,-0.00385355,0.00299446,-0.00460541,0.00530924,-0.00616832,-1.10505,0.00663276,0.0158949,622,981,-21.0856,-2.04611
-595,43,-21.0777,1.94916,-0.00373746,0.0025403,-0.00527442,0.00553918,-0.00673634,-1.05381,0.0070985,0.0147455,629,981,-21.0777,-1.94913
-588,43,-21.065,1.67999,-0.00368213,0.00218187,-0.00567274,0.00563553,-0.00713579,-1.02392,0.00739046,0.0151477,636,981,-21.065,-1.68002
-581,43,-21.2233,1.17212,-0.00362697,0.00162464,-0.00575085,0.00532079,-0.00732313,-0.99956,0.00733042,0.0217588,643,981,-21.2233,-1.17211
-574,43,-21.3189,0.929993,-0.00338408,0.0012249,-0.00560763,0.0049831,-0.00714228,-0.980356,0.00703749,0.0280304,650,981,-21.3189,-0.929997
-567,43,-21.2328,0.729004,-0.00295851,0.000681092,-0.00501583,0.00419704,-0.00647446,-0.959419,0.00620779,0.0372651,657,981,-21.2328,-0.729026
-560,43,-21.1252,0.652771,-0.00218383,-4.98165e-05,-0.00398242,0.00300605,-0.0052397,-0.916289,0.00481856,0.0422607,664,981,-21.1252,-0.652748
-553,43,-21.1632,0.693909,0,0,0,0,0,0,0,-1,671,981,-21.1632,-0.693906
-546,43,-21.3762,0.77594,0.000665213,-0.00251217,-0.00070732,0.000815556,-0.00266252,-0.209436,0.00210032,0.0434073,678,981,-21.3761,-0.775944
-539,43,-21.4167,0.648071,0.00282263,-0.00443292,0.00132239,0.00305613,-0.00466642,0.174774,0.00449081,0.0446115,685,981,-21.4167,-0.648048
-532,43,-21.1854,1.21967,0.00508903,-0.00669211,0.00295002,0.00578643,-0.00738951,0.232145,0.00762588,0.0427797,692,981,-21.1854,-1.21967
-525,43,-21.2016,0.951172,0.00618236,-0.00918591,0.00379104,0.00706665,-0.0100702,0.229161,0.00994449,0.0431432,699,981,-21.2016,-0.951195
-518,43,0,0,0,0,0,0,0,0,0,-1,706,981,0,0
-511,43,0,0,0,0,0,0,0,0,0,-1,713,981,0,0
-504,43,0,0,0,0,0,0,0,0,0,-1,720,981,0,0
-497,43,0,0,0,0,0,0,0,0,0,-1,727,981,0,0
-490,43,0,0,0,0,0,0,0,0,0,-1,734,981,0,0
-483,43,0,0,0,0,0,0,0,0,0,-1,741,981,0,0
-476,43,0,0,0,0,0,0,0,0,0,-1,748,981,0,0
-469,43,0,0,0,0,0,0,0,0,0,-1,755,981,0,0
-462,43,0,0,0,0,0,0,0,0,0,-1,762,981,0,0
-455,43,0,0,0,0,0,0,0,0,0,-1,769,981,0,0
-448,43,0,0,0,0,0,0,0,0,0,-1,776,981,0,0
-441,43,0,0,0,0,0,0,0,0,0,-1,783,981,0,0
-434,43,0,0,0,0,0,0,0,0,0,-1,790,981,0,0
-427,43,0,0,0,0,0,0,0,0,0,-1,797,981,0,0
-420,43,0,0,0,0,0,0,0,0,0,-1,804,981,0,0
-413,43,0,0,0,0,0,0,0,0,0,-1,811,981,0,0
-406,43,0,0,0,0,0,0,0,0,0,-1,818,981,0,0
-399,43,0,0,0,0,0,0,0,0,0,-1,825,981,0,0
-392,43,0,0,0,0,0,0,0,0,0,-1,832,981,0,0
-385,43,0,0,0,0,0,0,0,0,0,-1,839,981,0,0
-378,43,0,0,0,0,0,0,0,0,0,-1,846,981,0,0
-371,43,0,0,0,0,0,0,0,0,0,-1,853,981,0,0
-364,43,0,0,0,0,0,0,0,0,0,-1,860,981,0,0
-357,43,0,0,0,0,0,0,0,0,0,-1,867,981,0,0
-350,43,0,0,0,0,0,0,0,0,0,-1,874,981,0,0
-343,43,0,0,0,0,0,0,0,0,0,-1,881,981,0,0
-336,43,0,0,0,0,0,0,0,0,0,-1,888,981,0,0
-329,43,0,0,0,0,0,0,0,0,0,-1,895,981,0,0
-322,43,0,0,0,0,0,0,0,0,0,-1,902,981,0,0
-315,43,0,0,0,0,0,0,0,0,0,-1,909,981,0,0
-308,43,0,0,0,0,0,0,0,0,0,-1,916,981,0,0
-301,43,0,0,0,0,0,0,0,0,0,-1,923,981,0,0
-294,43,0,0,0,0,0,0,0,0,0,-1,930,981,0,0
-287,43,0,0,0,0,0,0,0,0,0,-1,937,981,0,0
-280,43,0,0,0,0,0,0,0,0,0,-1,944,981,0,0
-273,43,0,0,0,0,0,0,0,0,0,-1,951,981,0,0
-266,43,0,0,0,0,0,0,0,0,0,-1,958,981,0,0
-259,43,0,0,0,0,0,0,0,0,0,-1,965,981,0,0
-252,43,0,0,0,0,0,0,0,0,0,-1,972,981,0,0
-245,43,0,0,0,0,0,0,0,0,0,-1,979,981,0,0
-238,43,0,0,0,0,0,0,0,0,0,-1,986,981,0,0
-231,43,0,0,0,0,0,0,0,0,0,-1,993,981,0,0
-224,43,0,0,0,0,0,0,0,0,0,-1,1000,981,0,0
-217,43,0,0,0,0,0,0,0,0,0,-1,1007,981,0,0
-210,43,0,0,0,0,0,0,0,0,0,-1,1014,981,0,0
-203,43,0,0,0,0,0,0,0,0,0,-1,1021,981,0,0
-196,43,0,0,0,0,0,0,0,0,0,-1,1028,981,0,0
-189,43,0,0,0,0,0,0,0,0,0,-1,1035,981,0,0
-182,43,0,0,0,0,0,0,0,0,0,-1,1042,981,0,0
-175,43,0,0,0,0,0,0,0,0,0,-1,1049,981,0,0
-168,43,0,0,0,0,0,0,0,0,0,-1,1056,981,0,0
-161,43,0,0,0,0,0,0,0,0,0,-1,1063,981,0,0
-154,43,0,0,0,0,0,0,0,0,0,-1,1070,981,0,0
-147,43,0,0,0,0,0,0,0,0,0,-1,1077,981,0,0
-140,43,0,0,0,0,0,0,0,0,0,-1,1084,981,0,0
-133,43,0,0,0,0,0,0,0,0,0,-1,1091,981,0,0
-126,43,0,0,0,0,0,0,0,0,0,-1,1098,981,0,0
-119,43,0,0,0,0,0,0,0,0,0,-1,1105,981,0,0
-112,43,0,0,0,0,0,0,0,0,0,-1,1112,981,0,0
-105,43,0,0,0,0,0,0,0,0,0,-1,1119,981,0,0
-98,43,0,0,0,0,0,0,0,0,0,-1,1126,981,0,0
-91,43,0,0,0,0,0,0,0,0,0,-1,1133,981,0,0
-84,43,0,0,0,0,0,0,0,0,0,-1,1140,981,0,0
-77,43,0,0,0,0,0,0,0,0,0,-1,1147,981,0,0
-70,43,0,0,0,0,0,0,0,0,0,-1,1154,981,0,0
-63,43,0,0,0,0,0,0,0,0,0,-1,1161,981,0,0
-56,43,0,0,0,0,0,0,0,0,0,-1,1168,981,0,0
-49,43,0,0,0,0,0,0,0,0,0,-1,1175,981,0,0
-42,43,0,0,0,0,0,0,0,0,0,-1,1182,981,0,0
-35,43,0,0,0,0,0,0,0,0,0,-1,1189,981,0,0
-28,43,0,0,0,0,0,0,0,0,0,-1,1196,981,0,0
-21,43,0,0,0,0,0,0,0,0,0,-1,1203,981,0,0
-14,43,0,0,0,0,0,0,0,0,0,-1,1210,981,0,0
-7,43,0,0,0,0,0,0,0,0,0,-1,1217,981,0,0
0,43,0,0,0,0,0,0,0,0,0,-1,1224,981,0,0
7,43,0,0,0,0,0,0,0,0,0,-1,1231,981,0,0
14,43,0,0,0,0,0,0,0,0,0,-1,1238,981,0,0
21,43,0,0,0,0,0,0,0,0,0,-1,1245,981,0,0
28,43,0,0,0,0,0,0,0,0,0,-1,1252,981,0,0
35,43,0,0,0,0,0,0,0,0,0,-1,1259,981,0,0
42,43,0,0,0,0,0,0,0,0,0,-1,1266,981,0,0
49,43,0,0,0,0,0,0,0,0,0,-1,1273,981,0,0
56,43,0,0,0,0,0,0,0,0,0,-1,1280,981,0,0
63,43,0,0,0,0,0,0,0,0,0,-1,1287,981,0,0
70,43,0,0,0,0,0,0,0,0,0,-1,1294,981,0,0
77,43,0,0,0,0,0,0,0,0,0,-1,1301,981,0,0
84,43,0,0,0,0,0,0,0,0,0,-1,1308,981,0,0
91,43,0,0,0,0,0,0,0,0,0,-1,1315,981,0,0
98,43,0,0,0,0,0,0,0,0,0,-1,1322,981,0,0
105,43,0,0,0,0,0,0,0,0,0,-1,1329,981,0,0
112,43,0,0,0,0,0,0,0,0,0,-1,1336,981,0,0
119,43,0,0,0,0,0,0,0,0,0,-1,1343,981,0,0
126,43,0,0,0,0,0,0,0,0,0,-1,1350,981,0,0
133,43,0,0,0,0,0,0,0,0,0,-1,1357,981,0,0
140,43,0,0,0,0,0,0,0,0,0,-1,1364,981,0,0
147,43,0,0,0,0,0,0,0,0,0,-1,1371,981,0,0
154,43,0,0,0,0,0,0,0,0,0,-1,1378,981,0,0
161,43,0,0,0,0,0,0,0,0,0,-1,1385,981,0,0
168,43,0,0,0,0,0,0,0,0,0,-1,1392,981,0,0
175,43,0,0,0,0,0,0,0,0,0,-1,1399,981,0,0
182,43,0,0,0,0,0,0,0,0,0,-1,1406,981,0,0
189,43,0,0,0,0,0,0,0,0,0,-1,1413,981,0,0
196,43,0,0,0,0,0,0,0,0,0,-1,1420,981,0,0
203,43,0,0,0,0,0,0,0,0,0,-1,1427,981,0,0
210,43,0,0,0,0,0,0,0,0,0,-1,1434,981,0,0
217,43,0,0,0,0,0,0,0,0,0,-1,1441,981,0,0
224,43,0,0,0,0,0,0,0,0,0,-1,1448,981,0,0
231,43,0,0,0,0,0,0,0,0,0,-1,1455,981,0,0
238,43,0,0,0,0,0,0,0,0,0,-1,1462,981,0,0
245,43,0,0,0,0,0,0,0,0,0,-1,1469,981,0,0
252,43,0,0,0,0,0,0,0,0,0,-1,1476,981,0,0
259,43,0,0,0,0,0,0,0,0,0,-1,1483,981,0,0
266,43,0,0,0,0,0,0,0,0,0,-1,1490,981,0,0
273,43,0,0,0,0,0,0,0,0,0,-1,1497,981,0,0
280,43,0,0,0,0,0,0,0,0,0,-1,1504,981,0,0
287,43,0,0,0,0,0,0,0,0,0,-1,1511,981,0,0
294,43,0,0,0,0,0,0,0,0,0,-1,1518,981,0,0
301,43,0,0,0,0,0,0,0,0,0,-1,1525,981,0,0
308,43,0,0,0,0,0,0,0,0,0,-1,1532,981,0,0
315,43,0,0,0,0,0,0,0,0,0,-1,1539,981,0,0
322,43,0,0,0,0,0,0,0,0,0,-1,1546,981,0,0
329,43,0,0,0,0,0,0,0,0,0,-1,1553,981,0,0
336,43,0,0,0,0,0,0,0,0,0,-1,1560,981,0,0
343,43,0,0,0,0,0,0,0,0,0,-1,1567,981,0,0
350,43,0,0,0,0,0,0,0,0,0,-1,1574,981,0,0
357,43,0,0,0,0,0,0,0,0,0,-1,1581,981,0,0
364,43,0,0,0,0,0,0,0,0,0,-1,1588,981,0,0
371,43,0,0,0,0,0,0,0,0,0,-1,1595,981,0,0
378,43,0,0,0,0,0,0,0,0,0,-1,1602,981,0,0
385,43,0,0,0,0,0,0,0,0,0,-1,1609,981,0,0
392,43,0,0,0,0,0,0,0,0,0,-1,1616,981,0,0
399,43,0,0,0,0,0,0,0,0,0,-1,1623,981,0,0
406,43,0,0,0,0,0,0,0,0,0,-1,1630,981,0,0
413,43,0,0,0,0,0,0,0,0,0,-1,1637,981,0,0
420,43,0,0,0,0,0,0,0,0,0,-1,1644,981,0,0
427,43,0,0,0,0,0,0,0,0,0,-1,1651,981,0,0
434,43,0,0,0,0,0,0,0,0,0,-1,1658,981,0,0
441,43,0,0,0,0,0,0,0,0,0,-1,1665,981,0,0
448,43,0,0,0,0,0,0,0,0,0,-1,1672,981,0,0
455,43,0,0,0,0,0,0,0,0,0,-1,1679,981,0,0
462,43,0,0,0,0,0,0,0,0,0,-1,1686,981,0,0
469,43,0,0,0,0,0,0,0,0,0,-1,1693,981,0,0
476,43,0,0,0,0,0,0,0,0,0,-1,1700,981,0,0
483,43,0,0,0,0,0,0,0,0,0,-1,1707,981,0,0
490,43,0,0,0,0,0,0,0,0,0,-1,1714,981,0,0
497,43,0,0,0,0,0,0,0,0,0,-1,1721,981,0,0
504,43,0,0,0,0,0,0,0,0,0,-1,1728,981,0,0
511,43,0,0,0,0,0,0,0,0,0,-1,1735,981,0,0
518,43,0,0,0,0,0,0,0,0,0,-1,1742,981,0,0
525,43,0,0,0,0,0,0,0,0,0,-1,1749,981,0,0
532,43,0,0,0,0,0,0,0,0,0,-1,1756,981,0,0
539,43,0,0,0,0,0,0,0,0,0,-1,1763,981,0,0
546,43,0,0,0,0,0,0,0,0,0,-1,1770,981,0,0
553,43,0,0,0,0,0,0,0,0,0,-1,1777,981,0,0
560,43,0,0,0,0,0,0,0,0,0,-1,1784,981,0,0
567,43,0,0,0,0,0,0,0,0,0,-1,1791,981,0,0
574,43,0,0,0,0,0,0,0,0,0,-1,1798,981,0,0
581,43,0,0,0,0,0,0,0,0,0,-1,1805,981,0,0
588,43,0,0,0,0,0,0,0,0,0,-1,1812,981,0,0
595,43,0,0,0,0,0,0,0,0,0,-1,1819,981,0,0
602,43,0,0,0,0,0,0,0,0,0,-1,1826,981,0,0
609,43,0,0,0,0,0,0,0,0,0,-1,1833,981,0,0
616,43,0,0,0,0,0,0,0,0,0,-1,1840,981,0,0
623,43,0,0,0,0,0,0,0,0,0,-1,1847,981,0,0
630,43,0,0,0,0,0,0,0,0,0,-1,1854,981,0,0
637,43,0,0,0,0,0,0,0,0,0,-1,1861,981,0,0
644,43,30.4026,2.89386,0.00522337,-0.00165431,-0.00271832,0.00616801,-0.00259895,-0.334453,0.00519954,0.0368953,1868,981,30.4026,-2.89387
651,43,30.3875,2.95563,0.00339972,-0.00151135,-0.00169787,0.00392956,-0.00204118,-0.302481,0.00350421,0.0362741,1875,981,30.3875,-2.95562
658,43,30.5029,2.76129,0.00194776,-0.00134419,-0.000780823,0.00212357,-0.00152,-0.221473,0.00211322,0.0372694,1882,981,30.503,-2.7613
665,43,30.5634,2.6731,0.000710513,-0.00100808,0.000298961,0.000761034,-0.0010586,0.167408,0.00105524,0.0368938,1889,981,30.5633,-2.67307
672,43,30.4889,2.65363,-0.000326464,-0.000642318,0.0014404,0.000964641,-0.00193342,0.730796,0.00170408,0.0390706,1896,981,30.4889,-2.65365
679,43,30.4602,2.64417,-0.0011163,-0.000357322,0.00238323,0.00167644,-0.00315006,0.864352,0.00282954,0.0409539,1903,981,30.4602,-2.64414
686,43,30.4473,2.76099,-0.00151566,-0.00021064,0.00297819,0.00218568,-0.00391198,0.893242,0.0035672,0.0393492,1910,981,30.4473,-2.76102
693,43,30.458,2.8465,-0.00171041,-0.000108456,0.00329385,0.0024804,-0.00429927,0.90467,0.00396093,0.0372417,1917,981,30.458,-2.84647
700,43,30.4404,2.81818,-0.00186976,3.56491e-05,0.00330967,0.002527,-0.00436112,0.925537,0.00402358,0.0354611,1924,981,30.4404,-2.81815
707,43,30.4849,2.77466,-0.00203517,0.000239774,0.00314194,0.0024438,-0.0042392,0.959073,0.00390457,0.0340509,1931,981,30.4849,-2.77464
714,43,30.4165,3.16467,-0.00230043,0.000495368,0.00290331,0.00231979,-0.00412485,1.00976,0.00376914,0.0403701,1938,981,30.4165,-3.1647
721,43,29.7689,4.1886,0,0,0,0,0,0,0,-1,1945,981,29.7689,-4.18858
728,43,29.6855,4.40607,-0.00233074,0.0013952,0.00227564,0.00247318,-0.00340873,1.12841,0.00341021,0.0201376,1952,981,29.6856,-4.40609
735,43,29.6021,4.59912,-0.00198144,0.00219954,0.00190323,0.00293613,-0.00271803,1.20152,0.00326524,0.0148734,1959,981,29.6021,-4.59914
742,43,29.595,4.72388,-0.00178643,0.00293563,0.00123735,0.00324022,-0.00209101,1.32944,0.00310173,0.0161636,1966,981,29.595,-4.7239
749,43,29.5825,4.85364,-0.00157528,0.00382742,8.33863e-05,0.00382871,-0.00157656,1.55537,0.00320976,0.0169663,1973,981,29.5825,-4.85366
756,43,29.5717,4.94916,-0.00115409,0.00445914,-0.0012547,0.00472683,-0.00142178,-1.3606,0.00371692,0.0167852,1980,981,29.5716,-4.94914
763,43,29.5551,5.0495,-0.000425144,0.00538212,-0.00282432,0.00652916,-0.00157218,-1.18502,0.00496058,0.0193935,1987,981,29.555,-5.04952
770,43,29.4871,5.22382,0.000578534,0.00627194,-0.00476681,0.00897737,-0.0021269,-1.05457,0.00680558,0.0164695,1994,981,29.4871,-5.22381
777,43,29.5011,5.26202,0.00179244,0.00668793,-0.00718794,0.0118335,-0.0033531,-0.949507,0.00921238,0.0215719,2001,981,29.5011,-5.26201
784,43,29.5557,5.32953,0.00309688,0.00640909,-0.0103822,0.0152665,-0.00576049,-0.864489,0.0125466,0.0424846,2008,981,29.5557,-5.32955
791,43,29.4875,5.54645,0.0045678,0.00511264,-0.0146263,0.019469,-0.00978857,-0.79471,0.0171973,0.0456289,2015,981,29.4875,-5.54643
798,43,29.2981,5.50513,0.00613092,0.00245289,-0.0201848,0.0245603,-0.0159765,-0.739969,0.0235782,0.0424065,2022,981,29.2981,-5.50512
805,43,29.1667,5.41644,0.00739627,-0.00203461,-0.0273772,0.0304611,-0.0250995,-0.700115,0.0321277,0.046712,2029,981,29.1667,-5.41642
812,43,29.0007,5.3418,0,0,0,0,0,0,0,-1,2036,981,29.0007,-5.34178
-700,36,0,0,0,0,0,0,0,0,0,-1,524,988,0,0
-693,36,-25.4423,6.11749,0.12707,0.0287505,0.0185586,0.130457,0.025364,0.180487,0.0798703,0.0492399,531,988,-25.4423,-6.11747
-686,36,-24.7109,6.72247,0.104237,0.0149967,0.0184224,0.10789,0.0113433,0.195778,0.0684597,0.0464104,538,988,-24.711,-6.72245
-679,36,-23.7428,7.17883,0.0825075,0.00835104,0.0161572,0.0858749,0.00498363,0.205474,0.0556631,0.0447596,545,988,-23.7428,-7.17884
-672,36,-22.4732,7.31464,0,0,0,0,0,0,0,-1,552,988,-22.4732,-7.31461
-665,36,-20.2039,3.42261,0,0,0,0,0,0,0,-1,559,988,-20.2039,-3.42258
-658,36,-21.1067,2.69189,0,0,0,0,0,0,0,-1,566,988,-21.1067,-2.69187
-651,36,-21.127,2.61835,0.0208149,0.00434962,0.00477774,0.0221008,0.0030637,0.262919,0.0138263,0.0359096,573,988,-21.127,-2.61836
-644,36,-21.1748,2.53448,0.0124277,0.00456312,0.00281536,0.0133317,0.00365918,0.310678,0.00795376,0.0197282,580,988,-21.1748,-2.53446
-637,36,-21.1805,2.49738,0.00663766,0.00290666,0.00239336,0.00780667,0.00173765,0.454357,0.00473278,0.0159984,587,988,-21.1805,-2.49735
-630,36,-21.1817,2.46033,0.00111361,0.00394994,-0.000859982,0.00419032,0.00087323,-1.29824,0.00255275,0.0134856,594,988,-21.1817,-2.46034
-623,36,-21.1814,2.36877,-0.00279454,0.00470039,-0.0029447,0.00571892,-0.00381307,-1.23779,0.00553985,0.0124079,601,988,-21.1814,-2.36878
-616,36,-21.163,2.27759,-0.00344773,0.00457008,-0.00384874,0.00611852,-0.00499617,-1.18829,0.00642797,0.0105949,608,988,-21.163,-2.27761
-609,36,-21.1635,2.20624,-0.0031703,0.00387877,-0.00428523,0.00590271,-0.00519423,-1.12955,0.00641117,0.0151898,615,988,-21.1635,-2.20624
-602,36,-21.1609,2.09662,-0.00280297,0.00305296,-0.00513164,0.00603319,-0.00578319,-1.04465,0.0068227,0.0201046,622,988,-21.1609,-2.09664
-595,36,-21.1429,1.98944,-0.0026753,0.00247239,-0.00578682,0.00623195,-0.00643486,-0.994649,0.0073135,0.02147,629,988,-21.1429,-1.98943
-588,36,-21.1699,1.59113,-0.00257861,0.00190549,-0.00613326,0.00619365,-0.00686678,-0.960631,0.00754378,0.0222467,636,988,-21.1699,-1.59113
-581,36,-21.2492,1.0675,-0.00249202,0.00117889,-0.00613657,0.00574862,-0.00706175,-0.930714,0.00740901,0.0262972,643,988,-21.2492,-1.06749
-574,36,-21.2928,0.928711,-0.00228689,0.000579034,-0.00590582,0.00522325,-0.00693111,-0.904416,0.00704038,0.0283387,650,988,-21.2928,-0.92868
-567,36,-21.2878,0.813416,-0.00196469,-0.000190535,-0.00518669,0.00418439,-0.00633961,-0.870093,0.00611836,0.0343417,657,988,-21.2878,-0.813395
-560,36,-21.3075,1.10596,-0.00135106,-0.00119164,-0.00401698,0.00274642,-0.00528913,-0.795319,0.00471611,0.0387816,664,988,-21.3075,-1.10597
-553,36,-21.2667,1.30322,0,0,0,0,0,0,0,-1,671,988,-21.2667,-1.30322
-546,36,-21.5204,0.497437,0.000916668,-0.00428352,-0.00051436,0.000967056,-0.00433391,-0.097651,0.0032598,0.0446534,678,988,-21.5205,-0.49742
-539,36,-21.4233,0.391785,0.0026464,-0.00649953,0.00148705,0.00288211,-0.00673524,0.157198,0.00569919,0.045156,685,988,-21.4233,-0.39178
-532,36,-21.3022,0.257141,0,0,0,0,0,0,0,-1,692,988,-21.3022,-0.257117
-525,36,-20.9275,1.05884,0,0,0,0,0,0,0,-1,699,988,-20.9275,-1.05882
-518,36,0,0,0,0,0,0,0,0,0,-1,706,988,0,0
-511,36,0,0,0,0,0,0,0,0,0,-1,713,988,0,0
-504,36,0,0,0,0,0,0,0,0,0,-1,720,988,0,0
-497,36,0,0,0,0,0,0,0,0,0,-1,727,988,0,0
-490,36,0,0,0,0,0,0,0,0,0,-1,734,988,0,0
-483,36,0,0,0,0,0,0,0,0,0,-1,741,988,0,0
-476,36,0,0,0,0,0,0,0,0,0,-1,748,988,0,0
-469,36,0,0,0,0,0,0,0,0,0,-1,755,988,0,0
-462,36,0,0,0,0,0,0,0,0,0,-1,762,988,0,0
-455,36,0,0,0,0,0,0,0,0,0,-1,769,988,0,0
-448,36,0,0,0,0,0,0,0,0,0,-1,776,988,0,0
-441,36,0,0,0,0,0,0,0,0,0,-1,783,988,0,0
-434,36,0,0,0,0,0,0,0,0,0,-1,790,988,0,0
-427,36,0,0,0,0,0,0,0,0,0,-1,797,988,0,0
-420,36,0,0,0,0,0,0,0,0,0,-1,804,988,0,0
-413,36,0,0,0,0,0,0,0,0,0,-1,811,988,0,0
-406,36,0,0,0,0,0,0,0,0,0,-1,818,988,0,0
-399,36,0,0,0,0,0,0,0,0,0,-1,825,988,0,0
-392,36,0,0,0,0,0,0,0,0,0,-1,832,988,0,0
-385,36,0,0,0,0,0,0,0,0,0,-1,839,988,0,0
-378,36,0,0,0,0,0,0,0,0,0,-1,846,988,0,0
-371,36,0,0,0,0,0,0,0,0,0,-1,853,988,0,0
-364,36,0,0,0,0,0,0,0,0,0,-1,860,988,0,0
-357,36,0,0,0,0,0,0,0,0,0,-1,867,988,0,0
-350,36,0,0,0,0,0,0,0,0,0,-1,874,988,0,0
-343,36,0,0,0,0,0,0,0,0,0,-1,881,988,0,0
-336,36,0,0,0,0,0,0,0,0,0,-1,888,988,0,0
-329,36,0,0,0,0,0,0,0,0,0,-1,895,988,0,0
-322,36,0,0,0,0,0,0,0,0,0,-1,902,988,0,0
-315,36,0,0,0,0,0,0,0,0,0,-1,909,988,0,0
-308,36,0,0,0,0,0,0,0,0,0,-1,916,988,0,0
-301,36,0,0,0,0,0,0,0,0,0,-1,923,988,0,0
-294,36,0,0,0,0,0,0,0,0,0,-1,930,988,0,0
-287,36,0,0,0,0,0,0,0,0,0,-1,937,988,0,0
-280,36,0,0,0,0,0,0,0,0,0,-1,944,988,0,0
-273,36,0,0,0,0,0,0,0,0,0,-1,951,988,0,0
-266,36,0,0,0,0,0,0,0,0,0,-1,958,988,0,0
-259,36,0,0,0,0,0,0,0,0,0,-1,965,988,0,0
-252,36,0,0,0,0,0,0,0,0,0,-1,972,988,0,0
-245,36,0,0,0,0,0,0,0,0,0,-1,979,988,0,0
-238,36,0,0,0,0,0,0,0,0,0,-1,986,988,0,0
-231,36,0,0,0,0,0,0,0,0,0,-1,993,988,0,0
-224,36,0,0,0,0,0,0,0,0,0,-1,1000,988,0,0
-217,36,0,0,0,0,0,0,0,0,0,-1,1007,988,0,0
-210,36,0,0,0,0,0,0,0,0,0,-1,1014,988,0,0
-203,36,0,0,0,0,0,0,0,0,0,-1,1021,988,0,0
-196,36,0,0,0,0,0,0,0,0,0,-1,1028,988,0,0
-189,36,0,0,0,0,0,0,0,0,0,-1,1035,988,0,0
-182,36,0,0,0,0,0,0,0,0,0,-1,1042,988,0,0
-175,36,0,0,0,0,0,0,0,0,0,-1,1049,988,0,0
-168,36,0,0,0,0,0,0,0,0,0,-1,1056,988,0,0
-161,36,0,0,0,0,0,0,0,0,0,-1,1063,988,0,0
-154,36,0,0,0,0,0,0,0,0,0,-1,1070,988,0,0
-147,36,0,0,0,0,0,0,0,0,0,-1,1077,988,0,0
-140,36,0,0,0,0,0,0,0,0,0,-1,1084,988,0,0
-133,36,0,0,0,0,0,0,0,0,0,-1,1091,988,0,0
-126,36,0,0,0,0,0,0,0,0,0,-1,1098,988,0,0
-119,36,0,0,0,0,0,0,0,0,0,-1,1105,988,0,0
-112,36,0,0,0,0,0,0,0,0,0,-1,1112,988,0,0
-105,36,0,0,0,0,0,0,0,0,0,-1,1119,988,0,0
-98,36,0,0,0,0,0,0,0,0,0,-1,1126,988,0,0
-91,36,0,0,0,0,0,0,0,0,0,-1,1133,988,0,0
-84,36,0,0,0,0,0,0,0,0,0,-1,1140,988,0,0
-77,36,0,0,0,0,0,0,0,0,0,-1,1147,988,0,0
-70,36,0,0,0,0,0,0,0,0,0,-1,1154,988,0,0
-63,36,0,0,0,0,0,0,0,0,0,-1,1161,988,0,0
-56,36,0,0,0,0,0,0,0,0,0,-1,1168,988,0,0
-49,36,0,0,0,0,0,0,0,0,0,-1,1175,988,0,0
-42,36,0,0,0,0,0,0,0,0,0,-1,1182,988,0,0
-35,36,0,0,0,0,0,0,0,0,0,-1,1189,988,0,0
-28,36,0,0,0,0,0,0,0,0,0,-1,1196,988,0,0
-21,36,0,0,0,0,0,0,0,0,0,-1,1203,988,0,0
-14,36,0,0,0,0,0,0,0,0,0,-1,1210,988,0,0
-7,36,0,0,0,0,0,0,0,0,0,-1,1217,988,0,0
0,36,0,0,0,0,0,0,0,0,0,-1,1224,988,0,0
7,36,0,0,0,0,0,0,0,0,0,-1,1231,988,0,0
14,36,0,0,0,0,0,0,0,0,0,-1,1238,988,0,0
21,36,0,0,0,0,0,0,0,0,0,-1,1245,988,0,0
28,36,0,0,0,0,0,0,0,0,0,-1,1252,988,0,0
35,36,0,0,0,0,0,0,0,0,0,-1,1259,988,0,0
42,36,0,0,0,0,0,0,0,0,0,-1,1266,988,0,0
49,36,0,0,0,0,0,0,0,0,0,-1,1273,988,0,0
56,36,0,0,0,0,0,0,0,0,0,-1,1280,988,0,0
63,36,0,0,0,0,0,0,0,0,0,-1,1287,988,0,0
70,36,0,0,0,0,0,0,0,0,0,-1,1294,988,0,0
77,36,0,0,0,0,0,0,0,0,0,-1,1301,988,0,0
84,36,0,0,0,0,0,0,0,0,0,-1,1308,988,0,0
91,36,0,0,0,0,0,0,0,0,0,-1,1315,988,0,0
98,36,0,0,0,0,0,0,0,0,0,-1,1322,988,0,0
105,36,0,0,0,0,0,0,0,0,0,-1,1329,988,0,0
112,36,0,0,0,0,0,0,0,0,0,-1,1336,988,0,0
119,36,0,0,0,0,0,0,0,0,0,-1,1343,988,0,0
126,36,0,0,0,0,0,0,0,0,0,-1,1350,988,0,0
133,36,0,0,0,0,0,0,0,0,0,-1,1357,988,0,0
140,36,0,0,0,0,0,0,0,0,0,-1,1364,988,0,0
147,36,0,0,0,0,0,0,0,0,0,-1,1371,988,0,0
154,36,0,0,0,0,0,0,0,0,0,-1,1378,988,0,0
161,36,0,0,0,0,0,0,0,0,0,-1,1385,988,0,0
168,36,0,0,0,0,0,0,0,0,0,-1,1392,988,0,0
175,36,0,0,0,0,0,0,0,0,0,-1,1399,988,0,0
182,36,0,0,0,0,0,0,0,0,0,-1,1406,988,0,0
189,36,0,0,0,0,0,0,0,0,0,-1,1413,988,0,0
196,36,0,0,0,0,0,0,0,0,0,-1,1420,988,0,0
203,36,0,0,0,0,0,0,0,0,0,-1,1427,988,0,0
210,36,0,0,0,0,0,0,0,0,0,-1,1434,988,0,0
217,36,0,0,0,0,0,0,0,0,0,-1,1441,988,0,0
224,36,0,0,0,0,0,0,0,0,0,-1,1448,988,0,0
231,36,0,0,0,0,0,0,0,0,0,-1,1455,988,0,0
238,36,0,0,0,0,0,0,0,0,0,-1,1462,988,0,0
245,36,0,0,0,0,0,0,0,0,0,-1,1469,988,0,0
252,36,0,0,0,0,0,0,0,0,0,-1,1476,988,0,0
259,36,0,0,0,0,0,0,0,0,0,-1,1483,988,0,0
266,36,0,0,0,0,0,0,0,0,0,-1,1490,988,0,0
273,36,0,0,0,0,0,0,0,0,0,-1,1497,988,0,0
280,36,0,0,0,0,0,0,0,0,0,-1,1504,988,0,0
287,36,0,0,0,0,0,0,0,0,0,-1,1511,988,0,0
294,36,0,0,0,0,0,0,0,0,0,-1,1518,988,0,0
301,36,0,0,0,0,0,0,0,0,0,-1,1525,988,0,0
308,36,0,0,0,0,0,0,0,0,0,-1,1532,988,0,0
315,36,0,0,0,0,0,0,0,0,0,-1,1539,988,0,0
322,36,0,0,0,0,0,0,0,0,0,-1,1546,988,0,0
329,36,0,0,0,0,0,0,0,0,0,-1,1553,988,0,0
336,36,0,0,0,0,0,0,0,0,0,-1,1560,988,0,0
343,36,0,0,0,0,0,0,0,0,0,-1,1567,988,0,0
350,36,0,0,0,0,0,0,0,0,0,-1,1574,988,0,0
357,36,0,0,0,0,0,0,0,0,0,-1,1581,988,0,0
364,36,0,0,0,0,0,0,0,0,0,-1,1588,988,0,0
371,36,0,0,0,0,0,0,0,0,0,-1,1595,988,0,0
378,36,0,0,0,0,0,0,0,0,0,-1,1602,988,0,0
385,36,0,0,0,0,0,0,0,0,0,-1,1609,988,0,0
392,36,0,0,0,0,0,0,0,0,0,-1,1616,988,0,0
399,36,0,0,0,0,0,0,0,0,0,-1,1623,988,0,0
406,36,0,0,0,0,0,0,0,0,0,-1,1630,988,0,0
413,36,0,0,0,0,0,0,0,0,0,-1,1637,988,0,0
420,36,0,0,0,0,0,0,0,0,0,-1,1644,988,0,0
427,36,0,0,0,0,0,0,0,0,0,-1,1651,988,0,0
434,36,0,0,0,0,0,0,0,0,0,-1,1658,988,0,0
441,36,0,0,0,0,0,0,0,0,0,-1,1665,988,0,0
448,36,0,0,0,0,0,0,0,0,0,-1,1672,988,0,0
455,36,0,0,0,0,0,0,0,0,0,-1,1679,988,0,0
462,36,0,0,0,0,0,0,0,0,0,-1,1686,988,0,0
469,36,0,0,0,0,0,0,0,0,0,-1,1693,988,0,0
476,36,0,0,0,0,0,0,0,0,0,-1,1700,988,0,0
483,36,0,0,0,0,0,0,0,0,0,-1,1707,988,0,0
490,36,0,0,0,0,0,0,0,0,0,-1,1714,988,0,0
497,36,0,0,0,0,0,0,0,0,0,-1,1721,988,0,0
504,36,0,0,0,0,0,0,0,0,0,-1,1728,988,0,0
511,36,0,0,0,0,0,0,0,0,0,-1,1735,988,0,0
518,36,0,0,0,0,0,0,0,0,0,-1,1742,988,0,0
525,36,0,0,0,0,0,0,0,0,0,-1,1749,988,0,0
532,36,0,0,0,0,0,0,0,0,0,-1,1756,988,0,0
539,36,0,0,0,0,0,0,0,0,0,-1,1763,988,0,0
546,36,0,0,0,0,0,0,0,0,0,-1,1770,988,0,0
553,36,0,0,0,0,0,0,0,0,0,-1,1777,988,0,0
560,36,0,0,0,0,0,0,0,0,0,-1,1784,988,0,0
567,36,0,0,0,0,0,0,0,0,0,-1,1791,988,0,0
574,36,0,0,0,0,0,0,0,0,0,-1,1798,988,0,0
581,36,0,0,0,0,0,0,0,0,0,-1,1805,988,0,0
588,36,0,0,0,0,0,0,0,0,0,-1,1812,988,0,0
595,36,0,0,0,0,0,0,0,0,0,-1,1819,988,0,0
602,36,0,0,0,0,0,0,0,0,0,-1,1826,988,0,0
609,36,0,0,0,0,0,0,0,0,0,-1,1833,988,0,0
616,36,0,0,0,0,0,0,0,0,0,-1,1840,988,0,0
623,36,0,0,0,0,0,0,0,0,0,-1,1847,988,0,0
630,36,0,0,0,0,0,0,0,0,0,-1,1854,988,0,0
637,36,0,0,0,0,0,0,0,0,0,-1,1861,988,0,0
644,36,30.3864,3.09308,0.00570257,-0.00148287,-0.00286655,0.00670602,-0.00248632,-0.336723,0.00549043,0.0389748,1868,988,30.3864,-3.09306
651,36,30.3275,3.0993,0.00374058,-0.00134153,-0.00180835,0.00431835,-0.00191931,-0.309252,0.00368903,0.040212,1875,988,30.3275,-3.09929
658,36,30.6106,2.90851,0.00220564,-0.00121698,-0.000920419,0.00243746,-0.0014488,-0.246731,0.00226781,0.0383548,1882,988,30.6106,-2.90853
665,36,30.5939,2.75012,0.000924746,-0.000929134,9.89309e-05,0.00093001,-0.000934398,0.053163,0.00107642,0.0379641,1889,988,30.5938,-2.75012
672,36,30.467,2.72449,-0.000132414,-0.000609713,0.00119232,0.000844905,-0.00158703,0.686626,0.0014257,0.0395124,1896,988,30.4671,-2.7245
679,36,30.4666,2.742,-0.000957913,-0.000336365,0.00212464,0.00150011,-0.00279439,0.858019,0.00251669,0.0393741,1903,988,30.4665,-2.74199
686,36,30.5081,2.8324,-0.00139208,-0.000201176,0.00272305,0.00199076,-0.00358402,0.893039,0.00326212,0.0358866,1910,988,30.5081,-2.83242
693,36,30.5286,2.8764,-0.00159799,-0.000103346,0.00304961,0.00228917,-0.00399051,0.905558,0.00366966,0.0368971,1917,988,30.5285,-2.87641
700,36,30.4325,2.84979,-0.00177082,4.29858e-05,0.00308813,0.00235462,-0.00408246,0.92822,0.00376082,0.0365452,1924,988,30.4325,-2.84978
707,36,30.4324,2.82458,-0.00195077,0.000242689,0.00296917,0.00231121,-0.00401929,0.962312,0.003699,0.0297083,1931,988,30.4324,-2.8246
714,36,30.4442,3.09918,-0.0022362,0.000479269,0.00277303,0.00220911,-0.00396605,1.01305,0.00361301,0.0379615,1938,988,30.4442,-3.09916
721,36,30.0179,4.29395,0,0,0,0,0,0,0,-1,1945,988,30.0179,-4.29397
728,36,29.8696,4.46362,-0.00240656,0.00137604,0.00213251,0.00233512,-0.00336563,1.14816,0.0033092,0.0219547,1952,988,29.8697,-4.46364
735,36,29.7261,4.62183,-0.0021447,0.00210867,0.00172069,0.00271759,-0.00275363,1.23066,0.00315884,0.0181812,1959,988,29.7261,-4.6218
742,36,29.7274,4.72955,-0.00203897,0.00274014,0.00099069,0.00293737,-0.0022362,1.37429,0.00299609,0.0150277,1966,988,29.7274,-4.72955
749,36,29.7449,4.85577,-0.0019198,0.00353086,-0.000200006,0.00353819,-0.00192713,-1.53417,0.00320078,0.0159753,1973,988,29.7449,-4.85574
756,36,29.7072,4.91193,-0.00158434,0.00408243,-0.0015831,0.0044947,-0.00199661,-1.31604,0.00383915,0.0143878,1980,988,29.7072,-4.91192
763,36,29.6656,5.01776,-0.000951671,0.00486947,-0.0033112,0.00636747,-0.00244966,-1.14595,0.00525542,0.0159079,1987,988,29.6657,-5.01778
770,36,29.6147,5.15027,-1.9377e-05,0.00563128,-0.0054918,0.0089819,-0.00337,-1.02297,0.00737263,0.0141717,1994,988,29.6148,-5.15025
777,36,29.6406,5.30121,0.00118116,0.0059587,-0.0081052,0.0120198,-0.00487995,-0.928701,0.0100432,0.0230914,2001,988,29.6406,-5.3012
784,36,29.8845,5.47131,0,0,0,0,0,0,0,-1,2008,988,29.8845,-5.4713
791,36,29.6766,5.41425,0.00414217,0.0044802,-0.0155797,0.0198918,-0.0112694,-0.790822,0.018219,0.0455396,2015,988,29.6767,-5.41422
798,36,30.0166,5.06805,0.00596965,0.00208857,-0.0208814,0.0250005,-0.0169423,-0.739065,0.0243642,0.0413995,2022,988,30.0166,-5.06807
805,36,29.2683,5.24933,0,0,0,0,0,0,0,-1,2029,988,29.2683,-5.24935
812,36,28.0637,5.45355,0,0,0,0,0,0,0,-1,2036,988,28.0638,-5.45353
-700,29,0,0,0,0,0,0,0,0,0,-1,524,995,0,0
-693,29,-19.6864,4.42291,0,0,0,0,0,0,0,-1,531,995,-19.6864,-4.42291
-686,29,-25.2855,7.09784,0,0,0,0,0,0,0,-1,538,995,-25.2855,-7.09783
-679,29,-24.6378,7.383,0,0,0,0,0,0,0,-1,545,995,-24.6378,-7.38297
-672,29,-20.2329,3.57025,0,0,0,0,0,0,0,-1,552,995,-20.2329,-3.57026
-665,29,-20.3805,3.29871,0,0,0,0,0,0,0,-1,559,995,-20.3805,-3.29872
-658,29,-20.4933,3.20947,0,0,0,0,0,0,0,-1,566,995,-20.4933,-3.20949
-651,29,-20.8277,2.85132,0.0135544,0.0101432,0.00200616,0.014482,0.00921556,0.433099,0.00846415,0.0364594,573,995,-20.8277,-2.85132
-644,29,-21.1605,2.4632,0.00763261,0.00884359,0.000784521,0.0092291,0.00724709,1.11405,0.00561001,0.0195256,580,995,-21.1604,-2.46322
-637,29,-21.2585,2.40472,0.00372209,0.00609821,0.000840212,0.00636529,0.00345501,1.26302,0.00367948,0.0139706,587,995,-21.2585,-2.40472
-630,29,-21.27,2.40344,0.000101354,0.00576974,-0.00185179,0.00632107,-0.000449978,-1.28142,0.00437177,0.0119397,594,995,-21.27,-2.40347
-623,29,-21.274,2.35217,-0.00265841,0.00579689,-0.00347947,0.00704462,-0.00390614,-1.22648,0.00640839,0.0110267,601,995,-21.274,-2.35215
-616,29,-21.2832,2.26318,-0.00297214,0.00517698,-0.00435323,0.00706502,-0.00486019,-1.16157,0.00692414,0.0128006,608,995,-21.2832,-2.26319
-609,29,-21.2935,2.21741,-0.0024271,0.00401133,-0.00466418,0.00645939,-0.00487515,-1.08746,0.00656527,0.0202023,615,995,-21.2934,-2.21741
-602,29,-21.2408,2.14166,-0.00194934,0.00292827,-0.00551197,0.00651686,-0.00553793,-0.993679,0.00696749,0.0222208,622,995,-21.2408,-2.14169
-595,29,-21.1617,2.01288,-0.00178258,0.00228148,-0.00614636,0.006723,-0.0062241,-0.945046,0.00747686,0.0208673,629,995,-21.1617,-2.01286
-588,29,-21.201,1.54779,-0.00159643,0.00156547,-0.00644043,0.00661616,-0.00664711,-0.905755,0.00765756,0.0273127,636,995,-21.201,-1.54776
-581,29,-21.255,0.9953,-0.00147311,0.000749068,-0.0064022,0.00613588,-0.00685992,-0.871317,0.00750701,0.0384829,643,995,-21.255,-0.995297
-574,29,-21.2678,0.846191,-0.00130487,3.00675e-05,-0.00610537,0.00550434,-0.00677915,-0.839844,0.0071046,0.0324217,650,995,-21.2677,-0.84622
-567,29,-21.2984,0.790222,-0.00106856,-0.000862236,-0.00531081,0.00434641,-0.00627721,-0.795109,0.00616723,0.0330913,657,995,-21.2984,-0.790245
-560,29,-21.5143,1.17352,-0.000610647,-0.00199554,-0.00406725,0.00282268,-0.00542887,-0.701082,0.0048426,0.0372998,664,995,-21.5143,-1.17351
-553,29,-21.6507,1.55762,0,0,0,0,0,0,0,-1,671,995,-21.6507,-1.55759
-546,29,-21.3538,0.592773,0.00112095,-0.00534573,-0.000510545,0.00116101,-0.00538579,-0.0783037,0.00403361,0.0437345,678,995,-21.3538,-0.592744
-539,29,-21.2609,0.640686,0.00246615,-0.00759478,0.00131695,0.00263568,-0.00776431,0.128024,0.00624306,0.0448213,685,995,-21.2609,-0.640707
-532,29,-21.1475,0.813171,0.00363367,-0.0098681,0.00216785,0.00397321,-0.0102076,0.15536,0.00844694,0.0491518,692,995,-21.1474,-0.813198
-525,29,-21.042,0.914063,0,0,0,0,0,0,0,-1,699,995,-21.042,-0.914054
-518,29,0,0,0,0,0,0,0,0,0,-1,706,995,0,0
-511,29,0,0,0,0,0,0,0,0,0,-1,713,995,0,0
-504,29,0,0,0,0,0,0,0,0,0,-1,720,995,0,0
-497,29,0,0,0,0,0,0,0,0,0,-1,727,995,0,0
-490,29,0,0,0,0,0,0,0,0,0,-1,734,995,0,0
-483,29,0,0,0,0,0,0,0,0,0,-1,741,995,0,0
-476,29,0,0,0,0,0,0,0,0,0,-1,748,995,0,0
-469,29,0,0,0,0,0,0,0,0,0,-1,755,995,0,0
-462,29,0,0,0,0,0,0,0,0,0,-1,762,995,0,0
-455,29,0,0,0,0,0,0,0,0,0,-1,769,995,0,0
-448,29,0,0,0,0,0,0,0,0,0,-1,776,995,0,0
-441,29,0,0,0,0,0,0,0,0,0,-1,783,995,0,0
-434,29,0,0,0,0,0,0,0,0,0,-1,790,995,0,0
-427,29,0,0,0,0,0,0,0,0,0,-1,797,995,0,0
-420,29,0,0,0,0,0,0,0,0,0,-1,804,995,0,0
-413,29,0,0,0,0,0,0,0,0,0,-1,811,995,0,0
-406,29,0,0,0,0,0,0,0,0,0,-1,818,995,0,0
-399,29,0,0,0,0,0,0,0,0,0,-1,825,995,0,0
-392,29,0,0,0,0,0,0,0,0,0,-1,832,995,0,0
-385,29,0,0,0,0,0,0,0,0,0,-1,839,995,0,0
-378,29,0,0,0,0,0,0,0,0,0,-1,846,995,0,0
-371,29,0,0,0,0,0,0,0,0,0,-1,853,995,0,0
-364,29,0,0,0,0,0,0,0,0,0,-1,860,995,0,0
-357,29,0,0,0,0,0,0,0,0,0,-1,867,995,0,0
-350,29,0,0,0,0,0,0,0,0,0,-1,874,995,0,0
-343,29,0,0,0,0,0,0,0,0,0,-1,881,995,0,0
-336,29,0,0,0,0,0,0,0,0,0,-1,888,995,0,0
-329,29,0,0,0,0,0,0,0,0,0,-1,895,995,0,0
-322,29,0,0,0,0,0,0,0,0,0,-1,902,995,0,0
-315,29,0,0,0,0,0,0,0,0,0,-1,909,995,0,0
-308,29,0,0,0,0,0,0,0,0,0,-1,916,995,0,0
-301,29,0,0,0,0,0,0,0,0,0,-1,923,995,0,0
-294,29,0,0,0,0,0,0,0,0,0,-1,930,995,0,0
-287,29,0,0,0,0,0,0,0,0,0,-1,937,995,0,0
-280,29,0,0,0,0,0,0,0,0,0,-1,944,995,0,0
-273,29,0,0,0,0,0,0,0,0,0,-1,951,995,0,0
-266,29,0,0,0,0,0,0,0,0,0,-1,958,995,0,0
-259,29,0,0,0,0,0,0,0,0,0,-1,965,995,0,0
-252,29,0,0,0,0,0,0,0,0,0,-1,972,995,0,0
-245,29,0,0,0,0,0,0,0,0,0,-1,979,995,0,0
-238,29,0,0,0,0,0,0,0,0,0,-1,986,995,0,0
-231,29,0,0,0,0,0,0,0,0,0,-1,993,995,0,0
-224,29,0,0,0,0,0,0,0,0,0,-1,1000,995,0,0
-217,29,0,0,0,0,0,0,0,0,0,-1,1007,995,0,0
-210,29,0,0,0,0,0,0,0,0,0,-1,1014,995,0,0
-203,29,0,0,0,0,0,0,0,0,0,-1,1021,995,0,0
-196,29,0,0,0,0,0,0,0,0,0,-1,1028,995,0,0
-189,29,0,0,0,0,0,0,0,0,0,-1,1035,995,0,0
-182,29,0,0,0,0,0,0,0,0,0,-1,1042,995,0,0
-175,29,0,0,0,0,0,0,0,0,0,-1,1049,995,0,0
-168,29,0,0,0,0,0,0,0,0,0,-1,1056,995,0,0
-161,29,0,0,0,0,0,0,0,0,0,-1,1063,995,0,0
-154,29,0,0,0,0,0,0,0,0,0,-1,1070,995,0,0
-147,29,0,0,0,0,0,0,0,0,0,-1,1077,995,0,0
-140,29,0,0,0,0,0,0,0,0,0,-1,1084,995,0,0
-133,29,0,0,0,0,0,0,0,0,0,-1,1091,995,0,0
-126,29,0,0,0,0,0,0,0,0,0,-1,1098,995,0,0
-119,29,0,0,0,0,0,0,0,0,0,-1,1105,995,0,0
-112,29,0,0,0,0,0,0,0,0,0,-1,1112,995,0,0
-105,29,0,0,0,0,0,0,0,0,0,-1,1119,995,0,0
-98,29,0,0,0,0,0,0,0,0,0,-1,1126,995,0,0
-91,29,0,0,0,0,0,0,0,0,0,-1,1133,995,0,0
-84,29,0,0,0,0,0,0,0,0,0,-1,1140,995,0,0
-77,29,0,0,0,0,0,0,0,0,0,-1,1147,995,0,0
-70,29,0,0,0,0,0,0,0,0,0,-1,1154,995,0,0
-63,29,0,0,0,0,0,0,0,0,0,-1,1161,995,0,0
-56,29,0,0,0,0,0,0,0,0,0,-1,1168,995,0,0
-49,29,0,0,0,0,0,0,0,0,0,-1,1175,995,0,0
-42,29,0,0,0,0,0,0,0,0,0,-1,1182,995,0,0
-35,29,0,0,0,0,0,0,0,0,0,-1,1189,995,0,0
-28,29,0,0,0,0,0,0,0,0,0,-1,1196,995,0,0
-21,29,0,0,0,0,0,0,0,0,0,-1,1203,995,0,0
-14,29,0,0,0,0,0,0,0,0,0,-1,1210,995,0,0
-7,29,0,0,0,0,0,0,0,0,0,-1,1217,995,0,0
0,29,0,0,0,0,0,0,0,0,0,-1,1224,995,0,0
7,29,0,0,0,0,0,0,0,0,0,-1,1231,995,0,0
14,29,0,0,0,0,0,0,0,0,0,-1,1238,995,0,0
21,29,0,0,0,0,0,0,0,0,0,-1,1245,995,0,0
28,29,0,0,0,0,0,0,0,0,0,-1,1252,995,0,0
35,29,0,0,0,0,0,0,0,0,0,-1,1259,995,0,0
42,29,0,0,0,0,0,0,0,0,0,-1,1266,995,0,0
49,29,0,0,0,0,0,0,0,0,0,-1,1273,995,0,0
56,29,0,0,0,0,0,0,0,0,0,-1,1280,995,0,0
63,29,0,0,0,0,0,0,0,0,0,-1,1287,995,0,0
70,29,0,0,0,0,0,0,0,0,0,-1,1294,995,0,0
77,29,0,0,0,0,0,0,0,0,0,-1,1301,995,0,0
84,29,0,0,0,0,0,0,0,0,0,-1,1308,995,0,0
91,29,0,0,0,0,0,0,0,0,0,-1,1315,995,0,0
98,29,0,0,0,0,0,0,0,0,0,-1,1322,995,0,0
105,29,0,0,0,0,0,0,0,0,0,-1,1329,995,0,0
112,29,0,0,0,0,0,0,0,0,0,-1,1336,995,0,0
119,29,0,0,0,0,0,0,0,0,0,-1,1343,995,0,0
126,29,0,0,0,0,0,0,0,0,0,-1,1350,995,0,0
133,29,0,0,0,0,0,0,0,0,0,-1,1357,995,0,0
140,29,0,0,0,0,0,0,0,0,0,-1,1364,995,0,0
147,29,0,0,0,0,0,0,0,0,0,-1,1371,995,0,0
154,29,0,0,0,0,0,0,0,0,0,-1,1378,995,0,0
161,29,0,0,0,0,0,0,0,0,0,-1,1385,995,0,0
168,29,0,0,0,0,0,0,0,0,0,-1,1392,995,0,0
175,29,0,0,0,0,0,0,0,0,0,-1,1399,995,0,0
182,29,0,0,0,0,0,0,0,0,0,-1,1406,995,0,0
189,29,0,0,0,0,0,0,0,0,0,-1,1413,995,0,0
196,29,0,0,0,0,0,0,0,0,0,-1,1420,995,0,0
203,29,0,0,0,0,0,0,0,0,0,-1,1427,995,0,0
210,29,0,0,0,0,0,0,0,0,0,-1,1434,995,0,0
217,29,0,0,0,0,0,0,0,0,0,-1,1441,995,0,0
224,29,0,0,0,0,0,0,0,0,0,-1,1448,995,0,0
231,29,0,0,0,0,0,0,0,0,0,-1,1455,995,0,0
238,29,0,0,0,0,0,0,0,0,0,-1,1462,995,0,0
245,29,0,0,0,0,0,0,0,0,0,-1,1469,995,0,0
252,29,0,0,0,0,0,0,0,0,0,-1,1476,995,0,0
259,29,0,0,0,0,0,0,0,0,0,-1,1483,995,0,0
266,29,0,0,0,0,0,0,0,0,0,-1,1490,995,0,0
273,29,0,0,0,0,0,0,0,0,0,-1,1497,995,0,0
280,29,0,0,0,0,0,0,0,0,0,-1,1504,995,0,0
287,29,0,0,0,0,0,0,0,0,0,-1,1511,995,0,0
294,29,0,0,0,0,0,0,0,0,0,-1,1518,995,0,0
301,29,0,0,0,0,0,0,0,0,0,-1,1525,995,0,0
308,29,0,0,0,0,0,0,0,0,0,-1,1532,995,0,0
315,29,0,0,0,0,0,0,0,0,0,-1,1539,995,0,0
322,29,0,0,0,0,0,0,0,0,0,-1,1546,995,0,0
329,29,0,0,0,0,0,0,0,0,0,-1,1553,995,0,0
336,29,0,0,0,0,0,0,0,0,0,-1,1560,995,0,0
343,29,0,0,0,0,0,0,0,0,0,-1,1567,995,0,0
350,29,0,0,0,0,0,0,0,0,0,-1,1574,995,0,0
357,29,0,0,0,0,0,0,0,0,0,-1,1581,995,0,0
364,29,0,0,0,0,0,0,0,0,0,-1,1588,995,0,0
371,29,0,0,0,0,0,0,0,0,0,-1,1595,995,0,0
378,29,0,0,0,0,0,0,0,0,0,-1,1602,995,0,0
385,29,0,0,0,0,0,0,0,0,0,-1,1609,995,0,0
392,29,0,0,0,0,0,0,0,0,0,-1,1616,995,0,0
399,29,0,0,0,0,0,0,0,0,0,-1,1623,995,0,0
406,29,0,0,0,0,0,0,0,0,0,-1,1630,995,0,0
413,29,0,0,0,0,0,0,0,0,0,-1,1637,995,0,0
420,29,0,0,0,0,0,0,0,0,0,-1,1644,995,0,0
427,29,0,0,0,0,0,0,0,0,0,-1,1651,995,0,0
434,29,0,0,0,0,0,0,0,0,0,-1,1658,995,0,0
441,29,0,0,0,0,0,0,0,0,0,-1,1665,995,0,0
448,29,0,0,0,0,0,0,0,0,0,-1,1672,995,0,0
455,29,0,0,0,0,0,0,0,0,0,-1,1679,995,0,0
462,29,0,0,0,0,0,0,0,0,0,-1,1686,995,0,0
469,29,0,0,0,0,0,0,0,0,0,-1,1693,995,0,0
476,29,0,0,0,0,0,0,0,0,0,-1,1700,995,0,0
483,29,0,0,0,0,0,0,0,0,0,-1,1707,995,0,0
490,29,0,0,0,0,0,0,0,0,0,-1,1714,995,0,0
497,29,0,0,0,0,0,0,0,0,0,-1,1721,995,0,0
504,29,0,0,0,0,0,0,0,0,0,-1,1728,995,0,0
511,29,0,0,0,0,0,0,0,0,0,-1,1735,995,0,0
518,29,0,0,0,0,0,0,0,0,0,-1,1742,995,0,0
525,29,0,0,0,0,0,0,0,0,0,-1,1749,995,0,0
532,29,0,0,0,0,0,0,0,0,0,-1,1756,995,0,0
539,29,0,0,0,0,0,0,0,0,0,-1,1763,995,0,0
546,29,0,0,0,0,0,0,0,0,0,-1,1770,995,0,0
553,29,0,0,0,0,0,0,0,0,0,-1,1777,995,0,0
560,29,0,0,0,0,0,0,0,0,0,-1,1784,995,0,0
567,29,0,0,0,0,0,0,0,0,0,-1,1791,995,0,0
574,29,0,0,0,0,0,0,0,0,0,-1,1798,995,0,0
581,29,0,0,0,0,0,0,0,0,0,-1,1805,995,0,0
588,29,0,0,0,0,0,0,0,0,0,-1,1812,995,0,0
595,29,0,0,0,0,0,0,0,0,0,-1,1819,995,0,0
602,29,0,0,0,0,0,0,0,0,0,-1,1826,995,0,0
609,29,0,0,0,0,0,0,0,0,0,-1,1833,995,0,0
616,29,0,0,0,0,0,0,0,0,0,-1,1840,995,0,0
623,29,0,0,0,0,0,0,0,0,0,-1,1847,995,0,0
630,29,0,0,0,0,0,0,0,0,0,-1,1854,995,0,0
637,29,0,0,0,0,0,0,0,0,0,-1,1861,995,0,0
644,29,30.4971,3.1947,0.00622779,-0.000966889,-0.00307014,0.00735978,-0.00209889,-0.353246,0.00573562,0.0416497,1868,995,30.4971,-3.19471
651,29,30.4583,2.78156,0.00408846,-0.000889756,-0.00198972,0.00478599,-0.00158728,-0.337179,0.00383098,0.0408143,1875,995,30.4582,-2.78158
658,29,30.5365,2.9541,0.00242983,-0.000859484,-0.0011457,0.00278955,-0.0012192,-0.304226,0.00237291,0.0402752,1882,995,30.5365,-2.95411
665,29,30.6449,2.87701,0.00108104,-0.000654095,-0.00020233,0.00110432,-0.000677376,-0.11456,0.00103846,0.0407901,1889,995,30.6449,-2.87701
672,29,30.457,2.8443,-9.21192e-06,-0.000407529,0.000821284,0.000636716,-0.00105346,0.666446,0.00098566,0.0407308,1896,995,30.4571,-2.84432
679,29,30.3914,2.73621,-0.000872405,-0.000173979,0.00172071,0.00123259,-0.00227898,0.885512,0.00205719,0.0382543,1903,995,30.3913,-2.7362
686,29,30.4584,2.78278,-0.0013398,-7.57572e-05,0.00231414,0.00169111,-0.00310667,0.918703,0.0028099,0.0354395,1910,995,30.4584,-2.78279
693,29,30.5007,2.8811,-0.00155783,-1.02539e-05,0.00265161,0.00197817,-0.00354625,0.927365,0.00323207,0.0378755,1917,995,30.5007,-2.8811
700,29,30.3708,2.9118,-0.00173486,0.000115567,0.00272322,0.00206645,-0.00368574,0.949155,0.00336461,0.035373,1924,995,30.3709,-2.9118
707,29,30.3655,2.90894,-0.0019187,0.000290263,0.00267503,0.00207985,-0.00370829,0.981181,0.00338558,0.0245906,1931,995,30.3655,-2.90892
714,29,30.4246,3.14581,-0.00220385,0.000503819,0.00254213,0.00203014,-0.00373017,1.03007,0.00337365,0.03361,1938,995,30.4245,-3.1458
721,29,30.0809,4.23468,0,0,0,0,0,0,0,-1,1945,995,30.081,-4.23471
728,29,29.9347,4.47284,-0.00245687,0.00134602,0.00195243,0.00216992,-0.00328076,1.17148,0.00316866,0.0242217,1952,995,29.9347,-4.47284
735,29,29.8442,4.65875,-0.00226252,0.00197501,0.00156863,0.00249248,-0.00278,1.25215,0.00304557,0.0152518,1959,995,29.8442,-4.65878
742,29,29.847,4.74384,-0.00221116,0.00247464,0.000850962,0.0026244,-0.00236091,1.3966,0.00287961,0.0125435,1966,995,29.847,-4.74382
749,29,29.8414,4.84058,-0.00211115,0.00310678,-0.000263846,0.00312009,-0.00212445,-1.5204,0.00304607,0.0135906,1973,995,29.8414,-4.84056
756,29,29.8206,4.93585,-0.00178991,0.00357193,-0.00161192,0.00401921,-0.00223718,-1.30013,0.00366065,0.0130636,1980,995,29.8206,-4.93586
763,29,29.7937,5.01544,-0.00116849,0.0041755,-0.00337367,0.00580713,-0.00280012,-1.12032,0.00506948,0.0118599,1987,995,29.7937,-5.01542
770,29,29.7424,5.07251,-0.000202351,0.00472811,-0.00564205,0.00841999,-0.00389424,-0.991368,0.00726792,0.0145487,1994,995,29.7425,-5.07254
777,29,29.7173,5.24298,0.00110257,0.00488073,-0.0082915,0.0114956,-0.00551232,-0.897403,0.01002,0.0251745,2001,995,29.7173,-5.24295
784,29,29.7645,5.4455,0,0,0,0,0,0,0,-1,2008,995,29.7645,-5.44549
791,29,29.8497,5.18445,0,0,0,0,0,0,0,-1,2015,995,29.8497,-5.18445
798,29,29.6108,5.09613,0,0,0,0,0,0,0,-1,2022,995,29.6108,-5.0961
805,29,29.0667,4.09247,0,0,0,0,0,0,0,-1,2029,995,29.0666,-4.09245
812,29,29.0447,4.05975,0,0,0,0,0,0,0,-1,2036,995,29.0446,-4.05977
-700,22,0,0,0,0,0,0,0,0,0,-1,524,1002,0,0
-693,22,-20.4911,3.75342,0,0,0,0,0,0,0,-1,531,1002,-20.4911,-3.75339
-686,22,-20.5663,3.85754,0.0497047,0.0462288,0.00528632,0.0535314,0.0424021,0.626585,0.032617,0.0459546,538,1002,-20.5664,-3.85756
-679,22,-20.406,3.87012,0.0391126,0.0363477,0.00456427,0.0424992,0.0329611,0.638344,0.0257492,0.0484371,545,1002,-20.406,-3.87009
-672,22,-20.4453,3.50806,0.0291048,0.0294726,0.00329955,0.0325934,0.025984,0.813243,0.0198952,0.0465777,552,1002,-20.4453,-3.50803
-665,22,-20.5771,3.23853,0.020389,0.0243486,0.0019802,0.025169,0.0195686,1.17805,0.015259,0.0446304,559,1002,-20.5772,-3.23854
-658,22,-20.5739,3.05817,0.0132333,0.0202357,0.000866678,0.0203414,0.0131276,1.44947,0.0119084,0.0451473,566,1002,-20.5739,-3.05814
-651,22,-20.8367,2.74268,0.00778076,0.0166847,4.68108e-05,0.0166849,0.00778051,1.56554,0.00964034,0.0399615,573,1002,-20.8367,-2.74266
-644,22,-21.1862,2.41882,0.00389653,0.0135973,-0.000658607,0.0136418,0.00385202,-1.50332,0.00812097,0.0208641,580,1002,-21.1862,-2.41885
-637,22,-21.3102,2.35974,0.00157259,0.0097165,-0.000385063,0.00973467,0.00155442,-1.52365,0.0060387,0.0151585,587,1002,-21.3102,-2.35974
-630,22,-21.3302,2.34668,-0.000659659,0.0074941,-0.00279645,0.00836101,-0.00152657,-1.27019,0.00614638,0.0120793,594,1002,-21.3302,-2.34669
-623,22,-21.3542,2.31079,-0.00246859,0.00674688,-0.00407559,0.0082907,-0.00401241,-1.2087,0.00724495,0.0105886,601,1002,-21.3542,-2.31082
-616,22,-21.3633,2.23846,-0.00251167,0.00564187,-0.00485686,0.00790617,-0.00477597,-1.13455,0.007396,0.015622,608,1002,-21.3634,-2.23849
-609,22,-21.3768,2.17529,-0.00181019,0.00403219,-0.00502187,0.00692069,-0.00469869,-1.04882,0.00674922,0.0257046,615,1002,-21.3768,-2.17532
-602,22,-21.3561,2.12451,-0.00120856,0.00274588,-0.0058613,0.00695448,-0.00541715,-0.948072,0.00716112,0.026516,622,1002,-21.3561,-2.12452
-595,22,-21.2368,1.99298,-0.000985855,0.00203972,-0.00651827,0.00721845,-0.00616458,-0.899422,0.00773468,0.0223956,629,1002,-21.2368,-1.993
-588,22,-21.2273,1.53583,-0.00073159,0.00124604,-0.00680381,0.00713251,-0.00661806,-0.857559,0.00794075,0.0304847,636,1002,-21.2273,-1.53581
-581,22,-21.264,1.08014,-0.000588483,0.000378334,-0.00674335,0.00665558,-0.00686573,-0.82118,0.00780685,0.0396038,643,1002,-21.264,-1.08015
-574,22,-21.2846,0.846436,-0.000469942,-0.000411073,-0.00639833,0.00595789,-0.00683891,-0.787698,0.00739407,0.0335496,650,1002,-21.2846,-0.846443
-567,22,-21.2945,0.778381,-0.000349447,-0.00137048,-0.00553785,0.00470137,-0.0064213,-0.739435,0.00644721,0.0323345,657,1002,-21.2945,-0.778376
-560,22,-21.3066,0.693665,-8.27917e-05,-0.00257973,-0.00422193,0.00307139,-0.00573392,-0.64164,0.00516063,0.0387067,664,1002,-21.3066,-0.693643
-553,22,-21.3024,0.72229,0.000348636,-0.00412504,-0.00252565,0.00148558,-0.00526197,-0.422984,0.00409403,0.0428604,671,1002,-21.3025,-0.722289
-546,22,-21.2504,0.772217,0.00101305,-0.0061064,-0.000562016,0.00105714,-0.0061505,-0.0782947,0.00449435,0.0433737,678,1002,-21.2504,-0.772213
-539,22,-21.3039,0.763245,0.00190366,-0.00835775,0.00114272,0.00202938,-0.00848347,0.109573,0.00643959,0.0436043,685,1002,-21.3039,-0.763219
-532,22,-21.4133,1.13483,0.00252303,-0.0104746,0.0015689,0.00270972,-0.0106613,0.118441,0.00816209,0.0447152,692,1002,-21.4133,-1.1348
-525,22,0,0,0,0,0,0,0,0,0,-1,699,1002,0,0
-518,22,0,0,0,0,0,0,0,0,0,-1,706,1002,0,0
-511,22,0,0,0,0,0,0,0,0,0,-1,713,1002,0,0
-504,22,0,0,0,0,0,0,0,0,0,-1,720,1002,0,0
-497,22,0,0,0,0,0,0,0,0,0,-1,727,1002,0,0
-490,22,0,0,0,0,0,0,0,0,0,-1,734,1002,0,0
-483,22,0,0,0,0,0,0,0,0,0,-1,741,1002,0,0
-476,22,0,0,0,0,0,0,0,0,0,-1,748,1002,0,0
-469,22,0,0,0,0,0,0,0,0,0,-1,755,1002,0,0
-462,22,0,0,0,0,0,0,0,0,0,-1,762,1002,0,0
-455,22,0,0,0,0,0,0,0,0,0,-1,769,1002,0,0
-448,22,0,0,0,0,0,0,0,0,0,-1,776,1002,0,0
-441,22,0,0,0,0,0,0,0,0,0,-1,783,1002,0,0
-434,22,0,0,0,0,0,0,0,0,0,-1,790,1002,0,0
-427,22,0,0,0,0,0,0,0,0,0,-1,797,1002,0,0
-420,22,0,0,0,0,0,0,0,0,0,-1,804,1002,0,0
-413,22,0,0,0,0,0,0,0,0,0,-1,811,1002,0,0
-406,22,0,0,0,0,0,0,0,0,0,-1,818,1002,0,0
-399,22,0,0,0,0,0,0,0,0,0,-1,825,1002,0,0
-392,22,0,0,0,0,0,0,0,0,0,-1,832,1002,0,0
-385,22,0,0,0,0,0,0,0,0,0,-1,839,1002,0,0
-378,22,0,0,0,0,0,0,0,0,0,-1,846,1002,0,0
-371,22,0,0,0,0,0,0,0,0,0,-1,853,1002,0,0
-364,22,0,0,0,0,0,0,0,0,0,-1,860,1002,0,0
-357,22,0,0,0,0,0,0,0,0,0,-1,867,1002,0,0
-350,22,0,0,0,0,0,0,0,0,0,-1,874,1002,0,0
-343,22,0,0,0,0,0,0,0,0,0,-1,881,1002,0,0
-336,22,0,0,0,0,0,0,0,0,0,-1,888,1002,0,0
-329,22,0,0,0,0,0,0,0,0,0,-1,895,1002,0,0
-322,22,0,0,0,0,0,0,0,0,0,-1,902,1002,0,0
-315,22,0,0,0,0,0,0,0,0,0,-1,909,1002,0,0
-308,22,0,0,0,0,0,0,0,0,0,-1,916,1002,0,0
-301,22,0,0,0,0,0,0,0,0,0,-1,923,1002,0,0
-294,22,0,0,0,0,0,0,0,0,0,-1,930,1002,0,0
-287,22,0,0,0,0,0,0,0,0,0,-1,937,1002,0,0
-280,22,0,0,0,0,0,0,0,0,0,-1,944,1002,0,0
-273,22,0,0,0,0,0,0,0,0,0,-1,951,1002,0,0
-266,22,0,0,0,0,0,0,0,0,0,-1,958,1002,0,0
-259,22,0,0,0,0,0,0,0,0,0,-1,965,1002,0,0
-252,22,0,0,0,0,0,0,0,0,0,-1,972,1002,0,0
-245,22,0,0,0,0,0,0,0,0,0,-1,979,1002,0,0
-238,22,0,0,0,0,0,0,0,0,0,-1,986,1002,0,0
-231,22,0,0,0,0,0,0,0,0,0,-1,993,1002,0,0
-224,22,0,0,0,0,0,0,0,0,0,-1,1000,1002,0,0
-217,22,0,0,0,0,0,0,0,0,0,-1,1007,1002,0,0
-210,22,0,0,0,0,0,0,0,0,0,-1,1014,1002,0,0
-203,22,0,0,0,0,0,0,0,0,0,-1,1021,1002,0,0
-196,22,0,0,0,0,0,0,0,0,0,-1,1028,1002,0,0
-189,22,0,0,0,0,0,0,0,0,0,-1,1035,1002,0,0
-182,22,0,0,0,0,0,0,0,0,0,-1,1042,1002,0,0
-175,22,0,0,0,0,0,0,0,0,0,-1,1049,1002,0,0
-168,22,0,0,0,0,0,0,0,0,0,-1,1056,1002,0,0
-161,22,0,0,0,0,0,0,0,0,0,-1,1063,1002,0,0
-154,22,0,0,0,0,0,0,0,0,0,-1,1070,1002,0,0
-147,22,0,0,0,0,0,0,0,0,0,-1,1077,1002,0,0
-140,22,0,0,0,0,0,0,0,0,0,-1,1084,1002,0,0
-133,22,0,0,0,0,0,0,0,0,0,-1,1091,1002,0,0
-126,22,0,0,0,0,0,0,0,0,0,-1,1098,1002,0,0
-119,22,0,0,0,0,0,0,0,0,0,-1,1105,1002,0,0
-112,22,0,0,0,0,0,0,0,0,0,-1,1112,1002,0,0
-105,22,0,0,0,0,0,0,0,0,0,-1,1119,1002,0,0
-98,22,0,0,0,0,0,0,0,0,0,-1,1126,1002,0,0
-91,22,0,0,0,0,0,0,0,0,0,-1,1133,1002,0,0
-84,22,0,0,0,0,0,0,0,0,0,-1,1140,1002,0,0
-77,22,0,0,0,0,0,0,0,0,0,-1,1147,1002,0,0
-70,22,0,0,0,0,0,0,0,0,0,-1,1154,1002,0,0
-63,22,0,0,0,0,0,0,0,0,0,-1,1161,1002,0,0
-56,22,0,0,0,0,0,0,0,0,0,-1,1168,1002,0,0
-49,22,0,0,0,0,0,0,0,0,0,-1,1175,1002,0,0
-42,22,0,0,0,0,0,0,0,0,0,-1,1182,1002,0,0
-35,22,0,0,0,0,0,0,0,0,0,-1,1189,1002,0,0
-28,22,0,0,0,0,0,0,0,0,0,-1,1196,1002,0,0
-21,22,0,0,0,0,0,0,0,0,0,-1,1203,1002,0,0
-14,22,0,0,0,0,0,0,0,0,0,-1,1210,1002,0,0
-7,22,0,0,0,0,0,0,0,0,0,-1,1217,1002,0,0
0,22,0,0,0,0,0,0,0,0,0,-1,1224,1002,0,0
7,22,0,0,0,0,0,0,0,0,0,-1,1231,1002,0,0
14,22,0,0,0,0,0,0,0,0,0,-1,1238,1002,0,0
21,22,0,0,0,0,0,0,0,0,0,-1,1245,1002,0,0
28,22,0,0,0,0,0,0,0,0,0,-1,1252,1002,0,0
35,22,0,0,0,0,0,0,0,0,0,-1,1259,1002,0,0
42,22,0,0,0,0,0,0,0,0,0,-1,1266,1002,0,0
49,22,0,0,0,0,0,0,0,0,0,-1,1273,1002,0,0
56,22,0,0,0,0,0,0,0,0,0,-1,1280,1002,0,0
63,22,0,0,0,0,0,0,0,0,0,-1,1287,1002,0,0
70,22,0,0,0,0,0,0,0,0,0,-1,1294,1002,0,0
77,22,0,0,0,0,0,0,0,0,0,-1,1301,1002,0,0
84,22,0,0,0,0,0,0,0,0,0,-1,1308,1002,0,0
91,22,0,0,0,0,0,0,0,0,0,-1,1315,1002,0,0
98,22,0,0,0,0,0,0,0,0,0,-1,1322,1002,0,0
105,22,0,0,0,0,0,0,0,0,0,-1,1329,1002,0,0
112,22,0,0,0,0,0,0,0,0,0,-1,1336,1002,0,0
119,22,0,0,0,0,0,0,0,0,0,-1,1343,1002,0,0
126,22,0,0,0,0,0,0,0,0,0,-1,1350,1002,0,0
133,22,0,0,0,0,0,0,0,0,0,-1,1357,1002,0,0
140,22,0,0,0,0,0,0,0,0,0,-1,1364,1002,0,0
147,22,0,0,0,0,0,0,0,0,0,-1,1371,1002,0,0
154,22,0,0,0,0,0,0,0,0,0,-1,1378,1002,0,0
161,22,0,0,0,0,0,0,0,0,0,-1,1385,1002,0,0
168,22,0,0,0,0,0,0,0,0,0,-1,1392,1002,0,0
175,22,0,0,0,0,0,0,0,0,0,-1,1399,1002,0,0
182,22,0,0,0,0,0,0,0,0,0,-1,1406,1002,0,0
189,22,0,0,0,0,0,0,0,0,0,-1,1413,1002,0,0
196,22,0,0,0,0,0,0,0,0,0,-1,1420,1002,0,0
203,22,0,0,0,0,0,0,0,0,0,-1,1427,1002,0,0
210,22,0,0,0,0,0,0,0,0,0,-1,1434,1002,0,0
217,22,0,0,0,0,0,0,0,0,0,-1,1441,1002,0,0
224,22,0,0,0,0,0,0,0,0,0,-1,1448,1002,0,0
231,22,0,0,0,0,0,0,0,0,0,-1,1455,1002,0,0
238,22,0,0,0,0,0,0,0,0,0,-1,1462,1002,0,0
245,22,0,0,0,0,0,0,0,0,0,-1,1469,1002,0,0
252,22,0,0,0,0,0,0,0,0,0,-1,1476,1002,0,0
259,22,0,0,0,0,0,0,0,0,0,-1,1483,1002,0,0
266,22,0,0,0,0,0,0,0,0,0,-1,1490,1002,0,0
273,22,0,0,0,0,0,0,0,0,0,-1,1497,1002,0,0
280,22,0,0,0,0,0,0,0,0,0,-1,1504,1002,0,0
287,22,0,0,0,0,0,0,0,0,0,-1,1511,1002,0,0
294,22,0,0,0,0,0,0,0,0,0,-1,1518,1002,0,0
301,22,0,0,0,0,0,0,0,0,0,-1,1525,1002,0,0
308,22,0,0,0,0,0,0,0,0,0,-1,1532,1002,0,0
315,22,0,0,0,0,0,0,0,0,0,-1,1539,1002,0,0
322,22,0,0,0,0,0,0,0,0,0,-1,1546,1002,0,0
329,22,0,0,0,0,0,0,0,0,0,-1,1553,1002,0,0
336,22,0,0,0,0,0,0,0,0,0,-1,1560,1002,0,0
343,22,0,0,0,0,0,0,0,0,0,-1,1567,1002,0,0
350,22,0,0,0,0,0,0,0,0,0,-1,1574,1002,0,0
357,22,0,0,0,0,0,0,0,0,0,-1,1581,1002,0,0
364,22,0,0,0,0,0,0,0,0,0,-1,1588,1002,0,0
371,22,0,0,0,0,0,0,0,0,0,-1,1595,1002,0,0
378,22,0,0,0,0,0,0,0,0,0,-1,1602,1002,0,0
385,22,0,0,0,0,0,0,0,0,0,-1,1609,1002,0,0
392,22,0,0,0,0,0,0,0,0,0,-1,1616,1002,0,0
399,22,0,0,0,0,0,0,0,0,0,-1,1623,1002,0,0
406,22,0,0,0,0,0,0,0,0,0,-1,1630,1002,0,0
413,22,0,0,0,0,0,0,0,0,0,-1,1637,1002,0,0
420,22,0,0,0,0,0,0,0,0,0,-1,1644,1002,0,0
427,22,0,0,0,0,0,0,0,0,0,-1,1651,1002,0,0
434,22,0,0,0,0,0,0,0,0,0,-1,1658,1002,0,0
441,22,0,0,0,0,0,0,0,0,0,-1,1665,1002,0,0
448,22,0,0,0,0,0,0,0,0,0,-1,1672,1002,0,0
455,22,0,0,0,0,0,0,0,0,0,-1,1679,1002,0,0
462,22,0,0,0,0,0,0,0,0,0,-1,1686,1002,0,0
469,22,0,0,0,0,0,0,0,0,0,-1,1693,1002,0,0
476,22,0,0,0,0,0,0,0,0,0,-1,1700,1002,0,0
483,22,0,0,0,0,0,0,0,0,0,-1,1707,1002,0,0
490,22,0,0,0,0,0,0,0,0,0,-1,1714,1002,0,0
497,22,0,0,0,0,0,0,0,0,0,-1,1721,1002,0,0
504,22,0,0,0,0,0,0,0,0,0,-1,1728,1002,0,0
511,22,0,0,0,0,0,0,0,0,0,-1,1735,1002,0,0
518,22,0,0,0,0,0,0,0,0,0,-1,1742,1002,0,0
525,22,0,0,0,0,0,0,0,0,0,-1,1749,1002,0,0
532,22,0,0,0,0,0,0,0,0,0,-1,1756,1002,0,0
539,22,0,0,0,0,0,0,0,0,0,-1,1763,1002,0,0
546,22,0,0,0,0,0,0,0,0,0,-1,1770,1002,0,0
553,22,0,0,0,0,0,0,0,0,0,-1,1777,1002,0,0
560,22,0,0,0,0,0,0,0,0,0,-1,1784,1002,0,0
567,22,0,0,0,0,0,0,0,0,0,-1,1791,1002,0,0
574,22,0,0,0,0,0,0,0,0,0,-1,1798,1002,0,0
581,22,0,0,0,0,0,0,0,0,0,-1,1805,1002,0,0
588,22,0,0,0,0,0,0,0,0,0,-1,1812,1002,0,0
595,22,0,0,0,0,0,0,0,0,0,-1,1819,1002,0,0
602,22,0,0,0,0,0,0,0,0,0,-1,1826,1002,0,0
609,22,0,0,0,0,0,0,0,0,0,-1,1833,1002,0,0
616,22,0,0,0,0,0,0,0,0,0,-1,1840,1002,0,0
623,22,0,0,0,0,0,0,0,0,0,-1,1847,1002,0,0
630,22,0,0,0,0,0,0,0,0,0,-1,1854,1002,0,0
637,22,0,0,0,0,0,0,0,0,0,-1,1861,1002,0,0
644,22,30.3141,2.56097,0.00668622,-0.000874436,-0.00301501,0.0077413,-0.00192952,-0.336623,0.00590998,0.03981,1868,1002,30.3141,-2.56096
651,22,30.4324,2.60553,0.00441101,-0.000729682,-0.00201454,0.00510641,-0.00142508,-0.332381,0.00396559,0.0386475,1875,1002,30.4324,-2.60554
658,22,30.5894,2.76813,0.00264319,-0.000669069,-0.00127203,0.00307532,-0.0011012,-0.327485,0.00249949,0.0376996,1882,1002,30.5894,-2.76813
665,22,30.5913,2.99249,0.00122456,-0.000450784,-0.000445176,0.00133551,-0.00056173,-0.244243,0.00112533,0.0390557,1889,1002,30.5913,-2.99248
672,22,30.4526,2.87744,9.63291e-05,-0.000207508,0.000494614,0.000461829,-0.000573008,0.636398,0.000598612,0.0402442,1896,1002,30.4527,-2.87743
679,22,30.3971,2.69531,-0.000815784,2.49417e-05,0.00136412,0.001032,-0.00182284,0.93486,0.00166919,0.0392055,1903,1002,30.3971,-2.69529
686,22,30.4725,2.6944,-0.00132336,9.20697e-05,0.00196893,0.00147662,-0.0027079,0.957928,0.00245055,0.0378053,1910,1002,30.4726,-2.69439
693,22,30.4576,2.88611,-0.00155582,0.000114126,0.00234012,0.00176378,-0.00320547,0.956761,0.00290897,0.0389987,1917,1002,30.4576,-2.88614
700,22,30.421,2.98956,-0.00173184,0.000192789,0.00246938,0.00188074,-0.00341979,0.971196,0.00310296,0.0350229,1924,1002,30.421,-2.98959
707,22,30.3503,2.94275,-0.00190416,0.000320118,0.00250029,0.00194445,-0.0035285,0.99466,0.00320362,0.0315104,1931,1002,30.3504,-2.94276
714,22,30.6052,2.1543,0,0,0,0,0,0,0,-1,1938,1002,30.6052,-2.15432
721,22,30.3002,3.67029,0,0,0,0,0,0,0,-1,1945,1002,30.3002,-3.67032
728,22,29.9232,4.58752,0,0,0,0,0,0,0,-1,1952,1002,29.9232,-4.58754
735,22,29.9567,4.68774,-0.00230311,0.00181041,0.00162185,0.00237293,-0.00286563,1.23694,0.00302894,0.0152119,1959,1002,29.9566,-4.68773
742,22,29.9548,4.76263,-0.00227581,0.00225003,0.000973299,0.00245046,-0.00247625,1.3677,0.00284445,0.0155766,1966,1002,29.9548,-4.76263
749,22,29.9312,4.82819,-0.00218135,0.00280899,-1.78195e-05,0.00280905,-0.00218142,-1.56723,0.00288883,0.0125615,1973,1002,29.9312,-4.82816
756,22,29.9197,4.88574,-0.00180716,0.00327401,-0.00117639,0.00353315,-0.0020663,-1.35397,0.00326961,0.0171642,1980,1002,29.9197,-4.88576
763,22,29.8806,4.9751,-0.00115035,0.00384914,-0.00275733,0.00507117,-0.00237238,-1.15362,0.00439068,0.0175498,1987,1002,29.8806,-4.97508
770,22,29.7906,5.05103,-9.40835e-05,0.00437562,-0.00479063,0.00742704,-0.0031455,-1.00365,0.00626868,0.0170555,1994,1002,29.7907,-5.05102
777,22,29.6176,5.09106,0.00138938,0.00453492,-0.00708797,0.0102225,-0.00429822,-0.894576,0.00861299,0.0376445,2001,1002,29.6175,-5.09107
784,22,29.4855,5.17529,0,0,0,0,0,0,0,-1,2008,1002,29.4855,-5.17531
791,22,29.9711,4.95422,0,0,0,0,0,0,0,-1,2015,1002,29.9711,-4.95425
798,22,29.3115,4.1814,0.00820935,0.00115306,-0.0171136,0.0221547,-0.0127923,-0.683742,0.0204166,0.0417859,2022,1002,29.3116,-4.18143
805,22,29.2502,4.1192,0.0114009,-0.00197349,-0.0219067,0.0276183,-0.0181909,-0.637262,0.026634,0.0461629,2029,1002,29.2503,-4.11919
812,22,29.4883,3.8667,0,0,0,0,0,0,0,-1,2036,1002,29.4884,-3.86671
-700,15,0,0,0,0,0,0,0,0,0,-1,524,1009,0,0
-693,15,-21.027,3.03558,0,0,0,0,0,0,0,-1,531,1009,-21.027,-3.03557
-686,15,-21.081,3.06812,0.0251696,0.0559746,-0.00111858,0.0560151,0.025129,-1.53455,0.0323972,0.0440842,538,1009,-21.081,-3.0681
-679,15,-20.437,3.69366,0.0198372,0.045366,-0.000994563,0.0454047,0.0197985,-1.53192,0.0262858,0.0477684,545,1009,-20.437,-3.69365
-672,15,-20.5889,3.42694,0.0143375,0.0373285,-0.00122547,0.0373936,0.0142723,-1.51769,0.0217898,0.044106,552,1009,-20.5889,-3.42694
-665,15,-20.6409,3.35461,0.00943901,0.0308785,-0.00150044,0.030983,0.00933451,-1.50126,0.0183529,0.0427804,559,1009,-20.6409,-3.35464
-658,15,-20.5126,3.08301,0.0054363,0.0254282,-0.00166783,0.0255664,0.00529811,-1.48813,0.0155814,0.04272,566,1009,-20.5126,-3.08303
-651,15,-20.9261,2.39203,0.002495,0.0206292,-0.00170743,0.0207886,0.00233564,-1.47773,0.0131498,0.0384604,573,1009,-20.9262,-2.39203
-644,15,-21.2503,2.34192,0.000527277,0.0164478,-0.00182577,0.0166545,0.00032058,-1.45807,0.0109977,0.0239486,580,1009,-21.2503,-2.3419
-637,15,-21.325,2.37323,-0.000314137,0.0120128,-0.00136742,0.0121627,-0.000464,-1.46164,0.00826747,0.0197028,587,1009,-21.325,-2.37321
-630,15,-21.3619,2.31714,-0.00124332,0.00860156,-0.00333183,0.00962315,-0.00226491,-1.27328,0.00728866,0.013135,594,1009,-21.3619,-2.31712
-623,15,-21.3875,2.28558,-0.00231865,0.00734238,-0.00439092,0.00903981,-0.00401608,-1.20191,0.00772159,0.00884554,601,1009,-21.3875,-2.28556
-616,15,-21.4023,2.24469,-0.00217186,0.00586488,-0.00513821,0.00836943,-0.00467641,-1.11725,0.00763196,0.0131171,608,1009,-21.4023,-2.24466
-609,15,-21.3916,2.20758,-0.00127722,0.00393566,-0.00522743,0.00717042,-0.00451198,-1.01666,0.0068028,0.0182855,615,1009,-21.3916,-2.20755
-602,15,-21.3492,2.13879,-0.000612539,0.00251252,-0.00608235,0.00722983,-0.00532986,-0.911127,0.00727895,0.020277,622,1009,-21.3492,-2.1388
-595,15,-21.2554,1.70209,-0.00033072,0.00178468,-0.00677265,0.00758173,-0.00612777,-0.862859,0.00793001,0.0306194,629,1009,-21.2554,-1.70206
-588,15,-21.189,1.30798,-1.3924e-05,0.000942139,-0.00704881,0.00752911,-0.00660089,-0.819255,0.00816383,0.0362327,636,1009,-21.189,-1.308
-581,15,-21.2654,1.00488,0.00013218,5.0139e-05,-0.0069577,0.00704898,-0.00686666,-0.78245,0.00803442,0.0370076,643,1009,-21.2654,-1.00485
-574,15,-21.2701,0.921082,0.000197619,-0.000784266,-0.00656559,0.0062906,-0.00687725,-0.74808,0.00760497,0.0332303,650,1009,-21.2702,-0.921111
-567,15,-21.3113,0.801758,0.000210448,-0.00179113,-0.00564837,0.00494601,-0.00652668,-0.697717,0.00664468,0.033286,657,1009,-21.3113,-0.801775
-560,15,-21.334,0.784424,0.000290023,-0.00305962,-0.00427011,0.00320201,-0.00597161,-0.598507,0.00537625,0.0376305,664,1009,-21.334,-0.784409
-553,15,-21.1871,0.994873,0.000446251,-0.00468561,-0.00251521,0.00147341,-0.00571277,-0.387708,0.00438299,0.04039,671,1009,-21.1871,-0.994883
-546,15,-21.0281,1.24445,0,0,0,0,0,0,0,-1,678,1009,-21.0281,-1.24443
-539,15,-21.3173,0.981079,0.00117151,-0.00904982,0.00109883,0.0012883,-0.00916662,0.105891,0.00658267,0.040796,685,1009,-21.3172,-0.981049
-532,15,-21.3519,0.999084,0.00127041,-0.0110867,0.00118529,0.00138307,-0.0111994,0.0947682,0.00796739,0.0405346,692,1009,-21.3519,-0.999097
-525,15,0,0,0,0,0,0,0,0,0,-1,699,1009,0,0
-518,15,0,0,0,0,0,0,0,0,0,-1,706,1009,0,0
-511,15,0,0,0,0,0,0,0,0,0,-1,713,1009,0,0
-504,15,0,0,0,0,0,0,0,0,0,-1,720,1009,0,0
-497,15,0,0,0,0,0,0,0,0,0,-1,727,1009,0,0
-490,15,0,0,0,0,0,0,0,0,0,-1,734,1009,0,0
-483,15,0,0,0,0,0,0,0,0,0,-1,741,1009,0,0
-476,15,0,0,0,0,0,0,0,0,0,-1,748,1009,0,0
-469,15,0,0,0,0,0,0,0,0,0,-1,755,1009,0,0
-462,15,0,0,0,0,0,0,0,0,0,-1,762,1009,0,0
-455,15,0,0,0,0,0,0,0,0,0,-1,769,1009,0,0
-448,15,0,0,0,0,0,0,0,0,0,-1,776,1009,0,0
-441,15,0,0,0,0,0,0,0,0,0,-1,783,1009,0,0
-434,15,0,0,0,0,0,0,0,0,0,-1,790,1009,0,0
-427,15,0,0,0,0,0,0,0,0,0,-1,797,1009,0,0
-420,15,0,0,0,0,0,0,0,0,0,-1,804,1009,0,0
-413,15,0,0,0,0,0,0,0,0,0,-1,811,1009,0,0
-406,15,0,0,0,0,0,0,0,0,0,-1,818,1009,0,0
-399,15,0,0,0,0,0,0,0,0,0,-1,825,1009,0,0
-392,15,0,0,0,0,0,0,0,0,0,-1,832,1009,0,0
-385,15,0,0,0,0,0,0,0,0,0,-1,839,1009,0,0
-378,15,0,0,0,0,0,0,0,0,0,-1,846,1009,0,0
-371,15,0,0,0,0,0,0,0,0,0,-1,853,1009,0,0
-364,15,0,0,0,0,0,0,0,0,0,-1,860,1009,0,0
-357,15,0,0,0,0,0,0,0,0,0,-1,867,1009,0,0
-350,15,0,0,0,0,0,0,0,0,0,-1,874,1009,0,0
-343,15,0,0,0,0,0,0,0,0,0,-1,881,1009,0,0
-336,15,0,0,0,0,0,0,0,0,0,-1,888,1009,0,0
-329,15,0,0,0,0,0,0,0,0,0,-1,895,1009,0,0
-322,15,0,0,0,0,0,0,0,0,0,-1,902,1009,0,0
-315,15,0,0,0,0,0,0,0,0,0,-1,909,1009,0,0
-308,15,0,0,0,0,0,0,0,0,0,-1,916,1009,0,0
-301,15,0,0,0,0,0,0,0,0,0,-1,923,1009,0,0
-294,15,0,0,0,0,0,0,0,0,0,-1,930,1009,0,0
-287,15,0,0,0,0,0,0,0,0,0,-1,937,1009,0,0
-280,15,0,0,0,0,0,0,0,0,0,-1,944,1009,0,0
-273,15,0,0,0,0,0,0,0,0,0,-1,951,1009,0,0
-266,15,0,0,0,0,0,0,0,0,0,-1,958,1009,0,0
-259,15,0,0,0,0,0,0,0,0,0,-1,965,1009,0,0
-252,15,0,0,0,0,0,0,0,0,0,-1,972,1009,0,0
-245,15,0,0,0,0,0,0,0,0,0,-1,979,1009,0,0
-238,15,0,0,0,0,0,0,0,0,0,-1,986,1009,0,0
-231,15,0,0,0,0,0,0,0,0,0,-1,993,1009,0,0
-224,15,0,0,0,0,0,0,0,0,0,-1,1000,1009,0,0
-217,15,0,0,0,0,0,0,0,0,0,-1,1007,1009,0,0
-210,15,0,0,0,0,0,0,0,0,0,-1,1014,1009,0,0
-203,15,0,0,0,0,0,0,0,0,0,-1,1021,1009,0,0
-196,15,0,0,0,0,0,0,0,0,0,-1,1028,1009,0,0
-189,15,0,0,0,0,0,0,0,0,0,-1,1035,1009,0,0
-182,15,0,0,0,0,0,0,0,0,0,-1,1042,1009,0,0
-175,15,0,0,0,0,0,0,0,0,0,-1,1049,1009,0,0
-168,15,0,0,0,0,0,0,0,0,0,-1,1056,1009,0,0
-161,15,0,0,0,0,0,0,0,0,0,-1,1063,1009,0,0
-154,15,0,0,0,0,0,0,0,0,0,-1,1070,1009,0,0
-147,15,0,0,0,0,0,0,0,0,0,-1,1077,1009,0,0
-140,15,0,0,0,0,0,0,0,0,0,-1,1084,1009,0,0
-133,15,0,0,0,0,0,0,0,0,0,-1,1091,1009,0,0
-126,15,0,0,0,0,0,0,0,0,0,-1,1098,1009,0,0
-119,15,0,0,0,0,0,0,0,0,0,-1,1105,1009,0,0
-112,15,0,0,0,0,0,0,0,0,0,-1,1112,1009,0,0
-105,15,0,0,0,0,0,0,0,0,0,-1,1119,1009,0,0
-98,15,0,0,0,0,0,0,0,0,0,-1,1126,1009,0,0
-91,15,0,0,0,0,0,0,0,0,0,-1,1133,1009,0,0
-84,15,0,0,0,0,0,0,0,0,0,-1,1140,1009,0,0
-77,15,0,0,0,0,0,0,0,0,0,-1,1147,1009,0,0
-70,15,0,0,0,0,0,0,0,0,0,-1,1154,1009,0,0
-63,15,0,0,0,0,0,0,0,0,0,-1,1161,1009,0,0
-56,15,0,0,0,0,0,0,0,0,0,-1,1168,1009,0,0
-49,15,0,0,0,0,0,0,0,0,0,-1,1175,1009,0,0
-42,15,0,0,0,0,0,0,0,0,0,-1,1182,1009,0,0
-35,15,0,0,0,0,0,0,0,0,0,-1,1189,1009,0,0
-28,15,0,0,0,0,0,0,0,0,0,-1,1196,1009,0,0
-21,15,0,0,0,0,0,0,0,0,0,-1,1203,1009,0,0
-14,15,0,0,0,0,0,0,0,0,0,-1,1210,1009,0,0
-7,15,0,0,0,0,0,0,0,0,0,-1,1217,1009,0,0
0,15,0,0,0,0,0,0,0,0,0,-1,1224,1009,0,0
7,15,0,0,0,0,0,0,0,0,0,-1,1231,1009,0,0
14,15,0,0,0,0,0,0,0,0,0,-1,1238,1009,0,0
21,15,0,0,0,0,0,0,0,0,0,-1,1245,1009,0,0
28,15,0,0,0,0,0,0,0,0,0,-1,1252,1009,0,0
35,15,0,0,0,0,0,0,0,0,0,-1,1259,1009,0,0
42,15,0,0,0,0,0,0,0,0,0,-1,1266,1009,0,0
49,15,0,0,0,0,0,0,0,0,0,-1,1273,1009,0,0
56,15,0,0,0,0,0,0,0,0,0,-1,1280,1009,0,0
63,15,0,0,0,0,0,0,0,0,0,-1,1287,1009,0,0
70,15,0,0,0,0,0,0,0,0,0,-1,1294,1009,0,0
77,15,0,0,0,0,0,0,0,0,0,-1,1301,1009,0,0
84,15,0,0,0,0,0,0,0,0,0,-1,1308,1009,0,0
91,15,0,0,0,0,0,0,0,0,0,-1,1315,1009,0,0
98,15,0,0,0,0,0,0,0,0,0,-1,1322,1009,0,0
105,15,0,0,0,0,0,0,0,0,0,-1,1329,1009,0,0
112,15,0,0,0,0,0,0,0,0,0,-1,1336,1009,0,0
119,15,0,0,0,0,0,0,0,0,0,-1,1343,1009,0,0
126,15,0,0,0,0,0,0,0,0,0,-1,1350,1009,0,0
133,15,0,0,0,0,0,0,0,0,0,-1,1357,1009,0,0
140,15,0,0,0,0,0,0,0,0,0,-1,1364,1009,0,0
147,15,0,0,0,0,0,0,0,0,0,-1,1371,1009,0,0
154,15,0,0,0,0,0,0,0,0,0,-1,1378,1009,0,0
161,15,0,0,0,0,0,0,0,0,0,-1,1385,1009,0,0
168,15,0,0,0,0,0,0,0,0,0,-1,1392,1009,0,0
175,15,0,0,0,0,0,0,0,0,0,-1,1399,1009,0,0
182,15,0,0,0,0,0,0,0,0,0,-1,1406,1009,0,0
189,15,0,0,0,0,0,0,0,0,0,-1,1413,1009,0,0
196,15,0,0,0,0,0,0,0,0,0,-1,1420,1009,0,0
203,15,0,0,0,0,0,0,0,0,0,-1,1427,1009,0,0
210,15,0,0,0,0,0,0,0,0,0,-1,1434,1009,0,0
217,15,0,0,0,0,0,0,0,0,0,-1,1441,1009,0,0
224,15,0,0,0,0,0,0,0,0,0,-1,1448,1009,0,0
231,15,0,0,0,0,0,0,0,0,0,-1,1455,1009,0,0
238,15,0,0,0,0,0,0,0,0,0,-1,1462,1009,0,0
245,15,0,0,0,0,0,0,0,0,0,-1,1469,1009,0,0
252,15,0,0,0,0,0,0,0,0,0,-1,1476,1009,0,0
259,15,0,0,0,0,0,0,0,0,0,-1,1483,1009,0,0
266,15,0,0,0,0,0,0,0,0,0,-1,1490,1009,0,0
273,15,0,0,0,0,0,0,0,0,0,-1,1497,1009,0,0
280,15,0,0,0,0,0,0,0,0,0,-1,1504,1009,0,0
287,15,0,0,0,0,0,0,0,0,0,-1,1511,1009,0,0
294,15,0,0,0,0,0,0,0,0,0,-1,1518,1009,0,0
301,15,0,0,0,0,0,0,0,0,0,-1,1525,1009,0,0
308,15,0,0,0,0,0,0,0,0,0,-1,1532,1009,0,0
315,15,0,0,0,0,0,0,0,0,0,-1,1539,1009,0,0
322,15,0,0,0,0,0,0,0,0,0,-1,1546,1009,0,0
329,15,0,0,0,0,0,0,0,0,0,-1,1553,1009,0,0
336,15,0,0,0,0,0,0,0,0,0,-1,1560,1009,0,0
343,15,0,0,0,0,0,0,0,0,0,-1,1567,1009,0,0
350,15,0,0,0,0,0,0,0,0,0,-1,1574,1009,0,0
357,15,0,0,0,0,0,0,0,0,0,-1,1581,1009,0,0
364,15,0,0,0,0,0,0,0,0,0,-1,1588,1009,0,0
371,15,0,0,0,0,0,0,0,0,0,-1,1595,1009,0,0
378,15,0,0,0,0,0,0,0,0,0,-1,1602,1009,0,0
385,15,0,0,0,0,0,0,0,0,0,-1,1609,1009,0,0
392,15,0,0,0,0,0,0,0,0,0,-1,1616,1009,0,0
399,15,0,0,0,0,0,0,0,0,0,-1,1623,1009,0,0
406,15,0,0,0,0,0,0,0,0,0,-1,1630,1009,0,0
413,15,0,0,0,0,0,0,0,0,0,-1,1637,1009,0,0
420,15,0,0,0,0,0,0,0,0,0,-1,1644,1009,0,0
427,15,0,0,0,0,0,0,0,0,0,-1,1651,1009,0,0
434,15,0,0,0,0,0,0,0,0,0,-1,1658,1009,0,0
441,15,0,0,0,0,0,0,0,0,0,-1,1665,1009,0,0
448,15,0,0,0,0,0,0,0,0,0,-1,1672,1009,0,0
455,15,0,0,0,0,0,0,0,0,0,-1,1679,1009,0,0
462,15,0,0,0,0,0,0,0,0,0,-1,1686,1009,0,0
469,15,0,0,0,0,0,0,0,0,0,-1,1693,1009,0,0
476,15,0,0,0,0,0,0,0,0,0,-1,1700,1009,0,0
483,15,0,0,0,0,0,0,0,0,0,-1,1707,1009,0,0
490,15,0,0,0,0,0,0,0,0,0,-1,1714,1009,0,0
497,15,0,0,0,0,0,0,0,0,0,-1,1721,1009,0,0
504,15,0,0,0,0,0,0,0,0,0,-1,1728,1009,0,0
511,15,0,0,0,0,0,0,0,0,0,-1,1735,1009,0,0
518,15,0,0,0,0,0,0,0,0,0,-1,1742,1009,0,0
525,15,0,0,0,0,0,0,0,0,0,-1,1749,1009,0,0
532,15,0,0,0,0,0,0,0,0,0,-1,1756,1009,0,0
539,15,0,0,0,0,0,0,0,0,0,-1,1763,1009,0,0
546,15,0,0,0,0,0,0,0,0,0,-1,1770,1009,0,0
553,15,0,0,0,0,0,0,0,0,0,-1,1777,1009,0,0
560,15,0,0,0,0,0,0,0,0,0,-1,1784,1009,0,0
567,15,0,0,0,0,0,0,0,0,0,-1,1791,1009,0,0
574,15,0,0,0,0,0,0,0,0,0,-1,1798,1009,0,0
581,15,0,0,0,0,0,0,0,0,0,-1,1805,1009,0,0
588,15,0,0,0,0,0,0,0,0,0,-1,1812,1009,0,0
595,15,0,0,0,0,0,0,0,0,0,-1,1819,1009,0,0
602,15,0,0,0,0,0,0,0,0,0,-1,1826,1009,0,0
609,15,0,0,0,0,0,0,0,0,0,-1,1833,1009,0,0
616,15,0,0,0,0,0,0,0,0,0,-1,1840,1009,0,0
623,15,0,0,0,0,0,0,0,0,0,-1,1847,1009,0,0
630,15,0,0,0,0,0,0,0,0,0,-1,1854,1009,0,0
637,15,0,0,0,0,0,0,0,0,0,-1,1861,1009,0,0
644,15,30.1196,2.83325,0.00701767,-0.000843716,-0.00312015,0.00810551,-0.00193156,-0.335472,0.00614949,0.0418634,1868,1009,30.1196,-2.83324
651,15,30.3457,2.86176,0.00464626,-0.000597664,-0.00204898,0.00535191,-0.00130331,-0.331669,0.0040725,0.0364812,1875,1009,30.3458,-2.86177
658,15,30.4117,2.8399,0.00278814,-0.000470499,-0.00128812,0.00323582,-0.000918178,-0.334487,0.00251967,0.0344787,1882,1009,30.4118,-2.83993
665,15,30.4067,2.79468,0.00129559,-0.000230335,-0.000504661,0.00144739,-0.000382138,-0.292191,0.00111437,0.0381914,1889,1009,30.4068,-2.79468
672,15,30.3674,2.78735,0.000127678,3.12491e-06,0.000408429,0.000478551,-0.000347748,0.709742,0.000479052,0.0394757,1896,1009,30.3674,-2.78737
679,15,30.395,2.72241,-0.00081998,0.000214208,0.00128583,0.00108302,-0.0016888,0.976576,0.001613,0.04004,1903,1009,30.395,-2.7224
686,15,30.4471,2.67877,-0.00135105,0.000236087,0.0019077,0.0015087,-0.00262366,0.982501,0.00241459,0.0416481,1910,1009,30.4471,-2.67878
693,15,30.4446,2.76208,-0.00158202,0.000206139,0.00230909,0.0017882,-0.00316408,0.97011,0.00289575,0.0396999,1917,1009,30.4446,-2.76208
700,15,30.4485,2.87189,-0.00173515,0.000227829,0.00247875,0.00191233,-0.00341965,0.973908,0.00311915,0.0321228,1924,1009,30.4484,-2.87191
707,15,30.3926,2.92053,-0.00187607,0.000303424,0.0025552,0.00199155,-0.0035642,0.986961,0.00325017,0.0299894,1931,1009,30.3925,-2.92053
714,15,30.5006,1.92212,0,0,0,0,0,0,0,-1,1938,1009,30.5007,-1.92212
721,15,30.3965,3.38,0,0,0,0,0,0,0,-1,1945,1009,30.3965,-3.38
728,15,30.0664,4.58936,0,0,0,0,0,0,0,-1,1952,1009,30.0665,-4.58934
735,15,30.0304,4.70715,-0.00231183,0.00169659,0.00178433,0.00237579,-0.00299103,1.20708,0.00310532,0.0163423,1959,1009,30.0304,-4.70713
742,15,30.0236,4.80927,-0.00229105,0.00214245,0.00118123,0.00243753,-0.00258612,1.326,0.00290083,0.0185987,1966,1009,30.0235,-4.80929
749,15,29.9863,4.83881,-0.00221096,0.00266631,0.000274322,0.00268169,-0.00222634,1.51479,0.00283772,0.0113204,1973,1009,29.9863,-4.83883
756,15,29.9829,4.849,-0.00184886,0.00321267,-0.000759062,0.00332406,-0.00196025,-1.4251,0.00308458,0.0120169,1980,1009,29.9829,-4.84901
763,15,29.9569,4.91821,-0.0012362,0.0038847,-0.00218904,0.0046929,-0.0020444,-1.21712,0.00398871,0.0116476,1987,1009,29.9569,-4.9182
770,15,29.8818,4.98169,-0.000198071,0.00452822,-0.00404375,0.00684871,-0.00251856,-1.04983,0.00559749,0.0177227,1994,1009,29.8819,-4.9817
777,15,29.6687,5.05084,0.00135558,0.00483683,-0.00608454,0.00942482,-0.00323241,-0.924714,0.00759358,0.0425483,2001,1009,29.6687,-5.05085
784,15,29.5261,5.13239,0,0,0,0,0,0,0,-1,2008,1009,29.5262,-5.13238
791,15,29.4651,4.2926,0.00586482,0.00381231,-0.011311,0.0161961,-0.00651894,-0.740157,0.0135054,0.0438715,2015,1009,29.4651,-4.29261
798,15,29.5024,4.26105,0.00914568,0.0020698,-0.0147365,0.020763,-0.00954747,-0.667588,0.0178946,0.0428435,2022,1009,29.5025,-4.26102
805,15,29.3606,4.2876,0.0131439,-0.000756449,-0.0188075,0.0262443,-0.0138569,-0.608409,0.0235177,0.0458251,2029,1009,29.3606,-4.28759
812,15,29.2446,4.63696,0,0,0,0,0,0,0,-1,2036,1009,29.2446,-4.63695
-700,8,0,0,0,0,0,0,0,0,0,-1,524,1016,0,0
-693,8,-19.4401,4.15741,0,0,0,0,0,0,0,-1,531,1016,-19.4401,-4.15743
-686,8,-20.2508,4.20477,0,0,0,0,0,0,0,-1,538,1016,-20.2508,-4.20478
-679,8,-20.3895,3.92242,0.0132485,0.0478581,-0.00208571,0.0479833,0.0131232,-1.51082,0.0286351,0.0462247,545,1016,-20.3896,-3.92244
-672,8,-19.2844,3.98846,0.0101363,0.0397543,-0.00206314,0.0398974,0.00999324,-1.50158,0.0239718,0.0423856,552,1016,-19.2844,-3.98845
-665,8,-20.1822,3.27277,0.00702644,0.033001,-0.0020438,0.0331609,0.00686661,-1.49275,0.020211,0.0420924,559,1016,-20.1822,-3.27277
-658,8,-20.7612,2.60303,0.00428404,0.0271567,-0.00194905,0.0273216,0.00411914,-1.48639,0.0170084,0.0385373,566,1016,-20.7611,-2.60305
-651,8,-20.8589,2.26221,0,0,0,0,0,0,0,-1,573,1016,-20.8589,-2.2622
-644,8,-21.18,2.2038,0.000658481,0.0173979,-0.00181359,0.0175922,0.000464245,-1.4641,0.0115765,0.0287278,580,1016,-21.18,-2.20382
-637,8,-21.2612,2.2843,5.82438e-05,0.0130247,-0.00156929,0.0132119,-0.000128978,-1.45205,0.00885125,0.0250761,587,1016,-21.2612,-2.28431
-630,8,-21.376,2.28821,-0.000540738,0.0088893,-0.00336936,0.00996945,-0.00162089,-1.26057,0.00724727,0.0170224,594,1016,-21.376,-2.28822
-623,8,-21.3878,2.28601,-0.00149317,0.00740435,-0.00435558,0.00918155,-0.00327037,-1.18339,0.00745425,0.0121498,601,1016,-21.3878,-2.28599
-616,8,-21.4055,2.25586,-0.00161296,0.00579486,-0.00521579,0.00848809,-0.00430619,-1.09415,0.00751716,0.0116636,608,1016,-21.4055,-2.25587
-609,8,-21.4,2.20093,-0.000823462,0.00370471,-0.00529539,0.00719972,-0.00431848,-0.987416,0.00671903,0.0141746,615,1016,-21.4,-2.20093
-602,8,-21.3661,2.18524,-0.000159884,0.00217621,-0.00619289,0.00731024,-0.00529392,-0.878609,0.00730799,0.020694,622,1016,-21.3661,-2.18522
-595,8,-21.2549,1.54968,0,0,0,0,0,0,0,-1,629,1016,-21.2549,-1.54971
-588,8,-21.2037,0.863892,0,0,0,0,0,0,0,-1,636,1016,-21.2037,-0.8639
-581,8,-21.2309,1.0188,0.000637396,-0.000226923,-0.00707703,0.00729545,-0.00688498,-0.754903,0.00818822,0.0277813,643,1016,-21.2309,-1.01879
-574,8,-21.2637,0.933289,0.000644266,-0.00101022,-0.00663792,0.00650629,-0.00687224,-0.723406,0.00772506,0.0355127,650,1016,-21.2636,-0.933316
-567,8,-21.3471,0.7995,0.000546515,-0.00194506,-0.00566923,0.00510522,-0.00650377,-0.677244,0.00671865,0.0399116,657,1016,-21.3471,-0.799477
-560,8,-21.334,0.819214,0.000440436,-0.00311815,-0.00423126,0.00325129,-0.005929,-0.586367,0.00537487,0.0409996,664,1016,-21.334,-0.819187
-553,8,-21.2705,0.915833,0.000323522,-0.00462906,-0.00241345,0.00130509,-0.00561062,-0.386274,0.00424289,0.0419434,671,1016,-21.2705,-0.915825
-546,8,-21.359,1.14551,0.000253137,-0.00658797,-0.000357832,0.000271803,-0.00660664,-0.0521166,0.00449777,0.0394115,678,1016,-21.359,-1.14548
-539,8,-21.3466,1.24591,0.000201619,-0.00862329,0.00120034,0.000361972,-0.00878364,0.132804,0.00598007,0.0398212,685,1016,-21.3465,-1.24594
-532,8,-21.1632,1.07526,-0.000203061,-0.0103476,0.00101077,-0.000103332,-0.0104473,0.0983482,0.0069307,0.0405212,692,1016,-21.1632,-1.07524
-525,8,0,0,0,0,0,0,0,0,0,-1,699,1016,0,0
-518,8,0,0,0,0,0,0,0,0,0,-1,706,1016,0,0
-511,8,0,0,0,0,0,0,0,0,0,-1,713,1016,0,0
-504,8,0,0,0,0,0,0,0,0,0,-1,720,1016,0,0
-497,8,0,0,0,0,0,0,0,0,0,-1,727,1016,0,0
-490,8,0,0,0,0,0,0,0,0,0,-1,734,1016,0,0
-483,8,0,0,0,0,0,0,0,0,0,-1,741,1016,0,0
-476,8,0,0,0,0,0,0,0,0,0,-1,748,1016,0,0
-469,8,0,0,0,0,0,0,0,0,0,-1,755,1016,0,0
-462,8,0,0,0,0,0,0,0,0,0,-1,762,1016,0,0
-455,8,0,0,0,0,0,0,0,0,0,-1,769,1016,0,0
-448,8,0,0,0,0,0,0,0,0,0,-1,776,1016,0,0
-441,8,0,0,0,0,0,0,0,0,0,-1,783,1016,0,0
-434,8,0,0,0,0,0,0,0,0,0,-1,790,1016,0,0
-427,8,0,0,0,0,0,0,0,0,0,-1,797,1016,0,0
-420,8,0,0,0,0,0,0,0,0,0,-1,804,1016,0,0
-413,8,0,0,0,0,0,0,0,0,0,-1,811,1016,0,0
-406,8,0,0,0,0,0,0,0,0,0,-1,818,1016,0,0
-399,8,0,0,0,0,0,0,0,0,0,-1,825,1016,0,0
-392,8,0,0,0,0,0,0,0,0,0,-1,832,1016,0,0
-385,8,0,0,0,0,0,0,0,0,0,-1,839,1016,0,0
-378,8,0,0,0,0,0,0,0,0,0,-1,846,1016,0,0
-371,8,0,0,0,0,0,0,0,0,0,-1,853,1016,0,0
-364,8,0,0,0,0,0,0,0,0,0,-1,860,1016,0,0
-357,8,0,0,0,0,0,0,0,0,0,-1,867,1016,0,0
-350,8,0,0,0,0,0,0,0,0,0,-1,874,1016,0,0
-343,8,0,0,0,0,0,0,0,0,0,-1,881,1016,0,0
-336,8,0,0,0,0,0,0,0,0,0,-1,888,1016,0,0
-329,8,0,0,0,0,0,0,0,0,0,-1,895,1016,0,0
-322,8,0,0,0,0,0,0,0,0,0,-1,902,1016,0,0
-315,8,0,0,0,0,0,0,0,0,0,-1,909,1016,0,0
-308,8,0,0,0,0,0,0,0,0,0,-1,916,1016,0,0
-301,8,0,0,0,0,0,0,0,0,0,-1,923,1016,0,0
-294,8,0,0,0,0,0,0,0,0,0,-1,930,1016,0,0
-287,8,0,0,0,0,0,0,0,0,0,-1,937,1016,0,0
-280,8,0,0,0,0,0,0,0,0,0,-1,944,1016,0,0
-273,8,0,0,0,0,0,0,0,0,0,-1,951,1016,0,0
-266,8,0,0,0,0,0,0,0,0,0,-1,958,1016,0,0
-259,8,0,0,0,0,0,0,0,0,0,-1,965,1016,0,0
-252,8,0,0,0,0,0,0,0,0,0,-1,972,1016,0,0
-245,8,0,0,0,0,0,0,0,0,0,-1,979,1016,0,0
-238,8,0,0,0,0,0,0,0,0,0,-1,986,1016,0,0
-231,8,0,0,0,0,0,0,0,0,0,-1,993,1016,0,0
-224,8,0,0,0,0,0,0,0,0,0,-1,1000,1016,0,0
-217,8,0,0,0,0,0,0,0,0,0,-1,1007,1016,0,0
-210,8,0,0,0,0,0,0,0,0,0,-1,1014,1016,0,0
-203,8,0,0,0,0,0,0,0,0,0,-1,1021,1016,0,0
-196,8,0,0,0,0,0,0,0,0,0,-1,1028,1016,0,0
-189,8,0,0,0,0,0,0,0,0,0,-1,1035,1016,0,0
-182,8,0,0,0,0,0,0,0,0,0,-1,1042,1016,0,0
-175,8,0,0,0,0,0,0,0,0,0,-1,1049,1016,0,0
-168,8,0,0,0,0,0,0,0,0,0,-1,1056,1016,0,0
-161,8,0,0,0,0,0,0,0,0,0,-1,1063,1016,0,0
-154,8,0,0,0,0,0,0,0,0,0,-1,1070,1016,0,0
-147,8,0,0,0,0,0,0,0,0,0,-1,1077,1016,0,0
-140,8,0,0,0,0,0,0,0,0,0,-1,1084,1016,0,0
-133,8,0,0,0,0,0,0,0,0,0,-1,1091,1016,0,0
-126,8,0,0,0,0,0,0,0,0,0,-1,1098,1016,0,0
-119,8,0,0,0,0,0,0,0,0,0,-1,1105,1016,0,0
-112,8,0,0,0,0,0,0,0,0,0,-1,1112,1016,0,0
-105,8,0,0,0,0,0,0,0,0,0,-1,1119,1016,0,0
-98,8,0,0,0,0,0,0,0,0,0,-1,1126,1016,0,0
-91,8,0,0,0,0,0,0,0,0,0,-1,1133,1016,0,0
-84,8,0,0,0,0,0,0,0,0,0,-1,1140,1016,0,0
-77,8,0,0,0,0,0,0,0,0,0,-1,1147,1016,0,0
-70,8,0,0,0,0,0,0,0,0,0,-1,1154,1016,0,0
-63,8,0,0,0,0,0,0,0,0,0,-1,1161,1016,0,0
-56,8,0,0,0,0,0,0,0,0,0,-1,1168,1016,0,0
-49,8,0,0,0,0,0,0,0,0,0,-1,1175,1016,0,0
-42,8,0,0,0,0,0,0,0,0,0,-1,1182,1016,0,0
-35,8,0,0,0,0,0,0,0,0,0,-1,1189,1016,0,0
-28,8,0,0,0,0,0,0,0,0,0,-1,1196,1016,0,0
-21,8,0,0,0,0,0,0,0,0,0,-1,1203,1016,0,0
-14,8,0,0,0,0,0,0,0,0,0,-1,1210,1016,0,0
-7,8,0,0,0,0,0,0,0,0,0,-1,1217,1016,0,0
0,8,0,0,0,0,0,0,0,0,0,-1,1224,1016,0,0
7,8,0,0,0,0,0,0,0,0,0,-1,1231,1016,0,0
14,8,0,0,0,0,0,0,0,0,0,-1,1238,1016,0,0
21,8,0,0,0,0,0,0,0,0,0,-1,1245,1016,0,0
28,8,0,0,0,0,0,0,0,0,0,-1,1252,1016,0,0
35,8,0,0,0,0,0,0,0,0,0,-1,1259,1016,0,0
42,8,0,0,0,0,0,0,0,0,0,-1,1266,1016,0,0
49,8,0,0,0,0,0,0,0,0,0,-1,1273,1016,0,0
56,8,0,0,0,0,0,0,0,0,0,-1,1280,1016,0,0
63,8,0,0,0,0,0,0,0,0,0,-1,1287,1016,0,0
70,8,0,0,0,0,0,0,0,0,0,-1,1294,1016,0,0
77,8,0,0,0,0,0,0,0,0,0,-1,1301,1016,0,0
84,8,0,0,0,0,0,0,0,0,0,-1,1308,1016,0,0
91,8,0,0,0,0,0,0,0,0,0,-1,1315,1016,0,0
98,8,0,0,0,0,0,0,0,0,0,-1,1322,1016,0,0
105,8,0,0,0,0,0,0,0,0,0,-1,1329,1016,0,0
112,8,0,0,0,0,0,0,0,0,0,-1,1336,1016,0,0
119,8,0,0,0,0,0,0,0,0,0,-1,1343,1016,0,0
126,8,0,0,0,0,0,0,0,0,0,-1,1350,1016,0,0
133,8,0,0,0,0,0,0,0,0,0,-1,1357,1016,0,0
140,8,0,0,0,0,0,0,0,0,0,-1,1364,1016,0,0
147,8,0,0,0,0,0,0,0,0,0,-1,1371,1016,0,0
154,8,0,0,0,0,0,0,0,0,0,-1,1378,1016,0,0
161,8,0,0,0,0,0,0,0,0,0,-1,1385,1016,0,0
168,8,0,0,0,0,0,0,0,0,0,-1,1392,1016,0,0
175,8,0,0,0,0,0,0,0,0,0,-1,1399,1016,0,0
182,8,0,0,0,0,0,0,0,0,0,-1,1406,1016,0,0
189,8,0,0,0,0,0,0,0,0,0,-1,1413,1016,0,0
196,8,0,0,0,0,0,0,0,0,0,-1,1420,1016,0,0
203,8,0,0,0,0,0,0,0,0,0,-1,1427,1016,0,0
210,8,0,0,0,0,0,0,0,0,0,-1,1434,1016,0,0
217,8,0,0,0,0,0,0,0,0,0,-1,1441,1016,0,0
224,8,0,0,0,0,0,0,0,0,0,-1,1448,1016,0,0
231,8,0,0,0,0,0,0,0,0,0,-1,1455,1016,0,0
238,8,0,0,0,0,0,0,0,0,0,-1,1462,1016,0,0
245,8,0,0,0,0,0,0,0,0,0,-1,1469,1016,0,0
252,8,0,0,0,0,0,0,0,0,0,-1,1476,1016,0,0
259,8,0,0,0,0,0,0,0,0,0,-1,1483,1016,0,0
266,8,0,0,0,0,0,0,0,0,0,-1,1490,1016,0,0
273,8,0,0,0,0,0,0,0,0,0,-1,1497,1016,0,0
280,8,0,0,0,0,0,0,0,0,0,-1,1504,1016,0,0
287,8,0,0,0,0,0,0,0,0,0,-1,1511,1016,0,0
294,8,0,0,0,0,0,0,0,0,0,-1,1518,1016,0,0
301,8,0,0,0,0,0,0,0,0,0,-1,1525,1016,0,0
308,8,0,0,0,0,0,0,0,0,0,-1,1532,1016,0,0
315,8,0,0,0,0,0,0,0,0,0,-1,1539,1016,0,0
322,8,0,0,0,0,0,0,0,0,0,-1,1546,1016,0,0
329,8,0,0,0,0,0,0,0,0,0,-1,1553,1016,0,0
336,8,0,0,0,0,0,0,0,0,0,-1,1560,1016,0,0
343,8,0,0,0,0,0,0,0,0,0,-1,1567,1016,0,0
350,8,0,0,0,0,0,0,0,0,0,-1,1574,1016,0,0
357,8,0,0,0,0,0,0,0,0,0,-1,1581,1016,0,0
364,8,0,0,0,0,0,0,0,0,0,-1,1588,1016,0,0
371,8,0,0,0,0,0,0,0,0,0,-1,1595,1016,0,0
378,8,0,0,0,0,0,0,0,0,0,-1,1602,1016,0,0
385,8,0,0,0,0,0,0,0,0,0,-1,1609,1016,0,0
392,8,0,0,0,0,0,0,0,0,0,-1,1616,1016,0,0
399,8,0,0,0,0,0,0,0,0,0,-1,1623,1016,0,0
406,8,0,0,0,0,0,0,0,0,0,-1,1630,1016,0,0
413,8,0,0,0,0,0,0,0,0,0,-1,1637,1016,0,0
420,8,0,0,0,0,0,0,0,0,0,-1,1644,1016,0,0
427,8,0,0,0,0,0,0,0,0,0,-1,1651,1016,0,0
434,8,0,0,0,0,0,0,0,0,0,-1,1658,1016,0,0
441,8,0,0,0,0,0,0,0,0,0,-1,1665,1016,0,0
448,8,0,0,0,0,0,0,0,0,0,-1,1672,1016,0,0
455,8,0,0,0,0,0,0,0,0,0,-1,1679,1016,0,0
462,8,0,0,0,0,0,0,0,0,0,-1,1686,1016,0,0
469,8,0,0,0,0,0,0,0,0,0,-1,1693,1016,0,0
476,8,0,0,0,0,0,0,0,0,0,-1,1700,1016,0,0
483,8,0,0,0,0,0,0,0,0,0,-1,1707,1016,0,0
490,8,0,0,0,0,0,0,0,0,0,-1,1714,1016,0,0
497,8,0,0,0,0,0,0,0,0,0,-1,1721,1016,0,0
504,8,0,0,0,0,0,0,0,0,0,-1,1728,1016,0,0
511,8,0,0,0,0,0,0,0,0,0,-1,1735,1016,0,0
518,8,0,0,0,0,0,0,0,0,0,-1,1742,1016,0,0
525,8,0,0,0,0,0,0,0,0,0,-1,1749,1016,0,0
532,8,0,0,0,0,0,0,0,0,0,-1,1756,1016,0,0
539,8,0,0,0,0,0,0,0,0,0,-1,1763,1016,0,0
546,8,0,0,0,0,0,0,0,0,0,-1,1770,1016,0,0
553,8,0,0,0,0,0,0,0,0,0,-1,1777,1016,0,0
560,8,0,0,0,0,0,0,0,0,0,-1,1784,1016,0,0
567,8,0,0,0,0,0,0,0,0,0,-1,1791,1016,0,0
574,8,0,0,0,0,0,0,0,0,0,-1,1798,1016,0,0
581,8,0,0,0,0,0,0,0,0,0,-1,1805,1016,0,0
588,8,0,0,0,0,0,0,0,0,0,-1,1812,1016,0,0
595,8,0,0,0,0,0,0,0,0,0,-1,1819,1016,0,0
602,8,0,0,0,0,0,0,0,0,0,-1,1826,1016,0,0
609,8,0,0,0,0,0,0,0,0,0,-1,1833,1016,0,0
616,8,0,0,0,0,0,0,0,0,0,-1,1840,1016,0,0
623,8,0,0,0,0,0,0,0,0,0,-1,1847,1016,0,0
630,8,0,0,0,0,0,0,0,0,0,-1,1854,1016,0,0
637,8,0,0,0,0,0,0,0,0,0,-1,1861,1016,0,0
644,8,30.2383,2.93646,0.00673067,-0.00052392,-0.00341093,0.0080825,-0.00187575,-0.377334,0.00611032,0.0443875,1868,1016,30.2383,-2.93643
651,8,30.3583,2.85907,0.00446716,-0.000385773,-0.00211583,0.00526008,-0.00117869,-0.358558,0.00395855,0.0371275,1875,1016,30.3583,-2.85906
658,8,30.3712,2.70007,0.0026738,-0.000279457,-0.00124117,0.00312614,-0.0007318,-0.349489,0.00236606,0.0356382,1882,1016,30.3712,-2.70009
665,8,30.4583,2.60645,0.00122748,-5.93893e-05,-0.00046989,0.00138079,-0.000212701,-0.315382,0.000999002,0.0398921,1889,1016,30.4583,-2.60646
672,8,30.5479,2.78986,0.000120843,0.000145709,0.000430789,0.000564245,-0.000297693,0.799824,0.000505509,0.043018,1896,1016,30.5479,-2.78986
679,8,30.4178,2.85547,-0.000779085,0.000330586,0.00131646,0.00120435,-0.00165285,0.984833,0.00165637,0.0393902,1903,1016,30.4179,-2.85546
686,8,30.3507,2.80383,-0.00129825,0.000319382,0.00195238,0.00162385,-0.00260271,0.981773,0.00246192,0.0400535,1910,1016,30.3507,-2.80383
693,8,30.3916,2.8183,-0.00152433,0.000248388,0.00238679,0.00190808,-0.00318402,0.963186,0.00297053,0.0381812,1917,1016,30.3916,-2.81832
700,8,30.4357,2.80103,-0.00165616,0.00022958,0.00259219,0.00204505,-0.00347163,0.959827,0.00322036,0.0304321,1924,1016,30.4357,-2.80103
707,8,30.4261,2.82471,-0.00176999,0.000260077,0.00271102,0.00213986,-0.00364977,0.964525,0.00338032,0.0259382,1931,1016,30.4262,-2.82471
714,8,30.4591,2.03931,0,0,0,0,0,0,0,-1,1938,1016,30.4592,-2.03931
721,8,30.5304,3.3092,0,0,0,0,0,0,0,-1,1945,1016,30.5304,-3.30923
728,8,30.0383,4.66431,0,0,0,0,0,0,0,-1,1952,1016,30.0384,-4.66433
735,8,30.0115,4.70752,-0.00225728,0.00159446,0.00195912,0.00241579,-0.00307862,1.17382,0.00317989,0.0229221,1959,1016,30.0115,-4.70753
742,8,30.0548,4.71777,-0.00222417,0.00204867,0.00139444,0.00246347,-0.00263897,1.28166,0.00294648,0.023014,1966,1016,30.0548,-4.71779
749,8,30.0486,4.81378,-0.00212314,0.00250899,0.000515851,0.00256574,-0.0021799,1.46122,0.00274291,0.016751,1973,1016,30.0485,-4.81376
756,8,30.0229,4.82184,-0.00171981,0.00305326,-0.000456443,0.00309651,-0.00176307,-1.47631,0.00284067,0.0155491,1980,1016,30.0229,-4.82187
763,8,30.0223,4.87708,-0.00107123,0.00376746,-0.00178955,0.00435738,-0.00166116,-1.25236,0.00358915,0.0133613,1987,1016,30.0223,-4.8771
770,8,29.9729,4.88422,3.41392e-05,0.00443803,-0.00354566,0.00640985,-0.00193768,-1.06327,0.00504473,0.0167756,1994,1016,29.9729,-4.88423
777,8,29.757,4.92761,0.00172444,0.00477878,-0.00538794,0.0088518,-0.00234858,-0.923497,0.00682021,0.0282001,2001,1016,29.757,-4.92764
784,8,29.6978,4.85626,0.0038896,0.00462392,-0.00741543,0.0116813,-0.00316775,-0.810134,0.00903057,0.0457324,2008,1016,29.6977,-4.85627
791,8,29.689,4.4198,0.00670617,0.00378102,-0.00977424,0.0151267,-0.00463947,-0.711131,0.0119354,0.0452593,2015,1016,29.6889,-4.41978
798,8,29.6721,4.49744,0.0103576,0.00206118,-0.0124598,0.0193416,-0.00692282,-0.624706,0.0157186,0.0450251,2022,1016,29.672,-4.49746
805,8,29.5137,4.87213,0.0149045,-0.000713227,-0.0154679,0.0244229,-0.0102316,-0.551641,0.0205594,0.0441565,2029,1016,29.5137,-4.87214
812,8,29.3826,5.67108,0,0,0,0,0,0,0,-1,2036,1016,29.3825,-5.67109
-700,1,0,0,0,0,0,0,0,0,0,-1,524,1023,0,0
-693,1,-19.2516,4.43762,0.00914167,0.0732729,-0.00388886,0.0735078,0.00890671,-1.51045,0.0463226,0.042999,531,1023,-19.2516,-4.4376
-686,1,-19.9089,4.32672,0.0116114,0.0609502,-0.00300151,0.0611322,0.0114295,-1.51026,0.0375296,0.0466257,538,1023,-19.9089,-4.32674
-679,1,-20.5358,4.16791,0.0110681,0.050954,-0.00251713,0.0511122,0.0109099,-1.50802,0.0310831,0.0480612,545,1023,-20.5358,-4.16788
-672,1,-19.1238,3.46405,0.00929562,0.0425825,-0.00221239,0.0427289,0.00914922,-1.50472,0.0259789,0.044947,552,1023,-19.1238,-3.46405
-665,1,-20.0305,2.57092,0.00710986,0.0353788,-0.00194161,0.0355115,0.00697713,-1.50254,0.0217254,0.043722,559,1023,-20.0305,-2.57093
-658,1,-21.1613,2.44141,0,0,0,0,0,0,0,-1,566,1023,-21.1613,-2.44138
-651,1,-21.2997,2.20746,0.00310252,0.0233615,-0.00140757,0.0234588,0.00300519,-1.50176,0.01474,0.0179842,573,1023,-21.2997,-2.20743
-644,1,-21.1819,2.3233,0.00167085,0.0183498,-0.00137933,0.0184631,0.00155756,-1.48884,0.0118238,0.0280335,580,1023,-21.1819,-2.32329
-637,1,-21.2872,2.26819,0.00100312,0.0139233,-0.00135933,0.0140647,0.000861653,-1.4671,0.00910287,0.0238254,587,1023,-21.2872,-2.26819
-630,1,-21.4204,2.24481,0.000470284,0.00909139,-0.00303175,0.0100508,-0.000489117,-1.26432,0.00686937,0.0221606,594,1023,-21.4204,-2.24481
-623,1,-21.3884,2.26569,-0.000539973,0.00727768,-0.00397906,0.00894665,-0.00220894,-1.17365,0.00682104,0.0128,601,1023,-21.3884,-2.2657
-616,1,-21.423,2.2406,-0.00101833,0.00562195,-0.00495241,0.00826417,-0.00366055,-1.08069,0.00705368,0.0146136,608,1023,-21.4231,-2.24063
-609,1,-21.4149,2.23438,-0.000441006,0.00341657,-0.00506452,0.00690716,-0.00393159,-0.96734,0.00633587,0.0156595,615,1023,-21.4149,-2.23438
-602,1,-21.3554,2.23334,0.00013425,0.00178036,-0.00601552,0.00702886,-0.00511426,-0.853387,0.00703982,0.0127708,622,1023,-21.3554,-2.23333
-595,1,-21.2845,2.19873,0.000433125,0.0010436,-0.00683246,0.00757764,-0.00610091,-0.807721,0.00791264,0.0238958,629,1023,-21.2845,-2.1987
-588,1,-21.2579,1.59418,0.000780804,0.000270836,-0.00710277,0.00763316,-0.00658152,-0.767456,0.00821433,0.0324806,636,1023,-21.2579,-1.59417
-581,1,-21.2411,1.04175,0.000855899,-0.000476341,-0.00694167,0.00716334,-0.00678378,-0.737565,0.00805336,0.0249262,643,1023,-21.2411,-1.04175
-574,1,-21.2565,1.026,0.000808744,-0.00114467,-0.00648334,0.00638854,-0.00672446,-0.710636,0.00757162,0.0356088,650,1023,-21.2565,-1.02599
-567,1,-21.2845,0.892334,0.000614095,-0.00191098,-0.00551092,0.00500525,-0.00630213,-0.672793,0.00654262,0.0429376,657,1023,-21.2845,-0.892306
-560,1,-21.0315,0.701782,0.000347722,-0.00286225,-0.00406651,0.00311452,-0.00562905,-0.59744,0.00511721,0.0431445,664,1023,-21.0315,-0.701768
-553,1,-21.1321,1.11169,-3.21399e-06,-0.00409899,-0.00223132,0.000977535,-0.00507974,-0.414119,0.00375499,0.0437329,671,1023,-21.1321,-1.11171
-546,1,-21.1915,0.886292,-0.000401889,-0.00574752,-0.00014536,-0.000397939,-0.00575147,-0.0271655,0.00370879,0.043928,678,1023,-21.1916,-0.886289
-539,1,-21.1335,0.489685,0,0,0,0,0,0,0,-1,685,1023,-21.1335,-0.489696
-532,1,-21.2209,0.953369,0,0,0,0,0,0,0,-1,692,1023,-21.2209,-0.953359
-525,1,0,0,0,0,0,0,0,0,0,-1,699,1023,0,0
-518,1,0,0,0,0,0,0,0,0,0,-1,706,1023,0,0
-511,1,0,0,0,0,0,0,0,0,0,-1,713,1023,0,0
-504,1,0,0,0,0,0,0,0,0,0,-1,720,1023,0,0
-497,1,0,0,0,0,0,0,0,0,0,-1,727,1023,0,0
-490,1,0,0,0,0,0,0,0,0,0,-1,734,1023,0,0
-483,1,0,0,0,0,0,0,0,0,0,-1,741,1023,0,0
-476,1,0,0,0,0,0,0,0,0,0,-1,748,1023,0,0
-469,1,0,0,0,0,0,0,0,0,0,-1,755,1023,0,0
-462,1,0,0,0,0,0,0,0,0,0,-1,762,1023,0,0
-455,1,0,0,0,0,0,0,0,0,0,-1,769,1023,0,0
-448,1,0,0,0,0,0,0,0,0,0,-1,776,1023,0,0
-441,1,0,0,0,0,0,0,0,0,0,-1,783,1023,0,0
-434,1,0,0,0,0,0,0,0,0,0,-1,790,1023,0,0
-427,1,0,0,0,0,0,0,0,0,0,-1,797,1023,0,0
-420,1,0,0,0,0,0,0,0,0,0,-1,804,1023,0,0
-413,1,0,0,0,0,0,0,0,0,0,-1,811,1023,0,0
-406,1,0,0,0,0,0,0,0,0,0,-1,818,1023,0,0
-399,1,0,0,0,0,0,0,0,0,0,-1,825,1023,0,0
-392,1,0,0,0,0,0,0,0,0,0,-1,832,1023,0,0
-385,1,0,0,0,0,0,0,0,0,0,-1,839,1023,0,0
-378,1,0,0,0,0,0,0,0,0,0,-1,846,1023,0,0
-371,1,0,0,0,0,0,0,0,0,0,-1,853,1023,0,0
-364,1,0,0,0,0,0,0,0,0,0,-1,860,1023,0,0
-357,1,0,0,0,0,0,0,0,0,0,-1,867,1023,0,0
-350,1,0,0,0,0,0,0,0,0,0,-1,874,1023,0,0
-343,1,0,0,0,0,0,0,0,0,0,-1,881,1023,0,0
-336,1,0,0,0,0,0,0,0,0,0,-1,888,1023,0,0
-329,1,0,0,0,0,0,0,0,0,0,-1,895,1023,0,0
-322,1,0,0,0,0,0,0,0,0,0,-1,902,1023,0,0
-315,1,0,0,0,0,0,0,0,0,0,-1,909,1023,0,0
-308,1,0,0,0,0,0,0,0,0,0,-1,916,1023,0,0
-301,1,0,0,0,0,0,0,0,0,0,-1,923,1023,0,0
-294,1,0,0,0,0,0,0,0,0,0,-1,930,1023,0,0
-287,1,0,0,0,0,0,0,0,0,0,-1,937,1023,0,0
-280,1,0,0,0,0,0,0,0,0,0,-1,944,1023,0,0
-273,1,0,0,0,0,0,0,0,0,0,-1,951,1023,0,0
-266,1,0,0,0,0,0,0,0,0,0,-1,958,1023,0,0
-259,1,0,0,0,0,0,0,0,0,0,-1,965,1023,0,0
-252,1,0,0,0,0,0,0,0,0,0,-1,972,1023,0,0
-245,1,0,0,0,0,0,0,0,0,0,-1,979,1023,0,0
-238,1,0,0,0,0,0,0,0,0,0,-1,986,1023,0,0
-231,1,0,0,0,0,0,0,0,0,0,-1,993,1023,0,0
-224,1,0,0,0,0,0,0,0,0,0,-1,1000,1023,0,0
-217,1,0,0,0,0,0,0,0,0,0,-1,1007,1023,0,0
-210,1,0,0,0,0,0,0,0,0,0,-1,1014,1023,0,0
-203,1,0,0,0,0,0,0,0,0,0,-1,1021,1023,0,0
-196,1,0,0,0,0,0,0,0,0,0,-1,1028,1023,0,0
-189,1,0,0,0,0,0,0,0,0,0,-1,1035,1023,0,0
-182,1,0,0,0,0,0,0,0,0,0,-1,1042,1023,0,0
-175,1,0,0,0,0,0,0,0,0,0,-1,1049,1023,0,0
-168,1,0,0,0,0,0,0,0,0,0,-1,1056,1023,0,0
-161,1,0,0,0,0,0,0,0,0,0,-1,1063,1023,0,0
-154,1,0,0,0,0,0,0,0,0,0,-1,1070,1023,0,0
-147,1,0,0,0,0,0,0,0,0,0,-1,1077,1023,0,0
-140,1,0,0,0,0,0,0,0,0,0,-1,1084,1023,0,0
-133,1,0,0,0,0,0,0,0,0,0,-1,1091,1023,0,0
-126,1,0,0,0,0,0,0,0,0,0,-1,1098,1023,0,0
-119,1,0,0,0,0,0,0,0,0,0,-1,1105,1023,0,0
-112,1,0,0,0,0,0,0,0,0,0,-1,1112,1023,0,0
-105,1,0,0,0,0,0,0,0,0,0,-1,1119,1023,0,0
-98,1,0,0,0,0,0,0,0,0,0,-1,1126,1023,0,0
-91,1,0,0,0,0,0,0,0,0,0,-1,1133,1023,0,0
-84,1,0,0,0,0,0,0,0,0,0,-1,1140,1023,0,0
-77,1,0,0,0,0,0,0,0,0,0,-1,1147,1023,0,0
-70,1,0,0,0,0,0,0,0,0,0,-1,1154,1023,0,0
-63,1,0,0,0,0,0,0,0,0,0,-1,1161,1023,0,0
-56,1,0,0,0,0,0,0,0,0,0,-1,1168,1023,0,0
-49,1,0,0,0,0,0,0,0,0,0,-1,1175,1023,0,0
-42,1,0,0,0,0,0,0,0,0,0,-1,1182,1023,0,0
-35,1,0,0,0,0,0,0,0,0,0,-1,1189,1023,0,0
-28,1,0,0,0,0,0,0,0,0,0,-1,1196,1023,0,0
-21,1,0,0,0,0,0,0,0,0,0,-1,1203,1023,0,0
-14,1,0,0,0,0,0,0,0,0,0,-1,1210,1023,0,0
-7,1,0,0,0,0,0,0,0,0,0,-1,1217,1023,0,0
0,1,0,0,0,0,0,0,0,0,0,-1,1224,1023,0,0
7,1,0,0,0,0,0,0,0,0,0,-1,1231,1023,0,0
14,1,0,0,0,0,0,0,0,0,0,-1,1238,1023,0,0
21,1,0,0,0,0,0,0,0,0,0,-1,1245,1023,0,0
28,1,0,0,0,0,0,0,0,0,0,-1,1252,1023,0,0
35,1,0,0,0,0,0,0,0,0,0,-1,1259,1023,0,0
42,1,0,0,0,0,0,0,0,0,0,-1,1266,1023,0,0
49,1,0,0,0,0,0,0,0,0,0,-1,1273,1023,0,0
56,1,0,0,0,0,0,0,0,0,0,-1,1280,1023,0,0
63,1,0,0,0,0,0,0,0,0,0,-1,1287,1023,0,0
70,1,0,0,0,0,0,0,0,0,0,-1,1294,1023,0,0
77,1,0,0,0,0,0,0,0,0,0,-1,1301,1023,0,0
84,1,0,0,0,0,0,0,0,0,0,-1,1308,1023,0,0
91,1,0,0,0,0,0,0,0,0,0,-1,1315,1023,0,0
98,1,0,0,0,0,0,0,0,0,0,-1,1322,1023,0,0
105,1,0,0,0,0,0,0,0,0,0,-1,1329,1023,0,0
112,1,0,0,0,0,0,0,0,0,0,-1,1336,1023,0,0
119,1,0,0,0,0,0,0,0,0,0,-1,1343,1023,0,0
126,1,0,0,0,0,0,0,0,0,0,-1,1350,1023,0,0
133,1,0,0,0,0,0,0,0,0,0,-1,1357,1023,0,0
140,1,0,0,0,0,0,0,0,0,0,-1,1364,1023,0,0
147,1,0,0,0,0,0,0,0,0,0,-1,1371,1023,0,0
154,1,0,0,0,0,0,0,0,0,0,-1,1378,1023,0,0
161,1,0,0,0,0,0,0,0,0,0,-1,1385,1023,0,0
168,1,0,0,0,0,0,0,0,0,0,-1,1392,1023,0,0
175,1,0,0,0,0,0,0,0,0,0,-1,1399,1023,0,0
182,1,0,0,0,0,0,0,0,0,0,-1,1406,1023,0,0
189,1,0,0,0,0,0,0,0,0,0,-1,1413,1023,0,0
196,1,0,0,0,0,0,0,0,0,0,-1,1420,1023,0,0
203,1,0,0,0,0,0,0,0,0,0,-1,1427,1023,0,0
210,1,0,0,0,0,0,0,0,0,0,-1,1434,1023,0,0
217,1,0,0,0,0,0,0,0,0,0,-1,1441,1023,0,0
224,1,0,0,0,0,0,0,0,0,0,-1,1448,1023,0,0
231,1,0,0,0,0,0,0,0,0,0,-1,1455,1023,0,0
238,1,0,0,0,0,0,0,0,0,0,-1,1462,1023,0,0
245,1,0,0,0,0,0,0,0,0,0,-1,1469,1023,0,0
252,1,0,0,0,0,0,0,0,0,0,-1,1476,1023,0,0
259,1,0,0,0,0,0,0,0,0,0,-1,1483,1023,0,0
266,1,0,0,0,0,0,0,0,0,0,-1,1490,1023,0,0
273,1,0,0,0,0,0,0,0,0,0,-1,1497,1023,0,0
280,1,0,0,0,0,0,0,0,0,0,-1,1504,1023,0,0
287,1,0,0,0,0,0,0,0,0,0,-1,1511,1023,0,0
294,1,0,0,0,0,0,0,0,0,0,-1,1518,1023,0,0
301,1,0,0,0,0,0,0,0,0,0,-1,1525,1023,0,0
308,1,0,0,0,0,0,0,0,0,0,-1,1532,1023,0,0
315,1,0,0,0,0,0,0,0,0,0,-1,1539,1023,0,0
322,1,0,0,0,0,0,0,0,0,0,-1,1546,1023,0,0
329,1,0,0,0,0,0,0,0,0,0,-1,1553,1023,0,0
336,1,0,0,0,0,0,0,0,0,0,-1,1560,1023,0,0
343,1,0,0,0,0,0,0,0,0,0,-1,1567,1023,0,0
350,1,0,0,0,0,0,0,0,0,0,-1,1574,1023,0,0
357,1,0,0,0,0,0,0,0,0,0,-1,1581,1023,0,0
364,1,0,0,0,0,0,0,0,0,0,-1,1588,1023,0,0
371,1,0,0,0,0,0,0,0,0,0,-1,1595,1023,0,0
378,1,0,0,0,0,0,0,0,0,0,-1,1602,1023,0,0
385,1,0,0,0,0,0,0,0,0,0,-1,1609,1023,0,0
392,1,0,0,0,0,0,0,0,0,0,-1,1616,1023,0,0
399,1,0,0,0,0,0,0,0,0,0,-1,1623,1023,0,0
406,1,0,0,0,0,0,0,0,0,0,-1,1630,1023,0,0
413,1,0,0,0,0,0,0,0,0,0,-1,1637,1023,0,0
420,1,0,0,0,0,0,0,0,0,0,-1,1644,1023,0,0
427,1,0,0,0,0,0,0,0,0,0,-1,1651,1023,0,0
434,1,0,0,0,0,0,0,0,0,0,-1,1658,1023,0,0
441,1,0,0,0,0,0,0,0,0,0,-1,1665,1023,0,0
448,1,0,0,0,0,0,0,0,0,0,-1,1672,1023,0,0
455,1,0,0,0,0,0,0,0,0,0,-1,1679,1023,0,0
462,1,0,0,0,0,0,0,0,0,0,-1,1686,1023,0,0
469,1,0,0,0,0,0,0,0,0,0,-1,1693,1023,0,0
476,1,0,0,0,0,0,0,0,0,0,-1,1700,1023,0,0
483,1,0,0,0,0,0,0,0,0,0,-1,1707,1023,0,0
490,1,0,0,0,0,0,0,0,0,0,-1,1714,1023,0,0
497,1,0,0,0,0,0,0,0,0,0,-1,1721,1023,0,0
504,1,0,0,0,0,0,0,0,0,0,-1,1728,1023,0,0
511,1,0,0,0,0,0,0,0,0,0,-1,1735,1023,0,0
518,1,0,0,0,0,0,0,0,0,0,-1,1742,1023,0,0
525,1,0,0,0,0,0,0,0,0,0,-1,1749,1023,0,0
532,1,0,0,0,0,0,0,0,0,0,-1,1756,1023,0,0
539,1,0,0,0,0,0,0,0,0,0,-1,1763,1023,0,0
546,1,0,0,0,0,0,0,0,0,0,-1,1770,1023,0,0
553,1,0,0,0,0,0,0,0,0,0,-1,1777,1023,0,0
560,1,0,0,0,0,0,0,0,0,0,-1,1784,1023,0,0
567,1,0,0,0,0,0,0,0,0,0,-1,1791,1023,0,0
574,1,0,0,0,0,0,0,0,0,0,-1,1798,1023,0,0
581,1,0,0,0,0,0,0,0,0,0,-1,1805,1023,0,0
588,1,0,0,0,0,0,0,0,0,0,-1,1812,1023,0,0
595,1,0,0,0,0,0,0,0,0,0,-1,1819,1023,0,0
602,1,0,0,0,0,0,0,0,0,0,-1,1826,1023,0,0
609,1,0,0,0,0,0,0,0,0,0,-1,1833,1023,0,0
616,1,0,0,0,0,0,0,0,0,0,-1,1840,1023,0,0
623,1,0,0,0,0,0,0,0,0,0,-1,1847,1023,0,0
630,1,0,0,0,0,0,0,0,0,0,-1,1854,1023,0,0
637,1,0,0,0,0,0,0,0,0,0,-1,1861,1023,0,0
644,1,0,0,0,0,0,0,0,0,0,-1,1868,1023,0,0
651,1,30.4989,2.7829,0.0039074,-0.000372945,-0.00236341,0.00495565,-0.0014212,-0.417464,0.00386559,0.0374673,1875,1023,30.4989,-2.78287
658,1,30.5166,2.62817,0.00230699,-0.000266753,-0.00135551,0.00288919,-0.000848959,-0.405684,0.00226284,0.0392941,1882,1023,30.5166,-2.62815
665,1,30.6115,2.65369,0.000998851,-6.24142e-05,-0.000562886,0.00124179,-0.000305353,-0.407443,0.000946212,0.0431621,1889,1023,30.6114,-2.65369
672,1,30.73,2.97095,2.11968e-05,0.000130028,0.000340403,0.000420337,-0.000269112,0.864656,0.000401233,0.0437685,1896,1023,30.73,-2.97097
679,1,30.542,3.04883,-0.000773832,0.000295946,0.00124008,0.00111157,-0.00158946,0.98901,0.00156756,0.0383937,1903,1023,30.542,-3.04884
686,1,30.353,2.93732,-0.00125816,0.000259696,0.00189536,0.00154243,-0.00254089,0.975829,0.00238088,0.0388005,1910,1023,30.353,-2.9373
693,1,30.4253,2.98669,-0.00147124,0.000159806,0.00236049,0.00184168,-0.00315311,0.951723,0.00291669,0.0363144,1917,1023,30.4253,-2.98668
700,1,30.4557,2.88531,-0.00158194,0.000109818,0.00260265,0.00200059,-0.00347272,0.942518,0.00319789,0.0298207,1924,1023,30.4557,-2.88531
707,1,30.4061,2.81049,-0.00167495,0.000106539,0.00276837,0.00212394,-0.00369235,0.941046,0.00339849,0.0267166,1931,1023,30.4062,-2.81048
714,1,30.5028,2.35138,0,0,0,0,0,0,0,-1,1938,1023,30.5028,-2.35135
721,1,30.3984,3.55896,0,0,0,0,0,0,0,-1,1945,1023,30.3985,-3.55898
728,1,29.9764,4.80096,0,0,0,0,0,0,0,-1,1952,1023,29.9764,-4.80096
735,1,29.9816,4.75983,-0.00224047,0.00133844,0.00206065,0.00227817,-0.00318019,1.14294,0.0031657,0.0216164,1959,1023,29.9816,-4.75985
742,1,30.0242,4.76123,-0.0021962,0.00178273,0.00155575,0.0023188,-0.00273227,1.23896,0.00291949,0.0217906,1966,1023,30.0242,-4.76124
749,1,30.0172,4.80945,-0.00205365,0.00218555,0.000744322,0.00231244,-0.00218054,1.40194,0.00259439,0.0191012,1973,1023,30.0172,-4.80947
756,1,30.0369,4.85016,-0.00157362,0.00272081,-0.000124859,0.00272444,-0.00157724,-1.54175,0.00251284,0.015422,1980,1023,30.0368,-4.85016
763,1,30.0311,4.84039,-0.000802203,0.00345484,-0.00130707,0.00382413,-0.00117148,-1.29545,0.00301671,0.0137166,1987,1023,30.0312,-4.84036
770,1,30.032,4.85291,0.000479572,0.00414524,-0.00285667,0.00570649,-0.00108168,-1.07062,0.00421145,0.0146413,1994,1023,30.032,-4.85289
777,1,29.8506,4.84741,0.00246359,0.00454718,-0.00439572,0.00802288,-0.00101211,-0.901752,0.0057159,0.0188225,2001,1023,29.8506,-4.84743
784,1,29.7565,4.78864,0.00503988,0.00448551,-0.00599972,0.0107688,-0.00124342,-0.762315,0.00762755,0.0386343,2008,1023,29.7564,-4.78867
791,1,30.0106,4.48242,0.00841338,0.00380913,-0.00778478,0.0142293,-0.00200679,-0.641635,0.010221,0.044568,2015,1023,30.0106,-4.48241
798,1,30.3093,4.41083,0.0128522,0.00236515,-0.00969849,0.0186339,-0.00341653,-0.537578,0.0137041,0.0476472,2022,1023,30.3094,-4.41083
805,1,30.6504,4.3772,0.0185452,3.74469e-05,-0.0116902,0.0242009,-0.00561824,-0.450601,0.0182965,0.0499711,2029,1023,30.6503,-4.37719
812,1,30.8345,4.24371,0,0,0,0,0,0,0,-1,2036,1023,30.8346,-4.24374
-700,-6,0,0,0,0,0,0,0,0,0,-1,524,1030,0,0
-693,-6,-19.0514,4.58386,0.00720892,0.0773246,-0.00750689,0.0781193,0.00641421,-1.46532,0.0500786,0.0417352,531,1030,-19.0514,-4.58389
-686,-6,-19.6583,4.66992,0.0106655,0.0656824,-0.0054136,0.06621,0.0101378,-1.47364,0.0411788,0.0457271,538,1030,-19.6583,-4.66995
-679,-6,-20.8318,4.83984,0.0110188,0.055509,-0.00394182,0.0558555,0.0106723,-1.48311,0.0342386,0.0455477,545,1030,-20.8318,-4.8398
-672,-6,-21.869,4.76111,0.00992574,0.0465589,-0.00285236,0.0467797,0.00970498,-1.49355,0.0285075,0.0496942,552,1030,-21.869,-4.76116
-665,-6,-19.8516,1.74695,0.00818272,0.0386213,-0.0019972,0.0387518,0.00805223,-1.50555,0.0236126,0.0453862,559,1030,-19.8516,-1.74692
-658,-6,-21.902,1.35425,0.00624378,0.0315336,-0.00132211,0.0316025,0.00617485,-1.51871,0.0193414,0.0376347,566,1030,-21.9021,-1.35422
-651,-6,-21.3421,1.98352,0.00444671,0.0251811,-0.000843247,0.0252153,0.00441247,-1.53022,0.0155495,0.0347967,573,1030,-21.3421,-1.98356
-644,-6,-21.2168,2.16443,0.00292277,0.0195164,-0.000686764,0.0195448,0.0028944,-1.5295,0.0121802,0.0452111,580,1030,-21.2168,-2.16446
-637,-6,-21.3283,2.31213,0.0020171,0.0148243,-0.000780428,0.0148717,0.00196972,-1.51016,0.00932747,0.0275755,587,1030,-21.3283,-2.31219
-630,-6,-21.3793,2.20959,0.00145389,0.00922041,-0.00231301,0.00985707,0.00081722,-1.30219,0.00631662,0.0175247,594,1030,-21.3794,-2.20956
-623,-6,-21.3645,2.20947,0.000424196,0.00706298,-0.00327991,0.00841009,-0.000922909,-1.18109,0.00593832,0.0141159,601,1030,-21.3645,-2.20946
-616,-6,-21.379,2.22729,-0.000378356,0.00533622,-0.00440628,0.00773054,-0.00277268,-1.07304,0.00628519,0.0146141,608,1030,-21.3789,-2.22735
-609,-6,-21.3677,2.24719,-5.76871e-05,0.00311706,-0.00460402,0.00639967,-0.0033403,-0.951407,0.0057151,0.0158883,615,1030,-21.3677,-2.24717
-602,-6,-21.3311,2.26746,0.000367351,0.00147294,-0.0056277,0.00657493,-0.00473464,-0.834355,0.00655833,0.0124629,622,1030,-21.3311,-2.26748
-595,-6,-21.2383,2.26746,0.000608689,0.000782502,-0.00653367,0.00722985,-0.00583865,-0.792048,0.00755934,0.0161865,629,1030,-21.2384,-2.2674
-588,-6,-21.2438,1.53931,0.000903648,9.31974e-05,-0.00681007,0.00732054,-0.0063237,-0.755681,0.00788451,0.0200488,636,1030,-21.2438,-1.53929
-581,-6,-21.2653,1.00366,0.000900095,-0.000520295,-0.0066062,0.00683416,-0.00645436,-0.731852,0.00767317,0.0225512,643,1030,-21.2653,-1.00362
-574,-6,-21.2744,1.01477,0.000801737,-0.00102978,-0.00612616,0.00608021,-0.00630824,-0.711206,0.00715288,0.0312169,650,1030,-21.2744,-1.01482
-567,-6,-21.2296,0.97876,0.000515738,-0.00159228,-0.00515699,0.00472532,-0.00580187,-0.684594,0.00608846,0.042355,657,1030,-21.2295,-0.978765
-560,-6,-21.1561,1.03821,0.000103831,-0.00231095,-0.00370393,0.00279219,-0.00499931,-0.627841,0.00455819,0.0427419,664,1030,-21.1561,-1.03826
-553,-6,-21.0325,1.04041,-0.000453169,-0.00330862,-0.00182297,0.00043462,-0.00419641,-0.453195,0.00295316,0.0418194,671,1030,-21.0325,-1.04041
-546,-6,-21.1109,0.919312,-0.00113958,-0.00474913,0.000376509,-0.00110073,-0.00478798,0.102835,0.00289568,0.0442996,678,1030,-21.1109,-0.919354
-539,-6,-21.1481,0.914307,-0.00196612,-0.00621083,0.00205018,-0.00113761,-0.00703934,0.384051,0.00436341,0.0441566,685,1030,-21.1481,-0.91428
-532,-6,-21.3251,0.87085,-0.00314167,-0.0075201,0.00183915,-0.00247167,-0.0081901,0.349358,0.00485083,0.0423079,692,1030,-21.3251,-0.870864
-525,-6,0,0,0,0,0,0,0,0,0,-1,699,1030,0,0
-518,-6,0,0,0,0,0,0,0,0,0,-1,706,1030,0,0
-511,-6,0,0,0,0,0,0,0,0,0,-1,713,1030,0,0
-504,-6,0,0,0,0,0,0,0,0,0,-1,720,1030,0,0
-497,-6,0,0,0,0,0,0,0,0,0,-1,727,1030,0,0
-490,-6,0,0,0,0,0,0,0,0,0,-1,734,1030,0,0
-483,-6,0,0,0,0,0,0,0,0,0,-1,741,1030,0,0
-476,-6,0,0,0,0,0,0,0,0,0,-1,748,1030,0,0
-469,-6,0,0,0,0,0,0,0,0,0,-1,755,1030,0,0
-462,-6,0,0,0,0,0,0,0,0,0,-1,762,1030,0,0
-455,-6,0,0,0,0,0,0,0,0,0,-1,769,1030,0,0
-448,-6,0,0,0,0,0,0,0,0,0,-1,776,1030,0,0
-441,-6,0,0,0,0,0,0,0,0,0,-1,783,1030,0,0
-434,-6,0,0,0,0,0,0,0,0,0,-1,790,1030,0,0
-427,-6,0,0,0,0,0,0,0,0,0,-1,797,1030,0,0
-420,-6,0,0,0,0,0,0,0,0,0,-1,804,1030,0,0
-413,-6,0,0,0,0,0,0,0,0,0,-1,811,1030,0,0
-406,-6,0,0,0,0,0,0,0,0,0,-1,818,1030,0,0
-399,-6,0,0,0,0,0,0,0,0,0,-1,825,1030,0,0
-392,-6,0,0,0,0,0,0,0,0,0,-1,832,1030,0,0
-385,-6,0,0,0,0,0,0,0,0,0,-1,839,1030,0,0
-378,-6,0,0,0,0,0,0,0,0,0,-1,846,1030,0,0
-371,-6,0,0,0,0,0,0,0,0,0,-1,853,1030,0,0
-364,-6,0,0,0,0,0,0,0,0,0,-1,860,1030,0,0
-357,-6,0,0,0,0,0,0,0,0,0,-1,867,1030,0,0
-350,-6,0,0,0,0,0,0,0,0,0,-1,874,1030,0,0
-343,-6,0,0,0,0,0,0,0,0,0,-1,881,1030,0,0
-336,-6,0,0,0,0,0,0,0,0,0,-1,888,1030,0,0
-329,-6,0,0,0,0,0,0,0,0,0,-1,895,1030,0,0
-322,-6,0,0,0,0,0,0,0,0,0,-1,902,1030,0,0
-315,-6,0,0,0,0,0,0,0,0,0,-1,909,1030,0,0
-308,-6,0,0,0,0,0,0,0,0,0,-1,916,1030,0,0
-301,-6,0,0,0,0,0,0,0,0,0,-1,923,1030,0,0
-294,-6,0,0,0,0,0,0,0,0,0,-1,930,1030,0,0
-287,-6,0,0,0,0,0,0,0,0,0,-1,937,1030,0,0
-280,-6,0,0,0,0,0,0,0,0,0,-1,944,1030,0,0
-273,-6,0,0,0,0,0,0,0,0,0,-1,951,1030,0,0
-266,-6,0,0,0,0,0,0,0,0,0,-1,958,1030,0,0
-259,-6,0,0,0,0,0,0,0,0,0,-1,965,1030,0,0
-252,-6,0,0,0,0,0,0,0,0,0,-1,972,1030,0,0
-245,-6,0,0,0,0,0,0,0,0,0,-1,979,1030,0,0
-238,-6,0,0,0,0,0,0,0,0,0,-1,986,1030,0,0
-231,-6,0,0,0,0,0,0,0,0,0,-1,993,1030,0,0
-224,-6,0,0,0,0,0,0,0,0,0,-1,1000,1030,0,0
-217,-6,0,0,0,0,0,0,0,0,0,-1,1007,1030,0,0
-210,-6,0,0,0,0,0,0,0,0,0,-1,1014,1030,0,0
-203,-6,0,0,0,0,0,0,0,0,0,-1,1021,1030,0,0
-196,-6,0,0,0,0,0,0,0,0,0,-1,1028,1030,0,0
-189,-6,0,0,0,0,0,0,0,0,0,-1,1035,1030,0,0
-182,-6,0,0,0,0,0,0,0,0,0,-1,1042,1030,0,0
-175,-6,0,0,0,0,0,0,0,0,0,-1,1049,1030,0,0
-168,-6,0,0,0,0,0,0,0,0,0,-1,1056,1030,0,0
-161,-6,0,0,0,0,0,0,0,0,0,-1,1063,1030,0,0
-154,-6,0,0,0,0,0,0,0,0,0,-1,1070,1030,0,0
-147,-6,0,0,0,0,0,0,0,0,0,-1,1077,1030,0,0
-140,-6,0,0,0,0,0,0,0,0,0,-1,1084,1030,0,0
-133,-6,0,0,0,0,0,0,0,0,0,-1,1091,1030,0,0
-126,-6,0,0,0,0,0,0,0,0,0,-1,1098,1030,0,0
-119,-6,0,0,0,0,0,0,0,0,0,-1,1105,1030,0,0
-112,-6,0,0,0,0,0,0,0,0,0,-1,1112,1030,0,0
-105,-6,0,0,0,0,0,0,0,0,0,-1,1119,1030,0,0
-98,-6,0,0,0,0,0,0,0,0,0,-1,1126,1030,0,0
-91,-6,0,0,0,0,0,0,0,0,0,-1,1133,1030,0,0
-84,-6,0,0,0,0,0,0,0,0,0,-1,1140,1030,0,0
-77,-6,0,0,0,0,0,0,0,0,0,-1,1147,1030,0,0
-70,-6,0,0,0,0,0,0,0,0,0,-1,1154,1030,0,0
-63,-6,0,0,0,0,0,0,0,0,0,-1,1161,1030,0,0
-56,-6,0,0,0,0,0,0,0,0,0,-1,1168,1030,0,0
-49,-6,0,0,0,0,0,0,0,0,0,-1,1175,1030,0,0
-42,-6,0,0,0,0,0,0,0,0,0,-1,1182,1030,0,0
-35,-6,0,0,0,0,0,0,0,0,0,-1,1189,1030,0,0
-28,-6,0,0,0,0,0,0,0,0,0,-1,1196,1030,0,0
-21,-6,0,0,0,0,0,0,0,0,0,-1,1203,1030,0,0
-14,-6,0,0,0,0,0,0,0,0,0,-1,1210,1030,0,0
-7,-6,0,0,0,0,0,0,0,0,0,-1,1217,1030,0,0
0,-6,0,0,0,0,0,0,0,0,0,-1,1224,1030,0,0
7,-6,0,0,0,0,0,0,0,0,0,-1,1231,1030,0,0
14,-6,0,0,0,0,0,0,0,0,0,-1,1238,1030,0,0
21,-6,0,0,0,0,0,0,0,0,0,-1,1245,1030,0,0
28,-6,0,0,0,0,0,0,0,0,0,-1,1252,1030,0,0
35,-6,0,0,0,0,0,0,0,0,0,-1,1259,1030,0,0
42,-6,0,0,0,0,0,0,0,0,0,-1,1266,1030,0,0
49,-6,0,0,0,0,0,0,0,0,0,-1,1273,1030,0,0
56,-6,0,0,0,0,0,0,0,0,0,-1,1280,1030,0,0
63,-6,0,0,0,0,0,0,0,0,0,-1,1287,1030,0,0
70,-6,0,0,0,0,0,0,0,0,0,-1,1294,1030,0,0
77,-6,0,0,0,0,0,0,0,0,0,-1,1301,1030,0,0
84,-6,0,0,0,0,0,0,0,0,0,-1,1308,1030,0,0
91,-6,0,0,0,0,0,0,0,0,0,-1,1315,1030,0,0
98,-6,0,0,0,0,0,0,0,0,0,-1,1322,1030,0,0
105,-6,0,0,0,0,0,0,0,0,0,-1,1329,1030,0,0
112,-6,0,0,0,0,0,0,0,0,0,-1,1336,1030,0,0
119,-6,0,0,0,0,0,0,0,0,0,-1,1343,1030,0,0
126,-6,0,0,0,0,0,0,0,0,0,-1,1350,1030,0,0
133,-6,0,0,0,0,0,0,0,0,0,-1,1357,1030,0,0
140,-6,0,0,0,0,0,0,0,0,0,-1,1364,1030,0,0
147,-6,0,0,0,0,0,0,0,0,0,-1,1371,1030,0,0
154,-6,0,0,0,0,0,0,0,0,0,-1,1378,1030,0,0
161,-6,0,0,0,0,0,0,0,0,0,-1,1385,1030,0,0
168,-6,0,0,0,0,0,0,0,0,0,-1,1392,1030,0,0
175,-6,0,0,0,0,0,0,0,0,0,-1,1399,1030,0,0
182,-6,0,0,0,0,0,0,0,0,0,-1,1406,1030,0,0
189,-6,0,0,0,0,0,0,0,0,0,-1,1413,1030,0,0
196,-6,0,0,0,0,0,0,0,0,0,-1,1420,1030,0,0
203,-6,0,0,0,0,0,0,0,0,0,-1,1427,1030,0,0
210,-6,0,0,0,0,0,0,0,0,0,-1,1434,1030,0,0
217,-6,0,0,0,0,0,0,0,0,0,-1,1441,1030,0,0
224,-6,0,0,0,0,0,0,0,0,0,-1,1448,1030,0,0
231,-6,0,0,0,0,0,0,0,0,0,-1,1455,1030,0,0
238,-6,0,0,0,0,0,0,0,0,0,-1,1462,1030,0,0
245,-6,0,0,0,0,0,0,0,0,0,-1,1469,1030,0,0
252,-6,0,0,0,0,0,0,0,0,0,-1,1476,1030,0,0
259,-6,0,0,0,0,0,0,0,0,0,-1,1483,1030,0,0
266,-6,0,0,0,0,0,0,0,0,0,-1,1490,1030,0,0
273,-6,0,0,0,0,0,0,0,0,0,-1,1497,1030,0,0
280,-6,0,0,0,0,0,0,0,0,0,-1,1504,1030,0,0
287,-6,0,0,0,0,0,0,0,0,0,-1,1511,1030,0,0
294,-6,0,0,0,0,0,0,0,0,0,-1,1518,1030,0,0
301,-6,0,0,0,0,0,0,0,0,0,-1,1525,1030,0,0
308,-6,0,0,0,0,0,0,0,0,0,-1,1532,1030,0,0
315,-6,0,0,0,0,0,0,0,0,0,-1,1539,1030,0,0
322,-6,0,0,0,0,0,0,0,0,0,-1,1546,1030,0,0
329,-6,0,0,0,0,0,0,0,0,0,-1,1553,1030,0,0
336,-6,0,0,0,0,0,0,0,0,0,-1,1560,1030,0,0
343,-6,0,0,0,0,0,0,0,0,0,-1,1567,1030,0,0
350,-6,0,0,0,0,0,0,0,0,0,-1,1574,1030,0,0
357,-6,0,0,0,0,0,0,0,0,0,-1,1581,1030,0,0
364,-6,0,0,0,0,0,0,0,0,0,-1,1588,1030,0,0
371,-6,0,0,0,0,0,0,0,0,0,-1,1595,1030,0,0
378,-6,0,0,0,0,0,0,0,0,0,-1,1602,1030,0,0
385,-6,0,0,0,0,0,0,0,0,0,-1,1609,1030,0,0
392,-6,0,0,0,0,0,0,0,0,0,-1,1616,1030,0,0
399,-6,0,0,0,0,0,0,0,0,0,-1,1623,1030,0,0
406,-6,0,0,0,0,0,0,0,0,0,-1,1630,1030,0,0
413,-6,0,0,0,0,0,0,0,0,0,-1,1637,1030,0,0
420,-6,0,0,0,0,0,0,0,0,0,-1,1644,1030,0,0
427,-6,0,0,0,0,0,0,0,0,0,-1,1651,1030,0,0
434,-6,0,0,0,0,0,0,0,0,0,-1,1658,1030,0,0
441,-6,0,0,0,0,0,0,0,0,0,-1,1665,1030,0,0
448,-6,0,0,0,0,0,0,0,0,0,-1,1672,1030,0,0
455,-6,0,0,0,0,0,0,0,0,0,-1,1679,1030,0,0
462,-6,0,0,0,0,0,0,0,0,0,-1,1686,1030,0,0
469,-6,0,0,0,0,0,0,0,0,0,-1,1693,1030,0,0
476,-6,0,0,0,0,0,0,0,0,0,-1,1700,1030,0,0
483,-6,0,0,0,0,0,0,0,0,0,-1,1707,1030,0,0
490,-6,0,0,0,0,0,0,0,0,0,-1,1714,1030,0,0
497,-6,0,0,0,0,0,0,0,0,0,-1,1721,1030,0,0
504,-6,0,0,0,0,0,0,0,0,0,-1,1728,1030,0,0
511,-6,0,0,0,0,0,0,0,0,0,-1,1735,1030,0,0
518,-6,0,0,0,0,0,0,0,0,0,-1,1742,1030,0,0
525,-6,0,0,0,0,0,0,0,0,0,-1,1749,1030,0,0
532,-6,0,0,0,0,0,0,0,0,0,-1,1756,1030,0,0
539,-6,0,0,0,0,0,0,0,0,0,-1,1763,1030,0,0
546,-6,0,0,0,0,0,0,0,0,0,-1,1770,1030,0,0
553,-6,0,0,0,0,0,0,0,0,0,-1,1777,1030,0,0
560,-6,0,0,0,0,0,0,0,0,0,-1,1784,1030,0,0
567,-6,0,0,0,0,0,0,0,0,0,-1,1791,1030,0,0
574,-6,0,0,0,0,0,0,0,0,0,-1,1798,1030,0,0
581,-6,0,0,0,0,0,0,0,0,0,-1,1805,1030,0,0
588,-6,0,0,0,0,0,0,0,0,0,-1,1812,1030,0,0
595,-6,0,0,0,0,0,0,0,0,0,-1,1819,1030,0,0
602,-6,0,0,0,0,0,0,0,0,0,-1,1826,1030,0,0
609,-6,0,0,0,0,0,0,0,0,0,-1,1833,1030,0,0
616,-6,0,0,0,0,0,0,0,0,0,-1,1840,1030,0,0
623,-6,0,0,0,0,0,0,0,0,0,-1,1847,1030,0,0
630,-6,0,0,0,0,0,0,0,0,0,-1,1854,1030,0,0
637,-6,0,0,0,0,0,0,0,0,0,-1,1861,1030,0,0
644,-6,0,0,0,0,0,0,0,0,0,-1,1868,1030,0,0
651,-6,30.5295,2.86316,0.00307522,-0.00017759,-0.00265987,0.00456652,-0.00166889,-0.510996,0.00372734,0.0384051,1875,1030,30.5295,-2.86313
658,-6,30.5204,2.68958,0.00171187,-0.000138076,-0.00153977,0.00258313,-0.00100934,-0.514924,0.00213943,0.0402833,1882,1030,30.5204,-2.68963
665,-6,30.5961,2.57507,0.000574518,-2.50787e-05,-0.000709666,0.00104511,-0.000495673,-0.585544,0.000908231,0.0440866,1889,1030,30.596,-2.57508
672,-6,30.7024,2.88037,-0.00023949,9.52429e-05,0.00022738,0.000210212,-0.000354459,1.10266,0.00032954,0.0408582,1896,1030,30.7024,-2.8804
679,-6,30.4432,3.00183,-0.000883555,0.000174605,0.00118457,0.000942883,-0.00165183,0.995427,0.00151659,0.0397147,1903,1030,30.4433,-3.00188
686,-6,30.2612,2.98621,-0.00129303,7.33261e-05,0.00189859,0.00140791,-0.00262761,0.958103,0.00236512,0.0388584,1910,1030,30.2612,-2.98621
693,-6,30.3627,2.98071,-0.00146297,-7.87651e-05,0.00242165,0.00174774,-0.00328947,0.924587,0.00295329,0.0357175,1917,1030,30.3627,-2.98074
700,-6,30.4166,2.86841,-0.00153883,-0.000171862,0.00272348,0.00195259,-0.00366328,0.908339,0.00329208,0.0298946,1924,1030,30.4166,-2.86845
707,-6,30.3464,2.79504,-0.00160224,-0.000213334,0.00293789,0.00211107,-0.00392664,0.901457,0.00353802,0.0296609,1931,1030,30.3464,-2.7951
714,-6,30.3221,2.573,0,0,0,0,0,0,0,-1,1938,1030,30.3222,-2.573
721,-6,30.1631,3.78052,0,0,0,0,0,0,0,-1,1945,1030,30.1631,-3.78048
728,-6,29.9395,4.69128,0,0,0,0,0,0,0,-1,1952,1030,29.9395,-4.69131
735,-6,30.0167,4.74475,-0.00213735,0.000958262,0.00233382,0.00221089,-0.00338998,1.0782,0.00325746,0.0218836,1959,1030,30.0167,-4.74471
742,-6,30.0416,4.75818,-0.00206574,0.00145417,0.00189435,0.00227995,-0.00289151,1.15972,0.00299269,0.0177589,1966,1030,30.0417,-4.75822
749,-6,30.0125,4.81677,-0.00189364,0.00190368,0.00113853,0.00221888,-0.00220884,1.30072,0.00255634,0.0152531,1973,1030,30.0125,-4.81679
756,-6,30.0526,4.7915,-0.0013449,0.00253604,0.000365298,0.00257013,-0.00137898,1.47776,0.00231433,0.0148316,1980,1030,30.0526,-4.79145
763,-6,30.0253,4.7594,-0.00043976,0.0034232,-0.000664955,0.00353446,-0.000551018,-1.40501,0.00255983,0.0139856,1987,1030,30.0252,-4.75937
770,-6,30.0015,4.77161,0.000983376,0.00431722,-0.0019975,0.00525196,4.86374e-05,-1.13311,0.00348521,0.0124733,1994,1030,30.0015,-4.77157
777,-6,29.9397,4.81116,0.00319916,0.00501241,-0.00324918,0.00747908,0.000732494,-0.921454,0.00476071,0.0141584,2001,1030,29.9397,-4.8111
784,-6,29.9934,4.70496,0,0,0,0,0,0,0,-1,2008,1030,29.9935,-4.70491
791,-6,30.4353,4.65833,0,0,0,0,0,0,0,-1,2015,1030,30.4353,-4.65831
798,-6,30.877,4.61169,0,0,0,0,0,0,0,-1,2022,1030,30.8771,-4.61171
805,-6,30.9355,4.45264,0,0,0,0,0,0,0,-1,2029,1030,30.9355,-4.45262
812,-6,31.1191,4.23267,0,0,0,0,0,0,0,-1,2036,1030,31.119,-4.23263
-700,-13,0,0,0,0,0,0,0,0,0,-1,524,1037,0,0
-693,-13,-18.7075,4.59729,0.014017,0.0816797,-0.00696982,0.0823902,0.0133065,-1.46921,0.0510724,0.0493923,531,1037,-18.7075,-4.59731
-686,-13,-19.443,4.71704,0.0170131,0.0701939,-0.00440947,0.070557,0.0166499,-1.48863,0.0425871,0.0466144,538,1037,-19.443,-4.71702
-679,-13,-21.1407,5.30664,0,0,0,0,0,0,0,-1,545,1037,-21.1407,-5.30668
-672,-13,-22.0251,5.15955,0,0,0,0,0,0,0,-1,552,1037,-22.0251,-5.15955
-665,-13,-22.3782,-0.00561523,0,0,0,0,0,0,0,-1,559,1037,-22.3782,0.00565425
-658,-13,-21.8719,0.797729,0.00987189,0.0334574,8.71017e-05,0.0334578,0.00987157,1.5671,0.0198504,0.0456544,566,1037,-21.8719,-0.797768
-651,-13,-21.3105,1.60291,0.00736813,0.0264879,0.000430201,0.0264975,0.00735845,1.54831,0.0157943,0.0387343,573,1037,-21.3106,-1.60293
-644,-13,-21.2217,2.05054,0.00514835,0.0202395,0.000419532,0.0202512,0.0051367,1.54303,0.0121559,0.0275362,580,1037,-21.2217,-2.0505
-637,-13,-21.2762,2.18164,0.00355564,0.0152668,9.04507e-06,0.0152668,0.00355563,1.57002,0.00922402,0.0213058,587,1037,-21.2762,-2.1817
-630,-13,-21.3359,2.14197,0.00246297,0.00906734,-0.00164867,0.00945603,0.00207428,-1.33927,0.00573893,0.0134943,594,1037,-21.3359,-2.14196
-623,-13,-21.3298,2.18933,0.0011591,0.00653867,-0.00280962,0.00773847,-4.07011e-05,-1.1672,0.0051726,0.0119126,601,1037,-21.3298,-2.18934
-616,-13,-21.3205,2.23303,-1.59188e-06,0.00480089,-0.00413799,0.00718389,-0.00238459,-1.0483,0.00575133,0.0114046,608,1037,-21.3205,-2.23304
-609,-13,-21.3091,2.26013,3.57182e-05,0.00266516,-0.0045091,0.00604729,-0.00334642,-0.927251,0.00549768,0.0158281,615,1037,-21.3092,-2.26018
-602,-13,-21.2818,2.29456,0.000303723,0.00109872,-0.00563542,0.00635064,-0.0049482,-0.820608,0.00654012,0.0115884,622,1037,-21.2818,-2.29461
-595,-13,-21.2841,2.323,0,0,0,0,0,0,0,-1,629,1037,-21.284,-2.32306
-588,-13,-21.2127,0.890869,0,0,0,0,0,0,0,-1,636,1037,-21.2127,-0.890883
-581,-13,-21.216,0.922485,0.000636078,-0.000572315,-0.00671015,0.00676918,-0.00670541,-0.740498,0.00777959,0.0220632,643,1037,-21.216,-0.922472
-574,-13,-21.2462,0.951416,0.000506371,-0.000900178,-0.00620406,0.00604689,-0.00644069,-0.728961,0.0072109,0.0336604,650,1037,-21.2461,-0.951427
-567,-13,-21.3275,1.05725,0.000175248,-0.00123076,-0.00520175,0.00472129,-0.0057768,-0.718231,0.00607128,0.0422171,657,1037,-21.3274,-1.05726
-560,-13,-21.3414,0.995239,-0.000318651,-0.0016765,-0.00368003,0.00274456,-0.00473971,-0.694179,0.00437193,0.0434341,664,1037,-21.3414,-0.995184
-553,-13,-21.2735,0.915161,-0.00101458,-0.00238723,-0.00167301,0.000107415,-0.00350922,-0.59075,0.00237609,0.0408612,671,1037,-21.2735,-0.915198
-546,-13,-21.2531,1.20361,-0.00193957,-0.00356828,0.000742719,-0.00165174,-0.00385611,0.369711,0.00223393,0.0391246,678,1037,-21.253,-1.20362
-539,-13,-21.1227,1.41113,-0.00311375,-0.0048615,0.00268215,-0.0011667,-0.00680855,0.627916,0.00420444,0.0410314,685,1037,-21.1227,-1.41111
-532,-13,-21.2379,1.15503,-0.00475491,-0.00629293,0.00269162,-0.00272461,-0.00832324,0.646252,0.00489999,0.0406894,692,1037,-21.2379,-1.15506
-525,-13,0,0,0,0,0,0,0,0,0,-1,699,1037,0,0
-518,-13,0,0,0,0,0,0,0,0,0,-1,706,1037,0,0
-511,-13,0,0,0,0,0,0,0,0,0,-1,713,1037,0,0
-504,-13,0,0,0,0,0,0,0,0,0,-1,720,1037,0,0
-497,-13,0,0,0,0,0,0,0,0,0,-1,727,1037,0,0
-490,-13,0,0,0,0,0,0,0,0,0,-1,734,1037,0,0
-483,-13,0,0,0,0,0,0,0,0,0,-1,741,1037,0,0
-476,-13,0,0,0,0,0,0,0,0,0,-1,748,1037,0,0
-469,-13,0,0,0,0,0,0,0,0,0,-1,755,1037,0,0
-462,-13,0,0,0,0,0,0,0,0,0,-1,762,1037,0,0
-455,-13,0,0,0,0,0,0,0,0,0,-1,769,1037,0,0
-448,-13,0,0,0,0,0,0,0,0,0,-1,776,1037,0,0
-441,-13,0,0,0,0,0,0,0,0,0,-1,783,1037,0,0
-434,-13,0,0,0,0,0,0,0,0,0,-1,790,1037,0,0
-427,-13,0,0,0,0,0,0,0,0,0,-1,797,1037,0,0
-420,-13,0,0,0,0,0,0,0,0,0,-1,804,1037,0,0
-413,-13,0,0,0,0,0,0,0,0,0,-1,811,1037,0,0
-406,-13,0,0,0,0,0,0,0,0,0,-1,818,1037,0,0
-399,-13,0,0,0,0,0,0,0,0,0,-1,825,1037,0,0
-392,-13,0,0,0,0,0,0,0,0,0,-1,832,1037,0,0
-385,-13,0,0,0,0,0,0,0,0,0,-1,839,1037,0,0
-378,-13,0,0,0,0,0,0,0,0,0,-1,846,1037,0,0
-371,-13,0,0,0,0,0,0,0,0,0,-1,853,1037,0,0
-364,-13,0,0,0,0,0,0,0,0,0,-1,860,1037,0,0
-357,-13,0,0,0,0,0,0,0,0,0,-1,867,1037,0,0
-350,-13,0,0,0,0,0,0,0,0,0,-1,874,1037,0,0
-343,-13,0,0,0,0,0,0,0,0,0,-1,881,1037,0,0
-336,-13,0,0,0,0,0,0,0,0,0,-1,888,1037,0,0
-329,-13,0,0,0,0,0,0,0,0,0,-1,895,1037,0,0
-322,-13,0,0,0,0,0,0,0,0,0,-1,902,1037,0,0
-315,-13,0,0,0,0,0,0,0,0,0,-1,909,1037,0,0
-308,-13,0,0,0,0,0,0,0,0,0,-1,916,1037,0,0
-301,-13,0,0,0,0,0,0,0,0,0,-1,923,1037,0,0
-294,-13,0,0,0,0,0,0,0,0,0,-1,930,1037,0,0
-287,-13,0,0,0,0,0,0,0,0,0,-1,937,1037,0,0
-280,-13,0,0,0,0,0,0,0,0,0,-1,944,1037,0,0
-273,-13,0,0,0,0,0,0,0,0,0,-1,951,1037,0,0
-266,-13,0,0,0,0,0,0,0,0,0,-1,958,1037,0,0
-259,-13,0,0,0,0,0,0,0,0,0,-1,965,1037,0,0
-252,-13,0,0,0,0,0,0,0,0,0,-1,972,1037,0,0
-245,-13,0,0,0,0,0,0,0,0,0,-1,979,1037,0,0
-238,-13,0,0,0,0,0,0,0,0,0,-1,986,1037,0,0
-231,-13,0,0,0,0,0,0,0,0,0,-1,993,1037,0,0
-224,-13,0,0,0,0,0,0,0,0,0,-1,1000,1037,0,0
-217,-13,0,0,0,0,0,0,0,0,0,-1,1007,1037,0,0
-210,-13,0,0,0,0,0,0,0,0,0,-1,1014,1037,0,0
-203,-13,0,0,0,0,0,0,0,0,0,-1,1021,1037,0,0
-196,-13,0,0,0,0,0,0,0,0,0,-1,1028,1037,0,0
-189,-13,0,0,0,0,0,0,0,0,0,-1,1035,1037,0,0
-182,-13,0,0,0,0,0,0,0,0,0,-1,1042,1037,0,0
-175,-13,0,0,0,0,0,0,0,0,0,-1,1049,1037,0,0
-168,-13,0,0,0,0,0,0,0,0,0,-1,1056,1037,0,0
-161,-13,0,0,0,0,0,0,0,0,0,-1,1063,1037,0,0
-154,-13,0,0,0,0,0,0,0,0,0,-1,1070,1037,0,0
-147,-13,0,0,0,0,0,0,0,0,0,-1,1077,1037,0,0
-140,-13,0,0,0,0,0,0,0,0,0,-1,1084,1037,0,0
-133,-13,0,0,0,0,0,0,0,0,0,-1,1091,1037,0,0
-126,-13,0,0,0,0,0,0,0,0,0,-1,1098,1037,0,0
-119,-13,0,0,0,0,0,0,0,0,0,-1,1105,1037,0,0
-112,-13,0,0,0,0,0,0,0,0,0,-1,1112,1037,0,0
-105,-13,0,0,0,0,0,0,0,0,0,-1,1119,1037,0,0
-98,-13,0,0,0,0,0,0,0,0,0,-1,1126,1037,0,0
-91,-13,0,0,0,0,0,0,0,0,0,-1,1133,1037,0,0
-84,-13,0,0,0,0,0,0,0,0,0,-1,1140,1037,0,0
-77,-13,0,0,0,0,0,0,0,0,0,-1,1147,1037,0,0
-70,-13,0,0,0,0,0,0,0,0,0,-1,1154,1037,0,0
-63,-13,0,0,0,0,0,0,0,0,0,-1,1161,1037,0,0
-56,-13,0,0,0,0,0,0,0,0,0,-1,1168,1037,0,0
-49,-13,0,0,0,0,0,0,0,0,0,-1,1175,1037,0,0
-42,-13,0,0,0,0,0,0,0,0,0,-1,1182,1037,0,0
-35,-13,0,0,0,0,0,0,0,0,0,-1,1189,1037,0,0
-28,-13,0,0,0,0,0,0,0,0,0,-1,1196,1037,0,0
-21,-13,0,0,0,0,0,0,0,0,0,-1,1203,1037,0,0
-14,-13,0,0,0,0,0,0,0,0,0,-1,1210,1037,0,0
-7,-13,0,0,0,0,0,0,0,0,0,-1,1217,1037,0,0
0,-13,0,0,0,0,0,0,0,0,0,-1,1224,1037,0,0
7,-13,0,0,0,0,0,0,0,0,0,-1,1231,1037,0,0
14,-13,0,0,0,0,0,0,0,0,0,-1,1238,1037,0,0
21,-13,0,0,0,0,0,0,0,0,0,-1,1245,1037,0,0
28,-13,0,0,0,0,0,0,0,0,0,-1,1252,1037,0,0
35,-13,0,0,0,0,0,0,0,0,0,-1,1259,1037,0,0
42,-13,0,0,0,0,0,0,0,0,0,-1,1266,1037,0,0
49,-13,0,0,0,0,0,0,0,0,0,-1,1273,1037,0,0
56,-13,0,0,0,0,0,0,0,0,0,-1,1280,1037,0,0
63,-13,0,0,0,0,0,0,0,0,0,-1,1287,1037,0,0
70,-13,0,0,0,0,0,0,0,0,0,-1,1294,1037,0,0
77,-13,0,0,0,0,0,0,0,0,0,-1,1301,1037,0,0
84,-13,0,0,0,0,0,0,0,0,0,-1,1308,1037,0,0
91,-13,0,0,0,0,0,0,0,0,0,-1,1315,1037,0,0
98,-13,0,0,0,0,0,0,0,0,0,-1,1322,1037,0,0
105,-13,0,0,0,0,0,0,0,0,0,-1,1329,1037,0,0
112,-13,0,0,0,0,0,0,0,0,0,-1,1336,1037,0,0
119,-13,0,0,0,0,0,0,0,0,0,-1,1343,1037,0,0
126,-13,0,0,0,0,0,0,0,0,0,-1,1350,1037,0,0
133,-13,0,0,0,0,0,0,0,0,0,-1,1357,1037,0,0
140,-13,0,0,0,0,0,0,0,0,0,-1,1364,1037,0,0
147,-13,0,0,0,0,0,0,0,0,0,-1,1371,1037,0,0
154,-13,0,0,0,0,0,0,0,0,0,-1,1378,1037,0,0
161,-13,0,0,0,0,0,0,0,0,0,-1,1385,1037,0,0
168,-13,0,0,0,0,0,0,0,0,0,-1,1392,1037,0,0
175,-13,0,0,0,0,0,0,0,0,0,-1,1399,1037,0,0
182,-13,0,0,0,0,0,0,0,0,0,-1,1406,1037,0,0
189,-13,0,0,0,0,0,0,0,0,0,-1,1413,1037,0,0
196,-13,0,0,0,0,0,0,0,0,0,-1,1420,1037,0,0
203,-13,0,0,0,0,0,0,0,0,0,-1,1427,1037,0,0
210,-13,0,0,0,0,0,0,0,0,0,-1,1434,1037,0,0
217,-13,0,0,0,0,0,0,0,0,0,-1,1441,1037,0,0
224,-13,0,0,0,0,0,0,0,0,0,-1,1448,1037,0,0
231,-13,0,0,0,0,0,0,0,0,0,-1,1455,1037,0,0
238,-13,0,0,0,0,0,0,0,0,0,-1,1462,1037,0,0
245,-13,0,0,0,0,0,0,0,0,0,-1,1469,1037,0,0
252,-13,0,0,0,0,0,0,0,0,0,-1,1476,1037,0,0
259,-13,0,0,0,0,0,0,0,0,0,-1,1483,1037,0,0
266,-13,0,0,0,0,0,0,0,0,0,-1,1490,1037,0,0
273,-13,0,0,0,0,0,0,0,0,0,-1,1497,1037,0,0
280,-13,0,0,0,0,0,0,0,0,0,-1,1504,1037,0,0
287,-13,0,0,0,0,0,0,0,0,0,-1,1511,1037,0,0
294,-13,0,0,0,0,0,0,0,0,0,-1,1518,1037,0,0
301,-13,0,0,0,0,0,0,0,0,0,-1,1525,1037,0,0
308,-13,0,0,0,0,0,0,0,0,0,-1,1532,1037,0,0
315,-13,0,0,0,0,0,0,0,0,0,-1,1539,1037,0,0
322,-13,0,0,0,0,0,0,0,0,0,-1,1546,1037,0,0
329,-13,0,0,0,0,0,0,0,0,0,-1,1553,1037,0,0
336,-13,0,0,0,0,0,0,0,0,0,-1,1560,1037,0,0
343,-13,0,0,0,0,0,0,0,0,0,-1,1567,1037,0,0
350,-13,0,0,0,0,0,0,0,0,0,-1,1574,1037,0,0
357,-13,0,0,0,0,0,0,0,0,0,-1,1581,1037,0,0
364,-13,0,0,0,0,0,0,0,0,0,-1,1588,1037,0,0
371,-13,0,0,0,0,0,0,0,0,0,-1,1595,1037,0,0
378,-13,0,0,0,0,0,0,0,0,0,-1,1602,1037,0,0
385,-13,0,0,0,0,0,0,0,0,0,-1,1609,1037,0,0
392,-13,0,0,0,0,0,0,0,0,0,-1,1616,1037,0,0
399,-13,0,0,0,0,0,0,0,0,0,-1,1623,1037,0,0
406,-13,0,0,0,0,0,0,0,0,0,-1,1630,1037,0,0
413,-13,0,0,0,0,0,0,0,0,0,-1,1637,1037,0,0
420,-13,0,0,0,0,0,0,0,0,0,-1,1644,1037,0,0
427,-13,0,0,0,0,0,0,0,0,0,-1,1651,1037,0,0
434,-13,0,0,0,0,0,0,0,0,0,-1,1658,1037,0,0
441,-13,0,0,0,0,0,0,0,0,0,-1,1665,1037,0,0
448,-13,0,0,0,0,0,0,0,0,0,-1,1672,1037,0,0
455,-13,0,0,0,0,0,0,0,0,0,-1,1679,1037,0,0
462,-13,0,0,0,0,0,0,0,0,0,-1,1686,1037,0,0
469,-13,0,0,0,0,0,0,0,0,0,-1,1693,1037,0,0
476,-13,0,0,0,0,0,0,0,0,0,-1,1700,1037,0,0
483,-13,0,0,0,0,0,0,0,0,0,-1,1707,1037,0,0
490,-13,0,0,0,0,0,0,0,0,0,-1,1714,1037,0,0
497,-13,0,0,0,0,0,0,0,0,0,-1,1721,1037,0,0
504,-13,0,0,0,0,0,0,0,0,0,-1,1728,1037,0,0
511,-13,0,0,0,0,0,0,0,0,0,-1,1735,1037,0,0
518,-13,0,0,0,0,0,0,0,0,0,-1,1742,1037,0,0
525,-13,0,0,0,0,0,0,0,0,0,-1,1749,1037,0,0
532,-13,0,0,0,0,0,0,0,0,0,-1,1756,1037,0,0
539,-13,0,0,0,0,0,0,0,0,0,-1,1763,1037,0,0
546,-13,0,0,0,0,0,0,0,0,0,-1,1770,1037,0,0
553,-13,0,0,0,0,0,0,0,0,0,-1,1777,1037,0,0
560,-13,0,0,0,0,0,0,0,0,0,-1,1784,1037,0,0
567,-13,0,0,0,0,0,0,0,0,0,-1,1791,1037,0,0
574,-13,0,0,0,0,0,0,0,0,0,-1,1798,1037,0,0
581,-13,0,0,0,0,0,0,0,0,0,-1,1805,1037,0,0
588,-13,0,0,0,0,0,0,0,0,0,-1,1812,1037,0,0
595,-13,0,0,0,0,0,0,0,0,0,-1,1819,1037,0,0
602,-13,0,0,0,0,0,0,0,0,0,-1,1826,1037,0,0
609,-13,0,0,0,0,0,0,0,0,0,-1,1833,1037,0,0
616,-13,0,0,0,0,0,0,0,0,0,-1,1840,1037,0,0
623,-13,0,0,0,0,0,0,0,0,0,-1,1847,1037,0,0
630,-13,0,0,0,0,0,0,0,0,0,-1,1854,1037,0,0
637,-13,0,0,0,0,0,0,0,0,0,-1,1861,1037,0,0
644,-13,0,0,0,0,0,0,0,0,0,-1,1868,1037,0,0
651,-13,30.5686,2.87195,0.0018835,-3.8826e-05,-0.0022293,0.00335001,-0.00150534,-0.581864,0.00286989,0.0418207,1875,1037,30.5685,-2.87192
658,-13,30.5067,2.73657,0.000842782,-1.16793e-05,-0.00119464,0.00168429,-0.000853185,-0.613674,0.00149097,0.0474308,1882,1037,30.5067,-2.73653
665,-13,30.4507,2.7002,-5.24041e-05,6.48978e-05,-0.000466129,0.000476051,-0.000463558,-0.847982,0.0005425,0.0458719,1889,1037,30.4507,-2.70023
672,-13,30.4987,2.79871,-0.000639907,0.000163107,0.000379774,0.000314263,-0.000791062,1.192,0.000657653,0.0367667,1896,1037,30.4986,-2.79871
679,-13,30.3228,2.90625,-0.0010635,0.000197002,0.00128893,0.00100152,-0.00186802,1.01279,0.00168172,0.0368065,1903,1037,30.3227,-2.90628
686,-13,30.3175,2.90344,-0.00134116,5.1363e-05,0.00198976,0.00146316,-0.00275296,0.953701,0.00247185,0.0389892,1910,1037,30.3175,-2.90348
693,-13,30.2664,2.99731,-0.0014297,-0.000148614,0.00251912,0.00181013,-0.00338844,0.909896,0.00304715,0.0387814,1917,1037,30.2663,-2.99731
700,-13,30.3744,2.77271,-0.00144221,-0.000290496,0.00284868,0.00203995,-0.00377265,0.885128,0.00340525,0.0361986,1924,1037,30.3744,-2.77274
707,-13,30.375,2.74451,-0.00146701,-0.000371899,0.0030802,0.00220904,-0.00404795,0.873362,0.00366411,0.0331674,1931,1037,30.375,-2.74448
714,-13,30.3591,2.96802,-0.00153283,-0.000316367,0.00315553,0.00228901,-0.00413821,0.880606,0.0037616,0.0336492,1938,1037,30.3592,-2.96796
721,-13,29.9885,3.91736,0,0,0,0,0,0,0,-1,1945,1037,29.9886,-3.91733
728,-13,30.1144,4.78674,0,0,0,0,0,0,0,-1,1952,1037,30.1144,-4.78678
735,-13,30.0669,4.80493,-0.00194425,0.000709293,0.00254411,0.00225181,-0.00348677,1.02575,0.00333864,0.0206711,1959,1037,30.0669,-4.80494
742,-13,30.0171,4.80957,-0.00182429,0.00127381,0.002155,0.00237874,-0.00292922,1.09702,0.00307004,0.0129595,1966,1037,30.0171,-4.80957
749,-13,30.0336,4.77588,-0.00160735,0.00179262,0.00145376,0.00232945,-0.00214418,1.21706,0.00258359,0.0179436,1973,1037,30.0336,-4.77582
756,-13,30.0417,4.74658,-0.000992195,0.00258205,0.000780717,0.00274514,-0.00115528,1.36486,0.00231343,0.014653,1980,1037,30.0418,-4.74658
763,-13,30.0305,4.75818,3.58474e-05,0.00368679,-9.08705e-05,0.00368905,3.35869e-05,-1.54593,0.00244825,0.0158444,1987,1037,30.0305,-4.75814
770,-13,29.9926,4.76184,0.00160384,0.00490969,-0.00118089,0.00528818,0.00122535,-1.26062,0.00319628,0.0143617,1994,1037,29.9925,-4.76186
777,-13,29.9366,4.7041,0.00405668,0.00603465,-0.00211369,0.00737928,0.00271205,-1.00422,0.00430999,0.0122944,2001,1037,29.9367,-4.7041
784,-13,29.9365,4.68066,0.00726613,0.00678271,-0.00294009,0.00997443,0.00407441,-0.744385,0.0057908,0.0272068,2008,1037,29.9365,-4.68071
791,-13,30.2169,4.82349,0.011413,0.00711145,-0.00377898,0.0136104,0.00491405,-0.526689,0.00795845,0.0438525,2015,1037,30.2169,-4.8235
798,-13,30.4241,4.70703,0.0168722,0.00690868,-0.00454545,0.0186342,0.00514662,-0.369818,0.0111119,0.0454675,2022,1037,30.4242,-4.70699
805,-13,30.6362,4.88464,0,0,0,0,0,0,0,-1,2029,1037,30.6363,-4.88461
812,-13,29.8691,4.06067,0,0,0,0,0,0,0,-1,2036,1037,29.869,-4.06063
-700,-20,-19.8455,-1.04895,0,0,0,0,0,0,0,-1,524,1044,-19.8455,1.04891
-693,-20,-18.3669,4.65771,0,0,0,0,0,0,0,-1,531,1044,-18.3669,-4.65772
-686,-20,-19.2835,4.38135,0.0260442,0.0684844,0.000418291,0.0684885,0.0260401,1.56094,0.0399183,0.0462516,538,1044,-19.2835,-4.38139
-679,-20,-21.8253,1.82153,0.0245285,0.0589123,0.00126971,0.0589591,0.0244817,1.53394,0.0342027,0.0451808,545,1044,-21.8253,-1.82156
-672,-20,-21.2295,2.17688,0,0,0,0,0,0,0,-1,552,1044,-21.2295,-2.17691
-665,-20,-20.9399,2.17383,0,0,0,0,0,0,0,-1,559,1044,-20.9399,-2.17378
-658,-20,-21.3502,1.00403,0,0,0,0,0,0,0,-1,566,1044,-21.3501,-1.00402
-651,-20,-21.2323,1.505,0.0105838,0.0263512,0.00211438,0.0266298,0.0103052,1.43978,0.0155051,0.0413712,573,1044,-21.2323,-1.50506
-644,-20,-21.1657,1.89905,0.00747162,0.0199982,0.00171448,0.0202287,0.0072412,1.4372,0.0118351,0.0265113,580,1044,-21.1657,-1.89899
-637,-20,-21.2101,2.01392,0.00505961,0.0152199,0.000759775,0.0152764,0.00500311,1.49657,0.0089931,0.0168408,587,1044,-21.2101,-2.01388
-630,-20,-21.2454,2.12158,0.00334472,0.00868622,-0.00109204,0.00890086,0.00313008,-1.37672,0.00521375,0.013556,594,1044,-21.2454,-2.12158
-623,-20,-21.2751,2.18726,0.00171572,0.00593928,-0.00249206,0.00709399,0.00056101,-1.13689,0.00455386,0.0130972,601,1044,-21.2751,-2.18724
-616,-20,-21.2629,2.23584,0.000211729,0.00421037,-0.00400648,0.00668868,-0.00226658,-1.01683,0.00537634,0.012909,608,1044,-21.2629,-2.23584
-609,-20,-21.2404,2.29431,-8.40226e-05,0.00217178,-0.00457399,0.00575489,-0.00366713,-0.906282,0.00548414,0.0139416,615,1044,-21.2404,-2.29428
-602,-20,-21.2254,2.33289,-8.93573e-07,0.000700653,-0.00581679,0.00617724,-0.00547748,-0.815513,0.0067329,0.0109033,622,1044,-21.2254,-2.33285
-595,-20,-21.2196,2.30579,0,0,0,0,0,0,0,-1,629,1044,-21.2196,-2.30573
-588,-20,-21.2089,0.86145,0,0,0,0,0,0,0,-1,636,1044,-21.2089,-0.861441
-581,-20,-21.1841,0.944702,0.000180636,-0.000634295,-0.00697466,0.00675972,-0.00721338,-0.756221,0.00806879,0.0292079,643,1044,-21.1841,-0.944741
-574,-20,-21.2586,1.10486,5.83876e-05,-0.000778847,-0.00646726,0.00612056,-0.00684102,-0.753079,0.00748723,0.03934,650,1044,-21.2586,-1.10487
-567,-20,-21.36,1.18774,-0.000239352,-0.000849994,-0.00543574,0.00489964,-0.00598898,-0.757343,0.00629703,0.0442661,657,1044,-21.36,-1.18774
-560,-20,-21.3489,1.15503,-0.000689348,-0.000949395,-0.00384003,0.00302285,-0.0046616,-0.768475,0.00447012,0.0439934,664,1044,-21.3489,-1.15503
-553,-20,-21.2904,1.06299,-0.00134031,-0.00122502,-0.00169443,0.000412747,-0.00297808,-0.802402,0.0021363,0.0421803,671,1044,-21.2904,-1.06301
-546,-20,-21.1448,1.19482,-0.00225338,-0.00189322,0.000953566,-0.00110288,-0.00304372,0.878723,0.00177935,0.0397422,678,1044,-21.1448,-1.19488
-539,-20,-21.1146,1.26001,-0.00349606,-0.0027402,0.00320571,0.000109776,-0.00634604,0.844074,0.00426775,0.0408231,685,1044,-21.1146,-1.25997
-532,-20,-21.1611,0.972412,-0.00532363,-0.00391674,0.00352218,-0.00102844,-0.00821193,0.88396,0.00516604,0.0421681,692,1044,-21.1611,-0.972355
-525,-20,0,0,0,0,0,0,0,0,0,-1,699,1044,0,0
-518,-20,0,0,0,0,0,0,0,0,0,-1,706,1044,0,0
-511,-20,0,0,0,0,0,0,0,0,0,-1,713,1044,0,0
-504,-20,0,0,0,0,0,0,0,0,0,-1,720,1044,0,0
-497,-20,0,0,0,0,0,0,0,0,0,-1,727,1044,0,0
-490,-20,0,0,0,0,0,0,0,0,0,-1,734,1044,0,0
-483,-20,0,0,0,0,0,0,0,0,0,-1,741,1044,0,0
-476,-20,0,0,0,0,0,0,0,0,0,-1,748,1044,0,0
-469,-20,0,0,0,0,0,0,0,0,0,-1,755,1044,0,0
-462,-20,0,0,0,0,0,0,0,0,0,-1,762,1044,0,0
-455,-20,0,0,0,0,0,0,0,0,0,-1,769,1044,0,0
-448,-20,0,0,0,0,0,0,0,0,0,-1,776,1044,0,0
-441,-20,0,0,0,0,0,0,0,0,0,-1,783,1044,0,0
-434,-20,0,0,0,0,0,0,0,0,0,-1,790,1044,0,0
-427,-20,0,0,0,0,0,0,0,0,0,-1,797,1044,0,0
-420,-20,0,0,0,0,0,0,0,0,0,-1,804,1044,0,0
-413,-20,0,0,0,0,0,0,0,0,0,-1,811,1044,0,0
-406,-20,0,0,0,0,0,0,0,0,0,-1,818,1044,0,0
-399,-20,0,0,0,0,0,0,0,0,0,-1,825,1044,0,0
-392,-20,0,0,0,0,0,0,0,0,0,-1,832,1044,0,0
-385,-20,0,0,0,0,0,0,0,0,0,-1,839,1044,0,0
-378,-20,0,0,0,0,0,0,0,0,0,-1,846,1044,0,0
-371,-20,0,0,0,0,0,0,0,0,0,-1,853,1044,0,0
-364,-20,0,0,0,0,0,0,0,0,0,-1,860,1044,0,0
-357,-20,0,0,0,0,0,0,0,0,0,-1,867,1044,0,0
-350,-20,0,0,0,0,0,0,0,0,0,-1,874,1044,0,0
-343,-20,0,0,0,0,0,0,0,0,0,-1,881,1044,0,0
-336,-20,0,0,0,0,0,0,0,0,0,-1,888,1044,0,0
-329,-20,0,0,0,0,0,0,0,0,0,-1,895,1044,0,0
-322,-20,0,0,0,0,0,0,0,0,0,-1,902,1044,0,0
-315,-20,0,0,0,0,0,0,0,0,0,-1,909,1044,0,0
-308,-20,0,0,0,0,0,0,0,0,0,-1,916,1044,0,0
-301,-20,0,0,0,0,0,0,0,0,0,-1,923,1044,0,0
-294,-20,0,0,0,0,0,0,0,0,0,-1,930,1044,0,0
-287,-20,0,0,0,0,0,0,0,0,0,-1,937,1044,0,0
-280,-20,0,0,0,0,0,0,0,0,0,-1,944,1044,0,0
-273,-20,0,0,0,0,0,0,0,0,0,-1,951,1044,0,0
-266,-20,0,0,0,0,0,0,0,0,0,-1,958,1044,0,0
-259,-20,0,0,0,0,0,0,0,0,0,-1,965,1044,0,0
-252,-20,0,0,0,0,0,0,0,0,0,-1,972,1044,0,0
-245,-20,0,0,0,0,0,0,0,0,0,-1,979,1044,0,0
-238,-20,0,0,0,0,0,0,0,0,0,-1,986,1044,0,0
-231,-20,0,0,0,0,0,0,0,0,0,-1,993,1044,0,0
-224,-20,0,0,0,0,0,0,0,0,0,-1,1000,1044,0,0
-217,-20,0,0,0,0,0,0,0,0,0,-1,1007,1044,0,0
-210,-20,0,0,0,0,0,0,0,0,0,-1,1014,1044,0,0
-203,-20,0,0,0,0,0,0,0,0,0,-1,1021,1044,0,0
-196,-20,0,0,0,0,0,0,0,0,0,-1,1028,1044,0,0
-189,-20,0,0,0,0,0,0,0,0,0,-1,1035,1044,0,0
-182,-20,0,0,0,0,0,0,0,0,0,-1,1042,1044,0,0
-175,-20,0,0,0,0,0,0,0,0,0,-1,1049,1044,0,0
-168,-20,0,0,0,0,0,0,0,0,0,-1,1056,1044,0,0
-161,-20,0,0,0,0,0,0,0,0,0,-1,1063,1044,0,0
-154,-20,0,0,0,0,0,0,0,0,0,-1,1070,1044,0,0
-147,-20,0,0,0,0,0,0,0,0,0,-1,1077,1044,0,0
-140,-20,0,0,0,0,0,0,0,0,0,-1,1084,1044,0,0
-133,-20,0,0,0,0,0,0,0,0,0,-1,1091,1044,0,0
-126,-20,0,0,0,0,0,0,0,0,0,-1,1098,1044,0,0
-119,-20,0,0,0,0,0,0,0,0,0,-1,1105,1044,0,0
-112,-20,0,0,0,0,0,0,0,0,0,-1,1112,1044,0,0
-105,-20,0,0,0,0,0,0,0,0,0,-1,1119,1044,0,0
-98,-20,0,0,0,0,0,0,0,0,0,-1,1126,1044,0,0
-91,-20,0,0,0,0,0,0,0,0,0,-1,1133,1044,0,0
-84,-20,0,0,0,0,0,0,0,0,0,-1,1140,1044,0,0
-77,-20,0,0,0,0,0,0,0,0,0,-1,1147,1044,0,0
-70,-20,0,0,0,0,0,0,0,0,0,-1,1154,1044,0,0
-63,-20,0,0,0,0,0,0,0,0,0,-1,1161,1044,0,0
-56,-20,0,0,0,0,0,0,0,0,0,-1,1168,1044,0,0
-49,-20,0,0,0,0,0,0,0,0,0,-1,1175,1044,0,0
-42,-20,0,0,0,0,0,0,0,0,0,-1,1182,1044,0,0
-35,-20,0,0,0,0,0,0,0,0,0,-1,1189,1044,0,0
-28,-20,0,0,0,0,0,0,0,0,0,-1,1196,1044,0,0
-21,-20,0,0,0,0,0,0,0,0,0,-1,1203,1044,0,0
-14,-20,0,0,0,0,0,0,0,0,0,-1,1210,1044,0,0
-7,-20,0,0,0,0,0,0,0,0,0,-1,1217,1044,0,0
0,-20,0,0,0,0,0,0,0,0,0,-1,1224,1044,0,0
7,-20,0,0,0,0,0,0,0,0,0,-1,1231,1044,0,0
14,-20,0,0,0,0,0,0,0,0,0,-1,1238,1044,0,0
21,-20,0,0,0,0,0,0,0,0,0,-1,1245,1044,0,0
28,-20,0,0,0,0,0,0,0,0,0,-1,1252,1044,0,0
35,-20,0,0,0,0,0,0,0,0,0,-1,1259,1044,0,0
42,-20,0,0,0,0,0,0,0,0,0,-1,1266,1044,0,0
49,-20,0,0,0,0,0,0,0,0,0,-1,1273,1044,0,0
56,-20,0,0,0,0,0,0,0,0,0,-1,1280,1044,0,0
63,-20,0,0,0,0,0,0,0,0,0,-1,1287,1044,0,0
70,-20,0,0,0,0,0,0,0,0,0,-1,1294,1044,0,0
77,-20,0,0,0,0,0,0,0,0,0,-1,1301,1044,0,0
84,-20,0,0,0,0,0,0,0,0,0,-1,1308,1044,0,0
91,-20,0,0,0,0,0,0,0,0,0,-1,1315,1044,0,0
98,-20,0,0,0,0,0,0,0,0,0,-1,1322,1044,0,0
105,-20,0,0,0,0,0,0,0,0,0,-1,1329,1044,0,0
112,-20,0,0,0,0,0,0,0,0,0,-1,1336,1044,0,0
119,-20,0,0,0,0,0,0,0,0,0,-1,1343,1044,0,0
126,-20,0,0,0,0,0,0,0,0,0,-1,1350,1044,0,0
133,-20,0,0,0,0,0,0,0,0,0,-1,1357,1044,0,0
140,-20,0,0,0,0,0,0,0,0,0,-1,1364,1044,0,0
147,-20,0,0,0,0,0,0,0,0,0,-1,1371,1044,0,0
154,-20,0,0,0,0,0,0,0,0,0,-1,1378,1044,0,0
161,-20,0,0,0,0,0,0,0,0,0,-1,1385,1044,0,0
168,-20,0,0,0,0,0,0,0,0,0,-1,1392,1044,0,0
175,-20,0,0,0,0,0,0,0,0,0,-1,1399,1044,0,0
182,-20,0,0,0,0,0,0,0,0,0,-1,1406,1044,0,0
189,-20,0,0,0,0,0,0,0,0,0,-1,1413,1044,0,0
196,-20,0,0,0,0,0,0,0,0,0,-1,1420,1044,0,0
203,-20,0,0,0,0,0,0,0,0,0,-1,1427,1044,0,0
210,-20,0,0,0,0,0,0,0,0,0,-1,1434,1044,0,0
217,-20,0,0,0,0,0,0,0,0,0,-1,1441,1044,0,0
224,-20,0,0,0,0,0,0,0,0,0,-1,1448,1044,0,0
231,-20,0,0,0,0,0,0,0,0,0,-1,1455,1044,0,0
238,-20,0,0,0,0,0,0,0,0,0,-1,1462,1044,0,0
245,-20,0,0,0,0,0,0,0,0,0,-1,1469,1044,0,0
252,-20,0,0,0,0,0,0,0,0,0,-1,1476,1044,0,0
259,-20,0,0,0,0,0,0,0,0,0,-1,1483,1044,0,0
266,-20,0,0,0,0,0,0,0,0,0,-1,1490,1044,0,0
273,-20,0,0,0,0,0,0,0,0,0,-1,1497,1044,0,0
280,-20,0,0,0,0,0,0,0,0,0,-1,1504,1044,0,0
287,-20,0,0,0,0,0,0,0,0,0,-1,1511,1044,0,0
294,-20,0,0,0,0,0,0,0,0,0,-1,1518,1044,0,0
301,-20,0,0,0,0,0,0,0,0,0,-1,1525,1044,0,0
308,-20,0,0,0,0,0,0,0,0,0,-1,1532,1044,0,0
315,-20,0,0,0,0,0,0,0,0,0,-1,1539,1044,0,0
322,-20,0,0,0,0,0,0,0,0,0,-1,1546,1044,0,0
329,-20,0,0,0,0,0,0,0,0,0,-1,1553,1044,0,0
336,-20,0,0,0,0,0,0,0,0,0,-1,1560,1044,0,0
343,-20,0,0,0,0,0,0,0,0,0,-1,1567,1044,0,0
350,-20,0,0,0,0,0,0,0,0,0,-1,1574,1044,0,0
357,-20,0,0,0,0,0,0,0,0,0,-1,1581,1044,0,0
364,-20,0,0,0,0,0,0,0,0,0,-1,1588,1044,0,0
371,-20,0,0,0,0,0,0,0,0,0,-1,1595,1044,0,0
378,-20,0,0,0,0,0,0,0,0,0,-1,1602,1044,0,0
385,-20,0,0,0,0,0,0,0,0,0,-1,1609,1044,0,0
392,-20,0,0,0,0,0,0,0,0,0,-1,1616,1044,0,0
399,-20,0,0,0,0,0,0,0,0,0,-1,1623,1044,0,0
406,-20,0,0,0,0,0,0,0,0,0,-1,1630,1044,0,0
413,-20,0,0,0,0,0,0,0,0,0,-1,1637,1044,0,0
420,-20,0,0,0,0,0,0,0,0,0,-1,1644,1044,0,0
427,-20,0,0,0,0,0,0,0,0,0,-1,1651,1044,0,0
434,-20,0,0,0,0,0,0,0,0,0,-1,1658,1044,0,0
441,-20,0,0,0,0,0,0,0,0,0,-1,1665,1044,0,0
448,-20,0,0,0,0,0,0,0,0,0,-1,1672,1044,0,0
455,-20,0,0,0,0,0,0,0,0,0,-1,1679,1044,0,0
462,-20,0,0,0,0,0,0,0,0,0,-1,1686,1044,0,0
469,-20,0,0,0,0,0,0,0,0,0,-1,1693,1044,0,0
476,-20,0,0,0,0,0,0,0,0,0,-1,1700,1044,0,0
483,-20,0,0,0,0,0,0,0,0,0,-1,1707,1044,0,0
490,-20,0,0,0,0,0,0,0,0,0,-1,1714,1044,0,0
497,-20,0,0,0,0,0,0,0,0,0,-1,1721,1044,0,0
504,-20,0,0,0,0,0,0,0,0,0,-1,1728,1044,0,0
511,-20,0,0,0,0,0,0,0,0,0,-1,1735,1044,0,0
518,-20,0,0,0,0,0,0,0,0,0,-1,1742,1044,0,0
525,-20,0,0,0,0,0,0,0,0,0,-1,1749,1044,0,0
532,-20,0,0,0,0,0,0,0,0,0,-1,1756,1044,0,0
539,-20,0,0,0,0,0,0,0,0,0,-1,1763,1044,0,0
546,-20,0,0,0,0,0,0,0,0,0,-1,1770,1044,0,0
553,-20,0,0,0,0,0,0,0,0,0,-1,1777,1044,0,0
560,-20,0,0,0,0,0,0,0,0,0,-1,1784,1044,0,0
567,-20,0,0,0,0,0,0,0,0,0,-1,1791,1044,0,0
574,-20,0,0,0,0,0,0,0,0,0,-1,1798,1044,0,0
581,-20,0,0,0,0,0,0,0,0,0,-1,1805,1044,0,0
588,-20,0,0,0,0,0,0,0,0,0,-1,1812,1044,0,0
595,-20,0,0,0,0,0,0,0,0,0,-1,1819,1044,0,0
602,-20,0,0,0,0,0,0,0,0,0,-1,1826,1044,0,0
609,-20,0,0,0,0,0,0,0,0,0,-1,1833,1044,0,0
616,-20,0,0,0,0,0,0,0,0,0,-1,1840,1044,0,0
623,-20,0,0,0,0,0,0,0,0,0,-1,1847,1044,0,0
630,-20,0,0,0,0,0,0,0,0,0,-1,1854,1044,0,0
637,-20,0,0,0,0,0,0,0,0,0,-1,1861,1044,0,0
644,-20,0,0,0,0,0,0,0,0,0,-1,1868,1044,0,0
651,-20,30.6017,2.88062,0.00168185,-2.11075e-05,-0.00169342,0.00272581,-0.00106507,-0.552449,0.00225759,0.043065,1875,1044,30.6017,-2.88066
658,-20,30.5612,2.75586,0.000682021,3.71894e-05,-0.000791937,0.00121466,-0.000495448,-0.592082,0.00101602,0.0465487,1882,1044,30.5611,-2.75589
665,-20,30.4744,2.75513,-0.000165708,0.000127282,-0.000195477,0.000225066,-0.000263492,-1.10696,0.00028236,0.0428318,1889,1044,30.4744,-2.75508
672,-20,30.4159,2.81384,-0.00069357,0.000248239,0.000540949,0.000494535,-0.000939866,1.14354,0.000841351,0.0266744,1896,1044,30.4158,-2.8138
679,-20,30.3685,2.83264,-0.00103125,0.000276843,0.00138712,0.00115638,-0.00191078,1.0057,0.0017886,0.0297621,1903,1044,30.3685,-2.83264
686,-20,30.4343,2.84705,-0.00125585,0.000113763,0.00207284,0.00161199,-0.00275407,0.944939,0.00254933,0.0409262,1910,1044,30.4343,-2.84703
693,-20,30.5203,2.76611,-0.00131808,-0.000114555,0.00260742,0.00195964,-0.00339228,0.898807,0.00312662,0.0438171,1917,1044,30.5203,-2.76609
700,-20,30.4478,2.73926,-0.0013,-0.000294524,0.0029627,0.00220779,-0.00380231,0.869442,0.0035104,0.0394318,1924,1044,30.4478,-2.73932
707,-20,30.3879,2.76465,-0.00131626,-0.000400892,0.00321476,0.0023886,-0.00410576,0.856108,0.00379296,0.0325632,1931,1044,30.388,-2.76461
714,-20,30.3832,2.93445,-0.0013484,-0.000377317,0.00330139,0.00247404,-0.00419976,0.858411,0.00389582,0.0285216,1938,1044,30.3832,-2.93444
721,-20,30.3623,3.02698,0,0,0,0,0,0,0,-1,1945,1044,30.3623,-3.02701
728,-20,30.2128,4.76465,0,0,0,0,0,0,0,-1,1952,1044,30.2128,-4.76466
735,-20,30.0538,4.8092,-0.00174314,0.00052923,0.00271924,0.00234011,-0.00355402,0.98329,0.00342695,0.0195611,1959,1044,30.0538,-4.80915
742,-20,29.9877,4.8092,-0.00161262,0.00114447,0.00237971,0.00251609,-0.00298424,1.04792,0.00317945,0.0168999,1966,1044,29.9877,-4.80914
749,-20,30.0406,4.77588,-0.00139914,0.00170182,0.00173734,0.00247993,-0.00217725,1.14971,0.00269072,0.0184315,1973,1044,30.0407,-4.7759
756,-20,30.0302,4.75098,-0.000768072,0.00255127,0.00116781,0.00292095,-0.00113776,1.26421,0.00241751,0.0141063,1980,1044,30.0301,-4.75102
763,-20,29.9921,4.73938,0.000311246,0.0037568,0.000456631,0.00381629,0.000251757,1.44125,0.00246456,0.0173565,1987,1044,29.9921,-4.73943
770,-20,29.9669,4.77405,0.00190388,0.00515029,-0.000382397,0.00519472,0.00185944,-1.45512,0.00303925,0.0157931,1994,1044,29.9669,-4.77409
777,-20,29.9133,4.672,0.00442041,0.00653765,-0.000943627,0.00689716,0.00406089,-1.20678,0.00400295,0.0128876,2001,1044,29.9133,-4.67199
784,-20,29.9464,4.63892,0.00774774,0.0075582,-0.00123523,0.00889184,0.00641411,-0.747112,0.00529874,0.0176092,2008,1044,29.9464,-4.63887
791,-20,30.0494,4.64856,0.012038,0.00820237,-0.00135888,0.0124706,0.00776974,-0.308225,0.0072722,0.0345742,2015,1044,30.0494,-4.64852
798,-20,30.2981,4.91052,0.0176919,0.00835892,-0.00119095,0.0178415,0.00820934,-0.124939,0.0103117,0.0421109,2022,1044,30.2981,-4.91054
805,-20,29.4421,2.97729,0,0,0,0,0,0,0,-1,2029,1044,29.4421,-2.97725
812,-20,29.8872,4.21472,0,0,0,0,0,0,0,-1,2036,1044,29.8871,-4.21469
-700,-27,-24.5015,-0.346558,0,0,0,0,0,0,0,-1,524,1051,-24.5015,0.346592
-693,-27,-23.5491,0.0401611,0,0,0,0,0,0,0,-1,531,1051,-23.5491,-0.0401463
-686,-27,-22.6443,0.411255,0.0413672,0.0707759,0.00461248,0.0714824,0.0406608,1.41882,0.0414005,0.046131,538,1051,-22.6443,-0.411266
-679,-27,-21.9457,0.864746,0.0368059,0.0605337,0.00504599,0.0615622,0.0357774,1.36972,0.0356987,0.0474092,545,1051,-21.9457,-0.864779
-672,-27,-21.621,1.41211,0.0311543,0.0507659,0.00509373,0.05201,0.0299102,1.33125,0.0301406,0.0451029,552,1051,-21.621,-1.41207
-665,-27,-21.3369,1.46729,0.0253019,0.0417403,0.00489157,0.0430858,0.0239565,1.30238,0.0249276,0.0448675,559,1051,-21.3369,-1.46731
-658,-27,-20.9518,1.35364,0.0197455,0.0335732,0.00450036,0.0349089,0.0184098,1.28229,0.0201647,0.0476275,566,1051,-20.9518,-1.35363
-651,-27,-21.0197,1.63293,0.0148134,0.0263061,0.00394701,0.0275311,0.0135884,1.26987,0.0158955,0.0367488,573,1051,-21.0197,-1.63289
-644,-27,-21.0914,1.87122,0.010404,0.0197545,0.00310991,0.0206943,0.00946414,1.27731,0.0119624,0.0166598,580,1051,-21.0914,-1.87124
-637,-27,-21.1239,1.93384,0.00684864,0.0148147,0.00174774,0.0151812,0.00648205,1.36405,0.00879599,0.0133005,587,1051,-21.1239,-1.93381
-630,-27,-21.1738,2.10706,0.00426654,0.00819732,-0.000470257,0.00825279,0.00421106,-1.45337,0.00476509,0.0168021,594,1051,-21.1738,-2.10708
-623,-27,-21.1907,2.198,0.00217111,0.00532201,-0.00216081,0.00642072,0.0010724,-1.10039,0.00397157,0.0148194,601,1051,-21.1907,-2.19799
-616,-27,-21.1607,2.27368,0.000367454,0.00362548,-0.00382948,0.00615803,-0.0021651,-0.986497,0.00498628,0.0128665,608,1051,-21.1607,-2.2737
-609,-27,-21.1716,2.33521,-0.000220399,0.00168844,-0.00458763,0.00541988,-0.00395184,-0.887956,0.00543285,0.0132378,615,1051,-21.1716,-2.33518
-602,-27,-21.1493,2.41602,-0.000317832,0.000337882,-0.00592679,0.00594588,-0.00592582,-0.813029,0.00685413,0.0113266,622,1051,-21.1493,-2.41607
-595,-27,-21.1715,2.75171,0,0,0,0,0,0,0,-1,629,1051,-21.1715,-2.75169
-588,-27,-21.1941,1.68872,-0.000155226,-0.000460649,-0.00741551,0.00710915,-0.00772502,-0.775103,0.00856697,0.0178354,636,1051,-21.1941,-1.68878
-581,-27,-21.1539,0.937134,-0.000281084,-0.000656349,-0.00715441,0.00668815,-0.00762559,-0.772288,0.00826995,0.0221535,643,1051,-21.1538,-0.937122
-574,-27,-21.1986,0.981445,-0.000377207,-0.000625934,-0.0066596,0.00615919,-0.00716233,-0.776062,0.00769845,0.0361288,650,1051,-21.1986,-0.98147
-567,-27,-21.2448,1.08521,-0.000613361,-0.000451055,-0.00562517,0.00509354,-0.00615796,-0.792611,0.00650574,0.0444471,657,1051,-21.2448,-1.08524
-560,-27,-21.1705,1.24146,-0.000982118,-0.000213704,-0.00399547,0.00341599,-0.00461182,-0.833331,0.00465197,0.0457943,664,1051,-21.1705,-1.24148
-553,-27,-21.0306,1.17822,-0.00153958,-4.65617e-05,-0.00176301,0.00112147,-0.00270762,-0.985668,0.00227307,0.0432343,671,1051,-21.0306,-1.17825
-546,-27,-21.0045,0.910645,-0.00238696,-0.000165075,0.00105335,0.000254911,-0.00280695,1.1914,0.0019618,0.0437469,678,1051,-21.0045,-0.910635
-539,-27,-21.1157,0.871338,-0.00366986,-0.000501924,0.00353977,0.00179211,-0.0059639,0.995775,0.00468889,0.0418438,685,1051,-21.1157,-0.871368
-532,-27,-21.2123,0.963379,-0.00572818,-0.00128737,0.00406267,0.00112207,-0.00813762,1.03549,0.00583518,0.0414199,692,1051,-21.2123,-0.963354
-525,-27,0,0,0,0,0,0,0,0,0,-1,699,1051,0,0
-518,-27,0,0,0,0,0,0,0,0,0,-1,706,1051,0,0
-511,-27,0,0,0,0,0,0,0,0,0,-1,713,1051,0,0
-504,-27,0,0,0,0,0,0,0,0,0,-1,720,1051,0,0
-497,-27,0,0,0,0,0,0,0,0,0,-1,727,1051,0,0
-490,-27,0,0,0,0,0,0,0,0,0,-1,734,1051,0,0
-483,-27,0,0,0,0,0,0,0,0,0,-1,741,1051,0,0
-476,-27,0,0,0,0,0,0,0,0,0,-1,748,1051,0,0
-469,-27,0,0,0,0,0,0,0,0,0,-1,755,1051,0,0
-462,-27,0,0,0,0,0,0,0,0,0,-1,762,1051,0,0
-455,-27,0,0,0,0,0,0,0,0,0,-1,769,1051,0,0
-448,-27,0,0,0,0,0,0,0,0,0,-1,776,1051,0,0
-441,-27,0,0,0,0,0,0,0,0,0,-1,783,1051,0,0
-434,-27,0,0,0,0,0,0,0,0,0,-1,790,1051,0,0
-427,-27,0,0,0,0,0,0,0,0,0,-1,797,1051,0,0
-420,-27,0,0,0,0,0,0,0,0,0,-1,804,1051,0,0
-413,-27,0,0,0,0,0,0,0,0,0,-1,811,1051,0,0
-406,-27,0,0,0,0,0,0,0,0,0,-1,818,1051,0,0
-399,-27,0,0,0,0,0,0,0,0,0,-1,825,1051,0,0
-392,-27,0,0,0,0,0,0,0,0,0,-1,832,1051,0,0
-385,-27,0,0,0,0,0,0,0,0,0,-1,839,1051,0,0
-378,-27,0,0,0,0,0,0,0,0,0,-1,846,1051,0,0
-371,-27,0,0,0,0,0,0,0,0,0,-1,853,1051,0,0
-364,-27,0,0,0,0,0,0,0,0,0,-1,860,1051,0,0
-357,-27,0,0,0,0,0,0,0,0,0,-1,867,1051,0,0
-350,-27,0,0,0,0,0,0,0,0,0,-1,874,1051,0,0
-343,-27,0,0,0,0,0,0,0,0,0,-1,881,1051,0,0
-336,-27,0,0,0,0,0,0,0,0,0,-1,888,1051,0,0
-329,-27,0,0,0,0,0,0,0,0,0,-1,895,1051,0,0
-322,-27,0,0,0,0,0,0,0,0,0,-1,902,1051,0,0
-315,-27,0,0,0,0,0,0,0,0,0,-1,909,1051,0,0
-308,-27,0,0,0,0,0,0,0,0,0,-1,916,1051,0,0
-301,-27,0,0,0,0,0,0,0,0,0,-1,923,1051,0,0
-294,-27,0,0,0,0,0,0,0,0,0,-1,930,1051,0,0
-287,-27,0,0,0,0,0,0,0,0,0,-1,937,1051,0,0
-280,-27,0,0,0,0,0,0,0,0,0,-1,944,1051,0,0
-273,-27,0,0,0,0,0,0,0,0,0,-1,951,1051,0,0
-266,-27,0,0,0,0,0,0,0,0,0,-1,958,1051,0,0
-259,-27,0,0,0,0,0,0,0,0,0,-1,965,1051,0,0
-252,-27,0,0,0,0,0,0,0,0,0,-1,972,1051,0,0
-245,-27,0,0,0,0,0,0,0,0,0,-1,979,1051,0,0
-238,-27,0,0,0,0,0,0,0,0,0,-1,986,1051,0,0
-231,-27,0,0,0,0,0,0,0,0,0,-1,993,1051,0,0
-224,-27,0,0,0,0,0,0,0,0,0,-1,1000,1051,0,0
-217,-27,0,0,0,0,0,0,0,0,0,-1,1007,1051,0,0
-210,-27,0,0,0,0,0,0,0,0,0,-1,1014,1051,0,0
-203,-27,0,0,0,0,0,0,0,0,0,-1,1021,1051,0,0
-196,-27,0,0,0,0,0,0,0,0,0,-1,1028,1051,0,0
-189,-27,0,0,0,0,0,0,0,0,0,-1,1035,1051,0,0
-182,-27,0,0,0,0,0,0,0,0,0,-1,1042,1051,0,0
-175,-27,0,0,0,0,0,0,0,0,0,-1,1049,1051,0,0
-168,-27,0,0,0,0,0,0,0,0,0,-1,1056,1051,0,0
-161,-27,0,0,0,0,0,0,0,0,0,-1,1063,1051,0,0
-154,-27,0,0,0,0,0,0,0,0,0,-1,1070,1051,0,0
-147,-27,0,0,0,0,0,0,0,0,0,-1,1077,1051,0,0
-140,-27,0,0,0,0,0,0,0,0,0,-1,1084,1051,0,0
-133,-27,0,0,0,0,0,0,0,0,0,-1,1091,1051,0,0
-126,-27,0,0,0,0,0,0,0,0,0,-1,1098,1051,0,0
-119,-27,0,0,0,0,0,0,0,0,0,-1,1105,1051,0,0
-112,-27,0,0,0,0,0,0,0,0,0,-1,1112,1051,0,0
-105,-27,0,0,0,0,0,0,0,0,0,-1,1119,1051,0,0
-98,-27,0,0,0,0,0,0,0,0,0,-1,1126,1051,0,0
-91,-27,0,0,0,0,0,0,0,0,0,-1,1133,1051,0,0
-84,-27,0,0,0,0,0,0,0,0,0,-1,1140,1051,0,0
-77,-27,0,0,0,0,0,0,0,0,0,-1,1147,1051,0,0
-70,-27,0,0,0,0,0,0,0,0,0,-1,1154,1051,0,0
-63,-27,0,0,0,0,0,0,0,0,0,-1,1161,1051,0,0
-56,-27,0,0,0,0,0,0,0,0,0,-1,1168,1051,0,0
-49,-27,0,0,0,0,0,0,0,0,0,-1,1175,1051,0,0
-42,-27,0,0,0,0,0,0,0,0,0,-1,1182,1051,0,0
-35,-27,0,0,0,0,0,0,0,0,0,-1,1189,1051,0,0
-28,-27,0,0,0,0,0,0,0,0,0,-1,1196,1051,0,0
-21,-27,0,0,0,0,0,0,0,0,0,-1,1203,1051,0,0
-14,-27,0,0,0,0,0,0,0,0,0,-1,1210,1051,0,0
-7,-27,0,0,0,0,0,0,0,0,0,-1,1217,1051,0,0
0,-27,0,0,0,0,0,0,0,0,0,-1,1224,1051,0,0
7,-27,0,0,0,0,0,0,0,0,0,-1,1231,1051,0,0
14,-27,0,0,0,0,0,0,0,0,0,-1,1238,1051,0,0
21,-27,0,0,0,0,0,0,0,0,0,-1,1245,1051,0,0
28,-27,0,0,0,0,0,0,0,0,0,-1,1252,1051,0,0
35,-27,0,0,0,0,0,0,0,0,0,-1,1259,1051,0,0
42,-27,0,0,0,0,0,0,0,0,0,-1,1266,1051,0,0
49,-27,0,0,0,0,0,0,0,0,0,-1,1273,1051,0,0
56,-27,0,0,0,0,0,0,0,0,0,-1,1280,1051,0,0
63,-27,0,0,0,0,0,0,0,0,0,-1,1287,1051,0,0
70,-27,0,0,0,0,0,0,0,0,0,-1,1294,1051,0,0
77,-27,0,0,0,0,0,0,0,0,0,-1,1301,1051,0,0
84,-27,0,0,0,0,0,0,0,0,0,-1,1308,1051,0,0
91,-27,0,0,0,0,0,0,0,0,0,-1,1315,1051,0,0
98,-27,0,0,0,0,0,0,0,0,0,-1,1322,1051,0,0
105,-27,0,0,0,0,0,0,0,0,0,-1,1329,1051,0,0
112,-27,0,0,0,0,0,0,0,0,0,-1,1336,1051,0,0
119,-27,0,0,0,0,0,0,0,0,0,-1,1343,1051,0,0
126,-27,0,0,0,0,0,0,0,0,0,-1,1350,1051,0,0
133,-27,0,0,0,0,0,0,0,0,0,-1,1357,1051,0,0
140,-27,0,0,0,0,0,0,0,0,0,-1,1364,1051,0,0
147,-27,0,0,0,0,0,0,0,0,0,-1,1371,1051,0,0
154,-27,0,0,0,0,0,0,0,0,0,-1,1378,1051,0,0
161,-27,0,0,0,0,0,0,0,0,0,-1,1385,1051,0,0
168,-27,0,0,0,0,0,0,0,0,0,-1,1392,1051,0,0
175,-27,0,0,0,0,0,0,0,0,0,-1,1399,1051,0,0
182,-27,0,0,0,0,0,0,0,0,0,-1,1406,1051,0,0
189,-27,0,0,0,0,0,0,0,0,0,-1,1413,1051,0,0
196,-27,0,0,0,0,0,0,0,0,0,-1,1420,1051,0,0
203,-27,0,0,0,0,0,0,0,0,0,-1,1427,1051,0,0
210,-27,0,0,0,0,0,0,0,0,0,-1,1434,1051,0,0
217,-27,0,0,0,0,0,0,0,0,0,-1,1441,1051,0,0
224,-27,0,0,0,0,0,0,0,0,0,-1,1448,1051,0,0
231,-27,0,0,0,0,0,0,0,0,0,-1,1455,1051,0,0
238,-27,0,0,0,0,0,0,0,0,0,-1,1462,1051,0,0
245,-27,0,0,0,0,0,0,0,0,0,-1,1469,1051,0,0
252,-27,0,0,0,0,0,0,0,0,0,-1,1476,1051,0,0
259,-27,0,0,0,0,0,0,0,0,0,-1,1483,1051,0,0
266,-27,0,0,0,0,0,0,0,0,0,-1,1490,1051,0,0
273,-27,0,0,0,0,0,0,0,0,0,-1,1497,1051,0,0
280,-27,0,0,0,0,0,0,0,0,0,-1,1504,1051,0,0
287,-27,0,0,0,0,0,0,0,0,0,-1,1511,1051,0,0
294,-27,0,0,0,0,0,0,0,0,0,-1,1518,1051,0,0
301,-27,0,0,0,0,0,0,0,0,0,-1,1525,1051,0,0
308,-27,0,0,0,0,0,0,0,0,0,-1,1532,1051,0,0
315,-27,0,0,0,0,0,0,0,0,0,-1,1539,1051,0,0
322,-27,0,0,0,0,0,0,0,0,0,-1,1546,1051,0,0
329,-27,0,0,0,0,0,0,0,0,0,-1,1553,1051,0,0
336,-27,0,0,0,0,0,0,0,0,0,-1,1560,1051,0,0
343,-27,0,0,0,0,0,0,0,0,0,-1,1567,1051,0,0
350,-27,0,0,0,0,0,0,0,0,0,-1,1574,1051,0,0
357,-27,0,0,0,0,0,0,0,0,0,-1,1581,1051,0,0
364,-27,0,0,0,0,0,0,0,0,0,-1,1588,1051,0,0
371,-27,0,0,0,0,0,0,0,0,0,-1,1595,1051,0,0
378,-27,0,0,0,0,0,0,0,0,0,-1,1602,1051,0,0
385,-27,0,0,0,0,0,0,0,0,0,-1,1609,1051,0,0
392,-27,0,0,0,0,0,0,0,0,0,-1,1616,1051,0,0
399,-27,0,0,0,0,0,0,0,0,0,-1,1623,1051,0,0
406,-27,0,0,0,0,0,0,0,0,0,-1,1630,1051,0,0
413,-27,0,0,0,0,0,0,0,0,0,-1,1637,1051,0,0
420,-27,0,0,0,0,0,0,0,0,0,-1,1644,1051,0,0
427,-27,0,0,0,0,0,0,0,0,0,-1,1651,1051,0,0
434,-27,0,0,0,0,0,0,0,0,0,-1,1658,1051,0,0
441,-27,0,0,0,0,0,0,0,0,0,-1,1665,1051,0,0
448,-27,0,0,0,0,0,0,0,0,0,-1,1672,1051,0,0
455,-27,0,0,0,0,0,0,0,0,0,-1,1679,1051,0,0
462,-27,0,0,0,0,0,0,0,0,0,-1,1686,1051,0,0
469,-27,0,0,0,0,0,0,0,0,0,-1,1693,1051,0,0
476,-27,0,0,0,0,0,0,0,0,0,-1,1700,1051,0,0
483,-27,0,0,0,0,0,0,0,0,0,-1,1707,1051,0,0
490,-27,0,0,0,0,0,0,0,0,0,-1,1714,1051,0,0
497,-27,0,0,0,0,0,0,0,0,0,-1,1721,1051,0,0
504,-27,0,0,0,0,0,0,0,0,0,-1,1728,1051,0,0
511,-27,0,0,0,0,0,0,0,0,0,-1,1735,1051,0,0
518,-27,0,0,0,0,0,0,0,0,0,-1,1742,1051,0,0
525,-27,0,0,0,0,0,0,0,0,0,-1,1749,1051,0,0
532,-27,0,0,0,0,0,0,0,0,0,-1,1756,1051,0,0
539,-27,0,0,0,0,0,0,0,0,0,-1,1763,1051,0,0
546,-27,0,0,0,0,0,0,0,0,0,-1,1770,1051,0,0
553,-27,0,0,0,0,0,0,0,0,0,-1,1777,1051,0,0
560,-27,0,0,0,0,0,0,0,0,0,-1,1784,1051,0,0
567,-27,0,0,0,0,0,0,0,0,0,-1,1791,1051,0,0
574,-27,0,0,0,0,0,0,0,0,0,-1,1798,1051,0,0
581,-27,0,0,0,0,0,0,0,0,0,-1,1805,1051,0,0
588,-27,0,0,0,0,0,0,0,0,0,-1,1812,1051,0,0
595,-27,0,0,0,0,0,0,0,0,0,-1,1819,1051,0,0
602,-27,0,0,0,0,0,0,0,0,0,-1,1826,1051,0,0
609,-27,0,0,0,0,0,0,0,0,0,-1,1833,1051,0,0
616,-27,0,0,0,0,0,0,0,0,0,-1,1840,1051,0,0
623,-27,0,0,0,0,0,0,0,0,0,-1,1847,1051,0,0
630,-27,0,0,0,0,0,0,0,0,0,-1,1854,1051,0,0
637,-27,0,0,0,0,0,0,0,0,0,-1,1861,1051,0,0
644,-27,0,0,0,0,0,0,0,0,0,-1,1868,1051,0,0
651,-27,30.6274,2.79163,0.00118971,7.33118e-05,-0.00070366,0.00152969,-0.000266667,-0.450084,0.00111932,0.0424157,1875,1051,30.6275,-2.79164
658,-27,30.5654,2.73108,0.000377757,0.000133058,-8.12067e-05,0.000402254,0.000108561,-0.292982,0.000240301,0.0419984,1882,1051,30.5654,-2.73107
665,-27,30.5199,2.73242,-0.000333243,0.000196943,0.000293141,0.000327079,-0.000463379,1.153,0.000458627,0.039966,1889,1051,30.5198,-2.73244
672,-27,30.4532,2.80286,-0.000755732,0.000287981,0.000854706,0.000767552,-0.0012353,1.05948,0.00116681,0.0304398,1896,1051,30.4533,-2.80291
679,-27,30.3534,2.80505,-0.00102328,0.000253641,0.00159135,0.00132983,-0.00209947,0.976172,0.00199646,0.0314263,1903,1051,30.3533,-2.80499
686,-27,30.4916,2.72595,-0.00123727,4.43735e-05,0.00223407,0.00172771,-0.00292061,0.925068,0.00271301,0.0464578,1910,1051,30.4916,-2.72598
693,-27,30.7083,2.62378,-0.00130798,-0.000218001,0.00275763,0.00204798,-0.00357396,0.882956,0.00328544,0.046838,1917,1051,30.7083,-2.62375
700,-27,30.4901,2.72656,-0.00129755,-0.000412175,0.00311918,0.00229558,-0.0040053,0.855889,0.00368219,0.0390793,1924,1051,30.4901,-2.72658
707,-27,30.3645,2.75464,-0.0013337,-0.000540185,0.00338319,0.00246943,-0.00434331,0.843768,0.00398263,0.0253754,1931,1051,30.3645,-2.75467
714,-27,30.3641,2.84998,-0.00136423,-0.000530429,0.00348505,0.00256257,-0.00445723,0.844928,0.0041018,0.0237826,1938,1051,30.3642,-2.84996
721,-27,30.4067,3.16821,-0.00151608,-0.000365618,0.00336741,0.00247534,-0.00435703,0.869993,0.00399423,0.0313736,1945,1051,30.4068,-3.16823
728,-27,30.2098,4.82129,0,0,0,0,0,0,0,-1,1952,1051,30.2098,-4.82123
735,-27,29.9785,4.85364,-0.00175503,0.000293272,0.00290973,0.00235383,-0.00381559,0.954615,0.00359509,0.0211166,1959,1051,29.9786,-4.85369
742,-27,29.9247,4.8418,-0.00156723,0.000990471,0.00256212,0.00257517,-0.00315193,1.01688,0.00331213,0.0177001,1966,1051,29.9247,-4.8418
749,-27,30.0028,4.7981,-0.00130753,0.00177687,0.00187304,0.00266091,-0.00219157,1.12981,0.00280595,0.0129307,1973,1051,30.0028,-4.79814
756,-27,29.9791,4.75818,-0.000580102,0.00273629,0.00127208,0.00316802,-0.00101184,1.2436,0.002518,0.0117457,1980,1051,29.9791,-4.75823
763,-27,29.9552,4.70215,0.000755275,0.00411046,0.000537972,0.0041946,0.000671127,1.41564,0.00260171,0.0130801,1987,1051,29.9552,-4.70215
770,-27,29.9232,4.65857,0.00258738,0.00579632,-0.000353903,0.00583489,0.00254881,-1.46225,0.00337773,0.0141432,1994,1051,29.9232,-4.65857
777,-27,29.889,4.65076,0.00543776,0.00762306,-0.000949218,0.00797778,0.00508304,-1.21316,0.00466338,0.0154823,2001,1051,29.889,-4.65072
784,-27,29.8872,4.63037,0.00920291,0.0091115,-0.00117254,0.0103306,0.00798377,-0.765919,0.00625336,0.0232739,2008,1051,29.8872,-4.63042
791,-27,30.0077,4.68945,0.0140224,0.0102698,-0.00113601,0.0143395,0.00995274,-0.27221,0.00848427,0.0405436,2015,1051,30.0077,-4.68947
798,-27,30.1997,4.83398,0,0,0,0,0,0,0,-1,2022,1051,30.1998,-4.83396
805,-27,29.573,3.22156,0.028767,0.0109656,0.00037071,0.0287747,0.0109579,0.0208128,0.0167696,0.0457975,2029,1051,29.5731,-3.2215
812,-27,29.7898,4.39587,0,0,0,0,0,0,0,-1,2036,1051,29.7898,-4.39593
-700,-34,-26.0887,0.386108,0,0,0,0,0,0,0,-1,524,1058,-26.0887,-0.386108
-693,-34,-25.0384,0.24585,0,0,0,0,0,0,0,-1,531,1058,-25.0384,-0.245833
-686,-34,-23.132,-0.276855,0,0,0,0,0,0,0,-1,538,1058,-23.1319,0.276856
-679,-34,-22.297,-0.378052,0.0448847,0.060926,0.0087046,0.0647418,0.0410689,1.15766,0.0378258,0.046853,545,1058,-22.297,0.378098
-672,-34,-21.7709,0.8573,0.0376841,0.0510245,0.00818679,0.0549143,0.0337942,1.12723,0.031985,0.0441937,552,1058,-21.7709,-0.857268
-665,-34,-21.4671,0.838989,0.0305185,0.041844,0.0074497,0.0455389,0.0268237,1.11037,0.0264304,0.0419358,559,1058,-21.4671,-0.839036
-658,-34,-20.8197,0.91748,0.0238389,0.0335266,0.00656758,0.0368434,0.0205221,1.10314,0.0213176,0.0433771,566,1058,-20.8197,-0.917492
-651,-34,-20.8824,1.70728,0.0179419,0.0261354,0.00557824,0.0289596,0.0151176,1.10212,0.0167253,0.0304485,573,1058,-20.8825,-1.70732
-644,-34,-21.038,1.83423,0.0126158,0.019476,0.00432813,0.0215684,0.0105234,1.12048,0.0124538,0.0136834,580,1058,-21.038,-1.83428
-637,-34,-21.0693,1.91235,0.00817587,0.0143922,0.00257435,0.0153199,0.00724821,1.22493,0.0088492,0.0148378,587,1058,-21.0693,-1.91235
-630,-34,-21.0785,2.06726,0.0048328,0.00775409,1.61467e-05,0.00775418,0.00483271,1.56527,0.00452198,0.0161756,594,1058,-21.0785,-2.06729
-623,-34,-21.0699,2.18909,0.00233611,0.00469044,-0.00196929,0.00580758,0.00121897,-1.05478,0.00353614,0.0122095,601,1058,-21.07,-2.18912
-616,-34,-21.0539,2.29761,0.000264056,0.00298186,-0.00378571,0.00564518,-0.00239926,-0.957714,0.00476882,0.0184233,608,1058,-21.0539,-2.29756
-609,-34,-21.0443,2.36804,-0.000606399,0.00111176,-0.00471929,0.00504953,-0.00454416,-0.87543,0.00554148,0.0192682,615,1058,-21.0443,-2.36803
-602,-34,-21.0627,2.42505,-0.00087377,-0.000111645,-0.00615157,0.00567066,-0.00665607,-0.816331,0.00712442,0.0150246,622,1058,-21.0627,-2.42509
-595,-34,-21.1327,2.72595,0,0,0,0,0,0,0,-1,629,1058,-21.1327,-2.7259
-588,-34,-21.1743,1.73132,-0.000818646,-0.000723438,-0.0076744,0.00690351,-0.00844559,-0.7885,0.00887671,0.0237938,636,1058,-21.1742,-1.73132
-581,-34,-21.1429,0.987183,-0.000944865,-0.000804911,-0.00738747,0.00651291,-0.00826269,-0.790134,0.00855061,0.021987,643,1058,-21.143,-0.987157
-574,-34,-21.1306,0.903198,-0.000992239,-0.000621697,-0.00688006,0.00607559,-0.00768952,-0.798859,0.00796548,0.0355556,650,1058,-21.1306,-0.903216
-567,-34,-21.0762,0.929688,-0.00111177,-0.000233993,-0.00580481,0.0051485,-0.00649426,-0.82313,0.0067369,0.0427411,657,1058,-21.0762,-0.929639
-560,-34,-21.0662,1.15857,-0.00129965,0.000291056,-0.00409696,0.00366915,-0.00467774,-0.881272,0.00483079,0.0422591,664,1058,-21.0662,-1.15859
-553,-34,-21.0212,1.15063,-0.00159973,0.000830826,-0.00172956,0.00172938,-0.00249829,-1.09165,0.00245426,0.0451086,671,1058,-21.0212,-1.15069
-546,-34,-21.0886,1.05579,-0.00212583,0.0011683,0.00130502,0.00162264,-0.00258018,1.23577,0.0024474,0.0460824,678,1058,-21.0886,-1.05576
-539,-34,-21.129,0.739746,-0.00315217,0.00121886,0.00406388,0.00364763,-0.00558093,1.03211,0.00536694,0.0418508,685,1058,-21.129,-0.739696
-532,-34,-21.2469,1.12012,-0.00518652,0.000631953,0.00475457,0.00329672,-0.0078513,1.05995,0.00661294,0.0410763,692,1058,-21.2469,-1.12011
-525,-34,0,0,0,0,0,0,0,0,0,-1,699,1058,0,0
-518,-34,0,0,0,0,0,0,0,0,0,-1,706,1058,0,0
-511,-34,0,0,0,0,0,0,0,0,0,-1,713,1058,0,0
-504,-34,0,0,0,0,0,0,0,0,0,-1,720,1058,0,0
-497,-34,0,0,0,0,0,0,0,0,0,-1,727,1058,0,0
-490,-34,0,0,0,0,0,0,0,0,0,-1,734,1058,0,0
-483,-34,0,0,0,0,0,0,0,0,0,-1,741,1058,0,0
-476,-34,0,0,0,0,0,0,0,0,0,-1,748,1058,0,0
-469,-34,0,0,0,0,0,0,0,0,0,-1,755,1058,0,0
-462,-34,0,0,0,0,0,0,0,0,0,-1,762,1058,0,0
-455,-34,0,0,0,0,0,0,0,0,0,-1,769,1058,0,0
-448,-34,0,0,0,0,0,0,0,0,0,-1,776,1058,0,0
-441,-34,0,0,0,0,0,0,0,0,0,-1,783,1058,0,0
-434,-34,0,0,0,0,0,0,0,0,0,-1,790,1058,0,0
-427,-34,0,0,0,0,0,0,0,0,0,-1,797,1058,0,0
-420,-34,0,0,0,0,0,0,0,0,0,-1,804,1058,0,0
-413,-34,0,0,0,0,0,0,0,0,0,-1,811,1058,0,0
-406,-34,0,0,0,0,0,0,0,0,0,-1,818,1058,0,0
-399,-34,0,0,0,0,0,0,0,0,0,-1,825,1058,0,0
-392,-34,0,0,0,0,0,0,0,0,0,-1,832,1058,0,0
-385,-34,0,0,0,0,0,0,0,0,0,-1,839,1058,0,0
-378,-34,0,0,0,0,0,0,0,0,0,-1,846,1058,0,0
-371,-34,0,0,0,0,0,0,0,0,0,-1,853,1058,0,0
-364,-34,0,0,0,0,0,0,0,0,0,-1,860,1058,0,0
-357,-34,0,0,0,0,0,0,0,0,0,-1,867,1058,0,0
-350,-34,0,0,0,0,0,0,0,0,0,-1,874,1058,0,0
-343,-34,0,0,0,0,0,0,0,0,0,-1,881,1058,0,0
-336,-34,0,0,0,0,0,0,0,0,0,-1,888,1058,0,0
-329,-34,0,0,0,0,0,0,0,0,0,-1,895,1058,0,0
-322,-34,0,0,0,0,0,0,0,0,0,-1,902,1058,0,0
-315,-34,0,0,0,0,0,0,0,0,0,-1,909,1058,0,0
-308,-34,0,0,0,0,0,0,0,0,0,-1,916,1058,0,0
-301,-34,0,0,0,0,0,0,0,0,0,-1,923,1058,0,0
-294,-34,0,0,0,0,0,0,0,0,0,-1,930,1058,0,0
-287,-34,0,0,0,0,0,0,0,0,0,-1,937,1058,0,0
-280,-34,0,0,0,0,0,0,0,0,0,-1,944,1058,0,0
-273,-34,0,0,0,0,0,0,0,0,0,-1,951,1058,0,0
-266,-34,0,0,0,0,0,0,0,0,0,-1,958,1058,0,0
-259,-34,0,0,0,0,0,0,0,0,0,-1,965,1058,0,0
-252,-34,0,0,0,0,0,0,0,0,0,-1,972,1058,0,0
-245,-34,0,0,0,0,0,0,0,0,0,-1,979,1058,0,0
-238,-34,0,0,0,0,0,0,0,0,0,-1,986,1058,0,0
-231,-34,0,0,0,0,0,0,0,0,0,-1,993,1058,0,0
-224,-34,0,0,0,0,0,0,0,0,0,-1,1000,1058,0,0
-217,-34,0,0,0,0,0,0,0,0,0,-1,1007,1058,0,0
-210,-34,0,0,0,0,0,0,0,0,0,-1,1014,1058,0,0
-203,-34,0,0,0,0,0,0,0,0,0,-1,1021,1058,0,0
-196,-34,0,0,0,0,0,0,0,0,0,-1,1028,1058,0,0
-189,-34,0,0,0,0,0,0,0,0,0,-1,1035,1058,0,0
-182,-34,0,0,0,0,0,0,0,0,0,-1,1042,1058,0,0
-175,-34,0,0,0,0,0,0,0,0,0,-1,1049,1058,0,0
-168,-34,0,0,0,0,0,0,0,0,0,-1,1056,1058,0,0
-161,-34,0,0,0,0,0,0,0,0,0,-1,1063,1058,0,0
-154,-34,0,0,0,0,0,0,0,0,0,-1,1070,1058,0,0
-147,-34,0,0,0,0,0,0,0,0,0,-1,1077,1058,0,0
-140,-34,0,0,0,0,0,0,0,0,0,-1,1084,1058,0,0
-133,-34,0,0,0,0,0,0,0,0,0,-1,1091,1058,0,0
-126,-34,0,0,0,0,0,0,0,0,0,-1,1098,1058,0,0
-119,-34,0,0,0,0,0,0,0,0,0,-1,1105,1058,0,0
-112,-34,0,0,0,0,0,0,0,0,0,-1,1112,1058,0,0
-105,-34,0,0,0,0,0,0,0,0,0,-1,1119,1058,0,0
-98,-34,0,0,0,0,0,0,0,0,0,-1,1126,1058,0,0
-91,-34,0,0,0,0,0,0,0,0,0,-1,1133,1058,0,0
-84,-34,0,0,0,0,0,0,0,0,0,-1,1140,1058,0,0
-77,-34,0,0,0,0,0,0,0,0,0,-1,1147,1058,0,0
-70,-34,0,0,0,0,0,0,0,0,0,-1,1154,1058,0,0
-63,-34,0,0,0,0,0,0,0,0,0,-1,1161,1058,0,0
-56,-34,0,0,0,0,0,0,0,0,0,-1,1168,1058,0,0
-49,-34,0,0,0,0,0,0,0,0,0,-1,1175,1058,0,0
-42,-34,0,0,0,0,0,0,0,0,0,-1,1182,1058,0,0
-35,-34,0,0,0,0,0,0,0,0,0,-1,1189,1058,0,0
-28,-34,0,0,0,0,0,0,0,0,0,-1,1196,1058,0,0
-21,-34,0,0,0,0,0,0,0,0,0,-1,1203,1058,0,0
-14,-34,0,0,0,0,0,0,0,0,0,-1,1210,1058,0,0
-7,-34,0,0,0,0,0,0,0,0,0,-1,1217,1058,0,0
0,-34,0,0,0,0,0,0,0,0,0,-1,1224,1058,0,0
7,-34,0,0,0,0,0,0,0,0,0,-1,1231,1058,0,0
14,-34,0,0,0,0,0,0,0,0,0,-1,1238,1058,0,0
21,-34,0,0,0,0,0,0,0,0,0,-1,1245,1058,0,0
28,-34,0,0,0,0,0,0,0,0,0,-1,1252,1058,0,0
35,-34,0,0,0,0,0,0,0,0,0,-1,1259,1058,0,0
42,-34,0,0,0,0,0,0,0,0,0,-1,1266,1058,0,0
49,-34,0,0,0,0,0,0,0,0,0,-1,1273,1058,0,0
56,-34,0,0,0,0,0,0,0,0,0,-1,1280,1058,0,0
63,-34,0,0,0,0,0,0,0,0,0,-1,1287,1058,0,0
70,-34,0,0,0,0,0,0,0,0,0,-1,1294,1058,0,0
77,-34,0,0,0,0,0,0,0,0,0,-1,1301,1058,0,0
84,-34,0,0,0,0,0,0,0,0,0,-1,1308,1058,0,0
91,-34,0,0,0,0,0,0,0,0,0,-1,1315,1058,0,0
98,-34,0,0,0,0,0,0,0,0,0,-1,1322,1058,0,0
105,-34,0,0,0,0,0,0,0,0,0,-1,1329,1058,0,0
112,-34,0,0,0,0,0,0,0,0,0,-1,1336,1058,0,0
119,-34,0,0,0,0,0,0,0,0,0,-1,1343,1058,0,0
126,-34,0,0,0,0,0,0,0,0,0,-1,1350,1058,0,0
133,-34,0,0,0,0,0,0,0,0,0,-1,1357,1058,0,0
140,-34,0,0,0,0,0,0,0,0,0,-1,1364,1058,0,0
147,-34,0,0,0,0,0,0,0,0,0,-1,1371,1058,0,0
154,-34,0,0,0,0,0,0,0,0,0,-1,1378,1058,0,0
161,-34,0,0,0,0,0,0,0,0,0,-1,1385,1058,0,0
168,-34,0,0,0,0,0,0,0,0,0,-1,1392,1058,0,0
175,-34,0,0,0,0,0,0,0,0,0,-1,1399,1058,0,0
182,-34,0,0,0,0,0,0,0,0,0,-1,1406,1058,0,0
189,-34,0,0,0,0,0,0,0,0,0,-1,1413,1058,0,0
196,-34,0,0,0,0,0,0,0,0,0,-1,1420,1058,0,0
203,-34,0,0,0,0,0,0,0,0,0,-1,1427,1058,0,0
210,-34,0,0,0,0,0,0,0,0,0,-1,1434,1058,0,0
217,-34,0,0,0,0,0,0,0,0,0,-1,1441,1058,0,0
224,-34,0,0,0,0,0,0,0,0,0,-1,1448,1058,0,0
231,-34,0,0,0,0,0,0,0,0,0,-1,1455,1058,0,0
238,-34,0,0,0,0,0,0,0,0,0,-1,1462,1058,0,0
245,-34,0,0,0,0,0,0,0,0,0,-1,1469,1058,0,0
252,-34,0,0,0,0,0,0,0,0,0,-1,1476,1058,0,0
259,-34,0,0,0,0,0,0,0,0,0,-1,1483,1058,0,0
266,-34,0,0,0,0,0,0,0,0,0,-1,1490,1058,0,0
273,-34,0,0,0,0,0,0,0,0,0,-1,1497,1058,0,0
280,-34,0,0,0,0,0,0,0,0,0,-1,1504,1058,0,0
287,-34,0,0,0,0,0,0,0,0,0,-1,1511,1058,0,0
294,-34,0,0,0,0,0,0,0,0,0,-1,1518,1058,0,0
301,-34,0,0,0,0,0,0,0,0,0,-1,1525,1058,0,0
308,-34,0,0,0,0,0,0,0,0,0,-1,1532,1058,0,0
315,-34,0,0,0,0,0,0,0,0,0,-1,1539,1058,0,0
322,-34,0,0,0,0,0,0,0,0,0,-1,1546,1058,0,0
329,-34,0,0,0,0,0,0,0,0,0,-1,1553,1058,0,0
336,-34,0,0,0,0,0,0,0,0,0,-1,1560,1058,0,0
343,-34,0,0,0,0,0,0,0,0,0,-1,1567,1058,0,0
350,-34,0,0,0,0,0,0,0,0,0,-1,1574,1058,0,0
357,-34,0,0,0,0,0,0,0,0,0,-1,1581,1058,0,0
364,-34,0,0,0,0,0,0,0,0,0,-1,1588,1058,0,0
371,-34,0,0,0,0,0,0,0,0,0,-1,1595,1058,0,0
378,-34,0,0,0,0,0,0,0,0,0,-1,1602,1058,0,0
385,-34,0,0,0,0,0,0,0,0,0,-1,1609,1058,0,0
392,-34,0,0,0,0,0,0,0,0,0,-1,1616,1058,0,0
399,-34,0,0,0,0,0,0,0,0,0,-1,1623,1058,0,0
406,-34,0,0,0,0,0,0,0,0,0,-1,1630,1058,0,0
413,-34,0,0,0,0,0,0,0,0,0,-1,1637,1058,0,0
420,-34,0,0,0,0,0,0,0,0,0,-1,1644,1058,0,0
427,-34,0,0,0,0,0,0,0,0,0,-1,1651,1058,0,0
434,-34,0,0,0,0,0,0,0,0,0,-1,1658,1058,0,0
441,-34,0,0,0,0,0,0,0,0,0,-1,1665,1058,0,0
448,-34,0,0,0,0,0,0,0,0,0,-1,1672,1058,0,0
455,-34,0,0,0,0,0,0,0,0,0,-1,1679,1058,0,0
462,-34,0,0,0,0,0,0,0,0,0,-1,1686,1058,0,0
469,-34,0,0,0,0,0,0,0,0,0,-1,1693,1058,0,0
476,-34,0,0,0,0,0,0,0,0,0,-1,1700,1058,0,0
483,-34,0,0,0,0,0,0,0,0,0,-1,1707,1058,0,0
490,-34,0,0,0,0,0,0,0,0,0,-1,1714,1058,0,0
497,-34,0,0,0,0,0,0,0,0,0,-1,1721,1058,0,0
504,-34,0,0,0,0,0,0,0,0,0,-1,1728,1058,0,0
511,-34,0,0,0,0,0,0,0,0,0,-1,1735,1058,0,0
518,-34,0,0,0,0,0,0,0,0,0,-1,1742,1058,0,0
525,-34,0,0,0,0,0,0,0,0,0,-1,1749,1058,0,0
532,-34,0,0,0,0,0,0,0,0,0,-1,1756,1058,0,0
539,-34,0,0,0,0,0,0,0,0,0,-1,1763,1058,0,0
546,-34,0,0,0,0,0,0,0,0,0,-1,1770,1058,0,0
553,-34,0,0,0,0,0,0,0,0,0,-1,1777,1058,0,0
560,-34,0,0,0,0,0,0,0,0,0,-1,1784,1058,0,0
567,-34,0,0,0,0,0,0,0,0,0,-1,1791,1058,0,0
574,-34,0,0,0,0,0,0,0,0,0,-1,1798,1058,0,0
581,-34,0,0,0,0,0,0,0,0,0,-1,1805,1058,0,0
588,-34,0,0,0,0,0,0,0,0,0,-1,1812,1058,0,0
595,-34,0,0,0,0,0,0,0,0,0,-1,1819,1058,0,0
602,-34,0,0,0,0,0,0,0,0,0,-1,1826,1058,0,0
609,-34,0,0,0,0,0,0,0,0,0,-1,1833,1058,0,0
616,-34,0,0,0,0,0,0,0,0,0,-1,1840,1058,0,0
623,-34,0,0,0,0,0,0,0,0,0,-1,1847,1058,0,0
630,-34,0,0,0,0,0,0,0,0,0,-1,1854,1058,0,0
637,-34,0,0,0,0,0,0,0,0,0,-1,1861,1058,0,0
644,-34,0,0,0,0,0,0,0,0,0,-1,1868,1058,0,0
651,-34,30.4711,2.74744,0.00047508,0.000770909,-0.000594549,0.00123567,1.03228e-05,-0.907315,0.000820359,0.0417093,1875,1058,30.4711,-2.74738
658,-34,30.5232,2.75879,-6.70845e-05,0.000638692,2.87515e-05,0.000639861,-6.82538e-05,1.53015,0.00045105,0.0416844,1882,1058,30.5232,-2.75885
665,-34,30.551,2.76379,-0.000565546,0.000535567,0.000401373,0.000666342,-0.000696321,1.25582,0.000786798,0.0419144,1889,1058,30.551,-2.76381
672,-34,30.4979,2.79907,-0.000820519,0.000438807,0.00097772,0.000972077,-0.00135379,1.07148,0.00134885,0.0384586,1896,1058,30.4979,-2.79907
679,-34,30.5432,2.77893,-0.00096892,0.00020037,0.00174792,0.00145883,-0.00222738,0.94679,0.00214359,0.0390206,1903,1058,30.5432,-2.7789
686,-34,30.6796,2.11426,0,0,0,0,0,0,0,-1,1910,1058,30.6796,-2.11423
693,-34,30.6124,2.54333,-0.00118876,-0.000514214,0.00300387,0.00217126,-0.00387424,0.841304,0.00353623,0.0441298,1917,1058,30.6125,-2.54337
700,-34,30.4929,2.84534,-0.0011747,-0.000761735,0.00341827,0.00245628,-0.00439271,0.815564,0.0040066,0.0392041,1924,1058,30.4929,-2.84538
707,-34,30.3577,2.83203,-0.00123398,-0.000932655,0.00370655,0.0026263,-0.00479293,0.805711,0.00434395,0.0255951,1931,1058,30.3576,-2.83205
714,-34,30.3483,2.8783,-0.00126419,-0.000939311,0.00381701,0.00271871,-0.00492222,0.806664,0.00447222,0.0220377,1938,1058,30.3483,-2.87833
721,-34,30.4182,3.28528,-0.00138355,-0.000774428,0.00371412,0.0026476,-0.00480557,0.826307,0.0043628,0.038255,1945,1058,30.4183,-3.28534
728,-34,29.9988,4.91699,0,0,0,0,0,0,0,-1,1952,1058,29.9987,-4.917
735,-34,29.8934,4.90161,-0.00165087,-9.72214e-05,0.00319957,0.00241848,-0.00416657,0.904489,0.00384627,0.0157217,1959,1058,29.8935,-4.90167
742,-34,29.8669,4.85645,-0.00145369,0.000720387,0.00273678,0.00257811,-0.00331142,0.974442,0.0034091,0.0155069,1966,1058,29.8669,-4.85646
749,-34,29.9055,4.80774,-0.0011667,0.00183388,0.00194807,0.00279242,-0.00212524,1.11353,0.00284791,0.0128888,1973,1058,29.9055,-4.80771
756,-34,29.9175,4.75,-0.000319296,0.00295697,0.00128168,0.00339878,-0.000761113,1.23884,0.00255759,0.00974278,1980,1058,29.9175,-4.75005
763,-34,29.9038,4.69043,0.00130261,0.00449295,0.000463937,0.00455905,0.00123652,1.42928,0.00272246,0.0108472,1987,1058,29.9039,-4.69039
770,-34,29.8539,4.63232,0.00339347,0.00645272,-0.000530278,0.00654203,0.00330416,-1.40394,0.00377711,0.0152181,1994,1058,29.8538,-4.63236
777,-34,29.7955,4.57959,0.00667041,0.00863466,-0.00117142,0.00918119,0.00612388,-1.13426,0.00539842,0.016568,2001,1058,29.7956,-4.57958
784,-34,29.7646,4.52478,0.0110288,0.0104866,-0.00133025,0.0121153,0.00940009,-0.684876,0.00734111,0.0313495,2008,1058,29.7646,-4.52476
791,-34,29.7493,4.45007,0.0166292,0.0119987,-0.00108948,0.0168727,0.0117551,-0.21991,0.00998958,0.0435104,2015,1058,29.7492,-4.4501
798,-34,29.8223,4.43311,0,0,0,0,0,0,0,-1,2022,1058,29.8222,-4.43308
805,-34,29.7075,3.50989,0,0,0,0,0,0,0,-1,2029,1058,29.7075,-3.50991
812,-34,29.4373,4.56055,0,0,0,0,0,0,0,-1,2036,1058,29.4373,-4.56049
-700,-41,-25.2326,0.583618,0,0,0,0,0,0,0,-1,524,1065,-25.2326,-0.583593
-693,-41,-24.608,0.441406,0.0676125,0.0801884,0.0126603,0.0880363,0.0597646,1.01589,0.0519005,0.0479574,531,1065,-24.608,-0.441412
-686,-41,-23.294,0.393433,0.0606424,0.0699949,0.0125692,0.0787296,0.0519078,0.963485,0.0462173,0.0438693,538,1065,-23.294,-0.393492
-679,-41,-22.7419,1.47449,0.0521394,0.0596315,0.0118232,0.068288,0.0434829,0.938814,0.0399146,0.0434562,545,1065,-22.7419,-1.47446
-672,-41,-21.9518,0.974731,0.0433509,0.0497152,0.0107598,0.0577535,0.0353126,0.929171,0.0336189,0.0409194,552,1065,-21.9519,-0.974775
-665,-41,-21.1045,0.578857,0.0349129,0.0405455,0.00953061,0.0476672,0.0277912,0.929061,0.0276469,0.0394904,559,1065,-21.1045,-0.578867
-658,-41,-20.5941,0.990356,0.027196,0.0322736,0.00821255,0.0383308,0.0211388,0.935305,0.0221694,0.0416096,566,1065,-20.5941,-0.990376
-651,-41,-20.6927,1.6366,0.0204479,0.0249712,0.0068517,0.0299249,0.0154942,0.944811,0.0172808,0.0300218,573,1065,-20.6928,-1.63655
-644,-41,-20.9421,1.81628,0.0143677,0.0184481,0.00526742,0.0220566,0.0107592,0.970167,0.0127357,0.0145956,580,1065,-20.9421,-1.81625
-637,-41,-20.9863,1.90796,0.00918159,0.0133933,0.00321904,0.0151341,0.00744078,1.07506,0.00873809,0.0153224,587,1065,-20.9863,-1.90792
-630,-41,-20.9798,2.0332,0.00517966,0.00697465,0.000394783,0.00705764,0.00509667,1.3636,0.00420665,0.0128303,594,1065,-20.9798,-2.03325
-623,-41,-20.9651,2.14685,0.00236188,0.00381085,-0.00183335,0.00505768,0.00111506,-0.973566,0.00306839,0.0110603,601,1065,-20.9651,-2.14681
-616,-41,-20.9538,2.2771,9.12906e-05,0.00213283,-0.00376078,0.0050089,-0.00278479,-0.917918,0.00456036,0.0149733,608,1065,-20.9538,-2.27711
-609,-41,-20.9377,2.38123,-0.00102792,0.000414853,-0.00482689,0.00457396,-0.00518703,-0.859575,0.00563922,0.0209187,615,1065,-20.9377,-2.38125
-602,-41,-20.9559,2.4729,-0.00145705,-0.000668683,-0.00634232,0.00529169,-0.00741742,-0.816434,0.00737174,0.0136245,622,1065,-20.9559,-2.47296
-595,-41,-21.0863,2.56763,0,0,0,0,0,0,0,-1,629,1065,-21.0863,-2.56764
-588,-41,-21.149,1.75671,-0.00149425,-0.0011327,-0.00789727,0.00658586,-0.00921281,-0.796842,0.0091633,0.0277049,636,1065,-21.149,-1.7567
-581,-41,-21.1344,1.0957,-0.00161611,-0.0011241,-0.00758846,0.00622234,-0.00896255,-0.801601,0.00881446,0.034083,643,1065,-21.1344,-1.09569
-574,-41,-20.9971,0.973267,-0.00162709,-0.000829066,-0.00708681,0.00586996,-0.00832611,-0.81352,0.0082369,0.0392633,650,1065,-20.9971,-0.973276
-567,-41,-21.0455,0.809692,-0.00164124,-0.000275034,-0.00598955,0.00507024,-0.00698651,-0.842177,0.00699022,0.042167,657,1065,-21.0455,-0.809686
-560,-41,-21.1031,0.843872,-0.00165373,0.00048664,-0.00421692,0.00376706,-0.00493415,-0.909667,0.00503868,0.0411161,664,1065,-21.1031,-0.843857
-553,-41,-21.1324,0.979248,-0.00168993,0.00134784,-0.00171301,0.00211837,-0.00246045,-1.1481,0.00264604,0.0428763,671,1065,-21.1324,-0.979221
-546,-41,-21.1779,0.872681,-0.0018592,0.00210209,0.00157756,0.00265356,-0.00241068,1.2345,0.00292496,0.0425579,678,1065,-21.1779,-0.872697
-539,-41,-21.1376,0.598511,-0.00255093,0.00254152,0.00472746,0.00536486,-0.00537426,1.03242,0.00620023,0.0416298,685,1065,-21.1376,-0.598525
-532,-41,-21.2879,1.11768,-0.00445335,0.00213002,0.00581842,0.00552334,-0.00784666,1.04282,0.00775793,0.0396784,692,1065,-21.2879,-1.11765
-525,-41,0,0,0,0,0,0,0,0,0,-1,699,1065,0,0
-518,-41,0,0,0,0,0,0,0,0,0,-1,706,1065,0,0
-511,-41,0,0,0,0,0,0,0,0,0,-1,713,1065,0,0
-504,-41,0,0,0,0,0,0,0,0,0,-1,720,1065,0,0
-497,-41,0,0,0,0,0,0,0,0,0,-1,727,1065,0,0
-490,-41,0,0,0,0,0,0,0,0,0,-1,734,1065,0,0
-483,-41,0,0,0,0,0,0,0,0,0,-1,741,1065,0,0
-476,-41,0,0,0,0,0,0,0,0,0,-1,748,1065,0,0
-469,-41,0,0,0,0,0,0,0,0,0,-1,755,1065,0,0
-462,-41,0,0,0,0,0,0,0,0,0,-1,762,1065,0,0
-455,-41,0,0,0,0,0,0,0,0,0,-1,769,1065,0,0
-448,-41,0,0,0,0,0,0,0,0,0,-1,776,1065,0,0
-441,-41,0,0,0,0,0,0,0,0,0,-1,783,1065,0,0
-434,-41,0,0,0,0,0,0,0,0,0,-1,790,1065,0,0
-427,-41,0,0,0,0,0,0,0,0,0,-1,797,1065,0,0
-420,-41,0,0,0,0,0,0,0,0,0,-1,804,1065,0,0
-413,-41,0,0,0,0,0,0,0,0,0,-1,811,1065,0,0
-406,-41,0,0,0,0,0,0,0,0,0,-1,818,1065,0,0
-399,-41,0,0,0,0,0,0,0,0,0,-1,825,1065,0,0
-392,-41,0,0,0,0,0,0,0,0,0,-1,832,1065,0,0
-385,-41,0,0,0,0,0,0,0,0,0,-1,839,1065,0,0
-378,-41,0,0,0,0,0,0,0,0,0,-1,846,1065,0,0
-371,-41,0,0,0,0,0,0,0,0,0,-1,853,1065,0,0
-364,-41,0,0,0,0,0,0,0,0,0,-1,860,1065,0,0
-357,-41,0,0,0,0,0,0,0,0,0,-1,867,1065,0,0
-350,-41,0,0,0,0,0,0,0,0,0,-1,874,1065,0,0
-343,-41,0,0,0,0,0,0,0,0,0,-1,881,1065,0,0
-336,-41,0,0,0,0,0,0,0,0,0,-1,888,1065,0,0
-329,-41,0,0,0,0,0,0,0,0,0,-1,895,1065,0,0
-322,-41,0,0,0,0,0,0,0,0,0,-1,902,1065,0,0
-315,-41,0,0,0,0,0,0,0,0,0,-1,909,1065,0,0
-308,-41,0,0,0,0,0,0,0,0,0,-1,916,1065,0,0
-301,-41,0,0,0,0,0,0,0,0,0,-1,923,1065,0,0
-294,-41,0,0,0,0,0,0,0,0,0,-1,930,1065,0,0
-287,-41,0,0,0,0,0,0,0,0,0,-1,937,1065,0,0
-280,-41,0,0,0,0,0,0,0,0,0,-1,944,1065,0,0
-273,-41,0,0,0,0,0,0,0,0,0,-1,951,1065,0,0
-266,-41,0,0,0,0,0,0,0,0,0,-1,958,1065,0,0
-259,-41,0,0,0,0,0,0,0,0,0,-1,965,1065,0,0
-252,-41,0,0,0,0,0,0,0,0,0,-1,972,1065,0,0
-245,-41,0,0,0,0,0,0,0,0,0,-1,979,1065,0,0
-238,-41,0,0,0,0,0,0,0,0,0,-1,986,1065,0,0
-231,-41,0,0,0,0,0,0,0,0,0,-1,993,1065,0,0
-224,-41,0,0,0,0,0,0,0,0,0,-1,1000,1065,0,0
-217,-41,0,0,0,0,0,0,0,0,0,-1,1007,1065,0,0
-210,-41,0,0,0,0,0,0,0,0,0,-1,1014,1065,0,0
-203,-41,0,0,0,0,0,0,0,0,0,-1,1021,1065,0,0
-196,-41,0,0,0,0,0,0,0,0,0,-1,1028,1065,0,0
-189,-41,0,0,0,0,0,0,0,0,0,-1,1035,1065,0,0
-182,-41,0,0,0,0,0,0,0,0,0,-1,1042,1065,0,0
-175,-41,0,0,0,0,0,0,0,0,0,-1,1049,1065,0,0
-168,-41,0,0,0,0,0,0,0,0,0,-1,1056,1065,0,0
-161,-41,0,0,0,0,0,0,0,0,0,-1,1063,1065,0,0
-154,-41,0,0,0,0,0,0,0,0,0,-1,1070,1065,0,0
-147,-41,0,0,0,0,0,0,0,0,0,-1,1077,1065,0,0
-140,-41,0,0,0,0,0,0,0,0,0,-1,1084,1065,0,0
-133,-41,0,0,0,0,0,0,0,0,0,-1,1091,1065,0,0
-126,-41,0,0,0,0,0,0,0,0,0,-1,1098,1065,0,0
-119,-41,0,0,0,0,0,0,0,0,0,-1,1105,1065,0,0
-112,-41,0,0,0,0,0,0,0,0,0,-1,1112,1065,0,0
-105,-41,0,0,0,0,0,0,0,0,0,-1,1119,1065,0,0
-98,-41,0,0,0,0,0,0,0,0,0,-1,1126,1065,0,0
-91,-41,0,0,0,0,0,0,0,0,0,-1,1133,1065,0,0
-84,-41,0,0,0,0,0,0,0,0,0,-1,1140,1065,0,0
-77,-41,0,0,0,0,0,0,0,0,0,-1,1147,1065,0,0
-70,-41,0,0,0,0,0,0,0,0,0,-1,1154,1065,0,0
-63,-41,0,0,0,0,0,0,0,0,0,-1,1161,1065,0,0
-56,-41,0,0,0,0,0,0,0,0,0,-1,1168,1065,0,0
-49,-41,0,0,0,0,0,0,0,0,0,-1,1175,1065,0,0
-42,-41,0,0,0,0,0,0,0,0,0,-1,1182,1065,0,0
-35,-41,0,0,0,0,0,0,0,0,0,-1,1189,1065,0,0
-28,-41,0,0,0,0,0,0,0,0,0,-1,1196,1065,0,0
-21,-41,0,0,0,0,0,0,0,0,0,-1,1203,1065,0,0
-14,-41,0,0,0,0,0,0,0,0,0,-1,1210,1065,0,0
-7,-41,0,0,0,0,0,0,0,0,0,-1,1217,1065,0,0
0,-41,0,0,0,0,0,0,0,0,0,-1,1224,1065,0,0
7,-41,0,0,0,0,0,0,0,0,0,-1,1231,1065,0,0
14,-41,0,0,0,0,0,0,0,0,0,-1,1238,1065,0,0
21,-41,0,0,0,0,0,0,0,0,0,-1,1245,1065,0,0
28,-41,0,0,0,0,0,0,0,0,0,-1,1252,1065,0,0
35,-41,0,0,0,0,0,0,0,0,0,-1,1259,1065,0,0
42,-41,0,0,0,0,0,0,0,0,0,-1,1266,1065,0,0
49,-41,0,0,0,0,0,0,0,0,0,-1,1273,1065,0,0
56,-41,0,0,0,0,0,0,0,0,0,-1,1280,1065,0,0
63,-41,0,0,0,0,0,0,0,0,0,-1,1287,1065,0,0
70,-41,0,0,0,0,0,0,0,0,0,-1,1294,1065,0,0
77,-41,0,0,0,0,0,0,0,0,0,-1,1301,1065,0,0
84,-41,0,0,0,0,0,0,0,0,0,-1,1308,1065,0,0
91,-41,0,0,0,0,0,0,0,0,0,-1,1315,1065,0,0
98,-41,0,0,0,0,0,0,0,0,0,-1,1322,1065,0,0
105,-41,0,0,0,0,0,0,0,0,0,-1,1329,1065,0,0
112,-41,0,0,0,0,0,0,0,0,0,-1,1336,1065,0,0
119,-41,0,0,0,0,0,0,0,0,0,-1,1343,1065,0,0
126,-41,0,0,0,0,0,0,0,0,0,-1,1350,1065,0,0
133,-41,0,0,0,0,0,0,0,0,0,-1,1357,1065,0,0
140,-41,0,0,0,0,0,0,0,0,0,-1,1364,1065,0,0
147,-41,0,0,0,0,0,0,0,0,0,-1,1371,1065,0,0
154,-41,0,0,0,0,0,0,0,0,0,-1,1378,1065,0,0
161,-41,0,0,0,0,0,0,0,0,0,-1,1385,1065,0,0
168,-41,0,0,0,0,0,0,0,0,0,-1,1392,1065,0,0
175,-41,0,0,0,0,0,0,0,0,0,-1,1399,1065,0,0
182,-41,0,0,0,0,0,0,0,0,0,-1,1406,1065,0,0
189,-41,0,0,0,0,0,0,0,0,0,-1,1413,1065,0,0
196,-41,0,0,0,0,0,0,0,0,0,-1,1420,1065,0,0
203,-41,0,0,0,0,0,0,0,0,0,-1,1427,1065,0,0
210,-41,0,0,0,0,0,0,0,0,0,-1,1434,1065,0,0
217,-41,0,0,0,0,0,0,0,0,0,-1,1441,1065,0,0
224,-41,0,0,0,0,0,0,0,0,0,-1,1448,1065,0,0
231,-41,0,0,0,0,0,0,0,0,0,-1,1455,1065,0,0
238,-41,0,0,0,0,0,0,0,0,0,-1,1462,1065,0,0
245,-41,0,0,0,0,0,0,0,0,0,-1,1469,1065,0,0
252,-41,0,0,0,0,0,0,0,0,0,-1,1476,1065,0,0
259,-41,0,0,0,0,0,0,0,0,0,-1,1483,1065,0,0
266,-41,0,0,0,0,0,0,0,0,0,-1,1490,1065,0,0
273,-41,0,0,0,0,0,0,0,0,0,-1,1497,1065,0,0
280,-41,0,0,0,0,0,0,0,0,0,-1,1504,1065,0,0
287,-41,0,0,0,0,0,0,0,0,0,-1,1511,1065,0,0
294,-41,0,0,0,0,0,0,0,0,0,-1,1518,1065,0,0
301,-41,0,0,0,0,0,0,0,0,0,-1,1525,1065,0,0
308,-41,0,0,0,0,0,0,0,0,0,-1,1532,1065,0,0
315,-41,0,0,0,0,0,0,0,0,0,-1,1539,1065,0,0
322,-41,0,0,0,0,0,0,0,0,0,-1,1546,1065,0,0
329,-41,0,0,0,0,0,0,0,0,0,-1,1553,1065,0,0
336,-41,0,0,0,0,0,0,0,0,0,-1,1560,1065,0,0
343,-41,0,0,0,0,0,0,0,0,0,-1,1567,1065,0,0
350,-41,0,0,0,0,0,0,0,0,0,-1,1574,1065,0,0
357,-41,0,0,0,0,0,0,0,0,0,-1,1581,1065,0,0
364,-41,0,0,0,0,0,0,0,0,0,-1,1588,1065,0,0
371,-41,0,0,0,0,0,0,0,0,0,-1,1595,1065,0,0
378,-41,0,0,0,0,0,0,0,0,0,-1,1602,1065,0,0
385,-41,0,0,0,0,0,0,0,0,0,-1,1609,1065,0,0
392,-41,0,0,0,0,0,0,0,0,0,-1,1616,1065,0,0
399,-41,0,0,0,0,0,0,0,0,0,-1,1623,1065,0,0
406,-41,0,0,0,0,0,0,0,0,0,-1,1630,1065,0,0
413,-41,0,0,0,0,0,0,0,0,0,-1,1637,1065,0,0
420,-41,0,0,0,0,0,0,0,0,0,-1,1644,1065,0,0
427,-41,0,0,0,0,0,0,0,0,0,-1,1651,1065,0,0
434,-41,0,0,0,0,0,0,0,0,0,-1,1658,1065,0,0
441,-41,0,0,0,0,0,0,0,0,0,-1,1665,1065,0,0
448,-41,0,0,0,0,0,0,0,0,0,-1,1672,1065,0,0
455,-41,0,0,0,0,0,0,0,0,0,-1,1679,1065,0,0
462,-41,0,0,0,0,0,0,0,0,0,-1,1686,1065,0,0
469,-41,0,0,0,0,0,0,0,0,0,-1,1693,1065,0,0
476,-41,0,0,0,0,0,0,0,0,0,-1,1700,1065,0,0
483,-41,0,0,0,0,0,0,0,0,0,-1,1707,1065,0,0
490,-41,0,0,0,0,0,0,0,0,0,-1,1714,1065,0,0
497,-41,0,0,0,0,0,0,0,0,0,-1,1721,1065,0,0
504,-41,0,0,0,0,0,0,0,0,0,-1,1728,1065,0,0
511,-41,0,0,0,0,0,0,0,0,0,-1,1735,1065,0,0
518,-41,0,0,0,0,0,0,0,0,0,-1,1742,1065,0,0
525,-41,0,0,0,0,0,0,0,0,0,-1,1749,1065,0,0
532,-41,0,0,0,0,0,0,0,0,0,-1,1756,1065,0,0
539,-41,0,0,0,0,0,0,0,0,0,-1,1763,1065,0,0
546,-41,0,0,0,0,0,0,0,0,0,-1,1770,1065,0,0
553,-41,0,0,0,0,0,0,0,0,0,-1,1777,1065,0,0
560,-41,0,0,0,0,0,0,0,0,0,-1,1784,1065,0,0
567,-41,0,0,0,0,0,0,0,0,0,-1,1791,1065,0,0
574,-41,0,0,0,0,0,0,0,0,0,-1,1798,1065,0,0
581,-41,0,0,0,0,0,0,0,0,0,-1,1805,1065,0,0
588,-41,0,0,0,0,0,0,0,0,0,-1,1812,1065,0,0
595,-41,0,0,0,0,0,0,0,0,0,-1,1819,1065,0,0
602,-41,0,0,0,0,0,0,0,0,0,-1,1826,1065,0,0
609,-41,0,0,0,0,0,0,0,0,0,-1,1833,1065,0,0
616,-41,0,0,0,0,0,0,0,0,0,-1,1840,1065,0,0
623,-41,0,0,0,0,0,0,0,0,0,-1,1847,1065,0,0
630,-41,0,0,0,0,0,0,0,0,0,-1,1854,1065,0,0
637,-41,0,0,0,0,0,0,0,0,0,-1,1861,1065,0,0
644,-41,0,0,0,0,0,0,0,0,0,-1,1868,1065,0,0
651,-41,30.3794,2.80127,-0.000177606,0.00155454,-0.000185312,0.00157414,-0.00019721,-1.4654,0.00112096,0.0377184,1875,1065,30.3794,-2.8013
658,-41,30.3293,2.74792,-0.00037176,0.0012157,0.000357512,0.0012925,-0.00044856,1.35919,0.00104382,0.0389547,1882,1065,30.3293,-2.74795
665,-41,30.3325,2.7854,-0.000635175,0.000941456,0.00067616,0.00119171,-0.000885432,1.21631,0.00120358,0.0399705,1889,1065,30.3325,-2.78535
672,-41,30.345,2.85791,-0.000745573,0.000635732,0.00125589,0.00137835,-0.00148819,1.03679,0.0016554,0.0413151,1896,1065,30.3449,-2.85795
679,-41,30.5109,2.90234,-0.000827769,0.000184894,0.002038,0.00177852,-0.00242139,0.907156,0.00243427,0.0419138,1903,1065,30.5109,-2.9024
686,-41,30.5286,2.6167,-0.000996306,-0.0003352,0.00273922,0.00209334,-0.00342485,0.845445,0.0032167,0.0422867,1910,1065,30.5286,-2.61669
693,-41,30.4774,2.45789,-0.00107443,-0.000809742,0.00331635,0.0023769,-0.00426107,0.805341,0.00388356,0.0419258,1917,1065,30.4774,-2.45787
700,-41,30.4454,2.82959,-0.00108289,-0.00114007,0.00374808,0.00263671,-0.00485967,0.781584,0.00439101,0.0381118,1924,1065,30.4455,-2.82964
707,-41,30.3992,2.87329,-0.00119574,-0.00134913,0.00403218,0.00276048,-0.00530534,0.775889,0.00473343,0.0277454,1931,1065,30.3991,-2.87335
714,-41,30.3597,2.83679,-0.00125081,-0.00137368,0.00412621,0.00281442,-0.00543892,0.777954,0.00484471,0.018827,1938,1065,30.3597,-2.83679
721,-41,30.4037,3.54761,-0.00134647,-0.00121793,0.00402597,0.00274428,-0.00530868,0.793379,0.0047273,0.0447635,1945,1065,30.4037,-3.5476
728,-41,29.9255,4.94226,0,0,0,0,0,0,0,-1,1952,1065,29.9256,-4.94224
735,-41,29.8489,4.90295,-0.0016718,-0.000524949,0.00342979,0.00237902,-0.00457577,0.868227,0.00408157,0.0160647,1959,1065,29.8489,-4.9029
742,-41,29.8086,4.85132,-0.00145263,0.000414794,0.00285858,0.00248829,-0.00352612,0.943253,0.00348961,0.0137454,1966,1065,29.8086,-4.85128
749,-41,29.8273,4.80298,-0.0010319,0.00178599,0.00195916,0.00279022,-0.00203613,1.09713,0.00279781,0.0127264,1973,1065,29.8272,-4.80297
756,-41,29.8477,4.74487,5.24153e-05,0.00302167,0.0012151,0.00345553,-0.000381443,1.22785,0.00244079,0.0126153,1980,1065,29.8477,-4.74481
763,-41,29.819,4.65479,0.00210806,0.00459698,0.000316292,0.00463655,0.00206849,1.44635,0.00268209,0.0109038,1987,1065,29.819,-4.65484
770,-41,29.7645,4.58667,0.0046701,0.00666663,-0.000790202,0.00694153,0.0043952,-1.23601,0.0040548,0.0120123,1994,1065,29.7645,-4.58668
777,-41,29.6997,4.50696,0.00863801,0.00895096,-0.00149572,0.0102984,0.0072906,-0.837516,0.00611475,0.0140925,2001,1065,29.6996,-4.50696
784,-41,29.6768,4.39636,0.0138797,0.0108844,-0.00166209,0.0146193,0.0101448,-0.418699,0.00864951,0.0243564,2008,1065,29.6768,-4.39635
791,-41,29.714,4.26514,0.0205495,0.0124453,-0.00133389,0.0207634,0.0122314,-0.159006,0.012051,0.0437664,2015,1065,29.714,-4.26514
798,-41,29.76,4.14063,0,0,0,0,0,0,0,-1,2022,1065,29.7599,-4.14068
805,-41,29.7043,3.74829,0.040975,0.0133684,0.00190656,0.041106,0.0132374,0.0686278,0.0242285,0.0455334,2029,1065,29.7045,-3.74828
812,-41,29.791,4.42346,0.0556659,0.0117619,0.00575075,0.0564067,0.0110212,0.128106,0.0345222,0.0484556,2036,1065,29.791,-4.42343
-700,-48,-25.0353,0.499146,0,0,0,0,0,0,0,-1,524,1072,-25.0353,-0.499153
-693,-48,-24.245,0.603882,0.0762062,0.0783086,0.0190755,0.0963618,0.058153,0.812923,0.0560303,0.0480555,531,1072,-24.245,-0.603927
-686,-48,-23.4214,0.69043,0.066672,0.0678172,0.0175836,0.0848375,0.0496516,0.801675,0.0492177,0.0478173,538,1072,-23.4214,-0.690411
-679,-48,-22.5569,0.670898,0.0564032,0.0573253,0.0156798,0.0725508,0.0411777,0.800097,0.0420145,0.0451322,545,1072,-22.5569,-0.670871
-672,-48,-21.569,0.681152,0.0463463,0.047401,0.0136642,0.060548,0.0331993,0.804684,0.0350117,0.0443972,552,1072,-21.5689,-0.681166
-665,-48,-20.9243,0.774414,0.0369747,0.0383172,0.0116575,0.0493228,0.0259691,0.814156,0.0284899,0.0446799,559,1072,-20.9243,-0.774444
-658,-48,-20.6658,0.899414,0.0285713,0.0302131,0.00971854,0.0391453,0.019639,0.82753,0.0226006,0.0473238,566,1072,-20.6658,-0.899469
-651,-48,-20.6269,1.38464,0.0213306,0.0231485,0.00787415,0.030166,0.0143131,0.842863,0.0174239,0.0339921,573,1072,-20.6269,-1.38462
-644,-48,-20.7825,1.78918,0.0149274,0.0169642,0.00590803,0.021941,0.00995063,0.870751,0.0126859,0.0169493,580,1072,-20.7825,-1.78924
-637,-48,-20.8079,1.85986,0.00937819,0.0121125,0.00355629,0.0145554,0.00693532,0.968906,0.00840665,0.0167666,587,1072,-20.8079,-1.8599
-630,-48,-20.8008,1.9989,0.00494441,0.00611705,0.000465522,0.00627938,0.00478208,1.23527,0.00378714,0.0176687,594,1072,-20.8008,-1.99887
-623,-48,-20.8356,2.12097,0.00205808,0.00296255,-0.00193927,0.00450161,0.000519014,-0.89995,0.0028439,0.0103794,601,1072,-20.8356,-2.12093
-616,-48,-20.8423,2.24438,-0.000240896,0.00141738,-0.00391467,0.00458976,-0.00341327,-0.889757,0.00463716,0.00968646,608,1072,-20.8423,-2.24443
-609,-48,-20.8048,2.38879,-0.00147798,-7.76632e-05,-0.00504114,0.00431171,-0.00586736,-0.854401,0.00589972,0.0115621,615,1072,-20.8048,-2.38878
-602,-48,-20.8212,2.49072,-0.00196797,-0.0010274,-0.00659527,0.00511434,-0.0081097,-0.820991,0.00769991,0.0125429,622,1072,-20.8212,-2.49076
-595,-48,-20.9606,2.60986,0,0,0,0,0,0,0,-1,629,1072,-20.9606,-2.60988
-588,-48,-21.0262,1.83081,0,0,0,0,0,0,0,-1,636,1072,-21.0262,-1.83085
-581,-48,-21.0919,1.05188,0,0,0,0,0,0,0,-1,643,1072,-21.0919,-1.05182
-574,-48,-21.0162,0.907593,-0.00212684,-0.00114086,-0.00723258,0.00561552,-0.00888321,-0.819426,0.00844142,0.041659,650,1072,-21.0163,-0.907599
-567,-48,-21.0955,0.845825,-0.00204185,-0.000549649,-0.00608887,0.00483866,-0.00743016,-0.846362,0.00713589,0.0403529,657,1072,-21.0955,-0.845789
-560,-48,-21.1181,0.8396,-0.00190704,0.000288435,-0.00424631,0.00357661,-0.00519521,-0.911887,0.00509307,0.0386006,664,1072,-21.1181,-0.839632
-553,-48,-21.153,1.01794,-0.00174503,0.00128608,-0.00162898,0.0019955,-0.00245445,-1.16007,0.00257373,0.0407629,671,1072,-21.153,-1.0179
-546,-48,-21.1568,0.600464,-0.00166958,0.00227569,0.00184503,0.00300406,-0.00239795,1.1948,0.00312539,0.0414947,678,1072,-21.1568,-0.600405
-539,-48,-21.1247,0.554443,-0.00215658,0.00303927,0.00530437,0.00634774,-0.00546505,1.01311,0.00682646,0.039589,685,1072,-21.1247,-0.554385
-532,-48,-21.3308,1.01807,-0.00413416,0.00288077,0.00675182,0.00698181,-0.0082352,1.02495,0.00879547,0.0370824,692,1072,-21.3308,-1.01802
-525,-48,0,0,0,0,0,0,0,0,0,-1,699,1072,0,0
-518,-48,0,0,0,0,0,0,0,0,0,-1,706,1072,0,0
-511,-48,0,0,0,0,0,0,0,0,0,-1,713,1072,0,0
-504,-48,0,0,0,0,0,0,0,0,0,-1,720,1072,0,0
-497,-48,0,0,0,0,0,0,0,0,0,-1,727,1072,0,0
-490,-48,0,0,0,0,0,0,0,0,0,-1,734,1072,0,0
-483,-48,0,0,0,0,0,0,0,0,0,-1,741,1072,0,0
-476,-48,0,0,0,0,0,0,0,0,0,-1,748,1072,0,0
-469,-48,0,0,0,0,0,0,0,0,0,-1,755,1072,0,0
-462,-48,0,0,0,0,0,0,0,0,0,-1,762,1072,0,0
-455,-48,0,0,0,0,0,0,0,0,0,-1,769,1072,0,0
-448,-48,0,0,0,0,0,0,0,0,0,-1,776,1072,0,0
-441,-48,0,0,0,0,0,0,0,0,0,-1,783,1072,0,0
-434,-48,0,0,0,0,0,0,0,0,0,-1,790,1072,0,0
-427,-48,0,0,0,0,0,0,0,0,0,-1,797,1072,0,0
-420,-48,0,0,0,0,0,0,0,0,0,-1,804,1072,0,0
-413,-48,0,0,0,0,0,0,0,0,0,-1,811,1072,0,0
-406,-48,0,0,0,0,0,0,0,0,0,-1,818,1072,0,0
-399,-48,0,0,0,0,0,0,0,0,0,-1,825,1072,0,0
-392,-48,0,0,0,0,0,0,0,0,0,-1,832,1072,0,0
-385,-48,0,0,0,0,0,0,0,0,0,-1,839,1072,0,0
-378,-48,0,0,0,0,0,0,0,0,0,-1,846,1072,0,0
-371,-48,0,0,0,0,0,0,0,0,0,-1,853,1072,0,0
-364,-48,0,0,0,0,0,0,0,0,0,-1,860,1072,0,0
-357,-48,0,0,0,0,0,0,0,0,0,-1,867,1072,0,0
-350,-48,0,0,0,0,0,0,0,0,0,-1,874,1072,0,0
-343,-48,0,0,0,0,0,0,0,0,0,-1,881,1072,0,0
-336,-48,0,0,0,0,0,0,0,0,0,-1,888,1072,0,0
-329,-48,0,0,0,0,0,0,0,0,0,-1,895,1072,0,0
-322,-48,0,0,0,0,0,0,0,0,0,-1,902,1072,0,0
-315,-48,0,0,0,0,0,0,0,0,0,-1,909,1072,0,0
-308,-48,0,0,0,0,0,0,0,0,0,-1,916,1072,0,0
-301,-48,0,0,0,0,0,0,0,0,0,-1,923,1072,0,0
-294,-48,0,0,0,0,0,0,0,0,0,-1,930,1072,0,0
-287,-48,0,0,0,0,0,0,0,0,0,-1,937,1072,0,0
-280,-48,0,0,0,0,0,0,0,0,0,-1,944,1072,0,0
-273,-48,0,0,0,0,0,0,0,0,0,-1,951,1072,0,0
-266,-48,0,0,0,0,0,0,0,0,0,-1,958,1072,0,0
-259,-48,0,0,0,0,0,0,0,0,0,-1,965,1072,0,0
-252,-48,0,0,0,0,0,0,0,0,0,-1,972,1072,0,0
-245,-48,0,0,0,0,0,0,0,0,0,-1,979,1072,0,0
-238,-48,0,0,0,0,0,0,0,0,0,-1,986,1072,0,0
-231,-48,0,0,0,0,0,0,0,0,0,-1,993,1072,0,0
-224,-48,0,0,0,0,0,0,0,0,0,-1,1000,1072,0,0
-217,-48,0,0,0,0,0,0,0,0,0,-1,1007,1072,0,0
-210,-48,0,0,0,0,0,0,0,0,0,-1,1014,1072,0,0
-203,-48,0,0,0,0,0,0,0,0,0,-1,1021,1072,0,0
-196,-48,0,0,0,0,0,0,0,0,0,-1,1028,1072,0,0
-189,-48,0,0,0,0,0,0,0,0,0,-1,1035,1072,0,0
-182,-48,0,0,0,0,0,0,0,0,0,-1,1042,1072,0,0
-175,-48,0,0,0,0,0,0,0,0,0,-1,1049,1072,0,0
-168,-48,0,0,0,0,0,0,0,0,0,-1,1056,1072,0,0
-161,-48,0,0,0,0,0,0,0,0,0,-1,1063,1072,0,0
-154,-48,0,0,0,0,0,0,0,0,0,-1,1070,1072,0,0
-147,-48,0,0,0,0,0,0,0,0,0,-1,1077,1072,0,0
-140,-48,0,0,0,0,0,0,0,0,0,-1,1084,1072,0,0
-133,-48,0,0,0,0,0,0,0,0,0,-1,1091,1072,0,0
-126,-48,0,0,0,0,0,0,0,0,0,-1,1098,1072,0,0
-119,-48,0,0,0,0,0,0,0,0,0,-1,1105,1072,0,0
-112,-48,0,0,0,0,0,0,0,0,0,-1,1112,1072,0,0
-105,-48,0,0,0,0,0,0,0,0,0,-1,1119,1072,0,0
-98,-48,0,0,0,0,0,0,0,0,0,-1,1126,1072,0,0
-91,-48,0,0,0,0,0,0,0,0,0,-1,1133,1072,0,0
-84,-48,0,0,0,0,0,0,0,0,0,-1,1140,1072,0,0
-77,-48,0,0,0,0,0,0,0,0,0,-1,1147,1072,0,0
-70,-48,0,0,0,0,0,0,0,0,0,-1,1154,1072,0,0
-63,-48,0,0,0,0,0,0,0,0,0,-1,1161,1072,0,0
-56,-48,0,0,0,0,0,0,0,0,0,-1,1168,1072,0,0
-49,-48,0,0,0,0,0,0,0,0,0,-1,1175,1072,0,0
-42,-48,0,0,0,0,0,0,0,0,0,-1,1182,1072,0,0
-35,-48,0,0,0,0,0,0,0,0,0,-1,1189,1072,0,0
-28,-48,0,0,0,0,0,0,0,0,0,-1,1196,1072,0,0
-21,-48,0,0,0,0,0,0,0,0,0,-1,1203,1072,0,0
-14,-48,0,0,0,0,0,0,0,0,0,-1,1210,1072,0,0
-7,-48,0,0,0,0,0,0,0,0,0,-1,1217,1072,0,0
0,-48,0,0,0,0,0,0,0,0,0,-1,1224,1072,0,0
7,-48,0,0,0,0,0,0,0,0,0,-1,1231,1072,0,0
14,-48,0,0,0,0,0,0,0,0,0,-1,1238,1072,0,0
21,-48,0,0,0,0,0,0,0,0,0,-1,1245,1072,0,0
28,-48,0,0,0,0,0,0,0,0,0,-1,1252,1072,0,0
35,-48,0,0,0,0,0,0,0,0,0,-1,1259,1072,0,0
42,-48,0,0,0,0,0,0,0,0,0,-1,1266,1072,0,0
49,-48,0,0,0,0,0,0,0,0,0,-1,1273,1072,0,0
56,-48,0,0,0,0,0,0,0,0,0,-1,1280,1072,0,0
63,-48,0,0,0,0,0,0,0,0,0,-1,1287,1072,0,0
70,-48,0,0,0,0,0,0,0,0,0,-1,1294,1072,0,0
77,-48,0,0,0,0,0,0,0,0,0,-1,1301,1072,0,0
84,-48,0,0,0,0,0,0,0,0,0,-1,1308,1072,0,0
91,-48,0,0,0,0,0,0,0,0,0,-1,1315,1072,0,0
98,-48,0,0,0,0,0,0,0,0,0,-1,1322,1072,0,0
105,-48,0,0,0,0,0,0,0,0,0,-1,1329,1072,0,0
112,-48,0,0,0,0,0,0,0,0,0,-1,1336,1072,0,0
119,-48,0,0,0,0,0,0,0,0,0,-1,1343,1072,0,0
126,-48,0,0,0,0,0,0,0,0,0,-1,1350,1072,0,0
133,-48,0,0,0,0,0,0,0,0,0,-1,1357,1072,0,0
140,-48,0,0,0,0,0,0,0,0,0,-1,1364,1072,0,0
147,-48,0,0,0,0,0,0,0,0,0,-1,1371,1072,0,0
154,-48,0,0,0,0,0,0,0,0,0,-1,1378,1072,0,0
161,-48,0,0,0,0,0,0,0,0,0,-1,1385,1072,0,0
168,-48,0,0,0,0,0,0,0,0,0,-1,1392,1072,0,0
175,-48,0,0,0,0,0,0,0,0,0,-1,1399,1072,0,0
182,-48,0,0,0,0,0,0,0,0,0,-1,1406,1072,0,0
189,-48,0,0,0,0,0,0,0,0,0,-1,1413,1072,0,0
196,-48,0,0,0,0,0,0,0,0,0,-1,1420,1072,0,0
203,-48,0,0,0,0,0,0,0,0,0,-1,1427,1072,0,0
210,-48,0,0,0,0,0,0,0,0,0,-1,1434,1072,0,0
217,-48,0,0,0,0,0,0,0,0,0,-1,1441,1072,0,0
224,-48,0,0,0,0,0,0,0,0,0,-1,1448,1072,0,0
231,-48,0,0,0,0,0,0,0,0,0,-1,1455,1072,0,0
238,-48,0,0,0,0,0,0,0,0,0,-1,1462,1072,0,0
245,-48,0,0,0,0,0,0,0,0,0,-1,1469,1072,0,0
252,-48,0,0,0,0,0,0,0,0,0,-1,1476,1072,0,0
259,-48,0,0,0,0,0,0,0,0,0,-1,1483,1072,0,0
266,-48,0,0,0,0,0,0,0,0,0,-1,1490,1072,0,0
273,-48,0,0,0,0,0,0,0,0,0,-1,1497,1072,0,0
280,-48,0,0,0,0,0,0,0,0,0,-1,1504,1072,0,0
287,-48,0,0,0,0,0,0,0,0,0,-1,1511,1072,0,0
294,-48,0,0,0,0,0,0,0,0,0,-1,1518,1072,0,0
301,-48,0,0,0,0,0,0,0,0,0,-1,1525,1072,0,0
308,-48,0,0,0,0,0,0,0,0,0,-1,1532,1072,0,0
315,-48,0,0,0,0,0,0,0,0,0,-1,1539,1072,0,0
322,-48,0,0,0,0,0,0,0,0,0,-1,1546,1072,0,0
329,-48,0,0,0,0,0,0,0,0,0,-1,1553,1072,0,0
336,-48,0,0,0,0,0,0,0,0,0,-1,1560,1072,0,0
343,-48,0,0,0,0,0,0,0,0,0,-1,1567,1072,0,0
350,-48,0,0,0,0,0,0,0,0,0,-1,1574,1072,0,0
357,-48,0,0,0,0,0,0,0,0,0,-1,1581,1072,0,0
364,-48,0,0,0,0,0,0,0,0,0,-1,1588,1072,0,0
371,-48,0,0,0,0,0,0,0,0,0,-1,1595,1072,0,0
378,-48,0,0,0,0,0,0,0,0,0,-1,1602,1072,0,0
385,-48,0,0,0,0,0,0,0,0,0,-1,1609,1072,0,0
392,-48,0,0,0,0,0,0,0,0,0,-1,1616,1072,0,0
399,-48,0,0,0,0,0,0,0,0,0,-1,1623,1072,0,0
406,-48,0,0,0,0,0,0,0,0,0,-1,1630,1072,0,0
413,-48,0,0,0,0,0,0,0,0,0,-1,1637,1072,0,0
420,-48,0,0,0,0,0,0,0,0,0,-1,1644,1072,0,0
427,-48,0,0,0,0,0,0,0,0,0,-1,1651,1072,0,0
434,-48,0,0,0,0,0,0,0,0,0,-1,1658,1072,0,0
441,-48,0,0,0,0,0,0,0,0,0,-1,1665,1072,0,0
448,-48,0,0,0,0,0,0,0,0,0,-1,1672,1072,0,0
455,-48,0,0,0,0,0,0,0,0,0,-1,1679,1072,0,0
462,-48,0,0,0,0,0,0,0,0,0,-1,1686,1072,0,0
469,-48,0,0,0,0,0,0,0,0,0,-1,1693,1072,0,0
476,-48,0,0,0,0,0,0,0,0,0,-1,1700,1072,0,0
483,-48,0,0,0,0,0,0,0,0,0,-1,1707,1072,0,0
490,-48,0,0,0,0,0,0,0,0,0,-1,1714,1072,0,0
497,-48,0,0,0,0,0,0,0,0,0,-1,1721,1072,0,0
504,-48,0,0,0,0,0,0,0,0,0,-1,1728,1072,0,0
511,-48,0,0,0,0,0,0,0,0,0,-1,1735,1072,0,0
518,-48,0,0,0,0,0,0,0,0,0,-1,1742,1072,0,0
525,-48,0,0,0,0,0,0,0,0,0,-1,1749,1072,0,0
532,-48,0,0,0,0,0,0,0,0,0,-1,1756,1072,0,0
539,-48,0,0,0,0,0,0,0,0,0,-1,1763,1072,0,0
546,-48,0,0,0,0,0,0,0,0,0,-1,1770,1072,0,0
553,-48,0,0,0,0,0,0,0,0,0,-1,1777,1072,0,0
560,-48,0,0,0,0,0,0,0,0,0,-1,1784,1072,0,0
567,-48,0,0,0,0,0,0,0,0,0,-1,1791,1072,0,0
574,-48,0,0,0,0,0,0,0,0,0,-1,1798,1072,0,0
581,-48,0,0,0,0,0,0,0,0,0,-1,1805,1072,0,0
588,-48,0,0,0,0,0,0,0,0,0,-1,1812,1072,0,0
595,-48,0,0,0,0,0,0,0,0,0,-1,1819,1072,0,0
602,-48,0,0,0,0,0,0,0,0,0,-1,1826,1072,0,0
609,-48,0,0,0,0,0,0,0,0,0,-1,1833,1072,0,0
616,-48,0,0,0,0,0,0,0,0,0,-1,1840,1072,0,0
623,-48,0,0,0,0,0,0,0,0,0,-1,1847,1072,0,0
630,-48,0,0,0,0,0,0,0,0,0,-1,1854,1072,0,0
637,-48,0,0,0,0,0,0,0,0,0,-1,1861,1072,0,0
644,-48,0,0,0,0,0,0,0,0,0,-1,1868,1072,0,0
651,-48,30.3511,2.77673,-0.000343646,0.00162453,0.000291367,0.00166676,-0.000385874,1.42687,0.00125965,0.0329392,1875,1072,30.3511,-2.77674
658,-48,30.3527,2.73975,-0.000333215,0.00140867,0.000745869,0.0016844,-0.000608947,1.2167,0.00137174,0.0373465,1882,1072,30.3526,-2.73976
665,-48,30.1182,2.83008,-0.00046681,0.00117436,0.00100411,0.00165054,-0.000942989,1.12798,0.00151584,0.0417731,1889,1072,30.1181,-2.83004
672,-48,30.0597,2.80286,-0.000502668,0.00081028,0.00155334,0.00184017,-0.00153255,0.985325,0.00194994,0.0405475,1896,1072,30.0597,-2.80292
679,-48,30.3397,2.92529,-0.000580666,0.000275266,0.00229353,0.00218041,-0.00248581,0.877636,0.00269597,0.0404108,1903,1072,30.3397,-2.92531
686,-48,30.395,2.72913,-0.000795402,-0.000322586,0.00295238,0.00240284,-0.00352082,0.82535,0.00344027,0.0416819,1910,1072,30.395,-2.72911
693,-48,30.2994,2.48865,-0.000931852,-0.000862657,0.00348421,0.00258713,-0.00438164,0.790363,0.00406764,0.0395527,1917,1072,30.2995,-2.4887
700,-48,30.3773,2.5929,-0.000996702,-0.00123976,0.00388245,0.00276612,-0.00500258,0.769752,0.00454679,0.0324411,1924,1072,30.3773,-2.59289
707,-48,30.4269,2.8186,-0.00118388,-0.00146114,0.00413899,0.0028188,-0.00546382,0.768658,0.00486257,0.026724,1931,1072,30.4269,-2.81861
714,-48,30.391,2.83386,-0.0012788,-0.00151318,0.00420733,0.00281297,-0.00560495,0.771475,0.00494839,0.0309458,1938,1072,30.391,-2.83383
721,-48,30.3569,2.96033,0,0,0,0,0,0,0,-1,1945,1072,30.357,-2.96028
728,-48,29.8083,5.03772,0,0,0,0,0,0,0,-1,1952,1072,29.8084,-5.03766
735,-48,29.7677,4.95752,-0.00176372,-0.000752301,0.0034495,0.00222836,-0.00474438,0.858181,0.00411215,0.0175878,1959,1072,29.7677,-4.95753
742,-48,29.7164,4.86304,-0.00153171,0.000250205,0.00278087,0.00227936,-0.00356087,0.940426,0.00339881,0.0138159,1966,1072,29.7164,-4.86308
749,-48,29.7429,4.78442,-0.000990502,0.00179792,0.00177678,0.00266219,-0.00185478,1.11806,0.00262173,0.0127779,1973,1072,29.7429,-4.78442
756,-48,29.7472,4.70825,0.000313757,0.00299985,0.000951582,0.00330279,1.08139e-05,1.26258,0.00219826,0.0120043,1980,1072,29.7472,-4.70821
763,-48,29.7135,4.62976,0.00277654,0.00444822,-2.33444e-05,0.00444855,0.00277621,-1.55684,0.00259459,0.0121645,1987,1072,29.7135,-4.62977
770,-48,29.6929,4.53967,0.00575852,0.0064259,-0.00126965,0.00740499,0.00477944,-0.913902,0.00433514,0.0131845,1994,1072,29.6928,-4.53973
777,-48,29.6143,4.44568,0.0103288,0.00853112,-0.00213685,0.0117482,0.00711177,-0.58631,0.00683281,0.0119816,2001,1072,29.6142,-4.44572
784,-48,29.5592,4.34302,0.0163205,0.0102254,-0.00246217,0.0171908,0.00935502,-0.339773,0.00993805,0.0231035,2008,1072,29.5592,-4.34303
791,-48,29.5845,4.19238,0.0238735,0.0114843,-0.00223696,0.0242651,0.0110927,-0.17327,0.0140266,0.0406228,2015,1072,29.5845,-4.19235
798,-48,29.6479,4.09497,0.0338144,0.0120035,-0.00120586,0.0338809,0.011937,-0.0550632,0.0198435,0.0490658,2022,1072,29.648,-4.09501
805,-48,29.7605,3.99854,0.0467179,0.0113805,0.00109155,0.0467516,0.0113468,0.03085,0.0281582,0.0488343,2029,1072,29.7605,-3.9985
812,-48,30.2466,4.35986,0.063032,0.00895309,0.0052918,0.063545,0.00844013,0.0966319,0.039849,0.0458054,2036,1072,30.2466,-4.35992
-700,-55,-24.309,0.368774,0,0,0,0,0,0,0,-1,524,1079,-24.309,-0.368776
-693,-55,-23.5397,0.500244,0.0848306,0.0783523,0.0263639,0.108154,0.0550293,0.724273,0.0624458,0.0499823,531,1079,-23.5397,-0.500211
-686,-55,-22.6608,0.572632,0.0728996,0.06709,0.0230237,0.0932011,0.0467885,0.722646,0.0538098,0.0471548,538,1079,-22.6608,-0.572602
-679,-55,-21.9643,0.710449,0,0,0,0,0,0,0,-1,545,1079,-21.9643,-0.710417
-672,-55,-20.6879,2.7207,0,0,0,0,0,0,0,-1,552,1079,-20.6879,-2.72071
-665,-55,-20.967,2.2644,0,0,0,0,0,0,0,-1,559,1079,-20.967,-2.26441
-658,-55,-20.8411,0.61731,0.0299106,0.0286114,0.0109293,0.0402096,0.0183125,0.755715,0.0232458,0.0476688,566,1079,-20.8411,-0.61736
-651,-55,-20.6742,1.17908,0.0221266,0.0216582,0.0085932,0.0304888,0.013296,0.771775,0.0176506,0.0354822,573,1079,-20.6742,-1.17906
-644,-55,-20.6765,1.69775,0.0153898,0.0157161,0.00629169,0.0218468,0.00925915,0.798361,0.0126619,0.0190937,580,1079,-20.6765,-1.69775
-637,-55,-20.6845,1.81641,0.0094537,0.0109619,0.00368634,0.0139705,0.00644514,0.886292,0.00807391,0.0160491,587,1079,-20.6845,-1.81646
-630,-55,-20.6537,1.97864,0.00460809,0.00536579,0.000433211,0.00556244,0.00441144,1.14468,0.00339039,0.0176094,594,1079,-20.6537,-1.9787
-623,-55,-20.7069,2.1427,0.00163992,0.00224654,-0.00202723,0.00399302,-0.00010657,-0.859656,0.00269824,0.0153835,601,1079,-20.7069,-2.14267
-616,-55,-20.7065,2.24841,-0.000663052,0.000788591,-0.00392238,0.00405174,-0.0039262,-0.876886,0.00460626,0.013254,608,1079,-20.7065,-2.24838
-609,-55,-20.692,2.41309,-0.00201469,-0.000522494,-0.00507697,0.00386291,-0.00640009,-0.858355,0.0059854,0.0130675,615,1079,-20.692,-2.41305
-602,-55,-20.6865,2.53308,-0.0025464,-0.0013867,-0.0065968,0.00465568,-0.00858878,-0.829235,0.00775827,0.0129884,622,1079,-20.6865,-2.53302
-595,-55,-20.5335,2.70325,0,0,0,0,0,0,0,-1,629,1079,-20.5335,-2.70329
-588,-55,-20.7541,1.83667,0,0,0,0,0,0,0,-1,636,1079,-20.7541,-1.83661
-581,-55,-20.9747,0.969971,0,0,0,0,0,0,0,-1,643,1079,-20.9747,-0.969935
-574,-55,-21.0269,0.593262,0,0,0,0,0,0,0,-1,650,1079,-21.0269,-0.593238
-567,-55,-21.1323,0.710205,-0.00241557,-0.00114329,-0.00597099,0.00422535,-0.00778421,-0.838467,0.00703447,0.0411773,657,1079,-21.1323,-0.710152
-560,-55,-21.2079,1.02576,-0.00207247,-0.000383457,-0.00416078,0.00301766,-0.00547359,-0.885522,0.00497031,0.040695,664,1079,-21.2079,-1.02573
-553,-55,-21.113,1.18079,-0.00162532,0.000539731,-0.00159499,0.00138486,-0.00247045,-1.08354,0.00225509,0.0410852,671,1079,-21.113,-1.18076
-546,-55,-21.0059,0.776001,-0.00116149,0.00147921,0.00181366,0.00240222,-0.00208451,1.10004,0.00259258,0.0398094,678,1079,-21.0059,-0.775972
-539,-55,-21.024,0.656982,-0.00122442,0.0022438,0.00529847,0.00608472,-0.00506534,0.943547,0.00644645,0.037088,685,1079,-21.0241,-0.656937
-532,-55,-21.2121,1.13159,-0.00297138,0.00198346,0.00683858,0.00677954,-0.00776746,0.959181,0.00840516,0.0369932,692,1079,-21.2121,-1.13156
-525,-55,0,0,0,0,0,0,0,0,0,-1,699,1079,0,0
-518,-55,0,0,0,0,0,0,0,0,0,-1,706,1079,0,0
-511,-55,0,0,0,0,0,0,0,0,0,-1,713,1079,0,0
-504,-55,0,0,0,0,0,0,0,0,0,-1,720,1079,0,0
-497,-55,0,0,0,0,0,0,0,0,0,-1,727,1079,0,0
-490,-55,0,0,0,0,0,0,0,0,0,-1,734,1079,0,0
-483,-55,0,0,0,0,0,0,0,0,0,-1,741,1079,0,0
-476,-55,0,0,0,0,0,0,0,0,0,-1,748,1079,0,0
-469,-55,0,0,0,0,0,0,0,0,0,-1,755,1079,0,0
-462,-55,0,0,0,0,0,0,0,0,0,-1,762,1079,0,0
-455,-55,0,0,0,0,0,0,0,0,0,-1,769,1079,0,0
-448,-55,0,0,0,0,0,0,0,0,0,-1,776,1079,0,0
-441,-55,0,0,0,0,0,0,0,0,0,-1,783,1079,0,0
-434,-55,0,0,0,0,0,0,0,0,0,-1,790,1079,0,0
-427,-55,0,0,0,0,0,0,0,0,0,-1,797,1079,0,0
-420,-55,0,0,0,0,0,0,0,0,0,-1,804,1079,0,0
-413,-55,0,0,0,0,0,0,0,0,0,-1,811,1079,0,0
-406,-55,0,0,0,0,0,0,0,0,0,-1,818,1079,0,0
-399,-55,0,0,0,0,0,0,0,0,0,-1,825,1079,0,0
-392,-55,0,0,0,0,0,0,0,0,0,-1,832,1079,0,0
-385,-55,0,0,0,0,0,0,0,0,0,-1,839,1079,0,0
-378,-55,0,0,0,0,0,0,0,0,0,-1,846,1079,0,0
-371,-55,0,0,0,0,0,0,0,0,0,-1,853,1079,0,0
-364,-55,0,0,0,0,0,0,0,0,0,-1,860,1079,0,0
-357,-55,0,0,0,0,0,0,0,0,0,-1,867,1079,0,0
-350,-55,0,0,0,0,0,0,0,0,0,-1,874,1079,0,0
-343,-55,0,0,0,0,0,0,0,0,0,-1,881,1079,0,0
-336,-55,0,0,0,0,0,0,0,0,0,-1,888,1079,0,0
-329,-55,0,0,0,0,0,0,0,0,0,-1,895,1079,0,0
-322,-55,0,0,0,0,0,0,0,0,0,-1,902,1079,0,0
-315,-55,0,0,0,0,0,0,0,0,0,-1,909,1079,0,0
-308,-55,0,0,0,0,0,0,0,0,0,-1,916,1079,0,0
-301,-55,0,0,0,0,0,0,0,0,0,-1,923,1079,0,0
-294,-55,0,0,0,0,0,0,0,0,0,-1,930,1079,0,0
-287,-55,0,0,0,0,0,0,0,0,0,-1,937,1079,0,0
-280,-55,0,0,0,0,0,0,0,0,0,-1,944,1079,0,0
-273,-55,0,0,0,0,0,0,0,0,0,-1,951,1079,0,0
-266,-55,0,0,0,0,0,0,0,0,0,-1,958,1079,0,0
-259,-55,0,0,0,0,0,0,0,0,0,-1,965,1079,0,0
-252,-55,0,0,0,0,0,0,0,0,0,-1,972,1079,0,0
-245,-55,0,0,0,0,0,0,0,0,0,-1,979,1079,0,0
-238,-55,0,0,0,0,0,0,0,0,0,-1,986,1079,0,0
-231,-55,0,0,0,0,0,0,0,0,0,-1,993,1079,0,0
-224,-55,0,0,0,0,0,0,0,0,0,-1,1000,1079,0,0
-217,-55,0,0,0,0,0,0,0,0,0,-1,1007,1079,0,0
-210,-55,0,0,0,0,0,0,0,0,0,-1,1014,1079,0,0
-203,-55,0,0,0,0,0,0,0,0,0,-1,1021,1079,0,0
-196,-55,0,0,0,0,0,0,0,0,0,-1,1028,1079,0,0
-189,-55,0,0,0,0,0,0,0,0,0,-1,1035,1079,0,0
-182,-55,0,0,0,0,0,0,0,0,0,-1,1042,1079,0,0
-175,-55,0,0,0,0,0,0,0,0,0,-1,1049,1079,0,0
-168,-55,0,0,0,0,0,0,0,0,0,-1,1056,1079,0,0
-161,-55,0,0,0,0,0,0,0,0,0,-1,1063,1079,0,0
-154,-55,0,0,0,0,0,0,0,0,0,-1,1070,1079,0,0
-147,-55,0,0,0,0,0,0,0,0,0,-1,1077,1079,0,0
-140,-55,0,0,0,0,0,0,0,0,0,-1,1084,1079,0,0
-133,-55,0,0,0,0,0,0,0,0,0,-1,1091,1079,0,0
-126,-55,0,0,0,0,0,0,0,0,0,-1,1098,1079,0,0
-119,-55,0,0,0,0,0,0,0,0,0,-1,1105,1079,0,0
-112,-55,0,0,0,0,0,0,0,0,0,-1,1112,1079,0,0
-105,-55,0,0,0,0,0,0,0,0,0,-1,1119,1079,0,0
-98,-55,0,0,0,0,0,0,0,0,0,-1,1126,1079,0,0
-91,-55,0,0,0,0,0,0,0,0,0,-1,1133,1079,0,0
-84,-55,0,0,0,0,0,0,0,0,0,-1,1140,1079,0,0
-77,-55,0,0,0,0,0,0,0,0,0,-1,1147,1079,0,0
-70,-55,0,0,0,0,0,0,0,0,0,-1,1154,1079,0,0
-63,-55,0,0,0,0,0,0,0,0,0,-1,1161,1079,0,0
-56,-55,0,0,0,0,0,0,0,0,0,-1,1168,1079,0,0
-49,-55,0,0,0,0,0,0,0,0,0,-1,1175,1079,0,0
-42,-55,0,0,0,0,0,0,0,0,0,-1,1182,1079,0,0
-35,-55,0,0,0,0,0,0,0,0,0,-1,1189,1079,0,0
-28,-55,0,0,0,0,0,0,0,0,0,-1,1196,1079,0,0
-21,-55,0,0,0,0,0,0,0,0,0,-1,1203,1079,0,0
-14,-55,0,0,0,0,0,0,0,0,0,-1,1210,1079,0,0
-7,-55,0,0,0,0,0,0,0,0,0,-1,1217,1079,0,0
0,-55,0,0,0,0,0,0,0,0,0,-1,1224,1079,0,0
7,-55,0,0,0,0,0,0,0,0,0,-1,1231,1079,0,0
14,-55,0,0,0,0,0,0,0,0,0,-1,1238,1079,0,0
21,-55,0,0,0,0,0,0,0,0,0,-1,1245,1079,0,0
28,-55,0,0,0,0,0,0,0,0,0,-1,1252,1079,0,0
35,-55,0,0,0,0,0,0,0,0,0,-1,1259,1079,0,0
42,-55,0,0,0,0,0,0,0,0,0,-1,1266,1079,0,0
49,-55,0,0,0,0,0,0,0,0,0,-1,1273,1079,0,0
56,-55,0,0,0,0,0,0,0,0,0,-1,1280,1079,0,0
63,-55,0,0,0,0,0,0,0,0,0,-1,1287,1079,0,0
70,-55,0,0,0,0,0,0,0,0,0,-1,1294,1079,0,0
77,-55,0,0,0,0,0,0,0,0,0,-1,1301,1079,0,0
84,-55,0,0,0,0,0,0,0,0,0,-1,1308,1079,0,0
91,-55,0,0,0,0,0,0,0,0,0,-1,1315,1079,0,0
98,-55,0,0,0,0,0,0,0,0,0,-1,1322,1079,0,0
105,-55,0,0,0,0,0,0,0,0,0,-1,1329,1079,0,0
112,-55,0,0,0,0,0,0,0,0,0,-1,1336,1079,0,0
119,-55,0,0,0,0,0,0,0,0,0,-1,1343,1079,0,0
126,-55,0,0,0,0,0,0,0,0,0,-1,1350,1079,0,0
133,-55,0,0,0,0,0,0,0,0,0,-1,1357,1079,0,0
140,-55,0,0,0,0,0,0,0,0,0,-1,1364,1079,0,0
147,-55,0,0,0,0,0,0,0,0,0,-1,1371,1079,0,0
154,-55,0,0,0,0,0,0,0,0,0,-1,1378,1079,0,0
161,-55,0,0,0,0,0,0,0,0,0,-1,1385,1079,0,0
168,-55,0,0,0,0,0,0,0,0,0,-1,1392,1079,0,0
175,-55,0,0,0,0,0,0,0,0,0,-1,1399,1079,0,0
182,-55,0,0,0,0,0,0,0,0,0,-1,1406,1079,0,0
189,-55,0,0,0,0,0,0,0,0,0,-1,1413,1079,0,0
196,-55,0,0,0,0,0,0,0,0,0,-1,1420,1079,0,0
203,-55,0,0,0,0,0,0,0,0,0,-1,1427,1079,0,0
210,-55,0,0,0,0,0,0,0,0,0,-1,1434,1079,0,0
217,-55,0,0,0,0,0,0,0,0,0,-1,1441,1079,0,0
224,-55,0,0,0,0,0,0,0,0,0,-1,1448,1079,0,0
231,-55,0,0,0,0,0,0,0,0,0,-1,1455,1079,0,0
238,-55,0,0,0,0,0,0,0,0,0,-1,1462,1079,0,0
245,-55,0,0,0,0,0,0,0,0,0,-1,1469,1079,0,0
252,-55,0,0,0,0,0,0,0,0,0,-1,1476,1079,0,0
259,-55,0,0,0,0,0,0,0,0,0,-1,1483,1079,0,0
266,-55,0,0,0,0,0,0,0,0,0,-1,1490,1079,0,0
273,-55,0,0,0,0,0,0,0,0,0,-1,1497,1079,0,0
280,-55,0,0,0,0,0,0,0,0,0,-1,1504,1079,0,0
287,-55,0,0,0,0,0,0,0,0,0,-1,1511,1079,0,0
294,-55,0,0,0,0,0,0,0,0,0,-1,1518,1079,0,0
301,-55,0,0,0,0,0,0,0,0,0,-1,1525,1079,0,0
308,-55,0,0,0,0,0,0,0,0,0,-1,1532,1079,0,0
315,-55,0,0,0,0,0,0,0,0,0,-1,1539,1079,0,0
322,-55,0,0,0,0,0,0,0,0,0,-1,1546,1079,0,0
329,-55,0,0,0,0,0,0,0,0,0,-1,1553,1079,0,0
336,-55,0,0,0,0,0,0,0,0,0,-1,1560,1079,0,0
343,-55,0,0,0,0,0,0,0,0,0,-1,1567,1079,0,0
350,-55,0,0,0,0,0,0,0,0,0,-1,1574,1079,0,0
357,-55,0,0,0,0,0,0,0,0,0,-1,1581,1079,0,0
364,-55,0,0,0,0,0,0,0,0,0,-1,1588,1079,0,0
371,-55,0,0,0,0,0,0,0,0,0,-1,1595,1079,0,0
378,-55,0,0,0,0,0,0,0,0,0,-1,1602,1079,0,0
385,-55,0,0,0,0,0,0,0,0,0,-1,1609,1079,0,0
392,-55,0,0,0,0,0,0,0,0,0,-1,1616,1079,0,0
399,-55,0,0,0,0,0,0,0,0,0,-1,1623,1079,0,0
406,-55,0,0,0,0,0,0,0,0,0,-1,1630,1079,0,0
413,-55,0,0,0,0,0,0,0,0,0,-1,1637,1079,0,0
420,-55,0,0,0,0,0,0,0,0,0,-1,1644,1079,0,0
427,-55,0,0,0,0,0,0,0,0,0,-1,1651,1079,0,0
434,-55,0,0,0,0,0,0,0,0,0,-1,1658,1079,0,0
441,-55,0,0,0,0,0,0,0,0,0,-1,1665,1079,0,0
448,-55,0,0,0,0,0,0,0,0,0,-1,1672,1079,0,0
455,-55,0,0,0,0,0,0,0,0,0,-1,1679,1079,0,0
462,-55,0,0,0,0,0,0,0,0,0,-1,1686,1079,0,0
469,-55,0,0,0,0,0,0,0,0,0,-1,1693,1079,0,0
476,-55,0,0,0,0,0,0,0,0,0,-1,1700,1079,0,0
483,-55,0,0,0,0,0,0,0,0,0,-1,1707,1079,0,0
490,-55,0,0,0,0,0,0,0,0,0,-1,1714,1079,0,0
497,-55,0,0,0,0,0,0,0,0,0,-1,1721,1079,0,0
504,-55,0,0,0,0,0,0,0,0,0,-1,1728,1079,0,0
511,-55,0,0,0,0,0,0,0,0,0,-1,1735,1079,0,0
518,-55,0,0,0,0,0,0,0,0,0,-1,1742,1079,0,0
525,-55,0,0,0,0,0,0,0,0,0,-1,1749,1079,0,0
532,-55,0,0,0,0,0,0,0,0,0,-1,1756,1079,0,0
539,-55,0,0,0,0,0,0,0,0,0,-1,1763,1079,0,0
546,-55,0,0,0,0,0,0,0,0,0,-1,1770,1079,0,0
553,-55,0,0,0,0,0,0,0,0,0,-1,1777,1079,0,0
560,-55,0,0,0,0,0,0,0,0,0,-1,1784,1079,0,0
567,-55,0,0,0,0,0,0,0,0,0,-1,1791,1079,0,0
574,-55,0,0,0,0,0,0,0,0,0,-1,1798,1079,0,0
581,-55,0,0,0,0,0,0,0,0,0,-1,1805,1079,0,0
588,-55,0,0,0,0,0,0,0,0,0,-1,1812,1079,0,0
595,-55,0,0,0,0,0,0,0,0,0,-1,1819,1079,0,0
602,-55,0,0,0,0,0,0,0,0,0,-1,1826,1079,0,0
609,-55,0,0,0,0,0,0,0,0,0,-1,1833,1079,0,0
616,-55,0,0,0,0,0,0,0,0,0,-1,1840,1079,0,0
623,-55,0,0,0,0,0,0,0,0,0,-1,1847,1079,0,0
630,-55,0,0,0,0,0,0,0,0,0,-1,1854,1079,0,0
637,-55,0,0,0,0,0,0,0,0,0,-1,1861,1079,0,0
644,-55,0,0,0,0,0,0,0,0,0,-1,1868,1079,0,0
651,-55,30.4851,2.74524,0.000210987,0.00144411,0.000229674,0.0014855,0.000169599,1.3925,0.000938918,0.034612,1875,1079,30.4851,-2.74525
658,-55,30.5035,2.83801,0.000153519,0.00132679,0.000704924,0.00165724,-0.000176939,1.13243,0.00116828,0.0351498,1882,1079,30.5035,-2.83807
665,-55,30.3007,2.88232,-1.97329e-05,0.00113991,0.00101253,0.00172688,-0.000606705,1.04543,0.00139808,0.0395954,1889,1079,30.3007,-2.88235
672,-55,30.1758,2.85938,-9.80182e-05,0.000733861,0.00161444,0.00198508,-0.00134924,0.911475,0.0019367,0.0390961,1896,1079,30.1758,-2.85935
679,-55,30.4099,2.90466,-0.000266692,0.000155656,0.00236774,0.00232162,-0.00243266,0.829874,0.00274514,0.0369561,1903,1079,30.4099,-2.90465
686,-55,30.197,2.7113,-0.000576407,-0.000469191,0.00301909,0.00249677,-0.00354237,0.794275,0.00350407,0.0405633,1910,1079,30.1971,-2.71131
693,-55,30.2317,2.74512,-0.000798792,-0.00102023,0.00352955,0.00262177,-0.00444079,0.769719,0.00412241,0.039898,1917,1079,30.2317,-2.74506
700,-55,30.4084,2.79993,-0.00094908,-0.00138649,0.00390633,0.00274466,-0.00508023,0.757434,0.00458429,0.0318116,1924,1079,30.4085,-2.79994
707,-55,30.4033,2.76709,-0.00121833,-0.00159411,0.0041535,0.00275153,-0.00556397,0.762795,0.00489163,0.0279889,1931,1079,30.4034,-2.76704
714,-55,30.3845,2.83057,-0.00135805,-0.00165621,0.00421861,0.00271411,-0.00572837,0.767736,0.00497675,0.0400341,1938,1079,30.3845,-2.83051
721,-55,30.4252,2.94934,0,0,0,0,0,0,0,-1,1945,1079,30.4251,-2.94938
728,-55,29.7047,5.07629,0,0,0,0,0,0,0,-1,1952,1079,29.7047,-5.07629
735,-55,29.6368,4.9657,-0.00191809,-0.000901748,0.00343325,0.00206073,-0.00488057,0.858872,0.00411632,0.0176847,1959,1079,29.6368,-4.96566
742,-55,29.623,4.87354,-0.00171441,0.00014894,0.00267531,0.00205016,-0.00361564,0.952955,0.00331251,0.0167855,1966,1079,29.6231,-4.87354
749,-55,29.6499,4.78931,-0.00111172,0.00179057,0.00160471,0.00250296,-0.00182412,1.15299,0.00250847,0.0122774,1973,1079,29.6499,-4.78934
756,-55,29.6124,4.69434,0.000338273,0.0028311,0.000739081,0.00303375,0.000135623,1.30318,0.00197884,0.0107883,1980,1079,29.6124,-4.69436
763,-55,29.5948,4.61292,0.00313056,0.00399291,-0.000288212,0.00408036,0.0030431,-1.27618,0.00244884,0.0138408,1987,1079,29.5948,-4.61292
770,-55,29.5944,4.49915,0.00641705,0.00567363,-0.00163382,0.00772091,0.00436977,-0.673548,0.00447058,0.0153696,1994,1079,29.5944,-4.49912
777,-55,29.5491,4.41321,0.0114138,0.00726488,-0.0026197,0.0126809,0.00599775,-0.450516,0.0073249,0.0136959,2001,1079,29.5491,-4.41318
784,-55,29.4712,4.24585,0.017934,0.00831854,-0.00308375,0.018838,0.00741455,-0.285158,0.0109579,0.0303035,2008,1079,29.4712,-4.24582
791,-55,29.4159,4.06445,0.0261073,0.00880344,-0.00295551,0.0265982,0.00831256,-0.164586,0.0157122,0.0437938,2015,1079,29.4159,-4.06444
798,-55,29.4971,3.99426,0.0368139,0.00833306,-0.00196444,0.0369487,0.0081982,-0.0685414,0.0224054,0.0473281,2022,1079,29.497,-3.99424
805,-55,29.7607,4.17395,0.050663,0.00645857,0.000393702,0.0506666,0.00645506,0.00890543,0.0318448,0.0483641,2029,1079,29.7608,-4.17397
812,-55,30.2578,4.1781,0.0681847,0.00248161,0.00483868,0.0685391,0.00212718,0.0731189,0.0450004,0.0458529,2036,1079,30.2577,-4.17808
-700,-62,-23.7085,2.68237,0,0,0,0,0,0,0,-1,524,1086,-23.7085,-2.68239
-693,-62,-23.1734,0.565918,0,0,0,0,0,0,0,-1,531,1086,-23.1734,-0.565938
-686,-62,-22.02,0.760864,0.0735641,0.0675187,0.0301548,0.100847,0.0402355,0.735446,0.058619,0.0468434,538,1086,-22.02,-0.760888
-679,-62,-20.1987,2.04517,0.0607382,0.0560774,0.024956,0.0834724,0.0333432,0.738843,0.0485165,0.0440599,545,1086,-20.1987,-2.04522
-672,-62,-20.5648,1.82776,0,0,0,0,0,0,0,-1,552,1086,-20.5648,-1.82778
-665,-62,-20.8594,1.73706,0,0,0,0,0,0,0,-1,559,1086,-20.8594,-1.73705
-658,-62,-20.9003,1.93481,0,0,0,0,0,0,0,-1,566,1086,-20.9003,-1.93487
-651,-62,-20.5456,1.34924,0.0212285,0.0207251,0.00957485,0.030555,0.0113987,0.772259,0.0178294,0.0364706,573,1086,-20.5456,-1.34919
-644,-62,-20.549,1.64514,0.0146653,0.0148487,0.00678559,0.0215432,0.00797082,0.792154,0.0125774,0.0135667,580,1086,-20.5489,-1.64518
-637,-62,-20.554,1.8147,0.00879895,0.010073,0.00383347,0.013322,0.00554993,0.867732,0.00772705,0.0124323,587,1086,-20.554,-1.81471
-630,-62,-20.5631,1.96155,0.00388413,0.00480418,0.000400352,0.00495399,0.00373431,1.21272,0.00298048,0.0133347,594,1086,-20.5631,-1.9616
-623,-62,-20.5724,2.13586,0.000968931,0.00160199,-0.0021672,0.00347565,-0.000904731,-0.857912,0.00267026,0.0141118,601,1086,-20.5725,-2.13582
-616,-62,-20.5596,2.27429,-0.00113059,0.00010915,-0.00401416,0.00355101,-0.00457246,-0.862004,0.00470243,0.0130074,608,1086,-20.5597,-2.27434
-609,-62,-20.5422,2.42737,-0.00242408,-0.00103547,-0.00518223,0.00349876,-0.00695831,-0.851991,0.00614654,0.0123959,615,1086,-20.5422,-2.42739
-602,-62,-20.5155,2.56287,-0.00300437,-0.00181372,-0.00663886,0.00425645,-0.00907454,-0.830115,0.00786243,0.014202,622,1086,-20.5155,-2.56283
-595,-62,-20.4644,2.71106,-0.00309819,-0.0021631,-0.00767967,0.00506325,-0.0103245,-0.815801,0.00905559,0.0215786,629,1086,-20.4644,-2.71108
-588,-62,-20.6738,2.07495,-0.00309273,-0.00237207,-0.00792661,0.00520239,-0.0106672,-0.808112,0.00934164,0.0385264,636,1086,-20.6737,-2.07496
-581,-62,-21.1314,1.17236,-0.00311778,-0.0023524,-0.00755336,0.00482796,-0.0102981,-0.810709,0.00892138,0.0440741,643,1086,-21.1314,-1.17234
-574,-62,-21.0694,0.880371,-0.00293981,-0.00217878,-0.00704251,0.00449348,-0.00961208,-0.812388,0.00832066,0.036671,650,1086,-21.0694,-0.880321
-567,-62,-21.1566,0.566284,-0.0025847,-0.00171178,-0.00595396,0.00382169,-0.00811817,-0.821985,0.00704068,0.0397204,657,1086,-21.1566,-0.566265
-560,-62,-21.2996,0.781128,-0.00206138,-0.000994393,-0.00421216,0.00271792,-0.0057737,-0.848391,0.00500733,0.0401356,664,1086,-21.2995,-0.781136
-553,-62,-21.1555,1.02417,-0.00138841,-8.46757e-05,-0.00174463,0.00112589,-0.00259898,-0.964188,0.0022059,0.0363608,671,1086,-21.1555,-1.02419
-546,-62,-21.0615,0.857788,-0.000621315,0.000899671,0.0015445,0.00186075,-0.0015824,1.01417,0.00199007,0.0319608,678,1086,-21.0615,-0.857827
-539,-62,-21.0661,0.852661,-0.000311451,0.00182503,0.00500962,0.00587904,-0.00436546,0.890444,0.00593614,0.0363365,685,1086,-21.0661,-0.852713
-532,-62,-21.1309,0.94397,-0.00183533,0.00170816,0.00660732,0.00677716,-0.00690433,0.916391,0.00789913,0.0405429,692,1086,-21.1309,-0.94398
-525,-62,0,0,0,0,0,0,0,0,0,-1,699,1086,0,0
-518,-62,0,0,0,0,0,0,0,0,0,-1,706,1086,0,0
-511,-62,0,0,0,0,0,0,0,0,0,-1,713,1086,0,0
-504,-62,0,0,0,0,0,0,0,0,0,-1,720,1086,0,0
-497,-62,0,0,0,0,0,0,0,0,0,-1,727,1086,0,0
-490,-62,0,0,0,0,0,0,0,0,0,-1,734,1086,0,0
-483,-62,0,0,0,0,0,0,0,0,0,-1,741,1086,0,0
-476,-62,0,0,0,0,0,0,0,0,0,-1,748,1086,0,0
-469,-62,0,0,0,0,0,0,0,0,0,-1,755,1086,0,0
-462,-62,0,0,0,0,0,0,0,0,0,-1,762,1086,0,0
-455,-62,0,0,0,0,0,0,0,0,0,-1,769,1086,0,0
-448,-62,0,0,0,0,0,0,0,0,0,-1,776,1086,0,0
-441,-62,0,0,0,0,0,0,0,0,0,-1,783,1086,0,0
-434,-62,0,0,0,0,0,0,0,0,0,-1,790,1086,0,0
-427,-62,0,0,0,0,0,0,0,0,0,-1,797,1086,0,0
-420,-62,0,0,0,0,0,0,0,0,0,-1,804,1086,0,0
-413,-62,0,0,0,0,0,0,0,0,0,-1,811,1086,0,0
-406,-62,0,0,0,0,0,0,0,0,0,-1,818,1086,0,0
-399,-62,0,0,0,0,0,0,0,0,0,-1,825,1086,0,0
-392,-62,0,0,0,0,0,0,0,0,0,-1,832,1086,0,0
-385,-62,0,0,0,0,0,0,0,0,0,-1,839,1086,0,0
-378,-62,0,0,0,0,0,0,0,0,0,-1,846,1086,0,0
-371,-62,0,0,0,0,0,0,0,0,0,-1,853,1086,0,0
-364,-62,0,0,0,0,0,0,0,0,0,-1,860,1086,0,0
-357,-62,0,0,0,0,0,0,0,0,0,-1,867,1086,0,0
-350,-62,0,0,0,0,0,0,0,0,0,-1,874,1086,0,0
-343,-62,0,0,0,0,0,0,0,0,0,-1,881,1086,0,0
-336,-62,0,0,0,0,0,0,0,0,0,-1,888,1086,0,0
-329,-62,0,0,0,0,0,0,0,0,0,-1,895,1086,0,0
-322,-62,0,0,0,0,0,0,0,0,0,-1,902,1086,0,0
-315,-62,0,0,0,0,0,0,0,0,0,-1,909,1086,0,0
-308,-62,0,0,0,0,0,0,0,0,0,-1,916,1086,0,0
-301,-62,0,0,0,0,0,0,0,0,0,-1,923,1086,0,0
-294,-62,0,0,0,0,0,0,0,0,0,-1,930,1086,0,0
-287,-62,0,0,0,0,0,0,0,0,0,-1,937,1086,0,0
-280,-62,0,0,0,0,0,0,0,0,0,-1,944,1086,0,0
-273,-62,0,0,0,0,0,0,0,0,0,-1,951,1086,0,0
-266,-62,0,0,0,0,0,0,0,0,0,-1,958,1086,0,0
-259,-62,0,0,0,0,0,0,0,0,0,-1,965,1086,0,0
-252,-62,0,0,0,0,0,0,0,0,0,-1,972,1086,0,0
-245,-62,0,0,0,0,0,0,0,0,0,-1,979,1086,0,0
-238,-62,0,0,0,0,0,0,0,0,0,-1,986,1086,0,0
-231,-62,0,0,0,0,0,0,0,0,0,-1,993,1086,0,0
-224,-62,0,0,0,0,0,0,0,0,0,-1,1000,1086,0,0
-217,-62,0,0,0,0,0,0,0,0,0,-1,1007,1086,0,0
-210,-62,0,0,0,0,0,0,0,0,0,-1,1014,1086,0,0
-203,-62,0,0,0,0,0,0,0,0,0,-1,1021,1086,0,0
-196,-62,0,0,0,0,0,0,0,0,0,-1,1028,1086,0,0
-189,-62,0,0,0,0,0,0,0,0,0,-1,1035,1086,0,0
-182,-62,0,0,0,0,0,0,0,0,0,-1,1042,1086,0,0
-175,-62,0,0,0,0,0,0,0,0,0,-1,1049,1086,0,0
-168,-62,0,0,0,0,0,0,0,0,0,-1,1056,1086,0,0
-161,-62,0,0,0,0,0,0,0,0,0,-1,1063,1086,0,0
-154,-62,0,0,0,0,0,0,0,0,0,-1,1070,1086,0,0
-147,-62,0,0,0,0,0,0,0,0,0,-1,1077,1086,0,0
-140,-62,0,0,0,0,0,0,0,0,0,-1,1084,1086,0,0
-133,-62,0,0,0,0,0,0,0,0,0,-1,1091,1086,0,0
-126,-62,0,0,0,0,0,0,0,0,0,-1,1098,1086,0,0
-119,-62,0,0,0,0,0,0,0,0,0,-1,1105,1086,0,0
-112,-62,0,0,0,0,0,0,0,0,0,-1,1112,1086,0,0
-105,-62,0,0,0,0,0,0,0,0,0,-1,1119,1086,0,0
-98,-62,0,0,0,0,0,0,0,0,0,-1,1126,1086,0,0
-91,-62,0,0,0,0,0,0,0,0,0,-1,1133,1086,0,0
-84,-62,0,0,0,0,0,0,0,0,0,-1,1140,1086,0,0
-77,-62,0,0,0,0,0,0,0,0,0,-1,1147,1086,0,0
-70,-62,0,0,0,0,0,0,0,0,0,-1,1154,1086,0,0
-63,-62,0,0,0,0,0,0,0,0,0,-1,1161,1086,0,0
-56,-62,0,0,0,0,0,0,0,0,0,-1,1168,1086,0,0
-49,-62,0,0,0,0,0,0,0,0,0,-1,1175,1086,0,0
-42,-62,0,0,0,0,0,0,0,0,0,-1,1182,1086,0,0
-35,-62,0,0,0,0,0,0,0,0,0,-1,1189,1086,0,0
-28,-62,0,0,0,0,0,0,0,0,0,-1,1196,1086,0,0
-21,-62,0,0,0,0,0,0,0,0,0,-1,1203,1086,0,0
-14,-62,0,0,0,0,0,0,0,0,0,-1,1210,1086,0,0
-7,-62,0,0,0,0,0,0,0,0,0,-1,1217,1086,0,0
0,-62,0,0,0,0,0,0,0,0,0,-1,1224,1086,0,0
7,-62,0,0,0,0,0,0,0,0,0,-1,1231,1086,0,0
14,-62,0,0,0,0,0,0,0,0,0,-1,1238,1086,0,0
21,-62,0,0,0,0,0,0,0,0,0,-1,1245,1086,0,0
28,-62,0,0,0,0,0,0,0,0,0,-1,1252,1086,0,0
35,-62,0,0,0,0,0,0,0,0,0,-1,1259,1086,0,0
42,-62,0,0,0,0,0,0,0,0,0,-1,1266,1086,0,0
49,-62,0,0,0,0,0,0,0,0,0,-1,1273,1086,0,0
56,-62,0,0,0,0,0,0,0,0,0,-1,1280,1086,0,0
63,-62,0,0,0,0,0,0,0,0,0,-1,1287,1086,0,0
70,-62,0,0,0,0,0,0,0,0,0,-1,1294,1086,0,0
77,-62,0,0,0,0,0,0,0,0,0,-1,1301,1086,0,0
84,-62,0,0,0,0,0,0,0,0,0,-1,1308,1086,0,0
91,-62,0,0,0,0,0,0,0,0,0,-1,1315,1086,0,0
98,-62,0,0,0,0,0,0,0,0,0,-1,1322,1086,0,0
105,-62,0,0,0,0,0,0,0,0,0,-1,1329,1086,0,0
112,-62,0,0,0,0,0,0,0,0,0,-1,1336,1086,0,0
119,-62,0,0,0,0,0,0,0,0,0,-1,1343,1086,0,0
126,-62,0,0,0,0,0,0,0,0,0,-1,1350,1086,0,0
133,-62,0,0,0,0,0,0,0,0,0,-1,1357,1086,0,0
140,-62,0,0,0,0,0,0,0,0,0,-1,1364,1086,0,0
147,-62,0,0,0,0,0,0,0,0,0,-1,1371,1086,0,0
154,-62,0,0,0,0,0,0,0,0,0,-1,1378,1086,0,0
161,-62,0,0,0,0,0,0,0,0,0,-1,1385,1086,0,0
168,-62,0,0,0,0,0,0,0,0,0,-1,1392,1086,0,0
175,-62,0,0,0,0,0,0,0,0,0,-1,1399,1086,0,0
182,-62,0,0,0,0,0,0,0,0,0,-1,1406,1086,0,0
189,-62,0,0,0,0,0,0,0,0,0,-1,1413,1086,0,0
196,-62,0,0,0,0,0,0,0,0,0,-1,1420,1086,0,0
203,-62,0,0,0,0,0,0,0,0,0,-1,1427,1086,0,0
210,-62,0,0,0,0,0,0,0,0,0,-1,1434,1086,0,0
217,-62,0,0,0,0,0,0,0,0,0,-1,1441,1086,0,0
224,-62,0,0,0,0,0,0,0,0,0,-1,1448,1086,0,0
231,-62,0,0,0,0,0,0,0,0,0,-1,1455,1086,0,0
238,-62,0,0,0,0,0,0,0,0,0,-1,1462,1086,0,0
245,-62,0,0,0,0,0,0,0,0,0,-1,1469,1086,0,0
252,-62,0,0,0,0,0,0,0,0,0,-1,1476,1086,0,0
259,-62,0,0,0,0,0,0,0,0,0,-1,1483,1086,0,0
266,-62,0,0,0,0,0,0,0,0,0,-1,1490,1086,0,0
273,-62,0,0,0,0,0,0,0,0,0,-1,1497,1086,0,0
280,-62,0,0,0,0,0,0,0,0,0,-1,1504,1086,0,0
287,-62,0,0,0,0,0,0,0,0,0,-1,1511,1086,0,0
294,-62,0,0,0,0,0,0,0,0,0,-1,1518,1086,0,0
301,-62,0,0,0,0,0,0,0,0,0,-1,1525,1086,0,0
308,-62,0,0,0,0,0,0,0,0,0,-1,1532,1086,0,0
315,-62,0,0,0,0,0,0,0,0,0,-1,1539,1086,0,0
322,-62,0,0,0,0,0,0,0,0,0,-1,1546,1086,0,0
329,-62,0,0,0,0,0,0,0,0,0,-1,1553,1086,0,0
336,-62,0,0,0,0,0,0,0,0,0,-1,1560,1086,0,0
343,-62,0,0,0,0,0,0,0,0,0,-1,1567,1086,0,0
350,-62,0,0,0,0,0,0,0,0,0,-1,1574,1086,0,0
357,-62,0,0,0,0,0,0,0,0,0,-1,1581,1086,0,0
364,-62,0,0,0,0,0,0,0,0,0,-1,1588,1086,0,0
371,-62,0,0,0,0,0,0,0,0,0,-1,1595,1086,0,0
378,-62,0,0,0,0,0,0,0,0,0,-1,1602,1086,0,0
385,-62,0,0,0,0,0,0,0,0,0,-1,1609,1086,0,0
392,-62,0,0,0,0,0,0,0,0,0,-1,1616,1086,0,0
399,-62,0,0,0,0,0,0,0,0,0,-1,1623,1086,0,0
406,-62,0,0,0,0,0,0,0,0,0,-1,1630,1086,0,0
413,-62,0,0,0,0,0,0,0,0,0,-1,1637,1086,0,0
420,-62,0,0,0,0,0,0,0,0,0,-1,1644,1086,0,0
427,-62,0,0,0,0,0,0,0,0,0,-1,1651,1086,0,0
434,-62,0,0,0,0,0,0,0,0,0,-1,1658,1086,0,0
441,-62,0,0,0,0,0,0,0,0,0,-1,1665,1086,0,0
448,-62,0,0,0,0,0,0,0,0,0,-1,1672,1086,0,0
455,-62,0,0,0,0,0,0,0,0,0,-1,1679,1086,0,0
462,-62,0,0,0,0,0,0,0,0,0,-1,1686,1086,0,0
469,-62,0,0,0,0,0,0,0,0,0,-1,1693,1086,0,0
476,-62,0,0,0,0,0,0,0,0,0,-1,1700,1086,0,0
483,-62,0,0,0,0,0,0,0,0,0,-1,1707,1086,0,0
490,-62,0,0,0,0,0,0,0,0,0,-1,1714,1086,0,0
497,-62,0,0,0,0,0,0,0,0,0,-1,1721,1086,0,0
504,-62,0,0,0,0,0,0,0,0,0,-1,1728,1086,0,0
511,-62,0,0,0,0,0,0,0,0,0,-1,1735,1086,0,0
518,-62,0,0,0,0,0,0,0,0,0,-1,1742,1086,0,0
525,-62,0,0,0,0,0,0,0,0,0,-1,1749,1086,0,0
532,-62,0,0,0,0,0,0,0,0,0,-1,1756,1086,0,0
539,-62,0,0,0,0,0,0,0,0,0,-1,1763,1086,0,0
546,-62,0,0,0,0,0,0,0,0,0,-1,1770,1086,0,0
553,-62,0,0,0,0,0,0,0,0,0,-1,1777,1086,0,0
560,-62,0,0,0,0,0,0,0,0,0,-1,1784,1086,0,0
567,-62,0,0,0,0,0,0,0,0,0,-1,1791,1086,0,0
574,-62,0,0,0,0,0,0,0,0,0,-1,1798,1086,0,0
581,-62,0,0,0,0,0,0,0,0,0,-1,1805,1086,0,0
588,-62,0,0,0,0,0,0,0,0,0,-1,1812,1086,0,0
595,-62,0,0,0,0,0,0,0,0,0,-1,1819,1086,0,0
602,-62,0,0,0,0,0,0,0,0,0,-1,1826,1086,0,0
609,-62,0,0,0,0,0,0,0,0,0,-1,1833,1086,0,0
616,-62,0,0,0,0,0,0,0,0,0,-1,1840,1086,0,0
623,-62,0,0,0,0,0,0,0,0,0,-1,1847,1086,0,0
630,-62,0,0,0,0,0,0,0,0,0,-1,1854,1086,0,0
637,-62,0,0,0,0,0,0,0,0,0,-1,1861,1086,0,0
644,-62,0,0,0,0,0,0,0,0,0,-1,1868,1086,0,0
651,-62,30.6007,2.63831,0.00126125,0.000980536,2.57877e-05,0.0012636,0.000978187,0.0908505,0.000765217,0.0397978,1875,1086,30.6007,-2.63832
658,-62,30.7003,2.74976,0.000958127,0.000871316,0.000555658,0.00147207,0.000357371,0.746419,0.0008866,0.0378444,1882,1086,30.7003,-2.74972
665,-62,30.4667,2.93359,0.000634494,0.000702559,0.000934503,0.00160365,-0.000266596,0.803599,0.00116815,0.037568,1889,1086,30.4666,-2.93362
672,-62,30.3505,2.94934,0.000435376,0.000262499,0.00159728,0.00194855,-0.00125068,0.758366,0.00186167,0.0366995,1896,1086,30.3505,-2.94935
679,-62,30.4241,2.95569,0.000125749,-0.000322885,0.00235844,0.00227051,-0.00246765,0.737985,0.00273637,0.0364478,1903,1086,30.4241,-2.95574
686,-62,30.3497,2.82788,-0.000295916,-0.000925412,0.00299536,0.00240119,-0.00362252,0.733051,0.00350154,0.0404686,1910,1086,30.3497,-2.82787
693,-62,30.2948,2.91248,-0.000605375,-0.00143789,0.00347802,0.0024812,-0.00452447,0.72584,0.00410167,0.0395775,1917,1086,30.2948,-2.91245
700,-62,30.3914,2.84204,-0.000848414,-0.00174205,0.00383046,0.0025612,-0.00515166,0.727336,0.00453597,0.0336294,1924,1086,30.3913,-2.84209
707,-62,30.329,2.77869,-0.00119402,-0.0019161,0.00407239,0.0025333,-0.00564343,0.741186,0.00483333,0.0262337,1931,1086,30.3289,-2.7787
714,-62,30.3729,2.79175,-0.0013686,-0.00194933,0.00413725,0.00248847,-0.00580639,0.750364,0.00491509,0.0338232,1938,1086,30.3729,-2.79172
721,-62,30.491,2.96729,0,0,0,0,0,0,0,-1,1945,1086,30.4909,-2.96731
728,-62,29.5887,5.16931,0,0,0,0,0,0,0,-1,1952,1086,29.5888,-5.16926
735,-62,29.5542,4.9906,-0.00201337,-0.00107974,0.00329842,0.00178473,-0.00487784,0.855694,0.00398242,0.0190438,1959,1086,29.5542,-4.99061
742,-62,29.5034,4.90881,-0.00186341,4.59992e-05,0.0024058,0.0016796,-0.00349701,0.974285,0.00304949,0.0172501,1966,1086,29.5034,-4.90881
749,-62,29.4928,4.78333,-0.00121787,0.00170569,0.00121798,0.00214662,-0.00165879,1.22346,0.00220306,0.0144174,1973,1086,29.4927,-4.78332
756,-62,29.4432,4.72534,0.000372665,0.00258166,0.000180523,0.00259631,0.00035801,1.48979,0.00162474,0.0134602,1980,1086,29.4432,-4.72534
763,-62,29.4646,4.60693,0.00347506,0.00341202,-0.00105567,0.00449968,0.00238739,-0.770474,0.00259951,0.0144904,1987,1086,29.4646,-4.60688
770,-62,29.4851,4.45996,0.00707283,0.00472891,-0.00273549,0.00887684,0.0029249,-0.583013,0.00522343,0.011853,1994,1086,29.4851,-4.46
777,-62,29.4177,4.3208,0.0125093,0.00566248,-0.0041451,0.0144619,0.00370987,-0.440233,0.00867328,0.0139701,2001,1086,29.4178,-4.32086
784,-62,29.3611,4.10022,0.019598,0.00588714,-0.00513474,0.0213077,0.00417738,-0.321432,0.0130377,0.0281949,2008,1086,29.3611,-4.10024
791,-62,29.3678,3.64673,0.028521,0.00534008,-0.00559553,0.029801,0.00406008,-0.224884,0.0186618,0.0424433,2015,1086,29.3678,-3.64672
798,-62,29.7751,2.81396,0.0402323,0.00354115,-0.00526463,0.0409727,0.0028007,-0.13973,0.0264311,0.0445812,2022,1086,29.775,-2.81402
805,-62,29.4897,3.3457,0.0554315,-1.31661e-05,-0.00361792,0.0556666,-0.000248248,-0.064886,0.0371941,0.0455746,2029,1086,29.4897,-3.3457
812,-62,29.2495,3.30896,0,0,0,0,0,0,0,-1,2036,1086,29.2495,-3.30901
-700,-69,-22.5086,-3.64417,0,0,0,0,0,0,0,-1,524,1093,-22.5087,3.64412
-693,-69,-19.1354,0.0726318,0,0,0,0,0,0,0,-1,531,1093,-19.1354,-0.0726777
-686,-69,-21.4973,1.21765,0,0,0,0,0,0,0,-1,538,1093,-21.4973,-1.21762
-679,-69,-20.2777,0.871826,0,0,0,0,0,0,0,-1,545,1093,-20.2777,-0.871826
-672,-69,-20.791,1.11987,0,0,0,0,0,0,0,-1,552,1093,-20.791,-1.11984
-665,-69,-20.7319,1.3783,0.0339061,0.0348949,0.0191276,0.0535344,0.0152665,0.798319,0.0318449,0.0452813,559,1093,-20.7319,-1.37834
-658,-69,-20.3596,1.4198,0.0254156,0.0266535,0.0144121,0.0404599,0.0116092,0.806859,0.0240562,0.0449696,566,1093,-20.3596,-1.41977
-651,-69,-20.3566,1.52332,0.0184125,0.0197354,0.0105473,0.0296419,0.00850594,0.816714,0.017624,0.0329194,573,1093,-20.3566,-1.52332
-644,-69,-20.366,1.65149,0.0126136,0.0140216,0.00719058,0.0205426,0.00609269,0.834196,0.012183,0.0099492,580,1093,-20.366,-1.65153
-637,-69,-20.3776,1.82666,0.00732832,0.0092891,0.00383552,0.0122675,0.00434988,0.910523,0.00718182,0.012229,587,1093,-20.3776,-1.82668
-630,-69,-20.3918,1.96326,0.00279047,0.00441439,0.000225292,0.00444507,0.0027598,1.43547,0.00259124,0.013972,594,1093,-20.3918,-1.96329
-623,-69,-20.3815,2.11401,0.000267167,0.00118163,-0.00245252,0.00321917,-0.00177038,-0.877556,0.00292092,0.0127655,601,1093,-20.3815,-2.114
-616,-69,-20.378,2.24805,-0.00153555,-0.000358345,-0.0042951,0.00338829,-0.00528219,-0.853494,0.00504555,0.0132606,608,1093,-20.378,-2.24801
-609,-69,-20.3771,2.38281,-0.00267629,-0.00143324,-0.00534265,0.00332392,-0.00743345,-0.843304,0.00636004,0.0130325,615,1093,-20.3771,-2.3828
-602,-69,-20.363,2.56592,-0.00315086,-0.00214613,-0.00670536,0.00407566,-0.00937264,-0.822788,0.00796261,0.0164407,622,1093,-20.363,-2.56587
-595,-69,-20.3203,2.70789,-0.0032294,-0.00254646,-0.00764966,0.00476935,-0.0105452,-0.807702,0.00904905,0.0215951,629,1093,-20.3203,-2.70785
-588,-69,-20.6057,2.33398,-0.00321216,-0.00281047,-0.00786104,0.00485229,-0.0108749,-0.79817,0.00929939,0.0341559,636,1093,-20.6057,-2.33396
-581,-69,-21.0138,1.4491,-0.00316285,-0.00283473,-0.0074831,0.00448611,-0.0104837,-0.796358,0.00887102,0.0423469,643,1093,-21.0138,-1.44914
-574,-69,-21.1049,0.890869,-0.00292768,-0.00275657,-0.00697379,0.00413219,-0.00981644,-0.791532,0.00827314,0.032139,650,1093,-21.1049,-0.890914
-567,-69,-21.1257,0.680908,-0.00249474,-0.0023886,-0.00591219,0.00347075,-0.0083541,-0.789886,0.00701845,0.0365361,657,1093,-21.1256,-0.680902
-560,-69,-21.3118,0.778809,-0.00188315,-0.00177722,-0.00423407,0.00240421,-0.00606459,-0.791652,0.0050394,0.0376989,664,1093,-21.3117,-0.778834
-553,-69,-21.2638,0.903809,-0.00112941,-0.00097269,-0.00187738,0.000827971,-0.00293007,-0.806255,0.00228004,0.0369334,671,1093,-21.2638,-0.903818
-546,-69,-21.1785,0.797729,-0.000264804,-6.90712e-05,0.00125967,0.00109653,-0.00143041,0.824166,0.00146317,0.0330987,678,1093,-21.1786,-0.797691
-539,-69,-21.1395,0.872559,0.00021692,0.000824407,0.00462963,0.00516024,-0.00411892,0.818156,0.00536856,0.0373635,685,1093,-21.1395,-0.87252
-532,-69,-20.9562,0.842163,-0.00117611,0.000625524,0.00618839,0.00597832,-0.0065289,0.857673,0.00722338,0.0427767,692,1093,-20.9562,-0.842105
-525,-69,0,0,0,0,0,0,0,0,0,-1,699,1093,0,0
-518,-69,0,0,0,0,0,0,0,0,0,-1,706,1093,0,0
-511,-69,0,0,0,0,0,0,0,0,0,-1,713,1093,0,0
-504,-69,0,0,0,0,0,0,0,0,0,-1,720,1093,0,0
-497,-69,0,0,0,0,0,0,0,0,0,-1,727,1093,0,0
-490,-69,0,0,0,0,0,0,0,0,0,-1,734,1093,0,0
-483,-69,0,0,0,0,0,0,0,0,0,-1,741,1093,0,0
-476,-69,0,0,0,0,0,0,0,0,0,-1,748,1093,0,0
-469,-69,0,0,0,0,0,0,0,0,0,-1,755,1093,0,0
-462,-69,0,0,0,0,0,0,0,0,0,-1,762,1093,0,0
-455,-69,0,0,0,0,0,0,0,0,0,-1,769,1093,0,0
-448,-69,0,0,0,0,0,0,0,0,0,-1,776,1093,0,0
-441,-69,0,0,0,0,0,0,0,0,0,-1,783,1093,0,0
-434,-69,0,0,0,0,0,0,0,0,0,-1,790,1093,0,0
-427,-69,0,0,0,0,0,0,0,0,0,-1,797,1093,0,0
-420,-69,0,0,0,0,0,0,0,0,0,-1,804,1093,0,0
-413,-69,0,0,0,0,0,0,0,0,0,-1,811,1093,0,0
-406,-69,0,0,0,0,0,0,0,0,0,-1,818,1093,0,0
-399,-69,0,0,0,0,0,0,0,0,0,-1,825,1093,0,0
-392,-69,0,0,0,0,0,0,0,0,0,-1,832,1093,0,0
-385,-69,0,0,0,0,0,0,0,0,0,-1,839,1093,0,0
-378,-69,0,0,0,0,0,0,0,0,0,-1,846,1093,0,0
-371,-69,0,0,0,0,0,0,0,0,0,-1,853,1093,0,0
-364,-69,0,0,0,0,0,0,0,0,0,-1,860,1093,0,0
-357,-69,0,0,0,0,0,0,0,0,0,-1,867,1093,0,0
-350,-69,0,0,0,0,0,0,0,0,0,-1,874,1093,0,0
-343,-69,0,0,0,0,0,0,0,0,0,-1,881,1093,0,0
-336,-69,0,0,0,0,0,0,0,0,0,-1,888,1093,0,0
-329,-69,0,0,0,0,0,0,0,0,0,-1,895,1093,0,0
-322,-69,0,0,0,0,0,0,0,0,0,-1,902,1093,0,0
-315,-69,0,0,0,0,0,0,0,0,0,-1,909,1093,0,0
-308,-69,0,0,0,0,0,0,0,0,0,-1,916,1093,0,0
-301,-69,0,0,0,0,0,0,0,0,0,-1,923,1093,0,0
-294,-69,0,0,0,0,0,0,0,0,0,-1,930,1093,0,0
-287,-69,0,0,0,0,0,0,0,0,0,-1,937,1093,0,0
-280,-69,0,0,0,0,0,0,0,0,0,-1,944,1093,0,0
-273,-69,0,0,0,0,0,0,0,0,0,-1,951,1093,0,0
-266,-69,0,0,0,0,0,0,0,0,0,-1,958,1093,0,0
-259,-69,0,0,0,0,0,0,0,0,0,-1,965,1093,0,0
-252,-69,0,0,0,0,0,0,0,0,0,-1,972,1093,0,0
-245,-69,0,0,0,0,0,0,0,0,0,-1,979,1093,0,0
-238,-69,0,0,0,0,0,0,0,0,0,-1,986,1093,0,0
-231,-69,0,0,0,0,0,0,0,0,0,-1,993,1093,0,0
-224,-69,0,0,0,0,0,0,0,0,0,-1,1000,1093,0,0
-217,-69,0,0,0,0,0,0,0,0,0,-1,1007,1093,0,0
-210,-69,0,0,0,0,0,0,0,0,0,-1,1014,1093,0,0
-203,-69,0,0,0,0,0,0,0,0,0,-1,1021,1093,0,0
-196,-69,0,0,0,0,0,0,0,0,0,-1,1028,1093,0,0
-189,-69,0,0,0,0,0,0,0,0,0,-1,1035,1093,0,0
-182,-69,0,0,0,0,0,0,0,0,0,-1,1042,1093,0,0
-175,-69,0,0,0,0,0,0,0,0,0,-1,1049,1093,0,0
-168,-69,0,0,0,0,0,0,0,0,0,-1,1056,1093,0,0
-161,-69,0,0,0,0,0,0,0,0,0,-1,1063,1093,0,0
-154,-69,0,0,0,0,0,0,0,0,0,-1,1070,1093,0,0
-147,-69,0,0,0,0,0,0,0,0,0,-1,1077,1093,0,0
-140,-69,0,0,0,0,0,0,0,0,0,-1,1084,1093,0,0
-133,-69,0,0,0,0,0,0,0,0,0,-1,1091,1093,0,0
-126,-69,0,0,0,0,0,0,0,0,0,-1,1098,1093,0,0
-119,-69,0,0,0,0,0,0,0,0,0,-1,1105,1093,0,0
-112,-69,0,0,0,0,0,0,0,0,0,-1,1112,1093,0,0
-105,-69,0,0,0,0,0,0,0,0,0,-1,1119,1093,0,0
-98,-69,0,0,0,0,0,0,0,0,0,-1,1126,1093,0,0
-91,-69,0,0,0,0,0,0,0,0,0,-1,1133,1093,0,0
-84,-69,0,0,0,0,0,0,0,0,0,-1,1140,1093,0,0
-77,-69,0,0,0,0,0,0,0,0,0,-1,1147,1093,0,0
-70,-69,0,0,0,0,0,0,0,0,0,-1,1154,1093,0,0
-63,-69,0,0,0,0,0,0,0,0,0,-1,1161,1093,0,0
-56,-69,0,0,0,0,0,0,0,0,0,-1,1168,1093,0,0
-49,-69,0,0,0,0,0,0,0,0,0,-1,1175,1093,0,0
-42,-69,0,0,0,0,0,0,0,0,0,-1,1182,1093,0,0
-35,-69,0,0,0,0,0,0,0,0,0,-1,1189,1093,0,0
-28,-69,0,0,0,0,0,0,0,0,0,-1,1196,1093,0,0
-21,-69,0,0,0,0,0,0,0,0,0,-1,1203,1093,0,0
-14,-69,0,0,0,0,0,0,0,0,0,-1,1210,1093,0,0
-7,-69,0,0,0,0,0,0,0,0,0,-1,1217,1093,0,0
0,-69,0,0,0,0,0,0,0,0,0,-1,1224,1093,0,0
7,-69,0,0,0,0,0,0,0,0,0,-1,1231,1093,0,0
14,-69,0,0,0,0,0,0,0,0,0,-1,1238,1093,0,0
21,-69,0,0,0,0,0,0,0,0,0,-1,1245,1093,0,0
28,-69,0,0,0,0,0,0,0,0,0,-1,1252,1093,0,0
35,-69,0,0,0,0,0,0,0,0,0,-1,1259,1093,0,0
42,-69,0,0,0,0,0,0,0,0,0,-1,1266,1093,0,0
49,-69,0,0,0,0,0,0,0,0,0,-1,1273,1093,0,0
56,-69,0,0,0,0,0,0,0,0,0,-1,1280,1093,0,0
63,-69,0,0,0,0,0,0,0,0,0,-1,1287,1093,0,0
70,-69,0,0,0,0,0,0,0,0,0,-1,1294,1093,0,0
77,-69,0,0,0,0,0,0,0,0,0,-1,1301,1093,0,0
84,-69,0,0,0,0,0,0,0,0,0,-1,1308,1093,0,0
91,-69,0,0,0,0,0,0,0,0,0,-1,1315,1093,0,0
98,-69,0,0,0,0,0,0,0,0,0,-1,1322,1093,0,0
105,-69,0,0,0,0,0,0,0,0,0,-1,1329,1093,0,0
112,-69,0,0,0,0,0,0,0,0,0,-1,1336,1093,0,0
119,-69,0,0,0,0,0,0,0,0,0,-1,1343,1093,0,0
126,-69,0,0,0,0,0,0,0,0,0,-1,1350,1093,0,0
133,-69,0,0,0,0,0,0,0,0,0,-1,1357,1093,0,0
140,-69,0,0,0,0,0,0,0,0,0,-1,1364,1093,0,0
147,-69,0,0,0,0,0,0,0,0,0,-1,1371,1093,0,0
154,-69,0,0,0,0,0,0,0,0,0,-1,1378,1093,0,0
161,-69,0,0,0,0,0,0,0,0,0,-1,1385,1093,0,0
168,-69,0,0,0,0,0,0,0,0,0,-1,1392,1093,0,0
175,-69,0,0,0,0,0,0,0,0,0,-1,1399,1093,0,0
182,-69,0,0,0,0,0,0,0,0,0,-1,1406,1093,0,0
189,-69,0,0,0,0,0,0,0,0,0,-1,1413,1093,0,0
196,-69,0,0,0,0,0,0,0,0,0,-1,1420,1093,0,0
203,-69,0,0,0,0,0,0,0,0,0,-1,1427,1093,0,0
210,-69,0,0,0,0,0,0,0,0,0,-1,1434,1093,0,0
217,-69,0,0,0,0,0,0,0,0,0,-1,1441,1093,0,0
224,-69,0,0,0,0,0,0,0,0,0,-1,1448,1093,0,0
231,-69,0,0,0,0,0,0,0,0,0,-1,1455,1093,0,0
238,-69,0,0,0,0,0,0,0,0,0,-1,1462,1093,0,0
245,-69,0,0,0,0,0,0,0,0,0,-1,1469,1093,0,0
252,-69,0,0,0,0,0,0,0,0,0,-1,1476,1093,0,0
259,-69,0,0,0,0,0,0,0,0,0,-1,1483,1093,0,0
266,-69,0,0,0,0,0,0,0,0,0,-1,1490,1093,0,0
273,-69,0,0,0,0,0,0,0,0,0,-1,1497,1093,0,0
280,-69,0,0,0,0,0,0,0,0,0,-1,1504,1093,0,0
287,-69,0,0,0,0,0,0,0,0,0,-1,1511,1093,0,0
294,-69,0,0,0,0,0,0,0,0,0,-1,1518,1093,0,0
301,-69,0,0,0,0,0,0,0,0,0,-1,1525,1093,0,0
308,-69,0,0,0,0,0,0,0,0,0,-1,1532,1093,0,0
315,-69,0,0,0,0,0,0,0,0,0,-1,1539,1093,0,0
322,-69,0,0,0,0,0,0,0,0,0,-1,1546,1093,0,0
329,-69,0,0,0,0,0,0,0,0,0,-1,1553,1093,0,0
336,-69,0,0,0,0,0,0,0,0,0,-1,1560,1093,0,0
343,-69,0,0,0,0,0,0,0,0,0,-1,1567,1093,0,0
350,-69,0,0,0,0,0,0,0,0,0,-1,1574,1093,0,0
357,-69,0,0,0,0,0,0,0,0,0,-1,1581,1093,0,0
364,-69,0,0,0,0,0,0,0,0,0,-1,1588,1093,0,0
371,-69,0,0,0,0,0,0,0,0,0,-1,1595,1093,0,0
378,-69,0,0,0,0,0,0,0,0,0,-1,1602,1093,0,0
385,-69,0,0,0,0,0,0,0,0,0,-1,1609,1093,0,0
392,-69,0,0,0,0,0,0,0,0,0,-1,1616,1093,0,0
399,-69,0,0,0,0,0,0,0,0,0,-1,1623,1093,0,0
406,-69,0,0,0,0,0,0,0,0,0,-1,1630,1093,0,0
413,-69,0,0,0,0,0,0,0,0,0,-1,1637,1093,0,0
420,-69,0,0,0,0,0,0,0,0,0,-1,1644,1093,0,0
427,-69,0,0,0,0,0,0,0,0,0,-1,1651,1093,0,0
434,-69,0,0,0,0,0,0,0,0,0,-1,1658,1093,0,0
441,-69,0,0,0,0,0,0,0,0,0,-1,1665,1093,0,0
448,-69,0,0,0,0,0,0,0,0,0,-1,1672,1093,0,0
455,-69,0,0,0,0,0,0,0,0,0,-1,1679,1093,0,0
462,-69,0,0,0,0,0,0,0,0,0,-1,1686,1093,0,0
469,-69,0,0,0,0,0,0,0,0,0,-1,1693,1093,0,0
476,-69,0,0,0,0,0,0,0,0,0,-1,1700,1093,0,0
483,-69,0,0,0,0,0,0,0,0,0,-1,1707,1093,0,0
490,-69,0,0,0,0,0,0,0,0,0,-1,1714,1093,0,0
497,-69,0,0,0,0,0,0,0,0,0,-1,1721,1093,0,0
504,-69,0,0,0,0,0,0,0,0,0,-1,1728,1093,0,0
511,-69,0,0,0,0,0,0,0,0,0,-1,1735,1093,0,0
518,-69,0,0,0,0,0,0,0,0,0,-1,1742,1093,0,0
525,-69,0,0,0,0,0,0,0,0,0,-1,1749,1093,0,0
532,-69,0,0,0,0,0,0,0,0,0,-1,1756,1093,0,0
539,-69,0,0,0,0,0,0,0,0,0,-1,1763,1093,0,0
546,-69,0,0,0,0,0,0,0,0,0,-1,1770,1093,0,0
553,-69,0,0,0,0,0,0,0,0,0,-1,1777,1093,0,0
560,-69,0,0,0,0,0,0,0,0,0,-1,1784,1093,0,0
567,-69,0,0,0,0,0,0,0,0,0,-1,1791,1093,0,0
574,-69,0,0,0,0,0,0,0,0,0,-1,1798,1093,0,0
581,-69,0,0,0,0,0,0,0,0,0,-1,1805,1093,0,0
588,-69,0,0,0,0,0,0,0,0,0,-1,1812,1093,0,0
595,-69,0,0,0,0,0,0,0,0,0,-1,1819,1093,0,0
602,-69,0,0,0,0,0,0,0,0,0,-1,1826,1093,0,0
609,-69,0,0,0,0,0,0,0,0,0,-1,1833,1093,0,0
616,-69,0,0,0,0,0,0,0,0,0,-1,1840,1093,0,0
623,-69,0,0,0,0,0,0,0,0,0,-1,1847,1093,0,0
630,-69,0,0,0,0,0,0,0,0,0,-1,1854,1093,0,0
637,-69,0,0,0,0,0,0,0,0,0,-1,1861,1093,0,0
644,-69,0,0,0,0,0,0,0,0,0,-1,1868,1093,0,0
651,-69,30.191,2.99243,0.00224219,0.000578499,-0.00053078,0.0023971,0.000423585,-0.283973,0.00147726,0.0394583,1875,1093,30.191,-2.99247
658,-69,30.6354,2.71411,0.00171469,0.000430421,0.000249423,0.00176143,0.00038368,0.185245,0.00106958,0.0411875,1882,1093,30.6353,-2.71415
665,-69,30.6315,2.87756,0.00124409,0.000241048,0.000811358,0.00169642,-0.000211278,0.508577,0.00120755,0.0419464,1889,1093,30.6315,-2.87753
672,-69,30.4519,2.927,0.000917367,-0.000247028,0.00158565,0.00202432,-0.00135398,0.609456,0.00196322,0.0367033,1896,1093,30.452,-2.92703
679,-69,30.3779,2.91748,0.0004647,-0.000837613,0.00236937,0.00227076,-0.00264367,0.651297,0.00284007,0.0354596,1903,1093,30.378,-2.9175
686,-69,30.3622,2.8623,-5.64157e-05,-0.0014082,0.00298191,0.00232524,-0.00378986,0.673949,0.00356415,0.0377859,1910,1093,30.3622,-2.86235
693,-69,30.3336,2.8562,-0.000439023,-0.00187136,0.00341974,0.00233873,-0.00464912,0.682178,0.00410728,0.0353631,1917,1093,30.3336,-2.8562
700,-69,30.3638,2.80103,-0.000761985,-0.00210677,0.00374273,0.00236827,-0.00523703,0.69652,0.00449384,0.0312876,1924,1093,30.3638,-2.80103
707,-69,30.3389,2.7843,-0.00116115,-0.00223845,0.00396276,0.0022994,-0.00569901,0.717848,0.00475489,0.0234733,1931,1093,30.3389,-2.78426
714,-69,30.3729,2.76563,-0.00135861,-0.00223509,0.00401056,0.00223758,-0.00583129,0.730979,0.00481011,0.027146,1938,1093,30.3729,-2.76566
721,-69,30.0566,3.91467,0,0,0,0,0,0,0,-1,1945,1093,30.0566,-3.91469
728,-69,29.2593,5.26282,0,0,0,0,0,0,0,-1,1952,1093,29.2592,-5.26282
735,-69,29.4052,5.07617,-0.00204353,-0.00124715,0.00306996,0.00145033,-0.00474101,0.849891,0.00373908,0.0229578,1959,1093,29.4051,-5.07622
742,-69,29.3904,4.95203,-0.00194982,-5.91922e-05,0.00208619,0.00128587,-0.00329488,0.998125,0.00272816,0.0177495,1966,1093,29.3903,-4.95206
749,-69,29.3027,4.81775,-0.00129937,0.00153954,0.000842435,0.00177071,-0.00153054,1.30299,0.00190766,0.0189835,1973,1093,29.3028,-4.8177
756,-69,29.3356,4.73157,0.000410588,0.00224812,-0.00033117,0.00230598,0.000352725,-1.39782,0.00143428,0.0144713,1980,1093,29.3356,-4.73153
763,-69,29.3298,4.59106,0.00377809,0.00274991,-0.00171926,0.00505847,0.00146953,-0.640119,0.00300474,0.0154202,1987,1093,29.3299,-4.59102
770,-69,29.3147,4.46021,0.00765372,0.00366719,-0.00364409,0.00981407,0.00150684,-0.535135,0.00610276,0.0156626,1994,1093,29.3147,-4.46021
777,-69,29.2571,4.32629,0.0134117,0.00390422,-0.00533875,0.0158064,0.00150951,-0.421649,0.0100722,0.0205317,2001,1093,29.2571,-4.3263
784,-69,29.2578,3.94336,0.0209188,0.00327774,-0.00669686,0.023173,0.00102354,-0.324693,0.015119,0.0307587,2008,1093,29.2578,-3.9433
791,-69,29.406,3.38403,0.0304594,0.00165378,-0.00759044,0.0323371,-0.000223946,-0.242511,0.0216331,0.040336,2015,1093,29.406,-3.38397
798,-69,29.5835,2.87219,0.0430335,-0.00153827,-0.00776092,0.0443462,-0.00285095,-0.167555,0.0305588,0.0450921,2022,1093,29.5836,-2.87214
805,-69,29.3667,2.56934,0,0,0,0,0,0,0,-1,2029,1093,29.3666,-2.56939
812,-69,29.479,-0.467163,0,0,0,0,0,0,0,-1,2036,1093,29.479,0.467182
-700,-76,0,0,0,0,0,0,0,0,0,-1,524,1100,0,0
-693,-76,-19.287,-0.71582,0.0680633,0.0767159,0.061918,0.134459,0.0103207,0.820277,0.0864045,0.0477466,531,1100,-19.287,0.71585
-686,-76,-19.2378,0.394653,0.0566395,0.0646179,0.050707,0.111492,0.00976503,0.824653,0.0712965,0.0486157,538,1100,-19.2378,-0.394708
-679,-76,-20.2781,0.774414,0,0,0,0,0,0,0,-1,545,1100,-20.2781,-0.774409
-672,-76,-20.6195,0.858521,0,0,0,0,0,0,0,-1,552,1100,-20.6195,-0.858483
-665,-76,-20.5441,1.08972,0.0281974,0.0333374,0.0242652,0.0551683,0.00636646,0.838157,0.0348511,0.0459408,559,1100,-20.544,-1.08976
-658,-76,-20.4208,1.36804,0.0210365,0.0253692,0.0179632,0.0412962,0.00510951,0.845408,0.0259956,0.0428044,566,1100,-20.4208,-1.36801
-651,-76,-20.1569,1.46216,0.0151624,0.0187161,0.0128599,0.0299213,0.00395717,0.854047,0.0187681,0.0292007,573,1100,-20.1569,-1.46217
-644,-76,-20.137,1.62695,0.0103646,0.0132647,0.00860147,0.0205375,0.00309184,0.868904,0.0127863,0.0106241,580,1100,-20.1369,-1.6269
-637,-76,-20.171,1.78589,0.0059441,0.00866271,0.00463554,0.0121341,0.00247268,0.928018,0.00740413,0.0135924,587,1100,-20.171,-1.78584
-630,-76,-20.1928,1.9375,0.00189135,0.00432674,0.000592247,0.00446312,0.00175496,1.34446,0.0025963,0.0150937,594,1100,-20.1928,-1.93755
-623,-76,-20.1998,2.11133,-0.000233563,0.00104301,-0.00240958,0.00289741,-0.00208796,-0.914872,0.00289092,0.0142953,601,1100,-20.1998,-2.11134
-616,-76,-20.2114,2.25049,-0.00167936,-0.000618477,-0.00430732,0.00319095,-0.00548878,-0.846664,0.00506944,0.0133085,608,1100,-20.2114,-2.25053
-609,-76,-20.2104,2.39844,-0.00265914,-0.00162453,-0.00521715,0.00310089,-0.00738456,-0.834814,0.0062199,0.0141409,615,1100,-20.2105,-2.39843
-602,-76,-20.1913,2.56738,-0.00307161,-0.00229698,-0.00645722,0.00378453,-0.00915311,-0.815353,0.00768092,0.0171553,622,1100,-20.1913,-2.56738
-595,-76,-20.1623,2.70557,-0.00314715,-0.00276524,-0.00726348,0.0043098,-0.0102222,-0.79854,0.00861841,0.0212553,629,1100,-20.1623,-2.70552
-588,-76,-20.4348,2.32935,-0.00311236,-0.00311634,-0.00741273,0.00429838,-0.0105271,-0.785264,0.00880769,0.0369652,636,1100,-20.4348,-2.32931
-581,-76,-21.1208,0.973877,0,0,0,0,0,0,0,-1,643,1100,-21.1208,-0.97391
-574,-76,-21.1117,0.910767,-0.00272737,-0.00323801,-0.00654002,0.00356231,-0.00952769,-0.765888,0.00781473,0.0349107,650,1100,-21.1117,-0.91076
-567,-76,-21.1494,0.846313,-0.00226113,-0.00299253,-0.00554643,0.00293165,-0.00818531,-0.752478,0.00665299,0.0393935,657,1100,-21.1493,-0.846264
-560,-76,-21.2098,0.670654,-0.001622,-0.00252474,-0.00401391,0.00196584,-0.00611258,-0.729408,0.00486459,0.0396485,664,1100,-21.2098,-0.670606
-553,-76,-21.1752,0.737061,-0.000865597,-0.00188322,-0.00190554,0.00059789,-0.0033467,-0.654934,0.00245482,0.040565,671,1100,-21.1752,-0.737085
-546,-76,-21.1465,0.761963,7.53882e-07,-0.00114782,0.000858773,0.000459567,-0.00160664,0.490683,0.0012527,0.0373832,678,1100,-21.1465,-0.761911
-539,-76,-21.0919,0.835449,0.000592843,-0.00043929,0.00384145,0.00395274,-0.00379919,0.718627,0.00447587,0.0395163,685,1100,-21.0918,-0.835449
-532,-76,-20.981,0.889404,-0.000583984,-0.000886524,0.00506824,0.00433524,-0.00580575,0.770479,0.00587538,0.0436609,692,1100,-20.9809,-0.889369
-525,-76,0,0,0,0,0,0,0,0,0,-1,699,1100,0,0
-518,-76,0,0,0,0,0,0,0,0,0,-1,706,1100,0,0
-511,-76,0,0,0,0,0,0,0,0,0,-1,713,1100,0,0
-504,-76,0,0,0,0,0,0,0,0,0,-1,720,1100,0,0
-497,-76,0,0,0,0,0,0,0,0,0,-1,727,1100,0,0
-490,-76,0,0,0,0,0,0,0,0,0,-1,734,1100,0,0
-483,-76,0,0,0,0,0,0,0,0,0,-1,741,1100,0,0
-476,-76,0,0,0,0,0,0,0,0,0,-1,748,1100,0,0
-469,-76,0,0,0,0,0,0,0,0,0,-1,755,1100,0,0
-462,-76,0,0,0,0,0,0,0,0,0,-1,762,1100,0,0
-455,-76,0,0,0,0,0,0,0,0,0,-1,769,1100,0,0
-448,-76,0,0,0,0,0,0,0,0,0,-1,776,1100,0,0
-441,-76,0,0,0,0,0,0,0,0,0,-1,783,1100,0,0
-434,-76,0,0,0,0,0,0,0,0,0,-1,790,1100,0,0
-427,-76,0,0,0,0,0,0,0,0,0,-1,797,1100,0,0
-420,-76,0,0,0,0,0,0,0,0,0,-1,804,1100,0,0
-413,-76,0,0,0,0,0,0,0,0,0,-1,811,1100,0,0
-406,-76,0,0,0,0,0,0,0,0,0,-1,818,1100,0,0
-399,-76,0,0,0,0,0,0,0,0,0,-1,825,1100,0,0
-392,-76,0,0,0,0,0,0,0,0,0,-1,832,1100,0,0
-385,-76,0,0,0,0,0,0,0,0,0,-1,839,1100,0,0
-378,-76,0,0,0,0,0,0,0,0,0,-1,846,1100,0,0
-371,-76,0,0,0,0,0,0,0,0,0,-1,853,1100,0,0
-364,-76,0,0,0,0,0,0,0,0,0,-1,860,1100,0,0
-357,-76,0,0,0,0,0,0,0,0,0,-1,867,1100,0,0
-350,-76,0,0,0,0,0,0,0,0,0,-1,874,1100,0,0
-343,-76,0,0,0,0,0,0,0,0,0,-1,881,1100,0,0
-336,-76,0,0,0,0,0,0,0,0,0,-1,888,1100,0,0
-329,-76,0,0,0,0,0,0,0,0,0,-1,895,1100,0,0
-322,-76,0,0,0,0,0,0,0,0,0,-1,902,1100,0,0
-315,-76,0,0,0,0,0,0,0,0,0,-1,909,1100,0,0
-308,-76,0,0,0,0,0,0,0,0,0,-1,916,1100,0,0
-301,-76,0,0,0,0,0,0,0,0,0,-1,923,1100,0,0
-294,-76,0,0,0,0,0,0,0,0,0,-1,930,1100,0,0
-287,-76,0,0,0,0,0,0,0,0,0,-1,937,1100,0,0
-280,-76,0,0,0,0,0,0,0,0,0,-1,944,1100,0,0
-273,-76,0,0,0,0,0,0,0,0,0,-1,951,1100,0,0
-266,-76,0,0,0,0,0,0,0,0,0,-1,958,1100,0,0
-259,-76,0,0,0,0,0,0,0,0,0,-1,965,1100,0,0
-252,-76,0,0,0,0,0,0,0,0,0,-1,972,1100,0,0
-245,-76,0,0,0,0,0,0,0,0,0,-1,979,1100,0,0
-238,-76,0,0,0,0,0,0,0,0,0,-1,986,1100,0,0
-231,-76,0,0,0,0,0,0,0,0,0,-1,993,1100,0,0
-224,-76,0,0,0,0,0,0,0,0,0,-1,1000,1100,0,0
-217,-76,0,0,0,0,0,0,0,0,0,-1,1007,1100,0,0
-210,-76,0,0,0,0,0,0,0,0,0,-1,1014,1100,0,0
-203,-76,0,0,0,0,0,0,0,0,0,-1,1021,1100,0,0
-196,-76,0,0,0,0,0,0,0,0,0,-1,1028,1100,0,0
-189,-76,0,0,0,0,0,0,0,0,0,-1,1035,1100,0,0
-182,-76,0,0,0,0,0,0,0,0,0,-1,1042,1100,0,0
-175,-76,0,0,0,0,0,0,0,0,0,-1,1049,1100,0,0
-168,-76,0,0,0,0,0,0,0,0,0,-1,1056,1100,0,0
-161,-76,0,0,0,0,0,0,0,0,0,-1,1063,1100,0,0
-154,-76,0,0,0,0,0,0,0,0,0,-1,1070,1100,0,0
-147,-76,0,0,0,0,0,0,0,0,0,-1,1077,1100,0,0
-140,-76,0,0,0,0,0,0,0,0,0,-1,1084,1100,0,0
-133,-76,0,0,0,0,0,0,0,0,0,-1,1091,1100,0,0
-126,-76,0,0,0,0,0,0,0,0,0,-1,1098,1100,0,0
-119,-76,0,0,0,0,0,0,0,0,0,-1,1105,1100,0,0
-112,-76,0,0,0,0,0,0,0,0,0,-1,1112,1100,0,0
-105,-76,0,0,0,0,0,0,0,0,0,-1,1119,1100,0,0
-98,-76,0,0,0,0,0,0,0,0,0,-1,1126,1100,0,0
-91,-76,0,0,0,0,0,0,0,0,0,-1,1133,1100,0,0
-84,-76,0,0,0,0,0,0,0,0,0,-1,1140,1100,0,0
-77,-76,0,0,0,0,0,0,0,0,0,-1,1147,1100,0,0
-70,-76,0,0,0,0,0,0,0,0,0,-1,1154,1100,0,0
-63,-76,0,0,0,0,0,0,0,0,0,-1,1161,1100,0,0
-56,-76,0,0,0,0,0,0,0,0,0,-1,1168,1100,0,0
-49,-76,0,0,0,0,0,0,0,0,0,-1,1175,1100,0,0
-42,-76,0,0,0,0,0,0,0,0,0,-1,1182,1100,0,0
-35,-76,0,0,0,0,0,0,0,0,0,-1,1189,1100,0,0
-28,-76,0,0,0,0,0,0,0,0,0,-1,1196,1100,0,0
-21,-76,0,0,0,0,0,0,0,0,0,-1,1203,1100,0,0
-14,-76,0,0,0,0,0,0,0,0,0,-1,1210,1100,0,0
-7,-76,0,0,0,0,0,0,0,0,0,-1,1217,1100,0,0
0,-76,0,0,0,0,0,0,0,0,0,-1,1224,1100,0,0
7,-76,0,0,0,0,0,0,0,0,0,-1,1231,1100,0,0
14,-76,0,0,0,0,0,0,0,0,0,-1,1238,1100,0,0
21,-76,0,0,0,0,0,0,0,0,0,-1,1245,1100,0,0
28,-76,0,0,0,0,0,0,0,0,0,-1,1252,1100,0,0
35,-76,0,0,0,0,0,0,0,0,0,-1,1259,1100,0,0
42,-76,0,0,0,0,0,0,0,0,0,-1,1266,1100,0,0
49,-76,0,0,0,0,0,0,0,0,0,-1,1273,1100,0,0
56,-76,0,0,0,0,0,0,0,0,0,-1,1280,1100,0,0
63,-76,0,0,0,0,0,0,0,0,0,-1,1287,1100,0,0
70,-76,0,0,0,0,0,0,0,0,0,-1,1294,1100,0,0
77,-76,0,0,0,0,0,0,0,0,0,-1,1301,1100,0,0
84,-76,0,0,0,0,0,0,0,0,0,-1,1308,1100,0,0
91,-76,0,0,0,0,0,0,0,0,0,-1,1315,1100,0,0
98,-76,0,0,0,0,0,0,0,0,0,-1,1322,1100,0,0
105,-76,0,0,0,0,0,0,0,0,0,-1,1329,1100,0,0
112,-76,0,0,0,0,0,0,0,0,0,-1,1336,1100,0,0
119,-76,0,0,0,0,0,0,0,0,0,-1,1343,1100,0,0
126,-76,0,0,0,0,0,0,0,0,0,-1,1350,1100,0,0
133,-76,0,0,0,0,0,0,0,0,0,-1,1357,1100,0,0
140,-76,0,0,0,0,0,0,0,0,0,-1,1364,1100,0,0
147,-76,0,0,0,0,0,0,0,0,0,-1,1371,1100,0,0
154,-76,0,0,0,0,0,0,0,0,0,-1,1378,1100,0,0
161,-76,0,0,0,0,0,0,0,0,0,-1,1385,1100,0,0
168,-76,0,0,0,0,0,0,0,0,0,-1,1392,1100,0,0
175,-76,0,0,0,0,0,0,0,0,0,-1,1399,1100,0,0
182,-76,0,0,0,0,0,0,0,0,0,-1,1406,1100,0,0
189,-76,0,0,0,0,0,0,0,0,0,-1,1413,1100,0,0
196,-76,0,0,0,0,0,0,0,0,0,-1,1420,1100,0,0
203,-76,0,0,0,0,0,0,0,0,0,-1,1427,1100,0,0
210,-76,0,0,0,0,0,0,0,0,0,-1,1434,1100,0,0
217,-76,0,0,0,0,0,0,0,0,0,-1,1441,1100,0,0
224,-76,0,0,0,0,0,0,0,0,0,-1,1448,1100,0,0
231,-76,0,0,0,0,0,0,0,0,0,-1,1455,1100,0,0
238,-76,0,0,0,0,0,0,0,0,0,-1,1462,1100,0,0
245,-76,0,0,0,0,0,0,0,0,0,-1,1469,1100,0,0
252,-76,0,0,0,0,0,0,0,0,0,-1,1476,1100,0,0
259,-76,0,0,0,0,0,0,0,0,0,-1,1483,1100,0,0
266,-76,0,0,0,0,0,0,0,0,0,-1,1490,1100,0,0
273,-76,0,0,0,0,0,0,0,0,0,-1,1497,1100,0,0
280,-76,0,0,0,0,0,0,0,0,0,-1,1504,1100,0,0
287,-76,0,0,0,0,0,0,0,0,0,-1,1511,1100,0,0
294,-76,0,0,0,0,0,0,0,0,0,-1,1518,1100,0,0
301,-76,0,0,0,0,0,0,0,0,0,-1,1525,1100,0,0
308,-76,0,0,0,0,0,0,0,0,0,-1,1532,1100,0,0
315,-76,0,0,0,0,0,0,0,0,0,-1,1539,1100,0,0
322,-76,0,0,0,0,0,0,0,0,0,-1,1546,1100,0,0
329,-76,0,0,0,0,0,0,0,0,0,-1,1553,1100,0,0
336,-76,0,0,0,0,0,0,0,0,0,-1,1560,1100,0,0
343,-76,0,0,0,0,0,0,0,0,0,-1,1567,1100,0,0
350,-76,0,0,0,0,0,0,0,0,0,-1,1574,1100,0,0
357,-76,0,0,0,0,0,0,0,0,0,-1,1581,1100,0,0
364,-76,0,0,0,0,0,0,0,0,0,-1,1588,1100,0,0
371,-76,0,0,0,0,0,0,0,0,0,-1,1595,1100,0,0
378,-76,0,0,0,0,0,0,0,0,0,-1,1602,1100,0,0
385,-76,0,0,0,0,0,0,0,0,0,-1,1609,1100,0,0
392,-76,0,0,0,0,0,0,0,0,0,-1,1616,1100,0,0
399,-76,0,0,0,0,0,0,0,0,0,-1,1623,1100,0,0
406,-76,0,0,0,0,0,0,0,0,0,-1,1630,1100,0,0
413,-76,0,0,0,0,0,0,0,0,0,-1,1637,1100,0,0
420,-76,0,0,0,0,0,0,0,0,0,-1,1644,1100,0,0
427,-76,0,0,0,0,0,0,0,0,0,-1,1651,1100,0,0
434,-76,0,0,0,0,0,0,0,0,0,-1,1658,1100,0,0
441,-76,0,0,0,0,0,0,0,0,0,-1,1665,1100,0,0
448,-76,0,0,0,0,0,0,0,0,0,-1,1672,1100,0,0
455,-76,0,0,0,0,0,0,0,0,0,-1,1679,1100,0,0
462,-76,0,0,0,0,0,0,0,0,0,-1,1686,1100,0,0
469,-76,0,0,0,0,0,0,0,0,0,-1,1693,1100,0,0
476,-76,0,0,0,0,0,0,0,0,0,-1,1700,1100,0,0
483,-76,0,0,0,0,0,0,0,0,0,-1,1707,1100,0,0
490,-76,0,0,0,0,0,0,0,0,0,-1,1714,1100,0,0
497,-76,0,0,0,0,0,0,0,0,0,-1,1721,1100,0,0
504,-76,0,0,0,0,0,0,0,0,0,-1,1728,1100,0,0
511,-76,0,0,0,0,0,0,0,0,0,-1,1735,1100,0,0
518,-76,0,0,0,0,0,0,0,0,0,-1,1742,1100,0,0
525,-76,0,0,0,0,0,0,0,0,0,-1,1749,1100,0,0
532,-76,0,0,0,0,0,0,0,0,0,-1,1756,1100,0,0
539,-76,0,0,0,0,0,0,0,0,0,-1,1763,1100,0,0
546,-76,0,0,0,0,0,0,0,0,0,-1,1770,1100,0,0
553,-76,0,0,0,0,0,0,0,0,0,-1,1777,1100,0,0
560,-76,0,0,0,0,0,0,0,0,0,-1,1784,1100,0,0
567,-76,0,0,0,0,0,0,0,0,0,-1,1791,1100,0,0
574,-76,0,0,0,0,0,0,0,0,0,-1,1798,1100,0,0
581,-76,0,0,0,0,0,0,0,0,0,-1,1805,1100,0,0
588,-76,0,0,0,0,0,0,0,0,0,-1,1812,1100,0,0
595,-76,0,0,0,0,0,0,0,0,0,-1,1819,1100,0,0
602,-76,0,0,0,0,0,0,0,0,0,-1,1826,1100,0,0
609,-76,0,0,0,0,0,0,0,0,0,-1,1833,1100,0,0
616,-76,0,0,0,0,0,0,0,0,0,-1,1840,1100,0,0
623,-76,0,0,0,0,0,0,0,0,0,-1,1847,1100,0,0
630,-76,0,0,0,0,0,0,0,0,0,-1,1854,1100,0,0
637,-76,0,0,0,0,0,0,0,0,0,-1,1861,1100,0,0
644,-76,0,0,0,0,0,0,0,0,0,-1,1868,1100,0,0
651,-76,30.3531,2.6637,0.00258031,0.000141416,-0.00104752,0.00296845,-0.000246727,-0.354851,0.00206613,0.0376639,1875,1100,30.3531,-2.66368
658,-76,30.3345,2.78149,0.0019552,-4.39774e-05,1.19111e-05,0.00195528,-4.40484e-05,0.00595772,0.00131845,0.0423882,1882,1100,30.3345,-2.78153
665,-76,30.5433,2.78015,0.00143715,-0.000256253,0.000774349,0.00173784,-0.000556948,0.370398,0.00138214,0.0408682,1889,1100,30.5433,-2.78018
672,-76,30.4525,2.74438,0.00106433,-0.000761582,0.00165313,0.00203985,-0.0017371,0.53311,0.00218296,0.0367308,1896,1100,30.4525,-2.74438
679,-76,30.2803,2.80469,0.000557329,-0.00131883,0.00244218,0.0022354,-0.0029969,0.602029,0.00303151,0.035694,1903,1100,30.2803,-2.80475
686,-76,30.3729,2.93652,1.55325e-05,-0.00182515,0.00300971,0.00224248,-0.00405209,0.637018,0.00368389,0.0348279,1910,1100,30.373,-2.93648
693,-76,30.4932,2.91235,-0.000376214,-0.00221273,0.00338591,0.00221375,-0.00480269,0.652983,0.00414184,0.0357481,1917,1100,30.4931,-2.91238
700,-76,30.3815,2.80225,-0.000722544,-0.00237382,0.0036656,0.00220926,-0.00530562,0.674627,0.00445979,0.0332154,1924,1100,30.3815,-2.80223
707,-76,30.3483,2.79175,-0.0011297,-0.00244411,0.00385192,0.00212068,-0.00569449,0.700903,0.0046667,0.0239328,1931,1100,30.3483,-2.79174
714,-76,30.3083,3.34399,0,0,0,0,0,0,0,-1,1938,1100,30.3084,-3.34404
721,-76,29.8601,4.36353,0,0,0,0,0,0,0,-1,1945,1100,29.8601,-4.36353
728,-76,29.4103,5.15002,-0.00176347,-0.00190283,0.00342533,0.00159289,-0.00525919,0.775228,0.00414051,0.0315694,1952,1100,29.4102,-5.14999
735,-76,29.0778,5.11023,-0.00201812,-0.00134302,0.00281851,0.00115808,-0.00451922,0.844995,0.00346398,0.0267132,1959,1100,29.0777,-5.11027
742,-76,29.2208,4.96191,-0.00197119,-0.000145591,0.00179539,0.000955717,-0.0030725,1.02058,0.00243037,0.0175296,1966,1100,29.2209,-4.96197
749,-76,29.1707,4.8103,-0.00130635,0.00133442,0.000502203,0.0014267,-0.00139863,1.38907,0.00163124,0.0180198,1973,1100,29.1706,-4.81034
756,-76,29.2079,4.70935,0.000515155,0.00179625,-0.000778398,0.00216377,0.000147633,-1.12968,0.00139591,0.0146425,1980,1100,29.2079,-4.70941
763,-76,29.2056,4.55847,0.00415925,0.00186692,-0.00229049,0.00557435,0.000451824,-0.553414,0.00357515,0.0149358,1987,1100,29.2056,-4.55852
770,-76,29.1338,4.45093,0.0083437,0.00222504,-0.00441501,0.0106558,-8.70167e-05,-0.482413,0.00713302,0.015658,1994,1100,29.1338,-4.45094
777,-76,29.0735,4.4043,0.0144279,0.0015845,-0.00633383,0.0170259,-0.00101353,-0.389255,0.0117031,0.0192018,2001,1100,29.0735,-4.40432
784,-76,29.2163,4.17639,0.0223582,-9.61271e-05,-0.00800994,0.0249227,-0.00266056,-0.309845,0.0175692,0.0305392,2008,1100,29.2163,-4.1764
791,-76,29.4441,3.30945,0.0325441,-0.00307357,-0.00930922,0.0348305,-0.00535991,-0.240833,0.0251977,0.0407112,2015,1100,29.444,-3.30946
798,-76,29.5845,2.71033,0.045978,-0.00798337,-0.00996482,0.0477593,-0.00976473,-0.176896,0.0355444,0.0454594,2022,1100,29.5845,-2.71031
805,-76,28.1909,-0.24585,0.0634815,-0.0154569,-0.0094657,0.0646007,-0.0165761,-0.11769,0.049526,0.046553,2029,1100,28.191,0.245836
812,-76,29.3823,-0.228882,0.0859709,-0.0263753,-0.00700367,0.0864058,-0.0268102,-0.0620201,0.0683173,0.04408,2036,1100,29.3823,0.22892
-700,-83,0,0,0,0,0,0,0,0,0,-1,524,1107,0,0
-693,-83,-19.6392,-1.29639,0.0471709,0.0749111,0.0708147,0.133201,-0.0111192,0.882107,0.0927297,0.0457954,531,1107,-19.6392,1.29644
-686,-83,-19.8284,-0.35022,0.039726,0.0621399,0.0571522,0.109174,-0.00730763,0.882214,0.0753365,0.0482231,538,1107,-19.8284,0.350194
-679,-83,-20.2527,0.323364,0.0326032,0.0504536,0.0452327,0.0876333,-0.0045765,0.882805,0.0600059,0.0461732,545,1107,-20.2527,-0.323321
-672,-83,-20.3527,0.501953,0.026071,0.0400797,0.0350131,0.0687822,-0.00263143,0.88412,0.0467566,0.0429123,552,1107,-20.3527,-0.501971
-665,-83,-20.4022,0.689209,0.0202065,0.0310732,0.02639,0.0525833,-0.00130367,0.886924,0.0354981,0.0434047,559,1107,-20.4022,-0.689187
-658,-83,-19.9351,0.887085,0,0,0,0,0,0,0,-1,566,1107,-19.935,-0.88709
-651,-83,-20.0201,1.28955,0.0108764,0.0171561,0.0135811,0.0279556,7.69729e-05,0.898999,0.0186114,0.030619,573,1107,-20.0201,-1.28961
-644,-83,-19.9511,1.54663,0.00742169,0.0120779,0.00896783,0.0190149,0.000484692,0.912398,0.0125182,0.0151576,580,1107,-19.9511,-1.5466
-637,-83,-19.975,1.74609,0.0040974,0.00771621,0.00480044,0.0110369,0.000776683,0.965627,0.00711321,0.0119448,587,1107,-19.975,-1.74608
-630,-83,-19.9974,1.94055,0.000925828,0.00407409,0.000867612,0.00429735,0.000702561,1.31893,0.0026618,0.0165392,594,1107,-19.9974,-1.94059
-623,-83,-20.0218,2.09863,-0.00062766,0.000820323,-0.00216996,0.00238388,-0.00219122,-0.946413,0.00264222,0.0155145,601,1107,-20.0218,-2.09863
-616,-83,-20.0417,2.24988,-0.00173845,-0.000880043,-0.00403246,0.00274599,-0.00536448,-0.838417,0.00476323,0.013024,608,1107,-20.0417,-2.24982
-609,-83,-20.0242,2.41199,-0.0025504,-0.00179169,-0.00476628,0.00261031,-0.0069524,-0.82511,0.0057076,0.0130883,615,1107,-20.0242,-2.412
-602,-83,-20.0289,2.59802,-0.00290352,-0.00242714,-0.00582978,0.00316931,-0.00849997,-0.805816,0.00696764,0.0146403,622,1107,-20.0289,-2.59803
-595,-83,-19.9774,2.79346,-0.00298095,-0.00295895,-0.00646403,0.00349409,-0.00943399,-0.786249,0.00772217,0.0177849,629,1107,-19.9774,-2.7935
-588,-83,-20.2803,2.35474,-0.00292297,-0.00338267,-0.00655109,0.0034023,-0.00970794,-0.767862,0.00785561,0.0434456,636,1107,-20.2803,-2.35473
-581,-83,-20.9268,1.28357,0,0,0,0,0,0,0,-1,643,1107,-20.9268,-1.28362
-574,-83,-21.0956,0.926392,-0.00245883,-0.00364507,-0.00577778,0.00275619,-0.00886009,-0.73425,0.0070085,0.0368336,650,1107,-21.0956,-0.926415
-567,-83,-21.1295,0.96521,-0.00197215,-0.00349904,-0.00492846,0.00225165,-0.00772283,-0.708556,0.00604064,0.0405738,657,1107,-21.1295,-0.965179
-560,-83,-21.1214,0.605103,-0.00131944,-0.00313742,-0.003649,0.00153209,-0.00598894,-0.663329,0.00458937,0.0406403,664,1107,-21.1214,-0.605142
-553,-83,-21.056,0.660767,-0.000561081,-0.00259552,-0.00192758,0.000601213,-0.00375782,-0.54261,0.00272779,0.0418613,671,1107,-21.056,-0.660784
-546,-83,-21.0476,0.777344,0.000313829,-0.00193391,0.000286032,0.000349657,-0.00196974,0.124608,0.00144389,0.0408529,678,1107,-21.0476,-0.777289
-539,-83,-21.0207,0.883667,0.00103983,-0.00127234,0.00265166,0.00277646,-0.00300898,0.579829,0.00334113,0.0441841,685,1107,-21.0207,-0.883641
-532,-83,-20.9808,0.894287,0.000204158,-0.00170393,0.0033732,0.00275564,-0.00425541,0.647583,0.00407858,0.0467876,692,1107,-20.9809,-0.89432
-525,-83,0,0,0,0,0,0,0,0,0,-1,699,1107,0,0
-518,-83,0,0,0,0,0,0,0,0,0,-1,706,1107,0,0
-511,-83,0,0,0,0,0,0,0,0,0,-1,713,1107,0,0
-504,-83,0,0,0,0,0,0,0,0,0,-1,720,1107,0,0
-497,-83,0,0,0,0,0,0,0,0,0,-1,727,1107,0,0
-490,-83,0,0,0,0,0,0,0,0,0,-1,734,1107,0,0
-483,-83,0,0,0,0,0,0,0,0,0,-1,741,1107,0,0
-476,-83,0,0,0,0,0,0,0,0,0,-1,748,1107,0,0
-469,-83,0,0,0,0,0,0,0,0,0,-1,755,1107,0,0
-462,-83,0,0,0,0,0,0,0,0,0,-1,762,1107,0,0
-455,-83,0,0,0,0,0,0,0,0,0,-1,769,1107,0,0
-448,-83,0,0,0,0,0,0,0,0,0,-1,776,1107,0,0
-441,-83,0,0,0,0,0,0,0,0,0,-1,783,1107,0,0
-434,-83,0,0,0,0,0,0,0,0,0,-1,790,1107,0,0
-427,-83,0,0,0,0,0,0,0,0,0,-1,797,1107,0,0
-420,-83,0,0,0,0,0,0,0,0,0,-1,804,1107,0,0
-413,-83,0,0,0,0,0,0,0,0,0,-1,811,1107,0,0
-406,-83,0,0,0,0,0,0,0,0,0,-1,818,1107,0,0
-399,-83,0,0,0,0,0,0,0,0,0,-1,825,1107,0,0
-392,-83,0,0,0,0,0,0,0,0,0,-1,832,1107,0,0
-385,-83,0,0,0,0,0,0,0,0,0,-1,839,1107,0,0
-378,-83,0,0,0,0,0,0,0,0,0,-1,846,1107,0,0
-371,-83,0,0,0,0,0,0,0,0,0,-1,853,1107,0,0
-364,-83,0,0,0,0,0,0,0,0,0,-1,860,1107,0,0
-357,-83,0,0,0,0,0,0,0,0,0,-1,867,1107,0,0
-350,-83,0,0,0,0,0,0,0,0,0,-1,874,1107,0,0
-343,-83,0,0,0,0,0,0,0,0,0,-1,881,1107,0,0
-336,-83,0,0,0,0,0,0,0,0,0,-1,888,1107,0,0
-329,-83,0,0,0,0,0,0,0,0,0,-1,895,1107,0,0
-322,-83,0,0,0,0,0,0,0,0,0,-1,902,1107,0,0
-315,-83,0,0,0,0,0,0,0,0,0,-1,909,1107,0,0
-308,-83,0,0,0,0,0,0,0,0,0,-1,916,1107,0,0
-301,-83,0,0,0,0,0,0,0,0,0,-1,923,1107,0,0
-294,-83,0,0,0,0,0,0,0,0,0,-1,930,1107,0,0
-287,-83,0,0,0,0,0,0,0,0,0,-1,937,1107,0,0
-280,-83,0,0,0,0,0,0,0,0,0,-1,944,1107,0,0
-273,-83,0,0,0,0,0,0,0,0,0,-1,951,1107,0,0
-266,-83,0,0,0,0,0,0,0,0,0,-1,958,1107,0,0
-259,-83,0,0,0,0,0,0,0,0,0,-1,965,1107,0,0
-252,-83,0,0,0,0,0,0,0,0,0,-1,972,1107,0,0
-245,-83,0,0,0,0,0,0,0,0,0,-1,979,1107,0,0
-238,-83,0,0,0,0,0,0,0,0,0,-1,986,1107,0,0
-231,-83,0,0,0,0,0,0,0,0,0,-1,993,1107,0,0
-224,-83,0,0,0,0,0,0,0,0,0,-1,1000,1107,0,0
-217,-83,0,0,0,0,0,0,0,0,0,-1,1007,1107,0,0
-210,-83,0,0,0,0,0,0,0,0,0,-1,1014,1107,0,0
-203,-83,0,0,0,0,0,0,0,0,0,-1,1021,1107,0,0
-196,-83,0,0,0,0,0,0,0,0,0,-1,1028,1107,0,0
-189,-83,0,0,0,0,0,0,0,0,0,-1,1035,1107,0,0
-182,-83,0,0,0,0,0,0,0,0,0,-1,1042,1107,0,0
-175,-83,0,0,0,0,0,0,0,0,0,-1,1049,1107,0,0
-168,-83,0,0,0,0,0,0,0,0,0,-1,1056,1107,0,0
-161,-83,0,0,0,0,0,0,0,0,0,-1,1063,1107,0,0
-154,-83,0,0,0,0,0,0,0,0,0,-1,1070,1107,0,0
-147,-83,0,0,0,0,0,0,0,0,0,-1,1077,1107,0,0
-140,-83,0,0,0,0,0,0,0,0,0,-1,1084,1107,0,0
-133,-83,0,0,0,0,0,0,0,0,0,-1,1091,1107,0,0
-126,-83,0,0,0,0,0,0,0,0,0,-1,1098,1107,0,0
-119,-83,0,0,0,0,0,0,0,0,0,-1,1105,1107,0,0
-112,-83,0,0,0,0,0,0,0,0,0,-1,1112,1107,0,0
-105,-83,0,0,0,0,0,0,0,0,0,-1,1119,1107,0,0
-98,-83,0,0,0,0,0,0,0,0,0,-1,1126,1107,0,0
-91,-83,0,0,0,0,0,0,0,0,0,-1,1133,1107,0,0
-84,-83,0,0,0,0,0,0,0,0,0,-1,1140,1107,0,0
-77,-83,0,0,0,0,0,0,0,0,0,-1,1147,1107,0,0
-70,-83,0,0,0,0,0,0,0,0,0,-1,1154,1107,0,0
-63,-83,0,0,0,0,0,0,0,0,0,-1,1161,1107,0,0
-56,-83,0,0,0,0,0,0,0,0,0,-1,1168,1107,0,0
-49,-83,0,0,0,0,0,0,0,0,0,-1,1175,1107,0,0
-42,-83,0,0,0,0,0,0,0,0,0,-1,1182,1107,0,0
-35,-83,0,0,0,0,0,0,0,0,0,-1,1189,1107,0,0
-28,-83,0,0,0,0,0,0,0,0,0,-1,1196,1107,0,0
-21,-83,0,0,0,0,0,0,0,0,0,-1,1203,1107,0,0
-14,-83,0,0,0,0,0,0,0,0,0,-1,1210,1107,0,0
-7,-83,0,0,0,0,0,0,0,0,0,-1,1217,1107,0,0
0,-83,0,0,0,0,0,0,0,0,0,-1,1224,1107,0,0
7,-83,0,0,0,0,0,0,0,0,0,-1,1231,1107,0,0
14,-83,0,0,0,0,0,0,0,0,0,-1,1238,1107,0,0
21,-83,0,0,0,0,0,0,0,0,0,-1,1245,1107,0,0
28,-83,0,0,0,0,0,0,0,0,0,-1,1252,1107,0,0
35,-83,0,0,0,0,0,0,0,0,0,-1,1259,1107,0,0
42,-83,0,0,0,0,0,0,0,0,0,-1,1266,1107,0,0
49,-83,0,0,0,0,0,0,0,0,0,-1,1273,1107,0,0
56,-83,0,0,0,0,0,0,0,0,0,-1,1280,1107,0,0
63,-83,0,0,0,0,0,0,0,0,0,-1,1287,1107,0,0
70,-83,0,0,0,0,0,0,0,0,0,-1,1294,1107,0,0
77,-83,0,0,0,0,0,0,0,0,0,-1,1301,1107,0,0
84,-83,0,0,0,0,0,0,0,0,0,-1,1308,1107,0,0
91,-83,0,0,0,0,0,0,0,0,0,-1,1315,1107,0,0
98,-83,0,0,0,0,0,0,0,0,0,-1,1322,1107,0,0
105,-83,0,0,0,0,0,0,0,0,0,-1,1329,1107,0,0
112,-83,0,0,0,0,0,0,0,0,0,-1,1336,1107,0,0
119,-83,0,0,0,0,0,0,0,0,0,-1,1343,1107,0,0
126,-83,0,0,0,0,0,0,0,0,0,-1,1350,1107,0,0
133,-83,0,0,0,0,0,0,0,0,0,-1,1357,1107,0,0
140,-83,0,0,0,0,0,0,0,0,0,-1,1364,1107,0,0
147,-83,0,0,0,0,0,0,0,0,0,-1,1371,1107,0,0
154,-83,0,0,0,0,0,0,0,0,0,-1,1378,1107,0,0
161,-83,0,0,0,0,0,0,0,0,0,-1,1385,1107,0,0
168,-83,0,0,0,0,0,0,0,0,0,-1,1392,1107,0,0
175,-83,0,0,0,0,0,0,0,0,0,-1,1399,1107,0,0
182,-83,0,0,0,0,0,0,0,0,0,-1,1406,1107,0,0
189,-83,0,0,0,0,0,0,0,0,0,-1,1413,1107,0,0
196,-83,0,0,0,0,0,0,0,0,0,-1,1420,1107,0,0
203,-83,0,0,0,0,0,0,0,0,0,-1,1427,1107,0,0
210,-83,0,0,0,0,0,0,0,0,0,-1,1434,1107,0,0
217,-83,0,0,0,0,0,0,0,0,0,-1,1441,1107,0,0
224,-83,0,0,0,0,0,0,0,0,0,-1,1448,1107,0,0
231,-83,0,0,0,0,0,0,0,0,0,-1,1455,1107,0,0
238,-83,0,0,0,0,0,0,0,0,0,-1,1462,1107,0,0
245,-83,0,0,0,0,0,0,0,0,0,-1,1469,1107,0,0
252,-83,0,0,0,0,0,0,0,0,0,-1,1476,1107,0,0
259,-83,0,0,0,0,0,0,0,0,0,-1,1483,1107,0,0
266,-83,0,0,0,0,0,0,0,0,0,-1,1490,1107,0,0
273,-83,0,0,0,0,0,0,0,0,0,-1,1497,1107,0,0
280,-83,0,0,0,0,0,0,0,0,0,-1,1504,1107,0,0
287,-83,0,0,0,0,0,0,0,0,0,-1,1511,1107,0,0
294,-83,0,0,0,0,0,0,0,0,0,-1,1518,1107,0,0
301,-83,0,0,0,0,0,0,0,0,0,-1,1525,1107,0,0
308,-83,0,0,0,0,0,0,0,0,0,-1,1532,1107,0,0
315,-83,0,0,0,0,0,0,0,0,0,-1,1539,1107,0,0
322,-83,0,0,0,0,0,0,0,0,0,-1,1546,1107,0,0
329,-83,0,0,0,0,0,0,0,0,0,-1,1553,1107,0,0
336,-83,0,0,0,0,0,0,0,0,0,-1,1560,1107,0,0
343,-83,0,0,0,0,0,0,0,0,0,-1,1567,1107,0,0
350,-83,0,0,0,0,0,0,0,0,0,-1,1574,1107,0,0
357,-83,0,0,0,0,0,0,0,0,0,-1,1581,1107,0,0
364,-83,0,0,0,0,0,0,0,0,0,-1,1588,1107,0,0
371,-83,0,0,0,0,0,0,0,0,0,-1,1595,1107,0,0
378,-83,0,0,0,0,0,0,0,0,0,-1,1602,1107,0,0
385,-83,0,0,0,0,0,0,0,0,0,-1,1609,1107,0,0
392,-83,0,0,0,0,0,0,0,0,0,-1,1616,1107,0,0
399,-83,0,0,0,0,0,0,0,0,0,-1,1623,1107,0,0
406,-83,0,0,0,0,0,0,0,0,0,-1,1630,1107,0,0
413,-83,0,0,0,0,0,0,0,0,0,-1,1637,1107,0,0
420,-83,0,0,0,0,0,0,0,0,0,-1,1644,1107,0,0
427,-83,0,0,0,0,0,0,0,0,0,-1,1651,1107,0,0
434,-83,0,0,0,0,0,0,0,0,0,-1,1658,1107,0,0
441,-83,0,0,0,0,0,0,0,0,0,-1,1665,1107,0,0
448,-83,0,0,0,0,0,0,0,0,0,-1,1672,1107,0,0
455,-83,0,0,0,0,0,0,0,0,0,-1,1679,1107,0,0
462,-83,0,0,0,0,0,0,0,0,0,-1,1686,1107,0,0
469,-83,0,0,0,0,0,0,0,0,0,-1,1693,1107,0,0
476,-83,0,0,0,0,0,0,0,0,0,-1,1700,1107,0,0
483,-83,0,0,0,0,0,0,0,0,0,-1,1707,1107,0,0
490,-83,0,0,0,0,0,0,0,0,0,-1,1714,1107,0,0
497,-83,0,0,0,0,0,0,0,0,0,-1,1721,1107,0,0
504,-83,0,0,0,0,0,0,0,0,0,-1,1728,1107,0,0
511,-83,0,0,0,0,0,0,0,0,0,-1,1735,1107,0,0
518,-83,0,0,0,0,0,0,0,0,0,-1,1742,1107,0,0
525,-83,0,0,0,0,0,0,0,0,0,-1,1749,1107,0,0
532,-83,0,0,0,0,0,0,0,0,0,-1,1756,1107,0,0
539,-83,0,0,0,0,0,0,0,0,0,-1,1763,1107,0,0
546,-83,0,0,0,0,0,0,0,0,0,-1,1770,1107,0,0
553,-83,0,0,0,0,0,0,0,0,0,-1,1777,1107,0,0
560,-83,0,0,0,0,0,0,0,0,0,-1,1784,1107,0,0
567,-83,0,0,0,0,0,0,0,0,0,-1,1791,1107,0,0
574,-83,0,0,0,0,0,0,0,0,0,-1,1798,1107,0,0
581,-83,0,0,0,0,0,0,0,0,0,-1,1805,1107,0,0
588,-83,0,0,0,0,0,0,0,0,0,-1,1812,1107,0,0
595,-83,0,0,0,0,0,0,0,0,0,-1,1819,1107,0,0
602,-83,0,0,0,0,0,0,0,0,0,-1,1826,1107,0,0
609,-83,0,0,0,0,0,0,0,0,0,-1,1833,1107,0,0
616,-83,0,0,0,0,0,0,0,0,0,-1,1840,1107,0,0
623,-83,0,0,0,0,0,0,0,0,0,-1,1847,1107,0,0
630,-83,0,0,0,0,0,0,0,0,0,-1,1854,1107,0,0
637,-83,0,0,0,0,0,0,0,0,0,-1,1861,1107,0,0
644,-83,30.3887,2.70947,0.00356961,-0.000367416,-0.00375934,0.00584465,-0.00264245,-0.544211,0.00501494,0.0380515,1868,1107,30.3886,-2.70943
651,-83,30.4072,2.45105,0.00254341,-0.000451664,-0.00151432,0.00317561,-0.00108387,-0.395486,0.00255614,0.0427027,1875,1107,30.4073,-2.45104
658,-83,30.3527,2.48523,0.00196775,-0.000568123,-0.000289753,0.00200044,-0.000600809,-0.112333,0.00157263,0.0469559,1882,1107,30.3526,-2.48528
665,-83,30.2404,2.67444,0.00150221,-0.000730585,0.000603088,0.00165469,-0.000883068,0.247648,0.00148758,0.0413279,1889,1107,30.2404,-2.67445
672,-83,30.2494,2.60559,0.00116016,-0.00116523,0.00152159,0.00191243,-0.0019175,0.459155,0.00221121,0.0381699,1896,1107,30.2494,-2.60564
679,-83,30.3091,2.75159,0.000663397,-0.0016236,0.00227421,0.00206541,-0.00302562,0.552451,0.00295668,0.0378061,1903,1107,30.309,-2.75161
686,-83,30.4623,2.97864,0.00013657,-0.0020279,0.00278276,0.00204013,-0.00393146,0.599945,0.00350487,0.0345436,1910,1107,30.4622,-2.97858
693,-83,30.4141,2.88818,-0.000245616,-0.00231764,0.00310123,0.00198808,-0.00455133,0.624194,0.003871,0.0345969,1917,1107,30.414,-2.88817
700,-83,30.3717,2.85901,-0.00059011,-0.00240453,0.00334395,0.0019675,-0.00496214,0.652937,0.00412348,0.0313218,1924,1107,30.3717,-2.85902
707,-83,30.3459,2.79834,-0.001002,-0.00241269,0.00351835,0.00188102,-0.00529571,0.686472,0.00429698,0.0213591,1931,1107,30.346,-2.79828
714,-83,30.3528,3.2312,-0.00119669,-0.00233569,0.00354567,0.00182493,-0.00535731,0.705769,0.0043106,0.0463825,1938,1107,30.3528,-3.2312
721,-83,29.0054,5.37158,0,0,0,0,0,0,0,-1,1945,1107,29.0054,-5.37158
728,-83,29.0343,5.20264,-0.00165713,-0.0018002,0.00307428,0.00134645,-0.00480378,0.773766,0.00373317,0.024945,1952,1107,29.0344,-5.2026
735,-83,28.9276,5.06628,-0.00194286,-0.0012522,0.00248924,0.00091555,-0.00411061,0.854323,0.00309112,0.027274,1959,1107,28.9276,-5.06625
742,-83,29.0338,4.94946,-0.00194428,-7.83259e-05,0.00150532,0.000759697,-0.0027823,1.06282,0.00215325,0.0159805,1966,1107,29.0338,-4.94945
749,-83,29.059,4.80701,-0.00126947,0.0011731,0.000268164,0.0012022,-0.00129856,1.46272,0.00144417,0.0124293,1973,1107,29.0589,-4.80703
756,-83,29.0815,4.67212,0.000607792,0.00135728,-0.00106449,0.00211107,-0.000145994,-0.954644,0.00145848,0.0142925,1980,1107,29.0816,-4.67206
763,-83,29.0735,4.5293,0.00446451,0.000943397,-0.00263838,0.0058758,-0.000467895,-0.491183,0.00408211,0.0114512,1987,1107,29.0735,-4.52927
770,-83,29.0042,4.42627,0.00889053,0.00063131,-0.00485655,0.0111359,-0.00161401,-0.433059,0.00801625,0.0138025,1994,1107,29.0041,-4.42632
777,-83,28.9429,4.31799,0.0151779,-0.000973523,-0.00687941,0.0177108,-0.00350646,-0.352788,0.013133,0.0150564,2001,1107,28.9429,-4.318
784,-83,28.9917,4.21021,0.0233798,-0.00381175,-0.00876387,0.0259596,-0.00639159,-0.286286,0.0197841,0.02398,2008,1107,28.9917,-4.21016
791,-83,29.3397,3.33362,0.0340487,-0.00832571,-0.0103738,0.0364521,-0.0107291,-0.227657,0.0285576,0.0426167,2015,1107,29.3398,-3.33361
798,-83,27.1755,0.504639,0.0481421,-0.0151941,-0.011433,0.0501427,-0.0171947,-0.173232,0.0403988,0.0438074,2022,1107,27.1755,-0.504616
805,-83,28.0095,0.363403,0.0665081,-0.0251024,-0.0114493,0.0679174,-0.0265116,-0.122469,0.0562385,0.046943,2029,1107,28.0094,-0.363356
812,-83,29.293,0.052124,0.0901102,-0.0389763,-0.00962932,0.0908245,-0.0396907,-0.0740497,0.0772567,0.045944,2036,1107,29.2929,-0.052167
-700,-90,0,0,0,0,0,0,0,0,0,-1,524,1114,0,0
-693,-90,-20.2945,-1.18237,0,0,0,0,0,0,0,-1,531,1114,-20.2945,1.18243
-686,-90,-20.3836,-0.670898,0.0229589,0.067366,0.0647038,0.11357,-0.023245,0.950681,0.0845337,0.0452809,538,1114,-20.3836,0.670874
-679,-90,-20.3243,-0.165527,0.0191688,0.053941,0.0503187,0.0897926,-0.0166828,0.951737,0.0661279,0.0423321,545,1114,-20.3243,0.165557
-672,-90,-20.3194,0.115601,0.0155119,0.0423125,0.0383196,0.0695072,-0.0116829,0.953601,0.0506833,0.0438908,552,1114,-20.3194,-0.115621
-665,-90,-20.0158,0.317261,0.012104,0.0324053,0.0284152,0.0524284,-0.00791918,0.956947,0.037869,0.0474518,559,1114,-20.0158,-0.3173
-658,-90,-19.7504,0.904175,0.00904934,0.0241437,0.0203881,0.0383367,-0.00514366,0.962665,0.0274335,0.0439613,566,1114,-19.7504,-0.904193
-651,-90,-19.7609,1.1814,0.00649065,0.0174339,0.0140822,0.0270701,-0.00314558,0.970696,0.0191814,0.0306162,573,1114,-19.7608,-1.18136
-644,-90,-19.7993,1.46692,0.00439455,0.0121184,0.00913692,0.0181761,-0.00166308,0.985348,0.0127081,0.0142977,580,1114,-19.7993,-1.46696
-637,-90,-19.8101,1.72852,0.00221273,0.00762974,0.00483282,0.0104613,-0.00061881,1.04081,0.00718934,0.0118966,587,1114,-19.8101,-1.72853
-630,-90,-19.8076,1.91467,-2.8995e-05,0.00392349,0.000926351,0.00412983,-0.000235333,1.35163,0.00283492,0.0110666,594,1114,-19.8076,-1.9147
-623,-90,-19.8093,2.08386,-0.000940757,0.000617218,-0.00201739,0.00200079,-0.00232433,-0.969647,0.00249944,0.009481,601,1114,-19.8093,-2.08387
-616,-90,-19.8203,2.28259,-0.00165173,-0.00110183,-0.00372932,0.00236266,-0.00511622,-0.822195,0.00441441,0.00936665,608,1114,-19.8203,-2.28255
-609,-90,-19.8223,2.46228,-0.00225018,-0.00190392,-0.00418729,0.00211382,-0.00626792,-0.80606,0.00503341,0.0123804,615,1114,-19.8223,-2.46231
-602,-90,-19.8651,2.62878,-0.00251478,-0.00254654,-0.00505776,0.00252712,-0.00758844,-0.783828,0.00607903,0.0127087,622,1114,-19.8651,-2.62881
-595,-90,-19.7827,2.83972,-0.00259083,-0.00311823,-0.00553051,0.00268226,-0.00839132,-0.761576,0.00667055,0.0127032,629,1114,-19.7826,-2.83976
-588,-90,-19.9993,2.65332,-0.00252179,-0.00357308,-0.0055817,0.00255896,-0.00865383,-0.73845,0.00678501,0.0368027,636,1114,-19.9993,-2.65336
-581,-90,-21.1783,0.955078,0,0,0,0,0,0,0,-1,643,1114,-21.1784,-0.955027
-574,-90,-21.0541,0.889282,-0.00202995,-0.00394703,-0.00499403,0.0020967,-0.00807368,-0.690583,0.00620067,0.0346029,650,1114,-21.0541,-0.889328
-567,-90,-20.973,0.794312,-0.00157034,-0.00388355,-0.00434993,0.00177413,-0.00722802,-0.655459,0.00550617,0.0340607,657,1114,-20.973,-0.794358
-560,-90,-20.9513,0.800171,-0.0009687,-0.00361377,-0.00339541,0.00135266,-0.00593512,-0.599685,0.00447628,0.0373261,664,1114,-20.9513,-0.800159
-553,-90,-21.0004,0.849609,-0.000289412,-0.00316165,-0.00213857,0.000850498,-0.00430156,-0.489716,0.00318923,0.038714,671,1114,-21.0004,-0.849605
-546,-90,-21.0712,0.776855,0.000487005,-0.00257096,-0.000551274,0.00058335,-0.0026673,-0.173021,0.0020012,0.041742,678,1114,-21.0712,-0.776909
-539,-90,-21.0781,0.827759,0.00121771,-0.00195074,0.00110999,0.00156787,-0.0023009,0.305581,0.00224696,0.0440367,685,1114,-21.0781,-0.827739
-532,-90,-20.9803,0.847168,0.000691076,-0.00231683,0.00126891,0.00115487,-0.00278062,0.350418,0.00233588,0.0430952,692,1114,-20.9803,-0.847155
-525,-90,0,0,0,0,0,0,0,0,0,-1,699,1114,0,0
-518,-90,0,0,0,0,0,0,0,0,0,-1,706,1114,0,0
-511,-90,0,0,0,0,0,0,0,0,0,-1,713,1114,0,0
-504,-90,0,0,0,0,0,0,0,0,0,-1,720,1114,0,0
-497,-90,0,0,0,0,0,0,0,0,0,-1,727,1114,0,0
-490,-90,0,0,0,0,0,0,0,0,0,-1,734,1114,0,0
-483,-90,0,0,0,0,0,0,0,0,0,-1,741,1114,0,0
-476,-90,0,0,0,0,0,0,0,0,0,-1,748,1114,0,0
-469,-90,0,0,0,0,0,0,0,0,0,-1,755,1114,0,0
-462,-90,0,0,0,0,0,0,0,0,0,-1,762,1114,0,0
-455,-90,0,0,0,0,0,0,0,0,0,-1,769,1114,0,0
-448,-90,0,0,0,0,0,0,0,0,0,-1,776,1114,0,0
-441,-90,0,0,0,0,0,0,0,0,0,-1,783,1114,0,0
-434,-90,0,0,0,0,0,0,0,0,0,-1,790,1114,0,0
-427,-90,0,0,0,0,0,0,0,0,0,-1,797,1114,0,0
-420,-90,0,0,0,0,0,0,0,0,0,-1,804,1114,0,0
-413,-90,0,0,0,0,0,0,0,0,0,-1,811,1114,0,0
-406,-90,0,0,0,0,0,0,0,0,0,-1,818,1114,0,0
-399,-90,0,0,0,0,0,0,0,0,0,-1,825,1114,0,0
-392,-90,0,0,0,0,0,0,0,0,0,-1,832,1114,0,0
-385,-90,0,0,0,0,0,0,0,0,0,-1,839,1114,0,0
-378,-90,0,0,0,0,0,0,0,0,0,-1,846,1114,0,0
-371,-90,0,0,0,0,0,0,0,0,0,-1,853,1114,0,0
-364,-90,0,0,0,0,0,0,0,0,0,-1,860,1114,0,0
-357,-90,0,0,0,0,0,0,0,0,0,-1,867,1114,0,0
-350,-90,0,0,0,0,0,0,0,0,0,-1,874,1114,0,0
-343,-90,0,0,0,0,0,0,0,0,0,-1,881,1114,0,0
-336,-90,0,0,0,0,0,0,0,0,0,-1,888,1114,0,0
-329,-90,0,0,0,0,0,0,0,0,0,-1,895,1114,0,0
-322,-90,0,0,0,0,0,0,0,0,0,-1,902,1114,0,0
-315,-90,0,0,0,0,0,0,0,0,0,-1,909,1114,0,0
-308,-90,0,0,0,0,0,0,0,0,0,-1,916,1114,0,0
-301,-90,0,0,0,0,0,0,0,0,0,-1,923,1114,0,0
-294,-90,0,0,0,0,0,0,0,0,0,-1,930,1114,0,0
-287,-90,0,0,0,0,0,0,0,0,0,-1,937,1114,0,0
-280,-90,0,0,0,0,0,0,0,0,0,-1,944,1114,0,0
-273,-90,0,0,0,0,0,0,0,0,0,-1,951,1114,0,0
-266,-90,0,0,0,0,0,0,0,0,0,-1,958,1114,0,0
-259,-90,0,0,0,0,0,0,0,0,0,-1,965,1114,0,0
-252,-90,0,0,0,0,0,0,0,0,0,-1,972,1114,0,0
-245,-90,0,0,0,0,0,0,0,0,0,-1,979,1114,0,0
-238,-90,0,0,0,0,0,0,0,0,0,-1,986,1114,0,0
-231,-90,0,0,0,0,0,0,0,0,0,-1,993,1114,0,0
-224,-90,0,0,0,0,0,0,0,0,0,-1,1000,1114,0,0
-217,-90,0,0,0,0,0,0,0,0,0,-1,1007,1114,0,0
-210,-90,0,0,0,0,0,0,0,0,0,-1,1014,1114,0,0
-203,-90,0,0,0,0,0,0,0,0,0,-1,1021,1114,0,0
-196,-90,0,0,0,0,0,0,0,0,0,-1,1028,1114,0,0
-189,-90,0,0,0,0,0,0,0,0,0,-1,1035,1114,0,0
-182,-90,0,0,0,0,0,0,0,0,0,-1,1042,1114,0,0
-175,-90,0,0,0,0,0,0,0,0,0,-1,1049,1114,0,0
-168,-90,0,0,0,0,0,0,0,0,0,-1,1056,1114,0,0
-161,-90,0,0,0,0,0,0,0,0,0,-1,1063,1114,0,0
-154,-90,0,0,0,0,0,0,0,0,0,-1,1070,1114,0,0
-147,-90,0,0,0,0,0,0,0,0,0,-1,1077,1114,0,0
-140,-90,0,0,0,0,0,0,0,0,0,-1,1084,1114,0,0
-133,-90,0,0,0,0,0,0,0,0,0,-1,1091,1114,0,0
-126,-90,0,0,0,0,0,0,0,0,0,-1,1098,1114,0,0
-119,-90,0,0,0,0,0,0,0,0,0,-1,1105,1114,0,0
-112,-90,0,0,0,0,0,0,0,0,0,-1,1112,1114,0,0
-105,-90,0,0,0,0,0,0,0,0,0,-1,1119,1114,0,0
-98,-90,0,0,0,0,0,0,0,0,0,-1,1126,1114,0,0
-91,-90,0,0,0,0,0,0,0,0,0,-1,1133,1114,0,0
-84,-90,0,0,0,0,0,0,0,0,0,-1,1140,1114,0,0
-77,-90,0,0,0,0,0,0,0,0,0,-1,1147,1114,0,0
-70,-90,0,0,0,0,0,0,0,0,0,-1,1154,1114,0,0
-63,-90,0,0,0,0,0,0,0,0,0,-1,1161,1114,0,0
-56,-90,0,0,0,0,0,0,0,0,0,-1,1168,1114,0,0
-49,-90,0,0,0,0,0,0,0,0,0,-1,1175,1114,0,0
-42,-90,0,0,0,0,0,0,0,0,0,-1,1182,1114,0,0
-35,-90,0,0,0,0,0,0,0,0,0,-1,1189,1114,0,0
-28,-90,0,0,0,0,0,0,0,0,0,-1,1196,1114,0,0
-21,-90,0,0,0,0,0,0,0,0,0,-1,1203,1114,0,0
-14,-90,0,0,0,0,0,0,0,0,0,-1,1210,1114,0,0
-7,-90,0,0,0,0,0,0,0,0,0,-1,1217,1114,0,0
0,-90,0,0,0,0,0,0,0,0,0,-1,1224,1114,0,0
7,-90,0,0,0,0,0,0,0,0,0,-1,1231,1114,0,0
14,-90,0,0,0,0,0,0,0,0,0,-1,1238,1114,0,0
21,-90,0,0,0,0,0,0,0,0,0,-1,1245,1114,0,0
28,-90,0,0,0,0,0,0,0,0,0,-1,1252,1114,0,0
35,-90,0,0,0,0,0,0,0,0,0,-1,1259,1114,0,0
42,-90,0,0,0,0,0,0,0,0,0,-1,1266,1114,0,0
49,-90,0,0,0,0,0,0,0,0,0,-1,1273,1114,0,0
56,-90,0,0,0,0,0,0,0,0,0,-1,1280,1114,0,0
63,-90,0,0,0,0,0,0,0,0,0,-1,1287,1114,0,0
70,-90,0,0,0,0,0,0,0,0,0,-1,1294,1114,0,0
77,-90,0,0,0,0,0,0,0,0,0,-1,1301,1114,0,0
84,-90,0,0,0,0,0,0,0,0,0,-1,1308,1114,0,0
91,-90,0,0,0,0,0,0,0,0,0,-1,1315,1114,0,0
98,-90,0,0,0,0,0,0,0,0,0,-1,1322,1114,0,0
105,-90,0,0,0,0,0,0,0,0,0,-1,1329,1114,0,0
112,-90,0,0,0,0,0,0,0,0,0,-1,1336,1114,0,0
119,-90,0,0,0,0,0,0,0,0,0,-1,1343,1114,0,0
126,-90,0,0,0,0,0,0,0,0,0,-1,1350,1114,0,0
133,-90,0,0,0,0,0,0,0,0,0,-1,1357,1114,0,0
140,-90,0,0,0,0,0,0,0,0,0,-1,1364,1114,0,0
147,-90,0,0,0,0,0,0,0,0,0,-1,1371,1114,0,0
154,-90,0,0,0,0,0,0,0,0,0,-1,1378,1114,0,0
161,-90,0,0,0,0,0,0,0,0,0,-1,1385,1114,0,0
168,-90,0,0,0,0,0,0,0,0,0,-1,1392,1114,0,0
175,-90,0,0,0,0,0,0,0,0,0,-1,1399,1114,0,0
182,-90,0,0,0,0,0,0,0,0,0,-1,1406,1114,0,0
189,-90,0,0,0,0,0,0,0,0,0,-1,1413,1114,0,0
196,-90,0,0,0,0,0,0,0,0,0,-1,1420,1114,0,0
203,-90,0,0,0,0,0,0,0,0,0,-1,1427,1114,0,0
210,-90,0,0,0,0,0,0,0,0,0,-1,1434,1114,0,0
217,-90,0,0,0,0,0,0,0,0,0,-1,1441,1114,0,0
224,-90,0,0,0,0,0,0,0,0,0,-1,1448,1114,0,0
231,-90,0,0,0,0,0,0,0,0,0,-1,1455,1114,0,0
238,-90,0,0,0,0,0,0,0,0,0,-1,1462,1114,0,0
245,-90,0,0,0,0,0,0,0,0,0,-1,1469,1114,0,0
252,-90,0,0,0,0,0,0,0,0,0,-1,1476,1114,0,0
259,-90,0,0,0,0,0,0,0,0,0,-1,1483,1114,0,0
266,-90,0,0,0,0,0,0,0,0,0,-1,1490,1114,0,0
273,-90,0,0,0,0,0,0,0,0,0,-1,1497,1114,0,0
280,-90,0,0,0,0,0,0,0,0,0,-1,1504,1114,0,0
287,-90,0,0,0,0,0,0,0,0,0,-1,1511,1114,0,0
294,-90,0,0,0,0,0,0,0,0,0,-1,1518,1114,0,0
301,-90,0,0,0,0,0,0,0,0,0,-1,1525,1114,0,0
308,-90,0,0,0,0,0,0,0,0,0,-1,1532,1114,0,0
315,-90,0,0,0,0,0,0,0,0,0,-1,1539,1114,0,0
322,-90,0,0,0,0,0,0,0,0,0,-1,1546,1114,0,0
329,-90,0,0,0,0,0,0,0,0,0,-1,1553,1114,0,0
336,-90,0,0,0,0,0,0,0,0,0,-1,1560,1114,0,0
343,-90,0,0,0,0,0,0,0,0,0,-1,1567,1114,0,0
350,-90,0,0,0,0,0,0,0,0,0,-1,1574,1114,0,0
357,-90,0,0,0,0,0,0,0,0,0,-1,1581,1114,0,0
364,-90,0,0,0,0,0,0,0,0,0,-1,1588,1114,0,0
371,-90,0,0,0,0,0,0,0,0,0,-1,1595,1114,0,0
378,-90,0,0,0,0,0,0,0,0,0,-1,1602,1114,0,0
385,-90,0,0,0,0,0,0,0,0,0,-1,1609,1114,0,0
392,-90,0,0,0,0,0,0,0,0,0,-1,1616,1114,0,0
399,-90,0,0,0,0,0,0,0,0,0,-1,1623,1114,0,0
406,-90,0,0,0,0,0,0,0,0,0,-1,1630,1114,0,0
413,-90,0,0,0,0,0,0,0,0,0,-1,1637,1114,0,0
420,-90,0,0,0,0,0,0,0,0,0,-1,1644,1114,0,0
427,-90,0,0,0,0,0,0,0,0,0,-1,1651,1114,0,0
434,-90,0,0,0,0,0,0,0,0,0,-1,1658,1114,0,0
441,-90,0,0,0,0,0,0,0,0,0,-1,1665,1114,0,0
448,-90,0,0,0,0,0,0,0,0,0,-1,1672,1114,0,0
455,-90,0,0,0,0,0,0,0,0,0,-1,1679,1114,0,0
462,-90,0,0,0,0,0,0,0,0,0,-1,1686,1114,0,0
469,-90,0,0,0,0,0,0,0,0,0,-1,1693,1114,0,0
476,-90,0,0,0,0,0,0,0,0,0,-1,1700,1114,0,0
483,-90,0,0,0,0,0,0,0,0,0,-1,1707,1114,0,0
490,-90,0,0,0,0,0,0,0,0,0,-1,1714,1114,0,0
497,-90,0,0,0,0,0,0,0,0,0,-1,1721,1114,0,0
504,-90,0,0,0,0,0,0,0,0,0,-1,1728,1114,0,0
511,-90,0,0,0,0,0,0,0,0,0,-1,1735,1114,0,0
518,-90,0,0,0,0,0,0,0,0,0,-1,1742,1114,0,0
525,-90,0,0,0,0,0,0,0,0,0,-1,1749,1114,0,0
532,-90,0,0,0,0,0,0,0,0,0,-1,1756,1114,0,0
539,-90,0,0,0,0,0,0,0,0,0,-1,1763,1114,0,0
546,-90,0,0,0,0,0,0,0,0,0,-1,1770,1114,0,0
553,-90,0,0,0,0,0,0,0,0,0,-1,1777,1114,0,0
560,-90,0,0,0,0,0,0,0,0,0,-1,1784,1114,0,0
567,-90,0,0,0,0,0,0,0,0,0,-1,1791,1114,0,0
574,-90,0,0,0,0,0,0,0,0,0,-1,1798,1114,0,0
581,-90,0,0,0,0,0,0,0,0,0,-1,1805,1114,0,0
588,-90,0,0,0,0,0,0,0,0,0,-1,1812,1114,0,0
595,-90,0,0,0,0,0,0,0,0,0,-1,1819,1114,0,0
602,-90,0,0,0,0,0,0,0,0,0,-1,1826,1114,0,0
609,-90,0,0,0,0,0,0,0,0,0,-1,1833,1114,0,0
616,-90,0,0,0,0,0,0,0,0,0,-1,1840,1114,0,0
623,-90,0,0,0,0,0,0,0,0,0,-1,1847,1114,0,0
630,-90,0,0,0,0,0,0,0,0,0,-1,1854,1114,0,0
637,-90,0,0,0,0,0,0,0,0,0,-1,1861,1114,0,0
644,-90,30.2795,2.69641,0.00317091,-0.000932888,-0.00458815,0.00614509,-0.00390706,-0.575129,0.00585136,0.0373415,1868,1114,30.2795,-2.69639
651,-90,30.2136,2.54749,0.00225126,-0.000893646,-0.00215655,0.00334776,-0.00199015,-0.470386,0.00311489,0.0418484,1875,1114,30.2137,-2.54754
658,-90,30.2368,2.54321,0.00177813,-0.00088673,-0.00080587,0.00200288,-0.00111148,-0.271975,0.00182246,0.0447124,1882,1114,30.2368,-2.54321
665,-90,30.1306,2.52625,0.00140642,-0.000960806,0.00020381,0.00142384,-0.000978225,0.0852607,0.00139476,0.0426648,1889,1114,30.1307,-2.52629
672,-90,30.2083,2.43469,0.00113404,-0.00127697,0.00113186,0.00158212,-0.00172505,0.37695,0.00190999,0.0418522,1896,1114,30.2083,-2.43467
679,-90,30.4489,2.76294,0.00068568,-0.00161657,0.00182503,0.00169229,-0.00262318,0.504039,0.00251078,0.0395207,1903,1114,30.4489,-2.76299
686,-90,30.6113,3.06921,0,0,0,0,0,0,0,-1,1910,1114,30.6114,-3.06926
693,-90,30.3636,2.86401,-0.000150469,-0.00214362,0.00253936,0.00158087,-0.00387495,0.598407,0.00324141,0.0325001,1917,1114,30.3636,-2.86399
700,-90,30.3639,2.83496,-0.000482054,-0.00219178,0.00276108,0.00155347,-0.00422731,0.635273,0.00345449,0.030028,1924,1114,30.3639,-2.83496
707,-90,30.3391,2.75891,-0.000883713,-0.00217679,0.0029463,0.00148615,-0.00454665,0.67739,0.00362937,0.0211576,1931,1114,30.3391,-2.75885
714,-90,30.1903,3.55139,-0.00106969,-0.00209231,0.00299919,0.00146147,-0.00462346,0.700969,0.00366784,0.0488189,1938,1114,30.1903,-3.55144
721,-90,28.9147,5.40759,0,0,0,0,0,0,0,-1,1945,1114,28.9146,-5.40754
728,-90,28.9164,5.30359,-0.00153031,-0.00157795,0.00255323,0.000999211,-0.00410747,0.780734,0.00312509,0.0202571,1952,1114,28.9164,-5.30353
735,-90,28.8429,5.13135,-0.00184414,-0.0010704,0.00203354,0.000612746,-0.00352729,0.879397,0.00258014,0.0233872,1959,1114,28.8429,-5.13129
742,-90,28.8494,4.94629,-0.00190516,2.31779e-05,0.0011721,0.000576717,-0.0024587,1.12958,0.00186139,0.0200288,1966,1114,28.8494,-4.94624
749,-90,28.9573,4.7666,-0.00124945,0.000996341,6.48721e-05,0.000998213,-0.00125133,1.54194,0.00130151,0.013772,1973,1114,28.9573,-4.76657
756,-90,28.9592,4.63501,0.000669045,0.00088296,-0.00122109,0.00200176,-0.000449759,-0.829083,0.00150697,0.0140931,1980,1114,28.9593,-4.63495
763,-90,28.9224,4.50647,0.00465288,-4.15789e-05,-0.00275619,0.00592588,-0.00131458,-0.432681,0.00445393,0.0121882,1987,1114,28.9224,-4.50651
770,-90,28.8817,4.37878,0.00917843,-0.00107628,-0.00488738,0.0111346,-0.00303244,-0.38072,0.00861368,0.0147893,1994,1114,28.8817,-4.37883
777,-90,28.8506,4.24414,0.015472,-0.00362379,-0.00683211,0.0176646,-0.00581642,-0.310547,0.0141204,0.0142637,2001,1114,28.8505,-4.24417
784,-90,28.8091,4.09009,0.0237343,-0.0076513,-0.00871595,0.0259923,-0.00990932,-0.253494,0.0214099,0.0267447,2008,1114,28.8091,-4.09009
791,-90,28.9523,3.38831,0,0,0,0,0,0,0,-1,2015,1114,28.9523,-3.38833
798,-90,26.5327,1.50989,0.0490393,-0.0227885,-0.0115516,0.0508514,-0.0246005,-0.155598,0.0444323,0.045342,2022,1114,26.5327,-1.50989
805,-90,27.7522,0.995605,0.0678404,-0.0353875,-0.0117458,0.0691601,-0.0367071,-0.11188,0.0620723,0.0438551,2029,1114,27.7522,-0.995556
812,-90,28.6863,0.801514,0.0920093,-0.0525846,-0.0101993,0.0927252,-0.0533005,-0.0700749,0.085326,0.045043,2036,1114,28.6862,-0.801567
-700,-97,0,0,0,0,0,0,0,0,0,-1,524,1121,0,0
-693,-97,-20.8786,-1.31177,0,0,0,0,0,0,0,-1,531,1121,-20.8786,1.31176
-686,-97,-20.9036,-0.94458,0.0165974,0.0660878,0.0683929,0.114074,-0.0313892,0.958977,0.0883904,0.0463039,538,1121,-20.9036,0.944567
-679,-97,-20.7405,-0.63623,0.0132895,0.0529157,0.0532044,0.0898765,-0.0236712,0.963641,0.0691716,0.0445726,545,1121,-20.7405,0.636262
-672,-97,-18.1726,1.31287,0,0,0,0,0,0,0,-1,552,1121,-18.1726,-1.31282
-665,-97,-18.6915,1.21448,0.00792083,0.0316546,0.0299187,0.0519739,-0.0123985,0.9742,0.0394372,0.0455941,559,1121,-18.6915,-1.21451
-658,-97,-19.4205,1.14844,0.00578317,0.0234729,0.0213374,0.037726,-0.00846995,0.98188,0.0283982,0.0411203,566,1121,-19.4204,-1.14844
-651,-97,-19.6342,1.24158,0.00404433,0.0168278,0.0145827,0.0263581,-0.00548595,0.991942,0.0196576,0.0297003,573,1121,-19.6342,-1.24153
-644,-97,-19.6026,1.49072,0.0026807,0.0116038,0.00936361,0.0175145,-0.00322994,1.00773,0.0128886,0.011666,580,1121,-19.6026,-1.49072
-637,-97,-19.6105,1.70959,0.0012979,0.00720821,0.00494238,0.0100115,-0.00150543,1.05484,0.00722861,0.0119292,587,1121,-19.6105,-1.70959
-630,-97,-19.6146,1.89392,-0.000309226,0.00366433,0.00113562,0.00396598,-0.000610879,1.31116,0.00286937,0.00928872,594,1121,-19.6146,-1.89391
-623,-97,-19.6199,2.08337,-0.000792921,0.000444384,-0.00178485,0.00171475,-0.00206329,-0.952226,0.00218435,0.0111229,601,1121,-19.6199,-2.08343
-616,-97,-19.6177,2.28027,-0.00120918,-0.00121832,-0.00337412,0.00216038,-0.00458788,-0.784721,0.00397925,0.013568,608,1121,-19.6177,-2.28031
-609,-97,-19.6513,2.49805,-0.00162895,-0.00186308,-0.00352834,0.00178427,-0.0052763,-0.768815,0.00423935,0.0165817,615,1121,-19.6513,-2.49803
-602,-97,-19.6782,2.63965,-0.00174373,-0.0024744,-0.00419369,0.00210051,-0.00631864,-0.74195,0.00506007,0.0155158,622,1121,-19.6782,-2.63964
-595,-97,-19.5896,2.85144,-0.0017659,-0.00303098,-0.004512,0.00215768,-0.00695456,-0.715757,0.00549857,0.0159757,629,1121,-19.5896,-2.85139
-588,-97,-19.674,2.95105,-0.00167874,-0.0034781,-0.00452943,0.0020395,-0.00719634,-0.687359,0.00560253,0.0370256,636,1121,-19.674,-2.95108
-581,-97,-21.175,0.891479,0,0,0,0,0,0,0,-1,643,1121,-21.175,-0.891476
-574,-97,-21.0915,0.864014,-0.00118695,-0.00397538,-0.0041498,0.00179659,-0.00695891,-0.623336,0.00533985,0.0396985,650,1121,-21.0915,-0.864035
-567,-97,-21.0908,0.849487,-0.000799055,-0.00401169,-0.00371725,0.00164409,-0.00645484,-0.581453,0.00494325,0.0347124,657,1121,-21.0908,-0.849537
-560,-97,-21.0654,0.977661,-0.000323988,-0.00388487,-0.00308834,0.00146037,-0.00566923,-0.523916,0.00434879,0.0392435,664,1121,-21.0654,-0.977631
-553,-97,-20.8873,0.949585,0.000172982,-0.00362447,-0.0022899,0.00124895,-0.00470043,-0.439259,0.00362243,0.0425845,671,1121,-20.8873,-0.94957
-546,-97,-20.8337,0.686157,0.000722664,-0.00327686,-0.00131918,0.00111858,-0.00367278,-0.29157,0.00289435,0.042902,678,1121,-20.8338,-0.686156
-539,-97,-20.9446,0.597046,0.00128933,-0.00296,-0.000370965,0.00132147,-0.00299214,-0.0864284,0.00255197,0.0419742,685,1121,-20.9447,-0.597104
-532,-97,-21.0609,0.797363,0.00096003,-0.00361782,-0.000762019,0.00108354,-0.00374133,-0.160687,0.00292313,0.0390952,692,1121,-21.0609,-0.797351
-525,-97,0,0,0,0,0,0,0,0,0,-1,699,1121,0,0
-518,-97,0,0,0,0,0,0,0,0,0,-1,706,1121,0,0
-511,-97,0,0,0,0,0,0,0,0,0,-1,713,1121,0,0
-504,-97,0,0,0,0,0,0,0,0,0,-1,720,1121,0,0
-497,-97,0,0,0,0,0,0,0,0,0,-1,727,1121,0,0
-490,-97,0,0,0,0,0,0,0,0,0,-1,734,1121,0,0
-483,-97,0,0,0,0,0,0,0,0,0,-1,741,1121,0,0
-476,-97,0,0,0,0,0,0,0,0,0,-1,748,1121,0,0
-469,-97,0,0,0,0,0,0,0,0,0,-1,755,1121,0,0
-462,-97,0,0,0,0,0,0,0,0,0,-1,762,1121,0,0
-455,-97,0,0,0,0,0,0,0,0,0,-1,769,1121,0,0
-448,-97,0,0,0,0,0,0,0,0,0,-1,776,1121,0,0
-441,-97,0,0,0,0,0,0,0,0,0,-1,783,1121,0,0
-434,-97,0,0,0,0,0,0,0,0,0,-1,790,1121,0,0
-427,-97,0,0,0,0,0,0,0,0,0,-1,797,1121,0,0
-420,-97,0,0,0,0,0,0,0,0,0,-1,804,1121,0,0
-413,-97,0,0,0,0,0,0,0,0,0,-1,811,1121,0,0
-406,-97,0,0,0,0,0,0,0,0,0,-1,818,1121,0,0
-399,-97,0,0,0,0,0,0,0,0,0,-1,825,1121,0,0
-392,-97,0,0,0,0,0,0,0,0,0,-1,832,1121,0,0
-385,-97,0,0,0,0,0,0,0,0,0,-1,839,1121,0,0
-378,-97,0,0,0,0,0,0,0,0,0,-1,846,1121,0,0
-371,-97,0,0,0,0,0,0,0,0,0,-1,853,1121,0,0
-364,-97,0,0,0,0,0,0,0,0,0,-1,860,1121,0,0
-357,-97,0,0,0,0,0,0,0,0,0,-1,867,1121,0,0
-350,-97,0,0,0,0,0,0,0,0,0,-1,874,1121,0,0
-343,-97,0,0,0,0,0,0,0,0,0,-1,881,1121,0,0
-336,-97,0,0,0,0,0,0,0,0,0,-1,888,1121,0,0
-329,-97,0,0,0,0,0,0,0,0,0,-1,895,1121,0,0
-322,-97,0,0,0,0,0,0,0,0,0,-1,902,1121,0,0
-315,-97,0,0,0,0,0,0,0,0,0,-1,909,1121,0,0
-308,-97,0,0,0,0,0,0,0,0,0,-1,916,1121,0,0
-301,-97,0,0,0,0,0,0,0,0,0,-1,923,1121,0,0
-294,-97,0,0,0,0,0,0,0,0,0,-1,930,1121,0,0
-287,-97,0,0,0,0,0,0,0,0,0,-1,937,1121,0,0
-280,-97,0,0,0,0,0,0,0,0,0,-1,944,1121,0,0
-273,-97,0,0,0,0,0,0,0,0,0,-1,951,1121,0,0
-266,-97,0,0,0,0,0,0,0,0,0,-1,958,1121,0,0
-259,-97,0,0,0,0,0,0,0,0,0,-1,965,1121,0,0
-252,-97,0,0,0,0,0,0,0,0,0,-1,972,1121,0,0
-245,-97,0,0,0,0,0,0,0,0,0,-1,979,1121,0,0
-238,-97,0,0,0,0,0,0,0,0,0,-1,986,1121,0,0
-231,-97,0,0,0,0,0,0,0,0,0,-1,993,1121,0,0
-224,-97,0,0,0,0,0,0,0,0,0,-1,1000,1121,0,0
-217,-97,0,0,0,0,0,0,0,0,0,-1,1007,1121,0,0
-210,-97,0,0,0,0,0,0,0,0,0,-1,1014,1121,0,0
-203,-97,0,0,0,0,0,0,0,0,0,-1,1021,1121,0,0
-196,-97,0,0,0,0,0,0,0,0,0,-1,1028,1121,0,0
-189,-97,0,0,0,0,0,0,0,0,0,-1,1035,1121,0,0
-182,-97,0,0,0,0,0,0,0,0,0,-1,1042,1121,0,0
-175,-97,0,0,0,0,0,0,0,0,0,-1,1049,1121,0,0
-168,-97,0,0,0,0,0,0,0,0,0,-1,1056,1121,0,0
-161,-97,0,0,0,0,0,0,0,0,0,-1,1063,1121,0,0
-154,-97,0,0,0,0,0,0,0,0,0,-1,1070,1121,0,0
-147,-97,0,0,0,0,0,0,0,0,0,-1,1077,1121,0,0
-140,-97,0,0,0,0,0,0,0,0,0,-1,1084,1121,0,0
-133,-97,0,0,0,0,0,0,0,0,0,-1,1091,1121,0,0
-126,-97,0,0,0,0,0,0,0,0,0,-1,1098,1121,0,0
-119,-97,0,0,0,0,0,0,0,0,0,-1,1105,1121,0,0
-112,-97,0,0,0,0,0,0,0,0,0,-1,1112,1121,0,0
-105,-97,0,0,0,0,0,0,0,0,0,-1,1119,1121,0,0
-98,-97,0,0,0,0,0,0,0,0,0,-1,1126,1121,0,0
-91,-97,0,0,0,0,0,0,0,0,0,-1,1133,1121,0,0
-84,-97,0,0,0,0,0,0,0,0,0,-1,1140,1121,0,0
-77,-97,0,0,0,0,0,0,0,0,0,-1,1147,1121,0,0
-70,-97,0,0,0,0,0,0,0,0,0,-1,1154,1121,0,0
-63,-97,0,0,0,0,0,0,0,0,0,-1,1161,1121,0,0
-56,-97,0,0,0,0,0,0,0,0,0,-1,1168,1121,0,0
-49,-97,0,0,0,0,0,0,0,0,0,-1,1175,1121,0,0
-42,-97,0,0,0,0,0,0,0,0,0,-1,1182,1121,0,0
-35,-97,0,0,0,0,0,0,0,0,0,-1,1189,1121,0,0
-28,-97,0,0,0,0,0,0,0,0,0,-1,1196,1121,0,0
-21,-97,0,0,0,0,0,0,0,0,0,-1,1203,1121,0,0
-14,-97,0,0,0,0,0,0,0,0,0,-1,1210,1121,0,0
-7,-97,0,0,0,0,0,0,0,0,0,-1,1217,1121,0,0
0,-97,0,0,0,0,0,0,0,0,0,-1,1224,1121,0,0
7,-97,0,0,0,0,0,0,0,0,0,-1,1231,1121,0,0
14,-97,0,0,0,0,0,0,0,0,0,-1,1238,1121,0,0
21,-97,0,0,0,0,0,0,0,0,0,-1,1245,1121,0,0
28,-97,0,0,0,0,0,0,0,0,0,-1,1252,1121,0,0
35,-97,0,0,0,0,0,0,0,0,0,-1,1259,1121,0,0
42,-97,0,0,0,0,0,0,0,0,0,-1,1266,1121,0,0
49,-97,0,0,0,0,0,0,0,0,0,-1,1273,1121,0,0
56,-97,0,0,0,0,0,0,0,0,0,-1,1280,1121,0,0
63,-97,0,0,0,0,0,0,0,0,0,-1,1287,1121,0,0
70,-97,0,0,0,0,0,0,0,0,0,-1,1294,1121,0,0
77,-97,0,0,0,0,0,0,0,0,0,-1,1301,1121,0,0
84,-97,0,0,0,0,0,0,0,0,0,-1,1308,1121,0,0
91,-97,0,0,0,0,0,0,0,0,0,-1,1315,1121,0,0
98,-97,0,0,0,0,0,0,0,0,0,-1,1322,1121,0,0
105,-97,0,0,0,0,0,0,0,0,0,-1,1329,1121,0,0
112,-97,0,0,0,0,0,0,0,0,0,-1,1336,1121,0,0
119,-97,0,0,0,0,0,0,0,0,0,-1,1343,1121,0,0
126,-97,0,0,0,0,0,0,0,0,0,-1,1350,1121,0,0
133,-97,0,0,0,0,0,0,0,0,0,-1,1357,1121,0,0
140,-97,0,0,0,0,0,0,0,0,0,-1,1364,1121,0,0
147,-97,0,0,0,0,0,0,0,0,0,-1,1371,1121,0,0
154,-97,0,0,0,0,0,0,0,0,0,-1,1378,1121,0,0
161,-97,0,0,0,0,0,0,0,0,0,-1,1385,1121,0,0
168,-97,0,0,0,0,0,0,0,0,0,-1,1392,1121,0,0
175,-97,0,0,0,0,0,0,0,0,0,-1,1399,1121,0,0
182,-97,0,0,0,0,0,0,0,0,0,-1,1406,1121,0,0
189,-97,0,0,0,0,0,0,0,0,0,-1,1413,1121,0,0
196,-97,0,0,0,0,0,0,0,0,0,-1,1420,1121,0,0
203,-97,0,0,0,0,0,0,0,0,0,-1,1427,1121,0,0
210,-97,0,0,0,0,0,0,0,0,0,-1,1434,1121,0,0
217,-97,0,0,0,0,0,0,0,0,0,-1,1441,1121,0,0
224,-97,0,0,0,0,0,0,0,0,0,-1,1448,1121,0,0
231,-97,0,0,0,0,0,0,0,0,0,-1,1455,1121,0,0
238,-97,0,0,0,0,0,0,0,0,0,-1,1462,1121,0,0
245,-97,0,0,0,0,0,0,0,0,0,-1,1469,1121,0,0
252,-97,0,0,0,0,0,0,0,0,0,-1,1476,1121,0,0
259,-97,0,0,0,0,0,0,0,0,0,-1,1483,1121,0,0
266,-97,0,0,0,0,0,0,0,0,0,-1,1490,1121,0,0
273,-97,0,0,0,0,0,0,0,0,0,-1,1497,1121,0,0
280,-97,0,0,0,0,0,0,0,0,0,-1,1504,1121,0,0
287,-97,0,0,0,0,0,0,0,0,0,-1,1511,1121,0,0
294,-97,0,0,0,0,0,0,0,0,0,-1,1518,1121,0,0
301,-97,0,0,0,0,0,0,0,0,0,-1,1525,1121,0,0
308,-97,0,0,0,0,0,0,0,0,0,-1,1532,1121,0,0
315,-97,0,0,0,0,0,0,0,0,0,-1,1539,1121,0,0
322,-97,0,0,0,0,0,0,0,0,0,-1,1546,1121,0,0
329,-97,0,0,0,0,0,0,0,0,0,-1,1553,1121,0,0
336,-97,0,0,0,0,0,0,0,0,0,-1,1560,1121,0,0
343,-97,0,0,0,0,0,0,0,0,0,-1,1567,1121,0,0
350,-97,0,0,0,0,0,0,0,0,0,-1,1574,1121,0,0
357,-97,0,0,0,0,0,0,0,0,0,-1,1581,1121,0,0
364,-97,0,0,0,0,0,0,0,0,0,-1,1588,1121,0,0
371,-97,0,0,0,0,0,0,0,0,0,-1,1595,1121,0,0
378,-97,0,0,0,0,0,0,0,0,0,-1,1602,1121,0,0
385,-97,0,0,0,0,0,0,0,0,0,-1,1609,1121,0,0
392,-97,0,0,0,0,0,0,0,0,0,-1,1616,1121,0,0
399,-97,0,0,0,0,0,0,0,0,0,-1,1623,1121,0,0
406,-97,0,0,0,0,0,0,0,0,0,-1,1630,1121,0,0
413,-97,0,0,0,0,0,0,0,0,0,-1,1637,1121,0,0
420,-97,0,0,0,0,0,0,0,0,0,-1,1644,1121,0,0
427,-97,0,0,0,0,0,0,0,0,0,-1,1651,1121,0,0
434,-97,0,0,0,0,0,0,0,0,0,-1,1658,1121,0,0
441,-97,0,0,0,0,0,0,0,0,0,-1,1665,1121,0,0
448,-97,0,0,0,0,0,0,0,0,0,-1,1672,1121,0,0
455,-97,0,0,0,0,0,0,0,0,0,-1,1679,1121,0,0
462,-97,0,0,0,0,0,0,0,0,0,-1,1686,1121,0,0
469,-97,0,0,0,0,0,0,0,0,0,-1,1693,1121,0,0
476,-97,0,0,0,0,0,0,0,0,0,-1,1700,1121,0,0
483,-97,0,0,0,0,0,0,0,0,0,-1,1707,1121,0,0
490,-97,0,0,0,0,0,0,0,0,0,-1,1714,1121,0,0
497,-97,0,0,0,0,0,0,0,0,0,-1,1721,1121,0,0
504,-97,0,0,0,0,0,0,0,0,0,-1,1728,1121,0,0
511,-97,0,0,0,0,0,0,0,0,0,-1,1735,1121,0,0
518,-97,0,0,0,0,0,0,0,0,0,-1,1742,1121,0,0
525,-97,0,0,0,0,0,0,0,0,0,-1,1749,1121,0,0
532,-97,0,0,0,0,0,0,0,0,0,-1,1756,1121,0,0
539,-97,0,0,0,0,0,0,0,0,0,-1,1763,1121,0,0
546,-97,0,0,0,0,0,0,0,0,0,-1,1770,1121,0,0
553,-97,0,0,0,0,0,0,0,0,0,-1,1777,1121,0,0
560,-97,0,0,0,0,0,0,0,0,0,-1,1784,1121,0,0
567,-97,0,0,0,0,0,0,0,0,0,-1,1791,1121,0,0
574,-97,0,0,0,0,0,0,0,0,0,-1,1798,1121,0,0
581,-97,0,0,0,0,0,0,0,0,0,-1,1805,1121,0,0
588,-97,0,0,0,0,0,0,0,0,0,-1,1812,1121,0,0
595,-97,0,0,0,0,0,0,0,0,0,-1,1819,1121,0,0
602,-97,0,0,0,0,0,0,0,0,0,-1,1826,1121,0,0
609,-97,0,0,0,0,0,0,0,0,0,-1,1833,1121,0,0
616,-97,0,0,0,0,0,0,0,0,0,-1,1840,1121,0,0
623,-97,0,0,0,0,0,0,0,0,0,-1,1847,1121,0,0
630,-97,0,0,0,0,0,0,0,0,0,-1,1854,1121,0,0
637,-97,0,0,0,0,0,0,0,0,0,-1,1861,1121,0,0
644,-97,30.2959,2.80066,0.00265603,-0.00151809,-0.00489935,0.00589434,-0.00475639,-0.584045,0.00616089,0.0382035,1868,1121,30.2959,-2.80067
651,-97,30.2723,2.78088,0.00186964,-0.00132395,-0.00248652,0.00322794,-0.00268225,-0.499968,0.00341709,0.0374347,1875,1121,30.2723,-2.78092
658,-97,30.2808,2.58447,0.00148882,-0.00118599,-0.0011148,0.00189252,-0.00158968,-0.347434,0.00201298,0.0379299,1882,1121,30.2807,-2.58445
665,-97,30.1603,2.40125,0.0011972,-0.00115323,-5.65735e-05,0.00119856,-0.00115459,-0.0240509,0.00135867,0.0417733,1889,1121,30.1603,-2.4012
672,-97,30.2428,2.401,0.000993898,-0.00131286,0.000807337,0.00124838,-0.00156735,0.305354,0.00162913,0.0430147,1896,1121,30.2428,-2.40102
679,-97,30.3787,2.8147,0.000601172,-0.00151142,0.00138718,0.00128844,-0.00219869,0.459997,0.00203603,0.0424073,1903,1121,30.3786,-2.81471
686,-97,30.5173,3.21082,0,0,0,0,0,0,0,-1,1910,1121,30.5174,-3.21081
693,-97,30.3771,2.84631,-0.00014146,-0.00185395,0.00193235,0.00111585,-0.00311126,0.576843,0.00252954,0.0332705,1917,1121,30.3771,-2.84637
700,-97,30.3627,2.81433,-0.000453008,-0.00187237,0.00212194,0.00107478,-0.00340016,0.624021,0.00269738,0.0277968,1924,1121,30.3626,-2.81437
707,-97,30.333,2.78259,-0.000836289,-0.00184426,0.00229988,0.00101417,-0.00369473,0.677535,0.00286175,0.0209166,1931,1121,30.333,-2.78265
714,-97,30.296,2.68591,0,0,0,0,0,0,0,-1,1938,1121,30.296,-2.68592
721,-97,28.7927,5.38489,0,0,0,0,0,0,0,-1,1945,1121,28.7928,-5.38486
728,-97,28.7865,5.29797,-0.00144341,-0.00127337,0.0019457,0.000589169,-0.00330595,0.807232,0.00242434,0.0184718,1952,1121,28.7865,-5.29801
735,-97,28.7488,5.13293,-0.00176558,-0.000819949,0.00151655,0.000295783,-0.00288132,0.936508,0.00202668,0.0197198,1959,1121,28.7488,-5.13292
742,-97,28.718,4.95081,-0.00187093,0.000180793,0.000820563,0.000468596,-0.00215873,1.23346,0.00161813,0.0160075,1966,1121,28.718,-4.95086
749,-97,28.7665,4.77698,-0.00126065,0.000864167,-0.000114325,0.000870301,-0.00126678,-1.5172,0.0012409,0.017252,1973,1121,28.7664,-4.77697
756,-97,28.7977,4.61597,0.000638492,0.000524796,-0.0013135,0.00189637,-0.000733083,-0.763772,0.00156686,0.0145572,1980,1121,28.7977,-4.61592
763,-97,28.7561,4.47913,0.00464664,-0.000852152,-0.00276066,0.00579345,-0.00199896,-0.393721,0.00467337,0.0122366,1987,1121,28.7561,-4.47914
770,-97,28.735,4.35107,0.00912553,-0.00252328,-0.00472026,0.0107981,-0.00419585,-0.340533,0.00893212,0.0104978,1994,1121,28.735,-4.35102
777,-97,28.7368,4.21838,0.0152696,-0.00582602,-0.00654279,0.0171341,-0.00769047,-0.277605,0.0146741,0.0144335,2001,1121,28.7368,-4.21835
784,-97,28.7314,4.05457,0.0234559,-0.0108854,-0.00838402,0.0253934,-0.012823,-0.227112,0.0224586,0.0345628,2008,1121,28.7314,-4.0546
791,-97,26.7639,2.42053,0,0,0,0,0,0,0,-1,2015,1121,26.7639,-2.42055
798,-97,27.1018,1.85779,0.0489343,-0.0294441,-0.0112736,0.0505237,-0.0310334,-0.140053,0.047533,0.0440463,2022,1121,27.1018,-1.85781
805,-97,27.6965,1.55554,0.0679393,-0.0445976,-0.0115741,0.0691173,-0.0457756,-0.101432,0.0667882,0.0437628,2029,1121,27.6966,-1.55557
812,-97,28.3293,1.56653,0.0923939,-0.0650369,-0.0102228,0.093055,-0.0656979,-0.0645737,0.0921085,0.0469942,2036,1121,28.3294,-1.56655
-700,-104,0,0,0,0,0,0,0,0,0,-1,524,1128,0,0
-693,-104,-23.0647,-3.26367,0,0,0,0,0,0,0,-1,531,1128,-23.0647,3.26368
-686,-104,-21.4229,-1.20459,0,0,0,0,0,0,0,-1,538,1128,-21.4229,1.20461
-679,-104,-21.0352,-1.59265,0,0,0,0,0,0,0,-1,545,1128,-21.0352,1.59263
-672,-104,-21.2292,-0.467163,0,0,0,0,0,0,0,-1,552,1128,-21.2292,0.467117
-665,-104,-18.7514,2.04077,0,0,0,0,0,0,0,-1,559,1128,-18.7514,-2.04074
-658,-104,-19.7463,1.1698,0.0045435,0.0215522,0.0224547,0.037059,-0.0109634,0.966418,0.0290582,0.0423367,566,1128,-19.7463,-1.16985
-651,-104,-19.5699,1.31409,0.00307214,0.0153695,0.0152071,0.0256239,-0.00718228,0.977515,0.0199132,0.0354695,573,1128,-19.5699,-1.31409
-644,-104,-19.405,1.48584,0.00197369,0.0105293,0.00965888,0.0168153,-0.0043123,0.99386,0.0128903,0.0152723,580,1128,-19.405,-1.48582
-637,-104,-19.3705,1.69275,0.00098678,0.00646957,0.00510083,0.00951901,-0.00206266,1.03197,0.00713366,0.0107136,587,1128,-19.3705,-1.69277
-630,-104,-19.3994,1.86755,-0.000234338,0.00329815,0.00134745,0.00375345,-0.000689632,1.24495,0.00276104,0.01237,594,1128,-19.3994,-1.86753
-623,-104,-19.417,2.07922,-0.000449711,0.000323103,-0.00161517,0.00159744,-0.00172405,-0.90281,0.00191813,0.0150315,601,1128,-19.417,-2.07925
-616,-104,-19.4996,2.30981,-0.000694362,-0.00129135,-0.00311899,0.00214038,-0.0041261,-0.737692,0.003678,0.0168813,608,1128,-19.4995,-2.30987
-609,-104,-19.5781,2.43347,-0.000889772,-0.00177714,-0.00301388,0.0017129,-0.00437981,-0.712316,0.00362822,0.0209439,615,1128,-19.5781,-2.43348
-602,-104,-19.4567,2.65137,-0.000827671,-0.00232014,-0.00347858,0.00198382,-0.00513163,-0.679738,0.00423998,0.0182769,622,1128,-19.4567,-2.65136
-595,-104,-19.3749,2.90991,-0.00076764,-0.00279985,-0.00364128,0.00199665,-0.00556414,-0.649333,0.0045243,0.016817,629,1128,-19.3749,-2.90996
-588,-104,-19.5278,2.97961,-0.000669549,-0.00317844,-0.00360944,0.00189722,-0.00574521,-0.618155,0.00459501,0.041464,636,1128,-19.5278,-2.97956
-581,-104,-21.064,0.986206,0,0,0,0,0,0,0,-1,643,1128,-21.064,-0.986255
-574,-104,-21.0983,0.897705,-0.000187202,-0.00373197,-0.00335648,0.00183611,-0.00575529,-0.542482,0.00457345,0.0495703,650,1128,-21.0984,-0.897696
-567,-104,-21.1044,0.970337,0.000109693,-0.00381585,-0.00306769,0.00178879,-0.00549495,-0.500805,0.00438298,0.0353808,657,1128,-21.1044,-0.970364
-560,-104,-21.0815,1.13745,0.000437734,-0.00377347,-0.00266095,0.00172539,-0.00506113,-0.450692,0.00407291,0.0416673,664,1128,-21.0815,-1.13744
-553,-104,-20.9684,1.09924,0.000736997,-0.00364285,-0.00217613,0.00163435,-0.00454021,-0.391119,0.00369413,0.0480105,671,1128,-20.9684,-1.0993
-546,-104,-20.8893,1.00635,0.00104973,-0.00348568,-0.0016291,0.00157424,-0.00401019,-0.31148,0.00332484,0.046593,678,1128,-20.8894,-1.00636
-539,-104,-20.9612,0.892822,0.00143068,-0.00344539,-0.00116945,0.00169665,-0.00371136,-0.223626,0.00319372,0.0419739,685,1128,-20.9612,-0.892876
-532,-104,-21.119,0.75061,0.00135579,-0.00438762,-0.00188238,0.00191775,-0.00494958,-0.290113,0.00409163,0.0397465,692,1128,-21.1189,-0.750605
-525,-104,-21.1244,0.774536,0.00127795,-0.00545736,-0.00268295,0.00221603,-0.00639544,-0.336357,0.00516333,0.0365152,699,1128,-21.1244,-0.774576
-518,-104,0,0,0,0,0,0,0,0,0,-1,706,1128,0,0
-511,-104,0,0,0,0,0,0,0,0,0,-1,713,1128,0,0
-504,-104,0,0,0,0,0,0,0,0,0,-1,720,1128,0,0
-497,-104,0,0,0,0,0,0,0,0,0,-1,727,1128,0,0
-490,-104,0,0,0,0,0,0,0,0,0,-1,734,1128,0,0
-483,-104,0,0,0,0,0,0,0,0,0,-1,741,1128,0,0
-476,-104,0,0,0,0,0,0,0,0,0,-1,748,1128,0,0
-469,-104,0,0,0,0,0,0,0,0,0,-1,755,1128,0,0
-462,-104,0,0,0,0,0,0,0,0,0,-1,762,1128,0,0
-455,-104,0,0,0,0,0,0,0,0,0,-1,769,1128,0,0
-448,-104,0,0,0,0,0,0,0,0,0,-1,776,1128,0,0
-441,-104,0,0,0,0,0,0,0,0,0,-1,783,1128,0,0
-434,-104,0,0,0,0,0,0,0,0,0,-1,790,1128,0,0
-427,-104,0,0,0,0,0,0,0,0,0,-1,797,1128,0,0
-420,-104,0,0,0,0,0,0,0,0,0,-1,804,1128,0,0
-413,-104,0,0,0,0,0,0,0,0,0,-1,811,1128,0,0
-406,-104,0,0,0,0,0,0,0,0,0,-1,818,1128,0,0
-399,-104,0,0,0,0,0,0,0,0,0,-1,825,1128,0,0
-392,-104,0,0,0,0,0,0,0,0,0,-1,832,1128,0,0
-385,-104,0,0,0,0,0,0,0,0,0,-1,839,1128,0,0
-378,-104,0,0,0,0,0,0,0,0,0,-1,846,1128,0,0
-371,-104,0,0,0,0,0,0,0,0,0,-1,853,1128,0,0
-364,-104,0,0,0,0,0,0,0,0,0,-1,860,1128,0,0
-357,-104,0,0,0,0,0,0,0,0,0,-1,867,1128,0,0
-350,-104,0,0,0,0,0,0,0,0,0,-1,874,1128,0,0
-343,-104,0,0,0,0,0,0,0,0,0,-1,881,1128,0,0
-336,-104,0,0,0,0,0,0,0,0,0,-1,888,1128,0,0
-329,-104,0,0,0,0,0,0,0,0,0,-1,895,1128,0,0
-322,-104,0,0,0,0,0,0,0,0,0,-1,902,1128,0,0
-315,-104,0,0,0,0,0,0,0,0,0,-1,909,1128,0,0
-308,-104,0,0,0,0,0,0,0,0,0,-1,916,1128,0,0
-301,-104,0,0,0,0,0,0,0,0,0,-1,923,1128,0,0
-294,-104,0,0,0,0,0,0,0,0,0,-1,930,1128,0,0
-287,-104,0,0,0,0,0,0,0,0,0,-1,937,1128,0,0
-280,-104,0,0,0,0,0,0,0,0,0,-1,944,1128,0,0
-273,-104,0,0,0,0,0,0,0,0,0,-1,951,1128,0,0
-266,-104,0,0,0,0,0,0,0,0,0,-1,958,1128,0,0
-259,-104,0,0,0,0,0,0,0,0,0,-1,965,1128,0,0
-252,-104,0,0,0,0,0,0,0,0,0,-1,972,1128,0,0
-245,-104,0,0,0,0,0,0,0,0,0,-1,979,1128,0,0
-238,-104,0,0,0,0,0,0,0,0,0,-1,986,1128,0,0
-231,-104,0,0,0,0,0,0,0,0,0,-1,993,1128,0,0
-224,-104,0,0,0,0,0,0,0,0,0,-1,1000,1128,0,0
-217,-104,0,0,0,0,0,0,0,0,0,-1,1007,1128,0,0
-210,-104,0,0,0,0,0,0,0,0,0,-1,1014,1128,0,0
-203,-104,0,0,0,0,0,0,0,0,0,-1,1021,1128,0,0
-196,-104,0,0,0,0,0,0,0,0,0,-1,1028,1128,0,0
-189,-104,0,0,0,0,0,0,0,0,0,-1,1035,1128,0,0
-182,-104,0,0,0,0,0,0,0,0,0,-1,1042,1128,0,0
-175,-104,0,0,0,0,0,0,0,0,0,-1,1049,1128,0,0
-168,-104,0,0,0,0,0,0,0,0,0,-1,1056,1128,0,0
-161,-104,0,0,0,0,0,0,0,0,0,-1,1063,1128,0,0
-154,-104,0,0,0,0,0,0,0,0,0,-1,1070,1128,0,0
-147,-104,0,0,0,0,0,0,0,0,0,-1,1077,1128,0,0
-140,-104,0,0,0,0,0,0,0,0,0,-1,1084,1128,0,0
-133,-104,0,0,0,0,0,0,0,0,0,-1,1091,1128,0,0
-126,-104,0,0,0,0,0,0,0,0,0,-1,1098,1128,0,0
-119,-104,0,0,0,0,0,0,0,0,0,-1,1105,1128,0,0
-112,-104,0,0,0,0,0,0,0,0,0,-1,1112,1128,0,0
-105,-104,0,0,0,0,0,0,0,0,0,-1,1119,1128,0,0
-98,-104,0,0,0,0,0,0,0,0,0,-1,1126,1128,0,0
-91,-104,0,0,0,0,0,0,0,0,0,-1,1133,1128,0,0
-84,-104,0,0,0,0,0,0,0,0,0,-1,1140,1128,0,0
-77,-104,0,0,0,0,0,0,0,0,0,-1,1147,1128,0,0
-70,-104,0,0,0,0,0,0,0,0,0,-1,1154,1128,0,0
-63,-104,0,0,0,0,0,0,0,0,0,-1,1161,1128,0,0
-56,-104,0,0,0,0,0,0,0,0,0,-1,1168,1128,0,0
-49,-104,0,0,0,0,0,0,0,0,0,-1,1175,1128,0,0
-42,-104,0,0,0,0,0,0,0,0,0,-1,1182,1128,0,0
-35,-104,0,0,0,0,0,0,0,0,0,-1,1189,1128,0,0
-28,-104,0,0,0,0,0,0,0,0,0,-1,1196,1128,0,0
-21,-104,0,0,0,0,0,0,0,0,0,-1,1203,1128,0,0
-14,-104,0,0,0,0,0,0,0,0,0,-1,1210,1128,0,0
-7,-104,0,0,0,0,0,0,0,0,0,-1,1217,1128,0,0
0,-104,0,0,0,0,0,0,0,0,0,-1,1224,1128,0,0
7,-104,0,0,0,0,0,0,0,0,0,-1,1231,1128,0,0
14,-104,0,0,0,0,0,0,0,0,0,-1,1238,1128,0,0
21,-104,0,0,0,0,0,0,0,0,0,-1,1245,1128,0,0
28,-104,0,0,0,0,0,0,0,0,0,-1,1252,1128,0,0
35,-104,0,0,0,0,0,0,0,0,0,-1,1259,1128,0,0
42,-104,0,0,0,0,0,0,0,0,0,-1,1266,1128,0,0
49,-104,0,0,0,0,0,0,0,0,0,-1,1273,1128,0,0
56,-104,0,0,0,0,0,0,0,0,0,-1,1280,1128,0,0
63,-104,0,0,0,0,0,0,0,0,0,-1,1287,1128,0,0
70,-104,0,0,0,0,0,0,0,0,0,-1,1294,1128,0,0
77,-104,0,0,0,0,0,0,0,0,0,-1,1301,1128,0,0
84,-104,0,0,0,0,0,0,0,0,0,-1,1308,1128,0,0
91,-104,0,0,0,0,0,0,0,0,0,-1,1315,1128,0,0
98,-104,0,0,0,0,0,0,0,0,0,-1,1322,1128,0,0
105,-104,0,0,0,0,0,0,0,0,0,-1,1329,1128,0,0
112,-104,0,0,0,0,0,0,0,0,0,-1,1336,1128,0,0
119,-104,0,0,0,0,0,0,0,0,0,-1,1343,1128,0,0
126,-104,0,0,0,0,0,0,0,0,0,-1,1350,1128,0,0
133,-104,0,0,0,0,0,0,0,0,0,-1,1357,1128,0,0
140,-104,0,0,0,0,0,0,0,0,0,-1,1364,1128,0,0
147,-104,0,0,0,0,0,0,0,0,0,-1,1371,1128,0,0
154,-104,0,0,0,0,0,0,0,0,0,-1,1378,1128,0,0
161,-104,0,0,0,0,0,0,0,0,0,-1,1385,1128,0,0
168,-104,0,0,0,0,0,0,0,0,0,-1,1392,1128,0,0
175,-104,0,0,0,0,0,0,0,0,0,-1,1399,1128,0,0
182,-104,0,0,0,0,0,0,0,0,0,-1,1406,1128,0,0
189,-104,0,0,0,0,0,0,0,0,0,-1,1413,1128,0,0
196,-104,0,0,0,0,0,0,0,0,0,-1,1420,1128,0,0
203,-104,0,0,0,0,0,0,0,0,0,-1,1427,1128,0,0
210,-104,0,0,0,0,0,0,0,0,0,-1,1434,1128,0,0
217,-104,0,0,0,0,0,0,0,0,0,-1,1441,1128,0,0
224,-104,0,0,0,0,0,0,0,0,0,-1,1448,1128,0,0
231,-104,0,0,0,0,0,0,0,0,0,-1,1455,1128,0,0
238,-104,0,0,0,0,0,0,0,0,0,-1,1462,1128,0,0
245,-104,0,0,0,0,0,0,0,0,0,-1,1469,1128,0,0
252,-104,0,0,0,0,0,0,0,0,0,-1,1476,1128,0,0
259,-104,0,0,0,0,0,0,0,0,0,-1,1483,1128,0,0
266,-104,0,0,0,0,0,0,0,0,0,-1,1490,1128,0,0
273,-104,0,0,0,0,0,0,0,0,0,-1,1497,1128,0,0
280,-104,0,0,0,0,0,0,0,0,0,-1,1504,1128,0,0
287,-104,0,0,0,0,0,0,0,0,0,-1,1511,1128,0,0
294,-104,0,0,0,0,0,0,0,0,0,-1,1518,1128,0,0
301,-104,0,0,0,0,0,0,0,0,0,-1,1525,1128,0,0
308,-104,0,0,0,0,0,0,0,0,0,-1,1532,1128,0,0
315,-104,0,0,0,0,0,0,0,0,0,-1,1539,1128,0,0
322,-104,0,0,0,0,0,0,0,0,0,-1,1546,1128,0,0
329,-104,0,0,0,0,0,0,0,0,0,-1,1553,1128,0,0
336,-104,0,0,0,0,0,0,0,0,0,-1,1560,1128,0,0
343,-104,0,0,0,0,0,0,0,0,0,-1,1567,1128,0,0
350,-104,0,0,0,0,0,0,0,0,0,-1,1574,1128,0,0
357,-104,0,0,0,0,0,0,0,0,0,-1,1581,1128,0,0
364,-104,0,0,0,0,0,0,0,0,0,-1,1588,1128,0,0
371,-104,0,0,0,0,0,0,0,0,0,-1,1595,1128,0,0
378,-104,0,0,0,0,0,0,0,0,0,-1,1602,1128,0,0
385,-104,0,0,0,0,0,0,0,0,0,-1,1609,1128,0,0
392,-104,0,0,0,0,0,0,0,0,0,-1,1616,1128,0,0
399,-104,0,0,0,0,0,0,0,0,0,-1,1623,1128,0,0
406,-104,0,0,0,0,0,0,0,0,0,-1,1630,1128,0,0
413,-104,0,0,0,0,0,0,0,0,0,-1,1637,1128,0,0
420,-104,0,0,0,0,0,0,0,0,0,-1,1644,1128,0,0
427,-104,0,0,0,0,0,0,0,0,0,-1,1651,1128,0,0
434,-104,0,0,0,0,0,0,0,0,0,-1,1658,1128,0,0
441,-104,0,0,0,0,0,0,0,0,0,-1,1665,1128,0,0
448,-104,0,0,0,0,0,0,0,0,0,-1,1672,1128,0,0
455,-104,0,0,0,0,0,0,0,0,0,-1,1679,1128,0,0
462,-104,0,0,0,0,0,0,0,0,0,-1,1686,1128,0,0
469,-104,0,0,0,0,0,0,0,0,0,-1,1693,1128,0,0
476,-104,0,0,0,0,0,0,0,0,0,-1,1700,1128,0,0
483,-104,0,0,0,0,0,0,0,0,0,-1,1707,1128,0,0
490,-104,0,0,0,0,0,0,0,0,0,-1,1714,1128,0,0
497,-104,0,0,0,0,0,0,0,0,0,-1,1721,1128,0,0
504,-104,0,0,0,0,0,0,0,0,0,-1,1728,1128,0,0
511,-104,0,0,0,0,0,0,0,0,0,-1,1735,1128,0,0
518,-104,0,0,0,0,0,0,0,0,0,-1,1742,1128,0,0
525,-104,0,0,0,0,0,0,0,0,0,-1,1749,1128,0,0
532,-104,0,0,0,0,0,0,0,0,0,-1,1756,1128,0,0
539,-104,0,0,0,0,0,0,0,0,0,-1,1763,1128,0,0
546,-104,0,0,0,0,0,0,0,0,0,-1,1770,1128,0,0
553,-104,0,0,0,0,0,0,0,0,0,-1,1777,1128,0,0
560,-104,0,0,0,0,0,0,0,0,0,-1,1784,1128,0,0
567,-104,0,0,0,0,0,0,0,0,0,-1,1791,1128,0,0
574,-104,0,0,0,0,0,0,0,0,0,-1,1798,1128,0,0
581,-104,0,0,0,0,0,0,0,0,0,-1,1805,1128,0,0
588,-104,0,0,0,0,0,0,0,0,0,-1,1812,1128,0,0
595,-104,0,0,0,0,0,0,0,0,0,-1,1819,1128,0,0
602,-104,0,0,0,0,0,0,0,0,0,-1,1826,1128,0,0
609,-104,0,0,0,0,0,0,0,0,0,-1,1833,1128,0,0
616,-104,0,0,0,0,0,0,0,0,0,-1,1840,1128,0,0
623,-104,0,0,0,0,0,0,0,0,0,-1,1847,1128,0,0
630,-104,0,0,0,0,0,0,0,0,0,-1,1854,1128,0,0
637,-104,0,0,0,0,0,0,0,0,0,-1,1861,1128,0,0
644,-104,30.3077,2.92029,0.00219832,-0.00208338,-0.00468804,0.0052112,-0.00509626,-0.571208,0.00595113,0.0374357,1868,1128,30.3078,-2.92023
651,-104,30.3955,3.01501,0.00151981,-0.00172417,-0.00245783,0.00284261,-0.00304697,-0.493736,0.00340103,0.0374283,1875,1128,30.3955,-3.01496
658,-104,30.4697,2.52356,0.00120559,-0.00143139,-0.00115635,0.00164083,-0.00186662,-0.359988,0.00202643,0.0406016,1882,1128,30.4697,-2.52355
665,-104,30.3688,2.29211,0.000980133,-0.00125881,-0.000142088,0.000989114,-0.00126779,-0.0631245,0.00130633,0.045161,1889,1128,30.3688,-2.29207
672,-104,30.3236,2.52563,0.000851456,-0.00124358,0.000611523,0.00101689,-0.00140901,0.264205,0.00140668,0.045595,1896,1128,30.3236,-2.52564
679,-104,30.3115,2.79492,0.000523701,-0.00130107,0.00107619,0.00102222,-0.00179959,0.433793,0.00164965,0.0435131,1903,1128,30.3115,-2.79488
686,-104,30.2693,3.00244,0,0,0,0,0,0,0,-1,1910,1128,30.2693,-3.00244
693,-104,30.3667,2.86133,-0.000129741,-0.0014566,0.00149222,0.000839883,-0.00242622,0.576225,0.00195842,0.0327638,1917,1128,30.3667,-2.86135
700,-104,30.3695,2.80249,-0.000415714,-0.00144881,0.00166784,0.000813738,-0.00267827,0.635227,0.00210973,0.0258023,1924,1128,30.3695,-2.80247
707,-104,30.3409,2.8042,-0.000765708,-0.00141652,0.00184574,0.00078309,-0.00296532,0.698144,0.00228312,0.0302749,1931,1128,30.341,-2.80419
714,-104,29.0006,5.67029,0,0,0,0,0,0,0,-1,1938,1128,29.0006,-5.67032
721,-104,28.7133,5.44556,-0.000987682,-0.00118601,0.00179871,0.000714591,-0.00288829,0.75786,0.0022027,0.0359125,1945,1128,28.7133,-5.44555
728,-104,28.6484,5.21277,-0.00132609,-0.000889164,0.00152625,0.000434177,-0.00264943,0.856484,0.00192738,0.02127,1952,1128,28.6485,-5.21279
735,-104,28.6455,5.0658,-0.00157784,-0.000480102,0.00121687,0.00030596,-0.0023639,0.99726,0.00168719,0.0223456,1959,1128,28.6455,-5.06577
742,-104,28.5815,4.93555,-0.00168046,0.00043282,0.000694412,0.000640576,-0.00188822,1.28009,0.00151807,0.0148503,1966,1128,28.5816,-4.93549
749,-104,28.5739,4.7843,-0.00104929,0.000860257,-6.71806e-05,0.000862617,-0.00105165,-1.53567,0.001107,0.0170715,1973,1128,28.5739,-4.78431
756,-104,28.5931,4.61853,0.000907551,0.000386677,-0.00113459,0.00181121,-0.000516981,-0.672581,0.00141171,0.0162592,1980,1128,28.5931,-4.61856
763,-104,28.5692,4.479,0.00492572,-0.001265,-0.00242712,0.00576382,-0.0021031,-0.33249,0.00470303,0.0148481,1987,1128,28.5692,-4.47898
770,-104,28.5565,4.33276,0.00938803,-0.00327804,-0.0041204,0.0106105,-0.00450047,-0.288405,0.00895887,0.0122305,1994,1128,28.5565,-4.33274
777,-104,28.5488,4.18567,0.0154418,-0.00688125,-0.00571242,0.0168187,-0.00825812,-0.23652,0.0147566,0.0186678,2001,1128,28.5488,-4.18565
784,-104,28.4475,4.33142,0.0235753,-0.0123962,-0.00734945,0.025019,-0.0138398,-0.19396,0.0227425,0.0364259,2008,1128,28.4475,-4.33146
791,-104,28.324,4.51062,0,0,0,0,0,0,0,-1,2015,1128,28.324,-4.51062
798,-104,27.5217,2.36084,0.0488476,-0.0323271,-0.0098456,0.0500247,-0.0335041,-0.118991,0.0485388,0.0463239,2022,1128,27.5218,-2.36088
805,-104,27.7568,2.3252,0.0675534,-0.0484208,-0.00998883,0.0684074,-0.0492749,-0.0852927,0.0682425,0.0461988,2029,1128,27.7568,-2.32522
812,-104,28.2964,2.32703,0.0914517,-0.0700367,-0.00855283,0.0919035,-0.0704884,-0.0527657,0.0940283,0.0459731,2036,1128,28.2963,-2.32708
-700,-111,0,0,0,0,0,0,0,0,0,-1,524,1135,0,0
-693,-111,-23.0977,-3.55566,0,0,0,0,0,0,0,-1,531,1135,-23.0977,3.55567
-686,-111,-21.0911,-3.54285,0,0,0,0,0,0,0,-1,538,1135,-21.0911,3.54279
-679,-111,-21.316,-2.29504,0.010946,0.0436956,0.0578211,0.0874158,-0.0327742,0.923384,0.0717423,0.0468393,545,1135,-21.316,2.29501
-672,-111,-21.6618,-0.835571,0.00835594,0.0338871,0.0436955,0.0666436,-0.0244005,0.927518,0.0544177,0.0471237,552,1135,-21.6618,0.835538
-665,-111,-22.0419,0.66394,0,0,0,0,0,0,0,-1,559,1135,-22.042,-0.663966
-658,-111,-19.6805,1.21106,0,0,0,0,0,0,0,-1,566,1135,-19.6805,-1.21102
-651,-111,-19.1996,1.51819,0.00304308,0.0134237,0.0150895,0.0241906,-0.00772379,0.951044,0.019226,0.0396406,573,1135,-19.1996,-1.51822
-644,-111,-19.1561,1.49976,0.00197412,0.0091785,0.00945815,0.0156972,-0.00454458,0.967345,0.0122636,0.0245609,580,1135,-19.1561,-1.49972
-637,-111,-19.191,1.69592,0.00117379,0.00562958,0.00495931,0.00883844,-0.00203506,0.996507,0.00667487,0.00948886,587,1135,-19.191,-1.69592
-630,-111,-19.2004,1.86072,0.000136011,0.00293411,0.0014061,0.00351861,-0.000448486,1.17684,0.00250863,0.0147901,594,1135,-19.2004,-1.86077
-623,-111,-19.2082,2.06238,-7.00523e-06,0.000254065,-0.00145511,0.00158449,-0.00133742,-0.830132,0.00168897,0.0138878,601,1135,-19.2082,-2.0624
-616,-111,-19.27,2.26038,-0.000190904,-0.001173,-0.00280412,0.00216484,-0.00352874,-0.698719,0.00331848,0.0149833,608,1135,-19.27,-2.2604
-609,-111,-19.4069,2.46045,-0.000243447,-0.00149164,-0.00245279,0.0016634,-0.00339848,-0.66082,0.00297916,0.0209619,615,1135,-19.4068,-2.4605
-602,-111,-19.3344,2.67114,-3.2756e-05,-0.00197057,-0.00273599,0.00190082,-0.00390414,-0.615221,0.00341738,0.0218714,622,1135,-19.3343,-2.67112
-595,-111,-19.2383,2.91504,9.28419e-05,-0.00236695,-0.00280042,0.00192154,-0.00419564,-0.578487,0.00361219,0.0142899,629,1135,-19.2383,-2.91502
-588,-111,-19.1774,3.05713,0.000186103,-0.0026515,-0.00276997,0.00187949,-0.00434489,-0.548714,0.00368641,0.0441833,636,1135,-19.1774,-3.05718
-581,-111,-19.1457,2.8999,0,0,0,0,0,0,0,-1,643,1135,-19.1457,-2.89991
-574,-111,-21.0605,0.90625,0,0,0,0,0,0,0,-1,650,1135,-21.0605,-0.906197
-567,-111,-21.0598,1.05762,0.000888477,-0.00333843,-0.00264432,0.00216016,-0.00461011,-0.448259,0.00399321,0.0375154,657,1135,-21.0598,-1.05756
-560,-111,-20.9923,1.13428,0.00110058,-0.00336713,-0.00251663,0.00223177,-0.00449832,-0.422427,0.00395839,0.0405269,664,1135,-20.9923,-1.13428
-553,-111,-21.0881,1.15747,0.00126911,-0.00335323,-0.00239531,0.00228646,-0.00437058,-0.401637,0.00390572,0.0474067,671,1135,-21.0881,-1.15749
-546,-111,-21.0999,1.14783,0.00146253,-0.00338163,-0.00231027,0.00238766,-0.00430677,-0.380888,0.00391761,0.0443289,678,1135,-21.0999,-1.14787
-539,-111,-21.0139,1.078,0.00182096,-0.00361516,-0.002367,0.00270714,-0.00450134,-0.358235,0.00420457,0.0412073,685,1135,-21.0139,-1.07797
-532,-111,-21.0864,1.04272,0.00223014,-0.0048551,-0.00341534,0.00360836,-0.00623333,-0.383554,0.00574908,0.0388887,692,1135,-21.0864,-1.04269
-525,-111,-21.1549,1.01501,0.00279734,-0.00621573,-0.00449644,0.00465687,-0.00807527,-0.392139,0.00743869,0.037401,699,1135,-21.1549,-1.01496
-518,-111,0,0,0,0,0,0,0,0,0,-1,706,1135,0,0
-511,-111,0,0,0,0,0,0,0,0,0,-1,713,1135,0,0
-504,-111,0,0,0,0,0,0,0,0,0,-1,720,1135,0,0
-497,-111,0,0,0,0,0,0,0,0,0,-1,727,1135,0,0
-490,-111,0,0,0,0,0,0,0,0,0,-1,734,1135,0,0
-483,-111,0,0,0,0,0,0,0,0,0,-1,741,1135,0,0
-476,-111,0,0,0,0,0,0,0,0,0,-1,748,1135,0,0
-469,-111,0,0,0,0,0,0,0,0,0,-1,755,1135,0,0
-462,-111,0,0,0,0,0,0,0,0,0,-1,762,1135,0,0
-455,-111,0,0,0,0,0,0,0,0,0,-1,769,1135,0,0
-448,-111,0,0,0,0,0,0,0,0,0,-1,776,1135,0,0
-441,-111,0,0,0,0,0,0,0,0,0,-1,783,1135,0,0
-434,-111,0,0,0,0,0,0,0,0,0,-1,790,1135,0,0
-427,-111,0,0,0,0,0,0,0,0,0,-1,797,1135,0,0
-420,-111,0,0,0,0,0,0,0,0,0,-1,804,1135,0,0
-413,-111,0,0,0,0,0,0,0,0,0,-1,811,1135,0,0
-406,-111,0,0,0,0,0,0,0,0,0,-1,818,1135,0,0
-399,-111,0,0,0,0,0,0,0,0,0,-1,825,1135,0,0
-392,-111,0,0,0,0,0,0,0,0,0,-1,832,1135,0,0
-385,-111,0,0,0,0,0,0,0,0,0,-1,839,1135,0,0
-378,-111,0,0,0,0,0,0,0,0,0,-1,846,1135,0,0
-371,-111,0,0,0,0,0,0,0,0,0,-1,853,1135,0,0
-364,-111,0,0,0,0,0,0,0,0,0,-1,860,1135,0,0
-357,-111,0,0,0,0,0,0,0,0,0,-1,867,1135,0,0
-350,-111,0,0,0,0,0,0,0,0,0,-1,874,1135,0,0
-343,-111,0,0,0,0,0,0,0,0,0,-1,881,1135,0,0
-336,-111,0,0,0,0,0,0,0,0,0,-1,888,1135,0,0
-329,-111,0,0,0,0,0,0,0,0,0,-1,895,1135,0,0
-322,-111,0,0,0,0,0,0,0,0,0,-1,902,1135,0,0
-315,-111,0,0,0,0,0,0,0,0,0,-1,909,1135,0,0
-308,-111,0,0,0,0,0,0,0,0,0,-1,916,1135,0,0
-301,-111,0,0,0,0,0,0,0,0,0,-1,923,1135,0,0
-294,-111,0,0,0,0,0,0,0,0,0,-1,930,1135,0,0
-287,-111,0,0,0,0,0,0,0,0,0,-1,937,1135,0,0
-280,-111,0,0,0,0,0,0,0,0,0,-1,944,1135,0,0
-273,-111,0,0,0,0,0,0,0,0,0,-1,951,1135,0,0
-266,-111,0,0,0,0,0,0,0,0,0,-1,958,1135,0,0
-259,-111,0,0,0,0,0,0,0,0,0,-1,965,1135,0,0
-252,-111,0,0,0,0,0,0,0,0,0,-1,972,1135,0,0
-245,-111,0,0,0,0,0,0,0,0,0,-1,979,1135,0,0
-238,-111,0,0,0,0,0,0,0,0,0,-1,986,1135,0,0
-231,-111,0,0,0,0,0,0,0,0,0,-1,993,1135,0,0
-224,-111,0,0,0,0,0,0,0,0,0,-1,1000,1135,0,0
-217,-111,0,0,0,0,0,0,0,0,0,-1,1007,1135,0,0
-210,-111,0,0,0,0,0,0,0,0,0,-1,1014,1135,0,0
-203,-111,0,0,0,0,0,0,0,0,0,-1,1021,1135,0,0
-196,-111,0,0,0,0,0,0,0,0,0,-1,1028,1135,0,0
-189,-111,0,0,0,0,0,0,0,0,0,-1,1035,1135,0,0
-182,-111,0,0,0,0,0,0,0,0,0,-1,1042,1135,0,0
-175,-111,0,0,0,0,0,0,0,0,0,-1,1049,1135,0,0
-168,-111,0,0,0,0,0,0,0,0,0,-1,1056,1135,0,0
-161,-111,0,0,0,0,0,0,0,0,0,-1,1063,1135,0,0
-154,-111,0,0,0,0,0,0,0,0,0,-1,1070,1135,0,0
-147,-111,0,0,0,0,0,0,0,0,0,-1,1077,1135,0,0
-140,-111,0,0,0,0,0,0,0,0,0,-1,1084,1135,0,0
-133,-111,0,0,0,0,0,0,0,0,0,-1,1091,1135,0,0
-126,-111,0,0,0,0,0,0,0,0,0,-1,1098,1135,0,0
-119,-111,0,0,0,0,0,0,0,0,0,-1,1105,1135,0,0
-112,-111,0,0,0,0,0,0,0,0,0,-1,1112,1135,0,0
-105,-111,0,0,0,0,0,0,0,0,0,-1,1119,1135,0,0
-98,-111,0,0,0,0,0,0,0,0,0,-1,1126,1135,0,0
-91,-111,0,0,0,0,0,0,0,0,0,-1,1133,1135,0,0
-84,-111,0,0,0,0,0,0,0,0,0,-1,1140,1135,0,0
-77,-111,0,0,0,0,0,0,0,0,0,-1,1147,1135,0,0
-70,-111,0,0,0,0,0,0,0,0,0,-1,1154,1135,0,0
-63,-111,0,0,0,0,0,0,0,0,0,-1,1161,1135,0,0
-56,-111,0,0,0,0,0,0,0,0,0,-1,1168,1135,0,0
-49,-111,0,0,0,0,0,0,0,0,0,-1,1175,1135,0,0
-42,-111,0,0,0,0,0,0,0,0,0,-1,1182,1135,0,0
-35,-111,0,0,0,0,0,0,0,0,0,-1,1189,1135,0,0
-28,-111,0,0,0,0,0,0,0,0,0,-1,1196,1135,0,0
-21,-111,0,0,0,0,0,0,0,0,0,-1,1203,1135,0,0
-14,-111,0,0,0,0,0,0,0,0,0,-1,1210,1135,0,0
-7,-111,0,0,0,0,0,0,0,0,0,-1,1217,1135,0,0
0,-111,0,0,0,0,0,0,0,0,0,-1,1224,1135,0,0
7,-111,0,0,0,0,0,0,0,0,0,-1,1231,1135,0,0
14,-111,0,0,0,0,0,0,0,0,0,-1,1238,1135,0,0
21,-111,0,0,0,0,0,0,0,0,0,-1,1245,1135,0,0
28,-111,0,0,0,0,0,0,0,0,0,-1,1252,1135,0,0
35,-111,0,0,0,0,0,0,0,0,0,-1,1259,1135,0,0
42,-111,0,0,0,0,0,0,0,0,0,-1,1266,1135,0,0
49,-111,0,0,0,0,0,0,0,0,0,-1,1273,1135,0,0
56,-111,0,0,0,0,0,0,0,0,0,-1,1280,1135,0,0
63,-111,0,0,0,0,0,0,0,0,0,-1,1287,1135,0,0
70,-111,0,0,0,0,0,0,0,0,0,-1,1294,1135,0,0
77,-111,0,0,0,0,0,0,0,0,0,-1,1301,1135,0,0
84,-111,0,0,0,0,0,0,0,0,0,-1,1308,1135,0,0
91,-111,0,0,0,0,0,0,0,0,0,-1,1315,1135,0,0
98,-111,0,0,0,0,0,0,0,0,0,-1,1322,1135,0,0
105,-111,0,0,0,0,0,0,0,0,0,-1,1329,1135,0,0
112,-111,0,0,0,0,0,0,0,0,0,-1,1336,1135,0,0
119,-111,0,0,0,0,0,0,0,0,0,-1,1343,1135,0,0
126,-111,0,0,0,0,0,0,0,0,0,-1,1350,1135,0,0
133,-111,0,0,0,0,0,0,0,0,0,-1,1357,1135,0,0
140,-111,0,0,0,0,0,0,0,0,0,-1,1364,1135,0,0
147,-111,0,0,0,0,0,0,0,0,0,-1,1371,1135,0,0
154,-111,0,0,0,0,0,0,0,0,0,-1,1378,1135,0,0
161,-111,0,0,0,0,0,0,0,0,0,-1,1385,1135,0,0
168,-111,0,0,0,0,0,0,0,0,0,-1,1392,1135,0,0
175,-111,0,0,0,0,0,0,0,0,0,-1,1399,1135,0,0
182,-111,0,0,0,0,0,0,0,0,0,-1,1406,1135,0,0
189,-111,0,0,0,0,0,0,0,0,0,-1,1413,1135,0,0
196,-111,0,0,0,0,0,0,0,0,0,-1,1420,1135,0,0
203,-111,0,0,0,0,0,0,0,0,0,-1,1427,1135,0,0
210,-111,0,0,0,0,0,0,0,0,0,-1,1434,1135,0,0
217,-111,0,0,0,0,0,0,0,0,0,-1,1441,1135,0,0
224,-111,0,0,0,0,0,0,0,0,0,-1,1448,1135,0,0
231,-111,0,0,0,0,0,0,0,0,0,-1,1455,1135,0,0
238,-111,0,0,0,0,0,0,0,0,0,-1,1462,1135,0,0
245,-111,0,0,0,0,0,0,0,0,0,-1,1469,1135,0,0
252,-111,0,0,0,0,0,0,0,0,0,-1,1476,1135,0,0
259,-111,0,0,0,0,0,0,0,0,0,-1,1483,1135,0,0
266,-111,0,0,0,0,0,0,0,0,0,-1,1490,1135,0,0
273,-111,0,0,0,0,0,0,0,0,0,-1,1497,1135,0,0
280,-111,0,0,0,0,0,0,0,0,0,-1,1504,1135,0,0
287,-111,0,0,0,0,0,0,0,0,0,-1,1511,1135,0,0
294,-111,0,0,0,0,0,0,0,0,0,-1,1518,1135,0,0
301,-111,0,0,0,0,0,0,0,0,0,-1,1525,1135,0,0
308,-111,0,0,0,0,0,0,0,0,0,-1,1532,1135,0,0
315,-111,0,0,0,0,0,0,0,0,0,-1,1539,1135,0,0
322,-111,0,0,0,0,0,0,0,0,0,-1,1546,1135,0,0
329,-111,0,0,0,0,0,0,0,0,0,-1,1553,1135,0,0
336,-111,0,0,0,0,0,0,0,0,0,-1,1560,1135,0,0
343,-111,0,0,0,0,0,0,0,0,0,-1,1567,1135,0,0
350,-111,0,0,0,0,0,0,0,0,0,-1,1574,1135,0,0
357,-111,0,0,0,0,0,0,0,0,0,-1,1581,1135,0,0
364,-111,0,0,0,0,0,0,0,0,0,-1,1588,1135,0,0
371,-111,0,0,0,0,0,0,0,0,0,-1,1595,1135,0,0
378,-111,0,0,0,0,0,0,0,0,0,-1,1602,1135,0,0
385,-111,0,0,0,0,0,0,0,0,0,-1,1609,1135,0,0
392,-111,0,0,0,0,0,0,0,0,0,-1,1616,1135,0,0
399,-111,0,0,0,0,0,0,0,0,0,-1,1623,1135,0,0
406,-111,0,0,0,0,0,0,0,0,0,-1,1630,1135,0,0
413,-111,0,0,0,0,0,0,0,0,0,-1,1637,1135,0,0
420,-111,0,0,0,0,0,0,0,0,0,-1,1644,1135,0,0
427,-111,0,0,0,0,0,0,0,0,0,-1,1651,1135,0,0
434,-111,0,0,0,0,0,0,0,0,0,-1,1658,1135,0,0
441,-111,0,0,0,0,0,0,0,0,0,-1,1665,1135,0,0
448,-111,0,0,0,0,0,0,0,0,0,-1,1672,1135,0,0
455,-111,0,0,0,0,0,0,0,0,0,-1,1679,1135,0,0
462,-111,0,0,0,0,0,0,0,0,0,-1,1686,1135,0,0
469,-111,0,0,0,0,0,0,0,0,0,-1,1693,1135,0,0
476,-111,0,0,0,0,0,0,0,0,0,-1,1700,1135,0,0
483,-111,0,0,0,0,0,0,0,0,0,-1,1707,1135,0,0
490,-111,0,0,0,0,0,0,0,0,0,-1,1714,1135,0,0
497,-111,0,0,0,0,0,0,0,0,0,-1,1721,1135,0,0
504,-111,0,0,0,0,0,0,0,0,0,-1,1728,1135,0,0
511,-111,0,0,0,0,0,0,0,0,0,-1,1735,1135,0,0
518,-111,0,0,0,0,0,0,0,0,0,-1,1742,1135,0,0
525,-111,0,0,0,0,0,0,0,0,0,-1,1749,1135,0,0
532,-111,0,0,0,0,0,0,0,0,0,-1,1756,1135,0,0
539,-111,0,0,0,0,0,0,0,0,0,-1,1763,1135,0,0
546,-111,0,0,0,0,0,0,0,0,0,-1,1770,1135,0,0
553,-111,0,0,0,0,0,0,0,0,0,-1,1777,1135,0,0
560,-111,0,0,0,0,0,0,0,0,0,-1,1784,1135,0,0
567,-111,0,0,0,0,0,0,0,0,0,-1,1791,1135,0,0
574,-111,0,0,0,0,0,0,0,0,0,-1,1798,1135,0,0
581,-111,0,0,0,0,0,0,0,0,0,-1,1805,1135,0,0
588,-111,0,0,0,0,0,0,0,0,0,-1,1812,1135,0,0
595,-111,0,0,0,0,0,0,0,0,0,-1,1819,1135,0,0
602,-111,0,0,0,0,0,0,0,0,0,-1,1826,1135,0,0
609,-111,0,0,0,0,0,0,0,0,0,-1,1833,1135,0,0
616,-111,0,0,0,0,0,0,0,0,0,-1,1840,1135,0,0
623,-111,0,0,0,0,0,0,0,0,0,-1,1847,1135,0,0
630,-111,0,0,0,0,0,0,0,0,0,-1,1854,1135,0,0
637,-111,0,0,0,0,0,0,0,0,0,-1,1861,1135,0,0
644,-111,30.1996,3.02051,0.00200935,-0.00247677,-0.00428189,0.00460012,-0.00506754,-0.544127,0.0055838,0.0415777,1868,1135,30.1996,-3.02048
651,-111,30.4697,3.05334,0.00136295,-0.00199371,-0.00230145,0.00253303,-0.0031638,-0.470354,0.00329578,0.0391635,1875,1135,30.4697,-3.05336
658,-111,30.5485,2.70923,0.00106627,-0.00155966,-0.00110507,0.00146943,-0.00196282,-0.349816,0.00198842,0.0432348,1882,1135,30.5484,-2.70926
665,-111,30.4236,2.53906,0.000880411,-0.00124201,-0.000177513,0.000895155,-0.00125676,-0.0828698,0.00124824,0.0447845,1889,1135,30.4236,-2.53912
672,-111,30.361,2.76892,0.000802528,-0.00106731,0.000437728,0.000899927,-0.00116471,0.218942,0.00119528,0.0437382,1896,1135,30.361,-2.76888
679,-111,30.2637,2.89868,0.000514469,-0.0010051,0.000783401,0.000846009,-0.00133664,0.40035,0.00127072,0.0418424,1903,1135,30.2637,-2.89865
686,-111,30.2406,3.02637,0.000145175,-0.00101952,0.000993312,0.000714261,-0.0015886,0.520268,0.00136113,0.0377668,1910,1135,30.2406,-3.02636
693,-111,30.2954,2.87537,-0.00011222,-0.00100805,0.00106634,0.000596463,-0.00171673,0.586564,0.00138675,0.0339863,1917,1135,30.2954,-2.87541
700,-111,30.3624,2.80127,-0.00038589,-0.000994498,0.00122967,0.000576573,-0.00195696,0.664101,0.0015334,0.0265452,1924,1135,30.3625,-2.80129
707,-111,30.1345,3.11572,0,0,0,0,0,0,0,-1,1931,1135,30.1345,-3.1157
714,-111,29.1859,4.35645,0,0,0,0,0,0,0,-1,1938,1135,29.1859,-4.35647
721,-111,28.469,5.45386,-0.000914942,-0.000742702,0.0013714,0.000545277,-0.00220292,0.816756,0.00168013,0.0160773,1945,1135,28.469,-5.45383
728,-111,28.4558,5.23804,-0.00122837,-0.000514601,0.00111013,0.000294597,-0.00203757,0.94092,0.00146647,0.0180854,1952,1135,28.4558,-5.23799
735,-111,28.4532,5.07813,-0.00142728,-0.00020893,0.000898979,0.000267831,-0.00190404,1.08317,0.00136741,0.0181529,1959,1135,28.4533,-5.07811
742,-111,28.4202,4.97131,-0.00150449,0.000545737,0.000554942,0.000686307,-0.00164506,1.32271,0.00138344,0.0120598,1966,1135,28.4201,-4.97135
749,-111,28.4008,4.81238,-0.000834384,0.000685828,-1.79877e-05,0.00068604,-0.000834596,-1.55897,0.000879335,0.0146686,1973,1135,28.4008,-4.81236
756,-111,28.3953,4.62622,0.00116782,2.37293e-05,-0.000942377,0.00169818,-0.000506637,-0.512615,0.00133348,0.015656,1980,1135,28.3953,-4.62624
763,-111,28.3926,4.46997,0.00513181,-0.00188295,-0.00206662,0.00569538,-0.00244652,-0.266228,0.00482386,0.0133781,1987,1135,28.3926,-4.46996
770,-111,28.3988,4.31555,0.00955186,-0.00419928,-0.00349132,0.0103875,-0.00503492,-0.234928,0.00908114,0.0106518,1994,1135,28.3989,-4.31551
777,-111,28.3319,4.10779,0.0154959,-0.00802734,-0.00485966,0.0164603,-0.00899175,-0.195908,0.0149042,0.0216957,2001,1135,28.3319,-4.10783
784,-111,28.2338,3.89136,0.0235247,-0.013811,-0.00627455,0.0245509,-0.0148373,-0.162126,0.0229701,0.0390427,2008,1135,28.2338,-3.89137
791,-111,27.8706,3.5564,0.034226,-0.0222562,-0.00750558,0.0352063,-0.0232365,-0.129882,0.0339771,0.0443928,2015,1135,27.8706,-3.55641
798,-111,27.6765,3.22205,0.0483438,-0.0340471,-0.00826929,0.0491655,-0.0348688,-0.0990503,0.0487507,0.0441041,2022,1135,27.6764,-3.22208
805,-111,27.7146,3.15967,0.0665744,-0.0499785,-0.00816541,0.0671437,-0.0505478,-0.0696044,0.068174,0.0446491,2029,1135,27.7147,-3.15965
812,-111,28.325,3.0271,0.0896905,-0.0710554,-0.00650866,0.0899536,-0.0713185,-0.0404022,0.0933174,0.0434047,2036,1135,28.3249,-3.02707
-700,-118,0,0,0,0,0,0,0,0,0,-1,524,1142,0,0
-693,-118,-22.7862,-4.02478,0,0,0,0,0,0,0,-1,531,1142,-22.7862,4.02474
-686,-118,-21.3469,-4.16052,0,0,0,0,0,0,0,-1,538,1142,-21.3469,4.16055
-679,-118,-21.602,-2.89832,0.011889,0.034253,0.0548686,0.0790675,-0.0329255,0.88592,0.0664633,0.0451375,545,1142,-21.602,2.89829
-672,-118,-22.0447,-1.67847,0.00945841,0.0262795,0.0414071,0.0601216,-0.0243837,0.885594,0.0502224,0.0443675,552,1142,-22.0448,1.67847
-665,-118,-22.3958,-0.471924,0,0,0,0,0,0,0,-1,559,1142,-22.3958,0.471893
-658,-118,-18.7189,0.93042,0,0,0,0,0,0,0,-1,566,1142,-18.7189,-0.930413
-651,-118,-18.7892,1.2135,0.00379189,0.0103491,0.0142006,0.0216447,-0.00750367,0.898849,0.0174765,0.0378568,573,1142,-18.7893,-1.21351
-644,-118,-18.8952,1.47156,0.00253654,0.00711404,0.00884696,0.0139635,-0.00431293,0.911975,0.0110314,0.0248723,580,1142,-18.8952,-1.47159
-637,-118,-18.9665,1.69043,0.00164906,0.0043944,0.00470273,0.0079207,-0.00187724,0.927397,0.00600484,0.0149886,587,1142,-18.9665,-1.69046
-630,-118,-18.9866,1.86365,0.000728959,0.00239006,0.00153228,0.0033024,-0.000183386,1.03375,0.00226521,0.0182095,594,1142,-18.9866,-1.86361
-623,-118,-18.9875,2.07068,0.000566256,0.000257026,-0.0011196,0.00154186,-0.000718581,-0.716783,0.00133361,0.0159626,601,1142,-18.9876,-2.07066
-616,-118,-18.9904,2.26733,0.000147622,-0.000936652,-0.00231492,0.00198304,-0.00277207,-0.670375,0.00275794,0.0153221,608,1142,-18.9904,-2.26738
-609,-118,-19.0831,2.42419,-2.78181e-05,-0.00111892,-0.00179321,0.00130099,-0.00244773,-0.637731,0.00219782,0.0211381,615,1142,-19.0831,-2.42422
-602,-118,-19.0793,2.72412,0.000111607,-0.00154754,-0.00199171,0.0014396,-0.00287554,-0.588067,0.00253691,0.0206389,622,1142,-19.0793,-2.7241
-595,-118,-19.127,2.87671,0.000116461,-0.00188268,-0.00205644,0.00140339,-0.00316961,-0.559178,0.00270507,0.0168416,629,1142,-19.127,-2.87665
-588,-118,-18.8829,3.11426,5.28472e-05,-0.00213012,-0.00208348,0.00131343,-0.0033907,-0.544115,0.00280281,0.0338098,636,1142,-18.8829,-3.11426
-581,-118,-18.6805,3.2356,0,0,0,0,0,0,0,-1,643,1142,-18.6805,-3.2356
-574,-118,-21.0319,0.783203,0,0,0,0,0,0,0,-1,650,1142,-21.0319,-0.78317
-567,-118,-21.0607,1.04016,0.00038412,-0.00304704,-0.00230577,0.00154253,-0.00420545,-0.465561,0.00343525,0.0433555,657,1142,-21.0608,-1.0401
-560,-118,-21.0466,1.2157,0.000500694,-0.00321288,-0.0023801,0.0016626,-0.00437479,-0.454145,0.00360103,0.0382238,664,1142,-21.0466,-1.21572
-553,-118,-21.0015,1.25134,0.000664413,-0.00339348,-0.00249391,0.00185046,-0.00457953,-0.443921,0.00382219,0.0423132,671,1142,-21.0015,-1.2513
-546,-118,-20.9585,1.19397,0.000993247,-0.00370271,-0.00267781,0.00220668,-0.00491614,-0.425466,0.00421037,0.0444358,678,1142,-20.9585,-1.19391
-539,-118,-21.0394,1.17749,0.00170331,-0.00431705,-0.0029678,0.00292031,-0.00553405,-0.389155,0.00495827,0.0429025,685,1142,-21.0394,-1.17753
-532,-118,-21.1236,1.37292,0,0,0,0,0,0,0,-1,692,1142,-21.1236,-1.37287
-525,-118,-21.1278,1.03101,0,0,0,0,0,0,0,-1,699,1142,-21.1278,-1.03102
-518,-118,0,0,0,0,0,0,0,0,0,-1,706,1142,0,0
-511,-118,0,0,0,0,0,0,0,0,0,-1,713,1142,0,0
-504,-118,0,0,0,0,0,0,0,0,0,-1,720,1142,0,0
-497,-118,0,0,0,0,0,0,0,0,0,-1,727,1142,0,0
-490,-118,0,0,0,0,0,0,0,0,0,-1,734,1142,0,0
-483,-118,0,0,0,0,0,0,0,0,0,-1,741,1142,0,0
-476,-118,0,0,0,0,0,0,0,0,0,-1,748,1142,0,0
-469,-118,0,0,0,0,0,0,0,0,0,-1,755,1142,0,0
-462,-118,0,0,0,0,0,0,0,0,0,-1,762,1142,0,0
-455,-118,0,0,0,0,0,0,0,0,0,-1,769,1142,0,0
-448,-118,0,0,0,0,0,0,0,0,0,-1,776,1142,0,0
-441,-118,0,0,0,0,0,0,0,0,0,-1,783,1142,0,0
-434,-118,0,0,0,0,0,0,0,0,0,-1,790,1142,0,0
-427,-118,0,0,0,0,0,0,0,0,0,-1,797,1142,0,0
-420,-118,0,0,0,0,0,0,0,0,0,-1,804,1142,0,0
-413,-118,0,0,0,0,0,0,0,0,0,-1,811,1142,0,0
-406,-118,0,0,0,0,0,0,0,0,0,-1,818,1142,0,0
-399,-118,0,0,0,0,0,0,0,0,0,-1,825,1142,0,0
-392,-118,0,0,0,0,0,0,0,0,0,-1,832,1142,0,0
-385,-118,0,0,0,0,0,0,0,0,0,-1,839,1142,0,0
-378,-118,0,0,0,0,0,0,0,0,0,-1,846,1142,0,0
-371,-118,0,0,0,0,0,0,0,0,0,-1,853,1142,0,0
-364,-118,0,0,0,0,0,0,0,0,0,-1,860,1142,0,0
-357,-118,0,0,0,0,0,0,0,0,0,-1,867,1142,0,0
-350,-118,0,0,0,0,0,0,0,0,0,-1,874,1142,0,0
-343,-118,0,0,0,0,0,0,0,0,0,-1,881,1142,0,0
-336,-118,0,0,0,0,0,0,0,0,0,-1,888,1142,0,0
-329,-118,0,0,0,0,0,0,0,0,0,-1,895,1142,0,0
-322,-118,0,0,0,0,0,0,0,0,0,-1,902,1142,0,0
-315,-118,0,0,0,0,0,0,0,0,0,-1,909,1142,0,0
-308,-118,0,0,0,0,0,0,0,0,0,-1,916,1142,0,0
-301,-118,0,0,0,0,0,0,0,0,0,-1,923,1142,0,0
-294,-118,0,0,0,0,0,0,0,0,0,-1,930,1142,0,0
-287,-118,0,0,0,0,0,0,0,0,0,-1,937,1142,0,0
-280,-118,0,0,0,0,0,0,0,0,0,-1,944,1142,0,0
-273,-118,0,0,0,0,0,0,0,0,0,-1,951,1142,0,0
-266,-118,0,0,0,0,0,0,0,0,0,-1,958,1142,0,0
-259,-118,0,0,0,0,0,0,0,0,0,-1,965,1142,0,0
-252,-118,0,0,0,0,0,0,0,0,0,-1,972,1142,0,0
-245,-118,0,0,0,0,0,0,0,0,0,-1,979,1142,0,0
-238,-118,0,0,0,0,0,0,0,0,0,-1,986,1142,0,0
-231,-118,0,0,0,0,0,0,0,0,0,-1,993,1142,0,0
-224,-118,0,0,0,0,0,0,0,0,0,-1,1000,1142,0,0
-217,-118,0,0,0,0,0,0,0,0,0,-1,1007,1142,0,0
-210,-118,0,0,0,0,0,0,0,0,0,-1,1014,1142,0,0
-203,-118,0,0,0,0,0,0,0,0,0,-1,1021,1142,0,0
-196,-118,0,0,0,0,0,0,0,0,0,-1,1028,1142,0,0
-189,-118,0,0,0,0,0,0,0,0,0,-1,1035,1142,0,0
-182,-118,0,0,0,0,0,0,0,0,0,-1,1042,1142,0,0
-175,-118,0,0,0,0,0,0,0,0,0,-1,1049,1142,0,0
-168,-118,0,0,0,0,0,0,0,0,0,-1,1056,1142,0,0
-161,-118,0,0,0,0,0,0,0,0,0,-1,1063,1142,0,0
-154,-118,0,0,0,0,0,0,0,0,0,-1,1070,1142,0,0
-147,-118,0,0,0,0,0,0,0,0,0,-1,1077,1142,0,0
-140,-118,0,0,0,0,0,0,0,0,0,-1,1084,1142,0,0
-133,-118,0,0,0,0,0,0,0,0,0,-1,1091,1142,0,0
-126,-118,0,0,0,0,0,0,0,0,0,-1,1098,1142,0,0
-119,-118,0,0,0,0,0,0,0,0,0,-1,1105,1142,0,0
-112,-118,0,0,0,0,0,0,0,0,0,-1,1112,1142,0,0
-105,-118,0,0,0,0,0,0,0,0,0,-1,1119,1142,0,0
-98,-118,0,0,0,0,0,0,0,0,0,-1,1126,1142,0,0
-91,-118,0,0,0,0,0,0,0,0,0,-1,1133,1142,0,0
-84,-118,0,0,0,0,0,0,0,0,0,-1,1140,1142,0,0
-77,-118,0,0,0,0,0,0,0,0,0,-1,1147,1142,0,0
-70,-118,0,0,0,0,0,0,0,0,0,-1,1154,1142,0,0
-63,-118,0,0,0,0,0,0,0,0,0,-1,1161,1142,0,0
-56,-118,0,0,0,0,0,0,0,0,0,-1,1168,1142,0,0
-49,-118,0,0,0,0,0,0,0,0,0,-1,1175,1142,0,0
-42,-118,0,0,0,0,0,0,0,0,0,-1,1182,1142,0,0
-35,-118,0,0,0,0,0,0,0,0,0,-1,1189,1142,0,0
-28,-118,0,0,0,0,0,0,0,0,0,-1,1196,1142,0,0
-21,-118,0,0,0,0,0,0,0,0,0,-1,1203,1142,0,0
-14,-118,0,0,0,0,0,0,0,0,0,-1,1210,1142,0,0
-7,-118,0,0,0,0,0,0,0,0,0,-1,1217,1142,0,0
0,-118,0,0,0,0,0,0,0,0,0,-1,1224,1142,0,0
7,-118,0,0,0,0,0,0,0,0,0,-1,1231,1142,0,0
14,-118,0,0,0,0,0,0,0,0,0,-1,1238,1142,0,0
21,-118,0,0,0,0,0,0,0,0,0,-1,1245,1142,0,0
28,-118,0,0,0,0,0,0,0,0,0,-1,1252,1142,0,0
35,-118,0,0,0,0,0,0,0,0,0,-1,1259,1142,0,0
42,-118,0,0,0,0,0,0,0,0,0,-1,1266,1142,0,0
49,-118,0,0,0,0,0,0,0,0,0,-1,1273,1142,0,0
56,-118,0,0,0,0,0,0,0,0,0,-1,1280,1142,0,0
63,-118,0,0,0,0,0,0,0,0,0,-1,1287,1142,0,0
70,-118,0,0,0,0,0,0,0,0,0,-1,1294,1142,0,0
77,-118,0,0,0,0,0,0,0,0,0,-1,1301,1142,0,0
84,-118,0,0,0,0,0,0,0,0,0,-1,1308,1142,0,0
91,-118,0,0,0,0,0,0,0,0,0,-1,1315,1142,0,0
98,-118,0,0,0,0,0,0,0,0,0,-1,1322,1142,0,0
105,-118,0,0,0,0,0,0,0,0,0,-1,1329,1142,0,0
112,-118,0,0,0,0,0,0,0,0,0,-1,1336,1142,0,0
119,-118,0,0,0,0,0,0,0,0,0,-1,1343,1142,0,0
126,-118,0,0,0,0,0,0,0,0,0,-1,1350,1142,0,0
133,-118,0,0,0,0,0,0,0,0,0,-1,1357,1142,0,0
140,-118,0,0,0,0,0,0,0,0,0,-1,1364,1142,0,0
147,-118,0,0,0,0,0,0,0,0,0,-1,1371,1142,0,0
154,-118,0,0,0,0,0,0,0,0,0,-1,1378,1142,0,0
161,-118,0,0,0,0,0,0,0,0,0,-1,1385,1142,0,0
168,-118,0,0,0,0,0,0,0,0,0,-1,1392,1142,0,0
175,-118,0,0,0,0,0,0,0,0,0,-1,1399,1142,0,0
182,-118,0,0,0,0,0,0,0,0,0,-1,1406,1142,0,0
189,-118,0,0,0,0,0,0,0,0,0,-1,1413,1142,0,0
196,-118,0,0,0,0,0,0,0,0,0,-1,1420,1142,0,0
203,-118,0,0,0,0,0,0,0,0,0,-1,1427,1142,0,0
210,-118,0,0,0,0,0,0,0,0,0,-1,1434,1142,0,0
217,-118,0,0,0,0,0,0,0,0,0,-1,1441,1142,0,0
224,-118,0,0,0,0,0,0,0,0,0,-1,1448,1142,0,0
231,-118,0,0,0,0,0,0,0,0,0,-1,1455,1142,0,0
238,-118,0,0,0,0,0,0,0,0,0,-1,1462,1142,0,0
245,-118,0,0,0,0,0,0,0,0,0,-1,1469,1142,0,0
252,-118,0,0,0,0,0,0,0,0,0,-1,1476,1142,0,0
259,-118,0,0,0,0,0,0,0,0,0,-1,1483,1142,0,0
266,-118,0,0,0,0,0,0,0,0,0,-1,1490,1142,0,0
273,-118,0,0,0,0,0,0,0,0,0,-1,1497,1142,0,0
280,-118,0,0,0,0,0,0,0,0,0,-1,1504,1142,0,0
287,-118,0,0,0,0,0,0,0,0,0,-1,1511,1142,0,0
294,-118,0,0,0,0,0,0,0,0,0,-1,1518,1142,0,0
301,-118,0,0,0,0,0,0,0,0,0,-1,1525,1142,0,0
308,-118,0,0,0,0,0,0,0,0,0,-1,1532,1142,0,0
315,-118,0,0,0,0,0,0,0,0,0,-1,1539,1142,0,0
322,-118,0,0,0,0,0,0,0,0,0,-1,1546,1142,0,0
329,-118,0,0,0,0,0,0,0,0,0,-1,1553,1142,0,0
336,-118,0,0,0,0,0,0,0,0,0,-1,1560,1142,0,0
343,-118,0,0,0,0,0,0,0,0,0,-1,1567,1142,0,0
350,-118,0,0,0,0,0,0,0,0,0,-1,1574,1142,0,0
357,-118,0,0,0,0,0,0,0,0,0,-1,1581,1142,0,0
364,-118,0,0,0,0,0,0,0,0,0,-1,1588,1142,0,0
371,-118,0,0,0,0,0,0,0,0,0,-1,1595,1142,0,0
378,-118,0,0,0,0,0,0,0,0,0,-1,1602,1142,0,0
385,-118,0,0,0,0,0,0,0,0,0,-1,1609,1142,0,0
392,-118,0,0,0,0,0,0,0,0,0,-1,1616,1142,0,0
399,-118,0,0,0,0,0,0,0,0,0,-1,1623,1142,0,0
406,-118,0,0,0,0,0,0,0,0,0,-1,1630,1142,0,0
413,-118,0,0,0,0,0,0,0,0,0,-1,1637,1142,0,0
420,-118,0,0,0,0,0,0,0,0,0,-1,1644,1142,0,0
427,-118,0,0,0,0,0,0,0,0,0,-1,1651,1142,0,0
434,-118,0,0,0,0,0,0,0,0,0,-1,1658,1142,0,0
441,-118,0,0,0,0,0,0,0,0,0,-1,1665,1142,0,0
448,-118,0,0,0,0,0,0,0,0,0,-1,1672,1142,0,0
455,-118,0,0,0,0,0,0,0,0,0,-1,1679,1142,0,0
462,-118,0,0,0,0,0,0,0,0,0,-1,1686,1142,0,0
469,-118,0,0,0,0,0,0,0,0,0,-1,1693,1142,0,0
476,-118,0,0,0,0,0,0,0,0,0,-1,1700,1142,0,0
483,-118,0,0,0,0,0,0,0,0,0,-1,1707,1142,0,0
490,-118,0,0,0,0,0,0,0,0,0,-1,1714,1142,0,0
497,-118,0,0,0,0,0,0,0,0,0,-1,1721,1142,0,0
504,-118,0,0,0,0,0,0,0,0,0,-1,1728,1142,0,0
511,-118,0,0,0,0,0,0,0,0,0,-1,1735,1142,0,0
518,-118,0,0,0,0,0,0,0,0,0,-1,1742,1142,0,0
525,-118,0,0,0,0,0,0,0,0,0,-1,1749,1142,0,0
532,-118,0,0,0,0,0,0,0,0,0,-1,1756,1142,0,0
539,-118,0,0,0,0,0,0,0,0,0,-1,1763,1142,0,0
546,-118,0,0,0,0,0,0,0,0,0,-1,1770,1142,0,0
553,-118,0,0,0,0,0,0,0,0,0,-1,1777,1142,0,0
560,-118,0,0,0,0,0,0,0,0,0,-1,1784,1142,0,0
567,-118,0,0,0,0,0,0,0,0,0,-1,1791,1142,0,0
574,-118,0,0,0,0,0,0,0,0,0,-1,1798,1142,0,0
581,-118,0,0,0,0,0,0,0,0,0,-1,1805,1142,0,0
588,-118,0,0,0,0,0,0,0,0,0,-1,1812,1142,0,0
595,-118,0,0,0,0,0,0,0,0,0,-1,1819,1142,0,0
602,-118,0,0,0,0,0,0,0,0,0,-1,1826,1142,0,0
609,-118,0,0,0,0,0,0,0,0,0,-1,1833,1142,0,0
616,-118,0,0,0,0,0,0,0,0,0,-1,1840,1142,0,0
623,-118,0,0,0,0,0,0,0,0,0,-1,1847,1142,0,0
630,-118,0,0,0,0,0,0,0,0,0,-1,1854,1142,0,0
637,-118,0,0,0,0,0,0,0,0,0,-1,1861,1142,0,0
644,-118,30.2756,3.28577,0.00187886,-0.00254478,-0.00400445,0.00424173,-0.00490765,-0.533078,0.00528706,0.0429999,1868,1142,30.2756,-3.28579
651,-118,30.4677,2.91846,0.00125074,-0.00207874,-0.00225842,0.00239168,-0.00321967,-0.467793,0.00325145,0.040579,1875,1142,30.4677,-2.91842
658,-118,30.3612,2.90552,0.000970026,-0.00161634,-0.00115682,0.00141194,-0.00205825,-0.364899,0.00201506,0.0429094,1882,1142,30.3612,-2.90551
665,-118,30.2151,2.72717,0.000827024,-0.00122667,-0.000315681,0.000874453,-0.0012741,-0.149128,0.0012476,0.0424715,1889,1142,30.2151,-2.72716
672,-118,30.1901,2.98511,0.000806305,-0.000949628,0.000150663,0.000819138,-0.000962461,0.0849745,0.00102972,0.044926,1896,1142,30.1901,-2.9851
679,-118,30.2233,3.11096,0.000544957,-0.000802174,0.00038268,0.000646075,-0.000903292,0.258332,0.000898627,0.0429752,1903,1142,30.2233,-3.11094
686,-118,30.2821,3.01196,0.000183136,-0.000750907,0.00052325,0.00041747,-0.000985241,0.421059,0.000831675,0.0372378,1910,1142,30.2822,-3.01191
693,-118,30.2922,2.8429,-7.25648e-05,-0.000679065,0.000547309,0.000249891,-0.00100152,0.532415,0.00076471,0.034031,1917,1142,30.2922,-2.84296
700,-118,30.3324,2.80212,-0.000334918,-0.000663767,0.000699329,0.000219056,-0.00121774,0.669937,0.000893839,0.0212853,1924,1142,30.3324,-2.80216
707,-118,30.3959,2.8429,0,0,0,0,0,0,0,-1,1931,1142,30.3959,-2.84291
714,-118,28.3597,5.73022,0,0,0,0,0,0,0,-1,1938,1142,28.3597,-5.73022
721,-118,28.2799,5.50024,-0.000838126,-0.000382204,0.000881871,0.000300693,-0.00152102,0.911878,0.00112769,0.0127254,1945,1142,28.2799,-5.5002
728,-118,28.2794,5.28845,-0.00110121,-0.000215855,0.000677884,0.00015109,-0.00146816,1.07465,0.00103283,0.0163626,1952,1142,28.2795,-5.28851
735,-118,28.252,5.13037,-0.0012119,-3.12534e-05,0.000612922,0.000229396,-0.00147255,1.16871,0.00106642,0.0160504,1959,1142,28.2519,-5.13041
742,-118,28.2611,5.0271,-0.00119579,0.000541527,0.000509747,0.000680048,-0.00133431,1.30546,0.00118326,0.0210392,1966,1142,28.2611,-5.02711
749,-118,28.233,4.83252,-0.000434508,0.000491489,0.000206675,0.000535523,-0.000478542,1.36087,0.000585779,0.0196756,1973,1142,28.233,-4.83247
756,-118,28.2211,4.63806,0.00168705,-0.000304891,-0.00044584,0.00178229,-0.000400126,-0.210446,0.00134161,0.0181573,1980,1142,28.2211,-4.63805
763,-118,28.2334,4.453,0.00564991,-0.00230825,-0.00124806,0.00584105,-0.00249939,-0.151968,0.00494251,0.0105098,1987,1142,28.2334,-4.45298
770,-118,28.198,4.29761,0.0100819,-0.00472061,-0.00223703,0.0104126,-0.0050513,-0.14676,0.00910516,0.0120935,1994,1142,28.198,-4.29755
777,-118,28.1353,4.07642,0.0159873,-0.00851257,-0.00322541,0.0164048,-0.00893008,-0.128728,0.0148378,0.0254817,2001,1142,28.1353,-4.07639
784,-118,28.2935,3.57373,0.0239169,-0.0141639,-0.00425607,0.0243867,-0.0146337,-0.109957,0.0227618,0.0424705,2008,1142,28.2935,-3.57378
791,-118,28.5087,3.02722,0.0343513,-0.0222408,-0.00508978,0.0348054,-0.0226949,-0.0889864,0.0334424,0.0494278,2015,1142,28.5087,-3.02718
798,-118,27.9734,4.11597,0.0479736,-0.0332807,-0.0054898,0.0483428,-0.03365,-0.0671565,0.0475912,0.0486954,2022,1142,27.9734,-4.11595
805,-118,27.8044,4.00916,0,0,0,0,0,0,0,-1,2029,1142,27.8044,-4.00917
812,-118,28.2742,3.83191,0,0,0,0,0,0,0,-1,2036,1142,28.2742,-3.83191
-700,-125,0,0,0,0,0,0,0,0,0,-1,524,1149,0,0
-693,-125,-22.383,-4.13635,0,0,0,0,0,0,0,-1,531,1149,-22.383,4.13637
-686,-125,-21.184,-4.6803,0,0,0,0,0,0,0,-1,538,1149,-21.184,4.68027
-679,-125,-22.0289,-3.49194,0.0187294,0.0230218,0.0500302,0.0709518,-0.0292006,0.806834,0.0594743,0.042404,545,1149,-22.0289,3.49195
-672,-125,-22.8856,-2.3114,0.0150273,0.0172318,0.0377801,0.0539257,-0.0216666,0.799981,0.0449484,0.0443017,552,1149,-22.8856,2.31136
-665,-125,-23.6614,-1.05554,0,0,0,0,0,0,0,-1,559,1149,-23.6614,1.05554
-658,-125,-18.6294,0.783813,0,0,0,0,0,0,0,-1,566,1149,-18.6294,-0.783849
-651,-125,-18.6359,1.10925,0.00620665,0.00654316,0.0130376,0.0194136,-0.00666379,0.791851,0.0156441,0.0354988,573,1149,-18.6359,-1.1092
-644,-125,-18.6671,1.45032,0.00418997,0.00449541,0.0081181,0.0124622,-0.00377685,0.794803,0.00981245,0.022204,580,1149,-18.6671,-1.45031
-637,-125,-18.7045,1.64063,0.00277414,0.00274081,0.00438498,0.00714249,-0.00162753,0.783498,0.00538676,0.0133318,587,1149,-18.7045,-1.64066
-630,-125,-18.7145,1.84497,0.00146136,0.00154582,0.00160754,0.00311169,-0.000104505,0.798532,0.00211015,0.0145502,594,1149,-18.7145,-1.84501
-623,-125,-18.7376,2.08179,0.00106163,-3.19556e-05,-0.00084352,0.00152008,-0.000490404,-0.497834,0.00121043,0.0129996,601,1149,-18.7376,-2.08181
-616,-125,-18.7338,2.2876,0.000458261,-0.00088768,-0.00187599,0.00177834,-0.00220776,-0.613184,0.00230582,0.0137121,608,1149,-18.7338,-2.28763
-609,-125,-18.8107,2.44702,0.000276167,-0.000876555,-0.00120561,0.0010361,-0.00163649,-0.562425,0.00155595,0.0224409,615,1149,-18.8106,-2.44704
-602,-125,-18.8538,2.71521,0.00043507,-0.00125426,-0.00131177,0.00115059,-0.00196978,-0.499356,0.00182213,0.0201901,622,1149,-18.8538,-2.71525
-595,-125,-18.8745,2.92554,0.000400347,-0.00151757,-0.00136472,0.00110934,-0.00222657,-0.479138,0.00196166,0.0189722,629,1149,-18.8745,-2.92549
-588,-125,-18.6406,3.19434,0.000247725,-0.00173091,-0.00141344,0.000983675,-0.00246686,-0.480056,0.0020526,0.0277645,636,1149,-18.6406,-3.19434
-581,-125,-18.4131,3.47217,0,0,0,0,0,0,0,-1,643,1149,-18.4132,-3.47216
-574,-125,-20.9207,0.685059,0,0,0,0,0,0,0,-1,650,1149,-20.9207,-0.685085
-567,-125,-21.0394,0.943481,0.000392626,-0.00275919,-0.00180449,0.00121248,-0.00357904,-0.426457,0.00287666,0.0406525,657,1149,-21.0394,-0.943539
-560,-125,-21.1442,1.16064,0.000402147,-0.00299943,-0.00200129,0.00132773,-0.00392501,-0.433195,0.00315383,0.0371374,664,1149,-21.1442,-1.16068
-553,-125,-21.1365,1.24573,0.000475453,-0.00329516,-0.00226837,0.0015397,-0.00435941,-0.43868,0.00353316,0.0379996,671,1149,-21.1365,-1.24569
-546,-125,-21.0986,1.09973,0.000755766,-0.00378768,-0.00264545,0.00197104,-0.00500296,-0.430629,0.00415134,0.0408602,678,1149,-21.0986,-1.09969
-539,-125,-21.0544,1.06006,0.00146086,-0.0046616,-0.00312712,0.0027757,-0.00597644,-0.398023,0.00516446,0.0416988,685,1149,-21.0544,-1.06011
-532,-125,-21.0637,1.03101,0.00315621,-0.00653078,-0.00397208,0.00457665,-0.00795122,-0.343434,0.00731991,0.0373048,692,1149,-21.0636,-1.03101
-525,-125,-21.0054,0.825928,0.00526387,-0.00859843,-0.00471477,0.00671543,-0.01005,-0.298667,0.00974314,0.0408813,699,1149,-21.0054,-0.825987
-518,-125,0,0,0,0,0,0,0,0,0,-1,706,1149,0,0
-511,-125,0,0,0,0,0,0,0,0,0,-1,713,1149,0,0
-504,-125,0,0,0,0,0,0,0,0,0,-1,720,1149,0,0
-497,-125,0,0,0,0,0,0,0,0,0,-1,727,1149,0,0
-490,-125,0,0,0,0,0,0,0,0,0,-1,734,1149,0,0
-483,-125,0,0,0,0,0,0,0,0,0,-1,741,1149,0,0
-476,-125,0,0,0,0,0,0,0,0,0,-1,748,1149,0,0
-469,-125,0,0,0,0,0,0,0,0,0,-1,755,1149,0,0
-462,-125,0,0,0,0,0,0,0,0,0,-1,762,1149,0,0
-455,-125,0,0,0,0,0,0,0,0,0,-1,769,1149,0,0
-448,-125,0,0,0,0,0,0,0,0,0,-1,776,1149,0,0
-441,-125,0,0,0,0,0,0,0,0,0,-1,783,1149,0,0
-434,-125,0,0,0,0,0,0,0,0,0,-1,790,1149,0,0
-427,-125,0,0,0,0,0,0,0,0,0,-1,797,1149,0,0
-420,-125,0,0,0,0,0,0,0,0,0,-1,804,1149,0,0
-413,-125,0,0,0,0,0,0,0,0,0,-1,811,1149,0,0
-406,-125,0,0,0,0,0,0,0,0,0,-1,818,1149,0,0
-399,-125,0,0,0,0,0,0,0,0,0,-1,825,1149,0,0
-392,-125,0,0,0,0,0,0,0,0,0,-1,832,1149,0,0
-385,-125,0,0,0,0,0,0,0,0,0,-1,839,1149,0,0
-378,-125,0,0,0,0,0,0,0,0,0,-1,846,1149,0,0
-371,-125,0,0,0,0,0,0,0,0,0,-1,853,1149,0,0
-364,-125,0,0,0,0,0,0,0,0,0,-1,860,1149,0,0
-357,-125,0,0,0,0,0,0,0,0,0,-1,867,1149,0,0
-350,-125,0,0,0,0,0,0,0,0,0,-1,874,1149,0,0
-343,-125,0,0,0,0,0,0,0,0,0,-1,881,1149,0,0
-336,-125,0,0,0,0,0,0,0,0,0,-1,888,1149,0,0
-329,-125,0,0,0,0,0,0,0,0,0,-1,895,1149,0,0
-322,-125,0,0,0,0,0,0,0,0,0,-1,902,1149,0,0
-315,-125,0,0,0,0,0,0,0,0,0,-1,909,1149,0,0
-308,-125,0,0,0,0,0,0,0,0,0,-1,916,1149,0,0
-301,-125,0,0,0,0,0,0,0,0,0,-1,923,1149,0,0
-294,-125,0,0,0,0,0,0,0,0,0,-1,930,1149,0,0
-287,-125,0,0,0,0,0,0,0,0,0,-1,937,1149,0,0
-280,-125,0,0,0,0,0,0,0,0,0,-1,944,1149,0,0
-273,-125,0,0,0,0,0,0,0,0,0,-1,951,1149,0,0
-266,-125,0,0,0,0,0,0,0,0,0,-1,958,1149,0,0
-259,-125,0,0,0,0,0,0,0,0,0,-1,965,1149,0,0
-252,-125,0,0,0,0,0,0,0,0,0,-1,972,1149,0,0
-245,-125,0,0,0,0,0,0,0,0,0,-1,979,1149,0,0
-238,-125,0,0,0,0,0,0,0,0,0,-1,986,1149,0,0
-231,-125,0,0,0,0,0,0,0,0,0,-1,993,1149,0,0
-224,-125,0,0,0,0,0,0,0,0,0,-1,1000,1149,0,0
-217,-125,0,0,0,0,0,0,0,0,0,-1,1007,1149,0,0
-210,-125,0,0,0,0,0,0,0,0,0,-1,1014,1149,0,0
-203,-125,0,0,0,0,0,0,0,0,0,-1,1021,1149,0,0
-196,-125,0,0,0,0,0,0,0,0,0,-1,1028,1149,0,0
-189,-125,0,0,0,0,0,0,0,0,0,-1,1035,1149,0,0
-182,-125,0,0,0,0,0,0,0,0,0,-1,1042,1149,0,0
-175,-125,0,0,0,0,0,0,0,0,0,-1,1049,1149,0,0
-168,-125,0,0,0,0,0,0,0,0,0,-1,1056,1149,0,0
-161,-125,0,0,0,0,0,0,0,0,0,-1,1063,1149,0,0
-154,-125,0,0,0,0,0,0,0,0,0,-1,1070,1149,0,0
-147,-125,0,0,0,0,0,0,0,0,0,-1,1077,1149,0,0
-140,-125,0,0,0,0,0,0,0,0,0,-1,1084,1149,0,0
-133,-125,0,0,0,0,0,0,0,0,0,-1,1091,1149,0,0
-126,-125,0,0,0,0,0,0,0,0,0,-1,1098,1149,0,0
-119,-125,0,0,0,0,0,0,0,0,0,-1,1105,1149,0,0
-112,-125,0,0,0,0,0,0,0,0,0,-1,1112,1149,0,0
-105,-125,0,0,0,0,0,0,0,0,0,-1,1119,1149,0,0
-98,-125,0,0,0,0,0,0,0,0,0,-1,1126,1149,0,0
-91,-125,0,0,0,0,0,0,0,0,0,-1,1133,1149,0,0
-84,-125,0,0,0,0,0,0,0,0,0,-1,1140,1149,0,0
-77,-125,0,0,0,0,0,0,0,0,0,-1,1147,1149,0,0
-70,-125,0,0,0,0,0,0,0,0,0,-1,1154,1149,0,0
-63,-125,0,0,0,0,0,0,0,0,0,-1,1161,1149,0,0
-56,-125,0,0,0,0,0,0,0,0,0,-1,1168,1149,0,0
-49,-125,0,0,0,0,0,0,0,0,0,-1,1175,1149,0,0
-42,-125,0,0,0,0,0,0,0,0,0,-1,1182,1149,0,0
-35,-125,0,0,0,0,0,0,0,0,0,-1,1189,1149,0,0
-28,-125,0,0,0,0,0,0,0,0,0,-1,1196,1149,0,0
-21,-125,0,0,0,0,0,0,0,0,0,-1,1203,1149,0,0
-14,-125,0,0,0,0,0,0,0,0,0,-1,1210,1149,0,0
-7,-125,0,0,0,0,0,0,0,0,0,-1,1217,1149,0,0
0,-125,0,0,0,0,0,0,0,0,0,-1,1224,1149,0,0
7,-125,0,0,0,0,0,0,0,0,0,-1,1231,1149,0,0
14,-125,0,0,0,0,0,0,0,0,0,-1,1238,1149,0,0
21,-125,0,0,0,0,0,0,0,0,0,-1,1245,1149,0,0
28,-125,0,0,0,0,0,0,0,0,0,-1,1252,1149,0,0
35,-125,0,0,0,0,0,0,0,0,0,-1,1259,1149,0,0
42,-125,0,0,0,0,0,0,0,0,0,-1,1266,1149,0,0
49,-125,0,0,0,0,0,0,0,0,0,-1,1273,1149,0,0
56,-125,0,0,0,0,0,0,0,0,0,-1,1280,1149,0,0
63,-125,0,0,0,0,0,0,0,0,0,-1,1287,1149,0,0
70,-125,0,0,0,0,0,0,0,0,0,-1,1294,1149,0,0
77,-125,0,0,0,0,0,0,0,0,0,-1,1301,1149,0,0
84,-125,0,0,0,0,0,0,0,0,0,-1,1308,1149,0,0
91,-125,0,0,0,0,0,0,0,0,0,-1,1315,1149,0,0
98,-125,0,0,0,0,0,0,0,0,0,-1,1322,1149,0,0
105,-125,0,0,0,0,0,0,0,0,0,-1,1329,1149,0,0
112,-125,0,0,0,0,0,0,0,0,0,-1,1336,1149,0,0
119,-125,0,0,0,0,0,0,0,0,0,-1,1343,1149,0,0
126,-125,0,0,0,0,0,0,0,0,0,-1,1350,1149,0,0
133,-125,0,0,0,0,0,0,0,0,0,-1,1357,1149,0,0
140,-125,0,0,0,0,0,0,0,0,0,-1,1364,1149,0,0
147,-125,0,0,0,0,0,0,0,0,0,-1,1371,1149,0,0
154,-125,0,0,0,0,0,0,0,0,0,-1,1378,1149,0,0
161,-125,0,0,0,0,0,0,0,0,0,-1,1385,1149,0,0
168,-125,0,0,0,0,0,0,0,0,0,-1,1392,1149,0,0
175,-125,0,0,0,0,0,0,0,0,0,-1,1399,1149,0,0
182,-125,0,0,0,0,0,0,0,0,0,-1,1406,1149,0,0
189,-125,0,0,0,0,0,0,0,0,0,-1,1413,1149,0,0
196,-125,0,0,0,0,0,0,0,0,0,-1,1420,1149,0,0
203,-125,0,0,0,0,0,0,0,0,0,-1,1427,1149,0,0
210,-125,0,0,0,0,0,0,0,0,0,-1,1434,1149,0,0
217,-125,0,0,0,0,0,0,0,0,0,-1,1441,1149,0,0
224,-125,0,0,0,0,0,0,0,0,0,-1,1448,1149,0,0
231,-125,0,0,0,0,0,0,0,0,0,-1,1455,1149,0,0
238,-125,0,0,0,0,0,0,0,0,0,-1,1462,1149,0,0
245,-125,0,0,0,0,0,0,0,0,0,-1,1469,1149,0,0
252,-125,0,0,0,0,0,0,0,0,0,-1,1476,1149,0,0
259,-125,0,0,0,0,0,0,0,0,0,-1,1483,1149,0,0
266,-125,0,0,0,0,0,0,0,0,0,-1,1490,1149,0,0
273,-125,0,0,0,0,0,0,0,0,0,-1,1497,1149,0,0
280,-125,0,0,0,0,0,0,0,0,0,-1,1504,1149,0,0
287,-125,0,0,0,0,0,0,0,0,0,-1,1511,1149,0,0
294,-125,0,0,0,0,0,0,0,0,0,-1,1518,1149,0,0
301,-125,0,0,0,0,0,0,0,0,0,-1,1525,1149,0,0
308,-125,0,0,0,0,0,0,0,0,0,-1,1532,1149,0,0
315,-125,0,0,0,0,0,0,0,0,0,-1,1539,1149,0,0
322,-125,0,0,0,0,0,0,0,0,0,-1,1546,1149,0,0
329,-125,0,0,0,0,0,0,0,0,0,-1,1553,1149,0,0
336,-125,0,0,0,0,0,0,0,0,0,-1,1560,1149,0,0
343,-125,0,0,0,0,0,0,0,0,0,-1,1567,1149,0,0
350,-125,0,0,0,0,0,0,0,0,0,-1,1574,1149,0,0
357,-125,0,0,0,0,0,0,0,0,0,-1,1581,1149,0,0
364,-125,0,0,0,0,0,0,0,0,0,-1,1588,1149,0,0
371,-125,0,0,0,0,0,0,0,0,0,-1,1595,1149,0,0
378,-125,0,0,0,0,0,0,0,0,0,-1,1602,1149,0,0
385,-125,0,0,0,0,0,0,0,0,0,-1,1609,1149,0,0
392,-125,0,0,0,0,0,0,0,0,0,-1,1616,1149,0,0
399,-125,0,0,0,0,0,0,0,0,0,-1,1623,1149,0,0
406,-125,0,0,0,0,0,0,0,0,0,-1,1630,1149,0,0
413,-125,0,0,0,0,0,0,0,0,0,-1,1637,1149,0,0
420,-125,0,0,0,0,0,0,0,0,0,-1,1644,1149,0,0
427,-125,0,0,0,0,0,0,0,0,0,-1,1651,1149,0,0
434,-125,0,0,0,0,0,0,0,0,0,-1,1658,1149,0,0
441,-125,0,0,0,0,0,0,0,0,0,-1,1665,1149,0,0
448,-125,0,0,0,0,0,0,0,0,0,-1,1672,1149,0,0
455,-125,0,0,0,0,0,0,0,0,0,-1,1679,1149,0,0
462,-125,0,0,0,0,0,0,0,0,0,-1,1686,1149,0,0
469,-125,0,0,0,0,0,0,0,0,0,-1,1693,1149,0,0
476,-125,0,0,0,0,0,0,0,0,0,-1,1700,1149,0,0
483,-125,0,0,0,0,0,0,0,0,0,-1,1707,1149,0,0
490,-125,0,0,0,0,0,0,0,0,0,-1,1714,1149,0,0
497,-125,0,0,0,0,0,0,0,0,0,-1,1721,1149,0,0
504,-125,0,0,0,0,0,0,0,0,0,-1,1728,1149,0,0
511,-125,0,0,0,0,0,0,0,0,0,-1,1735,1149,0,0
518,-125,0,0,0,0,0,0,0,0,0,-1,1742,1149,0,0
525,-125,0,0,0,0,0,0,0,0,0,-1,1749,1149,0,0
532,-125,0,0,0,0,0,0,0,0,0,-1,1756,1149,0,0
539,-125,0,0,0,0,0,0,0,0,0,-1,1763,1149,0,0
546,-125,0,0,0,0,0,0,0,0,0,-1,1770,1149,0,0
553,-125,0,0,0,0,0,0,0,0,0,-1,1777,1149,0,0
560,-125,0,0,0,0,0,0,0,0,0,-1,1784,1149,0,0
567,-125,0,0,0,0,0,0,0,0,0,-1,1791,1149,0,0
574,-125,0,0,0,0,0,0,0,0,0,-1,1798,1149,0,0
581,-125,0,0,0,0,0,0,0,0,0,-1,1805,1149,0,0
588,-125,0,0,0,0,0,0,0,0,0,-1,1812,1149,0,0
595,-125,0,0,0,0,0,0,0,0,0,-1,1819,1149,0,0
602,-125,0,0,0,0,0,0,0,0,0,-1,1826,1149,0,0
609,-125,0,0,0,0,0,0,0,0,0,-1,1833,1149,0,0
616,-125,0,0,0,0,0,0,0,0,0,-1,1840,1149,0,0
623,-125,0,0,0,0,0,0,0,0,0,-1,1847,1149,0,0
630,-125,0,0,0,0,0,0,0,0,0,-1,1854,1149,0,0
637,-125,0,0,0,0,0,0,0,0,0,-1,1861,1149,0,0
644,-125,30.4203,3.1283,0.00151963,-0.00278024,-0.00337877,0.00337448,-0.00463509,-0.502054,0.00464338,0.0435148,1868,1149,30.4203,-3.12831
651,-125,30.3705,2.78528,0.000922573,-0.00227822,-0.00197792,0.00186647,-0.00322212,-0.445256,0.00297245,0.0405441,1875,1149,30.3705,-2.78531
658,-125,30.224,2.79272,0.000699444,-0.00175136,-0.00107306,0.00110287,-0.00215478,-0.359607,0.00191321,0.0420538,1882,1149,30.2239,-2.7927
665,-125,30.0522,2.91272,0.00065062,-0.00125257,-0.000418374,0.00073853,-0.00134048,-0.20711,0.00121697,0.0445749,1889,1149,30.0522,-2.91272
672,-125,30.0419,3.125,0.000703843,-0.000855666,-0.000145631,0.000717326,-0.000869148,-0.0923187,0.000917348,0.047062,1896,1149,30.0418,-3.12504
679,-125,30.0651,3.32153,0,0,0,0,0,0,0,-1,1903,1149,30.0651,-3.32148
686,-125,30.3256,2.99426,9.33334e-05,-0.000490371,4.6982e-05,9.70907e-05,-0.000494129,0.0798047,0.0003661,0.037452,1910,1149,30.3256,-2.9943
693,-125,30.3143,2.802,-0.000177207,-0.000356442,3.71854e-05,-0.000169798,-0.000363851,0.196657,0.000210225,0.0316595,1917,1149,30.3143,-2.80196
700,-125,30.3218,2.83337,-0.000444645,-0.00033278,0.000184783,-0.00019565,-0.000581775,0.93236,0.000341836,0.0154202,1924,1149,30.3218,-2.83339
707,-125,30.4197,2.91284,0,0,0,0,0,0,0,-1,1931,1149,30.4197,-2.91282
714,-125,28.0236,5.77026,0,0,0,0,0,0,0,-1,1938,1149,28.0236,-5.77025
721,-125,28.0485,5.54053,-0.000905695,-1.36322e-05,0.000429929,0.000159838,-0.00107917,1.18729,0.000778214,0.0223298,1945,1149,28.0484,-5.54051
728,-125,28.0664,5.33057,-0.0011058,0.000121982,0.000320987,0.000200835,-0.00118466,1.32991,0.000864527,0.0166972,1952,1149,28.0664,-5.33053
735,-125,28.0371,5.17383,-0.00108691,0.000215942,0.000416383,0.000337646,-0.00120862,1.28643,0.000938758,0.0189599,1959,1149,28.0372,-5.17385
742,-125,28.0658,5.04785,-0.000889533,0.000650042,0.000547517,0.000824896,-0.00106439,1.26168,0.0010937,0.0232967,1966,1149,28.0658,-5.04779
749,-125,28.0607,4.83435,4.60237e-05,0.000559034,0.000514235,0.000877187,-0.00027213,1.01675,0.000693532,0.0256307,1973,1149,28.0607,-4.83432
756,-125,28.0439,4.63354,0.00235618,-0.000129379,0.000189634,0.00237057,-0.000143764,0.0757101,0.00163041,0.0229117,1980,1149,28.044,-4.63355
763,-125,28.0325,4.45251,0.00637929,-0.00193346,-0.000247492,0.00638665,-0.00194082,-0.0297374,0.00503108,0.0125781,1987,1149,28.0325,-4.45252
770,-125,28.0095,4.24683,0.0109033,-0.00408983,-0.000777869,0.0109435,-0.00413008,-0.0516967,0.00899423,0.0138798,1994,1149,28.0095,-4.24687
777,-125,27.9867,4.0697,0.0168451,-0.00746652,-0.00135219,0.0169201,-0.00754149,-0.0553915,0.0144648,0.026052,2001,1149,27.9866,-4.06972
784,-125,28.0106,3.93237,0.0247189,-0.0125527,-0.00194645,0.0248202,-0.0126541,-0.0520347,0.0220126,0.0450332,2008,1149,28.0106,-3.93233
791,-125,28.0498,3.82764,0,0,0,0,0,0,0,-1,2015,1149,28.0498,-3.82763
798,-125,28.3655,4.85364,0,0,0,0,0,0,0,-1,2022,1149,28.3656,-4.85362
805,-125,28.731,4.64746,0,0,0,0,0,0,0,-1,2029,1149,28.7309,-4.64749
812,-125,21.5105,-2.94385,0,0,0,0,0,0,0,-1,2036,1149,21.5105,2.94387
-700,-132,0,0,0,0,0,0,0,0,0,-1,524,1156,0,0
-693,-132,-21.9659,-3.70679,0,0,0,0,0,0,0,-1,531,1156,-21.9659,3.70679
-686,-132,-21.7608,-5.58215,0,0,0,0,0,0,0,-1,538,1156,-21.7608,5.58212
-679,-132,-22.6038,-4.3667,0,0,0,0,0,0,0,-1,545,1156,-22.6038,4.36665
-672,-132,-23.4468,-3.15112,0,0,0,0,0,0,0,-1,552,1156,-23.4469,3.15118
-665,-132,-18.8482,0.812988,0,0,0,0,0,0,0,-1,559,1156,-18.8482,-0.812939
-658,-132,-18.7595,1.00049,0,0,0,0,0,0,0,-1,566,1156,-18.7594,-1.00046
-651,-132,-18.588,1.19836,0.00860401,0.00223352,0.0113823,0.0172383,-0.00640077,0.648967,0.014118,0.0400683,573,1156,-18.588,-1.19834
-644,-132,-18.4789,1.41016,0.00584194,0.00145958,0.00704007,0.0110239,-0.00372242,0.634528,0.00885486,0.0199729,580,1156,-18.4789,-1.41011
-637,-132,-18.4851,1.63794,0.00387859,0.000791787,0.0038505,0.00648349,-0.00181311,0.594787,0.00503668,0.0116555,587,1156,-18.4851,-1.63798
-630,-132,-18.4875,1.85071,0.00215117,0.000488179,0.00153809,0.00306813,-0.000428781,0.537597,0.00220231,0.0101545,594,1156,-18.4875,-1.85065
-623,-132,-18.5021,2.08655,0.00143557,-0.000470229,-0.000682576,0.00165482,-0.000689476,-0.310796,0.0013912,0.0148675,601,1156,-18.5021,-2.0865
-616,-132,-18.5155,2.29089,0.000572369,-0.000961649,-0.00159393,0.00157423,-0.00196351,-0.561148,0.00204664,0.0203349,608,1156,-18.5155,-2.29095
-609,-132,-18.4494,2.48108,0.000311075,-0.000782935,-0.000873818,0.000794979,-0.00126684,-0.505741,0.00120074,0.0205089,615,1156,-18.4494,-2.48105
-602,-132,-18.5641,2.66016,0.000457035,-0.00111136,-0.000955838,0.0009092,-0.00156353,-0.441861,0.00144419,0.0183751,622,1156,-18.5641,-2.66018
-595,-132,-18.6146,2.91235,0.000379017,-0.00131075,-0.00102575,0.000863041,-0.00179478,-0.440893,0.00156561,0.0226366,629,1156,-18.6146,-2.91233
-588,-132,-18.5079,3.21411,0.000141132,-0.00147429,-0.00111386,0.000709317,-0.00204247,-0.471697,0.00164973,0.0201986,636,1156,-18.5079,-3.21407
-581,-132,-18.2901,3.56934,0,0,0,0,0,0,0,-1,643,1156,-18.2901,-3.56938
-574,-132,-20.7915,0.738281,0,0,0,0,0,0,0,-1,650,1156,-20.7915,-0.738304
-567,-132,-21.0073,0.890137,0.00018655,-0.00249928,-0.00163705,0.000961025,-0.00327376,-0.441891,0.00256361,0.0402625,657,1156,-21.0072,-0.890142
-560,-132,-21.0919,0.9375,0.000150402,-0.00274225,-0.00190288,0.00109422,-0.00368607,-0.460439,0.00289197,0.0358745,664,1156,-21.0919,-0.937453
-553,-132,-21.1631,0.913452,0.000226947,-0.00304501,-0.00223915,0.00136409,-0.00418215,-0.469906,0.00333707,0.0381595,671,1156,-21.1631,-0.9135
-546,-132,-21.2291,0.937744,0.000599206,-0.00356281,-0.00268572,0.0019158,-0.0048794,-0.455792,0.00404567,0.0416521,678,1156,-21.2292,-0.937796
-539,-132,-21.0645,1.10315,0.00146133,-0.00447246,-0.00321301,0.00286776,-0.00587888,-0.412601,0.00514866,0.0436242,685,1156,-21.0645,-1.1032
-532,-132,-20.9269,0.943359,0.00356226,-0.00632969,-0.00391337,0.0049232,-0.00769063,-0.334683,0.00734079,0.0399471,692,1156,-20.9269,-0.943305
-525,-132,-20.9393,0.777588,0.00634669,-0.00858061,-0.00459635,0.00764846,-0.00988237,-0.275989,0.0101488,0.0393443,699,1156,-20.9393,-0.777562
-518,-132,0,0,0,0,0,0,0,0,0,-1,706,1156,0,0
-511,-132,0,0,0,0,0,0,0,0,0,-1,713,1156,0,0
-504,-132,0,0,0,0,0,0,0,0,0,-1,720,1156,0,0
-497,-132,0,0,0,0,0,0,0,0,0,-1,727,1156,0,0
-490,-132,0,0,0,0,0,0,0,0,0,-1,734,1156,0,0
-483,-132,0,0,0,0,0,0,0,0,0,-1,741,1156,0,0
-476,-132,0,0,0,0,0,0,0,0,0,-1,748,1156,0,0
-469,-132,0,0,0,0,0,0,0,0,0,-1,755,1156,0,0
-462,-132,0,0,0,0,0,0,0,0,0,-1,762,1156,0,0
-455,-132,0,0,0,0,0,0,0,0,0,-1,769,1156,0,0
-448,-132,0,0,0,0,0,0,0,0,0,-1,776,1156,0,0
-441,-132,0,0,0,0,0,0,0,0,0,-1,783,1156,0,0
-434,-132,0,0,0,0,0,0,0,0,0,-1,790,1156,0,0
-427,-132,0,0,0,0,0,0,0,0,0,-1,797,1156,0,0
-420,-132,0,0,0,0,0,0,0,0,0,-1,804,1156,0,0
-413,-132,0,0,0,0,0,0,0,0,0,-1,811,1156,0,0
-406,-132,0,0,0,0,0,0,0,0,0,-1,818,1156,0,0
-399,-132,0,0,0,0,0,0,0,0,0,-1,825,1156,0,0
-392,-132,0,0,0,0,0,0,0,0,0,-1,832,1156,0,0
-385,-132,0,0,0,0,0,0,0,0,0,-1,839,1156,0,0
-378,-132,0,0,0,0,0,0,0,0,0,-1,846,1156,0,0
-371,-132,0,0,0,0,0,0,0,0,0,-1,853,1156,0,0
-364,-132,0,0,0,0,0,0,0,0,0,-1,860,1156,0,0
-357,-132,0,0,0,0,0,0,0,0,0,-1,867,1156,0,0
-350,-132,0,0,0,0,0,0,0,0,0,-1,874,1156,0,0
-343,-132,0,0,0,0,0,0,0,0,0,-1,881,1156,0,0
-336,-132,0,0,0,0,0,0,0,0,0,-1,888,1156,0,0
-329,-132,0,0,0,0,0,0,0,0,0,-1,895,1156,0,0
-322,-132,0,0,0,0,0,0,0,0,0,-1,902,1156,0,0
-315,-132,0,0,0,0,0,0,0,0,0,-1,909,1156,0,0
-308,-132,0,0,0,0,0,0,0,0,0,-1,916,1156,0,0
-301,-132,0,0,0,0,0,0,0,0,0,-1,923,1156,0,0
-294,-132,0,0,0,0,0,0,0,0,0,-1,930,1156,0,0
-287,-132,0,0,0,0,0,0,0,0,0,-1,937,1156,0,0
-280,-132,0,0,0,0,0,0,0,0,0,-1,944,1156,0,0
-273,-132,0,0,0,0,0,0,0,0,0,-1,951,1156,0,0
-266,-132,0,0,0,0,0,0,0,0,0,-1,958,1156,0,0
-259,-132,0,0,0,0,0,0,0,0,0,-1,965,1156,0,0
-252,-132,0,0,0,0,0,0,0,0,0,-1,972,1156,0,0
-245,-132,0,0,0,0,0,0,0,0,0,-1,979,1156,0,0
-238,-132,0,0,0,0,0,0,0,0,0,-1,986,1156,0,0
-231,-132,0,0,0,0,0,0,0,0,0,-1,993,1156,0,0
-224,-132,0,0,0,0,0,0,0,0,0,-1,1000,1156,0,0
-217,-132,0,0,0,0,0,0,0,0,0,-1,1007,1156,0,0
-210,-132,0,0,0,0,0,0,0,0,0,-1,1014,1156,0,0
-203,-132,0,0,0,0,0,0,0,0,0,-1,1021,1156,0,0
-196,-132,0,0,0,0,0,0,0,0,0,-1,1028,1156,0,0
-189,-132,0,0,0,0,0,0,0,0,0,-1,1035,1156,0,0
-182,-132,0,0,0,0,0,0,0,0,0,-1,1042,1156,0,0
-175,-132,0,0,0,0,0,0,0,0,0,-1,1049,1156,0,0
-168,-132,0,0,0,0,0,0,0,0,0,-1,1056,1156,0,0
-161,-132,0,0,0,0,0,0,0,0,0,-1,1063,1156,0,0
-154,-132,0,0,0,0,0,0,0,0,0,-1,1070,1156,0,0
-147,-132,0,0,0,0,0,0,0,0,0,-1,1077,1156,0,0
-140,-132,0,0,0,0,0,0,0,0,0,-1,1084,1156,0,0
-133,-132,0,0,0,0,0,0,0,0,0,-1,1091,1156,0,0
-126,-132,0,0,0,0,0,0,0,0,0,-1,1098,1156,0,0
-119,-132,0,0,0,0,0,0,0,0,0,-1,1105,1156,0,0
-112,-132,0,0,0,0,0,0,0,0,0,-1,1112,1156,0,0
-105,-132,0,0,0,0,0,0,0,0,0,-1,1119,1156,0,0
-98,-132,0,0,0,0,0,0,0,0,0,-1,1126,1156,0,0
-91,-132,0,0,0,0,0,0,0,0,0,-1,1133,1156,0,0
-84,-132,0,0,0,0,0,0,0,0,0,-1,1140,1156,0,0
-77,-132,0,0,0,0,0,0,0,0,0,-1,1147,1156,0,0
-70,-132,0,0,0,0,0,0,0,0,0,-1,1154,1156,0,0
-63,-132,0,0,0,0,0,0,0,0,0,-1,1161,1156,0,0
-56,-132,0,0,0,0,0,0,0,0,0,-1,1168,1156,0,0
-49,-132,0,0,0,0,0,0,0,0,0,-1,1175,1156,0,0
-42,-132,0,0,0,0,0,0,0,0,0,-1,1182,1156,0,0
-35,-132,0,0,0,0,0,0,0,0,0,-1,1189,1156,0,0
-28,-132,0,0,0,0,0,0,0,0,0,-1,1196,1156,0,0
-21,-132,0,0,0,0,0,0,0,0,0,-1,1203,1156,0,0
-14,-132,0,0,0,0,0,0,0,0,0,-1,1210,1156,0,0
-7,-132,0,0,0,0,0,0,0,0,0,-1,1217,1156,0,0
0,-132,0,0,0,0,0,0,0,0,0,-1,1224,1156,0,0
7,-132,0,0,0,0,0,0,0,0,0,-1,1231,1156,0,0
14,-132,0,0,0,0,0,0,0,0,0,-1,1238,1156,0,0
21,-132,0,0,0,0,0,0,0,0,0,-1,1245,1156,0,0
28,-132,0,0,0,0,0,0,0,0,0,-1,1252,1156,0,0
35,-132,0,0,0,0,0,0,0,0,0,-1,1259,1156,0,0
42,-132,0,0,0,0,0,0,0,0,0,-1,1266,1156,0,0
49,-132,0,0,0,0,0,0,0,0,0,-1,1273,1156,0,0
56,-132,0,0,0,0,0,0,0,0,0,-1,1280,1156,0,0
63,-132,0,0,0,0,0,0,0,0,0,-1,1287,1156,0,0
70,-132,0,0,0,0,0,0,0,0,0,-1,1294,1156,0,0
77,-132,0,0,0,0,0,0,0,0,0,-1,1301,1156,0,0
84,-132,0,0,0,0,0,0,0,0,0,-1,1308,1156,0,0
91,-132,0,0,0,0,0,0,0,0,0,-1,1315,1156,0,0
98,-132,0,0,0,0,0,0,0,0,0,-1,1322,1156,0,0
105,-132,0,0,0,0,0,0,0,0,0,-1,1329,1156,0,0
112,-132,0,0,0,0,0,0,0,0,0,-1,1336,1156,0,0
119,-132,0,0,0,0,0,0,0,0,0,-1,1343,1156,0,0
126,-132,0,0,0,0,0,0,0,0,0,-1,1350,1156,0,0
133,-132,0,0,0,0,0,0,0,0,0,-1,1357,1156,0,0
140,-132,0,0,0,0,0,0,0,0,0,-1,1364,1156,0,0
147,-132,0,0,0,0,0,0,0,0,0,-1,1371,1156,0,0
154,-132,0,0,0,0,0,0,0,0,0,-1,1378,1156,0,0
161,-132,0,0,0,0,0,0,0,0,0,-1,1385,1156,0,0
168,-132,0,0,0,0,0,0,0,0,0,-1,1392,1156,0,0
175,-132,0,0,0,0,0,0,0,0,0,-1,1399,1156,0,0
182,-132,0,0,0,0,0,0,0,0,0,-1,1406,1156,0,0
189,-132,0,0,0,0,0,0,0,0,0,-1,1413,1156,0,0
196,-132,0,0,0,0,0,0,0,0,0,-1,1420,1156,0,0
203,-132,0,0,0,0,0,0,0,0,0,-1,1427,1156,0,0
210,-132,0,0,0,0,0,0,0,0,0,-1,1434,1156,0,0
217,-132,0,0,0,0,0,0,0,0,0,-1,1441,1156,0,0
224,-132,0,0,0,0,0,0,0,0,0,-1,1448,1156,0,0
231,-132,0,0,0,0,0,0,0,0,0,-1,1455,1156,0,0
238,-132,0,0,0,0,0,0,0,0,0,-1,1462,1156,0,0
245,-132,0,0,0,0,0,0,0,0,0,-1,1469,1156,0,0
252,-132,0,0,0,0,0,0,0,0,0,-1,1476,1156,0,0
259,-132,0,0,0,0,0,0,0,0,0,-1,1483,1156,0,0
266,-132,0,0,0,0,0,0,0,0,0,-1,1490,1156,0,0
273,-132,0,0,0,0,0,0,0,0,0,-1,1497,1156,0,0
280,-132,0,0,0,0,0,0,0,0,0,-1,1504,1156,0,0
287,-132,0,0,0,0,0,0,0,0,0,-1,1511,1156,0,0
294,-132,0,0,0,0,0,0,0,0,0,-1,1518,1156,0,0
301,-132,0,0,0,0,0,0,0,0,0,-1,1525,1156,0,0
308,-132,0,0,0,0,0,0,0,0,0,-1,1532,1156,0,0
315,-132,0,0,0,0,0,0,0,0,0,-1,1539,1156,0,0
322,-132,0,0,0,0,0,0,0,0,0,-1,1546,1156,0,0
329,-132,0,0,0,0,0,0,0,0,0,-1,1553,1156,0,0
336,-132,0,0,0,0,0,0,0,0,0,-1,1560,1156,0,0
343,-132,0,0,0,0,0,0,0,0,0,-1,1567,1156,0,0
350,-132,0,0,0,0,0,0,0,0,0,-1,1574,1156,0,0
357,-132,0,0,0,0,0,0,0,0,0,-1,1581,1156,0,0
364,-132,0,0,0,0,0,0,0,0,0,-1,1588,1156,0,0
371,-132,0,0,0,0,0,0,0,0,0,-1,1595,1156,0,0
378,-132,0,0,0,0,0,0,0,0,0,-1,1602,1156,0,0
385,-132,0,0,0,0,0,0,0,0,0,-1,1609,1156,0,0
392,-132,0,0,0,0,0,0,0,0,0,-1,1616,1156,0,0
399,-132,0,0,0,0,0,0,0,0,0,-1,1623,1156,0,0
406,-132,0,0,0,0,0,0,0,0,0,-1,1630,1156,0,0
413,-132,0,0,0,0,0,0,0,0,0,-1,1637,1156,0,0
420,-132,0,0,0,0,0,0,0,0,0,-1,1644,1156,0,0
427,-132,0,0,0,0,0,0,0,0,0,-1,1651,1156,0,0
434,-132,0,0,0,0,0,0,0,0,0,-1,1658,1156,0,0
441,-132,0,0,0,0,0,0,0,0,0,-1,1665,1156,0,0
448,-132,0,0,0,0,0,0,0,0,0,-1,1672,1156,0,0
455,-132,0,0,0,0,0,0,0,0,0,-1,1679,1156,0,0
462,-132,0,0,0,0,0,0,0,0,0,-1,1686,1156,0,0
469,-132,0,0,0,0,0,0,0,0,0,-1,1693,1156,0,0
476,-132,0,0,0,0,0,0,0,0,0,-1,1700,1156,0,0
483,-132,0,0,0,0,0,0,0,0,0,-1,1707,1156,0,0
490,-132,0,0,0,0,0,0,0,0,0,-1,1714,1156,0,0
497,-132,0,0,0,0,0,0,0,0,0,-1,1721,1156,0,0
504,-132,0,0,0,0,0,0,0,0,0,-1,1728,1156,0,0
511,-132,0,0,0,0,0,0,0,0,0,-1,1735,1156,0,0
518,-132,0,0,0,0,0,0,0,0,0,-1,1742,1156,0,0
525,-132,0,0,0,0,0,0,0,0,0,-1,1749,1156,0,0
532,-132,0,0,0,0,0,0,0,0,0,-1,1756,1156,0,0
539,-132,0,0,0,0,0,0,0,0,0,-1,1763,1156,0,0
546,-132,0,0,0,0,0,0,0,0,0,-1,1770,1156,0,0
553,-132,0,0,0,0,0,0,0,0,0,-1,1777,1156,0,0
560,-132,0,0,0,0,0,0,0,0,0,-1,1784,1156,0,0
567,-132,0,0,0,0,0,0,0,0,0,-1,1791,1156,0,0
574,-132,0,0,0,0,0,0,0,0,0,-1,1798,1156,0,0
581,-132,0,0,0,0,0,0,0,0,0,-1,1805,1156,0,0
588,-132,0,0,0,0,0,0,0,0,0,-1,1812,1156,0,0
595,-132,0,0,0,0,0,0,0,0,0,-1,1819,1156,0,0
602,-132,0,0,0,0,0,0,0,0,0,-1,1826,1156,0,0
609,-132,0,0,0,0,0,0,0,0,0,-1,1833,1156,0,0
616,-132,0,0,0,0,0,0,0,0,0,-1,1840,1156,0,0
623,-132,0,0,0,0,0,0,0,0,0,-1,1847,1156,0,0
630,-132,0,0,0,0,0,0,0,0,0,-1,1854,1156,0,0
637,-132,0,0,0,0,0,0,0,0,0,-1,1861,1156,0,0
644,-132,30.3444,2.88855,0.0015796,-0.00297145,-0.00320747,0.00323674,-0.00462859,-0.47688,0.00456469,0.0428862,1868,1156,30.3444,-2.88852
651,-132,30.1447,2.82178,0.00098959,-0.00237854,-0.0020301,0.00194321,-0.00333216,-0.439149,0.00308072,0.0399225,1875,1156,30.1446,-2.8218
658,-132,30.2344,2.82446,0.000763756,-0.00172158,-0.00124873,0.00128278,-0.0022406,-0.393916,0.00205913,0.0409219,1882,1156,30.2344,-2.82451
665,-132,30.1227,3.0188,0.000728504,-0.00107475,-0.000718655,0.000979871,-0.00132612,-0.336474,0.00133636,0.0426031,1889,1156,30.1227,-3.01885
672,-132,30.0051,3.15881,0.000763741,-0.000571394,-0.000546675,0.000959018,-0.000766671,-0.343082,0.000998388,0.0438018,1896,1156,30.0051,-3.15878
679,-132,30.1793,3.09741,0.000495942,-0.000264227,-0.000466903,0.000717906,-0.000486191,-0.443772,0.000699464,0.0412739,1903,1156,30.1793,-3.09736
686,-132,30.3114,3.01111,8.91216e-05,-0.00011816,-0.000384837,0.00038403,-0.000413068,-0.653863,0.000460306,0.0366304,1910,1156,30.3114,-3.01114
693,-132,30.3024,2.88428,-0.000227229,4.03718e-05,-0.000373758,0.000303557,-0.000490415,-0.957284,0.000462612,0.0267372,1917,1156,30.3024,-2.88422
700,-132,30.3105,2.79895,-0.000511061,4.22251e-05,-0.000207542,0.000111422,-0.000580257,-1.24898,0.000428831,0.0285242,1924,1156,30.3105,-2.79893
707,-132,29.2324,4.55969,0,0,0,0,0,0,0,-1,1931,1156,29.2324,-4.55967
714,-132,27.7417,5.73401,0,0,0,0,0,0,0,-1,1938,1156,27.7417,-5.734
721,-132,27.8448,5.53259,-0.000985762,0.00031829,0.000113521,0.000328098,-0.000995571,1.48461,0.000795949,0.028237,1945,1156,27.8449,-5.53259
728,-132,27.8673,5.32117,-0.00112731,0.000407366,7.29913e-05,0.00041083,-0.00113078,1.52338,0.000921833,0.0176727,1952,1156,27.8673,-5.32114
735,-132,27.8181,5.17773,-0.00100573,0.000398628,0.000272084,0.000449499,-0.0010566,1.38596,0.000892784,0.0193157,1959,1156,27.8181,-5.17774
742,-132,27.8308,4.98804,-0.000630694,0.000717493,0.000551946,0.000914632,-0.000827833,1.22775,0.00100643,0.0202152,1966,1156,27.8308,-4.9881
749,-132,27.8762,4.7887,0.0005259,0.00054841,0.000730386,0.00126763,-0.000193318,0.793102,0.000916347,0.0245022,1973,1156,27.8762,-4.78875
756,-132,27.8878,4.62097,0.00304099,-1.46045e-06,0.000731969,0.00320793,-0.000168402,0.224236,0.00219691,0.0238751,1980,1156,27.8879,-4.62095
763,-132,27.8411,4.44641,0.00701492,-0.00153147,0.00064074,0.00706269,-0.00157924,0.0744175,0.00531369,0.0139434,1987,1156,27.8411,-4.44641
770,-132,27.8372,4.27551,0.0115767,-0.00338228,0.000549179,0.0115968,-0.00340241,0.0366466,0.00908039,0.0127801,1994,1156,27.8372,-4.27553
777,-132,27.8336,4.10425,0.0175054,-0.0063039,0.00042672,0.017513,-0.00631155,0.0179147,0.0142529,0.0216499,2001,1156,27.8336,-4.1042
784,-132,27.8813,4.23535,0.0252313,-0.0107556,0.000350173,0.0252347,-0.010759,0.00972935,0.0213338,0.0431348,2008,1156,27.8813,-4.23539
791,-132,27.9503,4.46484,0,0,0,0,0,0,0,-1,2015,1156,27.9503,-4.46479
798,-132,27.9148,4.51855,0,0,0,0,0,0,0,-1,2022,1156,27.9149,-4.5185
805,-132,28.02,4.62317,0,0,0,0,0,0,0,-1,2029,1156,28.0201,-4.62314
812,-132,28.0818,4.63245,0,0,0,0,0,0,0,-1,2036,1156,28.0817,-4.63243
-700,-139,0,0,0,0,0,0,0,0,0,-1,524,1163,0,0
-693,-139,-21.3399,-3.14392,0,0,0,0,0,0,0,-1,531,1163,-21.3399,3.14394
-686,-139,-21.057,-2.39673,0,0,0,0,0,0,0,-1,538,1163,-21.057,2.39675
-679,-139,-23.1642,-5.25269,0,0,0,0,0,0,0,-1,545,1163,-23.1642,5.2527
-672,-139,-19.7321,-1.40735,0.0260462,-0.000691603,0.0299117,0.0454406,-0.020086,0.575242,0.0387644,0.0421153,552,1163,-19.7321,1.40733
-665,-139,-19.985,-1.35852,0.0203723,-0.0015436,0.0218091,0.0338216,-0.0149929,0.552596,0.0288735,0.0423415,559,1163,-19.985,1.35854
-658,-139,-18.5298,1.00122,0,0,0,0,0,0,0,-1,566,1163,-18.5298,-1.00122
-651,-139,-18.5453,1.14197,0.0110892,-0.00161655,0.0101368,0.0166994,-0.00722668,0.505482,0.01417,0.0419359,573,1163,-18.5453,-1.14195
-644,-139,-18.255,1.38745,0.00758205,-0.00128097,0.00623398,0.0107991,-0.00449805,0.476408,0.00907814,0.0214155,580,1163,-18.255,-1.3875
-637,-139,-18.2535,1.61951,0.00501936,-0.000972431,0.0034576,0.00659845,-0.00255151,0.42841,0.00545225,0.0128675,587,1163,-18.2535,-1.61948
-630,-139,-18.267,1.8479,0.00283699,-0.000493575,0.00149193,0.00340756,-0.00106414,0.365273,0.00269732,0.0109489,594,1163,-18.267,-1.84793
-623,-139,-18.2805,2.06079,0.00173076,-0.000796833,-0.000524384,0.00183523,-0.000901306,-0.196654,0.00161032,0.0161248,601,1163,-18.2805,-2.06079
-616,-139,-18.3009,2.27368,0.000540521,-0.000908151,-0.00135871,0.00135591,-0.00172354,-0.540509,0.00178214,0.0183431,608,1163,-18.3009,-2.27373
-609,-139,-18.2433,2.51917,0.000116745,-0.000556618,-0.000658892,0.000519991,-0.000959864,-0.549201,0.000866885,0.0274479,615,1163,-18.2433,-2.51919
-602,-139,-18.351,2.75342,0.000166196,-0.000793188,-0.000756168,0.00058199,-0.00120898,-0.502743,0.00105493,0.0215068,622,1163,-18.351,-2.75342
-595,-139,-18.3942,2.97375,9.75101e-06,-0.000926941,-0.00086234,0.000522719,-0.00143991,-0.536629,0.00117364,0.0214323,629,1163,-18.3941,-2.97376
-588,-139,-18.2918,3.21887,-0.000325999,-0.00104168,-0.00100111,0.000379304,-0.00174698,-0.613754,0.00130953,0.0212612,636,1163,-18.2918,-3.21882
-581,-139,-17.9423,3.5625,0,0,0,0,0,0,0,-1,643,1163,-17.9423,-3.56247
-574,-139,-20.5872,0.547607,0,0,0,0,0,0,0,-1,650,1163,-20.5872,-0.547586
-567,-139,-20.9779,0.896729,-0.000369766,-0.00207421,-0.00160777,0.000597683,-0.00304166,-0.541694,0.00225358,0.0497701,657,1163,-20.9779,-0.896703
-560,-139,-21.115,1.11829,-0.000411352,-0.00236846,-0.00192407,0.000768705,-0.00354852,-0.550151,0.00265921,0.0355619,664,1163,-21.115,-1.11831
-553,-139,-21.104,0.974609,-0.000269225,-0.00272681,-0.0022849,0.00109635,-0.00409238,-0.538689,0.00315779,0.039682,671,1163,-21.104,-0.974659
-546,-139,-21.1135,0.953735,0.000291292,-0.00334645,-0.00273183,0.00175437,-0.00480953,-0.491695,0.00392412,0.0427417,678,1163,-21.1134,-0.953756
-539,-139,-21.0018,0.899414,0.00140953,-0.00439203,-0.0032253,0.00284662,-0.00582912,-0.419161,0.00510665,0.0443165,685,1163,-21.0018,-0.899399
-532,-139,-20.9453,0.740356,0.00389966,-0.00637235,-0.00375145,0.00512383,-0.00759653,-0.315426,0.00739021,0.0409219,692,1163,-20.9453,-0.740388
-525,-139,-20.9807,0.648926,0.00728506,-0.00894411,-0.00435909,0.00838178,-0.0100408,-0.246478,0.0106507,0.0394791,699,1163,-20.9807,-0.648927
-518,-139,0,0,0,0,0,0,0,0,0,-1,706,1163,0,0
-511,-139,0,0,0,0,0,0,0,0,0,-1,713,1163,0,0
-504,-139,0,0,0,0,0,0,0,0,0,-1,720,1163,0,0
-497,-139,0,0,0,0,0,0,0,0,0,-1,727,1163,0,0
-490,-139,0,0,0,0,0,0,0,0,0,-1,734,1163,0,0
-483,-139,0,0,0,0,0,0,0,0,0,-1,741,1163,0,0
-476,-139,0,0,0,0,0,0,0,0,0,-1,748,1163,0,0
-469,-139,0,0,0,0,0,0,0,0,0,-1,755,1163,0,0
-462,-139,0,0,0,0,0,0,0,0,0,-1,762,1163,0,0
-455,-139,0,0,0,0,0,0,0,0,0,-1,769,1163,0,0
-448,-139,0,0,0,0,0,0,0,0,0,-1,776,1163,0,0
-441,-139,0,0,0,0,0,0,0,0,0,-1,783,1163,0,0
-434,-139,0,0,0,0,0,0,0,0,0,-1,790,1163,0,0
-427,-139,0,0,0,0,0,0,0,0,0,-1,797,1163,0,0
-420,-139,0,0,0,0,0,0,0,0,0,-1,804,1163,0,0
-413,-139,0,0,0,0,0,0,0,0,0,-1,811,1163,0,0
-406,-139,0,0,0,0,0,0,0,0,0,-1,818,1163,0,0
-399,-139,0,0,0,0,0,0,0,0,0,-1,825,1163,0,0
-392,-139,0,0,0,0,0,0,0,0,0,-1,832,1163,0,0
-385,-139,0,0,0,0,0,0,0,0,0,-1,839,1163,0,0
-378,-139,0,0,0,0,0,0,0,0,0,-1,846,1163,0,0
-371,-139,0,0,0,0,0,0,0,0,0,-1,853,1163,0,0
-364,-139,0,0,0,0,0,0,0,0,0,-1,860,1163,0,0
-357,-139,0,0,0,0,0,0,0,0,0,-1,867,1163,0,0
-350,-139,0,0,0,0,0,0,0,0,0,-1,874,1163,0,0
-343,-139,0,0,0,0,0,0,0,0,0,-1,881,1163,0,0
-336,-139,0,0,0,0,0,0,0,0,0,-1,888,1163,0,0
-329,-139,0,0,0,0,0,0,0,0,0,-1,895,1163,0,0
-322,-139,0,0,0,0,0,0,0,0,0,-1,902,1163,0,0
-315,-139,0,0,0,0,0,0,0,0,0,-1,909,1163,0,0
-308,-139,0,0,0,0,0,0,0,0,0,-1,916,1163,0,0
-301,-139,0,0,0,0,0,0,0,0,0,-1,923,1163,0,0
-294,-139,0,0,0,0,0,0,0,0,0,-1,930,1163,0,0
-287,-139,0,0,0,0,0,0,0,0,0,-1,937,1163,0,0
-280,-139,0,0,0,0,0,0,0,0,0,-1,944,1163,0,0
-273,-139,0,0,0,0,0,0,0,0,0,-1,951,1163,0,0
-266,-139,0,0,0,0,0,0,0,0,0,-1,958,1163,0,0
-259,-139,0,0,0,0,0,0,0,0,0,-1,965,1163,0,0
-252,-139,0,0,0,0,0,0,0,0,0,-1,972,1163,0,0
-245,-139,0,0,0,0,0,0,0,0,0,-1,979,1163,0,0
-238,-139,0,0,0,0,0,0,0,0,0,-1,986,1163,0,0
-231,-139,0,0,0,0,0,0,0,0,0,-1,993,1163,0,0
-224,-139,0,0,0,0,0,0,0,0,0,-1,1000,1163,0,0
-217,-139,0,0,0,0,0,0,0,0,0,-1,1007,1163,0,0
-210,-139,0,0,0,0,0,0,0,0,0,-1,1014,1163,0,0
-203,-139,0,0,0,0,0,0,0,0,0,-1,1021,1163,0,0
-196,-139,0,0,0,0,0,0,0,0,0,-1,1028,1163,0,0
-189,-139,0,0,0,0,0,0,0,0,0,-1,1035,1163,0,0
-182,-139,0,0,0,0,0,0,0,0,0,-1,1042,1163,0,0
-175,-139,0,0,0,0,0,0,0,0,0,-1,1049,1163,0,0
-168,-139,0,0,0,0,0,0,0,0,0,-1,1056,1163,0,0
-161,-139,0,0,0,0,0,0,0,0,0,-1,1063,1163,0,0
-154,-139,0,0,0,0,0,0,0,0,0,-1,1070,1163,0,0
-147,-139,0,0,0,0,0,0,0,0,0,-1,1077,1163,0,0
-140,-139,0,0,0,0,0,0,0,0,0,-1,1084,1163,0,0
-133,-139,0,0,0,0,0,0,0,0,0,-1,1091,1163,0,0
-126,-139,0,0,0,0,0,0,0,0,0,-1,1098,1163,0,0
-119,-139,0,0,0,0,0,0,0,0,0,-1,1105,1163,0,0
-112,-139,0,0,0,0,0,0,0,0,0,-1,1112,1163,0,0
-105,-139,0,0,0,0,0,0,0,0,0,-1,1119,1163,0,0
-98,-139,0,0,0,0,0,0,0,0,0,-1,1126,1163,0,0
-91,-139,0,0,0,0,0,0,0,0,0,-1,1133,1163,0,0
-84,-139,0,0,0,0,0,0,0,0,0,-1,1140,1163,0,0
-77,-139,0,0,0,0,0,0,0,0,0,-1,1147,1163,0,0
-70,-139,0,0,0,0,0,0,0,0,0,-1,1154,1163,0,0
-63,-139,0,0,0,0,0,0,0,0,0,-1,1161,1163,0,0
-56,-139,0,0,0,0,0,0,0,0,0,-1,1168,1163,0,0
-49,-139,0,0,0,0,0,0,0,0,0,-1,1175,1163,0,0
-42,-139,0,0,0,0,0,0,0,0,0,-1,1182,1163,0,0
-35,-139,0,0,0,0,0,0,0,0,0,-1,1189,1163,0,0
-28,-139,0,0,0,0,0,0,0,0,0,-1,1196,1163,0,0
-21,-139,0,0,0,0,0,0,0,0,0,-1,1203,1163,0,0
-14,-139,0,0,0,0,0,0,0,0,0,-1,1210,1163,0,0
-7,-139,0,0,0,0,0,0,0,0,0,-1,1217,1163,0,0
0,-139,0,0,0,0,0,0,0,0,0,-1,1224,1163,0,0
7,-139,0,0,0,0,0,0,0,0,0,-1,1231,1163,0,0
14,-139,0,0,0,0,0,0,0,0,0,-1,1238,1163,0,0
21,-139,0,0,0,0,0,0,0,0,0,-1,1245,1163,0,0
28,-139,0,0,0,0,0,0,0,0,0,-1,1252,1163,0,0
35,-139,0,0,0,0,0,0,0,0,0,-1,1259,1163,0,0
42,-139,0,0,0,0,0,0,0,0,0,-1,1266,1163,0,0
49,-139,0,0,0,0,0,0,0,0,0,-1,1273,1163,0,0
56,-139,0,0,0,0,0,0,0,0,0,-1,1280,1163,0,0
63,-139,0,0,0,0,0,0,0,0,0,-1,1287,1163,0,0
70,-139,0,0,0,0,0,0,0,0,0,-1,1294,1163,0,0
77,-139,0,0,0,0,0,0,0,0,0,-1,1301,1163,0,0
84,-139,0,0,0,0,0,0,0,0,0,-1,1308,1163,0,0
91,-139,0,0,0,0,0,0,0,0,0,-1,1315,1163,0,0
98,-139,0,0,0,0,0,0,0,0,0,-1,1322,1163,0,0
105,-139,0,0,0,0,0,0,0,0,0,-1,1329,1163,0,0
112,-139,0,0,0,0,0,0,0,0,0,-1,1336,1163,0,0
119,-139,0,0,0,0,0,0,0,0,0,-1,1343,1163,0,0
126,-139,0,0,0,0,0,0,0,0,0,-1,1350,1163,0,0
133,-139,0,0,0,0,0,0,0,0,0,-1,1357,1163,0,0
140,-139,0,0,0,0,0,0,0,0,0,-1,1364,1163,0,0
147,-139,0,0,0,0,0,0,0,0,0,-1,1371,1163,0,0
154,-139,0,0,0,0,0,0,0,0,0,-1,1378,1163,0,0
161,-139,0,0,0,0,0,0,0,0,0,-1,1385,1163,0,0
168,-139,0,0,0,0,0,0,0,0,0,-1,1392,1163,0,0
175,-139,0,0,0,0,0,0,0,0,0,-1,1399,1163,0,0
182,-139,0,0,0,0,0,0,0,0,0,-1,1406,1163,0,0
189,-139,0,0,0,0,0,0,0,0,0,-1,1413,1163,0,0
196,-139,0,0,0,0,0,0,0,0,0,-1,1420,1163,0,0
203,-139,0,0,0,0,0,0,0,0,0,-1,1427,1163,0,0
210,-139,0,0,0,0,0,0,0,0,0,-1,1434,1163,0,0
217,-139,0,0,0,0,0,0,0,0,0,-1,1441,1163,0,0
224,-139,0,0,0,0,0,0,0,0,0,-1,1448,1163,0,0
231,-139,0,0,0,0,0,0,0,0,0,-1,1455,1163,0,0
238,-139,0,0,0,0,0,0,0,0,0,-1,1462,1163,0,0
245,-139,0,0,0,0,0,0,0,0,0,-1,1469,1163,0,0
252,-139,0,0,0,0,0,0,0,0,0,-1,1476,1163,0,0
259,-139,0,0,0,0,0,0,0,0,0,-1,1483,1163,0,0
266,-139,0,0,0,0,0,0,0,0,0,-1,1490,1163,0,0
273,-139,0,0,0,0,0,0,0,0,0,-1,1497,1163,0,0
280,-139,0,0,0,0,0,0,0,0,0,-1,1504,1163,0,0
287,-139,0,0,0,0,0,0,0,0,0,-1,1511,1163,0,0
294,-139,0,0,0,0,0,0,0,0,0,-1,1518,1163,0,0
301,-139,0,0,0,0,0,0,0,0,0,-1,1525,1163,0,0
308,-139,0,0,0,0,0,0,0,0,0,-1,1532,1163,0,0
315,-139,0,0,0,0,0,0,0,0,0,-1,1539,1163,0,0
322,-139,0,0,0,0,0,0,0,0,0,-1,1546,1163,0,0
329,-139,0,0,0,0,0,0,0,0,0,-1,1553,1163,0,0
336,-139,0,0,0,0,0,0,0,0,0,-1,1560,1163,0,0
343,-139,0,0,0,0,0,0,0,0,0,-1,1567,1163,0,0
350,-139,0,0,0,0,0,0,0,0,0,-1,1574,1163,0,0
357,-139,0,0,0,0,0,0,0,0,0,-1,1581,1163,0,0
364,-139,0,0,0,0,0,0,0,0,0,-1,1588,1163,0,0
371,-139,0,0,0,0,0,0,0,0,0,-1,1595,1163,0,0
378,-139,0,0,0,0,0,0,0,0,0,-1,1602,1163,0,0
385,-139,0,0,0,0,0,0,0,0,0,-1,1609,1163,0,0
392,-139,0,0,0,0,0,0,0,0,0,-1,1616,1163,0,0
399,-139,0,0,0,0,0,0,0,0,0,-1,1623,1163,0,0
406,-139,0,0,0,0,0,0,0,0,0,-1,1630,1163,0,0
413,-139,0,0,0,0,0,0,0,0,0,-1,1637,1163,0,0
420,-139,0,0,0,0,0,0,0,0,0,-1,1644,1163,0,0
427,-139,0,0,0,0,0,0,0,0,0,-1,1651,1163,0,0
434,-139,0,0,0,0,0,0,0,0,0,-1,1658,1163,0,0
441,-139,0,0,0,0,0,0,0,0,0,-1,1665,1163,0,0
448,-139,0,0,0,0,0,0,0,0,0,-1,1672,1163,0,0
455,-139,0,0,0,0,0,0,0,0,0,-1,1679,1163,0,0
462,-139,0,0,0,0,0,0,0,0,0,-1,1686,1163,0,0
469,-139,0,0,0,0,0,0,0,0,0,-1,1693,1163,0,0
476,-139,0,0,0,0,0,0,0,0,0,-1,1700,1163,0,0
483,-139,0,0,0,0,0,0,0,0,0,-1,1707,1163,0,0
490,-139,0,0,0,0,0,0,0,0,0,-1,1714,1163,0,0
497,-139,0,0,0,0,0,0,0,0,0,-1,1721,1163,0,0
504,-139,0,0,0,0,0,0,0,0,0,-1,1728,1163,0,0
511,-139,0,0,0,0,0,0,0,0,0,-1,1735,1163,0,0
518,-139,0,0,0,0,0,0,0,0,0,-1,1742,1163,0,0
525,-139,0,0,0,0,0,0,0,0,0,-1,1749,1163,0,0
532,-139,0,0,0,0,0,0,0,0,0,-1,1756,1163,0,0
539,-139,0,0,0,0,0,0,0,0,0,-1,1763,1163,0,0
546,-139,0,0,0,0,0,0,0,0,0,-1,1770,1163,0,0
553,-139,0,0,0,0,0,0,0,0,0,-1,1777,1163,0,0
560,-139,0,0,0,0,0,0,0,0,0,-1,1784,1163,0,0
567,-139,0,0,0,0,0,0,0,0,0,-1,1791,1163,0,0
574,-139,0,0,0,0,0,0,0,0,0,-1,1798,1163,0,0
581,-139,0,0,0,0,0,0,0,0,0,-1,1805,1163,0,0
588,-139,0,0,0,0,0,0,0,0,0,-1,1812,1163,0,0
595,-139,0,0,0,0,0,0,0,0,0,-1,1819,1163,0,0
602,-139,0,0,0,0,0,0,0,0,0,-1,1826,1163,0,0
609,-139,0,0,0,0,0,0,0,0,0,-1,1833,1163,0,0
616,-139,0,0,0,0,0,0,0,0,0,-1,1840,1163,0,0
623,-139,0,0,0,0,0,0,0,0,0,-1,1847,1163,0,0
630,-139,0,0,0,0,0,0,0,0,0,-1,1854,1163,0,0
637,-139,0,0,0,0,0,0,0,0,0,-1,1861,1163,0,0
644,-139,30.2614,2.80334,0.00157556,-0.00254017,-0.00276165,0.00296175,-0.00392636,-0.4652,0.00398983,0.0404109,1868,1163,30.2614,-2.80339
651,-139,30.152,2.81482,0.00105009,-0.00194693,-0.00188875,0.00196257,-0.00285942,-0.45005,0.00279998,0.0393647,1875,1163,30.1519,-2.81485
658,-139,30.363,2.72388,0.000833681,-0.00124462,-0.00131778,0.00147274,-0.00188368,-0.451535,0.00194267,0.0410529,1882,1163,30.363,-2.72388
665,-139,30.2914,2.88184,0.000782919,-0.000546327,-0.000983875,0.00130562,-0.00106903,-0.488346,0.00137327,0.0402528,1889,1163,30.2913,-2.88186
672,-139,30.2017,3.00562,0.000762299,-4.40156e-05,-0.000926902,0.00136992,-0.000651641,-0.580263,0.00119146,0.0394741,1896,1163,30.2017,-3.00567
679,-139,30.317,3.00647,0.000404572,0.000236955,-0.000867914,0.00119271,-0.000551188,-0.737266,0.0010293,0.0374658,1903,1163,30.317,-3.00646
686,-139,30.3312,2.98181,-7.79617e-05,0.000336507,-0.000762019,0.000918968,-0.000660423,-0.918164,0.000915925,0.034551,1910,1163,30.3312,-2.98185
693,-139,30.3013,2.8678,-0.000458686,0.000465451,-0.000713392,0.000853344,-0.00084658,-1.07278,0.000981454,0.0235745,1917,1163,30.3013,-2.86775
700,-139,30.255,3.94531,0,0,0,0,0,0,0,-1,1924,1163,30.255,-3.94532
707,-139,28.9304,4.83606,0,0,0,0,0,0,0,-1,1931,1163,28.9305,-4.83603
714,-139,27.6903,5.78992,-0.00130792,0.000520987,-0.000201326,0.000542887,-0.00132982,-1.46245,0.00111257,0.038349,1938,1163,27.6903,-5.78994
721,-139,27.6868,5.52246,-0.00130704,0.00060608,-0.000114807,0.000612945,-0.00131391,-1.51107,0.00113674,0.0264074,1945,1163,27.6867,-5.52245
728,-139,27.6526,5.34143,-0.00133002,0.000624348,-8.77775e-05,0.000628282,-0.00133395,-1.526,0.00115706,0.0264314,1952,1163,27.6526,-5.34138
735,-139,27.6246,5.21826,-0.00106047,0.000491196,0.00019558,0.000515469,-0.00108474,1.44732,0.000943168,0.0198697,1959,1163,27.6247,-5.21824
742,-139,27.6409,4.94763,-0.000396706,0.000684524,0.000602173,0.000953154,-0.000665335,1.15119,0.000939347,0.0220777,1966,1163,27.6409,-4.94765
749,-139,27.6362,4.76428,0.0011356,0.000499723,0.000940207,0.00181017,-0.000174847,0.622355,0.00126908,0.0188462,1973,1163,27.6362,-4.76429
756,-139,27.6323,4.61011,0.00401035,0.000107438,0.00117037,0.00433441,-0.000216619,0.270116,0.00296445,0.0109153,1980,1163,27.6323,-4.61016
763,-139,27.6277,4.41602,0.00813155,-0.00106192,0.00133147,0.0083205,-0.00125087,0.14097,0.00600753,0.0110212,1987,1163,27.6277,-4.41607
770,-139,27.6171,4.24329,0.012902,-0.00250235,0.00154985,0.0130564,-0.00265674,0.0992854,0.00971175,0.0116037,1994,1163,27.6171,-4.24333
777,-139,27.6025,4.08594,0.0189271,-0.00478914,0.00175891,0.0190569,-0.00491888,0.0736278,0.0146226,0.0209726,2001,1163,27.6026,-4.08591
784,-139,27.5775,3.94568,0.0264959,-0.00832456,0.00207996,0.0266197,-0.00844836,0.0594522,0.0211332,0.0415734,2008,1163,27.5776,-3.94569
791,-139,27.5592,3.7887,0,0,0,0,0,0,0,-1,2015,1163,27.5593,-3.78869
798,-139,27.2981,4.32214,0,0,0,0,0,0,0,-1,2022,1163,27.2982,-4.32213
805,-139,27.2402,4.646,0,0,0,0,0,0,0,-1,2029,1163,27.2403,-4.64599
812,-139,0,0,0,0,0,0,0,0,0,-1,2036,1163,0,0
-700,-146,0,0,0,0,0,0,0,0,0,-1,524,1170,0,0
-693,-146,-21.0894,-2.53589,0,0,0,0,0,0,0,-1,531,1170,-21.0894,2.53583
-686,-146,-20.7831,-2.05493,0.0448491,-0.0046699,0.0478411,0.073958,-0.0337788,0.546609,0.0636274,0.0487997,538,1170,-20.7832,2.05494
-679,-146,-20.1016,-1.58276,0.0366233,-0.00608736,0.0366879,0.0577185,-0.0271826,0.521828,0.0500633,0.047056,545,1170,-20.1016,1.58272
-672,-146,-19.4163,-1.15625,0.0292767,-0.00629585,0.0276151,0.0443377,-0.0213569,0.499298,0.0386946,0.0448328,552,1170,-19.4163,1.15626
-665,-146,-18.4573,-0.60083,0.022776,-0.0058232,0.020232,0.0332516,-0.0162988,0.477767,0.0291607,0.0427074,559,1170,-18.4573,0.600833
-658,-146,-17.9869,0.788818,0,0,0,0,0,0,0,-1,566,1170,-17.9869,-0.788848
-651,-146,-17.9832,1.07813,0.0123339,-0.00390959,0.00952329,0.0167284,-0.00830406,0.43233,0.0147228,0.0386386,573,1170,-17.9831,-1.07812
-644,-146,-17.9758,1.36304,0.00840375,-0.00284525,0.00590094,0.0109313,-0.00537281,0.404689,0.0095938,0.0190681,580,1170,-17.9758,-1.36305
-637,-146,-17.9885,1.60193,0.00549925,-0.00194423,0.00331593,0.00676216,-0.00320713,0.3639,0.00587649,0.0111408,587,1170,-17.9885,-1.60198
-630,-146,-18.0186,1.83887,0.00305628,-0.000964712,0.00153045,0.00357252,-0.00148095,0.325325,0.00299976,0.0108207,594,1170,-18.0186,-1.83886
-623,-146,-18.0524,2.05701,0.00165479,-0.000814799,-0.000404245,0.00171928,-0.000879285,-0.158191,0.00152618,0.0126431,601,1170,-18.0524,-2.05704
-616,-146,-18.0966,2.30505,0.000180623,-0.000674608,-0.00127848,0.0011011,-0.00159509,-0.624011,0.00156533,0.0190029,608,1170,-18.0966,-2.30507
-609,-146,-17.9828,2.56335,-0.000396228,-0.000244102,-0.000725862,0.000409671,-0.00105,-0.837602,0.000869352,0.0188925,615,1170,-17.9828,-2.5633
-602,-146,-17.8064,2.82715,0,0,0,0,0,0,0,-1,622,1170,-17.8064,-2.82717
-595,-146,-18.2171,3.02844,-0.000704953,-0.000531362,-0.00105752,0.000442921,-0.00167924,-0.826343,0.00129268,0.0214361,629,1170,-18.2171,-3.02845
-588,-146,-18.1223,3.25452,-0.00112889,-0.000643436,-0.00126079,0.000397783,-0.00217011,-0.880495,0.00159595,0.024323,636,1170,-18.1223,-3.25447
-581,-146,-17.9802,3.56396,-0.00133882,-0.000987376,-0.00131839,0.000166946,-0.00249314,-0.851651,0.00172045,0.0489889,643,1170,-17.9801,-3.56401
-574,-146,-17.9915,3.79114,0,0,0,0,0,0,0,-1,650,1170,-17.9915,-3.79118
-567,-146,-20.9817,0.847168,0,0,0,0,0,0,0,-1,657,1170,-20.9817,-0.847146
-560,-146,-21.0549,1.06262,-0.00123321,-0.00205332,-0.00219761,0.00059228,-0.0038788,-0.693163,0.00280422,0.0353472,664,1170,-21.0549,-1.06261
-553,-146,-20.9254,0.986694,-0.00100328,-0.00245387,-0.00249814,0.00087272,-0.00432987,-0.644116,0.00321719,0.0345775,671,1170,-20.9253,-0.986755
-546,-146,-20.8268,0.854858,-0.000232116,-0.00313671,-0.00281306,0.00148142,-0.00485024,-0.547109,0.00382417,0.0391581,678,1170,-20.8268,-0.854917
-539,-146,-20.9266,0.899048,0.00115294,-0.00423014,-0.00309691,0.00256448,-0.00564168,-0.427658,0.00484759,0.0425511,685,1170,-20.9266,-0.899005
-532,-146,-21.0061,0.830322,0.00392844,-0.00619887,-0.00330473,0.00491143,-0.00718186,-0.289114,0.00702296,0.0412822,692,1170,-21.0061,-0.830285
-525,-146,-20.8915,0.623413,0.00781393,-0.0089249,-0.00366069,0.00857949,-0.00969046,-0.206159,0.0105547,0.0431662,699,1170,-20.8915,-0.623432
-518,-146,0,0,0,0,0,0,0,0,0,-1,706,1170,0,0
-511,-146,0,0,0,0,0,0,0,0,0,-1,713,1170,0,0
-504,-146,0,0,0,0,0,0,0,0,0,-1,720,1170,0,0
-497,-146,0,0,0,0,0,0,0,0,0,-1,727,1170,0,0
-490,-146,0,0,0,0,0,0,0,0,0,-1,734,1170,0,0
-483,-146,0,0,0,0,0,0,0,0,0,-1,741,1170,0,0
-476,-146,0,0,0,0,0,0,0,0,0,-1,748,1170,0,0
-469,-146,0,0,0,0,0,0,0,0,0,-1,755,1170,0,0
-462,-146,0,0,0,0,0,0,0,0,0,-1,762,1170,0,0
-455,-146,0,0,0,0,0,0,0,0,0,-1,769,1170,0,0
-448,-146,0,0,0,0,0,0,0,0,0,-1,776,1170,0,0
-441,-146,0,0,0,0,0,0,0,0,0,-1,783,1170,0,0
-434,-146,0,0,0,0,0,0,0,0,0,-1,790,1170,0,0
-427,-146,0,0,0,0,0,0,0,0,0,-1,797,1170,0,0
-420,-146,0,0,0,0,0,0,0,0,0,-1,804,1170,0,0
-413,-146,0,0,0,0,0,0,0,0,0,-1,811,1170,0,0
-406,-146,0,0,0,0,0,0,0,0,0,-1,818,1170,0,0
-399,-146,0,0,0,0,0,0,0,0,0,-1,825,1170,0,0
-392,-146,0,0,0,0,0,0,0,0,0,-1,832,1170,0,0
-385,-146,0,0,0,0,0,0,0,0,0,-1,839,1170,0,0
-378,-146,0,0,0,0,0,0,0,0,0,-1,846,1170,0,0
-371,-146,0,0,0,0,0,0,0,0,0,-1,853,1170,0,0
-364,-146,0,0,0,0,0,0,0,0,0,-1,860,1170,0,0
-357,-146,0,0,0,0,0,0,0,0,0,-1,867,1170,0,0
-350,-146,0,0,0,0,0,0,0,0,0,-1,874,1170,0,0
-343,-146,0,0,0,0,0,0,0,0,0,-1,881,1170,0,0
-336,-146,0,0,0,0,0,0,0,0,0,-1,888,1170,0,0
-329,-146,0,0,0,0,0,0,0,0,0,-1,895,1170,0,0
-322,-146,0,0,0,0,0,0,0,0,0,-1,902,1170,0,0
-315,-146,0,0,0,0,0,0,0,0,0,-1,909,1170,0,0
-308,-146,0,0,0,0,0,0,0,0,0,-1,916,1170,0,0
-301,-146,0,0,0,0,0,0,0,0,0,-1,923,1170,0,0
-294,-146,0,0,0,0,0,0,0,0,0,-1,930,1170,0,0
-287,-146,0,0,0,0,0,0,0,0,0,-1,937,1170,0,0
-280,-146,0,0,0,0,0,0,0,0,0,-1,944,1170,0,0
-273,-146,0,0,0,0,0,0,0,0,0,-1,951,1170,0,0
-266,-146,0,0,0,0,0,0,0,0,0,-1,958,1170,0,0
-259,-146,0,0,0,0,0,0,0,0,0,-1,965,1170,0,0
-252,-146,0,0,0,0,0,0,0,0,0,-1,972,1170,0,0
-245,-146,0,0,0,0,0,0,0,0,0,-1,979,1170,0,0
-238,-146,0,0,0,0,0,0,0,0,0,-1,986,1170,0,0
-231,-146,0,0,0,0,0,0,0,0,0,-1,993,1170,0,0
-224,-146,0,0,0,0,0,0,0,0,0,-1,1000,1170,0,0
-217,-146,0,0,0,0,0,0,0,0,0,-1,1007,1170,0,0
-210,-146,0,0,0,0,0,0,0,0,0,-1,1014,1170,0,0
-203,-146,0,0,0,0,0,0,0,0,0,-1,1021,1170,0,0
-196,-146,0,0,0,0,0,0,0,0,0,-1,1028,1170,0,0
-189,-146,0,0,0,0,0,0,0,0,0,-1,1035,1170,0,0
-182,-146,0,0,0,0,0,0,0,0,0,-1,1042,1170,0,0
-175,-146,0,0,0,0,0,0,0,0,0,-1,1049,1170,0,0
-168,-146,0,0,0,0,0,0,0,0,0,-1,1056,1170,0,0
-161,-146,0,0,0,0,0,0,0,0,0,-1,1063,1170,0,0
-154,-146,0,0,0,0,0,0,0,0,0,-1,1070,1170,0,0
-147,-146,0,0,0,0,0,0,0,0,0,-1,1077,1170,0,0
-140,-146,0,0,0,0,0,0,0,0,0,-1,1084,1170,0,0
-133,-146,0,0,0,0,0,0,0,0,0,-1,1091,1170,0,0
-126,-146,0,0,0,0,0,0,0,0,0,-1,1098,1170,0,0
-119,-146,0,0,0,0,0,0,0,0,0,-1,1105,1170,0,0
-112,-146,0,0,0,0,0,0,0,0,0,-1,1112,1170,0,0
-105,-146,0,0,0,0,0,0,0,0,0,-1,1119,1170,0,0
-98,-146,0,0,0,0,0,0,0,0,0,-1,1126,1170,0,0
-91,-146,0,0,0,0,0,0,0,0,0,-1,1133,1170,0,0
-84,-146,0,0,0,0,0,0,0,0,0,-1,1140,1170,0,0
-77,-146,0,0,0,0,0,0,0,0,0,-1,1147,1170,0,0
-70,-146,0,0,0,0,0,0,0,0,0,-1,1154,1170,0,0
-63,-146,0,0,0,0,0,0,0,0,0,-1,1161,1170,0,0
-56,-146,0,0,0,0,0,0,0,0,0,-1,1168,1170,0,0
-49,-146,0,0,0,0,0,0,0,0,0,-1,1175,1170,0,0
-42,-146,0,0,0,0,0,0,0,0,0,-1,1182,1170,0,0
-35,-146,0,0,0,0,0,0,0,0,0,-1,1189,1170,0,0
-28,-146,0,0,0,0,0,0,0,0,0,-1,1196,1170,0,0
-21,-146,0,0,0,0,0,0,0,0,0,-1,1203,1170,0,0
-14,-146,0,0,0,0,0,0,0,0,0,-1,1210,1170,0,0
-7,-146,0,0,0,0,0,0,0,0,0,-1,1217,1170,0,0
0,-146,0,0,0,0,0,0,0,0,0,-1,1224,1170,0,0
7,-146,0,0,0,0,0,0,0,0,0,-1,1231,1170,0,0
14,-146,0,0,0,0,0,0,0,0,0,-1,1238,1170,0,0
21,-146,0,0,0,0,0,0,0,0,0,-1,1245,1170,0,0
28,-146,0,0,0,0,0,0,0,0,0,-1,1252,1170,0,0
35,-146,0,0,0,0,0,0,0,0,0,-1,1259,1170,0,0
42,-146,0,0,0,0,0,0,0,0,0,-1,1266,1170,0,0
49,-146,0,0,0,0,0,0,0,0,0,-1,1273,1170,0,0
56,-146,0,0,0,0,0,0,0,0,0,-1,1280,1170,0,0
63,-146,0,0,0,0,0,0,0,0,0,-1,1287,1170,0,0
70,-146,0,0,0,0,0,0,0,0,0,-1,1294,1170,0,0
77,-146,0,0,0,0,0,0,0,0,0,-1,1301,1170,0,0
84,-146,0,0,0,0,0,0,0,0,0,-1,1308,1170,0,0
91,-146,0,0,0,0,0,0,0,0,0,-1,1315,1170,0,0
98,-146,0,0,0,0,0,0,0,0,0,-1,1322,1170,0,0
105,-146,0,0,0,0,0,0,0,0,0,-1,1329,1170,0,0
112,-146,0,0,0,0,0,0,0,0,0,-1,1336,1170,0,0
119,-146,0,0,0,0,0,0,0,0,0,-1,1343,1170,0,0
126,-146,0,0,0,0,0,0,0,0,0,-1,1350,1170,0,0
133,-146,0,0,0,0,0,0,0,0,0,-1,1357,1170,0,0
140,-146,0,0,0,0,0,0,0,0,0,-1,1364,1170,0,0
147,-146,0,0,0,0,0,0,0,0,0,-1,1371,1170,0,0
154,-146,0,0,0,0,0,0,0,0,0,-1,1378,1170,0,0
161,-146,0,0,0,0,0,0,0,0,0,-1,1385,1170,0,0
168,-146,0,0,0,0,0,0,0,0,0,-1,1392,1170,0,0
175,-146,0,0,0,0,0,0,0,0,0,-1,1399,1170,0,0
182,-146,0,0,0,0,0,0,0,0,0,-1,1406,1170,0,0
189,-146,0,0,0,0,0,0,0,0,0,-1,1413,1170,0,0
196,-146,0,0,0,0,0,0,0,0,0,-1,1420,1170,0,0
203,-146,0,0,0,0,0,0,0,0,0,-1,1427,1170,0,0
210,-146,0,0,0,0,0,0,0,0,0,-1,1434,1170,0,0
217,-146,0,0,0,0,0,0,0,0,0,-1,1441,1170,0,0
224,-146,0,0,0,0,0,0,0,0,0,-1,1448,1170,0,0
231,-146,0,0,0,0,0,0,0,0,0,-1,1455,1170,0,0
238,-146,0,0,0,0,0,0,0,0,0,-1,1462,1170,0,0
245,-146,0,0,0,0,0,0,0,0,0,-1,1469,1170,0,0
252,-146,0,0,0,0,0,0,0,0,0,-1,1476,1170,0,0
259,-146,0,0,0,0,0,0,0,0,0,-1,1483,1170,0,0
266,-146,0,0,0,0,0,0,0,0,0,-1,1490,1170,0,0
273,-146,0,0,0,0,0,0,0,0,0,-1,1497,1170,0,0
280,-146,0,0,0,0,0,0,0,0,0,-1,1504,1170,0,0
287,-146,0,0,0,0,0,0,0,0,0,-1,1511,1170,0,0
294,-146,0,0,0,0,0,0,0,0,0,-1,1518,1170,0,0
301,-146,0,0,0,0,0,0,0,0,0,-1,1525,1170,0,0
308,-146,0,0,0,0,0,0,0,0,0,-1,1532,1170,0,0
315,-146,0,0,0,0,0,0,0,0,0,-1,1539,1170,0,0
322,-146,0,0,0,0,0,0,0,0,0,-1,1546,1170,0,0
329,-146,0,0,0,0,0,0,0,0,0,-1,1553,1170,0,0
336,-146,0,0,0,0,0,0,0,0,0,-1,1560,1170,0,0
343,-146,0,0,0,0,0,0,0,0,0,-1,1567,1170,0,0
350,-146,0,0,0,0,0,0,0,0,0,-1,1574,1170,0,0
357,-146,0,0,0,0,0,0,0,0,0,-1,1581,1170,0,0
364,-146,0,0,0,0,0,0,0,0,0,-1,1588,1170,0,0
371,-146,0,0,0,0,0,0,0,0,0,-1,1595,1170,0,0
378,-146,0,0,0,0,0,0,0,0,0,-1,1602,1170,0,0
385,-146,0,0,0,0,0,0,0,0,0,-1,1609,1170,0,0
392,-146,0,0,0,0,0,0,0,0,0,-1,1616,1170,0,0
399,-146,0,0,0,0,0,0,0,0,0,-1,1623,1170,0,0
406,-146,0,0,0,0,0,0,0,0,0,-1,1630,1170,0,0
413,-146,0,0,0,0,0,0,0,0,0,-1,1637,1170,0,0
420,-146,0,0,0,0,0,0,0,0,0,-1,1644,1170,0,0
427,-146,0,0,0,0,0,0,0,0,0,-1,1651,1170,0,0
434,-146,0,0,0,0,0,0,0,0,0,-1,1658,1170,0,0
441,-146,0,0,0,0,0,0,0,0,0,-1,1665,1170,0,0
448,-146,0,0,0,0,0,0,0,0,0,-1,1672,1170,0,0
455,-146,0,0,0,0,0,0,0,0,0,-1,1679,1170,0,0
462,-146,0,0,0,0,0,0,0,0,0,-1,1686,1170,0,0
469,-146,0,0,0,0,0,0,0,0,0,-1,1693,1170,0,0
476,-146,0,0,0,0,0,0,0,0,0,-1,1700,1170,0,0
483,-146,0,0,0,0,0,0,0,0,0,-1,1707,1170,0,0
490,-146,0,0,0,0,0,0,0,0,0,-1,1714,1170,0,0
497,-146,0,0,0,0,0,0,0,0,0,-1,1721,1170,0,0
504,-146,0,0,0,0,0,0,0,0,0,-1,1728,1170,0,0
511,-146,0,0,0,0,0,0,0,0,0,-1,1735,1170,0,0
518,-146,0,0,0,0,0,0,0,0,0,-1,1742,1170,0,0
525,-146,0,0,0,0,0,0,0,0,0,-1,1749,1170,0,0
532,-146,0,0,0,0,0,0,0,0,0,-1,1756,1170,0,0
539,-146,0,0,0,0,0,0,0,0,0,-1,1763,1170,0,0
546,-146,0,0,0,0,0,0,0,0,0,-1,1770,1170,0,0
553,-146,0,0,0,0,0,0,0,0,0,-1,1777,1170,0,0
560,-146,0,0,0,0,0,0,0,0,0,-1,1784,1170,0,0
567,-146,0,0,0,0,0,0,0,0,0,-1,1791,1170,0,0
574,-146,0,0,0,0,0,0,0,0,0,-1,1798,1170,0,0
581,-146,0,0,0,0,0,0,0,0,0,-1,1805,1170,0,0
588,-146,0,0,0,0,0,0,0,0,0,-1,1812,1170,0,0
595,-146,0,0,0,0,0,0,0,0,0,-1,1819,1170,0,0
602,-146,0,0,0,0,0,0,0,0,0,-1,1826,1170,0,0
609,-146,0,0,0,0,0,0,0,0,0,-1,1833,1170,0,0
616,-146,0,0,0,0,0,0,0,0,0,-1,1840,1170,0,0
623,-146,0,0,0,0,0,0,0,0,0,-1,1847,1170,0,0
630,-146,0,0,0,0,0,0,0,0,0,-1,1854,1170,0,0
637,-146,30.348,2.66541,0.00257919,-0.00183635,-0.00341607,0.00443882,-0.00369598,-0.498517,0.00470315,0.0381631,1861,1170,30.348,-2.66535
644,-146,30.2858,2.73645,0.00165811,-0.0016056,-0.00222119,0.00278245,-0.00272995,-0.468587,0.00318263,0.0392462,1868,1170,30.2858,-2.7365
651,-146,30.2609,2.78735,0.00114658,-0.00114244,-0.00165999,0.00201837,-0.00201423,-0.483587,0.00232823,0.0371969,1875,1170,30.2609,-2.78737
658,-146,30.3026,2.71985,0.000893891,-0.000549768,-0.00132603,0.00168183,-0.0013377,-0.536149,0.0017471,0.0393009,1882,1170,30.3026,-2.71988
665,-146,30.2356,2.75928,0.000800634,6.2972e-05,-0.0012162,0.0017027,-0.000839096,-0.638174,0.00149548,0.0401149,1889,1170,30.2356,-2.75933
672,-146,30.3275,2.8573,0.000713063,0.000461486,-0.00126241,0.00185594,-0.000681388,-0.735741,0.00151634,0.0388585,1896,1170,30.3275,-2.85727
679,-146,30.389,2.85571,0.000264634,0.000648977,-0.00120594,0.00167796,-0.000764347,-0.864411,0.00144258,0.0317748,1903,1170,30.3891,-2.85574
686,-146,30.2794,2.83167,-0.000269285,0.000673472,-0.00107563,0.00137648,-0.000972291,-0.991912,0.00136274,0.0241589,1910,1170,30.2794,-2.83164
693,-146,30.3009,2.77429,-0.000693605,0.000752721,-0.000984168,0.00125085,-0.00119173,-1.10225,0.00141036,0.0178557,1917,1170,30.3009,-2.77432
700,-146,30.3622,2.61694,0,0,0,0,0,0,0,-1,1924,1170,30.3621,-2.61699
707,-146,27.4324,6.37744,0,0,0,0,0,0,0,-1,1931,1170,27.4323,-6.37742
714,-146,27.6019,5.80969,-0.00161769,0.000721805,-0.000434678,0.000799958,-0.00169584,-1.3929,0.00147157,0.0386842,1938,1170,27.602,-5.8097
721,-146,27.6003,5.51929,-0.00156988,0.000772003,-0.000291146,0.000807656,-0.00160554,-1.44895,0.00141842,0.049883,1945,1170,27.6004,-5.51934
728,-146,27.6571,5.25598,-0.00140945,0.000729473,-0.000191616,0.000746503,-0.00142648,-1.48215,0.00127488,0.0353366,1952,1170,27.6571,-5.25593
735,-146,27.465,5.23132,-0.000934102,0.000501843,0.000162003,0.000519894,-0.000952152,1.45983,0.000862013,0.0178104,1959,1170,27.465,-5.23126
742,-146,27.4729,4.96777,4.39179e-05,0.000581586,0.000595632,0.000966242,-0.000340738,0.997383,0.000782861,0.016988,1966,1170,27.4729,-4.96774
749,-146,27.4174,4.80103,0.00194982,0.000497981,0.00101137,0.00246882,-2.10215e-05,0.474126,0.00165293,0.0156023,1973,1170,27.4173,-4.80099
756,-146,27.4092,4.60681,0.00521969,0.000336754,0.00137393,0.00557973,-2.3287e-05,0.256289,0.00372761,0.0117562,1980,1170,27.4091,-4.60686
763,-146,27.4,4.39697,0.00956464,-0.000339272,0.00165938,0.00983527,-0.000609902,0.161668,0.00676931,0.0111306,1987,1170,27.4,-4.39701
770,-146,27.3992,4.21252,0.014565,-0.00117641,0.00204755,0.014827,-0.00143839,0.127253,0.0103973,0.0111708,1994,1170,27.3991,-4.21256
777,-146,27.3844,4.08594,0.0206883,-0.00253491,0.00247458,0.020949,-0.00279567,0.104986,0.0149851,0.018425,2001,1170,27.3844,-4.0859
784,-146,27.405,4.01697,0.0280461,-0.00472619,0.00311984,0.0283405,-0.00502055,0.0940714,0.0207704,0.0386577,2008,1170,27.4051,-4.017
791,-146,27.441,3.92334,0,0,0,0,0,0,0,-1,2015,1170,27.441,-3.92339
798,-146,29.4385,4.79138,0,0,0,0,0,0,0,-1,2022,1170,29.4386,-4.79135
805,-146,26.4204,4.5437,0,0,0,0,0,0,0,-1,2029,1170,26.4203,-4.54373
812,-146,0,0,0,0,0,0,0,0,0,-1,2036,1170,0,0
-700,-153,0,0,0,0,0,0,0,0,0,-1,524,1177,0,0
-693,-153,0,0,0,0,0,0,0,0,0,-1,531,1177,0,0
-686,-153,-20.4091,-1.66284,0.0509003,-0.0135537,0.0432275,0.0725917,-0.0352452,0.465084,0.063492,0.046633,538,1177,-20.4091,1.66282
-679,-153,-20.0177,-1.19897,0.0412461,-0.0127506,0.0337411,0.0574609,-0.0289654,0.447978,0.0507943,0.0479017,545,1177,-20.0177,1.19901
-672,-153,-18.6046,-0.535645,0.0327262,-0.011278,0.025828,0.0446531,-0.0232049,0.432609,0.0398248,0.0424445,552,1177,-18.6046,0.535671
-665,-153,-17.1953,-0.565674,0,0,0,0,0,0,0,-1,559,1177,-17.1953,0.565643
-658,-153,-17.5078,1.14172,0,0,0,0,0,0,0,-1,566,1177,-17.5078,-1.14169
-651,-153,-17.6705,1.34521,0.0135674,-0.00584053,0.00946304,0.0174176,-0.00969076,0.386415,0.0158615,0.0443341,573,1177,-17.6705,-1.34524
-644,-153,-17.7108,1.33813,0.00918872,-0.00417524,0.00603265,0.0115091,-0.00649558,0.367187,0.0105285,0.0280357,580,1177,-17.7108,-1.33818
-637,-153,-17.732,1.58435,0.00592045,-0.00279846,0.00352324,0.00716618,-0.00404419,0.339856,0.00655543,0.0120083,587,1177,-17.732,-1.58439
-630,-153,-17.7555,1.82227,0.00322739,-0.00144267,0.00176859,0.00382157,-0.00203685,0.324115,0.00343428,0.00999573,594,1177,-17.7555,-1.82223
-623,-153,-17.7829,2.06067,0.00152217,-0.000908255,-0.000174812,0.00153468,-0.000920764,-0.0714365,0.00143235,0.00995178,601,1177,-17.7829,-2.06071
-616,-153,-17.8019,2.29663,-0.000234577,-0.000608316,-0.00123289,0.00082552,-0.00166841,-0.710185,0.00146703,0.0126683,608,1177,-17.8019,-2.29663
-609,-153,-17.7751,2.53613,-0.00105507,-0.000122747,-0.000968842,0.000486247,-0.00166407,-1.00963,0.00130208,0.0176178,615,1177,-17.7752,-2.53617
-602,-153,-17.7401,2.79688,0,0,0,0,0,0,0,-1,622,1177,-17.74,-2.79685
-595,-153,-17.952,3.04492,-0.001647,-0.000360246,-0.00149191,0.0006211,-0.00262835,-0.988972,0.00199181,0.0342695,629,1177,-17.952,-3.04487
-588,-153,-17.9807,3.28748,-0.00214366,-0.00044301,-0.00176771,0.000668263,-0.00325493,-1.00958,0.00242362,0.0213983,636,1177,-17.9806,-3.2875
-581,-153,-17.7723,3.49036,-0.00238573,-0.000807261,-0.00184121,0.000406739,-0.00359973,-0.987877,0.00254625,0.0266342,643,1177,-17.7723,-3.49041
-574,-153,-17.8237,3.625,0,0,0,0,0,0,0,-1,650,1177,-17.8237,-3.62498
-567,-153,-21.0977,1.18079,0,0,0,0,0,0,0,-1,657,1177,-21.0977,-1.18075
-560,-153,-21.061,1.14258,-0.0021918,-0.0018406,-0.00263136,0.000621017,-0.00465341,-0.818716,0.00332865,0.0385018,664,1177,-21.061,-1.14256
-553,-153,-20.9814,1.04224,-0.00186518,-0.00220499,-0.00282419,0.000794215,-0.00486438,-0.755354,0.0035375,0.0341452,671,1177,-20.9814,-1.04227
-546,-153,-20.8204,0.887085,-0.000884979,-0.00281883,-0.00294715,0.00124981,-0.00495362,-0.626887,0.00378837,0.0392038,678,1177,-20.8204,-0.887063
-539,-153,-21.0433,0.877563,0.000766944,-0.00375927,-0.00295891,0.002229,-0.00522133,-0.458931,0.00441558,0.0434579,685,1177,-21.0433,-0.877535
-532,-153,-21.259,1.04688,0.00380954,-0.00544622,-0.00282792,0.00460516,-0.00624185,-0.274256,0.00628624,0.0426164,692,1177,-21.259,-1.0469
-525,-153,-20.9785,0.987427,0.00822133,-0.008003,-0.00287587,0.00871602,-0.00849768,-0.170345,0.0099386,0.0411657,699,1177,-20.9785,-0.987427
-518,-153,0,0,0,0,0,0,0,0,0,-1,706,1177,0,0
-511,-153,0,0,0,0,0,0,0,0,0,-1,713,1177,0,0
-504,-153,0,0,0,0,0,0,0,0,0,-1,720,1177,0,0
-497,-153,0,0,0,0,0,0,0,0,0,-1,727,1177,0,0
-490,-153,0,0,0,0,0,0,0,0,0,-1,734,1177,0,0
-483,-153,0,0,0,0,0,0,0,0,0,-1,741,1177,0,0
-476,-153,0,0,0,0,0,0,0,0,0,-1,748,1177,0,0
-469,-153,0,0,0,0,0,0,0,0,0,-1,755,1177,0,0
-462,-153,0,0,0,0,0,0,0,0,0,-1,762,1177,0,0
-455,-153,0,0,0,0,0,0,0,0,0,-1,769,1177,0,0
-448,-153,0,0,0,0,0,0,0,0,0,-1,776,1177,0,0
-441,-153,0,0,0,0,0,0,0,0,0,-1,783,1177,0,0
-434,-153,0,0,0,0,0,0,0,0,0,-1,790,1177,0,0
-427,-153,0,0,0,0,0,0,0,0,0,-1,797,1177,0,0
-420,-153,0,0,0,0,0,0,0,0,0,-1,804,1177,0,0
-413,-153,0,0,0,0,0,0,0,0,0,-1,811,1177,0,0
-406,-153,0,0,0,0,0,0,0,0,0,-1,818,1177,0,0
-399,-153,0,0,0,0,0,0,0,0,0,-1,825,1177,0,0
-392,-153,0,0,0,0,0,0,0,0,0,-1,832,1177,0,0
-385,-153,0,0,0,0,0,0,0,0,0,-1,839,1177,0,0
-378,-153,0,0,0,0,0,0,0,0,0,-1,846,1177,0,0
-371,-153,0,0,0,0,0,0,0,0,0,-1,853,1177,0,0
-364,-153,0,0,0,0,0,0,0,0,0,-1,860,1177,0,0
-357,-153,0,0,0,0,0,0,0,0,0,-1,867,1177,0,0
-350,-153,0,0,0,0,0,0,0,0,0,-1,874,1177,0,0
-343,-153,0,0,0,0,0,0,0,0,0,-1,881,1177,0,0
-336,-153,0,0,0,0,0,0,0,0,0,-1,888,1177,0,0
-329,-153,0,0,0,0,0,0,0,0,0,-1,895,1177,0,0
-322,-153,0,0,0,0,0,0,0,0,0,-1,902,1177,0,0
-315,-153,0,0,0,0,0,0,0,0,0,-1,909,1177,0,0
-308,-153,0,0,0,0,0,0,0,0,0,-1,916,1177,0,0
-301,-153,0,0,0,0,0,0,0,0,0,-1,923,1177,0,0
-294,-153,0,0,0,0,0,0,0,0,0,-1,930,1177,0,0
-287,-153,0,0,0,0,0,0,0,0,0,-1,937,1177,0,0
-280,-153,0,0,0,0,0,0,0,0,0,-1,944,1177,0,0
-273,-153,0,0,0,0,0,0,0,0,0,-1,951,1177,0,0
-266,-153,0,0,0,0,0,0,0,0,0,-1,958,1177,0,0
-259,-153,0,0,0,0,0,0,0,0,0,-1,965,1177,0,0
-252,-153,0,0,0,0,0,0,0,0,0,-1,972,1177,0,0
-245,-153,0,0,0,0,0,0,0,0,0,-1,979,1177,0,0
-238,-153,0,0,0,0,0,0,0,0,0,-1,986,1177,0,0
-231,-153,0,0,0,0,0,0,0,0,0,-1,993,1177,0,0
-224,-153,0,0,0,0,0,0,0,0,0,-1,1000,1177,0,0
-217,-153,0,0,0,0,0,0,0,0,0,-1,1007,1177,0,0
-210,-153,0,0,0,0,0,0,0,0,0,-1,1014,1177,0,0
-203,-153,0,0,0,0,0,0,0,0,0,-1,1021,1177,0,0
-196,-153,0,0,0,0,0,0,0,0,0,-1,1028,1177,0,0
-189,-153,0,0,0,0,0,0,0,0,0,-1,1035,1177,0,0
-182,-153,0,0,0,0,0,0,0,0,0,-1,1042,1177,0,0
-175,-153,0,0,0,0,0,0,0,0,0,-1,1049,1177,0,0
-168,-153,0,0,0,0,0,0,0,0,0,-1,1056,1177,0,0
-161,-153,0,0,0,0,0,0,0,0,0,-1,1063,1177,0,0
-154,-153,0,0,0,0,0,0,0,0,0,-1,1070,1177,0,0
-147,-153,0,0,0,0,0,0,0,0,0,-1,1077,1177,0,0
-140,-153,0,0,0,0,0,0,0,0,0,-1,1084,1177,0,0
-133,-153,0,0,0,0,0,0,0,0,0,-1,1091,1177,0,0
-126,-153,0,0,0,0,0,0,0,0,0,-1,1098,1177,0,0
-119,-153,0,0,0,0,0,0,0,0,0,-1,1105,1177,0,0
-112,-153,0,0,0,0,0,0,0,0,0,-1,1112,1177,0,0
-105,-153,0,0,0,0,0,0,0,0,0,-1,1119,1177,0,0
-98,-153,0,0,0,0,0,0,0,0,0,-1,1126,1177,0,0
-91,-153,0,0,0,0,0,0,0,0,0,-1,1133,1177,0,0
-84,-153,0,0,0,0,0,0,0,0,0,-1,1140,1177,0,0
-77,-153,0,0,0,0,0,0,0,0,0,-1,1147,1177,0,0
-70,-153,0,0,0,0,0,0,0,0,0,-1,1154,1177,0,0
-63,-153,0,0,0,0,0,0,0,0,0,-1,1161,1177,0,0
-56,-153,0,0,0,0,0,0,0,0,0,-1,1168,1177,0,0
-49,-153,0,0,0,0,0,0,0,0,0,-1,1175,1177,0,0
-42,-153,0,0,0,0,0,0,0,0,0,-1,1182,1177,0,0
-35,-153,0,0,0,0,0,0,0,0,0,-1,1189,1177,0,0
-28,-153,0,0,0,0,0,0,0,0,0,-1,1196,1177,0,0
-21,-153,0,0,0,0,0,0,0,0,0,-1,1203,1177,0,0
-14,-153,0,0,0,0,0,0,0,0,0,-1,1210,1177,0,0
-7,-153,0,0,0,0,0,0,0,0,0,-1,1217,1177,0,0
0,-153,0,0,0,0,0,0,0,0,0,-1,1224,1177,0,0
7,-153,0,0,0,0,0,0,0,0,0,-1,1231,1177,0,0
14,-153,0,0,0,0,0,0,0,0,0,-1,1238,1177,0,0
21,-153,0,0,0,0,0,0,0,0,0,-1,1245,1177,0,0
28,-153,0,0,0,0,0,0,0,0,0,-1,1252,1177,0,0
35,-153,0,0,0,0,0,0,0,0,0,-1,1259,1177,0,0
42,-153,0,0,0,0,0,0,0,0,0,-1,1266,1177,0,0
49,-153,0,0,0,0,0,0,0,0,0,-1,1273,1177,0,0
56,-153,0,0,0,0,0,0,0,0,0,-1,1280,1177,0,0
63,-153,0,0,0,0,0,0,0,0,0,-1,1287,1177,0,0
70,-153,0,0,0,0,0,0,0,0,0,-1,1294,1177,0,0
77,-153,0,0,0,0,0,0,0,0,0,-1,1301,1177,0,0
84,-153,0,0,0,0,0,0,0,0,0,-1,1308,1177,0,0
91,-153,0,0,0,0,0,0,0,0,0,-1,1315,1177,0,0
98,-153,0,0,0,0,0,0,0,0,0,-1,1322,1177,0,0
105,-153,0,0,0,0,0,0,0,0,0,-1,1329,1177,0,0
112,-153,0,0,0,0,0,0,0,0,0,-1,1336,1177,0,0
119,-153,0,0,0,0,0,0,0,0,0,-1,1343,1177,0,0
126,-153,0,0,0,0,0,0,0,0,0,-1,1350,1177,0,0
133,-153,0,0,0,0,0,0,0,0,0,-1,1357,1177,0,0
140,-153,0,0,0,0,0,0,0,0,0,-1,1364,1177,0,0
147,-153,0,0,0,0,0,0,0,0,0,-1,1371,1177,0,0
154,-153,0,0,0,0,0,0,0,0,0,-1,1378,1177,0,0
161,-153,0,0,0,0,0,0,0,0,0,-1,1385,1177,0,0
168,-153,0,0,0,0,0,0,0,0,0,-1,1392,1177,0,0
175,-153,0,0,0,0,0,0,0,0,0,-1,1399,1177,0,0
182,-153,0,0,0,0,0,0,0,0,0,-1,1406,1177,0,0
189,-153,0,0,0,0,0,0,0,0,0,-1,1413,1177,0,0
196,-153,0,0,0,0,0,0,0,0,0,-1,1420,1177,0,0
203,-153,0,0,0,0,0,0,0,0,0,-1,1427,1177,0,0
210,-153,0,0,0,0,0,0,0,0,0,-1,1434,1177,0,0
217,-153,0,0,0,0,0,0,0,0,0,-1,1441,1177,0,0
224,-153,0,0,0,0,0,0,0,0,0,-1,1448,1177,0,0
231,-153,0,0,0,0,0,0,0,0,0,-1,1455,1177,0,0
238,-153,0,0,0,0,0,0,0,0,0,-1,1462,1177,0,0
245,-153,0,0,0,0,0,0,0,0,0,-1,1469,1177,0,0
252,-153,0,0,0,0,0,0,0,0,0,-1,1476,1177,0,0
259,-153,0,0,0,0,0,0,0,0,0,-1,1483,1177,0,0
266,-153,0,0,0,0,0,0,0,0,0,-1,1490,1177,0,0
273,-153,0,0,0,0,0,0,0,0,0,-1,1497,1177,0,0
280,-153,0,0,0,0,0,0,0,0,0,-1,1504,1177,0,0
287,-153,0,0,0,0,0,0,0,0,0,-1,1511,1177,0,0
294,-153,0,0,0,0,0,0,0,0,0,-1,1518,1177,0,0
301,-153,0,0,0,0,0,0,0,0,0,-1,1525,1177,0,0
308,-153,0,0,0,0,0,0,0,0,0,-1,1532,1177,0,0
315,-153,0,0,0,0,0,0,0,0,0,-1,1539,1177,0,0
322,-153,0,0,0,0,0,0,0,0,0,-1,1546,1177,0,0
329,-153,0,0,0,0,0,0,0,0,0,-1,1553,1177,0,0
336,-153,0,0,0,0,0,0,0,0,0,-1,1560,1177,0,0
343,-153,0,0,0,0,0,0,0,0,0,-1,1567,1177,0,0
350,-153,0,0,0,0,0,0,0,0,0,-1,1574,1177,0,0
357,-153,0,0,0,0,0,0,0,0,0,-1,1581,1177,0,0
364,-153,0,0,0,0,0,0,0,0,0,-1,1588,1177,0,0
371,-153,0,0,0,0,0,0,0,0,0,-1,1595,1177,0,0
378,-153,0,0,0,0,0,0,0,0,0,-1,1602,1177,0,0
385,-153,0,0,0,0,0,0,0,0,0,-1,1609,1177,0,0
392,-153,0,0,0,0,0,0,0,0,0,-1,1616,1177,0,0
399,-153,0,0,0,0,0,0,0,0,0,-1,1623,1177,0,0
406,-153,0,0,0,0,0,0,0,0,0,-1,1630,1177,0,0
413,-153,0,0,0,0,0,0,0,0,0,-1,1637,1177,0,0
420,-153,0,0,0,0,0,0,0,0,0,-1,1644,1177,0,0
427,-153,0,0,0,0,0,0,0,0,0,-1,1651,1177,0,0
434,-153,0,0,0,0,0,0,0,0,0,-1,1658,1177,0,0
441,-153,0,0,0,0,0,0,0,0,0,-1,1665,1177,0,0
448,-153,0,0,0,0,0,0,0,0,0,-1,1672,1177,0,0
455,-153,0,0,0,0,0,0,0,0,0,-1,1679,1177,0,0
462,-153,0,0,0,0,0,0,0,0,0,-1,1686,1177,0,0
469,-153,0,0,0,0,0,0,0,0,0,-1,1693,1177,0,0
476,-153,0,0,0,0,0,0,0,0,0,-1,1700,1177,0,0
483,-153,0,0,0,0,0,0,0,0,0,-1,1707,1177,0,0
490,-153,0,0,0,0,0,0,0,0,0,-1,1714,1177,0,0
497,-153,0,0,0,0,0,0,0,0,0,-1,1721,1177,0,0
504,-153,0,0,0,0,0,0,0,0,0,-1,1728,1177,0,0
511,-153,0,0,0,0,0,0,0,0,0,-1,1735,1177,0,0
518,-153,0,0,0,0,0,0,0,0,0,-1,1742,1177,0,0
525,-153,0,0,0,0,0,0,0,0,0,-1,1749,1177,0,0
532,-153,0,0,0,0,0,0,0,0,0,-1,1756,1177,0,0
539,-153,0,0,0,0,0,0,0,0,0,-1,1763,1177,0,0
546,-153,0,0,0,0,0,0,0,0,0,-1,1770,1177,0,0
553,-153,0,0,0,0,0,0,0,0,0,-1,1777,1177,0,0
560,-153,0,0,0,0,0,0,0,0,0,-1,1784,1177,0,0
567,-153,0,0,0,0,0,0,0,0,0,-1,1791,1177,0,0
574,-153,0,0,0,0,0,0,0,0,0,-1,1798,1177,0,0
581,-153,0,0,0,0,0,0,0,0,0,-1,1805,1177,0,0
588,-153,0,0,0,0,0,0,0,0,0,-1,1812,1177,0,0
595,-153,0,0,0,0,0,0,0,0,0,-1,1819,1177,0,0
602,-153,0,0,0,0,0,0,0,0,0,-1,1826,1177,0,0
609,-153,0,0,0,0,0,0,0,0,0,-1,1833,1177,0,0
616,-153,0,0,0,0,0,0,0,0,0,-1,1840,1177,0,0
623,-153,0,0,0,0,0,0,0,0,0,-1,1847,1177,0,0
630,-153,0,0,0,0,0,0,0,0,0,-1,1854,1177,0,0
637,-153,30.2871,2.71375,0.00282235,-0.000510261,-0.00256493,0.00421471,-0.00190262,-0.497334,0.00361495,0.038396,1861,1177,30.2871,-2.71372
644,-153,30.3511,2.72729,0.00195524,-0.000543578,-0.0017606,0.00286471,-0.00145304,-0.476812,0.00253688,0.0381008,1868,1177,30.3511,-2.72725
651,-153,30.3433,2.79712,0.00142102,-0.000287575,-0.00145262,0.00225193,-0.00111849,-0.519583,0.00198225,0.031496,1875,1177,30.3433,-2.79717
658,-153,30.265,2.73914,0.00110686,8.30791e-05,-0.00133275,0.00202264,-0.000832704,-0.602042,0.00169558,0.0364525,1882,1177,30.265,-2.73913
665,-153,30.1869,2.7533,0.000949532,0.00050244,-0.00136206,0.00210627,-0.000654294,-0.704062,0.00166568,0.0391414,1889,1177,30.1869,-2.75329
672,-153,30.2389,2.74695,0.000772537,0.000725367,-0.00142352,0.00217267,-0.000674764,-0.777115,0.00171812,0.0368666,1896,1177,30.2389,-2.7469
679,-153,30.2775,2.73889,0.00022615,0.000777503,-0.00131087,0.00184137,-0.000837722,-0.889038,0.00158254,0.027837,1903,1177,30.2775,-2.73895
686,-153,30.2749,2.79993,-0.00035818,0.000701601,-0.00112213,0.00141266,-0.00106924,-1.00599,0.0014375,0.017896,1910,1177,30.2749,-2.7999
693,-153,30.312,2.69238,-0.000825468,0.000722988,-0.000968786,0.00118891,-0.00129139,-1.12252,0.00143241,0.0293848,1917,1177,30.3121,-2.69239
700,-153,30.3435,2.48877,0,0,0,0,0,0,0,-1,1924,1177,30.3434,-2.48873
707,-153,27.1449,6.19922,0,0,0,0,0,0,0,-1,1931,1177,27.1449,-6.19916
714,-153,27.4453,5.66101,-0.00182665,0.000632343,-0.000361456,0.000684374,-0.00187868,-1.42783,0.0015324,0.0434325,1938,1177,27.4453,-5.66106
721,-153,27.4386,5.47449,-0.00177079,0.000656101,-0.000152971,0.000665705,-0.00178039,-1.5081,0.00146032,0.0330712,1945,1177,27.4386,-5.47444
728,-153,27.5709,5.24634,-0.00149227,0.000587666,2.29093e-05,0.000587918,-0.00149252,1.55978,0.00123841,0.0399956,1952,1177,27.571,-5.24629
735,-153,27.2338,5.18982,-0.000837415,0.000336678,0.000412245,0.000466966,-0.000967704,1.26468,0.000844957,0.0177347,1959,1177,27.2338,-5.1898
742,-153,27.2399,5.00647,0.000453516,0.000375136,0.000806884,0.00122216,-0.000393509,0.761132,0.000972844,0.0143471,1966,1177,27.2399,-5.00644
749,-153,27.2313,4.79639,0.00281603,0.000414348,0.00123531,0.00333798,-0.000107599,0.399772,0.00226204,0.0156217,1973,1177,27.2313,-4.79636
756,-153,27.2175,4.59534,0.00657958,0.00049839,0.00167711,0.00701144,6.65325e-05,0.252026,0.00465227,0.0112836,1980,1177,27.2175,-4.59531
763,-153,27.1932,4.40442,0.0113251,0.00028047,0.00205817,0.0116962,-9.06033e-05,0.178376,0.00782786,0.0112186,1987,1177,27.1932,-4.40447
770,-153,27.2076,4.20288,0.0168116,-1.54409e-06,0.00261541,0.017209,-0.000398996,0.150811,0.011608,0.0102293,1994,1177,27.2076,-4.20285
777,-153,27.2469,3.98157,0.0234448,-0.000515103,0.00331375,0.0238947,-0.000964961,0.13493,0.016261,0.0197374,2001,1177,27.2469,-3.98157
784,-153,27.3744,3.65222,0.0311476,-0.00145354,0.00436971,0.0317231,-0.00202907,0.130957,0.0218565,0.040083,2008,1177,27.3744,-3.65227
791,-153,28.6929,5.16626,0,0,0,0,0,0,0,-1,2015,1177,28.6928,-5.16622
798,-153,28.9597,4.85315,0.0499298,-0.00492381,0.00787478,0.0510379,-0.00603193,0.139799,0.0362038,0.0464417,2022,1177,28.9596,-4.8532
805,-153,29.4692,4.56873,0.0608727,-0.00761938,0.0104711,0.0624378,-0.00918444,0.148366,0.0450002,0.0458562,2029,1177,29.4693,-4.56868
812,-153,0,0,0,0,0,0,0,0,0,-1,2036,1177,0,0
-700,-160,0,0,0,0,0,0,0,0,0,-1,524,1184,0,0
-693,-160,0,0,0,0,0,0,0,0,0,-1,531,1184,0,0
-686,-160,-19.976,-1.33228,0,0,0,0,0,0,0,-1,538,1184,-19.976,1.33226
-679,-160,-19.6644,-0.956055,0,0,0,0,0,0,0,-1,545,1184,-19.6644,0.956027
-672,-160,-19.1129,-0.435059,0.0324985,-0.0145623,0.0240409,0.042608,-0.0246718,0.398064,0.0393015,0.0432045,552,1184,-19.1129,0.435008
-665,-160,-18.782,-0.371582,0,0,0,0,0,0,0,-1,559,1184,-18.782,0.371525
-658,-160,-18.6664,-0.218994,0,0,0,0,0,0,0,-1,566,1184,-18.6664,0.219044
-651,-160,-17.4042,1.09277,0,0,0,0,0,0,0,-1,573,1184,-17.4043,-1.09275
-644,-160,-17.4258,1.32202,0.0083656,-0.00535572,0.00593484,0.0105764,-0.00756649,0.356584,0.0105227,0.0405785,580,1184,-17.4258,-1.32202
-637,-160,-17.4653,1.55286,0.00512977,-0.00363622,0.00351672,0.00636621,-0.00487266,0.338088,0.00650783,0.0155146,587,1184,-17.4653,-1.5529
-630,-160,-17.5092,1.77771,0.00252693,-0.00203479,0.00178741,0.00314385,-0.00265171,0.332348,0.00335009,0.00861967,594,1184,-17.5092,-1.77777
-623,-160,-17.548,2.01746,0.000800763,-0.00124076,-0.00013419,0.000809546,-0.00124954,-0.0653554,0.00119783,0.0111108,601,1184,-17.548,-2.01743
-616,-160,-17.5509,2.27783,-0.000980252,-0.000741633,-0.00129032,0.000434877,-0.00215676,-0.8315,0.00160259,0.00991873,608,1184,-17.5509,-2.27789
-609,-160,-17.5369,2.55872,-0.00182112,-0.000172267,-0.00122599,0.00048071,-0.0024741,-1.0814,0.00183079,0.0129838,615,1184,-17.5369,-2.55873
-602,-160,-17.4921,2.87793,-0.00215608,-0.000320305,-0.0015834,0.000592014,-0.0030684,-1.04808,0.00226883,0.0263286,622,1184,-17.4921,-2.87798
-595,-160,-17.5164,3.16138,-0.002579,-0.000396878,-0.00194756,0.000744418,-0.00372029,-1.04073,0.00276198,0.035306,629,1184,-17.5164,-3.16135
-588,-160,-17.724,3.49048,0,0,0,0,0,0,0,-1,636,1184,-17.724,-3.49046
-581,-160,-17.5264,3.56128,0,0,0,0,0,0,0,-1,643,1184,-17.5264,-3.5613
-574,-160,-17.754,3.82483,0,0,0,0,0,0,0,-1,650,1184,-17.754,-3.82488
-567,-160,-21.0325,1.10901,0,0,0,0,0,0,0,-1,657,1184,-21.0325,-1.10902
-560,-160,-21.0383,1.13599,-0.00301144,-0.00192838,-0.00303682,0.000614815,-0.00555463,-0.873632,0.00392411,0.0395962,664,1184,-21.0384,-1.13602
-553,-160,-21.0409,1.14905,-0.00260133,-0.00226474,-0.00313477,0.000706252,-0.00557232,-0.812216,0.00397128,0.0365379,671,1184,-21.0409,-1.14909
-546,-160,-20.9167,0.932739,-0.00148896,-0.00278435,-0.00308773,0.00101828,-0.00529159,-0.682015,0.00391158,0.0390455,678,1184,-20.9167,-0.93276
-539,-160,-21.0547,0.666992,0.000307364,-0.00350249,-0.00286773,0.0018452,-0.00504033,-0.49223,0.00411556,0.0432421,685,1184,-21.0548,-0.667027
-532,-160,-21.2252,0.546997,0,0,0,0,0,0,0,-1,692,1184,-21.2252,-0.547002
-525,-160,-21.0624,1.21533,0.00817525,-0.00683936,-0.00211521,0.00846754,-0.00713165,-0.137317,0.0090172,0.042098,699,1184,-21.0624,-1.21531
-518,-160,-20.8141,0.903931,0.0118237,-0.00928739,-0.00280417,0.0121899,-0.00965352,-0.12983,0.0126396,0.0422396,706,1184,-20.8141,-0.903931
-511,-160,0,0,0,0,0,0,0,0,0,-1,713,1184,0,0
-504,-160,0,0,0,0,0,0,0,0,0,-1,720,1184,0,0
-497,-160,0,0,0,0,0,0,0,0,0,-1,727,1184,0,0
-490,-160,0,0,0,0,0,0,0,0,0,-1,734,1184,0,0
-483,-160,0,0,0,0,0,0,0,0,0,-1,741,1184,0,0
-476,-160,0,0,0,0,0,0,0,0,0,-1,748,1184,0,0
-469,-160,0,0,0,0,0,0,0,0,0,-1,755,1184,0,0
-462,-160,0,0,0,0,0,0,0,0,0,-1,762,1184,0,0
-455,-160,0,0,0,0,0,0,0,0,0,-1,769,1184,0,0
-448,-160,0,0,0,0,0,0,0,0,0,-1,776,1184,0,0
-441,-160,0,0,0,0,0,0,0,0,0,-1,783,1184,0,0
-434,-160,0,0,0,0,0,0,0,0,0,-1,790,1184,0,0
-427,-160,0,0,0,0,0,0,0,0,0,-1,797,1184,0,0
-420,-160,0,0,0,0,0,0,0,0,0,-1,804,1184,0,0
-413,-160,0,0,0,0,0,0,0,0,0,-1,811,1184,0,0
-406,-160,0,0,0,0,0,0,0,0,0,-1,818,1184,0,0
-399,-160,0,0,0,0,0,0,0,0,0,-1,825,1184,0,0
-392,-160,0,0,0,0,0,0,0,0,0,-1,832,1184,0,0
-385,-160,0,0,0,0,0,0,0,0,0,-1,839,1184,0,0
-378,-160,0,0,0,0,0,0,0,0,0,-1,846,1184,0,0
-371,-160,0,0,0,0,0,0,0,0,0,-1,853,1184,0,0
-364,-160,0,0,0,0,0,0,0,0,0,-1,860,1184,0,0
-357,-160,0,0,0,0,0,0,0,0,0,-1,867,1184,0,0
-350,-160,0,0,0,0,0,0,0,0,0,-1,874,1184,0,0
-343,-160,0,0,0,0,0,0,0,0,0,-1,881,1184,0,0
-336,-160,0,0,0,0,0,0,0,0,0,-1,888,1184,0,0
-329,-160,0,0,0,0,0,0,0,0,0,-1,895,1184,0,0
-322,-160,0,0,0,0,0,0,0,0,0,-1,902,1184,0,0
-315,-160,0,0,0,0,0,0,0,0,0,-1,909,1184,0,0
-308,-160,0,0,0,0,0,0,0,0,0,-1,916,1184,0,0
-301,-160,0,0,0,0,0,0,0,0,0,-1,923,1184,0,0
-294,-160,0,0,0,0,0,0,0,0,0,-1,930,1184,0,0
-287,-160,0,0,0,0,0,0,0,0,0,-1,937,1184,0,0
-280,-160,0,0,0,0,0,0,0,0,0,-1,944,1184,0,0
-273,-160,0,0,0,0,0,0,0,0,0,-1,951,1184,0,0
-266,-160,0,0,0,0,0,0,0,0,0,-1,958,1184,0,0
-259,-160,0,0,0,0,0,0,0,0,0,-1,965,1184,0,0
-252,-160,0,0,0,0,0,0,0,0,0,-1,972,1184,0,0
-245,-160,0,0,0,0,0,0,0,0,0,-1,979,1184,0,0
-238,-160,0,0,0,0,0,0,0,0,0,-1,986,1184,0,0
-231,-160,0,0,0,0,0,0,0,0,0,-1,993,1184,0,0
-224,-160,0,0,0,0,0,0,0,0,0,-1,1000,1184,0,0
-217,-160,0,0,0,0,0,0,0,0,0,-1,1007,1184,0,0
-210,-160,0,0,0,0,0,0,0,0,0,-1,1014,1184,0,0
-203,-160,0,0,0,0,0,0,0,0,0,-1,1021,1184,0,0
-196,-160,0,0,0,0,0,0,0,0,0,-1,1028,1184,0,0
-189,-160,0,0,0,0,0,0,0,0,0,-1,1035,1184,0,0
-182,-160,0,0,0,0,0,0,0,0,0,-1,1042,1184,0,0
-175,-160,0,0,0,0,0,0,0,0,0,-1,1049,1184,0,0
-168,-160,0,0,0,0,0,0,0,0,0,-1,1056,1184,0,0
-161,-160,0,0,0,0,0,0,0,0,0,-1,1063,1184,0,0
-154,-160,0,0,0,0,0,0,0,0,0,-1,1070,1184,0,0
-147,-160,0,0,0,0,0,0,0,0,0,-1,1077,1184,0,0
-140,-160,0,0,0,0,0,0,0,0,0,-1,1084,1184,0,0
-133,-160,0,0,0,0,0,0,0,0,0,-1,1091,1184,0,0
-126,-160,0,0,0,0,0,0,0,0,0,-1,1098,1184,0,0
-119,-160,0,0,0,0,0,0,0,0,0,-1,1105,1184,0,0
-112,-160,0,0,0,0,0,0,0,0,0,-1,1112,1184,0,0
-105,-160,0,0,0,0,0,0,0,0,0,-1,1119,1184,0,0
-98,-160,0,0,0,0,0,0,0,0,0,-1,1126,1184,0,0
-91,-160,0,0,0,0,0,0,0,0,0,-1,1133,1184,0,0
-84,-160,0,0,0,0,0,0,0,0,0,-1,1140,1184,0,0
-77,-160,0,0,0,0,0,0,0,0,0,-1,1147,1184,0,0
-70,-160,0,0,0,0,0,0,0,0,0,-1,1154,1184,0,0
-63,-160,0,0,0,0,0,0,0,0,0,-1,1161,1184,0,0
-56,-160,0,0,0,0,0,0,0,0,0,-1,1168,1184,0,0
-49,-160,0,0,0,0,0,0,0,0,0,-1,1175,1184,0,0
-42,-160,0,0,0,0,0,0,0,0,0,-1,1182,1184,0,0
-35,-160,0,0,0,0,0,0,0,0,0,-1,1189,1184,0,0
-28,-160,0,0,0,0,0,0,0,0,0,-1,1196,1184,0,0
-21,-160,0,0,0,0,0,0,0,0,0,-1,1203,1184,0,0
-14,-160,0,0,0,0,0,0,0,0,0,-1,1210,1184,0,0
-7,-160,0,0,0,0,0,0,0,0,0,-1,1217,1184,0,0
0,-160,0,0,0,0,0,0,0,0,0,-1,1224,1184,0,0
7,-160,0,0,0,0,0,0,0,0,0,-1,1231,1184,0,0
14,-160,0,0,0,0,0,0,0,0,0,-1,1238,1184,0,0
21,-160,0,0,0,0,0,0,0,0,0,-1,1245,1184,0,0
28,-160,0,0,0,0,0,0,0,0,0,-1,1252,1184,0,0
35,-160,0,0,0,0,0,0,0,0,0,-1,1259,1184,0,0
42,-160,0,0,0,0,0,0,0,0,0,-1,1266,1184,0,0
49,-160,0,0,0,0,0,0,0,0,0,-1,1273,1184,0,0
56,-160,0,0,0,0,0,0,0,0,0,-1,1280,1184,0,0
63,-160,0,0,0,0,0,0,0,0,0,-1,1287,1184,0,0
70,-160,0,0,0,0,0,0,0,0,0,-1,1294,1184,0,0
77,-160,0,0,0,0,0,0,0,0,0,-1,1301,1184,0,0
84,-160,0,0,0,0,0,0,0,0,0,-1,1308,1184,0,0
91,-160,0,0,0,0,0,0,0,0,0,-1,1315,1184,0,0
98,-160,0,0,0,0,0,0,0,0,0,-1,1322,1184,0,0
105,-160,0,0,0,0,0,0,0,0,0,-1,1329,1184,0,0
112,-160,0,0,0,0,0,0,0,0,0,-1,1336,1184,0,0
119,-160,0,0,0,0,0,0,0,0,0,-1,1343,1184,0,0
126,-160,0,0,0,0,0,0,0,0,0,-1,1350,1184,0,0
133,-160,0,0,0,0,0,0,0,0,0,-1,1357,1184,0,0
140,-160,0,0,0,0,0,0,0,0,0,-1,1364,1184,0,0
147,-160,0,0,0,0,0,0,0,0,0,-1,1371,1184,0,0
154,-160,0,0,0,0,0,0,0,0,0,-1,1378,1184,0,0
161,-160,0,0,0,0,0,0,0,0,0,-1,1385,1184,0,0
168,-160,0,0,0,0,0,0,0,0,0,-1,1392,1184,0,0
175,-160,0,0,0,0,0,0,0,0,0,-1,1399,1184,0,0
182,-160,0,0,0,0,0,0,0,0,0,-1,1406,1184,0,0
189,-160,0,0,0,0,0,0,0,0,0,-1,1413,1184,0,0
196,-160,0,0,0,0,0,0,0,0,0,-1,1420,1184,0,0
203,-160,0,0,0,0,0,0,0,0,0,-1,1427,1184,0,0
210,-160,0,0,0,0,0,0,0,0,0,-1,1434,1184,0,0
217,-160,0,0,0,0,0,0,0,0,0,-1,1441,1184,0,0
224,-160,0,0,0,0,0,0,0,0,0,-1,1448,1184,0,0
231,-160,0,0,0,0,0,0,0,0,0,-1,1455,1184,0,0
238,-160,0,0,0,0,0,0,0,0,0,-1,1462,1184,0,0
245,-160,0,0,0,0,0,0,0,0,0,-1,1469,1184,0,0
252,-160,0,0,0,0,0,0,0,0,0,-1,1476,1184,0,0
259,-160,0,0,0,0,0,0,0,0,0,-1,1483,1184,0,0
266,-160,0,0,0,0,0,0,0,0,0,-1,1490,1184,0,0
273,-160,0,0,0,0,0,0,0,0,0,-1,1497,1184,0,0
280,-160,0,0,0,0,0,0,0,0,0,-1,1504,1184,0,0
287,-160,0,0,0,0,0,0,0,0,0,-1,1511,1184,0,0
294,-160,0,0,0,0,0,0,0,0,0,-1,1518,1184,0,0
301,-160,0,0,0,0,0,0,0,0,0,-1,1525,1184,0,0
308,-160,0,0,0,0,0,0,0,0,0,-1,1532,1184,0,0
315,-160,0,0,0,0,0,0,0,0,0,-1,1539,1184,0,0
322,-160,0,0,0,0,0,0,0,0,0,-1,1546,1184,0,0
329,-160,0,0,0,0,0,0,0,0,0,-1,1553,1184,0,0
336,-160,0,0,0,0,0,0,0,0,0,-1,1560,1184,0,0
343,-160,0,0,0,0,0,0,0,0,0,-1,1567,1184,0,0
350,-160,0,0,0,0,0,0,0,0,0,-1,1574,1184,0,0
357,-160,0,0,0,0,0,0,0,0,0,-1,1581,1184,0,0
364,-160,0,0,0,0,0,0,0,0,0,-1,1588,1184,0,0
371,-160,0,0,0,0,0,0,0,0,0,-1,1595,1184,0,0
378,-160,0,0,0,0,0,0,0,0,0,-1,1602,1184,0,0
385,-160,0,0,0,0,0,0,0,0,0,-1,1609,1184,0,0
392,-160,0,0,0,0,0,0,0,0,0,-1,1616,1184,0,0
399,-160,0,0,0,0,0,0,0,0,0,-1,1623,1184,0,0
406,-160,0,0,0,0,0,0,0,0,0,-1,1630,1184,0,0
413,-160,0,0,0,0,0,0,0,0,0,-1,1637,1184,0,0
420,-160,0,0,0,0,0,0,0,0,0,-1,1644,1184,0,0
427,-160,0,0,0,0,0,0,0,0,0,-1,1651,1184,0,0
434,-160,0,0,0,0,0,0,0,0,0,-1,1658,1184,0,0
441,-160,0,0,0,0,0,0,0,0,0,-1,1665,1184,0,0
448,-160,0,0,0,0,0,0,0,0,0,-1,1672,1184,0,0
455,-160,0,0,0,0,0,0,0,0,0,-1,1679,1184,0,0
462,-160,0,0,0,0,0,0,0,0,0,-1,1686,1184,0,0
469,-160,0,0,0,0,0,0,0,0,0,-1,1693,1184,0,0
476,-160,0,0,0,0,0,0,0,0,0,-1,1700,1184,0,0
483,-160,0,0,0,0,0,0,0,0,0,-1,1707,1184,0,0
490,-160,0,0,0,0,0,0,0,0,0,-1,1714,1184,0,0
497,-160,0,0,0,0,0,0,0,0,0,-1,1721,1184,0,0
504,-160,0,0,0,0,0,0,0,0,0,-1,1728,1184,0,0
511,-160,0,0,0,0,0,0,0,0,0,-1,1735,1184,0,0
518,-160,0,0,0,0,0,0,0,0,0,-1,1742,1184,0,0
525,-160,0,0,0,0,0,0,0,0,0,-1,1749,1184,0,0
532,-160,0,0,0,0,0,0,0,0,0,-1,1756,1184,0,0
539,-160,0,0,0,0,0,0,0,0,0,-1,1763,1184,0,0
546,-160,0,0,0,0,0,0,0,0,0,-1,1770,1184,0,0
553,-160,0,0,0,0,0,0,0,0,0,-1,1777,1184,0,0
560,-160,0,0,0,0,0,0,0,0,0,-1,1784,1184,0,0
567,-160,0,0,0,0,0,0,0,0,0,-1,1791,1184,0,0
574,-160,0,0,0,0,0,0,0,0,0,-1,1798,1184,0,0
581,-160,0,0,0,0,0,0,0,0,0,-1,1805,1184,0,0
588,-160,0,0,0,0,0,0,0,0,0,-1,1812,1184,0,0
595,-160,0,0,0,0,0,0,0,0,0,-1,1819,1184,0,0
602,-160,0,0,0,0,0,0,0,0,0,-1,1826,1184,0,0
609,-160,0,0,0,0,0,0,0,0,0,-1,1833,1184,0,0
616,-160,0,0,0,0,0,0,0,0,0,-1,1840,1184,0,0
623,-160,0,0,0,0,0,0,0,0,0,-1,1847,1184,0,0
630,-160,0,0,0,0,0,0,0,0,0,-1,1854,1184,0,0
637,-160,30.1458,2.92212,0.00269248,0.00029812,-0.00198912,0.00381691,-0.000826306,-0.514504,0.00286011,0.0406227,1861,1184,30.1457,-2.92216
644,-160,30.3258,2.85181,0.00205011,0.000183778,-0.0014488,0.00284026,-0.000606373,-0.499291,0.00212467,0.0403331,1868,1184,30.3258,-2.85183
651,-160,30.3535,2.69995,0.00162559,0.000334082,-0.00131298,0.00244302,-0.000483349,-0.556855,0.00181142,0.038223,1875,1184,30.3536,-2.6999
658,-160,30.3187,2.77173,0.00136998,0.000548312,-0.00133304,0.00235405,-0.000435765,-0.63592,0.00173298,0.0408331,1882,1184,30.3187,-2.77167
665,-160,30.3496,2.61926,0.00123065,0.000821191,-0.00144284,0.00248322,-0.000431376,-0.714922,0.00181643,0.0386515,1889,1184,30.3496,-2.61921
672,-160,30.252,2.61682,0.000999939,0.000889255,-0.00148482,0.00243044,-0.00054125,-0.766771,0.00182763,0.0340225,1896,1184,30.2519,-2.61677
679,-160,30.2639,2.74207,0.000378791,0.000829639,-0.00131327,0.00193669,-0.000728262,-0.870395,0.00159047,0.0251877,1903,1184,30.2639,-2.74207
686,-160,30.3016,2.78772,-0.000236712,0.000663561,-0.00108382,0.00138701,-0.000960159,-0.982221,0.00136259,0.0160949,1910,1184,30.3016,-2.78778
693,-160,30.3339,2.70691,-0.000739699,0.0006387,-0.000891719,0.00107651,-0.00117751,-1.11439,0.0013018,0.0443174,1917,1184,30.3339,-2.70687
700,-160,30.3704,2.60315,0,0,0,0,0,0,0,-1,1924,1184,30.3703,-2.60315
707,-160,24.5115,6.27405,0,0,0,0,0,0,0,-1,1931,1184,24.5115,-6.27401
714,-160,27.0908,5.64343,0,0,0,0,0,0,0,-1,1938,1184,27.0908,-5.64345
721,-160,27.2751,5.4137,-0.00179268,0.000510021,-8.68127e-06,0.000510054,-0.00179272,-1.56703,0.00139656,0.0260997,1945,1184,27.2751,-5.41373
728,-160,27.2772,5.30493,-0.00143459,0.000420917,0.000220358,0.000446727,-0.0014604,1.4542,0.00115176,0.0237578,1952,1184,27.2773,-5.30487
735,-160,27.0615,5.16675,-0.000634893,0.000163274,0.000601115,0.000485722,-0.00095734,1.07844,0.000847854,0.0139906,1959,1184,27.0615,-5.16673
742,-160,27.0363,4.9574,0.000985227,0.000187952,0.000936628,0.00160452,-0.000431342,0.584205,0.00123875,0.0157033,1966,1184,27.0362,-4.95737
749,-160,27.0371,4.74988,0.00384889,0.000348375,0.00132239,0.00429228,-9.502e-05,0.323519,0.00289371,0.0169666,1973,1184,27.0371,-4.74984
756,-160,27.0189,4.57642,0.00813485,0.000638468,0.00178054,0.00853627,0.00023705,0.22174,0.0056135,0.0110711,1980,1184,27.0189,-4.57638
763,-160,27.0056,4.39355,0.0133732,0.000791715,0.00219783,0.0137461,0.000418835,0.168058,0.00902771,0.0116487,1987,1184,27.0056,-4.39352
770,-160,26.9927,4.14771,0.0195045,0.000967544,0.00283582,0.0199286,0.000543418,0.14846,0.0131084,0.0189336,1994,1184,26.9926,-4.14775
777,-160,27.088,3.91382,0.0268764,0.00116467,0.0037121,0.0274016,0.000639465,0.140551,0.0180583,0.0311767,2001,1184,27.088,-3.91384
784,-160,27.4728,3.57703,0.0352428,0.00131937,0.00509034,0.0359902,0.000572011,0.145778,0.0238051,0.041885,2008,1184,27.4727,-3.57706
791,-160,27.6393,3.09558,0,0,0,0,0,0,0,-1,2015,1184,27.6393,-3.09561
798,-160,28.6553,4.60388,0.0547612,0.00186712,0.00968542,0.0564789,0.000149406,0.175525,0.0376029,0.0444468,2022,1184,28.6552,-4.60384
805,-160,29.1123,4.34277,0.0652639,0.00247977,0.0131399,0.0679029,-0.000159293,0.198207,0.0453218,0.0455542,2029,1184,29.1122,-4.34273
812,-160,0,0,0,0,0,0,0,0,0,-1,2036,1184,0,0
-700,-167,0,0,0,0,0,0,0,0,0,-1,524,1191,0,0
-693,-167,0,0,0,0,0,0,0,0,0,-1,531,1191,0,0
-686,-167,-19.6166,-1.14575,0,0,0,0,0,0,0,-1,538,1191,-19.6166,1.14574
-679,-167,-19.4388,-0.687012,0.0403433,-0.020692,0.0295496,0.0523051,-0.0326538,0.384642,0.0494865,0.0454265,545,1191,-19.4389,0.686961
-672,-167,-19.2946,-0.233887,0.0310207,-0.0181227,0.0231333,0.0401969,-0.0272989,0.377627,0.0392051,0.0453567,552,1191,-19.2946,0.233839
-665,-167,-19.1673,0.224609,0,0,0,0,0,0,0,-1,559,1191,-19.1673,-0.224553
-658,-167,-17.9276,1.00183,0,0,0,0,0,0,0,-1,566,1191,-17.9276,-1.00177
-651,-167,-17.2234,1.11853,0,0,0,0,0,0,0,-1,573,1191,-17.2234,-1.11854
-644,-167,-17.1934,1.34644,0.00719158,-0.00708527,0.00593776,0.00933832,-0.009232,0.346917,0.0107216,0.0406864,580,1191,-17.1934,-1.34649
-637,-167,-17.1918,1.54224,0.0041043,-0.0049308,0.00354972,0.00533208,-0.00615857,0.332999,0.00663985,0.0170667,587,1191,-17.1918,-1.54223
-630,-167,-17.2509,1.75928,0.00169181,-0.00299673,0.00181966,0.00231516,-0.00362008,0.330035,0.00345421,0.00896012,594,1191,-17.2509,-1.7593
-623,-167,-17.2814,1.99817,4.90236e-06,-0.00183417,-1.21157e-05,4.98217e-06,-0.00183425,-0.00658757,0.0012245,0.010731,601,1191,-17.2814,-1.99823
-616,-167,-17.2908,2.27283,-0.0017604,-0.000998914,-0.00122561,-9.62723e-05,-0.00266305,-0.936001,0.00174416,0.0141675,608,1191,-17.2908,-2.27281
-609,-167,-17.2889,2.55115,-0.00263045,-0.000224927,-0.00143561,0.000445171,-0.00330055,-1.13408,0.00236278,0.0141383,615,1191,-17.2889,-2.55111
-602,-167,-17.2914,2.78955,-0.00306357,-0.000306958,-0.00186581,0.00063443,-0.00400496,-1.10352,0.00290464,0.0152762,622,1191,-17.2914,-2.78951
-595,-167,-17.2792,3.02441,-0.0035932,-0.000375397,-0.00231257,0.000832889,-0.00480148,-1.08932,0.0035117,0.024724,629,1191,-17.2792,-3.02447
-588,-167,-17.321,3.28198,-0.00410171,-0.000469558,-0.0027127,0.000978856,-0.00555012,-1.08037,0.00406583,0.0259595,636,1191,-17.321,-3.28199
-581,-167,-17.3416,3.42029,0,0,0,0,0,0,0,-1,643,1191,-17.3416,-3.42024
-574,-167,-17.4166,2.1499,0,0,0,0,0,0,0,-1,650,1191,-17.4165,-2.14991
-567,-167,-19.287,1.56592,-0.00409668,-0.00162278,-0.00321228,0.000582475,-0.00630194,-0.969183,0.00440829,0.0483544,657,1191,-19.2871,-1.56588
-560,-167,-20.9528,1.07202,-0.0039544,-0.00199615,-0.00339453,0.000557642,-0.0065082,-0.925808,0.00453612,0.0454221,664,1191,-20.9528,-1.07207
-553,-167,-20.9586,1.01221,-0.00347967,-0.0023442,-0.00341857,0.000553459,-0.00637733,-0.867684,0.00444753,0.0374232,671,1191,-20.9586,-1.01223
-546,-167,-20.9515,0.96582,-0.00230873,-0.00284056,-0.00325014,0.000686353,-0.00583565,-0.744581,0.00413823,0.0350354,678,1191,-20.9515,-0.965865
-539,-167,-20.8869,0.834961,-0.000472043,-0.00343909,-0.00284976,0.00125722,-0.00516836,-0.545411,0.00393222,0.0379564,685,1191,-20.8869,-0.834984
-532,-167,-20.8713,0.907715,0.00257803,-0.00440771,-0.00216451,0.00319433,-0.005024,-0.277388,0.00478389,0.0433165,692,1191,-20.8713,-0.907721
-525,-167,-20.9177,1.17676,0.00728176,-0.00603955,-0.00134129,0.00741547,-0.00617326,-0.0993586,0.00785638,0.046056,699,1191,-20.9177,-1.17671
-518,-167,-20.9344,1.12451,0.0112336,-0.00812414,-0.00144771,0.0113413,-0.00823181,-0.0742365,0.011348,0.044712,706,1191,-20.9344,-1.12449
-511,-167,0,0,0,0,0,0,0,0,0,-1,713,1191,0,0
-504,-167,0,0,0,0,0,0,0,0,0,-1,720,1191,0,0
-497,-167,0,0,0,0,0,0,0,0,0,-1,727,1191,0,0
-490,-167,0,0,0,0,0,0,0,0,0,-1,734,1191,0,0
-483,-167,0,0,0,0,0,0,0,0,0,-1,741,1191,0,0
-476,-167,0,0,0,0,0,0,0,0,0,-1,748,1191,0,0
-469,-167,0,0,0,0,0,0,0,0,0,-1,755,1191,0,0
-462,-167,0,0,0,0,0,0,0,0,0,-1,762,1191,0,0
-455,-167,0,0,0,0,0,0,0,0,0,-1,769,1191,0,0
-448,-167,0,0,0,0,0,0,0,0,0,-1,776,1191,0,0
-441,-167,0,0,0,0,0,0,0,0,0,-1,783,1191,0,0
-434,-167,0,0,0,0,0,0,0,0,0,-1,790,1191,0,0
-427,-167,0,0,0,0,0,0,0,0,0,-1,797,1191,0,0
-420,-167,0,0,0,0,0,0,0,0,0,-1,804,1191,0,0
-413,-167,0,0,0,0,0,0,0,0,0,-1,811,1191,0,0
-406,-167,0,0,0,0,0,0,0,0,0,-1,818,1191,0,0
-399,-167,0,0,0,0,0,0,0,0,0,-1,825,1191,0,0
-392,-167,0,0,0,0,0,0,0,0,0,-1,832,1191,0,0
-385,-167,0,0,0,0,0,0,0,0,0,-1,839,1191,0,0
-378,-167,0,0,0,0,0,0,0,0,0,-1,846,1191,0,0
-371,-167,0,0,0,0,0,0,0,0,0,-1,853,1191,0,0
-364,-167,0,0,0,0,0,0,0,0,0,-1,860,1191,0,0
-357,-167,0,0,0,0,0,0,0,0,0,-1,867,1191,0,0
-350,-167,0,0,0,0,0,0,0,0,0,-1,874,1191,0,0
-343,-167,0,0,0,0,0,0,0,0,0,-1,881,1191,0,0
-336,-167,0,0,0,0,0,0,0,0,0,-1,888,1191,0,0
-329,-167,0,0,0,0,0,0,0,0,0,-1,895,1191,0,0
-322,-167,0,0,0,0,0,0,0,0,0,-1,902,1191,0,0
-315,-167,0,0,0,0,0,0,0,0,0,-1,909,1191,0,0
-308,-167,0,0,0,0,0,0,0,0,0,-1,916,1191,0,0
-301,-167,0,0,0,0,0,0,0,0,0,-1,923,1191,0,0
-294,-167,0,0,0,0,0,0,0,0,0,-1,930,1191,0,0
-287,-167,0,0,0,0,0,0,0,0,0,-1,937,1191,0,0
-280,-167,0,0,0,0,0,0,0,0,0,-1,944,1191,0,0
-273,-167,0,0,0,0,0,0,0,0,0,-1,951,1191,0,0
-266,-167,0,0,0,0,0,0,0,0,0,-1,958,1191,0,0
-259,-167,0,0,0,0,0,0,0,0,0,-1,965,1191,0,0
-252,-167,0,0,0,0,0,0,0,0,0,-1,972,1191,0,0
-245,-167,0,0,0,0,0,0,0,0,0,-1,979,1191,0,0
-238,-167,0,0,0,0,0,0,0,0,0,-1,986,1191,0,0
-231,-167,0,0,0,0,0,0,0,0,0,-1,993,1191,0,0
-224,-167,0,0,0,0,0,0,0,0,0,-1,1000,1191,0,0
-217,-167,0,0,0,0,0,0,0,0,0,-1,1007,1191,0,0
-210,-167,0,0,0,0,0,0,0,0,0,-1,1014,1191,0,0
-203,-167,0,0,0,0,0,0,0,0,0,-1,1021,1191,0,0
-196,-167,0,0,0,0,0,0,0,0,0,-1,1028,1191,0,0
-189,-167,0,0,0,0,0,0,0,0,0,-1,1035,1191,0,0
-182,-167,0,0,0,0,0,0,0,0,0,-1,1042,1191,0,0
-175,-167,0,0,0,0,0,0,0,0,0,-1,1049,1191,0,0
-168,-167,0,0,0,0,0,0,0,0,0,-1,1056,1191,0,0
-161,-167,0,0,0,0,0,0,0,0,0,-1,1063,1191,0,0
-154,-167,0,0,0,0,0,0,0,0,0,-1,1070,1191,0,0
-147,-167,0,0,0,0,0,0,0,0,0,-1,1077,1191,0,0
-140,-167,0,0,0,0,0,0,0,0,0,-1,1084,1191,0,0
-133,-167,0,0,0,0,0,0,0,0,0,-1,1091,1191,0,0
-126,-167,0,0,0,0,0,0,0,0,0,-1,1098,1191,0,0
-119,-167,0,0,0,0,0,0,0,0,0,-1,1105,1191,0,0
-112,-167,0,0,0,0,0,0,0,0,0,-1,1112,1191,0,0
-105,-167,0,0,0,0,0,0,0,0,0,-1,1119,1191,0,0
-98,-167,0,0,0,0,0,0,0,0,0,-1,1126,1191,0,0
-91,-167,0,0,0,0,0,0,0,0,0,-1,1133,1191,0,0
-84,-167,0,0,0,0,0,0,0,0,0,-1,1140,1191,0,0
-77,-167,0,0,0,0,0,0,0,0,0,-1,1147,1191,0,0
-70,-167,0,0,0,0,0,0,0,0,0,-1,1154,1191,0,0
-63,-167,0,0,0,0,0,0,0,0,0,-1,1161,1191,0,0
-56,-167,0,0,0,0,0,0,0,0,0,-1,1168,1191,0,0
-49,-167,0,0,0,0,0,0,0,0,0,-1,1175,1191,0,0
-42,-167,0,0,0,0,0,0,0,0,0,-1,1182,1191,0,0
-35,-167,0,0,0,0,0,0,0,0,0,-1,1189,1191,0,0
-28,-167,0,0,0,0,0,0,0,0,0,-1,1196,1191,0,0
-21,-167,0,0,0,0,0,0,0,0,0,-1,1203,1191,0,0
-14,-167,0,0,0,0,0,0,0,0,0,-1,1210,1191,0,0
-7,-167,0,0,0,0,0,0,0,0,0,-1,1217,1191,0,0
0,-167,0,0,0,0,0,0,0,0,0,-1,1224,1191,0,0
7,-167,0,0,0,0,0,0,0,0,0,-1,1231,1191,0,0
14,-167,0,0,0,0,0,0,0,0,0,-1,1238,1191,0,0
21,-167,0,0,0,0,0,0,0,0,0,-1,1245,1191,0,0
28,-167,0,0,0,0,0,0,0,0,0,-1,1252,1191,0,0
35,-167,0,0,0,0,0,0,0,0,0,-1,1259,1191,0,0
42,-167,0,0,0,0,0,0,0,0,0,-1,1266,1191,0,0
49,-167,0,0,0,0,0,0,0,0,0,-1,1273,1191,0,0
56,-167,0,0,0,0,0,0,0,0,0,-1,1280,1191,0,0
63,-167,0,0,0,0,0,0,0,0,0,-1,1287,1191,0,0
70,-167,0,0,0,0,0,0,0,0,0,-1,1294,1191,0,0
77,-167,0,0,0,0,0,0,0,0,0,-1,1301,1191,0,0
84,-167,0,0,0,0,0,0,0,0,0,-1,1308,1191,0,0
91,-167,0,0,0,0,0,0,0,0,0,-1,1315,1191,0,0
98,-167,0,0,0,0,0,0,0,0,0,-1,1322,1191,0,0
105,-167,0,0,0,0,0,0,0,0,0,-1,1329,1191,0,0
112,-167,0,0,0,0,0,0,0,0,0,-1,1336,1191,0,0
119,-167,0,0,0,0,0,0,0,0,0,-1,1343,1191,0,0
126,-167,0,0,0,0,0,0,0,0,0,-1,1350,1191,0,0
133,-167,0,0,0,0,0,0,0,0,0,-1,1357,1191,0,0
140,-167,0,0,0,0,0,0,0,0,0,-1,1364,1191,0,0
147,-167,0,0,0,0,0,0,0,0,0,-1,1371,1191,0,0
154,-167,0,0,0,0,0,0,0,0,0,-1,1378,1191,0,0
161,-167,0,0,0,0,0,0,0,0,0,-1,1385,1191,0,0
168,-167,0,0,0,0,0,0,0,0,0,-1,1392,1191,0,0
175,-167,0,0,0,0,0,0,0,0,0,-1,1399,1191,0,0
182,-167,0,0,0,0,0,0,0,0,0,-1,1406,1191,0,0
189,-167,0,0,0,0,0,0,0,0,0,-1,1413,1191,0,0
196,-167,0,0,0,0,0,0,0,0,0,-1,1420,1191,0,0
203,-167,0,0,0,0,0,0,0,0,0,-1,1427,1191,0,0
210,-167,0,0,0,0,0,0,0,0,0,-1,1434,1191,0,0
217,-167,0,0,0,0,0,0,0,0,0,-1,1441,1191,0,0
224,-167,0,0,0,0,0,0,0,0,0,-1,1448,1191,0,0
231,-167,0,0,0,0,0,0,0,0,0,-1,1455,1191,0,0
238,-167,0,0,0,0,0,0,0,0,0,-1,1462,1191,0,0
245,-167,0,0,0,0,0,0,0,0,0,-1,1469,1191,0,0
252,-167,0,0,0,0,0,0,0,0,0,-1,1476,1191,0,0
259,-167,0,0,0,0,0,0,0,0,0,-1,1483,1191,0,0
266,-167,0,0,0,0,0,0,0,0,0,-1,1490,1191,0,0
273,-167,0,0,0,0,0,0,0,0,0,-1,1497,1191,0,0
280,-167,0,0,0,0,0,0,0,0,0,-1,1504,1191,0,0
287,-167,0,0,0,0,0,0,0,0,0,-1,1511,1191,0,0
294,-167,0,0,0,0,0,0,0,0,0,-1,1518,1191,0,0
301,-167,0,0,0,0,0,0,0,0,0,-1,1525,1191,0,0
308,-167,0,0,0,0,0,0,0,0,0,-1,1532,1191,0,0
315,-167,0,0,0,0,0,0,0,0,0,-1,1539,1191,0,0
322,-167,0,0,0,0,0,0,0,0,0,-1,1546,1191,0,0
329,-167,0,0,0,0,0,0,0,0,0,-1,1553,1191,0,0
336,-167,0,0,0,0,0,0,0,0,0,-1,1560,1191,0,0
343,-167,0,0,0,0,0,0,0,0,0,-1,1567,1191,0,0
350,-167,0,0,0,0,0,0,0,0,0,-1,1574,1191,0,0
357,-167,0,0,0,0,0,0,0,0,0,-1,1581,1191,0,0
364,-167,0,0,0,0,0,0,0,0,0,-1,1588,1191,0,0
371,-167,0,0,0,0,0,0,0,0,0,-1,1595,1191,0,0
378,-167,0,0,0,0,0,0,0,0,0,-1,1602,1191,0,0
385,-167,0,0,0,0,0,0,0,0,0,-1,1609,1191,0,0
392,-167,0,0,0,0,0,0,0,0,0,-1,1616,1191,0,0
399,-167,0,0,0,0,0,0,0,0,0,-1,1623,1191,0,0
406,-167,0,0,0,0,0,0,0,0,0,-1,1630,1191,0,0
413,-167,0,0,0,0,0,0,0,0,0,-1,1637,1191,0,0
420,-167,0,0,0,0,0,0,0,0,0,-1,1644,1191,0,0
427,-167,0,0,0,0,0,0,0,0,0,-1,1651,1191,0,0
434,-167,0,0,0,0,0,0,0,0,0,-1,1658,1191,0,0
441,-167,0,0,0,0,0,0,0,0,0,-1,1665,1191,0,0
448,-167,0,0,0,0,0,0,0,0,0,-1,1672,1191,0,0
455,-167,0,0,0,0,0,0,0,0,0,-1,1679,1191,0,0
462,-167,0,0,0,0,0,0,0,0,0,-1,1686,1191,0,0
469,-167,0,0,0,0,0,0,0,0,0,-1,1693,1191,0,0
476,-167,0,0,0,0,0,0,0,0,0,-1,1700,1191,0,0
483,-167,0,0,0,0,0,0,0,0,0,-1,1707,1191,0,0
490,-167,0,0,0,0,0,0,0,0,0,-1,1714,1191,0,0
497,-167,0,0,0,0,0,0,0,0,0,-1,1721,1191,0,0
504,-167,0,0,0,0,0,0,0,0,0,-1,1728,1191,0,0
511,-167,0,0,0,0,0,0,0,0,0,-1,1735,1191,0,0
518,-167,0,0,0,0,0,0,0,0,0,-1,1742,1191,0,0
525,-167,0,0,0,0,0,0,0,0,0,-1,1749,1191,0,0
532,-167,0,0,0,0,0,0,0,0,0,-1,1756,1191,0,0
539,-167,0,0,0,0,0,0,0,0,0,-1,1763,1191,0,0
546,-167,0,0,0,0,0,0,0,0,0,-1,1770,1191,0,0
553,-167,0,0,0,0,0,0,0,0,0,-1,1777,1191,0,0
560,-167,0,0,0,0,0,0,0,0,0,-1,1784,1191,0,0
567,-167,0,0,0,0,0,0,0,0,0,-1,1791,1191,0,0
574,-167,0,0,0,0,0,0,0,0,0,-1,1798,1191,0,0
581,-167,0,0,0,0,0,0,0,0,0,-1,1805,1191,0,0
588,-167,0,0,0,0,0,0,0,0,0,-1,1812,1191,0,0
595,-167,0,0,0,0,0,0,0,0,0,-1,1819,1191,0,0
602,-167,0,0,0,0,0,0,0,0,0,-1,1826,1191,0,0
609,-167,0,0,0,0,0,0,0,0,0,-1,1833,1191,0,0
616,-167,0,0,0,0,0,0,0,0,0,-1,1840,1191,0,0
623,-167,0,0,0,0,0,0,0,0,0,-1,1847,1191,0,0
630,-167,0,0,0,0,0,0,0,0,0,-1,1854,1191,0,0
637,-167,30.0801,3.01221,0.00249579,0.000925246,-0.00170455,0.00358726,-0.000166218,-0.569543,0.00244879,0.0423146,1861,1191,30.0801,-3.01225
644,-167,30.2058,2.78894,0.00206175,0.000628654,-0.00135099,0.00287445,-0.000184049,-0.541568,0.0019805,0.0433787,1868,1191,30.2058,-2.78896
651,-167,30.2366,2.66809,0.00176413,0.00050862,-0.00130475,0.00258429,-0.000311538,-0.561179,0.00183554,0.0410364,1875,1191,30.2365,-2.66809
658,-167,30.353,2.87317,0.00158128,0.000431683,-0.00137391,0.00249579,-0.00048282,-0.587278,0.00184597,0.043076,1882,1191,30.353,-2.87317
665,-167,30.4458,2.76563,0.00146344,0.00050935,-0.00149208,0.00255288,-0.000580091,-0.630674,0.00192465,0.0391391,1889,1191,30.4458,-2.76558
672,-167,30.316,2.72546,0.00118006,0.00045099,-0.00148025,0.00234001,-0.000708951,-0.664667,0.00184236,0.0286263,1896,1191,30.3161,-2.72552
679,-167,30.2732,2.78821,0.000508409,0.00036171,-0.00125663,0.00169382,-0.000823705,-0.756246,0.00148215,0.0217236,1903,1191,30.2732,-2.78825
686,-167,30.2865,2.77319,-0.000114581,0.000200013,-0.00100046,0.00105547,-0.000970034,-0.863372,0.00116977,0.0293041,1910,1191,30.2865,-2.77321
693,-167,30.2853,2.7522,0,0,0,0,0,0,0,-1,1917,1191,30.2853,-2.7522
700,-167,28.0459,2.70508,0,0,0,0,0,0,0,-1,1924,1191,28.0459,-2.70513
707,-167,26.8877,6.60828,0,0,0,0,0,0,0,-1,1931,1191,26.8877,-6.60825
714,-167,27.0757,5.93384,-0.00180329,0.000216764,-0.000151344,0.00022804,-0.00181456,-1.49643,0.00129245,0.0414353,1938,1191,27.0757,-5.93387
721,-167,27.1951,5.46924,-0.00181418,0.000246156,0.000168654,0.00025987,-0.00182789,1.48966,0.00131382,0.0350346,1945,1191,27.1951,-5.46926
728,-167,26.9994,5.38049,-0.00140623,0.000293573,0.000439341,0.000400412,-0.00151307,1.33225,0.00116534,0.02559,1952,1191,26.9994,-5.38048
735,-167,26.8103,5.22107,-0.000448473,3.83875e-05,0.000807264,0.000638126,-0.00104821,0.931837,0.000983156,0.0140831,1959,1191,26.8103,-5.2211
742,-167,26.7964,4.9873,0.0015523,2.4986e-05,0.00111731,0.00214199,-0.000564706,0.485623,0.00164878,0.0158228,1966,1191,26.7963,-4.98728
749,-167,26.7944,4.77161,0.00492367,0.000253606,0.0014879,0.00535743,-0.000180156,0.283665,0.00363316,0.0143853,1973,1191,26.7945,-4.77159
756,-167,26.8044,4.58594,0.00967501,0.00063636,0.00199606,0.0100962,0.000215183,0.207953,0.00666022,0.0105262,1980,1191,26.8044,-4.58591
763,-167,26.7847,4.38196,0.0153839,0.000987157,0.00250088,0.0158059,0.000565096,0.167189,0.0103541,0.0112265,1987,1191,26.7846,-4.38194
770,-167,26.7317,4.22119,0.0222093,0.0014221,0.00326778,0.0227109,0.000920502,0.152309,0.0148433,0.0235544,1994,1191,26.7317,-4.22123
777,-167,27.1168,4.31824,0.0304029,0.00205488,0.00437674,0.0310632,0.00139453,0.149749,0.02026,0.0395578,2001,1191,27.1169,-4.31828
784,-167,27.5521,4.42188,0.039568,0.00295714,0.00612322,0.040565,0.00196017,0.161402,0.0264142,0.0456194,2008,1191,27.5522,-4.42189
791,-167,27.9525,4.49854,0.0495204,0.00438484,0.00858964,0.0510998,0.00280543,0.181842,0.033171,0.0426548,2015,1191,27.9525,-4.4986
798,-167,28.2805,4.42517,0.0603199,0.00664786,0.0117953,0.0627977,0.00417006,0.207057,0.0405466,0.0425775,2022,1191,28.2805,-4.42516
805,-167,28.4146,4.4187,0.0707301,0.0101112,0.0160466,0.0747158,0.00612555,0.243455,0.0478994,0.0443167,2029,1191,28.4145,-4.41869
812,-167,0,0,0,0,0,0,0,0,0,-1,2036,1191,0,0
-700,-174,0,0,0,0,0,0,0,0,0,-1,524,1198,0,0
-693,-174,0,0,0,0,0,0,0,0,0,-1,531,1198,0,0
-686,-174,-19.3605,-0.975586,0,0,0,0,0,0,0,-1,538,1198,-19.3606,0.975577
-679,-174,-19.2266,-0.458252,0.0357456,-0.0206425,0.0308909,0.0493744,-0.0342713,0.415505,0.0485546,0.0461154,545,1198,-19.2266,0.458243
-672,-174,-19.1153,-0.00585938,0.0271261,-0.0186907,0.024142,0.0374988,-0.0290634,0.405805,0.0385324,0.0449737,552,1198,-19.1153,0.00580058
-665,-174,-18.9672,0.326538,0.019971,-0.016127,0.0183934,0.0276918,-0.0238478,0.397424,0.029784,0.044368,559,1198,-18.9671,-0.326598
-658,-174,-18.8049,0.41272,0,0,0,0,0,0,0,-1,566,1198,-18.8049,-0.412693
-651,-174,-17.4675,0.91272,0,0,0,0,0,0,0,-1,573,1198,-17.4675,-0.912731
-644,-174,-16.9391,1.43909,0,0,0,0,0,0,0,-1,580,1198,-16.9391,-1.43906
-637,-174,-16.8958,1.53845,0.00281162,-0.00563878,0.00364475,0.00416643,-0.00699359,0.355888,0.00651179,0.0222554,587,1198,-16.8957,-1.53843
-630,-174,-16.9602,1.76746,0.000719739,-0.00358495,0.0018326,0.00139423,-0.00425944,0.352666,0.00340101,0.0123758,594,1198,-16.9602,-1.76747
-623,-174,-17.0037,2.01648,-0.000806545,-0.00224972,1.9364e-05,-0.000806285,-0.00224998,0.0134144,0.00131628,0.0135977,601,1198,-17.0037,-2.01651
-616,-174,-17.019,2.28857,-0.00237532,-0.00121322,-0.00125232,-0.000413715,-0.00317482,-1.00261,0.00199301,0.0190159,608,1198,-17.019,-2.28857
-609,-174,-17.0178,2.55798,-0.00315825,-0.000282385,-0.00168404,0.000494095,-0.00393473,-1.13876,0.00280241,0.021141,615,1198,-17.0178,-2.55803
-602,-174,-17.041,2.78967,-0.00361829,-0.000297447,-0.00215558,0.000763077,-0.00467881,-1.11358,0.00340221,0.0145552,622,1198,-17.041,-2.78965
-595,-174,-17.0597,3.03821,-0.00418731,-0.000371085,-0.00265704,0.000992001,-0.0055504,-1.0968,0.00407142,0.0167094,629,1198,-17.0597,-3.03826
-588,-174,-17.2217,3.22559,-0.00464204,-0.000540064,-0.00314925,0.00116718,-0.00634929,-1.07403,0.00467078,0.0218859,636,1198,-17.2217,-3.22559
-581,-174,-17.1589,3.52344,-0.00482873,-0.000965821,-0.0032498,0.000883166,-0.00667772,-1.05352,0.00477351,0.0254897,643,1198,-17.1589,-3.52346
-574,-174,-17.1211,2.92444,0,0,0,0,0,0,0,-1,650,1198,-17.1211,-2.92441
-567,-174,-18.735,1.92957,0,0,0,0,0,0,0,-1,657,1198,-18.735,-1.92959
-560,-174,-20.8572,0.962891,0,0,0,0,0,0,0,-1,664,1198,-20.8573,-0.962911
-553,-174,-20.8771,0.951904,-0.00388342,-0.00233322,-0.00379202,0.000762109,-0.00697875,-0.88621,0.00492622,0.0386368,671,1198,-20.8771,-0.951894
-546,-174,-20.9528,0.9552,-0.00282627,-0.00275684,-0.00356372,0.000772338,-0.00635544,-0.790268,0.00451647,0.0305607,678,1198,-20.9528,-0.955173
-539,-174,-20.9637,1.11389,-0.00122151,-0.00322,-0.00305916,0.000997467,-0.00543897,-0.627541,0.00400014,0.0342906,685,1198,-20.9637,-1.11389
-532,-174,-20.9538,1.23145,0.00130766,-0.00392043,-0.00218805,0.00210254,-0.00471532,-0.34846,0.00403149,0.0429784,692,1198,-20.9538,-1.2314
-525,-174,-20.9338,1.33057,0.00522027,-0.0051444,-0.000914315,0.00530031,-0.00522444,-0.0873159,0.00607652,0.0443492,699,1198,-20.9338,-1.33061
-518,-174,-20.9743,1.39856,0.00880627,-0.00689,-0.000209579,0.00880907,-0.0068928,-0.013349,0.00908795,0.043995,706,1198,-20.9743,-1.39854
-511,-174,0,0,0,0,0,0,0,0,0,-1,713,1198,0,0
-504,-174,0,0,0,0,0,0,0,0,0,-1,720,1198,0,0
-497,-174,0,0,0,0,0,0,0,0,0,-1,727,1198,0,0
-490,-174,0,0,0,0,0,0,0,0,0,-1,734,1198,0,0
-483,-174,0,0,0,0,0,0,0,0,0,-1,741,1198,0,0
-476,-174,0,0,0,0,0,0,0,0,0,-1,748,1198,0,0
-469,-174,0,0,0,0,0,0,0,0,0,-1,755,1198,0,0
-462,-174,0,0,0,0,0,0,0,0,0,-1,762,1198,0,0
-455,-174,0,0,0,0,0,0,0,0,0,-1,769,1198,0,0
-448,-174,0,0,0,0,0,0,0,0,0,-1,776,1198,0,0
-441,-174,0,0,0,0,0,0,0,0,0,-1,783,1198,0,0
-434,-174,0,0,0,0,0,0,0,0,0,-1,790,1198,0,0
-427,-174,0,0,0,0,0,0,0,0,0,-1,797,1198,0,0
-420,-174,0,0,0,0,0,0,0,0,0,-1,804,1198,0,0
-413,-174,0,0,0,0,0,0,0,0,0,-1,811,1198,0,0
-406,-174,0,0,0,0,0,0,0,0,0,-1,818,1198,0,0
-399,-174,0,0,0,0,0,0,0,0,0,-1,825,1198,0,0
-392,-174,0,0,0,0,0,0,0,0,0,-1,832,1198,0,0
-385,-174,0,0,0,0,0,0,0,0,0,-1,839,1198,0,0
-378,-174,0,0,0,0,0,0,0,0,0,-1,846,1198,0,0
-371,-174,0,0,0,0,0,0,0,0,0,-1,853,1198,0,0
-364,-174,0,0,0,0,0,0,0,0,0,-1,860,1198,0,0
-357,-174,0,0,0,0,0,0,0,0,0,-1,867,1198,0,0
-350,-174,0,0,0,0,0,0,0,0,0,-1,874,1198,0,0
-343,-174,0,0,0,0,0,0,0,0,0,-1,881,1198,0,0
-336,-174,0,0,0,0,0,0,0,0,0,-1,888,1198,0,0
-329,-174,0,0,0,0,0,0,0,0,0,-1,895,1198,0,0
-322,-174,0,0,0,0,0,0,0,0,0,-1,902,1198,0,0
-315,-174,0,0,0,0,0,0,0,0,0,-1,909,1198,0,0
-308,-174,0,0,0,0,0,0,0,0,0,-1,916,1198,0,0
-301,-174,0,0,0,0,0,0,0,0,0,-1,923,1198,0,0
-294,-174,0,0,0,0,0,0,0,0,0,-1,930,1198,0,0
-287,-174,0,0,0,0,0,0,0,0,0,-1,937,1198,0,0
-280,-174,0,0,0,0,0,0,0,0,0,-1,944,1198,0,0
-273,-174,0,0,0,0,0,0,0,0,0,-1,951,1198,0,0
-266,-174,0,0,0,0,0,0,0,0,0,-1,958,1198,0,0
-259,-174,0,0,0,0,0,0,0,0,0,-1,965,1198,0,0
-252,-174,0,0,0,0,0,0,0,0,0,-1,972,1198,0,0
-245,-174,0,0,0,0,0,0,0,0,0,-1,979,1198,0,0
-238,-174,0,0,0,0,0,0,0,0,0,-1,986,1198,0,0
-231,-174,0,0,0,0,0,0,0,0,0,-1,993,1198,0,0
-224,-174,0,0,0,0,0,0,0,0,0,-1,1000,1198,0,0
-217,-174,0,0,0,0,0,0,0,0,0,-1,1007,1198,0,0
-210,-174,0,0,0,0,0,0,0,0,0,-1,1014,1198,0,0
-203,-174,0,0,0,0,0,0,0,0,0,-1,1021,1198,0,0
-196,-174,0,0,0,0,0,0,0,0,0,-1,1028,1198,0,0
-189,-174,0,0,0,0,0,0,0,0,0,-1,1035,1198,0,0
-182,-174,0,0,0,0,0,0,0,0,0,-1,1042,1198,0,0
-175,-174,0,0,0,0,0,0,0,0,0,-1,1049,1198,0,0
-168,-174,0,0,0,0,0,0,0,0,0,-1,1056,1198,0,0
-161,-174,0,0,0,0,0,0,0,0,0,-1,1063,1198,0,0
-154,-174,0,0,0,0,0,0,0,0,0,-1,1070,1198,0,0
-147,-174,0,0,0,0,0,0,0,0,0,-1,1077,1198,0,0
-140,-174,0,0,0,0,0,0,0,0,0,-1,1084,1198,0,0
-133,-174,0,0,0,0,0,0,0,0,0,-1,1091,1198,0,0
-126,-174,0,0,0,0,0,0,0,0,0,-1,1098,1198,0,0
-119,-174,0,0,0,0,0,0,0,0,0,-1,1105,1198,0,0
-112,-174,0,0,0,0,0,0,0,0,0,-1,1112,1198,0,0
-105,-174,0,0,0,0,0,0,0,0,0,-1,1119,1198,0,0
-98,-174,0,0,0,0,0,0,0,0,0,-1,1126,1198,0,0
-91,-174,0,0,0,0,0,0,0,0,0,-1,1133,1198,0,0
-84,-174,0,0,0,0,0,0,0,0,0,-1,1140,1198,0,0
-77,-174,0,0,0,0,0,0,0,0,0,-1,1147,1198,0,0
-70,-174,0,0,0,0,0,0,0,0,0,-1,1154,1198,0,0
-63,-174,0,0,0,0,0,0,0,0,0,-1,1161,1198,0,0
-56,-174,0,0,0,0,0,0,0,0,0,-1,1168,1198,0,0
-49,-174,0,0,0,0,0,0,0,0,0,-1,1175,1198,0,0
-42,-174,0,0,0,0,0,0,0,0,0,-1,1182,1198,0,0
-35,-174,0,0,0,0,0,0,0,0,0,-1,1189,1198,0,0
-28,-174,0,0,0,0,0,0,0,0,0,-1,1196,1198,0,0
-21,-174,0,0,0,0,0,0,0,0,0,-1,1203,1198,0,0
-14,-174,0,0,0,0,0,0,0,0,0,-1,1210,1198,0,0
-7,-174,0,0,0,0,0,0,0,0,0,-1,1217,1198,0,0
0,-174,0,0,0,0,0,0,0,0,0,-1,1224,1198,0,0
7,-174,0,0,0,0,0,0,0,0,0,-1,1231,1198,0,0
14,-174,0,0,0,0,0,0,0,0,0,-1,1238,1198,0,0
21,-174,0,0,0,0,0,0,0,0,0,-1,1245,1198,0,0
28,-174,0,0,0,0,0,0,0,0,0,-1,1252,1198,0,0
35,-174,0,0,0,0,0,0,0,0,0,-1,1259,1198,0,0
42,-174,0,0,0,0,0,0,0,0,0,-1,1266,1198,0,0
49,-174,0,0,0,0,0,0,0,0,0,-1,1273,1198,0,0
56,-174,0,0,0,0,0,0,0,0,0,-1,1280,1198,0,0
63,-174,0,0,0,0,0,0,0,0,0,-1,1287,1198,0,0
70,-174,0,0,0,0,0,0,0,0,0,-1,1294,1198,0,0
77,-174,0,0,0,0,0,0,0,0,0,-1,1301,1198,0,0
84,-174,0,0,0,0,0,0,0,0,0,-1,1308,1198,0,0
91,-174,0,0,0,0,0,0,0,0,0,-1,1315,1198,0,0
98,-174,0,0,0,0,0,0,0,0,0,-1,1322,1198,0,0
105,-174,0,0,0,0,0,0,0,0,0,-1,1329,1198,0,0
112,-174,0,0,0,0,0,0,0,0,0,-1,1336,1198,0,0
119,-174,0,0,0,0,0,0,0,0,0,-1,1343,1198,0,0
126,-174,0,0,0,0,0,0,0,0,0,-1,1350,1198,0,0
133,-174,0,0,0,0,0,0,0,0,0,-1,1357,1198,0,0
140,-174,0,0,0,0,0,0,0,0,0,-1,1364,1198,0,0
147,-174,0,0,0,0,0,0,0,0,0,-1,1371,1198,0,0
154,-174,0,0,0,0,0,0,0,0,0,-1,1378,1198,0,0
161,-174,0,0,0,0,0,0,0,0,0,-1,1385,1198,0,0
168,-174,0,0,0,0,0,0,0,0,0,-1,1392,1198,0,0
175,-174,0,0,0,0,0,0,0,0,0,-1,1399,1198,0,0
182,-174,0,0,0,0,0,0,0,0,0,-1,1406,1198,0,0
189,-174,0,0,0,0,0,0,0,0,0,-1,1413,1198,0,0
196,-174,0,0,0,0,0,0,0,0,0,-1,1420,1198,0,0
203,-174,0,0,0,0,0,0,0,0,0,-1,1427,1198,0,0
210,-174,0,0,0,0,0,0,0,0,0,-1,1434,1198,0,0
217,-174,0,0,0,0,0,0,0,0,0,-1,1441,1198,0,0
224,-174,0,0,0,0,0,0,0,0,0,-1,1448,1198,0,0
231,-174,0,0,0,0,0,0,0,0,0,-1,1455,1198,0,0
238,-174,0,0,0,0,0,0,0,0,0,-1,1462,1198,0,0
245,-174,0,0,0,0,0,0,0,0,0,-1,1469,1198,0,0
252,-174,0,0,0,0,0,0,0,0,0,-1,1476,1198,0,0
259,-174,0,0,0,0,0,0,0,0,0,-1,1483,1198,0,0
266,-174,0,0,0,0,0,0,0,0,0,-1,1490,1198,0,0
273,-174,0,0,0,0,0,0,0,0,0,-1,1497,1198,0,0
280,-174,0,0,0,0,0,0,0,0,0,-1,1504,1198,0,0
287,-174,0,0,0,0,0,0,0,0,0,-1,1511,1198,0,0
294,-174,0,0,0,0,0,0,0,0,0,-1,1518,1198,0,0
301,-174,0,0,0,0,0,0,0,0,0,-1,1525,1198,0,0
308,-174,0,0,0,0,0,0,0,0,0,-1,1532,1198,0,0
315,-174,0,0,0,0,0,0,0,0,0,-1,1539,1198,0,0
322,-174,0,0,0,0,0,0,0,0,0,-1,1546,1198,0,0
329,-174,0,0,0,0,0,0,0,0,0,-1,1553,1198,0,0
336,-174,0,0,0,0,0,0,0,0,0,-1,1560,1198,0,0
343,-174,0,0,0,0,0,0,0,0,0,-1,1567,1198,0,0
350,-174,0,0,0,0,0,0,0,0,0,-1,1574,1198,0,0
357,-174,0,0,0,0,0,0,0,0,0,-1,1581,1198,0,0
364,-174,0,0,0,0,0,0,0,0,0,-1,1588,1198,0,0
371,-174,0,0,0,0,0,0,0,0,0,-1,1595,1198,0,0
378,-174,0,0,0,0,0,0,0,0,0,-1,1602,1198,0,0
385,-174,0,0,0,0,0,0,0,0,0,-1,1609,1198,0,0
392,-174,0,0,0,0,0,0,0,0,0,-1,1616,1198,0,0
399,-174,0,0,0,0,0,0,0,0,0,-1,1623,1198,0,0
406,-174,0,0,0,0,0,0,0,0,0,-1,1630,1198,0,0
413,-174,0,0,0,0,0,0,0,0,0,-1,1637,1198,0,0
420,-174,0,0,0,0,0,0,0,0,0,-1,1644,1198,0,0
427,-174,0,0,0,0,0,0,0,0,0,-1,1651,1198,0,0
434,-174,0,0,0,0,0,0,0,0,0,-1,1658,1198,0,0
441,-174,0,0,0,0,0,0,0,0,0,-1,1665,1198,0,0
448,-174,0,0,0,0,0,0,0,0,0,-1,1672,1198,0,0
455,-174,0,0,0,0,0,0,0,0,0,-1,1679,1198,0,0
462,-174,0,0,0,0,0,0,0,0,0,-1,1686,1198,0,0
469,-174,0,0,0,0,0,0,0,0,0,-1,1693,1198,0,0
476,-174,0,0,0,0,0,0,0,0,0,-1,1700,1198,0,0
483,-174,0,0,0,0,0,0,0,0,0,-1,1707,1198,0,0
490,-174,0,0,0,0,0,0,0,0,0,-1,1714,1198,0,0
497,-174,0,0,0,0,0,0,0,0,0,-1,1721,1198,0,0
504,-174,0,0,0,0,0,0,0,0,0,-1,1728,1198,0,0
511,-174,0,0,0,0,0,0,0,0,0,-1,1735,1198,0,0
518,-174,0,0,0,0,0,0,0,0,0,-1,1742,1198,0,0
525,-174,0,0,0,0,0,0,0,0,0,-1,1749,1198,0,0
532,-174,0,0,0,0,0,0,0,0,0,-1,1756,1198,0,0
539,-174,0,0,0,0,0,0,0,0,0,-1,1763,1198,0,0
546,-174,0,0,0,0,0,0,0,0,0,-1,1770,1198,0,0
553,-174,0,0,0,0,0,0,0,0,0,-1,1777,1198,0,0
560,-174,0,0,0,0,0,0,0,0,0,-1,1784,1198,0,0
567,-174,0,0,0,0,0,0,0,0,0,-1,1791,1198,0,0
574,-174,0,0,0,0,0,0,0,0,0,-1,1798,1198,0,0
581,-174,0,0,0,0,0,0,0,0,0,-1,1805,1198,0,0
588,-174,0,0,0,0,0,0,0,0,0,-1,1812,1198,0,0
595,-174,0,0,0,0,0,0,0,0,0,-1,1819,1198,0,0
602,-174,0,0,0,0,0,0,0,0,0,-1,1826,1198,0,0
609,-174,0,0,0,0,0,0,0,0,0,-1,1833,1198,0,0
616,-174,0,0,0,0,0,0,0,0,0,-1,1840,1198,0,0
623,-174,0,0,0,0,0,0,0,0,0,-1,1847,1198,0,0
630,-174,0,0,0,0,0,0,0,0,0,-1,1854,1198,0,0
637,-174,29.9426,2.92908,0.00278986,0.00114187,-0.00179836,0.00394401,-1.22776e-05,-0.570575,0.00263344,0.0412404,1861,1198,29.9426,-2.92906
644,-174,30.0813,2.89893,0.00239356,0.000684377,-0.00135608,0.00314186,-6.39248e-05,-0.504235,0.00211621,0.0427365,1868,1198,30.0813,-2.8989
651,-174,30.2694,2.97205,0.00211863,0.000325155,-0.00115794,0.00268646,-0.000242676,-0.455923,0.0018771,0.0426153,1875,1198,30.2694,-2.97202
658,-174,30.2104,2.98511,0.00194241,9.34415e-06,-0.00108176,0.00242653,-0.000474776,-0.420798,0.00179697,0.0415704,1882,1198,30.2105,-2.98511
665,-174,30.3065,2.90686,0.00180872,-6.21264e-05,-0.0011072,0.00232275,-0.000576157,-0.434649,0.00177206,0.0347647,1889,1198,30.3065,-2.90689
672,-174,30.2538,2.78137,0.0014671,-0.000195315,-0.00103107,0.00196029,-0.000688499,-0.446155,0.00158695,0.0258923,1896,1198,30.2537,-2.78139
679,-174,30.2653,2.81787,0.00076119,-0.000274274,-0.000791506,0.00118925,-0.000702337,-0.495769,0.0011041,0.0223961,1903,1198,30.2653,-2.81784
686,-174,30.2587,2.74402,0,0,0,0,0,0,0,-1,1910,1198,30.2587,-2.74407
693,-174,29.1271,2.64355,0,0,0,0,0,0,0,-1,1917,1198,29.127,-2.64352
700,-174,25.4004,6.11792,0,0,0,0,0,0,0,-1,1924,1198,25.4004,-6.11797
707,-174,26.8494,6.29199,0,0,0,0,0,0,0,-1,1931,1198,26.8494,-6.29197
714,-174,26.9326,5.90027,-0.00164418,-0.000185333,0.000157382,-0.000168547,-0.00166097,1.46454,0.00105562,0.0346274,1938,1198,26.9326,-5.90031
721,-174,26.9248,5.57251,-0.00171423,-0.000117599,0.000452469,1.71061e-06,-0.00183354,1.31298,0.00122293,0.0291689,1945,1198,26.9248,-5.57252
728,-174,26.6769,5.45007,-0.00129155,0.000155188,0.000701755,0.000439649,-0.00157602,1.18568,0.00122384,0.0187068,1952,1198,26.6769,-5.45012
735,-174,26.5856,5.24304,-0.000191356,-4.54967e-05,0.00103497,0.00091911,-0.00115596,0.820573,0.00120064,0.0117487,1959,1198,26.5856,-5.24309
742,-174,26.5597,5.00903,0.00208632,-3.58561e-05,0.00126651,0.00267749,-0.000627028,0.436713,0.0020266,0.0192734,1966,1198,26.5597,-5.00901
749,-174,26.5658,4.79419,0.00579477,0.000294591,0.00152471,0.00618916,-9.97959e-05,0.253116,0.00415977,0.0172416,1973,1198,26.5658,-4.7942
756,-174,26.5614,4.57422,0.0108062,0.000707141,0.00196915,0.0111766,0.000336776,0.185913,0.00734139,0.0101381,1980,1198,26.5614,-4.57419
763,-174,26.5288,4.35815,0.0168606,0.0010865,0.00239931,0.0172175,0.000729625,0.147657,0.011243,0.0124275,1987,1198,26.5289,-4.35819
770,-174,26.5327,4.17529,0.0242474,0.00157232,0.00307305,0.0246565,0.00116323,0.132345,0.016064,0.0254088,1994,1198,26.5327,-4.17525
777,-174,26.7379,4.15881,0.0331436,0.0022446,0.00410317,0.0336792,0.00170901,0.129797,0.0219053,0.0449896,2001,1198,26.7379,-4.15884
784,-174,27.5182,4.5979,0.0430647,0.00321669,0.00578592,0.0438878,0.00239358,0.141313,0.0284942,0.0466382,2008,1198,27.5181,-4.59795
791,-174,27.8253,4.53931,0.0538316,0.00478586,0.00813994,0.0551472,0.0034702,0.160245,0.0356644,0.0451176,2015,1198,27.8253,-4.53925
798,-174,27.8975,4.29907,0,0,0,0,0,0,0,-1,2022,1198,27.8975,-4.29903
805,-174,27.9824,4.31946,0,0,0,0,0,0,0,-1,2029,1198,27.9824,-4.31946
812,-174,0,0,0,0,0,0,0,0,0,-1,2036,1198,0,0
-700,-181,0,0,0,0,0,0,0,0,0,-1,524,1205,0,0
-693,-181,0,0,0,0,0,0,0,0,0,-1,531,1205,0,0
-686,-181,-18.0983,-0.370117,0,0,0,0,0,0,0,-1,538,1205,-18.0984,0.370127
-679,-181,-19.0074,-0.171753,0,0,0,0,0,0,0,-1,545,1205,-19.0074,0.171789
-672,-181,-18.9202,0.289429,0.0215768,-0.0172085,0.0268795,0.035329,-0.0309607,0.472905,0.0383001,0.0480078,552,1205,-18.9201,-0.289438
-665,-181,-18.8719,0.806396,0.0156536,-0.015475,0.0202536,0.0256325,-0.0254539,0.457789,0.0294948,0.0471463,559,1205,-18.872,-0.806429
-658,-181,-18.8707,1.2843,0.0107462,-0.0131874,0.0147247,0.0177536,-0.0201948,0.444179,0.0219246,0.0462696,566,1205,-18.8707,-1.28434
-651,-181,-16.5374,1.13074,0,0,0,0,0,0,0,-1,573,1205,-16.5374,-1.13073
-644,-181,-16.5933,1.32068,0.00362702,-0.00816942,0.00654298,0.00653786,-0.0110803,0.418588,0.0102839,0.0440596,580,1205,-16.5933,-1.32062
-637,-181,-16.6309,1.53369,0.00136466,-0.00587733,0.00379375,0.00298811,-0.00750077,0.404346,0.00623978,0.0240902,587,1205,-16.6308,-1.53367
-630,-181,-16.7011,1.77124,-0.000330889,-0.0038325,0.0018355,0.00045491,-0.0046183,0.404504,0.00324116,0.0128487,594,1205,-16.7011,-1.77125
-623,-181,-16.7444,2.01819,-0.00163624,-0.00246077,-1.78888e-07,-0.00163624,-0.00246077,-0.000216957,0.00144626,0.015075,601,1205,-16.7444,-2.01822
-616,-181,-16.7444,2.2843,-0.00290921,-0.00135182,-0.00131106,-0.000605646,-0.00365538,-1.05337,0.00226223,0.014852,608,1205,-16.7444,-2.28435
-609,-181,-16.7601,2.5614,-0.00351834,-0.000332975,-0.00193098,0.000577406,-0.00442872,-1.13024,0.00316257,0.0147364,615,1205,-16.7601,-2.56136
-602,-181,-16.7708,2.81641,-0.00392643,-0.000346348,-0.00239166,0.000850968,-0.00512374,-1.10665,0.00373197,0.0129772,622,1205,-16.7708,-2.81639
-595,-181,-16.8228,3.02734,-0.00447757,-0.000481193,-0.00290923,0.00104998,-0.00600874,-1.08632,0.0043978,0.015717,629,1205,-16.8228,-3.02734
-588,-181,-16.9197,3.32849,-0.00487085,-0.000751346,-0.00345844,0.00121425,-0.00683644,-1.05398,0.00501165,0.0187886,636,1205,-16.9197,-3.32854
-581,-181,-16.8438,3.68726,-0.00502059,-0.00123149,-0.00356815,0.000913884,-0.00716597,-1.02945,0.00510926,0.0204889,643,1205,-16.8438,-3.68728
-574,-181,-16.9811,4.00342,0,0,0,0,0,0,0,-1,650,1205,-16.9811,-4.00342
-567,-181,-18.3641,2.61108,0,0,0,0,0,0,0,-1,657,1205,-18.3641,-2.61106
-560,-181,-20.9764,1.05945,0,0,0,0,0,0,0,-1,664,1205,-20.9764,-1.05942
-553,-181,-20.9536,1.02588,-0.00407574,-0.002489,-0.00387461,0.000672635,-0.00723737,-0.886383,0.00506404,0.0439168,671,1205,-20.9535,-1.02591
-546,-181,-20.9228,0.948242,-0.00320948,-0.00281423,-0.003603,0.000596555,-0.00662027,-0.812796,0.00462521,0.0353459,678,1205,-20.9228,-0.948239
-539,-181,-20.9397,1.08582,-0.00193724,-0.00312767,-0.00305966,0.000584567,-0.00564947,-0.68933,0.00397552,0.0382634,685,1205,-20.9397,-1.0858
-532,-181,-20.9243,1.12402,-2.11514e-05,-0.00355081,-0.0021286,0.000979076,-0.00455104,-0.439279,0.0034076,0.0438514,692,1205,-20.9243,-1.12405
-525,-181,-20.9152,1.33521,0.00297667,-0.00433241,-0.000650493,0.00303411,-0.00438985,-0.0880755,0.00430999,0.0411111,699,1205,-20.9152,-1.33521
-518,-181,-20.8998,1.32166,0.00599716,-0.00570065,0.000635206,0.00603155,-0.00573505,0.0540893,0.00679417,0.0400845,706,1205,-20.8998,-1.32161
-511,-181,0,0,0,0,0,0,0,0,0,-1,713,1205,0,0
-504,-181,0,0,0,0,0,0,0,0,0,-1,720,1205,0,0
-497,-181,0,0,0,0,0,0,0,0,0,-1,727,1205,0,0
-490,-181,0,0,0,0,0,0,0,0,0,-1,734,1205,0,0
-483,-181,0,0,0,0,0,0,0,0,0,-1,741,1205,0,0
-476,-181,0,0,0,0,0,0,0,0,0,-1,748,1205,0,0
-469,-181,0,0,0,0,0,0,0,0,0,-1,755,1205,0,0
-462,-181,0,0,0,0,0,0,0,0,0,-1,762,1205,0,0
-455,-181,0,0,0,0,0,0,0,0,0,-1,769,1205,0,0
-448,-181,0,0,0,0,0,0,0,0,0,-1,776,1205,0,0
-441,-181,0,0,0,0,0,0,0,0,0,-1,783,1205,0,0
-434,-181,0,0,0,0,0,0,0,0,0,-1,790,1205,0,0
-427,-181,0,0,0,0,0,0,0,0,0,-1,797,1205,0,0
-420,-181,0,0,0,0,0,0,0,0,0,-1,804,1205,0,0
-413,-181,0,0,0,0,0,0,0,0,0,-1,811,1205,0,0
-406,-181,0,0,0,0,0,0,0,0,0,-1,818,1205,0,0
-399,-181,0,0,0,0,0,0,0,0,0,-1,825,1205,0,0
-392,-181,0,0,0,0,0,0,0,0,0,-1,832,1205,0,0
-385,-181,0,0,0,0,0,0,0,0,0,-1,839,1205,0,0
-378,-181,0,0,0,0,0,0,0,0,0,-1,846,1205,0,0
-371,-181,0,0,0,0,0,0,0,0,0,-1,853,1205,0,0
-364,-181,0,0,0,0,0,0,0,0,0,-1,860,1205,0,0
-357,-181,0,0,0,0,0,0,0,0,0,-1,867,1205,0,0
-350,-181,0,0,0,0,0,0,0,0,0,-1,874,1205,0,0
-343,-181,0,0,0,0,0,0,0,0,0,-1,881,1205,0,0
-336,-181,0,0,0,0,0,0,0,0,0,-1,888,1205,0,0
-329,-181,0,0,0,0,0,0,0,0,0,-1,895,1205,0,0
-322,-181,0,0,0,0,0,0,0,0,0,-1,902,1205,0,0
-315,-181,0,0,0,0,0,0,0,0,0,-1,909,1205,0,0
-308,-181,0,0,0,0,0,0,0,0,0,-1,916,1205,0,0
-301,-181,0,0,0,0,0,0,0,0,0,-1,923,1205,0,0
-294,-181,0,0,0,0,0,0,0,0,0,-1,930,1205,0,0
-287,-181,0,0,0,0,0,0,0,0,0,-1,937,1205,0,0
-280,-181,0,0,0,0,0,0,0,0,0,-1,944,1205,0,0
-273,-181,0,0,0,0,0,0,0,0,0,-1,951,1205,0,0
-266,-181,0,0,0,0,0,0,0,0,0,-1,958,1205,0,0
-259,-181,0,0,0,0,0,0,0,0,0,-1,965,1205,0,0
-252,-181,0,0,0,0,0,0,0,0,0,-1,972,1205,0,0
-245,-181,0,0,0,0,0,0,0,0,0,-1,979,1205,0,0
-238,-181,0,0,0,0,0,0,0,0,0,-1,986,1205,0,0
-231,-181,0,0,0,0,0,0,0,0,0,-1,993,1205,0,0
-224,-181,0,0,0,0,0,0,0,0,0,-1,1000,1205,0,0
-217,-181,0,0,0,0,0,0,0,0,0,-1,1007,1205,0,0
-210,-181,0,0,0,0,0,0,0,0,0,-1,1014,1205,0,0
-203,-181,0,0,0,0,0,0,0,0,0,-1,1021,1205,0,0
-196,-181,0,0,0,0,0,0,0,0,0,-1,1028,1205,0,0
-189,-181,0,0,0,0,0,0,0,0,0,-1,1035,1205,0,0
-182,-181,0,0,0,0,0,0,0,0,0,-1,1042,1205,0,0
-175,-181,0,0,0,0,0,0,0,0,0,-1,1049,1205,0,0
-168,-181,0,0,0,0,0,0,0,0,0,-1,1056,1205,0,0
-161,-181,0,0,0,0,0,0,0,0,0,-1,1063,1205,0,0
-154,-181,0,0,0,0,0,0,0,0,0,-1,1070,1205,0,0
-147,-181,0,0,0,0,0,0,0,0,0,-1,1077,1205,0,0
-140,-181,0,0,0,0,0,0,0,0,0,-1,1084,1205,0,0
-133,-181,0,0,0,0,0,0,0,0,0,-1,1091,1205,0,0
-126,-181,0,0,0,0,0,0,0,0,0,-1,1098,1205,0,0
-119,-181,0,0,0,0,0,0,0,0,0,-1,1105,1205,0,0
-112,-181,0,0,0,0,0,0,0,0,0,-1,1112,1205,0,0
-105,-181,0,0,0,0,0,0,0,0,0,-1,1119,1205,0,0
-98,-181,0,0,0,0,0,0,0,0,0,-1,1126,1205,0,0
-91,-181,0,0,0,0,0,0,0,0,0,-1,1133,1205,0,0
-84,-181,0,0,0,0,0,0,0,0,0,-1,1140,1205,0,0
-77,-181,0,0,0,0,0,0,0,0,0,-1,1147,1205,0,0
-70,-181,0,0,0,0,0,0,0,0,0,-1,1154,1205,0,0
-63,-181,0,0,0,0,0,0,0,0,0,-1,1161,1205,0,0
-56,-181,0,0,0,0,0,0,0,0,0,-1,1168,1205,0,0
-49,-181,0,0,0,0,0,0,0,0,0,-1,1175,1205,0,0
-42,-181,0,0,0,0,0,0,0,0,0,-1,1182,1205,0,0
-35,-181,0,0,0,0,0,0,0,0,0,-1,1189,1205,0,0
-28,-181,0,0,0,0,0,0,0,0,0,-1,1196,1205,0,0
-21,-181,0,0,0,0,0,0,0,0,0,-1,1203,1205,0,0
-14,-181,0,0,0,0,0,0,0,0,0,-1,1210,1205,0,0
-7,-181,0,0,0,0,0,0,0,0,0,-1,1217,1205,0,0
0,-181,0,0,0,0,0,0,0,0,0,-1,1224,1205,0,0
7,-181,0,0,0,0,0,0,0,0,0,-1,1231,1205,0,0
14,-181,0,0,0,0,0,0,0,0,0,-1,1238,1205,0,0
21,-181,0,0,0,0,0,0,0,0,0,-1,1245,1205,0,0
28,-181,0,0,0,0,0,0,0,0,0,-1,1252,1205,0,0
35,-181,0,0,0,0,0,0,0,0,0,-1,1259,1205,0,0
42,-181,0,0,0,0,0,0,0,0,0,-1,1266,1205,0,0
49,-181,0,0,0,0,0,0,0,0,0,-1,1273,1205,0,0
56,-181,0,0,0,0,0,0,0,0,0,-1,1280,1205,0,0
63,-181,0,0,0,0,0,0,0,0,0,-1,1287,1205,0,0
70,-181,0,0,0,0,0,0,0,0,0,-1,1294,1205,0,0
77,-181,0,0,0,0,0,0,0,0,0,-1,1301,1205,0,0
84,-181,0,0,0,0,0,0,0,0,0,-1,1308,1205,0,0
91,-181,0,0,0,0,0,0,0,0,0,-1,1315,1205,0,0
98,-181,0,0,0,0,0,0,0,0,0,-1,1322,1205,0,0
105,-181,0,0,0,0,0,0,0,0,0,-1,1329,1205,0,0
112,-181,0,0,0,0,0,0,0,0,0,-1,1336,1205,0,0
119,-181,0,0,0,0,0,0,0,0,0,-1,1343,1205,0,0
126,-181,0,0,0,0,0,0,0,0,0,-1,1350,1205,0,0
133,-181,0,0,0,0,0,0,0,0,0,-1,1357,1205,0,0
140,-181,0,0,0,0,0,0,0,0,0,-1,1364,1205,0,0
147,-181,0,0,0,0,0,0,0,0,0,-1,1371,1205,0,0
154,-181,0,0,0,0,0,0,0,0,0,-1,1378,1205,0,0
161,-181,0,0,0,0,0,0,0,0,0,-1,1385,1205,0,0
168,-181,0,0,0,0,0,0,0,0,0,-1,1392,1205,0,0
175,-181,0,0,0,0,0,0,0,0,0,-1,1399,1205,0,0
182,-181,0,0,0,0,0,0,0,0,0,-1,1406,1205,0,0
189,-181,0,0,0,0,0,0,0,0,0,-1,1413,1205,0,0
196,-181,0,0,0,0,0,0,0,0,0,-1,1420,1205,0,0
203,-181,0,0,0,0,0,0,0,0,0,-1,1427,1205,0,0
210,-181,0,0,0,0,0,0,0,0,0,-1,1434,1205,0,0
217,-181,0,0,0,0,0,0,0,0,0,-1,1441,1205,0,0
224,-181,0,0,0,0,0,0,0,0,0,-1,1448,1205,0,0
231,-181,0,0,0,0,0,0,0,0,0,-1,1455,1205,0,0
238,-181,0,0,0,0,0,0,0,0,0,-1,1462,1205,0,0
245,-181,0,0,0,0,0,0,0,0,0,-1,1469,1205,0,0
252,-181,0,0,0,0,0,0,0,0,0,-1,1476,1205,0,0
259,-181,0,0,0,0,0,0,0,0,0,-1,1483,1205,0,0
266,-181,0,0,0,0,0,0,0,0,0,-1,1490,1205,0,0
273,-181,0,0,0,0,0,0,0,0,0,-1,1497,1205,0,0
280,-181,0,0,0,0,0,0,0,0,0,-1,1504,1205,0,0
287,-181,0,0,0,0,0,0,0,0,0,-1,1511,1205,0,0
294,-181,0,0,0,0,0,0,0,0,0,-1,1518,1205,0,0
301,-181,0,0,0,0,0,0,0,0,0,-1,1525,1205,0,0
308,-181,0,0,0,0,0,0,0,0,0,-1,1532,1205,0,0
315,-181,0,0,0,0,0,0,0,0,0,-1,1539,1205,0,0
322,-181,0,0,0,0,0,0,0,0,0,-1,1546,1205,0,0
329,-181,0,0,0,0,0,0,0,0,0,-1,1553,1205,0,0
336,-181,0,0,0,0,0,0,0,0,0,-1,1560,1205,0,0
343,-181,0,0,0,0,0,0,0,0,0,-1,1567,1205,0,0
350,-181,0,0,0,0,0,0,0,0,0,-1,1574,1205,0,0
357,-181,0,0,0,0,0,0,0,0,0,-1,1581,1205,0,0
364,-181,0,0,0,0,0,0,0,0,0,-1,1588,1205,0,0
371,-181,0,0,0,0,0,0,0,0,0,-1,1595,1205,0,0
378,-181,0,0,0,0,0,0,0,0,0,-1,1602,1205,0,0
385,-181,0,0,0,0,0,0,0,0,0,-1,1609,1205,0,0
392,-181,0,0,0,0,0,0,0,0,0,-1,1616,1205,0,0
399,-181,0,0,0,0,0,0,0,0,0,-1,1623,1205,0,0
406,-181,0,0,0,0,0,0,0,0,0,-1,1630,1205,0,0
413,-181,0,0,0,0,0,0,0,0,0,-1,1637,1205,0,0
420,-181,0,0,0,0,0,0,0,0,0,-1,1644,1205,0,0
427,-181,0,0,0,0,0,0,0,0,0,-1,1651,1205,0,0
434,-181,0,0,0,0,0,0,0,0,0,-1,1658,1205,0,0
441,-181,0,0,0,0,0,0,0,0,0,-1,1665,1205,0,0
448,-181,0,0,0,0,0,0,0,0,0,-1,1672,1205,0,0
455,-181,0,0,0,0,0,0,0,0,0,-1,1679,1205,0,0
462,-181,0,0,0,0,0,0,0,0,0,-1,1686,1205,0,0
469,-181,0,0,0,0,0,0,0,0,0,-1,1693,1205,0,0
476,-181,0,0,0,0,0,0,0,0,0,-1,1700,1205,0,0
483,-181,0,0,0,0,0,0,0,0,0,-1,1707,1205,0,0
490,-181,0,0,0,0,0,0,0,0,0,-1,1714,1205,0,0
497,-181,0,0,0,0,0,0,0,0,0,-1,1721,1205,0,0
504,-181,0,0,0,0,0,0,0,0,0,-1,1728,1205,0,0
511,-181,0,0,0,0,0,0,0,0,0,-1,1735,1205,0,0
518,-181,0,0,0,0,0,0,0,0,0,-1,1742,1205,0,0
525,-181,0,0,0,0,0,0,0,0,0,-1,1749,1205,0,0
532,-181,0,0,0,0,0,0,0,0,0,-1,1756,1205,0,0
539,-181,0,0,0,0,0,0,0,0,0,-1,1763,1205,0,0
546,-181,0,0,0,0,0,0,0,0,0,-1,1770,1205,0,0
553,-181,0,0,0,0,0,0,0,0,0,-1,1777,1205,0,0
560,-181,0,0,0,0,0,0,0,0,0,-1,1784,1205,0,0
567,-181,0,0,0,0,0,0,0,0,0,-1,1791,1205,0,0
574,-181,0,0,0,0,0,0,0,0,0,-1,1798,1205,0,0
581,-181,0,0,0,0,0,0,0,0,0,-1,1805,1205,0,0
588,-181,0,0,0,0,0,0,0,0,0,-1,1812,1205,0,0
595,-181,0,0,0,0,0,0,0,0,0,-1,1819,1205,0,0
602,-181,0,0,0,0,0,0,0,0,0,-1,1826,1205,0,0
609,-181,0,0,0,0,0,0,0,0,0,-1,1833,1205,0,0
616,-181,0,0,0,0,0,0,0,0,0,-1,1840,1205,0,0
623,-181,0,0,0,0,0,0,0,0,0,-1,1847,1205,0,0
630,-181,30.2599,3.09912,0.00354379,0.00186218,-0.00274521,0.00557407,-0.000168098,-0.636794,0.00377333,0.0378379,1854,1205,30.2599,-3.09907
637,-181,30.2355,3.00427,0.00312935,0.0012685,-0.00205591,0.00445557,-5.77236e-05,-0.572906,0.00298981,0.0365838,1861,1205,30.2354,-3.00426
644,-181,30.2343,2.96973,0.0027477,0.000747796,-0.00153643,0.00358092,-8.54266e-05,-0.49692,0.00241626,0.0390646,1868,1205,30.2343,-2.96967
651,-181,30.2313,2.95679,0.00248141,0.00028688,-0.0012183,0.00302374,-0.000255445,-0.418811,0.00210614,0.0416864,1875,1205,30.2313,-2.95681
658,-181,30.2052,3.07092,0.00231958,-0.00016547,-0.00101912,0.00268406,-0.000529952,-0.343469,0.00198969,0.0377384,1882,1205,30.2052,-3.07091
665,-181,30.3036,2.97156,0.00218418,-0.000353835,-0.000947097,0.00249864,-0.000668296,-0.320573,0.00192754,0.0325197,1889,1205,30.3036,-2.97154
672,-181,30.2386,2.81934,0.00181514,-0.000582199,-0.000792841,0.00205362,-0.000820681,-0.292186,0.00170961,0.0243793,1896,1205,30.2386,-2.81928
679,-181,30.3311,2.85278,0.00111535,-0.000693134,-0.000521831,0.00125512,-0.000832904,-0.261702,0.00121371,0.0302498,1903,1205,30.3311,-2.85274
686,-181,30.4813,2.87146,0,0,0,0,0,0,0,-1,1910,1205,30.4813,-2.87149
693,-181,29.1697,2.45032,0,0,0,0,0,0,0,-1,1917,1205,29.1697,-2.4503
700,-181,26.749,6.10034,0,0,0,0,0,0,0,-1,1924,1205,26.7491,-6.10032
707,-181,26.7256,5.95972,-0.000870629,-0.000710504,0.000223995,-0.000552693,-0.00102844,0.957038,0.000594324,0.0430709,1931,1205,26.7256,-5.95976
714,-181,26.7311,5.77625,-0.00133639,-0.000594763,0.000398667,-0.000421116,-0.00151004,1.16001,0.000899792,0.03082,1938,1205,26.7311,-5.77619
721,-181,26.568,5.59692,-0.001457,-0.000555116,0.000680791,-0.000189464,-0.00182265,1.07791,0.00115713,0.0218147,1945,1205,26.568,-5.59689
728,-181,26.3519,5.46118,-0.0010027,-7.19692e-05,0.000907481,0.000482513,-0.00155718,1.02232,0.00123089,0.0120265,1952,1205,26.352,-5.46121
735,-181,26.3639,5.25415,0.00021778,-0.000139027,0.00116888,0.00122179,-0.00114304,0.709669,0.00136559,0.0106881,1959,1205,26.3639,-5.2542
742,-181,26.3434,5.04224,0.00268116,-2.38292e-06,0.00127158,0.00318797,-0.000509198,0.379273,0.0023138,0.0155495,1966,1205,26.3434,-5.04224
749,-181,26.3514,4.80481,0.00650966,0.000433445,0.00139448,0.0068144,0.0001287,0.215154,0.00450065,0.0149242,1973,1205,26.3515,-4.80486
756,-181,26.3405,4.57007,0.0115604,0.000924815,0.00171758,0.0118309,0.000654316,0.156205,0.00767846,0.0109046,1980,1205,26.3405,-4.57011
763,-181,26.3048,4.33984,0.0177236,0.00136815,0.00202113,0.0179697,0.00112209,0.121148,0.0116238,0.0113099,1987,1205,26.3049,-4.33983
770,-181,26.3127,4.07349,0.0253679,0.00191533,0.00253885,0.0256396,0.00164364,0.106609,0.0165724,0.0249317,1994,1205,26.3127,-4.07348
777,-181,26.4545,3.73999,0.0345516,0.00257333,0.00343129,0.0349156,0.0022093,0.105698,0.0225767,0.0453785,2001,1205,26.4545,-3.73996
784,-181,27.4153,4.73413,0,0,0,0,0,0,0,-1,2008,1205,27.4153,-4.7341
791,-181,27.7179,4.5575,0,0,0,0,0,0,0,-1,2015,1205,27.7179,-4.55743
798,-181,28.4187,5.57288,0,0,0,0,0,0,0,-1,2022,1205,28.4187,-5.57282
805,-181,0,0,0,0,0,0,0,0,0,-1,2029,1205,0,0
812,-181,0,0,0,0,0,0,0,0,0,-1,2036,1205,0,0
-700,-188,0,0,0,0,0,0,0,0,0,-1,524,1212,0,0
-693,-188,0,0,0,0,0,0,0,0,0,-1,531,1212,0,0
-686,-188,0,0,0,0,0,0,0,0,0,-1,538,1212,0,0
-679,-188,-18.5109,-0.740723,0.0327025,-0.0150976,0.0414298,0.0566317,-0.0390268,0.523775,0.0555394,0.0460797,545,1212,-18.5109,0.740779
-672,-188,-18.5969,0.26416,0.0260334,-0.0159591,0.0320816,0.0433787,-0.0333044,0.495645,0.0444001,0.0474357,552,1212,-18.5969,-0.264109
-665,-188,-18.6678,0.990112,0.0199827,-0.0151075,0.0243022,0.0324114,-0.0275361,0.472743,0.0346488,0.0478199,559,1212,-18.6679,-0.99008
-658,-188,-18.7385,1.46997,0.014639,-0.0133435,0.0178311,0.0233127,-0.0220172,0.452741,0.0261748,0.045592,566,1212,-18.7385,-1.47002
-651,-188,-16.3802,1.03137,0,0,0,0,0,0,0,-1,573,1212,-16.3803,-1.03133
-644,-188,-16.4136,1.29541,0.00630283,-0.00874117,0.00828063,0.00996785,-0.0124062,0.416684,0.0129432,0.0449499,580,1212,-16.4136,-1.29541
-637,-188,-16.4596,1.526,0.00338407,-0.00645558,0.00502725,0.0054983,-0.0085698,0.398098,0.0081865,0.0234151,587,1212,-16.4596,-1.526
-630,-188,-16.4661,1.77087,0.00111216,-0.0043756,0.00267601,0.00220102,-0.00546446,0.386438,0.0045574,0.0110784,594,1212,-16.4661,-1.77089
-623,-188,-16.4631,2.04175,-0.000635861,-0.00299453,0.000553532,-0.000512419,-0.00311798,0.219418,0.00193065,0.0109124,601,1212,-16.4632,-2.04173
-616,-188,-16.4579,2.29968,-0.00216026,-0.00178491,-0.000997369,-0.000957709,-0.00298745,-0.878395,0.00176144,0.0108019,608,1212,-16.4579,-2.29963
-609,-188,-16.4689,2.58411,-0.00314523,-0.000494063,-0.00186622,0.000469449,-0.00410874,-1.0942,0.0029083,0.014145,615,1212,-16.4689,-2.58409
-602,-188,-16.4587,2.86169,-0.00371953,-0.000345029,-0.0023273,0.000842288,-0.00490685,-1.09905,0.00358513,0.017376,622,1212,-16.4587,-2.86168
-595,-188,-16.4882,3.10339,-0.0042608,-0.000431271,-0.00283551,0.00107543,-0.0057675,-1.08237,0.00424909,0.0127807,629,1212,-16.4882,-3.10341
-588,-188,-16.5258,3.35962,-0.00453222,-0.000767133,-0.00341142,0.0012467,-0.00654605,-1.03752,0.0048335,0.014227,636,1212,-16.5258,-3.35966
-581,-188,-16.5562,3.62964,-0.0046108,-0.00125999,-0.00354112,0.000982068,-0.00685285,-1.00636,0.00492865,0.0156421,643,1212,-16.5562,-3.6296
-574,-188,-16.7874,3.74878,-0.00436905,-0.00157284,-0.00364561,0.000933554,-0.00687545,-0.968501,0.0049244,0.0423555,650,1212,-16.7874,-3.74875
-567,-188,-17.0338,3.80664,0,0,0,0,0,0,0,-1,657,1212,-17.0337,-3.80669
-560,-188,-21.3475,2.15649,0,0,0,0,0,0,0,-1,664,1212,-21.3475,-2.15645
-553,-188,-20.9876,1.02393,0,0,0,0,0,0,0,-1,671,1212,-20.9876,-1.02389
-546,-188,-20.9193,0.938843,-0.0030833,-0.00252766,-0.00345531,0.000660978,-0.00627193,-0.825514,0.00441813,0.0405881,678,1212,-20.9192,-0.938852
-539,-188,-20.8524,0.920776,-0.00223377,-0.00271049,-0.00299947,0.000536801,-0.00548105,-0.745748,0.00384548,0.0365389,685,1212,-20.8524,-0.920735
-532,-188,-20.8842,0.989746,-0.00104736,-0.00290887,-0.00221965,0.000428786,-0.00438501,-0.586871,0.00307624,0.039227,692,1212,-20.8841,-0.989783
-525,-188,-20.8647,1.2594,0.000810263,-0.00329312,-0.000909621,0.00100286,-0.00348572,-0.208656,0.00272043,0.0384162,699,1212,-20.8648,-1.25945
-518,-188,-20.8519,1.24683,0.002762,-0.00417104,0.000506125,0.00279876,-0.0042078,0.0724896,0.00407241,0.0410743,706,1212,-20.8519,-1.24682
-511,-188,-20.8995,0.992554,0.00330647,-0.00519625,0.00127704,0.00349413,-0.00538391,0.145905,0.0051643,0.0402373,713,1212,-20.8996,-0.992503
-504,-188,0,0,0,0,0,0,0,0,0,-1,720,1212,0,0
-497,-188,0,0,0,0,0,0,0,0,0,-1,727,1212,0,0
-490,-188,0,0,0,0,0,0,0,0,0,-1,734,1212,0,0
-483,-188,0,0,0,0,0,0,0,0,0,-1,741,1212,0,0
-476,-188,0,0,0,0,0,0,0,0,0,-1,748,1212,0,0
-469,-188,0,0,0,0,0,0,0,0,0,-1,755,1212,0,0
-462,-188,0,0,0,0,0,0,0,0,0,-1,762,1212,0,0
-455,-188,0,0,0,0,0,0,0,0,0,-1,769,1212,0,0
-448,-188,0,0,0,0,0,0,0,0,0,-1,776,1212,0,0
-441,-188,0,0,0,0,0,0,0,0,0,-1,783,1212,0,0
-434,-188,0,0,0,0,0,0,0,0,0,-1,790,1212,0,0
-427,-188,0,0,0,0,0,0,0,0,0,-1,797,1212,0,0
-420,-188,0,0,0,0,0,0,0,0,0,-1,804,1212,0,0
-413,-188,0,0,0,0,0,0,0,0,0,-1,811,1212,0,0
-406,-188,0,0,0,0,0,0,0,0,0,-1,818,1212,0,0
-399,-188,0,0,0,0,0,0,0,0,0,-1,825,1212,0,0
-392,-188,0,0,0,0,0,0,0,0,0,-1,832,1212,0,0
-385,-188,0,0,0,0,0,0,0,0,0,-1,839,1212,0,0
-378,-188,0,0,0,0,0,0,0,0,0,-1,846,1212,0,0
-371,-188,0,0,0,0,0,0,0,0,0,-1,853,1212,0,0
-364,-188,0,0,0,0,0,0,0,0,0,-1,860,1212,0,0
-357,-188,0,0,0,0,0,0,0,0,0,-1,867,1212,0,0
-350,-188,0,0,0,0,0,0,0,0,0,-1,874,1212,0,0
-343,-188,0,0,0,0,0,0,0,0,0,-1,881,1212,0,0
-336,-188,0,0,0,0,0,0,0,0,0,-1,888,1212,0,0
-329,-188,0,0,0,0,0,0,0,0,0,-1,895,1212,0,0
-322,-188,0,0,0,0,0,0,0,0,0,-1,902,1212,0,0
-315,-188,0,0,0,0,0,0,0,0,0,-1,909,1212,0,0
-308,-188,0,0,0,0,0,0,0,0,0,-1,916,1212,0,0
-301,-188,0,0,0,0,0,0,0,0,0,-1,923,1212,0,0
-294,-188,0,0,0,0,0,0,0,0,0,-1,930,1212,0,0
-287,-188,0,0,0,0,0,0,0,0,0,-1,937,1212,0,0
-280,-188,0,0,0,0,0,0,0,0,0,-1,944,1212,0,0
-273,-188,0,0,0,0,0,0,0,0,0,-1,951,1212,0,0
-266,-188,0,0,0,0,0,0,0,0,0,-1,958,1212,0,0
-259,-188,0,0,0,0,0,0,0,0,0,-1,965,1212,0,0
-252,-188,0,0,0,0,0,0,0,0,0,-1,972,1212,0,0
-245,-188,0,0,0,0,0,0,0,0,0,-1,979,1212,0,0
-238,-188,0,0,0,0,0,0,0,0,0,-1,986,1212,0,0
-231,-188,0,0,0,0,0,0,0,0,0,-1,993,1212,0,0
-224,-188,0,0,0,0,0,0,0,0,0,-1,1000,1212,0,0
-217,-188,0,0,0,0,0,0,0,0,0,-1,1007,1212,0,0
-210,-188,0,0,0,0,0,0,0,0,0,-1,1014,1212,0,0
-203,-188,0,0,0,0,0,0,0,0,0,-1,1021,1212,0,0
-196,-188,0,0,0,0,0,0,0,0,0,-1,1028,1212,0,0
-189,-188,0,0,0,0,0,0,0,0,0,-1,1035,1212,0,0
-182,-188,0,0,0,0,0,0,0,0,0,-1,1042,1212,0,0
-175,-188,0,0,0,0,0,0,0,0,0,-1,1049,1212,0,0
-168,-188,0,0,0,0,0,0,0,0,0,-1,1056,1212,0,0
-161,-188,0,0,0,0,0,0,0,0,0,-1,1063,1212,0,0
-154,-188,0,0,0,0,0,0,0,0,0,-1,1070,1212,0,0
-147,-188,0,0,0,0,0,0,0,0,0,-1,1077,1212,0,0
-140,-188,0,0,0,0,0,0,0,0,0,-1,1084,1212,0,0
-133,-188,0,0,0,0,0,0,0,0,0,-1,1091,1212,0,0
-126,-188,0,0,0,0,0,0,0,0,0,-1,1098,1212,0,0
-119,-188,0,0,0,0,0,0,0,0,0,-1,1105,1212,0,0
-112,-188,0,0,0,0,0,0,0,0,0,-1,1112,1212,0,0
-105,-188,0,0,0,0,0,0,0,0,0,-1,1119,1212,0,0
-98,-188,0,0,0,0,0,0,0,0,0,-1,1126,1212,0,0
-91,-188,0,0,0,0,0,0,0,0,0,-1,1133,1212,0,0
-84,-188,0,0,0,0,0,0,0,0,0,-1,1140,1212,0,0
-77,-188,0,0,0,0,0,0,0,0,0,-1,1147,1212,0,0
-70,-188,0,0,0,0,0,0,0,0,0,-1,1154,1212,0,0
-63,-188,0,0,0,0,0,0,0,0,0,-1,1161,1212,0,0
-56,-188,0,0,0,0,0,0,0,0,0,-1,1168,1212,0,0
-49,-188,0,0,0,0,0,0,0,0,0,-1,1175,1212,0,0
-42,-188,0,0,0,0,0,0,0,0,0,-1,1182,1212,0,0
-35,-188,0,0,0,0,0,0,0,0,0,-1,1189,1212,0,0
-28,-188,0,0,0,0,0,0,0,0,0,-1,1196,1212,0,0
-21,-188,0,0,0,0,0,0,0,0,0,-1,1203,1212,0,0
-14,-188,0,0,0,0,0,0,0,0,0,-1,1210,1212,0,0
-7,-188,0,0,0,0,0,0,0,0,0,-1,1217,1212,0,0
0,-188,0,0,0,0,0,0,0,0,0,-1,1224,1212,0,0
7,-188,0,0,0,0,0,0,0,0,0,-1,1231,1212,0,0
14,-188,0,0,0,0,0,0,0,0,0,-1,1238,1212,0,0
21,-188,0,0,0,0,0,0,0,0,0,-1,1245,1212,0,0
28,-188,0,0,0,0,0,0,0,0,0,-1,1252,1212,0,0
35,-188,0,0,0,0,0,0,0,0,0,-1,1259,1212,0,0
42,-188,0,0,0,0,0,0,0,0,0,-1,1266,1212,0,0
49,-188,0,0,0,0,0,0,0,0,0,-1,1273,1212,0,0
56,-188,0,0,0,0,0,0,0,0,0,-1,1280,1212,0,0
63,-188,0,0,0,0,0,0,0,0,0,-1,1287,1212,0,0
70,-188,0,0,0,0,0,0,0,0,0,-1,1294,1212,0,0
77,-188,0,0,0,0,0,0,0,0,0,-1,1301,1212,0,0
84,-188,0,0,0,0,0,0,0,0,0,-1,1308,1212,0,0
91,-188,0,0,0,0,0,0,0,0,0,-1,1315,1212,0,0
98,-188,0,0,0,0,0,0,0,0,0,-1,1322,1212,0,0
105,-188,0,0,0,0,0,0,0,0,0,-1,1329,1212,0,0
112,-188,0,0,0,0,0,0,0,0,0,-1,1336,1212,0,0
119,-188,0,0,0,0,0,0,0,0,0,-1,1343,1212,0,0
126,-188,0,0,0,0,0,0,0,0,0,-1,1350,1212,0,0
133,-188,0,0,0,0,0,0,0,0,0,-1,1357,1212,0,0
140,-188,0,0,0,0,0,0,0,0,0,-1,1364,1212,0,0
147,-188,0,0,0,0,0,0,0,0,0,-1,1371,1212,0,0
154,-188,0,0,0,0,0,0,0,0,0,-1,1378,1212,0,0
161,-188,0,0,0,0,0,0,0,0,0,-1,1385,1212,0,0
168,-188,0,0,0,0,0,0,0,0,0,-1,1392,1212,0,0
175,-188,0,0,0,0,0,0,0,0,0,-1,1399,1212,0,0
182,-188,0,0,0,0,0,0,0,0,0,-1,1406,1212,0,0
189,-188,0,0,0,0,0,0,0,0,0,-1,1413,1212,0,0
196,-188,0,0,0,0,0,0,0,0,0,-1,1420,1212,0,0
203,-188,0,0,0,0,0,0,0,0,0,-1,1427,1212,0,0
210,-188,0,0,0,0,0,0,0,0,0,-1,1434,1212,0,0
217,-188,0,0,0,0,0,0,0,0,0,-1,1441,1212,0,0
224,-188,0,0,0,0,0,0,0,0,0,-1,1448,1212,0,0
231,-188,0,0,0,0,0,0,0,0,0,-1,1455,1212,0,0
238,-188,0,0,0,0,0,0,0,0,0,-1,1462,1212,0,0
245,-188,0,0,0,0,0,0,0,0,0,-1,1469,1212,0,0
252,-188,0,0,0,0,0,0,0,0,0,-1,1476,1212,0,0
259,-188,0,0,0,0,0,0,0,0,0,-1,1483,1212,0,0
266,-188,0,0,0,0,0,0,0,0,0,-1,1490,1212,0,0
273,-188,0,0,0,0,0,0,0,0,0,-1,1497,1212,0,0
280,-188,0,0,0,0,0,0,0,0,0,-1,1504,1212,0,0
287,-188,0,0,0,0,0,0,0,0,0,-1,1511,1212,0,0
294,-188,0,0,0,0,0,0,0,0,0,-1,1518,1212,0,0
301,-188,0,0,0,0,0,0,0,0,0,-1,1525,1212,0,0
308,-188,0,0,0,0,0,0,0,0,0,-1,1532,1212,0,0
315,-188,0,0,0,0,0,0,0,0,0,-1,1539,1212,0,0
322,-188,0,0,0,0,0,0,0,0,0,-1,1546,1212,0,0
329,-188,0,0,0,0,0,0,0,0,0,-1,1553,1212,0,0
336,-188,0,0,0,0,0,0,0,0,0,-1,1560,1212,0,0
343,-188,0,0,0,0,0,0,0,0,0,-1,1567,1212,0,0
350,-188,0,0,0,0,0,0,0,0,0,-1,1574,1212,0,0
357,-188,0,0,0,0,0,0,0,0,0,-1,1581,1212,0,0
364,-188,0,0,0,0,0,0,0,0,0,-1,1588,1212,0,0
371,-188,0,0,0,0,0,0,0,0,0,-1,1595,1212,0,0
378,-188,0,0,0,0,0,0,0,0,0,-1,1602,1212,0,0
385,-188,0,0,0,0,0,0,0,0,0,-1,1609,1212,0,0
392,-188,0,0,0,0,0,0,0,0,0,-1,1616,1212,0,0
399,-188,0,0,0,0,0,0,0,0,0,-1,1623,1212,0,0
406,-188,0,0,0,0,0,0,0,0,0,-1,1630,1212,0,0
413,-188,0,0,0,0,0,0,0,0,0,-1,1637,1212,0,0
420,-188,0,0,0,0,0,0,0,0,0,-1,1644,1212,0,0
427,-188,0,0,0,0,0,0,0,0,0,-1,1651,1212,0,0
434,-188,0,0,0,0,0,0,0,0,0,-1,1658,1212,0,0
441,-188,0,0,0,0,0,0,0,0,0,-1,1665,1212,0,0
448,-188,0,0,0,0,0,0,0,0,0,-1,1672,1212,0,0
455,-188,0,0,0,0,0,0,0,0,0,-1,1679,1212,0,0
462,-188,0,0,0,0,0,0,0,0,0,-1,1686,1212,0,0
469,-188,0,0,0,0,0,0,0,0,0,-1,1693,1212,0,0
476,-188,0,0,0,0,0,0,0,0,0,-1,1700,1212,0,0
483,-188,0,0,0,0,0,0,0,0,0,-1,1707,1212,0,0
490,-188,0,0,0,0,0,0,0,0,0,-1,1714,1212,0,0
497,-188,0,0,0,0,0,0,0,0,0,-1,1721,1212,0,0
504,-188,0,0,0,0,0,0,0,0,0,-1,1728,1212,0,0
511,-188,0,0,0,0,0,0,0,0,0,-1,1735,1212,0,0
518,-188,0,0,0,0,0,0,0,0,0,-1,1742,1212,0,0
525,-188,0,0,0,0,0,0,0,0,0,-1,1749,1212,0,0
532,-188,0,0,0,0,0,0,0,0,0,-1,1756,1212,0,0
539,-188,0,0,0,0,0,0,0,0,0,-1,1763,1212,0,0
546,-188,0,0,0,0,0,0,0,0,0,-1,1770,1212,0,0
553,-188,0,0,0,0,0,0,0,0,0,-1,1777,1212,0,0
560,-188,0,0,0,0,0,0,0,0,0,-1,1784,1212,0,0
567,-188,0,0,0,0,0,0,0,0,0,-1,1791,1212,0,0
574,-188,0,0,0,0,0,0,0,0,0,-1,1798,1212,0,0
581,-188,0,0,0,0,0,0,0,0,0,-1,1805,1212,0,0
588,-188,0,0,0,0,0,0,0,0,0,-1,1812,1212,0,0
595,-188,0,0,0,0,0,0,0,0,0,-1,1819,1212,0,0
602,-188,0,0,0,0,0,0,0,0,0,-1,1826,1212,0,0
609,-188,0,0,0,0,0,0,0,0,0,-1,1833,1212,0,0
616,-188,0,0,0,0,0,0,0,0,0,-1,1840,1212,0,0
623,-188,0,0,0,0,0,0,0,0,0,-1,1847,1212,0,0
630,-188,30.4131,2.99634,0.00360176,0.00205955,-0.00284287,0.00577625,-0.000114943,-0.652964,0.00388971,0.0424834,1854,1212,30.4131,-2.99636
637,-188,30.3279,3.00952,0.0031782,0.00149683,-0.00217802,0.00467215,2.8857e-06,-0.601215,0.0031138,0.0400091,1861,1212,30.3279,-3.00958
644,-188,30.2495,2.91882,0.002768,0.000950503,-0.00164867,0.00374178,-2.32843e-05,-0.533516,0.00250232,0.0343907,1868,1212,30.2495,-2.91882
651,-188,30.2019,2.85413,0.00251209,0.000389645,-0.00129411,0.00312447,-0.000222729,-0.441978,0.00216105,0.0315755,1875,1212,30.2019,-2.85414
658,-188,30.2527,2.9043,0.00238427,-0.000210015,-0.00102619,0.0027411,-0.000566849,-0.334649,0.00204274,0.0339463,1882,1212,30.2527,-2.90427
665,-188,30.2542,2.88184,0.00227295,-0.000536779,-0.000876164,0.00252378,-0.000787604,-0.278819,0.0019975,0.0310372,1889,1212,30.2542,-2.88188
672,-188,30.2666,2.80798,0.001928,-0.000883205,-0.000652863,0.00207222,-0.00102742,-0.217411,0.00182315,0.0249356,1896,1212,30.2666,-2.80803
679,-188,30.2426,2.62207,0.00129596,-0.0010487,-0.000357852,0.00134936,-0.0011021,-0.148132,0.00141775,0.0478915,1903,1212,30.2426,-2.62212
686,-188,30.2526,2.39563,0,0,0,0,0,0,0,-1,1910,1212,30.2526,-2.39564
693,-188,30.3014,2.13464,0,0,0,0,0,0,0,-1,1917,1212,30.3014,-2.13466
700,-188,26.6359,6.18652,0,0,0,0,0,0,0,-1,1924,1212,26.6358,-6.18658
707,-188,26.3562,6.02795,-0.000570912,-0.00116453,0.000419869,-0.000353537,-0.00138191,0.477724,0.000828948,0.0230353,1931,1212,26.3563,-6.02797
714,-188,26.3153,5.90027,-0.00100656,-0.00106769,0.000621782,-0.000414592,-0.00165966,0.760837,0.00099739,0.0190536,1938,1212,26.3153,-5.90032
721,-188,26.1873,5.70313,-0.00114223,-0.00107276,0.000883756,-0.000223061,-0.00199194,0.80504,0.0012602,0.0160303,1945,1212,26.1873,-5.70307
728,-188,26.1229,5.46594,-0.000647668,-0.000330429,0.00103225,0.000555322,-0.00153342,0.861633,0.00124923,0.00984555,1952,1212,26.1229,-5.46594
735,-188,26.1152,5.25464,0.000713892,-0.000262487,0.00118623,0.00150846,-0.00105706,0.590188,0.00148883,0.011897,1959,1212,26.1152,-5.25469
742,-188,26.1006,5.03064,0.00328031,-9.90719e-06,0.00114352,0.00363871,-0.0003683,0.303716,0.00255743,0.0131893,1966,1212,26.1006,-5.03067
749,-188,26.1034,4.80469,0.00709767,0.000504614,0.00110477,0.00727786,0.000324419,0.161684,0.00474747,0.0129529,1973,1212,26.1034,-4.8047
756,-188,26.1068,4.57568,0.0120753,0.0010423,0.00126103,0.0122176,0.000900001,0.112366,0.00786225,0.0118278,1980,1212,26.1069,-4.57565
763,-188,26.0828,4.34033,0.018262,0.00151753,0.00139504,0.0183774,0.0014021,0.0825551,0.011812,0.0132193,1987,1212,26.0828,-4.34028
770,-188,26.0597,4.07263,0.026066,0.00210739,0.00170654,0.026187,0.00198644,0.0707527,0.0168349,0.0209177,1994,1212,26.0597,-4.07262
777,-188,26.5255,3.65735,0.0354223,0.00274973,0.00241601,0.0355999,0.00257204,0.073414,0.0229241,0.0454987,2001,1212,26.5255,-3.65739
784,-188,26.9729,3.23071,0,0,0,0,0,0,0,-1,2008,1212,26.973,-3.23073
791,-188,29.6136,3.32373,0,0,0,0,0,0,0,-1,2015,1212,29.6136,-3.32374
798,-188,28.613,4.26758,0,0,0,0,0,0,0,-1,2022,1212,28.613,-4.26758
805,-188,0,0,0,0,0,0,0,0,0,-1,2029,1212,0,0
812,-188,0,0,0,0,0,0,0,0,0,-1,2036,1212,0,0
-700,-195,0,0,0,0,0,0,0,0,0,-1,524,1219,0,0
-693,-195,0,0,0,0,0,0,0,0,0,-1,531,1219,0,0
-686,-195,0,0,0,0,0,0,0,0,0,-1,538,1219,0,0
-679,-195,-18.1597,-1.08911,0.051712,-0.0154426,0.0472939,0.076136,-0.0398666,0.476705,0.0680566,0.0463503,545,1219,-18.1597,1.08914
-672,-195,-18.3005,0.0856934,0.0427305,-0.0169957,0.0369663,0.0603891,-0.0346543,0.445644,0.0555398,0.0467269,552,1219,-18.3005,-0.0857538
-665,-195,-18.4496,1.00659,0.0341949,-0.0164286,0.0283219,0.0468675,-0.0291013,0.420732,0.0442586,0.049051,559,1219,-18.4496,-1.0066
-658,-195,-18.6194,1.97485,0,0,0,0,0,0,0,-1,566,1219,-18.6194,-1.97489
-651,-195,-15.8466,0.7052,0,0,0,0,0,0,0,-1,573,1219,-15.8466,-0.705222
-644,-195,-15.9625,1.104,0.0136767,-0.0100201,0.0101465,0.0174275,-0.0137709,0.354087,0.0180536,0.0415837,580,1219,-15.9625,-1.10401
-637,-195,-16.1081,1.52649,0.00892076,-0.0075627,0.0063385,0.0110763,-0.00971822,0.327799,0.0120142,0.0233675,587,1219,-16.1081,-1.52644
-630,-195,-16.1952,1.76038,0.00513043,-0.00530225,0.00354616,0.00622166,-0.00639348,0.298526,0.00728358,0.00852636,594,1219,-16.1952,-1.76042
-623,-195,-16.1973,2.03418,0.0022487,-0.00379055,0.00112833,0.00245262,-0.00399448,0.1788,0.00375755,0.00738871,601,1219,-16.1973,-2.03414
-616,-195,-16.1945,2.31055,-9.78775e-05,-0.00241102,-0.000669892,8.21188e-05,-0.00259102,-0.262495,0.00175536,0.00928847,608,1219,-16.1944,-2.31056
-609,-195,-16.1879,2.61499,-0.00200139,-0.000798819,-0.00184559,0.000540959,-0.00334117,-0.942874,0.00242794,0.0176071,615,1219,-16.1879,-2.61497
-602,-195,-16.2143,2.85742,-0.00306912,-0.000356235,-0.00227523,0.000936208,-0.00436157,-1.0542,0.00326483,0.0216885,622,1219,-16.2143,-2.85739
-595,-195,-16.2208,3.12927,-0.00371644,-0.000298523,-0.00271811,0.00120323,-0.00521819,-1.06604,0.00394157,0.0147042,629,1219,-16.2208,-3.12931
-588,-195,-16.2264,3.3833,-0.00389473,-0.00066453,-0.00328382,0.00137988,-0.00593914,-1.01395,0.00449062,0.0104936,636,1219,-16.2264,-3.38336
-581,-195,-16.2863,3.56958,-0.00393533,-0.00113333,-0.00345349,0.00119252,-0.00626118,-0.978094,0.00462318,0.0164778,643,1219,-16.2863,-3.56961
-574,-195,-16.5052,3.51636,-0.00369678,-0.00139481,-0.00351805,0.00115575,-0.00624734,-0.943493,0.00459881,0.0354389,650,1219,-16.5053,-3.51636
-567,-195,-16.7007,3.42542,0,0,0,0,0,0,0,-1,657,1219,-16.7007,-3.42546
-560,-195,-17.2854,0.244507,0,0,0,0,0,0,0,-1,664,1219,-17.2854,-0.244526
-553,-195,-20.9883,1.14343,0,0,0,0,0,0,0,-1,671,1219,-20.9883,-1.14339
-546,-195,-20.8758,1.026,-0.00282471,-0.00196407,-0.00335617,0.000989262,-0.00577804,-0.849159,0.0042206,0.0431446,678,1219,-20.8758,-1.02595
-539,-195,-20.8322,0.905884,-0.00233019,-0.00199796,-0.00303932,0.000879785,-0.00520793,-0.812699,0.00379932,0.0362963,685,1219,-20.8321,-0.905861
-532,-195,-20.9578,0.976563,-0.00171618,-0.00196059,-0.00246984,0.000634476,-0.00431125,-0.760679,0.00310733,0.0348831,692,1219,-20.9578,-0.976574
-525,-195,-20.879,1.21045,-0.000737429,-0.00193906,-0.00142502,0.000208257,-0.00288475,-0.585896,0.00199621,0.0380974,699,1219,-20.879,-1.21046
-518,-195,-20.8491,1.30957,0.000282238,-0.00219163,-4.31214e-05,0.00028299,-0.00219238,-0.0174237,0.00156447,0.0395081,706,1219,-20.849,-1.30959
-511,-195,-20.8733,1.22009,0.000799677,-0.00235328,0.00122777,0.00122138,-0.00277498,0.330842,0.0023647,0.0402079,713,1219,-20.8733,-1.22004
-504,-195,0,0,0,0,0,0,0,0,0,-1,720,1219,0,0
-497,-195,0,0,0,0,0,0,0,0,0,-1,727,1219,0,0
-490,-195,0,0,0,0,0,0,0,0,0,-1,734,1219,0,0
-483,-195,0,0,0,0,0,0,0,0,0,-1,741,1219,0,0
-476,-195,0,0,0,0,0,0,0,0,0,-1,748,1219,0,0
-469,-195,0,0,0,0,0,0,0,0,0,-1,755,1219,0,0
-462,-195,0,0,0,0,0,0,0,0,0,-1,762,1219,0,0
-455,-195,0,0,0,0,0,0,0,0,0,-1,769,1219,0,0
-448,-195,0,0,0,0,0,0,0,0,0,-1,776,1219,0,0
-441,-195,0,0,0,0,0,0,0,0,0,-1,783,1219,0,0
-434,-195,0,0,0,0,0,0,0,0,0,-1,790,1219,0,0
-427,-195,0,0,0,0,0,0,0,0,0,-1,797,1219,0,0
-420,-195,0,0,0,0,0,0,0,0,0,-1,804,1219,0,0
-413,-195,0,0,0,0,0,0,0,0,0,-1,811,1219,0,0
-406,-195,0,0,0,0,0,0,0,0,0,-1,818,1219,0,0
-399,-195,0,0,0,0,0,0,0,0,0,-1,825,1219,0,0
-392,-195,0,0,0,0,0,0,0,0,0,-1,832,1219,0,0
-385,-195,0,0,0,0,0,0,0,0,0,-1,839,1219,0,0
-378,-195,0,0,0,0,0,0,0,0,0,-1,846,1219,0,0
-371,-195,0,0,0,0,0,0,0,0,0,-1,853,1219,0,0
-364,-195,0,0,0,0,0,0,0,0,0,-1,860,1219,0,0
-357,-195,0,0,0,0,0,0,0,0,0,-1,867,1219,0,0
-350,-195,0,0,0,0,0,0,0,0,0,-1,874,1219,0,0
-343,-195,0,0,0,0,0,0,0,0,0,-1,881,1219,0,0
-336,-195,0,0,0,0,0,0,0,0,0,-1,888,1219,0,0
-329,-195,0,0,0,0,0,0,0,0,0,-1,895,1219,0,0
-322,-195,0,0,0,0,0,0,0,0,0,-1,902,1219,0,0
-315,-195,0,0,0,0,0,0,0,0,0,-1,909,1219,0,0
-308,-195,0,0,0,0,0,0,0,0,0,-1,916,1219,0,0
-301,-195,0,0,0,0,0,0,0,0,0,-1,923,1219,0,0
-294,-195,0,0,0,0,0,0,0,0,0,-1,930,1219,0,0
-287,-195,0,0,0,0,0,0,0,0,0,-1,937,1219,0,0
-280,-195,0,0,0,0,0,0,0,0,0,-1,944,1219,0,0
-273,-195,0,0,0,0,0,0,0,0,0,-1,951,1219,0,0
-266,-195,0,0,0,0,0,0,0,0,0,-1,958,1219,0,0
-259,-195,0,0,0,0,0,0,0,0,0,-1,965,1219,0,0
-252,-195,0,0,0,0,0,0,0,0,0,-1,972,1219,0,0
-245,-195,0,0,0,0,0,0,0,0,0,-1,979,1219,0,0
-238,-195,0,0,0,0,0,0,0,0,0,-1,986,1219,0,0
-231,-195,0,0,0,0,0,0,0,0,0,-1,993,1219,0,0
-224,-195,0,0,0,0,0,0,0,0,0,-1,1000,1219,0,0
-217,-195,0,0,0,0,0,0,0,0,0,-1,1007,1219,0,0
-210,-195,0,0,0,0,0,0,0,0,0,-1,1014,1219,0,0
-203,-195,0,0,0,0,0,0,0,0,0,-1,1021,1219,0,0
-196,-195,0,0,0,0,0,0,0,0,0,-1,1028,1219,0,0
-189,-195,0,0,0,0,0,0,0,0,0,-1,1035,1219,0,0
-182,-195,0,0,0,0,0,0,0,0,0,-1,1042,1219,0,0
-175,-195,0,0,0,0,0,0,0,0,0,-1,1049,1219,0,0
-168,-195,0,0,0,0,0,0,0,0,0,-1,1056,1219,0,0
-161,-195,0,0,0,0,0,0,0,0,0,-1,1063,1219,0,0
-154,-195,0,0,0,0,0,0,0,0,0,-1,1070,1219,0,0
-147,-195,0,0,0,0,0,0,0,0,0,-1,1077,1219,0,0
-140,-195,0,0,0,0,0,0,0,0,0,-1,1084,1219,0,0
-133,-195,0,0,0,0,0,0,0,0,0,-1,1091,1219,0,0
-126,-195,0,0,0,0,0,0,0,0,0,-1,1098,1219,0,0
-119,-195,0,0,0,0,0,0,0,0,0,-1,1105,1219,0,0
-112,-195,0,0,0,0,0,0,0,0,0,-1,1112,1219,0,0
-105,-195,0,0,0,0,0,0,0,0,0,-1,1119,1219,0,0
-98,-195,0,0,0,0,0,0,0,0,0,-1,1126,1219,0,0
-91,-195,0,0,0,0,0,0,0,0,0,-1,1133,1219,0,0
-84,-195,0,0,0,0,0,0,0,0,0,-1,1140,1219,0,0
-77,-195,0,0,0,0,0,0,0,0,0,-1,1147,1219,0,0
-70,-195,0,0,0,0,0,0,0,0,0,-1,1154,1219,0,0
-63,-195,0,0,0,0,0,0,0,0,0,-1,1161,1219,0,0
-56,-195,0,0,0,0,0,0,0,0,0,-1,1168,1219,0,0
-49,-195,0,0,0,0,0,0,0,0,0,-1,1175,1219,0,0
-42,-195,0,0,0,0,0,0,0,0,0,-1,1182,1219,0,0
-35,-195,0,0,0,0,0,0,0,0,0,-1,1189,1219,0,0
-28,-195,0,0,0,0,0,0,0,0,0,-1,1196,1219,0,0
-21,-195,0,0,0,0,0,0,0,0,0,-1,1203,1219,0,0
-14,-195,0,0,0,0,0,0,0,0,0,-1,1210,1219,0,0
-7,-195,0,0,0,0,0,0,0,0,0,-1,1217,1219,0,0
0,-195,0,0,0,0,0,0,0,0,0,-1,1224,1219,0,0
7,-195,0,0,0,0,0,0,0,0,0,-1,1231,1219,0,0
14,-195,0,0,0,0,0,0,0,0,0,-1,1238,1219,0,0
21,-195,0,0,0,0,0,0,0,0,0,-1,1245,1219,0,0
28,-195,0,0,0,0,0,0,0,0,0,-1,1252,1219,0,0
35,-195,0,0,0,0,0,0,0,0,0,-1,1259,1219,0,0
42,-195,0,0,0,0,0,0,0,0,0,-1,1266,1219,0,0
49,-195,0,0,0,0,0,0,0,0,0,-1,1273,1219,0,0
56,-195,0,0,0,0,0,0,0,0,0,-1,1280,1219,0,0
63,-195,0,0,0,0,0,0,0,0,0,-1,1287,1219,0,0
70,-195,0,0,0,0,0,0,0,0,0,-1,1294,1219,0,0
77,-195,0,0,0,0,0,0,0,0,0,-1,1301,1219,0,0
84,-195,0,0,0,0,0,0,0,0,0,-1,1308,1219,0,0
91,-195,0,0,0,0,0,0,0,0,0,-1,1315,1219,0,0
98,-195,0,0,0,0,0,0,0,0,0,-1,1322,1219,0,0
105,-195,0,0,0,0,0,0,0,0,0,-1,1329,1219,0,0
112,-195,0,0,0,0,0,0,0,0,0,-1,1336,1219,0,0
119,-195,0,0,0,0,0,0,0,0,0,-1,1343,1219,0,0
126,-195,0,0,0,0,0,0,0,0,0,-1,1350,1219,0,0
133,-195,0,0,0,0,0,0,0,0,0,-1,1357,1219,0,0
140,-195,0,0,0,0,0,0,0,0,0,-1,1364,1219,0,0
147,-195,0,0,0,0,0,0,0,0,0,-1,1371,1219,0,0
154,-195,0,0,0,0,0,0,0,0,0,-1,1378,1219,0,0
161,-195,0,0,0,0,0,0,0,0,0,-1,1385,1219,0,0
168,-195,0,0,0,0,0,0,0,0,0,-1,1392,1219,0,0
175,-195,0,0,0,0,0,0,0,0,0,-1,1399,1219,0,0
182,-195,0,0,0,0,0,0,0,0,0,-1,1406,1219,0,0
189,-195,0,0,0,0,0,0,0,0,0,-1,1413,1219,0,0
196,-195,0,0,0,0,0,0,0,0,0,-1,1420,1219,0,0
203,-195,0,0,0,0,0,0,0,0,0,-1,1427,1219,0,0
210,-195,0,0,0,0,0,0,0,0,0,-1,1434,1219,0,0
217,-195,0,0,0,0,0,0,0,0,0,-1,1441,1219,0,0
224,-195,0,0,0,0,0,0,0,0,0,-1,1448,1219,0,0
231,-195,0,0,0,0,0,0,0,0,0,-1,1455,1219,0,0
238,-195,0,0,0,0,0,0,0,0,0,-1,1462,1219,0,0
245,-195,0,0,0,0,0,0,0,0,0,-1,1469,1219,0,0
252,-195,0,0,0,0,0,0,0,0,0,-1,1476,1219,0,0
259,-195,0,0,0,0,0,0,0,0,0,-1,1483,1219,0,0
266,-195,0,0,0,0,0,0,0,0,0,-1,1490,1219,0,0
273,-195,0,0,0,0,0,0,0,0,0,-1,1497,1219,0,0
280,-195,0,0,0,0,0,0,0,0,0,-1,1504,1219,0,0
287,-195,0,0,0,0,0,0,0,0,0,-1,1511,1219,0,0
294,-195,0,0,0,0,0,0,0,0,0,-1,1518,1219,0,0
301,-195,0,0,0,0,0,0,0,0,0,-1,1525,1219,0,0
308,-195,0,0,0,0,0,0,0,0,0,-1,1532,1219,0,0
315,-195,0,0,0,0,0,0,0,0,0,-1,1539,1219,0,0
322,-195,0,0,0,0,0,0,0,0,0,-1,1546,1219,0,0
329,-195,0,0,0,0,0,0,0,0,0,-1,1553,1219,0,0
336,-195,0,0,0,0,0,0,0,0,0,-1,1560,1219,0,0
343,-195,0,0,0,0,0,0,0,0,0,-1,1567,1219,0,0
350,-195,0,0,0,0,0,0,0,0,0,-1,1574,1219,0,0
357,-195,0,0,0,0,0,0,0,0,0,-1,1581,1219,0,0
364,-195,0,0,0,0,0,0,0,0,0,-1,1588,1219,0,0
371,-195,0,0,0,0,0,0,0,0,0,-1,1595,1219,0,0
378,-195,0,0,0,0,0,0,0,0,0,-1,1602,1219,0,0
385,-195,0,0,0,0,0,0,0,0,0,-1,1609,1219,0,0
392,-195,0,0,0,0,0,0,0,0,0,-1,1616,1219,0,0
399,-195,0,0,0,0,0,0,0,0,0,-1,1623,1219,0,0
406,-195,0,0,0,0,0,0,0,0,0,-1,1630,1219,0,0
413,-195,0,0,0,0,0,0,0,0,0,-1,1637,1219,0,0
420,-195,0,0,0,0,0,0,0,0,0,-1,1644,1219,0,0
427,-195,0,0,0,0,0,0,0,0,0,-1,1651,1219,0,0
434,-195,0,0,0,0,0,0,0,0,0,-1,1658,1219,0,0
441,-195,0,0,0,0,0,0,0,0,0,-1,1665,1219,0,0
448,-195,0,0,0,0,0,0,0,0,0,-1,1672,1219,0,0
455,-195,0,0,0,0,0,0,0,0,0,-1,1679,1219,0,0
462,-195,0,0,0,0,0,0,0,0,0,-1,1686,1219,0,0
469,-195,0,0,0,0,0,0,0,0,0,-1,1693,1219,0,0
476,-195,0,0,0,0,0,0,0,0,0,-1,1700,1219,0,0
483,-195,0,0,0,0,0,0,0,0,0,-1,1707,1219,0,0
490,-195,0,0,0,0,0,0,0,0,0,-1,1714,1219,0,0
497,-195,0,0,0,0,0,0,0,0,0,-1,1721,1219,0,0
504,-195,0,0,0,0,0,0,0,0,0,-1,1728,1219,0,0
511,-195,0,0,0,0,0,0,0,0,0,-1,1735,1219,0,0
518,-195,0,0,0,0,0,0,0,0,0,-1,1742,1219,0,0
525,-195,0,0,0,0,0,0,0,0,0,-1,1749,1219,0,0
532,-195,0,0,0,0,0,0,0,0,0,-1,1756,1219,0,0
539,-195,0,0,0,0,0,0,0,0,0,-1,1763,1219,0,0
546,-195,0,0,0,0,0,0,0,0,0,-1,1770,1219,0,0
553,-195,0,0,0,0,0,0,0,0,0,-1,1777,1219,0,0
560,-195,0,0,0,0,0,0,0,0,0,-1,1784,1219,0,0
567,-195,0,0,0,0,0,0,0,0,0,-1,1791,1219,0,0
574,-195,0,0,0,0,0,0,0,0,0,-1,1798,1219,0,0
581,-195,0,0,0,0,0,0,0,0,0,-1,1805,1219,0,0
588,-195,0,0,0,0,0,0,0,0,0,-1,1812,1219,0,0
595,-195,0,0,0,0,0,0,0,0,0,-1,1819,1219,0,0
602,-195,0,0,0,0,0,0,0,0,0,-1,1826,1219,0,0
609,-195,0,0,0,0,0,0,0,0,0,-1,1833,1219,0,0
616,-195,0,0,0,0,0,0,0,0,0,-1,1840,1219,0,0
623,-195,0,0,0,0,0,0,0,0,0,-1,1847,1219,0,0
630,-195,30.3457,2.80457,0.00326761,0.00217476,-0.00276758,0.0055422,-9.98254e-05,-0.687933,0.00372852,0.0406133,1854,1219,30.3457,-2.80451
637,-195,30.2621,2.8291,0.00282815,0.00139796,-0.00218,0.00440735,-0.000181234,-0.626916,0.00300047,0.0394351,1861,1219,30.2621,-2.82912
644,-195,30.2635,2.84387,0.00244065,0.000638628,-0.00164252,0.00341305,-0.000333775,-0.534532,0.00239439,0.0332985,1868,1219,30.2635,-2.84393
651,-195,30.2247,2.87439,0.00227765,-0.000103299,-0.00125571,0.00281751,-0.000643156,-0.40603,0.00212541,0.0263701,1875,1219,30.2248,-2.87438
658,-195,30.2328,2.85889,0.00225518,-0.000805559,-0.000929813,0.00251551,-0.00106588,-0.272985,0.00212343,0.0252879,1882,1219,30.2328,-2.85889
665,-195,30.2593,2.85559,0.00222438,-0.00118913,-0.000708676,0.00236566,-0.00133041,-0.196778,0.00216165,0.0240622,1889,1219,30.2593,-2.85558
672,-195,30.3043,2.74683,0.00196388,-0.00155424,-0.000447733,0.00201996,-0.00161033,-0.124619,0.00210039,0.0356678,1896,1219,30.3043,-2.74685
679,-195,30.2358,2.63684,0.00144648,-0.00168962,-0.000155829,0.00145421,-0.00169735,-0.0495261,0.00182135,0.0476292,1903,1219,30.2358,-2.63679
686,-195,30.2137,2.52222,0,0,0,0,0,0,0,-1,1910,1219,30.2137,-2.52221
693,-195,24.4368,5.68298,0,0,0,0,0,0,0,-1,1917,1219,24.4368,-5.68293
700,-195,25.9116,6.55798,0,0,0,0,0,0,0,-1,1924,1219,25.9117,-6.55804
707,-195,25.9152,6.229,-0.000164045,-0.00167151,0.000644708,7.40699e-05,-0.00190963,0.353797,0.00129848,0.0246225,1931,1219,25.9152,-6.22902
714,-195,25.8921,5.92712,-0.000577393,-0.00155379,0.000843995,-9.05716e-05,-0.00204062,0.52319,0.00133125,0.0236415,1938,1219,25.892,-5.92717
721,-195,25.8903,5.73181,-0.000735975,-0.00152444,0.00106385,4.34113e-06,-0.00226476,0.607957,0.00151129,0.0132232,1945,1219,25.8902,-5.73184
728,-195,25.8938,5.4978,-0.000224701,-0.000527838,0.00114138,0.000775126,-0.00152766,0.719387,0.00135297,0.0107612,1952,1219,25.8938,-5.49786
735,-195,25.8701,5.23792,0.00118543,-0.000356561,0.00123475,0.00187013,-0.00104126,0.50631,0.00170345,0.0123307,1959,1219,25.8702,-5.23787
742,-195,25.8619,5.00659,0.00367246,-4.46983e-05,0.00110936,0.00397836,-0.000350604,0.269063,0.0027765,0.013553,1966,1219,25.862,-5.00656
749,-195,25.8623,4.79211,0.00728057,0.000472285,0.000982864,0.00741962,0.000333236,0.140541,0.00483916,0.0131584,1973,1219,25.8623,-4.79214
756,-195,25.8541,4.57947,0.0120158,0.000977014,0.00102977,0.012111,0.000881773,0.0922261,0.00779672,0.012736,1980,1219,25.8541,-4.57948
763,-195,25.8539,4.33716,0.0180729,0.00140575,0.00105434,0.0181394,0.00133932,0.0629241,0.0116721,0.0144039,1987,1219,25.8539,-4.3372
770,-195,25.8622,4.10803,0.0258385,0.00195612,0.0012303,0.0259017,0.00189291,0.0513337,0.0166727,0.0257666,1994,1219,25.8622,-4.10807
777,-195,26.6471,3.83862,0.0351797,0.0025061,0.00181478,0.0352802,0.00240561,0.0553158,0.0227607,0.04864,2001,1219,26.6471,-3.83863
784,-195,27.1887,3.52295,0,0,0,0,0,0,0,-1,2008,1219,27.1887,-3.52298
791,-195,27.0381,2.97083,0,0,0,0,0,0,0,-1,2015,1219,27.0381,-2.97077
798,-195,28.9116,3.23315,0,0,0,0,0,0,0,-1,2022,1219,28.9117,-3.23318
805,-195,0,0,0,0,0,0,0,0,0,-1,2029,1219,0,0
812,-195,0,0,0,0,0,0,0,0,0,-1,2036,1219,0,0
-700,-202,0,0,0,0,0,0,0,0,0,-1,524,1226,0,0
-693,-202,0,0,0,0,0,0,0,0,0,-1,531,1226,0,0
-686,-202,0,0,0,0,0,0,0,0,0,-1,538,1226,0,0
-679,-202,-17.791,-1.21509,0,0,0,0,0,0,0,-1,545,1226,-17.7909,1.21509
-672,-202,-17.7487,-0.259521,0.0566331,-0.0180124,0.0416927,0.0752681,-0.0366475,0.420324,0.0658844,0.047939,552,1226,-17.7486,0.259496
-665,-202,-18.0948,0.891602,0.0454206,-0.0176071,0.0319475,0.0587818,-0.0309682,0.396116,0.0526401,0.0496192,559,1226,-18.0948,-0.891649
-658,-202,-17.9871,2.25317,0,0,0,0,0,0,0,-1,566,1226,-17.987,-2.25314
-651,-202,-15.4001,0.661499,0,0,0,0,0,0,0,-1,573,1226,-15.4001,-0.661447
-644,-202,-15.5248,1.07605,0.0189988,-0.0110009,0.0113326,0.0227985,-0.0148006,0.323512,0.0218709,0.0452632,580,1226,-15.5248,-1.0761
-637,-202,-15.7285,1.49219,0.0128919,-0.00837981,0.00701442,0.0149966,-0.0104846,0.291515,0.0147883,0.032249,587,1226,-15.7285,-1.49222
-630,-202,-15.8716,1.7395,0.00809506,-0.00598838,0.00385778,0.00908256,-0.00697588,0.250594,0.0092979,0.013848,594,1226,-15.8716,-1.73949
-623,-202,-15.8981,2.0094,0.00447867,-0.00439049,0.00127821,0.0046592,-0.00457103,0.140315,0.00532916,0.00806699,601,1226,-15.8981,-2.00937
-616,-202,-15.9089,2.28833,0.00167077,-0.00291029,-0.000601893,0.00174853,-0.00298805,-0.128483,0.0027657,0.00793821,608,1226,-15.9089,-2.28837
-609,-202,-15.8979,2.59106,-0.000873275,-0.00107242,-0.00192042,0.000950155,-0.00289585,-0.759497,0.00231327,0.0195971,615,1226,-15.8979,-2.5911
-602,-202,-15.9402,2.8125,-0.00241471,-0.000411106,-0.00222577,0.00102792,-0.00385374,-0.996864,0.00297167,0.0201259,622,1226,-15.9402,-2.81244
-595,-202,-15.9769,3.10559,-0.00317936,-0.000235186,-0.00253254,0.00122203,-0.00463657,-1.04866,0.00356883,0.015015,629,1226,-15.977,-3.10561
-588,-202,-15.9235,3.39966,-0.00324567,-0.000604966,-0.0030602,0.00140758,-0.00525821,-0.989062,0.00405689,0.00803336,636,1226,-15.9235,-3.39965
-581,-202,-15.9241,3.5719,-0.00323286,-0.00100966,-0.00329299,0.00135429,-0.00559681,-0.948176,0.00425509,0.0211546,643,1226,-15.9241,-3.57193
-574,-202,-16.1143,3.59521,-0.00297136,-0.00118655,-0.00332875,0.00136734,-0.00552525,-0.916364,0.00421389,0.0314898,650,1226,-16.1143,-3.5952
-567,-202,-16.2859,3.59973,0,0,0,0,0,0,0,-1,657,1226,-16.286,-3.59975
-560,-202,-10.929,2.73096,0,0,0,0,0,0,0,-1,664,1226,-10.929,-2.73092
-553,-202,-20.9322,1.12805,0,0,0,0,0,0,0,-1,671,1226,-20.9322,-1.12802
-546,-202,-20.7668,0.900146,0,0,0,0,0,0,0,-1,678,1226,-20.7668,-0.900129
-539,-202,-20.6014,0.672241,0,0,0,0,0,0,0,-1,685,1226,-20.6014,-0.672233
-532,-202,-20.8583,0.946289,-0.00211957,-0.00085618,-0.00265805,0.0012442,-0.00421995,-0.902061,0.003307,0.0292128,692,1226,-20.8583,-0.946252
-525,-202,-20.8835,1.01221,-0.00187935,-0.000445864,-0.00189795,0.000866168,-0.00319138,-0.96594,0.00246752,0.0341044,699,1226,-20.8835,-1.01223
-518,-202,-20.7982,1.05908,-0.00176383,-4.55383e-05,-0.000701749,0.000204632,-0.002014,-1.22835,0.00141582,0.0375906,706,1226,-20.7981,-1.05914
-511,-202,-20.7571,1.15808,-0.00172085,0.000728577,0.000898089,0.00102258,-0.00201485,1.25443,0.00178458,0.0400545,713,1226,-20.7571,-1.15811
-504,-202,0,0,0,0,0,0,0,0,0,-1,720,1226,0,0
-497,-202,0,0,0,0,0,0,0,0,0,-1,727,1226,0,0
-490,-202,0,0,0,0,0,0,0,0,0,-1,734,1226,0,0
-483,-202,0,0,0,0,0,0,0,0,0,-1,741,1226,0,0
-476,-202,0,0,0,0,0,0,0,0,0,-1,748,1226,0,0
-469,-202,0,0,0,0,0,0,0,0,0,-1,755,1226,0,0
-462,-202,0,0,0,0,0,0,0,0,0,-1,762,1226,0,0
-455,-202,0,0,0,0,0,0,0,0,0,-1,769,1226,0,0
-448,-202,0,0,0,0,0,0,0,0,0,-1,776,1226,0,0
-441,-202,0,0,0,0,0,0,0,0,0,-1,783,1226,0,0
-434,-202,0,0,0,0,0,0,0,0,0,-1,790,1226,0,0
-427,-202,0,0,0,0,0,0,0,0,0,-1,797,1226,0,0
-420,-202,0,0,0,0,0,0,0,0,0,-1,804,1226,0,0
-413,-202,0,0,0,0,0,0,0,0,0,-1,811,1226,0,0
-406,-202,0,0,0,0,0,0,0,0,0,-1,818,1226,0,0
-399,-202,0,0,0,0,0,0,0,0,0,-1,825,1226,0,0
-392,-202,0,0,0,0,0,0,0,0,0,-1,832,1226,0,0
-385,-202,0,0,0,0,0,0,0,0,0,-1,839,1226,0,0
-378,-202,0,0,0,0,0,0,0,0,0,-1,846,1226,0,0
-371,-202,0,0,0,0,0,0,0,0,0,-1,853,1226,0,0
-364,-202,0,0,0,0,0,0,0,0,0,-1,860,1226,0,0
-357,-202,0,0,0,0,0,0,0,0,0,-1,867,1226,0,0
-350,-202,0,0,0,0,0,0,0,0,0,-1,874,1226,0,0
-343,-202,0,0,0,0,0,0,0,0,0,-1,881,1226,0,0
-336,-202,0,0,0,0,0,0,0,0,0,-1,888,1226,0,0
-329,-202,0,0,0,0,0,0,0,0,0,-1,895,1226,0,0
-322,-202,0,0,0,0,0,0,0,0,0,-1,902,1226,0,0
-315,-202,0,0,0,0,0,0,0,0,0,-1,909,1226,0,0
-308,-202,0,0,0,0,0,0,0,0,0,-1,916,1226,0,0
-301,-202,0,0,0,0,0,0,0,0,0,-1,923,1226,0,0
-294,-202,0,0,0,0,0,0,0,0,0,-1,930,1226,0,0
-287,-202,0,0,0,0,0,0,0,0,0,-1,937,1226,0,0
-280,-202,0,0,0,0,0,0,0,0,0,-1,944,1226,0,0
-273,-202,0,0,0,0,0,0,0,0,0,-1,951,1226,0,0
-266,-202,0,0,0,0,0,0,0,0,0,-1,958,1226,0,0
-259,-202,0,0,0,0,0,0,0,0,0,-1,965,1226,0,0
-252,-202,0,0,0,0,0,0,0,0,0,-1,972,1226,0,0
-245,-202,0,0,0,0,0,0,0,0,0,-1,979,1226,0,0
-238,-202,0,0,0,0,0,0,0,0,0,-1,986,1226,0,0
-231,-202,0,0,0,0,0,0,0,0,0,-1,993,1226,0,0
-224,-202,0,0,0,0,0,0,0,0,0,-1,1000,1226,0,0
-217,-202,0,0,0,0,0,0,0,0,0,-1,1007,1226,0,0
-210,-202,0,0,0,0,0,0,0,0,0,-1,1014,1226,0,0
-203,-202,0,0,0,0,0,0,0,0,0,-1,1021,1226,0,0
-196,-202,0,0,0,0,0,0,0,0,0,-1,1028,1226,0,0
-189,-202,0,0,0,0,0,0,0,0,0,-1,1035,1226,0,0
-182,-202,0,0,0,0,0,0,0,0,0,-1,1042,1226,0,0
-175,-202,0,0,0,0,0,0,0,0,0,-1,1049,1226,0,0
-168,-202,0,0,0,0,0,0,0,0,0,-1,1056,1226,0,0
-161,-202,0,0,0,0,0,0,0,0,0,-1,1063,1226,0,0
-154,-202,0,0,0,0,0,0,0,0,0,-1,1070,1226,0,0
-147,-202,0,0,0,0,0,0,0,0,0,-1,1077,1226,0,0
-140,-202,0,0,0,0,0,0,0,0,0,-1,1084,1226,0,0
-133,-202,0,0,0,0,0,0,0,0,0,-1,1091,1226,0,0
-126,-202,0,0,0,0,0,0,0,0,0,-1,1098,1226,0,0
-119,-202,0,0,0,0,0,0,0,0,0,-1,1105,1226,0,0
-112,-202,0,0,0,0,0,0,0,0,0,-1,1112,1226,0,0
-105,-202,0,0,0,0,0,0,0,0,0,-1,1119,1226,0,0
-98,-202,0,0,0,0,0,0,0,0,0,-1,1126,1226,0,0
-91,-202,0,0,0,0,0,0,0,0,0,-1,1133,1226,0,0
-84,-202,0,0,0,0,0,0,0,0,0,-1,1140,1226,0,0
-77,-202,0,0,0,0,0,0,0,0,0,-1,1147,1226,0,0
-70,-202,0,0,0,0,0,0,0,0,0,-1,1154,1226,0,0
-63,-202,0,0,0,0,0,0,0,0,0,-1,1161,1226,0,0
-56,-202,0,0,0,0,0,0,0,0,0,-1,1168,1226,0,0
-49,-202,0,0,0,0,0,0,0,0,0,-1,1175,1226,0,0
-42,-202,0,0,0,0,0,0,0,0,0,-1,1182,1226,0,0
-35,-202,0,0,0,0,0,0,0,0,0,-1,1189,1226,0,0
-28,-202,0,0,0,0,0,0,0,0,0,-1,1196,1226,0,0
-21,-202,0,0,0,0,0,0,0,0,0,-1,1203,1226,0,0
-14,-202,0,0,0,0,0,0,0,0,0,-1,1210,1226,0,0
-7,-202,0,0,0,0,0,0,0,0,0,-1,1217,1226,0,0
0,-202,0,0,0,0,0,0,0,0,0,-1,1224,1226,0,0
7,-202,0,0,0,0,0,0,0,0,0,-1,1231,1226,0,0
14,-202,0,0,0,0,0,0,0,0,0,-1,1238,1226,0,0
21,-202,0,0,0,0,0,0,0,0,0,-1,1245,1226,0,0
28,-202,0,0,0,0,0,0,0,0,0,-1,1252,1226,0,0
35,-202,0,0,0,0,0,0,0,0,0,-1,1259,1226,0,0
42,-202,0,0,0,0,0,0,0,0,0,-1,1266,1226,0,0
49,-202,0,0,0,0,0,0,0,0,0,-1,1273,1226,0,0
56,-202,0,0,0,0,0,0,0,0,0,-1,1280,1226,0,0
63,-202,0,0,0,0,0,0,0,0,0,-1,1287,1226,0,0
70,-202,0,0,0,0,0,0,0,0,0,-1,1294,1226,0,0
77,-202,0,0,0,0,0,0,0,0,0,-1,1301,1226,0,0
84,-202,0,0,0,0,0,0,0,0,0,-1,1308,1226,0,0
91,-202,0,0,0,0,0,0,0,0,0,-1,1315,1226,0,0
98,-202,0,0,0,0,0,0,0,0,0,-1,1322,1226,0,0
105,-202,0,0,0,0,0,0,0,0,0,-1,1329,1226,0,0
112,-202,0,0,0,0,0,0,0,0,0,-1,1336,1226,0,0
119,-202,0,0,0,0,0,0,0,0,0,-1,1343,1226,0,0
126,-202,0,0,0,0,0,0,0,0,0,-1,1350,1226,0,0
133,-202,0,0,0,0,0,0,0,0,0,-1,1357,1226,0,0
140,-202,0,0,0,0,0,0,0,0,0,-1,1364,1226,0,0
147,-202,0,0,0,0,0,0,0,0,0,-1,1371,1226,0,0
154,-202,0,0,0,0,0,0,0,0,0,-1,1378,1226,0,0
161,-202,0,0,0,0,0,0,0,0,0,-1,1385,1226,0,0
168,-202,0,0,0,0,0,0,0,0,0,-1,1392,1226,0,0
175,-202,0,0,0,0,0,0,0,0,0,-1,1399,1226,0,0
182,-202,0,0,0,0,0,0,0,0,0,-1,1406,1226,0,0
189,-202,0,0,0,0,0,0,0,0,0,-1,1413,1226,0,0
196,-202,0,0,0,0,0,0,0,0,0,-1,1420,1226,0,0
203,-202,0,0,0,0,0,0,0,0,0,-1,1427,1226,0,0
210,-202,0,0,0,0,0,0,0,0,0,-1,1434,1226,0,0
217,-202,0,0,0,0,0,0,0,0,0,-1,1441,1226,0,0
224,-202,0,0,0,0,0,0,0,0,0,-1,1448,1226,0,0
231,-202,0,0,0,0,0,0,0,0,0,-1,1455,1226,0,0
238,-202,0,0,0,0,0,0,0,0,0,-1,1462,1226,0,0
245,-202,0,0,0,0,0,0,0,0,0,-1,1469,1226,0,0
252,-202,0,0,0,0,0,0,0,0,0,-1,1476,1226,0,0
259,-202,0,0,0,0,0,0,0,0,0,-1,1483,1226,0,0
266,-202,0,0,0,0,0,0,0,0,0,-1,1490,1226,0,0
273,-202,0,0,0,0,0,0,0,0,0,-1,1497,1226,0,0
280,-202,0,0,0,0,0,0,0,0,0,-1,1504,1226,0,0
287,-202,0,0,0,0,0,0,0,0,0,-1,1511,1226,0,0
294,-202,0,0,0,0,0,0,0,0,0,-1,1518,1226,0,0
301,-202,0,0,0,0,0,0,0,0,0,-1,1525,1226,0,0
308,-202,0,0,0,0,0,0,0,0,0,-1,1532,1226,0,0
315,-202,0,0,0,0,0,0,0,0,0,-1,1539,1226,0,0
322,-202,0,0,0,0,0,0,0,0,0,-1,1546,1226,0,0
329,-202,0,0,0,0,0,0,0,0,0,-1,1553,1226,0,0
336,-202,0,0,0,0,0,0,0,0,0,-1,1560,1226,0,0
343,-202,0,0,0,0,0,0,0,0,0,-1,1567,1226,0,0
350,-202,0,0,0,0,0,0,0,0,0,-1,1574,1226,0,0
357,-202,0,0,0,0,0,0,0,0,0,-1,1581,1226,0,0
364,-202,0,0,0,0,0,0,0,0,0,-1,1588,1226,0,0
371,-202,0,0,0,0,0,0,0,0,0,-1,1595,1226,0,0
378,-202,0,0,0,0,0,0,0,0,0,-1,1602,1226,0,0
385,-202,0,0,0,0,0,0,0,0,0,-1,1609,1226,0,0
392,-202,0,0,0,0,0,0,0,0,0,-1,1616,1226,0,0
399,-202,0,0,0,0,0,0,0,0,0,-1,1623,1226,0,0
406,-202,0,0,0,0,0,0,0,0,0,-1,1630,1226,0,0
413,-202,0,0,0,0,0,0,0,0,0,-1,1637,1226,0,0
420,-202,0,0,0,0,0,0,0,0,0,-1,1644,1226,0,0
427,-202,0,0,0,0,0,0,0,0,0,-1,1651,1226,0,0
434,-202,0,0,0,0,0,0,0,0,0,-1,1658,1226,0,0
441,-202,0,0,0,0,0,0,0,0,0,-1,1665,1226,0,0
448,-202,0,0,0,0,0,0,0,0,0,-1,1672,1226,0,0
455,-202,0,0,0,0,0,0,0,0,0,-1,1679,1226,0,0
462,-202,0,0,0,0,0,0,0,0,0,-1,1686,1226,0,0
469,-202,0,0,0,0,0,0,0,0,0,-1,1693,1226,0,0
476,-202,0,0,0,0,0,0,0,0,0,-1,1700,1226,0,0
483,-202,0,0,0,0,0,0,0,0,0,-1,1707,1226,0,0
490,-202,0,0,0,0,0,0,0,0,0,-1,1714,1226,0,0
497,-202,0,0,0,0,0,0,0,0,0,-1,1721,1226,0,0
504,-202,0,0,0,0,0,0,0,0,0,-1,1728,1226,0,0
511,-202,0,0,0,0,0,0,0,0,0,-1,1735,1226,0,0
518,-202,0,0,0,0,0,0,0,0,0,-1,1742,1226,0,0
525,-202,0,0,0,0,0,0,0,0,0,-1,1749,1226,0,0
532,-202,0,0,0,0,0,0,0,0,0,-1,1756,1226,0,0
539,-202,0,0,0,0,0,0,0,0,0,-1,1763,1226,0,0
546,-202,0,0,0,0,0,0,0,0,0,-1,1770,1226,0,0
553,-202,0,0,0,0,0,0,0,0,0,-1,1777,1226,0,0
560,-202,0,0,0,0,0,0,0,0,0,-1,1784,1226,0,0
567,-202,0,0,0,0,0,0,0,0,0,-1,1791,1226,0,0
574,-202,0,0,0,0,0,0,0,0,0,-1,1798,1226,0,0
581,-202,0,0,0,0,0,0,0,0,0,-1,1805,1226,0,0
588,-202,0,0,0,0,0,0,0,0,0,-1,1812,1226,0,0
595,-202,0,0,0,0,0,0,0,0,0,-1,1819,1226,0,0
602,-202,0,0,0,0,0,0,0,0,0,-1,1826,1226,0,0
609,-202,0,0,0,0,0,0,0,0,0,-1,1833,1226,0,0
616,-202,0,0,0,0,0,0,0,0,0,-1,1840,1226,0,0
623,-202,0,0,0,0,0,0,0,0,0,-1,1847,1226,0,0
630,-202,30.2235,2.85925,0.00314274,0.00230776,-0.00267534,0.00543297,1.75263e-05,-0.707996,0.00361615,0.0386912,1854,1226,30.2236,-2.8592
637,-202,30.2847,2.771,0.00277276,0.00162335,-0.00197511,0.00425509,0.000141032,-0.643821,0.0027909,0.0344908,1861,1226,30.2846,-2.77096
644,-202,30.3459,2.75635,0.00249178,0.000851767,-0.0013215,0.00322702,0.000116532,-0.507715,0.00211357,0.0303853,1868,1226,30.346,-2.75632
651,-202,30.298,2.87708,0.00243563,4.4459e-05,-0.000903999,0.00273892,-0.000258835,-0.323701,0.00191806,0.0261766,1875,1226,30.298,-2.87712
658,-202,30.2672,2.85095,0.00246748,-0.000735728,-0.000587286,0.00257176,-0.000840008,-0.175731,0.00205263,0.0233834,1882,1226,30.2672,-2.85091
665,-202,30.3147,2.80188,0.002459,-0.00122807,-0.000369039,0.00249557,-0.00126465,-0.0987844,0.0022094,0.0218721,1889,1226,30.3147,-2.80188
672,-202,30.4183,2.82532,0.00223631,-0.00167578,-0.00014149,0.00224142,-0.00168089,-0.0361046,0.00227224,0.0454273,1896,1226,30.4184,-2.82533
679,-202,30.3043,2.75122,0.00179473,-0.00185908,9.77974e-05,0.00179735,-0.00186169,0.0267403,0.00211266,0.0470934,1903,1226,30.3044,-2.75123
686,-202,30.3378,2.68982,0,0,0,0,0,0,0,-1,1910,1226,30.3378,-2.68979
693,-202,25.5422,6.83789,0,0,0,0,0,0,0,-1,1917,1226,25.5422,-6.83783
700,-202,25.5408,6.5105,0.000750822,-0.0021155,0.000675693,0.00090212,-0.0022668,0.220282,0.00188528,0.0379184,1924,1226,25.5407,-6.51044
707,-202,25.579,6.15845,0.000330307,-0.0020348,0.000783107,0.000566094,-0.00227059,0.292458,0.00173351,0.0307385,1931,1226,25.579,-6.15849
714,-202,25.6359,5.92554,-6.22916e-05,-0.00191288,0.000979609,0.000359932,-0.0023351,0.406952,0.00168954,0.0173642,1938,1226,25.6358,-5.92555
721,-202,25.6609,5.71838,-0.000226976,-0.00187538,0.00115649,0.000368953,-0.00247131,0.475807,0.00178329,0.0127157,1945,1226,25.6609,-5.71834
728,-202,25.6567,5.49268,0.000272332,-0.00066007,0.00117889,0.00107385,-0.00146159,0.597106,0.00146953,0.0109032,1952,1226,25.6567,-5.49263
735,-202,25.6493,5.24048,0.00163144,-0.000391692,0.0012412,0.00222107,-0.000981327,0.443491,0.00189453,0.0109565,1959,1226,25.6493,-5.24049
742,-202,25.6429,5.01343,0.00390027,-2.37784e-05,0.00107867,0.00417723,-0.00030074,0.251334,0.00289029,0.0101964,1966,1226,25.643,-5.01339
749,-202,25.6118,4.78003,0.00717238,0.000489633,0.000909196,0.00729387,0.000368145,0.132835,0.00474463,0.00983179,1973,1226,25.6119,-4.78007
756,-202,25.6018,4.54871,0.0115634,0.000970352,0.000866559,0.0116338,0.000899931,0.0810862,0.00747397,0.0103108,1980,1226,25.6018,-4.5487
763,-202,25.6403,4.34204,0.0173634,0.00136611,0.000791658,0.0174024,0.00132703,0.0493265,0.0111856,0.0155386,1987,1226,25.6402,-4.34206
770,-202,25.8071,4.276,0.0249282,0.00186839,0.00083652,0.0249585,0.00183809,0.0362127,0.0160614,0.040813,1994,1226,25.8071,-4.27595
777,-202,25.9934,4.20935,0,0,0,0,0,0,0,-1,2001,1226,25.9934,-4.20932
784,-202,27.0264,3.38806,0,0,0,0,0,0,0,-1,2008,1226,27.0264,-3.38807
791,-202,26.5737,3.59583,0,0,0,0,0,0,0,-1,2015,1226,26.5737,-3.59582
798,-202,28.033,1.97632,0,0,0,0,0,0,0,-1,2022,1226,28.0329,-1.97636
805,-202,0,0,0,0,0,0,0,0,0,-1,2029,1226,0,0
812,-202,0,0,0,0,0,0,0,0,0,-1,2036,1226,0,0
-700,-209,0,0,0,0,0,0,0,0,0,-1,524,1233,0,0
-693,-209,0,0,0,0,0,0,0,0,0,-1,531,1233,0,0
-686,-209,0,0,0,0,0,0,0,0,0,-1,538,1233,0,0
-679,-209,-16.3103,0.956787,0,0,0,0,0,0,0,-1,545,1233,-16.3103,-0.956805
-672,-209,-17.441,-0.387329,0,0,0,0,0,0,0,-1,552,1233,-17.441,0.387294
-665,-209,-17.7412,1.63306,0,0,0,0,0,0,0,-1,559,1233,-17.7412,-1.63303
-658,-209,-17.6396,2.09973,0,0,0,0,0,0,0,-1,566,1233,-17.6396,-2.09973
-651,-209,-14.7293,1.22058,0,0,0,0,0,0,0,-1,573,1233,-14.7293,-1.22057
-644,-209,-15.1544,1.62305,0.0271077,-0.0117379,0.0116387,0.0303279,-0.0149581,0.269927,0.0266431,0.0484837,580,1233,-15.1543,-1.6231
-637,-209,-15.6356,1.52637,0.0188305,-0.00877432,0.00702769,0.0205167,-0.0104604,0.235476,0.0181961,0.0401957,587,1233,-15.6356,-1.52641
-630,-209,-15.5607,1.68665,0.012381,-0.00615884,0.00370755,0.013095,-0.00687278,0.190234,0.0117135,0.0223825,594,1233,-15.5607,-1.68664
-623,-209,-15.603,1.99341,0.00764232,-0.00443731,0.00114743,0.00775034,-0.00454534,0.0938702,0.00717885,0.0119132,601,1233,-15.603,-1.99343
-616,-209,-15.6188,2.28589,0.00411713,-0.0029064,-0.000632374,0.00417361,-0.00296288,-0.0890818,0.00413997,0.0114558,608,1233,-15.6189,-2.28583
-609,-209,-15.6238,2.56934,0.000656054,-0.000939693,-0.00192729,0.00194409,-0.00222773,-0.589145,0.00241046,0.0133338,615,1233,-15.6238,-2.56928
-602,-209,-15.6533,2.83618,-0.00142215,-0.000195215,-0.00207386,0.00135401,-0.00297137,-0.929202,0.00255479,0.0157271,622,1233,-15.6533,-2.83623
-595,-209,-15.6448,3.12158,-0.00233392,2.23715e-05,-0.00221932,0.00135688,-0.00366842,-1.02941,0.00300193,0.0117972,629,1233,-15.6448,-3.12162
-588,-209,-15.6277,3.41077,-0.00227283,-0.000382689,-0.00268325,0.00151706,-0.00417258,-0.95472,0.00340209,0.0126314,636,1233,-15.6277,-3.41073
-581,-209,-15.5286,3.70203,-0.00221169,-0.000754261,-0.00301127,0.00161521,-0.00458116,-0.904114,0.00371157,0.0219539,643,1233,-15.5286,-3.70202
-574,-209,-15.7109,3.90906,-0.00196459,-0.000866622,-0.00308762,0.00172044,-0.00455165,-0.873379,0.00374215,0.0299154,650,1233,-15.7109,-3.90907
-567,-209,-16.1794,4.66711,0,0,0,0,0,0,0,-1,657,1233,-16.1794,-4.66711
-560,-209,-13.9294,4.16626,0,0,0,0,0,0,0,-1,664,1233,-13.9294,-4.16621
-553,-209,-21.3384,0.500854,0,0,0,0,0,0,0,-1,671,1233,-21.3384,-0.500855
-546,-209,-20.7073,0.385132,0,0,0,0,0,0,0,-1,678,1233,-20.7073,-0.385152
-539,-209,-20.9059,1.05908,-0.00202757,-0.000255623,-0.00308538,0.00206847,-0.00435166,-0.925212,0.00378398,0.0370216,685,1233,-20.9059,-1.05904
-532,-209,-20.8073,1.01367,-0.0023699,0.000216216,-0.00294192,0.00213671,-0.00429039,-0.992454,0.00377949,0.0291165,692,1233,-20.8073,-1.01366
-525,-209,-20.886,1.03162,-0.00279118,0.00089865,-0.00251187,0.00217033,-0.00406286,-1.10215,0.00365361,0.0319858,699,1233,-20.886,-1.03159
-518,-209,-20.8817,0.985962,-0.00351609,0.00178066,-0.00167217,0.00226438,-0.00399982,-1.2892,0.00366261,0.0433095,706,1233,-20.8817,-0.98596
-511,-209,-20.7425,1.00269,-0.00427824,0.00326908,-0.000137203,0.00327157,-0.00428073,-1.55263,0.00437328,0.0437692,713,1233,-20.7425,-1.00267
-504,-209,0,0,0,0,0,0,0,0,0,-1,720,1233,0,0
-497,-209,0,0,0,0,0,0,0,0,0,-1,727,1233,0,0
-490,-209,0,0,0,0,0,0,0,0,0,-1,734,1233,0,0
-483,-209,0,0,0,0,0,0,0,0,0,-1,741,1233,0,0
-476,-209,0,0,0,0,0,0,0,0,0,-1,748,1233,0,0
-469,-209,0,0,0,0,0,0,0,0,0,-1,755,1233,0,0
-462,-209,0,0,0,0,0,0,0,0,0,-1,762,1233,0,0
-455,-209,0,0,0,0,0,0,0,0,0,-1,769,1233,0,0
-448,-209,0,0,0,0,0,0,0,0,0,-1,776,1233,0,0
-441,-209,0,0,0,0,0,0,0,0,0,-1,783,1233,0,0
-434,-209,0,0,0,0,0,0,0,0,0,-1,790,1233,0,0
-427,-209,0,0,0,0,0,0,0,0,0,-1,797,1233,0,0
-420,-209,0,0,0,0,0,0,0,0,0,-1,804,1233,0,0
-413,-209,0,0,0,0,0,0,0,0,0,-1,811,1233,0,0
-406,-209,0,0,0,0,0,0,0,0,0,-1,818,1233,0,0
-399,-209,0,0,0,0,0,0,0,0,0,-1,825,1233,0,0
-392,-209,0,0,0,0,0,0,0,0,0,-1,832,1233,0,0
-385,-209,0,0,0,0,0,0,0,0,0,-1,839,1233,0,0
-378,-209,0,0,0,0,0,0,0,0,0,-1,846,1233,0,0
-371,-209,0,0,0,0,0,0,0,0,0,-1,853,1233,0,0
-364,-209,0,0,0,0,0,0,0,0,0,-1,860,1233,0,0
-357,-209,0,0,0,0,0,0,0,0,0,-1,867,1233,0,0
-350,-209,0,0,0,0,0,0,0,0,0,-1,874,1233,0,0
-343,-209,0,0,0,0,0,0,0,0,0,-1,881,1233,0,0
-336,-209,0,0,0,0,0,0,0,0,0,-1,888,1233,0,0
-329,-209,0,0,0,0,0,0,0,0,0,-1,895,1233,0,0
-322,-209,0,0,0,0,0,0,0,0,0,-1,902,1233,0,0
-315,-209,0,0,0,0,0,0,0,0,0,-1,909,1233,0,0
-308,-209,0,0,0,0,0,0,0,0,0,-1,916,1233,0,0
-301,-209,0,0,0,0,0,0,0,0,0,-1,923,1233,0,0
-294,-209,0,0,0,0,0,0,0,0,0,-1,930,1233,0,0
-287,-209,0,0,0,0,0,0,0,0,0,-1,937,1233,0,0
-280,-209,0,0,0,0,0,0,0,0,0,-1,944,1233,0,0
-273,-209,0,0,0,0,0,0,0,0,0,-1,951,1233,0,0
-266,-209,0,0,0,0,0,0,0,0,0,-1,958,1233,0,0
-259,-209,0,0,0,0,0,0,0,0,0,-1,965,1233,0,0
-252,-209,0,0,0,0,0,0,0,0,0,-1,972,1233,0,0
-245,-209,0,0,0,0,0,0,0,0,0,-1,979,1233,0,0
-238,-209,0,0,0,0,0,0,0,0,0,-1,986,1233,0,0
-231,-209,0,0,0,0,0,0,0,0,0,-1,993,1233,0,0
-224,-209,0,0,0,0,0,0,0,0,0,-1,1000,1233,0,0
-217,-209,0,0,0,0,0,0,0,0,0,-1,1007,1233,0,0
-210,-209,0,0,0,0,0,0,0,0,0,-1,1014,1233,0,0
-203,-209,0,0,0,0,0,0,0,0,0,-1,1021,1233,0,0
-196,-209,0,0,0,0,0,0,0,0,0,-1,1028,1233,0,0
-189,-209,0,0,0,0,0,0,0,0,0,-1,1035,1233,0,0
-182,-209,0,0,0,0,0,0,0,0,0,-1,1042,1233,0,0
-175,-209,0,0,0,0,0,0,0,0,0,-1,1049,1233,0,0
-168,-209,0,0,0,0,0,0,0,0,0,-1,1056,1233,0,0
-161,-209,0,0,0,0,0,0,0,0,0,-1,1063,1233,0,0
-154,-209,0,0,0,0,0,0,0,0,0,-1,1070,1233,0,0
-147,-209,0,0,0,0,0,0,0,0,0,-1,1077,1233,0,0
-140,-209,0,0,0,0,0,0,0,0,0,-1,1084,1233,0,0
-133,-209,0,0,0,0,0,0,0,0,0,-1,1091,1233,0,0
-126,-209,0,0,0,0,0,0,0,0,0,-1,1098,1233,0,0
-119,-209,0,0,0,0,0,0,0,0,0,-1,1105,1233,0,0
-112,-209,0,0,0,0,0,0,0,0,0,-1,1112,1233,0,0
-105,-209,0,0,0,0,0,0,0,0,0,-1,1119,1233,0,0
-98,-209,0,0,0,0,0,0,0,0,0,-1,1126,1233,0,0
-91,-209,0,0,0,0,0,0,0,0,0,-1,1133,1233,0,0
-84,-209,0,0,0,0,0,0,0,0,0,-1,1140,1233,0,0
-77,-209,0,0,0,0,0,0,0,0,0,-1,1147,1233,0,0
-70,-209,0,0,0,0,0,0,0,0,0,-1,1154,1233,0,0
-63,-209,0,0,0,0,0,0,0,0,0,-1,1161,1233,0,0
-56,-209,0,0,0,0,0,0,0,0,0,-1,1168,1233,0,0
-49,-209,0,0,0,0,0,0,0,0,0,-1,1175,1233,0,0
-42,-209,0,0,0,0,0,0,0,0,0,-1,1182,1233,0,0
-35,-209,0,0,0,0,0,0,0,0,0,-1,1189,1233,0,0
-28,-209,0,0,0,0,0,0,0,0,0,-1,1196,1233,0,0
-21,-209,0,0,0,0,0,0,0,0,0,-1,1203,1233,0,0
-14,-209,0,0,0,0,0,0,0,0,0,-1,1210,1233,0,0
-7,-209,0,0,0,0,0,0,0,0,0,-1,1217,1233,0,0
0,-209,0,0,0,0,0,0,0,0,0,-1,1224,1233,0,0
7,-209,0,0,0,0,0,0,0,0,0,-1,1231,1233,0,0
14,-209,0,0,0,0,0,0,0,0,0,-1,1238,1233,0,0
21,-209,0,0,0,0,0,0,0,0,0,-1,1245,1233,0,0
28,-209,0,0,0,0,0,0,0,0,0,-1,1252,1233,0,0
35,-209,0,0,0,0,0,0,0,0,0,-1,1259,1233,0,0
42,-209,0,0,0,0,0,0,0,0,0,-1,1266,1233,0,0
49,-209,0,0,0,0,0,0,0,0,0,-1,1273,1233,0,0
56,-209,0,0,0,0,0,0,0,0,0,-1,1280,1233,0,0
63,-209,0,0,0,0,0,0,0,0,0,-1,1287,1233,0,0
70,-209,0,0,0,0,0,0,0,0,0,-1,1294,1233,0,0
77,-209,0,0,0,0,0,0,0,0,0,-1,1301,1233,0,0
84,-209,0,0,0,0,0,0,0,0,0,-1,1308,1233,0,0
91,-209,0,0,0,0,0,0,0,0,0,-1,1315,1233,0,0
98,-209,0,0,0,0,0,0,0,0,0,-1,1322,1233,0,0
105,-209,0,0,0,0,0,0,0,0,0,-1,1329,1233,0,0
112,-209,0,0,0,0,0,0,0,0,0,-1,1336,1233,0,0
119,-209,0,0,0,0,0,0,0,0,0,-1,1343,1233,0,0
126,-209,0,0,0,0,0,0,0,0,0,-1,1350,1233,0,0
133,-209,0,0,0,0,0,0,0,0,0,-1,1357,1233,0,0
140,-209,0,0,0,0,0,0,0,0,0,-1,1364,1233,0,0
147,-209,0,0,0,0,0,0,0,0,0,-1,1371,1233,0,0
154,-209,0,0,0,0,0,0,0,0,0,-1,1378,1233,0,0
161,-209,0,0,0,0,0,0,0,0,0,-1,1385,1233,0,0
168,-209,0,0,0,0,0,0,0,0,0,-1,1392,1233,0,0
175,-209,0,0,0,0,0,0,0,0,0,-1,1399,1233,0,0
182,-209,0,0,0,0,0,0,0,0,0,-1,1406,1233,0,0
189,-209,0,0,0,0,0,0,0,0,0,-1,1413,1233,0,0
196,-209,0,0,0,0,0,0,0,0,0,-1,1420,1233,0,0
203,-209,0,0,0,0,0,0,0,0,0,-1,1427,1233,0,0
210,-209,0,0,0,0,0,0,0,0,0,-1,1434,1233,0,0
217,-209,0,0,0,0,0,0,0,0,0,-1,1441,1233,0,0
224,-209,0,0,0,0,0,0,0,0,0,-1,1448,1233,0,0
231,-209,0,0,0,0,0,0,0,0,0,-1,1455,1233,0,0
238,-209,0,0,0,0,0,0,0,0,0,-1,1462,1233,0,0
245,-209,0,0,0,0,0,0,0,0,0,-1,1469,1233,0,0
252,-209,0,0,0,0,0,0,0,0,0,-1,1476,1233,0,0
259,-209,0,0,0,0,0,0,0,0,0,-1,1483,1233,0,0
266,-209,0,0,0,0,0,0,0,0,0,-1,1490,1233,0,0
273,-209,0,0,0,0,0,0,0,0,0,-1,1497,1233,0,0
280,-209,0,0,0,0,0,0,0,0,0,-1,1504,1233,0,0
287,-209,0,0,0,0,0,0,0,0,0,-1,1511,1233,0,0
294,-209,0,0,0,0,0,0,0,0,0,-1,1518,1233,0,0
301,-209,0,0,0,0,0,0,0,0,0,-1,1525,1233,0,0
308,-209,0,0,0,0,0,0,0,0,0,-1,1532,1233,0,0
315,-209,0,0,0,0,0,0,0,0,0,-1,1539,1233,0,0
322,-209,0,0,0,0,0,0,0,0,0,-1,1546,1233,0,0
329,-209,0,0,0,0,0,0,0,0,0,-1,1553,1233,0,0
336,-209,0,0,0,0,0,0,0,0,0,-1,1560,1233,0,0
343,-209,0,0,0,0,0,0,0,0,0,-1,1567,1233,0,0
350,-209,0,0,0,0,0,0,0,0,0,-1,1574,1233,0,0
357,-209,0,0,0,0,0,0,0,0,0,-1,1581,1233,0,0
364,-209,0,0,0,0,0,0,0,0,0,-1,1588,1233,0,0
371,-209,0,0,0,0,0,0,0,0,0,-1,1595,1233,0,0
378,-209,0,0,0,0,0,0,0,0,0,-1,1602,1233,0,0
385,-209,0,0,0,0,0,0,0,0,0,-1,1609,1233,0,0
392,-209,0,0,0,0,0,0,0,0,0,-1,1616,1233,0,0
399,-209,0,0,0,0,0,0,0,0,0,-1,1623,1233,0,0
406,-209,0,0,0,0,0,0,0,0,0,-1,1630,1233,0,0
413,-209,0,0,0,0,0,0,0,0,0,-1,1637,1233,0,0
420,-209,0,0,0,0,0,0,0,0,0,-1,1644,1233,0,0
427,-209,0,0,0,0,0,0,0,0,0,-1,1651,1233,0,0
434,-209,0,0,0,0,0,0,0,0,0,-1,1658,1233,0,0
441,-209,0,0,0,0,0,0,0,0,0,-1,1665,1233,0,0
448,-209,0,0,0,0,0,0,0,0,0,-1,1672,1233,0,0
455,-209,0,0,0,0,0,0,0,0,0,-1,1679,1233,0,0
462,-209,0,0,0,0,0,0,0,0,0,-1,1686,1233,0,0
469,-209,0,0,0,0,0,0,0,0,0,-1,1693,1233,0,0
476,-209,0,0,0,0,0,0,0,0,0,-1,1700,1233,0,0
483,-209,0,0,0,0,0,0,0,0,0,-1,1707,1233,0,0
490,-209,0,0,0,0,0,0,0,0,0,-1,1714,1233,0,0
497,-209,0,0,0,0,0,0,0,0,0,-1,1721,1233,0,0
504,-209,0,0,0,0,0,0,0,0,0,-1,1728,1233,0,0
511,-209,0,0,0,0,0,0,0,0,0,-1,1735,1233,0,0
518,-209,0,0,0,0,0,0,0,0,0,-1,1742,1233,0,0
525,-209,0,0,0,0,0,0,0,0,0,-1,1749,1233,0,0
532,-209,0,0,0,0,0,0,0,0,0,-1,1756,1233,0,0
539,-209,0,0,0,0,0,0,0,0,0,-1,1763,1233,0,0
546,-209,0,0,0,0,0,0,0,0,0,-1,1770,1233,0,0
553,-209,0,0,0,0,0,0,0,0,0,-1,1777,1233,0,0
560,-209,0,0,0,0,0,0,0,0,0,-1,1784,1233,0,0
567,-209,0,0,0,0,0,0,0,0,0,-1,1791,1233,0,0
574,-209,0,0,0,0,0,0,0,0,0,-1,1798,1233,0,0
581,-209,0,0,0,0,0,0,0,0,0,-1,1805,1233,0,0
588,-209,0,0,0,0,0,0,0,0,0,-1,1812,1233,0,0
595,-209,0,0,0,0,0,0,0,0,0,-1,1819,1233,0,0
602,-209,0,0,0,0,0,0,0,0,0,-1,1826,1233,0,0
609,-209,0,0,0,0,0,0,0,0,0,-1,1833,1233,0,0
616,-209,0,0,0,0,0,0,0,0,0,-1,1840,1233,0,0
623,-209,30.2023,2.76843,0.00273777,0.00247284,-0.00351817,0.00612597,-0.000915355,-0.766581,0.0044208,0.0343349,1847,1233,30.2023,-2.76848
630,-209,30.234,2.64233,0.0025514,0.00266854,-0.00255486,0.0051655,5.44335e-05,-0.796858,0.00342567,0.0375981,1854,1233,30.234,-2.64228
637,-209,30.2808,2.65613,0.00222604,0.00252925,-0.00182579,0.00420972,0.000545566,-0.826821,0.00264346,0.0363623,1861,1233,30.2807,-2.65613
644,-209,30.3278,2.74707,0.00208453,0.00201973,-0.00113907,0.00319166,0.000912604,-0.771181,0.00189816,0.0299054,1868,1233,30.3277,-2.74701
651,-209,30.3058,2.81812,0.00218978,0.00122496,-0.000730474,0.00258276,0.000831975,-0.49357,0.00152229,0.0250568,1875,1233,30.3058,-2.81808
658,-209,30.2974,2.81995,0.00234068,0.000322779,-0.000417254,0.00242355,0.000239905,-0.196068,0.00154197,0.0219556,1882,1233,30.2973,-2.81996
665,-209,30.413,2.82727,0.00242756,-0.000376731,-0.000189531,0.00244032,-0.000389483,-0.0671789,0.00177104,0.0355058,1889,1233,30.413,-2.82724
672,-209,30.4509,2.79675,0,0,0,0,0,0,0,-1,1896,1233,30.4509,-2.79681
679,-209,30.2872,2.76953,0,0,0,0,0,0,0,-1,1903,1233,30.2872,-2.76957
686,-209,28.9886,2.96887,0,0,0,0,0,0,0,-1,1910,1233,28.9886,-2.96884
693,-209,25.2559,6.96472,0,0,0,0,0,0,0,-1,1917,1233,25.2559,-6.96469
700,-209,25.2798,6.56494,0.00124248,-0.00222441,0.000738775,0.00139335,-0.00237528,0.201438,0.0022003,0.0325682,1924,1233,25.2798,-6.56491
707,-209,25.3414,6.21033,0.00082996,-0.00216866,0.000816481,0.00103786,-0.00237657,0.249332,0.00202119,0.0258027,1931,1233,25.3414,-6.21034
714,-209,25.391,5.97644,0.000463329,-0.00205551,0.000986364,0.000803614,-0.00239579,0.332203,0.00192191,0.014145,1938,1233,25.391,-5.9764
721,-209,25.412,5.73218,0.000298596,-0.00203044,0.00110018,0.000736104,-0.00246795,0.378497,0.00193784,0.0122711,1945,1233,25.412,-5.73216
728,-209,25.4293,5.48474,0.000760117,-0.000662568,0.00108289,0.0013444,-0.00124685,0.494794,0.00149641,0.0116606,1952,1233,25.4294,-5.4847
735,-209,25.4288,5.24158,0.00195897,-0.000323113,0.00112798,0.0024224,-0.000786541,0.389821,0.00193126,0.0126685,1959,1233,25.4288,-5.2416
742,-209,25.4083,5.01892,0.0039111,9.57969e-05,0.00097164,0.0041443,-0.000137397,0.235545,0.00280978,0.0108499,1966,1233,25.4083,-5.01895
749,-209,25.3794,4.77441,0.00670552,0.000589714,0.000789508,0.00680579,0.000489438,0.126334,0.00438317,0.0094265,1973,1233,25.3794,-4.77444
756,-209,25.3579,4.53284,0.010575,0.00101618,0.000656821,0.0106199,0.000971259,0.0682861,0.0067794,0.00969316,1980,1233,25.3579,-4.53289
763,-209,25.3613,4.33838,0.0158836,0.00133755,0.000459001,0.0158981,0.00132308,0.0315132,0.0101864,0.0177158,1987,1233,25.3614,-4.33835
770,-209,25.577,4.1969,0.0229671,0.00166726,0.000316796,0.0229718,0.00166255,0.0148688,0.0147916,0.0474301,1994,1233,25.5771,-4.19688
777,-209,25.8043,4.03687,0,0,0,0,0,0,0,-1,2001,1233,25.8044,-4.03685
784,-209,25.6029,4.47339,0,0,0,0,0,0,0,-1,2008,1233,25.6029,-4.47344
791,-209,25.8767,3.54944,0,0,0,0,0,0,0,-1,2015,1233,25.8767,-3.54941
798,-209,26.5842,2.755,0,0,0,0,0,0,0,-1,2022,1233,26.5842,-2.75505
805,-209,0,0,0,0,0,0,0,0,0,-1,2029,1233,0,0
812,-209,0,0,0,0,0,0,0,0,0,-1,2036,1233,0,0
-700,-216,0,0,0,0,0,0,0,0,0,-1,524,1240,0,0
-693,-216,0,0,0,0,0,0,0,0,0,-1,531,1240,0,0
-686,-216,0,0,0,0,0,0,0,0,0,-1,538,1240,0,0
-679,-216,-16.6097,1.6969,0,0,0,0,0,0,0,-1,545,1240,-16.6097,-1.69695
-672,-216,-17.7657,0.771729,0,0,0,0,0,0,0,-1,552,1240,-17.7657,-0.771693
-665,-216,-17.8051,2.4342,0.0926248,-0.0247308,0.0362552,0.102922,-0.0350278,0.276728,0.0827982,0.0475391,559,1240,-17.8051,-2.43421
-658,-216,-17.8193,4.10168,0,0,0,0,0,0,0,-1,566,1240,-17.8193,-4.10171
-651,-216,-14.5793,1.79016,0,0,0,0,0,0,0,-1,573,1240,-14.5794,-1.79021
-644,-216,-14.9445,2.20813,0.040352,-0.0135564,0.0120013,0.0429031,-0.0161074,0.209447,0.0352211,0.0494006,580,1240,-14.9445,-2.20808
-637,-216,-15.6536,1.36902,0.0283168,-0.00988055,0.00713106,0.0296047,-0.0111684,0.178675,0.0243293,0.0414559,587,1240,-15.6536,-1.36903
-630,-216,-15.3635,1.58716,0.0190026,-0.00674303,0.00369004,0.019521,-0.00726147,0.139584,0.0159937,0.0277438,594,1240,-15.3635,-1.58716
-623,-216,-15.3094,1.9812,0.012272,-0.00467806,0.00113993,0.0123484,-0.00475438,0.0668511,0.0101936,0.0123186,601,1240,-15.3095,-1.98117
-616,-216,-15.3469,2.29053,0.0074229,-0.00298482,-0.000545228,0.00745138,-0.0030133,-0.0521965,0.00622027,0.013194,608,1240,-15.3469,-2.29055
-609,-216,-15.3497,2.5741,0.00279199,-0.000877646,-0.00182584,0.00354565,-0.00163131,-0.391473,0.00305628,0.0128819,615,1240,-15.3496,-2.57407
-602,-216,-15.347,2.84424,1.52159e-05,-4.77152e-05,-0.00183564,0.00181966,-0.00185216,-0.776828,0.00211995,0.0126756,622,1240,-15.347,-2.84425
-595,-216,-15.3388,3.10938,-0.00115412,0.000212796,-0.00180221,0.00145679,-0.00239812,-0.966636,0.00224764,0.0177586,629,1240,-15.3388,-3.1094
-588,-216,-15.3416,3.40674,-0.000979919,-0.000185288,-0.00208696,0.00154184,-0.00270705,-0.879462,0.00248366,0.0201882,636,1240,-15.3416,-3.40674
-581,-216,-15.3204,3.73059,-0.000876273,-0.000541464,-0.00240474,0.0017017,-0.00311943,-0.820149,0.00282331,0.0205782,643,1240,-15.3204,-3.73064
-574,-216,-15.3273,4.16785,-0.000697745,-0.000636971,-0.00247634,0.00180917,-0.00314389,-0.791533,0.00289405,0.0299619,650,1240,-15.3273,-4.16782
-567,-216,-15.6358,4.62634,-0.000756573,-0.000577676,-0.00242476,0.00175928,-0.00309353,-0.803835,0.00283686,0.0460546,657,1240,-15.6358,-4.62629
-560,-216,-16.0403,5.22498,0,0,0,0,0,0,0,-1,664,1240,-16.0403,-5.22501
-553,-216,-15.8158,0.999268,0,0,0,0,0,0,0,-1,671,1240,-15.8158,-0.999253
-546,-216,-20.7271,1.34192,0,0,0,0,0,0,0,-1,678,1240,-20.727,-1.34192
-539,-216,-20.7455,1.37463,-0.00177407,0.000540531,-0.00269611,0.00231723,-0.00355077,-0.98813,0.00341276,0.0401737,685,1240,-20.7455,-1.3746
-532,-216,-20.7358,1.21094,-0.00253133,0.00117799,-0.00275152,0.00264155,-0.00399489,-1.08195,0.00385802,0.0404564,692,1240,-20.7359,-1.21093
-525,-216,-20.8348,1.06384,-0.00353552,0.00206319,-0.00264834,0.00311742,-0.00458975,-1.19195,0.00447672,0.0432697,699,1240,-20.8348,-1.06385
-518,-216,-20.9702,1.1958,-0.00504131,0.00326904,-0.00227706,0.00385205,-0.00562433,-1.32014,0.00550299,0.0447247,706,1240,-20.9702,-1.19582
-511,-216,-20.8971,1.28491,-0.00687867,0.0051562,-0.00122673,0.00527997,-0.00700244,-1.47024,0.00711446,0.0427335,713,1240,-20.8971,-1.28491
-504,-216,-20.8453,1.23584,-0.00713036,0.00799267,0.00200869,0.00825493,-0.00739261,1.44097,0.00903868,0.0410345,720,1240,-20.8454,-1.23588
-497,-216,0,0,0,0,0,0,0,0,0,-1,727,1240,0,0
-490,-216,0,0,0,0,0,0,0,0,0,-1,734,1240,0,0
-483,-216,0,0,0,0,0,0,0,0,0,-1,741,1240,0,0
-476,-216,0,0,0,0,0,0,0,0,0,-1,748,1240,0,0
-469,-216,0,0,0,0,0,0,0,0,0,-1,755,1240,0,0
-462,-216,0,0,0,0,0,0,0,0,0,-1,762,1240,0,0
-455,-216,0,0,0,0,0,0,0,0,0,-1,769,1240,0,0
-448,-216,0,0,0,0,0,0,0,0,0,-1,776,1240,0,0
-441,-216,0,0,0,0,0,0,0,0,0,-1,783,1240,0,0
-434,-216,0,0,0,0,0,0,0,0,0,-1,790,1240,0,0
-427,-216,0,0,0,0,0,0,0,0,0,-1,797,1240,0,0
-420,-216,0,0,0,0,0,0,0,0,0,-1,804,1240,0,0
-413,-216,0,0,0,0,0,0,0,0,0,-1,811,1240,0,0
-406,-216,0,0,0,0,0,0,0,0,0,-1,818,1240,0,0
-399,-216,0,0,0,0,0,0,0,0,0,-1,825,1240,0,0
-392,-216,0,0,0,0,0,0,0,0,0,-1,832,1240,0,0
-385,-216,0,0,0,0,0,0,0,0,0,-1,839,1240,0,0
-378,-216,0,0,0,0,0,0,0,0,0,-1,846,1240,0,0
-371,-216,0,0,0,0,0,0,0,0,0,-1,853,1240,0,0
-364,-216,0,0,0,0,0,0,0,0,0,-1,860,1240,0,0
-357,-216,0,0,0,0,0,0,0,0,0,-1,867,1240,0,0
-350,-216,0,0,0,0,0,0,0,0,0,-1,874,1240,0,0
-343,-216,0,0,0,0,0,0,0,0,0,-1,881,1240,0,0
-336,-216,0,0,0,0,0,0,0,0,0,-1,888,1240,0,0
-329,-216,0,0,0,0,0,0,0,0,0,-1,895,1240,0,0
-322,-216,0,0,0,0,0,0,0,0,0,-1,902,1240,0,0
-315,-216,0,0,0,0,0,0,0,0,0,-1,909,1240,0,0
-308,-216,0,0,0,0,0,0,0,0,0,-1,916,1240,0,0
-301,-216,0,0,0,0,0,0,0,0,0,-1,923,1240,0,0
-294,-216,0,0,0,0,0,0,0,0,0,-1,930,1240,0,0
-287,-216,0,0,0,0,0,0,0,0,0,-1,937,1240,0,0
-280,-216,0,0,0,0,0,0,0,0,0,-1,944,1240,0,0
-273,-216,0,0,0,0,0,0,0,0,0,-1,951,1240,0,0
-266,-216,0,0,0,0,0,0,0,0,0,-1,958,1240,0,0
-259,-216,0,0,0,0,0,0,0,0,0,-1,965,1240,0,0
-252,-216,0,0,0,0,0,0,0,0,0,-1,972,1240,0,0
-245,-216,0,0,0,0,0,0,0,0,0,-1,979,1240,0,0
-238,-216,0,0,0,0,0,0,0,0,0,-1,986,1240,0,0
-231,-216,0,0,0,0,0,0,0,0,0,-1,993,1240,0,0
-224,-216,0,0,0,0,0,0,0,0,0,-1,1000,1240,0,0
-217,-216,0,0,0,0,0,0,0,0,0,-1,1007,1240,0,0
-210,-216,0,0,0,0,0,0,0,0,0,-1,1014,1240,0,0
-203,-216,0,0,0,0,0,0,0,0,0,-1,1021,1240,0,0
-196,-216,0,0,0,0,0,0,0,0,0,-1,1028,1240,0,0
-189,-216,0,0,0,0,0,0,0,0,0,-1,1035,1240,0,0
-182,-216,0,0,0,0,0,0,0,0,0,-1,1042,1240,0,0
-175,-216,0,0,0,0,0,0,0,0,0,-1,1049,1240,0,0
-168,-216,0,0,0,0,0,0,0,0,0,-1,1056,1240,0,0
-161,-216,0,0,0,0,0,0,0,0,0,-1,1063,1240,0,0
-154,-216,0,0,0,0,0,0,0,0,0,-1,1070,1240,0,0
-147,-216,0,0,0,0,0,0,0,0,0,-1,1077,1240,0,0
-140,-216,0,0,0,0,0,0,0,0,0,-1,1084,1240,0,0
-133,-216,0,0,0,0,0,0,0,0,0,-1,1091,1240,0,0
-126,-216,0,0,0,0,0,0,0,0,0,-1,1098,1240,0,0
-119,-216,0,0,0,0,0,0,0,0,0,-1,1105,1240,0,0
-112,-216,0,0,0,0,0,0,0,0,0,-1,1112,1240,0,0
-105,-216,0,0,0,0,0,0,0,0,0,-1,1119,1240,0,0
-98,-216,0,0,0,0,0,0,0,0,0,-1,1126,1240,0,0
-91,-216,0,0,0,0,0,0,0,0,0,-1,1133,1240,0,0
-84,-216,0,0,0,0,0,0,0,0,0,-1,1140,1240,0,0
-77,-216,0,0,0,0,0,0,0,0,0,-1,1147,1240,0,0
-70,-216,0,0,0,0,0,0,0,0,0,-1,1154,1240,0,0
-63,-216,0,0,0,0,0,0,0,0,0,-1,1161,1240,0,0
-56,-216,0,0,0,0,0,0,0,0,0,-1,1168,1240,0,0
-49,-216,0,0,0,0,0,0,0,0,0,-1,1175,1240,0,0
-42,-216,0,0,0,0,0,0,0,0,0,-1,1182,1240,0,0
-35,-216,0,0,0,0,0,0,0,0,0,-1,1189,1240,0,0
-28,-216,0,0,0,0,0,0,0,0,0,-1,1196,1240,0,0
-21,-216,0,0,0,0,0,0,0,0,0,-1,1203,1240,0,0
-14,-216,0,0,0,0,0,0,0,0,0,-1,1210,1240,0,0
-7,-216,0,0,0,0,0,0,0,0,0,-1,1217,1240,0,0
0,-216,0,0,0,0,0,0,0,0,0,-1,1224,1240,0,0
7,-216,0,0,0,0,0,0,0,0,0,-1,1231,1240,0,0
14,-216,0,0,0,0,0,0,0,0,0,-1,1238,1240,0,0
21,-216,0,0,0,0,0,0,0,0,0,-1,1245,1240,0,0
28,-216,0,0,0,0,0,0,0,0,0,-1,1252,1240,0,0
35,-216,0,0,0,0,0,0,0,0,0,-1,1259,1240,0,0
42,-216,0,0,0,0,0,0,0,0,0,-1,1266,1240,0,0
49,-216,0,0,0,0,0,0,0,0,0,-1,1273,1240,0,0
56,-216,0,0,0,0,0,0,0,0,0,-1,1280,1240,0,0
63,-216,0,0,0,0,0,0,0,0,0,-1,1287,1240,0,0
70,-216,0,0,0,0,0,0,0,0,0,-1,1294,1240,0,0
77,-216,0,0,0,0,0,0,0,0,0,-1,1301,1240,0,0
84,-216,0,0,0,0,0,0,0,0,0,-1,1308,1240,0,0
91,-216,0,0,0,0,0,0,0,0,0,-1,1315,1240,0,0
98,-216,0,0,0,0,0,0,0,0,0,-1,1322,1240,0,0
105,-216,0,0,0,0,0,0,0,0,0,-1,1329,1240,0,0
112,-216,0,0,0,0,0,0,0,0,0,-1,1336,1240,0,0
119,-216,0,0,0,0,0,0,0,0,0,-1,1343,1240,0,0
126,-216,0,0,0,0,0,0,0,0,0,-1,1350,1240,0,0
133,-216,0,0,0,0,0,0,0,0,0,-1,1357,1240,0,0
140,-216,0,0,0,0,0,0,0,0,0,-1,1364,1240,0,0
147,-216,0,0,0,0,0,0,0,0,0,-1,1371,1240,0,0
154,-216,0,0,0,0,0,0,0,0,0,-1,1378,1240,0,0
161,-216,0,0,0,0,0,0,0,0,0,-1,1385,1240,0,0
168,-216,0,0,0,0,0,0,0,0,0,-1,1392,1240,0,0
175,-216,0,0,0,0,0,0,0,0,0,-1,1399,1240,0,0
182,-216,0,0,0,0,0,0,0,0,0,-1,1406,1240,0,0
189,-216,0,0,0,0,0,0,0,0,0,-1,1413,1240,0,0
196,-216,0,0,0,0,0,0,0,0,0,-1,1420,1240,0,0
203,-216,0,0,0,0,0,0,0,0,0,-1,1427,1240,0,0
210,-216,0,0,0,0,0,0,0,0,0,-1,1434,1240,0,0
217,-216,0,0,0,0,0,0,0,0,0,-1,1441,1240,0,0
224,-216,0,0,0,0,0,0,0,0,0,-1,1448,1240,0,0
231,-216,0,0,0,0,0,0,0,0,0,-1,1455,1240,0,0
238,-216,0,0,0,0,0,0,0,0,0,-1,1462,1240,0,0
245,-216,0,0,0,0,0,0,0,0,0,-1,1469,1240,0,0
252,-216,0,0,0,0,0,0,0,0,0,-1,1476,1240,0,0
259,-216,0,0,0,0,0,0,0,0,0,-1,1483,1240,0,0
266,-216,0,0,0,0,0,0,0,0,0,-1,1490,1240,0,0
273,-216,0,0,0,0,0,0,0,0,0,-1,1497,1240,0,0
280,-216,0,0,0,0,0,0,0,0,0,-1,1504,1240,0,0
287,-216,0,0,0,0,0,0,0,0,0,-1,1511,1240,0,0
294,-216,0,0,0,0,0,0,0,0,0,-1,1518,1240,0,0
301,-216,0,0,0,0,0,0,0,0,0,-1,1525,1240,0,0
308,-216,0,0,0,0,0,0,0,0,0,-1,1532,1240,0,0
315,-216,0,0,0,0,0,0,0,0,0,-1,1539,1240,0,0
322,-216,0,0,0,0,0,0,0,0,0,-1,1546,1240,0,0
329,-216,0,0,0,0,0,0,0,0,0,-1,1553,1240,0,0
336,-216,0,0,0,0,0,0,0,0,0,-1,1560,1240,0,0
343,-216,0,0,0,0,0,0,0,0,0,-1,1567,1240,0,0
350,-216,0,0,0,0,0,0,0,0,0,-1,1574,1240,0,0
357,-216,0,0,0,0,0,0,0,0,0,-1,1581,1240,0,0
364,-216,0,0,0,0,0,0,0,0,0,-1,1588,1240,0,0
371,-216,0,0,0,0,0,0,0,0,0,-1,1595,1240,0,0
378,-216,0,0,0,0,0,0,0,0,0,-1,1602,1240,0,0
385,-216,0,0,0,0,0,0,0,0,0,-1,1609,1240,0,0
392,-216,0,0,0,0,0,0,0,0,0,-1,1616,1240,0,0
399,-216,0,0,0,0,0,0,0,0,0,-1,1623,1240,0,0
406,-216,0,0,0,0,0,0,0,0,0,-1,1630,1240,0,0
413,-216,0,0,0,0,0,0,0,0,0,-1,1637,1240,0,0
420,-216,0,0,0,0,0,0,0,0,0,-1,1644,1240,0,0
427,-216,0,0,0,0,0,0,0,0,0,-1,1651,1240,0,0
434,-216,0,0,0,0,0,0,0,0,0,-1,1658,1240,0,0
441,-216,0,0,0,0,0,0,0,0,0,-1,1665,1240,0,0
448,-216,0,0,0,0,0,0,0,0,0,-1,1672,1240,0,0
455,-216,0,0,0,0,0,0,0,0,0,-1,1679,1240,0,0
462,-216,0,0,0,0,0,0,0,0,0,-1,1686,1240,0,0
469,-216,0,0,0,0,0,0,0,0,0,-1,1693,1240,0,0
476,-216,0,0,0,0,0,0,0,0,0,-1,1700,1240,0,0
483,-216,0,0,0,0,0,0,0,0,0,-1,1707,1240,0,0
490,-216,0,0,0,0,0,0,0,0,0,-1,1714,1240,0,0
497,-216,0,0,0,0,0,0,0,0,0,-1,1721,1240,0,0
504,-216,0,0,0,0,0,0,0,0,0,-1,1728,1240,0,0
511,-216,0,0,0,0,0,0,0,0,0,-1,1735,1240,0,0
518,-216,0,0,0,0,0,0,0,0,0,-1,1742,1240,0,0
525,-216,0,0,0,0,0,0,0,0,0,-1,1749,1240,0,0
532,-216,0,0,0,0,0,0,0,0,0,-1,1756,1240,0,0
539,-216,0,0,0,0,0,0,0,0,0,-1,1763,1240,0,0
546,-216,0,0,0,0,0,0,0,0,0,-1,1770,1240,0,0
553,-216,0,0,0,0,0,0,0,0,0,-1,1777,1240,0,0
560,-216,0,0,0,0,0,0,0,0,0,-1,1784,1240,0,0
567,-216,0,0,0,0,0,0,0,0,0,-1,1791,1240,0,0
574,-216,0,0,0,0,0,0,0,0,0,-1,1798,1240,0,0
581,-216,0,0,0,0,0,0,0,0,0,-1,1805,1240,0,0
588,-216,0,0,0,0,0,0,0,0,0,-1,1812,1240,0,0
595,-216,0,0,0,0,0,0,0,0,0,-1,1819,1240,0,0
602,-216,0,0,0,0,0,0,0,0,0,-1,1826,1240,0,0
609,-216,0,0,0,0,0,0,0,0,0,-1,1833,1240,0,0
616,-216,0,0,0,0,0,0,0,0,0,-1,1840,1240,0,0
623,-216,30.1112,2.83948,0.00165046,0.00200982,-0.00275055,0.00458655,-0.00092627,-0.818015,0.00340867,0.0377681,1847,1240,30.1112,-2.83949
630,-216,30.2134,2.77283,0.00185175,0.0031782,-0.00241813,0.00502241,7.54441e-06,-0.919244,0.00334576,0.0354021,1854,1240,30.2134,-2.7728
637,-216,30.274,2.78735,0.00189701,0.00384208,-0.00210079,0.00518453,0.000554566,-1.00218,0.00328713,0.0330711,1861,1240,30.274,-2.78734
644,-216,30.2585,2.87244,0.0020517,0.0037056,-0.00161812,0.00469584,0.00106146,-1.02163,0.00284356,0.0276583,1868,1240,30.2586,-2.87241
651,-216,30.275,2.86414,0.00230033,0.00295554,-0.00124676,0.00391702,0.00133885,-0.913876,0.00229892,0.0232903,1875,1240,30.275,-2.86412
658,-216,30.3082,2.84534,0.00249649,0.00195042,-0.000869026,0.00313436,0.00131255,-0.633188,0.00181757,0.0323822,1882,1240,30.3082,-2.84535
665,-216,30.3406,2.8252,0.00259222,0.00107155,-0.000536976,0.00276272,0.000901049,-0.307449,0.00162688,0.043772,1889,1240,30.3406,-2.82525
672,-216,30.4231,2.83545,0.00251717,0.000230637,-0.000256381,0.00254557,0.000202243,-0.110301,0.00163381,0.049831,1896,1240,30.4231,-2.83541
679,-216,30.5142,2.80847,0,0,0,0,0,0,0,-1,1903,1240,30.5141,-2.80846
686,-216,21.5172,6.19458,0,0,0,0,0,0,0,-1,1910,1240,21.5172,-6.19453
693,-216,25.1549,6.83032,0,0,0,0,0,0,0,-1,1917,1240,25.1549,-6.83029
700,-216,25.0918,6.57312,0.00167088,-0.00197781,0.000772589,0.00182773,-0.00213466,0.200294,0.00228998,0.0275082,1924,1240,25.0918,-6.57313
707,-216,25.1156,6.23865,0.00127555,-0.00195278,0.000809116,0.00146698,-0.00214421,0.232328,0.00209711,0.0206481,1931,1240,25.1156,-6.23867
714,-216,25.1688,5.97375,0.000939367,-0.00186674,0.000941097,0.00122576,-0.00215313,0.295412,0.00197514,0.0141104,1938,1240,25.1688,-5.97376
721,-216,25.1736,5.73315,0.000767529,-0.0018795,0.000986315,0.00109462,-0.00220659,0.320219,0.00194166,0.0126369,1945,1240,25.1736,-5.7331
728,-216,25.2017,5.48193,0.00113445,-0.000464154,0.000945324,0.0015731,-0.000902802,0.434451,0.00144682,0.0109441,1952,1240,25.2017,-5.48189
735,-216,25.2069,5.23743,0.00214897,-5.88331e-05,0.00103142,0.00255585,-0.000465704,0.375734,0.00187847,0.0104526,1959,1240,25.2069,-5.23739
742,-216,25.1693,5.02405,0.00376855,0.000394905,0.000947068,0.00401624,0.000147223,0.255796,0.00262979,0.0108496,1966,1240,25.1693,-5.02407
749,-216,25.1552,4.76514,0.00610323,0.000901993,0.000830034,0.00623248,0.000772745,0.154474,0.00392286,0.00856241,1973,1240,25.1552,-4.76508
756,-216,25.1271,4.52087,0.00946133,0.00138076,0.000681193,0.00951836,0.00132374,0.0835147,0.00595358,0.0090322,1980,1240,25.1271,-4.52084
763,-216,25.1111,4.30627,0.01425,0.00178705,0.000457963,0.0142668,0.00177024,0.0366799,0.00897949,0.0155499,1987,1240,25.1111,-4.30632
770,-216,25.1879,4.07117,0.0208265,0.00221067,0.000215634,0.020829,0.00220817,0.0115813,0.0132116,0.0393733,1994,1240,25.1878,-4.07118
777,-216,25.2725,3.83362,0,0,0,0,0,0,0,-1,2001,1240,25.2725,-3.83365
784,-216,24.8131,4.78357,0,0,0,0,0,0,0,-1,2008,1240,24.8131,-4.78357
791,-216,25.0714,3.76318,0,0,0,0,0,0,0,-1,2015,1240,25.0714,-3.76314
798,-216,0,0,0,0,0,0,0,0,0,-1,2022,1240,0,0
805,-216,0,0,0,0,0,0,0,0,0,-1,2029,1240,0,0
812,-216,0,0,0,0,0,0,0,0,0,-1,2036,1240,0,0
-700,-223,0,0,0,0,0,0,0,0,0,-1,524,1247,0,0
-693,-223,0,0,0,0,0,0,0,0,0,-1,531,1247,0,0
-686,-223,0,0,0,0,0,0,0,0,0,-1,538,1247,0,0
-679,-223,0,0,0,0,0,0,0,0,0,-1,545,1247,0,0
-672,-223,-17.9053,1.37146,0,0,0,0,0,0,0,-1,552,1247,-17.9053,-1.37146
-665,-223,-17.7617,3.07495,0,0,0,0,0,0,0,-1,559,1247,-17.7617,-3.0749
-658,-223,-15.111,0.405029,0,0,0,0,0,0,0,-1,566,1247,-15.111,-0.405029
-651,-223,-15.5536,3.49109,0,0,0,0,0,0,0,-1,573,1247,-15.5536,-3.4911
-644,-223,-14.7427,2.72302,0,0,0,0,0,0,0,-1,580,1247,-14.7427,-2.72304
-637,-223,-15.0751,1.67212,0.0404068,-0.0113968,0.00707612,0.041356,-0.012346,0.133341,0.0324778,0.0448729,587,1247,-15.0751,-1.67213
-630,-223,-15.4345,1.50061,0.0274467,-0.00758601,0.00358273,0.0278093,-0.00794866,0.100877,0.0216804,0.0373327,594,1247,-15.4345,-1.50065
-623,-223,-15.043,1.95459,0.0180652,-0.00504475,0.00109214,0.0181167,-0.00509624,0.0471183,0.0140873,0.0202271,601,1247,-15.043,-1.95464
-616,-223,-15.0621,2.2887,0.0114013,-0.00310346,-0.000469708,0.0114165,-0.00311866,-0.0323377,0.00883598,0.0146061,608,1247,-15.0621,-2.28872
-609,-223,-15.0581,2.56873,0.00537455,-0.000825644,-0.0017006,0.00581036,-0.00126145,-0.250869,0.00435538,0.0112814,615,1247,-15.0581,-2.56877
-602,-223,-15.0656,2.83679,0.00174672,0.000157317,-0.00156576,0.00270791,-0.000803874,-0.550563,0.00212455,0.0134622,622,1247,-15.0656,-2.83679
-595,-223,-15.0551,3.11633,0.000433315,0.000453922,-0.00133437,0.00177803,-0.000890792,-0.789259,0.00156897,0.0194818,629,1247,-15.0551,-3.11633
-588,-223,-15.0519,3.40527,0.000897965,0.000120974,-0.00138799,0.0019508,-0.00093186,-0.648941,0.00169861,0.0227161,636,1247,-15.0519,-3.40526
-581,-223,-15.082,3.72937,0.00116777,-0.00015213,-0.00166691,0.00230062,-0.00128497,-0.596909,0.00209764,0.0214514,643,1247,-15.0821,-3.72937
-574,-223,-15.0461,4.02368,0.00138294,-0.000212886,-0.00178519,0.00254042,-0.00137037,-0.575235,0.00229133,0.0186527,650,1247,-15.0461,-4.02363
-567,-223,-14.7916,4.45886,0.00112511,-9.06086e-05,-0.00180416,0.00242106,-0.00138656,-0.62291,0.00222521,0.0299982,657,1247,-14.7915,-4.45887
-560,-223,-14.6038,4.91968,0,0,0,0,0,0,0,-1,664,1247,-14.6038,-4.91963
-553,-223,-11.4025,4.14722,0,0,0,0,0,0,0,-1,671,1247,-11.4025,-4.14719
-546,-223,-20.411,1.271,0,0,0,0,0,0,0,-1,678,1247,-20.411,-1.27101
-539,-223,-20.4304,1.54224,-0.0011825,0.00146164,-0.00243845,0.00291336,-0.00263422,-1.03381,0.00320425,0.0456591,685,1247,-20.4304,-1.54228
-532,-223,-20.4208,1.30566,-0.00242931,0.00222207,-0.00267791,0.00344321,-0.00365045,-1.14296,0.00409611,0.0462116,692,1247,-20.4208,-1.30571
-525,-223,-20.769,0.973877,0,0,0,0,0,0,0,-1,699,1247,-20.769,-0.973891
-518,-223,-20.8726,1.04041,-0.00633801,0.00462824,-0.00300444,0.00539742,-0.00710718,-1.32017,0.007242,0.0465769,706,1247,-20.8727,-1.04035
-511,-223,-20.9952,1.23438,-0.0088515,0.00671885,-0.00262565,0.00714969,-0.00928235,-1.40816,0.00951364,0.0399565,713,1247,-20.9952,-1.2344
-504,-223,-21.0622,1.24927,-0.00983043,0.00992018,-0.000230346,0.00992286,-0.00983311,-1.55914,0.0114062,0.0425475,720,1247,-21.0622,-1.24933
-497,-223,0,0,0,0,0,0,0,0,0,-1,727,1247,0,0
-490,-223,0,0,0,0,0,0,0,0,0,-1,734,1247,0,0
-483,-223,0,0,0,0,0,0,0,0,0,-1,741,1247,0,0
-476,-223,0,0,0,0,0,0,0,0,0,-1,748,1247,0,0
-469,-223,0,0,0,0,0,0,0,0,0,-1,755,1247,0,0
-462,-223,0,0,0,0,0,0,0,0,0,-1,762,1247,0,0
-455,-223,0,0,0,0,0,0,0,0,0,-1,769,1247,0,0
-448,-223,0,0,0,0,0,0,0,0,0,-1,776,1247,0,0
-441,-223,0,0,0,0,0,0,0,0,0,-1,783,1247,0,0
-434,-223,0,0,0,0,0,0,0,0,0,-1,790,1247,0,0
-427,-223,0,0,0,0,0,0,0,0,0,-1,797,1247,0,0
-420,-223,0,0,0,0,0,0,0,0,0,-1,804,1247,0,0
-413,-223,0,0,0,0,0,0,0,0,0,-1,811,1247,0,0
-406,-223,0,0,0,0,0,0,0,0,0,-1,818,1247,0,0
-399,-223,0,0,0,0,0,0,0,0,0,-1,825,1247,0,0
-392,-223,0,0,0,0,0,0,0,0,0,-1,832,1247,0,0
-385,-223,0,0,0,0,0,0,0,0,0,-1,839,1247,0,0
-378,-223,0,0,0,0,0,0,0,0,0,-1,846,1247,0,0
-371,-223,0,0,0,0,0,0,0,0,0,-1,853,1247,0,0
-364,-223,0,0,0,0,0,0,0,0,0,-1,860,1247,0,0
-357,-223,0,0,0,0,0,0,0,0,0,-1,867,1247,0,0
-350,-223,0,0,0,0,0,0,0,0,0,-1,874,1247,0,0
-343,-223,0,0,0,0,0,0,0,0,0,-1,881,1247,0,0
-336,-223,0,0,0,0,0,0,0,0,0,-1,888,1247,0,0
-329,-223,0,0,0,0,0,0,0,0,0,-1,895,1247,0,0
-322,-223,0,0,0,0,0,0,0,0,0,-1,902,1247,0,0
-315,-223,0,0,0,0,0,0,0,0,0,-1,909,1247,0,0
-308,-223,0,0,0,0,0,0,0,0,0,-1,916,1247,0,0
-301,-223,0,0,0,0,0,0,0,0,0,-1,923,1247,0,0
-294,-223,0,0,0,0,0,0,0,0,0,-1,930,1247,0,0
-287,-223,0,0,0,0,0,0,0,0,0,-1,937,1247,0,0
-280,-223,0,0,0,0,0,0,0,0,0,-1,944,1247,0,0
-273,-223,0,0,0,0,0,0,0,0,0,-1,951,1247,0,0
-266,-223,0,0,0,0,0,0,0,0,0,-1,958,1247,0,0
-259,-223,0,0,0,0,0,0,0,0,0,-1,965,1247,0,0
-252,-223,0,0,0,0,0,0,0,0,0,-1,972,1247,0,0
-245,-223,0,0,0,0,0,0,0,0,0,-1,979,1247,0,0
-238,-223,0,0,0,0,0,0,0,0,0,-1,986,1247,0,0
-231,-223,0,0,0,0,0,0,0,0,0,-1,993,1247,0,0
-224,-223,0,0,0,0,0,0,0,0,0,-1,1000,1247,0,0
-217,-223,0,0,0,0,0,0,0,0,0,-1,1007,1247,0,0
-210,-223,0,0,0,0,0,0,0,0,0,-1,1014,1247,0,0
-203,-223,0,0,0,0,0,0,0,0,0,-1,1021,1247,0,0
-196,-223,0,0,0,0,0,0,0,0,0,-1,1028,1247,0,0
-189,-223,0,0,0,0,0,0,0,0,0,-1,1035,1247,0,0
-182,-223,0,0,0,0,0,0,0,0,0,-1,1042,1247,0,0
-175,-223,0,0,0,0,0,0,0,0,0,-1,1049,1247,0,0
-168,-223,0,0,0,0,0,0,0,0,0,-1,1056,1247,0,0
-161,-223,0,0,0,0,0,0,0,0,0,-1,1063,1247,0,0
-154,-223,0,0,0,0,0,0,0,0,0,-1,1070,1247,0,0
-147,-223,0,0,0,0,0,0,0,0,0,-1,1077,1247,0,0
-140,-223,0,0,0,0,0,0,0,0,0,-1,1084,1247,0,0
-133,-223,0,0,0,0,0,0,0,0,0,-1,1091,1247,0,0
-126,-223,0,0,0,0,0,0,0,0,0,-1,1098,1247,0,0
-119,-223,0,0,0,0,0,0,0,0,0,-1,1105,1247,0,0
-112,-223,0,0,0,0,0,0,0,0,0,-1,1112,1247,0,0
-105,-223,0,0,0,0,0,0,0,0,0,-1,1119,1247,0,0
-98,-223,0,0,0,0,0,0,0,0,0,-1,1126,1247,0,0
-91,-223,0,0,0,0,0,0,0,0,0,-1,1133,1247,0,0
-84,-223,0,0,0,0,0,0,0,0,0,-1,1140,1247,0,0
-77,-223,0,0,0,0,0,0,0,0,0,-1,1147,1247,0,0
-70,-223,0,0,0,0,0,0,0,0,0,-1,1154,1247,0,0
-63,-223,0,0,0,0,0,0,0,0,0,-1,1161,1247,0,0
-56,-223,0,0,0,0,0,0,0,0,0,-1,1168,1247,0,0
-49,-223,0,0,0,0,0,0,0,0,0,-1,1175,1247,0,0
-42,-223,0,0,0,0,0,0,0,0,0,-1,1182,1247,0,0
-35,-223,0,0,0,0,0,0,0,0,0,-1,1189,1247,0,0
-28,-223,0,0,0,0,0,0,0,0,0,-1,1196,1247,0,0
-21,-223,0,0,0,0,0,0,0,0,0,-1,1203,1247,0,0
-14,-223,0,0,0,0,0,0,0,0,0,-1,1210,1247,0,0
-7,-223,0,0,0,0,0,0,0,0,0,-1,1217,1247,0,0
0,-223,0,0,0,0,0,0,0,0,0,-1,1224,1247,0,0
7,-223,0,0,0,0,0,0,0,0,0,-1,1231,1247,0,0
14,-223,0,0,0,0,0,0,0,0,0,-1,1238,1247,0,0
21,-223,0,0,0,0,0,0,0,0,0,-1,1245,1247,0,0
28,-223,0,0,0,0,0,0,0,0,0,-1,1252,1247,0,0
35,-223,0,0,0,0,0,0,0,0,0,-1,1259,1247,0,0
42,-223,0,0,0,0,0,0,0,0,0,-1,1266,1247,0,0
49,-223,0,0,0,0,0,0,0,0,0,-1,1273,1247,0,0
56,-223,0,0,0,0,0,0,0,0,0,-1,1280,1247,0,0
63,-223,0,0,0,0,0,0,0,0,0,-1,1287,1247,0,0
70,-223,0,0,0,0,0,0,0,0,0,-1,1294,1247,0,0
77,-223,0,0,0,0,0,0,0,0,0,-1,1301,1247,0,0
84,-223,0,0,0,0,0,0,0,0,0,-1,1308,1247,0,0
91,-223,0,0,0,0,0,0,0,0,0,-1,1315,1247,0,0
98,-223,0,0,0,0,0,0,0,0,0,-1,1322,1247,0,0
105,-223,0,0,0,0,0,0,0,0,0,-1,1329,1247,0,0
112,-223,0,0,0,0,0,0,0,0,0,-1,1336,1247,0,0
119,-223,0,0,0,0,0,0,0,0,0,-1,1343,1247,0,0
126,-223,0,0,0,0,0,0,0,0,0,-1,1350,1247,0,0
133,-223,0,0,0,0,0,0,0,0,0,-1,1357,1247,0,0
140,-223,0,0,0,0,0,0,0,0,0,-1,1364,1247,0,0
147,-223,0,0,0,0,0,0,0,0,0,-1,1371,1247,0,0
154,-223,0,0,0,0,0,0,0,0,0,-1,1378,1247,0,0
161,-223,0,0,0,0,0,0,0,0,0,-1,1385,1247,0,0
168,-223,0,0,0,0,0,0,0,0,0,-1,1392,1247,0,0
175,-223,0,0,0,0,0,0,0,0,0,-1,1399,1247,0,0
182,-223,0,0,0,0,0,0,0,0,0,-1,1406,1247,0,0
189,-223,0,0,0,0,0,0,0,0,0,-1,1413,1247,0,0
196,-223,0,0,0,0,0,0,0,0,0,-1,1420,1247,0,0
203,-223,0,0,0,0,0,0,0,0,0,-1,1427,1247,0,0
210,-223,0,0,0,0,0,0,0,0,0,-1,1434,1247,0,0
217,-223,0,0,0,0,0,0,0,0,0,-1,1441,1247,0,0
224,-223,0,0,0,0,0,0,0,0,0,-1,1448,1247,0,0
231,-223,0,0,0,0,0,0,0,0,0,-1,1455,1247,0,0
238,-223,0,0,0,0,0,0,0,0,0,-1,1462,1247,0,0
245,-223,0,0,0,0,0,0,0,0,0,-1,1469,1247,0,0
252,-223,0,0,0,0,0,0,0,0,0,-1,1476,1247,0,0
259,-223,0,0,0,0,0,0,0,0,0,-1,1483,1247,0,0
266,-223,0,0,0,0,0,0,0,0,0,-1,1490,1247,0,0
273,-223,0,0,0,0,0,0,0,0,0,-1,1497,1247,0,0
280,-223,0,0,0,0,0,0,0,0,0,-1,1504,1247,0,0
287,-223,0,0,0,0,0,0,0,0,0,-1,1511,1247,0,0
294,-223,0,0,0,0,0,0,0,0,0,-1,1518,1247,0,0
301,-223,0,0,0,0,0,0,0,0,0,-1,1525,1247,0,0
308,-223,0,0,0,0,0,0,0,0,0,-1,1532,1247,0,0
315,-223,0,0,0,0,0,0,0,0,0,-1,1539,1247,0,0
322,-223,0,0,0,0,0,0,0,0,0,-1,1546,1247,0,0
329,-223,0,0,0,0,0,0,0,0,0,-1,1553,1247,0,0
336,-223,0,0,0,0,0,0,0,0,0,-1,1560,1247,0,0
343,-223,0,0,0,0,0,0,0,0,0,-1,1567,1247,0,0
350,-223,0,0,0,0,0,0,0,0,0,-1,1574,1247,0,0
357,-223,0,0,0,0,0,0,0,0,0,-1,1581,1247,0,0
364,-223,0,0,0,0,0,0,0,0,0,-1,1588,1247,0,0
371,-223,0,0,0,0,0,0,0,0,0,-1,1595,1247,0,0
378,-223,0,0,0,0,0,0,0,0,0,-1,1602,1247,0,0
385,-223,0,0,0,0,0,0,0,0,0,-1,1609,1247,0,0
392,-223,0,0,0,0,0,0,0,0,0,-1,1616,1247,0,0
399,-223,0,0,0,0,0,0,0,0,0,-1,1623,1247,0,0
406,-223,0,0,0,0,0,0,0,0,0,-1,1630,1247,0,0
413,-223,0,0,0,0,0,0,0,0,0,-1,1637,1247,0,0
420,-223,0,0,0,0,0,0,0,0,0,-1,1644,1247,0,0
427,-223,0,0,0,0,0,0,0,0,0,-1,1651,1247,0,0
434,-223,0,0,0,0,0,0,0,0,0,-1,1658,1247,0,0
441,-223,0,0,0,0,0,0,0,0,0,-1,1665,1247,0,0
448,-223,0,0,0,0,0,0,0,0,0,-1,1672,1247,0,0
455,-223,0,0,0,0,0,0,0,0,0,-1,1679,1247,0,0
462,-223,0,0,0,0,0,0,0,0,0,-1,1686,1247,0,0
469,-223,0,0,0,0,0,0,0,0,0,-1,1693,1247,0,0
476,-223,0,0,0,0,0,0,0,0,0,-1,1700,1247,0,0
483,-223,0,0,0,0,0,0,0,0,0,-1,1707,1247,0,0
490,-223,0,0,0,0,0,0,0,0,0,-1,1714,1247,0,0
497,-223,0,0,0,0,0,0,0,0,0,-1,1721,1247,0,0
504,-223,0,0,0,0,0,0,0,0,0,-1,1728,1247,0,0
511,-223,0,0,0,0,0,0,0,0,0,-1,1735,1247,0,0
518,-223,0,0,0,0,0,0,0,0,0,-1,1742,1247,0,0
525,-223,0,0,0,0,0,0,0,0,0,-1,1749,1247,0,0
532,-223,0,0,0,0,0,0,0,0,0,-1,1756,1247,0,0
539,-223,0,0,0,0,0,0,0,0,0,-1,1763,1247,0,0
546,-223,0,0,0,0,0,0,0,0,0,-1,1770,1247,0,0
553,-223,0,0,0,0,0,0,0,0,0,-1,1777,1247,0,0
560,-223,0,0,0,0,0,0,0,0,0,-1,1784,1247,0,0
567,-223,0,0,0,0,0,0,0,0,0,-1,1791,1247,0,0
574,-223,0,0,0,0,0,0,0,0,0,-1,1798,1247,0,0
581,-223,0,0,0,0,0,0,0,0,0,-1,1805,1247,0,0
588,-223,0,0,0,0,0,0,0,0,0,-1,1812,1247,0,0
595,-223,0,0,0,0,0,0,0,0,0,-1,1819,1247,0,0
602,-223,0,0,0,0,0,0,0,0,0,-1,1826,1247,0,0
609,-223,0,0,0,0,0,0,0,0,0,-1,1833,1247,0,0
616,-223,0,0,0,0,0,0,0,0,0,-1,1840,1247,0,0
623,-223,29.9994,3.06677,0.000956674,0.00234515,-0.00237054,0.00412102,-0.000819198,-0.927845,0.00305722,0.0391797,1847,1247,29.9994,-3.0668
630,-223,30.1758,3.0072,0.00178329,0.00413921,-0.00242941,0.00566118,0.000261323,-1.01114,0.0036901,0.0344305,1854,1247,30.1758,-3.00719
637,-223,30.1804,2.828,0.00235829,0.00533463,-0.0023683,0.00664351,0.00104941,-1.06591,0.00412395,0.0290507,1861,1247,30.1805,-2.82802
644,-223,30.2085,2.81616,0.00273855,0.00533303,-0.00199425,0.00641483,0.00165674,-1.07376,0.00384518,0.0227431,1868,1247,30.2085,-2.8162
651,-223,30.2546,2.7948,0.0029661,0.00456359,-0.00164691,0.00559523,0.00193447,-1.01119,0.00328126,0.0271736,1875,1247,30.2546,-2.79474
658,-223,30.2174,2.90491,0.00306725,0.00350652,-0.00124707,0.00455315,0.00202062,-0.872565,0.0026343,0.0486331,1882,1247,30.2174,-2.90496
665,-223,30.0726,3.01489,0.00304852,0.00250597,-0.000845141,0.00366485,0.00188963,-0.630101,0.00211625,0.0455404,1889,1247,30.0727,-3.01488
672,-223,30.2991,3.60901,0.00292301,0.00153143,-0.000518092,0.00309471,0.00135973,-0.320022,0.0017911,0.04412,1896,1247,30.2991,-3.60903
679,-223,30.5898,4.22668,0,0,0,0,0,0,0,-1,1903,1247,30.5898,-4.22671
686,-223,24.7795,6.86157,0,0,0,0,0,0,0,-1,1910,1247,24.7795,-6.86157
693,-223,24.8628,6.71802,0.00217563,-0.000770805,0.000507928,0.00226073,-0.000855907,0.166006,0.00185933,0.0331732,1917,1247,24.8628,-6.71807
700,-223,24.9087,6.50269,0.00196223,-0.00154907,0.000793273,0.00213312,-0.00171997,0.212192,0.00222885,0.0151656,1924,1247,24.9087,-6.50265
707,-223,24.8986,6.24414,0.00159358,-0.0015961,0.000820717,0.00179237,-0.00179488,0.237633,0.0020711,0.0136478,1931,1247,24.8985,-6.24418
714,-223,24.9235,5.98425,0.00129235,-0.0015534,0.000950004,0.00158035,-0.00184139,0.294347,0.00197746,0.0114896,1938,1247,24.9234,-5.98431
721,-223,24.9407,5.73254,0.00110886,-0.00161496,0.000957205,0.00141159,-0.0019177,0.306315,0.00192955,0.0145689,1945,1247,24.9406,-5.73254
728,-223,24.9371,5.48071,0.00134967,-0.000242143,0.000886239,0.00174493,-0.000637408,0.419524,0.00142413,0.0164542,1952,1247,24.9371,-5.48076
735,-223,24.9154,5.25452,0.00213623,0.000210026,0.000960508,0.00253333,-0.00018707,0.392024,0.00175457,0.0137523,1959,1247,24.9154,-5.25456
742,-223,24.8804,5.03503,0.00338328,0.000686492,0.000885544,0.00364807,0.000421705,0.290549,0.00230437,0.0113731,1966,1247,24.8803,-5.035
749,-223,24.8907,4.75574,0.00527122,0.0012088,0.000732571,0.00539928,0.00108074,0.173069,0.00329883,0.00930635,1973,1247,24.8907,-4.75572
756,-223,24.8821,4.50354,0.00815028,0.001769,0.00040575,0.00817597,0.0017433,0.063245,0.00497248,0.0105043,1980,1247,24.882,-4.50354
763,-223,24.8525,4.29407,0.0124092,0.00231672,-8.81961e-05,0.01241,0.00231595,-0.00873788,0.00761958,0.0147836,1987,1247,24.8525,-4.29406
770,-223,24.8591,4.03223,0.0184743,0.00295625,-0.000787016,0.0185141,0.00291644,-0.0505434,0.0114946,0.0370334,1994,1247,24.8592,-4.03222
777,-223,24.8715,3.76062,0,0,0,0,0,0,0,-1,2001,1247,24.8714,-3.7606
784,-223,23.8892,5.17322,0,0,0,0,0,0,0,-1,2008,1247,23.8892,-5.1732
791,-223,24.1783,4.22375,0,0,0,0,0,0,0,-1,2015,1247,24.1783,-4.22381
798,-223,0,0,0,0,0,0,0,0,0,-1,2022,1247,0,0
805,-223,0,0,0,0,0,0,0,0,0,-1,2029,1247,0,0
812,-223,0,0,0,0,0,0,0,0,0,-1,2036,1247,0,0
-700,-230,0,0,0,0,0,0,0,0,0,-1,524,1254,0,0
-693,-230,0,0,0,0,0,0,0,0,0,-1,531,1254,0,0
-686,-230,0,0,0,0,0,0,0,0,0,-1,538,1254,0,0
-679,-230,0,0,0,0,0,0,0,0,0,-1,545,1254,0,0
-672,-230,-16.7814,2.74023,0,0,0,0,0,0,0,-1,552,1254,-16.7814,-2.74026
-665,-230,-17.2122,1.32434,0,0,0,0,0,0,0,-1,559,1254,-17.2122,-1.3243
-658,-230,-15.4838,0.901123,0,0,0,0,0,0,0,-1,566,1254,-15.4838,-0.901122
-651,-230,-13.7553,0.477905,0,0,0,0,0,0,0,-1,573,1254,-13.7553,-0.477944
-644,-230,-15.1469,1.17822,0,0,0,0,0,0,0,-1,580,1254,-15.1469,-1.17817
-637,-230,-14.788,1.5188,0.0529136,-0.0124156,0.00569484,0.0534063,-0.0129083,0.086304,0.0405969,0.0492655,587,1254,-14.7879,-1.51878
-630,-230,-14.6629,1.70605,0.0365096,-0.00804271,0.00247813,0.0366471,-0.00818012,0.055395,0.0275657,0.0444397,594,1254,-14.6629,-1.70608
-623,-230,-14.7352,1.97949,0.0244467,-0.00506709,0.000337173,0.0244505,-0.00507095,0.0114223,0.0182273,0.0268433,601,1254,-14.7352,-1.97948
-616,-230,-14.7542,2.28711,0.01586,-0.00293335,-0.000886023,0.0159017,-0.00297503,-0.0470065,0.0117194,0.0156969,608,1254,-14.7542,-2.28711
-609,-230,-14.766,2.55957,0.00831569,-0.000608447,-0.00188091,0.00869592,-0.000988681,-0.199466,0.00615338,0.0122378,615,1254,-14.766,-2.55963
-602,-230,-14.7726,2.84033,0.00352993,0.000479105,-0.00155633,0.00418374,-0.000174711,-0.397715,0.00284919,0.0112555,622,1254,-14.7726,-2.84033
-595,-230,-14.7699,3.13635,0.00152124,0.000788927,-0.00115966,0.00237117,-6.10056e-05,-0.632479,0.0016015,0.0175664,629,1254,-14.7699,-3.13632
-588,-230,-14.7918,3.47693,0.00181911,0.000484567,-0.00100398,0.00235734,-5.36621e-05,-0.492105,0.00158975,0.0247119,636,1254,-14.7918,-3.47689
-581,-230,-14.8007,3.76196,0.00201497,0.000188013,-0.00122386,0.00262867,-0.000425692,-0.464806,0.00191022,0.023616,643,1254,-14.8007,-3.76199
-574,-230,-14.7744,4.02869,0.00219176,8.9506e-05,-0.00141458,0.002903,-0.000621725,-0.465873,0.00217243,0.0169599,650,1254,-14.7743,-4.02868
-567,-230,-14.5892,4.3916,0.00185918,0.000184864,-0.00151291,0.0027511,-0.000707058,-0.532695,0.00210963,0.0270197,657,1254,-14.5892,-4.39156
-560,-230,-14.3262,4.80591,0,0,0,0,0,0,0,-1,664,1254,-14.3262,-4.80589
-553,-230,-13.1939,4.9718,0,0,0,0,0,0,0,-1,671,1254,-13.1939,-4.97175
-546,-230,-15.23,0.453979,0,0,0,0,0,0,0,-1,678,1254,-15.23,-0.453996
-539,-230,-20.1927,1.60583,0,0,0,0,0,0,0,-1,685,1254,-20.1927,-1.60583
-532,-230,-20.2518,0.796753,0,0,0,0,0,0,0,-1,692,1254,-20.2518,-0.796759
-525,-230,-20.5229,0.717529,0,0,0,0,0,0,0,-1,699,1254,-20.5229,-0.717486
-518,-230,-20.6751,0.895996,-0.00739195,0.00557302,-0.00333288,0.00637961,-0.00819854,-1.33335,0.00843851,0.0485151,706,1254,-20.6751,-0.896034
-511,-230,-20.8898,1.02771,-0.0104378,0.00789581,-0.00347242,0.00853145,-0.0110735,-1.38975,0.0113506,0.041076,713,1254,-20.8898,-1.02773
-504,-230,-21.0527,1.05066,-0.0125796,0.0112445,-0.00223523,0.0114524,-0.0127875,-1.47805,0.014002,0.0393047,720,1254,-21.0528,-1.05064
-497,-230,0,0,0,0,0,0,0,0,0,-1,727,1254,0,0
-490,-230,0,0,0,0,0,0,0,0,0,-1,734,1254,0,0
-483,-230,0,0,0,0,0,0,0,0,0,-1,741,1254,0,0
-476,-230,0,0,0,0,0,0,0,0,0,-1,748,1254,0,0
-469,-230,0,0,0,0,0,0,0,0,0,-1,755,1254,0,0
-462,-230,0,0,0,0,0,0,0,0,0,-1,762,1254,0,0
-455,-230,0,0,0,0,0,0,0,0,0,-1,769,1254,0,0
-448,-230,0,0,0,0,0,0,0,0,0,-1,776,1254,0,0
-441,-230,0,0,0,0,0,0,0,0,0,-1,783,1254,0,0
-434,-230,0,0,0,0,0,0,0,0,0,-1,790,1254,0,0
-427,-230,0,0,0,0,0,0,0,0,0,-1,797,1254,0,0
-420,-230,0,0,0,0,0,0,0,0,0,-1,804,1254,0,0
-413,-230,0,0,0,0,0,0,0,0,0,-1,811,1254,0,0
-406,-230,0,0,0,0,0,0,0,0,0,-1,818,1254,0,0
-399,-230,0,0,0,0,0,0,0,0,0,-1,825,1254,0,0
-392,-230,0,0,0,0,0,0,0,0,0,-1,832,1254,0,0
-385,-230,0,0,0,0,0,0,0,0,0,-1,839,1254,0,0
-378,-230,0,0,0,0,0,0,0,0,0,-1,846,1254,0,0
-371,-230,0,0,0,0,0,0,0,0,0,-1,853,1254,0,0
-364,-230,0,0,0,0,0,0,0,0,0,-1,860,1254,0,0
-357,-230,0,0,0,0,0,0,0,0,0,-1,867,1254,0,0
-350,-230,0,0,0,0,0,0,0,0,0,-1,874,1254,0,0
-343,-230,0,0,0,0,0,0,0,0,0,-1,881,1254,0,0
-336,-230,0,0,0,0,0,0,0,0,0,-1,888,1254,0,0
-329,-230,0,0,0,0,0,0,0,0,0,-1,895,1254,0,0
-322,-230,0,0,0,0,0,0,0,0,0,-1,902,1254,0,0
-315,-230,0,0,0,0,0,0,0,0,0,-1,909,1254,0,0
-308,-230,0,0,0,0,0,0,0,0,0,-1,916,1254,0,0
-301,-230,0,0,0,0,0,0,0,0,0,-1,923,1254,0,0
-294,-230,0,0,0,0,0,0,0,0,0,-1,930,1254,0,0
-287,-230,0,0,0,0,0,0,0,0,0,-1,937,1254,0,0
-280,-230,0,0,0,0,0,0,0,0,0,-1,944,1254,0,0
-273,-230,0,0,0,0,0,0,0,0,0,-1,951,1254,0,0
-266,-230,0,0,0,0,0,0,0,0,0,-1,958,1254,0,0
-259,-230,0,0,0,0,0,0,0,0,0,-1,965,1254,0,0
-252,-230,0,0,0,0,0,0,0,0,0,-1,972,1254,0,0
-245,-230,0,0,0,0,0,0,0,0,0,-1,979,1254,0,0
-238,-230,0,0,0,0,0,0,0,0,0,-1,986,1254,0,0
-231,-230,0,0,0,0,0,0,0,0,0,-1,993,1254,0,0
-224,-230,0,0,0,0,0,0,0,0,0,-1,1000,1254,0,0
-217,-230,0,0,0,0,0,0,0,0,0,-1,1007,1254,0,0
-210,-230,0,0,0,0,0,0,0,0,0,-1,1014,1254,0,0
-203,-230,0,0,0,0,0,0,0,0,0,-1,1021,1254,0,0
-196,-230,0,0,0,0,0,0,0,0,0,-1,1028,1254,0,0
-189,-230,0,0,0,0,0,0,0,0,0,-1,1035,1254,0,0
-182,-230,0,0,0,0,0,0,0,0,0,-1,1042,1254,0,0
-175,-230,0,0,0,0,0,0,0,0,0,-1,1049,1254,0,0
-168,-230,0,0,0,0,0,0,0,0,0,-1,1056,1254,0,0
-161,-230,0,0,0,0,0,0,0,0,0,-1,1063,1254,0,0
-154,-230,0,0,0,0,0,0,0,0,0,-1,1070,1254,0,0
-147,-230,0,0,0,0,0,0,0,0,0,-1,1077,1254,0,0
-140,-230,0,0,0,0,0,0,0,0,0,-1,1084,1254,0,0
-133,-230,0,0,0,0,0,0,0,0,0,-1,1091,1254,0,0
-126,-230,0,0,0,0,0,0,0,0,0,-1,1098,1254,0,0
-119,-230,0,0,0,0,0,0,0,0,0,-1,1105,1254,0,0
-112,-230,0,0,0,0,0,0,0,0,0,-1,1112,1254,0,0
-105,-230,0,0,0,0,0,0,0,0,0,-1,1119,1254,0,0
-98,-230,0,0,0,0,0,0,0,0,0,-1,1126,1254,0,0
-91,-230,0,0,0,0,0,0,0,0,0,-1,1133,1254,0,0
-84,-230,0,0,0,0,0,0,0,0,0,-1,1140,1254,0,0
-77,-230,0,0,0,0,0,0,0,0,0,-1,1147,1254,0,0
-70,-230,0,0,0,0,0,0,0,0,0,-1,1154,1254,0,0
-63,-230,0,0,0,0,0,0,0,0,0,-1,1161,1254,0,0
-56,-230,0,0,0,0,0,0,0,0,0,-1,1168,1254,0,0
-49,-230,0,0,0,0,0,0,0,0,0,-1,1175,1254,0,0
-42,-230,0,0,0,0,0,0,0,0,0,-1,1182,1254,0,0
-35,-230,0,0,0,0,0,0,0,0,0,-1,1189,1254,0,0
-28,-230,0,0,0,0,0,0,0,0,0,-1,1196,1254,0,0
-21,-230,0,0,0,0,0,0,0,0,0,-1,1203,1254,0,0
-14,-230,0,0,0,0,0,0,0,0,0,-1,1210,1254,0,0
-7,-230,0,0,0,0,0,0,0,0,0,-1,1217,1254,0,0
0,-230,0,0,0,0,0,0,0,0,0,-1,1224,1254,0,0
7,-230,0,0,0,0,0,0,0,0,0,-1,1231,1254,0,0
14,-230,0,0,0,0,0,0,0,0,0,-1,1238,1254,0,0
21,-230,0,0,0,0,0,0,0,0,0,-1,1245,1254,0,0
28,-230,0,0,0,0,0,0,0,0,0,-1,1252,1254,0,0
35,-230,0,0,0,0,0,0,0,0,0,-1,1259,1254,0,0
42,-230,0,0,0,0,0,0,0,0,0,-1,1266,1254,0,0
49,-230,0,0,0,0,0,0,0,0,0,-1,1273,1254,0,0
56,-230,0,0,0,0,0,0,0,0,0,-1,1280,1254,0,0
63,-230,0,0,0,0,0,0,0,0,0,-1,1287,1254,0,0
70,-230,0,0,0,0,0,0,0,0,0,-1,1294,1254,0,0
77,-230,0,0,0,0,0,0,0,0,0,-1,1301,1254,0,0
84,-230,0,0,0,0,0,0,0,0,0,-1,1308,1254,0,0
91,-230,0,0,0,0,0,0,0,0,0,-1,1315,1254,0,0
98,-230,0,0,0,0,0,0,0,0,0,-1,1322,1254,0,0
105,-230,0,0,0,0,0,0,0,0,0,-1,1329,1254,0,0
112,-230,0,0,0,0,0,0,0,0,0,-1,1336,1254,0,0
119,-230,0,0,0,0,0,0,0,0,0,-1,1343,1254,0,0
126,-230,0,0,0,0,0,0,0,0,0,-1,1350,1254,0,0
133,-230,0,0,0,0,0,0,0,0,0,-1,1357,1254,0,0
140,-230,0,0,0,0,0,0,0,0,0,-1,1364,1254,0,0
147,-230,0,0,0,0,0,0,0,0,0,-1,1371,1254,0,0
154,-230,0,0,0,0,0,0,0,0,0,-1,1378,1254,0,0
161,-230,0,0,0,0,0,0,0,0,0,-1,1385,1254,0,0
168,-230,0,0,0,0,0,0,0,0,0,-1,1392,1254,0,0
175,-230,0,0,0,0,0,0,0,0,0,-1,1399,1254,0,0
182,-230,0,0,0,0,0,0,0,0,0,-1,1406,1254,0,0
189,-230,0,0,0,0,0,0,0,0,0,-1,1413,1254,0,0
196,-230,0,0,0,0,0,0,0,0,0,-1,1420,1254,0,0
203,-230,0,0,0,0,0,0,0,0,0,-1,1427,1254,0,0
210,-230,0,0,0,0,0,0,0,0,0,-1,1434,1254,0,0
217,-230,0,0,0,0,0,0,0,0,0,-1,1441,1254,0,0
224,-230,0,0,0,0,0,0,0,0,0,-1,1448,1254,0,0
231,-230,0,0,0,0,0,0,0,0,0,-1,1455,1254,0,0
238,-230,0,0,0,0,0,0,0,0,0,-1,1462,1254,0,0
245,-230,0,0,0,0,0,0,0,0,0,-1,1469,1254,0,0
252,-230,0,0,0,0,0,0,0,0,0,-1,1476,1254,0,0
259,-230,0,0,0,0,0,0,0,0,0,-1,1483,1254,0,0
266,-230,0,0,0,0,0,0,0,0,0,-1,1490,1254,0,0
273,-230,0,0,0,0,0,0,0,0,0,-1,1497,1254,0,0
280,-230,0,0,0,0,0,0,0,0,0,-1,1504,1254,0,0
287,-230,0,0,0,0,0,0,0,0,0,-1,1511,1254,0,0
294,-230,0,0,0,0,0,0,0,0,0,-1,1518,1254,0,0
301,-230,0,0,0,0,0,0,0,0,0,-1,1525,1254,0,0
308,-230,0,0,0,0,0,0,0,0,0,-1,1532,1254,0,0
315,-230,0,0,0,0,0,0,0,0,0,-1,1539,1254,0,0
322,-230,0,0,0,0,0,0,0,0,0,-1,1546,1254,0,0
329,-230,0,0,0,0,0,0,0,0,0,-1,1553,1254,0,0
336,-230,0,0,0,0,0,0,0,0,0,-1,1560,1254,0,0
343,-230,0,0,0,0,0,0,0,0,0,-1,1567,1254,0,0
350,-230,0,0,0,0,0,0,0,0,0,-1,1574,1254,0,0
357,-230,0,0,0,0,0,0,0,0,0,-1,1581,1254,0,0
364,-230,0,0,0,0,0,0,0,0,0,-1,1588,1254,0,0
371,-230,0,0,0,0,0,0,0,0,0,-1,1595,1254,0,0
378,-230,0,0,0,0,0,0,0,0,0,-1,1602,1254,0,0
385,-230,0,0,0,0,0,0,0,0,0,-1,1609,1254,0,0
392,-230,0,0,0,0,0,0,0,0,0,-1,1616,1254,0,0
399,-230,0,0,0,0,0,0,0,0,0,-1,1623,1254,0,0
406,-230,0,0,0,0,0,0,0,0,0,-1,1630,1254,0,0
413,-230,0,0,0,0,0,0,0,0,0,-1,1637,1254,0,0
420,-230,0,0,0,0,0,0,0,0,0,-1,1644,1254,0,0
427,-230,0,0,0,0,0,0,0,0,0,-1,1651,1254,0,0
434,-230,0,0,0,0,0,0,0,0,0,-1,1658,1254,0,0
441,-230,0,0,0,0,0,0,0,0,0,-1,1665,1254,0,0
448,-230,0,0,0,0,0,0,0,0,0,-1,1672,1254,0,0
455,-230,0,0,0,0,0,0,0,0,0,-1,1679,1254,0,0
462,-230,0,0,0,0,0,0,0,0,0,-1,1686,1254,0,0
469,-230,0,0,0,0,0,0,0,0,0,-1,1693,1254,0,0
476,-230,0,0,0,0,0,0,0,0,0,-1,1700,1254,0,0
483,-230,0,0,0,0,0,0,0,0,0,-1,1707,1254,0,0
490,-230,0,0,0,0,0,0,0,0,0,-1,1714,1254,0,0
497,-230,0,0,0,0,0,0,0,0,0,-1,1721,1254,0,0
504,-230,0,0,0,0,0,0,0,0,0,-1,1728,1254,0,0
511,-230,0,0,0,0,0,0,0,0,0,-1,1735,1254,0,0
518,-230,0,0,0,0,0,0,0,0,0,-1,1742,1254,0,0
525,-230,0,0,0,0,0,0,0,0,0,-1,1749,1254,0,0
532,-230,0,0,0,0,0,0,0,0,0,-1,1756,1254,0,0
539,-230,0,0,0,0,0,0,0,0,0,-1,1763,1254,0,0
546,-230,0,0,0,0,0,0,0,0,0,-1,1770,1254,0,0
553,-230,0,0,0,0,0,0,0,0,0,-1,1777,1254,0,0
560,-230,0,0,0,0,0,0,0,0,0,-1,1784,1254,0,0
567,-230,0,0,0,0,0,0,0,0,0,-1,1791,1254,0,0
574,-230,0,0,0,0,0,0,0,0,0,-1,1798,1254,0,0
581,-230,0,0,0,0,0,0,0,0,0,-1,1805,1254,0,0
588,-230,0,0,0,0,0,0,0,0,0,-1,1812,1254,0,0
595,-230,0,0,0,0,0,0,0,0,0,-1,1819,1254,0,0
602,-230,0,0,0,0,0,0,0,0,0,-1,1826,1254,0,0
609,-230,0,0,0,0,0,0,0,0,0,-1,1833,1254,0,0
616,-230,30.209,3.01123,-0.000543343,-0.00228049,-0.0014591,0.000286142,-0.00310998,-0.516928,0.00217498,0.0384542,1840,1254,30.209,-3.01124
623,-230,30.1664,3.1156,0.000297254,0.00311518,-0.00263387,0.00469326,-0.00128082,-1.031,0.00363186,0.0373467,1847,1254,30.1664,-3.11559
630,-230,30.296,3.03699,0.00133141,0.00561578,-0.00301585,0.00717283,-0.000225634,-1.0942,0.00485884,0.0306468,1854,1254,30.296,-3.03704
637,-230,30.2179,2.84082,0.00211783,0.00728823,-0.00313191,0.00876408,0.000641984,-1.13043,0.00564092,0.02555,1861,1254,30.2179,-2.84088
644,-230,30.1848,2.74426,0.00261384,0.00728343,-0.00276574,0.0085681,0.00132916,-1.13595,0.0053246,0.0196704,1868,1254,30.1848,-2.7443
651,-230,30.0726,2.65833,0,0,0,0,0,0,0,-1,1875,1254,30.0726,-2.65829
658,-230,29.7772,2.86646,0.00301319,0.00529467,-0.00187924,0.0063523,0.00195556,-1.05818,0.00375669,0.0492261,1882,1254,29.7772,-2.86644
665,-230,29.7794,2.5863,0.00301909,0.00417774,-0.00138249,0.00509738,0.00209945,-0.983807,0.00295818,0.0476852,1889,1254,29.7794,-2.58629
672,-230,30.41,2.7489,0,0,0,0,0,0,0,-1,1896,1254,30.41,-2.74886
679,-230,27.9967,2.37708,0,0,0,0,0,0,0,-1,1903,1254,27.9967,-2.3771
686,-230,24.4966,6.82922,0,0,0,0,0,0,0,-1,1910,1254,24.4966,-6.82919
693,-230,24.5732,6.69287,0.00231099,5.24875e-05,0.000349851,0.00236394,-4.64148e-07,0.150215,0.00157612,0.0300855,1917,1254,24.5732,-6.69291
700,-230,24.6545,6.52319,0.00217022,-0.00111635,0.000736191,0.00232759,-0.00127372,0.210595,0.00210869,0.0109163,1924,1254,24.6545,-6.52317
707,-230,24.6503,6.27368,0.00184194,-0.00123605,0.000746247,0.00201332,-0.00140743,0.225744,0.00198527,0.00892988,1931,1254,24.6503,-6.27365
714,-230,24.6532,6.01245,0.00157365,-0.00123602,0.000870468,0.00182148,-0.00148384,0.277361,0.00191164,0.0123902,1938,1254,24.6532,-6.01249
721,-230,24.6693,5.75403,0.0014115,-0.00132006,0.000864511,0.00166212,-0.00157068,0.282159,0.0018667,0.013635,1945,1254,24.6693,-5.75398
728,-230,24.6379,5.51062,0.0015539,-7.75411e-05,0.000788857,0.00187295,-0.000396587,0.384329,0.00139968,0.0147017,1952,1254,24.638,-5.51057
735,-230,24.6278,5.26477,0.00212326,0.000358206,0.000859032,0.00247231,9.15269e-06,0.385954,0.00164517,0.0148833,1959,1254,24.6278,-5.26475
742,-230,24.6093,5.01196,0.00305112,0.000802416,0.000804623,0.00330937,0.000544166,0.310571,0.00204908,0.0106397,1966,1254,24.6092,-5.01201
749,-230,24.627,4.7406,0.00454837,0.001284,0.000655864,0.00467522,0.00115715,0.191042,0.00281162,0.0094043,1973,1254,24.6269,-4.74054
756,-230,24.6169,4.48621,0.00690308,0.00181232,0.000280001,0.00691843,0.00179697,0.0547816,0.00414523,0.0122213,1980,1254,24.6169,-4.48625
763,-230,24.5974,4.19287,0.0104416,0.00234569,-0.000331003,0.0104551,0.00233218,-0.0407946,0.00633736,0.025863,1987,1254,24.5974,-4.19281
770,-230,24.6938,3.88208,0.0155283,0.00299035,-0.00123597,0.015649,0.00286967,-0.0973299,0.00961983,0.0432296,1994,1254,24.6939,-3.88214
777,-230,24.7731,3.6106,0,0,0,0,0,0,0,-1,2001,1254,24.773,-3.61063
784,-230,22.9126,5.56836,0,0,0,0,0,0,0,-1,2008,1254,22.9126,-5.56837
791,-230,23.2279,4.55115,0,0,0,0,0,0,0,-1,2015,1254,23.2279,-4.55112
798,-230,0,0,0,0,0,0,0,0,0,-1,2022,1254,0,0
805,-230,0,0,0,0,0,0,0,0,0,-1,2029,1254,0,0
812,-230,0,0,0,0,0,0,0,0,0,-1,2036,1254,0,0
-700,-237,0,0,0,0,0,0,0,0,0,-1,524,1261,0,0
-693,-237,0,0,0,0,0,0,0,0,0,-1,531,1261,0,0
-686,-237,0,0,0,0,0,0,0,0,0,-1,538,1261,0,0
-679,-237,0,0,0,0,0,0,0,0,0,-1,545,1261,0,0
-672,-237,-18.884,1.96082,0,0,0,0,0,0,0,-1,552,1261,-18.884,-1.96079
-665,-237,-17.5247,1.69934,0.18607,-0.042722,0.0331808,0.190785,-0.0474369,0.141153,0.145601,0.0468948,559,1261,-17.5247,-1.69939
-658,-237,-15.8867,1.35156,0.151143,-0.0353741,0.0222468,0.15376,-0.0379909,0.117087,0.11724,0.045449,566,1261,-15.8867,-1.35159
-651,-237,-13.8526,1.47009,0.11909,-0.0278901,0.0138125,0.120376,-0.0291768,0.0928916,0.0915399,0.0479733,573,1261,-13.8526,-1.47011
-644,-237,-11.5969,1.828,0,0,0,0,0,0,0,-1,580,1261,-11.5969,-1.82798
-637,-237,-14.7478,1.32483,0,0,0,0,0,0,0,-1,587,1261,-14.7478,-1.32488
-630,-237,-14.4464,1.45837,0.0470144,-0.00954672,0.000437302,0.0470178,-0.0095501,0.00773088,0.034966,0.0461248,594,1261,-14.4464,-1.45841
-623,-237,-14.4343,2.03406,0.0322468,-0.00594632,-0.00116992,0.0322826,-0.00598213,-0.0305934,0.0237681,0.0303115,601,1261,-14.4343,-2.034
-616,-237,-14.4424,2.29114,0.0214761,-0.0033958,-0.00188781,0.0216186,-0.00353827,-0.0753264,0.0157251,0.0145703,608,1261,-14.4425,-2.29109
-609,-237,-14.4662,2.54614,0.0122143,-0.000867949,-0.00248644,0.0126709,-0.00132459,-0.181628,0.00892166,0.0172755,615,1261,-14.4662,-2.54619
-602,-237,-14.4813,2.83826,0.00596686,0.000473198,-0.00185738,0.0065359,-9.58338e-05,-0.297284,0.00438956,0.0124294,622,1261,-14.4813,-2.83821
-595,-237,-14.486,3.17017,0.00282569,0.000963034,-0.00121891,0.00342835,0.000360375,-0.459177,0.00217541,0.0150961,629,1261,-14.486,-3.1702
-588,-237,-14.5031,3.47766,0.00264277,0.000744902,-0.000727603,0.00288962,0.000498059,-0.32707,0.00178372,0.0261086,636,1261,-14.5031,-3.47761
-581,-237,-14.5108,3.76599,0.00262285,0.000404948,-0.00076296,0.00285996,0.000167838,-0.301314,0.00185323,0.0246123,643,1261,-14.5108,-3.76593
-574,-237,-14.4799,4.03076,0.00268672,0.00021703,-0.00095459,0.00301267,-0.000108921,-0.329044,0.00204572,0.0155939,650,1261,-14.4799,-4.03072
-567,-237,-14.4109,4.37646,0.00229246,0.000200398,-0.00112136,0.00277993,-0.000287076,-0.410071,0.00195602,0.0185639,657,1261,-14.4109,-4.37652
-560,-237,-14.0952,4.83325,0.00180002,0.000291801,-0.00127832,0.00253009,-0.000438269,-0.51891,0.0018502,0.0393162,664,1261,-14.0952,-4.83321
-553,-237,-13.7708,5.16309,0,0,0,0,0,0,0,-1,671,1261,-13.7708,-5.16306
-546,-237,-11.192,1.14014,0,0,0,0,0,0,0,-1,678,1261,-11.192,-1.14011
-539,-237,-16.512,1.53455,0,0,0,0,0,0,0,-1,685,1261,-16.512,-1.53457
-532,-237,-20.0698,0.566406,0,0,0,0,0,0,0,-1,692,1261,-20.0698,-0.566458
-525,-237,-20.4968,1.03528,0,0,0,0,0,0,0,-1,699,1261,-20.4967,-1.03524
-518,-237,-20.6312,0.981079,-0.00850241,0.00641971,-0.00347787,0.00719048,-0.00927318,-1.3527,0.00953061,0.0473964,706,1261,-20.6312,-0.981089
-511,-237,-20.7957,1.01147,-0.0118547,0.00927941,-0.00397912,0.0100038,-0.0125791,-1.39073,0.0130664,0.0421938,713,1261,-20.7957,-1.01149
-504,-237,-20.9439,1.05591,-0.014644,0.0129427,-0.00355324,0.013393,-0.0150943,-1.44473,0.016457,0.0412019,720,1261,-20.9439,-1.05589
-497,-237,-21.0516,1.12036,-0.0168702,0.0169325,-0.00272807,0.0171512,-0.017089,-1.49078,0.0197686,0.0458821,727,1261,-21.0517,-1.12031
-490,-237,0,0,0,0,0,0,0,0,0,-1,734,1261,0,0
-483,-237,0,0,0,0,0,0,0,0,0,-1,741,1261,0,0
-476,-237,0,0,0,0,0,0,0,0,0,-1,748,1261,0,0
-469,-237,0,0,0,0,0,0,0,0,0,-1,755,1261,0,0
-462,-237,0,0,0,0,0,0,0,0,0,-1,762,1261,0,0
-455,-237,0,0,0,0,0,0,0,0,0,-1,769,1261,0,0
-448,-237,0,0,0,0,0,0,0,0,0,-1,776,1261,0,0
-441,-237,0,0,0,0,0,0,0,0,0,-1,783,1261,0,0
-434,-237,0,0,0,0,0,0,0,0,0,-1,790,1261,0,0
-427,-237,0,0,0,0,0,0,0,0,0,-1,797,1261,0,0
-420,-237,0,0,0,0,0,0,0,0,0,-1,804,1261,0,0
-413,-237,0,0,0,0,0,0,0,0,0,-1,811,1261,0,0
-406,-237,0,0,0,0,0,0,0,0,0,-1,818,1261,0,0
-399,-237,0,0,0,0,0,0,0,0,0,-1,825,1261,0,0
-392,-237,0,0,0,0,0,0,0,0,0,-1,832,1261,0,0
-385,-237,0,0,0,0,0,0,0,0,0,-1,839,1261,0,0
-378,-237,0,0,0,0,0,0,0,0,0,-1,846,1261,0,0
-371,-237,0,0,0,0,0,0,0,0,0,-1,853,1261,0,0
-364,-237,0,0,0,0,0,0,0,0,0,-1,860,1261,0,0
-357,-237,0,0,0,0,0,0,0,0,0,-1,867,1261,0,0
-350,-237,0,0,0,0,0,0,0,0,0,-1,874,1261,0,0
-343,-237,0,0,0,0,0,0,0,0,0,-1,881,1261,0,0
-336,-237,0,0,0,0,0,0,0,0,0,-1,888,1261,0,0
-329,-237,0,0,0,0,0,0,0,0,0,-1,895,1261,0,0
-322,-237,0,0,0,0,0,0,0,0,0,-1,902,1261,0,0
-315,-237,0,0,0,0,0,0,0,0,0,-1,909,1261,0,0
-308,-237,0,0,0,0,0,0,0,0,0,-1,916,1261,0,0
-301,-237,0,0,0,0,0,0,0,0,0,-1,923,1261,0,0
-294,-237,0,0,0,0,0,0,0,0,0,-1,930,1261,0,0
-287,-237,0,0,0,0,0,0,0,0,0,-1,937,1261,0,0
-280,-237,0,0,0,0,0,0,0,0,0,-1,944,1261,0,0
-273,-237,0,0,0,0,0,0,0,0,0,-1,951,1261,0,0
-266,-237,0,0,0,0,0,0,0,0,0,-1,958,1261,0,0
-259,-237,0,0,0,0,0,0,0,0,0,-1,965,1261,0,0
-252,-237,0,0,0,0,0,0,0,0,0,-1,972,1261,0,0
-245,-237,0,0,0,0,0,0,0,0,0,-1,979,1261,0,0
-238,-237,0,0,0,0,0,0,0,0,0,-1,986,1261,0,0
-231,-237,0,0,0,0,0,0,0,0,0,-1,993,1261,0,0
-224,-237,0,0,0,0,0,0,0,0,0,-1,1000,1261,0,0
-217,-237,0,0,0,0,0,0,0,0,0,-1,1007,1261,0,0
-210,-237,0,0,0,0,0,0,0,0,0,-1,1014,1261,0,0
-203,-237,0,0,0,0,0,0,0,0,0,-1,1021,1261,0,0
-196,-237,0,0,0,0,0,0,0,0,0,-1,1028,1261,0,0
-189,-237,0,0,0,0,0,0,0,0,0,-1,1035,1261,0,0
-182,-237,0,0,0,0,0,0,0,0,0,-1,1042,1261,0,0
-175,-237,0,0,0,0,0,0,0,0,0,-1,1049,1261,0,0
-168,-237,0,0,0,0,0,0,0,0,0,-1,1056,1261,0,0
-161,-237,0,0,0,0,0,0,0,0,0,-1,1063,1261,0,0
-154,-237,0,0,0,0,0,0,0,0,0,-1,1070,1261,0,0
-147,-237,0,0,0,0,0,0,0,0,0,-1,1077,1261,0,0
-140,-237,0,0,0,0,0,0,0,0,0,-1,1084,1261,0,0
-133,-237,0,0,0,0,0,0,0,0,0,-1,1091,1261,0,0
-126,-237,0,0,0,0,0,0,0,0,0,-1,1098,1261,0,0
-119,-237,0,0,0,0,0,0,0,0,0,-1,1105,1261,0,0
-112,-237,0,0,0,0,0,0,0,0,0,-1,1112,1261,0,0
-105,-237,0,0,0,0,0,0,0,0,0,-1,1119,1261,0,0
-98,-237,0,0,0,0,0,0,0,0,0,-1,1126,1261,0,0
-91,-237,0,0,0,0,0,0,0,0,0,-1,1133,1261,0,0
-84,-237,0,0,0,0,0,0,0,0,0,-1,1140,1261,0,0
-77,-237,0,0,0,0,0,0,0,0,0,-1,1147,1261,0,0
-70,-237,0,0,0,0,0,0,0,0,0,-1,1154,1261,0,0
-63,-237,0,0,0,0,0,0,0,0,0,-1,1161,1261,0,0
-56,-237,0,0,0,0,0,0,0,0,0,-1,1168,1261,0,0
-49,-237,0,0,0,0,0,0,0,0,0,-1,1175,1261,0,0
-42,-237,0,0,0,0,0,0,0,0,0,-1,1182,1261,0,0
-35,-237,0,0,0,0,0,0,0,0,0,-1,1189,1261,0,0
-28,-237,0,0,0,0,0,0,0,0,0,-1,1196,1261,0,0
-21,-237,0,0,0,0,0,0,0,0,0,-1,1203,1261,0,0
-14,-237,0,0,0,0,0,0,0,0,0,-1,1210,1261,0,0
-7,-237,0,0,0,0,0,0,0,0,0,-1,1217,1261,0,0
0,-237,0,0,0,0,0,0,0,0,0,-1,1224,1261,0,0
7,-237,0,0,0,0,0,0,0,0,0,-1,1231,1261,0,0
14,-237,0,0,0,0,0,0,0,0,0,-1,1238,1261,0,0
21,-237,0,0,0,0,0,0,0,0,0,-1,1245,1261,0,0
28,-237,0,0,0,0,0,0,0,0,0,-1,1252,1261,0,0
35,-237,0,0,0,0,0,0,0,0,0,-1,1259,1261,0,0
42,-237,0,0,0,0,0,0,0,0,0,-1,1266,1261,0,0
49,-237,0,0,0,0,0,0,0,0,0,-1,1273,1261,0,0
56,-237,0,0,0,0,0,0,0,0,0,-1,1280,1261,0,0
63,-237,0,0,0,0,0,0,0,0,0,-1,1287,1261,0,0
70,-237,0,0,0,0,0,0,0,0,0,-1,1294,1261,0,0
77,-237,0,0,0,0,0,0,0,0,0,-1,1301,1261,0,0
84,-237,0,0,0,0,0,0,0,0,0,-1,1308,1261,0,0
91,-237,0,0,0,0,0,0,0,0,0,-1,1315,1261,0,0
98,-237,0,0,0,0,0,0,0,0,0,-1,1322,1261,0,0
105,-237,0,0,0,0,0,0,0,0,0,-1,1329,1261,0,0
112,-237,0,0,0,0,0,0,0,0,0,-1,1336,1261,0,0
119,-237,0,0,0,0,0,0,0,0,0,-1,1343,1261,0,0
126,-237,0,0,0,0,0,0,0,0,0,-1,1350,1261,0,0
133,-237,0,0,0,0,0,0,0,0,0,-1,1357,1261,0,0
140,-237,0,0,0,0,0,0,0,0,0,-1,1364,1261,0,0
147,-237,0,0,0,0,0,0,0,0,0,-1,1371,1261,0,0
154,-237,0,0,0,0,0,0,0,0,0,-1,1378,1261,0,0
161,-237,0,0,0,0,0,0,0,0,0,-1,1385,1261,0,0
168,-237,0,0,0,0,0,0,0,0,0,-1,1392,1261,0,0
175,-237,0,0,0,0,0,0,0,0,0,-1,1399,1261,0,0
182,-237,0,0,0,0,0,0,0,0,0,-1,1406,1261,0,0
189,-237,0,0,0,0,0,0,0,0,0,-1,1413,1261,0,0
196,-237,0,0,0,0,0,0,0,0,0,-1,1420,1261,0,0
203,-237,0,0,0,0,0,0,0,0,0,-1,1427,1261,0,0
210,-237,0,0,0,0,0,0,0,0,0,-1,1434,1261,0,0
217,-237,0,0,0,0,0,0,0,0,0,-1,1441,1261,0,0
224,-237,0,0,0,0,0,0,0,0,0,-1,1448,1261,0,0
231,-237,0,0,0,0,0,0,0,0,0,-1,1455,1261,0,0
238,-237,0,0,0,0,0,0,0,0,0,-1,1462,1261,0,0
245,-237,0,0,0,0,0,0,0,0,0,-1,1469,1261,0,0
252,-237,0,0,0,0,0,0,0,0,0,-1,1476,1261,0,0
259,-237,0,0,0,0,0,0,0,0,0,-1,1483,1261,0,0
266,-237,0,0,0,0,0,0,0,0,0,-1,1490,1261,0,0
273,-237,0,0,0,0,0,0,0,0,0,-1,1497,1261,0,0
280,-237,0,0,0,0,0,0,0,0,0,-1,1504,1261,0,0
287,-237,0,0,0,0,0,0,0,0,0,-1,1511,1261,0,0
294,-237,0,0,0,0,0,0,0,0,0,-1,1518,1261,0,0
301,-237,0,0,0,0,0,0,0,0,0,-1,1525,1261,0,0
308,-237,0,0,0,0,0,0,0,0,0,-1,1532,1261,0,0
315,-237,0,0,0,0,0,0,0,0,0,-1,1539,1261,0,0
322,-237,0,0,0,0,0,0,0,0,0,-1,1546,1261,0,0
329,-237,0,0,0,0,0,0,0,0,0,-1,1553,1261,0,0
336,-237,0,0,0,0,0,0,0,0,0,-1,1560,1261,0,0
343,-237,0,0,0,0,0,0,0,0,0,-1,1567,1261,0,0
350,-237,0,0,0,0,0,0,0,0,0,-1,1574,1261,0,0
357,-237,0,0,0,0,0,0,0,0,0,-1,1581,1261,0,0
364,-237,0,0,0,0,0,0,0,0,0,-1,1588,1261,0,0
371,-237,0,0,0,0,0,0,0,0,0,-1,1595,1261,0,0
378,-237,0,0,0,0,0,0,0,0,0,-1,1602,1261,0,0
385,-237,0,0,0,0,0,0,0,0,0,-1,1609,1261,0,0
392,-237,0,0,0,0,0,0,0,0,0,-1,1616,1261,0,0
399,-237,0,0,0,0,0,0,0,0,0,-1,1623,1261,0,0
406,-237,0,0,0,0,0,0,0,0,0,-1,1630,1261,0,0
413,-237,0,0,0,0,0,0,0,0,0,-1,1637,1261,0,0
420,-237,0,0,0,0,0,0,0,0,0,-1,1644,1261,0,0
427,-237,0,0,0,0,0,0,0,0,0,-1,1651,1261,0,0
434,-237,0,0,0,0,0,0,0,0,0,-1,1658,1261,0,0
441,-237,0,0,0,0,0,0,0,0,0,-1,1665,1261,0,0
448,-237,0,0,0,0,0,0,0,0,0,-1,1672,1261,0,0
455,-237,0,0,0,0,0,0,0,0,0,-1,1679,1261,0,0
462,-237,0,0,0,0,0,0,0,0,0,-1,1686,1261,0,0
469,-237,0,0,0,0,0,0,0,0,0,-1,1693,1261,0,0
476,-237,0,0,0,0,0,0,0,0,0,-1,1700,1261,0,0
483,-237,0,0,0,0,0,0,0,0,0,-1,1707,1261,0,0
490,-237,0,0,0,0,0,0,0,0,0,-1,1714,1261,0,0
497,-237,0,0,0,0,0,0,0,0,0,-1,1721,1261,0,0
504,-237,0,0,0,0,0,0,0,0,0,-1,1728,1261,0,0
511,-237,0,0,0,0,0,0,0,0,0,-1,1735,1261,0,0
518,-237,0,0,0,0,0,0,0,0,0,-1,1742,1261,0,0
525,-237,0,0,0,0,0,0,0,0,0,-1,1749,1261,0,0
532,-237,0,0,0,0,0,0,0,0,0,-1,1756,1261,0,0
539,-237,0,0,0,0,0,0,0,0,0,-1,1763,1261,0,0
546,-237,0,0,0,0,0,0,0,0,0,-1,1770,1261,0,0
553,-237,0,0,0,0,0,0,0,0,0,-1,1777,1261,0,0
560,-237,0,0,0,0,0,0,0,0,0,-1,1784,1261,0,0
567,-237,0,0,0,0,0,0,0,0,0,-1,1791,1261,0,0
574,-237,0,0,0,0,0,0,0,0,0,-1,1798,1261,0,0
581,-237,0,0,0,0,0,0,0,0,0,-1,1805,1261,0,0
588,-237,0,0,0,0,0,0,0,0,0,-1,1812,1261,0,0
595,-237,0,0,0,0,0,0,0,0,0,-1,1819,1261,0,0
602,-237,0,0,0,0,0,0,0,0,0,-1,1826,1261,0,0
609,-237,0,0,0,0,0,0,0,0,0,-1,1833,1261,0,0
616,-237,30.3531,2.88733,-0.000489473,-0.0014023,-0.00160602,0.000723731,-0.00261551,-0.646954,0.00202842,0.0373801,1840,1261,30.3531,-2.88731
623,-237,30.3501,2.8905,0.000670975,0.00429621,-0.00316767,0.00613321,-0.00116602,-1.04527,0.00452781,0.0335076,1847,1261,30.3501,-2.89055
630,-237,30.2991,2.89722,0.00170679,0.00762582,-0.00392575,0.00958263,-0.000250023,-1.10839,0.00647337,0.025016,1854,1261,30.2991,-2.8972
637,-237,30.196,2.80725,0.00235295,0.00947515,-0.004122,0.0113613,0.000466818,-1.14166,0.00742347,0.0188035,1861,1261,30.196,-2.80719
644,-237,30.0476,2.63928,0,0,0,0,0,0,0,-1,1868,1261,30.0476,-2.63928
651,-237,29.8555,2.62463,0,0,0,0,0,0,0,-1,1875,1261,29.8555,-2.62466
658,-237,29.5288,2.76184,0.00283042,0.00699807,-0.00258473,0.00823436,0.00159413,-1.12466,0.00504289,0.0474834,1882,1261,29.5289,-2.76181
665,-237,29.423,2.00012,0.00280986,0.00579074,-0.00197677,0.00677598,0.00182461,-1.10842,0.00404857,0.0473669,1889,1261,29.423,-2.00015
672,-237,30.1901,2.21899,0,0,0,0,0,0,0,-1,1896,1261,30.1901,-2.21894
679,-237,23.1501,7.37488,0,0,0,0,0,0,0,-1,1903,1261,23.1502,-7.37493
686,-237,24.3585,7.03345,0,0,0,0,0,0,0,-1,1910,1261,24.3585,-7.03341
693,-237,24.3347,6.77368,0.00208957,0.000810867,0.000110735,0.00209909,0.000801348,0.0857489,0.00122315,0.0304807,1917,1261,24.3347,-6.7737
700,-237,24.3704,6.53833,0.00202981,-0.000738105,0.000584152,0.00214804,-0.000856336,0.199701,0.00178722,0.0111389,1924,1261,24.3703,-6.53829
707,-237,24.3828,6.2887,0.00181056,-0.000866318,0.000570273,0.00192698,-0.000982743,0.20139,0.00170916,0.00946119,1931,1261,24.3829,-6.28866
714,-237,24.3674,6.03088,0.00164425,-0.000872586,0.000688258,0.00182016,-0.0010485,0.250239,0.00167608,0.0127511,1938,1261,24.3674,-6.03088
721,-237,24.3545,5.78088,0.0015755,-0.000935805,0.00069464,0.00175484,-0.00111514,0.252652,0.00167065,0.0153108,1945,1261,24.3545,-5.78086
728,-237,24.3712,5.526,0.00175631,0.000142308,0.000680039,0.00200463,-0.000106012,0.350113,0.00137312,0.0141452,1952,1261,24.3712,-5.52595
735,-237,24.3582,5.24597,0.00227112,0.00054905,0.000826806,0.00260382,0.000216356,0.38256,0.00166844,0.0179972,1959,1261,24.3581,-5.24597
742,-237,24.369,5.01575,0.00308621,0.000953666,0.000879367,0.00340205,0.00063783,0.344814,0.00208815,0.013643,1966,1261,24.369,-5.0158
749,-237,24.3739,4.76123,0.00443365,0.00137819,0.000854987,0.00465662,0.00115522,0.255109,0.00279994,0.00904787,1973,1261,24.3739,-4.76127
756,-237,24.3367,4.47388,0.00657168,0.00183582,0.000618033,0.006651,0.0017565,0.127653,0.00397988,0.0138047,1980,1261,24.3366,-4.47392
763,-237,24.2754,4.18262,0.00977932,0.00228377,0.000159295,0.0097827,0.00228038,0.0212391,0.00591018,0.0298433,1987,1261,24.2754,-4.18259
770,-237,24.5483,3.73596,0.0144103,0.00279564,-0.00056664,0.0144379,0.00276806,-0.0486328,0.00884807,0.0451645,1994,1261,24.5484,-3.736
777,-237,24.6603,3.44568,0,0,0,0,0,0,0,-1,2001,1261,24.6603,-3.44569
784,-237,22.2477,4.27905,0,0,0,0,0,0,0,-1,2008,1261,22.2476,-4.27905
791,-237,27.4911,5.61902,0,0,0,0,0,0,0,-1,2015,1261,27.4911,-5.61904
798,-237,0,0,0,0,0,0,0,0,0,-1,2022,1261,0,0
805,-237,0,0,0,0,0,0,0,0,0,-1,2029,1261,0,0
812,-237,0,0,0,0,0,0,0,0,0,-1,2036,1261,0,0
-700,-244,0,0,0,0,0,0,0,0,0,-1,524,1268,0,0
-693,-244,0,0,0,0,0,0,0,0,0,-1,531,1268,0,0
-686,-244,0,0,0,0,0,0,0,0,0,-1,538,1268,0,0
-679,-244,0,0,0,0,0,0,0,0,0,-1,545,1268,0,0
-672,-244,-19.9556,2.48828,0,0,0,0,0,0,0,-1,552,1268,-19.9556,-2.48829
-665,-244,-18.2311,2.1814,0.219036,-0.0532282,0.0299202,0.222286,-0.0564775,0.108174,0.170169,0.049357,559,1268,-18.2311,-2.18136
-658,-244,-16.285,1.89368,0.177818,-0.043755,0.0181609,0.179297,-0.0452336,0.0812408,0.137119,0.044354,566,1268,-16.285,-1.89374
-651,-244,-14.3116,1.8728,0.14042,-0.0345321,0.00949376,0.140933,-0.0350458,0.0540535,0.107558,0.0419304,573,1268,-14.3117,-1.87285
-644,-244,-12.0687,2.06921,0,0,0,0,0,0,0,-1,580,1268,-12.0687,-2.06925
-637,-244,-15.2457,1.6521,0,0,0,0,0,0,0,-1,587,1268,-15.2457,-1.6521
-630,-244,-14.8748,1.86206,0.0572345,-0.0128211,-0.00260753,0.0573314,-0.0129181,-0.0371524,0.043176,0.0446356,594,1268,-14.8748,-1.86205
-623,-244,-14.4266,2.08936,0.0399645,-0.00837419,-0.00349628,0.0402161,-0.00862576,-0.0718304,0.0301008,0.0348241,601,1268,-14.4266,-2.08931
-616,-244,-14.1577,2.30444,0.0272653,-0.00523701,-0.00355109,0.0276488,-0.00562046,-0.107566,0.0205637,0.0181998,608,1268,-14.1576,-2.3044
-609,-244,-14.1667,2.55115,0.0165461,-0.00234185,-0.00360159,0.0172095,-0.0030053,-0.182169,0.0125949,0.0152689,615,1268,-14.1667,-2.55115
-602,-244,-14.1698,2.84631,0.00901051,-0.000564002,-0.00255045,0.00964752,-0.00120101,-0.244755,0.00686711,0.0152554,622,1268,-14.1698,-2.84633
-595,-244,-14.1768,3.16931,0.00475252,0.000335232,-0.00154461,0.00523905,-0.000151293,-0.305144,0.00354421,0.0160594,629,1268,-14.1767,-3.16932
-588,-244,-14.1723,3.47595,0.00384347,0.000452931,-0.000611222,0.00395029,0.000346109,-0.173019,0.00252607,0.0207578,636,1268,-14.1723,-3.47595
-581,-244,-14.1682,3.73193,0.00340483,0.000279825,-0.000316985,0.00343666,0.000247995,-0.100077,0.00221308,0.0179961,643,1268,-14.1681,-3.73189
-574,-244,-14.1879,4.04187,0.00323664,0.000140567,-0.000396629,0.00328664,9.05633e-05,-0.125409,0.00216154,0.0136801,650,1268,-14.1879,-4.04181
-567,-244,-14.1758,4.37268,0.00281527,6.06886e-05,-0.000619331,0.00294811,-7.21539e-05,-0.211292,0.00198989,0.0107131,657,1268,-14.1758,-4.37267
-560,-244,-14.1282,4.69299,0.00221393,0.000238916,-0.000852637,0.00253109,-7.82449e-05,-0.356118,0.00171407,0.0230409,664,1268,-14.1282,-4.69297
-553,-244,-14.0378,5.02515,0,0,0,0,0,0,0,-1,671,1268,-14.0378,-5.02512
-546,-244,-11.2686,4.41772,0,0,0,0,0,0,0,-1,678,1268,-11.2686,-4.41767
-539,-244,-12.8706,0.3302,0,0,0,0,0,0,0,-1,685,1268,-12.8706,-0.330156
-532,-244,-18.1502,0.816528,0,0,0,0,0,0,0,-1,692,1268,-18.1502,-0.816514
-525,-244,-20.5541,1.01013,0,0,0,0,0,0,0,-1,699,1268,-20.5541,-1.01017
-518,-244,-20.6061,0.998413,-0.00930047,0.00715567,-0.0035908,0.00790507,-0.0100499,-1.36505,0.0103909,0.0456014,706,1268,-20.6061,-0.998404
-511,-244,-20.663,0.949585,-0.0128537,0.0106515,-0.00435317,0.0114318,-0.013634,-1.39343,0.0144904,0.0486882,713,1268,-20.663,-0.949524
-504,-244,-20.6756,0.880859,-0.0159074,0.0148873,-0.00432276,0.0154826,-0.0165027,-1.43395,0.0184698,0.0463241,720,1268,-20.6756,-0.880824
-497,-244,-20.8107,0.983765,-0.0189058,0.019172,-0.00457411,0.0197138,-0.0194476,-1.45291,0.02261,0.0433077,727,1268,-20.8107,-0.983718
-490,-244,0,0,0,0,0,0,0,0,0,-1,734,1268,0,0
-483,-244,0,0,0,0,0,0,0,0,0,-1,741,1268,0,0
-476,-244,0,0,0,0,0,0,0,0,0,-1,748,1268,0,0
-469,-244,0,0,0,0,0,0,0,0,0,-1,755,1268,0,0
-462,-244,0,0,0,0,0,0,0,0,0,-1,762,1268,0,0
-455,-244,0,0,0,0,0,0,0,0,0,-1,769,1268,0,0
-448,-244,0,0,0,0,0,0,0,0,0,-1,776,1268,0,0
-441,-244,0,0,0,0,0,0,0,0,0,-1,783,1268,0,0
-434,-244,0,0,0,0,0,0,0,0,0,-1,790,1268,0,0
-427,-244,0,0,0,0,0,0,0,0,0,-1,797,1268,0,0
-420,-244,0,0,0,0,0,0,0,0,0,-1,804,1268,0,0
-413,-244,0,0,0,0,0,0,0,0,0,-1,811,1268,0,0
-406,-244,0,0,0,0,0,0,0,0,0,-1,818,1268,0,0
-399,-244,0,0,0,0,0,0,0,0,0,-1,825,1268,0,0
-392,-244,0,0,0,0,0,0,0,0,0,-1,832,1268,0,0
-385,-244,0,0,0,0,0,0,0,0,0,-1,839,1268,0,0
-378,-244,0,0,0,0,0,0,0,0,0,-1,846,1268,0,0
-371,-244,0,0,0,0,0,0,0,0,0,-1,853,1268,0,0
-364,-244,0,0,0,0,0,0,0,0,0,-1,860,1268,0,0
-357,-244,0,0,0,0,0,0,0,0,0,-1,867,1268,0,0
-350,-244,0,0,0,0,0,0,0,0,0,-1,874,1268,0,0
-343,-244,0,0,0,0,0,0,0,0,0,-1,881,1268,0,0
-336,-244,0,0,0,0,0,0,0,0,0,-1,888,1268,0,0
-329,-244,0,0,0,0,0,0,0,0,0,-1,895,1268,0,0
-322,-244,0,0,0,0,0,0,0,0,0,-1,902,1268,0,0
-315,-244,0,0,0,0,0,0,0,0,0,-1,909,1268,0,0
-308,-244,0,0,0,0,0,0,0,0,0,-1,916,1268,0,0
-301,-244,0,0,0,0,0,0,0,0,0,-1,923,1268,0,0
-294,-244,0,0,0,0,0,0,0,0,0,-1,930,1268,0,0
-287,-244,0,0,0,0,0,0,0,0,0,-1,937,1268,0,0
-280,-244,0,0,0,0,0,0,0,0,0,-1,944,1268,0,0
-273,-244,0,0,0,0,0,0,0,0,0,-1,951,1268,0,0
-266,-244,0,0,0,0,0,0,0,0,0,-1,958,1268,0,0
-259,-244,0,0,0,0,0,0,0,0,0,-1,965,1268,0,0
-252,-244,0,0,0,0,0,0,0,0,0,-1,972,1268,0,0
-245,-244,0,0,0,0,0,0,0,0,0,-1,979,1268,0,0
-238,-244,0,0,0,0,0,0,0,0,0,-1,986,1268,0,0
-231,-244,0,0,0,0,0,0,0,0,0,-1,993,1268,0,0
-224,-244,0,0,0,0,0,0,0,0,0,-1,1000,1268,0,0
-217,-244,0,0,0,0,0,0,0,0,0,-1,1007,1268,0,0
-210,-244,0,0,0,0,0,0,0,0,0,-1,1014,1268,0,0
-203,-244,0,0,0,0,0,0,0,0,0,-1,1021,1268,0,0
-196,-244,0,0,0,0,0,0,0,0,0,-1,1028,1268,0,0
-189,-244,0,0,0,0,0,0,0,0,0,-1,1035,1268,0,0
-182,-244,0,0,0,0,0,0,0,0,0,-1,1042,1268,0,0
-175,-244,0,0,0,0,0,0,0,0,0,-1,1049,1268,0,0
-168,-244,0,0,0,0,0,0,0,0,0,-1,1056,1268,0,0
-161,-244,0,0,0,0,0,0,0,0,0,-1,1063,1268,0,0
-154,-244,0,0,0,0,0,0,0,0,0,-1,1070,1268,0,0
-147,-244,0,0,0,0,0,0,0,0,0,-1,1077,1268,0,0
-140,-244,0,0,0,0,0,0,0,0,0,-1,1084,1268,0,0
-133,-244,0,0,0,0,0,0,0,0,0,-1,1091,1268,0,0
-126,-244,0,0,0,0,0,0,0,0,0,-1,1098,1268,0,0
-119,-244,0,0,0,0,0,0,0,0,0,-1,1105,1268,0,0
-112,-244,0,0,0,0,0,0,0,0,0,-1,1112,1268,0,0
-105,-244,0,0,0,0,0,0,0,0,0,-1,1119,1268,0,0
-98,-244,0,0,0,0,0,0,0,0,0,-1,1126,1268,0,0
-91,-244,0,0,0,0,0,0,0,0,0,-1,1133,1268,0,0
-84,-244,0,0,0,0,0,0,0,0,0,-1,1140,1268,0,0
-77,-244,0,0,0,0,0,0,0,0,0,-1,1147,1268,0,0
-70,-244,0,0,0,0,0,0,0,0,0,-1,1154,1268,0,0
-63,-244,0,0,0,0,0,0,0,0,0,-1,1161,1268,0,0
-56,-244,0,0,0,0,0,0,0,0,0,-1,1168,1268,0,0
-49,-244,0,0,0,0,0,0,0,0,0,-1,1175,1268,0,0
-42,-244,0,0,0,0,0,0,0,0,0,-1,1182,1268,0,0
-35,-244,0,0,0,0,0,0,0,0,0,-1,1189,1268,0,0
-28,-244,0,0,0,0,0,0,0,0,0,-1,1196,1268,0,0
-21,-244,0,0,0,0,0,0,0,0,0,-1,1203,1268,0,0
-14,-244,0,0,0,0,0,0,0,0,0,-1,1210,1268,0,0
-7,-244,0,0,0,0,0,0,0,0,0,-1,1217,1268,0,0
0,-244,0,0,0,0,0,0,0,0,0,-1,1224,1268,0,0
7,-244,0,0,0,0,0,0,0,0,0,-1,1231,1268,0,0
14,-244,0,0,0,0,0,0,0,0,0,-1,1238,1268,0,0
21,-244,0,0,0,0,0,0,0,0,0,-1,1245,1268,0,0
28,-244,0,0,0,0,0,0,0,0,0,-1,1252,1268,0,0
35,-244,0,0,0,0,0,0,0,0,0,-1,1259,1268,0,0
42,-244,0,0,0,0,0,0,0,0,0,-1,1266,1268,0,0
49,-244,0,0,0,0,0,0,0,0,0,-1,1273,1268,0,0
56,-244,0,0,0,0,0,0,0,0,0,-1,1280,1268,0,0
63,-244,0,0,0,0,0,0,0,0,0,-1,1287,1268,0,0
70,-244,0,0,0,0,0,0,0,0,0,-1,1294,1268,0,0
77,-244,0,0,0,0,0,0,0,0,0,-1,1301,1268,0,0
84,-244,0,0,0,0,0,0,0,0,0,-1,1308,1268,0,0
91,-244,0,0,0,0,0,0,0,0,0,-1,1315,1268,0,0
98,-244,0,0,0,0,0,0,0,0,0,-1,1322,1268,0,0
105,-244,0,0,0,0,0,0,0,0,0,-1,1329,1268,0,0
112,-244,0,0,0,0,0,0,0,0,0,-1,1336,1268,0,0
119,-244,0,0,0,0,0,0,0,0,0,-1,1343,1268,0,0
126,-244,0,0,0,0,0,0,0,0,0,-1,1350,1268,0,0
133,-244,0,0,0,0,0,0,0,0,0,-1,1357,1268,0,0
140,-244,0,0,0,0,0,0,0,0,0,-1,1364,1268,0,0
147,-244,0,0,0,0,0,0,0,0,0,-1,1371,1268,0,0
154,-244,0,0,0,0,0,0,0,0,0,-1,1378,1268,0,0
161,-244,0,0,0,0,0,0,0,0,0,-1,1385,1268,0,0
168,-244,0,0,0,0,0,0,0,0,0,-1,1392,1268,0,0
175,-244,0,0,0,0,0,0,0,0,0,-1,1399,1268,0,0
182,-244,0,0,0,0,0,0,0,0,0,-1,1406,1268,0,0
189,-244,0,0,0,0,0,0,0,0,0,-1,1413,1268,0,0
196,-244,0,0,0,0,0,0,0,0,0,-1,1420,1268,0,0
203,-244,0,0,0,0,0,0,0,0,0,-1,1427,1268,0,0
210,-244,0,0,0,0,0,0,0,0,0,-1,1434,1268,0,0
217,-244,0,0,0,0,0,0,0,0,0,-1,1441,1268,0,0
224,-244,0,0,0,0,0,0,0,0,0,-1,1448,1268,0,0
231,-244,0,0,0,0,0,0,0,0,0,-1,1455,1268,0,0
238,-244,0,0,0,0,0,0,0,0,0,-1,1462,1268,0,0
245,-244,0,0,0,0,0,0,0,0,0,-1,1469,1268,0,0
252,-244,0,0,0,0,0,0,0,0,0,-1,1476,1268,0,0
259,-244,0,0,0,0,0,0,0,0,0,-1,1483,1268,0,0
266,-244,0,0,0,0,0,0,0,0,0,-1,1490,1268,0,0
273,-244,0,0,0,0,0,0,0,0,0,-1,1497,1268,0,0
280,-244,0,0,0,0,0,0,0,0,0,-1,1504,1268,0,0
287,-244,0,0,0,0,0,0,0,0,0,-1,1511,1268,0,0
294,-244,0,0,0,0,0,0,0,0,0,-1,1518,1268,0,0
301,-244,0,0,0,0,0,0,0,0,0,-1,1525,1268,0,0
308,-244,0,0,0,0,0,0,0,0,0,-1,1532,1268,0,0
315,-244,0,0,0,0,0,0,0,0,0,-1,1539,1268,0,0
322,-244,0,0,0,0,0,0,0,0,0,-1,1546,1268,0,0
329,-244,0,0,0,0,0,0,0,0,0,-1,1553,1268,0,0
336,-244,0,0,0,0,0,0,0,0,0,-1,1560,1268,0,0
343,-244,0,0,0,0,0,0,0,0,0,-1,1567,1268,0,0
350,-244,0,0,0,0,0,0,0,0,0,-1,1574,1268,0,0
357,-244,0,0,0,0,0,0,0,0,0,-1,1581,1268,0,0
364,-244,0,0,0,0,0,0,0,0,0,-1,1588,1268,0,0
371,-244,0,0,0,0,0,0,0,0,0,-1,1595,1268,0,0
378,-244,0,0,0,0,0,0,0,0,0,-1,1602,1268,0,0
385,-244,0,0,0,0,0,0,0,0,0,-1,1609,1268,0,0
392,-244,0,0,0,0,0,0,0,0,0,-1,1616,1268,0,0
399,-244,0,0,0,0,0,0,0,0,0,-1,1623,1268,0,0
406,-244,0,0,0,0,0,0,0,0,0,-1,1630,1268,0,0
413,-244,0,0,0,0,0,0,0,0,0,-1,1637,1268,0,0
420,-244,0,0,0,0,0,0,0,0,0,-1,1644,1268,0,0
427,-244,0,0,0,0,0,0,0,0,0,-1,1651,1268,0,0
434,-244,0,0,0,0,0,0,0,0,0,-1,1658,1268,0,0
441,-244,0,0,0,0,0,0,0,0,0,-1,1665,1268,0,0
448,-244,0,0,0,0,0,0,0,0,0,-1,1672,1268,0,0
455,-244,0,0,0,0,0,0,0,0,0,-1,1679,1268,0,0
462,-244,0,0,0,0,0,0,0,0,0,-1,1686,1268,0,0
469,-244,0,0,0,0,0,0,0,0,0,-1,1693,1268,0,0
476,-244,0,0,0,0,0,0,0,0,0,-1,1700,1268,0,0
483,-244,0,0,0,0,0,0,0,0,0,-1,1707,1268,0,0
490,-244,0,0,0,0,0,0,0,0,0,-1,1714,1268,0,0
497,-244,0,0,0,0,0,0,0,0,0,-1,1721,1268,0,0
504,-244,0,0,0,0,0,0,0,0,0,-1,1728,1268,0,0
511,-244,0,0,0,0,0,0,0,0,0,-1,1735,1268,0,0
518,-244,0,0,0,0,0,0,0,0,0,-1,1742,1268,0,0
525,-244,0,0,0,0,0,0,0,0,0,-1,1749,1268,0,0
532,-244,0,0,0,0,0,0,0,0,0,-1,1756,1268,0,0
539,-244,0,0,0,0,0,0,0,0,0,-1,1763,1268,0,0
546,-244,0,0,0,0,0,0,0,0,0,-1,1770,1268,0,0
553,-244,0,0,0,0,0,0,0,0,0,-1,1777,1268,0,0
560,-244,0,0,0,0,0,0,0,0,0,-1,1784,1268,0,0
567,-244,0,0,0,0,0,0,0,0,0,-1,1791,1268,0,0
574,-244,0,0,0,0,0,0,0,0,0,-1,1798,1268,0,0
581,-244,0,0,0,0,0,0,0,0,0,-1,1805,1268,0,0
588,-244,0,0,0,0,0,0,0,0,0,-1,1812,1268,0,0
595,-244,0,0,0,0,0,0,0,0,0,-1,1819,1268,0,0
602,-244,0,0,0,0,0,0,0,0,0,-1,1826,1268,0,0
609,-244,0,0,0,0,0,0,0,0,0,-1,1833,1268,0,0
616,-244,30.2538,2.76648,0.000275871,0.00116362,-0.0032292,0.00397931,-0.00253981,-0.853699,0.00379428,0.033336,1840,1268,30.2538,-2.76645
623,-244,30.274,2.82141,0.00135696,0.00675605,-0.00475305,0.00952268,-0.00140966,-1.04366,0.00686674,0.0265503,1847,1268,30.274,-2.82138
630,-244,30.2383,2.8595,0.00182668,0.0101889,-0.00528862,0.0127496,-0.000733951,-1.11989,0.00875463,0.0235808,1854,1268,30.2383,-2.85948
637,-244,30.2059,2.79114,0.00191438,0.0114282,-0.00499611,0.0135698,-0.000227211,-1.16584,0.00912321,0.0364271,1861,1268,30.2059,-2.79119
644,-244,30.0303,2.69312,0.0019237,0.010715,-0.00423563,0.0124236,0.000215054,-1.18736,0.00821165,0.0452071,1868,1268,30.0302,-2.69306
651,-244,29.8529,2.55505,0,0,0,0,0,0,0,-1,1875,1268,29.8529,-2.55502
658,-244,29.3381,2.75183,0,0,0,0,0,0,0,-1,1882,1268,29.3381,-2.75184
665,-244,29.0326,1.53735,0,0,0,0,0,0,0,-1,1889,1268,29.0325,-1.53733
672,-244,26.2083,4.599,0,0,0,0,0,0,0,-1,1896,1268,26.2082,-4.599
679,-244,24.1353,7.19592,0,0,0,0,0,0,0,-1,1903,1268,24.1353,-7.19591
686,-244,24.1719,7.15332,0.00154761,0.00280476,-0.000419341,0.0029318,0.00142057,-1.27663,0.00169295,0.0417292,1910,1268,24.1718,-7.15329
693,-244,24.1034,6.8844,0.00129315,0.00133933,0.000219741,0.00153719,0.00109529,0.837745,0.00091383,0.0163017,1917,1268,24.1034,-6.88446
700,-244,24.1073,6.56628,0.00140033,-0.000479968,0.000687083,0.00162464,-0.000704278,0.315558,0.00137915,0.00924645,1924,1268,24.1072,-6.56624
707,-244,24.1147,6.29639,0.00141453,-0.00054758,0.000561733,0.00156397,-0.000697017,0.260006,0.00133699,0.0100203,1931,1268,24.1147,-6.29635
714,-244,24.1321,6.04358,0.00146969,-0.000513187,0.000586862,0.00163037,-0.000673858,0.267232,0.00136802,0.010799,1938,1268,24.132,-6.04361
721,-244,24.0931,5.80847,0.00152629,-0.000504186,0.000564724,0.00167278,-0.00065068,0.253814,0.00138404,0.013934,1945,1268,24.0931,-5.8085
728,-244,24.0981,5.53015,0.00167598,0.000414079,0.000596961,0.00191362,0.000176432,0.378863,0.00122119,0.0177919,1952,1268,24.0981,-5.53018
735,-244,24.0994,5.2417,0.00206157,0.000808986,0.000791987,0.00244497,0.000425582,0.45085,0.00150827,0.0215087,1959,1268,24.0994,-5.24174
742,-244,24.1296,5.01416,0.00270521,0.00121498,0.000924394,0.0031474,0.000772784,0.446186,0.00189397,0.0150611,1966,1268,24.1296,-5.01417
749,-244,24.1123,4.75806,0.00382802,0.00164528,0.0010025,0.00421857,0.00125473,0.371489,0.00250134,0.0187298,1973,1268,24.1124,-4.75811
756,-244,24.0134,4.51318,0.00564523,0.002132,0.000893151,0.00585925,0.00191798,0.235192,0.00344942,0.0262321,1980,1268,24.0134,-4.51317
763,-244,23.918,4.43799,0.00839728,0.00266169,0.000570382,0.00845346,0.00260552,0.0981651,0.00499884,0.0438697,1987,1268,23.918,-4.43801
770,-244,23.8904,4.22266,0,0,0,0,0,0,0,-1,1994,1268,23.8904,-4.22265
777,-244,23.488,3.38855,0,0,0,0,0,0,0,-1,2001,1268,23.4881,-3.38858
784,-244,19.744,7.35754,0,0,0,0,0,0,0,-1,2008,1268,19.7441,-7.35757
791,-244,0,0,0,0,0,0,0,0,0,-1,2015,1268,0,0
798,-244,0,0,0,0,0,0,0,0,0,-1,2022,1268,0,0
805,-244,0,0,0,0,0,0,0,0,0,-1,2029,1268,0,0
812,-244,0,0,0,0,0,0,0,0,0,-1,2036,1268,0,0
-700,-251,0,0,0,0,0,0,0,0,0,-1,524,1275,0,0
-693,-251,0,0,0,0,0,0,0,0,0,-1,531,1275,0,0
-686,-251,0,0,0,0,0,0,0,0,0,-1,538,1275,0,0
-679,-251,0,0,0,0,0,0,0,0,0,-1,545,1275,0,0
-672,-251,0,0,0,0,0,0,0,0,0,-1,552,1275,0,0
-665,-251,-17.7763,2.92029,0,0,0,0,0,0,0,-1,559,1275,-17.7763,-2.92035
-658,-251,-16.5306,2.30774,0,0,0,0,0,0,0,-1,566,1275,-16.5306,-2.30778
-651,-251,-15.2849,1.69519,0,0,0,0,0,0,0,-1,573,1275,-15.2849,-1.69521
-644,-251,-18.8923,3.12195,0,0,0,0,0,0,0,-1,580,1275,-18.8923,-3.1219
-637,-251,-13.9843,1.97705,0,0,0,0,0,0,0,-1,587,1275,-13.9843,-1.97706
-630,-251,-14.0872,2.15369,0.065446,-0.0171859,-0.0066184,0.0659728,-0.0177127,-0.0794201,0.0509235,0.0463508,594,1275,-14.0872,-2.15368
-623,-251,-14.0061,2.22986,0.046507,-0.0119352,-0.00657846,0.0472383,-0.0126665,-0.110718,0.0364554,0.0401826,601,1275,-14.0061,-2.22987
-616,-251,-13.8531,2.30383,0.032458,-0.00810571,-0.00580442,0.0332722,-0.00891995,-0.139369,0.0256766,0.0211429,608,1275,-13.8532,-2.30388
-609,-251,-13.8715,2.56763,0.0207294,-0.00472082,-0.00513369,0.0217259,-0.00571734,-0.19173,0.0167188,0.0188089,615,1275,-13.8715,-2.56765
-602,-251,-13.8792,2.85718,0.0121805,-0.0023421,-0.00358886,0.013019,-0.00318058,-0.229516,0.00991113,0.0139252,622,1275,-13.8791,-2.85717
-595,-251,-13.8469,3.14294,0.00687071,-0.00083544,-0.0021328,0.00742161,-0.00138634,-0.252776,0.00546875,0.0124011,629,1275,-13.8469,-3.14294
-588,-251,-13.844,3.44531,0.00504247,-0.0001397,-0.00069015,0.0051328,-0.000230038,-0.130156,0.00350107,0.0148206,636,1275,-13.844,-3.44533
-581,-251,-13.8687,3.76953,0.00398119,5.92467e-05,4.97181e-06,0.0039812,5.92403e-05,0.00126769,0.00263461,0.0136912,643,1275,-13.8686,-3.76948
-574,-251,-13.8766,4.09485,0.00345134,0.000130793,0.000125718,0.00345609,0.00012604,0.0377884,0.00226322,0.0124813,650,1275,-13.8766,-4.09485
-567,-251,-13.877,4.40259,0.00298868,-3.98319e-06,-0.000152009,0.00299638,-1.16845e-05,-0.0506202,0.00200149,0.0105596,657,1275,-13.877,-4.4026
-560,-251,-13.8295,4.72559,0.00234817,8.37211e-05,-0.000527418,0.00246498,-3.3095e-05,-0.217968,0.00165446,0.0205417,664,1275,-13.8295,-4.7256
-553,-251,-13.7134,5.01111,0,0,0,0,0,0,0,-1,671,1275,-13.7134,-5.0111
-546,-251,-12.995,4.5675,0,0,0,0,0,0,0,-1,678,1275,-12.995,-4.56745
-539,-251,-10.7916,0.366333,0,0,0,0,0,0,0,-1,685,1275,-10.7916,-0.366282
-532,-251,-10.7391,-0.00769043,0,0,0,0,0,0,0,-1,692,1275,-10.7391,0.00773227
-525,-251,-20.4113,0.982422,0,0,0,0,0,0,0,-1,699,1275,-20.4113,-0.982475
-518,-251,-20.3906,1.08459,0,0,0,0,0,0,0,-1,706,1275,-20.3906,-1.08456
-511,-251,-20.3699,1.18665,0,0,0,0,0,0,0,-1,713,1275,-20.3699,-1.18664
-504,-251,-20.4874,0.755737,0,0,0,0,0,0,0,-1,720,1275,-20.4874,-0.755731
-497,-251,-20.6196,0.834351,0,0,0,0,0,0,0,-1,727,1275,-20.6196,-0.83431
-490,-251,0,0,0,0,0,0,0,0,0,-1,734,1275,0,0
-483,-251,0,0,0,0,0,0,0,0,0,-1,741,1275,0,0
-476,-251,0,0,0,0,0,0,0,0,0,-1,748,1275,0,0
-469,-251,0,0,0,0,0,0,0,0,0,-1,755,1275,0,0
-462,-251,0,0,0,0,0,0,0,0,0,-1,762,1275,0,0
-455,-251,0,0,0,0,0,0,0,0,0,-1,769,1275,0,0
-448,-251,0,0,0,0,0,0,0,0,0,-1,776,1275,0,0
-441,-251,0,0,0,0,0,0,0,0,0,-1,783,1275,0,0
-434,-251,0,0,0,0,0,0,0,0,0,-1,790,1275,0,0
-427,-251,0,0,0,0,0,0,0,0,0,-1,797,1275,0,0
-420,-251,0,0,0,0,0,0,0,0,0,-1,804,1275,0,0
-413,-251,0,0,0,0,0,0,0,0,0,-1,811,1275,0,0
-406,-251,0,0,0,0,0,0,0,0,0,-1,818,1275,0,0
-399,-251,0,0,0,0,0,0,0,0,0,-1,825,1275,0,0
-392,-251,0,0,0,0,0,0,0,0,0,-1,832,1275,0,0
-385,-251,0,0,0,0,0,0,0,0,0,-1,839,1275,0,0
-378,-251,0,0,0,0,0,0,0,0,0,-1,846,1275,0,0
-371,-251,0,0,0,0,0,0,0,0,0,-1,853,1275,0,0
-364,-251,0,0,0,0,0,0,0,0,0,-1,860,1275,0,0
-357,-251,0,0,0,0,0,0,0,0,0,-1,867,1275,0,0
-350,-251,0,0,0,0,0,0,0,0,0,-1,874,1275,0,0
-343,-251,0,0,0,0,0,0,0,0,0,-1,881,1275,0,0
-336,-251,0,0,0,0,0,0,0,0,0,-1,888,1275,0,0
-329,-251,0,0,0,0,0,0,0,0,0,-1,895,1275,0,0
-322,-251,0,0,0,0,0,0,0,0,0,-1,902,1275,0,0
-315,-251,0,0,0,0,0,0,0,0,0,-1,909,1275,0,0
-308,-251,0,0,0,0,0,0,0,0,0,-1,916,1275,0,0
-301,-251,0,0,0,0,0,0,0,0,0,-1,923,1275,0,0
-294,-251,0,0,0,0,0,0,0,0,0,-1,930,1275,0,0
-287,-251,0,0,0,0,0,0,0,0,0,-1,937,1275,0,0
-280,-251,0,0,0,0,0,0,0,0,0,-1,944,1275,0,0
-273,-251,0,0,0,0,0,0,0,0,0,-1,951,1275,0,0
-266,-251,0,0,0,0,0,0,0,0,0,-1,958,1275,0,0
-259,-251,0,0,0,0,0,0,0,0,0,-1,965,1275,0,0
-252,-251,0,0,0,0,0,0,0,0,0,-1,972,1275,0,0
-245,-251,0,0,0,0,0,0,0,0,0,-1,979,1275,0,0
-238,-251,0,0,0,0,0,0,0,0,0,-1,986,1275,0,0
-231,-251,0,0,0,0,0,0,0,0,0,-1,993,1275,0,0
-224,-251,0,0,0,0,0,0,0,0,0,-1,1000,1275,0,0
-217,-251,0,0,0,0,0,0,0,0,0,-1,1007,1275,0,0
-210,-251,0,0,0,0,0,0,0,0,0,-1,1014,1275,0,0
-203,-251,0,0,0,0,0,0,0,0,0,-1,1021,1275,0,0
-196,-251,0,0,0,0,0,0,0,0,0,-1,1028,1275,0,0
-189,-251,0,0,0,0,0,0,0,0,0,-1,1035,1275,0,0
-182,-251,0,0,0,0,0,0,0,0,0,-1,1042,1275,0,0
-175,-251,0,0,0,0,0,0,0,0,0,-1,1049,1275,0,0
-168,-251,0,0,0,0,0,0,0,0,0,-1,1056,1275,0,0
-161,-251,0,0,0,0,0,0,0,0,0,-1,1063,1275,0,0
-154,-251,0,0,0,0,0,0,0,0,0,-1,1070,1275,0,0
-147,-251,0,0,0,0,0,0,0,0,0,-1,1077,1275,0,0
-140,-251,0,0,0,0,0,0,0,0,0,-1,1084,1275,0,0
-133,-251,0,0,0,0,0,0,0,0,0,-1,1091,1275,0,0
-126,-251,0,0,0,0,0,0,0,0,0,-1,1098,1275,0,0
-119,-251,0,0,0,0,0,0,0,0,0,-1,1105,1275,0,0
-112,-251,0,0,0,0,0,0,0,0,0,-1,1112,1275,0,0
-105,-251,0,0,0,0,0,0,0,0,0,-1,1119,1275,0,0
-98,-251,0,0,0,0,0,0,0,0,0,-1,1126,1275,0,0
-91,-251,0,0,0,0,0,0,0,0,0,-1,1133,1275,0,0
-84,-251,0,0,0,0,0,0,0,0,0,-1,1140,1275,0,0
-77,-251,0,0,0,0,0,0,0,0,0,-1,1147,1275,0,0
-70,-251,0,0,0,0,0,0,0,0,0,-1,1154,1275,0,0
-63,-251,0,0,0,0,0,0,0,0,0,-1,1161,1275,0,0
-56,-251,0,0,0,0,0,0,0,0,0,-1,1168,1275,0,0
-49,-251,0,0,0,0,0,0,0,0,0,-1,1175,1275,0,0
-42,-251,0,0,0,0,0,0,0,0,0,-1,1182,1275,0,0
-35,-251,0,0,0,0,0,0,0,0,0,-1,1189,1275,0,0
-28,-251,0,0,0,0,0,0,0,0,0,-1,1196,1275,0,0
-21,-251,0,0,0,0,0,0,0,0,0,-1,1203,1275,0,0
-14,-251,0,0,0,0,0,0,0,0,0,-1,1210,1275,0,0
-7,-251,0,0,0,0,0,0,0,0,0,-1,1217,1275,0,0
0,-251,0,0,0,0,0,0,0,0,0,-1,1224,1275,0,0
7,-251,0,0,0,0,0,0,0,0,0,-1,1231,1275,0,0
14,-251,0,0,0,0,0,0,0,0,0,-1,1238,1275,0,0
21,-251,0,0,0,0,0,0,0,0,0,-1,1245,1275,0,0
28,-251,0,0,0,0,0,0,0,0,0,-1,1252,1275,0,0
35,-251,0,0,0,0,0,0,0,0,0,-1,1259,1275,0,0
42,-251,0,0,0,0,0,0,0,0,0,-1,1266,1275,0,0
49,-251,0,0,0,0,0,0,0,0,0,-1,1273,1275,0,0
56,-251,0,0,0,0,0,0,0,0,0,-1,1280,1275,0,0
63,-251,0,0,0,0,0,0,0,0,0,-1,1287,1275,0,0
70,-251,0,0,0,0,0,0,0,0,0,-1,1294,1275,0,0
77,-251,0,0,0,0,0,0,0,0,0,-1,1301,1275,0,0
84,-251,0,0,0,0,0,0,0,0,0,-1,1308,1275,0,0
91,-251,0,0,0,0,0,0,0,0,0,-1,1315,1275,0,0
98,-251,0,0,0,0,0,0,0,0,0,-1,1322,1275,0,0
105,-251,0,0,0,0,0,0,0,0,0,-1,1329,1275,0,0
112,-251,0,0,0,0,0,0,0,0,0,-1,1336,1275,0,0
119,-251,0,0,0,0,0,0,0,0,0,-1,1343,1275,0,0
126,-251,0,0,0,0,0,0,0,0,0,-1,1350,1275,0,0
133,-251,0,0,0,0,0,0,0,0,0,-1,1357,1275,0,0
140,-251,0,0,0,0,0,0,0,0,0,-1,1364,1275,0,0
147,-251,0,0,0,0,0,0,0,0,0,-1,1371,1275,0,0
154,-251,0,0,0,0,0,0,0,0,0,-1,1378,1275,0,0
161,-251,0,0,0,0,0,0,0,0,0,-1,1385,1275,0,0
168,-251,0,0,0,0,0,0,0,0,0,-1,1392,1275,0,0
175,-251,0,0,0,0,0,0,0,0,0,-1,1399,1275,0,0
182,-251,0,0,0,0,0,0,0,0,0,-1,1406,1275,0,0
189,-251,0,0,0,0,0,0,0,0,0,-1,1413,1275,0,0
196,-251,0,0,0,0,0,0,0,0,0,-1,1420,1275,0,0
203,-251,0,0,0,0,0,0,0,0,0,-1,1427,1275,0,0
210,-251,0,0,0,0,0,0,0,0,0,-1,1434,1275,0,0
217,-251,0,0,0,0,0,0,0,0,0,-1,1441,1275,0,0
224,-251,0,0,0,0,0,0,0,0,0,-1,1448,1275,0,0
231,-251,0,0,0,0,0,0,0,0,0,-1,1455,1275,0,0
238,-251,0,0,0,0,0,0,0,0,0,-1,1462,1275,0,0
245,-251,0,0,0,0,0,0,0,0,0,-1,1469,1275,0,0
252,-251,0,0,0,0,0,0,0,0,0,-1,1476,1275,0,0
259,-251,0,0,0,0,0,0,0,0,0,-1,1483,1275,0,0
266,-251,0,0,0,0,0,0,0,0,0,-1,1490,1275,0,0
273,-251,0,0,0,0,0,0,0,0,0,-1,1497,1275,0,0
280,-251,0,0,0,0,0,0,0,0,0,-1,1504,1275,0,0
287,-251,0,0,0,0,0,0,0,0,0,-1,1511,1275,0,0
294,-251,0,0,0,0,0,0,0,0,0,-1,1518,1275,0,0
301,-251,0,0,0,0,0,0,0,0,0,-1,1525,1275,0,0
308,-251,0,0,0,0,0,0,0,0,0,-1,1532,1275,0,0
315,-251,0,0,0,0,0,0,0,0,0,-1,1539,1275,0,0
322,-251,0,0,0,0,0,0,0,0,0,-1,1546,1275,0,0
329,-251,0,0,0,0,0,0,0,0,0,-1,1553,1275,0,0
336,-251,0,0,0,0,0,0,0,0,0,-1,1560,1275,0,0
343,-251,0,0,0,0,0,0,0,0,0,-1,1567,1275,0,0
350,-251,0,0,0,0,0,0,0,0,0,-1,1574,1275,0,0
357,-251,0,0,0,0,0,0,0,0,0,-1,1581,1275,0,0
364,-251,0,0,0,0,0,0,0,0,0,-1,1588,1275,0,0
371,-251,0,0,0,0,0,0,0,0,0,-1,1595,1275,0,0
378,-251,0,0,0,0,0,0,0,0,0,-1,1602,1275,0,0
385,-251,0,0,0,0,0,0,0,0,0,-1,1609,1275,0,0
392,-251,0,0,0,0,0,0,0,0,0,-1,1616,1275,0,0
399,-251,0,0,0,0,0,0,0,0,0,-1,1623,1275,0,0
406,-251,0,0,0,0,0,0,0,0,0,-1,1630,1275,0,0
413,-251,0,0,0,0,0,0,0,0,0,-1,1637,1275,0,0
420,-251,0,0,0,0,0,0,0,0,0,-1,1644,1275,0,0
427,-251,0,0,0,0,0,0,0,0,0,-1,1651,1275,0,0
434,-251,0,0,0,0,0,0,0,0,0,-1,1658,1275,0,0
441,-251,0,0,0,0,0,0,0,0,0,-1,1665,1275,0,0
448,-251,0,0,0,0,0,0,0,0,0,-1,1672,1275,0,0
455,-251,0,0,0,0,0,0,0,0,0,-1,1679,1275,0,0
462,-251,0,0,0,0,0,0,0,0,0,-1,1686,1275,0,0
469,-251,0,0,0,0,0,0,0,0,0,-1,1693,1275,0,0
476,-251,0,0,0,0,0,0,0,0,0,-1,1700,1275,0,0
483,-251,0,0,0,0,0,0,0,0,0,-1,1707,1275,0,0
490,-251,0,0,0,0,0,0,0,0,0,-1,1714,1275,0,0
497,-251,0,0,0,0,0,0,0,0,0,-1,1721,1275,0,0
504,-251,0,0,0,0,0,0,0,0,0,-1,1728,1275,0,0
511,-251,0,0,0,0,0,0,0,0,0,-1,1735,1275,0,0
518,-251,0,0,0,0,0,0,0,0,0,-1,1742,1275,0,0
525,-251,0,0,0,0,0,0,0,0,0,-1,1749,1275,0,0
532,-251,0,0,0,0,0,0,0,0,0,-1,1756,1275,0,0
539,-251,0,0,0,0,0,0,0,0,0,-1,1763,1275,0,0
546,-251,0,0,0,0,0,0,0,0,0,-1,1770,1275,0,0
553,-251,0,0,0,0,0,0,0,0,0,-1,1777,1275,0,0
560,-251,0,0,0,0,0,0,0,0,0,-1,1784,1275,0,0
567,-251,0,0,0,0,0,0,0,0,0,-1,1791,1275,0,0
574,-251,0,0,0,0,0,0,0,0,0,-1,1798,1275,0,0
581,-251,0,0,0,0,0,0,0,0,0,-1,1805,1275,0,0
588,-251,0,0,0,0,0,0,0,0,0,-1,1812,1275,0,0
595,-251,0,0,0,0,0,0,0,0,0,-1,1819,1275,0,0
602,-251,0,0,0,0,0,0,0,0,0,-1,1826,1275,0,0
609,-251,30.2164,2.82349,-0.000692656,-0.000837925,-0.00348625,0.00272171,-0.00425229,-0.774982,0.00405864,0.0280032,1833,1275,30.2164,-2.82351
616,-251,30.1888,2.78259,0.00105715,0.00418526,-0.00522,0.00807048,-0.00282807,-0.930955,0.00653043,0.0252025,1840,1275,30.1889,-2.7826
623,-251,30.2065,2.83057,0.00163702,0.009107,-0.00597652,0.0124196,-0.00167561,-1.06468,0.00889108,0.0227052,1847,1275,30.2065,-2.83054
630,-251,30.2262,2.82422,0.00144654,0.0120548,-0.00583297,0.0146346,-0.00113333,-1.15437,0.0101553,0.0341083,1854,1275,30.2262,-2.82417
637,-251,30.3381,2.8446,0.00116236,0.0125513,-0.00505208,0.0144694,-0.000755685,-1.20795,0.00990776,0.0418166,1861,1275,30.3381,-2.84457
644,-251,30.5791,3.38538,0.000991797,0.0115225,-0.00412359,0.0129451,-0.000430745,-1.2386,0.00877715,0.0473693,1868,1275,30.5791,-3.38534
651,-251,30.7874,3.57788,0,0,0,0,0,0,0,-1,1875,1275,30.7874,-3.57793
658,-251,31.1479,3.45996,0,0,0,0,0,0,0,-1,1882,1275,31.1479,-3.45992
665,-251,26.3168,4.08484,0,0,0,0,0,0,0,-1,1889,1275,26.3168,-4.08479
672,-251,26.0721,4.53064,0,0,0,0,0,0,0,-1,1896,1275,26.0721,-4.53063
679,-251,23.7244,7.29187,0,0,0,0,0,0,0,-1,1903,1275,23.7244,-7.29185
686,-251,23.8129,7.1167,0.000689088,0.0034175,-0.000201686,0.00343233,0.00067426,-1.49741,0.00209987,0.0385586,1910,1275,23.8129,-7.1167
693,-251,23.88,6.87378,0.000423323,0.00183474,0.000471918,0.00197799,0.000280072,1.27609,0.00123593,0.0106751,1917,1275,23.88,-6.87375
700,-251,23.8608,6.58557,0.000688917,-0.000231118,0.000907199,0.00124606,-0.000788266,0.550752,0.00118439,0.00916229,1924,1275,23.8608,-6.58553
707,-251,23.8623,6.29211,0.000937836,-0.00028338,0.0006484,0.00121788,-0.000563426,0.407703,0.00105132,0.0112556,1931,1275,23.8623,-6.29211
714,-251,23.8706,6.04224,0.00123689,-0.000245314,0.000529096,0.00140637,-0.000414803,0.310008,0.00110218,0.0116252,1938,1275,23.8706,-6.0422
721,-251,23.822,5.78369,0.00144519,-0.000171834,0.000431691,0.00155322,-0.000279864,0.245212,0.00114027,0.0137142,1945,1275,23.822,-5.78366
728,-251,23.8237,5.50989,0.00161132,0.000598848,0.000431897,0.00177053,0.000439645,0.35316,0.00106451,0.0151618,1952,1275,23.8238,-5.50985
735,-251,23.8387,5.24597,0.00195478,0.001013,0.000559576,0.00221524,0.000752548,0.435625,0.00130069,0.0142347,1959,1275,23.8387,-5.24592
742,-251,23.8668,5.01233,0.00252241,0.00147717,0.000631895,0.0028198,0.00117977,0.439884,0.00163522,0.0143075,1966,1275,23.8668,-5.01231
749,-251,23.8201,4.79321,0.00350779,0.00199103,0.000646887,0.0037462,0.00175261,0.353112,0.00216436,0.0245272,1973,1275,23.8201,-4.79319
756,-251,23.7325,4.69983,0.00508139,0.00261568,0.000466341,0.00516664,0.00253043,0.180814,0.00298317,0.0405133,1980,1275,23.7325,-4.69989
763,-251,23.7401,4.67029,0.00742466,0.00335771,6.67911e-05,0.00742575,0.00335662,0.016417,0.00429383,0.0482689,1987,1275,23.7401,-4.67026
770,-251,23.8965,4.61377,0,0,0,0,0,0,0,-1,1994,1275,23.8964,-4.61375
777,-251,20.9109,6.20703,0,0,0,0,0,0,0,-1,2001,1275,20.9109,-6.20699
784,-251,20.0607,6.33337,0,0,0,0,0,0,0,-1,2008,1275,20.0607,-6.33332
791,-251,0,0,0,0,0,0,0,0,0,-1,2015,1275,0,0
798,-251,0,0,0,0,0,0,0,0,0,-1,2022,1275,0,0
805,-251,0,0,0,0,0,0,0,0,0,-1,2029,1275,0,0
812,-251,0,0,0,0,0,0,0,0,0,-1,2036,1275,0,0
-700,-258,0,0,0,0,0,0,0,0,0,-1,524,1282,0,0
-693,-258,0,0,0,0,0,0,0,0,0,-1,531,1282,0,0
-686,-258,0,0,0,0,0,0,0,0,0,-1,538,1282,0,0
-679,-258,0,0,0,0,0,0,0,0,0,-1,545,1282,0,0
-672,-258,0,0,0,0,0,0,0,0,0,-1,552,1282,0,0
-665,-258,-18.5816,3.23279,0,0,0,0,0,0,0,-1,559,1282,-18.5816,-3.23282
-658,-258,-17.1017,2.64453,0,0,0,0,0,0,0,-1,566,1282,-17.1017,-2.64454
-651,-258,-15.8635,2.04236,0,0,0,0,0,0,0,-1,573,1282,-15.8635,-2.0424
-644,-258,-13.2803,2.21179,0,0,0,0,0,0,0,-1,580,1282,-13.2803,-2.21181
-637,-258,-13.4388,2.13904,0.0973642,-0.0275669,-0.0111467,0.098351,-0.0285537,-0.0882932,0.0768737,0.0470527,587,1282,-13.4388,-2.13904
-630,-258,-13.6163,2.0387,0.0720373,-0.0205538,-0.0114531,0.0734329,-0.0219494,-0.12126,0.0576811,0.0477406,594,1282,-13.6163,-2.03874
-623,-258,-13.6116,1.97449,0.052302,-0.0149741,-0.0104452,0.0538864,-0.0165584,-0.150538,0.0425321,0.0487206,601,1282,-13.6116,-1.97444
-616,-258,-13.5612,2.22241,0.0372825,-0.0106323,-0.00869916,0.0388129,-0.0121628,-0.174153,0.0307423,0.0333204,608,1282,-13.5612,-2.22244
-609,-258,-13.5406,2.54846,0.0248532,-0.00690244,-0.0071572,0.0263918,-0.00844101,-0.211746,0.020982,0.0165139,615,1282,-13.5406,-2.54849
-602,-258,-13.5425,2.84985,0.0154798,-0.00401109,-0.00502244,0.0166979,-0.00522916,-0.237931,0.0132242,0.0136214,622,1282,-13.5425,-2.84988
-595,-258,-13.5328,3.15027,0.00921363,-0.00197113,-0.00307296,0.0100023,-0.0027598,-0.251226,0.00775362,0.0113488,629,1282,-13.5328,-3.15024
-588,-258,-13.5403,3.4696,0.00637593,-0.000744226,-0.00112192,0.00654852,-0.000916822,-0.152643,0.00470119,0.0127686,636,1282,-13.5403,-3.46961
-581,-258,-13.5598,3.79321,0.00457332,-0.000122884,3.44779e-05,0.00457358,-0.000123137,0.00734113,0.00309091,0.0138532,643,1282,-13.5598,-3.7932
-574,-258,-13.5549,4.11292,0.00359275,0.000261659,0.000439,0.00364963,0.000204775,0.128858,0.00236778,0.0136172,650,1282,-13.5549,-4.11286
-567,-258,-13.5674,4.41174,0.0030501,0.00013624,0.000195153,0.00306311,0.000123228,0.0665777,0.00200226,0.0135483,657,1282,-13.5674,-4.41174
-560,-258,-13.5399,4.69763,0.00249463,4.42743e-05,-0.000289732,0.00252842,1.04822e-05,-0.116108,0.00168213,0.0258481,664,1282,-13.5399,-4.69769
-553,-258,-13.4722,4.94727,0,0,0,0,0,0,0,-1,671,1282,-13.4722,-4.94731
-546,-258,-13.7579,5.51318,0,0,0,0,0,0,0,-1,678,1282,-13.7579,-5.51312
-539,-258,-10.2228,4.05823,0,0,0,0,0,0,0,-1,685,1282,-10.2228,-4.05823
-532,-258,-10.2173,-0.353882,0,0,0,0,0,0,0,-1,692,1282,-10.2173,0.353836
-525,-258,-18.6293,0.796143,0,0,0,0,0,0,0,-1,699,1282,-18.6293,-0.796176
-518,-258,-20.2477,1.08252,0,0,0,0,0,0,0,-1,706,1282,-20.2477,-1.08257
-511,-258,-19.0884,-0.198608,0,0,0,0,0,0,0,-1,713,1282,-19.0884,0.198604
-504,-258,-18.572,-0.443237,0,0,0,0,0,0,0,-1,720,1282,-18.572,0.443228
-497,-258,-17.8047,0.730469,0,0,0,0,0,0,0,-1,727,1282,-17.8048,-0.730489
-490,-258,-15.4346,0.632935,0,0,0,0,0,0,0,-1,734,1282,-15.4346,-0.632917
-483,-258,0,0,0,0,0,0,0,0,0,-1,741,1282,0,0
-476,-258,0,0,0,0,0,0,0,0,0,-1,748,1282,0,0
-469,-258,0,0,0,0,0,0,0,0,0,-1,755,1282,0,0
-462,-258,0,0,0,0,0,0,0,0,0,-1,762,1282,0,0
-455,-258,0,0,0,0,0,0,0,0,0,-1,769,1282,0,0
-448,-258,0,0,0,0,0,0,0,0,0,-1,776,1282,0,0
-441,-258,0,0,0,0,0,0,0,0,0,-1,783,1282,0,0
-434,-258,0,0,0,0,0,0,0,0,0,-1,790,1282,0,0
-427,-258,0,0,0,0,0,0,0,0,0,-1,797,1282,0,0
-420,-258,0,0,0,0,0,0,0,0,0,-1,804,1282,0,0
-413,-258,0,0,0,0,0,0,0,0,0,-1,811,1282,0,0
-406,-258,0,0,0,0,0,0,0,0,0,-1,818,1282,0,0
-399,-258,0,0,0,0,0,0,0,0,0,-1,825,1282,0,0
-392,-258,0,0,0,0,0,0,0,0,0,-1,832,1282,0,0
-385,-258,0,0,0,0,0,0,0,0,0,-1,839,1282,0,0
-378,-258,0,0,0,0,0,0,0,0,0,-1,846,1282,0,0
-371,-258,0,0,0,0,0,0,0,0,0,-1,853,1282,0,0
-364,-258,0,0,0,0,0,0,0,0,0,-1,860,1282,0,0
-357,-258,0,0,0,0,0,0,0,0,0,-1,867,1282,0,0
-350,-258,0,0,0,0,0,0,0,0,0,-1,874,1282,0,0
-343,-258,0,0,0,0,0,0,0,0,0,-1,881,1282,0,0
-336,-258,0,0,0,0,0,0,0,0,0,-1,888,1282,0,0
-329,-258,0,0,0,0,0,0,0,0,0,-1,895,1282,0,0
-322,-258,0,0,0,0,0,0,0,0,0,-1,902,1282,0,0
-315,-258,0,0,0,0,0,0,0,0,0,-1,909,1282,0,0
-308,-258,0,0,0,0,0,0,0,0,0,-1,916,1282,0,0
-301,-258,0,0,0,0,0,0,0,0,0,-1,923,1282,0,0
-294,-258,0,0,0,0,0,0,0,0,0,-1,930,1282,0,0
-287,-258,0,0,0,0,0,0,0,0,0,-1,937,1282,0,0
-280,-258,0,0,0,0,0,0,0,0,0,-1,944,1282,0,0
-273,-258,0,0,0,0,0,0,0,0,0,-1,951,1282,0,0
-266,-258,0,0,0,0,0,0,0,0,0,-1,958,1282,0,0
-259,-258,0,0,0,0,0,0,0,0,0,-1,965,1282,0,0
-252,-258,0,0,0,0,0,0,0,0,0,-1,972,1282,0,0
-245,-258,0,0,0,0,0,0,0,0,0,-1,979,1282,0,0
-238,-258,0,0,0,0,0,0,0,0,0,-1,986,1282,0,0
-231,-258,0,0,0,0,0,0,0,0,0,-1,993,1282,0,0
-224,-258,0,0,0,0,0,0,0,0,0,-1,1000,1282,0,0
-217,-258,0,0,0,0,0,0,0,0,0,-1,1007,1282,0,0
-210,-258,0,0,0,0,0,0,0,0,0,-1,1014,1282,0,0
-203,-258,0,0,0,0,0,0,0,0,0,-1,1021,1282,0,0
-196,-258,0,0,0,0,0,0,0,0,0,-1,1028,1282,0,0
-189,-258,0,0,0,0,0,0,0,0,0,-1,1035,1282,0,0
-182,-258,0,0,0,0,0,0,0,0,0,-1,1042,1282,0,0
-175,-258,0,0,0,0,0,0,0,0,0,-1,1049,1282,0,0
-168,-258,0,0,0,0,0,0,0,0,0,-1,1056,1282,0,0
-161,-258,0,0,0,0,0,0,0,0,0,-1,1063,1282,0,0
-154,-258,0,0,0,0,0,0,0,0,0,-1,1070,1282,0,0
-147,-258,0,0,0,0,0,0,0,0,0,-1,1077,1282,0,0
-140,-258,0,0,0,0,0,0,0,0,0,-1,1084,1282,0,0
-133,-258,0,0,0,0,0,0,0,0,0,-1,1091,1282,0,0
-126,-258,0,0,0,0,0,0,0,0,0,-1,1098,1282,0,0
-119,-258,0,0,0,0,0,0,0,0,0,-1,1105,1282,0,0
-112,-258,0,0,0,0,0,0,0,0,0,-1,1112,1282,0,0
-105,-258,0,0,0,0,0,0,0,0,0,-1,1119,1282,0,0
-98,-258,0,0,0,0,0,0,0,0,0,-1,1126,1282,0,0
-91,-258,0,0,0,0,0,0,0,0,0,-1,1133,1282,0,0
-84,-258,0,0,0,0,0,0,0,0,0,-1,1140,1282,0,0
-77,-258,0,0,0,0,0,0,0,0,0,-1,1147,1282,0,0
-70,-258,0,0,0,0,0,0,0,0,0,-1,1154,1282,0,0
-63,-258,0,0,0,0,0,0,0,0,0,-1,1161,1282,0,0
-56,-258,0,0,0,0,0,0,0,0,0,-1,1168,1282,0,0
-49,-258,0,0,0,0,0,0,0,0,0,-1,1175,1282,0,0
-42,-258,0,0,0,0,0,0,0,0,0,-1,1182,1282,0,0
-35,-258,0,0,0,0,0,0,0,0,0,-1,1189,1282,0,0
-28,-258,0,0,0,0,0,0,0,0,0,-1,1196,1282,0,0
-21,-258,0,0,0,0,0,0,0,0,0,-1,1203,1282,0,0
-14,-258,0,0,0,0,0,0,0,0,0,-1,1210,1282,0,0
-7,-258,0,0,0,0,0,0,0,0,0,-1,1217,1282,0,0
0,-258,0,0,0,0,0,0,0,0,0,-1,1224,1282,0,0
7,-258,0,0,0,0,0,0,0,0,0,-1,1231,1282,0,0
14,-258,0,0,0,0,0,0,0,0,0,-1,1238,1282,0,0
21,-258,0,0,0,0,0,0,0,0,0,-1,1245,1282,0,0
28,-258,0,0,0,0,0,0,0,0,0,-1,1252,1282,0,0
35,-258,0,0,0,0,0,0,0,0,0,-1,1259,1282,0,0
42,-258,0,0,0,0,0,0,0,0,0,-1,1266,1282,0,0
49,-258,0,0,0,0,0,0,0,0,0,-1,1273,1282,0,0
56,-258,0,0,0,0,0,0,0,0,0,-1,1280,1282,0,0
63,-258,0,0,0,0,0,0,0,0,0,-1,1287,1282,0,0
70,-258,0,0,0,0,0,0,0,0,0,-1,1294,1282,0,0
77,-258,0,0,0,0,0,0,0,0,0,-1,1301,1282,0,0
84,-258,0,0,0,0,0,0,0,0,0,-1,1308,1282,0,0
91,-258,0,0,0,0,0,0,0,0,0,-1,1315,1282,0,0
98,-258,0,0,0,0,0,0,0,0,0,-1,1322,1282,0,0
105,-258,0,0,0,0,0,0,0,0,0,-1,1329,1282,0,0
112,-258,0,0,0,0,0,0,0,0,0,-1,1336,1282,0,0
119,-258,0,0,0,0,0,0,0,0,0,-1,1343,1282,0,0
126,-258,0,0,0,0,0,0,0,0,0,-1,1350,1282,0,0
133,-258,0,0,0,0,0,0,0,0,0,-1,1357,1282,0,0
140,-258,0,0,0,0,0,0,0,0,0,-1,1364,1282,0,0
147,-258,0,0,0,0,0,0,0,0,0,-1,1371,1282,0,0
154,-258,0,0,0,0,0,0,0,0,0,-1,1378,1282,0,0
161,-258,0,0,0,0,0,0,0,0,0,-1,1385,1282,0,0
168,-258,0,0,0,0,0,0,0,0,0,-1,1392,1282,0,0
175,-258,0,0,0,0,0,0,0,0,0,-1,1399,1282,0,0
182,-258,0,0,0,0,0,0,0,0,0,-1,1406,1282,0,0
189,-258,0,0,0,0,0,0,0,0,0,-1,1413,1282,0,0
196,-258,0,0,0,0,0,0,0,0,0,-1,1420,1282,0,0
203,-258,0,0,0,0,0,0,0,0,0,-1,1427,1282,0,0
210,-258,0,0,0,0,0,0,0,0,0,-1,1434,1282,0,0
217,-258,0,0,0,0,0,0,0,0,0,-1,1441,1282,0,0
224,-258,0,0,0,0,0,0,0,0,0,-1,1448,1282,0,0
231,-258,0,0,0,0,0,0,0,0,0,-1,1455,1282,0,0
238,-258,0,0,0,0,0,0,0,0,0,-1,1462,1282,0,0
245,-258,0,0,0,0,0,0,0,0,0,-1,1469,1282,0,0
252,-258,0,0,0,0,0,0,0,0,0,-1,1476,1282,0,0
259,-258,0,0,0,0,0,0,0,0,0,-1,1483,1282,0,0
266,-258,0,0,0,0,0,0,0,0,0,-1,1490,1282,0,0
273,-258,0,0,0,0,0,0,0,0,0,-1,1497,1282,0,0
280,-258,0,0,0,0,0,0,0,0,0,-1,1504,1282,0,0
287,-258,0,0,0,0,0,0,0,0,0,-1,1511,1282,0,0
294,-258,0,0,0,0,0,0,0,0,0,-1,1518,1282,0,0
301,-258,0,0,0,0,0,0,0,0,0,-1,1525,1282,0,0
308,-258,0,0,0,0,0,0,0,0,0,-1,1532,1282,0,0
315,-258,0,0,0,0,0,0,0,0,0,-1,1539,1282,0,0
322,-258,0,0,0,0,0,0,0,0,0,-1,1546,1282,0,0
329,-258,0,0,0,0,0,0,0,0,0,-1,1553,1282,0,0
336,-258,0,0,0,0,0,0,0,0,0,-1,1560,1282,0,0
343,-258,0,0,0,0,0,0,0,0,0,-1,1567,1282,0,0
350,-258,0,0,0,0,0,0,0,0,0,-1,1574,1282,0,0
357,-258,0,0,0,0,0,0,0,0,0,-1,1581,1282,0,0
364,-258,0,0,0,0,0,0,0,0,0,-1,1588,1282,0,0
371,-258,0,0,0,0,0,0,0,0,0,-1,1595,1282,0,0
378,-258,0,0,0,0,0,0,0,0,0,-1,1602,1282,0,0
385,-258,0,0,0,0,0,0,0,0,0,-1,1609,1282,0,0
392,-258,0,0,0,0,0,0,0,0,0,-1,1616,1282,0,0
399,-258,0,0,0,0,0,0,0,0,0,-1,1623,1282,0,0
406,-258,0,0,0,0,0,0,0,0,0,-1,1630,1282,0,0
413,-258,0,0,0,0,0,0,0,0,0,-1,1637,1282,0,0
420,-258,0,0,0,0,0,0,0,0,0,-1,1644,1282,0,0
427,-258,0,0,0,0,0,0,0,0,0,-1,1651,1282,0,0
434,-258,0,0,0,0,0,0,0,0,0,-1,1658,1282,0,0
441,-258,0,0,0,0,0,0,0,0,0,-1,1665,1282,0,0
448,-258,0,0,0,0,0,0,0,0,0,-1,1672,1282,0,0
455,-258,0,0,0,0,0,0,0,0,0,-1,1679,1282,0,0
462,-258,0,0,0,0,0,0,0,0,0,-1,1686,1282,0,0
469,-258,0,0,0,0,0,0,0,0,0,-1,1693,1282,0,0
476,-258,0,0,0,0,0,0,0,0,0,-1,1700,1282,0,0
483,-258,0,0,0,0,0,0,0,0,0,-1,1707,1282,0,0
490,-258,0,0,0,0,0,0,0,0,0,-1,1714,1282,0,0
497,-258,0,0,0,0,0,0,0,0,0,-1,1721,1282,0,0
504,-258,0,0,0,0,0,0,0,0,0,-1,1728,1282,0,0
511,-258,0,0,0,0,0,0,0,0,0,-1,1735,1282,0,0
518,-258,0,0,0,0,0,0,0,0,0,-1,1742,1282,0,0
525,-258,0,0,0,0,0,0,0,0,0,-1,1749,1282,0,0
532,-258,0,0,0,0,0,0,0,0,0,-1,1756,1282,0,0
539,-258,0,0,0,0,0,0,0,0,0,-1,1763,1282,0,0
546,-258,0,0,0,0,0,0,0,0,0,-1,1770,1282,0,0
553,-258,0,0,0,0,0,0,0,0,0,-1,1777,1282,0,0
560,-258,0,0,0,0,0,0,0,0,0,-1,1784,1282,0,0
567,-258,0,0,0,0,0,0,0,0,0,-1,1791,1282,0,0
574,-258,0,0,0,0,0,0,0,0,0,-1,1798,1282,0,0
581,-258,0,0,0,0,0,0,0,0,0,-1,1805,1282,0,0
588,-258,0,0,0,0,0,0,0,0,0,-1,1812,1282,0,0
595,-258,0,0,0,0,0,0,0,0,0,-1,1819,1282,0,0
602,-258,0,0,0,0,0,0,0,0,0,-1,1826,1282,0,0
609,-258,30.2736,2.83716,0.00103621,-0.000256376,-0.006222,0.0066454,-0.00586556,-0.733647,0.00722788,0.0233773,1833,1282,30.2735,-2.8371
616,-258,30.1948,2.82043,0.00228283,0.00491856,-0.00770169,0.0114143,-0.00421294,-0.870134,0.00933627,0.0213354,1840,1282,30.1949,-2.82042
623,-258,30.1443,2.78052,0.00219012,0.00927933,-0.00778766,0.0142911,-0.00282167,-0.998965,0.010594,0.0313803,1847,1282,30.1443,-2.78056
630,-258,30.1265,2.66064,0.00137282,0.0119833,-0.00698059,0.0154458,-0.00208974,-1.11033,0.0110598,0.0432335,1854,1282,30.1264,-2.66069
637,-258,30.1267,2.3573,0.000802947,0.0122659,-0.00575263,0.014655,-0.00158608,-1.17718,0.0103393,0.0445607,1861,1282,30.1267,-2.3573
644,-258,29.9719,2.36304,0.000431175,0.0113226,-0.00460815,0.0130107,-0.00125689,-1.21966,0.00912166,0.0490545,1868,1282,29.9719,-2.36298
651,-258,29.9105,2.24658,0,0,0,0,0,0,0,-1,1875,1282,29.9105,-2.24661
658,-258,27.6754,2.37915,0,0,0,0,0,0,0,-1,1882,1282,27.6754,-2.37921
665,-258,26.1241,4.44897,0,0,0,0,0,0,0,-1,1889,1282,26.1241,-4.44898
672,-258,22.703,2.80957,0,0,0,0,0,0,0,-1,1896,1282,22.703,-2.80962
679,-258,23.3938,7.5614,0,0,0,0,0,0,0,-1,1903,1282,23.3938,-7.56145
686,-258,23.5209,7.21265,-5.7962e-05,0.00393818,-2.54579e-05,0.00393834,-5.8124e-05,-1.56443,0.00264515,0.0403285,1910,1282,23.5209,-7.21267
693,-258,23.6132,6.87549,-0.000367968,0.0022388,0.000691952,0.00241109,-0.000540256,1.32677,0.00181449,0.0108957,1917,1282,23.6131,-6.87543
700,-258,23.5881,6.56909,8.41017e-06,-4.32147e-05,0.00111392,0.00109682,-0.00113162,0.773814,0.00128664,0.00910692,1924,1282,23.5882,-6.56906
707,-258,23.5903,6.28162,0.000442827,-0.000116612,0.000756494,0.000969659,-0.000643445,0.608315,0.000937652,0.0107559,1931,1282,23.5904,-6.28164
714,-258,23.5918,6.04553,0.000925129,-0.000117121,0.000518719,0.00113929,-0.000331279,0.391542,0.000890727,0.0106647,1938,1282,23.5918,-6.04552
721,-258,23.571,5.77527,0.0012727,-3.09751e-05,0.000334602,0.00135356,-0.000111839,0.237124,0.000941869,0.0123127,1945,1282,23.5711,-5.77523
728,-258,23.5533,5.51807,0.00154541,0.000540735,0.000260812,0.00160908,0.000477064,0.239442,0.000954313,0.0116504,1952,1282,23.5534,-5.51811
735,-258,23.5742,5.26648,0.00194094,0.00091572,0.000275824,0.00201043,0.000846224,0.246823,0.00116555,0.013166,1959,1282,23.5742,-5.2665
742,-258,23.5979,5.01819,0.00257824,0.00137372,0.000220367,0.00261729,0.00133467,0.175384,0.0015112,0.0151835,1966,1282,23.5979,-5.01814
749,-258,23.5773,4.82471,0.00365976,0.00189642,6.69828e-05,0.0036623,0.00189388,0.0379136,0.00211484,0.0306269,1973,1282,23.5773,-4.82473
756,-258,23.5872,4.61572,0.0053373,0.00256948,-0.00032159,0.00537418,0.00253261,-0.114163,0.00310449,0.0419698,1980,1282,23.5872,-4.61573
763,-258,23.7618,4.6062,0.00779724,0.0033771,-0.000984816,0.00800673,0.00316761,-0.209596,0.00465615,0.0443605,1987,1282,23.7619,-4.60617
770,-258,23.9961,4.59705,0,0,0,0,0,0,0,-1,1994,1282,23.9961,-4.59704
777,-258,21.137,5.59802,0,0,0,0,0,0,0,-1,2001,1282,21.1369,-5.59802
784,-258,20.5061,5.66003,0,0,0,0,0,0,0,-1,2008,1282,20.5061,-5.66004
791,-258,0,0,0,0,0,0,0,0,0,-1,2015,1282,0,0
798,-258,0,0,0,0,0,0,0,0,0,-1,2022,1282,0,0
805,-258,0,0,0,0,0,0,0,0,0,-1,2029,1282,0,0
812,-258,0,0,0,0,0,0,0,0,0,-1,2036,1282,0,0
-700,-265,0,0,0,0,0,0,0,0,0,-1,524,1289,0,0
-693,-265,0,0,0,0,0,0,0,0,0,-1,531,1289,0,0
-686,-265,0,0,0,0,0,0,0,0,0,-1,538,1289,0,0
-679,-265,0,0,0,0,0,0,0,0,0,-1,545,1289,0,0
-672,-265,0,0,0,0,0,0,0,0,0,-1,552,1289,0,0
-665,-265,-18.9455,3.82117,0,0,0,0,0,0,0,-1,559,1289,-18.9455,-3.82119
-658,-265,-17.6348,3.27148,0,0,0,0,0,0,0,-1,566,1289,-17.6348,-3.27148
-651,-265,-16.9408,3.2627,0,0,0,0,0,0,0,-1,573,1289,-16.9408,-3.26267
-644,-265,-13.1918,1.61499,0,0,0,0,0,0,0,-1,580,1289,-13.1918,-1.61504
-637,-265,-13.326,1.54285,0,0,0,0,0,0,0,-1,587,1289,-13.326,-1.54284
-630,-265,-13.4905,1.69312,0,0,0,0,0,0,0,-1,594,1289,-13.4905,-1.69309
-623,-265,-13.3542,1.71338,0.0579834,-0.0184273,-0.0145637,0.0606651,-0.021109,-0.182096,0.0490189,0.0464374,601,1289,-13.3542,-1.71339
-616,-265,-13.2258,1.92065,0.0425219,-0.01375,-0.0119661,0.0449608,-0.0161888,-0.20106,0.0365842,0.0388871,608,1289,-13.2257,-1.92066
-609,-265,-13.21,2.51355,0.029558,-0.00961923,-0.0095922,0.0317805,-0.0118417,-0.22768,0.0260475,0.0176313,615,1289,-13.21,-2.51354
-602,-265,-13.2366,2.86255,0.019364,-0.00617878,-0.0068417,0.0210811,-0.00789591,-0.245901,0.0172976,0.0147991,622,1289,-13.2366,-2.8625
-595,-265,-13.2456,3.18408,0.0120726,-0.00354478,-0.00438498,0.0132196,-0.00469174,-0.255834,0.0107247,0.0117644,629,1289,-13.2456,-3.18414
-588,-265,-13.2326,3.48853,0.00803368,-0.00170217,-0.00192183,0.00839931,-0.00206781,-0.188006,0.00640112,0.010592,636,1289,-13.2326,-3.48857
-581,-265,-13.2454,3.80273,0.00528475,-0.00048549,-0.000244152,0.00529506,-0.000495803,-0.0422116,0.00370638,0.0126839,643,1289,-13.2454,-3.80272
-574,-265,-13.2692,4.13391,0.00371638,0.000405523,0.000518176,0.00379559,0.000326319,0.151677,0.00242894,0.0145102,650,1289,-13.2692,-4.13396
-567,-265,-13.2917,4.44495,0.0030055,0.000535302,0.000431936,0.00307885,0.000461952,0.168212,0.00191722,0.0202308,657,1289,-13.2917,-4.44497
-560,-265,-13.2911,4.73816,0.00260175,0.000475389,-5.59871e-05,0.00260322,0.000473915,-0.0263057,0.00160106,0.0208233,664,1289,-13.2912,-4.73815
-553,-265,-13.1805,5.09009,0.00158856,0.000843066,-0.000732034,0.00203728,0.000394342,-0.549911,0.00124769,0.0330932,671,1289,-13.1805,-5.09009
-546,-265,-13.1702,5.48376,2.69704e-05,0.0013911,-0.00162576,0.00247208,-0.00105401,-0.984014,0.00208994,0.046865,678,1289,-13.1702,-5.48379
-539,-265,-13.2636,5.88,0,0,0,0,0,0,0,-1,685,1289,-13.2636,-5.88
-532,-265,-8.53998,3.41467,0,0,0,0,0,0,0,-1,692,1289,-8.53996,-3.41473
-525,-265,-12.1317,0.514648,0,0,0,0,0,0,0,-1,699,1289,-12.1317,-0.514634
-518,-265,-18.7877,-0.940796,0,0,0,0,0,0,0,-1,706,1289,-18.7877,0.940747
-511,-265,-18.6215,-0.697632,0,0,0,0,0,0,0,-1,713,1289,-18.6215,0.697635
-504,-265,-18.6469,-0.4823,0,0,0,0,0,0,0,-1,720,1289,-18.6468,0.48227
-497,-265,-18.689,-0.278442,0,0,0,0,0,0,0,-1,727,1289,-18.689,0.278423
-490,-265,-15.1696,0.492676,0,0,0,0,0,0,0,-1,734,1289,-15.1696,-0.492688
-483,-265,0,0,0,0,0,0,0,0,0,-1,741,1289,0,0
-476,-265,0,0,0,0,0,0,0,0,0,-1,748,1289,0,0
-469,-265,0,0,0,0,0,0,0,0,0,-1,755,1289,0,0
-462,-265,0,0,0,0,0,0,0,0,0,-1,762,1289,0,0
-455,-265,0,0,0,0,0,0,0,0,0,-1,769,1289,0,0
-448,-265,0,0,0,0,0,0,0,0,0,-1,776,1289,0,0
-441,-265,0,0,0,0,0,0,0,0,0,-1,783,1289,0,0
-434,-265,0,0,0,0,0,0,0,0,0,-1,790,1289,0,0
-427,-265,0,0,0,0,0,0,0,0,0,-1,797,1289,0,0
-420,-265,0,0,0,0,0,0,0,0,0,-1,804,1289,0,0
-413,-265,0,0,0,0,0,0,0,0,0,-1,811,1289,0,0
-406,-265,0,0,0,0,0,0,0,0,0,-1,818,1289,0,0
-399,-265,0,0,0,0,0,0,0,0,0,-1,825,1289,0,0
-392,-265,0,0,0,0,0,0,0,0,0,-1,832,1289,0,0
-385,-265,0,0,0,0,0,0,0,0,0,-1,839,1289,0,0
-378,-265,0,0,0,0,0,0,0,0,0,-1,846,1289,0,0
-371,-265,0,0,0,0,0,0,0,0,0,-1,853,1289,0,0
-364,-265,0,0,0,0,0,0,0,0,0,-1,860,1289,0,0
-357,-265,0,0,0,0,0,0,0,0,0,-1,867,1289,0,0
-350,-265,0,0,0,0,0,0,0,0,0,-1,874,1289,0,0
-343,-265,0,0,0,0,0,0,0,0,0,-1,881,1289,0,0
-336,-265,0,0,0,0,0,0,0,0,0,-1,888,1289,0,0
-329,-265,0,0,0,0,0,0,0,0,0,-1,895,1289,0,0
-322,-265,0,0,0,0,0,0,0,0,0,-1,902,1289,0,0
-315,-265,0,0,0,0,0,0,0,0,0,-1,909,1289,0,0
-308,-265,0,0,0,0,0,0,0,0,0,-1,916,1289,0,0
-301,-265,0,0,0,0,0,0,0,0,0,-1,923,1289,0,0
-294,-265,0,0,0,0,0,0,0,0,0,-1,930,1289,0,0
-287,-265,0,0,0,0,0,0,0,0,0,-1,937,1289,0,0
-280,-265,0,0,0,0,0,0,0,0,0,-1,944,1289,0,0
-273,-265,0,0,0,0,0,0,0,0,0,-1,951,1289,0,0
-266,-265,0,0,0,0,0,0,0,0,0,-1,958,1289,0,0
-259,-265,0,0,0,0,0,0,0,0,0,-1,965,1289,0,0
-252,-265,0,0,0,0,0,0,0,0,0,-1,972,1289,0,0
-245,-265,0,0,0,0,0,0,0,0,0,-1,979,1289,0,0
-238,-265,0,0,0,0,0,0,0,0,0,-1,986,1289,0,0
-231,-265,0,0,0,0,0,0,0,0,0,-1,993,1289,0,0
-224,-265,0,0,0,0,0,0,0,0,0,-1,1000,1289,0,0
-217,-265,0,0,0,0,0,0,0,0,0,-1,1007,1289,0,0
-210,-265,0,0,0,0,0,0,0,0,0,-1,1014,1289,0,0
-203,-265,0,0,0,0,0,0,0,0,0,-1,1021,1289,0,0
-196,-265,0,0,0,0,0,0,0,0,0,-1,1028,1289,0,0
-189,-265,0,0,0,0,0,0,0,0,0,-1,1035,1289,0,0
-182,-265,0,0,0,0,0,0,0,0,0,-1,1042,1289,0,0
-175,-265,0,0,0,0,0,0,0,0,0,-1,1049,1289,0,0
-168,-265,0,0,0,0,0,0,0,0,0,-1,1056,1289,0,0
-161,-265,0,0,0,0,0,0,0,0,0,-1,1063,1289,0,0
-154,-265,0,0,0,0,0,0,0,0,0,-1,1070,1289,0,0
-147,-265,0,0,0,0,0,0,0,0,0,-1,1077,1289,0,0
-140,-265,0,0,0,0,0,0,0,0,0,-1,1084,1289,0,0
-133,-265,0,0,0,0,0,0,0,0,0,-1,1091,1289,0,0
-126,-265,0,0,0,0,0,0,0,0,0,-1,1098,1289,0,0
-119,-265,0,0,0,0,0,0,0,0,0,-1,1105,1289,0,0
-112,-265,0,0,0,0,0,0,0,0,0,-1,1112,1289,0,0
-105,-265,0,0,0,0,0,0,0,0,0,-1,1119,1289,0,0
-98,-265,0,0,0,0,0,0,0,0,0,-1,1126,1289,0,0
-91,-265,0,0,0,0,0,0,0,0,0,-1,1133,1289,0,0
-84,-265,0,0,0,0,0,0,0,0,0,-1,1140,1289,0,0
-77,-265,0,0,0,0,0,0,0,0,0,-1,1147,1289,0,0
-70,-265,0,0,0,0,0,0,0,0,0,-1,1154,1289,0,0
-63,-265,0,0,0,0,0,0,0,0,0,-1,1161,1289,0,0
-56,-265,0,0,0,0,0,0,0,0,0,-1,1168,1289,0,0
-49,-265,0,0,0,0,0,0,0,0,0,-1,1175,1289,0,0
-42,-265,0,0,0,0,0,0,0,0,0,-1,1182,1289,0,0
-35,-265,0,0,0,0,0,0,0,0,0,-1,1189,1289,0,0
-28,-265,0,0,0,0,0,0,0,0,0,-1,1196,1289,0,0
-21,-265,0,0,0,0,0,0,0,0,0,-1,1203,1289,0,0
-14,-265,0,0,0,0,0,0,0,0,0,-1,1210,1289,0,0
-7,-265,0,0,0,0,0,0,0,0,0,-1,1217,1289,0,0
0,-265,0,0,0,0,0,0,0,0,0,-1,1224,1289,0,0
7,-265,0,0,0,0,0,0,0,0,0,-1,1231,1289,0,0
14,-265,0,0,0,0,0,0,0,0,0,-1,1238,1289,0,0
21,-265,0,0,0,0,0,0,0,0,0,-1,1245,1289,0,0
28,-265,0,0,0,0,0,0,0,0,0,-1,1252,1289,0,0
35,-265,0,0,0,0,0,0,0,0,0,-1,1259,1289,0,0
42,-265,0,0,0,0,0,0,0,0,0,-1,1266,1289,0,0
49,-265,0,0,0,0,0,0,0,0,0,-1,1273,1289,0,0
56,-265,0,0,0,0,0,0,0,0,0,-1,1280,1289,0,0
63,-265,0,0,0,0,0,0,0,0,0,-1,1287,1289,0,0
70,-265,0,0,0,0,0,0,0,0,0,-1,1294,1289,0,0
77,-265,0,0,0,0,0,0,0,0,0,-1,1301,1289,0,0
84,-265,0,0,0,0,0,0,0,0,0,-1,1308,1289,0,0
91,-265,0,0,0,0,0,0,0,0,0,-1,1315,1289,0,0
98,-265,0,0,0,0,0,0,0,0,0,-1,1322,1289,0,0
105,-265,0,0,0,0,0,0,0,0,0,-1,1329,1289,0,0
112,-265,0,0,0,0,0,0,0,0,0,-1,1336,1289,0,0
119,-265,0,0,0,0,0,0,0,0,0,-1,1343,1289,0,0
126,-265,0,0,0,0,0,0,0,0,0,-1,1350,1289,0,0
133,-265,0,0,0,0,0,0,0,0,0,-1,1357,1289,0,0
140,-265,0,0,0,0,0,0,0,0,0,-1,1364,1289,0,0
147,-265,0,0,0,0,0,0,0,0,0,-1,1371,1289,0,0
154,-265,0,0,0,0,0,0,0,0,0,-1,1378,1289,0,0
161,-265,0,0,0,0,0,0,0,0,0,-1,1385,1289,0,0
168,-265,0,0,0,0,0,0,0,0,0,-1,1392,1289,0,0
175,-265,0,0,0,0,0,0,0,0,0,-1,1399,1289,0,0
182,-265,0,0,0,0,0,0,0,0,0,-1,1406,1289,0,0
189,-265,0,0,0,0,0,0,0,0,0,-1,1413,1289,0,0
196,-265,0,0,0,0,0,0,0,0,0,-1,1420,1289,0,0
203,-265,0,0,0,0,0,0,0,0,0,-1,1427,1289,0,0
210,-265,0,0,0,0,0,0,0,0,0,-1,1434,1289,0,0
217,-265,0,0,0,0,0,0,0,0,0,-1,1441,1289,0,0
224,-265,0,0,0,0,0,0,0,0,0,-1,1448,1289,0,0
231,-265,0,0,0,0,0,0,0,0,0,-1,1455,1289,0,0
238,-265,0,0,0,0,0,0,0,0,0,-1,1462,1289,0,0
245,-265,0,0,0,0,0,0,0,0,0,-1,1469,1289,0,0
252,-265,0,0,0,0,0,0,0,0,0,-1,1476,1289,0,0
259,-265,0,0,0,0,0,0,0,0,0,-1,1483,1289,0,0
266,-265,0,0,0,0,0,0,0,0,0,-1,1490,1289,0,0
273,-265,0,0,0,0,0,0,0,0,0,-1,1497,1289,0,0
280,-265,0,0,0,0,0,0,0,0,0,-1,1504,1289,0,0
287,-265,0,0,0,0,0,0,0,0,0,-1,1511,1289,0,0
294,-265,0,0,0,0,0,0,0,0,0,-1,1518,1289,0,0
301,-265,0,0,0,0,0,0,0,0,0,-1,1525,1289,0,0
308,-265,0,0,0,0,0,0,0,0,0,-1,1532,1289,0,0
315,-265,0,0,0,0,0,0,0,0,0,-1,1539,1289,0,0
322,-265,0,0,0,0,0,0,0,0,0,-1,1546,1289,0,0
329,-265,0,0,0,0,0,0,0,0,0,-1,1553,1289,0,0
336,-265,0,0,0,0,0,0,0,0,0,-1,1560,1289,0,0
343,-265,0,0,0,0,0,0,0,0,0,-1,1567,1289,0,0
350,-265,0,0,0,0,0,0,0,0,0,-1,1574,1289,0,0
357,-265,0,0,0,0,0,0,0,0,0,-1,1581,1289,0,0
364,-265,0,0,0,0,0,0,0,0,0,-1,1588,1289,0,0
371,-265,0,0,0,0,0,0,0,0,0,-1,1595,1289,0,0
378,-265,0,0,0,0,0,0,0,0,0,-1,1602,1289,0,0
385,-265,0,0,0,0,0,0,0,0,0,-1,1609,1289,0,0
392,-265,0,0,0,0,0,0,0,0,0,-1,1616,1289,0,0
399,-265,0,0,0,0,0,0,0,0,0,-1,1623,1289,0,0
406,-265,0,0,0,0,0,0,0,0,0,-1,1630,1289,0,0
413,-265,0,0,0,0,0,0,0,0,0,-1,1637,1289,0,0
420,-265,0,0,0,0,0,0,0,0,0,-1,1644,1289,0,0
427,-265,0,0,0,0,0,0,0,0,0,-1,1651,1289,0,0
434,-265,0,0,0,0,0,0,0,0,0,-1,1658,1289,0,0
441,-265,0,0,0,0,0,0,0,0,0,-1,1665,1289,0,0
448,-265,0,0,0,0,0,0,0,0,0,-1,1672,1289,0,0
455,-265,0,0,0,0,0,0,0,0,0,-1,1679,1289,0,0
462,-265,0,0,0,0,0,0,0,0,0,-1,1686,1289,0,0
469,-265,0,0,0,0,0,0,0,0,0,-1,1693,1289,0,0
476,-265,0,0,0,0,0,0,0,0,0,-1,1700,1289,0,0
483,-265,0,0,0,0,0,0,0,0,0,-1,1707,1289,0,0
490,-265,0,0,0,0,0,0,0,0,0,-1,1714,1289,0,0
497,-265,0,0,0,0,0,0,0,0,0,-1,1721,1289,0,0
504,-265,0,0,0,0,0,0,0,0,0,-1,1728,1289,0,0
511,-265,0,0,0,0,0,0,0,0,0,-1,1735,1289,0,0
518,-265,0,0,0,0,0,0,0,0,0,-1,1742,1289,0,0
525,-265,0,0,0,0,0,0,0,0,0,-1,1749,1289,0,0
532,-265,0,0,0,0,0,0,0,0,0,-1,1756,1289,0,0
539,-265,0,0,0,0,0,0,0,0,0,-1,1763,1289,0,0
546,-265,0,0,0,0,0,0,0,0,0,-1,1770,1289,0,0
553,-265,0,0,0,0,0,0,0,0,0,-1,1777,1289,0,0
560,-265,0,0,0,0,0,0,0,0,0,-1,1784,1289,0,0
567,-265,0,0,0,0,0,0,0,0,0,-1,1791,1289,0,0
574,-265,0,0,0,0,0,0,0,0,0,-1,1798,1289,0,0
581,-265,0,0,0,0,0,0,0,0,0,-1,1805,1289,0,0
588,-265,0,0,0,0,0,0,0,0,0,-1,1812,1289,0,0
595,-265,0,0,0,0,0,0,0,0,0,-1,1819,1289,0,0
602,-265,30.246,2.88306,-0.000168112,-0.00478406,-0.0054863,0.00347591,-0.00842808,-0.586295,0.00706823,0.0263945,1826,1289,30.246,-2.88306
609,-265,30.1791,2.83301,0.00223195,-0.000410246,-0.00796849,0.00898811,-0.00716641,-0.70325,0.00934656,0.0276253,1833,1289,30.1791,-2.83296
616,-265,30.1604,2.78723,0.00269709,0.00415069,-0.00881928,0.0122731,-0.00542528,-0.826511,0.01047,0.0294387,1840,1289,30.1605,-2.78718
623,-265,30.0842,2.63586,0.00183263,0.00786379,-0.00820985,0.0135944,-0.00389796,-0.961405,0.0106038,0.0407743,1847,1289,30.0843,-2.63583
630,-265,30.0906,2.4021,0.000555621,0.0104307,-0.00702617,0.0140808,-0.0030944,-1.09168,0.0105707,0.0453098,1854,1289,30.0905,-2.40209
637,-265,30.3009,1.98938,-9.9272e-05,0.0108616,-0.0057313,0.0133111,-0.00254871,-1.16691,0.00983433,0.0438194,1861,1289,30.3009,-1.98943
644,-265,30.5347,1.39661,-0.000533657,0.0102493,-0.00459714,0.0119432,-0.00222749,-1.21778,0.0087991,0.0484157,1868,1289,30.5347,-1.39667
651,-265,30.6509,1.0918,0,0,0,0,0,0,0,-1,1875,1289,30.6509,-1.09181
658,-265,26.1385,3.27917,0,0,0,0,0,0,0,-1,1882,1289,26.1385,-3.27922
665,-265,25.0533,3.27246,0,0,0,0,0,0,0,-1,1889,1289,25.0534,-3.27242
672,-265,20.0045,6.62671,0,0,0,0,0,0,0,-1,1896,1289,20.0045,-6.62668
679,-265,23.2482,7.47363,0,0,0,0,0,0,0,-1,1903,1289,23.2482,-7.47368
686,-265,23.2833,7.16931,-0.00103886,0.00412153,0.000149062,0.00412584,-0.00104316,1.54194,0.00315627,0.0229773,1910,1289,23.2834,-7.1693
693,-265,23.3073,6.87988,-0.00132232,0.00232947,0.000885129,0.0025327,-0.00152555,1.3451,0.00236696,0.00926643,1917,1289,23.3073,-6.87986
700,-265,23.3087,6.58655,-0.000733018,-2.09278e-05,0.00125326,0.000925877,-0.00167982,0.9238,0.00152525,0.00992766,1924,1289,23.3087,-6.58659
707,-265,23.3241,6.29858,3.73852e-06,-0.000121529,0.000815608,0.000759114,-0.000876904,0.747076,0.000945371,0.00956995,1931,1289,23.3241,-6.29854
714,-265,23.3217,6.04175,0.00077318,-0.000176979,0.000452288,0.000954046,-0.000357846,0.380414,0.000783059,0.00961634,1938,1289,23.3216,-6.04177
721,-265,23.3097,5.7644,0.00135373,-0.000131431,0.000152387,0.0013692,-0.000146906,0.101202,0.000965502,0.00963502,1945,1289,23.3097,-5.76438
728,-265,23.2896,5.50659,0.00183761,0.000206387,-5.26061e-05,0.0018393,0.000204692,-0.0322049,0.00116399,0.0119037,1952,1289,23.2895,-5.50661
735,-265,23.3009,5.25085,0.00240489,0.000466312,-0.000238135,0.00243372,0.000437488,-0.120454,0.00149809,0.0150579,1959,1289,23.301,-5.25086
742,-265,23.3181,4.98364,0.00323852,0.000828898,-0.000545383,0.00335621,0.000711207,-0.212536,0.00204211,0.0199048,1966,1289,23.3181,-4.98362
749,-265,23.3263,4.75806,0.00455403,0.0012594,-0.00103652,0.004853,0.000960434,-0.280814,0.00296746,0.0430549,1973,1289,23.3263,-4.75807
756,-265,23.4401,4.52698,0,0,0,0,0,0,0,-1,1980,1289,23.44,-4.52698
763,-265,23.7383,4.21362,0,0,0,0,0,0,0,-1,1987,1289,23.7383,-4.21365
770,-265,22.0446,3.71472,0,0,0,0,0,0,0,-1,1994,1289,22.0445,-3.71476
777,-265,21.4039,5.01367,0,0,0,0,0,0,0,-1,2001,1289,21.404,-5.01371
784,-265,0,0,0,0,0,0,0,0,0,-1,2008,1289,0,0
791,-265,0,0,0,0,0,0,0,0,0,-1,2015,1289,0,0
798,-265,0,0,0,0,0,0,0,0,0,-1,2022,1289,0,0
805,-265,0,0,0,0,0,0,0,0,0,-1,2029,1289,0,0
812,-265,0,0,0,0,0,0,0,0,0,-1,2036,1289,0,0
-700,-272,0,0,0,0,0,0,0,0,0,-1,524,1296,0,0
-693,-272,0,0,0,0,0,0,0,0,0,-1,531,1296,0,0
-686,-272,0,0,0,0,0,0,0,0,0,-1,538,1296,0,0
-679,-272,0,0,0,0,0,0,0,0,0,-1,545,1296,0,0
-672,-272,0,0,0,0,0,0,0,0,0,-1,552,1296,0,0
-665,-272,0,0,0,0,0,0,0,0,0,-1,559,1296,0,0
-658,-272,-18.1857,3.92395,0.219723,-0.0602842,-0.0103454,0.220105,-0.0606659,-0.0368799,0.170593,0.0452505,566,1296,-18.1857,-3.92392
-651,-272,-17.0714,3.53333,0,0,0,0,0,0,0,-1,573,1296,-17.0714,-3.53336
-644,-272,-17.6469,4.78113,0,0,0,0,0,0,0,-1,580,1296,-17.6469,-4.78118
-637,-272,-16.3334,3.74207,0,0,0,0,0,0,0,-1,587,1296,-16.3334,-3.74205
-630,-272,-15.0198,2.70288,0,0,0,0,0,0,0,-1,594,1296,-15.0198,-2.70292
-623,-272,-13.2153,1.27686,0,0,0,0,0,0,0,-1,601,1296,-13.2153,-1.27689
-616,-272,-12.8168,1.98389,0,0,0,0,0,0,0,-1,608,1296,-12.8168,-1.98393
-609,-272,-12.8681,2.60388,0.0339844,-0.012924,-0.0124869,0.0371013,-0.0160408,-0.244614,0.0314745,0.0220903,615,1296,-12.8681,-2.60393
-602,-272,-12.91,2.87158,0.0232069,-0.00889842,-0.00904106,0.0255779,-0.0112693,-0.256465,0.0218018,0.014481,622,1296,-12.91,-2.87157
-595,-272,-12.9409,3.19678,0.0150659,-0.00563869,-0.00600467,0.0166813,-0.0072541,-0.262804,0.0141719,0.010688,629,1296,-12.9409,-3.19683
-588,-272,-12.9279,3.50623,0.00992455,-0.00317788,-0.00301464,0.0105849,-0.00383821,-0.215637,0.00862551,0.00982205,636,1296,-12.9279,-3.50627
-581,-272,-12.9252,3.80066,0.0062645,-0.00136697,-0.000778615,0.00634312,-0.0014456,-0.100645,0.00478398,0.00974888,643,1296,-12.9251,-3.80064
-574,-272,-12.9627,4.1228,0.0040575,2.89483e-05,0.000455994,0.00410847,-2.20209e-05,0.111314,0.00274635,0.0156214,650,1296,-12.9627,-4.12282
-567,-272,-12.9671,4.44897,0.00310837,0.000418731,0.000610108,0.00324029,0.000286807,0.212952,0.00207122,0.0216879,657,1296,-12.9671,-4.44895
-560,-272,-12.9688,4.75696,0.00291465,0.000453588,0.000199202,0.00293067,0.000437568,0.0802455,0.00182549,0.0198068,664,1296,-12.9688,-4.75691
-553,-272,-12.9073,5.05408,0.00217231,0.000838277,-0.000453052,0.00231163,0.000698964,-0.298321,0.00136893,0.0159136,671,1296,-12.9073,-5.05411
-546,-272,-12.8383,5.4082,0.00072648,0.00145863,-0.00134168,0.00248328,-0.000298171,-0.91858,0.00176333,0.0258249,678,1296,-12.8383,-5.40814
-539,-272,-12.959,5.79504,0,0,0,0,0,0,0,-1,685,1296,-12.9591,-5.7951
-532,-272,-10.5572,4.53943,0,0,0,0,0,0,0,-1,692,1296,-10.5572,-4.53943
-525,-272,-11.9599,0.0393066,0,0,0,0,0,0,0,-1,699,1296,-11.9599,-0.0393577
-518,-272,-18.5744,-1.3175,0,0,0,0,0,0,0,-1,706,1296,-18.5744,1.31755
-511,-272,-18.354,-0.904297,0,0,0,0,0,0,0,-1,713,1296,-18.354,0.904332
-504,-272,-18.1337,-0.491089,0,0,0,0,0,0,0,-1,720,1296,-18.1337,0.491118
-497,-272,-19.2225,1.71301,0,0,0,0,0,0,0,-1,727,1296,-19.2225,-1.71302
-490,-272,-20.1948,2.4032,0,0,0,0,0,0,0,-1,734,1296,-20.1948,-2.40322
-483,-272,-15.3736,0.792603,0,0,0,0,0,0,0,-1,741,1296,-15.3736,-0.79263
-476,-272,0,0,0,0,0,0,0,0,0,-1,748,1296,0,0
-469,-272,0,0,0,0,0,0,0,0,0,-1,755,1296,0,0
-462,-272,0,0,0,0,0,0,0,0,0,-1,762,1296,0,0
-455,-272,0,0,0,0,0,0,0,0,0,-1,769,1296,0,0
-448,-272,0,0,0,0,0,0,0,0,0,-1,776,1296,0,0
-441,-272,0,0,0,0,0,0,0,0,0,-1,783,1296,0,0
-434,-272,0,0,0,0,0,0,0,0,0,-1,790,1296,0,0
-427,-272,0,0,0,0,0,0,0,0,0,-1,797,1296,0,0
-420,-272,0,0,0,0,0,0,0,0,0,-1,804,1296,0,0
-413,-272,0,0,0,0,0,0,0,0,0,-1,811,1296,0,0
-406,-272,0,0,0,0,0,0,0,0,0,-1,818,1296,0,0
-399,-272,0,0,0,0,0,0,0,0,0,-1,825,1296,0,0
-392,-272,0,0,0,0,0,0,0,0,0,-1,832,1296,0,0
-385,-272,0,0,0,0,0,0,0,0,0,-1,839,1296,0,0
-378,-272,0,0,0,0,0,0,0,0,0,-1,846,1296,0,0
-371,-272,0,0,0,0,0,0,0,0,0,-1,853,1296,0,0
-364,-272,0,0,0,0,0,0,0,0,0,-1,860,1296,0,0
-357,-272,0,0,0,0,0,0,0,0,0,-1,867,1296,0,0
-350,-272,0,0,0,0,0,0,0,0,0,-1,874,1296,0,0
-343,-272,0,0,0,0,0,0,0,0,0,-1,881,1296,0,0
-336,-272,0,0,0,0,0,0,0,0,0,-1,888,1296,0,0
-329,-272,0,0,0,0,0,0,0,0,0,-1,895,1296,0,0
-322,-272,0,0,0,0,0,0,0,0,0,-1,902,1296,0,0
-315,-272,0,0,0,0,0,0,0,0,0,-1,909,1296,0,0
-308,-272,0,0,0,0,0,0,0,0,0,-1,916,1296,0,0
-301,-272,0,0,0,0,0,0,0,0,0,-1,923,1296,0,0
-294,-272,0,0,0,0,0,0,0,0,0,-1,930,1296,0,0
-287,-272,0,0,0,0,0,0,0,0,0,-1,937,1296,0,0
-280,-272,0,0,0,0,0,0,0,0,0,-1,944,1296,0,0
-273,-272,0,0,0,0,0,0,0,0,0,-1,951,1296,0,0
-266,-272,0,0,0,0,0,0,0,0,0,-1,958,1296,0,0
-259,-272,0,0,0,0,0,0,0,0,0,-1,965,1296,0,0
-252,-272,0,0,0,0,0,0,0,0,0,-1,972,1296,0,0
-245,-272,0,0,0,0,0,0,0,0,0,-1,979,1296,0,0
-238,-272,0,0,0,0,0,0,0,0,0,-1,986,1296,0,0
-231,-272,0,0,0,0,0,0,0,0,0,-1,993,1296,0,0
-224,-272,0,0,0,0,0,0,0,0,0,-1,1000,1296,0,0
-217,-272,0,0,0,0,0,0,0,0,0,-1,1007,1296,0,0
-210,-272,0,0,0,0,0,0,0,0,0,-1,1014,1296,0,0
-203,-272,0,0,0,0,0,0,0,0,0,-1,1021,1296,0,0
-196,-272,0,0,0,0,0,0,0,0,0,-1,1028,1296,0,0
-189,-272,0,0,0,0,0,0,0,0,0,-1,1035,1296,0,0
-182,-272,0,0,0,0,0,0,0,0,0,-1,1042,1296,0,0
-175,-272,0,0,0,0,0,0,0,0,0,-1,1049,1296,0,0
-168,-272,0,0,0,0,0,0,0,0,0,-1,1056,1296,0,0
-161,-272,0,0,0,0,0,0,0,0,0,-1,1063,1296,0,0
-154,-272,0,0,0,0,0,0,0,0,0,-1,1070,1296,0,0
-147,-272,0,0,0,0,0,0,0,0,0,-1,1077,1296,0,0
-140,-272,0,0,0,0,0,0,0,0,0,-1,1084,1296,0,0
-133,-272,0,0,0,0,0,0,0,0,0,-1,1091,1296,0,0
-126,-272,0,0,0,0,0,0,0,0,0,-1,1098,1296,0,0
-119,-272,0,0,0,0,0,0,0,0,0,-1,1105,1296,0,0
-112,-272,0,0,0,0,0,0,0,0,0,-1,1112,1296,0,0
-105,-272,0,0,0,0,0,0,0,0,0,-1,1119,1296,0,0
-98,-272,0,0,0,0,0,0,0,0,0,-1,1126,1296,0,0
-91,-272,0,0,0,0,0,0,0,0,0,-1,1133,1296,0,0
-84,-272,0,0,0,0,0,0,0,0,0,-1,1140,1296,0,0
-77,-272,0,0,0,0,0,0,0,0,0,-1,1147,1296,0,0
-70,-272,0,0,0,0,0,0,0,0,0,-1,1154,1296,0,0
-63,-272,0,0,0,0,0,0,0,0,0,-1,1161,1296,0,0
-56,-272,0,0,0,0,0,0,0,0,0,-1,1168,1296,0,0
-49,-272,0,0,0,0,0,0,0,0,0,-1,1175,1296,0,0
-42,-272,0,0,0,0,0,0,0,0,0,-1,1182,1296,0,0
-35,-272,0,0,0,0,0,0,0,0,0,-1,1189,1296,0,0
-28,-272,0,0,0,0,0,0,0,0,0,-1,1196,1296,0,0
-21,-272,0,0,0,0,0,0,0,0,0,-1,1203,1296,0,0
-14,-272,0,0,0,0,0,0,0,0,0,-1,1210,1296,0,0
-7,-272,0,0,0,0,0,0,0,0,0,-1,1217,1296,0,0
0,-272,0,0,0,0,0,0,0,0,0,-1,1224,1296,0,0
7,-272,0,0,0,0,0,0,0,0,0,-1,1231,1296,0,0
14,-272,0,0,0,0,0,0,0,0,0,-1,1238,1296,0,0
21,-272,0,0,0,0,0,0,0,0,0,-1,1245,1296,0,0
28,-272,0,0,0,0,0,0,0,0,0,-1,1252,1296,0,0
35,-272,0,0,0,0,0,0,0,0,0,-1,1259,1296,0,0
42,-272,0,0,0,0,0,0,0,0,0,-1,1266,1296,0,0
49,-272,0,0,0,0,0,0,0,0,0,-1,1273,1296,0,0
56,-272,0,0,0,0,0,0,0,0,0,-1,1280,1296,0,0
63,-272,0,0,0,0,0,0,0,0,0,-1,1287,1296,0,0
70,-272,0,0,0,0,0,0,0,0,0,-1,1294,1296,0,0
77,-272,0,0,0,0,0,0,0,0,0,-1,1301,1296,0,0
84,-272,0,0,0,0,0,0,0,0,0,-1,1308,1296,0,0
91,-272,0,0,0,0,0,0,0,0,0,-1,1315,1296,0,0
98,-272,0,0,0,0,0,0,0,0,0,-1,1322,1296,0,0
105,-272,0,0,0,0,0,0,0,0,0,-1,1329,1296,0,0
112,-272,0,0,0,0,0,0,0,0,0,-1,1336,1296,0,0
119,-272,0,0,0,0,0,0,0,0,0,-1,1343,1296,0,0
126,-272,0,0,0,0,0,0,0,0,0,-1,1350,1296,0,0
133,-272,0,0,0,0,0,0,0,0,0,-1,1357,1296,0,0
140,-272,0,0,0,0,0,0,0,0,0,-1,1364,1296,0,0
147,-272,0,0,0,0,0,0,0,0,0,-1,1371,1296,0,0
154,-272,0,0,0,0,0,0,0,0,0,-1,1378,1296,0,0
161,-272,0,0,0,0,0,0,0,0,0,-1,1385,1296,0,0
168,-272,0,0,0,0,0,0,0,0,0,-1,1392,1296,0,0
175,-272,0,0,0,0,0,0,0,0,0,-1,1399,1296,0,0
182,-272,0,0,0,0,0,0,0,0,0,-1,1406,1296,0,0
189,-272,0,0,0,0,0,0,0,0,0,-1,1413,1296,0,0
196,-272,0,0,0,0,0,0,0,0,0,-1,1420,1296,0,0
203,-272,0,0,0,0,0,0,0,0,0,-1,1427,1296,0,0
210,-272,0,0,0,0,0,0,0,0,0,-1,1434,1296,0,0
217,-272,0,0,0,0,0,0,0,0,0,-1,1441,1296,0,0
224,-272,0,0,0,0,0,0,0,0,0,-1,1448,1296,0,0
231,-272,0,0,0,0,0,0,0,0,0,-1,1455,1296,0,0
238,-272,0,0,0,0,0,0,0,0,0,-1,1462,1296,0,0
245,-272,0,0,0,0,0,0,0,0,0,-1,1469,1296,0,0
252,-272,0,0,0,0,0,0,0,0,0,-1,1476,1296,0,0
259,-272,0,0,0,0,0,0,0,0,0,-1,1483,1296,0,0
266,-272,0,0,0,0,0,0,0,0,0,-1,1490,1296,0,0
273,-272,0,0,0,0,0,0,0,0,0,-1,1497,1296,0,0
280,-272,0,0,0,0,0,0,0,0,0,-1,1504,1296,0,0
287,-272,0,0,0,0,0,0,0,0,0,-1,1511,1296,0,0
294,-272,0,0,0,0,0,0,0,0,0,-1,1518,1296,0,0
301,-272,0,0,0,0,0,0,0,0,0,-1,1525,1296,0,0
308,-272,0,0,0,0,0,0,0,0,0,-1,1532,1296,0,0
315,-272,0,0,0,0,0,0,0,0,0,-1,1539,1296,0,0
322,-272,0,0,0,0,0,0,0,0,0,-1,1546,1296,0,0
329,-272,0,0,0,0,0,0,0,0,0,-1,1553,1296,0,0
336,-272,0,0,0,0,0,0,0,0,0,-1,1560,1296,0,0
343,-272,0,0,0,0,0,0,0,0,0,-1,1567,1296,0,0
350,-272,0,0,0,0,0,0,0,0,0,-1,1574,1296,0,0
357,-272,0,0,0,0,0,0,0,0,0,-1,1581,1296,0,0
364,-272,0,0,0,0,0,0,0,0,0,-1,1588,1296,0,0
371,-272,0,0,0,0,0,0,0,0,0,-1,1595,1296,0,0
378,-272,0,0,0,0,0,0,0,0,0,-1,1602,1296,0,0
385,-272,0,0,0,0,0,0,0,0,0,-1,1609,1296,0,0
392,-272,0,0,0,0,0,0,0,0,0,-1,1616,1296,0,0
399,-272,0,0,0,0,0,0,0,0,0,-1,1623,1296,0,0
406,-272,0,0,0,0,0,0,0,0,0,-1,1630,1296,0,0
413,-272,0,0,0,0,0,0,0,0,0,-1,1637,1296,0,0
420,-272,0,0,0,0,0,0,0,0,0,-1,1644,1296,0,0
427,-272,0,0,0,0,0,0,0,0,0,-1,1651,1296,0,0
434,-272,0,0,0,0,0,0,0,0,0,-1,1658,1296,0,0
441,-272,0,0,0,0,0,0,0,0,0,-1,1665,1296,0,0
448,-272,0,0,0,0,0,0,0,0,0,-1,1672,1296,0,0
455,-272,0,0,0,0,0,0,0,0,0,-1,1679,1296,0,0
462,-272,0,0,0,0,0,0,0,0,0,-1,1686,1296,0,0
469,-272,0,0,0,0,0,0,0,0,0,-1,1693,1296,0,0
476,-272,0,0,0,0,0,0,0,0,0,-1,1700,1296,0,0
483,-272,0,0,0,0,0,0,0,0,0,-1,1707,1296,0,0
490,-272,0,0,0,0,0,0,0,0,0,-1,1714,1296,0,0
497,-272,0,0,0,0,0,0,0,0,0,-1,1721,1296,0,0
504,-272,0,0,0,0,0,0,0,0,0,-1,1728,1296,0,0
511,-272,0,0,0,0,0,0,0,0,0,-1,1735,1296,0,0
518,-272,0,0,0,0,0,0,0,0,0,-1,1742,1296,0,0
525,-272,0,0,0,0,0,0,0,0,0,-1,1749,1296,0,0
532,-272,0,0,0,0,0,0,0,0,0,-1,1756,1296,0,0
539,-272,0,0,0,0,0,0,0,0,0,-1,1763,1296,0,0
546,-272,0,0,0,0,0,0,0,0,0,-1,1770,1296,0,0
553,-272,0,0,0,0,0,0,0,0,0,-1,1777,1296,0,0
560,-272,0,0,0,0,0,0,0,0,0,-1,1784,1296,0,0
567,-272,0,0,0,0,0,0,0,0,0,-1,1791,1296,0,0
574,-272,0,0,0,0,0,0,0,0,0,-1,1798,1296,0,0
581,-272,0,0,0,0,0,0,0,0,0,-1,1805,1296,0,0
588,-272,0,0,0,0,0,0,0,0,0,-1,1812,1296,0,0
595,-272,0,0,0,0,0,0,0,0,0,-1,1819,1296,0,0
602,-272,30.2035,2.86328,0.00201109,-0.0044792,-0.00809159,0.00748402,-0.00995213,-0.594692,0.0101003,0.0301076,1826,1296,30.2035,-2.86328
609,-272,30.1572,2.74866,0.00363375,-0.00135742,-0.0100258,0.0114699,-0.00919358,-0.663419,0.0119542,0.0360314,1833,1296,30.1573,-2.74863
616,-272,30.1738,2.66748,0.00308523,0.0024589,-0.00997553,0.0127525,-0.00720838,-0.769707,0.0116717,0.0383791,1840,1296,30.1739,-2.66752
623,-272,30.0623,2.55103,0,0,0,0,0,0,0,-1,1847,1296,30.0622,-2.55107
630,-272,29.989,2.22681,-0.000191905,0.00856616,-0.00715266,0.0125738,-0.00419956,-1.06008,0.0100784,0.0473449,1854,1296,29.989,-2.22681
637,-272,30.5823,2.14392,-0.000922214,0.00936102,-0.00579666,0.0119678,-0.00352898,-1.14819,0.00937884,0.0479504,1861,1296,30.5822,-2.14397
644,-272,30.7535,0.94043,0,0,0,0,0,0,0,-1,1868,1296,30.7536,-0.940397
651,-272,26.7401,2.297,0,0,0,0,0,0,0,-1,1875,1296,26.7402,-2.29697
658,-272,25.1674,2.55176,0,0,0,0,0,0,0,-1,1882,1296,25.1674,-2.5517
665,-272,22.0238,4.14417,0,0,0,0,0,0,0,-1,1889,1296,22.0238,-4.14421
672,-272,22.661,7.21765,0,0,0,0,0,0,0,-1,1896,1296,22.661,-7.21761
679,-272,22.9999,7.28796,0,0,0,0,0,0,0,-1,1903,1296,22.9999,-7.28801
686,-272,23.035,7.16309,-0.00201847,0.00454293,0.000333662,0.00455985,-0.0020354,1.52012,0.00389964,0.015588,1910,1296,23.0351,-7.16313
693,-272,23.0262,6.8877,-0.00218841,0.00263399,0.0010503,0.00285282,-0.00240724,1.36539,0.00304052,0.0106902,1917,1296,23.0262,-6.88772
700,-272,23.0421,6.61926,-0.0013445,0.000243995,0.00131185,0.000983297,-0.0020838,1.0576,0.00180839,0.0104885,1924,1296,23.0421,-6.61926
707,-272,23.062,6.34436,-0.000330356,8.64955e-06,0.000798888,0.000655818,-0.000977525,0.889935,0.000949089,0.00987108,1931,1296,23.062,-6.34437
714,-272,23.0504,6.05005,0.00068038,-0.000157222,0.000318863,0.000787952,-0.000264794,0.32537,0.000632325,0.0105583,1938,1296,23.0504,-6.05
721,-272,23.0291,5.77649,0.00144362,-0.000177855,-8.31374e-05,0.00144787,-0.000182107,-0.0510942,0.00103132,0.0132284,1945,1296,23.0291,-5.77648
728,-272,23.0271,5.50195,0.00209563,-2.71267e-05,-0.000413761,0.00217343,-0.000104924,-0.185856,0.00148516,0.0162762,1952,1296,23.0271,-5.502
735,-272,23.045,5.23169,0.00281566,0.000180174,-0.000796613,0.00303774,-4.19002e-05,-0.271871,0.00203927,0.0144088,1959,1296,23.0451,-5.23171
742,-272,23.0453,4.98743,0.00385905,0.000511303,-0.00136779,0.00434682,2.3535e-05,-0.342552,0.00289006,0.0241776,1966,1296,23.0453,-4.98745
749,-272,23.0508,4.79614,0.00545023,0.000924181,-0.00222623,0.0063617,1.27142e-05,-0.388601,0.0042369,0.0439375,1973,1296,23.0508,-4.79616
756,-272,23.24,4.70557,0,0,0,0,0,0,0,-1,1980,1296,23.24,-4.70558
763,-272,21.7705,4.10876,0,0,0,0,0,0,0,-1,1987,1296,21.7705,-4.10874
770,-272,21.3555,4.46741,0,0,0,0,0,0,0,-1,1994,1296,21.3554,-4.46741
777,-272,21.6844,4.51648,0,0,0,0,0,0,0,-1,2001,1296,21.6844,-4.51649
784,-272,0,0,0,0,0,0,0,0,0,-1,2008,1296,0,0
791,-272,0,0,0,0,0,0,0,0,0,-1,2015,1296,0,0
798,-272,0,0,0,0,0,0,0,0,0,-1,2022,1296,0,0
805,-272,0,0,0,0,0,0,0,0,0,-1,2029,1296,0,0
812,-272,0,0,0,0,0,0,0,0,0,-1,2036,1296,0,0
-700,-279,0,0,0,0,0,0,0,0,0,-1,524,1303,0,0
-693,-279,0,0,0,0,0,0,0,0,0,-1,531,1303,0,0
-686,-279,0,0,0,0,0,0,0,0,0,-1,538,1303,0,0
-679,-279,0,0,0,0,0,0,0,0,0,-1,545,1303,0,0
-672,-279,0,0,0,0,0,0,0,0,0,-1,552,1303,0,0
-665,-279,0,0,0,0,0,0,0,0,0,-1,559,1303,0,0
-658,-279,-18.4631,4.37903,0,0,0,0,0,0,0,-1,566,1303,-18.4631,-4.37902
-651,-279,-16.7842,4.17761,0,0,0,0,0,0,0,-1,573,1303,-16.7842,-4.17766
-644,-279,-16.2991,4.01904,0.136018,-0.0471194,-0.0314755,0.141276,-0.052378,-0.165542,0.115667,0.0464776,580,1303,-16.2991,-4.01901
-637,-279,-15.7494,3.5343,0.108171,-0.04013,-0.0311846,0.114462,-0.0464206,-0.199051,0.0956144,0.0458545,587,1303,-15.7494,-3.53425
-630,-279,-13.9456,2.97546,0,0,0,0,0,0,0,-1,594,1303,-13.9456,-2.97541
-623,-279,-13.6885,2.76367,0.0670396,-0.0276266,-0.024491,0.0730003,-0.0335874,-0.238742,0.0629252,0.0465311,601,1303,-13.6885,-2.76365
-616,-279,-13.1675,2.69702,0,0,0,0,0,0,0,-1,608,1303,-13.1675,-2.69698
-609,-279,-12.7795,2.51025,0.0382624,-0.0168499,-0.0155345,0.0423395,-0.0209269,-0.256665,0.0372177,0.03563,615,1303,-12.7795,-2.51025
-602,-279,-12.5862,2.86218,0.0270296,-0.0121108,-0.0113699,0.0300927,-0.0151739,-0.263158,0.0266036,0.0133434,622,1303,-12.5862,-2.8622
-595,-279,-12.6204,3.19348,0.018082,-0.00811805,-0.0077489,0.0202023,-0.0102383,-0.267079,0.0178859,0.00952176,629,1303,-12.6204,-3.1935
-588,-279,-12.5925,3.51782,0.0118888,-0.00493527,-0.00423799,0.012896,-0.00594252,-0.233342,0.0111207,0.0100093,636,1303,-12.5924,-3.5178
-581,-279,-12.6099,3.8092,0.00717652,-0.00249876,-0.00147052,0.00739509,-0.00271732,-0.14755,0.00604303,0.0118279,643,1303,-12.6099,-3.80916
-574,-279,-12.6348,4.11597,0.00411656,-0.000612235,0.000227324,0.00412746,-0.000623137,0.047925,0.00298114,0.0126609,650,1303,-12.6348,-4.116
-567,-279,-12.6342,4.44336,0.00266087,-3.95294e-05,0.000677049,0.00282111,-0.000199771,0.232401,0.00195075,0.0174687,657,1303,-12.6342,-4.44332
-560,-279,-12.6298,4.77612,0.00253278,-4.17409e-05,0.000381275,0.00258806,-9.7019e-05,0.143979,0.0017586,0.0174782,664,1303,-12.6297,-4.77607
-553,-279,-12.617,5.0835,0.00221765,2.3458e-05,-0.00014957,0.0022278,1.33092e-05,-0.0677487,0.00148078,0.0125207,671,1303,-12.617,-5.08354
-546,-279,-12.6219,5.38452,0.00120648,0.000353666,-0.000881563,0.00175935,-0.0001992,-0.560138,0.00124462,0.0162193,678,1303,-12.6219,-5.38452
-539,-279,-12.5366,5.64917,-0.000230781,0.000681844,-0.0018621,0.00214272,-0.00169166,-0.905557,0.00221888,0.0488964,685,1303,-12.5365,-5.64917
-532,-279,-12.4101,5.90576,0,0,0,0,0,0,0,-1,692,1303,-12.4101,-5.90578
-525,-279,-11.7063,-0.539185,0,0,0,0,0,0,0,-1,699,1303,-11.7063,0.539166
-518,-279,-16.8138,1.11963,0,0,0,0,0,0,0,-1,706,1303,-16.8138,-1.11968
-511,-279,-18.0964,-1.23474,0,0,0,0,0,0,0,-1,713,1303,-18.0964,1.23471
-504,-279,-18.3766,1.04578,0,0,0,0,0,0,0,-1,720,1303,-18.3767,-1.04577
-497,-279,-19.0046,2.08911,0,0,0,0,0,0,0,-1,727,1303,-19.0046,-2.08905
-490,-279,-20.0176,2.55188,0,0,0,0,0,0,0,-1,734,1303,-20.0176,-2.55183
-483,-279,-20.8064,2.99792,0,0,0,0,0,0,0,-1,741,1303,-20.8064,-2.99797
-476,-279,0,0,0,0,0,0,0,0,0,-1,748,1303,0,0
-469,-279,0,0,0,0,0,0,0,0,0,-1,755,1303,0,0
-462,-279,0,0,0,0,0,0,0,0,0,-1,762,1303,0,0
-455,-279,0,0,0,0,0,0,0,0,0,-1,769,1303,0,0
-448,-279,0,0,0,0,0,0,0,0,0,-1,776,1303,0,0
-441,-279,0,0,0,0,0,0,0,0,0,-1,783,1303,0,0
-434,-279,0,0,0,0,0,0,0,0,0,-1,790,1303,0,0
-427,-279,0,0,0,0,0,0,0,0,0,-1,797,1303,0,0
-420,-279,0,0,0,0,0,0,0,0,0,-1,804,1303,0,0
-413,-279,0,0,0,0,0,0,0,0,0,-1,811,1303,0,0
-406,-279,0,0,0,0,0,0,0,0,0,-1,818,1303,0,0
-399,-279,0,0,0,0,0,0,0,0,0,-1,825,1303,0,0
-392,-279,0,0,0,0,0,0,0,0,0,-1,832,1303,0,0
-385,-279,0,0,0,0,0,0,0,0,0,-1,839,1303,0,0
-378,-279,0,0,0,0,0,0,0,0,0,-1,846,1303,0,0
-371,-279,0,0,0,0,0,0,0,0,0,-1,853,1303,0,0
-364,-279,0,0,0,0,0,0,0,0,0,-1,860,1303,0,0
-357,-279,0,0,0,0,0,0,0,0,0,-1,867,1303,0,0
-350,-279,0,0,0,0,0,0,0,0,0,-1,874,1303,0,0
-343,-279,0,0,0,0,0,0,0,0,0,-1,881,1303,0,0
-336,-279,0,0,0,0,0,0,0,0,0,-1,888,1303,0,0
-329,-279,0,0,0,0,0,0,0,0,0,-1,895,1303,0,0
-322,-279,0,0,0,0,0,0,0,0,0,-1,902,1303,0,0
-315,-279,0,0,0,0,0,0,0,0,0,-1,909,1303,0,0
-308,-279,0,0,0,0,0,0,0,0,0,-1,916,1303,0,0
-301,-279,0,0,0,0,0,0,0,0,0,-1,923,1303,0,0
-294,-279,0,0,0,0,0,0,0,0,0,-1,930,1303,0,0
-287,-279,0,0,0,0,0,0,0,0,0,-1,937,1303,0,0
-280,-279,0,0,0,0,0,0,0,0,0,-1,944,1303,0,0
-273,-279,0,0,0,0,0,0,0,0,0,-1,951,1303,0,0
-266,-279,0,0,0,0,0,0,0,0,0,-1,958,1303,0,0
-259,-279,0,0,0,0,0,0,0,0,0,-1,965,1303,0,0
-252,-279,0,0,0,0,0,0,0,0,0,-1,972,1303,0,0
-245,-279,0,0,0,0,0,0,0,0,0,-1,979,1303,0,0
-238,-279,0,0,0,0,0,0,0,0,0,-1,986,1303,0,0
-231,-279,0,0,0,0,0,0,0,0,0,-1,993,1303,0,0
-224,-279,0,0,0,0,0,0,0,0,0,-1,1000,1303,0,0
-217,-279,0,0,0,0,0,0,0,0,0,-1,1007,1303,0,0
-210,-279,0,0,0,0,0,0,0,0,0,-1,1014,1303,0,0
-203,-279,0,0,0,0,0,0,0,0,0,-1,1021,1303,0,0
-196,-279,0,0,0,0,0,0,0,0,0,-1,1028,1303,0,0
-189,-279,0,0,0,0,0,0,0,0,0,-1,1035,1303,0,0
-182,-279,0,0,0,0,0,0,0,0,0,-1,1042,1303,0,0
-175,-279,0,0,0,0,0,0,0,0,0,-1,1049,1303,0,0
-168,-279,0,0,0,0,0,0,0,0,0,-1,1056,1303,0,0
-161,-279,0,0,0,0,0,0,0,0,0,-1,1063,1303,0,0
-154,-279,0,0,0,0,0,0,0,0,0,-1,1070,1303,0,0
-147,-279,0,0,0,0,0,0,0,0,0,-1,1077,1303,0,0
-140,-279,0,0,0,0,0,0,0,0,0,-1,1084,1303,0,0
-133,-279,0,0,0,0,0,0,0,0,0,-1,1091,1303,0,0
-126,-279,0,0,0,0,0,0,0,0,0,-1,1098,1303,0,0
-119,-279,0,0,0,0,0,0,0,0,0,-1,1105,1303,0,0
-112,-279,0,0,0,0,0,0,0,0,0,-1,1112,1303,0,0
-105,-279,0,0,0,0,0,0,0,0,0,-1,1119,1303,0,0
-98,-279,0,0,0,0,0,0,0,0,0,-1,1126,1303,0,0
-91,-279,0,0,0,0,0,0,0,0,0,-1,1133,1303,0,0
-84,-279,0,0,0,0,0,0,0,0,0,-1,1140,1303,0,0
-77,-279,0,0,0,0,0,0,0,0,0,-1,1147,1303,0,0
-70,-279,0,0,0,0,0,0,0,0,0,-1,1154,1303,0,0
-63,-279,0,0,0,0,0,0,0,0,0,-1,1161,1303,0,0
-56,-279,0,0,0,0,0,0,0,0,0,-1,1168,1303,0,0
-49,-279,0,0,0,0,0,0,0,0,0,-1,1175,1303,0,0
-42,-279,0,0,0,0,0,0,0,0,0,-1,1182,1303,0,0
-35,-279,0,0,0,0,0,0,0,0,0,-1,1189,1303,0,0
-28,-279,0,0,0,0,0,0,0,0,0,-1,1196,1303,0,0
-21,-279,0,0,0,0,0,0,0,0,0,-1,1203,1303,0,0
-14,-279,0,0,0,0,0,0,0,0,0,-1,1210,1303,0,0
-7,-279,0,0,0,0,0,0,0,0,0,-1,1217,1303,0,0
0,-279,0,0,0,0,0,0,0,0,0,-1,1224,1303,0,0
7,-279,0,0,0,0,0,0,0,0,0,-1,1231,1303,0,0
14,-279,0,0,0,0,0,0,0,0,0,-1,1238,1303,0,0
21,-279,0,0,0,0,0,0,0,0,0,-1,1245,1303,0,0
28,-279,0,0,0,0,0,0,0,0,0,-1,1252,1303,0,0
35,-279,0,0,0,0,0,0,0,0,0,-1,1259,1303,0,0
42,-279,0,0,0,0,0,0,0,0,0,-1,1266,1303,0,0
49,-279,0,0,0,0,0,0,0,0,0,-1,1273,1303,0,0
56,-279,0,0,0,0,0,0,0,0,0,-1,1280,1303,0,0
63,-279,0,0,0,0,0,0,0,0,0,-1,1287,1303,0,0
70,-279,0,0,0,0,0,0,0,0,0,-1,1294,1303,0,0
77,-279,0,0,0,0,0,0,0,0,0,-1,1301,1303,0,0
84,-279,0,0,0,0,0,0,0,0,0,-1,1308,1303,0,0
91,-279,0,0,0,0,0,0,0,0,0,-1,1315,1303,0,0
98,-279,0,0,0,0,0,0,0,0,0,-1,1322,1303,0,0
105,-279,0,0,0,0,0,0,0,0,0,-1,1329,1303,0,0
112,-279,0,0,0,0,0,0,0,0,0,-1,1336,1303,0,0
119,-279,0,0,0,0,0,0,0,0,0,-1,1343,1303,0,0
126,-279,0,0,0,0,0,0,0,0,0,-1,1350,1303,0,0
133,-279,0,0,0,0,0,0,0,0,0,-1,1357,1303,0,0
140,-279,0,0,0,0,0,0,0,0,0,-1,1364,1303,0,0
147,-279,0,0,0,0,0,0,0,0,0,-1,1371,1303,0,0
154,-279,0,0,0,0,0,0,0,0,0,-1,1378,1303,0,0
161,-279,0,0,0,0,0,0,0,0,0,-1,1385,1303,0,0
168,-279,0,0,0,0,0,0,0,0,0,-1,1392,1303,0,0
175,-279,0,0,0,0,0,0,0,0,0,-1,1399,1303,0,0
182,-279,0,0,0,0,0,0,0,0,0,-1,1406,1303,0,0
189,-279,0,0,0,0,0,0,0,0,0,-1,1413,1303,0,0
196,-279,0,0,0,0,0,0,0,0,0,-1,1420,1303,0,0
203,-279,0,0,0,0,0,0,0,0,0,-1,1427,1303,0,0
210,-279,0,0,0,0,0,0,0,0,0,-1,1434,1303,0,0
217,-279,0,0,0,0,0,0,0,0,0,-1,1441,1303,0,0
224,-279,0,0,0,0,0,0,0,0,0,-1,1448,1303,0,0
231,-279,0,0,0,0,0,0,0,0,0,-1,1455,1303,0,0
238,-279,0,0,0,0,0,0,0,0,0,-1,1462,1303,0,0
245,-279,0,0,0,0,0,0,0,0,0,-1,1469,1303,0,0
252,-279,0,0,0,0,0,0,0,0,0,-1,1476,1303,0,0
259,-279,0,0,0,0,0,0,0,0,0,-1,1483,1303,0,0
266,-279,0,0,0,0,0,0,0,0,0,-1,1490,1303,0,0
273,-279,0,0,0,0,0,0,0,0,0,-1,1497,1303,0,0
280,-279,0,0,0,0,0,0,0,0,0,-1,1504,1303,0,0
287,-279,0,0,0,0,0,0,0,0,0,-1,1511,1303,0,0
294,-279,0,0,0,0,0,0,0,0,0,-1,1518,1303,0,0
301,-279,0,0,0,0,0,0,0,0,0,-1,1525,1303,0,0
308,-279,0,0,0,0,0,0,0,0,0,-1,1532,1303,0,0
315,-279,0,0,0,0,0,0,0,0,0,-1,1539,1303,0,0
322,-279,0,0,0,0,0,0,0,0,0,-1,1546,1303,0,0
329,-279,0,0,0,0,0,0,0,0,0,-1,1553,1303,0,0
336,-279,0,0,0,0,0,0,0,0,0,-1,1560,1303,0,0
343,-279,0,0,0,0,0,0,0,0,0,-1,1567,1303,0,0
350,-279,0,0,0,0,0,0,0,0,0,-1,1574,1303,0,0
357,-279,0,0,0,0,0,0,0,0,0,-1,1581,1303,0,0
364,-279,0,0,0,0,0,0,0,0,0,-1,1588,1303,0,0
371,-279,0,0,0,0,0,0,0,0,0,-1,1595,1303,0,0
378,-279,0,0,0,0,0,0,0,0,0,-1,1602,1303,0,0
385,-279,0,0,0,0,0,0,0,0,0,-1,1609,1303,0,0
392,-279,0,0,0,0,0,0,0,0,0,-1,1616,1303,0,0
399,-279,0,0,0,0,0,0,0,0,0,-1,1623,1303,0,0
406,-279,0,0,0,0,0,0,0,0,0,-1,1630,1303,0,0
413,-279,0,0,0,0,0,0,0,0,0,-1,1637,1303,0,0
420,-279,0,0,0,0,0,0,0,0,0,-1,1644,1303,0,0
427,-279,0,0,0,0,0,0,0,0,0,-1,1651,1303,0,0
434,-279,0,0,0,0,0,0,0,0,0,-1,1658,1303,0,0
441,-279,0,0,0,0,0,0,0,0,0,-1,1665,1303,0,0
448,-279,0,0,0,0,0,0,0,0,0,-1,1672,1303,0,0
455,-279,0,0,0,0,0,0,0,0,0,-1,1679,1303,0,0
462,-279,0,0,0,0,0,0,0,0,0,-1,1686,1303,0,0
469,-279,0,0,0,0,0,0,0,0,0,-1,1693,1303,0,0
476,-279,0,0,0,0,0,0,0,0,0,-1,1700,1303,0,0
483,-279,0,0,0,0,0,0,0,0,0,-1,1707,1303,0,0
490,-279,0,0,0,0,0,0,0,0,0,-1,1714,1303,0,0
497,-279,0,0,0,0,0,0,0,0,0,-1,1721,1303,0,0
504,-279,0,0,0,0,0,0,0,0,0,-1,1728,1303,0,0
511,-279,0,0,0,0,0,0,0,0,0,-1,1735,1303,0,0
518,-279,0,0,0,0,0,0,0,0,0,-1,1742,1303,0,0
525,-279,0,0,0,0,0,0,0,0,0,-1,1749,1303,0,0
532,-279,0,0,0,0,0,0,0,0,0,-1,1756,1303,0,0
539,-279,0,0,0,0,0,0,0,0,0,-1,1763,1303,0,0
546,-279,0,0,0,0,0,0,0,0,0,-1,1770,1303,0,0
553,-279,0,0,0,0,0,0,0,0,0,-1,1777,1303,0,0
560,-279,0,0,0,0,0,0,0,0,0,-1,1784,1303,0,0
567,-279,0,0,0,0,0,0,0,0,0,-1,1791,1303,0,0
574,-279,0,0,0,0,0,0,0,0,0,-1,1798,1303,0,0
581,-279,0,0,0,0,0,0,0,0,0,-1,1805,1303,0,0
588,-279,0,0,0,0,0,0,0,0,0,-1,1812,1303,0,0
595,-279,0,0,0,0,0,0,0,0,0,-1,1819,1303,0,0
602,-279,30.2498,2.82642,0.00460668,-0.00679641,-0.010367,0.0107365,-0.0129262,-0.533987,0.0136812,0.0382708,1826,1303,30.2497,-2.82641
609,-279,30.1813,2.59595,0.0050568,-0.00507904,-0.0114381,0.0124994,-0.0125217,-0.576859,0.014446,0.0442613,1833,1303,30.1813,-2.59598
616,-279,30.2036,2.55994,0.00334538,-0.00190631,-0.0103389,0.0113867,-0.00994765,-0.661039,0.0123267,0.042689,1840,1303,30.2036,-2.55994
623,-279,30.1345,2.58557,0.00106759,0.00160828,-0.00855761,0.00989982,-0.00722394,-0.801189,0.00992657,0.0475209,1847,1303,30.1345,-2.58557
630,-279,29.6895,2.23975,-0.00075254,0.00482295,-0.0069891,0.00955977,-0.00548936,-0.975164,0.00879392,0.0473099,1854,1303,29.6895,-2.23974
637,-279,30.3274,2.13562,0,0,0,0,0,0,0,-1,1861,1303,30.3274,-2.13556
644,-279,26.4432,1.69556,0,0,0,0,0,0,0,-1,1868,1303,26.4432,-1.69552
651,-279,26.1683,2.25403,0,0,0,0,0,0,0,-1,1875,1303,26.1683,-2.25403
658,-279,21.5076,7.65649,0,0,0,0,0,0,0,-1,1882,1303,21.5076,-7.65648
665,-279,18.9794,6.09607,0,0,0,0,0,0,0,-1,1889,1303,18.9793,-6.09601
672,-279,23.2023,7.9303,0,0,0,0,0,0,0,-1,1896,1303,23.2023,-7.93029
679,-279,22.765,7.46008,0,0,0,0,0,0,0,-1,1903,1303,22.765,-7.46013
686,-279,22.7542,7.17456,-0.00301412,0.00430655,0.000236255,0.00431416,-0.00302173,1.53857,0.00425724,0.0210466,1910,1303,22.7542,-7.17459
693,-279,22.7479,6.89392,-0.00295601,0.002434,0.000911181,0.00258387,-0.00310588,1.40778,0.00328958,0.0161292,1917,1303,22.7479,-6.89397
700,-279,22.7661,6.63403,-0.00183333,0.000247323,0.00111612,0.000732774,-0.00231878,1.16053,0.00183942,0.0112307,1924,1303,22.7661,-6.63403
707,-279,22.7726,6.36133,-0.000589442,-3.35538e-05,0.000650867,0.000396232,-0.00101923,0.987195,0.000843188,0.00862041,1931,1303,22.7726,-6.36131
714,-279,22.7495,6.05823,0.000606815,-0.000258189,0.0001499,0.000632055,-0.00028343,0.166816,0.00054118,0.010287,1938,1303,22.7495,-6.05824
721,-279,22.7389,5.77063,0.00152261,-0.000342508,-0.000292981,0.00156755,-0.000387448,-0.152203,0.0011953,0.0140724,1945,1303,22.739,-5.77064
728,-279,22.7596,5.49902,0.0023136,-0.000339156,-0.000733578,0.00250295,-0.000528501,-0.252598,0.00186986,0.0150796,1952,1303,22.7597,-5.49902
735,-279,22.7755,5.23987,0.00319467,-0.000215851,-0.00132282,0.00364759,-0.000668776,-0.329882,0.00268259,0.013399,1959,1303,22.7755,-5.23981
742,-279,22.6931,4.92114,0.00449282,3.85422e-05,-0.00220055,0.00539659,-0.000865221,-0.389696,0.00391811,0.0275662,1966,1303,22.6932,-4.92112
749,-279,22.8684,4.65894,0.00641425,0.000382888,-0.00349807,0.0080171,-0.00121996,-0.42966,0.00579436,0.0482487,1973,1303,22.8685,-4.65894
756,-279,23.2091,4.43433,0,0,0,0,0,0,0,-1,1980,1303,23.2092,-4.43432
763,-279,20.7946,4.18896,0,0,0,0,0,0,0,-1,1987,1303,20.7945,-4.18899
770,-279,21.1072,3.85291,0,0,0,0,0,0,0,-1,1994,1303,21.1071,-3.85294
777,-279,21.6755,2.86829,0,0,0,0,0,0,0,-1,2001,1303,21.6755,-2.86834
784,-279,0,0,0,0,0,0,0,0,0,-1,2008,1303,0,0
791,-279,0,0,0,0,0,0,0,0,0,-1,2015,1303,0,0
798,-279,0,0,0,0,0,0,0,0,0,-1,2022,1303,0,0
805,-279,0,0,0,0,0,0,0,0,0,-1,2029,1303,0,0
812,-279,0,0,0,0,0,0,0,0,0,-1,2036,1303,0,0
-700,-286,0,0,0,0,0,0,0,0,0,-1,524,1310,0,0
-693,-286,0,0,0,0,0,0,0,0,0,-1,531,1310,0,0
-686,-286,0,0,0,0,0,0,0,0,0,-1,538,1310,0,0
-679,-286,0,0,0,0,0,0,0,0,0,-1,545,1310,0,0
-672,-286,0,0,0,0,0,0,0,0,0,-1,552,1310,0,0
-665,-286,0,0,0,0,0,0,0,0,0,-1,559,1310,0,0
-658,-286,-18.3966,4.60193,0,0,0,0,0,0,0,-1,566,1310,-18.3966,-4.60195
-651,-286,-17.1613,4.23486,0.163186,-0.0600217,-0.0379168,0.169451,-0.0662868,-0.163755,0.14038,0.0475238,573,1310,-17.1613,-4.23483
-644,-286,-15.9551,4.17358,0.133692,-0.0531915,-0.0405125,0.142096,-0.0615959,-0.204549,0.120624,0.0480647,580,1310,-15.9551,-4.17357
-637,-286,-15.2159,3.69202,0.108826,-0.046608,-0.0391463,0.118128,-0.0559103,-0.233303,0.102599,0.0459718,587,1310,-15.2159,-3.69197
-630,-286,-14.4321,3.18591,0.0882846,-0.0399873,-0.0352295,0.0973234,-0.049026,-0.251151,0.0860149,0.0481911,594,1310,-14.4321,-3.18585
-623,-286,-13.789,2.85132,0.0708652,-0.0334309,-0.030006,0.0788818,-0.0414474,-0.261068,0.0705838,0.0477994,601,1310,-13.789,-2.85132
-616,-286,-13.1833,2.43896,0,0,0,0,0,0,0,-1,608,1310,-13.1833,-2.43898
-609,-286,-12.5642,2.30835,0,0,0,0,0,0,0,-1,615,1310,-12.5642,-2.30834
-602,-286,-12.3042,2.82141,0.0308761,-0.015529,-0.0139635,0.0347538,-0.0194067,-0.270874,0.0316852,0.0162909,622,1310,-12.3042,-2.82145
-595,-286,-12.3012,3.17896,0.0211968,-0.0107301,-0.00968715,0.0239061,-0.0134394,-0.272715,0.0218419,0.0107412,629,1310,-12.3012,-3.17901
-588,-286,-12.2633,3.49963,0.0140737,-0.00679644,-0.00565121,0.0155057,-0.00822842,-0.24817,0.0139159,0.0121927,636,1310,-12.2633,-3.49968
-581,-286,-12.2661,3.80542,0.00842644,-0.00365271,-0.00235631,0.00886982,-0.00409609,-0.185991,0.00765312,0.0138895,643,1310,-12.2661,-3.80538
-574,-286,-12.2976,4.11938,0.0045099,-0.00119993,-0.00018728,0.00451604,-0.00120607,-0.0327527,0.00348303,0.0145175,650,1310,-12.2976,-4.11933
-567,-286,-12.2957,4.4519,0.00246355,-0.000367899,0.000480979,0.00254303,-0.000447373,0.163753,0.00186247,0.0146557,657,1310,-12.2956,-4.45193
-560,-286,-12.2863,4.7804,0.00225893,-0.000193649,0.000165394,0.00227003,-0.000204752,0.0670323,0.00158602,0.0148709,664,1310,-12.2863,-4.78039
-553,-286,-12.2953,5.08936,0.00237032,-0.00042999,-0.000358551,0.0024155,-0.00047517,-0.125346,0.00178987,0.0109959,671,1310,-12.2954,-5.08934
-546,-286,-12.3054,5.41467,0.00195862,-0.000464808,-0.000993048,0.00231356,-0.000819745,-0.343271,0.00187629,0.01423,678,1310,-12.3054,-5.41463
-539,-286,-12.3183,5.71436,0.00125654,-0.000515219,-0.00183862,0.00241157,-0.00167025,-0.5609,0.00236956,0.035008,685,1310,-12.3183,-5.71441
-532,-286,-12.2609,6.00684,0,0,0,0,0,0,0,-1,692,1310,-12.2609,-6.00681
-525,-286,-11.4528,-1.11768,0,0,0,0,0,0,0,-1,699,1310,-11.4528,1.11769
-518,-286,-11.0701,1.37329,0,0,0,0,0,0,0,-1,706,1310,-11.0701,-1.37332
-511,-286,-17.7545,-0.0791016,0,0,0,0,0,0,0,-1,713,1310,-17.7544,0.0791606
-504,-286,-18.0455,1.29602,0,0,0,0,0,0,0,-1,720,1310,-18.0455,-1.29601
-497,-286,-18.3367,2.67114,0,0,0,0,0,0,0,-1,727,1310,-18.3366,-2.67118
-490,-286,-19.5795,2.47266,0,0,0,0,0,0,0,-1,734,1310,-19.5795,-2.4727
-483,-286,-19.7277,2.74744,0,0,0,0,0,0,0,-1,741,1310,-19.7277,-2.74747
-476,-286,-20.0391,3.06177,0,0,0,0,0,0,0,-1,748,1310,-20.0391,-3.06178
-469,-286,0,0,0,0,0,0,0,0,0,-1,755,1310,0,0
-462,-286,0,0,0,0,0,0,0,0,0,-1,762,1310,0,0
-455,-286,0,0,0,0,0,0,0,0,0,-1,769,1310,0,0
-448,-286,0,0,0,0,0,0,0,0,0,-1,776,1310,0,0
-441,-286,0,0,0,0,0,0,0,0,0,-1,783,1310,0,0
-434,-286,0,0,0,0,0,0,0,0,0,-1,790,1310,0,0
-427,-286,0,0,0,0,0,0,0,0,0,-1,797,1310,0,0
-420,-286,0,0,0,0,0,0,0,0,0,-1,804,1310,0,0
-413,-286,0,0,0,0,0,0,0,0,0,-1,811,1310,0,0
-406,-286,0,0,0,0,0,0,0,0,0,-1,818,1310,0,0
-399,-286,0,0,0,0,0,0,0,0,0,-1,825,1310,0,0
-392,-286,0,0,0,0,0,0,0,0,0,-1,832,1310,0,0
-385,-286,0,0,0,0,0,0,0,0,0,-1,839,1310,0,0
-378,-286,0,0,0,0,0,0,0,0,0,-1,846,1310,0,0
-371,-286,0,0,0,0,0,0,0,0,0,-1,853,1310,0,0
-364,-286,0,0,0,0,0,0,0,0,0,-1,860,1310,0,0
-357,-286,0,0,0,0,0,0,0,0,0,-1,867,1310,0,0
-350,-286,0,0,0,0,0,0,0,0,0,-1,874,1310,0,0
-343,-286,0,0,0,0,0,0,0,0,0,-1,881,1310,0,0
-336,-286,0,0,0,0,0,0,0,0,0,-1,888,1310,0,0
-329,-286,0,0,0,0,0,0,0,0,0,-1,895,1310,0,0
-322,-286,0,0,0,0,0,0,0,0,0,-1,902,1310,0,0
-315,-286,0,0,0,0,0,0,0,0,0,-1,909,1310,0,0
-308,-286,0,0,0,0,0,0,0,0,0,-1,916,1310,0,0
-301,-286,0,0,0,0,0,0,0,0,0,-1,923,1310,0,0
-294,-286,0,0,0,0,0,0,0,0,0,-1,930,1310,0,0
-287,-286,0,0,0,0,0,0,0,0,0,-1,937,1310,0,0
-280,-286,0,0,0,0,0,0,0,0,0,-1,944,1310,0,0
-273,-286,0,0,0,0,0,0,0,0,0,-1,951,1310,0,0
-266,-286,0,0,0,0,0,0,0,0,0,-1,958,1310,0,0
-259,-286,0,0,0,0,0,0,0,0,0,-1,965,1310,0,0
-252,-286,0,0,0,0,0,0,0,0,0,-1,972,1310,0,0
-245,-286,0,0,0,0,0,0,0,0,0,-1,979,1310,0,0
-238,-286,0,0,0,0,0,0,0,0,0,-1,986,1310,0,0
-231,-286,0,0,0,0,0,0,0,0,0,-1,993,1310,0,0
-224,-286,0,0,0,0,0,0,0,0,0,-1,1000,1310,0,0
-217,-286,0,0,0,0,0,0,0,0,0,-1,1007,1310,0,0
-210,-286,0,0,0,0,0,0,0,0,0,-1,1014,1310,0,0
-203,-286,0,0,0,0,0,0,0,0,0,-1,1021,1310,0,0
-196,-286,0,0,0,0,0,0,0,0,0,-1,1028,1310,0,0
-189,-286,0,0,0,0,0,0,0,0,0,-1,1035,1310,0,0
-182,-286,0,0,0,0,0,0,0,0,0,-1,1042,1310,0,0
-175,-286,0,0,0,0,0,0,0,0,0,-1,1049,1310,0,0
-168,-286,0,0,0,0,0,0,0,0,0,-1,1056,1310,0,0
-161,-286,0,0,0,0,0,0,0,0,0,-1,1063,1310,0,0
-154,-286,0,0,0,0,0,0,0,0,0,-1,1070,1310,0,0
-147,-286,0,0,0,0,0,0,0,0,0,-1,1077,1310,0,0
-140,-286,0,0,0,0,0,0,0,0,0,-1,1084,1310,0,0
-133,-286,0,0,0,0,0,0,0,0,0,-1,1091,1310,0,0
-126,-286,0,0,0,0,0,0,0,0,0,-1,1098,1310,0,0
-119,-286,0,0,0,0,0,0,0,0,0,-1,1105,1310,0,0
-112,-286,0,0,0,0,0,0,0,0,0,-1,1112,1310,0,0
-105,-286,0,0,0,0,0,0,0,0,0,-1,1119,1310,0,0
-98,-286,0,0,0,0,0,0,0,0,0,-1,1126,1310,0,0
-91,-286,0,0,0,0,0,0,0,0,0,-1,1133,1310,0,0
-84,-286,0,0,0,0,0,0,0,0,0,-1,1140,1310,0,0
-77,-286,0,0,0,0,0,0,0,0,0,-1,1147,1310,0,0
-70,-286,0,0,0,0,0,0,0,0,0,-1,1154,1310,0,0
-63,-286,0,0,0,0,0,0,0,0,0,-1,1161,1310,0,0
-56,-286,0,0,0,0,0,0,0,0,0,-1,1168,1310,0,0
-49,-286,0,0,0,0,0,0,0,0,0,-1,1175,1310,0,0
-42,-286,0,0,0,0,0,0,0,0,0,-1,1182,1310,0,0
-35,-286,0,0,0,0,0,0,0,0,0,-1,1189,1310,0,0
-28,-286,0,0,0,0,0,0,0,0,0,-1,1196,1310,0,0
-21,-286,0,0,0,0,0,0,0,0,0,-1,1203,1310,0,0
-14,-286,0,0,0,0,0,0,0,0,0,-1,1210,1310,0,0
-7,-286,0,0,0,0,0,0,0,0,0,-1,1217,1310,0,0
0,-286,0,0,0,0,0,0,0,0,0,-1,1224,1310,0,0
7,-286,0,0,0,0,0,0,0,0,0,-1,1231,1310,0,0
14,-286,0,0,0,0,0,0,0,0,0,-1,1238,1310,0,0
21,-286,0,0,0,0,0,0,0,0,0,-1,1245,1310,0,0
28,-286,0,0,0,0,0,0,0,0,0,-1,1252,1310,0,0
35,-286,0,0,0,0,0,0,0,0,0,-1,1259,1310,0,0
42,-286,0,0,0,0,0,0,0,0,0,-1,1266,1310,0,0
49,-286,0,0,0,0,0,0,0,0,0,-1,1273,1310,0,0
56,-286,0,0,0,0,0,0,0,0,0,-1,1280,1310,0,0
63,-286,0,0,0,0,0,0,0,0,0,-1,1287,1310,0,0
70,-286,0,0,0,0,0,0,0,0,0,-1,1294,1310,0,0
77,-286,0,0,0,0,0,0,0,0,0,-1,1301,1310,0,0
84,-286,0,0,0,0,0,0,0,0,0,-1,1308,1310,0,0
91,-286,0,0,0,0,0,0,0,0,0,-1,1315,1310,0,0
98,-286,0,0,0,0,0,0,0,0,0,-1,1322,1310,0,0
105,-286,0,0,0,0,0,0,0,0,0,-1,1329,1310,0,0
112,-286,0,0,0,0,0,0,0,0,0,-1,1336,1310,0,0
119,-286,0,0,0,0,0,0,0,0,0,-1,1343,1310,0,0
126,-286,0,0,0,0,0,0,0,0,0,-1,1350,1310,0,0
133,-286,0,0,0,0,0,0,0,0,0,-1,1357,1310,0,0
140,-286,0,0,0,0,0,0,0,0,0,-1,1364,1310,0,0
147,-286,0,0,0,0,0,0,0,0,0,-1,1371,1310,0,0
154,-286,0,0,0,0,0,0,0,0,0,-1,1378,1310,0,0
161,-286,0,0,0,0,0,0,0,0,0,-1,1385,1310,0,0
168,-286,0,0,0,0,0,0,0,0,0,-1,1392,1310,0,0
175,-286,0,0,0,0,0,0,0,0,0,-1,1399,1310,0,0
182,-286,0,0,0,0,0,0,0,0,0,-1,1406,1310,0,0
189,-286,0,0,0,0,0,0,0,0,0,-1,1413,1310,0,0
196,-286,0,0,0,0,0,0,0,0,0,-1,1420,1310,0,0
203,-286,0,0,0,0,0,0,0,0,0,-1,1427,1310,0,0
210,-286,0,0,0,0,0,0,0,0,0,-1,1434,1310,0,0
217,-286,0,0,0,0,0,0,0,0,0,-1,1441,1310,0,0
224,-286,0,0,0,0,0,0,0,0,0,-1,1448,1310,0,0
231,-286,0,0,0,0,0,0,0,0,0,-1,1455,1310,0,0
238,-286,0,0,0,0,0,0,0,0,0,-1,1462,1310,0,0
245,-286,0,0,0,0,0,0,0,0,0,-1,1469,1310,0,0
252,-286,0,0,0,0,0,0,0,0,0,-1,1476,1310,0,0
259,-286,0,0,0,0,0,0,0,0,0,-1,1483,1310,0,0
266,-286,0,0,0,0,0,0,0,0,0,-1,1490,1310,0,0
273,-286,0,0,0,0,0,0,0,0,0,-1,1497,1310,0,0
280,-286,0,0,0,0,0,0,0,0,0,-1,1504,1310,0,0
287,-286,0,0,0,0,0,0,0,0,0,-1,1511,1310,0,0
294,-286,0,0,0,0,0,0,0,0,0,-1,1518,1310,0,0
301,-286,0,0,0,0,0,0,0,0,0,-1,1525,1310,0,0
308,-286,0,0,0,0,0,0,0,0,0,-1,1532,1310,0,0
315,-286,0,0,0,0,0,0,0,0,0,-1,1539,1310,0,0
322,-286,0,0,0,0,0,0,0,0,0,-1,1546,1310,0,0
329,-286,0,0,0,0,0,0,0,0,0,-1,1553,1310,0,0
336,-286,0,0,0,0,0,0,0,0,0,-1,1560,1310,0,0
343,-286,0,0,0,0,0,0,0,0,0,-1,1567,1310,0,0
350,-286,0,0,0,0,0,0,0,0,0,-1,1574,1310,0,0
357,-286,0,0,0,0,0,0,0,0,0,-1,1581,1310,0,0
364,-286,0,0,0,0,0,0,0,0,0,-1,1588,1310,0,0
371,-286,0,0,0,0,0,0,0,0,0,-1,1595,1310,0,0
378,-286,0,0,0,0,0,0,0,0,0,-1,1602,1310,0,0
385,-286,0,0,0,0,0,0,0,0,0,-1,1609,1310,0,0
392,-286,0,0,0,0,0,0,0,0,0,-1,1616,1310,0,0
399,-286,0,0,0,0,0,0,0,0,0,-1,1623,1310,0,0
406,-286,0,0,0,0,0,0,0,0,0,-1,1630,1310,0,0
413,-286,0,0,0,0,0,0,0,0,0,-1,1637,1310,0,0
420,-286,0,0,0,0,0,0,0,0,0,-1,1644,1310,0,0
427,-286,0,0,0,0,0,0,0,0,0,-1,1651,1310,0,0
434,-286,0,0,0,0,0,0,0,0,0,-1,1658,1310,0,0
441,-286,0,0,0,0,0,0,0,0,0,-1,1665,1310,0,0
448,-286,0,0,0,0,0,0,0,0,0,-1,1672,1310,0,0
455,-286,0,0,0,0,0,0,0,0,0,-1,1679,1310,0,0
462,-286,0,0,0,0,0,0,0,0,0,-1,1686,1310,0,0
469,-286,0,0,0,0,0,0,0,0,0,-1,1693,1310,0,0
476,-286,0,0,0,0,0,0,0,0,0,-1,1700,1310,0,0
483,-286,0,0,0,0,0,0,0,0,0,-1,1707,1310,0,0
490,-286,0,0,0,0,0,0,0,0,0,-1,1714,1310,0,0
497,-286,0,0,0,0,0,0,0,0,0,-1,1721,1310,0,0
504,-286,0,0,0,0,0,0,0,0,0,-1,1728,1310,0,0
511,-286,0,0,0,0,0,0,0,0,0,-1,1735,1310,0,0
518,-286,0,0,0,0,0,0,0,0,0,-1,1742,1310,0,0
525,-286,0,0,0,0,0,0,0,0,0,-1,1749,1310,0,0
532,-286,0,0,0,0,0,0,0,0,0,-1,1756,1310,0,0
539,-286,0,0,0,0,0,0,0,0,0,-1,1763,1310,0,0
546,-286,0,0,0,0,0,0,0,0,0,-1,1770,1310,0,0
553,-286,0,0,0,0,0,0,0,0,0,-1,1777,1310,0,0
560,-286,0,0,0,0,0,0,0,0,0,-1,1784,1310,0,0
567,-286,0,0,0,0,0,0,0,0,0,-1,1791,1310,0,0
574,-286,0,0,0,0,0,0,0,0,0,-1,1798,1310,0,0
581,-286,0,0,0,0,0,0,0,0,0,-1,1805,1310,0,0
588,-286,0,0,0,0,0,0,0,0,0,-1,1812,1310,0,0
595,-286,30.2542,2.78955,0.00948171,-0.00913903,-0.0127296,0.0159424,-0.0155997,-0.469655,0.0182112,0.0393934,1819,1310,30.2541,-2.7896
602,-286,30.4834,2.84485,0.00759277,-0.0123846,-0.0123117,0.0134582,-0.01825,-0.444597,0.0183763,0.0458517,1826,1310,30.4834,-2.8448
609,-286,30.5282,2.58984,0.00636005,-0.0117599,-0.0119962,0.0123331,-0.0177329,-0.461976,0.0174517,0.0451546,1833,1310,30.5283,-2.58984
616,-286,30.4735,2.46069,0.00363083,-0.00853352,-0.00997392,0.00923077,-0.0141335,-0.511598,0.013588,0.0431942,1840,1310,30.4735,-2.46069
623,-286,30.3619,2.60449,0.00105562,-0.00453915,-0.00794199,0.00667848,-0.010162,-0.616069,0.00979196,0.0451422,1847,1310,30.362,-2.60445
630,-286,30.0779,2.76685,0,0,0,0,0,0,0,-1,1854,1310,30.0778,-2.76688
637,-286,31.8053,3.36206,0,0,0,0,0,0,0,-1,1861,1310,31.8054,-3.362
644,-286,25.6433,1.33862,0,0,0,0,0,0,0,-1,1868,1310,25.6433,-1.33858
651,-286,25.2507,1.88245,0,0,0,0,0,0,0,-1,1875,1310,25.2508,-1.88245
658,-286,23.816,7.88025,0,0,0,0,0,0,0,-1,1882,1310,23.8161,-7.88021
665,-286,23.223,7.69324,0,0,0,0,0,0,0,-1,1889,1310,23.223,-7.69319
672,-286,22.7179,7.84119,-0.00423946,0.00684022,-0.00044677,0.00685821,-0.00425745,-1.53056,0.00647591,0.0472761,1896,1310,22.7179,-7.84115
679,-286,22.432,7.53809,-0.00383403,0.00463713,0.000607466,0.00468047,-0.00387737,1.49957,0.00494812,0.0295185,1903,1310,22.432,-7.53814
686,-286,22.4762,7.19348,-0.00367461,0.00285575,0.000877216,0.00297153,-0.00379039,1.43957,0.00391353,0.0199695,1910,1310,22.4762,-7.19344
693,-286,22.4818,6.91101,-0.00332069,0.00136136,0.00127274,0.00168496,-0.0036443,1.32181,0.0031454,0.0161135,1917,1310,22.4818,-6.91099
700,-286,22.4891,6.62085,-0.00201812,-0.000231328,0.00121482,0.000383234,-0.00263268,1.10245,0.00189582,0.0114941,1924,1310,22.4891,-6.62089
707,-286,22.4786,6.35266,-0.000687409,-0.000351279,0.000672529,0.000173866,-0.00121255,0.90784,0.000872121,0.00837894,1931,1310,22.4786,-6.35271
714,-286,22.4602,6.07385,0.000586262,-0.000516472,8.65904e-05,0.00059302,-0.00052323,0.0778872,0.000644887,0.00873615,1938,1310,22.4602,-6.0738
721,-286,22.4594,5.78625,0.00155473,-0.000624745,-0.000426888,0.00163536,-0.000705375,-0.18668,0.00138652,0.0117124,1945,1310,22.4593,-5.78625
728,-286,22.4659,5.51855,0.00242535,-0.000741161,-0.000985194,0.00270685,-0.00102266,-0.278313,0.00222521,0.0138887,1952,1310,22.4659,-5.5186
735,-286,22.4917,5.24756,0.00345144,-0.000743707,-0.00179179,0.00411255,-0.00140481,-0.353469,0.00331085,0.015674,1959,1310,22.4917,-5.24756
742,-286,22.4646,4.92358,0.00500464,-0.00063521,-0.00301692,0.00631434,-0.00194491,-0.409567,0.00498595,0.0348194,1966,1310,22.4646,-4.92357
749,-286,22.6899,4.47864,0.00725491,-0.000424992,-0.00483286,0.00958762,-0.0027577,-0.449693,0.00748234,0.0481659,1973,1310,22.69,-4.47861
756,-286,23.1364,4.04138,0,0,0,0,0,0,0,-1,1980,1310,23.1363,-4.0414
763,-286,20.6671,3.99683,0,0,0,0,0,0,0,-1,1987,1310,20.6671,-3.99683
770,-286,23.9147,4.45679,0,0,0,0,0,0,0,-1,1994,1310,23.9146,-4.45675
777,-286,0,0,0,0,0,0,0,0,0,-1,2001,1310,0,0
784,-286,0,0,0,0,0,0,0,0,0,-1,2008,1310,0,0
791,-286,0,0,0,0,0,0,0,0,0,-1,2015,1310,0,0
798,-286,0,0,0,0,0,0,0,0,0,-1,2022,1310,0,0
805,-286,0,0,0,0,0,0,0,0,0,-1,2029,1310,0,0
812,-286,0,0,0,0,0,0,0,0,0,-1,2036,1310,0,0
-700,-293,0,0,0,0,0,0,0,0,0,-1,524,1317,0,0
-693,-293,0,0,0,0,0,0,0,0,0,-1,531,1317,0,0
-686,-293,0,0,0,0,0,0,0,0,0,-1,538,1317,0,0
-679,-293,0,0,0,0,0,0,0,0,0,-1,545,1317,0,0
-672,-293,0,0,0,0,0,0,0,0,0,-1,552,1317,0,0
-665,-293,0,0,0,0,0,0,0,0,0,-1,559,1317,0,0
-658,-293,0,0,0,0,0,0,0,0,0,-1,566,1317,0,0
-651,-293,-17.4536,4.65015,0,0,0,0,0,0,0,-1,573,1317,-17.4536,-4.6502
-644,-293,-15.6812,4.62781,0,0,0,0,0,0,0,-1,580,1317,-15.6812,-4.62781
-637,-293,-14.7122,4.08484,0.10648,-0.0526558,-0.0488127,0.120259,-0.0664353,-0.275134,0.109271,0.0478317,587,1317,-14.7122,-4.08481
-630,-293,-14.285,3.77466,0.089011,-0.0460647,-0.0431821,0.101636,-0.0586895,-0.284435,0.0936643,0.0483443,594,1317,-14.285,-3.77462
-623,-293,-13.7269,3.2981,0.0733179,-0.038985,-0.0363813,0.0840737,-0.0497408,-0.287453,0.0781009,0.0486667,601,1317,-13.727,-3.29814
-616,-293,-12.4672,0.962402,0.0590745,-0.0318849,-0.0293449,0.0677199,-0.0405303,-0.286508,0.063152,0.0439545,608,1317,-12.4672,-0.962403
-609,-293,-11.8943,2.17249,0,0,0,0,0,0,0,-1,615,1317,-11.8943,-2.17246
-602,-293,-11.9047,2.69287,0.0342754,-0.0187304,-0.0168039,0.0391536,-0.0236087,-0.282538,0.0366044,0.034983,622,1317,-11.9047,-2.69282
-595,-293,-11.9968,3.15662,0.0240813,-0.013174,-0.0117407,0.0274726,-0.0165653,-0.281194,0.0256839,0.0165146,629,1317,-11.9968,-3.15661
-588,-293,-11.9622,3.48389,0.0161237,-0.00853432,-0.00713661,0.0180402,-0.0104509,-0.26236,0.0166427,0.0155024,636,1317,-11.9622,-3.48385
-581,-293,-11.9578,3.80847,0.00961053,-0.00473761,-0.00327673,0.0103234,-0.0054505,-0.214225,0.0092508,0.0169772,643,1317,-11.9578,-3.80848
-574,-293,-11.9625,4.14014,0.00486871,-0.00175674,-0.000530205,0.00491087,-0.0017989,-0.0793525,0.00401037,0.0161871,650,1317,-11.9624,-4.14012
-567,-293,-11.977,4.46118,0.00225561,-0.000693171,0.000348896,0.00229633,-0.000733889,0.116181,0.00182538,0.0169888,657,1317,-11.977,-4.46114
-560,-293,-11.9668,4.79126,0.00185799,-0.000272525,-6.36821e-06,0.00185801,-0.000272544,-0.00298901,0.0013388,0.0174876,664,1317,-11.9668,-4.79122
-553,-293,-11.9535,5.09802,0.00220655,-0.000725027,-0.000543839,0.00230419,-0.000822664,-0.177639,0.00187161,0.0113967,671,1317,-11.9535,-5.09804
-546,-293,-11.9726,5.42859,0.00232821,-0.00113048,-0.00106759,0.0026312,-0.00143347,-0.276536,0.00238045,0.0105759,678,1317,-11.9726,-5.4286
-539,-293,-11.956,5.73157,0.00236067,-0.00158427,-0.00171467,0.00300177,-0.00222537,-0.357797,0.00302896,0.029575,685,1317,-11.956,-5.73163
-532,-293,-12.3858,5.79065,0,0,0,0,0,0,0,-1,692,1317,-12.3858,-5.79065
-525,-293,-8.20642,3.62256,0,0,0,0,0,0,0,-1,699,1317,-8.20639,-3.6226
-518,-293,-10.1053,0.314209,0,0,0,0,0,0,0,-1,706,1317,-10.1053,-0.314234
-511,-293,-11.6276,0.235352,0,0,0,0,0,0,0,-1,713,1317,-11.6276,-0.235372
-504,-293,-17.9086,1.25427,0,0,0,0,0,0,0,-1,720,1317,-17.9086,-1.25423
-497,-293,-18.8006,1.62122,0,0,0,0,0,0,0,-1,727,1317,-18.8006,-1.62119
-490,-293,-18.8961,1.99255,0,0,0,0,0,0,0,-1,734,1317,-18.8961,-1.99251
-483,-293,-19.0831,2.35498,0,0,0,0,0,0,0,-1,741,1317,-19.0831,-2.35497
-476,-293,-19.5228,2.61243,0,0,0,0,0,0,0,-1,748,1317,-19.5228,-2.61237
-469,-293,0,0,0,0,0,0,0,0,0,-1,755,1317,0,0
-462,-293,0,0,0,0,0,0,0,0,0,-1,762,1317,0,0
-455,-293,0,0,0,0,0,0,0,0,0,-1,769,1317,0,0
-448,-293,0,0,0,0,0,0,0,0,0,-1,776,1317,0,0
-441,-293,0,0,0,0,0,0,0,0,0,-1,783,1317,0,0
-434,-293,0,0,0,0,0,0,0,0,0,-1,790,1317,0,0
-427,-293,0,0,0,0,0,0,0,0,0,-1,797,1317,0,0
-420,-293,0,0,0,0,0,0,0,0,0,-1,804,1317,0,0
-413,-293,0,0,0,0,0,0,0,0,0,-1,811,1317,0,0
-406,-293,0,0,0,0,0,0,0,0,0,-1,818,1317,0,0
-399,-293,0,0,0,0,0,0,0,0,0,-1,825,1317,0,0
-392,-293,0,0,0,0,0,0,0,0,0,-1,832,1317,0,0
-385,-293,0,0,0,0,0,0,0,0,0,-1,839,1317,0,0
-378,-293,0,0,0,0,0,0,0,0,0,-1,846,1317,0,0
-371,-293,0,0,0,0,0,0,0,0,0,-1,853,1317,0,0
-364,-293,0,0,0,0,0,0,0,0,0,-1,860,1317,0,0
-357,-293,0,0,0,0,0,0,0,0,0,-1,867,1317,0,0
-350,-293,0,0,0,0,0,0,0,0,0,-1,874,1317,0,0
-343,-293,0,0,0,0,0,0,0,0,0,-1,881,1317,0,0
-336,-293,0,0,0,0,0,0,0,0,0,-1,888,1317,0,0
-329,-293,0,0,0,0,0,0,0,0,0,-1,895,1317,0,0
-322,-293,0,0,0,0,0,0,0,0,0,-1,902,1317,0,0
-315,-293,0,0,0,0,0,0,0,0,0,-1,909,1317,0,0
-308,-293,0,0,0,0,0,0,0,0,0,-1,916,1317,0,0
-301,-293,0,0,0,0,0,0,0,0,0,-1,923,1317,0,0
-294,-293,0,0,0,0,0,0,0,0,0,-1,930,1317,0,0
-287,-293,0,0,0,0,0,0,0,0,0,-1,937,1317,0,0
-280,-293,0,0,0,0,0,0,0,0,0,-1,944,1317,0,0
-273,-293,0,0,0,0,0,0,0,0,0,-1,951,1317,0,0
-266,-293,0,0,0,0,0,0,0,0,0,-1,958,1317,0,0
-259,-293,0,0,0,0,0,0,0,0,0,-1,965,1317,0,0
-252,-293,0,0,0,0,0,0,0,0,0,-1,972,1317,0,0
-245,-293,0,0,0,0,0,0,0,0,0,-1,979,1317,0,0
-238,-293,0,0,0,0,0,0,0,0,0,-1,986,1317,0,0
-231,-293,0,0,0,0,0,0,0,0,0,-1,993,1317,0,0
-224,-293,0,0,0,0,0,0,0,0,0,-1,1000,1317,0,0
-217,-293,0,0,0,0,0,0,0,0,0,-1,1007,1317,0,0
-210,-293,0,0,0,0,0,0,0,0,0,-1,1014,1317,0,0
-203,-293,0,0,0,0,0,0,0,0,0,-1,1021,1317,0,0
-196,-293,0,0,0,0,0,0,0,0,0,-1,1028,1317,0,0
-189,-293,0,0,0,0,0,0,0,0,0,-1,1035,1317,0,0
-182,-293,0,0,0,0,0,0,0,0,0,-1,1042,1317,0,0
-175,-293,0,0,0,0,0,0,0,0,0,-1,1049,1317,0,0
-168,-293,0,0,0,0,0,0,0,0,0,-1,1056,1317,0,0
-161,-293,0,0,0,0,0,0,0,0,0,-1,1063,1317,0,0
-154,-293,0,0,0,0,0,0,0,0,0,-1,1070,1317,0,0
-147,-293,0,0,0,0,0,0,0,0,0,-1,1077,1317,0,0
-140,-293,0,0,0,0,0,0,0,0,0,-1,1084,1317,0,0
-133,-293,0,0,0,0,0,0,0,0,0,-1,1091,1317,0,0
-126,-293,0,0,0,0,0,0,0,0,0,-1,1098,1317,0,0
-119,-293,0,0,0,0,0,0,0,0,0,-1,1105,1317,0,0
-112,-293,0,0,0,0,0,0,0,0,0,-1,1112,1317,0,0
-105,-293,0,0,0,0,0,0,0,0,0,-1,1119,1317,0,0
-98,-293,0,0,0,0,0,0,0,0,0,-1,1126,1317,0,0
-91,-293,0,0,0,0,0,0,0,0,0,-1,1133,1317,0,0
-84,-293,0,0,0,0,0,0,0,0,0,-1,1140,1317,0,0
-77,-293,0,0,0,0,0,0,0,0,0,-1,1147,1317,0,0
-70,-293,0,0,0,0,0,0,0,0,0,-1,1154,1317,0,0
-63,-293,0,0,0,0,0,0,0,0,0,-1,1161,1317,0,0
-56,-293,0,0,0,0,0,0,0,0,0,-1,1168,1317,0,0
-49,-293,0,0,0,0,0,0,0,0,0,-1,1175,1317,0,0
-42,-293,0,0,0,0,0,0,0,0,0,-1,1182,1317,0,0
-35,-293,0,0,0,0,0,0,0,0,0,-1,1189,1317,0,0
-28,-293,0,0,0,0,0,0,0,0,0,-1,1196,1317,0,0
-21,-293,0,0,0,0,0,0,0,0,0,-1,1203,1317,0,0
-14,-293,0,0,0,0,0,0,0,0,0,-1,1210,1317,0,0
-7,-293,0,0,0,0,0,0,0,0,0,-1,1217,1317,0,0
0,-293,0,0,0,0,0,0,0,0,0,-1,1224,1317,0,0
7,-293,0,0,0,0,0,0,0,0,0,-1,1231,1317,0,0
14,-293,0,0,0,0,0,0,0,0,0,-1,1238,1317,0,0
21,-293,0,0,0,0,0,0,0,0,0,-1,1245,1317,0,0
28,-293,0,0,0,0,0,0,0,0,0,-1,1252,1317,0,0
35,-293,0,0,0,0,0,0,0,0,0,-1,1259,1317,0,0
42,-293,0,0,0,0,0,0,0,0,0,-1,1266,1317,0,0
49,-293,0,0,0,0,0,0,0,0,0,-1,1273,1317,0,0
56,-293,0,0,0,0,0,0,0,0,0,-1,1280,1317,0,0
63,-293,0,0,0,0,0,0,0,0,0,-1,1287,1317,0,0
70,-293,0,0,0,0,0,0,0,0,0,-1,1294,1317,0,0
77,-293,0,0,0,0,0,0,0,0,0,-1,1301,1317,0,0
84,-293,0,0,0,0,0,0,0,0,0,-1,1308,1317,0,0
91,-293,0,0,0,0,0,0,0,0,0,-1,1315,1317,0,0
98,-293,0,0,0,0,0,0,0,0,0,-1,1322,1317,0,0
105,-293,0,0,0,0,0,0,0,0,0,-1,1329,1317,0,0
112,-293,0,0,0,0,0,0,0,0,0,-1,1336,1317,0,0
119,-293,0,0,0,0,0,0,0,0,0,-1,1343,1317,0,0
126,-293,0,0,0,0,0,0,0,0,0,-1,1350,1317,0,0
133,-293,0,0,0,0,0,0,0,0,0,-1,1357,1317,0,0
140,-293,0,0,0,0,0,0,0,0,0,-1,1364,1317,0,0
147,-293,0,0,0,0,0,0,0,0,0,-1,1371,1317,0,0
154,-293,0,0,0,0,0,0,0,0,0,-1,1378,1317,0,0
161,-293,0,0,0,0,0,0,0,0,0,-1,1385,1317,0,0
168,-293,0,0,0,0,0,0,0,0,0,-1,1392,1317,0,0
175,-293,0,0,0,0,0,0,0,0,0,-1,1399,1317,0,0
182,-293,0,0,0,0,0,0,0,0,0,-1,1406,1317,0,0
189,-293,0,0,0,0,0,0,0,0,0,-1,1413,1317,0,0
196,-293,0,0,0,0,0,0,0,0,0,-1,1420,1317,0,0
203,-293,0,0,0,0,0,0,0,0,0,-1,1427,1317,0,0
210,-293,0,0,0,0,0,0,0,0,0,-1,1434,1317,0,0
217,-293,0,0,0,0,0,0,0,0,0,-1,1441,1317,0,0
224,-293,0,0,0,0,0,0,0,0,0,-1,1448,1317,0,0
231,-293,0,0,0,0,0,0,0,0,0,-1,1455,1317,0,0
238,-293,0,0,0,0,0,0,0,0,0,-1,1462,1317,0,0
245,-293,0,0,0,0,0,0,0,0,0,-1,1469,1317,0,0
252,-293,0,0,0,0,0,0,0,0,0,-1,1476,1317,0,0
259,-293,0,0,0,0,0,0,0,0,0,-1,1483,1317,0,0
266,-293,0,0,0,0,0,0,0,0,0,-1,1490,1317,0,0
273,-293,0,0,0,0,0,0,0,0,0,-1,1497,1317,0,0
280,-293,0,0,0,0,0,0,0,0,0,-1,1504,1317,0,0
287,-293,0,0,0,0,0,0,0,0,0,-1,1511,1317,0,0
294,-293,0,0,0,0,0,0,0,0,0,-1,1518,1317,0,0
301,-293,0,0,0,0,0,0,0,0,0,-1,1525,1317,0,0
308,-293,0,0,0,0,0,0,0,0,0,-1,1532,1317,0,0
315,-293,0,0,0,0,0,0,0,0,0,-1,1539,1317,0,0
322,-293,0,0,0,0,0,0,0,0,0,-1,1546,1317,0,0
329,-293,0,0,0,0,0,0,0,0,0,-1,1553,1317,0,0
336,-293,0,0,0,0,0,0,0,0,0,-1,1560,1317,0,0
343,-293,0,0,0,0,0,0,0,0,0,-1,1567,1317,0,0
350,-293,0,0,0,0,0,0,0,0,0,-1,1574,1317,0,0
357,-293,0,0,0,0,0,0,0,0,0,-1,1581,1317,0,0
364,-293,0,0,0,0,0,0,0,0,0,-1,1588,1317,0,0
371,-293,0,0,0,0,0,0,0,0,0,-1,1595,1317,0,0
378,-293,0,0,0,0,0,0,0,0,0,-1,1602,1317,0,0
385,-293,0,0,0,0,0,0,0,0,0,-1,1609,1317,0,0
392,-293,0,0,0,0,0,0,0,0,0,-1,1616,1317,0,0
399,-293,0,0,0,0,0,0,0,0,0,-1,1623,1317,0,0
406,-293,0,0,0,0,0,0,0,0,0,-1,1630,1317,0,0
413,-293,0,0,0,0,0,0,0,0,0,-1,1637,1317,0,0
420,-293,0,0,0,0,0,0,0,0,0,-1,1644,1317,0,0
427,-293,0,0,0,0,0,0,0,0,0,-1,1651,1317,0,0
434,-293,0,0,0,0,0,0,0,0,0,-1,1658,1317,0,0
441,-293,0,0,0,0,0,0,0,0,0,-1,1665,1317,0,0
448,-293,0,0,0,0,0,0,0,0,0,-1,1672,1317,0,0
455,-293,0,0,0,0,0,0,0,0,0,-1,1679,1317,0,0
462,-293,0,0,0,0,0,0,0,0,0,-1,1686,1317,0,0
469,-293,0,0,0,0,0,0,0,0,0,-1,1693,1317,0,0
476,-293,0,0,0,0,0,0,0,0,0,-1,1700,1317,0,0
483,-293,0,0,0,0,0,0,0,0,0,-1,1707,1317,0,0
490,-293,0,0,0,0,0,0,0,0,0,-1,1714,1317,0,0
497,-293,0,0,0,0,0,0,0,0,0,-1,1721,1317,0,0
504,-293,0,0,0,0,0,0,0,0,0,-1,1728,1317,0,0
511,-293,0,0,0,0,0,0,0,0,0,-1,1735,1317,0,0
518,-293,0,0,0,0,0,0,0,0,0,-1,1742,1317,0,0
525,-293,0,0,0,0,0,0,0,0,0,-1,1749,1317,0,0
532,-293,0,0,0,0,0,0,0,0,0,-1,1756,1317,0,0
539,-293,0,0,0,0,0,0,0,0,0,-1,1763,1317,0,0
546,-293,0,0,0,0,0,0,0,0,0,-1,1770,1317,0,0
553,-293,0,0,0,0,0,0,0,0,0,-1,1777,1317,0,0
560,-293,0,0,0,0,0,0,0,0,0,-1,1784,1317,0,0
567,-293,0,0,0,0,0,0,0,0,0,-1,1791,1317,0,0
574,-293,0,0,0,0,0,0,0,0,0,-1,1798,1317,0,0
581,-293,0,0,0,0,0,0,0,0,0,-1,1805,1317,0,0
588,-293,0,0,0,0,0,0,0,0,0,-1,1812,1317,0,0
595,-293,30.36,2.70776,0,0,0,0,0,0,0,-1,1819,1317,30.36,-2.70779
602,-293,30.6433,2.80652,0,0,0,0,0,0,0,-1,1826,1317,30.6433,-2.80647
609,-293,30.9078,2.65234,0,0,0,0,0,0,0,-1,1833,1317,30.9078,-2.6523
616,-293,30.778,2.35449,-0.00442718,-0.0152729,-0.00609389,-0.00169266,-0.0180074,-0.421798,0.0114824,0.0467113,1840,1317,30.778,-2.3545
623,-293,30.8069,2.1781,-0.00501719,-0.0106834,-0.00489166,-0.00219742,-0.0135031,-0.522918,0.00836636,0.0468555,1847,1317,30.8069,-2.17807
630,-293,30.7291,2.12561,0,0,0,0,0,0,0,-1,1854,1317,30.7292,-2.12566
637,-293,25.4058,0.67334,0,0,0,0,0,0,0,-1,1861,1317,25.4057,-0.673398
644,-293,24.4565,0.520752,0,0,0,0,0,0,0,-1,1868,1317,24.4566,-0.520709
651,-293,23.7169,8.03564,0,0,0,0,0,0,0,-1,1875,1317,23.7169,-8.03569
658,-293,23.2029,7.96594,-0.00483432,0.00367845,-0.000556072,0.00371462,-0.00487049,-1.50584,0.00497156,0.0444104,1882,1317,23.2029,-7.96591
665,-293,22.687,7.85815,-0.00474214,0.00599962,0.000248243,0.00600535,-0.00474788,1.5477,0.00622252,0.0442582,1889,1317,22.687,-7.85817
672,-293,22.2209,7.79663,-0.00487225,0.00507251,0.000664153,0.00511667,-0.00491641,1.50441,0.00579299,0.0216195,1896,1317,22.2209,-7.79662
679,-293,22.1971,7.48328,-0.00435763,0.00292615,0.00165811,0.00328584,-0.00471732,1.35718,0.0046452,0.0132352,1903,1317,22.1972,-7.48333
686,-293,22.215,7.19836,-0.00393985,0.00151138,0.00169314,0.00199446,-0.00442292,1.29287,0.00379247,0.0154695,1910,1317,22.2149,-7.19832
693,-293,22.2211,6.91357,-0.0033033,0.000435866,0.0017217,0.00110785,-0.00397529,1.19868,0.00308648,0.0116245,1917,1317,22.2211,-6.91362
700,-293,22.2067,6.60974,-0.00191395,-0.000618775,0.00136678,0.000246074,-0.0027788,1.00663,0.00193977,0.0103283,1924,1317,22.2066,-6.60979
707,-293,22.1929,6.33984,-0.00057782,-0.000682528,0.000719272,9.10017e-05,-0.00135135,0.749068,0.000932714,0.0108037,1931,1317,22.1929,-6.33982
714,-293,22.1755,6.07886,0.000688791,-0.000853118,3.13145e-05,0.000689426,-0.000853754,0.0202978,0.000892638,0.00774184,1938,1317,22.1755,-6.07882
721,-293,22.1936,5.78894,0.00164743,-0.00106935,-0.000562234,0.00175919,-0.00118111,-0.196214,0.00170848,0.0095601,1945,1317,22.1936,-5.78894
728,-293,22.1885,5.50134,0.00256121,-0.00133453,-0.0012711,0.00293926,-0.00171257,-0.289086,0.00271668,0.0123196,1952,1317,22.1885,-5.50131
735,-293,22.1826,5.21387,0.00370735,-0.00149477,-0.00235525,0.00461523,-0.00240265,-0.367922,0.00411836,0.017941,1959,1317,22.1826,-5.21387
742,-293,22.1687,4.9198,0.00548507,-0.00157332,-0.00402564,0.00730947,-0.00339772,-0.425508,0.00631782,0.0374472,1966,1317,22.1687,-4.91985
749,-293,22.0107,4.36938,0.0080254,-0.00148913,-0.00649065,0.0113155,-0.00477923,-0.469151,0.00954431,0.045593,1973,1317,22.0107,-4.36941
756,-293,22.1888,3.50366,0,0,0,0,0,0,0,-1,1980,1317,22.1889,-3.50369
763,-293,26.6713,4.74097,0,0,0,0,0,0,0,-1,1987,1317,26.6713,-4.74098
770,-293,24.1349,4.69153,0,0,0,0,0,0,0,-1,1994,1317,24.1348,-4.69159
777,-293,0,0,0,0,0,0,0,0,0,-1,2001,1317,0,0
784,-293,0,0,0,0,0,0,0,0,0,-1,2008,1317,0,0
791,-293,0,0,0,0,0,0,0,0,0,-1,2015,1317,0,0
798,-293,0,0,0,0,0,0,0,0,0,-1,2022,1317,0,0
805,-293,0,0,0,0,0,0,0,0,0,-1,2029,1317,0,0
812,-293,0,0,0,0,0,0,0,0,0,-1,2036,1317,0,0
-700,-300,0,0,0,0,0,0,0,0,0,-1,524,1324,0,0
-693,-300,0,0,0,0,0,0,0,0,0,-1,531,1324,0,0
-686,-300,0,0,0,0,0,0,0,0,0,-1,538,1324,0,0
-679,-300,0,0,0,0,0,0,0,0,0,-1,545,1324,0,0
-672,-300,0,0,0,0,0,0,0,0,0,-1,552,1324,0,0
-665,-300,0,0,0,0,0,0,0,0,0,-1,559,1324,0,0
-658,-300,0,0,0,0,0,0,0,0,0,-1,566,1324,0,0
-651,-300,-17.8432,5.38123,0,0,0,0,0,0,0,-1,573,1324,-17.8432,-5.38118
-644,-300,-14.892,5.32971,0.12082,-0.0642637,-0.0627142,0.140069,-0.0835121,-0.297796,0.130454,0.0448587,580,1324,-14.8921,-5.32977
-637,-300,-14.473,4.73755,0.106114,-0.0597593,-0.0582819,0.124544,-0.0781896,-0.306277,0.118064,0.0429271,587,1324,-14.473,-4.73758
-630,-300,-14.044,4.32837,0.0911326,-0.052607,-0.0508532,0.107304,-0.0687787,-0.307895,0.102469,0.0453111,594,1324,-14.044,-4.32842
-623,-300,-13.428,3.63342,0.0764375,-0.0445991,-0.0425437,0.0898951,-0.0580567,-0.306365,0.0860768,0.0490291,601,1324,-13.428,-3.6334
-616,-300,-12.6855,2.59424,0.0624787,-0.0365547,-0.0342733,0.0731829,-0.0472589,-0.302721,0.070072,0.0453328,608,1324,-12.6856,-2.59418
-609,-300,-11.5491,1.95374,0,0,0,0,0,0,0,-1,615,1324,-11.549,-1.95373
-602,-300,-11.4764,2.63,0.0373999,-0.0217486,-0.0196624,0.0433397,-0.0276883,-0.293371,0.0413386,0.0429109,622,1324,-11.4764,-2.63003
-595,-300,-11.6649,3.15576,0.0266519,-0.0154722,-0.0137952,0.0307676,-0.0195879,-0.289934,0.0293106,0.0237708,629,1324,-11.6649,-3.15576
-588,-300,-11.6442,3.53223,0.017986,-0.0101662,-0.00858974,0.0203999,-0.0125801,-0.273957,0.0192186,0.0194894,636,1324,-11.6442,-3.53227
-581,-300,-11.66,3.84778,0.0107256,-0.00573531,-0.00412159,0.0117,-0.00670963,-0.232132,0.0107582,0.019339,643,1324,-11.66,-3.84782
-574,-300,-11.6444,4.16284,0.00530774,-0.00224465,-0.000719668,0.0053757,-0.00231261,-0.094161,0.00455477,0.0153007,650,1324,-11.6444,-4.16288
-567,-300,-11.6821,4.47754,0.00230282,-0.000942473,0.000415185,0.00235509,-0.000994747,0.125247,0.00198648,0.0166317,657,1324,-11.6821,-4.47754
-560,-300,-11.6878,4.80627,0.00176121,-0.000211637,0.000107049,0.001767,-0.000217429,0.0540497,0.00125676,0.0157823,664,1324,-11.6878,-4.80624
-553,-300,-11.6343,5.11401,0.0022592,-0.000804717,-0.000358097,0.0023005,-0.000846013,-0.114814,0.00188022,0.0110349,671,1324,-11.6343,-5.11398
-546,-300,-11.6423,5.4364,0.00275931,-0.00149518,-0.000716235,0.00287665,-0.00161252,-0.162387,0.00262586,0.00859562,678,1324,-11.6423,-5.43636
-539,-300,-11.6283,5.76868,0.0033324,-0.00234628,-0.00105724,0.00352285,-0.00253673,-0.178224,0.00351391,0.0175177,685,1324,-11.6283,-5.7687
-532,-300,-11.879,5.88464,0.00430916,-0.00335147,-0.00150219,0.0045932,-0.00363551,-0.186876,0.00476156,0.048987,692,1324,-11.8789,-5.88462
-525,-300,-12.1521,5.83496,0,0,0,0,0,0,0,-1,699,1324,-12.1521,-5.8349
-518,-300,-9.8349,-0.537109,0,0,0,0,0,0,0,-1,706,1324,-9.83487,0.537068
-511,-300,-12.8644,0.081665,0,0,0,0,0,0,0,-1,713,1324,-12.8644,-0.0817016
-504,-300,-13.4829,-0.165527,0,0,0,0,0,0,0,-1,720,1324,-13.4829,0.165544
-497,-300,-18.1063,0.956543,0,0,0,0,0,0,0,-1,727,1324,-18.1063,-0.9565
-490,-300,-18.2293,1.53625,0,0,0,0,0,0,0,-1,734,1324,-18.2293,-1.53626
-483,-300,-18.3522,1.61084,0,0,0,0,0,0,0,-1,741,1324,-18.3522,-1.6108
-476,-300,-18.7489,1.96387,0,0,0,0,0,0,0,-1,748,1324,-18.7489,-1.96387
-469,-300,0,0,0,0,0,0,0,0,0,-1,755,1324,0,0
-462,-300,0,0,0,0,0,0,0,0,0,-1,762,1324,0,0
-455,-300,0,0,0,0,0,0,0,0,0,-1,769,1324,0,0
-448,-300,0,0,0,0,0,0,0,0,0,-1,776,1324,0,0
-441,-300,0,0,0,0,0,0,0,0,0,-1,783,1324,0,0
-434,-300,0,0,0,0,0,0,0,0,0,-1,790,1324,0,0
-427,-300,0,0,0,0,0,0,0,0,0,-1,797,1324,0,0
-420,-300,0,0,0,0,0,0,0,0,0,-1,804,1324,0,0
-413,-300,0,0,0,0,0,0,0,0,0,-1,811,1324,0,0
-406,-300,0,0,0,0,0,0,0,0,0,-1,818,1324,0,0
-399,-300,0,0,0,0,0,0,0,0,0,-1,825,1324,0,0
-392,-300,0,0,0,0,0,0,0,0,0,-1,832,1324,0,0
-385,-300,0,0,0,0,0,0,0,0,0,-1,839,1324,0,0
-378,-300,0,0,0,0,0,0,0,0,0,-1,846,1324,0,0
-371,-300,0,0,0,0,0,0,0,0,0,-1,853,1324,0,0
-364,-300,0,0,0,0,0,0,0,0,0,-1,860,1324,0,0
-357,-300,0,0,0,0,0,0,0,0,0,-1,867,1324,0,0
-350,-300,0,0,0,0,0,0,0,0,0,-1,874,1324,0,0
-343,-300,0,0,0,0,0,0,0,0,0,-1,881,1324,0,0
-336,-300,0,0,0,0,0,0,0,0,0,-1,888,1324,0,0
-329,-300,0,0,0,0,0,0,0,0,0,-1,895,1324,0,0
-322,-300,0,0,0,0,0,0,0,0,0,-1,902,1324,0,0
-315,-300,0,0,0,0,0,0,0,0,0,-1,909,1324,0,0
-308,-300,0,0,0,0,0,0,0,0,0,-1,916,1324,0,0
-301,-300,0,0,0,0,0,0,0,0,0,-1,923,1324,0,0
-294,-300,0,0,0,0,0,0,0,0,0,-1,930,1324,0,0
-287,-300,0,0,0,0,0,0,0,0,0,-1,937,1324,0,0
-280,-300,0,0,0,0,0,0,0,0,0,-1,944,1324,0,0
-273,-300,0,0,0,0,0,0,0,0,0,-1,951,1324,0,0
-266,-300,0,0,0,0,0,0,0,0,0,-1,958,1324,0,0
-259,-300,0,0,0,0,0,0,0,0,0,-1,965,1324,0,0
-252,-300,0,0,0,0,0,0,0,0,0,-1,972,1324,0,0
-245,-300,0,0,0,0,0,0,0,0,0,-1,979,1324,0,0
-238,-300,0,0,0,0,0,0,0,0,0,-1,986,1324,0,0
-231,-300,0,0,0,0,0,0,0,0,0,-1,993,1324,0,0
-224,-300,0,0,0,0,0,0,0,0,0,-1,1000,1324,0,0
-217,-300,0,0,0,0,0,0,0,0,0,-1,1007,1324,0,0
-210,-300,0,0,0,0,0,0,0,0,0,-1,1014,1324,0,0
-203,-300,0,0,0,0,0,0,0,0,0,-1,1021,1324,0,0
-196,-300,0,0,0,0,0,0,0,0,0,-1,1028,1324,0,0
-189,-300,0,0,0,0,0,0,0,0,0,-1,1035,1324,0,0
-182,-300,0,0,0,0,0,0,0,0,0,-1,1042,1324,0,0
-175,-300,0,0,0,0,0,0,0,0,0,-1,1049,1324,0,0
-168,-300,0,0,0,0,0,0,0,0,0,-1,1056,1324,0,0
-161,-300,0,0,0,0,0,0,0,0,0,-1,1063,1324,0,0
-154,-300,0,0,0,0,0,0,0,0,0,-1,1070,1324,0,0
-147,-300,0,0,0,0,0,0,0,0,0,-1,1077,1324,0,0
-140,-300,0,0,0,0,0,0,0,0,0,-1,1084,1324,0,0
-133,-300,0,0,0,0,0,0,0,0,0,-1,1091,1324,0,0
-126,-300,0,0,0,0,0,0,0,0,0,-1,1098,1324,0,0
-119,-300,0,0,0,0,0,0,0,0,0,-1,1105,1324,0,0
-112,-300,0,0,0,0,0,0,0,0,0,-1,1112,1324,0,0
-105,-300,0,0,0,0,0,0,0,0,0,-1,1119,1324,0,0
-98,-300,0,0,0,0,0,0,0,0,0,-1,1126,1324,0,0
-91,-300,0,0,0,0,0,0,0,0,0,-1,1133,1324,0,0
-84,-300,0,0,0,0,0,0,0,0,0,-1,1140,1324,0,0
-77,-300,0,0,0,0,0,0,0,0,0,-1,1147,1324,0,0
-70,-300,0,0,0,0,0,0,0,0,0,-1,1154,1324,0,0
-63,-300,0,0,0,0,0,0,0,0,0,-1,1161,1324,0,0
-56,-300,0,0,0,0,0,0,0,0,0,-1,1168,1324,0,0
-49,-300,0,0,0,0,0,0,0,0,0,-1,1175,1324,0,0
-42,-300,0,0,0,0,0,0,0,0,0,-1,1182,1324,0,0
-35,-300,0,0,0,0,0,0,0,0,0,-1,1189,1324,0,0
-28,-300,0,0,0,0,0,0,0,0,0,-1,1196,1324,0,0
-21,-300,0,0,0,0,0,0,0,0,0,-1,1203,1324,0,0
-14,-300,0,0,0,0,0,0,0,0,0,-1,1210,1324,0,0
-7,-300,0,0,0,0,0,0,0,0,0,-1,1217,1324,0,0
0,-300,0,0,0,0,0,0,0,0,0,-1,1224,1324,0,0
7,-300,0,0,0,0,0,0,0,0,0,-1,1231,1324,0,0
14,-300,0,0,0,0,0,0,0,0,0,-1,1238,1324,0,0
21,-300,0,0,0,0,0,0,0,0,0,-1,1245,1324,0,0
28,-300,0,0,0,0,0,0,0,0,0,-1,1252,1324,0,0
35,-300,0,0,0,0,0,0,0,0,0,-1,1259,1324,0,0
42,-300,0,0,0,0,0,0,0,0,0,-1,1266,1324,0,0
49,-300,0,0,0,0,0,0,0,0,0,-1,1273,1324,0,0
56,-300,0,0,0,0,0,0,0,0,0,-1,1280,1324,0,0
63,-300,0,0,0,0,0,0,0,0,0,-1,1287,1324,0,0
70,-300,0,0,0,0,0,0,0,0,0,-1,1294,1324,0,0
77,-300,0,0,0,0,0,0,0,0,0,-1,1301,1324,0,0
84,-300,0,0,0,0,0,0,0,0,0,-1,1308,1324,0,0
91,-300,0,0,0,0,0,0,0,0,0,-1,1315,1324,0,0
98,-300,0,0,0,0,0,0,0,0,0,-1,1322,1324,0,0
105,-300,0,0,0,0,0,0,0,0,0,-1,1329,1324,0,0
112,-300,0,0,0,0,0,0,0,0,0,-1,1336,1324,0,0
119,-300,0,0,0,0,0,0,0,0,0,-1,1343,1324,0,0
126,-300,0,0,0,0,0,0,0,0,0,-1,1350,1324,0,0
133,-300,0,0,0,0,0,0,0,0,0,-1,1357,1324,0,0
140,-300,0,0,0,0,0,0,0,0,0,-1,1364,1324,0,0
147,-300,0,0,0,0,0,0,0,0,0,-1,1371,1324,0,0
154,-300,0,0,0,0,0,0,0,0,0,-1,1378,1324,0,0
161,-300,0,0,0,0,0,0,0,0,0,-1,1385,1324,0,0
168,-300,0,0,0,0,0,0,0,0,0,-1,1392,1324,0,0
175,-300,0,0,0,0,0,0,0,0,0,-1,1399,1324,0,0
182,-300,0,0,0,0,0,0,0,0,0,-1,1406,1324,0,0
189,-300,0,0,0,0,0,0,0,0,0,-1,1413,1324,0,0
196,-300,0,0,0,0,0,0,0,0,0,-1,1420,1324,0,0
203,-300,0,0,0,0,0,0,0,0,0,-1,1427,1324,0,0
210,-300,0,0,0,0,0,0,0,0,0,-1,1434,1324,0,0
217,-300,0,0,0,0,0,0,0,0,0,-1,1441,1324,0,0
224,-300,0,0,0,0,0,0,0,0,0,-1,1448,1324,0,0
231,-300,0,0,0,0,0,0,0,0,0,-1,1455,1324,0,0
238,-300,0,0,0,0,0,0,0,0,0,-1,1462,1324,0,0
245,-300,0,0,0,0,0,0,0,0,0,-1,1469,1324,0,0
252,-300,0,0,0,0,0,0,0,0,0,-1,1476,1324,0,0
259,-300,0,0,0,0,0,0,0,0,0,-1,1483,1324,0,0
266,-300,0,0,0,0,0,0,0,0,0,-1,1490,1324,0,0
273,-300,0,0,0,0,0,0,0,0,0,-1,1497,1324,0,0
280,-300,0,0,0,0,0,0,0,0,0,-1,1504,1324,0,0
287,-300,0,0,0,0,0,0,0,0,0,-1,1511,1324,0,0
294,-300,0,0,0,0,0,0,0,0,0,-1,1518,1324,0,0
301,-300,0,0,0,0,0,0,0,0,0,-1,1525,1324,0,0
308,-300,0,0,0,0,0,0,0,0,0,-1,1532,1324,0,0
315,-300,0,0,0,0,0,0,0,0,0,-1,1539,1324,0,0
322,-300,0,0,0,0,0,0,0,0,0,-1,1546,1324,0,0
329,-300,0,0,0,0,0,0,0,0,0,-1,1553,1324,0,0
336,-300,0,0,0,0,0,0,0,0,0,-1,1560,1324,0,0
343,-300,0,0,0,0,0,0,0,0,0,-1,1567,1324,0,0
350,-300,0,0,0,0,0,0,0,0,0,-1,1574,1324,0,0
357,-300,0,0,0,0,0,0,0,0,0,-1,1581,1324,0,0
364,-300,0,0,0,0,0,0,0,0,0,-1,1588,1324,0,0
371,-300,0,0,0,0,0,0,0,0,0,-1,1595,1324,0,0
378,-300,0,0,0,0,0,0,0,0,0,-1,1602,1324,0,0
385,-300,0,0,0,0,0,0,0,0,0,-1,1609,1324,0,0
392,-300,0,0,0,0,0,0,0,0,0,-1,1616,1324,0,0
399,-300,0,0,0,0,0,0,0,0,0,-1,1623,1324,0,0
406,-300,0,0,0,0,0,0,0,0,0,-1,1630,1324,0,0
413,-300,0,0,0,0,0,0,0,0,0,-1,1637,1324,0,0
420,-300,0,0,0,0,0,0,0,0,0,-1,1644,1324,0,0
427,-300,0,0,0,0,0,0,0,0,0,-1,1651,1324,0,0
434,-300,0,0,0,0,0,0,0,0,0,-1,1658,1324,0,0
441,-300,0,0,0,0,0,0,0,0,0,-1,1665,1324,0,0
448,-300,0,0,0,0,0,0,0,0,0,-1,1672,1324,0,0
455,-300,0,0,0,0,0,0,0,0,0,-1,1679,1324,0,0
462,-300,0,0,0,0,0,0,0,0,0,-1,1686,1324,0,0
469,-300,0,0,0,0,0,0,0,0,0,-1,1693,1324,0,0
476,-300,0,0,0,0,0,0,0,0,0,-1,1700,1324,0,0
483,-300,0,0,0,0,0,0,0,0,0,-1,1707,1324,0,0
490,-300,0,0,0,0,0,0,0,0,0,-1,1714,1324,0,0
497,-300,0,0,0,0,0,0,0,0,0,-1,1721,1324,0,0
504,-300,0,0,0,0,0,0,0,0,0,-1,1728,1324,0,0
511,-300,0,0,0,0,0,0,0,0,0,-1,1735,1324,0,0
518,-300,0,0,0,0,0,0,0,0,0,-1,1742,1324,0,0
525,-300,0,0,0,0,0,0,0,0,0,-1,1749,1324,0,0
532,-300,0,0,0,0,0,0,0,0,0,-1,1756,1324,0,0
539,-300,0,0,0,0,0,0,0,0,0,-1,1763,1324,0,0
546,-300,0,0,0,0,0,0,0,0,0,-1,1770,1324,0,0
553,-300,0,0,0,0,0,0,0,0,0,-1,1777,1324,0,0
560,-300,0,0,0,0,0,0,0,0,0,-1,1784,1324,0,0
567,-300,0,0,0,0,0,0,0,0,0,-1,1791,1324,0,0
574,-300,0,0,0,0,0,0,0,0,0,-1,1798,1324,0,0
581,-300,0,0,0,0,0,0,0,0,0,-1,1805,1324,0,0
588,-300,30.4436,2.76355,0.01218,-0.0139387,-0.0148894,0.0189257,-0.0206845,-0.425392,0.0228765,0.0441463,1812,1324,30.4436,-2.76355
595,-300,30.5665,2.71594,-0.00263725,-0.0248363,-0.00857433,0.000288867,-0.0277624,-0.328872,0.0186053,0.0444087,1819,1324,30.5665,-2.71597
602,-300,30.7383,2.58215,0,0,0,0,0,0,0,-1,1826,1324,30.7383,-2.58218
609,-300,30.8009,1.59521,-0.0184551,-0.0262688,-0.00177861,-0.0180693,-0.0266547,-0.213607,0.0157104,0.0489978,1833,1324,30.8009,-1.59524
616,-300,30.7156,2.5166,-0.0170527,-0.0213411,-0.00109852,-0.0167877,-0.0216061,-0.236732,0.0130968,0.0485942,1840,1324,30.7156,-2.5166
623,-300,30.5609,2.01062,0,0,0,0,0,0,0,-1,1847,1324,30.5609,-2.01065
630,-300,28.5414,0.447021,0,0,0,0,0,0,0,-1,1854,1324,28.5414,-0.447056
637,-300,26.0989,2.27869,0,0,0,0,0,0,0,-1,1861,1324,26.0988,-2.27872
644,-300,22.9836,3.44934,0,0,0,0,0,0,0,-1,1868,1324,22.9836,-3.4493
651,-300,22.9598,7.96655,0,0,0,0,0,0,0,-1,1875,1324,22.9598,-7.96661
658,-300,22.4781,8.0481,-0.00601849,0.00206969,0.000463647,0.00209618,-0.00604499,1.51372,0.00488113,0.0472262,1882,1324,22.4781,-8.04805
665,-300,22.0891,8.05457,-0.00522881,0.00525559,0.00108691,0.00536709,-0.0053403,1.46858,0.00618192,0.0387512,1889,1324,22.0891,-8.05455
672,-300,21.9149,7.81653,-0.00529445,0.00424795,0.00147266,0.00447005,-0.00551655,1.42111,0.00577631,0.0132474,1896,1324,21.9149,-7.81655
679,-300,21.9248,7.48755,-0.00459176,0.00214818,0.00228321,0.0028488,-0.00529239,1.27306,0.00477037,0.0129853,1903,1324,21.9249,-7.48749
686,-300,21.9177,7.20154,-0.00389868,0.000938617,0.00209879,0.00172228,-0.00468234,1.21344,0.00382709,0.0133509,1910,1324,21.9177,-7.20156
693,-300,21.9131,6.91882,-0.00304401,3.12688e-05,0.00185365,0.00090202,-0.00391476,1.13164,0.00295674,0.010169,1917,1324,21.9131,-6.9188
700,-300,21.9182,6.62097,-0.00167236,-0.000782286,0.00131562,0.000161525,-0.00261618,0.948494,0.00180038,0.0111819,1924,1324,21.9182,-6.62098
707,-300,21.9281,6.33142,-0.000408111,-0.000909137,0.000682936,6.88088e-05,-0.00138606,0.609609,0.000947807,0.00871522,1931,1324,21.9281,-6.3314
714,-300,21.9097,6.07019,0.00078606,-0.00115115,-9.64239e-06,0.000786108,-0.0011512,-0.0049773,0.0011251,0.0103108,1938,1324,21.9096,-6.07019
721,-300,21.9257,5.79053,0.00172619,-0.00149711,-0.000671311,0.00186041,-0.00163134,-0.19734,0.00201741,0.011804,1945,1324,21.9257,-5.79055
728,-300,21.936,5.48633,0.00270505,-0.0018906,-0.00156785,0.00318898,-0.00237453,-0.29938,0.00322354,0.0124755,1952,1324,21.936,-5.48634
735,-300,21.8066,5.31775,0.00406996,-0.0021953,-0.00301893,0.00528788,-0.00341322,-0.383459,0.0050623,0.022527,1959,1324,21.8066,-5.31779
742,-300,21.7214,5.04504,0.00627041,-0.00245257,-0.00529687,0.00877037,-0.00495252,-0.440972,0.00802447,0.037345,1966,1324,21.7215,-5.04499
749,-300,21.9178,4.24475,0.00947651,-0.00246162,-0.00868454,0.0140455,-0.00703062,-0.484315,0.0123909,0.0463031,1973,1324,21.9178,-4.24478
756,-300,22.1423,3.45642,0,0,0,0,0,0,0,-1,1980,1324,22.1423,-3.45638
763,-300,22.6136,5.1571,0,0,0,0,0,0,0,-1,1987,1324,22.6136,-5.15706
770,-300,24.859,4.77979,0,0,0,0,0,0,0,-1,1994,1324,24.859,-4.77972
777,-300,0,0,0,0,0,0,0,0,0,-1,2001,1324,0,0
784,-300,0,0,0,0,0,0,0,0,0,-1,2008,1324,0,0
791,-300,0,0,0,0,0,0,0,0,0,-1,2015,1324,0,0
798,-300,0,0,0,0,0,0,0,0,0,-1,2022,1324,0,0
805,-300,0,0,0,0,0,0,0,0,0,-1,2029,1324,0,0
812,-300,0,0,0,0,0,0,0,0,0,-1,2036,1324,0,0
-700,-307,0,0,0,0,0,0,0,0,0,-1,524,1331,0,0
-693,-307,0,0,0,0,0,0,0,0,0,-1,531,1331,0,0
-686,-307,0,0,0,0,0,0,0,0,0,-1,538,1331,0,0
-679,-307,0,0,0,0,0,0,0,0,0,-1,545,1331,0,0
-672,-307,0,0,0,0,0,0,0,0,0,-1,552,1331,0,0
-665,-307,0,0,0,0,0,0,0,0,0,-1,559,1331,0,0
-658,-307,0,0,0,0,0,0,0,0,0,-1,566,1331,0,0
-651,-307,-15.4929,6.54407,0,0,0,0,0,0,0,-1,573,1331,-15.4928,-6.54402
-644,-307,-14.8745,5.81909,0.124593,-0.0729355,-0.0736162,0.14901,-0.097353,-0.320267,0.143276,0.0479914,580,1331,-14.8745,-5.81911
-637,-307,-14.4682,5.26892,0.110472,-0.0675612,-0.0679444,0.133439,-0.0905285,-0.325973,0.130097,0.0468838,587,1331,-14.4682,-5.26896
-630,-307,-13.833,4.74976,0.095478,-0.0587909,-0.0586425,0.115239,-0.0785515,-0.325019,0.112551,0.0460038,594,1331,-13.833,-4.74971
-623,-307,-13.2604,3.71631,0.080531,-0.0495618,-0.048744,0.0967681,-0.0657989,-0.32155,0.0944241,0.0487009,601,1331,-13.2604,-3.71634
-616,-307,-12.6413,2.65601,0,0,0,0,0,0,0,-1,608,1331,-12.6413,-2.65602
-609,-307,-11.5544,1.96118,0,0,0,0,0,0,0,-1,615,1331,-11.5544,-1.96124
-602,-307,-11.2923,2.72864,0.0402217,-0.0244125,-0.0226051,0.0473429,-0.0315337,-0.305187,0.0458434,0.0472193,622,1331,-11.2923,-2.72865
-595,-307,-11.3756,3.17432,0.0287291,-0.01752,-0.0159272,0.0336834,-0.0224743,-0.301571,0.0326372,0.0268558,629,1331,-11.3756,-3.17429
-588,-307,-11.3065,3.53455,0.0194128,-0.0116191,-0.01008,0.0223996,-0.0146059,-0.288066,0.0215225,0.0185204,636,1331,-11.3064,-3.53453
-581,-307,-11.3104,3.8429,0.0114498,-0.00660276,-0.00499093,0.0127378,-0.00789069,-0.252546,0.0120189,0.0160499,643,1331,-11.3103,-3.84285
-574,-307,-11.3438,4.14954,0.00539185,-0.00262747,-0.000929383,0.00549815,-0.00273377,-0.113882,0.0048412,0.0131478,650,1331,-11.3438,-4.14957
-567,-307,-11.3699,4.48999,0.00213993,-0.00110906,0.000433635,0.00219681,-0.00116594,0.130426,0.00197166,0.0126166,657,1331,-11.3699,-4.48996
-560,-307,-11.3589,4.81934,0.00153919,-6.49962e-05,0.000209744,0.00156616,-9.19665e-05,0.127885,0.00107607,0.0137358,664,1331,-11.3589,-4.81938
-553,-307,-11.3192,5.11792,0.00215888,-0.000621009,-0.000184595,0.00217108,-0.000633213,-0.0660174,0.00169828,0.0117563,671,1331,-11.3192,-5.11798
-546,-307,-11.3222,5.44299,0.00286708,-0.00125036,-0.000456703,0.00291713,-0.00130041,-0.109152,0.00249392,0.0103131,678,1331,-11.3222,-5.44304
-539,-307,-11.3193,5.79285,0.00369919,-0.00199107,-0.000658157,0.00377432,-0.0020662,-0.113664,0.00341976,0.0134308,685,1331,-11.3193,-5.79287
-532,-307,-11.2972,6.03882,0.00497372,-0.00281756,-0.000868165,0.00506929,-0.00291313,-0.109636,0.00466435,0.0444265,692,1331,-11.2972,-6.03884
-525,-307,-11.4993,6.27344,0,0,0,0,0,0,0,-1,699,1331,-11.4993,-6.27339
-518,-307,-9.77777,-1.56653,0,0,0,0,0,0,0,-1,706,1331,-9.77777,1.56651
-511,-307,-12.5226,0.26709,0,0,0,0,0,0,0,-1,713,1331,-12.5226,-0.267038
-504,-307,-12.5913,-0.308105,0,0,0,0,0,0,0,-1,720,1331,-12.5913,0.308124
-497,-307,-13.8586,-0.115845,0,0,0,0,0,0,0,-1,727,1331,-13.8587,0.115861
-490,-307,-17.9429,0.982178,0,0,0,0,0,0,0,-1,734,1331,-17.9429,-0.982198
-483,-307,-18.1066,0.927612,0,0,0,0,0,0,0,-1,741,1331,-18.1066,-0.927609
-476,-307,-18.1288,1.1228,0,0,0,0,0,0,0,-1,748,1331,-18.1289,-1.12286
-469,-307,-18.2028,0.798584,0,0,0,0,0,0,0,-1,755,1331,-18.2027,-0.798546
-462,-307,0,0,0,0,0,0,0,0,0,-1,762,1331,0,0
-455,-307,0,0,0,0,0,0,0,0,0,-1,769,1331,0,0
-448,-307,0,0,0,0,0,0,0,0,0,-1,776,1331,0,0
-441,-307,0,0,0,0,0,0,0,0,0,-1,783,1331,0,0
-434,-307,0,0,0,0,0,0,0,0,0,-1,790,1331,0,0
-427,-307,0,0,0,0,0,0,0,0,0,-1,797,1331,0,0
-420,-307,0,0,0,0,0,0,0,0,0,-1,804,1331,0,0
-413,-307,0,0,0,0,0,0,0,0,0,-1,811,1331,0,0
-406,-307,0,0,0,0,0,0,0,0,0,-1,818,1331,0,0
-399,-307,0,0,0,0,0,0,0,0,0,-1,825,1331,0,0
-392,-307,0,0,0,0,0,0,0,0,0,-1,832,1331,0,0
-385,-307,0,0,0,0,0,0,0,0,0,-1,839,1331,0,0
-378,-307,0,0,0,0,0,0,0,0,0,-1,846,1331,0,0
-371,-307,0,0,0,0,0,0,0,0,0,-1,853,1331,0,0
-364,-307,0,0,0,0,0,0,0,0,0,-1,860,1331,0,0
-357,-307,0,0,0,0,0,0,0,0,0,-1,867,1331,0,0
-350,-307,0,0,0,0,0,0,0,0,0,-1,874,1331,0,0
-343,-307,0,0,0,0,0,0,0,0,0,-1,881,1331,0,0
-336,-307,0,0,0,0,0,0,0,0,0,-1,888,1331,0,0
-329,-307,0,0,0,0,0,0,0,0,0,-1,895,1331,0,0
-322,-307,0,0,0,0,0,0,0,0,0,-1,902,1331,0,0
-315,-307,0,0,0,0,0,0,0,0,0,-1,909,1331,0,0
-308,-307,0,0,0,0,0,0,0,0,0,-1,916,1331,0,0
-301,-307,0,0,0,0,0,0,0,0,0,-1,923,1331,0,0
-294,-307,0,0,0,0,0,0,0,0,0,-1,930,1331,0,0
-287,-307,0,0,0,0,0,0,0,0,0,-1,937,1331,0,0
-280,-307,0,0,0,0,0,0,0,0,0,-1,944,1331,0,0
-273,-307,0,0,0,0,0,0,0,0,0,-1,951,1331,0,0
-266,-307,0,0,0,0,0,0,0,0,0,-1,958,1331,0,0
-259,-307,0,0,0,0,0,0,0,0,0,-1,965,1331,0,0
-252,-307,0,0,0,0,0,0,0,0,0,-1,972,1331,0,0
-245,-307,0,0,0,0,0,0,0,0,0,-1,979,1331,0,0
-238,-307,0,0,0,0,0,0,0,0,0,-1,986,1331,0,0
-231,-307,0,0,0,0,0,0,0,0,0,-1,993,1331,0,0
-224,-307,0,0,0,0,0,0,0,0,0,-1,1000,1331,0,0
-217,-307,0,0,0,0,0,0,0,0,0,-1,1007,1331,0,0
-210,-307,0,0,0,0,0,0,0,0,0,-1,1014,1331,0,0
-203,-307,0,0,0,0,0,0,0,0,0,-1,1021,1331,0,0
-196,-307,0,0,0,0,0,0,0,0,0,-1,1028,1331,0,0
-189,-307,0,0,0,0,0,0,0,0,0,-1,1035,1331,0,0
-182,-307,0,0,0,0,0,0,0,0,0,-1,1042,1331,0,0
-175,-307,0,0,0,0,0,0,0,0,0,-1,1049,1331,0,0
-168,-307,0,0,0,0,0,0,0,0,0,-1,1056,1331,0,0
-161,-307,0,0,0,0,0,0,0,0,0,-1,1063,1331,0,0
-154,-307,0,0,0,0,0,0,0,0,0,-1,1070,1331,0,0
-147,-307,0,0,0,0,0,0,0,0,0,-1,1077,1331,0,0
-140,-307,0,0,0,0,0,0,0,0,0,-1,1084,1331,0,0
-133,-307,0,0,0,0,0,0,0,0,0,-1,1091,1331,0,0
-126,-307,0,0,0,0,0,0,0,0,0,-1,1098,1331,0,0
-119,-307,0,0,0,0,0,0,0,0,0,-1,1105,1331,0,0
-112,-307,0,0,0,0,0,0,0,0,0,-1,1112,1331,0,0
-105,-307,0,0,0,0,0,0,0,0,0,-1,1119,1331,0,0
-98,-307,0,0,0,0,0,0,0,0,0,-1,1126,1331,0,0
-91,-307,0,0,0,0,0,0,0,0,0,-1,1133,1331,0,0
-84,-307,0,0,0,0,0,0,0,0,0,-1,1140,1331,0,0
-77,-307,0,0,0,0,0,0,0,0,0,-1,1147,1331,0,0
-70,-307,0,0,0,0,0,0,0,0,0,-1,1154,1331,0,0
-63,-307,0,0,0,0,0,0,0,0,0,-1,1161,1331,0,0
-56,-307,0,0,0,0,0,0,0,0,0,-1,1168,1331,0,0
-49,-307,0,0,0,0,0,0,0,0,0,-1,1175,1331,0,0
-42,-307,0,0,0,0,0,0,0,0,0,-1,1182,1331,0,0
-35,-307,0,0,0,0,0,0,0,0,0,-1,1189,1331,0,0
-28,-307,0,0,0,0,0,0,0,0,0,-1,1196,1331,0,0
-21,-307,0,0,0,0,0,0,0,0,0,-1,1203,1331,0,0
-14,-307,0,0,0,0,0,0,0,0,0,-1,1210,1331,0,0
-7,-307,0,0,0,0,0,0,0,0,0,-1,1217,1331,0,0
0,-307,0,0,0,0,0,0,0,0,0,-1,1224,1331,0,0
7,-307,0,0,0,0,0,0,0,0,0,-1,1231,1331,0,0
14,-307,0,0,0,0,0,0,0,0,0,-1,1238,1331,0,0
21,-307,0,0,0,0,0,0,0,0,0,-1,1245,1331,0,0
28,-307,0,0,0,0,0,0,0,0,0,-1,1252,1331,0,0
35,-307,0,0,0,0,0,0,0,0,0,-1,1259,1331,0,0
42,-307,0,0,0,0,0,0,0,0,0,-1,1266,1331,0,0
49,-307,0,0,0,0,0,0,0,0,0,-1,1273,1331,0,0
56,-307,0,0,0,0,0,0,0,0,0,-1,1280,1331,0,0
63,-307,0,0,0,0,0,0,0,0,0,-1,1287,1331,0,0
70,-307,0,0,0,0,0,0,0,0,0,-1,1294,1331,0,0
77,-307,0,0,0,0,0,0,0,0,0,-1,1301,1331,0,0
84,-307,0,0,0,0,0,0,0,0,0,-1,1308,1331,0,0
91,-307,0,0,0,0,0,0,0,0,0,-1,1315,1331,0,0
98,-307,0,0,0,0,0,0,0,0,0,-1,1322,1331,0,0
105,-307,0,0,0,0,0,0,0,0,0,-1,1329,1331,0,0
112,-307,0,0,0,0,0,0,0,0,0,-1,1336,1331,0,0
119,-307,0,0,0,0,0,0,0,0,0,-1,1343,1331,0,0
126,-307,0,0,0,0,0,0,0,0,0,-1,1350,1331,0,0
133,-307,0,0,0,0,0,0,0,0,0,-1,1357,1331,0,0
140,-307,0,0,0,0,0,0,0,0,0,-1,1364,1331,0,0
147,-307,0,0,0,0,0,0,0,0,0,-1,1371,1331,0,0
154,-307,0,0,0,0,0,0,0,0,0,-1,1378,1331,0,0
161,-307,0,0,0,0,0,0,0,0,0,-1,1385,1331,0,0
168,-307,0,0,0,0,0,0,0,0,0,-1,1392,1331,0,0
175,-307,0,0,0,0,0,0,0,0,0,-1,1399,1331,0,0
182,-307,0,0,0,0,0,0,0,0,0,-1,1406,1331,0,0
189,-307,0,0,0,0,0,0,0,0,0,-1,1413,1331,0,0
196,-307,0,0,0,0,0,0,0,0,0,-1,1420,1331,0,0
203,-307,0,0,0,0,0,0,0,0,0,-1,1427,1331,0,0
210,-307,0,0,0,0,0,0,0,0,0,-1,1434,1331,0,0
217,-307,0,0,0,0,0,0,0,0,0,-1,1441,1331,0,0
224,-307,0,0,0,0,0,0,0,0,0,-1,1448,1331,0,0
231,-307,0,0,0,0,0,0,0,0,0,-1,1455,1331,0,0
238,-307,0,0,0,0,0,0,0,0,0,-1,1462,1331,0,0
245,-307,0,0,0,0,0,0,0,0,0,-1,1469,1331,0,0
252,-307,0,0,0,0,0,0,0,0,0,-1,1476,1331,0,0
259,-307,0,0,0,0,0,0,0,0,0,-1,1483,1331,0,0
266,-307,0,0,0,0,0,0,0,0,0,-1,1490,1331,0,0
273,-307,0,0,0,0,0,0,0,0,0,-1,1497,1331,0,0
280,-307,0,0,0,0,0,0,0,0,0,-1,1504,1331,0,0
287,-307,0,0,0,0,0,0,0,0,0,-1,1511,1331,0,0
294,-307,0,0,0,0,0,0,0,0,0,-1,1518,1331,0,0
301,-307,0,0,0,0,0,0,0,0,0,-1,1525,1331,0,0
308,-307,0,0,0,0,0,0,0,0,0,-1,1532,1331,0,0
315,-307,0,0,0,0,0,0,0,0,0,-1,1539,1331,0,0
322,-307,0,0,0,0,0,0,0,0,0,-1,1546,1331,0,0
329,-307,0,0,0,0,0,0,0,0,0,-1,1553,1331,0,0
336,-307,0,0,0,0,0,0,0,0,0,-1,1560,1331,0,0
343,-307,0,0,0,0,0,0,0,0,0,-1,1567,1331,0,0
350,-307,0,0,0,0,0,0,0,0,0,-1,1574,1331,0,0
357,-307,0,0,0,0,0,0,0,0,0,-1,1581,1331,0,0
364,-307,0,0,0,0,0,0,0,0,0,-1,1588,1331,0,0
371,-307,0,0,0,0,0,0,0,0,0,-1,1595,1331,0,0
378,-307,0,0,0,0,0,0,0,0,0,-1,1602,1331,0,0
385,-307,0,0,0,0,0,0,0,0,0,-1,1609,1331,0,0
392,-307,0,0,0,0,0,0,0,0,0,-1,1616,1331,0,0
399,-307,0,0,0,0,0,0,0,0,0,-1,1623,1331,0,0
406,-307,0,0,0,0,0,0,0,0,0,-1,1630,1331,0,0
413,-307,0,0,0,0,0,0,0,0,0,-1,1637,1331,0,0
420,-307,0,0,0,0,0,0,0,0,0,-1,1644,1331,0,0
427,-307,0,0,0,0,0,0,0,0,0,-1,1651,1331,0,0
434,-307,0,0,0,0,0,0,0,0,0,-1,1658,1331,0,0
441,-307,0,0,0,0,0,0,0,0,0,-1,1665,1331,0,0
448,-307,0,0,0,0,0,0,0,0,0,-1,1672,1331,0,0
455,-307,0,0,0,0,0,0,0,0,0,-1,1679,1331,0,0
462,-307,0,0,0,0,0,0,0,0,0,-1,1686,1331,0,0
469,-307,0,0,0,0,0,0,0,0,0,-1,1693,1331,0,0
476,-307,0,0,0,0,0,0,0,0,0,-1,1700,1331,0,0
483,-307,0,0,0,0,0,0,0,0,0,-1,1707,1331,0,0
490,-307,0,0,0,0,0,0,0,0,0,-1,1714,1331,0,0
497,-307,0,0,0,0,0,0,0,0,0,-1,1721,1331,0,0
504,-307,0,0,0,0,0,0,0,0,0,-1,1728,1331,0,0
511,-307,0,0,0,0,0,0,0,0,0,-1,1735,1331,0,0
518,-307,0,0,0,0,0,0,0,0,0,-1,1742,1331,0,0
525,-307,0,0,0,0,0,0,0,0,0,-1,1749,1331,0,0
532,-307,0,0,0,0,0,0,0,0,0,-1,1756,1331,0,0
539,-307,0,0,0,0,0,0,0,0,0,-1,1763,1331,0,0
546,-307,0,0,0,0,0,0,0,0,0,-1,1770,1331,0,0
553,-307,0,0,0,0,0,0,0,0,0,-1,1777,1331,0,0
560,-307,0,0,0,0,0,0,0,0,0,-1,1784,1331,0,0
567,-307,0,0,0,0,0,0,0,0,0,-1,1791,1331,0,0
574,-307,0,0,0,0,0,0,0,0,0,-1,1798,1331,0,0
581,-307,0,0,0,0,0,0,0,0,0,-1,1805,1331,0,0
588,-307,30.6686,2.59863,-0.00137549,-0.0240491,-0.00889082,0.00169498,-0.0271196,-0.33253,0.0186704,0.0454671,1812,1331,30.6686,-2.5986
595,-307,31.0074,2.70508,-0.0197363,-0.0353465,-0.00139168,-0.0196132,-0.0354696,-0.0882248,0.0205166,0.045652,1819,1331,31.0075,-2.70513
602,-307,31.0707,2.58972,-0.0316223,-0.0380168,0.00297564,-0.0304519,-0.0391873,0.374756,0.0237546,0.046717,1826,1331,31.0707,-2.58971
609,-307,31.438,1.79041,-0.0314351,-0.0334908,0.00344003,-0.0288727,-0.0360533,0.640226,0.0220355,0.0473728,1833,1331,31.4379,-1.79045
616,-307,31.9789,1.02612,0,0,0,0,0,0,0,-1,1840,1331,31.9789,-1.02614
623,-307,28.4729,0.662476,0,0,0,0,0,0,0,-1,1847,1331,28.4729,-0.662459
630,-307,24.9091,2.8457,0,0,0,0,0,0,0,-1,1854,1331,24.909,-2.84566
637,-307,24.6407,4.09106,0,0,0,0,0,0,0,-1,1861,1331,24.6407,-4.09103
644,-307,22.6885,5.80408,0,0,0,0,0,0,0,-1,1868,1331,22.6884,-5.80408
651,-307,17.5013,5.80078,0,0,0,0,0,0,0,-1,1875,1331,17.5014,-5.80072
658,-307,21.7853,8.34473,0,0,0,0,0,0,0,-1,1882,1331,21.7853,-8.34469
665,-307,21.6764,8.05103,-0.00588171,0.00365016,0.00121138,0.0038017,-0.00603325,1.44634,0.00572673,0.0238178,1889,1331,21.6764,-8.05106
672,-307,21.6538,7.8053,-0.00577498,0.00262677,0.00154791,0.00290288,-0.00605108,1.39428,0.00527501,0.0101655,1896,1331,21.6539,-7.80533
679,-307,21.6466,7.49988,-0.00478172,0.000907328,0.00224011,0.0016835,-0.00555789,1.23725,0.00437574,0.0105103,1903,1331,21.6466,-7.49985
686,-307,21.6251,7.20764,-0.00377039,0.000135153,0.00204073,0.0010069,-0.00464214,1.16709,0.0034793,0.0101565,1910,1331,21.6251,-7.2077
693,-307,21.6202,6.92468,-0.00267813,-0.000452253,0.00173373,0.000495013,-0.00362539,1.07074,0.0025977,0.011032,1917,1331,21.6203,-6.92474
700,-307,21.6365,6.62317,-0.00133096,-0.000927491,0.00119802,8.56599e-05,-0.00234411,0.868811,0.00159206,0.0115348,1924,1331,21.6365,-6.62314
707,-307,21.6448,6.33704,-0.000168475,-0.00111663,0.000617784,0.00013617,-0.00142127,0.458132,0.000996011,0.0131154,1931,1331,21.6448,-6.33708
714,-307,21.6366,6.07361,0.000903249,-0.00146034,-2.09453e-05,0.000903434,-0.00146052,-0.00886073,0.00137741,0.0121809,1938,1331,21.6366,-6.07356
721,-307,21.6686,5.80371,0.00179091,-0.0019765,-0.00070365,0.00191804,-0.00210363,-0.178748,0.00232274,0.0147313,1945,1331,21.6686,-5.80366
728,-307,21.6331,5.6073,0.00279819,-0.00256011,-0.00174889,0.00331848,-0.00308041,-0.289162,0.00369525,0.0285743,1952,1331,21.6331,-5.60732
735,-307,21.4502,5.42688,0.00434319,-0.00312261,-0.00353853,0.0057538,-0.00453323,-0.379337,0.00595314,0.039125,1959,1331,21.4502,-5.42691
742,-307,21.4633,5.05591,0.00687078,-0.00372263,-0.00640164,0.00988287,-0.00673471,-0.439785,0.00965139,0.0418034,1966,1331,21.4632,-5.0559
749,-307,21.4988,4.57788,0,0,0,0,0,0,0,-1,1973,1331,21.4987,-4.57786
756,-307,22.4415,2.98438,0,0,0,0,0,0,0,-1,1980,1331,22.4415,-2.98441
763,-307,18.7522,3.55298,0,0,0,0,0,0,0,-1,1987,1331,18.7522,-3.55301
770,-307,0,0,0,0,0,0,0,0,0,-1,1994,1331,0,0
777,-307,0,0,0,0,0,0,0,0,0,-1,2001,1331,0,0
784,-307,0,0,0,0,0,0,0,0,0,-1,2008,1331,0,0
791,-307,0,0,0,0,0,0,0,0,0,-1,2015,1331,0,0
798,-307,0,0,0,0,0,0,0,0,0,-1,2022,1331,0,0
805,-307,0,0,0,0,0,0,0,0,0,-1,2029,1331,0,0
812,-307,0,0,0,0,0,0,0,0,0,-1,2036,1331,0,0
-700,-314,0,0,0,0,0,0,0,0,0,-1,524,1338,0,0
-693,-314,0,0,0,0,0,0,0,0,0,-1,531,1338,0,0
-686,-314,0,0,0,0,0,0,0,0,0,-1,538,1338,0,0
-679,-314,0,0,0,0,0,0,0,0,0,-1,545,1338,0,0
-672,-314,0,0,0,0,0,0,0,0,0,-1,552,1338,0,0
-665,-314,0,0,0,0,0,0,0,0,0,-1,559,1338,0,0
-658,-314,0,0,0,0,0,0,0,0,0,-1,566,1338,0,0
-651,-314,0,0,0,0,0,0,0,0,0,-1,573,1338,0,0
-644,-314,-14.5546,6.18323,0,0,0,0,0,0,0,-1,580,1338,-14.5546,-6.18327
-637,-314,-14.0195,5.64038,0.109522,-0.0704524,-0.0805658,0.140318,-0.101248,-0.365107,0.140075,0.0498861,587,1338,-14.0195,-5.64037
-630,-314,-13.1379,5.15625,0.0958965,-0.0608213,-0.0680623,0.121329,-0.0862535,-0.357596,0.120417,0.0451902,594,1338,-13.1379,-5.1562
-623,-314,-13.0557,3.74377,0,0,0,0,0,0,0,-1,601,1338,-13.0556,-3.74382
-616,-314,-11.0386,2.0365,0,0,0,0,0,0,0,-1,608,1338,-11.0386,-2.03649
-609,-314,-9.4361,2.86292,0,0,0,0,0,0,0,-1,615,1338,-9.43612,-2.86286
-602,-314,-11.1237,2.56311,0,0,0,0,0,0,0,-1,622,1338,-11.1237,-2.56307
-595,-314,-11.0159,2.94128,0,0,0,0,0,0,0,-1,629,1338,-11.0158,-2.94125
-588,-314,-11.0199,3.47949,0.0207314,-0.012926,-0.0116211,0.024354,-0.0165486,-0.302178,0.023758,0.0211111,636,1338,-11.0199,-3.47954
-581,-314,-10.9787,3.81714,0.0120226,-0.00727235,-0.00586831,0.0136672,-0.00891694,-0.27324,0.0131348,0.0126587,643,1338,-10.9787,-3.81717
-574,-314,-11.0234,4.11816,0.00536423,-0.0028621,-0.0011284,0.0055162,-0.00301407,-0.133876,0.00499508,0.0125811,650,1338,-11.0234,-4.11817
-567,-314,-11.0463,4.47913,0.00196473,-0.00116554,0.000417096,0.00201936,-0.00122016,0.13022,0.00188921,0.0139472,657,1338,-11.0463,-4.47915
-560,-314,-10.9977,4.81494,0.00133988,0.000103392,0.000282139,0.00140122,4.20565e-05,0.214063,0.000920446,0.0152817,664,1338,-10.9977,-4.81492
-553,-314,-10.9819,5.12988,0.00204583,-0.00041138,-2.65496e-05,0.00204612,-0.000411667,-0.0108031,0.00152,0.018324,671,1338,-10.9819,-5.12982
-546,-314,-11.0172,5.46082,0.00289214,-0.00097432,-0.000209917,0.0029035,-0.000985683,-0.05408,0.00233465,0.0179635,678,1338,-11.0172,-5.46081
-539,-314,-11.0179,5.80444,0.00388328,-0.00160746,-0.000283327,0.00389786,-0.00162204,-0.0514189,0.00327596,0.0165997,685,1338,-11.018,-5.80442
-532,-314,-10.8117,6.19458,0.00529736,-0.00227384,-0.000304634,0.00530959,-0.00228608,-0.0401494,0.00449968,0.0398178,692,1338,-10.8117,-6.19463
-525,-314,-10.7593,6.47998,0,0,0,0,0,0,0,-1,699,1338,-10.7593,-6.48004
-518,-314,-8.52753,4.70032,0,0,0,0,0,0,0,-1,706,1338,-8.52755,-4.70034
-511,-314,-11.8597,0.384888,0,0,0,0,0,0,0,-1,713,1338,-11.8597,-0.384927
-504,-314,-11.4322,-0.187378,0,0,0,0,0,0,0,-1,720,1338,-11.4322,0.187381
-497,-314,-11.0047,-0.759644,0,0,0,0,0,0,0,-1,727,1338,-11.0047,0.759689
-490,-314,-18.5143,0.471069,0,0,0,0,0,0,0,-1,734,1338,-18.5143,-0.47103
-483,-314,-17.8528,0.577271,0,0,0,0,0,0,0,-1,741,1338,-17.8528,-0.577327
-476,-314,-17.714,0.665405,0,0,0,0,0,0,0,-1,748,1338,-17.714,-0.665388
-469,-314,-17.7246,0.794678,0,0,0,0,0,0,0,-1,755,1338,-17.7246,-0.794645
-462,-314,0,0,0,0,0,0,0,0,0,-1,762,1338,0,0
-455,-314,0,0,0,0,0,0,0,0,0,-1,769,1338,0,0
-448,-314,0,0,0,0,0,0,0,0,0,-1,776,1338,0,0
-441,-314,0,0,0,0,0,0,0,0,0,-1,783,1338,0,0
-434,-314,0,0,0,0,0,0,0,0,0,-1,790,1338,0,0
-427,-314,0,0,0,0,0,0,0,0,0,-1,797,1338,0,0
-420,-314,0,0,0,0,0,0,0,0,0,-1,804,1338,0,0
-413,-314,0,0,0,0,0,0,0,0,0,-1,811,1338,0,0
-406,-314,0,0,0,0,0,0,0,0,0,-1,818,1338,0,0
-399,-314,0,0,0,0,0,0,0,0,0,-1,825,1338,0,0
-392,-314,0,0,0,0,0,0,0,0,0,-1,832,1338,0,0
-385,-314,0,0,0,0,0,0,0,0,0,-1,839,1338,0,0
-378,-314,0,0,0,0,0,0,0,0,0,-1,846,1338,0,0
-371,-314,0,0,0,0,0,0,0,0,0,-1,853,1338,0,0
-364,-314,0,0,0,0,0,0,0,0,0,-1,860,1338,0,0
-357,-314,0,0,0,0,0,0,0,0,0,-1,867,1338,0,0
-350,-314,0,0,0,0,0,0,0,0,0,-1,874,1338,0,0
-343,-314,0,0,0,0,0,0,0,0,0,-1,881,1338,0,0
-336,-314,0,0,0,0,0,0,0,0,0,-1,888,1338,0,0
-329,-314,0,0,0,0,0,0,0,0,0,-1,895,1338,0,0
-322,-314,0,0,0,0,0,0,0,0,0,-1,902,1338,0,0
-315,-314,0,0,0,0,0,0,0,0,0,-1,909,1338,0,0
-308,-314,0,0,0,0,0,0,0,0,0,-1,916,1338,0,0
-301,-314,0,0,0,0,0,0,0,0,0,-1,923,1338,0,0
-294,-314,0,0,0,0,0,0,0,0,0,-1,930,1338,0,0
-287,-314,0,0,0,0,0,0,0,0,0,-1,937,1338,0,0
-280,-314,0,0,0,0,0,0,0,0,0,-1,944,1338,0,0
-273,-314,0,0,0,0,0,0,0,0,0,-1,951,1338,0,0
-266,-314,0,0,0,0,0,0,0,0,0,-1,958,1338,0,0
-259,-314,0,0,0,0,0,0,0,0,0,-1,965,1338,0,0
-252,-314,0,0,0,0,0,0,0,0,0,-1,972,1338,0,0
-245,-314,0,0,0,0,0,0,0,0,0,-1,979,1338,0,0
-238,-314,0,0,0,0,0,0,0,0,0,-1,986,1338,0,0
-231,-314,0,0,0,0,0,0,0,0,0,-1,993,1338,0,0
-224,-314,0,0,0,0,0,0,0,0,0,-1,1000,1338,0,0
-217,-314,0,0,0,0,0,0,0,0,0,-1,1007,1338,0,0
-210,-314,0,0,0,0,0,0,0,0,0,-1,1014,1338,0,0
-203,-314,0,0,0,0,0,0,0,0,0,-1,1021,1338,0,0
-196,-314,0,0,0,0,0,0,0,0,0,-1,1028,1338,0,0
-189,-314,0,0,0,0,0,0,0,0,0,-1,1035,1338,0,0
-182,-314,0,0,0,0,0,0,0,0,0,-1,1042,1338,0,0
-175,-314,0,0,0,0,0,0,0,0,0,-1,1049,1338,0,0
-168,-314,0,0,0,0,0,0,0,0,0,-1,1056,1338,0,0
-161,-314,0,0,0,0,0,0,0,0,0,-1,1063,1338,0,0
-154,-314,0,0,0,0,0,0,0,0,0,-1,1070,1338,0,0
-147,-314,0,0,0,0,0,0,0,0,0,-1,1077,1338,0,0
-140,-314,0,0,0,0,0,0,0,0,0,-1,1084,1338,0,0
-133,-314,0,0,0,0,0,0,0,0,0,-1,1091,1338,0,0
-126,-314,0,0,0,0,0,0,0,0,0,-1,1098,1338,0,0
-119,-314,0,0,0,0,0,0,0,0,0,-1,1105,1338,0,0
-112,-314,0,0,0,0,0,0,0,0,0,-1,1112,1338,0,0
-105,-314,0,0,0,0,0,0,0,0,0,-1,1119,1338,0,0
-98,-314,0,0,0,0,0,0,0,0,0,-1,1126,1338,0,0
-91,-314,0,0,0,0,0,0,0,0,0,-1,1133,1338,0,0
-84,-314,0,0,0,0,0,0,0,0,0,-1,1140,1338,0,0
-77,-314,0,0,0,0,0,0,0,0,0,-1,1147,1338,0,0
-70,-314,0,0,0,0,0,0,0,0,0,-1,1154,1338,0,0
-63,-314,0,0,0,0,0,0,0,0,0,-1,1161,1338,0,0
-56,-314,0,0,0,0,0,0,0,0,0,-1,1168,1338,0,0
-49,-314,0,0,0,0,0,0,0,0,0,-1,1175,1338,0,0
-42,-314,0,0,0,0,0,0,0,0,0,-1,1182,1338,0,0
-35,-314,0,0,0,0,0,0,0,0,0,-1,1189,1338,0,0
-28,-314,0,0,0,0,0,0,0,0,0,-1,1196,1338,0,0
-21,-314,0,0,0,0,0,0,0,0,0,-1,1203,1338,0,0
-14,-314,0,0,0,0,0,0,0,0,0,-1,1210,1338,0,0
-7,-314,0,0,0,0,0,0,0,0,0,-1,1217,1338,0,0
0,-314,0,0,0,0,0,0,0,0,0,-1,1224,1338,0,0
7,-314,0,0,0,0,0,0,0,0,0,-1,1231,1338,0,0
14,-314,0,0,0,0,0,0,0,0,0,-1,1238,1338,0,0
21,-314,0,0,0,0,0,0,0,0,0,-1,1245,1338,0,0
28,-314,0,0,0,0,0,0,0,0,0,-1,1252,1338,0,0
35,-314,0,0,0,0,0,0,0,0,0,-1,1259,1338,0,0
42,-314,0,0,0,0,0,0,0,0,0,-1,1266,1338,0,0
49,-314,0,0,0,0,0,0,0,0,0,-1,1273,1338,0,0
56,-314,0,0,0,0,0,0,0,0,0,-1,1280,1338,0,0
63,-314,0,0,0,0,0,0,0,0,0,-1,1287,1338,0,0
70,-314,0,0,0,0,0,0,0,0,0,-1,1294,1338,0,0
77,-314,0,0,0,0,0,0,0,0,0,-1,1301,1338,0,0
84,-314,0,0,0,0,0,0,0,0,0,-1,1308,1338,0,0
91,-314,0,0,0,0,0,0,0,0,0,-1,1315,1338,0,0
98,-314,0,0,0,0,0,0,0,0,0,-1,1322,1338,0,0
105,-314,0,0,0,0,0,0,0,0,0,-1,1329,1338,0,0
112,-314,0,0,0,0,0,0,0,0,0,-1,1336,1338,0,0
119,-314,0,0,0,0,0,0,0,0,0,-1,1343,1338,0,0
126,-314,0,0,0,0,0,0,0,0,0,-1,1350,1338,0,0
133,-314,0,0,0,0,0,0,0,0,0,-1,1357,1338,0,0
140,-314,0,0,0,0,0,0,0,0,0,-1,1364,1338,0,0
147,-314,0,0,0,0,0,0,0,0,0,-1,1371,1338,0,0
154,-314,0,0,0,0,0,0,0,0,0,-1,1378,1338,0,0
161,-314,0,0,0,0,0,0,0,0,0,-1,1385,1338,0,0
168,-314,0,0,0,0,0,0,0,0,0,-1,1392,1338,0,0
175,-314,0,0,0,0,0,0,0,0,0,-1,1399,1338,0,0
182,-314,0,0,0,0,0,0,0,0,0,-1,1406,1338,0,0
189,-314,0,0,0,0,0,0,0,0,0,-1,1413,1338,0,0
196,-314,0,0,0,0,0,0,0,0,0,-1,1420,1338,0,0
203,-314,0,0,0,0,0,0,0,0,0,-1,1427,1338,0,0
210,-314,0,0,0,0,0,0,0,0,0,-1,1434,1338,0,0
217,-314,0,0,0,0,0,0,0,0,0,-1,1441,1338,0,0
224,-314,0,0,0,0,0,0,0,0,0,-1,1448,1338,0,0
231,-314,0,0,0,0,0,0,0,0,0,-1,1455,1338,0,0
238,-314,0,0,0,0,0,0,0,0,0,-1,1462,1338,0,0
245,-314,0,0,0,0,0,0,0,0,0,-1,1469,1338,0,0
252,-314,0,0,0,0,0,0,0,0,0,-1,1476,1338,0,0
259,-314,0,0,0,0,0,0,0,0,0,-1,1483,1338,0,0
266,-314,0,0,0,0,0,0,0,0,0,-1,1490,1338,0,0
273,-314,0,0,0,0,0,0,0,0,0,-1,1497,1338,0,0
280,-314,0,0,0,0,0,0,0,0,0,-1,1504,1338,0,0
287,-314,0,0,0,0,0,0,0,0,0,-1,1511,1338,0,0
294,-314,0,0,0,0,0,0,0,0,0,-1,1518,1338,0,0
301,-314,0,0,0,0,0,0,0,0,0,-1,1525,1338,0,0
308,-314,0,0,0,0,0,0,0,0,0,-1,1532,1338,0,0
315,-314,0,0,0,0,0,0,0,0,0,-1,1539,1338,0,0
322,-314,0,0,0,0,0,0,0,0,0,-1,1546,1338,0,0
329,-314,0,0,0,0,0,0,0,0,0,-1,1553,1338,0,0
336,-314,0,0,0,0,0,0,0,0,0,-1,1560,1338,0,0
343,-314,0,0,0,0,0,0,0,0,0,-1,1567,1338,0,0
350,-314,0,0,0,0,0,0,0,0,0,-1,1574,1338,0,0
357,-314,0,0,0,0,0,0,0,0,0,-1,1581,1338,0,0
364,-314,0,0,0,0,0,0,0,0,0,-1,1588,1338,0,0
371,-314,0,0,0,0,0,0,0,0,0,-1,1595,1338,0,0
378,-314,0,0,0,0,0,0,0,0,0,-1,1602,1338,0,0
385,-314,0,0,0,0,0,0,0,0,0,-1,1609,1338,0,0
392,-314,0,0,0,0,0,0,0,0,0,-1,1616,1338,0,0
399,-314,0,0,0,0,0,0,0,0,0,-1,1623,1338,0,0
406,-314,0,0,0,0,0,0,0,0,0,-1,1630,1338,0,0
413,-314,0,0,0,0,0,0,0,0,0,-1,1637,1338,0,0
420,-314,0,0,0,0,0,0,0,0,0,-1,1644,1338,0,0
427,-314,0,0,0,0,0,0,0,0,0,-1,1651,1338,0,0
434,-314,0,0,0,0,0,0,0,0,0,-1,1658,1338,0,0
441,-314,0,0,0,0,0,0,0,0,0,-1,1665,1338,0,0
448,-314,0,0,0,0,0,0,0,0,0,-1,1672,1338,0,0
455,-314,0,0,0,0,0,0,0,0,0,-1,1679,1338,0,0
462,-314,0,0,0,0,0,0,0,0,0,-1,1686,1338,0,0
469,-314,0,0,0,0,0,0,0,0,0,-1,1693,1338,0,0
476,-314,0,0,0,0,0,0,0,0,0,-1,1700,1338,0,0
483,-314,0,0,0,0,0,0,0,0,0,-1,1707,1338,0,0
490,-314,0,0,0,0,0,0,0,0,0,-1,1714,1338,0,0
497,-314,0,0,0,0,0,0,0,0,0,-1,1721,1338,0,0
504,-314,0,0,0,0,0,0,0,0,0,-1,1728,1338,0,0
511,-314,0,0,0,0,0,0,0,0,0,-1,1735,1338,0,0
518,-314,0,0,0,0,0,0,0,0,0,-1,1742,1338,0,0
525,-314,0,0,0,0,0,0,0,0,0,-1,1749,1338,0,0
532,-314,0,0,0,0,0,0,0,0,0,-1,1756,1338,0,0
539,-314,0,0,0,0,0,0,0,0,0,-1,1763,1338,0,0
546,-314,0,0,0,0,0,0,0,0,0,-1,1770,1338,0,0
553,-314,0,0,0,0,0,0,0,0,0,-1,1777,1338,0,0
560,-314,0,0,0,0,0,0,0,0,0,-1,1784,1338,0,0
567,-314,0,0,0,0,0,0,0,0,0,-1,1791,1338,0,0
574,-314,0,0,0,0,0,0,0,0,0,-1,1798,1338,0,0
581,-314,29.7341,5.54968,0,0,0,0,0,0,0,-1,1805,1338,29.7342,-5.54964
588,-314,30.8013,2.50757,0,0,0,0,0,0,0,-1,1812,1338,30.8013,-2.50759
595,-314,31.5629,2.85181,-0.0425328,-0.0454233,0.0074943,-0.0363457,-0.0516105,0.690143,0.0306147,0.0470957,1819,1338,31.5629,-2.85186
602,-314,31.6487,3.72375,-0.0498621,-0.0458938,0.0102336,-0.0374538,-0.0583021,0.881152,0.0341128,0.0440941,1826,1338,31.6487,-3.72376
609,-314,31.4232,4.81396,-0.0443894,-0.0397148,0.00878387,-0.0329626,-0.0511416,0.915429,0.029935,0.0425459,1833,1338,31.4233,-4.814
616,-314,30.8435,5.49597,0,0,0,0,0,0,0,-1,1840,1338,30.8436,-5.49602
623,-314,30.412,6.12561,0,0,0,0,0,0,0,-1,1847,1338,30.412,-6.12558
630,-314,24.6292,4.76587,0,0,0,0,0,0,0,-1,1854,1338,24.6292,-4.76588
637,-314,22.1349,5.16418,0,0,0,0,0,0,0,-1,1861,1338,22.1349,-5.16414
644,-314,18.7517,6.2605,0,0,0,0,0,0,0,-1,1868,1338,18.7517,-6.26053
651,-314,21.8326,7.86438,0,0,0,0,0,0,0,-1,1875,1338,21.8327,-7.86439
658,-314,21.6094,8.03418,0,0,0,0,0,0,0,-1,1882,1338,21.6094,-8.03413
665,-314,21.33,8.11243,-0.00560079,0.00128497,0.00170144,0.00168245,-0.00599827,1.3413,0.00466198,0.0191923,1889,1338,21.33,-8.11248
672,-314,21.3461,7.84534,-0.00530569,0.000575797,0.00185021,0.00110942,-0.00583932,1.29,0.00431054,0.011881,1896,1338,21.3461,-7.84535
679,-314,21.339,7.52551,-0.00421601,-0.000383722,0.00226465,0.000666658,-0.00526639,1.13651,0.00375293,0.00989947,1903,1338,21.339,-7.52548
686,-314,21.3088,7.2334,-0.00314746,-0.000568463,0.00197579,0.000501391,-0.00421731,1.07452,0.00299271,0.0121203,1910,1338,21.3089,-7.23345
693,-314,21.3159,6.94482,-0.00204686,-0.000791016,0.00156835,0.000270442,-0.00310831,0.975811,0.00216799,0.0119366,1917,1338,21.3159,-6.94488
700,-314,21.3303,6.63574,-0.000847398,-0.000965489,0.00104281,0.000138034,-0.00195092,0.757118,0.00134898,0.0118162,1924,1338,21.3303,-6.6357
707,-314,21.3314,6.35522,0.000171564,-0.00121909,0.000542374,0.000358082,-0.00140561,0.331222,0.00107647,0.0119944,1931,1338,21.3315,-6.35517
714,-314,21.3306,6.09033,0.00104609,-0.00168552,8.795e-06,0.00104612,-0.00168555,0.00321966,0.00159147,0.0113012,1938,1338,21.3305,-6.09035
721,-314,21.3846,5.82446,0.00181128,-0.00240882,-0.000635904,0.00190502,-0.00250256,-0.146356,0.0025525,0.0185192,1945,1338,21.3847,-5.82445
728,-314,21.1973,5.6593,0.0027579,-0.00324934,-0.00176142,0.00323629,-0.00372773,-0.265192,0.00402401,0.0417129,1952,1338,21.1972,-5.65927
735,-314,21.3365,5.87122,0.00436791,-0.00419762,-0.00381299,0.00581934,-0.00564905,-0.363718,0.00662152,0.0445194,1959,1338,21.3365,-5.87126
742,-314,21.6014,5.2561,0.00704221,-0.00534965,-0.00713783,0.0102982,-0.0086056,-0.427961,0.0109287,0.0474081,1966,1338,21.6015,-5.25609
749,-314,21.979,4.41003,0,0,0,0,0,0,0,-1,1973,1338,21.979,-4.41008
756,-314,22.6415,3.70679,0,0,0,0,0,0,0,-1,1980,1338,22.6415,-3.70679
763,-314,19.2207,4.07239,0,0,0,0,0,0,0,-1,1987,1338,19.2206,-4.07239
770,-314,0,0,0,0,0,0,0,0,0,-1,1994,1338,0,0
777,-314,0,0,0,0,0,0,0,0,0,-1,2001,1338,0,0
784,-314,0,0,0,0,0,0,0,0,0,-1,2008,1338,0,0
791,-314,0,0,0,0,0,0,0,0,0,-1,2015,1338,0,0
798,-314,0,0,0,0,0,0,0,0,0,-1,2022,1338,0,0
805,-314,0,0,0,0,0,0,0,0,0,-1,2029,1338,0,0
812,-314,0,0,0,0,0,0,0,0,0,-1,2036,1338,0,0
-700,-321,0,0,0,0,0,0,0,0,0,-1,524,1345,0,0
-693,-321,0,0,0,0,0,0,0,0,0,-1,531,1345,0,0
-686,-321,0,0,0,0,0,0,0,0,0,-1,538,1345,0,0
-679,-321,0,0,0,0,0,0,0,0,0,-1,545,1345,0,0
-672,-321,0,0,0,0,0,0,0,0,0,-1,552,1345,0,0
-665,-321,0,0,0,0,0,0,0,0,0,-1,559,1345,0,0
-658,-321,0,0,0,0,0,0,0,0,0,-1,566,1345,0,0
-651,-321,0,0,0,0,0,0,0,0,0,-1,573,1345,0,0
-644,-321,-10.9585,-1.48376,0,0,0,0,0,0,0,-1,580,1345,-10.9585,1.48374
-637,-321,-13.6483,6.04089,0,0,0,0,0,0,0,-1,587,1345,-13.6483,-6.04084
-630,-321,-12.2283,5.59167,0.0941884,-0.0589307,-0.0783117,0.127146,-0.0918887,-0.398356,0.127005,0.047254,594,1345,-12.2283,-5.59163
-623,-321,-11.801,4.42224,0,0,0,0,0,0,0,-1,601,1345,-11.8009,-4.42226
-616,-321,-11.6754,3.13794,0,0,0,0,0,0,0,-1,608,1345,-11.6754,-3.13789
-609,-321,-7.95209,1.14758,0,0,0,0,0,0,0,-1,615,1345,-7.95208,-1.14757
-602,-321,-8.85791,2.50049,0,0,0,0,0,0,0,-1,622,1345,-8.85791,-2.50048
-595,-321,-10.9504,3.09448,0,0,0,0,0,0,0,-1,629,1345,-10.9505,-3.09451
-588,-321,-10.7449,3.44348,0.0208602,-0.0133093,-0.0132929,0.0254224,-0.0178715,-0.330609,0.0251221,0.0288419,636,1345,-10.7449,-3.44342
-581,-321,-10.6918,3.82715,0.0116135,-0.00730603,-0.00690372,0.0138648,-0.00955731,-0.315223,0.0135987,0.0119334,643,1345,-10.6918,-3.82709
-574,-321,-10.6946,4.16479,0.004606,-0.00268442,-0.00152836,0.00491344,-0.00299186,-0.198507,0.00460886,0.0149273,650,1345,-10.6946,-4.16477
-567,-321,-10.7074,4.48035,0.00133184,-0.000970708,0.00016032,0.00134295,-0.000981817,0.0691826,0.00134759,0.0213571,657,1345,-10.7074,-4.48041
-560,-321,-10.6689,4.84021,0.000866913,0.000311554,0.000157745,0.000908591,0.000269876,0.258311,0.000538791,0.0256168,664,1345,-10.6689,-4.84018
-553,-321,-10.6302,5.08948,0.0017597,-0.000226129,8.97361e-06,0.00175974,-0.000226169,0.00451871,0.00125536,0.02763,671,1345,-10.6302,-5.08949
-546,-321,-10.6782,5.41418,0.00282069,-0.00077508,-3.46139e-05,0.00282103,-0.000775413,-0.00962509,0.0021855,0.0261787,678,1345,-10.6782,-5.41418
-539,-321,-10.7255,5.77795,0.00404208,-0.00135007,5.67946e-05,0.00404267,-0.00135067,0.0105313,0.00324057,0.0235249,685,1345,-10.7255,-5.77796
-532,-321,-10.6124,6.14526,0.00564686,-0.00191228,0.00023977,0.00565446,-0.00191988,0.0316768,0.00454678,0.0227182,692,1345,-10.6123,-6.14529
-525,-321,-10.6297,6.50464,0,0,0,0,0,0,0,-1,699,1345,-10.6297,-6.50465
-518,-321,-10.3564,6.75696,0,0,0,0,0,0,0,-1,706,1345,-10.3564,-6.75694
-511,-321,-9.3302,5.29297,0,0,0,0,0,0,0,-1,713,1345,-9.33023,-5.29294
-504,-321,-10.4713,0.0145264,0,0,0,0,0,0,0,-1,720,1345,-10.4713,-0.0145296
-497,-321,-9.96771,0.313599,0,0,0,0,0,0,0,-1,727,1345,-9.96769,-0.313618
-490,-321,-10.7631,0.973511,0,0,0,0,0,0,0,-1,734,1345,-10.7631,-0.97353
-483,-321,-17.5908,0.2323,0,0,0,0,0,0,0,-1,741,1345,-17.5908,-0.232355
-476,-321,-17.2915,0.297363,0,0,0,0,0,0,0,-1,748,1345,-17.2915,-0.297342
-469,-321,-17.2441,0.478027,0,0,0,0,0,0,0,-1,755,1345,-17.2441,-0.477994
-462,-321,-17.1672,0.526489,0,0,0,0,0,0,0,-1,762,1345,-17.1672,-0.526533
-455,-321,0,0,0,0,0,0,0,0,0,-1,769,1345,0,0
-448,-321,0,0,0,0,0,0,0,0,0,-1,776,1345,0,0
-441,-321,0,0,0,0,0,0,0,0,0,-1,783,1345,0,0
-434,-321,0,0,0,0,0,0,0,0,0,-1,790,1345,0,0
-427,-321,0,0,0,0,0,0,0,0,0,-1,797,1345,0,0
-420,-321,0,0,0,0,0,0,0,0,0,-1,804,1345,0,0
-413,-321,0,0,0,0,0,0,0,0,0,-1,811,1345,0,0
-406,-321,0,0,0,0,0,0,0,0,0,-1,818,1345,0,0
-399,-321,0,0,0,0,0,0,0,0,0,-1,825,1345,0,0
-392,-321,0,0,0,0,0,0,0,0,0,-1,832,1345,0,0
-385,-321,0,0,0,0,0,0,0,0,0,-1,839,1345,0,0
-378,-321,0,0,0,0,0,0,0,0,0,-1,846,1345,0,0
-371,-321,0,0,0,0,0,0,0,0,0,-1,853,1345,0,0
-364,-321,0,0,0,0,0,0,0,0,0,-1,860,1345,0,0
-357,-321,0,0,0,0,0,0,0,0,0,-1,867,1345,0,0
-350,-321,0,0,0,0,0,0,0,0,0,-1,874,1345,0,0
-343,-321,0,0,0,0,0,0,0,0,0,-1,881,1345,0,0
-336,-321,0,0,0,0,0,0,0,0,0,-1,888,1345,0,0
-329,-321,0,0,0,0,0,0,0,0,0,-1,895,1345,0,0
-322,-321,0,0,0,0,0,0,0,0,0,-1,902,1345,0,0
-315,-321,0,0,0,0,0,0,0,0,0,-1,909,1345,0,0
-308,-321,0,0,0,0,0,0,0,0,0,-1,916,1345,0,0
-301,-321,0,0,0,0,0,0,0,0,0,-1,923,1345,0,0
-294,-321,0,0,0,0,0,0,0,0,0,-1,930,1345,0,0
-287,-321,0,0,0,0,0,0,0,0,0,-1,937,1345,0,0
-280,-321,0,0,0,0,0,0,0,0,0,-1,944,1345,0,0
-273,-321,0,0,0,0,0,0,0,0,0,-1,951,1345,0,0
-266,-321,0,0,0,0,0,0,0,0,0,-1,958,1345,0,0
-259,-321,0,0,0,0,0,0,0,0,0,-1,965,1345,0,0
-252,-321,0,0,0,0,0,0,0,0,0,-1,972,1345,0,0
-245,-321,0,0,0,0,0,0,0,0,0,-1,979,1345,0,0
-238,-321,0,0,0,0,0,0,0,0,0,-1,986,1345,0,0
-231,-321,0,0,0,0,0,0,0,0,0,-1,993,1345,0,0
-224,-321,0,0,0,0,0,0,0,0,0,-1,1000,1345,0,0
-217,-321,0,0,0,0,0,0,0,0,0,-1,1007,1345,0,0
-210,-321,0,0,0,0,0,0,0,0,0,-1,1014,1345,0,0
-203,-321,0,0,0,0,0,0,0,0,0,-1,1021,1345,0,0
-196,-321,0,0,0,0,0,0,0,0,0,-1,1028,1345,0,0
-189,-321,0,0,0,0,0,0,0,0,0,-1,1035,1345,0,0
-182,-321,0,0,0,0,0,0,0,0,0,-1,1042,1345,0,0
-175,-321,0,0,0,0,0,0,0,0,0,-1,1049,1345,0,0
-168,-321,0,0,0,0,0,0,0,0,0,-1,1056,1345,0,0
-161,-321,0,0,0,0,0,0,0,0,0,-1,1063,1345,0,0
-154,-321,0,0,0,0,0,0,0,0,0,-1,1070,1345,0,0
-147,-321,0,0,0,0,0,0,0,0,0,-1,1077,1345,0,0
-140,-321,0,0,0,0,0,0,0,0,0,-1,1084,1345,0,0
-133,-321,0,0,0,0,0,0,0,0,0,-1,1091,1345,0,0
-126,-321,0,0,0,0,0,0,0,0,0,-1,1098,1345,0,0
-119,-321,0,0,0,0,0,0,0,0,0,-1,1105,1345,0,0
-112,-321,0,0,0,0,0,0,0,0,0,-1,1112,1345,0,0
-105,-321,0,0,0,0,0,0,0,0,0,-1,1119,1345,0,0
-98,-321,0,0,0,0,0,0,0,0,0,-1,1126,1345,0,0
-91,-321,0,0,0,0,0,0,0,0,0,-1,1133,1345,0,0
-84,-321,0,0,0,0,0,0,0,0,0,-1,1140,1345,0,0
-77,-321,0,0,0,0,0,0,0,0,0,-1,1147,1345,0,0
-70,-321,0,0,0,0,0,0,0,0,0,-1,1154,1345,0,0
-63,-321,0,0,0,0,0,0,0,0,0,-1,1161,1345,0,0
-56,-321,0,0,0,0,0,0,0,0,0,-1,1168,1345,0,0
-49,-321,0,0,0,0,0,0,0,0,0,-1,1175,1345,0,0
-42,-321,0,0,0,0,0,0,0,0,0,-1,1182,1345,0,0
-35,-321,0,0,0,0,0,0,0,0,0,-1,1189,1345,0,0
-28,-321,0,0,0,0,0,0,0,0,0,-1,1196,1345,0,0
-21,-321,0,0,0,0,0,0,0,0,0,-1,1203,1345,0,0
-14,-321,0,0,0,0,0,0,0,0,0,-1,1210,1345,0,0
-7,-321,0,0,0,0,0,0,0,0,0,-1,1217,1345,0,0
0,-321,0,0,0,0,0,0,0,0,0,-1,1224,1345,0,0
7,-321,0,0,0,0,0,0,0,0,0,-1,1231,1345,0,0
14,-321,0,0,0,0,0,0,0,0,0,-1,1238,1345,0,0
21,-321,0,0,0,0,0,0,0,0,0,-1,1245,1345,0,0
28,-321,0,0,0,0,0,0,0,0,0,-1,1252,1345,0,0
35,-321,0,0,0,0,0,0,0,0,0,-1,1259,1345,0,0
42,-321,0,0,0,0,0,0,0,0,0,-1,1266,1345,0,0
49,-321,0,0,0,0,0,0,0,0,0,-1,1273,1345,0,0
56,-321,0,0,0,0,0,0,0,0,0,-1,1280,1345,0,0
63,-321,0,0,0,0,0,0,0,0,0,-1,1287,1345,0,0
70,-321,0,0,0,0,0,0,0,0,0,-1,1294,1345,0,0
77,-321,0,0,0,0,0,0,0,0,0,-1,1301,1345,0,0
84,-321,0,0,0,0,0,0,0,0,0,-1,1308,1345,0,0
91,-321,0,0,0,0,0,0,0,0,0,-1,1315,1345,0,0
98,-321,0,0,0,0,0,0,0,0,0,-1,1322,1345,0,0
105,-321,0,0,0,0,0,0,0,0,0,-1,1329,1345,0,0
112,-321,0,0,0,0,0,0,0,0,0,-1,1336,1345,0,0
119,-321,0,0,0,0,0,0,0,0,0,-1,1343,1345,0,0
126,-321,0,0,0,0,0,0,0,0,0,-1,1350,1345,0,0
133,-321,0,0,0,0,0,0,0,0,0,-1,1357,1345,0,0
140,-321,0,0,0,0,0,0,0,0,0,-1,1364,1345,0,0
147,-321,0,0,0,0,0,0,0,0,0,-1,1371,1345,0,0
154,-321,0,0,0,0,0,0,0,0,0,-1,1378,1345,0,0
161,-321,0,0,0,0,0,0,0,0,0,-1,1385,1345,0,0
168,-321,0,0,0,0,0,0,0,0,0,-1,1392,1345,0,0
175,-321,0,0,0,0,0,0,0,0,0,-1,1399,1345,0,0
182,-321,0,0,0,0,0,0,0,0,0,-1,1406,1345,0,0
189,-321,0,0,0,0,0,0,0,0,0,-1,1413,1345,0,0
196,-321,0,0,0,0,0,0,0,0,0,-1,1420,1345,0,0
203,-321,0,0,0,0,0,0,0,0,0,-1,1427,1345,0,0
210,-321,0,0,0,0,0,0,0,0,0,-1,1434,1345,0,0
217,-321,0,0,0,0,0,0,0,0,0,-1,1441,1345,0,0
224,-321,0,0,0,0,0,0,0,0,0,-1,1448,1345,0,0
231,-321,0,0,0,0,0,0,0,0,0,-1,1455,1345,0,0
238,-321,0,0,0,0,0,0,0,0,0,-1,1462,1345,0,0
245,-321,0,0,0,0,0,0,0,0,0,-1,1469,1345,0,0
252,-321,0,0,0,0,0,0,0,0,0,-1,1476,1345,0,0
259,-321,0,0,0,0,0,0,0,0,0,-1,1483,1345,0,0
266,-321,0,0,0,0,0,0,0,0,0,-1,1490,1345,0,0
273,-321,0,0,0,0,0,0,0,0,0,-1,1497,1345,0,0
280,-321,0,0,0,0,0,0,0,0,0,-1,1504,1345,0,0
287,-321,0,0,0,0,0,0,0,0,0,-1,1511,1345,0,0
294,-321,0,0,0,0,0,0,0,0,0,-1,1518,1345,0,0
301,-321,0,0,0,0,0,0,0,0,0,-1,1525,1345,0,0
308,-321,0,0,0,0,0,0,0,0,0,-1,1532,1345,0,0
315,-321,0,0,0,0,0,0,0,0,0,-1,1539,1345,0,0
322,-321,0,0,0,0,0,0,0,0,0,-1,1546,1345,0,0
329,-321,0,0,0,0,0,0,0,0,0,-1,1553,1345,0,0
336,-321,0,0,0,0,0,0,0,0,0,-1,1560,1345,0,0
343,-321,0,0,0,0,0,0,0,0,0,-1,1567,1345,0,0
350,-321,0,0,0,0,0,0,0,0,0,-1,1574,1345,0,0
357,-321,0,0,0,0,0,0,0,0,0,-1,1581,1345,0,0
364,-321,0,0,0,0,0,0,0,0,0,-1,1588,1345,0,0
371,-321,0,0,0,0,0,0,0,0,0,-1,1595,1345,0,0
378,-321,0,0,0,0,0,0,0,0,0,-1,1602,1345,0,0
385,-321,0,0,0,0,0,0,0,0,0,-1,1609,1345,0,0
392,-321,0,0,0,0,0,0,0,0,0,-1,1616,1345,0,0
399,-321,0,0,0,0,0,0,0,0,0,-1,1623,1345,0,0
406,-321,0,0,0,0,0,0,0,0,0,-1,1630,1345,0,0
413,-321,0,0,0,0,0,0,0,0,0,-1,1637,1345,0,0
420,-321,0,0,0,0,0,0,0,0,0,-1,1644,1345,0,0
427,-321,0,0,0,0,0,0,0,0,0,-1,1651,1345,0,0
434,-321,0,0,0,0,0,0,0,0,0,-1,1658,1345,0,0
441,-321,0,0,0,0,0,0,0,0,0,-1,1665,1345,0,0
448,-321,0,0,0,0,0,0,0,0,0,-1,1672,1345,0,0
455,-321,0,0,0,0,0,0,0,0,0,-1,1679,1345,0,0
462,-321,0,0,0,0,0,0,0,0,0,-1,1686,1345,0,0
469,-321,0,0,0,0,0,0,0,0,0,-1,1693,1345,0,0
476,-321,0,0,0,0,0,0,0,0,0,-1,1700,1345,0,0
483,-321,0,0,0,0,0,0,0,0,0,-1,1707,1345,0,0
490,-321,0,0,0,0,0,0,0,0,0,-1,1714,1345,0,0
497,-321,0,0,0,0,0,0,0,0,0,-1,1721,1345,0,0
504,-321,0,0,0,0,0,0,0,0,0,-1,1728,1345,0,0
511,-321,0,0,0,0,0,0,0,0,0,-1,1735,1345,0,0
518,-321,0,0,0,0,0,0,0,0,0,-1,1742,1345,0,0
525,-321,0,0,0,0,0,0,0,0,0,-1,1749,1345,0,0
532,-321,0,0,0,0,0,0,0,0,0,-1,1756,1345,0,0
539,-321,0,0,0,0,0,0,0,0,0,-1,1763,1345,0,0
546,-321,0,0,0,0,0,0,0,0,0,-1,1770,1345,0,0
553,-321,0,0,0,0,0,0,0,0,0,-1,1777,1345,0,0
560,-321,0,0,0,0,0,0,0,0,0,-1,1784,1345,0,0
567,-321,0,0,0,0,0,0,0,0,0,-1,1791,1345,0,0
574,-321,0,0,0,0,0,0,0,0,0,-1,1798,1345,0,0
581,-321,29.0758,4.33447,0,0,0,0,0,0,0,-1,1805,1345,29.0758,-4.33446
588,-321,32.2325,2.30054,0,0,0,0,0,0,0,-1,1812,1345,32.2325,-2.30058
595,-321,32.5096,2.82056,0,0,0,0,0,0,0,-1,1819,1345,32.5096,-2.82055
602,-321,32.7867,3.34058,0,0,0,0,0,0,0,-1,1826,1345,32.7868,-3.34052
609,-321,31.2817,4.51233,0,0,0,0,0,0,0,-1,1833,1345,31.2817,-4.51235
616,-321,30.2117,5.40967,0,0,0,0,0,0,0,-1,1840,1345,30.2117,-5.40962
623,-321,24.8608,2.73926,0,0,0,0,0,0,0,-1,1847,1345,24.8608,-2.73922
630,-321,23.6674,4.34106,0,0,0,0,0,0,0,-1,1854,1345,23.6674,-4.34112
637,-321,21.7925,6.79224,0,0,0,0,0,0,0,-1,1861,1345,21.7925,-6.7922
644,-321,16.8844,6.71973,0,0,0,0,0,0,0,-1,1868,1345,16.8844,-6.71971
651,-321,21.1366,8.17151,0,0,0,0,0,0,0,-1,1875,1345,21.1366,-8.17146
658,-321,20.9774,8.42078,0,0,0,0,0,0,0,-1,1882,1345,20.9775,-8.42081
665,-321,21.028,8.13904,-0.00544604,-0.000416892,0.00265081,0.000722284,-0.00658522,1.16491,0.00464965,0.0181324,1889,1345,21.0279,-8.13908
672,-321,21.0637,7.83191,-0.00477557,-0.000659457,0.00236147,0.000414923,-0.00584995,1.14382,0.00404537,0.0129026,1896,1345,21.0638,-7.83193
679,-321,21.0508,7.53064,-0.00352478,-0.000955027,0.00232421,0.000415817,-0.00489563,1.0379,0.00341082,0.0108064,1903,1345,21.0508,-7.53061
686,-321,21.0222,7.24707,-0.00238742,-0.000795506,0.0018807,0.000450734,-0.00363366,0.985581,0.00258581,0.0114564,1910,1345,21.0222,-7.24705
693,-321,21.0283,6.96655,-0.00130732,-0.000857434,0.00137704,0.000312918,-0.00247767,0.866359,0.00176535,0.0120223,1917,1345,21.0283,-6.96651
700,-321,21.0295,6.66309,-0.000264702,-0.000896612,0.000884108,0.000358212,-0.00151953,0.613785,0.00115115,0.0114278,1924,1345,21.0295,-6.66304
707,-321,21.0378,6.36304,0.00059927,-0.00118376,0.000497633,0.000728753,-0.00131324,0.254554,0.00119494,0.0125699,1931,1345,21.0379,-6.36307
714,-321,21.0391,6.07458,0.001281,-0.00172155,0.000115023,0.0012854,-0.00172595,0.0382336,0.00174479,0.0123955,1938,1345,21.0391,-6.0746
721,-321,21.0419,5.75745,0.00192448,-0.00259585,-0.000426962,0.00196445,-0.00263583,-0.0933535,0.00266539,0.0258338,1945,1345,21.0419,-5.75745
728,-321,20.7709,5.49072,0,0,0,0,0,0,0,-1,1952,1345,20.7708,-5.49073
735,-321,21.1051,6.10046,0,0,0,0,0,0,0,-1,1959,1345,21.1051,-6.10049
742,-321,21.9097,5.70642,0,0,0,0,0,0,0,-1,1966,1345,21.9097,-5.70645
749,-321,21.9312,5.54041,0,0,0,0,0,0,0,-1,1973,1345,21.9312,-5.54043
756,-321,19.6251,4.98315,0,0,0,0,0,0,0,-1,1980,1345,19.6251,-4.98311
763,-321,19.6747,4.61438,0,0,0,0,0,0,0,-1,1987,1345,19.6747,-4.61436
770,-321,0,0,0,0,0,0,0,0,0,-1,1994,1345,0,0
777,-321,0,0,0,0,0,0,0,0,0,-1,2001,1345,0,0
784,-321,0,0,0,0,0,0,0,0,0,-1,2008,1345,0,0
791,-321,0,0,0,0,0,0,0,0,0,-1,2015,1345,0,0
798,-321,0,0,0,0,0,0,0,0,0,-1,2022,1345,0,0
805,-321,0,0,0,0,0,0,0,0,0,-1,2029,1345,0,0
812,-321,0,0,0,0,0,0,0,0,0,-1,2036,1345,0,0
-700,-328,0,0,0,0,0,0,0,0,0,-1,524,1352,0,0
-693,-328,0,0,0,0,0,0,0,0,0,-1,531,1352,0,0
-686,-328,0,0,0,0,0,0,0,0,0,-1,538,1352,0,0
-679,-328,0,0,0,0,0,0,0,0,0,-1,545,1352,0,0
-672,-328,0,0,0,0,0,0,0,0,0,-1,552,1352,0,0
-665,-328,0,0,0,0,0,0,0,0,0,-1,559,1352,0,0
-658,-328,0,0,0,0,0,0,0,0,0,-1,566,1352,0,0
-651,-328,0,0,0,0,0,0,0,0,0,-1,573,1352,0,0
-644,-328,0,0,0,0,0,0,0,0,0,-1,580,1352,0,0
-637,-328,-12.0695,1.02014,0,0,0,0,0,0,0,-1,587,1352,-12.0694,-1.02017
-630,-328,-11.5336,5.995,0,0,0,0,0,0,0,-1,594,1352,-11.5336,-5.99499
-623,-328,-10.7739,4.55042,0,0,0,0,0,0,0,-1,601,1352,-10.7739,-4.55041
-616,-328,-8.22198,-0.25708,0,0,0,0,0,0,0,-1,608,1352,-8.22201,0.257067
-609,-328,-7.87439,0.192871,0,0,0,0,0,0,0,-1,615,1352,-7.87441,-0.192822
-602,-328,-7.63062,1.31665,0,0,0,0,0,0,0,-1,622,1352,-7.63064,-1.3166
-595,-328,-9.42639,2.93494,0,0,0,0,0,0,0,-1,629,1352,-9.42638,-2.93499
-588,-328,-10.4342,3.36377,0,0,0,0,0,0,0,-1,636,1352,-10.4342,-3.36371
-581,-328,-10.3567,3.81189,0.00998538,-0.00665273,-0.00755926,0.0129068,-0.00957419,-0.368792,0.0130269,0.017125,643,1352,-10.3567,-3.8119
-574,-328,-10.3521,4.17627,0.00294032,-0.00206018,-0.00174657,0.00348994,-0.00260981,-0.304878,0.00353389,0.014618,650,1352,-10.3521,-4.17622
-567,-328,-10.3534,4.51672,8.8568e-05,-0.000541869,-3.61951e-05,9.06392e-05,-0.00054394,-0.0571624,0.00039631,0.0198287,657,1352,-10.3534,-4.5167
-560,-328,-10.3155,4.86243,-3.39248e-05,0.000571994,5.67969e-05,0.000577272,-3.92027e-05,1.47814,0.000398559,0.0270973,664,1352,-10.3155,-4.86243
-553,-328,-10.2899,5.10217,0.00116493,1.3503e-05,4.39387e-05,0.00116661,1.18287e-05,0.0380863,0.000773825,0.0295294,671,1352,-10.2899,-5.10217
-546,-328,-10.3419,5.39392,0.00258711,-0.000518923,0.000147645,0.00259411,-0.000525925,0.0473926,0.00192877,0.0282163,678,1352,-10.3419,-5.39387
-539,-328,-10.4052,5.77991,0.00415881,-0.00103969,0.000391781,0.00418817,-0.00106905,0.0748011,0.00320839,0.0235415,685,1352,-10.4052,-5.77986
-532,-328,-10.3802,6.15662,0.00608184,-0.00152055,0.000752347,0.00615558,-0.00159429,0.0976992,0.00472566,0.0165832,692,1352,-10.3802,-6.15662
-525,-328,-10.3178,6.52258,0.00846956,-0.0018931,0.00122474,0.00861234,-0.00203588,0.116057,0.0065269,0.0175444,699,1352,-10.3178,-6.52253
-518,-328,-10.3344,6.91821,0,0,0,0,0,0,0,-1,706,1352,-10.3344,-6.91818
-511,-328,-9.39868,7.16113,0,0,0,0,0,0,0,-1,713,1352,-9.39869,-7.16113
-504,-328,-8.60626,-0.905762,0,0,0,0,0,0,0,-1,720,1352,-8.60623,0.905787
-497,-328,-9.29102,-0.0517578,0,0,0,0,0,0,0,-1,727,1352,-9.29104,0.0518175
-490,-328,-10.0663,0.882813,0,0,0,0,0,0,0,-1,734,1352,-10.0663,-0.882795
-483,-328,-10.8181,1.72375,0,0,0,0,0,0,0,-1,741,1352,-10.8181,-1.72374
-476,-328,-16.8951,-0.150757,0,0,0,0,0,0,0,-1,748,1352,-16.8951,0.150795
-469,-328,-16.8412,0.00158691,0,0,0,0,0,0,0,-1,755,1352,-16.8412,-0.00161515
-462,-328,-16.3546,-0.203491,0,0,0,0,0,0,0,-1,762,1352,-16.3545,0.203532
-455,-328,0,0,0,0,0,0,0,0,0,-1,769,1352,0,0
-448,-328,0,0,0,0,0,0,0,0,0,-1,776,1352,0,0
-441,-328,0,0,0,0,0,0,0,0,0,-1,783,1352,0,0
-434,-328,0,0,0,0,0,0,0,0,0,-1,790,1352,0,0
-427,-328,0,0,0,0,0,0,0,0,0,-1,797,1352,0,0
-420,-328,0,0,0,0,0,0,0,0,0,-1,804,1352,0,0
-413,-328,0,0,0,0,0,0,0,0,0,-1,811,1352,0,0
-406,-328,0,0,0,0,0,0,0,0,0,-1,818,1352,0,0
-399,-328,0,0,0,0,0,0,0,0,0,-1,825,1352,0,0
-392,-328,0,0,0,0,0,0,0,0,0,-1,832,1352,0,0
-385,-328,0,0,0,0,0,0,0,0,0,-1,839,1352,0,0
-378,-328,0,0,0,0,0,0,0,0,0,-1,846,1352,0,0
-371,-328,0,0,0,0,0,0,0,0,0,-1,853,1352,0,0
-364,-328,0,0,0,0,0,0,0,0,0,-1,860,1352,0,0
-357,-328,0,0,0,0,0,0,0,0,0,-1,867,1352,0,0
-350,-328,0,0,0,0,0,0,0,0,0,-1,874,1352,0,0
-343,-328,0,0,0,0,0,0,0,0,0,-1,881,1352,0,0
-336,-328,0,0,0,0,0,0,0,0,0,-1,888,1352,0,0
-329,-328,0,0,0,0,0,0,0,0,0,-1,895,1352,0,0
-322,-328,0,0,0,0,0,0,0,0,0,-1,902,1352,0,0
-315,-328,0,0,0,0,0,0,0,0,0,-1,909,1352,0,0
-308,-328,0,0,0,0,0,0,0,0,0,-1,916,1352,0,0
-301,-328,0,0,0,0,0,0,0,0,0,-1,923,1352,0,0
-294,-328,0,0,0,0,0,0,0,0,0,-1,930,1352,0,0
-287,-328,0,0,0,0,0,0,0,0,0,-1,937,1352,0,0
-280,-328,0,0,0,0,0,0,0,0,0,-1,944,1352,0,0
-273,-328,0,0,0,0,0,0,0,0,0,-1,951,1352,0,0
-266,-328,0,0,0,0,0,0,0,0,0,-1,958,1352,0,0
-259,-328,0,0,0,0,0,0,0,0,0,-1,965,1352,0,0
-252,-328,0,0,0,0,0,0,0,0,0,-1,972,1352,0,0
-245,-328,0,0,0,0,0,0,0,0,0,-1,979,1352,0,0
-238,-328,0,0,0,0,0,0,0,0,0,-1,986,1352,0,0
-231,-328,0,0,0,0,0,0,0,0,0,-1,993,1352,0,0
-224,-328,0,0,0,0,0,0,0,0,0,-1,1000,1352,0,0
-217,-328,0,0,0,0,0,0,0,0,0,-1,1007,1352,0,0
-210,-328,0,0,0,0,0,0,0,0,0,-1,1014,1352,0,0
-203,-328,0,0,0,0,0,0,0,0,0,-1,1021,1352,0,0
-196,-328,0,0,0,0,0,0,0,0,0,-1,1028,1352,0,0
-189,-328,0,0,0,0,0,0,0,0,0,-1,1035,1352,0,0
-182,-328,0,0,0,0,0,0,0,0,0,-1,1042,1352,0,0
-175,-328,0,0,0,0,0,0,0,0,0,-1,1049,1352,0,0
-168,-328,0,0,0,0,0,0,0,0,0,-1,1056,1352,0,0
-161,-328,0,0,0,0,0,0,0,0,0,-1,1063,1352,0,0
-154,-328,0,0,0,0,0,0,0,0,0,-1,1070,1352,0,0
-147,-328,0,0,0,0,0,0,0,0,0,-1,1077,1352,0,0
-140,-328,0,0,0,0,0,0,0,0,0,-1,1084,1352,0,0
-133,-328,0,0,0,0,0,0,0,0,0,-1,1091,1352,0,0
-126,-328,0,0,0,0,0,0,0,0,0,-1,1098,1352,0,0
-119,-328,0,0,0,0,0,0,0,0,0,-1,1105,1352,0,0
-112,-328,0,0,0,0,0,0,0,0,0,-1,1112,1352,0,0
-105,-328,0,0,0,0,0,0,0,0,0,-1,1119,1352,0,0
-98,-328,0,0,0,0,0,0,0,0,0,-1,1126,1352,0,0
-91,-328,0,0,0,0,0,0,0,0,0,-1,1133,1352,0,0
-84,-328,0,0,0,0,0,0,0,0,0,-1,1140,1352,0,0
-77,-328,0,0,0,0,0,0,0,0,0,-1,1147,1352,0,0
-70,-328,0,0,0,0,0,0,0,0,0,-1,1154,1352,0,0
-63,-328,0,0,0,0,0,0,0,0,0,-1,1161,1352,0,0
-56,-328,0,0,0,0,0,0,0,0,0,-1,1168,1352,0,0
-49,-328,0,0,0,0,0,0,0,0,0,-1,1175,1352,0,0
-42,-328,0,0,0,0,0,0,0,0,0,-1,1182,1352,0,0
-35,-328,0,0,0,0,0,0,0,0,0,-1,1189,1352,0,0
-28,-328,0,0,0,0,0,0,0,0,0,-1,1196,1352,0,0
-21,-328,0,0,0,0,0,0,0,0,0,-1,1203,1352,0,0
-14,-328,0,0,0,0,0,0,0,0,0,-1,1210,1352,0,0
-7,-328,0,0,0,0,0,0,0,0,0,-1,1217,1352,0,0
0,-328,0,0,0,0,0,0,0,0,0,-1,1224,1352,0,0
7,-328,0,0,0,0,0,0,0,0,0,-1,1231,1352,0,0
14,-328,0,0,0,0,0,0,0,0,0,-1,1238,1352,0,0
21,-328,0,0,0,0,0,0,0,0,0,-1,1245,1352,0,0
28,-328,0,0,0,0,0,0,0,0,0,-1,1252,1352,0,0
35,-328,0,0,0,0,0,0,0,0,0,-1,1259,1352,0,0
42,-328,0,0,0,0,0,0,0,0,0,-1,1266,1352,0,0
49,-328,0,0,0,0,0,0,0,0,0,-1,1273,1352,0,0
56,-328,0,0,0,0,0,0,0,0,0,-1,1280,1352,0,0
63,-328,0,0,0,0,0,0,0,0,0,-1,1287,1352,0,0
70,-328,0,0,0,0,0,0,0,0,0,-1,1294,1352,0,0
77,-328,0,0,0,0,0,0,0,0,0,-1,1301,1352,0,0
84,-328,0,0,0,0,0,0,0,0,0,-1,1308,1352,0,0
91,-328,0,0,0,0,0,0,0,0,0,-1,1315,1352,0,0
98,-328,0,0,0,0,0,0,0,0,0,-1,1322,1352,0,0
105,-328,0,0,0,0,0,0,0,0,0,-1,1329,1352,0,0
112,-328,0,0,0,0,0,0,0,0,0,-1,1336,1352,0,0
119,-328,0,0,0,0,0,0,0,0,0,-1,1343,1352,0,0
126,-328,0,0,0,0,0,0,0,0,0,-1,1350,1352,0,0
133,-328,0,0,0,0,0,0,0,0,0,-1,1357,1352,0,0
140,-328,0,0,0,0,0,0,0,0,0,-1,1364,1352,0,0
147,-328,0,0,0,0,0,0,0,0,0,-1,1371,1352,0,0
154,-328,0,0,0,0,0,0,0,0,0,-1,1378,1352,0,0
161,-328,0,0,0,0,0,0,0,0,0,-1,1385,1352,0,0
168,-328,0,0,0,0,0,0,0,0,0,-1,1392,1352,0,0
175,-328,0,0,0,0,0,0,0,0,0,-1,1399,1352,0,0
182,-328,0,0,0,0,0,0,0,0,0,-1,1406,1352,0,0
189,-328,0,0,0,0,0,0,0,0,0,-1,1413,1352,0,0
196,-328,0,0,0,0,0,0,0,0,0,-1,1420,1352,0,0
203,-328,0,0,0,0,0,0,0,0,0,-1,1427,1352,0,0
210,-328,0,0,0,0,0,0,0,0,0,-1,1434,1352,0,0
217,-328,0,0,0,0,0,0,0,0,0,-1,1441,1352,0,0
224,-328,0,0,0,0,0,0,0,0,0,-1,1448,1352,0,0
231,-328,0,0,0,0,0,0,0,0,0,-1,1455,1352,0,0
238,-328,0,0,0,0,0,0,0,0,0,-1,1462,1352,0,0
245,-328,0,0,0,0,0,0,0,0,0,-1,1469,1352,0,0
252,-328,0,0,0,0,0,0,0,0,0,-1,1476,1352,0,0
259,-328,0,0,0,0,0,0,0,0,0,-1,1483,1352,0,0
266,-328,0,0,0,0,0,0,0,0,0,-1,1490,1352,0,0
273,-328,0,0,0,0,0,0,0,0,0,-1,1497,1352,0,0
280,-328,0,0,0,0,0,0,0,0,0,-1,1504,1352,0,0
287,-328,0,0,0,0,0,0,0,0,0,-1,1511,1352,0,0
294,-328,0,0,0,0,0,0,0,0,0,-1,1518,1352,0,0
301,-328,0,0,0,0,0,0,0,0,0,-1,1525,1352,0,0
308,-328,0,0,0,0,0,0,0,0,0,-1,1532,1352,0,0
315,-328,0,0,0,0,0,0,0,0,0,-1,1539,1352,0,0
322,-328,0,0,0,0,0,0,0,0,0,-1,1546,1352,0,0
329,-328,0,0,0,0,0,0,0,0,0,-1,1553,1352,0,0
336,-328,0,0,0,0,0,0,0,0,0,-1,1560,1352,0,0
343,-328,0,0,0,0,0,0,0,0,0,-1,1567,1352,0,0
350,-328,0,0,0,0,0,0,0,0,0,-1,1574,1352,0,0
357,-328,0,0,0,0,0,0,0,0,0,-1,1581,1352,0,0
364,-328,0,0,0,0,0,0,0,0,0,-1,1588,1352,0,0
371,-328,0,0,0,0,0,0,0,0,0,-1,1595,1352,0,0
378,-328,0,0,0,0,0,0,0,0,0,-1,1602,1352,0,0
385,-328,0,0,0,0,0,0,0,0,0,-1,1609,1352,0,0
392,-328,0,0,0,0,0,0,0,0,0,-1,1616,1352,0,0
399,-328,0,0,0,0,0,0,0,0,0,-1,1623,1352,0,0
406,-328,0,0,0,0,0,0,0,0,0,-1,1630,1352,0,0
413,-328,0,0,0,0,0,0,0,0,0,-1,1637,1352,0,0
420,-328,0,0,0,0,0,0,0,0,0,-1,1644,1352,0,0
427,-328,0,0,0,0,0,0,0,0,0,-1,1651,1352,0,0
434,-328,0,0,0,0,0,0,0,0,0,-1,1658,1352,0,0
441,-328,0,0,0,0,0,0,0,0,0,-1,1665,1352,0,0
448,-328,0,0,0,0,0,0,0,0,0,-1,1672,1352,0,0
455,-328,0,0,0,0,0,0,0,0,0,-1,1679,1352,0,0
462,-328,0,0,0,0,0,0,0,0,0,-1,1686,1352,0,0
469,-328,0,0,0,0,0,0,0,0,0,-1,1693,1352,0,0
476,-328,0,0,0,0,0,0,0,0,0,-1,1700,1352,0,0
483,-328,0,0,0,0,0,0,0,0,0,-1,1707,1352,0,0
490,-328,0,0,0,0,0,0,0,0,0,-1,1714,1352,0,0
497,-328,0,0,0,0,0,0,0,0,0,-1,1721,1352,0,0
504,-328,0,0,0,0,0,0,0,0,0,-1,1728,1352,0,0
511,-328,0,0,0,0,0,0,0,0,0,-1,1735,1352,0,0
518,-328,0,0,0,0,0,0,0,0,0,-1,1742,1352,0,0
525,-328,0,0,0,0,0,0,0,0,0,-1,1749,1352,0,0
532,-328,0,0,0,0,0,0,0,0,0,-1,1756,1352,0,0
539,-328,0,0,0,0,0,0,0,0,0,-1,1763,1352,0,0
546,-328,0,0,0,0,0,0,0,0,0,-1,1770,1352,0,0
553,-328,0,0,0,0,0,0,0,0,0,-1,1777,1352,0,0
560,-328,0,0,0,0,0,0,0,0,0,-1,1784,1352,0,0
567,-328,0,0,0,0,0,0,0,0,0,-1,1791,1352,0,0
574,-328,29.5146,3.83105,0,0,0,0,0,0,0,-1,1798,1352,29.5147,-3.831
581,-328,28.7427,3.43384,0,0,0,0,0,0,0,-1,1805,1352,28.7427,-3.43379
588,-328,28.1919,2.73206,0,0,0,0,0,0,0,-1,1812,1352,28.1919,-2.73206
595,-328,33.1958,2.62585,0,0,0,0,0,0,0,-1,1819,1352,33.1958,-2.62591
602,-328,33.0912,3.45117,0,0,0,0,0,0,0,-1,1826,1352,33.0912,-3.45122
609,-328,31.068,4.38977,0,0,0,0,0,0,0,-1,1833,1352,31.068,-4.38972
616,-328,28.8717,5.45459,0,0,0,0,0,0,0,-1,1840,1352,28.8717,-5.45465
623,-328,26.8594,6.41528,0,0,0,0,0,0,0,-1,1847,1352,26.8593,-6.41528
630,-328,22.0211,5.026,0,0,0,0,0,0,0,-1,1854,1352,22.0212,-5.02603
637,-328,21.15,5.53699,0,0,0,0,0,0,0,-1,1861,1352,21.15,-5.53704
644,-328,16.9579,6.3396,0,0,0,0,0,0,0,-1,1868,1352,16.9579,-6.33959
651,-328,20.9244,8.68872,0,0,0,0,0,0,0,-1,1875,1352,20.9244,-8.68866
658,-328,20.7738,8.42712,-0.00995484,-0.00525561,0.00324342,-0.00360017,-0.0116103,1.09886,0.00686249,0.0290565,1882,1352,20.7738,-8.42717
665,-328,20.7634,8.13721,-0.00509515,-0.000422985,0.00220475,0.000453131,-0.00597126,1.19255,0.00414016,0.0137236,1889,1352,20.7635,-8.13726
672,-328,20.7631,7.82861,-0.0039806,-0.000533013,0.00182417,0.000252984,-0.00476659,1.16396,0.00326533,0.0113902,1896,1352,20.7631,-7.82862
679,-328,20.7733,7.52515,-0.00268988,-0.000683771,0.00178551,0.000361138,-0.00373479,1.04132,0.00261855,0.0129395,1903,1352,20.7733,-7.52517
686,-328,20.7473,7.24146,-0.00156563,-0.000583693,0.00151597,0.000518829,-0.00266815,0.942,0.00197456,0.0121905,1910,1352,20.7473,-7.24151
693,-328,20.7435,6.9624,-0.000612973,-0.00069981,0.00113325,0.000477687,-0.00179047,0.766251,0.0013807,0.00904993,1917,1352,20.7435,-6.96236
700,-328,20.7455,6.66357,0.000209645,-0.00076,0.000792359,0.000653739,-0.00120409,0.510846,0.0010882,0.0128484,1924,1352,20.7455,-6.66352
707,-328,20.7469,6.36755,0.000903337,-0.00107071,0.00053588,0.00103943,-0.0012068,0.248697,0.00129806,0.0146836,1931,1352,20.7469,-6.36761
714,-328,20.7563,6.07556,0.00138657,-0.00165462,0.000321934,0.00142028,-0.00168832,0.104317,0.00179697,0.0139057,1938,1352,20.7564,-6.07555
721,-328,20.6313,5.84338,0.00190423,-0.00263801,-7.95987e-05,0.00190563,-0.00263941,-0.0175169,0.00263545,0.0353557,1945,1352,20.6313,-5.84339
728,-328,20.6068,5.63916,0.00274458,-0.00380354,-0.00112665,0.00293301,-0.00399197,-0.165711,0.00401369,0.0460333,1952,1352,20.6068,-5.63918
735,-328,20.8927,5.23523,0,0,0,0,0,0,0,-1,1959,1352,20.8927,-5.23528
742,-328,20.3547,4.11316,0,0,0,0,0,0,0,-1,1966,1352,20.3547,-4.11321
749,-328,20.0669,5.66321,0,0,0,0,0,0,0,-1,1973,1352,20.0669,-5.66319
756,-328,19.9543,5.50464,0,0,0,0,0,0,0,-1,1980,1352,19.9543,-5.50463
763,-328,0,0,0,0,0,0,0,0,0,-1,1987,1352,0,0
770,-328,0,0,0,0,0,0,0,0,0,-1,1994,1352,0,0
777,-328,0,0,0,0,0,0,0,0,0,-1,2001,1352,0,0
784,-328,0,0,0,0,0,0,0,0,0,-1,2008,1352,0,0
791,-328,0,0,0,0,0,0,0,0,0,-1,2015,1352,0,0
798,-328,0,0,0,0,0,0,0,0,0,-1,2022,1352,0,0
805,-328,0,0,0,0,0,0,0,0,0,-1,2029,1352,0,0
812,-328,0,0,0,0,0,0,0,0,0,-1,2036,1352,0,0
-700,-335,0,0,0,0,0,0,0,0,0,-1,524,1359,0,0
-693,-335,0,0,0,0,0,0,0,0,0,-1,531,1359,0,0
-686,-335,0,0,0,0,0,0,0,0,0,-1,538,1359,0,0
-679,-335,0,0,0,0,0,0,0,0,0,-1,545,1359,0,0
-672,-335,0,0,0,0,0,0,0,0,0,-1,552,1359,0,0
-665,-335,0,0,0,0,0,0,0,0,0,-1,559,1359,0,0
-658,-335,0,0,0,0,0,0,0,0,0,-1,566,1359,0,0
-651,-335,0,0,0,0,0,0,0,0,0,-1,573,1359,0,0
-644,-335,0,0,0,0,0,0,0,0,0,-1,580,1359,0,0
-637,-335,-9.64746,3.53809,0,0,0,0,0,0,0,-1,587,1359,-9.64744,-3.53803
-630,-335,-6.07397,-2.99902,0,0,0,0,0,0,0,-1,594,1359,-6.07397,2.99902
-623,-335,-8.43304,1.09509,0,0,0,0,0,0,0,-1,601,1359,-8.43301,-1.09507
-616,-335,-7.80927,-0.485352,0,0,0,0,0,0,0,-1,608,1359,-7.80926,0.485291
-609,-335,-7.12256,-2.03601,0,0,0,0,0,0,0,-1,615,1359,-7.12253,2.03601
-602,-335,-9.39935,2.25146,0,0,0,0,0,0,0,-1,622,1359,-9.39935,-2.25145
-595,-335,-9.54767,3.01917,0,0,0,0,0,0,0,-1,629,1359,-9.54768,-3.01911
-588,-335,-10.0839,3.34583,0,0,0,0,0,0,0,-1,636,1359,-10.0839,-3.34582
-581,-335,-10.0115,3.84778,0.00685969,-0.00564602,-0.00806555,0.0108123,-0.00959862,-0.455663,0.0117912,0.0279271,643,1359,-10.0115,-3.84774
-574,-335,-10.0196,4.15234,9.91809e-05,-0.00118649,-0.00195274,0.00151218,-0.00259948,-0.626387,0.00240138,0.0125721,650,1359,-10.0196,-4.15239
-567,-335,-10.0019,4.50598,-0.00189084,5.4561e-05,-0.000290913,9.71323e-05,-0.00193341,-1.42549,0.00132251,0.0166304,657,1359,-10.0019,-4.50597
-560,-335,-9.95807,4.78577,-0.0014435,0.00090327,-0.000119388,0.000909328,-0.00144955,-1.5201,0.00137375,0.0239584,664,1359,-9.9581,-4.78574
-553,-335,-10.0007,5.08606,0.000199308,0.000325661,-6.0832e-07,0.000325664,0.000199305,-1.56598,0.000189588,0.0273439,671,1359,-10.0007,-5.08605
-546,-335,-10.062,5.44604,0.00201333,-0.000191863,0.000232994,0.00203768,-0.000216212,0.104125,0.00143596,0.0261175,678,1359,-10.0619,-5.44606
-539,-335,-10.0905,5.81311,0.00392597,-0.000664009,0.00060406,0.00400414,-0.000742174,0.128685,0.00294812,0.0214422,685,1359,-10.0904,-5.81307
-532,-335,-10.0731,6.1925,0.00609376,-0.00107117,0.00109778,0.00625818,-0.0012356,0.148673,0.00463916,0.0156085,692,1359,-10.0731,-6.19256
-525,-335,-9.99615,6.52686,0.00865526,-0.00134695,0.00173518,0.00894772,-0.00163942,0.166981,0.00658005,0.0103591,699,1359,-9.99616,-6.52688
-518,-335,-9.95959,6.8241,0.0112262,-0.0014313,0.00241505,0.0116714,-0.00187643,0.182271,0.00847592,0.0270196,706,1359,-9.95961,-6.82405
-511,-335,-9.91132,7.10461,0,0,0,0,0,0,0,-1,713,1359,-9.91131,-7.10464
-504,-335,-9.35767,5.99695,0,0,0,0,0,0,0,-1,720,1359,-9.35767,-5.99694
-497,-335,-8.75024,-0.650513,0,0,0,0,0,0,0,-1,727,1359,-8.75024,0.650521
-490,-335,-9.51971,0.417603,0,0,0,0,0,0,0,-1,734,1359,-9.51974,-0.41765
-483,-335,-10.2883,1.29224,0,0,0,0,0,0,0,-1,741,1359,-10.2883,-1.2922
-476,-335,-11.9938,-0.173462,0,0,0,0,0,0,0,-1,748,1359,-11.9938,0.173429
-469,-335,-12.8704,-0.204102,0,0,0,0,0,0,0,-1,755,1359,-12.8704,0.204117
-462,-335,-13.486,0.0218506,0,0,0,0,0,0,0,-1,762,1359,-13.4859,-0.0217908
-455,-335,-14.1504,0.549561,0,0,0,0,0,0,0,-1,769,1359,-14.1504,-0.549583
-448,-335,0,0,0,0,0,0,0,0,0,-1,776,1359,0,0
-441,-335,0,0,0,0,0,0,0,0,0,-1,783,1359,0,0
-434,-335,0,0,0,0,0,0,0,0,0,-1,790,1359,0,0
-427,-335,0,0,0,0,0,0,0,0,0,-1,797,1359,0,0
-420,-335,0,0,0,0,0,0,0,0,0,-1,804,1359,0,0
-413,-335,0,0,0,0,0,0,0,0,0,-1,811,1359,0,0
-406,-335,0,0,0,0,0,0,0,0,0,-1,818,1359,0,0
-399,-335,0,0,0,0,0,0,0,0,0,-1,825,1359,0,0
-392,-335,0,0,0,0,0,0,0,0,0,-1,832,1359,0,0
-385,-335,0,0,0,0,0,0,0,0,0,-1,839,1359,0,0
-378,-335,0,0,0,0,0,0,0,0,0,-1,846,1359,0,0
-371,-335,0,0,0,0,0,0,0,0,0,-1,853,1359,0,0
-364,-335,0,0,0,0,0,0,0,0,0,-1,860,1359,0,0
-357,-335,0,0,0,0,0,0,0,0,0,-1,867,1359,0,0
-350,-335,0,0,0,0,0,0,0,0,0,-1,874,1359,0,0
-343,-335,0,0,0,0,0,0,0,0,0,-1,881,1359,0,0
-336,-335,0,0,0,0,0,0,0,0,0,-1,888,1359,0,0
-329,-335,0,0,0,0,0,0,0,0,0,-1,895,1359,0,0
-322,-335,0,0,0,0,0,0,0,0,0,-1,902,1359,0,0
-315,-335,0,0,0,0,0,0,0,0,0,-1,909,1359,0,0
-308,-335,0,0,0,0,0,0,0,0,0,-1,916,1359,0,0
-301,-335,0,0,0,0,0,0,0,0,0,-1,923,1359,0,0
-294,-335,0,0,0,0,0,0,0,0,0,-1,930,1359,0,0
-287,-335,0,0,0,0,0,0,0,0,0,-1,937,1359,0,0
-280,-335,0,0,0,0,0,0,0,0,0,-1,944,1359,0,0
-273,-335,0,0,0,0,0,0,0,0,0,-1,951,1359,0,0
-266,-335,0,0,0,0,0,0,0,0,0,-1,958,1359,0,0
-259,-335,0,0,0,0,0,0,0,0,0,-1,965,1359,0,0
-252,-335,0,0,0,0,0,0,0,0,0,-1,972,1359,0,0
-245,-335,0,0,0,0,0,0,0,0,0,-1,979,1359,0,0
-238,-335,0,0,0,0,0,0,0,0,0,-1,986,1359,0,0
-231,-335,0,0,0,0,0,0,0,0,0,-1,993,1359,0,0
-224,-335,0,0,0,0,0,0,0,0,0,-1,1000,1359,0,0
-217,-335,0,0,0,0,0,0,0,0,0,-1,1007,1359,0,0
-210,-335,0,0,0,0,0,0,0,0,0,-1,1014,1359,0,0
-203,-335,0,0,0,0,0,0,0,0,0,-1,1021,1359,0,0
-196,-335,0,0,0,0,0,0,0,0,0,-1,1028,1359,0,0
-189,-335,0,0,0,0,0,0,0,0,0,-1,1035,1359,0,0
-182,-335,0,0,0,0,0,0,0,0,0,-1,1042,1359,0,0
-175,-335,0,0,0,0,0,0,0,0,0,-1,1049,1359,0,0
-168,-335,0,0,0,0,0,0,0,0,0,-1,1056,1359,0,0
-161,-335,0,0,0,0,0,0,0,0,0,-1,1063,1359,0,0
-154,-335,0,0,0,0,0,0,0,0,0,-1,1070,1359,0,0
-147,-335,0,0,0,0,0,0,0,0,0,-1,1077,1359,0,0
-140,-335,0,0,0,0,0,0,0,0,0,-1,1084,1359,0,0
-133,-335,0,0,0,0,0,0,0,0,0,-1,1091,1359,0,0
-126,-335,0,0,0,0,0,0,0,0,0,-1,1098,1359,0,0
-119,-335,0,0,0,0,0,0,0,0,0,-1,1105,1359,0,0
-112,-335,0,0,0,0,0,0,0,0,0,-1,1112,1359,0,0
-105,-335,0,0,0,0,0,0,0,0,0,-1,1119,1359,0,0
-98,-335,0,0,0,0,0,0,0,0,0,-1,1126,1359,0,0
-91,-335,0,0,0,0,0,0,0,0,0,-1,1133,1359,0,0
-84,-335,0,0,0,0,0,0,0,0,0,-1,1140,1359,0,0
-77,-335,0,0,0,0,0,0,0,0,0,-1,1147,1359,0,0
-70,-335,0,0,0,0,0,0,0,0,0,-1,1154,1359,0,0
-63,-335,0,0,0,0,0,0,0,0,0,-1,1161,1359,0,0
-56,-335,0,0,0,0,0,0,0,0,0,-1,1168,1359,0,0
-49,-335,0,0,0,0,0,0,0,0,0,-1,1175,1359,0,0
-42,-335,0,0,0,0,0,0,0,0,0,-1,1182,1359,0,0
-35,-335,0,0,0,0,0,0,0,0,0,-1,1189,1359,0,0
-28,-335,0,0,0,0,0,0,0,0,0,-1,1196,1359,0,0
-21,-335,0,0,0,0,0,0,0,0,0,-1,1203,1359,0,0
-14,-335,0,0,0,0,0,0,0,0,0,-1,1210,1359,0,0
-7,-335,0,0,0,0,0,0,0,0,0,-1,1217,1359,0,0
0,-335,0,0,0,0,0,0,0,0,0,-1,1224,1359,0,0
7,-335,0,0,0,0,0,0,0,0,0,-1,1231,1359,0,0
14,-335,0,0,0,0,0,0,0,0,0,-1,1238,1359,0,0
21,-335,0,0,0,0,0,0,0,0,0,-1,1245,1359,0,0
28,-335,0,0,0,0,0,0,0,0,0,-1,1252,1359,0,0
35,-335,0,0,0,0,0,0,0,0,0,-1,1259,1359,0,0
42,-335,0,0,0,0,0,0,0,0,0,-1,1266,1359,0,0
49,-335,0,0,0,0,0,0,0,0,0,-1,1273,1359,0,0
56,-335,0,0,0,0,0,0,0,0,0,-1,1280,1359,0,0
63,-335,0,0,0,0,0,0,0,0,0,-1,1287,1359,0,0
70,-335,0,0,0,0,0,0,0,0,0,-1,1294,1359,0,0
77,-335,0,0,0,0,0,0,0,0,0,-1,1301,1359,0,0
84,-335,0,0,0,0,0,0,0,0,0,-1,1308,1359,0,0
91,-335,0,0,0,0,0,0,0,0,0,-1,1315,1359,0,0
98,-335,0,0,0,0,0,0,0,0,0,-1,1322,1359,0,0
105,-335,0,0,0,0,0,0,0,0,0,-1,1329,1359,0,0
112,-335,0,0,0,0,0,0,0,0,0,-1,1336,1359,0,0
119,-335,0,0,0,0,0,0,0,0,0,-1,1343,1359,0,0
126,-335,0,0,0,0,0,0,0,0,0,-1,1350,1359,0,0
133,-335,0,0,0,0,0,0,0,0,0,-1,1357,1359,0,0
140,-335,0,0,0,0,0,0,0,0,0,-1,1364,1359,0,0
147,-335,0,0,0,0,0,0,0,0,0,-1,1371,1359,0,0
154,-335,0,0,0,0,0,0,0,0,0,-1,1378,1359,0,0
161,-335,0,0,0,0,0,0,0,0,0,-1,1385,1359,0,0
168,-335,0,0,0,0,0,0,0,0,0,-1,1392,1359,0,0
175,-335,0,0,0,0,0,0,0,0,0,-1,1399,1359,0,0
182,-335,0,0,0,0,0,0,0,0,0,-1,1406,1359,0,0
189,-335,0,0,0,0,0,0,0,0,0,-1,1413,1359,0,0
196,-335,0,0,0,0,0,0,0,0,0,-1,1420,1359,0,0
203,-335,0,0,0,0,0,0,0,0,0,-1,1427,1359,0,0
210,-335,0,0,0,0,0,0,0,0,0,-1,1434,1359,0,0
217,-335,0,0,0,0,0,0,0,0,0,-1,1441,1359,0,0
224,-335,0,0,0,0,0,0,0,0,0,-1,1448,1359,0,0
231,-335,0,0,0,0,0,0,0,0,0,-1,1455,1359,0,0
238,-335,0,0,0,0,0,0,0,0,0,-1,1462,1359,0,0
245,-335,0,0,0,0,0,0,0,0,0,-1,1469,1359,0,0
252,-335,0,0,0,0,0,0,0,0,0,-1,1476,1359,0,0
259,-335,0,0,0,0,0,0,0,0,0,-1,1483,1359,0,0
266,-335,0,0,0,0,0,0,0,0,0,-1,1490,1359,0,0
273,-335,0,0,0,0,0,0,0,0,0,-1,1497,1359,0,0
280,-335,0,0,0,0,0,0,0,0,0,-1,1504,1359,0,0
287,-335,0,0,0,0,0,0,0,0,0,-1,1511,1359,0,0
294,-335,0,0,0,0,0,0,0,0,0,-1,1518,1359,0,0
301,-335,0,0,0,0,0,0,0,0,0,-1,1525,1359,0,0
308,-335,0,0,0,0,0,0,0,0,0,-1,1532,1359,0,0
315,-335,0,0,0,0,0,0,0,0,0,-1,1539,1359,0,0
322,-335,0,0,0,0,0,0,0,0,0,-1,1546,1359,0,0
329,-335,0,0,0,0,0,0,0,0,0,-1,1553,1359,0,0
336,-335,0,0,0,0,0,0,0,0,0,-1,1560,1359,0,0
343,-335,0,0,0,0,0,0,0,0,0,-1,1567,1359,0,0
350,-335,0,0,0,0,0,0,0,0,0,-1,1574,1359,0,0
357,-335,0,0,0,0,0,0,0,0,0,-1,1581,1359,0,0
364,-335,0,0,0,0,0,0,0,0,0,-1,1588,1359,0,0
371,-335,0,0,0,0,0,0,0,0,0,-1,1595,1359,0,0
378,-335,0,0,0,0,0,0,0,0,0,-1,1602,1359,0,0
385,-335,0,0,0,0,0,0,0,0,0,-1,1609,1359,0,0
392,-335,0,0,0,0,0,0,0,0,0,-1,1616,1359,0,0
399,-335,0,0,0,0,0,0,0,0,0,-1,1623,1359,0,0
406,-335,0,0,0,0,0,0,0,0,0,-1,1630,1359,0,0
413,-335,0,0,0,0,0,0,0,0,0,-1,1637,1359,0,0
420,-335,0,0,0,0,0,0,0,0,0,-1,1644,1359,0,0
427,-335,0,0,0,0,0,0,0,0,0,-1,1651,1359,0,0
434,-335,0,0,0,0,0,0,0,0,0,-1,1658,1359,0,0
441,-335,0,0,0,0,0,0,0,0,0,-1,1665,1359,0,0
448,-335,0,0,0,0,0,0,0,0,0,-1,1672,1359,0,0
455,-335,0,0,0,0,0,0,0,0,0,-1,1679,1359,0,0
462,-335,0,0,0,0,0,0,0,0,0,-1,1686,1359,0,0
469,-335,0,0,0,0,0,0,0,0,0,-1,1693,1359,0,0
476,-335,0,0,0,0,0,0,0,0,0,-1,1700,1359,0,0
483,-335,0,0,0,0,0,0,0,0,0,-1,1707,1359,0,0
490,-335,0,0,0,0,0,0,0,0,0,-1,1714,1359,0,0
497,-335,0,0,0,0,0,0,0,0,0,-1,1721,1359,0,0
504,-335,0,0,0,0,0,0,0,0,0,-1,1728,1359,0,0
511,-335,0,0,0,0,0,0,0,0,0,-1,1735,1359,0,0
518,-335,0,0,0,0,0,0,0,0,0,-1,1742,1359,0,0
525,-335,0,0,0,0,0,0,0,0,0,-1,1749,1359,0,0
532,-335,0,0,0,0,0,0,0,0,0,-1,1756,1359,0,0
539,-335,0,0,0,0,0,0,0,0,0,-1,1763,1359,0,0
546,-335,0,0,0,0,0,0,0,0,0,-1,1770,1359,0,0
553,-335,0,0,0,0,0,0,0,0,0,-1,1777,1359,0,0
560,-335,0,0,0,0,0,0,0,0,0,-1,1784,1359,0,0
567,-335,0,0,0,0,0,0,0,0,0,-1,1791,1359,0,0
574,-335,28.7924,2.85168,0,0,0,0,0,0,0,-1,1798,1359,28.7923,-2.85166
581,-335,27.994,2.56213,0,0,0,0,0,0,0,-1,1805,1359,27.994,-2.56214
588,-335,30.4574,0.046875,0,0,0,0,0,0,0,-1,1812,1359,30.4574,-0.0469056
595,-335,33.4791,3.80188,0,0,0,0,0,0,0,-1,1819,1359,33.4792,-3.80193
602,-335,32.7783,3.3717,0,0,0,0,0,0,0,-1,1826,1359,32.7783,-3.37167
609,-335,30.826,4.40063,0,0,0,0,0,0,0,-1,1833,1359,30.826,-4.40063
616,-335,28.298,5.98853,0,0,0,0,0,0,0,-1,1840,1359,28.298,-5.98849
623,-335,26.6051,6.54333,0,0,0,0,0,0,0,-1,1847,1359,26.6051,-6.54339
630,-335,19.1707,1.00952,0,0,0,0,0,0,0,-1,1854,1359,19.1707,-1.00953
637,-335,18.2009,6.65454,0,0,0,0,0,0,0,-1,1861,1359,18.2009,-6.6546
644,-335,20.6428,8.9425,0,0,0,0,0,0,0,-1,1868,1359,20.6428,-8.94254
651,-335,20.5275,8.69556,-0.0165238,-0.0112901,0.00503988,-0.00822819,-0.0195857,1.02485,0.0113558,0.0337813,1875,1359,20.5275,-8.69555
658,-335,20.4506,8.48572,-0.00876965,-0.00496538,0.00322956,-0.00311942,-0.0106156,1.05154,0.00630017,0.0186042,1882,1359,20.4506,-8.48576
665,-335,20.4576,8.15051,-0.00314421,-0.000401916,0.00164104,0.000365404,-0.00391153,1.13342,0.00273763,0.0142685,1889,1359,20.4577,-8.15056
672,-335,20.4489,7.82617,-0.00231095,-0.000413746,0.00126007,0.000214867,-0.00293957,1.10805,0.00203512,0.0163297,1896,1359,20.4488,-7.82622
679,-335,20.4652,7.54749,-0.00145849,-0.0004481,0.00124678,0.000391949,-0.00229854,0.977888,0.00167833,0.0137436,1903,1359,20.4652,-7.54746
686,-335,20.4749,7.25549,-0.000698295,-0.000405169,0.001157,0.000614515,-0.00171798,0.8484,0.00139599,0.0111723,1910,1359,20.4749,-7.25548
693,-335,20.4606,6.96057,3.97787e-05,-0.000535981,0.000925478,0.000721117,-0.00121732,0.634611,0.00113131,0.00963661,1917,1359,20.4606,-6.96061
700,-335,20.446,6.67065,0.000662519,-0.00061682,0.000734816,0.000997083,-0.000951384,0.427255,0.00112505,0.0102688,1924,1359,20.446,-6.67071
707,-335,20.4412,6.37744,0.00118819,-0.00094086,0.000613448,0.0013523,-0.00110497,0.261392,0.00142109,0.0135143,1931,1359,20.4411,-6.37742
714,-335,20.4636,6.01746,0.00147068,-0.00154526,0.000577869,0.00157761,-0.00165219,0.182975,0.00186489,0.025567,1938,1359,20.4636,-6.01741
721,-335,20.197,5.78076,0.00183962,-0.0025969,0.000357621,0.00186826,-0.00262555,0.0799208,0.00260675,0.0460115,1945,1359,20.1971,-5.78072
728,-335,20.2203,5.58191,0.00257866,-0.00385853,-0.000535347,0.00262288,-0.00390275,-0.0824103,0.00379165,0.046685,1952,1359,20.2204,-5.5819
735,-335,20.2725,5.34729,0,0,0,0,0,0,0,-1,1959,1359,20.2724,-5.34734
742,-335,19.8624,4.72229,0,0,0,0,0,0,0,-1,1966,1359,19.8624,-4.72225
749,-335,20.5887,6.05322,0,0,0,0,0,0,0,-1,1973,1359,20.5887,-6.05322
756,-335,20.7832,6.00452,0,0,0,0,0,0,0,-1,1980,1359,20.7832,-6.00447
763,-335,0,0,0,0,0,0,0,0,0,-1,1987,1359,0,0
770,-335,0,0,0,0,0,0,0,0,0,-1,1994,1359,0,0
777,-335,0,0,0,0,0,0,0,0,0,-1,2001,1359,0,0
784,-335,0,0,0,0,0,0,0,0,0,-1,2008,1359,0,0
791,-335,0,0,0,0,0,0,0,0,0,-1,2015,1359,0,0
798,-335,0,0,0,0,0,0,0,0,0,-1,2022,1359,0,0
805,-335,0,0,0,0,0,0,0,0,0,-1,2029,1359,0,0
812,-335,0,0,0,0,0,0,0,0,0,-1,2036,1359,0,0
-700,-342,0,0,0,0,0,0,0,0,0,-1,524,1366,0,0
-693,-342,0,0,0,0,0,0,0,0,0,-1,531,1366,0,0
-686,-342,0,0,0,0,0,0,0,0,0,-1,538,1366,0,0
-679,-342,0,0,0,0,0,0,0,0,0,-1,545,1366,0,0
-672,-342,0,0,0,0,0,0,0,0,0,-1,552,1366,0,0
-665,-342,0,0,0,0,0,0,0,0,0,-1,559,1366,0,0
-658,-342,0,0,0,0,0,0,0,0,0,-1,566,1366,0,0
-651,-342,0,0,0,0,0,0,0,0,0,-1,573,1366,0,0
-644,-342,0,0,0,0,0,0,0,0,0,-1,580,1366,0,0
-637,-342,-8.67786,-4.58557,0,0,0,0,0,0,0,-1,587,1366,-8.67788,4.5856
-630,-342,-8.60132,2.71777,0,0,0,0,0,0,0,-1,594,1366,-8.60135,-2.71779
-623,-342,-8.41168,0.662476,0,0,0,0,0,0,0,-1,601,1366,-8.41168,-0.662442
-616,-342,-6.625,-1.28015,0,0,0,0,0,0,0,-1,608,1366,-6.62499,1.28011
-609,-342,-7.83154,0.674561,0,0,0,0,0,0,0,-1,615,1366,-7.83155,-0.674598
-602,-342,-9.65765,2.25195,0,0,0,0,0,0,0,-1,622,1366,-9.65767,-2.25192
-595,-342,-9.47687,3.00671,0,0,0,0,0,0,0,-1,629,1366,-9.47686,-3.00668
-588,-342,-9.62091,3.38647,0,0,0,0,0,0,0,-1,636,1366,-9.62093,-3.3865
-581,-342,-9.63861,3.74426,0.00271336,-0.00419249,-0.00858351,0.00851243,-0.00999156,-0.594165,0.0106946,0.0493656,643,1366,-9.63864,-3.74428
-574,-342,-9.71393,4.16394,-0.00324716,-0.000220736,-0.00238672,0.00109205,-0.00455995,-1.06793,0.00346188,0.0129546,650,1366,-9.71393,-4.16398
-567,-342,-9.66333,4.5177,-0.0041787,0.000609805,-0.000847865,0.000755497,-0.00432439,-1.40062,0.00316496,0.0164192,657,1366,-9.6633,-4.51768
-560,-342,-9.68646,4.7771,-0.00313206,0.00114306,-0.000563397,0.00121606,-0.00320506,-1.44194,0.00263723,0.024419,664,1366,-9.68646,-4.77711
-553,-342,-9.71997,5.04529,-0.00107183,0.000549559,-0.000285216,0.000598268,-0.00112054,-1.40165,0.00100751,0.0273759,671,1366,-9.71998,-5.04524
-546,-342,-9.75903,5.43323,0.00113184,6.3909e-05,0.000117424,0.0011446,5.11502e-05,0.108232,0.000746601,0.0273934,678,1366,-9.75905,-5.43326
-539,-342,-9.75012,5.82983,0.00338729,-0.000334934,0.000655439,0.00349933,-0.000446976,0.169306,0.00249526,0.0225127,685,1366,-9.75009,-5.82982
-532,-342,-9.73462,6.20947,0.00580465,-0.00064699,0.00130425,0.00605834,-0.000900679,0.192111,0.00437017,0.016561,692,1366,-9.7346,-6.20944
-525,-342,-9.67273,6.54968,0.00851676,-0.000807955,0.00210094,0.00896826,-0.00125945,0.211684,0.00643984,0.0110723,699,1366,-9.67273,-6.54966
-518,-342,-9.63599,6.89478,0.0112009,-0.000660154,0.00301553,0.0119235,-0.00138279,0.235203,0.00844774,0.0187285,706,1366,-9.63598,-6.8948
-511,-342,-9.64941,7.22522,0,0,0,0,0,0,0,-1,713,1366,-9.64941,-7.22528
-504,-342,-8.95709,6.5719,0,0,0,0,0,0,0,-1,720,1366,-8.95707,-6.57192
-497,-342,-8.26587,-0.943604,0,0,0,0,0,0,0,-1,727,1366,-8.26586,0.943543
-490,-342,-9.07153,-0.0227051,0,0,0,0,0,0,0,-1,734,1366,-9.07155,0.0227087
-483,-342,-9.87726,0.898071,0,0,0,0,0,0,0,-1,741,1366,-9.87724,-0.898125
-476,-342,-11.6371,-0.736328,0,0,0,0,0,0,0,-1,748,1366,-11.6371,0.736281
-469,-342,-12.6245,-0.987549,0,0,0,0,0,0,0,-1,755,1366,-12.6245,0.987553
-462,-342,-13.0912,-0.533203,0,0,0,0,0,0,0,-1,762,1366,-13.0912,0.533224
-455,-342,-13.7612,0.122925,0,0,0,0,0,0,0,-1,769,1366,-13.7612,-0.122896
-448,-342,-14.5278,0.826904,0,0,0,0,0,0,0,-1,776,1366,-14.5277,-0.826861
-441,-342,0,0,0,0,0,0,0,0,0,-1,783,1366,0,0
-434,-342,0,0,0,0,0,0,0,0,0,-1,790,1366,0,0
-427,-342,0,0,0,0,0,0,0,0,0,-1,797,1366,0,0
-420,-342,0,0,0,0,0,0,0,0,0,-1,804,1366,0,0
-413,-342,0,0,0,0,0,0,0,0,0,-1,811,1366,0,0
-406,-342,0,0,0,0,0,0,0,0,0,-1,818,1366,0,0
-399,-342,0,0,0,0,0,0,0,0,0,-1,825,1366,0,0
-392,-342,0,0,0,0,0,0,0,0,0,-1,832,1366,0,0
-385,-342,0,0,0,0,0,0,0,0,0,-1,839,1366,0,0
-378,-342,0,0,0,0,0,0,0,0,0,-1,846,1366,0,0
-371,-342,0,0,0,0,0,0,0,0,0,-1,853,1366,0,0
-364,-342,0,0,0,0,0,0,0,0,0,-1,860,1366,0,0
-357,-342,0,0,0,0,0,0,0,0,0,-1,867,1366,0,0
-350,-342,0,0,0,0,0,0,0,0,0,-1,874,1366,0,0
-343,-342,0,0,0,0,0,0,0,0,0,-1,881,1366,0,0
-336,-342,0,0,0,0,0,0,0,0,0,-1,888,1366,0,0
-329,-342,0,0,0,0,0,0,0,0,0,-1,895,1366,0,0
-322,-342,0,0,0,0,0,0,0,0,0,-1,902,1366,0,0
-315,-342,0,0,0,0,0,0,0,0,0,-1,909,1366,0,0
-308,-342,0,0,0,0,0,0,0,0,0,-1,916,1366,0,0
-301,-342,0,0,0,0,0,0,0,0,0,-1,923,1366,0,0
-294,-342,0,0,0,0,0,0,0,0,0,-1,930,1366,0,0
-287,-342,0,0,0,0,0,0,0,0,0,-1,937,1366,0,0
-280,-342,0,0,0,0,0,0,0,0,0,-1,944,1366,0,0
-273,-342,0,0,0,0,0,0,0,0,0,-1,951,1366,0,0
-266,-342,0,0,0,0,0,0,0,0,0,-1,958,1366,0,0
-259,-342,0,0,0,0,0,0,0,0,0,-1,965,1366,0,0
-252,-342,0,0,0,0,0,0,0,0,0,-1,972,1366,0,0
-245,-342,0,0,0,0,0,0,0,0,0,-1,979,1366,0,0
-238,-342,0,0,0,0,0,0,0,0,0,-1,986,1366,0,0
-231,-342,0,0,0,0,0,0,0,0,0,-1,993,1366,0,0
-224,-342,0,0,0,0,0,0,0,0,0,-1,1000,1366,0,0
-217,-342,0,0,0,0,0,0,0,0,0,-1,1007,1366,0,0
-210,-342,0,0,0,0,0,0,0,0,0,-1,1014,1366,0,0
-203,-342,0,0,0,0,0,0,0,0,0,-1,1021,1366,0,0
-196,-342,0,0,0,0,0,0,0,0,0,-1,1028,1366,0,0
-189,-342,0,0,0,0,0,0,0,0,0,-1,1035,1366,0,0
-182,-342,0,0,0,0,0,0,0,0,0,-1,1042,1366,0,0
-175,-342,0,0,0,0,0,0,0,0,0,-1,1049,1366,0,0
-168,-342,0,0,0,0,0,0,0,0,0,-1,1056,1366,0,0
-161,-342,0,0,0,0,0,0,0,0,0,-1,1063,1366,0,0
-154,-342,0,0,0,0,0,0,0,0,0,-1,1070,1366,0,0
-147,-342,0,0,0,0,0,0,0,0,0,-1,1077,1366,0,0
-140,-342,0,0,0,0,0,0,0,0,0,-1,1084,1366,0,0
-133,-342,0,0,0,0,0,0,0,0,0,-1,1091,1366,0,0
-126,-342,0,0,0,0,0,0,0,0,0,-1,1098,1366,0,0
-119,-342,0,0,0,0,0,0,0,0,0,-1,1105,1366,0,0
-112,-342,0,0,0,0,0,0,0,0,0,-1,1112,1366,0,0
-105,-342,0,0,0,0,0,0,0,0,0,-1,1119,1366,0,0
-98,-342,0,0,0,0,0,0,0,0,0,-1,1126,1366,0,0
-91,-342,0,0,0,0,0,0,0,0,0,-1,1133,1366,0,0
-84,-342,0,0,0,0,0,0,0,0,0,-1,1140,1366,0,0
-77,-342,0,0,0,0,0,0,0,0,0,-1,1147,1366,0,0
-70,-342,0,0,0,0,0,0,0,0,0,-1,1154,1366,0,0
-63,-342,0,0,0,0,0,0,0,0,0,-1,1161,1366,0,0
-56,-342,0,0,0,0,0,0,0,0,0,-1,1168,1366,0,0
-49,-342,0,0,0,0,0,0,0,0,0,-1,1175,1366,0,0
-42,-342,0,0,0,0,0,0,0,0,0,-1,1182,1366,0,0
-35,-342,0,0,0,0,0,0,0,0,0,-1,1189,1366,0,0
-28,-342,0,0,0,0,0,0,0,0,0,-1,1196,1366,0,0
-21,-342,0,0,0,0,0,0,0,0,0,-1,1203,1366,0,0
-14,-342,0,0,0,0,0,0,0,0,0,-1,1210,1366,0,0
-7,-342,0,0,0,0,0,0,0,0,0,-1,1217,1366,0,0
0,-342,0,0,0,0,0,0,0,0,0,-1,1224,1366,0,0
7,-342,0,0,0,0,0,0,0,0,0,-1,1231,1366,0,0
14,-342,0,0,0,0,0,0,0,0,0,-1,1238,1366,0,0
21,-342,0,0,0,0,0,0,0,0,0,-1,1245,1366,0,0
28,-342,0,0,0,0,0,0,0,0,0,-1,1252,1366,0,0
35,-342,0,0,0,0,0,0,0,0,0,-1,1259,1366,0,0
42,-342,0,0,0,0,0,0,0,0,0,-1,1266,1366,0,0
49,-342,0,0,0,0,0,0,0,0,0,-1,1273,1366,0,0
56,-342,0,0,0,0,0,0,0,0,0,-1,1280,1366,0,0
63,-342,0,0,0,0,0,0,0,0,0,-1,1287,1366,0,0
70,-342,0,0,0,0,0,0,0,0,0,-1,1294,1366,0,0
77,-342,0,0,0,0,0,0,0,0,0,-1,1301,1366,0,0
84,-342,0,0,0,0,0,0,0,0,0,-1,1308,1366,0,0
91,-342,0,0,0,0,0,0,0,0,0,-1,1315,1366,0,0
98,-342,0,0,0,0,0,0,0,0,0,-1,1322,1366,0,0
105,-342,0,0,0,0,0,0,0,0,0,-1,1329,1366,0,0
112,-342,0,0,0,0,0,0,0,0,0,-1,1336,1366,0,0
119,-342,0,0,0,0,0,0,0,0,0,-1,1343,1366,0,0
126,-342,0,0,0,0,0,0,0,0,0,-1,1350,1366,0,0
133,-342,0,0,0,0,0,0,0,0,0,-1,1357,1366,0,0
140,-342,0,0,0,0,0,0,0,0,0,-1,1364,1366,0,0
147,-342,0,0,0,0,0,0,0,0,0,-1,1371,1366,0,0
154,-342,0,0,0,0,0,0,0,0,0,-1,1378,1366,0,0
161,-342,0,0,0,0,0,0,0,0,0,-1,1385,1366,0,0
168,-342,0,0,0,0,0,0,0,0,0,-1,1392,1366,0,0
175,-342,0,0,0,0,0,0,0,0,0,-1,1399,1366,0,0
182,-342,0,0,0,0,0,0,0,0,0,-1,1406,1366,0,0
189,-342,0,0,0,0,0,0,0,0,0,-1,1413,1366,0,0
196,-342,0,0,0,0,0,0,0,0,0,-1,1420,1366,0,0
203,-342,0,0,0,0,0,0,0,0,0,-1,1427,1366,0,0
210,-342,0,0,0,0,0,0,0,0,0,-1,1434,1366,0,0
217,-342,0,0,0,0,0,0,0,0,0,-1,1441,1366,0,0
224,-342,0,0,0,0,0,0,0,0,0,-1,1448,1366,0,0
231,-342,0,0,0,0,0,0,0,0,0,-1,1455,1366,0,0
238,-342,0,0,0,0,0,0,0,0,0,-1,1462,1366,0,0
245,-342,0,0,0,0,0,0,0,0,0,-1,1469,1366,0,0
252,-342,0,0,0,0,0,0,0,0,0,-1,1476,1366,0,0
259,-342,0,0,0,0,0,0,0,0,0,-1,1483,1366,0,0
266,-342,0,0,0,0,0,0,0,0,0,-1,1490,1366,0,0
273,-342,0,0,0,0,0,0,0,0,0,-1,1497,1366,0,0
280,-342,0,0,0,0,0,0,0,0,0,-1,1504,1366,0,0
287,-342,0,0,0,0,0,0,0,0,0,-1,1511,1366,0,0
294,-342,0,0,0,0,0,0,0,0,0,-1,1518,1366,0,0
301,-342,0,0,0,0,0,0,0,0,0,-1,1525,1366,0,0
308,-342,0,0,0,0,0,0,0,0,0,-1,1532,1366,0,0
315,-342,0,0,0,0,0,0,0,0,0,-1,1539,1366,0,0
322,-342,0,0,0,0,0,0,0,0,0,-1,1546,1366,0,0
329,-342,0,0,0,0,0,0,0,0,0,-1,1553,1366,0,0
336,-342,0,0,0,0,0,0,0,0,0,-1,1560,1366,0,0
343,-342,0,0,0,0,0,0,0,0,0,-1,1567,1366,0,0
350,-342,0,0,0,0,0,0,0,0,0,-1,1574,1366,0,0
357,-342,0,0,0,0,0,0,0,0,0,-1,1581,1366,0,0
364,-342,0,0,0,0,0,0,0,0,0,-1,1588,1366,0,0
371,-342,0,0,0,0,0,0,0,0,0,-1,1595,1366,0,0
378,-342,0,0,0,0,0,0,0,0,0,-1,1602,1366,0,0
385,-342,0,0,0,0,0,0,0,0,0,-1,1609,1366,0,0
392,-342,0,0,0,0,0,0,0,0,0,-1,1616,1366,0,0
399,-342,0,0,0,0,0,0,0,0,0,-1,1623,1366,0,0
406,-342,0,0,0,0,0,0,0,0,0,-1,1630,1366,0,0
413,-342,0,0,0,0,0,0,0,0,0,-1,1637,1366,0,0
420,-342,0,0,0,0,0,0,0,0,0,-1,1644,1366,0,0
427,-342,0,0,0,0,0,0,0,0,0,-1,1651,1366,0,0
434,-342,0,0,0,0,0,0,0,0,0,-1,1658,1366,0,0
441,-342,0,0,0,0,0,0,0,0,0,-1,1665,1366,0,0
448,-342,0,0,0,0,0,0,0,0,0,-1,1672,1366,0,0
455,-342,0,0,0,0,0,0,0,0,0,-1,1679,1366,0,0
462,-342,0,0,0,0,0,0,0,0,0,-1,1686,1366,0,0
469,-342,0,0,0,0,0,0,0,0,0,-1,1693,1366,0,0
476,-342,0,0,0,0,0,0,0,0,0,-1,1700,1366,0,0
483,-342,0,0,0,0,0,0,0,0,0,-1,1707,1366,0,0
490,-342,0,0,0,0,0,0,0,0,0,-1,1714,1366,0,0
497,-342,0,0,0,0,0,0,0,0,0,-1,1721,1366,0,0
504,-342,0,0,0,0,0,0,0,0,0,-1,1728,1366,0,0
511,-342,0,0,0,0,0,0,0,0,0,-1,1735,1366,0,0
518,-342,0,0,0,0,0,0,0,0,0,-1,1742,1366,0,0
525,-342,0,0,0,0,0,0,0,0,0,-1,1749,1366,0,0
532,-342,0,0,0,0,0,0,0,0,0,-1,1756,1366,0,0
539,-342,0,0,0,0,0,0,0,0,0,-1,1763,1366,0,0
546,-342,0,0,0,0,0,0,0,0,0,-1,1770,1366,0,0
553,-342,0,0,0,0,0,0,0,0,0,-1,1777,1366,0,0
560,-342,0,0,0,0,0,0,0,0,0,-1,1784,1366,0,0
567,-342,28.3505,2.30115,0,0,0,0,0,0,0,-1,1791,1366,28.3504,-2.30121
574,-342,27.6493,2.21936,0,0,0,0,0,0,0,-1,1798,1366,27.6493,-2.2194
581,-342,27.0762,2.03662,0,0,0,0,0,0,0,-1,1805,1366,27.0761,-2.0366
588,-342,34.7487,3.59204,0,0,0,0,0,0,0,-1,1812,1366,34.7486,-3.59208
595,-342,32.9098,4.32629,-0.156506,-0.0807665,0.0486484,-0.0569857,-0.180286,1.11612,0.10641,0.0493042,1819,1366,32.9098,-4.32627
602,-342,31.0818,5.28552,-0.127254,-0.0680918,0.03915,-0.0486038,-0.146741,1.10893,0.0863152,0.04967,1826,1366,31.0818,-5.28547
609,-342,29.3829,5.81714,-0.100906,-0.0569964,0.0306374,-0.0412595,-0.116643,1.09629,0.0682977,0.0465657,1833,1366,29.3829,-5.81711
616,-342,27.7058,6.33801,0,0,0,0,0,0,0,-1,1840,1366,27.7058,-6.33796
623,-342,26.0299,6.86865,0,0,0,0,0,0,0,-1,1847,1366,26.0299,-6.86863
630,-342,17.3431,0.773071,0,0,0,0,0,0,0,-1,1854,1366,17.3432,-0.773095
637,-342,16.196,6.76172,0,0,0,0,0,0,0,-1,1861,1366,16.1961,-6.76174
644,-342,20.0774,9.11719,0,0,0,0,0,0,0,-1,1868,1366,20.0774,-9.11715
651,-342,20.1918,8.85059,-0.016684,-0.0104455,0.00546948,-0.00726831,-0.0198611,1.04454,0.0116034,0.0276958,1875,1366,20.1918,-8.85064
658,-342,20.1681,8.4801,-0.00751132,-0.0044446,0.00289377,-0.00270304,-0.00925288,1.02903,0.00549389,0.0194358,1882,1366,20.1681,-8.48007
665,-342,20.1718,8.14014,-0.00162097,-0.000497279,0.0010327,0.000116524,-0.00223477,1.03453,0.00153017,0.0164565,1889,1366,20.1717,-8.1401
672,-342,20.165,7.86646,-0.00102928,-0.000414464,0.00078552,0.000121657,-0.0015654,0.971909,0.00108643,0.0129278,1896,1366,20.165,-7.86641
679,-342,20.1654,7.57788,-0.000474702,-0.00034278,0.000892502,0.000486195,-0.00130368,0.822284,0.00106871,0.0121125,1903,1366,20.1654,-7.57787
686,-342,20.1761,7.29321,2.7295e-05,-0.000343185,0.000967078,0.000826714,-0.0011426,0.690771,0.00114185,0.0104755,1910,1366,20.1761,-7.29319
693,-342,20.1729,6.98755,0.000541499,-0.000470246,0.000887288,0.00105699,-0.000985739,0.526313,0.00117961,0.0110029,1917,1366,20.1728,-6.98758
700,-342,20.1519,6.69409,0.000942699,-0.000554192,0.00083995,0.00131928,-0.000930773,0.421471,0.00130551,0.0125245,1924,1366,20.1518,-6.6941
707,-342,20.1453,6.36768,0.00125402,-0.000874747,0.000858045,0.00155681,-0.00117753,0.339237,0.00158373,0.0132288,1931,1366,20.1452,-6.36767
714,-342,20.1505,6.11401,0.00128433,-0.00146741,0.00100144,0.00161019,-0.00179327,0.314591,0.00196594,0.0442474,1938,1366,20.1505,-6.11399
721,-342,19.9656,5.63953,0,0,0,0,0,0,0,-1,1945,1366,19.9655,-5.63953
728,-342,19.8912,5.26636,0,0,0,0,0,0,0,-1,1952,1366,19.8913,-5.26636
735,-342,19.481,4.41968,0,0,0,0,0,0,0,-1,1959,1366,19.4809,-4.41962
742,-342,19.309,2.66943,0,0,0,0,0,0,0,-1,1966,1366,19.3089,-2.66948
749,-342,21.0934,6.47729,0,0,0,0,0,0,0,-1,1973,1366,21.0934,-6.4773
756,-342,0,0,0,0,0,0,0,0,0,-1,1980,1366,0,0
763,-342,0,0,0,0,0,0,0,0,0,-1,1987,1366,0,0
770,-342,0,0,0,0,0,0,0,0,0,-1,1994,1366,0,0
777,-342,0,0,0,0,0,0,0,0,0,-1,2001,1366,0,0
784,-342,0,0,0,0,0,0,0,0,0,-1,2008,1366,0,0
791,-342,0,0,0,0,0,0,0,0,0,-1,2015,1366,0,0
798,-342,0,0,0,0,0,0,0,0,0,-1,2022,1366,0,0
805,-342,0,0,0,0,0,0,0,0,0,-1,2029,1366,0,0
812,-342,0,0,0,0,0,0,0,0,0,-1,2036,1366,0,0
-700,-349,0,0,0,0,0,0,0,0,0,-1,524,1373,0,0
-693,-349,0,0,0,0,0,0,0,0,0,-1,531,1373,0,0
-686,-349,0,0,0,0,0,0,0,0,0,-1,538,1373,0,0
-679,-349,0,0,0,0,0,0,0,0,0,-1,545,1373,0,0
-672,-349,0,0,0,0,0,0,0,0,0,-1,552,1373,0,0
-665,-349,0,0,0,0,0,0,0,0,0,-1,559,1373,0,0
-658,-349,0,0,0,0,0,0,0,0,0,-1,566,1373,0,0
-651,-349,0,0,0,0,0,0,0,0,0,-1,573,1373,0,0
-644,-349,0,0,0,0,0,0,0,0,0,-1,580,1373,0,0
-637,-349,0,0,0,0,0,0,0,0,0,-1,587,1373,0,0
-630,-349,-7.64117,-5.06177,0,0,0,0,0,0,0,-1,594,1373,-7.64118,5.0618
-623,-349,-8.63507,0.51123,0,0,0,0,0,0,0,-1,601,1373,-8.63505,-0.511275
-616,-349,-5.2066,-0.188232,0,0,0,0,0,0,0,-1,608,1373,-5.20659,0.188211
-609,-349,-7.12073,1.37048,0,0,0,0,0,0,0,-1,615,1373,-7.12072,-1.37044
-602,-349,-9.00623,3.39587,0,0,0,0,0,0,0,-1,622,1373,-9.0062,-3.39591
-595,-349,-9.50568,2.96912,0,0,0,0,0,0,0,-1,629,1373,-9.50569,-2.96906
-588,-349,-8.60046,3.56042,0,0,0,0,0,0,0,-1,636,1373,-8.60046,-3.56047
-581,-349,-9.19415,3.5481,0,0,0,0,0,0,0,-1,643,1373,-9.19417,-3.5481
-574,-349,-9.32581,4.12524,-0.00824083,0.00177232,-0.00257992,0.00239795,-0.00886646,-1.33289,0.00685163,0.0258238,650,1373,-9.32582,-4.1253
-567,-349,-9.3537,4.54016,-0.00740434,0.0016722,-0.00145683,0.0019003,-0.00763244,-1.41549,0.00582596,0.0170326,657,1373,-9.35371,-4.54017
-560,-349,-9.36243,4.85413,-0.00534494,0.00144482,-0.00109174,0.00161604,-0.00551617,-1.41523,0.00431813,0.0206142,664,1373,-9.36244,-4.85409
-553,-349,-9.38019,5.11194,-0.00282337,0.000795282,-0.000674001,0.000916743,-0.00294483,-1.3925,0.00232972,0.0262447,671,1373,-9.38018,-5.11193
-546,-349,-9.40582,5.45593,-0.00021505,0.000301525,-0.000129205,0.000332039,-0.000245564,-1.33888,0.000334723,0.0280557,678,1373,-9.40582,-5.45595
-539,-349,-9.42194,5.83276,0.00239779,-7.03642e-05,0.000539354,0.00251051,-0.000183079,0.206016,0.00173792,0.0212208,685,1373,-9.42192,-5.83281
-532,-349,-9.39795,6.20093,0.00509276,-0.000321418,0.00131656,0.00539594,-0.00062459,0.22633,0.00382253,0.0155197,692,1373,-9.39796,-6.20094
-525,-349,-9.36151,6.55371,0.00796327,-0.00042318,0.00222343,0.00851629,-0.00097619,0.243774,0.00602932,0.0122481,699,1373,-9.36149,-6.55377
-518,-349,-9.35663,6.92847,0.0107766,-0.000164974,0.00329218,0.0116908,-0.00107917,0.270862,0.00817734,0.0144658,706,1373,-9.35666,-6.92846
-511,-349,-9.19812,7.29895,0.0138832,0.000125065,0.00462511,0.0152934,-0.00128522,0.295963,0.0106499,0.0465338,713,1373,-9.19814,-7.29899
-504,-349,-9.04517,7.57629,0,0,0,0,0,0,0,-1,720,1373,-9.04517,-7.57633
-497,-349,-7.9339,5.58789,0,0,0,0,0,0,0,-1,727,1373,-7.93388,-5.58785
-490,-349,-8.73969,-0.503784,0,0,0,0,0,0,0,-1,734,1373,-8.73966,0.503752
-483,-349,-5.66974,3.7395,0,0,0,0,0,0,0,-1,741,1373,-5.66975,-3.73949
-476,-349,-10.8496,1.15759,0,0,0,0,0,0,0,-1,748,1373,-10.8496,-1.15756
-469,-349,-12.3314,-1.74878,0,0,0,0,0,0,0,-1,755,1373,-12.3314,1.74882
-462,-349,-12.6559,-0.995361,0,0,0,0,0,0,0,-1,762,1373,-12.656,0.995351
-455,-349,-13.2897,-0.234253,0,0,0,0,0,0,0,-1,769,1373,-13.2897,0.234261
-448,-349,-14.045,0.712891,0,0,0,0,0,0,0,-1,776,1373,-14.045,-0.712838
-441,-349,0,0,0,0,0,0,0,0,0,-1,783,1373,0,0
-434,-349,0,0,0,0,0,0,0,0,0,-1,790,1373,0,0
-427,-349,0,0,0,0,0,0,0,0,0,-1,797,1373,0,0
-420,-349,0,0,0,0,0,0,0,0,0,-1,804,1373,0,0
-413,-349,0,0,0,0,0,0,0,0,0,-1,811,1373,0,0
-406,-349,0,0,0,0,0,0,0,0,0,-1,818,1373,0,0
-399,-349,0,0,0,0,0,0,0,0,0,-1,825,1373,0,0
-392,-349,0,0,0,0,0,0,0,0,0,-1,832,1373,0,0
-385,-349,0,0,0,0,0,0,0,0,0,-1,839,1373,0,0
-378,-349,0,0,0,0,0,0,0,0,0,-1,846,1373,0,0
-371,-349,0,0,0,0,0,0,0,0,0,-1,853,1373,0,0
-364,-349,0,0,0,0,0,0,0,0,0,-1,860,1373,0,0
-357,-349,0,0,0,0,0,0,0,0,0,-1,867,1373,0,0
-350,-349,0,0,0,0,0,0,0,0,0,-1,874,1373,0,0
-343,-349,0,0,0,0,0,0,0,0,0,-1,881,1373,0,0
-336,-349,0,0,0,0,0,0,0,0,0,-1,888,1373,0,0
-329,-349,0,0,0,0,0,0,0,0,0,-1,895,1373,0,0
-322,-349,0,0,0,0,0,0,0,0,0,-1,902,1373,0,0
-315,-349,0,0,0,0,0,0,0,0,0,-1,909,1373,0,0
-308,-349,0,0,0,0,0,0,0,0,0,-1,916,1373,0,0
-301,-349,0,0,0,0,0,0,0,0,0,-1,923,1373,0,0
-294,-349,0,0,0,0,0,0,0,0,0,-1,930,1373,0,0
-287,-349,0,0,0,0,0,0,0,0,0,-1,937,1373,0,0
-280,-349,0,0,0,0,0,0,0,0,0,-1,944,1373,0,0
-273,-349,0,0,0,0,0,0,0,0,0,-1,951,1373,0,0
-266,-349,0,0,0,0,0,0,0,0,0,-1,958,1373,0,0
-259,-349,0,0,0,0,0,0,0,0,0,-1,965,1373,0,0
-252,-349,0,0,0,0,0,0,0,0,0,-1,972,1373,0,0
-245,-349,0,0,0,0,0,0,0,0,0,-1,979,1373,0,0
-238,-349,0,0,0,0,0,0,0,0,0,-1,986,1373,0,0
-231,-349,0,0,0,0,0,0,0,0,0,-1,993,1373,0,0
-224,-349,0,0,0,0,0,0,0,0,0,-1,1000,1373,0,0
-217,-349,0,0,0,0,0,0,0,0,0,-1,1007,1373,0,0
-210,-349,0,0,0,0,0,0,0,0,0,-1,1014,1373,0,0
-203,-349,0,0,0,0,0,0,0,0,0,-1,1021,1373,0,0
-196,-349,0,0,0,0,0,0,0,0,0,-1,1028,1373,0,0
-189,-349,0,0,0,0,0,0,0,0,0,-1,1035,1373,0,0
-182,-349,0,0,0,0,0,0,0,0,0,-1,1042,1373,0,0
-175,-349,0,0,0,0,0,0,0,0,0,-1,1049,1373,0,0
-168,-349,0,0,0,0,0,0,0,0,0,-1,1056,1373,0,0
-161,-349,0,0,0,0,0,0,0,0,0,-1,1063,1373,0,0
-154,-349,0,0,0,0,0,0,0,0,0,-1,1070,1373,0,0
-147,-349,0,0,0,0,0,0,0,0,0,-1,1077,1373,0,0
-140,-349,0,0,0,0,0,0,0,0,0,-1,1084,1373,0,0
-133,-349,0,0,0,0,0,0,0,0,0,-1,1091,1373,0,0
-126,-349,0,0,0,0,0,0,0,0,0,-1,1098,1373,0,0
-119,-349,0,0,0,0,0,0,0,0,0,-1,1105,1373,0,0
-112,-349,0,0,0,0,0,0,0,0,0,-1,1112,1373,0,0
-105,-349,0,0,0,0,0,0,0,0,0,-1,1119,1373,0,0
-98,-349,0,0,0,0,0,0,0,0,0,-1,1126,1373,0,0
-91,-349,0,0,0,0,0,0,0,0,0,-1,1133,1373,0,0
-84,-349,0,0,0,0,0,0,0,0,0,-1,1140,1373,0,0
-77,-349,0,0,0,0,0,0,0,0,0,-1,1147,1373,0,0
-70,-349,0,0,0,0,0,0,0,0,0,-1,1154,1373,0,0
-63,-349,0,0,0,0,0,0,0,0,0,-1,1161,1373,0,0
-56,-349,0,0,0,0,0,0,0,0,0,-1,1168,1373,0,0
-49,-349,0,0,0,0,0,0,0,0,0,-1,1175,1373,0,0
-42,-349,0,0,0,0,0,0,0,0,0,-1,1182,1373,0,0
-35,-349,0,0,0,0,0,0,0,0,0,-1,1189,1373,0,0
-28,-349,0,0,0,0,0,0,0,0,0,-1,1196,1373,0,0
-21,-349,0,0,0,0,0,0,0,0,0,-1,1203,1373,0,0
-14,-349,0,0,0,0,0,0,0,0,0,-1,1210,1373,0,0
-7,-349,0,0,0,0,0,0,0,0,0,-1,1217,1373,0,0
0,-349,0,0,0,0,0,0,0,0,0,-1,1224,1373,0,0
7,-349,0,0,0,0,0,0,0,0,0,-1,1231,1373,0,0
14,-349,0,0,0,0,0,0,0,0,0,-1,1238,1373,0,0
21,-349,0,0,0,0,0,0,0,0,0,-1,1245,1373,0,0
28,-349,0,0,0,0,0,0,0,0,0,-1,1252,1373,0,0
35,-349,0,0,0,0,0,0,0,0,0,-1,1259,1373,0,0
42,-349,0,0,0,0,0,0,0,0,0,-1,1266,1373,0,0
49,-349,0,0,0,0,0,0,0,0,0,-1,1273,1373,0,0
56,-349,0,0,0,0,0,0,0,0,0,-1,1280,1373,0,0
63,-349,0,0,0,0,0,0,0,0,0,-1,1287,1373,0,0
70,-349,0,0,0,0,0,0,0,0,0,-1,1294,1373,0,0
77,-349,0,0,0,0,0,0,0,0,0,-1,1301,1373,0,0
84,-349,0,0,0,0,0,0,0,0,0,-1,1308,1373,0,0
91,-349,0,0,0,0,0,0,0,0,0,-1,1315,1373,0,0
98,-349,0,0,0,0,0,0,0,0,0,-1,1322,1373,0,0
105,-349,0,0,0,0,0,0,0,0,0,-1,1329,1373,0,0
112,-349,0,0,0,0,0,0,0,0,0,-1,1336,1373,0,0
119,-349,0,0,0,0,0,0,0,0,0,-1,1343,1373,0,0
126,-349,0,0,0,0,0,0,0,0,0,-1,1350,1373,0,0
133,-349,0,0,0,0,0,0,0,0,0,-1,1357,1373,0,0
140,-349,0,0,0,0,0,0,0,0,0,-1,1364,1373,0,0
147,-349,0,0,0,0,0,0,0,0,0,-1,1371,1373,0,0
154,-349,0,0,0,0,0,0,0,0,0,-1,1378,1373,0,0
161,-349,0,0,0,0,0,0,0,0,0,-1,1385,1373,0,0
168,-349,0,0,0,0,0,0,0,0,0,-1,1392,1373,0,0
175,-349,0,0,0,0,0,0,0,0,0,-1,1399,1373,0,0
182,-349,0,0,0,0,0,0,0,0,0,-1,1406,1373,0,0
189,-349,0,0,0,0,0,0,0,0,0,-1,1413,1373,0,0
196,-349,0,0,0,0,0,0,0,0,0,-1,1420,1373,0,0
203,-349,0,0,0,0,0,0,0,0,0,-1,1427,1373,0,0
210,-349,0,0,0,0,0,0,0,0,0,-1,1434,1373,0,0
217,-349,0,0,0,0,0,0,0,0,0,-1,1441,1373,0,0
224,-349,0,0,0,0,0,0,0,0,0,-1,1448,1373,0,0
231,-349,0,0,0,0,0,0,0,0,0,-1,1455,1373,0,0
238,-349,0,0,0,0,0,0,0,0,0,-1,1462,1373,0,0
245,-349,0,0,0,0,0,0,0,0,0,-1,1469,1373,0,0
252,-349,0,0,0,0,0,0,0,0,0,-1,1476,1373,0,0
259,-349,0,0,0,0,0,0,0,0,0,-1,1483,1373,0,0
266,-349,0,0,0,0,0,0,0,0,0,-1,1490,1373,0,0
273,-349,0,0,0,0,0,0,0,0,0,-1,1497,1373,0,0
280,-349,0,0,0,0,0,0,0,0,0,-1,1504,1373,0,0
287,-349,0,0,0,0,0,0,0,0,0,-1,1511,1373,0,0
294,-349,0,0,0,0,0,0,0,0,0,-1,1518,1373,0,0
301,-349,0,0,0,0,0,0,0,0,0,-1,1525,1373,0,0
308,-349,0,0,0,0,0,0,0,0,0,-1,1532,1373,0,0
315,-349,0,0,0,0,0,0,0,0,0,-1,1539,1373,0,0
322,-349,0,0,0,0,0,0,0,0,0,-1,1546,1373,0,0
329,-349,0,0,0,0,0,0,0,0,0,-1,1553,1373,0,0
336,-349,0,0,0,0,0,0,0,0,0,-1,1560,1373,0,0
343,-349,0,0,0,0,0,0,0,0,0,-1,1567,1373,0,0
350,-349,0,0,0,0,0,0,0,0,0,-1,1574,1373,0,0
357,-349,0,0,0,0,0,0,0,0,0,-1,1581,1373,0,0
364,-349,0,0,0,0,0,0,0,0,0,-1,1588,1373,0,0
371,-349,0,0,0,0,0,0,0,0,0,-1,1595,1373,0,0
378,-349,0,0,0,0,0,0,0,0,0,-1,1602,1373,0,0
385,-349,0,0,0,0,0,0,0,0,0,-1,1609,1373,0,0
392,-349,0,0,0,0,0,0,0,0,0,-1,1616,1373,0,0
399,-349,0,0,0,0,0,0,0,0,0,-1,1623,1373,0,0
406,-349,0,0,0,0,0,0,0,0,0,-1,1630,1373,0,0
413,-349,0,0,0,0,0,0,0,0,0,-1,1637,1373,0,0
420,-349,0,0,0,0,0,0,0,0,0,-1,1644,1373,0,0
427,-349,0,0,0,0,0,0,0,0,0,-1,1651,1373,0,0
434,-349,0,0,0,0,0,0,0,0,0,-1,1658,1373,0,0
441,-349,0,0,0,0,0,0,0,0,0,-1,1665,1373,0,0
448,-349,0,0,0,0,0,0,0,0,0,-1,1672,1373,0,0
455,-349,0,0,0,0,0,0,0,0,0,-1,1679,1373,0,0
462,-349,0,0,0,0,0,0,0,0,0,-1,1686,1373,0,0
469,-349,0,0,0,0,0,0,0,0,0,-1,1693,1373,0,0
476,-349,0,0,0,0,0,0,0,0,0,-1,1700,1373,0,0
483,-349,0,0,0,0,0,0,0,0,0,-1,1707,1373,0,0
490,-349,0,0,0,0,0,0,0,0,0,-1,1714,1373,0,0
497,-349,0,0,0,0,0,0,0,0,0,-1,1721,1373,0,0
504,-349,0,0,0,0,0,0,0,0,0,-1,1728,1373,0,0
511,-349,0,0,0,0,0,0,0,0,0,-1,1735,1373,0,0
518,-349,0,0,0,0,0,0,0,0,0,-1,1742,1373,0,0
525,-349,0,0,0,0,0,0,0,0,0,-1,1749,1373,0,0
532,-349,0,0,0,0,0,0,0,0,0,-1,1756,1373,0,0
539,-349,0,0,0,0,0,0,0,0,0,-1,1763,1373,0,0
546,-349,0,0,0,0,0,0,0,0,0,-1,1770,1373,0,0
553,-349,0,0,0,0,0,0,0,0,0,-1,1777,1373,0,0
560,-349,27.923,2.35205,0,0,0,0,0,0,0,-1,1784,1373,27.9229,-2.35201
567,-349,27.6387,1.99731,0,0,0,0,0,0,0,-1,1791,1373,27.6387,-1.99736
574,-349,26.5557,1.61719,0,0,0,0,0,0,0,-1,1798,1373,26.5557,-1.61715
581,-349,35.3979,4.24744,0,0,0,0,0,0,0,-1,1805,1373,35.3979,-4.24738
588,-349,33.9027,4.60022,-0.202242,-0.0976004,0.0624971,-0.0684144,-0.231428,1.1339,0.137285,0.0449417,1812,1373,33.9027,-4.60022
595,-349,32.3793,4.93115,-0.171335,-0.0827698,0.0532946,-0.0577612,-0.196343,1.13205,0.116516,0.0455655,1819,1373,32.3793,-4.9312
602,-349,30.6421,5.56592,-0.135664,-0.0683393,0.0421111,-0.0480897,-0.155914,1.12258,0.0921927,0.0455481,1826,1373,30.6421,-5.56589
609,-349,28.8674,6.13806,-0.107566,-0.0570124,0.0332762,-0.0405013,-0.124077,1.11021,0.0730604,0.044489,1833,1373,28.8674,-6.13809
616,-349,27.1451,6.68274,0,0,0,0,0,0,0,-1,1840,1373,27.1451,-6.6828
623,-349,18.8478,2.75769,0,0,0,0,0,0,0,-1,1847,1373,18.8478,-2.75774
630,-349,15.4948,6.47644,0,0,0,0,0,0,0,-1,1854,1373,15.4947,-6.4765
637,-349,16.5161,6.92639,0,0,0,0,0,0,0,-1,1861,1373,16.5161,-6.92636
644,-349,19.9407,9.05884,0,0,0,0,0,0,0,-1,1868,1373,19.9406,-9.05882
651,-349,19.9519,8.74915,-0.0148828,-0.00880607,0.00487526,-0.00609989,-0.017589,1.06406,0.0103127,0.0259892,1875,1373,19.9519,-8.74918
658,-349,19.8588,8.45679,-0.00550539,-0.00362752,0.00205215,-0.0023097,-0.00682321,0.999951,0.00400729,0.0248162,1882,1373,19.8588,-8.45677
665,-349,19.8547,8.15149,1.05574e-05,-0.000412423,0.000296222,0.000163039,-0.000564905,0.475382,0.000441111,0.0189922,1889,1373,19.8547,-8.15143
672,-349,19.8693,7.87573,0.000281208,-0.000280407,0.000240127,0.000369878,-0.000369077,0.353733,0.000426636,0.014666,1896,1373,19.8692,-7.87574
679,-349,19.86,7.60205,0.00048714,-0.000151097,0.000510865,0.000770367,-0.000434323,0.50622,0.000704491,0.0140816,1903,1373,19.86,-7.602
686,-349,19.8759,7.29773,0.000674063,-0.000200176,0.000792775,0.00114224,-0.000668355,0.533447,0.00105722,0.0128098,1910,1373,19.8759,-7.29777
693,-349,19.8748,6.98987,0.000943941,-0.000326894,0.000911437,0.00141959,-0.000802545,0.48099,0.00129933,0.0147788,1917,1373,19.8747,-6.98987
700,-349,19.8619,6.71008,0.00118432,-0.000410572,0.00106234,0.00171522,-0.000941467,0.463439,0.00155537,0.0164476,1924,1373,19.862,-6.71012
707,-349,19.9111,6.3689,0.00131848,-0.000732311,0.00128249,0.0019351,-0.00134893,0.448169,0.00190607,0.0284585,1931,1373,19.9112,-6.36893
714,-349,19.798,6.1178,0.00133921,-0.00129744,0.00159159,0.00208756,-0.00204578,0.439515,0.00238643,0.0496286,1938,1373,19.798,-6.11775
721,-349,19.4535,5.68982,0,0,0,0,0,0,0,-1,1945,1373,19.4535,-5.68978
728,-349,18.6333,3.73218,0,0,0,0,0,0,0,-1,1952,1373,18.6333,-3.73214
735,-349,18.1918,3.39954,0,0,0,0,0,0,0,-1,1959,1373,18.1918,-3.3995
742,-349,20.7345,2.07483,0,0,0,0,0,0,0,-1,1966,1373,20.7345,-2.07485
749,-349,21.9037,1.45789,0,0,0,0,0,0,0,-1,1973,1373,21.9037,-1.45788
756,-349,0,0,0,0,0,0,0,0,0,-1,1980,1373,0,0
763,-349,0,0,0,0,0,0,0,0,0,-1,1987,1373,0,0
770,-349,0,0,0,0,0,0,0,0,0,-1,1994,1373,0,0
777,-349,0,0,0,0,0,0,0,0,0,-1,2001,1373,0,0
784,-349,0,0,0,0,0,0,0,0,0,-1,2008,1373,0,0
791,-349,0,0,0,0,0,0,0,0,0,-1,2015,1373,0,0
798,-349,0,0,0,0,0,0,0,0,0,-1,2022,1373,0,0
805,-349,0,0,0,0,0,0,0,0,0,-1,2029,1373,0,0
812,-349,0,0,0,0,0,0,0,0,0,-1,2036,1373,0,0
-700,-356,0,0,0,0,0,0,0,0,0,-1,524,1380,0,0
-693,-356,0,0,0,0,0,0,0,0,0,-1,531,1380,0,0
-686,-356,0,0,0,0,0,0,0,0,0,-1,538,1380,0,0
-679,-356,0,0,0,0,0,0,0,0,0,-1,545,1380,0,0
-672,-356,0,0,0,0,0,0,0,0,0,-1,552,1380,0,0
-665,-356,0,0,0,0,0,0,0,0,0,-1,559,1380,0,0
-658,-356,0,0,0,0,0,0,0,0,0,-1,566,1380,0,0
-651,-356,0,0,0,0,0,0,0,0,0,-1,573,1380,0,0
-644,-356,0,0,0,0,0,0,0,0,0,-1,580,1380,0,0
-637,-356,0,0,0,0,0,0,0,0,0,-1,587,1380,0,0
-630,-356,-8.23126,-5.01917,0,0,0,0,0,0,0,-1,594,1380,-8.23124,5.0192
-623,-356,-0.263855,-0.675781,0,0,0,0,0,0,0,-1,601,1380,-0.263835,0.675841
-616,-356,-8.26532,-3.43945,0,0,0,0,0,0,0,-1,608,1380,-8.2653,3.43948
-609,-356,-4.88483,0.734497,0,0,0,0,0,0,0,-1,615,1380,-4.88485,-0.734532
-602,-356,-9.06635,2.4021,0,0,0,0,0,0,0,-1,622,1380,-9.06634,-2.40206
-595,-356,-8.45703,3.61853,0,0,0,0,0,0,0,-1,629,1380,-8.45706,-3.61848
-588,-356,-9.01166,3.55908,0,0,0,0,0,0,0,-1,636,1380,-9.01167,-3.55904
-581,-356,-8.75726,4.02698,0,0,0,0,0,0,0,-1,643,1380,-8.75727,-4.02693
-574,-356,-8.82245,4.27246,-0.013347,0.00406302,-0.00294409,0.0045474,-0.0138314,-1.40773,0.0110531,0.0357174,650,1380,-8.82244,-4.27246
-567,-356,-9.034,4.48425,-0.0107111,0.00287508,-0.00214076,0.00320442,-0.0110404,-1.41815,0.00862908,0.0176618,657,1380,-9.034,-4.48422
-560,-356,-8.99548,4.85754,-0.00765275,0.00184618,-0.00170151,0.00214177,-0.00794833,-1.39879,0.00613864,0.0171608,664,1380,-8.99547,-4.85754
-553,-356,-9.02179,5.17688,-0.00461334,0.00110368,-0.00111944,0.00131506,-0.00482472,-1.38417,0.00373286,0.0198425,671,1380,-9.02178,-5.1769
-546,-356,-9.07452,5.48376,-0.00159186,0.000568841,-0.000410723,0.00064428,-0.0016673,-1.38915,0.00137747,0.0208594,678,1380,-9.07455,-5.48376
-539,-356,-9.06592,5.8512,0.00135719,0.00020373,0.000396942,0.00148059,8.03316e-05,0.301402,0.000961404,0.014051,685,1380,-9.06595,-5.85124
-532,-356,-9.06787,6.20044,0.00428158,-5.59979e-06,0.00129859,0.00464425,-0.000368264,0.272337,0.00322593,0.013616,692,1380,-9.06787,-6.20044
-525,-356,-9.06171,6.54114,0.00723326,-0.000100535,0.00228775,0.00788839,-0.000755665,0.278901,0.00552806,0.0120307,699,1380,-9.06172,-6.54118
-518,-356,-9.03589,6.90271,0.0100635,0.000165746,0.003448,0.0111462,-0.000916967,0.304262,0.00775455,0.0119473,706,1380,-9.03586,-6.9027
-511,-356,-8.8562,7.30469,0.0129651,0.000477129,0.00482039,0.0146093,-0.00116708,0.328719,0.0101509,0.0316916,713,1380,-8.8562,-7.30469
-504,-356,-8.66229,7.78442,0,0,0,0,0,0,0,-1,720,1380,-8.66232,-7.78444
-497,-356,-5.68604,4.96387,0,0,0,0,0,0,0,-1,727,1380,-5.68605,-4.96385
-490,-356,-7.95288,5.5625,0,0,0,0,0,0,0,-1,734,1380,-7.95285,-5.56246
-483,-356,-7.2627,4.07446,0,0,0,0,0,0,0,-1,741,1380,-7.2627,-4.07441
-476,-356,-5.1936,4.16016,0,0,0,0,0,0,0,-1,748,1380,-5.1936,-4.16012
-469,-356,-10.0883,0.536011,0,0,0,0,0,0,0,-1,755,1380,-10.0883,-0.535989
-462,-356,-12.3481,-0.215698,0,0,0,0,0,0,0,-1,762,1380,-12.3481,0.215641
-455,-356,-13.1367,-0.264648,0,0,0,0,0,0,0,-1,769,1380,-13.1367,0.264647
-448,-356,-13.9116,-0.310181,0,0,0,0,0,0,0,-1,776,1380,-13.9115,0.310207
-441,-356,-13.1602,3.05603,0,0,0,0,0,0,0,-1,783,1380,-13.1602,-3.05609
-434,-356,0,0,0,0,0,0,0,0,0,-1,790,1380,0,0
-427,-356,0,0,0,0,0,0,0,0,0,-1,797,1380,0,0
-420,-356,0,0,0,0,0,0,0,0,0,-1,804,1380,0,0
-413,-356,0,0,0,0,0,0,0,0,0,-1,811,1380,0,0
-406,-356,0,0,0,0,0,0,0,0,0,-1,818,1380,0,0
-399,-356,0,0,0,0,0,0,0,0,0,-1,825,1380,0,0
-392,-356,0,0,0,0,0,0,0,0,0,-1,832,1380,0,0
-385,-356,0,0,0,0,0,0,0,0,0,-1,839,1380,0,0
-378,-356,0,0,0,0,0,0,0,0,0,-1,846,1380,0,0
-371,-356,0,0,0,0,0,0,0,0,0,-1,853,1380,0,0
-364,-356,0,0,0,0,0,0,0,0,0,-1,860,1380,0,0
-357,-356,0,0,0,0,0,0,0,0,0,-1,867,1380,0,0
-350,-356,0,0,0,0,0,0,0,0,0,-1,874,1380,0,0
-343,-356,0,0,0,0,0,0,0,0,0,-1,881,1380,0,0
-336,-356,0,0,0,0,0,0,0,0,0,-1,888,1380,0,0
-329,-356,0,0,0,0,0,0,0,0,0,-1,895,1380,0,0
-322,-356,0,0,0,0,0,0,0,0,0,-1,902,1380,0,0
-315,-356,0,0,0,0,0,0,0,0,0,-1,909,1380,0,0
-308,-356,0,0,0,0,0,0,0,0,0,-1,916,1380,0,0
-301,-356,0,0,0,0,0,0,0,0,0,-1,923,1380,0,0
-294,-356,0,0,0,0,0,0,0,0,0,-1,930,1380,0,0
-287,-356,0,0,0,0,0,0,0,0,0,-1,937,1380,0,0
-280,-356,0,0,0,0,0,0,0,0,0,-1,944,1380,0,0
-273,-356,0,0,0,0,0,0,0,0,0,-1,951,1380,0,0
-266,-356,0,0,0,0,0,0,0,0,0,-1,958,1380,0,0
-259,-356,0,0,0,0,0,0,0,0,0,-1,965,1380,0,0
-252,-356,0,0,0,0,0,0,0,0,0,-1,972,1380,0,0
-245,-356,0,0,0,0,0,0,0,0,0,-1,979,1380,0,0
-238,-356,0,0,0,0,0,0,0,0,0,-1,986,1380,0,0
-231,-356,0,0,0,0,0,0,0,0,0,-1,993,1380,0,0
-224,-356,0,0,0,0,0,0,0,0,0,-1,1000,1380,0,0
-217,-356,0,0,0,0,0,0,0,0,0,-1,1007,1380,0,0
-210,-356,0,0,0,0,0,0,0,0,0,-1,1014,1380,0,0
-203,-356,0,0,0,0,0,0,0,0,0,-1,1021,1380,0,0
-196,-356,0,0,0,0,0,0,0,0,0,-1,1028,1380,0,0
-189,-356,0,0,0,0,0,0,0,0,0,-1,1035,1380,0,0
-182,-356,0,0,0,0,0,0,0,0,0,-1,1042,1380,0,0
-175,-356,0,0,0,0,0,0,0,0,0,-1,1049,1380,0,0
-168,-356,0,0,0,0,0,0,0,0,0,-1,1056,1380,0,0
-161,-356,0,0,0,0,0,0,0,0,0,-1,1063,1380,0,0
-154,-356,0,0,0,0,0,0,0,0,0,-1,1070,1380,0,0
-147,-356,0,0,0,0,0,0,0,0,0,-1,1077,1380,0,0
-140,-356,0,0,0,0,0,0,0,0,0,-1,1084,1380,0,0
-133,-356,0,0,0,0,0,0,0,0,0,-1,1091,1380,0,0
-126,-356,0,0,0,0,0,0,0,0,0,-1,1098,1380,0,0
-119,-356,0,0,0,0,0,0,0,0,0,-1,1105,1380,0,0
-112,-356,0,0,0,0,0,0,0,0,0,-1,1112,1380,0,0
-105,-356,0,0,0,0,0,0,0,0,0,-1,1119,1380,0,0
-98,-356,0,0,0,0,0,0,0,0,0,-1,1126,1380,0,0
-91,-356,0,0,0,0,0,0,0,0,0,-1,1133,1380,0,0
-84,-356,0,0,0,0,0,0,0,0,0,-1,1140,1380,0,0
-77,-356,0,0,0,0,0,0,0,0,0,-1,1147,1380,0,0
-70,-356,0,0,0,0,0,0,0,0,0,-1,1154,1380,0,0
-63,-356,0,0,0,0,0,0,0,0,0,-1,1161,1380,0,0
-56,-356,0,0,0,0,0,0,0,0,0,-1,1168,1380,0,0
-49,-356,0,0,0,0,0,0,0,0,0,-1,1175,1380,0,0
-42,-356,0,0,0,0,0,0,0,0,0,-1,1182,1380,0,0
-35,-356,0,0,0,0,0,0,0,0,0,-1,1189,1380,0,0
-28,-356,0,0,0,0,0,0,0,0,0,-1,1196,1380,0,0
-21,-356,0,0,0,0,0,0,0,0,0,-1,1203,1380,0,0
-14,-356,0,0,0,0,0,0,0,0,0,-1,1210,1380,0,0
-7,-356,0,0,0,0,0,0,0,0,0,-1,1217,1380,0,0
0,-356,0,0,0,0,0,0,0,0,0,-1,1224,1380,0,0
7,-356,0,0,0,0,0,0,0,0,0,-1,1231,1380,0,0
14,-356,0,0,0,0,0,0,0,0,0,-1,1238,1380,0,0
21,-356,0,0,0,0,0,0,0,0,0,-1,1245,1380,0,0
28,-356,0,0,0,0,0,0,0,0,0,-1,1252,1380,0,0
35,-356,0,0,0,0,0,0,0,0,0,-1,1259,1380,0,0
42,-356,0,0,0,0,0,0,0,0,0,-1,1266,1380,0,0
49,-356,0,0,0,0,0,0,0,0,0,-1,1273,1380,0,0
56,-356,0,0,0,0,0,0,0,0,0,-1,1280,1380,0,0
63,-356,0,0,0,0,0,0,0,0,0,-1,1287,1380,0,0
70,-356,0,0,0,0,0,0,0,0,0,-1,1294,1380,0,0
77,-356,0,0,0,0,0,0,0,0,0,-1,1301,1380,0,0
84,-356,0,0,0,0,0,0,0,0,0,-1,1308,1380,0,0
91,-356,0,0,0,0,0,0,0,0,0,-1,1315,1380,0,0
98,-356,0,0,0,0,0,0,0,0,0,-1,1322,1380,0,0
105,-356,0,0,0,0,0,0,0,0,0,-1,1329,1380,0,0
112,-356,0,0,0,0,0,0,0,0,0,-1,1336,1380,0,0
119,-356,0,0,0,0,0,0,0,0,0,-1,1343,1380,0,0
126,-356,0,0,0,0,0,0,0,0,0,-1,1350,1380,0,0
133,-356,0,0,0,0,0,0,0,0,0,-1,1357,1380,0,0
140,-356,0,0,0,0,0,0,0,0,0,-1,1364,1380,0,0
147,-356,0,0,0,0,0,0,0,0,0,-1,1371,1380,0,0
154,-356,0,0,0,0,0,0,0,0,0,-1,1378,1380,0,0
161,-356,0,0,0,0,0,0,0,0,0,-1,1385,1380,0,0
168,-356,0,0,0,0,0,0,0,0,0,-1,1392,1380,0,0
175,-356,0,0,0,0,0,0,0,0,0,-1,1399,1380,0,0
182,-356,0,0,0,0,0,0,0,0,0,-1,1406,1380,0,0
189,-356,0,0,0,0,0,0,0,0,0,-1,1413,1380,0,0
196,-356,0,0,0,0,0,0,0,0,0,-1,1420,1380,0,0
203,-356,0,0,0,0,0,0,0,0,0,-1,1427,1380,0,0
210,-356,0,0,0,0,0,0,0,0,0,-1,1434,1380,0,0
217,-356,0,0,0,0,0,0,0,0,0,-1,1441,1380,0,0
224,-356,0,0,0,0,0,0,0,0,0,-1,1448,1380,0,0
231,-356,0,0,0,0,0,0,0,0,0,-1,1455,1380,0,0
238,-356,0,0,0,0,0,0,0,0,0,-1,1462,1380,0,0
245,-356,0,0,0,0,0,0,0,0,0,-1,1469,1380,0,0
252,-356,0,0,0,0,0,0,0,0,0,-1,1476,1380,0,0
259,-356,0,0,0,0,0,0,0,0,0,-1,1483,1380,0,0
266,-356,0,0,0,0,0,0,0,0,0,-1,1490,1380,0,0
273,-356,0,0,0,0,0,0,0,0,0,-1,1497,1380,0,0
280,-356,0,0,0,0,0,0,0,0,0,-1,1504,1380,0,0
287,-356,0,0,0,0,0,0,0,0,0,-1,1511,1380,0,0
294,-356,0,0,0,0,0,0,0,0,0,-1,1518,1380,0,0
301,-356,0,0,0,0,0,0,0,0,0,-1,1525,1380,0,0
308,-356,0,0,0,0,0,0,0,0,0,-1,1532,1380,0,0
315,-356,0,0,0,0,0,0,0,0,0,-1,1539,1380,0,0
322,-356,0,0,0,0,0,0,0,0,0,-1,1546,1380,0,0
329,-356,0,0,0,0,0,0,0,0,0,-1,1553,1380,0,0
336,-356,0,0,0,0,0,0,0,0,0,-1,1560,1380,0,0
343,-356,0,0,0,0,0,0,0,0,0,-1,1567,1380,0,0
350,-356,0,0,0,0,0,0,0,0,0,-1,1574,1380,0,0
357,-356,0,0,0,0,0,0,0,0,0,-1,1581,1380,0,0
364,-356,0,0,0,0,0,0,0,0,0,-1,1588,1380,0,0
371,-356,0,0,0,0,0,0,0,0,0,-1,1595,1380,0,0
378,-356,0,0,0,0,0,0,0,0,0,-1,1602,1380,0,0
385,-356,0,0,0,0,0,0,0,0,0,-1,1609,1380,0,0
392,-356,0,0,0,0,0,0,0,0,0,-1,1616,1380,0,0
399,-356,0,0,0,0,0,0,0,0,0,-1,1623,1380,0,0
406,-356,0,0,0,0,0,0,0,0,0,-1,1630,1380,0,0
413,-356,0,0,0,0,0,0,0,0,0,-1,1637,1380,0,0
420,-356,0,0,0,0,0,0,0,0,0,-1,1644,1380,0,0
427,-356,0,0,0,0,0,0,0,0,0,-1,1651,1380,0,0
434,-356,0,0,0,0,0,0,0,0,0,-1,1658,1380,0,0
441,-356,0,0,0,0,0,0,0,0,0,-1,1665,1380,0,0
448,-356,0,0,0,0,0,0,0,0,0,-1,1672,1380,0,0
455,-356,0,0,0,0,0,0,0,0,0,-1,1679,1380,0,0
462,-356,0,0,0,0,0,0,0,0,0,-1,1686,1380,0,0
469,-356,0,0,0,0,0,0,0,0,0,-1,1693,1380,0,0
476,-356,0,0,0,0,0,0,0,0,0,-1,1700,1380,0,0
483,-356,0,0,0,0,0,0,0,0,0,-1,1707,1380,0,0
490,-356,0,0,0,0,0,0,0,0,0,-1,1714,1380,0,0
497,-356,0,0,0,0,0,0,0,0,0,-1,1721,1380,0,0
504,-356,0,0,0,0,0,0,0,0,0,-1,1728,1380,0,0
511,-356,0,0,0,0,0,0,0,0,0,-1,1735,1380,0,0
518,-356,0,0,0,0,0,0,0,0,0,-1,1742,1380,0,0
525,-356,0,0,0,0,0,0,0,0,0,-1,1749,1380,0,0
532,-356,0,0,0,0,0,0,0,0,0,-1,1756,1380,0,0
539,-356,0,0,0,0,0,0,0,0,0,-1,1763,1380,0,0
546,-356,0,0,0,0,0,0,0,0,0,-1,1770,1380,0,0
553,-356,0,0,0,0,0,0,0,0,0,-1,1777,1380,0,0
560,-356,27.4741,2.35632,0,0,0,0,0,0,0,-1,1784,1380,27.4741,-2.35628
567,-356,27.629,2.0238,0,0,0,0,0,0,0,-1,1791,1380,27.629,-2.02379
574,-356,27.6868,1.91602,0,0,0,0,0,0,0,-1,1798,1380,27.6868,-1.91596
581,-356,34.6188,4.91785,0,0,0,0,0,0,0,-1,1805,1380,34.6188,-4.91788
588,-356,33.3516,5.48169,-0.203735,-0.100094,0.0658752,-0.0680996,-0.235729,1.11867,0.140084,0.0445519,1812,1380,33.3516,-5.48166
595,-356,32.0834,5.86084,-0.167976,-0.0821993,0.0536594,-0.0563946,-0.193781,1.12255,0.115091,0.0472299,1819,1380,32.0834,-5.86079
602,-356,30.1604,6.07104,0,0,0,0,0,0,0,-1,1826,1380,30.1604,-6.07104
609,-356,28.3435,6.48901,0,0,0,0,0,0,0,-1,1833,1380,28.3435,-6.48899
616,-356,26.9358,6.80872,0,0,0,0,0,0,0,-1,1840,1380,26.9358,-6.80877
623,-356,16.1803,1.07532,0,0,0,0,0,0,0,-1,1847,1380,16.1803,-1.07529
630,-356,16.4138,6.91553,0,0,0,0,0,0,0,-1,1854,1380,16.4138,-6.9155
637,-356,19.5287,9.73242,0,0,0,0,0,0,0,-1,1861,1380,19.5287,-9.7324
644,-356,19.5406,9.19324,-0.0261813,-0.0133392,0.00734728,-0.0100025,-0.0295179,1.14451,0.0173347,0.0382894,1868,1380,19.5407,-9.19321
651,-356,19.6036,8.74475,-0.0124355,-0.00626636,0.00314993,-0.00494223,-0.0137596,1.17285,0.00804844,0.0158224,1875,1380,19.6036,-8.74479
658,-356,19.571,8.42554,-0.00375263,-0.00230435,0.000730592,-0.00199983,-0.00405715,1.17588,0.00234248,0.0134574,1882,1380,19.571,-8.42556
665,-356,19.5596,8.17664,0.000892431,-8.62186e-05,-0.000443454,0.00106348,-0.000257265,-0.36813,0.0008085,0.0132105,1889,1380,19.5596,-8.1766
672,-356,19.5382,7.91956,0.00091356,-6.58829e-05,-8.80043e-05,0.000921404,-7.37274e-05,-0.0889026,0.000640262,0.015221,1896,1380,19.5382,-7.9195
679,-356,19.5374,7.62439,0.000918887,1.20245e-05,0.000363215,0.00104642,-0.000115513,0.337686,0.000739136,0.0178323,1903,1380,19.5373,-7.62441
686,-356,19.5269,7.29321,0.000952508,-4.86715e-05,0.000787626,0.00138516,-0.000481326,0.502317,0.00111894,0.0160488,1910,1380,19.5268,-7.29316
693,-356,19.5516,6.99109,0.00108506,-0.000144764,0.00106676,0.00170145,-0.000761152,0.523945,0.00145592,0.0132396,1917,1380,19.5516,-6.99109
700,-356,19.5784,6.68982,0.00117347,-0.000199347,0.00145705,0.0020977,-0.00112358,0.56527,0.00188794,0.0185829,1924,1380,19.5783,-6.68976
707,-356,19.6376,6.38599,0,0,0,0,0,0,0,-1,1931,1380,19.6376,-6.38602
714,-356,19.4596,5.48706,0,0,0,0,0,0,0,-1,1938,1380,19.4596,-5.48709
721,-356,17.2948,4.1958,0,0,0,0,0,0,0,-1,1945,1380,17.2948,-4.19584
728,-356,19.1846,2.31519,0,0,0,0,0,0,0,-1,1952,1380,19.1846,-2.31514
735,-356,20.0731,2.50842,0,0,0,0,0,0,0,-1,1959,1380,20.0731,-2.50844
742,-356,21.0111,2.43762,0,0,0,0,0,0,0,-1,1966,1380,21.0112,-2.43762
749,-356,22.1411,1.83276,0,0,0,0,0,0,0,-1,1973,1380,22.1411,-1.83275
756,-356,0,0,0,0,0,0,0,0,0,-1,1980,1380,0,0
763,-356,0,0,0,0,0,0,0,0,0,-1,1987,1380,0,0
770,-356,0,0,0,0,0,0,0,0,0,-1,1994,1380,0,0
777,-356,0,0,0,0,0,0,0,0,0,-1,2001,1380,0,0
784,-356,0,0,0,0,0,0,0,0,0,-1,2008,1380,0,0
791,-356,0,0,0,0,0,0,0,0,0,-1,2015,1380,0,0
798,-356,0,0,0,0,0,0,0,0,0,-1,2022,1380,0,0
805,-356,0,0,0,0,0,0,0,0,0,-1,2029,1380,0,0
812,-356,0,0,0,0,0,0,0,0,0,-1,2036,1380,0,0
-700,-363,0,0,0,0,0,0,0,0,0,-1,524,1387,0,0
-693,-363,0,0,0,0,0,0,0,0,0,-1,531,1387,0,0
-686,-363,0,0,0,0,0,0,0,0,0,-1,538,1387,0,0
-679,-363,0,0,0,0,0,0,0,0,0,-1,545,1387,0,0
-672,-363,0,0,0,0,0,0,0,0,0,-1,552,1387,0,0
-665,-363,0,0,0,0,0,0,0,0,0,-1,559,1387,0,0
-658,-363,0,0,0,0,0,0,0,0,0,-1,566,1387,0,0
-651,-363,0,0,0,0,0,0,0,0,0,-1,573,1387,0,0
-644,-363,0,0,0,0,0,0,0,0,0,-1,580,1387,0,0
-637,-363,0,0,0,0,0,0,0,0,0,-1,587,1387,0,0
-630,-363,0,0,0,0,0,0,0,0,0,-1,594,1387,0,0
-623,-363,-9.67566,-5.91846,0,0,0,0,0,0,0,-1,601,1387,-9.67563,5.91847
-616,-363,-9.02985,-2.98083,0,0,0,0,0,0,0,-1,608,1387,-9.02987,2.98079
-609,-363,-4.90265,0.195679,0,0,0,0,0,0,0,-1,615,1387,-4.90263,-0.195721
-602,-363,-9.65009,3.5321,0,0,0,0,0,0,0,-1,622,1387,-9.65007,-3.53211
-595,-363,-8.77417,2.44104,0,0,0,0,0,0,0,-1,629,1387,-8.77415,-2.44107
-588,-363,-8.10352,2.58936,0,0,0,0,0,0,0,-1,636,1387,-8.10354,-2.58938
-581,-363,-8.25208,3.53345,0,0,0,0,0,0,0,-1,643,1387,-8.25205,-3.53346
-574,-363,-8.61426,4.13293,0,0,0,0,0,0,0,-1,650,1387,-8.61428,-4.13299
-567,-363,-8.67578,4.52527,-0.0143393,0.00340751,-0.00306268,0.00392119,-0.0148529,-1.40462,0.0114354,0.0260758,657,1387,-8.67578,-4.52527
-560,-363,-8.67383,4.82202,-0.0105587,0.00213453,-0.00248006,0.00260188,-0.0110261,-1.38453,0.0083542,0.0122782,664,1387,-8.67383,-4.82204
-553,-363,-8.68506,5.18518,-0.00697894,0.00127626,-0.00177896,0.0016433,-0.00734598,-1.36733,0.00552712,0.0129381,671,1387,-8.68504,-5.18512
-546,-363,-8.70203,5.51477,-0.00355236,0.000687352,-0.000948238,0.000889767,-0.00375478,-1.36049,0.00284651,0.0129022,678,1387,-8.70206,-5.51475
-539,-363,-8.68927,5.84473,-0.000303281,0.000332366,-3.59695e-05,0.000334395,-0.00030531,-1.51445,0.000369461,0.0140686,685,1387,-8.68928,-5.84468
-532,-363,-8.70984,6.20447,0.00281509,0.000172191,0.000964925,0.00312989,-0.000142607,0.315354,0.00213572,0.0125012,692,1387,-8.70986,-6.20447
-525,-363,-8.7099,6.54663,0.00582831,0.000114381,0.00202698,0.00647433,-0.000531639,0.308533,0.0045039,0.0112278,699,1387,-8.70991,-6.54657
-518,-363,-8.6994,6.88477,0.00861476,0.000354633,0.00321636,0.00971943,-0.000750032,0.33083,0.00674355,0.00983712,706,1387,-8.69941,-6.8848
-511,-363,-8.62268,7.25403,0.0111491,0.000566993,0.00442522,0.0127557,-0.00103961,0.348259,0.0088707,0.0178427,713,1387,-8.62267,-7.25398
-504,-363,-8.51819,7.64185,0,0,0,0,0,0,0,-1,720,1387,-8.51816,-7.64185
-497,-363,-7.18842,7.29944,0,0,0,0,0,0,0,-1,727,1387,-7.18839,-7.29945
-490,-363,-5.42413,4.6958,0,0,0,0,0,0,0,-1,734,1387,-5.42412,-4.69583
-483,-363,-6.28375,4.1394,0,0,0,0,0,0,0,-1,741,1387,-6.28374,-4.13944
-476,-363,-5.83807,4.31018,0,0,0,0,0,0,0,-1,748,1387,-5.8381,-4.31013
-469,-363,-10.7125,0.697754,0,0,0,0,0,0,0,-1,755,1387,-10.7125,-0.697811
-462,-363,-9.55951,-0.0830078,0,0,0,0,0,0,0,-1,762,1387,-9.55949,0.0830163
-455,-363,-13.1008,-0.290894,0,0,0,0,0,0,0,-1,769,1387,-13.1008,0.290921
-448,-363,-11.7324,2.46606,0,0,0,0,0,0,0,-1,776,1387,-11.7324,-2.46605
-441,-363,-12.4464,2.5354,0,0,0,0,0,0,0,-1,783,1387,-12.4463,-2.53537
-434,-363,-13.6918,2.14661,0,0,0,0,0,0,0,-1,790,1387,-13.6918,-2.14662
-427,-363,0,0,0,0,0,0,0,0,0,-1,797,1387,0,0
-420,-363,0,0,0,0,0,0,0,0,0,-1,804,1387,0,0
-413,-363,0,0,0,0,0,0,0,0,0,-1,811,1387,0,0
-406,-363,0,0,0,0,0,0,0,0,0,-1,818,1387,0,0
-399,-363,0,0,0,0,0,0,0,0,0,-1,825,1387,0,0
-392,-363,0,0,0,0,0,0,0,0,0,-1,832,1387,0,0
-385,-363,0,0,0,0,0,0,0,0,0,-1,839,1387,0,0
-378,-363,0,0,0,0,0,0,0,0,0,-1,846,1387,0,0
-371,-363,0,0,0,0,0,0,0,0,0,-1,853,1387,0,0
-364,-363,0,0,0,0,0,0,0,0,0,-1,860,1387,0,0
-357,-363,0,0,0,0,0,0,0,0,0,-1,867,1387,0,0
-350,-363,0,0,0,0,0,0,0,0,0,-1,874,1387,0,0
-343,-363,0,0,0,0,0,0,0,0,0,-1,881,1387,0,0
-336,-363,0,0,0,0,0,0,0,0,0,-1,888,1387,0,0
-329,-363,0,0,0,0,0,0,0,0,0,-1,895,1387,0,0
-322,-363,0,0,0,0,0,0,0,0,0,-1,902,1387,0,0
-315,-363,0,0,0,0,0,0,0,0,0,-1,909,1387,0,0
-308,-363,0,0,0,0,0,0,0,0,0,-1,916,1387,0,0
-301,-363,0,0,0,0,0,0,0,0,0,-1,923,1387,0,0
-294,-363,0,0,0,0,0,0,0,0,0,-1,930,1387,0,0
-287,-363,0,0,0,0,0,0,0,0,0,-1,937,1387,0,0
-280,-363,0,0,0,0,0,0,0,0,0,-1,944,1387,0,0
-273,-363,0,0,0,0,0,0,0,0,0,-1,951,1387,0,0
-266,-363,0,0,0,0,0,0,0,0,0,-1,958,1387,0,0
-259,-363,0,0,0,0,0,0,0,0,0,-1,965,1387,0,0
-252,-363,0,0,0,0,0,0,0,0,0,-1,972,1387,0,0
-245,-363,0,0,0,0,0,0,0,0,0,-1,979,1387,0,0
-238,-363,0,0,0,0,0,0,0,0,0,-1,986,1387,0,0
-231,-363,0,0,0,0,0,0,0,0,0,-1,993,1387,0,0
-224,-363,0,0,0,0,0,0,0,0,0,-1,1000,1387,0,0
-217,-363,0,0,0,0,0,0,0,0,0,-1,1007,1387,0,0
-210,-363,0,0,0,0,0,0,0,0,0,-1,1014,1387,0,0
-203,-363,0,0,0,0,0,0,0,0,0,-1,1021,1387,0,0
-196,-363,0,0,0,0,0,0,0,0,0,-1,1028,1387,0,0
-189,-363,0,0,0,0,0,0,0,0,0,-1,1035,1387,0,0
-182,-363,0,0,0,0,0,0,0,0,0,-1,1042,1387,0,0
-175,-363,0,0,0,0,0,0,0,0,0,-1,1049,1387,0,0
-168,-363,0,0,0,0,0,0,0,0,0,-1,1056,1387,0,0
-161,-363,0,0,0,0,0,0,0,0,0,-1,1063,1387,0,0
-154,-363,0,0,0,0,0,0,0,0,0,-1,1070,1387,0,0
-147,-363,0,0,0,0,0,0,0,0,0,-1,1077,1387,0,0
-140,-363,0,0,0,0,0,0,0,0,0,-1,1084,1387,0,0
-133,-363,0,0,0,0,0,0,0,0,0,-1,1091,1387,0,0
-126,-363,0,0,0,0,0,0,0,0,0,-1,1098,1387,0,0
-119,-363,0,0,0,0,0,0,0,0,0,-1,1105,1387,0,0
-112,-363,0,0,0,0,0,0,0,0,0,-1,1112,1387,0,0
-105,-363,0,0,0,0,0,0,0,0,0,-1,1119,1387,0,0
-98,-363,0,0,0,0,0,0,0,0,0,-1,1126,1387,0,0
-91,-363,0,0,0,0,0,0,0,0,0,-1,1133,1387,0,0
-84,-363,0,0,0,0,0,0,0,0,0,-1,1140,1387,0,0
-77,-363,0,0,0,0,0,0,0,0,0,-1,1147,1387,0,0
-70,-363,0,0,0,0,0,0,0,0,0,-1,1154,1387,0,0
-63,-363,0,0,0,0,0,0,0,0,0,-1,1161,1387,0,0
-56,-363,0,0,0,0,0,0,0,0,0,-1,1168,1387,0,0
-49,-363,0,0,0,0,0,0,0,0,0,-1,1175,1387,0,0
-42,-363,0,0,0,0,0,0,0,0,0,-1,1182,1387,0,0
-35,-363,0,0,0,0,0,0,0,0,0,-1,1189,1387,0,0
-28,-363,0,0,0,0,0,0,0,0,0,-1,1196,1387,0,0
-21,-363,0,0,0,0,0,0,0,0,0,-1,1203,1387,0,0
-14,-363,0,0,0,0,0,0,0,0,0,-1,1210,1387,0,0
-7,-363,0,0,0,0,0,0,0,0,0,-1,1217,1387,0,0
0,-363,0,0,0,0,0,0,0,0,0,-1,1224,1387,0,0
7,-363,0,0,0,0,0,0,0,0,0,-1,1231,1387,0,0
14,-363,0,0,0,0,0,0,0,0,0,-1,1238,1387,0,0
21,-363,0,0,0,0,0,0,0,0,0,-1,1245,1387,0,0
28,-363,0,0,0,0,0,0,0,0,0,-1,1252,1387,0,0
35,-363,0,0,0,0,0,0,0,0,0,-1,1259,1387,0,0
42,-363,0,0,0,0,0,0,0,0,0,-1,1266,1387,0,0
49,-363,0,0,0,0,0,0,0,0,0,-1,1273,1387,0,0
56,-363,0,0,0,0,0,0,0,0,0,-1,1280,1387,0,0
63,-363,0,0,0,0,0,0,0,0,0,-1,1287,1387,0,0
70,-363,0,0,0,0,0,0,0,0,0,-1,1294,1387,0,0
77,-363,0,0,0,0,0,0,0,0,0,-1,1301,1387,0,0
84,-363,0,0,0,0,0,0,0,0,0,-1,1308,1387,0,0
91,-363,0,0,0,0,0,0,0,0,0,-1,1315,1387,0,0
98,-363,0,0,0,0,0,0,0,0,0,-1,1322,1387,0,0
105,-363,0,0,0,0,0,0,0,0,0,-1,1329,1387,0,0
112,-363,0,0,0,0,0,0,0,0,0,-1,1336,1387,0,0
119,-363,0,0,0,0,0,0,0,0,0,-1,1343,1387,0,0
126,-363,0,0,0,0,0,0,0,0,0,-1,1350,1387,0,0
133,-363,0,0,0,0,0,0,0,0,0,-1,1357,1387,0,0
140,-363,0,0,0,0,0,0,0,0,0,-1,1364,1387,0,0
147,-363,0,0,0,0,0,0,0,0,0,-1,1371,1387,0,0
154,-363,0,0,0,0,0,0,0,0,0,-1,1378,1387,0,0
161,-363,0,0,0,0,0,0,0,0,0,-1,1385,1387,0,0
168,-363,0,0,0,0,0,0,0,0,0,-1,1392,1387,0,0
175,-363,0,0,0,0,0,0,0,0,0,-1,1399,1387,0,0
182,-363,0,0,0,0,0,0,0,0,0,-1,1406,1387,0,0
189,-363,0,0,0,0,0,0,0,0,0,-1,1413,1387,0,0
196,-363,0,0,0,0,0,0,0,0,0,-1,1420,1387,0,0
203,-363,0,0,0,0,0,0,0,0,0,-1,1427,1387,0,0
210,-363,0,0,0,0,0,0,0,0,0,-1,1434,1387,0,0
217,-363,0,0,0,0,0,0,0,0,0,-1,1441,1387,0,0
224,-363,0,0,0,0,0,0,0,0,0,-1,1448,1387,0,0
231,-363,0,0,0,0,0,0,0,0,0,-1,1455,1387,0,0
238,-363,0,0,0,0,0,0,0,0,0,-1,1462,1387,0,0
245,-363,0,0,0,0,0,0,0,0,0,-1,1469,1387,0,0
252,-363,0,0,0,0,0,0,0,0,0,-1,1476,1387,0,0
259,-363,0,0,0,0,0,0,0,0,0,-1,1483,1387,0,0
266,-363,0,0,0,0,0,0,0,0,0,-1,1490,1387,0,0
273,-363,0,0,0,0,0,0,0,0,0,-1,1497,1387,0,0
280,-363,0,0,0,0,0,0,0,0,0,-1,1504,1387,0,0
287,-363,0,0,0,0,0,0,0,0,0,-1,1511,1387,0,0
294,-363,0,0,0,0,0,0,0,0,0,-1,1518,1387,0,0
301,-363,0,0,0,0,0,0,0,0,0,-1,1525,1387,0,0
308,-363,0,0,0,0,0,0,0,0,0,-1,1532,1387,0,0
315,-363,0,0,0,0,0,0,0,0,0,-1,1539,1387,0,0
322,-363,0,0,0,0,0,0,0,0,0,-1,1546,1387,0,0
329,-363,0,0,0,0,0,0,0,0,0,-1,1553,1387,0,0
336,-363,0,0,0,0,0,0,0,0,0,-1,1560,1387,0,0
343,-363,0,0,0,0,0,0,0,0,0,-1,1567,1387,0,0
350,-363,0,0,0,0,0,0,0,0,0,-1,1574,1387,0,0
357,-363,0,0,0,0,0,0,0,0,0,-1,1581,1387,0,0
364,-363,0,0,0,0,0,0,0,0,0,-1,1588,1387,0,0
371,-363,0,0,0,0,0,0,0,0,0,-1,1595,1387,0,0
378,-363,0,0,0,0,0,0,0,0,0,-1,1602,1387,0,0
385,-363,0,0,0,0,0,0,0,0,0,-1,1609,1387,0,0
392,-363,0,0,0,0,0,0,0,0,0,-1,1616,1387,0,0
399,-363,0,0,0,0,0,0,0,0,0,-1,1623,1387,0,0
406,-363,0,0,0,0,0,0,0,0,0,-1,1630,1387,0,0
413,-363,0,0,0,0,0,0,0,0,0,-1,1637,1387,0,0
420,-363,0,0,0,0,0,0,0,0,0,-1,1644,1387,0,0
427,-363,0,0,0,0,0,0,0,0,0,-1,1651,1387,0,0
434,-363,0,0,0,0,0,0,0,0,0,-1,1658,1387,0,0
441,-363,0,0,0,0,0,0,0,0,0,-1,1665,1387,0,0
448,-363,0,0,0,0,0,0,0,0,0,-1,1672,1387,0,0
455,-363,0,0,0,0,0,0,0,0,0,-1,1679,1387,0,0
462,-363,0,0,0,0,0,0,0,0,0,-1,1686,1387,0,0
469,-363,0,0,0,0,0,0,0,0,0,-1,1693,1387,0,0
476,-363,0,0,0,0,0,0,0,0,0,-1,1700,1387,0,0
483,-363,0,0,0,0,0,0,0,0,0,-1,1707,1387,0,0
490,-363,0,0,0,0,0,0,0,0,0,-1,1714,1387,0,0
497,-363,0,0,0,0,0,0,0,0,0,-1,1721,1387,0,0
504,-363,0,0,0,0,0,0,0,0,0,-1,1728,1387,0,0
511,-363,0,0,0,0,0,0,0,0,0,-1,1735,1387,0,0
518,-363,0,0,0,0,0,0,0,0,0,-1,1742,1387,0,0
525,-363,0,0,0,0,0,0,0,0,0,-1,1749,1387,0,0
532,-363,0,0,0,0,0,0,0,0,0,-1,1756,1387,0,0
539,-363,0,0,0,0,0,0,0,0,0,-1,1763,1387,0,0
546,-363,0,0,0,0,0,0,0,0,0,-1,1770,1387,0,0
553,-363,26.4719,2.09753,0,0,0,0,0,0,0,-1,1777,1387,26.472,-2.09757
560,-363,27.1924,2.3584,0,0,0,0,0,0,0,-1,1784,1387,27.1924,-2.35836
567,-363,27.807,2.3446,0,0,0,0,0,0,0,-1,1791,1387,27.807,-2.34464
574,-363,27.5302,2.14966,0,0,0,0,0,0,0,-1,1798,1387,27.5301,-2.1497
581,-363,33.5271,5.7323,0,0,0,0,0,0,0,-1,1805,1387,33.5272,-5.73232
588,-363,32.5608,6.72131,0,0,0,0,0,0,0,-1,1812,1387,32.5608,-6.72131
595,-363,31.4688,6.95435,0,0,0,0,0,0,0,-1,1819,1387,31.4688,-6.95431
602,-363,25.7437,5.33667,0,0,0,0,0,0,0,-1,1826,1387,25.7437,-5.33667
609,-363,27.7048,7.06885,0,0,0,0,0,0,0,-1,1833,1387,27.7048,-7.06882
616,-363,16.229,1.08704,0,0,0,0,0,0,0,-1,1840,1387,16.229,-1.08706
623,-363,15.7283,7.16663,0,0,0,0,0,0,0,-1,1847,1387,15.7282,-7.16665
630,-363,18.3192,9.27844,0,0,0,0,0,0,0,-1,1854,1387,18.3192,-9.27843
637,-363,19.2463,9.48376,0,0,0,0,0,0,0,-1,1861,1387,19.2464,-9.4838
644,-363,19.2611,9.10742,-0.0234598,-0.00901876,0.00706894,-0.00613453,-0.026344,1.1834,0.0159169,0.0131705,1868,1387,19.2611,-9.10742
651,-363,19.2809,8.76758,-0.0101904,-0.00324482,0.00280891,-0.00225104,-0.0111842,1.23074,0.00683054,0.0107494,1875,1387,19.2809,-8.76759
658,-363,19.2792,8.45679,-0.00262164,-0.00103342,0.000500653,-0.000888772,-0.00276629,1.28954,0.00163077,0.0108823,1882,1387,19.2792,-8.45675
665,-363,19.2551,8.17871,0.00107294,5.85572e-05,-0.000440213,0.00123734,-0.00010584,-0.35741,0.000862338,0.0110649,1889,1387,19.2552,-8.17872
672,-363,19.2375,7.90955,0.00108704,6.30152e-05,-6.3857e-05,0.00109101,5.90485e-05,-0.0620382,0.000708479,0.0135124,1896,1387,19.2376,-7.90957
679,-363,19.2401,7.6178,0.00111337,0.000117269,0.000393731,0.0012502,-1.95649e-05,0.334474,0.000840066,0.0158797,1903,1387,19.2401,-7.61783
686,-363,19.2379,7.30212,0.00118194,8.99685e-05,0.000836659,0.00163501,-0.000363093,0.496304,0.00122905,0.0150976,1910,1387,19.2379,-7.30209
693,-363,19.2445,6.97839,0.00136173,7.09363e-05,0.00118347,0.00206435,-0.000631676,0.535767,0.00162816,0.012768,1917,1387,19.2445,-6.97842
700,-363,19.3636,6.64563,0.00154563,0.000142123,0.00163211,0.00262046,-0.000932704,0.582363,0.00212716,0.0201525,1924,1387,19.3636,-6.64563
707,-363,19.562,6.34912,0,0,0,0,0,0,0,-1,1931,1387,19.5621,-6.34908
714,-363,16.5782,5.3147,0,0,0,0,0,0,0,-1,1938,1387,16.5783,-5.31472
721,-363,14.4045,4.51685,0,0,0,0,0,0,0,-1,1945,1387,14.4045,-4.51685
728,-363,19.9756,0.853027,0,0,0,0,0,0,0,-1,1952,1387,19.9756,-0.853059
735,-363,21.4297,1.2981,0,0,0,0,0,0,0,-1,1959,1387,21.4297,-1.29811
742,-363,21.3621,2.79663,0,0,0,0,0,0,0,-1,1966,1387,21.362,-2.7966
749,-363,0,0,0,0,0,0,0,0,0,-1,1973,1387,0,0
756,-363,0,0,0,0,0,0,0,0,0,-1,1980,1387,0,0
763,-363,0,0,0,0,0,0,0,0,0,-1,1987,1387,0,0
770,-363,0,0,0,0,0,0,0,0,0,-1,1994,1387,0,0
777,-363,0,0,0,0,0,0,0,0,0,-1,2001,1387,0,0
784,-363,0,0,0,0,0,0,0,0,0,-1,2008,1387,0,0
791,-363,0,0,0,0,0,0,0,0,0,-1,2015,1387,0,0
798,-363,0,0,0,0,0,0,0,0,0,-1,2022,1387,0,0
805,-363,0,0,0,0,0,0,0,0,0,-1,2029,1387,0,0
812,-363,0,0,0,0,0,0,0,0,0,-1,2036,1387,0,0
-700,-370,0,0,0,0,0,0,0,0,0,-1,524,1394,0,0
-693,-370,0,0,0,0,0,0,0,0,0,-1,531,1394,0,0
-686,-370,0,0,0,0,0,0,0,0,0,-1,538,1394,0,0
-679,-370,0,0,0,0,0,0,0,0,0,-1,545,1394,0,0
-672,-370,0,0,0,0,0,0,0,0,0,-1,552,1394,0,0
-665,-370,0,0,0,0,0,0,0,0,0,-1,559,1394,0,0
-658,-370,0,0,0,0,0,0,0,0,0,-1,566,1394,0,0
-651,-370,0,0,0,0,0,0,0,0,0,-1,573,1394,0,0
-644,-370,0,0,0,0,0,0,0,0,0,-1,580,1394,0,0
-637,-370,0,0,0,0,0,0,0,0,0,-1,587,1394,0,0
-630,-370,0,0,0,0,0,0,0,0,0,-1,594,1394,0,0
-623,-370,-10.1758,-7.10486,0,0,0,0,0,0,0,-1,601,1394,-10.1758,7.10483
-616,-370,-8.85925,-1.61475,0,0,0,0,0,0,0,-1,608,1394,-8.85925,1.61476
-609,-370,-5.39325,0.0421143,0,0,0,0,0,0,0,-1,615,1394,-5.39328,-0.0421372
-602,-370,-10.5386,4.50964,0,0,0,0,0,0,0,-1,622,1394,-10.5386,-4.50963
-595,-370,-7.53284,5.44214,0,0,0,0,0,0,0,-1,629,1394,-7.53284,-5.44216
-588,-370,-7.4903,2.0061,0,0,0,0,0,0,0,-1,636,1394,-7.49031,-2.00607
-581,-370,-7.67566,3.01819,0,0,0,0,0,0,0,-1,643,1394,-7.67565,-3.01823
-574,-370,-8.00934,4.22937,-0.0239468,0.005821,-0.00459293,0.00651354,-0.0246393,-1.42114,0.0189738,0.0427936,650,1394,-8.00932,-4.22941
-567,-370,-8.21075,4.56982,-0.0185013,0.00370018,-0.00404494,0.00441418,-0.0192153,-1.39608,0.0145072,0.0312124,657,1394,-8.21074,-4.56983
-560,-370,-8.35602,4.80383,-0.0139304,0.00219727,-0.00342595,0.00289486,-0.014628,-1.36992,0.0108465,0.0171789,664,1394,-8.35605,-4.80384
-553,-370,-8.34351,5.18164,-0.00978983,0.00123029,-0.00267043,0.0018433,-0.0104028,-1.34515,0.0076243,0.0111168,671,1394,-8.34351,-5.18159
-546,-370,-8.31342,5.52612,-0.00595473,0.000605404,-0.0017747,0.00105474,-0.00640406,-1.32282,0.0046609,0.0150068,678,1394,-8.31342,-5.52609
-539,-370,-8.30048,5.88123,-0.00240033,0.000260681,-0.00077643,0.000470659,-0.00261031,-1.30667,0.00191646,0.0185583,685,1394,-8.30047,-5.88128
-532,-370,-8.34076,6.2312,0.000930051,0.000149531,0.000317528,0.00104291,3.66741e-05,0.341499,0.000683375,0.0203221,692,1394,-8.34078,-6.23118
-525,-370,-8.3548,6.54602,0.00404264,0.000145959,0.00145801,0.00452778,-0.000339178,0.321217,0.0031377,0.014948,699,1394,-8.35477,-6.54599
-518,-370,-8.34943,6.86389,0.00689713,0.000371954,0.00268861,0.0078622,-0.000593116,0.344624,0.00544994,0.0105995,706,1394,-8.3494,-6.86395
-511,-370,-8.32556,7.22314,0.00928943,0.000552822,0.00379612,0.0107084,-0.000866154,0.357715,0.00744447,0.0130995,713,1394,-8.32554,-7.22316
-504,-370,-8.21344,7.61084,0.0111541,0.000546363,0.00463809,0.012896,-0.00119553,0.359265,0.00902231,0.0311301,720,1394,-8.21345,-7.61082
-497,-370,-7.59479,8.02283,0,0,0,0,0,0,0,-1,727,1394,-7.59479,-8.02284
-490,-370,-5.30695,4.5271,0,0,0,0,0,0,0,-1,734,1394,-5.30698,-4.52704
-483,-370,-6.02997,4.59253,0,0,0,0,0,0,0,-1,741,1394,-6.02994,-4.5925
-476,-370,-6.75293,4.65796,0,0,0,0,0,0,0,-1,748,1394,-6.7529,-4.65795
-469,-370,-10.584,1.14294,0,0,0,0,0,0,0,-1,755,1394,-10.584,-1.14293
-462,-370,-9.54462,0.387207,0,0,0,0,0,0,0,-1,762,1394,-9.5446,-0.387176
-455,-370,-8.50525,-0.36853,0,0,0,0,0,0,0,-1,769,1394,-8.50523,0.368582
-448,-370,-10.9543,2.28833,0,0,0,0,0,0,0,-1,776,1394,-10.9543,-2.28835
-441,-370,-11.8699,1.8313,0,0,0,0,0,0,0,-1,783,1394,-11.8699,-1.83127
-434,-370,-12.7855,1.37415,0,0,0,0,0,0,0,-1,790,1394,-12.7855,-1.37419
-427,-370,0,0,0,0,0,0,0,0,0,-1,797,1394,0,0
-420,-370,0,0,0,0,0,0,0,0,0,-1,804,1394,0,0
-413,-370,0,0,0,0,0,0,0,0,0,-1,811,1394,0,0
-406,-370,0,0,0,0,0,0,0,0,0,-1,818,1394,0,0
-399,-370,0,0,0,0,0,0,0,0,0,-1,825,1394,0,0
-392,-370,0,0,0,0,0,0,0,0,0,-1,832,1394,0,0
-385,-370,0,0,0,0,0,0,0,0,0,-1,839,1394,0,0
-378,-370,0,0,0,0,0,0,0,0,0,-1,846,1394,0,0
-371,-370,0,0,0,0,0,0,0,0,0,-1,853,1394,0,0
-364,-370,0,0,0,0,0,0,0,0,0,-1,860,1394,0,0
-357,-370,0,0,0,0,0,0,0,0,0,-1,867,1394,0,0
-350,-370,0,0,0,0,0,0,0,0,0,-1,874,1394,0,0
-343,-370,0,0,0,0,0,0,0,0,0,-1,881,1394,0,0
-336,-370,0,0,0,0,0,0,0,0,0,-1,888,1394,0,0
-329,-370,0,0,0,0,0,0,0,0,0,-1,895,1394,0,0
-322,-370,0,0,0,0,0,0,0,0,0,-1,902,1394,0,0
-315,-370,0,0,0,0,0,0,0,0,0,-1,909,1394,0,0
-308,-370,0,0,0,0,0,0,0,0,0,-1,916,1394,0,0
-301,-370,0,0,0,0,0,0,0,0,0,-1,923,1394,0,0
-294,-370,0,0,0,0,0,0,0,0,0,-1,930,1394,0,0
-287,-370,0,0,0,0,0,0,0,0,0,-1,937,1394,0,0
-280,-370,0,0,0,0,0,0,0,0,0,-1,944,1394,0,0
-273,-370,0,0,0,0,0,0,0,0,0,-1,951,1394,0,0
-266,-370,0,0,0,0,0,0,0,0,0,-1,958,1394,0,0
-259,-370,0,0,0,0,0,0,0,0,0,-1,965,1394,0,0
-252,-370,0,0,0,0,0,0,0,0,0,-1,972,1394,0,0
-245,-370,0,0,0,0,0,0,0,0,0,-1,979,1394,0,0
-238,-370,0,0,0,0,0,0,0,0,0,-1,986,1394,0,0
-231,-370,0,0,0,0,0,0,0,0,0,-1,993,1394,0,0
-224,-370,0,0,0,0,0,0,0,0,0,-1,1000,1394,0,0
-217,-370,0,0,0,0,0,0,0,0,0,-1,1007,1394,0,0
-210,-370,0,0,0,0,0,0,0,0,0,-1,1014,1394,0,0
-203,-370,0,0,0,0,0,0,0,0,0,-1,1021,1394,0,0
-196,-370,0,0,0,0,0,0,0,0,0,-1,1028,1394,0,0
-189,-370,0,0,0,0,0,0,0,0,0,-1,1035,1394,0,0
-182,-370,0,0,0,0,0,0,0,0,0,-1,1042,1394,0,0
-175,-370,0,0,0,0,0,0,0,0,0,-1,1049,1394,0,0
-168,-370,0,0,0,0,0,0,0,0,0,-1,1056,1394,0,0
-161,-370,0,0,0,0,0,0,0,0,0,-1,1063,1394,0,0
-154,-370,0,0,0,0,0,0,0,0,0,-1,1070,1394,0,0
-147,-370,0,0,0,0,0,0,0,0,0,-1,1077,1394,0,0
-140,-370,0,0,0,0,0,0,0,0,0,-1,1084,1394,0,0
-133,-370,0,0,0,0,0,0,0,0,0,-1,1091,1394,0,0
-126,-370,0,0,0,0,0,0,0,0,0,-1,1098,1394,0,0
-119,-370,0,0,0,0,0,0,0,0,0,-1,1105,1394,0,0
-112,-370,0,0,0,0,0,0,0,0,0,-1,1112,1394,0,0
-105,-370,0,0,0,0,0,0,0,0,0,-1,1119,1394,0,0
-98,-370,0,0,0,0,0,0,0,0,0,-1,1126,1394,0,0
-91,-370,0,0,0,0,0,0,0,0,0,-1,1133,1394,0,0
-84,-370,0,0,0,0,0,0,0,0,0,-1,1140,1394,0,0
-77,-370,0,0,0,0,0,0,0,0,0,-1,1147,1394,0,0
-70,-370,0,0,0,0,0,0,0,0,0,-1,1154,1394,0,0
-63,-370,0,0,0,0,0,0,0,0,0,-1,1161,1394,0,0
-56,-370,0,0,0,0,0,0,0,0,0,-1,1168,1394,0,0
-49,-370,0,0,0,0,0,0,0,0,0,-1,1175,1394,0,0
-42,-370,0,0,0,0,0,0,0,0,0,-1,1182,1394,0,0
-35,-370,0,0,0,0,0,0,0,0,0,-1,1189,1394,0,0
-28,-370,0,0,0,0,0,0,0,0,0,-1,1196,1394,0,0
-21,-370,0,0,0,0,0,0,0,0,0,-1,1203,1394,0,0
-14,-370,0,0,0,0,0,0,0,0,0,-1,1210,1394,0,0
-7,-370,0,0,0,0,0,0,0,0,0,-1,1217,1394,0,0
0,-370,0,0,0,0,0,0,0,0,0,-1,1224,1394,0,0
7,-370,0,0,0,0,0,0,0,0,0,-1,1231,1394,0,0
14,-370,0,0,0,0,0,0,0,0,0,-1,1238,1394,0,0
21,-370,0,0,0,0,0,0,0,0,0,-1,1245,1394,0,0
28,-370,0,0,0,0,0,0,0,0,0,-1,1252,1394,0,0
35,-370,0,0,0,0,0,0,0,0,0,-1,1259,1394,0,0
42,-370,0,0,0,0,0,0,0,0,0,-1,1266,1394,0,0
49,-370,0,0,0,0,0,0,0,0,0,-1,1273,1394,0,0
56,-370,0,0,0,0,0,0,0,0,0,-1,1280,1394,0,0
63,-370,0,0,0,0,0,0,0,0,0,-1,1287,1394,0,0
70,-370,0,0,0,0,0,0,0,0,0,-1,1294,1394,0,0
77,-370,0,0,0,0,0,0,0,0,0,-1,1301,1394,0,0
84,-370,0,0,0,0,0,0,0,0,0,-1,1308,1394,0,0
91,-370,0,0,0,0,0,0,0,0,0,-1,1315,1394,0,0
98,-370,0,0,0,0,0,0,0,0,0,-1,1322,1394,0,0
105,-370,0,0,0,0,0,0,0,0,0,-1,1329,1394,0,0
112,-370,0,0,0,0,0,0,0,0,0,-1,1336,1394,0,0
119,-370,0,0,0,0,0,0,0,0,0,-1,1343,1394,0,0
126,-370,0,0,0,0,0,0,0,0,0,-1,1350,1394,0,0
133,-370,0,0,0,0,0,0,0,0,0,-1,1357,1394,0,0
140,-370,0,0,0,0,0,0,0,0,0,-1,1364,1394,0,0
147,-370,0,0,0,0,0,0,0,0,0,-1,1371,1394,0,0
154,-370,0,0,0,0,0,0,0,0,0,-1,1378,1394,0,0
161,-370,0,0,0,0,0,0,0,0,0,-1,1385,1394,0,0
168,-370,0,0,0,0,0,0,0,0,0,-1,1392,1394,0,0
175,-370,0,0,0,0,0,0,0,0,0,-1,1399,1394,0,0
182,-370,0,0,0,0,0,0,0,0,0,-1,1406,1394,0,0
189,-370,0,0,0,0,0,0,0,0,0,-1,1413,1394,0,0
196,-370,0,0,0,0,0,0,0,0,0,-1,1420,1394,0,0
203,-370,0,0,0,0,0,0,0,0,0,-1,1427,1394,0,0
210,-370,0,0,0,0,0,0,0,0,0,-1,1434,1394,0,0
217,-370,0,0,0,0,0,0,0,0,0,-1,1441,1394,0,0
224,-370,0,0,0,0,0,0,0,0,0,-1,1448,1394,0,0
231,-370,0,0,0,0,0,0,0,0,0,-1,1455,1394,0,0
238,-370,0,0,0,0,0,0,0,0,0,-1,1462,1394,0,0
245,-370,0,0,0,0,0,0,0,0,0,-1,1469,1394,0,0
252,-370,0,0,0,0,0,0,0,0,0,-1,1476,1394,0,0
259,-370,0,0,0,0,0,0,0,0,0,-1,1483,1394,0,0
266,-370,0,0,0,0,0,0,0,0,0,-1,1490,1394,0,0
273,-370,0,0,0,0,0,0,0,0,0,-1,1497,1394,0,0
280,-370,0,0,0,0,0,0,0,0,0,-1,1504,1394,0,0
287,-370,0,0,0,0,0,0,0,0,0,-1,1511,1394,0,0
294,-370,0,0,0,0,0,0,0,0,0,-1,1518,1394,0,0
301,-370,0,0,0,0,0,0,0,0,0,-1,1525,1394,0,0
308,-370,0,0,0,0,0,0,0,0,0,-1,1532,1394,0,0
315,-370,0,0,0,0,0,0,0,0,0,-1,1539,1394,0,0
322,-370,0,0,0,0,0,0,0,0,0,-1,1546,1394,0,0
329,-370,0,0,0,0,0,0,0,0,0,-1,1553,1394,0,0
336,-370,0,0,0,0,0,0,0,0,0,-1,1560,1394,0,0
343,-370,0,0,0,0,0,0,0,0,0,-1,1567,1394,0,0
350,-370,0,0,0,0,0,0,0,0,0,-1,1574,1394,0,0
357,-370,0,0,0,0,0,0,0,0,0,-1,1581,1394,0,0
364,-370,0,0,0,0,0,0,0,0,0,-1,1588,1394,0,0
371,-370,0,0,0,0,0,0,0,0,0,-1,1595,1394,0,0
378,-370,0,0,0,0,0,0,0,0,0,-1,1602,1394,0,0
385,-370,0,0,0,0,0,0,0,0,0,-1,1609,1394,0,0
392,-370,0,0,0,0,0,0,0,0,0,-1,1616,1394,0,0
399,-370,0,0,0,0,0,0,0,0,0,-1,1623,1394,0,0
406,-370,0,0,0,0,0,0,0,0,0,-1,1630,1394,0,0
413,-370,0,0,0,0,0,0,0,0,0,-1,1637,1394,0,0
420,-370,0,0,0,0,0,0,0,0,0,-1,1644,1394,0,0
427,-370,0,0,0,0,0,0,0,0,0,-1,1651,1394,0,0
434,-370,0,0,0,0,0,0,0,0,0,-1,1658,1394,0,0
441,-370,0,0,0,0,0,0,0,0,0,-1,1665,1394,0,0
448,-370,0,0,0,0,0,0,0,0,0,-1,1672,1394,0,0
455,-370,0,0,0,0,0,0,0,0,0,-1,1679,1394,0,0
462,-370,0,0,0,0,0,0,0,0,0,-1,1686,1394,0,0
469,-370,0,0,0,0,0,0,0,0,0,-1,1693,1394,0,0
476,-370,0,0,0,0,0,0,0,0,0,-1,1700,1394,0,0
483,-370,0,0,0,0,0,0,0,0,0,-1,1707,1394,0,0
490,-370,0,0,0,0,0,0,0,0,0,-1,1714,1394,0,0
497,-370,0,0,0,0,0,0,0,0,0,-1,1721,1394,0,0
504,-370,0,0,0,0,0,0,0,0,0,-1,1728,1394,0,0
511,-370,0,0,0,0,0,0,0,0,0,-1,1735,1394,0,0
518,-370,0,0,0,0,0,0,0,0,0,-1,1742,1394,0,0
525,-370,0,0,0,0,0,0,0,0,0,-1,1749,1394,0,0
532,-370,0,0,0,0,0,0,0,0,0,-1,1756,1394,0,0
539,-370,0,0,0,0,0,0,0,0,0,-1,1763,1394,0,0
546,-370,27.4949,2.81201,0,0,0,0,0,0,0,-1,1770,1394,27.4948,-2.81198
553,-370,26.5985,1.99329,0,0,0,0,0,0,0,-1,1777,1394,26.5985,-1.99327
560,-370,27.1606,2.1084,0,0,0,0,0,0,0,-1,1784,1394,27.1606,-2.10838
567,-370,27.619,2.3833,0,0,0,0,0,0,0,-1,1791,1394,27.619,-2.38327
574,-370,28.0094,2.6936,0,0,0,0,0,0,0,-1,1798,1394,28.0094,-2.69357
581,-370,26.7473,2.29626,0,0,0,0,0,0,0,-1,1805,1394,26.7473,-2.29625
588,-370,32.1333,7.8728,0,0,0,0,0,0,0,-1,1812,1394,32.1333,-7.87275
595,-370,25.793,4.5271,0,0,0,0,0,0,0,-1,1819,1394,25.793,-4.52711
602,-370,25.1077,5.34937,0,0,0,0,0,0,0,-1,1826,1394,25.1077,-5.34932
609,-370,16.712,0.993286,0,0,0,0,0,0,0,-1,1833,1394,16.7121,-0.99323
616,-370,16.7764,7.23315,0,0,0,0,0,0,0,-1,1840,1394,16.7764,-7.23313
623,-370,17.6625,8.94263,0,0,0,0,0,0,0,-1,1847,1394,17.6624,-8.94258
630,-370,18.5714,10.0314,0,0,0,0,0,0,0,-1,1854,1394,18.5714,-10.0314
637,-370,18.7958,9.52844,-0.0336256,-0.0124943,0.00978514,-0.00865915,-0.0374607,1.19726,0.0226461,0.0415183,1861,1394,18.7958,-9.52844
644,-370,18.9659,9.09351,-0.0186773,-0.00572799,0.00511058,-0.00395406,-0.0204513,1.2367,0.0125259,0.0128953,1868,1394,18.966,-9.09348
651,-370,18.9763,8.78418,-0.00721648,-0.00136688,0.00169255,-0.000912458,-0.00767091,1.3085,0.00483855,0.0120046,1875,1394,18.9764,-8.78419
658,-370,18.9753,8.50439,-0.00137175,-0.000317293,0.000119942,-0.000303822,-0.00138522,1.45895,0.000840712,0.0117406,1882,1394,18.9754,-8.50442
665,-370,18.9482,8.19458,0.00116753,0.000163338,-0.000339135,0.00127133,5.95348e-05,-0.297026,0.000828421,0.012795,1889,1394,18.9482,-8.19462
672,-370,18.9409,7.86804,0.00120116,0.000167992,2.72358e-05,0.00120188,0.000167274,0.0263371,0.000751723,0.0151236,1896,1394,18.941,-7.86801
679,-370,18.9736,7.5603,0.0012549,0.000199405,0.00044853,0.00141975,3.45509e-05,0.352217,0.000935198,0.0147947,1903,1394,18.9737,-7.56028
686,-370,18.9639,7.28613,0.00131187,0.000225439,0.000882791,0.00180519,-0.00026788,0.509587,0.00130197,0.0138611,1910,1394,18.9639,-7.28608
693,-370,18.9529,6.96289,0.00140372,0.000325732,0.001334,0.0023035,-0.000574049,0.593405,0.00175853,0.0118348,1917,1394,18.9529,-6.96284
700,-370,19.0742,6.62097,0.00151013,0.000579376,0.00188119,0.00298265,-0.000893143,0.66414,0.00234358,0.023733,1924,1394,19.0742,-6.62094
707,-370,19.3008,6.22961,0,0,0,0,0,0,0,-1,1931,1394,19.3008,-6.22966
714,-370,16.9116,5.93018,0,0,0,0,0,0,0,-1,1938,1394,16.9116,-5.93014
721,-370,17.2007,4.69153,0,0,0,0,0,0,0,-1,1945,1394,17.2007,-4.69158
728,-370,20.5315,-0.313354,0,0,0,0,0,0,0,-1,1952,1394,20.5315,0.313332
735,-370,22.3652,0.233398,0,0,0,0,0,0,0,-1,1959,1394,22.3652,-0.233355
742,-370,24.1989,0.780029,0,0,0,0,0,0,0,-1,1966,1394,24.1989,-0.780041
749,-370,0,0,0,0,0,0,0,0,0,-1,1973,1394,0,0
756,-370,0,0,0,0,0,0,0,0,0,-1,1980,1394,0,0
763,-370,0,0,0,0,0,0,0,0,0,-1,1987,1394,0,0
770,-370,0,0,0,0,0,0,0,0,0,-1,1994,1394,0,0
777,-370,0,0,0,0,0,0,0,0,0,-1,2001,1394,0,0
784,-370,0,0,0,0,0,0,0,0,0,-1,2008,1394,0,0
791,-370,0,0,0,0,0,0,0,0,0,-1,2015,1394,0,0
798,-370,0,0,0,0,0,0,0,0,0,-1,2022,1394,0,0
805,-370,0,0,0,0,0,0,0,0,0,-1,2029,1394,0,0
812,-370,0,0,0,0,0,0,0,0,0,-1,2036,1394,0,0
-700,-377,0,0,0,0,0,0,0,0,0,-1,524,1401,0,0
-693,-377,0,0,0,0,0,0,0,0,0,-1,531,1401,0,0
-686,-377,0,0,0,0,0,0,0,0,0,-1,538,1401,0,0
-679,-377,0,0,0,0,0,0,0,0,0,-1,545,1401,0,0
-672,-377,0,0,0,0,0,0,0,0,0,-1,552,1401,0,0
-665,-377,0,0,0,0,0,0,0,0,0,-1,559,1401,0,0
-658,-377,0,0,0,0,0,0,0,0,0,-1,566,1401,0,0
-651,-377,0,0,0,0,0,0,0,0,0,-1,573,1401,0,0
-644,-377,0,0,0,0,0,0,0,0,0,-1,580,1401,0,0
-637,-377,0,0,0,0,0,0,0,0,0,-1,587,1401,0,0
-630,-377,0,0,0,0,0,0,0,0,0,-1,594,1401,0,0
-623,-377,0,0,0,0,0,0,0,0,0,-1,601,1401,0,0
-616,-377,-9.43915,-2.4906,0,0,0,0,0,0,0,-1,608,1401,-9.43915,2.49062
-609,-377,-7.2821,-1.35278,0,0,0,0,0,0,0,-1,615,1401,-7.28208,1.35279
-602,-377,-14.9736,3.98279,0,0,0,0,0,0,0,-1,622,1401,-14.9737,-3.98276
-595,-377,-6.9082,1.18201,0,0,0,0,0,0,0,-1,629,1401,-6.90822,-1.18204
-588,-377,-7.26331,3.08801,0,0,0,0,0,0,0,-1,636,1401,-7.26329,-3.08807
-581,-377,-7.00232,3.37549,0,0,0,0,0,0,0,-1,643,1401,-7.00233,-3.37545
-574,-377,-7.37659,4.00598,-0.0299611,0.0066336,-0.00564784,0.00748543,-0.030813,-1.4211,0.023439,0.0466019,650,1401,-7.37657,-4.00594
-567,-377,-7.75018,4.59351,-0.023104,0.00404857,-0.00506534,0.00496274,-0.0240181,-1.39224,0.0178972,0.0323711,657,1401,-7.75017,-4.59351
-560,-377,-8.05597,4.87048,-0.0175611,0.002271,-0.00440218,0.00320425,-0.0184943,-1.36189,0.0135248,0.0273537,664,1401,-8.05595,-4.87048
-553,-377,-7.99908,5.17456,-0.0127621,0.00116449,-0.003594,0.00203728,-0.0136349,-1.33256,0.00983957,0.0124194,671,1401,-7.99907,-5.17454
-546,-377,-8.00568,5.57849,-0.00846591,0.00047947,-0.00264788,0.00120449,-0.00919094,-1.30353,0.00656572,0.0166149,678,1401,-8.00565,-5.57849
-539,-377,-7.9743,5.89429,-0.00457609,0.00011884,-0.00158171,0.000601993,-0.00505925,-1.27434,0.00359036,0.0225825,685,1401,-7.97431,-5.89434
-532,-377,-8.00433,6.20837,-0.00102,2.57433e-05,-0.000419865,0.000173454,-0.00116771,-1.23251,0.000842269,0.0198814,692,1401,-8.00431,-6.20834
-525,-377,-7.96338,6.55774,0.0022029,4.76087e-05,0.000766611,0.00244776,-0.000197248,0.30916,0.0017014,0.0177529,699,1401,-7.96335,-6.55772
-518,-377,-7.99451,6.8844,0.00513744,0.000229255,0.0019958,0.00584655,-0.000479847,0.341385,0.00406709,0.0114999,706,1401,-7.99452,-6.88436
-511,-377,-8.01227,7.23413,0.00746936,0.000391559,0.00302946,0.00858894,-0.000728024,0.353997,0.00598342,0.0108274,713,1401,-8.01229,-7.2341
-504,-377,-8.01782,7.59521,0.0090812,0.000277094,0.00366303,0.0104059,-0.00104762,0.34701,0.00731154,0.0124151,720,1401,-8.01785,-7.59517
-497,-377,-7.67712,7.96497,0.0104537,-0.000272157,0.00388377,0.0117123,-0.00153076,0.313387,0.0083653,0.0358274,727,1401,-7.67713,-7.96502
-490,-377,-7.20612,8.46289,0,0,0,0,0,0,0,-1,734,1401,-7.20614,-8.46285
-483,-377,-5.6524,5.07324,0,0,0,0,0,0,0,-1,741,1401,-5.6524,-5.07325
-476,-377,-6.11682,5.10535,0,0,0,0,0,0,0,-1,748,1401,-6.11681,-5.10537
-469,-377,-10.3211,1.9281,0,0,0,0,0,0,0,-1,755,1401,-10.3211,-1.92808
-462,-377,-9.2204,1.0022,0,0,0,0,0,0,0,-1,762,1401,-9.22039,-1.00218
-455,-377,-8.11969,0.0762939,0,0,0,0,0,0,0,-1,769,1401,-8.11968,-0.0762759
-448,-377,-9.05334,0.877319,0,0,0,0,0,0,0,-1,776,1401,-9.05332,-0.877324
-441,-377,-11.212,0.763428,0,0,0,0,0,0,0,-1,783,1401,-11.212,-0.763415
-434,-377,-11.0984,0.996216,0,0,0,0,0,0,0,-1,790,1401,-11.0984,-0.996265
-427,-377,-11.1733,1.25732,0,0,0,0,0,0,0,-1,797,1401,-11.1733,-1.25732
-420,-377,0,0,0,0,0,0,0,0,0,-1,804,1401,0,0
-413,-377,0,0,0,0,0,0,0,0,0,-1,811,1401,0,0
-406,-377,0,0,0,0,0,0,0,0,0,-1,818,1401,0,0
-399,-377,0,0,0,0,0,0,0,0,0,-1,825,1401,0,0
-392,-377,0,0,0,0,0,0,0,0,0,-1,832,1401,0,0
-385,-377,0,0,0,0,0,0,0,0,0,-1,839,1401,0,0
-378,-377,0,0,0,0,0,0,0,0,0,-1,846,1401,0,0
-371,-377,0,0,0,0,0,0,0,0,0,-1,853,1401,0,0
-364,-377,0,0,0,0,0,0,0,0,0,-1,860,1401,0,0
-357,-377,0,0,0,0,0,0,0,0,0,-1,867,1401,0,0
-350,-377,0,0,0,0,0,0,0,0,0,-1,874,1401,0,0
-343,-377,0,0,0,0,0,0,0,0,0,-1,881,1401,0,0
-336,-377,0,0,0,0,0,0,0,0,0,-1,888,1401,0,0
-329,-377,0,0,0,0,0,0,0,0,0,-1,895,1401,0,0
-322,-377,0,0,0,0,0,0,0,0,0,-1,902,1401,0,0
-315,-377,0,0,0,0,0,0,0,0,0,-1,909,1401,0,0
-308,-377,0,0,0,0,0,0,0,0,0,-1,916,1401,0,0
-301,-377,0,0,0,0,0,0,0,0,0,-1,923,1401,0,0
-294,-377,0,0,0,0,0,0,0,0,0,-1,930,1401,0,0
-287,-377,0,0,0,0,0,0,0,0,0,-1,937,1401,0,0
-280,-377,0,0,0,0,0,0,0,0,0,-1,944,1401,0,0
-273,-377,0,0,0,0,0,0,0,0,0,-1,951,1401,0,0
-266,-377,0,0,0,0,0,0,0,0,0,-1,958,1401,0,0
-259,-377,0,0,0,0,0,0,0,0,0,-1,965,1401,0,0
-252,-377,0,0,0,0,0,0,0,0,0,-1,972,1401,0,0
-245,-377,0,0,0,0,0,0,0,0,0,-1,979,1401,0,0
-238,-377,0,0,0,0,0,0,0,0,0,-1,986,1401,0,0
-231,-377,0,0,0,0,0,0,0,0,0,-1,993,1401,0,0
-224,-377,0,0,0,0,0,0,0,0,0,-1,1000,1401,0,0
-217,-377,0,0,0,0,0,0,0,0,0,-1,1007,1401,0,0
-210,-377,0,0,0,0,0,0,0,0,0,-1,1014,1401,0,0
-203,-377,0,0,0,0,0,0,0,0,0,-1,1021,1401,0,0
-196,-377,0,0,0,0,0,0,0,0,0,-1,1028,1401,0,0
-189,-377,0,0,0,0,0,0,0,0,0,-1,1035,1401,0,0
-182,-377,0,0,0,0,0,0,0,0,0,-1,1042,1401,0,0
-175,-377,0,0,0,0,0,0,0,0,0,-1,1049,1401,0,0
-168,-377,0,0,0,0,0,0,0,0,0,-1,1056,1401,0,0
-161,-377,0,0,0,0,0,0,0,0,0,-1,1063,1401,0,0
-154,-377,0,0,0,0,0,0,0,0,0,-1,1070,1401,0,0
-147,-377,0,0,0,0,0,0,0,0,0,-1,1077,1401,0,0
-140,-377,0,0,0,0,0,0,0,0,0,-1,1084,1401,0,0
-133,-377,0,0,0,0,0,0,0,0,0,-1,1091,1401,0,0
-126,-377,0,0,0,0,0,0,0,0,0,-1,1098,1401,0,0
-119,-377,0,0,0,0,0,0,0,0,0,-1,1105,1401,0,0
-112,-377,0,0,0,0,0,0,0,0,0,-1,1112,1401,0,0
-105,-377,0,0,0,0,0,0,0,0,0,-1,1119,1401,0,0
-98,-377,0,0,0,0,0,0,0,0,0,-1,1126,1401,0,0
-91,-377,0,0,0,0,0,0,0,0,0,-1,1133,1401,0,0
-84,-377,0,0,0,0,0,0,0,0,0,-1,1140,1401,0,0
-77,-377,0,0,0,0,0,0,0,0,0,-1,1147,1401,0,0
-70,-377,0,0,0,0,0,0,0,0,0,-1,1154,1401,0,0
-63,-377,0,0,0,0,0,0,0,0,0,-1,1161,1401,0,0
-56,-377,0,0,0,0,0,0,0,0,0,-1,1168,1401,0,0
-49,-377,0,0,0,0,0,0,0,0,0,-1,1175,1401,0,0
-42,-377,0,0,0,0,0,0,0,0,0,-1,1182,1401,0,0
-35,-377,0,0,0,0,0,0,0,0,0,-1,1189,1401,0,0
-28,-377,0,0,0,0,0,0,0,0,0,-1,1196,1401,0,0
-21,-377,0,0,0,0,0,0,0,0,0,-1,1203,1401,0,0
-14,-377,0,0,0,0,0,0,0,0,0,-1,1210,1401,0,0
-7,-377,0,0,0,0,0,0,0,0,0,-1,1217,1401,0,0
0,-377,0,0,0,0,0,0,0,0,0,-1,1224,1401,0,0
7,-377,0,0,0,0,0,0,0,0,0,-1,1231,1401,0,0
14,-377,0,0,0,0,0,0,0,0,0,-1,1238,1401,0,0
21,-377,0,0,0,0,0,0,0,0,0,-1,1245,1401,0,0
28,-377,0,0,0,0,0,0,0,0,0,-1,1252,1401,0,0
35,-377,0,0,0,0,0,0,0,0,0,-1,1259,1401,0,0
42,-377,0,0,0,0,0,0,0,0,0,-1,1266,1401,0,0
49,-377,0,0,0,0,0,0,0,0,0,-1,1273,1401,0,0
56,-377,0,0,0,0,0,0,0,0,0,-1,1280,1401,0,0
63,-377,0,0,0,0,0,0,0,0,0,-1,1287,1401,0,0
70,-377,0,0,0,0,0,0,0,0,0,-1,1294,1401,0,0
77,-377,0,0,0,0,0,0,0,0,0,-1,1301,1401,0,0
84,-377,0,0,0,0,0,0,0,0,0,-1,1308,1401,0,0
91,-377,0,0,0,0,0,0,0,0,0,-1,1315,1401,0,0
98,-377,0,0,0,0,0,0,0,0,0,-1,1322,1401,0,0
105,-377,0,0,0,0,0,0,0,0,0,-1,1329,1401,0,0
112,-377,0,0,0,0,0,0,0,0,0,-1,1336,1401,0,0
119,-377,0,0,0,0,0,0,0,0,0,-1,1343,1401,0,0
126,-377,0,0,0,0,0,0,0,0,0,-1,1350,1401,0,0
133,-377,0,0,0,0,0,0,0,0,0,-1,1357,1401,0,0
140,-377,0,0,0,0,0,0,0,0,0,-1,1364,1401,0,0
147,-377,0,0,0,0,0,0,0,0,0,-1,1371,1401,0,0
154,-377,0,0,0,0,0,0,0,0,0,-1,1378,1401,0,0
161,-377,0,0,0,0,0,0,0,0,0,-1,1385,1401,0,0
168,-377,0,0,0,0,0,0,0,0,0,-1,1392,1401,0,0
175,-377,0,0,0,0,0,0,0,0,0,-1,1399,1401,0,0
182,-377,0,0,0,0,0,0,0,0,0,-1,1406,1401,0,0
189,-377,0,0,0,0,0,0,0,0,0,-1,1413,1401,0,0
196,-377,0,0,0,0,0,0,0,0,0,-1,1420,1401,0,0
203,-377,0,0,0,0,0,0,0,0,0,-1,1427,1401,0,0
210,-377,0,0,0,0,0,0,0,0,0,-1,1434,1401,0,0
217,-377,0,0,0,0,0,0,0,0,0,-1,1441,1401,0,0
224,-377,0,0,0,0,0,0,0,0,0,-1,1448,1401,0,0
231,-377,0,0,0,0,0,0,0,0,0,-1,1455,1401,0,0
238,-377,0,0,0,0,0,0,0,0,0,-1,1462,1401,0,0
245,-377,0,0,0,0,0,0,0,0,0,-1,1469,1401,0,0
252,-377,0,0,0,0,0,0,0,0,0,-1,1476,1401,0,0
259,-377,0,0,0,0,0,0,0,0,0,-1,1483,1401,0,0
266,-377,0,0,0,0,0,0,0,0,0,-1,1490,1401,0,0
273,-377,0,0,0,0,0,0,0,0,0,-1,1497,1401,0,0
280,-377,0,0,0,0,0,0,0,0,0,-1,1504,1401,0,0
287,-377,0,0,0,0,0,0,0,0,0,-1,1511,1401,0,0
294,-377,0,0,0,0,0,0,0,0,0,-1,1518,1401,0,0
301,-377,0,0,0,0,0,0,0,0,0,-1,1525,1401,0,0
308,-377,0,0,0,0,0,0,0,0,0,-1,1532,1401,0,0
315,-377,0,0,0,0,0,0,0,0,0,-1,1539,1401,0,0
322,-377,0,0,0,0,0,0,0,0,0,-1,1546,1401,0,0
329,-377,0,0,0,0,0,0,0,0,0,-1,1553,1401,0,0
336,-377,0,0,0,0,0,0,0,0,0,-1,1560,1401,0,0
343,-377,0,0,0,0,0,0,0,0,0,-1,1567,1401,0,0
350,-377,0,0,0,0,0,0,0,0,0,-1,1574,1401,0,0
357,-377,0,0,0,0,0,0,0,0,0,-1,1581,1401,0,0
364,-377,0,0,0,0,0,0,0,0,0,-1,1588,1401,0,0
371,-377,0,0,0,0,0,0,0,0,0,-1,1595,1401,0,0
378,-377,0,0,0,0,0,0,0,0,0,-1,1602,1401,0,0
385,-377,0,0,0,0,0,0,0,0,0,-1,1609,1401,0,0
392,-377,0,0,0,0,0,0,0,0,0,-1,1616,1401,0,0
399,-377,0,0,0,0,0,0,0,0,0,-1,1623,1401,0,0
406,-377,0,0,0,0,0,0,0,0,0,-1,1630,1401,0,0
413,-377,0,0,0,0,0,0,0,0,0,-1,1637,1401,0,0
420,-377,0,0,0,0,0,0,0,0,0,-1,1644,1401,0,0
427,-377,0,0,0,0,0,0,0,0,0,-1,1651,1401,0,0
434,-377,0,0,0,0,0,0,0,0,0,-1,1658,1401,0,0
441,-377,0,0,0,0,0,0,0,0,0,-1,1665,1401,0,0
448,-377,0,0,0,0,0,0,0,0,0,-1,1672,1401,0,0
455,-377,0,0,0,0,0,0,0,0,0,-1,1679,1401,0,0
462,-377,0,0,0,0,0,0,0,0,0,-1,1686,1401,0,0
469,-377,0,0,0,0,0,0,0,0,0,-1,1693,1401,0,0
476,-377,0,0,0,0,0,0,0,0,0,-1,1700,1401,0,0
483,-377,0,0,0,0,0,0,0,0,0,-1,1707,1401,0,0
490,-377,0,0,0,0,0,0,0,0,0,-1,1714,1401,0,0
497,-377,0,0,0,0,0,0,0,0,0,-1,1721,1401,0,0
504,-377,0,0,0,0,0,0,0,0,0,-1,1728,1401,0,0
511,-377,0,0,0,0,0,0,0,0,0,-1,1735,1401,0,0
518,-377,0,0,0,0,0,0,0,0,0,-1,1742,1401,0,0
525,-377,0,0,0,0,0,0,0,0,0,-1,1749,1401,0,0
532,-377,0,0,0,0,0,0,0,0,0,-1,1756,1401,0,0
539,-377,0,0,0,0,0,0,0,0,0,-1,1763,1401,0,0
546,-377,27.8485,2.34094,0,0,0,0,0,0,0,-1,1770,1401,27.8486,-2.34091
553,-377,27.2189,2.42493,0,0,0,0,0,0,0,-1,1777,1401,27.2188,-2.42498
560,-377,26.9808,1.78674,0,0,0,0,0,0,0,-1,1784,1401,26.9808,-1.78676
567,-377,27.4503,2.03894,0,0,0,0,0,0,0,-1,1791,1401,27.4503,-2.03893
574,-377,27.812,2.3855,0,0,0,0,0,0,0,-1,1798,1401,27.812,-2.38552
581,-377,26.3328,2.77588,0,0,0,0,0,0,0,-1,1805,1401,26.3328,-2.77582
588,-377,25.882,4.35217,0,0,0,0,0,0,0,-1,1812,1401,25.8819,-4.3522
595,-377,25.5392,5.11804,0,0,0,0,0,0,0,-1,1819,1401,25.5392,-5.11808
602,-377,24.816,5.79126,0,0,0,0,0,0,0,-1,1826,1401,24.816,-5.79124
609,-377,15.0223,4.76135,0,0,0,0,0,0,0,-1,1833,1401,15.0224,-4.76129
616,-377,14.1842,5.78992,0,0,0,0,0,0,0,-1,1840,1401,14.1842,-5.78987
623,-377,15.8248,8.76721,0,0,0,0,0,0,0,-1,1847,1401,15.8248,-8.76725
630,-377,18.4642,9.97595,0,0,0,0,0,0,0,-1,1854,1401,18.4642,-9.976
637,-377,18.6138,9.47656,-0.0248829,-0.00945812,0.0071515,-0.00665267,-0.0276884,1.19696,0.0166893,0.0198469,1861,1401,18.6138,-9.47653
644,-377,18.6559,9.11194,-0.0130389,-0.00410166,0.0034953,-0.00289704,-0.0142435,1.2389,0.00869244,0.0118648,1868,1401,18.6559,-9.11188
651,-377,18.6642,8.78064,-0.00452165,-0.000871338,0.00102928,-0.000601114,-0.00479188,1.31405,0.00301426,0.0130282,1875,1401,18.6642,-8.78065
658,-377,18.6681,8.49683,-0.000428295,-0.000113456,3.6674e-06,-0.000113413,-0.000428338,1.55915,0.000256261,0.013569,1882,1401,18.6681,-8.49687
665,-377,18.6678,8.17566,0.00121717,0.000205996,-0.000196538,0.00125402,0.000169139,-0.185378,0.000785729,0.0165408,1889,1401,18.6679,-8.17572
672,-377,18.6818,7.86011,0.00127197,0.000217814,0.000147699,0.00129227,0.000197511,0.136607,0.000803809,0.0182182,1896,1401,18.6817,-7.86007
679,-377,18.6403,7.57104,0.0013468,0.000228982,0.000558645,0.00157812,-2.33902e-06,0.39258,0.00105286,0.0186782,1903,1401,18.6402,-7.57101
686,-377,18.6273,7.29309,0.00143172,0.00020861,0.00100517,0.00199675,-0.000356423,0.512107,0.00146451,0.0152373,1910,1401,18.6274,-7.29311
693,-377,18.6716,6.96167,0.00159713,0.000266003,0.00143873,0.00251679,-0.000653656,0.568755,0.00193295,0.0122717,1917,1401,18.6716,-6.96161
700,-377,18.639,6.66638,0.00181817,0.000447543,0.00199275,0.00324016,-0.000974444,0.619781,0.00254781,0.0326302,1924,1401,18.639,-6.66641
707,-377,18.7131,6.28809,0,0,0,0,0,0,0,-1,1931,1401,18.7132,-6.28807
714,-377,16.5369,5.45959,0,0,0,0,0,0,0,-1,1938,1401,16.5369,-5.4596
721,-377,17.0913,5.42529,0,0,0,0,0,0,0,-1,1945,1401,17.0914,-5.42529
728,-377,14.5396,2.79724,0,0,0,0,0,0,0,-1,1952,1401,14.5396,-2.7972
735,-377,23.2977,-0.991089,0,0,0,0,0,0,0,-1,1959,1401,23.2978,0.991076
742,-377,0,0,0,0,0,0,0,0,0,-1,1966,1401,0,0
749,-377,0,0,0,0,0,0,0,0,0,-1,1973,1401,0,0
756,-377,0,0,0,0,0,0,0,0,0,-1,1980,1401,0,0
763,-377,0,0,0,0,0,0,0,0,0,-1,1987,1401,0,0
770,-377,0,0,0,0,0,0,0,0,0,-1,1994,1401,0,0
777,-377,0,0,0,0,0,0,0,0,0,-1,2001,1401,0,0
784,-377,0,0,0,0,0,0,0,0,0,-1,2008,1401,0,0
791,-377,0,0,0,0,0,0,0,0,0,-1,2015,1401,0,0
798,-377,0,0,0,0,0,0,0,0,0,-1,2022,1401,0,0
805,-377,0,0,0,0,0,0,0,0,0,-1,2029,1401,0,0
812,-377,0,0,0,0,0,0,0,0,0,-1,2036,1401,0,0
-700,-384,0,0,0,0,0,0,0,0,0,-1,524,1408,0,0
-693,-384,0,0,0,0,0,0,0,0,0,-1,531,1408,0,0
-686,-384,0,0,0,0,0,0,0,0,0,-1,538,1408,0,0
-679,-384,0,0,0,0,0,0,0,0,0,-1,545,1408,0,0
-672,-384,0,0,0,0,0,0,0,0,0,-1,552,1408,0,0
-665,-384,0,0,0,0,0,0,0,0,0,-1,559,1408,0,0
-658,-384,0,0,0,0,0,0,0,0,0,-1,566,1408,0,0
-651,-384,0,0,0,0,0,0,0,0,0,-1,573,1408,0,0
-644,-384,0,0,0,0,0,0,0,0,0,-1,580,1408,0,0
-637,-384,0,0,0,0,0,0,0,0,0,-1,587,1408,0,0
-630,-384,0,0,0,0,0,0,0,0,0,-1,594,1408,0,0
-623,-384,0,0,0,0,0,0,0,0,0,-1,601,1408,0,0
-616,-384,-10.019,-3.36646,0,0,0,0,0,0,0,-1,608,1408,-10.019,3.36648
-609,-384,-7.72357,-2.3418,0,0,0,0,0,0,0,-1,615,1408,-7.72358,2.34182
-602,-384,-11.7632,-2.85156,0,0,0,0,0,0,0,-1,622,1408,-11.7632,2.85157
-595,-384,-8.71198,0.210815,0,0,0,0,0,0,0,-1,629,1408,-8.71196,-0.210818
-588,-384,-5.66071,3.27319,0,0,0,0,0,0,0,-1,636,1408,-5.6607,-3.27321
-581,-384,-6.53815,3.24292,0,0,0,0,0,0,0,-1,643,1408,-6.53814,-3.24289
-574,-384,-6.89777,3.85461,-0.0363871,0.00718188,-0.00678678,0.00821458,-0.0374198,-1.41979,0.028088,0.0494502,650,1408,-6.89774,-3.85467
-567,-384,-7.31158,4.50452,-0.0279503,0.00418976,-0.00616264,0.00533089,-0.0290914,-1.3877,0.0213938,0.0405305,657,1408,-7.31158,-4.50453
-560,-384,-7.57654,4.9021,-0.0213231,0.0021983,-0.00542872,0.00339079,-0.0225156,-1.35457,0.016259,0.0373954,664,1408,-7.57651,-4.90207
-553,-384,-7.67493,5.2135,-0.0158092,0.00100485,-0.004543,0.00215381,-0.0169582,-1.32308,0.0120875,0.0229825,671,1408,-7.67495,-5.21352
-546,-384,-7.65686,5.58826,-0.0110257,0.000304013,-0.00353101,0.00131439,-0.012036,-1.2921,0.0084961,0.0148199,678,1408,-7.65684,-5.58826
-539,-384,-7.69281,5.88782,-0.00678967,-4.09173e-05,-0.00238645,0.000717692,-0.00754828,-1.26302,0.00528768,0.017054,685,1408,-7.69281,-5.88783
-532,-384,-7.66736,6.18445,-0.00301806,-9.97661e-05,-0.00116445,0.000307918,-0.00342574,-1.23403,0.00239308,0.0217909,692,1408,-7.66733,-6.18441
-525,-384,-7.64551,6.55566,0.000321488,-3.97325e-05,5.86808e-05,0.000330781,-4.90262e-05,0.157072,0.000238548,0.020003,699,1408,-7.64551,-6.5556
-518,-384,-7.65088,6.90869,0.00332519,0.000100066,0.00126122,0.00375983,-0.000334575,0.331873,0.00262519,0.0121955,706,1408,-7.65087,-6.90863
-511,-384,-7.6817,7.26794,0.00563892,0.000241399,0.00222155,0.00643567,-0.000555353,0.344357,0.00448704,0.0104409,713,1408,-7.68171,-7.26794
-504,-384,-7.67773,7.62183,0.00717828,7.63716e-05,0.00272362,0.00810253,-0.000847871,0.32715,0.00570535,0.0117086,720,1408,-7.67773,-7.62179
-497,-384,-7.63171,7.99109,0.00831065,-0.000651027,0.00254666,0.00898378,-0.00132416,0.258409,0.00647586,0.0214529,727,1408,-7.6317,-7.99114
-490,-384,-7.38727,8.45508,0,0,0,0,0,0,0,-1,734,1408,-7.38729,-8.4551
-483,-384,-6.26471,7.61194,0,0,0,0,0,0,0,-1,741,1408,-6.26469,-7.61191
-476,-384,-6.02734,5.67761,0,0,0,0,0,0,0,-1,748,1408,-6.02736,-5.6776
-469,-384,-10.206,2.63721,0,0,0,0,0,0,0,-1,755,1408,-10.206,-2.6372
-462,-384,-9.04291,1.43542,0,0,0,0,0,0,0,-1,762,1408,-9.04293,-1.43545
-455,-384,-7.87988,0.233765,0,0,0,0,0,0,0,-1,769,1408,-7.87986,-0.233709
-448,-384,-9.35529,7.19226,0,0,0,0,0,0,0,-1,776,1408,-9.35531,-7.19226
-441,-384,-10.4697,1.79004,0,0,0,0,0,0,0,-1,783,1408,-10.4697,-1.79003
-434,-384,-10.6449,0.552246,0,0,0,0,0,0,0,-1,790,1408,-10.6449,-0.552216
-427,-384,-10.968,1.10583,0,0,0,0,0,0,0,-1,797,1408,-10.968,-1.10588
-420,-384,-12.5607,4.54858,0,0,0,0,0,0,0,-1,804,1408,-12.5607,-4.54859
-413,-384,0,0,0,0,0,0,0,0,0,-1,811,1408,0,0
-406,-384,0,0,0,0,0,0,0,0,0,-1,818,1408,0,0
-399,-384,0,0,0,0,0,0,0,0,0,-1,825,1408,0,0
-392,-384,0,0,0,0,0,0,0,0,0,-1,832,1408,0,0
-385,-384,0,0,0,0,0,0,0,0,0,-1,839,1408,0,0
-378,-384,0,0,0,0,0,0,0,0,0,-1,846,1408,0,0
-371,-384,0,0,0,0,0,0,0,0,0,-1,853,1408,0,0
-364,-384,0,0,0,0,0,0,0,0,0,-1,860,1408,0,0
-357,-384,0,0,0,0,0,0,0,0,0,-1,867,1408,0,0
-350,-384,0,0,0,0,0,0,0,0,0,-1,874,1408,0,0
-343,-384,0,0,0,0,0,0,0,0,0,-1,881,1408,0,0
-336,-384,0,0,0,0,0,0,0,0,0,-1,888,1408,0,0
-329,-384,0,0,0,0,0,0,0,0,0,-1,895,1408,0,0
-322,-384,0,0,0,0,0,0,0,0,0,-1,902,1408,0,0
-315,-384,0,0,0,0,0,0,0,0,0,-1,909,1408,0,0
-308,-384,0,0,0,0,0,0,0,0,0,-1,916,1408,0,0
-301,-384,0,0,0,0,0,0,0,0,0,-1,923,1408,0,0
-294,-384,0,0,0,0,0,0,0,0,0,-1,930,1408,0,0
-287,-384,0,0,0,0,0,0,0,0,0,-1,937,1408,0,0
-280,-384,0,0,0,0,0,0,0,0,0,-1,944,1408,0,0
-273,-384,0,0,0,0,0,0,0,0,0,-1,951,1408,0,0
-266,-384,0,0,0,0,0,0,0,0,0,-1,958,1408,0,0
-259,-384,0,0,0,0,0,0,0,0,0,-1,965,1408,0,0
-252,-384,0,0,0,0,0,0,0,0,0,-1,972,1408,0,0
-245,-384,0,0,0,0,0,0,0,0,0,-1,979,1408,0,0
-238,-384,0,0,0,0,0,0,0,0,0,-1,986,1408,0,0
-231,-384,0,0,0,0,0,0,0,0,0,-1,993,1408,0,0
-224,-384,0,0,0,0,0,0,0,0,0,-1,1000,1408,0,0
-217,-384,0,0,0,0,0,0,0,0,0,-1,1007,1408,0,0
-210,-384,0,0,0,0,0,0,0,0,0,-1,1014,1408,0,0
-203,-384,0,0,0,0,0,0,0,0,0,-1,1021,1408,0,0
-196,-384,0,0,0,0,0,0,0,0,0,-1,1028,1408,0,0
-189,-384,0,0,0,0,0,0,0,0,0,-1,1035,1408,0,0
-182,-384,0,0,0,0,0,0,0,0,0,-1,1042,1408,0,0
-175,-384,0,0,0,0,0,0,0,0,0,-1,1049,1408,0,0
-168,-384,0,0,0,0,0,0,0,0,0,-1,1056,1408,0,0
-161,-384,0,0,0,0,0,0,0,0,0,-1,1063,1408,0,0
-154,-384,0,0,0,0,0,0,0,0,0,-1,1070,1408,0,0
-147,-384,0,0,0,0,0,0,0,0,0,-1,1077,1408,0,0
-140,-384,0,0,0,0,0,0,0,0,0,-1,1084,1408,0,0
-133,-384,0,0,0,0,0,0,0,0,0,-1,1091,1408,0,0
-126,-384,0,0,0,0,0,0,0,0,0,-1,1098,1408,0,0
-119,-384,0,0,0,0,0,0,0,0,0,-1,1105,1408,0,0
-112,-384,0,0,0,0,0,0,0,0,0,-1,1112,1408,0,0
-105,-384,0,0,0,0,0,0,0,0,0,-1,1119,1408,0,0
-98,-384,0,0,0,0,0,0,0,0,0,-1,1126,1408,0,0
-91,-384,0,0,0,0,0,0,0,0,0,-1,1133,1408,0,0
-84,-384,0,0,0,0,0,0,0,0,0,-1,1140,1408,0,0
-77,-384,0,0,0,0,0,0,0,0,0,-1,1147,1408,0,0
-70,-384,0,0,0,0,0,0,0,0,0,-1,1154,1408,0,0
-63,-384,0,0,0,0,0,0,0,0,0,-1,1161,1408,0,0
-56,-384,0,0,0,0,0,0,0,0,0,-1,1168,1408,0,0
-49,-384,0,0,0,0,0,0,0,0,0,-1,1175,1408,0,0
-42,-384,0,0,0,0,0,0,0,0,0,-1,1182,1408,0,0
-35,-384,0,0,0,0,0,0,0,0,0,-1,1189,1408,0,0
-28,-384,0,0,0,0,0,0,0,0,0,-1,1196,1408,0,0
-21,-384,0,0,0,0,0,0,0,0,0,-1,1203,1408,0,0
-14,-384,0,0,0,0,0,0,0,0,0,-1,1210,1408,0,0
-7,-384,0,0,0,0,0,0,0,0,0,-1,1217,1408,0,0
0,-384,0,0,0,0,0,0,0,0,0,-1,1224,1408,0,0
7,-384,0,0,0,0,0,0,0,0,0,-1,1231,1408,0,0
14,-384,0,0,0,0,0,0,0,0,0,-1,1238,1408,0,0
21,-384,0,0,0,0,0,0,0,0,0,-1,1245,1408,0,0
28,-384,0,0,0,0,0,0,0,0,0,-1,1252,1408,0,0
35,-384,0,0,0,0,0,0,0,0,0,-1,1259,1408,0,0
42,-384,0,0,0,0,0,0,0,0,0,-1,1266,1408,0,0
49,-384,0,0,0,0,0,0,0,0,0,-1,1273,1408,0,0
56,-384,0,0,0,0,0,0,0,0,0,-1,1280,1408,0,0
63,-384,0,0,0,0,0,0,0,0,0,-1,1287,1408,0,0
70,-384,0,0,0,0,0,0,0,0,0,-1,1294,1408,0,0
77,-384,0,0,0,0,0,0,0,0,0,-1,1301,1408,0,0
84,-384,0,0,0,0,0,0,0,0,0,-1,1308,1408,0,0
91,-384,0,0,0,0,0,0,0,0,0,-1,1315,1408,0,0
98,-384,0,0,0,0,0,0,0,0,0,-1,1322,1408,0,0
105,-384,0,0,0,0,0,0,0,0,0,-1,1329,1408,0,0
112,-384,0,0,0,0,0,0,0,0,0,-1,1336,1408,0,0
119,-384,0,0,0,0,0,0,0,0,0,-1,1343,1408,0,0
126,-384,0,0,0,0,0,0,0,0,0,-1,1350,1408,0,0
133,-384,0,0,0,0,0,0,0,0,0,-1,1357,1408,0,0
140,-384,0,0,0,0,0,0,0,0,0,-1,1364,1408,0,0
147,-384,0,0,0,0,0,0,0,0,0,-1,1371,1408,0,0
154,-384,0,0,0,0,0,0,0,0,0,-1,1378,1408,0,0
161,-384,0,0,0,0,0,0,0,0,0,-1,1385,1408,0,0
168,-384,0,0,0,0,0,0,0,0,0,-1,1392,1408,0,0
175,-384,0,0,0,0,0,0,0,0,0,-1,1399,1408,0,0
182,-384,0,0,0,0,0,0,0,0,0,-1,1406,1408,0,0
189,-384,0,0,0,0,0,0,0,0,0,-1,1413,1408,0,0
196,-384,0,0,0,0,0,0,0,0,0,-1,1420,1408,0,0
203,-384,0,0,0,0,0,0,0,0,0,-1,1427,1408,0,0
210,-384,0,0,0,0,0,0,0,0,0,-1,1434,1408,0,0
217,-384,0,0,0,0,0,0,0,0,0,-1,1441,1408,0,0
224,-384,0,0,0,0,0,0,0,0,0,-1,1448,1408,0,0
231,-384,0,0,0,0,0,0,0,0,0,-1,1455,1408,0,0
238,-384,0,0,0,0,0,0,0,0,0,-1,1462,1408,0,0
245,-384,0,0,0,0,0,0,0,0,0,-1,1469,1408,0,0
252,-384,0,0,0,0,0,0,0,0,0,-1,1476,1408,0,0
259,-384,0,0,0,0,0,0,0,0,0,-1,1483,1408,0,0
266,-384,0,0,0,0,0,0,0,0,0,-1,1490,1408,0,0
273,-384,0,0,0,0,0,0,0,0,0,-1,1497,1408,0,0
280,-384,0,0,0,0,0,0,0,0,0,-1,1504,1408,0,0
287,-384,0,0,0,0,0,0,0,0,0,-1,1511,1408,0,0
294,-384,0,0,0,0,0,0,0,0,0,-1,1518,1408,0,0
301,-384,0,0,0,0,0,0,0,0,0,-1,1525,1408,0,0
308,-384,0,0,0,0,0,0,0,0,0,-1,1532,1408,0,0
315,-384,0,0,0,0,0,0,0,0,0,-1,1539,1408,0,0
322,-384,0,0,0,0,0,0,0,0,0,-1,1546,1408,0,0
329,-384,0,0,0,0,0,0,0,0,0,-1,1553,1408,0,0
336,-384,0,0,0,0,0,0,0,0,0,-1,1560,1408,0,0
343,-384,0,0,0,0,0,0,0,0,0,-1,1567,1408,0,0
350,-384,0,0,0,0,0,0,0,0,0,-1,1574,1408,0,0
357,-384,0,0,0,0,0,0,0,0,0,-1,1581,1408,0,0
364,-384,0,0,0,0,0,0,0,0,0,-1,1588,1408,0,0
371,-384,0,0,0,0,0,0,0,0,0,-1,1595,1408,0,0
378,-384,0,0,0,0,0,0,0,0,0,-1,1602,1408,0,0
385,-384,0,0,0,0,0,0,0,0,0,-1,1609,1408,0,0
392,-384,0,0,0,0,0,0,0,0,0,-1,1616,1408,0,0
399,-384,0,0,0,0,0,0,0,0,0,-1,1623,1408,0,0
406,-384,0,0,0,0,0,0,0,0,0,-1,1630,1408,0,0
413,-384,0,0,0,0,0,0,0,0,0,-1,1637,1408,0,0
420,-384,0,0,0,0,0,0,0,0,0,-1,1644,1408,0,0
427,-384,0,0,0,0,0,0,0,0,0,-1,1651,1408,0,0
434,-384,0,0,0,0,0,0,0,0,0,-1,1658,1408,0,0
441,-384,0,0,0,0,0,0,0,0,0,-1,1665,1408,0,0
448,-384,0,0,0,0,0,0,0,0,0,-1,1672,1408,0,0
455,-384,0,0,0,0,0,0,0,0,0,-1,1679,1408,0,0
462,-384,0,0,0,0,0,0,0,0,0,-1,1686,1408,0,0
469,-384,0,0,0,0,0,0,0,0,0,-1,1693,1408,0,0
476,-384,0,0,0,0,0,0,0,0,0,-1,1700,1408,0,0
483,-384,0,0,0,0,0,0,0,0,0,-1,1707,1408,0,0
490,-384,0,0,0,0,0,0,0,0,0,-1,1714,1408,0,0
497,-384,0,0,0,0,0,0,0,0,0,-1,1721,1408,0,0
504,-384,0,0,0,0,0,0,0,0,0,-1,1728,1408,0,0
511,-384,0,0,0,0,0,0,0,0,0,-1,1735,1408,0,0
518,-384,0,0,0,0,0,0,0,0,0,-1,1742,1408,0,0
525,-384,0,0,0,0,0,0,0,0,0,-1,1749,1408,0,0
532,-384,0,0,0,0,0,0,0,0,0,-1,1756,1408,0,0
539,-384,27.6886,2.85803,0,0,0,0,0,0,0,-1,1763,1408,27.6886,-2.85807
546,-384,27.5044,2.9425,0,0,0,0,0,0,0,-1,1770,1408,27.5044,-2.94255
553,-384,27.3052,2.78394,0,0,0,0,0,0,0,-1,1777,1408,27.3051,-2.78394
560,-384,26.833,3.19812,0,0,0,0,0,0,0,-1,1784,1408,26.833,-3.19816
567,-384,32.4751,6.03601,0,0,0,0,0,0,0,-1,1791,1408,32.4751,-6.03605
574,-384,25.8635,3.7915,0,0,0,0,0,0,0,-1,1798,1408,25.8636,-3.79148
581,-384,25.819,3.91846,0,0,0,0,0,0,0,-1,1805,1408,25.8189,-3.91848
588,-384,23.3721,4.25439,0,0,0,0,0,0,0,-1,1812,1408,23.3721,-4.25442
595,-384,24.981,5.59595,0,0,0,0,0,0,0,-1,1819,1408,24.981,-5.59598
602,-384,20.6605,4.17261,0,0,0,0,0,0,0,-1,1826,1408,20.6606,-4.17265
609,-384,14.158,5.49475,0,0,0,0,0,0,0,-1,1833,1408,14.158,-5.49474
616,-384,14.7997,7.6908,0,0,0,0,0,0,0,-1,1840,1408,14.7996,-7.69079
623,-384,16.4293,9.58899,0,0,0,0,0,0,0,-1,1847,1408,16.4294,-9.58901
630,-384,18.3538,9.71863,0,0,0,0,0,0,0,-1,1854,1408,18.3537,-9.7186
637,-384,18.3549,9.47351,-0.017355,-0.00677448,0.0049774,-0.00480105,-0.0193285,1.19333,0.0116207,0.0161921,1861,1408,18.3549,-9.47352
644,-384,18.321,9.15381,-0.00849136,-0.00275979,0.00223724,-0.00198993,-0.00926123,1.23937,0.00562933,0.0153194,1868,1408,18.321,-9.15385
651,-384,18.3303,8.79639,-0.00249327,-0.00050943,0.000560965,-0.000361794,-0.0026409,1.31345,0.00165325,0.0154571,1875,1408,18.3304,-8.79636
658,-384,18.349,8.47241,0.000191606,-5.8076e-06,-3.52266e-05,0.000197704,-1.19051e-05,-0.171396,0.000135945,0.0147908,1882,1408,18.349,-8.47238
665,-384,18.3588,8.20056,0.00114508,0.000167017,-3.94031e-05,0.00114667,0.000165432,-0.0402,0.000715702,0.0155734,1889,1408,18.3588,-8.20061
672,-384,18.3796,7.89282,0.00120012,0.000154631,0.000286418,0.00127344,8.13074e-05,0.25062,0.000823198,0.0146281,1896,1408,18.3796,-7.89286
679,-384,18.3491,7.57312,0.00128647,0.000107079,0.000675657,0.00159357,-0.000200028,0.426615,0.00113495,0.0163246,1903,1408,18.3491,-7.5731
686,-384,18.3087,7.28186,0.0013995,3.67174e-06,0.00112485,0.00202535,-0.000622182,0.507737,0.00159851,0.0133193,1910,1408,18.3087,-7.28187
693,-384,18.3562,6.97302,0.00165778,-2.06848e-05,0.00150849,0.00254477,-0.000907676,0.531549,0.00206662,0.0185181,1917,1408,18.3562,-6.97308
700,-384,18.4233,6.67456,0,0,0,0,0,0,0,-1,1924,1408,18.4233,-6.67455
707,-384,17.0566,6.62842,0,0,0,0,0,0,0,-1,1931,1408,17.0567,-6.62848
714,-384,16.038,5.0282,0,0,0,0,0,0,0,-1,1938,1408,16.038,-5.02819
721,-384,13.8843,2.8717,0,0,0,0,0,0,0,-1,1945,1408,13.8843,-2.87171
728,-384,15.4409,6.25745,0,0,0,0,0,0,0,-1,1952,1408,15.4409,-6.2574
735,-384,16.7598,6.71289,0,0,0,0,0,0,0,-1,1959,1408,16.7598,-6.71287
742,-384,0,0,0,0,0,0,0,0,0,-1,1966,1408,0,0
749,-384,0,0,0,0,0,0,0,0,0,-1,1973,1408,0,0
756,-384,0,0,0,0,0,0,0,0,0,-1,1980,1408,0,0
763,-384,0,0,0,0,0,0,0,0,0,-1,1987,1408,0,0
770,-384,0,0,0,0,0,0,0,0,0,-1,1994,1408,0,0
777,-384,0,0,0,0,0,0,0,0,0,-1,2001,1408,0,0
784,-384,0,0,0,0,0,0,0,0,0,-1,2008,1408,0,0
791,-384,0,0,0,0,0,0,0,0,0,-1,2015,1408,0,0
798,-384,0,0,0,0,0,0,0,0,0,-1,2022,1408,0,0
805,-384,0,0,0,0,0,0,0,0,0,-1,2029,1408,0,0
812,-384,0,0,0,0,0,0,0,0,0,-1,2036,1408,0,0
-700,-391,0,0,0,0,0,0,0,0,0,-1,524,1415,0,0
-693,-391,0,0,0,0,0,0,0,0,0,-1,531,1415,0,0
-686,-391,0,0,0,0,0,0,0,0,0,-1,538,1415,0,0
-679,-391,0,0,0,0,0,0,0,0,0,-1,545,1415,0,0
-672,-391,0,0,0,0,0,0,0,0,0,-1,552,1415,0,0
-665,-391,0,0,0,0,0,0,0,0,0,-1,559,1415,0,0
-658,-391,0,0,0,0,0,0,0,0,0,-1,566,1415,0,0
-651,-391,0,0,0,0,0,0,0,0,0,-1,573,1415,0,0
-644,-391,0,0,0,0,0,0,0,0,0,-1,580,1415,0,0
-637,-391,0,0,0,0,0,0,0,0,0,-1,587,1415,0,0
-630,-391,0,0,0,0,0,0,0,0,0,-1,594,1415,0,0
-623,-391,0,0,0,0,0,0,0,0,0,-1,601,1415,0,0
-616,-391,0,0,0,0,0,0,0,0,0,-1,608,1415,0,0
-609,-391,-7.71753,-3.69763,0,0,0,0,0,0,0,-1,615,1415,-7.71751,3.69759
-602,-391,-13.9493,-4.12805,0,0,0,0,0,0,0,-1,622,1415,-13.9493,4.12803
-595,-391,-10.5076,-0.861816,0,0,0,0,0,0,0,-1,629,1415,-10.5076,0.861847
-588,-391,-7.06592,2.4043,0,0,0,0,0,0,0,-1,636,1415,-7.06589,-2.40433
-581,-391,-8.34491,2.92615,0,0,0,0,0,0,0,-1,643,1415,-8.3449,-2.92618
-574,-391,-6.43427,3.76587,0,0,0,0,0,0,0,-1,650,1415,-6.4343,-3.76582
-567,-391,-6.91101,4.46533,0,0,0,0,0,0,0,-1,657,1415,-6.91103,-4.4653
-560,-391,-6.91327,5.01794,-0.0251781,0.00226878,-0.00646523,0.00371544,-0.0266248,-1.35066,0.0191091,0.0447851,664,1415,-6.91326,-5.01795
-553,-391,-7.27325,5.2063,-0.0188413,0.00105294,-0.00545141,0.00244879,-0.0202371,-1.32013,0.0143774,0.0361345,671,1415,-7.27326,-5.20629
-546,-391,-7.31738,5.56567,-0.0135179,0.000370016,-0.00434536,0.00161756,-0.0147654,-1.29122,0.0104247,0.0129306,678,1415,-7.31736,-5.56563
-539,-391,-7.29236,5.89404,-0.00891765,3.8869e-05,-0.00310992,0.0010128,-0.00989159,-1.2673,0.00695661,0.0143772,685,1415,-7.29234,-5.89401
-532,-391,-7.31427,6.22766,-0.00493759,-1.50407e-05,-0.00183269,0.000592339,-0.00554497,-1.25077,0.00390908,0.0256628,692,1415,-7.3143,-6.22767
-525,-391,-7.29962,6.59827,-0.00149864,4.06566e-05,-0.000587116,0.000239028,-0.00169702,-1.24496,0.00121886,0.023498,699,1415,-7.29965,-6.59829
-518,-391,-7.32916,6.93115,0.00154015,8.974e-05,0.000572745,0.00173904,-0.000109154,0.334236,0.00119741,0.014277,706,1415,-7.32919,-6.93109
-511,-391,-7.33148,7.2605,0.00381015,0.000137397,0.00144477,0.00431036,-0.000362816,0.333305,0.00300183,0.0129684,713,1415,-7.33148,-7.26046
-504,-391,-7.33624,7.61023,0.00529302,-0.000120389,0.00185966,0.00587031,-0.000697674,0.300993,0.00416562,0.0112894,720,1415,-7.33626,-7.61028
-497,-391,-7.33325,7.94714,0.00624618,-0.000941641,0.00152297,0.00655555,-0.00125102,0.200412,0.00484155,0.0105895,727,1415,-7.33325,-7.94718
-490,-391,-7.28137,8.36816,0.00656115,-0.00288634,-0.000177566,0.00656448,-0.00288967,-0.0187862,0.00559412,0.0284701,734,1415,-7.28137,-8.36811
-483,-391,-7.16272,8.88306,0,0,0,0,0,0,0,-1,741,1415,-7.16272,-8.88305
-476,-391,-6.05731,6.85303,0,0,0,0,0,0,0,-1,748,1415,-6.05728,-6.85304
-469,-391,-3.88953,5.0979,0,0,0,0,0,0,0,-1,755,1415,-3.88955,-5.09794
-462,-391,-8.67688,2.03125,0,0,0,0,0,0,0,-1,762,1415,-8.67685,-2.03121
-455,-391,-8.65576,6.46997,0,0,0,0,0,0,0,-1,769,1415,-8.65579,-6.46999
-448,-391,-8.39618,4.38403,0,0,0,0,0,0,0,-1,776,1415,-8.39617,-4.38405
-441,-391,-9.77704,2.5946,0,0,0,0,0,0,0,-1,783,1415,-9.77702,-2.5946
-434,-391,-11.5403,2.12878,0,0,0,0,0,0,0,-1,790,1415,-11.5403,-2.12881
-427,-391,-10.5311,2.50403,0,0,0,0,0,0,0,-1,797,1415,-10.5311,-2.504
-420,-391,-14.7087,1.24365,0,0,0,0,0,0,0,-1,804,1415,-14.7088,-1.24365
-413,-391,0,0,0,0,0,0,0,0,0,-1,811,1415,0,0
-406,-391,0,0,0,0,0,0,0,0,0,-1,818,1415,0,0
-399,-391,0,0,0,0,0,0,0,0,0,-1,825,1415,0,0
-392,-391,0,0,0,0,0,0,0,0,0,-1,832,1415,0,0
-385,-391,0,0,0,0,0,0,0,0,0,-1,839,1415,0,0
-378,-391,0,0,0,0,0,0,0,0,0,-1,846,1415,0,0
-371,-391,0,0,0,0,0,0,0,0,0,-1,853,1415,0,0
-364,-391,0,0,0,0,0,0,0,0,0,-1,860,1415,0,0
-357,-391,0,0,0,0,0,0,0,0,0,-1,867,1415,0,0
-350,-391,0,0,0,0,0,0,0,0,0,-1,874,1415,0,0
-343,-391,0,0,0,0,0,0,0,0,0,-1,881,1415,0,0
-336,-391,0,0,0,0,0,0,0,0,0,-1,888,1415,0,0
-329,-391,0,0,0,0,0,0,0,0,0,-1,895,1415,0,0
-322,-391,0,0,0,0,0,0,0,0,0,-1,902,1415,0,0
-315,-391,0,0,0,0,0,0,0,0,0,-1,909,1415,0,0
-308,-391,0,0,0,0,0,0,0,0,0,-1,916,1415,0,0
-301,-391,0,0,0,0,0,0,0,0,0,-1,923,1415,0,0
-294,-391,0,0,0,0,0,0,0,0,0,-1,930,1415,0,0
-287,-391,0,0,0,0,0,0,0,0,0,-1,937,1415,0,0
-280,-391,0,0,0,0,0,0,0,0,0,-1,944,1415,0,0
-273,-391,0,0,0,0,0,0,0,0,0,-1,951,1415,0,0
-266,-391,0,0,0,0,0,0,0,0,0,-1,958,1415,0,0
-259,-391,0,0,0,0,0,0,0,0,0,-1,965,1415,0,0
-252,-391,0,0,0,0,0,0,0,0,0,-1,972,1415,0,0
-245,-391,0,0,0,0,0,0,0,0,0,-1,979,1415,0,0
-238,-391,0,0,0,0,0,0,0,0,0,-1,986,1415,0,0
-231,-391,0,0,0,0,0,0,0,0,0,-1,993,1415,0,0
-224,-391,0,0,0,0,0,0,0,0,0,-1,1000,1415,0,0
-217,-391,0,0,0,0,0,0,0,0,0,-1,1007,1415,0,0
-210,-391,0,0,0,0,0,0,0,0,0,-1,1014,1415,0,0
-203,-391,0,0,0,0,0,0,0,0,0,-1,1021,1415,0,0
-196,-391,0,0,0,0,0,0,0,0,0,-1,1028,1415,0,0
-189,-391,0,0,0,0,0,0,0,0,0,-1,1035,1415,0,0
-182,-391,0,0,0,0,0,0,0,0,0,-1,1042,1415,0,0
-175,-391,0,0,0,0,0,0,0,0,0,-1,1049,1415,0,0
-168,-391,0,0,0,0,0,0,0,0,0,-1,1056,1415,0,0
-161,-391,0,0,0,0,0,0,0,0,0,-1,1063,1415,0,0
-154,-391,0,0,0,0,0,0,0,0,0,-1,1070,1415,0,0
-147,-391,0,0,0,0,0,0,0,0,0,-1,1077,1415,0,0
-140,-391,0,0,0,0,0,0,0,0,0,-1,1084,1415,0,0
-133,-391,0,0,0,0,0,0,0,0,0,-1,1091,1415,0,0
-126,-391,0,0,0,0,0,0,0,0,0,-1,1098,1415,0,0
-119,-391,0,0,0,0,0,0,0,0,0,-1,1105,1415,0,0
-112,-391,0,0,0,0,0,0,0,0,0,-1,1112,1415,0,0
-105,-391,0,0,0,0,0,0,0,0,0,-1,1119,1415,0,0
-98,-391,0,0,0,0,0,0,0,0,0,-1,1126,1415,0,0
-91,-391,0,0,0,0,0,0,0,0,0,-1,1133,1415,0,0
-84,-391,0,0,0,0,0,0,0,0,0,-1,1140,1415,0,0
-77,-391,0,0,0,0,0,0,0,0,0,-1,1147,1415,0,0
-70,-391,0,0,0,0,0,0,0,0,0,-1,1154,1415,0,0
-63,-391,0,0,0,0,0,0,0,0,0,-1,1161,1415,0,0
-56,-391,0,0,0,0,0,0,0,0,0,-1,1168,1415,0,0
-49,-391,0,0,0,0,0,0,0,0,0,-1,1175,1415,0,0
-42,-391,0,0,0,0,0,0,0,0,0,-1,1182,1415,0,0
-35,-391,0,0,0,0,0,0,0,0,0,-1,1189,1415,0,0
-28,-391,0,0,0,0,0,0,0,0,0,-1,1196,1415,0,0
-21,-391,0,0,0,0,0,0,0,0,0,-1,1203,1415,0,0
-14,-391,0,0,0,0,0,0,0,0,0,-1,1210,1415,0,0
-7,-391,0,0,0,0,0,0,0,0,0,-1,1217,1415,0,0
0,-391,0,0,0,0,0,0,0,0,0,-1,1224,1415,0,0
7,-391,0,0,0,0,0,0,0,0,0,-1,1231,1415,0,0
14,-391,0,0,0,0,0,0,0,0,0,-1,1238,1415,0,0
21,-391,0,0,0,0,0,0,0,0,0,-1,1245,1415,0,0
28,-391,0,0,0,0,0,0,0,0,0,-1,1252,1415,0,0
35,-391,0,0,0,0,0,0,0,0,0,-1,1259,1415,0,0
42,-391,0,0,0,0,0,0,0,0,0,-1,1266,1415,0,0
49,-391,0,0,0,0,0,0,0,0,0,-1,1273,1415,0,0
56,-391,0,0,0,0,0,0,0,0,0,-1,1280,1415,0,0
63,-391,0,0,0,0,0,0,0,0,0,-1,1287,1415,0,0
70,-391,0,0,0,0,0,0,0,0,0,-1,1294,1415,0,0
77,-391,0,0,0,0,0,0,0,0,0,-1,1301,1415,0,0
84,-391,0,0,0,0,0,0,0,0,0,-1,1308,1415,0,0
91,-391,0,0,0,0,0,0,0,0,0,-1,1315,1415,0,0
98,-391,0,0,0,0,0,0,0,0,0,-1,1322,1415,0,0
105,-391,0,0,0,0,0,0,0,0,0,-1,1329,1415,0,0
112,-391,0,0,0,0,0,0,0,0,0,-1,1336,1415,0,0
119,-391,0,0,0,0,0,0,0,0,0,-1,1343,1415,0,0
126,-391,0,0,0,0,0,0,0,0,0,-1,1350,1415,0,0
133,-391,0,0,0,0,0,0,0,0,0,-1,1357,1415,0,0
140,-391,0,0,0,0,0,0,0,0,0,-1,1364,1415,0,0
147,-391,0,0,0,0,0,0,0,0,0,-1,1371,1415,0,0
154,-391,0,0,0,0,0,0,0,0,0,-1,1378,1415,0,0
161,-391,0,0,0,0,0,0,0,0,0,-1,1385,1415,0,0
168,-391,0,0,0,0,0,0,0,0,0,-1,1392,1415,0,0
175,-391,0,0,0,0,0,0,0,0,0,-1,1399,1415,0,0
182,-391,0,0,0,0,0,0,0,0,0,-1,1406,1415,0,0
189,-391,0,0,0,0,0,0,0,0,0,-1,1413,1415,0,0
196,-391,0,0,0,0,0,0,0,0,0,-1,1420,1415,0,0
203,-391,0,0,0,0,0,0,0,0,0,-1,1427,1415,0,0
210,-391,0,0,0,0,0,0,0,0,0,-1,1434,1415,0,0
217,-391,0,0,0,0,0,0,0,0,0,-1,1441,1415,0,0
224,-391,0,0,0,0,0,0,0,0,0,-1,1448,1415,0,0
231,-391,0,0,0,0,0,0,0,0,0,-1,1455,1415,0,0
238,-391,0,0,0,0,0,0,0,0,0,-1,1462,1415,0,0
245,-391,0,0,0,0,0,0,0,0,0,-1,1469,1415,0,0
252,-391,0,0,0,0,0,0,0,0,0,-1,1476,1415,0,0
259,-391,0,0,0,0,0,0,0,0,0,-1,1483,1415,0,0
266,-391,0,0,0,0,0,0,0,0,0,-1,1490,1415,0,0
273,-391,0,0,0,0,0,0,0,0,0,-1,1497,1415,0,0
280,-391,0,0,0,0,0,0,0,0,0,-1,1504,1415,0,0
287,-391,0,0,0,0,0,0,0,0,0,-1,1511,1415,0,0
294,-391,0,0,0,0,0,0,0,0,0,-1,1518,1415,0,0
301,-391,0,0,0,0,0,0,0,0,0,-1,1525,1415,0,0
308,-391,0,0,0,0,0,0,0,0,0,-1,1532,1415,0,0
315,-391,0,0,0,0,0,0,0,0,0,-1,1539,1415,0,0
322,-391,0,0,0,0,0,0,0,0,0,-1,1546,1415,0,0
329,-391,0,0,0,0,0,0,0,0,0,-1,1553,1415,0,0
336,-391,0,0,0,0,0,0,0,0,0,-1,1560,1415,0,0
343,-391,0,0,0,0,0,0,0,0,0,-1,1567,1415,0,0
350,-391,0,0,0,0,0,0,0,0,0,-1,1574,1415,0,0
357,-391,0,0,0,0,0,0,0,0,0,-1,1581,1415,0,0
364,-391,0,0,0,0,0,0,0,0,0,-1,1588,1415,0,0
371,-391,0,0,0,0,0,0,0,0,0,-1,1595,1415,0,0
378,-391,0,0,0,0,0,0,0,0,0,-1,1602,1415,0,0
385,-391,0,0,0,0,0,0,0,0,0,-1,1609,1415,0,0
392,-391,0,0,0,0,0,0,0,0,0,-1,1616,1415,0,0
399,-391,0,0,0,0,0,0,0,0,0,-1,1623,1415,0,0
406,-391,0,0,0,0,0,0,0,0,0,-1,1630,1415,0,0
413,-391,0,0,0,0,0,0,0,0,0,-1,1637,1415,0,0
420,-391,0,0,0,0,0,0,0,0,0,-1,1644,1415,0,0
427,-391,0,0,0,0,0,0,0,0,0,-1,1651,1415,0,0
434,-391,0,0,0,0,0,0,0,0,0,-1,1658,1415,0,0
441,-391,0,0,0,0,0,0,0,0,0,-1,1665,1415,0,0
448,-391,0,0,0,0,0,0,0,0,0,-1,1672,1415,0,0
455,-391,0,0,0,0,0,0,0,0,0,-1,1679,1415,0,0
462,-391,0,0,0,0,0,0,0,0,0,-1,1686,1415,0,0
469,-391,0,0,0,0,0,0,0,0,0,-1,1693,1415,0,0
476,-391,0,0,0,0,0,0,0,0,0,-1,1700,1415,0,0
483,-391,0,0,0,0,0,0,0,0,0,-1,1707,1415,0,0
490,-391,0,0,0,0,0,0,0,0,0,-1,1714,1415,0,0
497,-391,0,0,0,0,0,0,0,0,0,-1,1721,1415,0,0
504,-391,0,0,0,0,0,0,0,0,0,-1,1728,1415,0,0
511,-391,0,0,0,0,0,0,0,0,0,-1,1735,1415,0,0
518,-391,0,0,0,0,0,0,0,0,0,-1,1742,1415,0,0
525,-391,0,0,0,0,0,0,0,0,0,-1,1749,1415,0,0
532,-391,28.5959,3.02356,0,0,0,0,0,0,0,-1,1756,1415,28.596,-3.02358
539,-391,27.5881,3.25012,0,0,0,0,0,0,0,-1,1763,1415,27.5882,-3.25016
546,-391,27.2837,3.28064,0,0,0,0,0,0,0,-1,1770,1415,27.2837,-3.28064
553,-391,32.5952,5.04553,0,0,0,0,0,0,0,-1,1777,1415,32.5952,-5.04551
560,-391,31.2947,5.67017,0,0,0,0,0,0,0,-1,1784,1415,31.2947,-5.67011
567,-391,30.1473,6.17603,0,0,0,0,0,0,0,-1,1791,1415,30.1473,-6.17602
574,-391,27.5656,5.6842,0,0,0,0,0,0,0,-1,1798,1415,27.5655,-5.68422
581,-391,25.8883,5.76123,0,0,0,0,0,0,0,-1,1805,1415,25.8883,-5.76124
588,-391,24.2717,5.47986,0,0,0,0,0,0,0,-1,1812,1415,24.2717,-5.47982
595,-391,22.8827,6.1991,0,0,0,0,0,0,0,-1,1819,1415,22.8827,-6.19909
602,-391,15.1635,5.69849,0,0,0,0,0,0,0,-1,1826,1415,15.1635,-5.69847
609,-391,14.8285,7.50476,0,0,0,0,0,0,0,-1,1833,1415,14.8285,-7.50479
616,-391,17.9531,10.3104,0,0,0,0,0,0,0,-1,1840,1415,17.9532,-10.3104
623,-391,18.0262,10.006,0,0,0,0,0,0,0,-1,1847,1415,18.0262,-10.006
630,-391,18.0886,9.70227,-0.0192304,-0.00777072,0.00568224,-0.00543093,-0.0215702,1.18018,0.012955,0.0224781,1854,1415,18.0886,-9.70232
637,-391,18.05,9.44287,-0.0112433,-0.00447719,0.00320518,-0.00319996,-0.0125205,1.19159,0.0075111,0.0150248,1861,1415,18.0501,-9.44285
644,-391,18.0182,9.13074,-0.00500737,-0.00168366,0.00129406,-0.00123925,-0.00545177,1.23999,0.00329993,0.0158527,1868,1415,18.0182,-9.13074
651,-391,18.0314,8.81677,-0.000994109,-0.000258503,0.000245921,-0.000183863,-0.00106875,1.27612,0.000659807,0.0166951,1875,1415,18.0314,-8.81672
658,-391,18.0419,8.5105,0.0006961,1.69504e-07,-3.82089e-05,0.000698191,-1.92202e-06,-0.0546843,0.000466103,0.0157458,1882,1415,18.0419,-8.51052
665,-391,18.04,8.21448,0.00121827,1.79178e-05,9.09562e-05,0.00122513,1.10648e-05,0.0752021,0.000813088,0.0125437,1889,1415,18.0401,-8.21444
672,-391,18.0457,7.91077,0.00131034,-8.08733e-05,0.000406265,0.00142029,-0.000190822,0.264302,0.00101646,0.0113786,1896,1415,18.0457,-7.91073
679,-391,18.0343,7.59607,0.00142642,-0.000236149,0.000780242,0.00173523,-0.000544957,0.376868,0.00137495,0.0113347,1903,1415,18.0343,-7.59607
686,-391,18.0239,7.2865,0.00157901,-0.000475641,0.00124742,0.00216768,-0.00106432,0.440927,0.0019019,0.0136531,1910,1415,18.024,-7.28655
693,-391,18.0077,7.11951,0.00192356,-0.00065328,0.00159839,0.00268816,-0.00141788,0.446182,0.00240814,0.0318895,1917,1415,18.0078,-7.11947
700,-391,18.0458,6.96753,0,0,0,0,0,0,0,-1,1924,1415,18.0458,-6.96747
707,-391,12.9524,5.96851,0,0,0,0,0,0,0,-1,1931,1415,12.9524,-5.96849
714,-391,15.6875,7.67896,0,0,0,0,0,0,0,-1,1938,1415,15.6875,-7.67893
721,-391,14.1808,8.08435,0,0,0,0,0,0,0,-1,1945,1415,14.1808,-8.08439
728,-391,13.8102,7.28174,0,0,0,0,0,0,0,-1,1952,1415,13.8102,-7.28174
735,-391,0,0,0,0,0,0,0,0,0,-1,1959,1415,0,0
742,-391,0,0,0,0,0,0,0,0,0,-1,1966,1415,0,0
749,-391,0,0,0,0,0,0,0,0,0,-1,1973,1415,0,0
756,-391,0,0,0,0,0,0,0,0,0,-1,1980,1415,0,0
763,-391,0,0,0,0,0,0,0,0,0,-1,1987,1415,0,0
770,-391,0,0,0,0,0,0,0,0,0,-1,1994,1415,0,0
777,-391,0,0,0,0,0,0,0,0,0,-1,2001,1415,0,0
784,-391,0,0,0,0,0,0,0,0,0,-1,2008,1415,0,0
791,-391,0,0,0,0,0,0,0,0,0,-1,2015,1415,0,0
798,-391,0,0,0,0,0,0,0,0,0,-1,2022,1415,0,0
805,-391,0,0,0,0,0,0,0,0,0,-1,2029,1415,0,0
812,-391,0,0,0,0,0,0,0,0,0,-1,2036,1415,0,0
-700,-398,0,0,0,0,0,0,0,0,0,-1,524,1422,0,0
-693,-398,0,0,0,0,0,0,0,0,0,-1,531,1422,0,0
-686,-398,0,0,0,0,0,0,0,0,0,-1,538,1422,0,0
-679,-398,0,0,0,0,0,0,0,0,0,-1,545,1422,0,0
-672,-398,0,0,0,0,0,0,0,0,0,-1,552,1422,0,0
-665,-398,0,0,0,0,0,0,0,0,0,-1,559,1422,0,0
-658,-398,0,0,0,0,0,0,0,0,0,-1,566,1422,0,0
-651,-398,0,0,0,0,0,0,0,0,0,-1,573,1422,0,0
-644,-398,0,0,0,0,0,0,0,0,0,-1,580,1422,0,0
-637,-398,0,0,0,0,0,0,0,0,0,-1,587,1422,0,0
-630,-398,0,0,0,0,0,0,0,0,0,-1,594,1422,0,0
-623,-398,0,0,0,0,0,0,0,0,0,-1,601,1422,0,0
-616,-398,0,0,0,0,0,0,0,0,0,-1,608,1422,0,0
-609,-398,-7.47125,-4.05322,0,0,0,0,0,0,0,-1,615,1422,-7.47128,4.05317
-602,-398,-4.58868,-2.77026,0,0,0,0,0,0,0,-1,622,1422,-4.58869,2.77023
-595,-398,-12.2224,-1.82007,0,0,0,0,0,0,0,-1,629,1422,-12.2224,1.82006
-588,-398,-8.56049,1.85718,0,0,0,0,0,0,0,-1,636,1422,-8.5605,-1.85718
-581,-398,-8.62354,4.84009,0,0,0,0,0,0,0,-1,643,1422,-8.62351,-4.84014
-574,-398,-7.85406,5.14832,0,0,0,0,0,0,0,-1,650,1422,-7.85406,-5.14835
-567,-398,-6.11163,4.56335,0,0,0,0,0,0,0,-1,657,1422,-6.11162,-4.56341
-560,-398,-6.44562,4.9906,-0.0278062,0.00332947,-0.00653516,0.00464553,-0.0291223,-1.37207,0.0211342,0.0461515,664,1422,-6.4456,-4.99054
-553,-398,-6.8432,5.30078,-0.0206585,0.00208877,-0.00537531,0.00329502,-0.0218647,-1.35005,0.0157898,0.043651,671,1422,-6.84318,-5.30078
-546,-398,-6.98566,5.55115,-0.0148854,0.00135872,-0.00422711,0.00239288,-0.0159196,-1.33086,0.011494,0.0203163,678,1422,-6.98568,-5.55114
-539,-398,-6.93329,5.9231,-0.0100654,0.000919971,-0.00300624,0.00168884,-0.0108343,-1.32041,0.00784663,0.0126537,685,1422,-6.93332,-5.92312
-532,-398,-6.9386,6.26965,-0.00606293,0.00070881,-0.00182628,0.00116994,-0.00652406,-1.32347,0.00478725,0.0210142,692,1422,-6.9386,-6.26965
-525,-398,-6.93872,6.61841,-0.0027277,0.000590595,-0.000728821,0.000743615,-0.00288072,-1.36385,0.00221044,0.0202631,699,1422,-6.93875,-6.61842
-518,-398,-6.96741,6.9519,0.000134461,0.000391731,0.000210578,0.000509855,1.63372e-05,1.05958,0.00033459,0.0177783,706,1422,-6.96742,-6.95189
-511,-398,-6.9704,7.2605,0.00217149,0.000191939,0.000833631,0.00247577,-0.000112347,0.349987,0.00168921,0.0134218,713,1422,-6.97041,-7.26045
-504,-398,-6.97858,7.61499,0.00344591,-0.000297546,0.00101316,0.00370253,-0.000554165,0.248068,0.0026723,0.0129119,720,1422,-6.97856,-7.61501
-497,-398,-6.99255,7.95557,0.0041538,-0.00129181,0.000432951,0.004188,-0.00132601,0.0788447,0.00332339,0.0097702,727,1422,-6.99254,-7.95561
-490,-398,-6.98755,8.30481,0.0042577,-0.00326637,-0.00134342,0.00449038,-0.00349904,-0.171493,0.00462452,0.0127287,734,1422,-6.98754,-8.30487
-483,-398,-6.84528,8.75977,0.00363158,-0.00574466,-0.00380152,0.00497918,-0.00709226,-0.340671,0.00700495,0.0327072,741,1422,-6.84528,-8.75981
-476,-398,-6.48077,9.19409,0,0,0,0,0,0,0,-1,748,1422,-6.48074,-9.19411
-469,-398,-6.90991,8.81104,0,0,0,0,0,0,0,-1,755,1422,-6.90993,-8.81098
-462,-398,-7.64764,8.16333,0,0,0,0,0,0,0,-1,762,1422,-7.64765,-8.16332
-455,-398,-8.08331,6.75024,0,0,0,0,0,0,0,-1,769,1422,-8.08333,-6.75022
-448,-398,-7.4505,5.25293,0,0,0,0,0,0,0,-1,776,1422,-7.4505,-5.25291
-441,-398,-7.61639,3.32141,0,0,0,0,0,0,0,-1,783,1422,-7.61637,-3.32145
-434,-398,-10.7618,3.297,0,0,0,0,0,0,0,-1,790,1422,-10.7618,-3.29704
-427,-398,-11.9061,2.24939,0,0,0,0,0,0,0,-1,797,1422,-11.9061,-2.24941
-420,-398,-13.467,2.32788,0,0,0,0,0,0,0,-1,804,1422,-13.467,-2.32787
-413,-398,-14.7983,2.15515,0,0,0,0,0,0,0,-1,811,1422,-14.7983,-2.15516
-406,-398,0,0,0,0,0,0,0,0,0,-1,818,1422,0,0
-399,-398,0,0,0,0,0,0,0,0,0,-1,825,1422,0,0
-392,-398,0,0,0,0,0,0,0,0,0,-1,832,1422,0,0
-385,-398,0,0,0,0,0,0,0,0,0,-1,839,1422,0,0
-378,-398,0,0,0,0,0,0,0,0,0,-1,846,1422,0,0
-371,-398,0,0,0,0,0,0,0,0,0,-1,853,1422,0,0
-364,-398,0,0,0,0,0,0,0,0,0,-1,860,1422,0,0
-357,-398,0,0,0,0,0,0,0,0,0,-1,867,1422,0,0
-350,-398,0,0,0,0,0,0,0,0,0,-1,874,1422,0,0
-343,-398,0,0,0,0,0,0,0,0,0,-1,881,1422,0,0
-336,-398,0,0,0,0,0,0,0,0,0,-1,888,1422,0,0
-329,-398,0,0,0,0,0,0,0,0,0,-1,895,1422,0,0
-322,-398,0,0,0,0,0,0,0,0,0,-1,902,1422,0,0
-315,-398,0,0,0,0,0,0,0,0,0,-1,909,1422,0,0
-308,-398,0,0,0,0,0,0,0,0,0,-1,916,1422,0,0
-301,-398,0,0,0,0,0,0,0,0,0,-1,923,1422,0,0
-294,-398,0,0,0,0,0,0,0,0,0,-1,930,1422,0,0
-287,-398,0,0,0,0,0,0,0,0,0,-1,937,1422,0,0
-280,-398,0,0,0,0,0,0,0,0,0,-1,944,1422,0,0
-273,-398,0,0,0,0,0,0,0,0,0,-1,951,1422,0,0
-266,-398,0,0,0,0,0,0,0,0,0,-1,958,1422,0,0
-259,-398,0,0,0,0,0,0,0,0,0,-1,965,1422,0,0
-252,-398,0,0,0,0,0,0,0,0,0,-1,972,1422,0,0
-245,-398,0,0,0,0,0,0,0,0,0,-1,979,1422,0,0
-238,-398,0,0,0,0,0,0,0,0,0,-1,986,1422,0,0
-231,-398,0,0,0,0,0,0,0,0,0,-1,993,1422,0,0
-224,-398,0,0,0,0,0,0,0,0,0,-1,1000,1422,0,0
-217,-398,0,0,0,0,0,0,0,0,0,-1,1007,1422,0,0
-210,-398,0,0,0,0,0,0,0,0,0,-1,1014,1422,0,0
-203,-398,0,0,0,0,0,0,0,0,0,-1,1021,1422,0,0
-196,-398,0,0,0,0,0,0,0,0,0,-1,1028,1422,0,0
-189,-398,0,0,0,0,0,0,0,0,0,-1,1035,1422,0,0
-182,-398,0,0,0,0,0,0,0,0,0,-1,1042,1422,0,0
-175,-398,0,0,0,0,0,0,0,0,0,-1,1049,1422,0,0
-168,-398,0,0,0,0,0,0,0,0,0,-1,1056,1422,0,0
-161,-398,0,0,0,0,0,0,0,0,0,-1,1063,1422,0,0
-154,-398,0,0,0,0,0,0,0,0,0,-1,1070,1422,0,0
-147,-398,0,0,0,0,0,0,0,0,0,-1,1077,1422,0,0
-140,-398,0,0,0,0,0,0,0,0,0,-1,1084,1422,0,0
-133,-398,0,0,0,0,0,0,0,0,0,-1,1091,1422,0,0
-126,-398,0,0,0,0,0,0,0,0,0,-1,1098,1422,0,0
-119,-398,0,0,0,0,0,0,0,0,0,-1,1105,1422,0,0
-112,-398,0,0,0,0,0,0,0,0,0,-1,1112,1422,0,0
-105,-398,0,0,0,0,0,0,0,0,0,-1,1119,1422,0,0
-98,-398,0,0,0,0,0,0,0,0,0,-1,1126,1422,0,0
-91,-398,0,0,0,0,0,0,0,0,0,-1,1133,1422,0,0
-84,-398,0,0,0,0,0,0,0,0,0,-1,1140,1422,0,0
-77,-398,0,0,0,0,0,0,0,0,0,-1,1147,1422,0,0
-70,-398,0,0,0,0,0,0,0,0,0,-1,1154,1422,0,0
-63,-398,0,0,0,0,0,0,0,0,0,-1,1161,1422,0,0
-56,-398,0,0,0,0,0,0,0,0,0,-1,1168,1422,0,0
-49,-398,0,0,0,0,0,0,0,0,0,-1,1175,1422,0,0
-42,-398,0,0,0,0,0,0,0,0,0,-1,1182,1422,0,0
-35,-398,0,0,0,0,0,0,0,0,0,-1,1189,1422,0,0
-28,-398,0,0,0,0,0,0,0,0,0,-1,1196,1422,0,0
-21,-398,0,0,0,0,0,0,0,0,0,-1,1203,1422,0,0
-14,-398,0,0,0,0,0,0,0,0,0,-1,1210,1422,0,0
-7,-398,0,0,0,0,0,0,0,0,0,-1,1217,1422,0,0
0,-398,0,0,0,0,0,0,0,0,0,-1,1224,1422,0,0
7,-398,0,0,0,0,0,0,0,0,0,-1,1231,1422,0,0
14,-398,0,0,0,0,0,0,0,0,0,-1,1238,1422,0,0
21,-398,0,0,0,0,0,0,0,0,0,-1,1245,1422,0,0
28,-398,0,0,0,0,0,0,0,0,0,-1,1252,1422,0,0
35,-398,0,0,0,0,0,0,0,0,0,-1,1259,1422,0,0
42,-398,0,0,0,0,0,0,0,0,0,-1,1266,1422,0,0
49,-398,0,0,0,0,0,0,0,0,0,-1,1273,1422,0,0
56,-398,0,0,0,0,0,0,0,0,0,-1,1280,1422,0,0
63,-398,0,0,0,0,0,0,0,0,0,-1,1287,1422,0,0
70,-398,0,0,0,0,0,0,0,0,0,-1,1294,1422,0,0
77,-398,0,0,0,0,0,0,0,0,0,-1,1301,1422,0,0
84,-398,0,0,0,0,0,0,0,0,0,-1,1308,1422,0,0
91,-398,0,0,0,0,0,0,0,0,0,-1,1315,1422,0,0
98,-398,0,0,0,0,0,0,0,0,0,-1,1322,1422,0,0
105,-398,0,0,0,0,0,0,0,0,0,-1,1329,1422,0,0
112,-398,0,0,0,0,0,0,0,0,0,-1,1336,1422,0,0
119,-398,0,0,0,0,0,0,0,0,0,-1,1343,1422,0,0
126,-398,0,0,0,0,0,0,0,0,0,-1,1350,1422,0,0
133,-398,0,0,0,0,0,0,0,0,0,-1,1357,1422,0,0
140,-398,0,0,0,0,0,0,0,0,0,-1,1364,1422,0,0
147,-398,0,0,0,0,0,0,0,0,0,-1,1371,1422,0,0
154,-398,0,0,0,0,0,0,0,0,0,-1,1378,1422,0,0
161,-398,0,0,0,0,0,0,0,0,0,-1,1385,1422,0,0
168,-398,0,0,0,0,0,0,0,0,0,-1,1392,1422,0,0
175,-398,0,0,0,0,0,0,0,0,0,-1,1399,1422,0,0
182,-398,0,0,0,0,0,0,0,0,0,-1,1406,1422,0,0
189,-398,0,0,0,0,0,0,0,0,0,-1,1413,1422,0,0
196,-398,0,0,0,0,0,0,0,0,0,-1,1420,1422,0,0
203,-398,0,0,0,0,0,0,0,0,0,-1,1427,1422,0,0
210,-398,0,0,0,0,0,0,0,0,0,-1,1434,1422,0,0
217,-398,0,0,0,0,0,0,0,0,0,-1,1441,1422,0,0
224,-398,0,0,0,0,0,0,0,0,0,-1,1448,1422,0,0
231,-398,0,0,0,0,0,0,0,0,0,-1,1455,1422,0,0
238,-398,0,0,0,0,0,0,0,0,0,-1,1462,1422,0,0
245,-398,0,0,0,0,0,0,0,0,0,-1,1469,1422,0,0
252,-398,0,0,0,0,0,0,0,0,0,-1,1476,1422,0,0
259,-398,0,0,0,0,0,0,0,0,0,-1,1483,1422,0,0
266,-398,0,0,0,0,0,0,0,0,0,-1,1490,1422,0,0
273,-398,0,0,0,0,0,0,0,0,0,-1,1497,1422,0,0
280,-398,0,0,0,0,0,0,0,0,0,-1,1504,1422,0,0
287,-398,0,0,0,0,0,0,0,0,0,-1,1511,1422,0,0
294,-398,0,0,0,0,0,0,0,0,0,-1,1518,1422,0,0
301,-398,0,0,0,0,0,0,0,0,0,-1,1525,1422,0,0
308,-398,0,0,0,0,0,0,0,0,0,-1,1532,1422,0,0
315,-398,0,0,0,0,0,0,0,0,0,-1,1539,1422,0,0
322,-398,0,0,0,0,0,0,0,0,0,-1,1546,1422,0,0
329,-398,0,0,0,0,0,0,0,0,0,-1,1553,1422,0,0
336,-398,0,0,0,0,0,0,0,0,0,-1,1560,1422,0,0
343,-398,0,0,0,0,0,0,0,0,0,-1,1567,1422,0,0
350,-398,0,0,0,0,0,0,0,0,0,-1,1574,1422,0,0
357,-398,0,0,0,0,0,0,0,0,0,-1,1581,1422,0,0
364,-398,0,0,0,0,0,0,0,0,0,-1,1588,1422,0,0
371,-398,0,0,0,0,0,0,0,0,0,-1,1595,1422,0,0
378,-398,0,0,0,0,0,0,0,0,0,-1,1602,1422,0,0
385,-398,0,0,0,0,0,0,0,0,0,-1,1609,1422,0,0
392,-398,0,0,0,0,0,0,0,0,0,-1,1616,1422,0,0
399,-398,0,0,0,0,0,0,0,0,0,-1,1623,1422,0,0
406,-398,0,0,0,0,0,0,0,0,0,-1,1630,1422,0,0
413,-398,0,0,0,0,0,0,0,0,0,-1,1637,1422,0,0
420,-398,0,0,0,0,0,0,0,0,0,-1,1644,1422,0,0
427,-398,0,0,0,0,0,0,0,0,0,-1,1651,1422,0,0
434,-398,0,0,0,0,0,0,0,0,0,-1,1658,1422,0,0
441,-398,0,0,0,0,0,0,0,0,0,-1,1665,1422,0,0
448,-398,0,0,0,0,0,0,0,0,0,-1,1672,1422,0,0
455,-398,0,0,0,0,0,0,0,0,0,-1,1679,1422,0,0
462,-398,0,0,0,0,0,0,0,0,0,-1,1686,1422,0,0
469,-398,0,0,0,0,0,0,0,0,0,-1,1693,1422,0,0
476,-398,0,0,0,0,0,0,0,0,0,-1,1700,1422,0,0
483,-398,0,0,0,0,0,0,0,0,0,-1,1707,1422,0,0
490,-398,0,0,0,0,0,0,0,0,0,-1,1714,1422,0,0
497,-398,0,0,0,0,0,0,0,0,0,-1,1721,1422,0,0
504,-398,0,0,0,0,0,0,0,0,0,-1,1728,1422,0,0
511,-398,0,0,0,0,0,0,0,0,0,-1,1735,1422,0,0
518,-398,0,0,0,0,0,0,0,0,0,-1,1742,1422,0,0
525,-398,0,0,0,0,0,0,0,0,0,-1,1749,1422,0,0
532,-398,28.4558,3.84094,0,0,0,0,0,0,0,-1,1756,1422,28.4558,-3.8409
539,-398,27.0594,3.33887,0,0,0,0,0,0,0,-1,1763,1422,27.0595,-3.3389
546,-398,31.6873,5.58582,0,0,0,0,0,0,0,-1,1770,1422,31.6872,-5.58585
553,-398,30.4392,5.92383,0,0,0,0,0,0,0,-1,1777,1422,30.4392,-5.92386
560,-398,29.1621,6.30469,0,0,0,0,0,0,0,-1,1784,1422,29.1621,-6.30469
567,-398,27.8411,6.55029,0,0,0,0,0,0,0,-1,1791,1422,27.8411,-6.55033
574,-398,26.411,6.8916,0,0,0,0,0,0,0,-1,1798,1422,26.411,-6.8916
581,-398,24.75,7.11145,0,0,0,0,0,0,0,-1,1805,1422,24.7499,-7.11142
588,-398,23.1649,7.67969,0,0,0,0,0,0,0,-1,1812,1422,23.1649,-7.67975
595,-398,21.4253,7.86023,0,0,0,0,0,0,0,-1,1819,1422,21.4253,-7.86029
602,-398,19.6857,8.04077,0,0,0,0,0,0,0,-1,1826,1422,19.6856,-8.04083
609,-398,17.7388,10.804,0,0,0,0,0,0,0,-1,1833,1422,17.7388,-10.804
616,-398,17.8086,10.3555,-0.0241658,-0.0117965,0.00714657,-0.00853005,-0.0274323,1.14208,0.016211,0.0328422,1840,1422,17.8086,-10.3554
623,-398,17.7411,10.0465,-0.0155872,-0.00750857,0.00449132,-0.00550736,-0.0175884,1.15163,0.0103884,0.0154109,1847,1422,17.7411,-10.0465
630,-398,17.7511,9.74487,-0.00924971,-0.00446271,0.00256462,-0.00334821,-0.0103642,1.16085,0.00610741,0.0117359,1854,1422,17.7511,-9.74487
637,-398,17.736,9.44019,-0.0049042,-0.00246331,0.00131266,-0.0018914,-0.00547611,1.1599,0.00321163,0.0131015,1861,1422,17.7359,-9.44024
644,-398,17.6643,9.12634,-0.00156891,-0.000807713,0.000360171,-0.000664309,-0.00171231,1.19188,0.000996844,0.0190129,1868,1422,17.6643,-9.12628
651,-398,17.7179,8.84534,0.000221588,-0.000164511,3.37526e-05,0.000224516,-0.000167439,0.0865449,0.000227094,0.025496,1875,1422,17.7179,-8.84539
658,-398,17.7598,8.5802,0.000825681,-0.00012017,6.91326e-05,0.000830707,-0.000125196,0.0725764,0.000599907,0.0206196,1882,1422,17.7598,-8.58016
665,-398,17.7385,8.23511,0.000957915,-0.000178751,0.000279014,0.00102271,-0.000243546,0.228184,0.000775837,0.0140649,1889,1422,17.7386,-8.23506
672,-398,17.728,7.91638,0.00100718,-0.000291215,0.000580314,0.00122874,-0.000512778,0.364717,0.0010334,0.0126464,1896,1422,17.728,-7.91643
679,-398,17.7195,7.60913,0.00109245,-0.000457493,0.000943958,0.0015388,-0.000903848,0.441696,0.00142606,0.0113514,1903,1422,17.7194,-7.60914
686,-398,17.743,7.30298,0.00120707,-0.000724242,0.00144421,0.00197872,-0.0014959,0.490715,0.00201252,0.0190987,1910,1422,17.7431,-7.30302
693,-398,17.7578,7.04968,0,0,0,0,0,0,0,-1,1917,1422,17.7579,-7.04963
700,-398,14.0787,6.53918,0,0,0,0,0,0,0,-1,1924,1422,14.0787,-6.53921
707,-398,10.9731,5.479,0,0,0,0,0,0,0,-1,1931,1422,10.9732,-5.47896
714,-398,11.7313,6.17346,0,0,0,0,0,0,0,-1,1938,1422,11.7313,-6.17348
721,-398,13.9371,8.05103,0,0,0,0,0,0,0,-1,1945,1422,13.9372,-8.05102
728,-398,14.786,7.0282,0,0,0,0,0,0,0,-1,1952,1422,14.786,-7.0282
735,-398,0,0,0,0,0,0,0,0,0,-1,1959,1422,0,0
742,-398,0,0,0,0,0,0,0,0,0,-1,1966,1422,0,0
749,-398,0,0,0,0,0,0,0,0,0,-1,1973,1422,0,0
756,-398,0,0,0,0,0,0,0,0,0,-1,1980,1422,0,0
763,-398,0,0,0,0,0,0,0,0,0,-1,1987,1422,0,0
770,-398,0,0,0,0,0,0,0,0,0,-1,1994,1422,0,0
777,-398,0,0,0,0,0,0,0,0,0,-1,2001,1422,0,0
784,-398,0,0,0,0,0,0,0,0,0,-1,2008,1422,0,0
791,-398,0,0,0,0,0,0,0,0,0,-1,2015,1422,0,0
798,-398,0,0,0,0,0,0,0,0,0,-1,2022,1422,0,0
805,-398,0,0,0,0,0,0,0,0,0,-1,2029,1422,0,0
812,-398,0,0,0,0,0,0,0,0,0,-1,2036,1422,0,0
-700,-405,0,0,0,0,0,0,0,0,0,-1,524,1429,0,0
-693,-405,0,0,0,0,0,0,0,0,0,-1,531,1429,0,0
-686,-405,0,0,0,0,0,0,0,0,0,-1,538,1429,0,0
-679,-405,0,0,0,0,0,0,0,0,0,-1,545,1429,0,0
-672,-405,0,0,0,0,0,0,0,0,0,-1,552,1429,0,0
-665,-405,0,0,0,0,0,0,0,0,0,-1,559,1429,0,0
-658,-405,0,0,0,0,0,0,0,0,0,-1,566,1429,0,0
-651,-405,0,0,0,0,0,0,0,0,0,-1,573,1429,0,0
-644,-405,0,0,0,0,0,0,0,0,0,-1,580,1429,0,0
-637,-405,0,0,0,0,0,0,0,0,0,-1,587,1429,0,0
-630,-405,0,0,0,0,0,0,0,0,0,-1,594,1429,0,0
-623,-405,0,0,0,0,0,0,0,0,0,-1,601,1429,0,0
-616,-405,0,0,0,0,0,0,0,0,0,-1,608,1429,0,0
-609,-405,0,0,0,0,0,0,0,0,0,-1,615,1429,0,0
-602,-405,-5.80988,-3.46594,0,0,0,0,0,0,0,-1,622,1429,-5.80987,3.46592
-595,-405,-9.35413,2.01477,0,0,0,0,0,0,0,-1,629,1429,-9.35411,-2.01476
-588,-405,-7.35693,0.507202,0,0,0,0,0,0,0,-1,636,1429,-7.35696,-0.507187
-581,-405,-9.62579,4.36987,0,0,0,0,0,0,0,-1,643,1429,-9.62577,-4.36986
-574,-405,-8.04688,5.31116,0,0,0,0,0,0,0,-1,650,1429,-8.04688,-5.31112
-567,-405,-7.06879,5.56921,0,0,0,0,0,0,0,-1,657,1429,-7.06879,-5.5692
-560,-405,-5.93707,4.9541,0,0,0,0,0,0,0,-1,664,1429,-5.93709,-4.95414
-553,-405,-6.6521,5.23254,0,0,0,0,0,0,0,-1,671,1429,-6.65207,-5.23251
-546,-405,-6.64313,5.54858,-0.0161723,0.00312,-0.0037484,0.0038227,-0.016875,-1.38548,0.0127172,0.0309205,678,1429,-6.64311,-5.54855
-539,-405,-6.62842,5.88452,-0.0111264,0.00249529,-0.00255301,0.00295806,-0.0115892,-1.39148,0.00887795,0.0121891,685,1429,-6.62841,-5.88448
-532,-405,-6.61615,6.24231,-0.00708386,0.00204059,-0.00148724,0.00227689,-0.00732015,-1.41323,0.00579026,0.0153869,692,1429,-6.61612,-6.24228
-525,-405,-6.61163,6.62036,-0.00381308,0.00165862,-0.00055202,0.00171376,-0.00386822,-1.47125,0.0033018,0.0149093,699,1429,-6.61161,-6.62038
-518,-405,-6.60681,6.96045,-0.00107906,0.00115347,0.000174206,0.00116698,-0.00109257,1.49339,0.00130479,0.0157662,706,1429,-6.60681,-6.96045
-511,-405,-6.63086,7.29089,0.000807164,0.000659772,0.000583171,0.00132128,0.000145659,0.722546,0.000836536,0.015879,713,1429,-6.63083,-7.29092
-504,-405,-6.64417,7.63708,0.00196785,-9.82597e-05,0.000560118,0.00210993,-0.000240336,0.248416,0.00149319,0.0170769,720,1429,-6.64419,-7.63705
-497,-405,-6.638,7.98376,0.00254623,-0.00130331,-0.000214853,0.00255818,-0.00131526,-0.0555825,0.00227439,0.0136212,727,1429,-6.63801,-7.98372
-490,-405,-6.64581,8.32605,0.00262008,-0.0032926,-0.00197669,0.00322004,-0.00389255,-0.29468,0.00411257,0.011447,734,1429,-6.64583,-8.32605
-483,-405,-6.59851,8.70764,0.00205475,-0.00566028,-0.00433866,0.00400279,-0.00760832,-0.422017,0.00681056,0.0132359,741,1429,-6.5985,-8.70759
-476,-405,-6.54749,9.00037,0.000992978,-0.0084761,-0.00761476,0.00522507,-0.0127082,-0.507266,0.01065,0.0338201,748,1429,-6.54749,-9.0004
-469,-405,-6.26251,8.57935,0,0,0,0,0,0,0,-1,755,1429,-6.26253,-8.57936
-462,-405,-7.14197,8.78955,0,0,0,0,0,0,0,-1,762,1429,-7.14198,-8.78954
-455,-405,-8.02142,8.99976,0,0,0,0,0,0,0,-1,769,1429,-8.02143,-8.99972
-448,-405,-8.4649,6.82813,0,0,0,0,0,0,0,-1,776,1429,-8.46492,-6.82817
-441,-405,-6.6712,4.23767,0,0,0,0,0,0,0,-1,783,1429,-6.67121,-4.23764
-434,-405,-9.62549,3.94189,0,0,0,0,0,0,0,-1,790,1429,-9.62546,-3.94191
-427,-405,-10.9764,3.73926,0,0,0,0,0,0,0,-1,797,1429,-10.9764,-3.73923
-420,-405,-12.1187,3.68506,0,0,0,0,0,0,0,-1,804,1429,-12.1187,-3.68512
-413,-405,-13.5353,3.75659,0,0,0,0,0,0,0,-1,811,1429,-13.5353,-3.75655
-406,-405,-14.7374,3.99817,0,0,0,0,0,0,0,-1,818,1429,-14.7374,-3.99814
-399,-405,0,0,0,0,0,0,0,0,0,-1,825,1429,0,0
-392,-405,0,0,0,0,0,0,0,0,0,-1,832,1429,0,0
-385,-405,0,0,0,0,0,0,0,0,0,-1,839,1429,0,0
-378,-405,0,0,0,0,0,0,0,0,0,-1,846,1429,0,0
-371,-405,0,0,0,0,0,0,0,0,0,-1,853,1429,0,0
-364,-405,0,0,0,0,0,0,0,0,0,-1,860,1429,0,0
-357,-405,0,0,0,0,0,0,0,0,0,-1,867,1429,0,0
-350,-405,0,0,0,0,0,0,0,0,0,-1,874,1429,0,0
-343,-405,0,0,0,0,0,0,0,0,0,-1,881,1429,0,0
-336,-405,0,0,0,0,0,0,0,0,0,-1,888,1429,0,0
-329,-405,0,0,0,0,0,0,0,0,0,-1,895,1429,0,0
-322,-405,0,0,0,0,0,0,0,0,0,-1,902,1429,0,0
-315,-405,0,0,0,0,0,0,0,0,0,-1,909,1429,0,0
-308,-405,0,0,0,0,0,0,0,0,0,-1,916,1429,0,0
-301,-405,0,0,0,0,0,0,0,0,0,-1,923,1429,0,0
-294,-405,0,0,0,0,0,0,0,0,0,-1,930,1429,0,0
-287,-405,0,0,0,0,0,0,0,0,0,-1,937,1429,0,0
-280,-405,0,0,0,0,0,0,0,0,0,-1,944,1429,0,0
-273,-405,0,0,0,0,0,0,0,0,0,-1,951,1429,0,0
-266,-405,0,0,0,0,0,0,0,0,0,-1,958,1429,0,0
-259,-405,0,0,0,0,0,0,0,0,0,-1,965,1429,0,0
-252,-405,0,0,0,0,0,0,0,0,0,-1,972,1429,0,0
-245,-405,0,0,0,0,0,0,0,0,0,-1,979,1429,0,0
-238,-405,0,0,0,0,0,0,0,0,0,-1,986,1429,0,0
-231,-405,0,0,0,0,0,0,0,0,0,-1,993,1429,0,0
-224,-405,0,0,0,0,0,0,0,0,0,-1,1000,1429,0,0
-217,-405,0,0,0,0,0,0,0,0,0,-1,1007,1429,0,0
-210,-405,0,0,0,0,0,0,0,0,0,-1,1014,1429,0,0
-203,-405,0,0,0,0,0,0,0,0,0,-1,1021,1429,0,0
-196,-405,0,0,0,0,0,0,0,0,0,-1,1028,1429,0,0
-189,-405,0,0,0,0,0,0,0,0,0,-1,1035,1429,0,0
-182,-405,0,0,0,0,0,0,0,0,0,-1,1042,1429,0,0
-175,-405,0,0,0,0,0,0,0,0,0,-1,1049,1429,0,0
-168,-405,0,0,0,0,0,0,0,0,0,-1,1056,1429,0,0
-161,-405,0,0,0,0,0,0,0,0,0,-1,1063,1429,0,0
-154,-405,0,0,0,0,0,0,0,0,0,-1,1070,1429,0,0
-147,-405,0,0,0,0,0,0,0,0,0,-1,1077,1429,0,0
-140,-405,0,0,0,0,0,0,0,0,0,-1,1084,1429,0,0
-133,-405,0,0,0,0,0,0,0,0,0,-1,1091,1429,0,0
-126,-405,0,0,0,0,0,0,0,0,0,-1,1098,1429,0,0
-119,-405,0,0,0,0,0,0,0,0,0,-1,1105,1429,0,0
-112,-405,0,0,0,0,0,0,0,0,0,-1,1112,1429,0,0
-105,-405,0,0,0,0,0,0,0,0,0,-1,1119,1429,0,0
-98,-405,0,0,0,0,0,0,0,0,0,-1,1126,1429,0,0
-91,-405,0,0,0,0,0,0,0,0,0,-1,1133,1429,0,0
-84,-405,0,0,0,0,0,0,0,0,0,-1,1140,1429,0,0
-77,-405,0,0,0,0,0,0,0,0,0,-1,1147,1429,0,0
-70,-405,0,0,0,0,0,0,0,0,0,-1,1154,1429,0,0
-63,-405,0,0,0,0,0,0,0,0,0,-1,1161,1429,0,0
-56,-405,0,0,0,0,0,0,0,0,0,-1,1168,1429,0,0
-49,-405,0,0,0,0,0,0,0,0,0,-1,1175,1429,0,0
-42,-405,0,0,0,0,0,0,0,0,0,-1,1182,1429,0,0
-35,-405,0,0,0,0,0,0,0,0,0,-1,1189,1429,0,0
-28,-405,0,0,0,0,0,0,0,0,0,-1,1196,1429,0,0
-21,-405,0,0,0,0,0,0,0,0,0,-1,1203,1429,0,0
-14,-405,0,0,0,0,0,0,0,0,0,-1,1210,1429,0,0
-7,-405,0,0,0,0,0,0,0,0,0,-1,1217,1429,0,0
0,-405,0,0,0,0,0,0,0,0,0,-1,1224,1429,0,0
7,-405,0,0,0,0,0,0,0,0,0,-1,1231,1429,0,0
14,-405,0,0,0,0,0,0,0,0,0,-1,1238,1429,0,0
21,-405,0,0,0,0,0,0,0,0,0,-1,1245,1429,0,0
28,-405,0,0,0,0,0,0,0,0,0,-1,1252,1429,0,0
35,-405,0,0,0,0,0,0,0,0,0,-1,1259,1429,0,0
42,-405,0,0,0,0,0,0,0,0,0,-1,1266,1429,0,0
49,-405,0,0,0,0,0,0,0,0,0,-1,1273,1429,0,0
56,-405,0,0,0,0,0,0,0,0,0,-1,1280,1429,0,0
63,-405,0,0,0,0,0,0,0,0,0,-1,1287,1429,0,0
70,-405,0,0,0,0,0,0,0,0,0,-1,1294,1429,0,0
77,-405,0,0,0,0,0,0,0,0,0,-1,1301,1429,0,0
84,-405,0,0,0,0,0,0,0,0,0,-1,1308,1429,0,0
91,-405,0,0,0,0,0,0,0,0,0,-1,1315,1429,0,0
98,-405,0,0,0,0,0,0,0,0,0,-1,1322,1429,0,0
105,-405,0,0,0,0,0,0,0,0,0,-1,1329,1429,0,0
112,-405,0,0,0,0,0,0,0,0,0,-1,1336,1429,0,0
119,-405,0,0,0,0,0,0,0,0,0,-1,1343,1429,0,0
126,-405,0,0,0,0,0,0,0,0,0,-1,1350,1429,0,0
133,-405,0,0,0,0,0,0,0,0,0,-1,1357,1429,0,0
140,-405,0,0,0,0,0,0,0,0,0,-1,1364,1429,0,0
147,-405,0,0,0,0,0,0,0,0,0,-1,1371,1429,0,0
154,-405,0,0,0,0,0,0,0,0,0,-1,1378,1429,0,0
161,-405,0,0,0,0,0,0,0,0,0,-1,1385,1429,0,0
168,-405,0,0,0,0,0,0,0,0,0,-1,1392,1429,0,0
175,-405,0,0,0,0,0,0,0,0,0,-1,1399,1429,0,0
182,-405,0,0,0,0,0,0,0,0,0,-1,1406,1429,0,0
189,-405,0,0,0,0,0,0,0,0,0,-1,1413,1429,0,0
196,-405,0,0,0,0,0,0,0,0,0,-1,1420,1429,0,0
203,-405,0,0,0,0,0,0,0,0,0,-1,1427,1429,0,0
210,-405,0,0,0,0,0,0,0,0,0,-1,1434,1429,0,0
217,-405,0,0,0,0,0,0,0,0,0,-1,1441,1429,0,0
224,-405,0,0,0,0,0,0,0,0,0,-1,1448,1429,0,0
231,-405,0,0,0,0,0,0,0,0,0,-1,1455,1429,0,0
238,-405,0,0,0,0,0,0,0,0,0,-1,1462,1429,0,0
245,-405,0,0,0,0,0,0,0,0,0,-1,1469,1429,0,0
252,-405,0,0,0,0,0,0,0,0,0,-1,1476,1429,0,0
259,-405,0,0,0,0,0,0,0,0,0,-1,1483,1429,0,0
266,-405,0,0,0,0,0,0,0,0,0,-1,1490,1429,0,0
273,-405,0,0,0,0,0,0,0,0,0,-1,1497,1429,0,0
280,-405,0,0,0,0,0,0,0,0,0,-1,1504,1429,0,0
287,-405,0,0,0,0,0,0,0,0,0,-1,1511,1429,0,0
294,-405,0,0,0,0,0,0,0,0,0,-1,1518,1429,0,0
301,-405,0,0,0,0,0,0,0,0,0,-1,1525,1429,0,0
308,-405,0,0,0,0,0,0,0,0,0,-1,1532,1429,0,0
315,-405,0,0,0,0,0,0,0,0,0,-1,1539,1429,0,0
322,-405,0,0,0,0,0,0,0,0,0,-1,1546,1429,0,0
329,-405,0,0,0,0,0,0,0,0,0,-1,1553,1429,0,0
336,-405,0,0,0,0,0,0,0,0,0,-1,1560,1429,0,0
343,-405,0,0,0,0,0,0,0,0,0,-1,1567,1429,0,0
350,-405,0,0,0,0,0,0,0,0,0,-1,1574,1429,0,0
357,-405,0,0,0,0,0,0,0,0,0,-1,1581,1429,0,0
364,-405,0,0,0,0,0,0,0,0,0,-1,1588,1429,0,0
371,-405,0,0,0,0,0,0,0,0,0,-1,1595,1429,0,0
378,-405,0,0,0,0,0,0,0,0,0,-1,1602,1429,0,0
385,-405,0,0,0,0,0,0,0,0,0,-1,1609,1429,0,0
392,-405,0,0,0,0,0,0,0,0,0,-1,1616,1429,0,0
399,-405,0,0,0,0,0,0,0,0,0,-1,1623,1429,0,0
406,-405,0,0,0,0,0,0,0,0,0,-1,1630,1429,0,0
413,-405,0,0,0,0,0,0,0,0,0,-1,1637,1429,0,0
420,-405,0,0,0,0,0,0,0,0,0,-1,1644,1429,0,0
427,-405,0,0,0,0,0,0,0,0,0,-1,1651,1429,0,0
434,-405,0,0,0,0,0,0,0,0,0,-1,1658,1429,0,0
441,-405,0,0,0,0,0,0,0,0,0,-1,1665,1429,0,0
448,-405,0,0,0,0,0,0,0,0,0,-1,1672,1429,0,0
455,-405,0,0,0,0,0,0,0,0,0,-1,1679,1429,0,0
462,-405,0,0,0,0,0,0,0,0,0,-1,1686,1429,0,0
469,-405,0,0,0,0,0,0,0,0,0,-1,1693,1429,0,0
476,-405,0,0,0,0,0,0,0,0,0,-1,1700,1429,0,0
483,-405,0,0,0,0,0,0,0,0,0,-1,1707,1429,0,0
490,-405,0,0,0,0,0,0,0,0,0,-1,1714,1429,0,0
497,-405,0,0,0,0,0,0,0,0,0,-1,1721,1429,0,0
504,-405,0,0,0,0,0,0,0,0,0,-1,1728,1429,0,0
511,-405,0,0,0,0,0,0,0,0,0,-1,1735,1429,0,0
518,-405,0,0,0,0,0,0,0,0,0,-1,1742,1429,0,0
525,-405,31.1563,-1.40942,0,0,0,0,0,0,0,-1,1749,1429,31.1563,1.40937
532,-405,28.156,4.8783,0,0,0,0,0,0,0,-1,1756,1429,28.1561,-4.87833
539,-405,26.5133,3.02454,0,0,0,0,0,0,0,-1,1763,1429,26.5133,-3.0246
546,-405,29.5735,6.53052,0,0,0,0,0,0,0,-1,1770,1429,29.5735,-6.53049
553,-405,28.2911,6.70654,0,0,0,0,0,0,0,-1,1777,1429,28.2912,-6.70656
560,-405,26.9299,7.08472,0,0,0,0,0,0,0,-1,1784,1429,26.9299,-7.08469
567,-405,25.804,7.14661,0,0,0,0,0,0,0,-1,1791,1429,25.8039,-7.14665
574,-405,25.1151,8.07971,0,0,0,0,0,0,0,-1,1798,1429,25.1151,-8.07965
581,-405,23.5055,8.505,0,0,0,0,0,0,0,-1,1805,1429,23.5054,-8.50501
588,-405,21.7491,8.98254,0,0,0,0,0,0,0,-1,1812,1429,21.7491,-8.98254
595,-405,20.0408,9.31152,0,0,0,0,0,0,0,-1,1819,1429,20.0407,-9.31153
602,-405,17.4156,10.8943,0,0,0,0,0,0,0,-1,1826,1429,17.4157,-10.8942
609,-405,17.4442,10.7087,-0.0113615,-0.0077468,0.0039439,-0.00521584,-0.0138924,1.00025,0.00810333,0.0310549,1833,1429,17.4442,-10.7088
616,-405,17.4199,10.4282,-0.00688354,-0.00463547,0.00228377,-0.00321411,-0.0083049,1.01409,0.00483547,0.0130542,1840,1429,17.42,-10.4282
623,-405,17.4214,10.0806,-0.00389055,-0.0028438,0.00124343,-0.00201808,-0.00471627,0.984599,0.00273236,0.0101035,1847,1429,17.4214,-10.0805
630,-405,17.4357,9.75085,-0.00185555,-0.00163581,0.000547868,-0.0011869,-0.00230446,0.884356,0.00133068,0.0100604,1854,1429,17.4356,-9.7508
637,-405,17.4237,9.43481,-0.000604357,-0.000954431,0.000194107,-0.000518021,-0.00104077,0.418506,0.000600889,0.0109889,1861,1429,17.4237,-9.43476
644,-405,17.3519,9.15259,0.000374392,-0.000398284,-7.89909e-05,0.000382385,-0.000406277,-0.10084,0.000455404,0.0291444,1868,1429,17.352,-9.15253
651,-405,17.3361,8.91492,0.00085104,-0.00028814,-5.66005e-05,0.000853846,-0.000290945,-0.0495227,0.000687063,0.0295056,1875,1429,17.336,-8.91492
658,-405,17.4027,8.60364,0.000970117,-0.000358484,9.24921e-05,0.000976525,-0.000364892,0.0691715,0.000800853,0.021417,1882,1429,17.4027,-8.60364
665,-405,17.4203,8.23096,0.00107817,-0.000435386,0.000272601,0.00112577,-0.000482986,0.172872,0.00095321,0.0176645,1889,1429,17.4203,-8.2309
672,-405,17.4246,7.90918,0.0011595,-0.000554988,0.000541591,0.00131625,-0.000711741,0.281731,0.00118807,0.0215961,1896,1429,17.4246,-7.90919
679,-405,17.4362,7.58142,0.00128243,-0.000725578,0.000879896,0.00161343,-0.00105658,0.359807,0.00155267,0.0204609,1903,1429,17.4361,-7.58137
686,-405,17.343,7.27063,0.00142072,-0.0010157,0.00141972,0.00207324,-0.00166822,0.43082,0.00216435,0.0386345,1910,1429,17.343,-7.27068
693,-405,17.1915,7.08716,0,0,0,0,0,0,0,-1,1917,1429,17.1915,-7.08715
700,-405,9.1958,4.02026,0,0,0,0,0,0,0,-1,1924,1429,9.19579,-4.02025
707,-405,7.40308,3.83191,0,0,0,0,0,0,0,-1,1931,1429,7.40311,-3.83194
714,-405,7.33252,3.47388,0,0,0,0,0,0,0,-1,1938,1429,7.33255,-3.47383
721,-405,9.23523,0.993896,0,0,0,0,0,0,0,-1,1945,1429,9.23523,-0.993884
728,-405,0,0,0,0,0,0,0,0,0,-1,1952,1429,0,0
735,-405,0,0,0,0,0,0,0,0,0,-1,1959,1429,0,0
742,-405,0,0,0,0,0,0,0,0,0,-1,1966,1429,0,0
749,-405,0,0,0,0,0,0,0,0,0,-1,1973,1429,0,0
756,-405,0,0,0,0,0,0,0,0,0,-1,1980,1429,0,0
763,-405,0,0,0,0,0,0,0,0,0,-1,1987,1429,0,0
770,-405,0,0,0,0,0,0,0,0,0,-1,1994,1429,0,0
777,-405,0,0,0,0,0,0,0,0,0,-1,2001,1429,0,0
784,-405,0,0,0,0,0,0,0,0,0,-1,2008,1429,0,0
791,-405,0,0,0,0,0,0,0,0,0,-1,2015,1429,0,0
798,-405,0,0,0,0,0,0,0,0,0,-1,2022,1429,0,0
805,-405,0,0,0,0,0,0,0,0,0,-1,2029,1429,0,0
812,-405,0,0,0,0,0,0,0,0,0,-1,2036,1429,0,0
-700,-412,0,0,0,0,0,0,0,0,0,-1,524,1436,0,0
-693,-412,0,0,0,0,0,0,0,0,0,-1,531,1436,0,0
-686,-412,0,0,0,0,0,0,0,0,0,-1,538,1436,0,0
-679,-412,0,0,0,0,0,0,0,0,0,-1,545,1436,0,0
-672,-412,0,0,0,0,0,0,0,0,0,-1,552,1436,0,0
-665,-412,0,0,0,0,0,0,0,0,0,-1,559,1436,0,0
-658,-412,0,0,0,0,0,0,0,0,0,-1,566,1436,0,0
-651,-412,0,0,0,0,0,0,0,0,0,-1,573,1436,0,0
-644,-412,0,0,0,0,0,0,0,0,0,-1,580,1436,0,0
-637,-412,0,0,0,0,0,0,0,0,0,-1,587,1436,0,0
-630,-412,0,0,0,0,0,0,0,0,0,-1,594,1436,0,0
-623,-412,0,0,0,0,0,0,0,0,0,-1,601,1436,0,0
-616,-412,0,0,0,0,0,0,0,0,0,-1,608,1436,0,0
-609,-412,0,0,0,0,0,0,0,0,0,-1,615,1436,0,0
-602,-412,-3.72766,-3.50012,0,0,0,0,0,0,0,-1,622,1436,-3.72764,3.50017
-595,-412,-10.3706,0.65564,0,0,0,0,0,0,0,-1,629,1436,-10.3706,-0.655672
-588,-412,-8.17957,1.94934,0,0,0,0,0,0,0,-1,636,1436,-8.17956,-1.94939
-581,-412,-6.60065,-0.0554199,0,0,0,0,0,0,0,-1,643,1436,-6.60063,0.0554733
-574,-412,-8.34131,5.25012,0,0,0,0,0,0,0,-1,650,1436,-8.34129,-5.25012
-567,-412,-7.50354,3.65454,0,0,0,0,0,0,0,-1,657,1436,-7.50356,-3.65452
-560,-412,-5.93738,4.18628,0,0,0,0,0,0,0,-1,664,1436,-5.93738,-4.18629
-553,-412,-5.87677,5.48071,0,0,0,0,0,0,0,-1,671,1436,-5.87674,-5.48069
-546,-412,-6.0191,5.64148,-0.0161086,0.00657982,-0.00161788,0.00669461,-0.0162234,-1.49997,0.0136076,0.0444443,678,1436,-6.01912,-5.64152
-539,-412,-6.24731,5.84387,-0.0110288,0.00550965,-0.000649161,0.00553509,-0.0110542,-1.53163,0.00975295,0.0199956,685,1436,-6.24732,-5.84386
-532,-412,-6.26227,6.26025,-0.0071278,0.00457029,9.4529e-05,0.00457105,-0.00712857,1.56272,0.00680836,0.0138296,692,1436,-6.26224,-6.2603
-525,-412,-6.26831,6.63538,-0.00408039,0.00371006,0.000663344,0.00376614,-0.00413647,1.48646,0.00456424,0.0152701,699,1436,-6.2683,-6.6354
-518,-412,-6.26111,6.97852,-0.00162982,0.00271988,0.000982674,0.00293158,-0.00184152,1.35861,0.0027796,0.0159107,706,1436,-6.26112,-6.97853
-511,-412,-6.29938,7.31116,6.51669e-06,0.00178878,0.00101775,0.00225039,-0.000455101,1.14498,0.00167273,0.0193119,713,1436,-6.29937,-7.31112
-504,-412,-6.33124,7.64111,0.000987107,0.000662866,0.000662578,0.00150711,0.000142863,0.665414,0.000960666,0.0189597,720,1436,-6.33126,-7.64112
-497,-412,-6.31049,7.99438,0.0014013,-0.000829823,-0.000398539,0.00147035,-0.000898875,-0.171561,0.00138107,0.0136452,727,1436,-6.31051,-7.99444
-490,-412,-6.30841,8.34314,0.00145482,-0.00288377,-0.00221403,0.00238517,-0.00381411,-0.397801,0.00361071,0.0112989,734,1436,-6.30843,-8.34309
-483,-412,-6.31213,8.67896,0.000999234,-0.00519209,-0.00451812,0.00338048,-0.00757334,-0.485048,0.00647679,0.00836249,741,1436,-6.31214,-8.67901
-476,-412,-6.21838,9.10632,9.21992e-05,-0.00793121,-0.00765113,0.00471957,-0.0125586,-0.543938,0.0103121,0.0179487,748,1436,-6.21839,-9.10629
-469,-412,-6.25214,9.37256,-0.00121297,-0.0113005,-0.0118845,0.00665381,-0.0191673,-0.584719,0.0154803,0.0315466,755,1436,-6.25215,-9.37254
-462,-412,-6.45538,9.50073,-0.00342305,-0.0166141,-0.0182576,0.00939377,-0.0294309,-0.612068,0.0233894,0.0426445,762,1436,-6.45539,-9.50076
-455,-412,-6.72583,9.7782,0,0,0,0,0,0,0,-1,769,1436,-6.72581,-9.77817
-448,-412,-7.94574,9.45935,0,0,0,0,0,0,0,-1,776,1436,-7.94573,-9.4593
-441,-412,-8.2616,8.87683,0,0,0,0,0,0,0,-1,783,1436,-8.26158,-8.87682
-434,-412,-10.6305,8.03577,0,0,0,0,0,0,0,-1,790,1436,-10.6305,-8.0358
-427,-412,-10.0004,5.15271,0,0,0,0,0,0,0,-1,797,1436,-10.0004,-5.15266
-420,-412,-10.4468,4.9043,0,0,0,0,0,0,0,-1,804,1436,-10.4468,-4.90429
-413,-412,-11.5704,4.97766,0,0,0,0,0,0,0,-1,811,1436,-11.5704,-4.97771
-406,-412,-13.1968,5.70093,0,0,0,0,0,0,0,-1,818,1436,-13.1968,-5.70096
-399,-412,-10.5506,0.771973,0,0,0,0,0,0,0,-1,825,1436,-10.5506,-0.771954
-392,-412,0,0,0,0,0,0,0,0,0,-1,832,1436,0,0
-385,-412,0,0,0,0,0,0,0,0,0,-1,839,1436,0,0
-378,-412,0,0,0,0,0,0,0,0,0,-1,846,1436,0,0
-371,-412,0,0,0,0,0,0,0,0,0,-1,853,1436,0,0
-364,-412,0,0,0,0,0,0,0,0,0,-1,860,1436,0,0
-357,-412,0,0,0,0,0,0,0,0,0,-1,867,1436,0,0
-350,-412,0,0,0,0,0,0,0,0,0,-1,874,1436,0,0
-343,-412,0,0,0,0,0,0,0,0,0,-1,881,1436,0,0
-336,-412,0,0,0,0,0,0,0,0,0,-1,888,1436,0,0
-329,-412,0,0,0,0,0,0,0,0,0,-1,895,1436,0,0
-322,-412,0,0,0,0,0,0,0,0,0,-1,902,1436,0,0
-315,-412,0,0,0,0,0,0,0,0,0,-1,909,1436,0,0
-308,-412,0,0,0,0,0,0,0,0,0,-1,916,1436,0,0
-301,-412,0,0,0,0,0,0,0,0,0,-1,923,1436,0,0
-294,-412,0,0,0,0,0,0,0,0,0,-1,930,1436,0,0
-287,-412,0,0,0,0,0,0,0,0,0,-1,937,1436,0,0
-280,-412,0,0,0,0,0,0,0,0,0,-1,944,1436,0,0
-273,-412,0,0,0,0,0,0,0,0,0,-1,951,1436,0,0
-266,-412,0,0,0,0,0,0,0,0,0,-1,958,1436,0,0
-259,-412,0,0,0,0,0,0,0,0,0,-1,965,1436,0,0
-252,-412,0,0,0,0,0,0,0,0,0,-1,972,1436,0,0
-245,-412,0,0,0,0,0,0,0,0,0,-1,979,1436,0,0
-238,-412,0,0,0,0,0,0,0,0,0,-1,986,1436,0,0
-231,-412,0,0,0,0,0,0,0,0,0,-1,993,1436,0,0
-224,-412,0,0,0,0,0,0,0,0,0,-1,1000,1436,0,0
-217,-412,0,0,0,0,0,0,0,0,0,-1,1007,1436,0,0
-210,-412,0,0,0,0,0,0,0,0,0,-1,1014,1436,0,0
-203,-412,0,0,0,0,0,0,0,0,0,-1,1021,1436,0,0
-196,-412,0,0,0,0,0,0,0,0,0,-1,1028,1436,0,0
-189,-412,0,0,0,0,0,0,0,0,0,-1,1035,1436,0,0
-182,-412,0,0,0,0,0,0,0,0,0,-1,1042,1436,0,0
-175,-412,0,0,0,0,0,0,0,0,0,-1,1049,1436,0,0
-168,-412,0,0,0,0,0,0,0,0,0,-1,1056,1436,0,0
-161,-412,0,0,0,0,0,0,0,0,0,-1,1063,1436,0,0
-154,-412,0,0,0,0,0,0,0,0,0,-1,1070,1436,0,0
-147,-412,0,0,0,0,0,0,0,0,0,-1,1077,1436,0,0
-140,-412,0,0,0,0,0,0,0,0,0,-1,1084,1436,0,0
-133,-412,0,0,0,0,0,0,0,0,0,-1,1091,1436,0,0
-126,-412,0,0,0,0,0,0,0,0,0,-1,1098,1436,0,0
-119,-412,0,0,0,0,0,0,0,0,0,-1,1105,1436,0,0
-112,-412,0,0,0,0,0,0,0,0,0,-1,1112,1436,0,0
-105,-412,0,0,0,0,0,0,0,0,0,-1,1119,1436,0,0
-98,-412,0,0,0,0,0,0,0,0,0,-1,1126,1436,0,0
-91,-412,0,0,0,0,0,0,0,0,0,-1,1133,1436,0,0
-84,-412,0,0,0,0,0,0,0,0,0,-1,1140,1436,0,0
-77,-412,0,0,0,0,0,0,0,0,0,-1,1147,1436,0,0
-70,-412,0,0,0,0,0,0,0,0,0,-1,1154,1436,0,0
-63,-412,0,0,0,0,0,0,0,0,0,-1,1161,1436,0,0
-56,-412,0,0,0,0,0,0,0,0,0,-1,1168,1436,0,0
-49,-412,0,0,0,0,0,0,0,0,0,-1,1175,1436,0,0
-42,-412,0,0,0,0,0,0,0,0,0,-1,1182,1436,0,0
-35,-412,0,0,0,0,0,0,0,0,0,-1,1189,1436,0,0
-28,-412,0,0,0,0,0,0,0,0,0,-1,1196,1436,0,0
-21,-412,0,0,0,0,0,0,0,0,0,-1,1203,1436,0,0
-14,-412,0,0,0,0,0,0,0,0,0,-1,1210,1436,0,0
-7,-412,0,0,0,0,0,0,0,0,0,-1,1217,1436,0,0
0,-412,0,0,0,0,0,0,0,0,0,-1,1224,1436,0,0
7,-412,0,0,0,0,0,0,0,0,0,-1,1231,1436,0,0
14,-412,0,0,0,0,0,0,0,0,0,-1,1238,1436,0,0
21,-412,0,0,0,0,0,0,0,0,0,-1,1245,1436,0,0
28,-412,0,0,0,0,0,0,0,0,0,-1,1252,1436,0,0
35,-412,0,0,0,0,0,0,0,0,0,-1,1259,1436,0,0
42,-412,0,0,0,0,0,0,0,0,0,-1,1266,1436,0,0
49,-412,0,0,0,0,0,0,0,0,0,-1,1273,1436,0,0
56,-412,0,0,0,0,0,0,0,0,0,-1,1280,1436,0,0
63,-412,0,0,0,0,0,0,0,0,0,-1,1287,1436,0,0
70,-412,0,0,0,0,0,0,0,0,0,-1,1294,1436,0,0
77,-412,0,0,0,0,0,0,0,0,0,-1,1301,1436,0,0
84,-412,0,0,0,0,0,0,0,0,0,-1,1308,1436,0,0
91,-412,0,0,0,0,0,0,0,0,0,-1,1315,1436,0,0
98,-412,0,0,0,0,0,0,0,0,0,-1,1322,1436,0,0
105,-412,0,0,0,0,0,0,0,0,0,-1,1329,1436,0,0
112,-412,0,0,0,0,0,0,0,0,0,-1,1336,1436,0,0
119,-412,0,0,0,0,0,0,0,0,0,-1,1343,1436,0,0
126,-412,0,0,0,0,0,0,0,0,0,-1,1350,1436,0,0
133,-412,0,0,0,0,0,0,0,0,0,-1,1357,1436,0,0
140,-412,0,0,0,0,0,0,0,0,0,-1,1364,1436,0,0
147,-412,0,0,0,0,0,0,0,0,0,-1,1371,1436,0,0
154,-412,0,0,0,0,0,0,0,0,0,-1,1378,1436,0,0
161,-412,0,0,0,0,0,0,0,0,0,-1,1385,1436,0,0
168,-412,0,0,0,0,0,0,0,0,0,-1,1392,1436,0,0
175,-412,0,0,0,0,0,0,0,0,0,-1,1399,1436,0,0
182,-412,0,0,0,0,0,0,0,0,0,-1,1406,1436,0,0
189,-412,0,0,0,0,0,0,0,0,0,-1,1413,1436,0,0
196,-412,0,0,0,0,0,0,0,0,0,-1,1420,1436,0,0
203,-412,0,0,0,0,0,0,0,0,0,-1,1427,1436,0,0
210,-412,0,0,0,0,0,0,0,0,0,-1,1434,1436,0,0
217,-412,0,0,0,0,0,0,0,0,0,-1,1441,1436,0,0
224,-412,0,0,0,0,0,0,0,0,0,-1,1448,1436,0,0
231,-412,0,0,0,0,0,0,0,0,0,-1,1455,1436,0,0
238,-412,0,0,0,0,0,0,0,0,0,-1,1462,1436,0,0
245,-412,0,0,0,0,0,0,0,0,0,-1,1469,1436,0,0
252,-412,0,0,0,0,0,0,0,0,0,-1,1476,1436,0,0
259,-412,0,0,0,0,0,0,0,0,0,-1,1483,1436,0,0
266,-412,0,0,0,0,0,0,0,0,0,-1,1490,1436,0,0
273,-412,0,0,0,0,0,0,0,0,0,-1,1497,1436,0,0
280,-412,0,0,0,0,0,0,0,0,0,-1,1504,1436,0,0
287,-412,0,0,0,0,0,0,0,0,0,-1,1511,1436,0,0
294,-412,0,0,0,0,0,0,0,0,0,-1,1518,1436,0,0
301,-412,0,0,0,0,0,0,0,0,0,-1,1525,1436,0,0
308,-412,0,0,0,0,0,0,0,0,0,-1,1532,1436,0,0
315,-412,0,0,0,0,0,0,0,0,0,-1,1539,1436,0,0
322,-412,0,0,0,0,0,0,0,0,0,-1,1546,1436,0,0
329,-412,0,0,0,0,0,0,0,0,0,-1,1553,1436,0,0
336,-412,0,0,0,0,0,0,0,0,0,-1,1560,1436,0,0
343,-412,0,0,0,0,0,0,0,0,0,-1,1567,1436,0,0
350,-412,0,0,0,0,0,0,0,0,0,-1,1574,1436,0,0
357,-412,0,0,0,0,0,0,0,0,0,-1,1581,1436,0,0
364,-412,0,0,0,0,0,0,0,0,0,-1,1588,1436,0,0
371,-412,0,0,0,0,0,0,0,0,0,-1,1595,1436,0,0
378,-412,0,0,0,0,0,0,0,0,0,-1,1602,1436,0,0
385,-412,0,0,0,0,0,0,0,0,0,-1,1609,1436,0,0
392,-412,0,0,0,0,0,0,0,0,0,-1,1616,1436,0,0
399,-412,0,0,0,0,0,0,0,0,0,-1,1623,1436,0,0
406,-412,0,0,0,0,0,0,0,0,0,-1,1630,1436,0,0
413,-412,0,0,0,0,0,0,0,0,0,-1,1637,1436,0,0
420,-412,0,0,0,0,0,0,0,0,0,-1,1644,1436,0,0
427,-412,0,0,0,0,0,0,0,0,0,-1,1651,1436,0,0
434,-412,0,0,0,0,0,0,0,0,0,-1,1658,1436,0,0
441,-412,0,0,0,0,0,0,0,0,0,-1,1665,1436,0,0
448,-412,0,0,0,0,0,0,0,0,0,-1,1672,1436,0,0
455,-412,0,0,0,0,0,0,0,0,0,-1,1679,1436,0,0
462,-412,0,0,0,0,0,0,0,0,0,-1,1686,1436,0,0
469,-412,0,0,0,0,0,0,0,0,0,-1,1693,1436,0,0
476,-412,0,0,0,0,0,0,0,0,0,-1,1700,1436,0,0
483,-412,0,0,0,0,0,0,0,0,0,-1,1707,1436,0,0
490,-412,0,0,0,0,0,0,0,0,0,-1,1714,1436,0,0
497,-412,0,0,0,0,0,0,0,0,0,-1,1721,1436,0,0
504,-412,0,0,0,0,0,0,0,0,0,-1,1728,1436,0,0
511,-412,0,0,0,0,0,0,0,0,0,-1,1735,1436,0,0
518,-412,30.1038,-2.43384,0,0,0,0,0,0,0,-1,1742,1436,30.1038,2.43383
525,-412,29.5283,-1.42493,0,0,0,0,0,0,0,-1,1749,1436,29.5283,1.42495
532,-412,28.8533,-0.386597,0,0,0,0,0,0,0,-1,1756,1436,28.8533,0.386632
539,-412,25.8654,2.74683,0,0,0,0,0,0,0,-1,1763,1436,25.8654,-2.74685
546,-412,25.4265,2.4342,0,0,0,0,0,0,0,-1,1770,1436,25.4265,-2.4342
553,-412,26.3595,7.49255,0,0,0,0,0,0,0,-1,1777,1436,26.3595,-7.4925
560,-412,24.9116,7.94324,0,0,0,0,0,0,0,-1,1784,1436,24.9116,-7.94327
567,-412,23.668,7.94531,0,0,0,0,0,0,0,-1,1791,1436,23.6679,-7.94534
574,-412,23.0142,9.17236,0,0,0,0,0,0,0,-1,1798,1436,23.0141,-9.17235
581,-412,22.2615,10.0349,0,0,0,0,0,0,0,-1,1805,1436,22.2615,-10.0349
588,-412,19.9309,10.0831,0,0,0,0,0,0,0,-1,1812,1436,19.931,-10.0832
595,-412,18.3469,11.5558,0,0,0,0,0,0,0,-1,1819,1436,18.3469,-11.5558
602,-412,17.3835,10.9614,0,0,0,0,0,0,0,-1,1826,1436,17.3835,-10.9615
609,-412,17.1499,10.7156,-0.00233923,-0.000688538,0.00138113,9.50665e-05,-0.00312283,1.05472,0.00211429,0.00987588,1833,1436,17.1499,-10.7156
616,-412,17.1243,10.397,-0.00150767,-0.000325465,0.000815625,9.07299e-05,-0.00192386,1.09896,0.00131386,0.00776793,1840,1436,17.1242,-10.397
623,-412,17.1102,10.0732,-0.000778008,-0.0003575,0.000439258,-8.07693e-05,-0.00105474,1.00861,0.000677842,0.00924344,1847,1436,17.1103,-10.0732
630,-412,17.1254,9.73596,-0.000167467,-0.000319209,0.000167917,-5.90758e-05,-0.0004276,0.573208,0.000267558,0.0110112,1854,1436,17.1254,-9.736
637,-412,17.1222,9.43079,0.000208258,-0.000385718,8.3085e-05,0.000219661,-0.000397121,0.136393,0.000360979,0.012594,1861,1436,17.1222,-9.43077
644,-412,17.1138,9.14172,0.000538371,-0.000426345,1.14912e-05,0.000538508,-0.000426482,0.0119093,0.000558387,0.0145107,1868,1436,17.1138,-9.14176
651,-412,17.1237,8.88635,0.000796845,-0.000548193,6.52487e-05,0.000800003,-0.000551351,0.0483593,0.000784595,0.0249441,1875,1436,17.1237,-8.88631
658,-412,17.1387,8.55457,0.000958889,-0.000658988,0.000165109,0.000975567,-0.000675666,0.10067,0.000958567,0.0171736,1882,1436,17.1386,-8.55459
665,-412,17.0973,8.23633,0.00110416,-0.000774075,0.000295882,0.00114967,-0.000819583,0.15261,0.00114226,0.0215919,1889,1436,17.0973,-8.23632
672,-412,17.1096,7.9115,0.0012025,-0.000945104,0.000525644,0.00132425,-0.00106686,0.227613,0.00138317,0.0257059,1896,1436,17.1097,-7.91146
679,-412,17.1361,7.55518,0.00134009,-0.0011645,0.000818475,0.00158384,-0.00140825,0.289444,0.00172847,0.0362244,1903,1436,17.1361,-7.55514
686,-412,17.0342,7.1156,0,0,0,0,0,0,0,-1,1910,1436,17.0341,-7.11562
693,-412,11.9346,6.02344,0,0,0,0,0,0,0,-1,1917,1436,11.9346,-6.02343
700,-412,8.82764,5.8844,0,0,0,0,0,0,0,-1,1924,1436,8.82761,-5.88444
707,-412,6.59998,1.68994,0,0,0,0,0,0,0,-1,1931,1436,6.60002,-1.68995
714,-412,4.77283,-2.39832,0,0,0,0,0,0,0,-1,1938,1436,4.77288,2.39835
721,-412,0,0,0,0,0,0,0,0,0,-1,1945,1436,0,0
728,-412,0,0,0,0,0,0,0,0,0,-1,1952,1436,0,0
735,-412,0,0,0,0,0,0,0,0,0,-1,1959,1436,0,0
742,-412,0,0,0,0,0,0,0,0,0,-1,1966,1436,0,0
749,-412,0,0,0,0,0,0,0,0,0,-1,1973,1436,0,0
756,-412,0,0,0,0,0,0,0,0,0,-1,1980,1436,0,0
763,-412,0,0,0,0,0,0,0,0,0,-1,1987,1436,0,0
770,-412,0,0,0,0,0,0,0,0,0,-1,1994,1436,0,0
777,-412,0,0,0,0,0,0,0,0,0,-1,2001,1436,0,0
784,-412,0,0,0,0,0,0,0,0,0,-1,2008,1436,0,0
791,-412,0,0,0,0,0,0,0,0,0,-1,2015,1436,0,0
798,-412,0,0,0,0,0,0,0,0,0,-1,2022,1436,0,0
805,-412,0,0,0,0,0,0,0,0,0,-1,2029,1436,0,0
812,-412,0,0,0,0,0,0,0,0,0,-1,2036,1436,0,0
-700,-419,0,0,0,0,0,0,0,0,0,-1,524,1443,0,0
-693,-419,0,0,0,0,0,0,0,0,0,-1,531,1443,0,0
-686,-419,0,0,0,0,0,0,0,0,0,-1,538,1443,0,0
-679,-419,0,0,0,0,0,0,0,0,0,-1,545,1443,0,0
-672,-419,0,0,0,0,0,0,0,0,0,-1,552,1443,0,0
-665,-419,0,0,0,0,0,0,0,0,0,-1,559,1443,0,0
-658,-419,0,0,0,0,0,0,0,0,0,-1,566,1443,0,0
-651,-419,0,0,0,0,0,0,0,0,0,-1,573,1443,0,0
-644,-419,0,0,0,0,0,0,0,0,0,-1,580,1443,0,0
-637,-419,0,0,0,0,0,0,0,0,0,-1,587,1443,0,0
-630,-419,0,0,0,0,0,0,0,0,0,-1,594,1443,0,0
-623,-419,0,0,0,0,0,0,0,0,0,-1,601,1443,0,0
-616,-419,0,0,0,0,0,0,0,0,0,-1,608,1443,0,0
-609,-419,0,0,0,0,0,0,0,0,0,-1,615,1443,0,0
-602,-419,0,0,0,0,0,0,0,0,0,-1,622,1443,0,0
-595,-419,-11.4904,-0.622681,0,0,0,0,0,0,0,-1,629,1443,-11.4903,0.622714
-588,-419,-9.09369,0.742432,0,0,0,0,0,0,0,-1,636,1443,-9.09366,-0.742482
-581,-419,-6.39172,2.14673,0,0,0,0,0,0,0,-1,643,1443,-6.39175,-2.14668
-574,-419,-4.09772,3.54773,0,0,0,0,0,0,0,-1,650,1443,-4.09772,-3.54767
-567,-419,-6.14038,3.22498,0,0,0,0,0,0,0,-1,657,1443,-6.14037,-3.22497
-560,-419,-4.72058,5.29407,0,0,0,0,0,0,0,-1,664,1443,-4.7206,-5.29413
-553,-419,-4.98419,5.65295,0,0,0,0,0,0,0,-1,671,1443,-4.98418,-5.65293
-546,-419,-5.38049,5.87598,-0.0144195,0.0117913,0.0033294,0.0122076,-0.0148358,1.4464,0.0156381,0.0482285,678,1443,-5.38049,-5.87594
-539,-419,-5.73572,5.92639,-0.00950944,0.00991956,0.0036701,0.0105897,-0.0101796,1.39019,0.011992,0.0390785,685,1443,-5.73574,-5.92635
-532,-419,-5.92511,6.24792,-0.005927,0.00820228,0.00371677,0.00912035,-0.00684506,1.32864,0.00924878,0.0168611,692,1443,-5.92512,-6.24793
-525,-419,-5.92493,6.63159,-0.00325991,0.00663323,0.0035738,0.00778917,-0.00441585,1.25797,0.00713572,0.0124324,699,1443,-5.92495,-6.63153
-518,-419,-5.92163,6.98047,-0.00122539,0.00500779,0.0031913,0.00635187,-0.00256947,1.17218,0.0053028,0.0164161,706,1443,-5.92162,-6.98045
-511,-419,-5.94037,7.32813,5.09463e-05,0.00352105,0.00258609,0.0049002,-0.0013282,1.08087,0.00378796,0.0195921,713,1443,-5.94038,-7.32811
-504,-419,-5.97473,7.66858,0.00074683,0.00196734,0.00168454,0.00314876,-0.000434589,0.959179,0.00225802,0.0189854,720,1443,-5.97474,-7.66852
-497,-419,-5.96069,7.99963,0.000932833,0.000167917,0.000187588,0.000976361,0.00012439,0.228002,0.000613661,0.0123402,727,1443,-5.96068,-7.99969
-490,-419,-5.95905,8.34363,0.000910866,-0.00196121,-0.00180835,0.00178401,-0.00283436,-0.449827,0.00268931,0.010259,734,1443,-5.95904,-8.34362
-483,-419,-5.96295,8.67712,0.000510525,-0.00421079,-0.00414931,0.0029237,-0.00662396,-0.526768,0.00564865,0.00902932,741,1443,-5.96298,-8.67717
-476,-419,-5.96466,9.04224,-0.000278465,-0.00685815,-0.00718244,0.00433172,-0.0114683,-0.570638,0.00942725,0.0104177,748,1443,-5.96465,-9.04227
-469,-419,-5.92572,9.45911,-0.00118033,-0.00962562,-0.0107258,0.00612412,-0.0169301,-0.597871,0.0137891,0.0175515,755,1443,-5.92574,-9.45909
-462,-419,-5.85651,9.73987,-0.00262263,-0.0139503,-0.0158246,0.00852113,-0.0250941,-0.613544,0.0201787,0.0377806,762,1443,-5.85649,-9.73983
-455,-419,-6.20715,9.63354,-0.00483995,-0.0199731,-0.0231207,0.0119209,-0.0367339,-0.62726,0.0292832,0.0493719,769,1443,-6.20717,-9.6336
-448,-419,-6.76385,9.38623,0,0,0,0,0,0,0,-1,776,1443,-6.76384,-9.38629
-441,-419,-6.94031,8.59143,0,0,0,0,0,0,0,-1,783,1443,-6.94031,-8.59146
-434,-419,-7.78229,8.85327,0,0,0,0,0,0,0,-1,790,1443,-7.78229,-8.85325
-427,-419,-8.23193,7.89404,0,0,0,0,0,0,0,-1,797,1443,-8.23193,-7.89404
-420,-419,-8.74091,6.36597,0,0,0,0,0,0,0,-1,804,1443,-8.74089,-6.366
-413,-419,-9.88391,6.53955,0,0,0,0,0,0,0,-1,811,1443,-9.8839,-6.53955
-406,-419,-10.3372,2.75195,0,0,0,0,0,0,0,-1,818,1443,-10.3372,-2.75201
-399,-419,-11.5999,1.40002,0,0,0,0,0,0,0,-1,825,1443,-11.5999,-1.39998
-392,-419,0,0,0,0,0,0,0,0,0,-1,832,1443,0,0
-385,-419,0,0,0,0,0,0,0,0,0,-1,839,1443,0,0
-378,-419,0,0,0,0,0,0,0,0,0,-1,846,1443,0,0
-371,-419,0,0,0,0,0,0,0,0,0,-1,853,1443,0,0
-364,-419,0,0,0,0,0,0,0,0,0,-1,860,1443,0,0
-357,-419,0,0,0,0,0,0,0,0,0,-1,867,1443,0,0
-350,-419,0,0,0,0,0,0,0,0,0,-1,874,1443,0,0
-343,-419,0,0,0,0,0,0,0,0,0,-1,881,1443,0,0
-336,-419,0,0,0,0,0,0,0,0,0,-1,888,1443,0,0
-329,-419,0,0,0,0,0,0,0,0,0,-1,895,1443,0,0
-322,-419,0,0,0,0,0,0,0,0,0,-1,902,1443,0,0
-315,-419,0,0,0,0,0,0,0,0,0,-1,909,1443,0,0
-308,-419,0,0,0,0,0,0,0,0,0,-1,916,1443,0,0
-301,-419,0,0,0,0,0,0,0,0,0,-1,923,1443,0,0
-294,-419,0,0,0,0,0,0,0,0,0,-1,930,1443,0,0
-287,-419,0,0,0,0,0,0,0,0,0,-1,937,1443,0,0
-280,-419,0,0,0,0,0,0,0,0,0,-1,944,1443,0,0
-273,-419,0,0,0,0,0,0,0,0,0,-1,951,1443,0,0
-266,-419,0,0,0,0,0,0,0,0,0,-1,958,1443,0,0
-259,-419,0,0,0,0,0,0,0,0,0,-1,965,1443,0,0
-252,-419,0,0,0,0,0,0,0,0,0,-1,972,1443,0,0
-245,-419,0,0,0,0,0,0,0,0,0,-1,979,1443,0,0
-238,-419,0,0,0,0,0,0,0,0,0,-1,986,1443,0,0
-231,-419,0,0,0,0,0,0,0,0,0,-1,993,1443,0,0
-224,-419,0,0,0,0,0,0,0,0,0,-1,1000,1443,0,0
-217,-419,0,0,0,0,0,0,0,0,0,-1,1007,1443,0,0
-210,-419,0,0,0,0,0,0,0,0,0,-1,1014,1443,0,0
-203,-419,0,0,0,0,0,0,0,0,0,-1,1021,1443,0,0
-196,-419,0,0,0,0,0,0,0,0,0,-1,1028,1443,0,0
-189,-419,0,0,0,0,0,0,0,0,0,-1,1035,1443,0,0
-182,-419,0,0,0,0,0,0,0,0,0,-1,1042,1443,0,0
-175,-419,0,0,0,0,0,0,0,0,0,-1,1049,1443,0,0
-168,-419,0,0,0,0,0,0,0,0,0,-1,1056,1443,0,0
-161,-419,0,0,0,0,0,0,0,0,0,-1,1063,1443,0,0
-154,-419,0,0,0,0,0,0,0,0,0,-1,1070,1443,0,0
-147,-419,0,0,0,0,0,0,0,0,0,-1,1077,1443,0,0
-140,-419,0,0,0,0,0,0,0,0,0,-1,1084,1443,0,0
-133,-419,0,0,0,0,0,0,0,0,0,-1,1091,1443,0,0
-126,-419,0,0,0,0,0,0,0,0,0,-1,1098,1443,0,0
-119,-419,0,0,0,0,0,0,0,0,0,-1,1105,1443,0,0
-112,-419,0,0,0,0,0,0,0,0,0,-1,1112,1443,0,0
-105,-419,0,0,0,0,0,0,0,0,0,-1,1119,1443,0,0
-98,-419,0,0,0,0,0,0,0,0,0,-1,1126,1443,0,0
-91,-419,0,0,0,0,0,0,0,0,0,-1,1133,1443,0,0
-84,-419,0,0,0,0,0,0,0,0,0,-1,1140,1443,0,0
-77,-419,0,0,0,0,0,0,0,0,0,-1,1147,1443,0,0
-70,-419,0,0,0,0,0,0,0,0,0,-1,1154,1443,0,0
-63,-419,0,0,0,0,0,0,0,0,0,-1,1161,1443,0,0
-56,-419,0,0,0,0,0,0,0,0,0,-1,1168,1443,0,0
-49,-419,0,0,0,0,0,0,0,0,0,-1,1175,1443,0,0
-42,-419,0,0,0,0,0,0,0,0,0,-1,1182,1443,0,0
-35,-419,0,0,0,0,0,0,0,0,0,-1,1189,1443,0,0
-28,-419,0,0,0,0,0,0,0,0,0,-1,1196,1443,0,0
-21,-419,0,0,0,0,0,0,0,0,0,-1,1203,1443,0,0
-14,-419,0,0,0,0,0,0,0,0,0,-1,1210,1443,0,0
-7,-419,0,0,0,0,0,0,0,0,0,-1,1217,1443,0,0
0,-419,0,0,0,0,0,0,0,0,0,-1,1224,1443,0,0
7,-419,0,0,0,0,0,0,0,0,0,-1,1231,1443,0,0
14,-419,0,0,0,0,0,0,0,0,0,-1,1238,1443,0,0
21,-419,0,0,0,0,0,0,0,0,0,-1,1245,1443,0,0
28,-419,0,0,0,0,0,0,0,0,0,-1,1252,1443,0,0
35,-419,0,0,0,0,0,0,0,0,0,-1,1259,1443,0,0
42,-419,0,0,0,0,0,0,0,0,0,-1,1266,1443,0,0
49,-419,0,0,0,0,0,0,0,0,0,-1,1273,1443,0,0
56,-419,0,0,0,0,0,0,0,0,0,-1,1280,1443,0,0
63,-419,0,0,0,0,0,0,0,0,0,-1,1287,1443,0,0
70,-419,0,0,0,0,0,0,0,0,0,-1,1294,1443,0,0
77,-419,0,0,0,0,0,0,0,0,0,-1,1301,1443,0,0
84,-419,0,0,0,0,0,0,0,0,0,-1,1308,1443,0,0
91,-419,0,0,0,0,0,0,0,0,0,-1,1315,1443,0,0
98,-419,0,0,0,0,0,0,0,0,0,-1,1322,1443,0,0
105,-419,0,0,0,0,0,0,0,0,0,-1,1329,1443,0,0
112,-419,0,0,0,0,0,0,0,0,0,-1,1336,1443,0,0
119,-419,0,0,0,0,0,0,0,0,0,-1,1343,1443,0,0
126,-419,0,0,0,0,0,0,0,0,0,-1,1350,1443,0,0
133,-419,0,0,0,0,0,0,0,0,0,-1,1357,1443,0,0
140,-419,0,0,0,0,0,0,0,0,0,-1,1364,1443,0,0
147,-419,0,0,0,0,0,0,0,0,0,-1,1371,1443,0,0
154,-419,0,0,0,0,0,0,0,0,0,-1,1378,1443,0,0
161,-419,0,0,0,0,0,0,0,0,0,-1,1385,1443,0,0
168,-419,0,0,0,0,0,0,0,0,0,-1,1392,1443,0,0
175,-419,0,0,0,0,0,0,0,0,0,-1,1399,1443,0,0
182,-419,0,0,0,0,0,0,0,0,0,-1,1406,1443,0,0
189,-419,0,0,0,0,0,0,0,0,0,-1,1413,1443,0,0
196,-419,0,0,0,0,0,0,0,0,0,-1,1420,1443,0,0
203,-419,0,0,0,0,0,0,0,0,0,-1,1427,1443,0,0
210,-419,0,0,0,0,0,0,0,0,0,-1,1434,1443,0,0
217,-419,0,0,0,0,0,0,0,0,0,-1,1441,1443,0,0
224,-419,0,0,0,0,0,0,0,0,0,-1,1448,1443,0,0
231,-419,0,0,0,0,0,0,0,0,0,-1,1455,1443,0,0
238,-419,0,0,0,0,0,0,0,0,0,-1,1462,1443,0,0
245,-419,0,0,0,0,0,0,0,0,0,-1,1469,1443,0,0
252,-419,0,0,0,0,0,0,0,0,0,-1,1476,1443,0,0
259,-419,0,0,0,0,0,0,0,0,0,-1,1483,1443,0,0
266,-419,0,0,0,0,0,0,0,0,0,-1,1490,1443,0,0
273,-419,0,0,0,0,0,0,0,0,0,-1,1497,1443,0,0
280,-419,0,0,0,0,0,0,0,0,0,-1,1504,1443,0,0
287,-419,0,0,0,0,0,0,0,0,0,-1,1511,1443,0,0
294,-419,0,0,0,0,0,0,0,0,0,-1,1518,1443,0,0
301,-419,0,0,0,0,0,0,0,0,0,-1,1525,1443,0,0
308,-419,0,0,0,0,0,0,0,0,0,-1,1532,1443,0,0
315,-419,0,0,0,0,0,0,0,0,0,-1,1539,1443,0,0
322,-419,0,0,0,0,0,0,0,0,0,-1,1546,1443,0,0
329,-419,0,0,0,0,0,0,0,0,0,-1,1553,1443,0,0
336,-419,0,0,0,0,0,0,0,0,0,-1,1560,1443,0,0
343,-419,0,0,0,0,0,0,0,0,0,-1,1567,1443,0,0
350,-419,0,0,0,0,0,0,0,0,0,-1,1574,1443,0,0
357,-419,0,0,0,0,0,0,0,0,0,-1,1581,1443,0,0
364,-419,0,0,0,0,0,0,0,0,0,-1,1588,1443,0,0
371,-419,0,0,0,0,0,0,0,0,0,-1,1595,1443,0,0
378,-419,0,0,0,0,0,0,0,0,0,-1,1602,1443,0,0
385,-419,0,0,0,0,0,0,0,0,0,-1,1609,1443,0,0
392,-419,0,0,0,0,0,0,0,0,0,-1,1616,1443,0,0
399,-419,0,0,0,0,0,0,0,0,0,-1,1623,1443,0,0
406,-419,0,0,0,0,0,0,0,0,0,-1,1630,1443,0,0
413,-419,0,0,0,0,0,0,0,0,0,-1,1637,1443,0,0
420,-419,0,0,0,0,0,0,0,0,0,-1,1644,1443,0,0
427,-419,0,0,0,0,0,0,0,0,0,-1,1651,1443,0,0
434,-419,0,0,0,0,0,0,0,0,0,-1,1658,1443,0,0
441,-419,0,0,0,0,0,0,0,0,0,-1,1665,1443,0,0
448,-419,0,0,0,0,0,0,0,0,0,-1,1672,1443,0,0
455,-419,0,0,0,0,0,0,0,0,0,-1,1679,1443,0,0
462,-419,0,0,0,0,0,0,0,0,0,-1,1686,1443,0,0
469,-419,0,0,0,0,0,0,0,0,0,-1,1693,1443,0,0
476,-419,0,0,0,0,0,0,0,0,0,-1,1700,1443,0,0
483,-419,0,0,0,0,0,0,0,0,0,-1,1707,1443,0,0
490,-419,0,0,0,0,0,0,0,0,0,-1,1714,1443,0,0
497,-419,0,0,0,0,0,0,0,0,0,-1,1721,1443,0,0
504,-419,0,0,0,0,0,0,0,0,0,-1,1728,1443,0,0
511,-419,20.3005,3.7959,0,0,0,0,0,0,0,-1,1735,1443,20.3005,-3.79584
518,-419,21.3154,2.03027,0,0,0,0,0,0,0,-1,1742,1443,21.3155,-2.03029
525,-419,28.3439,-1.24475,0,0,0,0,0,0,0,-1,1749,1443,28.3438,1.24471
532,-419,27.5902,-0.272583,0,0,0,0,0,0,0,-1,1756,1443,27.5902,0.272526
539,-419,26.5278,1.60583,0,0,0,0,0,0,0,-1,1763,1443,26.5279,-1.60579
546,-419,24.9509,2.77539,0,0,0,0,0,0,0,-1,1770,1443,24.9509,-2.77537
553,-419,24.118,3.75525,0,0,0,0,0,0,0,-1,1777,1443,24.1181,-3.75526
560,-419,11.8199,8.26343,0,0,0,0,0,0,0,-1,1784,1443,11.82,-8.26341
567,-419,21.5143,8.74719,0,0,0,0,0,0,0,-1,1791,1443,21.5143,-8.74722
574,-419,19.5886,6.46155,0,0,0,0,0,0,0,-1,1798,1443,19.5886,-6.46157
581,-419,20.7926,11.4265,0,0,0,0,0,0,0,-1,1805,1443,20.7926,-11.4265
588,-419,18.1998,12.0084,0,0,0,0,0,0,0,-1,1812,1443,18.1998,-12.0085
595,-419,17.5438,11.4957,0,0,0,0,0,0,0,-1,1819,1443,17.5438,-11.4957
602,-419,16.8878,10.9829,0,0,0,0,0,0,0,-1,1826,1443,16.8878,-10.9829
609,-419,16.823,10.7268,-0.0021733,-0.000641855,0.00136,0.000153172,-0.00296833,1.04179,0.00203187,0.0108855,1833,1443,16.823,-10.7268
616,-419,16.8004,10.4175,-0.00141919,-0.000338412,0.000852945,0.000130919,-0.00188853,1.06776,0.00130485,0.0109109,1840,1443,16.8004,-10.4175
623,-419,16.8083,10.0931,-0.000723648,-0.000410813,0.000494919,-4.81819e-05,-0.00108628,0.938454,0.000708672,0.0094692,1847,1443,16.8083,-10.0931
630,-419,16.8286,9.76624,-0.00011864,-0.000422586,0.000231908,6.65445e-06,-0.000547881,0.495347,0.000367492,0.0115689,1854,1443,16.8286,-9.76624
637,-419,16.8062,9.47925,0.000266166,-0.00055336,0.000161771,0.000296943,-0.000584138,0.188005,0.000517622,0.0119251,1861,1443,16.8062,-9.4793
644,-419,16.797,9.19067,0.000614497,-0.000674956,0.00010143,0.000622426,-0.000682886,0.0780217,0.000753892,0.0110424,1868,1443,16.797,-9.19073
651,-419,16.8018,8.87854,0.000882166,-0.00087471,0.0001539,0.000895546,-0.000888089,0.0867186,0.00102979,0.0114934,1875,1443,16.8017,-8.87851
658,-419,16.7727,8.54224,0.00107821,-0.00106882,0.000230308,0.00110263,-0.00109324,0.105667,0.00126779,0.0133567,1882,1443,16.7727,-8.54224
665,-419,16.7587,8.23083,0.00125304,-0.00127013,0.000334997,0.00129676,-0.00131385,0.129774,0.00150725,0.0203341,1889,1443,16.7587,-8.23078
672,-419,16.7947,7.86597,0.00135891,-0.00154575,0.000541065,0.00145642,-0.00164326,0.17831,0.00179069,0.025878,1896,1443,16.7947,-7.86591
679,-419,16.9144,7.52222,0,0,0,0,0,0,0,-1,1903,1443,16.9145,-7.52216
686,-419,15.7267,7.26367,0,0,0,0,0,0,0,-1,1910,1443,15.7266,-7.26371
693,-419,8.76086,5.60535,0,0,0,0,0,0,0,-1,1917,1443,8.76091,-5.6054
700,-419,11.0498,4.85156,0,0,0,0,0,0,0,-1,1924,1443,11.0498,-4.85153
707,-419,9.5752,1.80042,0,0,0,0,0,0,0,-1,1931,1443,9.57523,-1.80037
714,-419,5.77576,-1.25061,0,0,0,0,0,0,0,-1,1938,1443,5.7757,1.25056
721,-419,0,0,0,0,0,0,0,0,0,-1,1945,1443,0,0
728,-419,0,0,0,0,0,0,0,0,0,-1,1952,1443,0,0
735,-419,0,0,0,0,0,0,0,0,0,-1,1959,1443,0,0
742,-419,0,0,0,0,0,0,0,0,0,-1,1966,1443,0,0
749,-419,0,0,0,0,0,0,0,0,0,-1,1973,1443,0,0
756,-419,0,0,0,0,0,0,0,0,0,-1,1980,1443,0,0
763,-419,0,0,0,0,0,0,0,0,0,-1,1987,1443,0,0
770,-419,0,0,0,0,0,0,0,0,0,-1,1994,1443,0,0
777,-419,0,0,0,0,0,0,0,0,0,-1,2001,1443,0,0
784,-419,0,0,0,0,0,0,0,0,0,-1,2008,1443,0,0
791,-419,0,0,0,0,0,0,0,0,0,-1,2015,1443,0,0
798,-419,0,0,0,0,0,0,0,0,0,-1,2022,1443,0,0
805,-419,0,0,0,0,0,0,0,0,0,-1,2029,1443,0,0
812,-419,0,0,0,0,0,0,0,0,0,-1,2036,1443,0,0
-700,-426,0,0,0,0,0,0,0,0,0,-1,524,1450,0,0
-693,-426,0,0,0,0,0,0,0,0,0,-1,531,1450,0,0
-686,-426,0,0,0,0,0,0,0,0,0,-1,538,1450,0,0
-679,-426,0,0,0,0,0,0,0,0,0,-1,545,1450,0,0
-672,-426,0,0,0,0,0,0,0,0,0,-1,552,1450,0,0
-665,-426,0,0,0,0,0,0,0,0,0,-1,559,1450,0,0
-658,-426,0,0,0,0,0,0,0,0,0,-1,566,1450,0,0
-651,-426,0,0,0,0,0,0,0,0,0,-1,573,1450,0,0
-644,-426,0,0,0,0,0,0,0,0,0,-1,580,1450,0,0
-637,-426,0,0,0,0,0,0,0,0,0,-1,587,1450,0,0
-630,-426,0,0,0,0,0,0,0,0,0,-1,594,1450,0,0
-623,-426,0,0,0,0,0,0,0,0,0,-1,601,1450,0,0
-616,-426,0,0,0,0,0,0,0,0,0,-1,608,1450,0,0
-609,-426,0,0,0,0,0,0,0,0,0,-1,615,1450,0,0
-602,-426,0,0,0,0,0,0,0,0,0,-1,622,1450,0,0
-595,-426,0,0,0,0,0,0,0,0,0,-1,629,1450,0,0
-588,-426,-10.184,-0.554321,0,0,0,0,0,0,0,-1,636,1450,-10.184,0.554321
-581,-426,-7.3349,1.48157,0,0,0,0,0,0,0,-1,643,1450,-7.33491,-1.48152
-574,-426,-5.02856,2.89319,0,0,0,0,0,0,0,-1,650,1450,-5.02858,-2.89319
-567,-426,-3.04797,1.72644,0,0,0,0,0,0,0,-1,657,1450,-3.04797,-1.72639
-560,-426,-5.55682,3.44397,0,0,0,0,0,0,0,-1,664,1450,-5.55684,-3.44399
-553,-426,-4.64862,5.94641,0,0,0,0,0,0,0,-1,671,1450,-4.64865,-5.94641
-546,-426,-5.14398,5.73181,0,0,0,0,0,0,0,-1,678,1450,-5.14399,-5.73181
-539,-426,-5.25232,6.04468,-0.00733423,0.0149847,0.00852444,0.017868,-0.0102176,1.24463,0.0164145,0.0451665,685,1450,-5.25233,-6.0447
-532,-426,-5.49957,6.27759,-0.00420175,0.0123227,0.00769404,0.0153504,-0.00722946,1.19589,0.0133146,0.0337837,692,1450,-5.49954,-6.27755
-525,-426,-5.58459,6.60376,-0.00200564,0.00992163,0.00673814,0.0129562,-0.0050402,1.14765,0.01072,0.0156139,699,1450,-5.58461,-6.60374
-518,-426,-5.55927,6.99084,-0.000440439,0.00761485,0.00562258,0.0105035,-0.00332911,1.0962,0.00833664,0.0161977,706,1450,-5.55928,-6.99088
-511,-426,-5.59845,7.33313,0.000460465,0.0055333,0.00441453,0.00808819,-0.00209443,1.04615,0.00620916,0.0159779,713,1450,-5.59845,-7.33315
-504,-426,-5.63269,7.66858,0.000889677,0.00354977,0.00304813,0.00554541,-0.00110596,0.99112,0.00411543,0.0151202,720,1450,-5.63268,-7.66855
-497,-426,-5.61353,8.00476,0.000890396,0.00147179,0.00123539,0.00245022,-8.80345e-05,0.90095,0.0016636,0.0117719,727,1450,-5.61351,-8.00479
-490,-426,-5.6098,8.35095,0.000810789,-0.000727895,-0.000855842,0.00119225,-0.00110936,-0.419286,0.00132912,0.0116678,734,1450,-5.60981,-8.35098
-483,-426,-5.61713,8.67981,0.000468495,-0.00292582,-0.0031653,0.00236292,-0.00482024,-0.539314,0.00422731,0.0118307,741,1450,-5.6171,-8.67978
-476,-426,-5.63354,9.03467,-0.000206448,-0.00548971,-0.00603747,0.00374201,-0.00943817,-0.579176,0.00784289,0.00987617,748,1450,-5.63352,-9.03466
-469,-426,-5.63666,9.38074,-0.000851801,-0.00797193,-0.00914004,0.00539702,-0.0142208,-0.599686,0.011702,0.00829923,755,1450,-5.63664,-9.38071
-462,-426,-5.50934,9.81555,-0.00176294,-0.0114554,-0.0132521,0.00750127,-0.0207196,-0.610105,0.0168785,0.0208425,762,1450,-5.50934,-9.81554
-455,-426,-5.67419,9.92944,-0.00310998,-0.0162345,-0.0188749,0.0103109,-0.0296554,-0.618099,0.0239586,0.0454615,769,1450,-5.67418,-9.9294
-448,-426,-6.0495,9.60986,-0.00494038,-0.0224797,-0.0261979,0.0139167,-0.0413368,-0.623887,0.0331842,0.0472371,776,1450,-6.0495,-9.60983
-441,-426,-6.10791,9.26868,-0.00724186,-0.0304475,-0.0355742,0.0185739,-0.0562632,-0.627759,0.0449967,0.0462721,783,1450,-6.10788,-9.26867
-434,-426,-5.96985,9.07031,0,0,0,0,0,0,0,-1,790,1450,-5.96982,-9.07034
-427,-426,-4.58551,8.85742,0,0,0,0,0,0,0,-1,797,1450,-4.58551,-8.85737
-420,-426,-5.33765,7.95044,0,0,0,0,0,0,0,-1,804,1450,-5.33766,-7.95041
-413,-426,-10.1148,5.0415,0,0,0,0,0,0,0,-1,811,1450,-10.1148,-5.04152
-406,-426,-11.4199,3.6438,0,0,0,0,0,0,0,-1,818,1450,-11.4198,-3.64382
-399,-426,-12.7595,2.29004,0,0,0,0,0,0,0,-1,825,1450,-12.7595,-2.29003
-392,-426,-12.4147,0.537354,0,0,0,0,0,0,0,-1,832,1450,-12.4147,-0.53731
-385,-426,0,0,0,0,0,0,0,0,0,-1,839,1450,0,0
-378,-426,0,0,0,0,0,0,0,0,0,-1,846,1450,0,0
-371,-426,0,0,0,0,0,0,0,0,0,-1,853,1450,0,0
-364,-426,0,0,0,0,0,0,0,0,0,-1,860,1450,0,0
-357,-426,0,0,0,0,0,0,0,0,0,-1,867,1450,0,0
-350,-426,0,0,0,0,0,0,0,0,0,-1,874,1450,0,0
-343,-426,0,0,0,0,0,0,0,0,0,-1,881,1450,0,0
-336,-426,0,0,0,0,0,0,0,0,0,-1,888,1450,0,0
-329,-426,0,0,0,0,0,0,0,0,0,-1,895,1450,0,0
-322,-426,0,0,0,0,0,0,0,0,0,-1,902,1450,0,0
-315,-426,0,0,0,0,0,0,0,0,0,-1,909,1450,0,0
-308,-426,0,0,0,0,0,0,0,0,0,-1,916,1450,0,0
-301,-426,0,0,0,0,0,0,0,0,0,-1,923,1450,0,0
-294,-426,0,0,0,0,0,0,0,0,0,-1,930,1450,0,0
-287,-426,0,0,0,0,0,0,0,0,0,-1,937,1450,0,0
-280,-426,0,0,0,0,0,0,0,0,0,-1,944,1450,0,0
-273,-426,0,0,0,0,0,0,0,0,0,-1,951,1450,0,0
-266,-426,0,0,0,0,0,0,0,0,0,-1,958,1450,0,0
-259,-426,0,0,0,0,0,0,0,0,0,-1,965,1450,0,0
-252,-426,0,0,0,0,0,0,0,0,0,-1,972,1450,0,0
-245,-426,0,0,0,0,0,0,0,0,0,-1,979,1450,0,0
-238,-426,0,0,0,0,0,0,0,0,0,-1,986,1450,0,0
-231,-426,0,0,0,0,0,0,0,0,0,-1,993,1450,0,0
-224,-426,0,0,0,0,0,0,0,0,0,-1,1000,1450,0,0
-217,-426,0,0,0,0,0,0,0,0,0,-1,1007,1450,0,0
-210,-426,0,0,0,0,0,0,0,0,0,-1,1014,1450,0,0
-203,-426,0,0,0,0,0,0,0,0,0,-1,1021,1450,0,0
-196,-426,0,0,0,0,0,0,0,0,0,-1,1028,1450,0,0
-189,-426,0,0,0,0,0,0,0,0,0,-1,1035,1450,0,0
-182,-426,0,0,0,0,0,0,0,0,0,-1,1042,1450,0,0
-175,-426,0,0,0,0,0,0,0,0,0,-1,1049,1450,0,0
-168,-426,0,0,0,0,0,0,0,0,0,-1,1056,1450,0,0
-161,-426,0,0,0,0,0,0,0,0,0,-1,1063,1450,0,0
-154,-426,0,0,0,0,0,0,0,0,0,-1,1070,1450,0,0
-147,-426,0,0,0,0,0,0,0,0,0,-1,1077,1450,0,0
-140,-426,0,0,0,0,0,0,0,0,0,-1,1084,1450,0,0
-133,-426,0,0,0,0,0,0,0,0,0,-1,1091,1450,0,0
-126,-426,0,0,0,0,0,0,0,0,0,-1,1098,1450,0,0
-119,-426,0,0,0,0,0,0,0,0,0,-1,1105,1450,0,0
-112,-426,0,0,0,0,0,0,0,0,0,-1,1112,1450,0,0
-105,-426,0,0,0,0,0,0,0,0,0,-1,1119,1450,0,0
-98,-426,0,0,0,0,0,0,0,0,0,-1,1126,1450,0,0
-91,-426,0,0,0,0,0,0,0,0,0,-1,1133,1450,0,0
-84,-426,0,0,0,0,0,0,0,0,0,-1,1140,1450,0,0
-77,-426,0,0,0,0,0,0,0,0,0,-1,1147,1450,0,0
-70,-426,0,0,0,0,0,0,0,0,0,-1,1154,1450,0,0
-63,-426,0,0,0,0,0,0,0,0,0,-1,1161,1450,0,0
-56,-426,0,0,0,0,0,0,0,0,0,-1,1168,1450,0,0
-49,-426,0,0,0,0,0,0,0,0,0,-1,1175,1450,0,0
-42,-426,0,0,0,0,0,0,0,0,0,-1,1182,1450,0,0
-35,-426,0,0,0,0,0,0,0,0,0,-1,1189,1450,0,0
-28,-426,0,0,0,0,0,0,0,0,0,-1,1196,1450,0,0
-21,-426,0,0,0,0,0,0,0,0,0,-1,1203,1450,0,0
-14,-426,0,0,0,0,0,0,0,0,0,-1,1210,1450,0,0
-7,-426,0,0,0,0,0,0,0,0,0,-1,1217,1450,0,0
0,-426,0,0,0,0,0,0,0,0,0,-1,1224,1450,0,0
7,-426,0,0,0,0,0,0,0,0,0,-1,1231,1450,0,0
14,-426,0,0,0,0,0,0,0,0,0,-1,1238,1450,0,0
21,-426,0,0,0,0,0,0,0,0,0,-1,1245,1450,0,0
28,-426,0,0,0,0,0,0,0,0,0,-1,1252,1450,0,0
35,-426,0,0,0,0,0,0,0,0,0,-1,1259,1450,0,0
42,-426,0,0,0,0,0,0,0,0,0,-1,1266,1450,0,0
49,-426,0,0,0,0,0,0,0,0,0,-1,1273,1450,0,0
56,-426,0,0,0,0,0,0,0,0,0,-1,1280,1450,0,0
63,-426,0,0,0,0,0,0,0,0,0,-1,1287,1450,0,0
70,-426,0,0,0,0,0,0,0,0,0,-1,1294,1450,0,0
77,-426,0,0,0,0,0,0,0,0,0,-1,1301,1450,0,0
84,-426,0,0,0,0,0,0,0,0,0,-1,1308,1450,0,0
91,-426,0,0,0,0,0,0,0,0,0,-1,1315,1450,0,0
98,-426,0,0,0,0,0,0,0,0,0,-1,1322,1450,0,0
105,-426,0,0,0,0,0,0,0,0,0,-1,1329,1450,0,0
112,-426,0,0,0,0,0,0,0,0,0,-1,1336,1450,0,0
119,-426,0,0,0,0,0,0,0,0,0,-1,1343,1450,0,0
126,-426,0,0,0,0,0,0,0,0,0,-1,1350,1450,0,0
133,-426,0,0,0,0,0,0,0,0,0,-1,1357,1450,0,0
140,-426,0,0,0,0,0,0,0,0,0,-1,1364,1450,0,0
147,-426,0,0,0,0,0,0,0,0,0,-1,1371,1450,0,0
154,-426,0,0,0,0,0,0,0,0,0,-1,1378,1450,0,0
161,-426,0,0,0,0,0,0,0,0,0,-1,1385,1450,0,0
168,-426,0,0,0,0,0,0,0,0,0,-1,1392,1450,0,0
175,-426,0,0,0,0,0,0,0,0,0,-1,1399,1450,0,0
182,-426,0,0,0,0,0,0,0,0,0,-1,1406,1450,0,0
189,-426,0,0,0,0,0,0,0,0,0,-1,1413,1450,0,0
196,-426,0,0,0,0,0,0,0,0,0,-1,1420,1450,0,0
203,-426,0,0,0,0,0,0,0,0,0,-1,1427,1450,0,0
210,-426,0,0,0,0,0,0,0,0,0,-1,1434,1450,0,0
217,-426,0,0,0,0,0,0,0,0,0,-1,1441,1450,0,0
224,-426,0,0,0,0,0,0,0,0,0,-1,1448,1450,0,0
231,-426,0,0,0,0,0,0,0,0,0,-1,1455,1450,0,0
238,-426,0,0,0,0,0,0,0,0,0,-1,1462,1450,0,0
245,-426,0,0,0,0,0,0,0,0,0,-1,1469,1450,0,0
252,-426,0,0,0,0,0,0,0,0,0,-1,1476,1450,0,0
259,-426,0,0,0,0,0,0,0,0,0,-1,1483,1450,0,0
266,-426,0,0,0,0,0,0,0,0,0,-1,1490,1450,0,0
273,-426,0,0,0,0,0,0,0,0,0,-1,1497,1450,0,0
280,-426,0,0,0,0,0,0,0,0,0,-1,1504,1450,0,0
287,-426,0,0,0,0,0,0,0,0,0,-1,1511,1450,0,0
294,-426,0,0,0,0,0,0,0,0,0,-1,1518,1450,0,0
301,-426,0,0,0,0,0,0,0,0,0,-1,1525,1450,0,0
308,-426,0,0,0,0,0,0,0,0,0,-1,1532,1450,0,0
315,-426,0,0,0,0,0,0,0,0,0,-1,1539,1450,0,0
322,-426,0,0,0,0,0,0,0,0,0,-1,1546,1450,0,0
329,-426,0,0,0,0,0,0,0,0,0,-1,1553,1450,0,0
336,-426,0,0,0,0,0,0,0,0,0,-1,1560,1450,0,0
343,-426,0,0,0,0,0,0,0,0,0,-1,1567,1450,0,0
350,-426,0,0,0,0,0,0,0,0,0,-1,1574,1450,0,0
357,-426,0,0,0,0,0,0,0,0,0,-1,1581,1450,0,0
364,-426,0,0,0,0,0,0,0,0,0,-1,1588,1450,0,0
371,-426,0,0,0,0,0,0,0,0,0,-1,1595,1450,0,0
378,-426,0,0,0,0,0,0,0,0,0,-1,1602,1450,0,0
385,-426,0,0,0,0,0,0,0,0,0,-1,1609,1450,0,0
392,-426,0,0,0,0,0,0,0,0,0,-1,1616,1450,0,0
399,-426,0,0,0,0,0,0,0,0,0,-1,1623,1450,0,0
406,-426,0,0,0,0,0,0,0,0,0,-1,1630,1450,0,0
413,-426,0,0,0,0,0,0,0,0,0,-1,1637,1450,0,0
420,-426,0,0,0,0,0,0,0,0,0,-1,1644,1450,0,0
427,-426,0,0,0,0,0,0,0,0,0,-1,1651,1450,0,0
434,-426,0,0,0,0,0,0,0,0,0,-1,1658,1450,0,0
441,-426,0,0,0,0,0,0,0,0,0,-1,1665,1450,0,0
448,-426,0,0,0,0,0,0,0,0,0,-1,1672,1450,0,0
455,-426,0,0,0,0,0,0,0,0,0,-1,1679,1450,0,0
462,-426,0,0,0,0,0,0,0,0,0,-1,1686,1450,0,0
469,-426,0,0,0,0,0,0,0,0,0,-1,1693,1450,0,0
476,-426,0,0,0,0,0,0,0,0,0,-1,1700,1450,0,0
483,-426,0,0,0,0,0,0,0,0,0,-1,1707,1450,0,0
490,-426,0,0,0,0,0,0,0,0,0,-1,1714,1450,0,0
497,-426,0,0,0,0,0,0,0,0,0,-1,1721,1450,0,0
504,-426,20.6873,3.38367,0,0,0,0,0,0,0,-1,1728,1450,20.6873,-3.38361
511,-426,19.6676,3.53748,0,0,0,0,0,0,0,-1,1735,1450,19.6676,-3.53749
518,-426,18.6853,3.32288,0,0,0,0,0,0,0,-1,1742,1450,18.6853,-3.3229
525,-426,18.9552,2.71033,0,0,0,0,0,0,0,-1,1749,1450,18.9552,-2.71034
532,-426,19.4333,2.70764,0,0,0,0,0,0,0,-1,1756,1450,19.4334,-2.70764
539,-426,25.1482,2.56287,0,0,0,0,0,0,0,-1,1763,1450,25.1482,-2.56286
546,-426,24.1136,3.75659,0,0,0,0,0,0,0,-1,1770,1450,24.1136,-3.7566
553,-426,23.0791,4.95032,0,0,0,0,0,0,0,-1,1777,1450,23.0791,-4.95034
560,-426,12.9688,11.8289,0,0,0,0,0,0,0,-1,1784,1450,12.9688,-11.8288
567,-426,13.6388,11.5623,0,0,0,0,0,0,0,-1,1791,1450,13.6388,-11.5623
574,-426,14.3943,11.0286,0,0,0,0,0,0,0,-1,1798,1450,14.3942,-11.0285
581,-426,16.2191,11.2299,0,0,0,0,0,0,0,-1,1805,1450,16.2191,-11.2298
588,-426,16.6732,11.3273,0,0,0,0,0,0,0,-1,1812,1450,16.6733,-11.3272
595,-426,16.609,11.3741,-0.00440723,-0.00132245,0.00312122,0.000616681,-0.00634636,1.01488,0.00445073,0.0310268,1819,1450,16.609,-11.3742
602,-426,16.4905,11.0392,-0.00297866,-0.000766816,0.00199206,0.000405715,-0.00415119,1.0388,0.00291214,0.016696,1826,1450,16.4905,-11.0392
609,-426,16.5067,10.7129,-0.00198332,-0.000490542,0.00133749,0.000294725,-0.00276859,1.0399,0.0019514,0.0119318,1833,1450,16.5067,-10.7129
616,-426,16.5016,10.4021,-0.00130903,-0.000331494,0.000895365,0.000199823,-0.00184035,1.03524,0.00129864,0.0131974,1840,1450,16.5016,-10.4021
623,-426,16.5092,10.092,-0.000655538,-0.000501133,0.000565326,-7.76217e-06,-0.00114891,0.85326,0.000763365,0.0106739,1847,1450,16.5091,-10.092
630,-426,16.5271,9.79443,-4.94973e-05,-0.000616167,0.000312754,8.91795e-05,-0.000754843,0.417356,0.000535437,0.0112557,1854,1450,16.5271,-9.79446
637,-426,16.5203,9.50305,0.000364012,-0.000859029,0.000244041,0.000410909,-0.000905926,0.189853,0.000777975,0.0118743,1861,1450,16.5202,-9.50306
644,-426,16.4862,9.19702,0.000753054,-0.00110795,0.000187508,0.000771758,-0.00112666,0.0994249,0.00110242,0.0118613,1868,1450,16.4863,-9.19696
651,-426,16.4572,8.87341,0.00106742,-0.00142042,0.000213839,0.00108566,-0.00143867,0.0851218,0.00146217,0.0118432,1875,1450,16.4572,-8.87336
658,-426,16.4641,8.51282,0.00136003,-0.00173132,0.000231452,0.00137727,-0.00174855,0.0743185,0.00180893,0.0121251,1882,1450,16.4641,-8.51276
665,-426,16.4965,8.12866,0.00165571,-0.00204953,0.000259612,0.00167381,-0.00206763,0.0696129,0.00216411,0.0193248,1889,1450,16.4964,-8.12866
672,-426,15.9834,7.62695,0,0,0,0,0,0,0,-1,1896,1450,15.9834,-7.62696
679,-426,16.2158,7.70984,0,0,0,0,0,0,0,-1,1903,1450,16.2159,-7.70986
686,-426,13.5326,8.03711,0,0,0,0,0,0,0,-1,1910,1450,13.5326,-8.03717
693,-426,11.8607,6.45215,0,0,0,0,0,0,0,-1,1917,1450,11.8607,-6.45215
700,-426,9.24304,2.95447,0,0,0,0,0,0,0,-1,1924,1450,9.24305,-2.95442
707,-426,8.44519,-1.21448,0,0,0,0,0,0,0,-1,1931,1450,8.44514,1.21454
714,-426,0,0,0,0,0,0,0,0,0,-1,1938,1450,0,0
721,-426,0,0,0,0,0,0,0,0,0,-1,1945,1450,0,0
728,-426,0,0,0,0,0,0,0,0,0,-1,1952,1450,0,0
735,-426,0,0,0,0,0,0,0,0,0,-1,1959,1450,0,0
742,-426,0,0,0,0,0,0,0,0,0,-1,1966,1450,0,0
749,-426,0,0,0,0,0,0,0,0,0,-1,1973,1450,0,0
756,-426,0,0,0,0,0,0,0,0,0,-1,1980,1450,0,0
763,-426,0,0,0,0,0,0,0,0,0,-1,1987,1450,0,0
770,-426,0,0,0,0,0,0,0,0,0,-1,1994,1450,0,0
777,-426,0,0,0,0,0,0,0,0,0,-1,2001,1450,0,0
784,-426,0,0,0,0,0,0,0,0,0,-1,2008,1450,0,0
791,-426,0,0,0,0,0,0,0,0,0,-1,2015,1450,0,0
798,-426,0,0,0,0,0,0,0,0,0,-1,2022,1450,0,0
805,-426,0,0,0,0,0,0,0,0,0,-1,2029,1450,0,0
812,-426,0,0,0,0,0,0,0,0,0,-1,2036,1450,0,0
-700,-433,0,0,0,0,0,0,0,0,0,-1,524,1457,0,0
-693,-433,0,0,0,0,0,0,0,0,0,-1,531,1457,0,0
-686,-433,0,0,0,0,0,0,0,0,0,-1,538,1457,0,0
-679,-433,0,0,0,0,0,0,0,0,0,-1,545,1457,0,0
-672,-433,0,0,0,0,0,0,0,0,0,-1,552,1457,0,0
-665,-433,0,0,0,0,0,0,0,0,0,-1,559,1457,0,0
-658,-433,0,0,0,0,0,0,0,0,0,-1,566,1457,0,0
-651,-433,0,0,0,0,0,0,0,0,0,-1,573,1457,0,0
-644,-433,0,0,0,0,0,0,0,0,0,-1,580,1457,0,0
-637,-433,0,0,0,0,0,0,0,0,0,-1,587,1457,0,0
-630,-433,0,0,0,0,0,0,0,0,0,-1,594,1457,0,0
-623,-433,0,0,0,0,0,0,0,0,0,-1,601,1457,0,0
-616,-433,0,0,0,0,0,0,0,0,0,-1,608,1457,0,0
-609,-433,0,0,0,0,0,0,0,0,0,-1,615,1457,0,0
-602,-433,0,0,0,0,0,0,0,0,0,-1,622,1457,0,0
-595,-433,0,0,0,0,0,0,0,0,0,-1,629,1457,0,0
-588,-433,-10.3756,-0.467041,0,0,0,0,0,0,0,-1,636,1457,-10.3756,0.467081
-581,-433,-8.12201,0.884033,0,0,0,0,0,0,0,-1,643,1457,-8.12204,-0.884056
-574,-433,-5.86847,2.23523,0,0,0,0,0,0,0,-1,650,1457,-5.86844,-2.23519
-567,-433,-5.42255,1.16833,0,0,0,0,0,0,0,-1,657,1457,-5.42254,-1.1683
-560,-433,-6.84027,1.86414,0,0,0,0,0,0,0,-1,664,1457,-6.84026,-1.86412
-553,-433,-5.74017,1.79163,0,0,0,0,0,0,0,-1,671,1457,-5.74015,-1.79166
-546,-433,-4.72632,5.13647,0,0,0,0,0,0,0,-1,678,1457,-4.72631,-5.13641
-539,-433,-5.16412,5.89282,0,0,0,0,0,0,0,-1,685,1457,-5.16413,-5.89278
-532,-433,-5.05994,6.32593,-0.00103965,0.018084,0.0131794,0.0248049,-0.0077605,1.09922,0.0196413,0.0406606,692,1457,-5.05991,-6.32598
-525,-433,-5.18866,6.64783,0.000324041,0.0144328,0.0110365,0.0204769,-0.00571999,1.06977,0.0159045,0.0271021,699,1457,-5.18865,-6.64788
-518,-433,-5.21277,6.99585,0.00113485,0.0111165,0.00891333,0.0163411,-0.0040898,1.04061,0.0124827,0.0169801,706,1457,-5.21274,-6.99582
-511,-433,-5.2691,7.35974,0.00146051,0.00820627,0.00688152,0.012497,-0.00283027,1.01326,0.00941763,0.0168747,713,1457,-5.26912,-7.35974
-504,-433,-5.27618,7.6626,0.00148681,0.00561867,0.00489615,0.0088669,-0.00176143,0.985041,0.0065775,0.0131569,720,1457,-5.2762,-7.66256
-497,-433,-5.27313,8.00916,0.00120826,0.00314027,0.00268615,0.00502883,-0.000680309,0.95801,0.00360081,0.0127392,727,1457,-5.2731,-8.00911
-490,-433,-5.28204,8.37292,0.0009782,0.000763197,0.000426038,0.00131009,0.000431307,0.661813,0.000770948,0.014206,734,1457,-5.28206,-8.37294
-483,-433,-5.28589,8.73157,0.000612748,-0.00147952,-0.00190622,0.00174103,-0.0026078,-0.534437,0.00252736,0.0157042,741,1457,-5.28589,-8.73153
-476,-433,-5.28467,9.06445,-1.30035e-05,-0.00403478,-0.00464878,0.00304117,-0.00708895,-0.581269,0.00600225,0.0112269,748,1457,-5.28469,-9.06442
-469,-433,-5.28137,9.3866,-0.000483033,-0.00637344,-0.00740655,0.00454241,-0.0113989,-0.596159,0.00948323,0.0103775,755,1457,-5.28137,-9.38663
-462,-433,-5.3064,9.72852,-0.000953582,-0.00918513,-0.0106925,0.00638795,-0.0165267,-0.601679,0.0136546,0.00998089,762,1457,-5.30639,-9.72855
-455,-433,-5.11749,10.2126,-0.00162135,-0.0128865,-0.014936,0.00870885,-0.0232167,-0.605086,0.0190561,0.0330174,769,1457,-5.11748,-10.2126
-448,-433,-5.2724,10.0514,-0.00242499,-0.0175537,-0.0203146,0.0116879,-0.0316666,-0.607171,0.0259015,0.0439622,776,1457,-5.27238,-10.0514
-441,-433,-5.23438,9.82178,-0.00340563,-0.0235375,-0.0271257,0.0154616,-0.0424048,-0.607731,0.0345952,0.0479634,783,1457,-5.23435,-9.82183
-434,-433,-5.12701,9.76074,0,0,0,0,0,0,0,-1,790,1457,-5.12702,-9.76074
-427,-433,-4.82233,9.90393,0,0,0,0,0,0,0,-1,797,1457,-4.82235,-9.90394
-420,-433,-3.83643,9.38379,0,0,0,0,0,0,0,-1,804,1457,-3.83645,-9.38383
-413,-433,-3.63074,5.5813,0,0,0,0,0,0,0,-1,811,1457,-3.63072,-5.58129
-406,-433,-12.3472,4.69373,0,0,0,0,0,0,0,-1,818,1457,-12.3472,-4.69374
-399,-433,-12.055,2.83594,0,0,0,0,0,0,0,-1,825,1457,-12.055,-2.83594
-392,-433,-12.9772,1.6228,0,0,0,0,0,0,0,-1,832,1457,-12.9772,-1.62282
-385,-433,-13.7999,0.514771,0,0,0,0,0,0,0,-1,839,1457,-13.7999,-0.514788
-378,-433,0,0,0,0,0,0,0,0,0,-1,846,1457,0,0
-371,-433,0,0,0,0,0,0,0,0,0,-1,853,1457,0,0
-364,-433,0,0,0,0,0,0,0,0,0,-1,860,1457,0,0
-357,-433,0,0,0,0,0,0,0,0,0,-1,867,1457,0,0
-350,-433,0,0,0,0,0,0,0,0,0,-1,874,1457,0,0
-343,-433,0,0,0,0,0,0,0,0,0,-1,881,1457,0,0
-336,-433,0,0,0,0,0,0,0,0,0,-1,888,1457,0,0
-329,-433,0,0,0,0,0,0,0,0,0,-1,895,1457,0,0
-322,-433,0,0,0,0,0,0,0,0,0,-1,902,1457,0,0
-315,-433,0,0,0,0,0,0,0,0,0,-1,909,1457,0,0
-308,-433,0,0,0,0,0,0,0,0,0,-1,916,1457,0,0
-301,-433,0,0,0,0,0,0,0,0,0,-1,923,1457,0,0
-294,-433,0,0,0,0,0,0,0,0,0,-1,930,1457,0,0
-287,-433,0,0,0,0,0,0,0,0,0,-1,937,1457,0,0
-280,-433,0,0,0,0,0,0,0,0,0,-1,944,1457,0,0
-273,-433,0,0,0,0,0,0,0,0,0,-1,951,1457,0,0
-266,-433,0,0,0,0,0,0,0,0,0,-1,958,1457,0,0
-259,-433,0,0,0,0,0,0,0,0,0,-1,965,1457,0,0
-252,-433,0,0,0,0,0,0,0,0,0,-1,972,1457,0,0
-245,-433,0,0,0,0,0,0,0,0,0,-1,979,1457,0,0
-238,-433,0,0,0,0,0,0,0,0,0,-1,986,1457,0,0
-231,-433,0,0,0,0,0,0,0,0,0,-1,993,1457,0,0
-224,-433,0,0,0,0,0,0,0,0,0,-1,1000,1457,0,0
-217,-433,0,0,0,0,0,0,0,0,0,-1,1007,1457,0,0
-210,-433,0,0,0,0,0,0,0,0,0,-1,1014,1457,0,0
-203,-433,0,0,0,0,0,0,0,0,0,-1,1021,1457,0,0
-196,-433,0,0,0,0,0,0,0,0,0,-1,1028,1457,0,0
-189,-433,0,0,0,0,0,0,0,0,0,-1,1035,1457,0,0
-182,-433,0,0,0,0,0,0,0,0,0,-1,1042,1457,0,0
-175,-433,0,0,0,0,0,0,0,0,0,-1,1049,1457,0,0
-168,-433,0,0,0,0,0,0,0,0,0,-1,1056,1457,0,0
-161,-433,0,0,0,0,0,0,0,0,0,-1,1063,1457,0,0
-154,-433,0,0,0,0,0,0,0,0,0,-1,1070,1457,0,0
-147,-433,0,0,0,0,0,0,0,0,0,-1,1077,1457,0,0
-140,-433,0,0,0,0,0,0,0,0,0,-1,1084,1457,0,0
-133,-433,0,0,0,0,0,0,0,0,0,-1,1091,1457,0,0
-126,-433,0,0,0,0,0,0,0,0,0,-1,1098,1457,0,0
-119,-433,0,0,0,0,0,0,0,0,0,-1,1105,1457,0,0
-112,-433,0,0,0,0,0,0,0,0,0,-1,1112,1457,0,0
-105,-433,0,0,0,0,0,0,0,0,0,-1,1119,1457,0,0
-98,-433,0,0,0,0,0,0,0,0,0,-1,1126,1457,0,0
-91,-433,0,0,0,0,0,0,0,0,0,-1,1133,1457,0,0
-84,-433,0,0,0,0,0,0,0,0,0,-1,1140,1457,0,0
-77,-433,0,0,0,0,0,0,0,0,0,-1,1147,1457,0,0
-70,-433,0,0,0,0,0,0,0,0,0,-1,1154,1457,0,0
-63,-433,0,0,0,0,0,0,0,0,0,-1,1161,1457,0,0
-56,-433,0,0,0,0,0,0,0,0,0,-1,1168,1457,0,0
-49,-433,0,0,0,0,0,0,0,0,0,-1,1175,1457,0,0
-42,-433,0,0,0,0,0,0,0,0,0,-1,1182,1457,0,0
-35,-433,0,0,0,0,0,0,0,0,0,-1,1189,1457,0,0
-28,-433,0,0,0,0,0,0,0,0,0,-1,1196,1457,0,0
-21,-433,0,0,0,0,0,0,0,0,0,-1,1203,1457,0,0
-14,-433,0,0,0,0,0,0,0,0,0,-1,1210,1457,0,0
-7,-433,0,0,0,0,0,0,0,0,0,-1,1217,1457,0,0
0,-433,0,0,0,0,0,0,0,0,0,-1,1224,1457,0,0
7,-433,0,0,0,0,0,0,0,0,0,-1,1231,1457,0,0
14,-433,0,0,0,0,0,0,0,0,0,-1,1238,1457,0,0
21,-433,0,0,0,0,0,0,0,0,0,-1,1245,1457,0,0
28,-433,0,0,0,0,0,0,0,0,0,-1,1252,1457,0,0
35,-433,0,0,0,0,0,0,0,0,0,-1,1259,1457,0,0
42,-433,0,0,0,0,0,0,0,0,0,-1,1266,1457,0,0
49,-433,0,0,0,0,0,0,0,0,0,-1,1273,1457,0,0
56,-433,0,0,0,0,0,0,0,0,0,-1,1280,1457,0,0
63,-433,0,0,0,0,0,0,0,0,0,-1,1287,1457,0,0
70,-433,0,0,0,0,0,0,0,0,0,-1,1294,1457,0,0
77,-433,0,0,0,0,0,0,0,0,0,-1,1301,1457,0,0
84,-433,0,0,0,0,0,0,0,0,0,-1,1308,1457,0,0
91,-433,0,0,0,0,0,0,0,0,0,-1,1315,1457,0,0
98,-433,0,0,0,0,0,0,0,0,0,-1,1322,1457,0,0
105,-433,0,0,0,0,0,0,0,0,0,-1,1329,1457,0,0
112,-433,0,0,0,0,0,0,0,0,0,-1,1336,1457,0,0
119,-433,0,0,0,0,0,0,0,0,0,-1,1343,1457,0,0
126,-433,0,0,0,0,0,0,0,0,0,-1,1350,1457,0,0
133,-433,0,0,0,0,0,0,0,0,0,-1,1357,1457,0,0
140,-433,0,0,0,0,0,0,0,0,0,-1,1364,1457,0,0
147,-433,0,0,0,0,0,0,0,0,0,-1,1371,1457,0,0
154,-433,0,0,0,0,0,0,0,0,0,-1,1378,1457,0,0
161,-433,0,0,0,0,0,0,0,0,0,-1,1385,1457,0,0
168,-433,0,0,0,0,0,0,0,0,0,-1,1392,1457,0,0
175,-433,0,0,0,0,0,0,0,0,0,-1,1399,1457,0,0
182,-433,0,0,0,0,0,0,0,0,0,-1,1406,1457,0,0
189,-433,0,0,0,0,0,0,0,0,0,-1,1413,1457,0,0
196,-433,0,0,0,0,0,0,0,0,0,-1,1420,1457,0,0
203,-433,0,0,0,0,0,0,0,0,0,-1,1427,1457,0,0
210,-433,0,0,0,0,0,0,0,0,0,-1,1434,1457,0,0
217,-433,0,0,0,0,0,0,0,0,0,-1,1441,1457,0,0
224,-433,0,0,0,0,0,0,0,0,0,-1,1448,1457,0,0
231,-433,0,0,0,0,0,0,0,0,0,-1,1455,1457,0,0
238,-433,0,0,0,0,0,0,0,0,0,-1,1462,1457,0,0
245,-433,0,0,0,0,0,0,0,0,0,-1,1469,1457,0,0
252,-433,0,0,0,0,0,0,0,0,0,-1,1476,1457,0,0
259,-433,0,0,0,0,0,0,0,0,0,-1,1483,1457,0,0
266,-433,0,0,0,0,0,0,0,0,0,-1,1490,1457,0,0
273,-433,0,0,0,0,0,0,0,0,0,-1,1497,1457,0,0
280,-433,0,0,0,0,0,0,0,0,0,-1,1504,1457,0,0
287,-433,0,0,0,0,0,0,0,0,0,-1,1511,1457,0,0
294,-433,0,0,0,0,0,0,0,0,0,-1,1518,1457,0,0
301,-433,0,0,0,0,0,0,0,0,0,-1,1525,1457,0,0
308,-433,0,0,0,0,0,0,0,0,0,-1,1532,1457,0,0
315,-433,0,0,0,0,0,0,0,0,0,-1,1539,1457,0,0
322,-433,0,0,0,0,0,0,0,0,0,-1,1546,1457,0,0
329,-433,0,0,0,0,0,0,0,0,0,-1,1553,1457,0,0
336,-433,0,0,0,0,0,0,0,0,0,-1,1560,1457,0,0
343,-433,0,0,0,0,0,0,0,0,0,-1,1567,1457,0,0
350,-433,0,0,0,0,0,0,0,0,0,-1,1574,1457,0,0
357,-433,0,0,0,0,0,0,0,0,0,-1,1581,1457,0,0
364,-433,0,0,0,0,0,0,0,0,0,-1,1588,1457,0,0
371,-433,0,0,0,0,0,0,0,0,0,-1,1595,1457,0,0
378,-433,0,0,0,0,0,0,0,0,0,-1,1602,1457,0,0
385,-433,0,0,0,0,0,0,0,0,0,-1,1609,1457,0,0
392,-433,0,0,0,0,0,0,0,0,0,-1,1616,1457,0,0
399,-433,0,0,0,0,0,0,0,0,0,-1,1623,1457,0,0
406,-433,0,0,0,0,0,0,0,0,0,-1,1630,1457,0,0
413,-433,0,0,0,0,0,0,0,0,0,-1,1637,1457,0,0
420,-433,0,0,0,0,0,0,0,0,0,-1,1644,1457,0,0
427,-433,0,0,0,0,0,0,0,0,0,-1,1651,1457,0,0
434,-433,0,0,0,0,0,0,0,0,0,-1,1658,1457,0,0
441,-433,0,0,0,0,0,0,0,0,0,-1,1665,1457,0,0
448,-433,0,0,0,0,0,0,0,0,0,-1,1672,1457,0,0
455,-433,0,0,0,0,0,0,0,0,0,-1,1679,1457,0,0
462,-433,0,0,0,0,0,0,0,0,0,-1,1686,1457,0,0
469,-433,0,0,0,0,0,0,0,0,0,-1,1693,1457,0,0
476,-433,0,0,0,0,0,0,0,0,0,-1,1700,1457,0,0
483,-433,0,0,0,0,0,0,0,0,0,-1,1707,1457,0,0
490,-433,0,0,0,0,0,0,0,0,0,-1,1714,1457,0,0
497,-433,0,0,0,0,0,0,0,0,0,-1,1721,1457,0,0
504,-433,19.9058,3.03662,0,0,0,0,0,0,0,-1,1728,1457,19.9058,-3.03656
511,-433,19.0145,3.07837,0,0,0,0,0,0,0,-1,1735,1457,19.0146,-3.07834
518,-433,18.071,3.06433,0,0,0,0,0,0,0,-1,1742,1457,18.071,-3.06432
525,-433,17.2048,3.37085,0,0,0,0,0,0,0,-1,1749,1457,17.2049,-3.37083
532,-433,16.5637,3.36646,0,0,0,0,0,0,0,-1,1756,1457,16.5637,-3.36643
539,-433,15.9193,3.30396,0,0,0,0,0,0,0,-1,1763,1457,15.9193,-3.30394
546,-433,23.1903,4.81775,0,0,0,0,0,0,0,-1,1770,1457,23.1903,-4.81775
553,-433,13.9674,11.5781,0,0,0,0,0,0,0,-1,1777,1457,13.9674,-11.5781
560,-433,13.9855,11.7341,0,0,0,0,0,0,0,-1,1784,1457,13.9855,-11.7341
567,-433,13.9264,11.3364,0,0,0,0,0,0,0,-1,1791,1457,13.9263,-11.3364
574,-433,15.3895,12.027,0,0,0,0,0,0,0,-1,1798,1457,15.3895,-12.027
581,-433,16.0752,11.7223,0,0,0,0,0,0,0,-1,1805,1457,16.0751,-11.7223
588,-433,16.4106,11.5381,-0.00512874,-0.00163057,0.00398065,0.000968314,-0.00772763,0.992399,0.005503,0.0483655,1812,1457,16.4106,-11.5381
595,-433,16.1953,11.3768,-0.00353694,-0.000925518,0.00256589,0.000647778,-0.00511024,1.02076,0.00364201,0.0265081,1819,1457,16.1954,-11.3769
602,-433,16.2029,11.0575,-0.0023694,-0.000532369,0.00166108,0.000447236,-0.00334901,1.03796,0.00239571,0.0205122,1826,1457,16.2029,-11.0575
609,-433,16.2092,10.7263,-0.00151284,-0.00037758,0.00114464,0.000332444,-0.00222286,1.01558,0.00160425,0.0152377,1833,1457,16.2092,-10.7263
616,-433,16.2168,10.4215,-0.000928772,-0.00038861,0.000827438,0.00021171,-0.00152909,0.94315,0.0010968,0.0126123,1840,1457,16.2168,-10.4216
623,-433,16.1823,10.0938,-0.000329404,-0.000683813,0.000587614,0.000107144,-0.00112036,0.638952,0.000785062,0.00999607,1847,1457,16.1822,-10.0937
630,-433,16.1765,9.78064,0.000254904,-0.000940601,0.000414857,0.00038476,-0.00107046,0.303353,0.000870706,0.0120151,1854,1457,16.1765,-9.78059
637,-433,16.1882,9.50439,0.000670977,-0.00133263,0.000402779,0.000748914,-0.00141057,0.191138,0.00126614,0.0133693,1861,1457,16.1883,-9.50442
644,-433,16.1823,9.22424,0.00107425,-0.00175733,0.000404682,0.00113095,-0.00181403,0.139205,0.00171547,0.0149675,1868,1457,16.1823,-9.22423
651,-433,16.1726,8.87378,0.00143389,-0.00222643,0.000436541,0.00148523,-0.00227777,0.117076,0.00218857,0.0118031,1875,1457,16.1726,-8.87373
658,-433,16.1595,8.50012,0.00183125,-0.00270181,0.000409769,0.001868,-0.00273856,0.0894296,0.00267538,0.0170723,1882,1457,16.1595,-8.50006
665,-433,16.0658,8.19238,0.00229165,-0.00319673,0.00035698,0.00231477,-0.00321985,0.0646796,0.00320963,0.0261199,1889,1457,16.0657,-8.19237
672,-433,15.9622,8.26624,0,0,0,0,0,0,0,-1,1896,1457,15.9621,-8.26626
679,-433,15.7363,8.4093,0,0,0,0,0,0,0,-1,1903,1457,15.7363,-8.40932
686,-433,13.6356,8.61694,0,0,0,0,0,0,0,-1,1910,1457,13.6356,-8.61694
693,-433,13.4081,8.39624,0,0,0,0,0,0,0,-1,1917,1457,13.4081,-8.39624
700,-433,7.16809,-1.5166,0,0,0,0,0,0,0,-1,1924,1457,7.16806,1.51656
707,-433,8.68359,-2.82202,0,0,0,0,0,0,0,-1,1931,1457,8.68359,2.82197
714,-433,0,0,0,0,0,0,0,0,0,-1,1938,1457,0,0
721,-433,0,0,0,0,0,0,0,0,0,-1,1945,1457,0,0
728,-433,0,0,0,0,0,0,0,0,0,-1,1952,1457,0,0
735,-433,0,0,0,0,0,0,0,0,0,-1,1959,1457,0,0
742,-433,0,0,0,0,0,0,0,0,0,-1,1966,1457,0,0
749,-433,0,0,0,0,0,0,0,0,0,-1,1973,1457,0,0
756,-433,0,0,0,0,0,0,0,0,0,-1,1980,1457,0,0
763,-433,0,0,0,0,0,0,0,0,0,-1,1987,1457,0,0
770,-433,0,0,0,0,0,0,0,0,0,-1,1994,1457,0,0
777,-433,0,0,0,0,0,0,0,0,0,-1,2001,1457,0,0
784,-433,0,0,0,0,0,0,0,0,0,-1,2008,1457,0,0
791,-433,0,0,0,0,0,0,0,0,0,-1,2015,1457,0,0
798,-433,0,0,0,0,0,0,0,0,0,-1,2022,1457,0,0
805,-433,0,0,0,0,0,0,0,0,0,-1,2029,1457,0,0
812,-433,0,0,0,0,0,0,0,0,0,-1,2036,1457,0,0
-700,-440,0,0,0,0,0,0,0,0,0,-1,524,1464,0,0
-693,-440,0,0,0,0,0,0,0,0,0,-1,531,1464,0,0
-686,-440,0,0,0,0,0,0,0,0,0,-1,538,1464,0,0
-679,-440,0,0,0,0,0,0,0,0,0,-1,545,1464,0,0
-672,-440,0,0,0,0,0,0,0,0,0,-1,552,1464,0,0
-665,-440,0,0,0,0,0,0,0,0,0,-1,559,1464,0,0
-658,-440,0,0,0,0,0,0,0,0,0,-1,566,1464,0,0
-651,-440,0,0,0,0,0,0,0,0,0,-1,573,1464,0,0
-644,-440,0,0,0,0,0,0,0,0,0,-1,580,1464,0,0
-637,-440,0,0,0,0,0,0,0,0,0,-1,587,1464,0,0
-630,-440,0,0,0,0,0,0,0,0,0,-1,594,1464,0,0
-623,-440,0,0,0,0,0,0,0,0,0,-1,601,1464,0,0
-616,-440,0,0,0,0,0,0,0,0,0,-1,608,1464,0,0
-609,-440,0,0,0,0,0,0,0,0,0,-1,615,1464,0,0
-602,-440,0,0,0,0,0,0,0,0,0,-1,622,1464,0,0
-595,-440,0,0,0,0,0,0,0,0,0,-1,629,1464,0,0
-588,-440,0,0,0,0,0,0,0,0,0,-1,636,1464,0,0
-581,-440,-8.97278,0.254517,0,0,0,0,0,0,0,-1,643,1464,-8.97276,-0.254526
-574,-440,-7.00818,-0.918579,0,0,0,0,0,0,0,-1,650,1464,-7.00817,0.918538
-567,-440,-6.12152,-0.0766602,0,0,0,0,0,0,0,-1,657,1464,-6.12151,0.0767097
-560,-440,-5.46747,0.82251,0,0,0,0,0,0,0,-1,664,1464,-5.46748,-0.822551
-553,-440,-6.84729,0.0831299,0,0,0,0,0,0,0,-1,671,1464,-6.84732,-0.083136
-546,-440,-5.63446,-0.153198,0,0,0,0,0,0,0,-1,678,1464,-5.63447,0.153147
-539,-440,-4.96307,5.70471,0,0,0,0,0,0,0,-1,685,1464,-4.96308,-5.70468
-532,-440,-4.87195,6.25,0.00316186,0.025245,0.0204396,0.0374347,-0.0090279,1.03304,0.0284474,0.0461984,692,1464,-4.87197,-6.24999
-525,-440,-4.91827,6.67419,0.00340406,0.0197732,0.0165994,0.0300961,-0.00691887,1.01444,0.0227242,0.0284073,699,1464,-4.91828,-6.67425
-518,-440,-4.93567,6.96375,0.00327459,0.0150368,0.0130963,0.0235119,-0.00520048,0.996437,0.0176651,0.0158386,706,1464,-4.93565,-6.96369
-511,-440,-4.90771,7.32739,0.00292408,0.0110438,0.0099755,0.0177539,-0.00378608,0.978653,0.0132791,0.0151471,713,1464,-4.90771,-7.32735
-504,-440,-4.88959,7.67078,0.00249101,0.0077031,0.00719777,0.0127521,-0.00255796,0.959089,0.00946991,0.01836,720,1464,-4.88957,-7.67077
-497,-440,-4.90417,8.01733,0.00191222,0.0047622,0.00449907,0.00805655,-0.00138213,0.938765,0.00588609,0.020459,727,1464,-4.90416,-8.01732
-490,-440,-4.92566,8.31909,0.00150964,0.00218294,0.00199704,0.00387151,-0.000178929,0.868901,0.00264267,0.0211035,734,1464,-4.92565,-8.31909
-483,-440,-4.94775,8.68066,0.00110223,-0.000101105,-0.000406525,0.0012267,-0.000225569,-0.297102,0.000902434,0.0199575,741,1464,-4.94773,-8.68071
-476,-440,-4.94183,9.04333,0.00051074,-0.00260967,-0.00304893,0.00237548,-0.00447441,-0.548908,0.00401619,0.0137017,748,1464,-4.94185,-9.04336
-469,-440,-4.95282,9.39038,0.000172888,-0.00480434,-0.00555417,0.00377049,-0.00840195,-0.574777,0.00719533,0.0122892,755,1464,-4.95281,-9.39043
-462,-440,-4.97821,9.72107,6.79159e-05,-0.00699024,-0.00815992,0.00542921,-0.0123515,-0.5813,0.0105218,0.0141828,762,1464,-4.97824,-9.72107
-455,-440,-4.88464,10.0977,-7.15529e-05,-0.00973941,-0.0112905,0.00737632,-0.0171873,-0.583134,0.014554,0.0216851,769,1464,-4.88462,-10.0976
-448,-440,-4.59674,10.5421,0,0,0,0,0,0,0,-1,776,1464,-4.59677,-10.5421
-441,-440,-4.96912,10.1101,0,0,0,0,0,0,0,-1,783,1464,-4.96911,-10.1101
-434,-440,-5.1734,10.0765,0,0,0,0,0,0,0,-1,790,1464,-5.1734,-10.0765
-427,-440,-3.7644,10.0846,0,0,0,0,0,0,0,-1,797,1464,-3.76441,-10.0846
-420,-440,-3.84052,9.66321,0,0,0,0,0,0,0,-1,804,1464,-3.84054,-9.66322
-413,-440,-3.46796,5.72278,0,0,0,0,0,0,0,-1,811,1464,-3.46797,-5.72276
-406,-440,-5.2887,5.20264,0,0,0,0,0,0,0,-1,818,1464,-5.2887,-5.20261
-399,-440,-12.7318,3.94421,0,0,0,0,0,0,0,-1,825,1464,-12.7318,-3.94419
-392,-440,-13.5565,2.51855,0,0,0,0,0,0,0,-1,832,1464,-13.5565,-2.51861
-385,-440,-14.6741,1.39795,0,0,0,0,0,0,0,-1,839,1464,-14.6741,-1.39801
-378,-440,-15.8063,0.293457,0,0,0,0,0,0,0,-1,846,1464,-15.8063,-0.293412
-371,-440,0,0,0,0,0,0,0,0,0,-1,853,1464,0,0
-364,-440,0,0,0,0,0,0,0,0,0,-1,860,1464,0,0
-357,-440,0,0,0,0,0,0,0,0,0,-1,867,1464,0,0
-350,-440,0,0,0,0,0,0,0,0,0,-1,874,1464,0,0
-343,-440,0,0,0,0,0,0,0,0,0,-1,881,1464,0,0
-336,-440,0,0,0,0,0,0,0,0,0,-1,888,1464,0,0
-329,-440,0,0,0,0,0,0,0,0,0,-1,895,1464,0,0
-322,-440,0,0,0,0,0,0,0,0,0,-1,902,1464,0,0
-315,-440,0,0,0,0,0,0,0,0,0,-1,909,1464,0,0
-308,-440,0,0,0,0,0,0,0,0,0,-1,916,1464,0,0
-301,-440,0,0,0,0,0,0,0,0,0,-1,923,1464,0,0
-294,-440,0,0,0,0,0,0,0,0,0,-1,930,1464,0,0
-287,-440,0,0,0,0,0,0,0,0,0,-1,937,1464,0,0
-280,-440,0,0,0,0,0,0,0,0,0,-1,944,1464,0,0
-273,-440,0,0,0,0,0,0,0,0,0,-1,951,1464,0,0
-266,-440,0,0,0,0,0,0,0,0,0,-1,958,1464,0,0
-259,-440,0,0,0,0,0,0,0,0,0,-1,965,1464,0,0
-252,-440,0,0,0,0,0,0,0,0,0,-1,972,1464,0,0
-245,-440,0,0,0,0,0,0,0,0,0,-1,979,1464,0,0
-238,-440,0,0,0,0,0,0,0,0,0,-1,986,1464,0,0
-231,-440,0,0,0,0,0,0,0,0,0,-1,993,1464,0,0
-224,-440,0,0,0,0,0,0,0,0,0,-1,1000,1464,0,0
-217,-440,0,0,0,0,0,0,0,0,0,-1,1007,1464,0,0
-210,-440,0,0,0,0,0,0,0,0,0,-1,1014,1464,0,0
-203,-440,0,0,0,0,0,0,0,0,0,-1,1021,1464,0,0
-196,-440,0,0,0,0,0,0,0,0,0,-1,1028,1464,0,0
-189,-440,0,0,0,0,0,0,0,0,0,-1,1035,1464,0,0
-182,-440,0,0,0,0,0,0,0,0,0,-1,1042,1464,0,0
-175,-440,0,0,0,0,0,0,0,0,0,-1,1049,1464,0,0
-168,-440,0,0,0,0,0,0,0,0,0,-1,1056,1464,0,0
-161,-440,0,0,0,0,0,0,0,0,0,-1,1063,1464,0,0
-154,-440,0,0,0,0,0,0,0,0,0,-1,1070,1464,0,0
-147,-440,0,0,0,0,0,0,0,0,0,-1,1077,1464,0,0
-140,-440,0,0,0,0,0,0,0,0,0,-1,1084,1464,0,0
-133,-440,0,0,0,0,0,0,0,0,0,-1,1091,1464,0,0
-126,-440,0,0,0,0,0,0,0,0,0,-1,1098,1464,0,0
-119,-440,0,0,0,0,0,0,0,0,0,-1,1105,1464,0,0
-112,-440,0,0,0,0,0,0,0,0,0,-1,1112,1464,0,0
-105,-440,0,0,0,0,0,0,0,0,0,-1,1119,1464,0,0
-98,-440,0,0,0,0,0,0,0,0,0,-1,1126,1464,0,0
-91,-440,0,0,0,0,0,0,0,0,0,-1,1133,1464,0,0
-84,-440,0,0,0,0,0,0,0,0,0,-1,1140,1464,0,0
-77,-440,0,0,0,0,0,0,0,0,0,-1,1147,1464,0,0
-70,-440,0,0,0,0,0,0,0,0,0,-1,1154,1464,0,0
-63,-440,0,0,0,0,0,0,0,0,0,-1,1161,1464,0,0
-56,-440,0,0,0,0,0,0,0,0,0,-1,1168,1464,0,0
-49,-440,0,0,0,0,0,0,0,0,0,-1,1175,1464,0,0
-42,-440,0,0,0,0,0,0,0,0,0,-1,1182,1464,0,0
-35,-440,0,0,0,0,0,0,0,0,0,-1,1189,1464,0,0
-28,-440,0,0,0,0,0,0,0,0,0,-1,1196,1464,0,0
-21,-440,0,0,0,0,0,0,0,0,0,-1,1203,1464,0,0
-14,-440,0,0,0,0,0,0,0,0,0,-1,1210,1464,0,0
-7,-440,0,0,0,0,0,0,0,0,0,-1,1217,1464,0,0
0,-440,0,0,0,0,0,0,0,0,0,-1,1224,1464,0,0
7,-440,0,0,0,0,0,0,0,0,0,-1,1231,1464,0,0
14,-440,0,0,0,0,0,0,0,0,0,-1,1238,1464,0,0
21,-440,0,0,0,0,0,0,0,0,0,-1,1245,1464,0,0
28,-440,0,0,0,0,0,0,0,0,0,-1,1252,1464,0,0
35,-440,0,0,0,0,0,0,0,0,0,-1,1259,1464,0,0
42,-440,0,0,0,0,0,0,0,0,0,-1,1266,1464,0,0
49,-440,0,0,0,0,0,0,0,0,0,-1,1273,1464,0,0
56,-440,0,0,0,0,0,0,0,0,0,-1,1280,1464,0,0
63,-440,0,0,0,0,0,0,0,0,0,-1,1287,1464,0,0
70,-440,0,0,0,0,0,0,0,0,0,-1,1294,1464,0,0
77,-440,0,0,0,0,0,0,0,0,0,-1,1301,1464,0,0
84,-440,0,0,0,0,0,0,0,0,0,-1,1308,1464,0,0
91,-440,0,0,0,0,0,0,0,0,0,-1,1315,1464,0,0
98,-440,0,0,0,0,0,0,0,0,0,-1,1322,1464,0,0
105,-440,0,0,0,0,0,0,0,0,0,-1,1329,1464,0,0
112,-440,0,0,0,0,0,0,0,0,0,-1,1336,1464,0,0
119,-440,0,0,0,0,0,0,0,0,0,-1,1343,1464,0,0
126,-440,0,0,0,0,0,0,0,0,0,-1,1350,1464,0,0
133,-440,0,0,0,0,0,0,0,0,0,-1,1357,1464,0,0
140,-440,0,0,0,0,0,0,0,0,0,-1,1364,1464,0,0
147,-440,0,0,0,0,0,0,0,0,0,-1,1371,1464,0,0
154,-440,0,0,0,0,0,0,0,0,0,-1,1378,1464,0,0
161,-440,0,0,0,0,0,0,0,0,0,-1,1385,1464,0,0
168,-440,0,0,0,0,0,0,0,0,0,-1,1392,1464,0,0
175,-440,0,0,0,0,0,0,0,0,0,-1,1399,1464,0,0
182,-440,0,0,0,0,0,0,0,0,0,-1,1406,1464,0,0
189,-440,0,0,0,0,0,0,0,0,0,-1,1413,1464,0,0
196,-440,0,0,0,0,0,0,0,0,0,-1,1420,1464,0,0
203,-440,0,0,0,0,0,0,0,0,0,-1,1427,1464,0,0
210,-440,0,0,0,0,0,0,0,0,0,-1,1434,1464,0,0
217,-440,0,0,0,0,0,0,0,0,0,-1,1441,1464,0,0
224,-440,0,0,0,0,0,0,0,0,0,-1,1448,1464,0,0
231,-440,0,0,0,0,0,0,0,0,0,-1,1455,1464,0,0
238,-440,0,0,0,0,0,0,0,0,0,-1,1462,1464,0,0
245,-440,0,0,0,0,0,0,0,0,0,-1,1469,1464,0,0
252,-440,0,0,0,0,0,0,0,0,0,-1,1476,1464,0,0
259,-440,0,0,0,0,0,0,0,0,0,-1,1483,1464,0,0
266,-440,0,0,0,0,0,0,0,0,0,-1,1490,1464,0,0
273,-440,0,0,0,0,0,0,0,0,0,-1,1497,1464,0,0
280,-440,0,0,0,0,0,0,0,0,0,-1,1504,1464,0,0
287,-440,0,0,0,0,0,0,0,0,0,-1,1511,1464,0,0
294,-440,0,0,0,0,0,0,0,0,0,-1,1518,1464,0,0
301,-440,0,0,0,0,0,0,0,0,0,-1,1525,1464,0,0
308,-440,0,0,0,0,0,0,0,0,0,-1,1532,1464,0,0
315,-440,0,0,0,0,0,0,0,0,0,-1,1539,1464,0,0
322,-440,0,0,0,0,0,0,0,0,0,-1,1546,1464,0,0
329,-440,0,0,0,0,0,0,0,0,0,-1,1553,1464,0,0
336,-440,0,0,0,0,0,0,0,0,0,-1,1560,1464,0,0
343,-440,0,0,0,0,0,0,0,0,0,-1,1567,1464,0,0
350,-440,0,0,0,0,0,0,0,0,0,-1,1574,1464,0,0
357,-440,0,0,0,0,0,0,0,0,0,-1,1581,1464,0,0
364,-440,0,0,0,0,0,0,0,0,0,-1,1588,1464,0,0
371,-440,0,0,0,0,0,0,0,0,0,-1,1595,1464,0,0
378,-440,0,0,0,0,0,0,0,0,0,-1,1602,1464,0,0
385,-440,0,0,0,0,0,0,0,0,0,-1,1609,1464,0,0
392,-440,0,0,0,0,0,0,0,0,0,-1,1616,1464,0,0
399,-440,0,0,0,0,0,0,0,0,0,-1,1623,1464,0,0
406,-440,0,0,0,0,0,0,0,0,0,-1,1630,1464,0,0
413,-440,0,0,0,0,0,0,0,0,0,-1,1637,1464,0,0
420,-440,0,0,0,0,0,0,0,0,0,-1,1644,1464,0,0
427,-440,0,0,0,0,0,0,0,0,0,-1,1651,1464,0,0
434,-440,0,0,0,0,0,0,0,0,0,-1,1658,1464,0,0
441,-440,0,0,0,0,0,0,0,0,0,-1,1665,1464,0,0
448,-440,0,0,0,0,0,0,0,0,0,-1,1672,1464,0,0
455,-440,0,0,0,0,0,0,0,0,0,-1,1679,1464,0,0
462,-440,0,0,0,0,0,0,0,0,0,-1,1686,1464,0,0
469,-440,0,0,0,0,0,0,0,0,0,-1,1693,1464,0,0
476,-440,0,0,0,0,0,0,0,0,0,-1,1700,1464,0,0
483,-440,0,0,0,0,0,0,0,0,0,-1,1707,1464,0,0
490,-440,0,0,0,0,0,0,0,0,0,-1,1714,1464,0,0
497,-440,16.965,-0.528442,0,0,0,0,0,0,0,-1,1721,1464,16.965,0.528492
504,-440,15.8052,0.670166,0,0,0,0,0,0,0,-1,1728,1464,15.8052,-0.670145
511,-440,17.5754,2.77832,0,0,0,0,0,0,0,-1,1735,1464,17.5754,-2.77826
518,-440,16.9017,3.07861,0,0,0,0,0,0,0,-1,1742,1464,16.9018,-3.07859
525,-440,18.4495,12.0867,0,0,0,0,0,0,0,-1,1749,1464,18.4495,-12.0867
532,-440,15.4319,3.64392,0,0,0,0,0,0,0,-1,1756,1464,15.4318,-3.64391
539,-440,14.8214,3.41321,0,0,0,0,0,0,0,-1,1763,1464,14.8214,-3.4132
546,-440,14.8651,10.7683,0,0,0,0,0,0,0,-1,1770,1464,14.8651,-10.7683
553,-440,15.1213,11.4121,0,0,0,0,0,0,0,-1,1777,1464,15.1213,-11.4121
560,-440,14.9557,11.5443,0,0,0,0,0,0,0,-1,1784,1464,14.9556,-11.5443
567,-440,15.6853,11.2018,0,0,0,0,0,0,0,-1,1791,1464,15.6853,-11.2018
574,-440,16.1245,12.2047,0,0,0,0,0,0,0,-1,1798,1464,16.1245,-12.2048
581,-440,15.6783,12.1326,0,0,0,0,0,0,0,-1,1805,1464,15.6783,-12.1326
588,-440,15.8109,11.7236,-0.0040891,-0.00136436,0.00334592,0.00088592,-0.00633938,0.978736,0.0045504,0.0422604,1812,1464,15.8109,-11.7236
595,-440,15.8506,11.3906,-0.00264904,-0.000776638,0.00212941,0.000613288,-0.00403897,0.992506,0.00291863,0.0205874,1819,1464,15.8506,-11.3906
602,-440,15.8977,11.052,-0.00170877,-0.000504396,0.00140757,0.000424395,-0.00263755,0.987526,0.00191557,0.019016,1826,1464,15.8977,-11.052
609,-440,15.8967,10.7355,-0.000970215,-0.000415917,0.000989568,0.00033458,-0.00172071,0.921935,0.00127341,0.0158934,1833,1464,15.8967,-10.7354
616,-440,15.8953,10.4475,-0.000462204,-0.000536438,0.000760336,0.00026192,-0.00126056,0.761009,0.000939926,0.0162046,1840,1464,15.8953,-10.4475
623,-440,15.8987,10.1172,8.33974e-05,-0.000909598,0.000588047,0.000356516,-0.00118272,0.434805,0.000930371,0.0127885,1847,1464,15.8986,-10.1172
630,-440,15.8506,9.77209,0.000636818,-0.00127276,0.000486131,0.000753451,-0.00138939,0.23547,0.0012552,0.010725,1854,1464,15.8506,-9.77207
637,-440,15.8608,9.51428,0.00105401,-0.0017737,0.000519611,0.00114647,-0.00186616,0.176096,0.00175581,0.0149015,1861,1464,15.8609,-9.51426
644,-440,15.8778,9.22266,0.00146255,-0.00235032,0.000578702,0.00154844,-0.00243622,0.147356,0.0023195,0.0144237,1868,1464,15.8778,-9.22265
651,-440,15.9043,8.85864,0.00185456,-0.00297308,0.000633511,0.00193631,-0.00305483,0.128332,0.00290565,0.0147686,1875,1464,15.9043,-8.85864
658,-440,15.8058,8.58459,0.00235243,-0.00362813,0.000577783,0.00240774,-0.00368344,0.0954341,0.00354236,0.0270158,1882,1464,15.8058,-8.58456
665,-440,15.9805,8.42163,0.00297961,-0.00434952,0.000474564,0.00301021,-0.00438012,0.064392,0.00429118,0.0387235,1889,1464,15.9805,-8.42164
672,-440,16.3997,8.20227,0,0,0,0,0,0,0,-1,1896,1464,16.3997,-8.20231
679,-440,14.3743,8.04651,0,0,0,0,0,0,0,-1,1903,1464,14.3743,-8.0465
686,-440,13.8065,8.06152,0,0,0,0,0,0,0,-1,1910,1464,13.8065,-8.0615
693,-440,9.88635,2.89795,0,0,0,0,0,0,0,-1,1917,1464,9.88638,-2.89798
700,-440,7.07825,-2.62061,0,0,0,0,0,0,0,-1,1924,1464,7.07829,2.62057
707,-440,0,0,0,0,0,0,0,0,0,-1,1931,1464,0,0
714,-440,0,0,0,0,0,0,0,0,0,-1,1938,1464,0,0
721,-440,0,0,0,0,0,0,0,0,0,-1,1945,1464,0,0
728,-440,0,0,0,0,0,0,0,0,0,-1,1952,1464,0,0
735,-440,0,0,0,0,0,0,0,0,0,-1,1959,1464,0,0
742,-440,0,0,0,0,0,0,0,0,0,-1,1966,1464,0,0
749,-440,0,0,0,0,0,0,0,0,0,-1,1973,1464,0,0
756,-440,0,0,0,0,0,0,0,0,0,-1,1980,1464,0,0
763,-440,0,0,0,0,0,0,0,0,0,-1,1987,1464,0,0
770,-440,0,0,0,0,0,0,0,0,0,-1,1994,1464,0,0
777,-440,0,0,0,0,0,0,0,0,0,-1,2001,1464,0,0
784,-440,0,0,0,0,0,0,0,0,0,-1,2008,1464,0,0
791,-440,0,0,0,0,0,0,0,0,0,-1,2015,1464,0,0
798,-440,0,0,0,0,0,0,0,0,0,-1,2022,1464,0,0
805,-440,0,0,0,0,0,0,0,0,0,-1,2029,1464,0,0
812,-440,0,0,0,0,0,0,0,0,0,-1,2036,1464,0,0
-700,-447,0,0,0,0,0,0,0,0,0,-1,524,1471,0,0
-693,-447,0,0,0,0,0,0,0,0,0,-1,531,1471,0,0
-686,-447,0,0,0,0,0,0,0,0,0,-1,538,1471,0,0
-679,-447,0,0,0,0,0,0,0,0,0,-1,545,1471,0,0
-672,-447,0,0,0,0,0,0,0,0,0,-1,552,1471,0,0
-665,-447,0,0,0,0,0,0,0,0,0,-1,559,1471,0,0
-658,-447,0,0,0,0,0,0,0,0,0,-1,566,1471,0,0
-651,-447,0,0,0,0,0,0,0,0,0,-1,573,1471,0,0
-644,-447,0,0,0,0,0,0,0,0,0,-1,580,1471,0,0
-637,-447,0,0,0,0,0,0,0,0,0,-1,587,1471,0,0
-630,-447,0,0,0,0,0,0,0,0,0,-1,594,1471,0,0
-623,-447,0,0,0,0,0,0,0,0,0,-1,601,1471,0,0
-616,-447,0,0,0,0,0,0,0,0,0,-1,608,1471,0,0
-609,-447,0,0,0,0,0,0,0,0,0,-1,615,1471,0,0
-602,-447,0,0,0,0,0,0,0,0,0,-1,622,1471,0,0
-595,-447,0,0,0,0,0,0,0,0,0,-1,629,1471,0,0
-588,-447,0,0,0,0,0,0,0,0,0,-1,636,1471,0,0
-581,-447,-7.06482,-1.50476,0,0,0,0,0,0,0,-1,643,1471,-7.0648,1.50474
-574,-447,-6.88092,-0.00585938,0,0,0,0,0,0,0,-1,650,1471,-6.88095,0.00589852
-567,-447,-6.8205,-1.32178,0,0,0,0,0,0,0,-1,657,1471,-6.82047,1.32172
-560,-447,-8.85748,2.80774,0,0,0,0,0,0,0,-1,664,1471,-8.85748,-2.80775
-553,-447,-7.60486,3.26794,0,0,0,0,0,0,0,-1,671,1471,-7.60487,-3.26799
-546,-447,-3.94501,1.8656,0,0,0,0,0,0,0,-1,678,1471,-3.945,-1.86554
-539,-447,-5.5058,4.34924,0,0,0,0,0,0,0,-1,685,1471,-5.50582,-4.3492
-532,-447,-4.9317,5.43921,0.00864619,0.033967,0.0298173,0.0537004,-0.0110872,0.986164,0.0400114,0.049936,692,1471,-4.93172,-5.43924
-525,-447,-4.43652,6.75879,0.00736666,0.0258543,0.0234163,0.0417853,-0.00856435,0.973388,0.0311071,0.0373944,699,1471,-4.43655,-6.7588
-518,-447,-4.56818,6.94788,0.00607488,0.0191807,0.0179699,0.0317552,-0.00649966,0.960235,0.0236365,0.0296098,706,1471,-4.56816,-6.9479
-511,-447,-4.55524,7.28552,0.00486128,0.0138075,0.0134158,0.0234762,-0.00480744,0.946314,0.0174751,0.0162082,713,1471,-4.55525,-7.28552
-504,-447,-4.53235,7.67603,0.00379106,0.00954967,0.00963202,0.0167235,-0.0033828,0.930636,0.012431,0.0202248,720,1471,-4.53236,-7.67604
-497,-447,-4.55322,8.03796,0.00280019,0.00607366,0.0063297,0.0109748,-0.00210097,0.911917,0.00810812,0.0245174,727,1471,-4.55324,-8.03796
-490,-447,-4.5556,8.35437,0.00213928,0.00326107,0.00351195,0.00625663,-0.000856286,0.864585,0.00448386,0.0242861,734,1471,-4.5556,-8.35437
-483,-447,-4.60559,8.67053,0.00161431,0.000933747,0.000996604,0.00232712,0.000220933,0.620883,0.00148327,0.0225714,741,1471,-4.60559,-8.67048
-476,-447,-4.60394,9.02832,0.000998388,-0.0014899,-0.00156334,0.00175222,-0.00224374,-0.449303,0.00231288,0.0148525,748,1471,-4.60394,-9.02828
-469,-447,-4.61414,9.39014,0.000698421,-0.00355692,-0.0038891,0.00300382,-0.00586232,-0.535097,0.00520679,0.0130591,755,1471,-4.61411,-9.39017
-462,-447,-4.63,9.73474,0.000800138,-0.00518453,-0.00593694,0.00445621,-0.0088406,-0.551969,0.00781479,0.0133189,762,1471,-4.62998,-9.73478
-455,-447,-4.63867,10.0708,0.00099343,-0.00711099,-0.00816282,0.00605451,-0.0121721,-0.555007,0.0107189,0.0151638,769,1471,-4.63864,-10.0708
-448,-447,-4.50153,10.4856,0.00133271,-0.00942779,-0.0107632,0.00798552,-0.0160806,-0.553625,0.0141542,0.0254201,776,1471,-4.50153,-10.4856
-441,-447,-4.50024,10.5818,0,0,0,0,0,0,0,-1,783,1471,-4.50025,-10.5818
-434,-447,-4.51862,10.6868,0,0,0,0,0,0,0,-1,790,1471,-4.5186,-10.6867
-427,-447,-4.20532,10.526,0,0,0,0,0,0,0,-1,797,1471,-4.2053,-10.526
-420,-447,-5.35791,10.4331,0,0,0,0,0,0,0,-1,804,1471,-5.35791,-10.4331
-413,-447,-4.27393,6.59705,0,0,0,0,0,0,0,-1,811,1471,-4.27392,-6.59707
-406,-447,-1.04279,6.18591,0,0,0,0,0,0,0,-1,818,1471,-1.04276,-6.18586
-399,-447,0.0134888,0.687622,0,0,0,0,0,0,0,-1,825,1471,0.0134841,-0.68767
-392,-447,-14.0646,3.76147,0,0,0,0,0,0,0,-1,832,1471,-14.0646,-3.7615
-385,-447,-15.1695,2.61865,0,0,0,0,0,0,0,-1,839,1471,-15.1695,-2.61871
-378,-447,-15.9424,1.49316,0,0,0,0,0,0,0,-1,846,1471,-15.9424,-1.49313
-371,-447,-17.3655,0.73291,0,0,0,0,0,0,0,-1,853,1471,-17.3655,-0.732946
-364,-447,0,0,0,0,0,0,0,0,0,-1,860,1471,0,0
-357,-447,0,0,0,0,0,0,0,0,0,-1,867,1471,0,0
-350,-447,0,0,0,0,0,0,0,0,0,-1,874,1471,0,0
-343,-447,0,0,0,0,0,0,0,0,0,-1,881,1471,0,0
-336,-447,0,0,0,0,0,0,0,0,0,-1,888,1471,0,0
-329,-447,0,0,0,0,0,0,0,0,0,-1,895,1471,0,0
-322,-447,0,0,0,0,0,0,0,0,0,-1,902,1471,0,0
-315,-447,0,0,0,0,0,0,0,0,0,-1,909,1471,0,0
-308,-447,0,0,0,0,0,0,0,0,0,-1,916,1471,0,0
-301,-447,0,0,0,0,0,0,0,0,0,-1,923,1471,0,0
-294,-447,0,0,0,0,0,0,0,0,0,-1,930,1471,0,0
-287,-447,0,0,0,0,0,0,0,0,0,-1,937,1471,0,0
-280,-447,0,0,0,0,0,0,0,0,0,-1,944,1471,0,0
-273,-447,0,0,0,0,0,0,0,0,0,-1,951,1471,0,0
-266,-447,0,0,0,0,0,0,0,0,0,-1,958,1471,0,0
-259,-447,0,0,0,0,0,0,0,0,0,-1,965,1471,0,0
-252,-447,0,0,0,0,0,0,0,0,0,-1,972,1471,0,0
-245,-447,0,0,0,0,0,0,0,0,0,-1,979,1471,0,0
-238,-447,0,0,0,0,0,0,0,0,0,-1,986,1471,0,0
-231,-447,0,0,0,0,0,0,0,0,0,-1,993,1471,0,0
-224,-447,0,0,0,0,0,0,0,0,0,-1,1000,1471,0,0
-217,-447,0,0,0,0,0,0,0,0,0,-1,1007,1471,0,0
-210,-447,0,0,0,0,0,0,0,0,0,-1,1014,1471,0,0
-203,-447,0,0,0,0,0,0,0,0,0,-1,1021,1471,0,0
-196,-447,0,0,0,0,0,0,0,0,0,-1,1028,1471,0,0
-189,-447,0,0,0,0,0,0,0,0,0,-1,1035,1471,0,0
-182,-447,0,0,0,0,0,0,0,0,0,-1,1042,1471,0,0
-175,-447,0,0,0,0,0,0,0,0,0,-1,1049,1471,0,0
-168,-447,0,0,0,0,0,0,0,0,0,-1,1056,1471,0,0
-161,-447,0,0,0,0,0,0,0,0,0,-1,1063,1471,0,0
-154,-447,0,0,0,0,0,0,0,0,0,-1,1070,1471,0,0
-147,-447,0,0,0,0,0,0,0,0,0,-1,1077,1471,0,0
-140,-447,0,0,0,0,0,0,0,0,0,-1,1084,1471,0,0
-133,-447,0,0,0,0,0,0,0,0,0,-1,1091,1471,0,0
-126,-447,0,0,0,0,0,0,0,0,0,-1,1098,1471,0,0
-119,-447,0,0,0,0,0,0,0,0,0,-1,1105,1471,0,0
-112,-447,0,0,0,0,0,0,0,0,0,-1,1112,1471,0,0
-105,-447,0,0,0,0,0,0,0,0,0,-1,1119,1471,0,0
-98,-447,0,0,0,0,0,0,0,0,0,-1,1126,1471,0,0
-91,-447,0,0,0,0,0,0,0,0,0,-1,1133,1471,0,0
-84,-447,0,0,0,0,0,0,0,0,0,-1,1140,1471,0,0
-77,-447,0,0,0,0,0,0,0,0,0,-1,1147,1471,0,0
-70,-447,0,0,0,0,0,0,0,0,0,-1,1154,1471,0,0
-63,-447,0,0,0,0,0,0,0,0,0,-1,1161,1471,0,0
-56,-447,0,0,0,0,0,0,0,0,0,-1,1168,1471,0,0
-49,-447,0,0,0,0,0,0,0,0,0,-1,1175,1471,0,0
-42,-447,0,0,0,0,0,0,0,0,0,-1,1182,1471,0,0
-35,-447,0,0,0,0,0,0,0,0,0,-1,1189,1471,0,0
-28,-447,0,0,0,0,0,0,0,0,0,-1,1196,1471,0,0
-21,-447,0,0,0,0,0,0,0,0,0,-1,1203,1471,0,0
-14,-447,0,0,0,0,0,0,0,0,0,-1,1210,1471,0,0
-7,-447,0,0,0,0,0,0,0,0,0,-1,1217,1471,0,0
0,-447,0,0,0,0,0,0,0,0,0,-1,1224,1471,0,0
7,-447,0,0,0,0,0,0,0,0,0,-1,1231,1471,0,0
14,-447,0,0,0,0,0,0,0,0,0,-1,1238,1471,0,0
21,-447,0,0,0,0,0,0,0,0,0,-1,1245,1471,0,0
28,-447,0,0,0,0,0,0,0,0,0,-1,1252,1471,0,0
35,-447,0,0,0,0,0,0,0,0,0,-1,1259,1471,0,0
42,-447,0,0,0,0,0,0,0,0,0,-1,1266,1471,0,0
49,-447,0,0,0,0,0,0,0,0,0,-1,1273,1471,0,0
56,-447,0,0,0,0,0,0,0,0,0,-1,1280,1471,0,0
63,-447,0,0,0,0,0,0,0,0,0,-1,1287,1471,0,0
70,-447,0,0,0,0,0,0,0,0,0,-1,1294,1471,0,0
77,-447,0,0,0,0,0,0,0,0,0,-1,1301,1471,0,0
84,-447,0,0,0,0,0,0,0,0,0,-1,1308,1471,0,0
91,-447,0,0,0,0,0,0,0,0,0,-1,1315,1471,0,0
98,-447,0,0,0,0,0,0,0,0,0,-1,1322,1471,0,0
105,-447,0,0,0,0,0,0,0,0,0,-1,1329,1471,0,0
112,-447,0,0,0,0,0,0,0,0,0,-1,1336,1471,0,0
119,-447,0,0,0,0,0,0,0,0,0,-1,1343,1471,0,0
126,-447,0,0,0,0,0,0,0,0,0,-1,1350,1471,0,0
133,-447,0,0,0,0,0,0,0,0,0,-1,1357,1471,0,0
140,-447,0,0,0,0,0,0,0,0,0,-1,1364,1471,0,0
147,-447,0,0,0,0,0,0,0,0,0,-1,1371,1471,0,0
154,-447,0,0,0,0,0,0,0,0,0,-1,1378,1471,0,0
161,-447,0,0,0,0,0,0,0,0,0,-1,1385,1471,0,0
168,-447,0,0,0,0,0,0,0,0,0,-1,1392,1471,0,0
175,-447,0,0,0,0,0,0,0,0,0,-1,1399,1471,0,0
182,-447,0,0,0,0,0,0,0,0,0,-1,1406,1471,0,0
189,-447,0,0,0,0,0,0,0,0,0,-1,1413,1471,0,0
196,-447,0,0,0,0,0,0,0,0,0,-1,1420,1471,0,0
203,-447,0,0,0,0,0,0,0,0,0,-1,1427,1471,0,0
210,-447,0,0,0,0,0,0,0,0,0,-1,1434,1471,0,0
217,-447,0,0,0,0,0,0,0,0,0,-1,1441,1471,0,0
224,-447,0,0,0,0,0,0,0,0,0,-1,1448,1471,0,0
231,-447,0,0,0,0,0,0,0,0,0,-1,1455,1471,0,0
238,-447,0,0,0,0,0,0,0,0,0,-1,1462,1471,0,0
245,-447,0,0,0,0,0,0,0,0,0,-1,1469,1471,0,0
252,-447,0,0,0,0,0,0,0,0,0,-1,1476,1471,0,0
259,-447,0,0,0,0,0,0,0,0,0,-1,1483,1471,0,0
266,-447,0,0,0,0,0,0,0,0,0,-1,1490,1471,0,0
273,-447,0,0,0,0,0,0,0,0,0,-1,1497,1471,0,0
280,-447,0,0,0,0,0,0,0,0,0,-1,1504,1471,0,0
287,-447,0,0,0,0,0,0,0,0,0,-1,1511,1471,0,0
294,-447,0,0,0,0,0,0,0,0,0,-1,1518,1471,0,0
301,-447,0,0,0,0,0,0,0,0,0,-1,1525,1471,0,0
308,-447,0,0,0,0,0,0,0,0,0,-1,1532,1471,0,0
315,-447,0,0,0,0,0,0,0,0,0,-1,1539,1471,0,0
322,-447,0,0,0,0,0,0,0,0,0,-1,1546,1471,0,0
329,-447,0,0,0,0,0,0,0,0,0,-1,1553,1471,0,0
336,-447,0,0,0,0,0,0,0,0,0,-1,1560,1471,0,0
343,-447,0,0,0,0,0,0,0,0,0,-1,1567,1471,0,0
350,-447,0,0,0,0,0,0,0,0,0,-1,1574,1471,0,0
357,-447,0,0,0,0,0,0,0,0,0,-1,1581,1471,0,0
364,-447,0,0,0,0,0,0,0,0,0,-1,1588,1471,0,0
371,-447,0,0,0,0,0,0,0,0,0,-1,1595,1471,0,0
378,-447,0,0,0,0,0,0,0,0,0,-1,1602,1471,0,0
385,-447,0,0,0,0,0,0,0,0,0,-1,1609,1471,0,0
392,-447,0,0,0,0,0,0,0,0,0,-1,1616,1471,0,0
399,-447,0,0,0,0,0,0,0,0,0,-1,1623,1471,0,0
406,-447,0,0,0,0,0,0,0,0,0,-1,1630,1471,0,0
413,-447,0,0,0,0,0,0,0,0,0,-1,1637,1471,0,0
420,-447,0,0,0,0,0,0,0,0,0,-1,1644,1471,0,0
427,-447,0,0,0,0,0,0,0,0,0,-1,1651,1471,0,0
434,-447,0,0,0,0,0,0,0,0,0,-1,1658,1471,0,0
441,-447,0,0,0,0,0,0,0,0,0,-1,1665,1471,0,0
448,-447,0,0,0,0,0,0,0,0,0,-1,1672,1471,0,0
455,-447,0,0,0,0,0,0,0,0,0,-1,1679,1471,0,0
462,-447,0,0,0,0,0,0,0,0,0,-1,1686,1471,0,0
469,-447,0,0,0,0,0,0,0,0,0,-1,1693,1471,0,0
476,-447,0,0,0,0,0,0,0,0,0,-1,1700,1471,0,0
483,-447,0,0,0,0,0,0,0,0,0,-1,1707,1471,0,0
490,-447,18.2214,-0.810303,0,0,0,0,0,0,0,-1,1714,1471,18.2215,0.810307
497,-447,17.0237,0.352417,0,0,0,0,0,0,0,-1,1721,1471,17.0237,-0.352442
504,-447,15.8998,1.53479,0,0,0,0,0,0,0,-1,1728,1471,15.8997,-1.53478
511,-447,14.7201,2.76111,0,0,0,0,0,0,0,-1,1735,1471,14.7201,-2.76107
518,-447,17.7618,13.2864,0,0,0,0,0,0,0,-1,1742,1471,17.7619,-13.2863
525,-447,17.1191,11.9014,0,0,0,0,0,0,0,-1,1749,1471,17.1191,-11.9013
532,-447,16.3959,10.0455,0,0,0,0,0,0,0,-1,1756,1471,16.3959,-10.0456
539,-447,14.1699,10.0204,0,0,0,0,0,0,0,-1,1763,1471,14.1699,-10.0204
546,-447,16.3715,11.8046,0,0,0,0,0,0,0,-1,1770,1471,16.3714,-11.8046
553,-447,15.9614,11.6818,0,0,0,0,0,0,0,-1,1777,1471,15.9614,-11.6818
560,-447,15.6787,12.0798,0,0,0,0,0,0,0,-1,1784,1471,15.6787,-12.0799
567,-447,15.8119,12.8406,0,0,0,0,0,0,0,-1,1791,1471,15.8118,-12.8406
574,-447,15.7394,12.1729,-0.00779648,-0.00465941,0.00667739,0.000631198,-0.0130871,0.900758,0.00894255,0.041317,1798,1471,15.7394,-12.1728
581,-447,15.5344,12.0968,-0.00534829,-0.00290224,0.00457911,0.000614353,-0.00886489,0.915896,0.00612499,0.0243306,1805,1471,15.5344,-12.0968
588,-447,15.5913,11.6986,-0.00313559,-0.00116528,0.00280369,0.000821301,-0.00512217,0.954349,0.0037189,0.0160761,1812,1471,15.5913,-11.6986
595,-447,15.5814,11.3777,-0.00185929,-0.00067586,0.00174774,0.000577617,-0.00311276,0.948621,0.00229211,0.0120588,1819,1471,15.5814,-11.3777
602,-447,15.5797,11.0499,-0.00109795,-0.000513555,0.00117488,0.000404916,-0.00201642,0.907277,0.00149761,0.0113929,1826,1471,15.5797,-11.05
609,-447,15.5837,10.7317,-0.000445246,-0.000492245,0.000831787,0.000363373,-0.00130086,0.771276,0.00101039,0.0123688,1833,1471,15.5837,-10.7317
616,-447,15.582,10.4269,1.29056e-05,-0.000724523,0.000675865,0.00041409,-0.00112571,0.53569,0.000920104,0.0134252,1840,1471,15.582,-10.4269
623,-447,15.5991,10.1337,0.000519127,-0.00119035,0.000572322,0.000693043,-0.00136426,0.295011,0.00120868,0.014759,1847,1471,15.5992,-10.1336
630,-447,15.5726,9.80164,0.00104621,-0.00168841,0.000552115,0.00115348,-0.00179567,0.191887,0.0017161,0.00909544,1854,1471,15.5726,-9.80167
637,-447,15.5681,9.49646,0.00148161,-0.00231897,0.000637981,0.00158584,-0.00242321,0.161952,0.0023314,0.0098662,1861,1471,15.5682,-9.49645
644,-447,15.5798,9.19263,0.00192695,-0.00307957,0.0007609,0.00204004,-0.00319266,0.147545,0.00304543,0.0106423,1868,1471,15.5798,-9.19263
651,-447,15.6023,8.87134,0.00238668,-0.0038953,0.000848895,0.00249937,-0.00400799,0.131979,0.00379054,0.0306747,1875,1471,15.6023,-8.87133
658,-447,15.3923,8.70789,0.0030418,-0.00477279,0.000761038,0.00311523,-0.00484621,0.0961826,0.00463261,0.0401728,1882,1471,15.3924,-8.70791
665,-447,15.9742,8.38647,0,0,0,0,0,0,0,-1,1889,1471,15.9743,-8.38642
672,-447,14.3824,8.2356,0,0,0,0,0,0,0,-1,1896,1471,14.3824,-8.23554
679,-447,14.1313,8.05774,0,0,0,0,0,0,0,-1,1903,1471,14.1313,-8.05776
686,-447,9.81079,4.30859,0,0,0,0,0,0,0,-1,1910,1471,9.8108,-4.30864
693,-447,10.48,2.08643,0,0,0,0,0,0,0,-1,1917,1471,10.48,-2.08642
700,-447,0,0,0,0,0,0,0,0,0,-1,1924,1471,0,0
707,-447,0,0,0,0,0,0,0,0,0,-1,1931,1471,0,0
714,-447,0,0,0,0,0,0,0,0,0,-1,1938,1471,0,0
721,-447,0,0,0,0,0,0,0,0,0,-1,1945,1471,0,0
728,-447,0,0,0,0,0,0,0,0,0,-1,1952,1471,0,0
735,-447,0,0,0,0,0,0,0,0,0,-1,1959,1471,0,0
742,-447,0,0,0,0,0,0,0,0,0,-1,1966,1471,0,0
749,-447,0,0,0,0,0,0,0,0,0,-1,1973,1471,0,0
756,-447,0,0,0,0,0,0,0,0,0,-1,1980,1471,0,0
763,-447,0,0,0,0,0,0,0,0,0,-1,1987,1471,0,0
770,-447,0,0,0,0,0,0,0,0,0,-1,1994,1471,0,0
777,-447,0,0,0,0,0,0,0,0,0,-1,2001,1471,0,0
784,-447,0,0,0,0,0,0,0,0,0,-1,2008,1471,0,0
791,-447,0,0,0,0,0,0,0,0,0,-1,2015,1471,0,0
798,-447,0,0,0,0,0,0,0,0,0,-1,2022,1471,0,0
805,-447,0,0,0,0,0,0,0,0,0,-1,2029,1471,0,0
812,-447,0,0,0,0,0,0,0,0,0,-1,2036,1471,0,0
-700,-454,0,0,0,0,0,0,0,0,0,-1,524,1478,0,0
-693,-454,0,0,0,0,0,0,0,0,0,-1,531,1478,0,0
-686,-454,0,0,0,0,0,0,0,0,0,-1,538,1478,0,0
-679,-454,0,0,0,0,0,0,0,0,0,-1,545,1478,0,0
-672,-454,0,0,0,0,0,0,0,0,0,-1,552,1478,0,0
-665,-454,0,0,0,0,0,0,0,0,0,-1,559,1478,0,0
-658,-454,0,0,0,0,0,0,0,0,0,-1,566,1478,0,0
-651,-454,0,0,0,0,0,0,0,0,0,-1,573,1478,0,0
-644,-454,0,0,0,0,0,0,0,0,0,-1,580,1478,0,0
-637,-454,0,0,0,0,0,0,0,0,0,-1,587,1478,0,0
-630,-454,0,0,0,0,0,0,0,0,0,-1,594,1478,0,0
-623,-454,0,0,0,0,0,0,0,0,0,-1,601,1478,0,0
-616,-454,0,0,0,0,0,0,0,0,0,-1,608,1478,0,0
-609,-454,0,0,0,0,0,0,0,0,0,-1,615,1478,0,0
-602,-454,0,0,0,0,0,0,0,0,0,-1,622,1478,0,0
-595,-454,0,0,0,0,0,0,0,0,0,-1,629,1478,0,0
-588,-454,0,0,0,0,0,0,0,0,0,-1,636,1478,0,0
-581,-454,0,0,0,0,0,0,0,0,0,-1,643,1478,0,0
-574,-454,-8.4881,-0.465942,0,0,0,0,0,0,0,-1,650,1478,-8.4881,0.465885
-567,-454,-8.10046,0.922974,0,0,0,0,0,0,0,-1,657,1478,-8.10047,-0.923034
-560,-454,-10.656,3.51172,0,0,0,0,0,0,0,-1,664,1478,-10.656,-3.51176
-553,-454,-9.01129,3.95251,0,0,0,0,0,0,0,-1,671,1478,-9.0113,-3.95256
-546,-454,-9.61896,6.05237,0,0,0,0,0,0,0,-1,678,1478,-9.61897,-6.05239
-539,-454,-7.72589,4.96533,0,0,0,0,0,0,0,-1,685,1478,-7.72592,-4.96532
-532,-454,-4.34564,5.02869,0,0,0,0,0,0,0,-1,692,1478,-4.34564,-5.02867
-525,-454,-4.22888,6.07568,0.0122031,0.0326623,0.0310519,0.0551262,-0.0102608,0.944517,0.0406055,0.0420949,699,1478,-4.22889,-6.07574
-518,-454,-4.20386,7.21362,0.00937036,0.0236111,0.0231367,0.0406982,-0.00771683,0.934675,0.0300367,0.0355591,706,1478,-4.20388,-7.21363
-511,-454,-4.25098,7.27625,0.007055,0.0166282,0.0168453,0.0293538,-0.00567057,0.923825,0.0217077,0.0243948,713,1478,-4.251,-7.27624
-504,-454,-4.21448,7.6543,0.00519282,0.0113312,0.0118915,0.0205432,-0.00401919,0.911691,0.0152132,0.0168031,720,1478,-4.21449,-7.65426
-497,-454,-4.20856,8.02588,0.00369519,0.0072608,0.00790068,0.0135773,-0.00262134,0.896366,0.01004,0.0203177,727,1478,-4.20854,-8.02594
-490,-454,-4.21765,8.41455,0.00270492,0.00417334,0.0047218,0.00821767,-0.00133941,0.862527,0.00597517,0.0185622,734,1478,-4.21765,-8.41455
-483,-454,-4.2533,8.73608,0.00200614,0.00176812,0.00208217,0.0039727,-0.000198435,0.75685,0.00271702,0.0168531,741,1478,-4.2533,-8.73612
-476,-454,-4.28088,9.04053,0.00133139,-0.000581041,-0.000392055,0.00140864,-0.000658293,-0.194552,0.00121927,0.0140226,748,1478,-4.28086,-9.0405
-469,-454,-4.27875,9.40027,0.00101922,-0.00258807,-0.0025772,0.00236122,-0.00393008,-0.480087,0.00366974,0.0102358,755,1478,-4.27877,-9.40033
-462,-454,-4.30029,9.76013,0.00124347,-0.00380929,-0.00418161,0.00360263,-0.00616845,-0.51366,0.0057058,0.010781,762,1478,-4.30028,-9.76016
-455,-454,-4.2948,10.0885,0.00166358,-0.00512291,-0.00568351,0.00488972,-0.00834905,-0.516281,0.0077299,0.0118925,769,1478,-4.29483,-10.0886
-448,-454,-4.26471,10.4294,0.00231046,-0.0066278,-0.0072971,0.00639824,-0.0107156,-0.510635,0.00998492,0.0138845,776,1478,-4.26472,-10.4295
-441,-454,-4.09564,10.8716,0.00321763,-0.00867516,-0.00929444,0.0083051,-0.0137626,-0.50082,0.01287,0.0254662,783,1478,-4.09562,-10.8716
-434,-454,-4.03339,11.1239,0.00425033,-0.0113066,-0.0117408,0.0105556,-0.0176118,-0.492838,0.0164317,0.032438,790,1478,-4.0334,-11.1239
-427,-454,-4.10291,11.0732,0.00536777,-0.0143685,-0.0146543,0.0131668,-0.0221675,-0.489075,0.0206197,0.0447337,797,1478,-4.10289,-11.0732
-420,-454,-4.59454,10.5165,0,0,0,0,0,0,0,-1,804,1478,-4.59454,-10.5165
-413,-454,-5.1051,9.7323,0,0,0,0,0,0,0,-1,811,1478,-5.10512,-9.73226
-406,-454,-2.38208,10.0308,0,0,0,0,0,0,0,-1,818,1478,-2.38209,-10.0308
-399,-454,-1.21033,6.95447,0,0,0,0,0,0,0,-1,825,1478,-1.21035,-6.95452
-392,-454,0.0967407,0.985474,0,0,0,0,0,0,0,-1,832,1478,0.0967364,-0.985529
-385,-454,2.38629,3.297,0,0,0,0,0,0,0,-1,839,1478,2.38629,-3.29702
-378,-454,-15.9756,2.83997,0,0,0,0,0,0,0,-1,846,1478,-15.9756,-2.83994
-371,-454,-17.2753,2.01453,0,0,0,0,0,0,0,-1,853,1478,-17.2753,-2.01455
-364,-454,1.08124,0.819458,0,0,0,0,0,0,0,-1,860,1478,1.08124,-0.819513
-357,-454,0,0,0,0,0,0,0,0,0,-1,867,1478,0,0
-350,-454,0,0,0,0,0,0,0,0,0,-1,874,1478,0,0
-343,-454,0,0,0,0,0,0,0,0,0,-1,881,1478,0,0
-336,-454,0,0,0,0,0,0,0,0,0,-1,888,1478,0,0
-329,-454,0,0,0,0,0,0,0,0,0,-1,895,1478,0,0
-322,-454,0,0,0,0,0,0,0,0,0,-1,902,1478,0,0
-315,-454,0,0,0,0,0,0,0,0,0,-1,909,1478,0,0
-308,-454,0,0,0,0,0,0,0,0,0,-1,916,1478,0,0
-301,-454,0,0,0,0,0,0,0,0,0,-1,923,1478,0,0
-294,-454,0,0,0,0,0,0,0,0,0,-1,930,1478,0,0
-287,-454,0,0,0,0,0,0,0,0,0,-1,937,1478,0,0
-280,-454,0,0,0,0,0,0,0,0,0,-1,944,1478,0,0
-273,-454,0,0,0,0,0,0,0,0,0,-1,951,1478,0,0
-266,-454,0,0,0,0,0,0,0,0,0,-1,958,1478,0,0
-259,-454,0,0,0,0,0,0,0,0,0,-1,965,1478,0,0
-252,-454,0,0,0,0,0,0,0,0,0,-1,972,1478,0,0
-245,-454,0,0,0,0,0,0,0,0,0,-1,979,1478,0,0
-238,-454,0,0,0,0,0,0,0,0,0,-1,986,1478,0,0
-231,-454,0,0,0,0,0,0,0,0,0,-1,993,1478,0,0
-224,-454,0,0,0,0,0,0,0,0,0,-1,1000,1478,0,0
-217,-454,0,0,0,0,0,0,0,0,0,-1,1007,1478,0,0
-210,-454,0,0,0,0,0,0,0,0,0,-1,1014,1478,0,0
-203,-454,0,0,0,0,0,0,0,0,0,-1,1021,1478,0,0
-196,-454,0,0,0,0,0,0,0,0,0,-1,1028,1478,0,0
-189,-454,0,0,0,0,0,0,0,0,0,-1,1035,1478,0,0
-182,-454,0,0,0,0,0,0,0,0,0,-1,1042,1478,0,0
-175,-454,0,0,0,0,0,0,0,0,0,-1,1049,1478,0,0
-168,-454,0,0,0,0,0,0,0,0,0,-1,1056,1478,0,0
-161,-454,0,0,0,0,0,0,0,0,0,-1,1063,1478,0,0
-154,-454,0,0,0,0,0,0,0,0,0,-1,1070,1478,0,0
-147,-454,0,0,0,0,0,0,0,0,0,-1,1077,1478,0,0
-140,-454,0,0,0,0,0,0,0,0,0,-1,1084,1478,0,0
-133,-454,0,0,0,0,0,0,0,0,0,-1,1091,1478,0,0
-126,-454,0,0,0,0,0,0,0,0,0,-1,1098,1478,0,0
-119,-454,0,0,0,0,0,0,0,0,0,-1,1105,1478,0,0
-112,-454,0,0,0,0,0,0,0,0,0,-1,1112,1478,0,0
-105,-454,0,0,0,0,0,0,0,0,0,-1,1119,1478,0,0
-98,-454,0,0,0,0,0,0,0,0,0,-1,1126,1478,0,0
-91,-454,0,0,0,0,0,0,0,0,0,-1,1133,1478,0,0
-84,-454,0,0,0,0,0,0,0,0,0,-1,1140,1478,0,0
-77,-454,0,0,0,0,0,0,0,0,0,-1,1147,1478,0,0
-70,-454,0,0,0,0,0,0,0,0,0,-1,1154,1478,0,0
-63,-454,0,0,0,0,0,0,0,0,0,-1,1161,1478,0,0
-56,-454,0,0,0,0,0,0,0,0,0,-1,1168,1478,0,0
-49,-454,0,0,0,0,0,0,0,0,0,-1,1175,1478,0,0
-42,-454,0,0,0,0,0,0,0,0,0,-1,1182,1478,0,0
-35,-454,0,0,0,0,0,0,0,0,0,-1,1189,1478,0,0
-28,-454,0,0,0,0,0,0,0,0,0,-1,1196,1478,0,0
-21,-454,0,0,0,0,0,0,0,0,0,-1,1203,1478,0,0
-14,-454,0,0,0,0,0,0,0,0,0,-1,1210,1478,0,0
-7,-454,0,0,0,0,0,0,0,0,0,-1,1217,1478,0,0
0,-454,0,0,0,0,0,0,0,0,0,-1,1224,1478,0,0
7,-454,0,0,0,0,0,0,0,0,0,-1,1231,1478,0,0
14,-454,0,0,0,0,0,0,0,0,0,-1,1238,1478,0,0
21,-454,0,0,0,0,0,0,0,0,0,-1,1245,1478,0,0
28,-454,0,0,0,0,0,0,0,0,0,-1,1252,1478,0,0
35,-454,0,0,0,0,0,0,0,0,0,-1,1259,1478,0,0
42,-454,0,0,0,0,0,0,0,0,0,-1,1266,1478,0,0
49,-454,0,0,0,0,0,0,0,0,0,-1,1273,1478,0,0
56,-454,0,0,0,0,0,0,0,0,0,-1,1280,1478,0,0
63,-454,0,0,0,0,0,0,0,0,0,-1,1287,1478,0,0
70,-454,0,0,0,0,0,0,0,0,0,-1,1294,1478,0,0
77,-454,0,0,0,0,0,0,0,0,0,-1,1301,1478,0,0
84,-454,0,0,0,0,0,0,0,0,0,-1,1308,1478,0,0
91,-454,0,0,0,0,0,0,0,0,0,-1,1315,1478,0,0
98,-454,0,0,0,0,0,0,0,0,0,-1,1322,1478,0,0
105,-454,0,0,0,0,0,0,0,0,0,-1,1329,1478,0,0
112,-454,0,0,0,0,0,0,0,0,0,-1,1336,1478,0,0
119,-454,0,0,0,0,0,0,0,0,0,-1,1343,1478,0,0
126,-454,0,0,0,0,0,0,0,0,0,-1,1350,1478,0,0
133,-454,0,0,0,0,0,0,0,0,0,-1,1357,1478,0,0
140,-454,0,0,0,0,0,0,0,0,0,-1,1364,1478,0,0
147,-454,0,0,0,0,0,0,0,0,0,-1,1371,1478,0,0
154,-454,0,0,0,0,0,0,0,0,0,-1,1378,1478,0,0
161,-454,0,0,0,0,0,0,0,0,0,-1,1385,1478,0,0
168,-454,0,0,0,0,0,0,0,0,0,-1,1392,1478,0,0
175,-454,0,0,0,0,0,0,0,0,0,-1,1399,1478,0,0
182,-454,0,0,0,0,0,0,0,0,0,-1,1406,1478,0,0
189,-454,0,0,0,0,0,0,0,0,0,-1,1413,1478,0,0
196,-454,0,0,0,0,0,0,0,0,0,-1,1420,1478,0,0
203,-454,0,0,0,0,0,0,0,0,0,-1,1427,1478,0,0
210,-454,0,0,0,0,0,0,0,0,0,-1,1434,1478,0,0
217,-454,0,0,0,0,0,0,0,0,0,-1,1441,1478,0,0
224,-454,0,0,0,0,0,0,0,0,0,-1,1448,1478,0,0
231,-454,0,0,0,0,0,0,0,0,0,-1,1455,1478,0,0
238,-454,0,0,0,0,0,0,0,0,0,-1,1462,1478,0,0
245,-454,0,0,0,0,0,0,0,0,0,-1,1469,1478,0,0
252,-454,0,0,0,0,0,0,0,0,0,-1,1476,1478,0,0
259,-454,0,0,0,0,0,0,0,0,0,-1,1483,1478,0,0
266,-454,0,0,0,0,0,0,0,0,0,-1,1490,1478,0,0
273,-454,0,0,0,0,0,0,0,0,0,-1,1497,1478,0,0
280,-454,0,0,0,0,0,0,0,0,0,-1,1504,1478,0,0
287,-454,0,0,0,0,0,0,0,0,0,-1,1511,1478,0,0
294,-454,0,0,0,0,0,0,0,0,0,-1,1518,1478,0,0
301,-454,0,0,0,0,0,0,0,0,0,-1,1525,1478,0,0
308,-454,0,0,0,0,0,0,0,0,0,-1,1532,1478,0,0
315,-454,0,0,0,0,0,0,0,0,0,-1,1539,1478,0,0
322,-454,0,0,0,0,0,0,0,0,0,-1,1546,1478,0,0
329,-454,0,0,0,0,0,0,0,0,0,-1,1553,1478,0,0
336,-454,0,0,0,0,0,0,0,0,0,-1,1560,1478,0,0
343,-454,0,0,0,0,0,0,0,0,0,-1,1567,1478,0,0
350,-454,0,0,0,0,0,0,0,0,0,-1,1574,1478,0,0
357,-454,0,0,0,0,0,0,0,0,0,-1,1581,1478,0,0
364,-454,0,0,0,0,0,0,0,0,0,-1,1588,1478,0,0
371,-454,0,0,0,0,0,0,0,0,0,-1,1595,1478,0,0
378,-454,0,0,0,0,0,0,0,0,0,-1,1602,1478,0,0
385,-454,0,0,0,0,0,0,0,0,0,-1,1609,1478,0,0
392,-454,0,0,0,0,0,0,0,0,0,-1,1616,1478,0,0
399,-454,0,0,0,0,0,0,0,0,0,-1,1623,1478,0,0
406,-454,0,0,0,0,0,0,0,0,0,-1,1630,1478,0,0
413,-454,0,0,0,0,0,0,0,0,0,-1,1637,1478,0,0
420,-454,0,0,0,0,0,0,0,0,0,-1,1644,1478,0,0
427,-454,0,0,0,0,0,0,0,0,0,-1,1651,1478,0,0
434,-454,0,0,0,0,0,0,0,0,0,-1,1658,1478,0,0
441,-454,0,0,0,0,0,0,0,0,0,-1,1665,1478,0,0
448,-454,0,0,0,0,0,0,0,0,0,-1,1672,1478,0,0
455,-454,0,0,0,0,0,0,0,0,0,-1,1679,1478,0,0
462,-454,0,0,0,0,0,0,0,0,0,-1,1686,1478,0,0
469,-454,0,0,0,0,0,0,0,0,0,-1,1693,1478,0,0
476,-454,0,0,0,0,0,0,0,0,0,-1,1700,1478,0,0
483,-454,14.2399,3.97498,0,0,0,0,0,0,0,-1,1707,1478,14.2399,-3.97502
490,-454,18.1821,-0.175781,0,0,0,0,0,0,0,-1,1714,1478,18.1821,0.175822
497,-454,16.8854,1.01208,0,0,0,0,0,0,0,-1,1721,1478,16.8854,-1.01209
504,-454,15.587,2.05994,0,0,0,0,0,0,0,-1,1728,1478,15.5871,-2.05998
511,-454,17.0273,14.5258,0,0,0,0,0,0,0,-1,1735,1478,17.0273,-14.5258
518,-454,16.4158,13.1039,0,0,0,0,0,0,0,-1,1742,1478,16.4157,-13.1038
525,-454,15.7842,11.6628,0,0,0,0,0,0,0,-1,1749,1478,15.7841,-11.6629
532,-454,15.1094,10.2476,0,0,0,0,0,0,0,-1,1756,1478,15.1094,-10.2475
539,-454,13.7905,10.9373,0,0,0,0,0,0,0,-1,1763,1478,13.7906,-10.9372
546,-454,16.2002,13.2458,0,0,0,0,0,0,0,-1,1770,1478,16.2002,-13.2459
553,-454,15.6747,12.1868,0,0,0,0,0,0,0,-1,1777,1478,15.6747,-12.1868
560,-454,14.8998,12.7029,0,0,0,0,0,0,0,-1,1784,1478,14.8997,-12.7029
567,-454,15.4299,12.6302,-0.00967974,-0.00637972,0.00811098,0.000247382,-0.0163068,0.885743,0.0109546,0.041719,1791,1478,15.4299,-12.6302
574,-454,15.3123,12.27,-0.0066317,-0.0040937,0.00569221,0.000469246,-0.0111947,0.895073,0.00762433,0.0200325,1798,1478,15.3123,-12.2701
581,-454,15.2834,11.9706,-0.00443979,-0.00253382,0.00389142,0.0005196,-0.00749322,0.905482,0.00517738,0.0136298,1805,1478,15.2835,-11.9706
588,-454,15.3007,11.6616,-0.00235942,-0.00101053,0.00233091,0.000741547,-0.00411151,0.926226,0.0030187,0.0123744,1812,1478,15.3006,-11.6616
595,-454,15.2753,11.3608,-0.00117624,-0.000610377,0.00142012,0.000554724,-0.00234134,0.883726,0.00177494,0.0115937,1819,1478,15.2752,-11.3608
602,-454,15.2629,11.0447,-0.000514875,-0.000542516,0.000967668,0.000439071,-0.00149646,0.778257,0.00117175,0.00863801,1826,1478,15.2629,-11.0447
609,-454,15.2706,10.7493,0.000110333,-0.000592525,0.000684055,0.000527951,-0.00101014,0.548107,0.000902448,0.0105184,1833,1478,15.2706,-10.7493
616,-454,15.2775,10.4441,0.000572872,-0.000937415,0.000588791,0.000775286,-0.00113983,0.331122,0.00111235,0.0134542,1840,1478,15.2774,-10.4441
623,-454,15.2814,10.1327,0.00108755,-0.00150367,0.000549192,0.00119914,-0.00161526,0.200464,0.00163081,0.0112134,1847,1478,15.2814,-10.1327
630,-454,15.2843,9.81799,0.00162444,-0.00216178,0.00061041,0.00172041,-0.00225776,0.155957,0.00230377,0.0103215,1854,1478,15.2843,-9.81801
637,-454,15.2579,9.51563,0.00210999,-0.00295198,0.000749981,0.00221877,-0.00306076,0.144039,0.00306103,0.0101845,1861,1478,15.2579,-9.51557
644,-454,15.3079,9.20703,0.0026202,-0.00398368,0.000969618,0.00275962,-0.0041231,0.142811,0.00399965,0.0193984,1868,1478,15.3079,-9.20708
651,-454,15.0863,9.03857,0.00317879,-0.00511084,0.00112992,0.00333004,-0.0052621,0.133071,0.00500231,0.0403204,1875,1478,15.0863,-9.03852
658,-454,15.246,8.71582,0.00402629,-0.00638797,0.00106758,0.0041346,-0.00649628,0.101111,0.00618802,0.0395608,1882,1478,15.246,-8.71585
665,-454,15.6787,7.68103,0,0,0,0,0,0,0,-1,1889,1478,15.6788,-7.68105
672,-454,15.8972,6.52246,0,0,0,0,0,0,0,-1,1896,1478,15.8973,-6.52247
679,-454,14.2161,5.45007,0,0,0,0,0,0,0,-1,1903,1478,14.2161,-5.45013
686,-454,10.3767,2.12842,0,0,0,0,0,0,0,-1,1910,1478,10.3767,-2.12839
693,-454,11.1857,1.48486,0,0,0,0,0,0,0,-1,1917,1478,11.1857,-1.48487
700,-454,0,0,0,0,0,0,0,0,0,-1,1924,1478,0,0
707,-454,0,0,0,0,0,0,0,0,0,-1,1931,1478,0,0
714,-454,0,0,0,0,0,0,0,0,0,-1,1938,1478,0,0
721,-454,0,0,0,0,0,0,0,0,0,-1,1945,1478,0,0
728,-454,0,0,0,0,0,0,0,0,0,-1,1952,1478,0,0
735,-454,0,0,0,0,0,0,0,0,0,-1,1959,1478,0,0
742,-454,0,0,0,0,0,0,0,0,0,-1,1966,1478,0,0
749,-454,0,0,0,0,0,0,0,0,0,-1,1973,1478,0,0
756,-454,0,0,0,0,0,0,0,0,0,-1,1980,1478,0,0
763,-454,0,0,0,0,0,0,0,0,0,-1,1987,1478,0,0
770,-454,0,0,0,0,0,0,0,0,0,-1,1994,1478,0,0
777,-454,0,0,0,0,0,0,0,0,0,-1,2001,1478,0,0
784,-454,0,0,0,0,0,0,0,0,0,-1,2008,1478,0,0
791,-454,0,0,0,0,0,0,0,0,0,-1,2015,1478,0,0
798,-454,0,0,0,0,0,0,0,0,0,-1,2022,1478,0,0
805,-454,0,0,0,0,0,0,0,0,0,-1,2029,1478,0,0
812,-454,0,0,0,0,0,0,0,0,0,-1,2036,1478,0,0
-700,-461,0,0,0,0,0,0,0,0,0,-1,524,1485,0,0
-693,-461,0,0,0,0,0,0,0,0,0,-1,531,1485,0,0
-686,-461,0,0,0,0,0,0,0,0,0,-1,538,1485,0,0
-679,-461,0,0,0,0,0,0,0,0,0,-1,545,1485,0,0
-672,-461,0,0,0,0,0,0,0,0,0,-1,552,1485,0,0
-665,-461,0,0,0,0,0,0,0,0,0,-1,559,1485,0,0
-658,-461,0,0,0,0,0,0,0,0,0,-1,566,1485,0,0
-651,-461,0,0,0,0,0,0,0,0,0,-1,573,1485,0,0
-644,-461,0,0,0,0,0,0,0,0,0,-1,580,1485,0,0
-637,-461,0,0,0,0,0,0,0,0,0,-1,587,1485,0,0
-630,-461,0,0,0,0,0,0,0,0,0,-1,594,1485,0,0
-623,-461,0,0,0,0,0,0,0,0,0,-1,601,1485,0,0
-616,-461,0,0,0,0,0,0,0,0,0,-1,608,1485,0,0
-609,-461,0,0,0,0,0,0,0,0,0,-1,615,1485,0,0
-602,-461,0,0,0,0,0,0,0,0,0,-1,622,1485,0,0
-595,-461,0,0,0,0,0,0,0,0,0,-1,629,1485,0,0
-588,-461,0,0,0,0,0,0,0,0,0,-1,636,1485,0,0
-581,-461,0,0,0,0,0,0,0,0,0,-1,643,1485,0,0
-574,-461,0,0,0,0,0,0,0,0,0,-1,650,1485,0,0
-567,-461,-9.69031,0.513306,0,0,0,0,0,0,0,-1,657,1485,-9.69032,-0.513305
-560,-461,-7.28815,1.54004,0,0,0,0,0,0,0,-1,664,1485,-7.28817,-1.54005
-553,-461,-11.9607,5.27783,0,0,0,0,0,0,0,-1,671,1485,-11.9607,-5.27778
-546,-461,-11.4215,4.44666,0,0,0,0,0,0,0,-1,678,1485,-11.4215,-4.4467
-539,-461,-9.36493,5.23438,0,0,0,0,0,0,0,-1,685,1485,-9.3649,-5.23432
-532,-461,-4.25525,4.12073,0,0,0,0,0,0,0,-1,692,1485,-4.25527,-4.12075
-525,-461,-3.9751,5.1604,0.0170922,0.0396818,0.0395514,0.0695195,-0.0127456,0.924483,0.0511272,0.045029,699,1485,-3.97512,-5.16035
-518,-461,-3.78149,6.58044,0.012623,0.028038,0.0287207,0.0500674,-0.00940643,0.91649,0.0369154,0.0394148,706,1485,-3.78151,-6.58042
-511,-461,-3.80804,7.37732,0.00915023,0.0193686,0.020448,0.0353361,-0.00681721,0.907823,0.0261279,0.0264274,713,1485,-3.80806,-7.37726
-504,-461,-3.91266,7.66858,0.00650639,0.0130294,0.0142101,0.0243475,-0.00481173,0.898204,0.0180506,0.0150773,720,1485,-3.91264,-7.66857
-497,-461,-3.87433,8.0603,0.00448513,0.00838596,0.00946005,0.0160946,-0.00322347,0.887061,0.01195,0.0119111,727,1485,-3.87434,-8.06026
-490,-461,-3.88953,8.40613,0.00313025,0.00500925,0.00584808,0.00999281,-0.00185331,0.865043,0.00735786,0.0125398,734,1485,-3.88953,-8.40617
-483,-461,-3.91199,8.73621,0.00223116,0.00251226,0.00303425,0.00540921,-0.000665796,0.808542,0.00384733,0.0120451,741,1485,-3.91199,-8.73623
-476,-461,-3.93982,9.07385,0.00149312,0.000231668,0.000605238,0.00173654,-1.17509e-05,0.382389,0.00116163,0.010768,748,1485,-3.9398,-9.07385
-469,-461,-3.93561,9.4165,0.00115288,-0.00175881,-0.00151048,0.0017949,-0.00240083,-0.401908,0.00243081,0.0120668,755,1485,-3.93562,-9.41644
-462,-461,-3.95837,9.74707,0.00145685,-0.00270202,-0.00280989,0.00287306,-0.00411823,-0.466849,0.0040577,0.0173927,762,1485,-3.95837,-9.74702
-455,-461,-3.9389,10.0817,0.00202453,-0.00359982,-0.00381586,0.00395252,-0.0055278,-0.467844,0.00549859,0.0213642,769,1485,-3.93889,-10.0817
-448,-461,-3.89825,10.4178,0.00286471,-0.00458001,-0.00476764,0.00519101,-0.00690631,-0.45395,0.00700776,0.0177165,776,1485,-3.89825,-10.4178
-441,-461,-3.89124,10.806,0.00402309,-0.00585686,-0.00585974,0.00674731,-0.00858108,-0.435179,0.00887093,0.0150723,783,1485,-3.89123,-10.806
-434,-461,-3.71643,11.1222,0.00539504,-0.00753965,-0.00720222,0.0086075,-0.0107521,-0.419553,0.0112001,0.0197913,790,1485,-3.71641,-11.1222
-427,-461,-3.65924,11.3381,0.00689786,-0.00939882,-0.00884992,0.0107793,-0.0132803,-0.413324,0.0139158,0.0316554,797,1485,-3.65924,-11.3381
-420,-461,-3.42834,11.6509,0,0,0,0,0,0,0,-1,804,1485,-3.42834,-11.6509
-413,-461,-3.76422,10.543,0,0,0,0,0,0,0,-1,811,1485,-3.76423,-10.543
-406,-461,-3.74152,9.38831,0,0,0,0,0,0,0,-1,818,1485,-3.74152,-9.38832
-399,-461,-1.93439,9.82849,0,0,0,0,0,0,0,-1,825,1485,-1.9344,-9.82846
-392,-461,-0.357544,5.55225,0,0,0,0,0,0,0,-1,832,1485,-0.357536,-5.55228
-385,-461,1.71509,3.35254,0,0,0,0,0,0,0,-1,839,1485,1.71511,-3.35255
-378,-461,1.95996,3.01111,0,0,0,0,0,0,0,-1,846,1485,1.95993,-3.01111
-371,-461,0.702881,2.33459,0,0,0,0,0,0,0,-1,853,1485,0.702859,-2.33459
-364,-461,-1.93097,2.56458,0,0,0,0,0,0,0,-1,860,1485,-1.93095,-2.56456
-357,-461,-2.41516,3.49487,0,0,0,0,0,0,0,-1,867,1485,-2.41517,-3.49487
-350,-461,0,0,0,0,0,0,0,0,0,-1,874,1485,0,0
-343,-461,0,0,0,0,0,0,0,0,0,-1,881,1485,0,0
-336,-461,0,0,0,0,0,0,0,0,0,-1,888,1485,0,0
-329,-461,0,0,0,0,0,0,0,0,0,-1,895,1485,0,0
-322,-461,0,0,0,0,0,0,0,0,0,-1,902,1485,0,0
-315,-461,0,0,0,0,0,0,0,0,0,-1,909,1485,0,0
-308,-461,0,0,0,0,0,0,0,0,0,-1,916,1485,0,0
-301,-461,0,0,0,0,0,0,0,0,0,-1,923,1485,0,0
-294,-461,0,0,0,0,0,0,0,0,0,-1,930,1485,0,0
-287,-461,0,0,0,0,0,0,0,0,0,-1,937,1485,0,0
-280,-461,0,0,0,0,0,0,0,0,0,-1,944,1485,0,0
-273,-461,0,0,0,0,0,0,0,0,0,-1,951,1485,0,0
-266,-461,0,0,0,0,0,0,0,0,0,-1,958,1485,0,0
-259,-461,0,0,0,0,0,0,0,0,0,-1,965,1485,0,0
-252,-461,0,0,0,0,0,0,0,0,0,-1,972,1485,0,0
-245,-461,0,0,0,0,0,0,0,0,0,-1,979,1485,0,0
-238,-461,0,0,0,0,0,0,0,0,0,-1,986,1485,0,0
-231,-461,0,0,0,0,0,0,0,0,0,-1,993,1485,0,0
-224,-461,0,0,0,0,0,0,0,0,0,-1,1000,1485,0,0
-217,-461,0,0,0,0,0,0,0,0,0,-1,1007,1485,0,0
-210,-461,0,0,0,0,0,0,0,0,0,-1,1014,1485,0,0
-203,-461,0,0,0,0,0,0,0,0,0,-1,1021,1485,0,0
-196,-461,0,0,0,0,0,0,0,0,0,-1,1028,1485,0,0
-189,-461,0,0,0,0,0,0,0,0,0,-1,1035,1485,0,0
-182,-461,0,0,0,0,0,0,0,0,0,-1,1042,1485,0,0
-175,-461,0,0,0,0,0,0,0,0,0,-1,1049,1485,0,0
-168,-461,0,0,0,0,0,0,0,0,0,-1,1056,1485,0,0
-161,-461,0,0,0,0,0,0,0,0,0,-1,1063,1485,0,0
-154,-461,0,0,0,0,0,0,0,0,0,-1,1070,1485,0,0
-147,-461,0,0,0,0,0,0,0,0,0,-1,1077,1485,0,0
-140,-461,0,0,0,0,0,0,0,0,0,-1,1084,1485,0,0
-133,-461,0,0,0,0,0,0,0,0,0,-1,1091,1485,0,0
-126,-461,0,0,0,0,0,0,0,0,0,-1,1098,1485,0,0
-119,-461,0,0,0,0,0,0,0,0,0,-1,1105,1485,0,0
-112,-461,0,0,0,0,0,0,0,0,0,-1,1112,1485,0,0
-105,-461,0,0,0,0,0,0,0,0,0,-1,1119,1485,0,0
-98,-461,0,0,0,0,0,0,0,0,0,-1,1126,1485,0,0
-91,-461,0,0,0,0,0,0,0,0,0,-1,1133,1485,0,0
-84,-461,0,0,0,0,0,0,0,0,0,-1,1140,1485,0,0
-77,-461,0,0,0,0,0,0,0,0,0,-1,1147,1485,0,0
-70,-461,0,0,0,0,0,0,0,0,0,-1,1154,1485,0,0
-63,-461,0,0,0,0,0,0,0,0,0,-1,1161,1485,0,0
-56,-461,0,0,0,0,0,0,0,0,0,-1,1168,1485,0,0
-49,-461,0,0,0,0,0,0,0,0,0,-1,1175,1485,0,0
-42,-461,0,0,0,0,0,0,0,0,0,-1,1182,1485,0,0
-35,-461,0,0,0,0,0,0,0,0,0,-1,1189,1485,0,0
-28,-461,0,0,0,0,0,0,0,0,0,-1,1196,1485,0,0
-21,-461,0,0,0,0,0,0,0,0,0,-1,1203,1485,0,0
-14,-461,0,0,0,0,0,0,0,0,0,-1,1210,1485,0,0
-7,-461,0,0,0,0,0,0,0,0,0,-1,1217,1485,0,0
0,-461,0,0,0,0,0,0,0,0,0,-1,1224,1485,0,0
7,-461,0,0,0,0,0,0,0,0,0,-1,1231,1485,0,0
14,-461,0,0,0,0,0,0,0,0,0,-1,1238,1485,0,0
21,-461,0,0,0,0,0,0,0,0,0,-1,1245,1485,0,0
28,-461,0,0,0,0,0,0,0,0,0,-1,1252,1485,0,0
35,-461,0,0,0,0,0,0,0,0,0,-1,1259,1485,0,0
42,-461,0,0,0,0,0,0,0,0,0,-1,1266,1485,0,0
49,-461,0,0,0,0,0,0,0,0,0,-1,1273,1485,0,0
56,-461,0,0,0,0,0,0,0,0,0,-1,1280,1485,0,0
63,-461,0,0,0,0,0,0,0,0,0,-1,1287,1485,0,0
70,-461,0,0,0,0,0,0,0,0,0,-1,1294,1485,0,0
77,-461,0,0,0,0,0,0,0,0,0,-1,1301,1485,0,0
84,-461,0,0,0,0,0,0,0,0,0,-1,1308,1485,0,0
91,-461,0,0,0,0,0,0,0,0,0,-1,1315,1485,0,0
98,-461,0,0,0,0,0,0,0,0,0,-1,1322,1485,0,0
105,-461,0,0,0,0,0,0,0,0,0,-1,1329,1485,0,0
112,-461,0,0,0,0,0,0,0,0,0,-1,1336,1485,0,0
119,-461,0,0,0,0,0,0,0,0,0,-1,1343,1485,0,0
126,-461,0,0,0,0,0,0,0,0,0,-1,1350,1485,0,0
133,-461,0,0,0,0,0,0,0,0,0,-1,1357,1485,0,0
140,-461,0,0,0,0,0,0,0,0,0,-1,1364,1485,0,0
147,-461,0,0,0,0,0,0,0,0,0,-1,1371,1485,0,0
154,-461,0,0,0,0,0,0,0,0,0,-1,1378,1485,0,0
161,-461,0,0,0,0,0,0,0,0,0,-1,1385,1485,0,0
168,-461,0,0,0,0,0,0,0,0,0,-1,1392,1485,0,0
175,-461,0,0,0,0,0,0,0,0,0,-1,1399,1485,0,0
182,-461,0,0,0,0,0,0,0,0,0,-1,1406,1485,0,0
189,-461,0,0,0,0,0,0,0,0,0,-1,1413,1485,0,0
196,-461,0,0,0,0,0,0,0,0,0,-1,1420,1485,0,0
203,-461,0,0,0,0,0,0,0,0,0,-1,1427,1485,0,0
210,-461,0,0,0,0,0,0,0,0,0,-1,1434,1485,0,0
217,-461,0,0,0,0,0,0,0,0,0,-1,1441,1485,0,0
224,-461,0,0,0,0,0,0,0,0,0,-1,1448,1485,0,0
231,-461,0,0,0,0,0,0,0,0,0,-1,1455,1485,0,0
238,-461,0,0,0,0,0,0,0,0,0,-1,1462,1485,0,0
245,-461,0,0,0,0,0,0,0,0,0,-1,1469,1485,0,0
252,-461,0,0,0,0,0,0,0,0,0,-1,1476,1485,0,0
259,-461,0,0,0,0,0,0,0,0,0,-1,1483,1485,0,0
266,-461,0,0,0,0,0,0,0,0,0,-1,1490,1485,0,0
273,-461,0,0,0,0,0,0,0,0,0,-1,1497,1485,0,0
280,-461,0,0,0,0,0,0,0,0,0,-1,1504,1485,0,0
287,-461,0,0,0,0,0,0,0,0,0,-1,1511,1485,0,0
294,-461,0,0,0,0,0,0,0,0,0,-1,1518,1485,0,0
301,-461,0,0,0,0,0,0,0,0,0,-1,1525,1485,0,0
308,-461,0,0,0,0,0,0,0,0,0,-1,1532,1485,0,0
315,-461,0,0,0,0,0,0,0,0,0,-1,1539,1485,0,0
322,-461,0,0,0,0,0,0,0,0,0,-1,1546,1485,0,0
329,-461,0,0,0,0,0,0,0,0,0,-1,1553,1485,0,0
336,-461,0,0,0,0,0,0,0,0,0,-1,1560,1485,0,0
343,-461,0,0,0,0,0,0,0,0,0,-1,1567,1485,0,0
350,-461,0,0,0,0,0,0,0,0,0,-1,1574,1485,0,0
357,-461,0,0,0,0,0,0,0,0,0,-1,1581,1485,0,0
364,-461,0,0,0,0,0,0,0,0,0,-1,1588,1485,0,0
371,-461,0,0,0,0,0,0,0,0,0,-1,1595,1485,0,0
378,-461,0,0,0,0,0,0,0,0,0,-1,1602,1485,0,0
385,-461,0,0,0,0,0,0,0,0,0,-1,1609,1485,0,0
392,-461,0,0,0,0,0,0,0,0,0,-1,1616,1485,0,0
399,-461,0,0,0,0,0,0,0,0,0,-1,1623,1485,0,0
406,-461,0,0,0,0,0,0,0,0,0,-1,1630,1485,0,0
413,-461,0,0,0,0,0,0,0,0,0,-1,1637,1485,0,0
420,-461,0,0,0,0,0,0,0,0,0,-1,1644,1485,0,0
427,-461,0,0,0,0,0,0,0,0,0,-1,1651,1485,0,0
434,-461,0,0,0,0,0,0,0,0,0,-1,1658,1485,0,0
441,-461,0,0,0,0,0,0,0,0,0,-1,1665,1485,0,0
448,-461,0,0,0,0,0,0,0,0,0,-1,1672,1485,0,0
455,-461,0,0,0,0,0,0,0,0,0,-1,1679,1485,0,0
462,-461,0,0,0,0,0,0,0,0,0,-1,1686,1485,0,0
469,-461,0,0,0,0,0,0,0,0,0,-1,1693,1485,0,0
476,-461,14.1906,0.690552,0,0,0,0,0,0,0,-1,1700,1485,14.1906,-0.690525
483,-461,10.6361,3.09106,0,0,0,0,0,0,0,-1,1707,1485,10.6361,-3.091
490,-461,17.9972,0.665894,0,0,0,0,0,0,0,-1,1714,1485,17.9972,-0.665876
497,-461,16.6829,1.87732,0,0,0,0,0,0,0,-1,1721,1485,16.6828,-1.87736
504,-461,15.3884,3.09216,0,0,0,0,0,0,0,-1,1728,1485,15.3885,-3.09212
511,-461,15.4292,14.3512,0,0,0,0,0,0,0,-1,1735,1485,15.4292,-14.3512
518,-461,14.8081,10.0085,0,0,0,0,0,0,0,-1,1742,1485,14.8081,-10.0086
525,-461,14.0022,10.8033,0,0,0,0,0,0,0,-1,1749,1485,14.0022,-10.8033
532,-461,16.2283,13.3597,0,0,0,0,0,0,0,-1,1756,1485,16.2283,-13.3597
539,-461,15.3541,15.2061,0,0,0,0,0,0,0,-1,1763,1485,15.3542,-15.206
546,-461,16.2106,14.1372,0,0,0,0,0,0,0,-1,1770,1485,16.2106,-14.1372
553,-461,14.3147,12.821,0,0,0,0,0,0,0,-1,1777,1485,14.3147,-12.821
560,-461,14.786,12.6779,-0.0121083,-0.00862096,0.00982964,-0.00038153,-0.0203477,0.873179,0.0134398,0.0442376,1784,1485,14.786,-12.6778
567,-461,14.9973,12.5339,-0.00825036,-0.00563894,0.00695482,0.000131672,-0.014021,0.878189,0.00939151,0.019275,1791,1485,14.9973,-12.5339
574,-461,14.9984,12.2701,-0.00554516,-0.00364322,0.00485729,0.00035531,-0.00954369,0.882066,0.00648414,0.0169905,1798,1485,14.9984,-12.2701
581,-461,15.0094,11.9651,-0.00360274,-0.00227997,0.00330197,0.000426202,-0.00630892,0.88424,0.00435497,0.0147811,1805,1485,15.0095,-11.9651
588,-461,14.9811,11.6769,-0.00167837,-0.000957191,0.00191874,0.000634549,-0.00327011,0.87828,0.00241949,0.0114433,1812,1485,14.9811,-11.6769
595,-461,14.9615,11.3759,-0.000592602,-0.000615378,0.0011293,0.00052537,-0.00173335,0.780356,0.00136482,0.00893301,1819,1485,14.9616,-11.3759
602,-461,14.9617,11.0511,-2.33779e-05,-0.000609353,0.000780457,0.000517274,-0.00115,0.605835,0.000985439,0.00908879,1826,1485,14.9617,-11.0511
609,-461,14.9642,10.7391,0.000558922,-0.000719341,0.000560707,0.000770015,-0.000930434,0.360064,0.00098321,0.0110511,1833,1485,14.9642,-10.7391
616,-461,14.9769,10.4371,0.00101993,-0.0011602,0.00053005,0.00114197,-0.00128224,0.226295,0.0014004,0.0135463,1840,1485,14.9769,-10.4371
623,-461,14.9763,10.1395,0.00154493,-0.00181785,0.000569347,0.00163871,-0.00191163,0.163249,0.00205181,0.012643,1847,1485,14.9763,-10.1396
630,-461,14.9762,9.83826,0.00210477,-0.00265131,0.000732999,0.00221518,-0.00276171,0.149498,0.00287918,0.0114316,1854,1485,14.9762,-9.83831
637,-461,14.967,9.52344,0.00269356,-0.00362755,0.000940963,0.00283065,-0.00376465,0.144682,0.00382051,0.0124702,1861,1485,14.9671,-9.52342
644,-461,14.9996,9.27197,0.00334274,-0.00498316,0.00127378,0.00353326,-0.00517368,0.148466,0.0050566,0.0274298,1868,1485,14.9996,-9.27199
651,-461,15.0811,8.94165,0,0,0,0,0,0,0,-1,1875,1485,15.0811,-8.94171
658,-461,14.9264,8.53442,0,0,0,0,0,0,0,-1,1882,1485,14.9264,-8.53441
665,-461,15.2406,8.00769,0,0,0,0,0,0,0,-1,1889,1485,15.2406,-8.00765
672,-461,14.4877,6.89429,0,0,0,0,0,0,0,-1,1896,1485,14.4876,-6.89431
679,-461,10.0535,2.16321,0,0,0,0,0,0,0,-1,1903,1485,10.0535,-2.16317
686,-461,10.8195,1.84192,0,0,0,0,0,0,0,-1,1910,1485,10.8194,-1.84195
693,-461,0,0,0,0,0,0,0,0,0,-1,1917,1485,0,0
700,-461,0,0,0,0,0,0,0,0,0,-1,1924,1485,0,0
707,-461,0,0,0,0,0,0,0,0,0,-1,1931,1485,0,0
714,-461,0,0,0,0,0,0,0,0,0,-1,1938,1485,0,0
721,-461,0,0,0,0,0,0,0,0,0,-1,1945,1485,0,0
728,-461,0,0,0,0,0,0,0,0,0,-1,1952,1485,0,0
735,-461,0,0,0,0,0,0,0,0,0,-1,1959,1485,0,0
742,-461,0,0,0,0,0,0,0,0,0,-1,1966,1485,0,0
749,-461,0,0,0,0,0,0,0,0,0,-1,1973,1485,0,0
756,-461,0,0,0,0,0,0,0,0,0,-1,1980,1485,0,0
763,-461,0,0,0,0,0,0,0,0,0,-1,1987,1485,0,0
770,-461,0,0,0,0,0,0,0,0,0,-1,1994,1485,0,0
777,-461,0,0,0,0,0,0,0,0,0,-1,2001,1485,0,0
784,-461,0,0,0,0,0,0,0,0,0,-1,2008,1485,0,0
791,-461,0,0,0,0,0,0,0,0,0,-1,2015,1485,0,0
798,-461,0,0,0,0,0,0,0,0,0,-1,2022,1485,0,0
805,-461,0,0,0,0,0,0,0,0,0,-1,2029,1485,0,0
812,-461,0,0,0,0,0,0,0,0,0,-1,2036,1485,0,0
-700,-468,0,0,0,0,0,0,0,0,0,-1,524,1492,0,0
-693,-468,0,0,0,0,0,0,0,0,0,-1,531,1492,0,0
-686,-468,0,0,0,0,0,0,0,0,0,-1,538,1492,0,0
-679,-468,0,0,0,0,0,0,0,0,0,-1,545,1492,0,0
-672,-468,0,0,0,0,0,0,0,0,0,-1,552,1492,0,0
-665,-468,0,0,0,0,0,0,0,0,0,-1,559,1492,0,0
-658,-468,0,0,0,0,0,0,0,0,0,-1,566,1492,0,0
-651,-468,0,0,0,0,0,0,0,0,0,-1,573,1492,0,0
-644,-468,0,0,0,0,0,0,0,0,0,-1,580,1492,0,0
-637,-468,0,0,0,0,0,0,0,0,0,-1,587,1492,0,0
-630,-468,0,0,0,0,0,0,0,0,0,-1,594,1492,0,0
-623,-468,0,0,0,0,0,0,0,0,0,-1,601,1492,0,0
-616,-468,0,0,0,0,0,0,0,0,0,-1,608,1492,0,0
-609,-468,0,0,0,0,0,0,0,0,0,-1,615,1492,0,0
-602,-468,0,0,0,0,0,0,0,0,0,-1,622,1492,0,0
-595,-468,0,0,0,0,0,0,0,0,0,-1,629,1492,0,0
-588,-468,0,0,0,0,0,0,0,0,0,-1,636,1492,0,0
-581,-468,0,0,0,0,0,0,0,0,0,-1,643,1492,0,0
-574,-468,0,0,0,0,0,0,0,0,0,-1,650,1492,0,0
-567,-468,-11.2603,1.8042,0,0,0,0,0,0,0,-1,657,1492,-11.2603,-1.80424
-560,-468,-8.77441,2.23694,0,0,0,0,0,0,0,-1,664,1492,-8.77443,-2.23692
-553,-468,-5.94061,9.26318,0,0,0,0,0,0,0,-1,671,1492,-5.94062,-9.26322
-546,-468,-10.47,5.43237,0,0,0,0,0,0,0,-1,678,1492,-10.47,-5.4324
-539,-468,-10.2468,5.45203,0,0,0,0,0,0,0,-1,685,1492,-10.2468,-5.45197
-532,-468,-4.46454,3.45532,0,0,0,0,0,0,0,-1,692,1492,-4.46452,-3.4553
-525,-468,-3.74799,4.3429,0.0226688,0.0468655,0.0486725,0.0849208,-0.0153864,0.907213,0.0623784,0.0417703,699,1492,-3.748,-4.34291
-518,-468,-3.60883,6.4729,0.0161722,0.0323703,0.0345704,0.0597777,-0.0112352,0.900462,0.0440768,0.0443516,706,1492,-3.60883,-6.47287
-511,-468,-3.40955,7.2146,0.0112799,0.0218325,0.0240653,0.0411931,-0.0080808,0.893315,0.0305145,0.0377773,713,1492,-3.40957,-7.21459
-504,-468,-3.51813,7.71289,0.00772175,0.0143736,0.0164206,0.0278017,-0.00570633,0.885319,0.0207004,0.0204739,720,1492,-3.51815,-7.71284
-497,-468,-3.56372,8.06799,0.00511969,0.00914464,0.0108691,0.018186,-0.00392167,0.876939,0.0136207,0.0109454,727,1492,-3.56371,-8.06795
-490,-468,-3.54712,8.43274,0.00337306,0.0054796,0.00680664,0.011314,-0.00246132,0.86216,0.00848296,0.0073603,734,1492,-3.54712,-8.43273
-483,-468,-3.56744,8.75427,0.00228476,0.00290899,0.00382204,0.00643164,-0.00123789,0.826138,0.00475441,0.00783076,741,1492,-3.56745,-8.75429
-476,-468,-3.58386,9.07971,0.00151161,0.000737988,0.00144295,0.00261869,-0.000369098,0.654443,0.00188094,0.00892557,748,1492,-3.58388,-9.07977
-469,-468,-3.59686,9.43518,0.0011607,-0.00119202,-0.000618215,0.00131326,-0.00134457,-0.241932,0.00153453,0.0122325,755,1492,-3.59688,-9.43518
-462,-468,-3.58466,9.76941,0.00152903,-0.0018975,-0.00170402,0.00223215,-0.00260063,-0.391346,0.00279291,0.0211211,762,1492,-3.58464,-9.76946
-455,-468,-3.599,10.059,0.00219885,-0.00246398,-0.0023829,0.00320115,-0.00346629,-0.398159,0.00385046,0.0219779,769,1492,-3.59899,-10.0589
-448,-468,-3.59131,10.41,0.00314774,-0.00305446,-0.0029176,0.00430449,-0.0042112,-0.37746,0.00491663,0.0134554,776,1492,-3.59134,-10.4101
-441,-468,-3.59113,10.7731,0.00441593,-0.00375597,-0.00344212,0.00567256,-0.00501261,-0.350041,0.006173,0.0126973,783,1492,-3.59112,-10.773
-434,-468,-3.55884,11.1389,0.00593852,-0.00469056,-0.00406331,0.00731389,-0.00606593,-0.326379,0.00773603,0.0138515,790,1492,-3.55882,-11.1389
-427,-468,-3.50043,11.4603,0.00760857,-0.00561555,-0.00483865,0.00918991,-0.00719689,-0.315873,0.00948422,0.0218566,797,1492,-3.50043,-11.4603
-420,-468,-3.43103,11.7899,0.00953557,-0.00670138,-0.00553978,0.0112456,-0.00841137,-0.299397,0.0113882,0.0362147,804,1492,-3.43102,-11.7899
-413,-468,-3.20313,12.1509,0,0,0,0,0,0,0,-1,811,1492,-3.20314,-12.1509
-406,-468,-2.2356,9.396,0,0,0,0,0,0,0,-1,818,1492,-2.2356,-9.396
-399,-468,-0.940369,8.1936,0,0,0,0,0,0,0,-1,825,1492,-0.940365,-8.19357
-392,-468,-0.35144,8.14673,0,0,0,0,0,0,0,-1,832,1492,-0.351449,-8.14674
-385,-468,0.465759,5.35864,0,0,0,0,0,0,0,-1,839,1492,0.465732,-5.35864
-378,-468,1.99835,3.25391,0,0,0,0,0,0,0,-1,846,1492,1.99837,-3.2539
-371,-468,-0.31842,3.1532,0,0,0,0,0,0,0,-1,853,1492,-0.318441,-3.15324
-364,-468,-0.966736,2.14563,0,0,0,0,0,0,0,-1,860,1492,-0.966735,-2.14557
-357,-468,-3.06787,3.22742,0,0,0,0,0,0,0,-1,867,1492,-3.06784,-3.2274
-350,-468,-3.18658,4.12659,0,0,0,0,0,0,0,-1,874,1492,-3.18659,-4.12658
-343,-468,0,0,0,0,0,0,0,0,0,-1,881,1492,0,0
-336,-468,0,0,0,0,0,0,0,0,0,-1,888,1492,0,0
-329,-468,0,0,0,0,0,0,0,0,0,-1,895,1492,0,0
-322,-468,0,0,0,0,0,0,0,0,0,-1,902,1492,0,0
-315,-468,0,0,0,0,0,0,0,0,0,-1,909,1492,0,0
-308,-468,0,0,0,0,0,0,0,0,0,-1,916,1492,0,0
-301,-468,0,0,0,0,0,0,0,0,0,-1,923,1492,0,0
-294,-468,0,0,0,0,0,0,0,0,0,-1,930,1492,0,0
-287,-468,0,0,0,0,0,0,0,0,0,-1,937,1492,0,0
-280,-468,0,0,0,0,0,0,0,0,0,-1,944,1492,0,0
-273,-468,0,0,0,0,0,0,0,0,0,-1,951,1492,0,0
-266,-468,0,0,0,0,0,0,0,0,0,-1,958,1492,0,0
-259,-468,0,0,0,0,0,0,0,0,0,-1,965,1492,0,0
-252,-468,0,0,0,0,0,0,0,0,0,-1,972,1492,0,0
-245,-468,0,0,0,0,0,0,0,0,0,-1,979,1492,0,0
-238,-468,0,0,0,0,0,0,0,0,0,-1,986,1492,0,0
-231,-468,0,0,0,0,0,0,0,0,0,-1,993,1492,0,0
-224,-468,0,0,0,0,0,0,0,0,0,-1,1000,1492,0,0
-217,-468,0,0,0,0,0,0,0,0,0,-1,1007,1492,0,0
-210,-468,0,0,0,0,0,0,0,0,0,-1,1014,1492,0,0
-203,-468,0,0,0,0,0,0,0,0,0,-1,1021,1492,0,0
-196,-468,0,0,0,0,0,0,0,0,0,-1,1028,1492,0,0
-189,-468,0,0,0,0,0,0,0,0,0,-1,1035,1492,0,0
-182,-468,0,0,0,0,0,0,0,0,0,-1,1042,1492,0,0
-175,-468,0,0,0,0,0,0,0,0,0,-1,1049,1492,0,0
-168,-468,0,0,0,0,0,0,0,0,0,-1,1056,1492,0,0
-161,-468,0,0,0,0,0,0,0,0,0,-1,1063,1492,0,0
-154,-468,0,0,0,0,0,0,0,0,0,-1,1070,1492,0,0
-147,-468,0,0,0,0,0,0,0,0,0,-1,1077,1492,0,0
-140,-468,0,0,0,0,0,0,0,0,0,-1,1084,1492,0,0
-133,-468,0,0,0,0,0,0,0,0,0,-1,1091,1492,0,0
-126,-468,0,0,0,0,0,0,0,0,0,-1,1098,1492,0,0
-119,-468,0,0,0,0,0,0,0,0,0,-1,1105,1492,0,0
-112,-468,0,0,0,0,0,0,0,0,0,-1,1112,1492,0,0
-105,-468,0,0,0,0,0,0,0,0,0,-1,1119,1492,0,0
-98,-468,0,0,0,0,0,0,0,0,0,-1,1126,1492,0,0
-91,-468,0,0,0,0,0,0,0,0,0,-1,1133,1492,0,0
-84,-468,0,0,0,0,0,0,0,0,0,-1,1140,1492,0,0
-77,-468,0,0,0,0,0,0,0,0,0,-1,1147,1492,0,0
-70,-468,0,0,0,0,0,0,0,0,0,-1,1154,1492,0,0
-63,-468,0,0,0,0,0,0,0,0,0,-1,1161,1492,0,0
-56,-468,0,0,0,0,0,0,0,0,0,-1,1168,1492,0,0
-49,-468,0,0,0,0,0,0,0,0,0,-1,1175,1492,0,0
-42,-468,0,0,0,0,0,0,0,0,0,-1,1182,1492,0,0
-35,-468,0,0,0,0,0,0,0,0,0,-1,1189,1492,0,0
-28,-468,0,0,0,0,0,0,0,0,0,-1,1196,1492,0,0
-21,-468,0,0,0,0,0,0,0,0,0,-1,1203,1492,0,0
-14,-468,0,0,0,0,0,0,0,0,0,-1,1210,1492,0,0
-7,-468,0,0,0,0,0,0,0,0,0,-1,1217,1492,0,0
0,-468,0,0,0,0,0,0,0,0,0,-1,1224,1492,0,0
7,-468,0,0,0,0,0,0,0,0,0,-1,1231,1492,0,0
14,-468,0,0,0,0,0,0,0,0,0,-1,1238,1492,0,0
21,-468,0,0,0,0,0,0,0,0,0,-1,1245,1492,0,0
28,-468,0,0,0,0,0,0,0,0,0,-1,1252,1492,0,0
35,-468,0,0,0,0,0,0,0,0,0,-1,1259,1492,0,0
42,-468,0,0,0,0,0,0,0,0,0,-1,1266,1492,0,0
49,-468,0,0,0,0,0,0,0,0,0,-1,1273,1492,0,0
56,-468,0,0,0,0,0,0,0,0,0,-1,1280,1492,0,0
63,-468,0,0,0,0,0,0,0,0,0,-1,1287,1492,0,0
70,-468,0,0,0,0,0,0,0,0,0,-1,1294,1492,0,0
77,-468,0,0,0,0,0,0,0,0,0,-1,1301,1492,0,0
84,-468,0,0,0,0,0,0,0,0,0,-1,1308,1492,0,0
91,-468,0,0,0,0,0,0,0,0,0,-1,1315,1492,0,0
98,-468,0,0,0,0,0,0,0,0,0,-1,1322,1492,0,0
105,-468,0,0,0,0,0,0,0,0,0,-1,1329,1492,0,0
112,-468,0,0,0,0,0,0,0,0,0,-1,1336,1492,0,0
119,-468,0,0,0,0,0,0,0,0,0,-1,1343,1492,0,0
126,-468,0,0,0,0,0,0,0,0,0,-1,1350,1492,0,0
133,-468,0,0,0,0,0,0,0,0,0,-1,1357,1492,0,0
140,-468,0,0,0,0,0,0,0,0,0,-1,1364,1492,0,0
147,-468,0,0,0,0,0,0,0,0,0,-1,1371,1492,0,0
154,-468,0,0,0,0,0,0,0,0,0,-1,1378,1492,0,0
161,-468,0,0,0,0,0,0,0,0,0,-1,1385,1492,0,0
168,-468,0,0,0,0,0,0,0,0,0,-1,1392,1492,0,0
175,-468,0,0,0,0,0,0,0,0,0,-1,1399,1492,0,0
182,-468,0,0,0,0,0,0,0,0,0,-1,1406,1492,0,0
189,-468,0,0,0,0,0,0,0,0,0,-1,1413,1492,0,0
196,-468,0,0,0,0,0,0,0,0,0,-1,1420,1492,0,0
203,-468,0,0,0,0,0,0,0,0,0,-1,1427,1492,0,0
210,-468,0,0,0,0,0,0,0,0,0,-1,1434,1492,0,0
217,-468,0,0,0,0,0,0,0,0,0,-1,1441,1492,0,0
224,-468,0,0,0,0,0,0,0,0,0,-1,1448,1492,0,0
231,-468,0,0,0,0,0,0,0,0,0,-1,1455,1492,0,0
238,-468,0,0,0,0,0,0,0,0,0,-1,1462,1492,0,0
245,-468,0,0,0,0,0,0,0,0,0,-1,1469,1492,0,0
252,-468,0,0,0,0,0,0,0,0,0,-1,1476,1492,0,0
259,-468,0,0,0,0,0,0,0,0,0,-1,1483,1492,0,0
266,-468,0,0,0,0,0,0,0,0,0,-1,1490,1492,0,0
273,-468,0,0,0,0,0,0,0,0,0,-1,1497,1492,0,0
280,-468,0,0,0,0,0,0,0,0,0,-1,1504,1492,0,0
287,-468,0,0,0,0,0,0,0,0,0,-1,1511,1492,0,0
294,-468,0,0,0,0,0,0,0,0,0,-1,1518,1492,0,0
301,-468,0,0,0,0,0,0,0,0,0,-1,1525,1492,0,0
308,-468,0,0,0,0,0,0,0,0,0,-1,1532,1492,0,0
315,-468,0,0,0,0,0,0,0,0,0,-1,1539,1492,0,0
322,-468,0,0,0,0,0,0,0,0,0,-1,1546,1492,0,0
329,-468,0,0,0,0,0,0,0,0,0,-1,1553,1492,0,0
336,-468,0,0,0,0,0,0,0,0,0,-1,1560,1492,0,0
343,-468,0,0,0,0,0,0,0,0,0,-1,1567,1492,0,0
350,-468,0,0,0,0,0,0,0,0,0,-1,1574,1492,0,0
357,-468,0,0,0,0,0,0,0,0,0,-1,1581,1492,0,0
364,-468,0,0,0,0,0,0,0,0,0,-1,1588,1492,0,0
371,-468,0,0,0,0,0,0,0,0,0,-1,1595,1492,0,0
378,-468,0,0,0,0,0,0,0,0,0,-1,1602,1492,0,0
385,-468,0,0,0,0,0,0,0,0,0,-1,1609,1492,0,0
392,-468,0,0,0,0,0,0,0,0,0,-1,1616,1492,0,0
399,-468,0,0,0,0,0,0,0,0,0,-1,1623,1492,0,0
406,-468,0,0,0,0,0,0,0,0,0,-1,1630,1492,0,0
413,-468,0,0,0,0,0,0,0,0,0,-1,1637,1492,0,0
420,-468,0,0,0,0,0,0,0,0,0,-1,1644,1492,0,0
427,-468,0,0,0,0,0,0,0,0,0,-1,1651,1492,0,0
434,-468,0,0,0,0,0,0,0,0,0,-1,1658,1492,0,0
441,-468,0,0,0,0,0,0,0,0,0,-1,1665,1492,0,0
448,-468,0,0,0,0,0,0,0,0,0,-1,1672,1492,0,0
455,-468,0,0,0,0,0,0,0,0,0,-1,1679,1492,0,0
462,-468,0,0,0,0,0,0,0,0,0,-1,1686,1492,0,0
469,-468,15.6879,1.2677,0,0,0,0,0,0,0,-1,1693,1492,15.6879,-1.26772
476,-468,14.9318,1.61865,0,0,0,0,0,0,0,-1,1700,1492,14.9318,-1.61869
483,-468,11.265,4.64795,0,0,0,0,0,0,0,-1,1707,1492,11.265,-4.64798
490,-468,12.1316,3.51624,0,0,0,0,0,0,0,-1,1714,1492,12.1316,-3.51628
497,-468,16.5355,3.14587,0,0,0,0,0,0,0,-1,1721,1492,16.5356,-3.14583
504,-468,15.0642,4.10437,0,0,0,0,0,0,0,-1,1728,1492,15.0643,-4.10431
511,-468,15.6877,9.4801,0,0,0,0,0,0,0,-1,1735,1492,15.6878,-9.48007
518,-468,13.759,11.0887,0,0,0,0,0,0,0,-1,1742,1492,13.759,-11.0887
525,-468,15.4667,12.9252,0,0,0,0,0,0,0,-1,1749,1492,15.4667,-12.9252
532,-468,15.7703,13.1864,0,0,0,0,0,0,0,-1,1756,1492,15.7702,-13.1864
539,-468,15.226,13.5837,0,0,0,0,0,0,0,-1,1763,1492,15.226,-13.5837
546,-468,14.8501,13.233,0,0,0,0,0,0,0,-1,1770,1492,14.8501,-13.233
553,-468,14.8055,13.0221,-0.0151293,-0.0105162,0.0115389,-0.00105553,-0.02459,0.884045,0.016053,0.0398959,1777,1492,14.8055,-13.022
560,-468,14.683,12.8644,-0.0103903,-0.00723325,0.00832309,-0.000340294,-0.0172832,0.879112,0.0114104,0.0252502,1784,1492,14.6829,-12.8644
567,-468,14.6766,12.6127,-0.00699972,-0.0047803,0.00586995,8.39182e-05,-0.0118639,0.87882,0.00793741,0.0151437,1791,1492,14.6767,-12.6127
574,-468,14.6952,12.2855,-0.00459184,-0.00312259,0.00407554,0.00028401,-0.00799844,0.874567,0.00542944,0.0141258,1798,1492,14.6952,-12.2855
581,-468,14.7052,11.9879,-0.00284489,-0.00196642,0.0027368,0.000366168,-0.00517748,0.864966,0.00357995,0.0153394,1805,1492,14.7052,-11.9879
588,-468,14.691,11.6915,-0.0010666,-0.000879479,0.00151996,0.000549796,-0.00249588,0.816137,0.00187426,0.0131644,1812,1492,14.691,-11.6916
595,-468,14.6733,11.376,-5.72393e-05,-0.000627602,0.000850145,0.000554282,-0.00123912,0.623571,0.00106029,0.0104727,1819,1492,14.6733,-11.376
602,-468,14.6699,11.0558,0.000461502,-0.000708808,0.000599286,0.000713934,-0.000961239,0.398664,0.000970668,0.00896478,1826,1492,14.67,-11.0558
609,-468,14.6581,10.735,0.00102723,-0.000906736,0.000447242,0.00112565,-0.00100516,0.216605,0.00123088,0.00979565,1833,1492,14.6581,-10.735
616,-468,14.6534,10.4296,0.00151971,-0.00145951,0.000479136,0.00159487,-0.00153467,0.1556,0.00180695,0.0101657,1840,1492,14.6534,-10.4295
623,-468,14.6636,10.1421,0.00208569,-0.00221822,0.000602817,0.00216852,-0.00230105,0.136563,0.00258089,0.0104694,1847,1492,14.6635,-10.1421
630,-468,14.6792,9.83191,0.00268247,-0.00324347,0.000876485,0.00280939,-0.00337039,0.143806,0.00357279,0.0110127,1854,1492,14.6792,-9.8319
637,-468,14.6713,9.49719,0.00337462,-0.00440541,0.0011689,0.00354644,-0.00457724,0.145952,0.00470278,0.0148264,1861,1492,14.6713,-9.49722
644,-468,14.739,9.29468,0.0041798,-0.00610261,0.00162856,0.00443157,-0.00635439,0.153383,0.00626017,0.0407472,1868,1492,14.739,-9.29467
651,-468,14.9335,8.99792,0,0,0,0,0,0,0,-1,1875,1492,14.9335,-8.99786
658,-468,14.6848,8.45764,0,0,0,0,0,0,0,-1,1882,1492,14.6849,-8.45766
665,-468,15.4673,8.59546,0,0,0,0,0,0,0,-1,1889,1492,15.4672,-8.59548
672,-468,9.96814,3.61133,0,0,0,0,0,0,0,-1,1896,1492,9.96817,-3.61139
679,-468,11.2191,1.91968,0,0,0,0,0,0,0,-1,1903,1492,11.2191,-1.91965
686,-468,11.9252,1.42285,0,0,0,0,0,0,0,-1,1910,1492,11.9252,-1.42291
693,-468,0,0,0,0,0,0,0,0,0,-1,1917,1492,0,0
700,-468,0,0,0,0,0,0,0,0,0,-1,1924,1492,0,0
707,-468,0,0,0,0,0,0,0,0,0,-1,1931,1492,0,0
714,-468,0,0,0,0,0,0,0,0,0,-1,1938,1492,0,0
721,-468,0,0,0,0,0,0,0,0,0,-1,1945,1492,0,0
728,-468,0,0,0,0,0,0,0,0,0,-1,1952,1492,0,0
735,-468,0,0,0,0,0,0,0,0,0,-1,1959,1492,0,0
742,-468,0,0,0,0,0,0,0,0,0,-1,1966,1492,0,0
749,-468,0,0,0,0,0,0,0,0,0,-1,1973,1492,0,0
756,-468,0,0,0,0,0,0,0,0,0,-1,1980,1492,0,0
763,-468,0,0,0,0,0,0,0,0,0,-1,1987,1492,0,0
770,-468,0,0,0,0,0,0,0,0,0,-1,1994,1492,0,0
777,-468,0,0,0,0,0,0,0,0,0,-1,2001,1492,0,0
784,-468,0,0,0,0,0,0,0,0,0,-1,2008,1492,0,0
791,-468,0,0,0,0,0,0,0,0,0,-1,2015,1492,0,0
798,-468,0,0,0,0,0,0,0,0,0,-1,2022,1492,0,0
805,-468,0,0,0,0,0,0,0,0,0,-1,2029,1492,0,0
812,-468,0,0,0,0,0,0,0,0,0,-1,2036,1492,0,0
-700,-475,0,0,0,0,0,0,0,0,0,-1,524,1499,0,0
-693,-475,0,0,0,0,0,0,0,0,0,-1,531,1499,0,0
-686,-475,0,0,0,0,0,0,0,0,0,-1,538,1499,0,0
-679,-475,0,0,0,0,0,0,0,0,0,-1,545,1499,0,0
-672,-475,0,0,0,0,0,0,0,0,0,-1,552,1499,0,0
-665,-475,0,0,0,0,0,0,0,0,0,-1,559,1499,0,0
-658,-475,0,0,0,0,0,0,0,0,0,-1,566,1499,0,0
-651,-475,0,0,0,0,0,0,0,0,0,-1,573,1499,0,0
-644,-475,0,0,0,0,0,0,0,0,0,-1,580,1499,0,0
-637,-475,0,0,0,0,0,0,0,0,0,-1,587,1499,0,0
-630,-475,0,0,0,0,0,0,0,0,0,-1,594,1499,0,0
-623,-475,0,0,0,0,0,0,0,0,0,-1,601,1499,0,0
-616,-475,0,0,0,0,0,0,0,0,0,-1,608,1499,0,0
-609,-475,0,0,0,0,0,0,0,0,0,-1,615,1499,0,0
-602,-475,0,0,0,0,0,0,0,0,0,-1,622,1499,0,0
-595,-475,0,0,0,0,0,0,0,0,0,-1,629,1499,0,0
-588,-475,0,0,0,0,0,0,0,0,0,-1,636,1499,0,0
-581,-475,0,0,0,0,0,0,0,0,0,-1,643,1499,0,0
-574,-475,0,0,0,0,0,0,0,0,0,-1,650,1499,0,0
-567,-475,0,0,0,0,0,0,0,0,0,-1,657,1499,0,0
-560,-475,-9.42731,9.29517,0,0,0,0,0,0,0,-1,664,1499,-9.42731,-9.29519
-553,-475,-8.15131,8.78369,0,0,0,0,0,0,0,-1,671,1499,-8.15131,-8.78367
-546,-475,-8.41254,8.20654,0,0,0,0,0,0,0,-1,678,1499,-8.41251,-8.20655
-539,-475,-5.11926,1.58594,0,0,0,0,0,0,0,-1,685,1499,-5.11925,-1.58598
-532,-475,-4.20135,2.49048,0,0,0,0,0,0,0,-1,692,1499,-4.20133,-2.49047
-525,-475,-3.55316,3.35205,0,0,0,0,0,0,0,-1,699,1499,-3.55316,-3.35202
-518,-475,-3.3858,6.42114,0,0,0,0,0,0,0,-1,706,1499,-3.38582,-6.42111
-511,-475,-3.31744,7.25952,0.0137032,0.023688,0.0275118,0.0466567,-0.00926552,0.875154,0.0346089,0.0462161,713,1499,-3.31746,-7.25948
-504,-475,-3.25757,7.85632,0.00904229,0.0150483,0.0183583,0.0306476,-0.00655702,0.866469,0.022932,0.0308607,720,1499,-3.25754,-7.85635
-497,-475,-3.21924,8.12769,0.00579464,0.0092485,0.0119815,0.0196268,-0.0045837,0.856972,0.0148502,0.018384,727,1499,-3.21921,-8.12764
-490,-475,-3.21472,8.43091,0.00361788,0.00532675,0.0074733,0.0119943,-0.00304967,0.842317,0.00918313,0.00856238,734,1499,-3.21471,-8.43087
-483,-475,-3.21899,8.77905,0.00231828,0.00273001,0.00433853,0.00686756,-0.00181927,0.809105,0.00529012,0.00854744,741,1499,-3.21899,-8.77903
-476,-475,-3.23981,9.08691,0.00149691,0.000740793,0.00202865,0.00318242,-0.000944722,0.693276,0.00249683,0.0108297,748,1499,-3.23983,-9.08688
-469,-475,-3.24823,9.43542,0.0011177,-0.0010437,4.26758e-05,0.00111854,-0.00104454,0.0197343,0.0012491,0.0124925,755,1499,-3.24826,-9.43538
-462,-475,-3.22559,9.77917,0.00149993,-0.00150016,-0.000864165,0.00173104,-0.00173127,-0.261328,0.00199897,0.0165401,762,1499,-3.22557,-9.77913
-455,-475,-3.24561,10.0844,0.00220138,-0.00175906,-0.00130647,0.00259352,-0.00215121,-0.291603,0.00274334,0.0153251,769,1499,-3.2456,-10.0844
-448,-475,-3.26935,10.4231,0.00316538,-0.00201258,-0.00155874,0.0035984,-0.0024456,-0.270969,0.0035106,0.0132987,776,1499,-3.26937,-10.4231
-441,-475,-3.26447,10.787,0.00441317,-0.00225044,-0.00171799,0.00483002,-0.00266729,-0.238038,0.0043882,0.016416,783,1499,-3.26449,-10.787
-434,-475,-3.24054,11.0969,0.00592183,-0.00261129,-0.00188444,0.00631945,-0.00300892,-0.207955,0.00549763,0.0104533,790,1499,-3.24051,-11.097
-427,-475,-3.20129,11.4797,0.00757261,-0.00281885,-0.00208083,0.0079738,-0.00322003,-0.190463,0.00665419,0.0172672,797,1499,-3.20127,-11.4797
-420,-475,-3.12738,11.8252,0.00945675,-0.00317786,-0.00210752,0.00979902,-0.00352013,-0.161,0.00796955,0.0292478,804,1499,-3.12741,-11.8252
-413,-475,-2.91827,12.2286,0,0,0,0,0,0,0,-1,811,1499,-2.91829,-12.2286
-406,-475,-2.48291,11.9049,0,0,0,0,0,0,0,-1,818,1499,-2.48289,-11.9049
-399,-475,-1.39667,6.1615,0,0,0,0,0,0,0,-1,825,1499,-1.39664,-6.16155
-392,-475,0.217163,8.61389,0,0,0,0,0,0,0,-1,832,1499,0.217167,-8.6139
-385,-475,1.18372,2.73999,0,0,0,0,0,0,0,-1,839,1499,1.18372,-2.73995
-378,-475,1.31409,2.90149,0,0,0,0,0,0,0,-1,846,1499,1.31411,-2.90151
-371,-475,2.3476,3.31116,0,0,0,0,0,0,0,-1,853,1499,2.34761,-3.31121
-364,-475,1.04462,9.05823,0,0,0,0,0,0,0,-1,860,1499,1.04461,-9.05825
-357,-475,-0.262756,7.97205,0,0,0,0,0,0,0,-1,867,1499,-0.262784,-7.97205
-350,-475,-2.77173,4.35486,0,0,0,0,0,0,0,-1,874,1499,-2.77175,-4.35491
-343,-475,-6.81641,-1.95203,0,0,0,0,0,0,0,-1,881,1499,-6.81643,1.95198
-336,-475,0,0,0,0,0,0,0,0,0,-1,888,1499,0,0
-329,-475,0,0,0,0,0,0,0,0,0,-1,895,1499,0,0
-322,-475,0,0,0,0,0,0,0,0,0,-1,902,1499,0,0
-315,-475,0,0,0,0,0,0,0,0,0,-1,909,1499,0,0
-308,-475,0,0,0,0,0,0,0,0,0,-1,916,1499,0,0
-301,-475,0,0,0,0,0,0,0,0,0,-1,923,1499,0,0
-294,-475,0,0,0,0,0,0,0,0,0,-1,930,1499,0,0
-287,-475,0,0,0,0,0,0,0,0,0,-1,937,1499,0,0
-280,-475,0,0,0,0,0,0,0,0,0,-1,944,1499,0,0
-273,-475,0,0,0,0,0,0,0,0,0,-1,951,1499,0,0
-266,-475,0,0,0,0,0,0,0,0,0,-1,958,1499,0,0
-259,-475,0,0,0,0,0,0,0,0,0,-1,965,1499,0,0
-252,-475,0,0,0,0,0,0,0,0,0,-1,972,1499,0,0
-245,-475,0,0,0,0,0,0,0,0,0,-1,979,1499,0,0
-238,-475,0,0,0,0,0,0,0,0,0,-1,986,1499,0,0
-231,-475,0,0,0,0,0,0,0,0,0,-1,993,1499,0,0
-224,-475,0,0,0,0,0,0,0,0,0,-1,1000,1499,0,0
-217,-475,0,0,0,0,0,0,0,0,0,-1,1007,1499,0,0
-210,-475,0,0,0,0,0,0,0,0,0,-1,1014,1499,0,0
-203,-475,0,0,0,0,0,0,0,0,0,-1,1021,1499,0,0
-196,-475,0,0,0,0,0,0,0,0,0,-1,1028,1499,0,0
-189,-475,0,0,0,0,0,0,0,0,0,-1,1035,1499,0,0
-182,-475,0,0,0,0,0,0,0,0,0,-1,1042,1499,0,0
-175,-475,0,0,0,0,0,0,0,0,0,-1,1049,1499,0,0
-168,-475,0,0,0,0,0,0,0,0,0,-1,1056,1499,0,0
-161,-475,0,0,0,0,0,0,0,0,0,-1,1063,1499,0,0
-154,-475,0,0,0,0,0,0,0,0,0,-1,1070,1499,0,0
-147,-475,0,0,0,0,0,0,0,0,0,-1,1077,1499,0,0
-140,-475,0,0,0,0,0,0,0,0,0,-1,1084,1499,0,0
-133,-475,0,0,0,0,0,0,0,0,0,-1,1091,1499,0,0
-126,-475,0,0,0,0,0,0,0,0,0,-1,1098,1499,0,0
-119,-475,0,0,0,0,0,0,0,0,0,-1,1105,1499,0,0
-112,-475,0,0,0,0,0,0,0,0,0,-1,1112,1499,0,0
-105,-475,0,0,0,0,0,0,0,0,0,-1,1119,1499,0,0
-98,-475,0,0,0,0,0,0,0,0,0,-1,1126,1499,0,0
-91,-475,0,0,0,0,0,0,0,0,0,-1,1133,1499,0,0
-84,-475,0,0,0,0,0,0,0,0,0,-1,1140,1499,0,0
-77,-475,0,0,0,0,0,0,0,0,0,-1,1147,1499,0,0
-70,-475,0,0,0,0,0,0,0,0,0,-1,1154,1499,0,0
-63,-475,0,0,0,0,0,0,0,0,0,-1,1161,1499,0,0
-56,-475,0,0,0,0,0,0,0,0,0,-1,1168,1499,0,0
-49,-475,0,0,0,0,0,0,0,0,0,-1,1175,1499,0,0
-42,-475,0,0,0,0,0,0,0,0,0,-1,1182,1499,0,0
-35,-475,0,0,0,0,0,0,0,0,0,-1,1189,1499,0,0
-28,-475,0,0,0,0,0,0,0,0,0,-1,1196,1499,0,0
-21,-475,0,0,0,0,0,0,0,0,0,-1,1203,1499,0,0
-14,-475,0,0,0,0,0,0,0,0,0,-1,1210,1499,0,0
-7,-475,0,0,0,0,0,0,0,0,0,-1,1217,1499,0,0
0,-475,0,0,0,0,0,0,0,0,0,-1,1224,1499,0,0
7,-475,0,0,0,0,0,0,0,0,0,-1,1231,1499,0,0
14,-475,0,0,0,0,0,0,0,0,0,-1,1238,1499,0,0
21,-475,0,0,0,0,0,0,0,0,0,-1,1245,1499,0,0
28,-475,0,0,0,0,0,0,0,0,0,-1,1252,1499,0,0
35,-475,0,0,0,0,0,0,0,0,0,-1,1259,1499,0,0
42,-475,0,0,0,0,0,0,0,0,0,-1,1266,1499,0,0
49,-475,0,0,0,0,0,0,0,0,0,-1,1273,1499,0,0
56,-475,0,0,0,0,0,0,0,0,0,-1,1280,1499,0,0
63,-475,0,0,0,0,0,0,0,0,0,-1,1287,1499,0,0
70,-475,0,0,0,0,0,0,0,0,0,-1,1294,1499,0,0
77,-475,0,0,0,0,0,0,0,0,0,-1,1301,1499,0,0
84,-475,0,0,0,0,0,0,0,0,0,-1,1308,1499,0,0
91,-475,0,0,0,0,0,0,0,0,0,-1,1315,1499,0,0
98,-475,0,0,0,0,0,0,0,0,0,-1,1322,1499,0,0
105,-475,0,0,0,0,0,0,0,0,0,-1,1329,1499,0,0
112,-475,0,0,0,0,0,0,0,0,0,-1,1336,1499,0,0
119,-475,0,0,0,0,0,0,0,0,0,-1,1343,1499,0,0
126,-475,0,0,0,0,0,0,0,0,0,-1,1350,1499,0,0
133,-475,0,0,0,0,0,0,0,0,0,-1,1357,1499,0,0
140,-475,0,0,0,0,0,0,0,0,0,-1,1364,1499,0,0
147,-475,0,0,0,0,0,0,0,0,0,-1,1371,1499,0,0
154,-475,0,0,0,0,0,0,0,0,0,-1,1378,1499,0,0
161,-475,0,0,0,0,0,0,0,0,0,-1,1385,1499,0,0
168,-475,0,0,0,0,0,0,0,0,0,-1,1392,1499,0,0
175,-475,0,0,0,0,0,0,0,0,0,-1,1399,1499,0,0
182,-475,0,0,0,0,0,0,0,0,0,-1,1406,1499,0,0
189,-475,0,0,0,0,0,0,0,0,0,-1,1413,1499,0,0
196,-475,0,0,0,0,0,0,0,0,0,-1,1420,1499,0,0
203,-475,0,0,0,0,0,0,0,0,0,-1,1427,1499,0,0
210,-475,0,0,0,0,0,0,0,0,0,-1,1434,1499,0,0
217,-475,0,0,0,0,0,0,0,0,0,-1,1441,1499,0,0
224,-475,0,0,0,0,0,0,0,0,0,-1,1448,1499,0,0
231,-475,0,0,0,0,0,0,0,0,0,-1,1455,1499,0,0
238,-475,0,0,0,0,0,0,0,0,0,-1,1462,1499,0,0
245,-475,0,0,0,0,0,0,0,0,0,-1,1469,1499,0,0
252,-475,0,0,0,0,0,0,0,0,0,-1,1476,1499,0,0
259,-475,0,0,0,0,0,0,0,0,0,-1,1483,1499,0,0
266,-475,0,0,0,0,0,0,0,0,0,-1,1490,1499,0,0
273,-475,0,0,0,0,0,0,0,0,0,-1,1497,1499,0,0
280,-475,0,0,0,0,0,0,0,0,0,-1,1504,1499,0,0
287,-475,0,0,0,0,0,0,0,0,0,-1,1511,1499,0,0
294,-475,0,0,0,0,0,0,0,0,0,-1,1518,1499,0,0
301,-475,0,0,0,0,0,0,0,0,0,-1,1525,1499,0,0
308,-475,0,0,0,0,0,0,0,0,0,-1,1532,1499,0,0
315,-475,0,0,0,0,0,0,0,0,0,-1,1539,1499,0,0
322,-475,0,0,0,0,0,0,0,0,0,-1,1546,1499,0,0
329,-475,0,0,0,0,0,0,0,0,0,-1,1553,1499,0,0
336,-475,0,0,0,0,0,0,0,0,0,-1,1560,1499,0,0
343,-475,0,0,0,0,0,0,0,0,0,-1,1567,1499,0,0
350,-475,0,0,0,0,0,0,0,0,0,-1,1574,1499,0,0
357,-475,0,0,0,0,0,0,0,0,0,-1,1581,1499,0,0
364,-475,0,0,0,0,0,0,0,0,0,-1,1588,1499,0,0
371,-475,0,0,0,0,0,0,0,0,0,-1,1595,1499,0,0
378,-475,0,0,0,0,0,0,0,0,0,-1,1602,1499,0,0
385,-475,0,0,0,0,0,0,0,0,0,-1,1609,1499,0,0
392,-475,0,0,0,0,0,0,0,0,0,-1,1616,1499,0,0
399,-475,0,0,0,0,0,0,0,0,0,-1,1623,1499,0,0
406,-475,0,0,0,0,0,0,0,0,0,-1,1630,1499,0,0
413,-475,0,0,0,0,0,0,0,0,0,-1,1637,1499,0,0
420,-475,0,0,0,0,0,0,0,0,0,-1,1644,1499,0,0
427,-475,0,0,0,0,0,0,0,0,0,-1,1651,1499,0,0
434,-475,0,0,0,0,0,0,0,0,0,-1,1658,1499,0,0
441,-475,0,0,0,0,0,0,0,0,0,-1,1665,1499,0,0
448,-475,0,0,0,0,0,0,0,0,0,-1,1672,1499,0,0
455,-475,0,0,0,0,0,0,0,0,0,-1,1679,1499,0,0
462,-475,12.6372,0.275391,0,0,0,0,0,0,0,-1,1686,1499,12.6372,-0.27536
469,-475,15.6437,2.28296,0,0,0,0,0,0,0,-1,1693,1499,15.6437,-2.28293
476,-475,15.3302,2.71436,0,0,0,0,0,0,0,-1,1700,1499,15.3303,-2.7143
483,-475,10.7461,5.91479,0,0,0,0,0,0,0,-1,1707,1499,10.7461,-5.91476
490,-475,11.9305,4.4364,0,0,0,0,0,0,0,-1,1714,1499,11.9305,-4.43644
497,-475,15.3451,4.3479,0,0,0,0,0,0,0,-1,1721,1499,15.3451,-4.34789
504,-475,16.9646,7.71265,0,0,0,0,0,0,0,-1,1728,1499,16.9646,-7.71265
511,-475,19.6172,13.4172,0,0,0,0,0,0,0,-1,1735,1499,19.6172,-13.4173
518,-475,17.1322,14.2107,0,0,0,0,0,0,0,-1,1742,1499,17.1322,-14.2107
525,-475,15.2567,12.5844,0,0,0,0,0,0,0,-1,1749,1499,15.2567,-12.5843
532,-475,15.0801,13.1803,-0.0323765,-0.0214139,0.0219977,-0.00422484,-0.0495656,0.9075,0.0317293,0.0461258,1756,1499,15.0801,-13.1804
539,-475,14.7313,13.5837,-0.0242036,-0.016072,0.0169898,-0.00266828,-0.0376073,0.902844,0.0242311,0.0450924,1763,1499,14.7313,-13.5837
546,-475,14.61,13.4484,-0.0177708,-0.011753,0.0129081,-0.00150775,-0.028016,0.899903,0.0181956,0.0409773,1770,1499,14.61,-13.4484
553,-475,14.4978,13.197,-0.0126631,-0.0085096,0.00954595,-0.000817122,-0.0203556,0.892506,0.0133064,0.0233366,1777,1499,14.4978,-13.197
560,-475,14.3008,12.9581,-0.00869753,-0.00590555,0.00689527,-0.00026638,-0.0143367,0.885276,0.00947026,0.0173616,1784,1499,14.3008,-12.9582
567,-475,14.3958,12.6097,-0.00579155,-0.0039436,0.00484292,6.27018e-05,-0.00979785,0.87966,0.0065529,0.0136792,1791,1499,14.3957,-12.6097
574,-475,14.3793,12.2964,-0.00367334,-0.00258116,0.00331229,0.00022975,-0.00648425,0.867098,0.00440142,0.0141937,1798,1499,14.3792,-12.2963
581,-475,14.3777,12.0007,-0.00210904,-0.00160713,0.00216831,0.000324698,-0.00404086,0.843011,0.0028084,0.0117225,1805,1499,14.3777,-12.0007
588,-475,14.3713,11.6946,-0.000496497,-0.0007536,0.00111665,0.000498976,-0.00174907,0.728089,0.00136316,0.0100281,1812,1499,14.3713,-11.6946
595,-475,14.3877,11.3768,0.000431405,-0.000584528,0.000561592,0.00068068,-0.000833803,0.417747,0.000875876,0.0117247,1819,1499,14.3878,-11.3768
602,-475,14.386,11.0536,0.000920555,-0.000738839,0.000389133,0.00100728,-0.00082556,0.219273,0.00105992,0.0128613,1826,1499,14.386,-11.0535
609,-475,14.3746,10.7465,0.0014775,-0.00102399,0.000298324,0.00151258,-0.00105908,0.117071,0.00149242,0.0116545,1833,1499,14.3747,-10.7464
616,-475,14.3462,10.454,0.00202163,-0.00169324,0.00038524,0.00206116,-0.00173276,0.102253,0.00219316,0.0114751,1840,1499,14.3462,-10.4539
623,-475,14.3416,10.1565,0.0026564,-0.0025632,0.000594507,0.00272326,-0.00263006,0.111988,0.00309089,0.010963,1847,1499,14.3415,-10.1565
630,-475,14.3757,9.85999,0.00331756,-0.00378763,0.000978186,0.00344977,-0.00391984,0.134343,0.00425773,0.0144597,1854,1499,14.3757,-9.86001
637,-475,14.4229,9.56836,0.0041429,-0.00516839,0.00136998,0.00434028,-0.00536577,0.143092,0.00561421,0.0285681,1861,1499,14.4228,-9.5684
644,-475,14.5225,9.24878,0,0,0,0,0,0,0,-1,1868,1499,14.5224,-9.24879
651,-475,11.7965,7.57593,0,0,0,0,0,0,0,-1,1875,1499,11.7965,-7.5759
658,-475,14.6708,8.80322,0,0,0,0,0,0,0,-1,1882,1499,14.6708,-8.8032
665,-475,9.33435,5.43335,0,0,0,0,0,0,0,-1,1889,1499,9.33439,-5.43332
672,-475,9.38635,1.10474,0,0,0,0,0,0,0,-1,1896,1499,9.38629,-1.10475
679,-475,12.2594,1.31079,0,0,0,0,0,0,0,-1,1903,1499,12.2594,-1.31077
686,-475,0,0,0,0,0,0,0,0,0,-1,1910,1499,0,0
693,-475,0,0,0,0,0,0,0,0,0,-1,1917,1499,0,0
700,-475,0,0,0,0,0,0,0,0,0,-1,1924,1499,0,0
707,-475,0,0,0,0,0,0,0,0,0,-1,1931,1499,0,0
714,-475,0,0,0,0,0,0,0,0,0,-1,1938,1499,0,0
721,-475,0,0,0,0,0,0,0,0,0,-1,1945,1499,0,0
728,-475,0,0,0,0,0,0,0,0,0,-1,1952,1499,0,0
735,-475,0,0,0,0,0,0,0,0,0,-1,1959,1499,0,0
742,-475,0,0,0,0,0,0,0,0,0,-1,1966,1499,0,0
749,-475,0,0,0,0,0,0,0,0,0,-1,1973,1499,0,0
756,-475,0,0,0,0,0,0,0,0,0,-1,1980,1499,0,0
763,-475,0,0,0,0,0,0,0,0,0,-1,1987,1499,0,0
770,-475,0,0,0,0,0,0,0,0,0,-1,1994,1499,0,0
777,-475,0,0,0,0,0,0,0,0,0,-1,2001,1499,0,0
784,-475,0,0,0,0,0,0,0,0,0,-1,2008,1499,0,0
791,-475,0,0,0,0,0,0,0,0,0,-1,2015,1499,0,0
798,-475,0,0,0,0,0,0,0,0,0,-1,2022,1499,0,0
805,-475,0,0,0,0,0,0,0,0,0,-1,2029,1499,0,0
812,-475,0,0,0,0,0,0,0,0,0,-1,2036,1499,0,0
-700,-482,0,0,0,0,0,0,0,0,0,-1,524,1506,0,0
-693,-482,0,0,0,0,0,0,0,0,0,-1,531,1506,0,0
-686,-482,0,0,0,0,0,0,0,0,0,-1,538,1506,0,0
-679,-482,0,0,0,0,0,0,0,0,0,-1,545,1506,0,0
-672,-482,0,0,0,0,0,0,0,0,0,-1,552,1506,0,0
-665,-482,0,0,0,0,0,0,0,0,0,-1,559,1506,0,0
-658,-482,0,0,0,0,0,0,0,0,0,-1,566,1506,0,0
-651,-482,0,0,0,0,0,0,0,0,0,-1,573,1506,0,0
-644,-482,0,0,0,0,0,0,0,0,0,-1,580,1506,0,0
-637,-482,0,0,0,0,0,0,0,0,0,-1,587,1506,0,0
-630,-482,0,0,0,0,0,0,0,0,0,-1,594,1506,0,0
-623,-482,0,0,0,0,0,0,0,0,0,-1,601,1506,0,0
-616,-482,0,0,0,0,0,0,0,0,0,-1,608,1506,0,0
-609,-482,0,0,0,0,0,0,0,0,0,-1,615,1506,0,0
-602,-482,0,0,0,0,0,0,0,0,0,-1,622,1506,0,0
-595,-482,0,0,0,0,0,0,0,0,0,-1,629,1506,0,0
-588,-482,0,0,0,0,0,0,0,0,0,-1,636,1506,0,0
-581,-482,0,0,0,0,0,0,0,0,0,-1,643,1506,0,0
-574,-482,0,0,0,0,0,0,0,0,0,-1,650,1506,0,0
-567,-482,0,0,0,0,0,0,0,0,0,-1,657,1506,0,0
-560,-482,0,0,0,0,0,0,0,0,0,-1,664,1506,0,0
-553,-482,-9.06055,9.34314,0,0,0,0,0,0,0,-1,671,1506,-9.06056,-9.34312
-546,-482,-4.08624,8.34241,0,0,0,0,0,0,0,-1,678,1506,-4.08624,-8.3424
-539,-482,-4.54114,1.75745,0,0,0,0,0,0,0,-1,685,1506,-4.54117,-1.75742
-532,-482,-4.08881,1.44189,0,0,0,0,0,0,0,-1,692,1506,-4.08881,-1.44191
-525,-482,-3.43286,2.46912,0,0,0,0,0,0,0,-1,699,1506,-3.43286,-2.46915
-518,-482,-2.77692,3.49634,0,0,0,0,0,0,0,-1,706,1506,-2.77692,-3.49639
-511,-482,-3.29211,7.33228,0,0,0,0,0,0,0,-1,713,1506,-3.29209,-7.33232
-504,-482,-3.0332,7.56262,0.0106646,0.0152914,0.0198416,0.0329539,-0.00699798,0.843432,0.0246355,0.0435622,720,1506,-3.03321,-7.56256
-497,-482,-2.8302,8.12549,0.00683543,0.0090279,0.0127039,0.0206827,-0.00481942,0.828437,0.0156444,0.0285633,727,1506,-2.83023,-8.12555
-490,-482,-2.8902,8.39429,0.0043207,0.00494722,0.0078619,0.0125021,-0.00323418,0.80531,0.00959621,0.0175583,734,1506,-2.89017,-8.39431
-483,-482,-2.88434,8.76147,0.00280136,0.00238792,0.00466058,0.0072598,-0.00207053,0.763236,0.00565777,0.00899621,741,1506,-2.88435,-8.76151
-476,-482,-2.89813,9.10583,0.0018902,0.000639483,0.00248668,0.00382895,-0.00129926,0.662211,0.00307851,0.0107875,748,1506,-2.89813,-9.10589
-469,-482,-2.90576,9.45544,0.00142109,-0.000931875,0.000658309,0.00159275,-0.00110353,0.255075,0.00156522,0.011645,755,1506,-2.90576,-9.45545
-462,-482,-2.89319,9.78687,0.00171427,-0.00114494,-3.29183e-05,0.00171465,-0.00114532,-0.011511,0.00166208,0.012181,762,1506,-2.89322,-9.78681
-455,-482,-2.88794,10.1091,0.00232186,-0.0011323,-0.000242774,0.00233884,-0.00114927,-0.0698273,0.00205253,0.0130475,769,1506,-2.88793,-10.1091
-448,-482,-2.90637,10.4521,0.00315955,-0.00110643,-0.000247082,0.00317381,-0.00112069,-0.0576623,0.00257215,0.0135159,776,1506,-2.90637,-10.4522
-441,-482,-2.92145,10.7959,0.00423124,-0.000981781,-0.000115598,0.0042338,-0.000984343,-0.0221604,0.00320149,0.0126447,783,1506,-2.92147,-10.7959
-434,-482,-2.91083,11.1187,0.00554929,-0.00091254,4.83627e-05,0.00554965,-0.000912902,0.00748381,0.00403861,0.0148467,790,1506,-2.91084,-11.1187
-427,-482,-2.91711,11.4812,0.00699882,-0.000651212,0.000231422,0.00700582,-0.000658206,0.0302143,0.00490469,0.0169988,797,1506,-2.91708,-11.4813
-420,-482,-2.84821,11.9767,0.00863755,-0.000453015,0.000597847,0.00867669,-0.000492165,0.0653903,0.0059553,0.0315715,804,1506,-2.84822,-11.9767
-413,-482,-2.65833,12.1167,0.0110039,8.19699e-05,0.00147096,0.0111985,-0.000112669,0.131557,0.00750353,0.0487105,811,1506,-2.65835,-12.1167
-406,-482,-2.47821,12.4572,0,0,0,0,0,0,0,-1,818,1506,-2.47821,-12.4572
-399,-482,-1.3822,9.22595,0,0,0,0,0,0,0,-1,825,1506,-1.38221,-9.22598
-392,-482,-1.06836,9.22729,0,0,0,0,0,0,0,-1,832,1506,-1.06835,-9.2273
-385,-482,0.0647583,8.90649,0,0,0,0,0,0,0,-1,839,1506,0.0647778,-8.90644
-378,-482,0.215698,5.96948,0,0,0,0,0,0,0,-1,846,1506,0.215681,-5.9695
-371,-482,-0.10907,8.10437,0,0,0,0,0,0,0,-1,853,1506,-0.109063,-8.10433
-364,-482,-0.154968,10.5032,0,0,0,0,0,0,0,-1,860,1506,-0.154976,-10.5032
-357,-482,2.14807,4.60144,0,0,0,0,0,0,0,-1,867,1506,2.14807,-4.60144
-350,-482,-7.5813,-1.45935,0,0,0,0,0,0,0,-1,874,1506,-7.58133,1.45937
-343,-482,-7.19983,-1.26416,0,0,0,0,0,0,0,-1,881,1506,-7.19981,1.26414
-336,-482,-6.78491,-1.18127,0,0,0,0,0,0,0,-1,888,1506,-6.78488,1.18125
-329,-482,0,0,0,0,0,0,0,0,0,-1,895,1506,0,0
-322,-482,0,0,0,0,0,0,0,0,0,-1,902,1506,0,0
-315,-482,0,0,0,0,0,0,0,0,0,-1,909,1506,0,0
-308,-482,0,0,0,0,0,0,0,0,0,-1,916,1506,0,0
-301,-482,0,0,0,0,0,0,0,0,0,-1,923,1506,0,0
-294,-482,0,0,0,0,0,0,0,0,0,-1,930,1506,0,0
-287,-482,0,0,0,0,0,0,0,0,0,-1,937,1506,0,0
-280,-482,0,0,0,0,0,0,0,0,0,-1,944,1506,0,0
-273,-482,0,0,0,0,0,0,0,0,0,-1,951,1506,0,0
-266,-482,0,0,0,0,0,0,0,0,0,-1,958,1506,0,0
-259,-482,0,0,0,0,0,0,0,0,0,-1,965,1506,0,0
-252,-482,0,0,0,0,0,0,0,0,0,-1,972,1506,0,0
-245,-482,0,0,0,0,0,0,0,0,0,-1,979,1506,0,0
-238,-482,0,0,0,0,0,0,0,0,0,-1,986,1506,0,0
-231,-482,0,0,0,0,0,0,0,0,0,-1,993,1506,0,0
-224,-482,0,0,0,0,0,0,0,0,0,-1,1000,1506,0,0
-217,-482,0,0,0,0,0,0,0,0,0,-1,1007,1506,0,0
-210,-482,0,0,0,0,0,0,0,0,0,-1,1014,1506,0,0
-203,-482,0,0,0,0,0,0,0,0,0,-1,1021,1506,0,0
-196,-482,0,0,0,0,0,0,0,0,0,-1,1028,1506,0,0
-189,-482,0,0,0,0,0,0,0,0,0,-1,1035,1506,0,0
-182,-482,0,0,0,0,0,0,0,0,0,-1,1042,1506,0,0
-175,-482,0,0,0,0,0,0,0,0,0,-1,1049,1506,0,0
-168,-482,0,0,0,0,0,0,0,0,0,-1,1056,1506,0,0
-161,-482,0,0,0,0,0,0,0,0,0,-1,1063,1506,0,0
-154,-482,0,0,0,0,0,0,0,0,0,-1,1070,1506,0,0
-147,-482,0,0,0,0,0,0,0,0,0,-1,1077,1506,0,0
-140,-482,0,0,0,0,0,0,0,0,0,-1,1084,1506,0,0
-133,-482,0,0,0,0,0,0,0,0,0,-1,1091,1506,0,0
-126,-482,0,0,0,0,0,0,0,0,0,-1,1098,1506,0,0
-119,-482,0,0,0,0,0,0,0,0,0,-1,1105,1506,0,0
-112,-482,0,0,0,0,0,0,0,0,0,-1,1112,1506,0,0
-105,-482,0,0,0,0,0,0,0,0,0,-1,1119,1506,0,0
-98,-482,0,0,0,0,0,0,0,0,0,-1,1126,1506,0,0
-91,-482,0,0,0,0,0,0,0,0,0,-1,1133,1506,0,0
-84,-482,0,0,0,0,0,0,0,0,0,-1,1140,1506,0,0
-77,-482,0,0,0,0,0,0,0,0,0,-1,1147,1506,0,0
-70,-482,0,0,0,0,0,0,0,0,0,-1,1154,1506,0,0
-63,-482,0,0,0,0,0,0,0,0,0,-1,1161,1506,0,0
-56,-482,0,0,0,0,0,0,0,0,0,-1,1168,1506,0,0
-49,-482,0,0,0,0,0,0,0,0,0,-1,1175,1506,0,0
-42,-482,0,0,0,0,0,0,0,0,0,-1,1182,1506,0,0
-35,-482,0,0,0,0,0,0,0,0,0,-1,1189,1506,0,0
-28,-482,0,0,0,0,0,0,0,0,0,-1,1196,1506,0,0
-21,-482,0,0,0,0,0,0,0,0,0,-1,1203,1506,0,0
-14,-482,0,0,0,0,0,0,0,0,0,-1,1210,1506,0,0
-7,-482,0,0,0,0,0,0,0,0,0,-1,1217,1506,0,0
0,-482,0,0,0,0,0,0,0,0,0,-1,1224,1506,0,0
7,-482,0,0,0,0,0,0,0,0,0,-1,1231,1506,0,0
14,-482,0,0,0,0,0,0,0,0,0,-1,1238,1506,0,0
21,-482,0,0,0,0,0,0,0,0,0,-1,1245,1506,0,0
28,-482,0,0,0,0,0,0,0,0,0,-1,1252,1506,0,0
35,-482,0,0,0,0,0,0,0,0,0,-1,1259,1506,0,0
42,-482,0,0,0,0,0,0,0,0,0,-1,1266,1506,0,0
49,-482,0,0,0,0,0,0,0,0,0,-1,1273,1506,0,0
56,-482,0,0,0,0,0,0,0,0,0,-1,1280,1506,0,0
63,-482,0,0,0,0,0,0,0,0,0,-1,1287,1506,0,0
70,-482,0,0,0,0,0,0,0,0,0,-1,1294,1506,0,0
77,-482,0,0,0,0,0,0,0,0,0,-1,1301,1506,0,0
84,-482,0,0,0,0,0,0,0,0,0,-1,1308,1506,0,0
91,-482,0,0,0,0,0,0,0,0,0,-1,1315,1506,0,0
98,-482,0,0,0,0,0,0,0,0,0,-1,1322,1506,0,0
105,-482,0,0,0,0,0,0,0,0,0,-1,1329,1506,0,0
112,-482,0,0,0,0,0,0,0,0,0,-1,1336,1506,0,0
119,-482,0,0,0,0,0,0,0,0,0,-1,1343,1506,0,0
126,-482,0,0,0,0,0,0,0,0,0,-1,1350,1506,0,0
133,-482,0,0,0,0,0,0,0,0,0,-1,1357,1506,0,0
140,-482,0,0,0,0,0,0,0,0,0,-1,1364,1506,0,0
147,-482,0,0,0,0,0,0,0,0,0,-1,1371,1506,0,0
154,-482,0,0,0,0,0,0,0,0,0,-1,1378,1506,0,0
161,-482,0,0,0,0,0,0,0,0,0,-1,1385,1506,0,0
168,-482,0,0,0,0,0,0,0,0,0,-1,1392,1506,0,0
175,-482,0,0,0,0,0,0,0,0,0,-1,1399,1506,0,0
182,-482,0,0,0,0,0,0,0,0,0,-1,1406,1506,0,0
189,-482,0,0,0,0,0,0,0,0,0,-1,1413,1506,0,0
196,-482,0,0,0,0,0,0,0,0,0,-1,1420,1506,0,0
203,-482,0,0,0,0,0,0,0,0,0,-1,1427,1506,0,0
210,-482,0,0,0,0,0,0,0,0,0,-1,1434,1506,0,0
217,-482,0,0,0,0,0,0,0,0,0,-1,1441,1506,0,0
224,-482,0,0,0,0,0,0,0,0,0,-1,1448,1506,0,0
231,-482,0,0,0,0,0,0,0,0,0,-1,1455,1506,0,0
238,-482,0,0,0,0,0,0,0,0,0,-1,1462,1506,0,0
245,-482,0,0,0,0,0,0,0,0,0,-1,1469,1506,0,0
252,-482,0,0,0,0,0,0,0,0,0,-1,1476,1506,0,0
259,-482,0,0,0,0,0,0,0,0,0,-1,1483,1506,0,0
266,-482,0,0,0,0,0,0,0,0,0,-1,1490,1506,0,0
273,-482,0,0,0,0,0,0,0,0,0,-1,1497,1506,0,0
280,-482,0,0,0,0,0,0,0,0,0,-1,1504,1506,0,0
287,-482,0,0,0,0,0,0,0,0,0,-1,1511,1506,0,0
294,-482,0,0,0,0,0,0,0,0,0,-1,1518,1506,0,0
301,-482,0,0,0,0,0,0,0,0,0,-1,1525,1506,0,0
308,-482,0,0,0,0,0,0,0,0,0,-1,1532,1506,0,0
315,-482,0,0,0,0,0,0,0,0,0,-1,1539,1506,0,0
322,-482,0,0,0,0,0,0,0,0,0,-1,1546,1506,0,0
329,-482,0,0,0,0,0,0,0,0,0,-1,1553,1506,0,0
336,-482,0,0,0,0,0,0,0,0,0,-1,1560,1506,0,0
343,-482,0,0,0,0,0,0,0,0,0,-1,1567,1506,0,0
350,-482,0,0,0,0,0,0,0,0,0,-1,1574,1506,0,0
357,-482,0,0,0,0,0,0,0,0,0,-1,1581,1506,0,0
364,-482,0,0,0,0,0,0,0,0,0,-1,1588,1506,0,0
371,-482,0,0,0,0,0,0,0,0,0,-1,1595,1506,0,0
378,-482,0,0,0,0,0,0,0,0,0,-1,1602,1506,0,0
385,-482,0,0,0,0,0,0,0,0,0,-1,1609,1506,0,0
392,-482,0,0,0,0,0,0,0,0,0,-1,1616,1506,0,0
399,-482,0,0,0,0,0,0,0,0,0,-1,1623,1506,0,0
406,-482,0,0,0,0,0,0,0,0,0,-1,1630,1506,0,0
413,-482,0,0,0,0,0,0,0,0,0,-1,1637,1506,0,0
420,-482,0,0,0,0,0,0,0,0,0,-1,1644,1506,0,0
427,-482,0,0,0,0,0,0,0,0,0,-1,1651,1506,0,0
434,-482,0,0,0,0,0,0,0,0,0,-1,1658,1506,0,0
441,-482,0,0,0,0,0,0,0,0,0,-1,1665,1506,0,0
448,-482,4.24146,1.55383,0,0,0,0,0,0,0,-1,1672,1506,4.24149,-1.55381
455,-482,12.4122,1.09729,0,0,0,0,0,0,0,-1,1679,1506,12.4122,-1.09734
462,-482,15.0673,3.13135,0,0,0,0,0,0,0,-1,1686,1506,15.0672,-3.13134
469,-482,15.3793,3.46301,0,0,0,0,0,0,0,-1,1693,1506,15.3793,-3.46307
476,-482,8.69751,9.18738,0,0,0,0,0,0,0,-1,1700,1506,8.69753,-9.18739
483,-482,10.0902,7.17432,0,0,0,0,0,0,0,-1,1707,1506,10.0902,-7.1743
490,-482,11.6289,5.4928,0,0,0,0,0,0,0,-1,1714,1506,11.6289,-5.49283
497,-482,15.9539,7.40222,0,0,0,0,0,0,0,-1,1721,1506,15.9538,-7.40219
504,-482,20.8204,12.5548,0,0,0,0,0,0,0,-1,1728,1506,20.8204,-12.5548
511,-482,16.1261,14.4762,0,0,0,0,0,0,0,-1,1735,1506,16.1261,-14.4762
518,-482,16.3425,13.9844,0,0,0,0,0,0,0,-1,1742,1506,16.3426,-13.9844
525,-482,15.4479,13.6747,0,0,0,0,0,0,0,-1,1749,1506,15.4479,-13.6747
532,-482,14.8986,13.6483,-0.0256688,-0.0162426,0.0174893,-0.00284244,-0.039069,0.917014,0.0251521,0.0428455,1756,1506,14.8986,-13.6484
539,-482,14.278,13.6931,-0.0193683,-0.0122715,0.0135841,-0.00178002,-0.0298597,0.913152,0.0193405,0.0315309,1763,1506,14.278,-13.6931
546,-482,14.1278,13.5231,-0.0142842,-0.00902203,0.01032,-0.00100304,-0.0223032,0.910215,0.014546,0.0182227,1770,1506,14.1278,-13.5231
553,-482,14.0602,13.1943,-0.0102045,-0.00661418,0.00768394,-0.000518478,-0.0163002,0.900151,0.0106982,0.0159699,1777,1506,14.0602,-13.1943
560,-482,14.0391,12.9141,-0.0069995,-0.0046073,0.00555923,-0.00011695,-0.0114899,0.89136,0.00762122,0.0121267,1784,1506,14.0391,-12.914
567,-482,14.0862,12.6216,-0.00457011,-0.00308969,0.00387681,0.000116948,-0.00777675,0.879729,0.00522392,0.0144646,1791,1506,14.0861,-12.6216
574,-482,14.0703,12.3217,-0.00273617,-0.00199635,0.00258078,0.000240902,-0.00497342,0.856579,0.00339876,0.0140206,1798,1506,14.0704,-12.3216
581,-482,14.0603,12.0012,-0.0013558,-0.00119821,0.00160914,0.000334065,-0.00288807,0.809863,0.00204585,0.00975438,1805,1506,14.0603,-12.0012
588,-482,14.0614,11.6886,6.41647e-05,-0.000579387,0.000718992,0.000530101,-0.00104532,0.574996,0.000925643,0.0102624,1812,1506,14.0614,-11.6886
595,-482,14.0756,11.3589,0.000899357,-0.000490001,0.000268485,0.000949435,-0.000540079,0.184402,0.000870729,0.0177729,1819,1506,14.0755,-11.3589
602,-482,14.0952,11.022,0.00136474,-0.000705745,0.000153875,0.00137612,-0.000717118,0.0737781,0.00122833,0.0215408,1826,1506,14.0952,-11.022
609,-482,14.0708,10.7528,0.00190503,-0.00108151,0.000114838,0.00190944,-0.00108592,0.0383763,0.00175102,0.0158691,1833,1506,14.0708,-10.7528
616,-482,14.0398,10.4708,0.0025049,-0.00185956,0.000242685,0.00251835,-0.00187301,0.0553774,0.00254447,0.0112042,1840,1506,14.0398,-10.4708
623,-482,14.0288,10.1688,0.00322223,-0.00282351,0.000526669,0.00326777,-0.00286904,0.0862483,0.00354558,0.0111954,1847,1506,14.0288,-10.1688
630,-482,14.115,9.89795,0.00395405,-0.00423985,0.00102137,0.00407944,-0.00436524,0.12216,0.00487647,0.0229168,1854,1506,14.115,-9.898
637,-482,14.1296,9.89233,0.00493246,-0.00583773,0.00153146,0.00514599,-0.00605126,0.138537,0.00647177,0.04747,1861,1506,14.1297,-9.89229
644,-482,14.0972,9.83081,0,0,0,0,0,0,0,-1,1868,1506,14.0972,-9.83077
651,-482,4.03845,7.05273,0,0,0,0,0,0,0,-1,1875,1506,4.03843,-7.05279
658,-482,10.0278,5.87903,0,0,0,0,0,0,0,-1,1882,1506,10.0279,-5.87902
665,-482,8.15198,3.22229,0,0,0,0,0,0,0,-1,1889,1506,8.15199,-3.22232
672,-482,9.87415,1.3147,0,0,0,0,0,0,0,-1,1896,1506,9.87416,-1.31473
679,-482,0,0,0,0,0,0,0,0,0,-1,1903,1506,0,0
686,-482,0,0,0,0,0,0,0,0,0,-1,1910,1506,0,0
693,-482,0,0,0,0,0,0,0,0,0,-1,1917,1506,0,0
700,-482,0,0,0,0,0,0,0,0,0,-1,1924,1506,0,0
707,-482,0,0,0,0,0,0,0,0,0,-1,1931,1506,0,0
714,-482,0,0,0,0,0,0,0,0,0,-1,1938,1506,0,0
721,-482,0,0,0,0,0,0,0,0,0,-1,1945,1506,0,0
728,-482,0,0,0,0,0,0,0,0,0,-1,1952,1506,0,0
735,-482,0,0,0,0,0,0,0,0,0,-1,1959,1506,0,0
742,-482,0,0,0,0,0,0,0,0,0,-1,1966,1506,0,0
749,-482,0,0,0,0,0,0,0,0,0,-1,1973,1506,0,0
756,-482,0,0,0,0,0,0,0,0,0,-1,1980,1506,0,0
763,-482,0,0,0,0,0,0,0,0,0,-1,1987,1506,0,0
770,-482,0,0,0,0,0,0,0,0,0,-1,1994,1506,0,0
777,-482,0,0,0,0,0,0,0,0,0,-1,2001,1506,0,0
784,-482,0,0,0,0,0,0,0,0,0,-1,2008,1506,0,0
791,-482,0,0,0,0,0,0,0,0,0,-1,2015,1506,0,0
798,-482,0,0,0,0,0,0,0,0,0,-1,2022,1506,0,0
805,-482,0,0,0,0,0,0,0,0,0,-1,2029,1506,0,0
812,-482,0,0,0,0,0,0,0,0,0,-1,2036,1506,0,0
-700,-489,0,0,0,0,0,0,0,0,0,-1,524,1513,0,0
-693,-489,0,0,0,0,0,0,0,0,0,-1,531,1513,0,0
-686,-489,0,0,0,0,0,0,0,0,0,-1,538,1513,0,0
-679,-489,0,0,0,0,0,0,0,0,0,-1,545,1513,0,0
-672,-489,0,0,0,0,0,0,0,0,0,-1,552,1513,0,0
-665,-489,0,0,0,0,0,0,0,0,0,-1,559,1513,0,0
-658,-489,0,0,0,0,0,0,0,0,0,-1,566,1513,0,0
-651,-489,0,0,0,0,0,0,0,0,0,-1,573,1513,0,0
-644,-489,0,0,0,0,0,0,0,0,0,-1,580,1513,0,0
-637,-489,0,0,0,0,0,0,0,0,0,-1,587,1513,0,0
-630,-489,0,0,0,0,0,0,0,0,0,-1,594,1513,0,0
-623,-489,0,0,0,0,0,0,0,0,0,-1,601,1513,0,0
-616,-489,0,0,0,0,0,0,0,0,0,-1,608,1513,0,0
-609,-489,0,0,0,0,0,0,0,0,0,-1,615,1513,0,0
-602,-489,0,0,0,0,0,0,0,0,0,-1,622,1513,0,0
-595,-489,0,0,0,0,0,0,0,0,0,-1,629,1513,0,0
-588,-489,0,0,0,0,0,0,0,0,0,-1,636,1513,0,0
-581,-489,0,0,0,0,0,0,0,0,0,-1,643,1513,0,0
-574,-489,0,0,0,0,0,0,0,0,0,-1,650,1513,0,0
-567,-489,0,0,0,0,0,0,0,0,0,-1,657,1513,0,0
-560,-489,0,0,0,0,0,0,0,0,0,-1,664,1513,0,0
-553,-489,-9.42206,8.5116,0,0,0,0,0,0,0,-1,671,1513,-9.42205,-8.51158
-546,-489,-7.80951,8.18506,0,0,0,0,0,0,0,-1,678,1513,-7.8095,-8.18503
-539,-489,-4.03766,5.96765,0,0,0,0,0,0,0,-1,685,1513,-4.03766,-5.96763
-532,-489,-2.7309,1.75574,0,0,0,0,0,0,0,-1,692,1513,-2.7309,-1.75568
-525,-489,-3.2345,1.67749,0,0,0,0,0,0,0,-1,699,1513,-3.23453,-1.67746
-518,-489,-0.464844,3.24194,0,0,0,0,0,0,0,-1,706,1513,-0.464855,-3.24194
-511,-489,0.459778,3.77661,0,0,0,0,0,0,0,-1,713,1513,0.459801,-3.77667
-504,-489,-2.48865,7.63123,0,0,0,0,0,0,0,-1,720,1513,-2.48864,-7.63123
-497,-489,-2.45801,8.06885,0.00749116,0.00832139,0.0127655,0.0206786,-0.00486602,0.801652,0.0156617,0.0410621,727,1513,-2.45803,-8.06883
-490,-489,-2.46051,8.46521,0.00467317,0.00418884,0.00771689,0.0121517,-0.00328969,0.769713,0.00939174,0.0254496,734,1513,-2.46051,-8.46521
-483,-489,-2.56268,8.74622,0.00295447,0.001764,0.0045349,0.00693304,-0.00221456,0.720143,0.00551059,0.0127038,741,1513,-2.56266,-8.74627
-476,-489,-2.5592,9.09558,0.00192231,0.000281271,0.002496,0.0037292,-0.00152562,0.626596,0.00312152,0.0102702,748,1513,-2.55922,-9.09552
-469,-489,-2.57147,9.43323,0.00132757,-0.00106552,0.000808068,0.00157487,-0.00131282,0.29699,0.0016695,0.0105886,755,1513,-2.57146,-9.43328
-462,-489,-2.56604,9.78052,0.00149247,-0.0010973,0.000257613,0.00151785,-0.00112268,0.0981913,0.00153019,0.0149182,762,1513,-2.56607,-9.78053
-455,-489,-2.58154,10.1315,0.00198346,-0.000911042,0.000165095,0.00199285,-0.000920428,0.0567918,0.00171955,0.0193343,769,1513,-2.58155,-10.1315
-448,-489,-2.60645,10.4423,0.00268844,-0.000727054,0.000277785,0.00271088,-0.000749499,0.0806248,0.00210211,0.0174228,776,1513,-2.60643,-10.4423
-441,-489,-2.58679,10.7852,0.00359532,-0.000394719,0.00055362,0.00367071,-0.00047011,0.135345,0.00261795,0.0144042,783,1513,-2.58679,-10.7852
-434,-489,-2.60803,11.1196,0.00475078,-7.49675e-05,0.000892016,0.00491039,-0.000234573,0.177054,0.00335452,0.0171354,790,1513,-2.60801,-11.1196
-427,-489,-2.61926,11.4866,0.00604439,0.000393882,0.00127314,0.006318,0.000120273,0.211689,0.00417249,0.0195119,797,1513,-2.61926,-11.4865
-420,-489,-2.60278,11.9141,0.00748882,0.000855282,0.00182222,0.00795642,0.000387683,0.25119,0.00517989,0.0211094,804,1513,-2.60281,-11.914
-413,-489,-2.30573,12.1747,0.00954308,0.00162476,0.00284795,0.010461,0.000706857,0.311792,0.00675072,0.038838,811,1513,-2.30574,-12.1747
-406,-489,-2.18378,12.7361,0,0,0,0,0,0,0,-1,818,1513,-2.18379,-12.736
-399,-489,-1.41241,9.10718,0,0,0,0,0,0,0,-1,825,1513,-1.41244,-9.10722
-392,-489,-1.0368,9.30469,0,0,0,0,0,0,0,-1,832,1513,-1.03682,-9.30466
-385,-489,-1.75165,10.6559,0,0,0,0,0,0,0,-1,839,1513,-1.75165,-10.6559
-378,-489,-0.401428,9.87048,0,0,0,0,0,0,0,-1,846,1513,-0.401415,-9.87047
-371,-489,-1.11633,10.6606,0,0,0,0,0,0,0,-1,853,1513,-1.11633,-10.6606
-364,-489,-0.503113,8.98486,0,0,0,0,0,0,0,-1,860,1513,-0.503097,-8.98482
-357,-489,-0.609924,10.9606,0,0,0,0,0,0,0,-1,867,1513,-0.609947,-10.9605
-350,-489,-7.94659,-0.358887,0,0,0,0,0,0,0,-1,874,1513,-7.94657,0.358912
-343,-489,-7.49323,-0.437866,0,0,0,0,0,0,0,-1,881,1513,-7.49322,0.437823
-336,-489,-7.02332,-0.53125,0,0,0,0,0,0,0,-1,888,1513,-7.0233,0.531295
-329,-489,-6.70221,-0.242432,0,0,0,0,0,0,0,-1,895,1513,-6.70221,0.2424
-322,-489,0,0,0,0,0,0,0,0,0,-1,902,1513,0,0
-315,-489,0,0,0,0,0,0,0,0,0,-1,909,1513,0,0
-308,-489,0,0,0,0,0,0,0,0,0,-1,916,1513,0,0
-301,-489,0,0,0,0,0,0,0,0,0,-1,923,1513,0,0
-294,-489,0,0,0,0,0,0,0,0,0,-1,930,1513,0,0
-287,-489,0,0,0,0,0,0,0,0,0,-1,937,1513,0,0
-280,-489,0,0,0,0,0,0,0,0,0,-1,944,1513,0,0
-273,-489,0,0,0,0,0,0,0,0,0,-1,951,1513,0,0
-266,-489,0,0,0,0,0,0,0,0,0,-1,958,1513,0,0
-259,-489,0,0,0,0,0,0,0,0,0,-1,965,1513,0,0
-252,-489,0,0,0,0,0,0,0,0,0,-1,972,1513,0,0
-245,-489,0,0,0,0,0,0,0,0,0,-1,979,1513,0,0
-238,-489,0,0,0,0,0,0,0,0,0,-1,986,1513,0,0
-231,-489,0,0,0,0,0,0,0,0,0,-1,993,1513,0,0
-224,-489,0,0,0,0,0,0,0,0,0,-1,1000,1513,0,0
-217,-489,0,0,0,0,0,0,0,0,0,-1,1007,1513,0,0
-210,-489,0,0,0,0,0,0,0,0,0,-1,1014,1513,0,0
-203,-489,0,0,0,0,0,0,0,0,0,-1,1021,1513,0,0
-196,-489,0,0,0,0,0,0,0,0,0,-1,1028,1513,0,0
-189,-489,0,0,0,0,0,0,0,0,0,-1,1035,1513,0,0
-182,-489,0,0,0,0,0,0,0,0,0,-1,1042,1513,0,0
-175,-489,0,0,0,0,0,0,0,0,0,-1,1049,1513,0,0
-168,-489,0,0,0,0,0,0,0,0,0,-1,1056,1513,0,0
-161,-489,0,0,0,0,0,0,0,0,0,-1,1063,1513,0,0
-154,-489,0,0,0,0,0,0,0,0,0,-1,1070,1513,0,0
-147,-489,0,0,0,0,0,0,0,0,0,-1,1077,1513,0,0
-140,-489,0,0,0,0,0,0,0,0,0,-1,1084,1513,0,0
-133,-489,0,0,0,0,0,0,0,0,0,-1,1091,1513,0,0
-126,-489,0,0,0,0,0,0,0,0,0,-1,1098,1513,0,0
-119,-489,0,0,0,0,0,0,0,0,0,-1,1105,1513,0,0
-112,-489,0,0,0,0,0,0,0,0,0,-1,1112,1513,0,0
-105,-489,0,0,0,0,0,0,0,0,0,-1,1119,1513,0,0
-98,-489,0,0,0,0,0,0,0,0,0,-1,1126,1513,0,0
-91,-489,0,0,0,0,0,0,0,0,0,-1,1133,1513,0,0
-84,-489,0,0,0,0,0,0,0,0,0,-1,1140,1513,0,0
-77,-489,0,0,0,0,0,0,0,0,0,-1,1147,1513,0,0
-70,-489,0,0,0,0,0,0,0,0,0,-1,1154,1513,0,0
-63,-489,0,0,0,0,0,0,0,0,0,-1,1161,1513,0,0
-56,-489,0,0,0,0,0,0,0,0,0,-1,1168,1513,0,0
-49,-489,0,0,0,0,0,0,0,0,0,-1,1175,1513,0,0
-42,-489,0,0,0,0,0,0,0,0,0,-1,1182,1513,0,0
-35,-489,0,0,0,0,0,0,0,0,0,-1,1189,1513,0,0
-28,-489,0,0,0,0,0,0,0,0,0,-1,1196,1513,0,0
-21,-489,0,0,0,0,0,0,0,0,0,-1,1203,1513,0,0
-14,-489,0,0,0,0,0,0,0,0,0,-1,1210,1513,0,0
-7,-489,0,0,0,0,0,0,0,0,0,-1,1217,1513,0,0
0,-489,0,0,0,0,0,0,0,0,0,-1,1224,1513,0,0
7,-489,0,0,0,0,0,0,0,0,0,-1,1231,1513,0,0
14,-489,0,0,0,0,0,0,0,0,0,-1,1238,1513,0,0
21,-489,0,0,0,0,0,0,0,0,0,-1,1245,1513,0,0
28,-489,0,0,0,0,0,0,0,0,0,-1,1252,1513,0,0
35,-489,0,0,0,0,0,0,0,0,0,-1,1259,1513,0,0
42,-489,0,0,0,0,0,0,0,0,0,-1,1266,1513,0,0
49,-489,0,0,0,0,0,0,0,0,0,-1,1273,1513,0,0
56,-489,0,0,0,0,0,0,0,0,0,-1,1280,1513,0,0
63,-489,0,0,0,0,0,0,0,0,0,-1,1287,1513,0,0
70,-489,0,0,0,0,0,0,0,0,0,-1,1294,1513,0,0
77,-489,0,0,0,0,0,0,0,0,0,-1,1301,1513,0,0
84,-489,0,0,0,0,0,0,0,0,0,-1,1308,1513,0,0
91,-489,0,0,0,0,0,0,0,0,0,-1,1315,1513,0,0
98,-489,0,0,0,0,0,0,0,0,0,-1,1322,1513,0,0
105,-489,0,0,0,0,0,0,0,0,0,-1,1329,1513,0,0
112,-489,0,0,0,0,0,0,0,0,0,-1,1336,1513,0,0
119,-489,0,0,0,0,0,0,0,0,0,-1,1343,1513,0,0
126,-489,0,0,0,0,0,0,0,0,0,-1,1350,1513,0,0
133,-489,0,0,0,0,0,0,0,0,0,-1,1357,1513,0,0
140,-489,0,0,0,0,0,0,0,0,0,-1,1364,1513,0,0
147,-489,0,0,0,0,0,0,0,0,0,-1,1371,1513,0,0
154,-489,0,0,0,0,0,0,0,0,0,-1,1378,1513,0,0
161,-489,0,0,0,0,0,0,0,0,0,-1,1385,1513,0,0
168,-489,0,0,0,0,0,0,0,0,0,-1,1392,1513,0,0
175,-489,0,0,0,0,0,0,0,0,0,-1,1399,1513,0,0
182,-489,0,0,0,0,0,0,0,0,0,-1,1406,1513,0,0
189,-489,0,0,0,0,0,0,0,0,0,-1,1413,1513,0,0
196,-489,0,0,0,0,0,0,0,0,0,-1,1420,1513,0,0
203,-489,0,0,0,0,0,0,0,0,0,-1,1427,1513,0,0
210,-489,0,0,0,0,0,0,0,0,0,-1,1434,1513,0,0
217,-489,0,0,0,0,0,0,0,0,0,-1,1441,1513,0,0
224,-489,0,0,0,0,0,0,0,0,0,-1,1448,1513,0,0
231,-489,0,0,0,0,0,0,0,0,0,-1,1455,1513,0,0
238,-489,0,0,0,0,0,0,0,0,0,-1,1462,1513,0,0
245,-489,0,0,0,0,0,0,0,0,0,-1,1469,1513,0,0
252,-489,0,0,0,0,0,0,0,0,0,-1,1476,1513,0,0
259,-489,0,0,0,0,0,0,0,0,0,-1,1483,1513,0,0
266,-489,0,0,0,0,0,0,0,0,0,-1,1490,1513,0,0
273,-489,0,0,0,0,0,0,0,0,0,-1,1497,1513,0,0
280,-489,0,0,0,0,0,0,0,0,0,-1,1504,1513,0,0
287,-489,0,0,0,0,0,0,0,0,0,-1,1511,1513,0,0
294,-489,0,0,0,0,0,0,0,0,0,-1,1518,1513,0,0
301,-489,0,0,0,0,0,0,0,0,0,-1,1525,1513,0,0
308,-489,0,0,0,0,0,0,0,0,0,-1,1532,1513,0,0
315,-489,0,0,0,0,0,0,0,0,0,-1,1539,1513,0,0
322,-489,0,0,0,0,0,0,0,0,0,-1,1546,1513,0,0
329,-489,0,0,0,0,0,0,0,0,0,-1,1553,1513,0,0
336,-489,0,0,0,0,0,0,0,0,0,-1,1560,1513,0,0
343,-489,0,0,0,0,0,0,0,0,0,-1,1567,1513,0,0
350,-489,0,0,0,0,0,0,0,0,0,-1,1574,1513,0,0
357,-489,0,0,0,0,0,0,0,0,0,-1,1581,1513,0,0
364,-489,0,0,0,0,0,0,0,0,0,-1,1588,1513,0,0
371,-489,0,0,0,0,0,0,0,0,0,-1,1595,1513,0,0
378,-489,0,0,0,0,0,0,0,0,0,-1,1602,1513,0,0
385,-489,0,0,0,0,0,0,0,0,0,-1,1609,1513,0,0
392,-489,0,0,0,0,0,0,0,0,0,-1,1616,1513,0,0
399,-489,0,0,0,0,0,0,0,0,0,-1,1623,1513,0,0
406,-489,0,0,0,0,0,0,0,0,0,-1,1630,1513,0,0
413,-489,0,0,0,0,0,0,0,0,0,-1,1637,1513,0,0
420,-489,0,0,0,0,0,0,0,0,0,-1,1644,1513,0,0
427,-489,0,0,0,0,0,0,0,0,0,-1,1651,1513,0,0
434,-489,0,0,0,0,0,0,0,0,0,-1,1658,1513,0,0
441,-489,11.4602,2.56787,0,0,0,0,0,0,0,-1,1665,1513,11.4602,-2.56786
448,-489,12.4425,1.72351,0,0,0,0,0,0,0,-1,1672,1513,12.4425,-1.72349
455,-489,12.5575,1.37463,0,0,0,0,0,0,0,-1,1679,1513,12.5575,-1.37469
462,-489,14.9784,3.84888,0,0,0,0,0,0,0,-1,1686,1513,14.9784,-3.84892
469,-489,15.1367,4.53101,0,0,0,0,0,0,0,-1,1693,1513,15.1368,-4.531
476,-489,15.5536,5.09338,0,0,0,0,0,0,0,-1,1700,1513,15.5536,-5.09339
483,-489,8.96912,8.37805,0,0,0,0,0,0,0,-1,1707,1513,8.96909,-8.37809
490,-489,10.5366,7.49561,0,0,0,0,0,0,0,-1,1714,1513,10.5367,-7.49558
497,-489,14.6051,11.8397,0,0,0,0,0,0,0,-1,1721,1513,14.6051,-11.8397
504,-489,16.7527,14.1735,0,0,0,0,0,0,0,-1,1728,1513,16.7527,-14.1735
511,-489,15.4724,14.4093,0,0,0,0,0,0,0,-1,1735,1513,15.4724,-14.4093
518,-489,14.192,14.6451,0,0,0,0,0,0,0,-1,1742,1513,14.192,-14.6452
525,-489,14.7493,14.5214,0,0,0,0,0,0,0,-1,1749,1513,14.7492,-14.5213
532,-489,14.3494,14.0646,-0.0195871,-0.0119823,0.0134668,-0.00179136,-0.029778,0.922992,0.0192827,0.0384423,1756,1513,14.3494,-14.0646
539,-489,13.8356,13.7882,-0.0148612,-0.00899243,0.0104688,-0.00105451,-0.0227991,0.922041,0.0148604,0.018267,1763,1513,13.8356,-13.7882
546,-489,13.7471,13.568,-0.0109922,-0.0065689,0.00793264,-0.00054537,-0.0170157,0.921347,0.0111665,0.0120522,1770,1513,13.7471,-13.568
553,-489,13.7548,13.2362,-0.00785018,-0.00482078,0.00591955,-0.000225207,-0.0124457,0.910651,0.00822312,0.0144683,1777,1513,13.7547,-13.2362
560,-489,13.7625,12.9041,-0.0053292,-0.00330856,0.00424857,4.81694e-05,-0.00868592,0.902131,0.00580674,0.0126747,1784,1513,13.7624,-12.9041
567,-489,13.7808,12.6062,-0.00334246,-0.00217028,0.00289164,0.00019407,-0.00570681,0.885386,0.00387085,0.0144559,1791,1513,13.7808,-12.6061
574,-489,13.7477,12.3419,-0.00177825,-0.00131359,0.00180821,0.000277153,-0.00336899,0.849291,0.00234385,0.0145433,1798,1513,13.7477,-12.3419
581,-489,13.7548,12.0228,-0.000578517,-0.000678193,0.000997304,0.000370193,-0.0016269,0.760432,0.00122676,0.00989855,1805,1513,13.7548,-12.0228
588,-489,13.756,11.7191,0.000620056,-0.000290032,0.000278568,0.000698553,-0.000368528,0.274663,0.000625824,0.0119165,1812,1513,13.756,-11.7191
595,-489,13.7537,11.4011,0.00133735,-0.000287817,-5.46272e-05,0.00133919,-0.000289652,-0.0335627,0.00100338,0.0194869,1819,1513,13.7536,-11.4012
602,-489,13.7736,11.0774,0.00177156,-0.000571237,-9.59915e-05,0.00177549,-0.000575164,-0.0408817,0.0014149,0.0253463,1826,1513,13.7735,-11.0774
609,-489,13.7566,10.7777,0.00228912,-0.00105408,-6.62506e-05,0.00229043,-0.00105539,-0.0198062,0.00197509,0.0172099,1833,1513,13.7566,-10.7778
616,-489,13.7419,10.4688,0.00296775,-0.00194239,0.000106973,0.00297008,-0.00194472,0.0217724,0.00285807,0.0115537,1840,1513,13.7419,-10.4688
623,-489,13.7434,10.1571,0.00379606,-0.00300187,0.000477864,0.00382948,-0.0030353,0.0698378,0.00397222,0.0177899,1847,1513,13.7434,-10.1571
630,-489,13.76,9.8783,0.00463639,-0.00460739,0.00109212,0.00476367,-0.00473466,0.116018,0.00548387,0.0433413,1854,1513,13.76,-9.87833
637,-489,13.7509,9.70886,0,0,0,0,0,0,0,-1,1861,1513,13.7509,-9.70888
644,-489,9.67578,8.45874,0,0,0,0,0,0,0,-1,1868,1513,9.67576,-8.45879
651,-489,6.13818,6.85095,0,0,0,0,0,0,0,-1,1875,1513,6.13823,-6.85097
658,-489,5.43848,7.75513,0,0,0,0,0,0,0,-1,1882,1513,5.43844,-7.75509
665,-489,5.48438,8.59912,0,0,0,0,0,0,0,-1,1889,1513,5.48434,-8.59907
672,-489,0,0,0,0,0,0,0,0,0,-1,1896,1513,0,0
679,-489,0,0,0,0,0,0,0,0,0,-1,1903,1513,0,0
686,-489,0,0,0,0,0,0,0,0,0,-1,1910,1513,0,0
693,-489,0,0,0,0,0,0,0,0,0,-1,1917,1513,0,0
700,-489,0,0,0,0,0,0,0,0,0,-1,1924,1513,0,0
707,-489,0,0,0,0,0,0,0,0,0,-1,1931,1513,0,0
714,-489,0,0,0,0,0,0,0,0,0,-1,1938,1513,0,0
721,-489,0,0,0,0,0,0,0,0,0,-1,1945,1513,0,0
728,-489,0,0,0,0,0,0,0,0,0,-1,1952,1513,0,0
735,-489,0,0,0,0,0,0,0,0,0,-1,1959,1513,0,0
742,-489,0,0,0,0,0,0,0,0,0,-1,1966,1513,0,0
749,-489,0,0,0,0,0,0,0,0,0,-1,1973,1513,0,0
756,-489,0,0,0,0,0,0,0,0,0,-1,1980,1513,0,0
763,-489,0,0,0,0,0,0,0,0,0,-1,1987,1513,0,0
770,-489,0,0,0,0,0,0,0,0,0,-1,1994,1513,0,0
777,-489,0,0,0,0,0,0,0,0,0,-1,2001,1513,0,0
784,-489,0,0,0,0,0,0,0,0,0,-1,2008,1513,0,0
791,-489,0,0,0,0,0,0,0,0,0,-1,2015,1513,0,0
798,-489,0,0,0,0,0,0,0,0,0,-1,2022,1513,0,0
805,-489,0,0,0,0,0,0,0,0,0,-1,2029,1513,0,0
812,-489,0,0,0,0,0,0,0,0,0,-1,2036,1513,0,0
-700,-496,0,0,0,0,0,0,0,0,0,-1,524,1520,0,0
-693,-496,0,0,0,0,0,0,0,0,0,-1,531,1520,0,0
-686,-496,0,0,0,0,0,0,0,0,0,-1,538,1520,0,0
-679,-496,0,0,0,0,0,0,0,0,0,-1,545,1520,0,0
-672,-496,0,0,0,0,0,0,0,0,0,-1,552,1520,0,0
-665,-496,0,0,0,0,0,0,0,0,0,-1,559,1520,0,0
-658,-496,0,0,0,0,0,0,0,0,0,-1,566,1520,0,0
-651,-496,0,0,0,0,0,0,0,0,0,-1,573,1520,0,0
-644,-496,0,0,0,0,0,0,0,0,0,-1,580,1520,0,0
-637,-496,0,0,0,0,0,0,0,0,0,-1,587,1520,0,0
-630,-496,0,0,0,0,0,0,0,0,0,-1,594,1520,0,0
-623,-496,0,0,0,0,0,0,0,0,0,-1,601,1520,0,0
-616,-496,0,0,0,0,0,0,0,0,0,-1,608,1520,0,0
-609,-496,0,0,0,0,0,0,0,0,0,-1,615,1520,0,0
-602,-496,0,0,0,0,0,0,0,0,0,-1,622,1520,0,0
-595,-496,0,0,0,0,0,0,0,0,0,-1,629,1520,0,0
-588,-496,0,0,0,0,0,0,0,0,0,-1,636,1520,0,0
-581,-496,0,0,0,0,0,0,0,0,0,-1,643,1520,0,0
-574,-496,0,0,0,0,0,0,0,0,0,-1,650,1520,0,0
-567,-496,0,0,0,0,0,0,0,0,0,-1,657,1520,0,0
-560,-496,0,0,0,0,0,0,0,0,0,-1,664,1520,0,0
-553,-496,0,0,0,0,0,0,0,0,0,-1,671,1520,0,0
-546,-496,-8.09711,7.94836,0,0,0,0,0,0,0,-1,678,1520,-8.09712,-7.94842
-539,-496,-4.26093,4.82874,0,0,0,0,0,0,0,-1,685,1520,-4.26095,-4.82876
-532,-496,-3.79547,5.23181,0,0,0,0,0,0,0,-1,692,1520,-3.79546,-5.23176
-525,-496,-0.927429,1.61951,0,0,0,0,0,0,0,-1,699,1520,-0.927419,-1.6195
-518,-496,0.177307,2.38354,0,0,0,0,0,0,0,-1,706,1520,0.17731,-2.38352
-511,-496,-2.39545,6.6283,0,0,0,0,0,0,0,-1,713,1520,-2.39546,-6.62834
-504,-496,-2.3501,8.04761,0,0,0,0,0,0,0,-1,720,1520,-2.35009,-8.0476
-497,-496,-2.2019,8.36292,0.00825223,0.00747433,0.012744,0.0206132,-0.00488665,0.770143,0.0156278,0.0490312,727,1520,-2.20192,-8.36297
-490,-496,-2.09949,8.68433,0.00518691,0.00350407,0.0076552,0.0120468,-0.00335581,0.73066,0.00935268,0.0386471,734,1520,-2.0995,-8.6843
-483,-496,-2.16937,8.85034,0.00332862,0.00126373,0.00450769,0.00692059,-0.00232824,0.67282,0.0055549,0.0218095,741,1520,-2.1694,-8.85035
-476,-496,-2.22845,9.09155,0.00220425,5.67533e-05,0.00255632,0.00390317,-0.00164217,0.586568,0.00328911,0.0115823,748,1520,-2.22843,-9.09151
-469,-496,-2.23865,9.45142,0.00147896,-0.0011265,0.000926209,0.00177466,-0.0014222,0.309027,0.00184944,0.00978233,755,1520,-2.23865,-9.45136
-462,-496,-2.23889,9.78906,0.00147824,-0.00109474,0.000383095,0.00153406,-0.00115057,0.144711,0.00155523,0.0140861,762,1520,-2.23892,-9.78912
-455,-496,-2.27032,10.1172,0.00180802,-0.000879837,0.000250812,0.00183122,-0.000903041,0.0922519,0.00160866,0.0199373,769,1520,-2.27031,-10.1171
-448,-496,-2.28094,10.4559,0.00232478,-0.000690181,0.000316131,0.00235757,-0.000722972,0.103356,0.00186014,0.0190249,776,1520,-2.28092,-10.4559
-441,-496,-2.24182,10.7813,0.00301207,-0.000319884,0.000568418,0.00310637,-0.000414185,0.164403,0.00222188,0.0146372,783,1520,-2.24182,-10.7812
-434,-496,-2.26404,11.1218,0.00394348,7.23897e-05,0.000914078,0.00414846,-0.000132596,0.220605,0.00281088,0.0137845,790,1520,-2.26402,-11.1218
-427,-496,-2.27301,11.4777,0.00502551,0.000562254,0.0013314,0.0053925,0.00019527,0.268959,0.00353171,0.018037,797,1520,-2.27302,-11.4776
-420,-496,-2.25299,11.7939,0.00622851,0.00110748,0.00189267,0.00685208,0.000483901,0.318268,0.0044156,0.0197962,804,1520,-2.25302,-11.7939
-413,-496,-2.20715,12.1498,0.00791448,0.0019076,0.00287193,0.0090666,0.000755487,0.38151,0.00580897,0.0214427,811,1520,-2.20718,-12.1497
-406,-496,-2.10461,12.6304,0,0,0,0,0,0,0,-1,818,1520,-2.10464,-12.6304
-399,-496,-1.82587,13.126,0,0,0,0,0,0,0,-1,825,1520,-1.82586,-13.1259
-392,-496,-1.49786,12.387,0,0,0,0,0,0,0,-1,832,1520,-1.49788,-12.387
-385,-496,-1.72437,11.4985,0,0,0,0,0,0,0,-1,839,1520,-1.72436,-11.4985
-378,-496,-1.45532,14.0719,0,0,0,0,0,0,0,-1,846,1520,-1.45533,-14.0719
-371,-496,0.0877075,12.5299,0,0,0,0,0,0,0,-1,853,1520,0.0876896,-12.5299
-364,-496,0.0881348,10.6422,0,0,0,0,0,0,0,-1,860,1520,0.0881368,-10.6423
-357,-496,0.323792,7.56812,0,0,0,0,0,0,0,-1,867,1520,0.323782,-7.56806
-350,-496,2.1535,7.18945,0,0,0,0,0,0,0,-1,874,1520,2.15348,-7.1894
-343,-496,-7.56244,0.335327,0,0,0,0,0,0,0,-1,881,1520,-7.56242,-0.335322
-336,-496,-3.99249,6.02222,0,0,0,0,0,0,0,-1,888,1520,-3.99246,-6.0222
-329,-496,-6.93689,-0.100342,0,0,0,0,0,0,0,-1,895,1520,-6.93686,0.1003
-322,-496,-6.17505,0.494385,0,0,0,0,0,0,0,-1,902,1520,-6.17507,-0.49437
-315,-496,-5.46338,1.0459,0,0,0,0,0,0,0,-1,909,1520,-5.46338,-1.04587
-308,-496,0,0,0,0,0,0,0,0,0,-1,916,1520,0,0
-301,-496,0,0,0,0,0,0,0,0,0,-1,923,1520,0,0
-294,-496,0,0,0,0,0,0,0,0,0,-1,930,1520,0,0
-287,-496,0,0,0,0,0,0,0,0,0,-1,937,1520,0,0
-280,-496,0,0,0,0,0,0,0,0,0,-1,944,1520,0,0
-273,-496,0,0,0,0,0,0,0,0,0,-1,951,1520,0,0
-266,-496,0,0,0,0,0,0,0,0,0,-1,958,1520,0,0
-259,-496,0,0,0,0,0,0,0,0,0,-1,965,1520,0,0
-252,-496,0,0,0,0,0,0,0,0,0,-1,972,1520,0,0
-245,-496,0,0,0,0,0,0,0,0,0,-1,979,1520,0,0
-238,-496,0,0,0,0,0,0,0,0,0,-1,986,1520,0,0
-231,-496,0,0,0,0,0,0,0,0,0,-1,993,1520,0,0
-224,-496,0,0,0,0,0,0,0,0,0,-1,1000,1520,0,0
-217,-496,0,0,0,0,0,0,0,0,0,-1,1007,1520,0,0
-210,-496,0,0,0,0,0,0,0,0,0,-1,1014,1520,0,0
-203,-496,0,0,0,0,0,0,0,0,0,-1,1021,1520,0,0
-196,-496,0,0,0,0,0,0,0,0,0,-1,1028,1520,0,0
-189,-496,0,0,0,0,0,0,0,0,0,-1,1035,1520,0,0
-182,-496,0,0,0,0,0,0,0,0,0,-1,1042,1520,0,0
-175,-496,0,0,0,0,0,0,0,0,0,-1,1049,1520,0,0
-168,-496,0,0,0,0,0,0,0,0,0,-1,1056,1520,0,0
-161,-496,0,0,0,0,0,0,0,0,0,-1,1063,1520,0,0
-154,-496,0,0,0,0,0,0,0,0,0,-1,1070,1520,0,0
-147,-496,0,0,0,0,0,0,0,0,0,-1,1077,1520,0,0
-140,-496,0,0,0,0,0,0,0,0,0,-1,1084,1520,0,0
-133,-496,0,0,0,0,0,0,0,0,0,-1,1091,1520,0,0
-126,-496,0,0,0,0,0,0,0,0,0,-1,1098,1520,0,0
-119,-496,0,0,0,0,0,0,0,0,0,-1,1105,1520,0,0
-112,-496,0,0,0,0,0,0,0,0,0,-1,1112,1520,0,0
-105,-496,0,0,0,0,0,0,0,0,0,-1,1119,1520,0,0
-98,-496,0,0,0,0,0,0,0,0,0,-1,1126,1520,0,0
-91,-496,0,0,0,0,0,0,0,0,0,-1,1133,1520,0,0
-84,-496,0,0,0,0,0,0,0,0,0,-1,1140,1520,0,0
-77,-496,0,0,0,0,0,0,0,0,0,-1,1147,1520,0,0
-70,-496,0,0,0,0,0,0,0,0,0,-1,1154,1520,0,0
-63,-496,0,0,0,0,0,0,0,0,0,-1,1161,1520,0,0
-56,-496,0,0,0,0,0,0,0,0,0,-1,1168,1520,0,0
-49,-496,0,0,0,0,0,0,0,0,0,-1,1175,1520,0,0
-42,-496,0,0,0,0,0,0,0,0,0,-1,1182,1520,0,0
-35,-496,0,0,0,0,0,0,0,0,0,-1,1189,1520,0,0
-28,-496,0,0,0,0,0,0,0,0,0,-1,1196,1520,0,0
-21,-496,0,0,0,0,0,0,0,0,0,-1,1203,1520,0,0
-14,-496,0,0,0,0,0,0,0,0,0,-1,1210,1520,0,0
-7,-496,0,0,0,0,0,0,0,0,0,-1,1217,1520,0,0
0,-496,0,0,0,0,0,0,0,0,0,-1,1224,1520,0,0
7,-496,0,0,0,0,0,0,0,0,0,-1,1231,1520,0,0
14,-496,0,0,0,0,0,0,0,0,0,-1,1238,1520,0,0
21,-496,0,0,0,0,0,0,0,0,0,-1,1245,1520,0,0
28,-496,0,0,0,0,0,0,0,0,0,-1,1252,1520,0,0
35,-496,0,0,0,0,0,0,0,0,0,-1,1259,1520,0,0
42,-496,0,0,0,0,0,0,0,0,0,-1,1266,1520,0,0
49,-496,0,0,0,0,0,0,0,0,0,-1,1273,1520,0,0
56,-496,0,0,0,0,0,0,0,0,0,-1,1280,1520,0,0
63,-496,0,0,0,0,0,0,0,0,0,-1,1287,1520,0,0
70,-496,0,0,0,0,0,0,0,0,0,-1,1294,1520,0,0
77,-496,0,0,0,0,0,0,0,0,0,-1,1301,1520,0,0
84,-496,0,0,0,0,0,0,0,0,0,-1,1308,1520,0,0
91,-496,0,0,0,0,0,0,0,0,0,-1,1315,1520,0,0
98,-496,0,0,0,0,0,0,0,0,0,-1,1322,1520,0,0
105,-496,0,0,0,0,0,0,0,0,0,-1,1329,1520,0,0
112,-496,0,0,0,0,0,0,0,0,0,-1,1336,1520,0,0
119,-496,0,0,0,0,0,0,0,0,0,-1,1343,1520,0,0
126,-496,0,0,0,0,0,0,0,0,0,-1,1350,1520,0,0
133,-496,0,0,0,0,0,0,0,0,0,-1,1357,1520,0,0
140,-496,0,0,0,0,0,0,0,0,0,-1,1364,1520,0,0
147,-496,0,0,0,0,0,0,0,0,0,-1,1371,1520,0,0
154,-496,0,0,0,0,0,0,0,0,0,-1,1378,1520,0,0
161,-496,0,0,0,0,0,0,0,0,0,-1,1385,1520,0,0
168,-496,0,0,0,0,0,0,0,0,0,-1,1392,1520,0,0
175,-496,0,0,0,0,0,0,0,0,0,-1,1399,1520,0,0
182,-496,0,0,0,0,0,0,0,0,0,-1,1406,1520,0,0
189,-496,0,0,0,0,0,0,0,0,0,-1,1413,1520,0,0
196,-496,0,0,0,0,0,0,0,0,0,-1,1420,1520,0,0
203,-496,0,0,0,0,0,0,0,0,0,-1,1427,1520,0,0
210,-496,0,0,0,0,0,0,0,0,0,-1,1434,1520,0,0
217,-496,0,0,0,0,0,0,0,0,0,-1,1441,1520,0,0
224,-496,0,0,0,0,0,0,0,0,0,-1,1448,1520,0,0
231,-496,0,0,0,0,0,0,0,0,0,-1,1455,1520,0,0
238,-496,0,0,0,0,0,0,0,0,0,-1,1462,1520,0,0
245,-496,0,0,0,0,0,0,0,0,0,-1,1469,1520,0,0
252,-496,0,0,0,0,0,0,0,0,0,-1,1476,1520,0,0
259,-496,0,0,0,0,0,0,0,0,0,-1,1483,1520,0,0
266,-496,0,0,0,0,0,0,0,0,0,-1,1490,1520,0,0
273,-496,0,0,0,0,0,0,0,0,0,-1,1497,1520,0,0
280,-496,0,0,0,0,0,0,0,0,0,-1,1504,1520,0,0
287,-496,0,0,0,0,0,0,0,0,0,-1,1511,1520,0,0
294,-496,0,0,0,0,0,0,0,0,0,-1,1518,1520,0,0
301,-496,0,0,0,0,0,0,0,0,0,-1,1525,1520,0,0
308,-496,0,0,0,0,0,0,0,0,0,-1,1532,1520,0,0
315,-496,0,0,0,0,0,0,0,0,0,-1,1539,1520,0,0
322,-496,0,0,0,0,0,0,0,0,0,-1,1546,1520,0,0
329,-496,0,0,0,0,0,0,0,0,0,-1,1553,1520,0,0
336,-496,0,0,0,0,0,0,0,0,0,-1,1560,1520,0,0
343,-496,0,0,0,0,0,0,0,0,0,-1,1567,1520,0,0
350,-496,0,0,0,0,0,0,0,0,0,-1,1574,1520,0,0
357,-496,0,0,0,0,0,0,0,0,0,-1,1581,1520,0,0
364,-496,0,0,0,0,0,0,0,0,0,-1,1588,1520,0,0
371,-496,0,0,0,0,0,0,0,0,0,-1,1595,1520,0,0
378,-496,0,0,0,0,0,0,0,0,0,-1,1602,1520,0,0
385,-496,0,0,0,0,0,0,0,0,0,-1,1609,1520,0,0
392,-496,0,0,0,0,0,0,0,0,0,-1,1616,1520,0,0
399,-496,0,0,0,0,0,0,0,0,0,-1,1623,1520,0,0
406,-496,0,0,0,0,0,0,0,0,0,-1,1630,1520,0,0
413,-496,0,0,0,0,0,0,0,0,0,-1,1637,1520,0,0
420,-496,0,0,0,0,0,0,0,0,0,-1,1644,1520,0,0
427,-496,0,0,0,0,0,0,0,0,0,-1,1651,1520,0,0
434,-496,11.0457,3.37732,0,0,0,0,0,0,0,-1,1658,1520,11.0456,-3.37736
441,-496,11.788,2.75488,0,0,0,0,0,0,0,-1,1665,1520,11.7879,-2.75485
448,-496,12.2146,2.18494,0,0,0,0,0,0,0,-1,1672,1520,12.2146,-2.18489
455,-496,12.3489,1.65173,0,0,0,0,0,0,0,-1,1679,1520,12.3489,-1.65178
462,-496,12.1912,1.32361,0,0,0,0,0,0,0,-1,1686,1520,12.1911,-1.32357
469,-496,14.8138,5.77954,0,0,0,0,0,0,0,-1,1693,1520,14.8138,-5.77958
476,-496,15.2449,6.27942,0,0,0,0,0,0,0,-1,1700,1520,15.2449,-6.27936
483,-496,9.19812,6.88367,0,0,0,0,0,0,0,-1,1707,1520,9.19812,-6.88361
490,-496,10.2123,7.97144,0,0,0,0,0,0,0,-1,1714,1520,10.2122,-7.97145
497,-496,13.9297,12.2981,0,0,0,0,0,0,0,-1,1721,1520,13.9297,-12.2982
504,-496,15.8406,14.1644,0,0,0,0,0,0,0,-1,1728,1520,15.8406,-14.1645
511,-496,14.6938,14.4333,0,0,0,0,0,0,0,-1,1735,1520,14.6938,-14.4333
518,-496,14.7561,14.1361,0,0,0,0,0,0,0,-1,1742,1520,14.7561,-14.1361
525,-496,13.715,14.4265,0,0,0,0,0,0,0,-1,1749,1520,13.7149,-14.4266
532,-496,13.4684,14.1156,-0.0146558,-0.00861373,0.010193,-0.00100347,-0.022266,0.929465,0.0145211,0.032595,1756,1520,13.4683,-14.1156
539,-496,13.4563,13.8505,-0.011154,-0.00638005,0.00792044,-0.00049472,-0.0170393,0.931754,0.0111983,0.0139573,1763,1520,13.4563,-13.8505
546,-496,13.4375,13.53,-0.00819285,-0.00454368,0.00593553,-0.000158623,-0.0125779,0.934515,0.0083329,0.0105106,1770,1520,13.4374,-13.53
553,-496,13.4766,13.2037,-0.00579085,-0.00326497,0.00440029,5.00376e-05,-0.00910586,0.925148,0.00608732,0.0157533,1777,1520,13.4765,-13.2038
560,-496,13.4696,12.9119,-0.00384497,-0.0021243,0.00309403,0.000226787,-0.00619605,0.921003,0.00420834,0.0148928,1784,1520,13.4696,-12.9118
567,-496,13.4738,12.6069,-0.00225533,-0.00129776,0.00201316,0.000292766,-0.00384586,0.902144,0.00266685,0.0118156,1791,1520,13.4737,-12.6069
574,-496,13.4684,12.3052,-0.000940408,-0.000639904,0.0011099,0.000329865,-0.00191018,0.852676,0.00139645,0.0119927,1798,1520,13.4684,-12.3052
581,-496,13.4547,12.0199,9.57589e-05,-0.000141898,0.000434447,0.000427335,-0.000473474,0.651905,0.000520309,0.0117417,1805,1520,13.4547,-12.0199
588,-496,13.4485,11.7302,0.00106995,3.06673e-05,-0.000122219,0.00108413,1.6488e-05,-0.115499,0.000717323,0.0136284,1812,1520,13.4485,-11.7303
595,-496,13.4414,11.4454,0.00169098,-3.84243e-05,-0.000367025,0.00176565,-0.000113093,-0.200703,0.00121655,0.0157708,1819,1520,13.4414,-11.4454
602,-496,13.4502,11.1158,0.00215336,-0.000358954,-0.000382522,0.00221031,-0.000415905,-0.147798,0.00162996,0.0177783,1826,1520,13.4503,-11.1158
609,-496,13.4521,10.7941,0.00270489,-0.000910523,-0.000344851,0.00273749,-0.000943122,-0.0942511,0.00220758,0.0150836,1833,1520,13.4521,-10.794
616,-496,13.4626,10.4419,0.00349355,-0.00186081,-0.000175601,0.00349931,-0.00186656,-0.0327489,0.00314543,0.0169591,1840,1520,13.4626,-10.4419
623,-496,13.4603,10.1639,0.00449184,-0.00294636,0.000207689,0.00449764,-0.00295215,0.027893,0.00433188,0.0310094,1847,1520,13.4603,-10.164
630,-496,13.5449,9.87732,0,0,0,0,0,0,0,-1,1854,1520,13.5449,-9.87726
637,-496,12.0918,9.79541,0,0,0,0,0,0,0,-1,1861,1520,12.0917,-9.79537
644,-496,12.4537,10.087,0,0,0,0,0,0,0,-1,1868,1520,12.4537,-10.0871
651,-496,8.18506,5.47803,0,0,0,0,0,0,0,-1,1875,1520,8.18505,-5.47806
658,-496,7.79993,4.02563,0,0,0,0,0,0,0,-1,1882,1520,7.79997,-4.02568
665,-496,5.47583,7.90625,0,0,0,0,0,0,0,-1,1889,1520,5.47581,-7.90628
672,-496,0,0,0,0,0,0,0,0,0,-1,1896,1520,0,0
679,-496,0,0,0,0,0,0,0,0,0,-1,1903,1520,0,0
686,-496,0,0,0,0,0,0,0,0,0,-1,1910,1520,0,0
693,-496,0,0,0,0,0,0,0,0,0,-1,1917,1520,0,0
700,-496,0,0,0,0,0,0,0,0,0,-1,1924,1520,0,0
707,-496,0,0,0,0,0,0,0,0,0,-1,1931,1520,0,0
714,-496,0,0,0,0,0,0,0,0,0,-1,1938,1520,0,0
721,-496,0,0,0,0,0,0,0,0,0,-1,1945,1520,0,0
728,-496,0,0,0,0,0,0,0,0,0,-1,1952,1520,0,0
735,-496,0,0,0,0,0,0,0,0,0,-1,1959,1520,0,0
742,-496,0,0,0,0,0,0,0,0,0,-1,1966,1520,0,0
749,-496,0,0,0,0,0,0,0,0,0,-1,1973,1520,0,0
756,-496,0,0,0,0,0,0,0,0,0,-1,1980,1520,0,0
763,-496,0,0,0,0,0,0,0,0,0,-1,1987,1520,0,0
770,-496,0,0,0,0,0,0,0,0,0,-1,1994,1520,0,0
777,-496,0,0,0,0,0,0,0,0,0,-1,2001,1520,0,0
784,-496,0,0,0,0,0,0,0,0,0,-1,2008,1520,0,0
791,-496,0,0,0,0,0,0,0,0,0,-1,2015,1520,0,0
798,-496,0,0,0,0,0,0,0,0,0,-1,2022,1520,0,0
805,-496,0,0,0,0,0,0,0,0,0,-1,2029,1520,0,0
812,-496,0,0,0,0,0,0,0,0,0,-1,2036,1520,0,0
-700,-503,0,0,0,0,0,0,0,0,0,-1,524,1527,0,0
-693,-503,0,0,0,0,0,0,0,0,0,-1,531,1527,0,0
-686,-503,0,0,0,0,0,0,0,0,0,-1,538,1527,0,0
-679,-503,0,0,0,0,0,0,0,0,0,-1,545,1527,0,0
-672,-503,0,0,0,0,0,0,0,0,0,-1,552,1527,0,0
-665,-503,0,0,0,0,0,0,0,0,0,-1,559,1527,0,0
-658,-503,0,0,0,0,0,0,0,0,0,-1,566,1527,0,0
-651,-503,0,0,0,0,0,0,0,0,0,-1,573,1527,0,0
-644,-503,0,0,0,0,0,0,0,0,0,-1,580,1527,0,0
-637,-503,0,0,0,0,0,0,0,0,0,-1,587,1527,0,0
-630,-503,0,0,0,0,0,0,0,0,0,-1,594,1527,0,0
-623,-503,0,0,0,0,0,0,0,0,0,-1,601,1527,0,0
-616,-503,0,0,0,0,0,0,0,0,0,-1,608,1527,0,0
-609,-503,0,0,0,0,0,0,0,0,0,-1,615,1527,0,0
-602,-503,0,0,0,0,0,0,0,0,0,-1,622,1527,0,0
-595,-503,0,0,0,0,0,0,0,0,0,-1,629,1527,0,0
-588,-503,0,0,0,0,0,0,0,0,0,-1,636,1527,0,0
-581,-503,0,0,0,0,0,0,0,0,0,-1,643,1527,0,0
-574,-503,0,0,0,0,0,0,0,0,0,-1,650,1527,0,0
-567,-503,0,0,0,0,0,0,0,0,0,-1,657,1527,0,0
-560,-503,0,0,0,0,0,0,0,0,0,-1,664,1527,0,0
-553,-503,0,0,0,0,0,0,0,0,0,-1,671,1527,0,0
-546,-503,0,0,0,0,0,0,0,0,0,-1,678,1527,0,0
-539,-503,3.50177,4.26428,0,0,0,0,0,0,0,-1,685,1527,3.50177,-4.26424
-532,-503,-3.82953,4.00415,0,0,0,0,0,0,0,-1,692,1527,-3.8295,-4.00421
-525,-503,-3.59369,5.18848,0,0,0,0,0,0,0,-1,699,1527,-3.59372,-5.18853
-518,-503,-2.90955,5.35535,0,0,0,0,0,0,0,-1,706,1527,-2.90955,-5.35529
-511,-503,-2.3197,6.2074,0,0,0,0,0,0,0,-1,713,1527,-2.31969,-6.2074
-504,-503,-1.9826,8.06006,0,0,0,0,0,0,0,-1,720,1527,-1.98262,-8.06012
-497,-503,-1.77692,8.60449,0.0086974,0.00599959,0.012282,0.0197043,-0.00500734,0.730703,0.0150849,0.0485877,727,1527,-1.77694,-8.6045
-490,-503,-1.69995,8.83533,0.00566196,0.00257002,0.0075088,0.0117823,-0.0035503,0.683873,0.0092678,0.0463945,734,1527,-1.69992,-8.83535
-483,-503,-1.72394,8.97388,0.00381163,0.000722546,0.00457293,0.00709381,-0.00255964,0.622535,0.00577472,0.0391008,741,1527,-1.72396,-8.97391
-476,-503,-1.79803,9.17053,0.00271448,-6.9147e-05,0.00284389,0.00448887,-0.00184354,0.55783,0.00376085,0.0206412,748,1527,-1.79806,-9.17051
-469,-503,-1.88483,9.47021,0.00185689,-0.00100868,0.00130776,0.00236398,-0.00151577,0.369905,0.00225775,0.0102004,755,1527,-1.8848,-9.47027
-462,-503,-1.89679,9.82288,0.00163734,-0.000932606,0.00074015,0.00183526,-0.00113053,0.261294,0.00172834,0.0110757,762,1527,-1.8968,-9.82284
-455,-503,-1.91589,10.1609,0.0017689,-0.000709181,0.000530716,0.00187777,-0.000818058,0.202343,0.00159602,0.0169944,769,1527,-1.91589,-10.1609
-448,-503,-1.91083,10.4932,0.00206846,-0.000535781,0.000500102,0.00216119,-0.000628516,0.183348,0.00168972,0.016535,776,1527,-1.91084,-10.4932
-441,-503,-1.88666,10.804,0.00252288,-0.000171378,0.000669488,0.00268007,-0.000328566,0.230612,0.0019057,0.0137215,783,1527,-1.88664,-10.8039
-434,-503,-1.91516,11.1208,0.00322226,0.000234554,0.000951248,0.00349941,-4.26011e-05,0.283511,0.00234727,0.0112199,790,1527,-1.91513,-11.1209
-427,-503,-1.97327,11.4478,0.00409587,0.000684086,0.00132139,0.00454779,0.000232168,0.329531,0.00295751,0.0168495,797,1527,-1.97325,-11.4478
-420,-503,-1.92371,11.7936,0.00507733,0.00126147,0.00180599,0.00579652,0.000542269,0.378979,0.00369687,0.0190766,804,1527,-1.92368,-11.7936
-413,-503,-1.9248,12.1281,0.00641913,0.0020348,0.00263661,0.00765586,0.000798072,0.43859,0.00485978,0.0166377,811,1527,-1.92478,-12.128
-406,-503,-1.90216,12.4579,0.00791435,0.00300539,0.00357285,0.00979459,0.00112516,0.484431,0.00618886,0.0181741,818,1527,-1.90214,-12.4579
-399,-503,-1.77673,12.901,0.00961268,0.0044206,0.00457061,0.0122731,0.00176022,0.527125,0.00766298,0.0281997,825,1527,-1.77676,-12.9011
-392,-503,-1.52393,13.4923,0,0,0,0,0,0,0,-1,832,1527,-1.52395,-13.4923
-385,-503,-1.93036,13.4369,0,0,0,0,0,0,0,-1,839,1527,-1.93037,-13.4369
-378,-503,-1.77576,13.191,0,0,0,0,0,0,0,-1,846,1527,-1.77577,-13.1911
-371,-503,-1.67285,13.8081,0,0,0,0,0,0,0,-1,853,1527,-1.67285,-13.8081
-364,-503,0.181396,12.3768,0,0,0,0,0,0,0,-1,860,1527,0.18138,-12.3768
-357,-503,0.558533,9.25452,0,0,0,0,0,0,0,-1,867,1527,0.558542,-9.25446
-350,-503,0.219971,6.84827,0,0,0,0,0,0,0,-1,874,1527,0.21996,-6.84831
-343,-503,-3.5802,4.43274,0,0,0,0,0,0,0,-1,881,1527,-3.58018,-4.43276
-336,-503,-3.2384,6.40637,0,0,0,0,0,0,0,-1,888,1527,-3.2384,-6.40643
-329,-503,-1.70691,11.886,0,0,0,0,0,0,0,-1,895,1527,-1.70689,-11.886
-322,-503,-3.31317,8.81519,0,0,0,0,0,0,0,-1,902,1527,-3.31315,-8.81524
-315,-503,-3.90265,7.73853,0,0,0,0,0,0,0,-1,909,1527,-3.90264,-7.73854
-308,-503,-2.56158,7.59265,0,0,0,0,0,0,0,-1,916,1527,-2.56158,-7.59265
-301,-503,0,0,0,0,0,0,0,0,0,-1,923,1527,0,0
-294,-503,0,0,0,0,0,0,0,0,0,-1,930,1527,0,0
-287,-503,0,0,0,0,0,0,0,0,0,-1,937,1527,0,0
-280,-503,0,0,0,0,0,0,0,0,0,-1,944,1527,0,0
-273,-503,0,0,0,0,0,0,0,0,0,-1,951,1527,0,0
-266,-503,0,0,0,0,0,0,0,0,0,-1,958,1527,0,0
-259,-503,0,0,0,0,0,0,0,0,0,-1,965,1527,0,0
-252,-503,0,0,0,0,0,0,0,0,0,-1,972,1527,0,0
-245,-503,0,0,0,0,0,0,0,0,0,-1,979,1527,0,0
-238,-503,0,0,0,0,0,0,0,0,0,-1,986,1527,0,0
-231,-503,0,0,0,0,0,0,0,0,0,-1,993,1527,0,0
-224,-503,0,0,0,0,0,0,0,0,0,-1,1000,1527,0,0
-217,-503,0,0,0,0,0,0,0,0,0,-1,1007,1527,0,0
-210,-503,0,0,0,0,0,0,0,0,0,-1,1014,1527,0,0
-203,-503,0,0,0,0,0,0,0,0,0,-1,1021,1527,0,0
-196,-503,0,0,0,0,0,0,0,0,0,-1,1028,1527,0,0
-189,-503,0,0,0,0,0,0,0,0,0,-1,1035,1527,0,0
-182,-503,0,0,0,0,0,0,0,0,0,-1,1042,1527,0,0
-175,-503,0,0,0,0,0,0,0,0,0,-1,1049,1527,0,0
-168,-503,0,0,0,0,0,0,0,0,0,-1,1056,1527,0,0
-161,-503,0,0,0,0,0,0,0,0,0,-1,1063,1527,0,0
-154,-503,0,0,0,0,0,0,0,0,0,-1,1070,1527,0,0
-147,-503,0,0,0,0,0,0,0,0,0,-1,1077,1527,0,0
-140,-503,0,0,0,0,0,0,0,0,0,-1,1084,1527,0,0
-133,-503,0,0,0,0,0,0,0,0,0,-1,1091,1527,0,0
-126,-503,0,0,0,0,0,0,0,0,0,-1,1098,1527,0,0
-119,-503,0,0,0,0,0,0,0,0,0,-1,1105,1527,0,0
-112,-503,0,0,0,0,0,0,0,0,0,-1,1112,1527,0,0
-105,-503,0,0,0,0,0,0,0,0,0,-1,1119,1527,0,0
-98,-503,0,0,0,0,0,0,0,0,0,-1,1126,1527,0,0
-91,-503,0,0,0,0,0,0,0,0,0,-1,1133,1527,0,0
-84,-503,0,0,0,0,0,0,0,0,0,-1,1140,1527,0,0
-77,-503,0,0,0,0,0,0,0,0,0,-1,1147,1527,0,0
-70,-503,0,0,0,0,0,0,0,0,0,-1,1154,1527,0,0
-63,-503,0,0,0,0,0,0,0,0,0,-1,1161,1527,0,0
-56,-503,0,0,0,0,0,0,0,0,0,-1,1168,1527,0,0
-49,-503,0,0,0,0,0,0,0,0,0,-1,1175,1527,0,0
-42,-503,0,0,0,0,0,0,0,0,0,-1,1182,1527,0,0
-35,-503,0,0,0,0,0,0,0,0,0,-1,1189,1527,0,0
-28,-503,0,0,0,0,0,0,0,0,0,-1,1196,1527,0,0
-21,-503,0,0,0,0,0,0,0,0,0,-1,1203,1527,0,0
-14,-503,0,0,0,0,0,0,0,0,0,-1,1210,1527,0,0
-7,-503,0,0,0,0,0,0,0,0,0,-1,1217,1527,0,0
0,-503,0,0,0,0,0,0,0,0,0,-1,1224,1527,0,0
7,-503,0,0,0,0,0,0,0,0,0,-1,1231,1527,0,0
14,-503,0,0,0,0,0,0,0,0,0,-1,1238,1527,0,0
21,-503,0,0,0,0,0,0,0,0,0,-1,1245,1527,0,0
28,-503,0,0,0,0,0,0,0,0,0,-1,1252,1527,0,0
35,-503,0,0,0,0,0,0,0,0,0,-1,1259,1527,0,0
42,-503,0,0,0,0,0,0,0,0,0,-1,1266,1527,0,0
49,-503,0,0,0,0,0,0,0,0,0,-1,1273,1527,0,0
56,-503,0,0,0,0,0,0,0,0,0,-1,1280,1527,0,0
63,-503,0,0,0,0,0,0,0,0,0,-1,1287,1527,0,0
70,-503,0,0,0,0,0,0,0,0,0,-1,1294,1527,0,0
77,-503,0,0,0,0,0,0,0,0,0,-1,1301,1527,0,0
84,-503,0,0,0,0,0,0,0,0,0,-1,1308,1527,0,0
91,-503,0,0,0,0,0,0,0,0,0,-1,1315,1527,0,0
98,-503,0,0,0,0,0,0,0,0,0,-1,1322,1527,0,0
105,-503,0,0,0,0,0,0,0,0,0,-1,1329,1527,0,0
112,-503,0,0,0,0,0,0,0,0,0,-1,1336,1527,0,0
119,-503,0,0,0,0,0,0,0,0,0,-1,1343,1527,0,0
126,-503,0,0,0,0,0,0,0,0,0,-1,1350,1527,0,0
133,-503,0,0,0,0,0,0,0,0,0,-1,1357,1527,0,0
140,-503,0,0,0,0,0,0,0,0,0,-1,1364,1527,0,0
147,-503,0,0,0,0,0,0,0,0,0,-1,1371,1527,0,0
154,-503,0,0,0,0,0,0,0,0,0,-1,1378,1527,0,0
161,-503,0,0,0,0,0,0,0,0,0,-1,1385,1527,0,0
168,-503,0,0,0,0,0,0,0,0,0,-1,1392,1527,0,0
175,-503,0,0,0,0,0,0,0,0,0,-1,1399,1527,0,0
182,-503,0,0,0,0,0,0,0,0,0,-1,1406,1527,0,0
189,-503,0,0,0,0,0,0,0,0,0,-1,1413,1527,0,0
196,-503,0,0,0,0,0,0,0,0,0,-1,1420,1527,0,0
203,-503,0,0,0,0,0,0,0,0,0,-1,1427,1527,0,0
210,-503,0,0,0,0,0,0,0,0,0,-1,1434,1527,0,0
217,-503,0,0,0,0,0,0,0,0,0,-1,1441,1527,0,0
224,-503,0,0,0,0,0,0,0,0,0,-1,1448,1527,0,0
231,-503,0,0,0,0,0,0,0,0,0,-1,1455,1527,0,0
238,-503,0,0,0,0,0,0,0,0,0,-1,1462,1527,0,0
245,-503,0,0,0,0,0,0,0,0,0,-1,1469,1527,0,0
252,-503,0,0,0,0,0,0,0,0,0,-1,1476,1527,0,0
259,-503,0,0,0,0,0,0,0,0,0,-1,1483,1527,0,0
266,-503,0,0,0,0,0,0,0,0,0,-1,1490,1527,0,0
273,-503,0,0,0,0,0,0,0,0,0,-1,1497,1527,0,0
280,-503,0,0,0,0,0,0,0,0,0,-1,1504,1527,0,0
287,-503,0,0,0,0,0,0,0,0,0,-1,1511,1527,0,0
294,-503,0,0,0,0,0,0,0,0,0,-1,1518,1527,0,0
301,-503,0,0,0,0,0,0,0,0,0,-1,1525,1527,0,0
308,-503,0,0,0,0,0,0,0,0,0,-1,1532,1527,0,0
315,-503,0,0,0,0,0,0,0,0,0,-1,1539,1527,0,0
322,-503,0,0,0,0,0,0,0,0,0,-1,1546,1527,0,0
329,-503,0,0,0,0,0,0,0,0,0,-1,1553,1527,0,0
336,-503,0,0,0,0,0,0,0,0,0,-1,1560,1527,0,0
343,-503,0,0,0,0,0,0,0,0,0,-1,1567,1527,0,0
350,-503,0,0,0,0,0,0,0,0,0,-1,1574,1527,0,0
357,-503,0,0,0,0,0,0,0,0,0,-1,1581,1527,0,0
364,-503,0,0,0,0,0,0,0,0,0,-1,1588,1527,0,0
371,-503,0,0,0,0,0,0,0,0,0,-1,1595,1527,0,0
378,-503,0,0,0,0,0,0,0,0,0,-1,1602,1527,0,0
385,-503,0,0,0,0,0,0,0,0,0,-1,1609,1527,0,0
392,-503,0,0,0,0,0,0,0,0,0,-1,1616,1527,0,0
399,-503,0,0,0,0,0,0,0,0,0,-1,1623,1527,0,0
406,-503,0,0,0,0,0,0,0,0,0,-1,1630,1527,0,0
413,-503,0,0,0,0,0,0,0,0,0,-1,1637,1527,0,0
420,-503,0,0,0,0,0,0,0,0,0,-1,1644,1527,0,0
427,-503,10.5968,4.9856,0,0,0,0,0,0,0,-1,1651,1527,10.5969,-4.98563
434,-503,11.4329,3.97217,0,0,0,0,0,0,0,-1,1658,1527,11.4328,-3.97222
441,-503,12.0957,2.96509,0,0,0,0,0,0,0,-1,1665,1527,12.0957,-2.96512
448,-503,12.3259,2.53894,0,0,0,0,0,0,0,-1,1672,1527,12.326,-2.53895
455,-503,12.1669,2.18762,0,0,0,0,0,0,0,-1,1679,1527,12.1668,-2.18767
462,-503,11.59,2.60791,0,0,0,0,0,0,0,-1,1686,1527,11.5899,-2.60794
469,-503,11.1625,1.61853,0,0,0,0,0,0,0,-1,1693,1527,11.1625,-1.61856
476,-503,9.07703,5.81042,0,0,0,0,0,0,0,-1,1700,1527,9.07699,-5.81047
483,-503,9.74414,6.92432,0,0,0,0,0,0,0,-1,1707,1527,9.74417,-6.9243
490,-503,10.5033,10.1071,0,0,0,0,0,0,0,-1,1714,1527,10.5032,-10.107
497,-503,14.8051,15.1757,0,0,0,0,0,0,0,-1,1721,1527,14.8051,-15.1756
504,-503,14.8186,14.4866,0,0,0,0,0,0,0,-1,1728,1527,14.8186,-14.4866
511,-503,14.8322,13.7975,0,0,0,0,0,0,0,-1,1735,1527,14.8322,-13.7975
518,-503,13.5298,14.8,0,0,0,0,0,0,0,-1,1742,1527,13.5297,-14.8001
525,-503,13.2727,14.399,0,0,0,0,0,0,0,-1,1749,1527,13.2727,-14.399
532,-503,13.0156,13.998,0,0,0,0,0,0,0,-1,1756,1527,13.0157,-13.998
539,-503,13.1464,13.8411,-0.00796698,-0.00427863,0.00575108,-8.3277e-05,-0.0121623,0.940552,0.0080806,0.011948,1763,1527,13.1464,-13.8411
546,-503,13.1534,13.5168,-0.00566999,-0.00288364,0.00416914,0.000118937,-0.00867256,0.946647,0.00582176,0.0112058,1770,1527,13.1535,-13.5169
553,-503,13.1615,13.2285,-0.00383153,-0.00195678,0.00300473,0.000253396,-0.00604171,0.936598,0.00411487,0.0142333,1777,1527,13.1615,-13.2285
560,-503,13.1403,12.9371,-0.00234149,-0.00110502,0.00199554,0.000365864,-0.00381237,0.935613,0.0026719,0.0139825,1784,1527,13.1403,-12.9371
567,-503,13.1597,12.6079,-0.00108265,-0.000524318,0.00115077,0.000380666,-0.00198763,0.904394,0.00146852,0.0119966,1791,1527,13.1597,-12.6079
574,-503,13.1639,12.3046,1.05971e-05,-1.50321e-05,0.000400596,0.000398583,-0.000403018,0.769409,0.000462807,0.0127076,1798,1527,13.1639,-12.3046
581,-503,13.1277,12.0188,0.000883938,0.000389309,-0.000155953,0.000929003,0.000344244,-0.281303,0.000542319,0.0133332,1805,1527,13.1277,-12.0189
588,-503,13.1255,11.7257,0.00160208,0.000398689,-0.0005485,0.00181456,0.000186203,-0.369592,0.00115266,0.0157456,1812,1527,13.1255,-11.7257
595,-503,13.1361,11.4314,0.00207882,0.0003074,-0.000712211,0.00232965,5.6569e-05,-0.338622,0.00153459,0.0123776,1819,1527,13.1361,-11.4314
602,-503,13.1564,11.1034,0.00252675,1.9203e-05,-0.000725409,0.00272148,-0.000175529,-0.262261,0.00187557,0.0159367,1826,1527,13.1564,-11.1034
609,-503,13.2063,10.7502,0.00310338,-0.000544786,-0.000694894,0.00323126,-0.000672666,-0.181991,0.00240989,0.0267234,1833,1527,13.2063,-10.7503
616,-503,13.1034,10.6084,0.00405737,-0.00152863,-0.000589615,0.00411892,-0.00159019,-0.104025,0.00340223,0.0242674,1840,1527,13.1035,-10.6084
623,-503,13.2889,10.1383,0.00533366,-0.00260237,-0.000265463,0.00534253,-0.00261123,-0.0334006,0.00468149,0.036787,1847,1527,13.289,-10.1383
630,-503,13.6158,9.6908,0,0,0,0,0,0,0,-1,1854,1527,13.6158,-9.69079
637,-503,14.5564,9.20496,0,0,0,0,0,0,0,-1,1861,1527,14.5564,-9.2049
644,-503,11.4802,7.57214,0,0,0,0,0,0,0,-1,1868,1527,11.4802,-7.57215
651,-503,11.5718,6.5448,0,0,0,0,0,0,0,-1,1875,1527,11.5718,-6.54476
658,-503,8.25635,3.10498,0,0,0,0,0,0,0,-1,1882,1527,8.2563,-3.10493
665,-503,0,0,0,0,0,0,0,0,0,-1,1889,1527,0,0
672,-503,0,0,0,0,0,0,0,0,0,-1,1896,1527,0,0
679,-503,0,0,0,0,0,0,0,0,0,-1,1903,1527,0,0
686,-503,0,0,0,0,0,0,0,0,0,-1,1910,1527,0,0
693,-503,0,0,0,0,0,0,0,0,0,-1,1917,1527,0,0
700,-503,0,0,0,0,0,0,0,0,0,-1,1924,1527,0,0
707,-503,0,0,0,0,0,0,0,0,0,-1,1931,1527,0,0
714,-503,0,0,0,0,0,0,0,0,0,-1,1938,1527,0,0
721,-503,0,0,0,0,0,0,0,0,0,-1,1945,1527,0,0
728,-503,0,0,0,0,0,0,0,0,0,-1,1952,1527,0,0
735,-503,0,0,0,0,0,0,0,0,0,-1,1959,1527,0,0
742,-503,0,0,0,0,0,0,0,0,0,-1,1966,1527,0,0
749,-503,0,0,0,0,0,0,0,0,0,-1,1973,1527,0,0
756,-503,0,0,0,0,0,0,0,0,0,-1,1980,1527,0,0
763,-503,0,0,0,0,0,0,0,0,0,-1,1987,1527,0,0
770,-503,0,0,0,0,0,0,0,0,0,-1,1994,1527,0,0
777,-503,0,0,0,0,0,0,0,0,0,-1,2001,1527,0,0
784,-503,0,0,0,0,0,0,0,0,0,-1,2008,1527,0,0
791,-503,0,0,0,0,0,0,0,0,0,-1,2015,1527,0,0
798,-503,0,0,0,0,0,0,0,0,0,-1,2022,1527,0,0
805,-503,0,0,0,0,0,0,0,0,0,-1,2029,1527,0,0
812,-503,0,0,0,0,0,0,0,0,0,-1,2036,1527,0,0
-700,-510,0,0,0,0,0,0,0,0,0,-1,524,1534,0,0
-693,-510,0,0,0,0,0,0,0,0,0,-1,531,1534,0,0
-686,-510,0,0,0,0,0,0,0,0,0,-1,538,1534,0,0
-679,-510,0,0,0,0,0,0,0,0,0,-1,545,1534,0,0
-672,-510,0,0,0,0,0,0,0,0,0,-1,552,1534,0,0
-665,-510,0,0,0,0,0,0,0,0,0,-1,559,1534,0,0
-658,-510,0,0,0,0,0,0,0,0,0,-1,566,1534,0,0
-651,-510,0,0,0,0,0,0,0,0,0,-1,573,1534,0,0
-644,-510,0,0,0,0,0,0,0,0,0,-1,580,1534,0,0
-637,-510,0,0,0,0,0,0,0,0,0,-1,587,1534,0,0
-630,-510,0,0,0,0,0,0,0,0,0,-1,594,1534,0,0
-623,-510,0,0,0,0,0,0,0,0,0,-1,601,1534,0,0
-616,-510,0,0,0,0,0,0,0,0,0,-1,608,1534,0,0
-609,-510,0,0,0,0,0,0,0,0,0,-1,615,1534,0,0
-602,-510,0,0,0,0,0,0,0,0,0,-1,622,1534,0,0
-595,-510,0,0,0,0,0,0,0,0,0,-1,629,1534,0,0
-588,-510,0,0,0,0,0,0,0,0,0,-1,636,1534,0,0
-581,-510,0,0,0,0,0,0,0,0,0,-1,643,1534,0,0
-574,-510,0,0,0,0,0,0,0,0,0,-1,650,1534,0,0
-567,-510,0,0,0,0,0,0,0,0,0,-1,657,1534,0,0
-560,-510,0,0,0,0,0,0,0,0,0,-1,664,1534,0,0
-553,-510,0,0,0,0,0,0,0,0,0,-1,671,1534,0,0
-546,-510,0,0,0,0,0,0,0,0,0,-1,678,1534,0,0
-539,-510,0,0,0,0,0,0,0,0,0,-1,685,1534,0,0
-532,-510,-4.01874,4.18665,0,0,0,0,0,0,0,-1,692,1534,-4.01874,-4.18659
-525,-510,-3.59058,4.5896,0,0,0,0,0,0,0,-1,699,1534,-3.59056,-4.58955
-518,-510,-2.80609,4.6427,0,0,0,0,0,0,0,-1,706,1534,-2.80608,-4.64264
-511,-510,-2.29102,5.66711,0,0,0,0,0,0,0,-1,713,1534,-2.29099,-5.66706
-504,-510,-1.89673,7.70667,0,0,0,0,0,0,0,-1,720,1534,-1.89674,-7.7067
-497,-510,-1.40985,8.25684,0,0,0,0,0,0,0,-1,727,1534,-1.40984,-8.25681
-490,-510,-1.28479,9.05042,0,0,0,0,0,0,0,-1,734,1534,-1.28482,-9.05039
-483,-510,-1.27655,8.92615,0.00504323,0.000295652,0.00493525,0.00814589,-0.00280701,0.561237,0.00656931,0.0436415,741,1534,-1.27656,-8.92613
-476,-510,-1.39288,9.17749,0.00367574,-0.00022779,0.00322196,0.00549099,-0.00204304,0.513073,0.00449905,0.0314336,748,1534,-1.39291,-9.17749
-469,-510,-1.54529,9.49292,0.00258886,-0.000811178,0.00183875,0.00339305,-0.00161537,0.412291,0.0029517,0.0128649,755,1534,-1.54532,-9.49295
-462,-510,-1.56378,9.82227,0.00209487,-0.000669464,0.00125355,0.00257866,-0.00115325,0.368319,0.00220638,0.0114764,762,1534,-1.56378,-9.82225
-455,-510,-1.58929,10.1855,0.00197997,-0.000461596,0.000957491,0.00231067,-0.000792296,0.332555,0.00186162,0.0141525,769,1534,-1.58931,-10.1855
-448,-510,-1.56909,10.5139,0.00203321,-0.000314911,0.000837601,0.00230137,-0.000583069,0.309839,0.00176107,0.0136346,776,1534,-1.56907,-10.5139
-441,-510,-1.57025,10.819,0.0022507,2.50112e-05,0.000936218,0.00259213,-0.000316423,0.349706,0.00184264,0.0137815,783,1534,-1.57024,-10.8189
-434,-510,-1.60345,11.1222,0.00273245,0.000429234,0.00116916,0.00322192,-6.0232e-05,0.396479,0.0021683,0.0141651,790,1534,-1.60346,-11.1222
-427,-510,-1.63995,11.4377,0.00343216,0.000829063,0.00150408,0.00411966,0.000141567,0.428731,0.00270049,0.021723,797,1534,-1.63998,-11.4377
-420,-510,-1.61102,11.8215,0.00424677,0.00143214,0.00192475,0.00522382,0.000455084,0.469729,0.0033412,0.0222262,804,1534,-1.61102,-11.8215
-413,-510,-1.60718,12.1541,0.00531693,0.00217201,0.00262123,0.00680118,0.000687754,0.515227,0.00432315,0.0117784,811,1534,-1.60716,-12.1541
-406,-510,-1.60553,12.4614,0.00655174,0.00311166,0.00347117,0.00870566,0.000957746,0.555369,0.00551233,0.0102043,818,1534,-1.60555,-12.4614
-399,-510,-1.59924,12.7716,0.00796837,0.00441239,0.0043339,0.0108748,0.00150594,0.590742,0.00680368,0.0122181,825,1534,-1.59922,-12.7716
-392,-510,-1.4798,13.2413,0.00960592,0.00600819,0.0052094,0.0133183,0.00229581,0.619152,0.00822115,0.0307472,832,1534,-1.4798,-13.2413
-385,-510,-1.26886,13.7457,0,0,0,0,0,0,0,-1,839,1534,-1.26885,-13.7457
-378,-510,-1.64813,13.2131,0,0,0,0,0,0,0,-1,846,1534,-1.64816,-13.2131
-371,-510,-1.52435,13.5364,0,0,0,0,0,0,0,-1,853,1534,-1.52435,-13.5364
-364,-510,-1.3479,13.7771,0,0,0,0,0,0,0,-1,860,1534,-1.34791,-13.7771
-357,-510,-0.254395,8.89575,0,0,0,0,0,0,0,-1,867,1534,-0.254397,-8.89569
-350,-510,0.471191,6.06458,0,0,0,0,0,0,0,-1,874,1534,0.47118,-6.06453
-343,-510,-2.94617,5.00989,0,0,0,0,0,0,0,-1,881,1534,-2.94615,-5.00992
-336,-510,-1.92963,11.3776,0,0,0,0,0,0,0,-1,888,1534,-1.92962,-11.3775
-329,-510,-2.26794,17.0409,0,0,0,0,0,0,0,-1,895,1534,-2.26797,-17.0409
-322,-510,-0.251526,11.973,0,0,0,0,0,0,0,-1,902,1534,-0.251497,-11.9731
-315,-510,-1.73047,10.9796,0,0,0,0,0,0,0,-1,909,1534,-1.73049,-10.9796
-308,-510,-2.05328,9.72034,0,0,0,0,0,0,0,-1,916,1534,-2.05327,-9.72036
-301,-510,-1.85437,11.5869,0,0,0,0,0,0,0,-1,923,1534,-1.85437,-11.5869
-294,-510,0,0,0,0,0,0,0,0,0,-1,930,1534,0,0
-287,-510,0,0,0,0,0,0,0,0,0,-1,937,1534,0,0
-280,-510,0,0,0,0,0,0,0,0,0,-1,944,1534,0,0
-273,-510,0,0,0,0,0,0,0,0,0,-1,951,1534,0,0
-266,-510,0,0,0,0,0,0,0,0,0,-1,958,1534,0,0
-259,-510,0,0,0,0,0,0,0,0,0,-1,965,1534,0,0
-252,-510,0,0,0,0,0,0,0,0,0,-1,972,1534,0,0
-245,-510,0,0,0,0,0,0,0,0,0,-1,979,1534,0,0
-238,-510,0,0,0,0,0,0,0,0,0,-1,986,1534,0,0
-231,-510,0,0,0,0,0,0,0,0,0,-1,993,1534,0,0
-224,-510,0,0,0,0,0,0,0,0,0,-1,1000,1534,0,0
-217,-510,0,0,0,0,0,0,0,0,0,-1,1007,1534,0,0
-210,-510,0,0,0,0,0,0,0,0,0,-1,1014,1534,0,0
-203,-510,0,0,0,0,0,0,0,0,0,-1,1021,1534,0,0
-196,-510,0,0,0,0,0,0,0,0,0,-1,1028,1534,0,0
-189,-510,0,0,0,0,0,0,0,0,0,-1,1035,1534,0,0
-182,-510,0,0,0,0,0,0,0,0,0,-1,1042,1534,0,0
-175,-510,0,0,0,0,0,0,0,0,0,-1,1049,1534,0,0
-168,-510,0,0,0,0,0,0,0,0,0,-1,1056,1534,0,0
-161,-510,0,0,0,0,0,0,0,0,0,-1,1063,1534,0,0
-154,-510,0,0,0,0,0,0,0,0,0,-1,1070,1534,0,0
-147,-510,0,0,0,0,0,0,0,0,0,-1,1077,1534,0,0
-140,-510,0,0,0,0,0,0,0,0,0,-1,1084,1534,0,0
-133,-510,0,0,0,0,0,0,0,0,0,-1,1091,1534,0,0
-126,-510,0,0,0,0,0,0,0,0,0,-1,1098,1534,0,0
-119,-510,0,0,0,0,0,0,0,0,0,-1,1105,1534,0,0
-112,-510,0,0,0,0,0,0,0,0,0,-1,1112,1534,0,0
-105,-510,0,0,0,0,0,0,0,0,0,-1,1119,1534,0,0
-98,-510,0,0,0,0,0,0,0,0,0,-1,1126,1534,0,0
-91,-510,0,0,0,0,0,0,0,0,0,-1,1133,1534,0,0
-84,-510,0,0,0,0,0,0,0,0,0,-1,1140,1534,0,0
-77,-510,0,0,0,0,0,0,0,0,0,-1,1147,1534,0,0
-70,-510,0,0,0,0,0,0,0,0,0,-1,1154,1534,0,0
-63,-510,0,0,0,0,0,0,0,0,0,-1,1161,1534,0,0
-56,-510,0,0,0,0,0,0,0,0,0,-1,1168,1534,0,0
-49,-510,0,0,0,0,0,0,0,0,0,-1,1175,1534,0,0
-42,-510,0,0,0,0,0,0,0,0,0,-1,1182,1534,0,0
-35,-510,0,0,0,0,0,0,0,0,0,-1,1189,1534,0,0
-28,-510,0,0,0,0,0,0,0,0,0,-1,1196,1534,0,0
-21,-510,0,0,0,0,0,0,0,0,0,-1,1203,1534,0,0
-14,-510,0,0,0,0,0,0,0,0,0,-1,1210,1534,0,0
-7,-510,0,0,0,0,0,0,0,0,0,-1,1217,1534,0,0
0,-510,0,0,0,0,0,0,0,0,0,-1,1224,1534,0,0
7,-510,0,0,0,0,0,0,0,0,0,-1,1231,1534,0,0
14,-510,0,0,0,0,0,0,0,0,0,-1,1238,1534,0,0
21,-510,0,0,0,0,0,0,0,0,0,-1,1245,1534,0,0
28,-510,0,0,0,0,0,0,0,0,0,-1,1252,1534,0,0
35,-510,0,0,0,0,0,0,0,0,0,-1,1259,1534,0,0
42,-510,0,0,0,0,0,0,0,0,0,-1,1266,1534,0,0
49,-510,0,0,0,0,0,0,0,0,0,-1,1273,1534,0,0
56,-510,0,0,0,0,0,0,0,0,0,-1,1280,1534,0,0
63,-510,0,0,0,0,0,0,0,0,0,-1,1287,1534,0,0
70,-510,0,0,0,0,0,0,0,0,0,-1,1294,1534,0,0
77,-510,0,0,0,0,0,0,0,0,0,-1,1301,1534,0,0
84,-510,0,0,0,0,0,0,0,0,0,-1,1308,1534,0,0
91,-510,0,0,0,0,0,0,0,0,0,-1,1315,1534,0,0
98,-510,0,0,0,0,0,0,0,0,0,-1,1322,1534,0,0
105,-510,0,0,0,0,0,0,0,0,0,-1,1329,1534,0,0
112,-510,0,0,0,0,0,0,0,0,0,-1,1336,1534,0,0
119,-510,0,0,0,0,0,0,0,0,0,-1,1343,1534,0,0
126,-510,0,0,0,0,0,0,0,0,0,-1,1350,1534,0,0
133,-510,0,0,0,0,0,0,0,0,0,-1,1357,1534,0,0
140,-510,0,0,0,0,0,0,0,0,0,-1,1364,1534,0,0
147,-510,0,0,0,0,0,0,0,0,0,-1,1371,1534,0,0
154,-510,0,0,0,0,0,0,0,0,0,-1,1378,1534,0,0
161,-510,0,0,0,0,0,0,0,0,0,-1,1385,1534,0,0
168,-510,0,0,0,0,0,0,0,0,0,-1,1392,1534,0,0
175,-510,0,0,0,0,0,0,0,0,0,-1,1399,1534,0,0
182,-510,0,0,0,0,0,0,0,0,0,-1,1406,1534,0,0
189,-510,0,0,0,0,0,0,0,0,0,-1,1413,1534,0,0
196,-510,0,0,0,0,0,0,0,0,0,-1,1420,1534,0,0
203,-510,0,0,0,0,0,0,0,0,0,-1,1427,1534,0,0
210,-510,0,0,0,0,0,0,0,0,0,-1,1434,1534,0,0
217,-510,0,0,0,0,0,0,0,0,0,-1,1441,1534,0,0
224,-510,0,0,0,0,0,0,0,0,0,-1,1448,1534,0,0
231,-510,0,0,0,0,0,0,0,0,0,-1,1455,1534,0,0
238,-510,0,0,0,0,0,0,0,0,0,-1,1462,1534,0,0
245,-510,0,0,0,0,0,0,0,0,0,-1,1469,1534,0,0
252,-510,0,0,0,0,0,0,0,0,0,-1,1476,1534,0,0
259,-510,0,0,0,0,0,0,0,0,0,-1,1483,1534,0,0
266,-510,0,0,0,0,0,0,0,0,0,-1,1490,1534,0,0
273,-510,0,0,0,0,0,0,0,0,0,-1,1497,1534,0,0
280,-510,0,0,0,0,0,0,0,0,0,-1,1504,1534,0,0
287,-510,0,0,0,0,0,0,0,0,0,-1,1511,1534,0,0
294,-510,0,0,0,0,0,0,0,0,0,-1,1518,1534,0,0
301,-510,0,0,0,0,0,0,0,0,0,-1,1525,1534,0,0
308,-510,0,0,0,0,0,0,0,0,0,-1,1532,1534,0,0
315,-510,0,0,0,0,0,0,0,0,0,-1,1539,1534,0,0
322,-510,0,0,0,0,0,0,0,0,0,-1,1546,1534,0,0
329,-510,0,0,0,0,0,0,0,0,0,-1,1553,1534,0,0
336,-510,0,0,0,0,0,0,0,0,0,-1,1560,1534,0,0
343,-510,0,0,0,0,0,0,0,0,0,-1,1567,1534,0,0
350,-510,0,0,0,0,0,0,0,0,0,-1,1574,1534,0,0
357,-510,0,0,0,0,0,0,0,0,0,-1,1581,1534,0,0
364,-510,0,0,0,0,0,0,0,0,0,-1,1588,1534,0,0
371,-510,0,0,0,0,0,0,0,0,0,-1,1595,1534,0,0
378,-510,0,0,0,0,0,0,0,0,0,-1,1602,1534,0,0
385,-510,0,0,0,0,0,0,0,0,0,-1,1609,1534,0,0
392,-510,0,0,0,0,0,0,0,0,0,-1,1616,1534,0,0
399,-510,0,0,0,0,0,0,0,0,0,-1,1623,1534,0,0
406,-510,0,0,0,0,0,0,0,0,0,-1,1630,1534,0,0
413,-510,0,0,0,0,0,0,0,0,0,-1,1637,1534,0,0
420,-510,13.1918,5.99402,0,0,0,0,0,0,0,-1,1644,1534,13.1917,-5.994
427,-510,10.9799,5.12341,0,0,0,0,0,0,0,-1,1651,1534,10.9798,-5.12337
434,-510,11.8219,4.07898,0,0,0,0,0,0,0,-1,1658,1534,11.8219,-4.07895
441,-510,12.6812,3.02991,0,0,0,0,0,0,0,-1,1665,1534,12.6811,-3.0299
448,-510,13.2379,2.2804,0,0,0,0,0,0,0,-1,1672,1534,13.2379,-2.28037
455,-510,9.76892,2.20642,0,0,0,0,0,0,0,-1,1679,1534,9.76894,-2.20647
462,-510,9.84692,2.49182,0,0,0,0,0,0,0,-1,1686,1534,9.84695,-2.49185
469,-510,16.6072,7.26941,0,0,0,0,0,0,0,-1,1693,1534,16.6072,-7.26945
476,-510,15.9199,7.8645,0,0,0,0,0,0,0,-1,1700,1534,15.9199,-7.86455
483,-510,13.0833,8.10938,0,0,0,0,0,0,0,-1,1707,1534,13.0833,-8.10932
490,-510,14.2103,14.8948,0,0,0,0,0,0,0,-1,1714,1534,14.2103,-14.8948
497,-510,14.0098,15.4036,0,0,0,0,0,0,0,-1,1721,1534,14.0097,-15.4036
504,-510,13.8298,14.8663,0,0,0,0,0,0,0,-1,1728,1534,13.8298,-14.8664
511,-510,13.6499,14.3292,0,0,0,0,0,0,0,-1,1735,1534,13.6499,-14.3292
518,-510,12.6564,15.0183,0,0,0,0,0,0,0,-1,1742,1534,12.6564,-15.0183
525,-510,12.8224,14.4906,-0.0095444,-0.00530807,0.00690869,-0.000200121,-0.0146523,0.934146,0.00970221,0.0268632,1749,1534,12.8223,-14.4906
532,-510,12.8599,14.1284,-0.00730838,-0.0038803,0.00535534,2.86186e-05,-0.0112173,0.940278,0.00748775,0.0137479,1756,1534,12.8598,-14.1284
539,-510,12.8857,13.8121,-0.0053277,-0.00264621,0.00398647,0.000218939,-0.00819285,0.947618,0.00553632,0.0126084,1763,1534,12.8857,-13.8121
546,-510,12.8688,13.5367,-0.00352236,-0.0015784,0.00270165,0.000320797,-0.00542156,0.958075,0.00372591,0.0115227,1770,1534,12.8688,-13.5367
553,-510,12.8536,13.2377,-0.00210984,-0.000898806,0.00180968,0.000403968,-0.00341262,0.946844,0.002421,0.0126963,1777,1534,12.8536,-13.2377
560,-510,12.8381,12.929,-0.000967106,-0.000248963,0.00101867,0.000472067,-0.00168814,0.954844,0.00131141,0.0132531,1784,1534,12.8381,-12.929
567,-510,12.8406,12.6182,3.60864e-05,0.000168997,0.000347813,0.000456646,-0.000251563,0.879794,0.00041456,0.0124506,1791,1534,12.8406,-12.6181
574,-510,12.8479,12.3126,0.000958662,0.00059817,-0.000299994,0.00112839,0.000428438,-0.514883,0.000657736,0.0136728,1798,1534,12.8479,-12.3126
581,-510,12.8184,12.0457,0.00170819,0.00096278,-0.000783432,0.00220305,0.000467916,-0.563375,0.00134024,0.0121519,1805,1534,12.8184,-12.0456
588,-510,12.8248,11.7478,0.00218609,0.000866495,-0.00103726,0.00275562,0.000296967,-0.502128,0.00174653,0.0128219,1812,1534,12.8249,-11.7478
595,-510,12.9058,11.361,0.00253439,0.000801234,-0.00115418,0.0031111,0.000224524,-0.463385,0.00200343,0.0154598,1819,1534,12.9057,-11.361
602,-510,12.8501,10.9907,0.00296069,0.000600519,-0.00119694,0.00346146,9.97502e-05,-0.396244,0.00227512,0.0372481,1826,1534,12.8501,-10.9908
609,-510,12.7994,10.9365,0.00341176,6.70862e-05,-0.00114368,0.00376543,-0.000286584,-0.299912,0.00261106,0.0475232,1833,1534,12.7995,-10.9365
616,-510,12.8094,10.7241,0,0,0,0,0,0,0,-1,1840,1534,12.8095,-10.7241
623,-510,13.0336,9.99023,0,0,0,0,0,0,0,-1,1847,1534,13.0336,-9.99018
630,-510,13.7461,9.30334,0,0,0,0,0,0,0,-1,1854,1534,13.7461,-9.30335
637,-510,11.0155,7.38464,0,0,0,0,0,0,0,-1,1861,1534,11.0155,-7.38463
644,-510,11.5809,7.17126,0,0,0,0,0,0,0,-1,1868,1534,11.5809,-7.17123
651,-510,8.70471,3.5061,0,0,0,0,0,0,0,-1,1875,1534,8.70475,-3.50611
658,-510,0,0,0,0,0,0,0,0,0,-1,1882,1534,0,0
665,-510,0,0,0,0,0,0,0,0,0,-1,1889,1534,0,0
672,-510,0,0,0,0,0,0,0,0,0,-1,1896,1534,0,0
679,-510,0,0,0,0,0,0,0,0,0,-1,1903,1534,0,0
686,-510,0,0,0,0,0,0,0,0,0,-1,1910,1534,0,0
693,-510,0,0,0,0,0,0,0,0,0,-1,1917,1534,0,0
700,-510,0,0,0,0,0,0,0,0,0,-1,1924,1534,0,0
707,-510,0,0,0,0,0,0,0,0,0,-1,1931,1534,0,0
714,-510,0,0,0,0,0,0,0,0,0,-1,1938,1534,0,0
721,-510,0,0,0,0,0,0,0,0,0,-1,1945,1534,0,0
728,-510,0,0,0,0,0,0,0,0,0,-1,1952,1534,0,0
735,-510,0,0,0,0,0,0,0,0,0,-1,1959,1534,0,0
742,-510,0,0,0,0,0,0,0,0,0,-1,1966,1534,0,0
749,-510,0,0,0,0,0,0,0,0,0,-1,1973,1534,0,0
756,-510,0,0,0,0,0,0,0,0,0,-1,1980,1534,0,0
763,-510,0,0,0,0,0,0,0,0,0,-1,1987,1534,0,0
770,-510,0,0,0,0,0,0,0,0,0,-1,1994,1534,0,0
777,-510,0,0,0,0,0,0,0,0,0,-1,2001,1534,0,0
784,-510,0,0,0,0,0,0,0,0,0,-1,2008,1534,0,0
791,-510,0,0,0,0,0,0,0,0,0,-1,2015,1534,0,0
798,-510,0,0,0,0,0,0,0,0,0,-1,2022,1534,0,0
805,-510,0,0,0,0,0,0,0,0,0,-1,2029,1534,0,0
812,-510,0,0,0,0,0,0,0,0,0,-1,2036,1534,0,0
-700,-517,0,0,0,0,0,0,0,0,0,-1,524,1541,0,0
-693,-517,0,0,0,0,0,0,0,0,0,-1,531,1541,0,0
-686,-517,0,0,0,0,0,0,0,0,0,-1,538,1541,0,0
-679,-517,0,0,0,0,0,0,0,0,0,-1,545,1541,0,0
-672,-517,0,0,0,0,0,0,0,0,0,-1,552,1541,0,0
-665,-517,0,0,0,0,0,0,0,0,0,-1,559,1541,0,0
-658,-517,0,0,0,0,0,0,0,0,0,-1,566,1541,0,0
-651,-517,0,0,0,0,0,0,0,0,0,-1,573,1541,0,0
-644,-517,0,0,0,0,0,0,0,0,0,-1,580,1541,0,0
-637,-517,0,0,0,0,0,0,0,0,0,-1,587,1541,0,0
-630,-517,0,0,0,0,0,0,0,0,0,-1,594,1541,0,0
-623,-517,0,0,0,0,0,0,0,0,0,-1,601,1541,0,0
-616,-517,0,0,0,0,0,0,0,0,0,-1,608,1541,0,0
-609,-517,0,0,0,0,0,0,0,0,0,-1,615,1541,0,0
-602,-517,0,0,0,0,0,0,0,0,0,-1,622,1541,0,0
-595,-517,0,0,0,0,0,0,0,0,0,-1,629,1541,0,0
-588,-517,0,0,0,0,0,0,0,0,0,-1,636,1541,0,0
-581,-517,0,0,0,0,0,0,0,0,0,-1,643,1541,0,0
-574,-517,0,0,0,0,0,0,0,0,0,-1,650,1541,0,0
-567,-517,0,0,0,0,0,0,0,0,0,-1,657,1541,0,0
-560,-517,0,0,0,0,0,0,0,0,0,-1,664,1541,0,0
-553,-517,0,0,0,0,0,0,0,0,0,-1,671,1541,0,0
-546,-517,0,0,0,0,0,0,0,0,0,-1,678,1541,0,0
-539,-517,0,0,0,0,0,0,0,0,0,-1,685,1541,0,0
-532,-517,0,0,0,0,0,0,0,0,0,-1,692,1541,0,0
-525,-517,-3.62708,3.76343,0,0,0,0,0,0,0,-1,699,1541,-3.62707,-3.76339
-518,-517,-2.71826,4.89087,0,0,0,0,0,0,0,-1,706,1541,-2.71826,-4.89084
-511,-517,-2.72321,2.45251,0,0,0,0,0,0,0,-1,713,1541,-2.72323,-2.45249
-504,-517,-0.883362,4.79858,0,0,0,0,0,0,0,-1,720,1541,-0.88337,-4.79854
-497,-517,-1.16815,7.60693,0,0,0,0,0,0,0,-1,727,1541,-1.16815,-7.60688
-490,-517,-0.895447,8.34021,0,0,0,0,0,0,0,-1,734,1541,-0.895468,-8.34018
-483,-517,-0.942871,8.66809,0.00697099,0.000152118,0.0055867,0.0101064,-0.00298333,0.511427,0.00792159,0.0466698,741,1541,-0.942843,-8.66814
-476,-517,-1.06586,9.1604,0.00546192,-4.10389e-05,0.00407147,0.00762445,-0.00220357,0.48825,0.00595498,0.0383554,748,1541,-1.06589,-9.16045
-469,-517,-1.15466,9.49377,0.00411555,-0.000292925,0.00283159,0.00549971,-0.00167708,0.454669,0.00433502,0.0163838,755,1541,-1.15463,-9.49379
-462,-517,-1.23785,9.81982,0.00325048,-0.000113932,0.00216489,0.00430991,-0.00117336,0.455106,0.00333395,0.0165589,762,1541,-1.23788,-9.81985
-455,-517,-1.245,10.1888,0.00278983,3.26096e-05,0.00169708,0.00359769,-0.000775253,0.444288,0.00269432,0.0137874,769,1541,-1.24499,-10.1888
-448,-517,-1.2381,10.5277,0.00249875,9.05554e-05,0.00137778,0.00312444,-0.000535137,0.426284,0.00228235,0.0134137,776,1541,-1.23813,-10.5277
-441,-517,-1.24792,10.833,0.00239323,0.000334593,0.00129496,0.00301813,-0.000290299,0.449596,0.0021155,0.0116609,783,1541,-1.2479,-10.833
-434,-517,-1.23035,11.1476,0.00255599,0.000658254,0.00135949,0.003265,-5.07548e-05,0.48072,0.00219378,0.0142289,790,1541,-1.23033,-11.1476
-427,-517,-1.25354,11.4858,0.00295913,0.000937667,0.00153815,0.00378892,0.000107884,0.49472,0.00249076,0.0136453,797,1541,-1.25356,-11.4858
-420,-517,-1.30536,11.877,0.00346205,0.00148999,0.00177383,0.00450548,0.000446561,0.531726,0.00286642,0.0188135,804,1541,-1.30535,-11.877
-413,-517,-1.29468,12.1436,0.00408633,0.00210919,0.00221457,0.00552296,0.000672564,0.575473,0.00347952,0.0101464,811,1541,-1.29466,-12.1435
-406,-517,-1.29639,12.4556,0.00489092,0.00293354,0.00286946,0.006944,0.000880459,0.621048,0.00436555,0.0102636,818,1541,-1.29641,-12.4556
-399,-517,-1.28339,12.7898,0.00585052,0.00401389,0.00349637,0.00854716,0.00131725,0.656974,0.00531373,0.0104447,825,1541,-1.28337,-12.7898
-392,-517,-1.27289,13.1201,0.00697299,0.00534167,0.00413369,0.0103707,0.00194393,0.687989,0.00636556,0.013552,832,1541,-1.27289,-13.1201
-385,-517,-1.19513,13.6138,0.00775657,0.00644307,0.00454014,0.0116872,0.00251243,0.713569,0.00710368,0.0253683,839,1541,-1.19512,-13.6138
-378,-517,-1.10474,14.1899,0,0,0,0,0,0,0,-1,846,1541,-1.10476,-14.19
-371,-517,-1.37585,13.2646,0,0,0,0,0,0,0,-1,853,1541,-1.37586,-13.2647
-364,-517,-1.26245,12.6289,0,0,0,0,0,0,0,-1,860,1541,-1.26243,-12.6289
-357,-517,-1.23889,12.979,0,0,0,0,0,0,0,-1,867,1541,-1.23891,-12.979
-350,-517,0.722412,10.0829,0,0,0,0,0,0,0,-1,874,1541,0.722399,-10.0828
-343,-517,-2.56708,6.12415,0,0,0,0,0,0,0,-1,881,1541,-2.56708,-6.12418
-336,-517,-1.61218,14.712,0,0,0,0,0,0,0,-1,888,1541,-1.61221,-14.712
-329,-517,-1.89948,16.45,0,0,0,0,0,0,0,-1,895,1541,-1.89945,-16.4499
-322,-517,-1.99158,16.9701,0,0,0,0,0,0,0,-1,902,1541,-1.99159,-16.9701
-315,-517,-0.987976,7.29749,0,0,0,0,0,0,0,-1,909,1541,-0.987993,-7.29743
-308,-517,3.27911,17.621,0,0,0,0,0,0,0,-1,916,1541,3.27913,-17.621
-301,-517,-1.69141,8.87488,0,0,0,0,0,0,0,-1,923,1541,-1.69141,-8.87485
-294,-517,-1.72583,9.92566,0,0,0,0,0,0,0,-1,930,1541,-1.72584,-9.92571
-287,-517,-3.09045,12.1472,0,0,0,0,0,0,0,-1,937,1541,-3.09043,-12.1472
-280,-517,0,0,0,0,0,0,0,0,0,-1,944,1541,0,0
-273,-517,0,0,0,0,0,0,0,0,0,-1,951,1541,0,0
-266,-517,0,0,0,0,0,0,0,0,0,-1,958,1541,0,0
-259,-517,0,0,0,0,0,0,0,0,0,-1,965,1541,0,0
-252,-517,0,0,0,0,0,0,0,0,0,-1,972,1541,0,0
-245,-517,0,0,0,0,0,0,0,0,0,-1,979,1541,0,0
-238,-517,0,0,0,0,0,0,0,0,0,-1,986,1541,0,0
-231,-517,0,0,0,0,0,0,0,0,0,-1,993,1541,0,0
-224,-517,0,0,0,0,0,0,0,0,0,-1,1000,1541,0,0
-217,-517,0,0,0,0,0,0,0,0,0,-1,1007,1541,0,0
-210,-517,0,0,0,0,0,0,0,0,0,-1,1014,1541,0,0
-203,-517,0,0,0,0,0,0,0,0,0,-1,1021,1541,0,0
-196,-517,0,0,0,0,0,0,0,0,0,-1,1028,1541,0,0
-189,-517,0,0,0,0,0,0,0,0,0,-1,1035,1541,0,0
-182,-517,0,0,0,0,0,0,0,0,0,-1,1042,1541,0,0
-175,-517,0,0,0,0,0,0,0,0,0,-1,1049,1541,0,0
-168,-517,0,0,0,0,0,0,0,0,0,-1,1056,1541,0,0
-161,-517,0,0,0,0,0,0,0,0,0,-1,1063,1541,0,0
-154,-517,0,0,0,0,0,0,0,0,0,-1,1070,1541,0,0
-147,-517,0,0,0,0,0,0,0,0,0,-1,1077,1541,0,0
-140,-517,0,0,0,0,0,0,0,0,0,-1,1084,1541,0,0
-133,-517,0,0,0,0,0,0,0,0,0,-1,1091,1541,0,0
-126,-517,0,0,0,0,0,0,0,0,0,-1,1098,1541,0,0
-119,-517,0,0,0,0,0,0,0,0,0,-1,1105,1541,0,0
-112,-517,0,0,0,0,0,0,0,0,0,-1,1112,1541,0,0
-105,-517,0,0,0,0,0,0,0,0,0,-1,1119,1541,0,0
-98,-517,0,0,0,0,0,0,0,0,0,-1,1126,1541,0,0
-91,-517,0,0,0,0,0,0,0,0,0,-1,1133,1541,0,0
-84,-517,0,0,0,0,0,0,0,0,0,-1,1140,1541,0,0
-77,-517,0,0,0,0,0,0,0,0,0,-1,1147,1541,0,0
-70,-517,0,0,0,0,0,0,0,0,0,-1,1154,1541,0,0
-63,-517,0,0,0,0,0,0,0,0,0,-1,1161,1541,0,0
-56,-517,0,0,0,0,0,0,0,0,0,-1,1168,1541,0,0
-49,-517,0,0,0,0,0,0,0,0,0,-1,1175,1541,0,0
-42,-517,0,0,0,0,0,0,0,0,0,-1,1182,1541,0,0
-35,-517,0,0,0,0,0,0,0,0,0,-1,1189,1541,0,0
-28,-517,0,0,0,0,0,0,0,0,0,-1,1196,1541,0,0
-21,-517,0,0,0,0,0,0,0,0,0,-1,1203,1541,0,0
-14,-517,0,0,0,0,0,0,0,0,0,-1,1210,1541,0,0
-7,-517,0,0,0,0,0,0,0,0,0,-1,1217,1541,0,0
0,-517,0,0,0,0,0,0,0,0,0,-1,1224,1541,0,0
7,-517,0,0,0,0,0,0,0,0,0,-1,1231,1541,0,0
14,-517,0,0,0,0,0,0,0,0,0,-1,1238,1541,0,0
21,-517,0,0,0,0,0,0,0,0,0,-1,1245,1541,0,0
28,-517,0,0,0,0,0,0,0,0,0,-1,1252,1541,0,0
35,-517,0,0,0,0,0,0,0,0,0,-1,1259,1541,0,0
42,-517,0,0,0,0,0,0,0,0,0,-1,1266,1541,0,0
49,-517,0,0,0,0,0,0,0,0,0,-1,1273,1541,0,0
56,-517,0,0,0,0,0,0,0,0,0,-1,1280,1541,0,0
63,-517,0,0,0,0,0,0,0,0,0,-1,1287,1541,0,0
70,-517,0,0,0,0,0,0,0,0,0,-1,1294,1541,0,0
77,-517,0,0,0,0,0,0,0,0,0,-1,1301,1541,0,0
84,-517,0,0,0,0,0,0,0,0,0,-1,1308,1541,0,0
91,-517,0,0,0,0,0,0,0,0,0,-1,1315,1541,0,0
98,-517,0,0,0,0,0,0,0,0,0,-1,1322,1541,0,0
105,-517,0,0,0,0,0,0,0,0,0,-1,1329,1541,0,0
112,-517,0,0,0,0,0,0,0,0,0,-1,1336,1541,0,0
119,-517,0,0,0,0,0,0,0,0,0,-1,1343,1541,0,0
126,-517,0,0,0,0,0,0,0,0,0,-1,1350,1541,0,0
133,-517,0,0,0,0,0,0,0,0,0,-1,1357,1541,0,0
140,-517,0,0,0,0,0,0,0,0,0,-1,1364,1541,0,0
147,-517,0,0,0,0,0,0,0,0,0,-1,1371,1541,0,0
154,-517,0,0,0,0,0,0,0,0,0,-1,1378,1541,0,0
161,-517,0,0,0,0,0,0,0,0,0,-1,1385,1541,0,0
168,-517,0,0,0,0,0,0,0,0,0,-1,1392,1541,0,0
175,-517,0,0,0,0,0,0,0,0,0,-1,1399,1541,0,0
182,-517,0,0,0,0,0,0,0,0,0,-1,1406,1541,0,0
189,-517,0,0,0,0,0,0,0,0,0,-1,1413,1541,0,0
196,-517,0,0,0,0,0,0,0,0,0,-1,1420,1541,0,0
203,-517,0,0,0,0,0,0,0,0,0,-1,1427,1541,0,0
210,-517,0,0,0,0,0,0,0,0,0,-1,1434,1541,0,0
217,-517,0,0,0,0,0,0,0,0,0,-1,1441,1541,0,0
224,-517,0,0,0,0,0,0,0,0,0,-1,1448,1541,0,0
231,-517,0,0,0,0,0,0,0,0,0,-1,1455,1541,0,0
238,-517,0,0,0,0,0,0,0,0,0,-1,1462,1541,0,0
245,-517,0,0,0,0,0,0,0,0,0,-1,1469,1541,0,0
252,-517,0,0,0,0,0,0,0,0,0,-1,1476,1541,0,0
259,-517,0,0,0,0,0,0,0,0,0,-1,1483,1541,0,0
266,-517,0,0,0,0,0,0,0,0,0,-1,1490,1541,0,0
273,-517,0,0,0,0,0,0,0,0,0,-1,1497,1541,0,0
280,-517,0,0,0,0,0,0,0,0,0,-1,1504,1541,0,0
287,-517,0,0,0,0,0,0,0,0,0,-1,1511,1541,0,0
294,-517,0,0,0,0,0,0,0,0,0,-1,1518,1541,0,0
301,-517,0,0,0,0,0,0,0,0,0,-1,1525,1541,0,0
308,-517,0,0,0,0,0,0,0,0,0,-1,1532,1541,0,0
315,-517,0,0,0,0,0,0,0,0,0,-1,1539,1541,0,0
322,-517,0,0,0,0,0,0,0,0,0,-1,1546,1541,0,0
329,-517,0,0,0,0,0,0,0,0,0,-1,1553,1541,0,0
336,-517,0,0,0,0,0,0,0,0,0,-1,1560,1541,0,0
343,-517,0,0,0,0,0,0,0,0,0,-1,1567,1541,0,0
350,-517,0,0,0,0,0,0,0,0,0,-1,1574,1541,0,0
357,-517,0,0,0,0,0,0,0,0,0,-1,1581,1541,0,0
364,-517,0,0,0,0,0,0,0,0,0,-1,1588,1541,0,0
371,-517,0,0,0,0,0,0,0,0,0,-1,1595,1541,0,0
378,-517,0,0,0,0,0,0,0,0,0,-1,1602,1541,0,0
385,-517,0,0,0,0,0,0,0,0,0,-1,1609,1541,0,0
392,-517,0,0,0,0,0,0,0,0,0,-1,1616,1541,0,0
399,-517,0,0,0,0,0,0,0,0,0,-1,1623,1541,0,0
406,-517,13.1395,7.01978,0,0,0,0,0,0,0,-1,1630,1541,13.1396,-7.01981
413,-517,12.2695,6.3324,0,0,0,0,0,0,0,-1,1637,1541,12.2696,-6.33243
420,-517,12.4789,6.20337,0,0,0,0,0,0,0,-1,1644,1541,12.4789,-6.20333
427,-517,11.647,4.66516,0,0,0,0,0,0,0,-1,1651,1541,11.647,-4.66519
434,-517,12.3719,3.92773,0,0,0,0,0,0,0,-1,1658,1541,12.3719,-3.92776
441,-517,13.146,3.14124,0,0,0,0,0,0,0,-1,1665,1541,13.146,-3.14121
448,-517,13.8861,2.36682,0,0,0,0,0,0,0,-1,1672,1541,13.8861,-2.36684
455,-517,13.6012,4.06335,0,0,0,0,0,0,0,-1,1679,1541,13.6012,-4.06335
462,-517,14.8956,7.0752,0,0,0,0,0,0,0,-1,1686,1541,14.8956,-7.07525
469,-517,13.6292,6.87744,0,0,0,0,0,0,0,-1,1693,1541,13.6292,-6.87739
476,-517,13.1489,8.24768,0,0,0,0,0,0,0,-1,1700,1541,13.1489,-8.2477
483,-517,12.7778,10.7142,0,0,0,0,0,0,0,-1,1707,1541,12.7779,-10.7143
490,-517,14.0322,14.92,0,0,0,0,0,0,0,-1,1714,1541,14.0323,-14.9201
497,-517,13.6295,14.9873,0,0,0,0,0,0,0,-1,1721,1541,13.6295,-14.9874
504,-517,12.9893,15.0371,0,0,0,0,0,0,0,-1,1728,1541,12.9892,-15.0371
511,-517,12.4119,15.2717,0,0,0,0,0,0,0,-1,1735,1541,12.4118,-15.2717
518,-517,12.4711,14.8136,-0.0081555,-0.0046421,0.00635972,0.00019908,-0.0129967,0.920149,0.00873157,0.0385328,1742,1541,12.4711,-14.8136
525,-517,12.4926,14.4108,-0.00649864,-0.00327168,0.00472492,0.000107649,-0.00987797,0.949932,0.00662149,0.0141455,1749,1541,12.4925,-14.4108
532,-517,12.578,14.0789,-0.0048557,-0.00223273,0.00359356,0.000281187,-0.00736962,0.960365,0.00500944,0.0113902,1756,1541,12.5779,-14.0789
539,-517,12.5947,13.7936,-0.00334634,-0.00130146,0.00255973,0.000432472,-0.00508028,0.975407,0.00353983,0.0124121,1763,1541,12.5947,-13.7936
546,-517,12.5795,13.522,-0.00191386,-0.000486404,0.00155558,0.000511369,-0.00291163,1.00048,0.00213208,0.0124348,1770,1541,12.5795,-13.5219
553,-517,12.5729,13.219,-0.000804164,1.25624e-05,0.000901455,0.000593836,-0.00138544,0.998073,0.0011728,0.0155264,1777,1541,12.5729,-13.219
560,-517,12.559,12.9521,0.000118399,0.000504706,0.000293456,0.000662871,-3.97667e-05,1.07646,0.000455748,0.0153748,1784,1541,12.559,-12.9522
567,-517,12.5476,12.6572,0.000986465,0.000796013,-0.000238136,0.00114771,0.000634769,-0.595196,0.000663873,0.0123455,1791,1541,12.5477,-12.6572
574,-517,12.5593,12.3307,0.00185431,0.00116734,-0.000816383,0.00239652,0.000625122,-0.58627,0.00143542,0.0134672,1798,1541,12.5593,-12.3307
581,-517,12.5603,12.0474,0.00259372,0.00149962,-0.00125977,0.00342009,0.000673244,-0.58056,0.00209207,0.0152158,1805,1541,12.5603,-12.0473
588,-517,12.5552,11.7318,0.00294314,0.00130114,-0.00139729,0.00374278,0.000501501,-0.519785,0.00234595,0.0152558,1812,1541,12.5552,-11.7318
595,-517,12.5867,11.4254,0.00323332,0.00124758,-0.00149455,0.00403474,0.000446161,-0.492207,0.00255413,0.0277743,1819,1541,12.5867,-11.4254
602,-517,12.4508,11.0393,0,0,0,0,0,0,0,-1,1826,1541,12.4508,-11.0393
609,-517,13.3279,10.6793,0,0,0,0,0,0,0,-1,1833,1541,13.3279,-10.6793
616,-517,14.205,10.3193,0,0,0,0,0,0,0,-1,1840,1541,14.205,-10.3194
623,-517,12.578,10.0779,0,0,0,0,0,0,0,-1,1847,1541,12.578,-10.0779
630,-517,11.7035,7.47815,0,0,0,0,0,0,0,-1,1854,1541,11.7035,-7.47812
637,-517,11.5172,5.79822,0,0,0,0,0,0,0,-1,1861,1541,11.5173,-5.79825
644,-517,11.4232,3.30579,0,0,0,0,0,0,0,-1,1868,1541,11.4232,-3.30574
651,-517,0,0,0,0,0,0,0,0,0,-1,1875,1541,0,0
658,-517,0,0,0,0,0,0,0,0,0,-1,1882,1541,0,0
665,-517,0,0,0,0,0,0,0,0,0,-1,1889,1541,0,0
672,-517,0,0,0,0,0,0,0,0,0,-1,1896,1541,0,0
679,-517,0,0,0,0,0,0,0,0,0,-1,1903,1541,0,0
686,-517,0,0,0,0,0,0,0,0,0,-1,1910,1541,0,0
693,-517,0,0,0,0,0,0,0,0,0,-1,1917,1541,0,0
700,-517,0,0,0,0,0,0,0,0,0,-1,1924,1541,0,0
707,-517,0,0,0,0,0,0,0,0,0,-1,1931,1541,0,0
714,-517,0,0,0,0,0,0,0,0,0,-1,1938,1541,0,0
721,-517,0,0,0,0,0,0,0,0,0,-1,1945,1541,0,0
728,-517,0,0,0,0,0,0,0,0,0,-1,1952,1541,0,0
735,-517,0,0,0,0,0,0,0,0,0,-1,1959,1541,0,0
742,-517,0,0,0,0,0,0,0,0,0,-1,1966,1541,0,0
749,-517,0,0,0,0,0,0,0,0,0,-1,1973,1541,0,0
756,-517,0,0,0,0,0,0,0,0,0,-1,1980,1541,0,0
763,-517,0,0,0,0,0,0,0,0,0,-1,1987,1541,0,0
770,-517,0,0,0,0,0,0,0,0,0,-1,1994,1541,0,0
777,-517,0,0,0,0,0,0,0,0,0,-1,2001,1541,0,0
784,-517,0,0,0,0,0,0,0,0,0,-1,2008,1541,0,0
791,-517,0,0,0,0,0,0,0,0,0,-1,2015,1541,0,0
798,-517,0,0,0,0,0,0,0,0,0,-1,2022,1541,0,0
805,-517,0,0,0,0,0,0,0,0,0,-1,2029,1541,0,0
812,-517,0,0,0,0,0,0,0,0,0,-1,2036,1541,0,0
-700,-524,0,0,0,0,0,0,0,0,0,-1,524,1548,0,0
-693,-524,0,0,0,0,0,0,0,0,0,-1,531,1548,0,0
-686,-524,0,0,0,0,0,0,0,0,0,-1,538,1548,0,0
-679,-524,0,0,0,0,0,0,0,0,0,-1,545,1548,0,0
-672,-524,0,0,0,0,0,0,0,0,0,-1,552,1548,0,0
-665,-524,0,0,0,0,0,0,0,0,0,-1,559,1548,0,0
-658,-524,0,0,0,0,0,0,0,0,0,-1,566,1548,0,0
-651,-524,0,0,0,0,0,0,0,0,0,-1,573,1548,0,0
-644,-524,0,0,0,0,0,0,0,0,0,-1,580,1548,0,0
-637,-524,0,0,0,0,0,0,0,0,0,-1,587,1548,0,0
-630,-524,0,0,0,0,0,0,0,0,0,-1,594,1548,0,0
-623,-524,0,0,0,0,0,0,0,0,0,-1,601,1548,0,0
-616,-524,0,0,0,0,0,0,0,0,0,-1,608,1548,0,0
-609,-524,0,0,0,0,0,0,0,0,0,-1,615,1548,0,0
-602,-524,0,0,0,0,0,0,0,0,0,-1,622,1548,0,0
-595,-524,0,0,0,0,0,0,0,0,0,-1,629,1548,0,0
-588,-524,0,0,0,0,0,0,0,0,0,-1,636,1548,0,0
-581,-524,0,0,0,0,0,0,0,0,0,-1,643,1548,0,0
-574,-524,0,0,0,0,0,0,0,0,0,-1,650,1548,0,0
-567,-524,0,0,0,0,0,0,0,0,0,-1,657,1548,0,0
-560,-524,0,0,0,0,0,0,0,0,0,-1,664,1548,0,0
-553,-524,0,0,0,0,0,0,0,0,0,-1,671,1548,0,0
-546,-524,0,0,0,0,0,0,0,0,0,-1,678,1548,0,0
-539,-524,0,0,0,0,0,0,0,0,0,-1,685,1548,0,0
-532,-524,0,0,0,0,0,0,0,0,0,-1,692,1548,0,0
-525,-524,-0.215515,3.97131,0,0,0,0,0,0,0,-1,699,1548,-0.215501,-3.97136
-518,-524,-0.806274,4.35632,0,0,0,0,0,0,0,-1,706,1548,-0.806259,-4.35633
-511,-524,-1.08301,4.29004,0,0,0,0,0,0,0,-1,713,1548,-1.08301,-4.29006
-504,-524,-1.28821,3.98145,0,0,0,0,0,0,0,-1,720,1548,-1.28822,-3.98151
-497,-524,-1.87958,8.23486,0,0,0,0,0,0,0,-1,727,1548,-1.8796,-8.23486
-490,-524,-1.3031,8.99243,0,0,0,0,0,0,0,-1,734,1548,-1.3031,-8.99237
-483,-524,-1.09882,9.05176,0,0,0,0,0,0,0,-1,741,1548,-1.09884,-9.05174
-476,-524,-1.05054,9.39185,0.00787685,0.000826508,0.00526893,0.0106911,-0.00198776,0.490573,0.00787407,0.0450188,748,1548,-1.05052,-9.39184
-469,-524,-1.02844,9.70837,0.00621199,0.00080346,0.00426134,0.00855471,-0.00153926,0.50266,0.00627943,0.0320661,755,1548,-1.02846,-9.70838
-462,-524,-0.868652,9.94836,0.00479179,0.000866042,0.00340155,0.00675618,-0.00109835,0.523711,0.00491135,0.0259582,762,1548,-0.868643,-9.94837
-455,-524,-0.924622,10.2178,0.00384738,0.000850304,0.00266739,0.00540835,-0.000710661,0.529469,0.0038643,0.0190796,769,1548,-0.924593,-10.2178
-448,-524,-0.900452,10.5355,0.00310036,0.000722972,0.00205886,0.00428904,-0.00046571,0.523597,0.00302656,0.0127473,776,1548,-0.900423,-10.5355
-441,-524,-0.919067,10.8352,0.00260756,0.000780299,0.00172001,0.00364153,-0.000253672,0.54126,0.00251651,0.0106253,783,1548,-0.919095,-10.8352
-434,-524,-0.89856,11.1541,0.00242691,0.000936227,0.00156281,0.00341301,-4.98767e-05,0.562889,0.00229215,0.0127393,790,1548,-0.898557,-11.1541
-427,-524,-0.918701,11.5056,0.00254945,0.00103095,0.00155491,0.00352058,5.98242e-05,0.55828,0.00232737,0.0131664,797,1548,-0.918712,-11.5056
-420,-524,-0.950745,11.8419,0.00280422,0.00147743,0.00160821,0.00388049,0.000401159,0.589779,0.00246418,0.0103443,804,1548,-0.950757,-11.8419
-413,-524,-0.943176,12.1526,0.00310427,0.00194034,0.00182291,0.00443586,0.000608752,0.630888,0.00277665,0.00998712,811,1548,-0.943167,-12.1526
-406,-524,-0.958313,12.4747,0.00366804,0.00262913,0.0023282,0.00553402,0.00076314,0.675639,0.00346311,0.0110921,818,1548,-0.958293,-12.4747
-399,-524,-0.966431,12.7985,0.00440115,0.00348284,0.00278806,0.00676761,0.00111638,0.703787,0.00418949,0.0095001,825,1548,-0.966411,-12.7984
-392,-524,-0.962158,13.1191,0.00528657,0.00455417,0.0032508,0.00819174,0.00164901,0.72931,0.00500291,0.0104602,832,1548,-0.962148,-13.1191
-385,-524,-0.969421,13.4642,0.0059233,0.00545523,0.0035075,0.00920456,0.00217397,0.752086,0.00555536,0.0129335,839,1548,-0.969398,-13.4642
-378,-524,-0.914795,13.9767,0.00612305,0.00567274,0.00323126,0.00913699,0.0026588,0.750615,0.0054267,0.0317089,846,1548,-0.914786,-13.9767
-371,-524,-0.84137,14.4639,0,0,0,0,0,0,0,-1,853,1548,-0.841372,-14.4639
-364,-524,-0.583801,14.446,0,0,0,0,0,0,0,-1,860,1548,-0.583786,-14.4461
-357,-524,-1.00153,13.0575,0,0,0,0,0,0,0,-1,867,1548,-1.00154,-13.0575
-350,-524,-1.18591,11.6433,0,0,0,0,0,0,0,-1,874,1548,-1.18592,-11.6433
-343,-524,-1.98212,13.6454,0,0,0,0,0,0,0,-1,881,1548,-1.98211,-13.6454
-336,-524,-1.07672,14.9619,0,0,0,0,0,0,0,-1,888,1548,-1.07674,-14.9619
-329,-524,-0.171387,16.2783,0,0,0,0,0,0,0,-1,895,1548,-0.171367,-16.2783
-322,-524,-1.78308,16.5065,0,0,0,0,0,0,0,-1,902,1548,-1.78311,-16.5064
-315,-524,2.60687,16.2994,0,0,0,0,0,0,0,-1,909,1548,2.60687,-16.2994
-308,-524,3.4917,15.3413,0,0,0,0,0,0,0,-1,916,1548,3.4917,-15.3413
-301,-524,2.72394,17.7618,0,0,0,0,0,0,0,-1,923,1548,2.72396,-17.7619
-294,-524,-1.52515,9.05408,0,0,0,0,0,0,0,-1,930,1548,-1.52512,-9.05411
-287,-524,-0.962219,10.3199,0,0,0,0,0,0,0,-1,937,1548,-0.962241,-10.32
-280,-524,-1.36255,10.3859,0,0,0,0,0,0,0,-1,944,1548,-1.36253,-10.3859
-273,-524,0,0,0,0,0,0,0,0,0,-1,951,1548,0,0
-266,-524,0,0,0,0,0,0,0,0,0,-1,958,1548,0,0
-259,-524,0,0,0,0,0,0,0,0,0,-1,965,1548,0,0
-252,-524,0,0,0,0,0,0,0,0,0,-1,972,1548,0,0
-245,-524,0,0,0,0,0,0,0,0,0,-1,979,1548,0,0
-238,-524,0,0,0,0,0,0,0,0,0,-1,986,1548,0,0
-231,-524,0,0,0,0,0,0,0,0,0,-1,993,1548,0,0
-224,-524,0,0,0,0,0,0,0,0,0,-1,1000,1548,0,0
-217,-524,0,0,0,0,0,0,0,0,0,-1,1007,1548,0,0
-210,-524,0,0,0,0,0,0,0,0,0,-1,1014,1548,0,0
-203,-524,0,0,0,0,0,0,0,0,0,-1,1021,1548,0,0
-196,-524,0,0,0,0,0,0,0,0,0,-1,1028,1548,0,0
-189,-524,0,0,0,0,0,0,0,0,0,-1,1035,1548,0,0
-182,-524,0,0,0,0,0,0,0,0,0,-1,1042,1548,0,0
-175,-524,0,0,0,0,0,0,0,0,0,-1,1049,1548,0,0
-168,-524,0,0,0,0,0,0,0,0,0,-1,1056,1548,0,0
-161,-524,0,0,0,0,0,0,0,0,0,-1,1063,1548,0,0
-154,-524,0,0,0,0,0,0,0,0,0,-1,1070,1548,0,0
-147,-524,0,0,0,0,0,0,0,0,0,-1,1077,1548,0,0
-140,-524,0,0,0,0,0,0,0,0,0,-1,1084,1548,0,0
-133,-524,0,0,0,0,0,0,0,0,0,-1,1091,1548,0,0
-126,-524,0,0,0,0,0,0,0,0,0,-1,1098,1548,0,0
-119,-524,0,0,0,0,0,0,0,0,0,-1,1105,1548,0,0
-112,-524,0,0,0,0,0,0,0,0,0,-1,1112,1548,0,0
-105,-524,0,0,0,0,0,0,0,0,0,-1,1119,1548,0,0
-98,-524,0,0,0,0,0,0,0,0,0,-1,1126,1548,0,0
-91,-524,0,0,0,0,0,0,0,0,0,-1,1133,1548,0,0
-84,-524,0,0,0,0,0,0,0,0,0,-1,1140,1548,0,0
-77,-524,0,0,0,0,0,0,0,0,0,-1,1147,1548,0,0
-70,-524,0,0,0,0,0,0,0,0,0,-1,1154,1548,0,0
-63,-524,0,0,0,0,0,0,0,0,0,-1,1161,1548,0,0
-56,-524,0,0,0,0,0,0,0,0,0,-1,1168,1548,0,0
-49,-524,0,0,0,0,0,0,0,0,0,-1,1175,1548,0,0
-42,-524,0,0,0,0,0,0,0,0,0,-1,1182,1548,0,0
-35,-524,0,0,0,0,0,0,0,0,0,-1,1189,1548,0,0
-28,-524,0,0,0,0,0,0,0,0,0,-1,1196,1548,0,0
-21,-524,0,0,0,0,0,0,0,0,0,-1,1203,1548,0,0
-14,-524,0,0,0,0,0,0,0,0,0,-1,1210,1548,0,0
-7,-524,0,0,0,0,0,0,0,0,0,-1,1217,1548,0,0
0,-524,0,0,0,0,0,0,0,0,0,-1,1224,1548,0,0
7,-524,0,0,0,0,0,0,0,0,0,-1,1231,1548,0,0
14,-524,0,0,0,0,0,0,0,0,0,-1,1238,1548,0,0
21,-524,0,0,0,0,0,0,0,0,0,-1,1245,1548,0,0
28,-524,0,0,0,0,0,0,0,0,0,-1,1252,1548,0,0
35,-524,0,0,0,0,0,0,0,0,0,-1,1259,1548,0,0
42,-524,0,0,0,0,0,0,0,0,0,-1,1266,1548,0,0
49,-524,0,0,0,0,0,0,0,0,0,-1,1273,1548,0,0
56,-524,0,0,0,0,0,0,0,0,0,-1,1280,1548,0,0
63,-524,0,0,0,0,0,0,0,0,0,-1,1287,1548,0,0
70,-524,0,0,0,0,0,0,0,0,0,-1,1294,1548,0,0
77,-524,0,0,0,0,0,0,0,0,0,-1,1301,1548,0,0
84,-524,0,0,0,0,0,0,0,0,0,-1,1308,1548,0,0
91,-524,0,0,0,0,0,0,0,0,0,-1,1315,1548,0,0
98,-524,0,0,0,0,0,0,0,0,0,-1,1322,1548,0,0
105,-524,0,0,0,0,0,0,0,0,0,-1,1329,1548,0,0
112,-524,0,0,0,0,0,0,0,0,0,-1,1336,1548,0,0
119,-524,0,0,0,0,0,0,0,0,0,-1,1343,1548,0,0
126,-524,0,0,0,0,0,0,0,0,0,-1,1350,1548,0,0
133,-524,0,0,0,0,0,0,0,0,0,-1,1357,1548,0,0
140,-524,0,0,0,0,0,0,0,0,0,-1,1364,1548,0,0
147,-524,0,0,0,0,0,0,0,0,0,-1,1371,1548,0,0
154,-524,0,0,0,0,0,0,0,0,0,-1,1378,1548,0,0
161,-524,0,0,0,0,0,0,0,0,0,-1,1385,1548,0,0
168,-524,0,0,0,0,0,0,0,0,0,-1,1392,1548,0,0
175,-524,0,0,0,0,0,0,0,0,0,-1,1399,1548,0,0
182,-524,0,0,0,0,0,0,0,0,0,-1,1406,1548,0,0
189,-524,0,0,0,0,0,0,0,0,0,-1,1413,1548,0,0
196,-524,0,0,0,0,0,0,0,0,0,-1,1420,1548,0,0
203,-524,0,0,0,0,0,0,0,0,0,-1,1427,1548,0,0
210,-524,0,0,0,0,0,0,0,0,0,-1,1434,1548,0,0
217,-524,0,0,0,0,0,0,0,0,0,-1,1441,1548,0,0
224,-524,0,0,0,0,0,0,0,0,0,-1,1448,1548,0,0
231,-524,0,0,0,0,0,0,0,0,0,-1,1455,1548,0,0
238,-524,0,0,0,0,0,0,0,0,0,-1,1462,1548,0,0
245,-524,0,0,0,0,0,0,0,0,0,-1,1469,1548,0,0
252,-524,0,0,0,0,0,0,0,0,0,-1,1476,1548,0,0
259,-524,0,0,0,0,0,0,0,0,0,-1,1483,1548,0,0
266,-524,0,0,0,0,0,0,0,0,0,-1,1490,1548,0,0
273,-524,0,0,0,0,0,0,0,0,0,-1,1497,1548,0,0
280,-524,0,0,0,0,0,0,0,0,0,-1,1504,1548,0,0
287,-524,0,0,0,0,0,0,0,0,0,-1,1511,1548,0,0
294,-524,0,0,0,0,0,0,0,0,0,-1,1518,1548,0,0
301,-524,0,0,0,0,0,0,0,0,0,-1,1525,1548,0,0
308,-524,0,0,0,0,0,0,0,0,0,-1,1532,1548,0,0
315,-524,0,0,0,0,0,0,0,0,0,-1,1539,1548,0,0
322,-524,0,0,0,0,0,0,0,0,0,-1,1546,1548,0,0
329,-524,0,0,0,0,0,0,0,0,0,-1,1553,1548,0,0
336,-524,0,0,0,0,0,0,0,0,0,-1,1560,1548,0,0
343,-524,0,0,0,0,0,0,0,0,0,-1,1567,1548,0,0
350,-524,0,0,0,0,0,0,0,0,0,-1,1574,1548,0,0
357,-524,0,0,0,0,0,0,0,0,0,-1,1581,1548,0,0
364,-524,0,0,0,0,0,0,0,0,0,-1,1588,1548,0,0
371,-524,0,0,0,0,0,0,0,0,0,-1,1595,1548,0,0
378,-524,0,0,0,0,0,0,0,0,0,-1,1602,1548,0,0
385,-524,0,0,0,0,0,0,0,0,0,-1,1609,1548,0,0
392,-524,0,0,0,0,0,0,0,0,0,-1,1616,1548,0,0
399,-524,8.81848,5.05774,0,0,0,0,0,0,0,-1,1623,1548,8.81843,-5.05769
406,-524,8.64294,6.06799,0,0,0,0,0,0,0,-1,1630,1548,8.6429,-6.06805
413,-524,11.677,6.41858,0,0,0,0,0,0,0,-1,1637,1548,11.677,-6.41864
420,-524,11.4913,6.36401,0,0,0,0,0,0,0,-1,1644,1548,11.4913,-6.36402
427,-524,7.68335,6.17249,0,0,0,0,0,0,0,-1,1651,1548,7.68341,-6.17245
434,-524,10.432,11.6801,0,0,0,0,0,0,0,-1,1658,1548,10.432,-11.68
441,-524,8.78552,4.12305,0,0,0,0,0,0,0,-1,1665,1548,8.78553,-4.12301
448,-524,14.1854,4.78674,0,0,0,0,0,0,0,-1,1672,1548,14.1854,-4.78674
455,-524,12.4784,3.65576,0,0,0,0,0,0,0,-1,1679,1548,12.4784,-3.65572
462,-524,14.7551,9.29395,0,0,0,0,0,0,0,-1,1686,1548,14.7552,-9.29397
469,-524,13.0463,8.39771,0,0,0,0,0,0,0,-1,1693,1548,13.0462,-8.39775
476,-524,13.632,12.3571,0,0,0,0,0,0,0,-1,1700,1548,13.632,-12.357
483,-524,12.538,12.2845,0,0,0,0,0,0,0,-1,1707,1548,12.538,-12.2845
490,-524,12.9832,15.1779,0,0,0,0,0,0,0,-1,1714,1548,12.9832,-15.1778
497,-524,12.1787,15.6041,0,0,0,0,0,0,0,-1,1721,1548,12.1787,-15.6041
504,-524,12.2423,15.1908,-0.00697454,-0.00668536,0.00763293,0.000804347,-0.0144643,0.794868,0.00992183,0.0249119,1728,1548,12.2423,-15.1908
511,-524,12.181,15.0046,-0.00572972,-0.00470951,0.00579411,0.000596907,-0.0110361,0.829305,0.00756425,0.0230002,1735,1548,12.181,-15.0046
518,-524,12.2743,14.6735,-0.00498794,-0.00282316,0.00433534,0.000562867,-0.00837397,0.90773,0.00577941,0.0184776,1742,1548,12.2743,-14.6735
525,-524,12.2793,14.4059,-0.00392379,-0.00180349,0.00308411,0.000397592,-0.00612488,0.950944,0.00422203,0.0147251,1749,1548,12.2793,-14.4058
532,-524,12.2827,14.0997,-0.00283099,-0.00103436,0.00227748,0.000515572,-0.00438092,0.973247,0.00310676,0.0104878,1756,1548,12.2828,-14.0998
539,-524,12.2767,13.7943,-0.00180086,-0.000323449,0.00151614,0.000624368,-0.00274868,1.01209,0.00207217,0.0113672,1763,1548,12.2767,-13.7943
546,-524,12.2759,13.5023,-0.000793923,0.000290873,0.000768228,0.000688885,-0.00119193,1.09278,0.00109876,0.0139644,1770,1548,12.2759,-13.5024
553,-524,12.2793,13.2404,-3.57637e-05,0.000662383,0.0003174,0.00078511,-0.00015849,1.20184,0.000583457,0.0211656,1777,1548,12.2793,-13.2404
560,-524,12.2933,12.9315,0.000624925,0.00103386,-0.000136763,0.00107538,0.000583402,-1.27603,0.000621619,0.0282977,1784,1548,12.2934,-12.9315
567,-524,12.2634,12.6727,0.0013136,0.00123982,-0.000558907,0.00183684,0.000716591,-0.752444,0.001069,0.0164119,1791,1548,12.2634,-12.6727
574,-524,12.2717,12.3425,0.00209085,0.00158548,-0.00109663,0.00296353,0.000712796,-0.672165,0.00178615,0.0126002,1798,1548,12.2717,-12.3426
581,-524,12.2889,12.0367,0.0027996,0.00191377,-0.00152942,0.00394895,0.000764417,-0.644455,0.00241844,0.014519,1805,1548,12.289,-12.0367
588,-524,12.3041,11.7097,0.00301453,0.00165449,-0.00157931,0.004054,0.000615016,-0.582105,0.00252278,0.0181782,1812,1548,12.3041,-11.7098
595,-524,12.3132,11.2483,0,0,0,0,0,0,0,-1,1819,1548,12.3133,-11.2483
602,-524,12.1544,10.818,0,0,0,0,0,0,0,-1,1826,1548,12.1544,-10.8179
609,-524,13.7683,10.34,0,0,0,0,0,0,0,-1,1833,1548,13.7683,-10.34
616,-524,11.6941,8.65515,0,0,0,0,0,0,0,-1,1840,1548,11.6941,-8.65514
623,-524,9.38452,5.15356,0,0,0,0,0,0,0,-1,1847,1548,9.38456,-5.15359
630,-524,11.0541,3.57434,0,0,0,0,0,0,0,-1,1854,1548,11.0541,-3.57438
637,-524,11.6067,3.20728,0,0,0,0,0,0,0,-1,1861,1548,11.6067,-3.20724
644,-524,12.2134,0.727173,0,0,0,0,0,0,0,-1,1868,1548,12.2134,-0.727222
651,-524,0,0,0,0,0,0,0,0,0,-1,1875,1548,0,0
658,-524,0,0,0,0,0,0,0,0,0,-1,1882,1548,0,0
665,-524,0,0,0,0,0,0,0,0,0,-1,1889,1548,0,0
672,-524,0,0,0,0,0,0,0,0,0,-1,1896,1548,0,0
679,-524,0,0,0,0,0,0,0,0,0,-1,1903,1548,0,0
686,-524,0,0,0,0,0,0,0,0,0,-1,1910,1548,0,0
693,-524,0,0,0,0,0,0,0,0,0,-1,1917,1548,0,0
700,-524,0,0,0,0,0,0,0,0,0,-1,1924,1548,0,0
707,-524,0,0,0,0,0,0,0,0,0,-1,1931,1548,0,0
714,-524,0,0,0,0,0,0,0,0,0,-1,1938,1548,0,0
721,-524,0,0,0,0,0,0,0,0,0,-1,1945,1548,0,0
728,-524,0,0,0,0,0,0,0,0,0,-1,1952,1548,0,0
735,-524,0,0,0,0,0,0,0,0,0,-1,1959,1548,0,0
742,-524,0,0,0,0,0,0,0,0,0,-1,1966,1548,0,0
749,-524,0,0,0,0,0,0,0,0,0,-1,1973,1548,0,0
756,-524,0,0,0,0,0,0,0,0,0,-1,1980,1548,0,0
763,-524,0,0,0,0,0,0,0,0,0,-1,1987,1548,0,0
770,-524,0,0,0,0,0,0,0,0,0,-1,1994,1548,0,0
777,-524,0,0,0,0,0,0,0,0,0,-1,2001,1548,0,0
784,-524,0,0,0,0,0,0,0,0,0,-1,2008,1548,0,0
791,-524,0,0,0,0,0,0,0,0,0,-1,2015,1548,0,0
798,-524,0,0,0,0,0,0,0,0,0,-1,2022,1548,0,0
805,-524,0,0,0,0,0,0,0,0,0,-1,2029,1548,0,0
812,-524,0,0,0,0,0,0,0,0,0,-1,2036,1548,0,0
-700,-531,0,0,0,0,0,0,0,0,0,-1,524,1555,0,0
-693,-531,0,0,0,0,0,0,0,0,0,-1,531,1555,0,0
-686,-531,0,0,0,0,0,0,0,0,0,-1,538,1555,0,0
-679,-531,0,0,0,0,0,0,0,0,0,-1,545,1555,0,0
-672,-531,0,0,0,0,0,0,0,0,0,-1,552,1555,0,0
-665,-531,0,0,0,0,0,0,0,0,0,-1,559,1555,0,0
-658,-531,0,0,0,0,0,0,0,0,0,-1,566,1555,0,0
-651,-531,0,0,0,0,0,0,0,0,0,-1,573,1555,0,0
-644,-531,0,0,0,0,0,0,0,0,0,-1,580,1555,0,0
-637,-531,0,0,0,0,0,0,0,0,0,-1,587,1555,0,0
-630,-531,0,0,0,0,0,0,0,0,0,-1,594,1555,0,0
-623,-531,0,0,0,0,0,0,0,0,0,-1,601,1555,0,0
-616,-531,0,0,0,0,0,0,0,0,0,-1,608,1555,0,0
-609,-531,0,0,0,0,0,0,0,0,0,-1,615,1555,0,0
-602,-531,0,0,0,0,0,0,0,0,0,-1,622,1555,0,0
-595,-531,0,0,0,0,0,0,0,0,0,-1,629,1555,0,0
-588,-531,0,0,0,0,0,0,0,0,0,-1,636,1555,0,0
-581,-531,0,0,0,0,0,0,0,0,0,-1,643,1555,0,0
-574,-531,0,0,0,0,0,0,0,0,0,-1,650,1555,0,0
-567,-531,0,0,0,0,0,0,0,0,0,-1,657,1555,0,0
-560,-531,0,0,0,0,0,0,0,0,0,-1,664,1555,0,0
-553,-531,0,0,0,0,0,0,0,0,0,-1,671,1555,0,0
-546,-531,0,0,0,0,0,0,0,0,0,-1,678,1555,0,0
-539,-531,0,0,0,0,0,0,0,0,0,-1,685,1555,0,0
-532,-531,0,0,0,0,0,0,0,0,0,-1,692,1555,0,0
-525,-531,0,0,0,0,0,0,0,0,0,-1,699,1555,0,0
-518,-531,-1.63983,4.03821,0,0,0,0,0,0,0,-1,706,1555,-1.63982,-4.03821
-511,-531,-2.9682,8.07483,0,0,0,0,0,0,0,-1,713,1555,-2.9682,-8.07479
-504,-531,-2.95978,0.557861,0,0,0,0,0,0,0,-1,720,1555,-2.95978,-0.557917
-497,-531,-2.46039,8.07422,0,0,0,0,0,0,0,-1,727,1555,-2.46039,-8.07423
-490,-531,-2.10461,8.25159,0,0,0,0,0,0,0,-1,734,1555,-2.10463,-8.25158
-483,-531,-0.881531,8.54211,0,0,0,0,0,0,0,-1,741,1555,-0.881505,-8.54217
-476,-531,-0.96582,9.60876,0,0,0,0,0,0,0,-1,748,1555,-0.96581,-9.6088
-469,-531,-1.25195,9.56506,0.00922168,0.00255848,0.00646822,0.0131659,-0.00138573,0.547582,0.00927374,0.0412523,755,1555,-1.25195,-9.56505
-462,-531,-0.525269,10.0128,0.00695408,0.00233274,0.00509568,0.0102385,-0.000951687,0.572536,0.007164,0.0410549,762,1555,-0.525263,-10.0128
-455,-531,-0.614014,10.3447,0.00538167,0.00199602,0.00398449,0.00801803,-0.000640334,0.584525,0.00557108,0.0306555,769,1555,-0.614035,-10.3447
-448,-531,-0.547852,10.542,0.0040855,0.00159473,0.00299843,0.0060869,-0.000406659,0.588566,0.00420005,0.0147104,776,1555,-0.547825,-10.542
-441,-531,-0.609436,10.842,0.00314342,0.00137664,0.00233123,0.00475303,-0.000232963,0.604289,0.00324912,0.0120039,783,1555,-0.609456,-10.842
-434,-531,-0.614075,11.1803,0.00258343,0.00128483,0.00190043,0.00394242,-7.4153e-05,0.620786,0.00265334,0.0114012,790,1555,-0.61405,-11.1803
-427,-531,-0.616455,11.5137,0.00239903,0.00113935,0.00166688,0.0035511,-1.2714e-05,0.604763,0.00237165,0.0134786,797,1555,-0.616458,-11.5136
-420,-531,-0.62384,11.8418,0.00238691,0.00143347,0.00151834,0.0035016,0.00031877,0.633285,0.00223573,0.012271,804,1555,-0.623814,-11.8418
-413,-531,-0.618042,12.1636,0.00236249,0.00171742,0.00150177,0.00357596,0.000503941,0.679621,0.00223501,0.0103923,811,1555,-0.618047,-12.1635
-406,-531,-0.638977,12.4767,0.00269797,0.00225841,0.00185963,0.00435076,0.000605615,0.726579,0.00272119,0.0113793,818,1555,-0.639006,-12.4767
-399,-531,-0.639343,12.7887,0.003211,0.00288521,0.00217648,0.00523068,0.000865537,0.748046,0.00323741,0.0134242,825,1555,-0.63932,-12.7887
-392,-531,-0.623779,13.1199,0.00387792,0.00371338,0.0024885,0.00628551,0.00130579,0.768874,0.00383001,0.0167554,832,1555,-0.62381,-13.1199
-385,-531,-0.644653,13.4448,0.00439103,0.00442759,0.00263385,0.00704322,0.0017754,0.788868,0.00422976,0.0140302,839,1555,-0.644636,-13.4448
-378,-531,-0.656189,13.7196,0.0045499,0.0045557,0.00235525,0.00690805,0.00219755,0.786013,0.00407538,0.0133202,846,1555,-0.656217,-13.7196
-371,-531,-0.582458,14.1294,0.0048958,0.00491825,0.00218055,0.0070876,0.00272645,0.787972,0.00412815,0.0224683,853,1555,-0.582441,-14.1294
-364,-531,-0.483948,14.436,0.00481515,0.00539949,0.00156909,0.00670338,0.00351126,0.877445,0.00387166,0.0490446,860,1555,-0.483929,-14.436
-357,-531,-0.468567,14.6075,0,0,0,0,0,0,0,-1,867,1555,-0.468588,-14.6075
-350,-531,-0.906921,15.328,0,0,0,0,0,0,0,-1,874,1555,-0.906929,-15.3281
-343,-531,-0.52179,15.5588,0,0,0,0,0,0,0,-1,881,1555,-0.521816,-15.5589
-336,-531,-0.335266,15.2886,0,0,0,0,0,0,0,-1,888,1555,-0.335273,-15.2886
-329,-531,0.0812378,15.7607,0,0,0,0,0,0,0,-1,895,1555,0.0812313,-15.7607
-322,-531,-1.23248,15.6156,0,0,0,0,0,0,0,-1,902,1555,-1.2325,-15.6156
-315,-531,2.90259,16.536,0,0,0,0,0,0,0,-1,909,1555,2.90262,-16.536
-308,-531,2.6795,15.7117,0,0,0,0,0,0,0,-1,916,1555,2.67952,-15.7116
-301,-531,2.01031,15.2048,0,0,0,0,0,0,0,-1,923,1555,2.01033,-15.2049
-294,-531,-1.3244,8.1825,0,0,0,0,0,0,0,-1,930,1555,-1.3244,-8.18251
-287,-531,-1.78192,10.1661,0,0,0,0,0,0,0,-1,937,1555,-1.78192,-10.1661
-280,-531,-2.14508,10.3945,0,0,0,0,0,0,0,-1,944,1555,-2.14506,-10.3945
-273,-531,-2.50818,10.6229,0,0,0,0,0,0,0,-1,951,1555,-2.5082,-10.6229
-266,-531,-4.97742,17.9215,0,0,0,0,0,0,0,-1,958,1555,-4.97744,-17.9215
-259,-531,0,0,0,0,0,0,0,0,0,-1,965,1555,0,0
-252,-531,0,0,0,0,0,0,0,0,0,-1,972,1555,0,0
-245,-531,0,0,0,0,0,0,0,0,0,-1,979,1555,0,0
-238,-531,0,0,0,0,0,0,0,0,0,-1,986,1555,0,0
-231,-531,0,0,0,0,0,0,0,0,0,-1,993,1555,0,0
-224,-531,0,0,0,0,0,0,0,0,0,-1,1000,1555,0,0
-217,-531,0,0,0,0,0,0,0,0,0,-1,1007,1555,0,0
-210,-531,0,0,0,0,0,0,0,0,0,-1,1014,1555,0,0
-203,-531,0,0,0,0,0,0,0,0,0,-1,1021,1555,0,0
-196,-531,0,0,0,0,0,0,0,0,0,-1,1028,1555,0,0
-189,-531,0,0,0,0,0,0,0,0,0,-1,1035,1555,0,0
-182,-531,0,0,0,0,0,0,0,0,0,-1,1042,1555,0,0
-175,-531,0,0,0,0,0,0,0,0,0,-1,1049,1555,0,0
-168,-531,0,0,0,0,0,0,0,0,0,-1,1056,1555,0,0
-161,-531,0,0,0,0,0,0,0,0,0,-1,1063,1555,0,0
-154,-531,0,0,0,0,0,0,0,0,0,-1,1070,1555,0,0
-147,-531,0,0,0,0,0,0,0,0,0,-1,1077,1555,0,0
-140,-531,0,0,0,0,0,0,0,0,0,-1,1084,1555,0,0
-133,-531,0,0,0,0,0,0,0,0,0,-1,1091,1555,0,0
-126,-531,0,0,0,0,0,0,0,0,0,-1,1098,1555,0,0
-119,-531,0,0,0,0,0,0,0,0,0,-1,1105,1555,0,0
-112,-531,0,0,0,0,0,0,0,0,0,-1,1112,1555,0,0
-105,-531,0,0,0,0,0,0,0,0,0,-1,1119,1555,0,0
-98,-531,0,0,0,0,0,0,0,0,0,-1,1126,1555,0,0
-91,-531,0,0,0,0,0,0,0,0,0,-1,1133,1555,0,0
-84,-531,0,0,0,0,0,0,0,0,0,-1,1140,1555,0,0
-77,-531,0,0,0,0,0,0,0,0,0,-1,1147,1555,0,0
-70,-531,0,0,0,0,0,0,0,0,0,-1,1154,1555,0,0
-63,-531,0,0,0,0,0,0,0,0,0,-1,1161,1555,0,0
-56,-531,0,0,0,0,0,0,0,0,0,-1,1168,1555,0,0
-49,-531,0,0,0,0,0,0,0,0,0,-1,1175,1555,0,0
-42,-531,0,0,0,0,0,0,0,0,0,-1,1182,1555,0,0
-35,-531,0,0,0,0,0,0,0,0,0,-1,1189,1555,0,0
-28,-531,0,0,0,0,0,0,0,0,0,-1,1196,1555,0,0
-21,-531,0,0,0,0,0,0,0,0,0,-1,1203,1555,0,0
-14,-531,0,0,0,0,0,0,0,0,0,-1,1210,1555,0,0
-7,-531,0,0,0,0,0,0,0,0,0,-1,1217,1555,0,0
0,-531,0,0,0,0,0,0,0,0,0,-1,1224,1555,0,0
7,-531,0,0,0,0,0,0,0,0,0,-1,1231,1555,0,0
14,-531,0,0,0,0,0,0,0,0,0,-1,1238,1555,0,0
21,-531,0,0,0,0,0,0,0,0,0,-1,1245,1555,0,0
28,-531,0,0,0,0,0,0,0,0,0,-1,1252,1555,0,0
35,-531,0,0,0,0,0,0,0,0,0,-1,1259,1555,0,0
42,-531,0,0,0,0,0,0,0,0,0,-1,1266,1555,0,0
49,-531,0,0,0,0,0,0,0,0,0,-1,1273,1555,0,0
56,-531,0,0,0,0,0,0,0,0,0,-1,1280,1555,0,0
63,-531,0,0,0,0,0,0,0,0,0,-1,1287,1555,0,0
70,-531,0,0,0,0,0,0,0,0,0,-1,1294,1555,0,0
77,-531,0,0,0,0,0,0,0,0,0,-1,1301,1555,0,0
84,-531,0,0,0,0,0,0,0,0,0,-1,1308,1555,0,0
91,-531,0,0,0,0,0,0,0,0,0,-1,1315,1555,0,0
98,-531,0,0,0,0,0,0,0,0,0,-1,1322,1555,0,0
105,-531,0,0,0,0,0,0,0,0,0,-1,1329,1555,0,0
112,-531,0,0,0,0,0,0,0,0,0,-1,1336,1555,0,0
119,-531,0,0,0,0,0,0,0,0,0,-1,1343,1555,0,0
126,-531,0,0,0,0,0,0,0,0,0,-1,1350,1555,0,0
133,-531,0,0,0,0,0,0,0,0,0,-1,1357,1555,0,0
140,-531,0,0,0,0,0,0,0,0,0,-1,1364,1555,0,0
147,-531,0,0,0,0,0,0,0,0,0,-1,1371,1555,0,0
154,-531,0,0,0,0,0,0,0,0,0,-1,1378,1555,0,0
161,-531,0,0,0,0,0,0,0,0,0,-1,1385,1555,0,0
168,-531,0,0,0,0,0,0,0,0,0,-1,1392,1555,0,0
175,-531,0,0,0,0,0,0,0,0,0,-1,1399,1555,0,0
182,-531,0,0,0,0,0,0,0,0,0,-1,1406,1555,0,0
189,-531,0,0,0,0,0,0,0,0,0,-1,1413,1555,0,0
196,-531,0,0,0,0,0,0,0,0,0,-1,1420,1555,0,0
203,-531,0,0,0,0,0,0,0,0,0,-1,1427,1555,0,0
210,-531,0,0,0,0,0,0,0,0,0,-1,1434,1555,0,0
217,-531,0,0,0,0,0,0,0,0,0,-1,1441,1555,0,0
224,-531,0,0,0,0,0,0,0,0,0,-1,1448,1555,0,0
231,-531,0,0,0,0,0,0,0,0,0,-1,1455,1555,0,0
238,-531,0,0,0,0,0,0,0,0,0,-1,1462,1555,0,0
245,-531,0,0,0,0,0,0,0,0,0,-1,1469,1555,0,0
252,-531,0,0,0,0,0,0,0,0,0,-1,1476,1555,0,0
259,-531,0,0,0,0,0,0,0,0,0,-1,1483,1555,0,0
266,-531,0,0,0,0,0,0,0,0,0,-1,1490,1555,0,0
273,-531,0,0,0,0,0,0,0,0,0,-1,1497,1555,0,0
280,-531,0,0,0,0,0,0,0,0,0,-1,1504,1555,0,0
287,-531,0,0,0,0,0,0,0,0,0,-1,1511,1555,0,0
294,-531,0,0,0,0,0,0,0,0,0,-1,1518,1555,0,0
301,-531,0,0,0,0,0,0,0,0,0,-1,1525,1555,0,0
308,-531,0,0,0,0,0,0,0,0,0,-1,1532,1555,0,0
315,-531,0,0,0,0,0,0,0,0,0,-1,1539,1555,0,0
322,-531,0,0,0,0,0,0,0,0,0,-1,1546,1555,0,0
329,-531,0,0,0,0,0,0,0,0,0,-1,1553,1555,0,0
336,-531,0,0,0,0,0,0,0,0,0,-1,1560,1555,0,0
343,-531,0,0,0,0,0,0,0,0,0,-1,1567,1555,0,0
350,-531,0,0,0,0,0,0,0,0,0,-1,1574,1555,0,0
357,-531,0,0,0,0,0,0,0,0,0,-1,1581,1555,0,0
364,-531,0,0,0,0,0,0,0,0,0,-1,1588,1555,0,0
371,-531,0,0,0,0,0,0,0,0,0,-1,1595,1555,0,0
378,-531,0,0,0,0,0,0,0,0,0,-1,1602,1555,0,0
385,-531,3.48169,1.78625,0,0,0,0,0,0,0,-1,1609,1555,3.48165,-1.78624
392,-531,10.8781,9.09204,0,0,0,0,0,0,0,-1,1616,1555,10.8781,-9.09205
399,-531,8.26306,5.29602,0,0,0,0,0,0,0,-1,1623,1555,8.26302,-5.29607
406,-531,8.26147,5.42712,0,0,0,0,0,0,0,-1,1630,1555,8.26145,-5.42716
413,-531,8.20618,5.75012,0,0,0,0,0,0,0,-1,1637,1555,8.20619,-5.75017
420,-531,7.64868,7.09558,0,0,0,0,0,0,0,-1,1644,1555,7.64867,-7.09564
427,-531,9.93054,11.8412,0,0,0,0,0,0,0,-1,1651,1555,9.93059,-11.8412
434,-531,10.244,11.7072,0,0,0,0,0,0,0,-1,1658,1555,10.244,-11.7071
441,-531,11.4528,12.9397,0,0,0,0,0,0,0,-1,1665,1555,11.4528,-12.9397
448,-531,8.70752,11.1261,0,0,0,0,0,0,0,-1,1672,1555,8.70751,-11.126
455,-531,14.4877,9.67065,0,0,0,0,0,0,0,-1,1679,1555,14.4876,-9.67066
462,-531,12.9753,12.8777,0,0,0,0,0,0,0,-1,1686,1555,12.9753,-12.8777
469,-531,13.7798,12.8618,0,0,0,0,0,0,0,-1,1693,1555,13.7798,-12.8619
476,-531,12.8657,13.4321,0,0,0,0,0,0,0,-1,1700,1555,12.8658,-13.4322
483,-531,12.2048,15.6371,0,0,0,0,0,0,0,-1,1707,1555,12.2049,-15.6371
490,-531,12.3197,15.4196,-0.00607811,-0.0099763,0.0100062,0.00216709,-0.0182215,0.689209,0.0129307,0.0432423,1714,1555,12.3198,-15.4195
497,-531,11.9203,15.5839,-0.00504833,-0.00687448,0.00747404,0.0015682,-0.013491,0.724616,0.00955971,0.0269201,1721,1555,11.9203,-15.5839
504,-531,11.9419,15.3048,-0.00391341,-0.0044836,0.00523662,0.00104587,-0.00944288,0.758203,0.00667126,0.0149992,1728,1555,11.9419,-15.3048
511,-531,11.9639,14.9821,-0.00309705,-0.00290283,0.00377734,0.000778642,-0.00677853,0.79825,0.00479967,0.0134941,1735,1555,11.9639,-14.982
518,-531,11.98,14.7109,-0.0027062,-0.00135603,0.00263258,0.000686642,-0.00474887,0.910912,0.00341786,0.0142998,1742,1555,11.98,-14.711
525,-531,11.9989,14.4238,-0.00198241,-0.000611896,0.00165666,0.000495638,-0.00308995,0.981502,0.0022435,0.0137975,1749,1555,11.9989,-14.4238
532,-531,12.0121,14.1031,-0.00122812,-7.79948e-05,0.00109833,0.000586709,-0.00189282,1.02656,0.0014963,0.0107672,1756,1555,12.012,-14.1031
539,-531,11.9906,13.8058,-0.000523286,0.000415999,0.00057291,0.00068716,-0.000794447,1.12873,0.000856153,0.012615,1763,1555,11.9906,-13.8058
546,-531,11.9736,13.502,0.000144225,0.000805845,9.29563e-05,0.000818657,0.000131412,1.43383,0.000507669,0.015302,1770,1555,11.9736,-13.502
553,-531,11.9883,13.2595,0.000607686,0.00103458,-0.000134274,0.0010733,0.000568964,-1.29003,0.000620044,0.0290787,1777,1555,11.9882,-13.2596
560,-531,11.9475,12.9691,0.00103359,0.0012744,-0.000400044,0.00157176,0.000736223,-0.931573,0.000908062,0.0333804,1784,1555,11.9475,-12.9691
567,-531,11.9144,12.6649,0.00154164,0.00141218,-0.000675642,0.00215564,0.000798173,-0.737643,0.00125845,0.0188144,1791,1555,11.9144,-12.6649
574,-531,11.9591,12.3508,0.00221367,0.00176693,-0.0011403,0.00315227,0.000828326,-0.688679,0.00188701,0.012281,1798,1555,11.9591,-12.3508
581,-531,11.9863,12.0259,0.00288162,0.00214501,-0.00154159,0.00409829,0.000928332,-0.66814,0.00248133,0.0119987,1805,1555,11.9863,-12.0259
588,-531,12.0106,11.6636,0.00305061,0.00210762,-0.00155533,0.00420434,0.000953884,-0.638227,0.00254523,0.0205793,1812,1555,12.0107,-11.6636
595,-531,11.99,11.2599,0,0,0,0,0,0,0,-1,1819,1555,11.99,-11.2599
602,-531,12.1992,10.7151,0,0,0,0,0,0,0,-1,1826,1555,12.1992,-10.7151
609,-531,10.9072,8.50903,0,0,0,0,0,0,0,-1,1833,1555,10.9073,-8.50902
616,-531,10.5723,7.17859,0,0,0,0,0,0,0,-1,1840,1555,10.5723,-7.17855
623,-531,10.0674,5.08984,0,0,0,0,0,0,0,-1,1847,1555,10.0674,-5.08981
630,-531,11.672,3.18909,0,0,0,0,0,0,0,-1,1854,1555,11.672,-3.18904
637,-531,13.2546,1.38965,0,0,0,0,0,0,0,-1,1861,1555,13.2547,-1.3896
644,-531,0,0,0,0,0,0,0,0,0,-1,1868,1555,0,0
651,-531,0,0,0,0,0,0,0,0,0,-1,1875,1555,0,0
658,-531,0,0,0,0,0,0,0,0,0,-1,1882,1555,0,0
665,-531,0,0,0,0,0,0,0,0,0,-1,1889,1555,0,0
672,-531,0,0,0,0,0,0,0,0,0,-1,1896,1555,0,0
679,-531,0,0,0,0,0,0,0,0,0,-1,1903,1555,0,0
686,-531,0,0,0,0,0,0,0,0,0,-1,1910,1555,0,0
693,-531,0,0,0,0,0,0,0,0,0,-1,1917,1555,0,0
700,-531,0,0,0,0,0,0,0,0,0,-1,1924,1555,0,0
707,-531,0,0,0,0,0,0,0,0,0,-1,1931,1555,0,0
714,-531,0,0,0,0,0,0,0,0,0,-1,1938,1555,0,0
721,-531,0,0,0,0,0,0,0,0,0,-1,1945,1555,0,0
728,-531,0,0,0,0,0,0,0,0,0,-1,1952,1555,0,0
735,-531,0,0,0,0,0,0,0,0,0,-1,1959,1555,0,0
742,-531,0,0,0,0,0,0,0,0,0,-1,1966,1555,0,0
749,-531,0,0,0,0,0,0,0,0,0,-1,1973,1555,0,0
756,-531,0,0,0,0,0,0,0,0,0,-1,1980,1555,0,0
763,-531,0,0,0,0,0,0,0,0,0,-1,1987,1555,0,0
770,-531,0,0,0,0,0,0,0,0,0,-1,1994,1555,0,0
777,-531,0,0,0,0,0,0,0,0,0,-1,2001,1555,0,0
784,-531,0,0,0,0,0,0,0,0,0,-1,2008,1555,0,0
791,-531,0,0,0,0,0,0,0,0,0,-1,2015,1555,0,0
798,-531,0,0,0,0,0,0,0,0,0,-1,2022,1555,0,0
805,-531,0,0,0,0,0,0,0,0,0,-1,2029,1555,0,0
812,-531,0,0,0,0,0,0,0,0,0,-1,2036,1555,0,0
-700,-538,0,0,0,0,0,0,0,0,0,-1,524,1562,0,0
-693,-538,0,0,0,0,0,0,0,0,0,-1,531,1562,0,0
-686,-538,0,0,0,0,0,0,0,0,0,-1,538,1562,0,0
-679,-538,0,0,0,0,0,0,0,0,0,-1,545,1562,0,0
-672,-538,0,0,0,0,0,0,0,0,0,-1,552,1562,0,0
-665,-538,0,0,0,0,0,0,0,0,0,-1,559,1562,0,0
-658,-538,0,0,0,0,0,0,0,0,0,-1,566,1562,0,0
-651,-538,0,0,0,0,0,0,0,0,0,-1,573,1562,0,0
-644,-538,0,0,0,0,0,0,0,0,0,-1,580,1562,0,0
-637,-538,0,0,0,0,0,0,0,0,0,-1,587,1562,0,0
-630,-538,0,0,0,0,0,0,0,0,0,-1,594,1562,0,0
-623,-538,0,0,0,0,0,0,0,0,0,-1,601,1562,0,0
-616,-538,0,0,0,0,0,0,0,0,0,-1,608,1562,0,0
-609,-538,0,0,0,0,0,0,0,0,0,-1,615,1562,0,0
-602,-538,0,0,0,0,0,0,0,0,0,-1,622,1562,0,0
-595,-538,0,0,0,0,0,0,0,0,0,-1,629,1562,0,0
-588,-538,0,0,0,0,0,0,0,0,0,-1,636,1562,0,0
-581,-538,0,0,0,0,0,0,0,0,0,-1,643,1562,0,0
-574,-538,0,0,0,0,0,0,0,0,0,-1,650,1562,0,0
-567,-538,0,0,0,0,0,0,0,0,0,-1,657,1562,0,0
-560,-538,0,0,0,0,0,0,0,0,0,-1,664,1562,0,0
-553,-538,0,0,0,0,0,0,0,0,0,-1,671,1562,0,0
-546,-538,0,0,0,0,0,0,0,0,0,-1,678,1562,0,0
-539,-538,0,0,0,0,0,0,0,0,0,-1,685,1562,0,0
-532,-538,0,0,0,0,0,0,0,0,0,-1,692,1562,0,0
-525,-538,0,0,0,0,0,0,0,0,0,-1,699,1562,0,0
-518,-538,0,0,0,0,0,0,0,0,0,-1,706,1562,0,0
-511,-538,-2.6582,-1.54321,0,0,0,0,0,0,0,-1,713,1562,-2.65821,1.54327
-504,-538,-2.66455,-0.71167,0,0,0,0,0,0,0,-1,720,1562,-2.66456,0.711667
-497,-538,-0.763855,6.77747,0,0,0,0,0,0,0,-1,727,1562,-0.76385,-6.77743
-490,-538,-2.70453,8.01465,0,0,0,0,0,0,0,-1,734,1562,-2.70451,-8.0147
-483,-538,-2.15729,9.01233,0,0,0,0,0,0,0,-1,741,1562,-2.15728,-9.01234
-476,-538,-2.07745,8.96924,0,0,0,0,0,0,0,-1,748,1562,-2.07748,-8.9692
-469,-538,-1.70697,9.41321,0,0,0,0,0,0,0,-1,755,1562,-1.70698,-9.41317
-462,-538,-0.162476,10.1083,0,0,0,0,0,0,0,-1,762,1562,-0.162463,-10.1082
-455,-538,-0.291748,10.3007,0.00752203,0.00363992,0.00570739,0.0116094,-0.00044745,0.621486,0.00789298,0.0392674,769,1562,-0.291719,-10.3007
-448,-538,-0.206909,10.6068,0.00552433,0.00294161,0.00421706,0.00864333,-0.000177384,0.636821,0.00582225,0.0183601,776,1562,-0.206881,-10.6069
-441,-538,-0.257996,10.9341,0.00401435,0.00236843,0.0031273,0.00642516,-4.23817e-05,0.656738,0.00429764,0.0185079,783,1562,-0.257991,-10.9341
-434,-538,-0.292358,11.2009,0.00298849,0.00195041,0.00236202,0.00488783,5.1074e-05,0.677246,0.00324166,0.0116371,790,1562,-0.292372,-11.2009
-427,-538,-0.31012,11.5385,0.00243704,0.00152219,0.00187113,0.00390585,5.33786e-05,0.665517,0.00258629,0.0130398,797,1562,-0.310133,-11.5385
-420,-538,-0.322632,11.8513,0.00211855,0.00161994,0.00151309,0.00340273,0.000335756,0.703749,0.00216526,0.0178094,804,1562,-0.322627,-11.8513
-413,-538,-0.33313,12.1823,0.00176619,0.00169088,0.00127591,0.003005,0.000452072,0.770646,0.00187094,0.0175103,811,1562,-0.333143,-12.1822
-406,-538,-0.32312,12.4698,0.00188554,0.00203447,0.00149261,0.00345447,0.000465535,0.810323,0.00216456,0.0137437,818,1562,-0.323115,-12.4699
-399,-538,-0.320496,12.8038,0.00220393,0.00238953,0.00168933,0.00398861,0.000604847,0.812838,0.00248214,0.0132954,825,1562,-0.320468,-12.8038
-392,-538,-0.2995,13.1301,0.00269712,0.00292849,0.00187222,0.00468859,0.000937016,0.816253,0.00286493,0.0138319,832,1562,-0.299471,-13.1301
-385,-538,-0.328918,13.4369,0.00313438,0.00341013,0.00193392,0.00521108,0.00133343,0.820983,0.00312587,0.0113214,839,1562,-0.328927,-13.4369
-378,-538,-0.334656,13.7495,0.00330472,0.00341589,0.00167627,0.00503749,0.00168312,0.801973,0.00296127,0.00988497,846,1562,-0.334667,-13.7495
-371,-538,-0.336853,14.0685,0.00357488,0.00356877,0.00145012,0.00502195,0.0021217,0.784344,0.00291102,0.0120161,853,1562,-0.336858,-14.0685
-364,-538,-0.296997,14.4146,0.00352586,0.00392021,0.000879526,0.00462439,0.00282168,0.895666,0.00269141,0.0133998,860,1562,-0.297023,-14.4146
-357,-538,-0.277832,14.7372,0.00318065,0.0045945,-0.000101852,0.0046018,0.00317335,-1.49925,0.00271977,0.0262947,867,1562,-0.27782,-14.7372
-350,-538,-0.417053,15.0353,0.00265029,0.00472199,-0.00140094,0.00542845,0.00194384,-1.10374,0.00317592,0.0361667,874,1562,-0.417074,-15.0353
-343,-538,-0.230713,15.358,0.00169616,0.00492236,-0.00315222,0.00685024,-0.000231725,-1.02189,0.004646,0.045627,881,1562,-0.230711,-15.358
-336,-538,-0.0644531,15.4489,0.000211534,0.00508821,-0.00500553,0.00821771,-0.00291797,-1.01205,0.00666748,0.0435623,888,1562,-0.0644509,-15.4489
-329,-538,-0.181519,15.3391,-0.00162586,0.0055929,-0.00705917,0.00991192,-0.00594488,-1.02172,0.00924994,0.0440783,895,1562,-0.181505,-15.3391
-322,-538,-0.591919,15.2153,0,0,0,0,0,0,0,-1,902,1562,-0.591889,-15.2153
-315,-538,2.45172,16.6761,0,0,0,0,0,0,0,-1,909,1562,2.45172,-16.6762
-308,-538,1.88416,16.1573,0,0,0,0,0,0,0,-1,916,1562,1.88413,-16.1573
-301,-538,1.31744,15.8439,0,0,0,0,0,0,0,-1,923,1562,1.31742,-15.8439
-294,-538,1.23138,14.0757,0,0,0,0,0,0,0,-1,930,1562,1.23137,-14.0757
-287,-538,-2.60419,10.2361,0,0,0,0,0,0,0,-1,937,1562,-2.6042,-10.2361
-280,-538,-2.93475,10.5106,0,0,0,0,0,0,0,-1,944,1562,-2.93475,-10.5106
-273,-538,-3.26532,10.785,0,0,0,0,0,0,0,-1,951,1562,-3.26531,-10.785
-266,-538,-5.03412,15.9951,0,0,0,0,0,0,0,-1,958,1562,-5.03409,-15.9951
-259,-538,-5.89642,16.5184,0,0,0,0,0,0,0,-1,965,1562,-5.89644,-16.5184
-252,-538,0,0,0,0,0,0,0,0,0,-1,972,1562,0,0
-245,-538,0,0,0,0,0,0,0,0,0,-1,979,1562,0,0
-238,-538,0,0,0,0,0,0,0,0,0,-1,986,1562,0,0
-231,-538,0,0,0,0,0,0,0,0,0,-1,993,1562,0,0
-224,-538,0,0,0,0,0,0,0,0,0,-1,1000,1562,0,0
-217,-538,0,0,0,0,0,0,0,0,0,-1,1007,1562,0,0
-210,-538,0,0,0,0,0,0,0,0,0,-1,1014,1562,0,0
-203,-538,0,0,0,0,0,0,0,0,0,-1,1021,1562,0,0
-196,-538,0,0,0,0,0,0,0,0,0,-1,1028,1562,0,0
-189,-538,0,0,0,0,0,0,0,0,0,-1,1035,1562,0,0
-182,-538,0,0,0,0,0,0,0,0,0,-1,1042,1562,0,0
-175,-538,0,0,0,0,0,0,0,0,0,-1,1049,1562,0,0
-168,-538,0,0,0,0,0,0,0,0,0,-1,1056,1562,0,0
-161,-538,0,0,0,0,0,0,0,0,0,-1,1063,1562,0,0
-154,-538,0,0,0,0,0,0,0,0,0,-1,1070,1562,0,0
-147,-538,0,0,0,0,0,0,0,0,0,-1,1077,1562,0,0
-140,-538,0,0,0,0,0,0,0,0,0,-1,1084,1562,0,0
-133,-538,0,0,0,0,0,0,0,0,0,-1,1091,1562,0,0
-126,-538,0,0,0,0,0,0,0,0,0,-1,1098,1562,0,0
-119,-538,0,0,0,0,0,0,0,0,0,-1,1105,1562,0,0
-112,-538,0,0,0,0,0,0,0,0,0,-1,1112,1562,0,0
-105,-538,0,0,0,0,0,0,0,0,0,-1,1119,1562,0,0
-98,-538,0,0,0,0,0,0,0,0,0,-1,1126,1562,0,0
-91,-538,0,0,0,0,0,0,0,0,0,-1,1133,1562,0,0
-84,-538,0,0,0,0,0,0,0,0,0,-1,1140,1562,0,0
-77,-538,0,0,0,0,0,0,0,0,0,-1,1147,1562,0,0
-70,-538,0,0,0,0,0,0,0,0,0,-1,1154,1562,0,0
-63,-538,0,0,0,0,0,0,0,0,0,-1,1161,1562,0,0
-56,-538,0,0,0,0,0,0,0,0,0,-1,1168,1562,0,0
-49,-538,0,0,0,0,0,0,0,0,0,-1,1175,1562,0,0
-42,-538,0,0,0,0,0,0,0,0,0,-1,1182,1562,0,0
-35,-538,0,0,0,0,0,0,0,0,0,-1,1189,1562,0,0
-28,-538,0,0,0,0,0,0,0,0,0,-1,1196,1562,0,0
-21,-538,0,0,0,0,0,0,0,0,0,-1,1203,1562,0,0
-14,-538,0,0,0,0,0,0,0,0,0,-1,1210,1562,0,0
-7,-538,0,0,0,0,0,0,0,0,0,-1,1217,1562,0,0
0,-538,0,0,0,0,0,0,0,0,0,-1,1224,1562,0,0
7,-538,0,0,0,0,0,0,0,0,0,-1,1231,1562,0,0
14,-538,0,0,0,0,0,0,0,0,0,-1,1238,1562,0,0
21,-538,0,0,0,0,0,0,0,0,0,-1,1245,1562,0,0
28,-538,0,0,0,0,0,0,0,0,0,-1,1252,1562,0,0
35,-538,0,0,0,0,0,0,0,0,0,-1,1259,1562,0,0
42,-538,0,0,0,0,0,0,0,0,0,-1,1266,1562,0,0
49,-538,0,0,0,0,0,0,0,0,0,-1,1273,1562,0,0
56,-538,0,0,0,0,0,0,0,0,0,-1,1280,1562,0,0
63,-538,0,0,0,0,0,0,0,0,0,-1,1287,1562,0,0
70,-538,0,0,0,0,0,0,0,0,0,-1,1294,1562,0,0
77,-538,0,0,0,0,0,0,0,0,0,-1,1301,1562,0,0
84,-538,0,0,0,0,0,0,0,0,0,-1,1308,1562,0,0
91,-538,0,0,0,0,0,0,0,0,0,-1,1315,1562,0,0
98,-538,0,0,0,0,0,0,0,0,0,-1,1322,1562,0,0
105,-538,0,0,0,0,0,0,0,0,0,-1,1329,1562,0,0
112,-538,0,0,0,0,0,0,0,0,0,-1,1336,1562,0,0
119,-538,0,0,0,0,0,0,0,0,0,-1,1343,1562,0,0
126,-538,0,0,0,0,0,0,0,0,0,-1,1350,1562,0,0
133,-538,0,0,0,0,0,0,0,0,0,-1,1357,1562,0,0
140,-538,0,0,0,0,0,0,0,0,0,-1,1364,1562,0,0
147,-538,0,0,0,0,0,0,0,0,0,-1,1371,1562,0,0
154,-538,0,0,0,0,0,0,0,0,0,-1,1378,1562,0,0
161,-538,0,0,0,0,0,0,0,0,0,-1,1385,1562,0,0
168,-538,0,0,0,0,0,0,0,0,0,-1,1392,1562,0,0
175,-538,0,0,0,0,0,0,0,0,0,-1,1399,1562,0,0
182,-538,0,0,0,0,0,0,0,0,0,-1,1406,1562,0,0
189,-538,0,0,0,0,0,0,0,0,0,-1,1413,1562,0,0
196,-538,0,0,0,0,0,0,0,0,0,-1,1420,1562,0,0
203,-538,0,0,0,0,0,0,0,0,0,-1,1427,1562,0,0
210,-538,0,0,0,0,0,0,0,0,0,-1,1434,1562,0,0
217,-538,0,0,0,0,0,0,0,0,0,-1,1441,1562,0,0
224,-538,0,0,0,0,0,0,0,0,0,-1,1448,1562,0,0
231,-538,0,0,0,0,0,0,0,0,0,-1,1455,1562,0,0
238,-538,0,0,0,0,0,0,0,0,0,-1,1462,1562,0,0
245,-538,0,0,0,0,0,0,0,0,0,-1,1469,1562,0,0
252,-538,0,0,0,0,0,0,0,0,0,-1,1476,1562,0,0
259,-538,0,0,0,0,0,0,0,0,0,-1,1483,1562,0,0
266,-538,0,0,0,0,0,0,0,0,0,-1,1490,1562,0,0
273,-538,0,0,0,0,0,0,0,0,0,-1,1497,1562,0,0
280,-538,0,0,0,0,0,0,0,0,0,-1,1504,1562,0,0
287,-538,0,0,0,0,0,0,0,0,0,-1,1511,1562,0,0
294,-538,0,0,0,0,0,0,0,0,0,-1,1518,1562,0,0
301,-538,0,0,0,0,0,0,0,0,0,-1,1525,1562,0,0
308,-538,0,0,0,0,0,0,0,0,0,-1,1532,1562,0,0
315,-538,0,0,0,0,0,0,0,0,0,-1,1539,1562,0,0
322,-538,0,0,0,0,0,0,0,0,0,-1,1546,1562,0,0
329,-538,0,0,0,0,0,0,0,0,0,-1,1553,1562,0,0
336,-538,0,0,0,0,0,0,0,0,0,-1,1560,1562,0,0
343,-538,0,0,0,0,0,0,0,0,0,-1,1567,1562,0,0
350,-538,0,0,0,0,0,0,0,0,0,-1,1574,1562,0,0
357,-538,0,0,0,0,0,0,0,0,0,-1,1581,1562,0,0
364,-538,0,0,0,0,0,0,0,0,0,-1,1588,1562,0,0
371,-538,0,0,0,0,0,0,0,0,0,-1,1595,1562,0,0
378,-538,9.65479,5.82434,0,0,0,0,0,0,0,-1,1602,1562,9.6548,-5.82439
385,-538,10.5449,7.9502,0,0,0,0,0,0,0,-1,1609,1562,10.5449,-7.95014
392,-538,8.20361,7.07214,0,0,0,0,0,0,0,-1,1616,1562,8.20362,-7.07211
399,-538,7.85425,4.70508,0,0,0,0,0,0,0,-1,1623,1562,7.85425,-4.70512
406,-538,7.77734,4.96094,0,0,0,0,0,0,0,-1,1630,1562,7.77729,-4.96097
413,-538,13.0446,13.1765,0,0,0,0,0,0,0,-1,1637,1562,13.0446,-13.1765
420,-538,9.96216,12.7653,0,0,0,0,0,0,0,-1,1644,1562,9.96221,-12.7653
427,-538,10.1732,14.5863,0,0,0,0,0,0,0,-1,1651,1562,10.1732,-14.5863
434,-538,9.64331,14.7745,0,0,0,0,0,0,0,-1,1658,1562,9.64326,-14.7746
441,-538,10.8445,16.9141,0,0,0,0,0,0,0,-1,1665,1562,10.8445,-16.9141
448,-538,11.9348,13.1129,0,0,0,0,0,0,0,-1,1672,1562,11.9348,-13.1129
455,-538,10.39,14.1298,0,0,0,0,0,0,0,-1,1679,1562,10.39,-14.1298
462,-538,11.9387,14.3413,0,0,0,0,0,0,0,-1,1686,1562,11.9387,-14.3414
469,-538,13.4874,14.553,0,0,0,0,0,0,0,-1,1693,1562,13.4874,-14.553
476,-538,12.0959,16.2972,0,0,0,0,0,0,0,-1,1700,1562,12.0959,-16.2973
483,-538,11.8929,15.9124,-0.00389189,-0.0104423,0.00991765,0.00327735,-0.0176116,0.625915,0.0129722,0.0386259,1707,1562,11.8929,-15.9123
490,-538,11.6724,15.803,-0.00329451,-0.00740396,0.00752217,0.00244852,-0.013147,0.652073,0.00968456,0.0200875,1714,1562,11.6724,-15.803
497,-538,11.6616,15.5939,-0.00258444,-0.00503164,0.0055165,0.00184253,-0.00945861,0.676261,0.00700121,0.013642,1721,1562,11.6616,-15.5938
504,-538,11.6854,15.2732,-0.00177655,-0.00312556,0.0037385,0.0013478,-0.00624992,0.696148,0.00468101,0.00958942,1728,1562,11.6854,-15.2732
511,-538,11.6733,14.9895,-0.00125331,-0.00184771,0.0025678,0.00103443,-0.00413545,0.727784,0.00315875,0.00945387,1735,1562,11.6733,-14.9895
518,-538,11.6786,14.7137,-0.00109226,-0.000563679,0.00165708,0.000850049,-0.00250599,0.864478,0.0020147,0.00977747,1742,1562,11.6786,-14.7137
525,-538,11.6809,14.3922,-0.00063017,-4.41943e-06,0.00089398,0.000629854,-0.00126444,0.953727,0.00111394,0.0108944,1749,1562,11.6809,-14.3922
532,-538,11.6998,14.0856,-0.000166575,0.000380624,0.000515139,0.000690312,-0.000476263,1.02951,0.000677292,0.012747,1756,1562,11.6999,-14.0856
539,-538,11.6949,13.8262,0.000226896,0.000723769,0.000172007,0.000777504,0.000173162,1.26801,0.00047134,0.0153805,1763,1562,11.6949,-13.8262
546,-538,11.6754,13.531,0.000528884,0.000937305,-7.57538e-05,0.000950903,0.000515286,-1.39318,0.000549646,0.0162971,1770,1562,11.6754,-13.5311
553,-538,11.6879,13.215,0.000676169,0.00108822,-0.000137554,0.00112992,0.00063447,-1.27645,0.000654004,0.0265515,1777,1562,11.6878,-13.2149
560,-538,11.6332,12.9935,0.000840481,0.00124727,-0.000265761,0.00137854,0.000709214,-1.11202,0.000796011,0.0298566,1784,1562,11.6332,-12.9935
567,-538,11.5913,12.6583,0.00113782,0.00137613,-0.000440328,0.00171314,0.000800806,-0.917536,0.000989778,0.0202725,1791,1562,11.5913,-12.6584
574,-538,11.6376,12.328,0.00167826,0.00179517,-0.000866343,0.00260502,0.000868398,-0.819084,0.0015316,0.0136289,1798,1562,11.6375,-12.328
581,-538,11.681,11.9937,0.00230188,0.00227495,-0.00129501,0.00358349,0.000993329,-0.780199,0.0021363,0.0165476,1805,1562,11.6811,-11.9937
588,-538,11.6971,11.6782,0.00269384,0.00267603,-0.00143065,0.00411561,0.00125426,-0.782286,0.00243579,0.0364255,1812,1562,11.6972,-11.6782
595,-538,11.7294,11.291,0,0,0,0,0,0,0,-1,1819,1562,11.7293,-11.291
602,-538,10.314,8.94238,0,0,0,0,0,0,0,-1,1826,1562,10.314,-8.94238
609,-538,10.1046,7.05713,0,0,0,0,0,0,0,-1,1833,1562,10.1046,-7.05719
616,-538,9.92249,5.43506,0,0,0,0,0,0,0,-1,1840,1562,9.92254,-5.43507
623,-538,11.1711,4.31604,0,0,0,0,0,0,0,-1,1847,1562,11.1711,-4.316
630,-538,12.6112,2.61633,0,0,0,0,0,0,0,-1,1854,1562,12.6112,-2.61637
637,-538,0,0,0,0,0,0,0,0,0,-1,1861,1562,0,0
644,-538,0,0,0,0,0,0,0,0,0,-1,1868,1562,0,0
651,-538,0,0,0,0,0,0,0,0,0,-1,1875,1562,0,0
658,-538,0,0,0,0,0,0,0,0,0,-1,1882,1562,0,0
665,-538,0,0,0,0,0,0,0,0,0,-1,1889,1562,0,0
672,-538,0,0,0,0,0,0,0,0,0,-1,1896,1562,0,0
679,-538,0,0,0,0,0,0,0,0,0,-1,1903,1562,0,0
686,-538,0,0,0,0,0,0,0,0,0,-1,1910,1562,0,0
693,-538,0,0,0,0,0,0,0,0,0,-1,1917,1562,0,0
700,-538,0,0,0,0,0,0,0,0,0,-1,1924,1562,0,0
707,-538,0,0,0,0,0,0,0,0,0,-1,1931,1562,0,0
714,-538,0,0,0,0,0,0,0,0,0,-1,1938,1562,0,0
721,-538,0,0,0,0,0,0,0,0,0,-1,1945,1562,0,0
728,-538,0,0,0,0,0,0,0,0,0,-1,1952,1562,0,0
735,-538,0,0,0,0,0,0,0,0,0,-1,1959,1562,0,0
742,-538,0,0,0,0,0,0,0,0,0,-1,1966,1562,0,0
749,-538,0,0,0,0,0,0,0,0,0,-1,1973,1562,0,0
756,-538,0,0,0,0,0,0,0,0,0,-1,1980,1562,0,0
763,-538,0,0,0,0,0,0,0,0,0,-1,1987,1562,0,0
770,-538,0,0,0,0,0,0,0,0,0,-1,1994,1562,0,0
777,-538,0,0,0,0,0,0,0,0,0,-1,2001,1562,0,0
784,-538,0,0,0,0,0,0,0,0,0,-1,2008,1562,0,0
791,-538,0,0,0,0,0,0,0,0,0,-1,2015,1562,0,0
798,-538,0,0,0,0,0,0,0,0,0,-1,2022,1562,0,0
805,-538,0,0,0,0,0,0,0,0,0,-1,2029,1562,0,0
812,-538,0,0,0,0,0,0,0,0,0,-1,2036,1562,0,0
-700,-545,0,0,0,0,0,0,0,0,0,-1,524,1569,0,0
-693,-545,0,0,0,0,0,0,0,0,0,-1,531,1569,0,0
-686,-545,0,0,0,0,0,0,0,0,0,-1,538,1569,0,0
-679,-545,0,0,0,0,0,0,0,0,0,-1,545,1569,0,0
-672,-545,0,0,0,0,0,0,0,0,0,-1,552,1569,0,0
-665,-545,0,0,0,0,0,0,0,0,0,-1,559,1569,0,0
-658,-545,0,0,0,0,0,0,0,0,0,-1,566,1569,0,0
-651,-545,0,0,0,0,0,0,0,0,0,-1,573,1569,0,0
-644,-545,0,0,0,0,0,0,0,0,0,-1,580,1569,0,0
-637,-545,0,0,0,0,0,0,0,0,0,-1,587,1569,0,0
-630,-545,0,0,0,0,0,0,0,0,0,-1,594,1569,0,0
-623,-545,0,0,0,0,0,0,0,0,0,-1,601,1569,0,0
-616,-545,0,0,0,0,0,0,0,0,0,-1,608,1569,0,0
-609,-545,0,0,0,0,0,0,0,0,0,-1,615,1569,0,0
-602,-545,0,0,0,0,0,0,0,0,0,-1,622,1569,0,0
-595,-545,0,0,0,0,0,0,0,0,0,-1,629,1569,0,0
-588,-545,0,0,0,0,0,0,0,0,0,-1,636,1569,0,0
-581,-545,0,0,0,0,0,0,0,0,0,-1,643,1569,0,0
-574,-545,0,0,0,0,0,0,0,0,0,-1,650,1569,0,0
-567,-545,0,0,0,0,0,0,0,0,0,-1,657,1569,0,0
-560,-545,0,0,0,0,0,0,0,0,0,-1,664,1569,0,0
-553,-545,0,0,0,0,0,0,0,0,0,-1,671,1569,0,0
-546,-545,0,0,0,0,0,0,0,0,0,-1,678,1569,0,0
-539,-545,0,0,0,0,0,0,0,0,0,-1,685,1569,0,0
-532,-545,0,0,0,0,0,0,0,0,0,-1,692,1569,0,0
-525,-545,0,0,0,0,0,0,0,0,0,-1,699,1569,0,0
-518,-545,0,0,0,0,0,0,0,0,0,-1,706,1569,0,0
-511,-545,0,0,0,0,0,0,0,0,0,-1,713,1569,0,0
-504,-545,-3.55237,-2.5354,0,0,0,0,0,0,0,-1,720,1569,-3.55236,2.53545
-497,-545,2.26575,5.69214,0,0,0,0,0,0,0,-1,727,1569,2.26573,-5.6922
-490,-545,-2.17334,7.81396,0,0,0,0,0,0,0,-1,734,1569,-2.17334,-7.81399
-483,-545,-1.40808,7.85449,0,0,0,0,0,0,0,-1,741,1569,-1.40805,-7.85451
-476,-545,-1.73456,8.59119,0,0,0,0,0,0,0,-1,748,1569,-1.73457,-8.59125
-469,-545,-2.19519,9.12671,0,0,0,0,0,0,0,-1,755,1569,-2.19516,-9.12673
-462,-545,-0.118164,9.59473,0,0,0,0,0,0,0,-1,762,1569,-0.118176,-9.59468
-455,-545,0.0244141,10.0479,0.0104432,0.00621426,0.00804091,0.016643,1.44644e-05,0.656826,0.0110905,0.0465058,769,1569,0.0244348,-10.0479
-448,-545,0.205566,10.4524,0.00754999,0.00514782,0.00595469,0.0124235,0.000274293,0.685881,0.00819244,0.0311091,776,1569,0.205579,-10.4523
-441,-545,0.147583,10.9414,0.00534949,0.00407518,0.0043796,0.00913804,0.000286636,0.713164,0.00599876,0.0216335,783,1569,0.147611,-10.9414
-434,-545,-0.00531006,11.2341,0.00376624,0.00321079,0.00321336,0.00671385,0.000263176,0.742291,0.00439081,0.0170656,790,1569,-0.00531723,-11.2342
-427,-545,-0.00665283,11.5454,0.00278895,0.00241513,0.0024161,0.00502536,0.000178716,0.746795,0.00329228,0.0168969,797,1569,-0.00667766,-11.5454
-420,-545,0.00299072,11.8595,0.00213072,0.00224899,0.00181867,0.00400948,0.000370219,0.80165,0.00255853,0.0231414,804,1569,0.00296988,-11.8595
-413,-545,-0.00732422,12.1692,0.00144273,0.00205706,0.00133891,0.00312359,0.000376201,0.898154,0.00196901,0.0220406,811,1569,-0.00734943,-12.1692
-406,-545,0.0100098,12.4624,0.00133904,0.00214569,0.00137076,0.00317123,0.000313496,0.928477,0.00201779,0.0163412,818,1569,0.0100095,-12.4624
-399,-545,0.0170288,12.8024,0.00145826,0.00219278,0.0014077,0.00328034,0.000370697,0.913,0.0020744,0.0116856,825,1569,0.0170011,-12.8024
-392,-545,0.0166016,13.1273,0.00178028,0.00241514,0.00141919,0.00355197,0.000643454,0.895422,0.0021853,0.0112639,832,1569,0.0166292,-13.1273
-385,-545,-0.00311279,13.4288,0.00213772,0.00264296,0.00136159,0.00377516,0.00100552,0.877122,0.00225752,0.00933988,839,1569,-0.00308911,-13.4288
-378,-545,-0.0234375,13.7576,0.00231885,0.00251906,0.00109483,0.00351835,0.00131956,0.830989,0.00205235,0.0112556,846,1569,-0.0234569,-13.7576
-371,-545,-0.0368652,14.0963,0.00252919,0.00248382,0.000801811,0.00330863,0.00170437,0.771256,0.00191053,0.0154664,853,1569,-0.0368518,-14.0963
-364,-545,-0.0209351,14.3757,0.00251872,0.00276301,0.000290499,0.002956,0.00232573,0.984409,0.00179779,0.0101193,860,1569,-0.0209649,-14.3758
-357,-545,0.0322266,14.7158,0.00236189,0.00333764,-0.000515468,0.0035595,0.00214003,-1.16435,0.00206907,0.0118693,867,1569,0.0322558,-14.7158
-350,-545,0.0604248,15.0332,0.00201178,0.00357122,-0.00151814,0.00449817,0.00108483,-1.02263,0.00271053,0.0173168,874,1569,0.0604311,-15.0332
-343,-545,0.0639648,15.3085,0.00140305,0.00410747,-0.00271247,0.0057861,-0.000275577,-1.01663,0.00395246,0.0265789,881,1569,0.0639885,-15.3085
-336,-545,0.0498047,15.4221,0.000341397,0.00458873,-0.00389859,0.00690454,-0.00197441,-1.03479,0.00538324,0.0352868,888,1569,0.0498052,-15.4221
-329,-545,-0.0930786,15.3412,-0.00102257,0.00540499,-0.005279,0.00837152,-0.0039891,-1.05883,0.00728438,0.0437889,895,1569,-0.0931071,-15.3411
-322,-545,-0.108704,15.5364,0,0,0,0,0,0,0,-1,902,1569,-0.10871,-15.5364
-315,-545,1.84412,16.5216,0,0,0,0,0,0,0,-1,909,1569,1.8441,-16.5216
-308,-545,-0.546082,18.2208,0,0,0,0,0,0,0,-1,916,1569,-0.546082,-18.2208
-301,-545,1.52191,17.5009,0,0,0,0,0,0,0,-1,923,1569,1.52192,-17.5008
-294,-545,-2.69287,8.42102,0,0,0,0,0,0,0,-1,930,1569,-2.69287,-8.42097
-287,-545,-3.47784,9.96021,0,0,0,0,0,0,0,-1,937,1569,-3.47785,-9.96021
-280,-545,-3.7879,10.5448,0,0,0,0,0,0,0,-1,944,1569,-3.78793,-10.5448
-273,-545,-5.10333,12.864,0,0,0,0,0,0,0,-1,951,1569,-5.10331,-12.864
-266,-545,-5.78955,13.3704,0,0,0,0,0,0,0,-1,958,1569,-5.78952,-13.3703
-259,-545,-6.32184,13.8101,0,0,0,0,0,0,0,-1,965,1569,-6.32182,-13.81
-252,-545,0.369263,7.54053,0,0,0,0,0,0,0,-1,972,1569,0.369276,-7.54056
-245,-545,-0.236633,6.65564,0,0,0,0,0,0,0,-1,979,1569,-0.236605,-6.65566
-238,-545,0,0,0,0,0,0,0,0,0,-1,986,1569,0,0
-231,-545,0,0,0,0,0,0,0,0,0,-1,993,1569,0,0
-224,-545,0,0,0,0,0,0,0,0,0,-1,1000,1569,0,0
-217,-545,0,0,0,0,0,0,0,0,0,-1,1007,1569,0,0
-210,-545,0,0,0,0,0,0,0,0,0,-1,1014,1569,0,0
-203,-545,0,0,0,0,0,0,0,0,0,-1,1021,1569,0,0
-196,-545,0,0,0,0,0,0,0,0,0,-1,1028,1569,0,0
-189,-545,0,0,0,0,0,0,0,0,0,-1,1035,1569,0,0
-182,-545,0,0,0,0,0,0,0,0,0,-1,1042,1569,0,0
-175,-545,0,0,0,0,0,0,0,0,0,-1,1049,1569,0,0
-168,-545,0,0,0,0,0,0,0,0,0,-1,1056,1569,0,0
-161,-545,0,0,0,0,0,0,0,0,0,-1,1063,1569,0,0
-154,-545,0,0,0,0,0,0,0,0,0,-1,1070,1569,0,0
-147,-545,0,0,0,0,0,0,0,0,0,-1,1077,1569,0,0
-140,-545,0,0,0,0,0,0,0,0,0,-1,1084,1569,0,0
-133,-545,0,0,0,0,0,0,0,0,0,-1,1091,1569,0,0
-126,-545,0,0,0,0,0,0,0,0,0,-1,1098,1569,0,0
-119,-545,0,0,0,0,0,0,0,0,0,-1,1105,1569,0,0
-112,-545,0,0,0,0,0,0,0,0,0,-1,1112,1569,0,0
-105,-545,0,0,0,0,0,0,0,0,0,-1,1119,1569,0,0
-98,-545,0,0,0,0,0,0,0,0,0,-1,1126,1569,0,0
-91,-545,0,0,0,0,0,0,0,0,0,-1,1133,1569,0,0
-84,-545,0,0,0,0,0,0,0,0,0,-1,1140,1569,0,0
-77,-545,0,0,0,0,0,0,0,0,0,-1,1147,1569,0,0
-70,-545,0,0,0,0,0,0,0,0,0,-1,1154,1569,0,0
-63,-545,0,0,0,0,0,0,0,0,0,-1,1161,1569,0,0
-56,-545,0,0,0,0,0,0,0,0,0,-1,1168,1569,0,0
-49,-545,0,0,0,0,0,0,0,0,0,-1,1175,1569,0,0
-42,-545,0,0,0,0,0,0,0,0,0,-1,1182,1569,0,0
-35,-545,0,0,0,0,0,0,0,0,0,-1,1189,1569,0,0
-28,-545,0,0,0,0,0,0,0,0,0,-1,1196,1569,0,0
-21,-545,0,0,0,0,0,0,0,0,0,-1,1203,1569,0,0
-14,-545,0,0,0,0,0,0,0,0,0,-1,1210,1569,0,0
-7,-545,0,0,0,0,0,0,0,0,0,-1,1217,1569,0,0
0,-545,0,0,0,0,0,0,0,0,0,-1,1224,1569,0,0
7,-545,0,0,0,0,0,0,0,0,0,-1,1231,1569,0,0
14,-545,0,0,0,0,0,0,0,0,0,-1,1238,1569,0,0
21,-545,0,0,0,0,0,0,0,0,0,-1,1245,1569,0,0
28,-545,0,0,0,0,0,0,0,0,0,-1,1252,1569,0,0
35,-545,0,0,0,0,0,0,0,0,0,-1,1259,1569,0,0
42,-545,0,0,0,0,0,0,0,0,0,-1,1266,1569,0,0
49,-545,0,0,0,0,0,0,0,0,0,-1,1273,1569,0,0
56,-545,0,0,0,0,0,0,0,0,0,-1,1280,1569,0,0
63,-545,0,0,0,0,0,0,0,0,0,-1,1287,1569,0,0
70,-545,0,0,0,0,0,0,0,0,0,-1,1294,1569,0,0
77,-545,0,0,0,0,0,0,0,0,0,-1,1301,1569,0,0
84,-545,0,0,0,0,0,0,0,0,0,-1,1308,1569,0,0
91,-545,0,0,0,0,0,0,0,0,0,-1,1315,1569,0,0
98,-545,0,0,0,0,0,0,0,0,0,-1,1322,1569,0,0
105,-545,0,0,0,0,0,0,0,0,0,-1,1329,1569,0,0
112,-545,0,0,0,0,0,0,0,0,0,-1,1336,1569,0,0
119,-545,0,0,0,0,0,0,0,0,0,-1,1343,1569,0,0
126,-545,0,0,0,0,0,0,0,0,0,-1,1350,1569,0,0
133,-545,0,0,0,0,0,0,0,0,0,-1,1357,1569,0,0
140,-545,0,0,0,0,0,0,0,0,0,-1,1364,1569,0,0
147,-545,0,0,0,0,0,0,0,0,0,-1,1371,1569,0,0
154,-545,0,0,0,0,0,0,0,0,0,-1,1378,1569,0,0
161,-545,0,0,0,0,0,0,0,0,0,-1,1385,1569,0,0
168,-545,0,0,0,0,0,0,0,0,0,-1,1392,1569,0,0
175,-545,0,0,0,0,0,0,0,0,0,-1,1399,1569,0,0
182,-545,0,0,0,0,0,0,0,0,0,-1,1406,1569,0,0
189,-545,0,0,0,0,0,0,0,0,0,-1,1413,1569,0,0
196,-545,0,0,0,0,0,0,0,0,0,-1,1420,1569,0,0
203,-545,0,0,0,0,0,0,0,0,0,-1,1427,1569,0,0
210,-545,0,0,0,0,0,0,0,0,0,-1,1434,1569,0,0
217,-545,0,0,0,0,0,0,0,0,0,-1,1441,1569,0,0
224,-545,0,0,0,0,0,0,0,0,0,-1,1448,1569,0,0
231,-545,0,0,0,0,0,0,0,0,0,-1,1455,1569,0,0
238,-545,0,0,0,0,0,0,0,0,0,-1,1462,1569,0,0
245,-545,0,0,0,0,0,0,0,0,0,-1,1469,1569,0,0
252,-545,0,0,0,0,0,0,0,0,0,-1,1476,1569,0,0
259,-545,0,0,0,0,0,0,0,0,0,-1,1483,1569,0,0
266,-545,0,0,0,0,0,0,0,0,0,-1,1490,1569,0,0
273,-545,0,0,0,0,0,0,0,0,0,-1,1497,1569,0,0
280,-545,0,0,0,0,0,0,0,0,0,-1,1504,1569,0,0
287,-545,0,0,0,0,0,0,0,0,0,-1,1511,1569,0,0
294,-545,0,0,0,0,0,0,0,0,0,-1,1518,1569,0,0
301,-545,0,0,0,0,0,0,0,0,0,-1,1525,1569,0,0
308,-545,0,0,0,0,0,0,0,0,0,-1,1532,1569,0,0
315,-545,0,0,0,0,0,0,0,0,0,-1,1539,1569,0,0
322,-545,0,0,0,0,0,0,0,0,0,-1,1546,1569,0,0
329,-545,0,0,0,0,0,0,0,0,0,-1,1553,1569,0,0
336,-545,0,0,0,0,0,0,0,0,0,-1,1560,1569,0,0
343,-545,0,0,0,0,0,0,0,0,0,-1,1567,1569,0,0
350,-545,0,0,0,0,0,0,0,0,0,-1,1574,1569,0,0
357,-545,0,0,0,0,0,0,0,0,0,-1,1581,1569,0,0
364,-545,7.19495,4.88098,0,0,0,0,0,0,0,-1,1588,1569,7.19497,-4.88095
371,-545,7.82324,3.84302,0,0,0,0,0,0,0,-1,1595,1569,7.82324,-3.84307
378,-545,7.65674,5.52673,0,0,0,0,0,0,0,-1,1602,1569,7.6567,-5.52667
385,-545,8.58447,1.16125,0,0,0,0,0,0,0,-1,1609,1569,8.5845,-1.1612
392,-545,12.5654,3.89526,0,0,0,0,0,0,0,-1,1616,1569,12.5655,-3.89532
399,-545,11.5869,5.6333,0,0,0,0,0,0,0,-1,1623,1569,11.5869,-5.63326
406,-545,11.234,6.36414,0,0,0,0,0,0,0,-1,1630,1569,11.234,-6.3641
413,-545,12.1521,13.4817,0,0,0,0,0,0,0,-1,1637,1569,12.1521,-13.4817
420,-545,11.1954,13.6047,0,0,0,0,0,0,0,-1,1644,1569,11.1954,-13.6047
427,-545,9.61072,14.9135,0,0,0,0,0,0,0,-1,1651,1569,9.61076,-14.9134
434,-545,9.21277,15.9408,0,0,0,0,0,0,0,-1,1658,1569,9.21275,-15.9408
441,-545,10.4657,16.3927,0,0,0,0,0,0,0,-1,1665,1569,10.4657,-16.3927
448,-545,10.7842,16.37,0,0,0,0,0,0,0,-1,1672,1569,10.7841,-16.37
455,-545,10.1891,15.5941,0,0,0,0,0,0,0,-1,1679,1569,10.1891,-15.5941
462,-545,11.0411,15.5356,0,0,0,0,0,0,0,-1,1686,1569,11.0411,-15.5356
469,-545,11.8932,15.4772,0,0,0,0,0,0,0,-1,1693,1569,11.8932,-15.4772
476,-545,11.3567,16.5686,0,0,0,0,0,0,0,-1,1700,1569,11.3567,-16.5686
483,-545,11.4523,16.1141,-0.00210378,-0.00789467,0.00753392,0.00307193,-0.0130704,0.601939,0.00989776,0.0205146,1707,1569,11.4522,-16.1142
490,-545,11.3976,15.8474,-0.00161894,-0.0056403,0.00570476,0.0024191,-0.00967835,0.615967,0.00739175,0.0128308,1714,1569,11.3976,-15.8475
497,-545,11.4016,15.576,-0.00116033,-0.00386541,0.00411831,0.00182186,-0.0068476,0.626736,0.00527822,0.0170898,1721,1569,11.4016,-15.5761
504,-545,11.4314,15.2786,-0.000638567,-0.00235137,0.00273283,0.0013689,-0.00435885,0.633557,0.00345384,0.0153176,1728,1569,11.4314,-15.2786
511,-545,11.4208,14.9799,-0.000368933,-0.00130562,0.00180538,0.00102787,-0.00270242,0.658488,0.00222484,0.0110592,1735,1569,11.4208,-14.9798
518,-545,11.4076,14.7065,-0.000398359,-0.000226081,0.0010915,0.000782678,-0.00140712,0.824775,0.0012813,0.0120083,1742,1569,11.4076,-14.7065
525,-545,11.3889,14.4003,-0.000171514,0.000228892,0.000515904,0.000582076,-0.000524699,0.970485,0.000639283,0.0124871,1749,1569,11.3889,-14.4002
532,-545,11.3918,14.0956,3.05636e-05,0.000553276,0.000283812,0.000677739,-9.38992e-05,1.15751,0.000486158,0.0129601,1756,1569,11.3919,-14.0956
539,-545,11.3812,13.8365,0.000138267,0.00082153,0.000105311,0.000837394,0.000122403,1.42129,0.000522265,0.0151725,1763,1569,11.3813,-13.8365
546,-545,11.3589,13.5603,9.30828e-05,0.00093024,8.46826e-05,0.00093872,8.46026e-05,1.47099,0.000599606,0.016535,1770,1569,11.3589,-13.5603
553,-545,11.3926,13.2339,-4.76843e-05,0.00108208,0.000172918,0.00110795,-7.35581e-05,1.42227,0.000764336,0.0249356,1777,1569,11.3926,-13.2339
560,-545,11.3889,12.8932,-0.000136242,0.00121857,0.000178124,0.0012416,-0.000159269,1.44223,0.000885608,0.0275613,1784,1569,11.389,-12.8931
567,-545,11.3843,12.4905,0,0,0,0,0,0,0,-1,1791,1569,11.3842,-12.4905
574,-545,11.401,12.205,0,0,0,0,0,0,0,-1,1798,1569,11.401,-12.2049
581,-545,11.4185,11.8877,0,0,0,0,0,0,0,-1,1805,1569,11.4184,-11.8876
588,-545,11.4047,11.6492,0,0,0,0,0,0,0,-1,1812,1569,11.4046,-11.6492
595,-545,10.2859,9.11218,0,0,0,0,0,0,0,-1,1819,1569,10.2858,-9.11215
602,-545,8.82117,6.32214,0,0,0,0,0,0,0,-1,1826,1569,8.82121,-6.32217
609,-545,10.2406,5.22351,0,0,0,0,0,0,0,-1,1833,1569,10.2406,-5.22353
616,-545,11.701,3.93188,0,0,0,0,0,0,0,-1,1840,1569,11.701,-3.93191
623,-545,13.2139,2.32043,0,0,0,0,0,0,0,-1,1847,1569,13.2139,-2.32042
630,-545,0,0,0,0,0,0,0,0,0,-1,1854,1569,0,0
637,-545,0,0,0,0,0,0,0,0,0,-1,1861,1569,0,0
644,-545,0,0,0,0,0,0,0,0,0,-1,1868,1569,0,0
651,-545,0,0,0,0,0,0,0,0,0,-1,1875,1569,0,0
658,-545,0,0,0,0,0,0,0,0,0,-1,1882,1569,0,0
665,-545,0,0,0,0,0,0,0,0,0,-1,1889,1569,0,0
672,-545,0,0,0,0,0,0,0,0,0,-1,1896,1569,0,0
679,-545,0,0,0,0,0,0,0,0,0,-1,1903,1569,0,0
686,-545,0,0,0,0,0,0,0,0,0,-1,1910,1569,0,0
693,-545,0,0,0,0,0,0,0,0,0,-1,1917,1569,0,0
700,-545,0,0,0,0,0,0,0,0,0,-1,1924,1569,0,0
707,-545,0,0,0,0,0,0,0,0,0,-1,1931,1569,0,0
714,-545,0,0,0,0,0,0,0,0,0,-1,1938,1569,0,0
721,-545,0,0,0,0,0,0,0,0,0,-1,1945,1569,0,0
728,-545,0,0,0,0,0,0,0,0,0,-1,1952,1569,0,0
735,-545,0,0,0,0,0,0,0,0,0,-1,1959,1569,0,0
742,-545,0,0,0,0,0,0,0,0,0,-1,1966,1569,0,0
749,-545,0,0,0,0,0,0,0,0,0,-1,1973,1569,0,0
756,-545,0,0,0,0,0,0,0,0,0,-1,1980,1569,0,0
763,-545,0,0,0,0,0,0,0,0,0,-1,1987,1569,0,0
770,-545,0,0,0,0,0,0,0,0,0,-1,1994,1569,0,0
777,-545,0,0,0,0,0,0,0,0,0,-1,2001,1569,0,0
784,-545,0,0,0,0,0,0,0,0,0,-1,2008,1569,0,0
791,-545,0,0,0,0,0,0,0,0,0,-1,2015,1569,0,0
798,-545,0,0,0,0,0,0,0,0,0,-1,2022,1569,0,0
805,-545,0,0,0,0,0,0,0,0,0,-1,2029,1569,0,0
812,-545,0,0,0,0,0,0,0,0,0,-1,2036,1569,0,0
-700,-552,0,0,0,0,0,0,0,0,0,-1,524,1576,0,0
-693,-552,0,0,0,0,0,0,0,0,0,-1,531,1576,0,0
-686,-552,0,0,0,0,0,0,0,0,0,-1,538,1576,0,0
-679,-552,0,0,0,0,0,0,0,0,0,-1,545,1576,0,0
-672,-552,0,0,0,0,0,0,0,0,0,-1,552,1576,0,0
-665,-552,0,0,0,0,0,0,0,0,0,-1,559,1576,0,0
-658,-552,0,0,0,0,0,0,0,0,0,-1,566,1576,0,0
-651,-552,0,0,0,0,0,0,0,0,0,-1,573,1576,0,0
-644,-552,0,0,0,0,0,0,0,0,0,-1,580,1576,0,0
-637,-552,0,0,0,0,0,0,0,0,0,-1,587,1576,0,0
-630,-552,0,0,0,0,0,0,0,0,0,-1,594,1576,0,0
-623,-552,0,0,0,0,0,0,0,0,0,-1,601,1576,0,0
-616,-552,0,0,0,0,0,0,0,0,0,-1,608,1576,0,0
-609,-552,0,0,0,0,0,0,0,0,0,-1,615,1576,0,0
-602,-552,0,0,0,0,0,0,0,0,0,-1,622,1576,0,0
-595,-552,0,0,0,0,0,0,0,0,0,-1,629,1576,0,0
-588,-552,0,0,0,0,0,0,0,0,0,-1,636,1576,0,0
-581,-552,0,0,0,0,0,0,0,0,0,-1,643,1576,0,0
-574,-552,0,0,0,0,0,0,0,0,0,-1,650,1576,0,0
-567,-552,0,0,0,0,0,0,0,0,0,-1,657,1576,0,0
-560,-552,0,0,0,0,0,0,0,0,0,-1,664,1576,0,0
-553,-552,0,0,0,0,0,0,0,0,0,-1,671,1576,0,0
-546,-552,0,0,0,0,0,0,0,0,0,-1,678,1576,0,0
-539,-552,0,0,0,0,0,0,0,0,0,-1,685,1576,0,0
-532,-552,0,0,0,0,0,0,0,0,0,-1,692,1576,0,0
-525,-552,0,0,0,0,0,0,0,0,0,-1,699,1576,0,0
-518,-552,0,0,0,0,0,0,0,0,0,-1,706,1576,0,0
-511,-552,0,0,0,0,0,0,0,0,0,-1,713,1576,0,0
-504,-552,0,0,0,0,0,0,0,0,0,-1,720,1576,0,0
-497,-552,1.51282,3.96924,0,0,0,0,0,0,0,-1,727,1576,1.5128,-3.96924
-490,-552,-3.82312,6.32104,0,0,0,0,0,0,0,-1,734,1576,-3.82314,-6.3211
-483,-552,-3.50586,6.47986,0,0,0,0,0,0,0,-1,741,1576,-3.50587,-6.47983
-476,-552,-2.87323,5.8656,0,0,0,0,0,0,0,-1,748,1576,-2.87322,-5.86563
-469,-552,-1.40491,7.9895,0,0,0,0,0,0,0,-1,755,1576,-1.40491,-7.98947
-462,-552,0.258972,6.98975,0,0,0,0,0,0,0,-1,762,1576,0.258987,-6.98975
-455,-552,0.403564,9.90637,0,0,0,0,0,0,0,-1,769,1576,0.403541,-9.90639
-448,-552,0.440735,10.3035,0.00970567,0.00795429,0.00811575,0.0169928,0.000667117,0.731656,0.0111129,0.0487616,776,1576,0.440707,-10.3034
-441,-552,0.449707,10.8645,0.00672421,0.00623352,0.0059446,0.0124285,0.000529206,0.764774,0.00811504,0.038327,783,1576,0.449717,-10.8645
-434,-552,0.444275,11.262,0.00452857,0.00479895,0.00429505,0.00896094,0.000366577,0.801131,0.00585559,0.023541,790,1576,0.444274,-11.262
-427,-552,0.296631,11.5138,0.00310269,0.00350862,0.00311329,0.00642555,0.000185752,0.817948,0.00422315,0.0195569,797,1576,0.29665,-11.5138
-420,-552,0.326721,11.8717,0.00212434,0.00300388,0.00225079,0.00485746,0.000270761,0.881875,0.00315193,0.0189886,804,1576,0.326722,-11.8717
-413,-552,0.329407,12.1752,0.00115042,0.00253399,0.0015273,0.00351887,0.000165543,0.998049,0.00229273,0.0164297,811,1576,0.329406,-12.1752
-406,-552,0.330261,12.4854,0.000871924,0.00237503,0.00137458,0.0031901,5.6855e-05,1.03557,0.00210804,0.0131039,818,1576,0.330287,-12.4853
-399,-552,0.34314,12.8208,0.000840809,0.00216435,0.00127563,0.00293965,6.55127e-05,1.02468,0.0019383,0.0136629,825,1576,0.343164,-12.8208
-392,-552,0.314514,13.1217,0.00103874,0.00214459,0.00115559,0.00287272,0.000310609,1.00854,0.00182047,0.0155768,832,1576,0.314487,-13.1217
-385,-552,0.300415,13.433,0.00135204,0.00219719,0.0010247,0.00288303,0.000666207,0.980968,0.00174292,0.014067,839,1576,0.300436,-13.433
-378,-552,0.27948,13.7379,0.00157016,0.00201077,0.000781975,0.00260288,0.000978049,0.922705,0.00151816,0.0146972,846,1576,0.279454,-13.7379
-371,-552,0.267883,14.0593,0.00176306,0.00186706,0.000467097,0.00228504,0.00134508,0.840832,0.00132616,0.0192809,853,1576,0.267908,-14.0594
-364,-552,0.283203,14.3628,0.00179936,0.00209254,4.02461e-05,0.00209797,0.00179393,1.43683,0.00130912,0.0159391,860,1576,0.283229,-14.3627
-357,-552,0.31897,14.6735,0.00177027,0.00259021,-0.000586595,0.0028959,0.00146458,-1.09039,0.00167198,0.010682,867,1576,0.318953,-14.6735
-350,-552,0.337341,14.9979,0.00160732,0.00287382,-0.00134672,0.00372875,0.00075239,-1.00517,0.00227686,0.0100439,874,1576,0.337327,-14.998
-343,-552,0.33136,15.2903,0.00125473,0.00338198,-0.00218996,0.00475295,-0.000116229,-1.01146,0.00320808,0.0108752,881,1576,0.331366,-15.2903
-336,-552,0.385498,15.5383,0.000532842,0.00396988,-0.00291847,0.00563822,-0.00113549,-1.05149,0.00418893,0.0176825,888,1576,0.385506,-15.5383
-329,-552,0.330872,15.7649,-0.000426605,0.00486699,-0.00381616,0.0068644,-0.00242401,-1.0886,0.00556318,0.0363717,895,1576,0.330871,-15.7649
-322,-552,0.414429,16.1865,0,0,0,0,0,0,0,-1,902,1576,0.414428,-16.1866
-315,-552,0.128418,17.2451,0,0,0,0,0,0,0,-1,909,1576,0.12842,-17.2451
-308,-552,-0.178711,17.7281,0,0,0,0,0,0,0,-1,916,1576,-0.17872,-17.7281
-301,-552,-0.484131,18.4387,0,0,0,0,0,0,0,-1,923,1576,-0.484115,-18.4387
-294,-552,0.842163,13.7863,0,0,0,0,0,0,0,-1,930,1576,0.842149,-13.7863
-287,-552,-0.663757,13.3474,0,0,0,0,0,0,0,-1,937,1576,-0.663744,-13.3474
-280,-552,-5.47241,8.96765,0,0,0,0,0,0,0,-1,944,1576,-5.47239,-8.96766
-273,-552,1.64587,10.6685,0,0,0,0,0,0,0,-1,951,1576,1.6459,-10.6685
-266,-552,-1.32678,8.05688,0,0,0,0,0,0,0,-1,958,1576,-1.32677,-8.05683
-259,-552,-5.54321,8.31213,0,0,0,0,0,0,0,-1,965,1576,-5.54324,-8.31214
-252,-552,-1.93445,7.81543,0,0,0,0,0,0,0,-1,972,1576,-1.93445,-7.81546
-245,-552,-2.53613,6.92212,0,0,0,0,0,0,0,-1,979,1576,-2.53614,-6.92216
-238,-552,-6.5365,2.81885,0,0,0,0,0,0,0,-1,986,1576,-6.53649,-2.8188
-231,-552,-4.32239,4.34583,0,0,0,0,0,0,0,-1,993,1576,-4.32239,-4.34587
-224,-552,0,0,0,0,0,0,0,0,0,-1,1000,1576,0,0
-217,-552,0,0,0,0,0,0,0,0,0,-1,1007,1576,0,0
-210,-552,0,0,0,0,0,0,0,0,0,-1,1014,1576,0,0
-203,-552,0,0,0,0,0,0,0,0,0,-1,1021,1576,0,0
-196,-552,0,0,0,0,0,0,0,0,0,-1,1028,1576,0,0
-189,-552,0,0,0,0,0,0,0,0,0,-1,1035,1576,0,0
-182,-552,0,0,0,0,0,0,0,0,0,-1,1042,1576,0,0
-175,-552,0,0,0,0,0,0,0,0,0,-1,1049,1576,0,0
-168,-552,0,0,0,0,0,0,0,0,0,-1,1056,1576,0,0
-161,-552,0,0,0,0,0,0,0,0,0,-1,1063,1576,0,0
-154,-552,0,0,0,0,0,0,0,0,0,-1,1070,1576,0,0
-147,-552,0,0,0,0,0,0,0,0,0,-1,1077,1576,0,0
-140,-552,0,0,0,0,0,0,0,0,0,-1,1084,1576,0,0
-133,-552,0,0,0,0,0,0,0,0,0,-1,1091,1576,0,0
-126,-552,0,0,0,0,0,0,0,0,0,-1,1098,1576,0,0
-119,-552,0,0,0,0,0,0,0,0,0,-1,1105,1576,0,0
-112,-552,0,0,0,0,0,0,0,0,0,-1,1112,1576,0,0
-105,-552,0,0,0,0,0,0,0,0,0,-1,1119,1576,0,0
-98,-552,0,0,0,0,0,0,0,0,0,-1,1126,1576,0,0
-91,-552,0,0,0,0,0,0,0,0,0,-1,1133,1576,0,0
-84,-552,0,0,0,0,0,0,0,0,0,-1,1140,1576,0,0
-77,-552,0,0,0,0,0,0,0,0,0,-1,1147,1576,0,0
-70,-552,0,0,0,0,0,0,0,0,0,-1,1154,1576,0,0
-63,-552,0,0,0,0,0,0,0,0,0,-1,1161,1576,0,0
-56,-552,0,0,0,0,0,0,0,0,0,-1,1168,1576,0,0
-49,-552,0,0,0,0,0,0,0,0,0,-1,1175,1576,0,0
-42,-552,0,0,0,0,0,0,0,0,0,-1,1182,1576,0,0
-35,-552,0,0,0,0,0,0,0,0,0,-1,1189,1576,0,0
-28,-552,0,0,0,0,0,0,0,0,0,-1,1196,1576,0,0
-21,-552,0,0,0,0,0,0,0,0,0,-1,1203,1576,0,0
-14,-552,0,0,0,0,0,0,0,0,0,-1,1210,1576,0,0
-7,-552,0,0,0,0,0,0,0,0,0,-1,1217,1576,0,0
0,-552,0,0,0,0,0,0,0,0,0,-1,1224,1576,0,0
7,-552,0,0,0,0,0,0,0,0,0,-1,1231,1576,0,0
14,-552,0,0,0,0,0,0,0,0,0,-1,1238,1576,0,0
21,-552,0,0,0,0,0,0,0,0,0,-1,1245,1576,0,0
28,-552,0,0,0,0,0,0,0,0,0,-1,1252,1576,0,0
35,-552,0,0,0,0,0,0,0,0,0,-1,1259,1576,0,0
42,-552,0,0,0,0,0,0,0,0,0,-1,1266,1576,0,0
49,-552,0,0,0,0,0,0,0,0,0,-1,1273,1576,0,0
56,-552,0,0,0,0,0,0,0,0,0,-1,1280,1576,0,0
63,-552,0,0,0,0,0,0,0,0,0,-1,1287,1576,0,0
70,-552,0,0,0,0,0,0,0,0,0,-1,1294,1576,0,0
77,-552,0,0,0,0,0,0,0,0,0,-1,1301,1576,0,0
84,-552,0,0,0,0,0,0,0,0,0,-1,1308,1576,0,0
91,-552,0,0,0,0,0,0,0,0,0,-1,1315,1576,0,0
98,-552,0,0,0,0,0,0,0,0,0,-1,1322,1576,0,0
105,-552,0,0,0,0,0,0,0,0,0,-1,1329,1576,0,0
112,-552,0,0,0,0,0,0,0,0,0,-1,1336,1576,0,0
119,-552,0,0,0,0,0,0,0,0,0,-1,1343,1576,0,0
126,-552,0,0,0,0,0,0,0,0,0,-1,1350,1576,0,0
133,-552,0,0,0,0,0,0,0,0,0,-1,1357,1576,0,0
140,-552,0,0,0,0,0,0,0,0,0,-1,1364,1576,0,0
147,-552,0,0,0,0,0,0,0,0,0,-1,1371,1576,0,0
154,-552,0,0,0,0,0,0,0,0,0,-1,1378,1576,0,0
161,-552,0,0,0,0,0,0,0,0,0,-1,1385,1576,0,0
168,-552,0,0,0,0,0,0,0,0,0,-1,1392,1576,0,0
175,-552,0,0,0,0,0,0,0,0,0,-1,1399,1576,0,0
182,-552,0,0,0,0,0,0,0,0,0,-1,1406,1576,0,0
189,-552,0,0,0,0,0,0,0,0,0,-1,1413,1576,0,0
196,-552,0,0,0,0,0,0,0,0,0,-1,1420,1576,0,0
203,-552,0,0,0,0,0,0,0,0,0,-1,1427,1576,0,0
210,-552,0,0,0,0,0,0,0,0,0,-1,1434,1576,0,0
217,-552,0,0,0,0,0,0,0,0,0,-1,1441,1576,0,0
224,-552,0,0,0,0,0,0,0,0,0,-1,1448,1576,0,0
231,-552,0,0,0,0,0,0,0,0,0,-1,1455,1576,0,0
238,-552,0,0,0,0,0,0,0,0,0,-1,1462,1576,0,0
245,-552,0,0,0,0,0,0,0,0,0,-1,1469,1576,0,0
252,-552,0,0,0,0,0,0,0,0,0,-1,1476,1576,0,0
259,-552,0,0,0,0,0,0,0,0,0,-1,1483,1576,0,0
266,-552,0,0,0,0,0,0,0,0,0,-1,1490,1576,0,0
273,-552,0,0,0,0,0,0,0,0,0,-1,1497,1576,0,0
280,-552,0,0,0,0,0,0,0,0,0,-1,1504,1576,0,0
287,-552,0,0,0,0,0,0,0,0,0,-1,1511,1576,0,0
294,-552,0,0,0,0,0,0,0,0,0,-1,1518,1576,0,0
301,-552,0,0,0,0,0,0,0,0,0,-1,1525,1576,0,0
308,-552,0,0,0,0,0,0,0,0,0,-1,1532,1576,0,0
315,-552,0,0,0,0,0,0,0,0,0,-1,1539,1576,0,0
322,-552,0,0,0,0,0,0,0,0,0,-1,1546,1576,0,0
329,-552,0,0,0,0,0,0,0,0,0,-1,1553,1576,0,0
336,-552,0,0,0,0,0,0,0,0,0,-1,1560,1576,0,0
343,-552,0,0,0,0,0,0,0,0,0,-1,1567,1576,0,0
350,-552,4.97876,4.09888,0,0,0,0,0,0,0,-1,1574,1576,4.97875,-4.09883
357,-552,5.18469,4.10706,0,0,0,0,0,0,0,-1,1581,1576,5.1847,-4.10702
364,-552,5.80872,5.07031,0,0,0,0,0,0,0,-1,1588,1576,5.80874,-5.07037
371,-552,7.10657,5.64783,0,0,0,0,0,0,0,-1,1595,1576,7.10651,-5.64786
378,-552,6.44446,4.91492,0,0,0,0,0,0,0,-1,1602,1576,6.44448,-4.91496
385,-552,12.8276,3.16504,0,0,0,0,0,0,0,-1,1609,1576,12.8276,-3.16503
392,-552,12.1301,4.3363,0,0,0,0,0,0,0,-1,1616,1576,12.1302,-4.33631
399,-552,11.3486,5.6012,0,0,0,0,0,0,0,-1,1623,1576,11.3486,-5.60115
406,-552,10.7863,6.42542,0,0,0,0,0,0,0,-1,1630,1576,10.7863,-6.42536
413,-552,8.39307,10.365,0,0,0,0,0,0,0,-1,1637,1576,8.3931,-10.365
420,-552,10.2306,12.7225,0,0,0,0,0,0,0,-1,1644,1576,10.2305,-12.7226
427,-552,9.73267,14.783,0,0,0,0,0,0,0,-1,1651,1576,9.73269,-14.783
434,-552,8.83325,15.5182,0,0,0,0,0,0,0,-1,1658,1576,8.83321,-15.5182
441,-552,10.4902,16.8544,0,0,0,0,0,0,0,-1,1665,1576,10.4902,-16.8544
448,-552,10.6158,16.5831,0,0,0,0,0,0,0,-1,1672,1576,10.6158,-16.5831
455,-552,10.4429,16.3792,0,0,0,0,0,0,0,-1,1679,1576,10.4428,-16.3792
462,-552,10.7673,16.3397,-0.0049139,-0.0121153,0.0136361,0.00558885,-0.022618,0.656316,0.0172462,0.0426254,1686,1576,10.7674,-16.3398
469,-552,11.3173,16.6202,-0.00337406,-0.00979831,0.0103957,0.00429446,-0.0174668,0.635558,0.013309,0.0439109,1693,1576,11.3173,-16.6202
476,-552,11.0889,16.4034,-0.00213737,-0.00771706,0.00767102,0.00323537,-0.0130898,0.61099,0.00998134,0.0242153,1700,1576,11.0888,-16.4035
483,-552,11.1294,16.0819,-0.00131885,-0.00592135,0.00570299,0.00252969,-0.00976989,0.593631,0.00750007,0.0155017,1707,1576,11.1294,-16.0819
490,-552,11.136,15.8259,-0.000954033,-0.00427171,0.00429484,0.0019912,-0.00721693,0.601104,0.00559442,0.014296,1714,1576,11.136,-15.8259
497,-552,11.177,15.5625,-0.000657636,-0.00296565,0.00302235,0.00142352,-0.00504681,0.603027,0.00392604,0.0225198,1721,1576,11.177,-15.5625
504,-552,11.1874,15.2924,-0.000328726,-0.00177218,0.00194221,0.00102152,-0.00312243,0.607505,0.0024929,0.0243847,1728,1576,11.1873,-15.2923
511,-552,11.1652,14.9799,-0.000206144,-0.00091814,0.00119936,0.000688934,-0.00181322,0.641128,0.00149244,0.0176776,1735,1576,11.1652,-14.9798
518,-552,11.1429,14.7007,-0.000309333,-1.89019e-05,0.000638489,0.000490677,-0.000818912,0.897214,0.000763967,0.0142318,1742,1576,11.1429,-14.7006
525,-552,11.1149,14.4108,-0.00019441,0.000375134,0.000221459,0.00045111,-0.000270387,1.24031,0.00042089,0.0124264,1749,1576,11.1149,-14.4107
532,-552,11.1093,14.1093,-0.000116475,0.000687375,0.000108023,0.000701639,-0.000130739,1.43952,0.00051688,0.0129876,1756,1576,11.1092,-14.1093
539,-552,11.0872,13.833,-0.000157433,0.000927666,9.26619e-05,0.000935522,-0.000165289,1.48622,0.000685453,0.0163977,1763,1576,11.0872,-13.833
546,-552,11.0803,13.5552,-0.000408221,0.00098428,0.000319998,0.0010543,-0.000478237,1.35539,0.000905404,0.02055,1770,1576,11.0803,-13.5552
553,-552,11.1515,13.2084,-0.000700111,0.00119304,0.000600977,0.0013677,-0.000874775,1.28795,0.00130508,0.0244465,1777,1576,11.1515,-13.2084
560,-552,11.1938,12.8024,0,0,0,0,0,0,0,-1,1784,1576,11.1939,-12.8024
567,-552,10.9243,12.3501,0,0,0,0,0,0,0,-1,1791,1576,10.9244,-12.35
574,-552,10.767,11.6785,0,0,0,0,0,0,0,-1,1798,1576,10.7669,-11.6785
581,-552,9.74841,9.98645,0,0,0,0,0,0,0,-1,1805,1576,9.74847,-9.9864
588,-552,10.5619,9.34924,0,0,0,0,0,0,0,-1,1812,1576,10.5619,-9.34921
595,-552,5.36194,6.62744,0,0,0,0,0,0,0,-1,1819,1576,5.36193,-6.62742
602,-552,10.6863,4.31616,0,0,0,0,0,0,0,-1,1826,1576,10.6862,-4.31619
609,-552,12.146,3.18286,0,0,0,0,0,0,0,-1,1833,1576,12.1459,-3.18281
616,-552,13.8762,2.08167,0,0,0,0,0,0,0,-1,1840,1576,13.8763,-2.08167
623,-552,0,0,0,0,0,0,0,0,0,-1,1847,1576,0,0
630,-552,0,0,0,0,0,0,0,0,0,-1,1854,1576,0,0
637,-552,0,0,0,0,0,0,0,0,0,-1,1861,1576,0,0
644,-552,0,0,0,0,0,0,0,0,0,-1,1868,1576,0,0
651,-552,0,0,0,0,0,0,0,0,0,-1,1875,1576,0,0
658,-552,0,0,0,0,0,0,0,0,0,-1,1882,1576,0,0
665,-552,0,0,0,0,0,0,0,0,0,-1,1889,1576,0,0
672,-552,0,0,0,0,0,0,0,0,0,-1,1896,1576,0,0
679,-552,0,0,0,0,0,0,0,0,0,-1,1903,1576,0,0
686,-552,0,0,0,0,0,0,0,0,0,-1,1910,1576,0,0
693,-552,0,0,0,0,0,0,0,0,0,-1,1917,1576,0,0
700,-552,0,0,0,0,0,0,0,0,0,-1,1924,1576,0,0
707,-552,0,0,0,0,0,0,0,0,0,-1,1931,1576,0,0
714,-552,0,0,0,0,0,0,0,0,0,-1,1938,1576,0,0
721,-552,0,0,0,0,0,0,0,0,0,-1,1945,1576,0,0
728,-552,0,0,0,0,0,0,0,0,0,-1,1952,1576,0,0
735,-552,0,0,0,0,0,0,0,0,0,-1,1959,1576,0,0
742,-552,0,0,0,0,0,0,0,0,0,-1,1966,1576,0,0
749,-552,0,0,0,0,0,0,0,0,0,-1,1973,1576,0,0
756,-552,0,0,0,0,0,0,0,0,0,-1,1980,1576,0,0
763,-552,0,0,0,0,0,0,0,0,0,-1,1987,1576,0,0
770,-552,0,0,0,0,0,0,0,0,0,-1,1994,1576,0,0
777,-552,0,0,0,0,0,0,0,0,0,-1,2001,1576,0,0
784,-552,0,0,0,0,0,0,0,0,0,-1,2008,1576,0,0
791,-552,0,0,0,0,0,0,0,0,0,-1,2015,1576,0,0
798,-552,0,0,0,0,0,0,0,0,0,-1,2022,1576,0,0
805,-552,0,0,0,0,0,0,0,0,0,-1,2029,1576,0,0
812,-552,0,0,0,0,0,0,0,0,0,-1,2036,1576,0,0
-700,-559,0,0,0,0,0,0,0,0,0,-1,524,1583,0,0
-693,-559,0,0,0,0,0,0,0,0,0,-1,531,1583,0,0
-686,-559,0,0,0,0,0,0,0,0,0,-1,538,1583,0,0
-679,-559,0,0,0,0,0,0,0,0,0,-1,545,1583,0,0
-672,-559,0,0,0,0,0,0,0,0,0,-1,552,1583,0,0
-665,-559,0,0,0,0,0,0,0,0,0,-1,559,1583,0,0
-658,-559,0,0,0,0,0,0,0,0,0,-1,566,1583,0,0
-651,-559,0,0,0,0,0,0,0,0,0,-1,573,1583,0,0
-644,-559,0,0,0,0,0,0,0,0,0,-1,580,1583,0,0
-637,-559,0,0,0,0,0,0,0,0,0,-1,587,1583,0,0
-630,-559,0,0,0,0,0,0,0,0,0,-1,594,1583,0,0
-623,-559,0,0,0,0,0,0,0,0,0,-1,601,1583,0,0
-616,-559,0,0,0,0,0,0,0,0,0,-1,608,1583,0,0
-609,-559,0,0,0,0,0,0,0,0,0,-1,615,1583,0,0
-602,-559,0,0,0,0,0,0,0,0,0,-1,622,1583,0,0
-595,-559,0,0,0,0,0,0,0,0,0,-1,629,1583,0,0
-588,-559,0,0,0,0,0,0,0,0,0,-1,636,1583,0,0
-581,-559,0,0,0,0,0,0,0,0,0,-1,643,1583,0,0
-574,-559,0,0,0,0,0,0,0,0,0,-1,650,1583,0,0
-567,-559,0,0,0,0,0,0,0,0,0,-1,657,1583,0,0
-560,-559,0,0,0,0,0,0,0,0,0,-1,664,1583,0,0
-553,-559,0,0,0,0,0,0,0,0,0,-1,671,1583,0,0
-546,-559,0,0,0,0,0,0,0,0,0,-1,678,1583,0,0
-539,-559,0,0,0,0,0,0,0,0,0,-1,685,1583,0,0
-532,-559,0,0,0,0,0,0,0,0,0,-1,692,1583,0,0
-525,-559,0,0,0,0,0,0,0,0,0,-1,699,1583,0,0
-518,-559,0,0,0,0,0,0,0,0,0,-1,706,1583,0,0
-511,-559,0,0,0,0,0,0,0,0,0,-1,713,1583,0,0
-504,-559,0,0,0,0,0,0,0,0,0,-1,720,1583,0,0
-497,-559,0,0,0,0,0,0,0,0,0,-1,727,1583,0,0
-490,-559,-5.49835,4.47424,0,0,0,0,0,0,0,-1,734,1583,-5.49833,-4.4743
-483,-559,-5.24078,4.74561,0,0,0,0,0,0,0,-1,741,1583,-5.24079,-4.74563
-476,-559,-4.98022,4.99316,0,0,0,0,0,0,0,-1,748,1583,-4.98024,-4.99321
-469,-559,-4.6424,5.38062,0,0,0,0,0,0,0,-1,755,1583,-4.64237,-5.38058
-462,-559,-0.161865,6.49438,0,0,0,0,0,0,0,-1,762,1583,-0.161835,-6.49444
-455,-559,1.08826,7.02527,0,0,0,0,0,0,0,-1,769,1583,1.08823,-7.02529
-448,-559,0.624878,10.2533,0,0,0,0,0,0,0,-1,776,1583,0.624886,-10.2533
-441,-559,0.610779,10.6566,0,0,0,0,0,0,0,-1,783,1583,0.610766,-10.6566
-434,-559,0.737305,11.0251,0,0,0,0,0,0,0,-1,790,1583,0.737283,-11.0252
-427,-559,0.692078,11.6228,0.00350608,0.00499215,0.00402682,0.00834391,0.000154311,0.876633,0.00551189,0.0270193,797,1583,0.692067,-11.6229
-420,-559,0.606506,11.8617,0.00207455,0.00401589,0.00280051,0.00600918,8.12558e-05,0.952221,0.00397931,0.0291427,804,1583,0.606485,-11.8617
-413,-559,0.636292,12.191,0.000770014,0.00321256,0.00176854,0.00414053,-0.000157954,1.08758,0.00281448,0.0136967,811,1583,0.636284,-12.191
-406,-559,0.643677,12.5156,0.000271217,0.00276214,0.00138862,0.003382,-0.000348646,1.15095,0.00237941,0.00962649,818,1583,0.643706,-12.5156
-399,-559,0.649902,12.8308,6.55692e-05,0.00227349,0.00113885,0.00275563,-0.000416565,1.17032,0.00199052,0.0129286,825,1583,0.649881,-12.8308
-392,-559,0.623901,13.1324,0.000135338,0.00201506,0.000897381,0.00237467,-0.000224275,1.18966,0.00166292,0.0168497,832,1583,0.623893,-13.1324
-385,-559,0.610291,13.4434,0.00040778,0.00190447,0.000716516,0.00219218,0.000120068,1.18896,0.00142312,0.0164131,839,1583,0.6103,-13.4433
-378,-559,0.612427,13.7616,0.000673385,0.00167249,0.000520532,0.0018944,0.000451475,1.16781,0.00114257,0.0140587,846,1583,0.612439,-13.7616
-371,-559,0.597778,14.0548,0.000890635,0.00145387,0.000224843,0.00153262,0.000811887,1.23391,0.000885377,0.0207302,853,1583,0.597804,-14.0548
-364,-559,0.616089,14.3362,0.00102562,0.00162292,-8.67654e-05,0.00163527,0.00101327,-1.42943,0.00095309,0.0193291,860,1583,0.616115,-14.3362
-357,-559,0.634888,14.6672,0.00115642,0.00204167,-0.000538328,0.00229598,0.000902109,-1.12947,0.00133568,0.0117126,867,1583,0.634901,-14.6672
-350,-559,0.632202,14.9866,0.00120307,0.00234938,-0.00107166,0.00299154,0.000560923,-1.03096,0.00183617,0.00952221,874,1583,0.632225,-14.9866
-343,-559,0.625366,15.2933,0.00109791,0.0027815,-0.00162764,0.00377215,0.000107265,-1.02405,0.00247978,0.0102475,881,1583,0.625389,-15.2934
-336,-559,0.601074,15.5557,0.000691648,0.00332217,-0.00204704,0.00444007,-0.000426253,-1.07095,0.00311188,0.0128336,888,1583,0.601079,-15.5557
-329,-559,0.658569,15.9337,0.000130302,0.00414863,-0.00260221,0.00542705,-0.00114813,-1.11415,0.00405529,0.0207008,895,1583,0.658584,-15.9337
-322,-559,0.770874,16.4373,0,0,0,0,0,0,0,-1,902,1583,0.770871,-16.4372
-315,-559,0.358765,16.875,-0.00176784,0.00592423,-0.00355822,0.00731775,-0.00316136,-1.19752,0.00620672,0.0447702,909,1583,0.35877,-16.875
-308,-559,0.280457,17.2518,-0.00287284,0.00614528,-0.00449174,0.00800076,-0.00472832,-1.17906,0.00742965,0.0427349,916,1583,0.280427,-17.2518
-301,-559,0.563782,17.4607,0,0,0,0,0,0,0,-1,923,1583,0.563791,-17.4608
-294,-559,0.95874,16.9076,0,0,0,0,0,0,0,-1,930,1583,0.958723,-16.9076
-287,-559,-0.11792,15.4912,0,0,0,0,0,0,0,-1,937,1583,-0.117939,-15.4912
-280,-559,0.191467,13.5093,0,0,0,0,0,0,0,-1,944,1583,0.191441,-13.5093
-273,-559,2.12836,10.3059,0,0,0,0,0,0,0,-1,951,1583,2.12839,-10.3059
-266,-559,-0.597046,6.68933,0,0,0,0,0,0,0,-1,958,1583,-0.597031,-6.68937
-259,-559,-7.00311,8.62756,0,0,0,0,0,0,0,-1,965,1583,-7.00312,-8.6275
-252,-559,-9.4483,2.87805,0,0,0,0,0,0,0,-1,972,1583,-9.44829,-2.87805
-245,-559,-4.80804,7.1803,0,0,0,0,0,0,0,-1,979,1583,-4.80804,-7.18027
-238,-559,-8.45764,2.54858,0,0,0,0,0,0,0,-1,986,1583,-8.45763,-2.54862
-231,-559,-5.86914,4.34021,0,0,0,0,0,0,0,-1,993,1583,-5.86914,-4.34019
-224,-559,-3.30505,6.22864,0,0,0,0,0,0,0,-1,1000,1583,-3.30505,-6.22859
-217,-559,0,0,0,0,0,0,0,0,0,-1,1007,1583,0,0
-210,-559,0,0,0,0,0,0,0,0,0,-1,1014,1583,0,0
-203,-559,0,0,0,0,0,0,0,0,0,-1,1021,1583,0,0
-196,-559,0,0,0,0,0,0,0,0,0,-1,1028,1583,0,0
-189,-559,0,0,0,0,0,0,0,0,0,-1,1035,1583,0,0
-182,-559,0,0,0,0,0,0,0,0,0,-1,1042,1583,0,0
-175,-559,0,0,0,0,0,0,0,0,0,-1,1049,1583,0,0
-168,-559,0,0,0,0,0,0,0,0,0,-1,1056,1583,0,0
-161,-559,0,0,0,0,0,0,0,0,0,-1,1063,1583,0,0
-154,-559,0,0,0,0,0,0,0,0,0,-1,1070,1583,0,0
-147,-559,0,0,0,0,0,0,0,0,0,-1,1077,1583,0,0
-140,-559,0,0,0,0,0,0,0,0,0,-1,1084,1583,0,0
-133,-559,0,0,0,0,0,0,0,0,0,-1,1091,1583,0,0
-126,-559,0,0,0,0,0,0,0,0,0,-1,1098,1583,0,0
-119,-559,0,0,0,0,0,0,0,0,0,-1,1105,1583,0,0
-112,-559,0,0,0,0,0,0,0,0,0,-1,1112,1583,0,0
-105,-559,0,0,0,0,0,0,0,0,0,-1,1119,1583,0,0
-98,-559,0,0,0,0,0,0,0,0,0,-1,1126,1583,0,0
-91,-559,0,0,0,0,0,0,0,0,0,-1,1133,1583,0,0
-84,-559,0,0,0,0,0,0,0,0,0,-1,1140,1583,0,0
-77,-559,0,0,0,0,0,0,0,0,0,-1,1147,1583,0,0
-70,-559,0,0,0,0,0,0,0,0,0,-1,1154,1583,0,0
-63,-559,0,0,0,0,0,0,0,0,0,-1,1161,1583,0,0
-56,-559,0,0,0,0,0,0,0,0,0,-1,1168,1583,0,0
-49,-559,0,0,0,0,0,0,0,0,0,-1,1175,1583,0,0
-42,-559,0,0,0,0,0,0,0,0,0,-1,1182,1583,0,0
-35,-559,0,0,0,0,0,0,0,0,0,-1,1189,1583,0,0
-28,-559,0,0,0,0,0,0,0,0,0,-1,1196,1583,0,0
-21,-559,0,0,0,0,0,0,0,0,0,-1,1203,1583,0,0
-14,-559,0,0,0,0,0,0,0,0,0,-1,1210,1583,0,0
-7,-559,0,0,0,0,0,0,0,0,0,-1,1217,1583,0,0
0,-559,0,0,0,0,0,0,0,0,0,-1,1224,1583,0,0
7,-559,0,0,0,0,0,0,0,0,0,-1,1231,1583,0,0
14,-559,0,0,0,0,0,0,0,0,0,-1,1238,1583,0,0
21,-559,0,0,0,0,0,0,0,0,0,-1,1245,1583,0,0
28,-559,0,0,0,0,0,0,0,0,0,-1,1252,1583,0,0
35,-559,0,0,0,0,0,0,0,0,0,-1,1259,1583,0,0
42,-559,0,0,0,0,0,0,0,0,0,-1,1266,1583,0,0
49,-559,0,0,0,0,0,0,0,0,0,-1,1273,1583,0,0
56,-559,0,0,0,0,0,0,0,0,0,-1,1280,1583,0,0
63,-559,0,0,0,0,0,0,0,0,0,-1,1287,1583,0,0
70,-559,0,0,0,0,0,0,0,0,0,-1,1294,1583,0,0
77,-559,0,0,0,0,0,0,0,0,0,-1,1301,1583,0,0
84,-559,0,0,0,0,0,0,0,0,0,-1,1308,1583,0,0
91,-559,0,0,0,0,0,0,0,0,0,-1,1315,1583,0,0
98,-559,0,0,0,0,0,0,0,0,0,-1,1322,1583,0,0
105,-559,0,0,0,0,0,0,0,0,0,-1,1329,1583,0,0
112,-559,0,0,0,0,0,0,0,0,0,-1,1336,1583,0,0
119,-559,0,0,0,0,0,0,0,0,0,-1,1343,1583,0,0
126,-559,0,0,0,0,0,0,0,0,0,-1,1350,1583,0,0
133,-559,0,0,0,0,0,0,0,0,0,-1,1357,1583,0,0
140,-559,0,0,0,0,0,0,0,0,0,-1,1364,1583,0,0
147,-559,0,0,0,0,0,0,0,0,0,-1,1371,1583,0,0
154,-559,0,0,0,0,0,0,0,0,0,-1,1378,1583,0,0
161,-559,0,0,0,0,0,0,0,0,0,-1,1385,1583,0,0
168,-559,0,0,0,0,0,0,0,0,0,-1,1392,1583,0,0
175,-559,0,0,0,0,0,0,0,0,0,-1,1399,1583,0,0
182,-559,0,0,0,0,0,0,0,0,0,-1,1406,1583,0,0
189,-559,0,0,0,0,0,0,0,0,0,-1,1413,1583,0,0
196,-559,0,0,0,0,0,0,0,0,0,-1,1420,1583,0,0
203,-559,0,0,0,0,0,0,0,0,0,-1,1427,1583,0,0
210,-559,0,0,0,0,0,0,0,0,0,-1,1434,1583,0,0
217,-559,0,0,0,0,0,0,0,0,0,-1,1441,1583,0,0
224,-559,0,0,0,0,0,0,0,0,0,-1,1448,1583,0,0
231,-559,0,0,0,0,0,0,0,0,0,-1,1455,1583,0,0
238,-559,0,0,0,0,0,0,0,0,0,-1,1462,1583,0,0
245,-559,0,0,0,0,0,0,0,0,0,-1,1469,1583,0,0
252,-559,0,0,0,0,0,0,0,0,0,-1,1476,1583,0,0
259,-559,0,0,0,0,0,0,0,0,0,-1,1483,1583,0,0
266,-559,0,0,0,0,0,0,0,0,0,-1,1490,1583,0,0
273,-559,0,0,0,0,0,0,0,0,0,-1,1497,1583,0,0
280,-559,0,0,0,0,0,0,0,0,0,-1,1504,1583,0,0
287,-559,0,0,0,0,0,0,0,0,0,-1,1511,1583,0,0
294,-559,0,0,0,0,0,0,0,0,0,-1,1518,1583,0,0
301,-559,0,0,0,0,0,0,0,0,0,-1,1525,1583,0,0
308,-559,0,0,0,0,0,0,0,0,0,-1,1532,1583,0,0
315,-559,0,0,0,0,0,0,0,0,0,-1,1539,1583,0,0
322,-559,0,0,0,0,0,0,0,0,0,-1,1546,1583,0,0
329,-559,0,0,0,0,0,0,0,0,0,-1,1553,1583,0,0
336,-559,5.97668,3.09827,0,0,0,0,0,0,0,-1,1560,1583,5.97667,-3.09824
343,-559,5.44824,2.88696,0,0,0,0,0,0,0,-1,1567,1583,5.44819,-2.88693
350,-559,4.69775,3.27051,0,0,0,0,0,0,0,-1,1574,1583,4.69771,-3.27048
357,-559,3.88025,3.60999,0,0,0,0,0,0,0,-1,1581,1583,3.88027,-3.60998
364,-559,5.00928,5.32605,0,0,0,0,0,0,0,-1,1588,1583,5.00928,-5.32607
371,-559,1.84436,2.52441,0,0,0,0,0,0,0,-1,1595,1583,1.84441,-2.52447
378,-559,6.34753,1.53137,0,0,0,0,0,0,0,-1,1602,1583,6.34752,-1.53139
385,-559,6.95911,1.48181,0,0,0,0,0,0,0,-1,1609,1583,6.95916,-1.48175
392,-559,11.6949,4.77734,0,0,0,0,0,0,0,-1,1616,1583,11.6949,-4.77731
399,-559,11.1104,5.56909,0,0,0,0,0,0,0,-1,1623,1583,11.1103,-5.56905
406,-559,10.3385,6.48657,0,0,0,0,0,0,0,-1,1630,1583,10.3385,-6.48661
413,-559,9.76147,6.97571,0,0,0,0,0,0,0,-1,1637,1583,9.76143,-6.97574
420,-559,7.77124,10.5851,0,0,0,0,0,0,0,-1,1644,1583,7.77128,-10.585
427,-559,10.1022,12.5565,0,0,0,0,0,0,0,-1,1651,1583,10.1021,-12.5565
434,-559,9.62769,14.6309,0,0,0,0,0,0,0,-1,1658,1583,9.62771,-14.6309
441,-559,10.3553,16.2911,0,0,0,0,0,0,0,-1,1665,1583,10.3554,-16.2911
448,-559,11.1488,17.0879,0,0,0,0,0,0,0,-1,1672,1583,11.1488,-17.088
455,-559,10.9131,17.0979,0,0,0,0,0,0,0,-1,1679,1583,10.9131,-17.0979
462,-559,10.8396,16.8009,-0.00403956,-0.00833099,0.0104667,0.00449914,-0.0168697,0.684298,0.0130082,0.0490359,1686,1583,10.8396,-16.8009
469,-559,10.7911,16.7344,-0.00258807,-0.00686724,0.00792638,0.00348242,-0.0129377,0.653574,0.00999037,0.0241757,1693,1583,10.7912,-16.7344
476,-559,10.8029,16.4081,-0.00145057,-0.00548999,0.00574428,0.00261872,-0.00955928,0.616347,0.00740182,0.0114004,1700,1583,10.8028,-16.4081
483,-559,10.8263,16.0973,-0.00074075,-0.00427475,0.00422985,0.00207635,-0.00709184,0.587544,0.005551,0.011564,1707,1583,10.8263,-16.0973
490,-559,10.8224,15.8297,-0.000457287,-0.00306878,0.00317268,0.00166784,-0.0051939,0.590182,0.0041323,0.0148217,1714,1583,10.8224,-15.8297
497,-559,10.8572,15.5706,-0.000297404,-0.00211609,0.0021779,0.00115337,-0.00356686,0.587635,0.00284149,0.0181824,1721,1583,10.8572,-15.5705
504,-559,10.8718,15.2964,-0.000157658,-0.00118901,0.00138752,0.000806916,-0.00215359,0.607482,0.00176721,0.0242699,1728,1583,10.8718,-15.2964
511,-559,10.8544,14.9933,-0.00018704,-0.000514677,0.000836301,0.000501337,-0.00120305,0.688681,0.00101145,0.0216992,1735,1583,10.8544,-14.9933
518,-559,10.8617,14.7006,-0.000379591,0.000188629,0.000437488,0.000426165,-0.000617127,1.07338,0.000605699,0.0125802,1742,1583,10.8617,-14.7005
525,-559,10.853,14.4049,-0.000413615,0.000515938,0.000185726,0.000551672,-0.000449349,1.38071,0.000578946,0.010763,1749,1583,10.853,-14.405
532,-559,10.8348,14.1177,-0.000509745,0.000807452,0.000174942,0.000830291,-0.000532583,1.44098,0.000793089,0.0126601,1756,1583,10.8348,-14.1177
539,-559,10.8169,13.8474,-0.000755829,0.0010122,0.000299612,0.00106159,-0.000805222,1.40741,0.00108119,0.0172283,1763,1583,10.8169,-13.8474
546,-559,10.7928,13.5587,-0.00127071,0.00101134,0.000739546,0.00123005,-0.00148942,1.28326,0.00157246,0.0162513,1770,1583,10.7929,-13.5588
553,-559,10.9355,13.1658,-0.00178332,0.00126374,0.00117726,0.00166559,-0.00218517,1.24185,0.00222997,0.0243035,1777,1583,10.9356,-13.1658
560,-559,10.9504,12.7715,0,0,0,0,0,0,0,-1,1784,1583,10.9504,-12.7715
567,-559,9.41101,10.62,0,0,0,0,0,0,0,-1,1791,1583,9.41101,-10.62
574,-559,10.5109,10.7317,0,0,0,0,0,0,0,-1,1798,1583,10.5108,-10.7317
581,-559,5.97095,5.96179,0,0,0,0,0,0,0,-1,1805,1583,5.97093,-5.96181
588,-559,5.79102,5.89954,0,0,0,0,0,0,0,-1,1812,1583,5.79098,-5.89949
595,-559,5.79089,6.24231,0,0,0,0,0,0,0,-1,1819,1583,5.7909,-6.24227
602,-559,12.478,2.35669,0,0,0,0,0,0,0,-1,1826,1583,12.4781,-2.35675
609,-559,14.0479,1.22681,0,0,0,0,0,0,0,-1,1833,1583,14.0479,-1.22681
616,-559,0,0,0,0,0,0,0,0,0,-1,1840,1583,0,0
623,-559,0,0,0,0,0,0,0,0,0,-1,1847,1583,0,0
630,-559,0,0,0,0,0,0,0,0,0,-1,1854,1583,0,0
637,-559,0,0,0,0,0,0,0,0,0,-1,1861,1583,0,0
644,-559,0,0,0,0,0,0,0,0,0,-1,1868,1583,0,0
651,-559,0,0,0,0,0,0,0,0,0,-1,1875,1583,0,0
658,-559,0,0,0,0,0,0,0,0,0,-1,1882,1583,0,0
665,-559,0,0,0,0,0,0,0,0,0,-1,1889,1583,0,0
672,-559,0,0,0,0,0,0,0,0,0,-1,1896,1583,0,0
679,-559,0,0,0,0,0,0,0,0,0,-1,1903,1583,0,0
686,-559,0,0,0,0,0,0,0,0,0,-1,1910,1583,0,0
693,-559,0,0,0,0,0,0,0,0,0,-1,1917,1583,0,0
700,-559,0,0,0,0,0,0,0,0,0,-1,1924,1583,0,0
707,-559,0,0,0,0,0,0,0,0,0,-1,1931,1583,0,0
714,-559,0,0,0,0,0,0,0,0,0,-1,1938,1583,0,0
721,-559,0,0,0,0,0,0,0,0,0,-1,1945,1583,0,0
728,-559,0,0,0,0,0,0,0,0,0,-1,1952,1583,0,0
735,-559,0,0,0,0,0,0,0,0,0,-1,1959,1583,0,0
742,-559,0,0,0,0,0,0,0,0,0,-1,1966,1583,0,0
749,-559,0,0,0,0,0,0,0,0,0,-1,1973,1583,0,0
756,-559,0,0,0,0,0,0,0,0,0,-1,1980,1583,0,0
763,-559,0,0,0,0,0,0,0,0,0,-1,1987,1583,0,0
770,-559,0,0,0,0,0,0,0,0,0,-1,1994,1583,0,0
777,-559,0,0,0,0,0,0,0,0,0,-1,2001,1583,0,0
784,-559,0,0,0,0,0,0,0,0,0,-1,2008,1583,0,0
791,-559,0,0,0,0,0,0,0,0,0,-1,2015,1583,0,0
798,-559,0,0,0,0,0,0,0,0,0,-1,2022,1583,0,0
805,-559,0,0,0,0,0,0,0,0,0,-1,2029,1583,0,0
812,-559,0,0,0,0,0,0,0,0,0,-1,2036,1583,0,0
-700,-566,0,0,0,0,0,0,0,0,0,-1,524,1590,0,0
-693,-566,0,0,0,0,0,0,0,0,0,-1,531,1590,0,0
-686,-566,0,0,0,0,0,0,0,0,0,-1,538,1590,0,0
-679,-566,0,0,0,0,0,0,0,0,0,-1,545,1590,0,0
-672,-566,0,0,0,0,0,0,0,0,0,-1,552,1590,0,0
-665,-566,0,0,0,0,0,0,0,0,0,-1,559,1590,0,0
-658,-566,0,0,0,0,0,0,0,0,0,-1,566,1590,0,0
-651,-566,0,0,0,0,0,0,0,0,0,-1,573,1590,0,0
-644,-566,0,0,0,0,0,0,0,0,0,-1,580,1590,0,0
-637,-566,0,0,0,0,0,0,0,0,0,-1,587,1590,0,0
-630,-566,0,0,0,0,0,0,0,0,0,-1,594,1590,0,0
-623,-566,0,0,0,0,0,0,0,0,0,-1,601,1590,0,0
-616,-566,0,0,0,0,0,0,0,0,0,-1,608,1590,0,0
-609,-566,0,0,0,0,0,0,0,0,0,-1,615,1590,0,0
-602,-566,0,0,0,0,0,0,0,0,0,-1,622,1590,0,0
-595,-566,0,0,0,0,0,0,0,0,0,-1,629,1590,0,0
-588,-566,0,0,0,0,0,0,0,0,0,-1,636,1590,0,0
-581,-566,0,0,0,0,0,0,0,0,0,-1,643,1590,0,0
-574,-566,0,0,0,0,0,0,0,0,0,-1,650,1590,0,0
-567,-566,0,0,0,0,0,0,0,0,0,-1,657,1590,0,0
-560,-566,0,0,0,0,0,0,0,0,0,-1,664,1590,0,0
-553,-566,0,0,0,0,0,0,0,0,0,-1,671,1590,0,0
-546,-566,0,0,0,0,0,0,0,0,0,-1,678,1590,0,0
-539,-566,0,0,0,0,0,0,0,0,0,-1,685,1590,0,0
-532,-566,0,0,0,0,0,0,0,0,0,-1,692,1590,0,0
-525,-566,0,0,0,0,0,0,0,0,0,-1,699,1590,0,0
-518,-566,0,0,0,0,0,0,0,0,0,-1,706,1590,0,0
-511,-566,0,0,0,0,0,0,0,0,0,-1,713,1590,0,0
-504,-566,0,0,0,0,0,0,0,0,0,-1,720,1590,0,0
-497,-566,0,0,0,0,0,0,0,0,0,-1,727,1590,0,0
-490,-566,0,0,0,0,0,0,0,0,0,-1,734,1590,0,0
-483,-566,-7.17084,2.78613,0,0,0,0,0,0,0,-1,741,1590,-7.17083,-2.78618
-476,-566,-7.13971,2.87183,0,0,0,0,0,0,0,-1,748,1590,-7.13971,-2.87184
-469,-566,-6.43829,3.2998,0,0,0,0,0,0,0,-1,755,1590,-6.43829,-3.2998
-462,-566,-0.459106,3.89343,0,0,0,0,0,0,0,-1,762,1590,-0.459095,-3.89341
-455,-566,0.280212,4.74023,0,0,0,0,0,0,0,-1,769,1590,0.280207,-4.74023
-448,-566,0.436951,5.51306,0,0,0,0,0,0,0,-1,776,1590,0.436971,-5.51301
-441,-566,0.878845,10.3499,0,0,0,0,0,0,0,-1,783,1590,0.878836,-10.3499
-434,-566,0.360046,10.8712,0,0,0,0,0,0,0,-1,790,1590,0.360034,-10.8713
-427,-566,0.511047,11.4973,0.00406215,0.00717939,0.00532951,0.0111735,6.80275e-05,0.927657,0.00742644,0.0433375,797,1590,0.511027,-11.4974
-420,-566,0.868774,11.9489,0.00213148,0.00566184,0.00368607,0.00798359,-0.000190273,1.0087,0.00538694,0.0443067,804,1590,0.868773,-11.9489
-413,-566,0.956177,12.1844,0.000480428,0.00446304,0.00231438,0.00552487,-0.000581406,1.14065,0.00389155,0.0209943,811,1590,0.956187,-12.1844
-406,-566,0.956421,12.5061,-0.000248482,0.00365568,0.00167319,0.00427463,-0.000867426,1.21649,0.00317859,0.00982781,818,1590,0.956408,-12.5062
-399,-566,0.954956,12.8188,-0.000634842,0.00281879,0.00124009,0.00321793,-0.00103399,1.2594,0.00256051,0.010062,825,1590,0.954982,-12.8188
-392,-566,0.953796,13.1333,-0.000695073,0.00225543,0.000857079,0.00248633,-0.000925973,1.30764,0.0020376,0.0121239,832,1590,0.953821,-13.1333
-385,-566,0.965515,13.4678,-0.000478822,0.00191154,0.000600828,0.00205406,-0.000621345,1.33789,0.00161679,0.014497,839,1590,0.965536,-13.4678
-378,-566,0.941956,13.7872,-0.00018884,0.00156447,0.000414626,0.00165758,-0.000281947,1.3499,0.00121003,0.0149644,846,1590,0.94195,-13.7872
-371,-566,0.896545,14.077,4.11565e-05,0.00122035,0.000109979,0.00123052,3.09869e-05,1.47859,0.000810218,0.0211929,853,1590,0.896551,-14.0771
-364,-566,0.915466,14.376,0.000261832,0.00127366,-0.000122509,0.00128828,0.000247211,-1.45201,0.000789461,0.0225958,860,1590,0.915465,-14.3759
-357,-566,0.911926,14.6832,0.000526798,0.00156845,-0.000445849,0.00173322,0.000362028,-1.2168,0.0010557,0.0183059,867,1590,0.911956,-14.6832
-350,-566,0.916687,14.9979,0.000733525,0.00186227,-0.000821889,0.0022949,0.000300894,-1.08626,0.00144015,0.0200796,874,1590,0.916687,-14.9979
-343,-566,0.925049,15.2611,0.00080075,0.00217087,-0.00120103,0.00286848,0.000103138,-1.04458,0.00187888,0.0241038,881,1590,0.92503,-15.2611
-336,-566,0.847778,15.5646,0.000649171,0.00266002,-0.00141354,0.00338923,-8.00444e-05,-1.09453,0.00228664,0.0229321,888,1590,0.847806,-15.5645
-329,-566,0.922302,15.8259,0.00038428,0.00340958,-0.00174665,0.00420754,-0.000413672,-1.14226,0.00295259,0.0159074,895,1590,0.922286,-15.8259
-322,-566,0.985779,16.1772,-0.000160575,0.00408977,-0.00206805,0.00492992,-0.00100073,-1.18491,0.00366601,0.0210341,902,1590,0.985786,-16.1772
-315,-566,0.79248,16.4636,-0.00081931,0.00477045,-0.00237939,0.00564611,-0.00169497,-1.21816,0.00443829,0.0356638,909,1590,0.792494,-16.4636
-308,-566,0.737305,16.8373,-0.00154385,0.00458654,-0.00320584,0.00595675,-0.00291406,-1.16689,0.00522102,0.039169,916,1590,0.737332,-16.8373
-301,-566,0.861816,17.1405,0,0,0,0,0,0,0,-1,923,1590,0.861807,-17.1405
-294,-566,0.963196,17.4449,0,0,0,0,0,0,0,-1,930,1590,0.96321,-17.445
-287,-566,1.68121,17.1316,0,0,0,0,0,0,0,-1,937,1590,1.68122,-17.1316
-280,-566,1.59406,17.8762,0,0,0,0,0,0,0,-1,944,1590,1.59405,-17.8762
-273,-566,0.49762,11.2427,0,0,0,0,0,0,0,-1,951,1590,0.497591,-11.2426
-266,-566,0.392151,6.90295,0,0,0,0,0,0,0,-1,958,1590,0.392151,-6.90294
-259,-566,0.343628,6.47437,0,0,0,0,0,0,0,-1,965,1590,0.34363,-6.47438
-252,-566,-7.68311,1.01343,0,0,0,0,0,0,0,-1,972,1590,-7.68308,-1.01348
-245,-566,-11.1835,1.97522,0,0,0,0,0,0,0,-1,979,1590,-11.1835,-1.97527
-238,-566,-10.4883,2.40491,0,0,0,0,0,0,0,-1,986,1590,-10.4883,-2.40487
-231,-566,-7.41827,4.22803,0,0,0,0,0,0,0,-1,993,1590,-7.41827,-4.22803
-224,-566,-4.67188,6.30859,0,0,0,0,0,0,0,-1,1000,1590,-4.67185,-6.30853
-217,-566,-2.82867,7.52527,0,0,0,0,0,0,0,-1,1007,1590,-2.82869,-7.52531
-210,-566,-1.03436,8.67737,0,0,0,0,0,0,0,-1,1014,1590,-1.03439,-8.67733
-203,-566,0,0,0,0,0,0,0,0,0,-1,1021,1590,0,0
-196,-566,0,0,0,0,0,0,0,0,0,-1,1028,1590,0,0
-189,-566,0,0,0,0,0,0,0,0,0,-1,1035,1590,0,0
-182,-566,0,0,0,0,0,0,0,0,0,-1,1042,1590,0,0
-175,-566,0,0,0,0,0,0,0,0,0,-1,1049,1590,0,0
-168,-566,0,0,0,0,0,0,0,0,0,-1,1056,1590,0,0
-161,-566,0,0,0,0,0,0,0,0,0,-1,1063,1590,0,0
-154,-566,0,0,0,0,0,0,0,0,0,-1,1070,1590,0,0
-147,-566,0,0,0,0,0,0,0,0,0,-1,1077,1590,0,0
-140,-566,0,0,0,0,0,0,0,0,0,-1,1084,1590,0,0
-133,-566,0,0,0,0,0,0,0,0,0,-1,1091,1590,0,0
-126,-566,0,0,0,0,0,0,0,0,0,-1,1098,1590,0,0
-119,-566,0,0,0,0,0,0,0,0,0,-1,1105,1590,0,0
-112,-566,0,0,0,0,0,0,0,0,0,-1,1112,1590,0,0
-105,-566,0,0,0,0,0,0,0,0,0,-1,1119,1590,0,0
-98,-566,0,0,0,0,0,0,0,0,0,-1,1126,1590,0,0
-91,-566,0,0,0,0,0,0,0,0,0,-1,1133,1590,0,0
-84,-566,0,0,0,0,0,0,0,0,0,-1,1140,1590,0,0
-77,-566,0,0,0,0,0,0,0,0,0,-1,1147,1590,0,0
-70,-566,0,0,0,0,0,0,0,0,0,-1,1154,1590,0,0
-63,-566,0,0,0,0,0,0,0,0,0,-1,1161,1590,0,0
-56,-566,0,0,0,0,0,0,0,0,0,-1,1168,1590,0,0
-49,-566,0,0,0,0,0,0,0,0,0,-1,1175,1590,0,0
-42,-566,0,0,0,0,0,0,0,0,0,-1,1182,1590,0,0
-35,-566,0,0,0,0,0,0,0,0,0,-1,1189,1590,0,0
-28,-566,0,0,0,0,0,0,0,0,0,-1,1196,1590,0,0
-21,-566,0,0,0,0,0,0,0,0,0,-1,1203,1590,0,0
-14,-566,0,0,0,0,0,0,0,0,0,-1,1210,1590,0,0
-7,-566,0,0,0,0,0,0,0,0,0,-1,1217,1590,0,0
0,-566,0,0,0,0,0,0,0,0,0,-1,1224,1590,0,0
7,-566,0,0,0,0,0,0,0,0,0,-1,1231,1590,0,0
14,-566,0,0,0,0,0,0,0,0,0,-1,1238,1590,0,0
21,-566,0,0,0,0,0,0,0,0,0,-1,1245,1590,0,0
28,-566,0,0,0,0,0,0,0,0,0,-1,1252,1590,0,0
35,-566,0,0,0,0,0,0,0,0,0,-1,1259,1590,0,0
42,-566,0,0,0,0,0,0,0,0,0,-1,1266,1590,0,0
49,-566,0,0,0,0,0,0,0,0,0,-1,1273,1590,0,0
56,-566,0,0,0,0,0,0,0,0,0,-1,1280,1590,0,0
63,-566,0,0,0,0,0,0,0,0,0,-1,1287,1590,0,0
70,-566,0,0,0,0,0,0,0,0,0,-1,1294,1590,0,0
77,-566,0,0,0,0,0,0,0,0,0,-1,1301,1590,0,0
84,-566,0,0,0,0,0,0,0,0,0,-1,1308,1590,0,0
91,-566,0,0,0,0,0,0,0,0,0,-1,1315,1590,0,0
98,-566,0,0,0,0,0,0,0,0,0,-1,1322,1590,0,0
105,-566,0,0,0,0,0,0,0,0,0,-1,1329,1590,0,0
112,-566,0,0,0,0,0,0,0,0,0,-1,1336,1590,0,0
119,-566,0,0,0,0,0,0,0,0,0,-1,1343,1590,0,0
126,-566,0,0,0,0,0,0,0,0,0,-1,1350,1590,0,0
133,-566,0,0,0,0,0,0,0,0,0,-1,1357,1590,0,0
140,-566,0,0,0,0,0,0,0,0,0,-1,1364,1590,0,0
147,-566,0,0,0,0,0,0,0,0,0,-1,1371,1590,0,0
154,-566,0,0,0,0,0,0,0,0,0,-1,1378,1590,0,0
161,-566,0,0,0,0,0,0,0,0,0,-1,1385,1590,0,0
168,-566,0,0,0,0,0,0,0,0,0,-1,1392,1590,0,0
175,-566,0,0,0,0,0,0,0,0,0,-1,1399,1590,0,0
182,-566,0,0,0,0,0,0,0,0,0,-1,1406,1590,0,0
189,-566,0,0,0,0,0,0,0,0,0,-1,1413,1590,0,0
196,-566,0,0,0,0,0,0,0,0,0,-1,1420,1590,0,0
203,-566,0,0,0,0,0,0,0,0,0,-1,1427,1590,0,0
210,-566,0,0,0,0,0,0,0,0,0,-1,1434,1590,0,0
217,-566,0,0,0,0,0,0,0,0,0,-1,1441,1590,0,0
224,-566,0,0,0,0,0,0,0,0,0,-1,1448,1590,0,0
231,-566,0,0,0,0,0,0,0,0,0,-1,1455,1590,0,0
238,-566,0,0,0,0,0,0,0,0,0,-1,1462,1590,0,0
245,-566,0,0,0,0,0,0,0,0,0,-1,1469,1590,0,0
252,-566,0,0,0,0,0,0,0,0,0,-1,1476,1590,0,0
259,-566,0,0,0,0,0,0,0,0,0,-1,1483,1590,0,0
266,-566,0,0,0,0,0,0,0,0,0,-1,1490,1590,0,0
273,-566,0,0,0,0,0,0,0,0,0,-1,1497,1590,0,0
280,-566,0,0,0,0,0,0,0,0,0,-1,1504,1590,0,0
287,-566,0,0,0,0,0,0,0,0,0,-1,1511,1590,0,0
294,-566,0,0,0,0,0,0,0,0,0,-1,1518,1590,0,0
301,-566,0,0,0,0,0,0,0,0,0,-1,1525,1590,0,0
308,-566,0,0,0,0,0,0,0,0,0,-1,1532,1590,0,0
315,-566,0,0,0,0,0,0,0,0,0,-1,1539,1590,0,0
322,-566,6.07983,4.44873,0,0,0,0,0,0,0,-1,1546,1590,6.07983,-4.44873
329,-566,5.77026,3.47534,0,0,0,0,0,0,0,-1,1553,1590,5.77026,-3.47535
336,-566,5.41138,2.62915,0,0,0,0,0,0,0,-1,1560,1590,5.41138,-2.62909
343,-566,4.81873,1.79089,0,0,0,0,0,0,0,-1,1567,1590,4.81878,-1.79095
350,-566,4.41663,2.44214,0,0,0,0,0,0,0,-1,1574,1590,4.41666,-2.44214
357,-566,6.34058,5.18579,0,0,0,0,0,0,0,-1,1581,1590,6.34059,-5.1858
364,-566,6.06262,4.20251,0,0,0,0,0,0,0,-1,1588,1590,6.06259,-4.20246
371,-566,5.78455,3.21912,0,0,0,0,0,0,0,-1,1595,1590,5.7846,-3.21912
378,-566,5.7439,0.695557,0,0,0,0,0,0,0,-1,1602,1590,5.74392,-0.695531
385,-566,5.67615,-0.573975,0,0,0,0,0,0,0,-1,1609,1590,5.67612,0.573956
392,-566,5.78638,1.82434,0,0,0,0,0,0,0,-1,1616,1590,5.78637,-1.82439
399,-566,5.36621,1.7373,0,0,0,0,0,0,0,-1,1623,1590,5.36627,-1.7373
406,-566,4.30359,5.26868,0,0,0,0,0,0,0,-1,1630,1590,4.30364,-5.26867
413,-566,4.27124,5.79492,0,0,0,0,0,0,0,-1,1637,1590,4.27123,-5.7949
420,-566,7.19812,8.25146,0,0,0,0,0,0,0,-1,1644,1590,7.19817,-8.25149
427,-566,10.455,10.6842,0,0,0,0,0,0,0,-1,1651,1590,10.455,-10.6842
434,-566,9.18567,14.3304,0,0,0,0,0,0,0,-1,1658,1590,9.18571,-14.3305
441,-566,10.833,17.8312,0,0,0,0,0,0,0,-1,1665,1590,10.833,-17.8312
448,-566,10.778,17.2518,-0.00782823,-0.00723591,0.0139111,0.00638219,-0.0214463,0.796041,0.0168332,0.0426401,1672,1590,10.7779,-17.2518
455,-566,10.5259,17.2068,-0.00527303,-0.00652157,0.0106944,0.00481529,-0.0166099,0.756245,0.0129796,0.0354158,1679,1590,10.5259,-17.2068
462,-566,10.5043,17.0208,-0.00336169,-0.00559749,0.00801908,0.00361704,-0.0125762,0.716142,0.00981456,0.0213512,1686,1590,10.5043,-17.0208
469,-566,10.52,16.6698,-0.00204344,-0.00468235,0.00598301,0.00276388,-0.00948968,0.676869,0.00742133,0.0134857,1693,1590,10.52,-16.6697
476,-566,10.5472,16.3807,-0.00102968,-0.00378655,0.00421104,0.00202279,-0.00683903,0.627226,0.00536233,0.00973702,1700,1590,10.5473,-16.3808
483,-566,10.5426,16.1051,-0.000439069,-0.00298206,0.00304197,0.00158645,-0.00500757,0.587442,0.00397418,0.00911683,1707,1590,10.5426,-16.105
490,-566,10.5294,15.8223,-0.000223465,-0.00209738,0.00224095,0.00126851,-0.00358936,0.587389,0.00290943,0.0105531,1714,1590,10.5295,-15.8222
497,-566,10.5704,15.5492,-0.00017183,-0.0014035,0.0014603,0.00079718,-0.00237251,0.585855,0.00190387,0.0141672,1721,1590,10.5704,-15.5492
504,-566,10.5901,15.2988,-0.000195189,-0.000682473,0.00090914,0.00050239,-0.00138005,0.654478,0.00112551,0.0197282,1728,1590,10.5901,-15.2988
511,-566,10.5721,15.0093,-0.000346743,-0.000143063,0.00051893,0.000283925,-0.000773731,0.882291,0.000632089,0.0190243,1735,1590,10.5721,-15.0093
518,-566,10.5651,14.7207,-0.000605976,0.000393647,0.000266529,0.000460271,-0.0006726,1.32585,0.000657882,0.0109287,1742,1590,10.5651,-14.7207
525,-566,10.5483,14.4119,-0.000783408,0.000689737,0.000179674,0.000711335,-0.000805006,1.45117,0.000876016,0.0107954,1749,1590,10.5483,-14.4119
532,-566,10.5452,14.1156,-0.00106866,0.000995698,0.000279055,0.00103275,-0.00110572,1.43878,0.00123489,0.0136402,1756,1590,10.5452,-14.1156
539,-566,10.558,13.8217,-0.00156453,0.00120902,0.000567763,0.00132074,-0.00167626,1.3765,0.00173437,0.0182664,1763,1590,10.5579,-13.8216
546,-566,10.6045,13.4827,-0.00240766,0.00121856,0.00125996,0.00161336,-0.00280246,1.26714,0.0025801,0.0219991,1770,1590,10.6044,-13.4827
553,-566,10.6361,13.3069,-0.00320839,0.00155867,0.00192007,0.00223584,-0.00388556,1.23174,0.00357672,0.0380263,1777,1590,10.6361,-13.3069
560,-566,10.4133,13.0807,0,0,0,0,0,0,0,-1,1784,1590,10.4133,-13.0807
567,-566,9.58167,12.2573,0,0,0,0,0,0,0,-1,1791,1590,9.58163,-12.2574
574,-566,7.99548,3.14514,0,0,0,0,0,0,0,-1,1798,1590,7.99543,-3.14511
581,-566,2.54102,5.1311,0,0,0,0,0,0,0,-1,1805,1590,2.54099,-5.13111
588,-566,-1.91321,8.39197,0,0,0,0,0,0,0,-1,1812,1590,-1.91316,-8.39199
595,-566,9.0271,4.66467,0,0,0,0,0,0,0,-1,1819,1590,9.02705,-4.66468
602,-566,9.953,3.54895,0,0,0,0,0,0,0,-1,1826,1590,9.953,-3.54898
609,-566,0,0,0,0,0,0,0,0,0,-1,1833,1590,0,0
616,-566,0,0,0,0,0,0,0,0,0,-1,1840,1590,0,0
623,-566,0,0,0,0,0,0,0,0,0,-1,1847,1590,0,0
630,-566,0,0,0,0,0,0,0,0,0,-1,1854,1590,0,0
637,-566,0,0,0,0,0,0,0,0,0,-1,1861,1590,0,0
644,-566,0,0,0,0,0,0,0,0,0,-1,1868,1590,0,0
651,-566,0,0,0,0,0,0,0,0,0,-1,1875,1590,0,0
658,-566,0,0,0,0,0,0,0,0,0,-1,1882,1590,0,0
665,-566,0,0,0,0,0,0,0,0,0,-1,1889,1590,0,0
672,-566,0,0,0,0,0,0,0,0,0,-1,1896,1590,0,0
679,-566,0,0,0,0,0,0,0,0,0,-1,1903,1590,0,0
686,-566,0,0,0,0,0,0,0,0,0,-1,1910,1590,0,0
693,-566,0,0,0,0,0,0,0,0,0,-1,1917,1590,0,0
700,-566,0,0,0,0,0,0,0,0,0,-1,1924,1590,0,0
707,-566,0,0,0,0,0,0,0,0,0,-1,1931,1590,0,0
714,-566,0,0,0,0,0,0,0,0,0,-1,1938,1590,0,0
721,-566,0,0,0,0,0,0,0,0,0,-1,1945,1590,0,0
728,-566,0,0,0,0,0,0,0,0,0,-1,1952,1590,0,0
735,-566,0,0,0,0,0,0,0,0,0,-1,1959,1590,0,0
742,-566,0,0,0,0,0,0,0,0,0,-1,1966,1590,0,0
749,-566,0,0,0,0,0,0,0,0,0,-1,1973,1590,0,0
756,-566,0,0,0,0,0,0,0,0,0,-1,1980,1590,0,0
763,-566,0,0,0,0,0,0,0,0,0,-1,1987,1590,0,0
770,-566,0,0,0,0,0,0,0,0,0,-1,1994,1590,0,0
777,-566,0,0,0,0,0,0,0,0,0,-1,2001,1590,0,0
784,-566,0,0,0,0,0,0,0,0,0,-1,2008,1590,0,0
791,-566,0,0,0,0,0,0,0,0,0,-1,2015,1590,0,0
798,-566,0,0,0,0,0,0,0,0,0,-1,2022,1590,0,0
805,-566,0,0,0,0,0,0,0,0,0,-1,2029,1590,0,0
812,-566,0,0,0,0,0,0,0,0,0,-1,2036,1590,0,0
-700,-573,0,0,0,0,0,0,0,0,0,-1,524,1597,0,0
-693,-573,0,0,0,0,0,0,0,0,0,-1,531,1597,0,0
-686,-573,0,0,0,0,0,0,0,0,0,-1,538,1597,0,0
-679,-573,0,0,0,0,0,0,0,0,0,-1,545,1597,0,0
-672,-573,0,0,0,0,0,0,0,0,0,-1,552,1597,0,0
-665,-573,0,0,0,0,0,0,0,0,0,-1,559,1597,0,0
-658,-573,0,0,0,0,0,0,0,0,0,-1,566,1597,0,0
-651,-573,0,0,0,0,0,0,0,0,0,-1,573,1597,0,0
-644,-573,0,0,0,0,0,0,0,0,0,-1,580,1597,0,0
-637,-573,0,0,0,0,0,0,0,0,0,-1,587,1597,0,0
-630,-573,0,0,0,0,0,0,0,0,0,-1,594,1597,0,0
-623,-573,0,0,0,0,0,0,0,0,0,-1,601,1597,0,0
-616,-573,0,0,0,0,0,0,0,0,0,-1,608,1597,0,0
-609,-573,0,0,0,0,0,0,0,0,0,-1,615,1597,0,0
-602,-573,0,0,0,0,0,0,0,0,0,-1,622,1597,0,0
-595,-573,0,0,0,0,0,0,0,0,0,-1,629,1597,0,0
-588,-573,0,0,0,0,0,0,0,0,0,-1,636,1597,0,0
-581,-573,0,0,0,0,0,0,0,0,0,-1,643,1597,0,0
-574,-573,0,0,0,0,0,0,0,0,0,-1,650,1597,0,0
-567,-573,0,0,0,0,0,0,0,0,0,-1,657,1597,0,0
-560,-573,0,0,0,0,0,0,0,0,0,-1,664,1597,0,0
-553,-573,0,0,0,0,0,0,0,0,0,-1,671,1597,0,0
-546,-573,0,0,0,0,0,0,0,0,0,-1,678,1597,0,0
-539,-573,0,0,0,0,0,0,0,0,0,-1,685,1597,0,0
-532,-573,0,0,0,0,0,0,0,0,0,-1,692,1597,0,0
-525,-573,0,0,0,0,0,0,0,0,0,-1,699,1597,0,0
-518,-573,0,0,0,0,0,0,0,0,0,-1,706,1597,0,0
-511,-573,0,0,0,0,0,0,0,0,0,-1,713,1597,0,0
-504,-573,0,0,0,0,0,0,0,0,0,-1,720,1597,0,0
-497,-573,0,0,0,0,0,0,0,0,0,-1,727,1597,0,0
-490,-573,0,0,0,0,0,0,0,0,0,-1,734,1597,0,0
-483,-573,0,0,0,0,0,0,0,0,0,-1,741,1597,0,0
-476,-573,-9.3327,0.972778,0,0,0,0,0,0,0,-1,748,1597,-9.33268,-0.972776
-469,-573,-1.41681,1.13379,0,0,0,0,0,0,0,-1,755,1597,-1.41681,-1.13382
-462,-573,-0.748535,2.02588,0,0,0,0,0,0,0,-1,762,1597,-0.748533,-2.02584
-455,-573,-0.112976,2.70703,0,0,0,0,0,0,0,-1,769,1597,-0.112988,-2.70697
-448,-573,-1.26172,3.33252,0,0,0,0,0,0,0,-1,776,1597,-1.26173,-3.33248
-441,-573,0.108582,5.06726,0,0,0,0,0,0,0,-1,783,1597,0.108584,-5.06721
-434,-573,1.61768,7.05444,0,0,0,0,0,0,0,-1,790,1597,1.61767,-7.05446
-427,-573,0.215332,11.373,0,0,0,0,0,0,0,-1,797,1597,0.215352,-11.3731
-420,-573,1.245,11.7222,0,0,0,0,0,0,0,-1,804,1597,1.24499,-11.7221
-413,-573,1.40955,12.1185,1.25133e-05,0.00633046,0.00309019,0.00759058,-0.00124761,1.1836,0.00552343,0.0442752,811,1597,1.40957,-12.1186
-406,-573,1.26062,12.4838,-0.00100414,0.00486502,0.00209071,0.00553362,-0.00167273,1.26128,0.00435508,0.0199611,818,1597,1.26063,-12.4837
-399,-573,1.24622,12.8357,-0.00158417,0.00353249,0.00142783,0.00390396,-0.00195564,1.31627,0.00344482,0.0110928,825,1597,1.24624,-12.8356
-392,-573,1.26019,13.1547,-0.00175369,0.0025416,0.00087018,0.0027112,-0.00192328,1.37831,0.00268858,0.0110634,832,1597,1.2602,-13.1547
-385,-573,1.23914,13.4731,-0.00157051,0.00186853,0.00050929,0.00194236,-0.00164435,1.42682,0.00207317,0.0134981,839,1597,1.23917,-13.4732
-378,-573,1.21759,13.7712,-0.00124369,0.00132893,0.000297322,0.00136285,-0.00127761,1.45722,0.00152473,0.0155881,846,1597,1.21757,-13.7713
-371,-573,1.23187,14.1056,-0.000973239,0.000825172,-3.20853e-05,0.000825744,-0.000973811,-1.55296,0.00104015,0.0167318,853,1597,1.23185,-14.1056
-364,-573,1.20862,14.4166,-0.000635419,0.000737458,-0.000206533,0.000767856,-0.000665817,-1.42467,0.00082843,0.02037,860,1597,1.20862,-14.4167
-357,-573,1.21808,14.6857,-0.000213939,0.000906917,-0.000420431,0.00104709,-0.000354112,-1.24898,0.000841316,0.0236731,867,1597,1.21806,-14.6857
-350,-573,1.23499,14.9867,0.000167955,0.00120156,-0.000659948,0.00152298,-0.000153465,-1.11757,0.00107015,0.0175369,874,1597,1.23496,-14.9867
-343,-573,1.23816,15.2695,0.000406864,0.00141853,-0.0008996,0.00194476,-0.000119363,-1.04151,0.00133807,0.0199434,881,1597,1.23815,-15.2695
-336,-573,1.2002,15.5833,0.00049664,0.00189761,-0.000962505,0.00238754,6.70692e-06,-1.09996,0.00158946,0.0162083,888,1597,1.20018,-15.5833
-329,-573,1.22021,15.8763,0.000525407,0.0026451,-0.0010963,0.0031101,6.04064e-05,-1.16964,0.00205356,0.0169488,895,1597,1.22021,-15.8764
-322,-573,1.23999,16.1744,0.000307561,0.00329737,-0.00123898,0.00374407,-0.000139137,-1.22477,0.00254369,0.0133603,902,1597,1.23999,-16.1745
-315,-573,1.31598,16.5468,-5.81526e-05,0.00381798,-0.00145885,0.00430568,-0.000545852,-1.24817,0.00306863,0.0240288,909,1597,1.31595,-16.5467
-308,-573,1.28497,16.6921,-0.000488714,0.00341784,-0.00218054,0.00439203,-0.0014629,-1.15064,0.00351853,0.0345034,916,1597,1.285,-16.6922
-301,-573,1.43579,17.1471,0,0,0,0,0,0,0,-1,923,1597,1.43577,-17.1471
-294,-573,1.56207,17.1072,-0.00130055,-0.000241024,-0.00285725,0.00213516,-0.00367673,-0.877062,0.00339461,0.0345885,930,1597,1.56206,-17.1072
-287,-573,1.5578,17.2992,-0.00178247,-0.00300876,-0.00333684,0.000997088,-0.00578832,-0.694537,0.00423059,0.0418236,937,1597,1.55782,-17.2992
-280,-573,1.24341,18.0801,0,0,0,0,0,0,0,-1,944,1597,1.2434,-18.0801
-273,-573,0.99762,18.5568,0,0,0,0,0,0,0,-1,951,1597,0.997625,-18.5567
-266,-573,1.31116,7.1814,0,0,0,0,0,0,0,-1,958,1597,1.31118,-7.18142
-259,-573,1.2514,6.70959,0,0,0,0,0,0,0,-1,965,1597,1.25137,-6.70965
-252,-573,2.07874,5.27161,0,0,0,0,0,0,0,-1,972,1597,2.07875,-5.27157
-245,-573,-10.2592,1.09827,0,0,0,0,0,0,0,-1,979,1597,-10.2592,-1.09823
-238,-573,-11.5463,4.44141,0,0,0,0,0,0,0,-1,986,1597,-11.5463,-4.44146
-231,-573,-9.23431,4.14539,0,0,0,0,0,0,0,-1,993,1597,-9.23431,-4.14534
-224,-573,-6.70044,7.40857,0,0,0,0,0,0,0,-1,1000,1597,-6.70045,-7.40851
-217,-573,-4.25824,8.59119,0,0,0,0,0,0,0,-1,1007,1597,-4.25824,-8.59122
-210,-573,-2.39661,9.73914,0,0,0,0,0,0,0,-1,1014,1597,-2.39658,-9.73915
-203,-573,-0.557373,10.9005,0,0,0,0,0,0,0,-1,1021,1597,-0.557387,-10.9006
-196,-573,-1.65344,9.02246,0,0,0,0,0,0,0,-1,1028,1597,-1.65349,-9.02241
-189,-573,-6.12915,6.66882,0,0,0,0,0,0,0,-1,1035,1597,-6.12913,-6.66884
-182,-573,0,0,0,0,0,0,0,0,0,-1,1042,1597,0,0
-175,-573,0,0,0,0,0,0,0,0,0,-1,1049,1597,0,0
-168,-573,0,0,0,0,0,0,0,0,0,-1,1056,1597,0,0
-161,-573,0,0,0,0,0,0,0,0,0,-1,1063,1597,0,0
-154,-573,0,0,0,0,0,0,0,0,0,-1,1070,1597,0,0
-147,-573,0,0,0,0,0,0,0,0,0,-1,1077,1597,0,0
-140,-573,0,0,0,0,0,0,0,0,0,-1,1084,1597,0,0
-133,-573,0,0,0,0,0,0,0,0,0,-1,1091,1597,0,0
-126,-573,0,0,0,0,0,0,0,0,0,-1,1098,1597,0,0
-119,-573,0,0,0,0,0,0,0,0,0,-1,1105,1597,0,0
-112,-573,0,0,0,0,0,0,0,0,0,-1,1112,1597,0,0
-105,-573,0,0,0,0,0,0,0,0,0,-1,1119,1597,0,0
-98,-573,0,0,0,0,0,0,0,0,0,-1,1126,1597,0,0
-91,-573,0,0,0,0,0,0,0,0,0,-1,1133,1597,0,0
-84,-573,0,0,0,0,0,0,0,0,0,-1,1140,1597,0,0
-77,-573,0,0,0,0,0,0,0,0,0,-1,1147,1597,0,0
-70,-573,0,0,0,0,0,0,0,0,0,-1,1154,1597,0,0
-63,-573,0,0,0,0,0,0,0,0,0,-1,1161,1597,0,0
-56,-573,0,0,0,0,0,0,0,0,0,-1,1168,1597,0,0
-49,-573,0,0,0,0,0,0,0,0,0,-1,1175,1597,0,0
-42,-573,0,0,0,0,0,0,0,0,0,-1,1182,1597,0,0
-35,-573,0,0,0,0,0,0,0,0,0,-1,1189,1597,0,0
-28,-573,0,0,0,0,0,0,0,0,0,-1,1196,1597,0,0
-21,-573,0,0,0,0,0,0,0,0,0,-1,1203,1597,0,0
-14,-573,0,0,0,0,0,0,0,0,0,-1,1210,1597,0,0
-7,-573,0,0,0,0,0,0,0,0,0,-1,1217,1597,0,0
0,-573,0,0,0,0,0,0,0,0,0,-1,1224,1597,0,0
7,-573,0,0,0,0,0,0,0,0,0,-1,1231,1597,0,0
14,-573,0,0,0,0,0,0,0,0,0,-1,1238,1597,0,0
21,-573,0,0,0,0,0,0,0,0,0,-1,1245,1597,0,0
28,-573,0,0,0,0,0,0,0,0,0,-1,1252,1597,0,0
35,-573,0,0,0,0,0,0,0,0,0,-1,1259,1597,0,0
42,-573,0,0,0,0,0,0,0,0,0,-1,1266,1597,0,0
49,-573,0,0,0,0,0,0,0,0,0,-1,1273,1597,0,0
56,-573,0,0,0,0,0,0,0,0,0,-1,1280,1597,0,0
63,-573,0,0,0,0,0,0,0,0,0,-1,1287,1597,0,0
70,-573,0,0,0,0,0,0,0,0,0,-1,1294,1597,0,0
77,-573,0,0,0,0,0,0,0,0,0,-1,1301,1597,0,0
84,-573,0,0,0,0,0,0,0,0,0,-1,1308,1597,0,0
91,-573,0,0,0,0,0,0,0,0,0,-1,1315,1597,0,0
98,-573,0,0,0,0,0,0,0,0,0,-1,1322,1597,0,0
105,-573,0,0,0,0,0,0,0,0,0,-1,1329,1597,0,0
112,-573,0,0,0,0,0,0,0,0,0,-1,1336,1597,0,0
119,-573,0,0,0,0,0,0,0,0,0,-1,1343,1597,0,0
126,-573,0,0,0,0,0,0,0,0,0,-1,1350,1597,0,0
133,-573,0,0,0,0,0,0,0,0,0,-1,1357,1597,0,0
140,-573,0,0,0,0,0,0,0,0,0,-1,1364,1597,0,0
147,-573,0,0,0,0,0,0,0,0,0,-1,1371,1597,0,0
154,-573,0,0,0,0,0,0,0,0,0,-1,1378,1597,0,0
161,-573,0,0,0,0,0,0,0,0,0,-1,1385,1597,0,0
168,-573,0,0,0,0,0,0,0,0,0,-1,1392,1597,0,0
175,-573,0,0,0,0,0,0,0,0,0,-1,1399,1597,0,0
182,-573,0,0,0,0,0,0,0,0,0,-1,1406,1597,0,0
189,-573,0,0,0,0,0,0,0,0,0,-1,1413,1597,0,0
196,-573,0,0,0,0,0,0,0,0,0,-1,1420,1597,0,0
203,-573,0,0,0,0,0,0,0,0,0,-1,1427,1597,0,0
210,-573,0,0,0,0,0,0,0,0,0,-1,1434,1597,0,0
217,-573,0,0,0,0,0,0,0,0,0,-1,1441,1597,0,0
224,-573,0,0,0,0,0,0,0,0,0,-1,1448,1597,0,0
231,-573,0,0,0,0,0,0,0,0,0,-1,1455,1597,0,0
238,-573,0,0,0,0,0,0,0,0,0,-1,1462,1597,0,0
245,-573,0,0,0,0,0,0,0,0,0,-1,1469,1597,0,0
252,-573,0,0,0,0,0,0,0,0,0,-1,1476,1597,0,0
259,-573,0,0,0,0,0,0,0,0,0,-1,1483,1597,0,0
266,-573,0,0,0,0,0,0,0,0,0,-1,1490,1597,0,0
273,-573,0,0,0,0,0,0,0,0,0,-1,1497,1597,0,0
280,-573,0,0,0,0,0,0,0,0,0,-1,1504,1597,0,0
287,-573,0,0,0,0,0,0,0,0,0,-1,1511,1597,0,0
294,-573,0,0,0,0,0,0,0,0,0,-1,1518,1597,0,0
301,-573,0,0,0,0,0,0,0,0,0,-1,1525,1597,0,0
308,-573,5.93042,9.71143,0,0,0,0,0,0,0,-1,1532,1597,5.93046,-9.71144
315,-573,4.34204,11.719,0,0,0,0,0,0,0,-1,1539,1597,4.34205,-11.719
322,-573,10.3269,7.77563,0,0,0,0,0,0,0,-1,1546,1597,10.327,-7.77565
329,-573,4.99573,3.80273,0,0,0,0,0,0,0,-1,1553,1597,4.9957,-3.80273
336,-573,4.85693,2.53455,0,0,0,0,0,0,0,-1,1560,1597,4.8569,-2.53459
343,-573,5.5946,2.15894,0,0,0,0,0,0,0,-1,1567,1597,5.59456,-2.1589
350,-573,2.53748,1.56433,0,0,0,0,0,0,0,-1,1574,1597,2.53753,-1.5643
357,-573,7.40247,4.03613,0,0,0,0,0,0,0,-1,1581,1597,7.40244,-4.03614
364,-573,7.14551,3.02087,0,0,0,0,0,0,0,-1,1588,1597,7.14556,-3.02084
371,-573,6.88867,2.00549,0,0,0,0,0,0,0,-1,1595,1597,6.88868,-2.00553
378,-573,8.62012,6.09106,0,0,0,0,0,0,0,-1,1602,1597,8.62012,-6.09103
385,-573,6.54346,-0.951904,0,0,0,0,0,0,0,-1,1609,1597,6.54349,0.951901
392,-573,6.41833,-2.18225,0,0,0,0,0,0,0,-1,1616,1597,6.41831,2.18228
399,-573,4.26282,4.73657,0,0,0,0,0,0,0,-1,1623,1597,4.26285,-4.73652
406,-573,6.82715,10.823,0,0,0,0,0,0,0,-1,1630,1597,6.82719,-10.823
413,-573,8.90552,13.1737,0,0,0,0,0,0,0,-1,1637,1597,8.90553,-13.1737
420,-573,11.9443,18.2433,0,0,0,0,0,0,0,-1,1644,1597,11.9443,-18.2433
427,-573,11.6276,18.186,0,0,0,0,0,0,0,-1,1651,1597,11.6275,-18.186
434,-573,10.5471,17.7438,0,0,0,0,0,0,0,-1,1658,1597,10.5471,-17.7437
441,-573,10.4227,17.6693,-0.00925112,-0.00509365,0.0138957,0.0068779,-0.0212227,0.859646,0.0169138,0.0350393,1665,1597,10.4228,-17.6693
448,-573,10.2615,17.5313,-0.00671952,-0.00459124,0.0108768,0.00527332,-0.0165841,0.834161,0.0131705,0.0239326,1672,1597,10.2615,-17.5312
455,-573,10.254,17.2106,-0.0045822,-0.00422567,0.00831345,0.00391143,-0.0127193,0.796118,0.0100406,0.0181037,1679,1597,10.2541,-17.2105
462,-573,10.3138,16.8636,-0.00292865,-0.00365765,0.00612214,0.00283983,-0.00942613,0.755664,0.00741425,0.0184518,1686,1597,10.3138,-16.8636
469,-573,10.2972,16.6288,-0.00172172,-0.00310072,0.00446117,0.00210292,-0.00692536,0.708727,0.00545471,0.0152284,1693,1597,10.2973,-16.6288
476,-573,10.298,16.3795,-0.000782531,-0.00248688,0.00297817,0.00146299,-0.0047324,0.646051,0.00373924,0.0133891,1700,1597,10.2979,-16.3795
483,-573,10.295,16.1151,-0.000253169,-0.00193542,0.00204078,0.00111303,-0.00330162,0.589926,0.00265115,0.0105039,1707,1597,10.295,-16.1151
490,-573,10.2811,15.8347,-4.27266e-05,-0.00126446,0.00140037,0.000874214,-0.00218141,0.579731,0.00181718,0.010283,1714,1597,10.2811,-15.8347
497,-573,10.2982,15.5457,-3.42896e-05,-0.000741856,0.000764495,0.000454314,-0.00123046,0.568688,0.00100652,0.0164857,1721,1597,10.2982,-15.5457
504,-573,10.2966,15.2698,-0.000169335,-0.000165306,0.000390267,0.000222952,-0.000557593,0.787979,0.000464248,0.0175754,1728,1597,10.2966,-15.2698
511,-573,10.2915,14.9712,-0.000407951,0.000286975,0.000118685,0.000306686,-0.000427662,1.40622,0.000425889,0.0167482,1735,1597,10.2915,-14.9712
518,-573,10.2765,14.7146,-0.000724577,0.000691699,-1.22493e-05,0.000691805,-0.000724683,-1.56215,0.000817883,0.0131067,1742,1597,10.2765,-14.7146
525,-573,10.2628,14.4417,-0.00106192,0.000989682,5.87351e-05,0.000991362,-0.0010636,1.5422,0.00118668,0.0164873,1749,1597,10.2628,-14.4417
532,-573,10.2665,14.1294,-0.00158143,0.00133859,0.000273905,0.00136406,-0.0016069,1.47807,0.00171719,0.0161687,1756,1597,10.2665,-14.1294
539,-573,10.2554,13.853,-0.00239525,0.00158749,0.000745074,0.00172231,-0.00253007,1.39178,0.00246983,0.0246846,1763,1597,10.2553,-13.8531
546,-573,10.3373,13.5709,-0.00369913,0.00166496,0.00172324,0.00217085,-0.00420502,1.28525,0.00374304,0.0408047,1770,1597,10.3373,-13.5709
553,-573,9.84192,13.2482,-0.00503565,0.0021946,0.00273256,0.00311114,-0.00595219,1.24717,0.00531772,0.048006,1777,1597,9.84198,-13.2482
560,-573,9.59216,13.0074,0,0,0,0,0,0,0,-1,1784,1597,9.59217,-13.0075
567,-573,4.99597,2.77759,0,0,0,0,0,0,0,-1,1791,1597,4.99596,-2.7776
574,-573,0.83374,5.7041,0,0,0,0,0,0,0,-1,1798,1597,0.833718,-5.70405
581,-573,-0.224854,7.41602,0,0,0,0,0,0,0,-1,1805,1597,-0.224904,-7.41596
588,-573,-0.134033,7.67065,0,0,0,0,0,0,0,-1,1812,1597,-0.134037,-7.67063
595,-573,-0.0825195,8.35083,0,0,0,0,0,0,0,-1,1819,1597,-0.0824684,-8.35088
602,-573,0,0,0,0,0,0,0,0,0,-1,1826,1597,0,0
609,-573,0,0,0,0,0,0,0,0,0,-1,1833,1597,0,0
616,-573,0,0,0,0,0,0,0,0,0,-1,1840,1597,0,0
623,-573,0,0,0,0,0,0,0,0,0,-1,1847,1597,0,0
630,-573,0,0,0,0,0,0,0,0,0,-1,1854,1597,0,0
637,-573,0,0,0,0,0,0,0,0,0,-1,1861,1597,0,0
644,-573,0,0,0,0,0,0,0,0,0,-1,1868,1597,0,0
651,-573,0,0,0,0,0,0,0,0,0,-1,1875,1597,0,0
658,-573,0,0,0,0,0,0,0,0,0,-1,1882,1597,0,0
665,-573,0,0,0,0,0,0,0,0,0,-1,1889,1597,0,0
672,-573,0,0,0,0,0,0,0,0,0,-1,1896,1597,0,0
679,-573,0,0,0,0,0,0,0,0,0,-1,1903,1597,0,0
686,-573,0,0,0,0,0,0,0,0,0,-1,1910,1597,0,0
693,-573,0,0,0,0,0,0,0,0,0,-1,1917,1597,0,0
700,-573,0,0,0,0,0,0,0,0,0,-1,1924,1597,0,0
707,-573,0,0,0,0,0,0,0,0,0,-1,1931,1597,0,0
714,-573,0,0,0,0,0,0,0,0,0,-1,1938,1597,0,0
721,-573,0,0,0,0,0,0,0,0,0,-1,1945,1597,0,0
728,-573,0,0,0,0,0,0,0,0,0,-1,1952,1597,0,0
735,-573,0,0,0,0,0,0,0,0,0,-1,1959,1597,0,0
742,-573,0,0,0,0,0,0,0,0,0,-1,1966,1597,0,0
749,-573,0,0,0,0,0,0,0,0,0,-1,1973,1597,0,0
756,-573,0,0,0,0,0,0,0,0,0,-1,1980,1597,0,0
763,-573,0,0,0,0,0,0,0,0,0,-1,1987,1597,0,0
770,-573,0,0,0,0,0,0,0,0,0,-1,1994,1597,0,0
777,-573,0,0,0,0,0,0,0,0,0,-1,2001,1597,0,0
784,-573,0,0,0,0,0,0,0,0,0,-1,2008,1597,0,0
791,-573,0,0,0,0,0,0,0,0,0,-1,2015,1597,0,0
798,-573,0,0,0,0,0,0,0,0,0,-1,2022,1597,0,0
805,-573,0,0,0,0,0,0,0,0,0,-1,2029,1597,0,0
812,-573,0,0,0,0,0,0,0,0,0,-1,2036,1597,0,0
-700,-580,0,0,0,0,0,0,0,0,0,-1,524,1604,0,0
-693,-580,0,0,0,0,0,0,0,0,0,-1,531,1604,0,0
-686,-580,0,0,0,0,0,0,0,0,0,-1,538,1604,0,0
-679,-580,0,0,0,0,0,0,0,0,0,-1,545,1604,0,0
-672,-580,0,0,0,0,0,0,0,0,0,-1,552,1604,0,0
-665,-580,0,0,0,0,0,0,0,0,0,-1,559,1604,0,0
-658,-580,0,0,0,0,0,0,0,0,0,-1,566,1604,0,0
-651,-580,0,0,0,0,0,0,0,0,0,-1,573,1604,0,0
-644,-580,0,0,0,0,0,0,0,0,0,-1,580,1604,0,0
-637,-580,0,0,0,0,0,0,0,0,0,-1,587,1604,0,0
-630,-580,0,0,0,0,0,0,0,0,0,-1,594,1604,0,0
-623,-580,0,0,0,0,0,0,0,0,0,-1,601,1604,0,0
-616,-580,0,0,0,0,0,0,0,0,0,-1,608,1604,0,0
-609,-580,0,0,0,0,0,0,0,0,0,-1,615,1604,0,0
-602,-580,0,0,0,0,0,0,0,0,0,-1,622,1604,0,0
-595,-580,0,0,0,0,0,0,0,0,0,-1,629,1604,0,0
-588,-580,0,0,0,0,0,0,0,0,0,-1,636,1604,0,0
-581,-580,0,0,0,0,0,0,0,0,0,-1,643,1604,0,0
-574,-580,0,0,0,0,0,0,0,0,0,-1,650,1604,0,0
-567,-580,0,0,0,0,0,0,0,0,0,-1,657,1604,0,0
-560,-580,0,0,0,0,0,0,0,0,0,-1,664,1604,0,0
-553,-580,0,0,0,0,0,0,0,0,0,-1,671,1604,0,0
-546,-580,0,0,0,0,0,0,0,0,0,-1,678,1604,0,0
-539,-580,0,0,0,0,0,0,0,0,0,-1,685,1604,0,0
-532,-580,0,0,0,0,0,0,0,0,0,-1,692,1604,0,0
-525,-580,0,0,0,0,0,0,0,0,0,-1,699,1604,0,0
-518,-580,0,0,0,0,0,0,0,0,0,-1,706,1604,0,0
-511,-580,0,0,0,0,0,0,0,0,0,-1,713,1604,0,0
-504,-580,0,0,0,0,0,0,0,0,0,-1,720,1604,0,0
-497,-580,0,0,0,0,0,0,0,0,0,-1,727,1604,0,0
-490,-580,0,0,0,0,0,0,0,0,0,-1,734,1604,0,0
-483,-580,0,0,0,0,0,0,0,0,0,-1,741,1604,0,0
-476,-580,0,0,0,0,0,0,0,0,0,-1,748,1604,0,0
-469,-580,-1.69189,-0.38916,0,0,0,0,0,0,0,-1,755,1604,-1.69192,0.389188
-462,-580,-0.859863,0.675293,0,0,0,0,0,0,0,-1,762,1604,-0.859834,-0.675245
-455,-580,-0.730164,0.651978,0,0,0,0,0,0,0,-1,769,1604,-0.730153,-0.651957
-448,-580,-3.31891,2.07544,0,0,0,0,0,0,0,-1,776,1604,-3.3189,-2.07539
-441,-580,-1.63843,3.9469,0,0,0,0,0,0,0,-1,783,1604,-1.63842,-3.94695
-434,-580,0.23291,5.97876,0,0,0,0,0,0,0,-1,790,1604,0.232901,-5.97878
-427,-580,1.62756,8.05493,0,0,0,0,0,0,0,-1,797,1604,1.62758,-8.05488
-420,-580,0.986572,11.2383,0,0,0,0,0,0,0,-1,804,1604,0.986544,-11.2382
-413,-580,1.7937,12.1128,0,0,0,0,0,0,0,-1,811,1604,1.79373,-12.1128
-406,-580,1.59625,12.6226,-0.00209125,0.00678737,0.00270011,0.00754402,-0.00284791,1.29757,0.00620063,0.0418206,818,1604,1.59626,-12.6226
-399,-580,1.57062,12.8644,-0.00282133,0.00478469,0.00175973,0.00517209,-0.00320873,1.35411,0.00488273,0.0187743,825,1604,1.57063,-12.8644
-392,-580,1.55566,13.1738,-0.00301806,0.00320727,0.000983878,0.00335906,-0.00316985,1.41772,0.00377,0.0117533,832,1604,1.55568,-13.1738
-385,-580,1.53839,13.4808,-0.002799,0.00209307,0.000496649,0.00214298,-0.00284891,1.47064,0.00289166,0.0114256,839,1604,1.53837,-13.4808
-378,-580,1.54163,13.7922,-0.00238261,0.00127328,0.000229378,0.00128761,-0.00239694,1.50838,0.00215918,0.0149606,846,1604,1.54161,-13.7922
-371,-580,1.54199,14.1311,-0.002018,0.000557848,-0.000142689,0.000565728,-0.00202588,-1.51563,0.00157344,0.0140007,853,1604,1.542,-14.1311
-364,-580,1.51294,14.4155,-0.00152596,0.000267866,-0.000286061,0.000312379,-0.00157047,-1.41643,0.00116515,0.019632,860,1604,1.51291,-14.4155
-357,-580,1.54706,14.6719,-0.000939235,0.000257904,-0.000418796,0.000389865,-0.0010712,-1.26555,0.000873582,0.0143902,867,1604,1.54705,-14.6719
-350,-580,1.55957,14.9927,-0.000399413,0.000498394,-0.000562552,0.000769199,-0.000670218,-1.12215,0.000831702,0.0108056,874,1604,1.55954,-14.9927
-343,-580,1.53833,15.2843,-2.65793e-05,0.00058289,-0.000716474,0.00105674,-0.000500432,-0.986471,0.00091796,0.0112879,881,1604,1.53832,-15.2843
-336,-580,1.51617,15.5427,0.000247684,0.00101335,-0.000701769,0.00142992,-0.000168882,-1.0351,0.00101427,0.0189794,888,1604,1.51619,-15.5427
-329,-580,1.52954,15.8611,0.00048071,0.00171957,-0.000712362,0.00204415,0.000156131,-1.14326,0.00131382,0.0174277,895,1604,1.52956,-15.861
-322,-580,1.52704,16.1787,0.000500835,0.00236082,-0.000718927,0.0026063,0.000255352,-1.24175,0.00165898,0.0189587,902,1604,1.52707,-16.1787
-315,-580,1.55011,16.4703,0.000321935,0.00276704,-0.00088439,0.00305338,3.55863e-05,-1.25767,0.00202383,0.0161256,909,1604,1.55009,-16.4703
-308,-580,1.59644,16.8168,7.97396e-05,0.00225606,-0.00151857,0.0030361,-0.000700294,-1.09628,0.00229342,0.019519,916,1604,1.59643,-16.8168
-301,-580,1.66302,17.0148,-6.615e-05,0.00129961,-0.00184638,0.00258534,-0.00135189,-0.962521,0.00231004,0.0191334,923,1604,1.66302,-17.0147
-294,-580,1.65015,17.1616,-0.000260273,-0.00120158,-0.00215714,0.00147696,-0.00293881,-0.67799,0.00259559,0.021796,930,1604,1.65012,-17.1616
-287,-580,1.65527,17.3907,-0.000369598,-0.00366603,-0.00265687,0.00110878,-0.00514441,-0.507771,0.00385275,0.0386393,937,1604,1.65527,-17.3908
-280,-580,1.65466,17.7194,0,0,0,0,0,0,0,-1,944,1604,1.65467,-17.7194
-273,-580,1.09747,17.2249,0,0,0,0,0,0,0,-1,951,1604,1.09747,-17.2248
-266,-580,0.494202,8.78955,0,0,0,0,0,0,0,-1,958,1604,0.494174,-8.78958
-259,-580,1.31091,9.11536,0,0,0,0,0,0,0,-1,965,1604,1.31092,-9.11539
-252,-580,1.07629,7.74097,0,0,0,0,0,0,0,-1,972,1604,1.07627,-7.74101
-245,-580,3.80304,9.16028,0,0,0,0,0,0,0,-1,979,1604,3.80306,-9.16034
-238,-580,-10.3588,1.57556,0,0,0,0,0,0,0,-1,986,1604,-10.3588,-1.5755
-231,-580,-10.576,6.43787,0,0,0,0,0,0,0,-1,993,1604,-10.576,-6.43783
-224,-580,-8.27435,7.58972,0,0,0,0,0,0,0,-1,1000,1604,-8.27435,-7.5897
-217,-580,-5.85632,9.51221,0,0,0,0,0,0,0,-1,1007,1604,-5.85632,-9.5122
-210,-580,-3.6684,11.1569,0,0,0,0,0,0,0,-1,1014,1604,-3.66839,-11.1569
-203,-580,-1.92474,12.7845,0,0,0,0,0,0,0,-1,1021,1604,-1.92477,-12.7845
-196,-580,-2.28552,10.3289,0,0,0,0,0,0,0,-1,1028,1604,-2.28552,-10.3288
-189,-580,-4.58252,7.59058,0,0,0,0,0,0,0,-1,1035,1604,-4.58256,-7.59057
-182,-580,-5.45874,7.65942,0,0,0,0,0,0,0,-1,1042,1604,-5.45876,-7.65939
-175,-580,-6.38977,7.55005,0,0,0,0,0,0,0,-1,1049,1604,-6.38981,-7.5501
-168,-580,0,0,0,0,0,0,0,0,0,-1,1056,1604,0,0
-161,-580,0,0,0,0,0,0,0,0,0,-1,1063,1604,0,0
-154,-580,0,0,0,0,0,0,0,0,0,-1,1070,1604,0,0
-147,-580,0,0,0,0,0,0,0,0,0,-1,1077,1604,0,0
-140,-580,0,0,0,0,0,0,0,0,0,-1,1084,1604,0,0
-133,-580,0,0,0,0,0,0,0,0,0,-1,1091,1604,0,0
-126,-580,0,0,0,0,0,0,0,0,0,-1,1098,1604,0,0
-119,-580,0,0,0,0,0,0,0,0,0,-1,1105,1604,0,0
-112,-580,0,0,0,0,0,0,0,0,0,-1,1112,1604,0,0
-105,-580,0,0,0,0,0,0,0,0,0,-1,1119,1604,0,0
-98,-580,0,0,0,0,0,0,0,0,0,-1,1126,1604,0,0
-91,-580,0,0,0,0,0,0,0,0,0,-1,1133,1604,0,0
-84,-580,0,0,0,0,0,0,0,0,0,-1,1140,1604,0,0
-77,-580,0,0,0,0,0,0,0,0,0,-1,1147,1604,0,0
-70,-580,0,0,0,0,0,0,0,0,0,-1,1154,1604,0,0
-63,-580,0,0,0,0,0,0,0,0,0,-1,1161,1604,0,0
-56,-580,0,0,0,0,0,0,0,0,0,-1,1168,1604,0,0
-49,-580,0,0,0,0,0,0,0,0,0,-1,1175,1604,0,0
-42,-580,0,0,0,0,0,0,0,0,0,-1,1182,1604,0,0
-35,-580,0,0,0,0,0,0,0,0,0,-1,1189,1604,0,0
-28,-580,0,0,0,0,0,0,0,0,0,-1,1196,1604,0,0
-21,-580,0,0,0,0,0,0,0,0,0,-1,1203,1604,0,0
-14,-580,0,0,0,0,0,0,0,0,0,-1,1210,1604,0,0
-7,-580,0,0,0,0,0,0,0,0,0,-1,1217,1604,0,0
0,-580,0,0,0,0,0,0,0,0,0,-1,1224,1604,0,0
7,-580,0,0,0,0,0,0,0,0,0,-1,1231,1604,0,0
14,-580,0,0,0,0,0,0,0,0,0,-1,1238,1604,0,0
21,-580,0,0,0,0,0,0,0,0,0,-1,1245,1604,0,0
28,-580,0,0,0,0,0,0,0,0,0,-1,1252,1604,0,0
35,-580,0,0,0,0,0,0,0,0,0,-1,1259,1604,0,0
42,-580,0,0,0,0,0,0,0,0,0,-1,1266,1604,0,0
49,-580,0,0,0,0,0,0,0,0,0,-1,1273,1604,0,0
56,-580,0,0,0,0,0,0,0,0,0,-1,1280,1604,0,0
63,-580,0,0,0,0,0,0,0,0,0,-1,1287,1604,0,0
70,-580,0,0,0,0,0,0,0,0,0,-1,1294,1604,0,0
77,-580,0,0,0,0,0,0,0,0,0,-1,1301,1604,0,0
84,-580,0,0,0,0,0,0,0,0,0,-1,1308,1604,0,0
91,-580,0,0,0,0,0,0,0,0,0,-1,1315,1604,0,0
98,-580,0,0,0,0,0,0,0,0,0,-1,1322,1604,0,0
105,-580,0,0,0,0,0,0,0,0,0,-1,1329,1604,0,0
112,-580,0,0,0,0,0,0,0,0,0,-1,1336,1604,0,0
119,-580,0,0,0,0,0,0,0,0,0,-1,1343,1604,0,0
126,-580,0,0,0,0,0,0,0,0,0,-1,1350,1604,0,0
133,-580,0,0,0,0,0,0,0,0,0,-1,1357,1604,0,0
140,-580,0,0,0,0,0,0,0,0,0,-1,1364,1604,0,0
147,-580,0,0,0,0,0,0,0,0,0,-1,1371,1604,0,0
154,-580,0,0,0,0,0,0,0,0,0,-1,1378,1604,0,0
161,-580,0,0,0,0,0,0,0,0,0,-1,1385,1604,0,0
168,-580,0,0,0,0,0,0,0,0,0,-1,1392,1604,0,0
175,-580,0,0,0,0,0,0,0,0,0,-1,1399,1604,0,0
182,-580,0,0,0,0,0,0,0,0,0,-1,1406,1604,0,0
189,-580,0,0,0,0,0,0,0,0,0,-1,1413,1604,0,0
196,-580,0,0,0,0,0,0,0,0,0,-1,1420,1604,0,0
203,-580,0,0,0,0,0,0,0,0,0,-1,1427,1604,0,0
210,-580,0,0,0,0,0,0,0,0,0,-1,1434,1604,0,0
217,-580,0,0,0,0,0,0,0,0,0,-1,1441,1604,0,0
224,-580,0,0,0,0,0,0,0,0,0,-1,1448,1604,0,0
231,-580,0,0,0,0,0,0,0,0,0,-1,1455,1604,0,0
238,-580,0,0,0,0,0,0,0,0,0,-1,1462,1604,0,0
245,-580,0,0,0,0,0,0,0,0,0,-1,1469,1604,0,0
252,-580,0,0,0,0,0,0,0,0,0,-1,1476,1604,0,0
259,-580,0,0,0,0,0,0,0,0,0,-1,1483,1604,0,0
266,-580,0,0,0,0,0,0,0,0,0,-1,1490,1604,0,0
273,-580,0,0,0,0,0,0,0,0,0,-1,1497,1604,0,0
280,-580,0,0,0,0,0,0,0,0,0,-1,1504,1604,0,0
287,-580,0,0,0,0,0,0,0,0,0,-1,1511,1604,0,0
294,-580,4.0437,0.177368,0,0,0,0,0,0,0,-1,1518,1604,4.04369,-0.177371
301,-580,7.55164,8.05798,0,0,0,0,0,0,0,-1,1525,1604,7.55158,-8.05802
308,-580,5.9126,9.99341,0,0,0,0,0,0,0,-1,1532,1604,5.91255,-9.99337
315,-580,4.27356,11.9287,0,0,0,0,0,0,0,-1,1539,1604,4.27352,-11.9287
322,-580,10.2366,7.50281,0,0,0,0,0,0,0,-1,1546,1604,10.2366,-7.50282
329,-580,10.5962,8.69641,0,0,0,0,0,0,0,-1,1553,1604,10.5962,-8.69642
336,-580,3.66431,1.58862,0,0,0,0,0,0,0,-1,1560,1604,3.6643,-1.58864
343,-580,3.32227,1.39636,0,0,0,0,0,0,0,-1,1567,1604,3.32222,-1.39633
350,-580,8.71277,4.0564,0,0,0,0,0,0,0,-1,1574,1604,8.71271,-4.05638
357,-580,8.52332,3.08154,0,0,0,0,0,0,0,-1,1581,1604,8.52332,-3.08157
364,-580,8.25818,2.07605,0,0,0,0,0,0,0,-1,1588,1604,8.25812,-2.07608
371,-580,7.42114,7.14282,0,0,0,0,0,0,0,-1,1595,1604,7.42119,-7.14281
378,-580,7.9718,6.6731,0,0,0,0,0,0,0,-1,1602,1604,7.9718,-6.67307
385,-580,8.52246,6.20337,0,0,0,0,0,0,0,-1,1609,1604,8.52241,-6.20334
392,-580,6.5498,-2.15625,0,0,0,0,0,0,0,-1,1616,1604,6.54984,2.15626
399,-580,6.52625,10.7247,0,0,0,0,0,0,0,-1,1623,1604,6.52628,-10.7248
406,-580,11.1238,18.6639,0,0,0,0,0,0,0,-1,1630,1604,11.1237,-18.6639
413,-580,10.9983,18.4999,0,0,0,0,0,0,0,-1,1637,1604,10.9983,-18.4998
420,-580,10.9806,18.3459,-0.0142272,-0.00357023,0.0195714,0.011385,-0.0291825,0.918306,0.0241613,0.0454524,1644,1604,10.9806,-18.346
427,-580,10.6244,18.2344,-0.0117681,-0.00335577,0.0163132,0.00928484,-0.0244087,0.911569,0.0200956,0.0413526,1651,1604,10.6244,-18.2344
434,-580,10.0818,17.8497,-0.00945727,-0.00331789,0.0133686,0.00732894,-0.0201041,0.898252,0.016401,0.0296054,1658,1604,10.0818,-17.8497
441,-580,9.99219,17.6365,-0.00757663,-0.00304757,0.0108101,0.0057326,-0.0163568,0.888647,0.0132359,0.0126845,1665,1604,9.99223,-17.6365
448,-580,9.98914,17.3864,-0.00556763,-0.0027662,0.00840095,0.00435001,-0.0126838,0.868005,0.0102193,0.0110386,1672,1604,9.98912,-17.3864
455,-580,10.0367,17.1447,-0.0038149,-0.00259411,0.00633232,0.00315717,-0.00956617,0.833446,0.00765017,0.0163388,1679,1604,10.0368,-17.1447
462,-580,10.016,16.868,-0.00241332,-0.00225856,0.00452014,0.00218487,-0.00685675,0.793957,0.00544752,0.0218308,1686,1604,10.0159,-16.8681
469,-580,10.0132,16.6179,-0.00132513,-0.00190678,0.00312049,0.00151806,-0.00474997,0.738933,0.0037758,0.0195086,1693,1604,10.0132,-16.618
476,-580,10.0187,16.3661,-0.00046256,-0.00145568,0.00185129,0.000957606,-0.00287585,0.65437,0.00230376,0.0141356,1700,1604,10.0187,-16.3661
483,-580,10.0121,16.1055,4.73838e-06,-0.00104981,0.00107967,0.000679003,-0.00172408,0.558249,0.00143048,0.0119045,1707,1604,10.0121,-16.1055
490,-580,9.99365,15.8434,0.000207947,-0.000510564,0.000544131,0.000500722,-0.000803339,0.493629,0.000759627,0.0143075,1714,1604,9.99363,-15.8434
497,-580,10.0017,15.5577,0.000179533,-8.4142e-05,1.51849e-05,0.000180405,-8.50136e-05,0.0573366,0.000156504,0.0116801,1721,1604,10.0018,-15.5577
504,-580,9.9856,15.2552,-6.38361e-05,0.000403047,-0.000216542,0.000488016,-0.000148805,-1.19687,0.000384663,0.0168493,1728,1604,9.9856,-15.2552
511,-580,9.97144,14.9792,-0.000398577,0.000814101,-0.000387393,0.00092729,-0.000511766,-1.28653,0.000842305,0.0163501,1735,1604,9.97149,-14.9792
518,-580,9.99487,14.7113,-0.000799582,0.00111242,-0.000401521,0.00119331,-0.000880479,-1.37198,0.00120184,0.0147729,1742,1604,9.99485,-14.7113
525,-580,10.0011,14.4535,-0.00134328,0.00142213,-0.000153897,0.00143067,-0.00135182,-1.51537,0.00160668,0.0171791,1749,1604,10.0011,-14.4535
532,-580,9.98242,14.1721,-0.00218345,0.00183176,0.00021574,0.00184331,-0.00219501,1.51727,0.00233447,0.020966,1756,1604,9.98247,-14.1722
539,-580,10.0253,13.8822,0,0,0,0,0,0,0,-1,1763,1604,10.0253,-13.8821
546,-580,10.1692,13.6002,0,0,0,0,0,0,0,-1,1770,1604,10.1692,-13.6002
553,-580,8.96924,13.0842,0,0,0,0,0,0,0,-1,1777,1604,8.96929,-13.0842
560,-580,7.09021,6.49438,0,0,0,0,0,0,0,-1,1784,1604,7.09016,-6.4944
567,-580,3.87708,4.0647,0,0,0,0,0,0,0,-1,1791,1604,3.87711,-4.06471
574,-580,2.31653,5.62952,0,0,0,0,0,0,0,-1,1798,1604,2.31654,-5.62947
581,-580,1.60876,6.67664,0,0,0,0,0,0,0,-1,1805,1604,1.60873,-6.67667
588,-580,1.38684,7.14441,0,0,0,0,0,0,0,-1,1812,1604,1.38689,-7.14443
595,-580,0,0,0,0,0,0,0,0,0,-1,1819,1604,0,0
602,-580,0,0,0,0,0,0,0,0,0,-1,1826,1604,0,0
609,-580,0,0,0,0,0,0,0,0,0,-1,1833,1604,0,0
616,-580,0,0,0,0,0,0,0,0,0,-1,1840,1604,0,0
623,-580,0,0,0,0,0,0,0,0,0,-1,1847,1604,0,0
630,-580,0,0,0,0,0,0,0,0,0,-1,1854,1604,0,0
637,-580,0,0,0,0,0,0,0,0,0,-1,1861,1604,0,0
644,-580,0,0,0,0,0,0,0,0,0,-1,1868,1604,0,0
651,-580,0,0,0,0,0,0,0,0,0,-1,1875,1604,0,0
658,-580,0,0,0,0,0,0,0,0,0,-1,1882,1604,0,0
665,-580,0,0,0,0,0,0,0,0,0,-1,1889,1604,0,0
672,-580,0,0,0,0,0,0,0,0,0,-1,1896,1604,0,0
679,-580,0,0,0,0,0,0,0,0,0,-1,1903,1604,0,0
686,-580,0,0,0,0,0,0,0,0,0,-1,1910,1604,0,0
693,-580,0,0,0,0,0,0,0,0,0,-1,1917,1604,0,0
700,-580,0,0,0,0,0,0,0,0,0,-1,1924,1604,0,0
707,-580,0,0,0,0,0,0,0,0,0,-1,1931,1604,0,0
714,-580,0,0,0,0,0,0,0,0,0,-1,1938,1604,0,0
721,-580,0,0,0,0,0,0,0,0,0,-1,1945,1604,0,0
728,-580,0,0,0,0,0,0,0,0,0,-1,1952,1604,0,0
735,-580,0,0,0,0,0,0,0,0,0,-1,1959,1604,0,0
742,-580,0,0,0,0,0,0,0,0,0,-1,1966,1604,0,0
749,-580,0,0,0,0,0,0,0,0,0,-1,1973,1604,0,0
756,-580,0,0,0,0,0,0,0,0,0,-1,1980,1604,0,0
763,-580,0,0,0,0,0,0,0,0,0,-1,1987,1604,0,0
770,-580,0,0,0,0,0,0,0,0,0,-1,1994,1604,0,0
777,-580,0,0,0,0,0,0,0,0,0,-1,2001,1604,0,0
784,-580,0,0,0,0,0,0,0,0,0,-1,2008,1604,0,0
791,-580,0,0,0,0,0,0,0,0,0,-1,2015,1604,0,0
798,-580,0,0,0,0,0,0,0,0,0,-1,2022,1604,0,0
805,-580,0,0,0,0,0,0,0,0,0,-1,2029,1604,0,0
812,-580,0,0,0,0,0,0,0,0,0,-1,2036,1604,0,0
-700,-587,0,0,0,0,0,0,0,0,0,-1,524,1611,0,0
-693,-587,0,0,0,0,0,0,0,0,0,-1,531,1611,0,0
-686,-587,0,0,0,0,0,0,0,0,0,-1,538,1611,0,0
-679,-587,0,0,0,0,0,0,0,0,0,-1,545,1611,0,0
-672,-587,0,0,0,0,0,0,0,0,0,-1,552,1611,0,0
-665,-587,0,0,0,0,0,0,0,0,0,-1,559,1611,0,0
-658,-587,0,0,0,0,0,0,0,0,0,-1,566,1611,0,0
-651,-587,0,0,0,0,0,0,0,0,0,-1,573,1611,0,0
-644,-587,0,0,0,0,0,0,0,0,0,-1,580,1611,0,0
-637,-587,0,0,0,0,0,0,0,0,0,-1,587,1611,0,0
-630,-587,0,0,0,0,0,0,0,0,0,-1,594,1611,0,0
-623,-587,0,0,0,0,0,0,0,0,0,-1,601,1611,0,0
-616,-587,0,0,0,0,0,0,0,0,0,-1,608,1611,0,0
-609,-587,0,0,0,0,0,0,0,0,0,-1,615,1611,0,0
-602,-587,0,0,0,0,0,0,0,0,0,-1,622,1611,0,0
-595,-587,0,0,0,0,0,0,0,0,0,-1,629,1611,0,0
-588,-587,0,0,0,0,0,0,0,0,0,-1,636,1611,0,0
-581,-587,0,0,0,0,0,0,0,0,0,-1,643,1611,0,0
-574,-587,0,0,0,0,0,0,0,0,0,-1,650,1611,0,0
-567,-587,0,0,0,0,0,0,0,0,0,-1,657,1611,0,0
-560,-587,0,0,0,0,0,0,0,0,0,-1,664,1611,0,0
-553,-587,0,0,0,0,0,0,0,0,0,-1,671,1611,0,0
-546,-587,0,0,0,0,0,0,0,0,0,-1,678,1611,0,0
-539,-587,0,0,0,0,0,0,0,0,0,-1,685,1611,0,0
-532,-587,0,0,0,0,0,0,0,0,0,-1,692,1611,0,0
-525,-587,0,0,0,0,0,0,0,0,0,-1,699,1611,0,0
-518,-587,0,0,0,0,0,0,0,0,0,-1,706,1611,0,0
-511,-587,0,0,0,0,0,0,0,0,0,-1,713,1611,0,0
-504,-587,0,0,0,0,0,0,0,0,0,-1,720,1611,0,0
-497,-587,0,0,0,0,0,0,0,0,0,-1,727,1611,0,0
-490,-587,0,0,0,0,0,0,0,0,0,-1,734,1611,0,0
-483,-587,0,0,0,0,0,0,0,0,0,-1,741,1611,0,0
-476,-587,0,0,0,0,0,0,0,0,0,-1,748,1611,0,0
-469,-587,0,0,0,0,0,0,0,0,0,-1,755,1611,0,0
-462,-587,-0.714355,-0.418457,0,0,0,0,0,0,0,-1,762,1611,-0.714359,0.418483
-455,-587,-0.619812,-0.522461,0,0,0,0,0,0,0,-1,769,1611,-0.619802,0.522515
-448,-587,-0.461731,-0.686523,0,0,0,0,0,0,0,-1,776,1611,-0.461739,0.686559
-441,-587,-3.56555,2.72253,0,0,0,0,0,0,0,-1,783,1611,-3.56555,-2.72259
-434,-587,-1.77319,4.76318,0,0,0,0,0,0,0,-1,790,1611,-1.77318,-4.76323
-427,-587,0.0346069,6.92944,0,0,0,0,0,0,0,-1,797,1611,0.034587,-6.92941
-420,-587,-0.647156,10.1157,0,0,0,0,0,0,0,-1,804,1611,-0.647128,-10.1158
-413,-587,1.71667,9.65393,0,0,0,0,0,0,0,-1,811,1611,1.71667,-9.65397
-406,-587,1.99738,12.66,0,0,0,0,0,0,0,-1,818,1611,1.99735,-12.6601
-399,-587,1.96667,12.8689,-0.00448162,0.00639129,0.00212739,0.00679271,-0.00488304,1.3843,0.00677099,0.0362387,825,1611,1.96669,-12.8689
-392,-587,1.95679,13.1135,-0.00465553,0.004064,0.00110844,0.0042027,-0.00479423,1.44631,0.00519812,0.0245602,832,1611,1.95681,-13.1135
-385,-587,1.85016,13.4534,-0.00428172,0.00239929,0.000505133,0.00243726,-0.00431969,1.49576,0.00395127,0.0150402,839,1611,1.85018,-13.4533
-378,-587,1.82941,13.8086,-0.00368559,0.00123858,0.00017011,0.00124445,-0.00369146,1.53631,0.00296418,0.0135819,846,1611,1.82939,-13.8086
-371,-587,1.81519,14.1329,-0.00315144,0.000292877,-0.000242963,0.000309931,-0.0031685,-1.50072,0.00222286,0.0142689,853,1611,1.81517,-14.1329
-364,-587,1.8111,14.4282,-0.00244831,-0.000219074,-0.000361628,-0.000161878,-0.00250551,-1.41393,0.00161908,0.0171667,860,1611,1.81109,-14.4283
-357,-587,1.82898,14.6844,-0.00166365,-0.000408197,-0.000426268,-0.000277145,-0.0017947,-1.27253,0.00111562,0.0165684,867,1611,1.82897,-14.6845
-350,-587,1.81323,14.9801,-0.000955478,-0.000221126,-0.000498476,3.08073e-05,-0.00120741,-1.10283,0.000815404,0.00975185,874,1611,1.81321,-14.98
-343,-587,1.8017,15.2875,-0.000450731,-0.00025207,-0.000600764,0.00025752,-0.000960321,-0.867327,0.000741121,0.0123535,881,1611,1.80169,-15.2875
-336,-587,1.79395,15.5581,-8.3521e-06,0.000149945,-0.000550912,0.000627364,-0.000485772,-0.856744,0.0006444,0.0120529,888,1611,1.79393,-15.5581
-329,-587,1.79321,15.8507,0.000383065,0.000831106,-0.000488684,0.00114467,6.95012e-05,-1.00031,0.000741034,0.0138835,895,1611,1.79322,-15.8508
-322,-587,1.82001,16.166,0.000579895,0.00147826,-0.000410854,0.00163782,0.000420337,-1.20037,0.000982222,0.0176248,902,1611,1.81998,-16.166
-315,-587,1.82568,16.4464,0.000523085,0.00183618,-0.00053576,0.00202704,0.000332228,-1.22858,0.00125536,0.0142769,909,1611,1.82571,-16.4464
-308,-587,1.82684,16.7382,0.000394826,0.00130883,-0.00108166,0.00202607,-0.000322412,-0.985274,0.00147002,0.0137074,916,1611,1.82684,-16.7381
-301,-587,1.86194,17.0111,0.000366449,0.00043312,-0.00137128,0.00177146,-0.000971896,-0.797551,0.00160615,0.0128091,923,1611,1.86194,-17.0112
-294,-587,1.91559,17.2767,0.00033258,-0.00177366,-0.00166415,0.00124884,-0.00268992,-0.503295,0.00232423,0.0161737,930,1611,1.91561,-17.2768
-287,-587,1.77637,17.4246,0,0,0,0,0,0,0,-1,937,1611,1.77639,-17.4245
-280,-587,1.90826,17.8947,0,0,0,0,0,0,0,-1,944,1611,1.90828,-17.8947
-273,-587,2.01642,18.1112,0,0,0,0,0,0,0,-1,951,1611,2.01643,-18.1112
-266,-587,1.73773,18.1799,0,0,0,0,0,0,0,-1,958,1611,1.73775,-18.1799
-259,-587,1.3255,17.3156,0,0,0,0,0,0,0,-1,965,1611,1.3255,-17.3155
-252,-587,1.30188,10.3103,0,0,0,0,0,0,0,-1,972,1611,1.30188,-10.3104
-245,-587,2.97797,12.0387,0,0,0,0,0,0,0,-1,979,1611,2.97798,-12.0387
-238,-587,2.87799,9.53821,0,0,0,0,0,0,0,-1,986,1611,2.87797,-9.53823
-231,-587,2.49548,9.14465,0,0,0,0,0,0,0,-1,993,1611,2.49551,-9.14468
-224,-587,-9.72528,9.21069,0,0,0,0,0,0,0,-1,1000,1611,-9.72529,-9.21072
-217,-587,-7.07495,10.7847,0,0,0,0,0,0,0,-1,1007,1611,-7.07495,-10.7847
-210,-587,-4.72308,12.5889,0,0,0,0,0,0,0,-1,1014,1611,-4.72307,-12.5888
-203,-587,-3.2583,13.7289,0,0,0,0,0,0,0,-1,1021,1611,-3.25828,-13.7289
-196,-587,-1.953,14.8145,0,0,0,0,0,0,0,-1,1028,1611,-1.95302,-14.8144
-189,-587,-3.04138,8.66638,0,0,0,0,0,0,0,-1,1035,1611,-3.04136,-8.66635
-182,-587,-3.97095,9.7146,0,0,0,0,0,0,0,-1,1042,1611,-3.97093,-9.71461
-175,-587,-4.80969,8.37878,0,0,0,0,0,0,0,-1,1049,1611,-4.80964,-8.37883
-168,-587,-5.91394,8.72546,0,0,0,0,0,0,0,-1,1056,1611,-5.91398,-8.72542
-161,-587,-7.06946,8.88501,0,0,0,0,0,0,0,-1,1063,1611,-7.06947,-8.885
-154,-587,-2.24731,6.56519,0,0,0,0,0,0,0,-1,1070,1611,-2.24728,-6.56517
-147,-587,0,0,0,0,0,0,0,0,0,-1,1077,1611,0,0
-140,-587,0,0,0,0,0,0,0,0,0,-1,1084,1611,0,0
-133,-587,0,0,0,0,0,0,0,0,0,-1,1091,1611,0,0
-126,-587,0,0,0,0,0,0,0,0,0,-1,1098,1611,0,0
-119,-587,0,0,0,0,0,0,0,0,0,-1,1105,1611,0,0
-112,-587,0,0,0,0,0,0,0,0,0,-1,1112,1611,0,0
-105,-587,0,0,0,0,0,0,0,0,0,-1,1119,1611,0,0
-98,-587,0,0,0,0,0,0,0,0,0,-1,1126,1611,0,0
-91,-587,0,0,0,0,0,0,0,0,0,-1,1133,1611,0,0
-84,-587,0,0,0,0,0,0,0,0,0,-1,1140,1611,0,0
-77,-587,0,0,0,0,0,0,0,0,0,-1,1147,1611,0,0
-70,-587,0,0,0,0,0,0,0,0,0,-1,1154,1611,0,0
-63,-587,0,0,0,0,0,0,0,0,0,-1,1161,1611,0,0
-56,-587,0,0,0,0,0,0,0,0,0,-1,1168,1611,0,0
-49,-587,0,0,0,0,0,0,0,0,0,-1,1175,1611,0,0
-42,-587,0,0,0,0,0,0,0,0,0,-1,1182,1611,0,0
-35,-587,0,0,0,0,0,0,0,0,0,-1,1189,1611,0,0
-28,-587,0,0,0,0,0,0,0,0,0,-1,1196,1611,0,0
-21,-587,0,0,0,0,0,0,0,0,0,-1,1203,1611,0,0
-14,-587,0,0,0,0,0,0,0,0,0,-1,1210,1611,0,0
-7,-587,0,0,0,0,0,0,0,0,0,-1,1217,1611,0,0
0,-587,0,0,0,0,0,0,0,0,0,-1,1224,1611,0,0
7,-587,0,0,0,0,0,0,0,0,0,-1,1231,1611,0,0
14,-587,0,0,0,0,0,0,0,0,0,-1,1238,1611,0,0
21,-587,0,0,0,0,0,0,0,0,0,-1,1245,1611,0,0
28,-587,0,0,0,0,0,0,0,0,0,-1,1252,1611,0,0
35,-587,0,0,0,0,0,0,0,0,0,-1,1259,1611,0,0
42,-587,0,0,0,0,0,0,0,0,0,-1,1266,1611,0,0
49,-587,0,0,0,0,0,0,0,0,0,-1,1273,1611,0,0
56,-587,0,0,0,0,0,0,0,0,0,-1,1280,1611,0,0
63,-587,0,0,0,0,0,0,0,0,0,-1,1287,1611,0,0
70,-587,0,0,0,0,0,0,0,0,0,-1,1294,1611,0,0
77,-587,0,0,0,0,0,0,0,0,0,-1,1301,1611,0,0
84,-587,0,0,0,0,0,0,0,0,0,-1,1308,1611,0,0
91,-587,0,0,0,0,0,0,0,0,0,-1,1315,1611,0,0
98,-587,0,0,0,0,0,0,0,0,0,-1,1322,1611,0,0
105,-587,0,0,0,0,0,0,0,0,0,-1,1329,1611,0,0
112,-587,0,0,0,0,0,0,0,0,0,-1,1336,1611,0,0
119,-587,0,0,0,0,0,0,0,0,0,-1,1343,1611,0,0
126,-587,0,0,0,0,0,0,0,0,0,-1,1350,1611,0,0
133,-587,0,0,0,0,0,0,0,0,0,-1,1357,1611,0,0
140,-587,0,0,0,0,0,0,0,0,0,-1,1364,1611,0,0
147,-587,0,0,0,0,0,0,0,0,0,-1,1371,1611,0,0
154,-587,0,0,0,0,0,0,0,0,0,-1,1378,1611,0,0
161,-587,0,0,0,0,0,0,0,0,0,-1,1385,1611,0,0
168,-587,0,0,0,0,0,0,0,0,0,-1,1392,1611,0,0
175,-587,0,0,0,0,0,0,0,0,0,-1,1399,1611,0,0
182,-587,0,0,0,0,0,0,0,0,0,-1,1406,1611,0,0
189,-587,0,0,0,0,0,0,0,0,0,-1,1413,1611,0,0
196,-587,0,0,0,0,0,0,0,0,0,-1,1420,1611,0,0
203,-587,0,0,0,0,0,0,0,0,0,-1,1427,1611,0,0
210,-587,0,0,0,0,0,0,0,0,0,-1,1434,1611,0,0
217,-587,0,0,0,0,0,0,0,0,0,-1,1441,1611,0,0
224,-587,0,0,0,0,0,0,0,0,0,-1,1448,1611,0,0
231,-587,0,0,0,0,0,0,0,0,0,-1,1455,1611,0,0
238,-587,0,0,0,0,0,0,0,0,0,-1,1462,1611,0,0
245,-587,0,0,0,0,0,0,0,0,0,-1,1469,1611,0,0
252,-587,0,0,0,0,0,0,0,0,0,-1,1476,1611,0,0
259,-587,0,0,0,0,0,0,0,0,0,-1,1483,1611,0,0
266,-587,0,0,0,0,0,0,0,0,0,-1,1490,1611,0,0
273,-587,10.2936,6.35083,0,0,0,0,0,0,0,-1,1497,1611,10.2936,-6.35087
280,-587,2.09204,1.1217,0,0,0,0,0,0,0,-1,1504,1611,2.092,-1.12176
287,-587,3.2865,0.671509,0,0,0,0,0,0,0,-1,1511,1611,3.28656,-0.671538
294,-587,4.24646,1.58765,0,0,0,0,0,0,0,-1,1518,1611,4.24648,-1.58761
301,-587,7.60474,8.37085,0,0,0,0,0,0,0,-1,1525,1611,7.60478,-8.37084
308,-587,5.99316,10.2291,0,0,0,0,0,0,0,-1,1532,1611,5.99315,-10.2291
315,-587,4.34558,12.3289,0,0,0,0,0,0,0,-1,1539,1611,4.34556,-12.3288
322,-587,10.4526,6.38245,0,0,0,0,0,0,0,-1,1546,1611,10.4526,-6.38245
329,-587,10.7738,8.42444,0,0,0,0,0,0,0,-1,1553,1611,10.7738,-8.42438
336,-587,7.5531,5.96619,0,0,0,0,0,0,0,-1,1560,1611,7.55311,-5.96617
343,-587,9.57495,4.38391,0,0,0,0,0,0,0,-1,1567,1611,9.57494,-4.38397
350,-587,9.50378,3.45093,0,0,0,0,0,0,0,-1,1574,1611,9.50376,-3.4509
357,-587,9.40027,2.50806,0,0,0,0,0,0,0,-1,1581,1611,9.40022,-2.50803
364,-587,9.26477,1.34131,0,0,0,0,0,0,0,-1,1588,1611,9.26479,-1.34126
371,-587,6.98926,7.87561,0,0,0,0,0,0,0,-1,1595,1611,6.98928,-7.87564
378,-587,9.25146,13.8358,0,0,0,0,0,0,0,-1,1602,1611,9.2515,-13.8359
385,-587,7.17224,7.03772,0,0,0,0,0,0,0,-1,1609,1611,7.1722,-7.03778
392,-587,5.3916,8.21436,0,0,0,0,0,0,0,-1,1616,1611,5.39157,-8.21437
399,-587,10.2837,18.9136,0,0,0,0,0,0,0,-1,1623,1611,10.2836,-18.9136
406,-587,10.3966,18.7461,-0.0133728,-0.00136714,0.0189982,0.012554,-0.0272939,0.93842,0.023525,0.0463931,1630,1611,10.3966,-18.7461
413,-587,10.2081,18.5946,-0.0118879,-0.00212492,0.0168729,0.0105585,-0.0245713,0.926208,0.0208131,0.0356398,1637,1611,10.2081,-18.5947
420,-587,9.92761,18.5422,-0.0103526,-0.00197231,0.014705,0.00912789,-0.0214528,0.924193,0.0181274,0.0332471,1644,1611,9.92766,-18.5422
427,-587,9.84692,18.2058,-0.0087492,-0.00181014,0.0123218,0.00752133,-0.0180807,0.922633,0.0151946,0.0273885,1651,1611,9.84694,-18.2058
434,-587,9.74316,17.9181,-0.0072019,-0.00183319,0.0101601,0.00599123,-0.0150263,0.914549,0.0125026,0.0149542,1658,1611,9.74322,-17.9181
441,-587,9.73926,17.6547,-0.00578865,-0.00156862,0.00810759,0.00469902,-0.0120563,0.9127,0.00997971,0.0160766,1665,1611,9.73926,-17.6547
448,-587,9.76746,17.3937,-0.00422165,-0.00146318,0.00618745,0.0034969,-0.00918173,0.895059,0.0075613,0.0144021,1672,1611,9.76742,-17.3937
455,-587,9.75977,17.16,-0.00284982,-0.00146497,0.00454615,0.00244119,-0.00675598,0.860972,0.00550132,0.0129724,1679,1611,9.75981,-17.16
462,-587,9.75391,16.905,-0.00172283,-0.00133267,0.0030783,0.00155672,-0.00461222,0.817042,0.00370441,0.0171486,1686,1611,9.75395,-16.905
469,-587,9.74255,16.6573,-0.000801391,-0.00116331,0.00193222,0.00095832,-0.00292302,0.738707,0.00233463,0.016064,1693,1611,9.74251,-16.6574
476,-587,9.74414,16.387,-7.49337e-05,-0.000858424,0.000883171,0.000499476,-0.00143283,0.576653,0.00115819,0.010011,1700,1611,9.74419,-16.387
483,-587,9.71594,16.1008,0.000267687,-0.000575564,0.000282225,0.000353426,-0.000661303,0.294938,0.000594775,0.0122964,1707,1611,9.71598,-16.1008
490,-587,9.70679,15.8275,0.000400884,-0.000148882,-0.000142093,0.000435437,-0.000183436,-0.238546,0.000367048,0.0155323,1714,1611,9.7068,-15.8275
497,-587,9.71399,15.5543,0.000287609,0.000213977,-0.000553532,0.000805548,-0.000303962,-0.752192,0.000662036,0.0123043,1721,1611,9.71405,-15.5544
504,-587,9.69226,15.291,-0.000103723,0.000640545,-0.000644481,0.00101262,-0.000475793,-1.04722,0.000877766,0.0116125,1728,1611,9.69226,-15.291
511,-587,9.69336,15.0271,-0.000576913,0.00105792,-0.000709978,0.0013232,-0.000842196,-1.21321,0.00126043,0.0133055,1735,1611,9.69331,-15.0272
518,-587,9.72705,14.7299,-0.00112435,0.00131283,-0.000594077,0.00144992,-0.00126145,-1.34399,0.00156667,0.0132242,1742,1611,9.72705,-14.7298
525,-587,9.7251,14.4476,-0.00194422,0.00170549,-0.00015665,0.0017122,-0.00195093,-1.52798,0.0021164,0.0161191,1749,1611,9.72506,-14.4476
532,-587,9.72351,14.2205,-0.00320087,0.0022848,0.000363274,0.00230875,-0.00322483,1.50496,0.00320937,0.031758,1756,1611,9.72347,-14.2205
539,-587,9.74866,13.9476,0,0,0,0,0,0,0,-1,1763,1611,9.74863,-13.9477
546,-587,9.57629,12.9152,0,0,0,0,0,0,0,-1,1770,1611,9.57624,-12.9152
553,-587,7.5813,8.45068,0,0,0,0,0,0,0,-1,1777,1611,7.58125,-8.45068
560,-587,4.21179,5.23547,0,0,0,0,0,0,0,-1,1784,1611,4.21185,-5.23553
567,-587,4.03711,5.46387,0,0,0,0,0,0,0,-1,1791,1611,4.03715,-5.46382
574,-587,3.83142,5.68884,0,0,0,0,0,0,0,-1,1798,1611,3.83141,-5.68881
581,-587,3.47168,6.00977,0,0,0,0,0,0,0,-1,1805,1611,3.47167,-6.00983
588,-587,0,0,0,0,0,0,0,0,0,-1,1812,1611,0,0
595,-587,0,0,0,0,0,0,0,0,0,-1,1819,1611,0,0
602,-587,0,0,0,0,0,0,0,0,0,-1,1826,1611,0,0
609,-587,0,0,0,0,0,0,0,0,0,-1,1833,1611,0,0
616,-587,0,0,0,0,0,0,0,0,0,-1,1840,1611,0,0
623,-587,0,0,0,0,0,0,0,0,0,-1,1847,1611,0,0
630,-587,0,0,0,0,0,0,0,0,0,-1,1854,1611,0,0
637,-587,0,0,0,0,0,0,0,0,0,-1,1861,1611,0,0
644,-587,0,0,0,0,0,0,0,0,0,-1,1868,1611,0,0
651,-587,0,0,0,0,0,0,0,0,0,-1,1875,1611,0,0
658,-587,0,0,0,0,0,0,0,0,0,-1,1882,1611,0,0
665,-587,0,0,0,0,0,0,0,0,0,-1,1889,1611,0,0
672,-587,0,0,0,0,0,0,0,0,0,-1,1896,1611,0,0
679,-587,0,0,0,0,0,0,0,0,0,-1,1903,1611,0,0
686,-587,0,0,0,0,0,0,0,0,0,-1,1910,1611,0,0
693,-587,0,0,0,0,0,0,0,0,0,-1,1917,1611,0,0
700,-587,0,0,0,0,0,0,0,0,0,-1,1924,1611,0,0
707,-587,0,0,0,0,0,0,0,0,0,-1,1931,1611,0,0
714,-587,0,0,0,0,0,0,0,0,0,-1,1938,1611,0,0
721,-587,0,0,0,0,0,0,0,0,0,-1,1945,1611,0,0
728,-587,0,0,0,0,0,0,0,0,0,-1,1952,1611,0,0
735,-587,0,0,0,0,0,0,0,0,0,-1,1959,1611,0,0
742,-587,0,0,0,0,0,0,0,0,0,-1,1966,1611,0,0
749,-587,0,0,0,0,0,0,0,0,0,-1,1973,1611,0,0
756,-587,0,0,0,0,0,0,0,0,0,-1,1980,1611,0,0
763,-587,0,0,0,0,0,0,0,0,0,-1,1987,1611,0,0
770,-587,0,0,0,0,0,0,0,0,0,-1,1994,1611,0,0
777,-587,0,0,0,0,0,0,0,0,0,-1,2001,1611,0,0
784,-587,0,0,0,0,0,0,0,0,0,-1,2008,1611,0,0
791,-587,0,0,0,0,0,0,0,0,0,-1,2015,1611,0,0
798,-587,0,0,0,0,0,0,0,0,0,-1,2022,1611,0,0
805,-587,0,0,0,0,0,0,0,0,0,-1,2029,1611,0,0
812,-587,0,0,0,0,0,0,0,0,0,-1,2036,1611,0,0
-700,-594,0,0,0,0,0,0,0,0,0,-1,524,1618,0,0
-693,-594,0,0,0,0,0,0,0,0,0,-1,531,1618,0,0
-686,-594,0,0,0,0,0,0,0,0,0,-1,538,1618,0,0
-679,-594,0,0,0,0,0,0,0,0,0,-1,545,1618,0,0
-672,-594,0,0,0,0,0,0,0,0,0,-1,552,1618,0,0
-665,-594,0,0,0,0,0,0,0,0,0,-1,559,1618,0,0
-658,-594,0,0,0,0,0,0,0,0,0,-1,566,1618,0,0
-651,-594,0,0,0,0,0,0,0,0,0,-1,573,1618,0,0
-644,-594,0,0,0,0,0,0,0,0,0,-1,580,1618,0,0
-637,-594,0,0,0,0,0,0,0,0,0,-1,587,1618,0,0
-630,-594,0,0,0,0,0,0,0,0,0,-1,594,1618,0,0
-623,-594,0,0,0,0,0,0,0,0,0,-1,601,1618,0,0
-616,-594,0,0,0,0,0,0,0,0,0,-1,608,1618,0,0
-609,-594,0,0,0,0,0,0,0,0,0,-1,615,1618,0,0
-602,-594,0,0,0,0,0,0,0,0,0,-1,622,1618,0,0
-595,-594,0,0,0,0,0,0,0,0,0,-1,629,1618,0,0
-588,-594,0,0,0,0,0,0,0,0,0,-1,636,1618,0,0
-581,-594,0,0,0,0,0,0,0,0,0,-1,643,1618,0,0
-574,-594,0,0,0,0,0,0,0,0,0,-1,650,1618,0,0
-567,-594,0,0,0,0,0,0,0,0,0,-1,657,1618,0,0
-560,-594,0,0,0,0,0,0,0,0,0,-1,664,1618,0,0
-553,-594,0,0,0,0,0,0,0,0,0,-1,671,1618,0,0
-546,-594,0,0,0,0,0,0,0,0,0,-1,678,1618,0,0
-539,-594,0,0,0,0,0,0,0,0,0,-1,685,1618,0,0
-532,-594,0,0,0,0,0,0,0,0,0,-1,692,1618,0,0
-525,-594,0,0,0,0,0,0,0,0,0,-1,699,1618,0,0
-518,-594,0,0,0,0,0,0,0,0,0,-1,706,1618,0,0
-511,-594,0,0,0,0,0,0,0,0,0,-1,713,1618,0,0
-504,-594,0,0,0,0,0,0,0,0,0,-1,720,1618,0,0
-497,-594,0,0,0,0,0,0,0,0,0,-1,727,1618,0,0
-490,-594,0,0,0,0,0,0,0,0,0,-1,734,1618,0,0
-483,-594,0,0,0,0,0,0,0,0,0,-1,741,1618,0,0
-476,-594,0,0,0,0,0,0,0,0,0,-1,748,1618,0,0
-469,-594,0,0,0,0,0,0,0,0,0,-1,755,1618,0,0
-462,-594,0,0,0,0,0,0,0,0,0,-1,762,1618,0,0
-455,-594,-0.509216,-1.58411,0,0,0,0,0,0,0,-1,769,1618,-0.509245,1.58415
-448,-594,-7.71887,-0.0559082,0,0,0,0,0,0,0,-1,776,1618,-7.71885,0.055939
-441,-594,-5.78473,1.18298,0,0,0,0,0,0,0,-1,783,1618,-5.78474,-1.18295
-434,-594,-3.93628,3.06213,0,0,0,0,0,0,0,-1,790,1618,-3.93631,-3.06208
-427,-594,-3.97693,6.77759,0,0,0,0,0,0,0,-1,797,1618,-3.97695,-6.77764
-420,-594,-2.53046,7.71606,0,0,0,0,0,0,0,-1,804,1618,-2.53047,-7.71609
-413,-594,-0.860413,8.00391,0,0,0,0,0,0,0,-1,811,1618,-0.860423,-8.00389
-406,-594,2.37439,11.5702,0,0,0,0,0,0,0,-1,818,1618,2.37439,-11.5701
-399,-594,2.2915,12.2642,-0.00698465,0.00821817,0.00243385,0.00859831,-0.00736479,1.41586,0.00922546,0.048454,825,1618,2.2915,-12.2642
-392,-594,2.38513,13.0475,-0.00692467,0.00495414,0.00109366,0.00505399,-0.00702452,1.47975,0.0070044,0.0398706,832,1618,2.38513,-13.0475
-385,-594,2.21808,13.5084,-0.00625726,0.00262006,0.000337792,0.00263289,-0.0062701,1.53282,0.00528119,0.0274592,839,1618,2.21807,-13.5084
-378,-594,2.10748,13.7985,-0.0053652,0.00105455,-8.87512e-05,0.00105578,-0.00536643,-1.55698,0.00397654,0.0124643,846,1618,2.10749,-13.7985
-371,-594,2.11322,14.1287,-0.00454657,-0.000138754,-0.000529772,-7.59759e-05,-0.00460934,-1.45284,0.00304789,0.0110988,853,1618,2.1132,-14.1286
-364,-594,2.11261,14.424,-0.00354658,-0.000869491,-0.000602648,-0.000740082,-0.00367598,-1.35927,0.002245,0.00996873,860,1618,2.11261,-14.4239
-357,-594,2.10394,14.7069,-0.00250969,-0.0012019,-0.000574549,-0.000985346,-0.00272625,-1.21035,0.00159402,0.0104969,867,1618,2.10396,-14.7069
-350,-594,2.08521,15.0057,-0.00160866,-0.00103148,-0.000558134,-0.000691738,-0.0019484,-1.024,0.00114056,0.0149747,874,1618,2.08523,-15.0057
-343,-594,2.08026,15.3203,-0.000960447,-0.00111915,-0.000597609,-0.000436945,-0.00164265,-0.719393,0.000982397,0.0169582,881,1618,2.08024,-15.3203
-336,-594,2.06824,15.5779,-0.000352324,-0.000694293,-0.000504301,9.19041e-06,-0.00105581,-0.621954,0.000706955,0.0144856,888,1618,2.06821,-15.5779
-329,-594,2.07605,15.8677,0.000186125,1.13515e-05,-0.00036297,0.00047208,-0.000274603,-0.667269,0.000436094,0.0135675,895,1618,2.07607,-15.8677
-322,-594,2.11292,16.1757,0.000547668,0.000708756,-0.000197391,0.000841404,0.00041502,-0.979109,0.000485799,0.0154501,902,1618,2.11293,-16.1757
-315,-594,2.14441,16.4391,0.000598963,0.00108082,-0.000269834,0.00120163,0.00047815,-1.14983,0.000698566,0.0163114,909,1618,2.14443,-16.439
-308,-594,2.13672,16.7192,0.000565818,0.000627385,-0.00070698,0.00130425,-0.000111048,-0.807156,0.000908781,0.0150656,916,1618,2.13673,-16.7192
-301,-594,2.10651,16.9857,0.00064138,-9.27601e-05,-0.000935249,0.00127901,-0.000730394,-0.598393,0.00117446,0.012071,923,1618,2.10648,-16.9857
-294,-594,2.11707,17.2294,0.000738778,-0.00195296,-0.00119471,0.00119255,-0.00240673,-0.362986,0.00211709,0.0115203,930,1618,2.11704,-17.2294
-287,-594,2.08679,17.4897,0.000981222,-0.00357698,-0.00156015,0.00146407,-0.00405983,-0.30014,0.00330452,0.014014,937,1618,2.08682,-17.4897
-280,-594,2.12036,17.7769,0.00140181,-0.00586146,-0.00201639,0.00192404,-0.00638369,-0.253424,0.00502155,0.0173979,944,1618,2.12034,-17.7768
-273,-594,2.10931,17.9919,0.00186511,-0.00875549,-0.0026089,0.00247137,-0.00936175,-0.228328,0.0072076,0.0267765,951,1618,2.10933,-17.9919
-266,-594,2.05975,18.1843,0.00246521,-0.0125159,-0.00329444,0.00315768,-0.0132084,-0.207175,0.0100253,0.0378405,958,1618,2.05976,-18.1843
-259,-594,1.88422,17.8566,0.00327898,-0.0173182,-0.00386286,0.0039796,-0.0180188,-0.179423,0.0135355,0.0470258,965,1618,1.88425,-17.8566
-252,-594,1.73981,17.7881,0,0,0,0,0,0,0,-1,972,1618,1.73979,-17.7881
-245,-594,3.01385,17.6571,0,0,0,0,0,0,0,-1,979,1618,3.01388,-17.6571
-238,-594,2.48499,13.0104,0,0,0,0,0,0,0,-1,986,1618,2.48501,-13.0104
-231,-594,1.93774,9.35388,0,0,0,0,0,0,0,-1,993,1618,1.93776,-9.35393
-224,-594,1.81824,8.62744,0,0,0,0,0,0,0,-1,1000,1618,1.81822,-8.62745
-217,-594,-8.24066,12.0752,0,0,0,0,0,0,0,-1,1007,1618,-8.24068,-12.0751
-210,-594,-5.61438,14.2119,0,0,0,0,0,0,0,-1,1014,1618,-5.6144,-14.212
-203,-594,-3.94507,15.5768,0,0,0,0,0,0,0,-1,1021,1618,-3.94506,-15.5768
-196,-594,2.78613,10.5815,0,0,0,0,0,0,0,-1,1028,1618,2.78612,-10.5815
-189,-594,2.60913,9.48865,0,0,0,0,0,0,0,-1,1035,1618,2.6091,-9.48871
-182,-594,1.2395,9.38806,0,0,0,0,0,0,0,-1,1042,1618,1.23951,-9.38804
-175,-594,0.234863,8.73792,0,0,0,0,0,0,0,-1,1049,1618,0.234812,-8.73786
-168,-594,-0.495483,8.46289,0,0,0,0,0,0,0,-1,1056,1618,-0.495513,-8.46285
-161,-594,-1.39734,8.28699,0,0,0,0,0,0,0,-1,1063,1618,-1.39729,-8.28699
-154,-594,-0.000854492,7.68445,0,0,0,0,0,0,0,-1,1070,1618,-0.000805755,-7.6845
-147,-594,0.348267,9.3385,0,0,0,0,0,0,0,-1,1077,1618,0.348237,-9.33849
-140,-594,0.675171,11.5884,0,0,0,0,0,0,0,-1,1084,1618,0.675204,-11.5884
-133,-594,0,0,0,0,0,0,0,0,0,-1,1091,1618,0,0
-126,-594,0,0,0,0,0,0,0,0,0,-1,1098,1618,0,0
-119,-594,0,0,0,0,0,0,0,0,0,-1,1105,1618,0,0
-112,-594,0,0,0,0,0,0,0,0,0,-1,1112,1618,0,0
-105,-594,0,0,0,0,0,0,0,0,0,-1,1119,1618,0,0
-98,-594,0,0,0,0,0,0,0,0,0,-1,1126,1618,0,0
-91,-594,0,0,0,0,0,0,0,0,0,-1,1133,1618,0,0
-84,-594,0,0,0,0,0,0,0,0,0,-1,1140,1618,0,0
-77,-594,0,0,0,0,0,0,0,0,0,-1,1147,1618,0,0
-70,-594,0,0,0,0,0,0,0,0,0,-1,1154,1618,0,0
-63,-594,0,0,0,0,0,0,0,0,0,-1,1161,1618,0,0
-56,-594,0,0,0,0,0,0,0,0,0,-1,1168,1618,0,0
-49,-594,0,0,0,0,0,0,0,0,0,-1,1175,1618,0,0
-42,-594,0,0,0,0,0,0,0,0,0,-1,1182,1618,0,0
-35,-594,0,0,0,0,0,0,0,0,0,-1,1189,1618,0,0
-28,-594,0,0,0,0,0,0,0,0,0,-1,1196,1618,0,0
-21,-594,0,0,0,0,0,0,0,0,0,-1,1203,1618,0,0
-14,-594,0,0,0,0,0,0,0,0,0,-1,1210,1618,0,0
-7,-594,0,0,0,0,0,0,0,0,0,-1,1217,1618,0,0
0,-594,0,0,0,0,0,0,0,0,0,-1,1224,1618,0,0
7,-594,0,0,0,0,0,0,0,0,0,-1,1231,1618,0,0
14,-594,0,0,0,0,0,0,0,0,0,-1,1238,1618,0,0
21,-594,0,0,0,0,0,0,0,0,0,-1,1245,1618,0,0
28,-594,0,0,0,0,0,0,0,0,0,-1,1252,1618,0,0
35,-594,0,0,0,0,0,0,0,0,0,-1,1259,1618,0,0
42,-594,0,0,0,0,0,0,0,0,0,-1,1266,1618,0,0
49,-594,0,0,0,0,0,0,0,0,0,-1,1273,1618,0,0
56,-594,0,0,0,0,0,0,0,0,0,-1,1280,1618,0,0
63,-594,0,0,0,0,0,0,0,0,0,-1,1287,1618,0,0
70,-594,0,0,0,0,0,0,0,0,0,-1,1294,1618,0,0
77,-594,0,0,0,0,0,0,0,0,0,-1,1301,1618,0,0
84,-594,0,0,0,0,0,0,0,0,0,-1,1308,1618,0,0
91,-594,0,0,0,0,0,0,0,0,0,-1,1315,1618,0,0
98,-594,0,0,0,0,0,0,0,0,0,-1,1322,1618,0,0
105,-594,0,0,0,0,0,0,0,0,0,-1,1329,1618,0,0
112,-594,0,0,0,0,0,0,0,0,0,-1,1336,1618,0,0
119,-594,0,0,0,0,0,0,0,0,0,-1,1343,1618,0,0
126,-594,0,0,0,0,0,0,0,0,0,-1,1350,1618,0,0
133,-594,0,0,0,0,0,0,0,0,0,-1,1357,1618,0,0
140,-594,0,0,0,0,0,0,0,0,0,-1,1364,1618,0,0
147,-594,0,0,0,0,0,0,0,0,0,-1,1371,1618,0,0
154,-594,0,0,0,0,0,0,0,0,0,-1,1378,1618,0,0
161,-594,0,0,0,0,0,0,0,0,0,-1,1385,1618,0,0
168,-594,0,0,0,0,0,0,0,0,0,-1,1392,1618,0,0
175,-594,0,0,0,0,0,0,0,0,0,-1,1399,1618,0,0
182,-594,0,0,0,0,0,0,0,0,0,-1,1406,1618,0,0
189,-594,0,0,0,0,0,0,0,0,0,-1,1413,1618,0,0
196,-594,0,0,0,0,0,0,0,0,0,-1,1420,1618,0,0
203,-594,0,0,0,0,0,0,0,0,0,-1,1427,1618,0,0
210,-594,0,0,0,0,0,0,0,0,0,-1,1434,1618,0,0
217,-594,0,0,0,0,0,0,0,0,0,-1,1441,1618,0,0
224,-594,0,0,0,0,0,0,0,0,0,-1,1448,1618,0,0
231,-594,0,0,0,0,0,0,0,0,0,-1,1455,1618,0,0
238,-594,0,0,0,0,0,0,0,0,0,-1,1462,1618,0,0
245,-594,0,0,0,0,0,0,0,0,0,-1,1469,1618,0,0
252,-594,3.03674,1.20996,0,0,0,0,0,0,0,-1,1476,1618,3.0368,-1.20999
259,-594,4.79834,1.53113,0,0,0,0,0,0,0,-1,1483,1618,4.79837,-1.53118
266,-594,3.71606,2.68152,0,0,0,0,0,0,0,-1,1490,1618,3.71609,-2.68149
273,-594,9.7655,6.33557,0,0,0,0,0,0,0,-1,1497,1618,9.76555,-6.33554
280,-594,3.13281,0.911255,0,0,0,0,0,0,0,-1,1504,1618,3.13277,-0.911207
287,-594,4.42749,1.51563,0,0,0,0,0,0,0,-1,1511,1618,4.42747,-1.51564
294,-594,5.36475,3.34937,0,0,0,0,0,0,0,-1,1518,1618,5.36475,-3.3494
301,-594,7.97144,9.04333,0,0,0,0,0,0,0,-1,1525,1618,7.9714,-9.04328
308,-594,6.30347,10.4633,0,0,0,0,0,0,0,-1,1532,1618,6.30351,-10.4633
315,-594,4.62012,11.934,0,0,0,0,0,0,0,-1,1539,1618,4.62006,-11.934
322,-594,2.91528,13.3134,0,0,0,0,0,0,0,-1,1546,1618,2.91523,-13.3133
329,-594,4.19861,9.77258,0,0,0,0,0,0,0,-1,1553,1618,4.19865,-9.77264
336,-594,10.1353,4.66528,0,0,0,0,0,0,0,-1,1560,1618,10.1353,-4.66533
343,-594,10.5729,3.71228,0,0,0,0,0,0,0,-1,1567,1618,10.5729,-3.71232
350,-594,10.219,2.98792,0,0,0,0,0,0,0,-1,1574,1618,10.219,-2.98797
357,-594,9.83154,1.96326,0,0,0,0,0,0,0,-1,1581,1618,9.8315,-1.96321
364,-594,9.74939,0.700562,0,0,0,0,0,0,0,-1,1588,1618,9.74939,-0.700615
371,-594,8.54297,14.3988,0,0,0,0,0,0,0,-1,1595,1618,8.54296,-14.3989
378,-594,8.9137,16.3073,0,0,0,0,0,0,0,-1,1602,1618,8.91369,-16.3072
385,-594,9.33142,19.0352,0,0,0,0,0,0,0,-1,1609,1618,9.33138,-19.0351
392,-594,9.69397,19.0569,0,0,0,0,0,0,0,-1,1616,1618,9.69398,-19.0569
399,-594,9.71484,19.1025,-0.00820936,-0.000216915,0.0142438,0.0105806,-0.0190069,0.922162,0.0173117,0.0419151,1623,1618,9.7148,-19.1026
406,-594,9.63379,18.8278,-0.00864117,-0.000400022,0.0134692,0.00956478,-0.018606,0.933841,0.0165412,0.026758,1630,1618,9.63376,-18.8278
413,-594,9.52991,18.6055,-0.00808711,-0.000966336,0.0122245,0.00820568,-0.0172591,0.927104,0.0150086,0.0212958,1637,1618,9.52991,-18.6054
420,-594,9.52466,18.3434,-0.00728985,-0.000900604,0.0107783,0.00714656,-0.015337,0.929471,0.0132649,0.0179271,1644,1618,9.5247,-18.3434
427,-594,9.49695,18.1614,-0.00632701,-0.00097487,0.00916995,0.00590151,-0.0132034,0.927371,0.0112956,0.012752,1651,1618,9.497,-18.1614
434,-594,9.47998,17.9265,-0.00528856,-0.00106289,0.0076004,0.00471289,-0.0110643,0.92097,0.00935179,0.0166143,1658,1618,9.48,-17.9266
441,-594,9.47717,17.6687,-0.00427126,-0.000888013,0.00601513,0.00366884,-0.00882811,0.922472,0.00741724,0.0160594,1665,1618,9.47723,-17.6687
448,-594,9.51599,17.3958,-0.00306923,-0.000920883,0.00449995,0.00263133,-0.00662144,0.90256,0.00550517,0.0156441,1672,1618,9.51601,-17.3958
455,-594,9.5022,17.1471,-0.00199627,-0.0010524,0.00320352,0.00171376,-0.00476243,0.858531,0.00387467,0.0111403,1679,1618,9.50224,-17.147
462,-594,9.49084,16.9086,-0.00109105,-0.00106371,0.00201236,0.000935028,-0.00308979,0.788795,0.0024322,0.0129959,1686,1618,9.49081,-16.9086
469,-594,9.48804,16.6626,-0.000306646,-0.00101343,0.00106247,0.000459659,-0.00177974,0.624846,0.00136574,0.0121055,1693,1618,9.48806,-16.6626
476,-594,9.4834,16.3905,0.000303443,-0.000784267,0.000182217,0.000333157,-0.000813981,0.161646,0.000681417,0.0115732,1700,1618,9.48336,-16.3906
483,-594,9.47302,16.1135,0.000532578,-0.00054901,-0.000305554,0.000612929,-0.000629361,-0.257147,0.000717258,0.014116,1707,1618,9.47307,-16.1136
490,-594,9.46387,15.8341,0.000602974,-0.000163717,-0.000680982,0.0010011,-0.000561839,-0.52904,0.000914162,0.0127639,1714,1618,9.46393,-15.8341
497,-594,9.45105,15.5654,0.000431491,0.000215276,-0.00103046,0.0013595,-0.000712735,-0.733134,0.00121568,0.00998185,1721,1618,9.45106,-15.5655
504,-594,9.4552,15.2949,-7.24137e-05,0.000660699,-0.00105058,0.00140683,-0.000818546,-0.95325,0.0012997,0.00990182,1728,1618,9.45514,-15.2949
511,-594,9.46509,15.0227,-0.000672371,0.00116112,-0.00108097,0.00166174,-0.00117299,-1.13709,0.00164472,0.0119078,1735,1618,9.46506,-15.0227
518,-594,9.45935,14.738,-0.00136989,0.00150362,-0.000892865,0.00175845,-0.00162473,-1.29278,0.00195379,0.0151838,1742,1618,9.45933,-14.738
525,-594,9.48474,14.491,-0.00247693,0.00213871,-0.000300018,0.00215813,-0.00249635,-1.50616,0.00268963,0.0261243,1749,1618,9.48473,-14.4909
532,-594,9.24426,14.1934,-0.00420364,0.00294931,0.000373319,0.00296874,-0.00422307,1.51879,0.00417319,0.0422205,1756,1618,9.24423,-14.1934
539,-594,9.02002,13.8547,0,0,0,0,0,0,0,-1,1763,1618,9.02002,-13.8547
546,-594,7.48645,8.54785,0,0,0,0,0,0,0,-1,1770,1618,7.48639,-8.54789
553,-594,3.69714,5.68762,0,0,0,0,0,0,0,-1,1777,1618,3.69715,-5.68764
560,-594,6.06616,4.44482,0,0,0,0,0,0,0,-1,1784,1618,6.06621,-4.44477
567,-594,5.97266,4.73303,0,0,0,0,0,0,0,-1,1791,1618,5.97271,-4.73309
574,-594,5.9906,4.96326,0,0,0,0,0,0,0,-1,1798,1618,5.99065,-4.96326
581,-594,0,0,0,0,0,0,0,0,0,-1,1805,1618,0,0
588,-594,0,0,0,0,0,0,0,0,0,-1,1812,1618,0,0
595,-594,0,0,0,0,0,0,0,0,0,-1,1819,1618,0,0
602,-594,0,0,0,0,0,0,0,0,0,-1,1826,1618,0,0
609,-594,0,0,0,0,0,0,0,0,0,-1,1833,1618,0,0
616,-594,0,0,0,0,0,0,0,0,0,-1,1840,1618,0,0
623,-594,0,0,0,0,0,0,0,0,0,-1,1847,1618,0,0
630,-594,0,0,0,0,0,0,0,0,0,-1,1854,1618,0,0
637,-594,0,0,0,0,0,0,0,0,0,-1,1861,1618,0,0
644,-594,0,0,0,0,0,0,0,0,0,-1,1868,1618,0,0
651,-594,0,0,0,0,0,0,0,0,0,-1,1875,1618,0,0
658,-594,0,0,0,0,0,0,0,0,0,-1,1882,1618,0,0
665,-594,0,0,0,0,0,0,0,0,0,-1,1889,1618,0,0
672,-594,0,0,0,0,0,0,0,0,0,-1,1896,1618,0,0
679,-594,0,0,0,0,0,0,0,0,0,-1,1903,1618,0,0
686,-594,0,0,0,0,0,0,0,0,0,-1,1910,1618,0,0
693,-594,0,0,0,0,0,0,0,0,0,-1,1917,1618,0,0
700,-594,0,0,0,0,0,0,0,0,0,-1,1924,1618,0,0
707,-594,0,0,0,0,0,0,0,0,0,-1,1931,1618,0,0
714,-594,0,0,0,0,0,0,0,0,0,-1,1938,1618,0,0
721,-594,0,0,0,0,0,0,0,0,0,-1,1945,1618,0,0
728,-594,0,0,0,0,0,0,0,0,0,-1,1952,1618,0,0
735,-594,0,0,0,0,0,0,0,0,0,-1,1959,1618,0,0
742,-594,0,0,0,0,0,0,0,0,0,-1,1966,1618,0,0
749,-594,0,0,0,0,0,0,0,0,0,-1,1973,1618,0,0
756,-594,0,0,0,0,0,0,0,0,0,-1,1980,1618,0,0
763,-594,0,0,0,0,0,0,0,0,0,-1,1987,1618,0,0
770,-594,0,0,0,0,0,0,0,0,0,-1,1994,1618,0,0
777,-594,0,0,0,0,0,0,0,0,0,-1,2001,1618,0,0
784,-594,0,0,0,0,0,0,0,0,0,-1,2008,1618,0,0
791,-594,0,0,0,0,0,0,0,0,0,-1,2015,1618,0,0
798,-594,0,0,0,0,0,0,0,0,0,-1,2022,1618,0,0
805,-594,0,0,0,0,0,0,0,0,0,-1,2029,1618,0,0
812,-594,0,0,0,0,0,0,0,0,0,-1,2036,1618,0,0
-700,-601,0,0,0,0,0,0,0,0,0,-1,524,1625,0,0
-693,-601,0,0,0,0,0,0,0,0,0,-1,531,1625,0,0
-686,-601,0,0,0,0,0,0,0,0,0,-1,538,1625,0,0
-679,-601,0,0,0,0,0,0,0,0,0,-1,545,1625,0,0
-672,-601,0,0,0,0,0,0,0,0,0,-1,552,1625,0,0
-665,-601,0,0,0,0,0,0,0,0,0,-1,559,1625,0,0
-658,-601,0,0,0,0,0,0,0,0,0,-1,566,1625,0,0
-651,-601,0,0,0,0,0,0,0,0,0,-1,573,1625,0,0
-644,-601,0,0,0,0,0,0,0,0,0,-1,580,1625,0,0
-637,-601,0,0,0,0,0,0,0,0,0,-1,587,1625,0,0
-630,-601,0,0,0,0,0,0,0,0,0,-1,594,1625,0,0
-623,-601,0,0,0,0,0,0,0,0,0,-1,601,1625,0,0
-616,-601,0,0,0,0,0,0,0,0,0,-1,608,1625,0,0
-609,-601,0,0,0,0,0,0,0,0,0,-1,615,1625,0,0
-602,-601,0,0,0,0,0,0,0,0,0,-1,622,1625,0,0
-595,-601,0,0,0,0,0,0,0,0,0,-1,629,1625,0,0
-588,-601,0,0,0,0,0,0,0,0,0,-1,636,1625,0,0
-581,-601,0,0,0,0,0,0,0,0,0,-1,643,1625,0,0
-574,-601,0,0,0,0,0,0,0,0,0,-1,650,1625,0,0
-567,-601,0,0,0,0,0,0,0,0,0,-1,657,1625,0,0
-560,-601,0,0,0,0,0,0,0,0,0,-1,664,1625,0,0
-553,-601,0,0,0,0,0,0,0,0,0,-1,671,1625,0,0
-546,-601,0,0,0,0,0,0,0,0,0,-1,678,1625,0,0
-539,-601,0,0,0,0,0,0,0,0,0,-1,685,1625,0,0
-532,-601,0,0,0,0,0,0,0,0,0,-1,692,1625,0,0
-525,-601,0,0,0,0,0,0,0,0,0,-1,699,1625,0,0
-518,-601,0,0,0,0,0,0,0,0,0,-1,706,1625,0,0
-511,-601,0,0,0,0,0,0,0,0,0,-1,713,1625,0,0
-504,-601,0,0,0,0,0,0,0,0,0,-1,720,1625,0,0
-497,-601,0,0,0,0,0,0,0,0,0,-1,727,1625,0,0
-490,-601,0,0,0,0,0,0,0,0,0,-1,734,1625,0,0
-483,-601,0,0,0,0,0,0,0,0,0,-1,741,1625,0,0
-476,-601,0,0,0,0,0,0,0,0,0,-1,748,1625,0,0
-469,-601,0,0,0,0,0,0,0,0,0,-1,755,1625,0,0
-462,-601,0,0,0,0,0,0,0,0,0,-1,762,1625,0,0
-455,-601,0,0,0,0,0,0,0,0,0,-1,769,1625,0,0
-448,-601,-7.07623,2.7616,0,0,0,0,0,0,0,-1,776,1625,-7.07626,-2.76161
-441,-601,-6.06689,3.33447,0,0,0,0,0,0,0,-1,783,1625,-6.06691,-3.33448
-434,-601,-5.02655,3.8468,0,0,0,0,0,0,0,-1,790,1625,-5.02657,-3.84674
-427,-601,-5.78601,4.2406,0,0,0,0,0,0,0,-1,797,1625,-5.786,-4.24058
-420,-601,-5.5191,5.60364,0,0,0,0,0,0,0,-1,804,1625,-5.51907,-5.60368
-413,-601,-4.30756,5.86047,0,0,0,0,0,0,0,-1,811,1625,-4.30757,-5.86046
-406,-601,-1.67493,7.20422,0,0,0,0,0,0,0,-1,818,1625,-1.67493,-7.20428
-399,-601,2.67566,11.8629,0,0,0,0,0,0,0,-1,825,1625,2.67567,-11.8629
-392,-601,2.81006,12.87,-0.0100016,0.00567813,0.000847929,0.00572385,-0.0100473,1.51693,0.00921881,0.0467868,832,1625,2.81003,-12.87
-385,-601,2.70087,13.4818,-0.00887521,0.0025203,-8.56543e-05,0.00252094,-0.00887586,-1.56328,0.00691252,0.0437134,839,1625,2.70087,-13.4818
-378,-601,2.42407,13.8805,-0.00745886,0.000463133,-0.00064762,0.000515726,-0.00751145,-1.48976,0.00518809,0.0310573,846,1625,2.4241,-13.8806
-371,-601,2.39117,14.1246,-0.00618195,-0.000912498,-0.00111838,-0.000684961,-0.00640949,-1.37008,0.00406396,0.0148768,853,1625,2.39118,-14.1246
-364,-601,2.3913,14.4269,-0.00478176,-0.00179549,-0.00111719,-0.0014238,-0.00515345,-1.24962,0.00307302,0.010401,860,1625,2.39129,-14.4269
-357,-601,2.37109,14.7333,-0.00342021,-0.00218268,-0.000966086,-0.00165419,-0.0039487,-1.07023,0.00228975,0.0103105,867,1625,2.37111,-14.7333
-350,-601,2.39526,15.0681,-0.00227615,-0.00194887,-0.000840522,-0.00125621,-0.00296881,-0.88154,0.00172078,0.0211195,874,1625,2.39524,-15.0681
-343,-601,2.36786,15.3685,-0.00144917,-0.00199699,-0.000798713,-0.000878708,-0.00256746,-0.620212,0.00150672,0.0235399,881,1625,2.36785,-15.3685
-336,-601,2.336,15.6118,-0.000663931,-0.00146942,-0.000646127,-0.000305307,-0.00182805,-0.506701,0.00113075,0.0200642,888,1625,2.33603,-15.6119
-329,-601,2.35565,15.9063,6.39213e-06,-0.000675838,-0.000413761,0.000201521,-0.000870967,-0.440669,0.000658183,0.0156417,895,1625,2.35566,-15.9062
-322,-601,2.37366,16.1918,0.000501768,0.000123917,-0.000151102,0.000554761,7.09237e-05,-0.337309,0.000348613,0.0118139,902,1625,2.37364,-16.1917
-315,-601,2.40338,16.4353,0.000621534,0.000552755,-0.000159093,0.000749912,0.000424377,-0.678955,0.000434214,0.0124649,909,1625,2.40337,-16.4353
-308,-601,2.38733,16.7229,0.00064107,0.000223458,-0.000476605,0.000952603,-8.80749e-05,-0.578936,0.00066637,0.0121729,916,1625,2.38735,-16.7229
-301,-601,2.37457,17.0043,0.000785206,-0.000300907,-0.000632566,0.00107585,-0.000591547,-0.430695,0.000976111,0.01055,923,1625,2.37455,-17.0043
-294,-601,2.36163,17.2501,0.00095252,-0.00179319,-0.000837825,0.00118798,-0.00202865,-0.273972,0.00187815,0.0101631,930,1625,2.36163,-17.2502
-287,-601,2.34045,17.5151,0.00122778,-0.00302437,-0.00111687,0.00150329,-0.00329987,-0.241849,0.00283703,0.00964484,937,1625,2.34047,-17.5152
-280,-601,2.36401,17.7905,0.00163587,-0.00477765,-0.00147602,0.00195926,-0.00510104,-0.215686,0.00420864,0.0100715,944,1625,2.36401,-17.7905
-273,-601,2.39221,18.0664,0.00210853,-0.00700927,-0.00194785,0.00250722,-0.00740796,-0.201893,0.00595305,0.0110301,951,1625,2.39218,-18.0665
-266,-601,2.42578,18.3024,0.00270022,-0.00972247,-0.00241045,0.00315154,-0.0101738,-0.185091,0.0080416,0.0141051,958,1625,2.42575,-18.3023
-259,-601,2.51587,18.4302,0.00341087,-0.0129325,-0.00276092,0.00386468,-0.0133863,-0.162911,0.0104533,0.0248668,965,1625,2.51586,-18.4301
-252,-601,2.7702,18.4661,0.00429478,-0.0165388,-0.00288302,0.00468638,-0.0169304,-0.135004,0.0131308,0.0462206,972,1625,2.77022,-18.466
-245,-601,2.82196,18.3385,0.00457916,-0.0198804,-0.00258973,0.00485035,-0.0201515,-0.104337,0.0153094,0.0470084,979,1625,2.82198,-18.3385
-238,-601,2.78699,18.5314,0,0,0,0,0,0,0,-1,986,1625,2.78701,-18.5313
-231,-601,2.66772,13.7051,0,0,0,0,0,0,0,-1,993,1625,2.6677,-13.7051
-224,-601,-0.0305176,9.13684,0,0,0,0,0,0,0,-1,1000,1625,-0.030498,-9.13681
-217,-601,3.39429,10.3898,0,0,0,0,0,0,0,-1,1007,1625,3.39431,-10.3898
-210,-601,-6.53699,15.7931,0,0,0,0,0,0,0,-1,1014,1625,-6.53697,-15.7931
-203,-601,2.69348,15.9099,0,0,0,0,0,0,0,-1,1021,1625,2.69351,-15.91
-196,-601,2.66992,16.1815,0,0,0,0,0,0,0,-1,1028,1625,2.66995,-16.1815
-189,-601,2.849,16.6105,0,0,0,0,0,0,0,-1,1035,1625,2.84902,-16.6104
-182,-601,1.82153,13.9752,0,0,0,0,0,0,0,-1,1042,1625,1.82155,-13.9752
-175,-601,0.544922,9.28687,0,0,0,0,0,0,0,-1,1049,1625,0.544879,-9.28685
-168,-601,-0.247559,8.97461,0,0,0,0,0,0,0,-1,1056,1625,-0.247598,-8.97466
-161,-601,-1.16833,8.80078,0,0,0,0,0,0,0,-1,1063,1625,-1.16837,-8.80081
-154,-601,1.12756,7.94861,0,0,0,0,0,0,0,-1,1070,1625,1.12762,-7.94855
-147,-601,1.35352,9.55432,0,0,0,0,0,0,0,-1,1077,1625,1.35351,-9.55429
-140,-601,1.72437,11.1498,0,0,0,0,0,0,0,-1,1084,1625,1.72432,-11.1498
-133,-601,2.13281,12.8347,0,0,0,0,0,0,0,-1,1091,1625,2.13287,-12.8348
-126,-601,3.09534,15.427,0,0,0,0,0,0,0,-1,1098,1625,3.0953,-15.4271
-119,-601,1.22485,9.43457,0,0,0,0,0,0,0,-1,1105,1625,1.22489,-9.43456
-112,-601,0,0,0,0,0,0,0,0,0,-1,1112,1625,0,0
-105,-601,0,0,0,0,0,0,0,0,0,-1,1119,1625,0,0
-98,-601,0,0,0,0,0,0,0,0,0,-1,1126,1625,0,0
-91,-601,0,0,0,0,0,0,0,0,0,-1,1133,1625,0,0
-84,-601,0,0,0,0,0,0,0,0,0,-1,1140,1625,0,0
-77,-601,0,0,0,0,0,0,0,0,0,-1,1147,1625,0,0
-70,-601,0,0,0,0,0,0,0,0,0,-1,1154,1625,0,0
-63,-601,0,0,0,0,0,0,0,0,0,-1,1161,1625,0,0
-56,-601,0,0,0,0,0,0,0,0,0,-1,1168,1625,0,0
-49,-601,0,0,0,0,0,0,0,0,0,-1,1175,1625,0,0
-42,-601,0,0,0,0,0,0,0,0,0,-1,1182,1625,0,0
-35,-601,0,0,0,0,0,0,0,0,0,-1,1189,1625,0,0
-28,-601,0,0,0,0,0,0,0,0,0,-1,1196,1625,0,0
-21,-601,0,0,0,0,0,0,0,0,0,-1,1203,1625,0,0
-14,-601,0,0,0,0,0,0,0,0,0,-1,1210,1625,0,0
-7,-601,0,0,0,0,0,0,0,0,0,-1,1217,1625,0,0
0,-601,0,0,0,0,0,0,0,0,0,-1,1224,1625,0,0
7,-601,0,0,0,0,0,0,0,0,0,-1,1231,1625,0,0
14,-601,0,0,0,0,0,0,0,0,0,-1,1238,1625,0,0
21,-601,0,0,0,0,0,0,0,0,0,-1,1245,1625,0,0
28,-601,0,0,0,0,0,0,0,0,0,-1,1252,1625,0,0
35,-601,0,0,0,0,0,0,0,0,0,-1,1259,1625,0,0
42,-601,0,0,0,0,0,0,0,0,0,-1,1266,1625,0,0
49,-601,0,0,0,0,0,0,0,0,0,-1,1273,1625,0,0
56,-601,0,0,0,0,0,0,0,0,0,-1,1280,1625,0,0
63,-601,0,0,0,0,0,0,0,0,0,-1,1287,1625,0,0
70,-601,0,0,0,0,0,0,0,0,0,-1,1294,1625,0,0
77,-601,0,0,0,0,0,0,0,0,0,-1,1301,1625,0,0
84,-601,0,0,0,0,0,0,0,0,0,-1,1308,1625,0,0
91,-601,0,0,0,0,0,0,0,0,0,-1,1315,1625,0,0
98,-601,0,0,0,0,0,0,0,0,0,-1,1322,1625,0,0
105,-601,0,0,0,0,0,0,0,0,0,-1,1329,1625,0,0
112,-601,0,0,0,0,0,0,0,0,0,-1,1336,1625,0,0
119,-601,0,0,0,0,0,0,0,0,0,-1,1343,1625,0,0
126,-601,0,0,0,0,0,0,0,0,0,-1,1350,1625,0,0
133,-601,0,0,0,0,0,0,0,0,0,-1,1357,1625,0,0
140,-601,0,0,0,0,0,0,0,0,0,-1,1364,1625,0,0
147,-601,0,0,0,0,0,0,0,0,0,-1,1371,1625,0,0
154,-601,0,0,0,0,0,0,0,0,0,-1,1378,1625,0,0
161,-601,0,0,0,0,0,0,0,0,0,-1,1385,1625,0,0
168,-601,0,0,0,0,0,0,0,0,0,-1,1392,1625,0,0
175,-601,0,0,0,0,0,0,0,0,0,-1,1399,1625,0,0
182,-601,0,0,0,0,0,0,0,0,0,-1,1406,1625,0,0
189,-601,0,0,0,0,0,0,0,0,0,-1,1413,1625,0,0
196,-601,0,0,0,0,0,0,0,0,0,-1,1420,1625,0,0
203,-601,0,0,0,0,0,0,0,0,0,-1,1427,1625,0,0
210,-601,0,0,0,0,0,0,0,0,0,-1,1434,1625,0,0
217,-601,0,0,0,0,0,0,0,0,0,-1,1441,1625,0,0
224,-601,0,0,0,0,0,0,0,0,0,-1,1448,1625,0,0
231,-601,-0.0371094,0.525879,0,0,0,0,0,0,0,-1,1455,1625,-0.0371518,-0.525824
238,-601,2.03369,-1.32861,0,0,0,0,0,0,0,-1,1462,1625,2.03364,1.32858
245,-601,2.71375,2.44983,0,0,0,0,0,0,0,-1,1469,1625,2.71371,-2.44979
252,-601,4.66943,2.28381,0,0,0,0,0,0,0,-1,1476,1625,4.66947,-2.28376
259,-601,6.42712,2.61987,0,0,0,0,0,0,0,-1,1483,1625,6.42711,-2.61985
266,-601,6.75317,1.68701,0,0,0,0,0,0,0,-1,1490,1625,6.75323,-1.687
273,-601,5.4314,2.92053,0,0,0,0,0,0,0,-1,1497,1625,5.43144,-2.92051
280,-601,4.64722,1.17786,0,0,0,0,0,0,0,-1,1504,1625,4.64722,-1.1779
287,-601,5.32532,2.6217,0,0,0,0,0,0,0,-1,1511,1625,5.32535,-2.62171
294,-601,5.97693,4.22693,0,0,0,0,0,0,0,-1,1518,1625,5.97697,-4.22694
301,-601,7.28162,9.50024,0,0,0,0,0,0,0,-1,1525,1625,7.28162,-9.50025
308,-601,6.53528,10.3927,0,0,0,0,0,0,0,-1,1532,1625,6.53529,-10.3927
315,-601,4.88013,11.7184,0,0,0,0,0,0,0,-1,1539,1625,4.88015,-11.7184
322,-601,3.38098,12.7864,0,0,0,0,0,0,0,-1,1546,1625,3.38104,-12.7864
329,-601,1.8772,13.8768,0,0,0,0,0,0,0,-1,1553,1625,1.87716,-13.8768
336,-601,4.67847,9.53308,0,0,0,0,0,0,0,-1,1560,1625,4.67848,-9.53309
343,-601,11.1404,3.14575,0,0,0,0,0,0,0,-1,1567,1625,11.1404,-3.1458
350,-601,10.9462,2.37769,0,0,0,0,0,0,0,-1,1574,1625,10.9461,-2.37764
357,-601,10.7518,1.6095,0,0,0,0,0,0,0,-1,1581,1625,10.7518,-1.60948
364,-601,5.33643,9.74426,0,0,0,0,0,0,0,-1,1588,1625,5.33637,-9.74429
371,-601,8.46387,16.2725,0,0,0,0,0,0,0,-1,1595,1625,8.46385,-16.2725
378,-601,8.78601,19.4457,0,0,0,0,0,0,0,-1,1602,1625,8.78602,-19.4457
385,-601,9.15393,19.2733,-0.00267678,0.00233102,0.00845936,0.00864927,-0.00899503,0.929286,0.0101876,0.0474116,1609,1625,9.15398,-19.2733
392,-601,9.32056,19.2017,-0.00393306,0.00109454,0.0094127,0.00832333,-0.0111619,0.915885,0.0112895,0.0437564,1616,1625,9.32057,-19.2017
399,-601,9.13953,19.0784,-0.00478807,0.000479902,0.00970488,0.00790188,-0.0122101,0.91791,0.0117001,0.0203092,1623,1625,9.13951,-19.0784
406,-601,9.23291,18.8358,-0.00529226,0.000151522,0.00938928,0.00720548,-0.0123462,0.926478,0.0114175,0.0135686,1630,1625,9.23297,-18.8358
413,-601,9.25342,18.6029,-0.00521174,-0.000396524,0.00872468,0.00624664,-0.0118549,0.920025,0.0106168,0.0122883,1637,1625,9.25347,-18.603
420,-601,9.23364,18.3972,-0.00486899,-0.000483754,0.00779302,0.00541923,-0.010772,0.922531,0.00951675,0.00969041,1644,1625,9.23368,-18.3972
427,-601,9.22339,18.1693,-0.00434127,-0.000738857,0.006722,0.00441908,-0.00949921,0.916301,0.00821221,0.0137849,1651,1625,9.22342,-18.1693
434,-601,9.21887,17.9221,-0.00369695,-0.000895089,0.00558537,0.00346236,-0.0080544,0.908274,0.00682311,0.0148826,1658,1625,9.21882,-17.9221
441,-601,9.26135,17.6589,-0.00299465,-0.000812966,0.00436122,0.00259177,-0.00639938,0.907945,0.00534395,0.0167699,1665,1625,9.2614,-17.659
448,-601,9.26318,17.4066,-0.00210034,-0.000936232,0.00315629,0.00169123,-0.0047278,0.876579,0.00384177,0.0150379,1672,1625,9.26316,-17.4066
455,-601,9.2572,17.1639,-0.00129835,-0.00113946,0.00213722,0.000919786,-0.0033576,0.803976,0.00259981,0.0127246,1679,1625,9.25718,-17.1639
462,-601,9.24377,16.907,-0.000603789,-0.00123813,0.00118093,0.000301826,-0.00214374,0.654207,0.00153966,0.0111841,1686,1625,9.24383,-16.907
469,-601,9.23938,16.6554,4.89977e-05,-0.00125016,0.000393461,0.000158869,-0.00136003,0.272307,0.000964016,0.0111584,1693,1625,9.23941,-16.6554
476,-601,9.24377,16.3988,0.000561449,-0.0010414,-0.000346778,0.000633257,-0.00111321,-0.204188,0.00102094,0.0128378,1700,1625,9.24372,-16.3988
483,-601,9.22131,16.1272,0.000711126,-0.000791283,-0.000761736,0.00102976,-0.00110991,-0.396179,0.00123563,0.0155903,1707,1625,9.22126,-16.1271
490,-601,9.21228,15.8506,0.00076417,-0.000381128,-0.00113948,0.0014668,-0.00108376,-0.552554,0.00147809,0.0121639,1714,1625,9.21233,-15.8505
497,-601,9.21008,15.5753,0.000610501,0.000100602,-0.00148299,0.00186029,-0.00114919,-0.700272,0.00175362,0.00996404,1721,1625,9.21009,-15.5753
504,-601,9.25134,15.2963,9.00956e-05,0.000670105,-0.00152087,0.00192838,-0.00116817,-0.879609,0.00180566,0.0141781,1728,1625,9.25135,-15.2963
511,-601,9.19873,15.0486,-0.000585832,0.001342,-0.00158343,0.00223183,-0.00147567,-1.05881,0.00215532,0.0243759,1735,1625,9.19878,-15.0486
518,-601,9.19153,14.7069,-0.00139281,0.00188465,-0.00141043,0.00240804,-0.00191619,-1.21546,0.00250197,0.0366812,1742,1625,9.19154,-14.7069
525,-601,9.31506,14.3223,-0.00273127,0.00290089,-0.000772062,0.0030048,-0.00283519,-1.437,0.00337219,0.0451099,1749,1625,9.31512,-14.3223
532,-601,8.94897,14.2892,0,0,0,0,0,0,0,-1,1756,1625,8.94902,-14.2892
539,-601,7.77112,11.4299,0,0,0,0,0,0,0,-1,1763,1625,7.77116,-11.4299
546,-601,6.56873,3.62354,0,0,0,0,0,0,0,-1,1770,1625,6.56867,-3.62352
553,-601,7.03015,4.25049,0,0,0,0,0,0,0,-1,1777,1625,7.03011,-4.25048
560,-601,7.50745,4.83374,0,0,0,0,0,0,0,-1,1784,1625,7.50744,-4.83376
567,-601,7.82043,3.83301,0,0,0,0,0,0,0,-1,1791,1625,7.82041,-3.83303
574,-601,0,0,0,0,0,0,0,0,0,-1,1798,1625,0,0
581,-601,0,0,0,0,0,0,0,0,0,-1,1805,1625,0,0
588,-601,0,0,0,0,0,0,0,0,0,-1,1812,1625,0,0
595,-601,0,0,0,0,0,0,0,0,0,-1,1819,1625,0,0
602,-601,0,0,0,0,0,0,0,0,0,-1,1826,1625,0,0
609,-601,0,0,0,0,0,0,0,0,0,-1,1833,1625,0,0
616,-601,0,0,0,0,0,0,0,0,0,-1,1840,1625,0,0
623,-601,0,0,0,0,0,0,0,0,0,-1,1847,1625,0,0
630,-601,0,0,0,0,0,0,0,0,0,-1,1854,1625,0,0
637,-601,0,0,0,0,0,0,0,0,0,-1,1861,1625,0,0
644,-601,0,0,0,0,0,0,0,0,0,-1,1868,1625,0,0
651,-601,0,0,0,0,0,0,0,0,0,-1,1875,1625,0,0
658,-601,0,0,0,0,0,0,0,0,0,-1,1882,1625,0,0
665,-601,0,0,0,0,0,0,0,0,0,-1,1889,1625,0,0
672,-601,0,0,0,0,0,0,0,0,0,-1,1896,1625,0,0
679,-601,0,0,0,0,0,0,0,0,0,-1,1903,1625,0,0
686,-601,0,0,0,0,0,0,0,0,0,-1,1910,1625,0,0
693,-601,0,0,0,0,0,0,0,0,0,-1,1917,1625,0,0
700,-601,0,0,0,0,0,0,0,0,0,-1,1924,1625,0,0
707,-601,0,0,0,0,0,0,0,0,0,-1,1931,1625,0,0
714,-601,0,0,0,0,0,0,0,0,0,-1,1938,1625,0,0
721,-601,0,0,0,0,0,0,0,0,0,-1,1945,1625,0,0
728,-601,0,0,0,0,0,0,0,0,0,-1,1952,1625,0,0
735,-601,0,0,0,0,0,0,0,0,0,-1,1959,1625,0,0
742,-601,0,0,0,0,0,0,0,0,0,-1,1966,1625,0,0
749,-601,0,0,0,0,0,0,0,0,0,-1,1973,1625,0,0
756,-601,0,0,0,0,0,0,0,0,0,-1,1980,1625,0,0
763,-601,0,0,0,0,0,0,0,0,0,-1,1987,1625,0,0
770,-601,0,0,0,0,0,0,0,0,0,-1,1994,1625,0,0
777,-601,0,0,0,0,0,0,0,0,0,-1,2001,1625,0,0
784,-601,0,0,0,0,0,0,0,0,0,-1,2008,1625,0,0
791,-601,0,0,0,0,0,0,0,0,0,-1,2015,1625,0,0
798,-601,0,0,0,0,0,0,0,0,0,-1,2022,1625,0,0
805,-601,0,0,0,0,0,0,0,0,0,-1,2029,1625,0,0
812,-601,0,0,0,0,0,0,0,0,0,-1,2036,1625,0,0
-700,-608,0,0,0,0,0,0,0,0,0,-1,524,1632,0,0
-693,-608,0,0,0,0,0,0,0,0,0,-1,531,1632,0,0
-686,-608,0,0,0,0,0,0,0,0,0,-1,538,1632,0,0
-679,-608,0,0,0,0,0,0,0,0,0,-1,545,1632,0,0
-672,-608,0,0,0,0,0,0,0,0,0,-1,552,1632,0,0
-665,-608,0,0,0,0,0,0,0,0,0,-1,559,1632,0,0
-658,-608,0,0,0,0,0,0,0,0,0,-1,566,1632,0,0
-651,-608,0,0,0,0,0,0,0,0,0,-1,573,1632,0,0
-644,-608,0,0,0,0,0,0,0,0,0,-1,580,1632,0,0
-637,-608,0,0,0,0,0,0,0,0,0,-1,587,1632,0,0
-630,-608,0,0,0,0,0,0,0,0,0,-1,594,1632,0,0
-623,-608,0,0,0,0,0,0,0,0,0,-1,601,1632,0,0
-616,-608,0,0,0,0,0,0,0,0,0,-1,608,1632,0,0
-609,-608,0,0,0,0,0,0,0,0,0,-1,615,1632,0,0
-602,-608,0,0,0,0,0,0,0,0,0,-1,622,1632,0,0
-595,-608,0,0,0,0,0,0,0,0,0,-1,629,1632,0,0
-588,-608,0,0,0,0,0,0,0,0,0,-1,636,1632,0,0
-581,-608,0,0,0,0,0,0,0,0,0,-1,643,1632,0,0
-574,-608,0,0,0,0,0,0,0,0,0,-1,650,1632,0,0
-567,-608,0,0,0,0,0,0,0,0,0,-1,657,1632,0,0
-560,-608,0,0,0,0,0,0,0,0,0,-1,664,1632,0,0
-553,-608,0,0,0,0,0,0,0,0,0,-1,671,1632,0,0
-546,-608,0,0,0,0,0,0,0,0,0,-1,678,1632,0,0
-539,-608,0,0,0,0,0,0,0,0,0,-1,685,1632,0,0
-532,-608,0,0,0,0,0,0,0,0,0,-1,692,1632,0,0
-525,-608,0,0,0,0,0,0,0,0,0,-1,699,1632,0,0
-518,-608,0,0,0,0,0,0,0,0,0,-1,706,1632,0,0
-511,-608,0,0,0,0,0,0,0,0,0,-1,713,1632,0,0
-504,-608,0,0,0,0,0,0,0,0,0,-1,720,1632,0,0
-497,-608,0,0,0,0,0,0,0,0,0,-1,727,1632,0,0
-490,-608,0,0,0,0,0,0,0,0,0,-1,734,1632,0,0
-483,-608,0,0,0,0,0,0,0,0,0,-1,741,1632,0,0
-476,-608,0,0,0,0,0,0,0,0,0,-1,748,1632,0,0
-469,-608,0,0,0,0,0,0,0,0,0,-1,755,1632,0,0
-462,-608,0,0,0,0,0,0,0,0,0,-1,762,1632,0,0
-455,-608,0,0,0,0,0,0,0,0,0,-1,769,1632,0,0
-448,-608,0,0,0,0,0,0,0,0,0,-1,776,1632,0,0
-441,-608,-7.34601,2.78052,0,0,0,0,0,0,0,-1,783,1632,-7.346,-2.78056
-434,-608,-6.34558,3.27405,0,0,0,0,0,0,0,-1,790,1632,-6.34555,-3.27406
-427,-608,-7.74335,4.17688,0,0,0,0,0,0,0,-1,797,1632,-7.74334,-4.17693
-420,-608,-6.82794,4.34839,0,0,0,0,0,0,0,-1,804,1632,-6.82794,-4.34838
-413,-608,-5.41919,5.66138,0,0,0,0,0,0,0,-1,811,1632,-5.41917,-5.66133
-406,-608,-4.79681,4.98999,0,0,0,0,0,0,0,-1,818,1632,-4.79684,-4.98997
-399,-608,-2.60645,6.34167,0,0,0,0,0,0,0,-1,825,1632,-2.60643,-6.34169
-392,-608,3.31775,12.8265,0,0,0,0,0,0,0,-1,832,1632,3.31774,-12.8265
-385,-608,3.16547,13.4683,0,0,0,0,0,0,0,-1,839,1632,3.16547,-13.4682
-378,-608,3.01813,14.1719,-0.00994904,-0.000803202,-0.00147743,-0.00057046,-0.0101818,-1.41455,0.00660592,0.0479257,846,1632,3.01811,-14.1718
-371,-608,2.5376,14.2635,-0.00821221,-0.00214,-0.00192037,-0.00158365,-0.00876857,-1.28881,0.00539586,0.0459641,853,1632,2.5376,-14.2636
-364,-608,2.69342,14.3462,-0.00639273,-0.00303932,-0.00176298,-0.00228304,-0.00714902,-1.16556,0.00421633,0.0210358,860,1632,2.6934,-14.3462
-357,-608,2.66864,14.672,-0.00467459,-0.00334908,-0.00146359,-0.00240518,-0.00561849,-0.997999,0.00325501,0.0159969,867,1632,2.66864,-14.672
-350,-608,2.67145,15.0328,-0.00329314,-0.00295037,-0.001221,-0.00188878,-0.00435472,-0.855126,0.00252155,0.0185526,874,1632,2.67144,-15.0328
-343,-608,2.65503,15.3427,-0.0022947,-0.00286206,-0.00109396,-0.00144824,-0.00370852,-0.658534,0.00215816,0.0241321,881,1632,2.65504,-15.3426
-336,-608,2.65106,15.6215,-0.00134499,-0.0021675,-0.000884126,-0.000781149,-0.00273134,-0.567705,0.00162437,0.0169118,888,1632,2.65106,-15.6214
-329,-608,2.63025,15.9175,-0.000551196,-0.00124621,-0.000570095,-0.000231043,-0.00156636,-0.511689,0.000976382,0.0147016,895,1632,2.63027,-15.9175
-322,-608,2.62079,16.1814,7.92463e-05,-0.000319832,-0.000224052,0.000179733,-0.000420319,-0.421601,0.000355601,0.0143775,902,1632,2.62079,-16.1814
-315,-608,2.66052,16.4269,0.000284682,0.000185889,-0.000170785,0.00041307,5.75006e-05,-0.644622,0.000258355,0.0133934,909,1632,2.6605,-16.4269
-308,-608,2.64252,16.7336,0.000380458,2.97126e-06,-0.000372631,0.00060942,-0.000225991,-0.550975,0.000498971,0.0137745,916,1632,2.64252,-16.7337
-301,-608,2.6344,17.0216,0.000613384,-0.000322328,-0.000465275,0.000805354,-0.000514298,-0.391316,0.000768054,0.0110541,923,1632,2.63438,-17.0216
-294,-608,2.63586,17.265,0.000864823,-0.00146921,-0.000614597,0.00101677,-0.00162115,-0.242366,0.00153627,0.0113948,930,1632,2.63585,-17.2651
-287,-608,2.62823,17.5121,0.00118319,-0.00236751,-0.000809652,0.0013591,-0.00254342,-0.213938,0.00228744,0.0108769,937,1632,2.62821,-17.5121
-280,-608,2.64862,17.7738,0.00159546,-0.00366531,-0.00106976,0.00180467,-0.00387452,-0.193132,0.00335069,0.00821223,944,1632,2.64861,-17.7738
-273,-608,2.63898,18.0469,0.0020695,-0.00529575,-0.00139853,0.00232611,-0.00555236,-0.18147,0.00467404,0.00826572,951,1632,2.63895,-18.0469
-266,-608,2.65973,18.3075,0.00260162,-0.00718509,-0.00167652,0.00288085,-0.00746432,-0.165039,0.0061651,0.00823247,958,1632,2.65972,-18.3075
-259,-608,2.69543,18.5116,0.00321689,-0.00925468,-0.00185955,0.00348825,-0.00952604,-0.144905,0.00777867,0.010891,965,1632,2.69542,-18.5117
-252,-608,2.71344,18.7367,0.00400555,-0.0114625,-0.00186884,0.00422814,-0.0116851,-0.118547,0.00951781,0.0252818,972,1632,2.71345,-18.7367
-245,-608,2.70593,19.1589,0.00420234,-0.0137672,-0.00148421,0.0043241,-0.013889,-0.0818567,0.0109881,0.0371476,979,1632,2.70591,-19.1589
-238,-608,2.77563,19.4976,0.00386634,-0.0162095,-0.00113906,0.00393076,-0.016274,-0.0564961,0.0123695,0.0466398,986,1632,2.77562,-19.4976
-231,-608,2.90436,19.5742,0,0,0,0,0,0,0,-1,993,1632,2.90438,-19.5742
-224,-608,2.51642,15.3452,0,0,0,0,0,0,0,-1,1000,1632,2.5164,-15.3452
-217,-608,1.04419,12.8451,0,0,0,0,0,0,0,-1,1007,1632,1.04418,-12.8451
-210,-608,2.75903,15.9414,0,0,0,0,0,0,0,-1,1014,1632,2.75903,-15.9414
-203,-608,2.76776,16.217,0,0,0,0,0,0,0,-1,1021,1632,2.76773,-16.217
-196,-608,1.53955,18.6058,0,0,0,0,0,0,0,-1,1028,1632,1.53959,-18.6058
-189,-608,1.37634,19.119,0,0,0,0,0,0,0,-1,1035,1632,1.37634,-19.1191
-182,-608,2.89221,16.7092,0,0,0,0,0,0,0,-1,1042,1632,2.89224,-16.7093
-175,-608,0.219116,15.1643,0,0,0,0,0,0,0,-1,1049,1632,0.219173,-15.1644
-168,-608,0.000366211,9.48645,0,0,0,0,0,0,0,-1,1056,1632,0.000317105,-9.48648
-161,-608,2.27832,15.4423,0,0,0,0,0,0,0,-1,1063,1632,2.27826,-15.4423
-154,-608,1.3999,16.4037,0,0,0,0,0,0,0,-1,1070,1632,1.39987,-16.4037
-147,-608,2.4386,9.50317,0,0,0,0,0,0,0,-1,1077,1632,2.43858,-9.50313
-140,-608,2.60132,10.8401,0,0,0,0,0,0,0,-1,1084,1632,2.60134,-10.8401
-133,-608,3.2312,12.4738,0,0,0,0,0,0,0,-1,1091,1632,3.23116,-12.4738
-126,-608,3.76465,13.9644,0,0,0,0,0,0,0,-1,1098,1632,3.76466,-13.9644
-119,-608,4.28906,15.4196,0,0,0,0,0,0,0,-1,1105,1632,4.28911,-15.4195
-112,-608,0.745117,10.5587,0,0,0,0,0,0,0,-1,1112,1632,0.745145,-10.5587
-105,-608,-0.252319,1.42419,0,0,0,0,0,0,0,-1,1119,1632,-0.252331,-1.42418
-98,-608,-2.8595,3.0863,0,0,0,0,0,0,0,-1,1126,1632,-2.85948,-3.08625
-91,-608,-3.71948,1.73608,0,0,0,0,0,0,0,-1,1133,1632,-3.7195,-1.73607
-84,-608,0,0,0,0,0,0,0,0,0,-1,1140,1632,0,0
-77,-608,0,0,0,0,0,0,0,0,0,-1,1147,1632,0,0
-70,-608,0,0,0,0,0,0,0,0,0,-1,1154,1632,0,0
-63,-608,0,0,0,0,0,0,0,0,0,-1,1161,1632,0,0
-56,-608,0,0,0,0,0,0,0,0,0,-1,1168,1632,0,0
-49,-608,0,0,0,0,0,0,0,0,0,-1,1175,1632,0,0
-42,-608,0,0,0,0,0,0,0,0,0,-1,1182,1632,0,0
-35,-608,0,0,0,0,0,0,0,0,0,-1,1189,1632,0,0
-28,-608,0,0,0,0,0,0,0,0,0,-1,1196,1632,0,0
-21,-608,0,0,0,0,0,0,0,0,0,-1,1203,1632,0,0
-14,-608,0,0,0,0,0,0,0,0,0,-1,1210,1632,0,0
-7,-608,0,0,0,0,0,0,0,0,0,-1,1217,1632,0,0
0,-608,0,0,0,0,0,0,0,0,0,-1,1224,1632,0,0
7,-608,0,0,0,0,0,0,0,0,0,-1,1231,1632,0,0
14,-608,0,0,0,0,0,0,0,0,0,-1,1238,1632,0,0
21,-608,0,0,0,0,0,0,0,0,0,-1,1245,1632,0,0
28,-608,0,0,0,0,0,0,0,0,0,-1,1252,1632,0,0
35,-608,0,0,0,0,0,0,0,0,0,-1,1259,1632,0,0
42,-608,0,0,0,0,0,0,0,0,0,-1,1266,1632,0,0
49,-608,0,0,0,0,0,0,0,0,0,-1,1273,1632,0,0
56,-608,0,0,0,0,0,0,0,0,0,-1,1280,1632,0,0
63,-608,0,0,0,0,0,0,0,0,0,-1,1287,1632,0,0
70,-608,0,0,0,0,0,0,0,0,0,-1,1294,1632,0,0
77,-608,0,0,0,0,0,0,0,0,0,-1,1301,1632,0,0
84,-608,0,0,0,0,0,0,0,0,0,-1,1308,1632,0,0
91,-608,0,0,0,0,0,0,0,0,0,-1,1315,1632,0,0
98,-608,0,0,0,0,0,0,0,0,0,-1,1322,1632,0,0
105,-608,0,0,0,0,0,0,0,0,0,-1,1329,1632,0,0
112,-608,0,0,0,0,0,0,0,0,0,-1,1336,1632,0,0
119,-608,0,0,0,0,0,0,0,0,0,-1,1343,1632,0,0
126,-608,0,0,0,0,0,0,0,0,0,-1,1350,1632,0,0
133,-608,0,0,0,0,0,0,0,0,0,-1,1357,1632,0,0
140,-608,0,0,0,0,0,0,0,0,0,-1,1364,1632,0,0
147,-608,0,0,0,0,0,0,0,0,0,-1,1371,1632,0,0
154,-608,0,0,0,0,0,0,0,0,0,-1,1378,1632,0,0
161,-608,0,0,0,0,0,0,0,0,0,-1,1385,1632,0,0
168,-608,0,0,0,0,0,0,0,0,0,-1,1392,1632,0,0
175,-608,0,0,0,0,0,0,0,0,0,-1,1399,1632,0,0
182,-608,0,0,0,0,0,0,0,0,0,-1,1406,1632,0,0
189,-608,0,0,0,0,0,0,0,0,0,-1,1413,1632,0,0
196,-608,0,0,0,0,0,0,0,0,0,-1,1420,1632,0,0
203,-608,0,0,0,0,0,0,0,0,0,-1,1427,1632,0,0
210,-608,5.7157,-0.333008,0,0,0,0,0,0,0,-1,1434,1632,5.71566,0.333004
217,-608,4.49402,-0.831787,0,0,0,0,0,0,0,-1,1441,1632,4.49396,0.831738
224,-608,4.18018,-1.11792,0,0,0,0,0,0,0,-1,1448,1632,4.1802,1.11796
231,-608,0.361816,0.825195,0,0,0,0,0,0,0,-1,1455,1632,0.36185,-0.825226
238,-608,2.85388,-0.28833,0,0,0,0,0,0,0,-1,1462,1632,2.85391,0.288282
245,-608,3.87537,4.02173,0,0,0,0,0,0,0,-1,1469,1632,3.87538,-4.02168
252,-608,5.66956,3.5282,0,0,0,0,0,0,0,-1,1476,1632,5.6696,-3.52815
259,-608,7.47437,3.07178,0,0,0,0,0,0,0,-1,1483,1632,7.4744,-3.07172
266,-608,9.46936,2.34766,0,0,0,0,0,0,0,-1,1490,1632,9.46932,-2.34764
273,-608,6.03003,3.34241,0,0,0,0,0,0,0,-1,1497,1632,6.02997,-3.34245
280,-608,5.72461,2.0769,0,0,0,0,0,0,0,-1,1504,1632,5.72457,-2.07688
287,-608,6.20581,3.59338,0,0,0,0,0,0,0,-1,1511,1632,6.20585,-3.59341
294,-608,6.94922,5.17151,0,0,0,0,0,0,0,-1,1518,1632,6.94925,-5.17151
301,-608,7.60083,6.68018,0,0,0,0,0,0,0,-1,1525,1632,7.60086,-6.68013
308,-608,7.64746,9.93848,0,0,0,0,0,0,0,-1,1532,1632,7.64745,-9.93842
315,-608,5.30688,11.2054,0,0,0,0,0,0,0,-1,1539,1632,5.30694,-11.2054
322,-608,5.32617,13.7581,0,0,0,0,0,0,0,-1,1546,1632,5.32613,-13.758
329,-608,7.12231,13.9607,0,0,0,0,0,0,0,-1,1553,1632,7.12231,-13.9607
336,-608,5.48633,7.82446,0,0,0,0,0,0,0,-1,1560,1632,5.48634,-7.82446
343,-608,5.47192,5.61047,0,0,0,0,0,0,0,-1,1567,1632,5.47192,-5.61045
350,-608,11.6957,1.71387,0,0,0,0,0,0,0,-1,1574,1632,11.6957,-1.71388
357,-608,3.77002,5.10046,0,0,0,0,0,0,0,-1,1581,1632,3.77002,-5.10043
364,-608,5.6925,11.2163,0,0,0,0,0,0,0,-1,1588,1632,5.69255,-11.2163
371,-608,8.71094,20.6622,0,0,0,0,0,0,0,-1,1595,1632,8.71088,-20.6622
378,-608,8.8606,19.8871,0.00057943,0.0048137,0.00415775,0.00736231,-0.00196918,1.02089,0.00567955,0.0400865,1602,1632,8.86065,-19.8871
385,-608,8.91821,19.5468,-0.000997037,0.00256156,0.00532511,0.00639677,-0.00483225,0.946633,0.00650402,0.0314813,1609,1632,8.91826,-19.5467
392,-608,8.94373,19.3621,-0.00201234,0.00137496,0.00615501,0.00606509,-0.00670246,0.919658,0.00737441,0.022139,1616,1632,8.9437,-19.3621
399,-608,8.95715,19.1036,-0.00270609,0.000781594,0.0065087,0.00577601,-0.00770051,0.916287,0.00780707,0.0102305,1623,1632,8.95718,-19.1036
406,-608,8.9823,18.8723,-0.00314961,0.000401435,0.00641239,0.00527957,-0.00802774,0.920459,0.0077374,0.00884592,1630,1632,8.98229,-18.8723
413,-608,8.99146,18.6488,-0.00333258,-7.44583e-05,0.00606774,0.0045791,-0.00798614,0.916545,0.0073429,0.0097064,1637,1632,8.99149,-18.6487
420,-608,8.97021,18.4034,-0.00324528,-0.000248083,0.00543661,0.00389269,-0.00738605,0.919883,0.00661508,0.0161397,1644,1632,8.97022,-18.4035
427,-608,8.96643,18.1593,-0.00296941,-0.000626774,0.00472968,0.00307447,-0.00667066,0.906782,0.00575263,0.0171822,1651,1632,8.96649,-18.1594
434,-608,8.94885,17.9331,-0.00255903,-0.000836563,0.00389111,0.00228748,-0.00568308,0.894309,0.00473896,0.0138816,1658,1632,8.9489,-17.9331
441,-608,8.96667,17.6875,-0.0020345,-0.000841808,0.0029238,0.00154585,-0.00442215,0.885999,0.00357653,0.0132768,1665,1632,8.96673,-17.6875
448,-608,8.99695,17.4377,-0.00133177,-0.00105899,0.00195453,0.000763895,-0.00315466,0.820232,0.00239863,0.0161722,1672,1632,8.99692,-17.4377
455,-608,9.01794,17.1746,-0.000703296,-0.00135553,0.00116321,0.000178646,-0.00223748,0.648726,0.00155462,0.0120563,1679,1632,9.01793,-17.1746
462,-608,8.99915,16.9172,-0.000129441,-0.00157947,0.000416697,-1.82241e-05,-0.00169068,0.260821,0.0011211,0.0110214,1686,1632,8.99914,-16.9172
469,-608,8.97656,16.6617,0.000473535,-0.00170822,-0.000214634,0.000494449,-0.00172913,-0.0971359,0.00134814,0.0084604,1693,1632,8.97656,-16.6617
476,-608,8.9679,16.4021,0.000975999,-0.00158382,-0.000807329,0.00120935,-0.00181717,-0.281369,0.00175907,0.0082942,1700,1632,8.96786,-16.402
483,-608,8.97473,16.131,0.00113875,-0.00137878,-0.00114375,0.00158077,-0.00182079,-0.368782,0.00196552,0.00806621,1707,1632,8.9747,-16.131
490,-608,8.97083,15.8601,0.00125352,-0.000992588,-0.00151999,0.00202033,-0.0017594,-0.467232,0.00218396,0.008761,1714,1632,8.9708,-15.8601
497,-608,8.99573,15.5756,0.00120606,-0.000395879,-0.00184884,0.00241998,-0.0016098,-0.580989,0.00234221,0.0151153,1721,1632,8.99578,-15.5755
504,-608,8.99585,15.3365,0.000775715,0.000327213,-0.0019091,0.00247369,-0.00137076,-0.726934,0.00224983,0.0319794,1728,1632,8.99589,-15.3366
511,-608,8.89087,15.0587,9.9185e-05,0.00126609,-0.00203016,0.00279497,-0.0014297,-0.925323,0.00248121,0.0438298,1735,1632,8.89091,-15.0587
518,-608,8.79419,14.8131,0,0,0,0,0,0,0,-1,1742,1632,8.79418,-14.8131
525,-608,9.06592,14.0829,0,0,0,0,0,0,0,-1,1749,1632,9.06597,-14.0829
532,-608,8.27917,11.6693,0,0,0,0,0,0,0,-1,1756,1632,8.27919,-11.6694
539,-608,9.40796,1.43457,0,0,0,0,0,0,0,-1,1763,1632,9.40801,-1.43463
546,-608,9.94031,2.1134,0,0,0,0,0,0,0,-1,1770,1632,9.94031,-2.11346
553,-608,10.363,2.81335,0,0,0,0,0,0,0,-1,1777,1632,10.3631,-2.81333
560,-608,9.23999,4.5636,0,0,0,0,0,0,0,-1,1784,1632,9.24,-4.56354
567,-608,0,0,0,0,0,0,0,0,0,-1,1791,1632,0,0
574,-608,0,0,0,0,0,0,0,0,0,-1,1798,1632,0,0
581,-608,0,0,0,0,0,0,0,0,0,-1,1805,1632,0,0
588,-608,0,0,0,0,0,0,0,0,0,-1,1812,1632,0,0
595,-608,0,0,0,0,0,0,0,0,0,-1,1819,1632,0,0
602,-608,0,0,0,0,0,0,0,0,0,-1,1826,1632,0,0
609,-608,0,0,0,0,0,0,0,0,0,-1,1833,1632,0,0
616,-608,0,0,0,0,0,0,0,0,0,-1,1840,1632,0,0
623,-608,0,0,0,0,0,0,0,0,0,-1,1847,1632,0,0
630,-608,0,0,0,0,0,0,0,0,0,-1,1854,1632,0,0
637,-608,0,0,0,0,0,0,0,0,0,-1,1861,1632,0,0
644,-608,0,0,0,0,0,0,0,0,0,-1,1868,1632,0,0
651,-608,0,0,0,0,0,0,0,0,0,-1,1875,1632,0,0
658,-608,0,0,0,0,0,0,0,0,0,-1,1882,1632,0,0
665,-608,0,0,0,0,0,0,0,0,0,-1,1889,1632,0,0
672,-608,0,0,0,0,0,0,0,0,0,-1,1896,1632,0,0
679,-608,0,0,0,0,0,0,0,0,0,-1,1903,1632,0,0
686,-608,0,0,0,0,0,0,0,0,0,-1,1910,1632,0,0
693,-608,0,0,0,0,0,0,0,0,0,-1,1917,1632,0,0
700,-608,0,0,0,0,0,0,0,0,0,-1,1924,1632,0,0
707,-608,0,0,0,0,0,0,0,0,0,-1,1931,1632,0,0
714,-608,0,0,0,0,0,0,0,0,0,-1,1938,1632,0,0
721,-608,0,0,0,0,0,0,0,0,0,-1,1945,1632,0,0
728,-608,0,0,0,0,0,0,0,0,0,-1,1952,1632,0,0
735,-608,0,0,0,0,0,0,0,0,0,-1,1959,1632,0,0
742,-608,0,0,0,0,0,0,0,0,0,-1,1966,1632,0,0
749,-608,0,0,0,0,0,0,0,0,0,-1,1973,1632,0,0
756,-608,0,0,0,0,0,0,0,0,0,-1,1980,1632,0,0
763,-608,0,0,0,0,0,0,0,0,0,-1,1987,1632,0,0
770,-608,0,0,0,0,0,0,0,0,0,-1,1994,1632,0,0
777,-608,0,0,0,0,0,0,0,0,0,-1,2001,1632,0,0
784,-608,0,0,0,0,0,0,0,0,0,-1,2008,1632,0,0
791,-608,0,0,0,0,0,0,0,0,0,-1,2015,1632,0,0
798,-608,0,0,0,0,0,0,0,0,0,-1,2022,1632,0,0
805,-608,0,0,0,0,0,0,0,0,0,-1,2029,1632,0,0
812,-608,0,0,0,0,0,0,0,0,0,-1,2036,1632,0,0
-700,-615,0,0,0,0,0,0,0,0,0,-1,524,1639,0,0
-693,-615,0,0,0,0,0,0,0,0,0,-1,531,1639,0,0
-686,-615,0,0,0,0,0,0,0,0,0,-1,538,1639,0,0
-679,-615,0,0,0,0,0,0,0,0,0,-1,545,1639,0,0
-672,-615,0,0,0,0,0,0,0,0,0,-1,552,1639,0,0
-665,-615,0,0,0,0,0,0,0,0,0,-1,559,1639,0,0
-658,-615,0,0,0,0,0,0,0,0,0,-1,566,1639,0,0
-651,-615,0,0,0,0,0,0,0,0,0,-1,573,1639,0,0
-644,-615,0,0,0,0,0,0,0,0,0,-1,580,1639,0,0
-637,-615,0,0,0,0,0,0,0,0,0,-1,587,1639,0,0
-630,-615,0,0,0,0,0,0,0,0,0,-1,594,1639,0,0
-623,-615,0,0,0,0,0,0,0,0,0,-1,601,1639,0,0
-616,-615,0,0,0,0,0,0,0,0,0,-1,608,1639,0,0
-609,-615,0,0,0,0,0,0,0,0,0,-1,615,1639,0,0
-602,-615,0,0,0,0,0,0,0,0,0,-1,622,1639,0,0
-595,-615,0,0,0,0,0,0,0,0,0,-1,629,1639,0,0
-588,-615,0,0,0,0,0,0,0,0,0,-1,636,1639,0,0
-581,-615,0,0,0,0,0,0,0,0,0,-1,643,1639,0,0
-574,-615,0,0,0,0,0,0,0,0,0,-1,650,1639,0,0
-567,-615,0,0,0,0,0,0,0,0,0,-1,657,1639,0,0
-560,-615,0,0,0,0,0,0,0,0,0,-1,664,1639,0,0
-553,-615,0,0,0,0,0,0,0,0,0,-1,671,1639,0,0
-546,-615,0,0,0,0,0,0,0,0,0,-1,678,1639,0,0
-539,-615,0,0,0,0,0,0,0,0,0,-1,685,1639,0,0
-532,-615,0,0,0,0,0,0,0,0,0,-1,692,1639,0,0
-525,-615,0,0,0,0,0,0,0,0,0,-1,699,1639,0,0
-518,-615,0,0,0,0,0,0,0,0,0,-1,706,1639,0,0
-511,-615,0,0,0,0,0,0,0,0,0,-1,713,1639,0,0
-504,-615,0,0,0,0,0,0,0,0,0,-1,720,1639,0,0
-497,-615,0,0,0,0,0,0,0,0,0,-1,727,1639,0,0
-490,-615,0,0,0,0,0,0,0,0,0,-1,734,1639,0,0
-483,-615,0,0,0,0,0,0,0,0,0,-1,741,1639,0,0
-476,-615,0,0,0,0,0,0,0,0,0,-1,748,1639,0,0
-469,-615,0,0,0,0,0,0,0,0,0,-1,755,1639,0,0
-462,-615,0,0,0,0,0,0,0,0,0,-1,762,1639,0,0
-455,-615,0,0,0,0,0,0,0,0,0,-1,769,1639,0,0
-448,-615,0,0,0,0,0,0,0,0,0,-1,776,1639,0,0
-441,-615,0,0,0,0,0,0,0,0,0,-1,783,1639,0,0
-434,-615,-7.64508,2.98596,0,0,0,0,0,0,0,-1,790,1639,-7.64505,-2.98594
-427,-615,-9.0011,2.89404,0,0,0,0,0,0,0,-1,797,1639,-9.00107,-2.89399
-420,-615,-8.07568,3.0752,0,0,0,0,0,0,0,-1,804,1639,-8.07569,-3.07514
-413,-615,-7.09149,3.396,0,0,0,0,0,0,0,-1,811,1639,-7.09147,-3.39599
-406,-615,-6.21368,3.7312,0,0,0,0,0,0,0,-1,818,1639,-6.21366,-3.73114
-399,-615,-4.84875,3.91907,0,0,0,0,0,0,0,-1,825,1639,-4.84877,-3.91901
-392,-615,1.7395,13.3127,0,0,0,0,0,0,0,-1,832,1639,1.73953,-13.3128
-385,-615,3.74487,12.644,0,0,0,0,0,0,0,-1,839,1639,3.74485,-12.6441
-378,-615,3.63605,14.3802,0,0,0,0,0,0,0,-1,846,1639,3.63607,-14.3802
-371,-615,2.66718,14.4319,0,0,0,0,0,0,0,-1,853,1639,2.66715,-14.4319
-364,-615,2.89612,14.4562,0,0,0,0,0,0,0,-1,860,1639,2.89614,-14.4561
-357,-615,2.93024,14.6495,0,0,0,0,0,0,0,-1,867,1639,2.93023,-14.6495
-350,-615,2.9491,15.103,-0.00430695,-0.00391567,-0.00174794,-0.00235246,-0.00587017,-0.841129,0.00341133,0.0304854,874,1639,2.9491,-15.103
-343,-615,2.89642,15.3245,-0.0031067,-0.00368971,-0.00151286,-0.00185752,-0.00493889,-0.690221,0.00288051,0.0194294,881,1639,2.89645,-15.3245
-336,-615,2.94196,15.6108,-0.00199501,-0.00287727,-0.00122991,-0.00112951,-0.00374277,-0.613211,0.00221676,0.0104941,888,1639,2.94199,-15.6109
-329,-615,2.90839,15.8969,-0.00109821,-0.00189758,-0.000825951,-0.000580322,-0.00241547,-0.560052,0.00145595,0.0107708,895,1639,2.90841,-15.8969
-322,-615,2.90375,16.1892,-0.000362857,-0.000917835,-0.000391739,-0.000160284,-0.00112041,-0.477244,0.000699658,0.0118269,902,1639,2.90378,-16.1892
-315,-615,2.93195,16.4674,-0.000107377,-0.000390747,-0.000262228,4.89955e-05,-0.000547119,-0.537711,0.000382126,0.0137557,909,1639,2.93197,-16.4675
-308,-615,2.89093,16.7366,2.96131e-05,-0.000450343,-0.000334738,0.000201508,-0.000622238,-0.474405,0.000495837,0.0199431,916,1639,2.89093,-16.7365
-301,-615,2.8974,16.9938,0.000311186,-0.000591309,-0.000355596,0.000434458,-0.000714582,-0.333699,0.000669937,0.0128909,923,1639,2.89737,-16.9938
-294,-615,2.91431,17.2582,0.000608297,-0.00141799,-0.000445687,0.000701994,-0.00151168,-0.207214,0.00130625,0.0112809,930,1639,2.91428,-17.2581
-287,-615,2.88873,17.5154,0.00093692,-0.00202603,-0.000561566,0.00103978,-0.00212889,-0.181162,0.00186511,0.0084474,937,1639,2.88871,-17.5154
-280,-615,2.90021,17.7688,0.00133394,-0.00292883,-0.000733741,0.0014567,-0.0030516,-0.165774,0.00265661,0.00877296,944,1639,2.90021,-17.7687
-273,-615,2.89697,18.0352,0.00180097,-0.00402705,-0.000935032,0.00194731,-0.00417339,-0.155248,0.00361085,0.00931371,951,1639,2.89699,-18.0351
-266,-615,2.90112,18.2843,0.00231477,-0.00529257,-0.0010809,0.00246537,-0.00544317,-0.138437,0.00467264,0.00892971,958,1639,2.90114,-18.2844
-259,-615,2.92499,18.5156,0.002864,-0.00647169,-0.00116679,0.00300761,-0.00661531,-0.122472,0.00568446,0.010917,965,1639,2.92497,-18.5156
-252,-615,2.92908,18.7548,0.00353488,-0.00766451,-0.00110967,0.00364377,-0.0077734,-0.097816,0.0067339,0.0125209,972,1639,2.92908,-18.7548
-245,-615,2.93604,19.0173,0.00366175,-0.00924434,-0.000701583,0.00369978,-0.00928237,-0.0541479,0.00772279,0.0174964,979,1639,2.93604,-19.0174
-238,-615,2.95856,19.3345,0.00334225,-0.0109258,-0.000347249,0.0033507,-0.0109343,-0.0243183,0.00862614,0.0261011,986,1639,2.95856,-19.3345
-231,-615,3.08026,19.5354,0.00315683,-0.0125491,-9.69753e-06,0.00315683,-0.0125491,-0.000617443,0.00959309,0.0393286,993,1639,3.08026,-19.5354
-224,-615,3.20349,19.9159,0,0,0,0,0,0,0,-1,1000,1639,3.20347,-19.9159
-217,-615,3.41565,19.6653,0,0,0,0,0,0,0,-1,1007,1639,3.41567,-19.6653
-210,-615,2.48901,18.9324,0,0,0,0,0,0,0,-1,1014,1639,2.48902,-18.9323
-203,-615,2.13684,18.6173,0,0,0,0,0,0,0,-1,1021,1639,2.13683,-18.6173
-196,-615,4.39478,19.7665,0,0,0,0,0,0,0,-1,1028,1639,4.39476,-19.7664
-189,-615,1.8269,19.6761,0,0,0,0,0,0,0,-1,1035,1639,1.82691,-19.6761
-182,-615,1.63489,20.2278,0,0,0,0,0,0,0,-1,1042,1639,1.63492,-20.2277
-175,-615,-0.609985,13.8434,0,0,0,0,0,0,0,-1,1049,1639,-0.610016,-13.8434
-168,-615,3.85754,15.472,0,0,0,0,0,0,0,-1,1056,1639,3.85757,-15.472
-161,-615,2.15601,20.8517,0,0,0,0,0,0,0,-1,1063,1639,2.15602,-20.8516
-154,-615,0.585327,18.823,0,0,0,0,0,0,0,-1,1070,1639,0.585319,-18.823
-147,-615,1.52502,17.3442,0,0,0,0,0,0,0,-1,1077,1639,1.52501,-17.3442
-140,-615,3.73401,10.2349,0,0,0,0,0,0,0,-1,1084,1639,3.73402,-10.2348
-133,-615,2.6178,17.45,0,0,0,0,0,0,0,-1,1091,1639,2.61776,-17.4499
-126,-615,4.43408,12.5017,0,0,0,0,0,0,0,-1,1098,1639,4.43403,-12.5018
-119,-615,4.82983,13.9279,0,0,0,0,0,0,0,-1,1105,1639,4.82986,-13.9278
-112,-615,3.65698,14.4874,0,0,0,0,0,0,0,-1,1112,1639,3.65695,-14.4875
-105,-615,0.958496,2.45398,0,0,0,0,0,0,0,-1,1119,1639,0.958452,-2.45398
-98,-615,-0.647705,2.12109,0,0,0,0,0,0,0,-1,1126,1639,-0.647756,-2.12105
-91,-615,-3.07983,2.97375,0,0,0,0,0,0,0,-1,1133,1639,-3.07989,-2.97376
-84,-615,-2.46509,0.703247,0,0,0,0,0,0,0,-1,1140,1639,-2.46505,-0.703273
-77,-615,-3.17859,1.23755,0,0,0,0,0,0,0,-1,1147,1639,-3.17865,-1.23752
-70,-615,-4.03943,1.43335,0,0,0,0,0,0,0,-1,1154,1639,-4.03942,-1.43339
-63,-615,-4.8877,1.45544,0,0,0,0,0,0,0,-1,1161,1639,-4.88766,-1.45549
-56,-615,0,0,0,0,0,0,0,0,0,-1,1168,1639,0,0
-49,-615,0,0,0,0,0,0,0,0,0,-1,1175,1639,0,0
-42,-615,0,0,0,0,0,0,0,0,0,-1,1182,1639,0,0
-35,-615,0,0,0,0,0,0,0,0,0,-1,1189,1639,0,0
-28,-615,0,0,0,0,0,0,0,0,0,-1,1196,1639,0,0
-21,-615,0,0,0,0,0,0,0,0,0,-1,1203,1639,0,0
-14,-615,0,0,0,0,0,0,0,0,0,-1,1210,1639,0,0
-7,-615,0,0,0,0,0,0,0,0,0,-1,1217,1639,0,0
0,-615,0,0,0,0,0,0,0,0,0,-1,1224,1639,0,0
7,-615,0,0,0,0,0,0,0,0,0,-1,1231,1639,0,0
14,-615,0,0,0,0,0,0,0,0,0,-1,1238,1639,0,0
21,-615,0,0,0,0,0,0,0,0,0,-1,1245,1639,0,0
28,-615,0,0,0,0,0,0,0,0,0,-1,1252,1639,0,0
35,-615,0,0,0,0,0,0,0,0,0,-1,1259,1639,0,0
42,-615,0,0,0,0,0,0,0,0,0,-1,1266,1639,0,0
49,-615,0,0,0,0,0,0,0,0,0,-1,1273,1639,0,0
56,-615,0,0,0,0,0,0,0,0,0,-1,1280,1639,0,0
63,-615,0,0,0,0,0,0,0,0,0,-1,1287,1639,0,0
70,-615,0,0,0,0,0,0,0,0,0,-1,1294,1639,0,0
77,-615,0,0,0,0,0,0,0,0,0,-1,1301,1639,0,0
84,-615,0,0,0,0,0,0,0,0,0,-1,1308,1639,0,0
91,-615,0,0,0,0,0,0,0,0,0,-1,1315,1639,0,0
98,-615,0,0,0,0,0,0,0,0,0,-1,1322,1639,0,0
105,-615,0,0,0,0,0,0,0,0,0,-1,1329,1639,0,0
112,-615,0,0,0,0,0,0,0,0,0,-1,1336,1639,0,0
119,-615,0,0,0,0,0,0,0,0,0,-1,1343,1639,0,0
126,-615,0,0,0,0,0,0,0,0,0,-1,1350,1639,0,0
133,-615,0,0,0,0,0,0,0,0,0,-1,1357,1639,0,0
140,-615,0,0,0,0,0,0,0,0,0,-1,1364,1639,0,0
147,-615,0,0,0,0,0,0,0,0,0,-1,1371,1639,0,0
154,-615,0,0,0,0,0,0,0,0,0,-1,1378,1639,0,0
161,-615,0,0,0,0,0,0,0,0,0,-1,1385,1639,0,0
168,-615,0,0,0,0,0,0,0,0,0,-1,1392,1639,0,0
175,-615,5.39648,-2.00879,0,0,0,0,0,0,0,-1,1399,1639,5.3965,2.00881
182,-615,5.65393,-1.51025,0,0,0,0,0,0,0,-1,1406,1639,5.65388,1.51028
189,-615,5.58972,-1.35608,0,0,0,0,0,0,0,-1,1413,1639,5.58967,1.35607
196,-615,5.49915,-0.693604,0,0,0,0,0,0,0,-1,1420,1639,5.4991,0.693602
203,-615,5.33411,-0.226685,0,0,0,0,0,0,0,-1,1427,1639,5.33414,0.226689
210,-615,5.60278,0.108276,0,0,0,0,0,0,0,-1,1434,1639,5.60284,-0.10831
217,-615,6.26331,-0.307373,0,0,0,0,0,0,0,-1,1441,1639,6.26331,0.307372
224,-615,5.45422,-0.333984,0,0,0,0,0,0,0,-1,1448,1639,5.45422,0.333992
231,-615,4.92542,1.80298,0,0,0,0,0,0,0,-1,1455,1639,4.92537,-1.80297
238,-615,4.76355,1.96729,0,0,0,0,0,0,0,-1,1462,1639,4.76357,-1.96734
245,-615,4.08643,3.15906,0,0,0,0,0,0,0,-1,1469,1639,4.08638,-3.159
252,-615,6.37805,3.73889,0,0,0,0,0,0,0,-1,1476,1639,6.37806,-3.73891
259,-615,8.35974,3.16443,0,0,0,0,0,0,0,-1,1483,1639,8.35975,-3.16444
266,-615,10.3414,2.58997,0,0,0,0,0,0,0,-1,1490,1639,10.3414,-2.58996
273,-615,6.57043,1.84766,0,0,0,0,0,0,0,-1,1497,1639,6.5704,-1.84771
280,-615,7.10449,3.23438,0,0,0,0,0,0,0,-1,1504,1639,7.10447,-3.23435
287,-615,7.35779,4.68542,0,0,0,0,0,0,0,-1,1511,1639,7.35776,-4.68546
294,-615,7.63733,6.29114,0,0,0,0,0,0,0,-1,1518,1639,7.63735,-6.29109
301,-615,8.47925,11.452,0,0,0,0,0,0,0,-1,1525,1639,8.47922,-11.452
308,-615,6.8114,10.9059,0,0,0,0,0,0,0,-1,1532,1639,6.81137,-10.9058
315,-615,5.1427,14.7251,0,0,0,0,0,0,0,-1,1539,1639,5.14269,-14.7251
322,-615,7.17981,17.6864,0,0,0,0,0,0,0,-1,1546,1639,7.17985,-17.6864
329,-615,7.62134,20.4354,0,0,0,0,0,0,0,-1,1553,1639,7.62139,-20.4354
336,-615,6.45007,14.1138,0,0,0,0,0,0,0,-1,1560,1639,6.45011,-14.1138
343,-615,2.40491,6.50134,0,0,0,0,0,0,0,-1,1567,1639,2.40489,-6.50137
350,-615,6.4458,15.4594,0,0,0,0,0,0,0,-1,1574,1639,6.44578,-15.4593
357,-615,8.56506,20.8988,0,0,0,0,0,0,0,-1,1581,1639,8.56503,-20.8988
364,-615,8.64063,20.491,0,0,0,0,0,0,0,-1,1588,1639,8.64064,-20.4909
371,-615,8.65051,20.2606,0.00266546,0.00617278,0.0010133,0.00644448,0.00239376,1.30882,0.00376149,0.0457161,1595,1639,8.65052,-20.2607
378,-615,8.67456,19.7866,0.00113945,0.00455439,0.00235176,0.00575316,-5.93257e-05,1.09939,0.00385537,0.0186983,1602,1639,8.67451,-19.7866
385,-615,8.69336,19.5774,-3.10739e-05,0.00264845,0.00325368,0.0048274,-0.00221003,0.980703,0.00415568,0.0113125,1609,1639,8.69336,-19.5774
392,-615,8.72388,19.3231,-0.00079501,0.00154306,0.00390382,0.00444913,-0.00370108,0.930879,0.00471213,0.0098577,1616,1639,8.72382,-19.3231
399,-615,8.72913,19.0919,-0.00132966,0.000974864,0.00421717,0.00419435,-0.00454915,0.918759,0.00504945,0.0110288,1623,1639,8.72908,-19.0919
406,-615,8.72852,18.8737,-0.00167079,0.000566965,0.0042028,0.00379727,-0.0049011,0.915492,0.00503547,0.0110973,1630,1639,8.72848,-18.8736
413,-615,8.74194,18.6527,-0.00183375,6.94155e-05,0.00401258,0.00324171,-0.00500604,0.901822,0.00479802,0.0120807,1637,1639,8.74193,-18.6527
420,-615,8.73682,18.4163,-0.00180545,-0.00024123,0.00358429,0.00264529,-0.00469197,0.892817,0.00429075,0.0134155,1644,1639,8.7368,-18.4163
427,-615,8.72754,18.1647,-0.001652,-0.000786874,0.00313528,0.00194554,-0.00438441,0.853949,0.00374393,0.0145626,1651,1639,8.72758,-18.1647
434,-615,8.72058,17.9332,-0.00135398,-0.00110884,0.00252674,0.0012983,-0.00376111,0.809634,0.00303422,0.0130557,1658,1639,8.7206,-17.9332
441,-615,8.73499,17.677,-0.000911906,-0.00126565,0.00177586,0.00069587,-0.00287342,0.735763,0.00218483,0.0140811,1665,1639,8.73494,-17.6769
448,-615,8.75806,17.427,-0.00034021,-0.00163038,0.00101927,0.000220958,-0.00219155,0.503272,0.00153998,0.0154128,1672,1639,8.758,-17.427
455,-615,8.77026,17.1744,0.000143941,-0.00206558,0.000437083,0.000227262,-0.0021489,0.188369,0.00151405,0.0143101,1679,1639,8.77027,-17.1745
462,-615,8.74207,16.9221,0.000600638,-0.00245077,-0.000113441,0.000604849,-0.00245498,-0.0371084,0.00187114,0.0146162,1686,1639,8.74209,-16.9221
469,-615,8.71741,16.6681,0.00112349,-0.00270863,-0.000607314,0.00121744,-0.00280257,-0.153471,0.00238034,0.0125914,1693,1639,8.71744,-16.6681
476,-615,8.70679,16.3998,0.00157528,-0.00268201,-0.00107742,0.00183242,-0.00293915,-0.234279,0.00277945,0.0106874,1700,1639,8.70679,-16.3998
483,-615,8.71033,16.1011,0.00171779,-0.00250171,-0.00138686,0.00213281,-0.00291672,-0.290766,0.00292703,0.0142776,1707,1639,8.71031,-16.1011
490,-615,8.7218,15.8168,0.0018609,-0.00210067,-0.00182208,0.00257149,-0.00281126,-0.371845,0.00310876,0.0182585,1714,1639,8.72185,-15.8167
497,-615,8.69055,15.6049,0.00191954,-0.00133469,-0.00220351,0.00303158,-0.00244673,-0.467374,0.0031689,0.0273896,1721,1639,8.69052,-15.6049
504,-615,8.57825,15.3232,0.0016075,-0.000346605,-0.00237998,0.00320318,-0.00194228,-0.590623,0.00300032,0.0482457,1728,1639,8.5782,-15.3232
511,-615,8.62378,15.022,0,0,0,0,0,0,0,-1,1735,1639,8.62376,-15.022
518,-615,11.4469,10.1028,0,0,0,0,0,0,0,-1,1742,1639,11.4469,-10.1028
525,-615,4.37524,3.90491,0,0,0,0,0,0,0,-1,1749,1639,4.37518,-3.90495
532,-615,7.3645,0.848145,0,0,0,0,0,0,0,-1,1756,1639,7.36451,-0.848093
539,-615,12.8112,-0.0476074,0,0,0,0,0,0,0,-1,1763,1639,12.8111,0.0475553
546,-615,8.33813,2.94556,0,0,0,0,0,0,0,-1,1770,1639,8.33813,-2.9455
553,-615,5.82532,-2.04199,0,0,0,0,0,0,0,-1,1777,1639,5.82534,2.04195
560,-615,0,0,0,0,0,0,0,0,0,-1,1784,1639,0,0
567,-615,0,0,0,0,0,0,0,0,0,-1,1791,1639,0,0
574,-615,0,0,0,0,0,0,0,0,0,-1,1798,1639,0,0
581,-615,0,0,0,0,0,0,0,0,0,-1,1805,1639,0,0
588,-615,0,0,0,0,0,0,0,0,0,-1,1812,1639,0,0
595,-615,0,0,0,0,0,0,0,0,0,-1,1819,1639,0,0
602,-615,0,0,0,0,0,0,0,0,0,-1,1826,1639,0,0
609,-615,0,0,0,0,0,0,0,0,0,-1,1833,1639,0,0
616,-615,0,0,0,0,0,0,0,0,0,-1,1840,1639,0,0
623,-615,0,0,0,0,0,0,0,0,0,-1,1847,1639,0,0
630,-615,0,0,0,0,0,0,0,0,0,-1,1854,1639,0,0
637,-615,0,0,0,0,0,0,0,0,0,-1,1861,1639,0,0
644,-615,0,0,0,0,0,0,0,0,0,-1,1868,1639,0,0
651,-615,0,0,0,0,0,0,0,0,0,-1,1875,1639,0,0
658,-615,0,0,0,0,0,0,0,0,0,-1,1882,1639,0,0
665,-615,0,0,0,0,0,0,0,0,0,-1,1889,1639,0,0
672,-615,0,0,0,0,0,0,0,0,0,-1,1896,1639,0,0
679,-615,0,0,0,0,0,0,0,0,0,-1,1903,1639,0,0
686,-615,0,0,0,0,0,0,0,0,0,-1,1910,1639,0,0
693,-615,0,0,0,0,0,0,0,0,0,-1,1917,1639,0,0
700,-615,0,0,0,0,0,0,0,0,0,-1,1924,1639,0,0
707,-615,0,0,0,0,0,0,0,0,0,-1,1931,1639,0,0
714,-615,0,0,0,0,0,0,0,0,0,-1,1938,1639,0,0
721,-615,0,0,0,0,0,0,0,0,0,-1,1945,1639,0,0
728,-615,0,0,0,0,0,0,0,0,0,-1,1952,1639,0,0
735,-615,0,0,0,0,0,0,0,0,0,-1,1959,1639,0,0
742,-615,0,0,0,0,0,0,0,0,0,-1,1966,1639,0,0
749,-615,0,0,0,0,0,0,0,0,0,-1,1973,1639,0,0
756,-615,0,0,0,0,0,0,0,0,0,-1,1980,1639,0,0
763,-615,0,0,0,0,0,0,0,0,0,-1,1987,1639,0,0
770,-615,0,0,0,0,0,0,0,0,0,-1,1994,1639,0,0
777,-615,0,0,0,0,0,0,0,0,0,-1,2001,1639,0,0
784,-615,0,0,0,0,0,0,0,0,0,-1,2008,1639,0,0
791,-615,0,0,0,0,0,0,0,0,0,-1,2015,1639,0,0
798,-615,0,0,0,0,0,0,0,0,0,-1,2022,1639,0,0
805,-615,0,0,0,0,0,0,0,0,0,-1,2029,1639,0,0
812,-615,0,0,0,0,0,0,0,0,0,-1,2036,1639,0,0
-700,-622,0,0,0,0,0,0,0,0,0,-1,524,1646,0,0
-693,-622,0,0,0,0,0,0,0,0,0,-1,531,1646,0,0
-686,-622,0,0,0,0,0,0,0,0,0,-1,538,1646,0,0
-679,-622,0,0,0,0,0,0,0,0,0,-1,545,1646,0,0
-672,-622,0,0,0,0,0,0,0,0,0,-1,552,1646,0,0
-665,-622,0,0,0,0,0,0,0,0,0,-1,559,1646,0,0
-658,-622,0,0,0,0,0,0,0,0,0,-1,566,1646,0,0
-651,-622,0,0,0,0,0,0,0,0,0,-1,573,1646,0,0
-644,-622,0,0,0,0,0,0,0,0,0,-1,580,1646,0,0
-637,-622,0,0,0,0,0,0,0,0,0,-1,587,1646,0,0
-630,-622,0,0,0,0,0,0,0,0,0,-1,594,1646,0,0
-623,-622,0,0,0,0,0,0,0,0,0,-1,601,1646,0,0
-616,-622,0,0,0,0,0,0,0,0,0,-1,608,1646,0,0
-609,-622,0,0,0,0,0,0,0,0,0,-1,615,1646,0,0
-602,-622,0,0,0,0,0,0,0,0,0,-1,622,1646,0,0
-595,-622,0,0,0,0,0,0,0,0,0,-1,629,1646,0,0
-588,-622,0,0,0,0,0,0,0,0,0,-1,636,1646,0,0
-581,-622,0,0,0,0,0,0,0,0,0,-1,643,1646,0,0
-574,-622,0,0,0,0,0,0,0,0,0,-1,650,1646,0,0
-567,-622,0,0,0,0,0,0,0,0,0,-1,657,1646,0,0
-560,-622,0,0,0,0,0,0,0,0,0,-1,664,1646,0,0
-553,-622,0,0,0,0,0,0,0,0,0,-1,671,1646,0,0
-546,-622,0,0,0,0,0,0,0,0,0,-1,678,1646,0,0
-539,-622,0,0,0,0,0,0,0,0,0,-1,685,1646,0,0
-532,-622,0,0,0,0,0,0,0,0,0,-1,692,1646,0,0
-525,-622,0,0,0,0,0,0,0,0,0,-1,699,1646,0,0
-518,-622,0,0,0,0,0,0,0,0,0,-1,706,1646,0,0
-511,-622,0,0,0,0,0,0,0,0,0,-1,713,1646,0,0
-504,-622,0,0,0,0,0,0,0,0,0,-1,720,1646,0,0
-497,-622,0,0,0,0,0,0,0,0,0,-1,727,1646,0,0
-490,-622,0,0,0,0,0,0,0,0,0,-1,734,1646,0,0
-483,-622,0,0,0,0,0,0,0,0,0,-1,741,1646,0,0
-476,-622,0,0,0,0,0,0,0,0,0,-1,748,1646,0,0
-469,-622,0,0,0,0,0,0,0,0,0,-1,755,1646,0,0
-462,-622,0,0,0,0,0,0,0,0,0,-1,762,1646,0,0
-455,-622,0,0,0,0,0,0,0,0,0,-1,769,1646,0,0
-448,-622,0,0,0,0,0,0,0,0,0,-1,776,1646,0,0
-441,-622,0,0,0,0,0,0,0,0,0,-1,783,1646,0,0
-434,-622,0,0,0,0,0,0,0,0,0,-1,790,1646,0,0
-427,-622,-7.62891,3.48096,0,0,0,0,0,0,0,-1,797,1646,-7.62892,-3.48092
-420,-622,-9.35791,1.77185,0,0,0,0,0,0,0,-1,804,1646,-9.35789,-1.77183
-413,-622,-8.46075,1.96777,0,0,0,0,0,0,0,-1,811,1646,-8.46074,-1.96774
-406,-622,-4.44318,2.16858,0,0,0,0,0,0,0,-1,818,1646,-4.44315,-2.16859
-399,-622,-7.06976,1.51001,0,0,0,0,0,0,0,-1,825,1646,-7.06976,-1.51005
-392,-622,3.89551,5.85376,0,0,0,0,0,0,0,-1,832,1646,3.8955,-5.85379
-385,-622,2.00543,14.0448,0,0,0,0,0,0,0,-1,839,1646,2.00544,-14.0448
-378,-622,2.1734,14.2626,0,0,0,0,0,0,0,-1,846,1646,2.17341,-14.2625
-371,-622,3.17017,14.3655,0,0,0,0,0,0,0,-1,853,1646,3.17017,-14.3655
-364,-622,3.31793,14.8008,0,0,0,0,0,0,0,-1,860,1646,3.31796,-14.8008
-357,-622,3.46112,14.9818,-0.00747648,-0.00588162,-0.00311882,-0.0034599,-0.0098982,-0.910558,0.00580032,0.0448677,867,1646,3.46115,-14.9818
-350,-622,3.24896,15.2316,-0.00545267,-0.00491111,-0.00249464,-0.00267261,-0.00769118,-0.839459,0.00450884,0.0433828,874,1646,3.24898,-15.2316
-343,-622,3.12708,15.3844,-0.00398702,-0.00441548,-0.00207816,-0.00211207,-0.00629043,-0.734036,0.00369651,0.0272357,881,1646,3.12708,-15.3844
-336,-622,3.20026,15.6113,-0.0026911,-0.00338519,-0.00165889,-0.00134334,-0.00473295,-0.682284,0.00281641,0.0094206,888,1646,3.20027,-15.6113
-329,-622,3.18188,15.8926,-0.00167744,-0.00226855,-0.00113068,-0.000804323,-0.00314166,-0.657561,0.00188444,0.00891328,895,1646,3.18188,-15.8926
-322,-622,3.1748,16.1873,-0.000846831,-0.00117929,-0.000587045,-0.000402933,-0.00162318,-0.64743,0.000975944,0.0109255,902,1646,3.17481,-16.1872
-315,-622,3.17572,16.4779,-0.000552851,-0.000590874,-0.000364189,-0.000207178,-0.000936547,-0.75932,0.000568042,0.0147679,909,1646,3.17569,-16.4779
-308,-622,3.17157,16.7208,-0.000386907,-0.000505296,-0.000303434,-0.000136947,-0.000755255,-0.689067,0.000464631,0.0147758,916,1646,3.1716,-16.7208
-301,-622,3.17065,16.975,-7.064e-05,-0.000466863,-0.000252878,5.24886e-05,-0.000589992,-0.453121,0.00041194,0.0131016,923,1646,3.17064,-16.9749
-294,-622,3.17035,17.2534,0.000255781,-0.00101507,-0.000290241,0.000318929,-0.00107822,-0.214233,0.000845418,0.0100452,930,1646,3.17032,-17.2534
-287,-622,3.14917,17.5208,0.000575215,-0.00141751,-0.000339556,0.000631485,-0.00147378,-0.164226,0.00124748,0.00820804,937,1646,3.14919,-17.5207
-280,-622,3.13898,17.7688,0.000933216,-0.00204868,-0.000451062,0.000999953,-0.00211542,-0.14689,0.00183669,0.0089664,944,1646,3.13899,-17.7687
-273,-622,3.1593,18.0209,0.00136479,-0.00278851,-0.00056201,0.00143949,-0.00286321,-0.132151,0.00252909,0.012553,951,1646,3.15931,-18.0209
-266,-622,3.15027,18.2715,0.00185177,-0.00365725,-0.000617327,0.0019201,-0.00372557,-0.110236,0.00331462,0.0117927,958,1646,3.15025,-18.2715
-259,-622,3.16943,18.5243,0.00234449,-0.00434803,-0.000660024,0.00240897,-0.0044125,-0.0973712,0.0039946,0.0121148,965,1646,3.16946,-18.5243
-252,-622,3.1684,18.7585,0.00292744,-0.00500107,-0.000585511,0.00297045,-0.00504408,-0.0733186,0.00467853,0.0128456,972,1646,3.16842,-18.7586
-245,-622,3.18573,18.9945,0.00302731,-0.00610036,-0.000208127,0.00303205,-0.00610511,-0.022786,0.00537387,0.00894373,979,1646,3.18571,-18.9945
-238,-622,3.198,19.2202,0.00276734,-0.00726029,9.59789e-05,0.00276826,-0.00726121,0.00957027,0.00598106,0.00963729,986,1646,3.198,-19.2202
-231,-622,3.24652,19.4879,0.00261093,-0.00837949,0.000387774,0.0026246,-0.00839315,0.0352245,0.00664537,0.0139683,993,1646,3.24653,-19.4879
-224,-622,3.31274,19.6823,0.00209869,-0.00967349,0.000932553,0.00217211,-0.0097469,0.0785636,0.00733005,0.0248833,1000,1646,3.31274,-19.6823
-217,-622,3.39154,19.7719,0.00125648,-0.0111316,0.00161678,0.00146401,-0.0113392,0.127662,0.00809171,0.0390069,1007,1646,3.39157,-19.7718
-210,-622,3.08258,20.3939,0,0,0,0,0,0,0,-1,1014,1646,3.08257,-20.3939
-203,-622,4.09705,19.6595,0,0,0,0,0,0,0,-1,1021,1646,4.09708,-19.6595
-196,-622,4.12891,19.8666,0,0,0,0,0,0,0,-1,1028,1646,4.1289,-19.8666
-189,-622,3.52478,20.1158,0,0,0,0,0,0,0,-1,1035,1646,3.52481,-20.1158
-182,-622,2.21411,20.6752,0,0,0,0,0,0,0,-1,1042,1646,2.21416,-20.6751
-175,-622,2.56091,11.0195,0,0,0,0,0,0,0,-1,1049,1646,2.56095,-11.0195
-168,-622,4.42639,22.1844,0,0,0,0,0,0,0,-1,1056,1646,4.42636,-22.1845
-161,-622,3.07007,21.1432,0,0,0,0,0,0,0,-1,1063,1646,3.07004,-21.1432
-154,-622,1.71375,20.1019,0,0,0,0,0,0,0,-1,1070,1646,1.71373,-20.1019
-147,-622,1.18347,18.4009,0,0,0,0,0,0,0,-1,1077,1646,1.18343,-18.4009
-140,-622,3.27515,16.0353,0,0,0,0,0,0,0,-1,1084,1646,3.27519,-16.0353
-133,-622,3.09644,17.677,0,0,0,0,0,0,0,-1,1091,1646,3.09638,-17.677
-126,-622,3.5061,19.5251,0,0,0,0,0,0,0,-1,1098,1646,3.50616,-19.5252
-119,-622,4.06384,13.1715,0,0,0,0,0,0,0,-1,1105,1646,4.06379,-13.1716
-112,-622,4.33276,14.6605,0,0,0,0,0,0,0,-1,1112,1646,4.33281,-14.6605
-105,-622,0.306519,4.38159,0,0,0,0,0,0,0,-1,1119,1646,0.306536,-4.38159
-98,-622,-0.510376,3.5033,0,0,0,0,0,0,0,-1,1126,1646,-0.510393,-3.50324
-91,-622,-1.146,0.975952,0,0,0,0,0,0,0,-1,1133,1646,-1.14599,-0.97597
-84,-622,-2.04895,1.31787,0,0,0,0,0,0,0,-1,1140,1646,-2.0489,-1.31781
-77,-622,-1.80627,0.332275,0,0,0,0,0,0,0,-1,1147,1646,-1.80622,-0.33223
-70,-622,-3.65588,2.28149,0,0,0,0,0,0,0,-1,1154,1646,-3.65589,-2.28155
-63,-622,-2.49683,1.27087,0,0,0,0,0,0,0,-1,1161,1646,-2.49679,-1.27093
-56,-622,-2.44238,-0.575562,0,0,0,0,0,0,0,-1,1168,1646,-2.44242,0.575508
-49,-622,-2.41089,1.38818,0,0,0,0,0,0,0,-1,1175,1646,-2.41088,-1.38815
-42,-622,-2.71497,2.85242,0,0,0,0,0,0,0,-1,1182,1646,-2.71491,-2.85247
-35,-622,-3.0177,4.25842,0,0,0,0,0,0,0,-1,1189,1646,-3.01773,-4.25838
-28,-622,-0.896606,0.678833,0,0,0,0,0,0,0,-1,1196,1646,-0.89661,-0.678835
-21,-622,-4.38635,19.0129,0,0,0,0,0,0,0,-1,1203,1646,-4.38639,-19.0129
-14,-622,8.01355,28.1177,0,0,0,0,0,0,0,-1,1210,1646,8.01355,-28.1177
-7,-622,8.3562,28.8949,0,0,0,0,0,0,0,-1,1217,1646,8.35621,-28.8949
0,-622,0,0,0,0,0,0,0,0,0,-1,1224,1646,0,0
7,-622,0,0,0,0,0,0,0,0,0,-1,1231,1646,0,0
14,-622,0,0,0,0,0,0,0,0,0,-1,1238,1646,0,0
21,-622,0,0,0,0,0,0,0,0,0,-1,1245,1646,0,0
28,-622,0,0,0,0,0,0,0,0,0,-1,1252,1646,0,0
35,-622,0,0,0,0,0,0,0,0,0,-1,1259,1646,0,0
42,-622,0,0,0,0,0,0,0,0,0,-1,1266,1646,0,0
49,-622,0,0,0,0,0,0,0,0,0,-1,1273,1646,0,0
56,-622,0,0,0,0,0,0,0,0,0,-1,1280,1646,0,0
63,-622,0,0,0,0,0,0,0,0,0,-1,1287,1646,0,0
70,-622,0,0,0,0,0,0,0,0,0,-1,1294,1646,0,0
77,-622,0,0,0,0,0,0,0,0,0,-1,1301,1646,0,0
84,-622,0,0,0,0,0,0,0,0,0,-1,1308,1646,0,0
91,-622,0,0,0,0,0,0,0,0,0,-1,1315,1646,0,0
98,-622,0,0,0,0,0,0,0,0,0,-1,1322,1646,0,0
105,-622,0,0,0,0,0,0,0,0,0,-1,1329,1646,0,0
112,-622,0,0,0,0,0,0,0,0,0,-1,1336,1646,0,0
119,-622,0,0,0,0,0,0,0,0,0,-1,1343,1646,0,0
126,-622,8.65796,34.0867,0,0,0,0,0,0,0,-1,1350,1646,8.65802,-34.0866
133,-622,7.73901,19.0616,0,0,0,0,0,0,0,-1,1357,1646,7.73902,-19.0616
140,-622,8.02649,19.4025,0.0794942,-0.0191917,0.0152936,0.08181,-0.0215074,0.150277,0.0629461,0.0439597,1364,1646,8.02652,-19.4024
147,-622,8.14526,19.6342,0.104962,-0.0491771,0.00927473,0.105518,-0.0497332,0.0598834,0.0915425,0.0450374,1371,1646,8.14526,-19.6342
154,-622,8.34656,19.6705,0,0,0,0,0,0,0,-1,1378,1646,8.34657,-19.6706
161,-622,10.6884,6.46448,0,0,0,0,0,0,0,-1,1385,1646,10.6883,-6.46442
168,-622,12.2402,5.18091,0,0,0,0,0,0,0,-1,1392,1646,12.2403,-5.1809
175,-622,5.64355,-1.77075,0,0,0,0,0,0,0,-1,1399,1646,5.64351,1.77077
182,-622,5.88586,-1.32251,0,0,0,0,0,0,0,-1,1406,1646,5.88587,1.32256
189,-622,5.97986,-1.18005,0,0,0,0,0,0,0,-1,1413,1646,5.97986,1.18003
196,-622,5.85022,-0.244507,0,0,0,0,0,0,0,-1,1420,1646,5.85026,0.244478
203,-622,5.25159,0.138794,0,0,0,0,0,0,0,-1,1427,1646,5.25162,-0.138822
210,-622,6.66833,0.0397949,0,0,0,0,0,0,0,-1,1434,1646,6.6684,-0.0398278
217,-622,6.12061,0.0506592,0,0,0,0,0,0,0,-1,1441,1646,6.12058,-0.0507181
224,-622,5.57275,0.0616455,0,0,0,0,0,0,0,-1,1448,1646,5.57276,-0.0616084
231,-622,5.31348,1.3949,0,0,0,0,0,0,0,-1,1455,1646,5.31342,-1.39495
238,-622,3.76477,2.90686,0,0,0,0,0,0,0,-1,1462,1646,3.7648,-2.90686
245,-622,5.13794,2.67993,0,0,0,0,0,0,0,-1,1469,1646,5.13796,-2.67992
252,-622,6.66528,2.53992,0,0,0,0,0,0,0,-1,1476,1646,6.66522,-2.53991
259,-622,8.93787,3.31458,0,0,0,0,0,0,0,-1,1483,1646,8.93791,-3.31454
266,-622,5.72644,3.11926,0,0,0,0,0,0,0,-1,1490,1646,5.72647,-3.1192
273,-622,7.28076,3.61218,0,0,0,0,0,0,0,-1,1497,1646,7.28071,-3.61212
280,-622,8.43127,4.4447,0,0,0,0,0,0,0,-1,1504,1646,8.43123,-4.44467
287,-622,8.60315,5.94617,0,0,0,0,0,0,0,-1,1511,1646,8.60319,-5.94622
294,-622,7.62756,11.5143,0,0,0,0,0,0,0,-1,1518,1646,7.62762,-11.5143
301,-622,7.36548,11.6569,0,0,0,0,0,0,0,-1,1525,1646,7.36549,-11.6569
308,-622,7.10339,11.7994,0,0,0,0,0,0,0,-1,1532,1646,7.10335,-11.7995
315,-622,8.28687,16.5842,0,0,0,0,0,0,0,-1,1539,1646,8.28689,-16.5843
322,-622,7.43689,20.5786,0,0,0,0,0,0,0,-1,1546,1646,7.43685,-20.5786
329,-622,8.04736,21.8491,0,0,0,0,0,0,0,-1,1553,1646,8.04737,-21.8491
336,-622,8.20691,21.4705,0,0,0,0,0,0,0,-1,1560,1646,8.20694,-21.4704
343,-622,8.36646,20.6919,0,0,0,0,0,0,0,-1,1567,1646,8.36641,-20.6919
350,-622,8.35144,21.0576,0,0,0,0,0,0,0,-1,1574,1646,8.35144,-21.0576
357,-622,8.41333,20.6417,0.00489713,0.00878795,-0.00211388,0.00971537,0.00396971,-1.15736,0.00564032,0.0433733,1581,1646,8.41335,-20.6418
364,-622,8.45959,20.2643,0.00363667,0.00712149,-0.00102336,0.00739979,0.00335837,-1.30527,0.00427834,0.033226,1588,1646,8.45953,-20.2643
371,-622,8.54138,19.9474,0.00247176,0.00548994,0.000205895,0.00550392,0.00245778,1.503,0.00318374,0.0189471,1595,1646,8.54137,-19.9474
378,-622,8.48914,19.7532,0.00134878,0.00416853,0.00116268,0.0045861,0.00093121,1.22599,0.00279912,0.0101935,1602,1646,8.4891,-19.7531
385,-622,8.47034,19.5499,0.000503224,0.00255781,0.00183058,0.00362965,-0.000568616,1.04109,0.00262988,0.00878992,1609,1646,8.47039,-19.55
392,-622,8.4801,19.3225,-5.25407e-05,0.00152305,0.00230915,0.00317509,-0.00170458,0.949788,0.0028596,0.0101173,1616,1646,8.48012,-19.3225
399,-622,8.48987,19.0829,-0.00042992,0.000977634,0.00254944,0.00291865,-0.00237093,0.92007,0.00305939,0.0108497,1623,1646,8.4899,-19.0829
406,-622,8.48083,18.8616,-0.000646687,0.000549109,0.00256697,0.00258689,-0.00268447,0.899818,0.00304359,0.0138328,1630,1646,8.48078,-18.8615
413,-622,8.49719,18.6315,-0.000741228,-6.43994e-06,0.0024525,0.00210603,-0.0028537,0.859747,0.00287433,0.0156115,1637,1646,8.49714,-18.6315
420,-622,8.49719,18.4186,-0.000709944,-0.000462333,0.0021604,0.0015778,-0.00275008,0.81402,0.00252907,0.0161699,1644,1646,8.49723,-18.4186
427,-622,8.48096,18.1771,-0.000612852,-0.00117913,0.00189296,0.00101803,-0.00281001,0.711162,0.00228942,0.0128725,1651,1646,8.4809,-18.1771
434,-622,8.49036,17.9375,-0.000367916,-0.00164314,0.00145792,0.000585721,-0.00259678,0.579258,0.00195588,0.0129501,1658,1646,8.49039,-17.9375
441,-622,8.50781,17.672,4.48744e-05,-0.00199379,0.000884084,0.000374854,-0.00232377,0.357231,0.00168806,0.0145673,1665,1646,8.50779,-17.672
448,-622,8.48938,17.4381,0.000530671,-0.00255148,0.000316824,0.000562901,-0.00258371,0.101381,0.00193755,0.0134542,1672,1646,8.48944,-17.4381
455,-622,8.47766,17.167,0.000903036,-0.00317332,-7.28212e-05,0.000904336,-0.00317462,-0.0178567,0.00247359,0.0153412,1679,1646,8.47769,-17.167
462,-622,8.50012,16.9244,0.00127043,-0.00378578,-0.000438364,0.00130815,-0.0038235,-0.0858447,0.00307912,0.0173918,1686,1646,8.50007,-16.9244
469,-622,8.48059,16.6798,0.00173749,-0.00423163,-0.000797556,0.00184221,-0.00433636,-0.130563,0.0036628,0.0190104,1693,1646,8.48055,-16.6798
476,-622,8.48022,16.4098,0.00216757,-0.00436111,-0.0011413,0.00236134,-0.00455488,-0.168171,0.00405947,0.0185721,1700,1646,8.48025,-16.4098
483,-622,8.45032,16.1372,0.00232974,-0.00423436,-0.00143891,0.00263131,-0.00453593,-0.20659,0.00418643,0.0248838,1707,1646,8.4503,-16.1372
490,-622,8.46973,15.8489,0.00254823,-0.00381113,-0.00197294,0.00311059,-0.00437349,-0.277673,0.0043414,0.032814,1714,1646,8.46977,-15.8489
497,-622,8.67041,15.551,0.00280942,-0.00278462,-0.0024782,0.00374935,-0.00372455,-0.362517,0.00431507,0.045341,1721,1646,8.67045,-15.5511
504,-622,8.1687,15.3398,0,0,0,0,0,0,0,-1,1728,1646,8.16876,-15.3399
511,-622,5.29004,4.14587,0,0,0,0,0,0,0,-1,1735,1646,5.29008,-4.14589
518,-622,5.6001,1.55359,0,0,0,0,0,0,0,-1,1742,1646,5.60015,-1.5536
525,-622,5.83093,2.01807,0,0,0,0,0,0,0,-1,1749,1646,5.83097,-2.01802
532,-622,5.44202,0.57373,0,0,0,0,0,0,0,-1,1756,1646,5.44196,-0.573705
539,-622,9.32129,1.06116,0,0,0,0,0,0,0,-1,1763,1646,9.32131,-1.0612
546,-622,6.50977,-3.45618,0,0,0,0,0,0,0,-1,1770,1646,6.50981,3.4562
553,-622,0,0,0,0,0,0,0,0,0,-1,1777,1646,0,0
560,-622,0,0,0,0,0,0,0,0,0,-1,1784,1646,0,0
567,-622,0,0,0,0,0,0,0,0,0,-1,1791,1646,0,0
574,-622,0,0,0,0,0,0,0,0,0,-1,1798,1646,0,0
581,-622,0,0,0,0,0,0,0,0,0,-1,1805,1646,0,0
588,-622,0,0,0,0,0,0,0,0,0,-1,1812,1646,0,0
595,-622,0,0,0,0,0,0,0,0,0,-1,1819,1646,0,0
602,-622,0,0,0,0,0,0,0,0,0,-1,1826,1646,0,0
609,-622,0,0,0,0,0,0,0,0,0,-1,1833,1646,0,0
616,-622,0,0,0,0,0,0,0,0,0,-1,1840,1646,0,0
623,-622,0,0,0,0,0,0,0,0,0,-1,1847,1646,0,0
630,-622,0,0,0,0,0,0,0,0,0,-1,1854,1646,0,0
637,-622,0,0,0,0,0,0,0,0,0,-1,1861,1646,0,0
644,-622,0,0,0,0,0,0,0,0,0,-1,1868,1646,0,0
651,-622,0,0,0,0,0,0,0,0,0,-1,1875,1646,0,0
658,-622,0,0,0,0,0,0,0,0,0,-1,1882,1646,0,0
665,-622,0,0,0,0,0,0,0,0,0,-1,1889,1646,0,0
672,-622,0,0,0,0,0,0,0,0,0,-1,1896,1646,0,0
679,-622,0,0,0,0,0,0,0,0,0,-1,1903,1646,0,0
686,-622,0,0,0,0,0,0,0,0,0,-1,1910,1646,0,0
693,-622,0,0,0,0,0,0,0,0,0,-1,1917,1646,0,0
700,-622,0,0,0,0,0,0,0,0,0,-1,1924,1646,0,0
707,-622,0,0,0,0,0,0,0,0,0,-1,1931,1646,0,0
714,-622,0,0,0,0,0,0,0,0,0,-1,1938,1646,0,0
721,-622,0,0,0,0,0,0,0,0,0,-1,1945,1646,0,0
728,-622,0,0,0,0,0,0,0,0,0,-1,1952,1646,0,0
735,-622,0,0,0,0,0,0,0,0,0,-1,1959,1646,0,0
742,-622,0,0,0,0,0,0,0,0,0,-1,1966,1646,0,0
749,-622,0,0,0,0,0,0,0,0,0,-1,1973,1646,0,0
756,-622,0,0,0,0,0,0,0,0,0,-1,1980,1646,0,0
763,-622,0,0,0,0,0,0,0,0,0,-1,1987,1646,0,0
770,-622,0,0,0,0,0,0,0,0,0,-1,1994,1646,0,0
777,-622,0,0,0,0,0,0,0,0,0,-1,2001,1646,0,0
784,-622,0,0,0,0,0,0,0,0,0,-1,2008,1646,0,0
791,-622,0,0,0,0,0,0,0,0,0,-1,2015,1646,0,0
798,-622,0,0,0,0,0,0,0,0,0,-1,2022,1646,0,0
805,-622,0,0,0,0,0,0,0,0,0,-1,2029,1646,0,0
812,-622,0,0,0,0,0,0,0,0,0,-1,2036,1646,0,0
-700,-629,0,0,0,0,0,0,0,0,0,-1,524,1653,0,0
-693,-629,0,0,0,0,0,0,0,0,0,-1,531,1653,0,0
-686,-629,0,0,0,0,0,0,0,0,0,-1,538,1653,0,0
-679,-629,0,0,0,0,0,0,0,0,0,-1,545,1653,0,0
-672,-629,0,0,0,0,0,0,0,0,0,-1,552,1653,0,0
-665,-629,0,0,0,0,0,0,0,0,0,-1,559,1653,0,0
-658,-629,0,0,0,0,0,0,0,0,0,-1,566,1653,0,0
-651,-629,0,0,0,0,0,0,0,0,0,-1,573,1653,0,0
-644,-629,0,0,0,0,0,0,0,0,0,-1,580,1653,0,0
-637,-629,0,0,0,0,0,0,0,0,0,-1,587,1653,0,0
-630,-629,0,0,0,0,0,0,0,0,0,-1,594,1653,0,0
-623,-629,0,0,0,0,0,0,0,0,0,-1,601,1653,0,0
-616,-629,0,0,0,0,0,0,0,0,0,-1,608,1653,0,0
-609,-629,0,0,0,0,0,0,0,0,0,-1,615,1653,0,0
-602,-629,0,0,0,0,0,0,0,0,0,-1,622,1653,0,0
-595,-629,0,0,0,0,0,0,0,0,0,-1,629,1653,0,0
-588,-629,0,0,0,0,0,0,0,0,0,-1,636,1653,0,0
-581,-629,0,0,0,0,0,0,0,0,0,-1,643,1653,0,0
-574,-629,0,0,0,0,0,0,0,0,0,-1,650,1653,0,0
-567,-629,0,0,0,0,0,0,0,0,0,-1,657,1653,0,0
-560,-629,0,0,0,0,0,0,0,0,0,-1,664,1653,0,0
-553,-629,0,0,0,0,0,0,0,0,0,-1,671,1653,0,0
-546,-629,0,0,0,0,0,0,0,0,0,-1,678,1653,0,0
-539,-629,0,0,0,0,0,0,0,0,0,-1,685,1653,0,0
-532,-629,0,0,0,0,0,0,0,0,0,-1,692,1653,0,0
-525,-629,0,0,0,0,0,0,0,0,0,-1,699,1653,0,0
-518,-629,0,0,0,0,0,0,0,0,0,-1,706,1653,0,0
-511,-629,0,0,0,0,0,0,0,0,0,-1,713,1653,0,0
-504,-629,0,0,0,0,0,0,0,0,0,-1,720,1653,0,0
-497,-629,0,0,0,0,0,0,0,0,0,-1,727,1653,0,0
-490,-629,0,0,0,0,0,0,0,0,0,-1,734,1653,0,0
-483,-629,0,0,0,0,0,0,0,0,0,-1,741,1653,0,0
-476,-629,0,0,0,0,0,0,0,0,0,-1,748,1653,0,0
-469,-629,0,0,0,0,0,0,0,0,0,-1,755,1653,0,0
-462,-629,0,0,0,0,0,0,0,0,0,-1,762,1653,0,0
-455,-629,0,0,0,0,0,0,0,0,0,-1,769,1653,0,0
-448,-629,0,0,0,0,0,0,0,0,0,-1,776,1653,0,0
-441,-629,0,0,0,0,0,0,0,0,0,-1,783,1653,0,0
-434,-629,0,0,0,0,0,0,0,0,0,-1,790,1653,0,0
-427,-629,0,0,0,0,0,0,0,0,0,-1,797,1653,0,0
-420,-629,-3.87103,3.37634,0,0,0,0,0,0,0,-1,804,1653,-3.87101,-3.37633
-413,-629,-5.69751,1.33582,0,0,0,0,0,0,0,-1,811,1653,-5.69754,-1.3358
-406,-629,2.85406,6.01501,0,0,0,0,0,0,0,-1,818,1653,2.85405,-6.01507
-399,-629,-0.455627,10.8687,0,0,0,0,0,0,0,-1,825,1653,-0.455625,-10.8687
-392,-629,1.15369,11.1295,0,0,0,0,0,0,0,-1,832,1653,1.1537,-11.1295
-385,-629,1.81976,11.6935,0,0,0,0,0,0,0,-1,839,1653,1.81975,-11.6935
-378,-629,2.19452,14.7941,0,0,0,0,0,0,0,-1,846,1653,2.19451,-14.7941
-371,-629,2.28833,13.5138,0,0,0,0,0,0,0,-1,853,1653,2.28832,-13.5138
-364,-629,3.73981,15.1455,0,0,0,0,0,0,0,-1,860,1653,3.73978,-15.1455
-357,-629,4.05225,15.5532,0,0,0,0,0,0,0,-1,867,1653,4.05222,-15.5532
-350,-629,3.59821,15.4333,0,0,0,0,0,0,0,-1,874,1653,3.59819,-15.4333
-343,-629,3.43195,15.5323,-0.00491162,-0.00522061,-0.00279341,-0.00226843,-0.00786379,-0.757773,0.00467364,0.0438258,881,1653,3.43197,-15.5323
-336,-629,3.44965,15.6306,-0.00351151,-0.00388514,-0.00213371,-0.00155645,-0.0058402,-0.741732,0.00349224,0.0181747,888,1653,3.44963,-15.6306
-329,-629,3.47076,15.9043,-0.00240438,-0.00255061,-0.00148526,-0.000990441,-0.00396455,-0.760805,0.00238253,0.0116092,895,1653,3.47078,-15.9043
-322,-629,3.45734,16.1749,-0.00149409,-0.00127717,-0.000832304,-0.00054629,-0.00222497,-0.850188,0.0013389,0.0121458,902,1653,3.45736,-16.1749
-315,-629,3.43103,16.4578,-0.00116077,-0.000556744,-0.000526415,-0.000251859,-0.00146565,-1.04583,0.000904908,0.015816,909,1653,3.431,-16.4578
-308,-629,3.42712,16.7336,-0.00095419,-0.000284832,-0.00038038,-0.000112857,-0.00112617,-1.14618,0.000716128,0.0130741,916,1653,3.42712,-16.7336
-301,-629,3.43713,17.0149,-0.00058292,-8.26093e-05,-0.000303451,6.05039e-05,-0.000726033,-1.13011,0.000505399,0.0107852,923,1653,3.43715,-17.0149
-294,-629,3.41998,17.2678,-0.000202681,-0.000394781,-0.000325141,4.03005e-05,-0.000637762,-0.641778,0.000439225,0.0116354,930,1653,3.41996,-17.2678
-287,-629,3.41003,17.5258,0.000136688,-0.000661005,-0.00034222,0.000263382,-0.0007877,-0.354567,0.000631509,0.00945594,937,1653,3.41003,-17.5258
-280,-629,3.41522,17.7833,0.000479805,-0.00111427,-0.000423008,0.0005851,-0.00121956,-0.243962,0.00106317,0.00957349,944,1653,3.41522,-17.7833
-273,-629,3.41595,18.0265,0.000887045,-0.00163239,-0.000472469,0.000972732,-0.00171808,-0.179411,0.00157328,0.012561,951,1653,3.41598,-18.0265
-266,-629,3.40302,18.2737,0.00138061,-0.00227303,-0.000460249,0.0014377,-0.00233011,-0.123402,0.00219559,0.0132297,958,1653,3.40299,-18.2737
-259,-629,3.39758,18.5414,0.00185275,-0.00271473,-0.000458774,0.00189837,-0.00276035,-0.0991243,0.00270502,0.0143611,965,1653,3.39758,-18.5414
-252,-629,3.41217,18.7651,0.00235122,-0.00311571,-0.000352646,0.00237388,-0.00313836,-0.064151,0.00319268,0.0113055,972,1653,3.41218,-18.7651
-245,-629,3.44342,19.0094,0.00244749,-0.00392289,1.38686e-05,0.00244752,-0.00392292,0.00217704,0.00371071,0.00846818,979,1653,3.44344,-19.0093
-238,-629,3.44855,19.2332,0.00225275,-0.00475898,0.000305345,0.00226602,-0.00477226,0.0434382,0.00414854,0.0100582,986,1653,3.44852,-19.2332
-231,-629,3.43927,19.4613,0.00211925,-0.00557381,0.000595229,0.00216503,-0.00561959,0.0767633,0.00463962,0.0108691,993,1653,3.43928,-19.4613
-224,-629,3.49841,19.7303,0.00177491,-0.0065385,0.00098019,0.00188891,-0.00665251,0.115789,0.00518073,0.0114093,1000,1653,3.49844,-19.7303
-217,-629,3.47223,19.9158,0.00119847,-0.00760339,0.00147871,0.00144025,-0.00784517,0.162074,0.00577042,0.018572,1007,1653,3.47223,-19.9158
-210,-629,3.39154,20.1934,0.00065709,-0.00865362,0.00192829,0.00104065,-0.00903717,0.196348,0.00639993,0.0391661,1014,1653,3.39156,-20.1933
-203,-629,3.77356,20.6492,0,0,0,0,0,0,0,-1,1021,1653,3.77361,-20.6491
-196,-629,3.95459,20.0453,-0.000509714,-0.0106934,0.00281337,0.000215827,-0.0114189,0.252391,0.00768555,0.0484368,1028,1653,3.95458,-20.0453
-189,-629,3.56152,20.4056,-0.000968048,-0.0106139,0.00318024,-1.39009e-05,-0.011568,0.291478,0.00770738,0.0443132,1035,1653,3.56151,-20.4057
-182,-629,3.66272,20.9895,0,0,0,0,0,0,0,-1,1042,1653,3.66271,-20.9894
-175,-629,3.29102,19.1411,0,0,0,0,0,0,0,-1,1049,1653,3.29096,-19.1411
-168,-629,4.07544,21.9481,0,0,0,0,0,0,0,-1,1056,1653,4.07538,-21.9481
-161,-629,3.7301,21.3842,0,0,0,0,0,0,0,-1,1063,1653,3.73005,-21.3842
-154,-629,3.38477,20.8203,0,0,0,0,0,0,0,-1,1070,1653,3.38471,-20.8203
-147,-629,3.99756,20.8602,0,0,0,0,0,0,0,-1,1077,1653,3.99754,-20.8602
-140,-629,2.34851,19.2911,0,0,0,0,0,0,0,-1,1084,1653,2.34853,-19.2911
-133,-629,3.41248,17.6686,0,0,0,0,0,0,0,-1,1091,1653,3.41243,-17.6686
-126,-629,4.01025,19.5328,0,0,0,0,0,0,0,-1,1098,1653,4.01022,-19.5328
-119,-629,4.94177,13.5525,0,0,0,0,0,0,0,-1,1105,1653,4.94172,-13.5525
-112,-629,5.63123,15.9187,0,0,0,0,0,0,0,-1,1112,1653,5.63118,-15.9187
-105,-629,2.15881,4.38342,0,0,0,0,0,0,0,-1,1119,1653,2.15878,-4.38347
-98,-629,0.825806,4.19385,0,0,0,0,0,0,0,-1,1126,1653,0.825779,-4.1939
-91,-629,-0.452271,3.64465,0,0,0,0,0,0,0,-1,1133,1653,-0.452278,-3.6446
-84,-629,-2.6084,0.466797,0,0,0,0,0,0,0,-1,1140,1653,-2.6084,-0.466786
-77,-629,-3.50903,2.10706,0,0,0,0,0,0,0,-1,1147,1653,-3.509,-2.10707
-70,-629,-1.20886,2.52502,0,0,0,0,0,0,0,-1,1154,1653,-1.20886,-2.525
-63,-629,-0.960693,4.30212,0,0,0,0,0,0,0,-1,1161,1653,-0.960691,-4.30215
-56,-629,-1.31934,5.64343,0,0,0,0,0,0,0,-1,1168,1653,-1.31928,-5.6434
-49,-629,-2.15662,2.57458,0,0,0,0,0,0,0,-1,1175,1653,-2.15656,-2.57459
-42,-629,-2.46326,3.91467,0,0,0,0,0,0,0,-1,1182,1653,-2.4633,-3.91466
-35,-629,-2.67261,5.24292,0,0,0,0,0,0,0,-1,1189,1653,-2.67257,-5.24298
-28,-629,-0.402954,-0.866577,0,0,0,0,0,0,0,-1,1196,1653,-0.402943,0.866612
-21,-629,10.063,9.59705,0,0,0,0,0,0,0,-1,1203,1653,10.063,-9.59708
-14,-629,7.52625,28.0013,0,0,0,0,0,0,0,-1,1210,1653,7.52621,-28.0013
-7,-629,7.92017,28.7902,0.0667144,0.100563,0.102448,0.187475,-0.0201983,0.867257,0.132231,0.0478237,1217,1653,7.92017,-28.7901
0,-629,8.39148,29.5367,0.0633107,0.102652,0.0783444,0.163757,0.00220518,0.908395,0.108444,0.0472734,1224,1653,8.39149,-29.5367
7,-629,8.92029,29.7137,0.0584284,0.102416,0.0545101,0.139202,0.0216421,0.977148,0.0864944,0.0456404,1231,1653,8.92026,-29.7137
14,-629,9.22815,30.1967,0,0,0,0,0,0,0,-1,1238,1653,9.22817,-30.1966
21,-629,6.76257,24.1729,0,0,0,0,0,0,0,-1,1245,1653,6.76255,-24.1728
28,-629,5.56006,25.5779,0,0,0,0,0,0,0,-1,1252,1653,5.56004,-25.5778
35,-629,5.65759,25.1111,0.0336748,0.0825637,-0.0277797,0.0951225,0.021116,-1.14621,0.0576795,0.0470961,1259,1653,5.65759,-25.1111
42,-629,5.83643,24.6111,0.0251372,0.0762539,-0.0427089,0.100468,0.000923302,-1.05503,0.0666729,0.0480067,1266,1653,5.83639,-24.6111
49,-629,6.00171,24.1311,0.014601,0.0771203,-0.0447565,0.100453,-0.00873156,-1.09024,0.0700607,0.0460188,1273,1653,6.00166,-24.1311
56,-629,6.22888,23.6318,0,0,0,0,0,0,0,-1,1280,1653,6.22891,-23.6318
63,-629,14.7468,28.7771,0,0,0,0,0,0,0,-1,1287,1653,14.7468,-28.7771
70,-629,14.5332,29.1698,0,0,0,0,0,0,0,-1,1294,1653,14.5332,-29.1698
77,-629,14.1647,29.9967,0,0,0,0,0,0,0,-1,1301,1653,14.1646,-29.9967
84,-629,14.0021,31.2772,0,0,0,0,0,0,0,-1,1308,1653,14.0021,-31.2772
91,-629,14.4558,32.3392,0,0,0,0,0,0,0,-1,1315,1653,14.4558,-32.3392
98,-629,8.59302,32.2521,0,0,0,0,0,0,0,-1,1322,1653,8.59308,-32.252
105,-629,8.24231,32.7404,-0.0214759,0.076647,0.0326038,0.0864925,-0.0313214,1.27753,0.0704622,0.0495353,1329,1653,8.24233,-32.7404
112,-629,8.08936,32.8906,0,0,0,0,0,0,0,-1,1336,1653,8.08931,-32.8906
119,-629,7.94128,33.2601,0.0222576,0.0584271,0.0216612,0.0685605,0.0121241,1.13323,0.0422495,0.0461423,1343,1653,7.94125,-33.2602
126,-629,8.09387,33.6563,0,0,0,0,0,0,0,-1,1350,1653,8.09392,-33.6562
133,-629,6.79236,19.7407,0,0,0,0,0,0,0,-1,1357,1653,6.7924,-19.7407
140,-629,7.76904,19.6522,0.109125,-0.0383755,0.0140716,0.110456,-0.0397059,0.0942669,0.0898463,0.0479804,1364,1653,7.76899,-19.6522
147,-629,8.58044,19.5884,0.132345,-0.0713034,0.0108474,0.132921,-0.0718795,0.0530654,0.11998,0.0483215,1371,1653,8.58049,-19.5884
154,-629,9.30969,19.5518,0,0,0,0,0,0,0,-1,1378,1653,9.3097,-19.5517
161,-629,10.5461,6.83752,0,0,0,0,0,0,0,-1,1385,1653,10.5461,-6.83758
168,-629,12.0059,5.56348,0,0,0,0,0,0,0,-1,1392,1653,12.0059,-5.56352
175,-629,5.84485,-1.78845,0,0,0,0,0,0,0,-1,1399,1653,5.84479,1.7884
182,-629,5.99036,-1.27783,0,0,0,0,0,0,0,-1,1406,1653,5.99041,1.27778
189,-629,5.97668,-0.748535,0,0,0,0,0,0,0,-1,1413,1653,5.97671,0.748544
196,-629,4.52869,9.24695,0,0,0,0,0,0,0,-1,1420,1653,4.52869,-9.2469
203,-629,3.75085,6.88037,0,0,0,0,0,0,0,-1,1427,1653,3.75087,-6.88032
210,-629,3.5907,6.52637,0,0,0,0,0,0,0,-1,1434,1653,3.59067,-6.52642
217,-629,2.4585,4.84448,0,0,0,0,0,0,0,-1,1441,1653,2.45855,-4.84448
224,-629,1.31982,3.68481,0,0,0,0,0,0,0,-1,1448,1653,1.31986,-3.68487
231,-629,3.63025,1.73499,0,0,0,0,0,0,0,-1,1455,1653,3.6303,-1.735
238,-629,4.26428,2.11255,0,0,0,0,0,0,0,-1,1462,1653,4.26429,-2.11253
245,-629,5.61816,1.95361,0,0,0,0,0,0,0,-1,1469,1653,5.61815,-1.95359
252,-629,7.27136,2.18982,0,0,0,0,0,0,0,-1,1476,1653,7.27131,-2.18985
259,-629,8.67334,2.18628,0,0,0,0,0,0,0,-1,1483,1653,8.6733,-2.18633
266,-629,6.86475,3.72058,0,0,0,0,0,0,0,-1,1490,1653,6.86479,-3.72063
273,-629,7.9021,3.8717,0,0,0,0,0,0,0,-1,1497,1653,7.90205,-3.87171
280,-629,9.70837,4.39087,0,0,0,0,0,0,0,-1,1504,1653,9.7084,-4.39082
287,-629,9.82947,7.19348,0,0,0,0,0,0,0,-1,1511,1653,9.8295,-7.19347
294,-629,6.56555,11.6359,0,0,0,0,0,0,0,-1,1518,1653,6.5656,-11.6358
301,-629,6.93835,15.6102,0,0,0,0,0,0,0,-1,1525,1653,6.93835,-15.6103
308,-629,6.08264,12.1423,0,0,0,0,0,0,0,-1,1532,1653,6.08263,-12.1423
315,-629,6.82043,18.2764,0,0,0,0,0,0,0,-1,1539,1653,6.82049,-18.2764
322,-629,7.99304,21.1477,0,0,0,0,0,0,0,-1,1546,1653,7.99302,-21.1477
329,-629,8.052,21.4109,0.00837176,0.0119545,-0.00435576,0.0148729,0.00545338,-0.980486,0.00868802,0.0418383,1553,1653,8.05194,-21.4109
336,-629,8.14453,21.1874,0.00732294,0.0106205,-0.0037774,0.0130933,0.00485018,-0.99118,0.00764356,0.0421613,1560,1653,8.14448,-21.1874
343,-629,8.21924,20.7423,0.00619595,0.00940822,-0.00317052,0.0113562,0.00424795,-1.01985,0.00662548,0.0436299,1567,1653,8.21918,-20.7424
350,-629,8.22974,20.5543,0.00509172,0.00827537,-0.00248537,0.00963499,0.00373211,-1.07022,0.00560963,0.0272877,1574,1653,8.22973,-20.5544
357,-629,8.27942,20.3239,0.00395051,0.0069842,-0.00163306,0.00769619,0.00323852,-1.15966,0.00446194,0.0162691,1581,1653,8.27937,-20.3239
364,-629,8.27771,20.1128,0.00303341,0.00580718,-0.000969884,0.00611267,0.00272792,-1.26566,0.00353594,0.0136267,1588,1653,8.27767,-20.1127
371,-629,8.26477,19.9218,0.00218508,0.00457407,-0.0001811,0.00458772,0.00217143,-1.49556,0.00264998,0.0104834,1595,1653,8.26475,-19.9218
378,-629,8.23987,19.7341,0.00134775,0.0035003,0.000483329,0.00360384,0.00124421,1.35975,0.00211364,0.00977647,1602,1653,8.23991,-19.7342
385,-629,8.2489,19.5342,0.000737508,0.00215286,0.000953069,0.00263226,0.000258111,1.10475,0.00167545,0.0115579,1609,1653,8.24889,-19.5342
392,-629,8.26221,19.3118,0.000344545,0.00119242,0.00126055,0.00209841,-0.000561443,0.947613,0.00161887,0.0103259,1616,1653,8.26223,-19.3118
399,-629,8.25659,19.0801,5.6875e-05,0.000632113,0.00142474,0.00179797,-0.00110899,0.884997,0.00169397,0.0112641,1623,1653,8.25656,-19.08
406,-629,8.24524,18.8605,-7.41993e-05,0.000187786,0.00143777,0.00150052,-0.00138693,0.830827,0.0016675,0.013754,1630,1653,8.24522,-18.8605
413,-629,8.24939,18.6467,-9.84692e-05,-0.000412022,0.00134292,0.0010968,-0.00160729,0.72729,0.00157045,0.0215312,1637,1653,8.24942,-18.6467
420,-629,8.25867,18.4326,-3.80886e-05,-0.000997376,0.00112258,0.000703025,-0.00173849,0.583503,0.00145125,0.0211024,1644,1653,8.25863,-18.4326
427,-629,8.24988,18.1849,3.90224e-05,-0.00186805,0.000978647,0.000451861,-0.00228089,0.399196,0.00169145,0.0138849,1651,1653,8.24992,-18.185
434,-629,8.25012,17.9404,0.000272004,-0.00247735,0.000668808,0.000426066,-0.00263141,0.226403,0.00191219,0.010838,1658,1653,8.25018,-17.9404
441,-629,8.2616,17.6902,0.000705621,-0.00303385,0.000233413,0.000720134,-0.00304836,0.0620974,0.00231001,0.014237,1665,1653,8.26154,-17.6902
448,-629,8.23547,17.4248,0.00117355,-0.00380704,-0.000170813,0.0011794,-0.00381289,-0.0342421,0.00301301,0.0139848,1672,1653,8.23545,-17.4248
455,-629,8.23645,17.1582,0.00151123,-0.00461797,-0.000390288,0.00153598,-0.00464272,-0.0633358,0.00371455,0.0136041,1679,1653,8.23641,-17.1581
462,-629,8.26868,16.9364,0.00186686,-0.00549625,-0.000577641,0.00191191,-0.00554129,-0.0778162,0.00446993,0.017294,1686,1653,8.26864,-16.9364
469,-629,8.25305,16.6744,0.00234856,-0.00620302,-0.000801555,0.00242305,-0.0062775,-0.0926564,0.00518497,0.0210106,1693,1653,8.25305,-16.6744
476,-629,8.26099,16.4387,0.00283601,-0.0065734,-0.00101604,0.00294447,-0.00668186,-0.106348,0.00569568,0.0282597,1700,1653,8.26101,-16.4388
483,-629,8.22681,16.0414,0.00312065,-0.00656451,-0.00132223,0.00329792,-0.00674178,-0.133273,0.005909,0.039405,1707,1653,8.22682,-16.0414
490,-629,8.4574,15.6647,0.00353345,-0.00615994,-0.00199903,0.00392952,-0.00655601,-0.195598,0.0061168,0.0474618,1714,1653,8.45745,-15.6647
497,-629,8.61401,15.5165,0,0,0,0,0,0,0,-1,1721,1653,8.61398,-15.5165
504,-629,8.03003,14.4595,0,0,0,0,0,0,0,-1,1728,1653,8.03001,-14.4594
511,-629,6.29138,3.40295,0,0,0,0,0,0,0,-1,1735,1653,6.29137,-3.403
518,-629,5.84387,1.41858,0,0,0,0,0,0,0,-1,1742,1653,5.84391,-1.4186
525,-629,6.4729,1.02319,0,0,0,0,0,0,0,-1,1749,1653,6.47284,-1.02316
532,-629,6.86511,0.903687,0,0,0,0,0,0,0,-1,1756,1653,6.86514,-0.903691
539,-629,6.60803,0.746704,0,0,0,0,0,0,0,-1,1763,1653,6.60809,-0.746691
546,-629,0,0,0,0,0,0,0,0,0,-1,1770,1653,0,0
553,-629,0,0,0,0,0,0,0,0,0,-1,1777,1653,0,0
560,-629,0,0,0,0,0,0,0,0,0,-1,1784,1653,0,0
567,-629,0,0,0,0,0,0,0,0,0,-1,1791,1653,0,0
574,-629,0,0,0,0,0,0,0,0,0,-1,1798,1653,0,0
581,-629,0,0,0,0,0,0,0,0,0,-1,1805,1653,0,0
588,-629,0,0,0,0,0,0,0,0,0,-1,1812,1653,0,0
595,-629,0,0,0,0,0,0,0,0,0,-1,1819,1653,0,0
602,-629,0,0,0,0,0,0,0,0,0,-1,1826,1653,0,0
609,-629,0,0,0,0,0,0,0,0,0,-1,1833,1653,0,0
616,-629,0,0,0,0,0,0,0,0,0,-1,1840,1653,0,0
623,-629,0,0,0,0,0,0,0,0,0,-1,1847,1653,0,0
630,-629,0,0,0,0,0,0,0,0,0,-1,1854,1653,0,0
637,-629,0,0,0,0,0,0,0,0,0,-1,1861,1653,0,0
644,-629,0,0,0,0,0,0,0,0,0,-1,1868,1653,0,0
651,-629,0,0,0,0,0,0,0,0,0,-1,1875,1653,0,0
658,-629,0,0,0,0,0,0,0,0,0,-1,1882,1653,0,0
665,-629,0,0,0,0,0,0,0,0,0,-1,1889,1653,0,0
672,-629,0,0,0,0,0,0,0,0,0,-1,1896,1653,0,0
679,-629,0,0,0,0,0,0,0,0,0,-1,1903,1653,0,0
686,-629,0,0,0,0,0,0,0,0,0,-1,1910,1653,0,0
693,-629,0,0,0,0,0,0,0,0,0,-1,1917,1653,0,0
700,-629,0,0,0,0,0,0,0,0,0,-1,1924,1653,0,0
707,-629,0,0,0,0,0,0,0,0,0,-1,1931,1653,0,0
714,-629,0,0,0,0,0,0,0,0,0,-1,1938,1653,0,0
721,-629,0,0,0,0,0,0,0,0,0,-1,1945,1653,0,0
728,-629,0,0,0,0,0,0,0,0,0,-1,1952,1653,0,0
735,-629,0,0,0,0,0,0,0,0,0,-1,1959,1653,0,0
742,-629,0,0,0,0,0,0,0,0,0,-1,1966,1653,0,0
749,-629,0,0,0,0,0,0,0,0,0,-1,1973,1653,0,0
756,-629,0,0,0,0,0,0,0,0,0,-1,1980,1653,0,0
763,-629,0,0,0,0,0,0,0,0,0,-1,1987,1653,0,0
770,-629,0,0,0,0,0,0,0,0,0,-1,1994,1653,0,0
777,-629,0,0,0,0,0,0,0,0,0,-1,2001,1653,0,0
784,-629,0,0,0,0,0,0,0,0,0,-1,2008,1653,0,0
791,-629,0,0,0,0,0,0,0,0,0,-1,2015,1653,0,0
798,-629,0,0,0,0,0,0,0,0,0,-1,2022,1653,0,0
805,-629,0,0,0,0,0,0,0,0,0,-1,2029,1653,0,0
812,-629,0,0,0,0,0,0,0,0,0,-1,2036,1653,0,0
-700,-636,0,0,0,0,0,0,0,0,0,-1,524,1660,0,0
-693,-636,0,0,0,0,0,0,0,0,0,-1,531,1660,0,0
-686,-636,0,0,0,0,0,0,0,0,0,-1,538,1660,0,0
-679,-636,0,0,0,0,0,0,0,0,0,-1,545,1660,0,0
-672,-636,0,0,0,0,0,0,0,0,0,-1,552,1660,0,0
-665,-636,0,0,0,0,0,0,0,0,0,-1,559,1660,0,0
-658,-636,0,0,0,0,0,0,0,0,0,-1,566,1660,0,0
-651,-636,0,0,0,0,0,0,0,0,0,-1,573,1660,0,0
-644,-636,0,0,0,0,0,0,0,0,0,-1,580,1660,0,0
-637,-636,0,0,0,0,0,0,0,0,0,-1,587,1660,0,0
-630,-636,0,0,0,0,0,0,0,0,0,-1,594,1660,0,0
-623,-636,0,0,0,0,0,0,0,0,0,-1,601,1660,0,0
-616,-636,0,0,0,0,0,0,0,0,0,-1,608,1660,0,0
-609,-636,0,0,0,0,0,0,0,0,0,-1,615,1660,0,0
-602,-636,0,0,0,0,0,0,0,0,0,-1,622,1660,0,0
-595,-636,0,0,0,0,0,0,0,0,0,-1,629,1660,0,0
-588,-636,0,0,0,0,0,0,0,0,0,-1,636,1660,0,0
-581,-636,0,0,0,0,0,0,0,0,0,-1,643,1660,0,0
-574,-636,0,0,0,0,0,0,0,0,0,-1,650,1660,0,0
-567,-636,0,0,0,0,0,0,0,0,0,-1,657,1660,0,0
-560,-636,0,0,0,0,0,0,0,0,0,-1,664,1660,0,0
-553,-636,0,0,0,0,0,0,0,0,0,-1,671,1660,0,0
-546,-636,0,0,0,0,0,0,0,0,0,-1,678,1660,0,0
-539,-636,0,0,0,0,0,0,0,0,0,-1,685,1660,0,0
-532,-636,0,0,0,0,0,0,0,0,0,-1,692,1660,0,0
-525,-636,0,0,0,0,0,0,0,0,0,-1,699,1660,0,0
-518,-636,0,0,0,0,0,0,0,0,0,-1,706,1660,0,0
-511,-636,0,0,0,0,0,0,0,0,0,-1,713,1660,0,0
-504,-636,0,0,0,0,0,0,0,0,0,-1,720,1660,0,0
-497,-636,0,0,0,0,0,0,0,0,0,-1,727,1660,0,0
-490,-636,0,0,0,0,0,0,0,0,0,-1,734,1660,0,0
-483,-636,0,0,0,0,0,0,0,0,0,-1,741,1660,0,0
-476,-636,0,0,0,0,0,0,0,0,0,-1,748,1660,0,0
-469,-636,0,0,0,0,0,0,0,0,0,-1,755,1660,0,0
-462,-636,0,0,0,0,0,0,0,0,0,-1,762,1660,0,0
-455,-636,0,0,0,0,0,0,0,0,0,-1,769,1660,0,0
-448,-636,0,0,0,0,0,0,0,0,0,-1,776,1660,0,0
-441,-636,0,0,0,0,0,0,0,0,0,-1,783,1660,0,0
-434,-636,0,0,0,0,0,0,0,0,0,-1,790,1660,0,0
-427,-636,0,0,0,0,0,0,0,0,0,-1,797,1660,0,0
-420,-636,0,0,0,0,0,0,0,0,0,-1,804,1660,0,0
-413,-636,0,0,0,0,0,0,0,0,0,-1,811,1660,0,0
-406,-636,-0.591125,10.6943,0,0,0,0,0,0,0,-1,818,1660,-0.59115,-10.6943
-399,-636,0.0766602,11.2408,0,0,0,0,0,0,0,-1,825,1660,0.076685,-11.2409
-392,-636,0.75946,11.9233,0,0,0,0,0,0,0,-1,832,1660,0.759481,-11.9233
-385,-636,1.68878,12.517,0,0,0,0,0,0,0,-1,839,1660,1.6888,-12.5169
-378,-636,2.22107,13.0013,0,0,0,0,0,0,0,-1,846,1660,2.22107,-13.0014
-371,-636,2.52185,11.9684,0,0,0,0,0,0,0,-1,853,1660,2.52184,-11.9684
-364,-636,2.94617,11.7798,0,0,0,0,0,0,0,-1,860,1660,2.94618,-11.7798
-357,-636,4.55682,15.8809,0,0,0,0,0,0,0,-1,867,1660,4.55681,-15.8808
-350,-636,2.63104,14.4946,0,0,0,0,0,0,0,-1,874,1660,2.63102,-14.4946
-343,-636,3.80756,15.7416,0,0,0,0,0,0,0,-1,881,1660,3.80754,-15.7415
-336,-636,3.55719,15.6591,-0.00439364,-0.00423011,-0.00257334,-0.00173724,-0.00688651,-0.801279,0.0041354,0.0345057,888,1660,3.5572,-15.6591
-329,-636,3.72113,15.896,-0.00322234,-0.00268351,-0.00181189,-0.00112111,-0.00478474,-0.859204,0.00288955,0.0181465,895,1660,3.72114,-15.896
-322,-636,3.74524,16.1747,-0.00227363,-0.00127375,-0.00106803,-0.000594438,-0.00295294,-1.0043,0.00180344,0.0114461,902,1660,3.74523,-16.1747
-315,-636,3.69861,16.458,-0.00186821,-0.000416883,-0.000694898,-0.000137823,-0.00214727,-1.18892,0.00138786,0.0119579,909,1660,3.69862,-16.458
-308,-636,3.69287,16.7404,-0.00162839,4.5478e-05,-0.000500802,0.00018387,-0.00176679,-1.30118,0.00124369,0.0112883,916,1660,3.69287,-16.7403
-301,-636,3.68829,17.0098,-0.00123935,0.000365118,-0.000414727,0.000465977,-0.00134021,-1.33223,0.00108276,0.0112519,923,1660,3.68827,-17.0097
-294,-636,3.65619,17.2755,-0.000821797,0.000266945,-0.000427326,0.000414634,-0.000969487,-1.23804,0.000820246,0.0140661,930,1660,3.6562,-17.2755
-287,-636,3.6637,17.5293,-0.000468341,0.000104905,-0.000422701,0.000328996,-0.000692432,-1.08333,0.000602037,0.0121165,937,1660,3.6637,-17.5293
-280,-636,3.67566,17.7893,-0.000143547,-0.000217817,-0.000489473,0.000310198,-0.000671562,-0.747537,0.000579477,0.0112755,944,1660,3.67563,-17.7893
-273,-636,3.67981,18.0356,0.000232576,-0.000579486,-0.000499856,0.000470531,-0.00081744,-0.444301,0.000752548,0.0116861,951,1660,3.6798,-18.0357
-266,-636,3.67181,18.2815,0.000736985,-0.00108223,-0.000450639,0.000842493,-0.00118774,-0.229989,0.00117779,0.0130401,958,1660,3.67184,-18.2815
-259,-636,3.6618,18.54,0.00120203,-0.0013916,-0.000422639,0.00126916,-0.00145873,-0.157525,0.00157622,0.0141153,965,1660,3.66182,-18.54
-252,-636,3.66211,18.7645,0.0016493,-0.00168195,-0.000291616,0.00167463,-0.00170728,-0.0866614,0.00195258,0.010956,972,1660,3.6621,-18.7645
-245,-636,3.68146,19.0223,0.00177937,-0.00231877,4.45384e-05,0.00177985,-0.00231925,0.0108662,0.00237344,0.0106858,979,1660,3.68143,-19.0223
-238,-636,3.69757,19.2473,0.00168427,-0.00297672,0.000310067,0.0017048,-0.00299726,0.0661355,0.00274871,0.0119194,986,1660,3.69757,-19.2473
-231,-636,3.69464,19.4731,0.00164253,-0.003624,0.00056802,0.00170309,-0.00368457,0.106227,0.00317992,0.0110257,993,1660,3.69463,-19.4732
-224,-636,3.71771,19.6921,0.00144946,-0.00435787,0.000879019,0.0015796,-0.004488,0.146978,0.00363481,0.0085093,1000,1660,3.71773,-19.6921
-217,-636,3.7066,19.936,0.00110392,-0.0051682,0.00125089,0.00134418,-0.00540846,0.189767,0.00412732,0.0115652,1007,1660,3.70658,-19.936
-210,-636,3.72888,20.1315,0.000834363,-0.00592858,0.00153155,0.00116503,-0.00625925,0.212642,0.00461051,0.0183097,1014,1660,3.72886,-20.1314
-203,-636,3.81067,20.3579,0.000579379,-0.00664702,0.00191128,0.00105375,-0.00712139,0.243278,0.00513501,0.0239792,1021,1660,3.81069,-20.3579
-196,-636,3.88574,20.5083,0.000194299,-0.00756898,0.00205606,0.000705212,-0.00807989,0.243558,0.00563639,0.0272971,1028,1660,3.88572,-20.5083
-189,-636,3.81653,20.7024,5.46477e-05,-0.00757259,0.00240771,0.000751103,-0.00826904,0.281575,0.00577936,0.0283636,1035,1660,3.81659,-20.7024
-182,-636,3.84583,20.8169,3.52389e-05,-0.00867456,0.00262369,0.000764523,-0.00940385,0.271116,0.00653899,0.0439359,1042,1660,3.84584,-20.8169
-175,-636,3.8927,20.8198,0,0,0,0,0,0,0,-1,1049,1660,3.89265,-20.8198
-168,-636,4.13342,21.3223,0,0,0,0,0,0,0,-1,1056,1660,4.13344,-21.3223
-161,-636,4.02612,21.4587,0.00279825,-0.00739192,0.00377604,0.00404496,-0.00863863,0.318895,0.00748126,0.0483089,1063,1660,4.02609,-21.4587
-154,-636,4.1676,21.4489,0.00454146,-0.00602901,0.00440594,0.00613707,-0.00762462,0.347457,0.00796077,0.047657,1070,1660,4.16759,-21.4488
-147,-636,4.56433,21.2014,0,0,0,0,0,0,0,-1,1077,1660,4.56435,-21.2014
-140,-636,4.92529,20.288,0,0,0,0,0,0,0,-1,1084,1660,4.92534,-20.2879
-133,-636,4.68311,18.0922,0,0,0,0,0,0,0,-1,1091,1660,4.68316,-18.0921
-126,-636,3.79028,18.2225,0,0,0,0,0,0,0,-1,1098,1660,3.79025,-18.2226
-119,-636,1.8667,13.8916,0,0,0,0,0,0,0,-1,1105,1660,1.86668,-13.8916
-112,-636,-1.24963,9.7998,0,0,0,0,0,0,0,-1,1112,1660,-1.24968,-9.79978
-105,-636,3.51624,4.72791,0,0,0,0,0,0,0,-1,1119,1660,3.51618,-4.7279
-98,-636,1.54504,5.11914,0,0,0,0,0,0,0,-1,1126,1660,1.54503,-5.11912
-91,-636,-1.87964,-2.25012,0,0,0,0,0,0,0,-1,1133,1660,-1.87966,2.25016
-84,-636,-2.84143,0.133667,0,0,0,0,0,0,0,-1,1140,1660,-2.84144,-0.133701
-77,-636,-3.57349,2.45935,0,0,0,0,0,0,0,-1,1147,1660,-3.57345,-2.45939
-70,-636,-4.23682,4.82312,0,0,0,0,0,0,0,-1,1154,1660,-4.23681,-4.82307
-63,-636,-2.21033,6.97168,0,0,0,0,0,0,0,-1,1161,1660,-2.21034,-6.97165
-56,-636,-2.51917,8.80359,0,0,0,0,0,0,0,-1,1168,1660,-2.51916,-8.80361
-49,-636,-3.13,10.4113,0,0,0,0,0,0,0,-1,1175,1660,-3.12996,-10.4112
-42,-636,-2.27771,4.90173,0,0,0,0,0,0,0,-1,1182,1660,-2.27775,-4.90173
-35,-636,-2.27698,5.89685,0,0,0,0,0,0,0,-1,1189,1660,-2.27695,-5.89686
-28,-636,-1.70654,4.83936,0,0,0,0,0,0,0,-1,1196,1660,-1.70656,-4.8393
-21,-636,-5.18445,24.8309,0,0,0,0,0,0,0,-1,1203,1660,-5.18442,-24.831
-14,-636,7.10229,27.9066,0,0,0,0,0,0,0,-1,1210,1660,7.1023,-27.9066
-7,-636,7.48328,28.7056,0.0639096,0.0979161,0.0945136,0.176944,-0.0151181,0.874397,0.123311,0.04722,1217,1660,7.48325,-28.7056
0,-636,8.19604,29.0222,0.0649105,0.10094,0.0757971,0.160834,0.00501676,0.902069,0.10559,0.0475893,1224,1660,8.19599,-29.0222
7,-636,8.35095,29.2251,0.063002,0.0996991,0.0552739,0.13959,0.0231107,0.945654,0.0863933,0.0469063,1231,1660,8.35099,-29.2251
14,-636,8.5304,29.8068,0,0,0,0,0,0,0,-1,1238,1660,8.53035,-29.8068
21,-636,6.51794,23.9331,0,0,0,0,0,0,0,-1,1245,1660,6.51795,-23.9331
28,-636,6.61853,24.2207,0.0495254,0.0793617,-0.000697981,0.079378,0.0495091,-1.54742,0.0462942,0.0460949,1252,1660,6.61858,-24.2207
35,-636,6.26636,24.3938,0.0424228,0.0700049,-0.0165479,0.0777551,0.0346726,-1.13279,0.0449794,0.04689,1259,1660,6.26636,-24.3938
42,-636,6.22485,24.162,0.033819,0.063051,-0.0283004,0.0802868,0.0165832,-1.02376,0.0489424,0.0489284,1266,1660,6.22489,-24.162
49,-636,6.34778,23.7196,0.0229584,0.0626976,-0.030495,0.0792251,0.00643091,-1.07414,0.0508089,0.0461901,1273,1660,6.3478,-23.7197
56,-636,6.5509,23.2223,0,0,0,0,0,0,0,-1,1280,1660,6.55087,-23.2222
63,-636,13.8961,27.8405,0,0,0,0,0,0,0,-1,1287,1660,13.8961,-27.8404
70,-636,13.7734,28.3346,0,0,0,0,0,0,0,-1,1294,1660,13.7735,-28.3346
77,-636,13.6372,29.1036,0,0,0,0,0,0,0,-1,1301,1660,13.6373,-29.1036
84,-636,13.4865,30.2483,0,0,0,0,0,0,0,-1,1308,1660,13.4864,-30.2483
91,-636,13.6475,31.3998,0,0,0,0,0,0,0,-1,1315,1660,13.6475,-31.3997
98,-636,8.27429,31.938,0,0,0,0,0,0,0,-1,1322,1660,8.27426,-31.938
105,-636,7.92041,32.2903,0,0,0,0,0,0,0,-1,1329,1660,7.92041,-32.2903
112,-636,7.4884,32.8113,0,0,0,0,0,0,0,-1,1336,1660,7.48842,-32.8113
119,-636,7.48438,32.3354,0,0,0,0,0,0,0,-1,1343,1660,7.48438,-32.3355
126,-636,7.32007,32.8564,0,0,0,0,0,0,0,-1,1350,1660,7.32012,-32.8564
133,-636,7.1687,20.0947,0,0,0,0,0,0,0,-1,1357,1660,7.16865,-20.0947
140,-636,7.74316,20.1361,0.12352,-0.0468825,0.0132357,0.124542,-0.0479044,0.077057,0.102787,0.0446241,1364,1660,7.74313,-20.1361
147,-636,8.57788,20.0394,0.144097,-0.0813062,0.0127508,0.144816,-0.0820252,0.0563294,0.132629,0.0444653,1371,1660,8.57788,-20.0394
154,-636,9.44995,19.9668,0,0,0,0,0,0,0,-1,1378,1660,9.44995,-19.9668
161,-636,10.2961,7.13025,0,0,0,0,0,0,0,-1,1385,1660,10.2961,-7.13021
168,-636,11.7659,5.83899,0,0,0,0,0,0,0,-1,1392,1660,11.7658,-5.83899
175,-636,5.94592,-1.72888,0,0,0,0,0,0,0,-1,1399,1660,5.94598,1.72886
182,-636,5.93994,-1.11938,0,0,0,0,0,0,0,-1,1406,1660,5.93998,1.11936
189,-636,5.32544,11.9595,0,0,0,0,0,0,0,-1,1413,1660,5.32542,-11.9595
196,-636,5.3623,9.38025,0,0,0,0,0,0,0,-1,1420,1660,5.36225,-9.38027
203,-636,5.18542,9.02429,0,0,0,0,0,0,0,-1,1427,1660,5.18547,-9.0243
210,-636,4.09167,7.17041,0,0,0,0,0,0,0,-1,1434,1660,4.09173,-7.17041
217,-636,2.94897,5.28992,0,0,0,0,0,0,0,-1,1441,1660,2.94899,-5.28991
224,-636,1.49194,3.63916,0,0,0,0,0,0,0,-1,1448,1660,1.49197,-3.63918
231,-636,0.17749,2.24854,0,0,0,0,0,0,0,-1,1455,1660,0.177501,-2.24855
238,-636,-0.764648,1.00598,0,0,0,0,0,0,0,-1,1462,1660,-0.764704,-1.00595
245,-636,6.21204,1.18005,0,0,0,0,0,0,0,-1,1469,1660,6.21206,-1.18001
252,-636,7.70251,0.865723,0,0,0,0,0,0,0,-1,1476,1660,7.7025,-0.865692
259,-636,9.03601,0.787231,0,0,0,0,0,0,0,-1,1483,1660,9.03598,-0.787243
266,-636,10.1071,3.24109,0,0,0,0,0,0,0,-1,1490,1660,10.1071,-3.24103
273,-636,8.48535,5.02466,0,0,0,0,0,0,0,-1,1497,1660,8.48533,-5.02472
280,-636,8.81384,5.66992,0,0,0,0,0,0,0,-1,1504,1660,8.81381,-5.66998
287,-636,6.08606,11.49,0,0,0,0,0,0,0,-1,1511,1660,6.08606,-11.49
294,-636,6.69592,15.9669,0,0,0,0,0,0,0,-1,1518,1660,6.69595,-15.9669
301,-636,7.67969,21.9915,0,0,0,0,0,0,0,-1,1525,1660,7.6797,-21.9915
308,-636,7.9856,21.7944,0,0,0,0,0,0,0,-1,1532,1660,7.9856,-21.7945
315,-636,7.87415,21.515,0,0,0,0,0,0,0,-1,1539,1660,7.87413,-21.515
322,-636,7.82947,21.1899,0.00754889,0.00756095,-0.00271868,0.0102736,0.00483623,-0.786508,0.00593485,0.0472683,1546,1660,7.82947,-21.19
329,-636,8.00464,21.0039,0.00649741,0.00786649,-0.00267393,0.00994211,0.00442178,-0.91071,0.00575175,0.0286171,1553,1660,8.0047,-21.0039
336,-636,8.06738,20.8953,0.00559958,0.00735037,-0.00235191,0.00898451,0.00396543,-0.963558,0.00519909,0.0224942,1560,1660,8.06734,-20.8952
343,-636,8.04224,20.7786,0.00470146,0.00672707,-0.00201774,0.00797193,0.0034566,-1.018,0.00461611,0.0202617,1567,1660,8.04223,-20.7786
350,-636,8.01636,20.5586,0.00388891,0.00604647,-0.00164492,0.0069348,0.00300058,-1.07563,0.00401589,0.0123375,1574,1660,8.01631,-20.5586
357,-636,8.02734,20.3529,0.00305182,0.00521538,-0.00116041,0.00572004,0.00254716,-1.16057,0.00330905,0.0110508,1581,1660,8.02736,-20.3529
364,-636,8.04089,20.1555,0.00238454,0.00438139,-0.000786939,0.00465423,0.0021117,-1.23705,0.00269096,0.0109234,1588,1660,8.04091,-20.1555
371,-636,8.03711,19.9492,0.00182697,0.0034765,-0.000367301,0.00355459,0.00174888,-1.36131,0.00205233,0.00859862,1595,1660,8.03713,-19.9492
378,-636,8.02869,19.7346,0.00129074,0.00262136,3.08695e-05,0.00262208,0.00129002,1.54761,0.00151392,0.00863883,1602,1660,8.02873,-19.7346
385,-636,8.03894,19.532,0.000944846,0.00154895,0.000311151,0.00168054,0.00081325,1.17068,0.00097043,0.013519,1609,1660,8.0389,-19.532
392,-636,8.03381,19.3096,0.000727339,0.000717652,0.00045253,0.00117505,0.00026994,0.780047,0.000710686,0.0150654,1616,1660,8.03382,-19.3096
399,-636,8.03259,19.0868,0.00054437,0.000180819,0.000530405,0.000923283,-0.000198095,0.620315,0.000691083,0.0121393,1623,1660,8.03264,-19.0868
406,-636,8.03796,18.8768,0.000509398,-0.000235857,0.000514408,0.000771961,-0.00049842,0.471947,0.0007391,0.0137681,1630,1660,8.03801,-18.8769
413,-636,8.05273,18.6188,0.000549963,-0.000835129,0.000421637,0.000668218,-0.000953384,0.27344,0.000941045,0.0213074,1637,1660,8.05275,-18.6188
420,-636,8.05164,18.3868,0.000611794,-0.00153323,0.000267323,0.000644607,-0.00156605,0.122136,0.00131276,0.0222132,1644,1660,8.0517,-18.3868
427,-636,8.00757,18.1777,0.000626975,-0.00255202,0.000251258,0.000646711,-0.00257175,0.0783884,0.00196586,0.0141201,1651,1660,8.00754,-18.1777
434,-636,8.01611,17.9321,0.000786686,-0.00332966,8.44288e-05,0.000788417,-0.00333139,0.0204991,0.0025251,0.0118738,1658,1660,8.01607,-17.9321
441,-636,8.02734,17.6733,0.00116241,-0.00416348,-0.000175707,0.0011682,-0.00416927,-0.0329435,0.00323989,0.0111852,1665,1660,8.02731,-17.6734
448,-636,8.03516,17.4225,0.00153612,-0.00526858,-0.000364308,0.00155557,-0.00528803,-0.0533346,0.00414241,0.0134565,1672,1660,8.0352,-17.4224
455,-636,8.03027,17.1677,0.00179677,-0.00639756,-0.000368838,0.00181334,-0.00641413,-0.0448904,0.00499156,0.0135399,1679,1660,8.03024,-17.1677
462,-636,8.01782,16.9146,0.00212288,-0.00770912,-0.000324629,0.00213359,-0.00771982,-0.0329697,0.00598586,0.018157,1686,1660,8.01781,-16.9145
469,-636,8.03845,16.7123,0.00262733,-0.00886351,-0.000353808,0.00263821,-0.00887439,-0.0307517,0.00696427,0.0293643,1693,1660,8.03842,-16.7123
476,-636,7.89368,16.9027,0.00331618,-0.00964119,-0.000517565,0.00333682,-0.00966183,-0.039859,0.0077953,0.0424664,1700,1660,7.89371,-16.9027
483,-636,7.82471,16.9733,0,0,0,0,0,0,0,-1,1707,1660,7.82471,-16.9733
490,-636,8.33203,15.4406,0,0,0,0,0,0,0,-1,1714,1660,8.332,-15.4405
497,-636,8.22961,13.3197,0,0,0,0,0,0,0,-1,1721,1660,8.22964,-13.3197
504,-636,9.88867,13.1873,0,0,0,0,0,0,0,-1,1728,1660,9.88867,-13.1872
511,-636,5.65466,9.23218,0,0,0,0,0,0,0,-1,1735,1660,5.65461,-9.23216
518,-636,6.72791,1.07605,0,0,0,0,0,0,0,-1,1742,1660,6.7279,-1.0761
525,-636,7.04309,0.93335,0,0,0,0,0,0,0,-1,1749,1660,7.04308,-0.933298
532,-636,0,0,0,0,0,0,0,0,0,-1,1756,1660,0,0
539,-636,0,0,0,0,0,0,0,0,0,-1,1763,1660,0,0
546,-636,0,0,0,0,0,0,0,0,0,-1,1770,1660,0,0
553,-636,0,0,0,0,0,0,0,0,0,-1,1777,1660,0,0
560,-636,0,0,0,0,0,0,0,0,0,-1,1784,1660,0,0
567,-636,0,0,0,0,0,0,0,0,0,-1,1791,1660,0,0
574,-636,0,0,0,0,0,0,0,0,0,-1,1798,1660,0,0
581,-636,0,0,0,0,0,0,0,0,0,-1,1805,1660,0,0
588,-636,0,0,0,0,0,0,0,0,0,-1,1812,1660,0,0
595,-636,0,0,0,0,0,0,0,0,0,-1,1819,1660,0,0
602,-636,0,0,0,0,0,0,0,0,0,-1,1826,1660,0,0
609,-636,0,0,0,0,0,0,0,0,0,-1,1833,1660,0,0
616,-636,0,0,0,0,0,0,0,0,0,-1,1840,1660,0,0
623,-636,0,0,0,0,0,0,0,0,0,-1,1847,1660,0,0
630,-636,0,0,0,0,0,0,0,0,0,-1,1854,1660,0,0
637,-636,0,0,0,0,0,0,0,0,0,-1,1861,1660,0,0
644,-636,0,0,0,0,0,0,0,0,0,-1,1868,1660,0,0
651,-636,0,0,0,0,0,0,0,0,0,-1,1875,1660,0,0
658,-636,0,0,0,0,0,0,0,0,0,-1,1882,1660,0,0
665,-636,0,0,0,0,0,0,0,0,0,-1,1889,1660,0,0
672,-636,0,0,0,0,0,0,0,0,0,-1,1896,1660,0,0
679,-636,0,0,0,0,0,0,0,0,0,-1,1903,1660,0,0
686,-636,0,0,0,0,0,0,0,0,0,-1,1910,1660,0,0
693,-636,0,0,0,0,0,0,0,0,0,-1,1917,1660,0,0
700,-636,0,0,0,0,0,0,0,0,0,-1,1924,1660,0,0
707,-636,0,0,0,0,0,0,0,0,0,-1,1931,1660,0,0
714,-636,0,0,0,0,0,0,0,0,0,-1,1938,1660,0,0
721,-636,0,0,0,0,0,0,0,0,0,-1,1945,1660,0,0
728,-636,0,0,0,0,0,0,0,0,0,-1,1952,1660,0,0
735,-636,0,0,0,0,0,0,0,0,0,-1,1959,1660,0,0
742,-636,0,0,0,0,0,0,0,0,0,-1,1966,1660,0,0
749,-636,0,0,0,0,0,0,0,0,0,-1,1973,1660,0,0
756,-636,0,0,0,0,0,0,0,0,0,-1,1980,1660,0,0
763,-636,0,0,0,0,0,0,0,0,0,-1,1987,1660,0,0
770,-636,0,0,0,0,0,0,0,0,0,-1,1994,1660,0,0
777,-636,0,0,0,0,0,0,0,0,0,-1,2001,1660,0,0
784,-636,0,0,0,0,0,0,0,0,0,-1,2008,1660,0,0
791,-636,0,0,0,0,0,0,0,0,0,-1,2015,1660,0,0
798,-636,0,0,0,0,0,0,0,0,0,-1,2022,1660,0,0
805,-636,0,0,0,0,0,0,0,0,0,-1,2029,1660,0,0
812,-636,0,0,0,0,0,0,0,0,0,-1,2036,1660,0,0
-700,-643,0,0,0,0,0,0,0,0,0,-1,524,1667,0,0
-693,-643,0,0,0,0,0,0,0,0,0,-1,531,1667,0,0
-686,-643,0,0,0,0,0,0,0,0,0,-1,538,1667,0,0
-679,-643,0,0,0,0,0,0,0,0,0,-1,545,1667,0,0
-672,-643,0,0,0,0,0,0,0,0,0,-1,552,1667,0,0
-665,-643,0,0,0,0,0,0,0,0,0,-1,559,1667,0,0
-658,-643,0,0,0,0,0,0,0,0,0,-1,566,1667,0,0
-651,-643,0,0,0,0,0,0,0,0,0,-1,573,1667,0,0
-644,-643,0,0,0,0,0,0,0,0,0,-1,580,1667,0,0
-637,-643,0,0,0,0,0,0,0,0,0,-1,587,1667,0,0
-630,-643,0,0,0,0,0,0,0,0,0,-1,594,1667,0,0
-623,-643,0,0,0,0,0,0,0,0,0,-1,601,1667,0,0
-616,-643,0,0,0,0,0,0,0,0,0,-1,608,1667,0,0
-609,-643,0,0,0,0,0,0,0,0,0,-1,615,1667,0,0
-602,-643,0,0,0,0,0,0,0,0,0,-1,622,1667,0,0
-595,-643,0,0,0,0,0,0,0,0,0,-1,629,1667,0,0
-588,-643,0,0,0,0,0,0,0,0,0,-1,636,1667,0,0
-581,-643,0,0,0,0,0,0,0,0,0,-1,643,1667,0,0
-574,-643,0,0,0,0,0,0,0,0,0,-1,650,1667,0,0
-567,-643,0,0,0,0,0,0,0,0,0,-1,657,1667,0,0
-560,-643,0,0,0,0,0,0,0,0,0,-1,664,1667,0,0
-553,-643,0,0,0,0,0,0,0,0,0,-1,671,1667,0,0
-546,-643,0,0,0,0,0,0,0,0,0,-1,678,1667,0,0
-539,-643,0,0,0,0,0,0,0,0,0,-1,685,1667,0,0
-532,-643,0,0,0,0,0,0,0,0,0,-1,692,1667,0,0
-525,-643,0,0,0,0,0,0,0,0,0,-1,699,1667,0,0
-518,-643,0,0,0,0,0,0,0,0,0,-1,706,1667,0,0
-511,-643,0,0,0,0,0,0,0,0,0,-1,713,1667,0,0
-504,-643,0,0,0,0,0,0,0,0,0,-1,720,1667,0,0
-497,-643,0,0,0,0,0,0,0,0,0,-1,727,1667,0,0
-490,-643,0,0,0,0,0,0,0,0,0,-1,734,1667,0,0
-483,-643,0,0,0,0,0,0,0,0,0,-1,741,1667,0,0
-476,-643,0,0,0,0,0,0,0,0,0,-1,748,1667,0,0
-469,-643,0,0,0,0,0,0,0,0,0,-1,755,1667,0,0
-462,-643,0,0,0,0,0,0,0,0,0,-1,762,1667,0,0
-455,-643,0,0,0,0,0,0,0,0,0,-1,769,1667,0,0
-448,-643,0,0,0,0,0,0,0,0,0,-1,776,1667,0,0
-441,-643,0,0,0,0,0,0,0,0,0,-1,783,1667,0,0
-434,-643,0,0,0,0,0,0,0,0,0,-1,790,1667,0,0
-427,-643,0,0,0,0,0,0,0,0,0,-1,797,1667,0,0
-420,-643,0,0,0,0,0,0,0,0,0,-1,804,1667,0,0
-413,-643,0,0,0,0,0,0,0,0,0,-1,811,1667,0,0
-406,-643,0,0,0,0,0,0,0,0,0,-1,818,1667,0,0
-399,-643,0.589417,11.6465,0,0,0,0,0,0,0,-1,825,1667,0.58939,-11.6465
-392,-643,0.865295,12.6523,0,0,0,0,0,0,0,-1,832,1667,0.865315,-12.6523
-385,-643,1.72968,13.2692,0,0,0,0,0,0,0,-1,839,1667,1.72967,-13.2692
-378,-643,2.66522,13.8193,0,0,0,0,0,0,0,-1,846,1667,2.66524,-13.8193
-371,-643,0.466125,3.35095,0,0,0,0,0,0,0,-1,853,1667,0.466148,-3.351
-364,-643,1.69513,9.922,0,0,0,0,0,0,0,-1,860,1667,1.69511,-9.92205
-357,-643,1.14227,10.8429,0,0,0,0,0,0,0,-1,867,1667,1.14228,-10.8429
-350,-643,2.50061,9.96948,0,0,0,0,0,0,0,-1,874,1667,2.50059,-9.96954
-343,-643,2.61505,6.17407,0,0,0,0,0,0,0,-1,881,1667,2.61504,-6.17412
-336,-643,3.98541,15.6779,0,0,0,0,0,0,0,-1,888,1667,3.98541,-15.6779
-329,-643,4.04419,15.9276,-0.00417011,-0.00248066,-0.00209347,-0.00106792,-0.00558285,-0.97716,0.00342193,0.0386325,895,1667,4.04418,-15.9276
-322,-643,4.06812,16.1798,-0.0031911,-0.00102416,-0.00127726,-0.000432722,-0.00378253,-1.13714,0.00239054,0.0261263,902,1667,4.06812,-16.1798
-315,-643,3.98126,16.468,-0.00270637,-0.000125287,-0.000853644,0.000131493,-0.00296316,-1.2786,0.00202069,0.0164451,909,1667,3.98123,-16.4681
-308,-643,3.9585,16.7405,-0.00241231,0.00042842,-0.000635993,0.000564309,-0.0025482,-1.3603,0.00191482,0.0125887,916,1667,3.9585,-16.7405
-301,-643,3.94641,17.0016,-0.00198171,0.000775967,-0.000555787,0.000883767,-0.00208951,-1.37922,0.00176305,0.0144384,923,1667,3.94643,-17.0016
-294,-643,3.91309,17.2482,-0.00147013,0.000837997,-0.000530075,0.000953911,-0.00158604,-1.35551,0.0014815,0.0119447,930,1667,3.91311,-17.2482
-287,-643,3.92084,17.5096,-0.00104512,0.000731846,-0.000490414,0.000858206,-0.00117148,-1.31862,0.00117649,0.00983438,937,1667,3.92087,-17.5096
-280,-643,3.91656,17.7839,-0.000701275,0.000499237,-0.000526516,0.000697433,-0.000899471,-1.21077,0.00092443,0.0132883,944,1667,3.91659,-17.7839
-273,-643,3.90991,18.0403,-0.000334752,0.000260406,-0.000493806,0.000539366,-0.000613712,-1.05657,0.000666191,0.0121401,951,1667,3.90989,-18.0403
-266,-643,3.90454,18.2919,0.000205884,-0.000134707,-0.000409342,0.000478941,-0.000407764,-0.588277,0.000512489,0.0119218,958,1667,3.90454,-18.2919
-259,-643,3.90955,18.5255,0.000674367,-0.000349917,-0.000366492,0.000791992,-0.000467542,-0.310562,0.00073519,0.0113609,965,1667,3.90952,-18.5255
-252,-643,3.91138,18.7693,0.00106673,-0.000560525,-0.00022882,0.0010983,-0.000592089,-0.137076,0.000990424,0.0123306,972,1667,3.91138,-18.7693
-245,-643,3.91388,19.0219,0.00121801,-0.0010625,5.27251e-05,0.00121923,-0.00106371,0.0231035,0.00131907,0.0118868,979,1667,3.91388,-19.0219
-238,-643,3.94958,19.2333,0.00118609,-0.00158619,0.000267282,0.00121162,-0.00161173,0.0952436,0.00163551,0.0154087,986,1667,3.94958,-19.2333
-231,-643,3.92505,19.4719,0.00117945,-0.00212415,0.000460683,0.00124249,-0.00218719,0.135993,0.00200501,0.0111547,993,1667,3.92506,-19.4719
-224,-643,3.93292,19.6864,0.00105074,-0.0027144,0.000689601,0.00117307,-0.00283672,0.175565,0.00238055,0.00881297,1000,1667,3.93289,-19.6864
-217,-643,3.92627,19.8723,0.000836459,-0.00337814,0.000941989,0.00103742,-0.0035791,0.210184,0.00279676,0.00823896,1007,1667,3.92626,-19.8723
-210,-643,3.93799,20.1058,0.000715227,-0.00399425,0.0011102,0.000963821,-0.00424284,0.220285,0.00319861,0.011329,1014,1667,3.93801,-20.1058
-203,-643,3.96375,20.3622,0.000643766,-0.0046207,0.00133258,0.000961861,-0.00493879,0.23432,0.00365557,0.013698,1021,1667,3.96373,-20.3622
-196,-643,3.9718,20.5717,0.000519763,-0.00529541,0.00145833,0.000864987,-0.00564063,0.232447,0.00407943,0.0132612,1028,1667,3.97182,-20.5717
-189,-643,4.02747,20.7394,0.000594418,-0.00531074,0.0017931,0.00109625,-0.00581257,0.272885,0.00428743,0.0132541,1035,1667,4.02747,-20.7393
-182,-643,4.06226,20.9103,0.000772994,-0.00585307,0.00198857,0.00132398,-0.00640405,0.270293,0.00477231,0.0206677,1042,1667,4.06229,-20.9103
-175,-643,4.11279,21.1154,0.00121496,-0.00586788,0.00227306,0.00188168,-0.0065346,0.285312,0.00510067,0.0338932,1049,1667,4.11279,-21.1154
-168,-643,4.16711,21.3,0.00200996,-0.00539309,0.00265376,0.00286296,-0.00624609,0.311001,0.00537866,0.0392555,1056,1667,4.16707,-21.3
-161,-643,4.14575,21.4751,0.00306512,-0.00439448,0.00308352,0.00417469,-0.00550405,0.345413,0.00560556,0.0463393,1063,1667,4.1457,-21.4751
-154,-643,4.15039,21.5532,0.00431948,-0.00320737,0.00363044,0.00578515,-0.00467304,0.383707,0.00604941,0.0478469,1070,1667,4.15035,-21.5532
-147,-643,4.19861,21.7416,0,0,0,0,0,0,0,-1,1077,1667,4.1986,-21.7415
-140,-643,4.3772,22.2817,0,0,0,0,0,0,0,-1,1084,1667,4.37715,-22.2817
-133,-643,3.66748,21.6034,0,0,0,0,0,0,0,-1,1091,1667,3.66743,-21.6034
-126,-643,3.13904,17.689,0,0,0,0,0,0,0,-1,1098,1667,3.13909,-17.689
-119,-643,3.76282,14.1458,0,0,0,0,0,0,0,-1,1105,1667,3.76283,-14.1458
-112,-643,3.81458,16.2069,0,0,0,0,0,0,0,-1,1112,1667,3.81463,-16.2069
-105,-643,-2.23413,10.0996,0,0,0,0,0,0,0,-1,1119,1667,-2.23415,-10.0996
-98,-643,3.11035,4.68066,0,0,0,0,0,0,0,-1,1126,1667,3.11041,-4.68071
-91,-643,-1.74146,-2.5885,0,0,0,0,0,0,0,-1,1133,1667,-1.74146,2.58856
-84,-643,-3.07446,-0.199341,0,0,0,0,0,0,0,-1,1140,1667,-3.07449,0.199383
-77,-643,-3.63794,2.81165,0,0,0,0,0,0,0,-1,1147,1667,-3.63791,-2.8117
-70,-643,-3.36938,4.45203,0,0,0,0,0,0,0,-1,1154,1667,-3.36941,-4.452
-63,-643,-3.67822,6.26855,0,0,0,0,0,0,0,-1,1161,1667,-3.67823,-6.26856
-56,-643,-3.95142,8.1073,0,0,0,0,0,0,0,-1,1168,1667,-3.95139,-8.10732
-49,-643,-4.23535,9.90552,0,0,0,0,0,0,0,-1,1175,1667,-4.23537,-9.90557
-42,-643,-4.25195,10.7059,0,0,0,0,0,0,0,-1,1182,1667,-4.25192,-10.706
-35,-643,-4.10986,11.6588,0,0,0,0,0,0,0,-1,1189,1667,-4.10982,-11.6589
-28,-643,-1.38513,5.604,0,0,0,0,0,0,0,-1,1196,1667,-1.3851,-5.60403
-21,-643,3.06104,8.47974,0,0,0,0,0,0,0,-1,1203,1667,3.06103,-8.47978
-14,-643,5.01135,20.7449,0,0,0,0,0,0,0,-1,1210,1667,5.01131,-20.7449
-7,-643,6.69812,27.3696,0,0,0,0,0,0,0,-1,1217,1667,6.69812,-27.3696
0,-643,7.35645,27.848,0.0608845,0.0933863,0.0665553,0.145646,0.00862481,0.905141,0.0943538,0.0453612,1224,1667,7.35646,-27.848
7,-643,7.76135,28.609,0.0608573,0.0918386,0.0501942,0.128878,0.0238177,0.935069,0.0791827,0.0433022,1231,1667,7.76138,-28.609
14,-643,7.39233,29.0955,0,0,0,0,0,0,0,-1,1238,1667,7.39234,-29.0954
21,-643,7.98279,29.7616,0,0,0,0,0,0,0,-1,1245,1667,7.98284,-29.7616
28,-643,6.80566,23.1132,0,0,0,0,0,0,0,-1,1252,1667,6.80572,-23.1132
35,-643,5.1698,23.3831,0,0,0,0,0,0,0,-1,1259,1667,5.16978,-23.3831
42,-643,6.44604,23.6191,0,0,0,0,0,0,0,-1,1266,1667,6.44604,-23.6192
49,-643,7.98706,22.9264,0,0,0,0,0,0,0,-1,1273,1667,7.98712,-22.9264
56,-643,12.8824,26.5712,0,0,0,0,0,0,0,-1,1280,1667,12.8824,-26.5711
63,-643,12.7985,26.9451,0,0,0,0,0,0,0,-1,1287,1667,12.7984,-26.9451
70,-643,12.678,27.3053,0,0,0,0,0,0,0,-1,1294,1667,12.678,-27.3053
77,-643,13.0912,28.2225,0,0,0,0,0,0,0,-1,1301,1667,13.0912,-28.2226
84,-643,12.9792,29.1506,0,0,0,0,0,0,0,-1,1308,1667,12.9792,-29.1506
91,-643,8.90637,31.7509,0,0,0,0,0,0,0,-1,1315,1667,8.90638,-31.7508
98,-643,7.90137,31.3259,0.0171282,0.0559621,0.00991836,0.0583486,0.0147416,1.33467,0.0350347,0.04753,1322,1667,7.90137,-31.326
105,-643,7.44434,31.8535,0,0,0,0,0,0,0,-1,1329,1667,7.44439,-31.8536
112,-643,6.63367,27.769,0,0,0,0,0,0,0,-1,1336,1667,6.6337,-27.7691
119,-643,7.01697,31.5415,0,0,0,0,0,0,0,-1,1343,1667,7.01694,-31.5415
126,-643,4.70337,19.9209,0,0,0,0,0,0,0,-1,1350,1667,4.7034,-19.9209
133,-643,6.6001,20.5714,0,0,0,0,0,0,0,-1,1357,1667,6.60012,-20.5714
140,-643,8.49683,21.2218,0,0,0,0,0,0,0,-1,1364,1667,8.49684,-21.2218
147,-643,8.54834,20.5763,0,0,0,0,0,0,0,-1,1371,1667,8.54831,-20.5763
154,-643,9.45691,20.5077,0,0,0,0,0,0,0,-1,1378,1667,9.45686,-20.5077
161,-643,18.7611,11.0951,0,0,0,0,0,0,0,-1,1385,1667,18.7611,-11.0951
168,-643,10.5563,10.9818,0,0,0,0,0,0,0,-1,1392,1667,10.5562,-10.9819
175,-643,5.88525,-1.1698,0,0,0,0,0,0,0,-1,1399,1667,5.88526,1.16977
182,-643,5.80945,-0.418701,0,0,0,0,0,0,0,-1,1406,1667,5.80949,0.418712
189,-643,5.42297,12.9208,0,0,0,0,0,0,0,-1,1413,1667,5.42298,-12.9208
196,-643,5.51953,11.2415,0,0,0,0,0,0,0,-1,1420,1667,5.51948,-11.2414
203,-643,5.60828,9.82153,0,0,0,0,0,0,0,-1,1427,1667,5.60833,-9.82148
210,-643,4.73218,7.58728,0,0,0,0,0,0,0,-1,1434,1667,4.73222,-7.58728
217,-643,3.8031,5.28955,0,0,0,0,0,0,0,-1,1441,1667,3.80305,-5.28955
224,-643,2.96436,2.97095,0,0,0,0,0,0,0,-1,1448,1667,2.96432,-2.97095
231,-643,2.13403,1.08472,0,0,0,0,0,0,0,-1,1455,1667,2.13403,-1.08467
238,-643,1.18152,-0.261963,0,0,0,0,0,0,0,-1,1462,1667,1.18152,0.26192
245,-643,-0.157471,-1.79016,0,0,0,0,0,0,0,-1,1469,1667,-0.157517,1.7901
252,-643,8.08789,0.0202637,0,0,0,0,0,0,0,-1,1476,1667,8.08791,-0.0203056
259,-643,9.02979,-0.46936,0,0,0,0,0,0,0,-1,1483,1667,9.02974,0.46933
266,-643,4.55066,5.17554,0,0,0,0,0,0,0,-1,1490,1667,4.55063,-5.17556
273,-643,4.34363,6.56836,0,0,0,0,0,0,0,-1,1497,1667,4.34363,-6.5684
280,-643,5.75854,14.5217,0,0,0,0,0,0,0,-1,1504,1667,5.75854,-14.5218
287,-643,6.81299,21.0212,0,0,0,0,0,0,0,-1,1511,1667,6.81297,-21.0212
294,-643,7.5697,22.3147,0,0,0,0,0,0,0,-1,1518,1667,7.56968,-22.3147
301,-643,7.59253,21.7708,0.00853317,0.00218558,-0.00162207,0.00892365,0.0017951,-0.236237,0.00545018,0.0482979,1525,1667,7.59256,-21.7707
308,-643,7.75623,21.5665,0.00759069,0.00334699,-0.00155017,0.00809663,0.00284105,-0.315477,0.00474337,0.0397178,1532,1667,7.75621,-21.5665
315,-643,7.69666,21.415,0.00672135,0.0040478,-0.00147746,0.00737703,0.00339212,-0.417674,0.00426371,0.038831,1539,1667,7.6967,-21.4151
322,-643,7.74707,21.2521,0.00586863,0.00490018,-0.00153719,0.00699606,0.00377275,-0.632815,0.00404333,0.0203289,1546,1667,7.74704,-21.2521
329,-643,7.75488,21.0793,0.00502462,0.00526152,-0.00155636,0.00670393,0.00358221,-0.823379,0.00387356,0.0126188,1553,1667,7.75485,-21.0793
336,-643,7.7323,20.9534,0.00425515,0.00509495,-0.0013737,0.00611149,0.00323861,-0.933724,0.00353058,0.011263,1560,1667,7.7323,-20.9534
343,-643,7.76367,20.783,0.00355733,0.00475619,-0.00122456,0.00552016,0.00279335,-1.01301,0.00318714,0.0133719,1567,1667,7.76362,-20.7829
350,-643,7.8092,20.5676,0.00294592,0.00426413,-0.00104774,0.00484284,0.00236721,-1.06616,0.00279625,0.0130489,1574,1667,7.80918,-20.5677
357,-643,7.79956,20.3682,0.00235272,0.00366329,-0.00084254,0.00407537,0.00194064,-1.11591,0.00235381,0.0113113,1581,1667,7.79951,-20.3682
364,-643,7.81567,20.1702,0.00189999,0.00299449,-0.00070622,0.00334068,0.0015538,-1.11502,0.0019303,0.00949816,1588,1667,7.81569,-20.1701
371,-643,7.82471,19.9668,0.00152829,0.00224382,-0.000519242,0.00251662,0.00125549,-1.08706,0.00145297,0.00701331,1595,1667,7.8247,-19.9669
378,-643,7.82104,19.7537,0.00118059,0.00151491,-0.000309009,0.00169907,0.000996424,-1.03333,0.000985835,0.00877977,1602,1667,7.82101,-19.7537
385,-643,7.82129,19.5531,0.00100249,0.000643944,-0.000177152,0.00107525,0.000571182,-0.38972,0.000621201,0.0148142,1609,1667,7.82134,-19.5531
392,-643,7.81409,19.3405,0.000896683,-8.44474e-05,-0.000155514,0.000920743,-0.000108507,-0.153494,0.000653009,0.0158668,1616,1667,7.81408,-19.3404
399,-643,7.82275,19.1284,0.000766413,-0.000597146,-0.000126045,0.000777966,-0.0006087,-0.0914064,0.000802578,0.0134878,1623,1667,7.82279,-19.1284
406,-643,7.8269,18.8793,0.000782027,-0.000972597,-0.000134624,0.000792296,-0.000982866,-0.0761312,0.00102686,0.0123163,1630,1667,7.82695,-18.8792
413,-643,7.83936,18.6257,0.000855887,-0.00153262,-0.000187768,0.000870558,-0.0015473,-0.0779745,0.00141406,0.0182899,1637,1667,7.83932,-18.6257
420,-643,7.81165,18.4122,0.000909693,-0.00231653,-0.000251153,0.000929128,-0.00233596,-0.0772273,0.00194255,0.0175686,1644,1667,7.81167,-18.4122
427,-643,7.78528,18.1901,0.000889612,-0.00342869,-0.000130122,0.00089353,-0.00343261,-0.0300962,0.0026372,0.014832,1651,1667,7.78525,-18.1901
434,-643,7.81213,17.9503,0.00100296,-0.004364,-0.000135361,0.00100638,-0.00436741,-0.0251998,0.00329864,0.0155411,1658,1667,7.81213,-17.9503
441,-643,7.82336,17.6913,0.00134642,-0.00553737,-0.00017325,0.00135077,-0.00554173,-0.0251466,0.00421748,0.0153908,1665,1667,7.8233,-17.6913
448,-643,7.75049,17.4114,0.00171949,-0.00706856,-0.000134681,0.00172155,-0.00707062,-0.0153206,0.0053802,0.0197558,1672,1667,7.7505,-17.4114
455,-643,7.75159,17.1792,0.00200508,-0.00863912,8.23053e-05,0.00200572,-0.00863975,0.00773179,0.00653188,0.0284423,1679,1667,7.75153,-17.1792
462,-643,7.89197,17.1852,0.00245767,-0.0105556,0.000284561,0.00246389,-0.0105619,0.021853,0.00799019,0.0395309,1686,1667,7.89196,-17.1851
469,-643,7.95447,17.095,0.0031671,-0.0124105,0.000366449,0.00317572,-0.0124191,0.0235068,0.00951629,0.0439983,1693,1667,7.95442,-17.095
476,-643,7.9248,16.9417,0,0,0,0,0,0,0,-1,1700,1667,7.9248,-16.9417
483,-643,7.52368,16.6023,0,0,0,0,0,0,0,-1,1707,1667,7.52366,-16.6023
490,-643,8.14941,13.4279,0,0,0,0,0,0,0,-1,1714,1667,8.14939,-13.4279
497,-643,9.11865,12.3346,0,0,0,0,0,0,0,-1,1721,1667,9.11869,-12.3345
504,-643,7.73755,12.0018,0,0,0,0,0,0,0,-1,1728,1667,7.73755,-12.0018
511,-643,4.22314,10.5032,0,0,0,0,0,0,0,-1,1735,1667,4.22314,-10.5032
518,-643,7.40564,0.922607,0,0,0,0,0,0,0,-1,1742,1667,7.4057,-0.922598
525,-643,0,0,0,0,0,0,0,0,0,-1,1749,1667,0,0
532,-643,0,0,0,0,0,0,0,0,0,-1,1756,1667,0,0
539,-643,0,0,0,0,0,0,0,0,0,-1,1763,1667,0,0
546,-643,0,0,0,0,0,0,0,0,0,-1,1770,1667,0,0
553,-643,0,0,0,0,0,0,0,0,0,-1,1777,1667,0,0
560,-643,0,0,0,0,0,0,0,0,0,-1,1784,1667,0,0
567,-643,0,0,0,0,0,0,0,0,0,-1,1791,1667,0,0
574,-643,0,0,0,0,0,0,0,0,0,-1,1798,1667,0,0
581,-643,0,0,0,0,0,0,0,0,0,-1,1805,1667,0,0
588,-643,0,0,0,0,0,0,0,0,0,-1,1812,1667,0,0
595,-643,0,0,0,0,0,0,0,0,0,-1,1819,1667,0,0
602,-643,0,0,0,0,0,0,0,0,0,-1,1826,1667,0,0
609,-643,0,0,0,0,0,0,0,0,0,-1,1833,1667,0,0
616,-643,0,0,0,0,0,0,0,0,0,-1,1840,1667,0,0
623,-643,0,0,0,0,0,0,0,0,0,-1,1847,1667,0,0
630,-643,0,0,0,0,0,0,0,0,0,-1,1854,1667,0,0
637,-643,0,0,0,0,0,0,0,0,0,-1,1861,1667,0,0
644,-643,0,0,0,0,0,0,0,0,0,-1,1868,1667,0,0
651,-643,0,0,0,0,0,0,0,0,0,-1,1875,1667,0,0
658,-643,0,0,0,0,0,0,0,0,0,-1,1882,1667,0,0
665,-643,0,0,0,0,0,0,0,0,0,-1,1889,1667,0,0
672,-643,0,0,0,0,0,0,0,0,0,-1,1896,1667,0,0
679,-643,0,0,0,0,0,0,0,0,0,-1,1903,1667,0,0
686,-643,0,0,0,0,0,0,0,0,0,-1,1910,1667,0,0
693,-643,0,0,0,0,0,0,0,0,0,-1,1917,1667,0,0
700,-643,0,0,0,0,0,0,0,0,0,-1,1924,1667,0,0
707,-643,0,0,0,0,0,0,0,0,0,-1,1931,1667,0,0
714,-643,0,0,0,0,0,0,0,0,0,-1,1938,1667,0,0
721,-643,0,0,0,0,0,0,0,0,0,-1,1945,1667,0,0
728,-643,0,0,0,0,0,0,0,0,0,-1,1952,1667,0,0
735,-643,0,0,0,0,0,0,0,0,0,-1,1959,1667,0,0
742,-643,0,0,0,0,0,0,0,0,0,-1,1966,1667,0,0
749,-643,0,0,0,0,0,0,0,0,0,-1,1973,1667,0,0
756,-643,0,0,0,0,0,0,0,0,0,-1,1980,1667,0,0
763,-643,0,0,0,0,0,0,0,0,0,-1,1987,1667,0,0
770,-643,0,0,0,0,0,0,0,0,0,-1,1994,1667,0,0
777,-643,0,0,0,0,0,0,0,0,0,-1,2001,1667,0,0
784,-643,0,0,0,0,0,0,0,0,0,-1,2008,1667,0,0
791,-643,0,0,0,0,0,0,0,0,0,-1,2015,1667,0,0
798,-643,0,0,0,0,0,0,0,0,0,-1,2022,1667,0,0
805,-643,0,0,0,0,0,0,0,0,0,-1,2029,1667,0,0
812,-643,0,0,0,0,0,0,0,0,0,-1,2036,1667,0,0
-700,-650,0,0,0,0,0,0,0,0,0,-1,524,1674,0,0
-693,-650,0,0,0,0,0,0,0,0,0,-1,531,1674,0,0
-686,-650,0,0,0,0,0,0,0,0,0,-1,538,1674,0,0
-679,-650,0,0,0,0,0,0,0,0,0,-1,545,1674,0,0
-672,-650,0,0,0,0,0,0,0,0,0,-1,552,1674,0,0
-665,-650,0,0,0,0,0,0,0,0,0,-1,559,1674,0,0
-658,-650,0,0,0,0,0,0,0,0,0,-1,566,1674,0,0
-651,-650,0,0,0,0,0,0,0,0,0,-1,573,1674,0,0
-644,-650,0,0,0,0,0,0,0,0,0,-1,580,1674,0,0
-637,-650,0,0,0,0,0,0,0,0,0,-1,587,1674,0,0
-630,-650,0,0,0,0,0,0,0,0,0,-1,594,1674,0,0
-623,-650,0,0,0,0,0,0,0,0,0,-1,601,1674,0,0
-616,-650,0,0,0,0,0,0,0,0,0,-1,608,1674,0,0
-609,-650,0,0,0,0,0,0,0,0,0,-1,615,1674,0,0
-602,-650,0,0,0,0,0,0,0,0,0,-1,622,1674,0,0
-595,-650,0,0,0,0,0,0,0,0,0,-1,629,1674,0,0
-588,-650,0,0,0,0,0,0,0,0,0,-1,636,1674,0,0
-581,-650,0,0,0,0,0,0,0,0,0,-1,643,1674,0,0
-574,-650,0,0,0,0,0,0,0,0,0,-1,650,1674,0,0
-567,-650,0,0,0,0,0,0,0,0,0,-1,657,1674,0,0
-560,-650,0,0,0,0,0,0,0,0,0,-1,664,1674,0,0
-553,-650,0,0,0,0,0,0,0,0,0,-1,671,1674,0,0
-546,-650,0,0,0,0,0,0,0,0,0,-1,678,1674,0,0
-539,-650,0,0,0,0,0,0,0,0,0,-1,685,1674,0,0
-532,-650,0,0,0,0,0,0,0,0,0,-1,692,1674,0,0
-525,-650,0,0,0,0,0,0,0,0,0,-1,699,1674,0,0
-518,-650,0,0,0,0,0,0,0,0,0,-1,706,1674,0,0
-511,-650,0,0,0,0,0,0,0,0,0,-1,713,1674,0,0
-504,-650,0,0,0,0,0,0,0,0,0,-1,720,1674,0,0
-497,-650,0,0,0,0,0,0,0,0,0,-1,727,1674,0,0
-490,-650,0,0,0,0,0,0,0,0,0,-1,734,1674,0,0
-483,-650,0,0,0,0,0,0,0,0,0,-1,741,1674,0,0
-476,-650,0,0,0,0,0,0,0,0,0,-1,748,1674,0,0
-469,-650,0,0,0,0,0,0,0,0,0,-1,755,1674,0,0
-462,-650,0,0,0,0,0,0,0,0,0,-1,762,1674,0,0
-455,-650,0,0,0,0,0,0,0,0,0,-1,769,1674,0,0
-448,-650,0,0,0,0,0,0,0,0,0,-1,776,1674,0,0
-441,-650,0,0,0,0,0,0,0,0,0,-1,783,1674,0,0
-434,-650,0,0,0,0,0,0,0,0,0,-1,790,1674,0,0
-427,-650,0,0,0,0,0,0,0,0,0,-1,797,1674,0,0
-420,-650,0,0,0,0,0,0,0,0,0,-1,804,1674,0,0
-413,-650,0,0,0,0,0,0,0,0,0,-1,811,1674,0,0
-406,-650,0,0,0,0,0,0,0,0,0,-1,818,1674,0,0
-399,-650,0,0,0,0,0,0,0,0,0,-1,825,1674,0,0
-392,-650,5.44415,6.85669,0,0,0,0,0,0,0,-1,832,1674,5.44414,-6.85674
-385,-650,1.74451,14.0183,0,0,0,0,0,0,0,-1,839,1674,1.74453,-14.0183
-378,-650,0.997986,4.11108,0,0,0,0,0,0,0,-1,846,1674,0.998006,-4.11113
-371,-650,-1.80096,3.78625,0,0,0,0,0,0,0,-1,853,1674,-1.80094,-3.78625
-364,-650,-2.95679,2.57507,0,0,0,0,0,0,0,-1,860,1674,-2.95681,-2.57506
-357,-650,1.97833,10.8362,0,0,0,0,0,0,0,-1,867,1674,1.97835,-10.8362
-350,-650,-5.30243,0.159912,0,0,0,0,0,0,0,-1,874,1674,-5.30244,-0.159866
-343,-650,-6.21338,-1.4425,0,0,0,0,0,0,0,-1,881,1674,-6.21341,1.44248
-336,-650,4.12695,15.7001,0,0,0,0,0,0,0,-1,888,1674,4.12697,-15.7
-329,-650,4.33148,15.9689,-0.00550221,-0.00202639,-0.00234979,-0.000841657,-0.00668694,-1.10381,0.00420558,0.0498701,895,1674,4.33146,-15.9689
-322,-650,4.43921,16.2045,-0.00446286,-0.000611863,-0.00150087,-9.6018e-05,-0.0049787,-1.23975,0.0032876,0.0444068,902,1674,4.43922,-16.2045
-315,-650,4.39813,16.4312,-0.00382149,0.000290983,-0.00111646,0.000574534,-0.00410504,-1.32208,0.00294693,0.0374392,909,1674,4.39813,-16.4312
-308,-650,4.23401,16.7205,-0.00343385,0.000816604,-0.00101559,0.0010468,-0.00366404,-1.3479,0.0028563,0.0218651,916,1674,4.23403,-16.7204
-301,-650,4.21686,17.0167,-0.00289584,0.00115353,-0.000951406,0.00136592,-0.00310823,-1.35116,0.00264764,0.0121128,923,1674,4.21683,-17.0167
-294,-650,4.17981,17.2635,-0.00222631,0.00135524,-0.000877982,0.00155889,-0.00242996,-1.34288,0.00232119,0.00986521,930,1674,4.17982,-17.2635
-287,-650,4.17041,17.5042,-0.00167359,0.00129693,-0.000780178,0.00148937,-0.00186603,-1.32896,0.00194131,0.0131749,937,1674,4.17041,-17.5041
-280,-650,4.15356,17.751,-0.00124308,0.00118467,-0.000732476,0.00138854,-0.00144696,-1.29933,0.00163719,0.0144192,944,1674,4.15356,-17.751
-273,-650,4.1405,18.0266,-0.000838098,0.00110343,-0.000598617,0.00127316,-0.00100783,-1.29451,0.0013199,0.0140198,951,1674,4.1405,-18.0266
-266,-650,4.12994,18.2848,-0.000224323,0.000841199,-0.000412666,0.000982328,-0.000365451,-1.24127,0.000804851,0.011272,958,1674,4.12992,-18.2847
-259,-650,4.14325,18.5192,0.000278966,0.000734515,-0.000293192,0.000878012,0.000135468,-1.11564,0.000545818,0.014024,965,1674,4.14325,-18.5191
-252,-650,4.15369,18.7665,0.000643574,0.00060005,-9.46998e-05,0.00071898,0.000524644,-0.672461,0.000429457,0.0129785,972,1674,4.15369,-18.7665
-245,-650,4.16663,18.9849,0.000832036,0.00022016,0.000181167,0.000881653,0.000170543,0.267321,0.000539974,0.0115195,979,1674,4.16662,-18.9849
-238,-650,4.15515,19.2196,0.000863164,-0.000195185,0.000389644,0.000991141,-0.000323162,0.317346,0.000790806,0.0132447,986,1674,4.15515,-19.2196
-231,-650,4.10577,19.504,0.000885357,-0.000671816,0.000555035,0.00106294,-0.000849399,0.309658,0.00110638,0.0176532,993,1674,4.10576,-19.5041
-224,-650,4.12268,19.7228,0.00079472,-0.00119577,0.000730368,0.00103396,-0.00143501,0.316545,0.00143172,0.0142496,1000,1674,4.12271,-19.7227
-217,-650,4.146,19.8934,0.000658554,-0.00181999,0.000876639,0.000937271,-0.00209871,0.307832,0.00179507,0.00999691,1007,1674,4.14598,-19.8935
-210,-650,4.1427,20.1193,0.000606956,-0.0024096,0.000931778,0.000871561,-0.0026742,0.276694,0.00213351,0.00956483,1014,1674,4.14269,-20.1192
-203,-650,4.17554,20.3557,0.000625163,-0.00304359,0.000999979,0.00088002,-0.00329845,0.249549,0.00254357,0.0135406,1021,1674,4.17558,-20.3557
-196,-650,4.18945,20.5392,0.00064733,-0.00356658,0.00108052,0.000908242,-0.00382749,0.236932,0.00290217,0.0124817,1028,1674,4.1895,-20.5391
-189,-650,4.18445,20.7164,0.000793424,-0.00361512,0.00132166,0.00115929,-0.00398099,0.270059,0.00311322,0.009967,1035,1674,4.18448,-20.7164
-182,-650,4.22937,20.9271,0.00103302,-0.00386323,0.00145381,0.00143216,-0.00426236,0.267941,0.00342041,0.00917882,1042,1674,4.22938,-20.9271
-175,-650,4.25159,21.1262,0.00148792,-0.00372885,0.00169334,0.00198937,-0.0042303,0.287904,0.0036678,0.0136279,1049,1674,4.25161,-21.1263
-168,-650,4.25513,21.3195,0.00214628,-0.00326757,0.00202838,0.00282192,-0.00394321,0.321536,0.00392369,0.0176488,1056,1674,4.25513,-21.3194
-161,-650,4.26514,21.5313,0.00295897,-0.00242077,0.00241657,0.00388507,-0.00334687,0.365964,0.00417921,0.0276088,1063,1674,4.26519,-21.5313
-154,-650,4.33081,21.6709,0.00389612,-0.00141486,0.0028617,0.00514459,-0.00266333,0.411378,0.00458315,0.0313501,1070,1674,4.33076,-21.6709
-147,-650,4.37463,21.8157,0.0047641,-0.000192462,0.00323585,0.00636167,-0.00179004,0.458604,0.00494695,0.0410858,1077,1674,4.37461,-21.8156
-140,-650,4.45166,22.2498,0.00600037,0.00157959,0.00347571,0.00790901,-0.000329044,0.50218,0.0053857,0.0450635,1084,1674,4.45166,-22.2498
-133,-650,4.49451,22.7412,0,0,0,0,0,0,0,-1,1091,1674,4.49455,-22.7412
-126,-650,4.93054,21.2018,0,0,0,0,0,0,0,-1,1098,1674,4.93057,-21.2018
-119,-650,5.16663,20.6232,0,0,0,0,0,0,0,-1,1105,1674,5.16665,-20.6232
-112,-650,3.86292,14.4513,0,0,0,0,0,0,0,-1,1112,1674,3.8629,-14.4513
-105,-650,4.9259,12.0626,0,0,0,0,0,0,0,-1,1119,1674,4.92591,-12.0626
-98,-650,3.3761,6.78003,0,0,0,0,0,0,0,-1,1126,1674,3.37611,-6.78009
-91,-650,3.66809,7.04443,0,0,0,0,0,0,0,-1,1133,1674,3.66806,-7.04439
-84,-650,-3.82666,-1.59521,0,0,0,0,0,0,0,-1,1140,1674,-3.82661,1.59517
-77,-650,-4.70557,1.90198,0,0,0,0,0,0,0,-1,1147,1674,-4.7056,-1.90194
-70,-650,-4.88171,3.81653,0,0,0,0,0,0,0,-1,1154,1674,-4.88176,-3.81651
-63,-650,-5.14612,5.56543,0,0,0,0,0,0,0,-1,1161,1674,-5.14612,-5.56547
-56,-650,-5.38367,7.41101,0,0,0,0,0,0,0,-1,1168,1674,-5.38361,-7.41102
-49,-650,-5.11316,8.23706,0,0,0,0,0,0,0,-1,1175,1674,-5.11317,-8.23708
-42,-650,-4.99487,9.6792,0,0,0,0,0,0,0,-1,1182,1674,-4.99484,-9.67921
-35,-650,-4.77771,11.3369,0,0,0,0,0,0,0,-1,1189,1674,-4.77769,-11.3369
-28,-650,-4.1936,13.1501,0,0,0,0,0,0,0,-1,1196,1674,-4.19358,-13.1501
-21,-650,4.74414,20.7709,0,0,0,0,0,0,0,-1,1203,1674,4.74415,-20.7709
-14,-650,4.77844,24.921,0,0,0,0,0,0,0,-1,1210,1674,4.7785,-24.921
-7,-650,5.41833,25.6078,0,0,0,0,0,0,0,-1,1217,1674,5.41836,-25.6078
0,-650,6.59497,26.8894,0,0,0,0,0,0,0,-1,1224,1674,6.59499,-26.8894
7,-650,6.92065,27.7029,0.0561784,0.0814197,0.0426492,0.113276,0.0243217,0.929252,0.0688574,0.0416968,1231,1674,6.92067,-27.7029
14,-650,7.04968,28.2638,0.0555045,0.075789,0.0303589,0.097655,0.0336385,0.946609,0.0572832,0.0437819,1238,1674,7.04965,-28.2638
21,-650,7.40332,28.545,0,0,0,0,0,0,0,-1,1245,1674,7.40332,-28.5451
28,-650,3.63147,23.708,0,0,0,0,0,0,0,-1,1252,1674,3.63149,-23.7079
35,-650,5.29126,23.4492,0.0442373,0.0497714,-0.00160234,0.0502019,0.0438069,-1.30835,0.031553,0.0460127,1259,1674,5.29121,-23.4492
42,-650,6.7384,23.1178,0,0,0,0,0,0,0,-1,1266,1674,6.73846,-23.1178
49,-650,8.10254,22.92,0,0,0,0,0,0,0,-1,1273,1674,8.10256,-22.9201
56,-650,9.52649,22.6489,0,0,0,0,0,0,0,-1,1280,1674,9.52652,-22.6489
63,-650,11.4541,26.4069,0,0,0,0,0,0,0,-1,1287,1674,11.4541,-26.4068
70,-650,7.47754,30.8395,0,0,0,0,0,0,0,-1,1294,1674,7.47757,-30.8395
77,-650,7.81006,30.3881,0,0,0,0,0,0,0,-1,1301,1674,7.8101,-30.3881
84,-650,9.3208,30.522,0,0,0,0,0,0,0,-1,1308,1674,9.32081,-30.522
91,-650,8.43054,30.6833,0,0,0,0,0,0,0,-1,1315,1674,8.43052,-30.6833
98,-650,7.65112,30.7341,0,0,0,0,0,0,0,-1,1322,1674,7.65106,-30.7341
105,-650,5.78064,26.9213,0,0,0,0,0,0,0,-1,1329,1674,5.7806,-26.9213
112,-650,6.22888,27.6471,0,0,0,0,0,0,0,-1,1336,1674,6.22887,-27.647
119,-650,2.35034,19.4479,0,0,0,0,0,0,0,-1,1343,1674,2.3503,-19.4478
126,-650,4.23315,20.0328,0.0801413,0.010068,0.00855636,0.081171,0.00903834,0.119762,0.0513669,0.0452669,1350,1674,4.2332,-20.0329
133,-650,6.01331,20.9788,0.0998839,-0.0184333,0.0106813,0.10084,-0.0193898,0.0893146,0.0745357,0.0488241,1357,1674,6.01327,-20.9787
140,-650,7.06091,21.0457,0,0,0,0,0,0,0,-1,1364,1674,7.0609,-21.0457
147,-650,8.54504,21.0895,0,0,0,0,0,0,0,-1,1371,1674,8.5451,-21.0894
154,-650,9.47449,21.0701,0,0,0,0,0,0,0,-1,1378,1674,9.47445,-21.07
161,-650,1.92163,18.5155,0,0,0,0,0,0,0,-1,1385,1674,1.92164,-18.5155
168,-650,11.2113,7.87231,0,0,0,0,0,0,0,-1,1392,1674,11.2113,-7.87236
175,-650,5.62537,-0.230713,0,0,0,0,0,0,0,-1,1399,1674,5.62538,0.230745
182,-650,5.56006,0.421631,0,0,0,0,0,0,0,-1,1406,1674,5.56,-0.421652
189,-650,4.81543,11.0654,0,0,0,0,0,0,0,-1,1413,1674,4.81542,-11.0654
196,-650,5.39575,11.9077,0,0,0,0,0,0,0,-1,1420,1674,5.39575,-11.9078
203,-650,3.93628,11.8215,0,0,0,0,0,0,0,-1,1427,1674,3.93624,-11.8216
210,-650,5.40955,8.08594,0,0,0,0,0,0,0,-1,1434,1674,5.40958,-8.086
217,-650,5.12451,4.69739,0,0,0,0,0,0,0,-1,1441,1674,5.12451,-4.69738
224,-650,4.79041,1.45813,0,0,0,0,0,0,0,-1,1448,1674,4.79046,-1.45816
231,-650,4.04102,-0.642212,0,0,0,0,0,0,0,-1,1455,1674,4.04101,0.642209
238,-650,3.23022,-1.43396,0,0,0,0,0,0,0,-1,1462,1674,3.23023,1.43394
245,-650,1.65894,-2.55042,0,0,0,0,0,0,0,-1,1469,1674,1.65889,2.55036
252,-650,8.75342,0.355103,0,0,0,0,0,0,0,-1,1476,1674,8.75337,-0.355147
259,-650,5.61255,3.17566,0,0,0,0,0,0,0,-1,1483,1674,5.61257,-3.17572
266,-650,4.00403,6.10229,0,0,0,0,0,0,0,-1,1490,1674,4.00401,-6.10225
273,-650,5.4093,14.3718,0,0,0,0,0,0,0,-1,1497,1674,5.40929,-14.3718
280,-650,7.1488,22.1783,0,0,0,0,0,0,0,-1,1504,1674,7.14884,-22.1784
287,-650,7.3656,22.0768,0,0,0,0,0,0,0,-1,1511,1674,7.36557,-22.0768
294,-650,7.50708,21.9994,0.00727862,0.000329976,-0.000922952,0.00739913,0.000209475,-0.129826,0.00486443,0.0422966,1518,1674,7.50712,-21.9994
301,-650,7.51245,21.6818,0.00646314,0.000967816,-0.000804763,0.00657857,0.000852387,-0.142461,0.004131,0.0335642,1525,1674,7.51241,-21.6817
308,-650,7.54602,21.6195,0.00576056,0.00191251,-0.000751263,0.00590203,0.00177104,-0.186129,0.00349716,0.0229528,1532,1674,7.54597,-21.6195
315,-650,7.53967,21.4983,0.00510175,0.00243824,-0.000547191,0.00520978,0.00233021,-0.194925,0.00301344,0.0154032,1539,1674,7.53963,-21.4983
322,-650,7.55371,21.3243,0.00442818,0.00311761,-0.000642753,0.00469079,0.002855,-0.387872,0.00272946,0.0112822,1546,1674,7.55372,-21.3243
329,-650,7.56042,21.104,0.00378087,0.0033693,-0.00075016,0.00435296,0.00279721,-0.651532,0.00254702,0.0151167,1553,1674,7.56036,-21.104
336,-650,7.55334,20.944,0.00318815,0.00330663,-0.000740728,0.00399048,0.0025043,-0.8253,0.00232877,0.0140021,1560,1674,7.55338,-20.9439
343,-650,7.57593,20.7645,0.00266235,0.00305614,-0.000785392,0.00366894,0.00204954,-0.908215,0.00212311,0.0136293,1567,1674,7.57588,-20.7645
350,-650,7.61316,20.5521,0.00222283,0.00260633,-0.000834022,0.00327036,0.0015588,-0.898389,0.00188883,0.0156354,1574,1674,7.61311,-20.5521
357,-650,7.60205,20.3527,0.00179401,0.00207757,-0.000855968,0.00280342,0.00106816,-0.867472,0.00163376,0.0132784,1581,1674,7.6021,-20.3526
364,-650,7.60303,20.166,0.00146657,0.00146111,-0.000907762,0.0023716,0.000556073,-0.783893,0.00143216,0.00920486,1588,1674,7.603,-20.166
371,-650,7.58728,19.9594,0.00120154,0.000780327,-0.000892959,0.00190839,7.34747e-05,-0.669588,0.00124849,0.0107017,1595,1674,7.58723,-19.9593
378,-650,7.57568,19.7386,0.000976939,0.000128081,-0.000811188,0.00146802,-0.000363004,-0.544373,0.00111948,0.0118702,1602,1674,7.57574,-19.7386
385,-650,7.5686,19.5222,0.000906981,-0.000580735,-0.000755238,0.00122317,-0.000896928,-0.396495,0.00122886,0.0136598,1609,1674,7.56866,-19.5222
392,-650,7.59387,19.3369,0.000872394,-0.00121979,-0.000771128,0.0011259,-0.00147329,-0.317614,0.0015051,0.0172955,1616,1674,7.59389,-19.3369
399,-650,7.59375,19.1317,0.000771022,-0.00170693,-0.000716725,0.000963394,-0.0018993,-0.262224,0.00168196,0.0156129,1623,1674,7.59379,-19.1317
406,-650,7.58618,18.8842,0.000828807,-0.00201891,-0.000658542,0.000973722,-0.00216383,-0.216602,0.00185439,0.0145379,1630,1674,7.58618,-18.8842
413,-650,7.5979,18.6438,0.000961465,-0.00249365,-0.000613785,0.00106726,-0.00259944,-0.17069,0.00217771,0.0151158,1637,1674,7.59788,-18.6438
420,-650,7.56946,18.4348,0.00106042,-0.00336288,-0.00044353,0.00110446,-0.00340691,-0.0989587,0.00271536,0.0150838,1644,1674,7.56943,-18.4348
427,-650,7.55835,18.2133,0.00105848,-0.00448585,-0.000224968,0.00106759,-0.00449497,-0.0404876,0.0034087,0.0144265,1651,1674,7.5583,-18.2133
434,-650,7.57288,17.9991,0.00119495,-0.00560325,-0.000113845,0.00119685,-0.00560516,-0.0167401,0.00419305,0.0168048,1658,1674,7.57291,-17.9991
441,-650,7.55005,17.7839,0.00157687,-0.00717058,3.68289e-05,0.00157703,-0.00717074,0.00421014,0.00538372,0.0280602,1665,1674,7.55004,-17.7839
448,-650,7.41187,17.5778,0.00202578,-0.00923991,0.000290395,0.00203326,-0.00924739,0.0257541,0.00694264,0.0447485,1672,1674,7.41186,-17.5778
455,-650,7.35583,17.2737,0,0,0,0,0,0,0,-1,1679,1674,7.35588,-17.2737
462,-650,7.71265,17.5073,0,0,0,0,0,0,0,-1,1686,1674,7.71265,-17.5074
469,-650,7.9469,17.446,0,0,0,0,0,0,0,-1,1693,1674,7.94688,-17.446
476,-650,7.37134,17.0817,0,0,0,0,0,0,0,-1,1700,1674,7.37136,-17.0817
483,-650,9.03516,12.6401,0,0,0,0,0,0,0,-1,1707,1674,9.03513,-12.6401
490,-650,8.48901,11.9618,0,0,0,0,0,0,0,-1,1714,1674,8.48906,-11.9618
497,-650,7.81238,11.5549,0,0,0,0,0,0,0,-1,1721,1674,7.81239,-11.5549
504,-650,4.06628,11.7836,0,0,0,0,0,0,0,-1,1728,1674,4.06624,-11.7836
511,-650,4.07861,10.9446,0,0,0,0,0,0,0,-1,1735,1674,4.07861,-10.9446
518,-650,0,0,0,0,0,0,0,0,0,-1,1742,1674,0,0
525,-650,0,0,0,0,0,0,0,0,0,-1,1749,1674,0,0
532,-650,0,0,0,0,0,0,0,0,0,-1,1756,1674,0,0
539,-650,0,0,0,0,0,0,0,0,0,-1,1763,1674,0,0
546,-650,0,0,0,0,0,0,0,0,0,-1,1770,1674,0,0
553,-650,0,0,0,0,0,0,0,0,0,-1,1777,1674,0,0
560,-650,0,0,0,0,0,0,0,0,0,-1,1784,1674,0,0
567,-650,0,0,0,0,0,0,0,0,0,-1,1791,1674,0,0
574,-650,0,0,0,0,0,0,0,0,0,-1,1798,1674,0,0
581,-650,0,0,0,0,0,0,0,0,0,-1,1805,1674,0,0
588,-650,0,0,0,0,0,0,0,0,0,-1,1812,1674,0,0
595,-650,0,0,0,0,0,0,0,0,0,-1,1819,1674,0,0
602,-650,0,0,0,0,0,0,0,0,0,-1,1826,1674,0,0
609,-650,0,0,0,0,0,0,0,0,0,-1,1833,1674,0,0
616,-650,0,0,0,0,0,0,0,0,0,-1,1840,1674,0,0
623,-650,0,0,0,0,0,0,0,0,0,-1,1847,1674,0,0
630,-650,0,0,0,0,0,0,0,0,0,-1,1854,1674,0,0
637,-650,0,0,0,0,0,0,0,0,0,-1,1861,1674,0,0
644,-650,0,0,0,0,0,0,0,0,0,-1,1868,1674,0,0
651,-650,0,0,0,0,0,0,0,0,0,-1,1875,1674,0,0
658,-650,0,0,0,0,0,0,0,0,0,-1,1882,1674,0,0
665,-650,0,0,0,0,0,0,0,0,0,-1,1889,1674,0,0
672,-650,0,0,0,0,0,0,0,0,0,-1,1896,1674,0,0
679,-650,0,0,0,0,0,0,0,0,0,-1,1903,1674,0,0
686,-650,0,0,0,0,0,0,0,0,0,-1,1910,1674,0,0
693,-650,0,0,0,0,0,0,0,0,0,-1,1917,1674,0,0
700,-650,0,0,0,0,0,0,0,0,0,-1,1924,1674,0,0
707,-650,0,0,0,0,0,0,0,0,0,-1,1931,1674,0,0
714,-650,0,0,0,0,0,0,0,0,0,-1,1938,1674,0,0
721,-650,0,0,0,0,0,0,0,0,0,-1,1945,1674,0,0
728,-650,0,0,0,0,0,0,0,0,0,-1,1952,1674,0,0
735,-650,0,0,0,0,0,0,0,0,0,-1,1959,1674,0,0
742,-650,0,0,0,0,0,0,0,0,0,-1,1966,1674,0,0
749,-650,0,0,0,0,0,0,0,0,0,-1,1973,1674,0,0
756,-650,0,0,0,0,0,0,0,0,0,-1,1980,1674,0,0
763,-650,0,0,0,0,0,0,0,0,0,-1,1987,1674,0,0
770,-650,0,0,0,0,0,0,0,0,0,-1,1994,1674,0,0
777,-650,0,0,0,0,0,0,0,0,0,-1,2001,1674,0,0
784,-650,0,0,0,0,0,0,0,0,0,-1,2008,1674,0,0
791,-650,0,0,0,0,0,0,0,0,0,-1,2015,1674,0,0
798,-650,0,0,0,0,0,0,0,0,0,-1,2022,1674,0,0
805,-650,0,0,0,0,0,0,0,0,0,-1,2029,1674,0,0
812,-650,0,0,0,0,0,0,0,0,0,-1,2036,1674,0,0
-700,-657,0,0,0,0,0,0,0,0,0,-1,524,1681,0,0
-693,-657,0,0,0,0,0,0,0,0,0,-1,531,1681,0,0
-686,-657,0,0,0,0,0,0,0,0,0,-1,538,1681,0,0
-679,-657,0,0,0,0,0,0,0,0,0,-1,545,1681,0,0
-672,-657,0,0,0,0,0,0,0,0,0,-1,552,1681,0,0
-665,-657,0,0,0,0,0,0,0,0,0,-1,559,1681,0,0
-658,-657,0,0,0,0,0,0,0,0,0,-1,566,1681,0,0
-651,-657,0,0,0,0,0,0,0,0,0,-1,573,1681,0,0
-644,-657,0,0,0,0,0,0,0,0,0,-1,580,1681,0,0
-637,-657,0,0,0,0,0,0,0,0,0,-1,587,1681,0,0
-630,-657,0,0,0,0,0,0,0,0,0,-1,594,1681,0,0
-623,-657,0,0,0,0,0,0,0,0,0,-1,601,1681,0,0
-616,-657,0,0,0,0,0,0,0,0,0,-1,608,1681,0,0
-609,-657,0,0,0,0,0,0,0,0,0,-1,615,1681,0,0
-602,-657,0,0,0,0,0,0,0,0,0,-1,622,1681,0,0
-595,-657,0,0,0,0,0,0,0,0,0,-1,629,1681,0,0
-588,-657,0,0,0,0,0,0,0,0,0,-1,636,1681,0,0
-581,-657,0,0,0,0,0,0,0,0,0,-1,643,1681,0,0
-574,-657,0,0,0,0,0,0,0,0,0,-1,650,1681,0,0
-567,-657,0,0,0,0,0,0,0,0,0,-1,657,1681,0,0
-560,-657,0,0,0,0,0,0,0,0,0,-1,664,1681,0,0
-553,-657,0,0,0,0,0,0,0,0,0,-1,671,1681,0,0
-546,-657,0,0,0,0,0,0,0,0,0,-1,678,1681,0,0
-539,-657,0,0,0,0,0,0,0,0,0,-1,685,1681,0,0
-532,-657,0,0,0,0,0,0,0,0,0,-1,692,1681,0,0
-525,-657,0,0,0,0,0,0,0,0,0,-1,699,1681,0,0
-518,-657,0,0,0,0,0,0,0,0,0,-1,706,1681,0,0
-511,-657,0,0,0,0,0,0,0,0,0,-1,713,1681,0,0
-504,-657,0,0,0,0,0,0,0,0,0,-1,720,1681,0,0
-497,-657,0,0,0,0,0,0,0,0,0,-1,727,1681,0,0
-490,-657,0,0,0,0,0,0,0,0,0,-1,734,1681,0,0
-483,-657,0,0,0,0,0,0,0,0,0,-1,741,1681,0,0
-476,-657,0,0,0,0,0,0,0,0,0,-1,748,1681,0,0
-469,-657,0,0,0,0,0,0,0,0,0,-1,755,1681,0,0
-462,-657,0,0,0,0,0,0,0,0,0,-1,762,1681,0,0
-455,-657,0,0,0,0,0,0,0,0,0,-1,769,1681,0,0
-448,-657,0,0,0,0,0,0,0,0,0,-1,776,1681,0,0
-441,-657,0,0,0,0,0,0,0,0,0,-1,783,1681,0,0
-434,-657,0,0,0,0,0,0,0,0,0,-1,790,1681,0,0
-427,-657,0,0,0,0,0,0,0,0,0,-1,797,1681,0,0
-420,-657,0,0,0,0,0,0,0,0,0,-1,804,1681,0,0
-413,-657,0,0,0,0,0,0,0,0,0,-1,811,1681,0,0
-406,-657,0,0,0,0,0,0,0,0,0,-1,818,1681,0,0
-399,-657,0,0,0,0,0,0,0,0,0,-1,825,1681,0,0
-392,-657,0,0,0,0,0,0,0,0,0,-1,832,1681,0,0
-385,-657,1.09814,6.18896,0,0,0,0,0,0,0,-1,839,1681,1.09814,-6.18894
-378,-657,0.31488,4.46753,0,0,0,0,0,0,0,-1,846,1681,0.31487,-4.46755
-371,-657,-0.519043,2.69421,0,0,0,0,0,0,0,-1,853,1681,-0.519064,-2.69422
-364,-657,-3.42017,4.18323,0,0,0,0,0,0,0,-1,860,1681,-3.42019,-4.18319
-357,-657,-4.41913,2.97168,0,0,0,0,0,0,0,-1,867,1681,-4.41913,-2.97165
-350,-657,-5.42291,1.70276,0,0,0,0,0,0,0,-1,874,1681,-5.42291,-1.70277
-343,-657,-6.51294,0.397339,0,0,0,0,0,0,0,-1,881,1681,-6.51295,-0.397335
-336,-657,2.4696,15.2997,0,0,0,0,0,0,0,-1,888,1681,2.46961,-15.2996
-329,-657,4.6853,15.9128,0,0,0,0,0,0,0,-1,895,1681,4.6853,-15.9128
-322,-657,4.84894,16.0463,-0.00606792,3.27054e-05,-0.00168341,0.000466396,-0.00650161,-1.31865,0.00449794,0.047785,902,1681,4.84893,-16.0463
-315,-657,4.53186,16.4415,-0.00506242,0.000909672,-0.00138485,0.00121517,-0.00536792,-1.35367,0.00404498,0.0447525,909,1681,4.53184,-16.4415
-308,-657,4.52148,16.7108,-0.00443609,0.00135742,-0.00150141,0.0017234,-0.00480207,-1.3317,0.00390475,0.0376573,916,1681,4.52151,-16.7108
-301,-657,4.51886,16.9969,-0.00375094,0.00153448,-0.00153052,0.00194568,-0.00416214,-1.30832,0.00360292,0.0279121,923,1681,4.51886,-16.997
-294,-657,4.44385,17.281,-0.0029059,0.0017128,-0.00144072,0.00212536,-0.00331846,-1.29191,0.00316805,0.0154045,930,1681,4.44383,-17.281
-287,-657,4.40509,17.535,-0.00223351,0.00168257,-0.00132075,0.00208638,-0.00263732,-1.27408,0.0027334,0.0119884,937,1681,4.40507,-17.535
-280,-657,4.37567,17.7593,-0.00176538,0.00175893,-0.00119823,0.00212772,-0.00213418,-1.27222,0.00246061,0.013002,944,1681,4.37566,-17.7593
-273,-657,4.38995,18.0277,-0.00138077,0.00190321,-0.000911901,0.00213943,-0.001617,-1.31732,0.00217576,0.00983086,951,1681,4.38998,-18.0277
-266,-657,4.37299,18.2742,-0.000719507,0.00184482,-0.000573803,0.00196736,-0.000842048,-1.3604,0.00166482,0.0143081,958,1681,4.37297,-18.2742
-259,-657,4.38342,18.5167,-0.000194418,0.00191101,-0.000329419,0.00196135,-0.000244756,-1.41916,0.00139632,0.0190066,965,1681,4.38343,-18.5167
-252,-657,4.35907,18.7534,0.000133552,0.00190342,-1.2525e-05,0.00190351,0.000133464,-1.56372,0.00122694,0.0134736,972,1681,4.35905,-18.7534
-245,-657,4.39471,18.968,0.000361114,0.00167705,0.000323069,0.00175208,0.000286077,1.34258,0.00108534,0.0142952,979,1681,4.39473,-18.968
-238,-657,4.38568,19.2322,0.000464117,0.00138435,0.000586031,0.00166931,0.000179155,1.1182,0.00105822,0.0200044,986,1681,4.38569,-19.2322
-231,-657,4.37579,19.4939,0.000535219,0.000961532,0.000777284,0.00155436,-5.76057e-05,0.919224,0.00105596,0.0209385,993,1681,4.37581,-19.4939
-224,-657,4.35669,19.7344,0.000498614,0.00046842,0.000945398,0.00142904,-0.000462002,0.777414,0.00113838,0.016016,1000,1681,4.35669,-19.7343
-217,-657,4.36621,19.9325,0.0004464,-0.000173375,0.00101714,0.00119981,-0.000926785,0.637532,0.00123116,0.0101836,1007,1681,4.36623,-19.9325
-210,-657,4.36475,20.1449,0.000463398,-0.000813437,0.00100123,0.00101243,-0.00136247,0.501581,0.0013761,0.0102327,1014,1681,4.36473,-20.1449
-203,-657,4.39148,20.3628,0.000569634,-0.00147679,0.00098796,0.000968755,-0.00187591,0.383936,0.00166997,0.0123868,1021,1681,4.3915,-20.3628
-196,-657,4.40002,20.5497,0.00067115,-0.00198607,0.000969832,0.000987465,-0.00230238,0.315276,0.00194931,0.0135454,1028,1681,4.40002,-20.5497
-189,-657,4.40076,20.7299,0.00081599,-0.00219981,0.00106466,0.00115397,-0.00253779,0.30739,0.00218078,0.00989659,1035,1681,4.40081,-20.7299
-182,-657,4.40149,20.9125,0.00104144,-0.0023454,0.00109088,0.0013624,-0.00266635,0.286139,0.00236626,0.00789172,1042,1681,4.40147,-20.9125
-175,-657,4.41443,21.1189,0.0014423,-0.00220603,0.00123127,0.00181895,-0.00258269,0.296867,0.00255401,0.0100383,1049,1681,4.41445,-21.1189
-168,-657,4.41199,21.3154,0.00197021,-0.00183777,0.00148868,0.0024831,-0.00235066,0.331795,0.00279113,0.0121785,1056,1681,4.412,-21.3154
-161,-657,4.41541,21.4886,0.00260834,-0.00116597,0.00180278,0.00333105,-0.00188868,0.381268,0.00305172,0.0120694,1063,1681,4.41537,-21.4887
-154,-657,4.44482,21.6648,0.00335087,-0.000345567,0.00214849,0.00433671,-0.00133141,0.430193,0.00342239,0.0119817,1070,1681,4.44487,-21.6648
-147,-657,4.48279,21.8361,0.00402833,0.000553904,0.00243241,0.00528019,-0.000697949,0.475303,0.00377435,0.0166007,1077,1681,4.48283,-21.836
-140,-657,4.46851,22.0696,0.00492119,0.00180171,0.00261847,0.00640927,0.000313634,0.516784,0.00417223,0.0271624,1084,1681,4.46854,-22.0696
-133,-657,4.40527,22.2856,0.00586676,0.00278366,0.00307134,0.00776171,0.00088871,0.552809,0.00490514,0.0381879,1091,1681,4.40522,-22.2857
-126,-657,4.40222,22.5231,0,0,0,0,0,0,0,-1,1098,1681,4.40224,-22.5231
-119,-657,4.82446,22.5922,0,0,0,0,0,0,0,-1,1105,1681,4.82447,-22.5922
-112,-657,4.6051,21.3439,0,0,0,0,0,0,0,-1,1112,1681,4.60512,-21.3438
-105,-657,3.82434,14.4906,0,0,0,0,0,0,0,-1,1119,1681,3.8244,-14.4906
-98,-657,3.78662,8.16785,0,0,0,0,0,0,0,-1,1126,1681,3.78663,-8.16786
-91,-657,3.6521,16.6017,0,0,0,0,0,0,0,-1,1133,1681,3.65215,-16.6017
-84,-657,4.08008,10.4579,0,0,0,0,0,0,0,-1,1140,1681,4.08006,-10.4579
-77,-657,-5.29846,0.396606,0,0,0,0,0,0,0,-1,1147,1681,-5.29842,-0.396573
-70,-657,-4.14893,2.14575,0,0,0,0,0,0,0,-1,1154,1681,-4.14893,-2.1458
-63,-657,-4.1239,3.177,0,0,0,0,0,0,0,-1,1161,1681,-4.12391,-3.17698
-56,-657,-6.40576,5.73987,0,0,0,0,0,0,0,-1,1168,1681,-6.40577,-5.7399
-49,-657,-5.98462,7.54053,0,0,0,0,0,0,0,-1,1175,1681,-5.98466,-7.5405
-42,-657,-5.71948,9.28955,0,0,0,0,0,0,0,-1,1182,1681,-5.71951,-9.2895
-35,-657,-5.44556,11.015,0,0,0,0,0,0,0,-1,1189,1681,-5.44555,-11.015
-28,-657,-1.3446,8.92847,0,0,0,0,0,0,0,-1,1196,1681,-1.34459,-8.92848
-21,-657,4.54944,23.3319,0,0,0,0,0,0,0,-1,1203,1681,4.54948,-23.3319
-14,-657,4.84351,24.1031,0,0,0,0,0,0,0,-1,1210,1681,4.84352,-24.1031
-7,-657,5.28711,24.8658,0,0,0,0,0,0,0,-1,1217,1681,5.28708,-24.8659
0,-657,5.94373,25.8687,0,0,0,0,0,0,0,-1,1224,1681,5.94372,-25.8686
7,-657,6.34399,26.774,0.0504571,0.0699648,0.0348791,0.0964282,0.0239937,0.921739,0.0579671,0.0445763,1231,1681,6.34395,-26.7741
14,-657,6.77197,27.4374,0.0500289,0.0646525,0.0257603,0.0841186,0.0305628,0.923681,0.0491669,0.0437152,1238,1681,6.77195,-27.4374
21,-657,2.82727,23.7948,0,0,0,0,0,0,0,-1,1245,1681,2.82725,-23.7948
28,-657,4.0354,23.7859,0.0452172,0.0494219,0.00904941,0.05661,0.0380292,0.899534,0.0333205,0.042703,1252,1681,4.03542,-23.7859
35,-657,5.31055,23.7607,0.0409939,0.0408385,0.0022913,0.0432088,0.0386236,0.768453,0.0274056,0.0419454,1259,1681,5.31058,-23.7607
42,-657,6.54211,23.719,0,0,0,0,0,0,0,-1,1266,1681,6.54215,-23.719
49,-657,8.21802,22.9138,0,0,0,0,0,0,0,-1,1273,1681,8.21801,-22.9138
56,-657,8.38989,23.1676,0,0,0,0,0,0,0,-1,1280,1681,8.38984,-23.1676
63,-657,7.6709,23.1361,0,0,0,0,0,0,0,-1,1287,1681,7.67089,-23.1361
70,-657,6.88379,30.4044,0,0,0,0,0,0,0,-1,1294,1681,6.8838,-30.4044
77,-657,6.57104,29.9672,0,0,0,0,0,0,0,-1,1301,1681,6.571,-29.9671
84,-657,6.24976,29.5151,0,0,0,0,0,0,0,-1,1308,1681,6.24972,-29.5152
91,-657,7.03833,27.655,0,0,0,0,0,0,0,-1,1315,1681,7.03836,-27.655
98,-657,7.38464,29.51,0,0,0,0,0,0,0,-1,1322,1681,7.38464,-29.51
105,-657,6.70557,29.3353,0.0263547,0.053011,0.00732955,0.0548934,0.0244722,1.3194,0.0317547,0.0458841,1329,1681,6.7056,-29.3353
112,-657,5.83887,27.6823,0.040262,0.0465939,0.00506893,0.0494044,0.0374516,1.06455,0.0297631,0.0435451,1336,1681,5.83889,-27.6822
119,-657,2.45679,20.8585,0,0,0,0,0,0,0,-1,1343,1681,2.45675,-20.8585
126,-657,4.10083,21.0641,0.0737461,0.00776644,0.00713368,0.0745086,0.00700396,0.10648,0.0475102,0.0478502,1350,1681,4.10087,-21.064
133,-657,5.78333,21.2583,0.089932,-0.0163947,0.0094647,0.0907679,-0.0172306,0.0880923,0.0669982,0.0471214,1357,1681,5.78335,-21.2583
140,-657,7.14771,21.5023,0.103024,-0.0373912,0.011473,0.103955,-0.0383224,0.0809917,0.0850074,0.0447135,1364,1681,7.14765,-21.5023
147,-657,8.59985,21.6001,0,0,0,0,0,0,0,-1,1371,1681,8.59986,-21.6001
154,-657,9.65649,21.6421,0,0,0,0,0,0,0,-1,1378,1681,9.65643,-21.6421
161,-657,12.8524,6.43372,0,0,0,0,0,0,0,-1,1385,1681,12.8524,-6.43366
168,-657,5.21643,0.70105,0,0,0,0,0,0,0,-1,1392,1681,5.21648,-0.7011
175,-657,5.52771,0.649048,0,0,0,0,0,0,0,-1,1399,1681,5.52774,-0.649019
182,-657,5.73999,1.02612,0,0,0,0,0,0,0,-1,1406,1681,5.73995,-1.02611
189,-657,5.92126,1.44116,0,0,0,0,0,0,0,-1,1413,1681,5.92126,-1.44115
196,-657,4.92834,9.59021,0,0,0,0,0,0,0,-1,1420,1681,4.9284,-9.59018
203,-657,6.26343,5.16492,0,0,0,0,0,0,0,-1,1427,1681,6.26345,-5.16488
210,-657,3.9856,5.28088,0,0,0,0,0,0,0,-1,1434,1681,3.98555,-5.28084
217,-657,3.95178,5.2843,0,0,0,0,0,0,0,-1,1441,1681,3.95174,-5.28431
224,-657,6.66736,-0.250244,0,0,0,0,0,0,0,-1,1448,1681,6.66737,0.250229
231,-657,6.85498,-1.70752,0,0,0,0,0,0,0,-1,1455,1681,6.855,1.70758
238,-657,5.34143,-2.89819,0,0,0,0,0,0,0,-1,1462,1681,5.34143,2.89813
245,-657,8.66003,-0.102783,0,0,0,0,0,0,0,-1,1469,1681,8.66,0.102824
252,-657,4.78955,0.623779,0,0,0,0,0,0,0,-1,1476,1681,4.7895,-0.623826
259,-657,2.61523,4.31909,0,0,0,0,0,0,0,-1,1483,1681,2.61523,-4.31908
266,-657,5.35437,11.4742,0,0,0,0,0,0,0,-1,1490,1681,5.35441,-11.4742
273,-657,7.10986,22.1361,0,0,0,0,0,0,0,-1,1497,1681,7.10989,-22.1361
280,-657,7.12793,22.1976,0.00674305,-0.00154175,-0.000353066,0.00675807,-0.00155677,-0.0425133,0.00510406,0.049668,1504,1681,7.12789,-22.1976
287,-657,7.25012,22.0688,0.00615418,-0.000625637,-0.000445869,0.00618337,-0.000654833,-0.0653889,0.00435696,0.0325756,1511,1681,7.25008,-22.0688
294,-657,7.30078,21.9474,0.0054576,-0.000204507,-0.000480612,0.0054981,-0.000245013,-0.0840806,0.00374974,0.0247592,1518,1681,7.30077,-21.9474
301,-657,7.30627,21.8555,0.00474622,0.000324987,-0.000453595,0.00479227,0.000278931,-0.10119,0.00310605,0.0174186,1525,1681,7.30626,-21.8554
308,-657,7.3363,21.6882,0.00409526,0.00101318,-0.000388563,0.00414349,0.000964951,-0.123498,0.00250345,0.0122426,1532,1681,7.3363,-21.6882
315,-657,7.36035,21.4974,0.00354515,0.00135154,-0.000198764,0.00356302,0.00133368,-0.0896378,0.00207866,0.0110247,1539,1681,7.36036,-21.4975
322,-657,7.3844,21.2919,0.00314601,0.0017594,-0.000350966,0.00322978,0.00167563,-0.234306,0.00186516,0.0129816,1546,1681,7.38443,-21.2919
329,-657,7.37659,21.0902,0.00281732,0.00183855,-0.000556867,0.00306929,0.00158659,-0.424902,0.00177239,0.0196018,1553,1681,7.37654,-21.0903
336,-657,7.37146,20.9282,0.00254458,0.00177913,-0.00072271,0.00297965,0.00134406,-0.541887,0.00172304,0.0179815,1560,1681,7.37141,-20.9282
343,-657,7.41577,20.756,0.00235848,0.00154525,-0.000969759,0.00300342,0.000900312,-0.586886,0.00177977,0.0131709,1567,1681,7.41579,-20.756
350,-657,7.41602,20.5414,0.00223318,0.00107837,-0.0012194,0.00300497,0.00030658,-0.56428,0.00190934,0.0140617,1574,1681,7.41602,-20.5414
357,-657,7.40625,20.3499,0.00208221,0.000561544,-0.00143129,0.00294258,-0.000298828,-0.541242,0.00206854,0.013736,1581,1681,7.4062,-20.3498
364,-657,7.40771,20.1674,0.00197159,-4.38325e-05,-0.00163675,0.00288597,-0.000958212,-0.509465,0.00231059,0.0105316,1588,1681,7.40767,-20.1674
371,-657,7.39124,19.9658,0.00186366,-0.000683833,-0.00176107,0.00276334,-0.00158352,-0.472308,0.00254029,0.0146276,1595,1681,7.39129,-19.9659
378,-657,7.36145,19.7465,0.00175322,-0.00130213,-0.00176534,0.00256011,-0.00210903,-0.428723,0.00269992,0.0145639,1602,1681,7.36148,-19.7465
385,-657,7.33411,19.5132,0.00173344,-0.00190105,-0.00172503,0.00242181,-0.00258942,-0.379685,0.00289377,0.0130121,1609,1681,7.33413,-19.5132
392,-657,7.34167,19.3339,0.00169031,-0.00249483,-0.00171453,0.00230301,-0.00310752,-0.343212,0.00313526,0.0131546,1616,1681,7.34172,-19.3339
399,-657,7.37415,19.1378,0.00152137,-0.00303597,-0.00157436,0.00201235,-0.00352695,-0.3023,0.00323772,0.0130397,1623,1681,7.37418,-19.1378
406,-657,7.37891,18.8955,0.00148171,-0.00334869,-0.00138795,0.00185211,-0.0037191,-0.260793,0.00327619,0.014898,1630,1681,7.37886,-18.8956
413,-657,7.3667,18.6486,0.00146836,-0.00378854,-0.0011242,0.00169868,-0.00401887,-0.20208,0.00339042,0.0147543,1637,1681,7.36675,-18.6486
420,-657,7.36072,18.3889,0.00136464,-0.00485643,-0.000457823,0.00139816,-0.00488994,-0.0730676,0.00381245,0.0159373,1644,1681,7.36071,-18.389
427,-657,7.34741,18.1254,0.00145251,-0.00607127,-0.000158674,0.00145585,-0.00607461,-0.0210772,0.00461226,0.0203381,1651,1681,7.34744,-18.1253
434,-657,7.42029,17.9447,0.00166593,-0.00745999,5.60571e-05,0.00166628,-0.00746033,0.00614232,0.00561205,0.0287271,1658,1681,7.42034,-17.9447
441,-657,7.54504,17.8717,0.00204319,-0.00944288,0.000393741,0.00205667,-0.00945636,0.0342263,0.00708994,0.0491588,1665,1681,7.54508,-17.8718
448,-657,7.68494,17.7932,0,0,0,0,0,0,0,-1,1672,1681,7.68498,-17.7932
455,-657,5.12244,16.671,0,0,0,0,0,0,0,-1,1679,1681,5.12248,-16.6711
462,-657,6.51733,15.4801,0,0,0,0,0,0,0,-1,1686,1681,6.51737,-15.4801
469,-657,7.38184,17.5225,0,0,0,0,0,0,0,-1,1693,1681,7.38188,-17.5224
476,-657,5.72485,13.6294,0,0,0,0,0,0,0,-1,1700,1681,5.72481,-13.6294
483,-657,9.39307,11.0643,0,0,0,0,0,0,0,-1,1707,1681,9.39309,-11.0644
490,-657,8.80066,10.4442,0,0,0,0,0,0,0,-1,1714,1681,8.80062,-10.4442
497,-657,3.43188,12.5037,0,0,0,0,0,0,0,-1,1721,1681,3.43183,-12.5037
504,-657,0,0,0,0,0,0,0,0,0,-1,1728,1681,0,0
511,-657,0,0,0,0,0,0,0,0,0,-1,1735,1681,0,0
518,-657,0,0,0,0,0,0,0,0,0,-1,1742,1681,0,0
525,-657,0,0,0,0,0,0,0,0,0,-1,1749,1681,0,0
532,-657,0,0,0,0,0,0,0,0,0,-1,1756,1681,0,0
539,-657,0,0,0,0,0,0,0,0,0,-1,1763,1681,0,0
546,-657,0,0,0,0,0,0,0,0,0,-1,1770,1681,0,0
553,-657,0,0,0,0,0,0,0,0,0,-1,1777,1681,0,0
560,-657,0,0,0,0,0,0,0,0,0,-1,1784,1681,0,0
567,-657,0,0,0,0,0,0,0,0,0,-1,1791,1681,0,0
574,-657,0,0,0,0,0,0,0,0,0,-1,1798,1681,0,0
581,-657,0,0,0,0,0,0,0,0,0,-1,1805,1681,0,0
588,-657,0,0,0,0,0,0,0,0,0,-1,1812,1681,0,0
595,-657,0,0,0,0,0,0,0,0,0,-1,1819,1681,0,0
602,-657,0,0,0,0,0,0,0,0,0,-1,1826,1681,0,0
609,-657,0,0,0,0,0,0,0,0,0,-1,1833,1681,0,0
616,-657,0,0,0,0,0,0,0,0,0,-1,1840,1681,0,0
623,-657,0,0,0,0,0,0,0,0,0,-1,1847,1681,0,0
630,-657,0,0,0,0,0,0,0,0,0,-1,1854,1681,0,0
637,-657,0,0,0,0,0,0,0,0,0,-1,1861,1681,0,0
644,-657,0,0,0,0,0,0,0,0,0,-1,1868,1681,0,0
651,-657,0,0,0,0,0,0,0,0,0,-1,1875,1681,0,0
658,-657,0,0,0,0,0,0,0,0,0,-1,1882,1681,0,0
665,-657,0,0,0,0,0,0,0,0,0,-1,1889,1681,0,0
672,-657,0,0,0,0,0,0,0,0,0,-1,1896,1681,0,0
679,-657,0,0,0,0,0,0,0,0,0,-1,1903,1681,0,0
686,-657,0,0,0,0,0,0,0,0,0,-1,1910,1681,0,0
693,-657,0,0,0,0,0,0,0,0,0,-1,1917,1681,0,0
700,-657,0,0,0,0,0,0,0,0,0,-1,1924,1681,0,0
707,-657,0,0,0,0,0,0,0,0,0,-1,1931,1681,0,0
714,-657,0,0,0,0,0,0,0,0,0,-1,1938,1681,0,0
721,-657,0,0,0,0,0,0,0,0,0,-1,1945,1681,0,0
728,-657,0,0,0,0,0,0,0,0,0,-1,1952,1681,0,0
735,-657,0,0,0,0,0,0,0,0,0,-1,1959,1681,0,0
742,-657,0,0,0,0,0,0,0,0,0,-1,1966,1681,0,0
749,-657,0,0,0,0,0,0,0,0,0,-1,1973,1681,0,0
756,-657,0,0,0,0,0,0,0,0,0,-1,1980,1681,0,0
763,-657,0,0,0,0,0,0,0,0,0,-1,1987,1681,0,0
770,-657,0,0,0,0,0,0,0,0,0,-1,1994,1681,0,0
777,-657,0,0,0,0,0,0,0,0,0,-1,2001,1681,0,0
784,-657,0,0,0,0,0,0,0,0,0,-1,2008,1681,0,0
791,-657,0,0,0,0,0,0,0,0,0,-1,2015,1681,0,0
798,-657,0,0,0,0,0,0,0,0,0,-1,2022,1681,0,0
805,-657,0,0,0,0,0,0,0,0,0,-1,2029,1681,0,0
812,-657,0,0,0,0,0,0,0,0,0,-1,2036,1681,0,0
-700,-664,0,0,0,0,0,0,0,0,0,-1,524,1688,0,0
-693,-664,0,0,0,0,0,0,0,0,0,-1,531,1688,0,0
-686,-664,0,0,0,0,0,0,0,0,0,-1,538,1688,0,0
-679,-664,0,0,0,0,0,0,0,0,0,-1,545,1688,0,0
-672,-664,0,0,0,0,0,0,0,0,0,-1,552,1688,0,0
-665,-664,0,0,0,0,0,0,0,0,0,-1,559,1688,0,0
-658,-664,0,0,0,0,0,0,0,0,0,-1,566,1688,0,0
-651,-664,0,0,0,0,0,0,0,0,0,-1,573,1688,0,0
-644,-664,0,0,0,0,0,0,0,0,0,-1,580,1688,0,0
-637,-664,0,0,0,0,0,0,0,0,0,-1,587,1688,0,0
-630,-664,0,0,0,0,0,0,0,0,0,-1,594,1688,0,0
-623,-664,0,0,0,0,0,0,0,0,0,-1,601,1688,0,0
-616,-664,0,0,0,0,0,0,0,0,0,-1,608,1688,0,0
-609,-664,0,0,0,0,0,0,0,0,0,-1,615,1688,0,0
-602,-664,0,0,0,0,0,0,0,0,0,-1,622,1688,0,0
-595,-664,0,0,0,0,0,0,0,0,0,-1,629,1688,0,0
-588,-664,0,0,0,0,0,0,0,0,0,-1,636,1688,0,0
-581,-664,0,0,0,0,0,0,0,0,0,-1,643,1688,0,0
-574,-664,0,0,0,0,0,0,0,0,0,-1,650,1688,0,0
-567,-664,0,0,0,0,0,0,0,0,0,-1,657,1688,0,0
-560,-664,0,0,0,0,0,0,0,0,0,-1,664,1688,0,0
-553,-664,0,0,0,0,0,0,0,0,0,-1,671,1688,0,0
-546,-664,0,0,0,0,0,0,0,0,0,-1,678,1688,0,0
-539,-664,0,0,0,0,0,0,0,0,0,-1,685,1688,0,0
-532,-664,0,0,0,0,0,0,0,0,0,-1,692,1688,0,0
-525,-664,0,0,0,0,0,0,0,0,0,-1,699,1688,0,0
-518,-664,0,0,0,0,0,0,0,0,0,-1,706,1688,0,0
-511,-664,0,0,0,0,0,0,0,0,0,-1,713,1688,0,0
-504,-664,0,0,0,0,0,0,0,0,0,-1,720,1688,0,0
-497,-664,0,0,0,0,0,0,0,0,0,-1,727,1688,0,0
-490,-664,0,0,0,0,0,0,0,0,0,-1,734,1688,0,0
-483,-664,0,0,0,0,0,0,0,0,0,-1,741,1688,0,0
-476,-664,0,0,0,0,0,0,0,0,0,-1,748,1688,0,0
-469,-664,0,0,0,0,0,0,0,0,0,-1,755,1688,0,0
-462,-664,0,0,0,0,0,0,0,0,0,-1,762,1688,0,0
-455,-664,0,0,0,0,0,0,0,0,0,-1,769,1688,0,0
-448,-664,0,0,0,0,0,0,0,0,0,-1,776,1688,0,0
-441,-664,0,0,0,0,0,0,0,0,0,-1,783,1688,0,0
-434,-664,0,0,0,0,0,0,0,0,0,-1,790,1688,0,0
-427,-664,0,0,0,0,0,0,0,0,0,-1,797,1688,0,0
-420,-664,0,0,0,0,0,0,0,0,0,-1,804,1688,0,0
-413,-664,0,0,0,0,0,0,0,0,0,-1,811,1688,0,0
-406,-664,0,0,0,0,0,0,0,0,0,-1,818,1688,0,0
-399,-664,0,0,0,0,0,0,0,0,0,-1,825,1688,0,0
-392,-664,0,0,0,0,0,0,0,0,0,-1,832,1688,0,0
-385,-664,0,0,0,0,0,0,0,0,0,-1,839,1688,0,0
-378,-664,0,0,0,0,0,0,0,0,0,-1,846,1688,0,0
-371,-664,-1.61676,5.92737,0,0,0,0,0,0,0,-1,853,1688,-1.61675,-5.92735
-364,-664,-3.901,5.87024,0,0,0,0,0,0,0,-1,860,1688,-3.90097,-5.87027
-357,-664,-4.81012,4.53479,0,0,0,0,0,0,0,-1,867,1688,-4.81012,-4.5348
-350,-664,-5.7193,3.19934,0,0,0,0,0,0,0,-1,874,1688,-5.71927,-3.19932
-343,-664,2.42603,15.0261,0,0,0,0,0,0,0,-1,881,1688,2.42605,-15.0261
-336,-664,2.86487,15.2523,0,0,0,0,0,0,0,-1,888,1688,2.86489,-15.2524
-329,-664,3.44025,15.37,0,0,0,0,0,0,0,-1,895,1688,3.44027,-15.37
-322,-664,5.40033,15.9934,0,0,0,0,0,0,0,-1,902,1688,5.40033,-15.9934
-315,-664,4.81458,16.4512,0,0,0,0,0,0,0,-1,909,1688,4.81459,-16.4512
-308,-664,4.79565,16.6766,0,0,0,0,0,0,0,-1,916,1688,4.79563,-16.6767
-301,-664,4.82245,16.949,-0.00473202,0.00229088,-0.002263,0.00295692,-0.00539806,-1.28456,0.0048919,0.0484467,923,1688,4.82243,-16.949
-294,-664,4.71692,17.3276,-0.00362111,0.00238295,-0.00209275,0.0030404,-0.00427856,-1.2664,0.00424571,0.0419374,930,1688,4.71694,-17.3276
-287,-664,4.66785,17.5969,-0.00274135,0.00233316,-0.00193842,0.00298889,-0.00339708,-1.2446,0.00368945,0.0312901,937,1688,4.66783,-17.5969
-280,-664,4.55902,17.8431,-0.00217596,0.00250005,-0.00173256,0.00307204,-0.00274795,-1.25192,0.00336191,0.0209923,944,1688,4.55904,-17.8432
-273,-664,4.63507,18.0326,-0.00177668,0.00275999,-0.00130412,0.00310816,-0.00212484,-1.30991,0.003039,0.0157115,951,1688,4.6351,-18.0326
-266,-664,4.60669,18.266,-0.00104489,0.00278123,-0.000830931,0.0029539,-0.00121756,-1.36592,0.00247696,0.0217399,958,1688,4.60672,-18.266
-259,-664,4.60016,18.5197,-0.0004913,0.00289062,-0.0004803,0.00295751,-0.000558189,-1.43242,0.00218167,0.0191746,965,1688,4.60013,-18.5196
-252,-664,4.62518,18.75,-0.000206998,0.00288282,-3.57616e-05,0.00288323,-0.000207412,-1.55922,0.00199489,0.0163353,972,1688,4.62521,-18.75
-245,-664,4.60962,18.98,6.28335e-05,0.00270092,0.000376915,0.00275372,1.00386e-05,1.43163,0.00183248,0.0194704,979,1688,4.60959,-18.98
-238,-664,4.61829,19.2494,0.000232017,0.00246623,0.00070996,0.00267274,2.55033e-05,1.28773,0.00177339,0.0235297,986,1688,4.61826,-19.2494
-231,-664,4.60736,19.4862,0.000333604,0.00206265,0.000950519,0.002483,-8.67409e-05,1.15443,0.00168499,0.0201502,993,1688,4.60733,-19.4862
-224,-664,4.60077,19.7267,0.000333511,0.00159204,0.00115121,0.00227474,-0.000349188,1.03552,0.00164529,0.0136216,1000,1688,4.60078,-19.7267
-217,-664,4.58929,19.9401,0.000341357,0.000947523,0.00120089,0.00188298,-0.000594103,0.909008,0.00149328,0.0108922,1007,1688,4.5893,-19.9401
-210,-664,4.58051,20.137,0.00038758,0.000283913,0.00117793,0.00151482,-0.000843322,0.76341,0.00137975,0.0113241,1014,1688,4.58053,-20.1369
-203,-664,4.57727,20.3456,0.000530474,-0.000359293,0.00114758,0.00131639,-0.00114521,0.600482,0.00142235,0.0134591,1021,1688,4.57723,-20.3456
-196,-664,4.58594,20.5304,0.000656891,-0.000831224,0.0010631,0.00121045,-0.00138478,0.480072,0.00149949,0.0146695,1028,1688,4.58594,-20.5304
-189,-664,4.59998,20.7233,0.000765868,-0.00111668,0.0010372,0.00122523,-0.00157604,0.416922,0.00162154,0.00997009,1035,1688,4.59992,-20.7232
-182,-664,4.59937,20.9155,0.000952975,-0.00122667,0.000971353,0.00132303,-0.00159673,0.363992,0.00168819,0.00885941,1042,1688,4.59934,-20.9155
-175,-664,4.60254,21.0983,0.00128068,-0.00115366,0.00100827,0.00164405,-0.00151702,0.345901,0.00182554,0.0124514,1049,1688,4.60252,-21.0983
-168,-664,4.60486,21.2821,0.00168803,-0.000901702,0.00114858,0.00212403,-0.00133771,0.3628,0.00201575,0.0150254,1056,1688,4.60486,-21.282
-161,-664,4.60657,21.4569,0.00215787,-0.000388717,0.00135026,0.0027405,-0.000971351,0.407363,0.0022227,0.0110395,1063,1688,4.60658,-21.4569
-154,-664,4.63245,21.6396,0.00271891,0.000286395,0.00158485,0.00350041,-0.000495107,0.458118,0.00251494,0.00980917,1070,1688,4.63249,-21.6396
-147,-664,4.64099,21.8204,0.00325126,0.000989321,0.00178783,0.00423581,4.7714e-06,0.503377,0.00282228,0.0106315,1077,1688,4.64098,-21.8204
-140,-664,4.67175,22.0001,0.0039368,0.00190385,0.00192473,0.00509697,0.000743675,0.542455,0.00317922,0.0108991,1084,1688,4.67173,-22.0001
-133,-664,4.67993,22.1772,0.00468639,0.0026447,0.00222088,0.00610981,0.00122128,0.56997,0.0037333,0.0122836,1091,1688,4.67994,-22.1773
-126,-664,4.75415,22.4122,0.00524721,0.00336931,0.00257671,0.00705072,0.0015658,0.610676,0.00427522,0.0241178,1098,1688,4.75419,-22.4122
-119,-664,4.8429,22.514,0.00585761,0.00388028,0.00275819,0.00779897,0.00193892,0.613308,0.00468861,0.0400418,1105,1688,4.84294,-22.5141
-112,-664,4.81201,22.7379,0,0,0,0,0,0,0,-1,1112,1688,4.812,-22.738
-105,-664,4.48108,21.4276,0,0,0,0,0,0,0,-1,1119,1688,4.48104,-21.4276
-98,-664,4.98584,19.8645,0,0,0,0,0,0,0,-1,1126,1688,4.98586,-19.8645
-91,-664,4.61377,19.9204,0,0,0,0,0,0,0,-1,1133,1688,4.61377,-19.9204
-84,-664,3.48389,16.6913,0,0,0,0,0,0,0,-1,1140,1688,3.4839,-16.6913
-77,-664,4.52014,11.2122,0,0,0,0,0,0,0,-1,1147,1688,4.5202,-11.2122
-70,-664,4.20374,8.24524,0,0,0,0,0,0,0,-1,1154,1688,4.20379,-8.24519
-63,-664,-4.677,2.40503,0,0,0,0,0,0,0,-1,1161,1688,-4.67702,-2.40498
-56,-664,-4.66504,3.32727,0,0,0,0,0,0,0,-1,1168,1688,-4.6651,-3.32724
-49,-664,-2.54297,3.31848,0,0,0,0,0,0,0,-1,1175,1688,-2.54297,-3.31852
-42,-664,-0.359253,4.38684,0,0,0,0,0,0,0,-1,1182,1688,-0.359261,-4.38685
-35,-664,-0.705566,3.55017,0,0,0,0,0,0,0,-1,1189,1688,-0.705567,-3.55023
-28,-664,-1.54236,10.2538,0,0,0,0,0,0,0,-1,1196,1688,-1.54236,-10.2538
-21,-664,5.3075,22.4739,0,0,0,0,0,0,0,-1,1203,1688,5.30754,-22.4739
-14,-664,4.90857,23.2853,0,0,0,0,0,0,0,-1,1210,1688,4.90853,-23.2853
-7,-664,5.15576,24.1239,0,0,0,0,0,0,0,-1,1217,1688,5.1558,-24.1239
0,-664,5.48938,25.0867,0,0,0,0,0,0,0,-1,1224,1688,5.48933,-25.0867
7,-664,6.05042,25.9113,0.0440232,0.058135,0.0275286,0.0794976,0.0226606,0.910853,0.0472906,0.0440798,1231,1688,6.05048,-25.9112
14,-664,6.46069,26.5953,0.0435149,0.0533478,0.020963,0.0699632,0.0268996,0.900582,0.040751,0.0427948,1238,1688,6.46071,-26.5953
21,-664,3.27795,23.9467,0,0,0,0,0,0,0,-1,1245,1688,3.27792,-23.9466
28,-664,4.43933,23.8737,0.0395076,0.040046,0.00900008,0.0487809,0.0307727,0.800351,0.0284833,0.0419569,1252,1688,4.43939,-23.8736
35,-664,5.61353,23.7933,0.0360718,0.0326003,0.00436399,0.0390326,0.0296396,0.59612,0.0235243,0.0436224,1259,1688,5.61355,-23.7934
42,-664,6.79956,23.7517,0,0,0,0,0,0,0,-1,1266,1688,6.79958,-23.7517
49,-664,7.8175,23.5059,0.0253166,0.0244949,0.000383841,0.025468,0.0243435,0.375731,0.0166165,0.0412351,1273,1688,7.81751,-23.5059
56,-664,7.82507,23.5371,0.0169739,0.0334953,-0.00238437,0.0338326,0.0166367,-1.4303,0.0195341,0.0491852,1280,1688,7.82509,-23.5371
63,-664,7.48987,23.8126,0,0,0,0,0,0,0,-1,1287,1688,7.48987,-23.8126
70,-664,6.24878,29.9292,0,0,0,0,0,0,0,-1,1294,1688,6.24875,-29.9292
77,-664,6.15088,25.2578,0,0,0,0,0,0,0,-1,1301,1688,6.15093,-25.2578
84,-664,7.05005,26.7596,0,0,0,0,0,0,0,-1,1308,1688,7.0501,-26.7596
91,-664,6.8988,26.996,0,0,0,0,0,0,0,-1,1315,1688,6.89884,-26.9959
98,-664,6.74756,27.2322,0,0,0,0,0,0,0,-1,1322,1688,6.74758,-27.2322
105,-664,6.18201,28.0472,0.0243998,0.046035,0.00523415,0.0472347,0.0232,1.34547,0.0272724,0.049683,1329,1688,6.18203,-28.0472
112,-664,5.6853,27.4226,0.0363902,0.0397784,0.00367351,0.0421296,0.0340389,1.00145,0.0258156,0.0440404,1336,1688,5.68534,-27.4226
119,-664,5.36646,27.7828,0.0499376,0.0259376,0.00390931,0.0505583,0.0253169,0.157467,0.0291899,0.0455537,1343,1688,5.36651,-27.7828
126,-664,4.40698,21.801,0,0,0,0,0,0,0,-1,1350,1688,4.407,-21.801
133,-664,5.84912,21.8853,0.0768373,-0.0131443,0.00824964,0.0775874,-0.0138944,0.0906741,0.0569245,0.0484312,1357,1688,5.84914,-21.8852
140,-664,7.24927,21.9835,0.0877723,-0.0303009,0.0102251,0.0886512,-0.0311798,0.0857492,0.0717878,0.0441216,1364,1688,7.24922,-21.9835
147,-664,8.11218,22.2728,0,0,0,0,0,0,0,-1,1371,1688,8.11216,-22.2729
154,-664,3.51733,19.4696,0,0,0,0,0,0,0,-1,1378,1688,3.51739,-19.4697
161,-664,4.60132,1.56238,0,0,0,0,0,0,0,-1,1385,1688,4.60134,-1.56233
168,-664,5.172,1.25488,0,0,0,0,0,0,0,-1,1392,1688,5.17203,-1.25484
175,-664,5.58313,1.16467,0,0,0,0,0,0,0,-1,1399,1688,5.58317,-1.16466
182,-664,5.74268,1.41113,0,0,0,0,0,0,0,-1,1406,1688,5.74263,-1.41115
189,-664,5.87744,1.87061,0,0,0,0,0,0,0,-1,1413,1688,5.87745,-1.87065
196,-664,6.7594,5.97473,0,0,0,0,0,0,0,-1,1420,1688,6.75943,-5.97478
203,-664,5.38452,5.22034,0,0,0,0,0,0,0,-1,1427,1688,5.38453,-5.2203
210,-664,5.25549,6.45715,0,0,0,0,0,0,0,-1,1434,1688,5.25549,-6.45721
217,-664,5.72009,6.73975,0,0,0,0,0,0,0,-1,1441,1688,5.72014,-6.73972
224,-664,5.05725,7.42908,0,0,0,0,0,0,0,-1,1448,1688,5.05723,-7.42912
231,-664,5.13318,7.60864,0,0,0,0,0,0,0,-1,1455,1688,5.13313,-7.60862
238,-664,4.23193,6.45471,0,0,0,0,0,0,0,-1,1462,1688,4.23197,-6.45476
245,-664,4.42004,6.80896,0,0,0,0,0,0,0,-1,1469,1688,4.4201,-6.80901
252,-664,3.67346,6.85461,0,0,0,0,0,0,0,-1,1476,1688,3.6734,-6.85462
259,-664,4.55823,11.7435,0,0,0,0,0,0,0,-1,1483,1688,4.55826,-11.7435
266,-664,6.8927,22.02,0,0,0,0,0,0,0,-1,1490,1688,6.89275,-22.0201
273,-664,7.08191,22.2839,0,0,0,0,0,0,0,-1,1497,1688,7.08195,-22.2839
280,-664,7.07935,22.239,0.00510897,-0.00167701,-0.000158257,0.00511266,-0.0016807,-0.0233042,0.00408557,0.0261868,1504,1688,7.07931,-22.239
287,-664,7.08911,22.0884,0.00472043,-0.000857795,-0.000294361,0.00473592,-0.000873286,-0.0525749,0.00348504,0.0207697,1511,1688,7.08907,-22.0884
294,-664,7.13965,21.9561,0.00418704,-0.00049411,-0.000316436,0.00420834,-0.000515403,-0.0671904,0.00299219,0.0148503,1518,1688,7.13967,-21.956
301,-664,7.16394,21.8136,0.00363325,-9.91628e-05,-0.000290471,0.00365572,-0.000121633,-0.0772043,0.00247869,0.0102699,1525,1688,7.16393,-21.8136
308,-664,7.18225,21.6418,0.00315271,0.000334583,-0.000251055,0.0031749,0.000312392,-0.0881607,0.00202054,0.0104774,1532,1688,7.18225,-21.6419
315,-664,7.19324,21.4766,0.00280089,0.000522171,-0.000231493,0.00282417,0.000498891,-0.100224,0.00174048,0.0112124,1539,1688,7.1932,-21.4765
322,-664,7.21252,21.3029,0.00253883,0.000677924,-0.000408605,0.00262459,0.000592158,-0.206896,0.00158954,0.0146972,1546,1688,7.21251,-21.3029
329,-664,7.18323,21.1147,0.00236859,0.000557518,-0.000661565,0.00258451,0.000341598,-0.315478,0.00162118,0.0176709,1553,1688,7.18328,-21.1148
336,-664,7.18494,20.9316,0.0022877,0.000378357,-0.000932366,0.00266746,-1.40164e-06,-0.386789,0.00177877,0.0148819,1560,1688,7.18493,-20.9317
343,-664,7.20996,20.7637,0.00228193,4.79745e-05,-0.00129852,0.00287779,-0.000547883,-0.430208,0.00212483,0.0108725,1567,1688,7.20998,-20.7637
350,-664,7.21326,20.559,0.00232071,-0.000527151,-0.00166906,0.00309072,-0.00129716,-0.432243,0.00260293,0.0117721,1574,1688,7.21329,-20.559
357,-664,7.20776,20.3566,0.0023398,-0.00111994,-0.00200232,0.00325601,-0.00203615,-0.429135,0.00308237,0.0122502,1581,1688,7.20781,-20.3565
364,-664,7.21497,20.145,0.00236846,-0.00179099,-0.00231135,0.00339801,-0.00282054,-0.419049,0.00359544,0.0105859,1588,1688,7.21495,-20.1451
371,-664,7.21448,19.9557,0.00237888,-0.0024613,-0.00253938,0.00346668,-0.0035491,-0.404723,0.00405066,0.0133386,1595,1688,7.21447,-19.9557
378,-664,7.18091,19.7482,0.00237741,-0.00310808,-0.00262854,0.0034336,-0.00416427,-0.38207,0.00439338,0.0128932,1602,1688,7.18093,-19.7481
385,-664,7.1427,19.5435,0.00244329,-0.0036368,-0.00263494,0.00342628,-0.00461979,-0.357067,0.0046624,0.0133969,1609,1688,7.14273,-19.5434
392,-664,7.13586,19.3405,0.00247289,-0.00417232,-0.00265709,0.00340468,-0.0051041,-0.337279,0.0049451,0.0158833,1616,1688,7.13588,-19.3404
399,-664,7.17029,19.116,0.00229324,-0.00478825,-0.00246397,0.0030662,-0.0055612,-0.303981,0.00504999,0.0138585,1623,1688,7.17028,-19.116
406,-664,7.18884,18.8921,0.00221885,-0.00512633,-0.00219844,0.00282657,-0.00573405,-0.269698,0.0050366,0.0149456,1630,1688,7.1888,-18.8921
413,-664,7.19897,18.6342,0.00213464,-0.00553717,-0.00176687,0.002522,-0.00592453,-0.215822,0.00500676,0.0162085,1637,1688,7.19897,-18.6341
420,-664,7.24573,18.389,0.00188659,-0.00683777,-0.000572778,0.00192403,-0.00687522,-0.0652792,0.0053416,0.0328163,1644,1688,7.24575,-18.389
427,-664,7.31677,18.1252,0,0,0,0,0,0,0,-1,1651,1688,7.31676,-18.1252
434,-664,7.2666,17.7646,0,0,0,0,0,0,0,-1,1658,1688,7.26662,-17.7647
441,-664,7.28992,17.7581,0,0,0,0,0,0,0,-1,1665,1688,7.28988,-17.7581
448,-664,6.56384,17.9266,0,0,0,0,0,0,0,-1,1672,1688,6.56381,-17.9266
455,-664,7.53198,11.3838,0,0,0,0,0,0,0,-1,1679,1688,7.53195,-11.3838
462,-664,4.3147,4.25439,0,0,0,0,0,0,0,-1,1686,1688,4.31467,-4.25435
469,-664,6.05469,7.49341,0,0,0,0,0,0,0,-1,1693,1688,6.05474,-7.49339
476,-664,9.76514,11.5648,0,0,0,0,0,0,0,-1,1700,1688,9.76511,-11.5648
483,-664,8.41895,10.9768,0,0,0,0,0,0,0,-1,1707,1688,8.41897,-10.9769
490,-664,3.90771,13.2842,0,0,0,0,0,0,0,-1,1714,1688,3.90776,-13.2841
497,-664,0,0,0,0,0,0,0,0,0,-1,1721,1688,0,0
504,-664,0,0,0,0,0,0,0,0,0,-1,1728,1688,0,0
511,-664,0,0,0,0,0,0,0,0,0,-1,1735,1688,0,0
518,-664,0,0,0,0,0,0,0,0,0,-1,1742,1688,0,0
525,-664,0,0,0,0,0,0,0,0,0,-1,1749,1688,0,0
532,-664,0,0,0,0,0,0,0,0,0,-1,1756,1688,0,0
539,-664,0,0,0,0,0,0,0,0,0,-1,1763,1688,0,0
546,-664,0,0,0,0,0,0,0,0,0,-1,1770,1688,0,0
553,-664,0,0,0,0,0,0,0,0,0,-1,1777,1688,0,0
560,-664,0,0,0,0,0,0,0,0,0,-1,1784,1688,0,0
567,-664,0,0,0,0,0,0,0,0,0,-1,1791,1688,0,0
574,-664,0,0,0,0,0,0,0,0,0,-1,1798,1688,0,0
581,-664,0,0,0,0,0,0,0,0,0,-1,1805,1688,0,0
588,-664,0,0,0,0,0,0,0,0,0,-1,1812,1688,0,0
595,-664,0,0,0,0,0,0,0,0,0,-1,1819,1688,0,0
602,-664,0,0,0,0,0,0,0,0,0,-1,1826,1688,0,0
609,-664,0,0,0,0,0,0,0,0,0,-1,1833,1688,0,0
616,-664,0,0,0,0,0,0,0,0,0,-1,1840,1688,0,0
623,-664,0,0,0,0,0,0,0,0,0,-1,1847,1688,0,0
630,-664,0,0,0,0,0,0,0,0,0,-1,1854,1688,0,0
637,-664,0,0,0,0,0,0,0,0,0,-1,1861,1688,0,0
644,-664,0,0,0,0,0,0,0,0,0,-1,1868,1688,0,0
651,-664,0,0,0,0,0,0,0,0,0,-1,1875,1688,0,0
658,-664,0,0,0,0,0,0,0,0,0,-1,1882,1688,0,0
665,-664,0,0,0,0,0,0,0,0,0,-1,1889,1688,0,0
672,-664,0,0,0,0,0,0,0,0,0,-1,1896,1688,0,0
679,-664,0,0,0,0,0,0,0,0,0,-1,1903,1688,0,0
686,-664,0,0,0,0,0,0,0,0,0,-1,1910,1688,0,0
693,-664,0,0,0,0,0,0,0,0,0,-1,1917,1688,0,0
700,-664,0,0,0,0,0,0,0,0,0,-1,1924,1688,0,0
707,-664,0,0,0,0,0,0,0,0,0,-1,1931,1688,0,0
714,-664,0,0,0,0,0,0,0,0,0,-1,1938,1688,0,0
721,-664,0,0,0,0,0,0,0,0,0,-1,1945,1688,0,0
728,-664,0,0,0,0,0,0,0,0,0,-1,1952,1688,0,0
735,-664,0,0,0,0,0,0,0,0,0,-1,1959,1688,0,0
742,-664,0,0,0,0,0,0,0,0,0,-1,1966,1688,0,0
749,-664,0,0,0,0,0,0,0,0,0,-1,1973,1688,0,0
756,-664,0,0,0,0,0,0,0,0,0,-1,1980,1688,0,0
763,-664,0,0,0,0,0,0,0,0,0,-1,1987,1688,0,0
770,-664,0,0,0,0,0,0,0,0,0,-1,1994,1688,0,0
777,-664,0,0,0,0,0,0,0,0,0,-1,2001,1688,0,0
784,-664,0,0,0,0,0,0,0,0,0,-1,2008,1688,0,0
791,-664,0,0,0,0,0,0,0,0,0,-1,2015,1688,0,0
798,-664,0,0,0,0,0,0,0,0,0,-1,2022,1688,0,0
805,-664,0,0,0,0,0,0,0,0,0,-1,2029,1688,0,0
812,-664,0,0,0,0,0,0,0,0,0,-1,2036,1688,0,0
-700,-671,0,0,0,0,0,0,0,0,0,-1,524,1695,0,0
-693,-671,0,0,0,0,0,0,0,0,0,-1,531,1695,0,0
-686,-671,0,0,0,0,0,0,0,0,0,-1,538,1695,0,0
-679,-671,0,0,0,0,0,0,0,0,0,-1,545,1695,0,0
-672,-671,0,0,0,0,0,0,0,0,0,-1,552,1695,0,0
-665,-671,0,0,0,0,0,0,0,0,0,-1,559,1695,0,0
-658,-671,0,0,0,0,0,0,0,0,0,-1,566,1695,0,0
-651,-671,0,0,0,0,0,0,0,0,0,-1,573,1695,0,0
-644,-671,0,0,0,0,0,0,0,0,0,-1,580,1695,0,0
-637,-671,0,0,0,0,0,0,0,0,0,-1,587,1695,0,0
-630,-671,0,0,0,0,0,0,0,0,0,-1,594,1695,0,0
-623,-671,0,0,0,0,0,0,0,0,0,-1,601,1695,0,0
-616,-671,0,0,0,0,0,0,0,0,0,-1,608,1695,0,0
-609,-671,0,0,0,0,0,0,0,0,0,-1,615,1695,0,0
-602,-671,0,0,0,0,0,0,0,0,0,-1,622,1695,0,0
-595,-671,0,0,0,0,0,0,0,0,0,-1,629,1695,0,0
-588,-671,0,0,0,0,0,0,0,0,0,-1,636,1695,0,0
-581,-671,0,0,0,0,0,0,0,0,0,-1,643,1695,0,0
-574,-671,0,0,0,0,0,0,0,0,0,-1,650,1695,0,0
-567,-671,0,0,0,0,0,0,0,0,0,-1,657,1695,0,0
-560,-671,0,0,0,0,0,0,0,0,0,-1,664,1695,0,0
-553,-671,0,0,0,0,0,0,0,0,0,-1,671,1695,0,0
-546,-671,0,0,0,0,0,0,0,0,0,-1,678,1695,0,0
-539,-671,0,0,0,0,0,0,0,0,0,-1,685,1695,0,0
-532,-671,0,0,0,0,0,0,0,0,0,-1,692,1695,0,0
-525,-671,0,0,0,0,0,0,0,0,0,-1,699,1695,0,0
-518,-671,0,0,0,0,0,0,0,0,0,-1,706,1695,0,0
-511,-671,0,0,0,0,0,0,0,0,0,-1,713,1695,0,0
-504,-671,0,0,0,0,0,0,0,0,0,-1,720,1695,0,0
-497,-671,0,0,0,0,0,0,0,0,0,-1,727,1695,0,0
-490,-671,0,0,0,0,0,0,0,0,0,-1,734,1695,0,0
-483,-671,0,0,0,0,0,0,0,0,0,-1,741,1695,0,0
-476,-671,0,0,0,0,0,0,0,0,0,-1,748,1695,0,0
-469,-671,0,0,0,0,0,0,0,0,0,-1,755,1695,0,0
-462,-671,0,0,0,0,0,0,0,0,0,-1,762,1695,0,0
-455,-671,0,0,0,0,0,0,0,0,0,-1,769,1695,0,0
-448,-671,0,0,0,0,0,0,0,0,0,-1,776,1695,0,0
-441,-671,0,0,0,0,0,0,0,0,0,-1,783,1695,0,0
-434,-671,0,0,0,0,0,0,0,0,0,-1,790,1695,0,0
-427,-671,0,0,0,0,0,0,0,0,0,-1,797,1695,0,0
-420,-671,0,0,0,0,0,0,0,0,0,-1,804,1695,0,0
-413,-671,0,0,0,0,0,0,0,0,0,-1,811,1695,0,0
-406,-671,0,0,0,0,0,0,0,0,0,-1,818,1695,0,0
-399,-671,0,0,0,0,0,0,0,0,0,-1,825,1695,0,0
-392,-671,0,0,0,0,0,0,0,0,0,-1,832,1695,0,0
-385,-671,0,0,0,0,0,0,0,0,0,-1,839,1695,0,0
-378,-671,0,0,0,0,0,0,0,0,0,-1,846,1695,0,0
-371,-671,0,0,0,0,0,0,0,0,0,-1,853,1695,0,0
-364,-671,-4.18738,7.51416,0,0,0,0,0,0,0,-1,860,1695,-4.18739,-7.51419
-357,-671,-5.02393,6.07129,0,0,0,0,0,0,0,-1,867,1695,-5.0239,-6.07135
-350,-671,-5.72333,4.58386,0,0,0,0,0,0,0,-1,874,1695,-5.72333,-4.58386
-343,-671,-6.4884,3.11353,0,0,0,0,0,0,0,-1,881,1695,-6.48839,-3.11349
-336,-671,3.0163,15.2433,0,0,0,0,0,0,0,-1,888,1695,3.01632,-15.2433
-329,-671,3.9389,15.3644,0,0,0,0,0,0,0,-1,895,1695,3.93891,-15.3643
-322,-671,5.02826,13.2017,0,0,0,0,0,0,0,-1,902,1695,5.02824,-13.2016
-315,-671,3.03351,17.0267,0,0,0,0,0,0,0,-1,909,1695,3.03351,-17.0267
-308,-671,3.51465,17.1259,0,0,0,0,0,0,0,-1,916,1695,3.51463,-17.1259
-301,-671,5.11194,16.88,0,0,0,0,0,0,0,-1,923,1695,5.11193,-16.88
-294,-671,5.0097,17.3317,0,0,0,0,0,0,0,-1,930,1695,5.00971,-17.3317
-287,-671,4.68298,17.7078,0,0,0,0,0,0,0,-1,937,1695,4.683,-17.7078
-280,-671,4.85822,17.8672,-0.00240809,0.00394003,-0.00247974,0.00479384,-0.0032619,-1.23919,0.00467893,0.0387433,944,1695,4.85821,-17.8672
-273,-671,4.9765,18.0698,-0.00199544,0.00428985,-0.00177067,0.00475435,-0.00245994,-1.31425,0.00423481,0.0350859,951,1695,4.97651,-18.0698
-266,-671,4.94574,18.3623,-0.00118811,0.00433217,-0.00103993,0.00452158,-0.00137752,-1.39064,0.00356345,0.0255944,958,1695,4.94573,-18.3623
-259,-671,4.82507,18.5463,-0.000607756,0.00440326,-0.000482711,0.00444934,-0.000653832,-1.47563,0.00320647,0.022878,965,1695,4.82509,-18.5462
-252,-671,4.82397,18.7469,-0.000375335,0.0043003,0.000162443,0.00430593,-0.000380971,1.53611,0.00300567,0.0171177,972,1695,4.82397,-18.747
-245,-671,4.83545,19.004,-8.69286e-05,0.00407058,0.000706545,0.00418737,-0.000203721,1.40698,0.0028619,0.0196367,979,1695,4.83547,-19.0041
-238,-671,4.84741,19.2516,0.000116049,0.00380583,0.00114487,0.00413219,-0.000210315,1.2931,0.00282751,0.0202992,986,1695,4.84744,-19.2516
-231,-671,4.83014,19.4869,0.000199095,0.0033189,0.00141962,0.00386817,-0.000350175,1.20162,0.00270308,0.0156549,993,1695,4.83013,-19.4869
-224,-671,4.79791,19.7037,0.000184786,0.00276497,0.00162285,0.00354803,-0.000598282,1.12123,0.00258794,0.0124711,1000,1695,4.79793,-19.7038
-217,-671,4.8078,19.9022,0.000185889,0.00201571,0.00160863,0.0029514,-0.000749805,1.04396,0.0022594,0.012073,1007,1695,4.80777,-19.9022
-210,-671,4.78607,20.1133,0.000201091,0.0012384,0.00154266,0.00234726,-0.000907765,0.947567,0.00193958,0.0112054,1014,1695,4.78607,-20.1133
-203,-671,4.76477,20.3182,0.000341484,0.00052506,0.00145337,0.00188953,-0.00102299,0.816934,0.00170617,0.018179,1021,1695,4.76473,-20.3183
-196,-671,4.78125,20.5294,0.000454278,2.4985e-05,0.00125468,0.00151254,-0.00103327,0.70068,0.00147848,0.0157819,1028,1695,4.78128,-20.5294
-189,-671,4.80383,20.7662,0.000500207,-0.000368341,0.00107165,0.00122223,-0.00109036,0.592891,0.0013359,0.0119423,1035,1695,4.8038,-20.7662
-182,-671,4.78613,20.9432,0.000637024,-0.000541913,0.000901633,0.00112478,-0.00102967,0.495885,0.00124428,0.00952423,1042,1695,4.78618,-20.9432
-175,-671,4.78503,21.1125,0.000914237,-0.000577834,0.000843129,0.00129401,-0.000957603,0.42321,0.00130479,0.0120393,1049,1695,4.78505,-21.1126
-168,-671,4.78821,21.2753,0.00124732,-0.000447149,0.000880844,0.00162225,-0.000822082,0.402422,0.00143622,0.0145636,1056,1695,4.78825,-21.2753
-161,-671,4.78772,21.4594,0.00161973,-6.13353e-05,0.000993368,0.00208046,-0.000522062,0.434273,0.00158983,0.0100266,1063,1695,4.78774,-21.4593
-154,-671,4.8053,21.6283,0.00208827,0.000505708,0.00115401,0.00269622,-0.000102244,0.484872,0.00183251,0.00823269,1070,1695,4.80528,-21.6283
-147,-671,4.81555,21.821,0.00256582,0.00107279,0.00128419,0.00330471,0.000333899,0.522116,0.0021007,0.00975058,1077,1695,4.8156,-21.821
-140,-671,4.8501,21.9929,0.00312256,0.00175638,0.00137025,0.00397055,0.000908393,0.554168,0.00240219,0.0109527,1084,1695,4.85005,-21.9929
-133,-671,4.86304,22.1494,0.00372725,0.00227788,0.00156956,0.00473135,0.00127378,0.569122,0.00282697,0.0126799,1091,1695,4.86308,-22.1495
-126,-671,4.88977,22.3392,0.00422085,0.00281564,0.00179628,0.00544705,0.00158944,0.598974,0.00323446,0.0168275,1098,1695,4.88983,-22.3392
-119,-671,4.91833,22.5437,0.00472501,0.00315882,0.00188686,0.00598482,0.00189901,0.588701,0.00353139,0.0300338,1105,1695,4.91832,-22.5437
-112,-671,4.95422,22.7261,0.00524397,0.00344207,0.00196557,0.00650524,0.0021808,0.570503,0.00382317,0.0432987,1112,1695,4.95418,-22.7261
-105,-671,4.89758,22.7627,0,0,0,0,0,0,0,-1,1119,1695,4.89762,-22.7627
-98,-671,4.94226,22.7168,0,0,0,0,0,0,0,-1,1126,1695,4.94223,-22.7168
-91,-671,5.09753,22.6554,0,0,0,0,0,0,0,-1,1133,1695,5.0975,-22.6554
-84,-671,5.33215,22.9153,0,0,0,0,0,0,0,-1,1140,1695,5.3322,-22.9153
-77,-671,4.31763,16.489,0,0,0,0,0,0,0,-1,1147,1695,4.31757,-16.489
-70,-671,3.06067,10.7737,0,0,0,0,0,0,0,-1,1154,1695,3.0607,-10.7737
-63,-671,2.94592,6.90198,0,0,0,0,0,0,0,-1,1161,1695,2.94594,-6.90198
-56,-671,-3.07678,2.87976,0,0,0,0,0,0,0,-1,1168,1695,-3.07675,-2.87979
-49,-671,-1.05957,4.76917,0,0,0,0,0,0,0,-1,1175,1695,-1.05958,-4.76921
-42,-671,0.539307,3.7865,0,0,0,0,0,0,0,-1,1182,1695,0.539266,-3.78648
-35,-671,-0.272461,0.347534,0,0,0,0,0,0,0,-1,1189,1695,-0.272434,-0.347569
-28,-671,-10.4878,17.2009,0,0,0,0,0,0,0,-1,1196,1695,-10.4878,-17.2009
-21,-671,5.4812,23.2488,0,0,0,0,0,0,0,-1,1203,1695,5.48118,-23.2488
-14,-671,5.5249,23.806,0,0,0,0,0,0,0,-1,1210,1695,5.52491,-23.806
-7,-671,5.70667,24.6393,0,0,0,0,0,0,0,-1,1217,1695,5.70666,-24.6393
0,-671,5.94897,24.9203,0,0,0,0,0,0,0,-1,1224,1695,5.94894,-24.9203
7,-671,5.93176,25.4977,0.0370642,0.0464796,0.0209221,0.0632171,0.0203267,0.89606,0.0372653,0.0428564,1231,1695,5.93172,-25.4977
14,-671,6.15747,25.7524,0.0363897,0.0423942,0.0163961,0.0560607,0.0227233,0.875949,0.0325594,0.0427975,1238,1695,6.15747,-25.7524
21,-671,6.74646,25.458,0.0348601,0.0372284,0.0119027,0.0480057,0.0240829,0.834979,0.0277161,0.0478769,1245,1695,6.74647,-25.458
28,-671,4.72241,24.0651,0.0329492,0.0313373,0.00816387,0.0403468,0.0239397,0.736195,0.0234292,0.0441703,1252,1695,4.72236,-24.0651
35,-671,5.75195,23.8073,0.0301549,0.025159,0.00512626,0.0333595,0.0219545,0.558686,0.0195785,0.0447247,1259,1695,5.7519,-23.8073
42,-671,6.81665,23.84,0,0,0,0,0,0,0,-1,1266,1695,6.81666,-23.84
49,-671,7.70288,23.704,0.0214155,0.0177877,0.00272459,0.0228748,0.0163285,0.491716,0.0136033,0.0453197,1273,1695,7.70289,-23.704
56,-671,7.052,23.9348,0.0144458,0.0245477,0.000548498,0.0245773,0.0144161,1.51671,0.0142604,0.0426869,1280,1695,7.05195,-23.9348
63,-671,6.88965,24.0585,0.00703352,0.0331001,-0.00360116,0.0335885,0.00654516,-1.43601,0.0205608,0.0480766,1287,1695,6.88964,-24.0584
70,-671,6.78955,24.4128,0,0,0,0,0,0,0,-1,1294,1695,6.78954,-24.4129
77,-671,6.23303,24.7223,0,0,0,0,0,0,0,-1,1301,1695,6.233,-24.7223
84,-671,6.95386,26.0573,0,0,0,0,0,0,0,-1,1308,1695,6.95381,-26.0572
91,-671,6.73535,26.2578,0.00484307,0.0414858,0.00386583,0.0418892,0.00443966,1.46682,0.0265702,0.0472288,1315,1695,6.73536,-26.2578
98,-671,6.54065,26.4849,0,0,0,0,0,0,0,-1,1322,1695,6.54066,-26.4849
105,-671,6.28711,26.6324,0.0206629,0.0386324,0.00395739,0.0394653,0.01983,1.36335,0.0227854,0.0467785,1329,1695,6.28713,-26.6325
112,-671,5.76477,26.9249,0.030501,0.033102,0.00290842,0.0349874,0.0286155,0.99564,0.0215178,0.0441262,1336,1695,5.76479,-26.9249
119,-671,5.39209,27.3711,0.0413848,0.0216503,0.00323271,0.0419009,0.0211342,0.158299,0.0241918,0.0435501,1343,1695,5.3921,-27.3711
126,-671,5.5188,22.9034,0,0,0,0,0,0,0,-1,1350,1695,5.51884,-22.9035
133,-671,6.41699,22.7213,0.0623647,-0.00971217,0.00708318,0.0630541,-0.0104017,0.0970358,0.0458979,0.0469026,1357,1695,6.41703,-22.7213
140,-671,7.18005,22.7042,0.0712035,-0.0234262,0.00887233,0.0720282,-0.0242509,0.0926821,0.0578231,0.0463453,1364,1695,7.18004,-22.7042
147,-671,7.74866,22.7046,0.076702,-0.0321002,0.00985854,0.0775881,-0.0329862,0.089637,0.0655484,0.0478693,1371,1695,7.74863,-22.7046
154,-671,8.28455,22.7356,0,0,0,0,0,0,0,-1,1378,1695,8.2845,-22.7356
161,-671,4.49292,4.91272,0,0,0,0,0,0,0,-1,1385,1695,4.49297,-4.91273
168,-671,5.17639,6.1416,0,0,0,0,0,0,0,-1,1392,1695,5.1764,-6.14164
175,-671,5.6731,1.64685,0,0,0,0,0,0,0,-1,1399,1695,5.67313,-1.64691
182,-671,5.56812,1.71692,0,0,0,0,0,0,0,-1,1406,1695,5.56809,-1.71686
189,-671,6.98315,6.36169,0,0,0,0,0,0,0,-1,1413,1695,6.98312,-6.36175
196,-671,5.38123,5.69775,0,0,0,0,0,0,0,-1,1420,1695,5.38125,-5.69769
203,-671,5.95117,8.11658,0,0,0,0,0,0,0,-1,1427,1695,5.9512,-8.11662
210,-671,4.73596,8.39624,0,0,0,0,0,0,0,-1,1434,1695,4.736,-8.39618
217,-671,5.37097,11.863,0,0,0,0,0,0,0,-1,1441,1695,5.37094,-11.863
224,-671,5.08167,13.6694,0,0,0,0,0,0,0,-1,1448,1695,5.08165,-13.6695
231,-671,5.66663,15.3348,0,0,0,0,0,0,0,-1,1455,1695,5.66667,-15.3349
238,-671,6.32959,16.2036,0,0,0,0,0,0,0,-1,1462,1695,6.32961,-16.2037
245,-671,6.94043,20.5471,0,0,0,0,0,0,0,-1,1469,1695,6.9404,-20.5471
252,-671,6.84753,22.4438,0,0,0,0,0,0,0,-1,1476,1695,6.84749,-22.4438
259,-671,6.80591,22.2743,0,0,0,0,0,0,0,-1,1483,1695,6.80592,-22.2743
266,-671,6.89014,22.4803,0.00391835,-0.00236369,0.000351464,0.00393796,-0.00238329,0.0557156,0.00368618,0.0342502,1490,1695,6.89018,-22.4804
273,-671,6.95667,22.4213,0.00388546,-0.00222531,0.000148422,0.00388906,-0.00222891,0.0242696,0.0035753,0.0120755,1497,1695,6.95662,-22.4213
280,-671,6.97168,22.2919,0.00372858,-0.00163145,-6.49344e-06,0.00372859,-0.00163146,-0.00121145,0.0031726,0.00861814,1504,1695,6.97171,-22.2918
287,-671,6.97803,22.0906,0.0034135,-0.000966684,-0.0001076,0.00341614,-0.000969326,-0.0245455,0.00266007,0.010313,1511,1695,6.97807,-22.0906
294,-671,6.97412,21.9158,0.00300011,-0.00061245,-0.000123688,0.00300434,-0.00061668,-0.034185,0.00223697,0.0108237,1518,1695,6.97413,-21.9157
301,-671,6.97546,21.7753,0.0025917,-0.000303,-0.000104006,0.00259544,-0.000306732,-0.0358681,0.00184107,0.0103629,1525,1695,6.97552,-21.7753
308,-671,6.99316,21.6384,0.0022967,-6.65637e-05,-0.000116303,0.00230241,-7.22735e-05,-0.0490548,0.00155959,0.0116398,1532,1695,6.99321,-21.6384
315,-671,7.02808,21.499,0.00219009,-2.80511e-06,-0.000328675,0.00223829,-5.10081e-05,-0.14562,0.00150948,0.0131232,1539,1695,7.02802,-21.499
322,-671,7.03809,21.3411,0.00211295,-0.00011706,-0.000575855,0.00225287,-0.000256983,-0.238364,0.00159449,0.0150426,1546,1695,7.03812,-21.3411
329,-671,6.97815,21.1351,0.00216386,-0.000461451,-0.000938222,0.00246469,-0.000762277,-0.310278,0.0019476,0.0140869,1553,1695,6.97821,-21.1351
336,-671,6.98633,20.9417,0.00234983,-0.000845432,-0.00138401,0.00286594,-0.00136155,-0.356938,0.00249173,0.0106419,1560,1695,6.98638,-20.9416
343,-671,7.01367,20.7693,0.00259056,-0.00136216,-0.00193499,0.0033801,-0.0021517,-0.387411,0.00321993,0.00948092,1567,1695,7.01364,-20.7693
350,-671,7.0188,20.568,0.00285395,-0.00213867,-0.00250011,0.00389064,-0.00317537,-0.39308,0.00408653,0.00924455,1574,1695,7.01883,-20.568
357,-671,7.01453,20.3472,0.00311339,-0.00289275,-0.00302119,0.00437014,-0.0041495,-0.394203,0.00491936,0.00954652,1581,1695,7.01456,-20.3472
364,-671,7.0199,20.1327,0.00334271,-0.00370747,-0.00350256,0.00478694,-0.00515171,-0.391096,0.00573937,0.0122548,1588,1695,7.01986,-20.1327
371,-671,7.00671,19.955,0.0035033,-0.00447887,-0.00389044,0.00508575,-0.00606132,-0.386314,0.00644397,0.0143584,1595,1695,7.00671,-19.955
378,-671,6.99353,19.7656,0.00361858,-0.00518474,-0.00410072,0.00523278,-0.00679894,-0.375009,0.0069661,0.012425,1602,1695,6.99351,-19.7657
385,-671,6.9679,19.532,0.00376178,-0.00567299,-0.0041755,0.00534427,-0.00725549,-0.362269,0.00730232,0.0144201,1609,1695,6.9679,-19.532
392,-671,6.94104,19.3566,0.00385493,-0.00615637,-0.00423693,0.00540734,-0.00770877,-0.351209,0.00761135,0.0220915,1616,1695,6.94107,-19.3566
399,-671,6.92517,19.0928,0.00365667,-0.00683264,-0.00399569,0.00500534,-0.00818131,-0.325524,0.00768657,0.0213883,1623,1695,6.92516,-19.0928
406,-671,6.99182,18.8374,0.003505,-0.00716148,-0.00364483,0.0046315,-0.00828798,-0.299755,0.00755799,0.0316337,1630,1695,6.99184,-18.8374
413,-671,7.01135,18.7582,0.00325653,-0.00748508,-0.00297028,0.00402316,-0.00825171,-0.252588,0.00722571,0.0414483,1637,1695,7.01138,-18.7582
420,-671,7.15051,18.5328,0,0,0,0,0,0,0,-1,1644,1695,7.15055,-18.5328
427,-671,6.48096,18.3589,0,0,0,0,0,0,0,-1,1651,1695,6.48094,-18.3589
434,-671,7.13635,17.8193,0,0,0,0,0,0,0,-1,1658,1695,7.13633,-17.8194
441,-671,5.77332,17.6544,0,0,0,0,0,0,0,-1,1665,1695,5.77337,-17.6545
448,-671,5.854,17.8229,0,0,0,0,0,0,0,-1,1672,1695,5.85397,-17.8228
455,-671,3.40137,9.28076,0,0,0,0,0,0,0,-1,1679,1695,3.40135,-9.28082
462,-671,5.86255,4.47961,0,0,0,0,0,0,0,-1,1686,1695,5.8625,-4.4796
469,-671,3.71301,3.76978,0,0,0,0,0,0,0,-1,1693,1695,3.71297,-3.76974
476,-671,3.75574,3.18848,0,0,0,0,0,0,0,-1,1700,1695,3.7558,-3.18847
483,-671,7.81824,12.1041,0,0,0,0,0,0,0,-1,1707,1695,7.81826,-12.1041
490,-671,0,0,0,0,0,0,0,0,0,-1,1714,1695,0,0
497,-671,0,0,0,0,0,0,0,0,0,-1,1721,1695,0,0
504,-671,0,0,0,0,0,0,0,0,0,-1,1728,1695,0,0
511,-671,0,0,0,0,0,0,0,0,0,-1,1735,1695,0,0
518,-671,0,0,0,0,0,0,0,0,0,-1,1742,1695,0,0
525,-671,0,0,0,0,0,0,0,0,0,-1,1749,1695,0,0
532,-671,0,0,0,0,0,0,0,0,0,-1,1756,1695,0,0
539,-671,0,0,0,0,0,0,0,0,0,-1,1763,1695,0,0
546,-671,0,0,0,0,0,0,0,0,0,-1,1770,1695,0,0
553,-671,0,0,0,0,0,0,0,0,0,-1,1777,1695,0,0
560,-671,0,0,0,0,0,0,0,0,0,-1,1784,1695,0,0
567,-671,0,0,0,0,0,0,0,0,0,-1,1791,1695,0,0
574,-671,0,0,0,0,0,0,0,0,0,-1,1798,1695,0,0
581,-671,0,0,0,0,0,0,0,0,0,-1,1805,1695,0,0
588,-671,0,0,0,0,0,0,0,0,0,-1,1812,1695,0,0
595,-671,0,0,0,0,0,0,0,0,0,-1,1819,1695,0,0
602,-671,0,0,0,0,0,0,0,0,0,-1,1826,1695,0,0
609,-671,0,0,0,0,0,0,0,0,0,-1,1833,1695,0,0
616,-671,0,0,0,0,0,0,0,0,0,-1,1840,1695,0,0
623,-671,0,0,0,0,0,0,0,0,0,-1,1847,1695,0,0
630,-671,0,0,0,0,0,0,0,0,0,-1,1854,1695,0,0
637,-671,0,0,0,0,0,0,0,0,0,-1,1861,1695,0,0
644,-671,0,0,0,0,0,0,0,0,0,-1,1868,1695,0,0
651,-671,0,0,0,0,0,0,0,0,0,-1,1875,1695,0,0
658,-671,0,0,0,0,0,0,0,0,0,-1,1882,1695,0,0
665,-671,0,0,0,0,0,0,0,0,0,-1,1889,1695,0,0
672,-671,0,0,0,0,0,0,0,0,0,-1,1896,1695,0,0
679,-671,0,0,0,0,0,0,0,0,0,-1,1903,1695,0,0
686,-671,0,0,0,0,0,0,0,0,0,-1,1910,1695,0,0
693,-671,0,0,0,0,0,0,0,0,0,-1,1917,1695,0,0
700,-671,0,0,0,0,0,0,0,0,0,-1,1924,1695,0,0
707,-671,0,0,0,0,0,0,0,0,0,-1,1931,1695,0,0
714,-671,0,0,0,0,0,0,0,0,0,-1,1938,1695,0,0
721,-671,0,0,0,0,0,0,0,0,0,-1,1945,1695,0,0
728,-671,0,0,0,0,0,0,0,0,0,-1,1952,1695,0,0
735,-671,0,0,0,0,0,0,0,0,0,-1,1959,1695,0,0
742,-671,0,0,0,0,0,0,0,0,0,-1,1966,1695,0,0
749,-671,0,0,0,0,0,0,0,0,0,-1,1973,1695,0,0
756,-671,0,0,0,0,0,0,0,0,0,-1,1980,1695,0,0
763,-671,0,0,0,0,0,0,0,0,0,-1,1987,1695,0,0
770,-671,0,0,0,0,0,0,0,0,0,-1,1994,1695,0,0
777,-671,0,0,0,0,0,0,0,0,0,-1,2001,1695,0,0
784,-671,0,0,0,0,0,0,0,0,0,-1,2008,1695,0,0
791,-671,0,0,0,0,0,0,0,0,0,-1,2015,1695,0,0
798,-671,0,0,0,0,0,0,0,0,0,-1,2022,1695,0,0
805,-671,0,0,0,0,0,0,0,0,0,-1,2029,1695,0,0
812,-671,0,0,0,0,0,0,0,0,0,-1,2036,1695,0,0
-700,-678,0,0,0,0,0,0,0,0,0,-1,524,1702,0,0
-693,-678,0,0,0,0,0,0,0,0,0,-1,531,1702,0,0
-686,-678,0,0,0,0,0,0,0,0,0,-1,538,1702,0,0
-679,-678,0,0,0,0,0,0,0,0,0,-1,545,1702,0,0
-672,-678,0,0,0,0,0,0,0,0,0,-1,552,1702,0,0
-665,-678,0,0,0,0,0,0,0,0,0,-1,559,1702,0,0
-658,-678,0,0,0,0,0,0,0,0,0,-1,566,1702,0,0
-651,-678,0,0,0,0,0,0,0,0,0,-1,573,1702,0,0
-644,-678,0,0,0,0,0,0,0,0,0,-1,580,1702,0,0
-637,-678,0,0,0,0,0,0,0,0,0,-1,587,1702,0,0
-630,-678,0,0,0,0,0,0,0,0,0,-1,594,1702,0,0
-623,-678,0,0,0,0,0,0,0,0,0,-1,601,1702,0,0
-616,-678,0,0,0,0,0,0,0,0,0,-1,608,1702,0,0
-609,-678,0,0,0,0,0,0,0,0,0,-1,615,1702,0,0
-602,-678,0,0,0,0,0,0,0,0,0,-1,622,1702,0,0
-595,-678,0,0,0,0,0,0,0,0,0,-1,629,1702,0,0
-588,-678,0,0,0,0,0,0,0,0,0,-1,636,1702,0,0
-581,-678,0,0,0,0,0,0,0,0,0,-1,643,1702,0,0
-574,-678,0,0,0,0,0,0,0,0,0,-1,650,1702,0,0
-567,-678,0,0,0,0,0,0,0,0,0,-1,657,1702,0,0
-560,-678,0,0,0,0,0,0,0,0,0,-1,664,1702,0,0
-553,-678,0,0,0,0,0,0,0,0,0,-1,671,1702,0,0
-546,-678,0,0,0,0,0,0,0,0,0,-1,678,1702,0,0
-539,-678,0,0,0,0,0,0,0,0,0,-1,685,1702,0,0
-532,-678,0,0,0,0,0,0,0,0,0,-1,692,1702,0,0
-525,-678,0,0,0,0,0,0,0,0,0,-1,699,1702,0,0
-518,-678,0,0,0,0,0,0,0,0,0,-1,706,1702,0,0
-511,-678,0,0,0,0,0,0,0,0,0,-1,713,1702,0,0
-504,-678,0,0,0,0,0,0,0,0,0,-1,720,1702,0,0
-497,-678,0,0,0,0,0,0,0,0,0,-1,727,1702,0,0
-490,-678,0,0,0,0,0,0,0,0,0,-1,734,1702,0,0
-483,-678,0,0,0,0,0,0,0,0,0,-1,741,1702,0,0
-476,-678,0,0,0,0,0,0,0,0,0,-1,748,1702,0,0
-469,-678,0,0,0,0,0,0,0,0,0,-1,755,1702,0,0
-462,-678,0,0,0,0,0,0,0,0,0,-1,762,1702,0,0
-455,-678,0,0,0,0,0,0,0,0,0,-1,769,1702,0,0
-448,-678,0,0,0,0,0,0,0,0,0,-1,776,1702,0,0
-441,-678,0,0,0,0,0,0,0,0,0,-1,783,1702,0,0
-434,-678,0,0,0,0,0,0,0,0,0,-1,790,1702,0,0
-427,-678,0,0,0,0,0,0,0,0,0,-1,797,1702,0,0
-420,-678,0,0,0,0,0,0,0,0,0,-1,804,1702,0,0
-413,-678,0,0,0,0,0,0,0,0,0,-1,811,1702,0,0
-406,-678,0,0,0,0,0,0,0,0,0,-1,818,1702,0,0
-399,-678,0,0,0,0,0,0,0,0,0,-1,825,1702,0,0
-392,-678,0,0,0,0,0,0,0,0,0,-1,832,1702,0,0
-385,-678,0,0,0,0,0,0,0,0,0,-1,839,1702,0,0
-378,-678,0,0,0,0,0,0,0,0,0,-1,846,1702,0,0
-371,-678,0,0,0,0,0,0,0,0,0,-1,853,1702,0,0
-364,-678,0,0,0,0,0,0,0,0,0,-1,860,1702,0,0
-357,-678,0,0,0,0,0,0,0,0,0,-1,867,1702,0,0
-350,-678,-5.79944,6.11865,0,0,0,0,0,0,0,-1,874,1702,-5.79942,-6.11864
-343,-678,-6.44891,4.52759,0,0,0,0,0,0,0,-1,881,1702,-6.4489,-4.52758
-336,-678,-6.91888,2.99438,0,0,0,0,0,0,0,-1,888,1702,-6.9189,-2.99435
-329,-678,-7.14575,1.29761,0,0,0,0,0,0,0,-1,895,1702,-7.14577,-1.29755
-322,-678,4.74548,15.4724,0,0,0,0,0,0,0,-1,902,1702,4.7455,-15.4724
-315,-678,6.36914,15.9497,0,0,0,0,0,0,0,-1,909,1702,6.36912,-15.9497
-308,-678,3.55981,17.3597,0,0,0,0,0,0,0,-1,916,1702,3.55984,-17.3598
-301,-678,4.00079,17.5145,0,0,0,0,0,0,0,-1,923,1702,4.00082,-17.5145
-294,-678,4.71283,17.4558,0,0,0,0,0,0,0,-1,930,1702,4.71284,-17.4558
-287,-678,4.97333,17.6754,0,0,0,0,0,0,0,-1,937,1702,4.97334,-17.6754
-280,-678,5.13745,17.8739,-0.00240863,0.00610998,-0.00348166,0.00735192,-0.00365057,-1.22816,0.006471,0.0493867,944,1702,5.13744,-17.8739
-273,-678,5.18842,17.9741,-0.00198512,0.00658762,-0.00232357,0.0071769,-0.0025744,-1.32242,0.0058352,0.0446734,951,1702,5.18841,-17.9741
-266,-678,5.1745,18.3269,-0.00108257,0.00662573,-0.00119711,0.00680737,-0.00126421,-1.42022,0.00501307,0.0342693,958,1702,5.17452,-18.3269
-259,-678,5.0498,18.6298,-0.000472832,0.00663871,-0.000327805,0.00665379,-0.00048791,-1.52483,0.00460712,0.024471,965,1702,5.04979,-18.6298
-252,-678,5.00916,18.7731,-0.000309985,0.00638449,0.000608104,0.00643928,-0.000364775,1.48094,0.00441946,0.0199197,972,1702,5.00914,-18.7731
-245,-678,5.04712,19.0272,-2.2395e-05,0.00602765,0.0013429,0.00631233,-0.000307076,1.3619,0.00431422,0.0181034,979,1702,5.04713,-19.0273
-238,-678,5.05688,19.2656,0.000192064,0.0056551,0.00190945,0.00625633,-0.000409161,1.26575,0.00431375,0.0144011,986,1702,5.05686,-19.2656
-231,-678,5.02313,19.4921,0.000235946,0.00500286,0.00221977,0.00587643,-0.000637625,1.19587,0.00414654,0.0127289,993,1702,5.02312,-19.4921
-224,-678,4.99158,19.6973,0.000189417,0.0042843,0.00241242,0.005401,-0.00092728,1.13727,0.00394624,0.0134772,1000,1702,4.99159,-19.6973
-217,-678,4.99915,19.9044,0.000162278,0.00334903,0.00231089,0.00456261,-0.00105131,1.08722,0.00344606,0.0135432,1007,1702,4.99913,-19.9045
-210,-678,4.99359,20.1158,0.000113896,0.00237337,0.00216895,0.00368917,-0.0012019,1.0255,0.00294306,0.0133231,1014,1702,4.99357,-20.1158
-203,-678,4.98364,20.3169,0.00022001,0.00150616,0.00198203,0.00294683,-0.00122066,0.942267,0.00247394,0.0164275,1021,1702,4.98359,-20.3169
-196,-678,4.98279,20.5319,0.000271709,0.000921683,0.00161977,0.00224875,-0.00105535,0.884403,0.00194866,0.0165663,1028,1702,4.9828,-20.5318
-189,-678,4.99109,20.7654,0.000218278,0.000351054,0.00123357,0.00152002,-0.000950686,0.812281,0.00143903,0.0107769,1035,1702,4.99107,-20.7654
-182,-678,4.98389,20.959,0.000267743,4.75254e-05,0.000922357,0.00108654,-0.000771271,0.72599,0.00107774,0.0100778,1042,1702,4.98385,-20.9589
-175,-678,4.97717,21.1278,0.000452215,-0.000144063,0.000740509,0.000952349,-0.000644197,0.594019,0.000927472,0.0103751,1049,1702,4.97712,-21.1278
-168,-678,4.97644,21.3135,0.000697654,-0.000159163,0.000649683,0.00104746,-0.000508971,0.493917,0.000916359,0.0105379,1056,1702,4.9765,-21.3135
-161,-678,4.96814,21.4851,0.000966003,8.30254e-05,0.000661775,0.00132004,-0.00027101,0.491237,0.000982896,0.00898738,1063,1702,4.9682,-21.4851
-154,-678,4.97351,21.6439,0.00134278,0.000532649,0.000760261,0.00179915,7.62762e-05,0.540629,0.00117483,0.00758437,1070,1702,4.97355,-21.644
-147,-678,4.98438,21.814,0.00177874,0.000978766,0.000840876,0.00230992,0.000447591,0.563397,0.00141455,0.00931258,1077,1702,4.98436,-21.8139
-140,-678,5.00366,21.9905,0.00225313,0.00147843,0.000906393,0.00285147,0.000880088,0.583468,0.00168601,0.011703,1084,1702,5.00362,-21.9905
-133,-678,5.01208,22.1561,0.0027705,0.00181674,0.00106642,0.00346181,0.00112543,0.575147,0.00203903,0.0118628,1091,1702,5.01207,-22.1562
-126,-678,5.02625,22.3236,0.00324679,0.00219658,0.00125478,0.00408191,0.00136146,0.58723,0.00239983,0.00927541,1098,1702,5.0263,-22.3236
-119,-678,5.05298,22.5787,0.00370019,0.00241945,0.00133191,0.00453768,0.00158197,0.561317,0.00265955,0.0211791,1105,1702,5.05296,-22.5788
-112,-678,5.05298,22.7482,0.00415096,0.00256712,0.00139305,0.00496145,0.00175663,0.526939,0.00290489,0.032241,1112,1702,5.05301,-22.7481
-105,-678,5.1156,22.8464,0.00452906,0.00270354,0.00158287,0.00544348,0.00178912,0.523862,0.00320371,0.0342265,1119,1702,5.11563,-22.8465
-98,-678,5.10889,22.8237,0.00495275,0.00296964,0.00175111,0.00597355,0.00194884,0.527785,0.00351756,0.0224766,1126,1702,5.1089,-22.8238
-91,-678,5.14844,22.9371,0.00539042,0.00319081,0.00174402,0.00635246,0.00222878,0.504085,0.00372159,0.0215661,1133,1702,5.14839,-22.9372
-84,-678,5.2428,23.0304,0.00597485,0.00296125,0.001505,0.00659771,0.00233839,0.392401,0.00386263,0.0416676,1140,1702,5.24285,-23.0304
-77,-678,5.31177,23.38,0,0,0,0,0,0,0,-1,1147,1702,5.31173,-23.38
-70,-678,4.75891,19.6552,0,0,0,0,0,0,0,-1,1154,1702,4.75895,-19.6551
-63,-678,3.41687,11.0365,0,0,0,0,0,0,0,-1,1161,1702,3.41682,-11.0365
-56,-678,1.72388,6.13159,0,0,0,0,0,0,0,-1,1168,1702,1.72388,-6.13157
-49,-678,-0.241699,5.29895,0,0,0,0,0,0,0,-1,1175,1702,-0.241682,-5.29897
-42,-678,0.297119,3.90649,0,0,0,0,0,0,0,-1,1182,1702,0.297139,-3.90655
-35,-678,0.498413,3.64038,0,0,0,0,0,0,0,-1,1189,1702,0.498471,-3.64038
-28,-678,0.132446,3.55994,0,0,0,0,0,0,0,-1,1196,1702,0.132432,-3.55993
-21,-678,5.54602,23.816,0,0,0,0,0,0,0,-1,1203,1702,5.54602,-23.816
-14,-678,5.60229,23.8788,0,0,0,0,0,0,0,-1,1210,1702,5.60227,-23.8788
-7,-678,5.82141,23.9276,0,0,0,0,0,0,0,-1,1217,1702,5.82146,-23.9276
0,-678,6.07141,23.9827,0,0,0,0,0,0,0,-1,1224,1702,6.0714,-23.9826
7,-678,5.76233,24.3455,0,0,0,0,0,0,0,-1,1231,1702,5.76234,-24.3455
14,-678,6.01465,24.8439,0.0291097,0.0322845,0.0123316,0.0431305,0.0182637,0.849409,0.0249985,0.0459706,1238,1702,6.0146,-24.8439
21,-678,6.32324,25.0367,0.0277272,0.0282354,0.00931569,0.0373005,0.0186621,0.799031,0.0215354,0.0448989,1245,1702,6.32325,-25.0367
28,-678,6.64783,25.3138,0.0261801,0.023571,0.00693998,0.0319371,0.0178141,0.692495,0.0184799,0.0466366,1252,1702,6.64785,-25.3139
35,-678,5.8335,24.0333,0.0239344,0.0186776,0.00505035,0.0269994,0.0156126,0.545468,0.0156516,0.0420984,1259,1702,5.83345,-24.0333
42,-678,6.12305,24.7192,0,0,0,0,0,0,0,-1,1266,1702,6.12304,-24.7192
49,-678,6.06543,25.0209,0,0,0,0,0,0,0,-1,1273,1702,6.06547,-25.0209
56,-678,6.22156,23.6318,0,0,0,0,0,0,0,-1,1280,1702,6.22158,-23.6319
63,-678,6.22144,24.2806,0.00549703,0.0242727,-0.000860691,0.0243121,0.00545765,-1.52508,0.0147298,0.0481054,1287,1702,6.22149,-24.2806
70,-678,5.61157,24.5907,-0.00053519,0.0291272,-0.00130948,0.0291849,-0.000592886,-1.52676,0.0196572,0.0448789,1294,1702,5.61159,-24.5907
77,-678,6.80261,24.7206,0,0,0,0,0,0,0,-1,1301,1702,6.80255,-24.7206
84,-678,6.84656,25.3368,0,0,0,0,0,0,0,-1,1308,1702,6.84655,-25.3368
91,-678,6.56787,25.5562,0,0,0,0,0,0,0,-1,1315,1702,6.56786,-25.5562
98,-678,6.25464,24.5765,0,0,0,0,0,0,0,-1,1322,1702,6.25458,-24.5766
105,-678,6.24866,24.4467,0.0167349,0.031504,0.00315463,0.0321496,0.0160893,1.36893,0.0185616,0.0450899,1329,1702,6.24864,-24.4466
112,-678,6.32874,24.0203,0.0246589,0.0269291,0.00247949,0.028521,0.023067,1.00006,0.0174819,0.0467085,1336,1702,6.32874,-24.0202
119,-678,6.44153,23.5873,0,0,0,0,0,0,0,-1,1343,1702,6.44159,-23.5872
126,-678,6.76501,23.3079,0.0419841,0.00556408,0.00443757,0.042517,0.00503119,0.119515,0.0268253,0.0461569,1350,1702,6.76501,-23.3078
133,-678,6.95117,23.5397,0.0500281,-0.00695901,0.00607376,0.0506682,-0.00759917,0.10501,0.036576,0.0496607,1357,1702,6.95118,-23.5396
140,-678,7.0614,23.3073,0.0573897,-0.0179095,0.00764752,0.0581586,-0.0186783,0.100199,0.0462726,0.046392,1364,1702,7.06141,-23.3072
147,-678,7.46594,23.1748,0.0624182,-0.0252504,0.00858357,0.0632507,-0.0260829,0.0966859,0.0530439,0.0451179,1371,1702,7.46588,-23.1749
154,-678,7.7854,23.1674,0,0,0,0,0,0,0,-1,1378,1702,7.78536,-23.1674
161,-678,3.44202,4.53992,0,0,0,0,0,0,0,-1,1385,1702,3.442,-4.53996
168,-678,4.21863,5.25781,0,0,0,0,0,0,0,-1,1392,1702,4.21865,-5.25781
175,-678,5.21899,5.9635,0,0,0,0,0,0,0,-1,1399,1702,5.21894,-5.96346
182,-678,7.31262,6.75122,0,0,0,0,0,0,0,-1,1406,1702,7.3126,-6.75123
189,-678,5.96021,6.36853,0,0,0,0,0,0,0,-1,1413,1702,5.96018,-6.36851
196,-678,5.01599,8.15771,0,0,0,0,0,0,0,-1,1420,1702,5.01596,-8.15767
203,-678,4.64771,13.0559,0,0,0,0,0,0,0,-1,1427,1702,4.64766,-13.0559
210,-678,5.6532,18.5957,0,0,0,0,0,0,0,-1,1434,1702,5.65318,-18.5958
217,-678,6.88049,23.4835,0,0,0,0,0,0,0,-1,1441,1702,6.88047,-23.4835
224,-678,6.74634,23.3135,0,0,0,0,0,0,0,-1,1448,1702,6.74637,-23.3135
231,-678,6.67896,23.1072,0,0,0,0,0,0,0,-1,1455,1702,6.67895,-23.1072
238,-678,6.75574,23.0756,0,0,0,0,0,0,0,-1,1462,1702,6.75577,-23.0756
245,-678,6.75195,22.9979,0,0,0,0,0,0,0,-1,1469,1702,6.75199,-22.998
252,-678,6.76184,22.816,0.00269918,-0.00191795,0.000688039,0.00279953,-0.0020183,0.144828,0.00279374,0.0313184,1476,1702,6.76189,-22.816
259,-678,6.77014,22.7274,0.00279932,-0.00186325,0.000540477,0.00286115,-0.00192508,0.113906,0.00278089,0.0172777,1483,1702,6.7702,-22.7274
266,-678,6.80225,22.5758,0.00277894,-0.00178373,0.000377385,0.00280994,-0.00181473,0.0819691,0.00269059,0.010952,1490,1702,6.80222,-22.5758
273,-678,6.80786,22.4486,0.00275101,-0.0016302,0.000190055,0.00275924,-0.00163843,0.0432711,0.00256634,0.0104977,1497,1702,6.80784,-22.4486
280,-678,6.80286,22.2937,0.0026088,-0.00120475,4.85843e-05,0.00260942,-0.00120537,0.0127372,0.00225164,0.0101798,1504,1702,6.80291,-22.2937
287,-678,6.82495,22.1152,0.00233277,-0.00073146,-1.04195e-05,0.00233281,-0.000731495,-0.00340031,0.00184794,0.0103868,1511,1702,6.825,-22.1152
294,-678,6.82288,21.9417,0.00199947,-0.000458853,-5.13724e-06,0.00199948,-0.000458864,-0.00208972,0.00150938,0.0113295,1518,1702,6.8229,-21.9416
301,-678,6.80212,21.7842,0.00171242,-0.000308427,3.0094e-05,0.00171287,-0.000308875,0.0148874,0.00125758,0.0109811,1525,1702,6.80216,-21.7841
308,-678,6.80542,21.6385,0.00160347,-0.000356714,-2.21516e-05,0.00160372,-0.000356964,-0.0112989,0.00120588,0.0136243,1532,1702,6.80546,-21.6385
315,-678,6.82898,21.4985,0.00177091,-0.000481031,-0.000506565,0.00187961,-0.000589734,-0.211382,0.0014891,0.0154802,1539,1702,6.82904,-21.4985
322,-678,6.82227,21.3362,0.00189974,-0.000885781,-0.000869722,0.00214899,-0.00113503,-0.279105,0.00192592,0.0176737,1546,1702,6.82231,-21.3361
329,-678,6.81335,21.1449,0.002208,-0.00148038,-0.0013879,0.00267191,-0.00194428,-0.322575,0.00267617,0.0148274,1553,1702,6.81332,-21.1449
336,-678,6.79749,20.9446,0.0027212,-0.00210448,-0.00207243,0.00348905,-0.00287233,-0.354825,0.00367849,0.0121425,1560,1702,6.79754,-20.9446
343,-678,6.80493,20.7673,0.0032812,-0.00283388,-0.00288745,0.00442913,-0.00398181,-0.378398,0.00485834,0.0111303,1567,1702,6.80493,-20.7673
350,-678,6.81458,20.5697,0.00385351,-0.00383018,-0.0037412,0.00537416,-0.00535083,-0.386064,0.00619208,0.0103509,1574,1702,6.81462,-20.5697
357,-678,6.82495,20.364,0.00443675,-0.00476748,-0.00455198,0.00630766,-0.00663839,-0.389961,0.00747522,0.0084798,1581,1702,6.82499,-20.364
364,-678,6.83191,20.1581,0.00495741,-0.00574514,-0.00531238,0.00714653,-0.00793426,-0.390876,0.00871085,0.0116776,1588,1702,6.83192,-20.1581
371,-678,6.81641,19.9675,0.00535812,-0.00664514,-0.0059607,0.00781518,-0.0091022,-0.390988,0.00977667,0.0128797,1595,1702,6.81642,-19.9675
378,-678,6.8053,19.7515,0.00565681,-0.00744948,-0.0063817,0.00825079,-0.0100435,-0.386072,0.0105791,0.0146113,1602,1702,6.80532,-19.7515
385,-678,6.8009,19.5721,0.0059286,-0.00793712,-0.00659182,0.00856217,-0.0105707,-0.380094,0.0110666,0.0203354,1609,1702,6.80085,-19.5721
392,-678,6.79077,19.4745,0.00613847,-0.00837714,-0.00673568,0.00878244,-0.0110211,-0.374052,0.0114579,0.0372886,1616,1702,6.79083,-19.4745
399,-678,6.65979,19.3773,0.00592562,-0.00916245,-0.00642676,0.00829197,-0.0115288,-0.352798,0.0114943,0.0449666,1623,1702,6.6598,-19.3773
406,-678,6.63184,19.0259,0.00564225,-0.00951934,-0.00594823,0.00769732,-0.0115744,-0.332654,0.0112013,0.0476314,1630,1702,6.63188,-19.0259
413,-678,6.88062,18.7926,0,0,0,0,0,0,0,-1,1637,1702,6.88065,-18.7926
420,-678,6.60071,17.4585,0,0,0,0,0,0,0,-1,1644,1702,6.60066,-17.4585
427,-678,4.57483,10.1555,0,0,0,0,0,0,0,-1,1651,1702,4.57485,-10.1555
434,-678,6.75635,16.0447,0,0,0,0,0,0,0,-1,1658,1702,6.75629,-16.0446
441,-678,5.05188,17.5768,0,0,0,0,0,0,0,-1,1665,1702,5.05189,-17.5768
448,-678,3.25525,9.74719,0,0,0,0,0,0,0,-1,1672,1702,3.25522,-9.7472
455,-678,5.44678,5.54297,0,0,0,0,0,0,0,-1,1679,1702,5.44676,-5.54294
462,-678,3.86792,2.87402,0,0,0,0,0,0,0,-1,1686,1702,3.86796,-2.87406
469,-678,2.26587,1.98755,0,0,0,0,0,0,0,-1,1693,1702,2.26592,-1.98755
476,-678,0,0,0,0,0,0,0,0,0,-1,1700,1702,0,0
483,-678,0,0,0,0,0,0,0,0,0,-1,1707,1702,0,0
490,-678,0,0,0,0,0,0,0,0,0,-1,1714,1702,0,0
497,-678,0,0,0,0,0,0,0,0,0,-1,1721,1702,0,0
504,-678,0,0,0,0,0,0,0,0,0,-1,1728,1702,0,0
511,-678,0,0,0,0,0,0,0,0,0,-1,1735,1702,0,0
518,-678,0,0,0,0,0,0,0,0,0,-1,1742,1702,0,0
525,-678,0,0,0,0,0,0,0,0,0,-1,1749,1702,0,0
532,-678,0,0,0,0,0,0,0,0,0,-1,1756,1702,0,0
539,-678,0,0,0,0,0,0,0,0,0,-1,1763,1702,0,0
546,-678,0,0,0,0,0,0,0,0,0,-1,1770,1702,0,0
553,-678,0,0,0,0,0,0,0,0,0,-1,1777,1702,0,0
560,-678,0,0,0,0,0,0,0,0,0,-1,1784,1702,0,0
567,-678,0,0,0,0,0,0,0,0,0,-1,1791,1702,0,0
574,-678,0,0,0,0,0,0,0,0,0,-1,1798,1702,0,0
581,-678,0,0,0,0,0,0,0,0,0,-1,1805,1702,0,0
588,-678,0,0,0,0,0,0,0,0,0,-1,1812,1702,0,0
595,-678,0,0,0,0,0,0,0,0,0,-1,1819,1702,0,0
602,-678,0,0,0,0,0,0,0,0,0,-1,1826,1702,0,0
609,-678,0,0,0,0,0,0,0,0,0,-1,1833,1702,0,0
616,-678,0,0,0,0,0,0,0,0,0,-1,1840,1702,0,0
623,-678,0,0,0,0,0,0,0,0,0,-1,1847,1702,0,0
630,-678,0,0,0,0,0,0,0,0,0,-1,1854,1702,0,0
637,-678,0,0,0,0,0,0,0,0,0,-1,1861,1702,0,0
644,-678,0,0,0,0,0,0,0,0,0,-1,1868,1702,0,0
651,-678,0,0,0,0,0,0,0,0,0,-1,1875,1702,0,0
658,-678,0,0,0,0,0,0,0,0,0,-1,1882,1702,0,0
665,-678,0,0,0,0,0,0,0,0,0,-1,1889,1702,0,0
672,-678,0,0,0,0,0,0,0,0,0,-1,1896,1702,0,0
679,-678,0,0,0,0,0,0,0,0,0,-1,1903,1702,0,0
686,-678,0,0,0,0,0,0,0,0,0,-1,1910,1702,0,0
693,-678,0,0,0,0,0,0,0,0,0,-1,1917,1702,0,0
700,-678,0,0,0,0,0,0,0,0,0,-1,1924,1702,0,0
707,-678,0,0,0,0,0,0,0,0,0,-1,1931,1702,0,0
714,-678,0,0,0,0,0,0,0,0,0,-1,1938,1702,0,0
721,-678,0,0,0,0,0,0,0,0,0,-1,1945,1702,0,0
728,-678,0,0,0,0,0,0,0,0,0,-1,1952,1702,0,0
735,-678,0,0,0,0,0,0,0,0,0,-1,1959,1702,0,0
742,-678,0,0,0,0,0,0,0,0,0,-1,1966,1702,0,0
749,-678,0,0,0,0,0,0,0,0,0,-1,1973,1702,0,0
756,-678,0,0,0,0,0,0,0,0,0,-1,1980,1702,0,0
763,-678,0,0,0,0,0,0,0,0,0,-1,1987,1702,0,0
770,-678,0,0,0,0,0,0,0,0,0,-1,1994,1702,0,0
777,-678,0,0,0,0,0,0,0,0,0,-1,2001,1702,0,0
784,-678,0,0,0,0,0,0,0,0,0,-1,2008,1702,0,0
791,-678,0,0,0,0,0,0,0,0,0,-1,2015,1702,0,0
798,-678,0,0,0,0,0,0,0,0,0,-1,2022,1702,0,0
805,-678,0,0,0,0,0,0,0,0,0,-1,2029,1702,0,0
812,-678,0,0,0,0,0,0,0,0,0,-1,2036,1702,0,0
-700,-685,0,0,0,0,0,0,0,0,0,-1,524,1709,0,0
-693,-685,0,0,0,0,0,0,0,0,0,-1,531,1709,0,0
-686,-685,0,0,0,0,0,0,0,0,0,-1,538,1709,0,0
-679,-685,0,0,0,0,0,0,0,0,0,-1,545,1709,0,0
-672,-685,0,0,0,0,0,0,0,0,0,-1,552,1709,0,0
-665,-685,0,0,0,0,0,0,0,0,0,-1,559,1709,0,0
-658,-685,0,0,0,0,0,0,0,0,0,-1,566,1709,0,0
-651,-685,0,0,0,0,0,0,0,0,0,-1,573,1709,0,0
-644,-685,0,0,0,0,0,0,0,0,0,-1,580,1709,0,0
-637,-685,0,0,0,0,0,0,0,0,0,-1,587,1709,0,0
-630,-685,0,0,0,0,0,0,0,0,0,-1,594,1709,0,0
-623,-685,0,0,0,0,0,0,0,0,0,-1,601,1709,0,0
-616,-685,0,0,0,0,0,0,0,0,0,-1,608,1709,0,0
-609,-685,0,0,0,0,0,0,0,0,0,-1,615,1709,0,0
-602,-685,0,0,0,0,0,0,0,0,0,-1,622,1709,0,0
-595,-685,0,0,0,0,0,0,0,0,0,-1,629,1709,0,0
-588,-685,0,0,0,0,0,0,0,0,0,-1,636,1709,0,0
-581,-685,0,0,0,0,0,0,0,0,0,-1,643,1709,0,0
-574,-685,0,0,0,0,0,0,0,0,0,-1,650,1709,0,0
-567,-685,0,0,0,0,0,0,0,0,0,-1,657,1709,0,0
-560,-685,0,0,0,0,0,0,0,0,0,-1,664,1709,0,0
-553,-685,0,0,0,0,0,0,0,0,0,-1,671,1709,0,0
-546,-685,0,0,0,0,0,0,0,0,0,-1,678,1709,0,0
-539,-685,0,0,0,0,0,0,0,0,0,-1,685,1709,0,0
-532,-685,0,0,0,0,0,0,0,0,0,-1,692,1709,0,0
-525,-685,0,0,0,0,0,0,0,0,0,-1,699,1709,0,0
-518,-685,0,0,0,0,0,0,0,0,0,-1,706,1709,0,0
-511,-685,0,0,0,0,0,0,0,0,0,-1,713,1709,0,0
-504,-685,0,0,0,0,0,0,0,0,0,-1,720,1709,0,0
-497,-685,0,0,0,0,0,0,0,0,0,-1,727,1709,0,0
-490,-685,0,0,0,0,0,0,0,0,0,-1,734,1709,0,0
-483,-685,0,0,0,0,0,0,0,0,0,-1,741,1709,0,0
-476,-685,0,0,0,0,0,0,0,0,0,-1,748,1709,0,0
-469,-685,0,0,0,0,0,0,0,0,0,-1,755,1709,0,0
-462,-685,0,0,0,0,0,0,0,0,0,-1,762,1709,0,0
-455,-685,0,0,0,0,0,0,0,0,0,-1,769,1709,0,0
-448,-685,0,0,0,0,0,0,0,0,0,-1,776,1709,0,0
-441,-685,0,0,0,0,0,0,0,0,0,-1,783,1709,0,0
-434,-685,0,0,0,0,0,0,0,0,0,-1,790,1709,0,0
-427,-685,0,0,0,0,0,0,0,0,0,-1,797,1709,0,0
-420,-685,0,0,0,0,0,0,0,0,0,-1,804,1709,0,0
-413,-685,0,0,0,0,0,0,0,0,0,-1,811,1709,0,0
-406,-685,0,0,0,0,0,0,0,0,0,-1,818,1709,0,0
-399,-685,0,0,0,0,0,0,0,0,0,-1,825,1709,0,0
-392,-685,0,0,0,0,0,0,0,0,0,-1,832,1709,0,0
-385,-685,0,0,0,0,0,0,0,0,0,-1,839,1709,0,0
-378,-685,0,0,0,0,0,0,0,0,0,-1,846,1709,0,0
-371,-685,0,0,0,0,0,0,0,0,0,-1,853,1709,0,0
-364,-685,0,0,0,0,0,0,0,0,0,-1,860,1709,0,0
-357,-685,0,0,0,0,0,0,0,0,0,-1,867,1709,0,0
-350,-685,0,0,0,0,0,0,0,0,0,-1,874,1709,0,0
-343,-685,-5.98505,6.56335,0,0,0,0,0,0,0,-1,881,1709,-5.98505,-6.56329
-336,-685,-6.51312,5.10571,0,0,0,0,0,0,0,-1,888,1709,-6.51311,-5.10575
-329,-685,-6.81384,3.34106,0,0,0,0,0,0,0,-1,895,1709,-6.81385,-3.341
-322,-685,3.83191,16.7219,0,0,0,0,0,0,0,-1,902,1709,3.8319,-16.7219
-315,-685,4.36914,16.3297,0,0,0,0,0,0,0,-1,909,1709,4.36913,-16.3297
-308,-685,6.30707,16.3785,0,0,0,0,0,0,0,-1,916,1709,6.30706,-16.3785
-301,-685,4.04156,17.8213,0,0,0,0,0,0,0,-1,923,1709,4.04154,-17.8213
-294,-685,7.37286,15.8286,0,0,0,0,0,0,0,-1,930,1709,7.37286,-15.8287
-287,-685,5.97791,18.1201,0,0,0,0,0,0,0,-1,937,1709,5.97788,-18.1202
-280,-685,5.70929,18.0549,0,0,0,0,0,0,0,-1,944,1709,5.7093,-18.0549
-273,-685,5.44745,17.8373,0,0,0,0,0,0,0,-1,951,1709,5.44747,-17.8372
-266,-685,5.68158,18.0709,-0.000747479,0.00997367,-0.00116156,0.0100981,-0.000871883,-1.4641,0.00704069,0.0426809,958,1709,5.6816,-18.0709
-259,-685,5.8927,18.4581,-0.000147478,0.00990671,0.000124554,0.00990826,-0.000149021,1.55841,0.00665573,0.043222,965,1709,5.89271,-18.4581
-252,-685,5.40106,18.917,-8.11787e-05,0.00937073,0.00144996,0.00958815,-0.000298606,1.42195,0.00649393,0.039699,972,1709,5.40106,-18.917
-245,-685,5.32074,18.9653,0.000117883,0.00865554,0.00246862,0.00931794,-0.000544512,1.30865,0.00640119,0.0327451,979,1709,5.32073,-18.9653
-238,-685,5.27002,19.248,0.000295436,0.00800795,0.00317382,0.00914607,-0.000842691,1.22648,0.00639681,0.0232838,986,1709,5.27004,-19.2481
-231,-685,5.25281,19.4937,0.000308178,0.00704164,0.00346887,0.00850895,-0.00115913,1.17063,0.00609585,0.0154877,993,1709,5.2528,-19.4937
-224,-685,5.20996,19.6924,0.000248542,0.00602031,0.00358317,0.00773523,-0.00146638,1.12441,0.00570874,0.014714,1000,1709,5.20994,-19.6923
-217,-685,5.20508,19.9142,0.000208253,0.00478443,0.00331605,0.00652518,-0.0015325,1.08739,0.00494082,0.0113474,1007,1709,5.20508,-19.9142
-210,-685,5.20538,20.1395,0.000106366,0.003525,0.00302548,0.00529064,-0.00165927,1.04253,0.00419114,0.0150051,1014,1709,5.20538,-20.1395
-203,-685,5.19177,20.3344,0.000191013,0.00243634,0.00266629,0.00420668,-0.00157933,0.984662,0.00345344,0.0152805,1021,1709,5.19183,-20.3344
-196,-685,5.19116,20.5372,0.000188403,0.00175027,0.00209368,0.00320392,-0.00126525,0.963904,0.00265997,0.0132534,1028,1709,5.19118,-20.5372
-189,-685,5.19055,20.7356,2.58346e-05,0.000984646,0.00145866,0.00204066,-0.00103018,0.944168,0.00180466,0.00920893,1035,1709,5.19059,-20.7356
-182,-685,5.16919,20.934,-4.68727e-05,0.000555683,0.000956404,0.00125714,-0.00074833,0.937983,0.00117021,0.0132761,1042,1709,5.16921,-20.9339
-175,-685,5.1488,21.1215,8.86642e-06,0.000213542,0.000625482,0.000745002,-0.000522594,0.866487,0.000735593,0.0127174,1049,1709,5.14884,-21.1215
-168,-685,5.15234,21.3281,0.000141099,7.9884e-05,0.000397234,0.000508903,-0.00028792,0.746948,0.000465906,0.0103532,1056,1709,5.15239,-21.3282
-161,-685,5.15601,21.5106,0.000279827,0.000221315,0.000303268,0.000555247,-5.41052e-05,0.737313,0.000389454,0.0108818,1063,1709,5.15601,-21.5106
-154,-685,5.16101,21.6689,0.000546446,0.00060124,0.000337133,0.000912087,0.000235599,0.825941,0.000546717,0.00962939,1070,1709,5.16097,-21.669
-147,-685,5.15698,21.8206,0.000937078,0.00098264,0.000375122,0.00133567,0.000584046,0.815726,0.000773171,0.00887136,1077,1709,5.15703,-21.8205
-140,-685,5.16858,21.9745,0.00132401,0.00135418,0.000446082,0.00178543,0.000892757,0.802299,0.00103082,0.011896,1084,1709,5.1686,-21.9745
-133,-685,5.17908,22.1418,0.0017638,0.00156612,0.000606025,0.00227899,0.00105093,0.704564,0.0013171,0.0117785,1091,1709,5.17909,-22.1418
-126,-685,5.19226,22.307,0.00225633,0.00184727,0.000804125,0.00288153,0.00122207,0.660864,0.00167003,0.00934638,1098,1709,5.19229,-22.307
-119,-685,5.19836,22.4648,0.00270308,0.00199489,0.000919101,0.00333394,0.00136403,0.601529,0.00193541,0.0125195,1105,1709,5.19831,-22.4649
-112,-685,5.20935,22.5968,0.00314317,0.0020423,0.00102136,0.00375297,0.0014325,0.538247,0.0021869,0.0121106,1112,1709,5.2093,-22.5968
-105,-685,5.19885,22.725,0.00351294,0.00202971,0.00117814,0.00416345,0.0013792,0.504492,0.00244897,0.0112653,1119,1709,5.19882,-22.7249
-98,-685,5.25391,22.8691,0.00386936,0.00207011,0.00133454,0.00457918,0.00136029,0.48883,0.00271541,0.0150196,1126,1709,5.25385,-22.8691
-91,-685,5.26184,22.9648,0.00420397,0.0021479,0.00139212,0.0049065,0.00144538,0.467359,0.00291136,0.0178733,1133,1709,5.26186,-22.9648
-84,-685,5.23474,23.0605,0.00458111,0.00189261,0.00123957,0.00506539,0.00140832,0.372452,0.00301904,0.0188926,1140,1709,5.2348,-23.0605
-77,-685,5.35938,23.3413,0.00512513,0.00205353,0.000948907,0.00539463,0.00178403,0.276724,0.00317354,0.0274023,1147,1709,5.35936,-23.3413
-70,-685,5.39417,23.5923,0,0,0,0,0,0,0,-1,1154,1709,5.39413,-23.5923
-63,-685,5.46106,23.7959,0,0,0,0,0,0,0,-1,1161,1709,5.461,-23.7959
-56,-685,3.93909,15.8704,0,0,0,0,0,0,0,-1,1168,1709,3.93905,-15.8704
-49,-685,3.07471,9.86011,0,0,0,0,0,0,0,-1,1175,1709,3.07467,-9.86009
-42,-685,2.70618,7.54504,0,0,0,0,0,0,0,-1,1182,1709,2.7062,-7.54504
-35,-685,2.95264,7.91516,0,0,0,0,0,0,0,-1,1189,1709,2.95262,-7.91517
-28,-685,5.36182,24.0433,0,0,0,0,0,0,0,-1,1196,1709,5.3618,-24.0433
-21,-685,5.50134,23.9146,0.0194484,0.0285318,0.0155798,0.0402184,0.00776178,0.927223,0.024636,0.0483274,1203,1709,5.50132,-23.9145
-14,-685,5.65137,23.9452,0.0222509,0.0283706,0.0145603,0.0401891,0.0104324,0.888966,0.0240807,0.0271987,1210,1709,5.65134,-23.9452
-7,-685,5.74219,24.0189,0.023095,0.0289207,0.0139156,0.0402251,0.0117907,0.88857,0.0238774,0.0394222,1217,1709,5.7422,-24.0189
0,-685,5.89294,24.0771,0.0232714,0.0282743,0.0124673,0.0384886,0.0130571,0.884403,0.022601,0.0447036,1224,1709,5.89297,-24.0771
7,-685,5.76843,24.2767,0.0232041,0.0264093,0.0109119,0.0358356,0.0137778,0.858312,0.020873,0.0400817,1231,1709,5.76847,-24.2767
14,-685,5.83081,24.4153,0.0224807,0.0237229,0.00931395,0.0324364,0.0137672,0.818691,0.0187983,0.0412969,1238,1709,5.83075,-24.4153
21,-685,5.97949,24.5012,0.0213394,0.0204983,0.00753693,0.0284675,0.0133702,0.75753,0.0164458,0.0383764,1245,1709,5.97953,-24.5012
28,-685,6.01343,24.5481,0.0201719,0.0167548,0.00629269,0.0249839,0.0119428,0.652837,0.0144291,0.0397111,1252,1709,6.01345,-24.5481
35,-685,5.97595,24.3899,0.0184255,0.0128281,0.00535092,0.0216654,0.00958818,0.544448,0.012536,0.0415188,1259,1709,5.97589,-24.3899
42,-685,6.06555,24.5089,0.0159341,0.0100342,0.00498509,0.0187767,0.00719165,0.518231,0.0109392,0.045693,1266,1709,6.06558,-24.5089
49,-685,6.01843,24.636,0.0129618,0.00747364,0.00504667,0.0159622,0.00447327,0.536384,0.00950787,0.0490896,1273,1709,6.01843,-24.636
56,-685,6.09143,23.8918,0.00877059,0.0109279,0.00395571,0.0139494,0.00574911,0.918503,0.00809501,0.0447095,1280,1709,6.09143,-23.8918
63,-685,5.97498,24.3778,0.00407366,0.016656,0.00167281,0.0168746,0.00385506,1.44085,0.0102102,0.0425609,1287,1709,5.97498,-24.3777
70,-685,5.8949,24.4047,-0.000802806,0.0205299,0.000915928,0.0205691,-0.000842059,1.52797,0.0140019,0.0420422,1294,1709,5.89488,-24.4047
77,-685,6.49304,24.5154,-0.000791843,0.0234269,0.001404,0.023508,-0.000872962,1.51308,0.015971,0.0454569,1301,1709,6.49306,-24.5153
84,-685,6.22778,24.5179,0,0,0,0,0,0,0,-1,1308,1709,6.2278,-24.5179
91,-685,6.4071,24.8489,0.00240508,0.0265393,0.00311128,0.026934,0.00201044,1.44463,0.0173248,0.0445256,1315,1709,6.40705,-24.8488
98,-685,6.2168,24.4215,0.00716381,0.0255434,0.00260227,0.0259048,0.00680247,1.43282,0.0155079,0.0424772,1322,1709,6.21683,-24.4215
105,-685,6.24731,24.2048,0.0126641,0.0240526,0.00224494,0.0244791,0.0122375,1.38303,0.014133,0.044092,1329,1709,6.2473,-24.2048
112,-685,6.30847,23.9265,0,0,0,0,0,0,0,-1,1336,1709,6.30842,-23.9265
119,-685,6.67773,23.7743,0,0,0,0,0,0,0,-1,1343,1709,6.67776,-23.7743
126,-685,6.66516,23.7737,0.0313694,0.00418115,0.00354829,0.0318248,0.0037257,0.12766,0.0200901,0.0459708,1350,1709,6.66518,-23.7737
133,-685,6.59631,23.8357,0.0369746,-0.00526616,0.00491175,0.0375382,-0.00582977,0.114249,0.027178,0.0486018,1357,1709,6.59626,-23.8357
140,-685,6.57581,23.8331,0.0421339,-0.0135771,0.00629459,0.0428363,-0.0142794,0.11112,0.0343222,0.0463529,1364,1709,6.57581,-23.8332
147,-685,6.52271,23.9922,0.0456773,-0.0194674,0.00718838,0.0464611,-0.0202512,0.108604,0.0394948,0.0453555,1371,1709,6.52266,-23.9922
154,-685,6.45715,24.2012,0,0,0,0,0,0,0,-1,1378,1709,6.45718,-24.2011
161,-685,6.70264,24.1849,0,0,0,0,0,0,0,-1,1385,1709,6.70258,-24.1849
168,-685,4.37524,10.8778,0,0,0,0,0,0,0,-1,1392,1709,4.37525,-10.8778
175,-685,3.97522,8.94324,0,0,0,0,0,0,0,-1,1399,1709,3.97519,-8.94328
182,-685,3.98218,9.19739,0,0,0,0,0,0,0,-1,1406,1709,3.98221,-9.1974
189,-685,4.53479,15.2343,0,0,0,0,0,0,0,-1,1413,1709,4.53474,-15.2343
196,-685,6.55042,23.9631,0,0,0,0,0,0,0,-1,1420,1709,6.55043,-23.9632
203,-685,6.50439,23.6807,0,0,0,0,0,0,0,-1,1427,1709,6.50443,-23.6806
210,-685,6.57825,23.5382,0,0,0,0,0,0,0,-1,1434,1709,6.57829,-23.5383
217,-685,6.67029,23.4532,0,0,0,0,0,0,0,-1,1441,1709,6.67028,-23.4533
224,-685,6.61707,23.3235,0.00150489,-0.00181209,0.00124727,0.00192155,-0.00222876,0.322405,0.00239837,0.0203979,1448,1709,6.61707,-23.3235
231,-685,6.59265,23.163,0.00160774,-0.00189777,0.000946594,0.00184702,-0.00213705,0.24759,0.00230223,0.0153134,1455,1709,6.59264,-23.163
238,-685,6.60645,23.0573,0.00172197,-0.00189989,0.000738318,0.0018667,-0.00204461,0.193564,0.00225897,0.0179702,1462,1709,6.60649,-23.0573
245,-685,6.61633,22.9434,0.00172819,-0.00177208,0.000591981,0.0018256,-0.00186949,0.163084,0.00213341,0.0193362,1469,1709,6.6163,-22.9433
252,-685,6.62622,22.845,0.00185784,-0.00157435,0.000458016,0.00191791,-0.00163442,0.130408,0.00205311,0.0146633,1476,1709,6.62622,-22.845
259,-685,6.63696,22.7393,0.00193278,-0.00138924,0.000392687,0.00197857,-0.00143502,0.116076,0.00197915,0.0107017,1483,1709,6.63693,-22.7392
266,-685,6.65369,22.5819,0.00192092,-0.00119616,0.000297457,0.00194906,-0.0012243,0.0942939,0.00184799,0.0121915,1490,1709,6.6537,-22.5819
273,-685,6.65247,22.4337,0.00186216,-0.000957546,0.000172108,0.00187263,-0.000968012,0.060737,0.00166753,0.0138465,1497,1709,6.65251,-22.4337
280,-685,6.65149,22.2809,0.00168516,-0.000666853,8.61389e-05,0.00168832,-0.000670003,0.0365581,0.00140325,0.0146127,1504,1709,6.6515,-22.2809
287,-685,6.66064,22.1345,0.00139204,-0.000398105,0.000106546,0.00139836,-0.000404424,0.0592396,0.00109229,0.0112334,1511,1709,6.66061,-22.1345
294,-685,6.66272,21.9681,0.00109934,-0.000214203,0.000153346,0.00111701,-0.000231867,0.114687,0.000832792,0.00997881,1518,1709,6.66278,-21.9681
301,-685,6.63855,21.797,0.000914917,-0.000256968,0.000213498,0.000952601,-0.000294652,0.174708,0.000752759,0.0122654,1525,1709,6.63857,-21.797
308,-685,6.64282,21.6411,0.000999576,-0.000597129,9.38944e-05,0.00100508,-0.000602631,0.0585362,0.000937856,0.0143822,1532,1709,6.64284,-21.6411
315,-685,6.66699,21.4897,0.00147871,-0.00089853,-0.000715674,0.00167754,-0.00109736,-0.270983,0.00161372,0.0133085,1539,1709,6.667,-21.4898
322,-685,6.64685,21.309,0.00185385,-0.00157476,-0.00123198,0.00225061,-0.00197152,-0.311566,0.00243943,0.019645,1546,1709,6.64679,-21.309
329,-685,6.63147,21.1282,0.0024759,-0.00240978,-0.00195876,0.00316423,-0.0030981,-0.33793,0.00361563,0.0172905,1553,1709,6.63153,-21.1281
336,-685,6.63257,20.9442,0.00339974,-0.00327915,-0.00296197,0.00452405,-0.00440347,-0.362784,0.00515446,0.0132549,1560,1709,6.63256,-20.9442
343,-685,6.62134,20.7583,0.00439186,-0.00424561,-0.004152,0.00606401,-0.00591775,-0.382859,0.00691784,0.0116756,1567,1709,6.62128,-20.7583
350,-685,6.62122,20.563,0.00541468,-0.00550313,-0.00543632,0.00765988,-0.00774833,-0.391663,0.00889598,0.0111743,1574,1709,6.62127,-20.563
357,-685,6.63269,20.3691,0.00649183,-0.00668772,-0.0067,0.00929967,-0.00949556,-0.396846,0.0108516,0.00924526,1581,1709,6.63265,-20.3692
364,-685,6.63513,20.1581,0.00749143,-0.00791905,-0.00791951,0.0108356,-0.0112632,-0.399555,0.0127596,0.00957102,1588,1709,6.63512,-20.1581
371,-685,6.63916,19.9545,0.00830334,-0.00906948,-0.00899708,0.012123,-0.0128891,-0.401482,0.014443,0.0155675,1595,1709,6.63914,-19.9545
378,-685,6.56421,19.7834,0.00891548,-0.0101028,-0.00977221,0.0130416,-0.0142289,-0.399521,0.0157496,0.0233894,1602,1709,6.5642,-19.7835
385,-685,6.6095,19.6034,0.00938268,-0.0107973,-0.0101846,0.0136292,-0.0150438,-0.395033,0.0165611,0.0445833,1609,1709,6.60947,-19.6034
392,-685,6.70642,19.4209,0.00976485,-0.0113548,-0.0104265,0.0140449,-0.0156348,-0.389522,0.0171438,0.0471238,1616,1709,6.70647,-19.4209
399,-685,6.79053,19.2488,0,0,0,0,0,0,0,-1,1623,1709,6.79052,-19.2488
406,-685,6.36389,19.1948,0,0,0,0,0,0,0,-1,1630,1709,6.36389,-19.1948
413,-685,6.13098,16.2029,0,0,0,0,0,0,0,-1,1637,1709,6.13099,-16.2029
420,-685,4.84631,10.3781,0,0,0,0,0,0,0,-1,1644,1709,4.84634,-10.378
427,-685,6.05151,9.21155,0,0,0,0,0,0,0,-1,1651,1709,6.05156,-9.21156
434,-685,4.87769,8.91418,0,0,0,0,0,0,0,-1,1658,1709,4.87768,-8.91413
441,-685,5.62,8.75549,0,0,0,0,0,0,0,-1,1665,1709,5.61996,-8.75545
448,-685,6.4043,8.58972,0,0,0,0,0,0,0,-1,1672,1709,6.40435,-8.58971
455,-685,2.31958,4.09802,0,0,0,0,0,0,0,-1,1679,1709,2.31957,-4.09803
462,-685,0,0,0,0,0,0,0,0,0,-1,1686,1709,0,0
469,-685,0,0,0,0,0,0,0,0,0,-1,1693,1709,0,0
476,-685,0,0,0,0,0,0,0,0,0,-1,1700,1709,0,0
483,-685,0,0,0,0,0,0,0,0,0,-1,1707,1709,0,0
490,-685,0,0,0,0,0,0,0,0,0,-1,1714,1709,0,0
497,-685,0,0,0,0,0,0,0,0,0,-1,1721,1709,0,0
504,-685,0,0,0,0,0,0,0,0,0,-1,1728,1709,0,0
511,-685,0,0,0,0,0,0,0,0,0,-1,1735,1709,0,0
518,-685,0,0,0,0,0,0,0,0,0,-1,1742,1709,0,0
525,-685,0,0,0,0,0,0,0,0,0,-1,1749,1709,0,0
532,-685,0,0,0,0,0,0,0,0,0,-1,1756,1709,0,0
539,-685,0,0,0,0,0,0,0,0,0,-1,1763,1709,0,0
546,-685,0,0,0,0,0,0,0,0,0,-1,1770,1709,0,0
553,-685,0,0,0,0,0,0,0,0,0,-1,1777,1709,0,0
560,-685,0,0,0,0,0,0,0,0,0,-1,1784,1709,0,0
567,-685,0,0,0,0,0,0,0,0,0,-1,1791,1709,0,0
574,-685,0,0,0,0,0,0,0,0,0,-1,1798,1709,0,0
581,-685,0,0,0,0,0,0,0,0,0,-1,1805,1709,0,0
588,-685,0,0,0,0,0,0,0,0,0,-1,1812,1709,0,0
595,-685,0,0,0,0,0,0,0,0,0,-1,1819,1709,0,0
602,-685,0,0,0,0,0,0,0,0,0,-1,1826,1709,0,0
609,-685,0,0,0,0,0,0,0,0,0,-1,1833,1709,0,0
616,-685,0,0,0,0,0,0,0,0,0,-1,1840,1709,0,0
623,-685,0,0,0,0,0,0,0,0,0,-1,1847,1709,0,0
630,-685,0,0,0,0,0,0,0,0,0,-1,1854,1709,0,0
637,-685,0,0,0,0,0,0,0,0,0,-1,1861,1709,0,0
644,-685,0,0,0,0,0,0,0,0,0,-1,1868,1709,0,0
651,-685,0,0,0,0,0,0,0,0,0,-1,1875,1709,0,0
658,-685,0,0,0,0,0,0,0,0,0,-1,1882,1709,0,0
665,-685,0,0,0,0,0,0,0,0,0,-1,1889,1709,0,0
672,-685,0,0,0,0,0,0,0,0,0,-1,1896,1709,0,0
679,-685,0,0,0,0,0,0,0,0,0,-1,1903,1709,0,0
686,-685,0,0,0,0,0,0,0,0,0,-1,1910,1709,0,0
693,-685,0,0,0,0,0,0,0,0,0,-1,1917,1709,0,0
700,-685,0,0,0,0,0,0,0,0,0,-1,1924,1709,0,0
707,-685,0,0,0,0,0,0,0,0,0,-1,1931,1709,0,0
714,-685,0,0,0,0,0,0,0,0,0,-1,1938,1709,0,0
721,-685,0,0,0,0,0,0,0,0,0,-1,1945,1709,0,0
728,-685,0,0,0,0,0,0,0,0,0,-1,1952,1709,0,0
735,-685,0,0,0,0,0,0,0,0,0,-1,1959,1709,0,0
742,-685,0,0,0,0,0,0,0,0,0,-1,1966,1709,0,0
749,-685,0,0,0,0,0,0,0,0,0,-1,1973,1709,0,0
756,-685,0,0,0,0,0,0,0,0,0,-1,1980,1709,0,0
763,-685,0,0,0,0,0,0,0,0,0,-1,1987,1709,0,0
770,-685,0,0,0,0,0,0,0,0,0,-1,1994,1709,0,0
777,-685,0,0,0,0,0,0,0,0,0,-1,2001,1709,0,0
784,-685,0,0,0,0,0,0,0,0,0,-1,2008,1709,0,0
791,-685,0,0,0,0,0,0,0,0,0,-1,2015,1709,0,0
798,-685,0,0,0,0,0,0,0,0,0,-1,2022,1709,0,0
805,-685,0,0,0,0,0,0,0,0,0,-1,2029,1709,0,0
812,-685,0,0,0,0,0,0,0,0,0,-1,2036,1709,0,0
-700,-692,0,0,0,0,0,0,0,0,0,-1,524,1716,0,0
-693,-692,0,0,0,0,0,0,0,0,0,-1,531,1716,0,0
-686,-692,0,0,0,0,0,0,0,0,0,-1,538,1716,0,0
-679,-692,0,0,0,0,0,0,0,0,0,-1,545,1716,0,0
-672,-692,0,0,0,0,0,0,0,0,0,-1,552,1716,0,0
-665,-692,0,0,0,0,0,0,0,0,0,-1,559,1716,0,0
-658,-692,0,0,0,0,0,0,0,0,0,-1,566,1716,0,0
-651,-692,0,0,0,0,0,0,0,0,0,-1,573,1716,0,0
-644,-692,0,0,0,0,0,0,0,0,0,-1,580,1716,0,0
-637,-692,0,0,0,0,0,0,0,0,0,-1,587,1716,0,0
-630,-692,0,0,0,0,0,0,0,0,0,-1,594,1716,0,0
-623,-692,0,0,0,0,0,0,0,0,0,-1,601,1716,0,0
-616,-692,0,0,0,0,0,0,0,0,0,-1,608,1716,0,0
-609,-692,0,0,0,0,0,0,0,0,0,-1,615,1716,0,0
-602,-692,0,0,0,0,0,0,0,0,0,-1,622,1716,0,0
-595,-692,0,0,0,0,0,0,0,0,0,-1,629,1716,0,0
-588,-692,0,0,0,0,0,0,0,0,0,-1,636,1716,0,0
-581,-692,0,0,0,0,0,0,0,0,0,-1,643,1716,0,0
-574,-692,0,0,0,0,0,0,0,0,0,-1,650,1716,0,0
-567,-692,0,0,0,0,0,0,0,0,0,-1,657,1716,0,0
-560,-692,0,0,0,0,0,0,0,0,0,-1,664,1716,0,0
-553,-692,0,0,0,0,0,0,0,0,0,-1,671,1716,0,0
-546,-692,0,0,0,0,0,0,0,0,0,-1,678,1716,0,0
-539,-692,0,0,0,0,0,0,0,0,0,-1,685,1716,0,0
-532,-692,0,0,0,0,0,0,0,0,0,-1,692,1716,0,0
-525,-692,0,0,0,0,0,0,0,0,0,-1,699,1716,0,0
-518,-692,0,0,0,0,0,0,0,0,0,-1,706,1716,0,0
-511,-692,0,0,0,0,0,0,0,0,0,-1,713,1716,0,0
-504,-692,0,0,0,0,0,0,0,0,0,-1,720,1716,0,0
-497,-692,0,0,0,0,0,0,0,0,0,-1,727,1716,0,0
-490,-692,0,0,0,0,0,0,0,0,0,-1,734,1716,0,0
-483,-692,0,0,0,0,0,0,0,0,0,-1,741,1716,0,0
-476,-692,0,0,0,0,0,0,0,0,0,-1,748,1716,0,0
-469,-692,0,0,0,0,0,0,0,0,0,-1,755,1716,0,0
-462,-692,0,0,0,0,0,0,0,0,0,-1,762,1716,0,0
-455,-692,0,0,0,0,0,0,0,0,0,-1,769,1716,0,0
-448,-692,0,0,0,0,0,0,0,0,0,-1,776,1716,0,0
-441,-692,0,0,0,0,0,0,0,0,0,-1,783,1716,0,0
-434,-692,0,0,0,0,0,0,0,0,0,-1,790,1716,0,0
-427,-692,0,0,0,0,0,0,0,0,0,-1,797,1716,0,0
-420,-692,0,0,0,0,0,0,0,0,0,-1,804,1716,0,0
-413,-692,0,0,0,0,0,0,0,0,0,-1,811,1716,0,0
-406,-692,0,0,0,0,0,0,0,0,0,-1,818,1716,0,0
-399,-692,0,0,0,0,0,0,0,0,0,-1,825,1716,0,0
-392,-692,0,0,0,0,0,0,0,0,0,-1,832,1716,0,0
-385,-692,0,0,0,0,0,0,0,0,0,-1,839,1716,0,0
-378,-692,0,0,0,0,0,0,0,0,0,-1,846,1716,0,0
-371,-692,0,0,0,0,0,0,0,0,0,-1,853,1716,0,0
-364,-692,0,0,0,0,0,0,0,0,0,-1,860,1716,0,0
-357,-692,0,0,0,0,0,0,0,0,0,-1,867,1716,0,0
-350,-692,0,0,0,0,0,0,0,0,0,-1,874,1716,0,0
-343,-692,0,0,0,0,0,0,0,0,0,-1,881,1716,0,0
-336,-692,0,0,0,0,0,0,0,0,0,-1,888,1716,0,0
-329,-692,3.03107,4.10266,0,0,0,0,0,0,0,-1,895,1716,3.03105,-4.10267
-322,-692,4.43713,18.5242,0,0,0,0,0,0,0,-1,902,1716,4.43711,-18.5241
-315,-692,5.38965,17.975,0,0,0,0,0,0,0,-1,909,1716,5.38963,-17.975
-308,-692,5.86938,17.4392,0,0,0,0,0,0,0,-1,916,1716,5.86937,-17.4392
-301,-692,7.6759,18.0828,0,0,0,0,0,0,0,-1,923,1716,7.67593,-18.0827
-294,-692,6.66138,19.0796,0,0,0,0,0,0,0,-1,930,1716,6.66141,-19.0796
-287,-692,5.98553,17.4274,0,0,0,0,0,0,0,-1,937,1716,5.98555,-17.4274
-280,-692,6.14087,18.0726,0,0,0,0,0,0,0,-1,944,1716,6.14089,-18.0726
-273,-692,7.06763,17.1136,0,0,0,0,0,0,0,-1,951,1716,7.06762,-17.1137
-266,-692,6.45361,17.8416,0,0,0,0,0,0,0,-1,958,1716,6.45359,-17.8416
-259,-692,6.79712,18.1807,0,0,0,0,0,0,0,-1,965,1716,6.79711,-18.1807
-252,-692,5.22217,18.4814,0,0,0,0,0,0,0,-1,972,1716,5.2222,-18.4815
-245,-692,5.33032,18.795,0.000716838,0.0123866,0.00421356,0.0137489,-0.000645495,1.25808,0.00938852,0.0490332,979,1716,5.33033,-18.795
-238,-692,5.48682,19.2104,0.000829302,0.0112318,0.00504063,0.0132735,-0.00121244,1.18594,0.00927961,0.0418215,986,1716,5.4868,-19.2104
-231,-692,5.55164,19.5398,0.000706608,0.00968557,0.00524979,0.0121037,-0.00171157,1.13914,0.00869601,0.0329868,993,1716,5.55161,-19.5398
-224,-692,5.42511,19.7335,0.000526204,0.00810928,0.00521137,0.0107624,-0.00212696,1.09989,0.00797901,0.0176815,1000,1716,5.4251,-19.7335
-217,-692,5.3877,19.9325,0.000340014,0.00634784,0.0047024,0.00892389,-0.00223604,1.06963,0.00681795,0.011929,1007,1716,5.38767,-19.9325
-210,-692,5.40997,20.1342,6.49031e-05,0.00462852,0.00419761,0.00712442,-0.002431,1.03436,0.00573437,0.0131036,1014,1716,5.40995,-20.1342
-203,-692,5.41724,20.3247,2.29184e-05,0.00316713,0.00359974,0.00552308,-0.00233303,0.991279,0.00465871,0.0156544,1021,1716,5.41727,-20.3247
-196,-692,5.3949,20.5306,-0.000136008,0.00228357,0.0027595,0.00408683,-0.00193926,0.991985,0.00355205,0.0175047,1028,1716,5.3949,-20.5307
-189,-692,5.36719,20.7261,-0.000494046,0.00129516,0.00177775,0.00239071,-0.0015896,1.01851,0.00231349,0.00883268,1035,1716,5.36715,-20.7261
-182,-692,5.34619,20.9259,-0.000788958,0.000778466,0.00100404,0.00126845,-0.00127894,1.11679,0.00147074,0.0131856,1042,1716,5.34616,-20.9259
-175,-692,5.32361,21.1332,-0.000989174,0.000310022,0.000487387,0.000472535,-0.00115169,1.24895,0.000964684,0.0149125,1049,1716,5.3236,-21.1331
-168,-692,5.3385,21.3145,-0.00101324,0.000111515,7.94738e-05,0.000117103,-0.00101883,1.5006,0.000721429,0.0116093,1056,1716,5.33845,-21.3145
-161,-692,5.36206,21.4995,-0.00100654,0.000237045,-0.000162842,0.000258015,-0.00102751,-1.44273,0.000785268,0.013297,1063,1716,5.36208,-21.4995
-154,-692,5.34802,21.6956,-0.000829847,0.000645398,-0.000226577,0.000679413,-0.000863862,-1.42178,0.000893129,0.0138203,1070,1716,5.34801,-21.6956
-147,-692,5.34167,21.8356,-0.000465758,0.00105127,-0.000243993,0.00108955,-0.000504035,-1.41519,0.000940529,0.0127237,1077,1716,5.34165,-21.8356
-140,-692,5.33899,21.9854,-7.96769e-05,0.00141904,-0.000180996,0.00144059,-0.000101226,-1.4523,0.000995849,0.0104243,1084,1716,5.33903,-21.9853
-133,-692,5.34595,22.1434,0.000389521,0.00159963,-1.5822e-06,0.00159963,0.000389519,-1.56949,0.000963205,0.00999557,1091,1716,5.34591,-22.1434
-126,-692,5.34387,22.3022,0.000964016,0.00183149,0.000242656,0.00189475,0.000900751,1.31576,0.00109438,0.00789322,1098,1716,5.34389,-22.3022
-119,-692,5.35095,22.4525,0.00149592,0.00194835,0.000441641,0.00221834,0.00122593,1.02208,0.00128312,0.011223,1105,1716,5.35093,-22.4525
-112,-692,5.35095,22.5808,0.00202952,0.00194237,0.000634443,0.00262188,0.00135001,0.751111,0.00151397,0.0108406,1112,1716,5.35096,-22.5808
-105,-692,5.4071,22.7096,0.00249396,0.00184446,0.000826799,0.0030575,0.00128092,0.598265,0.00177296,0.0153318,1119,1716,5.40715,-22.7095
-98,-692,5.46838,22.8488,0.00288017,0.00176027,0.00104998,0.00351018,0.00113027,0.540434,0.00206897,0.0172414,1126,1716,5.46844,-22.8487
-91,-692,5.44763,22.9712,0.00320251,0.00172189,0.00120535,0.00387674,0.00104766,0.510006,0.00231567,0.0195675,1133,1716,5.44768,-22.9712
-84,-692,5.42651,23.0907,0.00348311,0.00151462,0.00114799,0.00401102,0.000986712,0.431021,0.00241331,0.0212907,1140,1716,5.42657,-23.0907
-77,-692,5.40918,23.2235,0.0037844,0.00164699,0.00090398,0.00411545,0.00131594,0.351044,0.00242697,0.0152771,1147,1716,5.40917,-23.2235
-70,-692,5.44836,23.401,0.00409105,0.00152513,0.00059296,0.00422145,0.00139473,0.216469,0.00248356,0.0254708,1154,1716,5.44837,-23.4009
-63,-692,5.48206,23.4951,0.0046816,0.00140348,0.000445126,0.00474097,0.00134411,0.132589,0.00282143,0.0423194,1161,1716,5.48206,-23.4951
-56,-692,5.41882,23.5638,0,0,0,0,0,0,0,-1,1168,1716,5.41877,-23.5639
-49,-692,5.43347,23.7214,0,0,0,0,0,0,0,-1,1175,1716,5.43341,-23.7214
-42,-692,5.50647,23.9031,0,0,0,0,0,0,0,-1,1182,1716,5.50646,-23.9031
-35,-692,5.55688,24.0646,0,0,0,0,0,0,0,-1,1189,1716,5.55692,-24.0646
-28,-692,5.47827,24.0061,0.0113592,0.0173444,0.00971863,0.0245207,0.00418285,0.934753,0.0151466,0.0444277,1196,1716,5.47827,-24.0061
-21,-692,5.59485,23.9386,0.0131989,0.018176,0.00898161,0.0250075,0.00636748,0.920544,0.0150064,0.0298439,1203,1716,5.5949,-23.9386
-14,-692,5.64038,23.9894,0.0158927,0.0181399,0.00849876,0.025589,0.00844358,0.851119,0.0150559,0.0154495,1210,1716,5.64038,-23.9893
-7,-692,5.68372,24.0975,0.0169734,0.0188385,0.00849227,0.0264493,0.00936262,0.840087,0.015486,0.014836,1217,1716,5.68367,-24.0975
0,-692,5.71289,24.1693,0.017366,0.0186334,0.0079149,0.0259399,0.0100594,0.825346,0.0151016,0.0181788,1224,1716,5.71291,-24.1694
7,-692,5.72339,24.2329,0.0174722,0.0172701,0.00724294,0.0246148,0.0101275,0.778422,0.0142855,0.0228525,1231,1716,5.72339,-24.233
14,-692,5.76611,24.3265,0.0169433,0.0153392,0.00655286,0.022743,0.00953947,0.724502,0.0131874,0.0239944,1238,1716,5.76615,-24.3266
21,-692,5.82617,24.3263,0.016102,0.0130284,0.00561247,0.0203843,0.00874613,0.651762,0.0118083,0.0249508,1245,1716,5.82616,-24.3263
28,-692,5.84802,24.2966,0.0153013,0.0102741,0.00509013,0.0184646,0.00711072,0.556053,0.010754,0.0246709,1252,1716,5.84807,-24.2967
35,-692,5.89258,24.3767,0.0140088,0.00737322,0.00471156,0.0164535,0.00492849,0.478637,0.00975059,0.0232074,1259,1716,5.89255,-24.3767
42,-692,5.97058,24.5071,0.0120902,0.00536006,0.0046637,0.0144761,0.00297415,0.472879,0.00882795,0.0219071,1266,1716,5.97059,-24.5071
49,-692,5.99536,24.502,0.00989118,0.00339164,0.0048635,0.0124907,0.000792083,0.490868,0.00807609,0.0264632,1273,1716,5.99542,-24.502
56,-692,5.95837,24.428,0.00678821,0.00595706,0.00420649,0.0105996,0.00214566,0.736161,0.00647087,0.032263,1280,1716,5.95838,-24.4279
63,-692,5.95776,24.4625,0.00329949,0.0103824,0.00268321,0.0112841,0.0023978,1.2466,0.00686451,0.0303141,1287,1716,5.95782,-24.4626
70,-692,6.01233,24.4979,-0.000272286,0.0133205,0.00207354,0.0136298,-0.000581562,1.42273,0.00928644,0.0260743,1294,1716,6.01236,-24.4979
77,-692,6.08643,24.5238,-0.000501797,0.0159258,0.00224709,0.0162277,-0.000803626,1.43728,0.011096,0.0307908,1301,1716,6.0864,-24.5237
84,-692,6.09717,24.4744,0.000693358,0.0178805,0.00284837,0.0183403,0.000233606,1.41077,0.0121497,0.0383769,1308,1716,6.09713,-24.4744
91,-692,6.08716,24.4534,0.00162781,0.0194147,0.00300976,0.0199101,0.00113232,1.40763,0.0129125,0.034895,1315,1716,6.08712,-24.4534
98,-692,6.1344,24.4147,0.00482557,0.0188544,0.0025187,0.0192929,0.00438707,1.39843,0.0116776,0.0286243,1322,1716,6.13435,-24.4147
105,-692,6.15234,24.3655,0.0085866,0.0177107,0.00219191,0.01821,0.00808735,1.34685,0.0105354,0.0364585,1329,1716,6.15232,-24.3655
112,-692,6.16052,24.3245,0.0126187,0.0152184,0.00197708,0.0162846,0.0115524,1.0762,0.00967289,0.0383456,1336,1716,6.16051,-24.3244
119,-692,6.14136,24.2574,0.0170768,0.0102507,0.00221204,0.017731,0.00959661,0.287524,0.0102486,0.0309767,1343,1716,6.14132,-24.2574
126,-692,6.17297,24.2646,0.0212232,0.00369369,0.0032681,0.0218126,0.00310422,0.178451,0.0136254,0.0302526,1350,1716,6.17301,-24.2647
133,-692,6.19617,24.2527,0.0247759,-0.00297153,0.00425707,0.0254143,-0.00360997,0.148862,0.0182655,0.0237734,1357,1716,6.19615,-24.2527
140,-692,6.26331,24.2177,0.0279943,-0.00883112,0.00530541,0.0287434,-0.00958023,0.14027,0.0230297,0.0286534,1364,1716,6.26328,-24.2177
147,-692,6.34326,24.1791,0.0301259,-0.0131459,0.00599271,0.0309405,-0.0139605,0.135103,0.0265343,0.0313885,1371,1716,6.34329,-24.1791
154,-692,6.3092,24.1609,0.0309539,-0.0154562,0.00633965,0.0318043,-0.0163066,0.133347,0.0282531,0.0271797,1378,1716,6.30926,-24.1609
161,-692,6.46362,24.1643,0.0315411,-0.0189296,0.00697146,0.0324864,-0.0198748,0.134767,0.0305217,0.0390929,1385,1716,6.46368,-24.1643
168,-692,6.60669,24.1727,0,0,0,0,0,0,0,-1,1392,1716,6.60664,-24.1727
175,-692,6.33875,23.9319,0,0,0,0,0,0,0,-1,1399,1716,6.33877,-23.9319
182,-692,6.37207,23.8473,0,0,0,0,0,0,0,-1,1406,1716,6.37203,-23.8472
189,-692,6.41003,23.8306,0,0,0,0,0,0,0,-1,1413,1716,6.41006,-23.8306
196,-692,6.41516,23.7351,0.00474621,-0.00438323,0.00369155,0.00605211,-0.00568913,0.340015,0.00677989,0.0338203,1420,1716,6.41521,-23.7351
203,-692,6.41919,23.6354,0.00231843,-0.00116788,0.00141044,0.00281759,-0.00166703,0.340143,0.00261744,0.0206859,1427,1716,6.41921,-23.6354
210,-692,6.4585,23.5369,0.00201142,-0.00146191,0.0010186,0.0022881,-0.00173859,0.265227,0.00233201,0.0178011,1434,1716,6.45849,-23.5368
217,-692,6.44897,23.4301,0.00170978,-0.00187215,0.000575687,0.00180003,-0.0019624,0.155504,0.00217291,0.0159814,1441,1716,6.44893,-23.43
224,-692,6.44373,23.33,0.00156914,-0.00184953,0.00057647,0.00166373,-0.00194412,0.162635,0.00208509,0.0123348,1448,1716,6.44378,-23.33
231,-692,6.45532,23.21,0.00149567,-0.00174171,0.000455578,0.00155855,-0.0018046,0.137176,0.00194345,0.0109212,1455,1716,6.45537,-23.21
238,-692,6.46997,23.0453,0.00144921,-0.0015433,0.000392681,0.00149988,-0.00159397,0.128328,0.00178651,0.0177038,1462,1716,6.46994,-23.0453
245,-692,6.48682,22.9121,0.00134554,-0.00124252,0.000368349,0.00139695,-0.00129392,0.138659,0.00155395,0.0208085,1469,1716,6.48681,-22.9121
252,-692,6.49695,22.8219,0.0012878,-0.000902585,0.000335285,0.00133797,-0.000952758,0.148541,0.00132877,0.0173399,1476,1716,6.49695,-22.8219
259,-692,6.48694,22.7341,0.00122143,-0.000574925,0.000340084,0.00128366,-0.000637154,0.180978,0.00112973,0.00989468,1483,1716,6.4869,-22.7341
266,-692,6.48206,22.5887,0.00112839,-0.000273133,0.00029233,0.00118692,-0.000331662,0.197606,0.00092194,0.010038,1490,1716,6.48209,-22.5887
273,-692,6.49463,22.4252,0.000984928,3.2468e-05,0.000212613,0.00103023,-1.28377e-05,0.209949,0.000691142,0.0139029,1497,1716,6.49459,-22.4252
280,-692,6.50684,22.2903,0.000754944,0.000248446,0.000148738,0.000795392,0.000207997,0.265522,0.000476315,0.0135031,1504,1716,6.5069,-22.2903
287,-692,6.51282,22.1603,0.000446118,0.000326506,0.00021413,0.000608637,0.000163987,0.649221,0.000363638,0.0105865,1511,1716,6.51287,-22.1602
294,-692,6.50488,21.9849,0.000224036,0.000406391,0.000276418,0.000606281,2.41458e-05,0.944707,0.000396384,0.0100285,1518,1716,6.50488,-21.9848
301,-692,6.49353,21.8226,0.000179216,0.000131913,0.000358315,0.000514659,-0.00020353,0.752442,0.00042742,0.0134939,1525,1716,6.49352,-21.8227
308,-692,6.47913,21.6814,0.000498446,-0.000534159,0.000149697,0.000519709,-0.000555422,0.141101,0.000620842,0.0166644,1532,1716,6.47915,-21.6814
315,-692,6.49707,21.501,0.00133784,-0.0010106,-0.00101964,0.00171876,-0.00139152,-0.357528,0.00179903,0.0153646,1539,1716,6.49709,-21.5009
322,-692,6.43994,21.2686,0.00201107,-0.00199476,-0.0017084,0.0026407,-0.00262439,-0.353104,0.00303981,0.0195223,1546,1716,6.43992,-21.2686
329,-692,6.422,21.09,0.00302738,-0.00313222,-0.0026771,0.00402827,-0.00413311,-0.35778,0.00471211,0.0168976,1553,1716,6.42195,-21.09
336,-692,6.43359,20.9287,0.0044869,-0.00435087,-0.00407061,0.00607604,-0.00594002,-0.372198,0.00693762,0.0123774,1560,1716,6.43364,-20.9287
343,-692,6.4624,20.7638,0.00607058,-0.0056944,-0.00574275,0.00840897,-0.00803279,-0.386689,0.00949348,0.0125636,1567,1716,6.46244,-20.7638
350,-692,6.45886,20.5729,0.00773778,-0.00737633,-0.00760442,0.0109016,-0.0105401,-0.394261,0.0123799,0.0125395,1574,1716,6.45884,-20.5729
357,-692,6.43372,20.3671,0.00954503,-0.00898681,-0.00950538,0.0135535,-0.0129953,-0.399077,0.0153291,0.0158589,1581,1716,6.4337,-20.3671
364,-692,6.354,20.1731,0,0,0,0,0,0,0,-1,1588,1716,6.35398,-20.1731
371,-692,6.44849,20.0037,0.0127656,-0.0122656,-0.0131592,0.0184105,-0.0179106,-0.40523,0.0209707,0.0351002,1595,1716,6.44853,-20.0037
378,-692,6.36218,19.9646,0.0138154,-0.0136635,-0.0144766,0.0200345,-0.0198826,-0.405758,0.0230462,0.0413637,1602,1716,6.36215,-19.9646
385,-692,6.52087,19.6047,0.014611,-0.0147081,-0.0153064,0.0211455,-0.0212426,-0.403492,0.0244728,0.0474377,1609,1716,6.52083,-19.6047
392,-692,6.49377,19.1791,0,0,0,0,0,0,0,-1,1616,1716,6.49375,-19.1791
399,-692,5.2627,10.4279,0,0,0,0,0,0,0,-1,1623,1716,5.26267,-10.4278
406,-692,4.73633,10.6808,0,0,0,0,0,0,0,-1,1630,1716,4.73637,-10.6808
413,-692,4.25085,10.5685,0,0,0,0,0,0,0,-1,1637,1716,4.2508,-10.5685
420,-692,5.48901,10.4845,0,0,0,0,0,0,0,-1,1644,1716,5.48906,-10.4845
427,-692,3.79578,8.60339,0,0,0,0,0,0,0,-1,1651,1716,3.79577,-8.6034
434,-692,4.78516,8.64636,0,0,0,0,0,0,0,-1,1658,1716,4.78512,-8.64634
441,-692,5.8208,8.74036,0,0,0,0,0,0,0,-1,1665,1716,5.82084,-8.7404
448,-692,6.73792,8.51013,0,0,0,0,0,0,0,-1,1672,1716,6.73793,-8.5101
455,-692,0,0,0,0,0,0,0,0,0,-1,1679,1716,0,0
462,-692,0,0,0,0,0,0,0,0,0,-1,1686,1716,0,0
469,-692,0,0,0,0,0,0,0,0,0,-1,1693,1716,0,0
476,-692,0,0,0,0,0,0,0,0,0,-1,1700,1716,0,0
483,-692,0,0,0,0,0,0,0,0,0,-1,1707,1716,0,0
490,-692,0,0,0,0,0,0,0,0,0,-1,1714,1716,0,0
497,-692,0,0,0,0,0,0,0,0,0,-1,1721,1716,0,0
504,-692,0,0,0,0,0,0,0,0,0,-1,1728,1716,0,0
511,-692,0,0,0,0,0,0,0,0,0,-1,1735,1716,0,0
518,-692,0,0,0,0,0,0,0,0,0,-1,1742,1716,0,0
525,-692,0,0,0,0,0,0,0,0,0,-1,1749,1716,0,0
532,-692,0,0,0,0,0,0,0,0,0,-1,1756,1716,0,0
539,-692,0,0,0,0,0,0,0,0,0,-1,1763,1716,0,0
546,-692,0,0,0,0,0,0,0,0,0,-1,1770,1716,0,0
553,-692,0,0,0,0,0,0,0,0,0,-1,1777,1716,0,0
560,-692,0,0,0,0,0,0,0,0,0,-1,1784,1716,0,0
567,-692,0,0,0,0,0,0,0,0,0,-1,1791,1716,0,0
574,-692,0,0,0,0,0,0,0,0,0,-1,1798,1716,0,0
581,-692,0,0,0,0,0,0,0,0,0,-1,1805,1716,0,0
588,-692,0,0,0,0,0,0,0,0,0,-1,1812,1716,0,0
595,-692,0,0,0,0,0,0,0,0,0,-1,1819,1716,0,0
602,-692,0,0,0,0,0,0,0,0,0,-1,1826,1716,0,0
609,-692,0,0,0,0,0,0,0,0,0,-1,1833,1716,0,0
616,-692,0,0,0,0,0,0,0,0,0,-1,1840,1716,0,0
623,-692,0,0,0,0,0,0,0,0,0,-1,1847,1716,0,0
630,-692,0,0,0,0,0,0,0,0,0,-1,1854,1716,0,0
637,-692,0,0,0,0,0,0,0,0,0,-1,1861,1716,0,0
644,-692,0,0,0,0,0,0,0,0,0,-1,1868,1716,0,0
651,-692,0,0,0,0,0,0,0,0,0,-1,1875,1716,0,0
658,-692,0,0,0,0,0,0,0,0,0,-1,1882,1716,0,0
665,-692,0,0,0,0,0,0,0,0,0,-1,1889,1716,0,0
672,-692,0,0,0,0,0,0,0,0,0,-1,1896,1716,0,0
679,-692,0,0,0,0,0,0,0,0,0,-1,1903,1716,0,0
686,-692,0,0,0,0,0,0,0,0,0,-1,1910,1716,0,0
693,-692,0,0,0,0,0,0,0,0,0,-1,1917,1716,0,0
700,-692,0,0,0,0,0,0,0,0,0,-1,1924,1716,0,0
707,-692,0,0,0,0,0,0,0,0,0,-1,1931,1716,0,0
714,-692,0,0,0,0,0,0,0,0,0,-1,1938,1716,0,0
721,-692,0,0,0,0,0,0,0,0,0,-1,1945,1716,0,0
728,-692,0,0,0,0,0,0,0,0,0,-1,1952,1716,0,0
735,-692,0,0,0,0,0,0,0,0,0,-1,1959,1716,0,0
742,-692,0,0,0,0,0,0,0,0,0,-1,1966,1716,0,0
749,-692,0,0,0,0,0,0,0,0,0,-1,1973,1716,0,0
756,-692,0,0,0,0,0,0,0,0,0,-1,1980,1716,0,0
763,-692,0,0,0,0,0,0,0,0,0,-1,1987,1716,0,0
770,-692,0,0,0,0,0,0,0,0,0,-1,1994,1716,0,0
777,-692,0,0,0,0,0,0,0,0,0,-1,2001,1716,0,0
784,-692,0,0,0,0,0,0,0,0,0,-1,2008,1716,0,0
791,-692,0,0,0,0,0,0,0,0,0,-1,2015,1716,0,0
798,-692,0,0,0,0,0,0,0,0,0,-1,2022,1716,0,0
805,-692,0,0,0,0,0,0,0,0,0,-1,2029,1716,0,0
812,-692,0,0,0,0,0,0,0,0,0,-1,2036,1716,0,0
-700,-699,0,0,0,0,0,0,0,0,0,-1,524,1723,0,0
-693,-699,0,0,0,0,0,0,0,0,0,-1,531,1723,0,0
-686,-699,0,0,0,0,0,0,0,0,0,-1,538,1723,0,0
-679,-699,0,0,0,0,0,0,0,0,0,-1,545,1723,0,0
-672,-699,0,0,0,0,0,0,0,0,0,-1,552,1723,0,0
-665,-699,0,0,0,0,0,0,0,0,0,-1,559,1723,0,0
-658,-699,0,0,0,0,0,0,0,0,0,-1,566,1723,0,0
-651,-699,0,0,0,0,0,0,0,0,0,-1,573,1723,0,0
-644,-699,0,0,0,0,0,0,0,0,0,-1,580,1723,0,0
-637,-699,0,0,0,0,0,0,0,0,0,-1,587,1723,0,0
-630,-699,0,0,0,0,0,0,0,0,0,-1,594,1723,0,0
-623,-699,0,0,0,0,0,0,0,0,0,-1,601,1723,0,0
-616,-699,0,0,0,0,0,0,0,0,0,-1,608,1723,0,0
-609,-699,0,0,0,0,0,0,0,0,0,-1,615,1723,0,0
-602,-699,0,0,0,0,0,0,0,0,0,-1,622,1723,0,0
-595,-699,0,0,0,0,0,0,0,0,0,-1,629,1723,0,0
-588,-699,0,0,0,0,0,0,0,0,0,-1,636,1723,0,0
-581,-699,0,0,0,0,0,0,0,0,0,-1,643,1723,0,0
-574,-699,0,0,0,0,0,0,0,0,0,-1,650,1723,0,0
-567,-699,0,0,0,0,0,0,0,0,0,-1,657,1723,0,0
-560,-699,0,0,0,0,0,0,0,0,0,-1,664,1723,0,0
-553,-699,0,0,0,0,0,0,0,0,0,-1,671,1723,0,0
-546,-699,0,0,0,0,0,0,0,0,0,-1,678,1723,0,0
-539,-699,0,0,0,0,0,0,0,0,0,-1,685,1723,0,0
-532,-699,0,0,0,0,0,0,0,0,0,-1,692,1723,0,0
-525,-699,0,0,0,0,0,0,0,0,0,-1,699,1723,0,0
-518,-699,0,0,0,0,0,0,0,0,0,-1,706,1723,0,0
-511,-699,0,0,0,0,0,0,0,0,0,-1,713,1723,0,0
-504,-699,0,0,0,0,0,0,0,0,0,-1,720,1723,0,0
-497,-699,0,0,0,0,0,0,0,0,0,-1,727,1723,0,0
-490,-699,0,0,0,0,0,0,0,0,0,-1,734,1723,0,0
-483,-699,0,0,0,0,0,0,0,0,0,-1,741,1723,0,0
-476,-699,0,0,0,0,0,0,0,0,0,-1,748,1723,0,0
-469,-699,0,0,0,0,0,0,0,0,0,-1,755,1723,0,0
-462,-699,0,0,0,0,0,0,0,0,0,-1,762,1723,0,0
-455,-699,0,0,0,0,0,0,0,0,0,-1,769,1723,0,0
-448,-699,0,0,0,0,0,0,0,0,0,-1,776,1723,0,0
-441,-699,0,0,0,0,0,0,0,0,0,-1,783,1723,0,0
-434,-699,0,0,0,0,0,0,0,0,0,-1,790,1723,0,0
-427,-699,0,0,0,0,0,0,0,0,0,-1,797,1723,0,0
-420,-699,0,0,0,0,0,0,0,0,0,-1,804,1723,0,0
-413,-699,0,0,0,0,0,0,0,0,0,-1,811,1723,0,0
-406,-699,0,0,0,0,0,0,0,0,0,-1,818,1723,0,0
-399,-699,0,0,0,0,0,0,0,0,0,-1,825,1723,0,0
-392,-699,0,0,0,0,0,0,0,0,0,-1,832,1723,0,0
-385,-699,0,0,0,0,0,0,0,0,0,-1,839,1723,0,0
-378,-699,0,0,0,0,0,0,0,0,0,-1,846,1723,0,0
-371,-699,0,0,0,0,0,0,0,0,0,-1,853,1723,0,0
-364,-699,0,0,0,0,0,0,0,0,0,-1,860,1723,0,0
-357,-699,0,0,0,0,0,0,0,0,0,-1,867,1723,0,0
-350,-699,0,0,0,0,0,0,0,0,0,-1,874,1723,0,0
-343,-699,0,0,0,0,0,0,0,0,0,-1,881,1723,0,0
-336,-699,0,0,0,0,0,0,0,0,0,-1,888,1723,0,0
-329,-699,0,0,0,0,0,0,0,0,0,-1,895,1723,0,0
-322,-699,0,0,0,0,0,0,0,0,0,-1,902,1723,0,0
-315,-699,6.20001,19.5193,0,0,0,0,0,0,0,-1,909,1723,6.20001,-19.5193
-308,-699,6.98151,18.9218,0,0,0,0,0,0,0,-1,916,1723,6.98151,-18.9217
-301,-699,4.72729,12.8752,0,0,0,0,0,0,0,-1,923,1723,4.72732,-12.8752
-294,-699,6.90332,19.8601,0,0,0,0,0,0,0,-1,930,1723,6.90332,-19.8601
-287,-699,6.16406,19.6458,0,0,0,0,0,0,0,-1,937,1723,6.16407,-19.6457
-280,-699,5.85413,17.4639,0,0,0,0,0,0,0,-1,944,1723,5.85414,-17.4639
-273,-699,9.08301,16.9208,0,0,0,0,0,0,0,-1,951,1723,9.08302,-16.9207
-266,-699,9.6546,17.3992,0,0,0,0,0,0,0,-1,958,1723,9.65459,-17.3991
-259,-699,5.67737,10.8545,0,0,0,0,0,0,0,-1,965,1723,5.67736,-10.8545
-252,-699,5.60577,17.754,0,0,0,0,0,0,0,-1,972,1723,5.60576,-17.754
-245,-699,5.40631,18.6732,0,0,0,0,0,0,0,-1,979,1723,5.40629,-18.6733
-238,-699,5.46857,19.4875,0,0,0,0,0,0,0,-1,986,1723,5.46856,-19.4875
-231,-699,5.52637,19.4888,0.00145928,0.0132664,0.00782622,0.017166,-0.00244031,1.10853,0.0123381,0.0411469,993,1723,5.52637,-19.4888
-224,-699,5.61584,19.6449,0.00111898,0.010845,0.0074901,0.0149123,-0.00294833,1.07332,0.0110561,0.0387923,1000,1723,5.61582,-19.6449
-217,-699,5.59363,19.8584,0.000716638,0.00829509,0.00660592,0.0121214,-0.00310967,1.04579,0.00929258,0.0261342,1007,1723,5.59363,-19.8584
-210,-699,5.61847,20.118,0.00019119,0.00589367,0.00576669,0.00947549,-0.00339063,1.01499,0.00770019,0.0183201,1014,1723,5.61846,-20.118
-203,-699,5.63965,20.2998,-3.60944e-05,0.00385894,0.00480328,0.00709451,-0.00327166,0.977999,0.00611906,0.0215408,1021,1723,5.63961,-20.2998
-196,-699,5.59985,20.4951,-0.00041567,0.00268229,0.00358451,0.00503819,-0.00277156,0.989346,0.00457183,0.0176252,1028,1723,5.59984,-20.4952
-189,-699,5.55359,20.7328,-0.00100563,0.00140622,0.00217227,0.00268485,-0.00228426,1.03879,0.00287202,0.00856565,1035,1723,5.55356,-20.7327
-182,-699,5.53479,20.9413,-0.00154139,0.00077735,0.00107004,0.00119568,-0.00195972,1.19812,0.00183948,0.011672,1042,1723,5.53474,-20.9413
-175,-699,5.53906,21.1385,-0.00198811,0.000181881,0.000342103,0.000234537,-0.00204076,1.41808,0.00144505,0.014979,1049,1723,5.53906,-21.1385
-168,-699,5.56287,21.3103,-0.00214954,-5.74082e-05,-0.000260751,-2.53994e-05,-0.00218155,-1.44865,0.00144598,0.0153727,1056,1723,5.56284,-21.3103
-161,-699,5.54932,21.481,-0.00225401,9.3081e-05,-0.000649568,0.000260858,-0.00242179,-1.31803,0.00170813,0.0133605,1063,1723,5.54926,-21.4809
-154,-699,5.52246,21.6776,-0.00215699,0.000572017,-0.000798936,0.000788706,-0.00237368,-1.30595,0.00190071,0.0130239,1070,1723,5.52243,-21.6776
-147,-699,5.51172,21.833,-0.00182126,0.00106226,-0.000875387,0.0013072,-0.0020662,-1.29796,0.001964,0.0138095,1077,1723,5.51166,-21.833
-140,-699,5.49805,21.9835,-0.00145448,0.00151042,-0.000832332,0.0017281,-0.00167216,-1.315,0.00196323,0.00986235,1084,1723,5.49809,-21.9835
-133,-699,5.4917,22.1647,-0.000992967,0.00173093,-0.000641422,0.00187441,-0.00113645,-1.35072,0.00175564,0.00898691,1091,1723,5.49171,-22.1647
-126,-699,5.50427,22.3142,-0.000393681,0.00197981,-0.000372077,0.00203677,-0.000450643,-1.41889,0.00153034,0.0110422,1098,1723,5.50427,-22.3143
-119,-699,5.50818,22.443,0.00016083,0.002125,-0.000134563,0.00213418,0.000151654,-1.50271,0.00137503,0.0159885,1105,1723,5.50812,-22.443
-112,-699,5.50012,22.5811,0.000736868,0.00212817,9.57895e-05,0.00213474,0.000730304,1.50238,0.00125281,0.0110939,1112,1723,5.50015,-22.5811
-105,-699,5.53162,22.7281,0.00123979,0.00201375,0.000290345,0.00211056,0.00114298,1.24896,0.00121994,0.0113169,1119,1723,5.53165,-22.7282
-98,-699,5.57544,22.8627,0.00163475,0.00189552,0.000535265,0.00231605,0.00121422,0.904865,0.0013377,0.013804,1126,1723,5.57548,-22.8627
-91,-699,5.58276,22.9839,0.00198618,0.00178434,0.000735181,0.00262734,0.00114319,0.71719,0.00152114,0.0203011,1133,1723,5.58275,-22.9839
-84,-699,5.56641,23.1129,0.00227831,0.00161546,0.00079421,0.00280748,0.0010863,0.587732,0.00163465,0.0233088,1140,1723,5.56644,-23.1129
-77,-699,5.5437,23.2047,0.00256391,0.00165012,0.000662289,0.00291162,0.00130242,0.48345,0.00168413,0.016171,1147,1723,5.5437,-23.2047
-70,-699,5.54309,23.3212,0.00283927,0.00151509,0.000443883,0.00297429,0.00138006,0.295301,0.00171869,0.0174987,1154,1723,5.54308,-23.3211
-63,-699,5.55896,23.4617,0.00329412,0.00138628,0.000323673,0.00334754,0.00133286,0.163559,0.00194602,0.0143816,1161,1723,5.55894,-23.4617
-56,-699,5.54834,23.5647,0.00382304,0.00114452,0.000281857,0.00385238,0.00111518,0.103715,0.00228895,0.0105287,1168,1723,5.54839,-23.5646
-49,-699,5.56372,23.6989,0.00410729,0.000751336,0.000480377,0.0041747,0.000683928,0.139413,0.00258549,0.0239774,1175,1723,5.5637,-23.6989
-42,-699,5.59619,23.8168,0.00514426,0.0031379,0.00222282,0.00657979,0.00170237,0.573428,0.00394352,0.0270949,1182,1723,5.59616,-23.8167
-35,-699,5.59338,23.8691,0.00682508,0.006894,0.00386717,0.0107269,0.00299222,0.789853,0.00639172,0.0240719,1189,1723,5.59343,-23.8691
-28,-699,5.64514,23.925,0.00734415,0.00909421,0.00466359,0.0129642,0.0034742,0.878135,0.00774881,0.0195906,1196,1723,5.64509,-23.925
-21,-699,5.6499,23.9476,0.00852944,0.00978782,0.0041822,0.0133879,0.00492936,0.860061,0.00781851,0.0128594,1203,1723,5.6499,-23.9476
-14,-699,5.65918,24.0232,0.0103754,0.00997651,0.00395386,0.0141349,0.00621708,0.760197,0.00818043,0.0110906,1210,1723,5.65919,-24.0232
-7,-699,5.69458,24.1165,0.0111942,0.010729,0.00412502,0.0150932,0.00683003,0.757231,0.00872714,0.00854001,1217,1723,5.69454,-24.1165
0,-699,5.72119,24.1725,0.0115179,0.0110044,0.00397364,0.0152431,0.00727922,0.753132,0.00880355,0.0101418,1224,1723,5.72125,-24.1725
7,-699,5.73755,24.2256,0.011627,0.0103576,0.00380767,0.0148525,0.00713211,0.702818,0.00857734,0.016227,1231,1723,5.73754,-24.2256
14,-699,5.78198,24.2815,0.0112156,0.00933835,0.00365469,0.0140503,0.00650368,0.6597,0.00811938,0.0173976,1238,1723,5.78203,-24.2815
21,-699,5.80737,24.2992,0.0106045,0.00804912,0.00325539,0.0128239,0.00582966,0.598394,0.00741408,0.0164622,1245,1723,5.80732,-24.2991
28,-699,5.80762,24.321,0.0100711,0.00639253,0.00315135,0.0118806,0.00458298,0.521244,0.00691872,0.0152562,1252,1723,5.80757,-24.3211
35,-699,5.84534,24.39,0.00918115,0.00460949,0.00307449,0.0107264,0.00306419,0.46574,0.00637976,0.0129053,1259,1723,5.84536,-24.39
42,-699,5.89722,24.4243,0.00787468,0.00341454,0.00317931,0.00952806,0.00176115,0.479555,0.00585397,0.0124375,1266,1723,5.89722,-24.4243
49,-699,5.90955,24.4497,0.00651224,0.00203622,0.00334924,0.00830239,0.000246072,0.490861,0.00545475,0.014815,1273,1723,5.9095,-24.4497
56,-699,5.93652,24.4807,0.00460252,0.00376042,0.00308717,0.00729722,0.00106572,0.717622,0.00455136,0.0153311,1280,1723,5.93656,-24.4807
63,-699,5.96167,24.4801,0.00243717,0.00687479,0.00221598,0.00779185,0.0015201,1.17842,0.00476931,0.0133686,1287,1723,5.96164,-24.4801
70,-699,5.9679,24.4883,0.000176494,0.00883868,0.00178732,0.00919297,-0.000177803,1.37511,0.00618877,0.0112877,1294,1723,5.96786,-24.4883
77,-699,5.97339,24.481,-8.67244e-06,0.0106929,0.0018419,0.011001,-0.000316817,1.40503,0.00744188,0.0111627,1301,1723,5.97345,-24.481
84,-699,5.9751,24.4452,0.000811406,0.0121735,0.00217501,0.0125756,0.000409284,1.38798,0.00825071,0.0136026,1308,1723,5.97505,-24.4452
91,-699,6.02429,24.437,0.00163466,0.0132141,0.00224977,0.0136358,0.00121292,1.38548,0.00871443,0.0124104,1315,1723,6.02433,-24.4371
98,-699,6.06604,24.4554,0.00375232,0.0127405,0.00196303,0.0131505,0.00334229,1.36488,0.00789245,0.0107616,1322,1723,6.06603,-24.4555
105,-699,6.07117,24.4518,0.00621734,0.0118498,0.00178301,0.0123668,0.00570036,1.28859,0.00714724,0.015349,1329,1723,6.0712,-24.4518
112,-699,6.08948,24.4269,0.00883068,0.0101192,0.00169787,0.0112909,0.00765895,0.966733,0.00665559,0.0213197,1336,1723,6.0895,-24.4268
119,-699,6.09363,24.4049,0.0117162,0.00667014,0.00187541,0.0123369,0.00604948,0.319603,0.00712316,0.0157338,1343,1723,6.09362,-24.4049
126,-699,6.12866,24.3724,0.0142933,0.00214323,0.00264833,0.0148455,0.00159107,0.205548,0.00941158,0.0169608,1350,1723,6.1287,-24.3725
133,-699,6.16174,24.3217,0.0163247,-0.0023928,0.00332162,0.0168966,-0.00296478,0.170526,0.0123717,0.014931,1357,1723,6.16178,-24.3217
140,-699,6.21008,24.2725,0.0180998,-0.00630742,0.0040442,0.0187524,-0.00696008,0.160002,0.0153567,0.0161396,1364,1723,6.21005,-24.2725
147,-699,6.22058,24.2179,0.0191825,-0.00922429,0.00449192,0.0198759,-0.00991766,0.153152,0.0175187,0.0134683,1371,1723,6.22052,-24.2179
154,-699,6.20862,24.1674,0.0192685,-0.0105326,0.0047334,0.0200023,-0.0112663,0.153792,0.0182863,0.0131994,1378,1723,6.20859,-24.1673
161,-699,6.22839,24.1301,0.0193676,-0.0128091,0.00508319,0.0201515,-0.013593,0.153015,0.0196047,0.0100538,1385,1723,6.22842,-24.1301
168,-699,6.24341,24.0601,0.0187097,-0.0146249,0.00538064,0.0195566,-0.0154719,0.156132,0.0202695,0.0116353,1392,1723,6.24339,-24.06
175,-699,6.27258,23.9669,0.0168208,-0.0130213,0.00472905,0.0175523,-0.0137528,0.153462,0.0181183,0.0127451,1399,1723,6.27258,-23.967
182,-699,6.3042,23.8853,0.0129097,-0.00969032,0.00375389,0.0135169,-0.0102975,0.160366,0.0137911,0.0131373,1406,1723,6.30414,-23.8853
189,-699,6.29211,23.8248,0.00760509,-0.00609609,0.00328363,0.00835139,-0.00684239,0.223484,0.00878654,0.0169293,1413,1723,6.29211,-23.8248
196,-699,6.28296,23.7302,0.00330186,-0.0026811,0.00239979,0.00414547,-0.00352471,0.338042,0.00443322,0.0164153,1420,1723,6.28299,-23.7302
203,-699,6.29761,23.6445,0.00196041,-0.000820851,0.000962706,0.00226113,-0.00112157,0.302763,0.0019896,0.0130402,1427,1723,6.29755,-23.6445
210,-699,6.33386,23.5403,0.00172197,-0.000963541,0.000710968,0.00189858,-0.00114015,0.243478,0.00177253,0.0128794,1434,1723,6.33391,-23.5403
217,-699,6.34265,23.4318,0.00142633,-0.00113563,0.000437896,0.00149911,-0.00120841,0.164695,0.00156619,0.0134392,1441,1723,6.34262,-23.4318
224,-699,6.32617,23.3313,0.00119133,-0.000975053,0.000464925,0.00128689,-0.00107061,0.202719,0.00136301,0.015412,1448,1723,6.32612,-23.3313
231,-699,6.3374,23.2115,0.000944216,-0.000710335,0.000432038,0.00105024,-0.000816356,0.240641,0.00108049,0.0116782,1455,1723,6.33735,-23.2115
238,-699,6.33398,23.0868,0.00075539,-0.000374789,0.000423719,0.000896604,-0.000516003,0.321695,0.000825377,0.0105006,1462,1723,6.33402,-23.0868
245,-699,6.3407,22.9602,0.000573688,2.98161e-05,0.000416437,0.000799114,-0.00019561,0.496155,0.000608517,0.0126385,1469,1723,6.34075,-22.9602
252,-699,6.34265,22.8444,0.000390297,0.000397387,0.000383178,0.000777036,1.06482e-05,0.790024,0.000514512,0.0103763,1476,1723,6.34268,-22.8444
259,-699,6.32703,22.7172,0.000244968,0.000753797,0.000375007,0.000952546,4.62193e-05,1.08345,0.000620199,0.0108359,1483,1723,6.327,-22.7171
266,-699,6.32507,22.5811,0.000136681,0.00106743,0.000310977,0.00116177,4.23412e-05,1.27626,0.000760795,0.0126521,1490,1723,6.32504,-22.5811
273,-699,6.35547,22.4371,-7.61906e-07,0.00136096,0.00022931,0.00139854,-3.834e-05,1.40837,0.0009454,0.0110824,1497,1723,6.35553,-22.4371
280,-699,6.37866,22.2915,-0.000214534,0.0014816,0.000172847,0.00149903,-0.000231969,1.47027,0.00108497,0.0113435,1504,1723,6.37867,-22.2915
287,-699,6.35791,22.131,-0.000459618,0.00132285,0.000287419,0.00136805,-0.000504818,1.41481,0.00111893,0.0101414,1511,1723,6.35791,-22.131
294,-699,6.35059,21.9651,-0.000566107,0.00125987,0.000389694,0.00133956,-0.000645796,1.36909,0.00116934,0.0109338,1518,1723,6.35061,-21.9651
301,-699,6.34753,21.8309,-0.000446153,0.000672695,0.000538293,0.000889618,-0.000663076,1.18772,0.000899623,0.0123224,1525,1723,6.34756,-21.8309
308,-699,6.34656,21.6952,0.000110144,-0.000340972,0.000261877,0.00023021,-0.000461038,0.429886,0.000406442,0.0158111,1532,1723,6.34662,-21.6952
315,-699,6.34412,21.5037,0.00134499,-0.00103132,-0.00127497,0.00189961,-0.00158593,-0.410314,0.00201509,0.0186411,1539,1723,6.34406,-21.5036
322,-699,6.3197,21.3071,0.00237188,-0.00238747,-0.00215147,0.00320027,-0.00321587,-0.367539,0.00370436,0.0195268,1546,1723,6.31975,-21.3072
329,-699,6.27734,21.1108,0.0038795,-0.00392037,-0.00340721,0.00515823,-0.0051991,-0.359035,0.00597982,0.0148332,1553,1723,6.27739,-21.1108
336,-699,6.27783,20.9469,0.00604289,-0.00563305,-0.0053009,0.00809044,-0.0076806,-0.36861,0.00910644,0.0140281,1560,1723,6.27777,-20.947
343,-699,6.33459,20.7888,0.0084465,-0.00753142,-0.00763047,0.0115051,-0.01059,-0.381225,0.0127602,0.0185648,1567,1723,6.33461,-20.7888
350,-699,6.39734,20.6422,0.0110512,-0.00983186,-0.0103158,0.0152876,-0.0140683,-0.389671,0.0169535,0.027949,1574,1723,6.3973,-20.6422
357,-699,6.45447,20.6235,0.013897,-0.0120503,-0.0131226,0.0193765,-0.0175299,-0.395554,0.0213168,0.0378333,1581,1723,6.45445,-20.6236
364,-699,6.33679,20.5233,0.0167625,-0.0143047,-0.0160592,0.0235714,-0.0211137,-0.401016,0.025812,0.0445172,1588,1723,6.3368,-20.5233
371,-699,6.37012,20.3961,0.0192951,-0.0164615,-0.0188462,0.0273939,-0.0245604,-0.405874,0.0300107,0.0497431,1595,1723,6.37006,-20.3961
378,-699,6.2168,20.066,0,0,0,0,0,0,0,-1,1602,1723,6.21681,-20.0661
385,-699,6.3103,19.6388,0,0,0,0,0,0,0,-1,1609,1723,6.31034,-19.6387
392,-699,5.21069,16.861,0,0,0,0,0,0,0,-1,1616,1723,5.21066,-16.8609
399,-699,3.91516,9.81726,0,0,0,0,0,0,0,-1,1623,1723,3.9152,-9.81721
406,-699,5.50757,21.6672,0,0,0,0,0,0,0,-1,1630,1723,5.50755,-21.6672
413,-699,9.31396,23.2781,0,0,0,0,0,0,0,-1,1637,1723,9.31396,-23.278
420,-699,2.15076,7.65527,0,0,0,0,0,0,0,-1,1644,1723,2.15079,-7.65522
427,-699,3.36328,8.2428,0,0,0,0,0,0,0,-1,1651,1723,3.36332,-8.24283
434,-699,4.66455,8.90222,0,0,0,0,0,0,0,-1,1658,1723,4.66456,-8.90223
441,-699,0,0,0,0,0,0,0,0,0,-1,1665,1723,0,0
448,-699,0,0,0,0,0,0,0,0,0,-1,1672,1723,0,0
455,-699,0,0,0,0,0,0,0,0,0,-1,1679,1723,0,0
462,-699,0,0,0,0,0,0,0,0,0,-1,1686,1723,0,0
469,-699,0,0,0,0,0,0,0,0,0,-1,1693,1723,0,0
476,-699,0,0,0,0,0,0,0,0,0,-1,1700,1723,0,0
483,-699,0,0,0,0,0,0,0,0,0,-1,1707,1723,0,0
490,-699,0,0,0,0,0,0,0,0,0,-1,1714,1723,0,0
497,-699,0,0,0,0,0,0,0,0,0,-1,1721,1723,0,0
504,-699,0,0,0,0,0,0,0,0,0,-1,1728,1723,0,0
511,-699,0,0,0,0,0,0,0,0,0,-1,1735,1723,0,0
518,-699,0,0,0,0,0,0,0,0,0,-1,1742,1723,0,0
525,-699,0,0,0,0,0,0,0,0,0,-1,1749,1723,0,0
532,-699,0,0,0,0,0,0,0,0,0,-1,1756,1723,0,0
539,-699,0,0,0,0,0,0,0,0,0,-1,1763,1723,0,0
546,-699,0,0,0,0,0,0,0,0,0,-1,1770,1723,0,0
553,-699,0,0,0,0,0,0,0,0,0,-1,1777,1723,0,0
560,-699,0,0,0,0,0,0,0,0,0,-1,1784,1723,0,0
567,-699,0,0,0,0,0,0,0,0,0,-1,1791,1723,0,0
574,-699,0,0,0,0,0,0,0,0,0,-1,1798,1723,0,0
581,-699,0,0,0,0,0,0,0,0,0,-1,1805,1723,0,0
588,-699,0,0,0,0,0,0,0,0,0,-1,1812,1723,0,0
595,-699,0,0,0,0,0,0,0,0,0,-1,1819,1723,0,0
602,-699,0,0,0,0,0,0,0,0,0,-1,1826,1723,0,0
609,-699,0,0,0,0,0,0,0,0,0,-1,1833,1723,0,0
616,-699,0,0,0,0,0,0,0,0,0,-1,1840,1723,0,0
623,-699,0,0,0,0,0,0,0,0,0,-1,1847,1723,0,0
630,-699,0,0,0,0,0,0,0,0,0,-1,1854,1723,0,0
637,-699,0,0,0,0,0,0,0,0,0,-1,1861,1723,0,0
644,-699,0,0,0,0,0,0,0,0,0,-1,1868,1723,0,0
651,-699,0,0,0,0,0,0,0,0,0,-1,1875,1723,0,0
658,-699,0,0,0,0,0,0,0,0,0,-1,1882,1723,0,0
665,-699,0,0,0,0,0,0,0,0,0,-1,1889,1723,0,0
672,-699,0,0,0,0,0,0,0,0,0,-1,1896,1723,0,0
679,-699,0,0,0,0,0,0,0,0,0,-1,1903,1723,0,0
686,-699,0,0,0,0,0,0,0,0,0,-1,1910,1723,0,0
693,-699,0,0,0,0,0,0,0,0,0,-1,1917,1723,0,0
700,-699,0,0,0,0,0,0,0,0,0,-1,1924,1723,0,0
707,-699,0,0,0,0,0,0,0,0,0,-1,1931,1723,0,0
714,-699,0,0,0,0,0,0,0,0,0,-1,1938,1723,0,0
721,-699,0,0,0,0,0,0,0,0,0,-1,1945,1723,0,0
728,-699,0,0,0,0,0,0,0,0,0,-1,1952,1723,0,0
735,-699,0,0,0,0,0,0,0,0,0,-1,1959,1723,0,0
742,-699,0,0,0,0,0,0,0,0,0,-1,1966,1723,0,0
749,-699,0,0,0,0,0,0,0,0,0,-1,1973,1723,0,0
756,-699,0,0,0,0,0,0,0,0,0,-1,1980,1723,0,0
763,-699,0,0,0,0,0,0,0,0,0,-1,1987,1723,0,0
770,-699,0,0,0,0,0,0,0,0,0,-1,1994,1723,0,0
777,-699,0,0,0,0,0,0,0,0,0,-1,2001,1723,0,0
784,-699,0,0,0,0,0,0,0,0,0,-1,2008,1723,0,0
791,-699,0,0,0,0,0,0,0,0,0,-1,2015,1723,0,0
798,-699,0,0,0,0,0,0,0,0,0,-1,2022,1723,0,0
805,-699,0,0,0,0,0,0,0,0,0,-1,2029,1723,0,0
812,-699,0,0,0,0,0,0,0,0,0,-1,2036,1723,0,0
-700,-706,0,0,0,0,0,0,0,0,0,-1,524,1730,0,0
-693,-706,0,0,0,0,0,0,0,0,0,-1,531,1730,0,0
-686,-706,0,0,0,0,0,0,0,0,0,-1,538,1730,0,0
-679,-706,0,0,0,0,0,0,0,0,0,-1,545,1730,0,0
-672,-706,0,0,0,0,0,0,0,0,0,-1,552,1730,0,0
-665,-706,0,0,0,0,0,0,0,0,0,-1,559,1730,0,0
-658,-706,0,0,0,0,0,0,0,0,0,-1,566,1730,0,0
-651,-706,0,0,0,0,0,0,0,0,0,-1,573,1730,0,0
-644,-706,0,0,0,0,0,0,0,0,0,-1,580,1730,0,0
-637,-706,0,0,0,0,0,0,0,0,0,-1,587,1730,0,0
-630,-706,0,0,0,0,0,0,0,0,0,-1,594,1730,0,0
-623,-706,0,0,0,0,0,0,0,0,0,-1,601,1730,0,0
-616,-706,0,0,0,0,0,0,0,0,0,-1,608,1730,0,0
-609,-706,0,0,0,0,0,0,0,0,0,-1,615,1730,0,0
-602,-706,0,0,0,0,0,0,0,0,0,-1,622,1730,0,0
-595,-706,0,0,0,0,0,0,0,0,0,-1,629,1730,0,0
-588,-706,0,0,0,0,0,0,0,0,0,-1,636,1730,0,0
-581,-706,0,0,0,0,0,0,0,0,0,-1,643,1730,0,0
-574,-706,0,0,0,0,0,0,0,0,0,-1,650,1730,0,0
-567,-706,0,0,0,0,0,0,0,0,0,-1,657,1730,0,0
-560,-706,0,0,0,0,0,0,0,0,0,-1,664,1730,0,0
-553,-706,0,0,0,0,0,0,0,0,0,-1,671,1730,0,0
-546,-706,0,0,0,0,0,0,0,0,0,-1,678,1730,0,0
-539,-706,0,0,0,0,0,0,0,0,0,-1,685,1730,0,0
-532,-706,0,0,0,0,0,0,0,0,0,-1,692,1730,0,0
-525,-706,0,0,0,0,0,0,0,0,0,-1,699,1730,0,0
-518,-706,0,0,0,0,0,0,0,0,0,-1,706,1730,0,0
-511,-706,0,0,0,0,0,0,0,0,0,-1,713,1730,0,0
-504,-706,0,0,0,0,0,0,0,0,0,-1,720,1730,0,0
-497,-706,0,0,0,0,0,0,0,0,0,-1,727,1730,0,0
-490,-706,0,0,0,0,0,0,0,0,0,-1,734,1730,0,0
-483,-706,0,0,0,0,0,0,0,0,0,-1,741,1730,0,0
-476,-706,0,0,0,0,0,0,0,0,0,-1,748,1730,0,0
-469,-706,0,0,0,0,0,0,0,0,0,-1,755,1730,0,0
-462,-706,0,0,0,0,0,0,0,0,0,-1,762,1730,0,0
-455,-706,0,0,0,0,0,0,0,0,0,-1,769,1730,0,0
-448,-706,0,0,0,0,0,0,0,0,0,-1,776,1730,0,0
-441,-706,0,0,0,0,0,0,0,0,0,-1,783,1730,0,0
-434,-706,0,0,0,0,0,0,0,0,0,-1,790,1730,0,0
-427,-706,0,0,0,0,0,0,0,0,0,-1,797,1730,0,0
-420,-706,0,0,0,0,0,0,0,0,0,-1,804,1730,0,0
-413,-706,0,0,0,0,0,0,0,0,0,-1,811,1730,0,0
-406,-706,0,0,0,0,0,0,0,0,0,-1,818,1730,0,0
-399,-706,0,0,0,0,0,0,0,0,0,-1,825,1730,0,0
-392,-706,0,0,0,0,0,0,0,0,0,-1,832,1730,0,0
-385,-706,0,0,0,0,0,0,0,0,0,-1,839,1730,0,0
-378,-706,0,0,0,0,0,0,0,0,0,-1,846,1730,0,0
-371,-706,0,0,0,0,0,0,0,0,0,-1,853,1730,0,0
-364,-706,0,0,0,0,0,0,0,0,0,-1,860,1730,0,0
-357,-706,0,0,0,0,0,0,0,0,0,-1,867,1730,0,0
-350,-706,0,0,0,0,0,0,0,0,0,-1,874,1730,0,0
-343,-706,0,0,0,0,0,0,0,0,0,-1,881,1730,0,0
-336,-706,0,0,0,0,0,0,0,0,0,-1,888,1730,0,0
-329,-706,0,0,0,0,0,0,0,0,0,-1,895,1730,0,0
-322,-706,0,0,0,0,0,0,0,0,0,-1,902,1730,0,0
-315,-706,0,0,0,0,0,0,0,0,0,-1,909,1730,0,0
-308,-706,5.08191,14.6245,0,0,0,0,0,0,0,-1,916,1730,5.08188,-14.6245
-301,-706,7.45007,21.1975,0,0,0,0,0,0,0,-1,923,1730,7.45005,-21.1976
-294,-706,7.04108,20.9526,0,0,0,0,0,0,0,-1,930,1730,7.04107,-20.9527
-287,-706,6.48712,20.8536,0,0,0,0,0,0,0,-1,937,1730,6.48709,-20.8537
-280,-706,5.87341,20.8206,0,0,0,0,0,0,0,-1,944,1730,5.87338,-20.8206
-273,-706,5.28461,20.999,0,0,0,0,0,0,0,-1,951,1730,5.2846,-20.999
-266,-706,6.81213,14.6445,0,0,0,0,0,0,0,-1,958,1730,6.81216,-14.6445
-259,-706,3.47852,20.7363,0,0,0,0,0,0,0,-1,965,1730,3.47851,-20.7364
-252,-706,3.84259,20.1979,0,0,0,0,0,0,0,-1,972,1730,3.84256,-20.1979
-245,-706,4.698,19.2992,0,0,0,0,0,0,0,-1,979,1730,4.69799,-19.2991
-238,-706,5.3548,19.2769,0,0,0,0,0,0,0,-1,986,1730,5.35479,-19.2769
-231,-706,5.54388,19.1407,0.00263664,0.0178908,0.0114011,0.0239808,-0.00345332,1.0802,0.0172539,0.0455465,993,1730,5.54387,-19.1407
-224,-706,5.49359,19.2648,0.00204356,0.0142558,0.0105408,0.0203314,-0.00403198,1.04792,0.015079,0.0464446,1000,1730,5.49362,-19.2648
-217,-706,5.49158,19.634,0.00131637,0.0106188,0.0090969,0.0161846,-0.00424943,1.02172,0.0124503,0.043364,1007,1730,5.4916,-19.634
-210,-706,5.76501,20.0204,0.000461442,0.00731588,0.0077793,0.0123894,-0.00461212,0.992885,0.0101524,0.0421482,1014,1730,5.76502,-20.0204
-203,-706,5.85034,20.3729,-1.05206e-05,0.00451962,0.00630615,0.00895515,-0.00444605,0.957815,0.00788183,0.0297362,1021,1730,5.85029,-20.3729
-196,-706,5.79114,20.5577,-0.000680954,0.00301062,0.00462186,0.00614163,-0.00381196,0.975376,0.00579894,0.0231219,1028,1730,5.79108,-20.5577
-189,-706,5.75952,20.7178,-0.00156573,0.00145109,0.00267373,0.00301255,-0.00312719,1.04222,0.00354499,0.0176007,1035,1730,5.75947,-20.7178
-182,-706,5.73193,20.9493,-0.00244289,0.000739143,0.00113005,0.00109963,-0.00280337,1.262,0.00232386,0.0125637,1042,1730,5.73197,-20.9493
-175,-706,5.73962,21.14,-0.00324076,2.60537e-05,0.00014815,3.27586e-05,-0.00324747,1.52557,0.00217598,0.0147241,1049,1730,5.73958,-21.14
-168,-706,5.74817,21.3031,-0.00358159,-0.0002248,-0.000688967,-8.88947e-05,-0.00371749,-1.37604,0.00244924,0.0157329,1056,1730,5.7482,-21.3031
-161,-706,5.7113,21.4792,-0.00381603,-1.09231e-05,-0.00125456,0.000365475,-0.00419243,-1.27932,0.0029244,0.0127505,1063,1730,5.7113,-21.4792
-154,-706,5.67297,21.6827,-0.00380867,0.000587285,-0.0015161,0.00105945,-0.00428084,-1.26888,0.00326485,0.0120102,1070,1730,5.67294,-21.6827
-147,-706,5.6604,21.8195,-0.00350444,0.00119932,-0.00166803,0.00173078,-0.0040359,-1.26235,0.00341691,0.010948,1077,1730,5.66038,-21.8195
-140,-706,5.65942,21.9941,-0.00314846,0.00176086,-0.00164938,0.00226353,-0.00365113,-1.27497,0.00344601,0.010095,1084,1730,5.65945,-21.9942
-133,-706,5.65479,22.1587,-0.00267104,0.00204855,-0.00144063,0.00245355,-0.00307603,-1.29675,0.00319924,0.00815086,1091,1730,5.65483,-22.1587
-126,-706,5.6676,22.2963,-0.00201246,0.00234198,-0.00113593,0.00262049,-0.00229098,-1.33035,0.00283776,0.0123802,1098,1730,5.66764,-22.2963
-119,-706,5.6615,22.4637,-0.00139189,0.00253314,-0.000850551,0.00270953,-0.00156828,-1.36632,0.00249892,0.016964,1105,1730,5.66151,-22.4637
-112,-706,5.64136,22.6085,-0.000720422,0.00256214,-0.000570433,0.00265844,-0.000816725,-1.40355,0.00209821,0.0112468,1112,1730,5.6414,-22.6085
-105,-706,5.65002,22.7552,-0.000124778,0.00244399,-0.000348024,0.00249031,-0.000171094,-1.43849,0.00172008,0.00828972,1119,1730,5.64998,-22.7552
-98,-706,5.67383,22.864,0.00033301,0.00230969,-5.62919e-05,0.00231129,0.000331408,-1.54235,0.00144313,0.0108241,1126,1730,5.67377,-22.864
-91,-706,5.6875,22.9851,0.000758951,0.0021103,0.000203909,0.0021404,0.000728853,1.42425,0.00125654,0.0145715,1133,1730,5.68756,-22.9852
-84,-706,5.67224,23.0995,0.00111705,0.00196161,0.000412749,0.00212983,0.00094884,1.1838,0.00123209,0.0169478,1140,1730,5.67225,-23.0995
-77,-706,5.64539,23.2035,0.00145925,0.00185883,0.00042207,0.00212601,0.00119208,1.00645,0.00123047,0.0165228,1147,1730,5.64543,-23.2035
-70,-706,5.63733,23.3412,0.00176827,0.00165983,0.000284587,0.00200376,0.00142434,0.691269,0.00119066,0.0191968,1154,1730,5.63729,-23.3412
-63,-706,5.63538,23.4604,0.00208728,0.00146545,0.000188931,0.00214018,0.00141255,0.273019,0.00125655,0.0139663,1161,1730,5.63532,-23.4604
-56,-706,5.6792,23.5431,0.0024579,0.00121963,0.000184227,0.00248473,0.0011928,0.144606,0.00143494,0.0128113,1168,1730,5.67918,-23.5431
-49,-706,5.66638,23.6707,0.00267227,0.000863989,0.000321575,0.00272775,0.000808504,0.170858,0.00161781,0.0135152,1175,1730,5.66635,-23.6706
-42,-706,5.68457,23.7866,0.0032765,0.00164577,0.00100057,0.00375185,0.00117041,0.443518,0.00221661,0.0180796,1182,1730,5.68454,-23.7866
-35,-706,5.70239,23.8448,0.00431576,0.00340772,0.00180197,0.00572003,0.00200345,0.661989,0.00335147,0.0170581,1189,1730,5.70244,-23.8448
-28,-706,5.72217,23.9133,0.00472662,0.00461582,0.00226554,0.00693743,0.002405,0.773173,0.00406762,0.01079,1196,1730,5.72217,-23.9133
-21,-706,5.7384,23.989,0.00543479,0.00507183,0.00201564,0.00727711,0.00322951,0.740501,0.00421028,0.0105611,1203,1730,5.73837,-23.989
-14,-706,5.74609,24.047,0.00638257,0.00530912,0.00195779,0.00787587,0.00381581,0.65161,0.00454787,0.0104059,1210,1730,5.74605,-24.047
-7,-706,5.76306,24.1216,0.00688967,0.00588907,0.00215126,0.00859804,0.0041807,0.671149,0.00496471,0.00882213,1217,1730,5.76303,-24.1216
0,-706,5.7771,24.2013,0.00707899,0.00628125,0.00216078,0.0088774,0.00448284,0.694127,0.00512546,0.0122565,1224,1730,5.77707,-24.2014
7,-706,5.8031,24.2446,0.0071193,0.00599596,0.00218622,0.00881485,0.00430041,0.659662,0.00508976,0.0148356,1231,1730,5.80314,-24.2447
14,-706,5.81787,24.2788,0.00676739,0.00548568,0.00224443,0.00846066,0.00379241,0.646333,0.00489348,0.0147442,1238,1730,5.81786,-24.2788
21,-706,5.8219,24.3065,0.0063045,0.00480016,0.00209536,0.00777861,0.00332605,0.613078,0.00450665,0.0119291,1245,1730,5.82191,-24.3065
28,-706,5.83521,24.3522,0.00594048,0.00383855,0.00215509,0.00728721,0.00249182,0.558532,0.00427677,0.0122791,1252,1730,5.83524,-24.3521
35,-706,5.85144,24.4095,0.00533466,0.00278411,0.00218262,0.00658726,0.00153151,0.521005,0.00398046,0.0137047,1259,1730,5.85142,-24.4095
42,-706,5.8783,24.4462,0.0044855,0.00212676,0.00230825,0.00589822,0.000714034,0.549219,0.00371707,0.0116872,1266,1730,5.87834,-24.4461
49,-706,5.90222,24.4708,0.00362669,0.00128665,0.00244571,0.00516784,-0.000254499,0.56229,0.00353312,0.0139392,1273,1730,5.90225,-24.4708
56,-706,5.93323,24.4902,0.00251885,0.00237115,0.00232102,0.00476719,0.000122805,0.769494,0.003138,0.0131676,1280,1730,5.93322,-24.4903
63,-706,5.94702,24.4865,0.00126034,0.00451503,0.00185844,0.00535792,0.000417452,1.145,0.00344125,0.0116284,1287,1730,5.94706,-24.4865
70,-706,5.9447,24.48,-4.39888e-05,0.00583276,0.00162003,0.00624976,-0.00046099,1.31886,0.00432836,0.0125589,1294,1730,5.94465,-24.48
77,-706,5.9469,24.4801,-0.000371196,0.00720329,0.00158116,0.0075201,-0.000688008,1.37305,0.00525776,0.0115047,1301,1730,5.94687,-24.4802
84,-706,5.9624,24.4773,-0.000128923,0.00835933,0.00168081,0.00868004,-0.000449633,1.38226,0.00594224,0.0094566,1308,1730,5.96237,-24.4772
91,-706,6.01563,24.486,0.000486121,0.00907516,0.00166094,0.00938516,0.00017612,1.38628,0.0061989,0.0103752,1315,1730,6.01565,-24.486
98,-706,6.01941,24.4896,0.00164688,0.00877028,0.0014712,0.00906217,0.00135499,1.37494,0.00564426,0.0139278,1322,1730,6.01941,-24.4896
105,-706,6.02051,24.4772,0.00299015,0.00816586,0.00133539,0.00849009,0.00266592,1.33261,0.00501353,0.0159036,1329,1730,6.02056,-24.4771
112,-706,6.03503,24.4546,0.00444725,0.00703209,0.00127496,0.00755512,0.00392422,1.1815,0.00436305,0.0146981,1336,1730,6.03508,-24.4546
119,-706,6.06763,24.4276,0.00611695,0.00470473,0.00135206,0.00693618,0.0038855,0.544755,0.00401426,0.0124909,1343,1730,6.06757,-24.4276
126,-706,6.09583,24.3884,0.00759505,0.00163126,0.00184751,0.008121,0.00110531,0.277345,0.00508576,0.0139129,1350,1730,6.0958,-24.3884
133,-706,6.10706,24.3309,0.0086815,-0.00142467,0.00224622,0.00915827,-0.00190143,0.209146,0.00682815,0.0117537,1357,1730,6.10709,-24.3309
140,-706,6.13623,24.2676,0.00962585,-0.00401631,0.00268964,0.010137,-0.00452744,0.187797,0.00867053,0.0113974,1364,1730,6.13623,-24.2675
147,-706,6.19165,24.2091,0.0101593,-0.00595408,0.00293737,0.010678,-0.00647285,0.174806,0.0100008,0.0193693,1371,1730,6.1917,-24.2091
154,-706,6.2146,24.1727,0.01009,-0.00671224,0.00304077,0.0106234,-0.0072456,0.173639,0.0103779,0.0183099,1378,1730,6.21461,-24.1727
161,-706,6.15405,24.1348,0.00997097,-0.0080205,0.00318024,0.0105166,-0.0085661,0.169907,0.0110366,0.0101104,1385,1730,6.15411,-24.1348
168,-706,6.15039,24.0554,0.0094065,-0.00897083,0.00327554,0.00997287,-0.0095372,0.171216,0.0112651,0.0102742,1392,1730,6.15042,-24.0554
175,-706,6.18262,23.9746,0.00828814,-0.00763852,0.00282744,0.0087752,-0.00812558,0.170586,0.00976007,0.0100391,1399,1730,6.18267,-23.9746
182,-706,6.20166,23.8849,0.00646825,-0.00549036,0.00226345,0.00688233,-0.00590443,0.180939,0.00738963,0.0105846,1406,1730,6.20168,-23.8849
189,-706,6.19031,23.7991,0.00399887,-0.00319385,0.00201951,0.00452709,-0.00372207,0.255831,0.00477021,0.0136277,1413,1730,6.19025,-23.799
196,-706,6.19824,23.712,0.00170708,-0.00109886,0.0014382,0.00231327,-0.00170506,0.398899,0.00232883,0.0117563,1420,1730,6.19821,-23.712
203,-706,6.20764,23.6417,0.000892253,0.000128481,0.00063489,0.00125126,-0.000230526,0.514637,0.000920686,0.0123158,1427,1730,6.20761,-23.6417
210,-706,6.21033,23.5242,0.000636933,0.000242732,0.000504641,0.0009816,-0.000101934,0.59922,0.000690889,0.0116824,1434,1730,6.21034,-23.5242
217,-706,6.21216,23.4263,0.000318334,0.000342831,0.00036854,0.000699326,-3.8161e-05,0.80201,0.000479444,0.0130579,1441,1730,6.21221,-23.4263
224,-706,6.18909,23.3451,3.62278e-05,0.000641959,0.000429207,0.0008644,-0.000186213,1.09265,0.000647328,0.0187863,1448,1730,6.18911,-23.3451
231,-706,6.20776,23.207,-0.00026359,0.00101624,0.000468388,0.00116934,-0.000416694,1.25487,0.000949446,0.0136983,1455,1730,6.20781,-23.2071
238,-706,6.2135,23.0873,-0.000457619,0.00141915,0.000514189,0.00155079,-0.000589261,1.32016,0.00127645,0.00894131,1462,1730,6.2135,-23.0873
245,-706,6.2124,22.9639,-0.00057071,0.00183978,0.000533317,0.0019525,-0.000683435,1.3625,0.00157956,0.0112129,1469,1730,6.21245,-22.9639
252,-706,6.20959,22.8369,-0.000703567,0.00218574,0.000490022,0.00226658,-0.000784412,1.40729,0.00182947,0.0107491,1476,1730,6.20957,-22.8369
259,-706,6.22424,22.6984,-0.000804094,0.00249465,0.000471025,0.00256059,-0.000870033,1.43171,0.00205928,0.0120485,1483,1730,6.22425,-22.6984
266,-706,6.21484,22.587,-0.00084384,0.00275256,0.000385867,0.0027935,-0.000884775,1.46511,0.00221691,0.0122687,1490,1730,6.21486,-22.5871
273,-706,6.22327,22.4553,-0.000920787,0.00298864,0.000294099,0.00301064,-0.000942788,1.49613,0.00238432,0.0114861,1497,1730,6.22322,-22.4553
280,-706,6.2207,22.2935,-0.00110185,0.00298126,0.000244226,0.00299582,-0.0011164,1.51127,0.00245546,0.0095671,1504,1730,6.22072,-22.2935
287,-706,6.20898,22.1295,-0.00130165,0.00255414,0.00041661,0.00259864,-0.00134615,1.46438,0.00231548,0.0105274,1511,1730,6.209,-22.1295
294,-706,6.21033,21.9785,-0.00130768,0.00233537,0.000564148,0.00242074,-0.00139304,1.42063,0.00222837,0.0113191,1518,1730,6.21027,-21.9785
301,-706,6.2052,21.829,-0.0010371,0.00139164,0.00079386,0.0016281,-0.00127356,1.2813,0.00167944,0.0104524,1525,1730,6.20525,-21.829
308,-706,6.19507,21.6713,-0.000247701,-4.99306e-05,0.000454969,0.000316775,-0.000614407,0.892406,0.000546695,0.0113123,1532,1730,6.19508,-21.6713
315,-706,6.17358,21.5017,0.0014074,-0.000992051,-0.00144769,0.00208787,-0.00167252,-0.439394,0.00217548,0.0181312,1539,1730,6.17355,-21.5017
322,-706,6.15674,21.3522,0.00285275,-0.00277345,-0.00252992,0.00382304,-0.00374374,-0.366224,0.00436876,0.0223426,1546,1730,6.15676,-21.3521
329,-706,6.16809,21.1267,0.00497576,-0.0047766,-0.00413015,0.00648983,-0.00629067,-0.351377,0.00737913,0.0190681,1553,1730,6.1681,-21.1267
336,-706,6.1145,20.8649,0.00807414,-0.00711725,-0.00667216,0.0105885,-0.00963157,-0.36038,0.0116784,0.0249021,1560,1730,6.11446,-20.8648
343,-706,6.18579,20.7748,0.011621,-0.00973666,-0.00990128,0.0155049,-0.0136205,-0.373817,0.0168273,0.0339962,1567,1730,6.18583,-20.7748
350,-706,6.354,20.8903,0.0155323,-0.0128157,-0.0136988,0.0210703,-0.0183536,-0.384176,0.0227794,0.0387425,1574,1730,6.35403,-20.8903
357,-706,6.95801,20.9451,0.0199266,-0.015753,-0.0178221,0.0273036,-0.02313,-0.392451,0.0291511,0.0475082,1581,1730,6.95801,-20.945
364,-706,7.95508,20.671,0.0245085,-0.0187082,-0.0223392,0.03398,-0.0281798,-0.401013,0.0359401,0.0497271,1588,1730,7.95506,-20.671
371,-706,9.01746,20.1718,0,0,0,0,0,0,0,-1,1595,1730,9.01743,-20.1718
378,-706,6.01331,20.1378,0,0,0,0,0,0,0,-1,1602,1730,6.01329,-20.1379
385,-706,7.9209,18.6349,0,0,0,0,0,0,0,-1,1609,1730,7.92092,-18.6349
392,-706,5.05701,18.6085,0,0,0,0,0,0,0,-1,1616,1730,5.05699,-18.6085
399,-706,6.0332,16.6144,0,0,0,0,0,0,0,-1,1623,1730,6.03321,-16.6143
406,-706,6.04211,18.8085,0,0,0,0,0,0,0,-1,1630,1730,6.04216,-18.8085
413,-706,6.23413,20.7725,0,0,0,0,0,0,0,-1,1637,1730,6.23413,-20.7725
420,-706,6.51294,21.9171,0,0,0,0,0,0,0,-1,1644,1730,6.51292,-21.9171
427,-706,0,0,0,0,0,0,0,0,0,-1,1651,1730,0,0
434,-706,0,0,0,0,0,0,0,0,0,-1,1658,1730,0,0
441,-706,0,0,0,0,0,0,0,0,0,-1,1665,1730,0,0
448,-706,0,0,0,0,0,0,0,0,0,-1,1672,1730,0,0
455,-706,0,0,0,0,0,0,0,0,0,-1,1679,1730,0,0
462,-706,0,0,0,0,0,0,0,0,0,-1,1686,1730,0,0
469,-706,0,0,0,0,0,0,0,0,0,-1,1693,1730,0,0
476,-706,0,0,0,0,0,0,0,0,0,-1,1700,1730,0,0
483,-706,0,0,0,0,0,0,0,0,0,-1,1707,1730,0,0
490,-706,0,0,0,0,0,0,0,0,0,-1,1714,1730,0,0
497,-706,0,0,0,0,0,0,0,0,0,-1,1721,1730,0,0
504,-706,0,0,0,0,0,0,0,0,0,-1,1728,1730,0,0
511,-706,0,0,0,0,0,0,0,0,0,-1,1735,1730,0,0
518,-706,0,0,0,0,0,0,0,0,0,-1,1742,1730,0,0
525,-706,0,0,0,0,0,0,0,0,0,-1,1749,1730,0,0
532,-706,0,0,0,0,0,0,0,0,0,-1,1756,1730,0,0
539,-706,0,0,0,0,0,0,0,0,0,-1,1763,1730,0,0
546,-706,0,0,0,0,0,0,0,0,0,-1,1770,1730,0,0
553,-706,0,0,0,0,0,0,0,0,0,-1,1777,1730,0,0
560,-706,0,0,0,0,0,0,0,0,0,-1,1784,1730,0,0
567,-706,0,0,0,0,0,0,0,0,0,-1,1791,1730,0,0
574,-706,0,0,0,0,0,0,0,0,0,-1,1798,1730,0,0
581,-706,0,0,0,0,0,0,0,0,0,-1,1805,1730,0,0
588,-706,0,0,0,0,0,0,0,0,0,-1,1812,1730,0,0
595,-706,0,0,0,0,0,0,0,0,0,-1,1819,1730,0,0
602,-706,0,0,0,0,0,0,0,0,0,-1,1826,1730,0,0
609,-706,0,0,0,0,0,0,0,0,0,-1,1833,1730,0,0
616,-706,0,0,0,0,0,0,0,0,0,-1,1840,1730,0,0
623,-706,0,0,0,0,0,0,0,0,0,-1,1847,1730,0,0
630,-706,0,0,0,0,0,0,0,0,0,-1,1854,1730,0,0
637,-706,0,0,0,0,0,0,0,0,0,-1,1861,1730,0,0
644,-706,0,0,0,0,0,0,0,0,0,-1,1868,1730,0,0
651,-706,0,0,0,0,0,0,0,0,0,-1,1875,1730,0,0
658,-706,0,0,0,0,0,0,0,0,0,-1,1882,1730,0,0
665,-706,0,0,0,0,0,0,0,0,0,-1,1889,1730,0,0
672,-706,0,0,0,0,0,0,0,0,0,-1,1896,1730,0,0
679,-706,0,0,0,0,0,0,0,0,0,-1,1903,1730,0,0
686,-706,0,0,0,0,0,0,0,0,0,-1,1910,1730,0,0
693,-706,0,0,0,0,0,0,0,0,0,-1,1917,1730,0,0
700,-706,0,0,0,0,0,0,0,0,0,-1,1924,1730,0,0
707,-706,0,0,0,0,0,0,0,0,0,-1,1931,1730,0,0
714,-706,0,0,0,0,0,0,0,0,0,-1,1938,1730,0,0
721,-706,0,0,0,0,0,0,0,0,0,-1,1945,1730,0,0
728,-706,0,0,0,0,0,0,0,0,0,-1,1952,1730,0,0
735,-706,0,0,0,0,0,0,0,0,0,-1,1959,1730,0,0
742,-706,0,0,0,0,0,0,0,0,0,-1,1966,1730,0,0
749,-706,0,0,0,0,0,0,0,0,0,-1,1973,1730,0,0
756,-706,0,0,0,0,0,0,0,0,0,-1,1980,1730,0,0
763,-706,0,0,0,0,0,0,0,0,0,-1,1987,1730,0,0
770,-706,0,0,0,0,0,0,0,0,0,-1,1994,1730,0,0
777,-706,0,0,0,0,0,0,0,0,0,-1,2001,1730,0,0
784,-706,0,0,0,0,0,0,0,0,0,-1,2008,1730,0,0
791,-706,0,0,0,0,0,0,0,0,0,-1,2015,1730,0,0
798,-706,0,0,0,0,0,0,0,0,0,-1,2022,1730,0,0
805,-706,0,0,0,0,0,0,0,0,0,-1,2029,1730,0,0
812,-706,0,0,0,0,0,0,0,0,0,-1,2036,1730,0,0
-700,-713,0,0,0,0,0,0,0,0,0,-1,524,1737,0,0
-693,-713,0,0,0,0,0,0,0,0,0,-1,531,1737,0,0
-686,-713,0,0,0,0,0,0,0,0,0,-1,538,1737,0,0
-679,-713,0,0,0,0,0,0,0,0,0,-1,545,1737,0,0
-672,-713,0,0,0,0,0,0,0,0,0,-1,552,1737,0,0
-665,-713,0,0,0,0,0,0,0,0,0,-1,559,1737,0,0
-658,-713,0,0,0,0,0,0,0,0,0,-1,566,1737,0,0
-651,-713,0,0,0,0,0,0,0,0,0,-1,573,1737,0,0
-644,-713,0,0,0,0,0,0,0,0,0,-1,580,1737,0,0
-637,-713,0,0,0,0,0,0,0,0,0,-1,587,1737,0,0
-630,-713,0,0,0,0,0,0,0,0,0,-1,594,1737,0,0
-623,-713,0,0,0,0,0,0,0,0,0,-1,601,1737,0,0
-616,-713,0,0,0,0,0,0,0,0,0,-1,608,1737,0,0
-609,-713,0,0,0,0,0,0,0,0,0,-1,615,1737,0,0
-602,-713,0,0,0,0,0,0,0,0,0,-1,622,1737,0,0
-595,-713,0,0,0,0,0,0,0,0,0,-1,629,1737,0,0
-588,-713,0,0,0,0,0,0,0,0,0,-1,636,1737,0,0
-581,-713,0,0,0,0,0,0,0,0,0,-1,643,1737,0,0
-574,-713,0,0,0,0,0,0,0,0,0,-1,650,1737,0,0
-567,-713,0,0,0,0,0,0,0,0,0,-1,657,1737,0,0
-560,-713,0,0,0,0,0,0,0,0,0,-1,664,1737,0,0
-553,-713,0,0,0,0,0,0,0,0,0,-1,671,1737,0,0
-546,-713,0,0,0,0,0,0,0,0,0,-1,678,1737,0,0
-539,-713,0,0,0,0,0,0,0,0,0,-1,685,1737,0,0
-532,-713,0,0,0,0,0,0,0,0,0,-1,692,1737,0,0
-525,-713,0,0,0,0,0,0,0,0,0,-1,699,1737,0,0
-518,-713,0,0,0,0,0,0,0,0,0,-1,706,1737,0,0
-511,-713,0,0,0,0,0,0,0,0,0,-1,713,1737,0,0
-504,-713,0,0,0,0,0,0,0,0,0,-1,720,1737,0,0
-497,-713,0,0,0,0,0,0,0,0,0,-1,727,1737,0,0
-490,-713,0,0,0,0,0,0,0,0,0,-1,734,1737,0,0
-483,-713,0,0,0,0,0,0,0,0,0,-1,741,1737,0,0
-476,-713,0,0,0,0,0,0,0,0,0,-1,748,1737,0,0
-469,-713,0,0,0,0,0,0,0,0,0,-1,755,1737,0,0
-462,-713,0,0,0,0,0,0,0,0,0,-1,762,1737,0,0
-455,-713,0,0,0,0,0,0,0,0,0,-1,769,1737,0,0
-448,-713,0,0,0,0,0,0,0,0,0,-1,776,1737,0,0
-441,-713,0,0,0,0,0,0,0,0,0,-1,783,1737,0,0
-434,-713,0,0,0,0,0,0,0,0,0,-1,790,1737,0,0
-427,-713,0,0,0,0,0,0,0,0,0,-1,797,1737,0,0
-420,-713,0,0,0,0,0,0,0,0,0,-1,804,1737,0,0
-413,-713,0,0,0,0,0,0,0,0,0,-1,811,1737,0,0
-406,-713,0,0,0,0,0,0,0,0,0,-1,818,1737,0,0
-399,-713,0,0,0,0,0,0,0,0,0,-1,825,1737,0,0
-392,-713,0,0,0,0,0,0,0,0,0,-1,832,1737,0,0
-385,-713,0,0,0,0,0,0,0,0,0,-1,839,1737,0,0
-378,-713,0,0,0,0,0,0,0,0,0,-1,846,1737,0,0
-371,-713,0,0,0,0,0,0,0,0,0,-1,853,1737,0,0
-364,-713,0,0,0,0,0,0,0,0,0,-1,860,1737,0,0
-357,-713,0,0,0,0,0,0,0,0,0,-1,867,1737,0,0
-350,-713,0,0,0,0,0,0,0,0,0,-1,874,1737,0,0
-343,-713,0,0,0,0,0,0,0,0,0,-1,881,1737,0,0
-336,-713,0,0,0,0,0,0,0,0,0,-1,888,1737,0,0
-329,-713,0,0,0,0,0,0,0,0,0,-1,895,1737,0,0
-322,-713,0,0,0,0,0,0,0,0,0,-1,902,1737,0,0
-315,-713,0,0,0,0,0,0,0,0,0,-1,909,1737,0,0
-308,-713,0,0,0,0,0,0,0,0,0,-1,916,1737,0,0
-301,-713,0,0,0,0,0,0,0,0,0,-1,923,1737,0,0
-294,-713,7.17883,22.0453,0,0,0,0,0,0,0,-1,930,1737,7.17881,-22.0453
-287,-713,6.85907,21.8297,0,0,0,0,0,0,0,-1,937,1737,6.85906,-21.8298
-280,-713,6.17188,21.8059,0,0,0,0,0,0,0,-1,944,1737,6.17188,-21.8059
-273,-713,5.64795,22.0507,0,0,0,0,0,0,0,-1,951,1737,5.64795,-22.0506
-266,-713,3.17981,19.8851,0,0,0,0,0,0,0,-1,958,1737,3.17983,-19.8851
-259,-713,3.5921,19.6868,0,0,0,0,0,0,0,-1,965,1737,3.59207,-19.6868
-252,-713,4.55469,20.5758,0,0,0,0,0,0,0,-1,972,1737,4.55466,-20.5758
-245,-713,4.66559,19.8096,0,0,0,0,0,0,0,-1,979,1737,4.6656,-19.8095
-238,-713,5.11237,18.7231,0,0,0,0,0,0,0,-1,986,1737,5.11238,-18.7231
-231,-713,4.5401,19.8499,0,0,0,0,0,0,0,-1,993,1737,4.54011,-19.8499
-224,-713,4.81128,19.0717,0,0,0,0,0,0,0,-1,1000,1737,4.81127,-19.0717
-217,-713,5.08246,18.2935,0,0,0,0,0,0,0,-1,1007,1737,5.08243,-18.2935
-210,-713,5.87396,19.8933,0,0,0,0,0,0,0,-1,1014,1737,5.87399,-19.8933
-203,-713,5.78516,20.3856,-7.93276e-06,0.00511826,0.00805378,0.011007,-0.00589663,0.939454,0.00990684,0.0414148,1021,1737,5.7851,-20.3856
-196,-713,5.70935,20.6752,-0.00107519,0.00330014,0.00578379,0.00729617,-0.00507123,0.966202,0.00717873,0.0400572,1028,1737,5.70932,-20.6751
-189,-713,5.95496,20.6993,-0.00236368,0.00149856,0.00311219,0.00323009,-0.0040952,1.06308,0.00423908,0.040092,1035,1737,5.95498,-20.6993
-182,-713,5.90857,20.9225,-0.00372489,0.000816543,0.0009951,0.00102502,-0.00393336,1.36428,0.00302242,0.0276252,1042,1737,5.90858,-20.9225
-175,-713,5.9093,21.0758,-0.00500203,9.75648e-06,-0.000265514,2.37837e-05,-0.00501605,-1.51802,0.00335199,0.0250828,1049,1737,5.90933,-21.0758
-168,-713,6.00647,21.2102,-0.00554493,-0.000208928,-0.00135112,0.00011368,-0.00586754,-1.33641,0.00395013,0.0279846,1056,1737,6.00649,-21.2102
-161,-713,5.88953,21.4694,-0.0058884,0.00011863,-0.00208729,0.000772692,-0.00654246,-1.26713,0.0046407,0.0152305,1063,1737,5.88955,-21.4694
-154,-713,5.82239,21.6672,-0.00593551,0.000892228,-0.00244609,0.0016781,-0.00672139,-1.25993,0.00513257,0.0119903,1070,1737,5.82238,-21.6673
-147,-713,5.80688,21.853,-0.00562546,0.00165881,-0.00264747,0.00251937,-0.00648602,-1.25652,0.00536476,0.0178055,1077,1737,5.80691,-21.853
-140,-713,5.82471,22.0232,-0.0052286,0.00235476,-0.00261967,0.00317171,-0.00604555,-1.2685,0.00540712,0.0169492,1084,1737,5.82473,-22.0231
-133,-713,5.81433,22.1525,-0.00467539,0.00272489,-0.0023649,0.00341608,-0.00536658,-1.28645,0.00511218,0.0108869,1091,1737,5.81439,-22.1525
-126,-713,5.81458,22.2915,-0.00389959,0.00307044,-0.00200558,0.00360633,-0.00443548,-1.3097,0.00465116,0.016745,1098,1737,5.81462,-22.2914
-119,-713,5.81201,22.4089,-0.00315091,0.00330788,-0.00165997,0.00370953,-0.00355256,-1.3334,0.0041931,0.0237451,1105,1737,5.81201,-22.409
-112,-713,5.78601,22.6406,-0.00232643,0.00336164,-0.00132053,0.00365326,-0.00261805,-1.35345,0.00363715,0.0121924,1112,1737,5.78604,-22.6406
-105,-713,5.78564,22.7552,-0.00159156,0.00323287,-0.00105241,0.00345245,-0.00181114,-1.3651,0.00308779,0.010361,1119,1737,5.78564,-22.7553
-98,-713,5.80103,22.8676,-0.00102509,0.00307173,-0.000699091,0.00318774,-0.0011411,-1.40635,0.00259069,0.0103308,1126,1737,5.80106,-22.8676
-91,-713,5.78687,22.9861,-0.000482782,0.0027624,-0.000382044,0.00280677,-0.000527152,-1.45518,0.0020694,0.00973098,1133,1737,5.78685,-22.9861
-84,-713,5.76379,23.1067,-1.34616e-05,0.00258092,-2.34698e-05,0.00258113,-1.36739e-05,-1.56175,0.00172533,0.00924501,1140,1737,5.76385,-23.1067
-77,-713,5.76514,23.2455,0.000454225,0.00230339,0.000159397,0.00231703,0.000440585,1.48544,0.00142078,0.0124041,1147,1737,5.76515,-23.2454
-70,-713,5.75317,23.3622,0.000866536,0.00199855,9.74127e-05,0.00200687,0.000858214,1.48558,0.00116271,0.0147721,1154,1737,5.75322,-23.3622
-63,-713,5.76318,23.4547,0.00103718,0.00168434,2.4843e-05,0.00168529,0.00103622,1.53248,0.000981526,0.0132741,1161,1737,5.76323,-23.4547
-56,-713,5.79224,23.5553,0.00125117,0.00133045,9.31783e-05,0.00139207,0.00118955,0.986502,0.000868445,0.0125149,1168,1737,5.79219,-23.5553
-49,-713,5.75842,23.6611,0.00138792,0.000909191,0.000232384,0.00148217,0.000814943,0.3853,0.000857148,0.0157017,1175,1737,5.7584,-23.6612
-42,-713,5.77173,23.7585,0.00168791,0.000937198,0.000428898,0.00188251,0.000742603,0.425935,0.00109491,0.0180891,1182,1737,5.77179,-23.7586
-35,-713,5.80298,23.8221,0.00225915,0.0014857,0.000713648,0.00268412,0.00106073,0.537098,0.00156099,0.0137109,1189,1737,5.80293,-23.8222
-28,-713,5.81445,23.9131,0.00257135,0.00197952,0.000943487,0.00326424,0.00128663,0.633435,0.00189863,0.0126821,1196,1737,5.8144,-23.913
-21,-713,5.80615,24.0084,0.00285395,0.00220619,0.000905524,0.00349178,0.00156837,0.613652,0.00201945,0.0098774,1203,1737,5.80619,-24.0084
-14,-713,5.80457,24.0553,0.00326877,0.00233068,0.00097341,0.00388025,0.0017192,0.560884,0.0022451,0.0111559,1210,1737,5.80461,-24.0553
-7,-713,5.82715,24.127,0.00351642,0.00268482,0.0011807,0.00435239,0.00184885,0.616097,0.00252231,0.0100028,1217,1737,5.8271,-24.127
0,-713,5.83643,24.2084,0.00358528,0.00302924,0.00130017,0.00463682,0.0019777,0.680067,0.00268669,0.0147555,1224,1737,5.83637,-24.2083
7,-713,5.84863,24.2438,0.00356088,0.00293002,0.00143432,0.00471405,0.00177685,0.677164,0.002749,0.0180388,1231,1737,5.84859,-24.2438
14,-713,5.87732,24.2772,0.00327142,0.0027109,0.00159447,0.00461007,0.00137225,0.698403,0.0027333,0.0125882,1238,1737,5.87726,-24.2772
21,-713,5.87866,24.3298,0.00294627,0.00238946,0.00158491,0.00427704,0.00105869,0.698456,0.00257215,0.0107321,1245,1737,5.87864,-24.3299
28,-713,5.8783,24.3816,0.00273634,0.00188513,0.0016983,0.00406156,0.000559916,0.662624,0.00254171,0.0118401,1252,1737,5.87828,-24.3816
35,-713,5.87598,24.4213,0.00238719,0.00132416,0.00173173,0.00366714,4.42154e-05,0.636497,0.00243015,0.0108811,1259,1737,5.876,-24.4212
42,-713,5.88953,24.4489,0.00191977,0.00105437,0.0018005,0.00333884,-0.0003647,0.667473,0.00235688,0.0107148,1266,1737,5.88947,-24.4488
49,-713,5.91248,24.45,0.00146081,0.000633038,0.00185745,0.00294992,-0.000856075,0.675776,0.00230558,0.0111586,1273,1737,5.91248,-24.45
56,-713,5.93567,24.4614,0.000982858,0.00123481,0.00183282,0.00294598,-0.000728307,0.819712,0.00224646,0.0109449,1280,1737,5.93569,-24.4614
63,-713,5.93042,24.4854,0.000456162,0.00266059,0.00166937,0.0035588,-0.000442042,1.07717,0.00253277,0.0113421,1287,1737,5.93036,-24.4853
70,-713,5.93335,24.495,-0.000142189,0.00350899,0.00160977,0.00411736,-0.000750551,1.20947,0.00302627,0.011497,1294,1737,5.93334,-24.495
77,-713,5.94739,24.4972,-0.00036059,0.0044294,0.00164926,0.00494234,-0.000873523,1.26927,0.00362136,0.0120695,1301,1737,5.94741,-24.4971
84,-713,5.98059,24.5057,-0.000207767,0.00522627,0.00174321,0.00573741,-0.000718901,1.28558,0.00408571,0.0124467,1308,1737,5.98061,-24.5057
91,-713,6.00427,24.5023,9.91393e-05,0.00577207,0.0018037,0.00629698,-0.000425776,1.2876,0.00434687,0.0125579,1315,1737,6.00429,-24.5023
98,-713,5.99951,24.4899,0.000688509,0.00560174,0.0017973,0.00618901,0.000101239,1.25498,0.00409268,0.0120958,1322,1737,5.9995,-24.4899
105,-713,6.00549,24.4733,0.0013365,0.00522016,0.00179582,0.00592326,0.000633394,1.19762,0.00375556,0.0132825,1329,1737,6.00544,-24.4732
112,-713,6.01831,24.4548,0.00203849,0.00452763,0.00181887,0.00548697,0.00107914,1.08544,0.0033566,0.0132146,1336,1737,6.01826,-24.4548
119,-713,6.03162,24.4169,0.00288488,0.00302871,0.00186697,0.00482515,0.00108844,0.804647,0.00292232,0.0141988,1343,1737,6.03162,-24.4169
126,-713,6.04248,24.3838,0.00361178,0.00103964,0.00215253,0.00483317,-0.000181749,0.516119,0.00328437,0.0132507,1350,1737,6.04246,-24.3838
133,-713,6.04797,24.3419,0.00407882,-0.000912586,0.00231396,0.00498649,-0.00182026,0.373815,0.00406913,0.0114361,1357,1737,6.04799,-24.3419
140,-713,6.06433,24.2758,0.00449728,-0.0025169,0.00248058,0.00528588,-0.0033055,0.307805,0.00500397,0.0130411,1364,1737,6.06429,-24.2758
147,-713,6.09546,24.2047,0.00470372,-0.00368984,0.00249306,0.00538837,-0.00437449,0.268013,0.00564671,0.0137424,1371,1737,6.09546,-24.2047
154,-713,6.09094,24.1927,0.00457122,-0.00401345,0.00237273,0.00518338,-0.0046256,0.252489,0.00566627,0.0130226,1378,1737,6.09092,-24.1928
161,-713,6.08655,24.1329,0.00429032,-0.00442459,0.00219695,0.00481282,-0.0049471,0.233494,0.00563507,0.0102018,1385,1737,6.08654,-24.133
168,-713,6.073,24.0458,0.00378463,-0.00462508,0.00198968,0.00423162,-0.00507207,0.220984,0.00537879,0.00995931,1392,1737,6.07306,-24.0458
175,-713,6.09766,23.9567,0.0031695,-0.00359441,0.00161079,0.00353351,-0.00395842,0.22225,0.00432779,0.0122548,1399,1737,6.09763,-23.9567
182,-713,6.1051,23.8944,0.00238378,-0.00229338,0.00122252,0.00268405,-0.00259365,0.240846,0.00304723,0.0110563,1406,1737,6.1051,-23.8944
189,-713,6.0979,23.7926,0.00130496,-0.000998139,0.00102858,0.00169745,-0.00139062,0.364526,0.00178583,0.0107814,1413,1737,6.09787,-23.7926
196,-713,6.11841,23.729,0.000272659,0.000277837,0.00070416,0.000979413,-0.000428917,0.787237,0.000833548,0.0114508,1420,1737,6.11838,-23.729
203,-713,6.13147,23.6664,-0.000362057,0.00129153,0.000402631,0.00138436,-0.000454883,1.34421,0.00110616,0.0154589,1427,1737,6.13152,-23.6664
210,-713,6.11316,23.526,-0.000698721,0.00174438,0.000401416,0.00180864,-0.000762986,1.41205,0.00152509,0.0136394,1434,1737,6.1132,-23.5261
217,-713,6.11304,23.4232,-0.00108365,0.00216233,0.000398404,0.00221051,-0.00113183,1.45044,0.00196292,0.0114553,1441,1737,6.11309,-23.4233
224,-713,6.09143,23.3273,-0.00143843,0.00265204,0.000508459,0.0027143,-0.00150069,1.44896,0.00246692,0.012077,1448,1737,6.09138,-23.3273
231,-713,6.09534,23.2059,-0.00179659,0.0031739,0.000619145,0.00324986,-0.00187255,1.44872,0.00299285,0.0109894,1455,1737,6.09535,-23.2059
238,-713,6.1051,23.0786,-0.00199204,0.00366889,0.000717767,0.00375848,-0.00208163,1.44662,0.0034178,0.00848268,1462,1737,6.10508,-23.0786
245,-713,6.1001,22.9709,-0.00203308,0.00414947,0.000750433,0.00423926,-0.00212287,1.45172,0.00374031,0.0104755,1469,1737,6.10012,-22.9709
252,-713,6.08826,22.8428,-0.0020924,0.00449239,0.000687475,0.0045634,-0.00216341,1.46787,0.00396527,0.0103893,1476,1737,6.08823,-22.8428
259,-713,6.11279,22.6925,-0.00211667,0.00475608,0.000656573,0.00481824,-0.00217883,1.4764,0.00413446,0.0107585,1483,1737,6.11281,-22.6925
266,-713,6.10657,22.5869,-0.0020443,0.00495162,0.00054348,0.00499359,-0.00208627,1.49373,0.00420087,0.00979391,1490,1737,6.10652,-22.5869
273,-713,6.07556,22.4653,-0.00200933,0.00512081,0.000436308,0.00514741,-0.00203593,1.50991,0.00427502,0.00875096,1497,1737,6.07555,-22.4653
280,-713,6.06628,22.3088,-0.00210885,0.00497216,0.000393476,0.00499396,-0.00213064,1.51546,0.00422267,0.00983801,1504,1737,6.0663,-22.3088
287,-713,6.05005,22.1581,-0.00219098,0.00423439,0.00062765,0.00429513,-0.00225172,1.47433,0.00384071,0.0109762,1511,1737,6.05001,-22.158
294,-713,6.07397,22.0189,-0.00201856,0.00382598,0.000834091,0.00394269,-0.00213526,1.43178,0.00356045,0.0187863,1518,1737,6.07392,-22.019
301,-713,6.08826,21.8489,-0.00153323,0.00240288,0.00118494,0.00273206,-0.00186241,1.29982,0.00266841,0.0208051,1525,1737,6.08828,-21.8489
308,-713,6.05164,21.6733,-0.000483144,0.00042326,0.000781451,0.000873417,-0.000933301,1.04817,0.0010433,0.0192957,1532,1737,6.05161,-21.6734
315,-713,5.9873,21.4985,0.00163678,-0.000803619,-0.00147744,0.00233275,-0.00149959,-0.440234,0.00222996,0.0246512,1539,1737,5.98732,-21.4986
322,-713,5.90796,21.2434,0.00359621,-0.00306821,-0.00278567,0.00460722,-0.00407923,-0.34815,0.00501821,0.0366209,1546,1737,5.908,-21.2434
329,-713,5.91504,21.2153,0.00650474,-0.00563556,-0.00480114,0.00817395,-0.00730477,-0.334597,0.00894134,0.0392812,1553,1737,5.91506,-21.2153
336,-713,5.68347,21.264,0.0107729,-0.00874468,-0.00813834,0.013721,-0.0116928,-0.347551,0.0146883,0.038514,1560,1737,5.68353,-21.264
343,-713,5.4032,21.0948,0,0,0,0,0,0,0,-1,1567,1737,5.40315,-21.0949
350,-713,6.01746,20.9893,0,0,0,0,0,0,0,-1,1574,1737,6.01749,-20.9893
357,-713,6.69861,20.9648,0,0,0,0,0,0,0,-1,1581,1737,6.69863,-20.9649
364,-713,7.66113,20.1982,0,0,0,0,0,0,0,-1,1588,1737,7.6611,-20.1983
371,-713,8.31555,17.5513,0,0,0,0,0,0,0,-1,1595,1737,8.31561,-17.5513
378,-713,7.02185,18.535,0,0,0,0,0,0,0,-1,1602,1737,7.02188,-18.5351
385,-713,7.81396,18.6816,0,0,0,0,0,0,0,-1,1609,1737,7.81397,-18.6817
392,-713,3.28784,13.7118,0,0,0,0,0,0,0,-1,1616,1737,3.28781,-13.7118
399,-713,2.84045,14.7314,0,0,0,0,0,0,0,-1,1623,1737,2.84046,-14.7315
406,-713,2.97656,16.4902,0,0,0,0,0,0,0,-1,1630,1737,2.97656,-16.4902
413,-713,3.24731,18.2787,0,0,0,0,0,0,0,-1,1637,1737,3.24726,-18.2787
420,-713,0,0,0,0,0,0,0,0,0,-1,1644,1737,0,0
427,-713,0,0,0,0,0,0,0,0,0,-1,1651,1737,0,0
434,-713,0,0,0,0,0,0,0,0,0,-1,1658,1737,0,0
441,-713,0,0,0,0,0,0,0,0,0,-1,1665,1737,0,0
448,-713,0,0,0,0,0,0,0,0,0,-1,1672,1737,0,0
455,-713,0,0,0,0,0,0,0,0,0,-1,1679,1737,0,0
462,-713,0,0,0,0,0,0,0,0,0,-1,1686,1737,0,0
469,-713,0,0,0,0,0,0,0,0,0,-1,1693,1737,0,0
476,-713,0,0,0,0,0,0,0,0,0,-1,1700,1737,0,0
483,-713,0,0,0,0,0,0,0,0,0,-1,1707,1737,0,0
490,-713,0,0,0,0,0,0,0,0,0,-1,1714,1737,0,0
497,-713,0,0,0,0,0,0,0,0,0,-1,1721,1737,0,0
504,-713,0,0,0,0,0,0,0,0,0,-1,1728,1737,0,0
511,-713,0,0,0,0,0,0,0,0,0,-1,1735,1737,0,0
518,-713,0,0,0,0,0,0,0,0,0,-1,1742,1737,0,0
525,-713,0,0,0,0,0,0,0,0,0,-1,1749,1737,0,0
532,-713,0,0,0,0,0,0,0,0,0,-1,1756,1737,0,0
539,-713,0,0,0,0,0,0,0,0,0,-1,1763,1737,0,0
546,-713,0,0,0,0,0,0,0,0,0,-1,1770,1737,0,0
553,-713,0,0,0,0,0,0,0,0,0,-1,1777,1737,0,0
560,-713,0,0,0,0,0,0,0,0,0,-1,1784,1737,0,0
567,-713,0,0,0,0,0,0,0,0,0,-1,1791,1737,0,0
574,-713,0,0,0,0,0,0,0,0,0,-1,1798,1737,0,0
581,-713,0,0,0,0,0,0,0,0,0,-1,1805,1737,0,0
588,-713,0,0,0,0,0,0,0,0,0,-1,1812,1737,0,0
595,-713,0,0,0,0,0,0,0,0,0,-1,1819,1737,0,0
602,-713,0,0,0,0,0,0,0,0,0,-1,1826,1737,0,0
609,-713,0,0,0,0,0,0,0,0,0,-1,1833,1737,0,0
616,-713,0,0,0,0,0,0,0,0,0,-1,1840,1737,0,0
623,-713,0,0,0,0,0,0,0,0,0,-1,1847,1737,0,0
630,-713,0,0,0,0,0,0,0,0,0,-1,1854,1737,0,0
637,-713,0,0,0,0,0,0,0,0,0,-1,1861,1737,0,0
644,-713,0,0,0,0,0,0,0,0,0,-1,1868,1737,0,0
651,-713,0,0,0,0,0,0,0,0,0,-1,1875,1737,0,0
658,-713,0,0,0,0,0,0,0,0,0,-1,1882,1737,0,0
665,-713,0,0,0,0,0,0,0,0,0,-1,1889,1737,0,0
672,-713,0,0,0,0,0,0,0,0,0,-1,1896,1737,0,0
679,-713,0,0,0,0,0,0,0,0,0,-1,1903,1737,0,0
686,-713,0,0,0,0,0,0,0,0,0,-1,1910,1737,0,0
693,-713,0,0,0,0,0,0,0,0,0,-1,1917,1737,0,0
700,-713,0,0,0,0,0,0,0,0,0,-1,1924,1737,0,0
707,-713,0,0,0,0,0,0,0,0,0,-1,1931,1737,0,0
714,-713,0,0,0,0,0,0,0,0,0,-1,1938,1737,0,0
721,-713,0,0,0,0,0,0,0,0,0,-1,1945,1737,0,0
728,-713,0,0,0,0,0,0,0,0,0,-1,1952,1737,0,0
735,-713,0,0,0,0,0,0,0,0,0,-1,1959,1737,0,0
742,-713,0,0,0,0,0,0,0,0,0,-1,1966,1737,0,0
749,-713,0,0,0,0,0,0,0,0,0,-1,1973,1737,0,0
756,-713,0,0,0,0,0,0,0,0,0,-1,1980,1737,0,0
763,-713,0,0,0,0,0,0,0,0,0,-1,1987,1737,0,0
770,-713,0,0,0,0,0,0,0,0,0,-1,1994,1737,0,0
777,-713,0,0,0,0,0,0,0,0,0,-1,2001,1737,0,0
784,-713,0,0,0,0,0,0,0,0,0,-1,2008,1737,0,0
791,-713,0,0,0,0,0,0,0,0,0,-1,2015,1737,0,0
798,-713,0,0,0,0,0,0,0,0,0,-1,2022,1737,0,0
805,-713,0,0,0,0,0,0,0,0,0,-1,2029,1737,0,0
812,-713,0,0,0,0,0,0,0,0,0,-1,2036,1737,0,0
-700,-720,0,0,0,0,0,0,0,0,0,-1,524,1744,0,0
-693,-720,0,0,0,0,0,0,0,0,0,-1,531,1744,0,0
-686,-720,0,0,0,0,0,0,0,0,0,-1,538,1744,0,0
-679,-720,0,0,0,0,0,0,0,0,0,-1,545,1744,0,0
-672,-720,0,0,0,0,0,0,0,0,0,-1,552,1744,0,0
-665,-720,0,0,0,0,0,0,0,0,0,-1,559,1744,0,0
-658,-720,0,0,0,0,0,0,0,0,0,-1,566,1744,0,0
-651,-720,0,0,0,0,0,0,0,0,0,-1,573,1744,0,0
-644,-720,0,0,0,0,0,0,0,0,0,-1,580,1744,0,0
-637,-720,0,0,0,0,0,0,0,0,0,-1,587,1744,0,0
-630,-720,0,0,0,0,0,0,0,0,0,-1,594,1744,0,0
-623,-720,0,0,0,0,0,0,0,0,0,-1,601,1744,0,0
-616,-720,0,0,0,0,0,0,0,0,0,-1,608,1744,0,0
-609,-720,0,0,0,0,0,0,0,0,0,-1,615,1744,0,0
-602,-720,0,0,0,0,0,0,0,0,0,-1,622,1744,0,0
-595,-720,0,0,0,0,0,0,0,0,0,-1,629,1744,0,0
-588,-720,0,0,0,0,0,0,0,0,0,-1,636,1744,0,0
-581,-720,0,0,0,0,0,0,0,0,0,-1,643,1744,0,0
-574,-720,0,0,0,0,0,0,0,0,0,-1,650,1744,0,0
-567,-720,0,0,0,0,0,0,0,0,0,-1,657,1744,0,0
-560,-720,0,0,0,0,0,0,0,0,0,-1,664,1744,0,0
-553,-720,0,0,0,0,0,0,0,0,0,-1,671,1744,0,0
-546,-720,0,0,0,0,0,0,0,0,0,-1,678,1744,0,0
-539,-720,0,0,0,0,0,0,0,0,0,-1,685,1744,0,0
-532,-720,0,0,0,0,0,0,0,0,0,-1,692,1744,0,0
-525,-720,0,0,0,0,0,0,0,0,0,-1,699,1744,0,0
-518,-720,0,0,0,0,0,0,0,0,0,-1,706,1744,0,0
-511,-720,0,0,0,0,0,0,0,0,0,-1,713,1744,0,0
-504,-720,0,0,0,0,0,0,0,0,0,-1,720,1744,0,0
-497,-720,0,0,0,0,0,0,0,0,0,-1,727,1744,0,0
-490,-720,0,0,0,0,0,0,0,0,0,-1,734,1744,0,0
-483,-720,0,0,0,0,0,0,0,0,0,-1,741,1744,0,0
-476,-720,0,0,0,0,0,0,0,0,0,-1,748,1744,0,0
-469,-720,0,0,0,0,0,0,0,0,0,-1,755,1744,0,0
-462,-720,0,0,0,0,0,0,0,0,0,-1,762,1744,0,0
-455,-720,0,0,0,0,0,0,0,0,0,-1,769,1744,0,0
-448,-720,0,0,0,0,0,0,0,0,0,-1,776,1744,0,0
-441,-720,0,0,0,0,0,0,0,0,0,-1,783,1744,0,0
-434,-720,0,0,0,0,0,0,0,0,0,-1,790,1744,0,0
-427,-720,0,0,0,0,0,0,0,0,0,-1,797,1744,0,0
-420,-720,0,0,0,0,0,0,0,0,0,-1,804,1744,0,0
-413,-720,0,0,0,0,0,0,0,0,0,-1,811,1744,0,0
-406,-720,0,0,0,0,0,0,0,0,0,-1,818,1744,0,0
-399,-720,0,0,0,0,0,0,0,0,0,-1,825,1744,0,0
-392,-720,0,0,0,0,0,0,0,0,0,-1,832,1744,0,0
-385,-720,0,0,0,0,0,0,0,0,0,-1,839,1744,0,0
-378,-720,0,0,0,0,0,0,0,0,0,-1,846,1744,0,0
-371,-720,0,0,0,0,0,0,0,0,0,-1,853,1744,0,0
-364,-720,0,0,0,0,0,0,0,0,0,-1,860,1744,0,0
-357,-720,0,0,0,0,0,0,0,0,0,-1,867,1744,0,0
-350,-720,0,0,0,0,0,0,0,0,0,-1,874,1744,0,0
-343,-720,0,0,0,0,0,0,0,0,0,-1,881,1744,0,0
-336,-720,0,0,0,0,0,0,0,0,0,-1,888,1744,0,0
-329,-720,0,0,0,0,0,0,0,0,0,-1,895,1744,0,0
-322,-720,0,0,0,0,0,0,0,0,0,-1,902,1744,0,0
-315,-720,0,0,0,0,0,0,0,0,0,-1,909,1744,0,0
-308,-720,0,0,0,0,0,0,0,0,0,-1,916,1744,0,0
-301,-720,0,0,0,0,0,0,0,0,0,-1,923,1744,0,0
-294,-720,0,0,0,0,0,0,0,0,0,-1,930,1744,0,0
-287,-720,0,0,0,0,0,0,0,0,0,-1,937,1744,0,0
-280,-720,6.46796,22.6417,0,0,0,0,0,0,0,-1,944,1744,6.46793,-22.6417
-273,-720,8.54633,13.262,0,0,0,0,0,0,0,-1,951,1744,8.54636,-13.2619
-266,-720,7.28027,13.3165,0,0,0,0,0,0,0,-1,958,1744,7.28026,-13.3166
-259,-720,3.70563,18.6372,0,0,0,0,0,0,0,-1,965,1744,3.70564,-18.6372
-252,-720,4.00989,18.5059,0,0,0,0,0,0,0,-1,972,1744,4.00988,-18.5058
-245,-720,4.63318,20.3199,0,0,0,0,0,0,0,-1,979,1744,4.6332,-20.32
-238,-720,4.70691,19.5372,0,0,0,0,0,0,0,-1,986,1744,4.70693,-19.5372
-231,-720,5.83551,18.546,0,0,0,0,0,0,0,-1,993,1744,5.83552,-18.546
-224,-720,4.4646,19.0179,0,0,0,0,0,0,0,-1,1000,1744,4.46463,-19.0179
-217,-720,7.33716,20.2433,0,0,0,0,0,0,0,-1,1007,1744,7.33715,-20.2432
-210,-720,5.4718,20.311,0,0,0,0,0,0,0,-1,1014,1744,5.47177,-20.311
-203,-720,5.57361,20.4686,0,0,0,0,0,0,0,-1,1021,1744,5.57358,-20.4686
-196,-720,5.68396,20.7747,0,0,0,0,0,0,0,-1,1028,1744,5.68394,-20.7746
-189,-720,6.15784,20.6608,0,0,0,0,0,0,0,-1,1035,1744,6.1578,-20.6608
-182,-720,6.42505,21.0636,-0.00549935,0.00100883,0.000429586,0.00103706,-0.00552758,1.50517,0.00407497,0.0471457,1042,1744,6.42505,-21.0636
-175,-720,6.26599,21.2906,-0.00740825,0.000172679,-0.00111971,0.000334603,-0.00757017,-1.42718,0.00516193,0.0455786,1049,1744,6.26597,-21.2907
-168,-720,6.18921,21.3652,-0.00817099,4.27482e-05,-0.00247715,0.000731986,-0.00886023,-1.29942,0.00616531,0.03983,1056,1744,6.18918,-21.3653
-161,-720,5.86572,21.4827,-0.00861085,0.000561311,-0.00338477,0.00167513,-0.00972467,-1.25289,0.00710759,0.0347268,1063,1744,5.86567,-21.4827
-154,-720,6.02258,21.7274,-0.00869548,0.00159581,-0.00382805,0.00286356,-0.00996323,-1.25099,0.00777449,0.0290852,1070,1744,6.02255,-21.7274
-147,-720,5.97302,21.9589,-0.00836053,0.00256528,-0.00404907,0.00390225,-0.0096975,-1.25188,0.00808596,0.0270884,1077,1744,5.97305,-21.9588
-140,-720,5.995,22.1023,-0.00787865,0.00342197,-0.00396998,0.00467722,-0.0091339,-1.26456,0.00811105,0.0206625,1084,1744,5.99501,-22.1023
-133,-720,5.97021,22.1797,-0.0071834,0.00388697,-0.00362848,0.00497025,-0.00826669,-1.28067,0.00772094,0.0138483,1091,1744,5.97019,-22.1797
-126,-720,5.95325,22.3121,-0.00621707,0.00427951,-0.00318155,0.00516855,-0.00710611,-1.29831,0.00711614,0.0123959,1098,1744,5.95322,-22.3121
-119,-720,5.94836,22.4824,-0.00525609,0.00454642,-0.00274641,0.00526344,-0.00597312,-1.31542,0.00649174,0.0131664,1105,1744,5.94831,-22.4824
-112,-720,5.91309,22.6254,-0.00419641,0.00460738,-0.00231433,0.00517869,-0.00476772,-1.32878,0.0057442,0.0122607,1112,1744,5.91313,-22.6253
-105,-720,5.89868,22.7389,-0.00324914,0.00444662,-0.0019566,0.00491551,-0.00371803,-1.33559,0.00500053,0.0126282,1119,1744,5.89873,-22.7389
-98,-720,5.90784,22.8556,-0.00250199,0.00422913,-0.001507,0.00455112,-0.00282398,-1.3603,0.00429676,0.0101134,1126,1744,5.90785,-22.8556
-91,-720,5.88281,22.9812,-0.00178186,0.00377971,-0.00110787,0.00399227,-0.00199443,-1.38123,0.00351999,0.00883197,1133,1744,5.88279,-22.9812
-84,-720,5.86133,23.1256,-0.00113568,0.00352611,-0.000551307,0.00359042,-0.00119999,-1.45467,0.00287824,0.0096203,1140,1744,5.86133,-23.1256
-77,-720,5.87134,23.2672,-0.00046145,0.0030078,-0.000150377,0.00301431,-0.000467956,-1.52756,0.00218231,0.0119899,1147,1744,5.8714,-23.2672
-70,-720,5.88464,23.3525,0.000125933,0.00255045,-0.000136696,0.00255813,0.000118251,-1.51465,0.0016674,0.0110633,1154,1744,5.88468,-23.3526
-63,-720,5.87683,23.4697,0.000129572,0.00205673,-0.000183313,0.00207401,0.00011229,-1.4768,0.00134681,0.0104341,1161,1744,5.87686,-23.4697
-56,-720,5.88086,23.5817,0.000186408,0.0014986,-2.38787e-06,0.00149861,0.000186404,-1.56898,0.000943099,0.0126421,1168,1744,5.88081,-23.5817
-49,-720,5.86218,23.6628,0.000266006,0.000827509,0.000250361,0.000922925,0.00017059,1.20668,0.000567039,0.0204299,1175,1744,5.86214,-23.6628
-42,-720,5.85815,23.7323,0.000511448,0.00052307,0.000341439,0.000858748,0.000175771,0.793907,0.000523832,0.0218553,1182,1744,5.85816,-23.7322
-35,-720,5.89209,23.8187,0.000888329,0.000374726,0.000412596,0.00111751,0.000145542,0.507033,0.000701546,0.0174771,1189,1744,5.89207,-23.8187
-28,-720,5.90515,23.9078,0.00112556,0.000339732,0.000503746,0.0013715,9.37862e-05,0.45419,0.000884733,0.0101022,1196,1744,5.90519,-23.9078
-21,-720,5.8833,24.0135,0.001229,0.000325791,0.000609056,0.00153561,1.91753e-05,0.466385,0.00101741,0.00919565,1203,1744,5.88324,-24.0136
-14,-720,5.87891,24.0575,0.00133861,0.000320784,0.000808,0.00178461,-0.000125214,0.50436,0.0012336,0.0109956,1210,1744,5.87895,-24.0575
-7,-720,5.8949,24.1278,0.00138002,0.000467997,0.00101876,0.00204018,-0.000192157,0.574964,0.00142848,0.0120983,1217,1744,5.89495,-24.1279
0,-720,5.89709,24.2083,0.00131031,0.000727318,0.00118048,0.00223475,-0.000197126,0.664355,0.0015597,0.0127916,1224,1744,5.8971,-24.2083
7,-720,5.8938,24.2498,0.00117009,0.000776439,0.00130709,0.00229509,-0.000348565,0.710668,0.0016585,0.0149389,1231,1744,5.89383,-24.2498
14,-720,5.91235,24.2979,0.000849283,0.000744534,0.00144933,0.00224719,-0.000653372,0.767337,0.00175689,0.0136829,1238,1744,5.91233,-24.2979
21,-720,5.92175,24.3497,0.000549078,0.000669017,0.00145384,0.00206413,-0.000846031,0.806011,0.00172854,0.0113144,1245,1744,5.92175,-24.3497
28,-720,5.91846,24.3929,0.000404873,0.000488884,0.00150503,0.00195249,-0.00105873,0.79935,0.00176387,0.0112992,1252,1744,5.9185,-24.393
35,-720,5.92261,24.4282,0.00024256,0.000287279,0.00142402,0.00168912,-0.00115928,0.793248,0.00165398,0.0103883,1259,1744,5.92255,-24.4283
42,-720,5.92175,24.4478,2.43503e-05,0.000336262,0.00134212,0.00153146,-0.00117084,0.843239,0.0015648,0.0109462,1266,1744,5.92171,-24.4478
49,-720,5.92749,24.4506,-0.000187614,0.000250167,0.00127813,0.00132801,-0.00126546,0.870205,0.00149749,0.011348,1273,1744,5.92754,-24.4506
56,-720,5.93298,24.4647,-0.00030803,0.000649126,0.00119959,0.00146208,-0.00112098,0.9752,0.00149566,0.00968621,1280,1744,5.93295,-24.4647
63,-720,5.93787,24.4827,-0.000434432,0.00161206,0.00105385,0.0020577,-0.000880073,1.17073,0.00174096,0.0114718,1287,1744,5.93791,-24.4827
70,-720,5.95825,24.5011,-0.000607391,0.00217783,0.00101182,0.0025066,-0.000936162,1.25663,0.00205545,0.0122051,1294,1744,5.95828,-24.5011
77,-720,5.96643,24.5037,-0.000563997,0.00270702,0.00105541,0.00301799,-0.000874966,1.28426,0.00235839,0.0141552,1301,1744,5.96642,-24.5037
84,-720,5.97815,24.4814,-0.000386233,0.00319836,0.0011392,0.00352976,-0.000717635,1.2877,0.00262529,0.0135347,1308,1744,5.97816,-24.4815
91,-720,5.99475,24.4622,-0.000195884,0.00353452,0.00123469,0.00390615,-0.000567518,1.27843,0.00281242,0.0120813,1315,1744,5.99477,-24.4622
98,-720,5.97986,24.4634,0.000117117,0.00337441,0.00138074,0.00388093,-0.000389399,1.21919,0.00272637,0.0111427,1322,1744,5.97983,-24.4634
105,-720,5.98132,24.4586,0.000418852,0.00304596,0.00151728,0.00373929,-0.000274476,1.14217,0.0025892,0.0107353,1329,1744,5.98138,-24.4586
112,-720,5.99158,24.4463,0.000736861,0.00254775,0.00167418,0.00354564,-0.000261035,1.03329,0.0024554,0.0106706,1336,1744,5.99156,-24.4463
119,-720,5.99707,24.4113,0.00116156,0.00160935,0.00176086,0.00316049,-0.000389587,0.848633,0.00224814,0.0113562,1343,1744,5.99711,-24.4113
126,-720,6.00769,24.3752,0.00151366,0.00039848,0.00195079,0.00298498,-0.00107285,0.646197,0.00242795,0.0106635,1350,1744,6.00773,-24.3752
133,-720,6.01221,24.3424,0.001695,-0.000732192,0.00201763,0.0028359,-0.00187309,0.514639,0.00273761,0.011815,1357,1744,6.01222,-24.3424
140,-720,6.02051,24.3081,0.00186725,-0.00158898,0.00206348,0.00283067,-0.0025524,0.436809,0.0031093,0.0193944,1364,1744,6.0205,-24.3081
147,-720,6.01013,24.2476,0.00197734,-0.00216794,0.00196501,0.00276076,-0.00295136,0.379374,0.0032985,0.0198632,1371,1744,6.01015,-24.2476
154,-720,6.00269,24.1733,0.00190486,-0.00214904,0.00168343,0.00251277,-0.00275694,0.34654,0.00304356,0.0128159,1378,1744,6.00274,-24.1733
161,-720,6.01575,24.1106,0.00163907,-0.00194428,0.00132841,0.00207782,-0.00238303,0.318999,0.00257748,0.00945188,1385,1744,6.01579,-24.1105
168,-720,6.01917,24.0391,0.0012647,-0.00158743,0.000990711,0.00157506,-0.00189779,0.303585,0.00200794,0.00980061,1392,1744,6.01914,-24.0391
175,-720,6.02161,23.9471,0.000879999,-0.00081734,0.000642903,0.00109602,-0.00103336,0.324155,0.00122958,0.0146606,1399,1744,6.02158,-23.9471
182,-720,6.02124,23.8894,0.000309857,-3.39979e-05,0.000395908,0.000569557,-0.000293698,0.580554,0.000506812,0.0138493,1406,1744,6.02124,-23.8894
189,-720,6.02576,23.808,-0.000341516,0.00061852,0.00029049,0.000699574,-0.00042257,1.29869,0.000654417,0.0119569,1413,1744,6.02576,-23.808
196,-720,6.03491,23.7267,-0.00111707,0.0015878,0.000174437,0.001599,-0.00112827,1.50666,0.00158239,0.0127608,1420,1744,6.03497,-23.7267
203,-720,6.03137,23.6335,-0.00185381,0.00270945,0.000269764,0.00272534,-0.00186971,1.51195,0.00266824,0.0147786,1427,1744,6.03137,-23.6336
210,-720,6.01257,23.5432,-0.00234036,0.00358251,0.000404362,0.00360998,-0.00236784,1.50294,0.00347605,0.0134825,1434,1744,6.01254,-23.5432
217,-720,6.00903,23.4283,-0.00284509,0.0043797,0.000531992,0.00441866,-0.00288405,1.49769,0.00424714,0.0126572,1441,1744,6.00899,-23.4283
224,-720,6.00769,23.3141,-0.00330945,0.00512497,0.000708669,0.0051841,-0.00336858,1.48755,0.00497484,0.00930249,1448,1744,6.00764,-23.3141
231,-720,5.98633,23.1932,-0.00373157,0.00585439,0.000888144,0.00593598,-0.00381316,1.47918,0.00567298,0.00919167,1455,1744,5.98637,-23.1933
238,-720,5.9928,23.0597,-0.00392819,0.00649459,0.00104355,0.00659804,-0.00403165,1.47198,0.00619639,0.00848894,1462,1744,5.99277,-23.0597
245,-720,5.97546,22.9707,-0.00389339,0.00708018,0.00109865,0.00718909,-0.0040023,1.47199,0.00654809,0.0110594,1469,1744,5.97544,-22.9707
252,-720,5.97742,22.8564,-0.00385738,0.00744725,0.00102184,0.00753887,-0.003949,1.48137,0.00673961,0.0106683,1476,1744,5.97736,-22.8565
259,-720,5.9895,22.7184,-0.00377531,0.00768264,0.000974835,0.00776499,-0.00385765,1.48652,0.00683557,0.009365,1483,1744,5.98945,-22.7183
266,-720,5.95435,22.5927,-0.00355539,0.00782445,0.000824518,0.00788388,-0.00361482,1.49884,0.00678957,0.00800343,1490,1744,5.95438,-22.5927
273,-720,5.94226,22.4485,-0.00337585,0.00793347,0.000690822,0.00797551,-0.00341789,1.51001,0.00675114,0.0152135,1497,1744,5.94223,-22.4485
280,-720,5.87622,22.302,-0.00337164,0.00765461,0.000645994,0.00769232,-0.00340936,1.51248,0.00656663,0.0229569,1504,1744,5.87625,-22.302
287,-720,5.78479,22.0906,-0.00326951,0.00659229,0.000929184,0.00667907,-0.00335629,1.47767,0.00589884,0.0380437,1511,1744,5.78476,-22.0906
294,-720,5.92822,21.8468,-0.00283424,0.00598576,0.00119674,0.00614525,-0.00299374,1.4383,0.00537996,0.0408103,1518,1744,5.92818,-21.8468
301,-720,6.01489,21.7756,-0.0020571,0.00392385,0.00171371,0.00438008,-0.00251332,1.31061,0.00402826,0.0434242,1525,1744,6.0149,-21.7757
308,-720,5.76917,21.5867,-0.000742313,0.00126921,0.00122831,0.001851,-0.0013241,1.12845,0.00184154,0.0411396,1532,1744,5.76919,-21.5867
315,-720,5.79053,21.3947,0.00184004,-0.000261294,-0.00130808,0.00246716,-0.000888417,-0.44705,0.00200755,0.0468307,1539,1744,5.79054,-21.3947
322,-720,5.67761,21.1838,0,0,0,0,0,0,0,-1,1546,1744,5.67764,-21.1839
329,-720,5.60876,21.3506,0,0,0,0,0,0,0,-1,1553,1744,5.60871,-21.3506
336,-720,5.36511,21.6654,0,0,0,0,0,0,0,-1,1560,1744,5.36508,-21.6655
343,-720,6.78552,21.3625,0,0,0,0,0,0,0,-1,1567,1744,6.78551,-21.3625
350,-720,4.0741,11.1836,0,0,0,0,0,0,0,-1,1574,1744,4.07412,-11.1836
357,-720,5.53247,19.7031,0,0,0,0,0,0,0,-1,1581,1744,5.53253,-19.7032
364,-720,6.45642,18.7834,0,0,0,0,0,0,0,-1,1588,1744,6.45637,-18.7834
371,-720,5.90027,18.6631,0,0,0,0,0,0,0,-1,1595,1744,5.90025,-18.663
378,-720,6.90405,18.7253,0,0,0,0,0,0,0,-1,1602,1744,6.90402,-18.7254
385,-720,7.54175,18.5774,0,0,0,0,0,0,0,-1,1609,1744,7.54171,-18.5774
392,-720,0.141968,12.1694,0,0,0,0,0,0,0,-1,1616,1744,0.141952,-12.1694
399,-720,-0.334595,13.7629,0,0,0,0,0,0,0,-1,1623,1744,-0.334621,-13.763
406,-720,0,0,0,0,0,0,0,0,0,-1,1630,1744,0,0
413,-720,0,0,0,0,0,0,0,0,0,-1,1637,1744,0,0
420,-720,0,0,0,0,0,0,0,0,0,-1,1644,1744,0,0
427,-720,0,0,0,0,0,0,0,0,0,-1,1651,1744,0,0
434,-720,0,0,0,0,0,0,0,0,0,-1,1658,1744,0,0
441,-720,0,0,0,0,0,0,0,0,0,-1,1665,1744,0,0
448,-720,0,0,0,0,0,0,0,0,0,-1,1672,1744,0,0
455,-720,0,0,0,0,0,0,0,0,0,-1,1679,1744,0,0
462,-720,0,0,0,0,0,0,0,0,0,-1,1686,1744,0,0
469,-720,0,0,0,0,0,0,0,0,0,-1,1693,1744,0,0
476,-720,0,0,0,0,0,0,0,0,0,-1,1700,1744,0,0
483,-720,0,0,0,0,0,0,0,0,0,-1,1707,1744,0,0
490,-720,0,0,0,0,0,0,0,0,0,-1,1714,1744,0,0
497,-720,0,0,0,0,0,0,0,0,0,-1,1721,1744,0,0
504,-720,0,0,0,0,0,0,0,0,0,-1,1728,1744,0,0
511,-720,0,0,0,0,0,0,0,0,0,-1,1735,1744,0,0
518,-720,0,0,0,0,0,0,0,0,0,-1,1742,1744,0,0
525,-720,0,0,0,0,0,0,0,0,0,-1,1749,1744,0,0
532,-720,0,0,0,0,0,0,0,0,0,-1,1756,1744,0,0
539,-720,0,0,0,0,0,0,0,0,0,-1,1763,1744,0,0
546,-720,0,0,0,0,0,0,0,0,0,-1,1770,1744,0,0
553,-720,0,0,0,0,0,0,0,0,0,-1,1777,1744,0,0
560,-720,0,0,0,0,0,0,0,0,0,-1,1784,1744,0,0
567,-720,0,0,0,0,0,0,0,0,0,-1,1791,1744,0,0
574,-720,0,0,0,0,0,0,0,0,0,-1,1798,1744,0,0
581,-720,0,0,0,0,0,0,0,0,0,-1,1805,1744,0,0
588,-720,0,0,0,0,0,0,0,0,0,-1,1812,1744,0,0
595,-720,0,0,0,0,0,0,0,0,0,-1,1819,1744,0,0
602,-720,0,0,0,0,0,0,0,0,0,-1,1826,1744,0,0
609,-720,0,0,0,0,0,0,0,0,0,-1,1833,1744,0,0
616,-720,0,0,0,0,0,0,0,0,0,-1,1840,1744,0,0
623,-720,0,0,0,0,0,0,0,0,0,-1,1847,1744,0,0
630,-720,0,0,0,0,0,0,0,0,0,-1,1854,1744,0,0
637,-720,0,0,0,0,0,0,0,0,0,-1,1861,1744,0,0
644,-720,0,0,0,0,0,0,0,0,0,-1,1868,1744,0,0
651,-720,0,0,0,0,0,0,0,0,0,-1,1875,1744,0,0
658,-720,0,0,0,0,0,0,0,0,0,-1,1882,1744,0,0
665,-720,0,0,0,0,0,0,0,0,0,-1,1889,1744,0,0
672,-720,0,0,0,0,0,0,0,0,0,-1,1896,1744,0,0
679,-720,0,0,0,0,0,0,0,0,0,-1,1903,1744,0,0
686,-720,0,0,0,0,0,0,0,0,0,-1,1910,1744,0,0
693,-720,0,0,0,0,0,0,0,0,0,-1,1917,1744,0,0
700,-720,0,0,0,0,0,0,0,0,0,-1,1924,1744,0,0
707,-720,0,0,0,0,0,0,0,0,0,-1,1931,1744,0,0
714,-720,0,0,0,0,0,0,0,0,0,-1,1938,1744,0,0
721,-720,0,0,0,0,0,0,0,0,0,-1,1945,1744,0,0
728,-720,0,0,0,0,0,0,0,0,0,-1,1952,1744,0,0
735,-720,0,0,0,0,0,0,0,0,0,-1,1959,1744,0,0
742,-720,0,0,0,0,0,0,0,0,0,-1,1966,1744,0,0
749,-720,0,0,0,0,0,0,0,0,0,-1,1973,1744,0,0
756,-720,0,0,0,0,0,0,0,0,0,-1,1980,1744,0,0
763,-720,0,0,0,0,0,0,0,0,0,-1,1987,1744,0,0
770,-720,0,0,0,0,0,0,0,0,0,-1,1994,1744,0,0
777,-720,0,0,0,0,0,0,0,0,0,-1,2001,1744,0,0
784,-720,0,0,0,0,0,0,0,0,0,-1,2008,1744,0,0
791,-720,0,0,0,0,0,0,0,0,0,-1,2015,1744,0,0
798,-720,0,0,0,0,0,0,0,0,0,-1,2022,1744,0,0
805,-720,0,0,0,0,0,0,0,0,0,-1,2029,1744,0,0
812,-720,0,0,0,0,0,0,0,0,0,-1,2036,1744,0,0
-700,-727,0,0,0,0,0,0,0,0,0,-1,524,1751,0,0
-693,-727,0,0,0,0,0,0,0,0,0,-1,531,1751,0,0
-686,-727,0,0,0,0,0,0,0,0,0,-1,538,1751,0,0
-679,-727,0,0,0,0,0,0,0,0,0,-1,545,1751,0,0
-672,-727,0,0,0,0,0,0,0,0,0,-1,552,1751,0,0
-665,-727,0,0,0,0,0,0,0,0,0,-1,559,1751,0,0
-658,-727,0,0,0,0,0,0,0,0,0,-1,566,1751,0,0
-651,-727,0,0,0,0,0,0,0,0,0,-1,573,1751,0,0
-644,-727,0,0,0,0,0,0,0,0,0,-1,580,1751,0,0
-637,-727,0,0,0,0,0,0,0,0,0,-1,587,1751,0,0
-630,-727,0,0,0,0,0,0,0,0,0,-1,594,1751,0,0
-623,-727,0,0,0,0,0,0,0,0,0,-1,601,1751,0,0
-616,-727,0,0,0,0,0,0,0,0,0,-1,608,1751,0,0
-609,-727,0,0,0,0,0,0,0,0,0,-1,615,1751,0,0
-602,-727,0,0,0,0,0,0,0,0,0,-1,622,1751,0,0
-595,-727,0,0,0,0,0,0,0,0,0,-1,629,1751,0,0
-588,-727,0,0,0,0,0,0,0,0,0,-1,636,1751,0,0
-581,-727,0,0,0,0,0,0,0,0,0,-1,643,1751,0,0
-574,-727,0,0,0,0,0,0,0,0,0,-1,650,1751,0,0
-567,-727,0,0,0,0,0,0,0,0,0,-1,657,1751,0,0
-560,-727,0,0,0,0,0,0,0,0,0,-1,664,1751,0,0
-553,-727,0,0,0,0,0,0,0,0,0,-1,671,1751,0,0
-546,-727,0,0,0,0,0,0,0,0,0,-1,678,1751,0,0
-539,-727,0,0,0,0,0,0,0,0,0,-1,685,1751,0,0
-532,-727,0,0,0,0,0,0,0,0,0,-1,692,1751,0,0
-525,-727,0,0,0,0,0,0,0,0,0,-1,699,1751,0,0
-518,-727,0,0,0,0,0,0,0,0,0,-1,706,1751,0,0
-511,-727,0,0,0,0,0,0,0,0,0,-1,713,1751,0,0
-504,-727,0,0,0,0,0,0,0,0,0,-1,720,1751,0,0
-497,-727,0,0,0,0,0,0,0,0,0,-1,727,1751,0,0
-490,-727,0,0,0,0,0,0,0,0,0,-1,734,1751,0,0
-483,-727,0,0,0,0,0,0,0,0,0,-1,741,1751,0,0
-476,-727,0,0,0,0,0,0,0,0,0,-1,748,1751,0,0
-469,-727,0,0,0,0,0,0,0,0,0,-1,755,1751,0,0
-462,-727,0,0,0,0,0,0,0,0,0,-1,762,1751,0,0
-455,-727,0,0,0,0,0,0,0,0,0,-1,769,1751,0,0
-448,-727,0,0,0,0,0,0,0,0,0,-1,776,1751,0,0
-441,-727,0,0,0,0,0,0,0,0,0,-1,783,1751,0,0
-434,-727,0,0,0,0,0,0,0,0,0,-1,790,1751,0,0
-427,-727,0,0,0,0,0,0,0,0,0,-1,797,1751,0,0
-420,-727,0,0,0,0,0,0,0,0,0,-1,804,1751,0,0
-413,-727,0,0,0,0,0,0,0,0,0,-1,811,1751,0,0
-406,-727,0,0,0,0,0,0,0,0,0,-1,818,1751,0,0
-399,-727,0,0,0,0,0,0,0,0,0,-1,825,1751,0,0
-392,-727,0,0,0,0,0,0,0,0,0,-1,832,1751,0,0
-385,-727,0,0,0,0,0,0,0,0,0,-1,839,1751,0,0
-378,-727,0,0,0,0,0,0,0,0,0,-1,846,1751,0,0
-371,-727,0,0,0,0,0,0,0,0,0,-1,853,1751,0,0
-364,-727,0,0,0,0,0,0,0,0,0,-1,860,1751,0,0
-357,-727,0,0,0,0,0,0,0,0,0,-1,867,1751,0,0
-350,-727,0,0,0,0,0,0,0,0,0,-1,874,1751,0,0
-343,-727,0,0,0,0,0,0,0,0,0,-1,881,1751,0,0
-336,-727,0,0,0,0,0,0,0,0,0,-1,888,1751,0,0
-329,-727,0,0,0,0,0,0,0,0,0,-1,895,1751,0,0
-322,-727,0,0,0,0,0,0,0,0,0,-1,902,1751,0,0
-315,-727,0,0,0,0,0,0,0,0,0,-1,909,1751,0,0
-308,-727,0,0,0,0,0,0,0,0,0,-1,916,1751,0,0
-301,-727,0,0,0,0,0,0,0,0,0,-1,923,1751,0,0
-294,-727,0,0,0,0,0,0,0,0,0,-1,930,1751,0,0
-287,-727,0,0,0,0,0,0,0,0,0,-1,937,1751,0,0
-280,-727,0,0,0,0,0,0,0,0,0,-1,944,1751,0,0
-273,-727,0,0,0,0,0,0,0,0,0,-1,951,1751,0,0
-266,-727,4.24805,7.61145,0,0,0,0,0,0,0,-1,958,1751,4.24802,-7.6115
-259,-727,3.65228,5.4082,0,0,0,0,0,0,0,-1,965,1751,3.65229,-5.40818
-252,-727,6.35193,19.5046,0,0,0,0,0,0,0,-1,972,1751,6.35193,-19.5046
-245,-727,6.6543,20.9005,0,0,0,0,0,0,0,-1,979,1751,6.65433,-20.9005
-238,-727,4.31769,18.0181,0,0,0,0,0,0,0,-1,986,1751,4.31766,-18.018
-231,-727,4.72626,18.8145,0,0,0,0,0,0,0,-1,993,1751,4.72627,-18.8145
-224,-727,5.36774,18.8488,0,0,0,0,0,0,0,-1,1000,1751,5.36772,-18.8487
-217,-727,5.94122,16.1447,0,0,0,0,0,0,0,-1,1007,1751,5.9412,-16.1446
-210,-727,6.63403,19.8335,0,0,0,0,0,0,0,-1,1014,1751,6.63405,-19.8335
-203,-727,5.12427,21.7227,0,0,0,0,0,0,0,-1,1021,1751,5.1243,-21.7227
-196,-727,5.40576,21.8256,0,0,0,0,0,0,0,-1,1028,1751,5.40577,-21.8255
-189,-727,5.46777,18.9607,0,0,0,0,0,0,0,-1,1035,1751,5.46774,-18.9607
-182,-727,6.92358,21.3864,0,0,0,0,0,0,0,-1,1042,1751,6.92356,-21.3864
-175,-727,6.67053,21.6031,0,0,0,0,0,0,0,-1,1049,1751,6.67047,-21.6032
-168,-727,6.33472,21.6256,0,0,0,0,0,0,0,-1,1056,1751,6.33475,-21.6256
-161,-727,5.75916,21.7174,0,0,0,0,0,0,0,-1,1063,1751,5.75919,-21.7174
-154,-727,6.21826,21.6742,0,0,0,0,0,0,0,-1,1070,1751,6.21821,-21.6742
-147,-727,6.20032,21.7328,-0.0119863,0.00390924,-0.00601811,0.00593066,-0.0140077,-1.24675,0.0118221,0.0448523,1077,1751,6.20035,-21.7328
-140,-727,6.05151,21.891,-0.0113148,0.00496374,-0.00583405,0.00683864,-0.0131897,-1.25985,0.0117556,0.0313437,1084,1751,6.05145,-21.891
-133,-727,6.14392,22.0638,-0.0103495,0.00554576,-0.00535485,0.00718141,-0.0119852,-1.27435,0.0111811,0.0235223,1091,1751,6.14387,-22.0638
-126,-727,6.04736,22.2819,-0.00906726,0.00598329,-0.00477448,0.00737011,-0.0104541,-1.28811,0.010342,0.0153242,1098,1751,6.04742,-22.2819
-119,-727,6.03613,22.4823,-0.00776666,0.00626185,-0.00420463,0.00742553,-0.00893035,-1.30079,0.00945638,0.0113841,1105,1751,6.03612,-22.4823
-112,-727,6.03467,22.6139,-0.00636066,0.0063131,-0.00362738,0.00727786,-0.00732542,-1.31085,0.00843122,0.0115599,1112,1751,6.03472,-22.6138
-105,-727,6.00623,22.7435,-0.00510843,0.0061019,-0.00311416,0.0069089,-0.00591543,-1.31723,0.00741153,0.0116576,1119,1751,6.00619,-22.7435
-98,-727,6.01917,22.8756,-0.00409465,0.00579574,-0.00251752,0.00639968,-0.00469859,-1.33535,0.00643263,0.00993637,1126,1751,6.0192,-22.8756
-91,-727,6.02344,22.9966,-0.00313414,0.00517519,-0.00199809,0.00563069,-0.00358964,-1.34666,0.00536666,0.00965788,1133,1751,6.02339,-22.9965
-84,-727,5.99146,23.1179,-0.00225108,0.00481682,-0.00118191,0.00500922,-0.00244348,-1.40942,0.004387,0.0103766,1140,1751,5.99143,-23.118
-77,-727,5.98279,23.2443,-0.00129717,0.00398866,-0.000519024,0.00403914,-0.00134765,-1.47384,0.00323688,0.0112126,1147,1751,5.98284,-23.2443
-70,-727,5.98145,23.3536,-0.00045696,0.00332068,-0.000429731,0.00336895,-0.000505228,-1.45894,0.00243193,0.012147,1154,1751,5.98149,-23.3536
-63,-727,5.98169,23.4813,-0.00065356,0.00258537,-0.000454333,0.00264789,-0.000716084,-1.43404,0.00204616,0.00990981,1161,1751,5.98174,-23.4813
-56,-727,5.96448,23.5798,-0.000758036,0.00172245,-0.000118676,0.00172811,-0.000763701,-1.5231,0.00147413,0.010801,1168,1751,5.9645,-23.5798
-49,-727,5.95447,23.6621,-0.000623887,0.000475106,0.000339083,0.000571306,-0.000720087,1.29435,0.000747234,0.0148463,1175,1751,5.95444,-23.6622
-42,-727,5.953,23.7598,-0.000218898,-3.7004e-05,0.000462275,0.000343186,-0.000599087,0.882527,0.000550668,0.0177529,1182,1751,5.95305,-23.7598
-35,-727,5.95569,23.8357,0.000162497,-0.000559161,0.00048179,0.000403597,-0.000800261,0.463989,0.000707512,0.0146684,1189,1751,5.9557,-23.8357
-28,-727,5.95532,23.9028,0.000235525,-0.000987161,0.000474186,0.000397869,-0.00114951,0.329857,0.000927845,0.00837259,1196,1751,5.95535,-23.9029
-21,-727,5.95105,23.9863,0.000231922,-0.00123387,0.0006515,0.000479633,-0.00148158,0.363336,0.00118053,0.00937452,1203,1751,5.95107,-23.9864
-14,-727,5.9563,24.0376,0.000185357,-0.00131002,0.000947029,0.000644276,-0.00176894,0.451243,0.00144282,0.0107398,1210,1751,5.95624,-24.0376
-7,-727,5.97583,24.1233,0.000109049,-0.00131019,0.0011794,0.000775855,-0.00197699,0.514572,0.00163901,0.0144196,1217,1751,5.97585,-24.1233
0,-727,5.96191,24.2209,-1.01533e-05,-0.00112978,0.00134857,0.00089018,-0.00203012,0.588663,0.00172832,0.0141514,1224,1751,5.96192,-24.2209
7,-727,5.93835,24.2489,-0.000189399,-0.000942063,0.00145256,0.000934784,-0.00206625,0.658644,0.00177322,0.0136569,1231,1751,5.93835,-24.2489
14,-727,5.94385,24.2913,-0.000502764,-0.00081464,0.00152758,0.000876817,-0.00219422,0.734534,0.00182664,0.0142025,1238,1751,5.9438,-24.2913
21,-727,5.95056,24.353,-0.000761974,-0.000686354,0.00148162,0.000757941,-0.00220627,0.798155,0.00177818,0.0127802,1245,1751,5.95058,-24.353
28,-727,5.95874,24.38,-0.0008475,-0.000604801,0.00141894,0.000697968,-0.00215027,0.828055,0.00171421,0.0108375,1252,1751,5.95877,-24.38
35,-727,5.98096,24.4144,-0.000866898,-0.000528846,0.00119605,0.000510058,-0.0019058,0.855594,0.00147035,0.0107942,1259,1751,5.98097,-24.4144
42,-727,5.95801,24.4418,-0.000910548,-0.00028658,0.000934261,0.000386412,-0.00158354,0.946545,0.00120532,0.0113989,1266,1751,5.95802,-24.4418
49,-727,5.92944,24.4573,-0.000979347,-0.000140081,0.000728624,0.00028111,-0.00140054,1.04666,0.00104014,0.0107774,1273,1751,5.9295,-24.4573
56,-727,5.93152,24.486,-0.000890166,0.00015145,0.000504911,0.000356022,-0.00109474,1.18585,0.000873042,0.00927254,1280,1751,5.93148,-24.486
63,-727,5.95288,24.4971,-0.000763976,0.000627181,0.00025938,0.000673969,-0.000810763,1.39233,0.000858423,0.0111228,1287,1751,5.95288,-24.4971
70,-727,5.9812,24.507,-0.000664363,0.000934538,0.000152497,0.000948953,-0.000678777,1.47655,0.000944076,0.0128488,1294,1751,5.9812,-24.507
77,-727,5.98193,24.521,-0.000338377,0.00119265,0.000158838,0.00120896,-0.000354682,1.4685,0.000946614,0.014882,1301,1751,5.98188,-24.521
84,-727,5.97632,24.4673,-9.51075e-05,0.00138297,0.000203111,0.00141038,-0.00012251,1.43669,0.000983634,0.0147073,1308,1751,5.97627,-24.4673
91,-727,5.98438,24.4208,0.000188038,0.0015169,0.000345587,0.0016014,0.000103538,1.33099,0.00103482,0.0145196,1315,1751,5.9844,-24.4208
98,-727,5.96204,24.4473,0.000423508,0.00141793,0.000600043,0.00169999,0.000141442,1.13137,0.00108925,0.0131662,1322,1751,5.96208,-24.4473
105,-727,5.96423,24.4435,0.000592048,0.00122605,0.000862969,0.0018284,-1.03029e-05,0.961415,0.00122238,0.0128444,1329,1751,5.96419,-24.4435
112,-727,5.97693,24.436,0.000787475,0.000966426,0.00112723,0.00200772,-0.000253821,0.825004,0.00143061,0.0110503,1336,1751,5.97691,-24.436
119,-727,5.96997,24.4226,0.00107797,0.00055731,0.00128385,0.00212762,-0.00049234,0.685369,0.00160785,0.00889541,1343,1751,5.96994,-24.4226
126,-727,5.96973,24.3773,0.0012908,1.93601e-05,0.00145629,0.00224407,-0.000933917,0.579598,0.00188607,0.010149,1350,1751,5.96974,-24.3773
133,-727,5.98755,24.3636,0.00135796,-0.000421399,0.00152259,0.00223175,-0.00129518,0.520993,0.00206007,0.0148524,1357,1751,5.98756,-24.3636
140,-727,5.99939,24.3425,0.00138774,-0.000671546,0.00154798,0.00221723,-0.00150104,0.491921,0.00215998,0.0219339,1364,1751,5.99945,-24.3425
147,-727,5.97681,24.2631,0.00143346,-0.000790394,0.00142696,0.00213056,-0.0014875,0.454425,0.00209985,0.0184303,1371,1751,5.97675,-24.263
154,-727,5.97278,24.1577,0.00138522,-0.000558746,0.00104575,0.00184094,-0.00101447,0.410972,0.00167143,0.0111602,1378,1751,5.97276,-24.1577
161,-727,5.95544,24.099,0.00109638,-0.000102765,0.000596884,0.00134283,-0.000349218,0.391575,0.00103152,0.00904821,1385,1751,5.95545,-24.099
168,-727,5.95361,24.0458,0.000722045,0.000517421,0.000209007,0.000852438,0.000387028,0.557786,0.000492848,0.0120848,1392,1751,5.95364,-24.0458
175,-727,5.97278,23.9691,0.000424971,0.000954798,-0.000140447,0.000989726,0.000390044,-1.32705,0.000575675,0.0168494,1399,1751,5.97277,-23.9691
182,-727,5.97021,23.8949,-0.000521495,0.0013587,-0.000235178,0.00138767,-0.000550465,-1.44823,0.00115326,0.0181297,1406,1751,5.97021,-23.8949
189,-727,5.93579,23.8011,-0.00137354,0.0017848,-0.000169643,0.00179388,-0.00138262,-1.51729,0.00183907,0.0114115,1413,1751,5.93583,-23.8011
196,-727,5.94202,23.7214,-0.0024994,0.00289509,-0.000160043,0.00289984,-0.00250414,-1.54116,0.00312278,0.0129389,1420,1751,5.94201,-23.7214
203,-727,5.93848,23.6232,-0.00363128,0.00441218,0.000237133,0.00441917,-0.00363826,1.54135,0.00465924,0.0157163,1427,1751,5.93851,-23.6232
210,-727,5.92688,23.5404,-0.0043515,0.00579996,0.000515066,0.00582602,-0.00437756,1.52023,0.00591079,0.0154116,1434,1751,5.92687,-23.5404
217,-727,5.90662,23.4368,-0.00503977,0.00704858,0.000771838,0.00709766,-0.00508886,1.50729,0.00706768,0.011417,1441,1751,5.90658,-23.4367
224,-727,5.9021,23.3055,-0.00566604,0.00813166,0.00103658,0.00820911,-0.00574348,1.49623,0.00809735,0.0121588,1448,1751,5.90215,-23.3056
231,-727,5.89136,23.1895,-0.00618633,0.00914211,0.00129127,0.00925013,-0.00629434,1.48734,0.00902852,0.00977026,1455,1751,5.89139,-23.1894
238,-727,5.89246,23.0624,-0.00640901,0.00999388,0.00150706,0.0101312,-0.00654632,1.47993,0.00970263,0.0100938,1462,1751,5.89242,-23.0624
245,-727,5.87317,22.9573,-0.00631247,0.0107399,0.00159337,0.0108875,-0.00646007,1.47842,0.0101238,0.0103729,1469,1751,5.87321,-22.9573
252,-727,5.8623,22.8483,-0.00617176,0.0111867,0.00151405,0.0113177,-0.00630283,1.48444,0.0103097,0.0110995,1476,1751,5.86226,-22.8482
259,-727,5.87061,22.7186,-0.00596049,0.0114364,0.00145689,0.0115576,-0.00608165,1.48782,0.0103463,0.0154782,1483,1751,5.87055,-22.7186
266,-727,5.87244,22.623,-0.0055586,0.0115541,0.00127579,0.0116486,-0.00565319,1.49679,0.0101872,0.0241555,1490,1751,5.87247,-22.623
273,-727,5.94958,22.522,-0.00519386,0.0116237,0.00112478,0.0116986,-0.00526875,1.50431,0.0100278,0.0437088,1497,1751,5.94964,-22.5219
280,-727,5.80212,22.4199,0,0,0,0,0,0,0,-1,1504,1751,5.80216,-22.42
287,-727,5.50854,22.0402,0,0,0,0,0,0,0,-1,1511,1751,5.50854,-22.0402
294,-727,5.60327,21.7018,0,0,0,0,0,0,0,-1,1518,1751,5.60326,-21.7017
301,-727,5.87317,21.8564,0,0,0,0,0,0,0,-1,1525,1751,5.87323,-21.8564
308,-727,5.42822,21.5266,0,0,0,0,0,0,0,-1,1532,1751,5.4282,-21.5266
315,-727,5.57471,21.1895,0,0,0,0,0,0,0,-1,1539,1751,5.57471,-21.1895
322,-727,5.75818,18.2477,0,0,0,0,0,0,0,-1,1546,1751,5.75815,-18.2477
329,-727,6.61853,11.6267,0,0,0,0,0,0,0,-1,1553,1751,6.61859,-11.6267
336,-727,5.55823,20.2439,0,0,0,0,0,0,0,-1,1560,1751,5.55829,-20.2438
343,-727,2.41699,8.72095,0,0,0,0,0,0,0,-1,1567,1751,2.41702,-8.72098
350,-727,3.89783,7.50195,0,0,0,0,0,0,0,-1,1574,1751,3.89782,-7.50193
357,-727,4.48462,10.2948,0,0,0,0,0,0,0,-1,1581,1751,4.48464,-10.2948
364,-727,6.96729,17.2365,0,0,0,0,0,0,0,-1,1588,1751,6.96732,-17.2365
371,-727,6.06628,16.4799,0,0,0,0,0,0,0,-1,1595,1751,6.06631,-16.4798
378,-727,6.43652,17.5544,0,0,0,0,0,0,0,-1,1602,1751,6.43657,-17.5545
385,-727,3.19275,14.7679,0,0,0,0,0,0,0,-1,1609,1751,3.19274,-14.768
392,-727,0,0,0,0,0,0,0,0,0,-1,1616,1751,0,0
399,-727,0,0,0,0,0,0,0,0,0,-1,1623,1751,0,0
406,-727,0,0,0,0,0,0,0,0,0,-1,1630,1751,0,0
413,-727,0,0,0,0,0,0,0,0,0,-1,1637,1751,0,0
420,-727,0,0,0,0,0,0,0,0,0,-1,1644,1751,0,0
427,-727,0,0,0,0,0,0,0,0,0,-1,1651,1751,0,0
434,-727,0,0,0,0,0,0,0,0,0,-1,1658,1751,0,0
441,-727,0,0,0,0,0,0,0,0,0,-1,1665,1751,0,0
448,-727,0,0,0,0,0,0,0,0,0,-1,1672,1751,0,0
455,-727,0,0,0,0,0,0,0,0,0,-1,1679,1751,0,0
462,-727,0,0,0,0,0,0,0,0,0,-1,1686,1751,0,0
469,-727,0,0,0,0,0,0,0,0,0,-1,1693,1751,0,0
476,-727,0,0,0,0,0,0,0,0,0,-1,1700,1751,0,0
483,-727,0,0,0,0,0,0,0,0,0,-1,1707,1751,0,0
490,-727,0,0,0,0,0,0,0,0,0,-1,1714,1751,0,0
497,-727,0,0,0,0,0,0,0,0,0,-1,1721,1751,0,0
504,-727,0,0,0,0,0,0,0,0,0,-1,1728,1751,0,0
511,-727,0,0,0,0,0,0,0,0,0,-1,1735,1751,0,0
518,-727,0,0,0,0,0,0,0,0,0,-1,1742,1751,0,0
525,-727,0,0,0,0,0,0,0,0,0,-1,1749,1751,0,0
532,-727,0,0,0,0,0,0,0,0,0,-1,1756,1751,0,0
539,-727,0,0,0,0,0,0,0,0,0,-1,1763,1751,0,0
546,-727,0,0,0,0,0,0,0,0,0,-1,1770,1751,0,0
553,-727,0,0,0,0,0,0,0,0,0,-1,1777,1751,0,0
560,-727,0,0,0,0,0,0,0,0,0,-1,1784,1751,0,0
567,-727,0,0,0,0,0,0,0,0,0,-1,1791,1751,0,0
574,-727,0,0,0,0,0,0,0,0,0,-1,1798,1751,0,0
581,-727,0,0,0,0,0,0,0,0,0,-1,1805,1751,0,0
588,-727,0,0,0,0,0,0,0,0,0,-1,1812,1751,0,0
595,-727,0,0,0,0,0,0,0,0,0,-1,1819,1751,0,0
602,-727,0,0,0,0,0,0,0,0,0,-1,1826,1751,0,0
609,-727,0,0,0,0,0,0,0,0,0,-1,1833,1751,0,0
616,-727,0,0,0,0,0,0,0,0,0,-1,1840,1751,0,0
623,-727,0,0,0,0,0,0,0,0,0,-1,1847,1751,0,0
630,-727,0,0,0,0,0,0,0,0,0,-1,1854,1751,0,0
637,-727,0,0,0,0,0,0,0,0,0,-1,1861,1751,0,0
644,-727,0,0,0,0,0,0,0,0,0,-1,1868,1751,0,0
651,-727,0,0,0,0,0,0,0,0,0,-1,1875,1751,0,0
658,-727,0,0,0,0,0,0,0,0,0,-1,1882,1751,0,0
665,-727,0,0,0,0,0,0,0,0,0,-1,1889,1751,0,0
672,-727,0,0,0,0,0,0,0,0,0,-1,1896,1751,0,0
679,-727,0,0,0,0,0,0,0,0,0,-1,1903,1751,0,0
686,-727,0,0,0,0,0,0,0,0,0,-1,1910,1751,0,0
693,-727,0,0,0,0,0,0,0,0,0,-1,1917,1751,0,0
700,-727,0,0,0,0,0,0,0,0,0,-1,1924,1751,0,0
707,-727,0,0,0,0,0,0,0,0,0,-1,1931,1751,0,0
714,-727,0,0,0,0,0,0,0,0,0,-1,1938,1751,0,0
721,-727,0,0,0,0,0,0,0,0,0,-1,1945,1751,0,0
728,-727,0,0,0,0,0,0,0,0,0,-1,1952,1751,0,0
735,-727,0,0,0,0,0,0,0,0,0,-1,1959,1751,0,0
742,-727,0,0,0,0,0,0,0,0,0,-1,1966,1751,0,0
749,-727,0,0,0,0,0,0,0,0,0,-1,1973,1751,0,0
756,-727,0,0,0,0,0,0,0,0,0,-1,1980,1751,0,0
763,-727,0,0,0,0,0,0,0,0,0,-1,1987,1751,0,0
770,-727,0,0,0,0,0,0,0,0,0,-1,1994,1751,0,0
777,-727,0,0,0,0,0,0,0,0,0,-1,2001,1751,0,0
784,-727,0,0,0,0,0,0,0,0,0,-1,2008,1751,0,0
791,-727,0,0,0,0,0,0,0,0,0,-1,2015,1751,0,0
798,-727,0,0,0,0,0,0,0,0,0,-1,2022,1751,0,0
805,-727,0,0,0,0,0,0,0,0,0,-1,2029,1751,0,0
812,-727,0,0,0,0,0,0,0,0,0,-1,2036,1751,0,0
-700,-734,0,0,0,0,0,0,0,0,0,-1,524,1758,0,0
-693,-734,0,0,0,0,0,0,0,0,0,-1,531,1758,0,0
-686,-734,0,0,0,0,0,0,0,0,0,-1,538,1758,0,0
-679,-734,0,0,0,0,0,0,0,0,0,-1,545,1758,0,0
-672,-734,0,0,0,0,0,0,0,0,0,-1,552,1758,0,0
-665,-734,0,0,0,0,0,0,0,0,0,-1,559,1758,0,0
-658,-734,0,0,0,0,0,0,0,0,0,-1,566,1758,0,0
-651,-734,0,0,0,0,0,0,0,0,0,-1,573,1758,0,0
-644,-734,0,0,0,0,0,0,0,0,0,-1,580,1758,0,0
-637,-734,0,0,0,0,0,0,0,0,0,-1,587,1758,0,0
-630,-734,0,0,0,0,0,0,0,0,0,-1,594,1758,0,0
-623,-734,0,0,0,0,0,0,0,0,0,-1,601,1758,0,0
-616,-734,0,0,0,0,0,0,0,0,0,-1,608,1758,0,0
-609,-734,0,0,0,0,0,0,0,0,0,-1,615,1758,0,0
-602,-734,0,0,0,0,0,0,0,0,0,-1,622,1758,0,0
-595,-734,0,0,0,0,0,0,0,0,0,-1,629,1758,0,0
-588,-734,0,0,0,0,0,0,0,0,0,-1,636,1758,0,0
-581,-734,0,0,0,0,0,0,0,0,0,-1,643,1758,0,0
-574,-734,0,0,0,0,0,0,0,0,0,-1,650,1758,0,0
-567,-734,0,0,0,0,0,0,0,0,0,-1,657,1758,0,0
-560,-734,0,0,0,0,0,0,0,0,0,-1,664,1758,0,0
-553,-734,0,0,0,0,0,0,0,0,0,-1,671,1758,0,0
-546,-734,0,0,0,0,0,0,0,0,0,-1,678,1758,0,0
-539,-734,0,0,0,0,0,0,0,0,0,-1,685,1758,0,0
-532,-734,0,0,0,0,0,0,0,0,0,-1,692,1758,0,0
-525,-734,0,0,0,0,0,0,0,0,0,-1,699,1758,0,0
-518,-734,0,0,0,0,0,0,0,0,0,-1,706,1758,0,0
-511,-734,0,0,0,0,0,0,0,0,0,-1,713,1758,0,0
-504,-734,0,0,0,0,0,0,0,0,0,-1,720,1758,0,0
-497,-734,0,0,0,0,0,0,0,0,0,-1,727,1758,0,0
-490,-734,0,0,0,0,0,0,0,0,0,-1,734,1758,0,0
-483,-734,0,0,0,0,0,0,0,0,0,-1,741,1758,0,0
-476,-734,0,0,0,0,0,0,0,0,0,-1,748,1758,0,0
-469,-734,0,0,0,0,0,0,0,0,0,-1,755,1758,0,0
-462,-734,0,0,0,0,0,0,0,0,0,-1,762,1758,0,0
-455,-734,0,0,0,0,0,0,0,0,0,-1,769,1758,0,0
-448,-734,0,0,0,0,0,0,0,0,0,-1,776,1758,0,0
-441,-734,0,0,0,0,0,0,0,0,0,-1,783,1758,0,0
-434,-734,0,0,0,0,0,0,0,0,0,-1,790,1758,0,0
-427,-734,0,0,0,0,0,0,0,0,0,-1,797,1758,0,0
-420,-734,0,0,0,0,0,0,0,0,0,-1,804,1758,0,0
-413,-734,0,0,0,0,0,0,0,0,0,-1,811,1758,0,0
-406,-734,0,0,0,0,0,0,0,0,0,-1,818,1758,0,0
-399,-734,0,0,0,0,0,0,0,0,0,-1,825,1758,0,0
-392,-734,0,0,0,0,0,0,0,0,0,-1,832,1758,0,0
-385,-734,0,0,0,0,0,0,0,0,0,-1,839,1758,0,0
-378,-734,0,0,0,0,0,0,0,0,0,-1,846,1758,0,0
-371,-734,0,0,0,0,0,0,0,0,0,-1,853,1758,0,0
-364,-734,0,0,0,0,0,0,0,0,0,-1,860,1758,0,0
-357,-734,0,0,0,0,0,0,0,0,0,-1,867,1758,0,0
-350,-734,0,0,0,0,0,0,0,0,0,-1,874,1758,0,0
-343,-734,0,0,0,0,0,0,0,0,0,-1,881,1758,0,0
-336,-734,0,0,0,0,0,0,0,0,0,-1,888,1758,0,0
-329,-734,0,0,0,0,0,0,0,0,0,-1,895,1758,0,0
-322,-734,0,0,0,0,0,0,0,0,0,-1,902,1758,0,0
-315,-734,0,0,0,0,0,0,0,0,0,-1,909,1758,0,0
-308,-734,0,0,0,0,0,0,0,0,0,-1,916,1758,0,0
-301,-734,0,0,0,0,0,0,0,0,0,-1,923,1758,0,0
-294,-734,0,0,0,0,0,0,0,0,0,-1,930,1758,0,0
-287,-734,0,0,0,0,0,0,0,0,0,-1,937,1758,0,0
-280,-734,0,0,0,0,0,0,0,0,0,-1,944,1758,0,0
-273,-734,0,0,0,0,0,0,0,0,0,-1,951,1758,0,0
-266,-734,0,0,0,0,0,0,0,0,0,-1,958,1758,0,0
-259,-734,0,0,0,0,0,0,0,0,0,-1,965,1758,0,0
-252,-734,6.93439,18.351,0,0,0,0,0,0,0,-1,972,1758,6.93438,-18.3509
-245,-734,6.95746,19.5341,0,0,0,0,0,0,0,-1,979,1758,6.95746,-19.5341
-238,-734,4.33466,18.0819,0,0,0,0,0,0,0,-1,986,1758,4.33464,-18.0819
-231,-734,5.00385,17.5045,0,0,0,0,0,0,0,-1,993,1758,5.00388,-17.5045
-224,-734,5.60974,16.9055,0,0,0,0,0,0,0,-1,1000,1758,5.60974,-16.9056
-217,-734,6.61804,16.4808,0,0,0,0,0,0,0,-1,1007,1758,6.61804,-16.4808
-210,-734,7.62262,16.1628,0,0,0,0,0,0,0,-1,1014,1758,7.6226,-16.1628
-203,-734,5.16125,20.7495,0,0,0,0,0,0,0,-1,1021,1758,5.16126,-20.7495
-196,-734,5.51831,20.7374,0,0,0,0,0,0,0,-1,1028,1758,5.51833,-20.7374
-189,-734,5.11902,18.9406,0,0,0,0,0,0,0,-1,1035,1758,5.11908,-18.9406
-182,-734,5.75598,20.6118,0,0,0,0,0,0,0,-1,1042,1758,5.75592,-20.6118
-175,-734,6.39282,22.283,0,0,0,0,0,0,0,-1,1049,1758,6.39277,-22.283
-168,-734,4.50208,15.4194,0,0,0,0,0,0,0,-1,1056,1758,4.50212,-15.4194
-161,-734,6.17456,21.793,0,0,0,0,0,0,0,-1,1063,1758,6.1746,-21.7929
-154,-734,7.09827,21.0752,0,0,0,0,0,0,0,-1,1070,1758,7.09827,-21.0751
-147,-734,6.6604,21.5306,-0.0169459,0.00601453,-0.00893449,0.00908149,-0.0200128,-1.24013,0.0171883,0.0426127,1077,1758,6.66046,-21.5307
-140,-734,6.58923,22.0729,-0.0159483,0.00728133,-0.00857912,0.0101062,-0.0187732,-1.2527,0.016922,0.0412747,1084,1758,6.5892,-22.0728
-133,-734,6.37354,22.1614,-0.0145353,0.00798619,-0.0078804,0.0104697,-0.0170188,-1.2655,0.0160199,0.0413794,1091,1758,6.37349,-22.1614
-126,-734,6.13989,22.1523,-0.0127491,0.0084577,-0.00709011,0.0106098,-0.0149012,-1.2761,0.014798,0.0377677,1098,1758,6.13987,-22.1523
-119,-734,6.08862,22.4171,-0.010917,0.00872661,-0.00631612,0.0105822,-0.0127725,-1.28505,0.0135036,0.0342849,1105,1758,6.08859,-22.4171
-112,-734,6.17017,22.5637,-0.00899023,0.0087568,-0.00551913,0.0103332,-0.0105666,-1.29258,0.0120667,0.0269876,1112,1758,6.17017,-22.5637
-105,-734,6.14331,22.7151,-0.00727882,0.00848381,-0.00475882,0.0098091,-0.00860411,-1.29919,0.0106385,0.0205118,1119,1758,6.14327,-22.7151
-98,-734,6.19666,22.7911,-0.00585141,0.00804957,-0.00394069,0.00908897,-0.00689081,-1.31291,0.00925498,0.022642,1126,1758,6.1967,-22.7911
-91,-734,6.17651,22.9373,-0.00453679,0.00720173,-0.00323834,0.00803583,-0.0053709,-1.3187,0.00779118,0.0273991,1133,1758,6.17652,-22.9372
-84,-734,6.10718,23.0725,-0.00331371,0.00665369,-0.00205636,0.00706127,-0.00372129,-1.37513,0.00632408,0.0211523,1140,1758,6.10719,-23.0725
-77,-734,6.08813,23.2181,-0.00197864,0.0053536,-0.00103748,0.00549757,-0.00212261,-1.43291,0.00454107,0.0159821,1147,1758,6.08814,-23.2182
-70,-734,6.05151,23.2845,-0.000799766,0.00435457,-0.000839376,0.00448782,-0.000933013,-1.41337,0.00334652,0.0134758,1154,1758,6.05147,-23.2845
-63,-734,6.04651,23.3817,-0.0012754,0.00325534,-0.000830558,0.0034028,-0.00142286,-1.39509,0.0028632,0.0143112,1161,1758,6.04646,-23.3817
-56,-734,6.05579,23.5466,-0.00156739,0.00195603,-0.000272976,0.00197706,-0.00158841,-1.49393,0.0020626,0.0138393,1168,1758,6.05573,-23.5466
-49,-734,6.05151,23.6669,-0.00136806,-5.35354e-05,0.000512639,0.000122745,-0.00154434,1.23959,0.00107282,0.0133743,1175,1758,6.05154,-23.6669
-42,-734,6.05237,23.7643,-0.000761027,-0.000769733,0.000741576,-2.3791e-05,-0.00150697,0.782464,0.00099681,0.0144123,1182,1758,6.05242,-23.7643
-35,-734,6.06519,23.8456,-0.000533245,-0.00161761,0.000692237,-0.000196136,-0.00195472,0.453182,0.00124294,0.0132512,1189,1758,6.06521,-23.8455
-28,-734,6.03113,23.9115,-0.000832322,-0.00227152,0.000547343,-0.000647815,-0.00245603,0.325132,0.0014698,0.00917147,1196,1758,6.03118,-23.9115
-21,-734,6.05408,23.9772,-0.00118412,-0.0026721,0.000617709,-0.000961114,-0.00289511,0.346463,0.00170266,0.0140128,1203,1758,6.0541,-23.9772
-14,-734,6.02148,24.0692,-0.00154628,-0.00276738,0.00082746,-0.0011285,-0.00318516,0.467555,0.0018648,0.014312,1210,1758,6.02143,-24.0692
-7,-734,6.03027,24.1335,-0.00183132,-0.00286,0.0009945,-0.00122603,-0.00346529,0.546747,0.00202899,0.0167279,1217,1758,6.03029,-24.1336
0,-734,6.01208,24.2019,-0.0021167,-0.00274015,0.00109851,-0.00128655,-0.0035703,0.647145,0.00208795,0.0165065,1224,1758,6.01213,-24.202
7,-734,5.98376,24.2417,-0.00241899,-0.00241355,0.00119543,-0.00122084,-0.0036117,0.786536,0.00212138,0.0128239,1231,1758,5.9838,-24.2416
14,-734,5.96631,24.2898,-0.00272353,-0.00214745,0.00126434,-0.00113875,-0.00373223,0.897396,0.00220869,0.0139761,1238,1758,5.96628,-24.2898
21,-734,5.96204,24.3424,-0.0028793,-0.00181982,0.00127018,-0.000973343,-0.00372577,0.982961,0.00223133,0.0124389,1245,1758,5.96209,-24.3424
28,-734,5.97949,24.3901,-0.00284269,-0.00149903,0.00123577,-0.000764274,-0.00357744,1.03438,0.00217543,0.0113332,1252,1758,5.97943,-24.3901
35,-734,5.99316,24.4197,-0.00263337,-0.00117881,0.00102615,-0.000648351,-0.00316383,1.09369,0.00192976,0.0132792,1259,1758,5.99318,-24.4196
42,-734,5.98584,24.4188,-0.00244259,-0.000672283,0.000773536,-0.000381914,-0.00273296,1.21169,0.00170895,0.0113774,1266,1758,5.98579,-24.4189
49,-734,5.95483,24.4458,-0.00223968,-0.00048637,0.000388682,-0.000404068,-0.00232198,1.36213,0.00143242,0.00999888,1273,1758,5.95488,-24.4458
56,-734,5.95227,24.4847,-0.00185939,-0.000177061,0.000126132,-0.000167657,-0.0018688,1.49638,0.00119391,0.00890981,1280,1758,5.95224,-24.4848
63,-734,5.95325,24.4963,-0.00142205,-0.000107575,-0.000172757,-8.52491e-05,-0.00144438,-1.44228,0.000935798,0.0115678,1287,1758,5.95321,-24.4963
70,-734,5.95093,24.5142,-0.00100301,5.803e-05,-0.000322536,0.000148381,-0.00109336,-1.29767,0.00078307,0.0123577,1294,1758,5.95088,-24.5142
77,-734,5.96216,24.5684,-0.000323329,0.000145642,-0.000372723,0.000351504,-0.000529191,-1.06617,0.000511908,0.0164086,1301,1758,5.96216,-24.5683
84,-734,5.95532,24.5099,0.000104443,0.000101499,-0.00045841,0.000561383,-0.000355441,-0.783792,0.000533761,0.0156103,1308,1758,5.95531,-24.5098
91,-734,5.97168,24.4587,0.000484688,2.88739e-05,-0.00041348,0.000728911,-0.00021535,-0.533519,0.000571415,0.016895,1315,1758,5.97172,-24.4588
98,-734,5.95129,24.4771,0.000771104,-6.5924e-05,-0.000188962,0.000811785,-0.000106606,-0.212053,0.00058,0.0135941,1322,1758,5.95134,-24.4771
105,-734,5.94946,24.4713,0.000977622,-0.000155757,7.04096e-05,0.000981979,-0.000160114,0.0618069,0.000714033,0.0148939,1329,1758,5.94952,-24.4713
112,-734,5.95801,24.4401,0.00121202,-0.000258323,0.000303714,0.00127229,-0.000318588,0.195882,0.000971951,0.0125122,1336,1758,5.95797,-24.4401
119,-734,5.92358,24.4061,0.00150404,-0.000256676,0.000469714,0.00162151,-0.000374146,0.245062,0.00122492,0.013269,1343,1758,5.92353,-24.4062
126,-734,5.93176,24.3535,0.00173954,-0.000286879,0.000625412,0.00191702,-0.000464356,0.276506,0.00145766,0.0153434,1350,1758,5.93176,-24.3535
133,-734,5.93201,24.3324,0.00188998,-0.000185309,0.00073467,0.00212373,-0.00041906,0.308043,0.00157421,0.0137562,1357,1758,5.93205,-24.3324
140,-734,5.92737,24.3131,0.00193317,2.87883e-05,0.000830482,0.00224445,-0.000282496,0.358615,0.00159881,0.018422,1364,1758,5.9274,-24.3132
147,-734,5.91968,24.2255,0.0020441,0.000195576,0.000774866,0.00232594,-8.62624e-05,0.34885,0.00158016,0.0130069,1371,1758,5.91964,-24.2254
154,-734,5.91309,24.172,0.00201038,0.000828037,0.000654779,0.00230137,0.000537041,0.418204,0.00139025,0.00904891,1378,1758,5.91313,-24.172
161,-734,5.90356,24.1206,0.00163262,0.0011494,0.000134943,0.00166775,0.00111427,0.254681,0.000980853,0.00863637,1385,1758,5.90358,-24.1206
168,-734,5.88635,24.0469,0.00108018,0.00151435,-0.000179831,0.00157916,0.00101537,-1.22489,0.000924073,0.013875,1392,1758,5.88635,-24.0469
175,-734,5.91309,23.9728,0.000768898,0.00171658,-0.000543521,0.00196381,0.000521671,-1.14391,0.00117459,0.0163267,1399,1758,5.91308,-23.9728
182,-734,5.92163,23.8773,-0.000827062,0.00203581,-0.000516101,0.00212601,-0.00091726,-1.39778,0.00180264,0.0142886,1406,1758,5.92161,-23.8773
189,-734,5.8761,23.7928,-0.00214375,0.00259666,-0.000284807,0.00261371,-0.0021608,-1.511,0.0027607,0.0107758,1413,1758,5.87609,-23.7928
196,-734,5.85498,23.7261,-0.00390873,0.00422105,-0.000272218,0.00423015,-0.00391784,-1.53736,0.0047054,0.0118898,1420,1758,5.85502,-23.7261
203,-734,5.88293,23.6318,-0.00575205,0.00642627,0.00030677,0.00643399,-0.00575978,1.54563,0.00704366,0.0131838,1427,1758,5.88288,-23.6318
210,-734,5.8739,23.5211,-0.00681991,0.00844544,0.000738254,0.00848106,-0.00685553,1.52258,0.00887115,0.0150575,1434,1758,5.87387,-23.5211
217,-734,5.81885,23.4075,-0.00778962,0.0102523,0.00112066,0.0103216,-0.00785896,1.509,0.0105286,0.011689,1441,1758,5.81882,-23.4075
224,-734,5.80725,23.2972,-0.00867004,0.0117937,0.00149843,0.0119028,-0.00877918,1.49809,0.0119861,0.0126055,1448,1758,5.80726,-23.2973
231,-734,5.77942,23.1927,-0.00934348,0.0131947,0.00184408,0.0133446,-0.00949337,1.48969,0.0132479,0.0139558,1455,1758,5.77943,-23.1928
238,-734,5.75708,23.0813,-0.00963979,0.0143582,0.00213142,0.014546,-0.00982762,1.4829,0.0141597,0.017561,1462,1758,5.75705,-23.0812
245,-734,5.77417,22.9011,-0.00952647,0.0153565,0.00226369,0.0155608,-0.00973073,1.48081,0.0147308,0.0234323,1469,1758,5.77419,-22.9011
252,-734,5.75391,22.7156,-0.00930479,0.0159889,0.00220101,0.016179,-0.00949489,1.48464,0.0149893,0.0286089,1476,1758,5.75391,-22.7155
259,-734,5.797,22.6191,-0.00897849,0.016357,0.00214362,0.0165371,-0.00915858,1.48698,0.0150379,0.0386655,1483,1758,5.79698,-22.6192
266,-734,5.67249,22.5947,0,0,0,0,0,0,0,-1,1490,1758,5.67249,-22.5947
273,-734,5.93103,22.7224,0,0,0,0,0,0,0,-1,1497,1758,5.93099,-22.7224
280,-734,16.6191,7.38013,0,0,0,0,0,0,0,-1,1504,1758,16.6192,-7.38011
287,-734,14.848,9.10046,0,0,0,0,0,0,0,-1,1511,1758,14.848,-9.1005
294,-734,12.0439,5.7876,0,0,0,0,0,0,0,-1,1518,1758,12.044,-5.78759
301,-734,10.5892,5.92322,0,0,0,0,0,0,0,-1,1525,1758,10.5893,-5.92319
308,-734,9.00854,5.43774,0,0,0,0,0,0,0,-1,1532,1758,9.00857,-5.4377
315,-734,5.3158,17.4298,0,0,0,0,0,0,0,-1,1539,1758,5.31581,-17.4299
322,-734,9.85913,7.48096,0,0,0,0,0,0,0,-1,1546,1758,9.85916,-7.48098
329,-734,5.45972,12.4125,0,0,0,0,0,0,0,-1,1553,1758,5.45969,-12.4125
336,-734,5.92188,13.8751,0,0,0,0,0,0,0,-1,1560,1758,5.92183,-13.8751
343,-734,5.54968,5.14221,0,0,0,0,0,0,0,-1,1567,1758,5.54973,-5.14225
350,-734,5.07397,6.73242,0,0,0,0,0,0,0,-1,1574,1758,5.07402,-6.73243
357,-734,5.05542,7.19189,0,0,0,0,0,0,0,-1,1581,1758,5.05541,-7.19184
364,-734,4.43896,10.4904,0,0,0,0,0,0,0,-1,1588,1758,4.43893,-10.4904
371,-734,7.36975,17.4751,0,0,0,0,0,0,0,-1,1595,1758,7.36972,-17.4752
378,-734,0,0,0,0,0,0,0,0,0,-1,1602,1758,0,0
385,-734,0,0,0,0,0,0,0,0,0,-1,1609,1758,0,0
392,-734,0,0,0,0,0,0,0,0,0,-1,1616,1758,0,0
399,-734,0,0,0,0,0,0,0,0,0,-1,1623,1758,0,0
406,-734,0,0,0,0,0,0,0,0,0,-1,1630,1758,0,0
413,-734,0,0,0,0,0,0,0,0,0,-1,1637,1758,0,0
420,-734,0,0,0,0,0,0,0,0,0,-1,1644,1758,0,0
427,-734,0,0,0,0,0,0,0,0,0,-1,1651,1758,0,0
434,-734,0,0,0,0,0,0,0,0,0,-1,1658,1758,0,0
441,-734,0,0,0,0,0,0,0,0,0,-1,1665,1758,0,0
448,-734,0,0,0,0,0,0,0,0,0,-1,1672,1758,0,0
455,-734,0,0,0,0,0,0,0,0,0,-1,1679,1758,0,0
462,-734,0,0,0,0,0,0,0,0,0,-1,1686,1758,0,0
469,-734,0,0,0,0,0,0,0,0,0,-1,1693,1758,0,0
476,-734,0,0,0,0,0,0,0,0,0,-1,1700,1758,0,0
483,-734,0,0,0,0,0,0,0,0,0,-1,1707,1758,0,0
490,-734,0,0,0,0,0,0,0,0,0,-1,1714,1758,0,0
497,-734,0,0,0,0,0,0,0,0,0,-1,1721,1758,0,0
504,-734,0,0,0,0,0,0,0,0,0,-1,1728,1758,0,0
511,-734,0,0,0,0,0,0,0,0,0,-1,1735,1758,0,0
518,-734,0,0,0,0,0,0,0,0,0,-1,1742,1758,0,0
525,-734,0,0,0,0,0,0,0,0,0,-1,1749,1758,0,0
532,-734,0,0,0,0,0,0,0,0,0,-1,1756,1758,0,0
539,-734,0,0,0,0,0,0,0,0,0,-1,1763,1758,0,0
546,-734,0,0,0,0,0,0,0,0,0,-1,1770,1758,0,0
553,-734,0,0,0,0,0,0,0,0,0,-1,1777,1758,0,0
560,-734,0,0,0,0,0,0,0,0,0,-1,1784,1758,0,0
567,-734,0,0,0,0,0,0,0,0,0,-1,1791,1758,0,0
574,-734,0,0,0,0,0,0,0,0,0,-1,1798,1758,0,0
581,-734,0,0,0,0,0,0,0,0,0,-1,1805,1758,0,0
588,-734,0,0,0,0,0,0,0,0,0,-1,1812,1758,0,0
595,-734,0,0,0,0,0,0,0,0,0,-1,1819,1758,0,0
602,-734,0,0,0,0,0,0,0,0,0,-1,1826,1758,0,0
609,-734,0,0,0,0,0,0,0,0,0,-1,1833,1758,0,0
616,-734,0,0,0,0,0,0,0,0,0,-1,1840,1758,0,0
623,-734,0,0,0,0,0,0,0,0,0,-1,1847,1758,0,0
630,-734,0,0,0,0,0,0,0,0,0,-1,1854,1758,0,0
637,-734,0,0,0,0,0,0,0,0,0,-1,1861,1758,0,0
644,-734,0,0,0,0,0,0,0,0,0,-1,1868,1758,0,0
651,-734,0,0,0,0,0,0,0,0,0,-1,1875,1758,0,0
658,-734,0,0,0,0,0,0,0,0,0,-1,1882,1758,0,0
665,-734,0,0,0,0,0,0,0,0,0,-1,1889,1758,0,0
672,-734,0,0,0,0,0,0,0,0,0,-1,1896,1758,0,0
679,-734,0,0,0,0,0,0,0,0,0,-1,1903,1758,0,0
686,-734,0,0,0,0,0,0,0,0,0,-1,1910,1758,0,0
693,-734,0,0,0,0,0,0,0,0,0,-1,1917,1758,0,0
700,-734,0,0,0,0,0,0,0,0,0,-1,1924,1758,0,0
707,-734,0,0,0,0,0,0,0,0,0,-1,1931,1758,0,0
714,-734,0,0,0,0,0,0,0,0,0,-1,1938,1758,0,0
721,-734,0,0,0,0,0,0,0,0,0,-1,1945,1758,0,0
728,-734,0,0,0,0,0,0,0,0,0,-1,1952,1758,0,0
735,-734,0,0,0,0,0,0,0,0,0,-1,1959,1758,0,0
742,-734,0,0,0,0,0,0,0,0,0,-1,1966,1758,0,0
749,-734,0,0,0,0,0,0,0,0,0,-1,1973,1758,0,0
756,-734,0,0,0,0,0,0,0,0,0,-1,1980,1758,0,0
763,-734,0,0,0,0,0,0,0,0,0,-1,1987,1758,0,0
770,-734,0,0,0,0,0,0,0,0,0,-1,1994,1758,0,0
777,-734,0,0,0,0,0,0,0,0,0,-1,2001,1758,0,0
784,-734,0,0,0,0,0,0,0,0,0,-1,2008,1758,0,0
791,-734,0,0,0,0,0,0,0,0,0,-1,2015,1758,0,0
798,-734,0,0,0,0,0,0,0,0,0,-1,2022,1758,0,0
805,-734,0,0,0,0,0,0,0,0,0,-1,2029,1758,0,0
812,-734,0,0,0,0,0,0,0,0,0,-1,2036,1758,0,0
-700,-741,0,0,0,0,0,0,0,0,0,-1,524,1765,0,0
-693,-741,0,0,0,0,0,0,0,0,0,-1,531,1765,0,0
-686,-741,0,0,0,0,0,0,0,0,0,-1,538,1765,0,0
-679,-741,0,0,0,0,0,0,0,0,0,-1,545,1765,0,0
-672,-741,0,0,0,0,0,0,0,0,0,-1,552,1765,0,0
-665,-741,0,0,0,0,0,0,0,0,0,-1,559,1765,0,0
-658,-741,0,0,0,0,0,0,0,0,0,-1,566,1765,0,0
-651,-741,0,0,0,0,0,0,0,0,0,-1,573,1765,0,0
-644,-741,0,0,0,0,0,0,0,0,0,-1,580,1765,0,0
-637,-741,0,0,0,0,0,0,0,0,0,-1,587,1765,0,0
-630,-741,0,0,0,0,0,0,0,0,0,-1,594,1765,0,0
-623,-741,0,0,0,0,0,0,0,0,0,-1,601,1765,0,0
-616,-741,0,0,0,0,0,0,0,0,0,-1,608,1765,0,0
-609,-741,0,0,0,0,0,0,0,0,0,-1,615,1765,0,0
-602,-741,0,0,0,0,0,0,0,0,0,-1,622,1765,0,0
-595,-741,0,0,0,0,0,0,0,0,0,-1,629,1765,0,0
-588,-741,0,0,0,0,0,0,0,0,0,-1,636,1765,0,0
-581,-741,0,0,0,0,0,0,0,0,0,-1,643,1765,0,0
-574,-741,0,0,0,0,0,0,0,0,0,-1,650,1765,0,0
-567,-741,0,0,0,0,0,0,0,0,0,-1,657,1765,0,0
-560,-741,0,0,0,0,0,0,0,0,0,-1,664,1765,0,0
-553,-741,0,0,0,0,0,0,0,0,0,-1,671,1765,0,0
-546,-741,0,0,0,0,0,0,0,0,0,-1,678,1765,0,0
-539,-741,0,0,0,0,0,0,0,0,0,-1,685,1765,0,0
-532,-741,0,0,0,0,0,0,0,0,0,-1,692,1765,0,0
-525,-741,0,0,0,0,0,0,0,0,0,-1,699,1765,0,0
-518,-741,0,0,0,0,0,0,0,0,0,-1,706,1765,0,0
-511,-741,0,0,0,0,0,0,0,0,0,-1,713,1765,0,0
-504,-741,0,0,0,0,0,0,0,0,0,-1,720,1765,0,0
-497,-741,0,0,0,0,0,0,0,0,0,-1,727,1765,0,0
-490,-741,0,0,0,0,0,0,0,0,0,-1,734,1765,0,0
-483,-741,0,0,0,0,0,0,0,0,0,-1,741,1765,0,0
-476,-741,0,0,0,0,0,0,0,0,0,-1,748,1765,0,0
-469,-741,0,0,0,0,0,0,0,0,0,-1,755,1765,0,0
-462,-741,0,0,0,0,0,0,0,0,0,-1,762,1765,0,0
-455,-741,0,0,0,0,0,0,0,0,0,-1,769,1765,0,0
-448,-741,0,0,0,0,0,0,0,0,0,-1,776,1765,0,0
-441,-741,0,0,0,0,0,0,0,0,0,-1,783,1765,0,0
-434,-741,0,0,0,0,0,0,0,0,0,-1,790,1765,0,0
-427,-741,0,0,0,0,0,0,0,0,0,-1,797,1765,0,0
-420,-741,0,0,0,0,0,0,0,0,0,-1,804,1765,0,0
-413,-741,0,0,0,0,0,0,0,0,0,-1,811,1765,0,0
-406,-741,0,0,0,0,0,0,0,0,0,-1,818,1765,0,0
-399,-741,0,0,0,0,0,0,0,0,0,-1,825,1765,0,0
-392,-741,0,0,0,0,0,0,0,0,0,-1,832,1765,0,0
-385,-741,0,0,0,0,0,0,0,0,0,-1,839,1765,0,0
-378,-741,0,0,0,0,0,0,0,0,0,-1,846,1765,0,0
-371,-741,0,0,0,0,0,0,0,0,0,-1,853,1765,0,0
-364,-741,0,0,0,0,0,0,0,0,0,-1,860,1765,0,0
-357,-741,0,0,0,0,0,0,0,0,0,-1,867,1765,0,0
-350,-741,0,0,0,0,0,0,0,0,0,-1,874,1765,0,0
-343,-741,0,0,0,0,0,0,0,0,0,-1,881,1765,0,0
-336,-741,0,0,0,0,0,0,0,0,0,-1,888,1765,0,0
-329,-741,0,0,0,0,0,0,0,0,0,-1,895,1765,0,0
-322,-741,0,0,0,0,0,0,0,0,0,-1,902,1765,0,0
-315,-741,0,0,0,0,0,0,0,0,0,-1,909,1765,0,0
-308,-741,0,0,0,0,0,0,0,0,0,-1,916,1765,0,0
-301,-741,0,0,0,0,0,0,0,0,0,-1,923,1765,0,0
-294,-741,0,0,0,0,0,0,0,0,0,-1,930,1765,0,0
-287,-741,0,0,0,0,0,0,0,0,0,-1,937,1765,0,0
-280,-741,0,0,0,0,0,0,0,0,0,-1,944,1765,0,0
-273,-741,0,0,0,0,0,0,0,0,0,-1,951,1765,0,0
-266,-741,0,0,0,0,0,0,0,0,0,-1,958,1765,0,0
-259,-741,0,0,0,0,0,0,0,0,0,-1,965,1765,0,0
-252,-741,0,0,0,0,0,0,0,0,0,-1,972,1765,0,0
-245,-741,0,0,0,0,0,0,0,0,0,-1,979,1765,0,0
-238,-741,4.22437,17.0699,0,0,0,0,0,0,0,-1,986,1765,4.22434,-17.07
-231,-741,5.12506,16.7758,0,0,0,0,0,0,0,-1,993,1765,5.12506,-16.7757
-224,-741,5.91974,16.7001,0,0,0,0,0,0,0,-1,1000,1765,5.91972,-16.7001
-217,-741,6.90027,16.573,0,0,0,0,0,0,0,-1,1007,1765,6.90029,-16.573
-210,-741,3.48083,24.1105,0,0,0,0,0,0,0,-1,1014,1765,3.48082,-24.1105
-203,-741,4.40173,22.8218,0,0,0,0,0,0,0,-1,1021,1765,4.40174,-22.8218
-196,-741,5.35474,21.4691,0,0,0,0,0,0,0,-1,1028,1765,5.35471,-21.4691
-189,-741,6.27173,20.1274,0,0,0,0,0,0,0,-1,1035,1765,6.27176,-20.1274
-182,-741,5.80322,20.2147,0,0,0,0,0,0,0,-1,1042,1765,5.80324,-20.2147
-175,-741,4.89868,17.0417,0,0,0,0,0,0,0,-1,1049,1765,4.89864,-17.0417
-168,-741,5.4801,16.3933,0,0,0,0,0,0,0,-1,1056,1765,5.4801,-16.3933
-161,-741,3.73047,14.4974,0,0,0,0,0,0,0,-1,1063,1765,3.73043,-14.4974
-154,-741,2.46143,9.75415,0,0,0,0,0,0,0,-1,1070,1765,2.46145,-9.75416
-147,-741,7,22.1671,0,0,0,0,0,0,0,-1,1077,1765,7.00003,-22.1671
-140,-741,7.17432,22.0428,-0.0222842,0.0106461,-0.0126643,0.0149531,-0.0265912,-1.24297,0.0242974,0.0489446,1084,1765,7.1743,-22.0429
-133,-741,6.99182,21.9711,-0.0201966,0.0114712,-0.0116252,0.0152806,-0.024006,-1.25414,0.0228678,0.0474187,1091,1765,6.99177,-21.9711
-126,-741,6.30957,22.1932,-0.0176457,0.0120281,-0.0104909,0.0153624,-0.02098,-1.26307,0.0210657,0.0483613,1098,1765,6.30963,-22.1933
-119,-741,6.37671,21.8411,0,0,0,0,0,0,0,-1,1105,1765,6.37676,-21.841
-112,-741,6.39954,22.4811,-0.012321,0.0122919,-0.00826653,0.0148106,-0.0148396,-1.27505,0.0171186,0.0449595,1112,1765,6.39954,-22.4811
-105,-741,6.50439,22.4445,-0.00993029,0.0119716,-0.00709891,0.0140713,-0.0120299,-1.28323,0.0150849,0.0442451,1119,1765,6.50435,-22.4445
-98,-741,6.37158,22.7238,0,0,0,0,0,0,0,-1,1126,1765,6.37157,-22.7237
-91,-741,6.22217,22.858,0,0,0,0,0,0,0,-1,1133,1765,6.22213,-22.8581
-84,-741,6.14172,22.8584,0,0,0,0,0,0,0,-1,1140,1765,6.14167,-22.8584
-77,-741,6.17542,22.922,0,0,0,0,0,0,0,-1,1147,1765,6.17537,-22.922
-70,-741,6.06726,23.0127,0,0,0,0,0,0,0,-1,1154,1765,6.06729,-23.0127
-63,-741,6.03186,23.2054,0,0,0,0,0,0,0,-1,1161,1765,6.03187,-23.2054
-56,-741,6.16187,23.4746,0,0,0,0,0,0,0,-1,1168,1765,6.16192,-23.4746
-49,-741,6.15125,23.7063,0,0,0,0,0,0,0,-1,1175,1765,6.15126,-23.7062
-42,-741,6.11328,23.6163,0,0,0,0,0,0,0,-1,1182,1765,6.11324,-23.6163
-35,-741,6.12659,23.8376,-0.00150405,-0.000965123,0.000822988,-0.000368609,-0.00210057,0.943609,0.00129511,0.0222953,1189,1765,6.12659,-23.8376
-28,-741,6.12476,23.931,-0.00256403,-0.0013973,0.000352425,-0.00129911,-0.00266222,1.29907,0.00153718,0.0130436,1196,1765,6.1247,-23.931
-21,-741,6.12012,24,-0.00354307,-0.00156128,0.000236703,-0.0015334,-0.00357095,1.45355,0.00206853,0.016768,1203,1765,6.12017,-24
-14,-741,6.0813,24.0891,-0.00436145,-0.001447,0.000238295,-0.00142765,-0.00438081,1.48975,0.00257987,0.0166428,1210,1765,6.08135,-24.0891
-7,-741,6.07117,24.1348,-0.00494387,-0.00150614,0.000258375,-0.00148683,-0.00496318,1.4962,0.00294123,0.0145084,1217,1765,6.07121,-24.1347
0,-741,6.06006,24.1774,-0.00544932,-0.00143135,0.000206352,-0.00142078,-0.00545989,1.51962,0.00327086,0.0144985,1224,1765,6.06003,-24.1774
7,-741,6.03625,24.2323,-0.00590376,-0.00112488,0.000204892,-0.00111611,-0.00591253,1.52803,0.00362734,0.0165561,1231,1765,6.03627,-24.2323
14,-741,6.01587,24.2947,-0.0061938,-0.00041956,0.000387626,-0.000393655,-0.00621971,1.50407,0.00402168,0.0159974,1238,1765,6.01583,-24.2947
21,-741,5.99719,24.3245,-0.00623558,9.41724e-05,0.000533785,0.000138871,-0.00628028,1.48725,0.0042339,0.0120233,1245,1765,5.99724,-24.3244
28,-741,5.98914,24.3975,-0.00600172,0.000625901,0.000683531,0.000695662,-0.00607148,1.46909,0.00429835,0.0124243,1252,1765,5.98911,-24.3975
35,-741,5.99829,24.4127,-0.00546352,0.00116919,0.000720894,0.00124664,-0.00554097,1.46377,0.00417208,0.0142633,1259,1765,5.99835,-24.4127
42,-741,6.01453,24.4178,-0.00488467,0.00189926,0.00075648,0.00198259,-0.00496801,1.46108,0.00413448,0.0143807,1266,1765,6.01456,-24.4178
49,-741,5.98853,24.4369,-0.00423559,0.00192619,0.000360043,0.00194716,-0.00425656,1.51263,0.00366351,0.0096592,1273,1765,5.98855,-24.4369
56,-741,5.9718,24.4651,-0.00341527,0.00223551,0.000246362,0.00224623,-0.00342599,1.52731,0.00329839,0.00936991,1280,1765,5.97176,-24.4651
63,-741,5.95667,24.4828,-0.00247436,0.00191379,5.21443e-05,0.0019144,-0.00247498,1.55892,0.00254109,0.0140421,1287,1765,5.95668,-24.4827
70,-741,5.94702,24.5012,-0.00158,0.00182504,-4.24628e-05,0.00182557,-0.00158053,-1.55833,0.00196821,0.0162592,1294,1765,5.94702,-24.5012
77,-741,5.95227,24.535,-0.000343486,0.00161071,-0.000137472,0.00162033,-0.000353109,-1.50091,0.00121515,0.0137698,1301,1765,5.95233,-24.535
84,-741,5.92871,24.5304,0.000492325,0.00116722,-0.000390961,0.00134622,0.000313322,-1.14143,0.000813411,0.016302,1308,1765,5.92865,-24.5303
91,-741,5.92896,24.5199,0.0011743,0.000625169,-0.000555598,0.00151947,0.000279996,-0.555909,0.000933749,0.0123531,1315,1765,5.92893,-24.5199
98,-741,5.93567,24.4869,0.00161521,0.000221456,-0.000557916,0.00181103,2.56367e-05,-0.337551,0.0011989,0.00966342,1322,1765,5.93562,-24.487
105,-741,5.92065,24.4481,0.00194984,-9.405e-05,-0.000475428,0.00205502,-0.000199227,-0.217719,0.00144102,0.0105841,1329,1765,5.92068,-24.4481
112,-741,5.93164,24.4135,0.00231778,-0.00041247,-0.000390036,0.0023724,-0.000467096,-0.13915,0.00175811,0.0105709,1336,1765,5.93167,-24.4134
119,-741,5.92139,24.3741,0.00270666,-0.000857266,-0.000451184,0.00276289,-0.000913498,-0.123992,0.00221027,0.0133152,1343,1765,5.92135,-24.3741
126,-741,5.90955,24.3241,0.00302058,-0.000738421,-0.000330024,0.00304933,-0.000767175,-0.0869098,0.00233108,0.0170213,1350,1765,5.90951,-24.324
133,-741,5.89392,24.2949,0.00322205,-0.000453998,-0.000151018,0.00322825,-0.000460192,-0.0409894,0.00232082,0.013111,1357,1765,5.89392,-24.295
140,-741,5.87317,24.2596,0.00325559,-8.96779e-05,9.43051e-05,0.00325825,-9.23345e-05,0.0281608,0.00220359,0.0106786,1364,1765,5.87321,-24.2597
147,-741,5.87317,24.215,0.00338072,8.19372e-05,0.000251586,0.0033998,6.28599e-05,0.075683,0.00224587,0.00970002,1371,1765,5.87317,-24.215
154,-741,5.86768,24.183,0.00325681,0.00132232,0.00093781,0.0036368,0.000942329,0.384974,0.00217943,0.00818714,1378,1765,5.86772,-24.183
161,-741,5.84888,24.1199,0.00266652,0.00138727,0.000453708,0.00281109,0.00124269,0.308482,0.00162661,0.00992054,1385,1765,5.84882,-24.1199
168,-741,5.85522,24.0537,0.00180155,0.00175023,0.000140061,0.00191828,0.0016335,0.694797,0.00119529,0.0237483,1392,1765,5.85521,-24.0537
175,-741,5.82678,23.9742,0,0,0,0,0,0,0,-1,1399,1765,5.82682,-23.9742
182,-741,5.85498,23.8663,0,0,0,0,0,0,0,-1,1406,1765,5.855,-23.8663
189,-741,5.7937,23.7898,0,0,0,0,0,0,0,-1,1413,1765,5.79372,-23.7898
196,-741,5.76001,23.7319,0,0,0,0,0,0,0,-1,1420,1765,5.75996,-23.7319
203,-741,5.78674,23.63,0,0,0,0,0,0,0,-1,1427,1765,5.78675,-23.63
210,-741,5.73706,23.4535,0,0,0,0,0,0,0,-1,1434,1765,5.73709,-23.4535
217,-741,5.74158,23.3438,0,0,0,0,0,0,0,-1,1441,1765,5.74155,-23.3438
224,-741,5.65637,23.1616,-0.0127771,0.0165526,0.0021554,0.0167101,-0.0129346,1.49783,0.0171616,0.0353209,1448,1765,5.65637,-23.1616
231,-741,5.64258,23.0988,-0.0136899,0.0185277,0.00262013,0.0187394,-0.0139016,1.49018,0.0189142,0.033737,1455,1765,5.64264,-23.0987
238,-741,5.5094,23.0981,-0.0141367,0.0201766,0.00300244,0.0204373,-0.0143974,1.48417,0.0202124,0.037834,1462,1765,5.50945,-23.0982
245,-741,5.18665,22.7435,-0.014082,0.0216051,0.00320793,0.0218912,-0.014368,1.48186,0.0210839,0.0423816,1469,1765,5.1867,-22.7435
252,-741,5.02429,22.3683,-0.0138287,0.0226388,0.00319496,0.0229166,-0.0141065,1.48407,0.0215761,0.0485345,1476,1765,5.02428,-22.3683
259,-741,5.69153,22.5289,0,0,0,0,0,0,0,-1,1483,1765,5.69147,-22.529
266,-741,4.40173,15.2345,0,0,0,0,0,0,0,-1,1490,1765,4.40175,-15.2345
273,-741,17.0328,7.54468,0,0,0,0,0,0,0,-1,1497,1765,17.0328,-7.54474
280,-741,16.2363,9.84546,0,0,0,0,0,0,0,-1,1504,1765,16.2363,-9.84547
287,-741,14.5045,8.71423,0,0,0,0,0,0,0,-1,1511,1765,14.5045,-8.71429
294,-741,11.9165,6.87305,0,0,0,0,0,0,0,-1,1518,1765,11.9165,-6.87305
301,-741,10.8608,6.83752,0,0,0,0,0,0,0,-1,1525,1765,10.8608,-6.83747
308,-741,9.80518,6.80188,0,0,0,0,0,0,0,-1,1532,1765,9.80519,-6.80189
315,-741,9.70715,6.86963,0,0,0,0,0,0,0,-1,1539,1765,9.70712,-6.86963
322,-741,9.21252,8.54858,0,0,0,0,0,0,0,-1,1546,1765,9.21251,-8.54858
329,-741,8.5603,10.1146,0,0,0,0,0,0,0,-1,1553,1765,8.56033,-10.1146
336,-741,4.74475,14.6453,0,0,0,0,0,0,0,-1,1560,1765,4.7447,-14.6452
343,-741,5.42297,5.93701,0,0,0,0,0,0,0,-1,1567,1765,5.42296,-5.937
350,-741,4.90369,5.44666,0,0,0,0,0,0,0,-1,1574,1765,4.90368,-5.44664
357,-741,4.02063,5.16626,0,0,0,0,0,0,0,-1,1581,1765,4.02058,-5.1662
364,-741,0,0,0,0,0,0,0,0,0,-1,1588,1765,0,0
371,-741,0,0,0,0,0,0,0,0,0,-1,1595,1765,0,0
378,-741,0,0,0,0,0,0,0,0,0,-1,1602,1765,0,0
385,-741,0,0,0,0,0,0,0,0,0,-1,1609,1765,0,0
392,-741,0,0,0,0,0,0,0,0,0,-1,1616,1765,0,0
399,-741,0,0,0,0,0,0,0,0,0,-1,1623,1765,0,0
406,-741,0,0,0,0,0,0,0,0,0,-1,1630,1765,0,0
413,-741,0,0,0,0,0,0,0,0,0,-1,1637,1765,0,0
420,-741,0,0,0,0,0,0,0,0,0,-1,1644,1765,0,0
427,-741,0,0,0,0,0,0,0,0,0,-1,1651,1765,0,0
434,-741,0,0,0,0,0,0,0,0,0,-1,1658,1765,0,0
441,-741,0,0,0,0,0,0,0,0,0,-1,1665,1765,0,0
448,-741,0,0,0,0,0,0,0,0,0,-1,1672,1765,0,0
455,-741,0,0,0,0,0,0,0,0,0,-1,1679,1765,0,0
462,-741,0,0,0,0,0,0,0,0,0,-1,1686,1765,0,0
469,-741,0,0,0,0,0,0,0,0,0,-1,1693,1765,0,0
476,-741,0,0,0,0,0,0,0,0,0,-1,1700,1765,0,0
483,-741,0,0,0,0,0,0,0,0,0,-1,1707,1765,0,0
490,-741,0,0,0,0,0,0,0,0,0,-1,1714,1765,0,0
497,-741,0,0,0,0,0,0,0,0,0,-1,1721,1765,0,0
504,-741,0,0,0,0,0,0,0,0,0,-1,1728,1765,0,0
511,-741,0,0,0,0,0,0,0,0,0,-1,1735,1765,0,0
518,-741,0,0,0,0,0,0,0,0,0,-1,1742,1765,0,0
525,-741,0,0,0,0,0,0,0,0,0,-1,1749,1765,0,0
532,-741,0,0,0,0,0,0,0,0,0,-1,1756,1765,0,0
539,-741,0,0,0,0,0,0,0,0,0,-1,1763,1765,0,0
546,-741,0,0,0,0,0,0,0,0,0,-1,1770,1765,0,0
553,-741,0,0,0,0,0,0,0,0,0,-1,1777,1765,0,0
560,-741,0,0,0,0,0,0,0,0,0,-1,1784,1765,0,0
567,-741,0,0,0,0,0,0,0,0,0,-1,1791,1765,0,0
574,-741,0,0,0,0,0,0,0,0,0,-1,1798,1765,0,0
581,-741,0,0,0,0,0,0,0,0,0,-1,1805,1765,0,0
588,-741,0,0,0,0,0,0,0,0,0,-1,1812,1765,0,0
595,-741,0,0,0,0,0,0,0,0,0,-1,1819,1765,0,0
602,-741,0,0,0,0,0,0,0,0,0,-1,1826,1765,0,0
609,-741,0,0,0,0,0,0,0,0,0,-1,1833,1765,0,0
616,-741,0,0,0,0,0,0,0,0,0,-1,1840,1765,0,0
623,-741,0,0,0,0,0,0,0,0,0,-1,1847,1765,0,0
630,-741,0,0,0,0,0,0,0,0,0,-1,1854,1765,0,0
637,-741,0,0,0,0,0,0,0,0,0,-1,1861,1765,0,0
644,-741,0,0,0,0,0,0,0,0,0,-1,1868,1765,0,0
651,-741,0,0,0,0,0,0,0,0,0,-1,1875,1765,0,0
658,-741,0,0,0,0,0,0,0,0,0,-1,1882,1765,0,0
665,-741,0,0,0,0,0,0,0,0,0,-1,1889,1765,0,0
672,-741,0,0,0,0,0,0,0,0,0,-1,1896,1765,0,0
679,-741,0,0,0,0,0,0,0,0,0,-1,1903,1765,0,0
686,-741,0,0,0,0,0,0,0,0,0,-1,1910,1765,0,0
693,-741,0,0,0,0,0,0,0,0,0,-1,1917,1765,0,0
700,-741,0,0,0,0,0,0,0,0,0,-1,1924,1765,0,0
707,-741,0,0,0,0,0,0,0,0,0,-1,1931,1765,0,0
714,-741,0,0,0,0,0,0,0,0,0,-1,1938,1765,0,0
721,-741,0,0,0,0,0,0,0,0,0,-1,1945,1765,0,0
728,-741,0,0,0,0,0,0,0,0,0,-1,1952,1765,0,0
735,-741,0,0,0,0,0,0,0,0,0,-1,1959,1765,0,0
742,-741,0,0,0,0,0,0,0,0,0,-1,1966,1765,0,0
749,-741,0,0,0,0,0,0,0,0,0,-1,1973,1765,0,0
756,-741,0,0,0,0,0,0,0,0,0,-1,1980,1765,0,0
763,-741,0,0,0,0,0,0,0,0,0,-1,1987,1765,0,0
770,-741,0,0,0,0,0,0,0,0,0,-1,1994,1765,0,0
777,-741,0,0,0,0,0,0,0,0,0,-1,2001,1765,0,0
784,-741,0,0,0,0,0,0,0,0,0,-1,2008,1765,0,0
791,-741,0,0,0,0,0,0,0,0,0,-1,2015,1765,0,0
798,-741,0,0,0,0,0,0,0,0,0,-1,2022,1765,0,0
805,-741,0,0,0,0,0,0,0,0,0,-1,2029,1765,0,0
812,-741,0,0,0,0,0,0,0,0,0,-1,2036,1765,0,0
-700,-748,0,0,0,0,0,0,0,0,0,-1,524,1772,0,0
-693,-748,0,0,0,0,0,0,0,0,0,-1,531,1772,0,0
-686,-748,0,0,0,0,0,0,0,0,0,-1,538,1772,0,0
-679,-748,0,0,0,0,0,0,0,0,0,-1,545,1772,0,0
-672,-748,0,0,0,0,0,0,0,0,0,-1,552,1772,0,0
-665,-748,0,0,0,0,0,0,0,0,0,-1,559,1772,0,0
-658,-748,0,0,0,0,0,0,0,0,0,-1,566,1772,0,0
-651,-748,0,0,0,0,0,0,0,0,0,-1,573,1772,0,0
-644,-748,0,0,0,0,0,0,0,0,0,-1,580,1772,0,0
-637,-748,0,0,0,0,0,0,0,0,0,-1,587,1772,0,0
-630,-748,0,0,0,0,0,0,0,0,0,-1,594,1772,0,0
-623,-748,0,0,0,0,0,0,0,0,0,-1,601,1772,0,0
-616,-748,0,0,0,0,0,0,0,0,0,-1,608,1772,0,0
-609,-748,0,0,0,0,0,0,0,0,0,-1,615,1772,0,0
-602,-748,0,0,0,0,0,0,0,0,0,-1,622,1772,0,0
-595,-748,0,0,0,0,0,0,0,0,0,-1,629,1772,0,0
-588,-748,0,0,0,0,0,0,0,0,0,-1,636,1772,0,0
-581,-748,0,0,0,0,0,0,0,0,0,-1,643,1772,0,0
-574,-748,0,0,0,0,0,0,0,0,0,-1,650,1772,0,0
-567,-748,0,0,0,0,0,0,0,0,0,-1,657,1772,0,0
-560,-748,0,0,0,0,0,0,0,0,0,-1,664,1772,0,0
-553,-748,0,0,0,0,0,0,0,0,0,-1,671,1772,0,0
-546,-748,0,0,0,0,0,0,0,0,0,-1,678,1772,0,0
-539,-748,0,0,0,0,0,0,0,0,0,-1,685,1772,0,0
-532,-748,0,0,0,0,0,0,0,0,0,-1,692,1772,0,0
-525,-748,0,0,0,0,0,0,0,0,0,-1,699,1772,0,0
-518,-748,0,0,0,0,0,0,0,0,0,-1,706,1772,0,0
-511,-748,0,0,0,0,0,0,0,0,0,-1,713,1772,0,0
-504,-748,0,0,0,0,0,0,0,0,0,-1,720,1772,0,0
-497,-748,0,0,0,0,0,0,0,0,0,-1,727,1772,0,0
-490,-748,0,0,0,0,0,0,0,0,0,-1,734,1772,0,0
-483,-748,0,0,0,0,0,0,0,0,0,-1,741,1772,0,0
-476,-748,0,0,0,0,0,0,0,0,0,-1,748,1772,0,0
-469,-748,0,0,0,0,0,0,0,0,0,-1,755,1772,0,0
-462,-748,0,0,0,0,0,0,0,0,0,-1,762,1772,0,0
-455,-748,0,0,0,0,0,0,0,0,0,-1,769,1772,0,0
-448,-748,0,0,0,0,0,0,0,0,0,-1,776,1772,0,0
-441,-748,0,0,0,0,0,0,0,0,0,-1,783,1772,0,0
-434,-748,0,0,0,0,0,0,0,0,0,-1,790,1772,0,0
-427,-748,0,0,0,0,0,0,0,0,0,-1,797,1772,0,0
-420,-748,0,0,0,0,0,0,0,0,0,-1,804,1772,0,0
-413,-748,0,0,0,0,0,0,0,0,0,-1,811,1772,0,0
-406,-748,0,0,0,0,0,0,0,0,0,-1,818,1772,0,0
-399,-748,0,0,0,0,0,0,0,0,0,-1,825,1772,0,0
-392,-748,0,0,0,0,0,0,0,0,0,-1,832,1772,0,0
-385,-748,0,0,0,0,0,0,0,0,0,-1,839,1772,0,0
-378,-748,0,0,0,0,0,0,0,0,0,-1,846,1772,0,0
-371,-748,0,0,0,0,0,0,0,0,0,-1,853,1772,0,0
-364,-748,0,0,0,0,0,0,0,0,0,-1,860,1772,0,0
-357,-748,0,0,0,0,0,0,0,0,0,-1,867,1772,0,0
-350,-748,0,0,0,0,0,0,0,0,0,-1,874,1772,0,0
-343,-748,0,0,0,0,0,0,0,0,0,-1,881,1772,0,0
-336,-748,0,0,0,0,0,0,0,0,0,-1,888,1772,0,0
-329,-748,0,0,0,0,0,0,0,0,0,-1,895,1772,0,0
-322,-748,0,0,0,0,0,0,0,0,0,-1,902,1772,0,0
-315,-748,0,0,0,0,0,0,0,0,0,-1,909,1772,0,0
-308,-748,0,0,0,0,0,0,0,0,0,-1,916,1772,0,0
-301,-748,0,0,0,0,0,0,0,0,0,-1,923,1772,0,0
-294,-748,0,0,0,0,0,0,0,0,0,-1,930,1772,0,0
-287,-748,0,0,0,0,0,0,0,0,0,-1,937,1772,0,0
-280,-748,0,0,0,0,0,0,0,0,0,-1,944,1772,0,0
-273,-748,0,0,0,0,0,0,0,0,0,-1,951,1772,0,0
-266,-748,0,0,0,0,0,0,0,0,0,-1,958,1772,0,0
-259,-748,0,0,0,0,0,0,0,0,0,-1,965,1772,0,0
-252,-748,0,0,0,0,0,0,0,0,0,-1,972,1772,0,0
-245,-748,0,0,0,0,0,0,0,0,0,-1,979,1772,0,0
-238,-748,0,0,0,0,0,0,0,0,0,-1,986,1772,0,0
-231,-748,0,0,0,0,0,0,0,0,0,-1,993,1772,0,0
-224,-748,0,0,0,0,0,0,0,0,0,-1,1000,1772,0,0
-217,-748,6.99335,16.3577,0,0,0,0,0,0,0,-1,1007,1772,6.99334,-16.3576
-210,-748,6.75439,17.6121,0,0,0,0,0,0,0,-1,1014,1772,6.75438,-17.6121
-203,-748,4.17139,23.6105,0,0,0,0,0,0,0,-1,1021,1772,4.17138,-23.6105
-196,-748,5.10657,22.2775,0,0,0,0,0,0,0,-1,1028,1772,5.10651,-22.2775
-189,-748,3.88757,19.2534,0,0,0,0,0,0,0,-1,1035,1772,3.88761,-19.2534
-182,-748,4.16626,18.2874,0,0,0,0,0,0,0,-1,1042,1772,4.16629,-18.2873
-175,-748,4.62305,16.7603,0,0,0,0,0,0,0,-1,1049,1772,4.62301,-16.7603
-168,-748,4.96484,14.9984,0,0,0,0,0,0,0,-1,1056,1772,4.96479,-14.9984
-161,-748,3.50562,13.2729,0,0,0,0,0,0,0,-1,1063,1772,3.5056,-13.2729
-154,-748,-3.38562,10.6989,0,0,0,0,0,0,0,-1,1070,1772,-3.38564,-10.6989
-147,-748,-6.38733,11.0702,0,0,0,0,0,0,0,-1,1077,1772,-6.38731,-11.0702
-140,-748,7.78027,21.7025,0,0,0,0,0,0,0,-1,1084,1772,7.78023,-21.7025
-133,-748,7.66187,21.6885,0,0,0,0,0,0,0,-1,1091,1772,7.66189,-21.6885
-126,-748,6.42224,22.1788,0,0,0,0,0,0,0,-1,1098,1772,6.42227,-22.1788
-119,-748,6.17249,21.2526,0,0,0,0,0,0,0,-1,1105,1772,6.17244,-21.2525
-112,-748,6.66479,22.3693,0,0,0,0,0,0,0,-1,1112,1772,6.66483,-22.3692
-105,-748,6.88281,22.0834,0,0,0,0,0,0,0,-1,1119,1772,6.88285,-22.0834
-98,-748,5.71484,19.6533,0,0,0,0,0,0,0,-1,1126,1772,5.71486,-19.6533
-91,-748,4.85352,15.3033,0,0,0,0,0,0,0,-1,1133,1772,4.85351,-15.3033
-84,-748,-0.192017,7.26196,0,0,0,0,0,0,0,-1,1140,1772,-0.192047,-7.26201
-77,-748,4.42615,13.5537,0,0,0,0,0,0,0,-1,1147,1772,4.4261,-13.5538
-70,-748,4.46191,13.7446,0,0,0,0,0,0,0,-1,1154,1772,4.4619,-13.7446
-63,-748,4.49768,13.9355,0,0,0,0,0,0,0,-1,1161,1772,4.49769,-13.9355
-56,-748,3.05762,7.87817,0,0,0,0,0,0,0,-1,1168,1772,3.05768,-7.87822
-49,-748,3.04102,7.82471,0,0,0,0,0,0,0,-1,1175,1772,3.04096,-7.82468
-42,-748,0.793457,14.9474,0,0,0,0,0,0,0,-1,1182,1772,0.793413,-14.9474
-35,-748,6.22839,23.7861,0,0,0,0,0,0,0,-1,1189,1772,6.22842,-23.7861
-28,-748,6.21899,23.9729,-0.00564789,0.00333813,0.000239643,0.00334452,-0.00565427,1.54415,0.00525219,0.0484083,1196,1772,6.21902,-23.9729
-21,-748,6.19971,24.0537,-0.00739495,0.00342709,-7.87882e-05,0.00342767,-0.00739552,-1.56352,0.00638721,0.0231266,1203,1772,6.1997,-24.0537
-14,-748,6.15637,24.0671,-0.00858528,0.00370488,-0.000317673,0.00371308,-0.00859348,-1.54497,0.00728906,0.0161389,1210,1772,6.15633,-24.0672
-7,-748,6.13464,24.1119,-0.00944073,0.00356345,-0.000368091,0.00357387,-0.00945114,-1.54252,0.00777099,0.0145972,1217,1772,6.13463,-24.1119
0,-748,6.11108,24.1617,-0.0101467,0.00351246,-0.000584215,0.00353741,-0.0101716,-1.52813,0.00821804,0.0142707,1224,1772,6.11106,-24.1617
7,-748,6.09912,24.2301,-0.0107181,0.00361855,-0.000739148,0.00365656,-0.0107561,-1.51942,0.00865114,0.0141458,1231,1772,6.09911,-24.2301
14,-748,6.07605,24.2994,-0.0105323,0.0046022,-0.000386824,0.00461208,-0.0105422,-1.54526,0.00896982,0.015407,1238,1772,6.07608,-24.2994
21,-748,6.05933,24.3293,-0.00978386,0.00513353,9.57617e-05,0.00513414,-0.00978448,1.56438,0.00875164,0.0112485,1245,1772,6.05935,-24.3293
28,-748,6.04639,24.3771,-0.00879811,0.0057304,0.000597322,0.00575492,-0.00882262,1.52977,0.00847824,0.0110491,1252,1772,6.04643,-24.3771
35,-748,6.02612,24.416,-0.00730469,0.00632328,0.00109333,0.00641044,-0.00739185,1.49125,0.00797547,0.0117045,1259,1772,6.0261,-24.416
42,-748,6.0354,24.4308,-0.00570382,0.00708727,0.00165029,0.00729676,-0.00591331,1.44453,0.00764077,0.0136696,1266,1772,6.03543,-24.4308
49,-748,6.0177,24.428,-0.00404807,0.00687045,0.00154977,0.00708616,-0.00426378,1.4325,0.00662008,0.0106227,1273,1772,6.0177,-24.428
56,-748,5.99036,24.4587,-0.00229401,0.00704587,0.00182914,0.00739131,-0.00263945,1.38414,0.00600397,0.0102521,1280,1772,5.99031,-24.4587
63,-748,5.98279,24.4674,-0.00045364,0.00612291,0.00194674,0.00665596,-0.000986691,1.30353,0.00480013,0.0123431,1287,1772,5.98276,-24.4674
70,-748,5.97693,24.4717,0.00120404,0.00556334,0.00210515,0.00641395,0.000353417,1.18679,0.00416317,0.014056,1294,1772,5.97698,-24.4717
77,-748,5.96997,24.476,0.00309044,0.0048794,0.00207817,0.00624741,0.00172243,0.988624,0.00372596,0.0132362,1301,1772,5.97001,-24.4759
84,-748,5.94067,24.5024,0.00425471,0.00384736,0.00173291,0.00579587,0.0023062,0.7269,0.00336942,0.0145171,1308,1772,5.9407,-24.5025
91,-748,5.91833,24.5087,0.00499696,0.00260568,0.00136633,0.00561692,0.00198572,0.425961,0.00328899,0.0110443,1315,1772,5.91837,-24.5087
98,-748,5.90979,24.4824,0.00520065,0.00158344,0.000952594,0.00543618,0.00134791,0.24239,0.00326881,0.0102164,1322,1772,5.90982,-24.4824
105,-748,5.90381,24.4324,0.00535835,0.000673603,0.000702479,0.00546142,0.000570533,0.145683,0.00346646,0.0114811,1329,1772,5.90379,-24.4323
112,-748,5.91211,24.3895,0.00557711,-0.000183492,0.000436279,0.00560996,-0.000216346,0.0751636,0.00381414,0.014117,1336,1772,5.91212,-24.3896
119,-748,5.90161,24.3616,0.00543474,-0.00155416,-0.000237789,0.00544282,-0.00156224,-0.0339714,0.0042462,0.0125508,1343,1772,5.90159,-24.3616
126,-748,5.88501,24.3445,0.00526434,-0.00157642,-0.000613334,0.00531889,-0.00163098,-0.0887159,0.0041966,0.0142835,1350,1772,5.88502,-24.3444
133,-748,5.83215,24.3088,0.00556514,-0.00135069,-0.000592027,0.00561545,-0.001401,-0.0847826,0.00428763,0.00865004,1357,1772,5.83214,-24.3089
140,-748,5.82581,24.2617,0.00565432,-0.000925728,-0.000355462,0.00567347,-0.000944875,-0.0538124,0.00413343,0.0115714,1364,1772,5.82581,-24.2617
147,-748,5.86548,24.2192,0.00588552,-0.000718228,-0.000105566,0.0058872,-0.000719915,-0.0159804,0.00418546,0.0136118,1371,1772,5.86553,-24.2193
154,-748,5.83691,24.1764,0.00576848,0.00136554,0.00153829,0.00625268,0.000881342,0.304945,0.00390794,0.0122219,1378,1772,5.83687,-24.1764
161,-748,5.77979,24.1438,0.00500182,0.0013261,0.00106963,0.00529042,0.0010375,0.26354,0.00323702,0.018617,1385,1772,5.77977,-24.1437
168,-748,5.73438,24.1316,0,0,0,0,0,0,0,-1,1392,1772,5.73432,-24.1316
175,-748,11.6235,16.8242,0,0,0,0,0,0,0,-1,1399,1772,11.6236,-16.8242
182,-748,7.62476,10.3058,0,0,0,0,0,0,0,-1,1406,1772,7.62476,-10.3058
189,-748,6.15857,6.95898,0,0,0,0,0,0,0,-1,1413,1772,6.15862,-6.95896
196,-748,3.9425,8.46021,0,0,0,0,0,0,0,-1,1420,1772,3.9425,-8.46026
203,-748,3.9668,12.9835,0,0,0,0,0,0,0,-1,1427,1772,3.96678,-12.9836
210,-748,4.71472,16.8318,0,0,0,0,0,0,0,-1,1434,1772,4.71471,-16.8317
217,-748,5.38452,21.5551,0,0,0,0,0,0,0,-1,1441,1772,5.38455,-21.555
224,-748,5.57886,22.9442,0,0,0,0,0,0,0,-1,1448,1772,5.57884,-22.9442
231,-748,5.45654,22.8936,-0.0198656,0.025818,0.00376649,0.0261264,-0.020174,1.48908,0.0268051,0.0419949,1455,1772,5.45651,-22.8936
238,-748,5.04651,22.8798,-0.0205332,0.0281553,0.00425832,0.028525,-0.0209028,1.48421,0.02865,0.042799,1462,1772,5.04656,-22.8798
245,-748,4.80054,22.308,-0.0206038,0.0302272,0.00455825,0.0306327,-0.0210093,1.48207,0.0299876,0.0462113,1469,1772,4.80048,-22.308
252,-748,4.59619,22.0194,0,0,0,0,0,0,0,-1,1476,1772,4.59621,-22.0195
259,-748,3.5614,20.4832,0,0,0,0,0,0,0,-1,1483,1772,3.56142,-20.4832
266,-748,17.9011,7.59448,0,0,0,0,0,0,0,-1,1490,1772,17.9011,-7.59452
273,-748,16.4131,7.57129,0,0,0,0,0,0,0,-1,1497,1772,16.413,-7.57125
280,-748,15.2177,7.24829,0,0,0,0,0,0,0,-1,1504,1772,15.2176,-7.24833
287,-748,14.161,8.32813,0,0,0,0,0,0,0,-1,1511,1772,14.161,-8.32808
294,-748,12.2117,7.453,0,0,0,0,0,0,0,-1,1518,1772,12.2116,-7.45297
301,-748,11.0652,7.65405,0,0,0,0,0,0,0,-1,1525,1772,11.0651,-7.654
308,-748,9.92456,7.80225,0,0,0,0,0,0,0,-1,1532,1772,9.92453,-7.80224
315,-748,8.91541,8.29773,0,0,0,0,0,0,0,-1,1539,1772,8.91544,-8.29773
322,-748,7.83618,8.87122,0,0,0,0,0,0,0,-1,1546,1772,7.83613,-8.87124
329,-748,3.48315,14.6533,0,0,0,0,0,0,0,-1,1553,1772,3.48316,-14.6534
336,-748,3.76001,15.8163,0,0,0,0,0,0,0,-1,1560,1772,3.75995,-15.8163
343,-748,0,0,0,0,0,0,0,0,0,-1,1567,1772,0,0
350,-748,0,0,0,0,0,0,0,0,0,-1,1574,1772,0,0
357,-748,0,0,0,0,0,0,0,0,0,-1,1581,1772,0,0
364,-748,0,0,0,0,0,0,0,0,0,-1,1588,1772,0,0
371,-748,0,0,0,0,0,0,0,0,0,-1,1595,1772,0,0
378,-748,0,0,0,0,0,0,0,0,0,-1,1602,1772,0,0
385,-748,0,0,0,0,0,0,0,0,0,-1,1609,1772,0,0
392,-748,0,0,0,0,0,0,0,0,0,-1,1616,1772,0,0
399,-748,0,0,0,0,0,0,0,0,0,-1,1623,1772,0,0
406,-748,0,0,0,0,0,0,0,0,0,-1,1630,1772,0,0
413,-748,0,0,0,0,0,0,0,0,0,-1,1637,1772,0,0
420,-748,0,0,0,0,0,0,0,0,0,-1,1644,1772,0,0
427,-748,0,0,0,0,0,0,0,0,0,-1,1651,1772,0,0
434,-748,0,0,0,0,0,0,0,0,0,-1,1658,1772,0,0
441,-748,0,0,0,0,0,0,0,0,0,-1,1665,1772,0,0
448,-748,0,0,0,0,0,0,0,0,0,-1,1672,1772,0,0
455,-748,0,0,0,0,0,0,0,0,0,-1,1679,1772,0,0
462,-748,0,0,0,0,0,0,0,0,0,-1,1686,1772,0,0
469,-748,0,0,0,0,0,0,0,0,0,-1,1693,1772,0,0
476,-748,0,0,0,0,0,0,0,0,0,-1,1700,1772,0,0
483,-748,0,0,0,0,0,0,0,0,0,-1,1707,1772,0,0
490,-748,0,0,0,0,0,0,0,0,0,-1,1714,1772,0,0
497,-748,0,0,0,0,0,0,0,0,0,-1,1721,1772,0,0
504,-748,0,0,0,0,0,0,0,0,0,-1,1728,1772,0,0
511,-748,0,0,0,0,0,0,0,0,0,-1,1735,1772,0,0
518,-748,0,0,0,0,0,0,0,0,0,-1,1742,1772,0,0
525,-748,0,0,0,0,0,0,0,0,0,-1,1749,1772,0,0
532,-748,0,0,0,0,0,0,0,0,0,-1,1756,1772,0,0
539,-748,0,0,0,0,0,0,0,0,0,-1,1763,1772,0,0
546,-748,0,0,0,0,0,0,0,0,0,-1,1770,1772,0,0
553,-748,0,0,0,0,0,0,0,0,0,-1,1777,1772,0,0
560,-748,0,0,0,0,0,0,0,0,0,-1,1784,1772,0,0
567,-748,0,0,0,0,0,0,0,0,0,-1,1791,1772,0,0
574,-748,0,0,0,0,0,0,0,0,0,-1,1798,1772,0,0
581,-748,0,0,0,0,0,0,0,0,0,-1,1805,1772,0,0
588,-748,0,0,0,0,0,0,0,0,0,-1,1812,1772,0,0
595,-748,0,0,0,0,0,0,0,0,0,-1,1819,1772,0,0
602,-748,0,0,0,0,0,0,0,0,0,-1,1826,1772,0,0
609,-748,0,0,0,0,0,0,0,0,0,-1,1833,1772,0,0
616,-748,0,0,0,0,0,0,0,0,0,-1,1840,1772,0,0
623,-748,0,0,0,0,0,0,0,0,0,-1,1847,1772,0,0
630,-748,0,0,0,0,0,0,0,0,0,-1,1854,1772,0,0
637,-748,0,0,0,0,0,0,0,0,0,-1,1861,1772,0,0
644,-748,0,0,0,0,0,0,0,0,0,-1,1868,1772,0,0
651,-748,0,0,0,0,0,0,0,0,0,-1,1875,1772,0,0
658,-748,0,0,0,0,0,0,0,0,0,-1,1882,1772,0,0
665,-748,0,0,0,0,0,0,0,0,0,-1,1889,1772,0,0
672,-748,0,0,0,0,0,0,0,0,0,-1,1896,1772,0,0
679,-748,0,0,0,0,0,0,0,0,0,-1,1903,1772,0,0
686,-748,0,0,0,0,0,0,0,0,0,-1,1910,1772,0,0
693,-748,0,0,0,0,0,0,0,0,0,-1,1917,1772,0,0
700,-748,0,0,0,0,0,0,0,0,0,-1,1924,1772,0,0
707,-748,0,0,0,0,0,0,0,0,0,-1,1931,1772,0,0
714,-748,0,0,0,0,0,0,0,0,0,-1,1938,1772,0,0
721,-748,0,0,0,0,0,0,0,0,0,-1,1945,1772,0,0
728,-748,0,0,0,0,0,0,0,0,0,-1,1952,1772,0,0
735,-748,0,0,0,0,0,0,0,0,0,-1,1959,1772,0,0
742,-748,0,0,0,0,0,0,0,0,0,-1,1966,1772,0,0
749,-748,0,0,0,0,0,0,0,0,0,-1,1973,1772,0,0
756,-748,0,0,0,0,0,0,0,0,0,-1,1980,1772,0,0
763,-748,0,0,0,0,0,0,0,0,0,-1,1987,1772,0,0
770,-748,0,0,0,0,0,0,0,0,0,-1,1994,1772,0,0
777,-748,0,0,0,0,0,0,0,0,0,-1,2001,1772,0,0
784,-748,0,0,0,0,0,0,0,0,0,-1,2008,1772,0,0
791,-748,0,0,0,0,0,0,0,0,0,-1,2015,1772,0,0
798,-748,0,0,0,0,0,0,0,0,0,-1,2022,1772,0,0
805,-748,0,0,0,0,0,0,0,0,0,-1,2029,1772,0,0
812,-748,0,0,0,0,0,0,0,0,0,-1,2036,1772,0,0
-700,-755,0,0,0,0,0,0,0,0,0,-1,524,1779,0,0
-693,-755,0,0,0,0,0,0,0,0,0,-1,531,1779,0,0
-686,-755,0,0,0,0,0,0,0,0,0,-1,538,1779,0,0
-679,-755,0,0,0,0,0,0,0,0,0,-1,545,1779,0,0
-672,-755,0,0,0,0,0,0,0,0,0,-1,552,1779,0,0
-665,-755,0,0,0,0,0,0,0,0,0,-1,559,1779,0,0
-658,-755,0,0,0,0,0,0,0,0,0,-1,566,1779,0,0
-651,-755,0,0,0,0,0,0,0,0,0,-1,573,1779,0,0
-644,-755,0,0,0,0,0,0,0,0,0,-1,580,1779,0,0
-637,-755,0,0,0,0,0,0,0,0,0,-1,587,1779,0,0
-630,-755,0,0,0,0,0,0,0,0,0,-1,594,1779,0,0
-623,-755,0,0,0,0,0,0,0,0,0,-1,601,1779,0,0
-616,-755,0,0,0,0,0,0,0,0,0,-1,608,1779,0,0
-609,-755,0,0,0,0,0,0,0,0,0,-1,615,1779,0,0
-602,-755,0,0,0,0,0,0,0,0,0,-1,622,1779,0,0
-595,-755,0,0,0,0,0,0,0,0,0,-1,629,1779,0,0
-588,-755,0,0,0,0,0,0,0,0,0,-1,636,1779,0,0
-581,-755,0,0,0,0,0,0,0,0,0,-1,643,1779,0,0
-574,-755,0,0,0,0,0,0,0,0,0,-1,650,1779,0,0
-567,-755,0,0,0,0,0,0,0,0,0,-1,657,1779,0,0
-560,-755,0,0,0,0,0,0,0,0,0,-1,664,1779,0,0
-553,-755,0,0,0,0,0,0,0,0,0,-1,671,1779,0,0
-546,-755,0,0,0,0,0,0,0,0,0,-1,678,1779,0,0
-539,-755,0,0,0,0,0,0,0,0,0,-1,685,1779,0,0
-532,-755,0,0,0,0,0,0,0,0,0,-1,692,1779,0,0
-525,-755,0,0,0,0,0,0,0,0,0,-1,699,1779,0,0
-518,-755,0,0,0,0,0,0,0,0,0,-1,706,1779,0,0
-511,-755,0,0,0,0,0,0,0,0,0,-1,713,1779,0,0
-504,-755,0,0,0,0,0,0,0,0,0,-1,720,1779,0,0
-497,-755,0,0,0,0,0,0,0,0,0,-1,727,1779,0,0
-490,-755,0,0,0,0,0,0,0,0,0,-1,734,1779,0,0
-483,-755,0,0,0,0,0,0,0,0,0,-1,741,1779,0,0
-476,-755,0,0,0,0,0,0,0,0,0,-1,748,1779,0,0
-469,-755,0,0,0,0,0,0,0,0,0,-1,755,1779,0,0
-462,-755,0,0,0,0,0,0,0,0,0,-1,762,1779,0,0
-455,-755,0,0,0,0,0,0,0,0,0,-1,769,1779,0,0
-448,-755,0,0,0,0,0,0,0,0,0,-1,776,1779,0,0
-441,-755,0,0,0,0,0,0,0,0,0,-1,783,1779,0,0
-434,-755,0,0,0,0,0,0,0,0,0,-1,790,1779,0,0
-427,-755,0,0,0,0,0,0,0,0,0,-1,797,1779,0,0
-420,-755,0,0,0,0,0,0,0,0,0,-1,804,1779,0,0
-413,-755,0,0,0,0,0,0,0,0,0,-1,811,1779,0,0
-406,-755,0,0,0,0,0,0,0,0,0,-1,818,1779,0,0
-399,-755,0,0,0,0,0,0,0,0,0,-1,825,1779,0,0
-392,-755,0,0,0,0,0,0,0,0,0,-1,832,1779,0,0
-385,-755,0,0,0,0,0,0,0,0,0,-1,839,1779,0,0
-378,-755,0,0,0,0,0,0,0,0,0,-1,846,1779,0,0
-371,-755,0,0,0,0,0,0,0,0,0,-1,853,1779,0,0
-364,-755,0,0,0,0,0,0,0,0,0,-1,860,1779,0,0
-357,-755,0,0,0,0,0,0,0,0,0,-1,867,1779,0,0
-350,-755,0,0,0,0,0,0,0,0,0,-1,874,1779,0,0
-343,-755,0,0,0,0,0,0,0,0,0,-1,881,1779,0,0
-336,-755,0,0,0,0,0,0,0,0,0,-1,888,1779,0,0
-329,-755,0,0,0,0,0,0,0,0,0,-1,895,1779,0,0
-322,-755,0,0,0,0,0,0,0,0,0,-1,902,1779,0,0
-315,-755,0,0,0,0,0,0,0,0,0,-1,909,1779,0,0
-308,-755,0,0,0,0,0,0,0,0,0,-1,916,1779,0,0
-301,-755,0,0,0,0,0,0,0,0,0,-1,923,1779,0,0
-294,-755,0,0,0,0,0,0,0,0,0,-1,930,1779,0,0
-287,-755,0,0,0,0,0,0,0,0,0,-1,937,1779,0,0
-280,-755,0,0,0,0,0,0,0,0,0,-1,944,1779,0,0
-273,-755,0,0,0,0,0,0,0,0,0,-1,951,1779,0,0
-266,-755,0,0,0,0,0,0,0,0,0,-1,958,1779,0,0
-259,-755,0,0,0,0,0,0,0,0,0,-1,965,1779,0,0
-252,-755,0,0,0,0,0,0,0,0,0,-1,972,1779,0,0
-245,-755,0,0,0,0,0,0,0,0,0,-1,979,1779,0,0
-238,-755,0,0,0,0,0,0,0,0,0,-1,986,1779,0,0
-231,-755,0,0,0,0,0,0,0,0,0,-1,993,1779,0,0
-224,-755,0,0,0,0,0,0,0,0,0,-1,1000,1779,0,0
-217,-755,0,0,0,0,0,0,0,0,0,-1,1007,1779,0,0
-210,-755,0,0,0,0,0,0,0,0,0,-1,1014,1779,0,0
-203,-755,-3.07153,13.8969,0,0,0,0,0,0,0,-1,1021,1779,-3.07152,-13.8969
-196,-755,4.91333,14.9064,0,0,0,0,0,0,0,-1,1028,1779,4.91327,-14.9063
-189,-755,4.85864,12.9271,0,0,0,0,0,0,0,-1,1035,1779,4.85866,-12.9272
-182,-755,3.9259,18.85,0,0,0,0,0,0,0,-1,1042,1779,3.92588,-18.85
-175,-755,4.10266,16.8729,0,0,0,0,0,0,0,-1,1049,1779,4.10269,-16.8729
-168,-755,4.5177,13.7404,0,0,0,0,0,0,0,-1,1056,1779,4.5177,-13.7403
-161,-755,-2.85889,11.5868,0,0,0,0,0,0,0,-1,1063,1779,-2.85887,-11.5868
-154,-755,-5.39026,8.51416,0,0,0,0,0,0,0,-1,1070,1779,-5.3903,-8.51417
-147,-755,-6.45593,10.2422,0,0,0,0,0,0,0,-1,1077,1779,-6.45594,-10.2422
-140,-755,2.32935,21.4536,0,0,0,0,0,0,0,-1,1084,1779,2.32932,-21.4536
-133,-755,2.89417,21.0964,0,0,0,0,0,0,0,-1,1091,1779,2.89422,-21.0964
-126,-755,3.26404,20.9304,0,0,0,0,0,0,0,-1,1098,1779,3.26399,-20.9305
-119,-755,5.17761,21.9325,0,0,0,0,0,0,0,-1,1105,1779,5.17761,-21.9325
-112,-755,4.05396,20.1554,0,0,0,0,0,0,0,-1,1112,1779,4.05394,-20.1554
-105,-755,4.59497,19.6527,0,0,0,0,0,0,0,-1,1119,1779,4.59491,-19.6527
-98,-755,6.98657,15.802,0,0,0,0,0,0,0,-1,1126,1779,6.98654,-15.8021
-91,-755,3.91394,13.0228,0,0,0,0,0,0,0,-1,1133,1779,3.91399,-13.0228
-84,-755,0.169312,8.66443,0,0,0,0,0,0,0,-1,1140,1779,0.16932,-8.66446
-77,-755,-0.0491943,6.87439,0,0,0,0,0,0,0,-1,1147,1779,-0.0491385,-6.87443
-70,-755,4.5686,13.2169,0,0,0,0,0,0,0,-1,1154,1779,4.56865,-13.2169
-63,-755,-1.36316,7.3147,0,0,0,0,0,0,0,-1,1161,1779,-1.36312,-7.31473
-56,-755,0.0483398,5.06079,0,0,0,0,0,0,0,-1,1168,1779,0.0483138,-5.06084
-49,-755,-1.32263,5.33716,0,0,0,0,0,0,0,-1,1175,1779,-1.32264,-5.33718
-42,-755,-2.03613,4.01672,0,0,0,0,0,0,0,-1,1182,1779,-2.0361,-4.01671
-35,-755,-2.72498,2.37476,0,0,0,0,0,0,0,-1,1189,1779,-2.72502,-2.37473
-28,-755,6.19983,24.047,0,0,0,0,0,0,0,-1,1196,1779,6.19989,-24.047
-21,-755,6.23694,24.1659,0,0,0,0,0,0,0,-1,1203,1779,6.23688,-24.1659
-14,-755,6.29785,24.0924,-0.013178,0.00883084,-0.00134911,0.00891323,-0.0132604,-1.5098,0.0128837,0.0335564,1210,1779,6.2978,-24.0924
-7,-755,6.18933,24.0769,-0.0143113,0.00840378,-0.00139849,0.00848956,-0.0143971,-1.50954,0.0133595,0.0227036,1217,1779,6.1893,-24.077
0,-755,6.1615,24.1327,-0.0152598,0.00818699,-0.00173656,0.00831491,-0.0153877,-1.49727,0.0138863,0.0138995,1224,1779,6.1615,-24.1327
7,-755,6.15564,24.2118,-0.0155851,0.00810462,-0.0017959,0.00824,-0.0157204,-1.49556,0.0140565,0.012176,1231,1779,6.15566,-24.2118
14,-755,6.14807,24.2784,-0.0145711,0.00893306,-0.00140041,0.00901621,-0.0146543,-1.51149,0.0137948,0.0109392,1238,1779,6.14808,-24.2784
21,-755,6.11633,24.321,-0.0128761,0.00940916,-0.000543714,0.00942242,-0.0128893,-1.54642,0.0129334,0.0157018,1245,1779,6.11629,-24.321
28,-755,6.07739,24.3356,-0.0108088,0.0100041,0.00046179,0.0100144,-0.0108191,1.54862,0.0120312,0.0183767,1252,1779,6.0774,-24.3355
35,-755,6.10242,24.4116,-0.00798482,0.0105333,0.00160341,0.0106711,-0.00812263,1.48506,0.0108838,0.0178028,1259,1779,6.10237,-24.4117
42,-755,6.08142,24.4313,-0.00510896,0.0112527,0.00276596,0.0117076,-0.0055639,1.40778,0.0101799,0.0138783,1266,1779,6.08143,-24.4313
49,-755,6.04797,24.4147,-0.00224816,0.0106672,0.00297965,0.0113214,-0.00290244,1.35464,0.00867842,0.00990703,1273,1779,6.04801,-24.4146
56,-755,6.01147,24.4471,0.000548953,0.0106662,0.00369053,0.0118693,-0.000654188,1.25565,0.00813971,0.00906027,1280,1779,6.01152,-24.4471
63,-755,6.00183,24.4672,0.00331816,0.00918154,0.00416261,0.0113412,0.00115847,1.0922,0.00720577,0.00923582,1287,1779,6.00186,-24.4671
70,-755,6.00159,24.4636,0.00575365,0.00821163,0.00462288,0.0117661,0.00219918,0.915318,0.00722347,0.0118388,1294,1779,6.00164,-24.4636
77,-755,5.98389,24.4548,0.00824921,0.00708646,0.00471544,0.012419,0.00291669,0.724062,0.00749862,0.0112396,1301,1779,5.98386,-24.4548
84,-755,5.97693,24.4468,0.00969195,0.00549513,0.00431244,0.0123894,0.00279766,0.558965,0.00750298,0.0114403,1308,1779,5.97695,-24.4468
91,-755,5.93469,24.4467,0.0104666,0.00361071,0.00376264,0.0121287,0.00194864,0.415955,0.00752086,0.0116843,1315,1779,5.93467,-24.4466
98,-755,5.88904,24.4432,0.0104104,0.00198407,0.00293186,0.0113302,0.00106435,0.303977,0.00722483,0.0130677,1322,1779,5.88901,-24.4432
105,-755,5.87866,24.4365,0.0104596,0.000423648,0.00235473,0.0109846,-0.000101373,0.219376,0.00735711,0.0162246,1329,1779,5.87862,-24.4365
112,-755,5.86169,24.3943,0.0103113,-0.00101124,0.00154001,0.010517,-0.00121697,0.1328,0.0074502,0.0211767,1336,1779,5.86166,-24.3943
119,-755,5.84009,24.3485,0.00955788,-0.00289922,0.000451893,0.00957425,-0.00291559,0.0362125,0.00754488,0.0211507,1343,1779,5.84014,-24.3486
126,-755,5.81812,24.3937,0.00919009,-0.00328973,-0.0006201,0.00922083,-0.00332046,-0.0495257,0.00750308,0.0235173,1350,1779,5.81814,-24.3936
133,-755,5.7323,24.3395,0.00963227,-0.00331676,-0.00111471,0.00972753,-0.00341202,-0.0852489,0.0078728,0.0232773,1357,1779,5.73231,-24.3395
140,-755,5.66455,24.29,0.00968328,-0.00277123,-0.00129348,0.0098162,-0.00290415,-0.1024,0.00769703,0.0289617,1364,1779,5.66459,-24.29
147,-755,5.83325,24.2632,0.0101037,-0.00224971,-0.000942941,0.0101752,-0.00232127,-0.0757457,0.00767517,0.0333385,1371,1779,5.83329,-24.2632
154,-755,5.8728,24.2439,0.00999368,0.00151604,0.00223693,0.0105477,0.000962008,0.242791,0.00673408,0.0352952,1378,1779,5.8728,-24.2439
161,-755,5.7627,24.2379,0,0,0,0,0,0,0,-1,1385,1779,5.76274,-24.2379
168,-755,3.98181,7.35901,0,0,0,0,0,0,0,-1,1392,1779,3.98184,-7.35904
175,-755,8.17065,1.34363,0,0,0,0,0,0,0,-1,1399,1779,8.1706,-1.34368
182,-755,8.09216,2.96924,0,0,0,0,0,0,0,-1,1406,1779,8.09213,-2.9693
189,-755,8.04419,4.68042,0,0,0,0,0,0,0,-1,1413,1779,8.04419,-4.68046
196,-755,7.74841,7.4541,0,0,0,0,0,0,0,-1,1420,1779,7.74842,-7.45405
203,-755,4.80554,6.88696,0,0,0,0,0,0,0,-1,1427,1779,4.80554,-6.88697
210,-755,25.1694,7.35693,0,0,0,0,0,0,0,-1,1434,1779,25.1694,-7.35688
217,-755,5.01648,16.411,0,0,0,0,0,0,0,-1,1441,1779,5.01646,-16.411
224,-755,5.18103,22.6283,0,0,0,0,0,0,0,-1,1448,1779,5.18101,-22.6283
231,-755,5.43933,22.6866,0,0,0,0,0,0,0,-1,1455,1779,5.43928,-22.6866
238,-755,4.92957,22.7233,0,0,0,0,0,0,0,-1,1462,1779,4.92959,-22.7232
245,-755,4.72644,21.741,0,0,0,0,0,0,0,-1,1469,1779,4.72641,-21.741
252,-755,6.69482,19.1108,0,0,0,0,0,0,0,-1,1476,1779,6.69477,-19.1108
259,-755,3.17322,18.702,0,0,0,0,0,0,0,-1,1483,1779,3.17322,-18.7021
266,-755,17.255,7.86096,0,0,0,0,0,0,0,-1,1490,1779,17.255,-7.86092
273,-755,15.7932,7.59778,0,0,0,0,0,0,0,-1,1497,1779,15.7932,-7.59777
280,-755,14.6255,7.34802,0,0,0,0,0,0,0,-1,1504,1779,14.6254,-7.34806
287,-755,13.8279,7.83105,0,0,0,0,0,0,0,-1,1511,1779,13.8279,-7.83104
294,-755,12.5695,7.96814,0,0,0,0,0,0,0,-1,1518,1779,12.5694,-7.9682
301,-755,11.2659,8.27087,0,0,0,0,0,0,0,-1,1525,1779,11.2658,-8.27087
308,-755,9.94434,8.55811,0,0,0,0,0,0,0,-1,1532,1779,9.94428,-8.55806
315,-755,8.64502,9.04492,0,0,0,0,0,0,0,-1,1539,1779,8.64497,-9.04488
322,-755,0,0,0,0,0,0,0,0,0,-1,1546,1779,0,0
329,-755,0,0,0,0,0,0,0,0,0,-1,1553,1779,0,0
336,-755,0,0,0,0,0,0,0,0,0,-1,1560,1779,0,0
343,-755,0,0,0,0,0,0,0,0,0,-1,1567,1779,0,0
350,-755,0,0,0,0,0,0,0,0,0,-1,1574,1779,0,0
357,-755,0,0,0,0,0,0,0,0,0,-1,1581,1779,0,0
364,-755,0,0,0,0,0,0,0,0,0,-1,1588,1779,0,0
371,-755,0,0,0,0,0,0,0,0,0,-1,1595,1779,0,0
378,-755,0,0,0,0,0,0,0,0,0,-1,1602,1779,0,0
385,-755,0,0,0,0,0,0,0,0,0,-1,1609,1779,0,0
392,-755,0,0,0,0,0,0,0,0,0,-1,1616,1779,0,0
399,-755,0,0,0,0,0,0,0,0,0,-1,1623,1779,0,0
406,-755,0,0,0,0,0,0,0,0,0,-1,1630,1779,0,0
413,-755,0,0,0,0,0,0,0,0,0,-1,1637,1779,0,0
420,-755,0,0,0,0,0,0,0,0,0,-1,1644,1779,0,0
427,-755,0,0,0,0,0,0,0,0,0,-1,1651,1779,0,0
434,-755,0,0,0,0,0,0,0,0,0,-1,1658,1779,0,0
441,-755,0,0,0,0,0,0,0,0,0,-1,1665,1779,0,0
448,-755,0,0,0,0,0,0,0,0,0,-1,1672,1779,0,0
455,-755,0,0,0,0,0,0,0,0,0,-1,1679,1779,0,0
462,-755,0,0,0,0,0,0,0,0,0,-1,1686,1779,0,0
469,-755,0,0,0,0,0,0,0,0,0,-1,1693,1779,0,0
476,-755,0,0,0,0,0,0,0,0,0,-1,1700,1779,0,0
483,-755,0,0,0,0,0,0,0,0,0,-1,1707,1779,0,0
490,-755,0,0,0,0,0,0,0,0,0,-1,1714,1779,0,0
497,-755,0,0,0,0,0,0,0,0,0,-1,1721,1779,0,0
504,-755,0,0,0,0,0,0,0,0,0,-1,1728,1779,0,0
511,-755,0,0,0,0,0,0,0,0,0,-1,1735,1779,0,0
518,-755,0,0,0,0,0,0,0,0,0,-1,1742,1779,0,0
525,-755,0,0,0,0,0,0,0,0,0,-1,1749,1779,0,0
532,-755,0,0,0,0,0,0,0,0,0,-1,1756,1779,0,0
539,-755,0,0,0,0,0,0,0,0,0,-1,1763,1779,0,0
546,-755,0,0,0,0,0,0,0,0,0,-1,1770,1779,0,0
553,-755,0,0,0,0,0,0,0,0,0,-1,1777,1779,0,0
560,-755,0,0,0,0,0,0,0,0,0,-1,1784,1779,0,0
567,-755,0,0,0,0,0,0,0,0,0,-1,1791,1779,0,0
574,-755,0,0,0,0,0,0,0,0,0,-1,1798,1779,0,0
581,-755,0,0,0,0,0,0,0,0,0,-1,1805,1779,0,0
588,-755,0,0,0,0,0,0,0,0,0,-1,1812,1779,0,0
595,-755,0,0,0,0,0,0,0,0,0,-1,1819,1779,0,0
602,-755,0,0,0,0,0,0,0,0,0,-1,1826,1779,0,0
609,-755,0,0,0,0,0,0,0,0,0,-1,1833,1779,0,0
616,-755,0,0,0,0,0,0,0,0,0,-1,1840,1779,0,0
623,-755,0,0,0,0,0,0,0,0,0,-1,1847,1779,0,0
630,-755,0,0,0,0,0,0,0,0,0,-1,1854,1779,0,0
637,-755,0,0,0,0,0,0,0,0,0,-1,1861,1779,0,0
644,-755,0,0,0,0,0,0,0,0,0,-1,1868,1779,0,0
651,-755,0,0,0,0,0,0,0,0,0,-1,1875,1779,0,0
658,-755,0,0,0,0,0,0,0,0,0,-1,1882,1779,0,0
665,-755,0,0,0,0,0,0,0,0,0,-1,1889,1779,0,0
672,-755,0,0,0,0,0,0,0,0,0,-1,1896,1779,0,0
679,-755,0,0,0,0,0,0,0,0,0,-1,1903,1779,0,0
686,-755,0,0,0,0,0,0,0,0,0,-1,1910,1779,0,0
693,-755,0,0,0,0,0,0,0,0,0,-1,1917,1779,0,0
700,-755,0,0,0,0,0,0,0,0,0,-1,1924,1779,0,0
707,-755,0,0,0,0,0,0,0,0,0,-1,1931,1779,0,0
714,-755,0,0,0,0,0,0,0,0,0,-1,1938,1779,0,0
721,-755,0,0,0,0,0,0,0,0,0,-1,1945,1779,0,0
728,-755,0,0,0,0,0,0,0,0,0,-1,1952,1779,0,0
735,-755,0,0,0,0,0,0,0,0,0,-1,1959,1779,0,0
742,-755,0,0,0,0,0,0,0,0,0,-1,1966,1779,0,0
749,-755,0,0,0,0,0,0,0,0,0,-1,1973,1779,0,0
756,-755,0,0,0,0,0,0,0,0,0,-1,1980,1779,0,0
763,-755,0,0,0,0,0,0,0,0,0,-1,1987,1779,0,0
770,-755,0,0,0,0,0,0,0,0,0,-1,1994,1779,0,0
777,-755,0,0,0,0,0,0,0,0,0,-1,2001,1779,0,0
784,-755,0,0,0,0,0,0,0,0,0,-1,2008,1779,0,0
791,-755,0,0,0,0,0,0,0,0,0,-1,2015,1779,0,0
798,-755,0,0,0,0,0,0,0,0,0,-1,2022,1779,0,0
805,-755,0,0,0,0,0,0,0,0,0,-1,2029,1779,0,0
812,-755,0,0,0,0,0,0,0,0,0,-1,2036,1779,0,0
-700,-762,0,0,0,0,0,0,0,0,0,-1,524,1786,0,0
-693,-762,0,0,0,0,0,0,0,0,0,-1,531,1786,0,0
-686,-762,0,0,0,0,0,0,0,0,0,-1,538,1786,0,0
-679,-762,0,0,0,0,0,0,0,0,0,-1,545,1786,0,0
-672,-762,0,0,0,0,0,0,0,0,0,-1,552,1786,0,0
-665,-762,0,0,0,0,0,0,0,0,0,-1,559,1786,0,0
-658,-762,0,0,0,0,0,0,0,0,0,-1,566,1786,0,0
-651,-762,0,0,0,0,0,0,0,0,0,-1,573,1786,0,0
-644,-762,0,0,0,0,0,0,0,0,0,-1,580,1786,0,0
-637,-762,0,0,0,0,0,0,0,0,0,-1,587,1786,0,0
-630,-762,0,0,0,0,0,0,0,0,0,-1,594,1786,0,0
-623,-762,0,0,0,0,0,0,0,0,0,-1,601,1786,0,0
-616,-762,0,0,0,0,0,0,0,0,0,-1,608,1786,0,0
-609,-762,0,0,0,0,0,0,0,0,0,-1,615,1786,0,0
-602,-762,0,0,0,0,0,0,0,0,0,-1,622,1786,0,0
-595,-762,0,0,0,0,0,0,0,0,0,-1,629,1786,0,0
-588,-762,0,0,0,0,0,0,0,0,0,-1,636,1786,0,0
-581,-762,0,0,0,0,0,0,0,0,0,-1,643,1786,0,0
-574,-762,0,0,0,0,0,0,0,0,0,-1,650,1786,0,0
-567,-762,0,0,0,0,0,0,0,0,0,-1,657,1786,0,0
-560,-762,0,0,0,0,0,0,0,0,0,-1,664,1786,0,0
-553,-762,0,0,0,0,0,0,0,0,0,-1,671,1786,0,0
-546,-762,0,0,0,0,0,0,0,0,0,-1,678,1786,0,0
-539,-762,0,0,0,0,0,0,0,0,0,-1,685,1786,0,0
-532,-762,0,0,0,0,0,0,0,0,0,-1,692,1786,0,0
-525,-762,0,0,0,0,0,0,0,0,0,-1,699,1786,0,0
-518,-762,0,0,0,0,0,0,0,0,0,-1,706,1786,0,0
-511,-762,0,0,0,0,0,0,0,0,0,-1,713,1786,0,0
-504,-762,0,0,0,0,0,0,0,0,0,-1,720,1786,0,0
-497,-762,0,0,0,0,0,0,0,0,0,-1,727,1786,0,0
-490,-762,0,0,0,0,0,0,0,0,0,-1,734,1786,0,0
-483,-762,0,0,0,0,0,0,0,0,0,-1,741,1786,0,0
-476,-762,0,0,0,0,0,0,0,0,0,-1,748,1786,0,0
-469,-762,0,0,0,0,0,0,0,0,0,-1,755,1786,0,0
-462,-762,0,0,0,0,0,0,0,0,0,-1,762,1786,0,0
-455,-762,0,0,0,0,0,0,0,0,0,-1,769,1786,0,0
-448,-762,0,0,0,0,0,0,0,0,0,-1,776,1786,0,0
-441,-762,0,0,0,0,0,0,0,0,0,-1,783,1786,0,0
-434,-762,0,0,0,0,0,0,0,0,0,-1,790,1786,0,0
-427,-762,0,0,0,0,0,0,0,0,0,-1,797,1786,0,0
-420,-762,0,0,0,0,0,0,0,0,0,-1,804,1786,0,0
-413,-762,0,0,0,0,0,0,0,0,0,-1,811,1786,0,0
-406,-762,0,0,0,0,0,0,0,0,0,-1,818,1786,0,0
-399,-762,0,0,0,0,0,0,0,0,0,-1,825,1786,0,0
-392,-762,0,0,0,0,0,0,0,0,0,-1,832,1786,0,0
-385,-762,0,0,0,0,0,0,0,0,0,-1,839,1786,0,0
-378,-762,0,0,0,0,0,0,0,0,0,-1,846,1786,0,0
-371,-762,0,0,0,0,0,0,0,0,0,-1,853,1786,0,0
-364,-762,0,0,0,0,0,0,0,0,0,-1,860,1786,0,0
-357,-762,0,0,0,0,0,0,0,0,0,-1,867,1786,0,0
-350,-762,0,0,0,0,0,0,0,0,0,-1,874,1786,0,0
-343,-762,0,0,0,0,0,0,0,0,0,-1,881,1786,0,0
-336,-762,0,0,0,0,0,0,0,0,0,-1,888,1786,0,0
-329,-762,0,0,0,0,0,0,0,0,0,-1,895,1786,0,0
-322,-762,0,0,0,0,0,0,0,0,0,-1,902,1786,0,0
-315,-762,0,0,0,0,0,0,0,0,0,-1,909,1786,0,0
-308,-762,0,0,0,0,0,0,0,0,0,-1,916,1786,0,0
-301,-762,0,0,0,0,0,0,0,0,0,-1,923,1786,0,0
-294,-762,0,0,0,0,0,0,0,0,0,-1,930,1786,0,0
-287,-762,0,0,0,0,0,0,0,0,0,-1,937,1786,0,0
-280,-762,0,0,0,0,0,0,0,0,0,-1,944,1786,0,0
-273,-762,0,0,0,0,0,0,0,0,0,-1,951,1786,0,0
-266,-762,0,0,0,0,0,0,0,0,0,-1,958,1786,0,0
-259,-762,0,0,0,0,0,0,0,0,0,-1,965,1786,0,0
-252,-762,0,0,0,0,0,0,0,0,0,-1,972,1786,0,0
-245,-762,0,0,0,0,0,0,0,0,0,-1,979,1786,0,0
-238,-762,0,0,0,0,0,0,0,0,0,-1,986,1786,0,0
-231,-762,0,0,0,0,0,0,0,0,0,-1,993,1786,0,0
-224,-762,0,0,0,0,0,0,0,0,0,-1,1000,1786,0,0
-217,-762,0,0,0,0,0,0,0,0,0,-1,1007,1786,0,0
-210,-762,0,0,0,0,0,0,0,0,0,-1,1014,1786,0,0
-203,-762,0,0,0,0,0,0,0,0,0,-1,1021,1786,0,0
-196,-762,0,0,0,0,0,0,0,0,0,-1,1028,1786,0,0
-189,-762,0,0,0,0,0,0,0,0,0,-1,1035,1786,0,0
-182,-762,4.44226,13.2462,0,0,0,0,0,0,0,-1,1042,1786,4.44227,-13.2462
-175,-762,-1.29956,14.1766,0,0,0,0,0,0,0,-1,1049,1786,-1.29956,-14.1767
-168,-762,-2.08618,13.0768,0,0,0,0,0,0,0,-1,1056,1786,-2.08623,-13.0768
-161,-762,-3.29077,11.9508,0,0,0,0,0,0,0,-1,1063,1786,-3.29076,-11.9508
-154,-762,-4.55823,11.1176,0,0,0,0,0,0,0,-1,1070,1786,-4.55828,-11.1175
-147,-762,-6.52454,9.41418,0,0,0,0,0,0,0,-1,1077,1786,-6.52458,-9.41419
-140,-762,4.99792,5.28589,0,0,0,0,0,0,0,-1,1084,1786,4.99793,-5.28587
-133,-762,0.689819,19.2172,0,0,0,0,0,0,0,-1,1091,1786,0.689867,-19.2171
-126,-762,1.48743,19.9288,0,0,0,0,0,0,0,-1,1098,1786,1.48738,-19.9289
-119,-762,2.65637,20.208,0,0,0,0,0,0,0,-1,1105,1786,2.65632,-20.208
-112,-762,3.09082,20.488,0,0,0,0,0,0,0,-1,1112,1786,3.09077,-20.488
-105,-762,5.50476,20.6483,0,0,0,0,0,0,0,-1,1119,1786,5.5048,-20.6483
-98,-762,5.74402,17.4143,0,0,0,0,0,0,0,-1,1126,1786,5.74407,-17.4143
-91,-762,5.9834,14.1803,0,0,0,0,0,0,0,-1,1133,1786,5.98335,-14.1803
-84,-762,3.00232,10.7883,0,0,0,0,0,0,0,-1,1140,1786,3.0023,-10.7883
-77,-762,0.305054,8.49365,0,0,0,0,0,0,0,-1,1147,1786,0.305008,-8.49362
-70,-762,0.183716,6.74622,0,0,0,0,0,0,0,-1,1154,1786,0.183696,-6.74621
-63,-762,-0.883057,9.08813,0,0,0,0,0,0,0,-1,1161,1786,-0.88311,-9.08808
-56,-762,-0.578979,5.10254,0,0,0,0,0,0,0,-1,1168,1786,-0.578951,-5.10249
-49,-762,-2.04541,3.66321,0,0,0,0,0,0,0,-1,1175,1786,-2.0454,-3.66319
-42,-762,-2.23462,3.474,0,0,0,0,0,0,0,-1,1182,1786,-2.23459,-3.47399
-35,-762,-3.28992,1.68164,0,0,0,0,0,0,0,-1,1189,1786,-3.28998,-1.68164
-28,-762,-3.75378,1.37769,0,0,0,0,0,0,0,-1,1196,1786,-3.75373,-1.37767
-21,-762,6.69958,24.1185,0,0,0,0,0,0,0,-1,1203,1786,6.69962,-24.1186
-14,-762,6.44702,24.1107,0,0,0,0,0,0,0,-1,1210,1786,6.44699,-24.1107
-7,-762,6.01135,24.2578,-0.0207727,0.0167729,-0.00316441,0.0170378,-0.0210375,-1.4873,0.0220232,0.0479879,1217,1786,6.01139,-24.2578
0,-762,6.13049,24.1394,-0.0220074,0.0159484,-0.00353547,0.0162749,-0.0223339,-1.47871,0.0223821,0.0350438,1224,1786,6.13054,-24.1394
7,-762,6.19116,24.226,-0.0222701,0.0152661,-0.00355086,0.015599,-0.0226031,-1.4773,0.0221792,0.0202599,1231,1786,6.19119,-24.226
14,-762,6.17102,24.3776,-0.0204636,0.015907,-0.00297551,0.0161489,-0.0207054,-1.4897,0.021332,0.0320996,1238,1786,6.171,-24.3776
21,-762,6.05896,24.4008,-0.0176219,0.0161939,-0.00159628,0.0162691,-0.0176971,-1.52373,0.0196162,0.0401118,1245,1786,6.05898,-24.4008
28,-762,5.92615,24.3835,-0.0142692,0.0166827,8.77551e-05,0.016683,-0.0142694,1.56796,0.0178885,0.0417443,1252,1786,5.92613,-24.3835
35,-762,6.06421,24.5618,-0.00988107,0.0170904,0.00207946,0.0172498,-0.0100404,1.4943,0.0159382,0.04266,1259,1786,6.06426,-24.5618
42,-762,6.18958,24.5234,-0.00543727,0.0177003,0.00409745,0.0184045,-0.00614146,1.4006,0.0147494,0.0379313,1266,1786,6.18955,-24.5234
49,-762,6.08862,24.5005,-0.00106546,0.0165461,0.00473028,0.0177362,-0.00225555,1.32432,0.0126432,0.0313035,1273,1786,6.08864,-24.5004
56,-762,6.09058,24.4504,0.00306329,0.0162245,0.00600834,0.0185548,0.000732975,1.20081,0.0121329,0.0221774,1280,1786,6.09056,-24.4505
63,-762,6.05518,24.4701,0.00705526,0.0138559,0.00692826,0.0181733,0.00273789,1.01353,0.0113139,0.0206779,1287,1786,6.05518,-24.4701
70,-762,6.00818,24.473,0.0105809,0.0121801,0.00774094,0.0191626,0.00359838,0.836863,0.0117606,0.0210267,1294,1786,6.00814,-24.473
77,-762,6.01538,24.4227,0.0139849,0.0102842,0.00792339,0.0202711,0.00399795,0.670688,0.0123982,0.0271559,1301,1786,6.01541,-24.4228
84,-762,6.05383,24.4227,0.0159468,0.00773762,0.00737286,0.0202806,0.0034038,0.531405,0.0125408,0.0332402,1308,1786,6.05385,-24.4228
91,-762,6.03418,24.3912,0.0169327,0.00477321,0.00651184,0.0197618,0.00194411,0.409851,0.0125767,0.0437329,1315,1786,6.03418,-24.3913
98,-762,5.81824,24.4225,0.0167607,0.00212103,0.00507157,0.018346,0.000535766,0.302956,0.0120561,0.0443177,1322,1786,5.81825,-24.4225
105,-762,5.81323,24.505,0.0168674,-0.000430523,0.00399183,0.0177441,-0.00130728,0.216204,0.0122884,0.041389,1329,1786,5.81325,-24.505
112,-762,5.72083,24.399,0.0166348,-0.00271182,0.00253315,0.0169609,-0.003038,0.12806,0.0124442,0.0443327,1336,1786,5.72077,-24.3991
119,-762,5.56726,24.2891,0.0154001,-0.00566454,0.000759263,0.0154274,-0.00569187,0.0359822,0.0126177,0.0449568,1343,1786,5.56722,-24.2891
126,-762,5.5564,24.3276,0.0148496,-0.00645756,-0.00116349,0.014913,-0.0065209,-0.0543899,0.0126871,0.0447865,1350,1786,5.55641,-24.3276
133,-762,5.61414,24.2463,0.0157068,-0.00671541,-0.00225246,0.0159308,-0.00693945,-0.0991369,0.01354,0.0432473,1357,1786,5.61419,-24.2463
140,-762,5.4834,24.1235,0.0159769,-0.00593399,-0.00297066,0.0163725,-0.00632961,-0.132396,0.0135278,0.0432358,1364,1786,5.48336,-24.1235
147,-762,5.77869,24.2549,0.0167643,-0.00479334,-0.00262584,0.0170796,-0.00510858,-0.119478,0.0134174,0.0461875,1371,1786,5.77868,-24.2549
154,-762,5.88452,24.1132,0,0,0,0,0,0,0,-1,1378,1786,5.8845,-24.1131
161,-762,7.93408,-0.126221,0,0,0,0,0,0,0,-1,1385,1786,7.93402,0.126232
168,-762,8.19287,0.880615,0,0,0,0,0,0,0,-1,1392,1786,8.19291,-0.880603
175,-762,8.33997,1.95947,0,0,0,0,0,0,0,-1,1399,1786,8.33997,-1.95942
182,-762,8.28418,3.56482,0,0,0,0,0,0,0,-1,1406,1786,8.28415,-3.56485
189,-762,8.21179,5.23389,0,0,0,0,0,0,0,-1,1413,1786,8.21183,-5.23383
196,-762,8.05969,6.95483,0,0,0,0,0,0,0,-1,1420,1786,8.05972,-6.9548
203,-762,24.0077,7.10425,0,0,0,0,0,0,0,-1,1427,1786,24.0077,-7.10426
210,-762,23.8073,7.6499,0,0,0,0,0,0,0,-1,1434,1786,23.8073,-7.64987
217,-762,23.3193,8.24426,0,0,0,0,0,0,0,-1,1441,1786,23.3194,-8.2442
224,-762,2.65149,20.6106,0,0,0,0,0,0,0,-1,1448,1786,2.65153,-20.6106
231,-762,5.46655,23.521,0,0,0,0,0,0,0,-1,1455,1786,5.46653,-23.521
238,-762,4.75769,22.734,0,0,0,0,0,0,0,-1,1462,1786,4.75767,-22.734
245,-762,7.45911,19.8107,0,0,0,0,0,0,0,-1,1469,1786,7.45905,-19.8107
252,-762,3.10474,18.8385,0,0,0,0,0,0,0,-1,1476,1786,3.10476,-18.8385
259,-762,17.4619,7.89832,0,0,0,0,0,0,0,-1,1483,1786,17.462,-7.89836
266,-762,16.451,7.67773,0,0,0,0,0,0,0,-1,1490,1786,16.4511,-7.67773
273,-762,15.287,7.5304,0,0,0,0,0,0,0,-1,1497,1786,15.2869,-7.53044
280,-762,14.1501,7.38379,0,0,0,0,0,0,0,-1,1504,1786,14.1502,-7.38376
287,-762,12.6891,7.99133,0,0,0,0,0,0,0,-1,1511,1786,12.6891,-7.99135
294,-762,12.6959,8.30371,0,0,0,0,0,0,0,-1,1518,1786,12.6959,-8.30368
301,-762,11.4222,8.84143,0,0,0,0,0,0,0,-1,1525,1786,11.4223,-8.84149
308,-762,0,0,0,0,0,0,0,0,0,-1,1532,1786,0,0
315,-762,0,0,0,0,0,0,0,0,0,-1,1539,1786,0,0
322,-762,0,0,0,0,0,0,0,0,0,-1,1546,1786,0,0
329,-762,0,0,0,0,0,0,0,0,0,-1,1553,1786,0,0
336,-762,0,0,0,0,0,0,0,0,0,-1,1560,1786,0,0
343,-762,0,0,0,0,0,0,0,0,0,-1,1567,1786,0,0
350,-762,0,0,0,0,0,0,0,0,0,-1,1574,1786,0,0
357,-762,0,0,0,0,0,0,0,0,0,-1,1581,1786,0,0
364,-762,0,0,0,0,0,0,0,0,0,-1,1588,1786,0,0
371,-762,0,0,0,0,0,0,0,0,0,-1,1595,1786,0,0
378,-762,0,0,0,0,0,0,0,0,0,-1,1602,1786,0,0
385,-762,0,0,0,0,0,0,0,0,0,-1,1609,1786,0,0
392,-762,0,0,0,0,0,0,0,0,0,-1,1616,1786,0,0
399,-762,0,0,0,0,0,0,0,0,0,-1,1623,1786,0,0
406,-762,0,0,0,0,0,0,0,0,0,-1,1630,1786,0,0
413,-762,0,0,0,0,0,0,0,0,0,-1,1637,1786,0,0
420,-762,0,0,0,0,0,0,0,0,0,-1,1644,1786,0,0
427,-762,0,0,0,0,0,0,0,0,0,-1,1651,1786,0,0
434,-762,0,0,0,0,0,0,0,0,0,-1,1658,1786,0,0
441,-762,0,0,0,0,0,0,0,0,0,-1,1665,1786,0,0
448,-762,0,0,0,0,0,0,0,0,0,-1,1672,1786,0,0
455,-762,0,0,0,0,0,0,0,0,0,-1,1679,1786,0,0
462,-762,0,0,0,0,0,0,0,0,0,-1,1686,1786,0,0
469,-762,0,0,0,0,0,0,0,0,0,-1,1693,1786,0,0
476,-762,0,0,0,0,0,0,0,0,0,-1,1700,1786,0,0
483,-762,0,0,0,0,0,0,0,0,0,-1,1707,1786,0,0
490,-762,0,0,0,0,0,0,0,0,0,-1,1714,1786,0,0
497,-762,0,0,0,0,0,0,0,0,0,-1,1721,1786,0,0
504,-762,0,0,0,0,0,0,0,0,0,-1,1728,1786,0,0
511,-762,0,0,0,0,0,0,0,0,0,-1,1735,1786,0,0
518,-762,0,0,0,0,0,0,0,0,0,-1,1742,1786,0,0
525,-762,0,0,0,0,0,0,0,0,0,-1,1749,1786,0,0
532,-762,0,0,0,0,0,0,0,0,0,-1,1756,1786,0,0
539,-762,0,0,0,0,0,0,0,0,0,-1,1763,1786,0,0
546,-762,0,0,0,0,0,0,0,0,0,-1,1770,1786,0,0
553,-762,0,0,0,0,0,0,0,0,0,-1,1777,1786,0,0
560,-762,0,0,0,0,0,0,0,0,0,-1,1784,1786,0,0
567,-762,0,0,0,0,0,0,0,0,0,-1,1791,1786,0,0
574,-762,0,0,0,0,0,0,0,0,0,-1,1798,1786,0,0
581,-762,0,0,0,0,0,0,0,0,0,-1,1805,1786,0,0
588,-762,0,0,0,0,0,0,0,0,0,-1,1812,1786,0,0
595,-762,0,0,0,0,0,0,0,0,0,-1,1819,1786,0,0
602,-762,0,0,0,0,0,0,0,0,0,-1,1826,1786,0,0
609,-762,0,0,0,0,0,0,0,0,0,-1,1833,1786,0,0
616,-762,0,0,0,0,0,0,0,0,0,-1,1840,1786,0,0
623,-762,0,0,0,0,0,0,0,0,0,-1,1847,1786,0,0
630,-762,0,0,0,0,0,0,0,0,0,-1,1854,1786,0,0
637,-762,0,0,0,0,0,0,0,0,0,-1,1861,1786,0,0
644,-762,0,0,0,0,0,0,0,0,0,-1,1868,1786,0,0
651,-762,0,0,0,0,0,0,0,0,0,-1,1875,1786,0,0
658,-762,0,0,0,0,0,0,0,0,0,-1,1882,1786,0,0
665,-762,0,0,0,0,0,0,0,0,0,-1,1889,1786,0,0
672,-762,0,0,0,0,0,0,0,0,0,-1,1896,1786,0,0
679,-762,0,0,0,0,0,0,0,0,0,-1,1903,1786,0,0
686,-762,0,0,0,0,0,0,0,0,0,-1,1910,1786,0,0
693,-762,0,0,0,0,0,0,0,0,0,-1,1917,1786,0,0
700,-762,0,0,0,0,0,0,0,0,0,-1,1924,1786,0,0
707,-762,0,0,0,0,0,0,0,0,0,-1,1931,1786,0,0
714,-762,0,0,0,0,0,0,0,0,0,-1,1938,1786,0,0
721,-762,0,0,0,0,0,0,0,0,0,-1,1945,1786,0,0
728,-762,0,0,0,0,0,0,0,0,0,-1,1952,1786,0,0
735,-762,0,0,0,0,0,0,0,0,0,-1,1959,1786,0,0
742,-762,0,0,0,0,0,0,0,0,0,-1,1966,1786,0,0
749,-762,0,0,0,0,0,0,0,0,0,-1,1973,1786,0,0
756,-762,0,0,0,0,0,0,0,0,0,-1,1980,1786,0,0
763,-762,0,0,0,0,0,0,0,0,0,-1,1987,1786,0,0
770,-762,0,0,0,0,0,0,0,0,0,-1,1994,1786,0,0
777,-762,0,0,0,0,0,0,0,0,0,-1,2001,1786,0,0
784,-762,0,0,0,0,0,0,0,0,0,-1,2008,1786,0,0
791,-762,0,0,0,0,0,0,0,0,0,-1,2015,1786,0,0
798,-762,0,0,0,0,0,0,0,0,0,-1,2022,1786,0,0
805,-762,0,0,0,0,0,0,0,0,0,-1,2029,1786,0,0
812,-762,0,0,0,0,0,0,0,0,0,-1,2036,1786,0,0
-700,-769,0,0,0,0,0,0,0,0,0,-1,524,1793,0,0
-693,-769,0,0,0,0,0,0,0,0,0,-1,531,1793,0,0
-686,-769,0,0,0,0,0,0,0,0,0,-1,538,1793,0,0
-679,-769,0,0,0,0,0,0,0,0,0,-1,545,1793,0,0
-672,-769,0,0,0,0,0,0,0,0,0,-1,552,1793,0,0
-665,-769,0,0,0,0,0,0,0,0,0,-1,559,1793,0,0
-658,-769,0,0,0,0,0,0,0,0,0,-1,566,1793,0,0
-651,-769,0,0,0,0,0,0,0,0,0,-1,573,1793,0,0
-644,-769,0,0,0,0,0,0,0,0,0,-1,580,1793,0,0
-637,-769,0,0,0,0,0,0,0,0,0,-1,587,1793,0,0
-630,-769,0,0,0,0,0,0,0,0,0,-1,594,1793,0,0
-623,-769,0,0,0,0,0,0,0,0,0,-1,601,1793,0,0
-616,-769,0,0,0,0,0,0,0,0,0,-1,608,1793,0,0
-609,-769,0,0,0,0,0,0,0,0,0,-1,615,1793,0,0
-602,-769,0,0,0,0,0,0,0,0,0,-1,622,1793,0,0
-595,-769,0,0,0,0,0,0,0,0,0,-1,629,1793,0,0
-588,-769,0,0,0,0,0,0,0,0,0,-1,636,1793,0,0
-581,-769,0,0,0,0,0,0,0,0,0,-1,643,1793,0,0
-574,-769,0,0,0,0,0,0,0,0,0,-1,650,1793,0,0
-567,-769,0,0,0,0,0,0,0,0,0,-1,657,1793,0,0
-560,-769,0,0,0,0,0,0,0,0,0,-1,664,1793,0,0
-553,-769,0,0,0,0,0,0,0,0,0,-1,671,1793,0,0
-546,-769,0,0,0,0,0,0,0,0,0,-1,678,1793,0,0
-539,-769,0,0,0,0,0,0,0,0,0,-1,685,1793,0,0
-532,-769,0,0,0,0,0,0,0,0,0,-1,692,1793,0,0
-525,-769,0,0,0,0,0,0,0,0,0,-1,699,1793,0,0
-518,-769,0,0,0,0,0,0,0,0,0,-1,706,1793,0,0
-511,-769,0,0,0,0,0,0,0,0,0,-1,713,1793,0,0
-504,-769,0,0,0,0,0,0,0,0,0,-1,720,1793,0,0
-497,-769,0,0,0,0,0,0,0,0,0,-1,727,1793,0,0
-490,-769,0,0,0,0,0,0,0,0,0,-1,734,1793,0,0
-483,-769,0,0,0,0,0,0,0,0,0,-1,741,1793,0,0
-476,-769,0,0,0,0,0,0,0,0,0,-1,748,1793,0,0
-469,-769,0,0,0,0,0,0,0,0,0,-1,755,1793,0,0
-462,-769,0,0,0,0,0,0,0,0,0,-1,762,1793,0,0
-455,-769,0,0,0,0,0,0,0,0,0,-1,769,1793,0,0
-448,-769,0,0,0,0,0,0,0,0,0,-1,776,1793,0,0
-441,-769,0,0,0,0,0,0,0,0,0,-1,783,1793,0,0
-434,-769,0,0,0,0,0,0,0,0,0,-1,790,1793,0,0
-427,-769,0,0,0,0,0,0,0,0,0,-1,797,1793,0,0
-420,-769,0,0,0,0,0,0,0,0,0,-1,804,1793,0,0
-413,-769,0,0,0,0,0,0,0,0,0,-1,811,1793,0,0
-406,-769,0,0,0,0,0,0,0,0,0,-1,818,1793,0,0
-399,-769,0,0,0,0,0,0,0,0,0,-1,825,1793,0,0
-392,-769,0,0,0,0,0,0,0,0,0,-1,832,1793,0,0
-385,-769,0,0,0,0,0,0,0,0,0,-1,839,1793,0,0
-378,-769,0,0,0,0,0,0,0,0,0,-1,846,1793,0,0
-371,-769,0,0,0,0,0,0,0,0,0,-1,853,1793,0,0
-364,-769,0,0,0,0,0,0,0,0,0,-1,860,1793,0,0
-357,-769,0,0,0,0,0,0,0,0,0,-1,867,1793,0,0
-350,-769,0,0,0,0,0,0,0,0,0,-1,874,1793,0,0
-343,-769,0,0,0,0,0,0,0,0,0,-1,881,1793,0,0
-336,-769,0,0,0,0,0,0,0,0,0,-1,888,1793,0,0
-329,-769,0,0,0,0,0,0,0,0,0,-1,895,1793,0,0
-322,-769,0,0,0,0,0,0,0,0,0,-1,902,1793,0,0
-315,-769,0,0,0,0,0,0,0,0,0,-1,909,1793,0,0
-308,-769,0,0,0,0,0,0,0,0,0,-1,916,1793,0,0
-301,-769,0,0,0,0,0,0,0,0,0,-1,923,1793,0,0
-294,-769,0,0,0,0,0,0,0,0,0,-1,930,1793,0,0
-287,-769,0,0,0,0,0,0,0,0,0,-1,937,1793,0,0
-280,-769,0,0,0,0,0,0,0,0,0,-1,944,1793,0,0
-273,-769,0,0,0,0,0,0,0,0,0,-1,951,1793,0,0
-266,-769,0,0,0,0,0,0,0,0,0,-1,958,1793,0,0
-259,-769,0,0,0,0,0,0,0,0,0,-1,965,1793,0,0
-252,-769,0,0,0,0,0,0,0,0,0,-1,972,1793,0,0
-245,-769,0,0,0,0,0,0,0,0,0,-1,979,1793,0,0
-238,-769,0,0,0,0,0,0,0,0,0,-1,986,1793,0,0
-231,-769,0,0,0,0,0,0,0,0,0,-1,993,1793,0,0
-224,-769,0,0,0,0,0,0,0,0,0,-1,1000,1793,0,0
-217,-769,0,0,0,0,0,0,0,0,0,-1,1007,1793,0,0
-210,-769,0,0,0,0,0,0,0,0,0,-1,1014,1793,0,0
-203,-769,0,0,0,0,0,0,0,0,0,-1,1021,1793,0,0
-196,-769,0,0,0,0,0,0,0,0,0,-1,1028,1793,0,0
-189,-769,0,0,0,0,0,0,0,0,0,-1,1035,1793,0,0
-182,-769,0,0,0,0,0,0,0,0,0,-1,1042,1793,0,0
-175,-769,0,0,0,0,0,0,0,0,0,-1,1049,1793,0,0
-168,-769,0,0,0,0,0,0,0,0,0,-1,1056,1793,0,0
-161,-769,-3.61145,12.4761,0,0,0,0,0,0,0,-1,1063,1793,-3.6114,-12.476
-154,-769,-0.813232,5.32874,0,0,0,0,0,0,0,-1,1070,1793,-0.813269,-5.32872
-147,-769,4.26587,4.7002,0,0,0,0,0,0,0,-1,1077,1793,4.26593,-4.70022
-140,-769,4.10376,5.28589,0,0,0,0,0,0,0,-1,1084,1793,4.10371,-5.28584
-133,-769,6.422,8.21777,0,0,0,0,0,0,0,-1,1091,1793,6.42198,-8.21773
-126,-769,-0.352295,19.326,0,0,0,0,0,0,0,-1,1098,1793,-0.352235,-19.326
-119,-769,6.01685,16.2577,0,0,0,0,0,0,0,-1,1105,1793,6.01689,-16.2576
-112,-769,2.77722,20.0741,0,0,0,0,0,0,0,-1,1112,1793,2.77727,-20.0741
-105,-769,4.55212,21.8363,0,0,0,0,0,0,0,-1,1119,1793,4.55214,-21.8363
-98,-769,4.55505,18.981,0,0,0,0,0,0,0,-1,1126,1793,4.55509,-18.981
-91,-769,4.28101,16.0465,0,0,0,0,0,0,0,-1,1133,1793,4.28101,-16.0465
-84,-769,3.7594,13.0021,0,0,0,0,0,0,0,-1,1140,1793,3.75942,-13.0021
-77,-769,2.48816,8.98486,0,0,0,0,0,0,0,-1,1147,1793,2.48815,-8.98489
-70,-769,1.04944,11.9852,0,0,0,0,0,0,0,-1,1154,1793,1.04947,-11.9852
-63,-769,-2.39709,9.60339,0,0,0,0,0,0,0,-1,1161,1793,-2.39706,-9.6034
-56,-769,-5.84363,7.22156,0,0,0,0,0,0,0,-1,1168,1793,-5.84359,-7.22157
-49,-769,-2.41443,3.95471,0,0,0,0,0,0,0,-1,1175,1793,-2.41446,-3.95471
-42,-769,-3.1991,2.64941,0,0,0,0,0,0,0,-1,1182,1793,-3.19914,-2.64944
-35,-769,-3.50183,1.73389,0,0,0,0,0,0,0,-1,1189,1793,-3.50189,-1.7339
-28,-769,-3.96985,1.14075,0,0,0,0,0,0,0,-1,1196,1793,-3.96985,-1.14078
-21,-769,6.90796,24.4229,0,0,0,0,0,0,0,-1,1203,1793,6.90798,-24.4228
-14,-769,6.89746,24.8167,0,0,0,0,0,0,0,-1,1210,1793,6.89746,-24.8166
-7,-769,5.87634,24.4258,0,0,0,0,0,0,0,-1,1217,1793,5.8764,-24.4258
0,-769,5.67285,24.4017,-0.0305807,0.0280851,-0.00612236,0.0287172,-0.0312128,-1.46791,0.0346106,0.0449608,1224,1793,5.67289,-24.4018
7,-769,5.70361,24.3372,-0.0307272,0.0262285,-0.00607489,0.0268692,-0.0313679,-1.46571,0.0336567,0.0420744,1231,1793,5.70364,-24.3372
14,-769,6.14844,24.5089,-0.0277882,0.0261999,-0.00531258,0.0267177,-0.028306,-1.47364,0.0317723,0.0389309,1238,1793,6.14839,-24.509
21,-769,6.11157,24.6952,-0.0232694,0.0259858,-0.00321028,0.0261941,-0.0234777,-1.50599,0.0286924,0.043295,1245,1793,6.1116,-24.6952
28,-769,5.43323,24.4865,-0.0180491,0.0261212,-0.000556591,0.0261283,-0.0180561,-1.5582,0.0256514,0.0438958,1252,1793,5.43326,-24.4864
35,-769,4.80823,24.5858,-0.0114803,0.0261614,0.00265445,0.0263476,-0.0116666,1.50074,0.0224865,0.0489002,1259,1793,4.80819,-24.5859
42,-769,4.34167,24.7472,0,0,0,0,0,0,0,-1,1266,1793,4.34163,-24.7472
49,-769,6.21521,24.6359,0.00152983,0.0244166,0.00721988,0.0265038,-0.000557411,1.28937,0.0178579,0.0411747,1273,1793,6.21519,-24.6358
56,-769,6.27991,24.4468,0.00741749,0.0235465,0.00932926,0.0278137,0.00315027,1.1418,0.0175867,0.04076,1280,1793,6.27995,-24.4468
63,-769,6.25842,24.4471,0.0129552,0.0199852,0.0109163,0.0279385,0.00500195,0.941153,0.0172025,0.0447615,1287,1793,6.25844,-24.4472
70,-769,6.00525,24.5437,0.0178485,0.0173163,0.0122462,0.0298315,0.0053333,0.774537,0.0183698,0.0460399,1294,1793,6.00529,-24.5437
77,-769,6.04248,24.4873,0.0222872,0.0143458,0.0125735,0.0315021,0.00513086,0.632454,0.0195172,0.0479496,1301,1793,6.04248,-24.4873
84,-769,6.24622,24.4819,0.0247954,0.0104878,0.0118498,0.0314834,0.00379978,0.513827,0.019844,0.0475455,1308,1793,6.24623,-24.4819
91,-769,6.44678,23.896,0.0259382,0.00606652,0.0105656,0.0305059,0.00149883,0.408053,0.0198565,0.0465391,1315,1793,6.44672,-23.896
98,-769,5.56177,24.2577,0.0256111,0.00199606,0.00829604,0.0282341,-0.00062701,0.306237,0.0190352,0.0478344,1322,1793,5.56182,-24.2576
105,-769,5.42151,24.4274,0.02581,-0.00194037,0.00649013,0.0272529,-0.00338323,0.218758,0.0193949,0.0455767,1329,1793,5.42145,-24.4274
112,-769,5.62793,24.3489,0,0,0,0,0,0,0,-1,1336,1793,5.62787,-24.3489
119,-769,5.3678,24.1899,0,0,0,0,0,0,0,-1,1343,1793,5.36777,-24.1899
126,-769,5.30542,24.2684,0,0,0,0,0,0,0,-1,1350,1793,5.30546,-24.2684
133,-769,5.69727,24.1815,0,0,0,0,0,0,0,-1,1357,1793,5.69732,-24.1815
140,-769,5.40112,24.0167,0,0,0,0,0,0,0,-1,1364,1793,5.40117,-24.0167
147,-769,5.73035,24.2086,0,0,0,0,0,0,0,-1,1371,1793,5.73039,-24.2086
154,-769,6.37561,1.00024,0,0,0,0,0,0,0,-1,1378,1793,6.37566,-1.00028
161,-769,6.57019,1.53223,0,0,0,0,0,0,0,-1,1385,1793,6.57019,-1.53226
168,-769,8.27637,0.756958,0,0,0,0,0,0,0,-1,1392,1793,8.27639,-0.756944
175,-769,8.47144,2.41174,0,0,0,0,0,0,0,-1,1399,1793,8.47147,-2.4118
182,-769,8.41479,4.05994,0,0,0,0,0,0,0,-1,1406,1793,8.41479,-4.05997
189,-769,8.25049,5.68433,0,0,0,0,0,0,0,-1,1413,1793,8.25054,-5.68428
196,-769,7.97729,7.42847,0,0,0,0,0,0,0,-1,1420,1793,7.9773,-7.42848
203,-769,22.0977,6.73889,0,0,0,0,0,0,0,-1,1427,1793,22.0977,-6.7389
210,-769,22.1115,7.77246,0,0,0,0,0,0,0,-1,1434,1793,22.1115,-7.77248
217,-769,22.4723,8.79102,0,0,0,0,0,0,0,-1,1441,1793,22.4723,-8.79099
224,-769,22.1348,9.35278,0,0,0,0,0,0,0,-1,1448,1793,22.1348,-9.35283
231,-769,3.13318,19.7184,0,0,0,0,0,0,0,-1,1455,1793,3.13323,-19.7184
238,-769,5.74512,18.6597,0,0,0,0,0,0,0,-1,1462,1793,5.74512,-18.6596
245,-769,5.71143,16.2483,0,0,0,0,0,0,0,-1,1469,1793,5.71137,-16.2483
252,-769,4.34961,12.5251,0,0,0,0,0,0,0,-1,1476,1793,4.34959,-12.5252
259,-769,16.4871,7.42102,0,0,0,0,0,0,0,-1,1483,1793,16.4871,-7.42104
266,-769,15.8488,7.3905,0,0,0,0,0,0,0,-1,1490,1793,15.8488,-7.39046
273,-769,14.8075,7.56152,0,0,0,0,0,0,0,-1,1497,1793,14.8075,-7.56152
280,-769,13.6519,7.43054,0,0,0,0,0,0,0,-1,1504,1793,13.6518,-7.43058
287,-769,0,0,0,0,0,0,0,0,0,-1,1511,1793,0,0
294,-769,0,0,0,0,0,0,0,0,0,-1,1518,1793,0,0
301,-769,0,0,0,0,0,0,0,0,0,-1,1525,1793,0,0
308,-769,0,0,0,0,0,0,0,0,0,-1,1532,1793,0,0
315,-769,0,0,0,0,0,0,0,0,0,-1,1539,1793,0,0
322,-769,0,0,0,0,0,0,0,0,0,-1,1546,1793,0,0
329,-769,0,0,0,0,0,0,0,0,0,-1,1553,1793,0,0
336,-769,0,0,0,0,0,0,0,0,0,-1,1560,1793,0,0
343,-769,0,0,0,0,0,0,0,0,0,-1,1567,1793,0,0
350,-769,0,0,0,0,0,0,0,0,0,-1,1574,1793,0,0
357,-769,0,0,0,0,0,0,0,0,0,-1,1581,1793,0,0
364,-769,0,0,0,0,0,0,0,0,0,-1,1588,1793,0,0
371,-769,0,0,0,0,0,0,0,0,0,-1,1595,1793,0,0
378,-769,0,0,0,0,0,0,0,0,0,-1,1602,1793,0,0
385,-769,0,0,0,0,0,0,0,0,0,-1,1609,1793,0,0
392,-769,0,0,0,0,0,0,0,0,0,-1,1616,1793,0,0
399,-769,0,0,0,0,0,0,0,0,0,-1,1623,1793,0,0
406,-769,0,0,0,0,0,0,0,0,0,-1,1630,1793,0,0
413,-769,0,0,0,0,0,0,0,0,0,-1,1637,1793,0,0
420,-769,0,0,0,0,0,0,0,0,0,-1,1644,1793,0,0
427,-769,0,0,0,0,0,0,0,0,0,-1,1651,1793,0,0
434,-769,0,0,0,0,0,0,0,0,0,-1,1658,1793,0,0
441,-769,0,0,0,0,0,0,0,0,0,-1,1665,1793,0,0
448,-769,0,0,0,0,0,0,0,0,0,-1,1672,1793,0,0
455,-769,0,0,0,0,0,0,0,0,0,-1,1679,1793,0,0
462,-769,0,0,0,0,0,0,0,0,0,-1,1686,1793,0,0
469,-769,0,0,0,0,0,0,0,0,0,-1,1693,1793,0,0
476,-769,0,0,0,0,0,0,0,0,0,-1,1700,1793,0,0
483,-769,0,0,0,0,0,0,0,0,0,-1,1707,1793,0,0
490,-769,0,0,0,0,0,0,0,0,0,-1,1714,1793,0,0
497,-769,0,0,0,0,0,0,0,0,0,-1,1721,1793,0,0
504,-769,0,0,0,0,0,0,0,0,0,-1,1728,1793,0,0
511,-769,0,0,0,0,0,0,0,0,0,-1,1735,1793,0,0
518,-769,0,0,0,0,0,0,0,0,0,-1,1742,1793,0,0
525,-769,0,0,0,0,0,0,0,0,0,-1,1749,1793,0,0
532,-769,0,0,0,0,0,0,0,0,0,-1,1756,1793,0,0
539,-769,0,0,0,0,0,0,0,0,0,-1,1763,1793,0,0
546,-769,0,0,0,0,0,0,0,0,0,-1,1770,1793,0,0
553,-769,0,0,0,0,0,0,0,0,0,-1,1777,1793,0,0
560,-769,0,0,0,0,0,0,0,0,0,-1,1784,1793,0,0
567,-769,0,0,0,0,0,0,0,0,0,-1,1791,1793,0,0
574,-769,0,0,0,0,0,0,0,0,0,-1,1798,1793,0,0
581,-769,0,0,0,0,0,0,0,0,0,-1,1805,1793,0,0
588,-769,0,0,0,0,0,0,0,0,0,-1,1812,1793,0,0
595,-769,0,0,0,0,0,0,0,0,0,-1,1819,1793,0,0
602,-769,0,0,0,0,0,0,0,0,0,-1,1826,1793,0,0
609,-769,0,0,0,0,0,0,0,0,0,-1,1833,1793,0,0
616,-769,0,0,0,0,0,0,0,0,0,-1,1840,1793,0,0
623,-769,0,0,0,0,0,0,0,0,0,-1,1847,1793,0,0
630,-769,0,0,0,0,0,0,0,0,0,-1,1854,1793,0,0
637,-769,0,0,0,0,0,0,0,0,0,-1,1861,1793,0,0
644,-769,0,0,0,0,0,0,0,0,0,-1,1868,1793,0,0
651,-769,0,0,0,0,0,0,0,0,0,-1,1875,1793,0,0
658,-769,0,0,0,0,0,0,0,0,0,-1,1882,1793,0,0
665,-769,0,0,0,0,0,0,0,0,0,-1,1889,1793,0,0
672,-769,0,0,0,0,0,0,0,0,0,-1,1896,1793,0,0
679,-769,0,0,0,0,0,0,0,0,0,-1,1903,1793,0,0
686,-769,0,0,0,0,0,0,0,0,0,-1,1910,1793,0,0
693,-769,0,0,0,0,0,0,0,0,0,-1,1917,1793,0,0
700,-769,0,0,0,0,0,0,0,0,0,-1,1924,1793,0,0
707,-769,0,0,0,0,0,0,0,0,0,-1,1931,1793,0,0
714,-769,0,0,0,0,0,0,0,0,0,-1,1938,1793,0,0
721,-769,0,0,0,0,0,0,0,0,0,-1,1945,1793,0,0
728,-769,0,0,0,0,0,0,0,0,0,-1,1952,1793,0,0
735,-769,0,0,0,0,0,0,0,0,0,-1,1959,1793,0,0
742,-769,0,0,0,0,0,0,0,0,0,-1,1966,1793,0,0
749,-769,0,0,0,0,0,0,0,0,0,-1,1973,1793,0,0
756,-769,0,0,0,0,0,0,0,0,0,-1,1980,1793,0,0
763,-769,0,0,0,0,0,0,0,0,0,-1,1987,1793,0,0
770,-769,0,0,0,0,0,0,0,0,0,-1,1994,1793,0,0
777,-769,0,0,0,0,0,0,0,0,0,-1,2001,1793,0,0
784,-769,0,0,0,0,0,0,0,0,0,-1,2008,1793,0,0
791,-769,0,0,0,0,0,0,0,0,0,-1,2015,1793,0,0
798,-769,0,0,0,0,0,0,0,0,0,-1,2022,1793,0,0
805,-769,0,0,0,0,0,0,0,0,0,-1,2029,1793,0,0
812,-769,0,0,0,0,0,0,0,0,0,-1,2036,1793,0,0
-700,-776,0,0,0,0,0,0,0,0,0,-1,524,1800,0,0
-693,-776,0,0,0,0,0,0,0,0,0,-1,531,1800,0,0
-686,-776,0,0,0,0,0,0,0,0,0,-1,538,1800,0,0
-679,-776,0,0,0,0,0,0,0,0,0,-1,545,1800,0,0
-672,-776,0,0,0,0,0,0,0,0,0,-1,552,1800,0,0
-665,-776,0,0,0,0,0,0,0,0,0,-1,559,1800,0,0
-658,-776,0,0,0,0,0,0,0,0,0,-1,566,1800,0,0
-651,-776,0,0,0,0,0,0,0,0,0,-1,573,1800,0,0
-644,-776,0,0,0,0,0,0,0,0,0,-1,580,1800,0,0
-637,-776,0,0,0,0,0,0,0,0,0,-1,587,1800,0,0
-630,-776,0,0,0,0,0,0,0,0,0,-1,594,1800,0,0
-623,-776,0,0,0,0,0,0,0,0,0,-1,601,1800,0,0
-616,-776,0,0,0,0,0,0,0,0,0,-1,608,1800,0,0
-609,-776,0,0,0,0,0,0,0,0,0,-1,615,1800,0,0
-602,-776,0,0,0,0,0,0,0,0,0,-1,622,1800,0,0
-595,-776,0,0,0,0,0,0,0,0,0,-1,629,1800,0,0
-588,-776,0,0,0,0,0,0,0,0,0,-1,636,1800,0,0
-581,-776,0,0,0,0,0,0,0,0,0,-1,643,1800,0,0
-574,-776,0,0,0,0,0,0,0,0,0,-1,650,1800,0,0
-567,-776,0,0,0,0,0,0,0,0,0,-1,657,1800,0,0
-560,-776,0,0,0,0,0,0,0,0,0,-1,664,1800,0,0
-553,-776,0,0,0,0,0,0,0,0,0,-1,671,1800,0,0
-546,-776,0,0,0,0,0,0,0,0,0,-1,678,1800,0,0
-539,-776,0,0,0,0,0,0,0,0,0,-1,685,1800,0,0
-532,-776,0,0,0,0,0,0,0,0,0,-1,692,1800,0,0
-525,-776,0,0,0,0,0,0,0,0,0,-1,699,1800,0,0
-518,-776,0,0,0,0,0,0,0,0,0,-1,706,1800,0,0
-511,-776,0,0,0,0,0,0,0,0,0,-1,713,1800,0,0
-504,-776,0,0,0,0,0,0,0,0,0,-1,720,1800,0,0
-497,-776,0,0,0,0,0,0,0,0,0,-1,727,1800,0,0
-490,-776,0,0,0,0,0,0,0,0,0,-1,734,1800,0,0
-483,-776,0,0,0,0,0,0,0,0,0,-1,741,1800,0,0
-476,-776,0,0,0,0,0,0,0,0,0,-1,748,1800,0,0
-469,-776,0,0,0,0,0,0,0,0,0,-1,755,1800,0,0
-462,-776,0,0,0,0,0,0,0,0,0,-1,762,1800,0,0
-455,-776,0,0,0,0,0,0,0,0,0,-1,769,1800,0,0
-448,-776,0,0,0,0,0,0,0,0,0,-1,776,1800,0,0
-441,-776,0,0,0,0,0,0,0,0,0,-1,783,1800,0,0
-434,-776,0,0,0,0,0,0,0,0,0,-1,790,1800,0,0
-427,-776,0,0,0,0,0,0,0,0,0,-1,797,1800,0,0
-420,-776,0,0,0,0,0,0,0,0,0,-1,804,1800,0,0
-413,-776,0,0,0,0,0,0,0,0,0,-1,811,1800,0,0
-406,-776,0,0,0,0,0,0,0,0,0,-1,818,1800,0,0
-399,-776,0,0,0,0,0,0,0,0,0,-1,825,1800,0,0
-392,-776,0,0,0,0,0,0,0,0,0,-1,832,1800,0,0
-385,-776,0,0,0,0,0,0,0,0,0,-1,839,1800,0,0
-378,-776,0,0,0,0,0,0,0,0,0,-1,846,1800,0,0
-371,-776,0,0,0,0,0,0,0,0,0,-1,853,1800,0,0
-364,-776,0,0,0,0,0,0,0,0,0,-1,860,1800,0,0
-357,-776,0,0,0,0,0,0,0,0,0,-1,867,1800,0,0
-350,-776,0,0,0,0,0,0,0,0,0,-1,874,1800,0,0
-343,-776,0,0,0,0,0,0,0,0,0,-1,881,1800,0,0
-336,-776,0,0,0,0,0,0,0,0,0,-1,888,1800,0,0
-329,-776,0,0,0,0,0,0,0,0,0,-1,895,1800,0,0
-322,-776,0,0,0,0,0,0,0,0,0,-1,902,1800,0,0
-315,-776,0,0,0,0,0,0,0,0,0,-1,909,1800,0,0
-308,-776,0,0,0,0,0,0,0,0,0,-1,916,1800,0,0
-301,-776,0,0,0,0,0,0,0,0,0,-1,923,1800,0,0
-294,-776,0,0,0,0,0,0,0,0,0,-1,930,1800,0,0
-287,-776,0,0,0,0,0,0,0,0,0,-1,937,1800,0,0
-280,-776,0,0,0,0,0,0,0,0,0,-1,944,1800,0,0
-273,-776,0,0,0,0,0,0,0,0,0,-1,951,1800,0,0
-266,-776,0,0,0,0,0,0,0,0,0,-1,958,1800,0,0
-259,-776,0,0,0,0,0,0,0,0,0,-1,965,1800,0,0
-252,-776,0,0,0,0,0,0,0,0,0,-1,972,1800,0,0
-245,-776,0,0,0,0,0,0,0,0,0,-1,979,1800,0,0
-238,-776,0,0,0,0,0,0,0,0,0,-1,986,1800,0,0
-231,-776,0,0,0,0,0,0,0,0,0,-1,993,1800,0,0
-224,-776,0,0,0,0,0,0,0,0,0,-1,1000,1800,0,0
-217,-776,0,0,0,0,0,0,0,0,0,-1,1007,1800,0,0
-210,-776,0,0,0,0,0,0,0,0,0,-1,1014,1800,0,0
-203,-776,0,0,0,0,0,0,0,0,0,-1,1021,1800,0,0
-196,-776,0,0,0,0,0,0,0,0,0,-1,1028,1800,0,0
-189,-776,0,0,0,0,0,0,0,0,0,-1,1035,1800,0,0
-182,-776,0,0,0,0,0,0,0,0,0,-1,1042,1800,0,0
-175,-776,0,0,0,0,0,0,0,0,0,-1,1049,1800,0,0
-168,-776,0,0,0,0,0,0,0,0,0,-1,1056,1800,0,0
-161,-776,0,0,0,0,0,0,0,0,0,-1,1063,1800,0,0
-154,-776,0,0,0,0,0,0,0,0,0,-1,1070,1800,0,0
-147,-776,0,0,0,0,0,0,0,0,0,-1,1077,1800,0,0
-140,-776,2.98499,5.20911,0,0,0,0,0,0,0,-1,1084,1800,2.98493,-5.2091
-133,-776,6.72363,9.35828,0,0,0,0,0,0,0,-1,1091,1800,6.72358,-9.35824
-126,-776,6.55029,13.7832,0,0,0,0,0,0,0,-1,1098,1800,6.55029,-13.7832
-119,-776,5.72107,13.7787,0,0,0,0,0,0,0,-1,1105,1800,5.72106,-13.7787
-112,-776,6.84998,20.4421,0,0,0,0,0,0,0,-1,1112,1800,6.84993,-20.4421
-105,-776,2.15039,19.7095,0,0,0,0,0,0,0,-1,1119,1800,2.1504,-19.7095
-98,-776,3.73413,20.6542,0,0,0,0,0,0,0,-1,1126,1800,3.73418,-20.6541
-91,-776,3.61462,18.3563,0,0,0,0,0,0,0,-1,1133,1800,3.6146,-18.3564
-84,-776,3.16504,15.3834,0,0,0,0,0,0,0,-1,1140,1800,3.16509,-15.3835
-77,-776,0.580078,11.1272,0,0,0,0,0,0,0,-1,1147,1800,0.58002,-11.1272
-70,-776,-0.562866,12.3163,0,0,0,0,0,0,0,-1,1154,1800,-0.562897,-12.3163
-63,-776,-3.96106,9.97656,0,0,0,0,0,0,0,-1,1161,1800,-3.961,-9.97654
-56,-776,-7.35913,7.63672,0,0,0,0,0,0,0,-1,1168,1800,-7.3591,-7.63676
-49,-776,-7.62952,3.1908,0,0,0,0,0,0,0,-1,1175,1800,-7.62955,-3.19076
-42,-776,-3.41272,3.0249,0,0,0,0,0,0,0,-1,1182,1800,-3.41269,-3.02488
-35,-776,-3.71753,1.63635,0,0,0,0,0,0,0,-1,1189,1800,-3.71755,-1.63631
-28,-776,-4.03979,0.716064,0,0,0,0,0,0,0,-1,1196,1800,-4.03977,-0.716055
-21,-776,7.34204,24.8529,0,0,0,0,0,0,0,-1,1203,1800,7.34205,-24.8529
-14,-776,7.31482,25.2397,0,0,0,0,0,0,0,-1,1210,1800,7.31484,-25.2398
-7,-776,5.56714,24.8479,0,0,0,0,0,0,0,-1,1217,1800,5.56711,-24.848
0,-776,5.18494,24.9159,-0.0410661,0.0459688,-0.00948829,0.0469912,-0.0420885,-1.46346,0.0514561,0.0457453,1224,1800,5.18491,-24.9159
7,-776,5.4021,24.3979,-0.0410974,0.0421123,-0.00942473,0.0431664,-0.0421515,-1.45941,0.0492595,0.0470899,1231,1800,5.40213,-24.3979
14,-776,5.77112,24.2365,0,0,0,0,0,0,0,-1,1238,1800,5.77108,-24.2365
21,-776,5.9679,24.8435,-0.0297646,0.0394617,-0.00551066,0.0398976,-0.0302006,-1.49186,0.0406001,0.0413522,1245,1800,5.96795,-24.8435
28,-776,5.22876,24.6157,-0.0219427,0.038862,-0.00155718,0.0389019,-0.0219825,-1.54521,0.0356012,0.0418341,1252,1800,5.22882,-24.6157
35,-776,4.63794,24.1379,-0.0124681,0.0381519,0.0032887,0.0383646,-0.0126808,1.50619,0.0306894,0.0434884,1259,1800,4.63796,-24.1379
42,-776,4.20667,23.5812,0,0,0,0,0,0,0,-1,1266,1800,4.20663,-23.5812
49,-776,6.48145,24.738,0.0060193,0.0345236,0.010548,0.0380023,0.0025406,1.25223,0.0245319,0.0454912,1273,1800,6.48144,-24.7381
56,-776,6.6554,24.4835,0.0141607,0.0328084,0.0138203,0.040156,0.00681316,1.08215,0.0248134,0.044096,1280,1800,6.65542,-24.4836
63,-776,6.40417,24.9442,0.0215874,0.02772,0.0163503,0.041289,0.00801834,0.878089,0.0252807,0.0453602,1287,1800,6.40421,-24.9442
70,-776,6.03381,24.572,0,0,0,0,0,0,0,-1,1294,1800,6.03379,-24.572
77,-776,6.08264,24.4828,0,0,0,0,0,0,0,-1,1301,1800,6.08259,-24.4828
84,-776,6.62927,24.3251,0,0,0,0,0,0,0,-1,1308,1800,6.62933,-24.3251
91,-776,6.8645,23.7014,0,0,0,0,0,0,0,-1,1315,1800,6.86456,-23.7014
98,-776,5.36963,24.2662,0,0,0,0,0,0,0,-1,1322,1800,5.36962,-24.2663
105,-776,4.88794,24.5593,0.0375584,-0.00433184,0.0100791,0.0398573,-0.00663077,0.224253,0.0290353,0.0443821,1329,1800,4.88792,-24.5594
112,-776,5.21057,23.7004,0.0369749,-0.00928389,0.00645433,0.0378586,-0.0101676,0.136065,0.0292239,0.0441777,1336,1800,5.21054,-23.7004
119,-776,5.76868,22.8645,0,0,0,0,0,0,0,-1,1343,1800,5.76867,-22.8645
126,-776,4.76917,24.6885,0.0335625,-0.0174268,-0.00196512,0.0336381,-0.0175025,-0.0384637,0.0300119,0.0413868,1350,1800,4.76911,-24.6884
133,-776,5.703,24.4487,0,0,0,0,0,0,0,-1,1357,1800,5.703,-24.4487
140,-776,6.62781,24.2992,0,0,0,0,0,0,0,-1,1364,1800,6.62785,-24.2992
147,-776,0.692017,19.6906,0,0,0,0,0,0,0,-1,1371,1800,0.69197,-19.6906
154,-776,6.43774,0.344116,0,0,0,0,0,0,0,-1,1378,1800,6.43776,-0.344162
161,-776,6.50293,1.1731,0,0,0,0,0,0,0,-1,1385,1800,6.5029,-1.17313
168,-776,8.44971,1.22913,0,0,0,0,0,0,0,-1,1392,1800,8.44974,-1.22915
175,-776,8.61523,2.87061,0,0,0,0,0,0,0,-1,1399,1800,8.6152,-2.87063
182,-776,8.54065,4.60645,0,0,0,0,0,0,0,-1,1406,1800,8.5407,-4.60643
189,-776,8.35303,6.28223,0,0,0,0,0,0,0,-1,1413,1800,8.35297,-6.28225
196,-776,8.0387,8.21704,0,0,0,0,0,0,0,-1,1420,1800,8.03865,-8.217
203,-776,7.91736,9.79919,0,0,0,0,0,0,0,-1,1427,1800,7.91735,-9.79922
210,-776,20.2479,7.85718,0,0,0,0,0,0,0,-1,1434,1800,20.248,-7.85719
217,-776,21.5171,9.3418,0,0,0,0,0,0,0,-1,1441,1800,21.5171,-9.34182
224,-776,3.09253,14.9313,0,0,0,0,0,0,0,-1,1448,1800,3.09254,-14.9313
231,-776,20.8671,9.21057,0,0,0,0,0,0,0,-1,1455,1800,20.867,-9.21054
238,-776,20.7511,9.05847,0,0,0,0,0,0,0,-1,1462,1800,20.7511,-9.05848
245,-776,3.80823,15.4108,0,0,0,0,0,0,0,-1,1469,1800,3.80826,-15.4108
252,-776,16.6313,6.47168,0,0,0,0,0,0,0,-1,1476,1800,16.6313,-6.47165
259,-776,14.1882,7.69055,0,0,0,0,0,0,0,-1,1483,1800,14.1882,-7.69061
266,-776,0,0,0,0,0,0,0,0,0,-1,1490,1800,0,0
273,-776,0,0,0,0,0,0,0,0,0,-1,1497,1800,0,0
280,-776,0,0,0,0,0,0,0,0,0,-1,1504,1800,0,0
287,-776,0,0,0,0,0,0,0,0,0,-1,1511,1800,0,0
294,-776,0,0,0,0,0,0,0,0,0,-1,1518,1800,0,0
301,-776,0,0,0,0,0,0,0,0,0,-1,1525,1800,0,0
308,-776,0,0,0,0,0,0,0,0,0,-1,1532,1800,0,0
315,-776,0,0,0,0,0,0,0,0,0,-1,1539,1800,0,0
322,-776,0,0,0,0,0,0,0,0,0,-1,1546,1800,0,0
329,-776,0,0,0,0,0,0,0,0,0,-1,1553,1800,0,0
336,-776,0,0,0,0,0,0,0,0,0,-1,1560,1800,0,0
343,-776,0,0,0,0,0,0,0,0,0,-1,1567,1800,0,0
350,-776,0,0,0,0,0,0,0,0,0,-1,1574,1800,0,0
357,-776,0,0,0,0,0,0,0,0,0,-1,1581,1800,0,0
364,-776,0,0,0,0,0,0,0,0,0,-1,1588,1800,0,0
371,-776,0,0,0,0,0,0,0,0,0,-1,1595,1800,0,0
378,-776,0,0,0,0,0,0,0,0,0,-1,1602,1800,0,0
385,-776,0,0,0,0,0,0,0,0,0,-1,1609,1800,0,0
392,-776,0,0,0,0,0,0,0,0,0,-1,1616,1800,0,0
399,-776,0,0,0,0,0,0,0,0,0,-1,1623,1800,0,0
406,-776,0,0,0,0,0,0,0,0,0,-1,1630,1800,0,0
413,-776,0,0,0,0,0,0,0,0,0,-1,1637,1800,0,0
420,-776,0,0,0,0,0,0,0,0,0,-1,1644,1800,0,0
427,-776,0,0,0,0,0,0,0,0,0,-1,1651,1800,0,0
434,-776,0,0,0,0,0,0,0,0,0,-1,1658,1800,0,0
441,-776,0,0,0,0,0,0,0,0,0,-1,1665,1800,0,0
448,-776,0,0,0,0,0,0,0,0,0,-1,1672,1800,0,0
455,-776,0,0,0,0,0,0,0,0,0,-1,1679,1800,0,0
462,-776,0,0,0,0,0,0,0,0,0,-1,1686,1800,0,0
469,-776,0,0,0,0,0,0,0,0,0,-1,1693,1800,0,0
476,-776,0,0,0,0,0,0,0,0,0,-1,1700,1800,0,0
483,-776,0,0,0,0,0,0,0,0,0,-1,1707,1800,0,0
490,-776,0,0,0,0,0,0,0,0,0,-1,1714,1800,0,0
497,-776,0,0,0,0,0,0,0,0,0,-1,1721,1800,0,0
504,-776,0,0,0,0,0,0,0,0,0,-1,1728,1800,0,0
511,-776,0,0,0,0,0,0,0,0,0,-1,1735,1800,0,0
518,-776,0,0,0,0,0,0,0,0,0,-1,1742,1800,0,0
525,-776,0,0,0,0,0,0,0,0,0,-1,1749,1800,0,0
532,-776,0,0,0,0,0,0,0,0,0,-1,1756,1800,0,0
539,-776,0,0,0,0,0,0,0,0,0,-1,1763,1800,0,0
546,-776,0,0,0,0,0,0,0,0,0,-1,1770,1800,0,0
553,-776,0,0,0,0,0,0,0,0,0,-1,1777,1800,0,0
560,-776,0,0,0,0,0,0,0,0,0,-1,1784,1800,0,0
567,-776,0,0,0,0,0,0,0,0,0,-1,1791,1800,0,0
574,-776,0,0,0,0,0,0,0,0,0,-1,1798,1800,0,0
581,-776,0,0,0,0,0,0,0,0,0,-1,1805,1800,0,0
588,-776,0,0,0,0,0,0,0,0,0,-1,1812,1800,0,0
595,-776,0,0,0,0,0,0,0,0,0,-1,1819,1800,0,0
602,-776,0,0,0,0,0,0,0,0,0,-1,1826,1800,0,0
609,-776,0,0,0,0,0,0,0,0,0,-1,1833,1800,0,0
616,-776,0,0,0,0,0,0,0,0,0,-1,1840,1800,0,0
623,-776,0,0,0,0,0,0,0,0,0,-1,1847,1800,0,0
630,-776,0,0,0,0,0,0,0,0,0,-1,1854,1800,0,0
637,-776,0,0,0,0,0,0,0,0,0,-1,1861,1800,0,0
644,-776,0,0,0,0,0,0,0,0,0,-1,1868,1800,0,0
651,-776,0,0,0,0,0,0,0,0,0,-1,1875,1800,0,0
658,-776,0,0,0,0,0,0,0,0,0,-1,1882,1800,0,0
665,-776,0,0,0,0,0,0,0,0,0,-1,1889,1800,0,0
672,-776,0,0,0,0,0,0,0,0,0,-1,1896,1800,0,0
679,-776,0,0,0,0,0,0,0,0,0,-1,1903,1800,0,0
686,-776,0,0,0,0,0,0,0,0,0,-1,1910,1800,0,0
693,-776,0,0,0,0,0,0,0,0,0,-1,1917,1800,0,0
700,-776,0,0,0,0,0,0,0,0,0,-1,1924,1800,0,0
707,-776,0,0,0,0,0,0,0,0,0,-1,1931,1800,0,0
714,-776,0,0,0,0,0,0,0,0,0,-1,1938,1800,0,0
721,-776,0,0,0,0,0,0,0,0,0,-1,1945,1800,0,0
728,-776,0,0,0,0,0,0,0,0,0,-1,1952,1800,0,0
735,-776,0,0,0,0,0,0,0,0,0,-1,1959,1800,0,0
742,-776,0,0,0,0,0,0,0,0,0,-1,1966,1800,0,0
749,-776,0,0,0,0,0,0,0,0,0,-1,1973,1800,0,0
756,-776,0,0,0,0,0,0,0,0,0,-1,1980,1800,0,0
763,-776,0,0,0,0,0,0,0,0,0,-1,1987,1800,0,0
770,-776,0,0,0,0,0,0,0,0,0,-1,1994,1800,0,0
777,-776,0,0,0,0,0,0,0,0,0,-1,2001,1800,0,0
784,-776,0,0,0,0,0,0,0,0,0,-1,2008,1800,0,0
791,-776,0,0,0,0,0,0,0,0,0,-1,2015,1800,0,0
798,-776,0,0,0,0,0,0,0,0,0,-1,2022,1800,0,0
805,-776,0,0,0,0,0,0,0,0,0,-1,2029,1800,0,0
812,-776,0,0,0,0,0,0,0,0,0,-1,2036,1800,0,0
-700,-783,0,0,0,0,0,0,0,0,0,-1,524,1807,0,0
-693,-783,0,0,0,0,0,0,0,0,0,-1,531,1807,0,0
-686,-783,0,0,0,0,0,0,0,0,0,-1,538,1807,0,0
-679,-783,0,0,0,0,0,0,0,0,0,-1,545,1807,0,0
-672,-783,0,0,0,0,0,0,0,0,0,-1,552,1807,0,0
-665,-783,0,0,0,0,0,0,0,0,0,-1,559,1807,0,0
-658,-783,0,0,0,0,0,0,0,0,0,-1,566,1807,0,0
-651,-783,0,0,0,0,0,0,0,0,0,-1,573,1807,0,0
-644,-783,0,0,0,0,0,0,0,0,0,-1,580,1807,0,0
-637,-783,0,0,0,0,0,0,0,0,0,-1,587,1807,0,0
-630,-783,0,0,0,0,0,0,0,0,0,-1,594,1807,0,0
-623,-783,0,0,0,0,0,0,0,0,0,-1,601,1807,0,0
-616,-783,0,0,0,0,0,0,0,0,0,-1,608,1807,0,0
-609,-783,0,0,0,0,0,0,0,0,0,-1,615,1807,0,0
-602,-783,0,0,0,0,0,0,0,0,0,-1,622,1807,0,0
-595,-783,0,0,0,0,0,0,0,0,0,-1,629,1807,0,0
-588,-783,0,0,0,0,0,0,0,0,0,-1,636,1807,0,0
-581,-783,0,0,0,0,0,0,0,0,0,-1,643,1807,0,0
-574,-783,0,0,0,0,0,0,0,0,0,-1,650,1807,0,0
-567,-783,0,0,0,0,0,0,0,0,0,-1,657,1807,0,0
-560,-783,0,0,0,0,0,0,0,0,0,-1,664,1807,0,0
-553,-783,0,0,0,0,0,0,0,0,0,-1,671,1807,0,0
-546,-783,0,0,0,0,0,0,0,0,0,-1,678,1807,0,0
-539,-783,0,0,0,0,0,0,0,0,0,-1,685,1807,0,0
-532,-783,0,0,0,0,0,0,0,0,0,-1,692,1807,0,0
-525,-783,0,0,0,0,0,0,0,0,0,-1,699,1807,0,0
-518,-783,0,0,0,0,0,0,0,0,0,-1,706,1807,0,0
-511,-783,0,0,0,0,0,0,0,0,0,-1,713,1807,0,0
-504,-783,0,0,0,0,0,0,0,0,0,-1,720,1807,0,0
-497,-783,0,0,0,0,0,0,0,0,0,-1,727,1807,0,0
-490,-783,0,0,0,0,0,0,0,0,0,-1,734,1807,0,0
-483,-783,0,0,0,0,0,0,0,0,0,-1,741,1807,0,0
-476,-783,0,0,0,0,0,0,0,0,0,-1,748,1807,0,0
-469,-783,0,0,0,0,0,0,0,0,0,-1,755,1807,0,0
-462,-783,0,0,0,0,0,0,0,0,0,-1,762,1807,0,0
-455,-783,0,0,0,0,0,0,0,0,0,-1,769,1807,0,0
-448,-783,0,0,0,0,0,0,0,0,0,-1,776,1807,0,0
-441,-783,0,0,0,0,0,0,0,0,0,-1,783,1807,0,0
-434,-783,0,0,0,0,0,0,0,0,0,-1,790,1807,0,0
-427,-783,0,0,0,0,0,0,0,0,0,-1,797,1807,0,0
-420,-783,0,0,0,0,0,0,0,0,0,-1,804,1807,0,0
-413,-783,0,0,0,0,0,0,0,0,0,-1,811,1807,0,0
-406,-783,0,0,0,0,0,0,0,0,0,-1,818,1807,0,0
-399,-783,0,0,0,0,0,0,0,0,0,-1,825,1807,0,0
-392,-783,0,0,0,0,0,0,0,0,0,-1,832,1807,0,0
-385,-783,0,0,0,0,0,0,0,0,0,-1,839,1807,0,0
-378,-783,0,0,0,0,0,0,0,0,0,-1,846,1807,0,0
-371,-783,0,0,0,0,0,0,0,0,0,-1,853,1807,0,0
-364,-783,0,0,0,0,0,0,0,0,0,-1,860,1807,0,0
-357,-783,0,0,0,0,0,0,0,0,0,-1,867,1807,0,0
-350,-783,0,0,0,0,0,0,0,0,0,-1,874,1807,0,0
-343,-783,0,0,0,0,0,0,0,0,0,-1,881,1807,0,0
-336,-783,0,0,0,0,0,0,0,0,0,-1,888,1807,0,0
-329,-783,0,0,0,0,0,0,0,0,0,-1,895,1807,0,0
-322,-783,0,0,0,0,0,0,0,0,0,-1,902,1807,0,0
-315,-783,0,0,0,0,0,0,0,0,0,-1,909,1807,0,0
-308,-783,0,0,0,0,0,0,0,0,0,-1,916,1807,0,0
-301,-783,0,0,0,0,0,0,0,0,0,-1,923,1807,0,0
-294,-783,0,0,0,0,0,0,0,0,0,-1,930,1807,0,0
-287,-783,0,0,0,0,0,0,0,0,0,-1,937,1807,0,0
-280,-783,0,0,0,0,0,0,0,0,0,-1,944,1807,0,0
-273,-783,0,0,0,0,0,0,0,0,0,-1,951,1807,0,0
-266,-783,0,0,0,0,0,0,0,0,0,-1,958,1807,0,0
-259,-783,0,0,0,0,0,0,0,0,0,-1,965,1807,0,0
-252,-783,0,0,0,0,0,0,0,0,0,-1,972,1807,0,0
-245,-783,0,0,0,0,0,0,0,0,0,-1,979,1807,0,0
-238,-783,0,0,0,0,0,0,0,0,0,-1,986,1807,0,0
-231,-783,0,0,0,0,0,0,0,0,0,-1,993,1807,0,0
-224,-783,0,0,0,0,0,0,0,0,0,-1,1000,1807,0,0
-217,-783,0,0,0,0,0,0,0,0,0,-1,1007,1807,0,0
-210,-783,0,0,0,0,0,0,0,0,0,-1,1014,1807,0,0
-203,-783,0,0,0,0,0,0,0,0,0,-1,1021,1807,0,0
-196,-783,0,0,0,0,0,0,0,0,0,-1,1028,1807,0,0
-189,-783,0,0,0,0,0,0,0,0,0,-1,1035,1807,0,0
-182,-783,0,0,0,0,0,0,0,0,0,-1,1042,1807,0,0
-175,-783,0,0,0,0,0,0,0,0,0,-1,1049,1807,0,0
-168,-783,0,0,0,0,0,0,0,0,0,-1,1056,1807,0,0
-161,-783,0,0,0,0,0,0,0,0,0,-1,1063,1807,0,0
-154,-783,0,0,0,0,0,0,0,0,0,-1,1070,1807,0,0
-147,-783,0,0,0,0,0,0,0,0,0,-1,1077,1807,0,0
-140,-783,0,0,0,0,0,0,0,0,0,-1,1084,1807,0,0
-133,-783,0,0,0,0,0,0,0,0,0,-1,1091,1807,0,0
-126,-783,0,0,0,0,0,0,0,0,0,-1,1098,1807,0,0
-119,-783,0,0,0,0,0,0,0,0,0,-1,1105,1807,0,0
-112,-783,5.33936,14.7699,0,0,0,0,0,0,0,-1,1112,1807,5.33931,-14.7699
-105,-783,6.44263,21.2224,0,0,0,0,0,0,0,-1,1119,1807,6.44263,-21.2224
-98,-783,5.54773,20.5695,0,0,0,0,0,0,0,-1,1126,1807,5.54772,-20.5695
-91,-783,2.94019,20.911,0,0,0,0,0,0,0,-1,1133,1807,2.94022,-20.911
-84,-783,-0.0491943,14.5743,0,0,0,0,0,0,0,-1,1140,1807,-0.0491562,-14.5743
-77,-783,0.332764,12.7788,0,0,0,0,0,0,0,-1,1147,1807,0.332743,-12.7788
-70,-783,-1.93176,5.12817,0,0,0,0,0,0,0,-1,1154,1807,-1.93171,-5.12813
-63,-783,-5.31702,10.54,0,0,0,0,0,0,0,-1,1161,1807,-5.31703,-10.54
-56,-783,-6.26135,6.9679,0,0,0,0,0,0,0,-1,1168,1807,-6.26136,-6.96785
-49,-783,-3.17688,4.59705,0,0,0,0,0,0,0,-1,1175,1807,-3.17685,-4.5971
-42,-783,-3.72876,3.1405,0,0,0,0,0,0,0,-1,1182,1807,-3.72874,-3.14055
-35,-783,-3.97046,1.59399,0,0,0,0,0,0,0,-1,1189,1807,-3.97041,-1.59401
-28,-783,-4.12195,0.270386,0,0,0,0,0,0,0,-1,1196,1807,-4.12197,-0.270408
-21,-783,3.0061,25.6189,0,0,0,0,0,0,0,-1,1203,1807,3.00613,-25.6189
-14,-783,7.72192,25.6375,0,0,0,0,0,0,0,-1,1210,1807,7.72198,-25.6375
-7,-783,5.08801,25.4987,0,0,0,0,0,0,0,-1,1217,1807,5.08798,-25.4987
0,-783,4.65222,25.5605,0,0,0,0,0,0,0,-1,1224,1807,4.65216,-25.5605
7,-783,5.30298,24.4087,0,0,0,0,0,0,0,-1,1231,1807,5.30295,-24.4087
14,-783,6.76917,25.301,-0.0470052,0.0601473,-0.0127326,0.0616395,-0.0484974,-1.45413,0.0637383,0.0487343,1238,1807,6.76918,-25.3011
21,-783,5.97156,24.9225,-0.0369426,0.0573284,-0.00857993,0.0581029,-0.0377172,-1.48077,0.0557375,0.0482833,1245,1807,5.97156,-24.9225
28,-783,5.22144,24.5929,-0.0256227,0.0554269,-0.00297438,0.0555359,-0.0257317,-1.53416,0.0479601,0.0445327,1252,1807,5.22147,-24.5929
35,-783,4.75562,24.0531,-0.0124321,0.0533996,0.00393779,0.0536343,-0.0126668,1.51126,0.0406419,0.0431105,1259,1807,4.7556,-24.0531
42,-783,4.11877,22.9689,0,0,0,0,0,0,0,-1,1266,1807,4.11873,-22.9689
49,-783,3.53589,22.2611,0,0,0,0,0,0,0,-1,1273,1807,3.53592,-22.2611
56,-783,6.81567,24.1368,0.0239129,0.0440772,0.0196428,0.0560743,0.0119159,1.0225,0.0341118,0.0472221,1280,1807,6.81568,-24.1369
63,-783,6.6748,25.03,0.0335929,0.0371085,0.0234629,0.0588794,0.011822,0.822787,0.0359658,0.0437781,1287,1807,6.67482,-25.0301
70,-783,7.02393,25.6981,0.0419807,0.0314436,0.0265026,0.0637334,0.00969088,0.68728,0.0396553,0.0448779,1294,1807,7.02395,-25.6981
77,-783,6.79102,26.5048,0.0486024,0.0252067,0.0274041,0.0667009,0.00710818,0.583673,0.0422974,0.0498077,1301,1807,6.79106,-26.5047
84,-783,7.37305,27.4586,0,0,0,0,0,0,0,-1,1308,1807,7.37299,-27.4586
91,-783,7.16455,28.2808,0,0,0,0,0,0,0,-1,1315,1807,7.16453,-28.2807
98,-783,4.02295,24.7162,0.0518966,0.000212088,0.0191158,0.0581983,-0.00608962,0.318441,0.0409798,0.0467166,1322,1807,4.02294,-24.7161
105,-783,4.48987,24.4983,0.0522676,-0.00804573,0.0150217,0.0558018,-0.0115799,0.231072,0.0416019,0.0472708,1329,1807,4.48983,-24.4983
112,-783,4.97852,24.0562,0.0512922,-0.0149835,0.00977435,0.0527037,-0.016395,0.143413,0.0416896,0.0481311,1336,1807,4.9785,-24.0562
119,-783,5.43164,23.7106,0,0,0,0,0,0,0,-1,1343,1807,5.43164,-23.7106
126,-783,4.66064,24.3907,0,0,0,0,0,0,0,-1,1350,1807,4.66061,-24.3907
133,-783,5.45178,24.4736,0,0,0,0,0,0,0,-1,1357,1807,5.45176,-24.4736
140,-783,7.32922,23.1105,0,0,0,0,0,0,0,-1,1364,1807,7.32919,-23.1104
147,-783,-0.104248,19.9227,0,0,0,0,0,0,0,-1,1371,1807,-0.104237,-19.9227
154,-783,22.8251,14.2119,0,0,0,0,0,0,0,-1,1378,1807,22.8251,-14.2119
161,-783,6.57568,1.16174,0,0,0,0,0,0,0,-1,1385,1807,6.57562,-1.1617
168,-783,8.62561,1.79944,0,0,0,0,0,0,0,-1,1392,1807,8.62561,-1.79946
175,-783,8.78699,3.40857,0,0,0,0,0,0,0,-1,1399,1807,8.78697,-3.40854
182,-783,8.70984,5.14661,0,0,0,0,0,0,0,-1,1406,1807,8.70989,-5.14666
189,-783,8.55762,6.79871,0,0,0,0,0,0,0,-1,1413,1807,8.55766,-6.79872
196,-783,8.25488,8.66626,0,0,0,0,0,0,0,-1,1420,1807,8.25492,-8.66628
203,-783,7.86755,10.5735,0,0,0,0,0,0,0,-1,1427,1807,7.8676,-10.5734
210,-783,5.6969,8.99231,0,0,0,0,0,0,0,-1,1434,1807,5.69693,-8.99234
217,-783,5.28503,3.80872,0,0,0,0,0,0,0,-1,1441,1807,5.285,-3.80868
224,-783,3.22571,6.62903,0,0,0,0,0,0,0,-1,1448,1807,3.2257,-6.62907
231,-783,4.27942,4.56262,0,0,0,0,0,0,0,-1,1455,1807,4.27948,-4.56267
238,-783,0,0,0,0,0,0,0,0,0,-1,1462,1807,0,0
245,-783,0,0,0,0,0,0,0,0,0,-1,1469,1807,0,0
252,-783,0,0,0,0,0,0,0,0,0,-1,1476,1807,0,0
259,-783,0,0,0,0,0,0,0,0,0,-1,1483,1807,0,0
266,-783,0,0,0,0,0,0,0,0,0,-1,1490,1807,0,0
273,-783,0,0,0,0,0,0,0,0,0,-1,1497,1807,0,0
280,-783,0,0,0,0,0,0,0,0,0,-1,1504,1807,0,0
287,-783,0,0,0,0,0,0,0,0,0,-1,1511,1807,0,0
294,-783,0,0,0,0,0,0,0,0,0,-1,1518,1807,0,0
301,-783,0,0,0,0,0,0,0,0,0,-1,1525,1807,0,0
308,-783,0,0,0,0,0,0,0,0,0,-1,1532,1807,0,0
315,-783,0,0,0,0,0,0,0,0,0,-1,1539,1807,0,0
322,-783,0,0,0,0,0,0,0,0,0,-1,1546,1807,0,0
329,-783,0,0,0,0,0,0,0,0,0,-1,1553,1807,0,0
336,-783,0,0,0,0,0,0,0,0,0,-1,1560,1807,0,0
343,-783,0,0,0,0,0,0,0,0,0,-1,1567,1807,0,0
350,-783,0,0,0,0,0,0,0,0,0,-1,1574,1807,0,0
357,-783,0,0,0,0,0,0,0,0,0,-1,1581,1807,0,0
364,-783,0,0,0,0,0,0,0,0,0,-1,1588,1807,0,0
371,-783,0,0,0,0,0,0,0,0,0,-1,1595,1807,0,0
378,-783,0,0,0,0,0,0,0,0,0,-1,1602,1807,0,0
385,-783,0,0,0,0,0,0,0,0,0,-1,1609,1807,0,0
392,-783,0,0,0,0,0,0,0,0,0,-1,1616,1807,0,0
399,-783,0,0,0,0,0,0,0,0,0,-1,1623,1807,0,0
406,-783,0,0,0,0,0,0,0,0,0,-1,1630,1807,0,0
413,-783,0,0,0,0,0,0,0,0,0,-1,1637,1807,0,0
420,-783,0,0,0,0,0,0,0,0,0,-1,1644,1807,0,0
427,-783,0,0,0,0,0,0,0,0,0,-1,1651,1807,0,0
434,-783,0,0,0,0,0,0,0,0,0,-1,1658,1807,0,0
441,-783,0,0,0,0,0,0,0,0,0,-1,1665,1807,0,0
448,-783,0,0,0,0,0,0,0,0,0,-1,1672,1807,0,0
455,-783,0,0,0,0,0,0,0,0,0,-1,1679,1807,0,0
462,-783,0,0,0,0,0,0,0,0,0,-1,1686,1807,0,0
469,-783,0,0,0,0,0,0,0,0,0,-1,1693,1807,0,0
476,-783,0,0,0,0,0,0,0,0,0,-1,1700,1807,0,0
483,-783,0,0,0,0,0,0,0,0,0,-1,1707,1807,0,0
490,-783,0,0,0,0,0,0,0,0,0,-1,1714,1807,0,0
497,-783,0,0,0,0,0,0,0,0,0,-1,1721,1807,0,0
504,-783,0,0,0,0,0,0,0,0,0,-1,1728,1807,0,0
511,-783,0,0,0,0,0,0,0,0,0,-1,1735,1807,0,0
518,-783,0,0,0,0,0,0,0,0,0,-1,1742,1807,0,0
525,-783,0,0,0,0,0,0,0,0,0,-1,1749,1807,0,0
532,-783,0,0,0,0,0,0,0,0,0,-1,1756,1807,0,0
539,-783,0,0,0,0,0,0,0,0,0,-1,1763,1807,0,0
546,-783,0,0,0,0,0,0,0,0,0,-1,1770,1807,0,0
553,-783,0,0,0,0,0,0,0,0,0,-1,1777,1807,0,0
560,-783,0,0,0,0,0,0,0,0,0,-1,1784,1807,0,0
567,-783,0,0,0,0,0,0,0,0,0,-1,1791,1807,0,0
574,-783,0,0,0,0,0,0,0,0,0,-1,1798,1807,0,0
581,-783,0,0,0,0,0,0,0,0,0,-1,1805,1807,0,0
588,-783,0,0,0,0,0,0,0,0,0,-1,1812,1807,0,0
595,-783,0,0,0,0,0,0,0,0,0,-1,1819,1807,0,0
602,-783,0,0,0,0,0,0,0,0,0,-1,1826,1807,0,0
609,-783,0,0,0,0,0,0,0,0,0,-1,1833,1807,0,0
616,-783,0,0,0,0,0,0,0,0,0,-1,1840,1807,0,0
623,-783,0,0,0,0,0,0,0,0,0,-1,1847,1807,0,0
630,-783,0,0,0,0,0,0,0,0,0,-1,1854,1807,0,0
637,-783,0,0,0,0,0,0,0,0,0,-1,1861,1807,0,0
644,-783,0,0,0,0,0,0,0,0,0,-1,1868,1807,0,0
651,-783,0,0,0,0,0,0,0,0,0,-1,1875,1807,0,0
658,-783,0,0,0,0,0,0,0,0,0,-1,1882,1807,0,0
665,-783,0,0,0,0,0,0,0,0,0,-1,1889,1807,0,0
672,-783,0,0,0,0,0,0,0,0,0,-1,1896,1807,0,0
679,-783,0,0,0,0,0,0,0,0,0,-1,1903,1807,0,0
686,-783,0,0,0,0,0,0,0,0,0,-1,1910,1807,0,0
693,-783,0,0,0,0,0,0,0,0,0,-1,1917,1807,0,0
700,-783,0,0,0,0,0,0,0,0,0,-1,1924,1807,0,0
707,-783,0,0,0,0,0,0,0,0,0,-1,1931,1807,0,0
714,-783,0,0,0,0,0,0,0,0,0,-1,1938,1807,0,0
721,-783,0,0,0,0,0,0,0,0,0,-1,1945,1807,0,0
728,-783,0,0,0,0,0,0,0,0,0,-1,1952,1807,0,0
735,-783,0,0,0,0,0,0,0,0,0,-1,1959,1807,0,0
742,-783,0,0,0,0,0,0,0,0,0,-1,1966,1807,0,0
749,-783,0,0,0,0,0,0,0,0,0,-1,1973,1807,0,0
756,-783,0,0,0,0,0,0,0,0,0,-1,1980,1807,0,0
763,-783,0,0,0,0,0,0,0,0,0,-1,1987,1807,0,0
770,-783,0,0,0,0,0,0,0,0,0,-1,1994,1807,0,0
777,-783,0,0,0,0,0,0,0,0,0,-1,2001,1807,0,0
784,-783,0,0,0,0,0,0,0,0,0,-1,2008,1807,0,0
791,-783,0,0,0,0,0,0,0,0,0,-1,2015,1807,0,0
798,-783,0,0,0,0,0,0,0,0,0,-1,2022,1807,0,0
805,-783,0,0,0,0,0,0,0,0,0,-1,2029,1807,0,0
812,-783,0,0,0,0,0,0,0,0,0,-1,2036,1807,0,0
-700,-790,0,0,0,0,0,0,0,0,0,-1,524,1814,0,0
-693,-790,0,0,0,0,0,0,0,0,0,-1,531,1814,0,0
-686,-790,0,0,0,0,0,0,0,0,0,-1,538,1814,0,0
-679,-790,0,0,0,0,0,0,0,0,0,-1,545,1814,0,0
-672,-790,0,0,0,0,0,0,0,0,0,-1,552,1814,0,0
-665,-790,0,0,0,0,0,0,0,0,0,-1,559,1814,0,0
-658,-790,0,0,0,0,0,0,0,0,0,-1,566,1814,0,0
-651,-790,0,0,0,0,0,0,0,0,0,-1,573,1814,0,0
-644,-790,0,0,0,0,0,0,0,0,0,-1,580,1814,0,0
-637,-790,0,0,0,0,0,0,0,0,0,-1,587,1814,0,0
-630,-790,0,0,0,0,0,0,0,0,0,-1,594,1814,0,0
-623,-790,0,0,0,0,0,0,0,0,0,-1,601,1814,0,0
-616,-790,0,0,0,0,0,0,0,0,0,-1,608,1814,0,0
-609,-790,0,0,0,0,0,0,0,0,0,-1,615,1814,0,0
-602,-790,0,0,0,0,0,0,0,0,0,-1,622,1814,0,0
-595,-790,0,0,0,0,0,0,0,0,0,-1,629,1814,0,0
-588,-790,0,0,0,0,0,0,0,0,0,-1,636,1814,0,0
-581,-790,0,0,0,0,0,0,0,0,0,-1,643,1814,0,0
-574,-790,0,0,0,0,0,0,0,0,0,-1,650,1814,0,0
-567,-790,0,0,0,0,0,0,0,0,0,-1,657,1814,0,0
-560,-790,0,0,0,0,0,0,0,0,0,-1,664,1814,0,0
-553,-790,0,0,0,0,0,0,0,0,0,-1,671,1814,0,0
-546,-790,0,0,0,0,0,0,0,0,0,-1,678,1814,0,0
-539,-790,0,0,0,0,0,0,0,0,0,-1,685,1814,0,0
-532,-790,0,0,0,0,0,0,0,0,0,-1,692,1814,0,0
-525,-790,0,0,0,0,0,0,0,0,0,-1,699,1814,0,0
-518,-790,0,0,0,0,0,0,0,0,0,-1,706,1814,0,0
-511,-790,0,0,0,0,0,0,0,0,0,-1,713,1814,0,0
-504,-790,0,0,0,0,0,0,0,0,0,-1,720,1814,0,0
-497,-790,0,0,0,0,0,0,0,0,0,-1,727,1814,0,0
-490,-790,0,0,0,0,0,0,0,0,0,-1,734,1814,0,0
-483,-790,0,0,0,0,0,0,0,0,0,-1,741,1814,0,0
-476,-790,0,0,0,0,0,0,0,0,0,-1,748,1814,0,0
-469,-790,0,0,0,0,0,0,0,0,0,-1,755,1814,0,0
-462,-790,0,0,0,0,0,0,0,0,0,-1,762,1814,0,0
-455,-790,0,0,0,0,0,0,0,0,0,-1,769,1814,0,0
-448,-790,0,0,0,0,0,0,0,0,0,-1,776,1814,0,0
-441,-790,0,0,0,0,0,0,0,0,0,-1,783,1814,0,0
-434,-790,0,0,0,0,0,0,0,0,0,-1,790,1814,0,0
-427,-790,0,0,0,0,0,0,0,0,0,-1,797,1814,0,0
-420,-790,0,0,0,0,0,0,0,0,0,-1,804,1814,0,0
-413,-790,0,0,0,0,0,0,0,0,0,-1,811,1814,0,0
-406,-790,0,0,0,0,0,0,0,0,0,-1,818,1814,0,0
-399,-790,0,0,0,0,0,0,0,0,0,-1,825,1814,0,0
-392,-790,0,0,0,0,0,0,0,0,0,-1,832,1814,0,0
-385,-790,0,0,0,0,0,0,0,0,0,-1,839,1814,0,0
-378,-790,0,0,0,0,0,0,0,0,0,-1,846,1814,0,0
-371,-790,0,0,0,0,0,0,0,0,0,-1,853,1814,0,0
-364,-790,0,0,0,0,0,0,0,0,0,-1,860,1814,0,0
-357,-790,0,0,0,0,0,0,0,0,0,-1,867,1814,0,0
-350,-790,0,0,0,0,0,0,0,0,0,-1,874,1814,0,0
-343,-790,0,0,0,0,0,0,0,0,0,-1,881,1814,0,0
-336,-790,0,0,0,0,0,0,0,0,0,-1,888,1814,0,0
-329,-790,0,0,0,0,0,0,0,0,0,-1,895,1814,0,0
-322,-790,0,0,0,0,0,0,0,0,0,-1,902,1814,0,0
-315,-790,0,0,0,0,0,0,0,0,0,-1,909,1814,0,0
-308,-790,0,0,0,0,0,0,0,0,0,-1,916,1814,0,0
-301,-790,0,0,0,0,0,0,0,0,0,-1,923,1814,0,0
-294,-790,0,0,0,0,0,0,0,0,0,-1,930,1814,0,0
-287,-790,0,0,0,0,0,0,0,0,0,-1,937,1814,0,0
-280,-790,0,0,0,0,0,0,0,0,0,-1,944,1814,0,0
-273,-790,0,0,0,0,0,0,0,0,0,-1,951,1814,0,0
-266,-790,0,0,0,0,0,0,0,0,0,-1,958,1814,0,0
-259,-790,0,0,0,0,0,0,0,0,0,-1,965,1814,0,0
-252,-790,0,0,0,0,0,0,0,0,0,-1,972,1814,0,0
-245,-790,0,0,0,0,0,0,0,0,0,-1,979,1814,0,0
-238,-790,0,0,0,0,0,0,0,0,0,-1,986,1814,0,0
-231,-790,0,0,0,0,0,0,0,0,0,-1,993,1814,0,0
-224,-790,0,0,0,0,0,0,0,0,0,-1,1000,1814,0,0
-217,-790,0,0,0,0,0,0,0,0,0,-1,1007,1814,0,0
-210,-790,0,0,0,0,0,0,0,0,0,-1,1014,1814,0,0
-203,-790,0,0,0,0,0,0,0,0,0,-1,1021,1814,0,0
-196,-790,0,0,0,0,0,0,0,0,0,-1,1028,1814,0,0
-189,-790,0,0,0,0,0,0,0,0,0,-1,1035,1814,0,0
-182,-790,0,0,0,0,0,0,0,0,0,-1,1042,1814,0,0
-175,-790,0,0,0,0,0,0,0,0,0,-1,1049,1814,0,0
-168,-790,0,0,0,0,0,0,0,0,0,-1,1056,1814,0,0
-161,-790,0,0,0,0,0,0,0,0,0,-1,1063,1814,0,0
-154,-790,0,0,0,0,0,0,0,0,0,-1,1070,1814,0,0
-147,-790,0,0,0,0,0,0,0,0,0,-1,1077,1814,0,0
-140,-790,0,0,0,0,0,0,0,0,0,-1,1084,1814,0,0
-133,-790,0,0,0,0,0,0,0,0,0,-1,1091,1814,0,0
-126,-790,0,0,0,0,0,0,0,0,0,-1,1098,1814,0,0
-119,-790,0,0,0,0,0,0,0,0,0,-1,1105,1814,0,0
-112,-790,0,0,0,0,0,0,0,0,0,-1,1112,1814,0,0
-105,-790,0,0,0,0,0,0,0,0,0,-1,1119,1814,0,0
-98,-790,0,0,0,0,0,0,0,0,0,-1,1126,1814,0,0
-91,-790,0,0,0,0,0,0,0,0,0,-1,1133,1814,0,0
-84,-790,0,0,0,0,0,0,0,0,0,-1,1140,1814,0,0
-77,-790,-0.969238,5.30847,0,0,0,0,0,0,0,-1,1147,1814,-0.969277,-5.3085
-70,-790,-1.23169,4.98914,0,0,0,0,0,0,0,-1,1154,1814,-1.23163,-4.98916
-63,-790,-1.69128,4.32263,0,0,0,0,0,0,0,-1,1161,1814,-1.69128,-4.32258
-56,-790,-2.24756,3.75305,0,0,0,0,0,0,0,-1,1168,1814,-2.24758,-3.75302
-49,-790,-3.11011,3.35779,0,0,0,0,0,0,0,-1,1175,1814,-3.11006,-3.35781
-42,-790,0.593262,1.19165,0,0,0,0,0,0,0,-1,1182,1814,0.593225,-1.19165
-35,-790,0.307129,-0.20105,0,0,0,0,0,0,0,-1,1189,1814,0.307178,0.201006
-28,-790,-2.78467,0.785156,0,0,0,0,0,0,0,-1,1196,1814,-2.78471,-0.785183
-21,-790,8.31104,25.7255,0,0,0,0,0,0,0,-1,1203,1814,8.31101,-25.7255
-14,-790,8.1095,25.6366,0,0,0,0,0,0,0,-1,1210,1814,8.10953,-25.6365
-7,-790,9.20386,27.1893,0,0,0,0,0,0,0,-1,1217,1814,9.20387,-27.1894
0,-790,8.41797,26.7052,0,0,0,0,0,0,0,-1,1224,1814,8.41792,-26.7052
7,-790,7.6261,26.2178,-0.0678834,0.0939076,-0.0184428,0.0959833,-0.0699591,-1.45872,0.0961988,0.0460745,1231,1814,7.62611,-26.2178
14,-790,6.92029,25.7747,-0.0587643,0.0857395,-0.0179385,0.0879331,-0.0609579,-1.44912,0.0864312,0.0460237,1238,1814,6.92035,-25.7746
21,-790,6.44531,24.8328,-0.0444477,0.0803576,-0.0124719,0.0815917,-0.0456818,-1.47216,0.07445,0.0460583,1245,1814,6.44527,-24.8328
28,-790,5.24194,24.4086,-0.0285704,0.0763553,-0.00484852,0.0765789,-0.0287939,-1.52472,0.0628876,0.0460101,1252,1814,5.2419,-24.4085
35,-790,4.71436,23.9169,-0.0108035,0.0722151,0.00455052,0.0724638,-0.0110521,1.5162,0.0523833,0.0429174,1259,1814,4.71436,-23.9169
42,-790,4.19922,23.4329,0,0,0,0,0,0,0,-1,1266,1814,4.19919,-23.4329
49,-790,4.60583,21.2798,0,0,0,0,0,0,0,-1,1273,1814,4.60585,-21.2798
56,-790,4.22302,20.0978,0,0,0,0,0,0,0,-1,1280,1814,4.223,-20.0977
63,-790,6.60535,24.6521,0.0497688,0.0481019,0.0325284,0.0814744,0.0163963,0.77259,0.0497596,0.0439742,1287,1814,6.6053,-24.6521
70,-790,6.94116,25.3621,0.0601947,0.0403759,0.0368859,0.0884791,0.0120915,0.654172,0.0553972,0.0396135,1294,1814,6.94115,-25.3621
77,-790,7.17407,26.3998,0.0677738,0.0318375,0.0383278,0.0921362,0.00747506,0.566208,0.0590903,0.0421747,1301,1814,7.17408,-26.3998
84,-790,7.36658,27.4846,0.0710465,0.0211767,0.0370274,0.0907522,0.00147102,0.489067,0.0600171,0.0462725,1308,1814,7.36653,-27.4846
91,-790,7.39954,28.322,0.0710925,0.00928332,0.0334701,0.0857438,-0.00536798,0.412615,0.0590333,0.045322,1315,1814,7.39955,-28.3221
98,-790,7.64478,28.9893,0.0697359,-0.00212271,0.0274713,0.0790347,-0.0114216,0.326388,0.0568806,0.0437375,1322,1814,7.64475,-28.9892
105,-790,4.2019,24.4525,0,0,0,0,0,0,0,-1,1329,1814,4.20194,-24.4526
112,-790,4.62524,24.1825,0.0682748,-0.023058,0.0143033,0.0704624,-0.0252456,0.151767,0.0572758,0.0480274,1336,1814,4.62524,-24.1825
119,-790,4.61108,24.3282,0,0,0,0,0,0,0,-1,1343,1814,4.61113,-24.3282
126,-790,4.70264,23.9106,0,0,0,0,0,0,0,-1,1350,1814,4.70258,-23.9107
133,-790,6.61194,23.5847,0,0,0,0,0,0,0,-1,1357,1814,6.61198,-23.5847
140,-790,7.29907,23.2035,0,0,0,0,0,0,0,-1,1364,1814,7.29912,-23.2035
147,-790,8.01086,22.9637,0,0,0,0,0,0,0,-1,1371,1814,8.01085,-22.9638
154,-790,23.2634,12.1936,0,0,0,0,0,0,0,-1,1378,1814,23.2634,-12.1935
161,-790,26.6003,11.7516,0,0,0,0,0,0,0,-1,1385,1814,26.6004,-11.7516
168,-790,7.04077,2.23279,0,0,0,0,0,0,0,-1,1392,1814,7.04082,-2.23275
175,-790,9.03918,3.98535,0,0,0,0,0,0,0,-1,1399,1814,9.0392,-3.98535
182,-790,8.96997,5.67896,0,0,0,0,0,0,0,-1,1406,1814,8.97001,-5.6789
189,-790,8.59729,6.86975,0,0,0,0,0,0,0,-1,1413,1814,8.59728,-6.86972
196,-790,8.21924,9.29053,0,0,0,0,0,0,0,-1,1420,1814,8.21924,-9.29048
203,-790,0,0,0,0,0,0,0,0,0,-1,1427,1814,0,0
210,-790,0,0,0,0,0,0,0,0,0,-1,1434,1814,0,0
217,-790,0,0,0,0,0,0,0,0,0,-1,1441,1814,0,0
224,-790,0,0,0,0,0,0,0,0,0,-1,1448,1814,0,0
231,-790,0,0,0,0,0,0,0,0,0,-1,1455,1814,0,0
238,-790,0,0,0,0,0,0,0,0,0,-1,1462,1814,0,0
245,-790,0,0,0,0,0,0,0,0,0,-1,1469,1814,0,0
252,-790,0,0,0,0,0,0,0,0,0,-1,1476,1814,0,0
259,-790,0,0,0,0,0,0,0,0,0,-1,1483,1814,0,0
266,-790,0,0,0,0,0,0,0,0,0,-1,1490,1814,0,0
273,-790,0,0,0,0,0,0,0,0,0,-1,1497,1814,0,0
280,-790,0,0,0,0,0,0,0,0,0,-1,1504,1814,0,0
287,-790,0,0,0,0,0,0,0,0,0,-1,1511,1814,0,0
294,-790,0,0,0,0,0,0,0,0,0,-1,1518,1814,0,0
301,-790,0,0,0,0,0,0,0,0,0,-1,1525,1814,0,0
308,-790,0,0,0,0,0,0,0,0,0,-1,1532,1814,0,0
315,-790,0,0,0,0,0,0,0,0,0,-1,1539,1814,0,0
322,-790,0,0,0,0,0,0,0,0,0,-1,1546,1814,0,0
329,-790,0,0,0,0,0,0,0,0,0,-1,1553,1814,0,0
336,-790,0,0,0,0,0,0,0,0,0,-1,1560,1814,0,0
343,-790,0,0,0,0,0,0,0,0,0,-1,1567,1814,0,0
350,-790,0,0,0,0,0,0,0,0,0,-1,1574,1814,0,0
357,-790,0,0,0,0,0,0,0,0,0,-1,1581,1814,0,0
364,-790,0,0,0,0,0,0,0,0,0,-1,1588,1814,0,0
371,-790,0,0,0,0,0,0,0,0,0,-1,1595,1814,0,0
378,-790,0,0,0,0,0,0,0,0,0,-1,1602,1814,0,0
385,-790,0,0,0,0,0,0,0,0,0,-1,1609,1814,0,0
392,-790,0,0,0,0,0,0,0,0,0,-1,1616,1814,0,0
399,-790,0,0,0,0,0,0,0,0,0,-1,1623,1814,0,0
406,-790,0,0,0,0,0,0,0,0,0,-1,1630,1814,0,0
413,-790,0,0,0,0,0,0,0,0,0,-1,1637,1814,0,0
420,-790,0,0,0,0,0,0,0,0,0,-1,1644,1814,0,0
427,-790,0,0,0,0,0,0,0,0,0,-1,1651,1814,0,0
434,-790,0,0,0,0,0,0,0,0,0,-1,1658,1814,0,0
441,-790,0,0,0,0,0,0,0,0,0,-1,1665,1814,0,0
448,-790,0,0,0,0,0,0,0,0,0,-1,1672,1814,0,0
455,-790,0,0,0,0,0,0,0,0,0,-1,1679,1814,0,0
462,-790,0,0,0,0,0,0,0,0,0,-1,1686,1814,0,0
469,-790,0,0,0,0,0,0,0,0,0,-1,1693,1814,0,0
476,-790,0,0,0,0,0,0,0,0,0,-1,1700,1814,0,0
483,-790,0,0,0,0,0,0,0,0,0,-1,1707,1814,0,0
490,-790,0,0,0,0,0,0,0,0,0,-1,1714,1814,0,0
497,-790,0,0,0,0,0,0,0,0,0,-1,1721,1814,0,0
504,-790,0,0,0,0,0,0,0,0,0,-1,1728,1814,0,0
511,-790,0,0,0,0,0,0,0,0,0,-1,1735,1814,0,0
518,-790,0,0,0,0,0,0,0,0,0,-1,1742,1814,0,0
525,-790,0,0,0,0,0,0,0,0,0,-1,1749,1814,0,0
532,-790,0,0,0,0,0,0,0,0,0,-1,1756,1814,0,0
539,-790,0,0,0,0,0,0,0,0,0,-1,1763,1814,0,0
546,-790,0,0,0,0,0,0,0,0,0,-1,1770,1814,0,0
553,-790,0,0,0,0,0,0,0,0,0,-1,1777,1814,0,0
560,-790,0,0,0,0,0,0,0,0,0,-1,1784,1814,0,0
567,-790,0,0,0,0,0,0,0,0,0,-1,1791,1814,0,0
574,-790,0,0,0,0,0,0,0,0,0,-1,1798,1814,0,0
581,-790,0,0,0,0,0,0,0,0,0,-1,1805,1814,0,0
588,-790,0,0,0,0,0,0,0,0,0,-1,1812,1814,0,0
595,-790,0,0,0,0,0,0,0,0,0,-1,1819,1814,0,0
602,-790,0,0,0,0,0,0,0,0,0,-1,1826,1814,0,0
609,-790,0,0,0,0,0,0,0,0,0,-1,1833,1814,0,0
616,-790,0,0,0,0,0,0,0,0,0,-1,1840,1814,0,0
623,-790,0,0,0,0,0,0,0,0,0,-1,1847,1814,0,0
630,-790,0,0,0,0,0,0,0,0,0,-1,1854,1814,0,0
637,-790,0,0,0,0,0,0,0,0,0,-1,1861,1814,0,0
644,-790,0,0,0,0,0,0,0,0,0,-1,1868,1814,0,0
651,-790,0,0,0,0,0,0,0,0,0,-1,1875,1814,0,0
658,-790,0,0,0,0,0,0,0,0,0,-1,1882,1814,0,0
665,-790,0,0,0,0,0,0,0,0,0,-1,1889,1814,0,0
672,-790,0,0,0,0,0,0,0,0,0,-1,1896,1814,0,0
679,-790,0,0,0,0,0,0,0,0,0,-1,1903,1814,0,0
686,-790,0,0,0,0,0,0,0,0,0,-1,1910,1814,0,0
693,-790,0,0,0,0,0,0,0,0,0,-1,1917,1814,0,0
700,-790,0,0,0,0,0,0,0,0,0,-1,1924,1814,0,0
707,-790,0,0,0,0,0,0,0,0,0,-1,1931,1814,0,0
714,-790,0,0,0,0,0,0,0,0,0,-1,1938,1814,0,0
721,-790,0,0,0,0,0,0,0,0,0,-1,1945,1814,0,0
728,-790,0,0,0,0,0,0,0,0,0,-1,1952,1814,0,0
735,-790,0,0,0,0,0,0,0,0,0,-1,1959,1814,0,0
742,-790,0,0,0,0,0,0,0,0,0,-1,1966,1814,0,0
749,-790,0,0,0,0,0,0,0,0,0,-1,1973,1814,0,0
756,-790,0,0,0,0,0,0,0,0,0,-1,1980,1814,0,0
763,-790,0,0,0,0,0,0,0,0,0,-1,1987,1814,0,0
770,-790,0,0,0,0,0,0,0,0,0,-1,1994,1814,0,0
777,-790,0,0,0,0,0,0,0,0,0,-1,2001,1814,0,0
784,-790,0,0,0,0,0,0,0,0,0,-1,2008,1814,0,0
791,-790,0,0,0,0,0,0,0,0,0,-1,2015,1814,0,0
798,-790,0,0,0,0,0,0,0,0,0,-1,2022,1814,0,0
805,-790,0,0,0,0,0,0,0,0,0,-1,2029,1814,0,0
812,-790,0,0,0,0,0,0,0,0,0,-1,2036,1814,0,0
-700,-797,0,0,0,0,0,0,0,0,0,-1,524,1821,0,0
-693,-797,0,0,0,0,0,0,0,0,0,-1,531,1821,0,0
-686,-797,0,0,0,0,0,0,0,0,0,-1,538,1821,0,0
-679,-797,0,0,0,0,0,0,0,0,0,-1,545,1821,0,0
-672,-797,0,0,0,0,0,0,0,0,0,-1,552,1821,0,0
-665,-797,0,0,0,0,0,0,0,0,0,-1,559,1821,0,0
-658,-797,0,0,0,0,0,0,0,0,0,-1,566,1821,0,0
-651,-797,0,0,0,0,0,0,0,0,0,-1,573,1821,0,0
-644,-797,0,0,0,0,0,0,0,0,0,-1,580,1821,0,0
-637,-797,0,0,0,0,0,0,0,0,0,-1,587,1821,0,0
-630,-797,0,0,0,0,0,0,0,0,0,-1,594,1821,0,0
-623,-797,0,0,0,0,0,0,0,0,0,-1,601,1821,0,0
-616,-797,0,0,0,0,0,0,0,0,0,-1,608,1821,0,0
-609,-797,0,0,0,0,0,0,0,0,0,-1,615,1821,0,0
-602,-797,0,0,0,0,0,0,0,0,0,-1,622,1821,0,0
-595,-797,0,0,0,0,0,0,0,0,0,-1,629,1821,0,0
-588,-797,0,0,0,0,0,0,0,0,0,-1,636,1821,0,0
-581,-797,0,0,0,0,0,0,0,0,0,-1,643,1821,0,0
-574,-797,0,0,0,0,0,0,0,0,0,-1,650,1821,0,0
-567,-797,0,0,0,0,0,0,0,0,0,-1,657,1821,0,0
-560,-797,0,0,0,0,0,0,0,0,0,-1,664,1821,0,0
-553,-797,0,0,0,0,0,0,0,0,0,-1,671,1821,0,0
-546,-797,0,0,0,0,0,0,0,0,0,-1,678,1821,0,0
-539,-797,0,0,0,0,0,0,0,0,0,-1,685,1821,0,0
-532,-797,0,0,0,0,0,0,0,0,0,-1,692,1821,0,0
-525,-797,0,0,0,0,0,0,0,0,0,-1,699,1821,0,0
-518,-797,0,0,0,0,0,0,0,0,0,-1,706,1821,0,0
-511,-797,0,0,0,0,0,0,0,0,0,-1,713,1821,0,0
-504,-797,0,0,0,0,0,0,0,0,0,-1,720,1821,0,0
-497,-797,0,0,0,0,0,0,0,0,0,-1,727,1821,0,0
-490,-797,0,0,0,0,0,0,0,0,0,-1,734,1821,0,0
-483,-797,0,0,0,0,0,0,0,0,0,-1,741,1821,0,0
-476,-797,0,0,0,0,0,0,0,0,0,-1,748,1821,0,0
-469,-797,0,0,0,0,0,0,0,0,0,-1,755,1821,0,0
-462,-797,0,0,0,0,0,0,0,0,0,-1,762,1821,0,0
-455,-797,0,0,0,0,0,0,0,0,0,-1,769,1821,0,0
-448,-797,0,0,0,0,0,0,0,0,0,-1,776,1821,0,0
-441,-797,0,0,0,0,0,0,0,0,0,-1,783,1821,0,0
-434,-797,0,0,0,0,0,0,0,0,0,-1,790,1821,0,0
-427,-797,0,0,0,0,0,0,0,0,0,-1,797,1821,0,0
-420,-797,0,0,0,0,0,0,0,0,0,-1,804,1821,0,0
-413,-797,0,0,0,0,0,0,0,0,0,-1,811,1821,0,0
-406,-797,0,0,0,0,0,0,0,0,0,-1,818,1821,0,0
-399,-797,0,0,0,0,0,0,0,0,0,-1,825,1821,0,0
-392,-797,0,0,0,0,0,0,0,0,0,-1,832,1821,0,0
-385,-797,0,0,0,0,0,0,0,0,0,-1,839,1821,0,0
-378,-797,0,0,0,0,0,0,0,0,0,-1,846,1821,0,0
-371,-797,0,0,0,0,0,0,0,0,0,-1,853,1821,0,0
-364,-797,0,0,0,0,0,0,0,0,0,-1,860,1821,0,0
-357,-797,0,0,0,0,0,0,0,0,0,-1,867,1821,0,0
-350,-797,0,0,0,0,0,0,0,0,0,-1,874,1821,0,0
-343,-797,0,0,0,0,0,0,0,0,0,-1,881,1821,0,0
-336,-797,0,0,0,0,0,0,0,0,0,-1,888,1821,0,0
-329,-797,0,0,0,0,0,0,0,0,0,-1,895,1821,0,0
-322,-797,0,0,0,0,0,0,0,0,0,-1,902,1821,0,0
-315,-797,0,0,0,0,0,0,0,0,0,-1,909,1821,0,0
-308,-797,0,0,0,0,0,0,0,0,0,-1,916,1821,0,0
-301,-797,0,0,0,0,0,0,0,0,0,-1,923,1821,0,0
-294,-797,0,0,0,0,0,0,0,0,0,-1,930,1821,0,0
-287,-797,0,0,0,0,0,0,0,0,0,-1,937,1821,0,0
-280,-797,0,0,0,0,0,0,0,0,0,-1,944,1821,0,0
-273,-797,0,0,0,0,0,0,0,0,0,-1,951,1821,0,0
-266,-797,0,0,0,0,0,0,0,0,0,-1,958,1821,0,0
-259,-797,0,0,0,0,0,0,0,0,0,-1,965,1821,0,0
-252,-797,0,0,0,0,0,0,0,0,0,-1,972,1821,0,0
-245,-797,0,0,0,0,0,0,0,0,0,-1,979,1821,0,0
-238,-797,0,0,0,0,0,0,0,0,0,-1,986,1821,0,0
-231,-797,0,0,0,0,0,0,0,0,0,-1,993,1821,0,0
-224,-797,0,0,0,0,0,0,0,0,0,-1,1000,1821,0,0
-217,-797,0,0,0,0,0,0,0,0,0,-1,1007,1821,0,0
-210,-797,0,0,0,0,0,0,0,0,0,-1,1014,1821,0,0
-203,-797,0,0,0,0,0,0,0,0,0,-1,1021,1821,0,0
-196,-797,0,0,0,0,0,0,0,0,0,-1,1028,1821,0,0
-189,-797,0,0,0,0,0,0,0,0,0,-1,1035,1821,0,0
-182,-797,0,0,0,0,0,0,0,0,0,-1,1042,1821,0,0
-175,-797,0,0,0,0,0,0,0,0,0,-1,1049,1821,0,0
-168,-797,0,0,0,0,0,0,0,0,0,-1,1056,1821,0,0
-161,-797,0,0,0,0,0,0,0,0,0,-1,1063,1821,0,0
-154,-797,0,0,0,0,0,0,0,0,0,-1,1070,1821,0,0
-147,-797,0,0,0,0,0,0,0,0,0,-1,1077,1821,0,0
-140,-797,0,0,0,0,0,0,0,0,0,-1,1084,1821,0,0
-133,-797,0,0,0,0,0,0,0,0,0,-1,1091,1821,0,0
-126,-797,0,0,0,0,0,0,0,0,0,-1,1098,1821,0,0
-119,-797,0,0,0,0,0,0,0,0,0,-1,1105,1821,0,0
-112,-797,0,0,0,0,0,0,0,0,0,-1,1112,1821,0,0
-105,-797,0,0,0,0,0,0,0,0,0,-1,1119,1821,0,0
-98,-797,0,0,0,0,0,0,0,0,0,-1,1126,1821,0,0
-91,-797,0,0,0,0,0,0,0,0,0,-1,1133,1821,0,0
-84,-797,0,0,0,0,0,0,0,0,0,-1,1140,1821,0,0
-77,-797,0,0,0,0,0,0,0,0,0,-1,1147,1821,0,0
-70,-797,0,0,0,0,0,0,0,0,0,-1,1154,1821,0,0
-63,-797,0,0,0,0,0,0,0,0,0,-1,1161,1821,0,0
-56,-797,0,0,0,0,0,0,0,0,0,-1,1168,1821,0,0
-49,-797,0,0,0,0,0,0,0,0,0,-1,1175,1821,0,0
-42,-797,0.579834,0.692871,0,0,0,0,0,0,0,-1,1182,1821,0.579856,-0.692816
-35,-797,-0.185425,5.55396,0,0,0,0,0,0,0,-1,1189,1821,-0.18542,-5.55396
-28,-797,-0.310181,4.71509,0,0,0,0,0,0,0,-1,1196,1821,-0.310228,-4.71503
-21,-797,8.17505,25.5592,0,0,0,0,0,0,0,-1,1203,1821,8.17502,-25.5592
-14,-797,8.39575,25.6455,0,0,0,0,0,0,0,-1,1210,1821,8.39574,-25.6456
-7,-797,8.38464,25.6351,0,0,0,0,0,0,0,-1,1217,1821,8.38467,-25.6351
0,-797,8.17725,24.4584,0,0,0,0,0,0,0,-1,1224,1821,8.17723,-24.4583
7,-797,7.49988,24.3367,-0.0843245,0.133403,-0.0240988,0.136039,-0.0869599,-1.46187,0.129783,0.0488108,1231,1821,7.49985,-24.3366
14,-797,6.85864,24.2306,-0.0714327,0.118754,-0.024253,0.121799,-0.0744767,-1.44594,0.114412,0.0466736,1238,1821,6.85859,-24.2306
21,-797,6.09167,24.1516,-0.051521,0.109483,-0.0172841,0.111317,-0.0533555,-1.46505,0.0970171,0.0472587,1245,1821,6.09166,-24.1516
28,-797,5.09119,23.9897,-0.0298923,0.102249,-0.00728469,0.10265,-0.0302926,-1.51589,0.0804545,0.0440556,1252,1821,5.09115,-23.9897
35,-797,4.60657,23.1412,-0.00670258,0.0949105,0.00497903,0.0951539,-0.00694597,1.52195,0.0658735,0.0454657,1259,1821,4.60658,-23.1413
42,-797,4.47302,22.1107,0,0,0,0,0,0,0,-1,1266,1821,4.47298,-22.1108
49,-797,4.24609,20.8835,0.037216,0.0794708,0.0263125,0.0920882,0.0245986,1.12366,0.0550559,0.0473873,1273,1821,4.24604,-20.8835
56,-797,3.80261,19.8599,0.055807,0.0724878,0.0359627,0.101065,0.0272302,0.899343,0.0603822,0.0448041,1280,1821,3.80263,-19.8598
63,-797,3.49475,19.1572,0.0712339,0.0606332,0.0438457,0.110098,0.0217687,0.725247,0.0673262,0.0420266,1287,1821,3.49471,-19.1572
70,-797,6.77844,24.9355,0.0837987,0.0504638,0.0499637,0.119802,0.0144608,0.624407,0.0755105,0.0402266,1294,1821,6.7784,-24.9356
77,-797,6.9231,26.1714,0.0920672,0.0391171,0.0522561,0.124172,0.00701205,0.550925,0.080546,0.0374908,1301,1821,6.9231,-26.1714
84,-797,7.29785,27.4972,0.094753,0.0249677,0.050876,0.121552,-0.00183139,0.48482,0.081652,0.042449,1308,1821,7.29787,-27.4971
91,-797,7.46289,28.4803,0.0931988,0.00918739,0.0460984,0.113559,-0.0111731,0.415909,0.0796921,0.0456374,1315,1821,7.46294,-28.4804
98,-797,7.65051,29.4463,0,0,0,0,0,0,0,-1,1322,1821,7.65052,-29.4462
105,-797,3.47241,24.6803,0,0,0,0,0,0,0,-1,1329,1821,3.47239,-24.6803
112,-797,3.97742,24.3861,0,0,0,0,0,0,0,-1,1336,1821,3.97747,-24.3861
119,-797,4.51746,24.1587,0,0,0,0,0,0,0,-1,1343,1821,4.51746,-24.1587
126,-797,6.104,23.5032,0,0,0,0,0,0,0,-1,1350,1821,6.10398,-23.5031
133,-797,6.729,23.7062,0,0,0,0,0,0,0,-1,1357,1821,6.72903,-23.7062
140,-797,7.26904,23.2965,0,0,0,0,0,0,0,-1,1364,1821,7.26905,-23.2965
147,-797,4.12708,18.7543,0,0,0,0,0,0,0,-1,1371,1821,4.12706,-18.7543
154,-797,23.5768,10.127,0,0,0,0,0,0,0,-1,1378,1821,23.5768,-10.127
161,-797,26.8167,9.64282,0,0,0,0,0,0,0,-1,1385,1821,26.8166,-9.64281
168,-797,0,0,0,0,0,0,0,0,0,-1,1392,1821,0,0
175,-797,0,0,0,0,0,0,0,0,0,-1,1399,1821,0,0
182,-797,0,0,0,0,0,0,0,0,0,-1,1406,1821,0,0
189,-797,0,0,0,0,0,0,0,0,0,-1,1413,1821,0,0
196,-797,0,0,0,0,0,0,0,0,0,-1,1420,1821,0,0
203,-797,0,0,0,0,0,0,0,0,0,-1,1427,1821,0,0
210,-797,0,0,0,0,0,0,0,0,0,-1,1434,1821,0,0
217,-797,0,0,0,0,0,0,0,0,0,-1,1441,1821,0,0
224,-797,0,0,0,0,0,0,0,0,0,-1,1448,1821,0,0
231,-797,0,0,0,0,0,0,0,0,0,-1,1455,1821,0,0
238,-797,0,0,0,0,0,0,0,0,0,-1,1462,1821,0,0
245,-797,0,0,0,0,0,0,0,0,0,-1,1469,1821,0,0
252,-797,0,0,0,0,0,0,0,0,0,-1,1476,1821,0,0
259,-797,0,0,0,0,0,0,0,0,0,-1,1483,1821,0,0
266,-797,0,0,0,0,0,0,0,0,0,-1,1490,1821,0,0
273,-797,0,0,0,0,0,0,0,0,0,-1,1497,1821,0,0
280,-797,0,0,0,0,0,0,0,0,0,-1,1504,1821,0,0
287,-797,0,0,0,0,0,0,0,0,0,-1,1511,1821,0,0
294,-797,0,0,0,0,0,0,0,0,0,-1,1518,1821,0,0
301,-797,0,0,0,0,0,0,0,0,0,-1,1525,1821,0,0
308,-797,0,0,0,0,0,0,0,0,0,-1,1532,1821,0,0
315,-797,0,0,0,0,0,0,0,0,0,-1,1539,1821,0,0
322,-797,0,0,0,0,0,0,0,0,0,-1,1546,1821,0,0
329,-797,0,0,0,0,0,0,0,0,0,-1,1553,1821,0,0
336,-797,0,0,0,0,0,0,0,0,0,-1,1560,1821,0,0
343,-797,0,0,0,0,0,0,0,0,0,-1,1567,1821,0,0
350,-797,0,0,0,0,0,0,0,0,0,-1,1574,1821,0,0
357,-797,0,0,0,0,0,0,0,0,0,-1,1581,1821,0,0
364,-797,0,0,0,0,0,0,0,0,0,-1,1588,1821,0,0
371,-797,0,0,0,0,0,0,0,0,0,-1,1595,1821,0,0
378,-797,0,0,0,0,0,0,0,0,0,-1,1602,1821,0,0
385,-797,0,0,0,0,0,0,0,0,0,-1,1609,1821,0,0
392,-797,0,0,0,0,0,0,0,0,0,-1,1616,1821,0,0
399,-797,0,0,0,0,0,0,0,0,0,-1,1623,1821,0,0
406,-797,0,0,0,0,0,0,0,0,0,-1,1630,1821,0,0
413,-797,0,0,0,0,0,0,0,0,0,-1,1637,1821,0,0
420,-797,0,0,0,0,0,0,0,0,0,-1,1644,1821,0,0
427,-797,0,0,0,0,0,0,0,0,0,-1,1651,1821,0,0
434,-797,0,0,0,0,0,0,0,0,0,-1,1658,1821,0,0
441,-797,0,0,0,0,0,0,0,0,0,-1,1665,1821,0,0
448,-797,0,0,0,0,0,0,0,0,0,-1,1672,1821,0,0
455,-797,0,0,0,0,0,0,0,0,0,-1,1679,1821,0,0
462,-797,0,0,0,0,0,0,0,0,0,-1,1686,1821,0,0
469,-797,0,0,0,0,0,0,0,0,0,-1,1693,1821,0,0
476,-797,0,0,0,0,0,0,0,0,0,-1,1700,1821,0,0
483,-797,0,0,0,0,0,0,0,0,0,-1,1707,1821,0,0
490,-797,0,0,0,0,0,0,0,0,0,-1,1714,1821,0,0
497,-797,0,0,0,0,0,0,0,0,0,-1,1721,1821,0,0
504,-797,0,0,0,0,0,0,0,0,0,-1,1728,1821,0,0
511,-797,0,0,0,0,0,0,0,0,0,-1,1735,1821,0,0
518,-797,0,0,0,0,0,0,0,0,0,-1,1742,1821,0,0
525,-797,0,0,0,0,0,0,0,0,0,-1,1749,1821,0,0
532,-797,0,0,0,0,0,0,0,0,0,-1,1756,1821,0,0
539,-797,0,0,0,0,0,0,0,0,0,-1,1763,1821,0,0
546,-797,0,0,0,0,0,0,0,0,0,-1,1770,1821,0,0
553,-797,0,0,0,0,0,0,0,0,0,-1,1777,1821,0,0
560,-797,0,0,0,0,0,0,0,0,0,-1,1784,1821,0,0
567,-797,0,0,0,0,0,0,0,0,0,-1,1791,1821,0,0
574,-797,0,0,0,0,0,0,0,0,0,-1,1798,1821,0,0
581,-797,0,0,0,0,0,0,0,0,0,-1,1805,1821,0,0
588,-797,0,0,0,0,0,0,0,0,0,-1,1812,1821,0,0
595,-797,0,0,0,0,0,0,0,0,0,-1,1819,1821,0,0
602,-797,0,0,0,0,0,0,0,0,0,-1,1826,1821,0,0
609,-797,0,0,0,0,0,0,0,0,0,-1,1833,1821,0,0
616,-797,0,0,0,0,0,0,0,0,0,-1,1840,1821,0,0
623,-797,0,0,0,0,0,0,0,0,0,-1,1847,1821,0,0
630,-797,0,0,0,0,0,0,0,0,0,-1,1854,1821,0,0
637,-797,0,0,0,0,0,0,0,0,0,-1,1861,1821,0,0
644,-797,0,0,0,0,0,0,0,0,0,-1,1868,1821,0,0
651,-797,0,0,0,0,0,0,0,0,0,-1,1875,1821,0,0
658,-797,0,0,0,0,0,0,0,0,0,-1,1882,1821,0,0
665,-797,0,0,0,0,0,0,0,0,0,-1,1889,1821,0,0
672,-797,0,0,0,0,0,0,0,0,0,-1,1896,1821,0,0
679,-797,0,0,0,0,0,0,0,0,0,-1,1903,1821,0,0
686,-797,0,0,0,0,0,0,0,0,0,-1,1910,1821,0,0
693,-797,0,0,0,0,0,0,0,0,0,-1,1917,1821,0,0
700,-797,0,0,0,0,0,0,0,0,0,-1,1924,1821,0,0
707,-797,0,0,0,0,0,0,0,0,0,-1,1931,1821,0,0
714,-797,0,0,0,0,0,0,0,0,0,-1,1938,1821,0,0
721,-797,0,0,0,0,0,0,0,0,0,-1,1945,1821,0,0
728,-797,0,0,0,0,0,0,0,0,0,-1,1952,1821,0,0
735,-797,0,0,0,0,0,0,0,0,0,-1,1959,1821,0,0
742,-797,0,0,0,0,0,0,0,0,0,-1,1966,1821,0,0
749,-797,0,0,0,0,0,0,0,0,0,-1,1973,1821,0,0
756,-797,0,0,0,0,0,0,0,0,0,-1,1980,1821,0,0
763,-797,0,0,0,0,0,0,0,0,0,-1,1987,1821,0,0
770,-797,0,0,0,0,0,0,0,0,0,-1,1994,1821,0,0
777,-797,0,0,0,0,0,0,0,0,0,-1,2001,1821,0,0
784,-797,0,0,0,0,0,0,0,0,0,-1,2008,1821,0,0
791,-797,0,0,0,0,0,0,0,0,0,-1,2015,1821,0,0
798,-797,0,0,0,0,0,0,0,0,0,-1,2022,1821,0,0
805,-797,0,0,0,0,0,0,0,0,0,-1,2029,1821,0,0
812,-797,0,0,0,0,0,0,0,0,0,-1,2036,1821,0,0
-700,-804,0,0,0,0,0,0,0,0,0,-1,524,1828,0,0
-693,-804,0,0,0,0,0,0,0,0,0,-1,531,1828,0,0
-686,-804,0,0,0,0,0,0,0,0,0,-1,538,1828,0,0
-679,-804,0,0,0,0,0,0,0,0,0,-1,545,1828,0,0
-672,-804,0,0,0,0,0,0,0,0,0,-1,552,1828,0,0
-665,-804,0,0,0,0,0,0,0,0,0,-1,559,1828,0,0
-658,-804,0,0,0,0,0,0,0,0,0,-1,566,1828,0,0
-651,-804,0,0,0,0,0,0,0,0,0,-1,573,1828,0,0
-644,-804,0,0,0,0,0,0,0,0,0,-1,580,1828,0,0
-637,-804,0,0,0,0,0,0,0,0,0,-1,587,1828,0,0
-630,-804,0,0,0,0,0,0,0,0,0,-1,594,1828,0,0
-623,-804,0,0,0,0,0,0,0,0,0,-1,601,1828,0,0
-616,-804,0,0,0,0,0,0,0,0,0,-1,608,1828,0,0
-609,-804,0,0,0,0,0,0,0,0,0,-1,615,1828,0,0
-602,-804,0,0,0,0,0,0,0,0,0,-1,622,1828,0,0
-595,-804,0,0,0,0,0,0,0,0,0,-1,629,1828,0,0
-588,-804,0,0,0,0,0,0,0,0,0,-1,636,1828,0,0
-581,-804,0,0,0,0,0,0,0,0,0,-1,643,1828,0,0
-574,-804,0,0,0,0,0,0,0,0,0,-1,650,1828,0,0
-567,-804,0,0,0,0,0,0,0,0,0,-1,657,1828,0,0
-560,-804,0,0,0,0,0,0,0,0,0,-1,664,1828,0,0
-553,-804,0,0,0,0,0,0,0,0,0,-1,671,1828,0,0
-546,-804,0,0,0,0,0,0,0,0,0,-1,678,1828,0,0
-539,-804,0,0,0,0,0,0,0,0,0,-1,685,1828,0,0
-532,-804,0,0,0,0,0,0,0,0,0,-1,692,1828,0,0
-525,-804,0,0,0,0,0,0,0,0,0,-1,699,1828,0,0
-518,-804,0,0,0,0,0,0,0,0,0,-1,706,1828,0,0
-511,-804,0,0,0,0,0,0,0,0,0,-1,713,1828,0,0
-504,-804,0,0,0,0,0,0,0,0,0,-1,720,1828,0,0
-497,-804,0,0,0,0,0,0,0,0,0,-1,727,1828,0,0
-490,-804,0,0,0,0,0,0,0,0,0,-1,734,1828,0,0
-483,-804,0,0,0,0,0,0,0,0,0,-1,741,1828,0,0
-476,-804,0,0,0,0,0,0,0,0,0,-1,748,1828,0,0
-469,-804,0,0,0,0,0,0,0,0,0,-1,755,1828,0,0
-462,-804,0,0,0,0,0,0,0,0,0,-1,762,1828,0,0
-455,-804,0,0,0,0,0,0,0,0,0,-1,769,1828,0,0
-448,-804,0,0,0,0,0,0,0,0,0,-1,776,1828,0,0
-441,-804,0,0,0,0,0,0,0,0,0,-1,783,1828,0,0
-434,-804,0,0,0,0,0,0,0,0,0,-1,790,1828,0,0
-427,-804,0,0,0,0,0,0,0,0,0,-1,797,1828,0,0
-420,-804,0,0,0,0,0,0,0,0,0,-1,804,1828,0,0
-413,-804,0,0,0,0,0,0,0,0,0,-1,811,1828,0,0
-406,-804,0,0,0,0,0,0,0,0,0,-1,818,1828,0,0
-399,-804,0,0,0,0,0,0,0,0,0,-1,825,1828,0,0
-392,-804,0,0,0,0,0,0,0,0,0,-1,832,1828,0,0
-385,-804,0,0,0,0,0,0,0,0,0,-1,839,1828,0,0
-378,-804,0,0,0,0,0,0,0,0,0,-1,846,1828,0,0
-371,-804,0,0,0,0,0,0,0,0,0,-1,853,1828,0,0
-364,-804,0,0,0,0,0,0,0,0,0,-1,860,1828,0,0
-357,-804,0,0,0,0,0,0,0,0,0,-1,867,1828,0,0
-350,-804,0,0,0,0,0,0,0,0,0,-1,874,1828,0,0
-343,-804,0,0,0,0,0,0,0,0,0,-1,881,1828,0,0
-336,-804,0,0,0,0,0,0,0,0,0,-1,888,1828,0,0
-329,-804,0,0,0,0,0,0,0,0,0,-1,895,1828,0,0
-322,-804,0,0,0,0,0,0,0,0,0,-1,902,1828,0,0
-315,-804,0,0,0,0,0,0,0,0,0,-1,909,1828,0,0
-308,-804,0,0,0,0,0,0,0,0,0,-1,916,1828,0,0
-301,-804,0,0,0,0,0,0,0,0,0,-1,923,1828,0,0
-294,-804,0,0,0,0,0,0,0,0,0,-1,930,1828,0,0
-287,-804,0,0,0,0,0,0,0,0,0,-1,937,1828,0,0
-280,-804,0,0,0,0,0,0,0,0,0,-1,944,1828,0,0
-273,-804,0,0,0,0,0,0,0,0,0,-1,951,1828,0,0
-266,-804,0,0,0,0,0,0,0,0,0,-1,958,1828,0,0
-259,-804,0,0,0,0,0,0,0,0,0,-1,965,1828,0,0
-252,-804,0,0,0,0,0,0,0,0,0,-1,972,1828,0,0
-245,-804,0,0,0,0,0,0,0,0,0,-1,979,1828,0,0
-238,-804,0,0,0,0,0,0,0,0,0,-1,986,1828,0,0
-231,-804,0,0,0,0,0,0,0,0,0,-1,993,1828,0,0
-224,-804,0,0,0,0,0,0,0,0,0,-1,1000,1828,0,0
-217,-804,0,0,0,0,0,0,0,0,0,-1,1007,1828,0,0
-210,-804,0,0,0,0,0,0,0,0,0,-1,1014,1828,0,0
-203,-804,0,0,0,0,0,0,0,0,0,-1,1021,1828,0,0
-196,-804,0,0,0,0,0,0,0,0,0,-1,1028,1828,0,0
-189,-804,0,0,0,0,0,0,0,0,0,-1,1035,1828,0,0
-182,-804,0,0,0,0,0,0,0,0,0,-1,1042,1828,0,0
-175,-804,0,0,0,0,0,0,0,0,0,-1,1049,1828,0,0
-168,-804,0,0,0,0,0,0,0,0,0,-1,1056,1828,0,0
-161,-804,0,0,0,0,0,0,0,0,0,-1,1063,1828,0,0
-154,-804,0,0,0,0,0,0,0,0,0,-1,1070,1828,0,0
-147,-804,0,0,0,0,0,0,0,0,0,-1,1077,1828,0,0
-140,-804,0,0,0,0,0,0,0,0,0,-1,1084,1828,0,0
-133,-804,0,0,0,0,0,0,0,0,0,-1,1091,1828,0,0
-126,-804,0,0,0,0,0,0,0,0,0,-1,1098,1828,0,0
-119,-804,0,0,0,0,0,0,0,0,0,-1,1105,1828,0,0
-112,-804,0,0,0,0,0,0,0,0,0,-1,1112,1828,0,0
-105,-804,0,0,0,0,0,0,0,0,0,-1,1119,1828,0,0
-98,-804,0,0,0,0,0,0,0,0,0,-1,1126,1828,0,0
-91,-804,0,0,0,0,0,0,0,0,0,-1,1133,1828,0,0
-84,-804,0,0,0,0,0,0,0,0,0,-1,1140,1828,0,0
-77,-804,0,0,0,0,0,0,0,0,0,-1,1147,1828,0,0
-70,-804,0,0,0,0,0,0,0,0,0,-1,1154,1828,0,0
-63,-804,0,0,0,0,0,0,0,0,0,-1,1161,1828,0,0
-56,-804,0,0,0,0,0,0,0,0,0,-1,1168,1828,0,0
-49,-804,0,0,0,0,0,0,0,0,0,-1,1175,1828,0,0
-42,-804,0,0,0,0,0,0,0,0,0,-1,1182,1828,0,0
-35,-804,0,0,0,0,0,0,0,0,0,-1,1189,1828,0,0
-28,-804,0,0,0,0,0,0,0,0,0,-1,1196,1828,0,0
-21,-804,0,0,0,0,0,0,0,0,0,-1,1203,1828,0,0
-14,-804,0,0,0,0,0,0,0,0,0,-1,1210,1828,0,0
-7,-804,0,0,0,0,0,0,0,0,0,-1,1217,1828,0,0
0,-804,0,0,0,0,0,0,0,0,0,-1,1224,1828,0,0
7,-804,0,0,0,0,0,0,0,0,0,-1,1231,1828,0,0
14,-804,0,0,0,0,0,0,0,0,0,-1,1238,1828,0,0
21,-804,0,0,0,0,0,0,0,0,0,-1,1245,1828,0,0
28,-804,0,0,0,0,0,0,0,0,0,-1,1252,1828,0,0
35,-804,4.33765,22.6404,0,0,0,0,0,0,0,-1,1259,1828,4.33764,-22.6404
42,-804,4.20435,21.6166,0,0,0,0,0,0,0,-1,1266,1828,4.20432,-21.6166
49,-804,3.89343,20.2021,0.0571561,0.0994441,0.033505,0.117919,0.0386812,1.06687,0.0694098,0.0444356,1273,1828,3.89343,-20.2021
56,-804,3.58948,19.3181,0.0807393,0.0893189,0.04673,0.131956,0.0381026,0.83117,0.0784184,0.0436238,1280,1828,3.58949,-19.3181
63,-804,6.29871,23.5267,0.0997811,0.0744562,0.0577818,0.146272,0.0279657,0.677532,0.0896583,0.04803,1287,1828,6.29873,-23.5267
70,-804,6.4707,24.4109,0.114465,0.0614926,0.0662988,0.159372,0.0165851,0.595362,0.101174,0.0437908,1294,1828,6.47067,-24.4109
77,-804,6.52844,25.4344,0.122923,0.0467758,0.0699832,0.164519,0.00517979,0.53627,0.107994,0.0425487,1301,1828,6.52844,-25.4344
84,-804,7.05469,27.2926,0.12413,0.0283542,0.0688007,0.160068,-0.00758378,0.481367,0.109328,0.0413598,1308,1828,7.05465,-27.2927
91,-804,0,0,0,0,0,0,0,0,0,-1,1315,1828,0,0
98,-804,0,0,0,0,0,0,0,0,0,-1,1322,1828,0,0
105,-804,0,0,0,0,0,0,0,0,0,-1,1329,1828,0,0
112,-804,0,0,0,0,0,0,0,0,0,-1,1336,1828,0,0
119,-804,0,0,0,0,0,0,0,0,0,-1,1343,1828,0,0
126,-804,0,0,0,0,0,0,0,0,0,-1,1350,1828,0,0
133,-804,0,0,0,0,0,0,0,0,0,-1,1357,1828,0,0
140,-804,0,0,0,0,0,0,0,0,0,-1,1364,1828,0,0
147,-804,0,0,0,0,0,0,0,0,0,-1,1371,1828,0,0
154,-804,0,0,0,0,0,0,0,0,0,-1,1378,1828,0,0
161,-804,0,0,0,0,0,0,0,0,0,-1,1385,1828,0,0
168,-804,0,0,0,0,0,0,0,0,0,-1,1392,1828,0,0
175,-804,0,0,0,0,0,0,0,0,0,-1,1399,1828,0,0
182,-804,0,0,0,0,0,0,0,0,0,-1,1406,1828,0,0
189,-804,0,0,0,0,0,0,0,0,0,-1,1413,1828,0,0
196,-804,0,0,0,0,0,0,0,0,0,-1,1420,1828,0,0
203,-804,0,0,0,0,0,0,0,0,0,-1,1427,1828,0,0
210,-804,0,0,0,0,0,0,0,0,0,-1,1434,1828,0,0
217,-804,0,0,0,0,0,0,0,0,0,-1,1441,1828,0,0
224,-804,0,0,0,0,0,0,0,0,0,-1,1448,1828,0,0
231,-804,0,0,0,0,0,0,0,0,0,-1,1455,1828,0,0
238,-804,0,0,0,0,0,0,0,0,0,-1,1462,1828,0,0
245,-804,0,0,0,0,0,0,0,0,0,-1,1469,1828,0,0
252,-804,0,0,0,0,0,0,0,0,0,-1,1476,1828,0,0
259,-804,0,0,0,0,0,0,0,0,0,-1,1483,1828,0,0
266,-804,0,0,0,0,0,0,0,0,0,-1,1490,1828,0,0
273,-804,0,0,0,0,0,0,0,0,0,-1,1497,1828,0,0
280,-804,0,0,0,0,0,0,0,0,0,-1,1504,1828,0,0
287,-804,0,0,0,0,0,0,0,0,0,-1,1511,1828,0,0
294,-804,0,0,0,0,0,0,0,0,0,-1,1518,1828,0,0
301,-804,0,0,0,0,0,0,0,0,0,-1,1525,1828,0,0
308,-804,0,0,0,0,0,0,0,0,0,-1,1532,1828,0,0
315,-804,0,0,0,0,0,0,0,0,0,-1,1539,1828,0,0
322,-804,0,0,0,0,0,0,0,0,0,-1,1546,1828,0,0
329,-804,0,0,0,0,0,0,0,0,0,-1,1553,1828,0,0
336,-804,0,0,0,0,0,0,0,0,0,-1,1560,1828,0,0
343,-804,0,0,0,0,0,0,0,0,0,-1,1567,1828,0,0
350,-804,0,0,0,0,0,0,0,0,0,-1,1574,1828,0,0
357,-804,0,0,0,0,0,0,0,0,0,-1,1581,1828,0,0
364,-804,0,0,0,0,0,0,0,0,0,-1,1588,1828,0,0
371,-804,0,0,0,0,0,0,0,0,0,-1,1595,1828,0,0
378,-804,0,0,0,0,0,0,0,0,0,-1,1602,1828,0,0
385,-804,0,0,0,0,0,0,0,0,0,-1,1609,1828,0,0
392,-804,0,0,0,0,0,0,0,0,0,-1,1616,1828,0,0
399,-804,0,0,0,0,0,0,0,0,0,-1,1623,1828,0,0
406,-804,0,0,0,0,0,0,0,0,0,-1,1630,1828,0,0
413,-804,0,0,0,0,0,0,0,0,0,-1,1637,1828,0,0
420,-804,0,0,0,0,0,0,0,0,0,-1,1644,1828,0,0
427,-804,0,0,0,0,0,0,0,0,0,-1,1651,1828,0,0
434,-804,0,0,0,0,0,0,0,0,0,-1,1658,1828,0,0
441,-804,0,0,0,0,0,0,0,0,0,-1,1665,1828,0,0
448,-804,0,0,0,0,0,0,0,0,0,-1,1672,1828,0,0
455,-804,0,0,0,0,0,0,0,0,0,-1,1679,1828,0,0
462,-804,0,0,0,0,0,0,0,0,0,-1,1686,1828,0,0
469,-804,0,0,0,0,0,0,0,0,0,-1,1693,1828,0,0
476,-804,0,0,0,0,0,0,0,0,0,-1,1700,1828,0,0
483,-804,0,0,0,0,0,0,0,0,0,-1,1707,1828,0,0
490,-804,0,0,0,0,0,0,0,0,0,-1,1714,1828,0,0
497,-804,0,0,0,0,0,0,0,0,0,-1,1721,1828,0,0
504,-804,0,0,0,0,0,0,0,0,0,-1,1728,1828,0,0
511,-804,0,0,0,0,0,0,0,0,0,-1,1735,1828,0,0
518,-804,0,0,0,0,0,0,0,0,0,-1,1742,1828,0,0
525,-804,0,0,0,0,0,0,0,0,0,-1,1749,1828,0,0
532,-804,0,0,0,0,0,0,0,0,0,-1,1756,1828,0,0
539,-804,0,0,0,0,0,0,0,0,0,-1,1763,1828,0,0
546,-804,0,0,0,0,0,0,0,0,0,-1,1770,1828,0,0
553,-804,0,0,0,0,0,0,0,0,0,-1,1777,1828,0,0
560,-804,0,0,0,0,0,0,0,0,0,-1,1784,1828,0,0
567,-804,0,0,0,0,0,0,0,0,0,-1,1791,1828,0,0
574,-804,0,0,0,0,0,0,0,0,0,-1,1798,1828,0,0
581,-804,0,0,0,0,0,0,0,0,0,-1,1805,1828,0,0
588,-804,0,0,0,0,0,0,0,0,0,-1,1812,1828,0,0
595,-804,0,0,0,0,0,0,0,0,0,-1,1819,1828,0,0
602,-804,0,0,0,0,0,0,0,0,0,-1,1826,1828,0,0
609,-804,0,0,0,0,0,0,0,0,0,-1,1833,1828,0,0
616,-804,0,0,0,0,0,0,0,0,0,-1,1840,1828,0,0
623,-804,0,0,0,0,0,0,0,0,0,-1,1847,1828,0,0
630,-804,0,0,0,0,0,0,0,0,0,-1,1854,1828,0,0
637,-804,0,0,0,0,0,0,0,0,0,-1,1861,1828,0,0
644,-804,0,0,0,0,0,0,0,0,0,-1,1868,1828,0,0
651,-804,0,0,0,0,0,0,0,0,0,-1,1875,1828,0,0
658,-804,0,0,0,0,0,0,0,0,0,-1,1882,1828,0,0
665,-804,0,0,0,0,0,0,0,0,0,-1,1889,1828,0,0
672,-804,0,0,0,0,0,0,0,0,0,-1,1896,1828,0,0
679,-804,0,0,0,0,0,0,0,0,0,-1,1903,1828,0,0
686,-804,0,0,0,0,0,0,0,0,0,-1,1910,1828,0,0
693,-804,0,0,0,0,0,0,0,0,0,-1,1917,1828,0,0
700,-804,0,0,0,0,0,0,0,0,0,-1,1924,1828,0,0
707,-804,0,0,0,0,0,0,0,0,0,-1,1931,1828,0,0
714,-804,0,0,0,0,0,0,0,0,0,-1,1938,1828,0,0
721,-804,0,0,0,0,0,0,0,0,0,-1,1945,1828,0,0
728,-804,0,0,0,0,0,0,0,0,0,-1,1952,1828,0,0
735,-804,0,0,0,0,0,0,0,0,0,-1,1959,1828,0,0
742,-804,0,0,0,0,0,0,0,0,0,-1,1966,1828,0,0
749,-804,0,0,0,0,0,0,0,0,0,-1,1973,1828,0,0
756,-804,0,0,0,0,0,0,0,0,0,-1,1980,1828,0,0
763,-804,0,0,0,0,0,0,0,0,0,-1,1987,1828,0,0
770,-804,0,0,0,0,0,0,0,0,0,-1,1994,1828,0,0
777,-804,0,0,0,0,0,0,0,0,0,-1,2001,1828,0,0
784,-804,0,0,0,0,0,0,0,0,0,-1,2008,1828,0,0
791,-804,0,0,0,0,0,0,0,0,0,-1,2015,1828,0,0
798,-804,0,0,0,0,0,0,0,0,0,-1,2022,1828,0,0
805,-804,0,0,0,0,0,0,0,0,0,-1,2029,1828,0,0
812,-804,0,0,0,0,0,0,0,0,0,-1,2036,1828,0,0

